Node Number	X Location (in)	Y Location (in)	Z Location (in)	Maximum Principal Stress (psi)
1	1.53	2.	0.	2357.
2	1.36	2.	0.	151.78
3	1.19	2.	0.	-10.023
4	1.02	2.	0.	6.8989
5	0.85	2.	0.	6.042
6	0.68	2.	0.	-15.778
7	0.51	2.	0.	71.413
8	0.34	2.	0.	-275.34
9	0.17	2.	0.	1092.3
10	1.8667	2.1818	0.	1361.6
11	1.8667	2.3636	0.	803.25
12	1.8667	2.5455	0.	419.77
13	1.8667	2.7273	0.	212.33
14	1.8667	2.9091	0.	116.42
15	1.8667	3.0909	0.	116.42
16	1.8667	3.2727	0.	212.33
17	1.8667	3.4545	0.	419.77
18	1.8667	3.6364	0.	803.25
19	1.8667	3.8182	0.	1361.6
20	1.53	4.	0.	2357.
21	1.36	4.	0.	151.78
22	1.19	4.	0.	-10.023
23	1.02	4.	0.	6.8989
24	0.85	4.	0.	6.042
25	0.68	4.	0.	-15.778
26	0.51	4.	0.	71.413
27	0.34	4.	0.	-275.34
28	0.17	4.	0.	1092.3
29	0.17	0.18182	0.	230.1
30	0.17	0.36364	0.	435.5
31	0.17	0.54545	0.	554.43
32	0.17	0.72727	0.	645.7
33	0.17	0.90909	0.	720.67
34	0.17	1.0909	0.	789.93
35	0.17	1.2727	0.	855.63
36	0.17	1.4545	0.	918.75
37	0.17	1.6364	0.	979.28
38	0.17	1.8182	0.	1037.1
39	0.34	0.18182	0.	197.44
40	0.34	0.36364	0.	-90.84
41	0.34	0.54545	0.	-133.94
42	0.34	0.72727	0.	-159.36
43	0.34	0.90909	0.	-179.71
44	0.34	1.0909	0.	-197.91
45	0.34	1.2727	0.	-214.92
46	0.34	1.4545	0.	-231.12
47	0.34	1.6364	0.	-246.59
48	0.34	1.8182	0.	-261.33
49	0.51	0.18182	0.	228.76
50	0.51	0.36364	0.	36.712
51	0.51	0.54545	0.	39.881
52	0.51	0.72727	0.	44.212
53	0.51	0.90909	0.	48.404
54	0.51	1.0909	0.	52.465
55	0.51	1.2727	0.	56.46
56	0.51	1.4545	0.	60.396
57	0.51	1.6364	0.	64.229
58	0.51	1.8182	0.	67.913
59	0.68	0.18182	0.	227.5
60	0.68	0.36364	0.	14.993
61	0.68	0.54545	0.	-2.4604
62	0.68	0.72727	0.	-6.3196
63	0.68	0.90909	0.	-8.6593
64	0.68	1.0909	0.	-10.398
65	0.68	1.2727	0.	-11.85
66	0.68	1.4545	0.	-13.062
67	0.68	1.6364	0.	-14.078
68	0.68	1.8182	0.	-15.004
69	0.85	0.18182	0.	222.77
70	0.85	0.36364	0.	38.248
71	0.85	0.54545	0.	12.907
72	0.85	0.72727	0.	9.3397
73	0.85	0.90909	0.	7.9566
74	0.85	1.0909	0.	7.2386
75	0.85	1.2727	0.	6.8251
76	0.85	1.4545	0.	6.5115
77	0.85	1.6364	0.	6.1713
78	0.85	1.8182	0.	6.3125
79	1.02	0.18182	0.	208.79
80	1.02	0.36364	0.	56.467
81	1.02	0.54545	0.	22.028
82	1.02	0.72727	0.	14.972
83	1.02	0.90909	0.	12.141
84	1.02	1.0909	0.	10.507
85	1.02	1.2727	0.	8.6808
86	1.02	1.4545	0.	6.5186
87	1.02	1.6364	0.	6.3601
88	1.02	1.8182	0.	4.5361
89	1.19	0.18182	0.	186.47
90	1.19	0.36364	0.	78.131
91	1.19	0.54545	0.	63.01
92	1.19	0.72727	0.	74.127
93	1.19	0.90909	0.	101.68
94	1.19	1.0909	0.	141.79
95	1.19	1.2727	0.	178.36
96	1.19	1.4545	0.	173.18
97	1.19	1.6364	0.	77.854
98	1.19	1.8182	0.	13.636
99	1.36	0.18182	0.	165.04
100	1.36	0.36364	0.	125.78
101	1.36	0.54545	0.	197.69
102	1.36	0.72727	0.	323.8
103	1.36	0.90909	0.	485.42
104	1.36	1.0909	0.	678.58
105	1.36	1.2727	0.	901.23
106	1.36	1.4545	0.	1117.4
107	1.36	1.6364	0.	1209.8
108	1.36	1.8182	0.	992.13
109	1.53	0.18182	0.	207.59
110	1.53	0.36364	0.	328.05
111	1.53	0.54545	0.	546.09
112	1.53	0.72727	0.	808.21
113	1.53	0.90909	0.	1119.4
114	1.53	1.0909	0.	1500.6
115	1.53	1.2727	0.	1990.
116	1.53	1.4545	0.	2609.2
117	1.53	1.6364	0.	3568.6
118	1.53	1.8182	0.	4048.
119	1.7	2.1818	0.	1033.5
120	1.53	2.1818	0.	465.47
121	1.36	2.1818	0.	68.249
122	1.19	2.1818	0.	-7.5408
123	1.02	2.1818	0.	7.5627
124	0.85	2.1818	0.	6.1568
125	0.68	2.1818	0.	-16.58
126	0.51	2.1818	0.	74.752
127	0.34	2.1818	0.	-288.46
128	0.17	2.1818	0.	1144.1
129	1.7	2.3636	0.	627.41
130	1.53	2.3636	0.	105.36
131	1.36	2.3636	0.	-2.0529
132	1.19	2.3636	0.	11.429
133	1.02	2.3636	0.	2.172
134	0.85	2.3636	0.	7.3768
135	0.68	2.3636	0.	-17.531
136	0.51	2.3636	0.	77.855
137	0.34	2.3636	0.	-300.31
138	0.17	2.3636	0.	1191.2
139	1.7	2.5455	0.	251.6
140	1.53	2.5455	0.	19.651
141	1.36	2.5455	0.	5.629
142	1.19	2.5455	0.	2.8898
143	1.02	2.5455	0.	1.6378
144	0.85	2.5455	0.	7.4434
145	0.68	2.5455	0.	-18.199
146	0.51	2.5455	0.	80.447
147	0.34	2.5455	0.	-310.24
148	0.17	2.5455	0.	1230.9
149	1.7	2.7273	0.	53.574
150	1.53	2.7273	0.	-5.0835
151	1.36	2.7273	0.	-5.2174e-002
152	1.19	2.7273	0.	2.0948
153	1.02	2.7273	0.	0.85969
154	0.85	2.7273	0.	7.1983
155	0.68	2.7273	0.	-18.677
156	0.51	2.7273	0.	82.327
157	0.34	2.7273	0.	-317.48
158	0.17	2.7273	0.	1259.9
159	1.7	2.9091	0.	-3.3509
160	1.53	2.9091	0.	-2.4448
161	1.36	2.9091	0.	-0.8651
162	1.19	2.9091	0.	1.1823
163	1.02	2.9091	0.	0.33092
164	0.85	2.9091	0.	7.1092
165	0.68	2.9091	0.	-18.965
166	0.51	2.9091	0.	83.32
167	0.34	2.9091	0.	-321.32
168	0.17	2.9091	0.	1275.3
169	1.7	3.0909	0.	-3.3509
170	1.53	3.0909	0.	-2.4448
171	1.36	3.0909	0.	-0.8651
172	1.19	3.0909	0.	1.1823
173	1.02	3.0909	0.	0.33092
174	0.85	3.0909	0.	7.1092
175	0.68	3.0909	0.	-18.965
176	0.51	3.0909	0.	83.32
177	0.34	3.0909	0.	-321.32
178	0.17	3.0909	0.	1275.3
179	1.7	3.2727	0.	53.574
180	1.53	3.2727	0.	-5.0835
181	1.36	3.2727	0.	-5.2174e-002
182	1.19	3.2727	0.	2.0948
183	1.02	3.2727	0.	0.85969
184	0.85	3.2727	0.	7.1983
185	0.68	3.2727	0.	-18.677
186	0.51	3.2727	0.	82.327
187	0.34	3.2727	0.	-317.48
188	0.17	3.2727	0.	1259.9
189	1.7	3.4545	0.	251.6
190	1.53	3.4545	0.	19.651
191	1.36	3.4545	0.	5.629
192	1.19	3.4545	0.	2.8898
193	1.02	3.4545	0.	1.6378
194	0.85	3.4545	0.	7.4434
195	0.68	3.4545	0.	-18.199
196	0.51	3.4545	0.	80.447
197	0.34	3.4545	0.	-310.24
198	0.17	3.4545	0.	1230.9
199	1.7	3.6364	0.	627.41
200	1.53	3.6364	0.	105.36
201	1.36	3.6364	0.	-2.0529
202	1.19	3.6364	0.	11.429
203	1.02	3.6364	0.	2.172
204	0.85	3.6364	0.	7.3768
205	0.68	3.6364	0.	-17.531
206	0.51	3.6364	0.	77.855
207	0.34	3.6364	0.	-300.31
208	0.17	3.6364	0.	1191.2
209	1.7	3.8182	0.	1033.5
210	1.53	3.8182	0.	465.46
211	1.36	3.8182	0.	68.249
212	1.19	3.8182	0.	-7.5408
213	1.02	3.8182	0.	7.5627
214	0.85	3.8182	0.	6.1568
215	0.68	3.8182	0.	-16.58
216	0.51	3.8182	0.	74.752
217	0.34	3.8182	0.	-288.46
218	0.17	3.8182	0.	1144.1
219	1.53	4.1818	0.	4048.
220	1.36	4.1818	0.	992.13
221	1.19	4.1818	0.	13.636
222	1.02	4.1818	0.	4.5361
223	0.85	4.1818	0.	6.3125
224	0.68	4.1818	0.	-15.004
225	0.51	4.1818	0.	67.913
226	0.34	4.1818	0.	-261.33
227	0.17	4.1818	0.	1037.1
228	1.53	4.3636	0.	3568.6
229	1.36	4.3636	0.	1209.8
230	1.19	4.3636	0.	77.854
231	1.02	4.3636	0.	6.3601
232	0.85	4.3636	0.	6.1713
233	0.68	4.3636	0.	-14.078
234	0.51	4.3636	0.	64.229
235	0.34	4.3636	0.	-246.59
236	0.17	4.3636	0.	979.28
237	1.53	4.5455	0.	2609.2
238	1.36	4.5455	0.	1117.4
239	1.19	4.5455	0.	173.18
240	1.02	4.5455	0.	6.5186
241	0.85	4.5455	0.	6.5115
242	0.68	4.5455	0.	-13.062
243	0.51	4.5455	0.	60.396
244	0.34	4.5455	0.	-231.12
245	0.17	4.5455	0.	918.75
246	1.53	4.7273	0.	1990.
247	1.36	4.7273	0.	901.23
248	1.19	4.7273	0.	178.36
249	1.02	4.7273	0.	8.6808
250	0.85	4.7273	0.	6.8251
251	0.68	4.7273	0.	-11.85
252	0.51	4.7273	0.	56.46
253	0.34	4.7273	0.	-214.92
254	0.17	4.7273	0.	855.63
255	1.53	4.9091	0.	1500.6
256	1.36	4.9091	0.	678.58
257	1.19	4.9091	0.	141.79
258	1.02	4.9091	0.	10.507
259	0.85	4.9091	0.	7.2386
260	0.68	4.9091	0.	-10.398
261	0.51	4.9091	0.	52.465
262	0.34	4.9091	0.	-197.91
263	0.17	4.9091	0.	789.93
264	1.53	5.0909	0.	1119.4
265	1.36	5.0909	0.	485.42
266	1.19	5.0909	0.	101.68
267	1.02	5.0909	0.	12.141
268	0.85	5.0909	0.	7.9566
269	0.68	5.0909	0.	-8.6593
270	0.51	5.0909	0.	48.404
271	0.34	5.0909	0.	-179.71
272	0.17	5.0909	0.	720.67
273	1.53	5.2727	0.	808.21
274	1.36	5.2727	0.	323.8
275	1.19	5.2727	0.	74.127
276	1.02	5.2727	0.	14.972
277	0.85	5.2727	0.	9.3397
278	0.68	5.2727	0.	-6.3196
279	0.51	5.2727	0.	44.212
280	0.34	5.2727	0.	-159.36
281	0.17	5.2727	0.	645.7
282	1.53	5.4545	0.	546.09
283	1.36	5.4545	0.	197.69
284	1.19	5.4545	0.	63.01
285	1.02	5.4545	0.	22.028
286	0.85	5.4545	0.	12.907
287	0.68	5.4545	0.	-2.4604
288	0.51	5.4545	0.	39.881
289	0.34	5.4545	0.	-133.94
290	0.17	5.4545	0.	554.43
291	1.53	5.6364	0.	328.05
292	1.36	5.6364	0.	125.78
293	1.19	5.6364	0.	78.131
294	1.02	5.6364	0.	56.467
295	0.85	5.6364	0.	38.248
296	0.68	5.6364	0.	14.993
297	0.51	5.6364	0.	36.712
298	0.34	5.6364	0.	-90.84
299	0.17	5.6364	0.	435.49
300	1.53	5.8182	0.	207.59
301	1.36	5.8182	0.	165.04
302	1.19	5.8182	0.	186.47
303	1.02	5.8182	0.	208.79
304	0.85	5.8182	0.	222.77
305	0.68	5.8182	0.	227.5
306	0.51	5.8182	0.	228.76
307	0.34	5.8182	0.	197.44
308	0.17	5.8182	0.	230.1
309	2.0511	5.8182	0.	170.93
310	2.2356	5.8182	0.	125.46
311	2.42	5.8182	0.	125.07
312	2.6044	5.8182	0.	124.58
313	2.7889	5.8182	0.	118.37
314	2.9733	5.8182	0.	108.05
315	3.1578	5.8182	0.	95.319
316	3.3422	5.8182	0.	81.68
317	3.5267	5.8182	0.	68.207
318	3.7111	5.8182	0.	55.593
319	3.8956	5.8182	0.	44.223
320	4.08	5.8182	0.	34.264
321	4.2644	5.8182	0.	25.741
322	4.4489	5.8182	0.	18.591
323	4.6333	5.8182	0.	12.707
324	4.8178	5.8182	0.	7.9592
325	5.0022	5.8182	0.	4.2276
326	5.1867	5.8182	0.	1.4831
327	5.3711	5.8182	0.	0.34253
328	5.5556	5.8182	0.	0.19337
329	5.74	5.8182	0.	0.15549
330	5.9244	5.8182	0.	0.14004
331	6.1089	5.8182	0.	0.13282
332	6.2933	5.8182	0.	0.13002
333	6.4778	5.8182	0.	0.13054
334	6.6622	5.8182	0.	0.13444
335	6.8467	5.8182	0.	0.14277
336	7.0311	5.8182	0.	0.15797
337	7.2156	5.8182	0.	0.18563
338	7.4	5.8182	0.	0.24007
339	7.5844	5.8182	0.	0.36354
340	7.7689	5.8182	0.	0.66451
341	7.9533	5.8182	0.	1.2113
342	8.1378	5.8182	0.	1.8895
343	8.3222	5.8182	0.	2.6055
344	8.5067	5.8182	0.	3.3239
345	8.6911	5.8182	0.	4.0304
346	8.8756	5.8182	0.	4.7179
347	9.06	5.8182	0.	5.3827
348	9.2444	5.8182	0.	6.0229
349	9.4289	5.8182	0.	6.6374
350	9.6133	5.8182	0.	7.2262
351	9.7978	5.8182	0.	7.7894
352	9.9822	5.8182	0.	8.3277
353	10.167	5.8182	0.	8.8422
354	10.351	5.8182	0.	9.3337
355	10.536	5.8182	0.	9.8034
356	10.72	5.8182	0.	10.253
357	10.904	5.8182	0.	10.683
358	11.089	5.8182	0.	11.095
359	11.273	5.8182	0.	11.491
360	11.458	5.8182	0.	11.871
361	11.642	5.8182	0.	12.237
362	11.827	5.8182	0.	12.591
363	12.011	5.8182	0.	12.933
364	12.196	5.8182	0.	13.264
365	12.38	5.8182	0.	13.586
366	12.564	5.8182	0.	13.9
367	12.749	5.8182	0.	14.206
368	12.933	5.8182	0.	14.506
369	13.118	5.8182	0.	14.801
370	13.302	5.8182	0.	15.091
371	13.487	5.8182	0.	15.377
372	13.671	5.8182	0.	15.661
373	13.856	5.8182	0.	15.943
374	14.04	5.8182	0.	16.223
375	14.224	5.8182	0.	16.503
376	14.409	5.8182	0.	16.783
377	14.593	5.8182	0.	17.064
378	14.778	5.8182	0.	17.346
379	14.962	5.8182	0.	17.631
380	15.147	5.8182	0.	17.918
381	15.331	5.8182	0.	18.208
382	15.516	5.8182	0.	18.503
383	15.7	5.8182	0.	18.802
384	15.884	5.8182	0.	19.106
385	16.069	5.8182	0.	19.415
386	16.253	5.8182	0.	19.731
387	16.438	5.8182	0.	20.053
388	16.622	5.8182	0.	20.383
389	16.807	5.8182	0.	20.72
390	16.991	5.8182	0.	21.065
391	17.176	5.8182	0.	21.418
392	17.36	5.8182	0.	21.78
393	17.544	5.8182	0.	22.151
394	17.729	5.8182	0.	22.532
395	17.913	5.8182	0.	22.923
396	18.098	5.8182	0.	23.323
397	18.282	5.8182	0.	23.734
398	18.467	5.8182	0.	24.155
399	18.651	5.8182	0.	24.587
400	18.836	5.8182	0.	25.028
401	19.02	5.8182	0.	25.48
402	19.204	5.8182	0.	25.941
403	19.389	5.8182	0.	26.412
404	19.573	5.8182	0.	26.892
405	19.758	5.8182	0.	27.379
406	19.942	5.8182	0.	27.874
407	20.127	5.8182	0.	28.374
408	20.311	5.8182	0.	28.879
409	20.496	5.8182	0.	29.386
410	20.68	5.8182	0.	29.892
411	20.864	5.8182	0.	30.397
412	21.049	5.8182	0.	30.895
413	21.233	5.8182	0.	31.384
414	21.418	5.8182	0.	31.859
415	21.602	5.8182	0.	32.314
416	21.787	5.8182	0.	32.744
417	21.971	5.8182	0.	33.14
418	22.156	5.8182	0.	33.493
419	22.34	5.8182	0.	33.794
420	22.524	5.8182	0.	34.027
421	22.709	5.8182	0.	34.178
422	22.893	5.8182	0.	34.227
423	23.078	5.8182	0.	34.153
424	23.262	5.8182	0.	33.939
425	23.447	5.8182	0.	33.585
426	23.631	5.8182	0.	33.238
427	23.816	5.8182	0.	34.198
428	2.0511	5.6364	0.	356.75
429	2.2356	5.6364	0.	201.83
430	2.42	5.6364	0.	177.48
431	2.6044	5.6364	0.	174.58
432	2.7889	5.6364	0.	169.8
433	2.9733	5.6364	0.	159.32
434	3.1578	5.6364	0.	143.85
435	3.3422	5.6364	0.	125.34
436	3.5267	5.6364	0.	105.64
437	3.7111	5.6364	0.	86.208
438	3.8956	5.6364	0.	68.01
439	4.08	5.6364	0.	51.61
440	4.2644	5.6364	0.	37.271
441	4.4489	5.6364	0.	25.051
442	4.6333	5.6364	0.	14.884
443	4.8178	5.6364	0.	6.6691
444	5.0022	5.6364	0.	1.0621
445	5.1867	5.6364	0.	0.22481
446	5.3711	5.6364	0.	0.13439
447	5.5556	5.6364	0.	0.10604
448	5.74	5.6364	0.	9.2881e-002
449	5.9244	5.6364	0.	8.4987e-002
450	6.1089	5.6364	0.	7.9184e-002
451	6.2933	5.6364	0.	7.4276e-002
452	6.4778	5.6364	0.	6.9756e-002
453	6.6622	5.6364	0.	6.5414e-002
454	6.8467	5.6364	0.	6.1192e-002
455	7.0311	5.6364	0.	5.7067e-002
456	7.2156	5.6364	0.	5.3041e-002
457	7.4	5.6364	0.	4.9151e-002
458	7.5844	5.6364	0.	4.5409e-002
459	7.7689	5.6364	0.	4.183e-002
460	7.9533	5.6364	0.	3.8448e-002
461	8.1378	5.6364	0.	3.528e-002
462	8.3222	5.6364	0.	3.2347e-002
463	8.5067	5.6364	0.	2.9722e-002
464	8.6911	5.6364	0.	2.7529e-002
465	8.8756	5.6364	0.	2.6215e-002
466	9.06	5.6364	0.	2.8822e-002
467	9.2444	5.6364	0.	0.33299
468	9.4289	5.6364	0.	1.2368
469	9.6133	5.6364	0.	2.105
470	9.7978	5.6364	0.	2.9284
471	9.9822	5.6364	0.	3.7077
472	10.167	5.6364	0.	4.4447
473	10.351	5.6364	0.	5.1412
474	10.536	5.6364	0.	5.7995
475	10.72	5.6364	0.	6.4218
476	10.904	5.6364	0.	7.0104
477	11.089	5.6364	0.	7.5674
478	11.273	5.6364	0.	8.0953
479	11.458	5.6364	0.	8.596
480	11.642	5.6364	0.	9.0717
481	11.827	5.6364	0.	9.5245
482	12.011	5.6364	0.	9.9561
483	12.196	5.6364	0.	10.369
484	12.38	5.6364	0.	10.764
485	12.564	5.6364	0.	11.143
486	12.749	5.6364	0.	11.508
487	12.933	5.6364	0.	11.861
488	13.118	5.6364	0.	12.202
489	13.302	5.6364	0.	12.534
490	13.487	5.6364	0.	12.857
491	13.671	5.6364	0.	13.173
492	13.856	5.6364	0.	13.484
493	14.04	5.6364	0.	13.789
494	14.224	5.6364	0.	14.091
495	14.409	5.6364	0.	14.39
496	14.593	5.6364	0.	14.688
497	14.778	5.6364	0.	14.985
498	14.962	5.6364	0.	15.282
499	15.147	5.6364	0.	15.581
500	15.331	5.6364	0.	15.882
501	15.516	5.6364	0.	16.187
502	15.7	5.6364	0.	16.496
503	15.884	5.6364	0.	16.81
504	16.069	5.6364	0.	17.13
505	16.253	5.6364	0.	17.457
506	16.438	5.6364	0.	17.791
507	16.622	5.6364	0.	18.135
508	16.807	5.6364	0.	18.488
509	16.991	5.6364	0.	18.851
510	17.176	5.6364	0.	19.226
511	17.36	5.6364	0.	19.613
512	17.544	5.6364	0.	20.013
513	17.729	5.6364	0.	20.427
514	17.913	5.6364	0.	20.857
515	18.098	5.6364	0.	21.302
516	18.282	5.6364	0.	21.764
517	18.467	5.6364	0.	22.244
518	18.651	5.6364	0.	22.742
519	18.836	5.6364	0.	23.26
520	19.02	5.6364	0.	23.798
521	19.204	5.6364	0.	24.357
522	19.389	5.6364	0.	24.938
523	19.573	5.6364	0.	25.542
524	19.758	5.6364	0.	26.17
525	19.942	5.6364	0.	26.821
526	20.127	5.6364	0.	27.497
527	20.311	5.6364	0.	28.199
528	20.496	5.6364	0.	28.926
529	20.68	5.6364	0.	29.68
530	20.864	5.6364	0.	30.46
531	21.049	5.6364	0.	31.268
532	21.233	5.6364	0.	32.103
533	21.418	5.6364	0.	32.968
534	21.602	5.6364	0.	33.862
535	21.787	5.6364	0.	34.788
536	21.971	5.6364	0.	35.749
537	22.156	5.6364	0.	36.749
538	22.34	5.6364	0.	37.797
539	22.524	5.6364	0.	38.906
540	22.709	5.6364	0.	40.097
541	22.893	5.6364	0.	41.411
542	23.078	5.6364	0.	42.918
543	23.262	5.6364	0.	44.763
544	23.447	5.6364	0.	47.222
545	23.631	5.6364	0.	51.001
546	23.816	5.6364	0.	57.458
547	2.0511	5.4545	0.	650.35
548	2.2356	5.4545	0.	385.83
549	2.42	5.4545	0.	296.77
550	2.6044	5.4545	0.	257.25
551	2.7889	5.4545	0.	230.48
552	2.9733	5.4545	0.	205.27
553	3.1578	5.4545	0.	178.83
554	3.3422	5.4545	0.	151.51
555	3.5267	5.4545	0.	124.45
556	3.7111	5.4545	0.	98.756
557	3.8956	5.4545	0.	75.216
558	4.08	5.4545	0.	54.295
559	4.2644	5.4545	0.	36.192
560	4.4489	5.4545	0.	20.928
561	4.6333	5.4545	0.	8.5448
562	4.8178	5.4545	0.	1.2607
563	5.0022	5.4545	0.	0.35029
564	5.1867	5.4545	0.	0.18822
565	5.3711	5.4545	0.	0.1254
566	5.5556	5.4545	0.	9.2595e-002
567	5.74	5.4545	0.	7.252e-002
568	5.9244	5.4545	0.	5.8939e-002
569	6.1089	5.4545	0.	4.9087e-002
570	6.2933	5.4545	0.	4.1589e-002
571	6.4778	5.4545	0.	3.5665e-002
572	6.6622	5.4545	0.	3.0845e-002
573	6.8467	5.4545	0.	2.6851e-002
574	7.0311	5.4545	0.	2.3482e-002
575	7.2156	5.4545	0.	2.0595e-002
576	7.4	5.4545	0.	1.8108e-002
577	7.5844	5.4545	0.	1.594e-002
578	7.7689	5.4545	0.	1.4032e-002
579	7.9533	5.4545	0.	1.2355e-002
580	8.1378	5.4545	0.	1.0871e-002
581	8.3222	5.4545	0.	9.5424e-003
582	8.5067	5.4545	0.	8.3679e-003
583	8.6911	5.4545	0.	7.3208e-003
584	8.8756	5.4545	0.	6.3869e-003
585	9.06	5.4545	0.	5.5735e-003
586	9.2444	5.4545	0.	4.8815e-003
587	9.4289	5.4545	0.	4.3363e-003
588	9.6133	5.4545	0.	4.0987e-003
589	9.7978	5.4545	0.	5.1308e-003
590	9.9822	5.4545	0.	0.33638
591	10.167	5.4545	0.	1.3153
592	10.351	5.4545	0.	2.2392
593	10.536	5.4545	0.	3.1081
594	10.72	5.4545	0.	3.9252
595	10.904	5.4545	0.	4.6937
596	11.089	5.4545	0.	5.4168
597	11.273	5.4545	0.	6.0978
598	11.458	5.4545	0.	6.7397
599	11.642	5.4545	0.	7.3455
600	11.827	5.4545	0.	7.9182
601	12.011	5.4545	0.	8.4603
602	12.196	5.4545	0.	8.9745
603	12.38	5.4545	0.	9.4634
604	12.564	5.4545	0.	9.9291
605	12.749	5.4545	0.	10.374
606	12.933	5.4545	0.	10.8
607	13.118	5.4545	0.	11.21
608	13.302	5.4545	0.	11.604
609	13.487	5.4545	0.	11.986
610	13.671	5.4545	0.	12.357
611	13.856	5.4545	0.	12.718
612	14.04	5.4545	0.	13.071
613	14.224	5.4545	0.	13.418
614	14.409	5.4545	0.	13.759
615	14.593	5.4545	0.	14.097
616	14.778	5.4545	0.	14.433
617	14.962	5.4545	0.	14.769
618	15.147	5.4545	0.	15.104
619	15.331	5.4545	0.	15.442
620	15.516	5.4545	0.	15.783
621	15.7	5.4545	0.	16.128
622	15.884	5.4545	0.	16.479
623	16.069	5.4545	0.	16.837
624	16.253	5.4545	0.	17.203
625	16.438	5.4545	0.	17.579
626	16.622	5.4545	0.	17.965
627	16.807	5.4545	0.	18.364
628	16.991	5.4545	0.	18.776
629	17.176	5.4545	0.	19.203
630	17.36	5.4545	0.	19.647
631	17.544	5.4545	0.	20.108
632	17.729	5.4545	0.	20.589
633	17.913	5.4545	0.	21.09
634	18.098	5.4545	0.	21.614
635	18.282	5.4545	0.	22.161
636	18.467	5.4545	0.	22.734
637	18.651	5.4545	0.	23.335
638	18.836	5.4545	0.	23.965
639	19.02	5.4545	0.	24.625
640	19.204	5.4545	0.	25.319
641	19.389	5.4545	0.	26.047
642	19.573	5.4545	0.	26.812
643	19.758	5.4545	0.	27.615
644	19.942	5.4545	0.	28.46
645	20.127	5.4545	0.	29.349
646	20.311	5.4545	0.	30.284
647	20.496	5.4545	0.	31.267
648	20.68	5.4545	0.	32.302
649	20.864	5.4545	0.	33.393
650	21.049	5.4545	0.	34.543
651	21.233	5.4545	0.	35.757
652	21.418	5.4545	0.	37.041
653	21.602	5.4545	0.	38.403
654	21.787	5.4545	0.	39.852
655	21.971	5.4545	0.	41.402
656	22.156	5.4545	0.	43.069
657	22.34	5.4545	0.	44.88
658	22.524	5.4545	0.	46.871
659	22.709	5.4545	0.	49.096
660	22.893	5.4545	0.	51.639
661	23.078	5.4545	0.	54.631
662	23.262	5.4545	0.	58.291
663	23.447	5.4545	0.	62.95
664	23.631	5.4545	0.	69.196
665	23.816	5.4545	0.	77.632
666	2.0511	5.2727	0.	1001.5
667	2.2356	5.2727	0.	632.24
668	2.42	5.2727	0.	462.48
669	2.6044	5.2727	0.	363.37
670	2.7889	5.2727	0.	295.87
671	2.9733	5.2727	0.	243.49
672	3.1578	5.2727	0.	198.95
673	3.3422	5.2727	0.	159.51
674	3.5267	5.2727	0.	124.29
675	3.7111	5.2727	0.	93.035
676	3.8956	5.2727	0.	65.703
677	4.08	5.2727	0.	42.231
678	4.2644	5.2727	0.	22.571
679	4.4489	5.2727	0.	7.3067
680	4.6333	5.2727	0.	1.2825
681	4.8178	5.2727	0.	0.48697
682	5.0022	5.2727	0.	0.27028
683	5.1867	5.2727	0.	0.17644
684	5.3711	5.2727	0.	0.12611
685	5.5556	5.2727	0.	9.5527e-002
686	5.74	5.2727	0.	7.5314e-002
687	5.9244	5.2727	0.	6.1109e-002
688	6.1089	5.2727	0.	5.064e-002
689	6.2933	5.2727	0.	4.2651e-002
690	6.4778	5.2727	0.	3.6371e-002
691	6.6622	5.2727	0.	3.1309e-002
692	6.8467	5.2727	0.	2.7165e-002
693	7.0311	5.2727	0.	2.3714e-002
694	7.2156	5.2727	0.	2.0798e-002
695	7.4	5.2727	0.	1.8319e-002
696	7.5844	5.2727	0.	1.619e-002
697	7.7689	5.2727	0.	1.434e-002
698	7.9533	5.2727	0.	1.2738e-002
699	8.1378	5.2727	0.	1.1339e-002
700	8.3222	5.2727	0.	1.0107e-002
701	8.5067	5.2727	0.	9.0341e-003
702	8.6911	5.2727	0.	8.0995e-003
703	8.8756	5.2727	0.	7.2838e-003
704	9.06	5.2727	0.	6.5951e-003
705	9.2444	5.2727	0.	6.0289e-003
706	9.4289	5.2727	0.	5.5919e-003
707	9.6133	5.2727	0.	5.3398e-003
708	9.7978	5.2727	0.	5.3271e-003
709	9.9822	5.2727	0.	5.829e-003
710	10.167	5.2727	0.	7.8247e-003
711	10.351	5.2727	0.	1.9908e-002
712	10.536	5.2727	0.	0.59566
713	10.72	5.2727	0.	1.5943
714	10.904	5.2727	0.	2.5371
715	11.089	5.2727	0.	3.4221
716	11.273	5.2727	0.	4.2528
717	11.458	5.2727	0.	5.0327
718	11.642	5.2727	0.	5.7659
719	11.827	5.2727	0.	6.4559
720	12.011	5.2727	0.	7.1063
721	12.196	5.2727	0.	7.7203
722	12.38	5.2727	0.	8.3014
723	12.564	5.2727	0.	8.8522
724	12.749	5.2727	0.	9.3757
725	12.933	5.2727	0.	9.8747
726	13.118	5.2727	0.	10.352
727	13.302	5.2727	0.	10.809
728	13.487	5.2727	0.	11.249
729	13.671	5.2727	0.	11.674
730	13.856	5.2727	0.	12.086
731	14.04	5.2727	0.	12.487
732	14.224	5.2727	0.	12.879
733	14.409	5.2727	0.	13.264
734	14.593	5.2727	0.	13.643
735	14.778	5.2727	0.	14.019
736	14.962	5.2727	0.	14.393
737	15.147	5.2727	0.	14.767
738	15.331	5.2727	0.	15.143
739	15.516	5.2727	0.	15.521
740	15.7	5.2727	0.	15.904
741	15.884	5.2727	0.	16.294
742	16.069	5.2727	0.	16.692
743	16.253	5.2727	0.	17.099
744	16.438	5.2727	0.	17.518
745	16.622	5.2727	0.	17.95
746	16.807	5.2727	0.	18.397
747	16.991	5.2727	0.	18.861
748	17.176	5.2727	0.	19.343
749	17.36	5.2727	0.	19.846
750	17.544	5.2727	0.	20.371
751	17.729	5.2727	0.	20.921
752	17.913	5.2727	0.	21.497
753	18.098	5.2727	0.	22.103
754	18.282	5.2727	0.	22.74
755	18.467	5.2727	0.	23.41
756	18.651	5.2727	0.	24.117
757	18.836	5.2727	0.	24.863
758	19.02	5.2727	0.	25.651
759	19.204	5.2727	0.	26.483
760	19.389	5.2727	0.	27.364
761	19.573	5.2727	0.	28.296
762	19.758	5.2727	0.	29.282
763	19.942	5.2727	0.	30.328
764	20.127	5.2727	0.	31.436
765	20.311	5.2727	0.	32.613
766	20.496	5.2727	0.	33.861
767	20.68	5.2727	0.	35.188
768	20.864	5.2727	0.	36.6
769	21.049	5.2727	0.	38.104
770	21.233	5.2727	0.	39.71
771	21.418	5.2727	0.	41.429
772	21.602	5.2727	0.	43.273
773	21.787	5.2727	0.	45.26
774	21.971	5.2727	0.	47.412
775	22.156	5.2727	0.	49.758
776	22.34	5.2727	0.	52.337
777	22.524	5.2727	0.	55.202
778	22.709	5.2727	0.	58.427
779	22.893	5.2727	0.	62.117
780	23.078	5.2727	0.	66.42
781	23.262	5.2727	0.	71.544
782	23.447	5.2727	0.	77.746
783	23.631	5.2727	0.	85.397
784	23.816	5.2727	0.	94.704
785	2.0511	5.0909	0.	1410.4
786	2.2356	5.0909	0.	921.8
787	2.42	5.0909	0.	657.
788	2.6044	5.0909	0.	481.38
789	2.7889	5.0909	0.	358.9
790	2.9733	5.0909	0.	269.95
791	3.1578	5.0909	0.	202.25
792	3.3422	5.0909	0.	148.75
793	3.5267	5.0909	0.	105.4
794	3.7111	5.0909	0.	69.819
795	3.8956	5.0909	0.	40.672
796	4.08	5.0909	0.	17.598
797	4.2644	5.0909	0.	4.1169
798	4.4489	5.0909	0.	1.2576
799	4.6333	5.0909	0.	0.61062
800	4.8178	5.0909	0.	0.36133
801	5.0022	5.0909	0.	0.23754
802	5.1867	5.0909	0.	0.1669
803	5.3711	5.0909	0.	0.12285
804	5.5556	5.0909	0.	9.3581e-002
805	5.74	5.0909	0.	7.3211e-002
806	5.9244	5.0909	0.	5.8494e-002
807	6.1089	5.0909	0.	4.7534e-002
808	6.2933	5.0909	0.	3.9184e-002
809	6.4778	5.0909	0.	3.2688e-002
810	6.6622	5.0909	0.	2.7544e-002
811	6.8467	5.0909	0.	2.3425e-002
812	7.0311	5.0909	0.	2.0081e-002
813	7.2156	5.0909	0.	1.7332e-002
814	7.4	5.0909	0.	1.5064e-002
815	7.5844	5.0909	0.	1.3175e-002
816	7.7689	5.0909	0.	1.1584e-002
817	7.9533	5.0909	0.	1.0249e-002
818	8.1378	5.0909	0.	9.1204e-003
819	8.3222	5.0909	0.	8.1575e-003
820	8.5067	5.0909	0.	7.3487e-003
821	8.6911	5.0909	0.	6.6662e-003
822	8.8756	5.0909	0.	6.0901e-003
823	9.06	5.0909	0.	5.6247e-003
824	9.2444	5.0909	0.	5.2593e-003
825	9.4289	5.0909	0.	4.9887e-003
826	9.6133	5.0909	0.	4.8439e-003
827	9.7978	5.0909	0.	4.8173e-003
828	9.9822	5.0909	0.	4.9968e-003
829	10.167	5.0909	0.	5.5593e-003
830	10.351	5.0909	0.	6.7451e-003
831	10.536	5.0909	0.	9.7996e-003
832	10.72	5.0909	0.	2.3982e-002
833	10.904	5.0909	0.	0.50337
834	11.089	5.0909	0.	1.5266
835	11.273	5.0909	0.	2.499
836	11.458	5.0909	0.	3.4112
837	11.642	5.0909	0.	4.2667
838	11.827	5.0909	0.	5.0697
839	12.011	5.0909	0.	5.8243
840	12.196	5.0909	0.	6.5345
841	12.38	5.0909	0.	7.2043
842	12.564	5.0909	0.	7.8371
843	12.749	5.0909	0.	8.4365
844	12.933	5.0909	0.	9.0057
845	13.118	5.0909	0.	9.5478
846	13.302	5.0909	0.	10.066
847	13.487	5.0909	0.	10.562
848	13.671	5.0909	0.	11.04
849	13.856	5.0909	0.	11.502
850	14.04	5.0909	0.	11.949
851	14.224	5.0909	0.	12.386
852	14.409	5.0909	0.	12.813
853	14.593	5.0909	0.	13.233
854	14.778	5.0909	0.	13.648
855	14.962	5.0909	0.	14.06
856	15.147	5.0909	0.	14.472
857	15.331	5.0909	0.	14.884
858	15.516	5.0909	0.	15.3
859	15.7	5.0909	0.	15.721
860	15.884	5.0909	0.	16.15
861	16.069	5.0909	0.	16.587
862	16.253	5.0909	0.	17.036
863	16.438	5.0909	0.	17.498
864	16.622	5.0909	0.	17.976
865	16.807	5.0909	0.	18.471
866	16.991	5.0909	0.	18.987
867	17.176	5.0909	0.	19.524
868	17.36	5.0909	0.	20.087
869	17.544	5.0909	0.	20.676
870	17.729	5.0909	0.	21.296
871	17.913	5.0909	0.	21.948
872	18.098	5.0909	0.	22.636
873	18.282	5.0909	0.	23.363
874	18.467	5.0909	0.	24.132
875	18.651	5.0909	0.	24.946
876	18.836	5.0909	0.	25.809
877	19.02	5.0909	0.	26.725
878	19.204	5.0909	0.	27.698
879	19.389	5.0909	0.	28.732
880	19.573	5.0909	0.	29.832
881	19.758	5.0909	0.	31.004
882	19.942	5.0909	0.	32.252
883	20.127	5.0909	0.	33.582
884	20.311	5.0909	0.	35.002
885	20.496	5.0909	0.	36.519
886	20.68	5.0909	0.	38.14
887	20.864	5.0909	0.	39.876
888	21.049	5.0909	0.	41.737
889	21.233	5.0909	0.	43.737
890	21.418	5.0909	0.	45.89
891	21.602	5.0909	0.	48.215
892	21.787	5.0909	0.	50.735
893	21.971	5.0909	0.	53.48
894	22.156	5.0909	0.	56.485
895	22.34	5.0909	0.	59.799
896	22.524	5.0909	0.	63.482
897	22.709	5.0909	0.	67.614
898	22.893	5.0909	0.	72.301
899	23.078	5.0909	0.	77.675
900	23.262	5.0909	0.	83.902
901	23.447	5.0909	0.	91.146
902	23.631	5.0909	0.	99.633
903	23.816	5.0909	0.	109.38
904	2.0511	4.9091	0.	1891.6
905	2.2356	4.9091	0.	1246.
906	2.42	4.9091	0.	861.54
907	2.6044	4.9091	0.	592.76
908	2.7889	4.9091	0.	405.72
909	2.9733	4.9091	0.	275.77
910	3.1578	4.9091	0.	183.84
911	3.3422	4.9091	0.	117.19
912	3.5267	4.9091	0.	67.82
913	3.7111	4.9091	0.	31.397
914	3.8956	4.9091	0.	9.044
915	4.08	4.9091	0.	2.7187
916	4.2644	4.9091	0.	1.254
917	4.4489	4.9091	0.	0.71033
918	4.6333	4.9091	0.	0.44766
919	4.8178	4.9091	0.	0.30144
920	5.0022	4.9091	0.	0.21258
921	5.1867	4.9091	0.	0.15523
922	5.3711	4.9091	0.	0.11651
923	5.5556	4.9091	0.	8.9431e-002
924	5.74	4.9091	0.	6.9954e-002
925	5.9244	4.9091	0.	5.5608e-002
926	6.1089	4.9091	0.	4.4821e-002
927	6.2933	4.9091	0.	3.6585e-002
928	6.4778	4.9091	0.	3.02e-002
929	6.6622	4.9091	0.	2.518e-002
930	6.8467	4.9091	0.	2.1204e-002
931	7.0311	4.9091	0.	1.8019e-002
932	7.2156	4.9091	0.	1.544e-002
933	7.4	4.9091	0.	1.3349e-002
934	7.5844	4.9091	0.	1.1638e-002
935	7.7689	4.9091	0.	1.0223e-002
936	7.9533	4.9091	0.	9.0613e-003
937	8.1378	4.9091	0.	8.0996e-003
938	8.3222	4.9091	0.	7.2962e-003
939	8.5067	4.9091	0.	6.6363e-003
940	8.6911	4.9091	0.	6.0936e-003
941	8.8756	4.9091	0.	5.6458e-003
942	9.06	4.9091	0.	5.2942e-003
943	9.2444	4.9091	0.	5.0259e-003
944	9.4289	4.9091	0.	4.831e-003
945	9.6133	4.9091	0.	4.7308e-003
946	9.7978	4.9091	0.	4.7024e-003
947	9.9822	4.9091	0.	4.7953e-003
948	10.167	4.9091	0.	5.1002e-003
949	10.351	4.9091	0.	5.6063e-003
950	10.536	4.9091	0.	6.5518e-003
951	10.72	4.9091	0.	8.5477e-003
952	10.904	4.9091	0.	1.3915e-002
953	11.089	4.9091	0.	5.4739e-002
954	11.273	4.9091	0.	0.85342
955	11.458	4.9091	0.	1.8833
956	11.642	4.9091	0.	2.8538
957	11.827	4.9091	0.	3.7639
958	12.011	4.9091	0.	4.6176
959	12.196	4.9091	0.	5.4193
960	12.38	4.9091	0.	6.1736
961	12.564	4.9091	0.	6.8846
962	12.749	4.9091	0.	7.5562
963	12.933	4.9091	0.	8.1924
964	13.118	4.9091	0.	8.7966
965	13.302	4.9091	0.	9.3723
966	13.487	4.9091	0.	9.9229
967	13.671	4.9091	0.	10.451
968	13.856	4.9091	0.	10.96
969	14.04	4.9091	0.	11.453
970	14.224	4.9091	0.	11.932
971	14.409	4.9091	0.	12.399
972	14.593	4.9091	0.	12.859
973	14.778	4.9091	0.	13.312
974	14.962	4.9091	0.	13.761
975	15.147	4.9091	0.	14.209
976	15.331	4.9091	0.	14.658
977	15.516	4.9091	0.	15.111
978	15.7	4.9091	0.	15.569
979	15.884	4.9091	0.	16.035
980	16.069	4.9091	0.	16.511
981	16.253	4.9091	0.	17.001
982	16.438	4.9091	0.	17.506
983	16.622	4.9091	0.	18.028
984	16.807	4.9091	0.	18.571
985	16.991	4.9091	0.	19.138
986	17.176	4.9091	0.	19.73
987	17.36	4.9091	0.	20.351
988	17.544	4.9091	0.	21.004
989	17.729	4.9091	0.	21.693
990	17.913	4.9091	0.	22.42
991	18.098	4.9091	0.	23.19
992	18.282	4.9091	0.	24.005
993	18.467	4.9091	0.	24.871
994	18.651	4.9091	0.	25.791
995	18.836	4.9091	0.	26.77
996	19.02	4.9091	0.	27.813
997	19.204	4.9091	0.	28.925
998	19.389	4.9091	0.	30.111
999	19.573	4.9091	0.	31.378
1000	19.758	4.9091	0.	32.732
1001	19.942	4.9091	0.	34.18
1002	20.127	4.9091	0.	35.73
1003	20.311	4.9091	0.	37.39
1004	20.496	4.9091	0.	39.171
1005	20.68	4.9091	0.	41.082
1006	20.864	4.9091	0.	43.136
1007	21.049	4.9091	0.	45.347
1008	21.233	4.9091	0.	47.731
1009	21.418	4.9091	0.	50.306
1010	21.602	4.9091	0.	53.096
1011	21.787	4.9091	0.	56.127
1012	21.971	4.9091	0.	59.433
1013	22.156	4.9091	0.	63.053
1014	22.34	4.9091	0.	67.039
1015	22.524	4.9091	0.	71.452
1016	22.709	4.9091	0.	76.369
1017	22.893	4.9091	0.	81.882
1018	23.078	4.9091	0.	88.096
1019	23.262	4.9091	0.	95.132
1020	23.447	4.9091	0.	103.08
1021	23.631	4.9091	0.	112.09
1022	23.816	4.9091	0.	122.09
1023	2.0511	4.7273	0.	2476.8
1024	2.2356	4.7273	0.	1597.6
1025	2.42	4.7273	0.	1047.5
1026	2.6044	4.7273	0.	670.45
1027	2.7889	4.7273	0.	416.94
1028	2.9733	4.7273	0.	249.25
1029	3.1578	4.7273	0.	138.02
1030	3.3422	4.7273	0.	64.057
1031	3.5267	4.7273	0.	19.477
1032	3.7111	4.7273	0.	5.297
1033	3.8956	4.7273	0.	2.3165
1034	4.08	4.7273	0.	1.2837
1035	4.2644	4.7273	0.	0.7958
1036	4.4489	4.7273	0.	0.52631
1037	4.6333	4.7273	0.	0.3634
1038	4.8178	4.7273	0.	0.25897
1039	5.0022	4.7273	0.	0.18918
1040	5.1867	4.7273	0.	0.14106
1041	5.3711	4.7273	0.	0.10703
1042	5.5556	4.7273	0.	8.2446e-002
1043	5.74	4.7273	0.	6.4389e-002
1044	5.9244	4.7273	0.	5.0916e-002
1045	6.1089	4.7273	0.	4.0722e-002
1046	6.2933	4.7273	0.	3.2931e-002
1047	6.4778	4.7273	0.	2.691e-002
1048	6.6622	4.7273	0.	2.221e-002
1049	6.8467	4.7273	0.	1.8523e-002
1050	7.0311	4.7273	0.	1.5606e-002
1051	7.2156	4.7273	0.	1.3277e-002
1052	7.4	4.7273	0.	1.142e-002
1053	7.5844	4.7273	0.	9.9287e-003
1054	7.7689	4.7273	0.	8.7202e-003
1055	7.9533	4.7273	0.	7.7494e-003
1056	8.1378	4.7273	0.	6.9645e-003
1057	8.3222	4.7273	0.	6.3246e-003
1058	8.5067	4.7273	0.	5.8147e-003
1059	8.6911	4.7273	0.	5.4088e-003
1060	8.8756	4.7273	0.	5.0835e-003
1061	9.06	4.7273	0.	4.8414e-003
1062	9.2444	4.7273	0.	4.6669e-003
1063	9.4289	4.7273	0.	4.5476e-003
1064	9.6133	4.7273	0.	4.5035e-003
1065	9.7978	4.7273	0.	4.5012e-003
1066	9.9822	4.7273	0.	4.582e-003
1067	10.167	4.7273	0.	4.8078e-003
1068	10.351	4.7273	0.	5.1185e-003
1069	10.536	4.7273	0.	5.6155e-003
1070	10.72	4.7273	0.	6.4917e-003
1071	10.904	4.7273	0.	8.0832e-003
1072	11.089	4.7273	0.	1.1757e-002
1073	11.273	4.7273	0.	2.7026e-002
1074	11.458	4.7273	0.	0.48045
1075	11.642	4.7273	0.	1.5385
1076	11.827	4.7273	0.	2.5472
1077	12.011	4.7273	0.	3.4936
1078	12.196	4.7273	0.	4.3813
1079	12.38	4.7273	0.	5.2151
1080	12.564	4.7273	0.	5.9996
1081	12.749	4.7273	0.	6.7393
1082	12.933	4.7273	0.	7.4386
1083	13.118	4.7273	0.	8.1014
1084	13.302	4.7273	0.	8.7317
1085	13.487	4.7273	0.	9.3332
1086	13.671	4.7273	0.	9.9093
1087	13.856	4.7273	0.	10.463
1088	14.04	4.7273	0.	10.998
1089	14.224	4.7273	0.	11.518
1090	14.409	4.7273	0.	12.024
1091	14.593	4.7273	0.	12.521
1092	14.778	4.7273	0.	13.01
1093	14.962	4.7273	0.	13.495
1094	15.147	4.7273	0.	13.978
1095	15.331	4.7273	0.	14.462
1096	15.516	4.7273	0.	14.949
1097	15.7	4.7273	0.	15.443
1098	15.884	4.7273	0.	15.945
1099	16.069	4.7273	0.	16.46
1100	16.253	4.7273	0.	16.988
1101	16.438	4.7273	0.	17.534
1102	16.622	4.7273	0.	18.1
1103	16.807	4.7273	0.	18.689
1104	16.991	4.7273	0.	19.305
1105	17.176	4.7273	0.	19.95
1106	17.36	4.7273	0.	20.629
1107	17.544	4.7273	0.	21.344
1108	17.729	4.7273	0.	22.099
1109	17.913	4.7273	0.	22.899
1110	18.098	4.7273	0.	23.748
1111	18.282	4.7273	0.	24.649
1112	18.467	4.7273	0.	25.609
1113	18.651	4.7273	0.	26.632
1114	18.836	4.7273	0.	27.724
1115	19.02	4.7273	0.	28.889
1116	19.204	4.7273	0.	30.136
1117	19.389	4.7273	0.	31.469
1118	19.573	4.7273	0.	32.898
1119	19.758	4.7273	0.	34.429
1120	19.942	4.7273	0.	36.071
1121	20.127	4.7273	0.	37.833
1122	20.311	4.7273	0.	39.726
1123	20.496	4.7273	0.	41.762
1124	20.68	4.7273	0.	43.952
1125	20.864	4.7273	0.	46.312
1126	21.049	4.7273	0.	48.857
1127	21.233	4.7273	0.	51.607
1128	21.418	4.7273	0.	54.582
1129	21.602	4.7273	0.	57.807
1130	21.787	4.7273	0.	61.313
1131	21.971	4.7273	0.	65.134
1132	22.156	4.7273	0.	69.311
1133	22.34	4.7273	0.	73.892
1134	22.524	4.7273	0.	78.937
1135	22.709	4.7273	0.	84.511
1136	22.893	4.7273	0.	90.69
1137	23.078	4.7273	0.	97.552
1138	23.262	4.7273	0.	105.18
1139	23.447	4.7273	0.	113.62
1140	23.631	4.7273	0.	122.98
1141	23.816	4.7273	0.	133.12
1142	2.0511	4.5455	0.	3193.9
1143	2.2356	4.5455	0.	1927.8
1144	2.42	4.5455	0.	1167.7
1145	2.6044	4.5455	0.	677.13
1146	2.7889	4.5455	0.	370.18
1147	2.9733	4.5455	0.	179.77
1148	3.1578	4.5455	0.	64.064
1149	3.3422	4.5455	0.	13.085
1150	3.5267	4.5455	0.	4.3583
1151	3.7111	4.5455	0.	2.2273
1152	3.8956	4.5455	0.	1.34
1153	4.08	4.5455	0.	0.87334
1154	4.2644	4.5455	0.	0.59637
1155	4.4489	4.5455	0.	0.42006
1156	4.6333	4.5455	0.	0.30265
1157	4.8178	4.5455	0.	0.22198
1158	5.0022	4.5455	0.	0.16523
1159	5.1867	4.5455	0.	0.1246
1160	5.3711	4.5455	0.	9.5052e-002
1161	5.5556	4.5455	0.	7.3288e-002
1162	5.74	4.5455	0.	5.7089e-002
1163	5.9244	4.5455	0.	4.4909e-002
1164	6.1089	4.5455	0.	3.5663e-002
1165	6.2933	4.5455	0.	2.8602e-002
1166	6.4778	4.5455	0.	2.3169e-002
1167	6.6622	4.5455	0.	1.8955e-002
1168	6.8467	4.5455	0.	1.5682e-002
1169	7.0311	4.5455	0.	1.3124e-002
1170	7.2156	4.5455	0.	1.1109e-002
1171	7.4	4.5455	0.	9.5298e-003
1172	7.5844	4.5455	0.	8.2858e-003
1173	7.7689	4.5455	0.	7.297e-003
1174	7.9533	4.5455	0.	6.5224e-003
1175	8.1378	4.5455	0.	5.9149e-003
1176	8.3222	4.5455	0.	5.4326e-003
1177	8.5067	4.5455	0.	5.0642e-003
1178	8.6911	4.5455	0.	4.7828e-003
1179	8.8756	4.5455	0.	4.5692e-003
1180	9.06	4.5455	0.	4.4226e-003
1181	9.2444	4.5455	0.	4.3301e-003
1182	9.4289	4.5455	0.	4.2796e-003
1183	9.6133	4.5455	0.	4.2865e-003
1184	9.7978	4.5455	0.	4.317e-003
1185	9.9822	4.5455	0.	4.405e-003
1186	10.167	4.5455	0.	4.6059e-003
1187	10.351	4.5455	0.	4.8376e-003
1188	10.536	4.5455	0.	5.1641e-003
1189	10.72	4.5455	0.	5.688e-003
1190	10.904	4.5455	0.	6.488e-003
1191	11.089	4.5455	0.	7.9103e-003
1192	11.273	4.5455	0.	1.1018e-002
1193	11.458	4.5455	0.	2.2182e-002
1194	11.642	4.5455	0.	0.35763
1195	11.827	4.5455	0.	1.4293
1196	12.011	4.5455	0.	2.4599
1197	12.196	4.5455	0.	3.427
1198	12.38	4.5455	0.	4.3346
1199	12.564	4.5455	0.	5.1873
1200	12.749	4.5455	0.	5.9902
1201	12.933	4.5455	0.	6.7481
1202	13.118	4.5455	0.	7.4655
1203	13.302	4.5455	0.	8.1466
1204	13.487	4.5455	0.	8.7955
1205	13.671	4.5455	0.	9.416
1206	13.856	4.5455	0.	10.012
1207	14.04	4.5455	0.	10.587
1208	14.224	4.5455	0.	11.144
1209	14.409	4.5455	0.	11.686
1210	14.593	4.5455	0.	12.218
1211	14.778	4.5455	0.	12.741
1212	14.962	4.5455	0.	13.259
1213	15.147	4.5455	0.	13.775
1214	15.331	4.5455	0.	14.292
1215	15.516	4.5455	0.	14.812
1216	15.7	4.5455	0.	15.34
1217	15.884	4.5455	0.	15.877
1218	16.069	4.5455	0.	16.427
1219	16.253	4.5455	0.	16.993
1220	16.438	4.5455	0.	17.578
1221	16.622	4.5455	0.	18.185
1222	16.807	4.5455	0.	18.818
1223	16.991	4.5455	0.	19.481
1224	17.176	4.5455	0.	20.176
1225	17.36	4.5455	0.	20.909
1226	17.544	4.5455	0.	21.683
1227	17.729	4.5455	0.	22.502
1228	17.913	4.5455	0.	23.371
1229	18.098	4.5455	0.	24.295
1230	18.282	4.5455	0.	25.279
1231	18.467	4.5455	0.	26.328
1232	18.651	4.5455	0.	27.449
1233	18.836	4.5455	0.	28.648
1234	19.02	4.5455	0.	29.931
1235	19.204	4.5455	0.	31.305
1236	19.389	4.5455	0.	32.779
1237	19.573	4.5455	0.	34.361
1238	19.758	4.5455	0.	36.06
1239	19.942	4.5455	0.	37.886
1240	20.127	4.5455	0.	39.85
1241	20.311	4.5455	0.	41.963
1242	20.496	4.5455	0.	44.239
1243	20.68	4.5455	0.	46.693
1244	20.864	4.5455	0.	49.339
1245	21.049	4.5455	0.	52.197
1246	21.233	4.5455	0.	55.287
1247	21.418	4.5455	0.	58.631
1248	21.602	4.5455	0.	62.256
1249	21.787	4.5455	0.	66.192
1250	21.971	4.5455	0.	70.473
1251	22.156	4.5455	0.	75.14
1252	22.34	4.5455	0.	80.237
1253	22.524	4.5455	0.	85.815
1254	22.709	4.5455	0.	91.928
1255	22.893	4.5455	0.	98.637
1256	23.078	4.5455	0.	106.
1257	23.262	4.5455	0.	114.06
1258	23.447	4.5455	0.	122.85
1259	23.631	4.5455	0.	132.44
1260	23.816	4.5455	0.	142.68
1261	2.0511	4.3636	0.	4209.1
1262	2.2356	4.3636	0.	2141.8
1263	2.42	4.3636	0.	1124.4
1264	2.6044	4.3636	0.	570.69
1265	2.7889	4.3636	0.	249.38
1266	2.9733	4.3636	0.	70.018
1267	3.1578	4.3636	0.	11.189
1268	3.3422	4.3636	0.	4.1809
1269	3.5267	4.3636	0.	2.2634
1270	3.7111	4.3636	0.	1.4141
1271	3.8956	4.3636	0.	0.94578
1272	4.08	4.3636	0.	0.65841
1273	4.2644	4.3636	0.	0.47004
1274	4.4489	4.3636	0.	0.34154
1275	4.6333	4.3636	0.	0.25149
1276	4.8178	4.3636	0.	0.18719
1277	5.0022	4.3636	0.	0.1406
1278	5.1867	4.3636	0.	0.1065
1279	5.3711	4.3636	0.	8.1298e-002
1280	5.5556	4.3636	0.	6.2523e-002
1281	5.74	4.3636	0.	4.8454e-002
1282	5.9244	4.3636	0.	3.7843e-002
1283	6.1089	4.3636	0.	2.9792e-002
1284	6.2933	4.3636	0.	2.3666e-002
1285	6.4778	4.3636	0.	1.8983e-002
1286	6.6622	4.3636	0.	1.5383e-002
1287	6.8467	4.3636	0.	1.2621e-002
1288	7.0311	4.3636	0.	1.0494e-002
1289	7.2156	4.3636	0.	8.847e-003
1290	7.4	4.3636	0.	7.5841e-003
1291	7.5844	4.3636	0.	6.6128e-003
1292	7.7689	4.3636	0.	5.8622e-003
1293	7.9533	4.3636	0.	5.2961e-003
1294	8.1378	4.3636	0.	4.8698e-003
1295	8.3222	4.3636	0.	4.5469e-003
1296	8.5067	4.3636	0.	4.3179e-003
1297	8.6911	4.3636	0.	4.1596e-003
1298	8.8756	4.3636	0.	4.052e-003
1299	9.06	4.3636	0.	3.9977e-003
1300	9.2444	4.3636	0.	3.9846e-003
1301	9.4289	4.3636	0.	3.9983e-003
1302	9.6133	4.3636	0.	4.0573e-003
1303	9.7978	4.3636	0.	4.1247e-003
1304	9.9822	4.3636	0.	4.2324e-003
1305	10.167	4.3636	0.	4.4318e-003
1306	10.351	4.3636	0.	4.6317e-003
1307	10.536	4.3636	0.	4.8814e-003
1308	10.72	4.3636	0.	5.2512e-003
1309	10.904	4.3636	0.	5.75e-003
1310	11.089	4.3636	0.	6.5234e-003
1311	11.273	4.3636	0.	7.8962e-003
1312	11.458	4.3636	0.	1.0797e-002
1313	11.642	4.3636	0.	2.203e-002
1314	11.827	4.3636	0.	0.43358
1315	12.011	4.3636	0.	1.5238
1316	12.196	4.3636	0.	2.5624
1317	12.38	4.3636	0.	3.5372
1318	12.564	4.3636	0.	4.4524
1319	12.749	4.3636	0.	5.3131
1320	12.933	4.3636	0.	6.1247
1321	13.118	4.3636	0.	6.8919
1322	13.302	4.3636	0.	7.6194
1323	13.487	4.3636	0.	8.3119
1324	13.671	4.3636	0.	8.9732
1325	13.856	4.3636	0.	9.6076
1326	14.04	4.3636	0.	10.219
1327	14.224	4.3636	0.	10.811
1328	14.409	4.3636	0.	11.387
1329	14.593	4.3636	0.	11.95
1330	14.778	4.3636	0.	12.505
1331	14.962	4.3636	0.	13.053
1332	15.147	4.3636	0.	13.6
1333	15.331	4.3636	0.	14.147
1334	15.516	4.3636	0.	14.698
1335	15.7	4.3636	0.	15.257
1336	15.884	4.3636	0.	15.826
1337	16.069	4.3636	0.	16.409
1338	16.253	4.3636	0.	17.01
1339	16.438	4.3636	0.	17.631
1340	16.622	4.3636	0.	18.277
1341	16.807	4.3636	0.	18.951
1342	16.991	4.3636	0.	19.657
1343	17.176	4.3636	0.	20.4
1344	17.36	4.3636	0.	21.183
1345	17.544	4.3636	0.	22.012
1346	17.729	4.3636	0.	22.89
1347	17.913	4.3636	0.	23.824
1348	18.098	4.3636	0.	24.818
1349	18.282	4.3636	0.	25.879
1350	18.467	4.3636	0.	27.012
1351	18.651	4.3636	0.	28.224
1352	18.836	4.3636	0.	29.522
1353	19.02	4.3636	0.	30.915
1354	19.204	4.3636	0.	32.409
1355	19.389	4.3636	0.	34.014
1356	19.573	4.3636	0.	35.738
1357	19.758	4.3636	0.	37.594
1358	19.942	4.3636	0.	39.591
1359	20.127	4.3636	0.	41.741
1360	20.311	4.3636	0.	44.059
1361	20.496	4.3636	0.	46.557
1362	20.68	4.3636	0.	49.253
1363	20.864	4.3636	0.	52.163
1364	21.049	4.3636	0.	55.306
1365	21.233	4.3636	0.	58.705
1366	21.418	4.3636	0.	62.382
1367	21.602	4.3636	0.	66.364
1368	21.787	4.3636	0.	70.681
1369	21.971	4.3636	0.	75.366
1370	22.156	4.3636	0.	80.455
1371	22.34	4.3636	0.	85.988
1372	22.524	4.3636	0.	92.008
1373	22.709	4.3636	0.	98.558
1374	22.893	4.3636	0.	105.68
1375	23.078	4.3636	0.	113.42
1376	23.262	4.3636	0.	121.81
1377	23.447	4.3636	0.	130.86
1378	23.631	4.3636	0.	140.62
1379	23.816	4.3636	0.	150.91
1380	2.0511	4.1818	0.	4781.5
1381	2.2356	4.1818	0.	1963.6
1382	2.42	4.1818	0.	831.17
1383	2.6044	4.1818	0.	334.36
1384	2.7889	4.1818	0.	74.325
1385	2.9733	4.1818	0.	10.614
1386	3.1578	4.1818	0.	4.1725
1387	3.3422	4.1818	0.	2.3458
1388	3.5267	4.1818	0.	1.4864
1389	3.7111	4.1818	0.	1.0105
1390	3.8956	4.1818	0.	0.71111
1391	4.08	4.1818	0.	0.5122
1392	4.2644	4.1818	0.	0.37426
1393	4.4489	4.1818	0.	0.27631
1394	4.6333	4.1818	0.	0.20557
1395	4.8178	4.1818	0.	0.1539
1396	5.0022	4.1818	0.	0.11583
1397	5.1867	4.1818	0.	8.7619e-002
1398	5.3711	4.1818	0.	6.66e-002
1399	5.5556	4.1818	0.	5.0868e-002
1400	5.74	4.1818	0.	3.9064e-002
1401	5.9244	4.1818	0.	3.0178e-002
1402	6.1089	4.1818	0.	2.3466e-002
1403	6.2933	4.1818	0.	1.84e-002
1404	6.4778	4.1818	0.	1.4567e-002
1405	6.6622	4.1818	0.	1.1662e-002
1406	6.8467	4.1818	0.	9.4718e-003
1407	7.0311	4.1818	0.	7.8203e-003
1408	7.2156	4.1818	0.	6.574e-003
1409	7.4	4.1818	0.	5.6486e-003
1410	7.5844	4.1818	0.	4.9659e-003
1411	7.7689	4.1818	0.	4.4606e-003
1412	7.9533	4.1818	0.	4.1055e-003
1413	8.1378	4.1818	0.	3.8617e-003
1414	8.3222	4.1818	0.	3.6956e-003
1415	8.5067	4.1818	0.	3.6029e-003
1416	8.6911	4.1818	0.	3.5624e-003
1417	8.8756	4.1818	0.	3.5561e-003
1418	9.06	4.1818	0.	3.5894e-003
1419	9.2444	4.1818	0.	3.6499e-003
1420	9.4289	4.1818	0.	3.7246e-003
1421	9.6133	4.1818	0.	3.8344e-003
1422	9.7978	4.1818	0.	3.9388e-003
1423	9.9822	4.1818	0.	4.0716e-003
1424	10.167	4.1818	0.	4.2795e-003
1425	10.351	4.1818	0.	4.4687e-003
1426	10.536	4.1818	0.	4.6818e-003
1427	10.72	4.1818	0.	4.9762e-003
1428	10.904	4.1818	0.	5.3302e-003
1429	11.089	4.1818	0.	5.8284e-003
1430	11.273	4.1818	0.	6.6125e-003
1431	11.458	4.1818	0.	7.9271e-003
1432	11.642	4.1818	0.	1.0968e-002
1433	11.827	4.1818	0.	2.7202e-002
1434	12.011	4.1818	0.	0.69567
1435	12.196	4.1818	0.	1.7933
1436	12.38	4.1818	0.	2.8281
1437	12.564	4.1818	0.	3.7991
1438	12.749	4.1818	0.	4.7118
1439	12.933	4.1818	0.	5.5715
1440	13.118	4.1818	0.	6.3835
1441	13.302	4.1818	0.	7.1528
1442	13.487	4.1818	0.	7.8842
1443	13.671	4.1818	0.	8.5822
1444	13.856	4.1818	0.	9.2512
1445	14.04	4.1818	0.	9.8952
1446	14.224	4.1818	0.	10.518
1447	14.409	4.1818	0.	11.124
1448	14.593	4.1818	0.	11.717
1449	14.778	4.1818	0.	12.3
1450	14.962	4.1818	0.	12.876
1451	15.147	4.1818	0.	13.45
1452	15.331	4.1818	0.	14.025
1453	15.516	4.1818	0.	14.604
1454	15.7	4.1818	0.	15.191
1455	15.884	4.1818	0.	15.789
1456	16.069	4.1818	0.	16.403
1457	16.253	4.1818	0.	17.035
1458	16.438	4.1818	0.	17.689
1459	16.622	4.1818	0.	18.37
1460	16.807	4.1818	0.	19.081
1461	16.991	4.1818	0.	19.828
1462	17.176	4.1818	0.	20.613
1463	17.36	4.1818	0.	21.443
1464	17.544	4.1818	0.	22.321
1465	17.729	4.1818	0.	23.254
1466	17.913	4.1818	0.	24.247
1467	18.098	4.1818	0.	25.305
1468	18.282	4.1818	0.	26.435
1469	18.467	4.1818	0.	27.645
1470	18.651	4.1818	0.	28.94
1471	18.836	4.1818	0.	30.33
1472	19.02	4.1818	0.	31.822
1473	19.204	4.1818	0.	33.425
1474	19.389	4.1818	0.	35.148
1475	19.573	4.1818	0.	37.003
1476	19.758	4.1818	0.	39.001
1477	19.942	4.1818	0.	41.153
1478	20.127	4.1818	0.	43.473
1479	20.311	4.1818	0.	45.975
1480	20.496	4.1818	0.	48.674
1481	20.68	4.1818	0.	51.587
1482	20.864	4.1818	0.	54.733
1483	21.049	4.1818	0.	58.132
1484	21.233	4.1818	0.	61.804
1485	21.418	4.1818	0.	65.775
1486	21.602	4.1818	0.	70.07
1487	21.787	4.1818	0.	74.717
1488	21.971	4.1818	0.	79.747
1489	22.156	4.1818	0.	85.192
1490	22.34	4.1818	0.	91.087
1491	22.524	4.1818	0.	97.468
1492	22.709	4.1818	0.	104.37
1493	22.893	4.1818	0.	111.82
1494	23.078	4.1818	0.	119.85
1495	23.262	4.1818	0.	128.49
1496	23.447	4.1818	0.	137.72
1497	23.631	4.1818	0.	147.6
1498	23.816	4.1818	0.	157.94
1499	2.0511	4.	0.	3075.1
1500	2.2356	4.	0.	1045.8
1501	2.42	4.	0.	369.12
1502	2.6044	4.	0.	61.338
1503	2.7889	4.	0.	8.4662
1504	2.9733	4.	0.	4.3071
1505	3.1578	4.	0.	2.3161
1506	3.3422	4.	0.	1.5514
1507	3.5267	4.	0.	1.0551
1508	3.7111	4.	0.	0.7539
1509	3.8956	4.	0.	0.54589
1510	4.08	4.	0.	0.40078
1511	4.2644	4.	0.	0.29622
1512	4.4489	4.	0.	0.22007
1513	4.6333	4.	0.	0.16406
1514	4.8178	4.	0.	0.12263
1515	5.0022	4.	0.	9.1847e-002
1516	5.1867	4.	0.	6.8933e-002
1517	5.3711	4.	0.	5.1838e-002
1518	5.5556	4.	0.	3.9061e-002
1519	5.74	4.	0.	2.9519e-002
1520	5.9244	4.	0.	2.239e-002
1521	6.1089	4.	0.	1.706e-002
1522	6.2933	4.	0.	1.3095e-002
1523	6.4778	4.	0.	1.015e-002
1524	6.6622	4.	0.	7.9653e-003
1525	6.8467	4.	0.	6.3675e-003
1526	7.0311	4.	0.	5.2061e-003
1527	7.2156	4.	0.	4.3673e-003
1528	7.4	4.	0.	3.784e-003
1529	7.5844	4.	0.	3.3881e-003
1530	7.7689	4.	0.	3.1276e-003
1531	7.9533	4.	0.	2.9792e-003
1532	8.1378	4.	0.	2.9111e-003
1533	8.3222	4.	0.	2.8959e-003
1534	8.5067	4.	0.	2.9317e-003
1535	8.6911	4.	0.	3.0018e-003
1536	8.8756	4.	0.	3.0906e-003
1537	9.06	4.	0.	3.2045e-003
1538	9.2444	4.	0.	3.3337e-003
1539	9.4289	4.	0.	3.4664e-003
1540	9.6133	4.	0.	3.6217e-003
1541	9.7978	4.	0.	3.764e-003
1542	9.9822	4.	0.	3.9218e-003
1543	10.167	4.	0.	4.1444e-003
1544	10.351	4.	0.	4.3349e-003
1545	10.536	4.	0.	4.5324e-003
1546	10.72	4.	0.	4.7857e-003
1547	10.904	4.	0.	5.0614e-003
1548	11.089	4.	0.	5.4181e-003
1549	11.273	4.	0.	5.9366e-003
1550	11.458	4.	0.	6.6722e-003
1551	11.642	4.	0.	8.0198e-003
1552	11.827	4.	0.	1.1771e-002
1553	12.011	4.	0.	7.8402e-002
1554	12.196	4.	0.	1.125
1555	12.38	4.	0.	2.2114
1556	12.564	4.	0.	3.2314
1557	12.749	4.	0.	4.1896
1558	12.933	4.	0.	5.0915
1559	13.118	4.	0.	5.9427
1560	13.302	4.	0.	6.7486
1561	13.487	4.	0.	7.5143
1562	13.671	4.	0.	8.2445
1563	13.856	4.	0.	8.9438
1564	14.04	4.	0.	9.6166
1565	14.224	4.	0.	10.267
1566	14.409	4.	0.	10.9
1567	14.593	4.	0.	11.518
1568	14.778	4.	0.	12.125
1569	14.962	4.	0.	12.727
1570	15.147	4.	0.	13.325
1571	15.331	4.	0.	13.924
1572	15.516	4.	0.	14.528
1573	15.7	4.	0.	15.14
1574	15.884	4.	0.	15.764
1575	16.069	4.	0.	16.404
1576	16.253	4.	0.	17.064
1577	16.438	4.	0.	17.748
1578	16.622	4.	0.	18.46
1579	16.807	4.	0.	19.204
1580	16.991	4.	0.	19.986
1581	17.176	4.	0.	20.809
1582	17.36	4.	0.	21.68
1583	17.544	4.	0.	22.603
1584	17.729	4.	0.	23.584
1585	17.913	4.	0.	24.629
1586	18.098	4.	0.	25.744
1587	18.282	4.	0.	26.936
1588	18.467	4.	0.	28.214
1589	18.651	4.	0.	29.583
1590	18.836	4.	0.	31.053
1591	19.02	4.	0.	32.633
1592	19.204	4.	0.	34.333
1593	19.389	4.	0.	36.162
1594	19.573	4.	0.	38.132
1595	19.758	4.	0.	40.256
1596	19.942	4.	0.	42.545
1597	20.127	4.	0.	45.014
1598	20.311	4.	0.	47.678
1599	20.496	4.	0.	50.554
1600	20.68	4.	0.	53.658
1601	20.864	4.	0.	57.01
1602	21.049	4.	0.	60.629
1603	21.233	4.	0.	64.539
1604	21.418	4.	0.	68.761
1605	21.602	4.	0.	73.322
1606	21.787	4.	0.	78.248
1607	21.971	4.	0.	83.567
1608	22.156	4.	0.	89.307
1609	22.34	4.	0.	95.498
1610	22.524	4.	0.	102.17
1611	22.709	4.	0.	109.35
1612	22.893	4.	0.	117.05
1613	23.078	4.	0.	125.31
1614	23.262	4.	0.	134.12
1615	23.447	4.	0.	143.49
1616	23.631	4.	0.	153.47
1617	23.816	4.	0.	163.83
1618	2.0511	3.8182	0.	946.79
1619	2.2356	3.8182	0.	319.14
1620	2.42	3.8182	0.	13.942
1621	2.6044	3.8182	0.	10.954
1622	2.7889	3.8182	0.	2.6724
1623	2.9733	3.8182	0.	2.5389
1624	3.1578	3.8182	0.	1.4924
1625	3.3422	3.8182	0.	1.1047
1626	3.5267	3.8182	0.	0.78435
1627	3.7111	3.8182	0.	0.57681
1628	3.8956	3.8182	0.	0.42409
1629	4.08	3.8182	0.	0.31373
1630	4.2644	3.8182	0.	0.23229
1631	4.4489	3.8182	0.	0.17212
1632	4.6333	3.8182	0.	0.12749
1633	4.8178	3.8182	0.	9.436e-002
1634	5.0022	3.8182	0.	6.9737e-002
1635	5.1867	3.8182	0.	5.1459e-002
1636	5.3711	3.8182	0.	3.7897e-002
1637	5.5556	3.8182	0.	2.7846e-002
1638	5.74	3.8182	0.	2.0428e-002
1639	5.9244	3.8182	0.	1.497e-002
1640	6.1089	3.8182	0.	1.0967e-002
1641	6.2933	3.8182	0.	8.0648e-003
1642	6.4778	3.8182	0.	5.9779e-003
1643	6.6622	3.8182	0.	4.4917e-003
1644	6.8467	3.8182	0.	3.4646e-003
1645	7.0311	3.8182	0.	2.774e-003
1646	7.2156	3.8182	0.	2.3254e-003
1647	7.4	3.8182	0.	2.0663e-003
1648	7.5844	3.8182	0.	1.943e-003
1649	7.7689	3.8182	0.	1.9102e-003
1650	7.9533	3.8182	0.	1.9546e-003
1651	8.1378	3.8182	0.	2.0487e-003
1652	8.3222	3.8182	0.	2.1726e-003
1653	8.5067	3.8182	0.	2.327e-003
1654	8.6911	3.8182	0.	2.4972e-003
1655	8.8756	3.8182	0.	2.6702e-003
1656	9.06	3.8182	0.	2.857e-003
1657	9.2444	3.8182	0.	3.0469e-003
1658	9.4289	3.8182	0.	3.2317e-003
1659	9.6133	3.8182	0.	3.429e-003
1660	9.7978	3.8182	0.	3.6048e-003
1661	9.9822	3.8182	0.	3.7875e-003
1662	10.167	3.8182	0.	4.0257e-003
1663	10.351	3.8182	0.	4.2227e-003
1664	10.536	3.8182	0.	4.4131e-003
1665	10.72	3.8182	0.	4.6457e-003
1666	10.904	3.8182	0.	4.8778e-003
1667	11.089	3.8182	0.	5.1571e-003
1668	11.273	3.8182	0.	5.5327e-003
1669	11.458	3.8182	0.	5.9971e-003
1670	11.642	3.8182	0.	6.7165e-003
1671	11.827	3.8182	0.	8.245e-003
1672	12.011	3.8182	0.	1.4796e-002
1673	12.196	3.8182	0.	0.56328
1674	12.38	3.8182	0.	1.6911
1675	12.564	3.8182	0.	2.7527
1676	12.749	3.8182	0.	3.7495
1677	12.933	3.8182	0.	4.6873
1678	13.118	3.8182	0.	5.5719
1679	13.302	3.8182	0.	6.4089
1680	13.487	3.8182	0.	7.2037
1681	13.671	3.8182	0.	7.9612
1682	13.856	3.8182	0.	8.6863
1683	14.04	3.8182	0.	9.3836
1684	14.224	3.8182	0.	10.058
1685	14.409	3.8182	0.	10.712
1686	14.593	3.8182	0.	11.352
1687	14.778	3.8182	0.	11.981
1688	14.962	3.8182	0.	12.603
1689	15.147	3.8182	0.	13.222
1690	15.331	3.8182	0.	13.842
1691	15.516	3.8182	0.	14.467
1692	15.7	3.8182	0.	15.101
1693	15.884	3.8182	0.	15.747
1694	16.069	3.8182	0.	16.41
1695	16.253	3.8182	0.	17.093
1696	16.438	3.8182	0.	17.802
1697	16.622	3.8182	0.	18.541
1698	16.807	3.8182	0.	19.314
1699	16.991	3.8182	0.	20.126
1700	17.176	3.8182	0.	20.982
1701	17.36	3.8182	0.	21.888
1702	17.544	3.8182	0.	22.849
1703	17.729	3.8182	0.	23.871
1704	17.913	3.8182	0.	24.961
1705	18.098	3.8182	0.	26.125
1706	18.282	3.8182	0.	27.371
1707	18.467	3.8182	0.	28.706
1708	18.651	3.8182	0.	30.139
1709	18.836	3.8182	0.	31.679
1710	19.02	3.8182	0.	33.334
1711	19.204	3.8182	0.	35.117
1712	19.389	3.8182	0.	37.036
1713	19.573	3.8182	0.	39.105
1714	19.758	3.8182	0.	41.336
1715	19.942	3.8182	0.	43.742
1716	20.127	3.8182	0.	46.338
1717	20.311	3.8182	0.	49.141
1718	20.496	3.8182	0.	52.166
1719	20.68	3.8182	0.	55.431
1720	20.864	3.8182	0.	58.957
1721	21.049	3.8182	0.	62.762
1722	21.233	3.8182	0.	66.87
1723	21.418	3.8182	0.	71.302
1724	21.602	3.8182	0.	76.083
1725	21.787	3.8182	0.	81.238
1726	21.971	3.8182	0.	86.791
1727	22.156	3.8182	0.	92.768
1728	22.34	3.8182	0.	99.194
1729	22.524	3.8182	0.	106.09
1730	22.709	3.8182	0.	113.48
1731	22.893	3.8182	0.	121.39
1732	23.078	3.8182	0.	129.81
1733	23.262	3.8182	0.	138.77
1734	23.447	3.8182	0.	148.24
1735	23.631	3.8182	0.	158.28
1736	23.816	3.8182	0.	168.66
1737	2.0511	3.6364	0.	524.08
1738	2.2356	3.6364	0.	39.975
1739	2.42	3.6364	0.	9.6376
1740	2.6044	3.6364	0.	2.4736
1741	2.7889	3.6364	0.	2.2531
1742	2.9733	3.6364	0.	1.5949
1743	3.1578	3.6364	0.	1.137
1744	3.3422	3.6364	0.	0.84291
1745	3.5267	3.6364	0.	0.61878
1746	3.7111	3.6364	0.	0.45723
1747	3.8956	3.6364	0.	0.3368
1748	4.08	3.6364	0.	0.24783
1749	4.2644	3.6364	0.	0.18184
1750	4.4489	3.6364	0.	0.133
1751	4.6333	3.6364	0.	9.6891e-002
1752	4.8178	3.6364	0.	7.0237e-002
1753	5.0022	3.6364	0.	5.0594e-002
1754	5.1867	3.6364	0.	3.6171e-002
1755	5.3711	3.6364	0.	2.5616e-002
1756	5.5556	3.6364	0.	1.7923e-002
1757	5.74	3.6364	0.	1.2367e-002
1758	5.9244	3.6364	0.	8.3875e-003
1759	6.1089	3.6364	0.	5.567e-003
1760	6.2933	3.6364	0.	3.6152e-003
1761	6.4778	3.6364	0.	2.2971e-003
1762	6.6622	3.6364	0.	1.4359e-003
1763	6.8467	3.6364	0.	9.2012e-004
1764	7.0311	3.6364	0.	6.5016e-004
1765	7.2156	3.6364	0.	5.4842e-004
1766	7.4	3.6364	0.	5.7756e-004
1767	7.5844	3.6364	0.	6.9412e-004
1768	7.7689	3.6364	0.	8.6151e-004
1769	7.9533	3.6364	0.	1.0744e-003
1770	8.1378	3.6364	0.	1.312e-003
1771	8.3222	3.6364	0.	1.5539e-003
1772	8.5067	3.6364	0.	1.8096e-003
1773	8.6911	3.6364	0.	2.0653e-003
1774	8.8756	3.6364	0.	2.3122e-003
1775	9.06	3.6364	0.	2.5602e-003
1776	9.2444	3.6364	0.	2.8028e-003
1777	9.4289	3.6364	0.	3.0306e-003
1778	9.6133	3.6364	0.	3.2647e-003
1779	9.7978	3.6364	0.	3.468e-003
1780	9.9822	3.6364	0.	3.673e-003
1781	10.167	3.6364	0.	3.9267e-003
1782	10.351	3.6364	0.	4.1317e-003
1783	10.536	3.6364	0.	4.3221e-003
1784	10.72	3.6364	0.	4.5429e-003
1785	10.904	3.6364	0.	4.7498e-003
1786	11.089	3.6364	0.	4.9836e-003
1787	11.273	3.6364	0.	5.2793e-003
1788	11.458	3.6364	0.	5.5989e-003
1789	11.642	3.6364	0.	6.0257e-003
1790	11.827	3.6364	0.	6.7791e-003
1791	12.011	3.6364	0.	8.8196e-003
1792	12.196	3.6364	0.	0.12852
1793	12.38	3.6364	0.	1.2704
1794	12.564	3.6364	0.	2.3659
1795	12.749	3.6364	0.	3.3942
1796	12.933	3.6364	0.	4.3612
1797	13.118	3.6364	0.	5.2729
1798	13.302	3.6364	0.	6.1351
1799	13.487	3.6364	0.	6.9536
1800	13.671	3.6364	0.	7.7333
1801	13.856	3.6364	0.	8.4794
1802	14.04	3.6364	0.	9.1966
1803	14.224	3.6364	0.	9.8896
1804	14.409	3.6364	0.	10.563
1805	14.593	3.6364	0.	11.22
1806	14.778	3.6364	0.	11.867
1807	14.962	3.6364	0.	12.506
1808	15.147	3.6364	0.	13.142
1809	15.331	3.6364	0.	13.779
1810	15.516	3.6364	0.	14.421
1811	15.7	3.6364	0.	15.072
1812	15.884	3.6364	0.	15.736
1813	16.069	3.6364	0.	16.417
1814	16.253	3.6364	0.	17.121
1815	16.438	3.6364	0.	17.85
1816	16.622	3.6364	0.	18.611
1817	16.807	3.6364	0.	19.407
1818	16.991	3.6364	0.	20.244
1819	17.176	3.6364	0.	21.127
1820	17.36	3.6364	0.	22.062
1821	17.544	3.6364	0.	23.054
1822	17.729	3.6364	0.	24.11
1823	17.913	3.6364	0.	25.236
1824	18.098	3.6364	0.	26.44
1825	18.282	3.6364	0.	27.73
1826	18.467	3.6364	0.	29.113
1827	18.651	3.6364	0.	30.598
1828	18.836	3.6364	0.	32.194
1829	19.02	3.6364	0.	33.912
1830	19.204	3.6364	0.	35.761
1831	19.389	3.6364	0.	37.755
1832	19.573	3.6364	0.	39.904
1833	19.758	3.6364	0.	42.222
1834	19.942	3.6364	0.	44.724
1835	20.127	3.6364	0.	47.424
1836	20.311	3.6364	0.	50.338
1837	20.496	3.6364	0.	53.485
1838	20.68	3.6364	0.	56.881
1839	20.864	3.6364	0.	60.547
1840	21.049	3.6364	0.	64.502
1841	21.233	3.6364	0.	68.768
1842	21.418	3.6364	0.	73.368
1843	21.602	3.6364	0.	78.323
1844	21.787	3.6364	0.	83.658
1845	21.971	3.6364	0.	89.394
1846	22.156	3.6364	0.	95.555
1847	22.34	3.6364	0.	102.16
1848	22.524	3.6364	0.	109.23
1849	22.709	3.6364	0.	116.79
1850	22.893	3.6364	0.	124.84
1851	23.078	3.6364	0.	133.38
1852	23.262	3.6364	0.	142.44
1853	23.447	3.6364	0.	151.99
1854	23.631	3.6364	0.	162.08
1855	23.816	3.6364	0.	172.47
1856	2.0511	3.4545	0.	258.44
1857	2.2356	3.4545	0.	11.8
1858	2.42	3.4545	0.	1.8882
1859	2.6044	3.4545	0.	2.248
1860	2.7889	3.4545	0.	1.8114
1861	2.9733	3.4545	0.	1.283
1862	3.1578	3.4545	0.	0.97569
1863	3.3422	3.4545	0.	0.716
1864	3.5267	3.4545	0.	0.52602
1865	3.7111	3.4545	0.	0.38376
1866	3.8956	3.4545	0.	0.2787
1867	4.08	3.4545	0.	0.20141
1868	4.2644	3.4545	0.	0.14478
1869	4.4489	3.4545	0.	0.10338
1870	4.6333	3.4545	0.	7.3204e-002
1871	4.8178	3.4545	0.	5.1269e-002
1872	5.0022	3.4545	0.	3.5372e-002
1873	5.1867	3.4545	0.	2.392e-002
1874	5.3711	3.4545	0.	1.5722e-002
1875	5.5556	3.4545	0.	9.9033e-003
1876	5.74	3.4545	0.	5.8408e-003
1877	5.9244	3.4545	0.	3.0565e-003
1878	6.1089	3.4545	0.	1.1951e-003
1879	6.2933	3.4545	0.	1.6911e-005
1880	6.4778	3.4545	0.	-6.7415e-004
1881	6.6622	3.4545	0.	-1.0262e-003
1882	6.8467	3.4545	0.	-1.1239e-003
1883	7.0311	3.4545	0.	-1.0526e-003
1884	7.2156	3.4545	0.	-8.7287e-004
1885	7.4	3.4545	0.	-6.093e-004
1886	7.5844	3.4545	0.	-2.9973e-004
1887	7.7689	3.4545	0.	2.9955e-005
1888	7.9533	3.4545	0.	3.7776e-004
1889	8.1378	3.4545	0.	7.2844e-004
1890	8.3222	3.4545	0.	1.0663e-003
1891	8.5067	3.4545	0.	1.403e-003
1892	8.6911	3.4545	0.	1.7271e-003
1893	8.8756	3.4545	0.	2.031e-003
1894	9.06	3.4545	0.	2.3277e-003
1895	9.2444	3.4545	0.	2.6115e-003
1896	9.4289	3.4545	0.	2.8737e-003
1897	9.6133	3.4545	0.	3.1344e-003
1898	9.7978	3.4545	0.	3.3616e-003
1899	9.9822	3.4545	0.	3.5848e-003
1900	10.167	3.4545	0.	3.8514e-003
1901	10.351	3.4545	0.	4.0632e-003
1902	10.536	3.4545	0.	4.2554e-003
1903	10.72	3.4545	0.	4.4711e-003
1904	10.904	3.4545	0.	4.6638e-003
1905	11.089	3.4545	0.	4.87e-003
1906	11.273	3.4545	0.	5.1192e-003
1907	11.458	3.4545	0.	5.3557e-003
1908	11.642	3.4545	0.	5.6324e-003
1909	11.827	3.4545	0.	6.0428e-003
1910	12.011	3.4545	0.	6.8517e-003
1911	12.196	3.4545	0.	1.3862e-002
1912	12.38	3.4545	0.	0.95198
1913	12.564	3.4545	0.	2.0735
1914	12.749	3.4545	0.	3.1258
1915	12.933	3.4545	0.	4.1149
1916	13.118	3.4545	0.	5.0472
1917	13.302	3.4545	0.	5.9287
1918	13.487	3.4545	0.	6.7651
1919	13.671	3.4545	0.	7.5616
1920	13.856	3.4545	0.	8.3237
1921	14.04	3.4545	0.	9.056
1922	14.224	3.4545	0.	9.7635
1923	14.409	3.4545	0.	10.451
1924	14.593	3.4545	0.	11.122
1925	14.778	3.4545	0.	11.781
1926	14.962	3.4545	0.	12.433
1927	15.147	3.4545	0.	13.082
1928	15.331	3.4545	0.	13.732
1929	15.516	3.4545	0.	14.387
1930	15.7	3.4545	0.	15.051
1931	15.884	3.4545	0.	15.729
1932	16.069	3.4545	0.	16.425
1933	16.253	3.4545	0.	17.144
1934	16.438	3.4545	0.	17.889
1935	16.622	3.4545	0.	18.666
1936	16.807	3.4545	0.	19.48
1937	16.991	3.4545	0.	20.336
1938	17.176	3.4545	0.	21.239
1939	17.36	3.4545	0.	22.196
1940	17.544	3.4545	0.	23.212
1941	17.729	3.4545	0.	24.294
1942	17.913	3.4545	0.	25.448
1943	18.098	3.4545	0.	26.683
1944	18.282	3.4545	0.	28.006
1945	18.467	3.4545	0.	29.425
1946	18.651	3.4545	0.	30.949
1947	18.836	3.4545	0.	32.589
1948	19.02	3.4545	0.	34.354
1949	19.204	3.4545	0.	36.255
1950	19.389	3.4545	0.	38.305
1951	19.573	3.4545	0.	40.515
1952	19.758	3.4545	0.	42.9
1953	19.942	3.4545	0.	45.475
1954	20.127	3.4545	0.	48.253
1955	20.311	3.4545	0.	51.253
1956	20.496	3.4545	0.	54.491
1957	20.68	3.4545	0.	57.986
1958	20.864	3.4545	0.	61.758
1959	21.049	3.4545	0.	65.826
1960	21.233	3.4545	0.	70.211
1961	21.418	3.4545	0.	74.936
1962	21.602	3.4545	0.	80.021
1963	21.787	3.4545	0.	85.488
1964	21.971	3.4545	0.	91.36
1965	22.156	3.4545	0.	97.655
1966	22.34	3.4545	0.	104.39
1967	22.524	3.4545	0.	111.59
1968	22.709	3.4545	0.	119.26
1969	22.893	3.4545	0.	127.41
1970	23.078	3.4545	0.	136.05
1971	23.262	3.4545	0.	145.18
1972	23.447	3.4545	0.	154.78
1973	23.631	3.4545	0.	164.9
1974	23.816	3.4545	0.	175.29
1975	2.0511	3.2727	0.	130.15
1976	2.2356	3.2727	0.	2.3074
1977	2.42	3.2727	0.	1.9145
1978	2.6044	3.2727	0.	1.8544
1979	2.7889	3.2727	0.	1.5387
1980	2.9733	3.2727	0.	1.228
1981	3.1578	3.2727	0.	0.91461
1982	3.3422	3.2727	0.	0.66868
1983	3.5267	3.2727	0.	0.48209
1984	3.7111	3.2727	0.	0.34445
1985	3.8956	3.2727	0.	0.24449
1986	4.08	3.2727	0.	0.17243
1987	4.2644	3.2727	0.	0.12069
1988	4.4489	3.2727	0.	8.361e-002
1989	4.6333	3.2727	0.	5.7109e-002
1990	4.8178	3.2727	0.	3.8221e-002
1991	5.0022	3.2727	0.	2.4811e-002
1992	5.1867	3.2727	0.	1.537e-002
1993	5.3711	3.2727	0.	8.7914e-003
1994	5.5556	3.2727	0.	4.2718e-003
1995	5.74	3.2727	0.	1.2523e-003
1996	5.9244	3.2727	0.	-6.941e-004
1997	6.1089	3.2727	0.	-1.8802e-003
1998	6.2933	3.2727	0.	-2.5123e-003
1999	6.4778	3.2727	0.	-2.7614e-003
2000	6.6622	3.2727	0.	-2.7524e-003
2001	6.8467	3.2727	0.	-2.5565e-003
2002	7.0311	3.2727	0.	-2.244e-003
2003	7.2156	3.2727	0.	-1.8646e-003
2004	7.4	3.2727	0.	-1.4378e-003
2005	7.5844	3.2727	0.	-9.9171e-004
2006	7.7689	3.2727	0.	-5.4892e-004
2007	7.9533	3.2727	0.	-1.0628e-004
2008	8.1378	3.2727	0.	3.2294e-004
2009	8.3222	3.2727	0.	7.2843e-004
2010	8.5067	3.2727	0.	1.1204e-003
2011	8.6911	3.2727	0.	1.492e-003
2012	8.8756	3.2727	0.	1.8358e-003
2013	9.06	3.2727	0.	2.1665e-003
2014	9.2444	3.2727	0.	2.4779e-003
2015	9.4289	3.2727	0.	2.7632e-003
2016	9.6133	3.2727	0.	3.0447e-003
2017	9.7978	3.2727	0.	3.2879e-003
2018	9.9822	3.2727	0.	3.5231e-003
2019	10.167	3.2727	0.	3.7988e-003
2020	10.351	3.2727	0.	4.0172e-003
2021	10.536	3.2727	0.	4.2106e-003
2022	10.72	3.2727	0.	4.4238e-003
2023	10.904	3.2727	0.	4.6089e-003
2024	11.089	3.2727	0.	4.7999e-003
2025	11.273	3.2727	0.	5.023e-003
2026	11.458	3.2727	0.	5.217e-003
2027	11.642	3.2727	0.	5.411e-003
2028	11.827	3.2727	0.	5.6595e-003
2029	12.011	3.2727	0.	6.0011e-003
2030	12.196	3.2727	0.	7.3452e-003
2031	12.38	3.2727	0.	0.73798
2032	12.564	3.2727	0.	1.8774
2033	12.749	3.2727	0.	2.9459
2034	12.933	3.2727	0.	3.95
2035	13.118	3.2727	0.	4.8961
2036	13.302	3.2727	0.	5.7905
2037	13.487	3.2727	0.	6.6389
2038	13.671	3.2727	0.	7.4469
2039	13.856	3.2727	0.	8.2196
2040	14.04	3.2727	0.	8.9622
2041	14.224	3.2727	0.	9.6793
2042	14.409	3.2727	0.	10.376
2043	14.593	3.2727	0.	11.056
2044	14.778	3.2727	0.	11.724
2045	14.962	3.2727	0.	12.385
2046	15.147	3.2727	0.	13.043
2047	15.331	3.2727	0.	13.701
2048	15.516	3.2727	0.	14.365
2049	15.7	3.2727	0.	15.039
2050	15.884	3.2727	0.	15.726
2051	16.069	3.2727	0.	16.431
2052	16.253	3.2727	0.	17.16
2053	16.438	3.2727	0.	17.916
2054	16.622	3.2727	0.	18.704
2055	16.807	3.2727	0.	19.53
2056	16.991	3.2727	0.	20.399
2057	17.176	3.2727	0.	21.316
2058	17.36	3.2727	0.	22.287
2059	17.544	3.2727	0.	23.319
2060	17.729	3.2727	0.	24.419
2061	17.913	3.2727	0.	25.592
2062	18.098	3.2727	0.	26.848
2063	18.282	3.2727	0.	28.193
2064	18.467	3.2727	0.	29.636
2065	18.651	3.2727	0.	31.188
2066	18.836	3.2727	0.	32.856
2067	19.02	3.2727	0.	34.653
2068	19.204	3.2727	0.	36.589
2069	19.389	3.2727	0.	38.677
2070	19.573	3.2727	0.	40.929
2071	19.758	3.2727	0.	43.359
2072	19.942	3.2727	0.	45.982
2073	20.127	3.2727	0.	48.813
2074	20.311	3.2727	0.	51.87
2075	20.496	3.2727	0.	55.17
2076	20.68	3.2727	0.	58.732
2077	20.864	3.2727	0.	62.574
2078	21.049	3.2727	0.	66.717
2079	21.233	3.2727	0.	71.182
2080	21.418	3.2727	0.	75.989
2081	21.602	3.2727	0.	81.16
2082	21.787	3.2727	0.	86.716
2083	21.971	3.2727	0.	92.676
2084	22.156	3.2727	0.	99.06
2085	22.34	3.2727	0.	105.88
2086	22.524	3.2727	0.	113.16
2087	22.709	3.2727	0.	120.91
2088	22.893	3.2727	0.	129.12
2089	23.078	3.2727	0.	137.82
2090	23.262	3.2727	0.	146.99
2091	23.447	3.2727	0.	156.62
2092	23.631	3.2727	0.	166.77
2093	23.816	3.2727	0.	177.17
2094	2.0511	3.0909	0.	66.919
2095	2.2356	3.0909	0.	0.20461
2096	2.42	3.0909	0.	1.3437
2097	2.6044	3.0909	0.	1.5972
2098	2.7889	3.0909	0.	1.4984
2099	2.9733	3.0909	0.	1.2014
2100	3.1578	3.0909	0.	0.90421
2101	3.3422	3.0909	0.	0.65579
2102	3.5267	3.0909	0.	0.46649
2103	3.7111	3.0909	0.	0.32816
2104	3.8956	3.0909	0.	0.22905
2105	4.08	3.0909	0.	0.15868
2106	4.2644	3.0909	0.	0.1089
2107	4.4489	3.0909	0.	7.3754e-002
2108	4.6333	3.0909	0.	4.8986e-002
2109	4.8178	3.0909	0.	3.1581e-002
2110	5.0022	3.0909	0.	1.9408e-002
2111	5.1867	3.0909	0.	1.098e-002
2112	5.3711	3.0909	0.	5.2242e-003
2113	5.5556	3.0909	0.	1.3692e-003
2114	5.74	3.0909	0.	-1.1147e-003
2115	5.9244	3.0909	0.	-2.6294e-003
2116	6.1089	3.0909	0.	-3.4669e-003
2117	6.2933	3.0909	0.	-3.8173e-003
2118	6.4778	3.0909	0.	-3.8374e-003
2119	6.6622	3.0909	0.	-3.6428e-003
2120	6.8467	3.0909	0.	-3.2948e-003
2121	7.0311	3.0909	0.	-2.8566e-003
2122	7.2156	3.0909	0.	-2.3754e-003
2123	7.4	3.0909	0.	-1.8629e-003
2124	7.5844	3.0909	0.	-1.3472e-003
2125	7.7689	3.0909	0.	-8.4565e-004
2126	7.9533	3.0909	0.	-3.5422e-004
2127	8.1378	3.0909	0.	1.1591e-004
2128	8.3222	3.0909	0.	5.5497e-004
2129	8.5067	3.0909	0.	9.7595e-004
2130	8.6911	3.0909	0.	1.3716e-003
2131	8.8756	3.0909	0.	1.7359e-003
2132	9.06	3.0909	0.	2.0833e-003
2133	9.2444	3.0909	0.	2.4095e-003
2134	9.4289	3.0909	0.	2.707e-003
2135	9.6133	3.0909	0.	2.9986e-003
2136	9.7978	3.0909	0.	3.2498e-003
2137	9.9822	3.0909	0.	3.4915e-003
2138	10.167	3.0909	0.	3.7715e-003
2139	10.351	3.0909	0.	3.9918e-003
2140	10.536	3.0909	0.	4.1881e-003
2141	10.72	3.0909	0.	4.3999e-003
2142	10.904	3.0909	0.	4.5819e-003
2143	11.089	3.0909	0.	4.7658e-003
2144	11.273	3.0909	0.	4.9779e-003
2145	11.458	3.0909	0.	5.1507e-003
2146	11.642	3.0909	0.	5.3117e-003
2147	11.827	3.0909	0.	5.4917e-003
2148	12.011	3.0909	0.	5.6607e-003
2149	12.196	3.0909	0.	5.9179e-003
2150	12.38	3.0909	0.	0.63029
2151	12.564	3.0909	0.	1.779
2152	12.749	3.0909	0.	2.8557
2153	12.933	3.0909	0.	3.8673
2154	13.118	3.0909	0.	4.8204
2155	13.302	3.0909	0.	5.7212
2156	13.487	3.0909	0.	6.5757
2157	13.671	3.0909	0.	7.3894
2158	13.856	3.0909	0.	8.1675
2159	14.04	3.0909	0.	8.9152
2160	14.224	3.0909	0.	9.6373
2161	14.409	3.0909	0.	10.338
2162	14.593	3.0909	0.	11.023
2163	14.778	3.0909	0.	11.696
2164	14.962	3.0909	0.	12.361
2165	15.147	3.0909	0.	13.023
2166	15.331	3.0909	0.	13.686
2167	15.516	3.0909	0.	14.354
2168	15.7	3.0909	0.	15.032
2169	15.884	3.0909	0.	15.724
2170	16.069	3.0909	0.	16.435
2171	16.253	3.0909	0.	17.168
2172	16.438	3.0909	0.	17.929
2173	16.622	3.0909	0.	18.723
2174	16.807	3.0909	0.	19.555
2175	16.991	3.0909	0.	20.431
2176	17.176	3.0909	0.	21.355
2177	17.36	3.0909	0.	22.334
2178	17.544	3.0909	0.	23.374
2179	17.729	3.0909	0.	24.482
2180	17.913	3.0909	0.	25.665
2181	18.098	3.0909	0.	26.931
2182	18.282	3.0909	0.	28.287
2183	18.467	3.0909	0.	29.743
2184	18.651	3.0909	0.	31.308
2185	18.836	3.0909	0.	32.991
2186	19.02	3.0909	0.	34.804
2187	19.204	3.0909	0.	36.758
2188	19.389	3.0909	0.	38.864
2189	19.573	3.0909	0.	41.137
2190	19.758	3.0909	0.	43.59
2191	19.942	3.0909	0.	46.237
2192	20.127	3.0909	0.	49.096
2193	20.311	3.0909	0.	52.181
2194	20.496	3.0909	0.	55.512
2195	20.68	3.0909	0.	59.107
2196	20.864	3.0909	0.	62.985
2197	21.049	3.0909	0.	67.165
2198	21.233	3.0909	0.	71.67
2199	21.418	3.0909	0.	76.518
2200	21.602	3.0909	0.	81.732
2201	21.787	3.0909	0.	87.331
2202	21.971	3.0909	0.	93.336
2203	22.156	3.0909	0.	99.763
2204	22.34	3.0909	0.	106.63
2205	22.524	3.0909	0.	113.95
2206	22.709	3.0909	0.	121.73
2207	22.893	3.0909	0.	129.98
2208	23.078	3.0909	0.	138.7
2209	23.262	3.0909	0.	147.89
2210	23.447	3.0909	0.	157.54
2211	23.631	3.0909	0.	167.7
2212	23.816	3.0909	0.	178.1
2213	2.0511	2.9091	0.	66.919
2214	2.2356	2.9091	0.	0.20461
2215	2.42	2.9091	0.	1.3437
2216	2.6044	2.9091	0.	1.5972
2217	2.7889	2.9091	0.	1.4984
2218	2.9733	2.9091	0.	1.2014
2219	3.1578	2.9091	0.	0.90421
2220	3.3422	2.9091	0.	0.65579
2221	3.5267	2.9091	0.	0.46649
2222	3.7111	2.9091	0.	0.32816
2223	3.8956	2.9091	0.	0.22905
2224	4.08	2.9091	0.	0.15868
2225	4.2644	2.9091	0.	0.1089
2226	4.4489	2.9091	0.	7.3754e-002
2227	4.6333	2.9091	0.	4.8986e-002
2228	4.8178	2.9091	0.	3.1581e-002
2229	5.0022	2.9091	0.	1.9407e-002
2230	5.1867	2.9091	0.	1.098e-002
2231	5.3711	2.9091	0.	5.224e-003
2232	5.5556	2.9091	0.	1.3692e-003
2233	5.74	2.9091	0.	-1.1145e-003
2234	5.9244	2.9091	0.	-2.6295e-003
2235	6.1089	2.9091	0.	-3.4667e-003
2236	6.2933	2.9091	0.	-3.8172e-003
2237	6.4778	2.9091	0.	-3.8375e-003
2238	6.6622	2.9091	0.	-3.642e-003
2239	6.8467	2.9091	0.	-3.2946e-003
2240	7.0311	2.9091	0.	-2.8567e-003
2241	7.2156	2.9091	0.	-2.3749e-003
2242	7.4	2.9091	0.	-1.8635e-003
2243	7.5844	2.9091	0.	-1.3467e-003
2244	7.7689	2.9091	0.	-8.4643e-004
2245	7.9533	2.9091	0.	-3.5452e-004
2246	8.1378	2.9091	0.	1.1633e-004
2247	8.3222	2.9091	0.	5.5479e-004
2248	8.5067	2.9091	0.	9.7518e-004
2249	8.6911	2.9091	0.	1.3713e-003
2250	8.8756	2.9091	0.	1.736e-003
2251	9.06	2.9091	0.	2.0834e-003
2252	9.2444	2.9091	0.	2.4093e-003
2253	9.4289	2.9091	0.	2.7074e-003
2254	9.6133	2.9091	0.	2.9985e-003
2255	9.7978	2.9091	0.	3.2492e-003
2256	9.9822	2.9091	0.	3.4912e-003
2257	10.167	2.9091	0.	3.7716e-003
2258	10.351	2.9091	0.	3.9924e-003
2259	10.536	2.9091	0.	4.1879e-003
2260	10.72	2.9091	0.	4.3995e-003
2261	10.904	2.9091	0.	4.5823e-003
2262	11.089	2.9091	0.	4.7658e-003
2263	11.273	2.9091	0.	4.9779e-003
2264	11.458	2.9091	0.	5.1507e-003
2265	11.642	2.9091	0.	5.3111e-003
2266	11.827	2.9091	0.	5.4917e-003
2267	12.011	2.9091	0.	5.6606e-003
2268	12.196	2.9091	0.	5.918e-003
2269	12.38	2.9091	0.	0.63029
2270	12.564	2.9091	0.	1.779
2271	12.749	2.9091	0.	2.8557
2272	12.933	2.9091	0.	3.8673
2273	13.118	2.9091	0.	4.8204
2274	13.302	2.9091	0.	5.7212
2275	13.487	2.9091	0.	6.5757
2276	13.671	2.9091	0.	7.3894
2277	13.856	2.9091	0.	8.1675
2278	14.04	2.9091	0.	8.9152
2279	14.224	2.9091	0.	9.6372
2280	14.409	2.9091	0.	10.338
2281	14.593	2.9091	0.	11.023
2282	14.778	2.9091	0.	11.696
2283	14.962	2.9091	0.	12.361
2284	15.147	2.9091	0.	13.023
2285	15.331	2.9091	0.	13.686
2286	15.516	2.9091	0.	14.354
2287	15.7	2.9091	0.	15.032
2288	15.884	2.9091	0.	15.724
2289	16.069	2.9091	0.	16.435
2290	16.253	2.9091	0.	17.168
2291	16.438	2.9091	0.	17.929
2292	16.622	2.9091	0.	18.723
2293	16.807	2.9091	0.	19.555
2294	16.991	2.9091	0.	20.431
2295	17.176	2.9091	0.	21.355
2296	17.36	2.9091	0.	22.334
2297	17.544	2.9091	0.	23.374
2298	17.729	2.9091	0.	24.482
2299	17.913	2.9091	0.	25.665
2300	18.098	2.9091	0.	26.931
2301	18.282	2.9091	0.	28.287
2302	18.467	2.9091	0.	29.743
2303	18.651	2.9091	0.	31.308
2304	18.836	2.9091	0.	32.991
2305	19.02	2.9091	0.	34.804
2306	19.204	2.9091	0.	36.758
2307	19.389	2.9091	0.	38.864
2308	19.573	2.9091	0.	41.137
2309	19.758	2.9091	0.	43.59
2310	19.942	2.9091	0.	46.237
2311	20.127	2.9091	0.	49.096
2312	20.311	2.9091	0.	52.181
2313	20.496	2.9091	0.	55.512
2314	20.68	2.9091	0.	59.107
2315	20.864	2.9091	0.	62.985
2316	21.049	2.9091	0.	67.165
2317	21.233	2.9091	0.	71.67
2318	21.418	2.9091	0.	76.518
2319	21.602	2.9091	0.	81.732
2320	21.787	2.9091	0.	87.331
2321	21.971	2.9091	0.	93.336
2322	22.156	2.9091	0.	99.763
2323	22.34	2.9091	0.	106.63
2324	22.524	2.9091	0.	113.95
2325	22.709	2.9091	0.	121.73
2326	22.893	2.9091	0.	129.98
2327	23.078	2.9091	0.	138.7
2328	23.262	2.9091	0.	147.89
2329	23.447	2.9091	0.	157.54
2330	23.631	2.9091	0.	167.7
2331	23.816	2.9091	0.	178.1
2332	2.0511	2.7273	0.	130.15
2333	2.2356	2.7273	0.	2.3074
2334	2.42	2.7273	0.	1.9145
2335	2.6044	2.7273	0.	1.8544
2336	2.7889	2.7273	0.	1.5387
2337	2.9733	2.7273	0.	1.228
2338	3.1578	2.7273	0.	0.91461
2339	3.3422	2.7273	0.	0.66868
2340	3.5267	2.7273	0.	0.48209
2341	3.7111	2.7273	0.	0.34445
2342	3.8956	2.7273	0.	0.24449
2343	4.08	2.7273	0.	0.17243
2344	4.2644	2.7273	0.	0.12069
2345	4.4489	2.7273	0.	8.361e-002
2346	4.6333	2.7273	0.	5.7109e-002
2347	4.8178	2.7273	0.	3.8221e-002
2348	5.0022	2.7273	0.	2.4811e-002
2349	5.1867	2.7273	0.	1.537e-002
2350	5.3711	2.7273	0.	8.7912e-003
2351	5.5556	2.7273	0.	4.2719e-003
2352	5.74	2.7273	0.	1.2523e-003
2353	5.9244	2.7273	0.	-6.9376e-004
2354	6.1089	2.7273	0.	-1.8799e-003
2355	6.2933	2.7273	0.	-2.5121e-003
2356	6.4778	2.7273	0.	-2.7613e-003
2357	6.6622	2.7273	0.	-2.7526e-003
2358	6.8467	2.7273	0.	-2.5566e-003
2359	7.0311	2.7273	0.	-2.2435e-003
2360	7.2156	2.7273	0.	-1.8646e-003
2361	7.4	2.7273	0.	-1.4378e-003
2362	7.5844	2.7273	0.	-9.9148e-004
2363	7.7689	2.7273	0.	-5.4892e-004
2364	7.9533	2.7273	0.	-1.0593e-004
2365	8.1378	2.7273	0.	3.2336e-004
2366	8.3222	2.7273	0.	7.2873e-004
2367	8.5067	2.7273	0.	1.1204e-003
2368	8.6911	2.7273	0.	1.4917e-003
2369	8.8756	2.7273	0.	1.836e-003
2370	9.06	2.7273	0.	2.1663e-003
2371	9.2444	2.7273	0.	2.4781e-003
2372	9.4289	2.7273	0.	2.7638e-003
2373	9.6133	2.7273	0.	3.0445e-003
2374	9.7978	2.7273	0.	3.2884e-003
2375	9.9822	2.7273	0.	3.523e-003
2376	10.167	2.7273	0.	3.7987e-003
2377	10.351	2.7273	0.	4.016e-003
2378	10.536	2.7273	0.	4.2102e-003
2379	10.72	2.7273	0.	4.4237e-003
2380	10.904	2.7273	0.	4.6093e-003
2381	11.089	2.7273	0.	4.8e-003
2382	11.273	2.7273	0.	5.0224e-003
2383	11.458	2.7273	0.	5.2166e-003
2384	11.642	2.7273	0.	5.412e-003
2385	11.827	2.7273	0.	5.6593e-003
2386	12.011	2.7273	0.	6.0013e-003
2387	12.196	2.7273	0.	7.3453e-003
2388	12.38	2.7273	0.	0.73799
2389	12.564	2.7273	0.	1.8774
2390	12.749	2.7273	0.	2.9459
2391	12.933	2.7273	0.	3.95
2392	13.118	2.7273	0.	4.8961
2393	13.302	2.7273	0.	5.7905
2394	13.487	2.7273	0.	6.6389
2395	13.671	2.7273	0.	7.4469
2396	13.856	2.7273	0.	8.2196
2397	14.04	2.7273	0.	8.9622
2398	14.224	2.7273	0.	9.6793
2399	14.409	2.7273	0.	10.376
2400	14.593	2.7273	0.	11.056
2401	14.778	2.7273	0.	11.724
2402	14.962	2.7273	0.	12.385
2403	15.147	2.7273	0.	13.043
2404	15.331	2.7273	0.	13.701
2405	15.516	2.7273	0.	14.365
2406	15.7	2.7273	0.	15.039
2407	15.884	2.7273	0.	15.726
2408	16.069	2.7273	0.	16.431
2409	16.253	2.7273	0.	17.16
2410	16.438	2.7273	0.	17.916
2411	16.622	2.7273	0.	18.704
2412	16.807	2.7273	0.	19.53
2413	16.991	2.7273	0.	20.399
2414	17.176	2.7273	0.	21.316
2415	17.36	2.7273	0.	22.287
2416	17.544	2.7273	0.	23.319
2417	17.729	2.7273	0.	24.419
2418	17.913	2.7273	0.	25.592
2419	18.098	2.7273	0.	26.848
2420	18.282	2.7273	0.	28.193
2421	18.467	2.7273	0.	29.636
2422	18.651	2.7273	0.	31.188
2423	18.836	2.7273	0.	32.856
2424	19.02	2.7273	0.	34.653
2425	19.204	2.7273	0.	36.589
2426	19.389	2.7273	0.	38.677
2427	19.573	2.7273	0.	40.929
2428	19.758	2.7273	0.	43.359
2429	19.942	2.7273	0.	45.982
2430	20.127	2.7273	0.	48.813
2431	20.311	2.7273	0.	51.87
2432	20.496	2.7273	0.	55.17
2433	20.68	2.7273	0.	58.732
2434	20.864	2.7273	0.	62.574
2435	21.049	2.7273	0.	66.717
2436	21.233	2.7273	0.	71.182
2437	21.418	2.7273	0.	75.989
2438	21.602	2.7273	0.	81.16
2439	21.787	2.7273	0.	86.716
2440	21.971	2.7273	0.	92.676
2441	22.156	2.7273	0.	99.06
2442	22.34	2.7273	0.	105.88
2443	22.524	2.7273	0.	113.16
2444	22.709	2.7273	0.	120.91
2445	22.893	2.7273	0.	129.12
2446	23.078	2.7273	0.	137.82
2447	23.262	2.7273	0.	146.99
2448	23.447	2.7273	0.	156.62
2449	23.631	2.7273	0.	166.77
2450	23.816	2.7273	0.	177.17
2451	2.0511	2.5455	0.	258.44
2452	2.2356	2.5455	0.	11.8
2453	2.42	2.5455	0.	1.8882
2454	2.6044	2.5455	0.	2.248
2455	2.7889	2.5455	0.	1.8114
2456	2.9733	2.5455	0.	1.283
2457	3.1578	2.5455	0.	0.97569
2458	3.3422	2.5455	0.	0.716
2459	3.5267	2.5455	0.	0.52602
2460	3.7111	2.5455	0.	0.38376
2461	3.8956	2.5455	0.	0.2787
2462	4.08	2.5455	0.	0.20141
2463	4.2644	2.5455	0.	0.14478
2464	4.4489	2.5455	0.	0.10338
2465	4.6333	2.5455	0.	7.3204e-002
2466	4.8178	2.5455	0.	5.1269e-002
2467	5.0022	2.5455	0.	3.5372e-002
2468	5.1867	2.5455	0.	2.392e-002
2469	5.3711	2.5455	0.	1.5722e-002
2470	5.5556	2.5455	0.	9.9037e-003
2471	5.74	2.5455	0.	5.8409e-003
2472	5.9244	2.5455	0.	3.0566e-003
2473	6.1089	2.5455	0.	1.1954e-003
2474	6.2933	2.5455	0.	1.7369e-005
2475	6.4778	2.5455	0.	-6.741e-004
2476	6.6622	2.5455	0.	-1.0258e-003
2477	6.8467	2.5455	0.	-1.1241e-003
2478	7.0311	2.5455	0.	-1.0525e-003
2479	7.2156	2.5455	0.	-8.7205e-004
2480	7.4	2.5455	0.	-6.0937e-004
2481	7.5844	2.5455	0.	-2.9974e-004
2482	7.7689	2.5455	0.	3.0126e-005
2483	7.9533	2.5455	0.	3.7817e-004
2484	8.1378	2.5455	0.	7.2831e-004
2485	8.3222	2.5455	0.	1.0674e-003
2486	8.5067	2.5455	0.	1.4031e-003
2487	8.6911	2.5455	0.	1.727e-003
2488	8.8756	2.5455	0.	2.0313e-003
2489	9.06	2.5455	0.	2.328e-003
2490	9.2444	2.5455	0.	2.6112e-003
2491	9.4289	2.5455	0.	2.8734e-003
2492	9.6133	2.5455	0.	3.1351e-003
2493	9.7978	2.5455	0.	3.3624e-003
2494	9.9822	2.5455	0.	3.5853e-003
2495	10.167	2.5455	0.	3.8514e-003
2496	10.351	2.5455	0.	4.0638e-003
2497	10.536	2.5455	0.	4.2558e-003
2498	10.72	2.5455	0.	4.471e-003
2499	10.904	2.5455	0.	4.6644e-003
2500	11.089	2.5455	0.	4.8701e-003
2501	11.273	2.5455	0.	5.1203e-003
2502	11.458	2.5455	0.	5.3568e-003
2503	11.642	2.5455	0.	5.6321e-003
2504	11.827	2.5455	0.	6.0434e-003
2505	12.011	2.5455	0.	6.8518e-003
2506	12.196	2.5455	0.	1.3864e-002
2507	12.38	2.5455	0.	0.95199
2508	12.564	2.5455	0.	2.0736
2509	12.749	2.5455	0.	3.1258
2510	12.933	2.5455	0.	4.115
2511	13.118	2.5455	0.	5.0472
2512	13.302	2.5455	0.	5.9287
2513	13.487	2.5455	0.	6.7651
2514	13.671	2.5455	0.	7.5616
2515	13.856	2.5455	0.	8.3237
2516	14.04	2.5455	0.	9.056
2517	14.224	2.5455	0.	9.7635
2518	14.409	2.5455	0.	10.451
2519	14.593	2.5455	0.	11.122
2520	14.778	2.5455	0.	11.781
2521	14.962	2.5455	0.	12.433
2522	15.147	2.5455	0.	13.082
2523	15.331	2.5455	0.	13.732
2524	15.516	2.5455	0.	14.387
2525	15.7	2.5455	0.	15.051
2526	15.884	2.5455	0.	15.729
2527	16.069	2.5455	0.	16.425
2528	16.253	2.5455	0.	17.144
2529	16.438	2.5455	0.	17.889
2530	16.622	2.5455	0.	18.666
2531	16.807	2.5455	0.	19.48
2532	16.991	2.5455	0.	20.336
2533	17.176	2.5455	0.	21.239
2534	17.36	2.5455	0.	22.196
2535	17.544	2.5455	0.	23.212
2536	17.729	2.5455	0.	24.294
2537	17.913	2.5455	0.	25.448
2538	18.098	2.5455	0.	26.683
2539	18.282	2.5455	0.	28.006
2540	18.467	2.5455	0.	29.425
2541	18.651	2.5455	0.	30.949
2542	18.836	2.5455	0.	32.589
2543	19.02	2.5455	0.	34.354
2544	19.204	2.5455	0.	36.255
2545	19.389	2.5455	0.	38.305
2546	19.573	2.5455	0.	40.515
2547	19.758	2.5455	0.	42.9
2548	19.942	2.5455	0.	45.475
2549	20.127	2.5455	0.	48.253
2550	20.311	2.5455	0.	51.253
2551	20.496	2.5455	0.	54.491
2552	20.68	2.5455	0.	57.986
2553	20.864	2.5455	0.	61.758
2554	21.049	2.5455	0.	65.826
2555	21.233	2.5455	0.	70.211
2556	21.418	2.5455	0.	74.936
2557	21.602	2.5455	0.	80.021
2558	21.787	2.5455	0.	85.488
2559	21.971	2.5455	0.	91.36
2560	22.156	2.5455	0.	97.655
2561	22.34	2.5455	0.	104.39
2562	22.524	2.5455	0.	111.59
2563	22.709	2.5455	0.	119.26
2564	22.893	2.5455	0.	127.41
2565	23.078	2.5455	0.	136.05
2566	23.262	2.5455	0.	145.18
2567	23.447	2.5455	0.	154.78
2568	23.631	2.5455	0.	164.9
2569	23.816	2.5455	0.	175.29
2570	2.0511	2.3636	0.	524.08
2571	2.2356	2.3636	0.	39.975
2572	2.42	2.3636	0.	9.6376
2573	2.6044	2.3636	0.	2.4736
2574	2.7889	2.3636	0.	2.2531
2575	2.9733	2.3636	0.	1.5948
2576	3.1578	2.3636	0.	1.137
2577	3.3422	2.3636	0.	0.84291
2578	3.5267	2.3636	0.	0.61878
2579	3.7111	2.3636	0.	0.45723
2580	3.8956	2.3636	0.	0.3368
2581	4.08	2.3636	0.	0.24783
2582	4.2644	2.3636	0.	0.18184
2583	4.4489	2.3636	0.	0.133
2584	4.6333	2.3636	0.	9.6891e-002
2585	4.8178	2.3636	0.	7.0237e-002
2586	5.0022	2.3636	0.	5.0594e-002
2587	5.1867	2.3636	0.	3.6171e-002
2588	5.3711	2.3636	0.	2.5616e-002
2589	5.5556	2.3636	0.	1.7923e-002
2590	5.74	2.3636	0.	1.2367e-002
2591	5.9244	2.3636	0.	8.3877e-003
2592	6.1089	2.3636	0.	5.5669e-003
2593	6.2933	2.3636	0.	3.6154e-003
2594	6.4778	2.3636	0.	2.2973e-003
2595	6.6622	2.3636	0.	1.4362e-003
2596	6.8467	2.3636	0.	9.2082e-004
2597	7.0311	2.3636	0.	6.5026e-004
2598	7.2156	2.3636	0.	5.4811e-004
2599	7.4	2.3636	0.	5.7844e-004
2600	7.5844	2.3636	0.	6.9399e-004
2601	7.7689	2.3636	0.	8.6204e-004
2602	7.9533	2.3636	0.	1.0747e-003
2603	8.1378	2.3636	0.	1.3117e-003
2604	8.3222	2.3636	0.	1.5541e-003
2605	8.5067	2.3636	0.	1.8095e-003
2606	8.6911	2.3636	0.	2.0658e-003
2607	8.8756	2.3636	0.	2.3125e-003
2608	9.06	2.3636	0.	2.5605e-003
2609	9.2444	2.3636	0.	2.803e-003
2610	9.4289	2.3636	0.	3.0306e-003
2611	9.6133	2.3636	0.	3.2648e-003
2612	9.7978	2.3636	0.	3.4682e-003
2613	9.9822	2.3636	0.	3.6734e-003
2614	10.167	2.3636	0.	3.9276e-003
2615	10.351	2.3636	0.	4.1315e-003
2616	10.536	2.3636	0.	4.3228e-003
2617	10.72	2.3636	0.	4.5431e-003
2618	10.904	2.3636	0.	4.7502e-003
2619	11.089	2.3636	0.	4.9838e-003
2620	11.273	2.3636	0.	5.2795e-003
2621	11.458	2.3636	0.	5.5972e-003
2622	11.642	2.3636	0.	6.0261e-003
2623	11.827	2.3636	0.	6.7799e-003
2624	12.011	2.3636	0.	8.8197e-003
2625	12.196	2.3636	0.	0.12853
2626	12.38	2.3636	0.	1.2704
2627	12.564	2.3636	0.	2.366
2628	12.749	2.3636	0.	3.3942
2629	12.933	2.3636	0.	4.3612
2630	13.118	2.3636	0.	5.2729
2631	13.302	2.3636	0.	6.1351
2632	13.487	2.3636	0.	6.9536
2633	13.671	2.3636	0.	7.7333
2634	13.856	2.3636	0.	8.4794
2635	14.04	2.3636	0.	9.1966
2636	14.224	2.3636	0.	9.8896
2637	14.409	2.3636	0.	10.563
2638	14.593	2.3636	0.	11.22
2639	14.778	2.3636	0.	11.867
2640	14.962	2.3636	0.	12.506
2641	15.147	2.3636	0.	13.142
2642	15.331	2.3636	0.	13.779
2643	15.516	2.3636	0.	14.421
2644	15.7	2.3636	0.	15.072
2645	15.884	2.3636	0.	15.736
2646	16.069	2.3636	0.	16.417
2647	16.253	2.3636	0.	17.121
2648	16.438	2.3636	0.	17.85
2649	16.622	2.3636	0.	18.611
2650	16.807	2.3636	0.	19.407
2651	16.991	2.3636	0.	20.244
2652	17.176	2.3636	0.	21.127
2653	17.36	2.3636	0.	22.062
2654	17.544	2.3636	0.	23.054
2655	17.729	2.3636	0.	24.11
2656	17.913	2.3636	0.	25.236
2657	18.098	2.3636	0.	26.441
2658	18.282	2.3636	0.	27.73
2659	18.467	2.3636	0.	29.113
2660	18.651	2.3636	0.	30.598
2661	18.836	2.3636	0.	32.194
2662	19.02	2.3636	0.	33.912
2663	19.204	2.3636	0.	35.761
2664	19.389	2.3636	0.	37.755
2665	19.573	2.3636	0.	39.904
2666	19.758	2.3636	0.	42.222
2667	19.942	2.3636	0.	44.724
2668	20.127	2.3636	0.	47.424
2669	20.311	2.3636	0.	50.338
2670	20.496	2.3636	0.	53.485
2671	20.68	2.3636	0.	56.881
2672	20.864	2.3636	0.	60.547
2673	21.049	2.3636	0.	64.502
2674	21.233	2.3636	0.	68.768
2675	21.418	2.3636	0.	73.368
2676	21.602	2.3636	0.	78.323
2677	21.787	2.3636	0.	83.658
2678	21.971	2.3636	0.	89.394
2679	22.156	2.3636	0.	95.555
2680	22.34	2.3636	0.	102.16
2681	22.524	2.3636	0.	109.23
2682	22.709	2.3636	0.	116.79
2683	22.893	2.3636	0.	124.84
2684	23.078	2.3636	0.	133.38
2685	23.262	2.3636	0.	142.44
2686	23.447	2.3636	0.	151.99
2687	23.631	2.3636	0.	162.08
2688	23.816	2.3636	0.	172.47
2689	2.0511	2.1818	0.	946.79
2690	2.2356	2.1818	0.	319.14
2691	2.42	2.1818	0.	13.942
2692	2.6044	2.1818	0.	10.954
2693	2.7889	2.1818	0.	2.6724
2694	2.9733	2.1818	0.	2.5389
2695	3.1578	2.1818	0.	1.4924
2696	3.3422	2.1818	0.	1.1047
2697	3.5267	2.1818	0.	0.78435
2698	3.7111	2.1818	0.	0.57681
2699	3.8956	2.1818	0.	0.42409
2700	4.08	2.1818	0.	0.31373
2701	4.2644	2.1818	0.	0.23229
2702	4.4489	2.1818	0.	0.17212
2703	4.6333	2.1818	0.	0.12749
2704	4.8178	2.1818	0.	9.436e-002
2705	5.0022	2.1818	0.	6.9737e-002
2706	5.1867	2.1818	0.	5.1459e-002
2707	5.3711	2.1818	0.	3.7898e-002
2708	5.5556	2.1818	0.	2.7847e-002
2709	5.74	2.1818	0.	2.0428e-002
2710	5.9244	2.1818	0.	1.497e-002
2711	6.1089	2.1818	0.	1.0968e-002
2712	6.2933	2.1818	0.	8.0652e-003
2713	6.4778	2.1818	0.	5.978e-003
2714	6.6622	2.1818	0.	4.4915e-003
2715	6.8467	2.1818	0.	3.4653e-003
2716	7.0311	2.1818	0.	2.7744e-003
2717	7.2156	2.1818	0.	2.326e-003
2718	7.4	2.1818	0.	2.0671e-003
2719	7.5844	2.1818	0.	1.9434e-003
2720	7.7689	2.1818	0.	1.9098e-003
2721	7.9533	2.1818	0.	1.9549e-003
2722	8.1378	2.1818	0.	2.0494e-003
2723	8.3222	2.1818	0.	2.1728e-003
2724	8.5067	2.1818	0.	2.327e-003
2725	8.6911	2.1818	0.	2.4968e-003
2726	8.8756	2.1818	0.	2.6711e-003
2727	9.06	2.1818	0.	2.8576e-003
2728	9.2444	2.1818	0.	3.0476e-003
2729	9.4289	2.1818	0.	3.2314e-003
2730	9.6133	2.1818	0.	3.4287e-003
2731	9.7978	2.1818	0.	3.6043e-003
2732	9.9822	2.1818	0.	3.7878e-003
2733	10.167	2.1818	0.	4.0258e-003
2734	10.351	2.1818	0.	4.2231e-003
2735	10.536	2.1818	0.	4.414e-003
2736	10.72	2.1818	0.	4.6459e-003
2737	10.904	2.1818	0.	4.8783e-003
2738	11.089	2.1818	0.	5.157e-003
2739	11.273	2.1818	0.	5.533e-003
2740	11.458	2.1818	0.	5.9984e-003
2741	11.642	2.1818	0.	6.7174e-003
2742	11.827	2.1818	0.	8.2455e-003
2743	12.011	2.1818	0.	1.4796e-002
2744	12.196	2.1818	0.	0.56329
2745	12.38	2.1818	0.	1.6911
2746	12.564	2.1818	0.	2.7527
2747	12.749	2.1818	0.	3.7495
2748	12.933	2.1818	0.	4.6873
2749	13.118	2.1818	0.	5.5719
2750	13.302	2.1818	0.	6.4089
2751	13.487	2.1818	0.	7.2037
2752	13.671	2.1818	0.	7.9612
2753	13.856	2.1818	0.	8.6863
2754	14.04	2.1818	0.	9.3836
2755	14.224	2.1818	0.	10.058
2756	14.409	2.1818	0.	10.712
2757	14.593	2.1818	0.	11.352
2758	14.778	2.1818	0.	11.981
2759	14.962	2.1818	0.	12.603
2760	15.147	2.1818	0.	13.222
2761	15.331	2.1818	0.	13.842
2762	15.516	2.1818	0.	14.467
2763	15.7	2.1818	0.	15.101
2764	15.884	2.1818	0.	15.747
2765	16.069	2.1818	0.	16.41
2766	16.253	2.1818	0.	17.093
2767	16.438	2.1818	0.	17.802
2768	16.622	2.1818	0.	18.541
2769	16.807	2.1818	0.	19.314
2770	16.991	2.1818	0.	20.126
2771	17.176	2.1818	0.	20.982
2772	17.36	2.1818	0.	21.888
2773	17.544	2.1818	0.	22.849
2774	17.729	2.1818	0.	23.871
2775	17.913	2.1818	0.	24.961
2776	18.098	2.1818	0.	26.125
2777	18.282	2.1818	0.	27.371
2778	18.467	2.1818	0.	28.706
2779	18.651	2.1818	0.	30.139
2780	18.836	2.1818	0.	31.679
2781	19.02	2.1818	0.	33.335
2782	19.204	2.1818	0.	35.117
2783	19.389	2.1818	0.	37.036
2784	19.573	2.1818	0.	39.105
2785	19.758	2.1818	0.	41.336
2786	19.942	2.1818	0.	43.742
2787	20.127	2.1818	0.	46.338
2788	20.311	2.1818	0.	49.141
2789	20.496	2.1818	0.	52.166
2790	20.68	2.1818	0.	55.431
2791	20.864	2.1818	0.	58.957
2792	21.049	2.1818	0.	62.762
2793	21.233	2.1818	0.	66.87
2794	21.418	2.1818	0.	71.302
2795	21.602	2.1818	0.	76.083
2796	21.787	2.1818	0.	81.238
2797	21.971	2.1818	0.	86.791
2798	22.156	2.1818	0.	92.768
2799	22.34	2.1818	0.	99.194
2800	22.524	2.1818	0.	106.09
2801	22.709	2.1818	0.	113.48
2802	22.893	2.1818	0.	121.39
2803	23.078	2.1818	0.	129.81
2804	23.262	2.1818	0.	138.77
2805	23.447	2.1818	0.	148.24
2806	23.631	2.1818	0.	158.28
2807	23.816	2.1818	0.	168.66
2808	2.0511	2.	0.	3075.1
2809	2.2356	2.	0.	1045.8
2810	2.42	2.	0.	369.12
2811	2.6044	2.	0.	61.337
2812	2.7889	2.	0.	8.4661
2813	2.9733	2.	0.	4.3071
2814	3.1578	2.	0.	2.3161
2815	3.3422	2.	0.	1.5514
2816	3.5267	2.	0.	1.0551
2817	3.7111	2.	0.	0.7539
2818	3.8956	2.	0.	0.54589
2819	4.08	2.	0.	0.40078
2820	4.2644	2.	0.	0.29622
2821	4.4489	2.	0.	0.22007
2822	4.6333	2.	0.	0.16406
2823	4.8178	2.	0.	0.12263
2824	5.0022	2.	0.	9.1847e-002
2825	5.1867	2.	0.	6.8933e-002
2826	5.3711	2.	0.	5.1838e-002
2827	5.5556	2.	0.	3.9062e-002
2828	5.74	2.	0.	2.9519e-002
2829	5.9244	2.	0.	2.239e-002
2830	6.1089	2.	0.	1.706e-002
2831	6.2933	2.	0.	1.3095e-002
2832	6.4778	2.	0.	1.015e-002
2833	6.6622	2.	0.	7.9656e-003
2834	6.8467	2.	0.	6.3675e-003
2835	7.0311	2.	0.	5.2062e-003
2836	7.2156	2.	0.	4.3675e-003
2837	7.4	2.	0.	3.7845e-003
2838	7.5844	2.	0.	3.3889e-003
2839	7.7689	2.	0.	3.1275e-003
2840	7.9533	2.	0.	2.9793e-003
2841	8.1378	2.	0.	2.9112e-003
2842	8.3222	2.	0.	2.8965e-003
2843	8.5067	2.	0.	2.9328e-003
2844	8.6911	2.	0.	3.0023e-003
2845	8.8756	2.	0.	3.091e-003
2846	9.06	2.	0.	3.2049e-003
2847	9.2444	2.	0.	3.3339e-003
2848	9.4289	2.	0.	3.4671e-003
2849	9.6133	2.	0.	3.6223e-003
2850	9.7978	2.	0.	3.765e-003
2851	9.9822	2.	0.	3.9228e-003
2852	10.167	2.	0.	4.1447e-003
2853	10.351	2.	0.	4.3353e-003
2854	10.536	2.	0.	4.5329e-003
2855	10.72	2.	0.	4.7855e-003
2856	10.904	2.	0.	5.0617e-003
2857	11.089	2.	0.	5.4196e-003
2858	11.273	2.	0.	5.9359e-003
2859	11.458	2.	0.	6.6728e-003
2860	11.642	2.	0.	8.02e-003
2861	11.827	2.	0.	1.1771e-002
2862	12.011	2.	0.	7.8407e-002
2863	12.196	2.	0.	1.125
2864	12.38	2.	0.	2.2114
2865	12.564	2.	0.	3.2314
2866	12.749	2.	0.	4.1896
2867	12.933	2.	0.	5.0915
2868	13.118	2.	0.	5.9427
2869	13.302	2.	0.	6.7486
2870	13.487	2.	0.	7.5143
2871	13.671	2.	0.	8.2445
2872	13.856	2.	0.	8.9438
2873	14.04	2.	0.	9.6166
2874	14.224	2.	0.	10.267
2875	14.409	2.	0.	10.9
2876	14.593	2.	0.	11.518
2877	14.778	2.	0.	12.125
2878	14.962	2.	0.	12.727
2879	15.147	2.	0.	13.325
2880	15.331	2.	0.	13.924
2881	15.516	2.	0.	14.528
2882	15.7	2.	0.	15.14
2883	15.884	2.	0.	15.764
2884	16.069	2.	0.	16.404
2885	16.253	2.	0.	17.064
2886	16.438	2.	0.	17.748
2887	16.622	2.	0.	18.46
2888	16.807	2.	0.	19.204
2889	16.991	2.	0.	19.986
2890	17.176	2.	0.	20.809
2891	17.36	2.	0.	21.68
2892	17.544	2.	0.	22.603
2893	17.729	2.	0.	23.584
2894	17.913	2.	0.	24.629
2895	18.098	2.	0.	25.744
2896	18.282	2.	0.	26.936
2897	18.467	2.	0.	28.214
2898	18.651	2.	0.	29.583
2899	18.836	2.	0.	31.053
2900	19.02	2.	0.	32.633
2901	19.204	2.	0.	34.333
2902	19.389	2.	0.	36.162
2903	19.573	2.	0.	38.132
2904	19.758	2.	0.	40.256
2905	19.942	2.	0.	42.545
2906	20.127	2.	0.	45.014
2907	20.311	2.	0.	47.678
2908	20.496	2.	0.	50.554
2909	20.68	2.	0.	53.658
2910	20.864	2.	0.	57.01
2911	21.049	2.	0.	60.629
2912	21.233	2.	0.	64.539
2913	21.418	2.	0.	68.761
2914	21.602	2.	0.	73.322
2915	21.787	2.	0.	78.248
2916	21.971	2.	0.	83.567
2917	22.156	2.	0.	89.307
2918	22.34	2.	0.	95.498
2919	22.524	2.	0.	102.17
2920	22.709	2.	0.	109.35
2921	22.893	2.	0.	117.05
2922	23.078	2.	0.	125.31
2923	23.262	2.	0.	134.12
2924	23.447	2.	0.	143.49
2925	23.631	2.	0.	153.47
2926	23.816	2.	0.	163.83
2927	2.0511	1.8182	0.	4781.5
2928	2.2356	1.8182	0.	1963.6
2929	2.42	1.8182	0.	831.17
2930	2.6044	1.8182	0.	334.36
2931	2.7889	1.8182	0.	74.324
2932	2.9733	1.8182	0.	10.614
2933	3.1578	1.8182	0.	4.1725
2934	3.3422	1.8182	0.	2.3458
2935	3.5267	1.8182	0.	1.4864
2936	3.7111	1.8182	0.	1.0105
2937	3.8956	1.8182	0.	0.71111
2938	4.08	1.8182	0.	0.5122
2939	4.2644	1.8182	0.	0.37426
2940	4.4489	1.8182	0.	0.27631
2941	4.6333	1.8182	0.	0.20557
2942	4.8178	1.8182	0.	0.1539
2943	5.0022	1.8182	0.	0.11583
2944	5.1867	1.8182	0.	8.7619e-002
2945	5.3711	1.8182	0.	6.66e-002
2946	5.5556	1.8182	0.	5.0868e-002
2947	5.74	1.8182	0.	3.9064e-002
2948	5.9244	1.8182	0.	3.0179e-002
2949	6.1089	1.8182	0.	2.3467e-002
2950	6.2933	1.8182	0.	1.84e-002
2951	6.4778	1.8182	0.	1.4568e-002
2952	6.6622	1.8182	0.	1.1662e-002
2953	6.8467	1.8182	0.	9.4721e-003
2954	7.0311	1.8182	0.	7.8209e-003
2955	7.2156	1.8182	0.	6.5741e-003
2956	7.4	1.8182	0.	5.6494e-003
2957	7.5844	1.8182	0.	4.966e-003
2958	7.7689	1.8182	0.	4.4614e-003
2959	7.9533	1.8182	0.	4.1064e-003
2960	8.1378	1.8182	0.	3.862e-003
2961	8.3222	1.8182	0.	3.6967e-003
2962	8.5067	1.8182	0.	3.6037e-003
2963	8.6911	1.8182	0.	3.5629e-003
2964	8.8756	1.8182	0.	3.5563e-003
2965	9.06	1.8182	0.	3.5894e-003
2966	9.2444	1.8182	0.	3.6499e-003
2967	9.4289	1.8182	0.	3.7259e-003
2968	9.6133	1.8182	0.	3.8342e-003
2969	9.7978	1.8182	0.	3.9394e-003
2970	9.9822	1.8182	0.	4.0719e-003
2971	10.167	1.8182	0.	4.2801e-003
2972	10.351	1.8182	0.	4.4699e-003
2973	10.536	1.8182	0.	4.6835e-003
2974	10.72	1.8182	0.	4.9765e-003
2975	10.904	1.8182	0.	5.3303e-003
2976	11.089	1.8182	0.	5.8281e-003
2977	11.273	1.8182	0.	6.6138e-003
2978	11.458	1.8182	0.	7.9272e-003
2979	11.642	1.8182	0.	1.0969e-002
2980	11.827	1.8182	0.	2.7204e-002
2981	12.011	1.8182	0.	0.69569
2982	12.196	1.8182	0.	1.7934
2983	12.38	1.8182	0.	2.8281
2984	12.564	1.8182	0.	3.7991
2985	12.749	1.8182	0.	4.7118
2986	12.933	1.8182	0.	5.5715
2987	13.118	1.8182	0.	6.3835
2988	13.302	1.8182	0.	7.1528
2989	13.487	1.8182	0.	7.8842
2990	13.671	1.8182	0.	8.5822
2991	13.856	1.8182	0.	9.2512
2992	14.04	1.8182	0.	9.8952
2993	14.224	1.8182	0.	10.518
2994	14.409	1.8182	0.	11.124
2995	14.593	1.8182	0.	11.717
2996	14.778	1.8182	0.	12.3
2997	14.962	1.8182	0.	12.876
2998	15.147	1.8182	0.	13.45
2999	15.331	1.8182	0.	14.025
3000	15.516	1.8182	0.	14.604
3001	15.7	1.8182	0.	15.191
3002	15.884	1.8182	0.	15.789
3003	16.069	1.8182	0.	16.403
3004	16.253	1.8182	0.	17.035
3005	16.438	1.8182	0.	17.689
3006	16.622	1.8182	0.	18.37
3007	16.807	1.8182	0.	19.081
3008	16.991	1.8182	0.	19.828
3009	17.176	1.8182	0.	20.613
3010	17.36	1.8182	0.	21.443
3011	17.544	1.8182	0.	22.321
3012	17.729	1.8182	0.	23.254
3013	17.913	1.8182	0.	24.247
3014	18.098	1.8182	0.	25.305
3015	18.282	1.8182	0.	26.435
3016	18.467	1.8182	0.	27.645
3017	18.651	1.8182	0.	28.94
3018	18.836	1.8182	0.	30.33
3019	19.02	1.8182	0.	31.822
3020	19.204	1.8182	0.	33.425
3021	19.389	1.8182	0.	35.148
3022	19.573	1.8182	0.	37.003
3023	19.758	1.8182	0.	39.001
3024	19.942	1.8182	0.	41.153
3025	20.127	1.8182	0.	43.473
3026	20.311	1.8182	0.	45.975
3027	20.496	1.8182	0.	48.674
3028	20.68	1.8182	0.	51.587
3029	20.864	1.8182	0.	54.733
3030	21.049	1.8182	0.	58.132
3031	21.233	1.8182	0.	61.804
3032	21.418	1.8182	0.	65.775
3033	21.602	1.8182	0.	70.07
3034	21.787	1.8182	0.	74.717
3035	21.971	1.8182	0.	79.747
3036	22.156	1.8182	0.	85.192
3037	22.34	1.8182	0.	91.087
3038	22.524	1.8182	0.	97.468
3039	22.709	1.8182	0.	104.37
3040	22.893	1.8182	0.	111.82
3041	23.078	1.8182	0.	119.85
3042	23.262	1.8182	0.	128.49
3043	23.447	1.8182	0.	137.72
3044	23.631	1.8182	0.	147.6
3045	23.816	1.8182	0.	157.94
3046	2.0511	1.6364	0.	4209.1
3047	2.2356	1.6364	0.	2141.8
3048	2.42	1.6364	0.	1124.4
3049	2.6044	1.6364	0.	570.69
3050	2.7889	1.6364	0.	249.38
3051	2.9733	1.6364	0.	70.017
3052	3.1578	1.6364	0.	11.189
3053	3.3422	1.6364	0.	4.1809
3054	3.5267	1.6364	0.	2.2634
3055	3.7111	1.6364	0.	1.4141
3056	3.8956	1.6364	0.	0.94578
3057	4.08	1.6364	0.	0.65841
3058	4.2644	1.6364	0.	0.47004
3059	4.4489	1.6364	0.	0.34154
3060	4.6333	1.6364	0.	0.25149
3061	4.8178	1.6364	0.	0.18719
3062	5.0022	1.6364	0.	0.14061
3063	5.1867	1.6364	0.	0.1065
3064	5.3711	1.6364	0.	8.1299e-002
3065	5.5556	1.6364	0.	6.2524e-002
3066	5.74	1.6364	0.	4.8454e-002
3067	5.9244	1.6364	0.	3.7844e-002
3068	6.1089	1.6364	0.	2.9793e-002
3069	6.2933	1.6364	0.	2.3667e-002
3070	6.4778	1.6364	0.	1.8983e-002
3071	6.6622	1.6364	0.	1.5384e-002
3072	6.8467	1.6364	0.	1.2622e-002
3073	7.0311	1.6364	0.	1.0494e-002
3074	7.2156	1.6364	0.	8.8479e-003
3075	7.4	1.6364	0.	7.5847e-003
3076	7.5844	1.6364	0.	6.6134e-003
3077	7.7689	1.6364	0.	5.8628e-003
3078	7.9533	1.6364	0.	5.2968e-003
3079	8.1378	1.6364	0.	4.8703e-003
3080	8.3222	1.6364	0.	4.5469e-003
3081	8.5067	1.6364	0.	4.3182e-003
3082	8.6911	1.6364	0.	4.1602e-003
3083	8.8756	1.6364	0.	4.0525e-003
3084	9.06	1.6364	0.	3.9985e-003
3085	9.2444	1.6364	0.	3.9847e-003
3086	9.4289	1.6364	0.	3.9988e-003
3087	9.6133	1.6364	0.	4.0573e-003
3088	9.7978	1.6364	0.	4.1258e-003
3089	9.9822	1.6364	0.	4.2337e-003
3090	10.167	1.6364	0.	4.4322e-003
3091	10.351	1.6364	0.	4.6314e-003
3092	10.536	1.6364	0.	4.882e-003
3093	10.72	1.6364	0.	5.2521e-003
3094	10.904	1.6364	0.	5.75e-003
3095	11.089	1.6364	0.	6.5256e-003
3096	11.273	1.6364	0.	7.8964e-003
3097	11.458	1.6364	0.	1.0797e-002
3098	11.642	1.6364	0.	2.2032e-002
3099	11.827	1.6364	0.	0.4336
3100	12.011	1.6364	0.	1.5239
3101	12.196	1.6364	0.	2.5625
3102	12.38	1.6364	0.	3.5373
3103	12.564	1.6364	0.	4.4524
3104	12.749	1.6364	0.	5.3132
3105	12.933	1.6364	0.	6.1247
3106	13.118	1.6364	0.	6.8919
3107	13.302	1.6364	0.	7.6195
3108	13.487	1.6364	0.	8.3119
3109	13.671	1.6364	0.	8.9732
3110	13.856	1.6364	0.	9.6076
3111	14.04	1.6364	0.	10.219
3112	14.224	1.6364	0.	10.811
3113	14.409	1.6364	0.	11.387
3114	14.593	1.6364	0.	11.95
3115	14.778	1.6364	0.	12.505
3116	14.962	1.6364	0.	13.053
3117	15.147	1.6364	0.	13.6
3118	15.331	1.6364	0.	14.147
3119	15.516	1.6364	0.	14.698
3120	15.7	1.6364	0.	15.257
3121	15.884	1.6364	0.	15.826
3122	16.069	1.6364	0.	16.409
3123	16.253	1.6364	0.	17.01
3124	16.438	1.6364	0.	17.631
3125	16.622	1.6364	0.	18.277
3126	16.807	1.6364	0.	18.951
3127	16.991	1.6364	0.	19.657
3128	17.176	1.6364	0.	20.4
3129	17.36	1.6364	0.	21.183
3130	17.544	1.6364	0.	22.012
3131	17.729	1.6364	0.	22.89
3132	17.913	1.6364	0.	23.824
3133	18.098	1.6364	0.	24.818
3134	18.282	1.6364	0.	25.879
3135	18.467	1.6364	0.	27.012
3136	18.651	1.6364	0.	28.224
3137	18.836	1.6364	0.	29.522
3138	19.02	1.6364	0.	30.915
3139	19.204	1.6364	0.	32.409
3140	19.389	1.6364	0.	34.014
3141	19.573	1.6364	0.	35.739
3142	19.758	1.6364	0.	37.594
3143	19.942	1.6364	0.	39.591
3144	20.127	1.6364	0.	41.741
3145	20.311	1.6364	0.	44.059
3146	20.496	1.6364	0.	46.557
3147	20.68	1.6364	0.	49.253
3148	20.864	1.6364	0.	52.163
3149	21.049	1.6364	0.	55.306
3150	21.233	1.6364	0.	58.705
3151	21.418	1.6364	0.	62.382
3152	21.602	1.6364	0.	66.364
3153	21.787	1.6364	0.	70.681
3154	21.971	1.6364	0.	75.366
3155	22.156	1.6364	0.	80.455
3156	22.34	1.6364	0.	85.988
3157	22.524	1.6364	0.	92.008
3158	22.709	1.6364	0.	98.558
3159	22.893	1.6364	0.	105.68
3160	23.078	1.6364	0.	113.42
3161	23.262	1.6364	0.	121.81
3162	23.447	1.6364	0.	130.86
3163	23.631	1.6364	0.	140.62
3164	23.816	1.6364	0.	150.91
3165	2.0511	1.4545	0.	3193.9
3166	2.2356	1.4545	0.	1927.8
3167	2.42	1.4545	0.	1167.7
3168	2.6044	1.4545	0.	677.12
3169	2.7889	1.4545	0.	370.18
3170	2.9733	1.4545	0.	179.77
3171	3.1578	1.4545	0.	64.063
3172	3.3422	1.4545	0.	13.085
3173	3.5267	1.4545	0.	4.3583
3174	3.7111	1.4545	0.	2.2273
3175	3.8956	1.4545	0.	1.34
3176	4.08	1.4545	0.	0.87334
3177	4.2644	1.4545	0.	0.59637
3178	4.4489	1.4545	0.	0.42006
3179	4.6333	1.4545	0.	0.30265
3180	4.8178	1.4545	0.	0.22198
3181	5.0022	1.4545	0.	0.16523
3182	5.1867	1.4545	0.	0.1246
3183	5.3711	1.4545	0.	9.5053e-002
3184	5.5556	1.4545	0.	7.3289e-002
3185	5.74	1.4545	0.	5.709e-002
3186	5.9244	1.4545	0.	4.491e-002
3187	6.1089	1.4545	0.	3.5664e-002
3188	6.2933	1.4545	0.	2.8603e-002
3189	6.4778	1.4545	0.	2.317e-002
3190	6.6622	1.4545	0.	1.8956e-002
3191	6.8467	1.4545	0.	1.5683e-002
3192	7.0311	1.4545	0.	1.3125e-002
3193	7.2156	1.4545	0.	1.111e-002
3194	7.4	1.4545	0.	9.5308e-003
3195	7.5844	1.4545	0.	8.2859e-003
3196	7.7689	1.4545	0.	7.2981e-003
3197	7.9533	1.4545	0.	6.5243e-003
3198	8.1378	1.4545	0.	5.915e-003
3199	8.3222	1.4545	0.	5.4333e-003
3200	8.5067	1.4545	0.	5.0648e-003
3201	8.6911	1.4545	0.	4.7842e-003
3202	8.8756	1.4545	0.	4.5695e-003
3203	9.06	1.4545	0.	4.4236e-003
3204	9.2444	1.4545	0.	4.3309e-003
3205	9.4289	1.4545	0.	4.2796e-003
3206	9.6133	1.4545	0.	4.2872e-003
3207	9.7978	1.4545	0.	4.318e-003
3208	9.9822	1.4545	0.	4.4057e-003
3209	10.167	1.4545	0.	4.6068e-003
3210	10.351	1.4545	0.	4.838e-003
3211	10.536	1.4545	0.	5.1649e-003
3212	10.72	1.4545	0.	5.6888e-003
3213	10.904	1.4545	0.	6.4884e-003
3214	11.089	1.4545	0.	7.911e-003
3215	11.273	1.4545	0.	1.1019e-002
3216	11.458	1.4545	0.	2.2183e-002
3217	11.642	1.4545	0.	0.35765
3218	11.827	1.4545	0.	1.4294
3219	12.011	1.4545	0.	2.4599
3220	12.196	1.4545	0.	3.427
3221	12.38	1.4545	0.	4.3346
3222	12.564	1.4545	0.	5.1873
3223	12.749	1.4545	0.	5.9903
3224	12.933	1.4545	0.	6.7482
3225	13.118	1.4545	0.	7.4655
3226	13.302	1.4545	0.	8.1466
3227	13.487	1.4545	0.	8.7955
3228	13.671	1.4545	0.	9.4161
3229	13.856	1.4545	0.	10.012
3230	14.04	1.4545	0.	10.587
3231	14.224	1.4545	0.	11.144
3232	14.409	1.4545	0.	11.686
3233	14.593	1.4545	0.	12.218
3234	14.778	1.4545	0.	12.741
3235	14.962	1.4545	0.	13.259
3236	15.147	1.4545	0.	13.775
3237	15.331	1.4545	0.	14.292
3238	15.516	1.4545	0.	14.812
3239	15.7	1.4545	0.	15.34
3240	15.884	1.4545	0.	15.877
3241	16.069	1.4545	0.	16.427
3242	16.253	1.4545	0.	16.993
3243	16.438	1.4545	0.	17.578
3244	16.622	1.4545	0.	18.185
3245	16.807	1.4545	0.	18.818
3246	16.991	1.4545	0.	19.481
3247	17.176	1.4545	0.	20.176
3248	17.36	1.4545	0.	20.909
3249	17.544	1.4545	0.	21.683
3250	17.729	1.4545	0.	22.502
3251	17.913	1.4545	0.	23.371
3252	18.098	1.4545	0.	24.295
3253	18.282	1.4545	0.	25.279
3254	18.467	1.4545	0.	26.328
3255	18.651	1.4545	0.	27.449
3256	18.836	1.4545	0.	28.648
3257	19.02	1.4545	0.	29.931
3258	19.204	1.4545	0.	31.305
3259	19.389	1.4545	0.	32.779
3260	19.573	1.4545	0.	34.361
3261	19.758	1.4545	0.	36.06
3262	19.942	1.4545	0.	37.886
3263	20.127	1.4545	0.	39.85
3264	20.311	1.4545	0.	41.963
3265	20.496	1.4545	0.	44.239
3266	20.68	1.4545	0.	46.693
3267	20.864	1.4545	0.	49.339
3268	21.049	1.4545	0.	52.197
3269	21.233	1.4545	0.	55.287
3270	21.418	1.4545	0.	58.631
3271	21.602	1.4545	0.	62.256
3272	21.787	1.4545	0.	66.192
3273	21.971	1.4545	0.	70.473
3274	22.156	1.4545	0.	75.14
3275	22.34	1.4545	0.	80.237
3276	22.524	1.4545	0.	85.815
3277	22.709	1.4545	0.	91.928
3278	22.893	1.4545	0.	98.637
3279	23.078	1.4545	0.	106.
3280	23.262	1.4545	0.	114.06
3281	23.447	1.4545	0.	122.85
3282	23.631	1.4545	0.	132.44
3283	23.816	1.4545	0.	142.68
3284	2.0511	1.2727	0.	2476.8
3285	2.2356	1.2727	0.	1597.6
3286	2.42	1.2727	0.	1047.5
3287	2.6044	1.2727	0.	670.45
3288	2.7889	1.2727	0.	416.94
3289	2.9733	1.2727	0.	249.25
3290	3.1578	1.2727	0.	138.02
3291	3.3422	1.2727	0.	64.056
3292	3.5267	1.2727	0.	19.477
3293	3.7111	1.2727	0.	5.2969
3294	3.8956	1.2727	0.	2.3165
3295	4.08	1.2727	0.	1.2837
3296	4.2644	1.2727	0.	0.7958
3297	4.4489	1.2727	0.	0.52631
3298	4.6333	1.2727	0.	0.3634
3299	4.8178	1.2727	0.	0.25897
3300	5.0022	1.2727	0.	0.18918
3301	5.1867	1.2727	0.	0.14106
3302	5.3711	1.2727	0.	0.10703
3303	5.5556	1.2727	0.	8.2447e-002
3304	5.74	1.2727	0.	6.439e-002
3305	5.9244	1.2727	0.	5.0917e-002
3306	6.1089	1.2727	0.	4.0723e-002
3307	6.2933	1.2727	0.	3.2931e-002
3308	6.4778	1.2727	0.	2.6911e-002
3309	6.6622	1.2727	0.	2.2211e-002
3310	6.8467	1.2727	0.	1.8524e-002
3311	7.0311	1.2727	0.	1.5606e-002
3312	7.2156	1.2727	0.	1.3278e-002
3313	7.4	1.2727	0.	1.1421e-002
3314	7.5844	1.2727	0.	9.9294e-003
3315	7.7689	1.2727	0.	8.7205e-003
3316	7.9533	1.2727	0.	7.7502e-003
3317	8.1378	1.2727	0.	6.9654e-003
3318	8.3222	1.2727	0.	6.3252e-003
3319	8.5067	1.2727	0.	5.8156e-003
3320	8.6911	1.2727	0.	5.4097e-003
3321	8.8756	1.2727	0.	5.0844e-003
3322	9.06	1.2727	0.	4.8415e-003
3323	9.2444	1.2727	0.	4.6676e-003
3324	9.4289	1.2727	0.	4.5481e-003
3325	9.6133	1.2727	0.	4.5038e-003
3326	9.7978	1.2727	0.	4.5021e-003
3327	9.9822	1.2727	0.	4.5821e-003
3328	10.167	1.2727	0.	4.8094e-003
3329	10.351	1.2727	0.	5.1195e-003
3330	10.536	1.2727	0.	5.6158e-003
3331	10.72	1.2727	0.	6.4922e-003
3332	10.904	1.2727	0.	8.0843e-003
3333	11.089	1.2727	0.	1.1757e-002
3334	11.273	1.2727	0.	2.7027e-002
3335	11.458	1.2727	0.	0.48047
3336	11.642	1.2727	0.	1.5385
3337	11.827	1.2727	0.	2.5472
3338	12.011	1.2727	0.	3.4936
3339	12.196	1.2727	0.	4.3814
3340	12.38	1.2727	0.	5.2152
3341	12.564	1.2727	0.	5.9996
3342	12.749	1.2727	0.	6.7394
3343	12.933	1.2727	0.	7.4386
3344	13.118	1.2727	0.	8.1015
3345	13.302	1.2727	0.	8.7317
3346	13.487	1.2727	0.	9.3333
3347	13.671	1.2727	0.	9.9093
3348	13.856	1.2727	0.	10.463
3349	14.04	1.2727	0.	10.998
3350	14.224	1.2727	0.	11.518
3351	14.409	1.2727	0.	12.024
3352	14.593	1.2727	0.	12.521
3353	14.778	1.2727	0.	13.01
3354	14.962	1.2727	0.	13.495
3355	15.147	1.2727	0.	13.978
3356	15.331	1.2727	0.	14.462
3357	15.516	1.2727	0.	14.949
3358	15.7	1.2727	0.	15.443
3359	15.884	1.2727	0.	15.945
3360	16.069	1.2727	0.	16.46
3361	16.253	1.2727	0.	16.988
3362	16.438	1.2727	0.	17.534
3363	16.622	1.2727	0.	18.1
3364	16.807	1.2727	0.	18.689
3365	16.991	1.2727	0.	19.305
3366	17.176	1.2727	0.	19.95
3367	17.36	1.2727	0.	20.629
3368	17.544	1.2727	0.	21.344
3369	17.729	1.2727	0.	22.099
3370	17.913	1.2727	0.	22.899
3371	18.098	1.2727	0.	23.748
3372	18.282	1.2727	0.	24.649
3373	18.467	1.2727	0.	25.609
3374	18.651	1.2727	0.	26.632
3375	18.836	1.2727	0.	27.724
3376	19.02	1.2727	0.	28.889
3377	19.204	1.2727	0.	30.136
3378	19.389	1.2727	0.	31.469
3379	19.573	1.2727	0.	32.898
3380	19.758	1.2727	0.	34.429
3381	19.942	1.2727	0.	36.071
3382	20.127	1.2727	0.	37.833
3383	20.311	1.2727	0.	39.726
3384	20.496	1.2727	0.	41.762
3385	20.68	1.2727	0.	43.952
3386	20.864	1.2727	0.	46.312
3387	21.049	1.2727	0.	48.857
3388	21.233	1.2727	0.	51.607
3389	21.418	1.2727	0.	54.582
3390	21.602	1.2727	0.	57.807
3391	21.787	1.2727	0.	61.313
3392	21.971	1.2727	0.	65.134
3393	22.156	1.2727	0.	69.311
3394	22.34	1.2727	0.	73.892
3395	22.524	1.2727	0.	78.937
3396	22.709	1.2727	0.	84.511
3397	22.893	1.2727	0.	90.69
3398	23.078	1.2727	0.	97.552
3399	23.262	1.2727	0.	105.18
3400	23.447	1.2727	0.	113.62
3401	23.631	1.2727	0.	122.98
3402	23.816	1.2727	0.	133.12
3403	2.0511	1.0909	0.	1891.6
3404	2.2356	1.0909	0.	1246.
3405	2.42	1.0909	0.	861.54
3406	2.6044	1.0909	0.	592.76
3407	2.7889	1.0909	0.	405.72
3408	2.9733	1.0909	0.	275.77
3409	3.1578	1.0909	0.	183.84
3410	3.3422	1.0909	0.	117.19
3411	3.5267	1.0909	0.	67.82
3412	3.7111	1.0909	0.	31.396
3413	3.8956	1.0909	0.	9.0438
3414	4.08	1.0909	0.	2.7187
3415	4.2644	1.0909	0.	1.254
3416	4.4489	1.0909	0.	0.71033
3417	4.6333	1.0909	0.	0.44766
3418	4.8178	1.0909	0.	0.30144
3419	5.0022	1.0909	0.	0.21258
3420	5.1867	1.0909	0.	0.15523
3421	5.3711	1.0909	0.	0.11651
3422	5.5556	1.0909	0.	8.9431e-002
3423	5.74	1.0909	0.	6.9954e-002
3424	5.9244	1.0909	0.	5.5608e-002
3425	6.1089	1.0909	0.	4.4822e-002
3426	6.2933	1.0909	0.	3.6586e-002
3427	6.4778	1.0909	0.	3.0201e-002
3428	6.6622	1.0909	0.	2.5181e-002
3429	6.8467	1.0909	0.	2.1205e-002
3430	7.0311	1.0909	0.	1.802e-002
3431	7.2156	1.0909	0.	1.544e-002
3432	7.4	1.0909	0.	1.3349e-002
3433	7.5844	1.0909	0.	1.1638e-002
3434	7.7689	1.0909	0.	1.0224e-002
3435	7.9533	1.0909	0.	9.0621e-003
3436	8.1378	1.0909	0.	8.1001e-003
3437	8.3222	1.0909	0.	7.2962e-003
3438	8.5067	1.0909	0.	6.6368e-003
3439	8.6911	1.0909	0.	6.0941e-003
3440	8.8756	1.0909	0.	5.6462e-003
3441	9.06	1.0909	0.	5.2948e-003
3442	9.2444	1.0909	0.	5.0267e-003
3443	9.4289	1.0909	0.	4.8312e-003
3444	9.6133	1.0909	0.	4.7319e-003
3445	9.7978	1.0909	0.	4.7032e-003
3446	9.9822	1.0909	0.	4.7959e-003
3447	10.167	1.0909	0.	5.1004e-003
3448	10.351	1.0909	0.	5.6067e-003
3449	10.536	1.0909	0.	6.5522e-003
3450	10.72	1.0909	0.	8.548e-003
3451	10.904	1.0909	0.	1.3916e-002
3452	11.089	1.0909	0.	5.4744e-002
3453	11.273	1.0909	0.	0.85346
3454	11.458	1.0909	0.	1.8833
3455	11.642	1.0909	0.	2.8538
3456	11.827	1.0909	0.	3.7639
3457	12.011	1.0909	0.	4.6176
3458	12.196	1.0909	0.	5.4194
3459	12.38	1.0909	0.	6.1737
3460	12.564	1.0909	0.	6.8846
3461	12.749	1.0909	0.	7.5563
3462	12.933	1.0909	0.	8.1924
3463	13.118	1.0909	0.	8.7967
3464	13.302	1.0909	0.	9.3724
3465	13.487	1.0909	0.	9.9229
3466	13.671	1.0909	0.	10.451
3467	13.856	1.0909	0.	10.96
3468	14.04	1.0909	0.	11.453
3469	14.224	1.0909	0.	11.932
3470	14.409	1.0909	0.	12.4
3471	14.593	1.0909	0.	12.859
3472	14.778	1.0909	0.	13.312
3473	14.962	1.0909	0.	13.761
3474	15.147	1.0909	0.	14.209
3475	15.331	1.0909	0.	14.658
3476	15.516	1.0909	0.	15.111
3477	15.7	1.0909	0.	15.569
3478	15.884	1.0909	0.	16.035
3479	16.069	1.0909	0.	16.511
3480	16.253	1.0909	0.	17.001
3481	16.438	1.0909	0.	17.506
3482	16.622	1.0909	0.	18.028
3483	16.807	1.0909	0.	18.571
3484	16.991	1.0909	0.	19.138
3485	17.176	1.0909	0.	19.73
3486	17.36	1.0909	0.	20.351
3487	17.544	1.0909	0.	21.005
3488	17.729	1.0909	0.	21.693
3489	17.913	1.0909	0.	22.42
3490	18.098	1.0909	0.	23.19
3491	18.282	1.0909	0.	24.006
3492	18.467	1.0909	0.	24.871
3493	18.651	1.0909	0.	25.791
3494	18.836	1.0909	0.	26.77
3495	19.02	1.0909	0.	27.813
3496	19.204	1.0909	0.	28.925
3497	19.389	1.0909	0.	30.111
3498	19.573	1.0909	0.	31.378
3499	19.758	1.0909	0.	32.732
3500	19.942	1.0909	0.	34.18
3501	20.127	1.0909	0.	35.73
3502	20.311	1.0909	0.	37.39
3503	20.496	1.0909	0.	39.171
3504	20.68	1.0909	0.	41.082
3505	20.864	1.0909	0.	43.137
3506	21.049	1.0909	0.	45.347
3507	21.233	1.0909	0.	47.731
3508	21.418	1.0909	0.	50.306
3509	21.602	1.0909	0.	53.096
3510	21.787	1.0909	0.	56.127
3511	21.971	1.0909	0.	59.433
3512	22.156	1.0909	0.	63.053
3513	22.34	1.0909	0.	67.039
3514	22.524	1.0909	0.	71.452
3515	22.709	1.0909	0.	76.369
3516	22.893	1.0909	0.	81.882
3517	23.078	1.0909	0.	88.096
3518	23.262	1.0909	0.	95.132
3519	23.447	1.0909	0.	103.08
3520	23.631	1.0909	0.	112.09
3521	23.816	1.0909	0.	122.09
3522	2.0511	0.90909	0.	1410.4
3523	2.2356	0.90909	0.	921.8
3524	2.42	0.90909	0.	657.
3525	2.6044	0.90909	0.	481.37
3526	2.7889	0.90909	0.	358.9
3527	2.9733	0.90909	0.	269.94
3528	3.1578	0.90909	0.	202.25
3529	3.3422	0.90909	0.	148.75
3530	3.5267	0.90909	0.	105.4
3531	3.7111	0.90909	0.	69.819
3532	3.8956	0.90909	0.	40.672
3533	4.08	0.90909	0.	17.598
3534	4.2644	0.90909	0.	4.1168
3535	4.4489	0.90909	0.	1.2576
3536	4.6333	0.90909	0.	0.61062
3537	4.8178	0.90909	0.	0.36133
3538	5.0022	0.90909	0.	0.23754
3539	5.1867	0.90909	0.	0.1669
3540	5.3711	0.90909	0.	0.12285
3541	5.5556	0.90909	0.	9.3583e-002
3542	5.74	0.90909	0.	7.3213e-002
3543	5.9244	0.90909	0.	5.8496e-002
3544	6.1089	0.90909	0.	4.7536e-002
3545	6.2933	0.90909	0.	3.9185e-002
3546	6.4778	0.90909	0.	3.269e-002
3547	6.6622	0.90909	0.	2.7546e-002
3548	6.8467	0.90909	0.	2.3426e-002
3549	7.0311	0.90909	0.	2.0082e-002
3550	7.2156	0.90909	0.	1.7334e-002
3551	7.4	0.90909	0.	1.5067e-002
3552	7.5844	0.90909	0.	1.3177e-002
3553	7.7689	0.90909	0.	1.1585e-002
3554	7.9533	0.90909	0.	1.025e-002
3555	8.1378	0.90909	0.	9.1222e-003
3556	8.3222	0.90909	0.	8.1594e-003
3557	8.5067	0.90909	0.	7.35e-003
3558	8.6911	0.90909	0.	6.6682e-003
3559	8.8756	0.90909	0.	6.092e-003
3560	9.06	0.90909	0.	5.6267e-003
3561	9.2444	0.90909	0.	5.2613e-003
3562	9.4289	0.90909	0.	4.9901e-003
3563	9.6133	0.90909	0.	4.8455e-003
3564	9.7978	0.90909	0.	4.8199e-003
3565	9.9822	0.90909	0.	4.9991e-003
3566	10.167	0.90909	0.	5.561e-003
3567	10.351	0.90909	0.	6.7484e-003
3568	10.536	0.90909	0.	9.8017e-003
3569	10.72	0.90909	0.	2.3984e-002
3570	10.904	0.90909	0.	0.50341
3571	11.089	0.90909	0.	1.5267
3572	11.273	0.90909	0.	2.499
3573	11.458	0.90909	0.	3.4112
3574	11.642	0.90909	0.	4.2667
3575	11.827	0.90909	0.	5.0697
3576	12.011	0.90909	0.	5.8243
3577	12.196	0.90909	0.	6.5346
3578	12.38	0.90909	0.	7.2044
3579	12.564	0.90909	0.	7.8372
3580	12.749	0.90909	0.	8.4366
3581	12.933	0.90909	0.	9.0057
3582	13.118	0.90909	0.	9.5478
3583	13.302	0.90909	0.	10.066
3584	13.487	0.90909	0.	10.562
3585	13.671	0.90909	0.	11.04
3586	13.856	0.90909	0.	11.502
3587	14.04	0.90909	0.	11.949
3588	14.224	0.90909	0.	12.386
3589	14.409	0.90909	0.	12.813
3590	14.593	0.90909	0.	13.233
3591	14.778	0.90909	0.	13.648
3592	14.962	0.90909	0.	14.06
3593	15.147	0.90909	0.	14.472
3594	15.331	0.90909	0.	14.884
3595	15.516	0.90909	0.	15.3
3596	15.7	0.90909	0.	15.721
3597	15.884	0.90909	0.	16.15
3598	16.069	0.90909	0.	16.587
3599	16.253	0.90909	0.	17.036
3600	16.438	0.90909	0.	17.498
3601	16.622	0.90909	0.	17.976
3602	16.807	0.90909	0.	18.471
3603	16.991	0.90909	0.	18.987
3604	17.176	0.90909	0.	19.524
3605	17.36	0.90909	0.	20.087
3606	17.544	0.90909	0.	20.676
3607	17.729	0.90909	0.	21.296
3608	17.913	0.90909	0.	21.948
3609	18.098	0.90909	0.	22.636
3610	18.282	0.90909	0.	23.363
3611	18.467	0.90909	0.	24.132
3612	18.651	0.90909	0.	24.946
3613	18.836	0.90909	0.	25.809
3614	19.02	0.90909	0.	26.725
3615	19.204	0.90909	0.	27.698
3616	19.389	0.90909	0.	28.732
3617	19.573	0.90909	0.	29.832
3618	19.758	0.90909	0.	31.004
3619	19.942	0.90909	0.	32.252
3620	20.127	0.90909	0.	33.582
3621	20.311	0.90909	0.	35.002
3622	20.496	0.90909	0.	36.519
3623	20.68	0.90909	0.	38.14
3624	20.864	0.90909	0.	39.876
3625	21.049	0.90909	0.	41.737
3626	21.233	0.90909	0.	43.737
3627	21.418	0.90909	0.	45.89
3628	21.602	0.90909	0.	48.215
3629	21.787	0.90909	0.	50.736
3630	21.971	0.90909	0.	53.48
3631	22.156	0.90909	0.	56.485
3632	22.34	0.90909	0.	59.799
3633	22.524	0.90909	0.	63.482
3634	22.709	0.90909	0.	67.614
3635	22.893	0.90909	0.	72.301
3636	23.078	0.90909	0.	77.675
3637	23.262	0.90909	0.	83.902
3638	23.447	0.90909	0.	91.146
3639	23.631	0.90909	0.	99.633
3640	23.816	0.90909	0.	109.38
3641	2.0511	0.72727	0.	1001.5
3642	2.2356	0.72727	0.	632.24
3643	2.42	0.72727	0.	462.48
3644	2.6044	0.72727	0.	363.37
3645	2.7889	0.72727	0.	295.87
3646	2.9733	0.72727	0.	243.49
3647	3.1578	0.72727	0.	198.95
3648	3.3422	0.72727	0.	159.51
3649	3.5267	0.72727	0.	124.28
3650	3.7111	0.72727	0.	93.035
3651	3.8956	0.72727	0.	65.703
3652	4.08	0.72727	0.	42.231
3653	4.2644	0.72727	0.	22.57
3654	4.4489	0.72727	0.	7.3066
3655	4.6333	0.72727	0.	1.2825
3656	4.8178	0.72727	0.	0.48697
3657	5.0022	0.72727	0.	0.27029
3658	5.1867	0.72727	0.	0.17644
3659	5.3711	0.72727	0.	0.12612
3660	5.5556	0.72727	0.	9.5528e-002
3661	5.74	0.72727	0.	7.5315e-002
3662	5.9244	0.72727	0.	6.111e-002
3663	6.1089	0.72727	0.	5.0641e-002
3664	6.2933	0.72727	0.	4.2652e-002
3665	6.4778	0.72727	0.	3.6371e-002
3666	6.6622	0.72727	0.	3.131e-002
3667	6.8467	0.72727	0.	2.7166e-002
3668	7.0311	0.72727	0.	2.3716e-002
3669	7.2156	0.72727	0.	2.0799e-002
3670	7.4	0.72727	0.	1.832e-002
3671	7.5844	0.72727	0.	1.6191e-002
3672	7.7689	0.72727	0.	1.4342e-002
3673	7.9533	0.72727	0.	1.274e-002
3674	8.1378	0.72727	0.	1.134e-002
3675	8.3222	0.72727	0.	1.0108e-002
3676	8.5067	0.72727	0.	9.0356e-003
3677	8.6911	0.72727	0.	8.101e-003
3678	8.8756	0.72727	0.	7.2852e-003
3679	9.06	0.72727	0.	6.5967e-003
3680	9.2444	0.72727	0.	6.0302e-003
3681	9.4289	0.72727	0.	5.5928e-003
3682	9.6133	0.72727	0.	5.3411e-003
3683	9.7978	0.72727	0.	5.328e-003
3684	9.9822	0.72727	0.	5.8302e-003
3685	10.167	0.72727	0.	7.8264e-003
3686	10.351	0.72727	0.	1.9911e-002
3687	10.536	0.72727	0.	0.59571
3688	10.72	0.72727	0.	1.5943
3689	10.904	0.72727	0.	2.5372
3690	11.089	0.72727	0.	3.4221
3691	11.273	0.72727	0.	4.2528
3692	11.458	0.72727	0.	5.0327
3693	11.642	0.72727	0.	5.7659
3694	11.827	0.72727	0.	6.4559
3695	12.011	0.72727	0.	7.1063
3696	12.196	0.72727	0.	7.7204
3697	12.38	0.72727	0.	8.3014
3698	12.564	0.72727	0.	8.8522
3699	12.749	0.72727	0.	9.3758
3700	12.933	0.72727	0.	9.8748
3701	13.118	0.72727	0.	10.352
3702	13.302	0.72727	0.	10.809
3703	13.487	0.72727	0.	11.249
3704	13.671	0.72727	0.	11.674
3705	13.856	0.72727	0.	12.086
3706	14.04	0.72727	0.	12.487
3707	14.224	0.72727	0.	12.879
3708	14.409	0.72727	0.	13.264
3709	14.593	0.72727	0.	13.644
3710	14.778	0.72727	0.	14.019
3711	14.962	0.72727	0.	14.393
3712	15.147	0.72727	0.	14.767
3713	15.331	0.72727	0.	15.143
3714	15.516	0.72727	0.	15.521
3715	15.7	0.72727	0.	15.904
3716	15.884	0.72727	0.	16.294
3717	16.069	0.72727	0.	16.692
3718	16.253	0.72727	0.	17.099
3719	16.438	0.72727	0.	17.518
3720	16.622	0.72727	0.	17.95
3721	16.807	0.72727	0.	18.397
3722	16.991	0.72727	0.	18.861
3723	17.176	0.72727	0.	19.343
3724	17.36	0.72727	0.	19.846
3725	17.544	0.72727	0.	20.371
3726	17.729	0.72727	0.	20.921
3727	17.913	0.72727	0.	21.497
3728	18.098	0.72727	0.	22.103
3729	18.282	0.72727	0.	22.74
3730	18.467	0.72727	0.	23.41
3731	18.651	0.72727	0.	24.117
3732	18.836	0.72727	0.	24.863
3733	19.02	0.72727	0.	25.651
3734	19.204	0.72727	0.	26.483
3735	19.389	0.72727	0.	27.364
3736	19.573	0.72727	0.	28.296
3737	19.758	0.72727	0.	29.283
3738	19.942	0.72727	0.	30.328
3739	20.127	0.72727	0.	31.437
3740	20.311	0.72727	0.	32.613
3741	20.496	0.72727	0.	33.861
3742	20.68	0.72727	0.	35.188
3743	20.864	0.72727	0.	36.6
3744	21.049	0.72727	0.	38.105
3745	21.233	0.72727	0.	39.71
3746	21.418	0.72727	0.	41.429
3747	21.602	0.72727	0.	43.273
3748	21.787	0.72727	0.	45.26
3749	21.971	0.72727	0.	47.412
3750	22.156	0.72727	0.	49.758
3751	22.34	0.72727	0.	52.337
3752	22.524	0.72727	0.	55.202
3753	22.709	0.72727	0.	58.427
3754	22.893	0.72727	0.	62.118
3755	23.078	0.72727	0.	66.42
3756	23.262	0.72727	0.	71.544
3757	23.447	0.72727	0.	77.746
3758	23.631	0.72727	0.	85.397
3759	23.816	0.72727	0.	94.704
3760	2.0511	0.54545	0.	650.35
3761	2.2356	0.54545	0.	385.83
3762	2.42	0.54545	0.	296.77
3763	2.6044	0.54545	0.	257.25
3764	2.7889	0.54545	0.	230.48
3765	2.9733	0.54545	0.	205.27
3766	3.1578	0.54545	0.	178.83
3767	3.3422	0.54545	0.	151.51
3768	3.5267	0.54545	0.	124.45
3769	3.7111	0.54545	0.	98.756
3770	3.8956	0.54545	0.	75.216
3771	4.08	0.54545	0.	54.295
3772	4.2644	0.54545	0.	36.192
3773	4.4489	0.54545	0.	20.928
3774	4.6333	0.54545	0.	8.5447
3775	4.8178	0.54545	0.	1.2607
3776	5.0022	0.54545	0.	0.35029
3777	5.1867	0.54545	0.	0.18822
3778	5.3711	0.54545	0.	0.1254
3779	5.5556	0.54545	0.	9.2595e-002
3780	5.74	0.54545	0.	7.252e-002
3781	5.9244	0.54545	0.	5.8939e-002
3782	6.1089	0.54545	0.	4.9087e-002
3783	6.2933	0.54545	0.	4.159e-002
3784	6.4778	0.54545	0.	3.5665e-002
3785	6.6622	0.54545	0.	3.0845e-002
3786	6.8467	0.54545	0.	2.6851e-002
3787	7.0311	0.54545	0.	2.3483e-002
3788	7.2156	0.54545	0.	2.0595e-002
3789	7.4	0.54545	0.	1.8108e-002
3790	7.5844	0.54545	0.	1.594e-002
3791	7.7689	0.54545	0.	1.4033e-002
3792	7.9533	0.54545	0.	1.2355e-002
3793	8.1378	0.54545	0.	1.087e-002
3794	8.3222	0.54545	0.	9.5433e-003
3795	8.5067	0.54545	0.	8.3678e-003
3796	8.6911	0.54545	0.	7.3204e-003
3797	8.8756	0.54545	0.	6.3869e-003
3798	9.06	0.54545	0.	5.5733e-003
3799	9.2444	0.54545	0.	4.8814e-003
3800	9.4289	0.54545	0.	4.3371e-003
3801	9.6133	0.54545	0.	4.0983e-003
3802	9.7978	0.54545	0.	5.1319e-003
3803	9.9822	0.54545	0.	0.33645
3804	10.167	0.54545	0.	1.3154
3805	10.351	0.54545	0.	2.2392
3806	10.536	0.54545	0.	3.1082
3807	10.72	0.54545	0.	3.9253
3808	10.904	0.54545	0.	4.6937
3809	11.089	0.54545	0.	5.4168
3810	11.273	0.54545	0.	6.0979
3811	11.458	0.54545	0.	6.7398
3812	11.642	0.54545	0.	7.3456
3813	11.827	0.54545	0.	7.9182
3814	12.011	0.54545	0.	8.4603
3815	12.196	0.54545	0.	8.9746
3816	12.38	0.54545	0.	9.4635
3817	12.564	0.54545	0.	9.9292
3818	12.749	0.54545	0.	10.374
3819	12.933	0.54545	0.	10.8
3820	13.118	0.54545	0.	11.21
3821	13.302	0.54545	0.	11.605
3822	13.487	0.54545	0.	11.986
3823	13.671	0.54545	0.	12.357
3824	13.856	0.54545	0.	12.718
3825	14.04	0.54545	0.	13.071
3826	14.224	0.54545	0.	13.418
3827	14.409	0.54545	0.	13.759
3828	14.593	0.54545	0.	14.097
3829	14.778	0.54545	0.	14.433
3830	14.962	0.54545	0.	14.769
3831	15.147	0.54545	0.	15.104
3832	15.331	0.54545	0.	15.442
3833	15.516	0.54545	0.	15.783
3834	15.7	0.54545	0.	16.128
3835	15.884	0.54545	0.	16.479
3836	16.069	0.54545	0.	16.837
3837	16.253	0.54545	0.	17.203
3838	16.438	0.54545	0.	17.579
3839	16.622	0.54545	0.	17.965
3840	16.807	0.54545	0.	18.364
3841	16.991	0.54545	0.	18.776
3842	17.176	0.54545	0.	19.203
3843	17.36	0.54545	0.	19.647
3844	17.544	0.54545	0.	20.108
3845	17.729	0.54545	0.	20.589
3846	17.913	0.54545	0.	21.09
3847	18.098	0.54545	0.	21.614
3848	18.282	0.54545	0.	22.161
3849	18.467	0.54545	0.	22.734
3850	18.651	0.54545	0.	23.335
3851	18.836	0.54545	0.	23.965
3852	19.02	0.54545	0.	24.625
3853	19.204	0.54545	0.	25.319
3854	19.389	0.54545	0.	26.047
3855	19.573	0.54545	0.	26.812
3856	19.758	0.54545	0.	27.616
3857	19.942	0.54545	0.	28.461
3858	20.127	0.54545	0.	29.349
3859	20.311	0.54545	0.	30.284
3860	20.496	0.54545	0.	31.267
3861	20.68	0.54545	0.	32.302
3862	20.864	0.54545	0.	33.393
3863	21.049	0.54545	0.	34.543
3864	21.233	0.54545	0.	35.757
3865	21.418	0.54545	0.	37.041
3866	21.602	0.54545	0.	38.403
3867	21.787	0.54545	0.	39.852
3868	21.971	0.54545	0.	41.402
3869	22.156	0.54545	0.	43.069
3870	22.34	0.54545	0.	44.88
3871	22.524	0.54545	0.	46.871
3872	22.709	0.54545	0.	49.096
3873	22.893	0.54545	0.	51.639
3874	23.078	0.54545	0.	54.631
3875	23.262	0.54545	0.	58.291
3876	23.447	0.54545	0.	62.95
3877	23.631	0.54545	0.	69.196
3878	23.816	0.54545	0.	77.632
3879	2.0511	0.36364	0.	356.75
3880	2.2356	0.36364	0.	201.83
3881	2.42	0.36364	0.	177.48
3882	2.6044	0.36364	0.	174.58
3883	2.7889	0.36364	0.	169.8
3884	2.9733	0.36364	0.	159.32
3885	3.1578	0.36364	0.	143.85
3886	3.3422	0.36364	0.	125.34
3887	3.5267	0.36364	0.	105.64
3888	3.7111	0.36364	0.	86.208
3889	3.8956	0.36364	0.	68.01
3890	4.08	0.36364	0.	51.61
3891	4.2644	0.36364	0.	37.271
3892	4.4489	0.36364	0.	25.051
3893	4.6333	0.36364	0.	14.884
3894	4.8178	0.36364	0.	6.669
3895	5.0022	0.36364	0.	1.062
3896	5.1867	0.36364	0.	0.22481
3897	5.3711	0.36364	0.	0.13439
3898	5.5556	0.36364	0.	0.10604
3899	5.74	0.36364	0.	9.2883e-002
3900	5.9244	0.36364	0.	8.4989e-002
3901	6.1089	0.36364	0.	7.9185e-002
3902	6.2933	0.36364	0.	7.4277e-002
3903	6.4778	0.36364	0.	6.9758e-002
3904	6.6622	0.36364	0.	6.5416e-002
3905	6.8467	0.36364	0.	6.1194e-002
3906	7.0311	0.36364	0.	5.7068e-002
3907	7.2156	0.36364	0.	5.3043e-002
3908	7.4	0.36364	0.	4.9152e-002
3909	7.5844	0.36364	0.	4.541e-002
3910	7.7689	0.36364	0.	4.1831e-002
3911	7.9533	0.36364	0.	3.845e-002
3912	8.1378	0.36364	0.	3.5281e-002
3913	8.3222	0.36364	0.	3.2349e-002
3914	8.5067	0.36364	0.	2.9723e-002
3915	8.6911	0.36364	0.	2.7531e-002
3916	8.8756	0.36364	0.	2.6217e-002
3917	9.06	0.36364	0.	2.8823e-002
3918	9.2444	0.36364	0.	0.33307
3919	9.4289	0.36364	0.	1.2369
3920	9.6133	0.36364	0.	2.1051
3921	9.7978	0.36364	0.	2.9285
3922	9.9822	0.36364	0.	3.7078
3923	10.167	0.36364	0.	4.4448
3924	10.351	0.36364	0.	5.1413
3925	10.536	0.36364	0.	5.7996
3926	10.72	0.36364	0.	6.4219
3927	10.904	0.36364	0.	7.0105
3928	11.089	0.36364	0.	7.5675
3929	11.273	0.36364	0.	8.0954
3930	11.458	0.36364	0.	8.5961
3931	11.642	0.36364	0.	9.0718
3932	11.827	0.36364	0.	9.5245
3933	12.011	0.36364	0.	9.9562
3934	12.196	0.36364	0.	10.369
3935	12.38	0.36364	0.	10.764
3936	12.564	0.36364	0.	11.143
3937	12.749	0.36364	0.	11.508
3938	12.933	0.36364	0.	11.861
3939	13.118	0.36364	0.	12.202
3940	13.302	0.36364	0.	12.534
3941	13.487	0.36364	0.	12.857
3942	13.671	0.36364	0.	13.174
3943	13.856	0.36364	0.	13.484
3944	14.04	0.36364	0.	13.789
3945	14.224	0.36364	0.	14.091
3946	14.409	0.36364	0.	14.39
3947	14.593	0.36364	0.	14.688
3948	14.778	0.36364	0.	14.985
3949	14.962	0.36364	0.	15.282
3950	15.147	0.36364	0.	15.581
3951	15.331	0.36364	0.	15.883
3952	15.516	0.36364	0.	16.187
3953	15.7	0.36364	0.	16.496
3954	15.884	0.36364	0.	16.81
3955	16.069	0.36364	0.	17.13
3956	16.253	0.36364	0.	17.457
3957	16.438	0.36364	0.	17.792
3958	16.622	0.36364	0.	18.135
3959	16.807	0.36364	0.	18.488
3960	16.991	0.36364	0.	18.851
3961	17.176	0.36364	0.	19.226
3962	17.36	0.36364	0.	19.613
3963	17.544	0.36364	0.	20.013
3964	17.729	0.36364	0.	20.427
3965	17.913	0.36364	0.	20.857
3966	18.098	0.36364	0.	21.302
3967	18.282	0.36364	0.	21.764
3968	18.467	0.36364	0.	22.244
3969	18.651	0.36364	0.	22.742
3970	18.836	0.36364	0.	23.26
3971	19.02	0.36364	0.	23.798
3972	19.204	0.36364	0.	24.357
3973	19.389	0.36364	0.	24.938
3974	19.573	0.36364	0.	25.542
3975	19.758	0.36364	0.	26.17
3976	19.942	0.36364	0.	26.821
3977	20.127	0.36364	0.	27.497
3978	20.311	0.36364	0.	28.199
3979	20.496	0.36364	0.	28.926
3980	20.68	0.36364	0.	29.68
3981	20.864	0.36364	0.	30.46
3982	21.049	0.36364	0.	31.268
3983	21.233	0.36364	0.	32.103
3984	21.418	0.36364	0.	32.968
3985	21.602	0.36364	0.	33.862
3986	21.787	0.36364	0.	34.788
3987	21.971	0.36364	0.	35.749
3988	22.156	0.36364	0.	36.749
3989	22.34	0.36364	0.	37.797
3990	22.524	0.36364	0.	38.906
3991	22.709	0.36364	0.	40.097
3992	22.893	0.36364	0.	41.411
3993	23.078	0.36364	0.	42.918
3994	23.262	0.36364	0.	44.763
3995	23.447	0.36364	0.	47.222
3996	23.631	0.36364	0.	51.001
3997	23.816	0.36364	0.	57.458
3998	2.0511	0.18182	0.	170.93
3999	2.2356	0.18182	0.	125.46
4000	2.42	0.18182	0.	125.07
4001	2.6044	0.18182	0.	124.58
4002	2.7889	0.18182	0.	118.37
4003	2.9733	0.18182	0.	108.05
4004	3.1578	0.18182	0.	95.319
4005	3.3422	0.18182	0.	81.68
4006	3.5267	0.18182	0.	68.207
4007	3.7111	0.18182	0.	55.593
4008	3.8956	0.18182	0.	44.223
4009	4.08	0.18182	0.	34.264
4010	4.2644	0.18182	0.	25.741
4011	4.4489	0.18182	0.	18.591
4012	4.6333	0.18182	0.	12.707
4013	4.8178	0.18182	0.	7.9592
4014	5.0022	0.18182	0.	4.2276
4015	5.1867	0.18182	0.	1.4832
4016	5.3711	0.18182	0.	0.34254
4017	5.5556	0.18182	0.	0.19337
4018	5.74	0.18182	0.	0.1555
4019	5.9244	0.18182	0.	0.14004
4020	6.1089	0.18182	0.	0.13282
4021	6.2933	0.18182	0.	0.13003
4022	6.4778	0.18182	0.	0.13054
4023	6.6622	0.18182	0.	0.13445
4024	6.8467	0.18182	0.	0.14278
4025	7.0311	0.18182	0.	0.15797
4026	7.2156	0.18182	0.	0.18563
4027	7.4	0.18182	0.	0.24009
4028	7.5844	0.18182	0.	0.36356
4029	7.7689	0.18182	0.	0.66455
4030	7.9533	0.18182	0.	1.2114
4031	8.1378	0.18182	0.	1.8896
4032	8.3222	0.18182	0.	2.6056
4033	8.5067	0.18182	0.	3.324
4034	8.6911	0.18182	0.	4.0305
4035	8.8756	0.18182	0.	4.718
4036	9.06	0.18182	0.	5.3828
4037	9.2444	0.18182	0.	6.0229
4038	9.4289	0.18182	0.	6.6375
4039	9.6133	0.18182	0.	7.2263
4040	9.7978	0.18182	0.	7.7895
4041	9.9822	0.18182	0.	8.3278
4042	10.167	0.18182	0.	8.8423
4043	10.351	0.18182	0.	9.3338
4044	10.536	0.18182	0.	9.8035
4045	10.72	0.18182	0.	10.253
4046	10.904	0.18182	0.	10.683
4047	11.089	0.18182	0.	11.095
4048	11.273	0.18182	0.	11.491
4049	11.458	0.18182	0.	11.871
4050	11.642	0.18182	0.	12.237
4051	11.827	0.18182	0.	12.591
4052	12.011	0.18182	0.	12.933
4053	12.196	0.18182	0.	13.264
4054	12.38	0.18182	0.	13.586
4055	12.564	0.18182	0.	13.9
4056	12.749	0.18182	0.	14.206
4057	12.933	0.18182	0.	14.506
4058	13.118	0.18182	0.	14.801
4059	13.302	0.18182	0.	15.091
4060	13.487	0.18182	0.	15.378
4061	13.671	0.18182	0.	15.661
4062	13.856	0.18182	0.	15.943
4063	14.04	0.18182	0.	16.223
4064	14.224	0.18182	0.	16.503
4065	14.409	0.18182	0.	16.783
4066	14.593	0.18182	0.	17.064
4067	14.778	0.18182	0.	17.346
4068	14.962	0.18182	0.	17.631
4069	15.147	0.18182	0.	17.918
4070	15.331	0.18182	0.	18.208
4071	15.516	0.18182	0.	18.503
4072	15.7	0.18182	0.	18.802
4073	15.884	0.18182	0.	19.106
4074	16.069	0.18182	0.	19.416
4075	16.253	0.18182	0.	19.731
4076	16.438	0.18182	0.	20.054
4077	16.622	0.18182	0.	20.383
4078	16.807	0.18182	0.	20.72
4079	16.991	0.18182	0.	21.065
4080	17.176	0.18182	0.	21.418
4081	17.36	0.18182	0.	21.78
4082	17.544	0.18182	0.	22.152
4083	17.729	0.18182	0.	22.532
4084	17.913	0.18182	0.	22.923
4085	18.098	0.18182	0.	23.324
4086	18.282	0.18182	0.	23.734
4087	18.467	0.18182	0.	24.155
4088	18.651	0.18182	0.	24.587
4089	18.836	0.18182	0.	25.028
4090	19.02	0.18182	0.	25.48
4091	19.204	0.18182	0.	25.942
4092	19.389	0.18182	0.	26.412
4093	19.573	0.18182	0.	26.892
4094	19.758	0.18182	0.	27.38
4095	19.942	0.18182	0.	27.874
4096	20.127	0.18182	0.	28.374
4097	20.311	0.18182	0.	28.879
4098	20.496	0.18182	0.	29.386
4099	20.68	0.18182	0.	29.893
4100	20.864	0.18182	0.	30.397
4101	21.049	0.18182	0.	30.895
4102	21.233	0.18182	0.	31.384
4103	21.418	0.18182	0.	31.859
4104	21.602	0.18182	0.	32.314
4105	21.787	0.18182	0.	32.744
4106	21.971	0.18182	0.	33.14
4107	22.156	0.18182	0.	33.493
4108	22.34	0.18182	0.	33.794
4109	22.524	0.18182	0.	34.027
4110	22.709	0.18182	0.	34.178
4111	22.893	0.18182	0.	34.227
4112	23.078	0.18182	0.	34.153
4113	23.262	0.18182	0.	33.939
4114	23.447	0.18182	0.	33.585
4115	23.631	0.18182	0.	33.238
4116	23.816	0.18182	0.	34.198
4117	23.816	0.18182	0.1	37.092
4118	23.631	0.18182	0.1	72.9
4119	23.447	0.18182	0.1	110.82
4120	23.262	0.18182	0.1	149.39
4121	23.078	0.18182	0.1	188.35
4122	22.893	0.18182	0.1	227.57
4123	22.709	0.18182	0.1	267.
4124	22.524	0.18182	0.1	306.6
4125	22.34	0.18182	0.1	346.34
4126	22.156	0.18182	0.1	386.22
4127	21.971	0.18182	0.1	426.22
4128	21.787	0.18182	0.1	466.33
4129	21.602	0.18182	0.1	506.57
4130	21.418	0.18182	0.1	546.93
4131	21.233	0.18182	0.1	587.41
4132	21.049	0.18182	0.1	628.01
4133	20.864	0.18182	0.1	668.74
4134	20.68	0.18182	0.1	709.61
4135	20.496	0.18182	0.1	750.61
4136	20.311	0.18182	0.1	791.76
4137	20.127	0.18182	0.1	833.05
4138	19.942	0.18182	0.1	874.49
4139	19.758	0.18182	0.1	916.08
4140	19.573	0.18182	0.1	957.83
4141	19.389	0.18182	0.1	999.75
4142	19.204	0.18182	0.1	1041.8
4143	19.02	0.18182	0.1	1084.1
4144	18.836	0.18182	0.1	1126.5
4145	18.651	0.18182	0.1	1169.1
4146	18.467	0.18182	0.1	1211.9
4147	18.282	0.18182	0.1	1254.8
4148	18.098	0.18182	0.1	1297.9
4149	17.913	0.18182	0.1	1341.3
4150	17.729	0.18182	0.1	1384.8
4151	17.544	0.18182	0.1	1428.5
4152	17.36	0.18182	0.1	1472.3
4153	17.176	0.18182	0.1	1516.4
4154	16.991	0.18182	0.1	1560.7
4155	16.807	0.18182	0.1	1605.2
4156	16.622	0.18182	0.1	1649.8
4157	16.438	0.18182	0.1	1694.7
4158	16.253	0.18182	0.1	1739.7
4159	16.069	0.18182	0.1	1785.
4160	15.884	0.18182	0.1	1830.4
4161	15.7	0.18182	0.1	1876.
4162	15.516	0.18182	0.1	1921.9
4163	15.331	0.18182	0.1	1967.9
4164	15.147	0.18182	0.1	2014.2
4165	14.962	0.18182	0.1	2060.6
4166	14.778	0.18182	0.1	2107.3
4167	14.593	0.18182	0.1	2154.1
4168	14.409	0.18182	0.1	2201.2
4169	14.224	0.18182	0.1	2248.5
4170	14.04	0.18182	0.1	2295.9
4171	13.856	0.18182	0.1	2343.6
4172	13.671	0.18182	0.1	2391.5
4173	13.487	0.18182	0.1	2439.6
4174	13.302	0.18182	0.1	2487.9
4175	13.118	0.18182	0.1	2536.4
4176	12.933	0.18182	0.1	2585.1
4177	12.749	0.18182	0.1	2634.
4178	12.564	0.18182	0.1	2683.2
4179	12.38	0.18182	0.1	2732.5
4180	12.196	0.18182	0.1	2782.1
4181	12.011	0.18182	0.1	2831.8
4182	11.827	0.18182	0.1	2881.8
4183	11.642	0.18182	0.1	2932.
4184	11.458	0.18182	0.1	2982.5
4185	11.273	0.18182	0.1	3033.1
4186	11.089	0.18182	0.1	3084.
4187	10.904	0.18182	0.1	3135.1
4188	10.72	0.18182	0.1	3186.4
4189	10.536	0.18182	0.1	3237.9
4190	10.351	0.18182	0.1	3289.7
4191	10.167	0.18182	0.1	3341.6
4192	9.9822	0.18182	0.1	3393.9
4193	9.7978	0.18182	0.1	3446.3
4194	9.6133	0.18182	0.1	3499.
4195	9.4289	0.18182	0.1	3551.9
4196	9.2444	0.18182	0.1	3605.
4197	9.06	0.18182	0.1	3658.4
4198	8.8756	0.18182	0.1	3711.9
4199	8.6911	0.18182	0.1	3765.7
4200	8.5067	0.18182	0.1	3819.7
4201	8.3222	0.18182	0.1	3873.9
4202	8.1378	0.18182	0.1	3928.3
4203	7.9533	0.18182	0.1	3982.8
4204	7.7689	0.18182	0.1	4037.4
4205	7.5844	0.18182	0.1	4092.1
4206	7.4	0.18182	0.1	4146.8
4207	7.2156	0.18182	0.1	4201.4
4208	7.0311	0.18182	0.1	4255.8
4209	6.8467	0.18182	0.1	4309.9
4210	6.6622	0.18182	0.1	4363.5
4211	6.4778	0.18182	0.1	4416.4
4212	6.2933	0.18182	0.1	4468.3
4213	6.1089	0.18182	0.1	4518.8
4214	5.9244	0.18182	0.1	4567.3
4215	5.74	0.18182	0.1	4613.4
4216	5.5556	0.18182	0.1	4656.3
4217	5.3711	0.18182	0.1	4694.8
4218	5.1867	0.18182	0.1	4727.9
4219	5.0022	0.18182	0.1	4753.9
4220	4.8178	0.18182	0.1	4770.9
4221	4.6333	0.18182	0.1	4776.5
4222	4.4489	0.18182	0.1	4767.7
4223	4.2644	0.18182	0.1	4740.9
4224	4.08	0.18182	0.1	4691.7
4225	3.8956	0.18182	0.1	4614.9
4226	3.7111	0.18182	0.1	4504.5
4227	3.5267	0.18182	0.1	4353.4
4228	3.3422	0.18182	0.1	4154.1
4229	3.1578	0.18182	0.1	3898.9
4230	2.9733	0.18182	0.1	3580.1
4231	2.7889	0.18182	0.1	3192.
4232	2.6044	0.18182	0.1	2731.5
4233	2.42	0.18182	0.1	2200.6
4234	2.2356	0.18182	0.1	1609.4
4235	2.0511	0.18182	0.1	1024.1
4236	23.816	0.36364	0.1	38.11
4237	23.631	0.36364	0.1	72.991
4238	23.447	0.36364	0.1	109.75
4239	23.262	0.36364	0.1	147.52
4240	23.078	0.36364	0.1	185.92
4241	22.893	0.36364	0.1	224.74
4242	22.709	0.36364	0.1	263.87
4243	22.524	0.36364	0.1	303.23
4244	22.34	0.36364	0.1	342.79
4245	22.156	0.36364	0.1	382.52
4246	21.971	0.36364	0.1	422.4
4247	21.787	0.36364	0.1	462.42
4248	21.602	0.36364	0.1	502.59
4249	21.418	0.36364	0.1	542.89
4250	21.233	0.36364	0.1	583.32
4251	21.049	0.36364	0.1	623.89
4252	20.864	0.36364	0.1	664.6
4253	20.68	0.36364	0.1	705.45
4254	20.496	0.36364	0.1	746.44
4255	20.311	0.36364	0.1	787.59
4256	20.127	0.36364	0.1	828.88
4257	19.942	0.36364	0.1	870.33
4258	19.758	0.36364	0.1	911.94
4259	19.573	0.36364	0.1	953.71
4260	19.389	0.36364	0.1	995.64
4261	19.204	0.36364	0.1	1037.7
4262	19.02	0.36364	0.1	1080.
4263	18.836	0.36364	0.1	1122.5
4264	18.651	0.36364	0.1	1165.1
4265	18.467	0.36364	0.1	1207.9
4266	18.282	0.36364	0.1	1250.9
4267	18.098	0.36364	0.1	1294.1
4268	17.913	0.36364	0.1	1337.4
4269	17.729	0.36364	0.1	1381.
4270	17.544	0.36364	0.1	1424.7
4271	17.36	0.36364	0.1	1468.6
4272	17.176	0.36364	0.1	1512.7
4273	16.991	0.36364	0.1	1557.
4274	16.807	0.36364	0.1	1601.5
4275	16.622	0.36364	0.1	1646.2
4276	16.438	0.36364	0.1	1691.1
4277	16.253	0.36364	0.1	1736.2
4278	16.069	0.36364	0.1	1781.5
4279	15.884	0.36364	0.1	1827.
4280	15.7	0.36364	0.1	1872.6
4281	15.516	0.36364	0.1	1918.5
4282	15.331	0.36364	0.1	1964.6
4283	15.147	0.36364	0.1	2010.9
4284	14.962	0.36364	0.1	2057.3
4285	14.778	0.36364	0.1	2104.
4286	14.593	0.36364	0.1	2150.9
4287	14.409	0.36364	0.1	2198.
4288	14.224	0.36364	0.1	2245.3
4289	14.04	0.36364	0.1	2292.8
4290	13.856	0.36364	0.1	2340.5
4291	13.671	0.36364	0.1	2388.4
4292	13.487	0.36364	0.1	2436.5
4293	13.302	0.36364	0.1	2484.8
4294	13.118	0.36364	0.1	2533.3
4295	12.933	0.36364	0.1	2582.
4296	12.749	0.36364	0.1	2631.
4297	12.564	0.36364	0.1	2680.1
4298	12.38	0.36364	0.1	2729.5
4299	12.196	0.36364	0.1	2779.1
4300	12.011	0.36364	0.1	2828.8
4301	11.827	0.36364	0.1	2878.8
4302	11.642	0.36364	0.1	2929.
4303	11.458	0.36364	0.1	2979.4
4304	11.273	0.36364	0.1	3030.1
4305	11.089	0.36364	0.1	3080.9
4306	10.904	0.36364	0.1	3132.
4307	10.72	0.36364	0.1	3183.3
4308	10.536	0.36364	0.1	3234.8
4309	10.351	0.36364	0.1	3286.5
4310	10.167	0.36364	0.1	3338.5
4311	9.9822	0.36364	0.1	3390.7
4312	9.7978	0.36364	0.1	3443.1
4313	9.6133	0.36364	0.1	3495.7
4314	9.4289	0.36364	0.1	3548.5
4315	9.2444	0.36364	0.1	3601.6
4316	9.06	0.36364	0.1	3654.9
4317	8.8756	0.36364	0.1	3708.4
4318	8.6911	0.36364	0.1	3762.1
4319	8.5067	0.36364	0.1	3816.1
4320	8.3222	0.36364	0.1	3870.2
4321	8.1378	0.36364	0.1	3924.5
4322	7.9533	0.36364	0.1	3978.9
4323	7.7689	0.36364	0.1	4033.5
4324	7.5844	0.36364	0.1	4088.1
4325	7.4	0.36364	0.1	4142.8
4326	7.2156	0.36364	0.1	4197.4
4327	7.0311	0.36364	0.1	4251.9
4328	6.8467	0.36364	0.1	4306.1
4329	6.6622	0.36364	0.1	4359.9
4330	6.4778	0.36364	0.1	4413.1
4331	6.2933	0.36364	0.1	4465.4
4332	6.1089	0.36364	0.1	4516.4
4333	5.9244	0.36364	0.1	4565.7
4334	5.74	0.36364	0.1	4612.8
4335	5.5556	0.36364	0.1	4656.9
4336	5.3711	0.36364	0.1	4697.2
4337	5.1867	0.36364	0.1	4732.4
4338	5.0022	0.36364	0.1	4761.1
4339	4.8178	0.36364	0.1	4781.5
4340	4.6333	0.36364	0.1	4791.3
4341	4.4489	0.36364	0.1	4787.6
4342	4.2644	0.36364	0.1	4767.1
4343	4.08	0.36364	0.1	4725.4
4344	3.8956	0.36364	0.1	4657.4
4345	3.7111	0.36364	0.1	4557.1
4346	3.5267	0.36364	0.1	4417.5
4347	3.3422	0.36364	0.1	4230.9
4348	3.1578	0.36364	0.1	3989.
4349	2.9733	0.36364	0.1	3684.1
4350	2.7889	0.36364	0.1	3310.4
4351	2.6044	0.36364	0.1	2866.8
4352	2.42	0.36364	0.1	2362.6
4353	2.2356	0.36364	0.1	1831.5
4354	2.0511	0.36364	0.1	1414.2
4355	23.816	0.54545	0.1	38.97
4356	23.631	0.54545	0.1	74.545
4357	23.447	0.54545	0.1	111.17
4358	23.262	0.54545	0.1	148.57
4359	23.078	0.54545	0.1	186.61
4360	22.893	0.54545	0.1	225.11
4361	22.709	0.54545	0.1	263.97
4362	22.524	0.54545	0.1	303.11
4363	22.34	0.54545	0.1	342.49
4364	22.156	0.54545	0.1	382.06
4365	21.971	0.54545	0.1	421.8
4366	21.787	0.54545	0.1	461.71
4367	21.602	0.54545	0.1	501.77
4368	21.418	0.54545	0.1	541.98
4369	21.233	0.54545	0.1	582.34
4370	21.049	0.54545	0.1	622.84
4371	20.864	0.54545	0.1	663.48
4372	20.68	0.54545	0.1	704.28
4373	20.496	0.54545	0.1	745.23
4374	20.311	0.54545	0.1	786.33
4375	20.127	0.54545	0.1	827.59
4376	19.942	0.54545	0.1	869.01
4377	19.758	0.54545	0.1	910.59
4378	19.573	0.54545	0.1	952.34
4379	19.389	0.54545	0.1	994.25
4380	19.204	0.54545	0.1	1036.3
4381	19.02	0.54545	0.1	1078.6
4382	18.836	0.54545	0.1	1121.
4383	18.651	0.54545	0.1	1163.7
4384	18.467	0.54545	0.1	1206.5
4385	18.282	0.54545	0.1	1249.4
4386	18.098	0.54545	0.1	1292.6
4387	17.913	0.54545	0.1	1336.
4388	17.729	0.54545	0.1	1379.5
4389	17.544	0.54545	0.1	1423.2
4390	17.36	0.54545	0.1	1467.2
4391	17.176	0.54545	0.1	1511.3
4392	16.991	0.54545	0.1	1555.6
4393	16.807	0.54545	0.1	1600.1
4394	16.622	0.54545	0.1	1644.8
4395	16.438	0.54545	0.1	1689.7
4396	16.253	0.54545	0.1	1734.8
4397	16.069	0.54545	0.1	1780.1
4398	15.884	0.54545	0.1	1825.5
4399	15.7	0.54545	0.1	1871.2
4400	15.516	0.54545	0.1	1917.1
4401	15.331	0.54545	0.1	1963.2
4402	15.147	0.54545	0.1	2009.5
4403	14.962	0.54545	0.1	2056.
4404	14.778	0.54545	0.1	2102.6
4405	14.593	0.54545	0.1	2149.5
4406	14.409	0.54545	0.1	2196.6
4407	14.224	0.54545	0.1	2243.9
4408	14.04	0.54545	0.1	2291.4
4409	13.856	0.54545	0.1	2339.1
4410	13.671	0.54545	0.1	2387.
4411	13.487	0.54545	0.1	2435.1
4412	13.302	0.54545	0.1	2483.4
4413	13.118	0.54545	0.1	2531.9
4414	12.933	0.54545	0.1	2580.6
4415	12.749	0.54545	0.1	2629.6
4416	12.564	0.54545	0.1	2678.7
4417	12.38	0.54545	0.1	2728.
4418	12.196	0.54545	0.1	2777.6
4419	12.011	0.54545	0.1	2827.3
4420	11.827	0.54545	0.1	2877.3
4421	11.642	0.54545	0.1	2927.5
4422	11.458	0.54545	0.1	2977.9
4423	11.273	0.54545	0.1	3028.5
4424	11.089	0.54545	0.1	3079.3
4425	10.904	0.54545	0.1	3130.3
4426	10.72	0.54545	0.1	3181.5
4427	10.536	0.54545	0.1	3233.
4428	10.351	0.54545	0.1	3284.7
4429	10.167	0.54545	0.1	3336.6
4430	9.9822	0.54545	0.1	3388.7
4431	9.7978	0.54545	0.1	3441.
4432	9.6133	0.54545	0.1	3493.6
4433	9.4289	0.54545	0.1	3546.3
4434	9.2444	0.54545	0.1	3599.3
4435	9.06	0.54545	0.1	3652.5
4436	8.8756	0.54545	0.1	3705.9
4437	8.6911	0.54545	0.1	3759.6
4438	8.5067	0.54545	0.1	3813.4
4439	8.3222	0.54545	0.1	3867.4
4440	8.1378	0.54545	0.1	3921.6
4441	7.9533	0.54545	0.1	3976.
4442	7.7689	0.54545	0.1	4030.4
4443	7.5844	0.54545	0.1	4085.
4444	7.4	0.54545	0.1	4139.7
4445	7.2156	0.54545	0.1	4194.3
4446	7.0311	0.54545	0.1	4248.8
4447	6.8467	0.54545	0.1	4303.2
4448	6.6622	0.54545	0.1	4357.2
4449	6.4778	0.54545	0.1	4410.7
4450	6.2933	0.54545	0.1	4463.5
4451	6.1089	0.54545	0.1	4515.2
4452	5.9244	0.54545	0.1	4565.4
4453	5.74	0.54545	0.1	4613.7
4454	5.5556	0.54545	0.1	4659.5
4455	5.3711	0.54545	0.1	4701.8
4456	5.1867	0.54545	0.1	4739.8
4457	5.0022	0.54545	0.1	4772.
4458	4.8178	0.54545	0.1	4796.7
4459	4.6333	0.54545	0.1	4812.
4460	4.4489	0.54545	0.1	4815.2
4461	4.2644	0.54545	0.1	4803.1
4462	4.08	0.54545	0.1	4771.8
4463	3.8956	0.54545	0.1	4716.3
4464	3.7111	0.54545	0.1	4630.9
4465	3.5267	0.54545	0.1	4509.
4466	3.3422	0.54545	0.1	4342.7
4467	3.1578	0.54545	0.1	4124.1
4468	2.9733	0.54545	0.1	3845.3
4469	2.7889	0.54545	0.1	3501.2
4470	2.6044	0.54545	0.1	3092.9
4471	2.42	0.54545	0.1	2636.6
4472	2.2356	0.54545	0.1	2179.
4473	2.0511	0.54545	0.1	1871.9
4474	23.816	0.72727	0.1	39.491
4475	23.631	0.72727	0.1	75.795
4476	23.447	0.72727	0.1	112.68
4477	23.262	0.72727	0.1	150.02
4478	23.078	0.72727	0.1	187.86
4479	22.893	0.72727	0.1	226.12
4480	22.709	0.72727	0.1	264.74
4481	22.524	0.72727	0.1	303.66
4482	22.34	0.72727	0.1	342.84
4483	22.156	0.72727	0.1	382.23
4484	21.971	0.72727	0.1	421.81
4485	21.787	0.72727	0.1	461.58
4486	21.602	0.72727	0.1	501.51
4487	21.418	0.72727	0.1	541.61
4488	21.233	0.72727	0.1	581.87
4489	21.049	0.72727	0.1	622.28
4490	20.864	0.72727	0.1	662.84
4491	20.68	0.72727	0.1	703.57
4492	20.496	0.72727	0.1	744.45
4493	20.311	0.72727	0.1	785.5
4494	20.127	0.72727	0.1	826.7
4495	19.942	0.72727	0.1	868.08
4496	19.758	0.72727	0.1	909.62
4497	19.573	0.72727	0.1	951.33
4498	19.389	0.72727	0.1	993.22
4499	19.204	0.72727	0.1	1035.3
4500	19.02	0.72727	0.1	1077.5
4501	18.836	0.72727	0.1	1119.9
4502	18.651	0.72727	0.1	1162.5
4503	18.467	0.72727	0.1	1205.3
4504	18.282	0.72727	0.1	1248.3
4505	18.098	0.72727	0.1	1291.5
4506	17.913	0.72727	0.1	1334.8
4507	17.729	0.72727	0.1	1378.3
4508	17.544	0.72727	0.1	1422.1
4509	17.36	0.72727	0.1	1466.
4510	17.176	0.72727	0.1	1510.1
4511	16.991	0.72727	0.1	1554.4
4512	16.807	0.72727	0.1	1598.9
4513	16.622	0.72727	0.1	1643.6
4514	16.438	0.72727	0.1	1688.5
4515	16.253	0.72727	0.1	1733.6
4516	16.069	0.72727	0.1	1778.9
4517	15.884	0.72727	0.1	1824.4
4518	15.7	0.72727	0.1	1870.1
4519	15.516	0.72727	0.1	1915.9
4520	15.331	0.72727	0.1	1962.
4521	15.147	0.72727	0.1	2008.3
4522	14.962	0.72727	0.1	2054.8
4523	14.778	0.72727	0.1	2101.5
4524	14.593	0.72727	0.1	2148.4
4525	14.409	0.72727	0.1	2195.4
4526	14.224	0.72727	0.1	2242.7
4527	14.04	0.72727	0.1	2290.2
4528	13.856	0.72727	0.1	2337.9
4529	13.671	0.72727	0.1	2385.8
4530	13.487	0.72727	0.1	2433.9
4531	13.302	0.72727	0.1	2482.2
4532	13.118	0.72727	0.1	2530.7
4533	12.933	0.72727	0.1	2579.4
4534	12.749	0.72727	0.1	2628.3
4535	12.564	0.72727	0.1	2677.4
4536	12.38	0.72727	0.1	2726.8
4537	12.196	0.72727	0.1	2776.3
4538	12.011	0.72727	0.1	2826.
4539	11.827	0.72727	0.1	2876.
4540	11.642	0.72727	0.1	2926.1
4541	11.458	0.72727	0.1	2976.5
4542	11.273	0.72727	0.1	3027.
4543	11.089	0.72727	0.1	3077.8
4544	10.904	0.72727	0.1	3128.8
4545	10.72	0.72727	0.1	3180.
4546	10.536	0.72727	0.1	3231.4
4547	10.351	0.72727	0.1	3283.
4548	10.167	0.72727	0.1	3334.8
4549	9.9822	0.72727	0.1	3386.9
4550	9.7978	0.72727	0.1	3439.1
4551	9.6133	0.72727	0.1	3491.6
4552	9.4289	0.72727	0.1	3544.3
4553	9.2444	0.72727	0.1	3597.2
4554	9.06	0.72727	0.1	3650.3
4555	8.8756	0.72727	0.1	3703.6
4556	8.6911	0.72727	0.1	3757.1
4557	8.5067	0.72727	0.1	3810.8
4558	8.3222	0.72727	0.1	3864.8
4559	8.1378	0.72727	0.1	3918.9
4560	7.9533	0.72727	0.1	3973.1
4561	7.7689	0.72727	0.1	4027.6
4562	7.5844	0.72727	0.1	4082.1
4563	7.4	0.72727	0.1	4136.7
4564	7.2156	0.72727	0.1	4191.4
4565	7.0311	0.72727	0.1	4246.
4566	6.8467	0.72727	0.1	4300.5
4567	6.6622	0.72727	0.1	4354.8
4568	6.4778	0.72727	0.1	4408.7
4569	6.2933	0.72727	0.1	4462.
4570	6.1089	0.72727	0.1	4514.5
4571	5.9244	0.72727	0.1	4565.9
4572	5.74	0.72727	0.1	4615.6
4573	5.5556	0.72727	0.1	4663.3
4574	5.3711	0.72727	0.1	4708.2
4575	5.1867	0.72727	0.1	4749.3
4576	5.0022	0.72727	0.1	4785.7
4577	4.8178	0.72727	0.1	4815.8
4578	4.6333	0.72727	0.1	4837.8
4579	4.4489	0.72727	0.1	4849.4
4580	4.2644	0.72727	0.1	4847.8
4581	4.08	0.72727	0.1	4829.5
4582	3.8956	0.72727	0.1	4790.1
4583	3.7111	0.72727	0.1	4724.4
4584	3.5267	0.72727	0.1	4626.1
4585	3.3422	0.72727	0.1	4488.1
4586	3.1578	0.72727	0.1	4302.6
4587	2.9733	0.72727	0.1	4062.2
4588	2.7889	0.72727	0.1	3761.8
4589	2.6044	0.72727	0.1	3403.5
4590	2.42	0.72727	0.1	3004.6
4591	2.2356	0.72727	0.1	2610.
4592	2.0511	0.72727	0.1	2371.5
4593	23.816	0.90909	0.1	39.762
4594	23.631	0.90909	0.1	76.68
4595	23.447	0.90909	0.1	113.92
4596	23.262	0.90909	0.1	151.39
4597	23.078	0.90909	0.1	189.19
4598	22.893	0.90909	0.1	227.32
4599	22.709	0.90909	0.1	265.78
4600	22.524	0.90909	0.1	304.51
4601	22.34	0.90909	0.1	343.5
4602	22.156	0.90909	0.1	382.72
4603	21.971	0.90909	0.1	422.15
4604	21.787	0.90909	0.1	461.77
4605	21.602	0.90909	0.1	501.56
4606	21.418	0.90909	0.1	541.54
4607	21.233	0.90909	0.1	581.68
4608	21.049	0.90909	0.1	621.99
4609	20.864	0.90909	0.1	662.46
4610	20.68	0.90909	0.1	703.1
4611	20.496	0.90909	0.1	743.91
4612	20.311	0.90909	0.1	784.89
4613	20.127	0.90909	0.1	826.03
4614	19.942	0.90909	0.1	867.35
4615	19.758	0.90909	0.1	908.85
4616	19.573	0.90909	0.1	950.51
4617	19.389	0.90909	0.1	992.36
4618	19.204	0.90909	0.1	1034.4
4619	19.02	0.90909	0.1	1076.6
4620	18.836	0.90909	0.1	1119.
4621	18.651	0.90909	0.1	1161.6
4622	18.467	0.90909	0.1	1204.3
4623	18.282	0.90909	0.1	1247.3
4624	18.098	0.90909	0.1	1290.4
4625	17.913	0.90909	0.1	1333.8
4626	17.729	0.90909	0.1	1377.3
4627	17.544	0.90909	0.1	1421.
4628	17.36	0.90909	0.1	1464.9
4629	17.176	0.90909	0.1	1509.
4630	16.991	0.90909	0.1	1553.3
4631	16.807	0.90909	0.1	1597.8
4632	16.622	0.90909	0.1	1642.5
4633	16.438	0.90909	0.1	1687.4
4634	16.253	0.90909	0.1	1732.5
4635	16.069	0.90909	0.1	1777.8
4636	15.884	0.90909	0.1	1823.3
4637	15.7	0.90909	0.1	1869.
4638	15.516	0.90909	0.1	1914.9
4639	15.331	0.90909	0.1	1961.
4640	15.147	0.90909	0.1	2007.2
4641	14.962	0.90909	0.1	2053.7
4642	14.778	0.90909	0.1	2100.4
4643	14.593	0.90909	0.1	2147.3
4644	14.409	0.90909	0.1	2194.4
4645	14.224	0.90909	0.1	2241.7
4646	14.04	0.90909	0.1	2289.1
4647	13.856	0.90909	0.1	2336.8
4648	13.671	0.90909	0.1	2384.7
4649	13.487	0.90909	0.1	2432.8
4650	13.302	0.90909	0.1	2481.1
4651	13.118	0.90909	0.1	2529.6
4652	12.933	0.90909	0.1	2578.3
4653	12.749	0.90909	0.1	2627.2
4654	12.564	0.90909	0.1	2676.3
4655	12.38	0.90909	0.1	2725.6
4656	12.196	0.90909	0.1	2775.1
4657	12.011	0.90909	0.1	2824.8
4658	11.827	0.90909	0.1	2874.7
4659	11.642	0.90909	0.1	2924.8
4660	11.458	0.90909	0.1	2975.1
4661	11.273	0.90909	0.1	3025.7
4662	11.089	0.90909	0.1	3076.4
4663	10.904	0.90909	0.1	3127.3
4664	10.72	0.90909	0.1	3178.5
4665	10.536	0.90909	0.1	3229.8
4666	10.351	0.90909	0.1	3281.4
4667	10.167	0.90909	0.1	3333.2
4668	9.9822	0.90909	0.1	3385.1
4669	9.7978	0.90909	0.1	3437.3
4670	9.6133	0.90909	0.1	3489.7
4671	9.4289	0.90909	0.1	3542.3
4672	9.2444	0.90909	0.1	3595.1
4673	9.06	0.90909	0.1	3648.1
4674	8.8756	0.90909	0.1	3701.4
4675	8.6911	0.90909	0.1	3754.8
4676	8.5067	0.90909	0.1	3808.4
4677	8.3222	0.90909	0.1	3862.2
4678	8.1378	0.90909	0.1	3916.3
4679	7.9533	0.90909	0.1	3970.4
4680	7.7689	0.90909	0.1	4024.8
4681	7.5844	0.90909	0.1	4079.3
4682	7.4	0.90909	0.1	4133.9
4683	7.2156	0.90909	0.1	4188.6
4684	7.0311	0.90909	0.1	4243.3
4685	6.8467	0.90909	0.1	4298.
4686	6.6622	0.90909	0.1	4352.6
4687	6.4778	0.90909	0.1	4406.9
4688	6.2933	0.90909	0.1	4460.9
4689	6.1089	0.90909	0.1	4514.3
4690	5.9244	0.90909	0.1	4566.8
4691	5.74	0.90909	0.1	4618.2
4692	5.5556	0.90909	0.1	4668.
4693	5.3711	0.90909	0.1	4715.7
4694	5.1867	0.90909	0.1	4760.5
4695	5.0022	0.90909	0.1	4801.6
4696	4.8178	0.90909	0.1	4837.7
4697	4.6333	0.90909	0.1	4867.5
4698	4.4489	0.90909	0.1	4888.9
4699	4.2644	0.90909	0.1	4899.8
4700	4.08	0.90909	0.1	4897.
4701	3.8956	0.90909	0.1	4877.
4702	3.7111	0.90909	0.1	4835.4
4703	3.5267	0.90909	0.1	4766.7
4704	3.3422	0.90909	0.1	4664.9
4705	3.1578	0.90909	0.1	4522.8
4706	2.9733	0.90909	0.1	4333.7
4707	2.7889	0.90909	0.1	4092.1
4708	2.6044	0.90909	0.1	3798.2
4709	2.42	0.90909	0.1	3464.4
4710	2.2356	0.90909	0.1	3124.4
4711	2.0511	0.90909	0.1	2934.9
4712	23.816	1.0909	0.1	39.9
4713	23.631	1.0909	0.1	77.308
4714	23.447	1.0909	0.1	114.9
4715	23.262	1.0909	0.1	152.57
4716	23.078	1.0909	0.1	190.43
4717	22.893	1.0909	0.1	228.53
4718	22.709	1.0909	0.1	266.89
4719	22.524	1.0909	0.1	305.5
4720	22.34	1.0909	0.1	344.34
4721	22.156	1.0909	0.1	383.41
4722	21.971	1.0909	0.1	422.69
4723	21.787	1.0909	0.1	462.16
4724	21.602	1.0909	0.1	501.83
4725	21.418	1.0909	0.1	541.67
4726	21.233	1.0909	0.1	581.7
4727	21.049	1.0909	0.1	621.9
4728	20.864	1.0909	0.1	662.28
4729	20.68	1.0909	0.1	702.83
4730	20.496	1.0909	0.1	743.56
4731	20.311	1.0909	0.1	784.46
4732	20.127	1.0909	0.1	825.54
4733	19.942	1.0909	0.1	866.8
4734	19.758	1.0909	0.1	908.24
4735	19.573	1.0909	0.1	949.86
4736	19.389	1.0909	0.1	991.67
4737	19.204	1.0909	0.1	1033.7
4738	19.02	1.0909	0.1	1075.8
4739	18.836	1.0909	0.1	1118.2
4740	18.651	1.0909	0.1	1160.7
4741	18.467	1.0909	0.1	1203.5
4742	18.282	1.0909	0.1	1246.4
4743	18.098	1.0909	0.1	1289.6
4744	17.913	1.0909	0.1	1332.9
4745	17.729	1.0909	0.1	1376.4
4746	17.544	1.0909	0.1	1420.1
4747	17.36	1.0909	0.1	1464.
4748	17.176	1.0909	0.1	1508.1
4749	16.991	1.0909	0.1	1552.4
4750	16.807	1.0909	0.1	1596.9
4751	16.622	1.0909	0.1	1641.6
4752	16.438	1.0909	0.1	1686.5
4753	16.253	1.0909	0.1	1731.6
4754	16.069	1.0909	0.1	1776.8
4755	15.884	1.0909	0.1	1822.3
4756	15.7	1.0909	0.1	1868.
4757	15.516	1.0909	0.1	1913.9
4758	15.331	1.0909	0.1	1960.
4759	15.147	1.0909	0.1	2006.3
4760	14.962	1.0909	0.1	2052.7
4761	14.778	1.0909	0.1	2099.4
4762	14.593	1.0909	0.1	2146.3
4763	14.409	1.0909	0.1	2193.4
4764	14.224	1.0909	0.1	2240.7
4765	14.04	1.0909	0.1	2288.1
4766	13.856	1.0909	0.1	2335.8
4767	13.671	1.0909	0.1	2383.7
4768	13.487	1.0909	0.1	2431.8
4769	13.302	1.0909	0.1	2480.1
4770	13.118	1.0909	0.1	2528.5
4771	12.933	1.0909	0.1	2577.2
4772	12.749	1.0909	0.1	2626.1
4773	12.564	1.0909	0.1	2675.2
4774	12.38	1.0909	0.1	2724.5
4775	12.196	1.0909	0.1	2774.
4776	12.011	1.0909	0.1	2823.6
4777	11.827	1.0909	0.1	2873.5
4778	11.642	1.0909	0.1	2923.6
4779	11.458	1.0909	0.1	2973.9
4780	11.273	1.0909	0.1	3024.4
4781	11.089	1.0909	0.1	3075.1
4782	10.904	1.0909	0.1	3126.
4783	10.72	1.0909	0.1	3177.1
4784	10.536	1.0909	0.1	3228.4
4785	10.351	1.0909	0.1	3279.9
4786	10.167	1.0909	0.1	3331.6
4787	9.9822	1.0909	0.1	3383.5
4788	9.7978	1.0909	0.1	3435.6
4789	9.6133	1.0909	0.1	3487.9
4790	9.4289	1.0909	0.1	3540.5
4791	9.2444	1.0909	0.1	3593.2
4792	9.06	1.0909	0.1	3646.1
4793	8.8756	1.0909	0.1	3699.2
4794	8.6911	1.0909	0.1	3752.6
4795	8.5067	1.0909	0.1	3806.1
4796	8.3222	1.0909	0.1	3859.8
4797	8.1378	1.0909	0.1	3913.8
4798	7.9533	1.0909	0.1	3967.9
4799	7.7689	1.0909	0.1	4022.2
4800	7.5844	1.0909	0.1	4076.6
4801	7.4	1.0909	0.1	4131.2
4802	7.2156	1.0909	0.1	4186.
4803	7.0311	1.0909	0.1	4240.8
4804	6.8467	1.0909	0.1	4295.7
4805	6.6622	1.0909	0.1	4350.6
4806	6.4778	1.0909	0.1	4405.4
4807	6.2933	1.0909	0.1	4460.
4808	6.1089	1.0909	0.1	4514.3
4809	5.9244	1.0909	0.1	4568.1
4810	5.74	1.0909	0.1	4621.3
4811	5.5556	1.0909	0.1	4673.4
4812	5.3711	1.0909	0.1	4724.1
4813	5.1867	1.0909	0.1	4772.9
4814	5.0022	1.0909	0.1	4819.1
4815	4.8178	1.0909	0.1	4861.9
4816	4.6333	1.0909	0.1	4900.2
4817	4.4489	1.0909	0.1	4932.6
4818	4.2644	1.0909	0.1	4957.3
4819	4.08	1.0909	0.1	4972.2
4820	3.8956	1.0909	0.1	4974.5
4821	3.7111	1.0909	0.1	4960.9
4822	3.5267	1.0909	0.1	4927.3
4823	3.3422	1.0909	0.1	4869.
4824	3.1578	1.0909	0.1	4780.6
4825	2.9733	1.0909	0.1	4656.1
4826	2.7889	1.0909	0.1	4490.1
4827	2.6044	1.0909	0.1	4279.3
4828	2.42	1.0909	0.1	4025.6
4829	2.2356	1.0909	0.1	3744.5
4830	2.0511	1.0909	0.1	3600.5
4831	23.816	1.2727	0.1	39.959
4832	23.631	1.2727	0.1	77.757
4833	23.447	1.2727	0.1	115.67
4834	23.262	1.2727	0.1	153.55
4835	23.078	1.2727	0.1	191.53
4836	22.893	1.2727	0.1	229.66
4837	22.709	1.2727	0.1	267.98
4838	22.524	1.2727	0.1	306.51
4839	22.34	1.2727	0.1	345.25
4840	22.156	1.2727	0.1	384.2
4841	21.971	1.2727	0.1	423.35
4842	21.787	1.2727	0.1	462.69
4843	21.602	1.2727	0.1	502.23
4844	21.418	1.2727	0.1	541.96
4845	21.233	1.2727	0.1	581.88
4846	21.049	1.2727	0.1	621.97
4847	20.864	1.2727	0.1	662.25
4848	20.68	1.2727	0.1	702.71
4849	20.496	1.2727	0.1	743.36
4850	20.311	1.2727	0.1	784.18
4851	20.127	1.2727	0.1	825.2
4852	19.942	1.2727	0.1	866.39
4853	19.758	1.2727	0.1	907.77
4854	19.573	1.2727	0.1	949.35
4855	19.389	1.2727	0.1	991.1
4856	19.204	1.2727	0.1	1033.1
4857	19.02	1.2727	0.1	1075.2
4858	18.836	1.2727	0.1	1117.5
4859	18.651	1.2727	0.1	1160.1
4860	18.467	1.2727	0.1	1202.8
4861	18.282	1.2727	0.1	1245.7
4862	18.098	1.2727	0.1	1288.8
4863	17.913	1.2727	0.1	1332.1
4864	17.729	1.2727	0.1	1375.6
4865	17.544	1.2727	0.1	1419.3
4866	17.36	1.2727	0.1	1463.2
4867	17.176	1.2727	0.1	1507.3
4868	16.991	1.2727	0.1	1551.6
4869	16.807	1.2727	0.1	1596.1
4870	16.622	1.2727	0.1	1640.7
4871	16.438	1.2727	0.1	1685.6
4872	16.253	1.2727	0.1	1730.7
4873	16.069	1.2727	0.1	1776.
4874	15.884	1.2727	0.1	1821.5
4875	15.7	1.2727	0.1	1867.1
4876	15.516	1.2727	0.1	1913.
4877	15.331	1.2727	0.1	1959.1
4878	15.147	1.2727	0.1	2005.4
4879	14.962	1.2727	0.1	2051.9
4880	14.778	1.2727	0.1	2098.5
4881	14.593	1.2727	0.1	2145.4
4882	14.409	1.2727	0.1	2192.5
4883	14.224	1.2727	0.1	2239.8
4884	14.04	1.2727	0.1	2287.2
4885	13.856	1.2727	0.1	2334.9
4886	13.671	1.2727	0.1	2382.8
4887	13.487	1.2727	0.1	2430.9
4888	13.302	1.2727	0.1	2479.1
4889	13.118	1.2727	0.1	2527.6
4890	12.933	1.2727	0.1	2576.3
4891	12.749	1.2727	0.1	2625.1
4892	12.564	1.2727	0.1	2674.2
4893	12.38	1.2727	0.1	2723.5
4894	12.196	1.2727	0.1	2772.9
4895	12.011	1.2727	0.1	2822.6
4896	11.827	1.2727	0.1	2872.5
4897	11.642	1.2727	0.1	2922.5
4898	11.458	1.2727	0.1	2972.8
4899	11.273	1.2727	0.1	3023.2
4900	11.089	1.2727	0.1	3073.9
4901	10.904	1.2727	0.1	3124.8
4902	10.72	1.2727	0.1	3175.8
4903	10.536	1.2727	0.1	3227.1
4904	10.351	1.2727	0.1	3278.5
4905	10.167	1.2727	0.1	3330.2
4906	9.9822	1.2727	0.1	3382.
4907	9.7978	1.2727	0.1	3434.
4908	9.6133	1.2727	0.1	3486.3
4909	9.4289	1.2727	0.1	3538.7
4910	9.2444	1.2727	0.1	3591.4
4911	9.06	1.2727	0.1	3644.2
4912	8.8756	1.2727	0.1	3697.3
4913	8.6911	1.2727	0.1	3750.5
4914	8.5067	1.2727	0.1	3803.9
4915	8.3222	1.2727	0.1	3857.6
4916	8.1378	1.2727	0.1	3911.4
4917	7.9533	1.2727	0.1	3965.5
4918	7.7689	1.2727	0.1	4019.7
4919	7.5844	1.2727	0.1	4074.1
4920	7.4	1.2727	0.1	4128.7
4921	7.2156	1.2727	0.1	4183.5
4922	7.0311	1.2727	0.1	4238.4
4923	6.8467	1.2727	0.1	4293.5
4924	6.6622	1.2727	0.1	4348.7
4925	6.4778	1.2727	0.1	4403.9
4926	6.2933	1.2727	0.1	4459.2
4927	6.1089	1.2727	0.1	4514.5
4928	5.9244	1.2727	0.1	4569.7
4929	5.74	1.2727	0.1	4624.6
4930	5.5556	1.2727	0.1	4679.
4931	5.3711	1.2727	0.1	4732.9
4932	5.1867	1.2727	0.1	4785.8
4933	5.0022	1.2727	0.1	4837.5
4934	4.8178	1.2727	0.1	4887.3
4935	4.6333	1.2727	0.1	4934.7
4936	4.4489	1.2727	0.1	4978.8
4937	4.2644	1.2727	0.1	5018.6
4938	4.08	1.2727	0.1	5052.7
4939	3.8956	1.2727	0.1	5079.5
4940	3.7111	1.2727	0.1	5097.1
4941	3.5267	1.2727	0.1	5103.
4942	3.3422	1.2727	0.1	5094.6
4943	3.1578	1.2727	0.1	5068.8
4944	2.9733	1.2727	0.1	5022.3
4945	2.7889	1.2727	0.1	4951.
4946	2.6044	1.2727	0.1	4849.2
4947	2.42	1.2727	0.1	4707.6
4948	2.2356	1.2727	0.1	4516.
4949	2.0511	1.2727	0.1	4428.6
4950	23.816	1.4545	0.1	39.972
4951	23.631	1.4545	0.1	78.08
4952	23.447	1.4545	0.1	116.25
4953	23.262	1.4545	0.1	154.35
4954	23.078	1.4545	0.1	192.46
4955	22.893	1.4545	0.1	230.65
4956	22.709	1.4545	0.1	268.98
4957	22.524	1.4545	0.1	307.47
4958	22.34	1.4545	0.1	346.15
4959	22.156	1.4545	0.1	385.
4960	21.971	1.4545	0.1	424.05
4961	21.787	1.4545	0.1	463.29
4962	21.602	1.4545	0.1	502.72
4963	21.418	1.4545	0.1	542.34
4964	21.233	1.4545	0.1	582.15
4965	21.049	1.4545	0.1	622.15
4966	20.864	1.4545	0.1	662.33
4967	20.68	1.4545	0.1	702.71
4968	20.496	1.4545	0.1	743.27
4969	20.311	1.4545	0.1	784.02
4970	20.127	1.4545	0.1	824.97
4971	19.942	1.4545	0.1	866.1
4972	19.758	1.4545	0.1	907.43
4973	19.573	1.4545	0.1	948.95
4974	19.389	1.4545	0.1	990.66
4975	19.204	1.4545	0.1	1032.6
4976	19.02	1.4545	0.1	1074.7
4977	18.836	1.4545	0.1	1117.
4978	18.651	1.4545	0.1	1159.5
4979	18.467	1.4545	0.1	1202.2
4980	18.282	1.4545	0.1	1245.
4981	18.098	1.4545	0.1	1288.1
4982	17.913	1.4545	0.1	1331.4
4983	17.729	1.4545	0.1	1374.9
4984	17.544	1.4545	0.1	1418.6
4985	17.36	1.4545	0.1	1462.5
4986	17.176	1.4545	0.1	1506.5
4987	16.991	1.4545	0.1	1550.8
4988	16.807	1.4545	0.1	1595.3
4989	16.622	1.4545	0.1	1640.
4990	16.438	1.4545	0.1	1684.9
4991	16.253	1.4545	0.1	1729.9
4992	16.069	1.4545	0.1	1775.2
4993	15.884	1.4545	0.1	1820.7
4994	15.7	1.4545	0.1	1866.4
4995	15.516	1.4545	0.1	1912.3
4996	15.331	1.4545	0.1	1958.3
4997	15.147	1.4545	0.1	2004.6
4998	14.962	1.4545	0.1	2051.1
4999	14.778	1.4545	0.1	2097.8
5000	14.593	1.4545	0.1	2144.6
5001	14.409	1.4545	0.1	2191.7
5002	14.224	1.4545	0.1	2239.
5003	14.04	1.4545	0.1	2286.4
5004	13.856	1.4545	0.1	2334.1
5005	13.671	1.4545	0.1	2382.
5006	13.487	1.4545	0.1	2430.
5007	13.302	1.4545	0.1	2478.3
5008	13.118	1.4545	0.1	2526.8
5009	12.933	1.4545	0.1	2575.4
5010	12.749	1.4545	0.1	2624.3
5011	12.564	1.4545	0.1	2673.3
5012	12.38	1.4545	0.1	2722.6
5013	12.196	1.4545	0.1	2772.
5014	12.011	1.4545	0.1	2821.7
5015	11.827	1.4545	0.1	2871.5
5016	11.642	1.4545	0.1	2921.5
5017	11.458	1.4545	0.1	2971.8
5018	11.273	1.4545	0.1	3022.2
5019	11.089	1.4545	0.1	3072.8
5020	10.904	1.4545	0.1	3123.6
5021	10.72	1.4545	0.1	3174.6
5022	10.536	1.4545	0.1	3225.8
5023	10.351	1.4545	0.1	3277.2
5024	10.167	1.4545	0.1	3328.8
5025	9.9822	1.4545	0.1	3380.6
5026	9.7978	1.4545	0.1	3432.6
5027	9.6133	1.4545	0.1	3484.8
5028	9.4289	1.4545	0.1	3537.1
5029	9.2444	1.4545	0.1	3589.7
5030	9.06	1.4545	0.1	3642.5
5031	8.8756	1.4545	0.1	3695.4
5032	8.6911	1.4545	0.1	3748.6
5033	8.5067	1.4545	0.1	3801.9
5034	8.3222	1.4545	0.1	3855.5
5035	8.1378	1.4545	0.1	3909.2
5036	7.9533	1.4545	0.1	3963.2
5037	7.7689	1.4545	0.1	4017.3
5038	7.5844	1.4545	0.1	4071.7
5039	7.4	1.4545	0.1	4126.3
5040	7.2156	1.4545	0.1	4181.1
5041	7.0311	1.4545	0.1	4236.1
5042	6.8467	1.4545	0.1	4291.4
5043	6.6622	1.4545	0.1	4346.9
5044	6.4778	1.4545	0.1	4402.6
5045	6.2933	1.4545	0.1	4458.6
5046	6.1089	1.4545	0.1	4514.8
5047	5.9244	1.4545	0.1	4571.2
5048	5.74	1.4545	0.1	4627.9
5049	5.5556	1.4545	0.1	4684.8
5050	5.3711	1.4545	0.1	4741.8
5051	5.1867	1.4545	0.1	4798.9
5052	5.0022	1.4545	0.1	4856.1
5053	4.8178	1.4545	0.1	4913.2
5054	4.6333	1.4545	0.1	4969.9
5055	4.4489	1.4545	0.1	5026.2
5056	4.2644	1.4545	0.1	5081.6
5057	4.08	1.4545	0.1	5135.9
5058	3.8956	1.4545	0.1	5188.6
5059	3.7111	1.4545	0.1	5239.3
5060	3.5267	1.4545	0.1	5287.7
5061	3.3422	1.4545	0.1	5333.8
5062	3.1578	1.4545	0.1	5377.9
5063	2.9733	1.4545	0.1	5420.9
5064	2.7889	1.4545	0.1	5464.
5065	2.6044	1.4545	0.1	5505.
5066	2.42	1.4545	0.1	5535.7
5067	2.2356	1.4545	0.1	5504.5
5068	2.0511	1.4545	0.1	5555.9
5069	23.816	1.6364	0.1	39.958
5070	23.631	1.6364	0.1	78.314
5071	23.447	1.6364	0.1	116.71
5072	23.262	1.6364	0.1	154.99
5073	23.078	1.6364	0.1	193.23
5074	22.893	1.6364	0.1	231.51
5075	22.709	1.6364	0.1	269.87
5076	22.524	1.6364	0.1	308.36
5077	22.34	1.6364	0.1	346.99
5078	22.156	1.6364	0.1	385.79
5079	21.971	1.6364	0.1	424.76
5080	21.787	1.6364	0.1	463.91
5081	21.602	1.6364	0.1	503.25
5082	21.418	1.6364	0.1	542.77
5083	21.233	1.6364	0.1	582.49
5084	21.049	1.6364	0.1	622.39
5085	20.864	1.6364	0.1	662.49
5086	20.68	1.6364	0.1	702.78
5087	20.496	1.6364	0.1	743.27
5088	20.311	1.6364	0.1	783.95
5089	20.127	1.6364	0.1	824.83
5090	19.942	1.6364	0.1	865.9
5091	19.758	1.6364	0.1	907.17
5092	19.573	1.6364	0.1	948.64
5093	19.389	1.6364	0.1	990.31
5094	19.204	1.6364	0.1	1032.2
5095	19.02	1.6364	0.1	1074.2
5096	18.836	1.6364	0.1	1116.5
5097	18.651	1.6364	0.1	1159.
5098	18.467	1.6364	0.1	1201.6
5099	18.282	1.6364	0.1	1244.5
5100	18.098	1.6364	0.1	1287.6
5101	17.913	1.6364	0.1	1330.8
5102	17.729	1.6364	0.1	1374.3
5103	17.544	1.6364	0.1	1418.
5104	17.36	1.6364	0.1	1461.8
5105	17.176	1.6364	0.1	1505.9
5106	16.991	1.6364	0.1	1550.2
5107	16.807	1.6364	0.1	1594.7
5108	16.622	1.6364	0.1	1639.3
5109	16.438	1.6364	0.1	1684.2
5110	16.253	1.6364	0.1	1729.3
5111	16.069	1.6364	0.1	1774.6
5112	15.884	1.6364	0.1	1820.
5113	15.7	1.6364	0.1	1865.7
5114	15.516	1.6364	0.1	1911.6
5115	15.331	1.6364	0.1	1957.6
5116	15.147	1.6364	0.1	2003.9
5117	14.962	1.6364	0.1	2050.4
5118	14.778	1.6364	0.1	2097.1
5119	14.593	1.6364	0.1	2143.9
5120	14.409	1.6364	0.1	2191.
5121	14.224	1.6364	0.1	2238.3
5122	14.04	1.6364	0.1	2285.7
5123	13.856	1.6364	0.1	2333.4
5124	13.671	1.6364	0.1	2381.2
5125	13.487	1.6364	0.1	2429.3
5126	13.302	1.6364	0.1	2477.5
5127	13.118	1.6364	0.1	2526.
5128	12.933	1.6364	0.1	2574.6
5129	12.749	1.6364	0.1	2623.5
5130	12.564	1.6364	0.1	2672.5
5131	12.38	1.6364	0.1	2721.8
5132	12.196	1.6364	0.1	2771.2
5133	12.011	1.6364	0.1	2820.8
5134	11.827	1.6364	0.1	2870.6
5135	11.642	1.6364	0.1	2920.6
5136	11.458	1.6364	0.1	2970.8
5137	11.273	1.6364	0.1	3021.2
5138	11.089	1.6364	0.1	3071.8
5139	10.904	1.6364	0.1	3122.6
5140	10.72	1.6364	0.1	3173.6
5141	10.536	1.6364	0.1	3224.7
5142	10.351	1.6364	0.1	3276.1
5143	10.167	1.6364	0.1	3327.6
5144	9.9822	1.6364	0.1	3379.4
5145	9.7978	1.6364	0.1	3431.3
5146	9.6133	1.6364	0.1	3483.4
5147	9.4289	1.6364	0.1	3535.7
5148	9.2444	1.6364	0.1	3588.2
5149	9.06	1.6364	0.1	3640.9
5150	8.8756	1.6364	0.1	3693.7
5151	8.6911	1.6364	0.1	3746.8
5152	8.5067	1.6364	0.1	3800.1
5153	8.3222	1.6364	0.1	3853.5
5154	8.1378	1.6364	0.1	3907.2
5155	7.9533	1.6364	0.1	3961.1
5156	7.7689	1.6364	0.1	4015.2
5157	7.5844	1.6364	0.1	4069.5
5158	7.4	1.6364	0.1	4124.1
5159	7.2156	1.6364	0.1	4178.9
5160	7.0311	1.6364	0.1	4234.
5161	6.8467	1.6364	0.1	4289.4
5162	6.6622	1.6364	0.1	4345.2
5163	6.4778	1.6364	0.1	4401.4
5164	6.2933	1.6364	0.1	4458.
5165	6.1089	1.6364	0.1	4515.1
5166	5.9244	1.6364	0.1	4572.8
5167	5.74	1.6364	0.1	4631.1
5168	5.5556	1.6364	0.1	4690.3
5169	5.3711	1.6364	0.1	4750.5
5170	5.1867	1.6364	0.1	4811.7
5171	5.0022	1.6364	0.1	4874.3
5172	4.8178	1.6364	0.1	4938.5
5173	4.6333	1.6364	0.1	5004.6
5174	4.4489	1.6364	0.1	5073.1
5175	4.2644	1.6364	0.1	5144.3
5176	4.08	1.6364	0.1	5219.
5177	3.8956	1.6364	0.1	5298.
5178	3.7111	1.6364	0.1	5382.7
5179	3.5267	1.6364	0.1	5475.
5180	3.3422	1.6364	0.1	5577.9
5181	3.1578	1.6364	0.1	5695.9
5182	2.9733	1.6364	0.1	5836.1
5183	2.7889	1.6364	0.1	6009.
5184	2.6044	1.6364	0.1	6228.7
5185	2.42	1.6364	0.1	6505.
5186	2.2356	1.6364	0.1	6824.1
5187	2.0511	1.6364	0.1	7186.4
5188	23.816	1.8182	0.1	39.93
5189	23.631	1.8182	0.1	78.485
5190	23.447	1.8182	0.1	117.06
5191	23.262	1.8182	0.1	155.5
5192	23.078	1.8182	0.1	193.87
5193	22.893	1.8182	0.1	232.23
5194	22.709	1.8182	0.1	270.64
5195	22.524	1.8182	0.1	309.14
5196	22.34	1.8182	0.1	347.75
5197	22.156	1.8182	0.1	386.51
5198	21.971	1.8182	0.1	425.42
5199	21.787	1.8182	0.1	464.51
5200	21.602	1.8182	0.1	503.77
5201	21.418	1.8182	0.1	543.21
5202	21.233	1.8182	0.1	582.85
5203	21.049	1.8182	0.1	622.67
5204	20.864	1.8182	0.1	662.69
5205	20.68	1.8182	0.1	702.91
5206	20.496	1.8182	0.1	743.33
5207	20.311	1.8182	0.1	783.94
5208	20.127	1.8182	0.1	824.76
5209	19.942	1.8182	0.1	865.78
5210	19.758	1.8182	0.1	907.
5211	19.573	1.8182	0.1	948.42
5212	19.389	1.8182	0.1	990.04
5213	19.204	1.8182	0.1	1031.9
5214	19.02	1.8182	0.1	1073.9
5215	18.836	1.8182	0.1	1116.1
5216	18.651	1.8182	0.1	1158.6
5217	18.467	1.8182	0.1	1201.2
5218	18.282	1.8182	0.1	1244.1
5219	18.098	1.8182	0.1	1287.1
5220	17.913	1.8182	0.1	1330.4
5221	17.729	1.8182	0.1	1373.8
5222	17.544	1.8182	0.1	1417.5
5223	17.36	1.8182	0.1	1461.3
5224	17.176	1.8182	0.1	1505.4
5225	16.991	1.8182	0.1	1549.6
5226	16.807	1.8182	0.1	1594.1
5227	16.622	1.8182	0.1	1638.8
5228	16.438	1.8182	0.1	1683.6
5229	16.253	1.8182	0.1	1728.7
5230	16.069	1.8182	0.1	1774.
5231	15.884	1.8182	0.1	1819.4
5232	15.7	1.8182	0.1	1865.1
5233	15.516	1.8182	0.1	1911.
5234	15.331	1.8182	0.1	1957.
5235	15.147	1.8182	0.1	2003.3
5236	14.962	1.8182	0.1	2049.8
5237	14.778	1.8182	0.1	2096.4
5238	14.593	1.8182	0.1	2143.3
5239	14.409	1.8182	0.1	2190.4
5240	14.224	1.8182	0.1	2237.6
5241	14.04	1.8182	0.1	2285.1
5242	13.856	1.8182	0.1	2332.7
5243	13.671	1.8182	0.1	2380.6
5244	13.487	1.8182	0.1	2428.6
5245	13.302	1.8182	0.1	2476.9
5246	13.118	1.8182	0.1	2525.3
5247	12.933	1.8182	0.1	2574.
5248	12.749	1.8182	0.1	2622.8
5249	12.564	1.8182	0.1	2671.8
5250	12.38	1.8182	0.1	2721.
5251	12.196	1.8182	0.1	2770.5
5252	12.011	1.8182	0.1	2820.1
5253	11.827	1.8182	0.1	2869.9
5254	11.642	1.8182	0.1	2919.8
5255	11.458	1.8182	0.1	2970.
5256	11.273	1.8182	0.1	3020.4
5257	11.089	1.8182	0.1	3071.
5258	10.904	1.8182	0.1	3121.7
5259	10.72	1.8182	0.1	3172.6
5260	10.536	1.8182	0.1	3223.8
5261	10.351	1.8182	0.1	3275.1
5262	10.167	1.8182	0.1	3326.6
5263	9.9822	1.8182	0.1	3378.2
5264	9.7978	1.8182	0.1	3430.1
5265	9.6133	1.8182	0.1	3482.2
5266	9.4289	1.8182	0.1	3534.4
5267	9.2444	1.8182	0.1	3586.8
5268	9.06	1.8182	0.1	3639.4
5269	8.8756	1.8182	0.1	3692.2
5270	8.6911	1.8182	0.1	3745.2
5271	8.5067	1.8182	0.1	3798.4
5272	8.3222	1.8182	0.1	3851.8
5273	8.1378	1.8182	0.1	3905.4
5274	7.9533	1.8182	0.1	3959.2
5275	7.7689	1.8182	0.1	4013.2
5276	7.5844	1.8182	0.1	4067.5
5277	7.4	1.8182	0.1	4122.
5278	7.2156	1.8182	0.1	4176.9
5279	7.0311	1.8182	0.1	4232.1
5280	6.8467	1.8182	0.1	4287.7
5281	6.6622	1.8182	0.1	4343.7
5282	6.4778	1.8182	0.1	4400.2
5283	6.2933	1.8182	0.1	4457.4
5284	6.1089	1.8182	0.1	4515.3
5285	5.9244	1.8182	0.1	4574.2
5286	5.74	1.8182	0.1	4634.2
5287	5.5556	1.8182	0.1	4695.5
5288	5.3711	1.8182	0.1	4758.6
5289	5.1867	1.8182	0.1	4823.8
5290	5.0022	1.8182	0.1	4891.6
5291	4.8178	1.8182	0.1	4962.7
5292	4.6333	1.8182	0.1	5037.8
5293	4.4489	1.8182	0.1	5118.
5294	4.2644	1.8182	0.1	5204.6
5295	4.08	1.8182	0.1	5299.2
5296	3.8956	1.8182	0.1	5404.2
5297	3.7111	1.8182	0.1	5522.5
5298	3.5267	1.8182	0.1	5658.3
5299	3.3422	1.8182	0.1	5817.8
5300	3.1578	1.8182	0.1	6010.2
5301	2.9733	1.8182	0.1	6249.7
5302	2.7889	1.8182	0.1	6558.9
5303	2.6044	1.8182	0.1	6975.8
5304	2.42	1.8182	0.1	7567.8
5305	2.2356	1.8182	0.1	8484.4
5306	2.0511	1.8182	0.1	10423
5307	23.816	2.	0.1	39.897
5308	23.631	2.	0.1	78.609
5309	23.447	2.	0.1	117.33
5310	23.262	2.	0.1	155.9
5311	23.078	2.	0.1	194.38
5312	22.893	2.	0.1	232.83
5313	22.709	2.	0.1	271.29
5314	22.524	2.	0.1	309.81
5315	22.34	2.	0.1	348.42
5316	22.156	2.	0.1	387.15
5317	21.971	2.	0.1	426.02
5318	21.787	2.	0.1	465.05
5319	21.602	2.	0.1	504.25
5320	21.418	2.	0.1	543.63
5321	21.233	2.	0.1	583.2
5322	21.049	2.	0.1	622.96
5323	20.864	2.	0.1	662.91
5324	20.68	2.	0.1	703.06
5325	20.496	2.	0.1	743.42
5326	20.311	2.	0.1	783.97
5327	20.127	2.	0.1	824.74
5328	19.942	2.	0.1	865.7
5329	19.758	2.	0.1	906.88
5330	19.573	2.	0.1	948.26
5331	19.389	2.	0.1	989.84
5332	19.204	2.	0.1	1031.6
5333	19.02	2.	0.1	1073.6
5334	18.836	2.	0.1	1115.8
5335	18.651	2.	0.1	1158.2
5336	18.467	2.	0.1	1200.9
5337	18.282	2.	0.1	1243.7
5338	18.098	2.	0.1	1286.7
5339	17.913	2.	0.1	1330.
5340	17.729	2.	0.1	1373.4
5341	17.544	2.	0.1	1417.
5342	17.36	2.	0.1	1460.9
5343	17.176	2.	0.1	1504.9
5344	16.991	2.	0.1	1549.2
5345	16.807	2.	0.1	1593.6
5346	16.622	2.	0.1	1638.3
5347	16.438	2.	0.1	1683.2
5348	16.253	2.	0.1	1728.2
5349	16.069	2.	0.1	1773.5
5350	15.884	2.	0.1	1818.9
5351	15.7	2.	0.1	1864.6
5352	15.516	2.	0.1	1910.5
5353	15.331	2.	0.1	1956.5
5354	15.147	2.	0.1	2002.8
5355	14.962	2.	0.1	2049.3
5356	14.778	2.	0.1	2095.9
5357	14.593	2.	0.1	2142.8
5358	14.409	2.	0.1	2189.8
5359	14.224	2.	0.1	2237.1
5360	14.04	2.	0.1	2284.6
5361	13.856	2.	0.1	2332.2
5362	13.671	2.	0.1	2380.
5363	13.487	2.	0.1	2428.1
5364	13.302	2.	0.1	2476.3
5365	13.118	2.	0.1	2524.8
5366	12.933	2.	0.1	2573.4
5367	12.749	2.	0.1	2622.2
5368	12.564	2.	0.1	2671.2
5369	12.38	2.	0.1	2720.4
5370	12.196	2.	0.1	2769.8
5371	12.011	2.	0.1	2819.4
5372	11.827	2.	0.1	2869.2
5373	11.642	2.	0.1	2919.2
5374	11.458	2.	0.1	2969.3
5375	11.273	2.	0.1	3019.7
5376	11.089	2.	0.1	3070.2
5377	10.904	2.	0.1	3120.9
5378	10.72	2.	0.1	3171.8
5379	10.536	2.	0.1	3222.9
5380	10.351	2.	0.1	3274.2
5381	10.167	2.	0.1	3325.6
5382	9.9822	2.	0.1	3377.3
5383	9.7978	2.	0.1	3429.1
5384	9.6133	2.	0.1	3481.1
5385	9.4289	2.	0.1	3533.3
5386	9.2444	2.	0.1	3585.6
5387	9.06	2.	0.1	3638.2
5388	8.8756	2.	0.1	3690.9
5389	8.6911	2.	0.1	3743.8
5390	8.5067	2.	0.1	3796.9
5391	8.3222	2.	0.1	3850.2
5392	8.1378	2.	0.1	3903.7
5393	7.9533	2.	0.1	3957.5
5394	7.7689	2.	0.1	4011.4
5395	7.5844	2.	0.1	4065.7
5396	7.4	2.	0.1	4120.2
5397	7.2156	2.	0.1	4175.1
5398	7.0311	2.	0.1	4230.3
5399	6.8467	2.	0.1	4286.
5400	6.6622	2.	0.1	4342.3
5401	6.4778	2.	0.1	4399.2
5402	6.2933	2.	0.1	4456.9
5403	6.1089	2.	0.1	4515.5
5404	5.9244	2.	0.1	4575.4
5405	5.74	2.	0.1	4636.9
5406	5.5556	2.	0.1	4700.2
5407	5.3711	2.	0.1	4766.
5408	5.1867	2.	0.1	4834.8
5409	5.0022	2.	0.1	4907.4
5410	4.8178	2.	0.1	4984.8
5411	4.6333	2.	0.1	5068.3
5412	4.4489	2.	0.1	5159.6
5413	4.2644	2.	0.1	5260.6
5414	4.08	2.	0.1	5374.1
5415	3.8956	2.	0.1	5503.7
5416	3.7111	2.	0.1	5653.9
5417	3.5267	2.	0.1	5831.4
5418	3.3422	2.	0.1	6045.1
5419	3.1578	2.	0.1	6308.8
5420	2.9733	2.	0.1	6643.3
5421	2.7889	2.	0.1	7083.3
5422	2.6044	2.	0.1	7691.3
5423	2.42	2.	0.1	8602.8
5424	2.2356	2.	0.1	10076
5425	2.0511	2.	0.1	14616
5426	23.816	2.1818	0.1	39.862
5427	23.631	2.1818	0.1	78.699
5428	23.447	2.1818	0.1	117.54
5429	23.262	2.1818	0.1	156.21
5430	23.078	2.1818	0.1	194.79
5431	22.893	2.1818	0.1	233.31
5432	22.709	2.1818	0.1	271.82
5433	22.524	2.1818	0.1	310.36
5434	22.34	2.1818	0.1	348.98
5435	22.156	2.1818	0.1	387.7
5436	21.971	2.1818	0.1	426.54
5437	21.787	2.1818	0.1	465.53
5438	21.602	2.1818	0.1	504.68
5439	21.418	2.1818	0.1	544.01
5440	21.233	2.1818	0.1	583.52
5441	21.049	2.1818	0.1	623.22
5442	20.864	2.1818	0.1	663.12
5443	20.68	2.1818	0.1	703.22
5444	20.496	2.1818	0.1	743.52
5445	20.311	2.1818	0.1	784.03
5446	20.127	2.1818	0.1	824.74
5447	19.942	2.1818	0.1	865.67
5448	19.758	2.1818	0.1	906.8
5449	19.573	2.1818	0.1	948.14
5450	19.389	2.1818	0.1	989.69
5451	19.204	2.1818	0.1	1031.5
5452	19.02	2.1818	0.1	1073.4
5453	18.836	2.1818	0.1	1115.6
5454	18.651	2.1818	0.1	1158.
5455	18.467	2.1818	0.1	1200.6
5456	18.282	2.1818	0.1	1243.4
5457	18.098	2.1818	0.1	1286.4
5458	17.913	2.1818	0.1	1329.6
5459	17.729	2.1818	0.1	1373.
5460	17.544	2.1818	0.1	1416.7
5461	17.36	2.1818	0.1	1460.5
5462	17.176	2.1818	0.1	1504.6
5463	16.991	2.1818	0.1	1548.8
5464	16.807	2.1818	0.1	1593.2
5465	16.622	2.1818	0.1	1637.9
5466	16.438	2.1818	0.1	1682.8
5467	16.253	2.1818	0.1	1727.8
5468	16.069	2.1818	0.1	1773.1
5469	15.884	2.1818	0.1	1818.5
5470	15.7	2.1818	0.1	1864.2
5471	15.516	2.1818	0.1	1910.1
5472	15.331	2.1818	0.1	1956.1
5473	15.147	2.1818	0.1	2002.4
5474	14.962	2.1818	0.1	2048.8
5475	14.778	2.1818	0.1	2095.5
5476	14.593	2.1818	0.1	2142.3
5477	14.409	2.1818	0.1	2189.4
5478	14.224	2.1818	0.1	2236.7
5479	14.04	2.1818	0.1	2284.1
5480	13.856	2.1818	0.1	2331.8
5481	13.671	2.1818	0.1	2379.6
5482	13.487	2.1818	0.1	2427.6
5483	13.302	2.1818	0.1	2475.9
5484	13.118	2.1818	0.1	2524.3
5485	12.933	2.1818	0.1	2572.9
5486	12.749	2.1818	0.1	2621.7
5487	12.564	2.1818	0.1	2670.7
5488	12.38	2.1818	0.1	2719.9
5489	12.196	2.1818	0.1	2769.3
5490	12.011	2.1818	0.1	2818.9
5491	11.827	2.1818	0.1	2868.6
5492	11.642	2.1818	0.1	2918.6
5493	11.458	2.1818	0.1	2968.7
5494	11.273	2.1818	0.1	3019.1
5495	11.089	2.1818	0.1	3069.6
5496	10.904	2.1818	0.1	3120.3
5497	10.72	2.1818	0.1	3171.1
5498	10.536	2.1818	0.1	3222.2
5499	10.351	2.1818	0.1	3273.4
5500	10.167	2.1818	0.1	3324.8
5501	9.9822	2.1818	0.1	3376.4
5502	9.7978	2.1818	0.1	3428.2
5503	9.6133	2.1818	0.1	3480.2
5504	9.4289	2.1818	0.1	3532.3
5505	9.2444	2.1818	0.1	3584.6
5506	9.06	2.1818	0.1	3637.1
5507	8.8756	2.1818	0.1	3689.8
5508	8.6911	2.1818	0.1	3742.6
5509	8.5067	2.1818	0.1	3795.6
5510	8.3222	2.1818	0.1	3848.9
5511	8.1378	2.1818	0.1	3902.3
5512	7.9533	2.1818	0.1	3956.
5513	7.7689	2.1818	0.1	4009.9
5514	7.5844	2.1818	0.1	4064.1
5515	7.4	2.1818	0.1	4118.6
5516	7.2156	2.1818	0.1	4173.5
5517	7.0311	2.1818	0.1	4228.8
5518	6.8467	2.1818	0.1	4284.6
5519	6.6622	2.1818	0.1	4341.
5520	6.4778	2.1818	0.1	4398.2
5521	6.2933	2.1818	0.1	4456.4
5522	6.1089	2.1818	0.1	4515.7
5523	5.9244	2.1818	0.1	4576.5
5524	5.74	2.1818	0.1	4639.2
5525	5.5556	2.1818	0.1	4704.3
5526	5.3711	2.1818	0.1	4772.4
5527	5.1867	2.1818	0.1	4844.3
5528	5.0022	2.1818	0.1	4921.2
5529	4.8178	2.1818	0.1	5004.3
5530	4.6333	2.1818	0.1	5095.3
5531	4.4489	2.1818	0.1	5196.5
5532	4.2644	2.1818	0.1	5310.5
5533	4.08	2.1818	0.1	5441.2
5534	3.8956	2.1818	0.1	5593.1
5535	3.7111	2.1818	0.1	5772.6
5536	3.5267	2.1818	0.1	5988.2
5537	3.3422	2.1818	0.1	6251.7
5538	3.1578	2.1818	0.1	6580.2
5539	2.9733	2.1818	0.1	6999.8
5540	2.7889	2.1818	0.1	7553.4
5541	2.6044	2.1818	0.1	8316.8
5542	2.42	2.1818	0.1	9444.
5543	2.2356	2.1818	0.1	11337
5544	2.0511	2.1818	0.1	15023
5545	23.816	2.3636	0.1	39.831
5546	23.631	2.3636	0.1	78.762
5547	23.447	2.3636	0.1	117.69
5548	23.262	2.3636	0.1	156.45
5549	23.078	2.3636	0.1	195.1
5550	22.893	2.3636	0.1	233.68
5551	22.709	2.3636	0.1	272.23
5552	22.524	2.3636	0.1	310.8
5553	22.34	2.3636	0.1	349.42
5554	22.156	2.3636	0.1	388.14
5555	21.971	2.3636	0.1	426.96
5556	21.787	2.3636	0.1	465.93
5557	21.602	2.3636	0.1	505.05
5558	21.418	2.3636	0.1	544.33
5559	21.233	2.3636	0.1	583.8
5560	21.049	2.3636	0.1	623.46
5561	20.864	2.3636	0.1	663.31
5562	20.68	2.3636	0.1	703.36
5563	20.496	2.3636	0.1	743.62
5564	20.311	2.3636	0.1	784.09
5565	20.127	2.3636	0.1	824.77
5566	19.942	2.3636	0.1	865.65
5567	19.758	2.3636	0.1	906.75
5568	19.573	2.3636	0.1	948.06
5569	19.389	2.3636	0.1	989.59
5570	19.204	2.3636	0.1	1031.3
5571	19.02	2.3636	0.1	1073.3
5572	18.836	2.3636	0.1	1115.4
5573	18.651	2.3636	0.1	1157.8
5574	18.467	2.3636	0.1	1200.4
5575	18.282	2.3636	0.1	1243.2
5576	18.098	2.3636	0.1	1286.2
5577	17.913	2.3636	0.1	1329.4
5578	17.729	2.3636	0.1	1372.8
5579	17.544	2.3636	0.1	1416.4
5580	17.36	2.3636	0.1	1460.2
5581	17.176	2.3636	0.1	1504.3
5582	16.991	2.3636	0.1	1548.5
5583	16.807	2.3636	0.1	1592.9
5584	16.622	2.3636	0.1	1637.6
5585	16.438	2.3636	0.1	1682.4
5586	16.253	2.3636	0.1	1727.5
5587	16.069	2.3636	0.1	1772.7
5588	15.884	2.3636	0.1	1818.2
5589	15.7	2.3636	0.1	1863.9
5590	15.516	2.3636	0.1	1909.7
5591	15.331	2.3636	0.1	1955.8
5592	15.147	2.3636	0.1	2002.
5593	14.962	2.3636	0.1	2048.5
5594	14.778	2.3636	0.1	2095.1
5595	14.593	2.3636	0.1	2142.
5596	14.409	2.3636	0.1	2189.1
5597	14.224	2.3636	0.1	2236.3
5598	14.04	2.3636	0.1	2283.7
5599	13.856	2.3636	0.1	2331.4
5600	13.671	2.3636	0.1	2379.2
5601	13.487	2.3636	0.1	2427.3
5602	13.302	2.3636	0.1	2475.5
5603	13.118	2.3636	0.1	2523.9
5604	12.933	2.3636	0.1	2572.5
5605	12.749	2.3636	0.1	2621.3
5606	12.564	2.3636	0.1	2670.3
5607	12.38	2.3636	0.1	2719.5
5608	12.196	2.3636	0.1	2768.9
5609	12.011	2.3636	0.1	2818.4
5610	11.827	2.3636	0.1	2868.2
5611	11.642	2.3636	0.1	2918.1
5612	11.458	2.3636	0.1	2968.3
5613	11.273	2.3636	0.1	3018.6
5614	11.089	2.3636	0.1	3069.1
5615	10.904	2.3636	0.1	3119.7
5616	10.72	2.3636	0.1	3170.6
5617	10.536	2.3636	0.1	3221.6
5618	10.351	2.3636	0.1	3272.8
5619	10.167	2.3636	0.1	3324.2
5620	9.9822	2.3636	0.1	3375.8
5621	9.7978	2.3636	0.1	3427.5
5622	9.6133	2.3636	0.1	3479.4
5623	9.4289	2.3636	0.1	3531.5
5624	9.2444	2.3636	0.1	3583.8
5625	9.06	2.3636	0.1	3636.2
5626	8.8756	2.3636	0.1	3688.8
5627	8.6911	2.3636	0.1	3741.6
5628	8.5067	2.3636	0.1	3794.6
5629	8.3222	2.3636	0.1	3847.8
5630	8.1378	2.3636	0.1	3901.2
5631	7.9533	2.3636	0.1	3954.8
5632	7.7689	2.3636	0.1	4008.7
5633	7.5844	2.3636	0.1	4062.9
5634	7.4	2.3636	0.1	4117.3
5635	7.2156	2.3636	0.1	4172.2
5636	7.0311	2.3636	0.1	4227.5
5637	6.8467	2.3636	0.1	4283.4
5638	6.6622	2.3636	0.1	4340.
5639	6.4778	2.3636	0.1	4397.4
5640	6.2933	2.3636	0.1	4455.9
5641	6.1089	2.3636	0.1	4515.8
5642	5.9244	2.3636	0.1	4577.3
5643	5.74	2.3636	0.1	4641.1
5644	5.5556	2.3636	0.1	4707.6
5645	5.3711	2.3636	0.1	4777.7
5646	5.1867	2.3636	0.1	4852.3
5647	5.0022	2.3636	0.1	4932.7
5648	4.8178	2.3636	0.1	5020.6
5649	4.6333	2.3636	0.1	5118.
5650	4.4489	2.3636	0.1	5227.6
5651	4.2644	2.3636	0.1	5352.8
5652	4.08	2.3636	0.1	5498.2
5653	3.8956	2.3636	0.1	5669.5
5654	3.7111	2.3636	0.1	5874.4
5655	3.5267	2.3636	0.1	6123.1
5656	3.3422	2.3636	0.1	6429.6
5657	3.1578	2.3636	0.1	6813.3
5658	2.9733	2.3636	0.1	7303.
5659	2.7889	2.3636	0.1	7942.8
5660	2.6044	2.3636	0.1	8804.7
5661	2.42	2.3636	0.1	10016
5662	2.2356	2.3636	0.1	11796
5663	2.0511	2.3636	0.1	14340
5664	23.816	2.5455	0.1	39.806
5665	23.631	2.5455	0.1	78.805
5666	23.447	2.5455	0.1	117.8
5667	23.262	2.5455	0.1	156.62
5668	23.078	2.5455	0.1	195.32
5669	22.893	2.5455	0.1	233.95
5670	22.709	2.5455	0.1	272.53
5671	22.524	2.5455	0.1	311.12
5672	22.34	2.5455	0.1	349.76
5673	22.156	2.5455	0.1	388.47
5674	21.971	2.5455	0.1	427.29
5675	21.787	2.5455	0.1	466.23
5676	21.602	2.5455	0.1	505.33
5677	21.418	2.5455	0.1	544.58
5678	21.233	2.5455	0.1	584.02
5679	21.049	2.5455	0.1	623.64
5680	20.864	2.5455	0.1	663.46
5681	20.68	2.5455	0.1	703.48
5682	20.496	2.5455	0.1	743.71
5683	20.311	2.5455	0.1	784.15
5684	20.127	2.5455	0.1	824.79
5685	19.942	2.5455	0.1	865.65
5686	19.758	2.5455	0.1	906.73
5687	19.573	2.5455	0.1	948.01
5688	19.389	2.5455	0.1	989.52
5689	19.204	2.5455	0.1	1031.2
5690	19.02	2.5455	0.1	1073.2
5691	18.836	2.5455	0.1	1115.3
5692	18.651	2.5455	0.1	1157.7
5693	18.467	2.5455	0.1	1200.2
5694	18.282	2.5455	0.1	1243.
5695	18.098	2.5455	0.1	1286.
5696	17.913	2.5455	0.1	1329.2
5697	17.729	2.5455	0.1	1372.6
5698	17.544	2.5455	0.1	1416.2
5699	17.36	2.5455	0.1	1460.
5700	17.176	2.5455	0.1	1504.
5701	16.991	2.5455	0.1	1548.3
5702	16.807	2.5455	0.1	1592.7
5703	16.622	2.5455	0.1	1637.4
5704	16.438	2.5455	0.1	1682.2
5705	16.253	2.5455	0.1	1727.3
5706	16.069	2.5455	0.1	1772.5
5707	15.884	2.5455	0.1	1818.
5708	15.7	2.5455	0.1	1863.6
5709	15.516	2.5455	0.1	1909.5
5710	15.331	2.5455	0.1	1955.5
5711	15.147	2.5455	0.1	2001.8
5712	14.962	2.5455	0.1	2048.2
5713	14.778	2.5455	0.1	2094.9
5714	14.593	2.5455	0.1	2141.7
5715	14.409	2.5455	0.1	2188.8
5716	14.224	2.5455	0.1	2236.
5717	14.04	2.5455	0.1	2283.5
5718	13.856	2.5455	0.1	2331.1
5719	13.671	2.5455	0.1	2379.
5720	13.487	2.5455	0.1	2427.
5721	13.302	2.5455	0.1	2475.2
5722	13.118	2.5455	0.1	2523.6
5723	12.933	2.5455	0.1	2572.2
5724	12.749	2.5455	0.1	2621.
5725	12.564	2.5455	0.1	2670.
5726	12.38	2.5455	0.1	2719.2
5727	12.196	2.5455	0.1	2768.6
5728	12.011	2.5455	0.1	2818.1
5729	11.827	2.5455	0.1	2867.9
5730	11.642	2.5455	0.1	2917.8
5731	11.458	2.5455	0.1	2967.9
5732	11.273	2.5455	0.1	3018.2
5733	11.089	2.5455	0.1	3068.7
5734	10.904	2.5455	0.1	3119.3
5735	10.72	2.5455	0.1	3170.2
5736	10.536	2.5455	0.1	3221.2
5737	10.351	2.5455	0.1	3272.4
5738	10.167	2.5455	0.1	3323.7
5739	9.9822	2.5455	0.1	3375.3
5740	9.7978	2.5455	0.1	3427.
5741	9.6133	2.5455	0.1	3478.9
5742	9.4289	2.5455	0.1	3530.9
5743	9.2444	2.5455	0.1	3583.1
5744	9.06	2.5455	0.1	3635.5
5745	8.8756	2.5455	0.1	3688.1
5746	8.6911	2.5455	0.1	3740.9
5747	8.5067	2.5455	0.1	3793.8
5748	8.3222	2.5455	0.1	3847.
5749	8.1378	2.5455	0.1	3900.3
5750	7.9533	2.5455	0.1	3953.9
5751	7.7689	2.5455	0.1	4007.7
5752	7.5844	2.5455	0.1	4061.9
5753	7.4	2.5455	0.1	4116.3
5754	7.2156	2.5455	0.1	4171.2
5755	7.0311	2.5455	0.1	4226.6
5756	6.8467	2.5455	0.1	4282.5
5757	6.6622	2.5455	0.1	4339.2
5758	6.4778	2.5455	0.1	4396.8
5759	6.2933	2.5455	0.1	4455.6
5760	6.1089	2.5455	0.1	4515.8
5761	5.9244	2.5455	0.1	4577.9
5762	5.74	2.5455	0.1	4642.5
5763	5.5556	2.5455	0.1	4710.1
5764	5.3711	2.5455	0.1	4781.7
5765	5.1867	2.5455	0.1	4858.4
5766	5.0022	2.5455	0.1	4941.6
5767	4.8178	2.5455	0.1	5033.2
5768	4.6333	2.5455	0.1	5135.6
5769	4.4489	2.5455	0.1	5251.9
5770	4.2644	2.5455	0.1	5386.
5771	4.08	2.5455	0.1	5543.1
5772	3.8956	2.5455	0.1	5729.9
5773	3.7111	2.5455	0.1	5955.1
5774	3.5267	2.5455	0.1	6230.4
5775	3.3422	2.5455	0.1	6571.1
5776	3.1578	2.5455	0.1	6997.9
5777	2.9733	2.5455	0.1	7539.1
5778	2.7889	2.5455	0.1	8233.6
5779	2.6044	2.5455	0.1	9134.6
5780	2.42	2.5455	0.1	10306
5781	2.2356	2.5455	0.1	11788
5782	2.0511	2.5455	0.1	13407
5783	23.816	2.7273	0.1	39.789
5784	23.631	2.7273	0.1	78.831
5785	23.447	2.7273	0.1	117.86
5786	23.262	2.7273	0.1	156.73
5787	23.078	2.7273	0.1	195.47
5788	22.893	2.7273	0.1	234.12
5789	22.709	2.7273	0.1	272.73
5790	22.524	2.7273	0.1	311.34
5791	22.34	2.7273	0.1	349.98
5792	22.156	2.7273	0.1	388.69
5793	21.971	2.7273	0.1	427.5
5794	21.787	2.7273	0.1	466.44
5795	21.602	2.7273	0.1	505.52
5796	21.418	2.7273	0.1	544.76
5797	21.233	2.7273	0.1	584.17
5798	21.049	2.7273	0.1	623.77
5799	20.864	2.7273	0.1	663.57
5800	20.68	2.7273	0.1	703.57
5801	20.496	2.7273	0.1	743.77
5802	20.311	2.7273	0.1	784.19
5803	20.127	2.7273	0.1	824.82
5804	19.942	2.7273	0.1	865.66
5805	19.758	2.7273	0.1	906.71
5806	19.573	2.7273	0.1	947.98
5807	19.389	2.7273	0.1	989.47
5808	19.204	2.7273	0.1	1031.2
5809	19.02	2.7273	0.1	1073.1
5810	18.836	2.7273	0.1	1115.2
5811	18.651	2.7273	0.1	1157.6
5812	18.467	2.7273	0.1	1200.1
5813	18.282	2.7273	0.1	1242.9
5814	18.098	2.7273	0.1	1285.9
5815	17.913	2.7273	0.1	1329.1
5816	17.729	2.7273	0.1	1372.5
5817	17.544	2.7273	0.1	1416.1
5818	17.36	2.7273	0.1	1459.9
5819	17.176	2.7273	0.1	1503.9
5820	16.991	2.7273	0.1	1548.1
5821	16.807	2.7273	0.1	1592.6
5822	16.622	2.7273	0.1	1637.2
5823	16.438	2.7273	0.1	1682.1
5824	16.253	2.7273	0.1	1727.1
5825	16.069	2.7273	0.1	1772.3
5826	15.884	2.7273	0.1	1817.8
5827	15.7	2.7273	0.1	1863.5
5828	15.516	2.7273	0.1	1909.3
5829	15.331	2.7273	0.1	1955.4
5830	15.147	2.7273	0.1	2001.6
5831	14.962	2.7273	0.1	2048.1
5832	14.778	2.7273	0.1	2094.7
5833	14.593	2.7273	0.1	2141.6
5834	14.409	2.7273	0.1	2188.6
5835	14.224	2.7273	0.1	2235.9
5836	14.04	2.7273	0.1	2283.3
5837	13.856	2.7273	0.1	2330.9
5838	13.671	2.7273	0.1	2378.8
5839	13.487	2.7273	0.1	2426.8
5840	13.302	2.7273	0.1	2475.
5841	13.118	2.7273	0.1	2523.4
5842	12.933	2.7273	0.1	2572.
5843	12.749	2.7273	0.1	2620.8
5844	12.564	2.7273	0.1	2669.8
5845	12.38	2.7273	0.1	2719.
5846	12.196	2.7273	0.1	2768.3
5847	12.011	2.7273	0.1	2817.9
5848	11.827	2.7273	0.1	2867.6
5849	11.642	2.7273	0.1	2917.5
5850	11.458	2.7273	0.1	2967.7
5851	11.273	2.7273	0.1	3017.9
5852	11.089	2.7273	0.1	3068.4
5853	10.904	2.7273	0.1	3119.1
5854	10.72	2.7273	0.1	3169.9
5855	10.536	2.7273	0.1	3220.9
5856	10.351	2.7273	0.1	3272.1
5857	10.167	2.7273	0.1	3323.4
5858	9.9822	2.7273	0.1	3374.9
5859	9.7978	2.7273	0.1	3426.6
5860	9.6133	2.7273	0.1	3478.5
5861	9.4289	2.7273	0.1	3530.5
5862	9.2444	2.7273	0.1	3582.7
5863	9.06	2.7273	0.1	3635.1
5864	8.8756	2.7273	0.1	3687.7
5865	8.6911	2.7273	0.1	3740.4
5866	8.5067	2.7273	0.1	3793.3
5867	8.3222	2.7273	0.1	3846.4
5868	8.1378	2.7273	0.1	3899.7
5869	7.9533	2.7273	0.1	3953.3
5870	7.7689	2.7273	0.1	4007.1
5871	7.5844	2.7273	0.1	4061.2
5872	7.4	2.7273	0.1	4115.7
5873	7.2156	2.7273	0.1	4170.5
5874	7.0311	2.7273	0.1	4225.9
5875	6.8467	2.7273	0.1	4281.9
5876	6.6622	2.7273	0.1	4338.6
5877	6.4778	2.7273	0.1	4396.3
5878	6.2933	2.7273	0.1	4455.3
5879	6.1089	2.7273	0.1	4515.8
5880	5.9244	2.7273	0.1	4578.3
5881	5.74	2.7273	0.1	4643.4
5882	5.5556	2.7273	0.1	4711.8
5883	5.3711	2.7273	0.1	4784.4
5884	5.1867	2.7273	0.1	4862.5
5885	5.0022	2.7273	0.1	4947.7
5886	4.8178	2.7273	0.1	5041.8
5887	4.6333	2.7273	0.1	5147.7
5888	4.4489	2.7273	0.1	5268.5
5889	4.2644	2.7273	0.1	5408.8
5890	4.08	2.7273	0.1	5574.1
5891	3.8956	2.7273	0.1	5771.7
5892	3.7111	2.7273	0.1	6011.3
5893	3.5267	2.7273	0.1	6305.2
5894	3.3422	2.7273	0.1	6669.7
5895	3.1578	2.7273	0.1	7125.6
5896	2.9733	2.7273	0.1	7699.1
5897	2.7889	2.7273	0.1	8421.5
5898	2.6044	2.7273	0.1	9323.8
5899	2.42	2.7273	0.1	10420
5900	2.2356	2.7273	0.1	11659
5901	2.0511	2.7273	0.1	12851
5902	23.816	2.9091	0.1	39.78
5903	23.631	2.9091	0.1	78.844
5904	23.447	2.9091	0.1	117.9
5905	23.262	2.9091	0.1	156.78
5906	23.078	2.9091	0.1	195.54
5907	22.893	2.9091	0.1	234.21
5908	22.709	2.9091	0.1	272.83
5909	22.524	2.9091	0.1	311.45
5910	22.34	2.9091	0.1	350.09
5911	22.156	2.9091	0.1	388.8
5912	21.971	2.9091	0.1	427.61
5913	21.787	2.9091	0.1	466.54
5914	21.602	2.9091	0.1	505.61
5915	21.418	2.9091	0.1	544.84
5916	21.233	2.9091	0.1	584.25
5917	21.049	2.9091	0.1	623.84
5918	20.864	2.9091	0.1	663.63
5919	20.68	2.9091	0.1	703.61
5920	20.496	2.9091	0.1	743.81
5921	20.311	2.9091	0.1	784.21
5922	20.127	2.9091	0.1	824.83
5923	19.942	2.9091	0.1	865.66
5924	19.758	2.9091	0.1	906.71
5925	19.573	2.9091	0.1	947.97
5926	19.389	2.9091	0.1	989.45
5927	19.204	2.9091	0.1	1031.1
5928	19.02	2.9091	0.1	1073.1
5929	18.836	2.9091	0.1	1115.2
5930	18.651	2.9091	0.1	1157.5
5931	18.467	2.9091	0.1	1200.1
5932	18.282	2.9091	0.1	1242.8
5933	18.098	2.9091	0.1	1285.8
5934	17.913	2.9091	0.1	1329.
5935	17.729	2.9091	0.1	1372.4
5936	17.544	2.9091	0.1	1416.
5937	17.36	2.9091	0.1	1459.8
5938	17.176	2.9091	0.1	1503.8
5939	16.991	2.9091	0.1	1548.1
5940	16.807	2.9091	0.1	1592.5
5941	16.622	2.9091	0.1	1637.1
5942	16.438	2.9091	0.1	1682.
5943	16.253	2.9091	0.1	1727.
5944	16.069	2.9091	0.1	1772.3
5945	15.884	2.9091	0.1	1817.7
5946	15.7	2.9091	0.1	1863.4
5947	15.516	2.9091	0.1	1909.2
5948	15.331	2.9091	0.1	1955.3
5949	15.147	2.9091	0.1	2001.5
5950	14.962	2.9091	0.1	2048.
5951	14.778	2.9091	0.1	2094.6
5952	14.593	2.9091	0.1	2141.5
5953	14.409	2.9091	0.1	2188.5
5954	14.224	2.9091	0.1	2235.8
5955	14.04	2.9091	0.1	2283.2
5956	13.856	2.9091	0.1	2330.8
5957	13.671	2.9091	0.1	2378.7
5958	13.487	2.9091	0.1	2426.7
5959	13.302	2.9091	0.1	2474.9
5960	13.118	2.9091	0.1	2523.3
5961	12.933	2.9091	0.1	2571.9
5962	12.749	2.9091	0.1	2620.7
5963	12.564	2.9091	0.1	2669.7
5964	12.38	2.9091	0.1	2718.9
5965	12.196	2.9091	0.1	2768.2
5966	12.011	2.9091	0.1	2817.8
5967	11.827	2.9091	0.1	2867.5
5968	11.642	2.9091	0.1	2917.4
5969	11.458	2.9091	0.1	2967.5
5970	11.273	2.9091	0.1	3017.8
5971	11.089	2.9091	0.1	3068.3
5972	10.904	2.9091	0.1	3118.9
5973	10.72	2.9091	0.1	3169.7
5974	10.536	2.9091	0.1	3220.7
5975	10.351	2.9091	0.1	3271.9
5976	10.167	2.9091	0.1	3323.2
5977	9.9822	2.9091	0.1	3374.8
5978	9.7978	2.9091	0.1	3426.4
5979	9.6133	2.9091	0.1	3478.3
5980	9.4289	2.9091	0.1	3530.3
5981	9.2444	2.9091	0.1	3582.5
5982	9.06	2.9091	0.1	3634.9
5983	8.8756	2.9091	0.1	3687.4
5984	8.6911	2.9091	0.1	3740.1
5985	8.5067	2.9091	0.1	3793.
5986	8.3222	2.9091	0.1	3846.1
5987	8.1378	2.9091	0.1	3899.4
5988	7.9533	2.9091	0.1	3953.
5989	7.7689	2.9091	0.1	4006.8
5990	7.5844	2.9091	0.1	4060.9
5991	7.4	2.9091	0.1	4115.3
5992	7.2156	2.9091	0.1	4170.2
5993	7.0311	2.9091	0.1	4225.6
5994	6.8467	2.9091	0.1	4281.6
5995	6.6622	2.9091	0.1	4338.3
5996	6.4778	2.9091	0.1	4396.1
5997	6.2933	2.9091	0.1	4455.2
5998	6.1089	2.9091	0.1	4515.8
5999	5.9244	2.9091	0.1	4578.5
6000	5.74	2.9091	0.1	4643.9
6001	5.5556	2.9091	0.1	4712.7
6002	5.3711	2.9091	0.1	4785.8
6003	5.1867	2.9091	0.1	4864.6
6004	5.0022	2.9091	0.1	4950.7
6005	4.8178	2.9091	0.1	5046.2
6006	4.6333	2.9091	0.1	5153.8
6007	4.4489	2.9091	0.1	5277.
6008	4.2644	2.9091	0.1	5420.4
6009	4.08	2.9091	0.1	5589.9
6010	3.8956	2.9091	0.1	5793.2
6011	3.7111	2.9091	0.1	6040.1
6012	3.5267	2.9091	0.1	6343.6
6013	3.3422	2.9091	0.1	6720.3
6014	3.1578	2.9091	0.1	7190.7
6015	2.9733	2.9091	0.1	7779.4
6016	2.7889	2.9091	0.1	8512.2
6017	2.6044	2.9091	0.1	9407.
6018	2.42	2.9091	0.1	10452
6019	2.2356	2.9091	0.1	11571
6020	2.0511	2.9091	0.1	12584
6021	23.816	3.0909	0.1	39.78
6022	23.631	3.0909	0.1	78.844
6023	23.447	3.0909	0.1	117.9
6024	23.262	3.0909	0.1	156.78
6025	23.078	3.0909	0.1	195.54
6026	22.893	3.0909	0.1	234.21
6027	22.709	3.0909	0.1	272.83
6028	22.524	3.0909	0.1	311.45
6029	22.34	3.0909	0.1	350.09
6030	22.156	3.0909	0.1	388.8
6031	21.971	3.0909	0.1	427.61
6032	21.787	3.0909	0.1	466.54
6033	21.602	3.0909	0.1	505.61
6034	21.418	3.0909	0.1	544.84
6035	21.233	3.0909	0.1	584.25
6036	21.049	3.0909	0.1	623.84
6037	20.864	3.0909	0.1	663.63
6038	20.68	3.0909	0.1	703.61
6039	20.496	3.0909	0.1	743.81
6040	20.311	3.0909	0.1	784.21
6041	20.127	3.0909	0.1	824.83
6042	19.942	3.0909	0.1	865.66
6043	19.758	3.0909	0.1	906.71
6044	19.573	3.0909	0.1	947.97
6045	19.389	3.0909	0.1	989.45
6046	19.204	3.0909	0.1	1031.1
6047	19.02	3.0909	0.1	1073.1
6048	18.836	3.0909	0.1	1115.2
6049	18.651	3.0909	0.1	1157.5
6050	18.467	3.0909	0.1	1200.1
6051	18.282	3.0909	0.1	1242.8
6052	18.098	3.0909	0.1	1285.8
6053	17.913	3.0909	0.1	1329.
6054	17.729	3.0909	0.1	1372.4
6055	17.544	3.0909	0.1	1416.
6056	17.36	3.0909	0.1	1459.8
6057	17.176	3.0909	0.1	1503.8
6058	16.991	3.0909	0.1	1548.1
6059	16.807	3.0909	0.1	1592.5
6060	16.622	3.0909	0.1	1637.1
6061	16.438	3.0909	0.1	1682.
6062	16.253	3.0909	0.1	1727.
6063	16.069	3.0909	0.1	1772.3
6064	15.884	3.0909	0.1	1817.7
6065	15.7	3.0909	0.1	1863.4
6066	15.516	3.0909	0.1	1909.2
6067	15.331	3.0909	0.1	1955.3
6068	15.147	3.0909	0.1	2001.5
6069	14.962	3.0909	0.1	2048.
6070	14.778	3.0909	0.1	2094.6
6071	14.593	3.0909	0.1	2141.5
6072	14.409	3.0909	0.1	2188.5
6073	14.224	3.0909	0.1	2235.8
6074	14.04	3.0909	0.1	2283.2
6075	13.856	3.0909	0.1	2330.8
6076	13.671	3.0909	0.1	2378.7
6077	13.487	3.0909	0.1	2426.7
6078	13.302	3.0909	0.1	2474.9
6079	13.118	3.0909	0.1	2523.3
6080	12.933	3.0909	0.1	2571.9
6081	12.749	3.0909	0.1	2620.7
6082	12.564	3.0909	0.1	2669.7
6083	12.38	3.0909	0.1	2718.9
6084	12.196	3.0909	0.1	2768.2
6085	12.011	3.0909	0.1	2817.8
6086	11.827	3.0909	0.1	2867.5
6087	11.642	3.0909	0.1	2917.4
6088	11.458	3.0909	0.1	2967.5
6089	11.273	3.0909	0.1	3017.8
6090	11.089	3.0909	0.1	3068.3
6091	10.904	3.0909	0.1	3118.9
6092	10.72	3.0909	0.1	3169.7
6093	10.536	3.0909	0.1	3220.7
6094	10.351	3.0909	0.1	3271.9
6095	10.167	3.0909	0.1	3323.2
6096	9.9822	3.0909	0.1	3374.8
6097	9.7978	3.0909	0.1	3426.4
6098	9.6133	3.0909	0.1	3478.3
6099	9.4289	3.0909	0.1	3530.3
6100	9.2444	3.0909	0.1	3582.5
6101	9.06	3.0909	0.1	3634.9
6102	8.8756	3.0909	0.1	3687.4
6103	8.6911	3.0909	0.1	3740.1
6104	8.5067	3.0909	0.1	3793.
6105	8.3222	3.0909	0.1	3846.1
6106	8.1378	3.0909	0.1	3899.4
6107	7.9533	3.0909	0.1	3953.
6108	7.7689	3.0909	0.1	4006.8
6109	7.5844	3.0909	0.1	4060.9
6110	7.4	3.0909	0.1	4115.3
6111	7.2156	3.0909	0.1	4170.2
6112	7.0311	3.0909	0.1	4225.6
6113	6.8467	3.0909	0.1	4281.6
6114	6.6622	3.0909	0.1	4338.3
6115	6.4778	3.0909	0.1	4396.1
6116	6.2933	3.0909	0.1	4455.2
6117	6.1089	3.0909	0.1	4515.8
6118	5.9244	3.0909	0.1	4578.5
6119	5.74	3.0909	0.1	4643.9
6120	5.5556	3.0909	0.1	4712.7
6121	5.3711	3.0909	0.1	4785.8
6122	5.1867	3.0909	0.1	4864.6
6123	5.0022	3.0909	0.1	4950.7
6124	4.8178	3.0909	0.1	5046.2
6125	4.6333	3.0909	0.1	5153.8
6126	4.4489	3.0909	0.1	5277.
6127	4.2644	3.0909	0.1	5420.4
6128	4.08	3.0909	0.1	5589.9
6129	3.8956	3.0909	0.1	5793.2
6130	3.7111	3.0909	0.1	6040.1
6131	3.5267	3.0909	0.1	6343.6
6132	3.3422	3.0909	0.1	6720.3
6133	3.1578	3.0909	0.1	7190.7
6134	2.9733	3.0909	0.1	7779.4
6135	2.7889	3.0909	0.1	8512.2
6136	2.6044	3.0909	0.1	9407.
6137	2.42	3.0909	0.1	10452
6138	2.2356	3.0909	0.1	11571
6139	2.0511	3.0909	0.1	12584
6140	23.816	3.2727	0.1	39.789
6141	23.631	3.2727	0.1	78.831
6142	23.447	3.2727	0.1	117.86
6143	23.262	3.2727	0.1	156.73
6144	23.078	3.2727	0.1	195.47
6145	22.893	3.2727	0.1	234.12
6146	22.709	3.2727	0.1	272.73
6147	22.524	3.2727	0.1	311.34
6148	22.34	3.2727	0.1	349.98
6149	22.156	3.2727	0.1	388.69
6150	21.971	3.2727	0.1	427.5
6151	21.787	3.2727	0.1	466.44
6152	21.602	3.2727	0.1	505.52
6153	21.418	3.2727	0.1	544.76
6154	21.233	3.2727	0.1	584.17
6155	21.049	3.2727	0.1	623.77
6156	20.864	3.2727	0.1	663.57
6157	20.68	3.2727	0.1	703.57
6158	20.496	3.2727	0.1	743.77
6159	20.311	3.2727	0.1	784.19
6160	20.127	3.2727	0.1	824.82
6161	19.942	3.2727	0.1	865.66
6162	19.758	3.2727	0.1	906.71
6163	19.573	3.2727	0.1	947.98
6164	19.389	3.2727	0.1	989.47
6165	19.204	3.2727	0.1	1031.2
6166	19.02	3.2727	0.1	1073.1
6167	18.836	3.2727	0.1	1115.2
6168	18.651	3.2727	0.1	1157.6
6169	18.467	3.2727	0.1	1200.1
6170	18.282	3.2727	0.1	1242.9
6171	18.098	3.2727	0.1	1285.9
6172	17.913	3.2727	0.1	1329.1
6173	17.729	3.2727	0.1	1372.5
6174	17.544	3.2727	0.1	1416.1
6175	17.36	3.2727	0.1	1459.9
6176	17.176	3.2727	0.1	1503.9
6177	16.991	3.2727	0.1	1548.1
6178	16.807	3.2727	0.1	1592.6
6179	16.622	3.2727	0.1	1637.2
6180	16.438	3.2727	0.1	1682.1
6181	16.253	3.2727	0.1	1727.1
6182	16.069	3.2727	0.1	1772.3
6183	15.884	3.2727	0.1	1817.8
6184	15.7	3.2727	0.1	1863.5
6185	15.516	3.2727	0.1	1909.3
6186	15.331	3.2727	0.1	1955.4
6187	15.147	3.2727	0.1	2001.6
6188	14.962	3.2727	0.1	2048.1
6189	14.778	3.2727	0.1	2094.7
6190	14.593	3.2727	0.1	2141.6
6191	14.409	3.2727	0.1	2188.6
6192	14.224	3.2727	0.1	2235.9
6193	14.04	3.2727	0.1	2283.3
6194	13.856	3.2727	0.1	2330.9
6195	13.671	3.2727	0.1	2378.8
6196	13.487	3.2727	0.1	2426.8
6197	13.302	3.2727	0.1	2475.
6198	13.118	3.2727	0.1	2523.4
6199	12.933	3.2727	0.1	2572.
6200	12.749	3.2727	0.1	2620.8
6201	12.564	3.2727	0.1	2669.8
6202	12.38	3.2727	0.1	2719.
6203	12.196	3.2727	0.1	2768.3
6204	12.011	3.2727	0.1	2817.9
6205	11.827	3.2727	0.1	2867.6
6206	11.642	3.2727	0.1	2917.5
6207	11.458	3.2727	0.1	2967.7
6208	11.273	3.2727	0.1	3017.9
6209	11.089	3.2727	0.1	3068.4
6210	10.904	3.2727	0.1	3119.1
6211	10.72	3.2727	0.1	3169.9
6212	10.536	3.2727	0.1	3220.9
6213	10.351	3.2727	0.1	3272.1
6214	10.167	3.2727	0.1	3323.4
6215	9.9822	3.2727	0.1	3374.9
6216	9.7978	3.2727	0.1	3426.6
6217	9.6133	3.2727	0.1	3478.5
6218	9.4289	3.2727	0.1	3530.5
6219	9.2444	3.2727	0.1	3582.7
6220	9.06	3.2727	0.1	3635.1
6221	8.8756	3.2727	0.1	3687.7
6222	8.6911	3.2727	0.1	3740.4
6223	8.5067	3.2727	0.1	3793.3
6224	8.3222	3.2727	0.1	3846.4
6225	8.1378	3.2727	0.1	3899.7
6226	7.9533	3.2727	0.1	3953.3
6227	7.7689	3.2727	0.1	4007.1
6228	7.5844	3.2727	0.1	4061.2
6229	7.4	3.2727	0.1	4115.7
6230	7.2156	3.2727	0.1	4170.5
6231	7.0311	3.2727	0.1	4225.9
6232	6.8467	3.2727	0.1	4281.9
6233	6.6622	3.2727	0.1	4338.6
6234	6.4778	3.2727	0.1	4396.3
6235	6.2933	3.2727	0.1	4455.3
6236	6.1089	3.2727	0.1	4515.8
6237	5.9244	3.2727	0.1	4578.3
6238	5.74	3.2727	0.1	4643.4
6239	5.5556	3.2727	0.1	4711.8
6240	5.3711	3.2727	0.1	4784.4
6241	5.1867	3.2727	0.1	4862.5
6242	5.0022	3.2727	0.1	4947.7
6243	4.8178	3.2727	0.1	5041.8
6244	4.6333	3.2727	0.1	5147.7
6245	4.4489	3.2727	0.1	5268.5
6246	4.2644	3.2727	0.1	5408.8
6247	4.08	3.2727	0.1	5574.1
6248	3.8956	3.2727	0.1	5771.7
6249	3.7111	3.2727	0.1	6011.3
6250	3.5267	3.2727	0.1	6305.2
6251	3.3422	3.2727	0.1	6669.7
6252	3.1578	3.2727	0.1	7125.6
6253	2.9733	3.2727	0.1	7699.1
6254	2.7889	3.2727	0.1	8421.5
6255	2.6044	3.2727	0.1	9323.8
6256	2.42	3.2727	0.1	10420
6257	2.2356	3.2727	0.1	11659
6258	2.0511	3.2727	0.1	12851
6259	23.816	3.4545	0.1	39.806
6260	23.631	3.4545	0.1	78.805
6261	23.447	3.4545	0.1	117.8
6262	23.262	3.4545	0.1	156.62
6263	23.078	3.4545	0.1	195.32
6264	22.893	3.4545	0.1	233.95
6265	22.709	3.4545	0.1	272.53
6266	22.524	3.4545	0.1	311.12
6267	22.34	3.4545	0.1	349.76
6268	22.156	3.4545	0.1	388.47
6269	21.971	3.4545	0.1	427.29
6270	21.787	3.4545	0.1	466.23
6271	21.602	3.4545	0.1	505.33
6272	21.418	3.4545	0.1	544.58
6273	21.233	3.4545	0.1	584.02
6274	21.049	3.4545	0.1	623.64
6275	20.864	3.4545	0.1	663.46
6276	20.68	3.4545	0.1	703.48
6277	20.496	3.4545	0.1	743.71
6278	20.311	3.4545	0.1	784.15
6279	20.127	3.4545	0.1	824.79
6280	19.942	3.4545	0.1	865.65
6281	19.758	3.4545	0.1	906.73
6282	19.573	3.4545	0.1	948.01
6283	19.389	3.4545	0.1	989.52
6284	19.204	3.4545	0.1	1031.2
6285	19.02	3.4545	0.1	1073.2
6286	18.836	3.4545	0.1	1115.3
6287	18.651	3.4545	0.1	1157.7
6288	18.467	3.4545	0.1	1200.2
6289	18.282	3.4545	0.1	1243.
6290	18.098	3.4545	0.1	1286.
6291	17.913	3.4545	0.1	1329.2
6292	17.729	3.4545	0.1	1372.6
6293	17.544	3.4545	0.1	1416.2
6294	17.36	3.4545	0.1	1460.
6295	17.176	3.4545	0.1	1504.
6296	16.991	3.4545	0.1	1548.3
6297	16.807	3.4545	0.1	1592.7
6298	16.622	3.4545	0.1	1637.4
6299	16.438	3.4545	0.1	1682.2
6300	16.253	3.4545	0.1	1727.3
6301	16.069	3.4545	0.1	1772.5
6302	15.884	3.4545	0.1	1818.
6303	15.7	3.4545	0.1	1863.6
6304	15.516	3.4545	0.1	1909.5
6305	15.331	3.4545	0.1	1955.5
6306	15.147	3.4545	0.1	2001.8
6307	14.962	3.4545	0.1	2048.2
6308	14.778	3.4545	0.1	2094.9
6309	14.593	3.4545	0.1	2141.7
6310	14.409	3.4545	0.1	2188.8
6311	14.224	3.4545	0.1	2236.
6312	14.04	3.4545	0.1	2283.5
6313	13.856	3.4545	0.1	2331.1
6314	13.671	3.4545	0.1	2379.
6315	13.487	3.4545	0.1	2427.
6316	13.302	3.4545	0.1	2475.2
6317	13.118	3.4545	0.1	2523.6
6318	12.933	3.4545	0.1	2572.2
6319	12.749	3.4545	0.1	2621.
6320	12.564	3.4545	0.1	2670.
6321	12.38	3.4545	0.1	2719.2
6322	12.196	3.4545	0.1	2768.6
6323	12.011	3.4545	0.1	2818.1
6324	11.827	3.4545	0.1	2867.9
6325	11.642	3.4545	0.1	2917.8
6326	11.458	3.4545	0.1	2967.9
6327	11.273	3.4545	0.1	3018.2
6328	11.089	3.4545	0.1	3068.7
6329	10.904	3.4545	0.1	3119.3
6330	10.72	3.4545	0.1	3170.2
6331	10.536	3.4545	0.1	3221.2
6332	10.351	3.4545	0.1	3272.4
6333	10.167	3.4545	0.1	3323.7
6334	9.9822	3.4545	0.1	3375.3
6335	9.7978	3.4545	0.1	3427.
6336	9.6133	3.4545	0.1	3478.9
6337	9.4289	3.4545	0.1	3530.9
6338	9.2444	3.4545	0.1	3583.1
6339	9.06	3.4545	0.1	3635.5
6340	8.8756	3.4545	0.1	3688.1
6341	8.6911	3.4545	0.1	3740.9
6342	8.5067	3.4545	0.1	3793.8
6343	8.3222	3.4545	0.1	3847.
6344	8.1378	3.4545	0.1	3900.3
6345	7.9533	3.4545	0.1	3953.9
6346	7.7689	3.4545	0.1	4007.7
6347	7.5844	3.4545	0.1	4061.9
6348	7.4	3.4545	0.1	4116.3
6349	7.2156	3.4545	0.1	4171.2
6350	7.0311	3.4545	0.1	4226.6
6351	6.8467	3.4545	0.1	4282.5
6352	6.6622	3.4545	0.1	4339.2
6353	6.4778	3.4545	0.1	4396.8
6354	6.2933	3.4545	0.1	4455.6
6355	6.1089	3.4545	0.1	4515.8
6356	5.9244	3.4545	0.1	4577.9
6357	5.74	3.4545	0.1	4642.5
6358	5.5556	3.4545	0.1	4710.1
6359	5.3711	3.4545	0.1	4781.7
6360	5.1867	3.4545	0.1	4858.4
6361	5.0022	3.4545	0.1	4941.6
6362	4.8178	3.4545	0.1	5033.2
6363	4.6333	3.4545	0.1	5135.6
6364	4.4489	3.4545	0.1	5251.9
6365	4.2644	3.4545	0.1	5386.
6366	4.08	3.4545	0.1	5543.1
6367	3.8956	3.4545	0.1	5729.9
6368	3.7111	3.4545	0.1	5955.1
6369	3.5267	3.4545	0.1	6230.4
6370	3.3422	3.4545	0.1	6571.1
6371	3.1578	3.4545	0.1	6997.9
6372	2.9733	3.4545	0.1	7539.1
6373	2.7889	3.4545	0.1	8233.6
6374	2.6044	3.4545	0.1	9134.6
6375	2.42	3.4545	0.1	10306
6376	2.2356	3.4545	0.1	11788
6377	2.0511	3.4545	0.1	13407
6378	23.816	3.6364	0.1	39.831
6379	23.631	3.6364	0.1	78.762
6380	23.447	3.6364	0.1	117.69
6381	23.262	3.6364	0.1	156.45
6382	23.078	3.6364	0.1	195.1
6383	22.893	3.6364	0.1	233.68
6384	22.709	3.6364	0.1	272.23
6385	22.524	3.6364	0.1	310.8
6386	22.34	3.6364	0.1	349.42
6387	22.156	3.6364	0.1	388.14
6388	21.971	3.6364	0.1	426.96
6389	21.787	3.6364	0.1	465.93
6390	21.602	3.6364	0.1	505.05
6391	21.418	3.6364	0.1	544.33
6392	21.233	3.6364	0.1	583.8
6393	21.049	3.6364	0.1	623.46
6394	20.864	3.6364	0.1	663.31
6395	20.68	3.6364	0.1	703.36
6396	20.496	3.6364	0.1	743.62
6397	20.311	3.6364	0.1	784.09
6398	20.127	3.6364	0.1	824.77
6399	19.942	3.6364	0.1	865.65
6400	19.758	3.6364	0.1	906.75
6401	19.573	3.6364	0.1	948.06
6402	19.389	3.6364	0.1	989.59
6403	19.204	3.6364	0.1	1031.3
6404	19.02	3.6364	0.1	1073.3
6405	18.836	3.6364	0.1	1115.4
6406	18.651	3.6364	0.1	1157.8
6407	18.467	3.6364	0.1	1200.4
6408	18.282	3.6364	0.1	1243.2
6409	18.098	3.6364	0.1	1286.2
6410	17.913	3.6364	0.1	1329.4
6411	17.729	3.6364	0.1	1372.8
6412	17.544	3.6364	0.1	1416.4
6413	17.36	3.6364	0.1	1460.2
6414	17.176	3.6364	0.1	1504.3
6415	16.991	3.6364	0.1	1548.5
6416	16.807	3.6364	0.1	1592.9
6417	16.622	3.6364	0.1	1637.6
6418	16.438	3.6364	0.1	1682.4
6419	16.253	3.6364	0.1	1727.5
6420	16.069	3.6364	0.1	1772.7
6421	15.884	3.6364	0.1	1818.2
6422	15.7	3.6364	0.1	1863.9
6423	15.516	3.6364	0.1	1909.7
6424	15.331	3.6364	0.1	1955.8
6425	15.147	3.6364	0.1	2002.
6426	14.962	3.6364	0.1	2048.5
6427	14.778	3.6364	0.1	2095.1
6428	14.593	3.6364	0.1	2142.
6429	14.409	3.6364	0.1	2189.1
6430	14.224	3.6364	0.1	2236.3
6431	14.04	3.6364	0.1	2283.7
6432	13.856	3.6364	0.1	2331.4
6433	13.671	3.6364	0.1	2379.2
6434	13.487	3.6364	0.1	2427.3
6435	13.302	3.6364	0.1	2475.5
6436	13.118	3.6364	0.1	2523.9
6437	12.933	3.6364	0.1	2572.5
6438	12.749	3.6364	0.1	2621.3
6439	12.564	3.6364	0.1	2670.3
6440	12.38	3.6364	0.1	2719.5
6441	12.196	3.6364	0.1	2768.9
6442	12.011	3.6364	0.1	2818.4
6443	11.827	3.6364	0.1	2868.2
6444	11.642	3.6364	0.1	2918.1
6445	11.458	3.6364	0.1	2968.3
6446	11.273	3.6364	0.1	3018.6
6447	11.089	3.6364	0.1	3069.1
6448	10.904	3.6364	0.1	3119.7
6449	10.72	3.6364	0.1	3170.6
6450	10.536	3.6364	0.1	3221.6
6451	10.351	3.6364	0.1	3272.8
6452	10.167	3.6364	0.1	3324.2
6453	9.9822	3.6364	0.1	3375.8
6454	9.7978	3.6364	0.1	3427.5
6455	9.6133	3.6364	0.1	3479.4
6456	9.4289	3.6364	0.1	3531.5
6457	9.2444	3.6364	0.1	3583.8
6458	9.06	3.6364	0.1	3636.2
6459	8.8756	3.6364	0.1	3688.8
6460	8.6911	3.6364	0.1	3741.6
6461	8.5067	3.6364	0.1	3794.6
6462	8.3222	3.6364	0.1	3847.8
6463	8.1378	3.6364	0.1	3901.2
6464	7.9533	3.6364	0.1	3954.8
6465	7.7689	3.6364	0.1	4008.7
6466	7.5844	3.6364	0.1	4062.9
6467	7.4	3.6364	0.1	4117.3
6468	7.2156	3.6364	0.1	4172.2
6469	7.0311	3.6364	0.1	4227.5
6470	6.8467	3.6364	0.1	4283.4
6471	6.6622	3.6364	0.1	4340.
6472	6.4778	3.6364	0.1	4397.4
6473	6.2933	3.6364	0.1	4455.9
6474	6.1089	3.6364	0.1	4515.8
6475	5.9244	3.6364	0.1	4577.3
6476	5.74	3.6364	0.1	4641.1
6477	5.5556	3.6364	0.1	4707.6
6478	5.3711	3.6364	0.1	4777.7
6479	5.1867	3.6364	0.1	4852.3
6480	5.0022	3.6364	0.1	4932.7
6481	4.8178	3.6364	0.1	5020.6
6482	4.6333	3.6364	0.1	5118.
6483	4.4489	3.6364	0.1	5227.6
6484	4.2644	3.6364	0.1	5352.8
6485	4.08	3.6364	0.1	5498.2
6486	3.8956	3.6364	0.1	5669.5
6487	3.7111	3.6364	0.1	5874.4
6488	3.5267	3.6364	0.1	6123.1
6489	3.3422	3.6364	0.1	6429.6
6490	3.1578	3.6364	0.1	6813.3
6491	2.9733	3.6364	0.1	7303.
6492	2.7889	3.6364	0.1	7942.8
6493	2.6044	3.6364	0.1	8804.7
6494	2.42	3.6364	0.1	10016
6495	2.2356	3.6364	0.1	11796
6496	2.0511	3.6364	0.1	14340
6497	23.816	3.8182	0.1	39.862
6498	23.631	3.8182	0.1	78.699
6499	23.447	3.8182	0.1	117.54
6500	23.262	3.8182	0.1	156.21
6501	23.078	3.8182	0.1	194.79
6502	22.893	3.8182	0.1	233.31
6503	22.709	3.8182	0.1	271.82
6504	22.524	3.8182	0.1	310.36
6505	22.34	3.8182	0.1	348.98
6506	22.156	3.8182	0.1	387.7
6507	21.971	3.8182	0.1	426.54
6508	21.787	3.8182	0.1	465.53
6509	21.602	3.8182	0.1	504.68
6510	21.418	3.8182	0.1	544.01
6511	21.233	3.8182	0.1	583.52
6512	21.049	3.8182	0.1	623.22
6513	20.864	3.8182	0.1	663.12
6514	20.68	3.8182	0.1	703.22
6515	20.496	3.8182	0.1	743.52
6516	20.311	3.8182	0.1	784.03
6517	20.127	3.8182	0.1	824.74
6518	19.942	3.8182	0.1	865.67
6519	19.758	3.8182	0.1	906.8
6520	19.573	3.8182	0.1	948.14
6521	19.389	3.8182	0.1	989.69
6522	19.204	3.8182	0.1	1031.5
6523	19.02	3.8182	0.1	1073.4
6524	18.836	3.8182	0.1	1115.6
6525	18.651	3.8182	0.1	1158.
6526	18.467	3.8182	0.1	1200.6
6527	18.282	3.8182	0.1	1243.4
6528	18.098	3.8182	0.1	1286.4
6529	17.913	3.8182	0.1	1329.6
6530	17.729	3.8182	0.1	1373.
6531	17.544	3.8182	0.1	1416.7
6532	17.36	3.8182	0.1	1460.5
6533	17.176	3.8182	0.1	1504.6
6534	16.991	3.8182	0.1	1548.8
6535	16.807	3.8182	0.1	1593.2
6536	16.622	3.8182	0.1	1637.9
6537	16.438	3.8182	0.1	1682.8
6538	16.253	3.8182	0.1	1727.8
6539	16.069	3.8182	0.1	1773.1
6540	15.884	3.8182	0.1	1818.5
6541	15.7	3.8182	0.1	1864.2
6542	15.516	3.8182	0.1	1910.1
6543	15.331	3.8182	0.1	1956.1
6544	15.147	3.8182	0.1	2002.4
6545	14.962	3.8182	0.1	2048.8
6546	14.778	3.8182	0.1	2095.5
6547	14.593	3.8182	0.1	2142.3
6548	14.409	3.8182	0.1	2189.4
6549	14.224	3.8182	0.1	2236.7
6550	14.04	3.8182	0.1	2284.1
6551	13.856	3.8182	0.1	2331.8
6552	13.671	3.8182	0.1	2379.6
6553	13.487	3.8182	0.1	2427.6
6554	13.302	3.8182	0.1	2475.9
6555	13.118	3.8182	0.1	2524.3
6556	12.933	3.8182	0.1	2572.9
6557	12.749	3.8182	0.1	2621.7
6558	12.564	3.8182	0.1	2670.7
6559	12.38	3.8182	0.1	2719.9
6560	12.196	3.8182	0.1	2769.3
6561	12.011	3.8182	0.1	2818.9
6562	11.827	3.8182	0.1	2868.6
6563	11.642	3.8182	0.1	2918.6
6564	11.458	3.8182	0.1	2968.7
6565	11.273	3.8182	0.1	3019.1
6566	11.089	3.8182	0.1	3069.6
6567	10.904	3.8182	0.1	3120.3
6568	10.72	3.8182	0.1	3171.1
6569	10.536	3.8182	0.1	3222.2
6570	10.351	3.8182	0.1	3273.4
6571	10.167	3.8182	0.1	3324.8
6572	9.9822	3.8182	0.1	3376.4
6573	9.7978	3.8182	0.1	3428.2
6574	9.6133	3.8182	0.1	3480.2
6575	9.4289	3.8182	0.1	3532.3
6576	9.2444	3.8182	0.1	3584.6
6577	9.06	3.8182	0.1	3637.1
6578	8.8756	3.8182	0.1	3689.8
6579	8.6911	3.8182	0.1	3742.6
6580	8.5067	3.8182	0.1	3795.6
6581	8.3222	3.8182	0.1	3848.9
6582	8.1378	3.8182	0.1	3902.3
6583	7.9533	3.8182	0.1	3956.
6584	7.7689	3.8182	0.1	4009.9
6585	7.5844	3.8182	0.1	4064.1
6586	7.4	3.8182	0.1	4118.6
6587	7.2156	3.8182	0.1	4173.5
6588	7.0311	3.8182	0.1	4228.8
6589	6.8467	3.8182	0.1	4284.6
6590	6.6622	3.8182	0.1	4341.
6591	6.4778	3.8182	0.1	4398.2
6592	6.2933	3.8182	0.1	4456.4
6593	6.1089	3.8182	0.1	4515.7
6594	5.9244	3.8182	0.1	4576.5
6595	5.74	3.8182	0.1	4639.2
6596	5.5556	3.8182	0.1	4704.3
6597	5.3711	3.8182	0.1	4772.4
6598	5.1867	3.8182	0.1	4844.3
6599	5.0022	3.8182	0.1	4921.2
6600	4.8178	3.8182	0.1	5004.3
6601	4.6333	3.8182	0.1	5095.3
6602	4.4489	3.8182	0.1	5196.5
6603	4.2644	3.8182	0.1	5310.5
6604	4.08	3.8182	0.1	5441.2
6605	3.8956	3.8182	0.1	5593.1
6606	3.7111	3.8182	0.1	5772.6
6607	3.5267	3.8182	0.1	5988.2
6608	3.3422	3.8182	0.1	6251.7
6609	3.1578	3.8182	0.1	6580.2
6610	2.9733	3.8182	0.1	6999.8
6611	2.7889	3.8182	0.1	7553.4
6612	2.6044	3.8182	0.1	8316.8
6613	2.42	3.8182	0.1	9444.
6614	2.2356	3.8182	0.1	11337
6615	2.0511	3.8182	0.1	15023
6616	23.816	4.	0.1	39.896
6617	23.631	4.	0.1	78.609
6618	23.447	4.	0.1	117.33
6619	23.262	4.	0.1	155.9
6620	23.078	4.	0.1	194.38
6621	22.893	4.	0.1	232.83
6622	22.709	4.	0.1	271.29
6623	22.524	4.	0.1	309.81
6624	22.34	4.	0.1	348.42
6625	22.156	4.	0.1	387.15
6626	21.971	4.	0.1	426.02
6627	21.787	4.	0.1	465.05
6628	21.602	4.	0.1	504.25
6629	21.418	4.	0.1	543.63
6630	21.233	4.	0.1	583.2
6631	21.049	4.	0.1	622.96
6632	20.864	4.	0.1	662.91
6633	20.68	4.	0.1	703.06
6634	20.496	4.	0.1	743.42
6635	20.311	4.	0.1	783.97
6636	20.127	4.	0.1	824.74
6637	19.942	4.	0.1	865.7
6638	19.758	4.	0.1	906.88
6639	19.573	4.	0.1	948.26
6640	19.389	4.	0.1	989.84
6641	19.204	4.	0.1	1031.6
6642	19.02	4.	0.1	1073.6
6643	18.836	4.	0.1	1115.8
6644	18.651	4.	0.1	1158.2
6645	18.467	4.	0.1	1200.9
6646	18.282	4.	0.1	1243.7
6647	18.098	4.	0.1	1286.7
6648	17.913	4.	0.1	1330.
6649	17.729	4.	0.1	1373.4
6650	17.544	4.	0.1	1417.
6651	17.36	4.	0.1	1460.9
6652	17.176	4.	0.1	1504.9
6653	16.991	4.	0.1	1549.2
6654	16.807	4.	0.1	1593.6
6655	16.622	4.	0.1	1638.3
6656	16.438	4.	0.1	1683.2
6657	16.253	4.	0.1	1728.2
6658	16.069	4.	0.1	1773.5
6659	15.884	4.	0.1	1818.9
6660	15.7	4.	0.1	1864.6
6661	15.516	4.	0.1	1910.5
6662	15.331	4.	0.1	1956.5
6663	15.147	4.	0.1	2002.8
6664	14.962	4.	0.1	2049.3
6665	14.778	4.	0.1	2095.9
6666	14.593	4.	0.1	2142.8
6667	14.409	4.	0.1	2189.8
6668	14.224	4.	0.1	2237.1
6669	14.04	4.	0.1	2284.6
6670	13.856	4.	0.1	2332.2
6671	13.671	4.	0.1	2380.
6672	13.487	4.	0.1	2428.1
6673	13.302	4.	0.1	2476.3
6674	13.118	4.	0.1	2524.8
6675	12.933	4.	0.1	2573.4
6676	12.749	4.	0.1	2622.2
6677	12.564	4.	0.1	2671.2
6678	12.38	4.	0.1	2720.4
6679	12.196	4.	0.1	2769.8
6680	12.011	4.	0.1	2819.4
6681	11.827	4.	0.1	2869.2
6682	11.642	4.	0.1	2919.2
6683	11.458	4.	0.1	2969.3
6684	11.273	4.	0.1	3019.7
6685	11.089	4.	0.1	3070.2
6686	10.904	4.	0.1	3120.9
6687	10.72	4.	0.1	3171.8
6688	10.536	4.	0.1	3222.9
6689	10.351	4.	0.1	3274.2
6690	10.167	4.	0.1	3325.6
6691	9.9822	4.	0.1	3377.3
6692	9.7978	4.	0.1	3429.1
6693	9.6133	4.	0.1	3481.1
6694	9.4289	4.	0.1	3533.3
6695	9.2444	4.	0.1	3585.6
6696	9.06	4.	0.1	3638.2
6697	8.8756	4.	0.1	3690.9
6698	8.6911	4.	0.1	3743.8
6699	8.5067	4.	0.1	3796.9
6700	8.3222	4.	0.1	3850.2
6701	8.1378	4.	0.1	3903.7
6702	7.9533	4.	0.1	3957.5
6703	7.7689	4.	0.1	4011.4
6704	7.5844	4.	0.1	4065.7
6705	7.4	4.	0.1	4120.2
6706	7.2156	4.	0.1	4175.1
6707	7.0311	4.	0.1	4230.3
6708	6.8467	4.	0.1	4286.
6709	6.6622	4.	0.1	4342.3
6710	6.4778	4.	0.1	4399.2
6711	6.2933	4.	0.1	4456.9
6712	6.1089	4.	0.1	4515.5
6713	5.9244	4.	0.1	4575.4
6714	5.74	4.	0.1	4636.9
6715	5.5556	4.	0.1	4700.2
6716	5.3711	4.	0.1	4766.
6717	5.1867	4.	0.1	4834.8
6718	5.0022	4.	0.1	4907.4
6719	4.8178	4.	0.1	4984.8
6720	4.6333	4.	0.1	5068.3
6721	4.4489	4.	0.1	5159.6
6722	4.2644	4.	0.1	5260.6
6723	4.08	4.	0.1	5374.1
6724	3.8956	4.	0.1	5503.7
6725	3.7111	4.	0.1	5653.9
6726	3.5267	4.	0.1	5831.4
6727	3.3422	4.	0.1	6045.1
6728	3.1578	4.	0.1	6308.8
6729	2.9733	4.	0.1	6643.3
6730	2.7889	4.	0.1	7083.3
6731	2.6044	4.	0.1	7691.3
6732	2.42	4.	0.1	8602.8
6733	2.2356	4.	0.1	10076
6734	2.0511	4.	0.1	14616
6735	23.816	4.1818	0.1	39.93
6736	23.631	4.1818	0.1	78.485
6737	23.447	4.1818	0.1	117.06
6738	23.262	4.1818	0.1	155.5
6739	23.078	4.1818	0.1	193.87
6740	22.893	4.1818	0.1	232.23
6741	22.709	4.1818	0.1	270.64
6742	22.524	4.1818	0.1	309.14
6743	22.34	4.1818	0.1	347.75
6744	22.156	4.1818	0.1	386.51
6745	21.971	4.1818	0.1	425.42
6746	21.787	4.1818	0.1	464.51
6747	21.602	4.1818	0.1	503.77
6748	21.418	4.1818	0.1	543.21
6749	21.233	4.1818	0.1	582.85
6750	21.049	4.1818	0.1	622.67
6751	20.864	4.1818	0.1	662.69
6752	20.68	4.1818	0.1	702.91
6753	20.496	4.1818	0.1	743.33
6754	20.311	4.1818	0.1	783.94
6755	20.127	4.1818	0.1	824.76
6756	19.942	4.1818	0.1	865.78
6757	19.758	4.1818	0.1	907.
6758	19.573	4.1818	0.1	948.42
6759	19.389	4.1818	0.1	990.04
6760	19.204	4.1818	0.1	1031.9
6761	19.02	4.1818	0.1	1073.9
6762	18.836	4.1818	0.1	1116.1
6763	18.651	4.1818	0.1	1158.6
6764	18.467	4.1818	0.1	1201.2
6765	18.282	4.1818	0.1	1244.1
6766	18.098	4.1818	0.1	1287.1
6767	17.913	4.1818	0.1	1330.4
6768	17.729	4.1818	0.1	1373.8
6769	17.544	4.1818	0.1	1417.5
6770	17.36	4.1818	0.1	1461.3
6771	17.176	4.1818	0.1	1505.4
6772	16.991	4.1818	0.1	1549.6
6773	16.807	4.1818	0.1	1594.1
6774	16.622	4.1818	0.1	1638.8
6775	16.438	4.1818	0.1	1683.6
6776	16.253	4.1818	0.1	1728.7
6777	16.069	4.1818	0.1	1774.
6778	15.884	4.1818	0.1	1819.4
6779	15.7	4.1818	0.1	1865.1
6780	15.516	4.1818	0.1	1911.
6781	15.331	4.1818	0.1	1957.
6782	15.147	4.1818	0.1	2003.3
6783	14.962	4.1818	0.1	2049.8
6784	14.778	4.1818	0.1	2096.4
6785	14.593	4.1818	0.1	2143.3
6786	14.409	4.1818	0.1	2190.4
6787	14.224	4.1818	0.1	2237.6
6788	14.04	4.1818	0.1	2285.1
6789	13.856	4.1818	0.1	2332.7
6790	13.671	4.1818	0.1	2380.6
6791	13.487	4.1818	0.1	2428.6
6792	13.302	4.1818	0.1	2476.9
6793	13.118	4.1818	0.1	2525.3
6794	12.933	4.1818	0.1	2574.
6795	12.749	4.1818	0.1	2622.8
6796	12.564	4.1818	0.1	2671.8
6797	12.38	4.1818	0.1	2721.
6798	12.196	4.1818	0.1	2770.5
6799	12.011	4.1818	0.1	2820.1
6800	11.827	4.1818	0.1	2869.9
6801	11.642	4.1818	0.1	2919.8
6802	11.458	4.1818	0.1	2970.
6803	11.273	4.1818	0.1	3020.4
6804	11.089	4.1818	0.1	3071.
6805	10.904	4.1818	0.1	3121.7
6806	10.72	4.1818	0.1	3172.6
6807	10.536	4.1818	0.1	3223.8
6808	10.351	4.1818	0.1	3275.1
6809	10.167	4.1818	0.1	3326.6
6810	9.9822	4.1818	0.1	3378.2
6811	9.7978	4.1818	0.1	3430.1
6812	9.6133	4.1818	0.1	3482.2
6813	9.4289	4.1818	0.1	3534.4
6814	9.2444	4.1818	0.1	3586.8
6815	9.06	4.1818	0.1	3639.4
6816	8.8756	4.1818	0.1	3692.2
6817	8.6911	4.1818	0.1	3745.2
6818	8.5067	4.1818	0.1	3798.4
6819	8.3222	4.1818	0.1	3851.8
6820	8.1378	4.1818	0.1	3905.4
6821	7.9533	4.1818	0.1	3959.2
6822	7.7689	4.1818	0.1	4013.2
6823	7.5844	4.1818	0.1	4067.5
6824	7.4	4.1818	0.1	4122.
6825	7.2156	4.1818	0.1	4176.9
6826	7.0311	4.1818	0.1	4232.1
6827	6.8467	4.1818	0.1	4287.6
6828	6.6622	4.1818	0.1	4343.7
6829	6.4778	4.1818	0.1	4400.2
6830	6.2933	4.1818	0.1	4457.4
6831	6.1089	4.1818	0.1	4515.3
6832	5.9244	4.1818	0.1	4574.2
6833	5.74	4.1818	0.1	4634.2
6834	5.5556	4.1818	0.1	4695.5
6835	5.3711	4.1818	0.1	4758.6
6836	5.1867	4.1818	0.1	4823.8
6837	5.0022	4.1818	0.1	4891.6
6838	4.8178	4.1818	0.1	4962.7
6839	4.6333	4.1818	0.1	5037.8
6840	4.4489	4.1818	0.1	5118.
6841	4.2644	4.1818	0.1	5204.6
6842	4.08	4.1818	0.1	5299.2
6843	3.8956	4.1818	0.1	5404.2
6844	3.7111	4.1818	0.1	5522.5
6845	3.5267	4.1818	0.1	5658.3
6846	3.3422	4.1818	0.1	5817.8
6847	3.1578	4.1818	0.1	6010.2
6848	2.9733	4.1818	0.1	6249.7
6849	2.7889	4.1818	0.1	6558.9
6850	2.6044	4.1818	0.1	6975.8
6851	2.42	4.1818	0.1	7567.8
6852	2.2356	4.1818	0.1	8484.4
6853	2.0511	4.1818	0.1	10423
6854	23.816	4.3636	0.1	39.958
6855	23.631	4.3636	0.1	78.314
6856	23.447	4.3636	0.1	116.71
6857	23.262	4.3636	0.1	154.99
6858	23.078	4.3636	0.1	193.23
6859	22.893	4.3636	0.1	231.51
6860	22.709	4.3636	0.1	269.87
6861	22.524	4.3636	0.1	308.36
6862	22.34	4.3636	0.1	346.99
6863	22.156	4.3636	0.1	385.79
6864	21.971	4.3636	0.1	424.76
6865	21.787	4.3636	0.1	463.91
6866	21.602	4.3636	0.1	503.25
6867	21.418	4.3636	0.1	542.77
6868	21.233	4.3636	0.1	582.49
6869	21.049	4.3636	0.1	622.39
6870	20.864	4.3636	0.1	662.49
6871	20.68	4.3636	0.1	702.78
6872	20.496	4.3636	0.1	743.27
6873	20.311	4.3636	0.1	783.95
6874	20.127	4.3636	0.1	824.83
6875	19.942	4.3636	0.1	865.9
6876	19.758	4.3636	0.1	907.17
6877	19.573	4.3636	0.1	948.64
6878	19.389	4.3636	0.1	990.31
6879	19.204	4.3636	0.1	1032.2
6880	19.02	4.3636	0.1	1074.2
6881	18.836	4.3636	0.1	1116.5
6882	18.651	4.3636	0.1	1159.
6883	18.467	4.3636	0.1	1201.6
6884	18.282	4.3636	0.1	1244.5
6885	18.098	4.3636	0.1	1287.6
6886	17.913	4.3636	0.1	1330.8
6887	17.729	4.3636	0.1	1374.3
6888	17.544	4.3636	0.1	1418.
6889	17.36	4.3636	0.1	1461.8
6890	17.176	4.3636	0.1	1505.9
6891	16.991	4.3636	0.1	1550.2
6892	16.807	4.3636	0.1	1594.7
6893	16.622	4.3636	0.1	1639.3
6894	16.438	4.3636	0.1	1684.2
6895	16.253	4.3636	0.1	1729.3
6896	16.069	4.3636	0.1	1774.6
6897	15.884	4.3636	0.1	1820.
6898	15.7	4.3636	0.1	1865.7
6899	15.516	4.3636	0.1	1911.6
6900	15.331	4.3636	0.1	1957.6
6901	15.147	4.3636	0.1	2003.9
6902	14.962	4.3636	0.1	2050.4
6903	14.778	4.3636	0.1	2097.1
6904	14.593	4.3636	0.1	2143.9
6905	14.409	4.3636	0.1	2191.
6906	14.224	4.3636	0.1	2238.3
6907	14.04	4.3636	0.1	2285.7
6908	13.856	4.3636	0.1	2333.4
6909	13.671	4.3636	0.1	2381.2
6910	13.487	4.3636	0.1	2429.3
6911	13.302	4.3636	0.1	2477.5
6912	13.118	4.3636	0.1	2526.
6913	12.933	4.3636	0.1	2574.6
6914	12.749	4.3636	0.1	2623.5
6915	12.564	4.3636	0.1	2672.5
6916	12.38	4.3636	0.1	2721.8
6917	12.196	4.3636	0.1	2771.2
6918	12.011	4.3636	0.1	2820.8
6919	11.827	4.3636	0.1	2870.6
6920	11.642	4.3636	0.1	2920.6
6921	11.458	4.3636	0.1	2970.8
6922	11.273	4.3636	0.1	3021.2
6923	11.089	4.3636	0.1	3071.8
6924	10.904	4.3636	0.1	3122.6
6925	10.72	4.3636	0.1	3173.6
6926	10.536	4.3636	0.1	3224.7
6927	10.351	4.3636	0.1	3276.1
6928	10.167	4.3636	0.1	3327.6
6929	9.9822	4.3636	0.1	3379.4
6930	9.7978	4.3636	0.1	3431.3
6931	9.6133	4.3636	0.1	3483.4
6932	9.4289	4.3636	0.1	3535.7
6933	9.2444	4.3636	0.1	3588.2
6934	9.06	4.3636	0.1	3640.9
6935	8.8756	4.3636	0.1	3693.7
6936	8.6911	4.3636	0.1	3746.8
6937	8.5067	4.3636	0.1	3800.1
6938	8.3222	4.3636	0.1	3853.5
6939	8.1378	4.3636	0.1	3907.2
6940	7.9533	4.3636	0.1	3961.1
6941	7.7689	4.3636	0.1	4015.2
6942	7.5844	4.3636	0.1	4069.5
6943	7.4	4.3636	0.1	4124.1
6944	7.2156	4.3636	0.1	4178.9
6945	7.0311	4.3636	0.1	4234.
6946	6.8467	4.3636	0.1	4289.4
6947	6.6622	4.3636	0.1	4345.2
6948	6.4778	4.3636	0.1	4401.4
6949	6.2933	4.3636	0.1	4458.
6950	6.1089	4.3636	0.1	4515.1
6951	5.9244	4.3636	0.1	4572.8
6952	5.74	4.3636	0.1	4631.1
6953	5.5556	4.3636	0.1	4690.3
6954	5.3711	4.3636	0.1	4750.5
6955	5.1867	4.3636	0.1	4811.7
6956	5.0022	4.3636	0.1	4874.3
6957	4.8178	4.3636	0.1	4938.5
6958	4.6333	4.3636	0.1	5004.6
6959	4.4489	4.3636	0.1	5073.1
6960	4.2644	4.3636	0.1	5144.3
6961	4.08	4.3636	0.1	5219.
6962	3.8956	4.3636	0.1	5298.
6963	3.7111	4.3636	0.1	5382.7
6964	3.5267	4.3636	0.1	5475.
6965	3.3422	4.3636	0.1	5577.9
6966	3.1578	4.3636	0.1	5695.9
6967	2.9733	4.3636	0.1	5836.1
6968	2.7889	4.3636	0.1	6009.
6969	2.6044	4.3636	0.1	6228.7
6970	2.42	4.3636	0.1	6505.
6971	2.2356	4.3636	0.1	6824.1
6972	2.0511	4.3636	0.1	7186.4
6973	23.816	4.5455	0.1	39.972
6974	23.631	4.5455	0.1	78.08
6975	23.447	4.5455	0.1	116.25
6976	23.262	4.5455	0.1	154.35
6977	23.078	4.5455	0.1	192.46
6978	22.893	4.5455	0.1	230.65
6979	22.709	4.5455	0.1	268.98
6980	22.524	4.5455	0.1	307.47
6981	22.34	4.5455	0.1	346.15
6982	22.156	4.5455	0.1	385.
6983	21.971	4.5455	0.1	424.05
6984	21.787	4.5455	0.1	463.29
6985	21.602	4.5455	0.1	502.72
6986	21.418	4.5455	0.1	542.34
6987	21.233	4.5455	0.1	582.15
6988	21.049	4.5455	0.1	622.15
6989	20.864	4.5455	0.1	662.33
6990	20.68	4.5455	0.1	702.71
6991	20.496	4.5455	0.1	743.27
6992	20.311	4.5455	0.1	784.02
6993	20.127	4.5455	0.1	824.97
6994	19.942	4.5455	0.1	866.1
6995	19.758	4.5455	0.1	907.43
6996	19.573	4.5455	0.1	948.95
6997	19.389	4.5455	0.1	990.66
6998	19.204	4.5455	0.1	1032.6
6999	19.02	4.5455	0.1	1074.7
7000	18.836	4.5455	0.1	1117.
7001	18.651	4.5455	0.1	1159.5
7002	18.467	4.5455	0.1	1202.2
7003	18.282	4.5455	0.1	1245.
7004	18.098	4.5455	0.1	1288.1
7005	17.913	4.5455	0.1	1331.4
7006	17.729	4.5455	0.1	1374.9
7007	17.544	4.5455	0.1	1418.6
7008	17.36	4.5455	0.1	1462.5
7009	17.176	4.5455	0.1	1506.5
7010	16.991	4.5455	0.1	1550.8
7011	16.807	4.5455	0.1	1595.3
7012	16.622	4.5455	0.1	1640.
7013	16.438	4.5455	0.1	1684.9
7014	16.253	4.5455	0.1	1729.9
7015	16.069	4.5455	0.1	1775.2
7016	15.884	4.5455	0.1	1820.7
7017	15.7	4.5455	0.1	1866.4
7018	15.516	4.5455	0.1	1912.3
7019	15.331	4.5455	0.1	1958.3
7020	15.147	4.5455	0.1	2004.6
7021	14.962	4.5455	0.1	2051.1
7022	14.778	4.5455	0.1	2097.8
7023	14.593	4.5455	0.1	2144.6
7024	14.409	4.5455	0.1	2191.7
7025	14.224	4.5455	0.1	2239.
7026	14.04	4.5455	0.1	2286.4
7027	13.856	4.5455	0.1	2334.1
7028	13.671	4.5455	0.1	2382.
7029	13.487	4.5455	0.1	2430.
7030	13.302	4.5455	0.1	2478.3
7031	13.118	4.5455	0.1	2526.8
7032	12.933	4.5455	0.1	2575.4
7033	12.749	4.5455	0.1	2624.3
7034	12.564	4.5455	0.1	2673.3
7035	12.38	4.5455	0.1	2722.6
7036	12.196	4.5455	0.1	2772.
7037	12.011	4.5455	0.1	2821.7
7038	11.827	4.5455	0.1	2871.5
7039	11.642	4.5455	0.1	2921.5
7040	11.458	4.5455	0.1	2971.8
7041	11.273	4.5455	0.1	3022.2
7042	11.089	4.5455	0.1	3072.8
7043	10.904	4.5455	0.1	3123.6
7044	10.72	4.5455	0.1	3174.6
7045	10.536	4.5455	0.1	3225.8
7046	10.351	4.5455	0.1	3277.2
7047	10.167	4.5455	0.1	3328.8
7048	9.9822	4.5455	0.1	3380.6
7049	9.7978	4.5455	0.1	3432.6
7050	9.6133	4.5455	0.1	3484.8
7051	9.4289	4.5455	0.1	3537.1
7052	9.2444	4.5455	0.1	3589.7
7053	9.06	4.5455	0.1	3642.5
7054	8.8756	4.5455	0.1	3695.4
7055	8.6911	4.5455	0.1	3748.6
7056	8.5067	4.5455	0.1	3801.9
7057	8.3222	4.5455	0.1	3855.5
7058	8.1378	4.5455	0.1	3909.2
7059	7.9533	4.5455	0.1	3963.2
7060	7.7689	4.5455	0.1	4017.3
7061	7.5844	4.5455	0.1	4071.7
7062	7.4	4.5455	0.1	4126.3
7063	7.2156	4.5455	0.1	4181.1
7064	7.0311	4.5455	0.1	4236.1
7065	6.8467	4.5455	0.1	4291.4
7066	6.6622	4.5455	0.1	4346.9
7067	6.4778	4.5455	0.1	4402.6
7068	6.2933	4.5455	0.1	4458.6
7069	6.1089	4.5455	0.1	4514.8
7070	5.9244	4.5455	0.1	4571.2
7071	5.74	4.5455	0.1	4627.9
7072	5.5556	4.5455	0.1	4684.8
7073	5.3711	4.5455	0.1	4741.8
7074	5.1867	4.5455	0.1	4798.9
7075	5.0022	4.5455	0.1	4856.1
7076	4.8178	4.5455	0.1	4913.2
7077	4.6333	4.5455	0.1	4969.9
7078	4.4489	4.5455	0.1	5026.2
7079	4.2644	4.5455	0.1	5081.6
7080	4.08	4.5455	0.1	5135.9
7081	3.8956	4.5455	0.1	5188.6
7082	3.7111	4.5455	0.1	5239.3
7083	3.5267	4.5455	0.1	5287.7
7084	3.3422	4.5455	0.1	5333.8
7085	3.1578	4.5455	0.1	5377.9
7086	2.9733	4.5455	0.1	5420.9
7087	2.7889	4.5455	0.1	5464.
7088	2.6044	4.5455	0.1	5505.
7089	2.42	4.5455	0.1	5535.7
7090	2.2356	4.5455	0.1	5504.5
7091	2.0511	4.5455	0.1	5555.9
7092	23.816	4.7273	0.1	39.959
7093	23.631	4.7273	0.1	77.757
7094	23.447	4.7273	0.1	115.67
7095	23.262	4.7273	0.1	153.55
7096	23.078	4.7273	0.1	191.53
7097	22.893	4.7273	0.1	229.66
7098	22.709	4.7273	0.1	267.98
7099	22.524	4.7273	0.1	306.51
7100	22.34	4.7273	0.1	345.25
7101	22.156	4.7273	0.1	384.2
7102	21.971	4.7273	0.1	423.35
7103	21.787	4.7273	0.1	462.69
7104	21.602	4.7273	0.1	502.23
7105	21.418	4.7273	0.1	541.96
7106	21.233	4.7273	0.1	581.88
7107	21.049	4.7273	0.1	621.97
7108	20.864	4.7273	0.1	662.25
7109	20.68	4.7273	0.1	702.71
7110	20.496	4.7273	0.1	743.36
7111	20.311	4.7273	0.1	784.18
7112	20.127	4.7273	0.1	825.2
7113	19.942	4.7273	0.1	866.39
7114	19.758	4.7273	0.1	907.77
7115	19.573	4.7273	0.1	949.35
7116	19.389	4.7273	0.1	991.1
7117	19.204	4.7273	0.1	1033.1
7118	19.02	4.7273	0.1	1075.2
7119	18.836	4.7273	0.1	1117.5
7120	18.651	4.7273	0.1	1160.1
7121	18.467	4.7273	0.1	1202.8
7122	18.282	4.7273	0.1	1245.7
7123	18.098	4.7273	0.1	1288.8
7124	17.913	4.7273	0.1	1332.1
7125	17.729	4.7273	0.1	1375.6
7126	17.544	4.7273	0.1	1419.3
7127	17.36	4.7273	0.1	1463.2
7128	17.176	4.7273	0.1	1507.3
7129	16.991	4.7273	0.1	1551.6
7130	16.807	4.7273	0.1	1596.1
7131	16.622	4.7273	0.1	1640.7
7132	16.438	4.7273	0.1	1685.6
7133	16.253	4.7273	0.1	1730.7
7134	16.069	4.7273	0.1	1776.
7135	15.884	4.7273	0.1	1821.5
7136	15.7	4.7273	0.1	1867.1
7137	15.516	4.7273	0.1	1913.
7138	15.331	4.7273	0.1	1959.1
7139	15.147	4.7273	0.1	2005.4
7140	14.962	4.7273	0.1	2051.9
7141	14.778	4.7273	0.1	2098.5
7142	14.593	4.7273	0.1	2145.4
7143	14.409	4.7273	0.1	2192.5
7144	14.224	4.7273	0.1	2239.8
7145	14.04	4.7273	0.1	2287.2
7146	13.856	4.7273	0.1	2334.9
7147	13.671	4.7273	0.1	2382.8
7148	13.487	4.7273	0.1	2430.9
7149	13.302	4.7273	0.1	2479.1
7150	13.118	4.7273	0.1	2527.6
7151	12.933	4.7273	0.1	2576.3
7152	12.749	4.7273	0.1	2625.1
7153	12.564	4.7273	0.1	2674.2
7154	12.38	4.7273	0.1	2723.5
7155	12.196	4.7273	0.1	2772.9
7156	12.011	4.7273	0.1	2822.6
7157	11.827	4.7273	0.1	2872.5
7158	11.642	4.7273	0.1	2922.5
7159	11.458	4.7273	0.1	2972.8
7160	11.273	4.7273	0.1	3023.2
7161	11.089	4.7273	0.1	3073.9
7162	10.904	4.7273	0.1	3124.8
7163	10.72	4.7273	0.1	3175.8
7164	10.536	4.7273	0.1	3227.1
7165	10.351	4.7273	0.1	3278.5
7166	10.167	4.7273	0.1	3330.2
7167	9.9822	4.7273	0.1	3382.
7168	9.7978	4.7273	0.1	3434.
7169	9.6133	4.7273	0.1	3486.3
7170	9.4289	4.7273	0.1	3538.7
7171	9.2444	4.7273	0.1	3591.4
7172	9.06	4.7273	0.1	3644.2
7173	8.8756	4.7273	0.1	3697.3
7174	8.6911	4.7273	0.1	3750.5
7175	8.5067	4.7273	0.1	3803.9
7176	8.3222	4.7273	0.1	3857.6
7177	8.1378	4.7273	0.1	3911.4
7178	7.9533	4.7273	0.1	3965.5
7179	7.7689	4.7273	0.1	4019.7
7180	7.5844	4.7273	0.1	4074.1
7181	7.4	4.7273	0.1	4128.7
7182	7.2156	4.7273	0.1	4183.5
7183	7.0311	4.7273	0.1	4238.4
7184	6.8467	4.7273	0.1	4293.5
7185	6.6622	4.7273	0.1	4348.7
7186	6.4778	4.7273	0.1	4403.9
7187	6.2933	4.7273	0.1	4459.2
7188	6.1089	4.7273	0.1	4514.5
7189	5.9244	4.7273	0.1	4569.7
7190	5.74	4.7273	0.1	4624.6
7191	5.5556	4.7273	0.1	4679.
7192	5.3711	4.7273	0.1	4732.9
7193	5.1867	4.7273	0.1	4785.8
7194	5.0022	4.7273	0.1	4837.5
7195	4.8178	4.7273	0.1	4887.3
7196	4.6333	4.7273	0.1	4934.7
7197	4.4489	4.7273	0.1	4978.8
7198	4.2644	4.7273	0.1	5018.6
7199	4.08	4.7273	0.1	5052.7
7200	3.8956	4.7273	0.1	5079.5
7201	3.7111	4.7273	0.1	5097.1
7202	3.5267	4.7273	0.1	5103.
7203	3.3422	4.7273	0.1	5094.6
7204	3.1578	4.7273	0.1	5068.8
7205	2.9733	4.7273	0.1	5022.3
7206	2.7889	4.7273	0.1	4951.
7207	2.6044	4.7273	0.1	4849.2
7208	2.42	4.7273	0.1	4707.6
7209	2.2356	4.7273	0.1	4516.
7210	2.0511	4.7273	0.1	4428.6
7211	23.816	4.9091	0.1	39.9
7212	23.631	4.9091	0.1	77.308
7213	23.447	4.9091	0.1	114.9
7214	23.262	4.9091	0.1	152.57
7215	23.078	4.9091	0.1	190.43
7216	22.893	4.9091	0.1	228.53
7217	22.709	4.9091	0.1	266.89
7218	22.524	4.9091	0.1	305.5
7219	22.34	4.9091	0.1	344.34
7220	22.156	4.9091	0.1	383.41
7221	21.971	4.9091	0.1	422.69
7222	21.787	4.9091	0.1	462.16
7223	21.602	4.9091	0.1	501.83
7224	21.418	4.9091	0.1	541.67
7225	21.233	4.9091	0.1	581.7
7226	21.049	4.9091	0.1	621.9
7227	20.864	4.9091	0.1	662.28
7228	20.68	4.9091	0.1	702.83
7229	20.496	4.9091	0.1	743.56
7230	20.311	4.9091	0.1	784.46
7231	20.127	4.9091	0.1	825.54
7232	19.942	4.9091	0.1	866.8
7233	19.758	4.9091	0.1	908.24
7234	19.573	4.9091	0.1	949.86
7235	19.389	4.9091	0.1	991.67
7236	19.204	4.9091	0.1	1033.7
7237	19.02	4.9091	0.1	1075.8
7238	18.836	4.9091	0.1	1118.2
7239	18.651	4.9091	0.1	1160.7
7240	18.467	4.9091	0.1	1203.5
7241	18.282	4.9091	0.1	1246.4
7242	18.098	4.9091	0.1	1289.6
7243	17.913	4.9091	0.1	1332.9
7244	17.729	4.9091	0.1	1376.4
7245	17.544	4.9091	0.1	1420.1
7246	17.36	4.9091	0.1	1464.
7247	17.176	4.9091	0.1	1508.1
7248	16.991	4.9091	0.1	1552.4
7249	16.807	4.9091	0.1	1596.9
7250	16.622	4.9091	0.1	1641.6
7251	16.438	4.9091	0.1	1686.5
7252	16.253	4.9091	0.1	1731.6
7253	16.069	4.9091	0.1	1776.8
7254	15.884	4.9091	0.1	1822.3
7255	15.7	4.9091	0.1	1868.
7256	15.516	4.9091	0.1	1913.9
7257	15.331	4.9091	0.1	1960.
7258	15.147	4.9091	0.1	2006.3
7259	14.962	4.9091	0.1	2052.7
7260	14.778	4.9091	0.1	2099.4
7261	14.593	4.9091	0.1	2146.3
7262	14.409	4.9091	0.1	2193.4
7263	14.224	4.9091	0.1	2240.7
7264	14.04	4.9091	0.1	2288.1
7265	13.856	4.9091	0.1	2335.8
7266	13.671	4.9091	0.1	2383.7
7267	13.487	4.9091	0.1	2431.8
7268	13.302	4.9091	0.1	2480.1
7269	13.118	4.9091	0.1	2528.5
7270	12.933	4.9091	0.1	2577.2
7271	12.749	4.9091	0.1	2626.1
7272	12.564	4.9091	0.1	2675.2
7273	12.38	4.9091	0.1	2724.5
7274	12.196	4.9091	0.1	2774.
7275	12.011	4.9091	0.1	2823.6
7276	11.827	4.9091	0.1	2873.5
7277	11.642	4.9091	0.1	2923.6
7278	11.458	4.9091	0.1	2973.9
7279	11.273	4.9091	0.1	3024.4
7280	11.089	4.9091	0.1	3075.1
7281	10.904	4.9091	0.1	3126.
7282	10.72	4.9091	0.1	3177.1
7283	10.536	4.9091	0.1	3228.4
7284	10.351	4.9091	0.1	3279.9
7285	10.167	4.9091	0.1	3331.6
7286	9.9822	4.9091	0.1	3383.5
7287	9.7978	4.9091	0.1	3435.6
7288	9.6133	4.9091	0.1	3487.9
7289	9.4289	4.9091	0.1	3540.5
7290	9.2444	4.9091	0.1	3593.2
7291	9.06	4.9091	0.1	3646.1
7292	8.8756	4.9091	0.1	3699.2
7293	8.6911	4.9091	0.1	3752.6
7294	8.5067	4.9091	0.1	3806.1
7295	8.3222	4.9091	0.1	3859.8
7296	8.1378	4.9091	0.1	3913.8
7297	7.9533	4.9091	0.1	3967.9
7298	7.7689	4.9091	0.1	4022.2
7299	7.5844	4.9091	0.1	4076.6
7300	7.4	4.9091	0.1	4131.2
7301	7.2156	4.9091	0.1	4186.
7302	7.0311	4.9091	0.1	4240.8
7303	6.8467	4.9091	0.1	4295.7
7304	6.6622	4.9091	0.1	4350.6
7305	6.4778	4.9091	0.1	4405.4
7306	6.2933	4.9091	0.1	4460.
7307	6.1089	4.9091	0.1	4514.3
7308	5.9244	4.9091	0.1	4568.1
7309	5.74	4.9091	0.1	4621.3
7310	5.5556	4.9091	0.1	4673.4
7311	5.3711	4.9091	0.1	4724.1
7312	5.1867	4.9091	0.1	4772.9
7313	5.0022	4.9091	0.1	4819.1
7314	4.8178	4.9091	0.1	4861.9
7315	4.6333	4.9091	0.1	4900.2
7316	4.4489	4.9091	0.1	4932.6
7317	4.2644	4.9091	0.1	4957.3
7318	4.08	4.9091	0.1	4972.2
7319	3.8956	4.9091	0.1	4974.5
7320	3.7111	4.9091	0.1	4960.9
7321	3.5267	4.9091	0.1	4927.3
7322	3.3422	4.9091	0.1	4869.
7323	3.1578	4.9091	0.1	4780.6
7324	2.9733	4.9091	0.1	4656.1
7325	2.7889	4.9091	0.1	4490.1
7326	2.6044	4.9091	0.1	4279.3
7327	2.42	4.9091	0.1	4025.6
7328	2.2356	4.9091	0.1	3744.5
7329	2.0511	4.9091	0.1	3600.5
7330	23.816	5.0909	0.1	39.762
7331	23.631	5.0909	0.1	76.68
7332	23.447	5.0909	0.1	113.92
7333	23.262	5.0909	0.1	151.39
7334	23.078	5.0909	0.1	189.19
7335	22.893	5.0909	0.1	227.32
7336	22.709	5.0909	0.1	265.78
7337	22.524	5.0909	0.1	304.51
7338	22.34	5.0909	0.1	343.51
7339	22.156	5.0909	0.1	382.72
7340	21.971	5.0909	0.1	422.15
7341	21.787	5.0909	0.1	461.77
7342	21.602	5.0909	0.1	501.56
7343	21.418	5.0909	0.1	541.54
7344	21.233	5.0909	0.1	581.68
7345	21.049	5.0909	0.1	621.99
7346	20.864	5.0909	0.1	662.46
7347	20.68	5.0909	0.1	703.1
7348	20.496	5.0909	0.1	743.91
7349	20.311	5.0909	0.1	784.89
7350	20.127	5.0909	0.1	826.03
7351	19.942	5.0909	0.1	867.35
7352	19.758	5.0909	0.1	908.85
7353	19.573	5.0909	0.1	950.51
7354	19.389	5.0909	0.1	992.36
7355	19.204	5.0909	0.1	1034.4
7356	19.02	5.0909	0.1	1076.6
7357	18.836	5.0909	0.1	1119.
7358	18.651	5.0909	0.1	1161.6
7359	18.467	5.0909	0.1	1204.3
7360	18.282	5.0909	0.1	1247.3
7361	18.098	5.0909	0.1	1290.4
7362	17.913	5.0909	0.1	1333.8
7363	17.729	5.0909	0.1	1377.3
7364	17.544	5.0909	0.1	1421.
7365	17.36	5.0909	0.1	1464.9
7366	17.176	5.0909	0.1	1509.
7367	16.991	5.0909	0.1	1553.3
7368	16.807	5.0909	0.1	1597.8
7369	16.622	5.0909	0.1	1642.5
7370	16.438	5.0909	0.1	1687.4
7371	16.253	5.0909	0.1	1732.5
7372	16.069	5.0909	0.1	1777.8
7373	15.884	5.0909	0.1	1823.3
7374	15.7	5.0909	0.1	1869.
7375	15.516	5.0909	0.1	1914.9
7376	15.331	5.0909	0.1	1961.
7377	15.147	5.0909	0.1	2007.2
7378	14.962	5.0909	0.1	2053.7
7379	14.778	5.0909	0.1	2100.4
7380	14.593	5.0909	0.1	2147.3
7381	14.409	5.0909	0.1	2194.4
7382	14.224	5.0909	0.1	2241.7
7383	14.04	5.0909	0.1	2289.1
7384	13.856	5.0909	0.1	2336.8
7385	13.671	5.0909	0.1	2384.7
7386	13.487	5.0909	0.1	2432.8
7387	13.302	5.0909	0.1	2481.1
7388	13.118	5.0909	0.1	2529.6
7389	12.933	5.0909	0.1	2578.3
7390	12.749	5.0909	0.1	2627.2
7391	12.564	5.0909	0.1	2676.3
7392	12.38	5.0909	0.1	2725.6
7393	12.196	5.0909	0.1	2775.1
7394	12.011	5.0909	0.1	2824.8
7395	11.827	5.0909	0.1	2874.7
7396	11.642	5.0909	0.1	2924.8
7397	11.458	5.0909	0.1	2975.1
7398	11.273	5.0909	0.1	3025.7
7399	11.089	5.0909	0.1	3076.4
7400	10.904	5.0909	0.1	3127.3
7401	10.72	5.0909	0.1	3178.5
7402	10.536	5.0909	0.1	3229.8
7403	10.351	5.0909	0.1	3281.4
7404	10.167	5.0909	0.1	3333.2
7405	9.9822	5.0909	0.1	3385.1
7406	9.7978	5.0909	0.1	3437.3
7407	9.6133	5.0909	0.1	3489.7
7408	9.4289	5.0909	0.1	3542.3
7409	9.2444	5.0909	0.1	3595.1
7410	9.06	5.0909	0.1	3648.1
7411	8.8756	5.0909	0.1	3701.4
7412	8.6911	5.0909	0.1	3754.8
7413	8.5067	5.0909	0.1	3808.4
7414	8.3222	5.0909	0.1	3862.2
7415	8.1378	5.0909	0.1	3916.3
7416	7.9533	5.0909	0.1	3970.4
7417	7.7689	5.0909	0.1	4024.8
7418	7.5844	5.0909	0.1	4079.3
7419	7.4	5.0909	0.1	4133.9
7420	7.2156	5.0909	0.1	4188.6
7421	7.0311	5.0909	0.1	4243.3
7422	6.8467	5.0909	0.1	4298.
7423	6.6622	5.0909	0.1	4352.6
7424	6.4778	5.0909	0.1	4406.9
7425	6.2933	5.0909	0.1	4460.9
7426	6.1089	5.0909	0.1	4514.3
7427	5.9244	5.0909	0.1	4566.8
7428	5.74	5.0909	0.1	4618.2
7429	5.5556	5.0909	0.1	4668.
7430	5.3711	5.0909	0.1	4715.7
7431	5.1867	5.0909	0.1	4760.5
7432	5.0022	5.0909	0.1	4801.6
7433	4.8178	5.0909	0.1	4837.7
7434	4.6333	5.0909	0.1	4867.5
7435	4.4489	5.0909	0.1	4888.9
7436	4.2644	5.0909	0.1	4899.8
7437	4.08	5.0909	0.1	4897.
7438	3.8956	5.0909	0.1	4877.
7439	3.7111	5.0909	0.1	4835.4
7440	3.5267	5.0909	0.1	4766.7
7441	3.3422	5.0909	0.1	4664.9
7442	3.1578	5.0909	0.1	4522.8
7443	2.9733	5.0909	0.1	4333.7
7444	2.7889	5.0909	0.1	4092.1
7445	2.6044	5.0909	0.1	3798.2
7446	2.42	5.0909	0.1	3464.4
7447	2.2356	5.0909	0.1	3124.4
7448	2.0511	5.0909	0.1	2934.9
7449	23.816	5.2727	0.1	39.491
7450	23.631	5.2727	0.1	75.795
7451	23.447	5.2727	0.1	112.68
7452	23.262	5.2727	0.1	150.02
7453	23.078	5.2727	0.1	187.86
7454	22.893	5.2727	0.1	226.12
7455	22.709	5.2727	0.1	264.74
7456	22.524	5.2727	0.1	303.66
7457	22.34	5.2727	0.1	342.84
7458	22.156	5.2727	0.1	382.23
7459	21.971	5.2727	0.1	421.81
7460	21.787	5.2727	0.1	461.58
7461	21.602	5.2727	0.1	501.51
7462	21.418	5.2727	0.1	541.61
7463	21.233	5.2727	0.1	581.87
7464	21.049	5.2727	0.1	622.28
7465	20.864	5.2727	0.1	662.84
7466	20.68	5.2727	0.1	703.57
7467	20.496	5.2727	0.1	744.45
7468	20.311	5.2727	0.1	785.5
7469	20.127	5.2727	0.1	826.7
7470	19.942	5.2727	0.1	868.08
7471	19.758	5.2727	0.1	909.62
7472	19.573	5.2727	0.1	951.33
7473	19.389	5.2727	0.1	993.22
7474	19.204	5.2727	0.1	1035.3
7475	19.02	5.2727	0.1	1077.5
7476	18.836	5.2727	0.1	1119.9
7477	18.651	5.2727	0.1	1162.5
7478	18.467	5.2727	0.1	1205.3
7479	18.282	5.2727	0.1	1248.3
7480	18.098	5.2727	0.1	1291.5
7481	17.913	5.2727	0.1	1334.8
7482	17.729	5.2727	0.1	1378.3
7483	17.544	5.2727	0.1	1422.1
7484	17.36	5.2727	0.1	1466.
7485	17.176	5.2727	0.1	1510.1
7486	16.991	5.2727	0.1	1554.4
7487	16.807	5.2727	0.1	1598.9
7488	16.622	5.2727	0.1	1643.6
7489	16.438	5.2727	0.1	1688.5
7490	16.253	5.2727	0.1	1733.6
7491	16.069	5.2727	0.1	1778.9
7492	15.884	5.2727	0.1	1824.4
7493	15.7	5.2727	0.1	1870.1
7494	15.516	5.2727	0.1	1915.9
7495	15.331	5.2727	0.1	1962.
7496	15.147	5.2727	0.1	2008.3
7497	14.962	5.2727	0.1	2054.8
7498	14.778	5.2727	0.1	2101.5
7499	14.593	5.2727	0.1	2148.4
7500	14.409	5.2727	0.1	2195.4
7501	14.224	5.2727	0.1	2242.7
7502	14.04	5.2727	0.1	2290.2
7503	13.856	5.2727	0.1	2337.9
7504	13.671	5.2727	0.1	2385.8
7505	13.487	5.2727	0.1	2433.9
7506	13.302	5.2727	0.1	2482.2
7507	13.118	5.2727	0.1	2530.7
7508	12.933	5.2727	0.1	2579.4
7509	12.749	5.2727	0.1	2628.3
7510	12.564	5.2727	0.1	2677.4
7511	12.38	5.2727	0.1	2726.8
7512	12.196	5.2727	0.1	2776.3
7513	12.011	5.2727	0.1	2826.
7514	11.827	5.2727	0.1	2876.
7515	11.642	5.2727	0.1	2926.1
7516	11.458	5.2727	0.1	2976.5
7517	11.273	5.2727	0.1	3027.
7518	11.089	5.2727	0.1	3077.8
7519	10.904	5.2727	0.1	3128.8
7520	10.72	5.2727	0.1	3180.
7521	10.536	5.2727	0.1	3231.4
7522	10.351	5.2727	0.1	3283.
7523	10.167	5.2727	0.1	3334.8
7524	9.9822	5.2727	0.1	3386.9
7525	9.7978	5.2727	0.1	3439.1
7526	9.6133	5.2727	0.1	3491.6
7527	9.4289	5.2727	0.1	3544.3
7528	9.2444	5.2727	0.1	3597.2
7529	9.06	5.2727	0.1	3650.3
7530	8.8756	5.2727	0.1	3703.6
7531	8.6911	5.2727	0.1	3757.1
7532	8.5067	5.2727	0.1	3810.8
7533	8.3222	5.2727	0.1	3864.8
7534	8.1378	5.2727	0.1	3918.9
7535	7.9533	5.2727	0.1	3973.1
7536	7.7689	5.2727	0.1	4027.6
7537	7.5844	5.2727	0.1	4082.1
7538	7.4	5.2727	0.1	4136.7
7539	7.2156	5.2727	0.1	4191.4
7540	7.0311	5.2727	0.1	4246.
7541	6.8467	5.2727	0.1	4300.5
7542	6.6622	5.2727	0.1	4354.8
7543	6.4778	5.2727	0.1	4408.7
7544	6.2933	5.2727	0.1	4462.
7545	6.1089	5.2727	0.1	4514.5
7546	5.9244	5.2727	0.1	4565.9
7547	5.74	5.2727	0.1	4615.6
7548	5.5556	5.2727	0.1	4663.3
7549	5.3711	5.2727	0.1	4708.2
7550	5.1867	5.2727	0.1	4749.3
7551	5.0022	5.2727	0.1	4785.7
7552	4.8178	5.2727	0.1	4815.8
7553	4.6333	5.2727	0.1	4837.8
7554	4.4489	5.2727	0.1	4849.4
7555	4.2644	5.2727	0.1	4847.8
7556	4.08	5.2727	0.1	4829.5
7557	3.8956	5.2727	0.1	4790.1
7558	3.7111	5.2727	0.1	4724.4
7559	3.5267	5.2727	0.1	4626.1
7560	3.3422	5.2727	0.1	4488.1
7561	3.1578	5.2727	0.1	4302.6
7562	2.9733	5.2727	0.1	4062.2
7563	2.7889	5.2727	0.1	3761.8
7564	2.6044	5.2727	0.1	3403.5
7565	2.42	5.2727	0.1	3004.6
7566	2.2356	5.2727	0.1	2610.
7567	2.0511	5.2727	0.1	2371.5
7568	23.816	5.4545	0.1	38.97
7569	23.631	5.4545	0.1	74.545
7570	23.447	5.4545	0.1	111.17
7571	23.262	5.4545	0.1	148.57
7572	23.078	5.4545	0.1	186.61
7573	22.893	5.4545	0.1	225.11
7574	22.709	5.4545	0.1	263.97
7575	22.524	5.4545	0.1	303.11
7576	22.34	5.4545	0.1	342.49
7577	22.156	5.4545	0.1	382.06
7578	21.971	5.4545	0.1	421.8
7579	21.787	5.4545	0.1	461.71
7580	21.602	5.4545	0.1	501.77
7581	21.418	5.4545	0.1	541.98
7582	21.233	5.4545	0.1	582.34
7583	21.049	5.4545	0.1	622.84
7584	20.864	5.4545	0.1	663.49
7585	20.68	5.4545	0.1	704.28
7586	20.496	5.4545	0.1	745.23
7587	20.311	5.4545	0.1	786.33
7588	20.127	5.4545	0.1	827.59
7589	19.942	5.4545	0.1	869.01
7590	19.758	5.4545	0.1	910.59
7591	19.573	5.4545	0.1	952.34
7592	19.389	5.4545	0.1	994.25
7593	19.204	5.4545	0.1	1036.3
7594	19.02	5.4545	0.1	1078.6
7595	18.836	5.4545	0.1	1121.
7596	18.651	5.4545	0.1	1163.7
7597	18.467	5.4545	0.1	1206.5
7598	18.282	5.4545	0.1	1249.4
7599	18.098	5.4545	0.1	1292.6
7600	17.913	5.4545	0.1	1336.
7601	17.729	5.4545	0.1	1379.5
7602	17.544	5.4545	0.1	1423.2
7603	17.36	5.4545	0.1	1467.2
7604	17.176	5.4545	0.1	1511.3
7605	16.991	5.4545	0.1	1555.6
7606	16.807	5.4545	0.1	1600.1
7607	16.622	5.4545	0.1	1644.8
7608	16.438	5.4545	0.1	1689.7
7609	16.253	5.4545	0.1	1734.8
7610	16.069	5.4545	0.1	1780.1
7611	15.884	5.4545	0.1	1825.5
7612	15.7	5.4545	0.1	1871.2
7613	15.516	5.4545	0.1	1917.1
7614	15.331	5.4545	0.1	1963.2
7615	15.147	5.4545	0.1	2009.5
7616	14.962	5.4545	0.1	2056.
7617	14.778	5.4545	0.1	2102.6
7618	14.593	5.4545	0.1	2149.5
7619	14.409	5.4545	0.1	2196.6
7620	14.224	5.4545	0.1	2243.9
7621	14.04	5.4545	0.1	2291.4
7622	13.856	5.4545	0.1	2339.1
7623	13.671	5.4545	0.1	2387.
7624	13.487	5.4545	0.1	2435.1
7625	13.302	5.4545	0.1	2483.4
7626	13.118	5.4545	0.1	2531.9
7627	12.933	5.4545	0.1	2580.6
7628	12.749	5.4545	0.1	2629.6
7629	12.564	5.4545	0.1	2678.7
7630	12.38	5.4545	0.1	2728.
7631	12.196	5.4545	0.1	2777.6
7632	12.011	5.4545	0.1	2827.3
7633	11.827	5.4545	0.1	2877.3
7634	11.642	5.4545	0.1	2927.5
7635	11.458	5.4545	0.1	2977.9
7636	11.273	5.4545	0.1	3028.5
7637	11.089	5.4545	0.1	3079.3
7638	10.904	5.4545	0.1	3130.3
7639	10.72	5.4545	0.1	3181.5
7640	10.536	5.4545	0.1	3233.
7641	10.351	5.4545	0.1	3284.7
7642	10.167	5.4545	0.1	3336.6
7643	9.9822	5.4545	0.1	3388.7
7644	9.7978	5.4545	0.1	3441.
7645	9.6133	5.4545	0.1	3493.6
7646	9.4289	5.4545	0.1	3546.3
7647	9.2444	5.4545	0.1	3599.3
7648	9.06	5.4545	0.1	3652.5
7649	8.8756	5.4545	0.1	3705.9
7650	8.6911	5.4545	0.1	3759.6
7651	8.5067	5.4545	0.1	3813.4
7652	8.3222	5.4545	0.1	3867.4
7653	8.1378	5.4545	0.1	3921.6
7654	7.9533	5.4545	0.1	3976.
7655	7.7689	5.4545	0.1	4030.4
7656	7.5844	5.4545	0.1	4085.
7657	7.4	5.4545	0.1	4139.7
7658	7.2156	5.4545	0.1	4194.3
7659	7.0311	5.4545	0.1	4248.8
7660	6.8467	5.4545	0.1	4303.2
7661	6.6622	5.4545	0.1	4357.2
7662	6.4778	5.4545	0.1	4410.7
7663	6.2933	5.4545	0.1	4463.5
7664	6.1089	5.4545	0.1	4515.2
7665	5.9244	5.4545	0.1	4565.4
7666	5.74	5.4545	0.1	4613.7
7667	5.5556	5.4545	0.1	4659.5
7668	5.3711	5.4545	0.1	4701.8
7669	5.1867	5.4545	0.1	4739.8
7670	5.0022	5.4545	0.1	4772.
7671	4.8178	5.4545	0.1	4796.7
7672	4.6333	5.4545	0.1	4812.
7673	4.4489	5.4545	0.1	4815.2
7674	4.2644	5.4545	0.1	4803.1
7675	4.08	5.4545	0.1	4771.8
7676	3.8956	5.4545	0.1	4716.3
7677	3.7111	5.4545	0.1	4630.9
7678	3.5267	5.4545	0.1	4509.
7679	3.3422	5.4545	0.1	4342.7
7680	3.1578	5.4545	0.1	4124.1
7681	2.9733	5.4545	0.1	3845.3
7682	2.7889	5.4545	0.1	3501.2
7683	2.6044	5.4545	0.1	3092.9
7684	2.42	5.4545	0.1	2636.6
7685	2.2356	5.4545	0.1	2179.
7686	2.0511	5.4545	0.1	1871.9
7687	23.816	5.6364	0.1	38.11
7688	23.631	5.6364	0.1	72.991
7689	23.447	5.6364	0.1	109.75
7690	23.262	5.6364	0.1	147.52
7691	23.078	5.6364	0.1	185.92
7692	22.893	5.6364	0.1	224.74
7693	22.709	5.6364	0.1	263.87
7694	22.524	5.6364	0.1	303.23
7695	22.34	5.6364	0.1	342.79
7696	22.156	5.6364	0.1	382.52
7697	21.971	5.6364	0.1	422.4
7698	21.787	5.6364	0.1	462.42
7699	21.602	5.6364	0.1	502.59
7700	21.418	5.6364	0.1	542.89
7701	21.233	5.6364	0.1	583.32
7702	21.049	5.6364	0.1	623.89
7703	20.864	5.6364	0.1	664.6
7704	20.68	5.6364	0.1	705.45
7705	20.496	5.6364	0.1	746.44
7706	20.311	5.6364	0.1	787.59
7707	20.127	5.6364	0.1	828.88
7708	19.942	5.6364	0.1	870.33
7709	19.758	5.6364	0.1	911.94
7710	19.573	5.6364	0.1	953.71
7711	19.389	5.6364	0.1	995.64
7712	19.204	5.6364	0.1	1037.7
7713	19.02	5.6364	0.1	1080.
7714	18.836	5.6364	0.1	1122.5
7715	18.651	5.6364	0.1	1165.1
7716	18.467	5.6364	0.1	1207.9
7717	18.282	5.6364	0.1	1250.9
7718	18.098	5.6364	0.1	1294.1
7719	17.913	5.6364	0.1	1337.4
7720	17.729	5.6364	0.1	1381.
7721	17.544	5.6364	0.1	1424.7
7722	17.36	5.6364	0.1	1468.6
7723	17.176	5.6364	0.1	1512.7
7724	16.991	5.6364	0.1	1557.
7725	16.807	5.6364	0.1	1601.5
7726	16.622	5.6364	0.1	1646.2
7727	16.438	5.6364	0.1	1691.1
7728	16.253	5.6364	0.1	1736.2
7729	16.069	5.6364	0.1	1781.5
7730	15.884	5.6364	0.1	1827.
7731	15.7	5.6364	0.1	1872.6
7732	15.516	5.6364	0.1	1918.5
7733	15.331	5.6364	0.1	1964.6
7734	15.147	5.6364	0.1	2010.9
7735	14.962	5.6364	0.1	2057.3
7736	14.778	5.6364	0.1	2104.
7737	14.593	5.6364	0.1	2150.9
7738	14.409	5.6364	0.1	2198.
7739	14.224	5.6364	0.1	2245.3
7740	14.04	5.6364	0.1	2292.8
7741	13.856	5.6364	0.1	2340.5
7742	13.671	5.6364	0.1	2388.4
7743	13.487	5.6364	0.1	2436.5
7744	13.302	5.6364	0.1	2484.8
7745	13.118	5.6364	0.1	2533.3
7746	12.933	5.6364	0.1	2582.
7747	12.749	5.6364	0.1	2631.
7748	12.564	5.6364	0.1	2680.1
7749	12.38	5.6364	0.1	2729.5
7750	12.196	5.6364	0.1	2779.1
7751	12.011	5.6364	0.1	2828.8
7752	11.827	5.6364	0.1	2878.8
7753	11.642	5.6364	0.1	2929.
7754	11.458	5.6364	0.1	2979.4
7755	11.273	5.6364	0.1	3030.1
7756	11.089	5.6364	0.1	3080.9
7757	10.904	5.6364	0.1	3132.
7758	10.72	5.6364	0.1	3183.3
7759	10.536	5.6364	0.1	3234.8
7760	10.351	5.6364	0.1	3286.5
7761	10.167	5.6364	0.1	3338.5
7762	9.9822	5.6364	0.1	3390.7
7763	9.7978	5.6364	0.1	3443.1
7764	9.6133	5.6364	0.1	3495.7
7765	9.4289	5.6364	0.1	3548.5
7766	9.2444	5.6364	0.1	3601.6
7767	9.06	5.6364	0.1	3654.9
7768	8.8756	5.6364	0.1	3708.4
7769	8.6911	5.6364	0.1	3762.1
7770	8.5067	5.6364	0.1	3816.1
7771	8.3222	5.6364	0.1	3870.2
7772	8.1378	5.6364	0.1	3924.5
7773	7.9533	5.6364	0.1	3978.9
7774	7.7689	5.6364	0.1	4033.5
7775	7.5844	5.6364	0.1	4088.1
7776	7.4	5.6364	0.1	4142.8
7777	7.2156	5.6364	0.1	4197.4
7778	7.0311	5.6364	0.1	4251.9
7779	6.8467	5.6364	0.1	4306.1
7780	6.6622	5.6364	0.1	4359.9
7781	6.4778	5.6364	0.1	4413.1
7782	6.2933	5.6364	0.1	4465.4
7783	6.1089	5.6364	0.1	4516.4
7784	5.9244	5.6364	0.1	4565.7
7785	5.74	5.6364	0.1	4612.8
7786	5.5556	5.6364	0.1	4656.9
7787	5.3711	5.6364	0.1	4697.2
7788	5.1867	5.6364	0.1	4732.4
7789	5.0022	5.6364	0.1	4761.1
7790	4.8178	5.6364	0.1	4781.5
7791	4.6333	5.6364	0.1	4791.3
7792	4.4489	5.6364	0.1	4787.6
7793	4.2644	5.6364	0.1	4767.1
7794	4.08	5.6364	0.1	4725.4
7795	3.8956	5.6364	0.1	4657.4
7796	3.7111	5.6364	0.1	4557.1
7797	3.5267	5.6364	0.1	4417.5
7798	3.3422	5.6364	0.1	4230.9
7799	3.1578	5.6364	0.1	3989.
7800	2.9733	5.6364	0.1	3684.1
7801	2.7889	5.6364	0.1	3310.4
7802	2.6044	5.6364	0.1	2866.8
7803	2.42	5.6364	0.1	2362.6
7804	2.2356	5.6364	0.1	1831.5
7805	2.0511	5.6364	0.1	1414.2
7806	23.816	5.8182	0.1	37.092
7807	23.631	5.8182	0.1	72.9
7808	23.447	5.8182	0.1	110.82
7809	23.262	5.8182	0.1	149.39
7810	23.078	5.8182	0.1	188.35
7811	22.893	5.8182	0.1	227.57
7812	22.709	5.8182	0.1	267.
7813	22.524	5.8182	0.1	306.6
7814	22.34	5.8182	0.1	346.34
7815	22.156	5.8182	0.1	386.22
7816	21.971	5.8182	0.1	426.22
7817	21.787	5.8182	0.1	466.33
7818	21.602	5.8182	0.1	506.57
7819	21.418	5.8182	0.1	546.93
7820	21.233	5.8182	0.1	587.41
7821	21.049	5.8182	0.1	628.01
7822	20.864	5.8182	0.1	668.74
7823	20.68	5.8182	0.1	709.61
7824	20.496	5.8182	0.1	750.61
7825	20.311	5.8182	0.1	791.76
7826	20.127	5.8182	0.1	833.05
7827	19.942	5.8182	0.1	874.49
7828	19.758	5.8182	0.1	916.08
7829	19.573	5.8182	0.1	957.83
7830	19.389	5.8182	0.1	999.75
7831	19.204	5.8182	0.1	1041.8
7832	19.02	5.8182	0.1	1084.1
7833	18.836	5.8182	0.1	1126.5
7834	18.651	5.8182	0.1	1169.1
7835	18.467	5.8182	0.1	1211.9
7836	18.282	5.8182	0.1	1254.8
7837	18.098	5.8182	0.1	1297.9
7838	17.913	5.8182	0.1	1341.3
7839	17.729	5.8182	0.1	1384.8
7840	17.544	5.8182	0.1	1428.5
7841	17.36	5.8182	0.1	1472.3
7842	17.176	5.8182	0.1	1516.4
7843	16.991	5.8182	0.1	1560.7
7844	16.807	5.8182	0.1	1605.2
7845	16.622	5.8182	0.1	1649.8
7846	16.438	5.8182	0.1	1694.7
7847	16.253	5.8182	0.1	1739.7
7848	16.069	5.8182	0.1	1785.
7849	15.884	5.8182	0.1	1830.4
7850	15.7	5.8182	0.1	1876.
7851	15.516	5.8182	0.1	1921.9
7852	15.331	5.8182	0.1	1967.9
7853	15.147	5.8182	0.1	2014.2
7854	14.962	5.8182	0.1	2060.6
7855	14.778	5.8182	0.1	2107.3
7856	14.593	5.8182	0.1	2154.1
7857	14.409	5.8182	0.1	2201.2
7858	14.224	5.8182	0.1	2248.5
7859	14.04	5.8182	0.1	2295.9
7860	13.856	5.8182	0.1	2343.6
7861	13.671	5.8182	0.1	2391.5
7862	13.487	5.8182	0.1	2439.6
7863	13.302	5.8182	0.1	2487.9
7864	13.118	5.8182	0.1	2536.4
7865	12.933	5.8182	0.1	2585.1
7866	12.749	5.8182	0.1	2634.
7867	12.564	5.8182	0.1	2683.2
7868	12.38	5.8182	0.1	2732.5
7869	12.196	5.8182	0.1	2782.1
7870	12.011	5.8182	0.1	2831.8
7871	11.827	5.8182	0.1	2881.8
7872	11.642	5.8182	0.1	2932.
7873	11.458	5.8182	0.1	2982.5
7874	11.273	5.8182	0.1	3033.1
7875	11.089	5.8182	0.1	3084.
7876	10.904	5.8182	0.1	3135.1
7877	10.72	5.8182	0.1	3186.4
7878	10.536	5.8182	0.1	3237.9
7879	10.351	5.8182	0.1	3289.7
7880	10.167	5.8182	0.1	3341.6
7881	9.9822	5.8182	0.1	3393.9
7882	9.7978	5.8182	0.1	3446.3
7883	9.6133	5.8182	0.1	3499.
7884	9.4289	5.8182	0.1	3551.9
7885	9.2444	5.8182	0.1	3605.
7886	9.06	5.8182	0.1	3658.4
7887	8.8756	5.8182	0.1	3711.9
7888	8.6911	5.8182	0.1	3765.7
7889	8.5067	5.8182	0.1	3819.7
7890	8.3222	5.8182	0.1	3873.9
7891	8.1378	5.8182	0.1	3928.3
7892	7.9533	5.8182	0.1	3982.8
7893	7.7689	5.8182	0.1	4037.4
7894	7.5844	5.8182	0.1	4092.1
7895	7.4	5.8182	0.1	4146.8
7896	7.2156	5.8182	0.1	4201.4
7897	7.0311	5.8182	0.1	4255.8
7898	6.8467	5.8182	0.1	4309.9
7899	6.6622	5.8182	0.1	4363.5
7900	6.4778	5.8182	0.1	4416.4
7901	6.2933	5.8182	0.1	4468.3
7902	6.1089	5.8182	0.1	4518.8
7903	5.9244	5.8182	0.1	4567.3
7904	5.74	5.8182	0.1	4613.4
7905	5.5556	5.8182	0.1	4656.3
7906	5.3711	5.8182	0.1	4694.8
7907	5.1867	5.8182	0.1	4727.9
7908	5.0022	5.8182	0.1	4753.9
7909	4.8178	5.8182	0.1	4770.9
7910	4.6333	5.8182	0.1	4776.5
7911	4.4489	5.8182	0.1	4767.7
7912	4.2644	5.8182	0.1	4740.9
7913	4.08	5.8182	0.1	4691.7
7914	3.8956	5.8182	0.1	4614.9
7915	3.7111	5.8182	0.1	4504.5
7916	3.5267	5.8182	0.1	4353.4
7917	3.3422	5.8182	0.1	4154.1
7918	3.1578	5.8182	0.1	3898.9
7919	2.9733	5.8182	0.1	3580.1
7920	2.7889	5.8182	0.1	3192.
7921	2.6044	5.8182	0.1	2731.5
7922	2.42	5.8182	0.1	2200.6
7923	2.2356	5.8182	0.1	1609.4
7924	2.0511	5.8182	0.1	1024.1
7925	0.17	5.8182	0.1	2588.1
7926	0.34	5.8182	0.1	3343.3
7927	0.51	5.8182	0.1	3553.1
7928	0.68	5.8182	0.1	3516.
7929	0.85	5.8182	0.1	3292.6
7930	1.02	5.8182	0.1	2926.9
7931	1.19	5.8182	0.1	2442.6
7932	1.36	5.8182	0.1	1864.1
7933	1.53	5.8182	0.1	1286.8
7934	0.17	5.6364	0.1	3170.6
7935	0.34	5.6364	0.1	3571.4
7936	0.51	5.6364	0.1	3683.5
7937	0.68	5.6364	0.1	3632.5
7938	0.85	5.6364	0.1	3420.2
7939	1.02	5.6364	0.1	3085.5
7940	1.19	5.6364	0.1	2658.7
7941	1.36	5.6364	0.1	2196.2
7942	1.53	5.6364	0.1	1865.4
7943	0.17	5.4545	0.1	3857.4
7944	0.34	5.4545	0.1	3974.1
7945	0.51	5.4545	0.1	3968.2
7946	0.68	5.4545	0.1	3890.7
7947	0.85	5.4545	0.1	3692.1
7948	1.02	5.4545	0.1	3400.6
7949	1.19	5.4545	0.1	3047.9
7950	1.36	5.4545	0.1	2696.9
7951	1.53	5.4545	0.1	2506.1
7952	0.17	5.2727	0.1	4466.
7953	0.34	5.2727	0.1	4447.1
7954	0.51	5.2727	0.1	4345.7
7955	0.68	5.2727	0.1	4243.2
7956	0.85	5.2727	0.1	4063.1
7957	1.02	5.2727	0.1	3821.7
7958	1.19	5.2727	0.1	3542.5
7959	1.36	5.2727	0.1	3275.6
7960	1.53	5.2727	0.1	3172.5
7961	0.17	5.0909	0.1	5022.2
7962	0.34	5.0909	0.1	4948.3
7963	0.51	5.0909	0.1	4790.5
7964	0.68	5.0909	0.1	4675.5
7965	0.85	5.0909	0.1	4520.5
7966	1.02	5.0909	0.1	4333.
7967	1.19	5.0909	0.1	4122.8
7968	1.36	5.0909	0.1	3922.1
7969	1.53	5.0909	0.1	3886.6
7970	0.17	4.9091	0.1	5547.6
7971	0.34	4.9091	0.1	5463.8
7972	0.51	4.9091	0.1	5284.3
7973	0.68	4.9091	0.1	5175.2
7974	0.85	4.9091	0.1	5056.2
7975	1.02	4.9091	0.1	4930.2
7976	1.19	4.9091	0.1	4792.4
7977	1.36	4.9091	0.1	4655.2
7978	1.53	4.9091	0.1	4686.3
7979	0.17	4.7273	0.1	6055.8
7980	0.34	4.7273	0.1	5987.3
7981	0.51	4.7273	0.1	5813.1
7982	0.68	4.7273	0.1	5730.
7983	0.85	4.7273	0.1	5663.3
7984	1.02	4.7273	0.1	5615.8
7985	1.19	4.7273	0.1	5571.
7986	1.36	4.7273	0.1	5519.9
7987	1.53	4.7273	0.1	5633.2
7988	0.17	4.5455	0.1	6550.7
7989	0.34	4.5455	0.1	6513.1
7990	0.51	4.5455	0.1	6363.7
7991	0.68	4.5455	0.1	6325.6
7992	0.85	4.5455	0.1	6331.6
7993	1.02	4.5455	0.1	6391.3
7994	1.19	4.5455	0.1	6490.2
7995	1.36	4.5455	0.1	6587.5
7996	1.53	4.5455	0.1	6861.1
7997	0.17	4.3636	0.1	7030.6
7998	0.34	4.3636	0.1	7032.8
7999	0.51	4.3636	0.1	6921.2
8000	0.68	4.3636	0.1	6943.2
8001	0.85	4.3636	0.1	7041.9
8002	1.02	4.3636	0.1	7245.5
8003	1.19	4.3636	0.1	7561.
8004	1.36	4.3636	0.1	7965.9
8005	1.53	4.3636	0.1	8609.8
8006	0.17	4.1818	0.1	7490.9
8007	0.34	4.1818	0.1	7535.9
8008	0.51	4.1818	0.1	7468.7
8009	0.68	4.1818	0.1	7559.3
8010	0.85	4.1818	0.1	7763.5
8011	1.02	4.1818	0.1	8137.5
8012	1.19	4.1818	0.1	8745.8
8013	1.36	4.1818	0.1	9781.5
8014	1.53	4.1818	0.1	11996
8015	0.17	3.8182	0.1	8322.8
8016	0.34	3.8182	0.1	8441.
8017	0.51	3.8182	0.1	8457.
8018	0.68	3.8182	0.1	8676.4
8019	0.85	3.8182	0.1	9072.1
8020	1.02	3.8182	0.1	9740.8
8021	1.19	3.8182	0.1	10838
8022	1.36	3.8182	0.1	12777
8023	1.53	3.8182	0.1	16399
8024	1.7	3.8182	0.1	21152
8025	0.17	3.6364	0.1	8671.7
8026	0.34	3.6364	0.1	8812.3
8027	0.51	3.6364	0.1	8857.3
8028	0.68	3.6364	0.1	9119.8
8029	0.85	3.6364	0.1	9567.7
8030	1.02	3.6364	0.1	10286
8031	1.19	3.6364	0.1	11382
8032	1.36	3.6364	0.1	13011
8033	1.53	3.6364	0.1	15209
8034	1.7	3.6364	0.1	16766
8035	0.17	3.4545	0.1	8955.
8036	0.34	3.4545	0.1	9107.7
8037	0.51	3.4545	0.1	9170.1
8038	0.68	3.4545	0.1	9456.5
8039	0.85	3.4545	0.1	9920.7
8040	1.02	3.4545	0.1	10620
8041	1.19	3.4545	0.1	11582
8042	1.36	3.4545	0.1	12795
8043	1.53	3.4545	0.1	14028
8044	1.7	3.4545	0.1	14794
8045	0.17	3.2727	0.1	9156.
8046	0.34	3.2727	0.1	9313.
8047	0.51	3.2727	0.1	9383.4
8048	0.68	3.2727	0.1	9678.5
8049	0.85	3.2727	0.1	10138
8050	1.02	3.2727	0.1	10791
8051	1.19	3.2727	0.1	11618
8052	1.36	3.2727	0.1	12541
8053	1.53	3.2727	0.1	13365
8054	1.7	3.2727	0.1	13804
8055	0.17	3.0909	0.1	9260.5
8056	0.34	3.0909	0.1	9418.2
8057	0.51	3.0909	0.1	9491.1
8058	0.68	3.0909	0.1	9787.8
8059	0.85	3.0909	0.1	10239
8060	1.02	3.0909	0.1	10859
8061	1.19	3.0909	0.1	11610
8062	1.36	3.0909	0.1	12397
8063	1.53	3.0909	0.1	13055
8064	1.7	3.0909	0.1	13383
8065	0.17	2.9091	0.1	9260.5
8066	0.34	2.9091	0.1	9418.2
8067	0.51	2.9091	0.1	9491.1
8068	0.68	2.9091	0.1	9787.8
8069	0.85	2.9091	0.1	10239
8070	1.02	2.9091	0.1	10859
8071	1.19	2.9091	0.1	11610
8072	1.36	2.9091	0.1	12397
8073	1.53	2.9091	0.1	13055
8074	1.7	2.9091	0.1	13383
8075	0.17	2.7273	0.1	9156.
8076	0.34	2.7273	0.1	9313.
8077	0.51	2.7273	0.1	9383.4
8078	0.68	2.7273	0.1	9678.5
8079	0.85	2.7273	0.1	10138
8080	1.02	2.7273	0.1	10791
8081	1.19	2.7273	0.1	11618
8082	1.36	2.7273	0.1	12541
8083	1.53	2.7273	0.1	13365
8084	1.7	2.7273	0.1	13804
8085	0.17	2.5455	0.1	8955.1
8086	0.34	2.5455	0.1	9107.7
8087	0.51	2.5455	0.1	9170.1
8088	0.68	2.5455	0.1	9456.5
8089	0.85	2.5455	0.1	9920.7
8090	1.02	2.5455	0.1	10620
8091	1.19	2.5455	0.1	11582
8092	1.36	2.5455	0.1	12795
8093	1.53	2.5455	0.1	14028
8094	1.7	2.5455	0.1	14794
8095	0.17	2.3636	0.1	8671.7
8096	0.34	2.3636	0.1	8812.3
8097	0.51	2.3636	0.1	8857.3
8098	0.68	2.3636	0.1	9119.8
8099	0.85	2.3636	0.1	9567.7
8100	1.02	2.3636	0.1	10286
8101	1.19	2.3636	0.1	11382
8102	1.36	2.3636	0.1	13011
8103	1.53	2.3636	0.1	15209
8104	1.7	2.3636	0.1	16766
8105	0.17	2.1818	0.1	8322.8
8106	0.34	2.1818	0.1	8441.
8107	0.51	2.1818	0.1	8457.
8108	0.68	2.1818	0.1	8676.4
8109	0.85	2.1818	0.1	9072.1
8110	1.02	2.1818	0.1	9740.8
8111	1.19	2.1818	0.1	10838
8112	1.36	2.1818	0.1	12777
8113	1.53	2.1818	0.1	16399
8114	1.7	2.1818	0.1	21152
8115	1.53	1.8182	0.1	11996
8116	1.53	1.6364	0.1	8609.8
8117	1.53	1.4545	0.1	6861.1
8118	1.53	1.2727	0.1	5633.2
8119	1.53	1.0909	0.1	4686.3
8120	1.53	0.90909	0.1	3886.6
8121	1.53	0.72727	0.1	3172.5
8122	1.53	0.54545	0.1	2506.1
8123	1.53	0.36364	0.1	1865.4
8124	1.53	0.18182	0.1	1286.8
8125	1.36	1.8182	0.1	9781.5
8126	1.36	1.6364	0.1	7965.9
8127	1.36	1.4545	0.1	6587.5
8128	1.36	1.2727	0.1	5519.9
8129	1.36	1.0909	0.1	4655.2
8130	1.36	0.90909	0.1	3922.1
8131	1.36	0.72727	0.1	3275.6
8132	1.36	0.54545	0.1	2696.9
8133	1.36	0.36364	0.1	2196.2
8134	1.36	0.18182	0.1	1864.1
8135	1.19	1.8182	0.1	8745.8
8136	1.19	1.6364	0.1	7561.
8137	1.19	1.4545	0.1	6490.2
8138	1.19	1.2727	0.1	5571.
8139	1.19	1.0909	0.1	4792.4
8140	1.19	0.90909	0.1	4122.8
8141	1.19	0.72727	0.1	3542.5
8142	1.19	0.54545	0.1	3047.9
8143	1.19	0.36364	0.1	2658.7
8144	1.19	0.18182	0.1	2442.6
8145	1.02	1.8182	0.1	8137.5
8146	1.02	1.6364	0.1	7245.5
8147	1.02	1.4545	0.1	6391.3
8148	1.02	1.2727	0.1	5615.8
8149	1.02	1.0909	0.1	4930.2
8150	1.02	0.90909	0.1	4333.1
8151	1.02	0.72727	0.1	3821.7
8152	1.02	0.54545	0.1	3400.6
8153	1.02	0.36364	0.1	3085.5
8154	1.02	0.18182	0.1	2926.9
8155	0.85	1.8182	0.1	7763.5
8156	0.85	1.6364	0.1	7041.9
8157	0.85	1.4545	0.1	6331.7
8158	0.85	1.2727	0.1	5663.3
8159	0.85	1.0909	0.1	5056.2
8160	0.85	0.90909	0.1	4520.5
8161	0.85	0.72727	0.1	4063.1
8162	0.85	0.54545	0.1	3692.1
8163	0.85	0.36364	0.1	3420.2
8164	0.85	0.18182	0.1	3292.6
8165	0.68	1.8182	0.1	7559.3
8166	0.68	1.6364	0.1	6943.2
8167	0.68	1.4545	0.1	6325.6
8168	0.68	1.2727	0.1	5730.
8169	0.68	1.0909	0.1	5175.2
8170	0.68	0.90909	0.1	4675.5
8171	0.68	0.72727	0.1	4243.2
8172	0.68	0.54545	0.1	3890.7
8173	0.68	0.36364	0.1	3632.5
8174	0.68	0.18182	0.1	3516.
8175	0.51	1.8182	0.1	7468.7
8176	0.51	1.6364	0.1	6921.2
8177	0.51	1.4545	0.1	6363.7
8178	0.51	1.2727	0.1	5813.1
8179	0.51	1.0909	0.1	5284.3
8180	0.51	0.90909	0.1	4790.5
8181	0.51	0.72727	0.1	4345.7
8182	0.51	0.54545	0.1	3968.3
8183	0.51	0.36364	0.1	3683.5
8184	0.51	0.18182	0.1	3553.1
8185	0.34	1.8182	0.1	7535.9
8186	0.34	1.6364	0.1	7032.8
8187	0.34	1.4545	0.1	6513.1
8188	0.34	1.2727	0.1	5987.3
8189	0.34	1.0909	0.1	5463.8
8190	0.34	0.90909	0.1	4948.3
8191	0.34	0.72727	0.1	4447.1
8192	0.34	0.54545	0.1	3974.1
8193	0.34	0.36364	0.1	3571.4
8194	0.34	0.18182	0.1	3343.3
8195	0.17	1.8182	0.1	7490.9
8196	0.17	1.6364	0.1	7030.6
8197	0.17	1.4545	0.1	6550.7
8198	0.17	1.2727	0.1	6055.8
8199	0.17	1.0909	0.1	5547.6
8200	0.17	0.90909	0.1	5022.2
8201	0.17	0.72727	0.1	4466.
8202	0.17	0.54545	0.1	3857.4
8203	0.17	0.36364	0.1	3170.6
8204	0.17	0.18182	0.1	2588.1
8205	0.17	4.	0.1	7924.9
8206	0.34	4.	0.1	8010.1
8207	0.51	4.	0.1	7987.4
8208	0.68	4.	0.1	8146.8
8209	0.85	4.	0.1	8456.
8210	1.02	4.	0.1	8999.5
8211	1.19	4.	0.1	9916.2
8212	1.36	4.	0.1	11485
8213	1.53	4.	0.1	16650
8214	1.8667	3.8182	0.1	20624
8215	1.8667	3.6364	0.1	16476
8216	1.8667	3.4545	0.1	14606
8217	1.8667	3.2727	0.1	13650
8218	1.8667	3.0909	0.1	13242
8219	1.8667	2.9091	0.1	13242
8220	1.8667	2.7273	0.1	13650
8221	1.8667	2.5455	0.1	14606
8222	1.8667	2.3636	0.1	16476
8223	1.8667	2.1818	0.1	20624
8224	0.17	2.	0.1	7924.9
8225	0.34	2.	0.1	8010.1
8226	0.51	2.	0.1	7987.4
8227	0.68	2.	0.1	8146.9
8228	0.85	2.	0.1	8456.
8229	1.02	2.	0.1	8999.5
8230	1.19	2.	0.1	9916.2
8231	1.36	2.	0.1	11485
8232	1.53	2.	0.1	16650
8233	1.8667	0.18182	0.1	536.12
8234	1.8667	0.36364	0.1	934.8
8235	1.8667	0.54545	0.1	1284.
8236	1.8667	0.72727	0.1	1633.4
8237	1.8667	0.90909	0.1	2009.5
8238	1.8667	1.0909	0.1	2441.7
8239	1.8667	1.2727	0.1	2968.9
8240	1.8667	1.4545	0.1	3685.
8241	1.8667	1.6364	0.1	4666.1
8242	1.8667	1.8182	0.1	7070.
8243	1.8667	2.	0.1	29195
8244	1.7	2.	0.1	31172
8245	1.7	1.8182	0.1	8381.8
8246	1.7	1.6364	0.1	5994.
8247	1.7	1.4545	0.1	4985.
8248	1.7	1.2727	0.1	4179.6
8249	1.7	1.0909	0.1	3541.3
8250	1.7	0.90909	0.1	2972.6
8251	1.7	0.72727	0.1	2438.3
8252	1.7	0.54545	0.1	1911.5
8253	1.7	0.36364	0.1	1367.3
8254	1.7	0.18182	0.1	751.37
8255	1.8667	5.8182	0.1	536.12
8256	1.8667	5.6364	0.1	934.8
8257	1.8667	5.4545	0.1	1284.
8258	1.8667	5.2727	0.1	1633.4
8259	1.8667	5.0909	0.1	2009.5
8260	1.8667	4.9091	0.1	2441.7
8261	1.8667	4.7273	0.1	2968.9
8262	1.8667	4.5455	0.1	3685.
8263	1.8667	4.3636	0.1	4666.1
8264	1.8667	4.1818	0.1	7070.
8265	1.8667	4.	0.1	29195
8266	1.7	4.	0.1	31172
8267	1.7	4.1818	0.1	8381.8
8268	1.7	4.3636	0.1	5994.
8269	1.7	4.5455	0.1	4985.
8270	1.7	4.7273	0.1	4179.6
8271	1.7	4.9091	0.1	3541.3
8272	1.7	5.0909	0.1	2972.6
8273	1.7	5.2727	0.1	2438.3
8274	1.7	5.4545	0.1	1911.5
8275	1.7	5.6364	0.1	1367.3
8276	1.7	5.8182	0.1	751.37
8277	1.8667	6.	0.1	70.141
8278	2.0511	6.	0.1	728.32
8279	2.2356	6.	0.1	1431.2
8280	2.42	6.	0.1	2057.
8281	2.6044	6.	0.1	2611.1
8282	2.7889	6.	0.1	3091.1
8283	2.9733	6.	0.1	3496.4
8284	3.1578	6.	0.1	3830.1
8285	3.3422	6.	0.1	4098.4
8286	3.5267	6.	0.1	4308.7
8287	3.7111	6.	0.1	4468.9
8288	3.8956	6.	0.1	4587.
8289	4.08	6.	0.1	4670.
8290	4.2644	6.	0.1	4724.2
8291	4.4489	6.	0.1	4755.1
8292	4.6333	6.	0.1	4767.1
8293	4.8178	6.	0.1	4764.1
8294	5.0022	6.	0.1	4749.1
8295	5.1867	6.	0.1	4724.7
8296	5.3711	6.	0.1	4692.9
8297	5.5556	6.	0.1	4655.2
8298	5.74	6.	0.1	4613.
8299	5.9244	6.	0.1	4567.3
8300	6.1089	6.	0.1	4519.
8301	6.2933	6.	0.1	4468.6
8302	6.4778	6.	0.1	4416.8
8303	6.6622	6.	0.1	4363.8
8304	6.8467	6.	0.1	4310.
8305	7.0311	6.	0.1	4255.7
8306	7.2156	6.	0.1	4201.1
8307	7.4	6.	0.1	4146.2
8308	7.5844	6.	0.1	4091.2
8309	7.7689	6.	0.1	4036.3
8310	7.9533	6.	0.1	3981.4
8311	8.1378	6.	0.1	3926.6
8312	8.3222	6.	0.1	3871.9
8313	8.5067	6.	0.1	3817.4
8314	8.6911	6.	0.1	3763.2
8315	8.8756	6.	0.1	3709.1
8316	9.06	6.	0.1	3655.2
8317	9.2444	6.	0.1	3601.6
8318	9.4289	6.	0.1	3548.2
8319	9.6133	6.	0.1	3495.1
8320	9.7978	6.	0.1	3442.2
8321	9.9822	6.	0.1	3389.5
8322	10.167	6.	0.1	3337.1
8323	10.351	6.	0.1	3284.9
8324	10.536	6.	0.1	3233.
8325	10.72	6.	0.1	3181.2
8326	10.904	6.	0.1	3129.7
8327	11.089	6.	0.1	3078.5
8328	11.273	6.	0.1	3027.4
8329	11.458	6.	0.1	2976.6
8330	11.642	6.	0.1	2926.1
8331	11.827	6.	0.1	2875.7
8332	12.011	6.	0.1	2825.6
8333	12.196	6.	0.1	2775.6
8334	12.38	6.	0.1	2725.9
8335	12.564	6.	0.1	2676.4
8336	12.749	6.	0.1	2627.2
8337	12.933	6.	0.1	2578.1
8338	13.118	6.	0.1	2529.3
8339	13.302	6.	0.1	2480.6
8340	13.487	6.	0.1	2432.2
8341	13.671	6.	0.1	2384.
8342	13.856	6.	0.1	2336.
8343	14.04	6.	0.1	2288.2
8344	14.224	6.	0.1	2240.6
8345	14.409	6.	0.1	2193.2
8346	14.593	6.	0.1	2146.
8347	14.778	6.	0.1	2099.
8348	14.962	6.	0.1	2052.3
8349	15.147	6.	0.1	2005.7
8350	15.331	6.	0.1	1959.3
8351	15.516	6.	0.1	1913.1
8352	15.7	6.	0.1	1867.2
8353	15.884	6.	0.1	1821.4
8354	16.069	6.	0.1	1775.8
8355	16.253	6.	0.1	1730.4
8356	16.438	6.	0.1	1685.2
8357	16.622	6.	0.1	1640.2
8358	16.807	6.	0.1	1595.4
8359	16.991	6.	0.1	1550.8
8360	17.176	6.	0.1	1506.4
8361	17.36	6.	0.1	1462.2
8362	17.544	6.	0.1	1418.1
8363	17.729	6.	0.1	1374.3
8364	17.913	6.	0.1	1330.6
8365	18.098	6.	0.1	1287.1
8366	18.282	6.	0.1	1243.9
8367	18.467	6.	0.1	1200.7
8368	18.651	6.	0.1	1157.8
8369	18.836	6.	0.1	1115.
8370	19.02	6.	0.1	1072.5
8371	19.204	6.	0.1	1030.
8372	19.389	6.	0.1	987.8
8373	19.573	6.	0.1	945.72
8374	19.758	6.	0.1	903.82
8375	19.942	6.	0.1	862.07
8376	20.127	6.	0.1	820.49
8377	20.311	6.	0.1	779.06
8378	20.496	6.	0.1	737.79
8379	20.68	6.	0.1	696.68
8380	20.864	6.	0.1	655.72
8381	21.049	6.	0.1	614.91
8382	21.233	6.	0.1	574.26
8383	21.418	6.	0.1	533.76
8384	21.602	6.	0.1	493.41
8385	21.787	6.	0.1	453.24
8386	21.971	6.	0.1	413.23
8387	22.156	6.	0.1	373.41
8388	22.34	6.	0.1	333.79
8389	22.524	6.	0.1	294.4
8390	22.709	6.	0.1	255.29
8391	22.893	6.	0.1	216.49
8392	23.078	6.	0.1	178.1
8393	23.262	6.	0.1	140.26
8394	23.447	6.	0.1	103.16
8395	23.631	6.	0.1	67.229
8396	23.816	6.	0.1	33.378
8397	24.	6.	0.1	5.1719
8398	24.	5.8182	0.1	6.7405
8399	24.	5.6364	0.1	7.1309
8400	24.	5.4545	0.1	7.2549
8401	24.	5.2727	0.1	7.2951
8402	24.	5.0909	0.1	7.2744
8403	24.	4.9091	0.1	7.2345
8404	24.	4.7273	0.1	7.1843
8405	24.	4.5455	0.1	7.1317
8406	24.	4.3636	0.1	7.0804
8407	24.	4.1818	0.1	7.0328
8408	24.	4.	0.1	6.9904
8409	24.	3.8182	0.1	6.9542
8410	24.	3.6364	0.1	6.9246
8411	24.	3.4545	0.1	6.9022
8412	24.	3.2727	0.1	6.8871
8413	24.	3.0909	0.1	6.8796
8414	24.	2.9091	0.1	6.8796
8415	24.	2.7273	0.1	6.8871
8416	24.	2.5455	0.1	6.9022
8417	24.	2.3636	0.1	6.9246
8418	24.	2.1818	0.1	6.9542
8419	24.	2.	0.1	6.9904
8420	24.	1.8182	0.1	7.0328
8421	24.	1.6364	0.1	7.0804
8422	24.	1.4545	0.1	7.1317
8423	24.	1.2727	0.1	7.1843
8424	24.	1.0909	0.1	7.2345
8425	24.	0.90909	0.1	7.2744
8426	24.	0.72727	0.1	7.2951
8427	24.	0.54545	0.1	7.255
8428	24.	0.36364	0.1	7.1309
8429	24.	0.18182	0.1	6.7405
8430	1.5894e-015	0.18182	0.1	1588.3
8431	3.1789e-015	0.36364	0.1	3285.1
8432	4.7683e-015	0.54545	0.1	4239.7
8433	6.3578e-015	0.72727	0.1	4940.2
8434	7.9472e-015	0.90909	0.1	5528.
8435	9.5366e-015	1.0909	0.1	6066.2
8436	1.1126e-014	1.2727	0.1	6577.5
8437	1.2716e-014	1.4545	0.1	7068.3
8438	1.4305e-014	1.6364	0.1	7538.9
8439	1.5894e-014	1.8182	0.1	7988.6
8440	1.7484e-014	2.	0.1	8416.4
8441	1.9073e-014	2.1818	0.1	8817.7
8442	2.0663e-014	2.3636	0.1	9180.9
8443	2.2252e-014	2.5455	0.1	9486.2
8444	2.3842e-014	2.7273	0.1	9709.1
8445	2.5431e-014	2.9091	0.1	9827.2
8446	2.702e-014	3.0909	0.1	9827.2
8447	2.861e-014	3.2727	0.1	9709.1
8448	3.0199e-014	3.4545	0.1	9486.2
8449	3.1789e-014	3.6364	0.1	9180.9
8450	3.3378e-014	3.8182	0.1	8817.7
8451	3.4968e-014	4.	0.1	8416.4
8452	3.6557e-014	4.1818	0.1	7988.6
8453	3.8147e-014	4.3636	0.1	7538.9
8454	3.9736e-014	4.5455	0.1	7068.3
8455	4.1325e-014	4.7273	0.1	6577.5
8456	4.2915e-014	4.9091	0.1	6066.2
8457	4.4504e-014	5.0909	0.1	5528.
8458	4.6094e-014	5.2727	0.1	4940.2
8459	4.7683e-014	5.4545	0.1	4239.7
8460	4.9273e-014	5.6364	0.1	3285.1
8461	5.0862e-014	5.8182	0.1	1588.3
8462	3.937e-014	6.	0.1	281.04
8463	0.17	6.	0.1	2264.
8464	0.34	6.	0.1	3048.5
8465	0.51	6.	0.1	3290.8
8466	0.68	6.	0.1	3258.7
8467	0.85	6.	0.1	3033.
8468	1.02	6.	0.1	2659.9
8469	1.19	6.	0.1	2162.2
8470	1.36	6.	0.1	1552.5
8471	1.53	6.	0.1	817.47
8472	1.7	6.	0.1	81.223
8473	24.	0.	0.1	5.1719
8474	23.816	0.	0.1	33.378
8475	23.631	0.	0.1	67.229
8476	23.447	0.	0.1	103.16
8477	23.262	0.	0.1	140.26
8478	23.078	0.	0.1	178.1
8479	22.893	0.	0.1	216.49
8480	22.709	0.	0.1	255.29
8481	22.524	0.	0.1	294.4
8482	22.34	0.	0.1	333.79
8483	22.156	0.	0.1	373.41
8484	21.971	0.	0.1	413.23
8485	21.787	0.	0.1	453.24
8486	21.602	0.	0.1	493.41
8487	21.418	0.	0.1	533.76
8488	21.233	0.	0.1	574.26
8489	21.049	0.	0.1	614.91
8490	20.864	0.	0.1	655.72
8491	20.68	0.	0.1	696.68
8492	20.496	0.	0.1	737.79
8493	20.311	0.	0.1	779.06
8494	20.127	0.	0.1	820.49
8495	19.942	0.	0.1	862.07
8496	19.758	0.	0.1	903.82
8497	19.573	0.	0.1	945.72
8498	19.389	0.	0.1	987.8
8499	19.204	0.	0.1	1030.
8500	19.02	0.	0.1	1072.5
8501	18.836	0.	0.1	1115.
8502	18.651	0.	0.1	1157.8
8503	18.467	0.	0.1	1200.7
8504	18.282	0.	0.1	1243.9
8505	18.098	0.	0.1	1287.1
8506	17.913	0.	0.1	1330.6
8507	17.729	0.	0.1	1374.3
8508	17.544	0.	0.1	1418.1
8509	17.36	0.	0.1	1462.2
8510	17.176	0.	0.1	1506.4
8511	16.991	0.	0.1	1550.8
8512	16.807	0.	0.1	1595.4
8513	16.622	0.	0.1	1640.2
8514	16.438	0.	0.1	1685.2
8515	16.253	0.	0.1	1730.4
8516	16.069	0.	0.1	1775.8
8517	15.884	0.	0.1	1821.4
8518	15.7	0.	0.1	1867.2
8519	15.516	0.	0.1	1913.1
8520	15.331	0.	0.1	1959.3
8521	15.147	0.	0.1	2005.7
8522	14.962	0.	0.1	2052.3
8523	14.778	0.	0.1	2099.
8524	14.593	0.	0.1	2146.
8525	14.409	0.	0.1	2193.2
8526	14.224	0.	0.1	2240.6
8527	14.04	0.	0.1	2288.2
8528	13.856	0.	0.1	2336.
8529	13.671	0.	0.1	2384.
8530	13.487	0.	0.1	2432.2
8531	13.302	0.	0.1	2480.6
8532	13.118	0.	0.1	2529.3
8533	12.933	0.	0.1	2578.1
8534	12.749	0.	0.1	2627.2
8535	12.564	0.	0.1	2676.4
8536	12.38	0.	0.1	2725.9
8537	12.196	0.	0.1	2775.6
8538	12.011	0.	0.1	2825.6
8539	11.827	0.	0.1	2875.7
8540	11.642	0.	0.1	2926.1
8541	11.458	0.	0.1	2976.6
8542	11.273	0.	0.1	3027.4
8543	11.089	0.	0.1	3078.5
8544	10.904	0.	0.1	3129.7
8545	10.72	0.	0.1	3181.2
8546	10.536	0.	0.1	3233.
8547	10.351	0.	0.1	3284.9
8548	10.167	0.	0.1	3337.1
8549	9.9822	0.	0.1	3389.5
8550	9.7978	0.	0.1	3442.2
8551	9.6133	0.	0.1	3495.1
8552	9.4289	0.	0.1	3548.2
8553	9.2444	0.	0.1	3601.6
8554	9.06	0.	0.1	3655.2
8555	8.8756	0.	0.1	3709.1
8556	8.6911	0.	0.1	3763.2
8557	8.5067	0.	0.1	3817.4
8558	8.3222	0.	0.1	3871.9
8559	8.1378	0.	0.1	3926.6
8560	7.9533	0.	0.1	3981.4
8561	7.7689	0.	0.1	4036.3
8562	7.5844	0.	0.1	4091.2
8563	7.4	0.	0.1	4146.2
8564	7.2156	0.	0.1	4201.1
8565	7.0311	0.	0.1	4255.7
8566	6.8467	0.	0.1	4310.
8567	6.6622	0.	0.1	4363.8
8568	6.4778	0.	0.1	4416.8
8569	6.2933	0.	0.1	4468.6
8570	6.1089	0.	0.1	4519.
8571	5.9244	0.	0.1	4567.3
8572	5.74	0.	0.1	4613.
8573	5.5556	0.	0.1	4655.2
8574	5.3711	0.	0.1	4692.9
8575	5.1867	0.	0.1	4724.7
8576	5.0022	0.	0.1	4749.1
8577	4.8178	0.	0.1	4764.1
8578	4.6333	0.	0.1	4767.1
8579	4.4489	0.	0.1	4755.1
8580	4.2644	0.	0.1	4724.2
8581	4.08	0.	0.1	4670.
8582	3.8956	0.	0.1	4587.
8583	3.7111	0.	0.1	4468.9
8584	3.5267	0.	0.1	4308.7
8585	3.3422	0.	0.1	4098.4
8586	3.1578	0.	0.1	3830.1
8587	2.9733	0.	0.1	3496.4
8588	2.7889	0.	0.1	3091.1
8589	2.6044	0.	0.1	2611.1
8590	2.42	0.	0.1	2057.
8591	2.2356	0.	0.1	1431.2
8592	2.0511	0.	0.1	728.32
8593	1.8667	0.	0.1	70.141
8594	1.7	0.	0.1	81.223
8595	1.53	4.7087e-031	0.1	817.47
8596	1.36	4.1855e-031	0.1	1552.5
8597	1.19	3.6623e-031	0.1	2162.2
8598	1.02	3.1391e-031	0.1	2659.9
8599	0.85	2.6159e-031	0.1	3033.
8600	0.68	2.0927e-031	0.1	3258.7
8601	0.51	1.5696e-031	0.1	3290.8
8602	0.34	1.0464e-031	0.1	3048.5
8603	0.17	5.2319e-032	0.1	2264.
8604	0.	0.	0.1	281.04
8605	0.17	5.2319e-032	0.	369.94
8606	0.34	1.0464e-031	0.	255.1
8607	0.51	1.5696e-031	0.	189.06
8608	0.68	2.0927e-031	0.	158.77
8609	0.85	2.6159e-031	0.	137.01
8610	1.02	3.1391e-031	0.	118.31
8611	1.19	3.6623e-031	0.	98.039
8612	1.36	4.1855e-031	0.	73.495
8613	1.53	4.7087e-031	0.	47.059
8614	1.7	0.	0.	22.625
8615	0.	0.	0.	1565.8
8616	2.0511	0.	0.	24.611
8617	2.2356	0.	0.	27.87
8618	2.42	0.	0.	29.677
8619	2.6044	0.	0.	28.616
8620	2.7889	0.	0.	25.698
8621	2.9733	0.	0.	22.181
8622	3.1578	0.	0.	18.612
8623	3.3422	0.	0.	15.318
8624	3.5267	0.	0.	12.428
8625	3.7111	0.	0.	9.9739
8626	3.8956	0.	0.	7.9351
8627	4.08	0.	0.	6.2677
8628	4.2644	0.	0.	4.9214
8629	4.4489	0.	0.	3.8478
8630	4.6333	0.	0.	3.0041
8631	4.8178	0.	0.	2.3532
8632	5.0022	0.	0.	1.864
8633	5.1867	0.	0.	1.5105
8634	5.3711	0.	0.	1.2705
8635	5.5556	0.	0.	1.1253
8636	5.74	0.	0.	1.0591
8637	5.9244	0.	0.	1.0583
8638	6.1089	0.	0.	1.1115
8639	6.2933	0.	0.	1.2085
8640	6.4778	0.	0.	1.3406
8641	6.6622	0.	0.	1.5002
8642	6.8467	0.	0.	1.6809
8643	7.0311	0.	0.	1.8772
8644	7.2156	0.	0.	2.0846
8645	7.4	0.	0.	2.2991
8646	7.5844	0.	0.	2.5178
8647	7.7689	0.	0.	2.738
8648	7.9533	0.	0.	2.9577
8649	8.1378	0.	0.	3.1752
8650	8.3222	0.	0.	3.3893
8651	8.5067	0.	0.	3.5991
8652	8.6911	0.	0.	3.8039
8653	8.8756	0.	0.	4.0032
8654	9.06	0.	0.	4.1967
8655	9.2444	0.	0.	4.3843
8656	9.4289	0.	0.	4.5659
8657	9.6133	0.	0.	4.7417
8658	9.7978	0.	0.	4.9116
8659	9.9822	0.	0.	5.076
8660	10.167	0.	0.	5.2352
8661	10.351	0.	0.	5.3893
8662	10.536	0.	0.	5.5386
8663	10.72	0.	0.	5.6835
8664	10.904	0.	0.	5.8243
8665	11.089	0.	0.	5.9613
8666	11.273	0.	0.	6.095
8667	11.458	0.	0.	6.2254
8668	11.642	0.	0.	6.3531
8669	11.827	0.	0.	6.4783
8670	12.011	0.	0.	6.6013
8671	12.196	0.	0.	6.7224
8672	12.38	0.	0.	6.8419
8673	12.564	0.	0.	6.9602
8674	12.749	0.	0.	7.0774
8675	12.933	0.	0.	7.1938
8676	13.118	0.	0.	7.3098
8677	13.302	0.	0.	7.4255
8678	13.487	0.	0.	7.5413
8679	13.671	0.	0.	7.6572
8680	13.856	0.	0.	7.7736
8681	14.04	0.	0.	7.8907
8682	14.224	0.	0.	8.0087
8683	14.409	0.	0.	8.1278
8684	14.593	0.	0.	8.2483
8685	14.778	0.	0.	8.3702
8686	14.962	0.	0.	8.4939
8687	15.147	0.	0.	8.6194
8688	15.331	0.	0.	8.7471
8689	15.516	0.	0.	8.8769
8690	15.7	0.	0.	9.0093
8691	15.884	0.	0.	9.1442
8692	16.069	0.	0.	9.2819
8693	16.253	0.	0.	9.4226
8694	16.438	0.	0.	9.5663
8695	16.622	0.	0.	9.7132
8696	16.807	0.	0.	9.8635
8697	16.991	0.	0.	10.017
8698	17.176	0.	0.	10.174
8699	17.36	0.	0.	10.335
8700	17.544	0.	0.	10.5
8701	17.729	0.	0.	10.669
8702	17.913	0.	0.	10.841
8703	18.098	0.	0.	11.018
8704	18.282	0.	0.	11.198
8705	18.467	0.	0.	11.382
8706	18.651	0.	0.	11.57
8707	18.836	0.	0.	11.761
8708	19.02	0.	0.	11.956
8709	19.204	0.	0.	12.154
8710	19.389	0.	0.	12.355
8711	19.573	0.	0.	12.559
8712	19.758	0.	0.	12.766
8713	19.942	0.	0.	12.973
8714	20.127	0.	0.	13.182
8715	20.311	0.	0.	13.391
8716	20.496	0.	0.	13.6
8717	20.68	0.	0.	13.807
8718	20.864	0.	0.	14.011
8719	21.049	0.	0.	14.211
8720	21.233	0.	0.	14.404
8721	21.418	0.	0.	14.59
8722	21.602	0.	0.	14.764
8723	21.787	0.	0.	14.925
8724	21.971	0.	0.	15.068
8725	22.156	0.	0.	15.189
8726	22.34	0.	0.	15.282
8727	22.524	0.	0.	15.339
8728	22.709	0.	0.	15.35
8729	22.893	0.	0.	15.301
8730	23.078	0.	0.	15.17
8731	23.262	0.	0.	14.925
8732	23.447	0.	0.	14.476
8733	23.631	0.	0.	13.813
8734	23.816	0.	0.	11.513
8735	1.8667	0.	0.	15.796
8736	24.	0.	0.	5.7235
8737	1.53	6.	0.	47.059
8738	1.36	6.	0.	73.495
8739	1.19	6.	0.	98.039
8740	1.02	6.	0.	118.31
8741	0.85	6.	0.	137.01
8742	0.68	6.	0.	158.77
8743	0.51	6.	0.	189.06
8744	0.34	6.	0.	255.1
8745	0.17	6.	0.	369.94
8746	1.7	6.	0.	22.625
8747	3.937e-014	6.	0.	1565.8
8748	5.0862e-014	5.8182	0.	-634.47
8749	4.9273e-014	5.6364	0.	-1580.9
8750	4.7683e-014	5.4545	0.	-2070.4
8751	4.6094e-014	5.2727	0.	-2419.6
8752	4.4504e-014	5.0909	0.	-2710.9
8753	4.2915e-014	4.9091	0.	-2976.8
8754	4.1325e-014	4.7273	0.	-3229.3
8755	3.9736e-014	4.5455	0.	-3471.6
8756	3.8147e-014	4.3636	0.	-3704.1
8757	3.6557e-014	4.1818	0.	-3926.2
8758	3.4968e-014	4.	0.	-4137.6
8759	3.3378e-014	3.8182	0.	-4336.2
8760	3.1789e-014	3.6364	0.	-4516.3
8761	3.0199e-014	3.4545	0.	-4668.4
8762	2.861e-014	3.2727	0.	-4780.2
8763	2.702e-014	3.0909	0.	-4840.6
8764	2.5431e-014	2.9091	0.	-4840.6
8765	2.3842e-014	2.7273	0.	-4780.2
8766	2.2252e-014	2.5455	0.	-4668.4
8767	2.0663e-014	2.3636	0.	-4516.3
8768	1.9073e-014	2.1818	0.	-4336.2
8769	1.7484e-014	2.	0.	-4137.6
8770	1.5894e-014	1.8182	0.	-3926.2
8771	1.4305e-014	1.6364	0.	-3704.1
8772	1.2716e-014	1.4545	0.	-3471.6
8773	1.1126e-014	1.2727	0.	-3229.3
8774	9.5366e-015	1.0909	0.	-2976.8
8775	7.9472e-015	0.90909	0.	-2710.9
8776	6.3578e-015	0.72727	0.	-2419.6
8777	4.7683e-015	0.54545	0.	-2070.4
8778	3.1789e-015	0.36364	0.	-1580.9
8779	1.5894e-015	0.18182	0.	-634.47
8780	24.	0.18182	0.	36.668
8781	24.	0.36364	0.	64.124
8782	24.	0.54545	0.	85.335
8783	24.	0.72727	0.	102.96
8784	24.	0.90909	0.	118.01
8785	24.	1.0909	0.	130.99
8786	24.	1.2727	0.	142.24
8787	24.	1.4545	0.	151.99
8788	24.	1.6364	0.	160.38
8789	24.	1.8182	0.	167.53
8790	24.	2.	0.	173.53
8791	24.	2.1818	0.	178.44
8792	24.	2.3636	0.	182.32
8793	24.	2.5455	0.	185.2
8794	24.	2.7273	0.	187.1
8795	24.	2.9091	0.	188.05
8796	24.	3.0909	0.	188.05
8797	24.	3.2727	0.	187.1
8798	24.	3.4545	0.	185.2
8799	24.	3.6364	0.	182.32
8800	24.	3.8182	0.	178.44
8801	24.	4.	0.	173.53
8802	24.	4.1818	0.	167.53
8803	24.	4.3636	0.	160.38
8804	24.	4.5455	0.	151.99
8805	24.	4.7273	0.	142.24
8806	24.	4.9091	0.	130.99
8807	24.	5.0909	0.	118.01
8808	24.	5.2727	0.	102.96
8809	24.	5.4545	0.	85.335
8810	24.	5.6364	0.	64.124
8811	24.	5.8182	0.	36.668
8812	24.	6.	0.	5.7235
8813	23.816	6.	0.	11.513
8814	23.631	6.	0.	13.813
8815	23.447	6.	0.	14.476
8816	23.262	6.	0.	14.925
8817	23.078	6.	0.	15.17
8818	22.893	6.	0.	15.301
8819	22.709	6.	0.	15.35
8820	22.524	6.	0.	15.339
8821	22.34	6.	0.	15.281
8822	22.156	6.	0.	15.189
8823	21.971	6.	0.	15.068
8824	21.787	6.	0.	14.925
8825	21.602	6.	0.	14.764
8826	21.418	6.	0.	14.59
8827	21.233	6.	0.	14.404
8828	21.049	6.	0.	14.211
8829	20.864	6.	0.	14.011
8830	20.68	6.	0.	13.807
8831	20.496	6.	0.	13.6
8832	20.311	6.	0.	13.391
8833	20.127	6.	0.	13.182
8834	19.942	6.	0.	12.973
8835	19.758	6.	0.	12.765
8836	19.573	6.	0.	12.559
8837	19.389	6.	0.	12.355
8838	19.204	6.	0.	12.154
8839	19.02	6.	0.	11.956
8840	18.836	6.	0.	11.761
8841	18.651	6.	0.	11.57
8842	18.467	6.	0.	11.382
8843	18.282	6.	0.	11.198
8844	18.098	6.	0.	11.017
8845	17.913	6.	0.	10.841
8846	17.729	6.	0.	10.669
8847	17.544	6.	0.	10.5
8848	17.36	6.	0.	10.335
8849	17.176	6.	0.	10.174
8850	16.991	6.	0.	10.017
8851	16.807	6.	0.	9.8634
8852	16.622	6.	0.	9.7131
8853	16.438	6.	0.	9.5662
8854	16.253	6.	0.	9.4225
8855	16.069	6.	0.	9.2819
8856	15.884	6.	0.	9.1442
8857	15.7	6.	0.	9.0092
8858	15.516	6.	0.	8.8769
8859	15.331	6.	0.	8.747
8860	15.147	6.	0.	8.6194
8861	14.962	6.	0.	8.4938
8862	14.778	6.	0.	8.3701
8863	14.593	6.	0.	8.2482
8864	14.409	6.	0.	8.1277
8865	14.224	6.	0.	8.0086
8866	14.04	6.	0.	7.8907
8867	13.856	6.	0.	7.7736
8868	13.671	6.	0.	7.6571
8869	13.487	6.	0.	7.5412
8870	13.302	6.	0.	7.4255
8871	13.118	6.	0.	7.3097
8872	12.933	6.	0.	7.1938
8873	12.749	6.	0.	7.0773
8874	12.564	6.	0.	6.9601
8875	12.38	6.	0.	6.8419
8876	12.196	6.	0.	6.7223
8877	12.011	6.	0.	6.6012
8878	11.827	6.	0.	6.4782
8879	11.642	6.	0.	6.353
8880	11.458	6.	0.	6.2254
8881	11.273	6.	0.	6.0949
8882	11.089	6.	0.	5.9613
8883	10.904	6.	0.	5.8243
8884	10.72	6.	0.	5.6835
8885	10.536	6.	0.	5.5386
8886	10.351	6.	0.	5.3892
8887	10.167	6.	0.	5.2352
8888	9.9822	6.	0.	5.076
8889	9.7978	6.	0.	4.9116
8890	9.6133	6.	0.	4.7416
8891	9.4289	6.	0.	4.5659
8892	9.2444	6.	0.	4.3843
8893	9.06	6.	0.	4.1967
8894	8.8756	6.	0.	4.0032
8895	8.6911	6.	0.	3.8039
8896	8.5067	6.	0.	3.5991
8897	8.3222	6.	0.	3.3893
8898	8.1378	6.	0.	3.1752
8899	7.9533	6.	0.	2.9576
8900	7.7689	6.	0.	2.7379
8901	7.5844	6.	0.	2.5178
8902	7.4	6.	0.	2.2991
8903	7.2156	6.	0.	2.0845
8904	7.0311	6.	0.	1.8772
8905	6.8467	6.	0.	1.6809
8906	6.6622	6.	0.	1.5002
8907	6.4778	6.	0.	1.3406
8908	6.2933	6.	0.	1.2085
8909	6.1089	6.	0.	1.1115
8910	5.9244	6.	0.	1.0583
8911	5.74	6.	0.	1.0591
8912	5.5556	6.	0.	1.1253
8913	5.3711	6.	0.	1.2704
8914	5.1867	6.	0.	1.5105
8915	5.0022	6.	0.	1.864
8916	4.8178	6.	0.	2.3531
8917	4.6333	6.	0.	3.004
8918	4.4489	6.	0.	3.8478
8919	4.2644	6.	0.	4.9214
8920	4.08	6.	0.	6.2677
8921	3.8956	6.	0.	7.9351
8922	3.7111	6.	0.	9.9738
8923	3.5267	6.	0.	12.428
8924	3.3422	6.	0.	15.318
8925	3.1578	6.	0.	18.612
8926	2.9733	6.	0.	22.181
8927	2.7889	6.	0.	25.698
8928	2.6044	6.	0.	28.616
8929	2.42	6.	0.	29.677
8930	2.2356	6.	0.	27.87
8931	2.0511	6.	0.	24.611
8932	1.8667	6.	0.	15.796
8933	1.7	4.1818	0.	6087.9
8934	1.7	4.3636	0.	2457.7
8935	1.7	4.5455	0.	1919.8
8936	1.7	4.7273	0.	1355.6
8937	1.7	4.9091	0.	998.82
8938	1.7	5.0909	0.	735.27
8939	1.7	5.2727	0.	531.81
8940	1.7	5.4545	0.	366.41
8941	1.7	5.6364	0.	225.7
8942	1.7	5.8182	0.	104.21
8943	1.7	4.	0.	3962.5
8944	1.8667	5.8182	0.	110.68
8945	1.8667	5.6364	0.	281.1
8946	1.8667	5.4545	0.	485.56
8947	1.8667	5.2727	0.	727.88
8948	1.8667	5.0909	0.	1017.9
8949	1.8667	4.9091	0.	1374.8
8950	1.8667	4.7273	0.	1834.6
8951	1.8667	4.5455	0.	2497.1
8952	1.8667	4.3636	0.	3228.9
8953	1.8667	4.1818	0.	6984.9
8954	1.8667	4.	0.	5085.
8955	1.7	1.8182	0.	6087.9
8956	1.7	1.6364	0.	2457.8
8957	1.7	1.4545	0.	1919.8
8958	1.7	1.2727	0.	1355.6
8959	1.7	1.0909	0.	998.82
8960	1.7	0.90909	0.	735.27
8961	1.7	0.72727	0.	531.81
8962	1.7	0.54545	0.	366.41
8963	1.7	0.36364	0.	225.7
8964	1.7	0.18182	0.	104.21
8965	1.7	2.	0.	3962.5
8966	1.8667	0.18182	0.	110.68
8967	1.8667	0.36364	0.	281.1
8968	1.8667	0.54545	0.	485.56
8969	1.8667	0.72727	0.	727.88
8970	1.8667	0.90909	0.	1017.9
8971	1.8667	1.0909	0.	1374.8
8972	1.8667	1.2727	0.	1834.6
8973	1.8667	1.4545	0.	2497.1
8974	1.8667	1.6364	0.	3228.9
8975	1.8667	1.8182	0.	6984.9
8976	1.8667	2.	0.	5085.
8977	1.445	2.	0.	1176.7
8978	1.53	1.9091	0.	3053.8
8979	1.53	2.0909	0.	1107.4
8980	1.53	2.	5.e-002	1063.9
8981	1.615	2.	0.	2320.
8982	1.275	2.	0.	60.987
8983	1.36	1.9091	0.	480.24
8984	1.36	2.0909	0.	92.697
8985	1.36	2.	5.e-002	173.94
8986	1.105	2.	0.	-1.829
8987	1.19	1.9091	0.	-2.0419
8988	1.19	2.0909	0.	-9.5064
8989	1.19	2.	5.e-002	109.2
8990	0.935	2.	0.	6.4218
8991	1.02	1.9091	0.	5.4375
8992	1.02	2.0909	0.	7.038
8993	1.02	2.	5.e-002	72.109
8994	0.765	2.	0.	-4.8816
8995	0.85	1.9091	0.	6.1042
8996	0.85	2.0909	0.	6.0414
8997	0.85	2.	5.e-002	55.429
8998	0.595	2.	0.	27.81
8999	0.68	1.9091	0.	-15.419
9000	0.68	2.0909	0.	-16.204
9001	0.68	2.	5.e-002	46.676
9002	0.425	2.	0.	-101.96
9003	0.51	1.9091	0.	69.65
9004	0.51	2.0909	0.	73.07
9005	0.51	2.	5.e-002	42.459
9006	0.255	2.	0.	408.44
9007	0.34	1.9091	0.	-268.34
9008	0.34	2.0909	0.	-281.9
9009	0.34	2.	5.e-002	41.971
9010	0.17	1.9091	0.	1064.7
9011	0.17	2.0909	0.	1118.2
9012	0.17	2.	5.e-002	40.486
9013	8.5e-002	2.	0.	-1526.6
9014	1.8667	2.2727	0.	1078.8
9015	1.7833	2.1818	0.	980.64
9016	1.9589	2.1818	0.	1021.9
9017	1.8667	2.1818	5.e-002	739.25
9018	1.8667	2.0909	0.	2963.
9019	1.8667	2.4545	0.	609.47
9020	1.7833	2.3636	0.	651.86
9021	1.9589	2.3636	0.	623.92
9022	1.8667	2.3636	5.e-002	145.77
9023	1.8667	2.6364	0.	315.74
9024	1.7833	2.5455	0.	318.1
9025	1.9589	2.5455	0.	324.42
9026	1.8667	2.5455	5.e-002	83.357
9027	1.8667	2.8182	0.	164.21
9028	1.7833	2.7273	0.	127.05
9029	1.9589	2.7273	0.	167.39
9030	1.8667	2.7273	5.e-002	53.652
9031	1.8667	3.	0.	116.16
9032	1.7833	2.9091	0.	35.239
9033	1.9589	2.9091	0.	91.266
9034	1.8667	2.9091	5.e-002	43.612
9035	1.8667	3.1818	0.	164.21
9036	1.7833	3.0909	0.	35.239
9037	1.9589	3.0909	0.	91.266
9038	1.8667	3.0909	5.e-002	43.612
9039	1.8667	3.3636	0.	315.73
9040	1.7833	3.2727	0.	127.05
9041	1.9589	3.2727	0.	167.39
9042	1.8667	3.2727	5.e-002	53.651
9043	1.8667	3.5455	0.	609.47
9044	1.7833	3.4545	0.	318.1
9045	1.9589	3.4545	0.	324.42
9046	1.8667	3.4545	5.e-002	83.356
9047	1.8667	3.7273	0.	1078.8
9048	1.7833	3.6364	0.	651.86
9049	1.9589	3.6364	0.	623.92
9050	1.8667	3.6364	5.e-002	145.77
9051	1.7833	3.8182	0.	980.64
9052	1.9589	3.8182	0.	1021.9
9053	1.8667	3.8182	5.e-002	739.25
9054	1.8667	3.9091	0.	2963.
9055	1.445	4.	0.	1176.7
9056	1.53	3.9091	0.	1107.4
9057	1.53	4.0909	0.	3053.8
9058	1.53	4.	5.e-002	1063.9
9059	1.615	4.	0.	2320.
9060	1.275	4.	0.	60.987
9061	1.36	3.9091	0.	92.697
9062	1.36	4.0909	0.	480.24
9063	1.36	4.	5.e-002	173.94
9064	1.105	4.	0.	-1.829
9065	1.19	3.9091	0.	-9.5064
9066	1.19	4.0909	0.	-2.0419
9067	1.19	4.	5.e-002	109.19
9068	0.935	4.	0.	6.4218
9069	1.02	3.9091	0.	7.038
9070	1.02	4.0909	0.	5.4375
9071	1.02	4.	5.e-002	72.109
9072	0.765	4.	0.	-4.8816
9073	0.85	3.9091	0.	6.0414
9074	0.85	4.0909	0.	6.1042
9075	0.85	4.	5.e-002	55.429
9076	0.595	4.	0.	27.81
9077	0.68	3.9091	0.	-16.204
9078	0.68	4.0909	0.	-15.419
9079	0.68	4.	5.e-002	46.676
9080	0.425	4.	0.	-101.96
9081	0.51	3.9091	0.	73.07
9082	0.51	4.0909	0.	69.65
9083	0.51	4.	5.e-002	42.459
9084	0.255	4.	0.	408.44
9085	0.34	3.9091	0.	-281.9
9086	0.34	4.0909	0.	-268.34
9087	0.34	4.	5.e-002	41.971
9088	0.17	3.9091	0.	1118.2
9089	0.17	4.0909	0.	1064.7
9090	0.17	4.	5.e-002	40.486
9091	8.5e-002	4.	0.	-1526.6
9092	0.17	0.27273	0.	310.06
9093	0.255	0.18182	0.	184.99
9094	0.17	0.18182	5.e-002	126.84
9095	0.17	9.0909e-002	0.	202.74
9096	8.5e-002	0.18182	0.	-215.01
9097	0.17	0.45455	0.	494.41
9098	0.255	0.36364	0.	170.53
9099	0.17	0.36364	5.e-002	92.751
9100	8.5e-002	0.36364	0.	-585.68
9101	0.17	0.63636	0.	599.96
9102	0.255	0.54545	0.	209.85
9103	0.17	0.54545	5.e-002	74.908
9104	8.5e-002	0.54545	0.	-765.68
9105	0.17	0.81818	0.	683.16
9106	0.255	0.72727	0.	242.96
9107	0.17	0.72727	5.e-002	66.164
9108	8.5e-002	0.72727	0.	-893.04
9109	0.17	1.	0.	755.29
9110	0.255	0.90909	0.	270.34
9111	0.17	0.90909	5.e-002	61.8
9112	8.5e-002	0.90909	0.	-1000.5
9113	0.17	1.1818	0.	822.77
9114	0.255	1.0909	0.	295.91
9115	0.17	1.0909	5.e-002	58.502
9116	8.5e-002	1.0909	0.	-1098.5
9117	0.17	1.3636	0.	887.19
9118	0.255	1.2727	0.	320.27
9119	0.17	1.2727	5.e-002	55.488
9120	8.5e-002	1.2727	0.	-1191.7
9121	0.17	1.5455	0.	949.01
9122	0.255	1.4545	0.	343.75
9123	0.17	1.4545	5.e-002	52.243
9124	8.5e-002	1.4545	0.	-1281.
9125	0.17	1.7273	0.	1008.2
9126	0.255	1.6364	0.	366.3
9127	0.17	1.6364	5.e-002	48.62
9128	8.5e-002	1.6364	0.	-1366.8
9129	0.255	1.8182	0.	387.87
9130	0.17	1.8182	5.e-002	44.688
9131	8.5e-002	1.8182	0.	-1448.7
9132	0.34	0.27273	0.	-31.046
9133	0.425	0.18182	0.	212.87
9134	0.34	0.18182	5.e-002	52.835
9135	0.34	9.0909e-002	0.	186.75
9136	0.34	0.45455	0.	-114.04
9137	0.425	0.36364	0.	-27.161
9138	0.34	0.36364	5.e-002	67.13
9139	0.34	0.63636	0.	-146.85
9140	0.425	0.54545	0.	-47.061
9141	0.34	0.54545	5.e-002	64.072
9142	0.34	0.81818	0.	-169.59
9143	0.425	0.72727	0.	-57.592
9144	0.34	0.72727	5.e-002	62.972
9145	0.34	1.	0.	-188.83
9146	0.425	0.90909	0.	-65.67
9147	0.34	0.90909	5.e-002	61.895
9148	0.34	1.1818	0.	-206.43
9149	0.425	1.0909	0.	-72.732
9150	0.34	1.0909	5.e-002	60.589
9151	0.34	1.3636	0.	-223.03
9152	0.425	1.2727	0.	-79.239
9153	0.34	1.2727	5.e-002	58.629
9154	0.34	1.5455	0.	-238.86
9155	0.425	1.4545	0.	-85.368
9156	0.34	1.4545	5.e-002	55.856
9157	0.34	1.7273	0.	-253.97
9158	0.425	1.6364	0.	-91.181
9159	0.34	1.6364	5.e-002	52.176
9160	0.425	1.8182	0.	-96.71
9161	0.34	1.8182	5.e-002	47.548
9162	0.51	0.27273	0.	67.277
9163	0.595	0.18182	0.	228.13
9164	0.51	0.18182	5.e-002	42.017
9165	0.51	9.0909e-002	0.	173.94
9166	0.51	0.45455	0.	36.741
9167	0.595	0.36364	0.	23.961
9168	0.51	0.36364	5.e-002	49.803
9169	0.51	0.63636	0.	41.847
9170	0.595	0.54545	0.	18.399
9171	0.51	0.54545	5.e-002	56.095
9172	0.51	0.81818	0.	46.25
9173	0.595	0.72727	0.	18.781
9174	0.51	0.72727	5.e-002	59.087
9175	0.51	1.	0.	50.411
9176	0.595	0.90909	0.	19.757
9177	0.51	0.90909	5.e-002	60.494
9178	0.51	1.1818	0.	54.449
9179	0.595	1.0909	0.	20.944
9180	0.51	1.0909	5.e-002	60.597
9181	0.51	1.3636	0.	58.416
9182	0.595	1.2727	0.	22.235
9183	0.51	1.2727	5.e-002	59.524
9184	0.51	1.5455	0.	62.301
9185	0.595	1.4545	0.	23.615
9186	0.51	1.4545	5.e-002	57.249
9187	0.51	1.7273	0.	66.058
9188	0.595	1.6364	0.	25.041
9189	0.51	1.6364	5.e-002	53.711
9190	0.595	1.8182	0.	26.435
9191	0.51	1.8182	5.e-002	48.792
9192	0.68	0.27273	0.	90.712
9193	0.765	0.18182	0.	224.97
9194	0.68	0.18182	5.e-002	51.756
9195	0.68	9.0909e-002	0.	157.67
9196	0.68	0.45455	0.	2.035
9197	0.765	0.36364	0.	25.054
9198	0.68	0.36364	5.e-002	46.455
9199	0.68	0.63636	0.	-4.7445
9200	0.765	0.54545	0.	4.681
9201	0.68	0.54545	5.e-002	54.099
9202	0.68	0.81818	0.	-7.5822
9203	0.765	0.72727	0.	1.1678
9204	0.68	0.72727	5.e-002	59.11
9205	0.68	1.	0.	-9.5667
9206	0.765	0.90909	0.	-0.6225
9207	0.68	0.90909	5.e-002	62.044
9208	0.68	1.1818	0.	-11.148
9209	0.765	1.0909	0.	-1.8087
9210	0.68	1.0909	5.e-002	63.395
9211	0.68	1.3636	0.	-12.478
9212	0.765	1.2727	0.	-2.7035
9213	0.68	1.2727	5.e-002	63.252
9214	0.68	1.5455	0.	-13.594
9215	0.765	1.4545	0.	-3.4202
9216	0.68	1.4545	5.e-002	61.59
9217	0.68	1.7273	0.	-14.568
9218	0.765	1.6364	0.	-4.0458
9219	0.68	1.6364	5.e-002	58.312
9220	0.765	1.8182	0.	-4.3902
9221	0.68	1.8182	5.e-002	53.332
9222	0.85	0.27273	0.	114.44
9223	0.935	0.18182	0.	215.12
9224	0.85	0.18182	5.e-002	62.942
9225	0.85	9.0909e-002	0.	143.36
9226	0.85	0.45455	0.	18.541
9227	0.935	0.36364	0.	45.54
9228	0.85	0.36364	5.e-002	50.848
9229	0.85	0.63636	0.	10.539
9230	0.935	0.54545	0.	15.57
9231	0.85	0.54545	5.e-002	56.757
9232	0.85	0.81818	0.	8.5074
9233	0.935	0.72727	0.	10.577
9234	0.85	0.72727	5.e-002	61.813
9235	0.85	1.	0.	7.5392
9236	0.935	0.90909	0.	8.5511
9237	0.85	0.90909	5.e-002	65.521
9238	0.85	1.1818	0.	6.9898
9239	0.935	1.0909	0.	7.4153
9240	0.85	1.0909	5.e-002	67.964
9241	0.85	1.3636	0.	6.6205
9242	0.935	1.2727	0.	6.4348
9243	0.85	1.2727	5.e-002	68.95
9244	0.85	1.5455	0.	6.2799
9245	0.935	1.4545	0.	5.485
9246	0.85	1.4545	5.e-002	68.071
9247	0.85	1.7273	0.	6.1692
9248	0.935	1.6364	0.	5.654
9249	0.85	1.6364	5.e-002	65.386
9250	0.935	1.8182	0.	5.1964
9251	0.85	1.8182	5.e-002	61.167
9252	1.02	0.27273	0.	122.54
9253	1.105	0.18182	0.	195.87
9254	1.02	0.18182	5.e-002	72.902
9255	1.02	9.0909e-002	0.	124.46
9256	1.02	0.45455	0.	32.464
9257	1.105	0.36364	0.	64.091
9258	1.02	0.36364	5.e-002	58.526
9259	1.02	0.63636	0.	17.602
9260	1.105	0.54545	0.	34.607
9261	1.02	0.54545	5.e-002	62.398
9262	1.02	0.81818	0.	13.366
9263	1.105	0.72727	0.	28.586
9264	1.02	0.72727	5.e-002	66.91
9265	1.02	1.	0.	11.245
9266	1.105	0.90909	0.	27.834
9267	1.02	0.90909	5.e-002	71.278
9268	1.02	1.1818	0.	9.4943
9269	1.105	1.0909	0.	28.619
9270	1.02	1.0909	5.e-002	75.324
9271	1.02	1.3636	0.	7.4218
9272	1.105	1.2727	0.	28.094
9273	1.02	1.2727	5.e-002	78.216
9274	1.02	1.5455	0.	6.1462
9275	1.105	1.4545	0.	23.042
9276	1.02	1.4545	5.e-002	79.337
9277	1.02	1.7273	0.	5.093
9278	1.105	1.6364	0.	10.866
9279	1.02	1.6364	5.e-002	77.977
9280	1.105	1.8182	0.	5.1225
9281	1.02	1.8182	5.e-002	74.571
9282	1.19	0.27273	0.	124.03
9283	1.275	0.18182	0.	171.23
9284	1.19	0.18182	5.e-002	81.281
9285	1.19	9.0909e-002	0.	98.568
9286	1.19	0.45455	0.	67.843
9287	1.275	0.36364	0.	93.522
9288	1.19	0.36364	5.e-002	66.831
9289	1.19	0.63636	0.	67.736
9290	1.275	0.54545	0.	112.21
9291	1.19	0.54545	5.e-002	68.936
9292	1.19	0.81818	0.	87.252
9293	1.275	0.72727	0.	173.69
9294	1.19	0.72727	5.e-002	73.055
9295	1.19	1.	0.	121.1
9296	1.275	0.90909	0.	266.84
9297	1.19	0.90909	5.e-002	78.584
9298	1.19	1.1818	0.	159.17
9299	1.275	1.0909	0.	383.11
9300	1.19	1.0909	5.e-002	85.421
9301	1.19	1.3636	0.	173.3
9302	1.275	1.2727	0.	510.06
9303	1.19	1.2727	5.e-002	93.292
9304	1.19	1.5455	0.	115.06
9305	1.275	1.4545	0.	609.03
9306	1.19	1.4545	5.e-002	98.012
9307	1.19	1.7273	0.	25.844
9308	1.275	1.6364	0.	583.44
9309	1.19	1.6364	5.e-002	101.11
9310	1.275	1.8182	0.	320.66
9311	1.19	1.8182	5.e-002	100.62
9312	1.36	0.27273	0.	137.8
9313	1.445	0.18182	0.	172.02
9314	1.36	0.18182	5.e-002	88.688
9315	1.36	9.0909e-002	0.	68.703
9316	1.36	0.45455	0.	157.2
9317	1.445	0.36364	0.	204.02
9318	1.36	0.36364	5.e-002	74.505
9319	1.36	0.63636	0.	258.89
9320	1.445	0.54545	0.	350.8
9321	1.36	0.54545	5.e-002	75.251
9322	1.36	0.81818	0.	404.15
9323	1.445	0.72727	0.	547.36
9324	1.36	0.72727	5.e-002	79.44
9325	1.36	1.	0.	581.66
9326	1.445	0.90909	0.	783.85
9327	1.36	0.90909	5.e-002	86.79
9328	1.36	1.1818	0.	788.69
9329	1.445	1.0909	0.	1068.6
9330	1.36	1.0909	5.e-002	98.074
9331	1.36	1.3636	0.	1005.9
9332	1.445	1.2727	0.	1418.8
9333	1.36	1.2727	5.e-002	112.41
9334	1.36	1.5455	0.	1153.2
9335	1.445	1.4545	0.	1826.6
9336	1.36	1.4545	5.e-002	140.07
9337	1.36	1.7273	0.	1080.4
9338	1.445	1.6364	0.	2324.6
9339	1.36	1.6364	5.e-002	149.25
9340	1.445	1.8182	0.	2460.8
9341	1.36	1.8182	5.e-002	203.36
9342	1.53	0.27273	0.	259.06
9343	1.53	0.18182	5.e-002	104.83
9344	1.53	9.0909e-002	0.	76.127
9345	1.615	0.18182	0.	80.795
9346	1.53	0.45455	0.	435.04
9347	1.53	0.36364	5.e-002	95.02
9348	1.615	0.36364	0.	198.92
9349	1.53	0.63636	0.	676.75
9350	1.53	0.54545	5.e-002	101.26
9351	1.615	0.54545	0.	371.24
9352	1.53	0.81818	0.	963.64
9353	1.53	0.72727	5.e-002	112.48
9354	1.615	0.72727	0.	570.57
9355	1.53	1.	0.	1309.6
9356	1.53	0.90909	5.e-002	128.36
9357	1.615	0.90909	0.	807.91
9358	1.53	1.1818	0.	1744.2
9359	1.53	1.0909	5.e-002	150.3
9360	1.615	1.0909	0.	1104.6
9361	1.53	1.3636	0.	2296.7
9362	1.53	1.2727	5.e-002	183.47
9363	1.615	1.2727	0.	1491.5
9364	1.53	1.5455	0.	3083.6
9365	1.53	1.4545	5.e-002	228.61
9366	1.615	1.4545	0.	2042.8
9367	1.53	1.7273	0.	3764.4
9368	1.53	1.6364	5.e-002	323.57
9369	1.615	1.6364	0.	2676.4
9370	1.53	1.8182	5.e-002	645.43
9371	1.615	1.8182	0.	4520.4
9372	1.615	2.1818	0.	620.03
9373	1.7	2.2727	0.	813.82
9374	1.7	2.1818	5.e-002	603.99
9375	1.7	2.0909	0.	2299.8
9376	1.445	2.1818	0.	151.71
9377	1.53	2.2727	0.	246.8
9378	1.53	2.1818	5.e-002	516.29
9379	1.275	2.1818	0.	28.892
9380	1.36	2.2727	0.	32.378
9381	1.36	2.1818	5.e-002	242.01
9382	1.105	2.1818	0.	-1.0162e-002
9383	1.19	2.2727	0.	1.6552
9384	1.19	2.1818	5.e-002	111.13
9385	0.935	2.1818	0.	6.8516
9386	1.02	2.2727	0.	4.7985
9387	1.02	2.1818	5.e-002	70.025
9388	0.765	2.1818	0.	-5.2156
9389	0.85	2.2727	0.	6.7326
9390	0.85	2.1818	5.e-002	49.432
9391	0.595	2.1818	0.	29.083
9392	0.68	2.2727	0.	-17.073
9393	0.68	2.1818	5.e-002	39.225
9394	0.425	2.1818	0.	-106.85
9395	0.51	2.2727	0.	76.293
9396	0.51	2.1818	5.e-002	35.064
9397	0.255	2.1818	0.	427.82
9398	0.34	2.2727	0.	-294.39
9399	0.34	2.1818	5.e-002	35.522
9400	0.17	2.2727	0.	1167.6
9401	0.17	2.1818	5.e-002	35.843
9402	8.5e-002	2.1818	0.	-1599.6
9403	1.615	2.3636	0.	307.26
9404	1.7	2.4545	0.	435.22
9405	1.7	2.3636	5.e-002	114.3
9406	1.445	2.3636	0.	1.7636
9407	1.53	2.4545	0.	31.959
9408	1.53	2.3636	5.e-002	188.79
9409	1.275	2.3636	0.	3.6525
9410	1.36	2.4545	0.	1.399
9411	1.36	2.3636	5.e-002	152.39
9412	1.105	2.3636	0.	6.6739
9413	1.19	2.4545	0.	7.1278
9414	1.19	2.3636	5.e-002	106.01
9415	0.935	2.3636	0.	4.7557
9416	1.02	2.4545	0.	1.8888
9417	1.02	2.3636	5.e-002	66.772
9418	0.765	2.3636	0.	-5.0831
9419	0.85	2.4545	0.	7.3964
9420	0.85	2.3636	5.e-002	45.011
9421	0.595	2.3636	0.	30.159
9422	0.68	2.4545	0.	-17.875
9423	0.68	2.3636	5.e-002	32.562
9424	0.425	2.3636	0.	-111.23
9425	0.51	2.4545	0.	79.143
9426	0.51	2.3636	5.e-002	27.374
9427	0.255	2.3636	0.	445.43
9428	0.34	2.4545	0.	-305.28
9429	0.34	2.3636	5.e-002	28.405
9430	0.17	2.4545	0.	1211.
9431	0.17	2.3636	5.e-002	30.481
9432	8.5e-002	2.3636	0.	-1665.6
9433	1.615	2.5455	0.	46.394
9434	1.7	2.6364	0.	150.06
9435	1.7	2.5455	5.e-002	42.058
9436	1.445	2.5455	0.	9.3704
9437	1.53	2.6364	0.	5.0204
9438	1.53	2.5455	5.e-002	93.062
9439	1.275	2.5455	0.	3.9604
9440	1.36	2.6364	0.	2.5977
9441	1.36	2.5455	5.e-002	101.53
9442	1.105	2.5455	0.	2.2015
9443	1.19	2.6364	0.	2.4707
9444	1.19	2.5455	5.e-002	81.187
9445	0.935	2.5455	0.	4.5229
9446	1.02	2.6364	0.	1.246
9447	1.02	2.5455	5.e-002	59.784
9448	0.765	2.5455	0.	-5.3855
9449	0.85	2.6364	0.	7.3171
9450	0.85	2.5455	5.e-002	41.438
9451	0.595	2.5455	0.	31.12
9452	0.68	2.6364	0.	-18.444
9453	0.68	2.5455	5.e-002	27.715
9454	0.425	2.5455	0.	-114.9
9455	0.51	2.6364	0.	81.382
9456	0.51	2.5455	5.e-002	20.186
9457	0.255	2.5455	0.	460.32
9458	0.34	2.6364	0.	-313.87
9459	0.34	2.5455	5.e-002	20.932
9460	0.17	2.6364	0.	1245.4
9461	0.17	2.5455	5.e-002	24.341
9462	8.5e-002	2.5455	0.	-1721.
9463	1.615	2.7273	0.	-3.9159
9464	1.7	2.8182	0.	9.7015
9465	1.7	2.7273	5.e-002	19.878
9466	1.445	2.7273	0.	-2.7771
9467	1.53	2.8182	0.	-3.9828
9468	1.53	2.7273	5.e-002	44.769
9469	1.275	2.7273	0.	0.96243
9470	1.36	2.8182	0.	-0.52798
9471	1.36	2.7273	5.e-002	62.982
9472	1.105	2.7273	0.	1.4592
9473	1.19	2.8182	0.	1.6246
9474	1.19	2.7273	5.e-002	62.53
9475	0.935	2.7273	0.	4.0208
9476	1.02	2.8182	0.	0.59414
9477	1.02	2.7273	5.e-002	51.848
9478	0.765	2.7273	0.	-5.7452
9479	0.85	2.8182	0.	7.1528
9480	0.85	2.7273	5.e-002	38.184
9481	0.595	2.7273	0.	31.82
9482	0.68	2.8182	0.	-18.824
9483	0.68	2.7273	5.e-002	24.554
9484	0.425	2.7273	0.	-117.59
9485	0.51	2.8182	0.	82.819
9486	0.51	2.7273	5.e-002	14.133
9487	0.255	2.7273	0.	471.22
9488	0.34	2.8182	0.	-319.41
9489	0.34	2.7273	5.e-002	13.541
9490	0.17	2.8182	0.	1267.6
9491	0.17	2.7273	5.e-002	17.958
9492	8.5e-002	2.7273	0.	-1761.5
9493	1.615	2.9091	0.	-3.1682
9494	1.7	3.	0.	-4.0583
9495	1.7	2.9091	5.e-002	7.7257
9496	1.445	2.9091	0.	-1.6767
9497	1.53	3.	0.	-2.5451
9498	1.53	2.9091	5.e-002	27.602
9499	1.275	2.9091	0.	0.15322
9500	1.36	3.	0.	-0.90199
9501	1.36	2.9091	5.e-002	46.799
9502	1.105	2.9091	0.	0.75484
9503	1.19	3.	0.	1.172
9504	1.19	2.9091	5.e-002	52.103
9505	0.935	2.9091	0.	3.7178
9506	1.02	3.	0.	0.33012
9507	1.02	2.9091	5.e-002	46.942
9508	0.765	2.9091	0.	-5.9314
9509	0.85	3.	0.	7.1088
9510	0.85	2.9091	5.e-002	36.137
9511	0.595	2.9091	0.	32.174
9512	0.68	3.	0.	-18.967
9513	0.68	2.9091	5.e-002	22.947
9514	0.425	2.9091	0.	-119.01
9515	0.51	3.	0.	83.316
9516	0.51	2.9091	5.e-002	10.18
9517	0.255	2.9091	0.	477.01
9518	0.34	3.	0.	-321.33
9519	0.34	2.9091	5.e-002	7.3849
9520	0.17	3.	0.	1275.3
9521	0.17	2.9091	5.e-002	13.087
9522	8.5e-002	2.9091	0.	-1782.9
9523	1.615	3.0909	0.	-3.1682
9524	1.7	3.1818	0.	9.7013
9525	1.7	3.0909	5.e-002	7.7256
9526	1.445	3.0909	0.	-1.6767
9527	1.53	3.1818	0.	-3.9828
9528	1.53	3.0909	5.e-002	27.602
9529	1.275	3.0909	0.	0.15322
9530	1.36	3.1818	0.	-0.52799
9531	1.36	3.0909	5.e-002	46.799
9532	1.105	3.0909	0.	0.75484
9533	1.19	3.1818	0.	1.6246
9534	1.19	3.0909	5.e-002	52.102
9535	0.935	3.0909	0.	3.7178
9536	1.02	3.1818	0.	0.59414
9537	1.02	3.0909	5.e-002	46.942
9538	0.765	3.0909	0.	-5.9314
9539	0.85	3.1818	0.	7.1528
9540	0.85	3.0909	5.e-002	36.137
9541	0.595	3.0909	0.	32.174
9542	0.68	3.1818	0.	-18.824
9543	0.68	3.0909	5.e-002	22.947
9544	0.425	3.0909	0.	-119.01
9545	0.51	3.1818	0.	82.819
9546	0.51	3.0909	5.e-002	10.18
9547	0.255	3.0909	0.	477.01
9548	0.34	3.1818	0.	-319.41
9549	0.34	3.0909	5.e-002	7.3847
9550	0.17	3.1818	0.	1267.6
9551	0.17	3.0909	5.e-002	13.087
9552	8.5e-002	3.0909	0.	-1782.9
9553	1.615	3.2727	0.	-3.9159
9554	1.7	3.3636	0.	150.06
9555	1.7	3.2727	5.e-002	19.878
9556	1.445	3.2727	0.	-2.7771
9557	1.53	3.3636	0.	5.0204
9558	1.53	3.2727	5.e-002	44.769
9559	1.275	3.2727	0.	0.96243
9560	1.36	3.3636	0.	2.5977
9561	1.36	3.2727	5.e-002	62.981
9562	1.105	3.2727	0.	1.4592
9563	1.19	3.3636	0.	2.4707
9564	1.19	3.2727	5.e-002	62.529
9565	0.935	3.2727	0.	4.0208
9566	1.02	3.3636	0.	1.246
9567	1.02	3.2727	5.e-002	51.848
9568	0.765	3.2727	0.	-5.7452
9569	0.85	3.3636	0.	7.3171
9570	0.85	3.2727	5.e-002	38.184
9571	0.595	3.2727	0.	31.82
9572	0.68	3.3636	0.	-18.444
9573	0.68	3.2727	5.e-002	24.554
9574	0.425	3.2727	0.	-117.59
9575	0.51	3.3636	0.	81.382
9576	0.51	3.2727	5.e-002	14.134
9577	0.255	3.2727	0.	471.22
9578	0.34	3.3636	0.	-313.87
9579	0.34	3.2727	5.e-002	13.541
9580	0.17	3.3636	0.	1245.4
9581	0.17	3.2727	5.e-002	17.957
9582	8.5e-002	3.2727	0.	-1761.5
9583	1.615	3.4545	0.	46.394
9584	1.7	3.5455	0.	435.22
9585	1.7	3.4545	5.e-002	42.058
9586	1.445	3.4545	0.	9.3704
9587	1.53	3.5455	0.	31.959
9588	1.53	3.4545	5.e-002	93.062
9589	1.275	3.4545	0.	3.9604
9590	1.36	3.5455	0.	1.399
9591	1.36	3.4545	5.e-002	101.53
9592	1.105	3.4545	0.	2.2015
9593	1.19	3.5455	0.	7.1278
9594	1.19	3.4545	5.e-002	81.187
9595	0.935	3.4545	0.	4.5229
9596	1.02	3.5455	0.	1.8888
9597	1.02	3.4545	5.e-002	59.784
9598	0.765	3.4545	0.	-5.3855
9599	0.85	3.5455	0.	7.3964
9600	0.85	3.4545	5.e-002	41.437
9601	0.595	3.4545	0.	31.12
9602	0.68	3.5455	0.	-17.875
9603	0.68	3.4545	5.e-002	27.715
9604	0.425	3.4545	0.	-114.9
9605	0.51	3.5455	0.	79.143
9606	0.51	3.4545	5.e-002	20.186
9607	0.255	3.4545	0.	460.32
9608	0.34	3.5455	0.	-305.28
9609	0.34	3.4545	5.e-002	20.932
9610	0.17	3.5455	0.	1211.
9611	0.17	3.4545	5.e-002	24.341
9612	8.5e-002	3.4545	0.	-1721.
9613	1.615	3.6364	0.	307.26
9614	1.7	3.7273	0.	813.82
9615	1.7	3.6364	5.e-002	114.3
9616	1.445	3.6364	0.	1.7636
9617	1.53	3.7273	0.	246.8
9618	1.53	3.6364	5.e-002	188.78
9619	1.275	3.6364	0.	3.6525
9620	1.36	3.7273	0.	32.378
9621	1.36	3.6364	5.e-002	152.39
9622	1.105	3.6364	0.	6.6739
9623	1.19	3.7273	0.	1.6552
9624	1.19	3.6364	5.e-002	106.01
9625	0.935	3.6364	0.	4.7557
9626	1.02	3.7273	0.	4.7985
9627	1.02	3.6364	5.e-002	66.771
9628	0.765	3.6364	0.	-5.0831
9629	0.85	3.7273	0.	6.7326
9630	0.85	3.6364	5.e-002	45.011
9631	0.595	3.6364	0.	30.159
9632	0.68	3.7273	0.	-17.073
9633	0.68	3.6364	5.e-002	32.562
9634	0.425	3.6364	0.	-111.23
9635	0.51	3.7273	0.	76.293
9636	0.51	3.6364	5.e-002	27.374
9637	0.255	3.6364	0.	445.43
9638	0.34	3.7273	0.	-294.39
9639	0.34	3.6364	5.e-002	28.405
9640	0.17	3.7273	0.	1167.6
9641	0.17	3.6364	5.e-002	30.48
9642	8.5e-002	3.6364	0.	-1665.6
9643	1.615	3.8182	0.	620.03
9644	1.7	3.8182	5.e-002	603.99
9645	1.7	3.9091	0.	2299.8
9646	1.445	3.8182	0.	151.71
9647	1.53	3.8182	5.e-002	516.29
9648	1.275	3.8182	0.	28.892
9649	1.36	3.8182	5.e-002	242.01
9650	1.105	3.8182	0.	-1.0161e-002
9651	1.19	3.8182	5.e-002	111.13
9652	0.935	3.8182	0.	6.8516
9653	1.02	3.8182	5.e-002	70.024
9654	0.765	3.8182	0.	-5.2156
9655	0.85	3.8182	5.e-002	49.431
9656	0.595	3.8182	0.	29.083
9657	0.68	3.8182	5.e-002	39.225
9658	0.425	3.8182	0.	-106.85
9659	0.51	3.8182	5.e-002	35.064
9660	0.255	3.8182	0.	427.82
9661	0.34	3.8182	5.e-002	35.522
9662	0.17	3.8182	5.e-002	35.843
9663	8.5e-002	3.8182	0.	-1599.6
9664	1.445	4.1818	0.	2460.8
9665	1.53	4.2727	0.	3764.4
9666	1.53	4.1818	5.e-002	645.43
9667	1.615	4.1818	0.	4520.4
9668	1.275	4.1818	0.	320.66
9669	1.36	4.2727	0.	1080.4
9670	1.36	4.1818	5.e-002	203.36
9671	1.105	4.1818	0.	5.1225
9672	1.19	4.2727	0.	25.844
9673	1.19	4.1818	5.e-002	100.62
9674	0.935	4.1818	0.	5.1964
9675	1.02	4.2727	0.	5.093
9676	1.02	4.1818	5.e-002	74.571
9677	0.765	4.1818	0.	-4.3902
9678	0.85	4.2727	0.	6.1692
9679	0.85	4.1818	5.e-002	61.167
9680	0.595	4.1818	0.	26.435
9681	0.68	4.2727	0.	-14.568
9682	0.68	4.1818	5.e-002	53.332
9683	0.425	4.1818	0.	-96.71
9684	0.51	4.2727	0.	66.058
9685	0.51	4.1818	5.e-002	48.792
9686	0.255	4.1818	0.	387.87
9687	0.34	4.2727	0.	-253.97
9688	0.34	4.1818	5.e-002	47.548
9689	0.17	4.2727	0.	1008.2
9690	0.17	4.1818	5.e-002	44.688
9691	8.5e-002	4.1818	0.	-1448.7
9692	1.445	4.3636	0.	2324.6
9693	1.53	4.4545	0.	3083.6
9694	1.53	4.3636	5.e-002	323.57
9695	1.615	4.3636	0.	2676.4
9696	1.275	4.3636	0.	583.44
9697	1.36	4.4545	0.	1153.2
9698	1.36	4.3636	5.e-002	149.25
9699	1.105	4.3636	0.	10.866
9700	1.19	4.4545	0.	115.06
9701	1.19	4.3636	5.e-002	101.11
9702	0.935	4.3636	0.	5.654
9703	1.02	4.4545	0.	6.1462
9704	1.02	4.3636	5.e-002	77.977
9705	0.765	4.3636	0.	-4.0458
9706	0.85	4.4545	0.	6.2799
9707	0.85	4.3636	5.e-002	65.386
9708	0.595	4.3636	0.	25.041
9709	0.68	4.4545	0.	-13.594
9710	0.68	4.3636	5.e-002	58.312
9711	0.425	4.3636	0.	-91.181
9712	0.51	4.4545	0.	62.301
9713	0.51	4.3636	5.e-002	53.711
9714	0.255	4.3636	0.	366.3
9715	0.34	4.4545	0.	-238.86
9716	0.34	4.3636	5.e-002	52.176
9717	0.17	4.4545	0.	949.01
9718	0.17	4.3636	5.e-002	48.62
9719	8.5e-002	4.3636	0.	-1366.8
9720	1.445	4.5455	0.	1826.6
9721	1.53	4.6364	0.	2296.7
9722	1.53	4.5455	5.e-002	228.61
9723	1.615	4.5455	0.	2042.8
9724	1.275	4.5455	0.	609.03
9725	1.36	4.6364	0.	1005.9
9726	1.36	4.5455	5.e-002	140.07
9727	1.105	4.5455	0.	23.042
9728	1.19	4.6364	0.	173.3
9729	1.19	4.5455	5.e-002	98.012
9730	0.935	4.5455	0.	5.485
9731	1.02	4.6364	0.	7.4218
9732	1.02	4.5455	5.e-002	79.337
9733	0.765	4.5455	0.	-3.4202
9734	0.85	4.6364	0.	6.6205
9735	0.85	4.5455	5.e-002	68.071
9736	0.595	4.5455	0.	23.615
9737	0.68	4.6364	0.	-12.478
9738	0.68	4.5455	5.e-002	61.59
9739	0.425	4.5455	0.	-85.368
9740	0.51	4.6364	0.	58.416
9741	0.51	4.5455	5.e-002	57.249
9742	0.255	4.5455	0.	343.75
9743	0.34	4.6364	0.	-223.03
9744	0.34	4.5455	5.e-002	55.856
9745	0.17	4.6364	0.	887.19
9746	0.17	4.5455	5.e-002	52.243
9747	8.5e-002	4.5455	0.	-1281.
9748	1.445	4.7273	0.	1418.8
9749	1.53	4.8182	0.	1744.2
9750	1.53	4.7273	5.e-002	183.47
9751	1.615	4.7273	0.	1491.5
9752	1.275	4.7273	0.	510.06
9753	1.36	4.8182	0.	788.69
9754	1.36	4.7273	5.e-002	112.41
9755	1.105	4.7273	0.	28.094
9756	1.19	4.8182	0.	159.17
9757	1.19	4.7273	5.e-002	93.292
9758	0.935	4.7273	0.	6.4348
9759	1.02	4.8182	0.	9.4943
9760	1.02	4.7273	5.e-002	78.216
9761	0.765	4.7273	0.	-2.7035
9762	0.85	4.8182	0.	6.9898
9763	0.85	4.7273	5.e-002	68.95
9764	0.595	4.7273	0.	22.235
9765	0.68	4.8182	0.	-11.148
9766	0.68	4.7273	5.e-002	63.252
9767	0.425	4.7273	0.	-79.239
9768	0.51	4.8182	0.	54.449
9769	0.51	4.7273	5.e-002	59.524
9770	0.255	4.7273	0.	320.27
9771	0.34	4.8182	0.	-206.43
9772	0.34	4.7273	5.e-002	58.629
9773	0.17	4.8182	0.	822.77
9774	0.17	4.7273	5.e-002	55.488
9775	8.5e-002	4.7273	0.	-1191.7
9776	1.445	4.9091	0.	1068.6
9777	1.53	5.	0.	1309.6
9778	1.53	4.9091	5.e-002	150.3
9779	1.615	4.9091	0.	1104.6
9780	1.275	4.9091	0.	383.11
9781	1.36	5.	0.	581.66
9782	1.36	4.9091	5.e-002	98.074
9783	1.105	4.9091	0.	28.619
9784	1.19	5.	0.	121.1
9785	1.19	4.9091	5.e-002	85.421
9786	0.935	4.9091	0.	7.4153
9787	1.02	5.	0.	11.245
9788	1.02	4.9091	5.e-002	75.324
9789	0.765	4.9091	0.	-1.8087
9790	0.85	5.	0.	7.5392
9791	0.85	4.9091	5.e-002	67.964
9792	0.595	4.9091	0.	20.944
9793	0.68	5.	0.	-9.5667
9794	0.68	4.9091	5.e-002	63.395
9795	0.425	4.9091	0.	-72.732
9796	0.51	5.	0.	50.411
9797	0.51	4.9091	5.e-002	60.597
9798	0.255	4.9091	0.	295.91
9799	0.34	5.	0.	-188.83
9800	0.34	4.9091	5.e-002	60.588
9801	0.17	5.	0.	755.29
9802	0.17	4.9091	5.e-002	58.502
9803	8.5e-002	4.9091	0.	-1098.5
9804	1.445	5.0909	0.	783.85
9805	1.53	5.1818	0.	963.64
9806	1.53	5.0909	5.e-002	128.36
9807	1.615	5.0909	0.	807.91
9808	1.275	5.0909	0.	266.84
9809	1.36	5.1818	0.	404.15
9810	1.36	5.0909	5.e-002	86.79
9811	1.105	5.0909	0.	27.834
9812	1.19	5.1818	0.	87.252
9813	1.19	5.0909	5.e-002	78.584
9814	0.935	5.0909	0.	8.5511
9815	1.02	5.1818	0.	13.366
9816	1.02	5.0909	5.e-002	71.278
9817	0.765	5.0909	0.	-0.6225
9818	0.85	5.1818	0.	8.5074
9819	0.85	5.0909	5.e-002	65.52
9820	0.595	5.0909	0.	19.757
9821	0.68	5.1818	0.	-7.5822
9822	0.68	5.0909	5.e-002	62.044
9823	0.425	5.0909	0.	-65.67
9824	0.51	5.1818	0.	46.25
9825	0.51	5.0909	5.e-002	60.494
9826	0.255	5.0909	0.	270.34
9827	0.34	5.1818	0.	-169.59
9828	0.34	5.0909	5.e-002	61.895
9829	0.17	5.1818	0.	683.16
9830	0.17	5.0909	5.e-002	61.8
9831	8.5e-002	5.0909	0.	-1000.5
9832	1.445	5.2727	0.	547.36
9833	1.53	5.3636	0.	676.75
9834	1.53	5.2727	5.e-002	112.48
9835	1.615	5.2727	0.	570.57
9836	1.275	5.2727	0.	173.69
9837	1.36	5.3636	0.	258.89
9838	1.36	5.2727	5.e-002	79.44
9839	1.105	5.2727	0.	28.586
9840	1.19	5.3636	0.	67.736
9841	1.19	5.2727	5.e-002	73.055
9842	0.935	5.2727	0.	10.577
9843	1.02	5.3636	0.	17.602
9844	1.02	5.2727	5.e-002	66.91
9845	0.765	5.2727	0.	1.1678
9846	0.85	5.3636	0.	10.539
9847	0.85	5.2727	5.e-002	61.813
9848	0.595	5.2727	0.	18.781
9849	0.68	5.3636	0.	-4.7444
9850	0.68	5.2727	5.e-002	59.11
9851	0.425	5.2727	0.	-57.592
9852	0.51	5.3636	0.	41.847
9853	0.51	5.2727	5.e-002	59.087
9854	0.255	5.2727	0.	242.96
9855	0.34	5.3636	0.	-146.85
9856	0.34	5.2727	5.e-002	62.972
9857	0.17	5.3636	0.	599.96
9858	0.17	5.2727	5.e-002	66.164
9859	8.5e-002	5.2727	0.	-893.04
9860	1.445	5.4545	0.	350.8
9861	1.53	5.5455	0.	435.04
9862	1.53	5.4545	5.e-002	101.26
9863	1.615	5.4545	0.	371.24
9864	1.275	5.4545	0.	112.21
9865	1.36	5.5455	0.	157.2
9866	1.36	5.4545	5.e-002	75.251
9867	1.105	5.4545	0.	34.606
9868	1.19	5.5455	0.	67.843
9869	1.19	5.4545	5.e-002	68.936
9870	0.935	5.4545	0.	15.57
9871	1.02	5.5455	0.	32.464
9872	1.02	5.4545	5.e-002	62.398
9873	0.765	5.4545	0.	4.681
9874	0.85	5.5455	0.	18.541
9875	0.85	5.4545	5.e-002	56.757
9876	0.595	5.4545	0.	18.399
9877	0.68	5.5455	0.	2.035
9878	0.68	5.4545	5.e-002	54.099
9879	0.425	5.4545	0.	-47.061
9880	0.51	5.5455	0.	36.74
9881	0.51	5.4545	5.e-002	56.095
9882	0.255	5.4545	0.	209.85
9883	0.34	5.5455	0.	-114.04
9884	0.34	5.4545	5.e-002	64.072
9885	0.17	5.5455	0.	494.41
9886	0.17	5.4545	5.e-002	74.908
9887	8.5e-002	5.4545	0.	-765.68
9888	1.445	5.6364	0.	204.02
9889	1.53	5.7273	0.	259.06
9890	1.53	5.6364	5.e-002	95.02
9891	1.615	5.6364	0.	198.92
9892	1.275	5.6364	0.	93.522
9893	1.36	5.7273	0.	137.8
9894	1.36	5.6364	5.e-002	74.505
9895	1.105	5.6364	0.	64.091
9896	1.19	5.7273	0.	124.03
9897	1.19	5.6364	5.e-002	66.83
9898	0.935	5.6364	0.	45.54
9899	1.02	5.7273	0.	122.54
9900	1.02	5.6364	5.e-002	58.526
9901	0.765	5.6364	0.	25.054
9902	0.85	5.7273	0.	114.44
9903	0.85	5.6364	5.e-002	50.848
9904	0.595	5.6364	0.	23.961
9905	0.68	5.7273	0.	90.712
9906	0.68	5.6364	5.e-002	46.455
9907	0.425	5.6364	0.	-27.161
9908	0.51	5.7273	0.	67.277
9909	0.51	5.6364	5.e-002	49.803
9910	0.255	5.6364	0.	170.53
9911	0.34	5.7273	0.	-31.046
9912	0.34	5.6364	5.e-002	67.13
9913	0.17	5.7273	0.	310.06
9914	0.17	5.6364	5.e-002	92.751
9915	8.5e-002	5.6364	0.	-585.68
9916	1.445	5.8182	0.	172.02
9917	1.53	5.8182	5.e-002	104.83
9918	1.53	5.9091	0.	76.127
9919	1.615	5.8182	0.	80.795
9920	1.275	5.8182	0.	171.23
9921	1.36	5.8182	5.e-002	88.688
9922	1.36	5.9091	0.	68.703
9923	1.105	5.8182	0.	195.87
9924	1.19	5.8182	5.e-002	81.281
9925	1.19	5.9091	0.	98.568
9926	0.935	5.8182	0.	215.12
9927	1.02	5.8182	5.e-002	72.902
9928	1.02	5.9091	0.	124.46
9929	0.765	5.8182	0.	224.97
9930	0.85	5.8182	5.e-002	62.942
9931	0.85	5.9091	0.	143.36
9932	0.595	5.8182	0.	228.13
9933	0.68	5.8182	5.e-002	51.756
9934	0.68	5.9091	0.	157.67
9935	0.425	5.8182	0.	212.87
9936	0.51	5.8182	5.e-002	42.017
9937	0.51	5.9091	0.	173.94
9938	0.255	5.8182	0.	184.99
9939	0.34	5.8182	5.e-002	52.835
9940	0.34	5.9091	0.	186.75
9941	0.17	5.8182	5.e-002	126.84
9942	0.17	5.9091	0.	202.74
9943	8.5e-002	5.8182	0.	-215.01
9944	2.1433	5.8182	0.	132.06
9945	2.0511	5.7273	0.	257.13
9946	2.0511	5.8182	5.e-002	84.3
9947	2.0511	5.9091	0.	64.804
9948	1.9589	5.8182	0.	78.521
9949	2.3278	5.8182	0.	119.9
9950	2.2356	5.7273	0.	158.61
9951	2.2356	5.8182	5.e-002	75.197
9952	2.2356	5.9091	0.	52.994
9953	2.5122	5.8182	0.	122.16
9954	2.42	5.7273	0.	148.79
9955	2.42	5.8182	5.e-002	69.482
9956	2.42	5.9091	0.	60.523
9957	2.6967	5.8182	0.	119.9
9958	2.6044	5.7273	0.	148.39
9959	2.6044	5.8182	5.e-002	62.402
9960	2.6044	5.9091	0.	64.461
9961	2.8811	5.8182	0.	112.21
9962	2.7889	5.7273	0.	143.53
9963	2.7889	5.8182	5.e-002	54.472
9964	2.7889	5.9091	0.	63.188
9965	3.0656	5.8182	0.	101.04
9966	2.9733	5.7273	0.	133.43
9967	2.9733	5.8182	5.e-002	46.333
9968	2.9733	5.9091	0.	58.637
9969	3.25	5.8182	0.	88.077
9970	3.1578	5.7273	0.	119.47
9971	3.1578	5.8182	5.e-002	38.498
9972	3.1578	5.9091	0.	52.206
9973	3.4344	5.8182	0.	74.671
9974	3.3422	5.7273	0.	103.45
9975	3.3422	5.8182	5.e-002	31.313
9976	3.3422	5.9091	0.	44.99
9977	3.6189	5.8182	0.	61.728
9978	3.5267	5.7273	0.	86.886
9979	3.5267	5.8182	5.e-002	24.958
9980	3.5267	5.9091	0.	37.721
9981	3.8033	5.8182	0.	49.802
9982	3.7111	5.7273	0.	70.872
9983	3.7111	5.8182	5.e-002	19.495
9984	3.7111	5.9091	0.	30.852
9985	3.9878	5.8182	0.	39.18
9986	3.8956	5.7273	0.	56.091
9987	3.8956	5.8182	5.e-002	14.902
9988	3.8956	5.9091	0.	24.635
9989	4.1722	5.8182	0.	29.966
9990	4.08	5.7273	0.	42.912
9991	4.08	5.8182	5.e-002	11.11
9992	4.08	5.9091	0.	19.18
9993	4.3567	5.8182	0.	22.146
9994	4.2644	5.7273	0.	31.48
9995	4.2644	5.8182	5.e-002	8.0285
9996	4.2644	5.9091	0.	14.509
9997	4.5411	5.8182	0.	15.638
9998	4.4489	5.7273	0.	21.795
9999	4.4489	5.8182	5.e-002	5.5609
10000	4.4489	5.9091	0.	10.592
10001	4.7256	5.8182	0.	10.327
10002	4.6333	5.7273	0.	13.765
10003	4.6333	5.8182	5.e-002	3.6156
10004	4.6333	5.9091	0.	7.3684
10005	4.91	5.8182	0.	6.0855
10006	4.8178	5.7273	0.	7.2635
10007	4.8178	5.8182	5.e-002	2.1156
10008	4.8178	5.9091	0.	4.7676
10009	5.0944	5.8182	0.	2.8147
10010	5.0022	5.7273	0.	2.2597
10011	5.0022	5.8182	5.e-002	1.0256
10012	5.0022	5.9091	0.	2.713
10013	5.2789	5.8182	0.	0.70504
10014	5.1867	5.7273	0.	0.29605
10015	5.1867	5.8182	5.e-002	0.55495
10016	5.1867	5.9091	0.	1.1311
10017	5.4633	5.8182	0.	0.24383
10018	5.3711	5.7273	0.	0.14556
10019	5.3711	5.8182	5.e-002	0.88536
10020	5.3711	5.9091	0.	9.6046e-002
10021	5.6478	5.8182	0.	0.17153
10022	5.5556	5.7273	0.	0.10971
10023	5.5556	5.8182	5.e-002	1.2923
10024	5.5556	5.9091	0.	9.6387e-002
10025	5.8322	5.8182	0.	0.14718
10026	5.74	5.7273	0.	9.4062e-002
10027	5.74	5.8182	5.e-002	1.5975
10028	5.74	5.9091	0.	0.10143
10029	6.0167	5.8182	0.	0.1363
10030	5.9244	5.7273	0.	8.495e-002
10031	5.9244	5.8182	5.e-002	1.8018
10032	5.9244	5.9091	0.	0.10666
10033	6.2011	5.8182	0.	0.13137
10034	6.1089	5.7273	0.	7.8567e-002
10035	6.1089	5.8182	5.e-002	1.923
10036	6.1089	5.9091	0.	0.11246
10037	6.3856	5.8182	0.	0.1302
10038	6.2933	5.7273	0.	7.3547e-002
10039	6.2933	5.8182	5.e-002	1.9787
10040	6.2933	5.9091	0.	0.11962
10041	6.57	5.8182	0.	0.13229
10042	6.4778	5.7273	0.	6.9312e-002
10043	6.4778	5.8182	5.e-002	1.9842
10044	6.4778	5.9091	0.	0.12935
10045	6.7544	5.8182	0.	0.13818
10046	6.6622	5.7273	0.	6.5615e-002
10047	6.6622	5.8182	5.e-002	1.9522
10048	6.6622	5.9091	0.	0.14382
10049	6.9389	5.8182	0.	0.14949
10050	6.8467	5.7273	0.	6.2387e-002
10051	6.8467	5.8182	5.e-002	1.8925
10052	6.8467	5.9091	0.	0.16745
10053	7.1233	5.8182	0.	0.16987
10054	7.0311	5.7273	0.	5.9621e-002
10055	7.0311	5.8182	5.e-002	1.8132
10056	7.0311	5.9091	0.	0.21026
10057	7.3078	5.8182	0.	0.20809
10058	7.2156	5.7273	0.	5.7369e-002
10059	7.2156	5.8182	5.e-002	1.7207
10060	7.2156	5.9091	0.	0.29726
10061	7.4922	5.8182	0.	0.28836
10062	7.4	5.7273	0.	5.5777e-002
10063	7.4	5.8182	5.e-002	1.6196
10064	7.4	5.9091	0.	0.47918
10065	7.6767	5.8182	0.	0.48245
10066	7.5844	5.7273	0.	5.5077e-002
10067	7.5844	5.8182	5.e-002	1.514
10068	7.5844	5.9091	0.	0.78695
10069	7.8611	5.8182	0.	0.91071
10070	7.7689	5.7273	0.	5.5726e-002
10071	7.7689	5.8182	5.e-002	1.4066
10072	7.7689	5.9091	0.	1.1781
10073	8.0456	5.8182	0.	1.539
10074	7.9533	5.7273	0.	5.8738e-002
10075	7.9533	5.8182	5.e-002	1.2996
10076	7.9533	5.9091	0.	1.6051
10077	8.23	5.8182	0.	2.2421
10078	8.1378	5.7273	0.	6.6714e-002
10079	8.1378	5.8182	5.e-002	1.1946
10080	8.1378	5.9091	0.	2.044
10081	8.4144	5.8182	0.	2.9614
10082	8.3222	5.7273	0.	8.8952e-002
10083	8.3222	5.8182	5.e-002	1.0928
10084	8.3222	5.9091	0.	2.4832
10085	8.5989	5.8182	0.	3.6747
10086	8.5067	5.7273	0.	0.18565
10087	8.5067	5.8182	5.e-002	0.99487
10088	8.5067	5.9091	0.	2.9163
10089	8.7833	5.8182	0.	4.3721
10090	8.6911	5.7273	0.	0.70413
10091	8.6911	5.8182	5.e-002	0.90146
10092	8.6911	5.9091	0.	3.3395
10093	8.9678	5.8182	0.	5.0485
10094	8.8756	5.7273	0.	1.5168
10095	8.8756	5.8182	5.e-002	0.81286
10096	8.8756	5.9091	0.	3.7505
10097	9.1522	5.8182	0.	5.7012
10098	9.06	5.7273	0.	2.3395
10099	9.06	5.8182	5.e-002	0.72921
10100	9.06	5.9091	0.	4.1478
10101	9.3367	5.8182	0.	6.3286
10102	9.2444	5.7273	0.	3.1353
10103	9.2444	5.8182	5.e-002	0.65055
10104	9.2444	5.9091	0.	4.5307
10105	9.5211	5.8182	0.	6.9304
10106	9.4289	5.7273	0.	3.8976
10107	9.4289	5.8182	5.e-002	0.57688
10108	9.4289	5.9091	0.	4.8987
10109	9.7056	5.8182	0.	7.5065
10110	9.6133	5.7273	0.	4.6248
10111	9.6133	5.8182	5.e-002	0.50802
10112	9.6133	5.9091	0.	5.2519
10113	9.89	5.8182	0.	8.0573
10114	9.7978	5.7273	0.	5.3169
10115	9.7978	5.8182	5.e-002	0.44389
10116	9.7978	5.9091	0.	5.5903
10117	10.074	5.8182	0.	8.5838
10118	9.9822	5.7273	0.	5.9747
10119	9.9822	5.8182	5.e-002	0.3842
10120	9.9822	5.9091	0.	5.9146
10121	10.259	5.8182	0.	9.0868
10122	10.167	5.7273	0.	6.5995
10123	10.167	5.8182	5.e-002	0.32886
10124	10.167	5.9091	0.	6.2252
10125	10.443	5.8182	0.	9.5675
10126	10.351	5.7273	0.	7.1927
10127	10.351	5.8182	5.e-002	0.27765
10128	10.351	5.9091	0.	6.5226
10129	10.628	5.8182	0.	10.027
10130	10.536	5.7273	0.	7.7559
10131	10.536	5.8182	5.e-002	0.23024
10132	10.536	5.9091	0.	6.8076
10133	10.812	5.8182	0.	10.467
10134	10.72	5.7273	0.	8.291
10135	10.72	5.8182	5.e-002	0.1865
10136	10.72	5.9091	0.	7.081
10137	10.997	5.8182	0.	10.888
10138	10.904	5.7273	0.	8.7996
10139	10.904	5.8182	5.e-002	0.14619
10140	10.904	5.9091	0.	7.3434
10141	11.181	5.8182	0.	11.292
10142	11.089	5.7273	0.	9.2835
10143	11.089	5.8182	5.e-002	0.10913
10144	11.089	5.9091	0.	7.5957
10145	11.366	5.8182	0.	11.68
10146	11.273	5.7273	0.	9.7447
10147	11.273	5.8182	5.e-002	7.5268e-002
10148	11.273	5.9091	0.	7.8387
10149	11.55	5.8182	0.	12.053
10150	11.458	5.7273	0.	10.184
10151	11.458	5.8182	5.e-002	4.475e-002
10152	11.458	5.9091	0.	8.0729
10153	11.734	5.8182	0.	12.413
10154	11.642	5.7273	0.	10.605
10155	11.642	5.8182	5.e-002	1.9588e-002
10156	11.642	5.9091	0.	8.2992
10157	11.919	5.8182	0.	12.761
10158	11.827	5.7273	0.	11.007
10159	11.827	5.8182	5.e-002	1.9048e-002
10160	11.827	5.9091	0.	8.5184
10161	12.103	5.8182	0.	13.097
10162	12.011	5.7273	0.	11.393
10163	12.011	5.8182	5.e-002	3.9647e-002
10164	12.011	5.9091	0.	8.7311
10165	12.288	5.8182	0.	13.424
10166	12.196	5.7273	0.	11.765
10167	12.196	5.8182	5.e-002	6.0856e-002
10168	12.196	5.9091	0.	8.9379
10169	12.472	5.8182	0.	13.742
10170	12.38	5.7273	0.	12.123
10171	12.38	5.8182	5.e-002	8.0575e-002
10172	12.38	5.9091	0.	9.1397
10173	12.657	5.8182	0.	14.052
10174	12.564	5.7273	0.	12.468
10175	12.564	5.8182	5.e-002	9.8631e-002
10176	12.564	5.9091	0.	9.3369
10177	12.841	5.8182	0.	14.355
10178	12.749	5.7273	0.	12.803
10179	12.749	5.8182	5.e-002	0.1151
10180	12.749	5.9091	0.	9.5301
10181	13.026	5.8182	0.	14.652
10182	12.933	5.7273	0.	13.129
10183	12.933	5.8182	5.e-002	0.13
10184	12.933	5.9091	0.	9.72
10185	13.21	5.8182	0.	14.945
10186	13.118	5.7273	0.	13.447
10187	13.118	5.8182	5.e-002	0.14345
10188	13.118	5.9091	0.	9.9071
10189	13.394	5.8182	0.	15.233
10190	13.302	5.7273	0.	13.757
10191	13.302	5.8182	5.e-002	0.15556
10192	13.302	5.9091	0.	10.092
10193	13.579	5.8182	0.	15.518
10194	13.487	5.7273	0.	14.061
10195	13.487	5.8182	5.e-002	0.16633
10196	13.487	5.9091	0.	10.275
10197	13.763	5.8182	0.	15.801
10198	13.671	5.7273	0.	14.36
10199	13.671	5.8182	5.e-002	0.1759
10200	13.671	5.9091	0.	10.457
10201	13.948	5.8182	0.	16.082
10202	13.856	5.7273	0.	14.655
10203	13.856	5.8182	5.e-002	0.18433
10204	13.856	5.9091	0.	10.638
10205	14.132	5.8182	0.	16.362
10206	14.04	5.7273	0.	14.948
10207	14.04	5.8182	5.e-002	0.19169
10208	14.04	5.9091	0.	10.818
10209	14.317	5.8182	0.	16.642
10210	14.224	5.7273	0.	15.238
10211	14.224	5.8182	5.e-002	0.19805
10212	14.224	5.9091	0.	10.999
10213	14.501	5.8182	0.	16.922
10214	14.409	5.7273	0.	15.526
10215	14.409	5.8182	5.e-002	0.20352
10216	14.409	5.9091	0.	11.181
10217	14.686	5.8182	0.	17.204
10218	14.593	5.7273	0.	15.815
10219	14.593	5.8182	5.e-002	0.20806
10220	14.593	5.9091	0.	11.363
10221	14.87	5.8182	0.	17.487
10222	14.778	5.7273	0.	16.104
10223	14.778	5.8182	5.e-002	0.21176
10224	14.778	5.9091	0.	11.546
10225	15.054	5.8182	0.	17.773
10226	14.962	5.7273	0.	16.394
10227	14.962	5.8182	5.e-002	0.21472
10228	14.962	5.9091	0.	11.732
10229	15.239	5.8182	0.	18.062
10230	15.147	5.7273	0.	16.686
10231	15.147	5.8182	5.e-002	0.21695
10232	15.147	5.9091	0.	11.919
10233	15.423	5.8182	0.	18.354
10234	15.331	5.7273	0.	16.981
10235	15.331	5.8182	5.e-002	0.21853
10236	15.331	5.9091	0.	12.109
10237	15.608	5.8182	0.	18.651
10238	15.516	5.7273	0.	17.28
10239	15.516	5.8182	5.e-002	0.21954
10240	15.516	5.9091	0.	12.302
10241	15.792	5.8182	0.	18.952
10242	15.7	5.7273	0.	17.583
10243	15.7	5.8182	5.e-002	0.22
10244	15.7	5.9091	0.	12.498
10245	15.977	5.8182	0.	19.259
10246	15.884	5.7273	0.	17.891
10247	15.884	5.8182	5.e-002	0.22
10248	15.884	5.9091	0.	12.698
10249	16.161	5.8182	0.	19.571
10250	16.069	5.7273	0.	18.205
10251	16.069	5.8182	5.e-002	0.21967
10252	16.069	5.9091	0.	12.902
10253	16.346	5.8182	0.	19.89
10254	16.253	5.7273	0.	18.525
10255	16.253	5.8182	5.e-002	0.21907
10256	16.253	5.9091	0.	13.109
10257	16.53	5.8182	0.	20.216
10258	16.438	5.7273	0.	18.852
10259	16.438	5.8182	5.e-002	0.21835
10260	16.438	5.9091	0.	13.322
10261	16.714	5.8182	0.	20.549
10262	16.622	5.7273	0.	19.188
10263	16.622	5.8182	5.e-002	0.21767
10264	16.622	5.9091	0.	13.539
10265	16.899	5.8182	0.	20.89
10266	16.807	5.7273	0.	19.531
10267	16.807	5.8182	5.e-002	0.21719
10268	16.807	5.9091	0.	13.761
10269	17.083	5.8182	0.	21.239
10270	16.991	5.7273	0.	19.884
10271	16.991	5.8182	5.e-002	0.21713
10272	16.991	5.9091	0.	13.989
10273	17.268	5.8182	0.	21.597
10274	17.176	5.7273	0.	20.247
10275	17.176	5.8182	5.e-002	0.21776
10276	17.176	5.9091	0.	14.222
10277	17.452	5.8182	0.	21.963
10278	17.36	5.7273	0.	20.621
10279	17.36	5.8182	5.e-002	0.21938
10280	17.36	5.9091	0.	14.462
10281	17.637	5.8182	0.	22.339
10282	17.544	5.7273	0.	21.005
10283	17.544	5.8182	5.e-002	0.2223
10284	17.544	5.9091	0.	14.707
10285	17.821	5.8182	0.	22.725
10286	17.729	5.7273	0.	21.401
10287	17.729	5.8182	5.e-002	0.2269
10288	17.729	5.9091	0.	14.959
10289	18.006	5.8182	0.	23.12
10290	17.913	5.7273	0.	21.81
10291	17.913	5.8182	5.e-002	0.23353
10292	17.913	5.9091	0.	15.218
10293	18.19	5.8182	0.	23.526
10294	18.098	5.7273	0.	22.231
10295	18.098	5.8182	5.e-002	0.24258
10296	18.098	5.9091	0.	15.483
10297	18.374	5.8182	0.	23.942
10298	18.282	5.7273	0.	22.666
10299	18.282	5.8182	5.e-002	0.2544
10300	18.282	5.9091	0.	15.756
10301	18.559	5.8182	0.	24.368
10302	18.467	5.7273	0.	23.115
10303	18.467	5.8182	5.e-002	0.26929
10304	18.467	5.9091	0.	16.035
10305	18.743	5.8182	0.	24.804
10306	18.651	5.7273	0.	23.578
10307	18.651	5.8182	5.e-002	0.28754
10308	18.651	5.9091	0.	16.321
10309	18.928	5.8182	0.	25.251
10310	18.836	5.7273	0.	24.056
10311	18.836	5.8182	5.e-002	0.30936
10312	18.836	5.9091	0.	16.614
10313	19.112	5.8182	0.	25.707
10314	19.02	5.7273	0.	24.549
10315	19.02	5.8182	5.e-002	0.33495
10316	19.02	5.9091	0.	16.915
10317	19.297	5.8182	0.	26.173
10318	19.204	5.7273	0.	25.058
10319	19.204	5.8182	5.e-002	0.3645
10320	19.204	5.9091	0.	17.222
10321	19.481	5.8182	0.	26.648
10322	19.389	5.7273	0.	25.581
10323	19.389	5.8182	5.e-002	0.39816
10324	19.389	5.9091	0.	17.536
10325	19.666	5.8182	0.	27.131
10326	19.573	5.7273	0.	26.121
10327	19.573	5.8182	5.e-002	0.43611
10328	19.573	5.9091	0.	17.856
10329	19.85	5.8182	0.	27.622
10330	19.758	5.7273	0.	26.676
10331	19.758	5.8182	5.e-002	0.47852
10332	19.758	5.9091	0.	18.181
10333	20.034	5.8182	0.	28.119
10334	19.942	5.7273	0.	27.247
10335	19.942	5.8182	5.e-002	0.52559
10336	19.942	5.9091	0.	18.513
10337	20.219	5.8182	0.	28.621
10338	20.127	5.7273	0.	27.832
10339	20.127	5.8182	5.e-002	0.57755
10340	20.127	5.9091	0.	18.848
10341	20.403	5.8182	0.	29.126
10342	20.311	5.7273	0.	28.432
10343	20.311	5.8182	5.e-002	0.63469
10344	20.311	5.9091	0.	19.188
10345	20.588	5.8182	0.	29.633
10346	20.496	5.7273	0.	29.046
10347	20.496	5.8182	5.e-002	0.69726
10348	20.496	5.9091	0.	19.53
10349	20.772	5.8182	0.	30.138
10350	20.68	5.7273	0.	29.673
10351	20.68	5.8182	5.e-002	0.76561
10352	20.68	5.9091	0.	19.874
10353	20.957	5.8182	0.	30.639
10354	20.864	5.7273	0.	30.311
10355	20.864	5.8182	5.e-002	0.8401
10356	20.864	5.9091	0.	20.217
10357	21.141	5.8182	0.	31.132
10358	21.049	5.7273	0.	30.96
10359	21.049	5.8182	5.e-002	0.92115
10360	21.049	5.9091	0.	20.558
10361	21.326	5.8182	0.	31.614
10362	21.233	5.7273	0.	31.618
10363	21.233	5.8182	5.e-002	1.0092
10364	21.233	5.9091	0.	20.895
10365	21.51	5.8182	0.	32.078
10366	21.418	5.7273	0.	32.282
10367	21.418	5.8182	5.e-002	1.1049
10368	21.418	5.9091	0.	21.226
10369	21.694	5.8182	0.	32.52
10370	21.602	5.7273	0.	32.951
10371	21.602	5.8182	5.e-002	1.2086
10372	21.602	5.9091	0.	21.546
10373	21.879	5.8182	0.	32.932
10374	21.787	5.7273	0.	33.621
10375	21.787	5.8182	5.e-002	1.3211
10376	21.787	5.9091	0.	21.852
10377	22.063	5.8182	0.	33.307
10378	21.971	5.7273	0.	34.292
10379	21.971	5.8182	5.e-002	1.4433
10380	21.971	5.9091	0.	22.139
10381	22.248	5.8182	0.	33.633
10382	22.156	5.7273	0.	34.959
10383	22.156	5.8182	5.e-002	1.5758
10384	22.156	5.9091	0.	22.402
10385	22.432	5.8182	0.	33.899
10386	22.34	5.7273	0.	35.621
10387	22.34	5.8182	5.e-002	1.72
10388	22.34	5.9091	0.	22.634
10389	22.617	5.8182	0.	34.09
10390	22.524	5.7273	0.	36.278
10391	22.524	5.8182	5.e-002	1.877
10392	22.524	5.9091	0.	22.825
10393	22.801	5.8182	0.	34.19
10394	22.709	5.7273	0.	36.932
10395	22.709	5.8182	5.e-002	2.0486
10396	22.709	5.9091	0.	22.965
10397	22.986	5.8182	0.	34.178
10398	22.893	5.7273	0.	37.59
10399	22.893	5.8182	5.e-002	2.2371
10400	22.893	5.9091	0.	23.037
10401	23.17	5.8182	0.	34.034
10402	23.078	5.7273	0.	38.278
10403	23.078	5.8182	5.e-002	2.4456
10404	23.078	5.9091	0.	23.021
10405	23.354	5.8182	0.	33.753
10406	23.262	5.7273	0.	39.055
10407	23.262	5.8182	5.e-002	2.6797
10408	23.262	5.9091	0.	22.891
10409	23.539	5.8182	0.	33.408
10410	23.447	5.7273	0.	40.063
10411	23.447	5.8182	5.e-002	2.9471
10412	23.447	5.9091	0.	22.592
10413	23.723	5.8182	0.	33.71
10414	23.631	5.7273	0.	41.748
10415	23.631	5.8182	5.e-002	3.2824
10416	23.631	5.9091	0.	22.154
10417	23.816	5.7273	0.	45.534
10418	23.816	5.8182	5.e-002	3.9993
10419	23.908	5.8182	0.	34.94
10420	23.816	5.9091	0.	21.467
10421	2.1433	5.6364	0.	253.28
10422	2.0511	5.5455	0.	502.23
10423	2.0511	5.6364	5.e-002	76.309
10424	1.9589	5.6364	0.	258.56
10425	2.3278	5.6364	0.	178.64
10426	2.2356	5.5455	0.	290.65
10427	2.2356	5.6364	5.e-002	65.266
10428	2.5122	5.6364	0.	170.74
10429	2.42	5.5455	0.	234.64
10430	2.42	5.6364	5.e-002	59.539
10431	2.6967	5.6364	0.	169.32
10432	2.6044	5.5455	0.	214.45
10433	2.6044	5.6364	5.e-002	52.26
10434	2.8811	5.6364	0.	162.88
10435	2.7889	5.5455	0.	199.37
10436	2.7889	5.6364	5.e-002	44.519
10437	3.0656	5.6364	0.	150.57
10438	2.9733	5.5455	0.	181.91
10439	2.9733	5.6364	5.e-002	36.92
10440	3.25	5.6364	0.	133.97
10441	3.1578	5.5455	0.	161.16
10442	3.1578	5.6364	5.e-002	29.875
10443	3.4344	5.6364	0.	115.1
10444	3.3422	5.5455	0.	138.34
10445	3.3422	5.6364	5.e-002	23.606
10446	3.6189	5.6364	0.	95.687
10447	3.5267	5.5455	0.	115.
10448	3.5267	5.6364	5.e-002	18.191
10449	3.8033	5.6364	0.	76.966
10450	3.7111	5.5455	0.	92.459
10451	3.7111	5.6364	5.e-002	13.617
10452	3.9878	5.6364	0.	59.725
10453	3.8956	5.5455	0.	71.596
10454	3.8956	5.6364	5.e-002	9.8205
10455	4.1722	5.6364	0.	44.392
10456	4.08	5.5455	0.	52.934
10457	4.08	5.6364	5.e-002	6.7194
10458	4.3567	5.6364	0.	31.133
10459	4.2644	5.5455	0.	36.708
10460	4.2644	5.6364	5.e-002	4.2344
10461	4.5411	5.6364	0.	19.949
10462	4.4489	5.5455	0.	22.951
10463	4.4489	5.6364	5.e-002	2.3336
10464	4.7256	5.6364	0.	10.749
10465	4.6333	5.5455	0.	11.604
10466	4.6333	5.6364	5.e-002	1.2406
10467	4.91	5.6364	0.	3.5232
10468	4.8178	5.5455	0.	2.9526
10469	4.8178	5.6364	5.e-002	1.5141
10470	5.0944	5.6364	0.	0.40239
10471	5.0022	5.5455	0.	0.40845
10472	5.0022	5.6364	5.e-002	2.3027
10473	5.2789	5.6364	0.	0.16697
10474	5.1867	5.5455	0.	0.18583
10475	5.1867	5.6364	5.e-002	3.0254
10476	5.4633	5.6364	0.	0.11785
10477	5.3711	5.5455	0.	0.12377
10478	5.3711	5.6364	5.e-002	3.6134
10479	5.6478	5.6364	0.	9.8737e-002
10480	5.5556	5.5455	0.	9.5964e-002
10481	5.5556	5.6364	5.e-002	4.0759
10482	5.8322	5.6364	0.	8.8655e-002
10483	5.74	5.5455	0.	8.0249e-002
10484	5.74	5.6364	5.e-002	4.4328
10485	6.0167	5.6364	0.	8.1963e-002
10486	5.9244	5.5455	0.	6.9897e-002
10487	5.9244	5.6364	5.e-002	4.7039
10488	6.2011	5.6364	0.	7.6671e-002
10489	6.1089	5.5455	0.	6.2268e-002
10490	6.1089	5.6364	5.e-002	4.9061
10491	6.3856	5.6364	0.	7.1986e-002
10492	6.2933	5.5455	0.	5.6183e-002
10493	6.2933	5.6364	5.e-002	5.0538
10494	6.57	5.6364	0.	6.757e-002
10495	6.4778	5.5455	0.	5.1043e-002
10496	6.4778	5.6364	5.e-002	5.1586
10497	6.7544	5.6364	0.	6.3295e-002
10498	6.6622	5.5455	0.	4.6523e-002
10499	6.6622	5.6364	5.e-002	5.2299
10500	6.9389	5.6364	0.	5.9125e-002
10501	6.8467	5.5455	0.	4.2466e-002
10502	6.8467	5.6364	5.e-002	5.275
10503	7.1233	5.6364	0.	5.5051e-002
10504	7.0311	5.5455	0.	3.8761e-002
10505	7.0311	5.6364	5.e-002	5.3002
10506	7.3078	5.6364	0.	5.1093e-002
10507	7.2156	5.5455	0.	3.534e-002
10508	7.2156	5.6364	5.e-002	5.31
10509	7.4922	5.6364	0.	4.7277e-002
10510	7.4	5.5455	0.	3.2178e-002
10511	7.4	5.6364	5.e-002	5.3082
10512	7.6767	5.6364	0.	4.3616e-002
10513	7.5844	5.5455	0.	2.9241e-002
10514	7.5844	5.6364	5.e-002	5.2978
10515	7.8611	5.6364	0.	4.0135e-002
10516	7.7689	5.5455	0.	2.6504e-002
10517	7.7689	5.6364	5.e-002	5.2809
10518	8.0456	5.6364	0.	3.6857e-002
10519	7.9533	5.5455	0.	2.3963e-002
10520	7.9533	5.6364	5.e-002	5.2594
10521	8.23	5.6364	0.	3.3802e-002
10522	8.1378	5.5455	0.	2.1601e-002
10523	8.1378	5.6364	5.e-002	5.2346
10524	8.4144	5.6364	0.	3.1013e-002
10525	8.3222	5.5455	0.	1.9396e-002
10526	8.3222	5.6364	5.e-002	5.2076
10527	8.5989	5.6364	0.	2.8576e-002
10528	8.5067	5.5455	0.	1.7356e-002
10529	8.5067	5.6364	5.e-002	5.179
10530	8.7833	5.6364	0.	2.6716e-002
10531	8.6911	5.5455	0.	1.5461e-002
10532	8.6911	5.6364	5.e-002	5.1497
10533	8.9678	5.6364	0.	2.6442e-002
10534	8.8756	5.5455	0.	1.3696e-002
10535	8.8756	5.6364	5.e-002	5.12
10536	9.1522	5.6364	0.	4.5959e-002
10537	9.06	5.5455	0.	1.2067e-002
10538	9.06	5.6364	5.e-002	5.0902
10539	9.3367	5.6364	0.	0.77984
10540	9.2444	5.5455	0.	1.056e-002
10541	9.2444	5.6364	5.e-002	5.0606
10542	9.5211	5.6364	0.	1.6696
10543	9.4289	5.5455	0.	9.1671e-003
10544	9.4289	5.6364	5.e-002	5.0313
10545	9.7056	5.6364	0.	2.5157
10546	9.6133	5.5455	0.	0.12797
10547	9.6133	5.6364	5.e-002	5.0024
10548	9.89	5.6364	0.	3.3171
10549	9.7978	5.5455	0.	1.0946
10550	9.7978	5.6364	5.e-002	4.9741
10551	10.074	5.6364	0.	4.0753
10552	9.9822	5.5455	0.	2.0067
10553	9.9822	5.6364	5.e-002	4.9462
10554	10.259	5.6364	0.	4.7921
10555	10.167	5.5455	0.	2.8668
10556	10.167	5.6364	5.e-002	4.919
10557	10.443	5.6364	0.	5.4695
10558	10.351	5.5455	0.	3.6772
10559	10.351	5.6364	5.e-002	4.8924
10560	10.628	5.6364	0.	6.1098
10561	10.536	5.5455	0.	4.4408
10562	10.536	5.6364	5.e-002	4.8663
10563	10.812	5.6364	0.	6.7153
10564	10.72	5.5455	0.	5.1604
10565	10.72	5.6364	5.e-002	4.8407
10566	10.997	5.6364	0.	7.2881
10567	10.904	5.5455	0.	5.8388
10568	10.904	5.6364	5.e-002	4.8157
10569	11.181	5.6364	0.	7.8306
10570	11.089	5.5455	0.	6.4787
10571	11.089	5.6364	5.e-002	4.7912
10572	11.366	5.6364	0.	8.3449
10573	11.273	5.5455	0.	7.083
10574	11.273	5.6364	5.e-002	4.7672
10575	11.55	5.6364	0.	8.8331
10576	11.458	5.5455	0.	7.6542
10577	11.458	5.6364	5.e-002	4.7437
10578	11.734	5.6364	0.	9.2973
10579	11.642	5.5455	0.	8.1948
10580	11.642	5.6364	5.e-002	4.7205
10581	11.919	5.6364	0.	9.7395
10582	11.827	5.5455	0.	8.7073
10583	11.827	5.6364	5.e-002	4.6978
10584	12.103	5.6364	0.	10.162
10585	12.011	5.5455	0.	9.194
10586	12.011	5.6364	5.e-002	4.6754
10587	12.288	5.6364	0.	10.565
10588	12.196	5.5455	0.	9.6572
10589	12.196	5.6364	5.e-002	4.6534
10590	12.472	5.6364	0.	10.953
10591	12.38	5.5455	0.	10.099
10592	12.38	5.6364	5.e-002	4.6317
10593	12.657	5.6364	0.	11.325
10594	12.564	5.5455	0.	10.521
10595	12.564	5.6364	5.e-002	4.6103
10596	12.841	5.6364	0.	11.684
10597	12.749	5.5455	0.	10.926
10598	12.749	5.6364	5.e-002	4.5893
10599	13.026	5.6364	0.	12.031
10600	12.933	5.5455	0.	11.315
10601	12.933	5.6364	5.e-002	4.5684
10602	13.21	5.6364	0.	12.367
10603	13.118	5.5455	0.	11.691
10604	13.118	5.6364	5.e-002	4.5479
10605	13.394	5.6364	0.	12.695
10606	13.302	5.5455	0.	12.054
10607	13.302	5.6364	5.e-002	4.5275
10608	13.579	5.6364	0.	13.014
10609	13.487	5.5455	0.	12.406
10610	13.487	5.6364	5.e-002	4.5074
10611	13.763	5.6364	0.	13.328
10612	13.671	5.5455	0.	12.749
10613	13.671	5.6364	5.e-002	4.4876
10614	13.948	5.6364	0.	13.635
10615	13.856	5.5455	0.	13.085
10616	13.856	5.6364	5.e-002	4.4679
10617	14.132	5.6364	0.	13.939
10618	14.04	5.5455	0.	13.414
10619	14.04	5.6364	5.e-002	4.4485
10620	14.317	5.6364	0.	14.239
10621	14.224	5.5455	0.	13.738
10622	14.224	5.6364	5.e-002	4.4292
10623	14.501	5.6364	0.	14.538
10624	14.409	5.5455	0.	14.058
10625	14.409	5.6364	5.e-002	4.4101
10626	14.686	5.6364	0.	14.835
10627	14.593	5.5455	0.	14.375
10628	14.593	5.6364	5.e-002	4.3912
10629	14.87	5.6364	0.	15.132
10630	14.778	5.5455	0.	14.692
10631	14.778	5.6364	5.e-002	4.3725
10632	15.054	5.6364	0.	15.431
10633	14.962	5.5455	0.	15.008
10634	14.962	5.6364	5.e-002	4.3539
10635	15.239	5.6364	0.	15.731
10636	15.147	5.5455	0.	15.325
10637	15.147	5.6364	5.e-002	4.3356
10638	15.423	5.6364	0.	16.034
10639	15.331	5.5455	0.	15.644
10640	15.331	5.6364	5.e-002	4.3174
10641	15.608	5.6364	0.	16.34
10642	15.516	5.5455	0.	15.967
10643	15.516	5.6364	5.e-002	4.2993
10644	15.792	5.6364	0.	16.652
10645	15.7	5.5455	0.	16.293
10646	15.7	5.6364	5.e-002	4.2815
10647	15.977	5.6364	0.	16.969
10648	15.884	5.5455	0.	16.626
10649	15.884	5.6364	5.e-002	4.2639
10650	16.161	5.6364	0.	17.292
10651	16.069	5.5455	0.	16.964
10652	16.069	5.6364	5.e-002	4.2464
10653	16.346	5.6364	0.	17.623
10654	16.253	5.5455	0.	17.31
10655	16.253	5.6364	5.e-002	4.2292
10656	16.53	5.6364	0.	17.962
10657	16.438	5.5455	0.	17.665
10658	16.438	5.6364	5.e-002	4.2121
10659	16.714	5.6364	0.	18.31
10660	16.622	5.5455	0.	18.03
10661	16.622	5.6364	5.e-002	4.1952
10662	16.899	5.6364	0.	18.668
10663	16.807	5.5455	0.	18.405
10664	16.807	5.6364	5.e-002	4.1786
10665	17.083	5.6364	0.	19.037
10666	16.991	5.5455	0.	18.793
10667	16.991	5.6364	5.e-002	4.1623
10668	17.268	5.6364	0.	19.418
10669	17.176	5.5455	0.	19.193
10670	17.176	5.6364	5.e-002	4.1462
10671	17.452	5.6364	0.	19.811
10672	17.36	5.5455	0.	19.608
10673	17.36	5.6364	5.e-002	4.1303
10674	17.637	5.6364	0.	20.218
10675	17.544	5.5455	0.	20.038
10676	17.544	5.6364	5.e-002	4.1148
10677	17.821	5.6364	0.	20.64
10678	17.729	5.5455	0.	20.485
10679	17.729	5.6364	5.e-002	4.0995
10680	18.006	5.6364	0.	21.077
10681	17.913	5.5455	0.	20.95
10682	17.913	5.6364	5.e-002	4.0846
10683	18.19	5.6364	0.	21.531
10684	18.098	5.5455	0.	21.434
10685	18.098	5.6364	5.e-002	4.07
10686	18.374	5.6364	0.	22.001
10687	18.282	5.5455	0.	21.938
10688	18.282	5.6364	5.e-002	4.0558
10689	18.559	5.6364	0.	22.49
10690	18.467	5.5455	0.	22.464
10691	18.467	5.6364	5.e-002	4.042
10692	18.743	5.6364	0.	22.998
10693	18.651	5.5455	0.	23.013
10694	18.651	5.6364	5.e-002	4.0287
10695	18.928	5.6364	0.	23.526
10696	18.836	5.5455	0.	23.586
10697	18.836	5.6364	5.e-002	4.0158
10698	19.112	5.6364	0.	24.075
10699	19.02	5.5455	0.	24.184
10700	19.02	5.6364	5.e-002	4.0034
10701	19.297	5.6364	0.	24.645
10702	19.204	5.5455	0.	24.81
10703	19.204	5.6364	5.e-002	3.9916
10704	19.481	5.6364	0.	25.237
10705	19.389	5.5455	0.	25.464
10706	19.389	5.6364	5.e-002	3.9803
10707	19.666	5.6364	0.	25.853
10708	19.573	5.5455	0.	26.147
10709	19.573	5.6364	5.e-002	3.9697
10710	19.85	5.6364	0.	26.492
10711	19.758	5.5455	0.	26.862
10712	19.758	5.6364	5.e-002	3.9597
10713	20.034	5.6364	0.	27.156
10714	19.942	5.5455	0.	27.609
10715	19.942	5.6364	5.e-002	3.9504
10716	20.219	5.6364	0.	27.844
10717	20.127	5.5455	0.	28.39
10718	20.127	5.6364	5.e-002	3.942
10719	20.403	5.6364	0.	28.559
10720	20.311	5.5455	0.	29.206
10721	20.311	5.6364	5.e-002	3.9343
10722	20.588	5.6364	0.	29.299
10723	20.496	5.5455	0.	30.06
10724	20.496	5.6364	5.e-002	3.9275
10725	20.772	5.6364	0.	30.066
10726	20.68	5.5455	0.	30.953
10727	20.68	5.6364	5.e-002	3.9216
10728	20.957	5.6364	0.	30.86
10729	20.864	5.5455	0.	31.886
10730	20.864	5.6364	5.e-002	3.9167
10731	21.141	5.6364	0.	31.681
10732	21.049	5.5455	0.	32.863
10733	21.049	5.6364	5.e-002	3.9129
10734	21.326	5.6364	0.	32.531
10735	21.233	5.5455	0.	33.885
10736	21.233	5.6364	5.e-002	3.9102
10737	21.51	5.6364	0.	33.41
10738	21.418	5.5455	0.	34.956
10739	21.418	5.6364	5.e-002	3.9086
10740	21.694	5.6364	0.	34.32
10741	21.602	5.5455	0.	36.081
10742	21.602	5.6364	5.e-002	3.9083
10743	21.879	5.6364	0.	35.263
10744	21.787	5.5455	0.	37.265
10745	21.787	5.6364	5.e-002	3.9093
10746	22.063	5.6364	0.	36.244
10747	21.971	5.5455	0.	38.515
10748	21.971	5.6364	5.e-002	3.9118
10749	22.248	5.6364	0.	37.268
10750	22.156	5.5455	0.	39.844
10751	22.156	5.6364	5.e-002	3.9158
10752	22.432	5.6364	0.	38.347
10753	22.34	5.5455	0.	41.267
10754	22.34	5.6364	5.e-002	3.9216
10755	22.617	5.6364	0.	39.497
10756	22.524	5.5455	0.	42.809
10757	22.524	5.6364	5.e-002	3.9294
10758	22.801	5.6364	0.	40.751
10759	22.709	5.5455	0.	44.509
10760	22.709	5.6364	5.e-002	3.9397
10761	22.986	5.6364	0.	42.163
10762	22.893	5.5455	0.	46.428
10763	22.893	5.6364	5.e-002	3.9534
10764	23.17	5.6364	0.	43.84
10765	23.078	5.5455	0.	48.668
10766	23.078	5.6364	5.e-002	3.9722
10767	23.354	5.6364	0.	45.992
10768	23.262	5.5455	0.	51.412
10769	23.262	5.6364	5.e-002	3.9998
10770	23.539	5.6364	0.	49.109
10771	23.447	5.5455	0.	54.971
10772	23.447	5.6364	5.e-002	4.0466
10773	23.723	5.6364	0.	54.223
10774	23.631	5.5455	0.	60.002
10775	23.631	5.6364	5.e-002	4.1533
10776	23.816	5.5455	0.	67.487
10777	23.816	5.6364	5.e-002	4.5337
10778	23.908	5.6364	0.	60.466
10779	2.1433	5.4545	0.	491.53
10780	2.0511	5.3636	0.	825.71
10781	2.0511	5.4545	5.e-002	81.405
10782	1.9589	5.4545	0.	501.96
10783	2.3278	5.4545	0.	325.88
10784	2.2356	5.3636	0.	507.99
10785	2.2356	5.4545	5.e-002	66.101
10786	2.5122	5.4545	0.	268.66
10787	2.42	5.3636	0.	378.35
10788	2.42	5.4545	5.e-002	59.835
10789	2.6967	5.4545	0.	239.22
10790	2.6044	5.3636	0.	309.41
10791	2.6044	5.4545	5.e-002	51.963
10792	2.8811	5.4545	0.	215.21
10793	2.7889	5.3636	0.	262.67
10794	2.7889	5.4545	5.e-002	43.662
10795	3.0656	5.4545	0.	190.49
10796	2.9733	5.3636	0.	224.13
10797	2.9733	5.4545	5.e-002	35.698
10798	3.25	5.4545	0.	164.24
10799	3.1578	5.3636	0.	188.77
10800	3.1578	5.4545	5.e-002	28.518
10801	3.4344	5.4545	0.	137.43
10802	3.3422	5.3636	0.	155.46
10803	3.3422	5.4545	5.e-002	22.293
10804	3.6189	5.4545	0.	111.28
10805	3.5267	5.3636	0.	124.34
10806	3.5267	5.4545	5.e-002	17.039
10807	3.8033	5.4545	0.	86.795
10808	3.7111	5.3636	0.	95.87
10809	3.7111	5.4545	5.e-002	12.693
10810	3.9878	5.4545	0.	64.644
10811	3.8956	5.3636	0.	70.427
10812	3.8956	5.4545	5.e-002	9.1656
10813	4.1722	5.4545	0.	45.178
10814	4.08	5.3636	0.	48.212
10815	4.08	5.4545	5.e-002	6.3716
10816	4.3567	5.4545	0.	28.514
10817	4.2644	5.3636	0.	29.272
10818	4.2644	5.4545	5.e-002	4.2668
10819	4.5411	5.4545	0.	14.652
10820	4.4489	5.3636	0.	13.646
10821	4.4489	5.4545	5.e-002	2.9019
10822	4.7256	5.4545	0.	4.0107
10823	4.6333	5.3636	0.	2.829
10824	4.6333	5.4545	5.e-002	2.4162
10825	4.91	5.4545	0.	0.59478
10826	4.8178	5.3636	0.	0.60332
10827	4.8178	5.4545	5.e-002	2.6614
10828	5.0944	5.4545	0.	0.25115
10829	5.0022	5.3636	0.	0.28482
10830	5.0022	5.4545	5.e-002	3.1811
10831	5.2789	5.4545	0.	0.15276
10832	5.1867	5.3636	0.	0.17585
10833	5.1867	5.4545	5.e-002	3.7104
10834	5.4633	5.4545	0.	0.10765
10835	5.3711	5.3636	0.	0.12304
10836	5.3711	5.4545	5.e-002	4.1686
10837	5.6478	5.4545	0.	8.1999e-002
10838	5.5556	5.3636	0.	9.2516e-002
10839	5.5556	5.4545	5.e-002	4.5418
10840	5.8322	5.4545	0.	6.5467e-002
10841	5.74	5.3636	0.	7.2854e-002
10842	5.74	5.4545	5.e-002	4.8362
10843	6.0167	5.4545	0.	5.3879e-002
10844	5.9244	5.3636	0.	5.9198e-002
10845	5.9244	5.4545	5.e-002	5.0631
10846	6.2011	5.4545	0.	4.5265e-002
10847	6.1089	5.3636	0.	4.9173e-002
10848	6.1089	5.4545	5.e-002	5.2342
10849	6.3856	5.4545	0.	3.8585e-002
10850	6.2933	5.3636	0.	4.1516e-002
10851	6.2933	5.4545	5.e-002	5.3604
10852	6.57	5.4545	0.	3.3229e-002
10853	6.4778	5.3636	0.	3.5475e-002
10854	6.4778	5.4545	5.e-002	5.4505
10855	6.7544	5.4545	0.	2.8832e-002
10856	6.6622	5.3636	0.	3.0582e-002
10857	6.6622	5.4545	5.e-002	5.5123
10858	6.9389	5.4545	0.	2.5156e-002
10859	6.8467	5.3636	0.	2.6553e-002
10860	6.8467	5.4545	5.e-002	5.5517
10861	7.1233	5.4545	0.	2.2031e-002
10862	7.0311	5.3636	0.	2.3178e-002
10863	7.0311	5.4545	5.e-002	5.574
10864	7.3078	5.4545	0.	1.9346e-002
10865	7.2156	5.3636	0.	2.0309e-002
10866	7.2156	5.4545	5.e-002	5.5829
10867	7.4922	5.4545	0.	1.702e-002
10868	7.4	5.3636	0.	1.7856e-002
10869	7.4	5.4545	5.e-002	5.5816
10870	7.6767	5.4545	0.	1.4983e-002
10871	7.5844	5.3636	0.	1.5737e-002
10872	7.5844	5.4545	5.e-002	5.5726
10873	7.8611	5.4545	0.	1.3191e-002
10874	7.7689	5.3636	0.	1.3886e-002
10875	7.7689	5.4545	5.e-002	5.5578
10876	8.0456	5.4545	0.	1.1611e-002
10877	7.9533	5.3636	0.	1.2273e-002
10878	7.9533	5.4545	5.e-002	5.5388
10879	8.23	5.4545	0.	1.0204e-002
10880	8.1378	5.3636	0.	1.0857e-002
10881	8.1378	5.4545	5.e-002	5.5168
10882	8.4144	5.4545	0.	8.9527e-003
10883	8.3222	5.3636	0.	9.603e-003
10884	8.3222	5.4545	5.e-002	5.4925
10885	8.5989	5.4545	0.	7.8416e-003
10886	8.5067	5.3636	0.	8.5055e-003
10887	8.5067	5.4545	5.e-002	5.4668
10888	8.7833	5.4545	0.	6.8504e-003
10889	8.6911	5.3636	0.	7.5417e-003
10890	8.6911	5.4545	5.e-002	5.4402
10891	8.9678	5.4545	0.	5.9753e-003
10892	8.8756	5.3636	0.	6.6958e-003
10893	8.8756	5.4545	5.e-002	5.4131
10894	9.1522	5.4545	0.	5.2192e-003
10895	9.06	5.3636	0.	5.9769e-003
10896	9.06	5.4545	5.e-002	5.3857
10897	9.3367	5.4545	0.	4.5913e-003
10898	9.2444	5.3636	0.	5.3847e-003
10899	9.2444	5.4545	5.e-002	5.3582
10900	9.5211	5.4545	0.	4.1649e-003
10901	9.4289	5.3636	0.	4.9357e-003
10902	9.4289	5.4545	5.e-002	5.3309
10903	9.7056	5.4545	0.	4.2521e-003
10904	9.6133	5.3636	0.	4.7185e-003
10905	9.6133	5.4545	5.e-002	5.3038
10906	9.89	5.4545	0.	1.1721e-002
10907	9.7978	5.3636	0.	4.9065e-003
10908	9.7978	5.4545	5.e-002	5.2771
10909	10.074	5.4545	0.	0.8237
10910	9.9822	5.3636	0.	6.475e-003
10911	9.9822	5.4545	5.e-002	5.2506
10912	10.259	5.4545	0.	1.7763
10913	10.167	5.3636	0.	2.9195e-002
10914	10.167	5.4545	5.e-002	5.2246
10915	10.443	5.4545	0.	2.6728
10916	10.351	5.3636	0.	0.86658
10917	10.351	5.4545	5.e-002	5.199
10918	10.628	5.4545	0.	3.5159
10919	10.536	5.3636	0.	1.8357
10920	10.536	5.4545	5.e-002	5.1738
10921	10.812	5.4545	0.	4.3087
10922	10.72	5.3636	0.	2.7474
10923	10.72	5.4545	5.e-002	5.1489
10924	10.997	5.4545	0.	5.0545
10925	10.904	5.3636	0.	3.6035
10926	10.904	5.4545	5.e-002	5.1244
10927	11.181	5.4545	0.	5.7566
10928	11.089	5.3636	0.	4.4076
10929	11.089	5.4545	5.e-002	5.1003
10930	11.366	5.4545	0.	6.4181
10931	11.273	5.3636	0.	5.1634
10932	11.273	5.4545	5.e-002	5.0765
10933	11.55	5.4545	0.	7.0419
10934	11.458	5.3636	0.	5.8742
10935	11.458	5.4545	5.e-002	5.0531
10936	11.734	5.4545	0.	7.6312
10937	11.642	5.3636	0.	6.5436
10938	11.642	5.4545	5.e-002	5.0299
10939	11.919	5.4545	0.	8.1885
10940	11.827	5.3636	0.	7.1747
10941	11.827	5.4545	5.e-002	5.0071
10942	12.103	5.4545	0.	8.7167
10943	12.011	5.3636	0.	7.7708
10944	12.011	5.4545	5.e-002	4.9845
10945	12.288	5.4545	0.	9.2183
10946	12.196	5.3636	0.	8.3348
10947	12.196	5.4545	5.e-002	4.9622
10948	12.472	5.4545	0.	9.6956
10949	12.38	5.3636	0.	8.8696
10950	12.38	5.4545	5.e-002	4.9401
10951	12.657	5.4545	0.	10.151
10952	12.564	5.3636	0.	9.3777
10953	12.564	5.4545	5.e-002	4.9182
10954	12.841	5.4545	0.	10.586
10955	12.749	5.3636	0.	9.8618
10956	12.749	5.4545	5.e-002	4.8966
10957	13.026	5.4545	0.	11.004
10958	12.933	5.3636	0.	10.324
10959	12.933	5.4545	5.e-002	4.8751
10960	13.21	5.4545	0.	11.406
10961	13.118	5.3636	0.	10.767
10962	13.118	5.4545	5.e-002	4.8539
10963	13.394	5.4545	0.	11.795
10964	13.302	5.3636	0.	11.193
10965	13.302	5.4545	5.e-002	4.8328
10966	13.579	5.4545	0.	12.171
10967	13.487	5.3636	0.	11.604
10968	13.487	5.4545	5.e-002	4.8118
10969	13.763	5.4545	0.	12.537
10970	13.671	5.3636	0.	12.001
10971	13.671	5.4545	5.e-002	4.7911
10972	13.948	5.4545	0.	12.894
10973	13.856	5.3636	0.	12.388
10974	13.856	5.4545	5.e-002	4.7705
10975	14.132	5.4545	0.	13.243
10976	14.04	5.3636	0.	12.765
10977	14.04	5.4545	5.e-002	4.75
10978	14.317	5.4545	0.	13.588
10979	14.224	5.3636	0.	13.134
10980	14.224	5.4545	5.e-002	4.7297
10981	14.501	5.4545	0.	13.927
10982	14.409	5.3636	0.	13.497
10983	14.409	5.4545	5.e-002	4.7094
10984	14.686	5.4545	0.	14.265
10985	14.593	5.3636	0.	13.855
10986	14.593	5.4545	5.e-002	4.6894
10987	14.87	5.4545	0.	14.6
10988	14.778	5.3636	0.	14.211
10989	14.778	5.4545	5.e-002	4.6695
10990	15.054	5.4545	0.	14.936
10991	14.962	5.3636	0.	14.566
10992	14.962	5.4545	5.e-002	4.6497
10993	15.239	5.4545	0.	15.272
10994	15.147	5.3636	0.	14.92
10995	15.147	5.4545	5.e-002	4.63
10996	15.423	5.4545	0.	15.611
10997	15.331	5.3636	0.	15.276
10998	15.331	5.4545	5.e-002	4.6105
10999	15.608	5.4545	0.	15.954
11000	15.516	5.3636	0.	15.636
11001	15.516	5.4545	5.e-002	4.591
11002	15.792	5.4545	0.	16.302
11003	15.7	5.3636	0.	16.
11004	15.7	5.4545	5.e-002	4.5717
11005	15.977	5.4545	0.	16.657
11006	15.884	5.3636	0.	16.37
11007	15.884	5.4545	5.e-002	4.5526
11008	16.161	5.4545	0.	17.019
11009	16.069	5.3636	0.	16.747
11010	16.069	5.4545	5.e-002	4.5336
11011	16.346	5.4545	0.	17.39
11012	16.253	5.3636	0.	17.134
11013	16.253	5.4545	5.e-002	4.5147
11014	16.53	5.4545	0.	17.771
11015	16.438	5.3636	0.	17.531
11016	16.438	5.4545	5.e-002	4.496
11017	16.714	5.4545	0.	18.163
11018	16.622	5.3636	0.	17.94
11019	16.622	5.4545	5.e-002	4.4775
11020	16.899	5.4545	0.	18.569
11021	16.807	5.3636	0.	18.362
11022	16.807	5.4545	5.e-002	4.4591
11023	17.083	5.4545	0.	18.988
11024	16.991	5.3636	0.	18.8
11025	16.991	5.4545	5.e-002	4.4409
11026	17.268	5.4545	0.	19.424
11027	17.176	5.3636	0.	19.254
11028	17.176	5.4545	5.e-002	4.4229
11029	17.452	5.4545	0.	19.876
11030	17.36	5.3636	0.	19.727
11031	17.36	5.4545	5.e-002	4.4051
11032	17.637	5.4545	0.	20.347
11033	17.544	5.3636	0.	20.22
11034	17.544	5.4545	5.e-002	4.3874
11035	17.821	5.4545	0.	20.838
11036	17.729	5.3636	0.	20.735
11037	17.729	5.4545	5.e-002	4.37
11038	18.006	5.4545	0.	21.35
11039	17.913	5.3636	0.	21.273
11040	17.913	5.4545	5.e-002	4.3529
11041	18.19	5.4545	0.	21.886
11042	18.098	5.3636	0.	21.837
11043	18.098	5.4545	5.e-002	4.336
11044	18.374	5.4545	0.	22.446
11045	18.282	5.3636	0.	22.429
11046	18.282	5.4545	5.e-002	4.3194
11047	18.559	5.4545	0.	23.033
11048	18.467	5.3636	0.	23.05
11049	18.467	5.4545	5.e-002	4.3031
11050	18.743	5.4545	0.	23.648
11051	18.651	5.3636	0.	23.704
11052	18.651	5.4545	5.e-002	4.2872
11053	18.928	5.4545	0.	24.293
11054	18.836	5.3636	0.	24.391
11055	18.836	5.4545	5.e-002	4.2715
11056	19.112	5.4545	0.	24.97
11057	19.02	5.3636	0.	25.114
11058	19.02	5.4545	5.e-002	4.2563
11059	19.297	5.4545	0.	25.68
11060	19.204	5.3636	0.	25.877
11061	19.204	5.4545	5.e-002	4.2414
11062	19.481	5.4545	0.	26.427
11063	19.389	5.3636	0.	26.68
11064	19.389	5.4545	5.e-002	4.227
11065	19.666	5.4545	0.	27.211
11066	19.573	5.3636	0.	27.528
11067	19.573	5.4545	5.e-002	4.213
11068	19.85	5.4545	0.	28.035
11069	19.758	5.3636	0.	28.422
11070	19.758	5.4545	5.e-002	4.1996
11071	20.034	5.4545	0.	28.902
11072	19.942	5.3636	0.	29.366
11073	19.942	5.4545	5.e-002	4.1866
11074	20.219	5.4545	0.	29.814
11075	20.127	5.3636	0.	30.364
11076	20.127	5.4545	5.e-002	4.1742
11077	20.403	5.4545	0.	30.772
11078	20.311	5.3636	0.	31.418
11079	20.311	5.4545	5.e-002	4.1625
11080	20.588	5.4545	0.	31.782
11081	20.496	5.3636	0.	32.533
11082	20.496	5.4545	5.e-002	4.1514
11083	20.772	5.4545	0.	32.845
11084	20.68	5.3636	0.	33.713
11085	20.68	5.4545	5.e-002	4.1409
11086	20.957	5.4545	0.	33.965
11087	20.864	5.3636	0.	34.962
11088	20.864	5.4545	5.e-002	4.1313
11089	21.141	5.4545	0.	35.147
11090	21.049	5.3636	0.	36.288
11091	21.049	5.4545	5.e-002	4.1223
11092	21.326	5.4545	0.	36.396
11093	21.233	5.3636	0.	37.696
11094	21.233	5.4545	5.e-002	4.1143
11095	21.51	5.4545	0.	37.719
11096	21.418	5.3636	0.	39.195
11097	21.418	5.4545	5.e-002	4.1071
11098	21.694	5.4545	0.	39.125
11099	21.602	5.3636	0.	40.796
11100	21.602	5.4545	5.e-002	4.1009
11101	21.879	5.4545	0.	40.624
11102	21.787	5.3636	0.	42.512
11103	21.787	5.4545	5.e-002	4.0957
11104	22.063	5.4545	0.	42.233
11105	21.971	5.3636	0.	44.359
11106	21.971	5.4545	5.e-002	4.0918
11107	22.248	5.4545	0.	43.973
11108	22.156	5.3636	0.	46.363
11109	22.156	5.4545	5.e-002	4.0892
11110	22.432	5.4545	0.	45.874
11111	22.34	5.3636	0.	48.554
11112	22.34	5.4545	5.e-002	4.0882
11113	22.617	5.4545	0.	47.982
11114	22.524	5.3636	0.	50.979
11115	22.524	5.4545	5.e-002	4.0893
11116	22.801	5.4545	0.	50.367
11117	22.709	5.3636	0.	53.7
11118	22.709	5.4545	5.e-002	4.0931
11119	22.986	5.4545	0.	53.135
11120	22.893	5.3636	0.	56.814
11121	22.893	5.4545	5.e-002	4.1011
11122	23.17	5.4545	0.	56.461
11123	23.078	5.3636	0.	60.46
11124	23.078	5.4545	5.e-002	4.1156
11125	23.354	5.4545	0.	60.619
11126	23.262	5.3636	0.	64.854
11127	23.262	5.4545	5.e-002	4.1418
11128	23.539	5.4545	0.	66.068
11129	23.447	5.3636	0.	70.293
11130	23.447	5.4545	5.e-002	4.1904
11131	23.723	5.4545	0.	73.411
11132	23.631	5.3636	0.	77.255
11133	23.631	5.4545	5.e-002	4.2883
11134	23.816	5.3636	0.	86.142
11135	23.816	5.4545	5.e-002	4.589
11136	23.908	5.4545	0.	81.23
11137	2.1433	5.2727	0.	790.58
11138	2.0511	5.1818	0.	1205.9
11139	2.0511	5.2727	5.e-002	91.518
11140	1.9589	5.2727	0.	787.36
11141	2.3278	5.2727	0.	529.33
11142	2.2356	5.1818	0.	776.82
11143	2.2356	5.2727	5.e-002	70.057
11144	2.5122	5.2727	0.	401.91
11145	2.42	5.1818	0.	559.36
11146	2.42	5.2727	5.e-002	62.003
11147	2.6967	5.2727	0.	323.19
11148	2.6044	5.1818	0.	422.04
11149	2.6044	5.2727	5.e-002	52.616
11150	2.8811	5.2727	0.	265.96
11151	2.7889	5.1818	0.	327.19
11152	2.7889	5.2727	5.e-002	43.272
11153	3.0656	5.2727	0.	219.07
11154	2.9733	5.1818	0.	256.62
11155	2.9733	5.2727	5.e-002	34.769
11156	3.25	5.2727	0.	177.98
11157	3.1578	5.1818	0.	200.55
11158	3.1578	5.2727	5.e-002	27.442
11159	3.4344	5.2727	0.	141.18
11160	3.3422	5.1818	0.	154.1
11161	3.3422	5.2727	5.e-002	21.324
11162	3.6189	5.2727	0.	108.24
11163	3.5267	5.1818	0.	114.79
11164	3.5267	5.2727	5.e-002	16.32
11165	3.8033	5.2727	0.	79.127
11166	3.7111	5.1818	0.	81.35
11167	3.7111	5.2727	5.e-002	12.296
11168	3.9878	5.2727	0.	53.821
11169	3.8956	5.1818	0.	53.031
11170	3.8956	5.2727	5.e-002	9.129
11171	4.1722	5.2727	0.	32.284
11172	4.08	5.1818	0.	29.435
11173	4.08	5.2727	5.e-002	6.7279
11174	4.3567	5.2727	0.	14.597
11175	4.2644	5.1818	0.	10.911
11176	4.2644	5.2727	5.e-002	5.0452
11177	4.5411	5.2727	0.	3.0378
11178	4.4489	5.1818	0.	2.1473
11179	4.4489	5.2727	5.e-002	4.062
11180	4.7256	5.2727	0.	0.75213
11181	4.6333	5.1818	0.	0.75016
11182	4.6333	5.2727	5.e-002	3.7059
11183	4.91	5.2727	0.	0.35857
11184	4.8178	5.1818	0.	0.39337
11185	4.8178	5.2727	5.e-002	3.7784
11186	5.0944	5.2727	0.	0.2178
11187	5.0022	5.1818	0.	0.2452
11188	5.0022	5.2727	5.e-002	4.0493
11189	5.2789	5.2727	0.	0.14921
11190	5.1867	5.1818	0.	0.16822
11191	5.1867	5.2727	5.e-002	4.3695
11192	5.4633	5.2727	0.	0.10991
11193	5.3711	5.1818	0.	0.12276
11194	5.3711	5.2727	5.e-002	4.6702
11195	5.6478	5.2727	0.	8.4975e-002
11196	5.5556	5.1818	0.	9.3534e-002
11197	5.5556	5.2727	5.e-002	4.9269
11198	5.8322	5.2727	0.	6.7976e-002
11199	5.74	5.1818	0.	7.3577e-002
11200	5.74	5.2727	5.e-002	5.1346
11201	6.0167	5.2727	0.	5.5742e-002
11202	5.9244	5.1818	0.	5.9296e-002
11203	5.9244	5.2727	5.e-002	5.2966
11204	6.2011	5.2727	0.	4.6568e-002
11205	6.1089	5.1818	0.	4.8688e-002
11206	6.1089	5.2727	5.e-002	5.4188
11207	6.3856	5.2727	0.	3.9463e-002
11208	6.2933	5.1818	0.	4.0587e-002
11209	6.2933	5.2727	5.e-002	5.5077
11210	6.57	5.2727	0.	3.3809e-002
11211	6.4778	5.1818	0.	3.4248e-002
11212	6.4778	5.2727	5.e-002	5.5695
11213	6.7544	5.2727	0.	2.9217e-002
11214	6.6622	5.1818	0.	2.9181e-002
11215	6.6622	5.2727	5.e-002	5.6097
11216	6.9389	5.2727	0.	2.5426e-002
11217	6.8467	5.1818	0.	2.5078e-002
11218	6.8467	5.2727	5.e-002	5.6325
11219	7.1233	5.2727	0.	2.2246e-002
11220	7.0311	5.1818	0.	2.1704e-002
11221	7.0311	5.2727	5.e-002	5.642
11222	7.3078	5.2727	0.	1.9551e-002
11223	7.2156	5.1818	0.	1.8893e-002
11224	7.2156	5.2727	5.e-002	5.6411
11225	7.4922	5.2727	0.	1.7249e-002
11226	7.4	5.1818	0.	1.6538e-002
11227	7.4	5.2727	5.e-002	5.6322
11228	7.6767	5.2727	0.	1.526e-002
11229	7.5844	5.1818	0.	1.4546e-002
11230	7.5844	5.2727	5.e-002	5.6174
11231	7.8611	5.2727	0.	1.3535e-002
11232	7.7689	5.1818	0.	1.2842e-002
11233	7.7689	5.2727	5.e-002	5.5981
11234	8.0456	5.2727	0.	1.2034e-002
11235	7.9533	5.1818	0.	1.1388e-002
11236	7.9533	5.2727	5.e-002	5.5756
11237	8.23	5.2727	0.	1.0719e-002
11238	8.1378	5.1818	0.	1.0138e-002
11239	8.1378	5.2727	5.e-002	5.5508
11240	8.4144	5.2727	0.	9.5666e-003
11241	8.3222	5.1818	0.	9.0545e-003
11242	8.3222	5.2727	5.e-002	5.5244
11243	8.5989	5.2727	0.	8.5625e-003
11244	8.5067	5.1818	0.	8.1268e-003
11245	8.5067	5.2727	5.e-002	5.4971
11246	8.7833	5.2727	0.	7.6865e-003
11247	8.6911	5.1818	0.	7.3312e-003
11248	8.6911	5.2727	5.e-002	5.4691
11249	8.9678	5.2727	0.	6.9329e-003
11250	8.8756	5.1818	0.	6.6478e-003
11251	8.8756	5.2727	5.e-002	5.4409
11252	9.1522	5.2727	0.	6.3031e-003
11253	9.06	5.1818	0.	6.083e-003
11254	9.06	5.2727	5.e-002	5.4126
11255	9.3367	5.2727	0.	5.7971e-003
11256	9.2444	5.1818	0.	5.6289e-003
11257	9.2444	5.2727	5.e-002	5.3845
11258	9.5211	5.2727	0.	5.444e-003
11259	9.4289	5.1818	0.	5.285e-003
11260	9.4289	5.2727	5.e-002	5.3566
11261	9.7056	5.2727	0.	5.2922e-003
11262	9.6133	5.1818	0.	5.0916e-003
11263	9.6133	5.2727	5.e-002	5.329
11264	9.89	5.2727	0.	5.4823e-003
11265	9.7978	5.1818	0.	5.0613e-003
11266	9.7978	5.2727	5.e-002	5.3019
11267	10.074	5.2727	0.	6.4985e-003
11268	9.9822	5.1818	0.	5.3325e-003
11269	9.9822	5.2727	5.e-002	5.275
11270	10.259	5.2727	0.	1.0607e-002
11271	10.167	5.1818	0.	6.2382e-003
11272	10.167	5.2727	5.e-002	5.2487
11273	10.443	5.2727	0.	0.12015
11274	10.351	5.1818	0.	8.7024e-003
11275	10.351	5.2727	5.e-002	5.2228
11276	10.628	5.2727	0.	1.092
11277	10.536	5.1818	0.	2.0562e-002
11278	10.536	5.2727	5.e-002	5.1973
11279	10.812	5.2727	0.	2.0648
11280	10.72	5.1818	0.	0.48793
11281	10.72	5.2727	5.e-002	5.1722
11282	10.997	5.2727	0.	2.9789
11283	10.904	5.1818	0.	1.5007
11284	10.904	5.2727	5.e-002	5.1475
11285	11.181	5.2727	0.	3.8368
11286	11.089	5.1818	0.	2.4619
11287	11.089	5.2727	5.e-002	5.1232
11288	11.366	5.2727	0.	4.6421
11289	11.273	5.1818	0.	3.364
11290	11.273	5.2727	5.e-002	5.0992
11291	11.55	5.2727	0.	5.3987
11292	11.458	5.1818	0.	4.2101
11293	11.458	5.2727	5.e-002	5.0756
11294	11.734	5.2727	0.	6.1103
11295	11.642	5.1818	0.	5.0044
11296	11.642	5.2727	5.e-002	5.0523
11297	11.919	5.2727	0.	6.7805
11298	11.827	5.1818	0.	5.7508
11299	11.827	5.2727	5.e-002	5.0293
11300	12.103	5.2727	0.	7.4127
11301	12.011	5.1818	0.	6.4531
11302	12.011	5.2727	5.e-002	5.0065
11303	12.288	5.2727	0.	8.0103
11304	12.196	5.1818	0.	7.1151
11305	12.196	5.2727	5.e-002	4.984
11306	12.472	5.2727	0.	8.5762
11307	12.38	5.1818	0.	7.7403
11308	12.38	5.2727	5.e-002	4.9618
11309	12.657	5.2727	0.	9.1134
11310	12.564	5.1818	0.	8.332
11311	12.564	5.2727	5.e-002	4.9398
11312	12.841	5.2727	0.	9.6246
11313	12.749	5.1818	0.	8.8932
11314	12.749	5.2727	5.e-002	4.918
11315	13.026	5.2727	0.	10.113
11316	12.933	5.1818	0.	9.4271
11317	12.933	5.2727	5.e-002	4.8964
11318	13.21	5.2727	0.	10.58
11319	13.118	5.1818	0.	9.9365
11320	13.118	5.2727	5.e-002	4.875
11321	13.394	5.2727	0.	11.028
11322	13.302	5.1818	0.	10.424
11323	13.302	5.2727	5.e-002	4.8538
11324	13.579	5.2727	0.	11.461
11325	13.487	5.1818	0.	10.892
11326	13.487	5.2727	5.e-002	4.8327
11327	13.763	5.2727	0.	11.879
11328	13.671	5.1818	0.	11.343
11329	13.671	5.2727	5.e-002	4.8119
11330	13.948	5.2727	0.	12.286
11331	13.856	5.1818	0.	11.78
11332	13.856	5.2727	5.e-002	4.7911
11333	14.132	5.2727	0.	12.682
11334	14.04	5.1818	0.	12.204
11335	14.04	5.2727	5.e-002	4.7706
11336	14.317	5.2727	0.	13.071
11337	14.224	5.1818	0.	12.618
11338	14.224	5.2727	5.e-002	4.7501
11339	14.501	5.2727	0.	13.453
11340	14.409	5.1818	0.	13.024
11341	14.409	5.2727	5.e-002	4.7298
11342	14.686	5.2727	0.	13.831
11343	14.593	5.1818	0.	13.423
11344	14.593	5.2727	5.e-002	4.7096
11345	14.87	5.2727	0.	14.206
11346	14.778	5.1818	0.	13.819
11347	14.778	5.2727	5.e-002	4.6896
11348	15.054	5.2727	0.	14.58
11349	14.962	5.1818	0.	14.212
11350	14.962	5.2727	5.e-002	4.6697
11351	15.239	5.2727	0.	14.954
11352	15.147	5.1818	0.	14.604
11353	15.147	5.2727	5.e-002	4.6499
11354	15.423	5.2727	0.	15.331
11355	15.331	5.1818	0.	14.998
11356	15.331	5.2727	5.e-002	4.6303
11357	15.608	5.2727	0.	15.712
11358	15.516	5.1818	0.	15.395
11359	15.516	5.2727	5.e-002	4.6107
11360	15.792	5.2727	0.	16.098
11361	15.7	5.1818	0.	15.797
11362	15.7	5.2727	5.e-002	4.5914
11363	15.977	5.2727	0.	16.492
11364	15.884	5.1818	0.	16.205
11365	15.884	5.2727	5.e-002	4.5721
11366	16.161	5.2727	0.	16.894
11367	16.069	5.1818	0.	16.623
11368	16.069	5.2727	5.e-002	4.553
11369	16.346	5.2727	0.	17.308
11370	16.253	5.1818	0.	17.051
11371	16.253	5.2727	5.e-002	4.5341
11372	16.53	5.2727	0.	17.733
11373	16.438	5.1818	0.	17.491
11374	16.438	5.2727	5.e-002	4.5153
11375	16.714	5.2727	0.	18.172
11376	16.622	5.1818	0.	17.945
11377	16.622	5.2727	5.e-002	4.4966
11378	16.899	5.2727	0.	18.628
11379	16.807	5.1818	0.	18.416
11380	16.807	5.2727	5.e-002	4.4782
11381	17.083	5.2727	0.	19.101
11382	16.991	5.1818	0.	18.905
11383	16.991	5.2727	5.e-002	4.4599
11384	17.268	5.2727	0.	19.593
11385	17.176	5.1818	0.	19.415
11386	17.176	5.2727	5.e-002	4.4418
11387	17.452	5.2727	0.	20.107
11388	17.36	5.1818	0.	19.947
11389	17.36	5.2727	5.e-002	4.4239
11390	17.637	5.2727	0.	20.645
11391	17.544	5.1818	0.	20.504
11392	17.544	5.2727	5.e-002	4.4063
11393	17.821	5.2727	0.	21.208
11394	17.729	5.1818	0.	21.089
11395	17.729	5.2727	5.e-002	4.3888
11396	18.006	5.2727	0.	21.799
11397	17.913	5.1818	0.	21.703
11398	17.913	5.2727	5.e-002	4.3716
11399	18.19	5.2727	0.	22.42
11400	18.098	5.1818	0.	22.349
11401	18.098	5.2727	5.e-002	4.3547
11402	18.374	5.2727	0.	23.074
11403	18.282	5.1818	0.	23.031
11404	18.282	5.2727	5.e-002	4.338
11405	18.559	5.2727	0.	23.762
11406	18.467	5.1818	0.	23.75
11407	18.467	5.2727	5.e-002	4.3216
11408	18.743	5.2727	0.	24.489
11409	18.651	5.1818	0.	24.51
11410	18.651	5.2727	5.e-002	4.3056
11411	18.928	5.2727	0.	25.255
11412	18.836	5.1818	0.	25.314
11413	18.836	5.2727	5.e-002	4.2899
11414	19.112	5.2727	0.	26.065
11415	19.02	5.1818	0.	26.165
11416	19.02	5.2727	5.e-002	4.2746
11417	19.297	5.2727	0.	26.922
11418	19.204	5.1818	0.	27.067
11419	19.204	5.2727	5.e-002	4.2597
11420	19.481	5.2727	0.	27.828
11421	19.389	5.1818	0.	28.024
11422	19.389	5.2727	5.e-002	4.2453
11423	19.666	5.2727	0.	28.787
11424	19.573	5.1818	0.	29.039
11425	19.573	5.2727	5.e-002	4.2313
11426	19.85	5.2727	0.	29.803
11427	19.758	5.1818	0.	30.118
11428	19.758	5.2727	5.e-002	4.2178
11429	20.034	5.2727	0.	30.88
11430	19.942	5.1818	0.	31.264
11431	19.942	5.2727	5.e-002	4.2049
11432	20.219	5.2727	0.	32.022
11433	20.127	5.1818	0.	32.482
11434	20.127	5.2727	5.e-002	4.1926
11435	20.403	5.2727	0.	33.235
11436	20.311	5.1818	0.	33.78
11437	20.311	5.2727	5.e-002	4.1809
11438	20.588	5.2727	0.	34.523
11439	20.496	5.1818	0.	35.161
11440	20.496	5.2727	5.e-002	4.1698
11441	20.772	5.2727	0.	35.892
11442	20.68	5.1818	0.	36.634
11443	20.68	5.2727	5.e-002	4.1595
11444	20.957	5.2727	0.	37.35
11445	20.864	5.1818	0.	38.207
11446	20.864	5.2727	5.e-002	4.15
11447	21.141	5.2727	0.	38.906
11448	21.049	5.1818	0.	39.889
11449	21.049	5.2727	5.e-002	4.1414
11450	21.326	5.2727	0.	40.568
11451	21.233	5.1818	0.	41.69
11452	21.233	5.2727	5.e-002	4.1337
11453	21.51	5.2727	0.	42.349
11454	21.418	5.1818	0.	43.624
11455	21.418	5.2727	5.e-002	4.127
11456	21.694	5.2727	0.	44.265
11457	21.602	5.1818	0.	45.707
11458	21.602	5.2727	5.e-002	4.1214
11459	21.879	5.2727	0.	46.335
11460	21.787	5.1818	0.	47.96
11461	21.787	5.2727	5.e-002	4.117
11462	22.063	5.2727	0.	48.584
11463	21.971	5.1818	0.	50.406
11464	21.971	5.2727	5.e-002	4.1142
11465	22.248	5.2727	0.	51.047
11466	22.156	5.1818	0.	53.08
11467	22.156	5.2727	5.e-002	4.113
11468	22.432	5.2727	0.	53.769
11469	22.34	5.1818	0.	56.025
11470	22.34	5.2727	5.e-002	4.1139
11471	22.617	5.2727	0.	56.815
11472	22.524	5.1818	0.	59.297
11473	22.524	5.2727	5.e-002	4.1176
11474	22.801	5.2727	0.	60.272
11475	22.709	5.1818	0.	62.975
11476	22.709	5.2727	5.e-002	4.1249
11477	22.986	5.2727	0.	64.269
11478	22.893	5.1818	0.	67.164
11479	22.893	5.2727	5.e-002	4.1376
11480	23.17	5.2727	0.	68.981
11481	23.078	5.1818	0.	72.004
11482	23.078	5.2727	5.e-002	4.1583
11483	23.354	5.2727	0.	74.643
11484	23.262	5.1818	0.	77.684
11485	23.262	5.2727	5.e-002	4.1919
11486	23.539	5.2727	0.	81.569
11487	23.447	5.1818	0.	84.415
11488	23.447	5.2727	5.e-002	4.2465
11489	23.723	5.2727	0.	90.05
11490	23.631	5.1818	0.	92.492
11491	23.631	5.2727	5.e-002	4.3406
11492	23.816	5.1818	0.	102.03
11493	23.816	5.2727	5.e-002	4.5928
11494	23.908	5.2727	0.	98.629
11495	2.1433	5.0909	0.	1138.4
11496	2.0511	5.	0.	1650.8
11497	2.0511	5.0909	5.e-002	106.66
11498	1.9589	5.0909	0.	1121.2
11499	2.3278	5.0909	0.	769.3
11500	2.2356	5.	0.	1083.9
11501	2.2356	5.0909	5.e-002	76.949
11502	2.5122	5.0909	0.	556.07
11503	2.42	5.	0.	759.25
11504	2.42	5.0909	5.e-002	65.433
11505	2.6967	5.0909	0.	412.18
11506	2.6044	5.	0.	537.05
11507	2.6044	5.0909	5.e-002	53.44
11508	2.8811	5.0909	0.	309.78
11509	2.7889	5.	0.	382.3
11510	2.7889	5.0909	5.e-002	42.617
11511	3.0656	5.0909	0.	233.43
11512	2.9733	5.	0.	272.84
11513	2.9733	5.0909	5.e-002	33.554
11514	3.25	5.0909	0.	173.97
11515	3.1578	5.	0.	193.01
11516	3.1578	5.0909	5.e-002	26.243
11517	3.4344	5.0909	0.	126.2
11518	3.3422	5.	0.	132.89
11519	3.3422	5.0909	5.e-002	20.433
11520	3.6189	5.0909	0.	87.099
11521	3.5267	5.	0.	86.401
11522	3.5267	5.0909	5.e-002	15.856
11523	3.8033	5.0909	0.	54.921
11524	3.7111	5.	0.	49.977
11525	3.7111	5.0909	5.e-002	12.288
11526	3.9878	5.0909	0.	28.757
11527	3.8956	5.	0.	22.054
11528	3.8956	5.0909	5.e-002	9.5656
11529	4.1722	5.0909	0.	9.4217
11530	4.08	5.	0.	5.7036
11531	4.08	5.0909	5.e-002	7.5696
11532	4.3567	5.0909	0.	2.1503
11533	4.2644	5.	0.	1.7862
11534	4.2644	5.0909	5.e-002	6.2103
11535	4.5411	5.0909	0.	0.86201
11536	4.4489	5.	0.	0.85627
11537	4.4489	5.0909	5.e-002	5.3964
11538	4.7256	5.0909	0.	0.46828
11539	4.6333	5.	0.	0.49765
11540	4.6333	5.0909	5.e-002	5.0086
11541	4.91	5.0909	0.	0.29329
11542	4.8178	5.	0.	0.32061
11543	4.8178	5.0909	5.e-002	4.9059
11544	5.0944	5.0909	0.	0.19963
11545	5.0022	5.	0.	0.22051
11546	5.0022	5.0909	5.e-002	4.9608
11547	5.2789	5.0909	0.	0.14364
11548	5.1867	5.	0.	0.15882
11549	5.1867	5.0909	5.e-002	5.0841
11550	5.4633	5.0909	0.	0.10758
11551	5.3711	5.	0.	0.11842
11552	5.3711	5.0909	5.e-002	5.2242
11553	5.6478	5.0909	0.	8.3046e-002
11554	5.5556	5.	0.	9.0727e-002
11555	5.5556	5.0909	5.e-002	5.3553
11556	5.8322	5.0909	0.	6.5651e-002
11557	5.74	5.	0.	7.1058e-002
11558	5.74	5.0909	5.e-002	5.4662
11559	6.0167	5.0909	0.	5.2894e-002
11560	5.9244	5.	0.	5.6672e-002
11561	5.9244	5.0909	5.e-002	5.5538
11562	6.2011	5.0909	0.	4.3284e-002
11563	6.1089	5.	0.	4.5888e-002
11564	6.1089	5.0909	5.e-002	5.6191
11565	6.3856	5.0909	0.	3.5888e-002
11566	6.2933	5.	0.	3.7654e-002
11567	6.2933	5.0909	5.e-002	5.6643
11568	6.57	5.0909	0.	3.0085e-002
11569	6.4778	5.	0.	3.1255e-002
11570	6.4778	5.0909	5.e-002	5.6924
11571	6.7544	5.0909	0.	2.5463e-002
11572	6.6622	5.	0.	2.6204e-002
11573	6.6622	5.0909	5.e-002	5.7066
11574	6.9389	5.0909	0.	2.1738e-002
11575	6.8467	5.	0.	2.2179e-002
11576	6.8467	5.0909	5.e-002	5.7094
11577	7.1233	5.0909	0.	1.8696e-002
11578	7.0311	5.	0.	1.8933e-002
11579	7.0311	5.0909	5.e-002	5.7034
11580	7.3078	5.0909	0.	1.619e-002
11581	7.2156	5.	0.	1.6284e-002
11582	7.2156	5.0909	5.e-002	5.6904
11583	7.4922	5.0909	0.	1.4113e-002
11584	7.4	5.	0.	1.4118e-002
11585	7.4	5.0909	5.e-002	5.6722
11586	7.6767	5.0909	0.	1.2374e-002
11587	7.5844	5.	0.	1.233e-002
11588	7.5844	5.0909	5.e-002	5.65
11589	7.8611	5.0909	0.	1.0912e-002
11590	7.7689	5.	0.	1.0838e-002
11591	7.7689	5.0909	5.e-002	5.625
11592	8.0456	5.0909	0.	9.6809e-003
11593	7.9533	5.	0.	9.5989e-003
11594	7.9533	5.0909	5.e-002	5.598
11595	8.23	5.0909	0.	8.6351e-003
11596	8.1378	5.	0.	8.5623e-003
11597	8.1378	5.0909	5.e-002	5.5697
11598	8.4144	5.0909	0.	7.7493e-003
11599	8.3222	5.	0.	7.6872e-003
11600	8.3222	5.0909	5.e-002	5.5405
11601	8.5989	5.0909	0.	7.0034e-003
11602	8.5067	5.	0.	6.9605e-003
11603	8.5067	5.0909	5.e-002	5.5109
11604	8.7833	5.0909	0.	6.3736e-003
11605	8.6911	5.	0.	6.355e-003
11606	8.6911	5.0909	5.e-002	5.4812
11607	8.9678	5.0909	0.	5.8519e-003
11608	8.8756	5.	0.	5.8496e-003
11609	8.8756	5.0909	5.e-002	5.4515
11610	9.1522	5.0909	0.	5.4352e-003
11611	9.06	5.	0.	5.4471e-003
11612	9.06	5.0909	5.e-002	5.4221
11613	9.3367	5.0909	0.	5.115e-003
11614	9.2444	5.	0.	5.1356e-003
11615	9.2444	5.0909	5.e-002	5.393
11616	9.5211	5.0909	0.	4.9036e-003
11617	9.4289	5.	0.	4.9072e-003
11618	9.4289	5.0909	5.e-002	5.3643
11619	9.7056	5.0909	0.	4.8115e-003
11620	9.6133	5.	0.	4.7871e-003
11621	9.6133	5.0909	5.e-002	5.336
11622	9.89	5.0909	0.	4.8757e-003
11623	9.7978	5.	0.	4.7581e-003
11624	9.7978	5.0909	5.e-002	5.3083
11625	10.074	5.0909	0.	5.2196e-003
11626	9.9822	5.	0.	4.8838e-003
11627	9.9822	5.0909	5.e-002	5.281
11628	10.259	5.0909	0.	6.0196e-003
11629	10.167	5.	0.	5.2829e-003
11630	10.167	5.0909	5.e-002	5.2542
11631	10.443	5.0909	0.	7.8452e-003
11632	10.351	5.	0.	6.0165e-003
11633	10.351	5.0909	5.e-002	5.2279
11634	10.628	5.0909	0.	1.3536e-002
11635	10.536	5.	0.	7.5491e-003
11636	10.536	5.0909	5.e-002	5.2021
11637	10.812	5.0909	0.	8.8071e-002
11638	10.72	5.	0.	1.1529e-002
11639	10.72	5.0909	5.e-002	5.1767
11640	10.997	5.0909	0.	1.0095
11641	10.904	5.	0.	3.2418e-002
11642	10.904	5.0909	5.e-002	5.1518
11643	11.181	5.0909	0.	2.0118
11644	11.089	5.	0.	0.63283
11645	11.089	5.0909	5.e-002	5.1272
11646	11.366	5.0909	0.	2.9544
11647	11.273	5.	0.	1.6616
11648	11.273	5.0909	5.e-002	5.103
11649	11.55	5.0909	0.	3.8384
11650	11.458	5.	0.	2.6352
11651	11.458	5.0909	5.e-002	5.0792
11652	11.734	5.0909	0.	4.6676
11653	11.642	5.	0.	3.5485
11654	11.642	5.0909	5.e-002	5.0557
11655	11.919	5.0909	0.	5.4465
11656	11.827	5.	0.	4.4049
11657	11.827	5.0909	5.e-002	5.0325
11658	12.103	5.0909	0.	6.1789
11659	12.011	5.	0.	5.2089
11660	12.011	5.0909	5.e-002	5.0097
11661	12.288	5.0909	0.	6.8689
11662	12.196	5.	0.	5.9647
11663	12.196	5.0909	5.e-002	4.987
11664	12.472	5.0909	0.	7.5202
11665	12.38	5.	0.	6.6766
11666	12.38	5.0909	5.e-002	4.9647
11667	12.657	5.0909	0.	8.1363
11668	12.564	5.	0.	7.3483
11669	12.564	5.0909	5.e-002	4.9426
11670	12.841	5.0909	0.	8.7206
11671	12.749	5.	0.	7.9836
11672	12.749	5.0909	5.e-002	4.9207
11673	13.026	5.0909	0.	9.2762
11674	12.933	5.	0.	8.5861
11675	12.933	5.0909	5.e-002	4.899
11676	13.21	5.0909	0.	9.8062
11677	13.118	5.	0.	9.1591
11678	13.118	5.0909	5.e-002	4.8775
11679	13.394	5.0909	0.	10.313
11680	13.302	5.	0.	9.7057
11681	13.302	5.0909	5.e-002	4.8562
11682	13.579	5.0909	0.	10.801
11683	13.487	5.	0.	10.229
11684	13.487	5.0909	5.e-002	4.8351
11685	13.763	5.0909	0.	11.27
11686	13.671	5.	0.	10.732
11687	13.671	5.0909	5.e-002	4.8141
11688	13.948	5.0909	0.	11.725
11689	13.856	5.	0.	11.217
11690	13.856	5.0909	5.e-002	4.7933
11691	14.132	5.0909	0.	12.167
11692	14.04	5.	0.	11.687
11693	14.04	5.0909	5.e-002	4.7727
11694	14.317	5.0909	0.	12.599
11695	14.224	5.	0.	12.144
11696	14.224	5.0909	5.e-002	4.7522
11697	14.501	5.0909	0.	13.022
11698	14.409	5.	0.	12.592
11699	14.409	5.0909	5.e-002	4.7319
11700	14.686	5.0909	0.	13.44
11701	14.593	5.	0.	13.031
11702	14.593	5.0909	5.e-002	4.7116
11703	14.87	5.0909	0.	13.853
11704	14.778	5.	0.	13.465
11705	14.778	5.0909	5.e-002	4.6916
11706	15.054	5.0909	0.	14.265
11707	14.962	5.	0.	13.896
11708	14.962	5.0909	5.e-002	4.6717
11709	15.239	5.0909	0.	14.677
11710	15.147	5.	0.	14.325
11711	15.147	5.0909	5.e-002	4.6519
11712	15.423	5.0909	0.	15.092
11713	15.331	5.	0.	14.756
11714	15.331	5.0909	5.e-002	4.6322
11715	15.608	5.0909	0.	15.51
11716	15.516	5.	0.	15.19
11717	15.516	5.0909	5.e-002	4.6127
11718	15.792	5.0909	0.	15.935
11719	15.7	5.	0.	15.629
11720	15.7	5.0909	5.e-002	4.5933
11721	15.977	5.0909	0.	16.368
11722	15.884	5.	0.	16.076
11723	15.884	5.0909	5.e-002	4.5741
11724	16.161	5.0909	0.	16.811
11725	16.069	5.	0.	16.533
11726	16.069	5.0909	5.e-002	4.555
11727	16.346	5.0909	0.	17.266
11728	16.253	5.	0.	17.002
11729	16.253	5.0909	5.e-002	4.536
11730	16.53	5.0909	0.	17.736
11731	16.438	5.	0.	17.485
11732	16.438	5.0909	5.e-002	4.5173
11733	16.714	5.0909	0.	18.223
11734	16.622	5.	0.	17.985
11735	16.622	5.0909	5.e-002	4.4986
11736	16.899	5.0909	0.	18.728
11737	16.807	5.	0.	18.504
11738	16.807	5.0909	5.e-002	4.4802
11739	17.083	5.0909	0.	19.254
11740	16.991	5.	0.	19.044
11741	16.991	5.0909	5.e-002	4.462
11742	17.268	5.0909	0.	19.804
11743	17.176	5.	0.	19.609
11744	17.176	5.0909	5.e-002	4.4439
11745	17.452	5.0909	0.	20.38
11746	17.36	5.	0.	20.2
11747	17.36	5.0909	5.e-002	4.426
11748	17.637	5.0909	0.	20.985
11749	17.544	5.	0.	20.822
11750	17.544	5.0909	5.e-002	4.4084
11751	17.821	5.0909	0.	21.621
11752	17.729	5.	0.	21.475
11753	17.729	5.0909	5.e-002	4.391
11754	18.006	5.0909	0.	22.291
11755	17.913	5.	0.	22.165
11756	17.913	5.0909	5.e-002	4.3739
11757	18.19	5.0909	0.	22.999
11758	18.098	5.	0.	22.893
11759	18.098	5.0909	5.e-002	4.357
11760	18.374	5.0909	0.	23.746
11761	18.282	5.	0.	23.664
11762	18.282	5.0909	5.e-002	4.3404
11763	18.559	5.0909	0.	24.538
11764	18.467	5.	0.	24.481
11765	18.467	5.0909	5.e-002	4.3242
11766	18.743	5.0909	0.	25.376
11767	18.651	5.	0.	25.347
11768	18.651	5.0909	5.e-002	4.3082
11769	18.928	5.0909	0.	26.266
11770	18.836	5.	0.	26.268
11771	18.836	5.0909	5.e-002	4.2927
11772	19.112	5.0909	0.	27.21
11773	19.02	5.	0.	27.247
11774	19.02	5.0909	5.e-002	4.2775
11775	19.297	5.0909	0.	28.214
11776	19.204	5.	0.	28.289
11777	19.204	5.0909	5.e-002	4.2627
11778	19.481	5.0909	0.	29.281
11779	19.389	5.	0.	29.398
11780	19.389	5.0909	5.e-002	4.2485
11781	19.666	5.0909	0.	30.417
11782	19.573	5.	0.	30.581
11783	19.573	5.0909	5.e-002	4.2347
11784	19.85	5.0909	0.	31.626
11785	19.758	5.	0.	31.844
11786	19.758	5.0909	5.e-002	4.2214
11787	20.034	5.0909	0.	32.916
11788	19.942	5.	0.	33.191
11789	19.942	5.0909	5.e-002	4.2087
11790	20.219	5.0909	0.	34.291
11791	20.127	5.	0.	34.631
11792	20.127	5.0909	5.e-002	4.1967
11793	20.403	5.0909	0.	35.759
11794	20.311	5.	0.	36.17
11795	20.311	5.0909	5.e-002	4.1853
11796	20.588	5.0909	0.	37.328
11797	20.496	5.	0.	37.818
11798	20.496	5.0909	5.e-002	4.1746
11799	20.772	5.0909	0.	39.007
11800	20.68	5.	0.	39.584
11801	20.68	5.0909	5.e-002	4.1648
11802	20.957	5.0909	0.	40.805
11803	20.864	5.	0.	41.478
11804	20.864	5.0909	5.e-002	4.1558
11805	21.141	5.0909	0.	42.736
11806	21.049	5.	0.	43.513
11807	21.049	5.0909	5.e-002	4.1478
11808	21.326	5.0909	0.	44.812
11809	21.233	5.	0.	45.704
11810	21.233	5.0909	5.e-002	4.1408
11811	21.51	5.0909	0.	47.051
11812	21.418	5.	0.	48.067
11813	21.418	5.0909	5.e-002	4.1349
11814	21.694	5.0909	0.	49.474
11815	21.602	5.	0.	50.624
11816	21.602	5.0909	5.e-002	4.1304
11817	21.879	5.0909	0.	52.107
11818	21.787	5.	0.	53.398
11819	21.787	5.0909	5.e-002	4.1274
11820	22.063	5.0909	0.	54.982
11821	21.971	5.	0.	56.423
11822	21.971	5.0909	5.e-002	4.126
11823	22.248	5.0909	0.	58.142
11824	22.156	5.	0.	59.735
11825	22.156	5.0909	5.e-002	4.1268
11826	22.432	5.0909	0.	61.64
11827	22.34	5.	0.	63.384
11828	22.34	5.0909	5.e-002	4.1301
11829	22.617	5.0909	0.	65.548
11830	22.524	5.	0.	67.432
11831	22.524	5.0909	5.e-002	4.1368
11832	22.801	5.0909	0.	69.957
11833	22.709	5.	0.	71.958
11834	22.709	5.0909	5.e-002	4.1478
11835	22.986	5.0909	0.	74.987
11836	22.893	5.	0.	77.059
11837	22.893	5.0909	5.e-002	4.1649
11838	23.17	5.0909	0.	80.787
11839	23.078	5.	0.	82.856
11840	23.078	5.0909	5.e-002	4.1906
11841	23.354	5.0909	0.	87.522
11842	23.262	5.	0.	89.491
11843	23.262	5.0909	5.e-002	4.229
11844	23.539	5.0909	0.	95.388
11845	23.447	5.	0.	97.094
11846	23.447	5.0909	5.e-002	4.2855
11847	23.723	5.0909	0.	104.51
11848	23.631	5.	0.	105.85
11849	23.631	5.0909	5.e-002	4.372
11850	23.816	5.	0.	115.73
11851	23.816	5.0909	5.e-002	4.5888
11852	23.908	5.0909	0.	113.53
11853	2.1433	4.9091	0.	1537.3
11854	2.0511	4.8182	0.	2183.8
11855	2.0511	4.9091	5.e-002	128.12
11856	1.9589	4.9091	0.	1520.3
11857	2.3278	4.9091	0.	1031.2
11858	2.2356	4.8182	0.	1421.4
11859	2.2356	4.9091	5.e-002	87.264
11860	2.5122	4.9091	0.	712.38
11861	2.42	4.8182	0.	954.27
11862	2.42	4.9091	5.e-002	69.803
11863	2.6967	4.9091	0.	490.25
11864	2.6044	4.8182	0.	631.48
11865	2.6044	4.9091	5.e-002	53.952
11866	2.8811	4.9091	0.	335.49
11867	2.7889	4.8182	0.	411.26
11868	2.7889	4.9091	5.e-002	41.497
11869	3.0656	4.9091	0.	226.79
11870	2.9733	4.8182	0.	262.44
11871	2.9733	4.9091	5.e-002	32.175
11872	3.25	4.9091	0.	148.78
11873	3.1578	4.8182	0.	160.77
11874	3.1578	4.9091	5.e-002	25.213
11875	3.4344	4.9091	0.	91.47
11876	3.3422	4.8182	0.	90.073
11877	3.3422	4.9091	5.e-002	19.955
11878	3.6189	4.9091	0.	48.789
11879	3.5267	4.8182	0.	40.866
11880	3.5267	4.9091	5.e-002	15.936
11881	3.8033	4.9091	0.	18.493
11882	3.7111	4.8182	0.	11.838
11883	3.7111	4.9091	5.e-002	12.861
11884	3.9878	4.9091	0.	4.7708
11885	3.8956	4.8182	0.	3.5899
11886	3.8956	4.9091	5.e-002	10.533
11887	4.1722	4.9091	0.	1.8141
11888	4.08	4.8182	0.	1.66
11889	4.08	4.9091	5.e-002	8.8174
11890	4.3567	4.9091	0.	0.94096
11891	4.2644	4.8182	0.	0.93934
11892	4.2644	4.9091	5.e-002	7.6045
11893	4.5411	4.9091	0.	0.56493
11894	4.4489	4.8182	0.	0.58918
11895	4.4489	4.9091	5.e-002	6.7963
11896	4.7256	4.9091	0.	0.36867
11897	4.6333	4.8182	0.	0.39357
11898	4.6333	4.9091	5.e-002	6.2964
11899	4.91	4.9091	0.	0.25422
11900	4.8178	4.8182	0.	0.27462
11901	4.8178	4.9091	5.e-002	6.0141
11902	5.0944	4.9091	0.	0.18246
11903	5.0022	4.8182	0.	0.19799
11904	5.0022	4.9091	5.e-002	5.8729
11905	5.2789	4.9091	0.	0.13508
11906	5.1867	4.8182	0.	0.14651
11907	5.1867	4.9091	5.e-002	5.815
11908	5.4633	4.9091	0.	0.10252
11909	5.3711	4.8182	0.	0.11078
11910	5.3711	4.9091	5.e-002	5.8013
11911	5.6478	4.9091	0.	7.9421e-002
11912	5.5556	4.8182	0.	8.53e-002
11913	5.5556	4.9091	5.e-002	5.8074
11914	5.8322	4.9091	0.	6.2615e-002
11915	5.74	4.8182	0.	6.6734e-002
11916	5.74	4.9091	5.e-002	5.8194
11917	6.0167	4.9091	0.	5.011e-002
11918	5.9244	4.8182	0.	5.2947e-002
11919	5.9244	4.9091	5.e-002	5.8295
11920	6.2011	4.9091	0.	4.0636e-002
11921	6.1089	4.8182	0.	4.2535e-002
11922	6.1089	4.9091	5.e-002	5.8344
11923	6.3856	4.9091	0.	3.3348e-002
11924	6.2933	4.8182	0.	3.4574e-002
11925	6.2933	4.9091	5.e-002	5.8327
11926	6.57	4.9091	0.	2.766e-002
11927	6.4778	4.8182	0.	2.8408e-002
11928	6.4778	4.9091	5.e-002	5.8246
11929	6.7544	4.9091	0.	2.3171e-002
11930	6.6622	4.8182	0.	2.3575e-002
11931	6.6622	4.9091	5.e-002	5.8106
11932	6.9389	4.9091	0.	1.9597e-002
11933	6.8467	4.8182	0.	1.9763e-002
11934	6.8467	4.9091	5.e-002	5.7915
11935	7.1233	4.9091	0.	1.6719e-002
11936	7.0311	4.8182	0.	1.6728e-002
11937	7.0311	4.9091	5.e-002	5.7685
11938	7.3078	4.9091	0.	1.4386e-002
11939	7.2156	4.8182	0.	1.4287e-002
11940	7.2156	4.9091	5.e-002	5.7423
11941	7.4922	4.9091	0.	1.2487e-002
11942	7.4	4.8182	0.	1.2324e-002
11943	7.4	4.9091	5.e-002	5.7138
11944	7.6767	4.9091	0.	1.0925e-002
11945	7.5844	4.8182	0.	1.0732e-002
11946	7.5844	4.9091	5.e-002	5.6836
11947	7.8611	4.9091	0.	9.638e-003
11948	7.7689	4.8182	0.	9.4282e-003
11949	7.7689	4.9091	5.e-002	5.6523
11950	8.0456	4.9091	0.	8.5767e-003
11951	7.9533	4.8182	0.	8.3687e-003
11952	7.9533	4.9091	5.e-002	5.6204
11953	8.23	4.9091	0.	7.6943e-003
11954	8.1378	4.8182	0.	7.5016e-003
11955	8.1378	4.9091	5.e-002	5.5882
11956	8.4144	4.9091	0.	6.9628e-003
11957	8.3222	4.8182	0.	6.7855e-003
11958	8.3222	4.9091	5.e-002	5.5559
11959	8.5989	4.9091	0.	6.3614e-003
11960	8.5067	4.8182	0.	6.2056e-003
11961	8.5067	4.9091	5.e-002	5.5239
11962	8.7833	4.9091	0.	5.8658e-003
11963	8.6911	4.8182	0.	5.7359e-003
11964	8.6911	4.9091	5.e-002	5.4922
11965	8.9678	4.9091	0.	5.4656e-003
11966	8.8756	4.8182	0.	5.3534e-003
11967	8.8756	4.9091	5.e-002	5.4609
11968	9.1522	4.9091	0.	5.1548e-003
11969	9.06	4.8182	0.	5.0603e-003
11970	9.06	4.9091	5.e-002	5.4302
11971	9.3367	4.9091	0.	4.922e-003
11972	9.2444	4.8182	0.	4.842e-003
11973	9.2444	4.9091	5.e-002	5.4001
11974	9.5211	4.9091	0.	4.7726e-003
11975	9.4289	4.8182	0.	4.6874e-003
11976	9.4289	4.9091	5.e-002	5.3705
11977	9.7056	4.9091	0.	4.7053e-003
11978	9.6133	4.8182	0.	4.6168e-003
11979	9.6133	4.9091	5.e-002	5.3416
11980	9.89	4.9091	0.	4.7325e-003
11981	9.7978	4.8182	0.	4.6015e-003
11982	9.7978	4.9091	5.e-002	5.3133
11983	10.074	4.9091	0.	4.9222e-003
11984	9.9822	4.8182	0.	4.6855e-003
11985	9.9822	4.9091	5.e-002	5.2854
11986	10.259	4.9091	0.	5.3096e-003
11987	10.167	4.8182	0.	4.9422e-003
11988	10.167	4.9091	5.e-002	5.2583
11989	10.443	4.9091	0.	5.993e-003
11990	10.351	4.8182	0.	5.3287e-003
11991	10.351	4.9091	5.e-002	5.2316
11992	10.628	4.9091	0.	7.3369e-003
11993	10.536	4.8182	0.	5.9924e-003
11994	10.536	4.9091	5.e-002	5.2055
11995	10.812	4.9091	0.	1.0407e-002
11996	10.72	4.8182	0.	7.2476e-003
11997	10.72	4.9091	5.e-002	5.1798
11998	10.997	4.9091	0.	2.1669e-002
11999	10.904	4.8182	0.	9.8757e-003
12000	10.904	4.9091	5.e-002	5.1546
12001	11.181	4.9091	0.	0.32915
12002	11.089	4.8182	0.	1.8092e-002
12003	11.089	4.9091	5.e-002	5.1298
12004	11.366	4.9091	0.	1.3658
12005	11.273	4.8182	0.	0.16099
12006	11.273	4.9091	5.e-002	5.1054
12007	11.55	4.9091	0.	2.3678
12008	11.458	4.8182	0.	1.1625
12009	11.458	4.9091	5.e-002	5.0815
12010	11.734	4.9091	0.	3.3083
12011	11.642	4.8182	0.	2.184
12012	11.642	4.9091	5.e-002	5.0578
12013	11.919	4.9091	0.	4.1903
12014	11.827	4.8182	0.	3.1438
12015	11.827	4.9091	5.e-002	5.0345
12016	12.103	4.9091	0.	5.018
12017	12.011	4.8182	0.	4.0437
12018	12.011	4.9091	5.e-002	5.0114
12019	12.288	4.9091	0.	5.796
12020	12.196	4.8182	0.	4.8883
12021	12.196	4.9091	5.e-002	4.9887
12022	12.472	4.9091	0.	6.5287
12023	12.38	4.8182	0.	5.6822
12024	12.38	4.9091	5.e-002	4.9662
12025	12.657	4.9091	0.	7.22
12026	12.564	4.8182	0.	6.4297
12027	12.564	4.9091	5.e-002	4.944
12028	12.841	4.9091	0.	7.8739
12029	12.749	4.8182	0.	7.1352
12030	12.749	4.9091	5.e-002	4.922
12031	13.026	4.9091	0.	8.4941
12032	12.933	4.8182	0.	7.8027
12033	12.933	4.9091	5.e-002	4.9003
12034	13.21	4.9091	0.	9.084
12035	13.118	4.8182	0.	8.4361
12036	13.118	4.9091	5.e-002	4.8787
12037	13.394	4.9091	0.	9.6472
12038	13.302	4.8182	0.	9.0389
12039	13.302	4.9091	5.e-002	4.8573
12040	13.579	4.9091	0.	10.187
12041	13.487	4.8182	0.	9.6147
12042	13.487	4.9091	5.e-002	4.8361
12043	13.763	4.9091	0.	10.705
12044	13.671	4.8182	0.	10.167
12045	13.671	4.9091	5.e-002	4.8151
12046	13.948	4.9091	0.	11.206
12047	13.856	4.8182	0.	10.698
12048	13.856	4.9091	5.e-002	4.7943
12049	14.132	4.9091	0.	11.692
12050	14.04	4.8182	0.	11.212
12051	14.04	4.9091	5.e-002	4.7736
12052	14.317	4.9091	0.	12.165
12053	14.224	4.8182	0.	11.711
12054	14.224	4.9091	5.e-002	4.7531
12055	14.501	4.9091	0.	12.629
12056	14.409	4.8182	0.	12.197
12057	14.409	4.9091	5.e-002	4.7327
12058	14.686	4.9091	0.	13.085
12059	14.593	4.8182	0.	12.675
12060	14.593	4.9091	5.e-002	4.7125
12061	14.87	4.9091	0.	13.536
12062	14.778	4.8182	0.	13.146
12063	14.778	4.9091	5.e-002	4.6924
12064	15.054	4.9091	0.	13.985
12065	14.962	4.8182	0.	13.613
12066	14.962	4.9091	5.e-002	4.6724
12067	15.239	4.9091	0.	14.433
12068	15.147	4.8182	0.	14.078
12069	15.147	4.9091	5.e-002	4.6526
12070	15.423	4.9091	0.	14.884
12071	15.331	4.8182	0.	14.544
12072	15.331	4.9091	5.e-002	4.633
12073	15.608	4.9091	0.	15.339
12074	15.516	4.8182	0.	15.014
12075	15.516	4.9091	5.e-002	4.6134
12076	15.792	4.9091	0.	15.801
12077	15.7	4.8182	0.	15.49
12078	15.7	4.9091	5.e-002	4.594
12079	15.977	4.9091	0.	16.273
12080	15.884	4.8182	0.	15.974
12081	15.884	4.9091	5.e-002	4.5748
12082	16.161	4.9091	0.	16.755
12083	16.069	4.8182	0.	16.469
12084	16.069	4.9091	5.e-002	4.5557
12085	16.346	4.9091	0.	17.253
12086	16.253	4.8182	0.	16.978
12087	16.253	4.9091	5.e-002	4.5368
12088	16.53	4.9091	0.	17.766
12089	16.438	4.8182	0.	17.503
12090	16.438	4.9091	5.e-002	4.518
12091	16.714	4.9091	0.	18.299
12092	16.622	4.8182	0.	18.047
12093	16.622	4.9091	5.e-002	4.4994
12094	16.899	4.9091	0.	18.854
12095	16.807	4.8182	0.	18.613
12096	16.807	4.9091	5.e-002	4.481
12097	17.083	4.9091	0.	19.433
12098	16.991	4.8182	0.	19.204
12099	16.991	4.9091	5.e-002	4.4628
12100	17.268	4.9091	0.	20.04
12101	17.176	4.8182	0.	19.822
12102	17.176	4.9091	5.e-002	4.4448
12103	17.452	4.9091	0.	20.677
12104	17.36	4.8182	0.	20.472
12105	17.36	4.9091	5.e-002	4.427
12106	17.637	4.9091	0.	21.348
12107	17.544	4.8182	0.	21.155
12108	17.544	4.9091	5.e-002	4.4094
12109	17.821	4.9091	0.	22.056
12110	17.729	4.8182	0.	21.877
12111	17.729	4.9091	5.e-002	4.392
12112	18.006	4.9091	0.	22.804
12113	17.913	4.8182	0.	22.64
12114	17.913	4.9091	5.e-002	4.375
12115	18.19	4.9091	0.	23.597
12116	18.098	4.8182	0.	23.449
12117	18.098	4.9091	5.e-002	4.3582
12118	18.374	4.9091	0.	24.437
12119	18.282	4.8182	0.	24.308
12120	18.282	4.9091	5.e-002	4.3417
12121	18.559	4.9091	0.	25.33
12122	18.467	4.8182	0.	25.22
12123	18.467	4.9091	5.e-002	4.3255
12124	18.743	4.9091	0.	26.28
12125	18.651	4.8182	0.	26.191
12126	18.651	4.9091	5.e-002	4.3097
12127	18.928	4.9091	0.	27.291
12128	18.836	4.8182	0.	27.226
12129	18.836	4.9091	5.e-002	4.2942
12130	19.112	4.9091	0.	28.368
12131	19.02	4.8182	0.	28.33
12132	19.02	4.9091	5.e-002	4.2792
12133	19.297	4.9091	0.	29.517
12134	19.204	4.8182	0.	29.508
12135	19.204	4.9091	5.e-002	4.2646
12136	19.481	4.9091	0.	30.743
12137	19.389	4.8182	0.	30.768
12138	19.389	4.9091	5.e-002	4.2505
12139	19.666	4.9091	0.	32.054
12140	19.573	4.8182	0.	32.115
12141	19.573	4.9091	5.e-002	4.2369
12142	19.85	4.9091	0.	33.455
12143	19.758	4.8182	0.	33.557
12144	19.758	4.9091	5.e-002	4.2239
12145	20.034	4.9091	0.	34.954
12146	19.942	4.8182	0.	35.102
12147	19.942	4.9091	5.e-002	4.2114
12148	20.219	4.9091	0.	36.559
12149	20.127	4.8182	0.	36.757
12150	20.127	4.9091	5.e-002	4.1996
12151	20.403	4.9091	0.	38.28
12152	20.311	4.8182	0.	38.534
12153	20.311	4.9091	5.e-002	4.1886
12154	20.588	4.9091	0.	40.126
12155	20.496	4.8182	0.	40.441
12156	20.496	4.9091	5.e-002	4.1783
12157	20.772	4.9091	0.	42.109
12158	20.68	4.8182	0.	42.492
12159	20.68	4.9091	5.e-002	4.1689
12160	20.957	4.9091	0.	44.241
12161	20.864	4.8182	0.	44.698
12162	20.864	4.9091	5.e-002	4.1605
12163	21.141	4.9091	0.	46.538
12164	21.049	4.8182	0.	47.076
12165	21.049	4.9091	5.e-002	4.1531
12166	21.326	4.9091	0.	49.018
12167	21.233	4.8182	0.	49.642
12168	21.233	4.9091	5.e-002	4.1468
12169	21.51	4.9091	0.	51.701
12170	21.418	4.8182	0.	52.416
12171	21.418	4.9091	5.e-002	4.1419
12172	21.694	4.9091	0.	54.611
12173	21.602	4.8182	0.	55.424
12174	21.602	4.9091	5.e-002	4.1384
12175	21.879	4.9091	0.	57.78
12176	21.787	4.8182	0.	58.692
12177	21.787	4.9091	5.e-002	4.1366
12178	22.063	4.9091	0.	61.243
12179	21.971	4.8182	0.	62.255
12180	21.971	4.9091	5.e-002	4.1369
12181	22.248	4.9091	0.	65.046
12182	22.156	4.8182	0.	66.154
12183	22.156	4.9091	5.e-002	4.1395
12184	22.432	4.9091	0.	69.246
12185	22.34	4.8182	0.	70.438
12186	22.34	4.9091	5.e-002	4.1451
12187	22.617	4.9091	0.	73.911
12188	22.524	4.8182	0.	75.168
12189	22.524	4.9091	5.e-002	4.1544
12190	22.801	4.9091	0.	79.125
12191	22.709	4.8182	0.	80.414
12192	22.709	4.9091	5.e-002	4.1686
12193	22.986	4.9091	0.	84.989
12194	22.893	4.8182	0.	86.262
12195	22.893	4.9091	5.e-002	4.1891
12196	23.17	4.9091	0.	91.613
12197	23.078	4.8182	0.	92.803
12198	23.078	4.9091	5.e-002	4.2183
12199	23.354	4.9091	0.	99.106
12200	23.262	4.8182	0.	100.14
12201	23.262	4.9091	5.e-002	4.2591
12202	23.539	4.9091	0.	107.59
12203	23.447	4.8182	0.	108.34
12204	23.447	4.9091	5.e-002	4.3149
12205	23.723	4.9091	0.	117.09
12206	23.631	4.8182	0.	117.52
12207	23.631	4.9091	5.e-002	4.3938
12208	23.816	4.8182	0.	127.6
12209	23.816	4.9091	5.e-002	4.5802
12210	23.908	4.9091	0.	126.41
12211	2.1433	4.7273	0.	1997.7
12212	2.0511	4.6364	0.	2833.9
12213	2.0511	4.7273	5.e-002	161.24
12214	1.9589	4.7273	0.	2014.5
12215	2.3278	4.7273	0.	1296.9
12216	2.2356	4.6364	0.	1760.9
12217	2.2356	4.7273	5.e-002	100.33
12218	2.5122	4.7273	0.	843.15
12219	2.42	4.6364	0.	1106.3
12220	2.42	4.7273	5.e-002	74.147
12221	2.6967	4.7273	0.	534.33
12222	2.6044	4.6364	0.	673.06
12223	2.6044	4.7273	5.e-002	53.537
12224	2.8811	4.7273	0.	327.66
12225	2.7889	4.6364	0.	393.16
12226	2.7889	4.7273	5.e-002	40.218
12227	3.0656	4.7273	0.	190.46
12228	2.9733	4.6364	0.	214.13
12229	2.9733	4.7273	5.e-002	31.279
12230	3.25	4.7273	0.	98.962
12231	3.1578	4.6364	0.	99.745
12232	3.1578	4.7273	5.e-002	25.026
12233	3.4344	4.7273	0.	39.078
12234	3.3422	4.6364	0.	31.005
12235	3.3422	4.7273	5.e-002	20.402
12236	3.6189	4.7273	0.	9.8853
12237	3.5267	4.6364	0.	7.3788
12238	3.5267	4.7273	5.e-002	16.865
12239	3.8033	4.7273	0.	3.4245
12240	3.7111	4.6364	0.	3.0265
12241	3.7111	4.7273	5.e-002	14.119
12242	3.9878	4.7273	0.	1.7178
12243	3.8956	4.6364	0.	1.6486
12244	3.8956	4.7273	5.e-002	11.987
12245	4.1722	4.7273	0.	1.0129
12246	4.08	4.6364	0.	1.0163
12247	4.08	4.7273	5.e-002	10.349
12248	4.3567	4.7273	0.	0.64999
12249	4.2644	4.6364	0.	0.66994
12250	4.2644	4.7273	5.e-002	9.1118
12251	4.5411	4.7273	0.	0.4396
12252	4.4489	4.6364	0.	0.4608
12253	4.4489	4.7273	5.e-002	8.1986
12254	4.7256	4.7273	0.	0.30845
12255	4.6333	4.6364	0.	0.32664
12256	4.6333	4.7273	5.e-002	7.5401
12257	4.91	4.7273	0.	0.22256
12258	4.8178	4.6364	0.	0.23695
12259	4.8178	4.7273	5.e-002	7.0752
12260	5.0944	4.7273	0.	0.16424
12261	5.0022	4.6364	0.	0.17515
12262	5.0022	4.7273	5.e-002	6.7517
12263	5.2789	4.7273	0.	0.12351
12264	5.1867	4.6364	0.	0.13156
12265	5.1867	4.7273	5.e-002	6.5278
12266	5.4633	4.7273	0.	9.4408e-002
12267	5.3711	4.6364	0.	0.10023
12268	5.3711	4.7273	5.e-002	6.3713
12269	5.6478	4.7273	0.	7.3211e-002
12270	5.5556	4.6364	0.	7.7321e-002
12271	5.5556	4.7273	5.e-002	6.2593
12272	5.8322	4.7273	0.	5.7519e-002
12273	5.74	4.6364	0.	6.0357e-002
12274	5.74	4.7273	5.e-002	6.1756
12275	6.0167	4.7273	0.	4.5731e-002
12276	5.9244	4.6364	0.	4.7636e-002
12277	5.9244	4.7273	5.e-002	6.1096
12278	6.2011	4.7273	0.	3.6768e-002
12279	6.1089	4.6364	0.	3.7986e-002
12280	6.1089	4.7273	5.e-002	6.0544
12281	6.3856	4.7273	0.	2.9881e-002
12282	6.2933	4.6364	0.	3.0607e-002
12283	6.2933	4.7273	5.e-002	6.0055
12284	6.57	4.7273	0.	2.4533e-002
12285	6.4778	4.6364	0.	2.4915e-002
12286	6.4778	4.7273	5.e-002	5.9604
12287	6.7544	4.7273	0.	2.0347e-002
12288	6.6622	4.6364	0.	2.0482e-002
12289	6.6622	4.7273	5.e-002	5.9175
12290	6.9389	4.7273	0.	1.705e-002
12291	6.8467	4.6364	0.	1.702e-002
12292	6.8467	4.7273	5.e-002	5.876
12293	7.1233	4.7273	0.	1.4431e-002
12294	7.0311	4.6364	0.	1.4297e-002
12295	7.0311	4.7273	5.e-002	5.8354
12296	7.3078	4.7273	0.	1.2341e-002
12297	7.2156	4.6364	0.	1.2137e-002
12298	7.2156	4.7273	5.e-002	5.7956
12299	7.4922	4.7273	0.	1.0669e-002
12300	7.4	4.6364	0.	1.0428e-002
12301	7.4	4.7273	5.e-002	5.7564
12302	7.6767	4.7273	0.	9.3197e-003
12303	7.5844	4.6364	0.	9.068e-003
12304	7.5844	4.7273	5.e-002	5.7178
12305	7.8611	4.7273	0.	8.2308e-003
12306	7.7689	4.6364	0.	7.9759e-003
12307	7.7689	4.7273	5.e-002	5.6799
12308	8.0456	4.7273	0.	7.3535e-003
12309	7.9533	4.6364	0.	7.1087e-003
12310	7.9533	4.7273	5.e-002	5.6429
12311	8.23	4.7273	0.	6.6414e-003
12312	8.1378	4.6364	0.	6.4174e-003
12313	8.1378	4.7273	5.e-002	5.6066
12314	8.4144	4.7273	0.	6.0666e-003
12315	8.3222	4.6364	0.	5.8605e-003
12316	8.3222	4.7273	5.e-002	5.5712
12317	8.5989	4.7273	0.	5.6087e-003
12318	8.5067	4.6364	0.	5.4251e-003
12319	8.5067	4.7273	5.e-002	5.5366
12320	8.7833	4.7273	0.	5.243e-003
12321	8.6911	4.6364	0.	5.0848e-003
12322	8.6911	4.7273	5.e-002	5.5029
12323	8.9678	4.7273	0.	4.959e-003
12324	8.8756	4.6364	0.	4.8183e-003
12325	8.8756	4.7273	5.e-002	5.4701
12326	9.1522	4.7273	0.	4.7502e-003
12327	9.06	4.6364	0.	4.6265e-003
12328	9.06	4.7273	5.e-002	5.4381
12329	9.3367	4.7273	0.	4.6026e-003
12330	9.2444	4.6364	0.	4.4952e-003
12331	9.2444	4.7273	5.e-002	5.4069
12332	9.5211	4.7273	0.	4.5198e-003
12333	9.4289	4.6364	0.	4.412e-003
12334	9.4289	4.7273	5.e-002	5.3765
12335	9.7056	4.7273	0.	4.4949e-003
12336	9.6133	4.6364	0.	4.3946e-003
12337	9.6133	4.7273	5.e-002	5.3468
12338	9.89	4.7273	0.	4.5315e-003
12339	9.7978	4.6364	0.	4.409e-003
12340	9.7978	4.7273	5.e-002	5.3179
12341	10.074	4.7273	0.	4.6806e-003
12342	9.9822	4.6364	0.	4.4926e-003
12343	9.9822	4.7273	5.e-002	5.2896
12344	10.259	4.7273	0.	4.9414e-003
12345	10.167	4.6364	0.	4.7029e-003
12346	10.167	4.7273	5.e-002	5.2619
12347	10.443	4.7273	0.	5.3311e-003
12348	10.351	4.6364	0.	4.967e-003
12349	10.351	4.7273	5.e-002	5.235
12350	10.628	4.7273	0.	5.987e-003
12351	10.536	4.6364	0.	5.3629e-003
12352	10.536	4.7273	5.e-002	5.2085
12353	10.812	4.7273	0.	7.138e-003
12354	10.72	4.6364	0.	6.0256e-003
12355	10.72	4.7273	5.e-002	5.1826
12356	10.997	4.7273	0.	9.4494e-003
12357	10.904	4.6364	0.	7.1181e-003
12358	10.904	4.7273	5.e-002	5.1571
12359	11.181	4.7273	0.	1.5968e-002
12360	11.089	4.6364	0.	9.2707e-003
12361	11.089	4.7273	5.e-002	5.1321
12362	11.366	4.7273	0.	8.4473e-002
12363	11.273	4.6364	0.	1.5064e-002
12364	11.273	4.7273	5.e-002	5.1076
12365	11.55	4.7273	0.	1.0023
12366	11.458	4.6364	0.	6.4032e-002
12367	11.458	4.7273	5.e-002	5.0834
12368	11.734	4.7273	0.	2.0419
12369	11.642	4.6364	0.	0.92596
12370	11.642	4.7273	5.e-002	5.0596
12371	11.919	4.7273	0.	3.0199
12372	11.827	4.6364	0.	1.9762
12373	11.827	4.7273	5.e-002	5.0362
12374	12.103	4.7273	0.	3.9371
12375	12.011	4.6364	0.	2.965
12376	12.011	4.7273	5.e-002	5.013
12377	12.288	4.7273	0.	4.7979
12378	12.196	4.6364	0.	3.8923
12379	12.196	4.7273	5.e-002	4.9901
12380	12.472	4.7273	0.	5.607
12381	12.38	4.6364	0.	4.7628
12382	12.38	4.7273	5.e-002	4.9676
12383	12.657	4.7273	0.	6.3691
12384	12.564	4.6364	0.	5.5812
12385	12.564	4.7273	5.e-002	4.9453
12386	12.841	4.7273	0.	7.0886
12387	12.749	4.6364	0.	6.3523
12388	12.749	4.7273	5.e-002	4.9232
12389	13.026	4.7273	0.	7.7696
12390	12.933	4.6364	0.	7.0807
12391	12.933	4.7273	5.e-002	4.9013
12392	13.21	4.7273	0.	8.4162
12393	13.118	4.6364	0.	7.7706
12394	13.118	4.7273	5.e-002	4.8797
12395	13.394	4.7273	0.	9.0321
12396	13.302	4.6364	0.	8.4261
12397	13.302	4.7273	5.e-002	4.8582
12398	13.579	4.7273	0.	9.6209
12399	13.487	4.6364	0.	9.0511
12400	13.487	4.7273	5.e-002	4.837
12401	13.763	4.7273	0.	10.186
12402	13.671	4.6364	0.	9.6492
12403	13.671	4.7273	5.e-002	4.816
12404	13.948	4.7273	0.	10.73
12405	13.856	4.6364	0.	10.224
12406	13.856	4.7273	5.e-002	4.7951
12407	14.132	4.7273	0.	11.258
12408	14.04	4.6364	0.	10.779
12409	14.04	4.7273	5.e-002	4.7744
12410	14.317	4.7273	0.	11.77
12411	14.224	4.6364	0.	11.317
12412	14.224	4.7273	5.e-002	4.7538
12413	14.501	4.7273	0.	12.272
12414	14.409	4.6364	0.	11.841
12415	14.409	4.7273	5.e-002	4.7334
12416	14.686	4.7273	0.	12.765
12417	14.593	4.6364	0.	12.355
12418	14.593	4.7273	5.e-002	4.7131
12419	14.87	4.7273	0.	13.252
12420	14.778	4.6364	0.	12.861
12421	14.778	4.7273	5.e-002	4.693
12422	15.054	4.7273	0.	13.736
12423	14.962	4.6364	0.	13.362
12424	14.962	4.7273	5.e-002	4.6731
12425	15.239	4.7273	0.	14.219
12426	15.147	4.6364	0.	13.861
12427	15.147	4.7273	5.e-002	4.6532
12428	15.423	4.7273	0.	14.705
12429	15.331	4.6364	0.	14.361
12430	15.331	4.7273	5.e-002	4.6335
12431	15.608	4.7273	0.	15.195
12432	15.516	4.6364	0.	14.865
12433	15.516	4.7273	5.e-002	4.614
12434	15.792	4.7273	0.	15.693
12435	15.7	4.6364	0.	15.375
12436	15.7	4.7273	5.e-002	4.5946
12437	15.977	4.7273	0.	16.202
12438	15.884	4.6364	0.	15.895
12439	15.884	4.7273	5.e-002	4.5754
12440	16.161	4.7273	0.	16.723
12441	16.069	4.6364	0.	16.427
12442	16.069	4.7273	5.e-002	4.5563
12443	16.346	4.7273	0.	17.261
12444	16.253	4.6364	0.	16.974
12445	16.253	4.7273	5.e-002	4.5374
12446	16.53	4.7273	0.	17.816
12447	16.438	4.6364	0.	17.539
12448	16.438	4.7273	5.e-002	4.5187
12449	16.714	4.7273	0.	18.394
12450	16.622	4.6364	0.	18.126
12451	16.622	4.7273	5.e-002	4.5001
12452	16.899	4.7273	0.	18.997
12453	16.807	4.6364	0.	18.737
12454	16.807	4.7273	5.e-002	4.4817
12455	17.083	4.7273	0.	19.627
12456	16.991	4.6364	0.	19.375
12457	16.991	4.7273	5.e-002	4.4635
12458	17.268	4.7273	0.	20.289
12459	17.176	4.6364	0.	20.046
12460	17.176	4.7273	5.e-002	4.4455
12461	17.452	4.7273	0.	20.985
12462	17.36	4.6364	0.	20.751
12463	17.36	4.7273	5.e-002	4.4278
12464	17.637	4.7273	0.	21.721
12465	17.544	4.6364	0.	21.495
12466	17.544	4.7273	5.e-002	4.4102
12467	17.821	4.7273	0.	22.498
12468	17.729	4.6364	0.	22.282
12469	17.729	4.7273	5.e-002	4.3929
12470	18.006	4.7273	0.	23.323
12471	17.913	4.6364	0.	23.116
12472	17.913	4.7273	5.e-002	4.3759
12473	18.19	4.7273	0.	24.198
12474	18.098	4.6364	0.	24.002
12475	18.098	4.7273	5.e-002	4.3592
12476	18.374	4.7273	0.	25.129
12477	18.282	4.6364	0.	24.945
12478	18.282	4.7273	5.e-002	4.3428
12479	18.559	4.7273	0.	26.12
12480	18.467	4.6364	0.	25.949
12481	18.467	4.7273	5.e-002	4.3267
12482	18.743	4.7273	0.	27.177
12483	18.651	4.6364	0.	27.021
12484	18.651	4.7273	5.e-002	4.3109
12485	18.928	4.7273	0.	28.306
12486	18.836	4.6364	0.	28.165
12487	18.836	4.7273	5.e-002	4.2956
12488	19.112	4.7273	0.	29.512
12489	19.02	4.6364	0.	29.389
12490	19.02	4.7273	5.e-002	4.2807
12491	19.297	4.7273	0.	30.802
12492	19.204	4.6364	0.	30.699
12493	19.204	4.7273	5.e-002	4.2662
12494	19.481	4.7273	0.	32.183
12495	19.389	4.6364	0.	32.103
12496	19.389	4.7273	5.e-002	4.2523
12497	19.666	4.7273	0.	33.662
12498	19.573	4.6364	0.	33.608
12499	19.573	4.7273	5.e-002	4.2388
12500	19.85	4.7273	0.	35.249
12501	19.758	4.6364	0.	35.222
12502	19.758	4.7273	5.e-002	4.226
12503	20.034	4.7273	0.	36.951
12504	19.942	4.6364	0.	36.956
12505	19.942	4.7273	5.e-002	4.2138
12506	20.219	4.7273	0.	38.779
12507	20.127	4.6364	0.	38.819
12508	20.127	4.7273	5.e-002	4.2023
12509	20.403	4.7273	0.	40.743
12510	20.311	4.6364	0.	40.822
12511	20.311	4.7273	5.e-002	4.1916
12512	20.588	4.7273	0.	42.856
12513	20.496	4.6364	0.	42.977
12514	20.496	4.7273	5.e-002	4.1817
12515	20.772	4.7273	0.	45.131
12516	20.68	4.6364	0.	45.299
12517	20.68	4.7273	5.e-002	4.1727
12518	20.957	4.7273	0.	47.584
12519	20.864	4.6364	0.	47.802
12520	20.864	4.7273	5.e-002	4.1648
12521	21.141	4.7273	0.	50.231
12522	21.049	4.6364	0.	50.503
12523	21.049	4.7273	5.e-002	4.158
12524	21.326	4.7273	0.	53.094
12525	21.233	4.6364	0.	53.422
12526	21.233	4.7273	5.e-002	4.1525
12527	21.51	4.7273	0.	56.194
12528	21.418	4.6364	0.	56.582
12529	21.418	4.7273	5.e-002	4.1484
12530	21.694	4.7273	0.	59.56
12531	21.602	4.6364	0.	60.007
12532	21.602	4.7273	5.e-002	4.146
12533	21.879	4.7273	0.	63.223
12534	21.787	4.6364	0.	63.728
12535	21.787	4.7273	5.e-002	4.1454
12536	22.063	4.7273	0.	67.222
12537	21.971	4.6364	0.	67.779
12538	21.971	4.7273	5.e-002	4.1471
12539	22.248	4.7273	0.	71.601
12540	22.156	4.6364	0.	72.202
12541	22.156	4.7273	5.e-002	4.1515
12542	22.432	4.7273	0.	76.415
12543	22.34	4.6364	0.	77.042
12544	22.34	4.7273	5.e-002	4.1591
12545	22.617	4.7273	0.	81.724
12546	22.524	4.6364	0.	82.354
12547	22.524	4.7273	5.e-002	4.1708
12548	22.801	4.7273	0.	87.6
12549	22.709	4.6364	0.	88.199
12550	22.709	4.7273	5.e-002	4.1875
12551	22.986	4.7273	0.	94.121
12552	22.893	4.6364	0.	94.645
12553	22.893	4.7273	5.e-002	4.2106
12554	23.17	4.7273	0.	101.37
12555	23.078	4.6364	0.	101.76
12556	23.078	4.7273	5.e-002	4.2419
12557	23.354	4.7273	0.	109.4
12558	23.262	4.6364	0.	109.61
12559	23.262	4.7273	5.e-002	4.2835
12560	23.539	4.7273	0.	118.3
12561	23.447	4.6364	0.	118.22
12562	23.447	4.7273	5.e-002	4.3374
12563	23.723	4.7273	0.	128.05
12564	23.631	4.6364	0.	127.7
12565	23.631	4.7273	5.e-002	4.4094
12566	23.816	4.6364	0.	137.89
12567	23.816	4.7273	5.e-002	4.5695
12568	23.908	4.7273	0.	137.57
12569	2.1433	4.5455	0.	2508.4
12570	2.0511	4.4545	0.	3698.6
12571	2.0511	4.5455	5.e-002	203.21
12572	1.9589	4.5455	0.	2672.7
12573	2.3278	4.5455	0.	1518.8
12574	2.2356	4.4545	0.	2027.5
12575	2.2356	4.5455	5.e-002	125.28
12576	2.5122	4.5455	0.	906.82
12577	2.42	4.4545	0.	1142.5
12578	2.42	4.5455	5.e-002	75.116
12579	2.6967	4.5455	0.	514.78
12580	2.6044	4.4545	0.	622.14
12581	2.6044	4.5455	5.e-002	53.168
12582	2.8811	4.5455	0.	269.73
12583	2.7889	4.4545	0.	308.7
12584	2.7889	4.5455	5.e-002	40.132
12585	3.0656	4.5455	0.	117.97
12586	2.9733	4.4545	0.	122.17
12587	2.9733	4.5455	5.e-002	32.172
12588	3.25	4.5455	0.	31.525
12589	3.1578	4.4545	0.	25.455
12590	3.1578	4.5455	5.e-002	26.47
12591	3.4344	4.5455	0.	7.1761
12592	3.3422	4.4545	0.	6.2524
12593	3.3422	4.5455	5.e-002	22.138
12594	3.6189	4.5455	0.	3.0834
12595	3.5267	4.4545	0.	2.9112
12596	3.5267	4.5455	5.e-002	18.716
12597	3.8033	4.5455	0.	1.7292
12598	3.7111	4.4545	0.	1.6984
12599	3.7111	4.5455	5.e-002	15.978
12600	3.9878	4.5455	0.	1.0865
12601	3.8956	4.4545	0.	1.0929
12602	3.8956	4.5455	5.e-002	13.782
12603	4.1722	4.5455	0.	0.72578
12604	4.08	4.4545	0.	0.74202
12605	4.08	4.5455	5.e-002	12.029
12606	4.3567	4.5455	0.	0.5036
12607	4.2644	4.4545	0.	0.52071
12608	4.2644	4.5455	5.e-002	10.641
12609	4.5411	4.5455	0.	0.3588
12610	4.4489	4.4545	0.	0.37383
12611	4.4489	4.5455	5.e-002	9.5533
12612	4.7256	4.5455	0.	0.26082
12613	4.6333	4.4545	0.	0.27298
12614	4.6333	4.5455	5.e-002	8.7107
12615	4.91	4.5455	0.	0.1927
12616	4.8178	4.4545	0.	0.20209
12617	4.8178	4.5455	5.e-002	8.0643
12618	5.0944	4.5455	0.	0.14435
12619	5.0022	4.4545	0.	0.15134
12620	5.0022	4.5455	5.e-002	7.5715
12621	5.2789	4.5455	0.	0.10946
12622	5.1867	4.4545	0.	0.11452
12623	5.1867	4.5455	5.e-002	7.1969
12624	5.4633	4.5455	0.	8.3934e-002
12625	5.3711	4.4545	0.	8.7481e-002
12626	5.3711	4.5455	5.e-002	6.911
12627	5.6478	4.5455	0.	6.5033e-002
12628	5.5556	4.4545	0.	6.7424e-002
12629	5.5556	4.5455	5.e-002	6.6908
12630	5.8322	4.5455	0.	5.0895e-002
12631	5.74	4.4545	0.	5.2428e-002
12632	5.74	4.5455	5.e-002	6.5185
12633	6.0167	4.5455	0.	4.0216e-002
12634	5.9244	4.4545	0.	4.1125e-002
12635	5.9244	4.5455	5.e-002	6.3811
12636	6.2011	4.5455	0.	3.2084e-002
12637	6.1089	4.4545	0.	3.2539e-002
12638	6.1089	4.5455	5.e-002	6.2688
12639	6.3856	4.5455	0.	2.5852e-002
12640	6.2933	4.4545	0.	2.599e-002
12641	6.2933	4.5455	5.e-002	6.1747
12642	6.57	4.5455	0.	2.1039e-002
12643	6.4778	4.4545	0.	2.0963e-002
12644	6.4778	4.5455	5.e-002	6.094
12645	6.7544	4.5455	0.	1.7302e-002
12646	6.6622	4.4545	0.	1.708e-002
12647	6.6622	4.5455	5.e-002	6.023
12648	6.9389	4.5455	0.	1.4391e-002
12649	6.8467	4.4545	0.	1.4079e-002
12650	6.8467	4.5455	5.e-002	5.9595
12651	7.1233	4.5455	0.	1.2107e-002
12652	7.0311	4.4545	0.	1.175e-002
12653	7.0311	4.5455	5.e-002	5.9016
12654	7.3078	4.5455	0.	1.0313e-002
12655	7.2156	4.4545	0.	9.93e-003
12656	7.2156	4.5455	5.e-002	5.8482
12657	7.4922	4.5455	0.	8.9025e-003
12658	7.4	4.4545	0.	8.5173e-003
12659	7.4	4.5455	5.e-002	5.7983
12660	7.6767	4.5455	0.	7.7872e-003
12661	7.5844	4.4545	0.	7.4166e-003
12662	7.5844	4.5455	5.e-002	5.7515
12663	7.8611	4.5455	0.	6.9062e-003
12664	7.7689	4.4545	0.	6.5526e-003
12665	7.7689	4.5455	5.e-002	5.7071
12666	8.0456	4.5455	0.	6.2157e-003
12667	7.9533	4.4545	0.	5.8871e-003
12668	7.9533	4.5455	5.e-002	5.6649
12669	8.23	4.5455	0.	5.671e-003
12670	8.1378	4.4545	0.	5.3743e-003
12671	8.1378	4.5455	5.e-002	5.6246
12672	8.4144	4.5455	0.	5.2458e-003
12673	8.3222	4.4545	0.	4.9752e-003
12674	8.3222	4.5455	5.e-002	5.586
12675	8.5989	4.5455	0.	4.9209e-003
12676	8.5067	4.4545	0.	4.6796e-003
12677	8.5067	4.5455	5.e-002	5.5489
12678	8.7833	4.5455	0.	4.6734e-003
12679	8.6911	4.4545	0.	4.4624e-003
12680	8.6911	4.5455	5.e-002	5.5132
12681	8.9678	4.5455	0.	4.4931e-003
12682	8.8756	4.4545	0.	4.3041e-003
12683	8.8756	4.5455	5.e-002	5.4788
12684	9.1522	4.5455	0.	4.3733e-003
12685	9.06	4.4545	0.	4.2056e-003
12686	9.06	4.5455	5.e-002	5.4454
12687	9.3367	4.5455	0.	4.3013e-003
12688	9.2444	4.4545	0.	4.1545e-003
12689	9.2444	4.5455	5.e-002	5.4132
12690	9.5211	4.5455	0.	4.2788e-003
12691	9.4289	4.4545	0.	4.1374e-003
12692	9.4289	4.5455	5.e-002	5.382
12693	9.7056	4.5455	0.	4.2965e-003
12694	9.6133	4.4545	0.	4.1713e-003
12695	9.6133	4.5455	5.e-002	5.3516
12696	9.89	4.5455	0.	4.3543e-003
12697	9.7978	4.4545	0.	4.2208e-003
12698	9.7978	4.5455	5.e-002	5.3222
12699	10.074	4.5455	0.	4.4965e-003
12700	9.9822	4.4545	0.	4.3184e-003
12701	9.9822	4.5455	5.e-002	5.2934
12702	10.259	4.5455	0.	4.7091e-003
12703	10.167	4.4545	0.	4.5174e-003
12704	10.167	4.5455	5.e-002	5.2653
12705	10.443	4.5455	0.	4.9818e-003
12706	10.351	4.4545	0.	4.7302e-003
12707	10.351	4.5455	5.e-002	5.238
12708	10.628	4.5455	0.	5.395e-003
12709	10.536	4.4545	0.	5.0123e-003
12710	10.536	4.5455	5.e-002	5.2113
12711	10.812	4.5455	0.	6.0312e-003
12712	10.72	4.4545	0.	5.4466e-003
12713	10.72	4.5455	5.e-002	5.1851
12714	10.997	4.5455	0.	7.0754e-003
12715	10.904	4.4545	0.	6.068e-003
12716	10.904	4.5455	5.e-002	5.1594
12717	11.181	4.5455	0.	9.0952e-003
12718	11.089	4.4545	0.	7.0928e-003
12719	11.089	4.5455	5.e-002	5.1342
12720	11.366	4.5455	0.	1.4315e-002
12721	11.273	4.4545	0.	9.0722e-003
12722	11.273	4.5455	5.e-002	5.1095
12723	11.55	4.5455	0.	5.3889e-002
12724	11.458	4.4545	0.	1.415e-002
12725	11.458	4.5455	5.e-002	5.0852
12726	11.734	4.5455	0.	0.88245
12727	11.642	4.4545	0.	5.5727e-002
12728	11.642	4.5455	5.e-002	5.0613
12729	11.919	4.5455	0.	1.9436
12730	11.827	4.4545	0.	0.9144
12731	11.827	4.5455	5.e-002	5.0376
12732	12.103	4.5455	0.	2.943
12733	12.011	4.4545	0.	1.9801
12734	12.011	4.5455	5.e-002	5.0144
12735	12.288	4.5455	0.	3.8804
12736	12.196	4.4545	0.	2.983
12737	12.196	4.5455	5.e-002	4.9914
12738	12.472	4.5455	0.	4.7606
12739	12.38	4.4545	0.	3.924
12740	12.38	4.5455	5.e-002	4.9687
12741	12.657	4.5455	0.	5.5885
12742	12.564	4.4545	0.	4.8077
12743	12.564	4.5455	5.e-002	4.9464
12744	12.841	4.5455	0.	6.3689
12745	12.749	4.4545	0.	5.6393
12746	12.749	4.5455	5.e-002	4.9242
12747	13.026	4.5455	0.	7.1065
12748	12.933	4.4545	0.	6.4239
12749	12.933	4.5455	5.e-002	4.9023
12750	13.21	4.5455	0.	7.8057
12751	13.118	4.4545	0.	7.1659
12752	13.118	4.5455	5.e-002	4.8806
12753	13.394	4.5455	0.	8.4707
12754	13.302	4.4545	0.	7.87
12755	13.302	4.5455	5.e-002	4.8591
12756	13.579	4.5455	0.	9.1055
12757	13.487	4.4545	0.	8.5405
12758	13.487	4.5455	5.e-002	4.8378
12759	13.763	4.5455	0.	9.7137
12760	13.671	4.4545	0.	9.1813
12761	13.671	4.5455	5.e-002	4.8167
12762	13.948	4.5455	0.	10.299
12763	13.856	4.4545	0.	9.7962
12764	13.856	4.5455	5.e-002	4.7958
12765	14.132	4.5455	0.	10.865
12766	14.04	4.4545	0.	10.389
12767	14.04	4.5455	5.e-002	4.775
12768	14.317	4.5455	0.	11.415
12769	14.224	4.4545	0.	10.963
12770	14.224	4.5455	5.e-002	4.7544
12771	14.501	4.5455	0.	11.952
12772	14.409	4.4545	0.	11.522
12773	14.409	4.5455	5.e-002	4.7339
12774	14.686	4.5455	0.	12.479
12775	14.593	4.4545	0.	12.07
12776	14.593	4.5455	5.e-002	4.7137
12777	14.87	4.5455	0.	13.
12778	14.778	4.4545	0.	12.608
12779	14.778	4.5455	5.e-002	4.6936
12780	15.054	4.5455	0.	13.517
12781	14.962	4.4545	0.	13.142
12782	14.962	4.5455	5.e-002	4.6736
12783	15.239	4.5455	0.	14.033
12784	15.147	4.4545	0.	13.672
12785	15.147	4.5455	5.e-002	4.6537
12786	15.423	4.5455	0.	14.552
12787	15.331	4.4545	0.	14.204
12788	15.331	4.5455	5.e-002	4.6341
12789	15.608	4.5455	0.	15.076
12790	15.516	4.4545	0.	14.74
12791	15.516	4.5455	5.e-002	4.6145
12792	15.792	4.5455	0.	15.608
12793	15.7	4.4545	0.	15.283
12794	15.7	4.5455	5.e-002	4.5951
12795	15.977	4.5455	0.	16.151
12796	15.884	4.4545	0.	15.836
12797	15.884	4.5455	5.e-002	4.5759
12798	16.161	4.5455	0.	16.709
12799	16.069	4.4545	0.	16.402
12800	16.069	4.5455	5.e-002	4.5568
12801	16.346	4.5455	0.	17.285
12802	16.253	4.4545	0.	16.985
12803	16.253	4.5455	5.e-002	4.538
12804	16.53	4.5455	0.	17.881
12805	16.438	4.4545	0.	17.588
12806	16.438	4.5455	5.e-002	4.5192
12807	16.714	4.5455	0.	18.501
12808	16.622	4.4545	0.	18.214
12809	16.622	4.5455	5.e-002	4.5006
12810	16.899	4.5455	0.	19.149
12811	16.807	4.4545	0.	18.868
12812	16.807	4.5455	5.e-002	4.4823
12813	17.083	4.5455	0.	19.828
12814	16.991	4.4545	0.	19.552
12815	16.991	4.5455	5.e-002	4.4641
12816	17.268	4.5455	0.	20.542
12817	17.176	4.4545	0.	20.271
12818	17.176	4.5455	5.e-002	4.4462
12819	17.452	4.5455	0.	21.295
12820	17.36	4.4545	0.	21.028
12821	17.36	4.5455	5.e-002	4.4284
12822	17.637	4.5455	0.	22.092
12823	17.544	4.4545	0.	21.829
12824	17.544	4.5455	5.e-002	4.411
12825	17.821	4.5455	0.	22.936
12826	17.729	4.4545	0.	22.678
12827	17.729	4.5455	5.e-002	4.3937
12828	18.006	4.5455	0.	23.832
12829	17.913	4.4545	0.	23.579
12830	17.913	4.5455	5.e-002	4.3767
12831	18.19	4.5455	0.	24.786
12832	18.098	4.4545	0.	24.538
12833	18.098	4.5455	5.e-002	4.3601
12834	18.374	4.5455	0.	25.803
12835	18.282	4.4545	0.	25.56
12836	18.282	4.5455	5.e-002	4.3437
12837	18.559	4.5455	0.	26.888
12838	18.467	4.4545	0.	26.651
12839	18.467	4.5455	5.e-002	4.3277
12840	18.743	4.5455	0.	28.048
12841	18.651	4.4545	0.	27.817
12842	18.651	4.5455	5.e-002	4.312
12843	18.928	4.5455	0.	29.288
12844	18.836	4.4545	0.	29.065
12845	18.836	4.5455	5.e-002	4.2968
12846	19.112	4.5455	0.	30.617
12847	19.02	4.4545	0.	30.402
12848	19.02	4.5455	5.e-002	4.282
12849	19.297	4.5455	0.	32.042
12850	19.204	4.4545	0.	31.836
12851	19.204	4.5455	5.e-002	4.2677
12852	19.481	4.5455	0.	33.57
12853	19.389	4.4545	0.	33.376
12854	19.389	4.5455	5.e-002	4.2538
12855	19.666	4.5455	0.	35.21
12856	19.573	4.4545	0.	35.029
12857	19.573	4.5455	5.e-002	4.2406
12858	19.85	4.5455	0.	36.973
12859	19.758	4.4545	0.	36.806
12860	19.758	4.5455	5.e-002	4.2279
12861	20.034	4.5455	0.	38.867
12862	19.942	4.4545	0.	38.717
12863	19.942	4.5455	5.e-002	4.216
12864	20.219	4.5455	0.	40.906
12865	20.127	4.4545	0.	40.774
12866	20.127	4.5455	5.e-002	4.2047
12867	20.403	4.5455	0.	43.101
12868	20.311	4.4545	0.	42.989
12869	20.311	4.5455	5.e-002	4.1943
12870	20.588	4.5455	0.	45.466
12871	20.496	4.4545	0.	45.376
12872	20.496	4.5455	5.e-002	4.1848
12873	20.772	4.5455	0.	48.016
12874	20.68	4.4545	0.	47.951
12875	20.68	4.5455	5.e-002	4.1762
12876	20.957	4.5455	0.	50.768
12877	20.864	4.4545	0.	50.729
12878	20.864	4.5455	5.e-002	4.1688
12879	21.141	4.5455	0.	53.742
12880	21.049	4.4545	0.	53.729
12881	21.049	4.5455	5.e-002	4.1626
12882	21.326	4.5455	0.	56.958
12883	21.233	4.4545	0.	56.973
12884	21.233	4.5455	5.e-002	4.1578
12885	21.51	4.5455	0.	60.443
12886	21.418	4.4545	0.	60.484
12887	21.418	4.5455	5.e-002	4.1545
12888	21.694	4.5455	0.	64.224
12889	21.602	4.4545	0.	64.288
12890	21.602	4.5455	5.e-002	4.1531
12891	21.879	4.5455	0.	68.333
12892	21.787	4.4545	0.	68.415
12893	21.787	4.5455	5.e-002	4.1537
12894	22.063	4.5455	0.	72.807
12895	21.971	4.4545	0.	72.899
12896	21.971	4.5455	5.e-002	4.1568
12897	22.248	4.5455	0.	77.689
12898	22.156	4.4545	0.	77.777
12899	22.156	4.5455	5.e-002	4.1627
12900	22.432	4.5455	0.	83.026
12901	22.34	4.4545	0.	83.093
12902	22.34	4.5455	5.e-002	4.1721
12903	22.617	4.5455	0.	88.871
12904	22.524	4.4545	0.	88.893
12905	22.524	4.5455	5.e-002	4.1857
12906	22.801	4.5455	0.	95.282
12907	22.709	4.4545	0.	95.227
12908	22.709	4.5455	5.e-002	4.2043
12909	22.986	4.5455	0.	102.32
12910	22.893	4.4545	0.	102.15
12911	22.893	4.5455	5.e-002	4.2292
12912	23.17	4.5455	0.	110.03
12913	23.078	4.4545	0.	109.7
12914	23.078	4.5455	5.e-002	4.2617
12915	23.354	4.5455	0.	118.45
12916	23.262	4.4545	0.	117.93
12917	23.262	4.5455	5.e-002	4.3032
12918	23.539	4.5455	0.	127.65
12919	23.447	4.4545	0.	126.84
12920	23.447	4.5455	5.e-002	4.3548
12921	23.723	4.5455	0.	137.56
12922	23.631	4.4545	0.	136.52
12923	23.631	4.5455	5.e-002	4.4207
12924	23.816	4.4545	0.	146.79
12925	23.816	4.5455	5.e-002	4.5583
12926	23.908	4.5455	0.	147.25
12927	2.1433	4.3636	0.	3087.2
12928	2.0511	4.2727	0.	4455.7
12929	2.0511	4.3636	5.e-002	311.33
12930	1.9589	4.3636	0.	3451.3
12931	2.3278	4.3636	0.	1606.8
12932	2.2356	4.2727	0.	2038.9
12933	2.2356	4.3636	5.e-002	124.83
12934	2.5122	4.3636	0.	834.08
12935	2.42	4.2727	0.	971.43
12936	2.42	4.3636	5.e-002	78.813
12937	2.6967	4.3636	0.	402.4
12938	2.6044	4.2727	0.	449.56
12939	2.6044	4.3636	5.e-002	56.44
12940	2.8811	4.3636	0.	153.05
12941	2.7889	4.2727	0.	156.06
12942	2.7889	4.3636	5.e-002	43.827
12943	3.0656	4.3636	0.	28.499
12944	2.9733	4.2727	0.	23.495
12945	2.9733	4.3636	5.e-002	35.827
12946	3.25	4.3636	0.	6.5529
12947	3.1578	4.2727	0.	6.0155
12948	3.1578	4.3636	5.e-002	29.758
12949	3.4344	4.3636	0.	3.0624
12950	3.3422	4.2727	0.	2.9629
12951	3.3422	4.3636	5.e-002	25.027
12952	3.6189	4.3636	0.	1.7948
12953	3.5267	4.2727	0.	1.7743
12954	3.5267	4.3636	5.e-002	21.252
12955	3.8033	4.3636	0.	1.1631
12956	3.7111	4.2727	0.	1.1679
12957	3.7111	4.3636	5.e-002	18.205
12958	3.9878	4.3636	0.	0.79431
12959	3.8956	4.2727	0.	0.80571
12960	3.8956	4.3636	5.e-002	15.735
12961	4.1722	4.3636	0.	0.56014
12962	4.08	4.2727	0.	0.57262
12963	4.08	4.3636	5.e-002	13.733
12964	4.3567	4.3636	0.	0.40346
12965	4.2644	4.2727	0.	0.41465
12966	4.2644	4.3636	5.e-002	12.116
12967	4.5411	4.3636	0.	0.29511
12968	4.4489	4.2727	0.	0.30432
12969	4.4489	4.3636	5.e-002	10.818
12970	4.7256	4.3636	0.	0.21846
12971	4.6333	4.2727	0.	0.2256
12972	4.6333	4.3636	5.e-002	9.7819
12973	4.91	4.3636	0.	0.16333
12974	4.8178	4.2727	0.	0.16863
12975	4.8178	4.3636	5.e-002	8.9608
12976	5.0944	4.3636	0.	0.12318
12977	5.0022	4.2727	0.	0.12694
12978	5.0022	4.3636	5.e-002	8.3131
12979	5.2789	4.3636	0.	9.3648e-002
12980	5.1867	4.2727	0.	9.6188e-002
12981	5.1867	4.3636	5.e-002	7.8037
12982	5.4633	4.3636	0.	7.1741e-002
12983	5.3711	4.2727	0.	7.3341e-002
12984	5.3711	4.3636	5.e-002	7.4031
12985	5.6478	4.3636	0.	5.5372e-002
12986	5.5556	4.2727	0.	5.6262e-002
12987	5.5556	4.3636	5.e-002	7.0868
12988	5.8322	4.3636	0.	4.3069e-002
12989	5.74	4.2727	0.	4.3444e-002
12990	5.74	4.3636	5.e-002	6.8355
12991	6.0167	4.3636	0.	3.3762e-002
12992	5.9244	4.2727	0.	3.3777e-002
12993	5.9244	4.3636	5.e-002	6.6337
12994	6.2011	4.3636	0.	2.669e-002
12995	6.1089	4.2727	0.	2.6453e-002
12996	6.1089	4.3636	5.e-002	6.4695
12997	6.3856	4.3636	0.	2.1297e-002
12998	6.2933	4.2727	0.	2.0898e-002
12999	6.2933	4.3636	5.e-002	6.3339
13000	6.57	4.3636	0.	1.7164e-002
13001	6.4778	4.2727	0.	1.667e-002
13002	6.4778	4.3636	5.e-002	6.2202
13003	6.7544	4.3636	0.	1.3988e-002
13004	6.6622	4.2727	0.	1.3439e-002
13005	6.6622	4.3636	5.e-002	6.1231
13006	6.9389	4.3636	0.	1.1547e-002
13007	6.8467	4.2727	0.	1.098e-002
13008	6.8467	4.3636	5.e-002	6.0388
13009	7.1233	4.3636	0.	9.6628e-003
13010	7.0311	4.2727	0.	9.1035e-003
13011	7.0311	4.3636	5.e-002	5.9646
13012	7.3078	4.3636	0.	8.2098e-003
13013	7.2156	4.2727	0.	7.667e-003
13014	7.2156	4.3636	5.e-002	5.8984
13015	7.4922	4.3636	0.	7.0939e-003
13016	7.4	4.2727	0.	6.5808e-003
13017	7.4	4.3636	5.e-002	5.8385
13018	7.6767	4.3636	0.	6.2339e-003
13019	7.5844	4.2727	0.	5.7603e-003
13020	7.5844	4.3636	5.e-002	5.7836
13021	7.8611	4.3636	0.	5.5762e-003
13022	7.7689	4.2727	0.	5.1377e-003
13023	7.7689	4.3636	5.e-002	5.733
13024	8.0456	4.3636	0.	5.0804e-003
13025	7.9533	4.2727	0.	4.6815e-003
13026	7.9533	4.3636	5.e-002	5.6859
13027	8.23	4.3636	0.	4.7061e-003
13028	8.1378	4.2727	0.	4.3501e-003
13029	8.1378	4.3636	5.e-002	5.6417
13030	8.4144	4.3636	0.	4.4303e-003
13031	8.3222	4.2727	0.	4.1087e-003
13032	8.3222	4.3636	5.e-002	5.6
13033	8.5989	4.3636	0.	4.2367e-003
13034	8.5067	4.2727	0.	3.9505e-003
13035	8.5067	4.3636	5.e-002	5.5605
13036	8.7833	4.3636	0.	4.1038e-003
13037	8.6911	4.2727	0.	3.8534e-003
13038	8.6911	4.3636	5.e-002	5.5228
13039	8.9678	4.3636	0.	4.0227e-003
13040	8.8756	4.2727	0.	3.7984e-003
13041	8.8756	4.3636	5.e-002	5.4869
13042	9.1522	4.3636	0.	3.9888e-003
13043	9.06	4.2727	0.	3.7896e-003
13044	9.06	4.3636	5.e-002	5.4523
13045	9.3367	4.3636	0.	3.9888e-003
13046	9.2444	4.2727	0.	3.8147e-003
13047	9.2444	4.3636	5.e-002	5.4191
13048	9.5211	4.3636	0.	4.0247e-003
13049	9.4289	4.2727	0.	3.86e-003
13050	9.4289	4.3636	5.e-002	5.3871
13051	9.7056	4.3636	0.	4.0873e-003
13052	9.6133	4.2727	0.	3.9452e-003
13053	9.6133	4.3636	5.e-002	5.3561
13054	9.89	4.3636	0.	4.174e-003
13055	9.7978	4.2727	0.	4.0316e-003
13056	9.7978	4.3636	5.e-002	5.326
13057	10.074	4.3636	0.	4.3262e-003
13058	9.9822	4.2727	0.	4.152e-003
13059	9.9822	4.3636	5.e-002	5.2968
13060	10.259	4.3636	0.	4.5238e-003
13061	10.167	4.2727	0.	4.3551e-003
13062	10.167	4.3636	5.e-002	5.2684
13063	10.443	4.3636	0.	4.7452e-003
13064	10.351	4.2727	0.	4.5483e-003
13065	10.351	4.3636	5.e-002	5.2408
13066	10.628	4.3636	0.	5.0492e-003
13067	10.536	4.2727	0.	4.7769e-003
13068	10.536	4.3636	5.e-002	5.2138
13069	10.812	4.3636	0.	5.4726e-003
13070	10.72	4.2727	0.	5.1036e-003
13071	10.72	4.3636	5.e-002	5.1873
13072	10.997	4.3636	0.	6.085e-003
13073	10.904	4.2727	0.	5.5192e-003
13074	10.904	4.3636	5.e-002	5.1615
13075	11.181	4.3636	0.	7.0951e-003
13076	11.089	4.2727	0.	6.1317e-003
13077	11.089	4.3636	5.e-002	5.1361
13078	11.366	4.3636	0.	8.9926e-003
13079	11.273	4.2727	0.	7.15e-003
13080	11.273	4.3636	5.e-002	5.1112
13081	11.55	4.3636	0.	1.3982e-002
13082	11.458	4.2727	0.	9.039e-003
13083	11.458	4.3636	5.e-002	5.0868
13084	11.734	4.3636	0.	6.1473e-002
13085	11.642	4.2727	0.	1.4336e-002
13086	11.642	4.3636	5.e-002	5.0627
13087	11.919	4.3636	0.	0.97156
13088	11.827	4.2727	0.	9.1233e-002
13089	11.827	4.3636	5.e-002	5.039
13090	12.103	4.3636	0.	2.0424
13091	12.011	4.2727	0.	1.097
13092	12.011	4.3636	5.e-002	5.0156
13093	12.288	4.3636	0.	3.0495
13094	12.196	4.2727	0.	2.1662
13095	12.196	4.3636	5.e-002	4.9926
13096	12.472	4.3636	0.	3.9945
13097	12.38	4.2727	0.	3.1708
13098	12.38	4.3636	5.e-002	4.9698
13099	12.657	4.3636	0.	4.8825
13100	12.564	4.2727	0.	4.1137
13101	12.564	4.3636	5.e-002	4.9474
13102	12.841	4.3636	0.	5.7187
13103	12.749	4.2727	0.	5.0002
13104	12.749	4.3636	5.e-002	4.9252
13105	13.026	4.3636	0.	6.5081
13106	12.933	4.2727	0.	5.8356
13107	12.933	4.3636	5.e-002	4.9032
13108	13.21	4.3636	0.	7.2554
13109	13.118	4.2727	0.	6.625
13110	13.118	4.3636	5.e-002	4.8814
13111	13.394	4.3636	0.	7.9654
13112	13.302	4.2727	0.	7.3732
13113	13.302	4.3636	5.e-002	4.8598
13114	13.579	4.3636	0.	8.6423
13115	13.487	4.2727	0.	8.085
13116	13.487	4.3636	5.e-002	4.8385
13117	13.763	4.3636	0.	9.2901
13118	13.671	4.2727	0.	8.7644
13119	13.671	4.3636	5.e-002	4.8174
13120	13.948	4.3636	0.	9.9129
13121	13.856	4.2727	0.	9.4159
13122	13.856	4.3636	5.e-002	4.7964
13123	14.132	4.3636	0.	10.514
13124	14.04	4.2727	0.	10.043
13125	14.04	4.3636	5.e-002	4.7756
13126	14.317	4.3636	0.	11.098
13127	14.224	4.2727	0.	10.651
13128	14.224	4.3636	5.e-002	4.755
13129	14.501	4.3636	0.	11.668
13130	14.409	4.2727	0.	11.241
13131	14.409	4.3636	5.e-002	4.7345
13132	14.686	4.3636	0.	12.227
13133	14.593	4.2727	0.	11.819
13134	14.593	4.3636	5.e-002	4.7142
13135	14.87	4.3636	0.	12.779
13136	14.778	4.2727	0.	12.388
13137	14.778	4.3636	5.e-002	4.6941
13138	15.054	4.3636	0.	13.326
13139	14.962	4.2727	0.	12.95
13140	14.962	4.3636	5.e-002	4.6741
13141	15.239	4.3636	0.	13.873
13142	15.147	4.2727	0.	13.51
13143	15.147	4.3636	5.e-002	4.6542
13144	15.423	4.3636	0.	14.422
13145	15.331	4.2727	0.	14.071
13146	15.331	4.3636	5.e-002	4.6345
13147	15.608	4.3636	0.	14.977
13148	15.516	4.2727	0.	14.636
13149	15.516	4.3636	5.e-002	4.615
13150	15.792	4.3636	0.	15.541
13151	15.7	4.2727	0.	15.208
13152	15.7	4.3636	5.e-002	4.5956
13153	15.977	4.3636	0.	16.117
13154	15.884	4.2727	0.	15.792
13155	15.884	4.3636	5.e-002	4.5764
13156	16.161	4.3636	0.	16.709
13157	16.069	4.2727	0.	16.39
13158	16.069	4.3636	5.e-002	4.5573
13159	16.346	4.3636	0.	17.32
13160	16.253	4.2727	0.	17.006
13161	16.253	4.3636	5.e-002	4.5384
13162	16.53	4.3636	0.	17.954
13163	16.438	4.2727	0.	17.644
13164	16.438	4.3636	5.e-002	4.5197
13165	16.714	4.3636	0.	18.613
13166	16.622	4.2727	0.	18.307
13167	16.622	4.3636	5.e-002	4.5011
13168	16.899	4.3636	0.	19.304
13169	16.807	4.2727	0.	18.999
13170	16.807	4.3636	5.e-002	4.4828
13171	17.083	4.3636	0.	20.028
13172	16.991	4.2727	0.	19.725
13173	16.991	4.3636	5.e-002	4.4647
13174	17.268	4.3636	0.	20.791
13175	17.176	4.2727	0.	20.489
13176	17.176	4.3636	5.e-002	4.4467
13177	17.452	4.3636	0.	21.597
13178	17.36	4.2727	0.	21.295
13179	17.36	4.3636	5.e-002	4.429
13180	17.637	4.3636	0.	22.451
13181	17.544	4.2727	0.	22.149
13182	17.544	4.3636	5.e-002	4.4116
13183	17.821	4.3636	0.	23.357
13184	17.729	4.2727	0.	23.054
13185	17.729	4.3636	5.e-002	4.3944
13186	18.006	4.3636	0.	24.321
13187	17.913	4.2727	0.	24.017
13188	17.913	4.3636	5.e-002	4.3774
13189	18.19	4.3636	0.	25.348
13190	18.098	4.2727	0.	25.043
13191	18.098	4.3636	5.e-002	4.3608
13192	18.374	4.3636	0.	26.445
13193	18.282	4.2727	0.	26.138
13194	18.282	4.3636	5.e-002	4.3445
13195	18.559	4.3636	0.	27.618
13196	18.467	4.2727	0.	27.309
13197	18.467	4.3636	5.e-002	4.3286
13198	18.743	4.3636	0.	28.873
13199	18.651	4.2727	0.	28.563
13200	18.651	4.3636	5.e-002	4.313
13201	18.928	4.3636	0.	30.218
13202	18.836	4.2727	0.	29.907
13203	18.836	4.3636	5.e-002	4.2979
13204	19.112	4.3636	0.	31.661
13205	19.02	4.2727	0.	31.348
13206	19.02	4.3636	5.e-002	4.2831
13207	19.297	4.3636	0.	33.211
13208	19.204	4.2727	0.	32.897
13209	19.204	4.3636	5.e-002	4.2689
13210	19.481	4.3636	0.	34.876
13211	19.389	4.2727	0.	34.561
13212	19.389	4.3636	5.e-002	4.2552
13213	19.666	4.3636	0.	36.666
13214	19.573	4.2727	0.	36.351
13215	19.573	4.3636	5.e-002	4.2421
13216	19.85	4.3636	0.	38.592
13217	19.758	4.2727	0.	38.277
13218	19.758	4.3636	5.e-002	4.2297
13219	20.034	4.3636	0.	40.666
13220	19.942	4.2727	0.	40.352
13221	19.942	4.3636	5.e-002	4.2179
13222	20.219	4.3636	0.	42.9
13223	20.127	4.2727	0.	42.587
13224	20.127	4.3636	5.e-002	4.2069
13225	20.403	4.3636	0.	45.308
13226	20.311	4.2727	0.	44.996
13227	20.311	4.3636	5.e-002	4.1967
13228	20.588	4.3636	0.	47.905
13229	20.496	4.2727	0.	47.595
13230	20.496	4.3636	5.e-002	4.1875
13231	20.772	4.3636	0.	50.708
13232	20.68	4.2727	0.	50.399
13233	20.68	4.3636	5.e-002	4.1794
13234	20.957	4.3636	0.	53.734
13235	20.864	4.2727	0.	53.427
13236	20.864	4.3636	5.e-002	4.1724
13237	21.141	4.3636	0.	57.005
13238	21.049	4.2727	0.	56.698
13239	21.049	4.3636	5.e-002	4.1668
13240	21.326	4.3636	0.	60.543
13241	21.233	4.2727	0.	60.234
13242	21.233	4.3636	5.e-002	4.1626
13243	21.51	4.3636	0.	64.373
13244	21.418	4.2727	0.	64.058
13245	21.418	4.3636	5.e-002	4.1602
13246	21.694	4.3636	0.	68.523
13247	21.602	4.2727	0.	68.197
13248	21.602	4.3636	5.e-002	4.1596
13249	21.879	4.3636	0.	73.024
13250	21.787	4.2727	0.	72.68
13251	21.787	4.3636	5.e-002	4.1613
13252	22.063	4.3636	0.	77.911
13253	21.971	4.2727	0.	77.538
13254	21.971	4.3636	5.e-002	4.1656
13255	22.248	4.3636	0.	83.222
13256	22.156	4.2727	0.	82.806
13257	22.156	4.3636	5.e-002	4.1729
13258	22.432	4.3636	0.	88.998
13259	22.34	4.2727	0.	88.521
13260	22.34	4.3636	5.e-002	4.1838
13261	22.617	4.3636	0.	95.283
13262	22.524	4.2727	0.	94.723
13263	22.524	4.3636	5.e-002	4.1989
13264	22.801	4.3636	0.	102.12
13265	22.709	4.2727	0.	101.45
13266	22.709	4.3636	5.e-002	4.2191
13267	22.986	4.3636	0.	109.55
13268	22.893	4.2727	0.	108.74
13269	22.893	4.3636	5.e-002	4.2452
13270	23.17	4.3636	0.	117.62
13271	23.078	4.2727	0.	116.63
13272	23.078	4.3636	5.e-002	4.2782
13273	23.354	4.3636	0.	126.33
13274	23.262	4.2727	0.	125.14
13275	23.262	4.3636	5.e-002	4.3191
13276	23.539	4.3636	0.	135.74
13277	23.447	4.2727	0.	134.28
13278	23.447	4.3636	5.e-002	4.3684
13279	23.723	4.3636	0.	145.77
13280	23.631	4.2727	0.	144.1
13281	23.631	4.3636	5.e-002	4.4292
13282	23.816	4.2727	0.	154.42
13283	23.816	4.3636	5.e-002	4.5472
13284	23.908	4.3636	0.	155.58
13285	2.1433	4.1818	0.	3302.
13286	2.0511	4.0909	0.	3815.6
13287	2.0511	4.1818	5.e-002	575.76
13288	1.9589	4.1818	0.	5405.3
13289	2.3278	4.1818	0.	1376.3
13290	2.2356	4.0909	0.	1480.3
13291	2.2356	4.1818	5.e-002	195.81
13292	2.5122	4.1818	0.	573.3
13293	2.42	4.0909	0.	593.24
13294	2.42	4.1818	5.e-002	91.131
13295	2.6967	4.1818	0.	194.27
13296	2.6044	4.0909	0.	183.2
13297	2.6044	4.1818	5.e-002	66.396
13298	2.8811	4.1818	0.	26.398
13299	2.7889	4.0909	0.	20.304
13300	2.7889	4.1818	5.e-002	51.865
13301	3.0656	4.1818	0.	6.4763
13302	2.9733	4.0909	0.	6.0503
13303	2.9733	4.1818	5.e-002	41.604
13304	3.25	4.1818	0.	3.1235
13305	3.1578	4.0909	0.	2.9732
13306	3.1578	4.1818	5.e-002	34.187
13307	3.4344	4.1818	0.	1.8782
13308	3.3422	4.0909	0.	1.8542
13309	3.3422	4.1818	5.e-002	28.526
13310	3.6189	4.1818	0.	1.2339
13311	3.5267	4.0909	0.	1.2277
13312	3.5267	4.1818	5.e-002	24.087
13313	3.8033	4.1818	0.	0.85404
13314	3.7111	4.0909	0.	0.8594
13315	3.7111	4.1818	5.e-002	20.54
13316	3.9878	4.1818	0.	0.60806
13317	3.8956	4.0909	0.	0.6153
13318	3.8956	4.1818	5.e-002	17.678
13319	4.1722	4.1818	0.	0.44114
13320	4.08	4.0909	0.	0.4484
13321	4.08	4.1818	5.e-002	15.358
13322	4.3567	4.1818	0.	0.324
13323	4.2644	4.0909	0.	0.33009
13324	4.2644	4.1818	5.e-002	13.478
13325	4.5411	4.1818	0.	0.24012
13326	4.4489	4.0909	0.	0.24482
13327	4.4489	4.1818	5.e-002	11.958
13328	4.7256	4.1818	0.	0.17919
13329	4.6333	4.0909	0.	0.18255
13330	4.6333	4.1818	5.e-002	10.733
13331	4.91	4.1818	0.	0.1345
13332	4.8178	4.0909	0.	0.13672
13333	4.8178	4.1818	5.e-002	9.7494
13334	5.0944	4.1818	0.	0.10147
13335	5.0022	4.0909	0.	0.10276
13336	5.0022	4.1818	5.e-002	8.9632
13337	5.2789	4.1818	0.	7.6936e-002
13338	5.1867	4.0909	0.	7.7516e-002
13339	5.1867	4.1818	5.e-002	8.336
13340	5.4633	4.1818	0.	5.8613e-002
13341	5.3711	4.0909	0.	5.8673e-002
13342	5.3711	4.1818	5.e-002	7.8362
13343	5.6478	4.1818	0.	4.4881e-002
13344	5.5556	4.0909	0.	4.4567e-002
13345	5.5556	4.1818	5.e-002	7.4372
13346	5.8322	4.1818	0.	3.4562e-002
13347	5.74	4.0909	0.	3.3998e-002
13348	5.74	4.1818	5.e-002	7.1175
13349	6.0167	4.1818	0.	2.678e-002
13350	5.9244	4.0909	0.	2.6063e-002
13351	5.9244	4.1818	5.e-002	6.8598
13352	6.2011	4.1818	0.	2.0903e-002
13353	6.1089	4.0909	0.	2.0095e-002
13354	6.1089	4.1818	5.e-002	6.6502
13355	6.3856	4.1818	0.	1.6462e-002
13356	6.2933	4.0909	0.	1.5618e-002
13357	6.2933	4.1818	5.e-002	6.478
13358	6.57	4.1818	0.	1.3099e-002
13359	6.4778	4.0909	0.	1.2258e-002
13360	6.4778	4.1818	5.e-002	6.3349
13361	6.7544	4.1818	0.	1.0556e-002
13362	6.6622	4.0909	0.	9.7342e-003
13363	6.6622	4.1818	5.e-002	6.2144
13364	6.9389	4.1818	0.	8.6378e-003
13365	6.8467	4.0909	0.	7.8565e-003
13366	6.8467	4.1818	5.e-002	6.1115
13367	7.1233	4.1818	0.	7.191e-003
13368	7.0311	4.0909	0.	6.4626e-003
13369	7.0311	4.1818	5.e-002	6.0226
13370	7.3078	4.1818	0.	6.1066e-003
13371	7.2156	4.0909	0.	5.4298e-003
13372	7.2156	4.1818	5.e-002	5.9446
13373	7.4922	4.1818	0.	5.3036e-003
13374	7.4	4.0909	0.	4.6832e-003
13375	7.4	4.1818	5.e-002	5.8755
13376	7.6767	4.1818	0.	4.7104e-003
13377	7.5844	4.0909	0.	4.1502e-003
13378	7.5844	4.1818	5.e-002	5.8133
13379	7.8611	4.1818	0.	4.2807e-003
13380	7.7689	4.0909	0.	3.7723e-003
13381	7.7689	4.1818	5.e-002	5.7569
13382	8.0456	4.1818	0.	3.9816e-003
13383	7.9533	4.0909	0.	3.5247e-003
13384	7.9533	4.1818	5.e-002	5.7052
13385	8.23	4.1818	0.	3.7769e-003
13386	8.1378	4.0909	0.	3.3722e-003
13387	8.1378	4.1818	5.e-002	5.6574
13388	8.4144	4.1818	0.	3.6476e-003
13389	8.3222	4.0909	0.	3.2844e-003
13390	8.3222	4.1818	5.e-002	5.6129
13391	8.5989	4.1818	0.	3.5811e-003
13392	8.5067	4.0909	0.	3.2584e-003
13393	8.5067	4.1818	5.e-002	5.5711
13394	8.7833	4.1818	0.	3.5577e-003
13395	8.6911	4.0909	0.	3.2752e-003
13396	8.6911	4.1818	5.e-002	5.5317
13397	8.9678	4.1818	0.	3.5711e-003
13398	8.8756	4.0909	0.	3.3182e-003
13399	8.8756	4.1818	5.e-002	5.4943
13400	9.1522	4.1818	0.	3.6179e-003
13401	9.06	4.0909	0.	3.3933e-003
13402	9.06	4.1818	5.e-002	5.4586
13403	9.3367	4.1818	0.	3.6853e-003
13404	9.2444	4.0909	0.	3.4893e-003
13405	9.2444	4.1818	5.e-002	5.4245
13406	9.5211	4.1818	0.	3.7773e-003
13407	9.4289	4.0909	0.	3.594e-003
13408	9.4289	4.1818	5.e-002	5.3917
13409	9.7056	4.1818	0.	3.884e-003
13410	9.6133	4.0909	0.	3.7273e-003
13411	9.6133	4.1818	5.e-002	5.36
13412	9.89	4.1818	0.	4.0021e-003
13413	9.7978	4.0909	0.	3.8512e-003
13414	9.7978	4.1818	5.e-002	5.3295
13415	10.074	4.1818	0.	4.1716e-003
13416	9.9822	4.0909	0.	3.9967e-003
13417	9.9822	4.1818	5.e-002	5.2999
13418	10.259	4.1818	0.	4.3689e-003
13419	10.167	4.0909	0.	4.2118e-003
13420	10.167	4.1818	5.e-002	5.2711
13421	10.443	4.1818	0.	4.5682e-003
13422	10.351	4.0909	0.	4.4009e-003
13423	10.351	4.1818	5.e-002	5.2432
13424	10.628	4.1818	0.	4.8189e-003
13425	10.536	4.0909	0.	4.6048e-003
13426	10.536	4.1818	5.e-002	5.216
13427	10.812	4.1818	0.	5.1377e-003
13428	10.72	4.0909	0.	4.8759e-003
13429	10.72	4.1818	5.e-002	5.1893
13430	10.997	4.1818	0.	5.5532e-003
13431	10.904	4.0909	0.	5.1857e-003
13432	10.904	4.1818	5.e-002	5.1633
13433	11.181	4.1818	0.	6.1706e-003
13434	11.089	4.0909	0.	5.6033e-003
13435	11.089	4.1818	5.e-002	5.1377
13436	11.366	4.1818	0.	7.1525e-003
13437	11.273	4.0909	0.	6.2334e-003
13438	11.273	4.1818	5.e-002	5.1127
13439	11.55	4.1818	0.	9.0381e-003
13440	11.458	4.0909	0.	7.2019e-003
13441	11.458	4.1818	5.e-002	5.0882
13442	11.734	4.1818	0.	1.4767e-002
13443	11.642	4.0909	0.	9.1681e-003
13444	11.642	4.1818	5.e-002	5.064
13445	11.919	4.1818	0.	0.16229
13446	11.827	4.0909	0.	1.6096e-002
13447	11.827	4.1818	5.e-002	5.0402
13448	12.103	4.1818	0.	1.2419
13449	12.011	4.0909	0.	0.33562
13450	12.011	4.1818	5.e-002	5.0167
13451	12.288	4.1818	0.	2.3102
13452	12.196	4.0909	0.	1.4475
13453	12.196	4.1818	5.e-002	4.9936
13454	12.472	4.1818	0.	3.3133
13455	12.38	4.0909	0.	2.508
13456	12.38	4.1818	5.e-002	4.9708
13457	12.657	4.1818	0.	4.2552
13458	12.564	4.0909	0.	3.5033
13459	12.564	4.1818	5.e-002	4.9483
13460	12.841	4.1818	0.	5.1414
13461	12.749	4.0909	0.	4.4385
13462	12.749	4.1818	5.e-002	4.926
13463	13.026	4.1818	0.	5.9773
13464	12.933	4.0909	0.	5.3191
13465	12.933	4.1818	5.e-002	4.9039
13466	13.21	4.1818	0.	6.7679
13467	13.118	4.0909	0.	6.1505
13468	13.118	4.1818	5.e-002	4.8822
13469	13.394	4.1818	0.	7.5183
13470	13.302	4.0909	0.	6.9379
13471	13.302	4.1818	5.e-002	4.8605
13472	13.579	4.1818	0.	8.233
13473	13.487	4.0909	0.	7.6863
13474	13.487	4.1818	5.e-002	4.8391
13475	13.763	4.1818	0.	8.9165
13476	13.671	4.0909	0.	8.4001
13477	13.671	4.1818	5.e-002	4.818
13478	13.948	4.1818	0.	9.573
13479	13.856	4.0909	0.	9.0841
13480	13.856	4.1818	5.e-002	4.797
13481	14.132	4.1818	0.	10.207
13482	14.04	4.0909	0.	9.7423
13483	14.04	4.1818	5.e-002	4.7762
13484	14.317	4.1818	0.	10.821
13485	14.224	4.0909	0.	10.379
13486	14.224	4.1818	5.e-002	4.7555
13487	14.501	4.1818	0.	11.42
13488	14.409	4.0909	0.	10.998
13489	14.409	4.1818	5.e-002	4.735
13490	14.686	4.1818	0.	12.008
13491	14.593	4.0909	0.	11.603
13492	14.593	4.1818	5.e-002	4.7147
13493	14.87	4.1818	0.	12.588
13494	14.778	4.0909	0.	12.198
13495	14.778	4.1818	5.e-002	4.6945
13496	15.054	4.1818	0.	13.163
13497	14.962	4.0909	0.	12.787
13498	14.962	4.1818	5.e-002	4.6745
13499	15.239	4.1818	0.	13.737
13500	15.147	4.0909	0.	13.373
13501	15.147	4.1818	5.e-002	4.6546
13502	15.423	4.1818	0.	14.314
13503	15.331	4.0909	0.	13.959
13504	15.331	4.1818	5.e-002	4.6349
13505	15.608	4.1818	0.	14.897
13506	15.516	4.0909	0.	14.551
13507	15.516	4.1818	5.e-002	4.6154
13508	15.792	4.1818	0.	15.49
13509	15.7	4.0909	0.	15.15
13510	15.7	4.1818	5.e-002	4.596
13511	15.977	4.1818	0.	16.096
13512	15.884	4.0909	0.	15.761
13513	15.884	4.1818	5.e-002	4.5768
13514	16.161	4.1818	0.	16.718
13515	16.069	4.0909	0.	16.387
13516	16.069	4.1818	5.e-002	4.5577
13517	16.346	4.1818	0.	17.362
13518	16.253	4.0909	0.	17.033
13519	16.253	4.1818	5.e-002	4.5388
13520	16.53	4.1818	0.	18.029
13521	16.438	4.0909	0.	17.702
13522	16.438	4.1818	5.e-002	4.5201
13523	16.714	4.1818	0.	18.725
13524	16.622	4.0909	0.	18.398
13525	16.622	4.1818	5.e-002	4.5016
13526	16.899	4.1818	0.	19.454
13527	16.807	4.0909	0.	19.126
13528	16.807	4.1818	5.e-002	4.4833
13529	17.083	4.1818	0.	20.22
13530	16.991	4.0909	0.	19.89
13531	16.991	4.1818	5.e-002	4.4651
13532	17.268	4.1818	0.	21.028
13533	17.176	4.0909	0.	20.694
13534	17.176	4.1818	5.e-002	4.4472
13535	17.452	4.1818	0.	21.882
13536	17.36	4.0909	0.	21.544
13537	17.36	4.1818	5.e-002	4.4296
13538	17.637	4.1818	0.	22.787
13539	17.544	4.0909	0.	22.444
13540	17.544	4.1818	5.e-002	4.4121
13541	17.821	4.1818	0.	23.75
13542	17.729	4.0909	0.	23.401
13543	17.729	4.1818	5.e-002	4.3949
13544	18.006	4.1818	0.	24.775
13545	17.913	4.0909	0.	24.42
13546	17.913	4.1818	5.e-002	4.3781
13547	18.19	4.1818	0.	25.87
13548	18.098	4.0909	0.	25.506
13549	18.098	4.1818	5.e-002	4.3615
13550	18.374	4.1818	0.	27.04
13551	18.282	4.0909	0.	26.667
13552	18.282	4.1818	5.e-002	4.3452
13553	18.559	4.1818	0.	28.292
13554	18.467	4.0909	0.	27.911
13555	18.467	4.1818	5.e-002	4.3294
13556	18.743	4.1818	0.	29.635
13557	18.651	4.0909	0.	29.243
13558	18.651	4.1818	5.e-002	4.3139
13559	18.928	4.1818	0.	31.075
13560	18.836	4.0909	0.	30.673
13561	18.836	4.1818	5.e-002	4.2988
13562	19.112	4.1818	0.	32.623
13563	19.02	4.0909	0.	32.208
13564	19.02	4.1818	5.e-002	4.2841
13565	19.297	4.1818	0.	34.286
13566	19.204	4.0909	0.	33.859
13567	19.204	4.1818	5.e-002	4.27
13568	19.481	4.1818	0.	36.076
13569	19.389	4.0909	0.	35.636
13570	19.389	4.1818	5.e-002	4.2565
13571	19.666	4.1818	0.	38.002
13572	19.573	4.0909	0.	37.548
13573	19.573	4.1818	5.e-002	4.2435
13574	19.85	4.1818	0.	40.077
13575	19.758	4.0909	0.	39.609
13576	19.758	4.1818	5.e-002	4.2312
13577	20.034	4.1818	0.	42.313
13578	19.942	4.0909	0.	41.829
13579	19.942	4.1818	5.e-002	4.2196
13580	20.219	4.1818	0.	44.724
13581	20.127	4.0909	0.	44.224
13582	20.127	4.1818	5.e-002	4.2088
13583	20.403	4.1818	0.	47.324
13584	20.311	4.0909	0.	46.807
13585	20.311	4.1818	5.e-002	4.1989
13586	20.588	4.1818	0.	50.131
13587	20.496	4.0909	0.	49.594
13588	20.496	4.1818	5.e-002	4.19
13589	20.772	4.1818	0.	53.16
13590	20.68	4.0909	0.	52.603
13591	20.68	4.1818	5.e-002	4.1823
13592	20.957	4.1818	0.	56.432
13593	20.864	4.0909	0.	55.852
13594	20.864	4.1818	5.e-002	4.1757
13595	21.141	4.1818	0.	59.968
13596	21.049	4.0909	0.	59.361
13597	21.049	4.1818	5.e-002	4.1706
13598	21.326	4.1818	0.	63.79
13599	21.233	4.0909	0.	63.153
13600	21.233	4.1818	5.e-002	4.167
13601	21.51	4.1818	0.	67.922
13602	21.418	4.0909	0.	67.25
13603	21.418	4.1818	5.e-002	4.1653
13604	21.694	4.1818	0.	72.393
13605	21.602	4.0909	0.	71.678
13606	21.602	4.1818	5.e-002	4.1656
13607	21.879	4.1818	0.	77.232
13608	21.787	4.0909	0.	76.465
13609	21.787	4.1818	5.e-002	4.1682
13610	22.063	4.1818	0.	82.469
13611	21.971	4.0909	0.	81.64
13612	21.971	4.1818	5.e-002	4.1736
13613	22.248	4.1818	0.	88.14
13614	22.156	4.0909	0.	87.234
13615	22.156	4.1818	5.e-002	4.1821
13616	22.432	4.1818	0.	94.278
13617	22.34	4.0909	0.	93.278
13618	22.34	4.1818	5.e-002	4.1942
13619	22.617	4.1818	0.	100.92
13620	22.524	4.0909	0.	99.805
13621	22.524	4.1818	5.e-002	4.2105
13622	22.801	4.1818	0.	108.1
13623	22.709	4.0909	0.	106.85
13624	22.709	4.1818	5.e-002	4.2318
13625	22.986	4.1818	0.	115.84
13626	22.893	4.0909	0.	114.43
13627	22.893	4.1818	5.e-002	4.2586
13628	23.17	4.1818	0.	124.17
13629	23.078	4.0909	0.	122.57
13630	23.078	4.1818	5.e-002	4.2917
13631	23.354	4.1818	0.	133.1
13632	23.262	4.0909	0.	131.3
13633	23.262	4.1818	5.e-002	4.3318
13634	23.539	4.1818	0.	142.66
13635	23.447	4.0909	0.	140.6
13636	23.447	4.1818	5.e-002	4.379
13637	23.723	4.1818	0.	152.77
13638	23.631	4.0909	0.	150.53
13639	23.631	4.1818	5.e-002	4.4355
13640	23.816	4.0909	0.	160.88
13641	23.816	4.1818	5.e-002	4.5368
13642	23.908	4.1818	0.	162.68
13643	2.1433	4.	0.	2033.9
13644	2.0511	3.9091	0.	1833.4
13645	2.0511	4.	5.e-002	1064.3
13646	1.9589	4.	0.	3451.5
13647	2.3278	4.	0.	699.51
13648	2.2356	3.9091	0.	667.7
13649	2.2356	4.	5.e-002	184.97
13650	2.5122	4.	0.	197.97
13651	2.42	3.9091	0.	161.59
13652	2.42	4.	5.e-002	120.4
13653	2.6967	4.	0.	22.062
13654	2.6044	3.9091	0.	18.577
13655	2.6044	4.	5.e-002	80.759
13656	2.8811	4.	0.	5.7662
13657	2.7889	3.9091	0.	4.4231
13658	2.7889	4.	5.e-002	60.752
13659	3.0656	4.	0.	3.2096
13660	2.9733	3.9091	0.	3.1678
13661	2.9733	4.	5.e-002	47.802
13662	3.25	4.	0.	1.9037
13663	3.1578	3.9091	0.	1.8105
13664	3.1578	4.	5.e-002	38.797
13665	3.4344	4.	0.	1.2914
13666	3.3422	3.9091	0.	1.2841
13667	3.3422	4.	5.e-002	32.082
13668	3.6189	4.	0.	0.89888
13669	3.5267	3.9091	0.	0.89597
13670	3.5267	4.	5.e-002	26.891
13671	3.8033	4.	0.	0.64685
13672	3.7111	3.9091	0.	0.6513
13673	3.7111	4.	5.e-002	22.783
13674	3.9878	4.	0.	0.47153
13675	3.8956	3.9091	0.	0.47618
13676	3.8956	4.	5.e-002	19.49
13677	4.1722	4.	0.	0.34736
13678	4.08	3.9091	0.	0.3515
13679	4.08	4.	5.e-002	16.834
13680	4.3567	4.	0.	0.2574
13681	4.2644	3.9091	0.	0.2604
13682	4.2644	4.	5.e-002	14.686
13683	4.5411	4.	0.	0.19156
13684	4.4489	3.9091	0.	0.19345
13685	4.4489	4.	5.e-002	12.95
13686	4.7256	4.	0.	0.14299
13687	4.6333	3.9091	0.	0.14393
13688	4.6333	4.	5.e-002	11.549
13689	4.91	4.	0.	0.10699
13690	4.8178	3.9091	0.	0.10719
13691	4.8178	4.	5.e-002	10.421
13692	5.0944	4.	0.	8.022e-002
13693	5.0022	3.9091	0.	7.9856e-002
13694	5.0022	4.	5.e-002	9.5144
13695	5.2789	4.	0.	6.0266e-002
13696	5.1867	3.9091	0.	5.9516e-002
13697	5.1867	4.	5.e-002	8.7871
13698	5.4633	4.	0.	4.5365e-002
13699	5.3711	3.9091	0.	4.4369e-002
13700	5.3711	4.	5.e-002	8.2039
13701	5.6478	4.	0.	3.423e-002
13702	5.5556	3.9091	0.	3.3084e-002
13703	5.5556	4.	5.e-002	7.7357
13704	5.8322	4.	0.	2.5912e-002
13705	5.74	3.9091	0.	2.4696e-002
13706	5.74	4.	5.e-002	7.359
13707	6.0167	4.	0.	1.9694e-002
13708	5.9244	3.9091	0.	1.8469e-002
13709	5.9244	4.	5.e-002	7.0544
13710	6.2011	4.	0.	1.5055e-002
13711	6.1089	3.9091	0.	1.3852e-002
13712	6.1089	4.	5.e-002	6.8067
13713	6.3856	4.	0.	1.1606e-002
13714	6.2933	3.9091	0.	1.0455e-002
13715	6.2933	4.	5.e-002	6.6035
13716	6.57	4.	0.	9.046e-003
13717	6.4778	3.9091	0.	7.9661e-003
13718	6.4778	4.	5.e-002	6.4353
13719	6.7544	4.	0.	7.158e-003
13720	6.6622	3.9091	0.	6.1515e-003
13721	6.6622	4.	5.e-002	6.2946
13722	6.9389	4.	0.	5.7807e-003
13723	6.8467	3.9091	0.	4.8549e-003
13724	6.8467	4.	5.e-002	6.1757
13725	7.1233	4.	0.	4.7821e-003
13726	7.0311	3.9091	0.	3.9412e-003
13727	7.0311	4.	5.e-002	6.0739
13728	7.3078	4.	0.	4.0721e-003
13729	7.2156	3.9091	0.	3.3071e-003
13730	7.2156	4.	5.e-002	5.9857
13731	7.4922	4.	0.	3.5833e-003
13732	7.4	3.9091	0.	2.8935e-003
13733	7.4	4.	5.e-002	5.9083
13734	7.6767	4.	0.	3.2557e-003
13735	7.5844	3.9091	0.	2.64e-003
13736	7.5844	4.	5.e-002	5.8397
13737	7.8611	4.	0.	3.0516e-003
13738	7.7689	3.9091	0.	2.4982e-003
13739	7.7689	4.	5.e-002	5.7782
13740	8.0456	4.	0.	2.9436e-003
13741	7.9533	3.9091	0.	2.4502e-003
13742	7.9533	4.	5.e-002	5.7224
13743	8.23	4.	0.	2.9022e-003
13744	8.1378	3.9091	0.	2.4665e-003
13745	8.1378	4.	5.e-002	5.6714
13746	8.4144	4.	0.	2.9126e-003
13747	8.3222	3.9091	0.	2.5236e-003
13748	8.3222	4.	5.e-002	5.6243
13749	8.5989	4.	0.	2.9656e-003
13750	8.5067	3.9091	0.	2.621e-003
13751	8.5067	4.	5.e-002	5.5805
13752	8.7833	4.	0.	3.0451e-003
13753	8.6911	3.9091	0.	2.743e-003
13754	8.6911	4.	5.e-002	5.5395
13755	8.9678	4.	0.	3.1464e-003
13756	8.8756	3.9091	0.	2.8756e-003
13757	8.8756	4.	5.e-002	5.5008
13758	9.1522	4.	0.	3.2678e-003
13759	9.06	3.9091	0.	3.0272e-003
13760	9.06	4.	5.e-002	5.4641
13761	9.3367	4.	0.	3.3987e-003
13762	9.2444	3.9091	0.	3.1879e-003
13763	9.2444	4.	5.e-002	5.4291
13764	9.5211	4.	0.	3.5425e-003
13765	9.4289	3.9091	0.	3.3475e-003
13766	9.4289	4.	5.e-002	5.3957
13767	9.7056	4.	0.	3.691e-003
13768	9.6133	3.9091	0.	3.5245e-003
13769	9.6133	4.	5.e-002	5.3635
13770	9.89	4.	0.	3.8407e-003
13771	9.7978	3.9091	0.	3.6841e-003
13772	9.7978	4.	5.e-002	5.3325
13773	10.074	4.	0.	4.0305e-003
13774	9.9822	3.9091	0.	3.8546e-003
13775	9.9822	4.	5.e-002	5.3025
13776	10.259	4.	0.	4.2363e-003
13777	10.167	3.9091	0.	4.085e-003
13778	10.167	4.	5.e-002	5.2735
13779	10.443	4.	0.	4.4292e-003
13780	10.351	3.9091	0.	4.2784e-003
13781	10.351	4.	5.e-002	5.2453
13782	10.628	4.	0.	4.6529e-003
13783	10.536	3.9091	0.	4.4715e-003
13784	10.536	4.	5.e-002	5.2178
13785	10.812	4.	0.	4.9145e-003
13786	10.72	3.9091	0.	4.713e-003
13787	10.72	4.	5.e-002	5.191
13788	10.997	4.	0.	5.2255e-003
13789	10.904	3.9091	0.	4.9641e-003
13790	10.904	4.	5.e-002	5.1648
13791	11.181	4.	0.	5.6524e-003
13792	11.089	3.9091	0.	5.2772e-003
13793	11.089	4.	5.e-002	5.1392
13794	11.366	4.	0.	6.2536e-003
13795	11.273	3.9091	0.	5.7146e-003
13796	11.273	4.	5.e-002	5.114
13797	11.55	4.	0.	7.2115e-003
13798	11.458	3.9091	0.	6.2935e-003
13799	11.458	4.	5.e-002	5.0893
13800	11.734	4.	0.	9.2815e-003
13801	11.642	3.9091	0.	7.2657e-003
13802	11.642	4.	5.e-002	5.0651
13803	11.919	4.	0.	1.8253e-002
13804	11.827	3.9091	0.	9.5866e-003
13805	11.827	4.	5.e-002	5.0412
13806	12.103	4.	0.	0.55054
13807	12.011	3.9091	0.	2.5264e-002
13808	12.011	4.	5.e-002	5.0177
13809	12.288	4.	0.	1.6674
13810	12.196	3.9091	0.	0.83222
13811	12.196	4.	5.e-002	4.9944
13812	12.472	4.	0.	2.7212
13813	12.38	3.9091	0.	1.9396
13814	12.38	4.	5.e-002	4.9716
13815	12.657	4.	0.	3.7103
13816	12.564	3.9091	0.	2.9802
13817	12.564	4.	5.e-002	4.949
13818	12.841	4.	0.	4.6404
13819	12.749	3.9091	0.	3.9575
13820	12.749	4.	5.e-002	4.9267
13821	13.026	4.	0.	5.517
13822	12.933	3.9091	0.	4.8771
13823	12.933	4.	5.e-002	4.9046
13824	13.21	4.	0.	6.3455
13825	13.118	3.9091	0.	5.7448
13826	13.118	4.	5.e-002	4.8827
13827	13.394	4.	0.	7.1313
13828	13.302	3.9091	0.	6.566
13829	13.302	4.	5.e-002	4.861
13830	13.579	4.	0.	7.8793
13831	13.487	3.9091	0.	7.346
13832	13.487	4.	5.e-002	4.8397
13833	13.763	4.	0.	8.594
13834	13.671	3.9091	0.	8.0897
13835	13.671	4.	5.e-002	4.8185
13836	13.948	4.	0.	9.2801
13837	13.856	3.9091	0.	8.8017
13838	13.856	4.	5.e-002	4.7974
13839	14.132	4.	0.	9.9418
13840	14.04	3.9091	0.	9.4866
13841	14.04	4.	5.e-002	4.7766
13842	14.317	4.	0.	10.583
13843	14.224	3.9091	0.	10.149
13844	14.224	4.	5.e-002	4.7559
13845	14.501	4.	0.	11.208
13846	14.409	3.9091	0.	10.792
13847	14.409	4.	5.e-002	4.7354
13848	14.686	4.	0.	11.821
13849	14.593	3.9091	0.	11.421
13850	14.593	4.	5.e-002	4.7151
13851	14.87	4.	0.	12.426
13852	14.778	3.9091	0.	12.039
13853	14.778	4.	5.e-002	4.6949
13854	15.054	4.	0.	13.026
13855	14.962	3.9091	0.	12.65
13856	14.962	4.	5.e-002	4.6749
13857	15.239	4.	0.	13.624
13858	15.147	3.9091	0.	13.259
13859	15.147	4.	5.e-002	4.655
13860	15.423	4.	0.	14.226
13861	15.331	3.9091	0.	13.868
13862	15.331	4.	5.e-002	4.6353
13863	15.608	4.	0.	14.834
13864	15.516	3.9091	0.	14.482
13865	15.516	4.	5.e-002	4.6157
13866	15.792	4.	0.	15.452
13867	15.7	3.9091	0.	15.105
13868	15.7	4.	5.e-002	4.5963
13869	15.977	4.	0.	16.084
13870	15.884	3.9091	0.	15.74
13871	15.884	4.	5.e-002	4.5771
13872	16.161	4.	0.	16.734
13873	16.069	3.9091	0.	16.391
13874	16.069	4.	5.e-002	4.5581
13875	16.346	4.	0.	17.405
13876	16.253	3.9091	0.	17.063
13877	16.253	4.	5.e-002	4.5392
13878	16.53	4.	0.	18.103
13879	16.438	3.9091	0.	17.759
13880	16.438	4.	5.e-002	4.5205
13881	16.714	4.	0.	18.832
13882	16.622	3.9091	0.	18.484
13883	16.622	4.	5.e-002	4.5019
13884	16.899	4.	0.	19.595
13885	16.807	3.9091	0.	19.242
13886	16.807	4.	5.e-002	4.4836
13887	17.083	4.	0.	20.397
13888	16.991	3.9091	0.	20.039
13889	16.991	4.	5.e-002	4.4655
13890	17.268	4.	0.	21.244
13891	17.176	3.9091	0.	20.879
13892	17.176	4.	5.e-002	4.4476
13893	17.452	4.	0.	22.141
13894	17.36	3.9091	0.	21.767
13895	17.36	4.	5.e-002	4.43
13896	17.637	4.	0.	23.093
13897	17.544	3.9091	0.	22.708
13898	17.544	4.	5.e-002	4.4126
13899	17.821	4.	0.	24.106
13900	17.729	3.9091	0.	23.71
13901	17.729	4.	5.e-002	4.3954
13902	18.006	4.	0.	25.186
13903	17.913	3.9091	0.	24.777
13904	17.913	4.	5.e-002	4.3786
13905	18.19	4.	0.	26.34
13906	18.098	3.9091	0.	25.917
13907	18.098	4.	5.e-002	4.3621
13908	18.374	4.	0.	27.575
13909	18.282	3.9091	0.	27.136
13910	18.282	4.	5.e-002	4.3459
13911	18.559	4.	0.	28.898
13912	18.467	3.9091	0.	28.442
13913	18.467	4.	5.e-002	4.33
13914	18.743	4.	0.	30.318
13915	18.651	3.9091	0.	29.843
13916	18.651	4.	5.e-002	4.3146
13917	18.928	4.	0.	31.843
13918	18.836	3.9091	0.	31.347
13919	18.836	4.	5.e-002	4.2995
13920	19.112	4.	0.	33.483
13921	19.02	3.9091	0.	32.965
13922	19.02	4.	5.e-002	4.285
13923	19.297	4.	0.	35.247
13924	19.204	3.9091	0.	34.706
13925	19.204	4.	5.e-002	4.271
13926	19.481	4.	0.	37.147
13927	19.389	3.9091	0.	36.58
13928	19.389	4.	5.e-002	4.2575
13929	19.666	4.	0.	39.194
13930	19.573	3.9091	0.	38.6
13931	19.573	4.	5.e-002	4.2446
13932	19.85	4.	0.	41.4
13933	19.758	3.9091	0.	40.777
13934	19.758	4.	5.e-002	4.2325
13935	20.034	4.	0.	43.779
13936	19.942	3.9091	0.	43.124
13937	19.942	4.	5.e-002	4.2211
13938	20.219	4.	0.	46.346
13939	20.127	3.9091	0.	45.657
13940	20.127	4.	5.e-002	4.2105
13941	20.403	4.	0.	49.116
13942	20.311	3.9091	0.	48.391
13943	20.311	4.	5.e-002	4.2008
13944	20.588	4.	0.	52.106
13945	20.496	3.9091	0.	51.341
13946	20.496	4.	5.e-002	4.1922
13947	20.772	4.	0.	55.334
13948	20.68	3.9091	0.	54.526
13949	20.68	4.	5.e-002	4.1848
13950	20.957	4.	0.	58.819
13951	20.864	3.9091	0.	57.965
13952	20.864	4.	5.e-002	4.1786
13953	21.141	4.	0.	62.584
13954	21.049	3.9091	0.	61.678
13955	21.049	4.	5.e-002	4.1739
13956	21.326	4.	0.	66.65
13957	21.233	3.9091	0.	65.687
13958	21.233	4.	5.e-002	4.1709
13959	21.51	4.	0.	71.042
13960	21.418	3.9091	0.	70.015
13961	21.418	4.	5.e-002	4.1698
13962	21.694	4.	0.	75.785
13963	21.602	3.9091	0.	74.687
13964	21.602	4.	5.e-002	4.1708
13965	21.879	4.	0.	80.907
13966	21.787	3.9091	0.	79.727
13967	21.787	4.	5.e-002	4.1743
13968	22.063	4.	0.	86.437
13969	21.971	3.9091	0.	85.164
13970	21.971	4.	5.e-002	4.1805
13971	22.248	4.	0.	92.402
13972	22.156	3.9091	0.	91.024
13973	22.156	4.	5.e-002	4.19
13974	22.432	4.	0.	98.833
13975	22.34	3.9091	0.	97.333
13976	22.34	4.	5.e-002	4.2031
13977	22.617	4.	0.	105.76
13978	22.524	3.9091	0.	104.12
13979	22.524	4.	5.e-002	4.2204
13980	22.801	4.	0.	113.2
13981	22.709	3.9091	0.	111.4
13982	22.709	4.	5.e-002	4.2424
13983	22.986	4.	0.	121.18
13984	22.893	3.9091	0.	119.21
13985	22.893	4.	5.e-002	4.2697
13986	23.17	4.	0.	129.72
13987	23.078	3.9091	0.	127.55
13988	23.078	4.	5.e-002	4.3027
13989	23.354	4.	0.	138.81
13990	23.262	3.9091	0.	136.44
13991	23.262	4.	5.e-002	4.3419
13992	23.539	4.	0.	148.48
13993	23.447	3.9091	0.	145.86
13994	23.447	4.	5.e-002	4.3873
13995	23.723	4.	0.	158.65
13996	23.631	3.9091	0.	155.87
13997	23.631	4.	5.e-002	4.4402
13998	23.816	3.9091	0.	166.24
13999	23.816	4.	5.e-002	4.5275
14000	23.908	4.	0.	168.64
14001	2.1433	3.8182	0.	622.74
14002	2.0511	3.7273	0.	697.29
14003	2.0511	3.8182	5.e-002	525.82
14004	2.3278	3.8182	0.	136.78
14005	2.2356	3.7273	0.	156.2
14006	2.2356	3.8182	5.e-002	254.12
14007	2.5122	3.8182	0.	6.8287
14008	2.42	3.7273	0.	2.898
14009	2.42	3.8182	5.e-002	132.8
14010	2.6967	3.8182	0.	6.6486
14011	2.6044	3.7273	0.	6.0915
14012	2.6044	3.8182	5.e-002	91.286
14013	2.8811	3.8182	0.	2.5565
14014	2.7889	3.7273	0.	2.2489
14015	2.7889	3.8182	5.e-002	68.024
14016	3.0656	3.8182	0.	1.9988
14017	2.9733	3.7273	0.	1.9793
14018	2.9733	3.8182	5.e-002	53.295
14019	3.25	3.8182	0.	1.2909
14020	3.1578	3.7273	0.	1.271
14021	3.1578	3.8182	5.e-002	43.012
14022	3.4344	3.8182	0.	0.94053
14023	3.3422	3.7273	0.	0.94924
14024	3.3422	3.8182	5.e-002	35.367
14025	3.6189	3.8182	0.	0.67824
14026	3.5267	3.7273	0.	0.68661
14027	3.5267	3.8182	5.e-002	29.466
14028	3.8033	3.8182	0.	0.49898
14029	3.7111	3.7273	0.	0.50741
14030	3.7111	3.8182	5.e-002	24.812
14031	3.9878	3.8182	0.	0.36794
14032	3.8956	3.7273	0.	0.37403
14033	3.8956	3.8182	5.e-002	21.098
14034	4.1722	3.8182	0.	0.27235
14035	4.08	3.7273	0.	0.27638
14036	4.08	3.8182	5.e-002	18.117
14037	4.3567	3.8182	0.	0.20175
14038	4.2644	3.7273	0.	0.20399
14039	4.2644	3.8182	5.e-002	15.716
14040	4.5411	3.8182	0.	0.14949
14041	4.4489	3.7273	0.	0.15037
14042	4.4489	3.8182	5.e-002	13.783
14043	4.7256	3.8182	0.	0.1107
14044	4.6333	3.7273	0.	0.11062
14045	4.6333	3.8182	5.e-002	12.225
14046	4.91	3.8182	0.	8.1888e-002
14047	4.8178	3.7273	0.	8.1155e-002
14048	4.8178	3.8182	5.e-002	10.972
14049	5.0944	3.8182	0.	6.0484e-002
14050	5.0022	3.7273	0.	5.9326e-002
14051	5.0022	3.8182	5.e-002	9.9647
14052	5.2789	3.8182	0.	4.4597e-002
14053	5.1867	3.7273	0.	4.3193e-002
14054	5.1867	3.8182	5.e-002	9.1549
14055	5.4633	3.8182	0.	3.2814e-002
14056	5.3711	3.7273	0.	3.1293e-002
14057	5.3711	3.8182	5.e-002	8.5041
14058	5.6478	3.8182	0.	2.4096e-002
14059	5.5556	3.7273	0.	2.2535e-002
14060	5.5556	3.8182	5.e-002	7.9803
14061	5.8322	3.8182	0.	1.7669e-002
14062	5.74	3.7273	0.	1.6132e-002
14063	5.74	3.8182	5.e-002	7.5576
14064	6.0167	3.8182	0.	1.2947e-002
14065	5.9244	3.7273	0.	1.1476e-002
14066	5.9244	3.8182	5.e-002	7.2153
14067	6.2011	3.8182	0.	9.5007e-003
14068	6.1089	3.7273	0.	8.1102e-003
14069	6.1089	3.8182	5.e-002	6.9366
14070	6.3856	3.8182	0.	7.0103e-003
14071	6.2933	3.7273	0.	5.718e-003
14072	6.2933	3.8182	5.e-002	6.7083
14073	6.57	3.8182	0.	5.2268e-003
14074	6.4778	3.7273	0.	4.0419e-003
14075	6.4778	3.8182	5.e-002	6.5196
14076	6.7544	3.8182	0.	3.9723e-003
14077	6.6622	3.7273	0.	2.8884e-003
14078	6.6622	3.8182	5.e-002	6.3624
14079	6.9389	3.8182	0.	3.1149e-003
14080	6.8467	3.7273	0.	2.1325e-003
14081	6.8467	3.8182	5.e-002	6.23
14082	7.1233	3.8182	0.	2.5464e-003
14083	7.0311	3.7273	0.	1.6643e-003
14084	7.0311	3.8182	5.e-002	6.1175
14085	7.3078	3.8182	0.	2.1934e-003
14086	7.2156	3.7273	0.	1.3986e-003
14087	7.2156	3.8182	5.e-002	6.0206
14088	7.4922	3.8182	0.	2.0027e-003
14089	7.4	3.7273	0.	1.2911e-003
14090	7.4	3.8182	5.e-002	5.9364
14091	7.6767	3.8182	0.	1.9251e-003
14092	7.5844	3.7273	0.	1.2937e-003
14093	7.5844	3.8182	5.e-002	5.8624
14094	7.8611	3.8182	0.	1.9311e-003
14095	7.7689	3.7273	0.	1.3658e-003
14096	7.7689	3.8182	5.e-002	5.7965
14097	8.0456	3.8182	0.	2.0006e-003
14098	7.9533	3.7273	0.	1.4984e-003
14099	7.9533	3.8182	5.e-002	5.7372
14100	8.23	3.8182	0.	2.1097e-003
14101	8.1378	3.7273	0.	1.6675e-003
14102	8.1378	3.8182	5.e-002	5.6835
14103	8.4144	3.8182	0.	2.2489e-003
14104	8.3222	3.7273	0.	1.853e-003
14105	8.3222	3.8182	5.e-002	5.6341
14106	8.5989	3.8182	0.	2.4113e-003
14107	8.5067	3.7273	0.	2.0602e-003
14108	8.5067	3.8182	5.e-002	5.5886
14109	8.7833	3.8182	0.	2.5829e-003
14110	8.6911	3.7273	0.	2.275e-003
14111	8.6911	3.8182	5.e-002	5.5462
14112	8.9678	3.8182	0.	2.7628e-003
14113	8.8756	3.7273	0.	2.4865e-003
14114	8.8756	3.8182	5.e-002	5.5064
14115	9.1522	3.8182	0.	2.9511e-003
14116	9.06	3.7273	0.	2.7052e-003
14117	9.06	3.8182	5.e-002	5.4688
14118	9.3367	3.8182	0.	3.1384e-003
14119	9.2444	3.7273	0.	2.9225e-003
14120	9.2444	3.8182	5.e-002	5.4331
14121	9.5211	3.8182	0.	3.3293e-003
14122	9.4289	3.7273	0.	3.1296e-003
14123	9.4289	3.8182	5.e-002	5.3991
14124	9.7056	3.8182	0.	3.5157e-003
14125	9.6133	3.7273	0.	3.346e-003
14126	9.6133	3.8182	5.e-002	5.3664
14127	9.89	3.8182	0.	3.6947e-003
14128	9.7978	3.7273	0.	3.536e-003
14129	9.7978	3.8182	5.e-002	5.3351
14130	10.074	3.8182	0.	3.9049e-003
14131	9.9822	3.7273	0.	3.7301e-003
14132	9.9822	3.8182	5.e-002	5.3048
14133	10.259	3.8182	0.	4.1221e-003
14134	10.167	3.7273	0.	3.9762e-003
14135	10.167	3.8182	5.e-002	5.2755
14136	10.443	3.8182	0.	4.3152e-003
14137	10.351	3.7273	0.	4.1771e-003
14138	10.351	3.8182	5.e-002	5.2471
14139	10.628	3.8182	0.	4.5257e-003
14140	10.536	3.7273	0.	4.3669e-003
14141	10.536	3.8182	5.e-002	5.2194
14142	10.812	3.8182	0.	4.7565e-003
14143	10.72	3.7273	0.	4.5927e-003
14144	10.72	3.8182	5.e-002	5.1925
14145	10.997	3.8182	0.	5.0095e-003
14146	10.904	3.7273	0.	4.8105e-003
14147	10.904	3.8182	5.e-002	5.1662
14148	11.181	3.8182	0.	5.3318e-003
14149	11.089	3.7273	0.	5.0642e-003
14150	11.089	3.8182	5.e-002	5.1403
14151	11.366	3.8182	0.	5.7405e-003
14152	11.273	3.7273	0.	5.3948e-003
14153	11.273	3.8182	5.e-002	5.1151
14154	11.55	3.8182	0.	6.3012e-003
14155	11.458	3.7273	0.	5.7768e-003
14156	11.458	3.8182	5.e-002	5.0904
14157	11.734	3.8182	0.	7.2981e-003
14158	11.642	3.7273	0.	6.3264e-003
14159	11.642	3.8182	5.e-002	5.066
14160	11.919	3.8182	0.	9.9529e-003
14161	11.827	3.7273	0.	7.3868e-003
14162	11.827	3.8182	5.e-002	5.0421
14163	12.103	3.8182	0.	6.1503e-002
14164	12.011	3.7273	0.	1.0876e-002
14165	12.011	3.8182	5.e-002	5.0185
14166	12.288	3.8182	0.	1.1251
14167	12.196	3.7273	0.	0.32821
14168	12.196	3.8182	5.e-002	4.9952
14169	12.472	3.8182	0.	2.2216
14170	12.38	3.7273	0.	1.4692
14171	12.38	3.8182	5.e-002	4.9722
14172	12.657	3.8182	0.	3.251
14173	12.564	3.7273	0.	2.5475
14174	12.564	3.8182	5.e-002	4.9496
14175	12.841	3.8182	0.	4.2183
14176	12.749	3.7273	0.	3.5598
14177	12.749	3.8182	5.e-002	4.9273
14178	13.026	3.8182	0.	5.1295
14179	12.933	3.7273	0.	4.512
14180	12.933	3.8182	5.e-002	4.9052
14181	13.21	3.8182	0.	5.9903
14182	13.118	3.7273	0.	5.4099
14183	13.118	3.8182	5.e-002	4.8833
14184	13.394	3.8182	0.	6.8062
14185	13.302	3.7273	0.	6.2593
14186	13.302	3.8182	5.e-002	4.8616
14187	13.579	3.8182	0.	7.5823
14188	13.487	3.7273	0.	7.0657
14189	13.487	3.8182	5.e-002	4.8401
14190	13.763	3.8182	0.	8.3236
14191	13.671	3.7273	0.	7.8341
14192	13.671	3.8182	5.e-002	4.8189
14193	13.948	3.8182	0.	9.0348
14194	13.856	3.7273	0.	8.5695
14195	13.856	3.8182	5.e-002	4.7978
14196	14.132	3.8182	0.	9.7205
14197	14.04	3.7273	0.	9.2766
14198	14.04	3.8182	5.e-002	4.777
14199	14.317	3.8182	0.	10.385
14200	14.224	3.7273	0.	9.9599
14201	14.224	3.8182	5.e-002	4.7563
14202	14.501	3.8182	0.	11.032
14203	14.409	3.7273	0.	10.624
14204	14.409	3.8182	5.e-002	4.7357
14205	14.686	3.8182	0.	11.667
14206	14.593	3.7273	0.	11.272
14207	14.593	3.8182	5.e-002	4.7154
14208	14.87	3.8182	0.	12.292
14209	14.778	3.7273	0.	11.91
14210	14.778	3.8182	5.e-002	4.6952
14211	15.054	3.8182	0.	12.913
14212	14.962	3.7273	0.	12.54
14213	14.962	3.8182	5.e-002	4.6752
14214	15.239	3.8182	0.	13.532
14215	15.147	3.7273	0.	13.167
14216	15.147	3.8182	5.e-002	4.6553
14217	15.423	3.8182	0.	14.155
14218	15.331	3.7273	0.	13.796
14219	15.331	3.8182	5.e-002	4.6356
14220	15.608	3.8182	0.	14.784
14221	15.516	3.7273	0.	14.429
14222	15.516	3.8182	5.e-002	4.616
14223	15.792	3.8182	0.	15.424
14224	15.7	3.7273	0.	15.071
14225	15.7	3.8182	5.e-002	4.5966
14226	15.977	3.8182	0.	16.078
14227	15.884	3.7273	0.	15.726
14228	15.884	3.8182	5.e-002	4.5774
14229	16.161	3.8182	0.	16.751
14230	16.069	3.7273	0.	16.398
14231	16.069	3.8182	5.e-002	4.5584
14232	16.346	3.8182	0.	17.448
14233	16.253	3.7273	0.	17.091
14234	16.253	3.8182	5.e-002	4.5395
14235	16.53	3.8182	0.	18.172
14236	16.438	3.7273	0.	17.81
14237	16.438	3.8182	5.e-002	4.5208
14238	16.714	3.8182	0.	18.927
14239	16.622	3.7273	0.	18.56
14240	16.622	3.8182	5.e-002	4.5023
14241	16.899	3.8182	0.	19.72
14242	16.807	3.7273	0.	19.344
14243	16.807	3.8182	5.e-002	4.4839
14244	17.083	3.8182	0.	20.554
14245	16.991	3.7273	0.	20.168
14246	16.991	3.8182	5.e-002	4.4659
14247	17.268	3.8182	0.	21.435
14248	17.176	3.7273	0.	21.038
14249	17.176	3.8182	5.e-002	4.448
14250	17.452	3.8182	0.	22.368
14251	17.36	3.7273	0.	21.958
14252	17.36	3.8182	5.e-002	4.4303
14253	17.637	3.8182	0.	23.36
14254	17.544	3.7273	0.	22.934
14255	17.544	3.8182	5.e-002	4.413
14256	17.821	3.8182	0.	24.416
14257	17.729	3.7273	0.	23.973
14258	17.729	3.8182	5.e-002	4.3958
14259	18.006	3.8182	0.	25.543
14260	17.913	3.7273	0.	25.081
14261	17.913	3.8182	5.e-002	4.379
14262	18.19	3.8182	0.	26.748
14263	18.098	3.7273	0.	26.265
14264	18.098	3.8182	5.e-002	4.3625
14265	18.374	3.8182	0.	28.038
14266	18.282	3.7273	0.	27.533
14267	18.282	3.8182	5.e-002	4.3464
14268	18.559	3.8182	0.	29.423
14269	18.467	3.7273	0.	28.891
14270	18.467	3.8182	5.e-002	4.3305
14271	18.743	3.8182	0.	30.909
14272	18.651	3.7273	0.	30.35
14273	18.651	3.8182	5.e-002	4.3151
14274	18.928	3.8182	0.	32.506
14275	18.836	3.7273	0.	31.918
14276	18.836	3.8182	5.e-002	4.3002
14277	19.112	3.8182	0.	34.225
14278	19.02	3.7273	0.	33.605
14279	19.02	3.8182	5.e-002	4.2857
14280	19.297	3.8182	0.	36.076
14281	19.204	3.7273	0.	35.42
14282	19.204	3.8182	5.e-002	4.2717
14283	19.481	3.8182	0.	38.07
14284	19.389	3.7273	0.	37.377
14285	19.389	3.8182	5.e-002	4.2584
14286	19.666	3.8182	0.	40.22
14287	19.573	3.7273	0.	39.486
14288	19.573	3.8182	5.e-002	4.2456
14289	19.85	3.8182	0.	42.539
14290	19.758	3.7273	0.	41.76
14291	19.758	3.8182	5.e-002	4.2336
14292	20.034	3.8182	0.	45.04
14293	19.942	3.7273	0.	44.214
14294	19.942	3.8182	5.e-002	4.2223
14295	20.219	3.8182	0.	47.739
14296	20.127	3.7273	0.	46.863
14297	20.127	3.8182	5.e-002	4.2119
14298	20.403	3.8182	0.	50.653
14299	20.311	3.7273	0.	49.721
14300	20.311	3.8182	5.e-002	4.2024
14301	20.588	3.8182	0.	53.798
14302	20.496	3.7273	0.	52.807
14303	20.496	3.8182	5.e-002	4.1941
14304	20.772	3.8182	0.	57.194
14305	20.68	3.7273	0.	56.139
14306	20.68	3.8182	5.e-002	4.1869
14307	20.957	3.8182	0.	60.86
14308	20.864	3.7273	0.	59.734
14309	20.864	3.8182	5.e-002	4.1811
14310	21.141	3.8182	0.	64.816
14311	21.049	3.7273	0.	63.615
14312	21.049	3.8182	5.e-002	4.1768
14313	21.326	3.8182	0.	69.086
14314	21.233	3.7273	0.	67.803
14315	21.233	3.8182	5.e-002	4.1743
14316	21.51	3.8182	0.	73.693
14317	21.418	3.7273	0.	72.319
14318	21.418	3.8182	5.e-002	4.1737
14319	21.694	3.8182	0.	78.661
14320	21.602	3.7273	0.	77.188
14321	21.602	3.8182	5.e-002	4.1753
14322	21.879	3.8182	0.	84.014
14323	21.787	3.7273	0.	82.434
14324	21.787	3.8182	5.e-002	4.1794
14325	22.063	3.8182	0.	89.779
14326	21.971	3.7273	0.	88.079
14327	21.971	3.8182	5.e-002	4.1865
14328	22.248	3.8182	0.	95.981
14329	22.156	3.7273	0.	94.149
14330	22.156	3.8182	5.e-002	4.1967
14331	22.432	3.8182	0.	102.64
14332	22.34	3.7273	0.	100.67
14333	22.34	3.8182	5.e-002	4.2106
14334	22.617	3.8182	0.	109.79
14335	22.524	3.7273	0.	107.65
14336	22.524	3.8182	5.e-002	4.2286
14337	22.801	3.8182	0.	117.44
14338	22.709	3.7273	0.	115.13
14339	22.709	3.8182	5.e-002	4.2512
14340	22.986	3.8182	0.	125.6
14341	22.893	3.7273	0.	123.1
14342	22.893	3.8182	5.e-002	4.2787
14343	23.17	3.8182	0.	134.29
14344	23.078	3.7273	0.	131.59
14345	23.078	3.8182	5.e-002	4.3115
14346	23.354	3.8182	0.	143.5
14347	23.262	3.7273	0.	140.6
14348	23.262	3.8182	5.e-002	4.3498
14349	23.539	3.8182	0.	153.26
14350	23.447	3.7273	0.	150.11
14351	23.447	3.8182	5.e-002	4.3936
14352	23.723	3.8182	0.	163.47
14353	23.631	3.7273	0.	160.17
14354	23.631	3.8182	5.e-002	4.4437
14355	23.816	3.7273	0.	170.56
14356	23.816	3.8182	5.e-002	4.5194
14357	23.908	3.8182	0.	173.53
14358	2.1433	3.6364	0.	275.06
14359	2.0511	3.5455	0.	378.89
14360	2.0511	3.6364	5.e-002	238.23
14361	2.3278	3.6364	0.	1.7144
14362	2.2356	3.5455	0.	12.709
14363	2.2356	3.6364	5.e-002	185.77
14364	2.5122	3.6364	0.	6.001
14365	2.42	3.5455	0.	5.6669
14366	2.42	3.6364	5.e-002	135.38
14367	2.6967	3.6364	0.	2.3608
14368	2.6044	3.5455	0.	2.2569
14369	2.6044	3.6364	5.e-002	96.064
14370	2.8811	3.6364	0.	1.9209
14371	2.7889	3.5455	0.	1.9718
14372	2.7889	3.6364	5.e-002	73.079
14373	3.0656	3.6364	0.	1.3632
14374	2.9733	3.5455	0.	1.4026
14375	2.9733	3.6364	5.e-002	57.729
14376	3.25	3.6364	0.	0.98787
14377	3.1578	3.5455	0.	1.0334
14378	3.1578	3.6364	5.e-002	46.636
14379	3.4344	3.6364	0.	0.72929
14380	3.3422	3.5455	0.	0.76442
14381	3.3422	3.6364	5.e-002	38.24
14382	3.6189	3.6364	0.	0.53687
14383	3.5267	3.5455	0.	0.56223
14384	3.5267	3.6364	5.e-002	31.712
14385	3.8033	3.6364	0.	0.3962
14386	3.7111	3.5455	0.	0.41344
14387	3.7111	3.6364	5.e-002	26.559
14388	3.9878	3.6364	0.	0.29172
14389	3.8956	3.5455	0.	0.30277
14390	3.8956	3.6364	5.e-002	22.459
14391	4.1722	3.6364	0.	0.21441
14392	4.08	3.5455	0.	0.22106
14393	4.08	3.6364	5.e-002	19.181
14394	4.3567	3.6364	0.	0.15712
14395	4.2644	3.5455	0.	0.16073
14396	4.2644	3.6364	5.e-002	16.556
14397	4.5411	3.6364	0.	0.11473
14398	4.4489	3.5455	0.	0.1163
14399	4.4489	3.6364	5.e-002	14.45
14400	4.7256	3.6364	0.	8.341e-002
14401	4.6333	3.5455	0.	8.3656e-002
14402	4.6333	3.6364	5.e-002	12.761
14403	4.91	3.6364	0.	6.0306e-002
14404	4.8178	3.5455	0.	5.9721e-002
14405	4.8178	3.6364	5.e-002	11.405
14406	5.0944	3.6364	0.	4.3305e-002
14407	5.0022	3.5455	0.	4.2212e-002
14408	5.0022	3.6364	5.e-002	10.316
14409	5.2789	3.6364	0.	3.0839e-002
14410	5.1867	3.5455	0.	2.9465e-002
14411	5.1867	3.6364	5.e-002	9.4412
14412	5.4633	3.6364	0.	2.1731e-002
14413	5.3711	3.5455	0.	2.023e-002
14414	5.3711	3.6364	5.e-002	8.7378
14415	5.6478	3.6364	0.	1.5117e-002
14416	5.5556	3.5455	0.	1.3579e-002
14417	5.5556	3.6364	5.e-002	8.1711
14418	5.8322	3.6364	0.	1.0358e-002
14419	5.74	3.5455	0.	8.8474e-003
14420	5.74	3.6364	5.e-002	7.7132
14421	6.0167	3.6364	0.	6.9634e-003
14422	5.9244	3.5455	0.	5.5243e-003
14423	5.9244	3.6364	5.e-002	7.3419
14424	6.2011	3.6364	0.	4.5812e-003
14425	6.1089	3.5455	0.	3.2276e-003
14426	6.1089	3.6364	5.e-002	7.0395
14427	6.3856	3.6364	0.	2.949e-003
14428	6.2933	3.5455	0.	1.6962e-003
14429	6.2933	3.6364	5.e-002	6.7915
14430	6.57	3.6364	0.	1.8614e-003
14431	6.4778	3.5455	0.	7.1724e-004
14432	6.4778	3.6364	5.e-002	6.587
14433	6.7544	3.6364	0.	1.1743e-003
14434	6.6622	3.5455	0.	1.3039e-004
14435	6.6622	3.6364	5.e-002	6.4167
14436	6.9389	3.6364	0.	7.8239e-004
14437	6.8467	3.5455	0.	-1.6107e-004
14438	6.8467	3.6364	5.e-002	6.2738
14439	7.1233	3.6364	0.	5.9724e-004
14440	7.0311	3.5455	0.	-2.4841e-004
14441	7.0311	3.6364	5.e-002	6.1527
14442	7.3078	3.6364	0.	5.6144e-004
14443	7.2156	3.5455	0.	-2.0004e-004
14444	7.2156	3.6364	5.e-002	6.0491
14445	7.4922	3.6364	0.	6.3464e-004
14446	7.4	3.5455	0.	-4.6243e-005
14447	7.4	3.6364	5.e-002	5.9593
14448	7.6767	3.6364	0.	7.7686e-004
14449	7.5844	3.5455	0.	1.7277e-004
14450	7.5844	3.6364	5.e-002	5.8808
14451	7.8611	3.6364	0.	9.6717e-004
14452	7.7689	3.5455	0.	4.2608e-004
14453	7.7689	3.6364	5.e-002	5.8114
14454	8.0456	3.6364	0.	1.1925e-003
14455	7.9533	3.5455	0.	7.103e-004
14456	7.9533	3.6364	5.e-002	5.7493
14457	8.23	3.6364	0.	1.4323e-003
14458	8.1378	3.5455	0.	1.0076e-003
14459	8.1378	3.6364	5.e-002	5.6933
14460	8.4144	3.6364	0.	1.6812e-003
14461	8.3222	3.5455	0.	1.3001e-003
14462	8.3222	3.6364	5.e-002	5.6422
14463	8.5989	3.6364	0.	1.9369e-003
14464	8.5067	3.5455	0.	1.5984e-003
14465	8.5067	3.6364	5.e-002	5.5952
14466	8.7833	3.6364	0.	2.1882e-003
14467	8.6911	3.5455	0.	1.8901e-003
14468	8.6911	3.6364	5.e-002	5.5516
14469	8.9678	3.6364	0.	2.4356e-003
14470	8.8756	3.5455	0.	2.167e-003
14471	8.8756	3.6364	5.e-002	5.5109
14472	9.1522	3.6364	0.	2.6809e-003
14473	9.06	3.5455	0.	2.4405e-003
14474	9.06	3.6364	5.e-002	5.4726
14475	9.3367	3.6364	0.	2.9161e-003
14476	9.2444	3.5455	0.	2.7047e-003
14477	9.2444	3.6364	5.e-002	5.4363
14478	9.5211	3.6364	0.	3.147e-003
14479	9.4289	3.5455	0.	2.9506e-003
14480	9.4289	3.6364	5.e-002	5.4018
14481	9.7056	3.6364	0.	3.3656e-003
14482	9.6133	3.5455	0.	3.1986e-003
14483	9.6133	3.6364	5.e-002	5.3688
14484	9.89	3.6364	0.	3.5696e-003
14485	9.7978	3.5455	0.	3.4143e-003
14486	9.7978	3.6364	5.e-002	5.3372
14487	10.074	3.6364	0.	3.7988e-003
14488	9.9822	3.5455	0.	3.6288e-003
14489	9.9822	3.6364	5.e-002	5.3066
14490	10.259	3.6364	0.	4.0279e-003
14491	10.167	3.5455	0.	3.889e-003
14492	10.167	3.6364	5.e-002	5.2771
14493	10.443	3.6364	0.	4.2253e-003
14494	10.351	3.5455	0.	4.0974e-003
14495	10.351	3.6364	5.e-002	5.2485
14496	10.628	3.6364	0.	4.4304e-003
14497	10.536	3.5455	0.	4.2884e-003
14498	10.536	3.6364	5.e-002	5.2207
14499	10.812	3.6364	0.	4.6434e-003
14500	10.72	3.5455	0.	4.506e-003
14501	10.72	3.6364	5.e-002	5.1936
14502	10.997	3.6364	0.	4.8624e-003
14503	10.904	3.5455	0.	4.7047e-003
14504	10.904	3.6364	5.e-002	5.1672
14505	11.181	3.6364	0.	5.1247e-003
14506	11.089	3.5455	0.	4.9228e-003
14507	11.089	3.6364	5.e-002	5.1413
14508	11.366	3.6364	0.	5.4272e-003
14509	11.273	3.5455	0.	5.1922e-003
14510	11.273	3.6364	5.e-002	5.1159
14511	11.55	3.6364	0.	5.7876e-003
14512	11.458	3.5455	0.	5.4646e-003
14513	11.458	3.6364	5.e-002	5.0911
14514	11.734	3.6364	0.	6.3343e-003
14515	11.642	3.5455	0.	5.805e-003
14516	11.642	3.6364	5.e-002	5.0667
14517	11.919	3.6364	0.	7.4503e-003
14518	11.827	3.5455	0.	6.3567e-003
14519	11.827	3.6364	5.e-002	5.0427
14520	12.103	3.6364	0.	1.297e-002
14521	12.011	3.5455	0.	7.6294e-003
14522	12.011	3.6364	5.e-002	5.019
14523	12.288	3.6364	0.	0.68691
14524	12.196	3.5455	0.	3.1342e-002
14525	12.196	3.6364	5.e-002	4.9957
14526	12.472	3.6364	0.	1.8179
14527	12.38	3.5455	0.	1.0997
14528	12.38	3.6364	5.e-002	4.9728
14529	12.657	3.6364	0.	2.88
14530	12.564	3.5455	0.	2.208
14531	12.564	3.6364	5.e-002	4.9501
14532	12.841	3.6364	0.	3.8776
14533	12.749	3.5455	0.	3.248
14534	12.749	3.6364	5.e-002	4.9277
14535	13.026	3.6364	0.	4.817
14536	12.933	3.5455	0.	4.2258
14537	12.933	3.6364	5.e-002	4.9056
14538	13.21	3.6364	0.	5.7039
14539	13.118	3.5455	0.	5.1476
14540	13.118	3.6364	5.e-002	4.8837
14541	13.394	3.6364	0.	6.5443
14542	13.302	3.5455	0.	6.0192
14543	13.302	3.6364	5.e-002	4.862
14544	13.579	3.6364	0.	7.3434
14545	13.487	3.5455	0.	6.8465
14546	13.487	3.6364	5.e-002	4.8405
14547	13.763	3.6364	0.	8.1063
14548	13.671	3.5455	0.	7.6344
14549	13.671	3.6364	5.e-002	4.8192
14550	13.948	3.6364	0.	8.8379
14551	13.856	3.5455	0.	8.3882
14552	13.856	3.6364	5.e-002	4.7982
14553	14.132	3.6364	0.	9.543
14554	14.04	3.5455	0.	9.1129
14555	14.04	3.6364	5.e-002	4.7773
14556	14.317	3.6364	0.	10.226
14557	14.224	3.5455	0.	9.8129
14558	14.224	3.6364	5.e-002	4.7566
14559	14.501	3.6364	0.	10.892
14560	14.409	3.5455	0.	10.493
14561	14.409	3.6364	5.e-002	4.736
14562	14.686	3.6364	0.	11.544
14563	14.593	3.5455	0.	11.157
14564	14.593	3.6364	5.e-002	4.7156
14565	14.87	3.6364	0.	12.186
14566	14.778	3.5455	0.	11.81
14567	14.778	3.6364	5.e-002	4.6955
14568	15.054	3.6364	0.	12.824
14569	14.962	3.5455	0.	12.455
14570	14.962	3.6364	5.e-002	4.6754
14571	15.239	3.6364	0.	13.46
14572	15.147	3.5455	0.	13.097
14573	15.147	3.6364	5.e-002	4.6555
14574	15.423	3.6364	0.	14.1
14575	15.331	3.5455	0.	13.741
14576	15.331	3.6364	5.e-002	4.6358
14577	15.608	3.6364	0.	14.746
14578	15.516	3.5455	0.	14.389
14579	15.516	3.6364	5.e-002	4.6162
14580	15.792	3.6364	0.	15.404
14581	15.7	3.5455	0.	15.046
14582	15.7	3.6364	5.e-002	4.5968
14583	15.977	3.6364	0.	16.077
14584	15.884	3.5455	0.	15.717
14585	15.884	3.6364	5.e-002	4.5776
14586	16.161	3.6364	0.	16.769
14587	16.069	3.5455	0.	16.406
14588	16.069	3.6364	5.e-002	4.5586
14589	16.346	3.6364	0.	17.486
14590	16.253	3.5455	0.	17.116
14591	16.253	3.6364	5.e-002	4.5397
14592	16.53	3.6364	0.	18.231
14593	16.438	3.5455	0.	17.854
14594	16.438	3.6364	5.e-002	4.521
14595	16.714	3.6364	0.	19.009
14596	16.622	3.5455	0.	18.622
14597	16.622	3.6364	5.e-002	4.5025
14598	16.899	3.6364	0.	19.826
14599	16.807	3.5455	0.	19.427
14600	16.807	3.6364	5.e-002	4.4842
14601	17.083	3.6364	0.	20.685
14602	16.991	3.5455	0.	20.273
14603	16.991	3.6364	5.e-002	4.4661
14604	17.268	3.6364	0.	21.594
14605	17.176	3.5455	0.	21.166
14606	17.176	3.6364	5.e-002	4.4483
14607	17.452	3.6364	0.	22.558
14608	17.36	3.5455	0.	22.112
14609	17.36	3.6364	5.e-002	4.4306
14610	17.637	3.6364	0.	23.582
14611	17.544	3.5455	0.	23.116
14612	17.544	3.6364	5.e-002	4.4133
14613	17.821	3.6364	0.	24.673
14614	17.729	3.5455	0.	24.184
14615	17.729	3.6364	5.e-002	4.3962
14616	18.006	3.6364	0.	25.838
14617	17.913	3.5455	0.	25.325
14618	17.913	3.6364	5.e-002	4.3793
14619	18.19	3.6364	0.	27.085
14620	18.098	3.5455	0.	26.544
14621	18.098	3.6364	5.e-002	4.3629
14622	18.374	3.6364	0.	28.421
14623	18.282	3.5455	0.	27.85
14624	18.282	3.6364	5.e-002	4.3467
14625	18.559	3.6364	0.	29.855
14626	18.467	3.5455	0.	29.251
14627	18.467	3.6364	5.e-002	4.331
14628	18.743	3.6364	0.	31.396
14629	18.651	3.5455	0.	30.755
14630	18.651	3.6364	5.e-002	4.3156
14631	18.928	3.6364	0.	33.053
14632	18.836	3.5455	0.	32.373
14633	18.836	3.6364	5.e-002	4.3007
14634	19.112	3.6364	0.	34.836
14635	19.02	3.5455	0.	34.114
14636	19.02	3.6364	5.e-002	4.2863
14637	19.297	3.6364	0.	36.758
14638	19.204	3.5455	0.	35.99
14639	19.204	3.6364	5.e-002	4.2724
14640	19.481	3.6364	0.	38.829
14641	19.389	3.5455	0.	38.011
14642	19.389	3.6364	5.e-002	4.2591
14643	19.666	3.6364	0.	41.063
14644	19.573	3.5455	0.	40.191
14645	19.573	3.6364	5.e-002	4.2464
14646	19.85	3.6364	0.	43.473
14647	19.758	3.5455	0.	42.543
14648	19.758	3.6364	5.e-002	4.2345
14649	20.034	3.6364	0.	46.074
14650	19.942	3.5455	0.	45.081
14651	19.942	3.6364	5.e-002	4.2233
14652	20.219	3.6364	0.	48.881
14653	20.127	3.5455	0.	47.821
14654	20.127	3.6364	5.e-002	4.213
14655	20.403	3.6364	0.	51.912
14656	20.311	3.5455	0.	50.778
14657	20.311	3.6364	5.e-002	4.2037
14658	20.588	3.6364	0.	55.183
14659	20.496	3.5455	0.	53.971
14660	20.496	3.6364	5.e-002	4.1956
14661	20.772	3.6364	0.	58.714
14662	20.68	3.5455	0.	57.417
14663	20.68	3.6364	5.e-002	4.1886
14664	20.957	3.6364	0.	62.524
14665	20.864	3.5455	0.	61.136
14666	20.864	3.6364	5.e-002	4.1831
14667	21.141	3.6364	0.	66.635
14668	21.049	3.5455	0.	65.148
14669	21.049	3.6364	5.e-002	4.1791
14670	21.326	3.6364	0.	71.068
14671	21.233	3.5455	0.	69.474
14672	21.233	3.6364	5.e-002	4.177
14673	21.51	3.6364	0.	75.846
14674	21.418	3.5455	0.	74.137
14675	21.418	3.6364	5.e-002	4.1768
14676	21.694	3.6364	0.	80.991
14677	21.602	3.5455	0.	79.158
14678	21.602	3.6364	5.e-002	4.179
14679	21.879	3.6364	0.	86.526
14680	21.787	3.5455	0.	84.56
14681	21.787	3.6364	5.e-002	4.1836
14682	22.063	3.6364	0.	92.475
14683	21.971	3.5455	0.	90.365
14684	21.971	3.6364	5.e-002	4.1912
14685	22.248	3.6364	0.	98.859
14686	22.156	3.5455	0.	96.594
14687	22.156	3.6364	5.e-002	4.2021
14688	22.432	3.6364	0.	105.7
14689	22.34	3.5455	0.	103.27
14690	22.34	3.6364	5.e-002	4.2166
14691	22.617	3.6364	0.	113.01
14692	22.524	3.5455	0.	110.4
14693	22.524	3.6364	5.e-002	4.2351
14694	22.801	3.6364	0.	120.81
14695	22.709	3.5455	0.	118.02
14696	22.709	3.6364	5.e-002	4.258
14697	22.986	3.6364	0.	129.11
14698	22.893	3.5455	0.	126.12
14699	22.893	3.6364	5.e-002	4.2856
14700	23.17	3.6364	0.	137.91
14701	23.078	3.5455	0.	134.71
14702	23.078	3.6364	5.e-002	4.3182
14703	23.354	3.6364	0.	147.21
14704	23.262	3.5455	0.	143.8
14705	23.262	3.6364	5.e-002	4.3558
14706	23.539	3.6364	0.	157.03
14707	23.447	3.5455	0.	153.38
14708	23.447	3.6364	5.e-002	4.3984
14709	23.723	3.6364	0.	167.27
14710	23.631	3.5455	0.	163.48
14711	23.631	3.6364	5.e-002	4.4462
14712	23.816	3.5455	0.	173.88
14713	23.816	3.6364	5.e-002	4.5129
14714	23.908	3.6364	0.	177.38
14715	2.1433	3.4545	0.	105.57
14716	2.0511	3.3636	0.	189.41
14717	2.0511	3.4545	5.e-002	140.4
14718	2.3278	3.4545	0.	3.6978
14719	2.2356	3.3636	0.	5.6261
14720	2.2356	3.4545	5.e-002	145.11
14721	2.5122	3.4545	0.	1.9895
14722	2.42	3.3636	0.	1.8891
14723	2.42	3.4545	5.e-002	119.14
14724	2.6967	3.4545	0.	2.0216
14725	2.6044	3.3636	0.	2.0385
14726	2.6044	3.4545	5.e-002	95.209
14727	2.8811	3.4545	0.	1.5455
14728	2.7889	3.3636	0.	1.6578
14729	2.7889	3.4545	5.e-002	75.816
14730	3.0656	3.4545	0.	1.1282
14731	2.9733	3.3636	0.	1.2395
14732	2.9733	3.4545	5.e-002	60.964
14733	3.25	3.4545	0.	0.84473
14734	3.1578	3.3636	0.	0.93229
14735	3.1578	3.4545	5.e-002	49.524
14736	3.4344	3.4545	0.	0.62003
14737	3.3422	3.3636	0.	0.68248
14738	3.3422	3.4545	5.e-002	40.588
14739	3.6189	3.4545	0.	0.4541
14740	3.5267	3.3636	0.	0.49665
14741	3.5267	3.4545	5.e-002	33.545
14742	3.8033	3.4545	0.	0.33063
14743	3.7111	3.3636	0.	0.35859
14744	3.7111	3.4545	5.e-002	27.967
14745	3.9878	3.4545	0.	0.23961
14746	3.8956	3.3636	0.	0.2575
14747	3.8956	3.4545	5.e-002	23.536
14748	4.1722	3.4545	0.	0.17277
14749	4.08	3.3636	0.	0.18388
14750	4.08	3.4545	5.e-002	20.009
14751	4.3567	3.4545	0.	0.12385
14752	4.2644	3.3636	0.	0.13046
14753	4.2644	3.4545	5.e-002	17.197
14754	4.5411	3.4545	0.	8.8132e-002
14755	4.4489	3.3636	0.	9.1797e-002
14756	4.4489	3.4545	5.e-002	14.952
14757	4.7256	3.4545	0.	6.2126e-002
14758	4.6333	3.3636	0.	6.3884e-002
14759	4.6333	3.4545	5.e-002	13.158
14760	4.91	3.4545	0.	4.3244e-002
14761	4.8178	3.3636	0.	4.3786e-002
14762	4.8178	3.4545	5.e-002	11.723
14763	5.0944	3.4545	0.	2.9593e-002
14764	5.0022	3.3636	0.	2.9365e-002
14765	5.0022	3.4545	5.e-002	10.573
14766	5.2789	3.4545	0.	1.9784e-002
14767	5.1867	3.3636	0.	1.9093e-002
14768	5.1867	3.4545	5.e-002	9.65
14769	5.4633	3.4545	0.	1.2787e-002
14770	5.3711	3.3636	0.	1.1835e-002
14771	5.3711	3.4545	5.e-002	8.9082
14772	5.6478	3.4545	0.	7.8544e-003
14773	5.5556	3.3636	0.	6.7636e-003
14774	5.5556	3.4545	5.e-002	8.3104
14775	5.8322	3.4545	0.	4.4364e-003
14776	5.74	3.3636	0.	3.2965e-003
14777	5.74	3.4545	5.e-002	7.8271
14778	6.0167	3.4545	0.	2.1173e-003
14779	5.9244	3.3636	0.	9.8723e-004
14780	5.9244	3.4545	5.e-002	7.435
14781	6.2011	3.4545	0.	6.0006e-004
14782	6.1089	3.3636	0.	-4.9378e-004
14783	6.1089	3.4545	5.e-002	7.1154
14784	6.3856	3.4545	0.	-3.3279e-004
14785	6.2933	3.3636	0.	-1.3662e-003
14786	6.2933	3.4545	5.e-002	6.8533
14787	6.57	3.4545	0.	-8.5311e-004
14788	6.4778	3.3636	0.	-1.8111e-003
14789	6.4778	3.4545	5.e-002	6.6371
14790	6.7544	3.4545	0.	-1.0771e-003
14791	6.6622	3.3636	0.	-1.9632e-003
14792	6.6622	3.4545	5.e-002	6.4573
14793	6.9389	3.4545	0.	-1.0897e-003
14794	6.8467	3.3636	0.	-1.8989e-003
14795	6.8467	3.4545	5.e-002	6.3067
14796	7.1233	3.4545	0.	-9.6381e-004
14797	7.0311	3.3636	0.	-1.6952e-003
14798	7.0311	3.4545	5.e-002	6.1793
14799	7.3078	3.4545	0.	-7.419e-004
14800	7.2156	3.3636	0.	-1.4063e-003
14801	7.2156	3.4545	5.e-002	6.0705
14802	7.4922	3.4545	0.	-4.5514e-004
14803	7.4	3.3636	0.	-1.0537e-003
14804	7.4	3.4545	5.e-002	5.9766
14805	7.6767	3.4545	0.	-1.3539e-004
14806	7.5844	3.3636	0.	-6.6992e-004
14807	7.5844	3.4545	5.e-002	5.8948
14808	7.8611	3.4545	0.	2.0344e-004
14809	7.7689	3.3636	0.	-2.7892e-004
14810	7.7689	3.4545	5.e-002	5.8226
14811	8.0456	3.4545	0.	5.5273e-004
14812	7.9533	3.3636	0.	1.2014e-004
14813	7.9533	3.4545	5.e-002	5.7585
14814	8.23	3.4545	0.	8.9703e-004
14815	8.1378	3.3636	0.	5.1323e-004
14816	8.1378	3.4545	5.e-002	5.7008
14817	8.4144	3.4545	0.	1.2343e-003
14818	8.3222	3.3636	0.	8.8747e-004
14819	8.3222	3.4545	5.e-002	5.6483
14820	8.5989	3.4545	0.	1.5648e-003
14821	8.5067	3.3636	0.	1.2539e-003
14822	8.5067	3.4545	5.e-002	5.6002
14823	8.7833	3.4545	0.	1.8788e-003
14824	8.6911	3.3636	0.	1.6035e-003
14825	8.6911	3.4545	5.e-002	5.5558
14826	8.9678	3.4545	0.	2.179e-003
14827	8.8756	3.3636	0.	1.9288e-003
14828	8.8756	3.4545	5.e-002	5.5144
14829	9.1522	3.4545	0.	2.4692e-003
14830	9.06	3.3636	0.	2.2437e-003
14831	9.06	3.4545	5.e-002	5.4755
14832	9.3367	3.4545	0.	2.7422e-003
14833	9.2444	3.3636	0.	2.5423e-003
14834	9.2444	3.4545	5.e-002	5.4388
14835	9.5211	3.4545	0.	3.0037e-003
14836	9.4289	3.3636	0.	2.8168e-003
14837	9.4289	3.4545	5.e-002	5.4039
14838	9.7056	3.4545	0.	3.2476e-003
14839	9.6133	3.3636	0.	3.0886e-003
14840	9.6133	3.4545	5.e-002	5.3706
14841	9.89	3.4545	0.	3.4727e-003
14842	9.7978	3.3636	0.	3.3242e-003
14843	9.7978	3.4545	5.e-002	5.3387
14844	10.074	3.4545	0.	3.7175e-003
14845	9.9822	3.3636	0.	3.5537e-003
14846	9.9822	3.4545	5.e-002	5.308
14847	10.259	3.4545	0.	3.9566e-003
14848	10.167	3.3636	0.	3.8251e-003
14849	10.167	3.4545	5.e-002	5.2783
14850	10.443	3.4545	0.	4.1584e-003
14851	10.351	3.3636	0.	4.0402e-003
14852	10.351	3.4545	5.e-002	5.2496
14853	10.628	3.4545	0.	4.3621e-003
14854	10.536	3.3636	0.	4.2328e-003
14855	10.536	3.4545	5.e-002	5.2217
14856	10.812	3.4545	0.	4.5659e-003
14857	10.72	3.3636	0.	4.4467e-003
14858	10.72	3.4545	5.e-002	5.1945
14859	10.997	3.4545	0.	4.7648e-003
14860	10.904	3.3636	0.	4.6348e-003
14861	10.904	3.4545	5.e-002	5.168
14862	11.181	3.4545	0.	4.9914e-003
14863	11.089	3.3636	0.	4.8321e-003
14864	11.089	3.4545	5.e-002	5.142
14865	11.366	3.4545	0.	5.2321e-003
14866	11.273	3.3636	0.	5.0661e-003
14867	11.273	3.4545	5.e-002	5.1166
14868	11.55	3.4545	0.	5.4836e-003
14869	11.458	3.3636	0.	5.2777e-003
14870	11.458	3.4545	5.e-002	5.0917
14871	11.734	3.4545	0.	5.8117e-003
14872	11.642	3.3636	0.	5.5063e-003
14873	11.642	3.4545	5.e-002	5.0673
14874	11.919	3.4545	0.	6.3435e-003
14875	11.827	3.3636	0.	5.8209e-003
14876	11.827	3.4545	5.e-002	5.0432
14877	12.103	3.4545	0.	7.9351e-003
14878	12.011	3.3636	0.	6.3456e-003
14879	12.011	3.4545	5.e-002	5.0196
14880	12.288	3.4545	0.	0.35568
14881	12.196	3.3636	0.	9.3136e-003
14882	12.196	3.4545	5.e-002	4.9962
14883	12.472	3.4545	0.	1.5125
14884	12.38	3.3636	0.	0.83348
14885	12.38	3.4545	5.e-002	4.9732
14886	12.657	3.4545	0.	2.5996
14887	12.564	3.3636	0.	1.9637
14888	12.564	3.4545	5.e-002	4.9505
14889	12.841	3.4545	0.	3.6203
14890	12.749	3.3636	0.	3.0239
14891	12.749	3.4545	5.e-002	4.9281
14892	13.026	3.4545	0.	4.5811
14893	12.933	3.3636	0.	4.0203
14894	12.933	3.4545	5.e-002	4.9059
14895	13.21	3.4545	0.	5.4879
14896	13.118	3.3636	0.	4.9593
14897	13.118	3.4545	5.e-002	4.884
14898	13.394	3.4545	0.	6.3468
14899	13.302	3.3636	0.	5.8469
14900	13.302	3.4545	5.e-002	4.8622
14901	13.579	3.4545	0.	7.1633
14902	13.487	3.3636	0.	6.6892
14903	13.487	3.4545	5.e-002	4.8407
14904	13.763	3.4545	0.	7.9426
14905	13.671	3.3636	0.	7.4912
14906	13.671	3.4545	5.e-002	4.8195
14907	13.948	3.4545	0.	8.6898
14908	13.856	3.3636	0.	8.2584
14909	13.856	3.4545	5.e-002	4.7984
14910	14.132	3.4545	0.	9.4097
14911	14.04	3.3636	0.	8.9957
14912	14.04	3.4545	5.e-002	4.7775
14913	14.317	3.4545	0.	10.107
14914	14.224	3.3636	0.	9.7078
14915	14.224	3.4545	5.e-002	4.7568
14916	14.501	3.4545	0.	10.786
14917	14.409	3.3636	0.	10.399
14918	14.409	3.4545	5.e-002	4.7362
14919	14.686	3.4545	0.	11.451
14920	14.593	3.3636	0.	11.075
14921	14.593	3.4545	5.e-002	4.7158
14922	14.87	3.4545	0.	12.107
14923	14.778	3.3636	0.	11.739
14924	14.778	3.4545	5.e-002	4.6957
14925	15.054	3.4545	0.	12.758
14926	14.962	3.3636	0.	12.395
14927	14.962	3.4545	5.e-002	4.6756
14928	15.239	3.4545	0.	13.407
14929	15.147	3.3636	0.	13.048
14930	15.147	3.4545	5.e-002	4.6557
14931	15.423	3.4545	0.	14.059
14932	15.331	3.3636	0.	13.702
14933	15.331	3.4545	5.e-002	4.636
14934	15.608	3.4545	0.	14.719
14935	15.516	3.3636	0.	14.361
14936	15.516	3.4545	5.e-002	4.6164
14937	15.792	3.4545	0.	15.39
14938	15.7	3.3636	0.	15.03
14939	15.7	3.4545	5.e-002	4.597
14940	15.977	3.4545	0.	16.077
14941	15.884	3.3636	0.	15.712
14942	15.884	3.4545	5.e-002	4.5778
14943	16.161	3.4545	0.	16.784
14944	16.069	3.3636	0.	16.413
14945	16.069	3.4545	5.e-002	4.5588
14946	16.346	3.4545	0.	17.516
14947	16.253	3.3636	0.	17.136
14948	16.253	3.4545	5.e-002	4.5399
14949	16.53	3.4545	0.	18.277
14950	16.438	3.3636	0.	17.886
14951	16.438	3.4545	5.e-002	4.5212
14952	16.714	3.4545	0.	19.073
14953	16.622	3.3636	0.	18.669
14954	16.622	3.4545	5.e-002	4.5027
14955	16.899	3.4545	0.	19.908
14956	16.807	3.3636	0.	19.489
14957	16.807	3.4545	5.e-002	4.4844
14958	17.083	3.4545	0.	20.788
14959	16.991	3.3636	0.	20.351
14960	16.991	3.4545	5.e-002	4.4663
14961	17.268	3.4545	0.	21.717
14962	17.176	3.3636	0.	21.261
14963	17.176	3.4545	5.e-002	4.4484
14964	17.452	3.4545	0.	22.704
14965	17.36	3.3636	0.	22.225
14966	17.36	3.4545	5.e-002	4.4308
14967	17.637	3.4545	0.	23.753
14968	17.544	3.3636	0.	23.249
14969	17.544	3.4545	5.e-002	4.4135
14970	17.821	3.4545	0.	24.871
14971	17.729	3.3636	0.	24.339
14972	17.729	3.4545	5.e-002	4.3964
14973	18.006	3.4545	0.	26.066
14974	17.913	3.3636	0.	25.503
14975	17.913	3.4545	5.e-002	4.3796
14976	18.19	3.4545	0.	27.344
14977	18.098	3.3636	0.	26.748
14978	18.098	3.4545	5.e-002	4.3631
14979	18.374	3.4545	0.	28.715
14980	18.282	3.3636	0.	28.082
14981	18.282	3.4545	5.e-002	4.347
14982	18.559	3.4545	0.	30.187
14983	18.467	3.3636	0.	29.513
14984	18.467	3.4545	5.e-002	4.3313
14985	18.743	3.4545	0.	31.769
14986	18.651	3.3636	0.	31.051
14987	18.651	3.4545	5.e-002	4.316
14988	18.928	3.4545	0.	33.471
14989	18.836	3.3636	0.	32.705
14990	18.836	3.4545	5.e-002	4.3011
14991	19.112	3.4545	0.	35.304
14992	19.02	3.3636	0.	34.485
14993	19.02	3.4545	5.e-002	4.2867
14994	19.297	3.4545	0.	37.28
14995	19.204	3.3636	0.	36.404
14996	19.204	3.4545	5.e-002	4.2728
14997	19.481	3.4545	0.	39.41
14998	19.389	3.3636	0.	38.473
14999	19.389	3.4545	5.e-002	4.2596
15000	19.666	3.4545	0.	41.708
15001	19.573	3.3636	0.	40.704
15002	19.573	3.4545	5.e-002	4.247
15003	19.85	3.4545	0.	44.187
15004	19.758	3.3636	0.	43.112
15005	19.758	3.4545	5.e-002	4.2351
15006	20.034	3.4545	0.	46.864
15007	19.942	3.3636	0.	45.71
15008	19.942	3.4545	5.e-002	4.224
15009	20.219	3.4545	0.	49.753
15010	20.127	3.3636	0.	48.516
15011	20.127	3.4545	5.e-002	4.2139
15012	20.403	3.4545	0.	52.872
15013	20.311	3.3636	0.	51.544
15014	20.311	3.4545	5.e-002	4.2047
15015	20.588	3.4545	0.	56.239
15016	20.496	3.3636	0.	54.814
15017	20.496	3.4545	5.e-002	4.1967
15018	20.772	3.4545	0.	59.872
15019	20.68	3.3636	0.	58.342
15020	20.68	3.4545	5.e-002	4.19
15021	20.957	3.4545	0.	63.792
15022	20.864	3.3636	0.	62.15
15023	20.864	3.4545	5.e-002	4.1846
15024	21.141	3.4545	0.	68.018
15025	21.049	3.3636	0.	66.256
15026	21.049	3.4545	5.e-002	4.1809
15027	21.326	3.4545	0.	72.573
15028	21.233	3.3636	0.	70.681
15029	21.233	3.4545	5.e-002	4.1791
15030	21.51	3.4545	0.	77.478
15031	21.418	3.3636	0.	75.448
15032	21.418	3.4545	5.e-002	4.1792
15033	21.694	3.4545	0.	82.755
15034	21.602	3.3636	0.	80.577
15035	21.602	3.4545	5.e-002	4.1817
15036	21.879	3.4545	0.	88.424
15037	21.787	3.3636	0.	86.089
15038	21.787	3.4545	5.e-002	4.1868
15039	22.063	3.4545	0.	94.508
15040	21.971	3.3636	0.	92.006
15041	21.971	3.4545	5.e-002	4.1949
15042	22.248	3.4545	0.	101.02
15043	22.156	3.3636	0.	98.346
15044	22.156	3.4545	5.e-002	4.2062
15045	22.432	3.4545	0.	107.99
15046	22.34	3.3636	0.	105.13
15047	22.34	3.4545	5.e-002	4.2211
15048	22.617	3.4545	0.	115.43
15049	22.524	3.3636	0.	112.37
15050	22.524	3.4545	5.e-002	4.2399
15051	22.801	3.4545	0.	123.34
15052	22.709	3.3636	0.	120.07
15053	22.709	3.4545	5.e-002	4.2631
15054	22.986	3.4545	0.	131.73
15055	22.893	3.3636	0.	128.26
15056	22.893	3.4545	5.e-002	4.2907
15057	23.17	3.4545	0.	140.61
15058	23.078	3.3636	0.	136.93
15059	23.078	3.4545	5.e-002	4.3231
15060	23.354	3.4545	0.	149.98
15061	23.262	3.3636	0.	146.08
15062	23.262	3.4545	5.e-002	4.3602
15063	23.539	3.4545	0.	159.84
15064	23.447	3.3636	0.	155.69
15065	23.447	3.4545	5.e-002	4.4018
15066	23.723	3.4545	0.	170.1
15067	23.631	3.3636	0.	165.83
15068	23.631	3.4545	5.e-002	4.448
15069	23.816	3.3636	0.	176.23
15070	23.816	3.4545	5.e-002	4.5078
15071	23.908	3.4545	0.	180.24
15072	2.1433	3.2727	0.	19.902
15073	2.0511	3.1818	0.	95.947
15074	2.0511	3.2727	5.e-002	94.448
15075	2.3278	3.2727	0.	1.5642
15076	2.2356	3.1818	0.	0.92598
15077	2.2356	3.2727	5.e-002	110.8
15078	2.5122	3.2727	0.	1.8503
15079	2.42	3.1818	0.	1.6166
15080	2.42	3.2727	5.e-002	105.76
15081	2.6967	3.2727	0.	1.6905
15082	2.6044	3.1818	0.	1.725
15083	2.6044	3.2727	5.e-002	91.758
15084	2.8811	3.2727	0.	1.3813
15085	2.7889	3.1818	0.	1.5134
15086	2.7889	3.2727	5.e-002	76.562
15087	3.0656	3.2727	0.	1.0699
15088	2.9733	3.1818	0.	1.2068
15089	2.9733	3.2727	5.e-002	62.927
15090	3.25	3.2727	0.	0.79044
15091	3.1578	3.1818	0.	0.90123
15092	3.1578	3.2727	5.e-002	51.521
15093	3.4344	3.2727	0.	0.57439
15094	3.3422	3.1818	0.	0.65501
15095	3.3422	3.2727	5.e-002	42.266
15096	3.6189	3.2727	0.	0.41251
15097	3.5267	3.1818	0.	0.46836
15098	3.5267	3.2727	5.e-002	34.858
15099	3.8033	3.2727	0.	0.29391
15100	3.7111	3.1818	0.	0.33164
15101	3.7111	3.2727	5.e-002	28.966
15102	3.9878	3.2727	0.	0.20806
15103	3.8956	3.1818	0.	0.23317
15104	3.8956	3.2727	5.e-002	24.289
15105	4.1722	3.2727	0.	0.14628
15106	4.08	3.1818	0.	0.1628
15107	4.08	3.2727	5.e-002	20.578
15108	4.3567	3.2727	0.	0.10196
15109	4.2644	3.1818	0.	0.1127
15110	4.2644	3.2727	5.e-002	17.631
15111	4.5411	3.2727	0.	7.0229e-002
15112	4.4489	3.1818	0.	7.7094e-002
15113	4.4489	3.2727	5.e-002	15.288
15114	4.7256	3.2727	0.	4.7577e-002
15115	4.6333	3.1818	0.	5.1841e-002
15116	4.6333	3.2727	5.e-002	13.421
15117	4.91	3.2727	0.	3.1457e-002
15118	4.8178	3.1818	0.	3.3983e-002
15119	4.8178	3.2727	5.e-002	11.932
15120	5.0944	3.2727	0.	2.0051e-002
15121	5.0022	3.1818	0.	2.1409e-002
15122	5.0022	3.2727	5.e-002	10.74
15123	5.2789	3.2727	0.	1.2055e-002
15124	5.1867	3.1818	0.	1.2639e-002
15125	5.1867	3.2727	5.e-002	9.7858
15126	5.4633	3.2727	0.	6.5143e-003
15127	5.3711	3.1818	0.	6.5958e-003
15128	5.3711	3.2727	5.e-002	9.0189
15129	5.6478	3.2727	0.	2.7506e-003
15130	5.5556	3.1818	0.	2.5025e-003
15131	5.5556	3.2727	5.e-002	8.401
15132	5.8322	3.2727	0.	2.7152e-004
15133	5.74	3.1818	0.	-1.7756e-004
15134	5.74	3.2727	5.e-002	7.9015
15135	6.0167	3.2727	0.	-1.2922e-003
15136	5.9244	3.1818	0.	-1.8535e-003
15137	5.9244	3.2727	5.e-002	7.4959
15138	6.2011	3.2727	0.	-2.1996e-003
15139	6.1089	3.1818	0.	-2.8235e-003
15140	6.1089	3.2727	5.e-002	7.1652
15141	6.3856	3.2727	0.	-2.639e-003
15142	6.2933	3.1818	0.	-3.2826e-003
15143	6.2933	3.2727	5.e-002	6.894
15144	6.57	3.2727	0.	-2.7583e-003
15145	6.4778	3.1818	0.	-3.3923e-003
15146	6.4778	3.2727	5.e-002	6.6702
15147	6.7544	3.2727	0.	-2.6554e-003
15148	6.6622	3.1818	0.	-3.2712e-003
15149	6.6622	3.2727	5.e-002	6.4843
15150	6.9389	3.2727	0.	-2.4009e-003
15151	6.8467	3.1818	0.	-2.9841e-003
15152	6.8467	3.2727	5.e-002	6.3285
15153	7.1233	3.2727	0.	-2.0548e-003
15154	7.0311	3.1818	0.	-2.597e-003
15155	7.0311	3.2727	5.e-002	6.197
15156	7.3078	3.2727	0.	-1.6515e-003
15157	7.2156	3.1818	0.	-2.1574e-003
15158	7.2156	3.2727	5.e-002	6.0848
15159	7.4922	3.2727	0.	-1.215e-003
15160	7.4	3.1818	0.	-1.6803e-003
15161	7.4	3.2727	5.e-002	5.9882
15162	7.6767	3.2727	0.	-7.705e-004
15163	7.5844	3.1818	0.	-1.1935e-003
15164	7.5844	3.2727	5.e-002	5.9041
15165	7.8611	3.2727	0.	-3.2776e-004
15166	7.7689	3.1818	0.	-7.1663e-004
15167	7.7689	3.2727	5.e-002	5.8303
15168	8.0456	3.2727	0.	1.0818e-004
15169	7.9533	3.1818	0.	-2.4575e-004
15170	7.9533	3.2727	5.e-002	5.7646
15171	8.23	3.2727	0.	5.2554e-004
15172	8.1378	3.1818	0.	2.0705e-004
15173	8.1378	3.2727	5.e-002	5.7058
15174	8.4144	3.2727	0.	9.2425e-004
15175	8.3222	3.1818	0.	6.3187e-004
15176	8.3222	3.2727	5.e-002	5.6524
15177	8.5989	3.2727	0.	1.306e-003
15178	8.5067	3.1818	0.	1.0404e-003
15179	8.5067	3.2727	5.e-002	5.6036
15180	8.7833	3.2727	0.	1.6637e-003
15181	8.6911	3.1818	0.	1.4258e-003
15182	8.6911	3.2727	5.e-002	5.5586
15183	8.9678	3.2727	0.	2.001e-003
15184	8.8756	3.1818	0.	1.7813e-003
15185	8.8756	3.2727	5.e-002	5.5167
15186	9.1522	3.2727	0.	2.322e-003
15187	9.06	3.1818	0.	2.1215e-003
15188	9.06	3.2727	5.e-002	5.4774
15189	9.3367	3.2727	0.	2.6203e-003
15190	9.2444	3.1818	0.	2.4413e-003
15191	9.2444	3.2727	5.e-002	5.4404
15192	9.5211	3.2727	0.	2.9037e-003
15193	9.4289	3.1818	0.	2.7335e-003
15194	9.4289	3.2727	5.e-002	5.4053
15195	9.7056	3.2727	0.	3.166e-003
15196	9.6133	3.1818	0.	3.0206e-003
15197	9.6133	3.2727	5.e-002	5.3719
15198	9.89	3.2727	0.	3.4052e-003
15199	9.7978	3.1818	0.	3.2683e-003
15200	9.7978	3.2727	5.e-002	5.3398
15201	10.074	3.2727	0.	3.6606e-003
15202	9.9822	3.1818	0.	3.5071e-003
15203	9.9822	3.2727	5.e-002	5.3089
15204	10.259	3.2727	0.	3.9076e-003
15205	10.167	3.1818	0.	3.7851e-003
15206	10.167	3.2727	5.e-002	5.2791
15207	10.443	3.2727	0.	4.1134e-003
15208	10.351	3.1818	0.	4.0045e-003
15209	10.351	3.2727	5.e-002	5.2503
15210	10.628	3.2727	0.	4.3167e-003
15211	10.536	3.1818	0.	4.1992e-003
15212	10.536	3.2727	5.e-002	5.2223
15213	10.812	3.2727	0.	4.5156e-003
15214	10.72	3.1818	0.	4.4113e-003
15215	10.72	3.2727	5.e-002	5.1951
15216	10.997	3.2727	0.	4.7035e-003
15217	10.904	3.1818	0.	4.5941e-003
15218	10.904	3.2727	5.e-002	5.1685
15219	11.181	3.2727	0.	4.9102e-003
15220	11.089	3.1818	0.	4.7805e-003
15221	11.089	3.2727	5.e-002	5.1425
15222	11.366	3.2727	0.	5.1181e-003
15223	11.273	3.1818	0.	4.9964e-003
15224	11.273	3.2727	5.e-002	5.1171
15225	11.55	3.2727	0.	5.3105e-003
15226	11.458	3.1818	0.	5.177e-003
15227	11.458	3.2727	5.e-002	5.0921
15228	11.734	3.2727	0.	5.5273e-003
15229	11.642	3.1818	0.	5.3497e-003
15230	11.642	3.2727	5.e-002	5.0677
15231	11.919	3.2727	0.	5.8024e-003
15232	11.827	3.1818	0.	5.5545e-003
15233	11.827	3.2727	5.e-002	5.0436
15234	12.103	3.2727	0.	6.3324e-003
15235	12.011	3.1818	0.	5.7847e-003
15236	12.011	3.2727	5.e-002	5.0199
15237	12.288	3.2727	0.	0.13356
15238	12.196	3.1818	0.	6.3897e-003
15239	12.196	3.2727	5.e-002	4.9965
15240	12.472	3.2727	0.	1.3076
15241	12.38	3.1818	0.	0.67257
15242	12.38	3.2727	5.e-002	4.9734
15243	12.657	3.2727	0.	2.4116
15244	12.564	3.1818	0.	1.8165
15245	12.564	3.2727	5.e-002	4.9507
15246	12.841	3.2727	0.	3.4479
15247	12.749	3.1818	0.	2.8888
15248	12.749	3.2727	5.e-002	4.9283
15249	13.026	3.2727	0.	4.423
15250	12.933	3.1818	0.	3.8964
15251	12.933	3.2727	5.e-002	4.9061
15252	13.21	3.2727	0.	5.3433
15253	13.118	3.1818	0.	4.8459
15254	13.118	3.2727	5.e-002	4.8842
15255	13.394	3.2727	0.	6.2147
15256	13.302	3.1818	0.	5.7432
15257	13.302	3.2727	5.e-002	4.8624
15258	13.579	3.2727	0.	7.0429
15259	13.487	3.1818	0.	6.5945
15260	13.487	3.2727	5.e-002	4.8409
15261	13.763	3.2727	0.	7.8332
15262	13.671	3.1818	0.	7.4051
15263	13.671	3.2727	5.e-002	4.8197
15264	13.948	3.2727	0.	8.5909
15265	13.856	3.1818	0.	8.1803
15266	13.856	3.2727	5.e-002	4.7986
15267	14.132	3.2727	0.	9.3207
15268	14.04	3.1818	0.	8.9253
15269	14.04	3.2727	5.e-002	4.7777
15270	14.317	3.2727	0.	10.028
15271	14.224	3.1818	0.	9.6447
15272	14.224	3.2727	5.e-002	4.7569
15273	14.501	3.2727	0.	10.716
15274	14.409	3.1818	0.	10.343
15275	14.409	3.2727	5.e-002	4.7364
15276	14.686	3.2727	0.	11.39
15277	14.593	3.1818	0.	11.026
15278	14.593	3.2727	5.e-002	4.716
15279	14.87	3.2727	0.	12.055
15280	14.778	3.1818	0.	11.696
15281	14.778	3.2727	5.e-002	4.6958
15282	15.054	3.2727	0.	12.714
15283	14.962	3.1818	0.	12.359
15284	14.962	3.2727	5.e-002	4.6757
15285	15.239	3.2727	0.	13.372
15286	15.147	3.1818	0.	13.018
15287	15.147	3.2727	5.e-002	4.6558
15288	15.423	3.2727	0.	14.033
15289	15.331	3.1818	0.	13.679
15290	15.331	3.2727	5.e-002	4.6361
15291	15.608	3.2727	0.	14.702
15292	15.516	3.1818	0.	14.345
15293	15.516	3.2727	5.e-002	4.6165
15294	15.792	3.2727	0.	15.382
15295	15.7	3.1818	0.	15.02
15296	15.7	3.2727	5.e-002	4.5971
15297	15.977	3.2727	0.	16.079
15298	15.884	3.1818	0.	15.71
15299	15.884	3.2727	5.e-002	4.5779
15300	16.161	3.2727	0.	16.796
15301	16.069	3.1818	0.	16.417
15302	16.069	3.2727	5.e-002	4.5589
15303	16.346	3.2727	0.	17.538
15304	16.253	3.1818	0.	17.148
15305	16.253	3.2727	5.e-002	4.54
15306	16.53	3.2727	0.	18.31
15307	16.438	3.1818	0.	17.907
15308	16.438	3.2727	5.e-002	4.5213
15309	16.714	3.2727	0.	19.117
15310	16.622	3.1818	0.	18.698
15311	16.622	3.2727	5.e-002	4.5028
15312	16.899	3.2727	0.	19.964
15313	16.807	3.1818	0.	19.526
15314	16.807	3.2727	5.e-002	4.4845
15315	17.083	3.2727	0.	20.857
15316	16.991	3.1818	0.	20.398
15317	16.991	3.2727	5.e-002	4.4664
15318	17.268	3.2727	0.	21.802
15319	17.176	3.1818	0.	21.319
15320	17.176	3.2727	5.e-002	4.4486
15321	17.452	3.2727	0.	22.803
15322	17.36	3.1818	0.	22.294
15323	17.36	3.2727	5.e-002	4.431
15324	17.637	3.2727	0.	23.869
15325	17.544	3.1818	0.	23.33
15326	17.544	3.2727	5.e-002	4.4136
15327	17.821	3.2727	0.	25.005
15328	17.729	3.1818	0.	24.433
15329	17.729	3.2727	5.e-002	4.3965
15330	18.006	3.2727	0.	26.22
15331	17.913	3.1818	0.	25.611
15332	17.913	3.2727	5.e-002	4.3798
15333	18.19	3.2727	0.	27.52
15334	18.098	3.1818	0.	26.872
15335	18.098	3.2727	5.e-002	4.3633
15336	18.374	3.2727	0.	28.915
15337	18.282	3.1818	0.	28.222
15338	18.282	3.2727	5.e-002	4.3472
15339	18.559	3.2727	0.	30.412
15340	18.467	3.1818	0.	29.672
15341	18.467	3.2727	5.e-002	4.3315
15342	18.743	3.2727	0.	32.022
15343	18.651	3.1818	0.	31.23
15344	18.651	3.2727	5.e-002	4.3162
15345	18.928	3.2727	0.	33.755
15346	18.836	3.1818	0.	32.906
15347	18.836	3.2727	5.e-002	4.3013
15348	19.112	3.2727	0.	35.621
15349	19.02	3.1818	0.	34.711
15350	19.02	3.2727	5.e-002	4.287
15351	19.297	3.2727	0.	37.633
15352	19.204	3.1818	0.	36.656
15353	19.204	3.2727	5.e-002	4.2731
15354	19.481	3.2727	0.	39.803
15355	19.389	3.1818	0.	38.753
15356	19.389	3.2727	5.e-002	4.2599
15357	19.666	3.2727	0.	42.144
15358	19.573	3.1818	0.	41.015
15359	19.573	3.2727	5.e-002	4.2474
15360	19.85	3.2727	0.	44.67
15361	19.758	3.1818	0.	43.457
15362	19.758	3.2727	5.e-002	4.2356
15363	20.034	3.2727	0.	47.398
15364	19.942	3.1818	0.	46.092
15365	19.942	3.2727	5.e-002	4.2245
15366	20.219	3.2727	0.	50.342
15367	20.127	3.1818	0.	48.937
15368	20.127	3.2727	5.e-002	4.2145
15369	20.403	3.2727	0.	53.52
15370	20.311	3.1818	0.	52.009
15371	20.311	3.2727	5.e-002	4.2054
15372	20.588	3.2727	0.	56.951
15373	20.496	3.1818	0.	55.325
15374	20.496	3.2727	5.e-002	4.1975
15375	20.772	3.2727	0.	60.653
15376	20.68	3.1818	0.	58.903
15377	20.68	3.2727	5.e-002	4.1909
15378	20.957	3.2727	0.	64.645
15379	20.864	3.1818	0.	62.763
15380	20.864	3.2727	5.e-002	4.1857
15381	21.141	3.2727	0.	68.949
15382	21.049	3.1818	0.	66.926
15383	21.049	3.2727	5.e-002	4.1821
15384	21.326	3.2727	0.	73.585
15385	21.233	3.1818	0.	71.411
15386	21.233	3.2727	5.e-002	4.1805
15387	21.51	3.2727	0.	78.575
15388	21.418	3.1818	0.	76.24
15389	21.418	3.2727	5.e-002	4.1809
15390	21.694	3.2727	0.	83.938
15391	21.602	3.1818	0.	81.433
15392	21.602	3.2727	5.e-002	4.1836
15393	21.879	3.2727	0.	89.696
15394	21.787	3.1818	0.	87.011
15395	21.787	3.2727	5.e-002	4.189
15396	22.063	3.2727	0.	95.868
15397	21.971	3.1818	0.	92.994
15398	21.971	3.2727	5.e-002	4.1973
15399	22.248	3.2727	0.	102.47
15400	22.156	3.1818	0.	99.4
15401	22.156	3.2727	5.e-002	4.2089
15402	22.432	3.2727	0.	109.52
15403	22.34	3.1818	0.	106.25
15404	22.34	3.2727	5.e-002	4.224
15405	22.617	3.2727	0.	117.03
15406	22.524	3.1818	0.	113.55
15407	22.524	3.2727	5.e-002	4.2431
15408	22.801	3.2727	0.	125.01
15409	22.709	3.1818	0.	121.31
15410	22.709	3.2727	5.e-002	4.2664
15411	22.986	3.2727	0.	133.47
15412	22.893	3.1818	0.	129.54
15413	22.893	3.2727	5.e-002	4.2941
15414	23.17	3.2727	0.	142.4
15415	23.078	3.1818	0.	138.25
15416	23.078	3.2727	5.e-002	4.3262
15417	23.354	3.2727	0.	151.81
15418	23.262	3.1818	0.	147.44
15419	23.262	3.2727	5.e-002	4.363
15420	23.539	3.2727	0.	161.69
15421	23.447	3.1818	0.	157.08
15422	23.447	3.2727	5.e-002	4.404
15423	23.723	3.2727	0.	171.97
15424	23.631	3.1818	0.	167.23
15425	23.631	3.2727	5.e-002	4.4492
15426	23.816	3.1818	0.	177.63
15427	23.816	3.2727	5.e-002	4.5045
15428	23.908	3.2727	0.	182.13
15429	2.1433	3.0909	0.	0.53709
15430	2.0511	3.	0.	64.465
15431	2.0511	3.0909	5.e-002	78.342
15432	2.3278	3.0909	0.	0.73668
15433	2.2356	3.	0.	6.2304e-002
15434	2.2356	3.0909	5.e-002	96.341
15435	2.5122	3.0909	0.	1.4664
15436	2.42	3.	0.	1.3299
15437	2.42	3.0909	5.e-002	97.889
15438	2.6967	3.0909	0.	1.5466
15439	2.6044	3.	0.	1.5972
15440	2.6044	3.0909	5.e-002	89.151
15441	2.8811	3.0909	0.	1.3485
15442	2.7889	3.	0.	1.4955
15443	2.7889	3.0909	5.e-002	76.537
15444	3.0656	3.0909	0.	1.0513
15445	2.9733	3.	0.	1.1955
15446	2.9733	3.0909	5.e-002	63.798
15447	3.25	3.0909	0.	0.77866
15448	3.1578	3.	0.	0.89738
15449	3.1578	3.0909	5.e-002	52.527
15450	3.4344	3.0909	0.	0.56006
15451	3.3422	3.	0.	0.64936
15452	3.3422	3.0909	5.e-002	43.141
15453	3.6189	3.0909	0.	0.39652
15454	3.5267	3.	0.	0.46103
15455	3.5267	3.0909	5.e-002	35.547
15456	3.8033	3.0909	0.	0.27803
15457	3.7111	3.	0.	0.32376
15458	3.7111	3.0909	5.e-002	29.488
15459	3.9878	3.0909	0.	0.19347
15460	3.8956	3.	0.	0.2256
15461	3.8956	3.0909	5.e-002	24.679
15462	4.1722	3.0909	0.	0.13352
15463	4.08	3.	0.	0.15602
15464	4.08	3.0909	5.e-002	20.87
15465	4.3567	3.0909	0.	9.1149e-002
15466	4.2644	3.	0.	0.10687
15467	4.2644	3.0909	5.e-002	17.851
15468	4.5411	3.0909	0.	6.1251e-002
15469	4.4489	3.	0.	7.2201e-002
15470	4.4489	3.0909	5.e-002	15.456
15471	4.7256	3.0909	0.	4.0206e-002
15472	4.6333	3.	0.	4.7801e-002
15473	4.6333	3.0909	5.e-002	13.552
15474	4.91	3.0909	0.	2.5444e-002
15475	4.8178	3.	0.	3.0677e-002
15476	4.8178	3.0909	5.e-002	12.035
15477	5.0944	3.0909	0.	1.5161e-002
15478	5.0022	3.	0.	1.8716e-002
15479	5.0022	3.0909	5.e-002	10.823
15480	5.2789	3.0909	0.	8.0812e-003
15481	5.1867	3.	0.	1.0449e-002
15482	5.1867	3.0909	5.e-002	9.8525
15483	5.4633	3.0909	0.	3.2834e-003
15484	5.3711	3.	0.	4.8153e-003
15485	5.3711	3.0909	5.e-002	9.0734
15486	5.6478	3.0909	0.	1.1883e-004
15487	5.5556	3.	0.	1.0532e-003
15488	5.5556	3.0909	5.e-002	8.4456
15489	5.8322	3.0909	0.	-1.8773e-003
15490	5.74	3.	0.	-1.3598e-003
15491	5.74	3.0909	5.e-002	7.938
15492	6.0167	3.0909	0.	-3.0514e-003
15493	5.9244	3.	0.	-2.8205e-003
15494	5.9244	3.0909	5.e-002	7.526
15495	6.2011	3.0909	0.	-3.6441e-003
15496	6.1089	3.	0.	-3.6163e-003
15497	6.1089	3.0909	5.e-002	7.1899
15498	6.3856	3.0909	0.	-3.8286e-003
15499	6.2933	3.	0.	-3.9348e-003
15500	6.2933	3.0909	5.e-002	6.9142
15501	6.57	3.0909	0.	-3.7408e-003
15502	6.4778	3.	0.	-3.9302e-003
15503	6.4778	3.0909	5.e-002	6.6867
15504	6.7544	3.0909	0.	-3.4691e-003
15505	6.6622	3.	0.	-3.7159e-003
15506	6.6622	3.0909	5.e-002	6.4977
15507	6.9389	3.0909	0.	-3.0759e-003
15508	6.8467	3.	0.	-3.3531e-003
15509	6.8467	3.0909	5.e-002	6.3394
15510	7.1233	3.0909	0.	-2.6161e-003
15511	7.0311	3.	0.	-2.9033e-003
15512	7.0311	3.0909	5.e-002	6.2058
15513	7.3078	3.0909	0.	-2.1192e-003
15514	7.2156	3.	0.	-2.4125e-003
15515	7.2156	3.0909	5.e-002	6.092
15516	7.4922	3.0909	0.	-1.6051e-003
15517	7.4	3.	0.	-1.8932e-003
15518	7.4	3.0909	5.e-002	5.994
15519	7.6767	3.0909	0.	-1.0964e-003
15520	7.5844	3.	0.	-1.371e-003
15521	7.5844	3.0909	5.e-002	5.9088
15522	7.8611	3.0909	0.	-5.9996e-004
15523	7.7689	3.	0.	-8.6535e-004
15524	7.7689	3.0909	5.e-002	5.8341
15525	8.0456	3.0909	0.	-1.1919e-004
15526	7.9533	3.	0.	-3.6984e-004
15527	7.9533	3.0909	5.e-002	5.7677
15528	8.23	3.0909	0.	3.3539e-004
15529	8.1378	3.	0.	1.0376e-004
15530	8.1378	3.0909	5.e-002	5.7083
15531	8.4144	3.0909	0.	7.6539e-004
15532	8.3222	3.	0.	5.4507e-004
15533	8.3222	3.0909	5.e-002	5.6545
15534	8.5989	3.0909	0.	1.1737e-003
15535	8.5067	3.	0.	9.6785e-004
15536	8.5067	3.0909	5.e-002	5.6053
15537	8.7833	3.0909	0.	1.5537e-003
15538	8.6911	3.	0.	1.3655e-003
15539	8.6911	3.0909	5.e-002	5.56
15540	8.9678	3.0909	0.	1.9095e-003
15541	8.8756	3.	0.	1.7314e-003
15542	8.8756	3.0909	5.e-002	5.5179
15543	9.1522	3.0909	0.	2.2463e-003
15544	9.06	3.	0.	2.0799e-003
15545	9.06	3.0909	5.e-002	5.4784
15546	9.3367	3.0909	0.	2.5581e-003
15547	9.2444	3.	0.	2.407e-003
15548	9.2444	3.0909	5.e-002	5.4413
15549	9.5211	3.0909	0.	2.8526e-003
15550	9.4289	3.	0.	2.7056e-003
15551	9.4289	3.0909	5.e-002	5.406
15552	9.7056	3.0909	0.	3.124e-003
15553	9.6133	3.	0.	2.9975e-003
15554	9.6133	3.0909	5.e-002	5.3725
15555	9.89	3.0909	0.	3.3704e-003
15556	9.7978	3.	0.	3.2489e-003
15557	9.7978	3.0909	5.e-002	5.3403
15558	10.074	3.0909	0.	3.6312e-003
15559	9.9822	3.	0.	3.4911e-003
15560	9.9822	3.0909	5.e-002	5.3093
15561	10.259	3.0909	0.	3.8814e-003
15562	10.167	3.	0.	3.7715e-003
15563	10.167	3.0909	5.e-002	5.2795
15564	10.443	3.0909	0.	4.0897e-003
15565	10.351	3.	0.	3.9921e-003
15566	10.351	3.0909	5.e-002	5.2507
15567	10.628	3.0909	0.	4.2937e-003
15568	10.536	3.	0.	4.1878e-003
15569	10.536	3.0909	5.e-002	5.2227
15570	10.812	3.0909	0.	4.4906e-003
15571	10.72	3.	0.	4.3992e-003
15572	10.72	3.0909	5.e-002	5.1954
15573	10.997	3.0909	0.	4.6735e-003
15574	10.904	3.	0.	4.5809e-003
15575	10.904	3.0909	5.e-002	5.1688
15576	11.181	3.0909	0.	4.8714e-003
15577	11.089	3.	0.	4.7636e-003
15578	11.089	3.0909	5.e-002	5.1427
15579	11.366	3.0909	0.	5.0638e-003
15580	11.273	3.	0.	4.9741e-003
15581	11.273	3.0909	5.e-002	5.1173
15582	11.55	3.0909	0.	5.2305e-003
15583	11.458	3.	0.	5.1443e-003
15584	11.458	3.0909	5.e-002	5.0923
15585	11.734	3.0909	0.	5.4006e-003
15586	11.642	3.	0.	5.3008e-003
15587	11.642	3.0909	5.e-002	5.0678
15588	11.919	3.0909	0.	5.5732e-003
15589	11.827	3.	0.	5.4731e-003
15590	11.827	3.0909	5.e-002	5.0437
15591	12.103	3.0909	0.	5.7623e-003
15592	12.011	3.	0.	5.6224e-003
15593	12.011	3.0909	5.e-002	5.02
15594	12.288	3.0909	0.	2.1563e-002
15595	12.196	3.	0.	5.7781e-003
15596	12.196	3.0909	5.e-002	4.9966
15597	12.472	3.0909	0.	1.2046
15598	12.38	3.	0.	0.61867
15599	12.38	3.0909	5.e-002	4.9736
15600	12.657	3.0909	0.	2.3173
15601	12.564	3.	0.	1.7673
15602	12.564	3.0909	5.e-002	4.9509
15603	12.841	3.0909	0.	3.3615
15604	12.749	3.	0.	2.8437
15605	12.749	3.0909	5.e-002	4.9284
15606	13.026	3.0909	0.	4.3438
15607	12.933	3.	0.	3.8551
15608	12.933	3.0909	5.e-002	4.9062
15609	13.21	3.0909	0.	5.2708
15610	13.118	3.	0.	4.808
15611	13.118	3.0909	5.e-002	4.8843
15612	13.394	3.0909	0.	6.1485
15613	13.302	3.	0.	5.7086
15614	13.302	3.0909	5.e-002	4.8625
15615	13.579	3.0909	0.	6.9825
15616	13.487	3.	0.	6.5629
15617	13.487	3.0909	5.e-002	4.841
15618	13.763	3.0909	0.	7.7784
15619	13.671	3.	0.	7.3764
15620	13.671	3.0909	5.e-002	4.8198
15621	13.948	3.0909	0.	8.5413
15622	13.856	3.	0.	8.1543
15623	13.856	3.0909	5.e-002	4.7987
15624	14.132	3.0909	0.	9.2762
15625	14.04	3.	0.	8.9018
15626	14.04	3.0909	5.e-002	4.7777
15627	14.317	3.0909	0.	9.9878
15628	14.224	3.	0.	9.6236
15629	14.224	3.0909	5.e-002	4.757
15630	14.501	3.0909	0.	10.681
15631	14.409	3.	0.	10.325
15632	14.409	3.0909	5.e-002	4.7364
15633	14.686	3.0909	0.	11.36
15634	14.593	3.	0.	11.009
15635	14.593	3.0909	5.e-002	4.716
15636	14.87	3.0909	0.	12.029
15637	14.778	3.	0.	11.682
15638	14.778	3.0909	5.e-002	4.6958
15639	15.054	3.0909	0.	12.692
15640	14.962	3.	0.	12.347
15641	14.962	3.0909	5.e-002	4.6758
15642	15.239	3.0909	0.	13.355
15643	15.147	3.	0.	13.009
15644	15.147	3.0909	5.e-002	4.6559
15645	15.423	3.0909	0.	14.02
15646	15.331	3.	0.	13.671
15647	15.331	3.0909	5.e-002	4.6362
15648	15.608	3.0909	0.	14.693
15649	15.516	3.	0.	14.339
15650	15.516	3.0909	5.e-002	4.6166
15651	15.792	3.0909	0.	15.378
15652	15.7	3.	0.	15.017
15653	15.7	3.0909	5.e-002	4.5972
15654	15.977	3.0909	0.	16.079
15655	15.884	3.	0.	15.709
15656	15.884	3.0909	5.e-002	4.578
15657	16.161	3.0909	0.	16.801
15658	16.069	3.	0.	16.419
15659	16.069	3.0909	5.e-002	4.5589
15660	16.346	3.0909	0.	17.549
15661	16.253	3.	0.	17.152
15662	16.253	3.0909	5.e-002	4.54
15663	16.53	3.0909	0.	18.326
15664	16.438	3.	0.	17.913
15665	16.438	3.0909	5.e-002	4.5214
15666	16.714	3.0909	0.	19.139
15667	16.622	3.	0.	18.707
15668	16.622	3.0909	5.e-002	4.5028
15669	16.899	3.0909	0.	19.993
15670	16.807	3.	0.	19.539
15671	16.807	3.0909	5.e-002	4.4846
15672	17.083	3.0909	0.	20.893
15673	16.991	3.	0.	20.414
15674	16.991	3.0909	5.e-002	4.4665
15675	17.268	3.0909	0.	21.844
15676	17.176	3.	0.	21.338
15677	17.176	3.0909	5.e-002	4.4487
15678	17.452	3.0909	0.	22.854
15679	17.36	3.	0.	22.317
15680	17.36	3.0909	5.e-002	4.4311
15681	17.637	3.0909	0.	23.928
15682	17.544	3.	0.	23.357
15683	17.544	3.0909	5.e-002	4.4137
15684	17.821	3.0909	0.	25.073
15685	17.729	3.	0.	24.465
15686	17.729	3.0909	5.e-002	4.3966
15687	18.006	3.0909	0.	26.298
15688	17.913	3.	0.	25.648
15689	17.913	3.0909	5.e-002	4.3799
15690	18.19	3.0909	0.	27.609
15691	18.098	3.	0.	26.913
15692	18.098	3.0909	5.e-002	4.3634
15693	18.374	3.0909	0.	29.015
15694	18.282	3.	0.	28.27
15695	18.282	3.0909	5.e-002	4.3473
15696	18.559	3.0909	0.	30.526
15697	18.467	3.	0.	29.726
15698	18.467	3.0909	5.e-002	4.3316
15699	18.743	3.0909	0.	32.15
15700	18.651	3.	0.	31.29
15701	18.651	3.0909	5.e-002	4.3163
15702	18.928	3.0909	0.	33.898
15703	18.836	3.	0.	32.974
15704	18.836	3.0909	5.e-002	4.3014
15705	19.112	3.0909	0.	35.781
15706	19.02	3.	0.	34.786
15707	19.02	3.0909	5.e-002	4.2871
15708	19.297	3.0909	0.	37.811
15709	19.204	3.	0.	36.74
15710	19.204	3.0909	5.e-002	4.2733
15711	19.481	3.0909	0.	40.001
15712	19.389	3.	0.	38.847
15713	19.389	3.0909	5.e-002	4.2601
15714	19.666	3.0909	0.	42.363
15715	19.573	3.	0.	41.119
15716	19.573	3.0909	5.e-002	4.2476
15717	19.85	3.0909	0.	44.914
15718	19.758	3.	0.	43.572
15719	19.758	3.0909	5.e-002	4.2358
15720	20.034	3.0909	0.	47.666
15721	19.942	3.	0.	46.22
15722	19.942	3.0909	5.e-002	4.2248
15723	20.219	3.0909	0.	50.639
15724	20.127	3.	0.	49.078
15725	20.127	3.0909	5.e-002	4.2147
15726	20.403	3.0909	0.	53.847
15727	20.311	3.	0.	52.164
15728	20.311	3.0909	5.e-002	4.2057
15729	20.588	3.0909	0.	57.31
15730	20.496	3.	0.	55.496
15731	20.496	3.0909	5.e-002	4.1979
15732	20.772	3.0909	0.	61.046
15733	20.68	3.	0.	59.091
15734	20.68	3.0909	5.e-002	4.1913
15735	20.957	3.0909	0.	65.075
15736	20.864	3.	0.	62.969
15737	20.864	3.0909	5.e-002	4.1862
15738	21.141	3.0909	0.	69.417
15739	21.049	3.	0.	67.15
15740	21.049	3.0909	5.e-002	4.1827
15741	21.326	3.0909	0.	74.094
15742	21.233	3.	0.	71.655
15743	21.233	3.0909	5.e-002	4.1812
15744	21.51	3.0909	0.	79.125
15745	21.418	3.	0.	76.504
15746	21.418	3.0909	5.e-002	4.1817
15747	21.694	3.0909	0.	84.532
15748	21.602	3.	0.	81.719
15749	21.602	3.0909	5.e-002	4.1845
15750	21.879	3.0909	0.	90.334
15751	21.787	3.	0.	87.319
15752	21.787	3.0909	5.e-002	4.1901
15753	22.063	3.0909	0.	96.549
15754	21.971	3.	0.	93.324
15755	21.971	3.0909	5.e-002	4.1985
15756	22.248	3.0909	0.	103.2
15757	22.156	3.	0.	99.752
15758	22.156	3.0909	5.e-002	4.2102
15759	22.432	3.0909	0.	110.29
15760	22.34	3.	0.	106.62
15761	22.34	3.0909	5.e-002	4.2255
15762	22.617	3.0909	0.	117.84
15763	22.524	3.	0.	113.94
15764	22.524	3.0909	5.e-002	4.2447
15765	22.801	3.0909	0.	125.85
15766	22.709	3.	0.	121.72
15767	22.709	3.0909	5.e-002	4.2681
15768	22.986	3.0909	0.	134.34
15769	22.893	3.	0.	129.97
15770	22.893	3.0909	5.e-002	4.2957
15771	23.17	3.0909	0.	143.3
15772	23.078	3.	0.	138.69
15773	23.078	3.0909	5.e-002	4.3278
15774	23.354	3.0909	0.	152.72
15775	23.262	3.	0.	147.89
15776	23.262	3.0909	5.e-002	4.3643
15777	23.539	3.0909	0.	162.62
15778	23.447	3.	0.	157.54
15779	23.447	3.0909	5.e-002	4.405
15780	23.723	3.0909	0.	172.9
15781	23.631	3.	0.	167.69
15782	23.631	3.0909	5.e-002	4.4497
15783	23.816	3.	0.	178.1
15784	23.816	3.0909	5.e-002	4.5028
15785	23.908	3.0909	0.	183.08
15786	2.1433	2.9091	0.	0.5371
15787	2.0511	2.8182	0.	95.947
15788	2.0511	2.9091	5.e-002	78.342
15789	2.3278	2.9091	0.	0.73668
15790	2.2356	2.8182	0.	0.92599
15791	2.2356	2.9091	5.e-002	96.341
15792	2.5122	2.9091	0.	1.4664
15793	2.42	2.8182	0.	1.6166
15794	2.42	2.9091	5.e-002	97.889
15795	2.6967	2.9091	0.	1.5466
15796	2.6044	2.8182	0.	1.725
15797	2.6044	2.9091	5.e-002	89.151
15798	2.8811	2.9091	0.	1.3485
15799	2.7889	2.8182	0.	1.5134
15800	2.7889	2.9091	5.e-002	76.537
15801	3.0656	2.9091	0.	1.0513
15802	2.9733	2.8182	0.	1.2068
15803	2.9733	2.9091	5.e-002	63.798
15804	3.25	2.9091	0.	0.77866
15805	3.1578	2.8182	0.	0.90123
15806	3.1578	2.9091	5.e-002	52.527
15807	3.4344	2.9091	0.	0.56006
15808	3.3422	2.8182	0.	0.65501
15809	3.3422	2.9091	5.e-002	43.141
15810	3.6189	2.9091	0.	0.39652
15811	3.5267	2.8182	0.	0.46836
15812	3.5267	2.9091	5.e-002	35.548
15813	3.8033	2.9091	0.	0.27803
15814	3.7111	2.8182	0.	0.33164
15815	3.7111	2.9091	5.e-002	29.488
15816	3.9878	2.9091	0.	0.19347
15817	3.8956	2.8182	0.	0.23317
15818	3.8956	2.9091	5.e-002	24.679
15819	4.1722	2.9091	0.	0.13352
15820	4.08	2.8182	0.	0.1628
15821	4.08	2.9091	5.e-002	20.87
15822	4.3567	2.9091	0.	9.1149e-002
15823	4.2644	2.8182	0.	0.1127
15824	4.2644	2.9091	5.e-002	17.851
15825	4.5411	2.9091	0.	6.1251e-002
15826	4.4489	2.8182	0.	7.7093e-002
15827	4.4489	2.9091	5.e-002	15.456
15828	4.7256	2.9091	0.	4.0206e-002
15829	4.6333	2.8182	0.	5.1841e-002
15830	4.6333	2.9091	5.e-002	13.552
15831	4.91	2.9091	0.	2.5444e-002
15832	4.8178	2.8182	0.	3.3983e-002
15833	4.8178	2.9091	5.e-002	12.035
15834	5.0944	2.9091	0.	1.5161e-002
15835	5.0022	2.8182	0.	2.1409e-002
15836	5.0022	2.9091	5.e-002	10.823
15837	5.2789	2.9091	0.	8.0813e-003
15838	5.1867	2.8182	0.	1.2639e-002
15839	5.1867	2.9091	5.e-002	9.8526
15840	5.4633	2.9091	0.	3.2833e-003
15841	5.3711	2.8182	0.	6.5956e-003
15842	5.3711	2.9091	5.e-002	9.0734
15843	5.6478	2.9091	0.	1.1891e-004
15844	5.5556	2.8182	0.	2.5026e-003
15845	5.5556	2.9091	5.e-002	8.4456
15846	5.8322	2.9091	0.	-1.8773e-003
15847	5.74	2.8182	0.	-1.7749e-004
15848	5.74	2.9091	5.e-002	7.938
15849	6.0167	2.9091	0.	-3.0513e-003
15850	5.9244	2.8182	0.	-1.8534e-003
15851	5.9244	2.9091	5.e-002	7.526
15852	6.2011	2.9091	0.	-3.6439e-003
15853	6.1089	2.8182	0.	-2.8232e-003
15854	6.1089	2.9091	5.e-002	7.1899
15855	6.3856	2.9091	0.	-3.8285e-003
15856	6.2933	2.8182	0.	-3.2824e-003
15857	6.2933	2.9091	5.e-002	6.9142
15858	6.57	2.9091	0.	-3.7405e-003
15859	6.4778	2.8182	0.	-3.3923e-003
15860	6.4778	2.9091	5.e-002	6.6867
15861	6.7544	2.9091	0.	-3.4687e-003
15862	6.6622	2.8182	0.	-3.2709e-003
15863	6.6622	2.9091	5.e-002	6.4977
15864	6.9389	2.9091	0.	-3.0758e-003
15865	6.8467	2.8182	0.	-2.9841e-003
15866	6.8467	2.9091	5.e-002	6.3395
15867	7.1233	2.9091	0.	-2.6159e-003
15868	7.0311	2.8182	0.	-2.5968e-003
15869	7.0311	2.9091	5.e-002	6.2058
15870	7.3078	2.9091	0.	-2.1193e-003
15871	7.2156	2.8182	0.	-2.1571e-003
15872	7.2156	2.9091	5.e-002	6.092
15873	7.4922	2.9091	0.	-1.6051e-003
15874	7.4	2.8182	0.	-1.6807e-003
15875	7.4	2.9091	5.e-002	5.994
15876	7.6767	2.9091	0.	-1.0966e-003
15877	7.5844	2.8182	0.	-1.1932e-003
15878	7.5844	2.9091	5.e-002	5.9088
15879	7.8611	2.9091	0.	-6.005e-004
15880	7.7689	2.8182	0.	-7.1702e-004
15881	7.7689	2.9091	5.e-002	5.8341
15882	8.0456	2.9091	0.	-1.1913e-004
15883	7.9533	2.8182	0.	-2.4573e-004
15884	7.9533	2.9091	5.e-002	5.7677
15885	8.23	2.9091	0.	3.3551e-004
15886	8.1378	2.8182	0.	2.0746e-004
15887	8.1378	2.9091	5.e-002	5.7083
15888	8.4144	2.9091	0.	7.6492e-004
15889	8.3222	2.8182	0.	6.3193e-004
15890	8.3222	2.9091	5.e-002	5.6545
15891	8.5989	2.9091	0.	1.1732e-003
15892	8.5067	2.8182	0.	1.04e-003
15893	8.5067	2.9091	5.e-002	5.6053
15894	8.7833	2.9091	0.	1.5535e-003
15895	8.6911	2.8182	0.	1.4255e-003
15896	8.6911	2.9091	5.e-002	5.56
15897	8.9678	2.9091	0.	1.9095e-003
15898	8.8756	2.8182	0.	1.7814e-003
15899	8.8756	2.9091	5.e-002	5.5179
15900	9.1522	2.9091	0.	2.2462e-003
15901	9.06	2.8182	0.	2.1215e-003
15902	9.06	2.9091	5.e-002	5.4784
15903	9.3367	2.9091	0.	2.5582e-003
15904	9.2444	2.8182	0.	2.4413e-003
15905	9.2444	2.9091	5.e-002	5.4413
15906	9.5211	2.9091	0.	2.8528e-003
15907	9.4289	2.8182	0.	2.7339e-003
15908	9.4289	2.9091	5.e-002	5.406
15909	9.7056	2.9091	0.	3.1237e-003
15910	9.6133	2.8182	0.	3.0205e-003
15911	9.6133	2.9091	5.e-002	5.3725
15912	9.89	2.9091	0.	3.37e-003
15913	9.7978	2.8182	0.	3.2682e-003
15914	9.7978	2.9091	5.e-002	5.3403
15915	10.074	2.9091	0.	3.6312e-003
15916	9.9822	2.8182	0.	3.5069e-003
15917	9.9822	2.9091	5.e-002	5.3093
15918	10.259	2.9091	0.	3.8817e-003
15919	10.167	2.8182	0.	3.7851e-003
15920	10.167	2.9091	5.e-002	5.2795
15921	10.443	2.9091	0.	4.0899e-003
15922	10.351	2.8182	0.	4.0042e-003
15923	10.351	2.9091	5.e-002	5.2507
15924	10.628	2.9091	0.	4.2934e-003
15925	10.536	2.8182	0.	4.1989e-003
15926	10.536	2.9091	5.e-002	5.2227
15927	10.812	2.9091	0.	4.4906e-003
15928	10.72	2.8182	0.	4.411e-003
15929	10.72	2.9091	5.e-002	5.1954
15930	10.997	2.9091	0.	4.6737e-003
15931	10.904	2.8182	0.	4.5945e-003
15932	10.904	2.9091	5.e-002	5.1688
15933	11.181	2.9091	0.	4.8714e-003
15934	11.089	2.8182	0.	4.7805e-003
15935	11.089	2.9091	5.e-002	5.1427
15936	11.366	2.9091	0.	5.0638e-003
15937	11.273	2.8182	0.	4.996e-003
15938	11.273	2.9091	5.e-002	5.1173
15939	11.55	2.9091	0.	5.2303e-003
15940	11.458	2.8182	0.	5.1768e-003
15941	11.458	2.9091	5.e-002	5.0923
15942	11.734	2.9091	0.	5.4003e-003
15943	11.642	2.8182	0.	5.3499e-003
15944	11.642	2.9091	5.e-002	5.0678
15945	11.919	2.9091	0.	5.5731e-003
15946	11.827	2.8182	0.	5.5544e-003
15947	11.827	2.9091	5.e-002	5.0437
15948	12.103	2.9091	0.	5.7623e-003
15949	12.011	2.8182	0.	5.7847e-003
15950	12.011	2.9091	5.e-002	5.02
15951	12.288	2.9091	0.	2.1566e-002
15952	12.196	2.8182	0.	6.3898e-003
15953	12.196	2.9091	5.e-002	4.9966
15954	12.472	2.9091	0.	1.2046
15955	12.38	2.8182	0.	0.67257
15956	12.38	2.9091	5.e-002	4.9736
15957	12.657	2.9091	0.	2.3173
15958	12.564	2.8182	0.	1.8165
15959	12.564	2.9091	5.e-002	4.9509
15960	12.841	2.9091	0.	3.3615
15961	12.749	2.8182	0.	2.8888
15962	12.749	2.9091	5.e-002	4.9284
15963	13.026	2.9091	0.	4.3438
15964	12.933	2.8182	0.	3.8964
15965	12.933	2.9091	5.e-002	4.9062
15966	13.21	2.9091	0.	5.2708
15967	13.118	2.8182	0.	4.8459
15968	13.118	2.9091	5.e-002	4.8843
15969	13.394	2.9091	0.	6.1485
15970	13.302	2.8182	0.	5.7432
15971	13.302	2.9091	5.e-002	4.8625
15972	13.579	2.9091	0.	6.9825
15973	13.487	2.8182	0.	6.5945
15974	13.487	2.9091	5.e-002	4.841
15975	13.763	2.9091	0.	7.7784
15976	13.671	2.8182	0.	7.4051
15977	13.671	2.9091	5.e-002	4.8198
15978	13.948	2.9091	0.	8.5413
15979	13.856	2.8182	0.	8.1803
15980	13.856	2.9091	5.e-002	4.7987
15981	14.132	2.9091	0.	9.2762
15982	14.04	2.8182	0.	8.9253
15983	14.04	2.9091	5.e-002	4.7777
15984	14.317	2.9091	0.	9.9878
15985	14.224	2.8182	0.	9.6447
15986	14.224	2.9091	5.e-002	4.757
15987	14.501	2.9091	0.	10.681
15988	14.409	2.8182	0.	10.343
15989	14.409	2.9091	5.e-002	4.7364
15990	14.686	2.9091	0.	11.36
15991	14.593	2.8182	0.	11.026
15992	14.593	2.9091	5.e-002	4.716
15993	14.87	2.9091	0.	12.029
15994	14.778	2.8182	0.	11.696
15995	14.778	2.9091	5.e-002	4.6958
15996	15.054	2.9091	0.	12.692
15997	14.962	2.8182	0.	12.359
15998	14.962	2.9091	5.e-002	4.6758
15999	15.239	2.9091	0.	13.355
16000	15.147	2.8182	0.	13.018
16001	15.147	2.9091	5.e-002	4.6559
16002	15.423	2.9091	0.	14.02
16003	15.331	2.8182	0.	13.679
16004	15.331	2.9091	5.e-002	4.6362
16005	15.608	2.9091	0.	14.693
16006	15.516	2.8182	0.	14.345
16007	15.516	2.9091	5.e-002	4.6166
16008	15.792	2.9091	0.	15.378
16009	15.7	2.8182	0.	15.02
16010	15.7	2.9091	5.e-002	4.5972
16011	15.977	2.9091	0.	16.079
16012	15.884	2.8182	0.	15.71
16013	15.884	2.9091	5.e-002	4.578
16014	16.161	2.9091	0.	16.801
16015	16.069	2.8182	0.	16.417
16016	16.069	2.9091	5.e-002	4.5589
16017	16.346	2.9091	0.	17.549
16018	16.253	2.8182	0.	17.148
16019	16.253	2.9091	5.e-002	4.54
16020	16.53	2.9091	0.	18.326
16021	16.438	2.8182	0.	17.907
16022	16.438	2.9091	5.e-002	4.5214
16023	16.714	2.9091	0.	19.139
16024	16.622	2.8182	0.	18.698
16025	16.622	2.9091	5.e-002	4.5029
16026	16.899	2.9091	0.	19.993
16027	16.807	2.8182	0.	19.526
16028	16.807	2.9091	5.e-002	4.4846
16029	17.083	2.9091	0.	20.893
16030	16.991	2.8182	0.	20.398
16031	16.991	2.9091	5.e-002	4.4665
16032	17.268	2.9091	0.	21.844
16033	17.176	2.8182	0.	21.319
16034	17.176	2.9091	5.e-002	4.4487
16035	17.452	2.9091	0.	22.854
16036	17.36	2.8182	0.	22.294
16037	17.36	2.9091	5.e-002	4.4311
16038	17.637	2.9091	0.	23.928
16039	17.544	2.8182	0.	23.33
16040	17.544	2.9091	5.e-002	4.4137
16041	17.821	2.9091	0.	25.073
16042	17.729	2.8182	0.	24.433
16043	17.729	2.9091	5.e-002	4.3966
16044	18.006	2.9091	0.	26.298
16045	17.913	2.8182	0.	25.611
16046	17.913	2.9091	5.e-002	4.3799
16047	18.19	2.9091	0.	27.609
16048	18.098	2.8182	0.	26.872
16049	18.098	2.9091	5.e-002	4.3634
16050	18.374	2.9091	0.	29.015
16051	18.282	2.8182	0.	28.222
16052	18.282	2.9091	5.e-002	4.3473
16053	18.559	2.9091	0.	30.526
16054	18.467	2.8182	0.	29.672
16055	18.467	2.9091	5.e-002	4.3316
16056	18.743	2.9091	0.	32.15
16057	18.651	2.8182	0.	31.23
16058	18.651	2.9091	5.e-002	4.3163
16059	18.928	2.9091	0.	33.898
16060	18.836	2.8182	0.	32.906
16061	18.836	2.9091	5.e-002	4.3015
16062	19.112	2.9091	0.	35.781
16063	19.02	2.8182	0.	34.711
16064	19.02	2.9091	5.e-002	4.2871
16065	19.297	2.9091	0.	37.811
16066	19.204	2.8182	0.	36.656
16067	19.204	2.9091	5.e-002	4.2733
16068	19.481	2.9091	0.	40.001
16069	19.389	2.8182	0.	38.753
16070	19.389	2.9091	5.e-002	4.2601
16071	19.666	2.9091	0.	42.363
16072	19.573	2.8182	0.	41.015
16073	19.573	2.9091	5.e-002	4.2476
16074	19.85	2.9091	0.	44.914
16075	19.758	2.8182	0.	43.457
16076	19.758	2.9091	5.e-002	4.2358
16077	20.034	2.9091	0.	47.666
16078	19.942	2.8182	0.	46.092
16079	19.942	2.9091	5.e-002	4.2248
16080	20.219	2.9091	0.	50.639
16081	20.127	2.8182	0.	48.937
16082	20.127	2.9091	5.e-002	4.2147
16083	20.403	2.9091	0.	53.847
16084	20.311	2.8182	0.	52.009
16085	20.311	2.9091	5.e-002	4.2057
16086	20.588	2.9091	0.	57.31
16087	20.496	2.8182	0.	55.325
16088	20.496	2.9091	5.e-002	4.1979
16089	20.772	2.9091	0.	61.046
16090	20.68	2.8182	0.	58.903
16091	20.68	2.9091	5.e-002	4.1913
16092	20.957	2.9091	0.	65.075
16093	20.864	2.8182	0.	62.763
16094	20.864	2.9091	5.e-002	4.1862
16095	21.141	2.9091	0.	69.417
16096	21.049	2.8182	0.	66.926
16097	21.049	2.9091	5.e-002	4.1827
16098	21.326	2.9091	0.	74.094
16099	21.233	2.8182	0.	71.411
16100	21.233	2.9091	5.e-002	4.1812
16101	21.51	2.9091	0.	79.125
16102	21.418	2.8182	0.	76.24
16103	21.418	2.9091	5.e-002	4.1817
16104	21.694	2.9091	0.	84.532
16105	21.602	2.8182	0.	81.433
16106	21.602	2.9091	5.e-002	4.1846
16107	21.879	2.9091	0.	90.334
16108	21.787	2.8182	0.	87.011
16109	21.787	2.9091	5.e-002	4.1901
16110	22.063	2.9091	0.	96.549
16111	21.971	2.8182	0.	92.994
16112	21.971	2.9091	5.e-002	4.1985
16113	22.248	2.9091	0.	103.2
16114	22.156	2.8182	0.	99.4
16115	22.156	2.9091	5.e-002	4.2102
16116	22.432	2.9091	0.	110.29
16117	22.34	2.8182	0.	106.25
16118	22.34	2.9091	5.e-002	4.2255
16119	22.617	2.9091	0.	117.84
16120	22.524	2.8182	0.	113.55
16121	22.524	2.9091	5.e-002	4.2447
16122	22.801	2.9091	0.	125.85
16123	22.709	2.8182	0.	121.31
16124	22.709	2.9091	5.e-002	4.268
16125	22.986	2.9091	0.	134.34
16126	22.893	2.8182	0.	129.54
16127	22.893	2.9091	5.e-002	4.2957
16128	23.17	2.9091	0.	143.3
16129	23.078	2.8182	0.	138.25
16130	23.078	2.9091	5.e-002	4.3278
16131	23.354	2.9091	0.	152.72
16132	23.262	2.8182	0.	147.44
16133	23.262	2.9091	5.e-002	4.3643
16134	23.539	2.9091	0.	162.62
16135	23.447	2.8182	0.	157.08
16136	23.447	2.9091	5.e-002	4.405
16137	23.723	2.9091	0.	172.9
16138	23.631	2.8182	0.	167.23
16139	23.631	2.9091	5.e-002	4.4497
16140	23.816	2.8182	0.	177.63
16141	23.816	2.9091	5.e-002	4.5028
16142	23.908	2.9091	0.	183.08
16143	2.1433	2.7273	0.	19.902
16144	2.0511	2.6364	0.	189.41
16145	2.0511	2.7273	5.e-002	94.448
16146	2.3278	2.7273	0.	1.5642
16147	2.2356	2.6364	0.	5.6261
16148	2.2356	2.7273	5.e-002	110.8
16149	2.5122	2.7273	0.	1.8503
16150	2.42	2.6364	0.	1.8891
16151	2.42	2.7273	5.e-002	105.76
16152	2.6967	2.7273	0.	1.6905
16153	2.6044	2.6364	0.	2.0385
16154	2.6044	2.7273	5.e-002	91.758
16155	2.8811	2.7273	0.	1.3813
16156	2.7889	2.6364	0.	1.6578
16157	2.7889	2.7273	5.e-002	76.562
16158	3.0656	2.7273	0.	1.0699
16159	2.9733	2.6364	0.	1.2395
16160	2.9733	2.7273	5.e-002	62.927
16161	3.25	2.7273	0.	0.79044
16162	3.1578	2.6364	0.	0.93229
16163	3.1578	2.7273	5.e-002	51.521
16164	3.4344	2.7273	0.	0.57439
16165	3.3422	2.6364	0.	0.68248
16166	3.3422	2.7273	5.e-002	42.266
16167	3.6189	2.7273	0.	0.41251
16168	3.5267	2.6364	0.	0.49665
16169	3.5267	2.7273	5.e-002	34.858
16170	3.8033	2.7273	0.	0.29391
16171	3.7111	2.6364	0.	0.35859
16172	3.7111	2.7273	5.e-002	28.966
16173	3.9878	2.7273	0.	0.20806
16174	3.8956	2.6364	0.	0.2575
16175	3.8956	2.7273	5.e-002	24.289
16176	4.1722	2.7273	0.	0.14628
16177	4.08	2.6364	0.	0.18388
16178	4.08	2.7273	5.e-002	20.578
16179	4.3567	2.7273	0.	0.10196
16180	4.2644	2.6364	0.	0.13046
16181	4.2644	2.7273	5.e-002	17.631
16182	4.5411	2.7273	0.	7.0229e-002
16183	4.4489	2.6364	0.	9.1797e-002
16184	4.4489	2.7273	5.e-002	15.288
16185	4.7256	2.7273	0.	4.7577e-002
16186	4.6333	2.6364	0.	6.3884e-002
16187	4.6333	2.7273	5.e-002	13.421
16188	4.91	2.7273	0.	3.1457e-002
16189	4.8178	2.6364	0.	4.3786e-002
16190	4.8178	2.7273	5.e-002	11.932
16191	5.0944	2.7273	0.	2.0051e-002
16192	5.0022	2.6364	0.	2.9365e-002
16193	5.0022	2.7273	5.e-002	10.74
16194	5.2789	2.7273	0.	1.2055e-002
16195	5.1867	2.6364	0.	1.9093e-002
16196	5.1867	2.7273	5.e-002	9.7859
16197	5.4633	2.7273	0.	6.5143e-003
16198	5.3711	2.6364	0.	1.1835e-002
16199	5.3711	2.7273	5.e-002	9.0189
16200	5.6478	2.7273	0.	2.7507e-003
16201	5.5556	2.6364	0.	6.7639e-003
16202	5.5556	2.7273	5.e-002	8.401
16203	5.8322	2.7273	0.	2.7171e-004
16204	5.74	2.6364	0.	3.2966e-003
16205	5.74	2.7273	5.e-002	7.9014
16206	6.0167	2.7273	0.	-1.2918e-003
16207	5.9244	2.6364	0.	9.8748e-004
16208	5.9244	2.7273	5.e-002	7.496
16209	6.2011	2.7273	0.	-2.1993e-003
16210	6.1089	2.6364	0.	-4.935e-004
16211	6.1089	2.7273	5.e-002	7.1652
16212	6.3856	2.7273	0.	-2.6389e-003
16213	6.2933	2.6364	0.	-1.3659e-003
16214	6.2933	2.7273	5.e-002	6.894
16215	6.57	2.7273	0.	-2.7584e-003
16216	6.4778	2.6364	0.	-1.8111e-003
16217	6.4778	2.7273	5.e-002	6.6702
16218	6.7544	2.7273	0.	-2.6556e-003
16219	6.6622	2.6364	0.	-1.9631e-003
16220	6.6622	2.7273	5.e-002	6.4843
16221	6.9389	2.7273	0.	-2.4007e-003
16222	6.8467	2.6364	0.	-1.8991e-003
16223	6.8467	2.7273	5.e-002	6.3286
16224	7.1233	2.7273	0.	-2.0545e-003
16225	7.0311	2.6364	0.	-1.6949e-003
16226	7.0311	2.7273	5.e-002	6.197
16227	7.3078	2.7273	0.	-1.6515e-003
16228	7.2156	2.6364	0.	-1.4058e-003
16229	7.2156	2.7273	5.e-002	6.0848
16230	7.4922	2.7273	0.	-1.2149e-003
16231	7.4	2.6364	0.	-1.0537e-003
16232	7.4	2.7273	5.e-002	5.9882
16233	7.6767	2.7273	0.	-7.7038e-004
16234	7.5844	2.6364	0.	-6.6981e-004
16235	7.5844	2.7273	5.e-002	5.9042
16236	7.8611	2.7273	0.	-3.2758e-004
16237	7.7689	2.6364	0.	-2.7884e-004
16238	7.7689	2.7273	5.e-002	5.8303
16239	8.0456	2.7273	0.	1.0857e-004
16240	7.9533	2.6364	0.	1.2053e-004
16241	7.9533	2.7273	5.e-002	5.7646
16242	8.23	2.7273	0.	5.259e-004
16243	8.1378	2.6364	0.	5.1337e-004
16244	8.1378	2.7273	5.e-002	5.7058
16245	8.4144	2.7273	0.	9.244e-004
16246	8.3222	2.6364	0.	8.8815e-004
16247	8.3222	2.7273	5.e-002	5.6524
16248	8.5989	2.7273	0.	1.3059e-003
16249	8.5067	2.6364	0.	1.2539e-003
16250	8.5067	2.7273	5.e-002	5.6036
16251	8.7833	2.7273	0.	1.6637e-003
16252	8.6911	2.6364	0.	1.6033e-003
16253	8.6911	2.7273	5.e-002	5.5586
16254	8.9678	2.7273	0.	2.001e-003
16255	8.8756	2.6364	0.	1.9291e-003
16256	8.8756	2.7273	5.e-002	5.5167
16257	9.1522	2.7273	0.	2.322e-003
16258	9.06	2.6364	0.	2.2438e-003
16259	9.06	2.7273	5.e-002	5.4775
16260	9.3367	2.7273	0.	2.6207e-003
16261	9.2444	2.6364	0.	2.5422e-003
16262	9.2444	2.7273	5.e-002	5.4405
16263	9.5211	2.7273	0.	2.9039e-003
16264	9.4289	2.6364	0.	2.817e-003
16265	9.4289	2.7273	5.e-002	5.4053
16266	9.7056	2.7273	0.	3.1662e-003
16267	9.6133	2.6364	0.	3.0888e-003
16268	9.6133	2.7273	5.e-002	5.3719
16269	9.89	2.7273	0.	3.4054e-003
16270	9.7978	2.6364	0.	3.3249e-003
16271	9.7978	2.7273	5.e-002	5.3398
16272	10.074	2.7273	0.	3.6605e-003
16273	9.9822	2.6364	0.	3.554e-003
16274	9.9822	2.7273	5.e-002	5.3089
16275	10.259	2.7273	0.	3.907e-003
16276	10.167	2.6364	0.	3.825e-003
16277	10.167	2.7273	5.e-002	5.2791
16278	10.443	2.7273	0.	4.1127e-003
16279	10.351	2.6364	0.	4.0399e-003
16280	10.351	2.7273	5.e-002	5.2503
16281	10.628	2.7273	0.	4.3164e-003
16282	10.536	2.6364	0.	4.2328e-003
16283	10.536	2.7273	5.e-002	5.2224
16284	10.812	2.7273	0.	4.5158e-003
16285	10.72	2.6364	0.	4.4466e-003
16286	10.72	2.7273	5.e-002	5.1951
16287	10.997	2.7273	0.	4.7037e-003
16288	10.904	2.6364	0.	4.6353e-003
16289	10.904	2.7273	5.e-002	5.1685
16290	11.181	2.7273	0.	4.9099e-003
16291	11.089	2.6364	0.	4.8321e-003
16292	11.089	2.7273	5.e-002	5.1425
16293	11.366	2.7273	0.	5.1175e-003
16294	11.273	2.6364	0.	5.0663e-003
16295	11.273	2.7273	5.e-002	5.1171
16296	11.55	2.7273	0.	5.3108e-003
16297	11.458	2.6364	0.	5.278e-003
16298	11.458	2.7273	5.e-002	5.0921
16299	11.734	2.7273	0.	5.5277e-003
16300	11.642	2.6364	0.	5.5067e-003
16301	11.642	2.7273	5.e-002	5.0677
16302	11.919	2.7273	0.	5.8024e-003
16303	11.827	2.6364	0.	5.8211e-003
16304	11.827	2.7273	5.e-002	5.0436
16305	12.103	2.7273	0.	6.3325e-003
16306	12.011	2.6364	0.	6.3457e-003
16307	12.011	2.7273	5.e-002	5.0199
16308	12.288	2.7273	0.	0.13357
16309	12.196	2.6364	0.	9.3144e-003
16310	12.196	2.7273	5.e-002	4.9965
16311	12.472	2.7273	0.	1.3076
16312	12.38	2.6364	0.	0.83349
16313	12.38	2.7273	5.e-002	4.9735
16314	12.657	2.7273	0.	2.4117
16315	12.564	2.6364	0.	1.9637
16316	12.564	2.7273	5.e-002	4.9508
16317	12.841	2.7273	0.	3.4479
16318	12.749	2.6364	0.	3.0239
16319	12.749	2.7273	5.e-002	4.9283
16320	13.026	2.7273	0.	4.423
16321	12.933	2.6364	0.	4.0203
16322	12.933	2.7273	5.e-002	4.9061
16323	13.21	2.7273	0.	5.3433
16324	13.118	2.6364	0.	4.9593
16325	13.118	2.7273	5.e-002	4.8842
16326	13.394	2.7273	0.	6.2147
16327	13.302	2.6364	0.	5.8469
16328	13.302	2.7273	5.e-002	4.8625
16329	13.579	2.7273	0.	7.0429
16330	13.487	2.6364	0.	6.6892
16331	13.487	2.7273	5.e-002	4.8409
16332	13.763	2.7273	0.	7.8332
16333	13.671	2.6364	0.	7.4912
16334	13.671	2.7273	5.e-002	4.8197
16335	13.948	2.7273	0.	8.5909
16336	13.856	2.6364	0.	8.2584
16337	13.856	2.7273	5.e-002	4.7986
16338	14.132	2.7273	0.	9.3207
16339	14.04	2.6364	0.	8.9957
16340	14.04	2.7273	5.e-002	4.7777
16341	14.317	2.7273	0.	10.028
16342	14.224	2.6364	0.	9.7078
16343	14.224	2.7273	5.e-002	4.757
16344	14.501	2.7273	0.	10.716
16345	14.409	2.6364	0.	10.399
16346	14.409	2.7273	5.e-002	4.7364
16347	14.686	2.7273	0.	11.39
16348	14.593	2.6364	0.	11.075
16349	14.593	2.7273	5.e-002	4.716
16350	14.87	2.7273	0.	12.055
16351	14.778	2.6364	0.	11.739
16352	14.778	2.7273	5.e-002	4.6958
16353	15.054	2.7273	0.	12.714
16354	14.962	2.6364	0.	12.395
16355	14.962	2.7273	5.e-002	4.6757
16356	15.239	2.7273	0.	13.372
16357	15.147	2.6364	0.	13.048
16358	15.147	2.7273	5.e-002	4.6558
16359	15.423	2.7273	0.	14.033
16360	15.331	2.6364	0.	13.702
16361	15.331	2.7273	5.e-002	4.6361
16362	15.608	2.7273	0.	14.702
16363	15.516	2.6364	0.	14.361
16364	15.516	2.7273	5.e-002	4.6165
16365	15.792	2.7273	0.	15.382
16366	15.7	2.6364	0.	15.03
16367	15.7	2.7273	5.e-002	4.5971
16368	15.977	2.7273	0.	16.079
16369	15.884	2.6364	0.	15.712
16370	15.884	2.7273	5.e-002	4.5779
16371	16.161	2.7273	0.	16.796
16372	16.069	2.6364	0.	16.413
16373	16.069	2.7273	5.e-002	4.5589
16374	16.346	2.7273	0.	17.538
16375	16.253	2.6364	0.	17.136
16376	16.253	2.7273	5.e-002	4.54
16377	16.53	2.7273	0.	18.31
16378	16.438	2.6364	0.	17.886
16379	16.438	2.7273	5.e-002	4.5213
16380	16.714	2.7273	0.	19.117
16381	16.622	2.6364	0.	18.669
16382	16.622	2.7273	5.e-002	4.5028
16383	16.899	2.7273	0.	19.964
16384	16.807	2.6364	0.	19.489
16385	16.807	2.7273	5.e-002	4.4845
16386	17.083	2.7273	0.	20.857
16387	16.991	2.6364	0.	20.351
16388	16.991	2.7273	5.e-002	4.4665
16389	17.268	2.7273	0.	21.802
16390	17.176	2.6364	0.	21.261
16391	17.176	2.7273	5.e-002	4.4486
16392	17.452	2.7273	0.	22.803
16393	17.36	2.6364	0.	22.225
16394	17.36	2.7273	5.e-002	4.431
16395	17.637	2.7273	0.	23.869
16396	17.544	2.6364	0.	23.249
16397	17.544	2.7273	5.e-002	4.4136
16398	17.821	2.7273	0.	25.005
16399	17.729	2.6364	0.	24.339
16400	17.729	2.7273	5.e-002	4.3965
16401	18.006	2.7273	0.	26.22
16402	17.913	2.6364	0.	25.503
16403	17.913	2.7273	5.e-002	4.3798
16404	18.19	2.7273	0.	27.52
16405	18.098	2.6364	0.	26.748
16406	18.098	2.7273	5.e-002	4.3633
16407	18.374	2.7273	0.	28.915
16408	18.282	2.6364	0.	28.082
16409	18.282	2.7273	5.e-002	4.3472
16410	18.559	2.7273	0.	30.412
16411	18.467	2.6364	0.	29.513
16412	18.467	2.7273	5.e-002	4.3315
16413	18.743	2.7273	0.	32.022
16414	18.651	2.6364	0.	31.051
16415	18.651	2.7273	5.e-002	4.3162
16416	18.928	2.7273	0.	33.755
16417	18.836	2.6364	0.	32.705
16418	18.836	2.7273	5.e-002	4.3013
16419	19.112	2.7273	0.	35.621
16420	19.02	2.6364	0.	34.485
16421	19.02	2.7273	5.e-002	4.287
16422	19.297	2.7273	0.	37.633
16423	19.204	2.6364	0.	36.404
16424	19.204	2.7273	5.e-002	4.2731
16425	19.481	2.7273	0.	39.803
16426	19.389	2.6364	0.	38.473
16427	19.389	2.7273	5.e-002	4.2599
16428	19.666	2.7273	0.	42.144
16429	19.573	2.6364	0.	40.704
16430	19.573	2.7273	5.e-002	4.2474
16431	19.85	2.7273	0.	44.67
16432	19.758	2.6364	0.	43.112
16433	19.758	2.7273	5.e-002	4.2356
16434	20.034	2.7273	0.	47.398
16435	19.942	2.6364	0.	45.71
16436	19.942	2.7273	5.e-002	4.2245
16437	20.219	2.7273	0.	50.342
16438	20.127	2.6364	0.	48.516
16439	20.127	2.7273	5.e-002	4.2145
16440	20.403	2.7273	0.	53.52
16441	20.311	2.6364	0.	51.544
16442	20.311	2.7273	5.e-002	4.2054
16443	20.588	2.7273	0.	56.951
16444	20.496	2.6364	0.	54.814
16445	20.496	2.7273	5.e-002	4.1975
16446	20.772	2.7273	0.	60.653
16447	20.68	2.6364	0.	58.342
16448	20.68	2.7273	5.e-002	4.1909
16449	20.957	2.7273	0.	64.645
16450	20.864	2.6364	0.	62.15
16451	20.864	2.7273	5.e-002	4.1857
16452	21.141	2.7273	0.	68.949
16453	21.049	2.6364	0.	66.256
16454	21.049	2.7273	5.e-002	4.1821
16455	21.326	2.7273	0.	73.585
16456	21.233	2.6364	0.	70.681
16457	21.233	2.7273	5.e-002	4.1805
16458	21.51	2.7273	0.	78.575
16459	21.418	2.6364	0.	75.448
16460	21.418	2.7273	5.e-002	4.1809
16461	21.694	2.7273	0.	83.938
16462	21.602	2.6364	0.	80.577
16463	21.602	2.7273	5.e-002	4.1836
16464	21.879	2.7273	0.	89.696
16465	21.787	2.6364	0.	86.089
16466	21.787	2.7273	5.e-002	4.189
16467	22.063	2.7273	0.	95.868
16468	21.971	2.6364	0.	92.006
16469	21.971	2.7273	5.e-002	4.1973
16470	22.248	2.7273	0.	102.47
16471	22.156	2.6364	0.	98.346
16472	22.156	2.7273	5.e-002	4.2089
16473	22.432	2.7273	0.	109.52
16474	22.34	2.6364	0.	105.13
16475	22.34	2.7273	5.e-002	4.2241
16476	22.617	2.7273	0.	117.03
16477	22.524	2.6364	0.	112.37
16478	22.524	2.7273	5.e-002	4.2431
16479	22.801	2.7273	0.	125.01
16480	22.709	2.6364	0.	120.07
16481	22.709	2.7273	5.e-002	4.2664
16482	22.986	2.7273	0.	133.47
16483	22.893	2.6364	0.	128.26
16484	22.893	2.7273	5.e-002	4.2941
16485	23.17	2.7273	0.	142.4
16486	23.078	2.6364	0.	136.93
16487	23.078	2.7273	5.e-002	4.3262
16488	23.354	2.7273	0.	151.81
16489	23.262	2.6364	0.	146.08
16490	23.262	2.7273	5.e-002	4.363
16491	23.539	2.7273	0.	161.69
16492	23.447	2.6364	0.	155.69
16493	23.447	2.7273	5.e-002	4.404
16494	23.723	2.7273	0.	171.97
16495	23.631	2.6364	0.	165.83
16496	23.631	2.7273	5.e-002	4.4492
16497	23.816	2.6364	0.	176.23
16498	23.816	2.7273	5.e-002	4.5045
16499	23.908	2.7273	0.	182.13
16500	2.1433	2.5455	0.	105.57
16501	2.0511	2.4545	0.	378.89
16502	2.0511	2.5455	5.e-002	140.4
16503	2.3278	2.5455	0.	3.6978
16504	2.2356	2.4545	0.	12.709
16505	2.2356	2.5455	5.e-002	145.11
16506	2.5122	2.5455	0.	1.9895
16507	2.42	2.4545	0.	5.6669
16508	2.42	2.5455	5.e-002	119.14
16509	2.6967	2.5455	0.	2.0216
16510	2.6044	2.4545	0.	2.2569
16511	2.6044	2.5455	5.e-002	95.209
16512	2.8811	2.5455	0.	1.5455
16513	2.7889	2.4545	0.	1.9718
16514	2.7889	2.5455	5.e-002	75.816
16515	3.0656	2.5455	0.	1.1282
16516	2.9733	2.4545	0.	1.4026
16517	2.9733	2.5455	5.e-002	60.964
16518	3.25	2.5455	0.	0.84472
16519	3.1578	2.4545	0.	1.0334
16520	3.1578	2.5455	5.e-002	49.524
16521	3.4344	2.5455	0.	0.62003
16522	3.3422	2.4545	0.	0.76442
16523	3.3422	2.5455	5.e-002	40.588
16524	3.6189	2.5455	0.	0.4541
16525	3.5267	2.4545	0.	0.56223
16526	3.5267	2.5455	5.e-002	33.545
16527	3.8033	2.5455	0.	0.33062
16528	3.7111	2.4545	0.	0.41344
16529	3.7111	2.5455	5.e-002	27.967
16530	3.9878	2.5455	0.	0.23961
16531	3.8956	2.4545	0.	0.30277
16532	3.8956	2.5455	5.e-002	23.536
16533	4.1722	2.5455	0.	0.17277
16534	4.08	2.4545	0.	0.22106
16535	4.08	2.5455	5.e-002	20.009
16536	4.3567	2.5455	0.	0.12385
16537	4.2644	2.4545	0.	0.16073
16538	4.2644	2.5455	5.e-002	17.197
16539	4.5411	2.5455	0.	8.8132e-002
16540	4.4489	2.4545	0.	0.1163
16541	4.4489	2.5455	5.e-002	14.952
16542	4.7256	2.5455	0.	6.2126e-002
16543	4.6333	2.4545	0.	8.3657e-002
16544	4.6333	2.5455	5.e-002	13.158
16545	4.91	2.5455	0.	4.3244e-002
16546	4.8178	2.4545	0.	5.9721e-002
16547	4.8178	2.5455	5.e-002	11.723
16548	5.0944	2.5455	0.	2.9593e-002
16549	5.0022	2.4545	0.	4.2212e-002
16550	5.0022	2.5455	5.e-002	10.573
16551	5.2789	2.5455	0.	1.9784e-002
16552	5.1867	2.4545	0.	2.9466e-002
16553	5.1867	2.5455	5.e-002	9.65
16554	5.4633	2.5455	0.	1.2787e-002
16555	5.3711	2.4545	0.	2.023e-002
16556	5.3711	2.5455	5.e-002	8.9082
16557	5.6478	2.5455	0.	7.8547e-003
16558	5.5556	2.4545	0.	1.3579e-002
16559	5.5556	2.5455	5.e-002	8.3104
16560	5.8322	2.5455	0.	4.4365e-003
16561	5.74	2.4545	0.	8.8478e-003
16562	5.74	2.5455	5.e-002	7.8271
16563	6.0167	2.5455	0.	2.1175e-003
16564	5.9244	2.4545	0.	5.5245e-003
16565	5.9244	2.5455	5.e-002	7.435
16566	6.2011	2.5455	0.	6.0043e-004
16567	6.1089	2.4545	0.	3.2277e-003
16568	6.1089	2.5455	5.e-002	7.1154
16569	6.3856	2.5455	0.	-3.3254e-004
16570	6.2933	2.4545	0.	1.6965e-003
16571	6.2933	2.5455	5.e-002	6.8533
16572	6.57	2.5455	0.	-8.5288e-004
16573	6.4778	2.4545	0.	7.1737e-004
16574	6.4778	2.5455	5.e-002	6.6371
16575	6.7544	2.5455	0.	-1.077e-003
16576	6.6622	2.4545	0.	1.3074e-004
16577	6.6622	2.5455	5.e-002	6.4574
16578	6.9389	2.5455	0.	-1.0898e-003
16579	6.8467	2.4545	0.	-1.6081e-004
16580	6.8467	2.5455	5.e-002	6.3067
16581	7.1233	2.5455	0.	-9.6337e-004
16582	7.0311	2.4545	0.	-2.4834e-004
16583	7.0311	2.5455	5.e-002	6.1793
16584	7.3078	2.5455	0.	-7.4153e-004
16585	7.2156	2.4545	0.	-1.9979e-004
16586	7.2156	2.5455	5.e-002	6.0705
16587	7.4922	2.5455	0.	-4.5518e-004
16588	7.4	2.4545	0.	-4.5835e-005
16589	7.4	2.5455	5.e-002	5.9766
16590	7.6767	2.5455	0.	-1.3531e-004
16591	7.5844	2.4545	0.	1.727e-004
16592	7.5844	2.5455	5.e-002	5.8948
16593	7.8611	2.5455	0.	2.0373e-004
16594	7.7689	2.4545	0.	4.2643e-004
16595	7.7689	2.5455	5.e-002	5.8227
16596	8.0456	2.5455	0.	5.5288e-004
16597	7.9533	2.4545	0.	7.1068e-004
16598	7.9533	2.5455	5.e-002	5.7585
16599	8.23	2.5455	0.	8.975e-004
16600	8.1378	2.4545	0.	1.0074e-003
16601	8.1378	2.5455	5.e-002	5.7008
16602	8.4144	2.5455	0.	1.2349e-003
16603	8.3222	2.4545	0.	1.3007e-003
16604	8.3222	2.5455	5.e-002	5.6484
16605	8.5989	2.5455	0.	1.5647e-003
16606	8.5067	2.4545	0.	1.5984e-003
16607	8.5067	2.5455	5.e-002	5.6002
16608	8.7833	2.5455	0.	1.8789e-003
16609	8.6911	2.4545	0.	1.8903e-003
16610	8.6911	2.5455	5.e-002	5.5558
16611	8.9678	2.5455	0.	2.1793e-003
16612	8.8756	2.4545	0.	2.1673e-003
16613	8.8756	2.5455	5.e-002	5.5144
16614	9.1522	2.5455	0.	2.4692e-003
16615	9.06	2.4545	0.	2.4408e-003
16616	9.06	2.5455	5.e-002	5.4755
16617	9.3367	2.5455	0.	2.7419e-003
16618	9.2444	2.4545	0.	2.7047e-003
16619	9.2444	2.5455	5.e-002	5.4388
16620	9.5211	2.5455	0.	3.0038e-003
16621	9.4289	2.4545	0.	2.9504e-003
16622	9.4289	2.5455	5.e-002	5.404
16623	9.7056	2.5455	0.	3.2483e-003
16624	9.6133	2.4545	0.	3.199e-003
16625	9.6133	2.5455	5.e-002	5.3707
16626	9.89	2.5455	0.	3.4733e-003
16627	9.7978	2.4545	0.	3.4148e-003
16628	9.7978	2.5455	5.e-002	5.3387
16629	10.074	2.5455	0.	3.7177e-003
16630	9.9822	2.4545	0.	3.6292e-003
16631	9.9822	2.5455	5.e-002	5.308
16632	10.259	2.5455	0.	3.9569e-003
16633	10.167	2.4545	0.	3.8895e-003
16634	10.167	2.5455	5.e-002	5.2783
16635	10.443	2.5455	0.	4.1589e-003
16636	10.351	2.4545	0.	4.0976e-003
16637	10.351	2.5455	5.e-002	5.2496
16638	10.628	2.5455	0.	4.3622e-003
16639	10.536	2.4545	0.	4.2889e-003
16640	10.536	2.5455	5.e-002	5.2217
16641	10.812	2.5455	0.	4.5662e-003
16642	10.72	2.4545	0.	4.506e-003
16643	10.72	2.5455	5.e-002	5.1945
16644	10.997	2.5455	0.	4.7651e-003
16645	10.904	2.4545	0.	4.7052e-003
16646	10.904	2.5455	5.e-002	5.168
16647	11.181	2.5455	0.	4.9919e-003
16648	11.089	2.4545	0.	4.9229e-003
16649	11.089	2.5455	5.e-002	5.142
16650	11.366	2.5455	0.	5.2332e-003
16651	11.273	2.4545	0.	5.1928e-003
16652	11.273	2.5455	5.e-002	5.1166
16653	11.55	2.5455	0.	5.484e-003
16654	11.458	2.4545	0.	5.4644e-003
16655	11.458	2.5455	5.e-002	5.0917
16656	11.734	2.5455	0.	5.8119e-003
16657	11.642	2.4545	0.	5.805e-003
16658	11.642	2.5455	5.e-002	5.0673
16659	11.919	2.5455	0.	6.3439e-003
16660	11.827	2.4545	0.	6.3574e-003
16661	11.827	2.5455	5.e-002	5.0432
16662	12.103	2.5455	0.	7.9356e-003
16663	12.011	2.4545	0.	7.6295e-003
16664	12.011	2.5455	5.e-002	5.0196
16665	12.288	2.5455	0.	0.35569
16666	12.196	2.4545	0.	3.1346e-002
16667	12.196	2.5455	5.e-002	4.9962
16668	12.472	2.5455	0.	1.5125
16669	12.38	2.4545	0.	1.0997
16670	12.38	2.5455	5.e-002	4.9732
16671	12.657	2.5455	0.	2.5996
16672	12.564	2.4545	0.	2.208
16673	12.564	2.5455	5.e-002	4.9505
16674	12.841	2.5455	0.	3.6204
16675	12.749	2.4545	0.	3.248
16676	12.749	2.5455	5.e-002	4.9281
16677	13.026	2.5455	0.	4.5811
16678	12.933	2.4545	0.	4.2259
16679	12.933	2.5455	5.e-002	4.9059
16680	13.21	2.5455	0.	5.4879
16681	13.118	2.4545	0.	5.1476
16682	13.118	2.5455	5.e-002	4.884
16683	13.394	2.5455	0.	6.3468
16684	13.302	2.4545	0.	6.0193
16685	13.302	2.5455	5.e-002	4.8622
16686	13.579	2.5455	0.	7.1633
16687	13.487	2.4545	0.	6.8465
16688	13.487	2.5455	5.e-002	4.8408
16689	13.763	2.5455	0.	7.9426
16690	13.671	2.4545	0.	7.6344
16691	13.671	2.5455	5.e-002	4.8195
16692	13.948	2.5455	0.	8.6898
16693	13.856	2.4545	0.	8.3883
16694	13.856	2.5455	5.e-002	4.7984
16695	14.132	2.5455	0.	9.4097
16696	14.04	2.4545	0.	9.1129
16697	14.04	2.5455	5.e-002	4.7775
16698	14.317	2.5455	0.	10.107
16699	14.224	2.4545	0.	9.8129
16700	14.224	2.5455	5.e-002	4.7568
16701	14.501	2.5455	0.	10.786
16702	14.409	2.4545	0.	10.493
16703	14.409	2.5455	5.e-002	4.7362
16704	14.686	2.5455	0.	11.451
16705	14.593	2.4545	0.	11.157
16706	14.593	2.5455	5.e-002	4.7158
16707	14.87	2.5455	0.	12.107
16708	14.778	2.4545	0.	11.81
16709	14.778	2.5455	5.e-002	4.6957
16710	15.054	2.5455	0.	12.758
16711	14.962	2.4545	0.	12.455
16712	14.962	2.5455	5.e-002	4.6757
16713	15.239	2.5455	0.	13.407
16714	15.147	2.4545	0.	13.097
16715	15.147	2.5455	5.e-002	4.6557
16716	15.423	2.5455	0.	14.059
16717	15.331	2.4545	0.	13.741
16718	15.331	2.5455	5.e-002	4.636
16719	15.608	2.5455	0.	14.719
16720	15.516	2.4545	0.	14.389
16721	15.516	2.5455	5.e-002	4.6164
16722	15.792	2.5455	0.	15.39
16723	15.7	2.4545	0.	15.046
16724	15.7	2.5455	5.e-002	4.597
16725	15.977	2.5455	0.	16.077
16726	15.884	2.4545	0.	15.717
16727	15.884	2.5455	5.e-002	4.5778
16728	16.161	2.5455	0.	16.784
16729	16.069	2.4545	0.	16.406
16730	16.069	2.5455	5.e-002	4.5588
16731	16.346	2.5455	0.	17.516
16732	16.253	2.4545	0.	17.116
16733	16.253	2.5455	5.e-002	4.5399
16734	16.53	2.5455	0.	18.277
16735	16.438	2.4545	0.	17.854
16736	16.438	2.5455	5.e-002	4.5212
16737	16.714	2.5455	0.	19.073
16738	16.622	2.4545	0.	18.622
16739	16.622	2.5455	5.e-002	4.5027
16740	16.899	2.5455	0.	19.908
16741	16.807	2.4545	0.	19.427
16742	16.807	2.5455	5.e-002	4.4844
16743	17.083	2.5455	0.	20.788
16744	16.991	2.4545	0.	20.273
16745	16.991	2.5455	5.e-002	4.4663
16746	17.268	2.5455	0.	21.718
16747	17.176	2.4545	0.	21.166
16748	17.176	2.5455	5.e-002	4.4485
16749	17.452	2.5455	0.	22.704
16750	17.36	2.4545	0.	22.112
16751	17.36	2.5455	5.e-002	4.4308
16752	17.637	2.5455	0.	23.753
16753	17.544	2.4545	0.	23.116
16754	17.544	2.5455	5.e-002	4.4135
16755	17.821	2.5455	0.	24.871
16756	17.729	2.4545	0.	24.184
16757	17.729	2.5455	5.e-002	4.3964
16758	18.006	2.5455	0.	26.066
16759	17.913	2.4545	0.	25.325
16760	17.913	2.5455	5.e-002	4.3796
16761	18.19	2.5455	0.	27.344
16762	18.098	2.4545	0.	26.544
16763	18.098	2.5455	5.e-002	4.3632
16764	18.374	2.5455	0.	28.715
16765	18.282	2.4545	0.	27.85
16766	18.282	2.5455	5.e-002	4.347
16767	18.559	2.5455	0.	30.187
16768	18.467	2.4545	0.	29.251
16769	18.467	2.5455	5.e-002	4.3313
16770	18.743	2.5455	0.	31.769
16771	18.651	2.4545	0.	30.755
16772	18.651	2.5455	5.e-002	4.316
16773	18.928	2.5455	0.	33.471
16774	18.836	2.4545	0.	32.373
16775	18.836	2.5455	5.e-002	4.3011
16776	19.112	2.5455	0.	35.304
16777	19.02	2.4545	0.	34.114
16778	19.02	2.5455	5.e-002	4.2867
16779	19.297	2.5455	0.	37.28
16780	19.204	2.4545	0.	35.99
16781	19.204	2.5455	5.e-002	4.2728
16782	19.481	2.5455	0.	39.41
16783	19.389	2.4545	0.	38.011
16784	19.389	2.5455	5.e-002	4.2596
16785	19.666	2.5455	0.	41.708
16786	19.573	2.4545	0.	40.191
16787	19.573	2.5455	5.e-002	4.247
16788	19.85	2.5455	0.	44.187
16789	19.758	2.4545	0.	42.543
16790	19.758	2.5455	5.e-002	4.2351
16791	20.034	2.5455	0.	46.864
16792	19.942	2.4545	0.	45.081
16793	19.942	2.5455	5.e-002	4.224
16794	20.219	2.5455	0.	49.753
16795	20.127	2.4545	0.	47.821
16796	20.127	2.5455	5.e-002	4.2139
16797	20.403	2.5455	0.	52.872
16798	20.311	2.4545	0.	50.778
16799	20.311	2.5455	5.e-002	4.2047
16800	20.588	2.5455	0.	56.239
16801	20.496	2.4545	0.	53.971
16802	20.496	2.5455	5.e-002	4.1967
16803	20.772	2.5455	0.	59.872
16804	20.68	2.4545	0.	57.417
16805	20.68	2.5455	5.e-002	4.19
16806	20.957	2.5455	0.	63.792
16807	20.864	2.4545	0.	61.136
16808	20.864	2.5455	5.e-002	4.1846
16809	21.141	2.5455	0.	68.018
16810	21.049	2.4545	0.	65.148
16811	21.049	2.5455	5.e-002	4.1809
16812	21.326	2.5455	0.	72.573
16813	21.233	2.4545	0.	69.474
16814	21.233	2.5455	5.e-002	4.1791
16815	21.51	2.5455	0.	77.478
16816	21.418	2.4545	0.	74.137
16817	21.418	2.5455	5.e-002	4.1792
16818	21.694	2.5455	0.	82.755
16819	21.602	2.4545	0.	79.158
16820	21.602	2.5455	5.e-002	4.1817
16821	21.879	2.5455	0.	88.424
16822	21.787	2.4545	0.	84.56
16823	21.787	2.5455	5.e-002	4.1868
16824	22.063	2.5455	0.	94.508
16825	21.971	2.4545	0.	90.365
16826	21.971	2.5455	5.e-002	4.1949
16827	22.248	2.5455	0.	101.02
16828	22.156	2.4545	0.	96.594
16829	22.156	2.5455	5.e-002	4.2062
16830	22.432	2.5455	0.	107.99
16831	22.34	2.4545	0.	103.27
16832	22.34	2.5455	5.e-002	4.2211
16833	22.617	2.5455	0.	115.43
16834	22.524	2.4545	0.	110.4
16835	22.524	2.5455	5.e-002	4.2399
16836	22.801	2.5455	0.	123.34
16837	22.709	2.4545	0.	118.02
16838	22.709	2.5455	5.e-002	4.2631
16839	22.986	2.5455	0.	131.73
16840	22.893	2.4545	0.	126.12
16841	22.893	2.5455	5.e-002	4.2907
16842	23.17	2.5455	0.	140.61
16843	23.078	2.4545	0.	134.71
16844	23.078	2.5455	5.e-002	4.3231
16845	23.354	2.5455	0.	149.98
16846	23.262	2.4545	0.	143.8
16847	23.262	2.5455	5.e-002	4.3602
16848	23.539	2.5455	0.	159.84
16849	23.447	2.4545	0.	153.38
16850	23.447	2.5455	5.e-002	4.4018
16851	23.723	2.5455	0.	170.1
16852	23.631	2.4545	0.	163.48
16853	23.631	2.5455	5.e-002	4.448
16854	23.816	2.4545	0.	173.88
16855	23.816	2.5455	5.e-002	4.5078
16856	23.908	2.5455	0.	180.24
16857	2.1433	2.3636	0.	275.06
16858	2.0511	2.2727	0.	697.29
16859	2.0511	2.3636	5.e-002	238.23
16860	2.3278	2.3636	0.	1.7144
16861	2.2356	2.2727	0.	156.2
16862	2.2356	2.3636	5.e-002	185.77
16863	2.5122	2.3636	0.	6.001
16864	2.42	2.2727	0.	2.898
16865	2.42	2.3636	5.e-002	135.38
16866	2.6967	2.3636	0.	2.3608
16867	2.6044	2.2727	0.	6.0915
16868	2.6044	2.3636	5.e-002	96.065
16869	2.8811	2.3636	0.	1.9209
16870	2.7889	2.2727	0.	2.2489
16871	2.7889	2.3636	5.e-002	73.08
16872	3.0656	2.3636	0.	1.3632
16873	2.9733	2.2727	0.	1.9793
16874	2.9733	2.3636	5.e-002	57.729
16875	3.25	2.3636	0.	0.98787
16876	3.1578	2.2727	0.	1.271
16877	3.1578	2.3636	5.e-002	46.636
16878	3.4344	2.3636	0.	0.72929
16879	3.3422	2.2727	0.	0.94924
16880	3.3422	2.3636	5.e-002	38.24
16881	3.6189	2.3636	0.	0.53687
16882	3.5267	2.2727	0.	0.68661
16883	3.5267	2.3636	5.e-002	31.712
16884	3.8033	2.3636	0.	0.3962
16885	3.7111	2.2727	0.	0.50741
16886	3.7111	2.3636	5.e-002	26.559
16887	3.9878	2.3636	0.	0.29172
16888	3.8956	2.2727	0.	0.37403
16889	3.8956	2.3636	5.e-002	22.459
16890	4.1722	2.3636	0.	0.21441
16891	4.08	2.2727	0.	0.27638
16892	4.08	2.3636	5.e-002	19.181
16893	4.3567	2.3636	0.	0.15712
16894	4.2644	2.2727	0.	0.20399
16895	4.2644	2.3636	5.e-002	16.556
16896	4.5411	2.3636	0.	0.11473
16897	4.4489	2.2727	0.	0.15037
16898	4.4489	2.3636	5.e-002	14.45
16899	4.7256	2.3636	0.	8.341e-002
16900	4.6333	2.2727	0.	0.11062
16901	4.6333	2.3636	5.e-002	12.761
16902	4.91	2.3636	0.	6.0306e-002
16903	4.8178	2.2727	0.	8.1155e-002
16904	4.8178	2.3636	5.e-002	11.405
16905	5.0944	2.3636	0.	4.3305e-002
16906	5.0022	2.2727	0.	5.9327e-002
16907	5.0022	2.3636	5.e-002	10.316
16908	5.2789	2.3636	0.	3.0839e-002
16909	5.1867	2.2727	0.	4.3194e-002
16910	5.1867	2.3636	5.e-002	9.4413
16911	5.4633	2.3636	0.	2.1731e-002
16912	5.3711	2.2727	0.	3.1293e-002
16913	5.3711	2.3636	5.e-002	8.7378
16914	5.6478	2.3636	0.	1.5118e-002
16915	5.5556	2.2727	0.	2.2536e-002
16916	5.5556	2.3636	5.e-002	8.1712
16917	5.8322	2.3636	0.	1.0358e-002
16918	5.74	2.2727	0.	1.6132e-002
16919	5.74	2.3636	5.e-002	7.7132
16920	6.0167	2.3636	0.	6.9634e-003
16921	5.9244	2.2727	0.	1.1476e-002
16922	5.9244	2.3636	5.e-002	7.342
16923	6.2011	2.3636	0.	4.5812e-003
16924	6.1089	2.2727	0.	8.1105e-003
16925	6.1089	2.3636	5.e-002	7.0395
16926	6.3856	2.3636	0.	2.9492e-003
16927	6.2933	2.2727	0.	5.7184e-003
16928	6.2933	2.3636	5.e-002	6.7916
16929	6.57	2.3636	0.	1.8616e-003
16930	6.4778	2.2727	0.	4.0421e-003
16931	6.4778	2.3636	5.e-002	6.587
16932	6.7544	2.3636	0.	1.1748e-003
16933	6.6622	2.2727	0.	2.8884e-003
16934	6.6622	2.3636	5.e-002	6.4168
16935	6.9389	2.3636	0.	7.8279e-004
16936	6.8467	2.2727	0.	2.1332e-003
16937	6.8467	2.3636	5.e-002	6.2739
16938	7.1233	2.3636	0.	5.9714e-004
16939	7.0311	2.2727	0.	1.6645e-003
16940	7.0311	2.3636	5.e-002	6.1528
16941	7.3078	2.3636	0.	5.6173e-004
16942	7.2156	2.2727	0.	1.3987e-003
16943	7.2156	2.3636	5.e-002	6.0491
16944	7.4922	2.3636	0.	6.3502e-004
16945	7.4	2.2727	0.	1.2919e-003
16946	7.4	2.3636	5.e-002	5.9593
16947	7.6767	2.3636	0.	7.7706e-004
16948	7.5844	2.2727	0.	1.2938e-003
16949	7.5844	2.3636	5.e-002	5.8808
16950	7.8611	2.3636	0.	9.6761e-004
16951	7.7689	2.2727	0.	1.3659e-003
16952	7.7689	2.3636	5.e-002	5.8114
16953	8.0456	2.3636	0.	1.1925e-003
16954	7.9533	2.2727	0.	1.4987e-003
16955	7.9533	2.3636	5.e-002	5.7493
16956	8.23	2.3636	0.	1.4323e-003
16957	8.1378	2.2727	0.	1.6676e-003
16958	8.1378	2.3636	5.e-002	5.6933
16959	8.4144	2.3636	0.	1.6812e-003
16960	8.3222	2.2727	0.	1.8532e-003
16961	8.3222	2.3636	5.e-002	5.6422
16962	8.5989	2.3636	0.	1.9371e-003
16963	8.5067	2.2727	0.	2.0602e-003
16964	8.5067	2.3636	5.e-002	5.5952
16965	8.7833	2.3636	0.	2.1886e-003
16966	8.6911	2.2727	0.	2.275e-003
16967	8.6911	2.3636	5.e-002	5.5517
16968	8.9678	2.3636	0.	2.436e-003
16969	8.8756	2.2727	0.	2.4871e-003
16970	8.8756	2.3636	5.e-002	5.5109
16971	9.1522	2.3636	0.	2.6812e-003
16972	9.06	2.2727	0.	2.7056e-003
16973	9.06	2.3636	5.e-002	5.4726
16974	9.3367	2.3636	0.	2.9162e-003
16975	9.2444	2.2727	0.	2.9229e-003
16976	9.2444	2.3636	5.e-002	5.4364
16977	9.5211	2.3636	0.	3.147e-003
16978	9.4289	2.2727	0.	3.1295e-003
16979	9.4289	2.3636	5.e-002	5.4018
16980	9.7056	2.3636	0.	3.3657e-003
16981	9.6133	2.2727	0.	3.3459e-003
16982	9.6133	2.3636	5.e-002	5.3689
16983	9.89	2.3636	0.	3.5699e-003
16984	9.7978	2.2727	0.	3.5359e-003
16985	9.7978	2.3636	5.e-002	5.3372
16986	10.074	2.3636	0.	3.7994e-003
16987	9.9822	2.2727	0.	3.7305e-003
16988	9.9822	2.3636	5.e-002	5.3066
16989	10.259	2.3636	0.	4.0282e-003
16990	10.167	2.2727	0.	3.9767e-003
16991	10.167	2.3636	5.e-002	5.2771
16992	10.443	2.3636	0.	4.2255e-003
16993	10.351	2.2727	0.	4.1771e-003
16994	10.351	2.3636	5.e-002	5.2486
16995	10.628	2.3636	0.	4.4308e-003
16996	10.536	2.2727	0.	4.3678e-003
16997	10.536	2.3636	5.e-002	5.2208
16998	10.812	2.3636	0.	4.6437e-003
16999	10.72	2.2727	0.	4.5929e-003
17000	10.72	2.3636	5.e-002	5.1936
17001	10.997	2.3636	0.	4.8627e-003
17002	10.904	2.2727	0.	4.811e-003
17003	10.904	2.3636	5.e-002	5.1672
17004	11.181	2.3636	0.	5.1248e-003
17005	11.089	2.2727	0.	5.0643e-003
17006	11.089	2.3636	5.e-002	5.1413
17007	11.366	2.3636	0.	5.4264e-003
17008	11.273	2.2727	0.	5.3951e-003
17009	11.273	2.3636	5.e-002	5.116
17010	11.55	2.3636	0.	5.7869e-003
17011	11.458	2.2727	0.	5.7766e-003
17012	11.458	2.3636	5.e-002	5.0912
17013	11.734	2.3636	0.	6.3349e-003
17014	11.642	2.2727	0.	6.3271e-003
17015	11.642	2.3636	5.e-002	5.0668
17016	11.919	2.3636	0.	7.4508e-003
17017	11.827	2.2727	0.	7.3875e-003
17018	11.827	2.3636	5.e-002	5.0427
17019	12.103	2.3636	0.	1.2971e-002
17020	12.011	2.2727	0.	1.0876e-002
17021	12.011	2.3636	5.e-002	5.0191
17022	12.288	2.3636	0.	0.68692
17023	12.196	2.2727	0.	0.32822
17024	12.196	2.3636	5.e-002	4.9958
17025	12.472	2.3636	0.	1.8179
17026	12.38	2.2727	0.	1.4692
17027	12.38	2.3636	5.e-002	4.9728
17028	12.657	2.3636	0.	2.88
17029	12.564	2.2727	0.	2.5475
17030	12.564	2.3636	5.e-002	4.9502
17031	12.841	2.3636	0.	3.8777
17032	12.749	2.2727	0.	3.5599
17033	12.749	2.3636	5.e-002	4.9278
17034	13.026	2.3636	0.	4.817
17035	12.933	2.2727	0.	4.512
17036	12.933	2.3636	5.e-002	4.9056
17037	13.21	2.3636	0.	5.704
17038	13.118	2.2727	0.	5.4099
17039	13.118	2.3636	5.e-002	4.8837
17040	13.394	2.3636	0.	6.5443
17041	13.302	2.2727	0.	6.2593
17042	13.302	2.3636	5.e-002	4.862
17043	13.579	2.3636	0.	7.3434
17044	13.487	2.2727	0.	7.0657
17045	13.487	2.3636	5.e-002	4.8405
17046	13.763	2.3636	0.	8.1063
17047	13.671	2.2727	0.	7.8341
17048	13.671	2.3636	5.e-002	4.8193
17049	13.948	2.3636	0.	8.8379
17050	13.856	2.2727	0.	8.5695
17051	13.856	2.3636	5.e-002	4.7982
17052	14.132	2.3636	0.	9.5431
17053	14.04	2.2727	0.	9.2766
17054	14.04	2.3636	5.e-002	4.7773
17055	14.317	2.3636	0.	10.226
17056	14.224	2.2727	0.	9.9599
17057	14.224	2.3636	5.e-002	4.7566
17058	14.501	2.3636	0.	10.892
17059	14.409	2.2727	0.	10.624
17060	14.409	2.3636	5.e-002	4.736
17061	14.686	2.3636	0.	11.544
17062	14.593	2.2727	0.	11.272
17063	14.593	2.3636	5.e-002	4.7157
17064	14.87	2.3636	0.	12.186
17065	14.778	2.2727	0.	11.91
17066	14.778	2.3636	5.e-002	4.6955
17067	15.054	2.3636	0.	12.824
17068	14.962	2.2727	0.	12.54
17069	14.962	2.3636	5.e-002	4.6755
17070	15.239	2.3636	0.	13.46
17071	15.147	2.2727	0.	13.167
17072	15.147	2.3636	5.e-002	4.6556
17073	15.423	2.3636	0.	14.1
17074	15.331	2.2727	0.	13.796
17075	15.331	2.3636	5.e-002	4.6359
17076	15.608	2.3636	0.	14.746
17077	15.516	2.2727	0.	14.429
17078	15.516	2.3636	5.e-002	4.6163
17079	15.792	2.3636	0.	15.404
17080	15.7	2.2727	0.	15.071
17081	15.7	2.3636	5.e-002	4.5969
17082	15.977	2.3636	0.	16.077
17083	15.884	2.2727	0.	15.726
17084	15.884	2.3636	5.e-002	4.5776
17085	16.161	2.3636	0.	16.769
17086	16.069	2.2727	0.	16.398
17087	16.069	2.3636	5.e-002	4.5586
17088	16.346	2.3636	0.	17.486
17089	16.253	2.2727	0.	17.091
17090	16.253	2.3636	5.e-002	4.5397
17091	16.53	2.3636	0.	18.231
17092	16.438	2.2727	0.	17.81
17093	16.438	2.3636	5.e-002	4.521
17094	16.714	2.3636	0.	19.009
17095	16.622	2.2727	0.	18.56
17096	16.622	2.3636	5.e-002	4.5025
17097	16.899	2.3636	0.	19.826
17098	16.807	2.2727	0.	19.344
17099	16.807	2.3636	5.e-002	4.4842
17100	17.083	2.3636	0.	20.685
17101	16.991	2.2727	0.	20.168
17102	16.991	2.3636	5.e-002	4.4661
17103	17.268	2.3636	0.	21.594
17104	17.176	2.2727	0.	21.038
17105	17.176	2.3636	5.e-002	4.4483
17106	17.452	2.3636	0.	22.558
17107	17.36	2.2727	0.	21.958
17108	17.36	2.3636	5.e-002	4.4306
17109	17.637	2.3636	0.	23.582
17110	17.544	2.2727	0.	22.934
17111	17.544	2.3636	5.e-002	4.4133
17112	17.821	2.3636	0.	24.673
17113	17.729	2.2727	0.	23.973
17114	17.729	2.3636	5.e-002	4.3962
17115	18.006	2.3636	0.	25.838
17116	17.913	2.2727	0.	25.081
17117	17.913	2.3636	5.e-002	4.3794
17118	18.19	2.3636	0.	27.085
17119	18.098	2.2727	0.	26.265
17120	18.098	2.3636	5.e-002	4.3629
17121	18.374	2.3636	0.	28.421
17122	18.282	2.2727	0.	27.533
17123	18.282	2.3636	5.e-002	4.3468
17124	18.559	2.3636	0.	29.855
17125	18.467	2.2727	0.	28.891
17126	18.467	2.3636	5.e-002	4.331
17127	18.743	2.3636	0.	31.396
17128	18.651	2.2727	0.	30.35
17129	18.651	2.3636	5.e-002	4.3156
17130	18.928	2.3636	0.	33.053
17131	18.836	2.2727	0.	31.918
17132	18.836	2.3636	5.e-002	4.3007
17133	19.112	2.3636	0.	34.836
17134	19.02	2.2727	0.	33.605
17135	19.02	2.3636	5.e-002	4.2863
17136	19.297	2.3636	0.	36.758
17137	19.204	2.2727	0.	35.42
17138	19.204	2.3636	5.e-002	4.2724
17139	19.481	2.3636	0.	38.829
17140	19.389	2.2727	0.	37.377
17141	19.389	2.3636	5.e-002	4.2591
17142	19.666	2.3636	0.	41.063
17143	19.573	2.2727	0.	39.486
17144	19.573	2.3636	5.e-002	4.2464
17145	19.85	2.3636	0.	43.473
17146	19.758	2.2727	0.	41.76
17147	19.758	2.3636	5.e-002	4.2345
17148	20.034	2.3636	0.	46.074
17149	19.942	2.2727	0.	44.214
17150	19.942	2.3636	5.e-002	4.2233
17151	20.219	2.3636	0.	48.881
17152	20.127	2.2727	0.	46.863
17153	20.127	2.3636	5.e-002	4.213
17154	20.403	2.3636	0.	51.912
17155	20.311	2.2727	0.	49.721
17156	20.311	2.3636	5.e-002	4.2038
17157	20.588	2.3636	0.	55.183
17158	20.496	2.2727	0.	52.807
17159	20.496	2.3636	5.e-002	4.1956
17160	20.772	2.3636	0.	58.714
17161	20.68	2.2727	0.	56.139
17162	20.68	2.3636	5.e-002	4.1886
17163	20.957	2.3636	0.	62.524
17164	20.864	2.2727	0.	59.734
17165	20.864	2.3636	5.e-002	4.1831
17166	21.141	2.3636	0.	66.635
17167	21.049	2.2727	0.	63.615
17168	21.049	2.3636	5.e-002	4.1792
17169	21.326	2.3636	0.	71.068
17170	21.233	2.2727	0.	67.803
17171	21.233	2.3636	5.e-002	4.177
17172	21.51	2.3636	0.	75.846
17173	21.418	2.2727	0.	72.319
17174	21.418	2.3636	5.e-002	4.1768
17175	21.694	2.3636	0.	80.991
17176	21.602	2.2727	0.	77.188
17177	21.602	2.3636	5.e-002	4.179
17178	21.879	2.3636	0.	86.526
17179	21.787	2.2727	0.	82.433
17180	21.787	2.3636	5.e-002	4.1837
17181	22.063	2.3636	0.	92.475
17182	21.971	2.2727	0.	88.079
17183	21.971	2.3636	5.e-002	4.1912
17184	22.248	2.3636	0.	98.859
17185	22.156	2.2727	0.	94.149
17186	22.156	2.3636	5.e-002	4.2021
17187	22.432	2.3636	0.	105.7
17188	22.34	2.2727	0.	100.67
17189	22.34	2.3636	5.e-002	4.2166
17190	22.617	2.3636	0.	113.01
17191	22.524	2.2727	0.	107.65
17192	22.524	2.3636	5.e-002	4.2351
17193	22.801	2.3636	0.	120.81
17194	22.709	2.2727	0.	115.13
17195	22.709	2.3636	5.e-002	4.258
17196	22.986	2.3636	0.	129.11
17197	22.893	2.2727	0.	123.1
17198	22.893	2.3636	5.e-002	4.2856
17199	23.17	2.3636	0.	137.91
17200	23.078	2.2727	0.	131.59
17201	23.078	2.3636	5.e-002	4.3182
17202	23.354	2.3636	0.	147.21
17203	23.262	2.2727	0.	140.6
17204	23.262	2.3636	5.e-002	4.3558
17205	23.539	2.3636	0.	157.03
17206	23.447	2.2727	0.	150.11
17207	23.447	2.3636	5.e-002	4.3984
17208	23.723	2.3636	0.	167.27
17209	23.631	2.2727	0.	160.17
17210	23.631	2.3636	5.e-002	4.4462
17211	23.816	2.2727	0.	170.56
17212	23.816	2.3636	5.e-002	4.5129
17213	23.908	2.3636	0.	177.38
17214	2.1433	2.1818	0.	622.74
17215	2.0511	2.0909	0.	1833.4
17216	2.0511	2.1818	5.e-002	525.82
17217	2.3278	2.1818	0.	136.78
17218	2.2356	2.0909	0.	667.7
17219	2.2356	2.1818	5.e-002	254.12
17220	2.5122	2.1818	0.	6.8287
17221	2.42	2.0909	0.	161.58
17222	2.42	2.1818	5.e-002	132.8
17223	2.6967	2.1818	0.	6.6486
17224	2.6044	2.0909	0.	18.577
17225	2.6044	2.1818	5.e-002	91.287
17226	2.8811	2.1818	0.	2.5565
17227	2.7889	2.0909	0.	4.4231
17228	2.7889	2.1818	5.e-002	68.025
17229	3.0656	2.1818	0.	1.9988
17230	2.9733	2.0909	0.	3.1678
17231	2.9733	2.1818	5.e-002	53.295
17232	3.25	2.1818	0.	1.2909
17233	3.1578	2.0909	0.	1.8105
17234	3.1578	2.1818	5.e-002	43.013
17235	3.4344	2.1818	0.	0.94053
17236	3.3422	2.0909	0.	1.2841
17237	3.3422	2.1818	5.e-002	35.367
17238	3.6189	2.1818	0.	0.67824
17239	3.5267	2.0909	0.	0.89597
17240	3.5267	2.1818	5.e-002	29.466
17241	3.8033	2.1818	0.	0.49898
17242	3.7111	2.0909	0.	0.6513
17243	3.7111	2.1818	5.e-002	24.812
17244	3.9878	2.1818	0.	0.36794
17245	3.8956	2.0909	0.	0.47618
17246	3.8956	2.1818	5.e-002	21.098
17247	4.1722	2.1818	0.	0.27235
17248	4.08	2.0909	0.	0.3515
17249	4.08	2.1818	5.e-002	18.117
17250	4.3567	2.1818	0.	0.20175
17251	4.2644	2.0909	0.	0.2604
17252	4.2644	2.1818	5.e-002	15.717
17253	4.5411	2.1818	0.	0.14949
17254	4.4489	2.0909	0.	0.19345
17255	4.4489	2.1818	5.e-002	13.783
17256	4.7256	2.1818	0.	0.1107
17257	4.6333	2.0909	0.	0.14393
17258	4.6333	2.1818	5.e-002	12.226
17259	4.91	2.1818	0.	8.1888e-002
17260	4.8178	2.0909	0.	0.10719
17261	4.8178	2.1818	5.e-002	10.972
17262	5.0944	2.1818	0.	6.0484e-002
17263	5.0022	2.0909	0.	7.9856e-002
17264	5.0022	2.1818	5.e-002	9.9647
17265	5.2789	2.1818	0.	4.4597e-002
17266	5.1867	2.0909	0.	5.9517e-002
17267	5.1867	2.1818	5.e-002	9.155
17268	5.4633	2.1818	0.	3.2814e-002
17269	5.3711	2.0909	0.	4.4369e-002
17270	5.3711	2.1818	5.e-002	8.5041
17271	5.6478	2.1818	0.	2.4096e-002
17272	5.5556	2.0909	0.	3.3084e-002
17273	5.5556	2.1818	5.e-002	7.9803
17274	5.8322	2.1818	0.	1.767e-002
17275	5.74	2.0909	0.	2.4696e-002
17276	5.74	2.1818	5.e-002	7.5577
17277	6.0167	2.1818	0.	1.2948e-002
17278	5.9244	2.0909	0.	1.847e-002
17279	5.9244	2.1818	5.e-002	7.2155
17280	6.2011	2.1818	0.	9.5012e-003
17281	6.1089	2.0909	0.	1.3853e-002
17282	6.1089	2.1818	5.e-002	6.9367
17283	6.3856	2.1818	0.	7.0106e-003
17284	6.2933	2.0909	0.	1.0455e-002
17285	6.2933	2.1818	5.e-002	6.7083
17286	6.57	2.1818	0.	5.2267e-003
17287	6.4778	2.0909	0.	7.9665e-003
17288	6.4778	2.1818	5.e-002	6.5197
17289	6.7544	2.1818	0.	3.9726e-003
17290	6.6622	2.0909	0.	6.1516e-003
17291	6.6622	2.1818	5.e-002	6.3625
17292	6.9389	2.1818	0.	3.1156e-003
17293	6.8467	2.0909	0.	4.8553e-003
17294	6.8467	2.1818	5.e-002	6.2301
17295	7.1233	2.1818	0.	2.547e-003
17296	7.0311	2.0909	0.	3.9415e-003
17297	7.0311	2.1818	5.e-002	6.1175
17298	7.3078	2.1818	0.	2.1941e-003
17299	7.2156	2.0909	0.	3.3075e-003
17300	7.2156	2.1818	5.e-002	6.0208
17301	7.4922	2.1818	0.	2.0033e-003
17302	7.4	2.0909	0.	2.8941e-003
17303	7.4	2.1818	5.e-002	5.9365
17304	7.6767	2.1818	0.	1.9251e-003
17305	7.5844	2.0909	0.	2.6405e-003
17306	7.5844	2.1818	5.e-002	5.8624
17307	7.8611	2.1818	0.	1.9311e-003
17308	7.7689	2.0909	0.	2.4979e-003
17309	7.7689	2.1818	5.e-002	5.7965
17310	8.0456	2.1818	0.	2.0011e-003
17311	7.9533	2.0909	0.	2.4504e-003
17312	7.9533	2.1818	5.e-002	5.7373
17313	8.23	2.1818	0.	2.1102e-003
17314	8.1378	2.0909	0.	2.4669e-003
17315	8.1378	2.1818	5.e-002	5.6835
17316	8.4144	2.1818	0.	2.2491e-003
17317	8.3222	2.0909	0.	2.524e-003
17318	8.3222	2.1818	5.e-002	5.6342
17319	8.5989	2.1818	0.	2.4111e-003
17320	8.5067	2.0909	0.	2.6215e-003
17321	8.5067	2.1818	5.e-002	5.5886
17322	8.7833	2.1818	0.	2.5831e-003
17323	8.6911	2.0909	0.	2.7431e-003
17324	8.6911	2.1818	5.e-002	5.5462
17325	8.9678	2.1818	0.	2.7635e-003
17326	8.8756	2.0909	0.	2.8761e-003
17327	8.8756	2.1818	5.e-002	5.5064
17328	9.1522	2.1818	0.	2.9517e-003
17329	9.06	2.0909	0.	3.0278e-003
17330	9.06	2.1818	5.e-002	5.4688
17331	9.3367	2.1818	0.	3.1386e-003
17332	9.2444	2.0909	0.	3.1883e-003
17333	9.2444	2.1818	5.e-002	5.4331
17334	9.5211	2.1818	0.	3.329e-003
17335	9.4289	2.0909	0.	3.3477e-003
17336	9.4289	2.1818	5.e-002	5.3991
17337	9.7056	2.1818	0.	3.5153e-003
17338	9.6133	2.0909	0.	3.5247e-003
17339	9.6133	2.1818	5.e-002	5.3665
17340	9.89	2.1818	0.	3.6947e-003
17341	9.7978	2.0909	0.	3.6843e-003
17342	9.7978	2.1818	5.e-002	5.3351
17343	10.074	2.1818	0.	3.9051e-003
17344	9.9822	2.0909	0.	3.8553e-003
17345	9.9822	2.1818	5.e-002	5.3048
17346	10.259	2.1818	0.	4.1223e-003
17347	10.167	2.0909	0.	4.0852e-003
17348	10.167	2.1818	5.e-002	5.2755
17349	10.443	2.1818	0.	4.3158e-003
17350	10.351	2.0909	0.	4.2788e-003
17351	10.351	2.1818	5.e-002	5.2471
17352	10.628	2.1818	0.	4.5263e-003
17353	10.536	2.0909	0.	4.4723e-003
17354	10.536	2.1818	5.e-002	5.2195
17355	10.812	2.1818	0.	4.7569e-003
17356	10.72	2.0909	0.	4.713e-003
17357	10.72	2.1818	5.e-002	5.1925
17358	10.997	2.1818	0.	5.0097e-003
17359	10.904	2.0909	0.	4.9645e-003
17360	10.904	2.1818	5.e-002	5.1662
17361	11.181	2.1818	0.	5.332e-003
17362	11.089	2.0909	0.	5.2779e-003
17363	11.089	2.1818	5.e-002	5.1404
17364	11.366	2.1818	0.	5.7413e-003
17365	11.273	2.0909	0.	5.7145e-003
17366	11.273	2.1818	5.e-002	5.1151
17367	11.55	2.1818	0.	6.3022e-003
17368	11.458	2.0909	0.	6.2944e-003
17369	11.458	2.1818	5.e-002	5.0904
17370	11.734	2.1818	0.	7.2988e-003
17371	11.642	2.0909	0.	7.2663e-003
17372	11.642	2.1818	5.e-002	5.066
17373	11.919	2.1818	0.	9.9533e-003
17374	11.827	2.0909	0.	9.5868e-003
17375	11.827	2.1818	5.e-002	5.0421
17376	12.103	2.1818	0.	6.1509e-002
17377	12.011	2.0909	0.	2.5265e-002
17378	12.011	2.1818	5.e-002	5.0185
17379	12.288	2.1818	0.	1.1251
17380	12.196	2.0909	0.	0.83223
17381	12.196	2.1818	5.e-002	4.9952
17382	12.472	2.1818	0.	2.2217
17383	12.38	2.0909	0.	1.9396
17384	12.38	2.1818	5.e-002	4.9723
17385	12.657	2.1818	0.	3.251
17386	12.564	2.0909	0.	2.9802
17387	12.564	2.1818	5.e-002	4.9497
17388	12.841	2.1818	0.	4.2183
17389	12.749	2.0909	0.	3.9575
17390	12.749	2.1818	5.e-002	4.9273
17391	13.026	2.1818	0.	5.1295
17392	12.933	2.0909	0.	4.8771
17393	12.933	2.1818	5.e-002	4.9052
17394	13.21	2.1818	0.	5.9903
17395	13.118	2.0909	0.	5.7448
17396	13.118	2.1818	5.e-002	4.8833
17397	13.394	2.1818	0.	6.8062
17398	13.302	2.0909	0.	6.566
17399	13.302	2.1818	5.e-002	4.8616
17400	13.579	2.1818	0.	7.5823
17401	13.487	2.0909	0.	7.3461
17402	13.487	2.1818	5.e-002	4.8402
17403	13.763	2.1818	0.	8.3236
17404	13.671	2.0909	0.	8.0897
17405	13.671	2.1818	5.e-002	4.8189
17406	13.948	2.1818	0.	9.0349
17407	13.856	2.0909	0.	8.8017
17408	13.856	2.1818	5.e-002	4.7979
17409	14.132	2.1818	0.	9.7205
17410	14.04	2.0909	0.	9.4866
17411	14.04	2.1818	5.e-002	4.777
17412	14.317	2.1818	0.	10.385
17413	14.224	2.0909	0.	10.149
17414	14.224	2.1818	5.e-002	4.7563
17415	14.501	2.1818	0.	11.032
17416	14.409	2.0909	0.	10.792
17417	14.409	2.1818	5.e-002	4.7358
17418	14.686	2.1818	0.	11.667
17419	14.593	2.0909	0.	11.421
17420	14.593	2.1818	5.e-002	4.7154
17421	14.87	2.1818	0.	12.292
17422	14.778	2.0909	0.	12.039
17423	14.778	2.1818	5.e-002	4.6953
17424	15.054	2.1818	0.	12.913
17425	14.962	2.0909	0.	12.65
17426	14.962	2.1818	5.e-002	4.6752
17427	15.239	2.1818	0.	13.532
17428	15.147	2.0909	0.	13.259
17429	15.147	2.1818	5.e-002	4.6553
17430	15.423	2.1818	0.	14.155
17431	15.331	2.0909	0.	13.868
17432	15.331	2.1818	5.e-002	4.6356
17433	15.608	2.1818	0.	14.784
17434	15.516	2.0909	0.	14.482
17435	15.516	2.1818	5.e-002	4.616
17436	15.792	2.1818	0.	15.424
17437	15.7	2.0909	0.	15.105
17438	15.7	2.1818	5.e-002	4.5966
17439	15.977	2.1818	0.	16.078
17440	15.884	2.0909	0.	15.74
17441	15.884	2.1818	5.e-002	4.5774
17442	16.161	2.1818	0.	16.751
17443	16.069	2.0909	0.	16.391
17444	16.069	2.1818	5.e-002	4.5584
17445	16.346	2.1818	0.	17.448
17446	16.253	2.0909	0.	17.063
17447	16.253	2.1818	5.e-002	4.5395
17448	16.53	2.1818	0.	18.172
17449	16.438	2.0909	0.	17.759
17450	16.438	2.1818	5.e-002	4.5208
17451	16.714	2.1818	0.	18.927
17452	16.622	2.0909	0.	18.484
17453	16.622	2.1818	5.e-002	4.5023
17454	16.899	2.1818	0.	19.72
17455	16.807	2.0909	0.	19.242
17456	16.807	2.1818	5.e-002	4.484
17457	17.083	2.1818	0.	20.554
17458	16.991	2.0909	0.	20.039
17459	16.991	2.1818	5.e-002	4.4659
17460	17.268	2.1818	0.	21.435
17461	17.176	2.0909	0.	20.879
17462	17.176	2.1818	5.e-002	4.448
17463	17.452	2.1818	0.	22.368
17464	17.36	2.0909	0.	21.767
17465	17.36	2.1818	5.e-002	4.4304
17466	17.637	2.1818	0.	23.36
17467	17.544	2.0909	0.	22.708
17468	17.544	2.1818	5.e-002	4.413
17469	17.821	2.1818	0.	24.416
17470	17.729	2.0909	0.	23.71
17471	17.729	2.1818	5.e-002	4.3958
17472	18.006	2.1818	0.	25.543
17473	17.913	2.0909	0.	24.777
17474	17.913	2.1818	5.e-002	4.379
17475	18.19	2.1818	0.	26.748
17476	18.098	2.0909	0.	25.917
17477	18.098	2.1818	5.e-002	4.3625
17478	18.374	2.1818	0.	28.039
17479	18.282	2.0909	0.	27.136
17480	18.282	2.1818	5.e-002	4.3464
17481	18.559	2.1818	0.	29.423
17482	18.467	2.0909	0.	28.442
17483	18.467	2.1818	5.e-002	4.3306
17484	18.743	2.1818	0.	30.909
17485	18.651	2.0909	0.	29.843
17486	18.651	2.1818	5.e-002	4.3152
17487	18.928	2.1818	0.	32.506
17488	18.836	2.0909	0.	31.347
17489	18.836	2.1818	5.e-002	4.3002
17490	19.112	2.1818	0.	34.225
17491	19.02	2.0909	0.	32.965
17492	19.02	2.1818	5.e-002	4.2857
17493	19.297	2.1818	0.	36.076
17494	19.204	2.0909	0.	34.706
17495	19.204	2.1818	5.e-002	4.2718
17496	19.481	2.1818	0.	38.07
17497	19.389	2.0909	0.	36.58
17498	19.389	2.1818	5.e-002	4.2584
17499	19.666	2.1818	0.	40.22
17500	19.573	2.0909	0.	38.6
17501	19.573	2.1818	5.e-002	4.2456
17502	19.85	2.1818	0.	42.539
17503	19.758	2.0909	0.	40.777
17504	19.758	2.1818	5.e-002	4.2336
17505	20.034	2.1818	0.	45.04
17506	19.942	2.0909	0.	43.124
17507	19.942	2.1818	5.e-002	4.2223
17508	20.219	2.1818	0.	47.739
17509	20.127	2.0909	0.	45.657
17510	20.127	2.1818	5.e-002	4.2119
17511	20.403	2.1818	0.	50.653
17512	20.311	2.0909	0.	48.391
17513	20.311	2.1818	5.e-002	4.2024
17514	20.588	2.1818	0.	53.798
17515	20.496	2.0909	0.	51.341
17516	20.496	2.1818	5.e-002	4.1941
17517	20.772	2.1818	0.	57.194
17518	20.68	2.0909	0.	54.526
17519	20.68	2.1818	5.e-002	4.1869
17520	20.957	2.1818	0.	60.86
17521	20.864	2.0909	0.	57.965
17522	20.864	2.1818	5.e-002	4.1811
17523	21.141	2.1818	0.	64.816
17524	21.049	2.0909	0.	61.678
17525	21.049	2.1818	5.e-002	4.1768
17526	21.326	2.1818	0.	69.086
17527	21.233	2.0909	0.	65.687
17528	21.233	2.1818	5.e-002	4.1743
17529	21.51	2.1818	0.	73.693
17530	21.418	2.0909	0.	70.015
17531	21.418	2.1818	5.e-002	4.1737
17532	21.694	2.1818	0.	78.661
17533	21.602	2.0909	0.	74.687
17534	21.602	2.1818	5.e-002	4.1753
17535	21.879	2.1818	0.	84.014
17536	21.787	2.0909	0.	79.727
17537	21.787	2.1818	5.e-002	4.1795
17538	22.063	2.1818	0.	89.779
17539	21.971	2.0909	0.	85.164
17540	21.971	2.1818	5.e-002	4.1865
17541	22.248	2.1818	0.	95.981
17542	22.156	2.0909	0.	91.024
17543	22.156	2.1818	5.e-002	4.1967
17544	22.432	2.1818	0.	102.64
17545	22.34	2.0909	0.	97.333
17546	22.34	2.1818	5.e-002	4.2106
17547	22.617	2.1818	0.	109.79
17548	22.524	2.0909	0.	104.12
17549	22.524	2.1818	5.e-002	4.2286
17550	22.801	2.1818	0.	117.44
17551	22.709	2.0909	0.	111.4
17552	22.709	2.1818	5.e-002	4.2511
17553	22.986	2.1818	0.	125.6
17554	22.893	2.0909	0.	119.21
17555	22.893	2.1818	5.e-002	4.2787
17556	23.17	2.1818	0.	134.29
17557	23.078	2.0909	0.	127.55
17558	23.078	2.1818	5.e-002	4.3115
17559	23.354	2.1818	0.	143.5
17560	23.262	2.0909	0.	136.44
17561	23.262	2.1818	5.e-002	4.3498
17562	23.539	2.1818	0.	153.26
17563	23.447	2.0909	0.	145.86
17564	23.447	2.1818	5.e-002	4.3936
17565	23.723	2.1818	0.	163.47
17566	23.631	2.0909	0.	155.87
17567	23.631	2.1818	5.e-002	4.4437
17568	23.816	2.0909	0.	166.24
17569	23.816	2.1818	5.e-002	4.5195
17570	23.908	2.1818	0.	173.53
17571	2.1433	2.	0.	2033.9
17572	2.0511	1.9091	0.	3815.6
17573	2.0511	2.	5.e-002	1064.3
17574	1.9589	2.	0.	3451.5
17575	2.3278	2.	0.	699.51
17576	2.2356	1.9091	0.	1480.3
17577	2.2356	2.	5.e-002	184.97
17578	2.5122	2.	0.	197.97
17579	2.42	1.9091	0.	593.24
17580	2.42	2.	5.e-002	120.4
17581	2.6967	2.	0.	22.062
17582	2.6044	1.9091	0.	183.19
17583	2.6044	2.	5.e-002	80.759
17584	2.8811	2.	0.	5.7662
17585	2.7889	1.9091	0.	20.303
17586	2.7889	2.	5.e-002	60.752
17587	3.0656	2.	0.	3.2096
17588	2.9733	1.9091	0.	6.0503
17589	2.9733	2.	5.e-002	47.802
17590	3.25	2.	0.	1.9036
17591	3.1578	1.9091	0.	2.9732
17592	3.1578	2.	5.e-002	38.797
17593	3.4344	2.	0.	1.2914
17594	3.3422	1.9091	0.	1.8542
17595	3.3422	2.	5.e-002	32.082
17596	3.6189	2.	0.	0.89887
17597	3.5267	1.9091	0.	1.2277
17598	3.5267	2.	5.e-002	26.891
17599	3.8033	2.	0.	0.64685
17600	3.7111	1.9091	0.	0.8594
17601	3.7111	2.	5.e-002	22.783
17602	3.9878	2.	0.	0.47153
17603	3.8956	1.9091	0.	0.6153
17604	3.8956	2.	5.e-002	19.49
17605	4.1722	2.	0.	0.34736
17606	4.08	1.9091	0.	0.4484
17607	4.08	2.	5.e-002	16.834
17608	4.3567	2.	0.	0.2574
17609	4.2644	1.9091	0.	0.33009
17610	4.2644	2.	5.e-002	14.686
17611	4.5411	2.	0.	0.19156
17612	4.4489	1.9091	0.	0.24482
17613	4.4489	2.	5.e-002	12.95
17614	4.7256	2.	0.	0.14299
17615	4.6333	1.9091	0.	0.18255
17616	4.6333	2.	5.e-002	11.549
17617	4.91	2.	0.	0.10699
17618	4.8178	1.9091	0.	0.13672
17619	4.8178	2.	5.e-002	10.421
17620	5.0944	2.	0.	8.022e-002
17621	5.0022	1.9091	0.	0.10276
17622	5.0022	2.	5.e-002	9.5145
17623	5.2789	2.	0.	6.0266e-002
17624	5.1867	1.9091	0.	7.7517e-002
17625	5.1867	2.	5.e-002	8.7871
17626	5.4633	2.	0.	4.5365e-002
17627	5.3711	1.9091	0.	5.8674e-002
17628	5.3711	2.	5.e-002	8.2039
17629	5.6478	2.	0.	3.423e-002
17630	5.5556	1.9091	0.	4.4567e-002
17631	5.5556	2.	5.e-002	7.7358
17632	5.8322	2.	0.	2.5912e-002
17633	5.74	1.9091	0.	3.3998e-002
17634	5.74	2.	5.e-002	7.359
17635	6.0167	2.	0.	1.9695e-002
17636	5.9244	1.9091	0.	2.6064e-002
17637	5.9244	2.	5.e-002	7.0545
17638	6.2011	2.	0.	1.5056e-002
17639	6.1089	1.9091	0.	2.0096e-002
17640	6.1089	2.	5.e-002	6.8067
17641	6.3856	2.	0.	1.1607e-002
17642	6.2933	1.9091	0.	1.5618e-002
17643	6.2933	2.	5.e-002	6.6035
17644	6.57	2.	0.	9.0465e-003
17645	6.4778	1.9091	0.	1.2259e-002
17646	6.4778	2.	5.e-002	6.4354
17647	6.7544	2.	0.	7.1582e-003
17648	6.6622	1.9091	0.	9.7345e-003
17649	6.6622	2.	5.e-002	6.2948
17650	6.9389	2.	0.	5.7807e-003
17651	6.8467	1.9091	0.	7.8567e-003
17652	6.8467	2.	5.e-002	6.1757
17653	7.1233	2.	0.	4.7822e-003
17654	7.0311	1.9091	0.	6.4629e-003
17655	7.0311	2.	5.e-002	6.0739
17656	7.3078	2.	0.	4.0725e-003
17657	7.2156	1.9091	0.	5.43e-003
17658	7.2156	2.	5.e-002	5.9857
17659	7.4922	2.	0.	3.5839e-003
17660	7.4	1.9091	0.	4.6839e-003
17661	7.4	2.	5.e-002	5.9084
17662	7.6767	2.	0.	3.256e-003
17663	7.5844	1.9091	0.	4.1506e-003
17664	7.5844	2.	5.e-002	5.8398
17665	7.8611	2.	0.	3.0516e-003
17666	7.7689	1.9091	0.	3.7726e-003
17667	7.7689	2.	5.e-002	5.7783
17668	8.0456	2.	0.	2.9438e-003
17669	7.9533	1.9091	0.	3.5252e-003
17670	7.9533	2.	5.e-002	5.7225
17671	8.23	2.	0.	2.9025e-003
17672	8.1378	1.9091	0.	3.3724e-003
17673	8.1378	2.	5.e-002	5.6715
17674	8.4144	2.	0.	2.9134e-003
17675	8.3222	1.9091	0.	3.2852e-003
17676	8.3222	2.	5.e-002	5.6244
17677	8.5989	2.	0.	2.9663e-003
17678	8.5067	1.9091	0.	3.2593e-003
17679	8.5067	2.	5.e-002	5.5806
17680	8.7833	2.	0.	3.0455e-003
17681	8.6911	1.9091	0.	3.2757e-003
17682	8.6911	2.	5.e-002	5.5395
17683	8.9678	2.	0.	3.1468e-003
17684	8.8756	1.9091	0.	3.3185e-003
17685	8.8756	2.	5.e-002	5.5008
17686	9.1522	2.	0.	3.2682e-003
17687	9.06	1.9091	0.	3.3935e-003
17688	9.06	2.	5.e-002	5.4641
17689	9.3367	2.	0.	3.3991e-003
17690	9.2444	1.9091	0.	3.4894e-003
17691	9.2444	2.	5.e-002	5.4292
17692	9.5211	2.	0.	3.5432e-003
17693	9.4289	1.9091	0.	3.595e-003
17694	9.4289	2.	5.e-002	5.3957
17695	9.7056	2.	0.	3.6919e-003
17696	9.6133	1.9091	0.	3.7275e-003
17697	9.6133	2.	5.e-002	5.3636
17698	9.89	2.	0.	3.8418e-003
17699	9.7978	1.9091	0.	3.852e-003
17700	9.7978	2.	5.e-002	5.3326
17701	10.074	2.	0.	4.0311e-003
17702	9.9822	1.9091	0.	3.9973e-003
17703	9.9822	2.	5.e-002	5.3026
17704	10.259	2.	0.	4.2367e-003
17705	10.167	1.9091	0.	4.2123e-003
17706	10.167	2.	5.e-002	5.2735
17707	10.443	2.	0.	4.4297e-003
17708	10.351	1.9091	0.	4.4018e-003
17709	10.351	2.	5.e-002	5.2454
17710	10.628	2.	0.	4.6531e-003
17711	10.536	1.9091	0.	4.6059e-003
17712	10.536	2.	5.e-002	5.2179
17713	10.812	2.	0.	4.9146e-003
17714	10.72	1.9091	0.	4.8759e-003
17715	10.72	2.	5.e-002	5.1911
17716	10.997	2.	0.	5.2264e-003
17717	10.904	1.9091	0.	5.1859e-003
17718	10.904	2.	5.e-002	5.1649
17719	11.181	2.	0.	5.6528e-003
17720	11.089	1.9091	0.	5.6039e-003
17721	11.089	2.	5.e-002	5.1392
17722	11.366	2.	0.	6.2535e-003
17723	11.273	1.9091	0.	6.2337e-003
17724	11.273	2.	5.e-002	5.114
17725	11.55	2.	0.	7.2119e-003
17726	11.458	1.9091	0.	7.2023e-003
17727	11.458	2.	5.e-002	5.0894
17728	11.734	2.	0.	9.2815e-003
17729	11.642	1.9091	0.	9.1686e-003
17730	11.642	2.	5.e-002	5.0651
17731	11.919	2.	0.	1.8253e-002
17732	11.827	1.9091	0.	1.6097e-002
17733	11.827	2.	5.e-002	5.0412
17734	12.103	2.	0.	0.55055
17735	12.011	1.9091	0.	0.33564
17736	12.011	2.	5.e-002	5.0177
17737	12.288	2.	0.	1.6674
17738	12.196	1.9091	0.	1.4475
17739	12.196	2.	5.e-002	4.9945
17740	12.472	2.	0.	2.7212
17741	12.38	1.9091	0.	2.508
17742	12.38	2.	5.e-002	4.9716
17743	12.657	2.	0.	3.7104
17744	12.564	1.9091	0.	3.5033
17745	12.564	2.	5.e-002	4.949
17746	12.841	2.	0.	4.6404
17747	12.749	1.9091	0.	4.4385
17748	12.749	2.	5.e-002	4.9267
17749	13.026	2.	0.	5.517
17750	12.933	1.9091	0.	5.3191
17751	12.933	2.	5.e-002	4.9046
17752	13.21	2.	0.	6.3456
17753	13.118	1.9091	0.	6.1505
17754	13.118	2.	5.e-002	4.8828
17755	13.394	2.	0.	7.1314
17756	13.302	1.9091	0.	6.9379
17757	13.302	2.	5.e-002	4.8611
17758	13.579	2.	0.	7.8793
17759	13.487	1.9091	0.	7.6863
17760	13.487	2.	5.e-002	4.8397
17761	13.763	2.	0.	8.594
17762	13.671	1.9091	0.	8.4001
17763	13.671	2.	5.e-002	4.8185
17764	13.948	2.	0.	9.2801
17765	13.856	1.9091	0.	9.0841
17766	13.856	2.	5.e-002	4.7975
17767	14.132	2.	0.	9.9418
17768	14.04	1.9091	0.	9.7423
17769	14.04	2.	5.e-002	4.7766
17770	14.317	2.	0.	10.583
17771	14.224	1.9091	0.	10.379
17772	14.224	2.	5.e-002	4.7559
17773	14.501	2.	0.	11.208
17774	14.409	1.9091	0.	10.998
17775	14.409	2.	5.e-002	4.7354
17776	14.686	2.	0.	11.821
17777	14.593	1.9091	0.	11.603
17778	14.593	2.	5.e-002	4.7151
17779	14.87	2.	0.	12.426
17780	14.778	1.9091	0.	12.198
17781	14.778	2.	5.e-002	4.695
17782	15.054	2.	0.	13.026
17783	14.962	1.9091	0.	12.787
17784	14.962	2.	5.e-002	4.6749
17785	15.239	2.	0.	13.624
17786	15.147	1.9091	0.	13.373
17787	15.147	2.	5.e-002	4.655
17788	15.423	2.	0.	14.226
17789	15.331	1.9091	0.	13.959
17790	15.331	2.	5.e-002	4.6353
17791	15.608	2.	0.	14.834
17792	15.516	1.9091	0.	14.551
17793	15.516	2.	5.e-002	4.6157
17794	15.792	2.	0.	15.452
17795	15.7	1.9091	0.	15.15
17796	15.7	2.	5.e-002	4.5964
17797	15.977	2.	0.	16.084
17798	15.884	1.9091	0.	15.761
17799	15.884	2.	5.e-002	4.5772
17800	16.161	2.	0.	16.734
17801	16.069	1.9091	0.	16.387
17802	16.069	2.	5.e-002	4.5581
17803	16.346	2.	0.	17.405
17804	16.253	1.9091	0.	17.033
17805	16.253	2.	5.e-002	4.5392
17806	16.53	2.	0.	18.103
17807	16.438	1.9091	0.	17.702
17808	16.438	2.	5.e-002	4.5205
17809	16.714	2.	0.	18.832
17810	16.622	1.9091	0.	18.398
17811	16.622	2.	5.e-002	4.502
17812	16.899	2.	0.	19.595
17813	16.807	1.9091	0.	19.126
17814	16.807	2.	5.e-002	4.4836
17815	17.083	2.	0.	20.397
17816	16.991	1.9091	0.	19.89
17817	16.991	2.	5.e-002	4.4656
17818	17.268	2.	0.	21.244
17819	17.176	1.9091	0.	20.694
17820	17.176	2.	5.e-002	4.4477
17821	17.452	2.	0.	22.141
17822	17.36	1.9091	0.	21.544
17823	17.36	2.	5.e-002	4.43
17824	17.637	2.	0.	23.093
17825	17.544	1.9091	0.	22.444
17826	17.544	2.	5.e-002	4.4126
17827	17.821	2.	0.	24.106
17828	17.729	1.9091	0.	23.401
17829	17.729	2.	5.e-002	4.3954
17830	18.006	2.	0.	25.186
17831	17.913	1.9091	0.	24.42
17832	17.913	2.	5.e-002	4.3786
17833	18.19	2.	0.	26.34
17834	18.098	1.9091	0.	25.506
17835	18.098	2.	5.e-002	4.3621
17836	18.374	2.	0.	27.575
17837	18.282	1.9091	0.	26.668
17838	18.282	2.	5.e-002	4.3459
17839	18.559	2.	0.	28.898
17840	18.467	1.9091	0.	27.911
17841	18.467	2.	5.e-002	4.33
17842	18.743	2.	0.	30.318
17843	18.651	1.9091	0.	29.243
17844	18.651	2.	5.e-002	4.3146
17845	18.928	2.	0.	31.843
17846	18.836	1.9091	0.	30.673
17847	18.836	2.	5.e-002	4.2996
17848	19.112	2.	0.	33.483
17849	19.02	1.9091	0.	32.208
17850	19.02	2.	5.e-002	4.285
17851	19.297	2.	0.	35.247
17852	19.204	1.9091	0.	33.859
17853	19.204	2.	5.e-002	4.271
17854	19.481	2.	0.	37.147
17855	19.389	1.9091	0.	35.636
17856	19.389	2.	5.e-002	4.2575
17857	19.666	2.	0.	39.194
17858	19.573	1.9091	0.	37.548
17859	19.573	2.	5.e-002	4.2447
17860	19.85	2.	0.	41.4
17861	19.758	1.9091	0.	39.609
17862	19.758	2.	5.e-002	4.2325
17863	20.034	2.	0.	43.779
17864	19.942	1.9091	0.	41.829
17865	19.942	2.	5.e-002	4.2211
17866	20.219	2.	0.	46.346
17867	20.127	1.9091	0.	44.224
17868	20.127	2.	5.e-002	4.2105
17869	20.403	2.	0.	49.116
17870	20.311	1.9091	0.	46.807
17871	20.311	2.	5.e-002	4.2008
17872	20.588	2.	0.	52.106
17873	20.496	1.9091	0.	49.594
17874	20.496	2.	5.e-002	4.1922
17875	20.772	2.	0.	55.334
17876	20.68	1.9091	0.	52.603
17877	20.68	2.	5.e-002	4.1848
17878	20.957	2.	0.	58.819
17879	20.864	1.9091	0.	55.852
17880	20.864	2.	5.e-002	4.1786
17881	21.141	2.	0.	62.584
17882	21.049	1.9091	0.	59.361
17883	21.049	2.	5.e-002	4.1739
17884	21.326	2.	0.	66.65
17885	21.233	1.9091	0.	63.153
17886	21.233	2.	5.e-002	4.1709
17887	21.51	2.	0.	71.042
17888	21.418	1.9091	0.	67.25
17889	21.418	2.	5.e-002	4.1698
17890	21.694	2.	0.	75.785
17891	21.602	1.9091	0.	71.678
17892	21.602	2.	5.e-002	4.1708
17893	21.879	2.	0.	80.907
17894	21.787	1.9091	0.	76.465
17895	21.787	2.	5.e-002	4.1743
17896	22.063	2.	0.	86.437
17897	21.971	1.9091	0.	81.64
17898	21.971	2.	5.e-002	4.1806
17899	22.248	2.	0.	92.402
17900	22.156	1.9091	0.	87.234
17901	22.156	2.	5.e-002	4.19
17902	22.432	2.	0.	98.833
17903	22.34	1.9091	0.	93.278
17904	22.34	2.	5.e-002	4.2031
17905	22.617	2.	0.	105.76
17906	22.524	1.9091	0.	99.805
17907	22.524	2.	5.e-002	4.2204
17908	22.801	2.	0.	113.2
17909	22.709	1.9091	0.	106.85
17910	22.709	2.	5.e-002	4.2424
17911	22.986	2.	0.	121.18
17912	22.893	1.9091	0.	114.43
17913	22.893	2.	5.e-002	4.2697
17914	23.17	2.	0.	129.72
17915	23.078	1.9091	0.	122.57
17916	23.078	2.	5.e-002	4.3027
17917	23.354	2.	0.	138.81
17918	23.262	1.9091	0.	131.3
17919	23.262	2.	5.e-002	4.3419
17920	23.539	2.	0.	148.48
17921	23.447	1.9091	0.	140.6
17922	23.447	2.	5.e-002	4.3873
17923	23.723	2.	0.	158.65
17924	23.631	1.9091	0.	150.53
17925	23.631	2.	5.e-002	4.4402
17926	23.816	1.9091	0.	160.88
17927	23.816	2.	5.e-002	4.5275
17928	23.908	2.	0.	168.64
17929	2.1433	1.8182	0.	3302.
17930	2.0511	1.7273	0.	4455.7
17931	2.0511	1.8182	5.e-002	575.76
17932	1.9589	1.8182	0.	5405.3
17933	2.3278	1.8182	0.	1376.3
17934	2.2356	1.7273	0.	2038.9
17935	2.2356	1.8182	5.e-002	195.81
17936	2.5122	1.8182	0.	573.3
17937	2.42	1.7273	0.	971.43
17938	2.42	1.8182	5.e-002	91.132
17939	2.6967	1.8182	0.	194.27
17940	2.6044	1.7273	0.	449.56
17941	2.6044	1.8182	5.e-002	66.396
17942	2.8811	1.8182	0.	26.397
17943	2.7889	1.7273	0.	156.06
17944	2.7889	1.8182	5.e-002	51.865
17945	3.0656	1.8182	0.	6.4763
17946	2.9733	1.7273	0.	23.495
17947	2.9733	1.8182	5.e-002	41.604
17948	3.25	1.8182	0.	3.1235
17949	3.1578	1.7273	0.	6.0155
17950	3.1578	1.8182	5.e-002	34.187
17951	3.4344	1.8182	0.	1.8782
17952	3.3422	1.7273	0.	2.9629
17953	3.3422	1.8182	5.e-002	28.526
17954	3.6189	1.8182	0.	1.2339
17955	3.5267	1.7273	0.	1.7743
17956	3.5267	1.8182	5.e-002	24.088
17957	3.8033	1.8182	0.	0.85404
17958	3.7111	1.7273	0.	1.1679
17959	3.7111	1.8182	5.e-002	20.54
17960	3.9878	1.8182	0.	0.60806
17961	3.8956	1.7273	0.	0.8057
17962	3.8956	1.8182	5.e-002	17.678
17963	4.1722	1.8182	0.	0.44114
17964	4.08	1.7273	0.	0.57261
17965	4.08	1.8182	5.e-002	15.358
17966	4.3567	1.8182	0.	0.324
17967	4.2644	1.7273	0.	0.41465
17968	4.2644	1.8182	5.e-002	13.478
17969	4.5411	1.8182	0.	0.24012
17970	4.4489	1.7273	0.	0.30432
17971	4.4489	1.8182	5.e-002	11.958
17972	4.7256	1.8182	0.	0.17919
17973	4.6333	1.7273	0.	0.22561
17974	4.6333	1.8182	5.e-002	10.733
17975	4.91	1.8182	0.	0.1345
17976	4.8178	1.7273	0.	0.16864
17977	4.8178	1.8182	5.e-002	9.7495
17978	5.0944	1.8182	0.	0.10147
17979	5.0022	1.7273	0.	0.12694
17980	5.0022	1.8182	5.e-002	8.9632
17981	5.2789	1.8182	0.	7.6936e-002
17982	5.1867	1.7273	0.	9.6189e-002
17983	5.1867	1.8182	5.e-002	8.3361
17984	5.4633	1.8182	0.	5.8613e-002
17985	5.3711	1.7273	0.	7.3341e-002
17986	5.3711	1.8182	5.e-002	7.8362
17987	5.6478	1.8182	0.	4.4882e-002
17988	5.5556	1.7273	0.	5.6262e-002
17989	5.5556	1.8182	5.e-002	7.4373
17990	5.8322	1.8182	0.	3.4562e-002
17991	5.74	1.7273	0.	4.3444e-002
17992	5.74	1.8182	5.e-002	7.1175
17993	6.0167	1.8182	0.	2.6781e-002
17994	5.9244	1.7273	0.	3.3778e-002
17995	5.9244	1.8182	5.e-002	6.8599
17996	6.2011	1.8182	0.	2.0904e-002
17997	6.1089	1.7273	0.	2.6453e-002
17998	6.1089	1.8182	5.e-002	6.6502
17999	6.3856	1.8182	0.	1.6463e-002
18000	6.2933	1.7273	0.	2.0898e-002
18001	6.2933	1.8182	5.e-002	6.4781
18002	6.57	1.8182	0.	1.31e-002
18003	6.4778	1.7273	0.	1.667e-002
18004	6.4778	1.8182	5.e-002	6.3349
18005	6.7544	1.8182	0.	1.0556e-002
18006	6.6622	1.7273	0.	1.344e-002
18007	6.6622	1.8182	5.e-002	6.2144
18008	6.9389	1.8182	0.	8.6383e-003
18009	6.8467	1.7273	0.	1.098e-002
18010	6.8467	1.8182	5.e-002	6.1117
18011	7.1233	1.8182	0.	7.1914e-003
18012	7.0311	1.7273	0.	9.1039e-003
18013	7.0311	1.8182	5.e-002	6.0227
18014	7.3078	1.8182	0.	6.1071e-003
18015	7.2156	1.7273	0.	7.6675e-003
18016	7.2156	1.8182	5.e-002	5.9447
18017	7.4922	1.8182	0.	5.3041e-003
18018	7.4	1.7273	0.	6.5816e-003
18019	7.4	1.8182	5.e-002	5.8755
18020	7.6767	1.8182	0.	4.7108e-003
18021	7.5844	1.7273	0.	5.7607e-003
18022	7.5844	1.8182	5.e-002	5.8134
18023	7.8611	1.8182	0.	4.2815e-003
18024	7.7689	1.7273	0.	5.1384e-003
18025	7.7689	1.8182	5.e-002	5.757
18026	8.0456	1.8182	0.	3.9822e-003
18027	7.9533	1.7273	0.	4.6822e-003
18028	7.9533	1.8182	5.e-002	5.7053
18029	8.23	1.8182	0.	3.7776e-003
18030	8.1378	1.7273	0.	4.3505e-003
18031	8.1378	1.8182	5.e-002	5.6575
18032	8.4144	1.8182	0.	3.6485e-003
18033	8.3222	1.7273	0.	4.1093e-003
18034	8.3222	1.8182	5.e-002	5.6129
18035	8.5989	1.8182	0.	3.5817e-003
18036	8.5067	1.7273	0.	3.9511e-003
18037	8.5067	1.8182	5.e-002	5.5712
18038	8.7833	1.8182	0.	3.558e-003
18039	8.6911	1.7273	0.	3.8539e-003
18040	8.6911	1.8182	5.e-002	5.5317
18041	8.9678	1.8182	0.	3.5712e-003
18042	8.8756	1.7273	0.	3.7987e-003
18043	8.8756	1.8182	5.e-002	5.4943
18044	9.1522	1.8182	0.	3.6179e-003
18045	9.06	1.7273	0.	3.79e-003
18046	9.06	1.8182	5.e-002	5.4587
18047	9.3367	1.8182	0.	3.686e-003
18048	9.2444	1.7273	0.	3.8147e-003
18049	9.2444	1.8182	5.e-002	5.4245
18050	9.5211	1.8182	0.	3.7778e-003
18051	9.4289	1.7273	0.	3.8609e-003
18052	9.4289	1.8182	5.e-002	5.3917
18053	9.7056	1.8182	0.	3.8842e-003
18054	9.6133	1.7273	0.	3.9451e-003
18055	9.6133	1.8182	5.e-002	5.3601
18056	9.89	1.8182	0.	4.0025e-003
18057	9.7978	1.7273	0.	4.0325e-003
18058	9.7978	1.8182	5.e-002	5.3296
18059	10.074	1.8182	0.	4.1721e-003
18060	9.9822	1.7273	0.	4.1527e-003
18061	9.9822	1.8182	5.e-002	5.2999
18062	10.259	1.8182	0.	4.3699e-003
18063	10.167	1.7273	0.	4.3556e-003
18064	10.167	1.8182	5.e-002	5.2712
18065	10.443	1.8182	0.	4.5697e-003
18066	10.351	1.7273	0.	4.5487e-003
18067	10.351	1.8182	5.e-002	5.2433
18068	10.628	1.8182	0.	4.8199e-003
18069	10.536	1.7273	0.	4.778e-003
18070	10.536	1.8182	5.e-002	5.216
18071	10.812	1.8182	0.	5.1379e-003
18072	10.72	1.7273	0.	5.1041e-003
18073	10.72	1.8182	5.e-002	5.1894
18074	10.997	1.8182	0.	5.5531e-003
18075	10.904	1.7273	0.	5.5192e-003
18076	10.904	1.8182	5.e-002	5.1633
18077	11.181	1.8182	0.	6.1711e-003
18078	11.089	1.7273	0.	6.1327e-003
18079	11.089	1.8182	5.e-002	5.1378
18080	11.366	1.8182	0.	7.1532e-003
18081	11.273	1.7273	0.	7.1507e-003
18082	11.273	1.8182	5.e-002	5.1128
18083	11.55	1.8182	0.	9.0385e-003
18084	11.458	1.7273	0.	9.0391e-003
18085	11.458	1.8182	5.e-002	5.0882
18086	11.734	1.8182	0.	1.4769e-002
18087	11.642	1.7273	0.	1.4337e-002
18088	11.642	1.8182	5.e-002	5.064
18089	11.919	1.8182	0.	0.1623
18090	11.827	1.7273	0.	9.1242e-002
18091	11.827	1.8182	5.e-002	5.0402
18092	12.103	1.8182	0.	1.2419
18093	12.011	1.7273	0.	1.0971
18094	12.011	1.8182	5.e-002	5.0168
18095	12.288	1.8182	0.	2.3103
18096	12.196	1.7273	0.	2.1662
18097	12.196	1.8182	5.e-002	4.9936
18098	12.472	1.8182	0.	3.3134
18099	12.38	1.7273	0.	3.1708
18100	12.38	1.8182	5.e-002	4.9708
18101	12.657	1.8182	0.	4.2553
18102	12.564	1.7273	0.	4.1137
18103	12.564	1.8182	5.e-002	4.9483
18104	12.841	1.8182	0.	5.1415
18105	12.749	1.7273	0.	5.0002
18106	12.749	1.8182	5.e-002	4.926
18107	13.026	1.8182	0.	5.9773
18108	12.933	1.7273	0.	5.8356
18109	12.933	1.8182	5.e-002	4.904
18110	13.21	1.8182	0.	6.768
18111	13.118	1.7273	0.	6.625
18112	13.118	1.8182	5.e-002	4.8822
18113	13.394	1.8182	0.	7.5183
18114	13.302	1.7273	0.	7.3732
18115	13.302	1.8182	5.e-002	4.8606
18116	13.579	1.8182	0.	8.2331
18117	13.487	1.7273	0.	8.085
18118	13.487	1.8182	5.e-002	4.8392
18119	13.763	1.8182	0.	8.9165
18120	13.671	1.7273	0.	8.7644
18121	13.671	1.8182	5.e-002	4.818
18122	13.948	1.8182	0.	9.573
18123	13.856	1.7273	0.	9.4159
18124	13.856	1.8182	5.e-002	4.797
18125	14.132	1.8182	0.	10.207
18126	14.04	1.7273	0.	10.043
18127	14.04	1.8182	5.e-002	4.7762
18128	14.317	1.8182	0.	10.821
18129	14.224	1.7273	0.	10.651
18130	14.224	1.8182	5.e-002	4.7556
18131	14.501	1.8182	0.	11.42
18132	14.409	1.7273	0.	11.241
18133	14.409	1.8182	5.e-002	4.735
18134	14.686	1.8182	0.	12.008
18135	14.593	1.7273	0.	11.819
18136	14.593	1.8182	5.e-002	4.7147
18137	14.87	1.8182	0.	12.588
18138	14.778	1.7273	0.	12.388
18139	14.778	1.8182	5.e-002	4.6946
18140	15.054	1.8182	0.	13.163
18141	14.962	1.7273	0.	12.95
18142	14.962	1.8182	5.e-002	4.6745
18143	15.239	1.8182	0.	13.737
18144	15.147	1.7273	0.	13.51
18145	15.147	1.8182	5.e-002	4.6547
18146	15.423	1.8182	0.	14.314
18147	15.331	1.7273	0.	14.071
18148	15.331	1.8182	5.e-002	4.635
18149	15.608	1.8182	0.	14.897
18150	15.516	1.7273	0.	14.636
18151	15.516	1.8182	5.e-002	4.6154
18152	15.792	1.8182	0.	15.49
18153	15.7	1.7273	0.	15.208
18154	15.7	1.8182	5.e-002	4.596
18155	15.977	1.8182	0.	16.096
18156	15.884	1.7273	0.	15.792
18157	15.884	1.8182	5.e-002	4.5768
18158	16.161	1.8182	0.	16.718
18159	16.069	1.7273	0.	16.39
18160	16.069	1.8182	5.e-002	4.5578
18161	16.346	1.8182	0.	17.362
18162	16.253	1.7273	0.	17.006
18163	16.253	1.8182	5.e-002	4.5389
18164	16.53	1.8182	0.	18.029
18165	16.438	1.7273	0.	17.644
18166	16.438	1.8182	5.e-002	4.5202
18167	16.714	1.8182	0.	18.725
18168	16.622	1.7273	0.	18.307
18169	16.622	1.8182	5.e-002	4.5016
18170	16.899	1.8182	0.	19.454
18171	16.807	1.7273	0.	18.999
18172	16.807	1.8182	5.e-002	4.4833
18173	17.083	1.8182	0.	20.22
18174	16.991	1.7273	0.	19.725
18175	16.991	1.8182	5.e-002	4.4652
18176	17.268	1.8182	0.	21.028
18177	17.176	1.7273	0.	20.489
18178	17.176	1.8182	5.e-002	4.4472
18179	17.452	1.8182	0.	21.882
18180	17.36	1.7273	0.	21.295
18181	17.36	1.8182	5.e-002	4.4296
18182	17.637	1.8182	0.	22.787
18183	17.544	1.7273	0.	22.149
18184	17.544	1.8182	5.e-002	4.4122
18185	17.821	1.8182	0.	23.75
18186	17.729	1.7273	0.	23.054
18187	17.729	1.8182	5.e-002	4.395
18188	18.006	1.8182	0.	24.775
18189	17.913	1.7273	0.	24.017
18190	17.913	1.8182	5.e-002	4.3781
18191	18.19	1.8182	0.	25.87
18192	18.098	1.7273	0.	25.043
18193	18.098	1.8182	5.e-002	4.3615
18194	18.374	1.8182	0.	27.04
18195	18.282	1.7273	0.	26.138
18196	18.282	1.8182	5.e-002	4.3453
18197	18.559	1.8182	0.	28.292
18198	18.467	1.7273	0.	27.309
18199	18.467	1.8182	5.e-002	4.3294
18200	18.743	1.8182	0.	29.635
18201	18.651	1.7273	0.	28.563
18202	18.651	1.8182	5.e-002	4.3139
18203	18.928	1.8182	0.	31.075
18204	18.836	1.7273	0.	29.907
18205	18.836	1.8182	5.e-002	4.2988
18206	19.112	1.8182	0.	32.623
18207	19.02	1.7273	0.	31.349
18208	19.02	1.8182	5.e-002	4.2842
18209	19.297	1.8182	0.	34.286
18210	19.204	1.7273	0.	32.897
18211	19.204	1.8182	5.e-002	4.27
18212	19.481	1.8182	0.	36.076
18213	19.389	1.7273	0.	34.561
18214	19.389	1.8182	5.e-002	4.2565
18215	19.666	1.8182	0.	38.002
18216	19.573	1.7273	0.	36.351
18217	19.573	1.8182	5.e-002	4.2435
18218	19.85	1.8182	0.	40.077
18219	19.758	1.7273	0.	38.277
18220	19.758	1.8182	5.e-002	4.2312
18221	20.034	1.8182	0.	42.313
18222	19.942	1.7273	0.	40.352
18223	19.942	1.8182	5.e-002	4.2196
18224	20.219	1.8182	0.	44.724
18225	20.127	1.7273	0.	42.587
18226	20.127	1.8182	5.e-002	4.2088
18227	20.403	1.8182	0.	47.324
18228	20.311	1.7273	0.	44.996
18229	20.311	1.8182	5.e-002	4.1989
18230	20.588	1.8182	0.	50.131
18231	20.496	1.7273	0.	47.595
18232	20.496	1.8182	5.e-002	4.1901
18233	20.772	1.8182	0.	53.16
18234	20.68	1.7273	0.	50.399
18235	20.68	1.8182	5.e-002	4.1823
18236	20.957	1.8182	0.	56.432
18237	20.864	1.7273	0.	53.427
18238	20.864	1.8182	5.e-002	4.1757
18239	21.141	1.8182	0.	59.968
18240	21.049	1.7273	0.	56.698
18241	21.049	1.8182	5.e-002	4.1706
18242	21.326	1.8182	0.	63.79
18243	21.233	1.7273	0.	60.234
18244	21.233	1.8182	5.e-002	4.167
18245	21.51	1.8182	0.	67.922
18246	21.418	1.7273	0.	64.058
18247	21.418	1.8182	5.e-002	4.1653
18248	21.694	1.8182	0.	72.393
18249	21.602	1.7273	0.	68.197
18250	21.602	1.8182	5.e-002	4.1656
18251	21.879	1.8182	0.	77.232
18252	21.787	1.7273	0.	72.68
18253	21.787	1.8182	5.e-002	4.1682
18254	22.063	1.8182	0.	82.469
18255	21.971	1.7273	0.	77.538
18256	21.971	1.8182	5.e-002	4.1736
18257	22.248	1.8182	0.	88.14
18258	22.156	1.7273	0.	82.806
18259	22.156	1.8182	5.e-002	4.1821
18260	22.432	1.8182	0.	94.278
18261	22.34	1.7273	0.	88.521
18262	22.34	1.8182	5.e-002	4.1942
18263	22.617	1.8182	0.	100.92
18264	22.524	1.7273	0.	94.723
18265	22.524	1.8182	5.e-002	4.2106
18266	22.801	1.8182	0.	108.09
18267	22.709	1.7273	0.	101.45
18268	22.709	1.8182	5.e-002	4.2318
18269	22.986	1.8182	0.	115.84
18270	22.893	1.7273	0.	108.74
18271	22.893	1.8182	5.e-002	4.2586
18272	23.17	1.8182	0.	124.17
18273	23.078	1.7273	0.	116.63
18274	23.078	1.8182	5.e-002	4.2918
18275	23.354	1.8182	0.	133.1
18276	23.262	1.7273	0.	125.14
18277	23.262	1.8182	5.e-002	4.3318
18278	23.539	1.8182	0.	142.66
18279	23.447	1.7273	0.	134.28
18280	23.447	1.8182	5.e-002	4.379
18281	23.723	1.8182	0.	152.77
18282	23.631	1.7273	0.	144.1
18283	23.631	1.8182	5.e-002	4.4355
18284	23.816	1.7273	0.	154.42
18285	23.816	1.8182	5.e-002	4.5368
18286	23.908	1.8182	0.	162.68
18287	2.1433	1.6364	0.	3087.2
18288	2.0511	1.5455	0.	3698.6
18289	2.0511	1.6364	5.e-002	311.33
18290	1.9589	1.6364	0.	3451.3
18291	2.3278	1.6364	0.	1606.8
18292	2.2356	1.5455	0.	2027.5
18293	2.2356	1.6364	5.e-002	124.83
18294	2.5122	1.6364	0.	834.08
18295	2.42	1.5455	0.	1142.5
18296	2.42	1.6364	5.e-002	78.813
18297	2.6967	1.6364	0.	402.4
18298	2.6044	1.5455	0.	622.14
18299	2.6044	1.6364	5.e-002	56.44
18300	2.8811	1.6364	0.	153.05
18301	2.7889	1.5455	0.	308.7
18302	2.7889	1.6364	5.e-002	43.827
18303	3.0656	1.6364	0.	28.499
18304	2.9733	1.5455	0.	122.17
18305	2.9733	1.6364	5.e-002	35.827
18306	3.25	1.6364	0.	6.5528
18307	3.1578	1.5455	0.	25.455
18308	3.1578	1.6364	5.e-002	29.758
18309	3.4344	1.6364	0.	3.0623
18310	3.3422	1.5455	0.	6.2524
18311	3.3422	1.6364	5.e-002	25.027
18312	3.6189	1.6364	0.	1.7948
18313	3.5267	1.5455	0.	2.9112
18314	3.5267	1.6364	5.e-002	21.252
18315	3.8033	1.6364	0.	1.1631
18316	3.7111	1.5455	0.	1.6984
18317	3.7111	1.6364	5.e-002	18.205
18318	3.9878	1.6364	0.	0.79431
18319	3.8956	1.5455	0.	1.0929
18320	3.8956	1.6364	5.e-002	15.735
18321	4.1722	1.6364	0.	0.56014
18322	4.08	1.5455	0.	0.74202
18323	4.08	1.6364	5.e-002	13.733
18324	4.3567	1.6364	0.	0.40346
18325	4.2644	1.5455	0.	0.52071
18326	4.2644	1.6364	5.e-002	12.116
18327	4.5411	1.6364	0.	0.29511
18328	4.4489	1.5455	0.	0.37383
18329	4.4489	1.6364	5.e-002	10.818
18330	4.7256	1.6364	0.	0.21846
18331	4.6333	1.5455	0.	0.27298
18332	4.6333	1.6364	5.e-002	9.782
18333	4.91	1.6364	0.	0.16333
18334	4.8178	1.5455	0.	0.20209
18335	4.8178	1.6364	5.e-002	8.9608
18336	5.0944	1.6364	0.	0.12318
18337	5.0022	1.5455	0.	0.15134
18338	5.0022	1.6364	5.e-002	8.3132
18339	5.2789	1.6364	0.	9.3648e-002
18340	5.1867	1.5455	0.	0.11452
18341	5.1867	1.6364	5.e-002	7.8038
18342	5.4633	1.6364	0.	7.1741e-002
18343	5.3711	1.5455	0.	8.7482e-002
18344	5.3711	1.6364	5.e-002	7.4031
18345	5.6478	1.6364	0.	5.5373e-002
18346	5.5556	1.5455	0.	6.7425e-002
18347	5.5556	1.6364	5.e-002	7.0869
18348	5.8322	1.6364	0.	4.3069e-002
18349	5.74	1.5455	0.	5.2429e-002
18350	5.74	1.6364	5.e-002	6.8356
18351	6.0167	1.6364	0.	3.3763e-002
18352	5.9244	1.5455	0.	4.1125e-002
18353	5.9244	1.6364	5.e-002	6.6338
18354	6.2011	1.6364	0.	2.6691e-002
18355	6.1089	1.5455	0.	3.254e-002
18356	6.1089	1.6364	5.e-002	6.4696
18357	6.3856	1.6364	0.	2.1298e-002
18358	6.2933	1.5455	0.	2.5991e-002
18359	6.2933	1.6364	5.e-002	6.334
18360	6.57	1.6364	0.	1.7164e-002
18361	6.4778	1.5455	0.	2.0964e-002
18362	6.4778	1.6364	5.e-002	6.2202
18363	6.7544	1.6364	0.	1.3989e-002
18364	6.6622	1.5455	0.	1.708e-002
18365	6.6622	1.6364	5.e-002	6.1231
18366	6.9389	1.6364	0.	1.1548e-002
18367	6.8467	1.5455	0.	1.408e-002
18368	6.8467	1.6364	5.e-002	6.0389
18369	7.1233	1.6364	0.	9.6634e-003
18370	7.0311	1.5455	0.	1.1751e-002
18371	7.0311	1.6364	5.e-002	5.9647
18372	7.3078	1.6364	0.	8.2105e-003
18373	7.2156	1.5455	0.	9.9307e-003
18374	7.2156	1.6364	5.e-002	5.8985
18375	7.4922	1.6364	0.	7.0946e-003
18376	7.4	1.5455	0.	8.5181e-003
18377	7.4	1.6364	5.e-002	5.8385
18378	7.6767	1.6364	0.	6.2345e-003
18379	7.5844	1.5455	0.	7.4169e-003
18380	7.5844	1.6364	5.e-002	5.7837
18381	7.8611	1.6364	0.	5.5768e-003
18382	7.7689	1.5455	0.	6.5535e-003
18383	7.7689	1.6364	5.e-002	5.7331
18384	8.0456	1.6364	0.	5.081e-003
18385	7.9533	1.5455	0.	5.8883e-003
18386	7.9533	1.6364	5.e-002	5.686
18387	8.23	1.6364	0.	4.7064e-003
18388	8.1378	1.5455	0.	5.3746e-003
18389	8.1378	1.6364	5.e-002	5.6418
18390	8.4144	1.6364	0.	4.4305e-003
18391	8.3222	1.5455	0.	4.9756e-003
18392	8.3222	1.6364	5.e-002	5.6001
18393	8.5989	1.6364	0.	4.2372e-003
18394	8.5067	1.5455	0.	4.6801e-003
18395	8.5067	1.6364	5.e-002	5.5606
18396	8.7833	1.6364	0.	4.1043e-003
18397	8.6911	1.5455	0.	4.4634e-003
18398	8.6911	1.6364	5.e-002	5.5229
18399	8.9678	1.6364	0.	4.0234e-003
18400	8.8756	1.5455	0.	4.3045e-003
18401	8.8756	1.6364	5.e-002	5.4869
18402	9.1522	1.6364	0.	3.9893e-003
18403	9.06	1.5455	0.	4.2065e-003
18404	9.06	1.6364	5.e-002	5.4524
18405	9.3367	1.6364	0.	3.9892e-003
18406	9.2444	1.5455	0.	4.155e-003
18407	9.2444	1.6364	5.e-002	5.4192
18408	9.5211	1.6364	0.	4.025e-003
18409	9.4289	1.5455	0.	4.1377e-003
18410	9.4289	1.6364	5.e-002	5.3871
18411	9.7056	1.6364	0.	4.0879e-003
18412	9.6133	1.5455	0.	4.1717e-003
18413	9.6133	1.6364	5.e-002	5.3561
18414	9.89	1.6364	0.	4.1752e-003
18415	9.7978	1.5455	0.	4.2218e-003
18416	9.7978	1.6364	5.e-002	5.3261
18417	10.074	1.6364	0.	4.3271e-003
18418	9.9822	1.5455	0.	4.3195e-003
18419	9.9822	1.6364	5.e-002	5.2969
18420	10.259	1.6364	0.	4.5239e-003
18421	10.167	1.5455	0.	4.5181e-003
18422	10.167	1.6364	5.e-002	5.2685
18423	10.443	1.6364	0.	4.7454e-003
18424	10.351	1.5455	0.	4.7303e-003
18425	10.351	1.6364	5.e-002	5.2409
18426	10.628	1.6364	0.	5.05e-003
18427	10.536	1.5455	0.	5.013e-003
18428	10.536	1.6364	5.e-002	5.2138
18429	10.812	1.6364	0.	5.473e-003
18430	10.72	1.5455	0.	5.4474e-003
18431	10.72	1.6364	5.e-002	5.1874
18432	10.997	1.6364	0.	6.0861e-003
18433	10.904	1.5455	0.	6.0682e-003
18434	10.904	1.6364	5.e-002	5.1615
18435	11.181	1.6364	0.	7.0963e-003
18436	11.089	1.5455	0.	7.0942e-003
18437	11.089	1.6364	5.e-002	5.1362
18438	11.366	1.6364	0.	8.9927e-003
18439	11.273	1.5455	0.	9.0726e-003
18440	11.273	1.6364	5.e-002	5.1113
18441	11.55	1.6364	0.	1.3983e-002
18442	11.458	1.5455	0.	1.415e-002
18443	11.458	1.6364	5.e-002	5.0868
18444	11.734	1.6364	0.	6.1479e-002
18445	11.642	1.5455	0.	5.5733e-002
18446	11.642	1.6364	5.e-002	5.0628
18447	11.919	1.6364	0.	0.97158
18448	11.827	1.5455	0.	0.91443
18449	11.827	1.6364	5.e-002	5.039
18450	12.103	1.6364	0.	2.0424
18451	12.011	1.5455	0.	1.9801
18452	12.011	1.6364	5.e-002	5.0157
18453	12.288	1.6364	0.	3.0495
18454	12.196	1.5455	0.	2.983
18455	12.196	1.6364	5.e-002	4.9926
18456	12.472	1.6364	0.	3.9946
18457	12.38	1.5455	0.	3.924
18458	12.38	1.6364	5.e-002	4.9699
18459	12.657	1.6364	0.	4.8825
18460	12.564	1.5455	0.	4.8077
18461	12.564	1.6364	5.e-002	4.9474
18462	12.841	1.6364	0.	5.7187
18463	12.749	1.5455	0.	5.6394
18464	12.749	1.6364	5.e-002	4.9252
18465	13.026	1.6364	0.	6.5081
18466	12.933	1.5455	0.	6.4239
18467	12.933	1.6364	5.e-002	4.9033
18468	13.21	1.6364	0.	7.2555
18469	13.118	1.5455	0.	7.166
18470	13.118	1.6364	5.e-002	4.8815
18471	13.394	1.6364	0.	7.9654
18472	13.302	1.5455	0.	7.8701
18473	13.302	1.6364	5.e-002	4.8599
18474	13.579	1.6364	0.	8.6423
18475	13.487	1.5455	0.	8.5405
18476	13.487	1.6364	5.e-002	4.8386
18477	13.763	1.6364	0.	9.2902
18478	13.671	1.5455	0.	9.1813
18479	13.671	1.6364	5.e-002	4.8174
18480	13.948	1.6364	0.	9.913
18481	13.856	1.5455	0.	9.7962
18482	13.856	1.6364	5.e-002	4.7965
18483	14.132	1.6364	0.	10.514
18484	14.04	1.5455	0.	10.389
18485	14.04	1.6364	5.e-002	4.7757
18486	14.317	1.6364	0.	11.098
18487	14.224	1.5455	0.	10.963
18488	14.224	1.6364	5.e-002	4.755
18489	14.501	1.6364	0.	11.668
18490	14.409	1.5455	0.	11.522
18491	14.409	1.6364	5.e-002	4.7345
18492	14.686	1.6364	0.	12.227
18493	14.593	1.5455	0.	12.07
18494	14.593	1.6364	5.e-002	4.7143
18495	14.87	1.6364	0.	12.779
18496	14.778	1.5455	0.	12.608
18497	14.778	1.6364	5.e-002	4.6941
18498	15.054	1.6364	0.	13.326
18499	14.962	1.5455	0.	13.142
18500	14.962	1.6364	5.e-002	4.6741
18501	15.239	1.6364	0.	13.873
18502	15.147	1.5455	0.	13.672
18503	15.147	1.6364	5.e-002	4.6543
18504	15.423	1.6364	0.	14.422
18505	15.331	1.5455	0.	14.204
18506	15.331	1.6364	5.e-002	4.6346
18507	15.608	1.6364	0.	14.977
18508	15.516	1.5455	0.	14.74
18509	15.516	1.6364	5.e-002	4.615
18510	15.792	1.6364	0.	15.541
18511	15.7	1.5455	0.	15.283
18512	15.7	1.6364	5.e-002	4.5956
18513	15.977	1.6364	0.	16.117
18514	15.884	1.5455	0.	15.836
18515	15.884	1.6364	5.e-002	4.5764
18516	16.161	1.6364	0.	16.709
18517	16.069	1.5455	0.	16.402
18518	16.069	1.6364	5.e-002	4.5574
18519	16.346	1.6364	0.	17.32
18520	16.253	1.5455	0.	16.985
18521	16.253	1.6364	5.e-002	4.5385
18522	16.53	1.6364	0.	17.954
18523	16.438	1.5455	0.	17.588
18524	16.438	1.6364	5.e-002	4.5197
18525	16.714	1.6364	0.	18.614
18526	16.622	1.5455	0.	18.214
18527	16.622	1.6364	5.e-002	4.5012
18528	16.899	1.6364	0.	19.304
18529	16.807	1.5455	0.	18.868
18530	16.807	1.6364	5.e-002	4.4828
18531	17.083	1.6364	0.	20.028
18532	16.991	1.5455	0.	19.552
18533	16.991	1.6364	5.e-002	4.4647
18534	17.268	1.6364	0.	20.791
18535	17.176	1.5455	0.	20.271
18536	17.176	1.6364	5.e-002	4.4468
18537	17.452	1.6364	0.	21.597
18538	17.36	1.5455	0.	21.028
18539	17.36	1.6364	5.e-002	4.4291
18540	17.637	1.6364	0.	22.451
18541	17.544	1.5455	0.	21.829
18542	17.544	1.6364	5.e-002	4.4116
18543	17.821	1.6364	0.	23.357
18544	17.729	1.5455	0.	22.678
18545	17.729	1.6364	5.e-002	4.3944
18546	18.006	1.6364	0.	24.321
18547	17.913	1.5455	0.	23.579
18548	17.913	1.6364	5.e-002	4.3775
18549	18.19	1.6364	0.	25.348
18550	18.098	1.5455	0.	24.538
18551	18.098	1.6364	5.e-002	4.3609
18552	18.374	1.6364	0.	26.445
18553	18.282	1.5455	0.	25.56
18554	18.282	1.6364	5.e-002	4.3446
18555	18.559	1.6364	0.	27.618
18556	18.467	1.5455	0.	26.651
18557	18.467	1.6364	5.e-002	4.3286
18558	18.743	1.6364	0.	28.873
18559	18.651	1.5455	0.	27.817
18560	18.651	1.6364	5.e-002	4.3131
18561	18.928	1.6364	0.	30.218
18562	18.836	1.5455	0.	29.065
18563	18.836	1.6364	5.e-002	4.2979
18564	19.112	1.6364	0.	31.661
18565	19.02	1.5455	0.	30.402
18566	19.02	1.6364	5.e-002	4.2832
18567	19.297	1.6364	0.	33.211
18568	19.204	1.5455	0.	31.837
18569	19.204	1.6364	5.e-002	4.2689
18570	19.481	1.6364	0.	34.876
18571	19.389	1.5455	0.	33.376
18572	19.389	1.6364	5.e-002	4.2553
18573	19.666	1.6364	0.	36.666
18574	19.573	1.5455	0.	35.029
18575	19.573	1.6364	5.e-002	4.2422
18576	19.85	1.6364	0.	38.592
18577	19.758	1.5455	0.	36.806
18578	19.758	1.6364	5.e-002	4.2297
18579	20.034	1.6364	0.	40.666
18580	19.942	1.5455	0.	38.717
18581	19.942	1.6364	5.e-002	4.2179
18582	20.219	1.6364	0.	42.9
18583	20.127	1.5455	0.	40.774
18584	20.127	1.6364	5.e-002	4.2069
18585	20.403	1.6364	0.	45.308
18586	20.311	1.5455	0.	42.989
18587	20.311	1.6364	5.e-002	4.1968
18588	20.588	1.6364	0.	47.905
18589	20.496	1.5455	0.	45.376
18590	20.496	1.6364	5.e-002	4.1876
18591	20.772	1.6364	0.	50.708
18592	20.68	1.5455	0.	47.951
18593	20.68	1.6364	5.e-002	4.1794
18594	20.957	1.6364	0.	53.734
18595	20.864	1.5455	0.	50.729
18596	20.864	1.6364	5.e-002	4.1724
18597	21.141	1.6364	0.	57.005
18598	21.049	1.5455	0.	53.729
18599	21.049	1.6364	5.e-002	4.1668
18600	21.326	1.6364	0.	60.543
18601	21.233	1.5455	0.	56.973
18602	21.233	1.6364	5.e-002	4.1626
18603	21.51	1.6364	0.	64.373
18604	21.418	1.5455	0.	60.484
18605	21.418	1.6364	5.e-002	4.1602
18606	21.694	1.6364	0.	68.523
18607	21.602	1.5455	0.	64.288
18608	21.602	1.6364	5.e-002	4.1596
18609	21.879	1.6364	0.	73.024
18610	21.787	1.5455	0.	68.415
18611	21.787	1.6364	5.e-002	4.1613
18612	22.063	1.6364	0.	77.911
18613	21.971	1.5455	0.	72.899
18614	21.971	1.6364	5.e-002	4.1656
18615	22.248	1.6364	0.	83.221
18616	22.156	1.5455	0.	77.777
18617	22.156	1.6364	5.e-002	4.1729
18618	22.432	1.6364	0.	88.998
18619	22.34	1.5455	0.	83.093
18620	22.34	1.6364	5.e-002	4.1838
18621	22.617	1.6364	0.	95.283
18622	22.524	1.5455	0.	88.893
18623	22.524	1.6364	5.e-002	4.1989
18624	22.801	1.6364	0.	102.12
18625	22.709	1.5455	0.	95.227
18626	22.709	1.6364	5.e-002	4.2191
18627	22.986	1.6364	0.	109.55
18628	22.893	1.5455	0.	102.15
18629	22.893	1.6364	5.e-002	4.2452
18630	23.17	1.6364	0.	117.62
18631	23.078	1.5455	0.	109.7
18632	23.078	1.6364	5.e-002	4.2782
18633	23.354	1.6364	0.	126.33
18634	23.262	1.5455	0.	117.93
18635	23.262	1.6364	5.e-002	4.3191
18636	23.539	1.6364	0.	135.74
18637	23.447	1.5455	0.	126.84
18638	23.447	1.6364	5.e-002	4.3684
18639	23.723	1.6364	0.	145.77
18640	23.631	1.5455	0.	136.52
18641	23.631	1.6364	5.e-002	4.4292
18642	23.816	1.5455	0.	146.79
18643	23.816	1.6364	5.e-002	4.5472
18644	23.908	1.6364	0.	155.58
18645	2.1433	1.4545	0.	2508.4
18646	2.0511	1.3636	0.	2833.9
18647	2.0511	1.4545	5.e-002	203.21
18648	1.9589	1.4545	0.	2672.7
18649	2.3278	1.4545	0.	1518.8
18650	2.2356	1.3636	0.	1760.9
18651	2.2356	1.4545	5.e-002	125.28
18652	2.5122	1.4545	0.	906.82
18653	2.42	1.3636	0.	1106.3
18654	2.42	1.4545	5.e-002	75.116
18655	2.6967	1.4545	0.	514.78
18656	2.6044	1.3636	0.	673.06
18657	2.6044	1.4545	5.e-002	53.168
18658	2.8811	1.4545	0.	269.73
18659	2.7889	1.3636	0.	393.16
18660	2.7889	1.4545	5.e-002	40.132
18661	3.0656	1.4545	0.	117.97
18662	2.9733	1.3636	0.	214.13
18663	2.9733	1.4545	5.e-002	32.171
18664	3.25	1.4545	0.	31.525
18665	3.1578	1.3636	0.	99.745
18666	3.1578	1.4545	5.e-002	26.47
18667	3.4344	1.4545	0.	7.176
18668	3.3422	1.3636	0.	31.004
18669	3.3422	1.4545	5.e-002	22.138
18670	3.6189	1.4545	0.	3.0834
18671	3.5267	1.3636	0.	7.3787
18672	3.5267	1.4545	5.e-002	18.716
18673	3.8033	1.4545	0.	1.7291
18674	3.7111	1.3636	0.	3.0265
18675	3.7111	1.4545	5.e-002	15.978
18676	3.9878	1.4545	0.	1.0865
18677	3.8956	1.3636	0.	1.6485
18678	3.8956	1.4545	5.e-002	13.782
18679	4.1722	1.4545	0.	0.72578
18680	4.08	1.3636	0.	1.0163
18681	4.08	1.4545	5.e-002	12.029
18682	4.3567	1.4545	0.	0.5036
18683	4.2644	1.3636	0.	0.66994
18684	4.2644	1.4545	5.e-002	10.641
18685	4.5411	1.4545	0.	0.3588
18686	4.4489	1.3636	0.	0.4608
18687	4.4489	1.4545	5.e-002	9.5534
18688	4.7256	1.4545	0.	0.26082
18689	4.6333	1.3636	0.	0.32664
18690	4.6333	1.4545	5.e-002	8.7108
18691	4.91	1.4545	0.	0.1927
18692	4.8178	1.3636	0.	0.23695
18693	4.8178	1.4545	5.e-002	8.0643
18694	5.0944	1.4545	0.	0.14435
18695	5.0022	1.3636	0.	0.17515
18696	5.0022	1.4545	5.e-002	7.5716
18697	5.2789	1.4545	0.	0.10946
18698	5.1867	1.3636	0.	0.13156
18699	5.1867	1.4545	5.e-002	7.197
18700	5.4633	1.4545	0.	8.3934e-002
18701	5.3711	1.3636	0.	0.10023
18702	5.3711	1.4545	5.e-002	6.9111
18703	5.6478	1.4545	0.	6.5033e-002
18704	5.5556	1.3636	0.	7.7321e-002
18705	5.5556	1.4545	5.e-002	6.6909
18706	5.8322	1.4545	0.	5.0895e-002
18707	5.74	1.3636	0.	6.0358e-002
18708	5.74	1.4545	5.e-002	6.5186
18709	6.0167	1.4545	0.	4.0216e-002
18710	5.9244	1.3636	0.	4.7637e-002
18711	5.9244	1.4545	5.e-002	6.3812
18712	6.2011	1.4545	0.	3.2085e-002
18713	6.1089	1.3636	0.	3.7986e-002
18714	6.1089	1.4545	5.e-002	6.2689
18715	6.3856	1.4545	0.	2.5853e-002
18716	6.2933	1.3636	0.	3.0608e-002
18717	6.2933	1.4545	5.e-002	6.1748
18718	6.57	1.4545	0.	2.1039e-002
18719	6.4778	1.3636	0.	2.4915e-002
18720	6.4778	1.4545	5.e-002	6.094
18721	6.7544	1.4545	0.	1.7303e-002
18722	6.6622	1.3636	0.	2.0483e-002
18723	6.6622	1.4545	5.e-002	6.0231
18724	6.9389	1.4545	0.	1.4392e-002
18725	6.8467	1.3636	0.	1.7021e-002
18726	6.8467	1.4545	5.e-002	5.9595
18727	7.1233	1.4545	0.	1.2108e-002
18728	7.0311	1.3636	0.	1.4298e-002
18729	7.0311	1.4545	5.e-002	5.9017
18730	7.3078	1.4545	0.	1.0313e-002
18731	7.2156	1.3636	0.	1.2138e-002
18732	7.2156	1.4545	5.e-002	5.8483
18733	7.4922	1.4545	0.	8.9031e-003
18734	7.4	1.3636	0.	1.0429e-002
18735	7.4	1.4545	5.e-002	5.7985
18736	7.6767	1.4545	0.	7.7878e-003
18737	7.5844	1.3636	0.	9.0684e-003
18738	7.5844	1.4545	5.e-002	5.7516
18739	7.8611	1.4545	0.	6.9077e-003
18740	7.7689	1.3636	0.	7.9765e-003
18741	7.7689	1.4545	5.e-002	5.7072
18742	8.0456	1.4545	0.	6.2166e-003
18743	7.9533	1.3636	0.	7.11e-003
18744	7.9533	1.4545	5.e-002	5.665
18745	8.23	1.4545	0.	5.6715e-003
18746	8.1378	1.3636	0.	6.4179e-003
18747	8.1378	1.4545	5.e-002	5.6247
18748	8.4144	1.4545	0.	5.2465e-003
18749	8.3222	1.3636	0.	5.8611e-003
18750	8.3222	1.4545	5.e-002	5.5861
18751	8.5989	1.4545	0.	4.922e-003
18752	8.5067	1.3636	0.	5.4259e-003
18753	8.5067	1.4545	5.e-002	5.549
18754	8.7833	1.4545	0.	4.6743e-003
18755	8.6911	1.3636	0.	5.0859e-003
18756	8.6911	1.4545	5.e-002	5.5133
18757	8.9678	1.4545	0.	4.4938e-003
18758	8.8756	1.3636	0.	4.8188e-003
18759	8.8756	1.4545	5.e-002	5.4788
18760	9.1522	1.4545	0.	4.3742e-003
18761	9.06	1.3636	0.	4.627e-003
18762	9.06	1.4545	5.e-002	5.4456
18763	9.3367	1.4545	0.	4.3017e-003
18764	9.2444	1.3636	0.	4.4959e-003
18765	9.2444	1.4545	5.e-002	5.4133
18766	9.5211	1.4545	0.	4.2792e-003
18767	9.4289	1.3636	0.	4.4123e-003
18768	9.4289	1.4545	5.e-002	5.3821
18769	9.7056	1.4545	0.	4.2974e-003
18770	9.6133	1.3636	0.	4.3951e-003
18771	9.6133	1.4545	5.e-002	5.3517
18772	9.89	1.4545	0.	4.3552e-003
18773	9.7978	1.3636	0.	4.41e-003
18774	9.7978	1.4545	5.e-002	5.3222
18775	10.074	1.4545	0.	4.4973e-003
18776	9.9822	1.3636	0.	4.493e-003
18777	9.9822	1.4545	5.e-002	5.2934
18778	10.259	1.4545	0.	4.7097e-003
18779	10.167	1.3636	0.	4.7041e-003
18780	10.167	1.4545	5.e-002	5.2654
18781	10.443	1.4545	0.	4.9824e-003
18782	10.351	1.3636	0.	4.9677e-003
18783	10.351	1.4545	5.e-002	5.2381
18784	10.628	1.4545	0.	5.3958e-003
18785	10.536	1.3636	0.	5.3635e-003
18786	10.536	1.4545	5.e-002	5.2114
18787	10.812	1.4545	0.	6.0318e-003
18788	10.72	1.3636	0.	6.0263e-003
18789	10.72	1.4545	5.e-002	5.1852
18790	10.997	1.4545	0.	7.0759e-003
18791	10.904	1.3636	0.	7.1188e-003
18792	10.904	1.4545	5.e-002	5.1595
18793	11.181	1.4545	0.	9.0958e-003
18794	11.089	1.3636	0.	9.2712e-003
18795	11.089	1.4545	5.e-002	5.1343
18796	11.366	1.4545	0.	1.4315e-002
18797	11.273	1.3636	0.	1.5065e-002
18798	11.273	1.4545	5.e-002	5.1096
18799	11.55	1.4545	0.	5.3894e-002
18800	11.458	1.3636	0.	6.4038e-002
18801	11.458	1.4545	5.e-002	5.0853
18802	11.734	1.4545	0.	0.88248
18803	11.642	1.3636	0.	0.92599
18804	11.642	1.4545	5.e-002	5.0613
18805	11.919	1.4545	0.	1.9437
18806	11.827	1.3636	0.	1.9763
18807	11.827	1.4545	5.e-002	5.0377
18808	12.103	1.4545	0.	2.943
18809	12.011	1.3636	0.	2.965
18810	12.011	1.4545	5.e-002	5.0145
18811	12.288	1.4545	0.	3.8805
18812	12.196	1.3636	0.	3.8923
18813	12.196	1.4545	5.e-002	4.9915
18814	12.472	1.4545	0.	4.7607
18815	12.38	1.3636	0.	4.7628
18816	12.38	1.4545	5.e-002	4.9688
18817	12.657	1.4545	0.	5.5885
18818	12.564	1.3636	0.	5.5812
18819	12.564	1.4545	5.e-002	4.9464
18820	12.841	1.4545	0.	6.3689
18821	12.749	1.3636	0.	6.3523
18822	12.749	1.4545	5.e-002	4.9243
18823	13.026	1.4545	0.	7.1066
18824	12.933	1.3636	0.	7.0807
18825	12.933	1.4545	5.e-002	4.9024
18826	13.21	1.4545	0.	7.8058
18827	13.118	1.3636	0.	7.7706
18828	13.118	1.4545	5.e-002	4.8807
18829	13.394	1.4545	0.	8.4708
18830	13.302	1.3636	0.	8.4261
18831	13.302	1.4545	5.e-002	4.8591
18832	13.579	1.4545	0.	9.1055
18833	13.487	1.3636	0.	9.0511
18834	13.487	1.4545	5.e-002	4.8379
18835	13.763	1.4545	0.	9.7137
18836	13.671	1.3636	0.	9.6492
18837	13.671	1.4545	5.e-002	4.8168
18838	13.948	1.4545	0.	10.299
18839	13.856	1.3636	0.	10.224
18840	13.856	1.4545	5.e-002	4.7959
18841	14.132	1.4545	0.	10.865
18842	14.04	1.3636	0.	10.779
18843	14.04	1.4545	5.e-002	4.7751
18844	14.317	1.4545	0.	11.415
18845	14.224	1.3636	0.	11.317
18846	14.224	1.4545	5.e-002	4.7545
18847	14.501	1.4545	0.	11.952
18848	14.409	1.3636	0.	11.841
18849	14.409	1.4545	5.e-002	4.734
18850	14.686	1.4545	0.	12.479
18851	14.593	1.3636	0.	12.355
18852	14.593	1.4545	5.e-002	4.7137
18853	14.87	1.4545	0.	13.
18854	14.778	1.3636	0.	12.861
18855	14.778	1.4545	5.e-002	4.6936
18856	15.054	1.4545	0.	13.517
18857	14.962	1.3636	0.	13.362
18858	14.962	1.4545	5.e-002	4.6736
18859	15.239	1.4545	0.	14.033
18860	15.147	1.3636	0.	13.861
18861	15.147	1.4545	5.e-002	4.6538
18862	15.423	1.4545	0.	14.552
18863	15.331	1.3636	0.	14.361
18864	15.331	1.4545	5.e-002	4.6341
18865	15.608	1.4545	0.	15.076
18866	15.516	1.3636	0.	14.865
18867	15.516	1.4545	5.e-002	4.6146
18868	15.792	1.4545	0.	15.608
18869	15.7	1.3636	0.	15.375
18870	15.7	1.4545	5.e-002	4.5952
18871	15.977	1.4545	0.	16.151
18872	15.884	1.3636	0.	15.895
18873	15.884	1.4545	5.e-002	4.576
18874	16.161	1.4545	0.	16.709
18875	16.069	1.3636	0.	16.427
18876	16.069	1.4545	5.e-002	4.5569
18877	16.346	1.4545	0.	17.285
18878	16.253	1.3636	0.	16.974
18879	16.253	1.4545	5.e-002	4.538
18880	16.53	1.4545	0.	17.881
18881	16.438	1.3636	0.	17.539
18882	16.438	1.4545	5.e-002	4.5193
18883	16.714	1.4545	0.	18.501
18884	16.622	1.3636	0.	18.126
18885	16.622	1.4545	5.e-002	4.5007
18886	16.899	1.4545	0.	19.149
18887	16.807	1.3636	0.	18.737
18888	16.807	1.4545	5.e-002	4.4823
18889	17.083	1.4545	0.	19.828
18890	16.991	1.3636	0.	19.375
18891	16.991	1.4545	5.e-002	4.4642
18892	17.268	1.4545	0.	20.542
18893	17.176	1.3636	0.	20.046
18894	17.176	1.4545	5.e-002	4.4462
18895	17.452	1.4545	0.	21.295
18896	17.36	1.3636	0.	20.751
18897	17.36	1.4545	5.e-002	4.4285
18898	17.637	1.4545	0.	22.092
18899	17.544	1.3636	0.	21.495
18900	17.544	1.4545	5.e-002	4.411
18901	17.821	1.4545	0.	22.936
18902	17.729	1.3636	0.	22.282
18903	17.729	1.4545	5.e-002	4.3937
18904	18.006	1.4545	0.	23.832
18905	17.913	1.3636	0.	23.116
18906	17.913	1.4545	5.e-002	4.3768
18907	18.19	1.4545	0.	24.786
18908	18.098	1.3636	0.	24.002
18909	18.098	1.4545	5.e-002	4.3601
18910	18.374	1.4545	0.	25.803
18911	18.282	1.3636	0.	24.945
18912	18.282	1.4545	5.e-002	4.3437
18913	18.559	1.4545	0.	26.888
18914	18.467	1.3636	0.	25.949
18915	18.467	1.4545	5.e-002	4.3277
18916	18.743	1.4545	0.	28.048
18917	18.651	1.3636	0.	27.021
18918	18.651	1.4545	5.e-002	4.3121
18919	18.928	1.4545	0.	29.289
18920	18.836	1.3636	0.	28.165
18921	18.836	1.4545	5.e-002	4.2968
18922	19.112	1.4545	0.	30.617
18923	19.02	1.3636	0.	29.389
18924	19.02	1.4545	5.e-002	4.282
18925	19.297	1.4545	0.	32.042
18926	19.204	1.3636	0.	30.699
18927	19.204	1.4545	5.e-002	4.2677
18928	19.481	1.4545	0.	33.57
18929	19.389	1.3636	0.	32.103
18930	19.389	1.4545	5.e-002	4.2539
18931	19.666	1.4545	0.	35.21
18932	19.573	1.3636	0.	33.608
18933	19.573	1.4545	5.e-002	4.2406
18934	19.85	1.4545	0.	36.973
18935	19.758	1.3636	0.	35.222
18936	19.758	1.4545	5.e-002	4.228
18937	20.034	1.4545	0.	38.867
18938	19.942	1.3636	0.	36.956
18939	19.942	1.4545	5.e-002	4.216
18940	20.219	1.4545	0.	40.906
18941	20.127	1.3636	0.	38.819
18942	20.127	1.4545	5.e-002	4.2047
18943	20.403	1.4545	0.	43.101
18944	20.311	1.3636	0.	40.822
18945	20.311	1.4545	5.e-002	4.1943
18946	20.588	1.4545	0.	45.466
18947	20.496	1.3636	0.	42.977
18948	20.496	1.4545	5.e-002	4.1848
18949	20.772	1.4545	0.	48.016
18950	20.68	1.3636	0.	45.299
18951	20.68	1.4545	5.e-002	4.1762
18952	20.957	1.4545	0.	50.768
18953	20.864	1.3636	0.	47.802
18954	20.864	1.4545	5.e-002	4.1688
18955	21.141	1.4545	0.	53.742
18956	21.049	1.3636	0.	50.503
18957	21.049	1.4545	5.e-002	4.1626
18958	21.326	1.4545	0.	56.958
18959	21.233	1.3636	0.	53.422
18960	21.233	1.4545	5.e-002	4.1578
18961	21.51	1.4545	0.	60.443
18962	21.418	1.3636	0.	56.582
18963	21.418	1.4545	5.e-002	4.1545
18964	21.694	1.4545	0.	64.224
18965	21.602	1.3636	0.	60.007
18966	21.602	1.4545	5.e-002	4.1531
18967	21.879	1.4545	0.	68.333
18968	21.787	1.3636	0.	63.728
18969	21.787	1.4545	5.e-002	4.1537
18970	22.063	1.4545	0.	72.807
18971	21.971	1.3636	0.	67.779
18972	21.971	1.4545	5.e-002	4.1568
18973	22.248	1.4545	0.	77.689
18974	22.156	1.3636	0.	72.202
18975	22.156	1.4545	5.e-002	4.1627
18976	22.432	1.4545	0.	83.026
18977	22.34	1.3636	0.	77.042
18978	22.34	1.4545	5.e-002	4.1721
18979	22.617	1.4545	0.	88.871
18980	22.524	1.3636	0.	82.354
18981	22.524	1.4545	5.e-002	4.1857
18982	22.801	1.4545	0.	95.282
18983	22.709	1.3636	0.	88.199
18984	22.709	1.4545	5.e-002	4.2043
18985	22.986	1.4545	0.	102.32
18986	22.893	1.3636	0.	94.645
18987	22.893	1.4545	5.e-002	4.2292
18988	23.17	1.4545	0.	110.03
18989	23.078	1.3636	0.	101.76
18990	23.078	1.4545	5.e-002	4.2617
18991	23.354	1.4545	0.	118.45
18992	23.262	1.3636	0.	109.61
18993	23.262	1.4545	5.e-002	4.3032
18994	23.539	1.4545	0.	127.65
18995	23.447	1.3636	0.	118.22
18996	23.447	1.4545	5.e-002	4.3548
18997	23.723	1.4545	0.	137.56
18998	23.631	1.3636	0.	127.7
18999	23.631	1.4545	5.e-002	4.4207
19000	23.816	1.3636	0.	137.89
19001	23.816	1.4545	5.e-002	4.5583
19002	23.908	1.4545	0.	147.25
19003	2.1433	1.2727	0.	1997.7
19004	2.0511	1.1818	0.	2183.8
19005	2.0511	1.2727	5.e-002	161.24
19006	1.9589	1.2727	0.	2014.5
19007	2.3278	1.2727	0.	1296.9
19008	2.2356	1.1818	0.	1421.4
19009	2.2356	1.2727	5.e-002	100.33
19010	2.5122	1.2727	0.	843.15
19011	2.42	1.1818	0.	954.27
19012	2.42	1.2727	5.e-002	74.147
19013	2.6967	1.2727	0.	534.33
19014	2.6044	1.1818	0.	631.48
19015	2.6044	1.2727	5.e-002	53.537
19016	2.8811	1.2727	0.	327.66
19017	2.7889	1.1818	0.	411.26
19018	2.7889	1.2727	5.e-002	40.218
19019	3.0656	1.2727	0.	190.46
19020	2.9733	1.1818	0.	262.44
19021	2.9733	1.2727	5.e-002	31.279
19022	3.25	1.2727	0.	98.962
19023	3.1578	1.1818	0.	160.76
19024	3.1578	1.2727	5.e-002	25.026
19025	3.4344	1.2727	0.	39.078
19026	3.3422	1.1818	0.	90.072
19027	3.3422	1.2727	5.e-002	20.402
19028	3.6189	1.2727	0.	9.8851
19029	3.5267	1.1818	0.	40.865
19030	3.5267	1.2727	5.e-002	16.865
19031	3.8033	1.2727	0.	3.4245
19032	3.7111	1.1818	0.	11.838
19033	3.7111	1.2727	5.e-002	14.119
19034	3.9878	1.2727	0.	1.7178
19035	3.8956	1.1818	0.	3.5898
19036	3.8956	1.2727	5.e-002	11.987
19037	4.1722	1.2727	0.	1.0129
19038	4.08	1.1818	0.	1.66
19039	4.08	1.2727	5.e-002	10.349
19040	4.3567	1.2727	0.	0.64999
19041	4.2644	1.1818	0.	0.93934
19042	4.2644	1.2727	5.e-002	9.1118
19043	4.5411	1.2727	0.	0.4396
19044	4.4489	1.1818	0.	0.58918
19045	4.4489	1.2727	5.e-002	8.1986
19046	4.7256	1.2727	0.	0.30845
19047	4.6333	1.1818	0.	0.39357
19048	4.6333	1.2727	5.e-002	7.5401
19049	4.91	1.2727	0.	0.22256
19050	4.8178	1.1818	0.	0.27462
19051	4.8178	1.2727	5.e-002	7.0752
19052	5.0944	1.2727	0.	0.16424
19053	5.0022	1.1818	0.	0.19799
19054	5.0022	1.2727	5.e-002	6.7518
19055	5.2789	1.2727	0.	0.12351
19056	5.1867	1.1818	0.	0.14652
19057	5.1867	1.2727	5.e-002	6.5279
19058	5.4633	1.2727	0.	9.4409e-002
19059	5.3711	1.1818	0.	0.11078
19060	5.3711	1.2727	5.e-002	6.3715
19061	5.6478	1.2727	0.	7.3211e-002
19062	5.5556	1.1818	0.	8.5301e-002
19063	5.5556	1.2727	5.e-002	6.2594
19064	5.8322	1.2727	0.	5.752e-002
19065	5.74	1.1818	0.	6.6735e-002
19066	5.74	1.2727	5.e-002	6.1757
19067	6.0167	1.2727	0.	4.5732e-002
19068	5.9244	1.1818	0.	5.2948e-002
19069	5.9244	1.2727	5.e-002	6.1097
19070	6.2011	1.2727	0.	3.6769e-002
19071	6.1089	1.1818	0.	4.2536e-002
19072	6.1089	1.2727	5.e-002	6.0545
19073	6.3856	1.2727	0.	2.9882e-002
19074	6.2933	1.1818	0.	3.4575e-002
19075	6.2933	1.2727	5.e-002	6.0055
19076	6.57	1.2727	0.	2.4534e-002
19077	6.4778	1.1818	0.	2.8409e-002
19078	6.4778	1.2727	5.e-002	5.9605
19079	6.7544	1.2727	0.	2.0348e-002
19080	6.6622	1.1818	0.	2.3576e-002
19081	6.6622	1.2727	5.e-002	5.9176
19082	6.9389	1.2727	0.	1.7051e-002
19083	6.8467	1.1818	0.	1.9764e-002
19084	6.8467	1.2727	5.e-002	5.8762
19085	7.1233	1.2727	0.	1.4432e-002
19086	7.0311	1.1818	0.	1.6729e-002
19087	7.0311	1.2727	5.e-002	5.8355
19088	7.3078	1.2727	0.	1.2342e-002
19089	7.2156	1.1818	0.	1.4288e-002
19090	7.2156	1.2727	5.e-002	5.7957
19091	7.4922	1.2727	0.	1.0669e-002
19092	7.4	1.1818	0.	1.2325e-002
19093	7.4	1.2727	5.e-002	5.7564
19094	7.6767	1.2727	0.	9.3202e-003
19095	7.5844	1.1818	0.	1.0732e-002
19096	7.5844	1.2727	5.e-002	5.7179
19097	7.8611	1.2727	0.	8.2313e-003
19098	7.7689	1.1818	0.	9.4287e-003
19099	7.7689	1.2727	5.e-002	5.6801
19100	8.0456	1.2727	0.	7.3543e-003
19101	7.9533	1.1818	0.	8.3695e-003
19102	7.9533	1.2727	5.e-002	5.643
19103	8.23	1.2727	0.	6.6421e-003
19104	8.1378	1.1818	0.	7.5023e-003
19105	8.1378	1.2727	5.e-002	5.6067
19106	8.4144	1.2727	0.	6.0674e-003
19107	8.3222	1.1818	0.	6.7858e-003
19108	8.3222	1.2727	5.e-002	5.5713
19109	8.5989	1.2727	0.	5.6096e-003
19110	8.5067	1.1818	0.	6.2063e-003
19111	8.5067	1.2727	5.e-002	5.5367
19112	8.7833	1.2727	0.	5.2438e-003
19113	8.6911	1.1818	0.	5.7366e-003
19114	8.6911	1.2727	5.e-002	5.503
19115	8.9678	1.2727	0.	4.9594e-003
19116	8.8756	1.1818	0.	5.3541e-003
19117	8.8756	1.2727	5.e-002	5.4702
19118	9.1522	1.2727	0.	4.7506e-003
19119	9.06	1.1818	0.	5.0606e-003
19120	9.06	1.2727	5.e-002	5.4381
19121	9.3367	1.2727	0.	4.6031e-003
19122	9.2444	1.1818	0.	4.8427e-003
19123	9.2444	1.2727	5.e-002	5.407
19124	9.5211	1.2727	0.	4.5201e-003
19125	9.4289	1.1818	0.	4.6878e-003
19126	9.4289	1.2727	5.e-002	5.3766
19127	9.7056	1.2727	0.	4.4954e-003
19128	9.6133	1.1818	0.	4.6175e-003
19129	9.6133	1.2727	5.e-002	5.3469
19130	9.89	1.2727	0.	4.532e-003
19131	9.7978	1.1818	0.	4.6023e-003
19132	9.7978	1.2727	5.e-002	5.318
19133	10.074	1.2727	0.	4.6814e-003
19134	9.9822	1.1818	0.	4.6858e-003
19135	9.9822	1.2727	5.e-002	5.2897
19136	10.259	1.2727	0.	4.9427e-003
19137	10.167	1.1818	0.	4.9431e-003
19138	10.167	1.2727	5.e-002	5.2621
19139	10.443	1.2727	0.	5.3318e-003
19140	10.351	1.1818	0.	5.3294e-003
19141	10.351	1.2727	5.e-002	5.2351
19142	10.628	1.2727	0.	5.9874e-003
19143	10.536	1.1818	0.	5.9928e-003
19144	10.536	1.2727	5.e-002	5.2086
19145	10.812	1.2727	0.	7.1388e-003
19146	10.72	1.1818	0.	7.248e-003
19147	10.72	1.2727	5.e-002	5.1827
19148	10.997	1.2727	0.	9.4502e-003
19149	10.904	1.1818	0.	9.8763e-003
19150	10.904	1.2727	5.e-002	5.1572
19151	11.181	1.2727	0.	1.5969e-002
19152	11.089	1.1818	0.	1.8093e-002
19153	11.089	1.2727	5.e-002	5.1322
19154	11.366	1.2727	0.	8.4482e-002
19155	11.273	1.1818	0.	0.16101
19156	11.273	1.2727	5.e-002	5.1076
19157	11.55	1.2727	0.	1.0023
19158	11.458	1.1818	0.	1.1625
19159	11.458	1.2727	5.e-002	5.0835
19160	11.734	1.2727	0.	2.0419
19161	11.642	1.1818	0.	2.184
19162	11.642	1.2727	5.e-002	5.0597
19163	11.919	1.2727	0.	3.0199
19164	11.827	1.1818	0.	3.1438
19165	11.827	1.2727	5.e-002	5.0362
19166	12.103	1.2727	0.	3.9371
19167	12.011	1.1818	0.	4.0438
19168	12.011	1.2727	5.e-002	5.0131
19169	12.288	1.2727	0.	4.7979
19170	12.196	1.1818	0.	4.8883
19171	12.196	1.2727	5.e-002	4.9902
19172	12.472	1.2727	0.	5.607
19173	12.38	1.1818	0.	5.6822
19174	12.38	1.2727	5.e-002	4.9676
19175	12.657	1.2727	0.	6.3691
19176	12.564	1.1818	0.	6.4297
19177	12.564	1.2727	5.e-002	4.9453
19178	12.841	1.2727	0.	7.0886
19179	12.749	1.1818	0.	7.1352
19180	12.749	1.2727	5.e-002	4.9233
19181	13.026	1.2727	0.	7.7697
19182	12.933	1.1818	0.	7.8027
19183	12.933	1.2727	5.e-002	4.9014
19184	13.21	1.2727	0.	8.4162
19185	13.118	1.1818	0.	8.4361
19186	13.118	1.2727	5.e-002	4.8798
19187	13.394	1.2727	0.	9.0321
19188	13.302	1.1818	0.	9.0389
19189	13.302	1.2727	5.e-002	4.8583
19190	13.579	1.2727	0.	9.6209
19191	13.487	1.1818	0.	9.6147
19192	13.487	1.2727	5.e-002	4.8371
19193	13.763	1.2727	0.	10.186
19194	13.671	1.1818	0.	10.167
19195	13.671	1.2727	5.e-002	4.816
19196	13.948	1.2727	0.	10.73
19197	13.856	1.1818	0.	10.698
19198	13.856	1.2727	5.e-002	4.7951
19199	14.132	1.2727	0.	11.258
19200	14.04	1.1818	0.	11.212
19201	14.04	1.2727	5.e-002	4.7744
19202	14.317	1.2727	0.	11.771
19203	14.224	1.1818	0.	11.711
19204	14.224	1.2727	5.e-002	4.7539
19205	14.501	1.2727	0.	12.272
19206	14.409	1.1818	0.	12.197
19207	14.409	1.2727	5.e-002	4.7334
19208	14.686	1.2727	0.	12.765
19209	14.593	1.1818	0.	12.675
19210	14.593	1.2727	5.e-002	4.7132
19211	14.87	1.2727	0.	13.252
19212	14.778	1.1818	0.	13.146
19213	14.778	1.2727	5.e-002	4.6931
19214	15.054	1.2727	0.	13.736
19215	14.962	1.1818	0.	13.613
19216	14.962	1.2727	5.e-002	4.6731
19217	15.239	1.2727	0.	14.219
19218	15.147	1.1818	0.	14.078
19219	15.147	1.2727	5.e-002	4.6533
19220	15.423	1.2727	0.	14.705
19221	15.331	1.1818	0.	14.544
19222	15.331	1.2727	5.e-002	4.6336
19223	15.608	1.2727	0.	15.195
19224	15.516	1.1818	0.	15.014
19225	15.516	1.2727	5.e-002	4.614
19226	15.792	1.2727	0.	15.694
19227	15.7	1.1818	0.	15.49
19228	15.7	1.2727	5.e-002	4.5947
19229	15.977	1.2727	0.	16.202
19230	15.884	1.1818	0.	15.974
19231	15.884	1.2727	5.e-002	4.5754
19232	16.161	1.2727	0.	16.723
19233	16.069	1.1818	0.	16.469
19234	16.069	1.2727	5.e-002	4.5564
19235	16.346	1.2727	0.	17.261
19236	16.253	1.1818	0.	16.978
19237	16.253	1.2727	5.e-002	4.5374
19238	16.53	1.2727	0.	17.817
19239	16.438	1.1818	0.	17.503
19240	16.438	1.2727	5.e-002	4.5187
19241	16.714	1.2727	0.	18.394
19242	16.622	1.1818	0.	18.047
19243	16.622	1.2727	5.e-002	4.5001
19244	16.899	1.2727	0.	18.997
19245	16.807	1.1818	0.	18.613
19246	16.807	1.2727	5.e-002	4.4817
19247	17.083	1.2727	0.	19.627
19248	16.991	1.1818	0.	19.204
19249	16.991	1.2727	5.e-002	4.4636
19250	17.268	1.2727	0.	20.289
19251	17.176	1.1818	0.	19.822
19252	17.176	1.2727	5.e-002	4.4456
19253	17.452	1.2727	0.	20.985
19254	17.36	1.1818	0.	20.472
19255	17.36	1.2727	5.e-002	4.4278
19256	17.637	1.2727	0.	21.721
19257	17.544	1.1818	0.	21.155
19258	17.544	1.2727	5.e-002	4.4102
19259	17.821	1.2727	0.	22.498
19260	17.729	1.1818	0.	21.877
19261	17.729	1.2727	5.e-002	4.393
19262	18.006	1.2727	0.	23.323
19263	17.913	1.1818	0.	22.641
19264	17.913	1.2727	5.e-002	4.3759
19265	18.19	1.2727	0.	24.198
19266	18.098	1.1818	0.	23.449
19267	18.098	1.2727	5.e-002	4.3592
19268	18.374	1.2727	0.	25.129
19269	18.282	1.1818	0.	24.308
19270	18.282	1.2727	5.e-002	4.3428
19271	18.559	1.2727	0.	26.12
19272	18.467	1.1818	0.	25.22
19273	18.467	1.2727	5.e-002	4.3267
19274	18.743	1.2727	0.	27.177
19275	18.651	1.1818	0.	26.191
19276	18.651	1.2727	5.e-002	4.311
19277	18.928	1.2727	0.	28.306
19278	18.836	1.1818	0.	27.226
19279	18.836	1.2727	5.e-002	4.2956
19280	19.112	1.2727	0.	29.512
19281	19.02	1.1818	0.	28.33
19282	19.02	1.2727	5.e-002	4.2807
19283	19.297	1.2727	0.	30.802
19284	19.204	1.1818	0.	29.508
19285	19.204	1.2727	5.e-002	4.2663
19286	19.481	1.2727	0.	32.183
19287	19.389	1.1818	0.	30.768
19288	19.389	1.2727	5.e-002	4.2523
19289	19.666	1.2727	0.	33.662
19290	19.573	1.1818	0.	32.115
19291	19.573	1.2727	5.e-002	4.2389
19292	19.85	1.2727	0.	35.249
19293	19.758	1.1818	0.	33.557
19294	19.758	1.2727	5.e-002	4.226
19295	20.034	1.2727	0.	36.951
19296	19.942	1.1818	0.	35.102
19297	19.942	1.2727	5.e-002	4.2138
19298	20.219	1.2727	0.	38.779
19299	20.127	1.1818	0.	36.757
19300	20.127	1.2727	5.e-002	4.2023
19301	20.403	1.2727	0.	40.743
19302	20.311	1.1818	0.	38.534
19303	20.311	1.2727	5.e-002	4.1916
19304	20.588	1.2727	0.	42.856
19305	20.496	1.1818	0.	40.441
19306	20.496	1.2727	5.e-002	4.1817
19307	20.772	1.2727	0.	45.131
19308	20.68	1.1818	0.	42.492
19309	20.68	1.2727	5.e-002	4.1727
19310	20.957	1.2727	0.	47.584
19311	20.864	1.1818	0.	44.698
19312	20.864	1.2727	5.e-002	4.1648
19313	21.141	1.2727	0.	50.231
19314	21.049	1.1818	0.	47.076
19315	21.049	1.2727	5.e-002	4.158
19316	21.326	1.2727	0.	53.094
19317	21.233	1.1818	0.	49.642
19318	21.233	1.2727	5.e-002	4.1525
19319	21.51	1.2727	0.	56.194
19320	21.418	1.1818	0.	52.416
19321	21.418	1.2727	5.e-002	4.1484
19322	21.694	1.2727	0.	59.56
19323	21.602	1.1818	0.	55.424
19324	21.602	1.2727	5.e-002	4.146
19325	21.879	1.2727	0.	63.223
19326	21.787	1.1818	0.	58.692
19327	21.787	1.2727	5.e-002	4.1454
19328	22.063	1.2727	0.	67.222
19329	21.971	1.1818	0.	62.255
19330	21.971	1.2727	5.e-002	4.1472
19331	22.248	1.2727	0.	71.601
19332	22.156	1.1818	0.	66.154
19333	22.156	1.2727	5.e-002	4.1515
19334	22.432	1.2727	0.	76.415
19335	22.34	1.1818	0.	70.438
19336	22.34	1.2727	5.e-002	4.1591
19337	22.617	1.2727	0.	81.724
19338	22.524	1.1818	0.	75.168
19339	22.524	1.2727	5.e-002	4.1708
19340	22.801	1.2727	0.	87.6
19341	22.709	1.1818	0.	80.414
19342	22.709	1.2727	5.e-002	4.1875
19343	22.986	1.2727	0.	94.121
19344	22.893	1.1818	0.	86.262
19345	22.893	1.2727	5.e-002	4.2106
19346	23.17	1.2727	0.	101.37
19347	23.078	1.1818	0.	92.803
19348	23.078	1.2727	5.e-002	4.2419
19349	23.354	1.2727	0.	109.4
19350	23.262	1.1818	0.	100.14
19351	23.262	1.2727	5.e-002	4.2835
19352	23.539	1.2727	0.	118.3
19353	23.447	1.1818	0.	108.34
19354	23.447	1.2727	5.e-002	4.3374
19355	23.723	1.2727	0.	128.05
19356	23.631	1.1818	0.	117.52
19357	23.631	1.2727	5.e-002	4.4094
19358	23.816	1.1818	0.	127.6
19359	23.816	1.2727	5.e-002	4.5695
19360	23.908	1.2727	0.	137.57
19361	2.1433	1.0909	0.	1537.3
19362	2.0511	1.	0.	1650.8
19363	2.0511	1.0909	5.e-002	128.12
19364	1.9589	1.0909	0.	1520.3
19365	2.3278	1.0909	0.	1031.2
19366	2.2356	1.	0.	1083.9
19367	2.2356	1.0909	5.e-002	87.264
19368	2.5122	1.0909	0.	712.38
19369	2.42	1.	0.	759.25
19370	2.42	1.0909	5.e-002	69.803
19371	2.6967	1.0909	0.	490.24
19372	2.6044	1.	0.	537.05
19373	2.6044	1.0909	5.e-002	53.952
19374	2.8811	1.0909	0.	335.49
19375	2.7889	1.	0.	382.3
19376	2.7889	1.0909	5.e-002	41.497
19377	3.0656	1.0909	0.	226.79
19378	2.9733	1.	0.	272.84
19379	2.9733	1.0909	5.e-002	32.175
19380	3.25	1.0909	0.	148.78
19381	3.1578	1.	0.	193.01
19382	3.1578	1.0909	5.e-002	25.213
19383	3.4344	1.0909	0.	91.469
19384	3.3422	1.	0.	132.88
19385	3.3422	1.0909	5.e-002	19.955
19386	3.6189	1.0909	0.	48.789
19387	3.5267	1.	0.	86.401
19388	3.5267	1.0909	5.e-002	15.936
19389	3.8033	1.0909	0.	18.493
19390	3.7111	1.	0.	49.976
19391	3.7111	1.0909	5.e-002	12.861
19392	3.9878	1.0909	0.	4.7707
19393	3.8956	1.	0.	22.054
19394	3.8956	1.0909	5.e-002	10.533
19395	4.1722	1.0909	0.	1.814
19396	4.08	1.	0.	5.7035
19397	4.08	1.0909	5.e-002	8.8174
19398	4.3567	1.0909	0.	0.94095
19399	4.2644	1.	0.	1.7861
19400	4.2644	1.0909	5.e-002	7.6045
19401	4.5411	1.0909	0.	0.56493
19402	4.4489	1.	0.	0.85627
19403	4.4489	1.0909	5.e-002	6.7963
19404	4.7256	1.0909	0.	0.36867
19405	4.6333	1.	0.	0.49765
19406	4.6333	1.0909	5.e-002	6.2964
19407	4.91	1.0909	0.	0.25422
19408	4.8178	1.	0.	0.32061
19409	4.8178	1.0909	5.e-002	6.0142
19410	5.0944	1.0909	0.	0.18247
19411	5.0022	1.	0.	0.22051
19412	5.0022	1.0909	5.e-002	5.873
19413	5.2789	1.0909	0.	0.13508
19414	5.1867	1.	0.	0.15882
19415	5.1867	1.0909	5.e-002	5.8151
19416	5.4633	1.0909	0.	0.10252
19417	5.3711	1.	0.	0.11842
19418	5.3711	1.0909	5.e-002	5.8014
19419	5.6478	1.0909	0.	7.9422e-002
19420	5.5556	1.	0.	9.0729e-002
19421	5.5556	1.0909	5.e-002	5.8076
19422	5.8322	1.0909	0.	6.2615e-002
19423	5.74	1.	0.	7.1059e-002
19424	5.74	1.0909	5.e-002	5.8194
19425	6.0167	1.0909	0.	5.011e-002
19426	5.9244	1.	0.	5.6673e-002
19427	5.9244	1.0909	5.e-002	5.8297
19428	6.2011	1.0909	0.	4.0636e-002
19429	6.1089	1.	0.	4.5889e-002
19430	6.1089	1.0909	5.e-002	5.8345
19431	6.3856	1.0909	0.	3.3349e-002
19432	6.2933	1.	0.	3.7655e-002
19433	6.2933	1.0909	5.e-002	5.8328
19434	6.57	1.0909	0.	2.7661e-002
19435	6.4778	1.	0.	3.1256e-002
19436	6.4778	1.0909	5.e-002	5.8247
19437	6.7544	1.0909	0.	2.3172e-002
19438	6.6622	1.	0.	2.6205e-002
19439	6.6622	1.0909	5.e-002	5.8106
19440	6.9389	1.0909	0.	1.9597e-002
19441	6.8467	1.	0.	2.218e-002
19442	6.8467	1.0909	5.e-002	5.7917
19443	7.1233	1.0909	0.	1.6719e-002
19444	7.0311	1.	0.	1.8934e-002
19445	7.0311	1.0909	5.e-002	5.7686
19446	7.3078	1.0909	0.	1.4387e-002
19447	7.2156	1.	0.	1.6286e-002
19448	7.2156	1.0909	5.e-002	5.7425
19449	7.4922	1.0909	0.	1.2488e-002
19450	7.4	1.	0.	1.412e-002
19451	7.4	1.0909	5.e-002	5.7139
19452	7.6767	1.0909	0.	1.0926e-002
19453	7.5844	1.	0.	1.2331e-002
19454	7.5844	1.0909	5.e-002	5.6837
19455	7.8611	1.0909	0.	9.6388e-003
19456	7.7689	1.	0.	1.0839e-002
19457	7.7689	1.0909	5.e-002	5.6524
19458	8.0456	1.0909	0.	8.5773e-003
19459	7.9533	1.	0.	9.5998e-003
19460	7.9533	1.0909	5.e-002	5.6205
19461	8.23	1.0909	0.	7.6946e-003
19462	8.1378	1.	0.	8.5635e-003
19463	8.1378	1.0909	5.e-002	5.5883
19464	8.4144	1.0909	0.	6.963e-003
19465	8.3222	1.	0.	7.6882e-003
19466	8.3222	1.0909	5.e-002	5.556
19467	8.5989	1.0909	0.	6.3619e-003
19468	8.5067	1.	0.	6.9614e-003
19469	8.5067	1.0909	5.e-002	5.524
19470	8.7833	1.0909	0.	5.8663e-003
19471	8.6911	1.	0.	6.3562e-003
19472	8.6911	1.0909	5.e-002	5.4923
19473	8.9678	1.0909	0.	5.4661e-003
19474	8.8756	1.	0.	5.8507e-003
19475	8.8756	1.0909	5.e-002	5.4611
19476	9.1522	1.0909	0.	5.1555e-003
19477	9.06	1.	0.	5.4484e-003
19478	9.06	1.0909	5.e-002	5.4303
19479	9.3367	1.0909	0.	4.9225e-003
19480	9.2444	1.	0.	5.1371e-003
19481	9.2444	1.0909	5.e-002	5.4002
19482	9.5211	1.0909	0.	4.7732e-003
19483	9.4289	1.	0.	4.908e-003
19484	9.4289	1.0909	5.e-002	5.3707
19485	9.7056	1.0909	0.	4.7062e-003
19486	9.6133	1.	0.	4.7884e-003
19487	9.6133	1.0909	5.e-002	5.3417
19488	9.89	1.0909	0.	4.7331e-003
19489	9.7978	1.	0.	4.7598e-003
19490	9.7978	1.0909	5.e-002	5.3134
19491	10.074	1.0909	0.	4.9227e-003
19492	9.9822	1.	0.	4.8852e-003
19493	9.9822	1.0909	5.e-002	5.2855
19494	10.259	1.0909	0.	5.3099e-003
19495	10.167	1.	0.	5.2839e-003
19496	10.167	1.0909	5.e-002	5.2584
19497	10.443	1.0909	0.	5.9934e-003
19498	10.351	1.	0.	6.0184e-003
19499	10.351	1.0909	5.e-002	5.2317
19500	10.628	1.0909	0.	7.3372e-003
19501	10.536	1.	0.	7.5503e-003
19502	10.536	1.0909	5.e-002	5.2056
19503	10.812	1.0909	0.	1.0407e-002
19504	10.72	1.	0.	1.153e-002
19505	10.72	1.0909	5.e-002	5.1799
19506	10.997	1.0909	0.	2.167e-002
19507	10.904	1.	0.	3.2422e-002
19508	10.904	1.0909	5.e-002	5.1547
19509	11.181	1.0909	0.	0.32918
19510	11.089	1.	0.	0.63286
19511	11.089	1.0909	5.e-002	5.1299
19512	11.366	1.0909	0.	1.3658
19513	11.273	1.	0.	1.6616
19514	11.273	1.0909	5.e-002	5.1055
19515	11.55	1.0909	0.	2.3678
19516	11.458	1.	0.	2.6352
19517	11.458	1.0909	5.e-002	5.0815
19518	11.734	1.0909	0.	3.3083
19519	11.642	1.	0.	3.5485
19520	11.642	1.0909	5.e-002	5.0579
19521	11.919	1.0909	0.	4.1903
19522	11.827	1.	0.	4.405
19523	11.827	1.0909	5.e-002	5.0346
19524	12.103	1.0909	0.	5.018
19525	12.011	1.	0.	5.209
19526	12.011	1.0909	5.e-002	5.0115
19527	12.288	1.0909	0.	5.7961
19528	12.196	1.	0.	5.9648
19529	12.196	1.0909	5.e-002	4.9888
19530	12.472	1.0909	0.	6.5287
19531	12.38	1.	0.	6.6767
19532	12.38	1.0909	5.e-002	4.9663
19533	12.657	1.0909	0.	7.22
19534	12.564	1.	0.	7.3483
19535	12.564	1.0909	5.e-002	4.9441
19536	12.841	1.0909	0.	7.8739
19537	12.749	1.	0.	7.9837
19538	12.749	1.0909	5.e-002	4.9221
19539	13.026	1.0909	0.	8.4941
19540	12.933	1.	0.	8.5862
19541	12.933	1.0909	5.e-002	4.9003
19542	13.21	1.0909	0.	9.0841
19543	13.118	1.	0.	9.1591
19544	13.118	1.0909	5.e-002	4.8787
19545	13.394	1.0909	0.	9.6472
19546	13.302	1.	0.	9.7058
19547	13.302	1.0909	5.e-002	4.8574
19548	13.579	1.0909	0.	10.187
19549	13.487	1.	0.	10.229
19550	13.487	1.0909	5.e-002	4.8362
19551	13.763	1.0909	0.	10.705
19552	13.671	1.	0.	10.732
19553	13.671	1.0909	5.e-002	4.8152
19554	13.948	1.0909	0.	11.206
19555	13.856	1.	0.	11.217
19556	13.856	1.0909	5.e-002	4.7944
19557	14.132	1.0909	0.	11.692
19558	14.04	1.	0.	11.687
19559	14.04	1.0909	5.e-002	4.7737
19560	14.317	1.0909	0.	12.165
19561	14.224	1.	0.	12.144
19562	14.224	1.0909	5.e-002	4.7532
19563	14.501	1.0909	0.	12.629
19564	14.409	1.	0.	12.592
19565	14.409	1.0909	5.e-002	4.7327
19566	14.686	1.0909	0.	13.085
19567	14.593	1.	0.	13.031
19568	14.593	1.0909	5.e-002	4.7125
19569	14.87	1.0909	0.	13.536
19570	14.778	1.	0.	13.465
19571	14.778	1.0909	5.e-002	4.6924
19572	15.054	1.0909	0.	13.985
19573	14.962	1.	0.	13.896
19574	14.962	1.0909	5.e-002	4.6725
19575	15.239	1.0909	0.	14.433
19576	15.147	1.	0.	14.325
19577	15.147	1.0909	5.e-002	4.6527
19578	15.423	1.0909	0.	14.884
19579	15.331	1.	0.	14.756
19580	15.331	1.0909	5.e-002	4.633
19581	15.608	1.0909	0.	15.339
19582	15.516	1.	0.	15.19
19583	15.516	1.0909	5.e-002	4.6135
19584	15.792	1.0909	0.	15.801
19585	15.7	1.	0.	15.629
19586	15.7	1.0909	5.e-002	4.5941
19587	15.977	1.0909	0.	16.273
19588	15.884	1.	0.	16.076
19589	15.884	1.0909	5.e-002	4.5749
19590	16.161	1.0909	0.	16.756
19591	16.069	1.	0.	16.533
19592	16.069	1.0909	5.e-002	4.5558
19593	16.346	1.0909	0.	17.253
19594	16.253	1.	0.	17.002
19595	16.253	1.0909	5.e-002	4.5369
19596	16.53	1.0909	0.	17.766
19597	16.438	1.	0.	17.485
19598	16.438	1.0909	5.e-002	4.5181
19599	16.714	1.0909	0.	18.299
19600	16.622	1.	0.	17.985
19601	16.622	1.0909	5.e-002	4.4995
19602	16.899	1.0909	0.	18.854
19603	16.807	1.	0.	18.504
19604	16.807	1.0909	5.e-002	4.4811
19605	17.083	1.0909	0.	19.433
19606	16.991	1.	0.	19.044
19607	16.991	1.0909	5.e-002	4.4629
19608	17.268	1.0909	0.	20.04
19609	17.176	1.	0.	19.609
19610	17.176	1.0909	5.e-002	4.4448
19611	17.452	1.0909	0.	20.677
19612	17.36	1.	0.	20.2
19613	17.36	1.0909	5.e-002	4.427
19614	17.637	1.0909	0.	21.348
19615	17.544	1.	0.	20.822
19616	17.544	1.0909	5.e-002	4.4095
19617	17.821	1.0909	0.	22.056
19618	17.729	1.	0.	21.475
19619	17.729	1.0909	5.e-002	4.3921
19620	18.006	1.0909	0.	22.804
19621	17.913	1.	0.	22.165
19622	17.913	1.0909	5.e-002	4.375
19623	18.19	1.0909	0.	23.597
19624	18.098	1.	0.	22.893
19625	18.098	1.0909	5.e-002	4.3582
19626	18.374	1.0909	0.	24.437
19627	18.282	1.	0.	23.664
19628	18.282	1.0909	5.e-002	4.3417
19629	18.559	1.0909	0.	25.33
19630	18.467	1.	0.	24.481
19631	18.467	1.0909	5.e-002	4.3256
19632	18.743	1.0909	0.	26.28
19633	18.651	1.	0.	25.347
19634	18.651	1.0909	5.e-002	4.3097
19635	18.928	1.0909	0.	27.291
19636	18.836	1.	0.	26.268
19637	18.836	1.0909	5.e-002	4.2943
19638	19.112	1.0909	0.	28.368
19639	19.02	1.	0.	27.247
19640	19.02	1.0909	5.e-002	4.2792
19641	19.297	1.0909	0.	29.517
19642	19.204	1.	0.	28.289
19643	19.204	1.0909	5.e-002	4.2646
19644	19.481	1.0909	0.	30.743
19645	19.389	1.	0.	29.398
19646	19.389	1.0909	5.e-002	4.2505
19647	19.666	1.0909	0.	32.054
19648	19.573	1.	0.	30.581
19649	19.573	1.0909	5.e-002	4.2369
19650	19.85	1.0909	0.	33.455
19651	19.758	1.	0.	31.844
19652	19.758	1.0909	5.e-002	4.2239
19653	20.034	1.0909	0.	34.954
19654	19.942	1.	0.	33.191
19655	19.942	1.0909	5.e-002	4.2114
19656	20.219	1.0909	0.	36.559
19657	20.127	1.	0.	34.631
19658	20.127	1.0909	5.e-002	4.1997
19659	20.403	1.0909	0.	38.28
19660	20.311	1.	0.	36.17
19661	20.311	1.0909	5.e-002	4.1886
19662	20.588	1.0909	0.	40.126
19663	20.496	1.	0.	37.818
19664	20.496	1.0909	5.e-002	4.1783
19665	20.772	1.0909	0.	42.109
19666	20.68	1.	0.	39.584
19667	20.68	1.0909	5.e-002	4.1689
19668	20.957	1.0909	0.	44.241
19669	20.864	1.	0.	41.478
19670	20.864	1.0909	5.e-002	4.1605
19671	21.141	1.0909	0.	46.538
19672	21.049	1.	0.	43.513
19673	21.049	1.0909	5.e-002	4.1531
19674	21.326	1.0909	0.	49.018
19675	21.233	1.	0.	45.704
19676	21.233	1.0909	5.e-002	4.1468
19677	21.51	1.0909	0.	51.701
19678	21.418	1.	0.	48.067
19679	21.418	1.0909	5.e-002	4.1419
19680	21.694	1.0909	0.	54.611
19681	21.602	1.	0.	50.624
19682	21.602	1.0909	5.e-002	4.1384
19683	21.879	1.0909	0.	57.78
19684	21.787	1.	0.	53.399
19685	21.787	1.0909	5.e-002	4.1366
19686	22.063	1.0909	0.	61.243
19687	21.971	1.	0.	56.423
19688	21.971	1.0909	5.e-002	4.1369
19689	22.248	1.0909	0.	65.046
19690	22.156	1.	0.	59.735
19691	22.156	1.0909	5.e-002	4.1395
19692	22.432	1.0909	0.	69.246
19693	22.34	1.	0.	63.384
19694	22.34	1.0909	5.e-002	4.1451
19695	22.617	1.0909	0.	73.911
19696	22.524	1.	0.	67.432
19697	22.524	1.0909	5.e-002	4.1544
19698	22.801	1.0909	0.	79.125
19699	22.709	1.	0.	71.958
19700	22.709	1.0909	5.e-002	4.1686
19701	22.986	1.0909	0.	84.989
19702	22.893	1.	0.	77.059
19703	22.893	1.0909	5.e-002	4.1891
19704	23.17	1.0909	0.	91.613
19705	23.078	1.	0.	82.856
19706	23.078	1.0909	5.e-002	4.2183
19707	23.354	1.0909	0.	99.106
19708	23.262	1.	0.	89.491
19709	23.262	1.0909	5.e-002	4.2591
19710	23.539	1.0909	0.	107.59
19711	23.447	1.	0.	97.094
19712	23.447	1.0909	5.e-002	4.3149
19713	23.723	1.0909	0.	117.09
19714	23.631	1.	0.	105.85
19715	23.631	1.0909	5.e-002	4.3938
19716	23.816	1.	0.	115.73
19717	23.816	1.0909	5.e-002	4.5802
19718	23.908	1.0909	0.	126.41
19719	2.1433	0.90909	0.	1138.4
19720	2.0511	0.81818	0.	1205.9
19721	2.0511	0.90909	5.e-002	106.66
19722	1.9589	0.90909	0.	1121.2
19723	2.3278	0.90909	0.	769.3
19724	2.2356	0.81818	0.	776.82
19725	2.2356	0.90909	5.e-002	76.949
19726	2.5122	0.90909	0.	556.07
19727	2.42	0.81818	0.	559.36
19728	2.42	0.90909	5.e-002	65.433
19729	2.6967	0.90909	0.	412.18
19730	2.6044	0.81818	0.	422.04
19731	2.6044	0.90909	5.e-002	53.44
19732	2.8811	0.90909	0.	309.78
19733	2.7889	0.81818	0.	327.19
19734	2.7889	0.90909	5.e-002	42.617
19735	3.0656	0.90909	0.	233.43
19736	2.9733	0.81818	0.	256.62
19737	2.9733	0.90909	5.e-002	33.554
19738	3.25	0.90909	0.	173.97
19739	3.1578	0.81818	0.	200.55
19740	3.1578	0.90909	5.e-002	26.243
19741	3.4344	0.90909	0.	126.2
19742	3.3422	0.81818	0.	154.1
19743	3.3422	0.90909	5.e-002	20.433
19744	3.6189	0.90909	0.	87.099
19745	3.5267	0.81818	0.	114.79
19746	3.5267	0.90909	5.e-002	15.856
19747	3.8033	0.90909	0.	54.921
19748	3.7111	0.81818	0.	81.35
19749	3.7111	0.90909	5.e-002	12.288
19750	3.9878	0.90909	0.	28.756
19751	3.8956	0.81818	0.	53.031
19752	3.8956	0.90909	5.e-002	9.5655
19753	4.1722	0.90909	0.	9.4215
19754	4.08	0.81818	0.	29.434
19755	4.08	0.90909	5.e-002	7.5696
19756	4.3567	0.90909	0.	2.1503
19757	4.2644	0.81818	0.	10.911
19758	4.2644	0.90909	5.e-002	6.2103
19759	4.5411	0.90909	0.	0.862
19760	4.4489	0.81818	0.	2.1472
19761	4.4489	0.90909	5.e-002	5.3964
19762	4.7256	0.90909	0.	0.46828
19763	4.6333	0.81818	0.	0.75016
19764	4.6333	0.90909	5.e-002	5.0086
19765	4.91	0.90909	0.	0.29329
19766	4.8178	0.81818	0.	0.39337
19767	4.8178	0.90909	5.e-002	4.9059
19768	5.0944	0.90909	0.	0.19963
19769	5.0022	0.81818	0.	0.2452
19770	5.0022	0.90909	5.e-002	4.9609
19771	5.2789	0.90909	0.	0.14364
19772	5.1867	0.81818	0.	0.16822
19773	5.1867	0.90909	5.e-002	5.0843
19774	5.4633	0.90909	0.	0.10758
19775	5.3711	0.81818	0.	0.12276
19776	5.3711	0.90909	5.e-002	5.2244
19777	5.6478	0.90909	0.	8.3048e-002
19778	5.5556	0.81818	0.	9.3535e-002
19779	5.5556	0.90909	5.e-002	5.3554
19780	5.8322	0.90909	0.	6.5653e-002
19781	5.74	0.81818	0.	7.3578e-002
19782	5.74	0.90909	5.e-002	5.4663
19783	6.0167	0.90909	0.	5.2895e-002
19784	5.9244	0.81818	0.	5.9297e-002
19785	5.9244	0.90909	5.e-002	5.554
19786	6.2011	0.90909	0.	4.3285e-002
19787	6.1089	0.81818	0.	4.8689e-002
19788	6.1089	0.90909	5.e-002	5.6192
19789	6.3856	0.90909	0.	3.589e-002
19790	6.2933	0.81818	0.	4.0588e-002
19791	6.2933	0.90909	5.e-002	5.6644
19792	6.57	0.90909	0.	3.0087e-002
19793	6.4778	0.81818	0.	3.4249e-002
19794	6.4778	0.90909	5.e-002	5.6926
19795	6.7544	0.90909	0.	2.5465e-002
19796	6.6622	0.81818	0.	2.9182e-002
19797	6.6622	0.90909	5.e-002	5.7067
19798	6.9389	0.90909	0.	2.1739e-002
19799	6.8467	0.81818	0.	2.5079e-002
19800	6.8467	0.90909	5.e-002	5.7096
19801	7.1233	0.90909	0.	1.8697e-002
19802	7.0311	0.81818	0.	2.1706e-002
19803	7.0311	0.90909	5.e-002	5.7035
19804	7.3078	0.90909	0.	1.6192e-002
19805	7.2156	0.81818	0.	1.8894e-002
19806	7.2156	0.90909	5.e-002	5.6906
19807	7.4922	0.90909	0.	1.4116e-002
19808	7.4	0.81818	0.	1.654e-002
19809	7.4	0.90909	5.e-002	5.6723
19810	7.6767	0.90909	0.	1.2376e-002
19811	7.5844	0.81818	0.	1.4548e-002
19812	7.5844	0.90909	5.e-002	5.6502
19813	7.8611	0.90909	0.	1.0913e-002
19814	7.7689	0.81818	0.	1.2843e-002
19815	7.7689	0.90909	5.e-002	5.6252
19816	8.0456	0.90909	0.	9.6823e-003
19817	7.9533	0.81818	0.	1.1389e-002
19818	7.9533	0.90909	5.e-002	5.5982
19819	8.23	0.90909	0.	8.637e-003
19820	8.1378	0.81818	0.	1.0139e-002
19821	8.1378	0.90909	5.e-002	5.5698
19822	8.4144	0.90909	0.	7.7508e-003
19823	8.3222	0.81818	0.	9.056e-003
19824	8.3222	0.90909	5.e-002	5.5407
19825	8.5989	0.90909	0.	7.005e-003
19826	8.5067	0.81818	0.	8.1282e-003
19827	8.5067	0.90909	5.e-002	5.5111
19828	8.7833	0.90909	0.	6.3755e-003
19829	8.6911	0.81818	0.	7.3329e-003
19830	8.6911	0.90909	5.e-002	5.4813
19831	8.9678	0.90909	0.	5.8539e-003
19832	8.8756	0.81818	0.	6.6495e-003
19833	8.8756	0.90909	5.e-002	5.4516
19834	9.1522	0.90909	0.	5.4372e-003
19835	9.06	0.81818	0.	6.0848e-003
19836	9.06	0.90909	5.e-002	5.4222
19837	9.3367	0.90909	0.	5.1167e-003
19838	9.2444	0.81818	0.	5.6305e-003
19839	9.2444	0.90909	5.e-002	5.3931
19840	9.5211	0.90909	0.	4.9051e-003
19841	9.4289	0.81818	0.	5.2862e-003
19842	9.4289	0.90909	5.e-002	5.3644
19843	9.7056	0.90909	0.	4.8136e-003
19844	9.6133	0.81818	0.	5.0931e-003
19845	9.6133	0.90909	5.e-002	5.3361
19846	9.89	0.90909	0.	4.8781e-003
19847	9.7978	0.81818	0.	5.0631e-003
19848	9.7978	0.90909	5.e-002	5.3084
19849	10.074	0.90909	0.	5.2215e-003
19850	9.9822	0.81818	0.	5.3342e-003
19851	9.9822	0.90909	5.e-002	5.2811
19852	10.259	0.90909	0.	6.0221e-003
19853	10.167	0.81818	0.	6.2398e-003
19854	10.167	0.90909	5.e-002	5.2543
19855	10.443	0.90909	0.	7.8478e-003
19856	10.351	0.81818	0.	8.7047e-003
19857	10.351	0.90909	5.e-002	5.228
19858	10.628	0.90909	0.	1.3538e-002
19859	10.536	0.81818	0.	2.0566e-002
19860	10.536	0.90909	5.e-002	5.2022
19861	10.812	0.90909	0.	8.8086e-002
19862	10.72	0.81818	0.	0.48798
19863	10.72	0.90909	5.e-002	5.1768
19864	10.997	0.90909	0.	1.0095
19865	10.904	0.81818	0.	1.5008
19866	10.904	0.90909	5.e-002	5.1519
19867	11.181	0.90909	0.	2.0118
19868	11.089	0.81818	0.	2.462
19869	11.089	0.90909	5.e-002	5.1273
19870	11.366	0.90909	0.	2.9544
19871	11.273	0.81818	0.	3.3641
19872	11.273	0.90909	5.e-002	5.1031
19873	11.55	0.90909	0.	3.8384
19874	11.458	0.81818	0.	4.2102
19875	11.458	0.90909	5.e-002	5.0793
19876	11.734	0.90909	0.	4.6677
19877	11.642	0.81818	0.	5.0044
19878	11.642	0.90909	5.e-002	5.0558
19879	11.919	0.90909	0.	5.4465
19880	11.827	0.81818	0.	5.7508
19881	11.827	0.90909	5.e-002	5.0326
19882	12.103	0.90909	0.	6.1789
19883	12.011	0.81818	0.	6.4532
19884	12.011	0.90909	5.e-002	5.0097
19885	12.288	0.90909	0.	6.869
19886	12.196	0.81818	0.	7.1151
19887	12.196	0.90909	5.e-002	4.9871
19888	12.472	0.90909	0.	7.5203
19889	12.38	0.81818	0.	7.7404
19890	12.38	0.90909	5.e-002	4.9648
19891	12.657	0.90909	0.	8.1364
19892	12.564	0.81818	0.	8.332
19893	12.564	0.90909	5.e-002	4.9427
19894	12.841	0.90909	0.	8.7206
19895	12.749	0.81818	0.	8.8933
19896	12.749	0.90909	5.e-002	4.9208
19897	13.026	0.90909	0.	9.2763
19898	12.933	0.81818	0.	9.4272
19899	12.933	0.90909	5.e-002	4.8991
19900	13.21	0.90909	0.	9.8062
19901	13.118	0.81818	0.	9.9365
19902	13.118	0.90909	5.e-002	4.8776
19903	13.394	0.90909	0.	10.313
19904	13.302	0.81818	0.	10.424
19905	13.302	0.90909	5.e-002	4.8562
19906	13.579	0.90909	0.	10.801
19907	13.487	0.81818	0.	10.892
19908	13.487	0.90909	5.e-002	4.8351
19909	13.763	0.90909	0.	11.27
19910	13.671	0.81818	0.	11.343
19911	13.671	0.90909	5.e-002	4.8142
19912	13.948	0.90909	0.	11.725
19913	13.856	0.81818	0.	11.78
19914	13.856	0.90909	5.e-002	4.7934
19915	14.132	0.90909	0.	12.167
19916	14.04	0.81818	0.	12.204
19917	14.04	0.90909	5.e-002	4.7728
19918	14.317	0.90909	0.	12.599
19919	14.224	0.81818	0.	12.618
19920	14.224	0.90909	5.e-002	4.7523
19921	14.501	0.90909	0.	13.022
19922	14.409	0.81818	0.	13.024
19923	14.409	0.90909	5.e-002	4.7319
19924	14.686	0.90909	0.	13.44
19925	14.593	0.81818	0.	13.423
19926	14.593	0.90909	5.e-002	4.7117
19927	14.87	0.90909	0.	13.853
19928	14.778	0.81818	0.	13.819
19929	14.778	0.90909	5.e-002	4.6916
19930	15.054	0.90909	0.	14.265
19931	14.962	0.81818	0.	14.212
19932	14.962	0.90909	5.e-002	4.6717
19933	15.239	0.90909	0.	14.677
19934	15.147	0.81818	0.	14.604
19935	15.147	0.90909	5.e-002	4.6519
19936	15.423	0.90909	0.	15.092
19937	15.331	0.81818	0.	14.998
19938	15.331	0.90909	5.e-002	4.6323
19939	15.608	0.90909	0.	15.51
19940	15.516	0.81818	0.	15.395
19941	15.516	0.90909	5.e-002	4.6127
19942	15.792	0.90909	0.	15.935
19943	15.7	0.81818	0.	15.797
19944	15.7	0.90909	5.e-002	4.5934
19945	15.977	0.90909	0.	16.368
19946	15.884	0.81818	0.	16.205
19947	15.884	0.90909	5.e-002	4.5741
19948	16.161	0.90909	0.	16.811
19949	16.069	0.81818	0.	16.623
19950	16.069	0.90909	5.e-002	4.555
19951	16.346	0.90909	0.	17.266
19952	16.253	0.81818	0.	17.051
19953	16.253	0.90909	5.e-002	4.5361
19954	16.53	0.90909	0.	17.736
19955	16.438	0.81818	0.	17.491
19956	16.438	0.90909	5.e-002	4.5173
19957	16.714	0.90909	0.	18.223
19958	16.622	0.81818	0.	17.945
19959	16.622	0.90909	5.e-002	4.4987
19960	16.899	0.90909	0.	18.728
19961	16.807	0.81818	0.	18.416
19962	16.807	0.90909	5.e-002	4.4803
19963	17.083	0.90909	0.	19.254
19964	16.991	0.81818	0.	18.905
19965	16.991	0.90909	5.e-002	4.462
19966	17.268	0.90909	0.	19.804
19967	17.176	0.81818	0.	19.415
19968	17.176	0.90909	5.e-002	4.444
19969	17.452	0.90909	0.	20.38
19970	17.36	0.81818	0.	19.947
19971	17.36	0.90909	5.e-002	4.4261
19972	17.637	0.90909	0.	20.985
19973	17.544	0.81818	0.	20.505
19974	17.544	0.90909	5.e-002	4.4085
19975	17.821	0.90909	0.	21.621
19976	17.729	0.81818	0.	21.089
19977	17.729	0.90909	5.e-002	4.391
19978	18.006	0.90909	0.	22.291
19979	17.913	0.81818	0.	21.703
19980	17.913	0.90909	5.e-002	4.3739
19981	18.19	0.90909	0.	22.999
19982	18.098	0.81818	0.	22.349
19983	18.098	0.90909	5.e-002	4.3571
19984	18.374	0.90909	0.	23.746
19985	18.282	0.81818	0.	23.031
19986	18.282	0.90909	5.e-002	4.3405
19987	18.559	0.90909	0.	24.538
19988	18.467	0.81818	0.	23.75
19989	18.467	0.90909	5.e-002	4.3242
19990	18.743	0.90909	0.	25.376
19991	18.651	0.81818	0.	24.51
19992	18.651	0.90909	5.e-002	4.3083
19993	18.928	0.90909	0.	26.266
19994	18.836	0.81818	0.	25.314
19995	18.836	0.90909	5.e-002	4.2927
19996	19.112	0.90909	0.	27.21
19997	19.02	0.81818	0.	26.165
19998	19.02	0.90909	5.e-002	4.2775
19999	19.297	0.90909	0.	28.214
20000	19.204	0.81818	0.	27.067
20001	19.204	0.90909	5.e-002	4.2628
20002	19.481	0.90909	0.	29.281
20003	19.389	0.81818	0.	28.024
20004	19.389	0.90909	5.e-002	4.2485
20005	19.666	0.90909	0.	30.417
20006	19.573	0.81818	0.	29.039
20007	19.573	0.90909	5.e-002	4.2347
20008	19.85	0.90909	0.	31.626
20009	19.758	0.81818	0.	30.118
20010	19.758	0.90909	5.e-002	4.2214
20011	20.034	0.90909	0.	32.916
20012	19.942	0.81818	0.	31.264
20013	19.942	0.90909	5.e-002	4.2087
20014	20.219	0.90909	0.	34.291
20015	20.127	0.81818	0.	32.483
20016	20.127	0.90909	5.e-002	4.1967
20017	20.403	0.90909	0.	35.759
20018	20.311	0.81818	0.	33.78
20019	20.311	0.90909	5.e-002	4.1853
20020	20.588	0.90909	0.	37.328
20021	20.496	0.81818	0.	35.161
20022	20.496	0.90909	5.e-002	4.1747
20023	20.772	0.90909	0.	39.007
20024	20.68	0.81818	0.	36.634
20025	20.68	0.90909	5.e-002	4.1648
20026	20.957	0.90909	0.	40.805
20027	20.864	0.81818	0.	38.207
20028	20.864	0.90909	5.e-002	4.1558
20029	21.141	0.90909	0.	42.736
20030	21.049	0.81818	0.	39.889
20031	21.049	0.90909	5.e-002	4.1478
20032	21.326	0.90909	0.	44.812
20033	21.233	0.81818	0.	41.69
20034	21.233	0.90909	5.e-002	4.1408
20035	21.51	0.90909	0.	47.051
20036	21.418	0.81818	0.	43.624
20037	21.418	0.90909	5.e-002	4.135
20038	21.694	0.90909	0.	49.474
20039	21.602	0.81818	0.	45.707
20040	21.602	0.90909	5.e-002	4.1304
20041	21.879	0.90909	0.	52.107
20042	21.787	0.81818	0.	47.96
20043	21.787	0.90909	5.e-002	4.1274
20044	22.063	0.90909	0.	54.982
20045	21.971	0.81818	0.	50.406
20046	21.971	0.90909	5.e-002	4.1261
20047	22.248	0.90909	0.	58.142
20048	22.156	0.81818	0.	53.08
20049	22.156	0.90909	5.e-002	4.1268
20050	22.432	0.90909	0.	61.64
20051	22.34	0.81818	0.	56.025
20052	22.34	0.90909	5.e-002	4.1301
20053	22.617	0.90909	0.	65.548
20054	22.524	0.81818	0.	59.297
20055	22.524	0.90909	5.e-002	4.1368
20056	22.801	0.90909	0.	69.957
20057	22.709	0.81818	0.	62.975
20058	22.709	0.90909	5.e-002	4.1478
20059	22.986	0.90909	0.	74.988
20060	22.893	0.81818	0.	67.164
20061	22.893	0.90909	5.e-002	4.1649
20062	23.17	0.90909	0.	80.787
20063	23.078	0.81818	0.	72.004
20064	23.078	0.90909	5.e-002	4.1906
20065	23.354	0.90909	0.	87.522
20066	23.262	0.81818	0.	77.684
20067	23.262	0.90909	5.e-002	4.229
20068	23.539	0.90909	0.	95.388
20069	23.447	0.81818	0.	84.415
20070	23.447	0.90909	5.e-002	4.2855
20071	23.723	0.90909	0.	104.51
20072	23.631	0.81818	0.	92.492
20073	23.631	0.90909	5.e-002	4.372
20074	23.816	0.81818	0.	102.03
20075	23.816	0.90909	5.e-002	4.5888
20076	23.908	0.90909	0.	113.53
20077	2.1433	0.72727	0.	790.58
20078	2.0511	0.63636	0.	825.71
20079	2.0511	0.72727	5.e-002	91.518
20080	1.9589	0.72727	0.	787.36
20081	2.3278	0.72727	0.	529.33
20082	2.2356	0.63636	0.	507.99
20083	2.2356	0.72727	5.e-002	70.057
20084	2.5122	0.72727	0.	401.91
20085	2.42	0.63636	0.	378.35
20086	2.42	0.72727	5.e-002	62.003
20087	2.6967	0.72727	0.	323.19
20088	2.6044	0.63636	0.	309.41
20089	2.6044	0.72727	5.e-002	52.616
20090	2.8811	0.72727	0.	265.96
20091	2.7889	0.63636	0.	262.67
20092	2.7889	0.72727	5.e-002	43.272
20093	3.0656	0.72727	0.	219.07
20094	2.9733	0.63636	0.	224.13
20095	2.9733	0.72727	5.e-002	34.769
20096	3.25	0.72727	0.	177.98
20097	3.1578	0.63636	0.	188.77
20098	3.1578	0.72727	5.e-002	27.442
20099	3.4344	0.72727	0.	141.18
20100	3.3422	0.63636	0.	155.46
20101	3.3422	0.72727	5.e-002	21.324
20102	3.6189	0.72727	0.	108.24
20103	3.5267	0.63636	0.	124.34
20104	3.5267	0.72727	5.e-002	16.32
20105	3.8033	0.72727	0.	79.126
20106	3.7111	0.63636	0.	95.87
20107	3.7111	0.72727	5.e-002	12.296
20108	3.9878	0.72727	0.	53.821
20109	3.8956	0.63636	0.	70.427
20110	3.8956	0.72727	5.e-002	9.129
20111	4.1722	0.72727	0.	32.284
20112	4.08	0.63636	0.	48.212
20113	4.08	0.72727	5.e-002	6.7279
20114	4.3567	0.72727	0.	14.597
20115	4.2644	0.63636	0.	29.272
20116	4.2644	0.72727	5.e-002	5.0452
20117	4.5411	0.72727	0.	3.0377
20118	4.4489	0.63636	0.	13.646
20119	4.4489	0.72727	5.e-002	4.062
20120	4.7256	0.72727	0.	0.75212
20121	4.6333	0.63636	0.	2.829
20122	4.6333	0.72727	5.e-002	3.706
20123	4.91	0.72727	0.	0.35857
20124	4.8178	0.63636	0.	0.60332
20125	4.8178	0.72727	5.e-002	3.7785
20126	5.0944	0.72727	0.	0.2178
20127	5.0022	0.63636	0.	0.28482
20128	5.0022	0.72727	5.e-002	4.0493
20129	5.2789	0.72727	0.	0.14921
20130	5.1867	0.63636	0.	0.17585
20131	5.1867	0.72727	5.e-002	4.3696
20132	5.4633	0.72727	0.	0.10991
20133	5.3711	0.63636	0.	0.12304
20134	5.3711	0.72727	5.e-002	4.6704
20135	5.6478	0.72727	0.	8.4976e-002
20136	5.5556	0.63636	0.	9.2517e-002
20137	5.5556	0.72727	5.e-002	4.927
20138	5.8322	0.72727	0.	6.7977e-002
20139	5.74	0.63636	0.	7.2854e-002
20140	5.74	0.72727	5.e-002	5.1348
20141	6.0167	0.72727	0.	5.5744e-002
20142	5.9244	0.63636	0.	5.9199e-002
20143	5.9244	0.72727	5.e-002	5.2968
20144	6.2011	0.72727	0.	4.6569e-002
20145	6.1089	0.63636	0.	4.9174e-002
20146	6.1089	0.72727	5.e-002	5.4189
20147	6.3856	0.72727	0.	3.9464e-002
20148	6.2933	0.63636	0.	4.1517e-002
20149	6.2933	0.72727	5.e-002	5.5079
20150	6.57	0.72727	0.	3.3811e-002
20151	6.4778	0.63636	0.	3.5476e-002
20152	6.4778	0.72727	5.e-002	5.5697
20153	6.7544	0.72727	0.	2.9218e-002
20154	6.6622	0.63636	0.	3.0583e-002
20155	6.6622	0.72727	5.e-002	5.6097
20156	6.9389	0.72727	0.	2.5427e-002
20157	6.8467	0.63636	0.	2.6554e-002
20158	6.8467	0.72727	5.e-002	5.6327
20159	7.1233	0.72727	0.	2.2248e-002
20160	7.0311	0.63636	0.	2.318e-002
20161	7.0311	0.72727	5.e-002	5.6422
20162	7.3078	0.72727	0.	1.9552e-002
20163	7.2156	0.63636	0.	2.031e-002
20164	7.2156	0.72727	5.e-002	5.6413
20165	7.4922	0.72727	0.	1.725e-002
20166	7.4	0.63636	0.	1.7857e-002
20167	7.4	0.72727	5.e-002	5.6324
20168	7.6767	0.72727	0.	1.5262e-002
20169	7.5844	0.63636	0.	1.5738e-002
20170	7.5844	0.72727	5.e-002	5.6175
20171	7.8611	0.72727	0.	1.3537e-002
20172	7.7689	0.63636	0.	1.3887e-002
20173	7.7689	0.72727	5.e-002	5.5983
20174	8.0456	0.72727	0.	1.2036e-002
20175	7.9533	0.63636	0.	1.2274e-002
20176	7.9533	0.72727	5.e-002	5.5757
20177	8.23	0.72727	0.	1.072e-002
20178	8.1378	0.63636	0.	1.0857e-002
20179	8.1378	0.72727	5.e-002	5.5509
20180	8.4144	0.72727	0.	9.568e-003
20181	8.3222	0.63636	0.	9.604e-003
20182	8.3222	0.72727	5.e-002	5.5246
20183	8.5989	0.72727	0.	8.564e-003
20184	8.5067	0.63636	0.	8.5062e-003
20185	8.5067	0.72727	5.e-002	5.4972
20186	8.7833	0.72727	0.	7.688e-003
20187	8.6911	0.63636	0.	7.5423e-003
20188	8.6911	0.72727	5.e-002	5.4693
20189	8.9678	0.72727	0.	6.9344e-003
20190	8.8756	0.63636	0.	6.6965e-003
20191	8.8756	0.72727	5.e-002	5.441
20192	9.1522	0.72727	0.	6.3045e-003
20193	9.06	0.63636	0.	5.9775e-003
20194	9.06	0.72727	5.e-002	5.4128
20195	9.3367	0.72727	0.	5.7982e-003
20196	9.2444	0.63636	0.	5.3853e-003
20197	9.2444	0.72727	5.e-002	5.3846
20198	9.5211	0.72727	0.	5.4451e-003
20199	9.4289	0.63636	0.	4.9365e-003
20200	9.4289	0.72727	5.e-002	5.3567
20201	9.7056	0.72727	0.	5.2933e-003
20202	9.6133	0.63636	0.	4.719e-003
20203	9.6133	0.72727	5.e-002	5.3292
20204	9.89	0.72727	0.	5.4833e-003
20205	9.7978	0.63636	0.	4.9074e-003
20206	9.7978	0.72727	5.e-002	5.302
20207	10.074	0.72727	0.	6.4998e-003
20208	9.9822	0.63636	0.	6.4759e-003
20209	9.9822	0.72727	5.e-002	5.2751
20210	10.259	0.72727	0.	1.0609e-002
20211	10.167	0.63636	0.	2.9203e-002
20212	10.167	0.72727	5.e-002	5.2488
20213	10.443	0.72727	0.	0.12019
20214	10.351	0.63636	0.	0.86664
20215	10.351	0.72727	5.e-002	5.2229
20216	10.628	0.72727	0.	1.0921
20217	10.536	0.63636	0.	1.8358
20218	10.536	0.72727	5.e-002	5.1974
20219	10.812	0.72727	0.	2.0648
20220	10.72	0.63636	0.	2.7475
20221	10.72	0.72727	5.e-002	5.1723
20222	10.997	0.72727	0.	2.9789
20223	10.904	0.63636	0.	3.6036
20224	10.904	0.72727	5.e-002	5.1476
20225	11.181	0.72727	0.	3.8368
20226	11.089	0.63636	0.	4.4077
20227	11.089	0.72727	5.e-002	5.1233
20228	11.366	0.72727	0.	4.6422
20229	11.273	0.63636	0.	5.1635
20230	11.273	0.72727	5.e-002	5.0993
20231	11.55	0.72727	0.	5.3987
20232	11.458	0.63636	0.	5.8743
20233	11.458	0.72727	5.e-002	5.0757
20234	11.734	0.72727	0.	6.1103
20235	11.642	0.63636	0.	6.5436
20236	11.642	0.72727	5.e-002	5.0524
20237	11.919	0.72727	0.	6.7805
20238	11.827	0.63636	0.	7.1748
20239	11.827	0.72727	5.e-002	5.0293
20240	12.103	0.72727	0.	7.4128
20241	12.011	0.63636	0.	7.7709
20242	12.011	0.72727	5.e-002	5.0066
20243	12.288	0.72727	0.	8.0103
20244	12.196	0.63636	0.	8.3349
20245	12.196	0.72727	5.e-002	4.9841
20246	12.472	0.72727	0.	8.5762
20247	12.38	0.63636	0.	8.8697
20248	12.38	0.72727	5.e-002	4.9619
20249	12.657	0.72727	0.	9.1134
20250	12.564	0.63636	0.	9.3778
20251	12.564	0.72727	5.e-002	4.9399
20252	12.841	0.72727	0.	9.6247
20253	12.749	0.63636	0.	9.8618
20254	12.749	0.72727	5.e-002	4.9181
20255	13.026	0.72727	0.	10.113
20256	12.933	0.63636	0.	10.324
20257	12.933	0.72727	5.e-002	4.8965
20258	13.21	0.72727	0.	10.58
20259	13.118	0.63636	0.	10.767
20260	13.118	0.72727	5.e-002	4.8751
20261	13.394	0.72727	0.	11.028
20262	13.302	0.63636	0.	11.193
20263	13.302	0.72727	5.e-002	4.8538
20264	13.579	0.72727	0.	11.461
20265	13.487	0.63636	0.	11.604
20266	13.487	0.72727	5.e-002	4.8328
20267	13.763	0.72727	0.	11.879
20268	13.671	0.63636	0.	12.001
20269	13.671	0.72727	5.e-002	4.8119
20270	13.948	0.72727	0.	12.286
20271	13.856	0.63636	0.	12.388
20272	13.856	0.72727	5.e-002	4.7912
20273	14.132	0.72727	0.	12.682
20274	14.04	0.63636	0.	12.765
20275	14.04	0.72727	5.e-002	4.7706
20276	14.317	0.72727	0.	13.071
20277	14.224	0.63636	0.	13.134
20278	14.224	0.72727	5.e-002	4.7502
20279	14.501	0.72727	0.	13.453
20280	14.409	0.63636	0.	13.497
20281	14.409	0.72727	5.e-002	4.7298
20282	14.686	0.72727	0.	13.831
20283	14.593	0.63636	0.	13.855
20284	14.593	0.72727	5.e-002	4.7097
20285	14.87	0.72727	0.	14.206
20286	14.778	0.63636	0.	14.211
20287	14.778	0.72727	5.e-002	4.6897
20288	15.054	0.72727	0.	14.58
20289	14.962	0.63636	0.	14.566
20290	14.962	0.72727	5.e-002	4.6697
20291	15.239	0.72727	0.	14.954
20292	15.147	0.63636	0.	14.92
20293	15.147	0.72727	5.e-002	4.65
20294	15.423	0.72727	0.	15.331
20295	15.331	0.63636	0.	15.276
20296	15.331	0.72727	5.e-002	4.6303
20297	15.608	0.72727	0.	15.712
20298	15.516	0.63636	0.	15.636
20299	15.516	0.72727	5.e-002	4.6108
20300	15.792	0.72727	0.	16.098
20301	15.7	0.63636	0.	16.
20302	15.7	0.72727	5.e-002	4.5914
20303	15.977	0.72727	0.	16.492
20304	15.884	0.63636	0.	16.37
20305	15.884	0.72727	5.e-002	4.5722
20306	16.161	0.72727	0.	16.894
20307	16.069	0.63636	0.	16.747
20308	16.069	0.72727	5.e-002	4.5531
20309	16.346	0.72727	0.	17.308
20310	16.253	0.63636	0.	17.134
20311	16.253	0.72727	5.e-002	4.5342
20312	16.53	0.72727	0.	17.733
20313	16.438	0.63636	0.	17.531
20314	16.438	0.72727	5.e-002	4.5154
20315	16.714	0.72727	0.	18.172
20316	16.622	0.63636	0.	17.94
20317	16.622	0.72727	5.e-002	4.4967
20318	16.899	0.72727	0.	18.628
20319	16.807	0.63636	0.	18.362
20320	16.807	0.72727	5.e-002	4.4783
20321	17.083	0.72727	0.	19.101
20322	16.991	0.63636	0.	18.8
20323	16.991	0.72727	5.e-002	4.46
20324	17.268	0.72727	0.	19.593
20325	17.176	0.63636	0.	19.254
20326	17.176	0.72727	5.e-002	4.4419
20327	17.452	0.72727	0.	20.107
20328	17.36	0.63636	0.	19.727
20329	17.36	0.72727	5.e-002	4.424
20330	17.637	0.72727	0.	20.645
20331	17.544	0.63636	0.	20.22
20332	17.544	0.72727	5.e-002	4.4063
20333	17.821	0.72727	0.	21.208
20334	17.729	0.63636	0.	20.735
20335	17.729	0.72727	5.e-002	4.3888
20336	18.006	0.72727	0.	21.799
20337	17.913	0.63636	0.	21.273
20338	17.913	0.72727	5.e-002	4.3716
20339	18.19	0.72727	0.	22.42
20340	18.098	0.63636	0.	21.837
20341	18.098	0.72727	5.e-002	4.3547
20342	18.374	0.72727	0.	23.074
20343	18.282	0.63636	0.	22.429
20344	18.282	0.72727	5.e-002	4.338
20345	18.559	0.72727	0.	23.762
20346	18.467	0.63636	0.	23.051
20347	18.467	0.72727	5.e-002	4.3217
20348	18.743	0.72727	0.	24.489
20349	18.651	0.63636	0.	23.704
20350	18.651	0.72727	5.e-002	4.3056
20351	18.928	0.72727	0.	25.255
20352	18.836	0.63636	0.	24.391
20353	18.836	0.72727	5.e-002	4.2899
20354	19.112	0.72727	0.	26.065
20355	19.02	0.63636	0.	25.114
20356	19.02	0.72727	5.e-002	4.2746
20357	19.297	0.72727	0.	26.922
20358	19.204	0.63636	0.	25.877
20359	19.204	0.72727	5.e-002	4.2598
20360	19.481	0.72727	0.	27.828
20361	19.389	0.63636	0.	26.68
20362	19.389	0.72727	5.e-002	4.2453
20363	19.666	0.72727	0.	28.787
20364	19.573	0.63636	0.	27.528
20365	19.573	0.72727	5.e-002	4.2313
20366	19.85	0.72727	0.	29.803
20367	19.758	0.63636	0.	28.422
20368	19.758	0.72727	5.e-002	4.2179
20369	20.034	0.72727	0.	30.88
20370	19.942	0.63636	0.	29.367
20371	19.942	0.72727	5.e-002	4.2049
20372	20.219	0.72727	0.	32.023
20373	20.127	0.63636	0.	30.364
20374	20.127	0.72727	5.e-002	4.1926
20375	20.403	0.72727	0.	33.235
20376	20.311	0.63636	0.	31.418
20377	20.311	0.72727	5.e-002	4.1809
20378	20.588	0.72727	0.	34.523
20379	20.496	0.63636	0.	32.533
20380	20.496	0.72727	5.e-002	4.1698
20381	20.772	0.72727	0.	35.892
20382	20.68	0.63636	0.	33.713
20383	20.68	0.72727	5.e-002	4.1595
20384	20.957	0.72727	0.	37.35
20385	20.864	0.63636	0.	34.963
20386	20.864	0.72727	5.e-002	4.15
20387	21.141	0.72727	0.	38.906
20388	21.049	0.63636	0.	36.288
20389	21.049	0.72727	5.e-002	4.1414
20390	21.326	0.72727	0.	40.568
20391	21.233	0.63636	0.	37.696
20392	21.233	0.72727	5.e-002	4.1337
20393	21.51	0.72727	0.	42.349
20394	21.418	0.63636	0.	39.195
20395	21.418	0.72727	5.e-002	4.127
20396	21.694	0.72727	0.	44.265
20397	21.602	0.63636	0.	40.796
20398	21.602	0.72727	5.e-002	4.1214
20399	21.879	0.72727	0.	46.335
20400	21.787	0.63636	0.	42.512
20401	21.787	0.72727	5.e-002	4.1171
20402	22.063	0.72727	0.	48.584
20403	21.971	0.63636	0.	44.359
20404	21.971	0.72727	5.e-002	4.1142
20405	22.248	0.72727	0.	51.047
20406	22.156	0.63636	0.	46.363
20407	22.156	0.72727	5.e-002	4.113
20408	22.432	0.72727	0.	53.769
20409	22.34	0.63636	0.	48.554
20410	22.34	0.72727	5.e-002	4.114
20411	22.617	0.72727	0.	56.815
20412	22.524	0.63636	0.	50.979
20413	22.524	0.72727	5.e-002	4.1176
20414	22.801	0.72727	0.	60.272
20415	22.709	0.63636	0.	53.7
20416	22.709	0.72727	5.e-002	4.1249
20417	22.986	0.72727	0.	64.269
20418	22.893	0.63636	0.	56.814
20419	22.893	0.72727	5.e-002	4.1376
20420	23.17	0.72727	0.	68.981
20421	23.078	0.63636	0.	60.46
20422	23.078	0.72727	5.e-002	4.1583
20423	23.354	0.72727	0.	74.643
20424	23.262	0.63636	0.	64.854
20425	23.262	0.72727	5.e-002	4.1919
20426	23.539	0.72727	0.	81.569
20427	23.447	0.63636	0.	70.293
20428	23.447	0.72727	5.e-002	4.2465
20429	23.723	0.72727	0.	90.05
20430	23.631	0.63636	0.	77.255
20431	23.631	0.72727	5.e-002	4.3406
20432	23.816	0.63636	0.	86.142
20433	23.816	0.72727	5.e-002	4.5928
20434	23.908	0.72727	0.	98.629
20435	2.1433	0.54545	0.	491.53
20436	2.0511	0.45455	0.	502.23
20437	2.0511	0.54545	5.e-002	81.405
20438	1.9589	0.54545	0.	501.96
20439	2.3278	0.54545	0.	325.88
20440	2.2356	0.45455	0.	290.65
20441	2.2356	0.54545	5.e-002	66.101
20442	2.5122	0.54545	0.	268.66
20443	2.42	0.45455	0.	234.64
20444	2.42	0.54545	5.e-002	59.835
20445	2.6967	0.54545	0.	239.22
20446	2.6044	0.45455	0.	214.45
20447	2.6044	0.54545	5.e-002	51.963
20448	2.8811	0.54545	0.	215.21
20449	2.7889	0.45455	0.	199.37
20450	2.7889	0.54545	5.e-002	43.662
20451	3.0656	0.54545	0.	190.49
20452	2.9733	0.45455	0.	181.91
20453	2.9733	0.54545	5.e-002	35.698
20454	3.25	0.54545	0.	164.24
20455	3.1578	0.45455	0.	161.16
20456	3.1578	0.54545	5.e-002	28.518
20457	3.4344	0.54545	0.	137.43
20458	3.3422	0.45455	0.	138.34
20459	3.3422	0.54545	5.e-002	22.293
20460	3.6189	0.54545	0.	111.28
20461	3.5267	0.45455	0.	115.
20462	3.5267	0.54545	5.e-002	17.039
20463	3.8033	0.54545	0.	86.794
20464	3.7111	0.45455	0.	92.459
20465	3.7111	0.54545	5.e-002	12.693
20466	3.9878	0.54545	0.	64.644
20467	3.8956	0.45455	0.	71.596
20468	3.8956	0.54545	5.e-002	9.1658
20469	4.1722	0.54545	0.	45.178
20470	4.08	0.45455	0.	52.934
20471	4.08	0.54545	5.e-002	6.3718
20472	4.3567	0.54545	0.	28.514
20473	4.2644	0.45455	0.	36.708
20474	4.2644	0.54545	5.e-002	4.2668
20475	4.5411	0.54545	0.	14.652
20476	4.4489	0.45455	0.	22.951
20477	4.4489	0.54545	5.e-002	2.9019
20478	4.7256	0.54545	0.	4.0106
20479	4.6333	0.45455	0.	11.604
20480	4.6333	0.54545	5.e-002	2.4162
20481	4.91	0.54545	0.	0.59477
20482	4.8178	0.45455	0.	2.9525
20483	4.8178	0.54545	5.e-002	2.6615
20484	5.0944	0.54545	0.	0.25115
20485	5.0022	0.45455	0.	0.40844
20486	5.0022	0.54545	5.e-002	3.1813
20487	5.2789	0.54545	0.	0.15276
20488	5.1867	0.45455	0.	0.18583
20489	5.1867	0.54545	5.e-002	3.7105
20490	5.4633	0.54545	0.	0.10765
20491	5.3711	0.45455	0.	0.12377
20492	5.3711	0.54545	5.e-002	4.1687
20493	5.6478	0.54545	0.	8.1999e-002
20494	5.5556	0.45455	0.	9.5965e-002
20495	5.5556	0.54545	5.e-002	4.542
20496	5.8322	0.54545	0.	6.5467e-002
20497	5.74	0.45455	0.	8.025e-002
20498	5.74	0.54545	5.e-002	4.8363
20499	6.0167	0.54545	0.	5.3879e-002
20500	5.9244	0.45455	0.	6.9898e-002
20501	5.9244	0.54545	5.e-002	5.0632
20502	6.2011	0.54545	0.	4.5265e-002
20503	6.1089	0.45455	0.	6.2269e-002
20504	6.1089	0.54545	5.e-002	5.2344
20505	6.3856	0.54545	0.	3.8585e-002
20506	6.2933	0.45455	0.	5.6185e-002
20507	6.2933	0.54545	5.e-002	5.3605
20508	6.57	0.54545	0.	3.3229e-002
20509	6.4778	0.45455	0.	5.1043e-002
20510	6.4778	0.54545	5.e-002	5.4507
20511	6.7544	0.54545	0.	2.8832e-002
20512	6.6622	0.45455	0.	4.6524e-002
20513	6.6622	0.54545	5.e-002	5.5124
20514	6.9389	0.54545	0.	2.5156e-002
20515	6.8467	0.45455	0.	4.2466e-002
20516	6.8467	0.54545	5.e-002	5.5519
20517	7.1233	0.54545	0.	2.2032e-002
20518	7.0311	0.45455	0.	3.8762e-002
20519	7.0311	0.54545	5.e-002	5.5742
20520	7.3078	0.54545	0.	1.9346e-002
20521	7.2156	0.45455	0.	3.534e-002
20522	7.2156	0.54545	5.e-002	5.583
20523	7.4922	0.54545	0.	1.702e-002
20524	7.4	0.45455	0.	3.2179e-002
20525	7.4	0.54545	5.e-002	5.5817
20526	7.6767	0.54545	0.	1.4983e-002
20527	7.5844	0.45455	0.	2.9242e-002
20528	7.5844	0.54545	5.e-002	5.5727
20529	7.8611	0.54545	0.	1.3191e-002
20530	7.7689	0.45455	0.	2.6505e-002
20531	7.7689	0.54545	5.e-002	5.558
20532	8.0456	0.54545	0.	1.161e-002
20533	7.9533	0.45455	0.	2.3964e-002
20534	7.9533	0.54545	5.e-002	5.5389
20535	8.23	0.54545	0.	1.0205e-002
20536	8.1378	0.45455	0.	2.1601e-002
20537	8.1378	0.54545	5.e-002	5.5169
20538	8.4144	0.54545	0.	8.9532e-003
20539	8.3222	0.45455	0.	1.9397e-002
20540	8.3222	0.54545	5.e-002	5.4927
20541	8.5989	0.54545	0.	7.8414e-003
20542	8.5067	0.45455	0.	1.7356e-002
20543	8.5067	0.54545	5.e-002	5.467
20544	8.7833	0.54545	0.	6.8502e-003
20545	8.6911	0.45455	0.	1.5461e-002
20546	8.6911	0.54545	5.e-002	5.4403
20547	8.9678	0.54545	0.	5.9751e-003
20548	8.8756	0.45455	0.	1.3697e-002
20549	8.8756	0.54545	5.e-002	5.4132
20550	9.1522	0.54545	0.	5.219e-003
20551	9.06	0.45455	0.	1.2067e-002
20552	9.06	0.54545	5.e-002	5.3858
20553	9.3367	0.54545	0.	4.5917e-003
20554	9.2444	0.45455	0.	1.056e-002
20555	9.2444	0.54545	5.e-002	5.3583
20556	9.5211	0.54545	0.	4.1651e-003
20557	9.4289	0.45455	0.	9.1677e-003
20558	9.4289	0.54545	5.e-002	5.331
20559	9.7056	0.54545	0.	4.2524e-003
20560	9.6133	0.45455	0.	0.12804
20561	9.6133	0.54545	5.e-002	5.304
20562	9.89	0.54545	0.	1.1725e-002
20563	9.7978	0.45455	0.	1.0946
20564	9.7978	0.54545	5.e-002	5.2772
20565	10.074	0.54545	0.	0.82377
20566	9.9822	0.45455	0.	2.0067
20567	9.9822	0.54545	5.e-002	5.2507
20568	10.259	0.54545	0.	1.7764
20569	10.167	0.45455	0.	2.8669
20570	10.167	0.54545	5.e-002	5.2247
20571	10.443	0.54545	0.	2.6729
20572	10.351	0.45455	0.	3.6772
20573	10.351	0.54545	5.e-002	5.1991
20574	10.628	0.54545	0.	3.516
20575	10.536	0.45455	0.	4.4408
20576	10.536	0.54545	5.e-002	5.1739
20577	10.812	0.54545	0.	4.3088
20578	10.72	0.45455	0.	5.1605
20579	10.72	0.54545	5.e-002	5.149
20580	10.997	0.54545	0.	5.0546
20581	10.904	0.45455	0.	5.8389
20582	10.904	0.54545	5.e-002	5.1245
20583	11.181	0.54545	0.	5.7566
20584	11.089	0.45455	0.	6.4788
20585	11.089	0.54545	5.e-002	5.1004
20586	11.366	0.54545	0.	6.4181
20587	11.273	0.45455	0.	7.0831
20588	11.273	0.54545	5.e-002	5.0766
20589	11.55	0.54545	0.	7.042
20590	11.458	0.45455	0.	7.6543
20591	11.458	0.54545	5.e-002	5.0532
20592	11.734	0.54545	0.	7.6312
20593	11.642	0.45455	0.	8.1949
20594	11.642	0.54545	5.e-002	5.03
20595	11.919	0.54545	0.	8.1886
20596	11.827	0.45455	0.	8.7074
20597	11.827	0.54545	5.e-002	5.0072
20598	12.103	0.54545	0.	8.7168
20599	12.011	0.45455	0.	9.1941
20600	12.011	0.54545	5.e-002	4.9846
20601	12.288	0.54545	0.	9.2183
20602	12.196	0.45455	0.	9.6573
20603	12.196	0.54545	5.e-002	4.9623
20604	12.472	0.54545	0.	9.6956
20605	12.38	0.45455	0.	10.099
20606	12.38	0.54545	5.e-002	4.9402
20607	12.657	0.54545	0.	10.151
20608	12.564	0.45455	0.	10.521
20609	12.564	0.54545	5.e-002	4.9184
20610	12.841	0.54545	0.	10.587
20611	12.749	0.45455	0.	10.926
20612	12.749	0.54545	5.e-002	4.8967
20613	13.026	0.54545	0.	11.004
20614	12.933	0.45455	0.	11.316
20615	12.933	0.54545	5.e-002	4.8752
20616	13.21	0.54545	0.	11.407
20617	13.118	0.45455	0.	11.691
20618	13.118	0.54545	5.e-002	4.854
20619	13.394	0.54545	0.	11.795
20620	13.302	0.45455	0.	12.054
20621	13.302	0.54545	5.e-002	4.8328
20622	13.579	0.54545	0.	12.171
20623	13.487	0.45455	0.	12.406
20624	13.487	0.54545	5.e-002	4.8119
20625	13.763	0.54545	0.	12.537
20626	13.671	0.45455	0.	12.749
20627	13.671	0.54545	5.e-002	4.7912
20628	13.948	0.54545	0.	12.894
20629	13.856	0.45455	0.	13.085
20630	13.856	0.54545	5.e-002	4.7706
20631	14.132	0.54545	0.	13.244
20632	14.04	0.45455	0.	13.414
20633	14.04	0.54545	5.e-002	4.7501
20634	14.317	0.54545	0.	13.588
20635	14.224	0.45455	0.	13.738
20636	14.224	0.54545	5.e-002	4.7298
20637	14.501	0.54545	0.	13.928
20638	14.409	0.45455	0.	14.058
20639	14.409	0.54545	5.e-002	4.7095
20640	14.686	0.54545	0.	14.265
20641	14.593	0.45455	0.	14.376
20642	14.593	0.54545	5.e-002	4.6895
20643	14.87	0.54545	0.	14.6
20644	14.778	0.45455	0.	14.692
20645	14.778	0.54545	5.e-002	4.6696
20646	15.054	0.54545	0.	14.936
20647	14.962	0.45455	0.	15.008
20648	14.962	0.54545	5.e-002	4.6498
20649	15.239	0.54545	0.	15.272
20650	15.147	0.45455	0.	15.325
20651	15.147	0.54545	5.e-002	4.6301
20652	15.423	0.54545	0.	15.611
20653	15.331	0.45455	0.	15.644
20654	15.331	0.54545	5.e-002	4.6105
20655	15.608	0.54545	0.	15.954
20656	15.516	0.45455	0.	15.967
20657	15.516	0.54545	5.e-002	4.5911
20658	15.792	0.54545	0.	16.302
20659	15.7	0.45455	0.	16.294
20660	15.7	0.54545	5.e-002	4.5718
20661	15.977	0.54545	0.	16.657
20662	15.884	0.45455	0.	16.626
20663	15.884	0.54545	5.e-002	4.5527
20664	16.161	0.54545	0.	17.019
20665	16.069	0.45455	0.	16.964
20666	16.069	0.54545	5.e-002	4.5337
20667	16.346	0.54545	0.	17.39
20668	16.253	0.45455	0.	17.31
20669	16.253	0.54545	5.e-002	4.5148
20670	16.53	0.54545	0.	17.771
20671	16.438	0.45455	0.	17.665
20672	16.438	0.54545	5.e-002	4.4961
20673	16.714	0.54545	0.	18.163
20674	16.622	0.45455	0.	18.03
20675	16.622	0.54545	5.e-002	4.4775
20676	16.899	0.54545	0.	18.569
20677	16.807	0.45455	0.	18.405
20678	16.807	0.54545	5.e-002	4.4591
20679	17.083	0.54545	0.	18.988
20680	16.991	0.45455	0.	18.793
20681	16.991	0.54545	5.e-002	4.441
20682	17.268	0.54545	0.	19.424
20683	17.176	0.45455	0.	19.193
20684	17.176	0.54545	5.e-002	4.4229
20685	17.452	0.54545	0.	19.876
20686	17.36	0.45455	0.	19.608
20687	17.36	0.54545	5.e-002	4.4051
20688	17.637	0.54545	0.	20.347
20689	17.544	0.45455	0.	20.038
20690	17.544	0.54545	5.e-002	4.3875
20691	17.821	0.54545	0.	20.838
20692	17.729	0.45455	0.	20.485
20693	17.729	0.54545	5.e-002	4.3701
20694	18.006	0.54545	0.	21.35
20695	17.913	0.45455	0.	20.95
20696	17.913	0.54545	5.e-002	4.3529
20697	18.19	0.54545	0.	21.886
20698	18.098	0.45455	0.	21.434
20699	18.098	0.54545	5.e-002	4.3361
20700	18.374	0.54545	0.	22.446
20701	18.282	0.45455	0.	21.938
20702	18.282	0.54545	5.e-002	4.3195
20703	18.559	0.54545	0.	23.033
20704	18.467	0.45455	0.	22.464
20705	18.467	0.54545	5.e-002	4.3032
20706	18.743	0.54545	0.	23.648
20707	18.651	0.45455	0.	23.013
20708	18.651	0.54545	5.e-002	4.2872
20709	18.928	0.54545	0.	24.293
20710	18.836	0.45455	0.	23.586
20711	18.836	0.54545	5.e-002	4.2716
20712	19.112	0.54545	0.	24.97
20713	19.02	0.45455	0.	24.184
20714	19.02	0.54545	5.e-002	4.2563
20715	19.297	0.54545	0.	25.68
20716	19.204	0.45455	0.	24.81
20717	19.204	0.54545	5.e-002	4.2415
20718	19.481	0.54545	0.	26.427
20719	19.389	0.45455	0.	25.464
20720	19.389	0.54545	5.e-002	4.227
20721	19.666	0.54545	0.	27.211
20722	19.573	0.45455	0.	26.147
20723	19.573	0.54545	5.e-002	4.2131
20724	19.85	0.54545	0.	28.036
20725	19.758	0.45455	0.	26.862
20726	19.758	0.54545	5.e-002	4.1996
20727	20.034	0.54545	0.	28.902
20728	19.942	0.45455	0.	27.609
20729	19.942	0.54545	5.e-002	4.1866
20730	20.219	0.54545	0.	29.814
20731	20.127	0.45455	0.	28.39
20732	20.127	0.54545	5.e-002	4.1743
20733	20.403	0.54545	0.	30.773
20734	20.311	0.45455	0.	29.206
20735	20.311	0.54545	5.e-002	4.1625
20736	20.588	0.54545	0.	31.782
20737	20.496	0.45455	0.	30.06
20738	20.496	0.54545	5.e-002	4.1514
20739	20.772	0.54545	0.	32.845
20740	20.68	0.45455	0.	30.953
20741	20.68	0.54545	5.e-002	4.141
20742	20.957	0.54545	0.	33.965
20743	20.864	0.45455	0.	31.886
20744	20.864	0.54545	5.e-002	4.1313
20745	21.141	0.54545	0.	35.147
20746	21.049	0.45455	0.	32.863
20747	21.049	0.54545	5.e-002	4.1223
20748	21.326	0.54545	0.	36.396
20749	21.233	0.45455	0.	33.885
20750	21.233	0.54545	5.e-002	4.1143
20751	21.51	0.54545	0.	37.719
20752	21.418	0.45455	0.	34.956
20753	21.418	0.54545	5.e-002	4.1071
20754	21.694	0.54545	0.	39.125
20755	21.602	0.45455	0.	36.081
20756	21.602	0.54545	5.e-002	4.1009
20757	21.879	0.54545	0.	40.625
20758	21.787	0.45455	0.	37.265
20759	21.787	0.54545	5.e-002	4.0958
20760	22.063	0.54545	0.	42.233
20761	21.971	0.45455	0.	38.515
20762	21.971	0.54545	5.e-002	4.0918
20763	22.248	0.54545	0.	43.973
20764	22.156	0.45455	0.	39.844
20765	22.156	0.54545	5.e-002	4.0892
20766	22.432	0.54545	0.	45.874
20767	22.34	0.45455	0.	41.267
20768	22.34	0.54545	5.e-002	4.0882
20769	22.617	0.54545	0.	47.982
20770	22.524	0.45455	0.	42.809
20771	22.524	0.54545	5.e-002	4.0893
20772	22.801	0.54545	0.	50.367
20773	22.709	0.45455	0.	44.509
20774	22.709	0.54545	5.e-002	4.0931
20775	22.986	0.54545	0.	53.135
20776	22.893	0.45455	0.	46.428
20777	22.893	0.54545	5.e-002	4.1011
20778	23.17	0.54545	0.	56.461
20779	23.078	0.45455	0.	48.668
20780	23.078	0.54545	5.e-002	4.1156
20781	23.354	0.54545	0.	60.619
20782	23.262	0.45455	0.	51.412
20783	23.262	0.54545	5.e-002	4.1418
20784	23.539	0.54545	0.	66.068
20785	23.447	0.45455	0.	54.972
20786	23.447	0.54545	5.e-002	4.1904
20787	23.723	0.54545	0.	73.412
20788	23.631	0.45455	0.	60.002
20789	23.631	0.54545	5.e-002	4.2883
20790	23.816	0.45455	0.	67.487
20791	23.816	0.54545	5.e-002	4.589
20792	23.908	0.54545	0.	81.23
20793	2.1433	0.36364	0.	253.28
20794	2.0511	0.27273	0.	257.13
20795	2.0511	0.36364	5.e-002	76.309
20796	1.9589	0.36364	0.	258.56
20797	2.3278	0.36364	0.	178.64
20798	2.2356	0.27273	0.	158.61
20799	2.2356	0.36364	5.e-002	65.266
20800	2.5122	0.36364	0.	170.74
20801	2.42	0.27273	0.	148.79
20802	2.42	0.36364	5.e-002	59.539
20803	2.6967	0.36364	0.	169.32
20804	2.6044	0.27273	0.	148.39
20805	2.6044	0.36364	5.e-002	52.26
20806	2.8811	0.36364	0.	162.88
20807	2.7889	0.27273	0.	143.53
20808	2.7889	0.36364	5.e-002	44.519
20809	3.0656	0.36364	0.	150.57
20810	2.9733	0.27273	0.	133.43
20811	2.9733	0.36364	5.e-002	36.92
20812	3.25	0.36364	0.	133.97
20813	3.1578	0.27273	0.	119.47
20814	3.1578	0.36364	5.e-002	29.875
20815	3.4344	0.36364	0.	115.1
20816	3.3422	0.27273	0.	103.45
20817	3.3422	0.36364	5.e-002	23.606
20818	3.6189	0.36364	0.	95.686
20819	3.5267	0.27273	0.	86.886
20820	3.5267	0.36364	5.e-002	18.191
20821	3.8033	0.36364	0.	76.966
20822	3.7111	0.27273	0.	70.872
20823	3.7111	0.36364	5.e-002	13.617
20824	3.9878	0.36364	0.	59.725
20825	3.8956	0.27273	0.	56.091
20826	3.8956	0.36364	5.e-002	9.8206
20827	4.1722	0.36364	0.	44.392
20828	4.08	0.27273	0.	42.912
20829	4.08	0.36364	5.e-002	6.7195
20830	4.3567	0.36364	0.	31.133
20831	4.2644	0.27273	0.	31.48
20832	4.2644	0.36364	5.e-002	4.2345
20833	4.5411	0.36364	0.	19.949
20834	4.4489	0.27273	0.	21.795
20835	4.4489	0.36364	5.e-002	2.3337
20836	4.7256	0.36364	0.	10.749
20837	4.6333	0.27273	0.	13.764
20838	4.6333	0.36364	5.e-002	1.2406
20839	4.91	0.36364	0.	3.5232
20840	4.8178	0.27273	0.	7.2635
20841	4.8178	0.36364	5.e-002	1.5142
20842	5.0944	0.36364	0.	0.40239
20843	5.0022	0.27273	0.	2.2597
20844	5.0022	0.36364	5.e-002	2.3028
20845	5.2789	0.36364	0.	0.16697
20846	5.1867	0.27273	0.	0.29606
20847	5.1867	0.36364	5.e-002	3.0255
20848	5.4633	0.36364	0.	0.11785
20849	5.3711	0.27273	0.	0.14557
20850	5.3711	0.36364	5.e-002	3.6136
20851	5.6478	0.36364	0.	9.8738e-002
20852	5.5556	0.27273	0.	0.10971
20853	5.5556	0.36364	5.e-002	4.0761
20854	5.8322	0.36364	0.	8.8657e-002
20855	5.74	0.27273	0.	9.4064e-002
20856	5.74	0.36364	5.e-002	4.433
20857	6.0167	0.36364	0.	8.1964e-002
20858	5.9244	0.27273	0.	8.4952e-002
20859	5.9244	0.36364	5.e-002	4.704
20860	6.2011	0.36364	0.	7.6673e-002
20861	6.1089	0.27273	0.	7.8569e-002
20862	6.1089	0.36364	5.e-002	4.9063
20863	6.3856	0.36364	0.	7.1988e-002
20864	6.2933	0.27273	0.	7.3549e-002
20865	6.2933	0.36364	5.e-002	5.054
20866	6.57	0.36364	0.	6.7571e-002
20867	6.4778	0.27273	0.	6.9313e-002
20868	6.4778	0.36364	5.e-002	5.1587
20869	6.7544	0.36364	0.	6.3296e-002
20870	6.6622	0.27273	0.	6.5617e-002
20871	6.6622	0.36364	5.e-002	5.23
20872	6.9389	0.36364	0.	5.9126e-002
20873	6.8467	0.27273	0.	6.2389e-002
20874	6.8467	0.36364	5.e-002	5.2753
20875	7.1233	0.36364	0.	5.5052e-002
20876	7.0311	0.27273	0.	5.9622e-002
20877	7.0311	0.36364	5.e-002	5.3004
20878	7.3078	0.36364	0.	5.1095e-002
20879	7.2156	0.27273	0.	5.737e-002
20880	7.2156	0.36364	5.e-002	5.3102
20881	7.4922	0.36364	0.	4.7279e-002
20882	7.4	0.27273	0.	5.5778e-002
20883	7.4	0.36364	5.e-002	5.3084
20884	7.6767	0.36364	0.	4.3618e-002
20885	7.5844	0.27273	0.	5.5078e-002
20886	7.5844	0.36364	5.e-002	5.2979
20887	7.8611	0.36364	0.	4.0136e-002
20888	7.7689	0.27273	0.	5.5727e-002
20889	7.7689	0.36364	5.e-002	5.2811
20890	8.0456	0.36364	0.	3.6859e-002
20891	7.9533	0.27273	0.	5.874e-002
20892	7.9533	0.36364	5.e-002	5.2595
20893	8.23	0.36364	0.	3.3804e-002
20894	8.1378	0.27273	0.	6.6716e-002
20895	8.1378	0.36364	5.e-002	5.2347
20896	8.4144	0.36364	0.	3.1014e-002
20897	8.3222	0.27273	0.	8.8958e-002
20898	8.3222	0.36364	5.e-002	5.2077
20899	8.5989	0.36364	0.	2.8577e-002
20900	8.5067	0.27273	0.	0.18567
20901	8.5067	0.36364	5.e-002	5.1792
20902	8.7833	0.36364	0.	2.6717e-002
20903	8.6911	0.27273	0.	0.7042
20904	8.6911	0.36364	5.e-002	5.1499
20905	8.9678	0.36364	0.	2.6444e-002
20906	8.8756	0.27273	0.	1.5169
20907	8.8756	0.36364	5.e-002	5.1202
20908	9.1522	0.36364	0.	4.5968e-002
20909	9.06	0.27273	0.	2.3395
20910	9.06	0.36364	5.e-002	5.0904
20911	9.3367	0.36364	0.	0.77992
20912	9.2444	0.27273	0.	3.1354
20913	9.2444	0.36364	5.e-002	5.0607
20914	9.5211	0.36364	0.	1.6697
20915	9.4289	0.27273	0.	3.8977
20916	9.4289	0.36364	5.e-002	5.0314
20917	9.7056	0.36364	0.	2.5157
20918	9.6133	0.27273	0.	4.6249
20919	9.6133	0.36364	5.e-002	5.0025
20920	9.89	0.36364	0.	3.3171
20921	9.7978	0.27273	0.	5.317
20922	9.7978	0.36364	5.e-002	4.9742
20923	10.074	0.36364	0.	4.0753
20924	9.9822	0.27273	0.	5.9747
20925	9.9822	0.36364	5.e-002	4.9463
20926	10.259	0.36364	0.	4.7922
20927	10.167	0.27273	0.	6.5996
20928	10.167	0.36364	5.e-002	4.9191
20929	10.443	0.36364	0.	5.4696
20930	10.351	0.27273	0.	7.1928
20931	10.351	0.36364	5.e-002	4.8925
20932	10.628	0.36364	0.	6.1099
20933	10.536	0.27273	0.	7.756
20934	10.536	0.36364	5.e-002	4.8664
20935	10.812	0.36364	0.	6.7154
20936	10.72	0.27273	0.	8.2911
20937	10.72	0.36364	5.e-002	4.8409
20938	10.997	0.36364	0.	7.2882
20939	10.904	0.27273	0.	8.7997
20940	10.904	0.36364	5.e-002	4.8159
20941	11.181	0.36364	0.	7.8307
20942	11.089	0.27273	0.	9.2836
20943	11.089	0.36364	5.e-002	4.7913
20944	11.366	0.36364	0.	8.345
20945	11.273	0.27273	0.	9.7448
20946	11.273	0.36364	5.e-002	4.7673
20947	11.55	0.36364	0.	8.8332
20948	11.458	0.27273	0.	10.185
20949	11.458	0.36364	5.e-002	4.7438
20950	11.734	0.36364	0.	9.2974
20951	11.642	0.27273	0.	10.605
20952	11.642	0.36364	5.e-002	4.7206
20953	11.919	0.36364	0.	9.7396
20954	11.827	0.27273	0.	11.007
20955	11.827	0.36364	5.e-002	4.6979
20956	12.103	0.36364	0.	10.162
20957	12.011	0.27273	0.	11.393
20958	12.011	0.36364	5.e-002	4.6755
20959	12.288	0.36364	0.	10.565
20960	12.196	0.27273	0.	11.765
20961	12.196	0.36364	5.e-002	4.6535
20962	12.472	0.36364	0.	10.953
20963	12.38	0.27273	0.	12.123
20964	12.38	0.36364	5.e-002	4.6318
20965	12.657	0.36364	0.	11.325
20966	12.564	0.27273	0.	12.468
20967	12.564	0.36364	5.e-002	4.6104
20968	12.841	0.36364	0.	11.684
20969	12.749	0.27273	0.	12.804
20970	12.749	0.36364	5.e-002	4.5894
20971	13.026	0.36364	0.	12.031
20972	12.933	0.27273	0.	13.129
20973	12.933	0.36364	5.e-002	4.5685
20974	13.21	0.36364	0.	12.367
20975	13.118	0.27273	0.	13.447
20976	13.118	0.36364	5.e-002	4.548
20977	13.394	0.36364	0.	12.695
20978	13.302	0.27273	0.	13.757
20979	13.302	0.36364	5.e-002	4.5276
20980	13.579	0.36364	0.	13.015
20981	13.487	0.27273	0.	14.061
20982	13.487	0.36364	5.e-002	4.5075
20983	13.763	0.36364	0.	13.328
20984	13.671	0.27273	0.	14.36
20985	13.671	0.36364	5.e-002	4.4877
20986	13.948	0.36364	0.	13.636
20987	13.856	0.27273	0.	14.655
20988	13.856	0.36364	5.e-002	4.468
20989	14.132	0.36364	0.	13.939
20990	14.04	0.27273	0.	14.948
20991	14.04	0.36364	5.e-002	4.4486
20992	14.317	0.36364	0.	14.239
20993	14.224	0.27273	0.	15.238
20994	14.224	0.36364	5.e-002	4.4293
20995	14.501	0.36364	0.	14.538
20996	14.409	0.27273	0.	15.526
20997	14.409	0.36364	5.e-002	4.4102
20998	14.686	0.36364	0.	14.835
20999	14.593	0.27273	0.	15.815
21000	14.593	0.36364	5.e-002	4.3913
21001	14.87	0.36364	0.	15.132
21002	14.778	0.27273	0.	16.104
21003	14.778	0.36364	5.e-002	4.3725
21004	15.054	0.36364	0.	15.431
21005	14.962	0.27273	0.	16.394
21006	14.962	0.36364	5.e-002	4.354
21007	15.239	0.36364	0.	15.731
21008	15.147	0.27273	0.	16.686
21009	15.147	0.36364	5.e-002	4.3356
21010	15.423	0.36364	0.	16.034
21011	15.331	0.27273	0.	16.981
21012	15.331	0.36364	5.e-002	4.3174
21013	15.608	0.36364	0.	16.34
21014	15.516	0.27273	0.	17.28
21015	15.516	0.36364	5.e-002	4.2994
21016	15.792	0.36364	0.	16.652
21017	15.7	0.27273	0.	17.583
21018	15.7	0.36364	5.e-002	4.2816
21019	15.977	0.36364	0.	16.969
21020	15.884	0.27273	0.	17.891
21021	15.884	0.36364	5.e-002	4.2639
21022	16.161	0.36364	0.	17.292
21023	16.069	0.27273	0.	18.205
21024	16.069	0.36364	5.e-002	4.2465
21025	16.346	0.36364	0.	17.623
21026	16.253	0.27273	0.	18.525
21027	16.253	0.36364	5.e-002	4.2292
21028	16.53	0.36364	0.	17.962
21029	16.438	0.27273	0.	18.852
21030	16.438	0.36364	5.e-002	4.2122
21031	16.714	0.36364	0.	18.31
21032	16.622	0.27273	0.	19.188
21033	16.622	0.36364	5.e-002	4.1953
21034	16.899	0.36364	0.	18.668
21035	16.807	0.27273	0.	19.532
21036	16.807	0.36364	5.e-002	4.1787
21037	17.083	0.36364	0.	19.037
21038	16.991	0.27273	0.	19.885
21039	16.991	0.36364	5.e-002	4.1623
21040	17.268	0.36364	0.	19.418
21041	17.176	0.27273	0.	20.247
21042	17.176	0.36364	5.e-002	4.1462
21043	17.452	0.36364	0.	19.811
21044	17.36	0.27273	0.	20.621
21045	17.36	0.36364	5.e-002	4.1304
21046	17.637	0.36364	0.	20.218
21047	17.544	0.27273	0.	21.005
21048	17.544	0.36364	5.e-002	4.1148
21049	17.821	0.36364	0.	20.64
21050	17.729	0.27273	0.	21.401
21051	17.729	0.36364	5.e-002	4.0996
21052	18.006	0.36364	0.	21.077
21053	17.913	0.27273	0.	21.81
21054	17.913	0.36364	5.e-002	4.0846
21055	18.19	0.36364	0.	21.531
21056	18.098	0.27273	0.	22.231
21057	18.098	0.36364	5.e-002	4.0701
21058	18.374	0.36364	0.	22.001
21059	18.282	0.27273	0.	22.666
21060	18.282	0.36364	5.e-002	4.0559
21061	18.559	0.36364	0.	22.49
21062	18.467	0.27273	0.	23.115
21063	18.467	0.36364	5.e-002	4.0421
21064	18.743	0.36364	0.	22.998
21065	18.651	0.27273	0.	23.578
21066	18.651	0.36364	5.e-002	4.0287
21067	18.928	0.36364	0.	23.526
21068	18.836	0.27273	0.	24.056
21069	18.836	0.36364	5.e-002	4.0158
21070	19.112	0.36364	0.	24.075
21071	19.02	0.27273	0.	24.549
21072	19.02	0.36364	5.e-002	4.0034
21073	19.297	0.36364	0.	24.645
21074	19.204	0.27273	0.	25.058
21075	19.204	0.36364	5.e-002	3.9916
21076	19.481	0.36364	0.	25.237
21077	19.389	0.27273	0.	25.582
21078	19.389	0.36364	5.e-002	3.9803
21079	19.666	0.36364	0.	25.853
21080	19.573	0.27273	0.	26.121
21081	19.573	0.36364	5.e-002	3.9697
21082	19.85	0.36364	0.	26.492
21083	19.758	0.27273	0.	26.676
21084	19.758	0.36364	5.e-002	3.9597
21085	20.034	0.36364	0.	27.156
21086	19.942	0.27273	0.	27.247
21087	19.942	0.36364	5.e-002	3.9505
21088	20.219	0.36364	0.	27.844
21089	20.127	0.27273	0.	27.832
21090	20.127	0.36364	5.e-002	3.942
21091	20.403	0.36364	0.	28.559
21092	20.311	0.27273	0.	28.432
21093	20.311	0.36364	5.e-002	3.9343
21094	20.588	0.36364	0.	29.299
21095	20.496	0.27273	0.	29.046
21096	20.496	0.36364	5.e-002	3.9275
21097	20.772	0.36364	0.	30.066
21098	20.68	0.27273	0.	29.673
21099	20.68	0.36364	5.e-002	3.9216
21100	20.957	0.36364	0.	30.86
21101	20.864	0.27273	0.	30.312
21102	20.864	0.36364	5.e-002	3.9167
21103	21.141	0.36364	0.	31.681
21104	21.049	0.27273	0.	30.96
21105	21.049	0.36364	5.e-002	3.9129
21106	21.326	0.36364	0.	32.531
21107	21.233	0.27273	0.	31.618
21108	21.233	0.36364	5.e-002	3.9102
21109	21.51	0.36364	0.	33.41
21110	21.418	0.27273	0.	32.282
21111	21.418	0.36364	5.e-002	3.9086
21112	21.694	0.36364	0.	34.32
21113	21.602	0.27273	0.	32.951
21114	21.602	0.36364	5.e-002	3.9083
21115	21.879	0.36364	0.	35.264
21116	21.787	0.27273	0.	33.622
21117	21.787	0.36364	5.e-002	3.9093
21118	22.063	0.36364	0.	36.244
21119	21.971	0.27273	0.	34.292
21120	21.971	0.36364	5.e-002	3.9118
21121	22.248	0.36364	0.	37.269
21122	22.156	0.27273	0.	34.959
21123	22.156	0.36364	5.e-002	3.9158
21124	22.432	0.36364	0.	38.347
21125	22.34	0.27273	0.	35.622
21126	22.34	0.36364	5.e-002	3.9216
21127	22.617	0.36364	0.	39.497
21128	22.524	0.27273	0.	36.278
21129	22.524	0.36364	5.e-002	3.9294
21130	22.801	0.36364	0.	40.751
21131	22.709	0.27273	0.	36.932
21132	22.709	0.36364	5.e-002	3.9397
21133	22.986	0.36364	0.	42.163
21134	22.893	0.27273	0.	37.591
21135	22.893	0.36364	5.e-002	3.9534
21136	23.17	0.36364	0.	43.84
21137	23.078	0.27273	0.	38.278
21138	23.078	0.36364	5.e-002	3.9722
21139	23.354	0.36364	0.	45.992
21140	23.262	0.27273	0.	39.055
21141	23.262	0.36364	5.e-002	3.9998
21142	23.539	0.36364	0.	49.109
21143	23.447	0.27273	0.	40.063
21144	23.447	0.36364	5.e-002	4.0466
21145	23.723	0.36364	0.	54.223
21146	23.631	0.27273	0.	41.748
21147	23.631	0.36364	5.e-002	4.1533
21148	23.816	0.27273	0.	45.534
21149	23.816	0.36364	5.e-002	4.5337
21150	23.908	0.36364	0.	60.467
21151	2.1433	0.18182	0.	132.06
21152	2.0511	0.18182	5.e-002	84.3
21153	2.0511	9.0909e-002	0.	64.804
21154	1.9589	0.18182	0.	78.521
21155	2.3278	0.18182	0.	119.9
21156	2.2356	0.18182	5.e-002	75.197
21157	2.2356	9.0909e-002	0.	52.994
21158	2.5122	0.18182	0.	122.16
21159	2.42	0.18182	5.e-002	69.482
21160	2.42	9.0909e-002	0.	60.523
21161	2.6967	0.18182	0.	119.9
21162	2.6044	0.18182	5.e-002	62.402
21163	2.6044	9.0909e-002	0.	64.461
21164	2.8811	0.18182	0.	112.21
21165	2.7889	0.18182	5.e-002	54.472
21166	2.7889	9.0909e-002	0.	63.188
21167	3.0656	0.18182	0.	101.04
21168	2.9733	0.18182	5.e-002	46.333
21169	2.9733	9.0909e-002	0.	58.637
21170	3.25	0.18182	0.	88.077
21171	3.1578	0.18182	5.e-002	38.498
21172	3.1578	9.0909e-002	0.	52.206
21173	3.4344	0.18182	0.	74.671
21174	3.3422	0.18182	5.e-002	31.313
21175	3.3422	9.0909e-002	0.	44.99
21176	3.6189	0.18182	0.	61.728
21177	3.5267	0.18182	5.e-002	24.959
21178	3.5267	9.0909e-002	0.	37.721
21179	3.8033	0.18182	0.	49.802
21180	3.7111	0.18182	5.e-002	19.496
21181	3.7111	9.0909e-002	0.	30.852
21182	3.9878	0.18182	0.	39.18
21183	3.8956	0.18182	5.e-002	14.902
21184	3.8956	9.0909e-002	0.	24.635
21185	4.1722	0.18182	0.	29.966
21186	4.08	0.18182	5.e-002	11.11
21187	4.08	9.0909e-002	0.	19.18
21188	4.3567	0.18182	0.	22.146
21189	4.2644	0.18182	5.e-002	8.0286
21190	4.2644	9.0909e-002	0.	14.509
21191	4.5411	0.18182	0.	15.638
21192	4.4489	0.18182	5.e-002	5.561
21193	4.4489	9.0909e-002	0.	10.592
21194	4.7256	0.18182	0.	10.327
21195	4.6333	0.18182	5.e-002	3.6158
21196	4.6333	9.0909e-002	0.	7.3685
21197	4.91	0.18182	0.	6.0855
21198	4.8178	0.18182	5.e-002	2.1157
21199	4.8178	9.0909e-002	0.	4.7676
21200	5.0944	0.18182	0.	2.8147
21201	5.0022	0.18182	5.e-002	1.0257
21202	5.0022	9.0909e-002	0.	2.713
21203	5.2789	0.18182	0.	0.70505
21204	5.1867	0.18182	5.e-002	0.55495
21205	5.1867	9.0909e-002	0.	1.1311
21206	5.4633	0.18182	0.	0.24384
21207	5.3711	0.18182	5.e-002	0.88544
21208	5.3711	9.0909e-002	0.	9.605e-002
21209	5.6478	0.18182	0.	0.17154
21210	5.5556	0.18182	5.e-002	1.2924
21211	5.5556	9.0909e-002	0.	9.6389e-002
21212	5.8322	0.18182	0.	0.14719
21213	5.74	0.18182	5.e-002	1.5976
21214	5.74	9.0909e-002	0.	0.10143
21215	6.0167	0.18182	0.	0.1363
21216	5.9244	0.18182	5.e-002	1.802
21217	5.9244	9.0909e-002	0.	0.10666
21218	6.2011	0.18182	0.	0.13138
21219	6.1089	0.18182	5.e-002	1.9231
21220	6.1089	9.0909e-002	0.	0.11247
21221	6.3856	0.18182	0.	0.1302
21222	6.2933	0.18182	5.e-002	1.9788
21223	6.2933	9.0909e-002	0.	0.11962
21224	6.57	0.18182	0.	0.1323
21225	6.4778	0.18182	5.e-002	1.9844
21226	6.4778	9.0909e-002	0.	0.12935
21227	6.7544	0.18182	0.	0.13819
21228	6.6622	0.18182	5.e-002	1.9523
21229	6.6622	9.0909e-002	0.	0.14383
21230	6.9389	0.18182	0.	0.14949
21231	6.8467	0.18182	5.e-002	1.8926
21232	6.8467	9.0909e-002	0.	0.16746
21233	7.1233	0.18182	0.	0.16987
21234	7.0311	0.18182	5.e-002	1.8133
21235	7.0311	9.0909e-002	0.	0.21027
21236	7.3078	0.18182	0.	0.2081
21237	7.2156	0.18182	5.e-002	1.7207
21238	7.2156	9.0909e-002	0.	0.29727
21239	7.4922	0.18182	0.	0.28837
21240	7.4	0.18182	5.e-002	1.6198
21241	7.4	9.0909e-002	0.	0.47921
21242	7.6767	0.18182	0.	0.48248
21243	7.5844	0.18182	5.e-002	1.5142
21244	7.5844	9.0909e-002	0.	0.78699
21245	7.8611	0.18182	0.	0.91077
21246	7.7689	0.18182	5.e-002	1.4067
21247	7.7689	9.0909e-002	0.	1.1782
21248	8.0456	0.18182	0.	1.5391
21249	7.9533	0.18182	5.e-002	1.2997
21250	7.9533	9.0909e-002	0.	1.6052
21251	8.23	0.18182	0.	2.2422
21252	8.1378	0.18182	5.e-002	1.1947
21253	8.1378	9.0909e-002	0.	2.0441
21254	8.4144	0.18182	0.	2.9615
21255	8.3222	0.18182	5.e-002	1.0929
21256	8.3222	9.0909e-002	0.	2.4832
21257	8.5989	0.18182	0.	3.6748
21258	8.5067	0.18182	5.e-002	0.995
21259	8.5067	9.0909e-002	0.	2.9163
21260	8.7833	0.18182	0.	4.3722
21261	8.6911	0.18182	5.e-002	0.90158
21262	8.6911	9.0909e-002	0.	3.3395
21263	8.9678	0.18182	0.	5.0486
21264	8.8756	0.18182	5.e-002	0.81294
21265	8.8756	9.0909e-002	0.	3.7505
21266	9.1522	0.18182	0.	5.7013
21267	9.06	0.18182	5.e-002	0.7293
21268	9.06	9.0909e-002	0.	4.1479
21269	9.3367	0.18182	0.	6.3287
21270	9.2444	0.18182	5.e-002	0.65065
21271	9.2444	9.0909e-002	0.	4.5307
21272	9.5211	0.18182	0.	6.9305
21273	9.4289	0.18182	5.e-002	0.57697
21274	9.4289	9.0909e-002	0.	4.8988
21275	9.7056	0.18182	0.	7.5066
21276	9.6133	0.18182	5.e-002	0.50814
21277	9.6133	9.0909e-002	0.	5.2519
21278	9.89	0.18182	0.	8.0574
21279	9.7978	0.18182	5.e-002	0.44399
21280	9.7978	9.0909e-002	0.	5.5904
21281	10.074	0.18182	0.	8.5839
21282	9.9822	0.18182	5.e-002	0.38428
21283	9.9822	9.0909e-002	0.	5.9146
21284	10.259	0.18182	0.	9.0869
21285	10.167	0.18182	5.e-002	0.32895
21286	10.167	9.0909e-002	0.	6.2252
21287	10.443	0.18182	0.	9.5676
21288	10.351	0.18182	5.e-002	0.27773
21289	10.351	9.0909e-002	0.	6.5227
21290	10.628	0.18182	0.	10.027
21291	10.536	0.18182	5.e-002	0.23032
21292	10.536	9.0909e-002	0.	6.8077
21293	10.812	0.18182	0.	10.467
21294	10.72	0.18182	5.e-002	0.18659
21295	10.72	9.0909e-002	0.	7.0811
21296	10.997	0.18182	0.	10.888
21297	10.904	0.18182	5.e-002	0.14628
21298	10.904	9.0909e-002	0.	7.3435
21299	11.181	0.18182	0.	11.292
21300	11.089	0.18182	5.e-002	0.10923
21301	11.089	9.0909e-002	0.	7.5958
21302	11.366	0.18182	0.	11.68
21303	11.273	0.18182	5.e-002	7.5323e-002
21304	11.273	9.0909e-002	0.	7.8387
21305	11.55	0.18182	0.	12.053
21306	11.458	0.18182	5.e-002	4.4794e-002
21307	11.458	9.0909e-002	0.	8.073
21308	11.734	0.18182	0.	12.413
21309	11.642	0.18182	5.e-002	1.9591e-002
21310	11.642	9.0909e-002	0.	8.2993
21311	11.919	0.18182	0.	12.761
21312	11.827	0.18182	5.e-002	1.9179e-002
21313	11.827	9.0909e-002	0.	8.5185
21314	12.103	0.18182	0.	13.097
21315	12.011	0.18182	5.e-002	3.9771e-002
21316	12.011	9.0909e-002	0.	8.7312
21317	12.288	0.18182	0.	13.424
21318	12.196	0.18182	5.e-002	6.0973e-002
21319	12.196	9.0909e-002	0.	8.938
21320	12.472	0.18182	0.	13.742
21321	12.38	0.18182	5.e-002	8.0689e-002
21322	12.38	9.0909e-002	0.	9.1398
21323	12.657	0.18182	0.	14.052
21324	12.564	0.18182	5.e-002	9.8753e-002
21325	12.564	9.0909e-002	0.	9.3369
21326	12.841	0.18182	0.	14.355
21327	12.749	0.18182	5.e-002	0.11521
21328	12.749	9.0909e-002	0.	9.5302
21329	13.026	0.18182	0.	14.653
21330	12.933	0.18182	5.e-002	0.13011
21331	12.933	9.0909e-002	0.	9.7201
21332	13.21	0.18182	0.	14.945
21333	13.118	0.18182	5.e-002	0.14354
21334	13.118	9.0909e-002	0.	9.9071
21335	13.394	0.18182	0.	15.233
21336	13.302	0.18182	5.e-002	0.15566
21337	13.302	9.0909e-002	0.	10.092
21338	13.579	0.18182	0.	15.518
21339	13.487	0.18182	5.e-002	0.16643
21340	13.487	9.0909e-002	0.	10.275
21341	13.763	0.18182	0.	15.801
21342	13.671	0.18182	5.e-002	0.17599
21343	13.671	9.0909e-002	0.	10.457
21344	13.948	0.18182	0.	16.082
21345	13.856	0.18182	5.e-002	0.18442
21346	13.856	9.0909e-002	0.	10.638
21347	14.132	0.18182	0.	16.362
21348	14.04	0.18182	5.e-002	0.19179
21349	14.04	9.0909e-002	0.	10.819
21350	14.317	0.18182	0.	16.642
21351	14.224	0.18182	5.e-002	0.19814
21352	14.224	9.0909e-002	0.	10.999
21353	14.501	0.18182	0.	16.922
21354	14.409	0.18182	5.e-002	0.2036
21355	14.409	9.0909e-002	0.	11.181
21356	14.686	0.18182	0.	17.204
21357	14.593	0.18182	5.e-002	0.20815
21358	14.593	9.0909e-002	0.	11.363
21359	14.87	0.18182	0.	17.487
21360	14.778	0.18182	5.e-002	0.21183
21361	14.778	9.0909e-002	0.	11.547
21362	15.054	0.18182	0.	17.773
21363	14.962	0.18182	5.e-002	0.21479
21364	14.962	9.0909e-002	0.	11.732
21365	15.239	0.18182	0.	18.062
21366	15.147	0.18182	5.e-002	0.21702
21367	15.147	9.0909e-002	0.	11.919
21368	15.423	0.18182	0.	18.354
21369	15.331	0.18182	5.e-002	0.21859
21370	15.331	9.0909e-002	0.	12.11
21371	15.608	0.18182	0.	18.651
21372	15.516	0.18182	5.e-002	0.21959
21373	15.516	9.0909e-002	0.	12.302
21374	15.792	0.18182	0.	18.952
21375	15.7	0.18182	5.e-002	0.22005
21376	15.7	9.0909e-002	0.	12.499
21377	15.977	0.18182	0.	19.259
21378	15.884	0.18182	5.e-002	0.22005
21379	15.884	9.0909e-002	0.	12.698
21380	16.161	0.18182	0.	19.572
21381	16.069	0.18182	5.e-002	0.2197
21382	16.069	9.0909e-002	0.	12.902
21383	16.346	0.18182	0.	19.891
21384	16.253	0.18182	5.e-002	0.21911
21385	16.253	9.0909e-002	0.	13.11
21386	16.53	0.18182	0.	20.216
21387	16.438	0.18182	5.e-002	0.21839
21388	16.438	9.0909e-002	0.	13.322
21389	16.714	0.18182	0.	20.549
21390	16.622	0.18182	5.e-002	0.2177
21391	16.622	9.0909e-002	0.	13.539
21392	16.899	0.18182	0.	20.89
21393	16.807	0.18182	5.e-002	0.21722
21394	16.807	9.0909e-002	0.	13.761
21395	17.083	0.18182	0.	21.239
21396	16.991	0.18182	5.e-002	0.21715
21397	16.991	9.0909e-002	0.	13.989
21398	17.268	0.18182	0.	21.597
21399	17.176	0.18182	5.e-002	0.21778
21400	17.176	9.0909e-002	0.	14.222
21401	17.452	0.18182	0.	21.964
21402	17.36	0.18182	5.e-002	0.21939
21403	17.36	9.0909e-002	0.	14.462
21404	17.637	0.18182	0.	22.339
21405	17.544	0.18182	5.e-002	0.22231
21406	17.544	9.0909e-002	0.	14.707
21407	17.821	0.18182	0.	22.725
21408	17.729	0.18182	5.e-002	0.2269
21409	17.729	9.0909e-002	0.	14.959
21410	18.006	0.18182	0.	23.121
21411	17.913	0.18182	5.e-002	0.23353
21412	17.913	9.0909e-002	0.	15.218
21413	18.19	0.18182	0.	23.526
21414	18.098	0.18182	5.e-002	0.24258
21415	18.098	9.0909e-002	0.	15.483
21416	18.374	0.18182	0.	23.942
21417	18.282	0.18182	5.e-002	0.2544
21418	18.282	9.0909e-002	0.	15.756
21419	18.559	0.18182	0.	24.368
21420	18.467	0.18182	5.e-002	0.26929
21421	18.467	9.0909e-002	0.	16.035
21422	18.743	0.18182	0.	24.804
21423	18.651	0.18182	5.e-002	0.28754
21424	18.651	9.0909e-002	0.	16.321
21425	18.928	0.18182	0.	25.251
21426	18.836	0.18182	5.e-002	0.30936
21427	18.836	9.0909e-002	0.	16.615
21428	19.112	0.18182	0.	25.707
21429	19.02	0.18182	5.e-002	0.33495
21430	19.02	9.0909e-002	0.	16.915
21431	19.297	0.18182	0.	26.173
21432	19.204	0.18182	5.e-002	0.3645
21433	19.204	9.0909e-002	0.	17.222
21434	19.481	0.18182	0.	26.648
21435	19.389	0.18182	5.e-002	0.39817
21436	19.389	9.0909e-002	0.	17.536
21437	19.666	0.18182	0.	27.131
21438	19.573	0.18182	5.e-002	0.43611
21439	19.573	9.0909e-002	0.	17.856
21440	19.85	0.18182	0.	27.622
21441	19.758	0.18182	5.e-002	0.47852
21442	19.758	9.0909e-002	0.	18.182
21443	20.034	0.18182	0.	28.119
21444	19.942	0.18182	5.e-002	0.52559
21445	19.942	9.0909e-002	0.	18.513
21446	20.219	0.18182	0.	28.621
21447	20.127	0.18182	5.e-002	0.57756
21448	20.127	9.0909e-002	0.	18.848
21449	20.403	0.18182	0.	29.127
21450	20.311	0.18182	5.e-002	0.6347
21451	20.311	9.0909e-002	0.	19.188
21452	20.588	0.18182	0.	29.633
21453	20.496	0.18182	5.e-002	0.69727
21454	20.496	9.0909e-002	0.	19.53
21455	20.772	0.18182	0.	30.138
21456	20.68	0.18182	5.e-002	0.76561
21457	20.68	9.0909e-002	0.	19.874
21458	20.957	0.18182	0.	30.639
21459	20.864	0.18182	5.e-002	0.84011
21460	20.864	9.0909e-002	0.	20.217
21461	21.141	0.18182	0.	31.133
21462	21.049	0.18182	5.e-002	0.92115
21463	21.049	9.0909e-002	0.	20.558
21464	21.326	0.18182	0.	31.614
21465	21.233	0.18182	5.e-002	1.0092
21466	21.233	9.0909e-002	0.	20.895
21467	21.51	0.18182	0.	32.078
21468	21.418	0.18182	5.e-002	1.1049
21469	21.418	9.0909e-002	0.	21.226
21470	21.694	0.18182	0.	32.52
21471	21.602	0.18182	5.e-002	1.2086
21472	21.602	9.0909e-002	0.	21.546
21473	21.879	0.18182	0.	32.932
21474	21.787	0.18182	5.e-002	1.3211
21475	21.787	9.0909e-002	0.	21.852
21476	22.063	0.18182	0.	33.307
21477	21.971	0.18182	5.e-002	1.4433
21478	21.971	9.0909e-002	0.	22.139
21479	22.248	0.18182	0.	33.633
21480	22.156	0.18182	5.e-002	1.5758
21481	22.156	9.0909e-002	0.	22.402
21482	22.432	0.18182	0.	33.899
21483	22.34	0.18182	5.e-002	1.72
21484	22.34	9.0909e-002	0.	22.634
21485	22.617	0.18182	0.	34.091
21486	22.524	0.18182	5.e-002	1.877
21487	22.524	9.0909e-002	0.	22.825
21488	22.801	0.18182	0.	34.19
21489	22.709	0.18182	5.e-002	2.0486
21490	22.709	9.0909e-002	0.	22.965
21491	22.986	0.18182	0.	34.178
21492	22.893	0.18182	5.e-002	2.237
21493	22.893	9.0909e-002	0.	23.037
21494	23.17	0.18182	0.	34.034
21495	23.078	0.18182	5.e-002	2.4456
21496	23.078	9.0909e-002	0.	23.022
21497	23.354	0.18182	0.	33.753
21498	23.262	0.18182	5.e-002	2.6797
21499	23.262	9.0909e-002	0.	22.891
21500	23.539	0.18182	0.	33.408
21501	23.447	0.18182	5.e-002	2.9471
21502	23.447	9.0909e-002	0.	22.592
21503	23.723	0.18182	0.	33.71
21504	23.631	0.18182	5.e-002	3.2824
21505	23.631	9.0909e-002	0.	22.154
21506	23.816	0.18182	5.e-002	3.9993
21507	23.816	9.0909e-002	0.	21.467
21508	23.908	0.18182	0.	34.94
21509	23.723	0.18182	0.1	54.987
21510	23.816	0.27273	0.1	37.32
21511	23.908	0.18182	0.1	20.574
21512	23.816	9.0909e-002	0.1	34.557
21513	23.539	0.18182	0.1	91.855
21514	23.631	0.27273	0.1	72.573
21515	23.631	9.0909e-002	0.1	69.239
21516	23.354	0.18182	0.1	130.09
21517	23.447	0.27273	0.1	109.93
21518	23.447	9.0909e-002	0.1	105.97
21519	23.17	0.18182	0.1	168.86
21520	23.262	0.27273	0.1	148.15
21521	23.262	9.0909e-002	0.1	143.62
21522	22.986	0.18182	0.1	207.95
21523	23.078	0.27273	0.1	186.87
21524	23.078	9.0909e-002	0.1	181.88
21525	22.801	0.18182	0.1	247.28
21526	22.893	0.27273	0.1	225.92
21527	22.893	9.0909e-002	0.1	220.56
21528	22.617	0.18182	0.1	286.79
21529	22.709	0.27273	0.1	265.22
21530	22.709	9.0909e-002	0.1	259.57
21531	22.432	0.18182	0.1	326.46
21532	22.524	0.27273	0.1	304.72
21533	22.524	9.0909e-002	0.1	298.84
21534	22.248	0.18182	0.1	366.27
21535	22.34	0.27273	0.1	344.39
21536	22.34	9.0909e-002	0.1	338.34
21537	22.063	0.18182	0.1	406.21
21538	22.156	0.27273	0.1	384.2
21539	22.156	9.0909e-002	0.1	378.04
21540	21.879	0.18182	0.1	446.27
21541	21.971	0.27273	0.1	424.15
21542	21.971	9.0909e-002	0.1	417.9
21543	21.694	0.18182	0.1	486.44
21544	21.787	0.27273	0.1	464.23
21545	21.787	9.0909e-002	0.1	457.94
21546	21.51	0.18182	0.1	526.74
21547	21.602	0.27273	0.1	504.44
21548	21.602	9.0909e-002	0.1	498.12
21549	21.326	0.18182	0.1	567.16
21550	21.418	0.27273	0.1	544.77
21551	21.418	9.0909e-002	0.1	538.46
21552	21.141	0.18182	0.1	607.7
21553	21.233	0.27273	0.1	585.23
21554	21.233	9.0909e-002	0.1	578.94
21555	20.957	0.18182	0.1	648.37
21556	21.049	0.27273	0.1	625.83
21557	21.049	9.0909e-002	0.1	619.56
21558	20.772	0.18182	0.1	689.17
21559	20.864	0.27273	0.1	666.55
21560	20.864	9.0909e-002	0.1	660.33
21561	20.588	0.18182	0.1	730.11
21562	20.68	0.27273	0.1	707.41
21563	20.68	9.0909e-002	0.1	701.25
21564	20.403	0.18182	0.1	771.18
21565	20.496	0.27273	0.1	748.42
21566	20.496	9.0909e-002	0.1	742.32
21567	20.219	0.18182	0.1	812.4
21568	20.311	0.27273	0.1	789.56
21569	20.311	9.0909e-002	0.1	783.53
21570	20.034	0.18182	0.1	853.76
21571	20.127	0.27273	0.1	830.86
21572	20.127	9.0909e-002	0.1	824.91
21573	19.85	0.18182	0.1	895.28
21574	19.942	0.27273	0.1	872.3
21575	19.942	9.0909e-002	0.1	866.43
21576	19.666	0.18182	0.1	936.95
21577	19.758	0.27273	0.1	913.91
21578	19.758	9.0909e-002	0.1	908.12
21579	19.481	0.18182	0.1	978.78
21580	19.573	0.27273	0.1	955.67
21581	19.573	9.0909e-002	0.1	949.97
21582	19.297	0.18182	0.1	1020.8
21583	19.389	0.27273	0.1	997.6
21584	19.389	9.0909e-002	0.1	991.98
21585	19.112	0.18182	0.1	1062.9
21586	19.204	0.27273	0.1	1039.7
21587	19.204	9.0909e-002	0.1	1034.2
21588	18.928	0.18182	0.1	1105.3
21589	19.02	0.27273	0.1	1082.
21590	19.02	9.0909e-002	0.1	1076.5
21591	18.743	0.18182	0.1	1147.8
21592	18.836	0.27273	0.1	1124.4
21593	18.836	9.0909e-002	0.1	1119.
21594	18.559	0.18182	0.1	1190.5
21595	18.651	0.27273	0.1	1167.
21596	18.651	9.0909e-002	0.1	1161.7
21597	18.374	0.18182	0.1	1233.3
21598	18.467	0.27273	0.1	1209.8
21599	18.467	9.0909e-002	0.1	1204.6
21600	18.19	0.18182	0.1	1276.4
21601	18.282	0.27273	0.1	1252.8
21602	18.282	9.0909e-002	0.1	1247.7
21603	18.006	0.18182	0.1	1319.6
21604	18.098	0.27273	0.1	1295.9
21605	18.098	9.0909e-002	0.1	1290.9
21606	17.821	0.18182	0.1	1363.
21607	17.913	0.27273	0.1	1339.3
21608	17.913	9.0909e-002	0.1	1334.3
21609	17.637	0.18182	0.1	1406.6
21610	17.729	0.27273	0.1	1382.8
21611	17.729	9.0909e-002	0.1	1377.9
21612	17.452	0.18182	0.1	1450.4
21613	17.544	0.27273	0.1	1426.5
21614	17.544	9.0909e-002	0.1	1421.7
21615	17.268	0.18182	0.1	1494.4
21616	17.36	0.27273	0.1	1470.4
21617	17.36	9.0909e-002	0.1	1465.7
21618	17.083	0.18182	0.1	1538.6
21619	17.176	0.27273	0.1	1514.5
21620	17.176	9.0909e-002	0.1	1509.9
21621	16.899	0.18182	0.1	1582.9
21622	16.991	0.27273	0.1	1558.8
21623	16.991	9.0909e-002	0.1	1554.2
21624	16.714	0.18182	0.1	1627.5
21625	16.807	0.27273	0.1	1603.3
21626	16.807	9.0909e-002	0.1	1598.8
21627	16.53	0.18182	0.1	1672.2
21628	16.622	0.27273	0.1	1647.9
21629	16.622	9.0909e-002	0.1	1643.5
21630	16.346	0.18182	0.1	1717.2
21631	16.438	0.27273	0.1	1692.8
21632	16.438	9.0909e-002	0.1	1688.5
21633	16.161	0.18182	0.1	1762.3
21634	16.253	0.27273	0.1	1737.9
21635	16.253	9.0909e-002	0.1	1733.6
21636	15.977	0.18182	0.1	1807.7
21637	16.069	0.27273	0.1	1783.1
21638	16.069	9.0909e-002	0.1	1779.
21639	15.792	0.18182	0.1	1853.2
21640	15.884	0.27273	0.1	1828.6
21641	15.884	9.0909e-002	0.1	1824.5
21642	15.608	0.18182	0.1	1899.
21643	15.7	0.27273	0.1	1874.3
21644	15.7	9.0909e-002	0.1	1870.2
21645	15.423	0.18182	0.1	1944.9
21646	15.516	0.27273	0.1	1920.1
21647	15.516	9.0909e-002	0.1	1916.1
21648	15.239	0.18182	0.1	1991.1
21649	15.331	0.27273	0.1	1966.2
21650	15.331	9.0909e-002	0.1	1962.3
21651	15.054	0.18182	0.1	2037.4
21652	15.147	0.27273	0.1	2012.5
21653	15.147	9.0909e-002	0.1	2008.6
21654	14.87	0.18182	0.1	2084.
21655	14.962	0.27273	0.1	2058.9
21656	14.962	9.0909e-002	0.1	2055.1
21657	14.686	0.18182	0.1	2130.7
21658	14.778	0.27273	0.1	2105.6
21659	14.778	9.0909e-002	0.1	2101.9
21660	14.501	0.18182	0.1	2177.7
21661	14.593	0.27273	0.1	2152.5
21662	14.593	9.0909e-002	0.1	2148.8
21663	14.317	0.18182	0.1	2224.8
21664	14.409	0.27273	0.1	2199.5
21665	14.409	9.0909e-002	0.1	2195.9
21666	14.132	0.18182	0.1	2272.2
21667	14.224	0.27273	0.1	2246.8
21668	14.224	9.0909e-002	0.1	2243.3
21669	13.948	0.18182	0.1	2319.8
21670	14.04	0.27273	0.1	2294.3
21671	14.04	9.0909e-002	0.1	2290.8
21672	13.763	0.18182	0.1	2367.5
21673	13.856	0.27273	0.1	2342.
21674	13.856	9.0909e-002	0.1	2338.6
21675	13.579	0.18182	0.1	2415.5
21676	13.671	0.27273	0.1	2389.9
21677	13.671	9.0909e-002	0.1	2386.6
21678	13.394	0.18182	0.1	2463.7
21679	13.487	0.27273	0.1	2438.
21680	13.487	9.0909e-002	0.1	2434.7
21681	13.21	0.18182	0.1	2512.1
21682	13.302	0.27273	0.1	2486.3
21683	13.302	9.0909e-002	0.1	2483.1
21684	13.026	0.18182	0.1	2560.7
21685	13.118	0.27273	0.1	2534.8
21686	13.118	9.0909e-002	0.1	2531.7
21687	12.841	0.18182	0.1	2609.6
21688	12.933	0.27273	0.1	2583.5
21689	12.933	9.0909e-002	0.1	2580.5
21690	12.657	0.18182	0.1	2658.6
21691	12.749	0.27273	0.1	2632.4
21692	12.749	9.0909e-002	0.1	2629.5
21693	12.472	0.18182	0.1	2707.8
21694	12.564	0.27273	0.1	2681.6
21695	12.564	9.0909e-002	0.1	2678.7
21696	12.288	0.18182	0.1	2757.3
21697	12.38	0.27273	0.1	2730.9
21698	12.38	9.0909e-002	0.1	2728.1
21699	12.103	0.18182	0.1	2806.9
21700	12.196	0.27273	0.1	2780.5
21701	12.196	9.0909e-002	0.1	2777.8
21702	11.919	0.18182	0.1	2856.8
21703	12.011	0.27273	0.1	2830.3
21704	12.011	9.0909e-002	0.1	2827.7
21705	11.734	0.18182	0.1	2906.9
21706	11.827	0.27273	0.1	2880.3
21707	11.827	9.0909e-002	0.1	2877.7
21708	11.55	0.18182	0.1	2957.2
21709	11.642	0.27273	0.1	2930.5
21710	11.642	9.0909e-002	0.1	2928.
21711	11.366	0.18182	0.1	3007.8
21712	11.458	0.27273	0.1	2980.9
21713	11.458	9.0909e-002	0.1	2978.6
21714	11.181	0.18182	0.1	3058.5
21715	11.273	0.27273	0.1	3031.5
21716	11.273	9.0909e-002	0.1	3029.3
21717	10.997	0.18182	0.1	3109.5
21718	11.089	0.27273	0.1	3082.4
21719	11.089	9.0909e-002	0.1	3080.3
21720	10.812	0.18182	0.1	3160.7
21721	10.904	0.27273	0.1	3133.5
21722	10.904	9.0909e-002	0.1	3131.5
21723	10.628	0.18182	0.1	3212.1
21724	10.72	0.27273	0.1	3184.8
21725	10.72	9.0909e-002	0.1	3182.9
21726	10.443	0.18182	0.1	3263.8
21727	10.536	0.27273	0.1	3236.3
21728	10.536	9.0909e-002	0.1	3234.5
21729	10.259	0.18182	0.1	3315.6
21730	10.351	0.27273	0.1	3288.
21731	10.351	9.0909e-002	0.1	3286.4
21732	10.074	0.18182	0.1	3367.7
21733	10.167	0.27273	0.1	3340.
21734	10.167	9.0909e-002	0.1	3338.5
21735	9.89	0.18182	0.1	3420.1
21736	9.9822	0.27273	0.1	3392.2
21737	9.9822	9.0909e-002	0.1	3390.9
21738	9.7056	0.18182	0.1	3472.6
21739	9.7978	0.27273	0.1	3444.6
21740	9.7978	9.0909e-002	0.1	3443.5
21741	9.5211	0.18182	0.1	3525.4
21742	9.6133	0.27273	0.1	3497.3
21743	9.6133	9.0909e-002	0.1	3496.3
21744	9.3367	0.18182	0.1	3578.4
21745	9.4289	0.27273	0.1	3550.2
21746	9.4289	9.0909e-002	0.1	3549.3
21747	9.1522	0.18182	0.1	3631.7
21748	9.2444	0.27273	0.1	3603.3
21749	9.2444	9.0909e-002	0.1	3602.6
21750	8.9678	0.18182	0.1	3685.2
21751	9.06	0.27273	0.1	3656.6
21752	9.06	9.0909e-002	0.1	3656.1
21753	8.7833	0.18182	0.1	3738.8
21754	8.8756	0.27273	0.1	3710.1
21755	8.8756	9.0909e-002	0.1	3709.8
21756	8.5989	0.18182	0.1	3792.7
21757	8.6911	0.27273	0.1	3763.9
21758	8.6911	9.0909e-002	0.1	3763.8
21759	8.4144	0.18182	0.1	3846.8
21760	8.5067	0.27273	0.1	3817.9
21761	8.5067	9.0909e-002	0.1	3818.
21762	8.23	0.18182	0.1	3901.1
21763	8.3222	0.27273	0.1	3872.
21764	8.3222	9.0909e-002	0.1	3872.3
21765	8.0456	0.18182	0.1	3955.5
21766	8.1378	0.27273	0.1	3926.3
21767	8.1378	9.0909e-002	0.1	3926.9
21768	7.8611	0.18182	0.1	4010.1
21769	7.9533	0.27273	0.1	3980.8
21770	7.9533	9.0909e-002	0.1	3981.6
21771	7.6767	0.18182	0.1	4064.7
21772	7.7689	0.27273	0.1	4035.4
21773	7.7689	9.0909e-002	0.1	4036.3
21774	7.4922	0.18182	0.1	4119.4
21775	7.5844	0.27273	0.1	4090.1
21776	7.5844	9.0909e-002	0.1	4091.2
21777	7.3078	0.18182	0.1	4174.1
21778	7.4	0.27273	0.1	4144.7
21779	7.4	9.0909e-002	0.1	4146.1
21780	7.1233	0.18182	0.1	4228.6
21781	7.2156	0.27273	0.1	4199.4
21782	7.2156	9.0909e-002	0.1	4200.8
21783	6.9389	0.18182	0.1	4282.9
21784	7.0311	0.27273	0.1	4253.8
21785	7.0311	9.0909e-002	0.1	4255.4
21786	6.7544	0.18182	0.1	4336.7
21787	6.8467	0.27273	0.1	4308.
21788	6.8467	9.0909e-002	0.1	4309.6
21789	6.57	0.18182	0.1	4390.
21790	6.6622	0.27273	0.1	4361.7
21791	6.6622	9.0909e-002	0.1	4363.3
21792	6.3856	0.18182	0.1	4442.4
21793	6.4778	0.27273	0.1	4414.7
21794	6.4778	9.0909e-002	0.1	4416.3
21795	6.2011	0.18182	0.1	4493.5
21796	6.2933	0.27273	0.1	4466.8
21797	6.2933	9.0909e-002	0.1	4468.2
21798	6.0167	0.18182	0.1	4543.1
21799	6.1089	0.27273	0.1	4517.5
21800	6.1089	9.0909e-002	0.1	4518.6
21801	5.8322	0.18182	0.1	4590.4
21802	5.9244	0.27273	0.1	4566.5
21803	5.9244	9.0909e-002	0.1	4567.1
21804	5.6478	0.18182	0.1	4634.9
21805	5.74	0.27273	0.1	4613.1
21806	5.74	9.0909e-002	0.1	4613.
21807	5.4633	0.18182	0.1	4675.5
21808	5.5556	0.27273	0.1	4656.6
21809	5.5556	9.0909e-002	0.1	4655.5
21810	5.2789	0.18182	0.1	4711.4
21811	5.3711	0.27273	0.1	4696.
21812	5.3711	9.0909e-002	0.1	4693.6
21813	5.0944	0.18182	0.1	4740.9
21814	5.1867	0.27273	0.1	4730.1
21815	5.1867	9.0909e-002	0.1	4726.1
21816	4.91	0.18182	0.1	4762.4
21817	5.0022	0.27273	0.1	4757.5
21818	5.0022	9.0909e-002	0.1	4751.3
21819	4.7256	0.18182	0.1	4773.7
21820	4.8178	0.27273	0.1	4776.2
21821	4.8178	9.0909e-002	0.1	4767.3
21822	4.5411	0.18182	0.1	4772.1
21823	4.6333	0.27273	0.1	4783.9
21824	4.6333	9.0909e-002	0.1	4771.5
21825	4.3567	0.18182	0.1	4754.3
21826	4.4489	0.27273	0.1	4777.7
21827	4.4489	9.0909e-002	0.1	4761.
21828	4.1722	0.18182	0.1	4716.3
21829	4.2644	0.27273	0.1	4754.
21830	4.2644	9.0909e-002	0.1	4732.1
21831	3.9878	0.18182	0.1	4653.3
21832	4.08	0.27273	0.1	4708.5
21833	4.08	9.0909e-002	0.1	4680.2
21834	3.8033	0.18182	0.1	4559.6
21835	3.8956	0.27273	0.1	4636.2
21836	3.8956	9.0909e-002	0.1	4600.1
21837	3.6189	0.18182	0.1	4428.8
21838	3.7111	0.27273	0.1	4530.8
21839	3.7111	9.0909e-002	0.1	4485.4
21840	3.4344	0.18182	0.1	4253.5
21841	3.5267	0.27273	0.1	4385.4
21842	3.5267	9.0909e-002	0.1	4329.1
21843	3.25	0.18182	0.1	4026.1
21844	3.3422	0.27273	0.1	4192.5
21845	3.3422	9.0909e-002	0.1	4123.5
21846	3.0656	0.18182	0.1	3738.9
21847	3.1578	0.27273	0.1	3943.8
21848	3.1578	9.0909e-002	0.1	3860.5
21849	2.8811	0.18182	0.1	3385.1
21850	2.9733	0.27273	0.1	3631.9
21851	2.9733	9.0909e-002	0.1	3532.5
21852	2.6967	0.18182	0.1	2960.3
21853	2.7889	0.27273	0.1	3250.7
21854	2.7889	9.0909e-002	0.1	3133.3
21855	2.5122	0.18182	0.1	2463.6
21856	2.6044	0.27273	0.1	2797.9
21857	2.6044	9.0909e-002	0.1	2659.8
21858	2.3278	0.18182	0.1	1900.
21859	2.42	0.27273	0.1	2279.
21860	2.42	9.0909e-002	0.1	2112.9
21861	2.1433	0.18182	0.1	1298.9
21862	2.2356	0.27273	0.1	1715.2
21863	2.2356	9.0909e-002	0.1	1498.2
21864	2.0511	0.27273	0.1	1214.
21865	1.9589	0.18182	0.1	726.44
21866	2.0511	9.0909e-002	0.1	842.47
21867	23.723	0.36364	0.1	55.523
21868	23.816	0.45455	0.1	38.49
21869	23.908	0.36364	0.1	21.517
21870	23.539	0.36364	0.1	91.362
21871	23.631	0.45455	0.1	73.678
21872	23.354	0.36364	0.1	128.63
21873	23.447	0.45455	0.1	110.35
21874	23.17	0.36364	0.1	166.72
21875	23.262	0.45455	0.1	147.94
21876	22.986	0.36364	0.1	205.33
21877	23.078	0.45455	0.1	186.16
21878	22.801	0.36364	0.1	244.3
21879	22.893	0.45455	0.1	224.83
21880	22.617	0.36364	0.1	283.55
21881	22.709	0.45455	0.1	263.83
21882	22.432	0.36364	0.1	323.01
21883	22.524	0.45455	0.1	303.09
21884	22.248	0.36364	0.1	362.65
21885	22.34	0.45455	0.1	342.57
21886	22.063	0.36364	0.1	402.45
21887	22.156	0.45455	0.1	382.22
21888	21.879	0.36364	0.1	442.41
21889	21.971	0.45455	0.1	422.04
21890	21.694	0.36364	0.1	482.5
21891	21.787	0.45455	0.1	462.01
21892	21.51	0.36364	0.1	522.73
21893	21.602	0.45455	0.1	502.13
21894	21.326	0.36364	0.1	563.1
21895	21.418	0.45455	0.1	542.39
21896	21.141	0.36364	0.1	603.6
21897	21.233	0.45455	0.1	582.78
21898	20.957	0.36364	0.1	644.24
21899	21.049	0.45455	0.1	623.32
21900	20.772	0.36364	0.1	685.02
21901	20.864	0.45455	0.1	664.
21902	20.588	0.36364	0.1	725.94
21903	20.68	0.45455	0.1	704.83
21904	20.403	0.36364	0.1	767.01
21905	20.496	0.45455	0.1	745.8
21906	20.219	0.36364	0.1	808.23
21907	20.311	0.45455	0.1	786.92
21908	20.034	0.36364	0.1	849.6
21909	20.127	0.45455	0.1	828.2
21910	19.85	0.36364	0.1	891.13
21911	19.942	0.45455	0.1	869.64
21912	19.666	0.36364	0.1	932.82
21913	19.758	0.45455	0.1	911.23
21914	19.481	0.36364	0.1	974.67
21915	19.573	0.45455	0.1	952.99
21916	19.297	0.36364	0.1	1016.7
21917	19.389	0.45455	0.1	994.92
21918	19.112	0.36364	0.1	1058.9
21919	19.204	0.45455	0.1	1037.
21920	18.928	0.36364	0.1	1101.2
21921	19.02	0.45455	0.1	1079.3
21922	18.743	0.36364	0.1	1143.8
21923	18.836	0.45455	0.1	1121.7
21924	18.559	0.36364	0.1	1186.5
21925	18.651	0.45455	0.1	1164.4
21926	18.374	0.36364	0.1	1229.4
21927	18.467	0.45455	0.1	1207.2
21928	18.19	0.36364	0.1	1272.5
21929	18.282	0.45455	0.1	1250.1
21930	18.006	0.36364	0.1	1315.7
21931	18.098	0.45455	0.1	1293.3
21932	17.821	0.36364	0.1	1359.2
21933	17.913	0.45455	0.1	1336.7
21934	17.637	0.36364	0.1	1402.8
21935	17.729	0.45455	0.1	1380.2
21936	17.452	0.36364	0.1	1446.6
21937	17.544	0.45455	0.1	1423.9
21938	17.268	0.36364	0.1	1490.7
21939	17.36	0.45455	0.1	1467.9
21940	17.083	0.36364	0.1	1534.9
21941	17.176	0.45455	0.1	1512.
21942	16.899	0.36364	0.1	1579.3
21943	16.991	0.45455	0.1	1556.3
21944	16.714	0.36364	0.1	1623.9
21945	16.807	0.45455	0.1	1600.8
21946	16.53	0.36364	0.1	1668.7
21947	16.622	0.45455	0.1	1645.5
21948	16.346	0.36364	0.1	1713.6
21949	16.438	0.45455	0.1	1690.4
21950	16.161	0.36364	0.1	1758.8
21951	16.253	0.45455	0.1	1735.5
21952	15.977	0.36364	0.1	1804.2
21953	16.069	0.45455	0.1	1780.7
21954	15.792	0.36364	0.1	1849.8
21955	15.884	0.45455	0.1	1826.2
21956	15.608	0.36364	0.1	1895.6
21957	15.7	0.45455	0.1	1871.9
21958	15.423	0.36364	0.1	1941.5
21959	15.516	0.45455	0.1	1917.8
21960	15.239	0.36364	0.1	1987.7
21961	15.331	0.45455	0.1	1963.9
21962	15.054	0.36364	0.1	2034.1
21963	15.147	0.45455	0.1	2010.2
21964	14.87	0.36364	0.1	2080.7
21965	14.962	0.45455	0.1	2056.6
21966	14.686	0.36364	0.1	2127.5
21967	14.778	0.45455	0.1	2103.3
21968	14.501	0.36364	0.1	2174.4
21969	14.593	0.45455	0.1	2150.2
21970	14.317	0.36364	0.1	2221.6
21971	14.409	0.45455	0.1	2197.3
21972	14.132	0.36364	0.1	2269.
21973	14.224	0.45455	0.1	2244.6
21974	13.948	0.36364	0.1	2316.6
21975	14.04	0.45455	0.1	2292.1
21976	13.763	0.36364	0.1	2364.4
21977	13.856	0.45455	0.1	2339.8
21978	13.579	0.36364	0.1	2412.4
21979	13.671	0.45455	0.1	2387.7
21980	13.394	0.36364	0.1	2460.6
21981	13.487	0.45455	0.1	2435.8
21982	13.21	0.36364	0.1	2509.1
21983	13.302	0.45455	0.1	2484.1
21984	13.026	0.36364	0.1	2557.7
21985	13.118	0.45455	0.1	2532.6
21986	12.841	0.36364	0.1	2606.5
21987	12.933	0.45455	0.1	2581.3
21988	12.657	0.36364	0.1	2655.6
21989	12.749	0.45455	0.1	2630.3
21990	12.472	0.36364	0.1	2704.8
21991	12.564	0.45455	0.1	2679.4
21992	12.288	0.36364	0.1	2754.3
21993	12.38	0.45455	0.1	2728.7
21994	12.103	0.36364	0.1	2803.9
21995	12.196	0.45455	0.1	2778.3
21996	11.919	0.36364	0.1	2853.8
21997	12.011	0.45455	0.1	2828.1
21998	11.734	0.36364	0.1	2903.9
21999	11.827	0.45455	0.1	2878.
22000	11.55	0.36364	0.1	2954.2
22001	11.642	0.45455	0.1	2928.2
22002	11.366	0.36364	0.1	3004.8
22003	11.458	0.45455	0.1	2978.6
22004	11.181	0.36364	0.1	3055.5
22005	11.273	0.45455	0.1	3029.3
22006	10.997	0.36364	0.1	3106.5
22007	11.089	0.45455	0.1	3080.1
22008	10.812	0.36364	0.1	3157.6
22009	10.904	0.45455	0.1	3131.1
22010	10.628	0.36364	0.1	3209.
22011	10.72	0.45455	0.1	3182.4
22012	10.443	0.36364	0.1	3260.7
22013	10.536	0.45455	0.1	3233.9
22014	10.259	0.36364	0.1	3312.5
22015	10.351	0.45455	0.1	3285.6
22016	10.074	0.36364	0.1	3364.6
22017	10.167	0.45455	0.1	3337.5
22018	9.89	0.36364	0.1	3416.8
22019	9.9822	0.45455	0.1	3389.7
22020	9.7056	0.36364	0.1	3469.4
22021	9.7978	0.45455	0.1	3442.
22022	9.5211	0.36364	0.1	3522.1
22023	9.6133	0.45455	0.1	3494.6
22024	9.3367	0.36364	0.1	3575.1
22025	9.4289	0.45455	0.1	3547.4
22026	9.1522	0.36364	0.1	3628.2
22027	9.2444	0.45455	0.1	3600.4
22028	8.9678	0.36364	0.1	3681.6
22029	9.06	0.45455	0.1	3653.7
22030	8.7833	0.36364	0.1	3735.3
22031	8.8756	0.45455	0.1	3707.2
22032	8.5989	0.36364	0.1	3789.1
22033	8.6911	0.45455	0.1	3760.8
22034	8.4144	0.36364	0.1	3843.1
22035	8.5067	0.45455	0.1	3814.7
22036	8.23	0.36364	0.1	3897.3
22037	8.3222	0.45455	0.1	3868.8
22038	8.0456	0.36364	0.1	3951.7
22039	8.1378	0.45455	0.1	3923.
22040	7.8611	0.36364	0.1	4006.2
22041	7.9533	0.45455	0.1	3977.4
22042	7.6767	0.36364	0.1	4060.8
22043	7.7689	0.45455	0.1	4031.9
22044	7.4922	0.36364	0.1	4115.5
22045	7.5844	0.45455	0.1	4086.6
22046	7.3078	0.36364	0.1	4170.1
22047	7.4	0.45455	0.1	4141.2
22048	7.1233	0.36364	0.1	4224.7
22049	7.2156	0.45455	0.1	4195.9
22050	6.9389	0.36364	0.1	4279.
22051	7.0311	0.45455	0.1	4250.4
22052	6.7544	0.36364	0.1	4333.
22053	6.8467	0.45455	0.1	4304.6
22054	6.57	0.36364	0.1	4386.5
22055	6.6622	0.45455	0.1	4358.6
22056	6.3856	0.36364	0.1	4439.2
22057	6.4778	0.45455	0.1	4411.9
22058	6.2011	0.36364	0.1	4490.9
22059	6.2933	0.45455	0.1	4464.4
22060	6.0167	0.36364	0.1	4541.
22061	6.1089	0.45455	0.1	4515.8
22062	5.8322	0.36364	0.1	4589.3
22063	5.9244	0.45455	0.1	4565.6
22064	5.6478	0.36364	0.1	4634.9
22065	5.74	0.45455	0.1	4613.3
22066	5.4633	0.36364	0.1	4677.1
22067	5.5556	0.45455	0.1	4658.2
22068	5.2789	0.36364	0.1	4714.8
22069	5.3711	0.45455	0.1	4699.5
22070	5.0944	0.36364	0.1	4746.7
22071	5.1867	0.45455	0.1	4736.1
22072	4.91	0.36364	0.1	4771.3
22073	5.0022	0.45455	0.1	4766.5
22074	4.7256	0.36364	0.1	4786.4
22075	4.8178	0.45455	0.1	4789.1
22076	4.5411	0.36364	0.1	4789.4
22077	4.6333	0.45455	0.1	4801.6
22078	4.3567	0.36364	0.1	4777.3
22079	4.4489	0.45455	0.1	4801.4
22080	4.1722	0.36364	0.1	4746.2
22081	4.2644	0.45455	0.1	4785.1
22082	3.9878	0.36364	0.1	4691.3
22083	4.08	0.45455	0.1	4748.6
22084	3.8033	0.36364	0.1	4607.1
22085	3.8956	0.45455	0.1	4686.8
22086	3.6189	0.36364	0.1	4487.1
22087	3.7111	0.45455	0.1	4594.
22088	3.4344	0.36364	0.1	4323.8
22089	3.5267	0.45455	0.1	4463.2
22090	3.25	0.36364	0.1	4109.3
22091	3.3422	0.45455	0.1	4286.7
22092	3.0656	0.36364	0.1	3835.6
22093	3.1578	0.45455	0.1	4056.4
22094	2.8811	0.36364	0.1	3495.6
22095	2.9733	0.45455	0.1	3764.3
22096	2.6967	0.36364	0.1	3085.8
22097	2.7889	0.45455	0.1	3405.
22098	2.5122	0.36364	0.1	2609.5
22099	2.6044	0.45455	0.1	2978.4
22100	2.3278	0.36364	0.1	2085.9
22101	2.42	0.45455	0.1	2497.2
22102	2.1433	0.36364	0.1	1595.4
22103	2.2356	0.45455	0.1	2002.5
22104	2.0511	0.45455	0.1	1642.4
22105	1.9589	0.36364	0.1	1115.1
22106	23.723	0.54545	0.1	56.729
22107	23.816	0.63636	0.1	39.208
22108	23.908	0.54545	0.1	22.046
22109	23.539	0.54545	0.1	92.847
22110	23.631	0.63636	0.1	75.131
22111	23.354	0.54545	0.1	129.87
22112	23.447	0.63636	0.1	111.87
22113	23.17	0.54545	0.1	167.59
22114	23.262	0.63636	0.1	149.24
22115	22.986	0.54545	0.1	205.86
22116	23.078	0.63636	0.1	187.17
22117	22.801	0.54545	0.1	244.54
22118	22.893	0.63636	0.1	225.55
22119	22.617	0.54545	0.1	283.54
22120	22.709	0.63636	0.1	264.3
22121	22.432	0.54545	0.1	322.8
22122	22.524	0.63636	0.1	303.33
22123	22.248	0.54545	0.1	362.27
22124	22.34	0.63636	0.1	342.61
22125	22.063	0.54545	0.1	401.93
22126	22.156	0.63636	0.1	382.09
22127	21.879	0.54545	0.1	441.75
22128	21.971	0.63636	0.1	421.76
22129	21.694	0.54545	0.1	481.74
22130	21.787	0.63636	0.1	461.6
22131	21.51	0.54545	0.1	521.87
22132	21.602	0.63636	0.1	501.6
22133	21.326	0.54545	0.1	562.15
22134	21.418	0.63636	0.1	541.76
22135	21.141	0.54545	0.1	602.58
22136	21.233	0.63636	0.1	582.06
22137	20.957	0.54545	0.1	643.16
22138	21.049	0.63636	0.1	622.52
22139	20.772	0.54545	0.1	683.88
22140	20.864	0.63636	0.1	663.13
22141	20.588	0.54545	0.1	724.75
22142	20.68	0.63636	0.1	703.89
22143	20.403	0.54545	0.1	765.78
22144	20.496	0.63636	0.1	744.81
22145	20.219	0.54545	0.1	806.96
22146	20.311	0.63636	0.1	785.88
22147	20.034	0.54545	0.1	848.3
22148	20.127	0.63636	0.1	827.12
22149	19.85	0.54545	0.1	889.8
22150	19.942	0.63636	0.1	868.51
22151	19.666	0.54545	0.1	931.46
22152	19.758	0.63636	0.1	910.08
22153	19.481	0.54545	0.1	973.29
22154	19.573	0.63636	0.1	951.81
22155	19.297	0.54545	0.1	1015.3
22156	19.389	0.63636	0.1	993.71
22157	19.112	0.54545	0.1	1057.5
22158	19.204	0.63636	0.1	1035.8
22159	18.928	0.54545	0.1	1099.8
22160	19.02	0.63636	0.1	1078.
22161	18.743	0.54545	0.1	1142.4
22162	18.836	0.63636	0.1	1120.5
22163	18.559	0.54545	0.1	1185.1
22164	18.651	0.63636	0.1	1163.1
22165	18.374	0.54545	0.1	1228.
22166	18.467	0.63636	0.1	1205.9
22167	18.19	0.54545	0.1	1271.
22168	18.282	0.63636	0.1	1248.8
22169	18.006	0.54545	0.1	1314.3
22170	18.098	0.63636	0.1	1292.
22171	17.821	0.54545	0.1	1357.7
22172	17.913	0.63636	0.1	1335.4
22173	17.637	0.54545	0.1	1401.4
22174	17.729	0.63636	0.1	1378.9
22175	17.452	0.54545	0.1	1445.2
22176	17.544	0.63636	0.1	1422.6
22177	17.268	0.54545	0.1	1489.2
22178	17.36	0.63636	0.1	1466.6
22179	17.083	0.54545	0.1	1533.4
22180	17.176	0.63636	0.1	1510.7
22181	16.899	0.54545	0.1	1577.8
22182	16.991	0.63636	0.1	1555.
22183	16.714	0.54545	0.1	1622.4
22184	16.807	0.63636	0.1	1599.5
22185	16.53	0.54545	0.1	1667.2
22186	16.622	0.63636	0.1	1644.2
22187	16.346	0.54545	0.1	1712.2
22188	16.438	0.63636	0.1	1689.1
22189	16.161	0.54545	0.1	1757.4
22190	16.253	0.63636	0.1	1734.2
22191	15.977	0.54545	0.1	1802.8
22192	16.069	0.63636	0.1	1779.5
22193	15.792	0.54545	0.1	1848.4
22194	15.884	0.63636	0.1	1824.9
22195	15.608	0.54545	0.1	1894.2
22196	15.7	0.63636	0.1	1870.6
22197	15.423	0.54545	0.1	1940.2
22198	15.516	0.63636	0.1	1916.5
22199	15.239	0.54545	0.1	1986.3
22200	15.331	0.63636	0.1	1962.6
22201	15.054	0.54545	0.1	2032.7
22202	15.147	0.63636	0.1	2008.9
22203	14.87	0.54545	0.1	2079.3
22204	14.962	0.63636	0.1	2055.4
22205	14.686	0.54545	0.1	2126.1
22206	14.778	0.63636	0.1	2102.
22207	14.501	0.54545	0.1	2173.1
22208	14.593	0.63636	0.1	2148.9
22209	14.317	0.54545	0.1	2220.3
22210	14.409	0.63636	0.1	2196.
22211	14.132	0.54545	0.1	2267.7
22212	14.224	0.63636	0.1	2243.3
22213	13.948	0.54545	0.1	2315.2
22214	14.04	0.63636	0.1	2290.8
22215	13.763	0.54545	0.1	2363.
22216	13.856	0.63636	0.1	2338.5
22217	13.579	0.54545	0.1	2411.
22218	13.671	0.63636	0.1	2386.4
22219	13.394	0.54545	0.1	2459.3
22220	13.487	0.63636	0.1	2434.5
22221	13.21	0.54545	0.1	2507.7
22222	13.302	0.63636	0.1	2482.8
22223	13.026	0.54545	0.1	2556.3
22224	13.118	0.63636	0.1	2531.3
22225	12.841	0.54545	0.1	2605.1
22226	12.933	0.63636	0.1	2580.
22227	12.657	0.54545	0.1	2654.1
22228	12.749	0.63636	0.1	2628.9
22229	12.472	0.54545	0.1	2703.4
22230	12.564	0.63636	0.1	2678.1
22231	12.288	0.54545	0.1	2752.8
22232	12.38	0.63636	0.1	2727.4
22233	12.103	0.54545	0.1	2802.5
22234	12.196	0.63636	0.1	2776.9
22235	11.919	0.54545	0.1	2852.3
22236	12.011	0.63636	0.1	2826.7
22237	11.734	0.54545	0.1	2902.4
22238	11.827	0.63636	0.1	2876.6
22239	11.55	0.54545	0.1	2952.7
22240	11.642	0.63636	0.1	2926.8
22241	11.366	0.54545	0.1	3003.2
22242	11.458	0.63636	0.1	2977.1
22243	11.181	0.54545	0.1	3053.9
22244	11.273	0.63636	0.1	3027.7
22245	10.997	0.54545	0.1	3104.8
22246	11.089	0.63636	0.1	3078.5
22247	10.812	0.54545	0.1	3155.9
22248	10.904	0.63636	0.1	3129.5
22249	10.628	0.54545	0.1	3207.3
22250	10.72	0.63636	0.1	3180.7
22251	10.443	0.54545	0.1	3258.8
22252	10.536	0.63636	0.1	3232.2
22253	10.259	0.54545	0.1	3310.6
22254	10.351	0.63636	0.1	3283.8
22255	10.074	0.54545	0.1	3362.6
22256	10.167	0.63636	0.1	3335.7
22257	9.89	0.54545	0.1	3414.8
22258	9.9822	0.63636	0.1	3387.8
22259	9.7056	0.54545	0.1	3467.3
22260	9.7978	0.63636	0.1	3440.
22261	9.5211	0.54545	0.1	3519.9
22262	9.6133	0.63636	0.1	3492.6
22263	9.3367	0.54545	0.1	3572.8
22264	9.4289	0.63636	0.1	3545.3
22265	9.1522	0.54545	0.1	3625.9
22266	9.2444	0.63636	0.1	3598.2
22267	8.9678	0.54545	0.1	3679.2
22268	9.06	0.63636	0.1	3651.4
22269	8.7833	0.54545	0.1	3732.7
22270	8.8756	0.63636	0.1	3704.7
22271	8.5989	0.54545	0.1	3786.5
22272	8.6911	0.63636	0.1	3758.3
22273	8.4144	0.54545	0.1	3840.4
22274	8.5067	0.63636	0.1	3812.1
22275	8.23	0.54545	0.1	3894.5
22276	8.3222	0.63636	0.1	3866.1
22277	8.0456	0.54545	0.1	3948.8
22278	8.1378	0.63636	0.1	3920.2
22279	7.8611	0.54545	0.1	4003.2
22280	7.9533	0.63636	0.1	3974.5
22281	7.6767	0.54545	0.1	4057.7
22282	7.7689	0.63636	0.1	4029.
22283	7.4922	0.54545	0.1	4112.3
22284	7.5844	0.63636	0.1	4083.6
22285	7.3078	0.54545	0.1	4167.
22286	7.4	0.63636	0.1	4138.2
22287	7.1233	0.54545	0.1	4221.6
22288	7.2156	0.63636	0.1	4192.8
22289	6.9389	0.54545	0.1	4276.
22290	7.0311	0.63636	0.1	4247.4
22291	6.7544	0.54545	0.1	4330.2
22292	6.8467	0.63636	0.1	4301.8
22293	6.57	0.54545	0.1	4384.
22294	6.6622	0.63636	0.1	4356.
22295	6.3856	0.54545	0.1	4437.1
22296	6.4778	0.63636	0.1	4409.7
22297	6.2011	0.54545	0.1	4489.3
22298	6.2933	0.63636	0.1	4462.7
22299	6.0167	0.54545	0.1	4540.3
22300	6.1089	0.63636	0.1	4514.8
22301	5.8322	0.54545	0.1	4589.6
22302	5.9244	0.63636	0.1	4565.6
22303	5.6478	0.54545	0.1	4636.6
22304	5.74	0.63636	0.1	4614.7
22305	5.4633	0.54545	0.1	4680.7
22306	5.5556	0.63636	0.1	4661.4
22307	5.2789	0.54545	0.1	4720.8
22308	5.3711	0.63636	0.1	4705.
22309	5.0944	0.54545	0.1	4755.9
22310	5.1867	0.63636	0.1	4744.5
22311	4.91	0.54545	0.1	4784.3
22312	5.0022	0.63636	0.1	4778.8
22313	4.7256	0.54545	0.1	4804.4
22314	4.8178	0.63636	0.1	4806.2
22315	4.5411	0.54545	0.1	4813.6
22316	4.6333	0.63636	0.1	4824.9
22317	4.3567	0.54545	0.1	4809.2
22318	4.4489	0.63636	0.1	4832.3
22319	4.1722	0.54545	0.1	4787.4
22320	4.2644	0.63636	0.1	4825.5
22321	3.9878	0.54545	0.1	4743.9
22322	4.08	0.63636	0.1	4800.6
22323	3.8033	0.54545	0.1	4673.4
22324	3.8956	0.63636	0.1	4753.2
22325	3.6189	0.54545	0.1	4569.6
22326	3.7111	0.63636	0.1	4677.7
22327	3.4344	0.54545	0.1	4425.3
22328	3.5267	0.63636	0.1	4567.5
22329	3.25	0.54545	0.1	4232.5
22330	3.3422	0.63636	0.1	4415.4
22331	3.0656	0.54545	0.1	3983.1
22332	3.1578	0.63636	0.1	4213.3
22333	2.8811	0.54545	0.1	3670.6
22334	2.9733	0.63636	0.1	3953.5
22335	2.6967	0.54545	0.1	3292.4
22336	2.7889	0.63636	0.1	3631.
22337	2.5122	0.54545	0.1	2856.4
22338	2.6044	0.63636	0.1	3247.3
22339	2.3278	0.54545	0.1	2392.3
22340	2.42	0.63636	0.1	2819.4
22341	2.1433	0.54545	0.1	1998.2
22342	2.2356	0.63636	0.1	2393.6
22343	2.0511	0.63636	0.1	2121.6
22344	1.9589	0.54545	0.1	1509.3
22345	23.723	0.72727	0.1	57.612
22346	23.816	0.81818	0.1	39.612
22347	23.908	0.72727	0.1	22.345
22348	23.539	0.72727	0.1	94.226
22349	23.631	0.81818	0.1	76.216
22350	23.354	0.72727	0.1	131.35
22351	23.447	0.81818	0.1	113.27
22352	23.17	0.72727	0.1	168.94
22353	23.262	0.81818	0.1	150.67
22354	22.986	0.72727	0.1	206.99
22355	23.078	0.81818	0.1	188.48
22356	22.801	0.72727	0.1	245.43
22357	22.893	0.81818	0.1	226.68
22358	22.617	0.72727	0.1	284.2
22359	22.709	0.81818	0.1	265.22
22360	22.432	0.72727	0.1	323.25
22361	22.524	0.81818	0.1	304.05
22362	22.248	0.72727	0.1	362.53
22363	22.34	0.81818	0.1	343.13
22364	22.063	0.72727	0.1	402.02
22365	22.156	0.81818	0.1	382.43
22366	21.879	0.72727	0.1	441.7
22367	21.971	0.81818	0.1	421.94
22368	21.694	0.72727	0.1	481.55
22369	21.787	0.81818	0.1	461.63
22370	21.51	0.72727	0.1	521.56
22371	21.602	0.81818	0.1	501.5
22372	21.326	0.72727	0.1	561.74
22373	21.418	0.81818	0.1	541.54
22374	21.141	0.72727	0.1	602.07
22375	21.233	0.81818	0.1	581.74
22376	20.957	0.72727	0.1	642.56
22377	21.049	0.81818	0.1	622.1
22378	20.772	0.72727	0.1	683.2
22379	20.864	0.81818	0.1	662.62
22380	20.588	0.72727	0.1	724.01
22381	20.68	0.81818	0.1	703.3
22382	20.403	0.72727	0.1	764.97
22383	20.496	0.81818	0.1	744.15
22384	20.219	0.72727	0.1	806.1
22385	20.311	0.81818	0.1	785.16
22386	20.034	0.72727	0.1	847.39
22387	20.127	0.81818	0.1	826.34
22388	19.85	0.72727	0.1	888.84
22389	19.942	0.81818	0.1	867.69
22390	19.666	0.72727	0.1	930.47
22391	19.758	0.81818	0.1	909.21
22392	19.481	0.72727	0.1	972.27
22393	19.573	0.81818	0.1	950.9
22394	19.297	0.72727	0.1	1014.2
22395	19.389	0.81818	0.1	992.76
22396	19.112	0.72727	0.1	1056.4
22397	19.204	0.81818	0.1	1034.8
22398	18.928	0.72727	0.1	1098.7
22399	19.02	0.81818	0.1	1077.
22400	18.743	0.72727	0.1	1141.2
22401	18.836	0.81818	0.1	1119.4
22402	18.559	0.72727	0.1	1183.9
22403	18.651	0.81818	0.1	1162.
22404	18.374	0.72727	0.1	1226.8
22405	18.467	0.81818	0.1	1204.8
22406	18.19	0.72727	0.1	1269.9
22407	18.282	0.81818	0.1	1247.8
22408	18.006	0.72727	0.1	1313.1
22409	18.098	0.81818	0.1	1290.9
22410	17.821	0.72727	0.1	1356.6
22411	17.913	0.81818	0.1	1334.3
22412	17.637	0.72727	0.1	1400.2
22413	17.729	0.81818	0.1	1377.8
22414	17.452	0.72727	0.1	1444.
22415	17.544	0.81818	0.1	1421.5
22416	17.268	0.72727	0.1	1488.
22417	17.36	0.81818	0.1	1465.4
22418	17.083	0.72727	0.1	1532.2
22419	17.176	0.81818	0.1	1509.6
22420	16.899	0.72727	0.1	1576.7
22421	16.991	0.81818	0.1	1553.9
22422	16.714	0.72727	0.1	1621.3
22423	16.807	0.81818	0.1	1598.4
22424	16.53	0.72727	0.1	1666.1
22425	16.622	0.81818	0.1	1643.1
22426	16.346	0.72727	0.1	1711.
22427	16.438	0.81818	0.1	1687.9
22428	16.161	0.72727	0.1	1756.2
22429	16.253	0.81818	0.1	1733.
22430	15.977	0.72727	0.1	1801.6
22431	16.069	0.81818	0.1	1778.3
22432	15.792	0.72727	0.1	1847.2
22433	15.884	0.81818	0.1	1823.8
22434	15.608	0.72727	0.1	1893.
22435	15.7	0.81818	0.1	1869.5
22436	15.423	0.72727	0.1	1939.
22437	15.516	0.81818	0.1	1915.4
22438	15.239	0.72727	0.1	1985.2
22439	15.331	0.81818	0.1	1961.5
22440	15.054	0.72727	0.1	2031.5
22441	15.147	0.81818	0.1	2007.8
22442	14.87	0.72727	0.1	2078.1
22443	14.962	0.81818	0.1	2054.2
22444	14.686	0.72727	0.1	2124.9
22445	14.778	0.81818	0.1	2100.9
22446	14.501	0.72727	0.1	2171.9
22447	14.593	0.81818	0.1	2147.8
22448	14.317	0.72727	0.1	2219.1
22449	14.409	0.81818	0.1	2194.9
22450	14.132	0.72727	0.1	2266.5
22451	14.224	0.81818	0.1	2242.2
22452	13.948	0.72727	0.1	2314.1
22453	14.04	0.81818	0.1	2289.7
22454	13.763	0.72727	0.1	2361.9
22455	13.856	0.81818	0.1	2337.4
22456	13.579	0.72727	0.1	2409.9
22457	13.671	0.81818	0.1	2385.2
22458	13.394	0.72727	0.1	2458.1
22459	13.487	0.81818	0.1	2433.3
22460	13.21	0.72727	0.1	2506.5
22461	13.302	0.81818	0.1	2481.6
22462	13.026	0.72727	0.1	2555.1
22463	13.118	0.81818	0.1	2530.1
22464	12.841	0.72727	0.1	2603.9
22465	12.933	0.81818	0.1	2578.8
22466	12.657	0.72727	0.1	2652.9
22467	12.749	0.81818	0.1	2627.7
22468	12.472	0.72727	0.1	2702.1
22469	12.564	0.81818	0.1	2676.8
22470	12.288	0.72727	0.1	2751.5
22471	12.38	0.81818	0.1	2726.2
22472	12.103	0.72727	0.1	2801.2
22473	12.196	0.81818	0.1	2775.7
22474	11.919	0.72727	0.1	2851.
22475	12.011	0.81818	0.1	2825.4
22476	11.734	0.72727	0.1	2901.
22477	11.827	0.81818	0.1	2875.3
22478	11.55	0.72727	0.1	2951.3
22479	11.642	0.81818	0.1	2925.4
22480	11.366	0.72727	0.1	3001.7
22481	11.458	0.81818	0.1	2975.8
22482	11.181	0.72727	0.1	3052.4
22483	11.273	0.81818	0.1	3026.3
22484	10.997	0.72727	0.1	3103.3
22485	11.089	0.81818	0.1	3077.1
22486	10.812	0.72727	0.1	3154.4
22487	10.904	0.81818	0.1	3128.
22488	10.628	0.72727	0.1	3205.7
22489	10.72	0.81818	0.1	3179.2
22490	10.443	0.72727	0.1	3257.2
22491	10.536	0.81818	0.1	3230.6
22492	10.259	0.72727	0.1	3308.9
22493	10.351	0.81818	0.1	3282.2
22494	10.074	0.72727	0.1	3360.8
22495	10.167	0.81818	0.1	3334.
22496	9.89	0.72727	0.1	3413.
22497	9.9822	0.81818	0.1	3386.
22498	9.7056	0.72727	0.1	3465.3
22499	9.7978	0.81818	0.1	3438.2
22500	9.5211	0.72727	0.1	3517.9
22501	9.6133	0.81818	0.1	3490.6
22502	9.3367	0.72727	0.1	3570.7
22503	9.4289	0.81818	0.1	3543.3
22504	9.1522	0.72727	0.1	3623.7
22505	9.2444	0.81818	0.1	3596.1
22506	8.9678	0.72727	0.1	3676.9
22507	9.06	0.81818	0.1	3649.2
22508	8.7833	0.72727	0.1	3730.4
22509	8.8756	0.81818	0.1	3702.5
22510	8.5989	0.72727	0.1	3784.
22511	8.6911	0.81818	0.1	3755.9
22512	8.4144	0.72727	0.1	3837.8
22513	8.5067	0.81818	0.1	3809.6
22514	8.23	0.72727	0.1	3891.8
22515	8.3222	0.81818	0.1	3863.5
22516	8.0456	0.72727	0.1	3946.
22517	8.1378	0.81818	0.1	3917.6
22518	7.8611	0.72727	0.1	4000.3
22519	7.9533	0.81818	0.1	3971.8
22520	7.6767	0.72727	0.1	4054.8
22521	7.7689	0.81818	0.1	4026.2
22522	7.4922	0.72727	0.1	4109.4
22523	7.5844	0.81818	0.1	4080.7
22524	7.3078	0.72727	0.1	4164.
22525	7.4	0.81818	0.1	4135.3
22526	7.1233	0.72727	0.1	4218.7
22527	7.2156	0.81818	0.1	4190.
22528	6.9389	0.72727	0.1	4273.3
22529	7.0311	0.81818	0.1	4244.7
22530	6.7544	0.72727	0.1	4327.6
22531	6.8467	0.81818	0.1	4299.3
22532	6.57	0.72727	0.1	4381.7
22533	6.6622	0.81818	0.1	4353.7
22534	6.3856	0.72727	0.1	4435.3
22535	6.4778	0.81818	0.1	4407.8
22536	6.2011	0.72727	0.1	4488.3
22537	6.2933	0.81818	0.1	4461.4
22538	6.0167	0.72727	0.1	4540.2
22539	6.1089	0.81818	0.1	4514.4
22540	5.8322	0.72727	0.1	4590.7
22541	5.9244	0.81818	0.1	4566.3
22542	5.6478	0.72727	0.1	4639.5
22543	5.74	0.81818	0.1	4616.9
22544	5.4633	0.72727	0.1	4685.7
22545	5.5556	0.81818	0.1	4665.7
22546	5.2789	0.72727	0.1	4728.7
22547	5.3711	0.81818	0.1	4711.9
22548	5.0944	0.72727	0.1	4767.5
22549	5.1867	0.81818	0.1	4754.9
22550	4.91	0.72727	0.1	4800.7
22551	5.0022	0.81818	0.1	4793.6
22552	4.7256	0.72727	0.1	4826.7
22553	4.8178	0.81818	0.1	4826.7
22554	4.5411	0.72727	0.1	4843.6
22555	4.6333	0.81818	0.1	4852.6
22556	4.3567	0.72727	0.1	4848.6
22557	4.4489	0.81818	0.1	4869.2
22558	4.1722	0.72727	0.1	4838.6
22559	4.2644	0.81818	0.1	4873.8
22560	3.9878	0.72727	0.1	4809.7
22561	4.08	0.81818	0.1	4863.2
22562	3.8033	0.72727	0.1	4757.
22563	3.8956	0.81818	0.1	4833.6
22564	3.6189	0.72727	0.1	4674.8
22565	3.7111	0.81818	0.1	4779.9
22566	3.4344	0.72727	0.1	4556.4
22567	3.5267	0.81818	0.1	4696.4
22568	3.25	0.72727	0.1	4394.1
22569	3.3422	0.81818	0.1	4576.5
22570	3.0656	0.72727	0.1	4180.3
22571	3.1578	0.81818	0.1	4412.7
22572	2.8811	0.72727	0.1	3908.3
22573	2.9733	0.81818	0.1	4197.8
22574	2.6967	0.72727	0.1	3576.2
22575	2.7889	0.81818	0.1	3926.8
22576	2.5122	0.72727	0.1	3193.
22577	2.6044	0.81818	0.1	3600.5
22578	2.3278	0.72727	0.1	2789.2
22579	2.42	0.81818	0.1	3234.1
22580	2.1433	0.72727	0.1	2464.
22581	2.2356	0.81818	0.1	2867.1
22582	2.0511	0.81818	0.1	2653.2
22583	1.9589	0.72727	0.1	1920.5
22584	23.723	0.90909	0.1	58.188
22585	23.816	1.	0.1	39.821
22586	23.908	0.90909	0.1	22.486
22587	23.539	0.90909	0.1	95.293
22588	23.631	1.	0.1	76.98
22589	23.354	0.90909	0.1	132.65
22590	23.447	1.	0.1	114.39
22591	23.17	0.90909	0.1	170.29
22592	23.262	1.	0.1	151.96
22593	22.986	0.90909	0.1	208.26
22594	23.078	1.	0.1	189.78
22595	22.801	0.90909	0.1	246.55
22596	22.893	1.	0.1	227.9
22597	22.617	0.90909	0.1	285.15
22598	22.709	1.	0.1	266.3
22599	22.432	0.90909	0.1	324.01
22600	22.524	1.	0.1	304.97
22601	22.248	0.90909	0.1	363.11
22602	22.34	1.	0.1	343.89
22603	22.063	0.90909	0.1	402.44
22604	22.156	1.	0.1	383.03
22605	21.879	0.90909	0.1	441.96
22606	21.971	1.	0.1	422.39
22607	21.694	0.90909	0.1	481.66
22608	21.787	1.	0.1	461.93
22609	21.51	0.90909	0.1	521.55
22610	21.602	1.	0.1	501.66
22611	21.326	0.90909	0.1	561.61
22612	21.418	1.	0.1	541.57
22613	21.141	0.90909	0.1	601.83
22614	21.233	1.	0.1	581.66
22615	20.957	0.90909	0.1	642.22
22616	21.049	1.	0.1	621.91
22617	20.772	0.90909	0.1	682.78
22618	20.864	1.	0.1	662.34
22619	20.588	0.90909	0.1	723.5
22620	20.68	1.	0.1	702.94
22621	20.403	0.90909	0.1	764.4
22622	20.496	1.	0.1	743.71
22623	20.219	0.90909	0.1	805.46
22624	20.311	1.	0.1	784.65
22625	20.034	0.90909	0.1	846.69
22626	20.127	1.	0.1	825.76
22627	19.85	0.90909	0.1	888.1
22628	19.942	1.	0.1	867.05
22629	19.666	0.90909	0.1	929.68
22630	19.758	1.	0.1	908.52
22631	19.481	0.90909	0.1	971.44
22632	19.573	1.	0.1	950.16
22633	19.297	0.90909	0.1	1013.4
22634	19.389	1.	0.1	991.99
22635	19.112	0.90909	0.1	1055.5
22636	19.204	1.	0.1	1034.
22637	18.928	0.90909	0.1	1097.8
22638	19.02	1.	0.1	1076.2
22639	18.743	0.90909	0.1	1140.3
22640	18.836	1.	0.1	1118.6
22641	18.559	0.90909	0.1	1183.
22642	18.651	1.	0.1	1161.1
22643	18.374	0.90909	0.1	1225.8
22644	18.467	1.	0.1	1203.9
22645	18.19	0.90909	0.1	1268.9
22646	18.282	1.	0.1	1246.8
22647	18.006	0.90909	0.1	1312.1
22648	18.098	1.	0.1	1290.
22649	17.821	0.90909	0.1	1355.5
22650	17.913	1.	0.1	1333.3
22651	17.637	0.90909	0.1	1399.2
22652	17.729	1.	0.1	1376.8
22653	17.452	0.90909	0.1	1443.
22654	17.544	1.	0.1	1420.5
22655	17.268	0.90909	0.1	1487.
22656	17.36	1.	0.1	1464.5
22657	17.083	0.90909	0.1	1531.2
22658	17.176	1.	0.1	1508.6
22659	16.899	0.90909	0.1	1575.6
22660	16.991	1.	0.1	1552.9
22661	16.714	0.90909	0.1	1620.2
22662	16.807	1.	0.1	1597.4
22663	16.53	0.90909	0.1	1665.
22664	16.622	1.	0.1	1642.
22665	16.346	0.90909	0.1	1710.
22666	16.438	1.	0.1	1686.9
22667	16.161	0.90909	0.1	1755.2
22668	16.253	1.	0.1	1732.
22669	15.977	0.90909	0.1	1800.6
22670	16.069	1.	0.1	1777.3
22671	15.792	0.90909	0.1	1846.1
22672	15.884	1.	0.1	1822.8
22673	15.608	0.90909	0.1	1891.9
22674	15.7	1.	0.1	1868.5
22675	15.423	0.90909	0.1	1937.9
22676	15.516	1.	0.1	1914.4
22677	15.239	0.90909	0.1	1984.1
22678	15.331	1.	0.1	1960.5
22679	15.054	0.90909	0.1	2030.5
22680	15.147	1.	0.1	2006.7
22681	14.87	0.90909	0.1	2077.1
22682	14.962	1.	0.1	2053.2
22683	14.686	0.90909	0.1	2123.8
22684	14.778	1.	0.1	2099.9
22685	14.501	0.90909	0.1	2170.8
22686	14.593	1.	0.1	2146.8
22687	14.317	0.90909	0.1	2218.
22688	14.409	1.	0.1	2193.9
22689	14.132	0.90909	0.1	2265.4
22690	14.224	1.	0.1	2241.1
22691	13.948	0.90909	0.1	2313.
22692	14.04	1.	0.1	2288.6
22693	13.763	0.90909	0.1	2360.8
22694	13.856	1.	0.1	2336.3
22695	13.579	0.90909	0.1	2408.8
22696	13.671	1.	0.1	2384.2
22697	13.394	0.90909	0.1	2456.9
22698	13.487	1.	0.1	2432.3
22699	13.21	0.90909	0.1	2505.3
22700	13.302	1.	0.1	2480.6
22701	13.026	0.90909	0.1	2553.9
22702	13.118	1.	0.1	2529.1
22703	12.841	0.90909	0.1	2602.7
22704	12.933	1.	0.1	2577.7
22705	12.657	0.90909	0.1	2651.7
22706	12.749	1.	0.1	2626.6
22707	12.472	0.90909	0.1	2700.9
22708	12.564	1.	0.1	2675.7
22709	12.288	0.90909	0.1	2750.3
22710	12.38	1.	0.1	2725.
22711	12.103	0.90909	0.1	2799.9
22712	12.196	1.	0.1	2774.5
22713	11.919	0.90909	0.1	2849.7
22714	12.011	1.	0.1	2824.2
22715	11.734	0.90909	0.1	2899.8
22716	11.827	1.	0.1	2874.1
22717	11.55	0.90909	0.1	2950.
22718	11.642	1.	0.1	2924.2
22719	11.366	0.90909	0.1	3000.4
22720	11.458	1.	0.1	2974.5
22721	11.181	0.90909	0.1	3051.
22722	11.273	1.	0.1	3025.
22723	10.997	0.90909	0.1	3101.9
22724	11.089	1.	0.1	3075.7
22725	10.812	0.90909	0.1	3152.9
22726	10.904	1.	0.1	3126.7
22727	10.628	0.90909	0.1	3204.2
22728	10.72	1.	0.1	3177.8
22729	10.443	0.90909	0.1	3255.6
22730	10.536	1.	0.1	3229.1
22731	10.259	0.90909	0.1	3307.3
22732	10.351	1.	0.1	3280.6
22733	10.074	0.90909	0.1	3359.1
22734	10.167	1.	0.1	3332.4
22735	9.89	0.90909	0.1	3411.2
22736	9.9822	1.	0.1	3384.3
22737	9.7056	0.90909	0.1	3463.5
22738	9.7978	1.	0.1	3436.5
22739	9.5211	0.90909	0.1	3516.
22740	9.6133	1.	0.1	3488.8
22741	9.3367	0.90909	0.1	3568.7
22742	9.4289	1.	0.1	3541.4
22743	9.1522	0.90909	0.1	3621.6
22744	9.2444	1.	0.1	3594.1
22745	8.9678	0.90909	0.1	3674.7
22746	9.06	1.	0.1	3647.1
22747	8.7833	0.90909	0.1	3728.1
22748	8.8756	1.	0.1	3700.3
22749	8.5989	0.90909	0.1	3781.6
22750	8.6911	1.	0.1	3753.7
22751	8.4144	0.90909	0.1	3835.3
22752	8.5067	1.	0.1	3807.3
22753	8.23	0.90909	0.1	3889.3
22754	8.3222	1.	0.1	3861.
22755	8.0456	0.90909	0.1	3943.4
22756	8.1378	1.	0.1	3915.
22757	7.8611	0.90909	0.1	3997.6
22758	7.9533	1.	0.1	3969.2
22759	7.6767	0.90909	0.1	4052.
22760	7.7689	1.	0.1	4023.5
22761	7.4922	0.90909	0.1	4106.6
22762	7.5844	1.	0.1	4078.
22763	7.3078	0.90909	0.1	4161.3
22764	7.4	1.	0.1	4132.6
22765	7.1233	0.90909	0.1	4216.
22766	7.2156	1.	0.1	4187.3
22767	6.9389	0.90909	0.1	4270.7
22768	7.0311	1.	0.1	4242.1
22769	6.7544	0.90909	0.1	4325.3
22770	6.8467	1.	0.1	4296.8
22771	6.57	0.90909	0.1	4379.8
22772	6.6622	1.	0.1	4351.6
22773	6.3856	0.90909	0.1	4433.9
22774	6.4778	1.	0.1	4406.1
22775	6.2011	0.90909	0.1	4487.6
22776	6.2933	1.	0.1	4460.4
22777	6.0167	0.90909	0.1	4540.5
22778	6.1089	1.	0.1	4514.3
22779	5.8322	0.90909	0.1	4592.5
22780	5.9244	1.	0.1	4567.5
22781	5.6478	0.90909	0.1	4643.1
22782	5.74	1.	0.1	4619.7
22783	5.4633	0.90909	0.1	4691.9
22784	5.5556	1.	0.1	4670.7
22785	5.2789	0.90909	0.1	4738.1
22786	5.3711	1.	0.1	4719.9
22787	5.0944	0.90909	0.1	4781.1
22788	5.1867	1.	0.1	4766.7
22789	4.91	0.90909	0.1	4819.7
22790	5.0022	1.	0.1	4810.3
22791	4.7256	0.90909	0.1	4852.6
22792	4.8178	1.	0.1	4849.8
22793	4.5411	0.90909	0.1	4878.2
22794	4.6333	1.	0.1	4883.8
22795	4.3567	0.90909	0.1	4894.3
22796	4.4489	1.	0.1	4910.7
22797	4.1722	0.90909	0.1	4898.3
22798	4.2644	1.	0.1	4928.5
22799	3.9878	0.90909	0.1	4886.9
22800	4.08	1.	0.1	4934.6
22801	3.8033	0.90909	0.1	4855.9
22802	3.8956	1.	0.1	4925.8
22803	3.6189	0.90909	0.1	4800.6
22804	3.7111	1.	0.1	4898.1
22805	3.4344	0.90909	0.1	4714.9
22806	3.5267	1.	0.1	4847.
22807	3.25	0.90909	0.1	4592.3
22808	3.3422	1.	0.1	4767.
22809	3.0656	0.90909	0.1	4425.6
22810	3.1578	1.	0.1	4651.7
22811	2.8811	0.90909	0.1	4208.2
22812	2.9733	1.	0.1	4494.9
22813	2.6967	0.90909	0.1	3937.2
22814	2.7889	1.	0.1	4291.1
22815	2.5122	0.90909	0.1	3618.2
22816	2.6044	1.	0.1	4038.7
22817	2.3278	0.90909	0.1	3274.3
22818	2.42	1.	0.1	3745.
22819	2.1433	0.90909	0.1	3001.7
22820	2.2356	1.	0.1	3434.5
22821	2.0511	1.	0.1	3267.6
22822	1.9589	0.90909	0.1	2373.1
22823	23.723	1.0909	0.1	58.569
22824	23.816	1.1818	0.1	39.922
22825	23.908	1.0909	0.1	22.55
22826	23.539	1.0909	0.1	96.098
22827	23.631	1.1818	0.1	77.522
22828	23.354	1.0909	0.1	133.74
22829	23.447	1.1818	0.1	115.27
22830	23.17	1.0909	0.1	171.5
22831	23.262	1.1818	0.1	153.04
22832	22.986	1.0909	0.1	209.48
22833	23.078	1.1818	0.1	190.96
22834	22.801	1.0909	0.1	247.71
22835	22.893	1.1818	0.1	229.07
22836	22.617	1.0909	0.1	286.19
22837	22.709	1.1818	0.1	267.41
22838	22.432	1.0909	0.1	324.92
22839	22.524	1.1818	0.1	305.98
22840	22.248	1.0909	0.1	363.88
22841	22.34	1.1818	0.1	344.77
22842	22.063	1.0909	0.1	403.05
22843	22.156	1.1818	0.1	383.78
22844	21.879	1.0909	0.1	442.43
22845	21.971	1.1818	0.1	422.99
22846	21.694	1.0909	0.1	482.
22847	21.787	1.1818	0.1	462.4
22848	21.51	1.0909	0.1	521.75
22849	21.602	1.1818	0.1	502.
22850	21.326	1.0909	0.1	561.69
22851	21.418	1.1818	0.1	541.79
22852	21.141	1.0909	0.1	601.8
22853	21.233	1.1818	0.1	581.76
22854	20.957	1.0909	0.1	642.09
22855	21.049	1.1818	0.1	621.91
22856	20.772	1.0909	0.1	682.55
22857	20.864	1.1818	0.1	662.24
22858	20.588	1.0909	0.1	723.19
22859	20.68	1.1818	0.1	702.75
22860	20.403	1.0909	0.1	764.01
22861	20.496	1.1818	0.1	743.43
22862	20.219	1.0909	0.1	805.
22863	20.311	1.1818	0.1	784.3
22864	20.034	1.0909	0.1	846.17
22865	20.127	1.1818	0.1	825.34
22866	19.85	1.0909	0.1	887.52
22867	19.942	1.1818	0.1	866.57
22868	19.666	1.0909	0.1	929.05
22869	19.758	1.1818	0.1	907.98
22870	19.481	1.0909	0.1	970.76
22871	19.573	1.1818	0.1	949.58
22872	19.297	1.0909	0.1	1012.7
22873	19.389	1.1818	0.1	991.36
22874	19.112	1.0909	0.1	1054.7
22875	19.204	1.1818	0.1	1033.3
22876	18.928	1.0909	0.1	1097.
22877	19.02	1.1818	0.1	1075.5
22878	18.743	1.0909	0.1	1139.5
22879	18.836	1.1818	0.1	1117.8
22880	18.559	1.0909	0.1	1182.1
22881	18.651	1.1818	0.1	1160.4
22882	18.374	1.0909	0.1	1225.
22883	18.467	1.1818	0.1	1203.1
22884	18.19	1.0909	0.1	1268.
22885	18.282	1.1818	0.1	1246.
22886	18.006	1.0909	0.1	1311.2
22887	18.098	1.1818	0.1	1289.2
22888	17.821	1.0909	0.1	1354.6
22889	17.913	1.1818	0.1	1332.5
22890	17.637	1.0909	0.1	1398.2
22891	17.729	1.1818	0.1	1376.
22892	17.452	1.0909	0.1	1442.1
22893	17.544	1.1818	0.1	1419.7
22894	17.268	1.0909	0.1	1486.1
22895	17.36	1.1818	0.1	1463.6
22896	17.083	1.0909	0.1	1530.3
22897	17.176	1.1818	0.1	1507.7
22898	16.899	1.0909	0.1	1574.6
22899	16.991	1.1818	0.1	1552.
22900	16.714	1.0909	0.1	1619.2
22901	16.807	1.1818	0.1	1596.5
22902	16.53	1.0909	0.1	1664.
22903	16.622	1.1818	0.1	1641.1
22904	16.346	1.0909	0.1	1709.
22905	16.438	1.1818	0.1	1686.
22906	16.161	1.0909	0.1	1754.2
22907	16.253	1.1818	0.1	1731.1
22908	15.977	1.0909	0.1	1799.6
22909	16.069	1.1818	0.1	1776.4
22910	15.792	1.0909	0.1	1845.2
22911	15.884	1.1818	0.1	1821.9
22912	15.608	1.0909	0.1	1891.
22913	15.7	1.1818	0.1	1867.6
22914	15.423	1.0909	0.1	1936.9
22915	15.516	1.1818	0.1	1913.4
22916	15.239	1.0909	0.1	1983.1
22917	15.331	1.1818	0.1	1959.5
22918	15.054	1.0909	0.1	2029.5
22919	15.147	1.1818	0.1	2005.8
22920	14.87	1.0909	0.1	2076.1
22921	14.962	1.1818	0.1	2052.3
22922	14.686	1.0909	0.1	2122.9
22923	14.778	1.1818	0.1	2099.
22924	14.501	1.0909	0.1	2169.8
22925	14.593	1.1818	0.1	2145.8
22926	14.317	1.0909	0.1	2217.
22927	14.409	1.1818	0.1	2192.9
22928	14.132	1.0909	0.1	2264.4
22929	14.224	1.1818	0.1	2240.2
22930	13.948	1.0909	0.1	2312.
22931	14.04	1.1818	0.1	2287.7
22932	13.763	1.0909	0.1	2359.8
22933	13.856	1.1818	0.1	2335.4
22934	13.579	1.0909	0.1	2407.7
22935	13.671	1.1818	0.1	2383.2
22936	13.394	1.0909	0.1	2455.9
22937	13.487	1.1818	0.1	2431.3
22938	13.21	1.0909	0.1	2504.3
22939	13.302	1.1818	0.1	2479.6
22940	13.026	1.0909	0.1	2552.9
22941	13.118	1.1818	0.1	2528.1
22942	12.841	1.0909	0.1	2601.7
22943	12.933	1.1818	0.1	2576.7
22944	12.657	1.0909	0.1	2650.7
22945	12.749	1.1818	0.1	2625.6
22946	12.472	1.0909	0.1	2699.8
22947	12.564	1.1818	0.1	2674.7
22948	12.288	1.0909	0.1	2749.2
22949	12.38	1.1818	0.1	2724.
22950	12.103	1.0909	0.1	2798.8
22951	12.196	1.1818	0.1	2773.4
22952	11.919	1.0909	0.1	2848.6
22953	12.011	1.1818	0.1	2823.1
22954	11.734	1.0909	0.1	2898.6
22955	11.827	1.1818	0.1	2873.
22956	11.55	1.0909	0.1	2948.8
22957	11.642	1.1818	0.1	2923.1
22958	11.366	1.0909	0.1	2999.2
22959	11.458	1.1818	0.1	2973.3
22960	11.181	1.0909	0.1	3049.8
22961	11.273	1.1818	0.1	3023.8
22962	10.997	1.0909	0.1	3100.5
22963	11.089	1.1818	0.1	3074.5
22964	10.812	1.0909	0.1	3151.5
22965	10.904	1.1818	0.1	3125.4
22966	10.628	1.0909	0.1	3202.7
22967	10.72	1.1818	0.1	3176.4
22968	10.443	1.0909	0.1	3254.1
22969	10.536	1.1818	0.1	3227.7
22970	10.259	1.0909	0.1	3305.7
22971	10.351	1.1818	0.1	3279.2
22972	10.074	1.0909	0.1	3357.6
22973	10.167	1.1818	0.1	3330.9
22974	9.89	1.0909	0.1	3409.6
22975	9.9822	1.1818	0.1	3382.7
22976	9.7056	1.0909	0.1	3461.8
22977	9.7978	1.1818	0.1	3434.8
22978	9.5211	1.0909	0.1	3514.2
22979	9.6133	1.1818	0.1	3487.1
22980	9.3367	1.0909	0.1	3566.8
22981	9.4289	1.1818	0.1	3539.6
22982	9.1522	1.0909	0.1	3619.7
22983	9.2444	1.1818	0.1	3592.3
22984	8.9678	1.0909	0.1	3672.7
22985	9.06	1.1818	0.1	3645.2
22986	8.7833	1.0909	0.1	3725.9
22987	8.8756	1.1818	0.1	3698.2
22988	8.5989	1.0909	0.1	3779.3
22989	8.6911	1.1818	0.1	3751.5
22990	8.4144	1.0909	0.1	3833.
22991	8.5067	1.1818	0.1	3805.
22992	8.23	1.0909	0.1	3886.8
22993	8.3222	1.1818	0.1	3858.7
22994	8.0456	1.0909	0.1	3940.8
22995	8.1378	1.1818	0.1	3912.6
22996	7.8611	1.0909	0.1	3995.
22997	7.9533	1.1818	0.1	3966.7
22998	7.6767	1.0909	0.1	4049.4
22999	7.7689	1.1818	0.1	4020.9
23000	7.4922	1.0909	0.1	4103.9
23001	7.5844	1.1818	0.1	4075.4
23002	7.3078	1.0909	0.1	4158.6
23003	7.4	1.1818	0.1	4130.
23004	7.1233	1.0909	0.1	4213.4
23005	7.2156	1.1818	0.1	4184.7
23006	6.9389	1.0909	0.1	4268.2
23007	7.0311	1.1818	0.1	4239.6
23008	6.7544	1.0909	0.1	4323.1
23009	6.8467	1.1818	0.1	4294.6
23010	6.57	1.0909	0.1	4378.
23011	6.6622	1.1818	0.1	4349.6
23012	6.3856	1.0909	0.1	4432.7
23013	6.4778	1.1818	0.1	4404.6
23014	6.2011	1.0909	0.1	4487.1
23015	6.2933	1.1818	0.1	4459.6
23016	6.0167	1.0909	0.1	4541.2
23017	6.1089	1.1818	0.1	4514.4
23018	5.8322	1.0909	0.1	4594.7
23019	5.9244	1.1818	0.1	4568.9
23020	5.6478	1.0909	0.1	4647.3
23021	5.74	1.1818	0.1	4622.9
23022	5.4633	1.0909	0.1	4698.7
23023	5.5556	1.1818	0.1	4676.2
23024	5.2789	1.0909	0.1	4748.5
23025	5.3711	1.1818	0.1	4728.5
23026	5.0944	1.0909	0.1	4796.
23027	5.1867	1.1818	0.1	4779.3
23028	4.91	1.0909	0.1	4840.5
23029	5.0022	1.1818	0.1	4828.3
23030	4.7256	1.0909	0.1	4881.
23031	4.8178	1.1818	0.1	4874.6
23032	4.5411	1.0909	0.1	4916.4
23033	4.6333	1.1818	0.1	4917.4
23034	4.3567	1.0909	0.1	4944.9
23035	4.4489	1.1818	0.1	4955.7
23036	4.1722	1.0909	0.1	4964.7
23037	4.2644	1.1818	0.1	4987.9
23038	3.9878	1.0909	0.1	4973.2
23039	4.08	1.1818	0.1	5012.4
23040	3.8033	1.0909	0.1	4967.4
23041	3.8956	1.1818	0.1	5027.
23042	3.6189	1.0909	0.1	4943.6
23043	3.7111	1.1818	0.1	5029.
23044	3.4344	1.0909	0.1	4897.2
23045	3.5267	1.1818	0.1	5015.1
23046	3.25	1.0909	0.1	4823.1
23047	3.3422	1.1818	0.1	4981.8
23048	3.0656	1.0909	0.1	4715.3
23049	3.1578	1.1818	0.1	4924.7
23050	2.8811	1.0909	0.1	4567.9
23051	2.9733	1.1818	0.1	4839.2
23052	2.6967	1.0909	0.1	4375.7
23053	2.7889	1.1818	0.1	4720.5
23054	2.5122	1.0909	0.1	4137.7
23055	2.6044	1.1818	0.1	4564.1
23056	2.3278	1.0909	0.1	3862.5
23057	2.42	1.1818	0.1	4366.3
23058	2.1433	1.0909	0.1	3640.7
23059	2.2356	1.1818	0.1	4129.8
23060	2.0511	1.1818	0.1	4014.1
23061	1.9589	1.0909	0.1	2899.5
23062	23.723	1.2727	0.1	58.821
23063	23.816	1.3636	0.1	39.959
23064	23.908	1.2727	0.1	22.567
23065	23.539	1.2727	0.1	96.703
23066	23.631	1.3636	0.1	77.91
23067	23.354	1.2727	0.1	134.6
23068	23.447	1.3636	0.1	115.95
23069	23.17	1.2727	0.1	172.54
23070	23.262	1.3636	0.1	153.94
23071	22.986	1.2727	0.1	210.59
23072	23.078	1.3636	0.1	191.98
23073	22.801	1.2727	0.1	248.82
23074	22.893	1.3636	0.1	230.14
23075	22.617	1.2727	0.1	287.24
23076	22.709	1.3636	0.1	268.46
23077	22.432	1.2727	0.1	325.88
23078	22.524	1.3636	0.1	306.97
23079	22.248	1.2727	0.1	364.72
23080	22.34	1.3636	0.1	345.67
23081	22.063	1.2727	0.1	403.77
23082	22.156	1.3636	0.1	384.58
23083	21.879	1.2727	0.1	443.02
23084	21.971	1.3636	0.1	423.68
23085	21.694	1.2727	0.1	482.46
23086	21.787	1.3636	0.1	462.97
23087	21.51	1.2727	0.1	522.1
23088	21.602	1.3636	0.1	502.45
23089	21.326	1.2727	0.1	561.92
23090	21.418	1.3636	0.1	542.13
23091	21.141	1.2727	0.1	601.92
23092	21.233	1.3636	0.1	581.99
23093	20.957	1.2727	0.1	642.11
23094	21.049	1.3636	0.1	622.04
23095	20.772	1.2727	0.1	682.48
23096	20.864	1.3636	0.1	662.27
23097	20.588	1.2727	0.1	723.03
23098	20.68	1.3636	0.1	702.69
23099	20.403	1.2727	0.1	763.77
23100	20.496	1.3636	0.1	743.29
23101	20.219	1.2727	0.1	804.69
23102	20.311	1.3636	0.1	784.08
23103	20.034	1.2727	0.1	845.79
23104	20.127	1.3636	0.1	825.06
23105	19.85	1.2727	0.1	887.08
23106	19.942	1.3636	0.1	866.22
23107	19.666	1.2727	0.1	928.56
23108	19.758	1.3636	0.1	907.58
23109	19.481	1.2727	0.1	970.22
23110	19.573	1.3636	0.1	949.12
23111	19.297	1.2727	0.1	1012.1
23112	19.389	1.3636	0.1	990.86
23113	19.112	1.2727	0.1	1054.1
23114	19.204	1.3636	0.1	1032.8
23115	18.928	1.2727	0.1	1096.4
23116	19.02	1.3636	0.1	1074.9
23117	18.743	1.2727	0.1	1138.8
23118	18.836	1.3636	0.1	1117.2
23119	18.559	1.2727	0.1	1181.4
23120	18.651	1.3636	0.1	1159.7
23121	18.374	1.2727	0.1	1224.2
23122	18.467	1.3636	0.1	1202.4
23123	18.19	1.2727	0.1	1267.2
23124	18.282	1.3636	0.1	1245.3
23125	18.006	1.2727	0.1	1310.4
23126	18.098	1.3636	0.1	1288.4
23127	17.821	1.2727	0.1	1353.8
23128	17.913	1.3636	0.1	1331.7
23129	17.637	1.2727	0.1	1397.4
23130	17.729	1.3636	0.1	1375.2
23131	17.452	1.2727	0.1	1441.2
23132	17.544	1.3636	0.1	1418.9
23133	17.268	1.2727	0.1	1485.2
23134	17.36	1.3636	0.1	1462.8
23135	17.083	1.2727	0.1	1529.4
23136	17.176	1.3636	0.1	1506.9
23137	16.899	1.2727	0.1	1573.8
23138	16.991	1.3636	0.1	1551.2
23139	16.714	1.2727	0.1	1618.4
23140	16.807	1.3636	0.1	1595.7
23141	16.53	1.2727	0.1	1663.2
23142	16.622	1.3636	0.1	1640.3
23143	16.346	1.2727	0.1	1708.2
23144	16.438	1.3636	0.1	1685.2
23145	16.161	1.2727	0.1	1753.3
23146	16.253	1.3636	0.1	1730.3
23147	15.977	1.2727	0.1	1798.7
23148	16.069	1.3636	0.1	1775.6
23149	15.792	1.2727	0.1	1844.3
23150	15.884	1.3636	0.1	1821.1
23151	15.608	1.2727	0.1	1890.1
23152	15.7	1.3636	0.1	1866.7
23153	15.423	1.2727	0.1	1936.1
23154	15.516	1.3636	0.1	1912.6
23155	15.239	1.2727	0.1	1982.2
23156	15.331	1.3636	0.1	1958.7
23157	15.054	1.2727	0.1	2028.6
23158	15.147	1.3636	0.1	2005.
23159	14.87	1.2727	0.1	2075.2
23160	14.962	1.3636	0.1	2051.5
23161	14.686	1.2727	0.1	2122.
23162	14.778	1.3636	0.1	2098.1
23163	14.501	1.2727	0.1	2169.
23164	14.593	1.3636	0.1	2145.
23165	14.317	1.2727	0.1	2216.1
23166	14.409	1.3636	0.1	2192.1
23167	14.132	1.2727	0.1	2263.5
23168	14.224	1.3636	0.1	2239.4
23169	13.948	1.2727	0.1	2311.1
23170	14.04	1.3636	0.1	2286.8
23171	13.763	1.2727	0.1	2358.9
23172	13.856	1.3636	0.1	2334.5
23173	13.579	1.2727	0.1	2406.8
23174	13.671	1.3636	0.1	2382.4
23175	13.394	1.2727	0.1	2455.
23176	13.487	1.3636	0.1	2430.4
23177	13.21	1.2727	0.1	2503.4
23178	13.302	1.3636	0.1	2478.7
23179	13.026	1.2727	0.1	2551.9
23180	13.118	1.3636	0.1	2527.2
23181	12.841	1.2727	0.1	2600.7
23182	12.933	1.3636	0.1	2575.8
23183	12.657	1.2727	0.1	2649.7
23184	12.749	1.3636	0.1	2624.7
23185	12.472	1.2727	0.1	2698.8
23186	12.564	1.3636	0.1	2673.8
23187	12.288	1.2727	0.1	2748.2
23188	12.38	1.3636	0.1	2723.
23189	12.103	1.2727	0.1	2797.8
23190	12.196	1.3636	0.1	2772.5
23191	11.919	1.2727	0.1	2847.5
23192	12.011	1.3636	0.1	2822.1
23193	11.734	1.2727	0.1	2897.5
23194	11.827	1.3636	0.1	2872.
23195	11.55	1.2727	0.1	2947.7
23196	11.642	1.3636	0.1	2922.
23197	11.366	1.2727	0.1	2998.
23198	11.458	1.3636	0.1	2972.3
23199	11.181	1.2727	0.1	3048.6
23200	11.273	1.3636	0.1	3022.7
23201	10.997	1.2727	0.1	3099.3
23202	11.089	1.3636	0.1	3073.3
23203	10.812	1.2727	0.1	3150.3
23204	10.904	1.3636	0.1	3124.2
23205	10.628	1.2727	0.1	3201.4
23206	10.72	1.3636	0.1	3175.2
23207	10.443	1.2727	0.1	3252.8
23208	10.536	1.3636	0.1	3226.4
23209	10.259	1.2727	0.1	3304.3
23210	10.351	1.3636	0.1	3277.9
23211	10.074	1.2727	0.1	3356.1
23212	10.167	1.3636	0.1	3329.5
23213	9.89	1.2727	0.1	3408.
23214	9.9822	1.3636	0.1	3381.3
23215	9.7056	1.2727	0.1	3460.2
23216	9.7978	1.3636	0.1	3433.3
23217	9.5211	1.2727	0.1	3512.5
23218	9.6133	1.3636	0.1	3485.5
23219	9.3367	1.2727	0.1	3565.1
23220	9.4289	1.3636	0.1	3537.9
23221	9.1522	1.2727	0.1	3617.8
23222	9.2444	1.3636	0.1	3590.5
23223	8.9678	1.2727	0.1	3670.7
23224	9.06	1.3636	0.1	3643.3
23225	8.7833	1.2727	0.1	3723.9
23226	8.8756	1.3636	0.1	3696.3
23227	8.5989	1.2727	0.1	3777.2
23228	8.6911	1.3636	0.1	3749.5
23229	8.4144	1.2727	0.1	3830.8
23230	8.5067	1.3636	0.1	3802.9
23231	8.23	1.2727	0.1	3884.5
23232	8.3222	1.3636	0.1	3856.5
23233	8.0456	1.2727	0.1	3938.4
23234	8.1378	1.3636	0.1	3910.3
23235	7.8611	1.2727	0.1	3992.6
23236	7.9533	1.3636	0.1	3964.3
23237	7.6767	1.2727	0.1	4046.9
23238	7.7689	1.3636	0.1	4018.5
23239	7.4922	1.2727	0.1	4101.4
23240	7.5844	1.3636	0.1	4072.9
23241	7.3078	1.2727	0.1	4156.1
23242	7.4	1.3636	0.1	4127.5
23243	7.1233	1.2727	0.1	4210.9
23244	7.2156	1.3636	0.1	4182.3
23245	6.9389	1.2727	0.1	4265.9
23246	7.0311	1.3636	0.1	4237.3
23247	6.7544	1.2727	0.1	4321.1
23248	6.8467	1.3636	0.1	4292.4
23249	6.57	1.2727	0.1	4376.3
23250	6.6622	1.3636	0.1	4347.8
23251	6.3856	1.2727	0.1	4431.6
23252	6.4778	1.3636	0.1	4403.3
23253	6.2011	1.2727	0.1	4486.9
23254	6.2933	1.3636	0.1	4458.9
23255	6.0167	1.2727	0.1	4542.1
23256	6.1089	1.3636	0.1	4514.6
23257	5.8322	1.2727	0.1	4597.1
23258	5.9244	1.3636	0.1	4570.4
23259	5.6478	1.2727	0.1	4651.8
23260	5.74	1.3636	0.1	4626.2
23261	5.4633	1.2727	0.1	4706.
23262	5.5556	1.3636	0.1	4681.9
23263	5.2789	1.2727	0.1	4759.4
23264	5.3711	1.3636	0.1	4737.3
23265	5.0944	1.2727	0.1	4811.7
23266	5.1867	1.3636	0.1	4792.4
23267	4.91	1.2727	0.1	4862.4
23268	5.0022	1.3636	0.1	4846.8
23269	4.7256	1.2727	0.1	4911.
23270	4.8178	1.3636	0.1	4900.2
23271	4.5411	1.2727	0.1	4956.7
23272	4.6333	1.3636	0.1	4952.3
23273	4.3567	1.2727	0.1	4998.7
23274	4.4489	1.3636	0.1	5002.5
23275	4.1722	1.2727	0.1	5035.6
23276	4.2644	1.3636	0.1	5050.1
23277	3.9878	1.2727	0.1	5066.
23278	4.08	1.3636	0.1	5094.3
23279	3.8033	1.2727	0.1	5088.
23280	3.8956	1.3636	0.1	5134.
23281	3.6189	1.2727	0.1	5099.5
23282	3.7111	1.3636	0.1	5168.2
23283	3.4344	1.2727	0.1	5097.8
23284	3.5267	1.3636	0.1	5195.3
23285	3.25	1.2727	0.1	5080.
23286	3.3422	1.3636	0.1	5214.1
23287	3.0656	1.2727	0.1	5042.5
23288	3.1578	1.3636	0.1	5223.3
23289	2.8811	1.2727	0.1	4981.3
23290	2.9733	1.3636	0.1	5221.4
23291	2.6967	1.2727	0.1	4890.8
23292	2.7889	1.3636	0.1	5207.1
23293	2.5122	1.2727	0.1	4762.6
23294	2.6044	1.3636	0.1	5176.4
23295	2.3278	1.2727	0.1	4586.1
23296	2.42	1.3636	0.1	5120.3
23297	2.1433	1.2727	0.1	4432.6
23298	2.2356	1.3636	0.1	5008.4
23299	2.0511	1.3636	0.1	4990.8
23300	1.9589	1.2727	0.1	3547.8
23301	23.723	1.4545	0.1	58.988
23302	23.816	1.5455	0.1	39.96
23303	23.908	1.4545	0.1	22.559
23304	23.539	1.4545	0.1	97.159
23305	23.631	1.5455	0.1	78.19
23306	23.354	1.4545	0.1	135.3
23307	23.447	1.5455	0.1	116.47
23308	23.17	1.4545	0.1	173.4
23309	23.262	1.5455	0.1	154.66
23310	22.986	1.4545	0.1	211.55
23311	23.078	1.5455	0.1	192.83
23312	22.801	1.4545	0.1	249.82
23313	22.893	1.5455	0.1	231.07
23314	22.617	1.4545	0.1	288.23
23315	22.709	1.5455	0.1	269.41
23316	22.432	1.4545	0.1	326.81
23317	22.524	1.5455	0.1	307.9
23318	22.248	1.4545	0.1	365.58
23319	22.34	1.5455	0.1	346.55
23320	22.063	1.4545	0.1	404.53
23321	22.156	1.5455	0.1	385.38
23322	21.879	1.4545	0.1	443.67
23323	21.971	1.5455	0.1	424.39
23324	21.694	1.4545	0.1	483.01
23325	21.787	1.5455	0.1	463.58
23326	21.51	1.4545	0.1	522.53
23327	21.602	1.5455	0.1	502.96
23328	21.326	1.4545	0.1	562.25
23329	21.418	1.5455	0.1	542.54
23330	21.141	1.4545	0.1	602.15
23331	21.233	1.5455	0.1	582.3
23332	20.957	1.4545	0.1	642.24
23333	21.049	1.5455	0.1	622.25
23334	20.772	1.4545	0.1	682.52
23335	20.864	1.5455	0.1	662.39
23336	20.588	1.4545	0.1	722.99
23337	20.68	1.5455	0.1	702.72
23338	20.403	1.4545	0.1	763.65
23339	20.496	1.5455	0.1	743.25
23340	20.219	1.4545	0.1	804.49
23341	20.311	1.5455	0.1	783.97
23342	20.034	1.4545	0.1	845.53
23343	20.127	1.5455	0.1	824.88
23344	19.85	1.4545	0.1	886.76
23345	19.942	1.5455	0.1	865.98
23346	19.666	1.4545	0.1	928.19
23347	19.758	1.5455	0.1	907.28
23348	19.481	1.4545	0.1	969.8
23349	19.573	1.5455	0.1	948.77
23350	19.297	1.4545	0.1	1011.6
23351	19.389	1.5455	0.1	990.46
23352	19.112	1.4545	0.1	1053.6
23353	19.204	1.5455	0.1	1032.4
23354	18.928	1.4545	0.1	1095.8
23355	19.02	1.5455	0.1	1074.4
23356	18.743	1.4545	0.1	1138.2
23357	18.836	1.5455	0.1	1116.7
23358	18.559	1.4545	0.1	1180.8
23359	18.651	1.5455	0.1	1159.2
23360	18.374	1.4545	0.1	1223.6
23361	18.467	1.5455	0.1	1201.9
23362	18.19	1.4545	0.1	1266.6
23363	18.282	1.5455	0.1	1244.8
23364	18.006	1.4545	0.1	1309.8
23365	18.098	1.5455	0.1	1287.8
23366	17.821	1.4545	0.1	1353.2
23367	17.913	1.5455	0.1	1331.1
23368	17.637	1.4545	0.1	1396.7
23369	17.729	1.5455	0.1	1374.6
23370	17.452	1.4545	0.1	1440.5
23371	17.544	1.5455	0.1	1418.3
23372	17.268	1.4545	0.1	1484.5
23373	17.36	1.5455	0.1	1462.1
23374	17.083	1.4545	0.1	1528.7
23375	17.176	1.5455	0.1	1506.2
23376	16.899	1.4545	0.1	1573.1
23377	16.991	1.5455	0.1	1550.5
23378	16.714	1.4545	0.1	1617.6
23379	16.807	1.5455	0.1	1595.
23380	16.53	1.4545	0.1	1662.4
23381	16.622	1.5455	0.1	1639.6
23382	16.346	1.4545	0.1	1707.4
23383	16.438	1.5455	0.1	1684.5
23384	16.161	1.4545	0.1	1752.6
23385	16.253	1.5455	0.1	1729.6
23386	15.977	1.4545	0.1	1798.
23387	16.069	1.5455	0.1	1774.9
23388	15.792	1.4545	0.1	1843.5
23389	15.884	1.5455	0.1	1820.3
23390	15.608	1.4545	0.1	1889.3
23391	15.7	1.5455	0.1	1866.
23392	15.423	1.4545	0.1	1935.3
23393	15.516	1.5455	0.1	1911.9
23394	15.239	1.4545	0.1	1981.5
23395	15.331	1.5455	0.1	1958.
23396	15.054	1.4545	0.1	2027.8
23397	15.147	1.5455	0.1	2004.2
23398	14.87	1.4545	0.1	2074.4
23399	14.962	1.5455	0.1	2050.7
23400	14.686	1.4545	0.1	2121.2
23401	14.778	1.5455	0.1	2097.4
23402	14.501	1.4545	0.1	2168.2
23403	14.593	1.5455	0.1	2144.3
23404	14.317	1.4545	0.1	2215.3
23405	14.409	1.5455	0.1	2191.3
23406	14.132	1.4545	0.1	2262.7
23407	14.224	1.5455	0.1	2238.6
23408	13.948	1.4545	0.1	2310.3
23409	14.04	1.5455	0.1	2286.1
23410	13.763	1.4545	0.1	2358.
23411	13.856	1.5455	0.1	2333.7
23412	13.579	1.4545	0.1	2406.
23413	13.671	1.5455	0.1	2381.6
23414	13.394	1.4545	0.1	2454.2
23415	13.487	1.5455	0.1	2429.7
23416	13.21	1.4545	0.1	2502.5
23417	13.302	1.5455	0.1	2477.9
23418	13.026	1.4545	0.1	2551.1
23419	13.118	1.5455	0.1	2526.4
23420	12.841	1.4545	0.1	2599.8
23421	12.933	1.5455	0.1	2575.
23422	12.657	1.4545	0.1	2648.8
23423	12.749	1.5455	0.1	2623.9
23424	12.472	1.4545	0.1	2697.9
23425	12.564	1.5455	0.1	2672.9
23426	12.288	1.4545	0.1	2747.3
23427	12.38	1.5455	0.1	2722.2
23428	12.103	1.4545	0.1	2796.8
23429	12.196	1.5455	0.1	2771.6
23430	11.919	1.4545	0.1	2846.6
23431	12.011	1.5455	0.1	2821.2
23432	11.734	1.4545	0.1	2896.5
23433	11.827	1.5455	0.1	2871.
23434	11.55	1.4545	0.1	2946.6
23435	11.642	1.5455	0.1	2921.1
23436	11.366	1.4545	0.1	2997.
23437	11.458	1.5455	0.1	2971.3
23438	11.181	1.4545	0.1	3047.5
23439	11.273	1.5455	0.1	3021.7
23440	10.997	1.4545	0.1	3098.2
23441	11.089	1.5455	0.1	3072.3
23442	10.812	1.4545	0.1	3149.1
23443	10.904	1.5455	0.1	3123.1
23444	10.628	1.4545	0.1	3200.2
23445	10.72	1.5455	0.1	3174.1
23446	10.443	1.4545	0.1	3251.5
23447	10.536	1.5455	0.1	3225.3
23448	10.259	1.4545	0.1	3303.
23449	10.351	1.5455	0.1	3276.7
23450	10.074	1.4545	0.1	3354.7
23451	10.167	1.5455	0.1	3328.2
23452	9.89	1.4545	0.1	3406.6
23453	9.9822	1.5455	0.1	3380.
23454	9.7056	1.4545	0.1	3458.7
23455	9.7978	1.5455	0.1	3431.9
23456	9.5211	1.4545	0.1	3511.
23457	9.6133	1.5455	0.1	3484.1
23458	9.3367	1.4545	0.1	3563.4
23459	9.4289	1.5455	0.1	3536.4
23460	9.1522	1.4545	0.1	3616.1
23461	9.2444	1.5455	0.1	3588.9
23462	8.9678	1.4545	0.1	3668.9
23463	9.06	1.5455	0.1	3641.7
23464	8.7833	1.4545	0.1	3722.
23465	8.8756	1.5455	0.1	3694.6
23466	8.5989	1.4545	0.1	3775.3
23467	8.6911	1.5455	0.1	3747.7
23468	8.4144	1.4545	0.1	3828.7
23469	8.5067	1.5455	0.1	3801.
23470	8.23	1.4545	0.1	3882.3
23471	8.3222	1.5455	0.1	3854.5
23472	8.0456	1.4545	0.1	3936.2
23473	8.1378	1.5455	0.1	3908.2
23474	7.8611	1.4545	0.1	3990.3
23475	7.9533	1.5455	0.1	3962.1
23476	7.6767	1.4545	0.1	4044.5
23477	7.7689	1.5455	0.1	4016.3
23478	7.4922	1.4545	0.1	4099.
23479	7.5844	1.5455	0.1	4070.6
23480	7.3078	1.4545	0.1	4153.7
23481	7.4	1.5455	0.1	4125.2
23482	7.1233	1.4545	0.1	4208.6
23483	7.2156	1.5455	0.1	4180.
23484	6.9389	1.4545	0.1	4263.8
23485	7.0311	1.5455	0.1	4235.1
23486	6.7544	1.4545	0.1	4319.1
23487	6.8467	1.5455	0.1	4290.4
23488	6.57	1.4545	0.1	4374.7
23489	6.6622	1.5455	0.1	4346.
23490	6.3856	1.4545	0.1	4430.6
23491	6.4778	1.5455	0.1	4402.
23492	6.2011	1.4545	0.1	4486.7
23493	6.2933	1.5455	0.1	4458.3
23494	6.0167	1.4545	0.1	4543.
23495	6.1089	1.5455	0.1	4514.9
23496	5.8322	1.4545	0.1	4599.6
23497	5.9244	1.5455	0.1	4572.
23498	5.6478	1.4545	0.1	4656.3
23499	5.74	1.5455	0.1	4629.5
23500	5.4633	1.4545	0.1	4713.3
23501	5.5556	1.5455	0.1	4687.5
23502	5.2789	1.4545	0.1	4770.4
23503	5.3711	1.5455	0.1	4746.1
23504	5.0944	1.4545	0.1	4827.5
23505	5.1867	1.5455	0.1	4805.3
23506	4.91	1.4545	0.1	4884.6
23507	5.0022	1.5455	0.1	4865.2
23508	4.7256	1.4545	0.1	4941.5
23509	4.8178	1.5455	0.1	4925.8
23510	4.5411	1.4545	0.1	4998.
23511	4.6333	1.5455	0.1	4987.3
23512	4.3567	1.4545	0.1	5053.9
23513	4.4489	1.5455	0.1	5049.6
23514	4.1722	1.4545	0.1	5108.7
23515	4.2644	1.5455	0.1	5112.9
23516	3.9878	1.4545	0.1	5162.1
23517	4.08	1.5455	0.1	5177.4
23518	3.8033	1.4545	0.1	5213.7
23519	3.8956	1.5455	0.1	5243.3
23520	3.6189	1.4545	0.1	5263.
23521	3.7111	1.5455	0.1	5311.
23522	3.4344	1.4545	0.1	5309.8
23523	3.5267	1.5455	0.1	5381.3
23524	3.25	1.4545	0.1	5354.2
23525	3.3422	1.5455	0.1	5455.7
23526	3.0656	1.4545	0.1	5396.5
23527	3.1578	1.5455	0.1	5536.7
23528	2.8811	1.4545	0.1	5437.4
23529	2.9733	1.5455	0.1	5628.1
23530	2.6967	1.4545	0.1	5475.7
23531	2.7889	1.5455	0.1	5735.7
23532	2.5122	1.4545	0.1	5504.8
23533	2.6044	1.5455	0.1	5865.2
23534	2.3278	1.4545	0.1	5491.2
23535	2.42	1.5455	0.1	6016.9
23536	2.1433	1.4545	0.1	5477.6
23537	2.2356	1.5455	0.1	6157.
23538	2.0511	1.5455	0.1	6368.3
23539	1.9589	1.4545	0.1	4420.1
23540	23.723	1.6364	0.1	59.097
23541	23.816	1.7273	0.1	39.939
23542	23.908	1.6364	0.1	22.537
23543	23.539	1.6364	0.1	97.504
23544	23.631	1.7273	0.1	78.394
23545	23.354	1.6364	0.1	135.84
23546	23.447	1.7273	0.1	116.88
23547	23.17	1.6364	0.1	174.11
23548	23.262	1.7273	0.1	155.23
23549	22.986	1.6364	0.1	212.37
23550	23.078	1.7273	0.1	193.54
23551	22.801	1.6364	0.1	250.69
23552	22.893	1.7273	0.1	231.86
23553	22.617	1.6364	0.1	289.12
23554	22.709	1.7273	0.1	270.24
23555	22.432	1.6364	0.1	327.67
23556	22.524	1.7273	0.1	308.73
23557	22.248	1.6364	0.1	366.39
23558	22.34	1.7273	0.1	347.36
23559	22.063	1.6364	0.1	405.27
23560	22.156	1.7273	0.1	386.13
23561	21.879	1.6364	0.1	444.33
23562	21.971	1.7273	0.1	425.07
23563	21.694	1.6364	0.1	483.58
23564	21.787	1.7273	0.1	464.19
23565	21.51	1.6364	0.1	523.01
23566	21.602	1.7273	0.1	503.49
23567	21.326	1.6364	0.1	562.63
23568	21.418	1.7273	0.1	542.97
23569	21.141	1.6364	0.1	602.44
23570	21.233	1.7273	0.1	582.65
23571	20.957	1.6364	0.1	642.44
23572	21.049	1.7273	0.1	622.51
23573	20.772	1.6364	0.1	682.64
23574	20.864	1.7273	0.1	662.57
23575	20.588	1.6364	0.1	723.03
23576	20.68	1.7273	0.1	702.83
23577	20.403	1.6364	0.1	763.61
23578	20.496	1.7273	0.1	743.28
23579	20.219	1.6364	0.1	804.39
23580	20.311	1.7273	0.1	783.93
23581	20.034	1.6364	0.1	845.37
23582	20.127	1.7273	0.1	824.77
23583	19.85	1.6364	0.1	886.54
23584	19.942	1.7273	0.1	865.82
23585	19.666	1.6364	0.1	927.91
23586	19.758	1.7273	0.1	907.06
23587	19.481	1.6364	0.1	969.48
23588	19.573	1.7273	0.1	948.51
23589	19.297	1.6364	0.1	1011.2
23590	19.389	1.7273	0.1	990.16
23591	19.112	1.6364	0.1	1053.2
23592	19.204	1.7273	0.1	1032.
23593	18.928	1.6364	0.1	1095.4
23594	19.02	1.7273	0.1	1074.1
23595	18.743	1.6364	0.1	1137.7
23596	18.836	1.7273	0.1	1116.3
23597	18.559	1.6364	0.1	1180.3
23598	18.651	1.7273	0.1	1158.8
23599	18.374	1.6364	0.1	1223.1
23600	18.467	1.7273	0.1	1201.4
23601	18.19	1.6364	0.1	1266.
23602	18.282	1.7273	0.1	1244.3
23603	18.006	1.6364	0.1	1309.2
23604	18.098	1.7273	0.1	1287.3
23605	17.821	1.6364	0.1	1352.6
23606	17.913	1.7273	0.1	1330.6
23607	17.637	1.6364	0.1	1396.1
23608	17.729	1.7273	0.1	1374.
23609	17.452	1.6364	0.1	1439.9
23610	17.544	1.7273	0.1	1417.7
23611	17.268	1.6364	0.1	1483.9
23612	17.36	1.7273	0.1	1461.6
23613	17.083	1.6364	0.1	1528.1
23614	17.176	1.7273	0.1	1505.6
23615	16.899	1.6364	0.1	1572.4
23616	16.991	1.7273	0.1	1549.9
23617	16.714	1.6364	0.1	1617.
23618	16.807	1.7273	0.1	1594.4
23619	16.53	1.6364	0.1	1661.8
23620	16.622	1.7273	0.1	1639.
23621	16.346	1.6364	0.1	1706.7
23622	16.438	1.7273	0.1	1683.9
23623	16.161	1.6364	0.1	1751.9
23624	16.253	1.7273	0.1	1729.
23625	15.977	1.6364	0.1	1797.3
23626	16.069	1.7273	0.1	1774.2
23627	15.792	1.6364	0.1	1842.9
23628	15.884	1.7273	0.1	1819.7
23629	15.608	1.6364	0.1	1888.6
23630	15.7	1.7273	0.1	1865.4
23631	15.423	1.6364	0.1	1934.6
23632	15.516	1.7273	0.1	1911.3
23633	15.239	1.6364	0.1	1980.8
23634	15.331	1.7273	0.1	1957.3
23635	15.054	1.6364	0.1	2027.1
23636	15.147	1.7273	0.1	2003.6
23637	14.87	1.6364	0.1	2073.7
23638	14.962	1.7273	0.1	2050.1
23639	14.686	1.6364	0.1	2120.5
23640	14.778	1.7273	0.1	2096.7
23641	14.501	1.6364	0.1	2167.5
23642	14.593	1.7273	0.1	2143.6
23643	14.317	1.6364	0.1	2214.6
23644	14.409	1.7273	0.1	2190.7
23645	14.132	1.6364	0.1	2262.
23646	14.224	1.7273	0.1	2237.9
23647	13.948	1.6364	0.1	2309.5
23648	14.04	1.7273	0.1	2285.4
23649	13.763	1.6364	0.1	2357.3
23650	13.856	1.7273	0.1	2333.
23651	13.579	1.6364	0.1	2405.3
23652	13.671	1.7273	0.1	2380.9
23653	13.394	1.6364	0.1	2453.4
23654	13.487	1.7273	0.1	2429.
23655	13.21	1.6364	0.1	2501.8
23656	13.302	1.7273	0.1	2477.2
23657	13.026	1.6364	0.1	2550.3
23658	13.118	1.7273	0.1	2525.7
23659	12.841	1.6364	0.1	2599.1
23660	12.933	1.7273	0.1	2574.3
23661	12.657	1.6364	0.1	2648.
23662	12.749	1.7273	0.1	2623.1
23663	12.472	1.6364	0.1	2697.1
23664	12.564	1.7273	0.1	2672.2
23665	12.288	1.6364	0.1	2746.5
23666	12.38	1.7273	0.1	2721.4
23667	12.103	1.6364	0.1	2796.
23668	12.196	1.7273	0.1	2770.8
23669	11.919	1.6364	0.1	2845.7
23670	12.011	1.7273	0.1	2820.4
23671	11.734	1.6364	0.1	2895.6
23672	11.827	1.7273	0.1	2870.2
23673	11.55	1.6364	0.1	2945.7
23674	11.642	1.7273	0.1	2920.2
23675	11.366	1.6364	0.1	2996.
23676	11.458	1.7273	0.1	2970.4
23677	11.181	1.6364	0.1	3046.5
23678	11.273	1.7273	0.1	3020.8
23679	10.997	1.6364	0.1	3097.2
23680	11.089	1.7273	0.1	3071.4
23681	10.812	1.6364	0.1	3148.1
23682	10.904	1.7273	0.1	3122.1
23683	10.628	1.6364	0.1	3199.2
23684	10.72	1.7273	0.1	3173.1
23685	10.443	1.6364	0.1	3250.4
23686	10.536	1.7273	0.1	3224.2
23687	10.259	1.6364	0.1	3301.9
23688	10.351	1.7273	0.1	3275.6
23689	10.074	1.6364	0.1	3353.5
23690	10.167	1.7273	0.1	3327.1
23691	9.89	1.6364	0.1	3405.3
23692	9.9822	1.7273	0.1	3378.8
23693	9.7056	1.6364	0.1	3457.3
23694	9.7978	1.7273	0.1	3430.7
23695	9.5211	1.6364	0.1	3509.5
23696	9.6133	1.7273	0.1	3482.8
23697	9.3367	1.6364	0.1	3561.9
23698	9.4289	1.7273	0.1	3535.
23699	9.1522	1.6364	0.1	3614.5
23700	9.2444	1.7273	0.1	3587.5
23701	8.9678	1.6364	0.1	3667.3
23702	9.06	1.7273	0.1	3640.1
23703	8.7833	1.6364	0.1	3720.3
23704	8.8756	1.7273	0.1	3693.
23705	8.5989	1.6364	0.1	3773.4
23706	8.6911	1.7273	0.1	3746.
23707	8.4144	1.6364	0.1	3826.8
23708	8.5067	1.7273	0.1	3799.2
23709	8.23	1.6364	0.1	3880.4
23710	8.3222	1.7273	0.1	3852.6
23711	8.0456	1.6364	0.1	3934.1
23712	8.1378	1.7273	0.1	3906.3
23713	7.8611	1.6364	0.1	3988.1
23714	7.9533	1.7273	0.1	3960.1
23715	7.6767	1.6364	0.1	4042.3
23716	7.7689	1.7273	0.1	4014.2
23717	7.4922	1.6364	0.1	4096.8
23718	7.5844	1.7273	0.1	4068.5
23719	7.3078	1.6364	0.1	4151.5
23720	7.4	1.7273	0.1	4123.1
23721	7.1233	1.6364	0.1	4206.5
23722	7.2156	1.7273	0.1	4177.9
23723	6.9389	1.6364	0.1	4261.7
23724	7.0311	1.7273	0.1	4233.
23725	6.7544	1.6364	0.1	4317.3
23726	6.8467	1.7273	0.1	4288.5
23727	6.57	1.6364	0.1	4373.3
23728	6.6622	1.7273	0.1	4344.4
23729	6.3856	1.6364	0.1	4429.7
23730	6.4778	1.7273	0.1	4400.8
23731	6.2011	1.6364	0.1	4486.5
23732	6.2933	1.7273	0.1	4457.7
23733	6.0167	1.6364	0.1	4543.9
23734	6.1089	1.7273	0.1	4515.2
23735	5.8322	1.6364	0.1	4602.
23736	5.9244	1.7273	0.1	4573.5
23737	5.6478	1.6364	0.1	4660.7
23738	5.74	1.7273	0.1	4632.7
23739	5.4633	1.6364	0.1	4720.4
23740	5.5556	1.7273	0.1	4692.9
23741	5.2789	1.6364	0.1	4781.1
23742	5.3711	1.7273	0.1	4754.5
23743	5.0944	1.6364	0.1	4843.
23744	5.1867	1.7273	0.1	4817.8
23745	4.91	1.6364	0.1	4906.4
23746	5.0022	1.7273	0.1	4883.
23747	4.7256	1.6364	0.1	4971.6
23748	4.8178	1.7273	0.1	4950.6
23749	4.5411	1.6364	0.1	5038.8
23750	4.6333	1.7273	0.1	5021.2
23751	4.3567	1.6364	0.1	5108.6
23752	4.4489	1.7273	0.1	5095.5
23753	4.1722	1.6364	0.1	5181.6
23754	4.2644	1.7273	0.1	5174.4
23755	3.9878	1.6364	0.1	5258.4
23756	4.08	1.7273	0.1	5259.1
23757	3.8033	1.6364	0.1	5340.1
23758	3.8956	1.7273	0.1	5351.1
23759	3.6189	1.6364	0.1	5428.4
23760	3.7111	1.7273	0.1	5452.6
23761	3.4344	1.6364	0.1	5525.6
23762	3.5267	1.7273	0.1	5566.6
23763	3.25	1.6364	0.1	5635.4
23764	3.3422	1.7273	0.1	5697.7
23765	3.0656	1.6364	0.1	5763.5
23766	3.1578	1.7273	0.1	5852.8
23767	2.8811	1.6364	0.1	5918.4
23768	2.9733	1.7273	0.1	6042.4
23769	2.6967	1.6364	0.1	6111.6
23770	2.7889	1.7273	0.1	6282.9
23771	2.5122	1.6364	0.1	6353.6
23772	2.6044	1.7273	0.1	6599.9
23773	2.3278	1.6364	0.1	6638.3
23774	2.42	1.7273	0.1	7030.3
23775	2.1433	1.6364	0.1	6917.1
23776	2.2356	1.7273	0.1	7641.4
23777	2.0511	1.7273	0.1	8764.2
23778	1.9589	1.6364	0.1	5667.3
23779	23.723	1.8182	0.1	59.167
23780	23.816	1.9091	0.1	39.909
23781	23.908	1.8182	0.1	22.509
23782	23.539	1.8182	0.1	97.765
23783	23.631	1.9091	0.1	78.542
23784	23.354	1.8182	0.1	136.28
23785	23.447	1.9091	0.1	117.19
23786	23.17	1.8182	0.1	174.68
23787	23.262	1.9091	0.1	155.69
23788	22.986	1.8182	0.1	213.05
23789	23.078	1.9091	0.1	194.12
23790	22.801	1.8182	0.1	251.44
23791	22.893	1.9091	0.1	232.52
23792	22.617	1.8182	0.1	289.89
23793	22.709	1.9091	0.1	270.95
23794	22.432	1.8182	0.1	328.45
23795	22.524	1.9091	0.1	309.46
23796	22.248	1.8182	0.1	367.13
23797	22.34	1.9091	0.1	348.07
23798	22.063	1.8182	0.1	405.97
23799	22.156	1.9091	0.1	386.81
23800	21.879	1.8182	0.1	444.96
23801	21.971	1.9091	0.1	425.71
23802	21.694	1.8182	0.1	484.14
23803	21.787	1.9091	0.1	464.76
23804	21.51	1.8182	0.1	523.49
23805	21.602	1.9091	0.1	503.99
23806	21.326	1.8182	0.1	563.03
23807	21.418	1.9091	0.1	543.4
23808	21.141	1.8182	0.1	602.76
23809	21.233	1.9091	0.1	583.
23810	20.957	1.8182	0.1	642.68
23811	21.049	1.9091	0.1	622.8
23812	20.772	1.8182	0.1	682.8
23813	20.864	1.9091	0.1	662.78
23814	20.588	1.8182	0.1	723.12
23815	20.68	1.9091	0.1	702.97
23816	20.403	1.8182	0.1	763.63
23817	20.496	1.9091	0.1	743.35
23818	20.219	1.8182	0.1	804.35
23819	20.311	1.9091	0.1	783.94
23820	20.034	1.8182	0.1	845.27
23821	20.127	1.9091	0.1	824.73
23822	19.85	1.8182	0.1	886.39
23823	19.942	1.9091	0.1	865.72
23824	19.666	1.8182	0.1	927.71
23825	19.758	1.9091	0.1	906.92
23826	19.481	1.8182	0.1	969.23
23827	19.573	1.9091	0.1	948.32
23828	19.297	1.8182	0.1	1011.
23829	19.389	1.9091	0.1	989.92
23830	19.112	1.8182	0.1	1052.9
23831	19.204	1.9091	0.1	1031.7
23832	18.928	1.8182	0.1	1095.
23833	19.02	1.9091	0.1	1073.7
23834	18.743	1.8182	0.1	1137.4
23835	18.836	1.9091	0.1	1116.
23836	18.559	1.8182	0.1	1179.9
23837	18.651	1.9091	0.1	1158.4
23838	18.374	1.8182	0.1	1222.6
23839	18.467	1.9091	0.1	1201.
23840	18.19	1.8182	0.1	1265.6
23841	18.282	1.9091	0.1	1243.9
23842	18.006	1.8182	0.1	1308.7
23843	18.098	1.9091	0.1	1286.9
23844	17.821	1.8182	0.1	1352.1
23845	17.913	1.9091	0.1	1330.1
23846	17.637	1.8182	0.1	1395.6
23847	17.729	1.9091	0.1	1373.6
23848	17.452	1.8182	0.1	1439.4
23849	17.544	1.9091	0.1	1417.2
23850	17.268	1.8182	0.1	1483.3
23851	17.36	1.9091	0.1	1461.1
23852	17.083	1.8182	0.1	1527.5
23853	17.176	1.9091	0.1	1505.1
23854	16.899	1.8182	0.1	1571.9
23855	16.991	1.9091	0.1	1549.4
23856	16.714	1.8182	0.1	1616.4
23857	16.807	1.9091	0.1	1593.9
23858	16.53	1.8182	0.1	1661.2
23859	16.622	1.9091	0.1	1638.5
23860	16.346	1.8182	0.1	1706.2
23861	16.438	1.9091	0.1	1683.4
23862	16.161	1.8182	0.1	1751.3
23863	16.253	1.9091	0.1	1728.4
23864	15.977	1.8182	0.1	1796.7
23865	16.069	1.9091	0.1	1773.7
23866	15.792	1.8182	0.1	1842.3
23867	15.884	1.9091	0.1	1819.2
23868	15.608	1.8182	0.1	1888.
23869	15.7	1.9091	0.1	1864.8
23870	15.423	1.8182	0.1	1934.
23871	15.516	1.9091	0.1	1910.7
23872	15.239	1.8182	0.1	1980.2
23873	15.331	1.9091	0.1	1956.8
23874	15.054	1.8182	0.1	2026.5
23875	15.147	1.9091	0.1	2003.
23876	14.87	1.8182	0.1	2073.1
23877	14.962	1.9091	0.1	2049.5
23878	14.686	1.8182	0.1	2119.9
23879	14.778	1.9091	0.1	2096.2
23880	14.501	1.8182	0.1	2166.8
23881	14.593	1.9091	0.1	2143.
23882	14.317	1.8182	0.1	2214.
23883	14.409	1.9091	0.1	2190.1
23884	14.132	1.8182	0.1	2261.4
23885	14.224	1.9091	0.1	2237.4
23886	13.948	1.8182	0.1	2308.9
23887	14.04	1.9091	0.1	2284.8
23888	13.763	1.8182	0.1	2356.7
23889	13.856	1.9091	0.1	2332.5
23890	13.579	1.8182	0.1	2404.6
23891	13.671	1.9091	0.1	2380.3
23892	13.394	1.8182	0.1	2452.8
23893	13.487	1.9091	0.1	2428.4
23894	13.21	1.8182	0.1	2501.1
23895	13.302	1.9091	0.1	2476.6
23896	13.026	1.8182	0.1	2549.7
23897	13.118	1.9091	0.1	2525.
23898	12.841	1.8182	0.1	2598.4
23899	12.933	1.9091	0.1	2573.7
23900	12.657	1.8182	0.1	2647.3
23901	12.749	1.9091	0.1	2622.5
23902	12.472	1.8182	0.1	2696.4
23903	12.564	1.9091	0.1	2671.5
23904	12.288	1.8182	0.1	2745.7
23905	12.38	1.9091	0.1	2720.7
23906	12.103	1.8182	0.1	2795.3
23907	12.196	1.9091	0.1	2770.1
23908	11.919	1.8182	0.1	2845.
23909	12.011	1.9091	0.1	2819.7
23910	11.734	1.8182	0.1	2894.9
23911	11.827	1.9091	0.1	2869.5
23912	11.55	1.8182	0.1	2944.9
23913	11.642	1.9091	0.1	2919.5
23914	11.366	1.8182	0.1	2995.2
23915	11.458	1.9091	0.1	2969.7
23916	11.181	1.8182	0.1	3045.7
23917	11.273	1.9091	0.1	3020.
23918	10.997	1.8182	0.1	3096.3
23919	11.089	1.9091	0.1	3070.6
23920	10.812	1.8182	0.1	3147.2
23921	10.904	1.9091	0.1	3121.3
23922	10.628	1.8182	0.1	3198.2
23923	10.72	1.9091	0.1	3172.2
23924	10.443	1.8182	0.1	3249.4
23925	10.536	1.9091	0.1	3223.3
23926	10.259	1.8182	0.1	3300.8
23927	10.351	1.9091	0.1	3274.6
23928	10.074	1.8182	0.1	3352.4
23929	10.167	1.9091	0.1	3326.1
23930	9.89	1.8182	0.1	3404.2
23931	9.9822	1.9091	0.1	3377.7
23932	9.7056	1.8182	0.1	3456.1
23933	9.7978	1.9091	0.1	3429.6
23934	9.5211	1.8182	0.1	3508.3
23935	9.6133	1.9091	0.1	3481.6
23936	9.3367	1.8182	0.1	3560.6
23937	9.4289	1.9091	0.1	3533.8
23938	9.1522	1.8182	0.1	3613.1
23939	9.2444	1.9091	0.1	3586.2
23940	8.9678	1.8182	0.1	3665.8
23941	9.06	1.9091	0.1	3638.8
23942	8.7833	1.8182	0.1	3718.7
23943	8.8756	1.9091	0.1	3691.5
23944	8.5989	1.8182	0.1	3771.8
23945	8.6911	1.9091	0.1	3744.5
23946	8.4144	1.8182	0.1	3825.1
23947	8.5067	1.9091	0.1	3797.6
23948	8.23	1.8182	0.1	3878.6
23949	8.3222	1.9091	0.1	3851.
23950	8.0456	1.8182	0.1	3932.3
23951	8.1378	1.9091	0.1	3904.5
23952	7.8611	1.8182	0.1	3986.2
23953	7.9533	1.9091	0.1	3958.3
23954	7.6767	1.8182	0.1	4040.3
23955	7.7689	1.9091	0.1	4012.3
23956	7.4922	1.8182	0.1	4094.8
23957	7.5844	1.9091	0.1	4066.6
23958	7.3078	1.8182	0.1	4149.5
23959	7.4	1.9091	0.1	4121.1
23960	7.1233	1.8182	0.1	4204.5
23961	7.2156	1.9091	0.1	4176.
23962	6.9389	1.8182	0.1	4259.9
23963	7.0311	1.9091	0.1	4231.2
23964	6.7544	1.8182	0.1	4315.7
23965	6.8467	1.9091	0.1	4286.8
23966	6.57	1.8182	0.1	4371.9
23967	6.6622	1.9091	0.1	4343.
23968	6.3856	1.8182	0.1	4428.8
23969	6.4778	1.9091	0.1	4399.7
23970	6.2011	1.8182	0.1	4486.4
23971	6.2933	1.9091	0.1	4457.1
23972	6.0167	1.8182	0.1	4544.8
23973	6.1089	1.9091	0.1	4515.4
23974	5.8322	1.8182	0.1	4604.2
23975	5.9244	1.9091	0.1	4574.8
23976	5.6478	1.8182	0.1	4664.9
23977	5.74	1.9091	0.1	4635.5
23978	5.4633	1.8182	0.1	4727.1
23979	5.5556	1.9091	0.1	4697.9
23980	5.2789	1.8182	0.1	4791.2
23981	5.3711	1.9091	0.1	4762.3
23982	5.0944	1.8182	0.1	4857.7
23983	5.1867	1.9091	0.1	4829.3
23984	4.91	1.8182	0.1	4927.1
23985	5.0022	1.9091	0.1	4899.5
23986	4.7256	1.8182	0.1	5000.2
23987	4.8178	1.9091	0.1	4973.7
23988	4.5411	1.8182	0.1	5077.9
23989	4.6333	1.9091	0.1	5053.
23990	4.3567	1.8182	0.1	5161.3
23991	4.4489	1.9091	0.1	5138.8
23992	4.1722	1.8182	0.1	5251.9
23993	4.2644	1.9091	0.1	5232.6
23994	3.9878	1.8182	0.1	5351.6
23995	4.08	1.9091	0.1	5336.7
23996	3.8033	1.8182	0.1	5463.1
23997	3.8956	1.9091	0.1	5453.9
23998	3.6189	1.8182	0.1	5590.
23999	3.7111	1.9091	0.1	5588.2
24000	3.4344	1.8182	0.1	5737.4
24001	3.5267	1.9091	0.1	5744.8
24002	3.25	1.8182	0.1	5912.8
24003	3.3422	1.9091	0.1	5931.3
24004	3.0656	1.8182	0.1	6128.
24005	3.1578	1.9091	0.1	6159.2
24006	2.8811	1.8182	0.1	6401.1
24007	2.9733	1.9091	0.1	6446.
24008	2.6967	1.8182	0.1	6762.
24009	2.7889	1.9091	0.1	6820.
24010	2.5122	1.8182	0.1	7262.9
24011	2.6044	1.9091	0.1	7331.1
24012	2.3278	1.8182	0.1	8004.9
24013	2.42	1.9091	0.1	8079.3
24014	2.1433	1.8182	0.1	9382.4
24015	2.2356	1.9091	0.1	9255.7
24016	2.0511	1.9091	0.1	12401
24017	1.9589	1.8182	0.1	7939.9
24018	23.723	2.	0.1	59.211
24019	23.816	2.0909	0.1	39.875
24020	23.908	2.	0.1	22.479
24021	23.539	2.	0.1	97.962
24022	23.631	2.0909	0.1	78.649
24023	23.354	2.	0.1	136.61
24024	23.447	2.0909	0.1	117.43
24025	23.17	2.	0.1	175.14
24026	23.262	2.0909	0.1	156.05
24027	22.986	2.	0.1	213.6
24028	23.078	2.0909	0.1	194.58
24029	22.801	2.	0.1	252.06
24030	22.893	2.0909	0.1	233.06
24031	22.617	2.	0.1	290.55
24032	22.709	2.0909	0.1	271.54
24033	22.432	2.	0.1	329.11
24034	22.524	2.0909	0.1	310.07
24035	22.248	2.	0.1	367.78
24036	22.34	2.0909	0.1	348.69
24037	22.063	2.	0.1	406.59
24038	22.156	2.0909	0.1	387.41
24039	21.879	2.	0.1	445.54
24040	21.971	2.0909	0.1	426.27
24041	21.694	2.	0.1	484.65
24042	21.787	2.0909	0.1	465.28
24043	21.51	2.	0.1	523.94
24044	21.602	2.0909	0.1	504.45
24045	21.326	2.	0.1	563.42
24046	21.418	2.0909	0.1	543.81
24047	21.141	2.	0.1	603.08
24048	21.233	2.0909	0.1	583.34
24049	20.957	2.	0.1	642.93
24050	21.049	2.0909	0.1	623.07
24051	20.772	2.	0.1	682.99
24052	20.864	2.0909	0.1	663.
24053	20.588	2.	0.1	723.24
24054	20.68	2.0909	0.1	703.12
24055	20.403	2.	0.1	763.7
24056	20.496	2.0909	0.1	743.45
24057	20.219	2.	0.1	804.36
24058	20.311	2.0909	0.1	783.98
24059	20.034	2.	0.1	845.22
24060	20.127	2.0909	0.1	824.72
24061	19.85	2.	0.1	886.29
24062	19.942	2.0909	0.1	865.67
24063	19.666	2.	0.1	927.57
24064	19.758	2.0909	0.1	906.82
24065	19.481	2.	0.1	969.05
24066	19.573	2.0909	0.1	948.18
24067	19.297	2.	0.1	1010.7
24068	19.389	2.0909	0.1	989.75
24069	19.112	2.	0.1	1052.6
24070	19.204	2.0909	0.1	1031.5
24071	18.928	2.	0.1	1094.7
24072	19.02	2.0909	0.1	1073.5
24073	18.743	2.	0.1	1137.
24074	18.836	2.0909	0.1	1115.7
24075	18.559	2.	0.1	1179.6
24076	18.651	2.0909	0.1	1158.1
24077	18.374	2.	0.1	1222.3
24078	18.467	2.0909	0.1	1200.7
24079	18.19	2.	0.1	1265.2
24080	18.282	2.0909	0.1	1243.5
24081	18.006	2.	0.1	1308.3
24082	18.098	2.0909	0.1	1286.5
24083	17.821	2.	0.1	1351.7
24084	17.913	2.0909	0.1	1329.8
24085	17.637	2.	0.1	1395.2
24086	17.729	2.0909	0.1	1373.2
24087	17.452	2.	0.1	1439.
24088	17.544	2.0909	0.1	1416.8
24089	17.268	2.	0.1	1482.9
24090	17.36	2.0909	0.1	1460.7
24091	17.083	2.	0.1	1527.1
24092	17.176	2.0909	0.1	1504.7
24093	16.899	2.	0.1	1571.4
24094	16.991	2.0909	0.1	1549.
24095	16.714	2.	0.1	1616.
24096	16.807	2.0909	0.1	1593.4
24097	16.53	2.	0.1	1660.7
24098	16.622	2.0909	0.1	1638.1
24099	16.346	2.	0.1	1705.7
24100	16.438	2.0909	0.1	1682.9
24101	16.161	2.	0.1	1750.8
24102	16.253	2.0909	0.1	1728.
24103	15.977	2.	0.1	1796.2
24104	16.069	2.0909	0.1	1773.3
24105	15.792	2.	0.1	1841.8
24106	15.884	2.0909	0.1	1818.7
24107	15.608	2.	0.1	1887.5
24108	15.7	2.0909	0.1	1864.4
24109	15.423	2.	0.1	1933.5
24110	15.516	2.0909	0.1	1910.2
24111	15.239	2.	0.1	1979.7
24112	15.331	2.0909	0.1	1956.3
24113	15.054	2.	0.1	2026.
24114	15.147	2.0909	0.1	2002.6
24115	14.87	2.	0.1	2072.6
24116	14.962	2.0909	0.1	2049.
24117	14.686	2.	0.1	2119.4
24118	14.778	2.0909	0.1	2095.7
24119	14.501	2.	0.1	2166.3
24120	14.593	2.0909	0.1	2142.6
24121	14.317	2.	0.1	2213.5
24122	14.409	2.0909	0.1	2189.6
24123	14.132	2.	0.1	2260.8
24124	14.224	2.0909	0.1	2236.9
24125	13.948	2.	0.1	2308.4
24126	14.04	2.0909	0.1	2284.3
24127	13.763	2.	0.1	2356.1
24128	13.856	2.0909	0.1	2332.
24129	13.579	2.	0.1	2404.1
24130	13.671	2.0909	0.1	2379.8
24131	13.394	2.	0.1	2452.2
24132	13.487	2.0909	0.1	2427.8
24133	13.21	2.	0.1	2500.5
24134	13.302	2.0909	0.1	2476.1
24135	13.026	2.	0.1	2549.1
24136	13.118	2.0909	0.1	2524.5
24137	12.841	2.	0.1	2597.8
24138	12.933	2.0909	0.1	2573.1
24139	12.657	2.	0.1	2646.7
24140	12.749	2.0909	0.1	2621.9
24141	12.472	2.	0.1	2695.8
24142	12.564	2.0909	0.1	2671.
24143	12.288	2.	0.1	2745.1
24144	12.38	2.0909	0.1	2720.2
24145	12.103	2.	0.1	2794.6
24146	12.196	2.0909	0.1	2769.6
24147	11.919	2.	0.1	2844.3
24148	12.011	2.0909	0.1	2819.1
24149	11.734	2.	0.1	2894.2
24150	11.827	2.0909	0.1	2868.9
24151	11.55	2.	0.1	2944.2
24152	11.642	2.0909	0.1	2918.9
24153	11.366	2.	0.1	2994.5
24154	11.458	2.0909	0.1	2969.
24155	11.181	2.	0.1	3044.9
24156	11.273	2.0909	0.1	3019.3
24157	10.997	2.	0.1	3095.6
24158	11.089	2.0909	0.1	3069.9
24159	10.812	2.	0.1	3146.4
24160	10.904	2.0909	0.1	3120.6
24161	10.628	2.	0.1	3197.4
24162	10.72	2.0909	0.1	3171.5
24163	10.443	2.	0.1	3248.5
24164	10.536	2.0909	0.1	3222.5
24165	10.259	2.	0.1	3299.9
24166	10.351	2.0909	0.1	3273.8
24167	10.074	2.	0.1	3351.4
24168	10.167	2.0909	0.1	3325.2
24169	9.89	2.	0.1	3403.2
24170	9.9822	2.0909	0.1	3376.8
24171	9.7056	2.	0.1	3455.1
24172	9.7978	2.0909	0.1	3428.6
24173	9.5211	2.	0.1	3507.2
24174	9.6133	2.0909	0.1	3480.6
24175	9.3367	2.	0.1	3559.4
24176	9.4289	2.0909	0.1	3532.8
24177	9.1522	2.	0.1	3611.9
24178	9.2444	2.0909	0.1	3585.1
24179	8.9678	2.	0.1	3664.5
24180	9.06	2.0909	0.1	3637.6
24181	8.7833	2.	0.1	3717.3
24182	8.8756	2.0909	0.1	3690.3
24183	8.5989	2.	0.1	3770.4
24184	8.6911	2.0909	0.1	3743.2
24185	8.4144	2.	0.1	3823.6
24186	8.5067	2.0909	0.1	3796.3
24187	8.23	2.	0.1	3877.
24188	8.3222	2.0909	0.1	3849.5
24189	8.0456	2.	0.1	3930.6
24190	8.1378	2.0909	0.1	3903.
24191	7.8611	2.	0.1	3984.5
24192	7.9533	2.0909	0.1	3956.7
24193	7.6767	2.	0.1	4038.6
24194	7.7689	2.0909	0.1	4010.7
24195	7.4922	2.	0.1	4093.
24196	7.5844	2.0909	0.1	4064.9
24197	7.3078	2.	0.1	4147.6
24198	7.4	2.0909	0.1	4119.4
24199	7.1233	2.	0.1	4202.7
24200	7.2156	2.0909	0.1	4174.3
24201	6.9389	2.	0.1	4258.2
24202	7.0311	2.0909	0.1	4229.6
24203	6.7544	2.	0.1	4314.1
24204	6.8467	2.0909	0.1	4285.3
24205	6.57	2.	0.1	4370.7
24206	6.6622	2.0909	0.1	4341.6
24207	6.3856	2.	0.1	4428.
24208	6.4778	2.0909	0.1	4398.7
24209	6.2011	2.	0.1	4486.2
24210	6.2933	2.0909	0.1	4456.6
24211	6.0167	2.	0.1	4545.5
24212	6.1089	2.0909	0.1	4515.6
24213	5.8322	2.	0.1	4606.2
24214	5.9244	2.0909	0.1	4576.
24215	5.6478	2.	0.1	4668.5
24216	5.74	2.0909	0.1	4638.
24217	5.4633	2.	0.1	4733.1
24218	5.5556	2.0909	0.1	4702.2
24219	5.2789	2.	0.1	4800.4
24220	5.3711	2.0909	0.1	4769.2
24221	5.0944	2.	0.1	4871.1
24222	5.1867	2.0909	0.1	4839.5
24223	4.91	2.	0.1	4946.1
24224	5.0022	2.0909	0.1	4914.3
24225	4.7256	2.	0.1	5026.5
24226	4.8178	2.0909	0.1	4994.5
24227	4.5411	2.	0.1	5113.9
24228	4.6333	2.0909	0.1	5081.8
24229	4.3567	2.	0.1	5210.1
24230	4.4489	2.0909	0.1	5178.
24231	4.1722	2.	0.1	5317.3
24232	4.2644	2.0909	0.1	5285.6
24233	3.9878	2.	0.1	5438.8
24234	4.08	2.0909	0.1	5407.6
24235	3.8033	2.	0.1	5578.6
24236	3.8956	2.0909	0.1	5548.4
24237	3.6189	2.	0.1	5742.3
24238	3.7111	2.0909	0.1	5713.2
24239	3.4344	2.	0.1	5937.7
24240	3.5267	2.0909	0.1	5909.7
24241	3.25	2.	0.1	6176.
24242	3.3422	2.0909	0.1	6148.3
24243	3.0656	2.	0.1	6474.5
24244	3.1578	2.0909	0.1	6444.2
24245	2.8811	2.	0.1	6860.9
24246	2.9733	2.0909	0.1	6821.
24247	2.6967	2.	0.1	7383.7
24248	2.7889	2.0909	0.1	7317.2
24249	2.5122	2.	0.1	8141.6
24250	2.6044	2.0909	0.1	8001.6
24251	2.3278	2.	0.1	9332.1
24252	2.42	2.0909	0.1	9017.7
24253	2.1433	2.	0.1	12312
24254	2.2356	2.0909	0.1	10691
24255	2.0511	2.0909	0.1	14693
24256	1.9589	2.	0.1	21782
24257	23.723	2.1818	0.1	59.238
24258	23.816	2.2727	0.1	39.843
24259	23.908	2.1818	0.1	22.451
24260	23.539	2.1818	0.1	98.109
24261	23.631	2.2727	0.1	78.726
24262	23.354	2.1818	0.1	136.87
24263	23.447	2.2727	0.1	117.61
24264	23.17	2.1818	0.1	175.5
24265	23.262	2.2727	0.1	156.32
24266	22.986	2.1818	0.1	214.05
24267	23.078	2.2727	0.1	194.94
24268	22.801	2.1818	0.1	252.56
24269	22.893	2.2727	0.1	233.48
24270	22.617	2.1818	0.1	291.09
24271	22.709	2.2727	0.1	272.01
24272	22.432	2.1818	0.1	329.67
24273	22.524	2.2727	0.1	310.57
24274	22.248	2.1818	0.1	368.34
24275	22.34	2.2727	0.1	349.19
24276	22.063	2.1818	0.1	407.12
24277	22.156	2.2727	0.1	387.9
24278	21.879	2.1818	0.1	446.04
24279	21.971	2.2727	0.1	426.74
24280	21.694	2.1818	0.1	485.11
24281	21.787	2.2727	0.1	465.72
24282	21.51	2.1818	0.1	524.35
24283	21.602	2.2727	0.1	504.85
24284	21.326	2.1818	0.1	563.77
24285	21.418	2.2727	0.1	544.16
24286	21.141	2.1818	0.1	603.37
24287	21.233	2.2727	0.1	583.65
24288	20.957	2.1818	0.1	643.17
24289	21.049	2.2727	0.1	623.32
24290	20.772	2.1818	0.1	683.17
24291	20.864	2.2727	0.1	663.2
24292	20.588	2.1818	0.1	723.37
24293	20.68	2.2727	0.1	703.27
24294	20.403	2.1818	0.1	763.77
24295	20.496	2.2727	0.1	743.55
24296	20.219	2.1818	0.1	804.39
24297	20.311	2.2727	0.1	784.04
24298	20.034	2.1818	0.1	845.2
24299	20.127	2.2727	0.1	824.74
24300	19.85	2.1818	0.1	886.23
24301	19.942	2.2727	0.1	865.64
24302	19.666	2.1818	0.1	927.47
24303	19.758	2.2727	0.1	906.76
24304	19.481	2.1818	0.1	968.92
24305	19.573	2.2727	0.1	948.08
24306	19.297	2.1818	0.1	1010.6
24307	19.389	2.2727	0.1	989.62
24308	19.112	2.1818	0.1	1052.4
24309	19.204	2.2727	0.1	1031.4
24310	18.928	2.1818	0.1	1094.5
24311	19.02	2.2727	0.1	1073.3
24312	18.743	2.1818	0.1	1136.8
24313	18.836	2.2727	0.1	1115.5
24314	18.559	2.1818	0.1	1179.3
24315	18.651	2.2727	0.1	1157.9
24316	18.374	2.1818	0.1	1222.
24317	18.467	2.2727	0.1	1200.5
24318	18.19	2.1818	0.1	1264.9
24319	18.282	2.2727	0.1	1243.3
24320	18.006	2.1818	0.1	1308.
24321	18.098	2.2727	0.1	1286.3
24322	17.821	2.1818	0.1	1351.3
24323	17.913	2.2727	0.1	1329.5
24324	17.637	2.1818	0.1	1394.9
24325	17.729	2.2727	0.1	1372.9
24326	17.452	2.1818	0.1	1438.6
24327	17.544	2.2727	0.1	1416.5
24328	17.268	2.1818	0.1	1482.5
24329	17.36	2.2727	0.1	1460.4
24330	17.083	2.1818	0.1	1526.7
24331	17.176	2.2727	0.1	1504.4
24332	16.899	2.1818	0.1	1571.
24333	16.991	2.2727	0.1	1548.6
24334	16.714	2.1818	0.1	1615.6
24335	16.807	2.2727	0.1	1593.1
24336	16.53	2.1818	0.1	1660.3
24337	16.622	2.2727	0.1	1637.7
24338	16.346	2.1818	0.1	1705.3
24339	16.438	2.2727	0.1	1682.6
24340	16.161	2.1818	0.1	1750.4
24341	16.253	2.2727	0.1	1727.6
24342	15.977	2.1818	0.1	1795.8
24343	16.069	2.2727	0.1	1772.9
24344	15.792	2.1818	0.1	1841.4
24345	15.884	2.2727	0.1	1818.4
24346	15.608	2.1818	0.1	1887.1
24347	15.7	2.2727	0.1	1864.
24348	15.423	2.1818	0.1	1933.1
24349	15.516	2.2727	0.1	1909.9
24350	15.239	2.1818	0.1	1979.2
24351	15.331	2.2727	0.1	1955.9
24352	15.054	2.1818	0.1	2025.6
24353	15.147	2.2727	0.1	2002.2
24354	14.87	2.1818	0.1	2072.2
24355	14.962	2.2727	0.1	2048.6
24356	14.686	2.1818	0.1	2118.9
24357	14.778	2.2727	0.1	2095.3
24358	14.501	2.1818	0.1	2165.9
24359	14.593	2.2727	0.1	2142.2
24360	14.317	2.1818	0.1	2213.
24361	14.409	2.2727	0.1	2189.2
24362	14.132	2.1818	0.1	2260.4
24363	14.224	2.2727	0.1	2236.5
24364	13.948	2.1818	0.1	2307.9
24365	14.04	2.2727	0.1	2283.9
24366	13.763	2.1818	0.1	2355.7
24367	13.856	2.2727	0.1	2331.6
24368	13.579	2.1818	0.1	2403.6
24369	13.671	2.2727	0.1	2379.4
24370	13.394	2.1818	0.1	2451.7
24371	13.487	2.2727	0.1	2427.4
24372	13.21	2.1818	0.1	2500.1
24373	13.302	2.2727	0.1	2475.7
24374	13.026	2.1818	0.1	2548.6
24375	13.118	2.2727	0.1	2524.1
24376	12.841	2.1818	0.1	2597.3
24377	12.933	2.2727	0.1	2572.7
24378	12.657	2.1818	0.1	2646.2
24379	12.749	2.2727	0.1	2621.5
24380	12.472	2.1818	0.1	2695.3
24381	12.564	2.2727	0.1	2670.5
24382	12.288	2.1818	0.1	2744.6
24383	12.38	2.2727	0.1	2719.7
24384	12.103	2.1818	0.1	2794.1
24385	12.196	2.2727	0.1	2769.1
24386	11.919	2.1818	0.1	2843.8
24387	12.011	2.2727	0.1	2818.6
24388	11.734	2.1818	0.1	2893.6
24389	11.827	2.2727	0.1	2868.4
24390	11.55	2.1818	0.1	2943.7
24391	11.642	2.2727	0.1	2918.3
24392	11.366	2.1818	0.1	2993.9
24393	11.458	2.2727	0.1	2968.5
24394	11.181	2.1818	0.1	3044.3
24395	11.273	2.2727	0.1	3018.8
24396	10.997	2.1818	0.1	3094.9
24397	11.089	2.2727	0.1	3069.3
24398	10.812	2.1818	0.1	3145.7
24399	10.904	2.2727	0.1	3120.
24400	10.628	2.1818	0.1	3196.7
24401	10.72	2.2727	0.1	3170.8
24402	10.443	2.1818	0.1	3247.8
24403	10.536	2.2727	0.1	3221.9
24404	10.259	2.1818	0.1	3299.1
24405	10.351	2.2727	0.1	3273.1
24406	10.074	2.1818	0.1	3350.6
24407	10.167	2.2727	0.1	3324.5
24408	9.89	2.1818	0.1	3402.3
24409	9.9822	2.2727	0.1	3376.1
24410	9.7056	2.1818	0.1	3454.2
24411	9.7978	2.2727	0.1	3427.9
24412	9.5211	2.1818	0.1	3506.2
24413	9.6133	2.2727	0.1	3479.8
24414	9.3367	2.1818	0.1	3558.4
24415	9.4289	2.2727	0.1	3531.9
24416	9.1522	2.1818	0.1	3610.8
24417	9.2444	2.2727	0.1	3584.2
24418	8.9678	2.1818	0.1	3663.4
24419	9.06	2.2727	0.1	3636.6
24420	8.7833	2.1818	0.1	3716.2
24421	8.8756	2.2727	0.1	3689.3
24422	8.5989	2.1818	0.1	3769.1
24423	8.6911	2.2727	0.1	3742.1
24424	8.4144	2.1818	0.1	3822.3
24425	8.5067	2.2727	0.1	3795.1
24426	8.23	2.1818	0.1	3875.6
24427	8.3222	2.2727	0.1	3848.3
24428	8.0456	2.1818	0.1	3929.2
24429	8.1378	2.2727	0.1	3901.8
24430	7.8611	2.1818	0.1	3983.
24431	7.9533	2.2727	0.1	3955.4
24432	7.6767	2.1818	0.1	4037.
24433	7.7689	2.2727	0.1	4009.3
24434	7.4922	2.1818	0.1	4091.4
24435	7.5844	2.2727	0.1	4063.5
24436	7.3078	2.1818	0.1	4146.1
24437	7.4	2.2727	0.1	4118.
24438	7.1233	2.1818	0.1	4201.2
24439	7.2156	2.2727	0.1	4172.9
24440	6.9389	2.1818	0.1	4256.7
24441	7.0311	2.2727	0.1	4228.2
24442	6.7544	2.1818	0.1	4312.8
24443	6.8467	2.2727	0.1	4284.
24444	6.57	2.1818	0.1	4369.6
24445	6.6622	2.2727	0.1	4340.5
24446	6.3856	2.1818	0.1	4427.3
24447	6.4778	2.2727	0.1	4397.8
24448	6.2011	2.1818	0.1	4486.
24449	6.2933	2.2727	0.1	4456.1
24450	6.0167	2.1818	0.1	4546.1
24451	6.1089	2.2727	0.1	4515.7
24452	5.8322	2.1818	0.1	4607.8
24453	5.9244	2.2727	0.1	4576.9
24454	5.6478	2.1818	0.1	4671.7
24455	5.74	2.2727	0.1	4640.1
24456	5.4633	2.1818	0.1	4738.3
24457	5.5556	2.2727	0.1	4705.9
24458	5.2789	2.1818	0.1	4808.4
24459	5.3711	2.2727	0.1	4775.
24460	5.0944	2.1818	0.1	4882.8
24461	5.1867	2.2727	0.1	4848.3
24462	4.91	2.1818	0.1	4962.7
24463	5.0022	2.2727	0.1	4926.9
24464	4.7256	2.1818	0.1	5049.8
24465	4.8178	2.2727	0.1	5012.4
24466	4.5411	2.1818	0.1	5145.9
24467	4.6333	2.2727	0.1	5106.6
24468	4.3567	2.1818	0.1	5253.5
24469	4.4489	2.2727	0.1	5212.
24470	4.1722	2.1818	0.1	5375.8
24471	4.2644	2.2727	0.1	5331.7
24472	3.9878	2.1818	0.1	5517.1
24473	4.08	2.2727	0.1	5469.7
24474	3.8033	2.1818	0.1	5682.8
24475	3.8956	2.2727	0.1	5631.3
24476	3.6189	2.1818	0.1	5880.2
24477	3.7111	2.2727	0.1	5823.5
24478	3.4344	2.1818	0.1	6119.5
24479	3.5267	2.2727	0.1	6055.6
24480	3.25	2.1818	0.1	6415.2
24481	3.3422	2.2727	0.1	6340.4
24482	3.0656	2.1818	0.1	6788.9
24483	3.1578	2.2727	0.1	6696.4
24484	2.8811	2.1818	0.1	7274.9
24485	2.9733	2.2727	0.1	7150.7
24486	2.6967	2.1818	0.1	7932.7
24487	2.7889	2.2727	0.1	7746.8
24488	2.5122	2.1818	0.1	8877.4
24489	2.6044	2.2727	0.1	8558.1
24490	2.3278	2.1818	0.1	10388
24491	2.42	2.2727	0.1	9724.4
24492	2.1433	2.1818	0.1	13179
24493	2.2356	2.2727	0.1	11550
24494	2.0511	2.2727	0.1	14645
24495	1.9589	2.1818	0.1	17688
24496	23.723	2.3636	0.1	59.254
24497	23.816	2.4545	0.1	39.815
24498	23.908	2.3636	0.1	22.426
24499	23.539	2.3636	0.1	98.216
24500	23.631	2.4545	0.1	78.779
24501	23.354	2.3636	0.1	137.06
24502	23.447	2.4545	0.1	117.74
24503	23.17	2.3636	0.1	175.77
24504	23.262	2.4545	0.1	156.53
24505	22.986	2.3636	0.1	214.39
24506	23.078	2.4545	0.1	195.2
24507	22.801	2.3636	0.1	252.95
24508	22.893	2.4545	0.1	233.8
24509	22.617	2.3636	0.1	291.51
24510	22.709	2.4545	0.1	272.37
24511	22.432	2.3636	0.1	330.11
24512	22.524	2.4545	0.1	310.95
24513	22.248	2.3636	0.1	368.78
24514	22.34	2.4545	0.1	349.58
24515	22.063	2.3636	0.1	407.55
24516	22.156	2.4545	0.1	388.29
24517	21.879	2.3636	0.1	446.45
24518	21.971	2.4545	0.1	427.11
24519	21.694	2.3636	0.1	485.49
24520	21.787	2.4545	0.1	466.07
24521	21.51	2.3636	0.1	524.69
24522	21.602	2.4545	0.1	505.17
24523	21.326	2.3636	0.1	564.07
24524	21.418	2.4545	0.1	544.44
24525	21.141	2.3636	0.1	603.63
24526	21.233	2.4545	0.1	583.9
24527	20.957	2.3636	0.1	643.38
24528	21.049	2.4545	0.1	623.54
24529	20.772	2.3636	0.1	683.34
24530	20.864	2.4545	0.1	663.37
24531	20.588	2.3636	0.1	723.49
24532	20.68	2.4545	0.1	703.41
24533	20.403	2.3636	0.1	763.86
24534	20.496	2.4545	0.1	743.65
24535	20.219	2.3636	0.1	804.43
24536	20.311	2.4545	0.1	784.1
24537	20.034	2.3636	0.1	845.21
24538	20.127	2.4545	0.1	824.76
24539	19.85	2.3636	0.1	886.2
24540	19.942	2.4545	0.1	865.64
24541	19.666	2.3636	0.1	927.41
24542	19.758	2.4545	0.1	906.72
24543	19.481	2.3636	0.1	968.83
24544	19.573	2.4545	0.1	948.02
24545	19.297	2.3636	0.1	1010.5
24546	19.389	2.4545	0.1	989.53
24547	19.112	2.3636	0.1	1052.3
24548	19.204	2.4545	0.1	1031.3
24549	18.928	2.3636	0.1	1094.3
24550	19.02	2.4545	0.1	1073.2
24551	18.743	2.3636	0.1	1136.6
24552	18.836	2.4545	0.1	1115.3
24553	18.559	2.3636	0.1	1179.1
24554	18.651	2.4545	0.1	1157.7
24555	18.374	2.3636	0.1	1221.8
24556	18.467	2.4545	0.1	1200.3
24557	18.19	2.3636	0.1	1264.7
24558	18.282	2.4545	0.1	1243.1
24559	18.006	2.3636	0.1	1307.8
24560	18.098	2.4545	0.1	1286.1
24561	17.821	2.3636	0.1	1351.1
24562	17.913	2.4545	0.1	1329.3
24563	17.637	2.3636	0.1	1394.6
24564	17.729	2.4545	0.1	1372.7
24565	17.452	2.3636	0.1	1438.3
24566	17.544	2.4545	0.1	1416.3
24567	17.268	2.3636	0.1	1482.2
24568	17.36	2.4545	0.1	1460.1
24569	17.083	2.3636	0.1	1526.4
24570	17.176	2.4545	0.1	1504.1
24571	16.899	2.3636	0.1	1570.7
24572	16.991	2.4545	0.1	1548.4
24573	16.714	2.3636	0.1	1615.3
24574	16.807	2.4545	0.1	1592.8
24575	16.53	2.3636	0.1	1660.
24576	16.622	2.4545	0.1	1637.5
24577	16.346	2.3636	0.1	1705.
24578	16.438	2.4545	0.1	1682.3
24579	16.161	2.3636	0.1	1750.1
24580	16.253	2.4545	0.1	1727.4
24581	15.977	2.3636	0.1	1795.5
24582	16.069	2.4545	0.1	1772.6
24583	15.792	2.3636	0.1	1841.
24584	15.884	2.4545	0.1	1818.1
24585	15.608	2.3636	0.1	1886.8
24586	15.7	2.4545	0.1	1863.7
24587	15.423	2.3636	0.1	1932.7
24588	15.516	2.4545	0.1	1909.6
24589	15.239	2.3636	0.1	1978.9
24590	15.331	2.4545	0.1	1955.6
24591	15.054	2.3636	0.1	2025.3
24592	15.147	2.4545	0.1	2001.9
24593	14.87	2.3636	0.1	2071.8
24594	14.962	2.4545	0.1	2048.4
24595	14.686	2.3636	0.1	2118.6
24596	14.778	2.4545	0.1	2095.
24597	14.501	2.3636	0.1	2165.5
24598	14.593	2.4545	0.1	2141.9
24599	14.317	2.3636	0.1	2212.7
24600	14.409	2.4545	0.1	2188.9
24601	14.132	2.3636	0.1	2260.
24602	14.224	2.4545	0.1	2236.2
24603	13.948	2.3636	0.1	2307.6
24604	14.04	2.4545	0.1	2283.6
24605	13.763	2.3636	0.1	2355.3
24606	13.856	2.4545	0.1	2331.2
24607	13.579	2.3636	0.1	2403.2
24608	13.671	2.4545	0.1	2379.1
24609	13.394	2.3636	0.1	2451.4
24610	13.487	2.4545	0.1	2427.1
24611	13.21	2.3636	0.1	2499.7
24612	13.302	2.4545	0.1	2475.3
24613	13.026	2.3636	0.1	2548.2
24614	13.118	2.4545	0.1	2523.7
24615	12.841	2.3636	0.1	2596.9
24616	12.933	2.4545	0.1	2572.4
24617	12.657	2.3636	0.1	2645.8
24618	12.749	2.4545	0.1	2621.2
24619	12.472	2.3636	0.1	2694.9
24620	12.564	2.4545	0.1	2670.2
24621	12.288	2.3636	0.1	2744.2
24622	12.38	2.4545	0.1	2719.3
24623	12.103	2.3636	0.1	2793.7
24624	12.196	2.4545	0.1	2768.7
24625	11.919	2.3636	0.1	2843.3
24626	12.011	2.4545	0.1	2818.3
24627	11.734	2.3636	0.1	2893.2
24628	11.827	2.4545	0.1	2868.
24629	11.55	2.3636	0.1	2943.2
24630	11.642	2.4545	0.1	2917.9
24631	11.366	2.3636	0.1	2993.4
24632	11.458	2.4545	0.1	2968.1
24633	11.181	2.3636	0.1	3043.8
24634	11.273	2.4545	0.1	3018.4
24635	10.997	2.3636	0.1	3094.4
24636	11.089	2.4545	0.1	3068.8
24637	10.812	2.3636	0.1	3145.2
24638	10.904	2.4545	0.1	3119.5
24639	10.628	2.3636	0.1	3196.1
24640	10.72	2.4545	0.1	3170.4
24641	10.443	2.3636	0.1	3247.2
24642	10.536	2.4545	0.1	3221.4
24643	10.259	2.3636	0.1	3298.5
24644	10.351	2.4545	0.1	3272.6
24645	10.074	2.3636	0.1	3350.
24646	10.167	2.4545	0.1	3324.
24647	9.89	2.3636	0.1	3401.6
24648	9.9822	2.4545	0.1	3375.5
24649	9.7056	2.3636	0.1	3453.5
24650	9.7978	2.4545	0.1	3427.2
24651	9.5211	2.3636	0.1	3505.5
24652	9.6133	2.4545	0.1	3479.1
24653	9.3367	2.3636	0.1	3557.6
24654	9.4289	2.4545	0.1	3531.2
24655	9.1522	2.3636	0.1	3610.
24656	9.2444	2.4545	0.1	3583.5
24657	8.9678	2.3636	0.1	3662.5
24658	9.06	2.4545	0.1	3635.9
24659	8.7833	2.3636	0.1	3715.2
24660	8.8756	2.4545	0.1	3688.5
24661	8.5989	2.3636	0.1	3768.1
24662	8.6911	2.4545	0.1	3741.3
24663	8.4144	2.3636	0.1	3821.2
24664	8.5067	2.4545	0.1	3794.2
24665	8.23	2.3636	0.1	3874.5
24666	8.3222	2.4545	0.1	3847.4
24667	8.0456	2.3636	0.1	3928.
24668	8.1378	2.4545	0.1	3900.8
24669	7.8611	2.3636	0.1	3981.8
24670	7.9533	2.4545	0.1	3954.4
24671	7.6767	2.3636	0.1	4035.8
24672	7.7689	2.4545	0.1	4008.2
24673	7.4922	2.3636	0.1	4090.1
24674	7.5844	2.4545	0.1	4062.4
24675	7.3078	2.3636	0.1	4144.8
24676	7.4	2.4545	0.1	4116.8
24677	7.1233	2.3636	0.1	4199.9
24678	7.2156	2.4545	0.1	4171.7
24679	6.9389	2.3636	0.1	4255.5
24680	7.0311	2.4545	0.1	4227.
24681	6.7544	2.3636	0.1	4311.7
24682	6.8467	2.4545	0.1	4283.
24683	6.57	2.3636	0.1	4368.7
24684	6.6622	2.4545	0.1	4339.6
24685	6.3856	2.3636	0.1	4426.7
24686	6.4778	2.4545	0.1	4397.1
24687	6.2011	2.3636	0.1	4485.8
24688	6.2933	2.4545	0.1	4455.7
24689	6.0167	2.3636	0.1	4546.5
24690	6.1089	2.4545	0.1	4515.8
24691	5.8322	2.3636	0.1	4609.2
24692	5.9244	2.4545	0.1	4577.6
24693	5.6478	2.3636	0.1	4674.3
24694	5.74	2.4545	0.1	4641.8
24695	5.4633	2.3636	0.1	4742.6
24696	5.5556	2.4545	0.1	4708.8
24697	5.2789	2.3636	0.1	4815.
24698	5.3711	2.4545	0.1	4779.7
24699	5.0944	2.3636	0.1	4892.5
24700	5.1867	2.4545	0.1	4855.3
24701	4.91	2.3636	0.1	4976.6
24702	5.0022	2.4545	0.1	4937.2
24703	4.7256	2.3636	0.1	5069.3
24704	4.8178	2.4545	0.1	5026.9
24705	4.5411	2.3636	0.1	5172.8
24706	4.6333	2.4545	0.1	5126.8
24707	4.3567	2.3636	0.1	5290.2
24708	4.4489	2.4545	0.1	5239.7
24709	4.1722	2.3636	0.1	5425.5
24710	4.2644	2.4545	0.1	5369.4
24711	3.9878	2.3636	0.1	5583.8
24712	4.08	2.4545	0.1	5520.6
24713	3.8033	2.3636	0.1	5771.9
24714	3.8956	2.4545	0.1	5699.7
24715	3.6189	2.3636	0.1	5998.6
24716	3.7111	2.4545	0.1	5914.7
24717	3.4344	2.3636	0.1	6276.
24718	3.5267	2.4545	0.1	6176.7
24719	3.25	2.3636	0.1	6621.
24720	3.3422	2.4545	0.1	6500.1
24721	3.0656	2.3636	0.1	7057.4
24722	3.1578	2.4545	0.1	6905.2
24723	2.8811	2.3636	0.1	7621.8
24724	2.9733	2.4545	0.1	7420.2
24725	2.6967	2.3636	0.1	8372.4
24726	2.7889	2.4545	0.1	8086.6
24727	2.5122	2.3636	0.1	9409.3
24728	2.6044	2.4545	0.1	8966.5
24729	2.3278	2.3636	0.1	10906
24730	2.42	2.4545	0.1	10155
24731	2.1433	2.3636	0.1	13065
24732	2.2356	2.4545	0.1	11781
24733	2.0511	2.4545	0.1	13861
24734	1.9589	2.3636	0.1	15368
24735	23.723	2.5455	0.1	59.262
24736	23.816	2.6364	0.1	39.794
24737	23.908	2.5455	0.1	22.407
24738	23.539	2.5455	0.1	98.292
24739	23.631	2.6364	0.1	78.814
24740	23.354	2.5455	0.1	137.2
24741	23.447	2.6364	0.1	117.83
24742	23.17	2.5455	0.1	175.97
24743	23.262	2.6364	0.1	156.67
24744	22.986	2.5455	0.1	214.63
24745	23.078	2.6364	0.1	195.39
24746	22.801	2.5455	0.1	253.24
24747	22.893	2.6364	0.1	234.03
24748	22.617	2.5455	0.1	291.83
24749	22.709	2.6364	0.1	272.62
24750	22.432	2.5455	0.1	330.44
24751	22.524	2.6364	0.1	311.22
24752	22.248	2.5455	0.1	369.11
24753	22.34	2.6364	0.1	349.86
24754	22.063	2.5455	0.1	407.88
24755	22.156	2.6364	0.1	388.57
24756	21.879	2.5455	0.1	446.76
24757	21.971	2.6364	0.1	427.38
24758	21.694	2.5455	0.1	485.78
24759	21.787	2.6364	0.1	466.32
24760	21.51	2.5455	0.1	524.95
24761	21.602	2.6364	0.1	505.41
24762	21.326	2.5455	0.1	564.3
24763	21.418	2.6364	0.1	544.66
24764	21.141	2.5455	0.1	603.83
24765	21.233	2.6364	0.1	584.08
24766	20.957	2.5455	0.1	643.55
24767	21.049	2.6364	0.1	623.69
24768	20.772	2.5455	0.1	683.47
24769	20.864	2.6364	0.1	663.5
24770	20.588	2.5455	0.1	723.6
24771	20.68	2.6364	0.1	703.51
24772	20.403	2.5455	0.1	763.93
24773	20.496	2.6364	0.1	743.73
24774	20.219	2.5455	0.1	804.47
24775	20.311	2.6364	0.1	784.15
24776	20.034	2.5455	0.1	845.22
24777	20.127	2.6364	0.1	824.79
24778	19.85	2.5455	0.1	886.19
24779	19.942	2.6364	0.1	865.64
24780	19.666	2.5455	0.1	927.37
24781	19.758	2.6364	0.1	906.7
24782	19.481	2.5455	0.1	968.76
24783	19.573	2.6364	0.1	947.98
24784	19.297	2.5455	0.1	1010.4
24785	19.389	2.6364	0.1	989.48
24786	19.112	2.5455	0.1	1052.2
24787	19.204	2.6364	0.1	1031.2
24788	18.928	2.5455	0.1	1094.2
24789	19.02	2.6364	0.1	1073.1
24790	18.743	2.5455	0.1	1136.5
24791	18.836	2.6364	0.1	1115.2
24792	18.559	2.5455	0.1	1178.9
24793	18.651	2.6364	0.1	1157.6
24794	18.374	2.5455	0.1	1221.6
24795	18.467	2.6364	0.1	1200.2
24796	18.19	2.5455	0.1	1264.5
24797	18.282	2.6364	0.1	1242.9
24798	18.006	2.5455	0.1	1307.6
24799	18.098	2.6364	0.1	1285.9
24800	17.821	2.5455	0.1	1350.9
24801	17.913	2.6364	0.1	1329.1
24802	17.637	2.5455	0.1	1394.4
24803	17.729	2.6364	0.1	1372.5
24804	17.452	2.5455	0.1	1438.1
24805	17.544	2.6364	0.1	1416.1
24806	17.268	2.5455	0.1	1482.
24807	17.36	2.6364	0.1	1459.9
24808	17.083	2.5455	0.1	1526.2
24809	17.176	2.6364	0.1	1504.
24810	16.899	2.5455	0.1	1570.5
24811	16.991	2.6364	0.1	1548.2
24812	16.714	2.5455	0.1	1615.
24813	16.807	2.6364	0.1	1592.6
24814	16.53	2.5455	0.1	1659.8
24815	16.622	2.6364	0.1	1637.3
24816	16.346	2.5455	0.1	1704.7
24817	16.438	2.6364	0.1	1682.1
24818	16.161	2.5455	0.1	1749.9
24819	16.253	2.6364	0.1	1727.2
24820	15.977	2.5455	0.1	1795.2
24821	16.069	2.6364	0.1	1772.4
24822	15.792	2.5455	0.1	1840.8
24823	15.884	2.6364	0.1	1817.9
24824	15.608	2.5455	0.1	1886.5
24825	15.7	2.6364	0.1	1863.5
24826	15.423	2.5455	0.1	1932.5
24827	15.516	2.6364	0.1	1909.4
24828	15.239	2.5455	0.1	1978.7
24829	15.331	2.6364	0.1	1955.4
24830	15.054	2.5455	0.1	2025.
24831	15.147	2.6364	0.1	2001.7
24832	14.87	2.5455	0.1	2071.6
24833	14.962	2.6364	0.1	2048.1
24834	14.686	2.5455	0.1	2118.3
24835	14.778	2.6364	0.1	2094.8
24836	14.501	2.5455	0.1	2165.3
24837	14.593	2.6364	0.1	2141.6
24838	14.317	2.5455	0.1	2212.4
24839	14.409	2.6364	0.1	2188.7
24840	14.132	2.5455	0.1	2259.8
24841	14.224	2.6364	0.1	2235.9
24842	13.948	2.5455	0.1	2307.3
24843	14.04	2.6364	0.1	2283.4
24844	13.763	2.5455	0.1	2355.
24845	13.856	2.6364	0.1	2331.
24846	13.579	2.5455	0.1	2403.
24847	13.671	2.6364	0.1	2378.8
24848	13.394	2.5455	0.1	2451.1
24849	13.487	2.6364	0.1	2426.9
24850	13.21	2.5455	0.1	2499.4
24851	13.302	2.6364	0.1	2475.1
24852	13.026	2.5455	0.1	2547.9
24853	13.118	2.6364	0.1	2523.5
24854	12.841	2.5455	0.1	2596.6
24855	12.933	2.6364	0.1	2572.1
24856	12.657	2.5455	0.1	2645.5
24857	12.749	2.6364	0.1	2620.9
24858	12.472	2.5455	0.1	2694.6
24859	12.564	2.6364	0.1	2669.9
24860	12.288	2.5455	0.1	2743.9
24861	12.38	2.6364	0.1	2719.1
24862	12.103	2.5455	0.1	2793.3
24863	12.196	2.6364	0.1	2768.4
24864	11.919	2.5455	0.1	2843.
24865	12.011	2.6364	0.1	2818.
24866	11.734	2.5455	0.1	2892.8
24867	11.827	2.6364	0.1	2867.7
24868	11.55	2.5455	0.1	2942.8
24869	11.642	2.6364	0.1	2917.7
24870	11.366	2.5455	0.1	2993.
24871	11.458	2.6364	0.1	2967.8
24872	11.181	2.5455	0.1	3043.4
24873	11.273	2.6364	0.1	3018.1
24874	10.997	2.5455	0.1	3094.
24875	11.089	2.6364	0.1	3068.5
24876	10.812	2.5455	0.1	3144.7
24877	10.904	2.6364	0.1	3119.2
24878	10.628	2.5455	0.1	3195.7
24879	10.72	2.6364	0.1	3170.
24880	10.443	2.5455	0.1	3246.8
24881	10.536	2.6364	0.1	3221.
24882	10.259	2.5455	0.1	3298.
24883	10.351	2.6364	0.1	3272.2
24884	10.074	2.5455	0.1	3349.5
24885	10.167	2.6364	0.1	3323.6
24886	9.89	2.5455	0.1	3401.1
24887	9.9822	2.6364	0.1	3375.1
24888	9.7056	2.5455	0.1	3452.9
24889	9.7978	2.6364	0.1	3426.8
24890	9.5211	2.5455	0.1	3504.9
24891	9.6133	2.6364	0.1	3478.7
24892	9.3367	2.5455	0.1	3557.
24893	9.4289	2.6364	0.1	3530.7
24894	9.1522	2.5455	0.1	3609.3
24895	9.2444	2.6364	0.1	3582.9
24896	8.9678	2.5455	0.1	3661.8
24897	9.06	2.6364	0.1	3635.3
24898	8.7833	2.5455	0.1	3714.5
24899	8.8756	2.6364	0.1	3687.9
24900	8.5989	2.5455	0.1	3767.4
24901	8.6911	2.6364	0.1	3740.6
24902	8.4144	2.5455	0.1	3820.4
24903	8.5067	2.6364	0.1	3793.6
24904	8.23	2.5455	0.1	3873.6
24905	8.3222	2.6364	0.1	3846.7
24906	8.0456	2.5455	0.1	3927.1
24907	8.1378	2.6364	0.1	3900.
24908	7.8611	2.5455	0.1	3980.8
24909	7.9533	2.6364	0.1	3953.6
24910	7.6767	2.5455	0.1	4034.8
24911	7.7689	2.6364	0.1	4007.4
24912	7.4922	2.5455	0.1	4089.1
24913	7.5844	2.6364	0.1	4061.5
24914	7.3078	2.5455	0.1	4143.8
24915	7.4	2.6364	0.1	4116.
24916	7.1233	2.5455	0.1	4198.9
24917	7.2156	2.6364	0.1	4170.9
24918	6.9389	2.5455	0.1	4254.5
24919	7.0311	2.6364	0.1	4226.2
24920	6.7544	2.5455	0.1	4310.8
24921	6.8467	2.6364	0.1	4282.2
24922	6.57	2.5455	0.1	4368.
24923	6.6622	2.6364	0.1	4338.9
24924	6.3856	2.5455	0.1	4426.2
24925	6.4778	2.6364	0.1	4396.6
24926	6.2011	2.5455	0.1	4485.7
24927	6.2933	2.6364	0.1	4455.4
24928	6.0167	2.5455	0.1	4546.9
24929	6.1089	2.6364	0.1	4515.8
24930	5.8322	2.5455	0.1	4610.2
24931	5.9244	2.6364	0.1	4578.1
24932	5.6478	2.5455	0.1	4676.3
24933	5.74	2.6364	0.1	4642.9
24934	5.4633	2.5455	0.1	4745.9
24935	5.5556	2.6364	0.1	4711.
24936	5.2789	2.5455	0.1	4820.
24937	5.3711	2.6364	0.1	4783.1
24938	5.0944	2.5455	0.1	4900.
24939	5.1867	2.6364	0.1	4860.5
24940	4.91	2.5455	0.1	4987.4
24941	5.0022	2.6364	0.1	4944.6
24942	4.7256	2.5455	0.1	5084.4
24943	4.8178	2.6364	0.1	5037.5
24944	4.5411	2.5455	0.1	5193.7
24945	4.6333	2.6364	0.1	5141.6
24946	4.3567	2.5455	0.1	5318.9
24947	4.4489	2.6364	0.1	5260.2
24948	4.1722	2.5455	0.1	5464.5
24949	4.2644	2.6364	0.1	5397.4
24950	3.9878	2.5455	0.1	5636.4
24951	4.08	2.6364	0.1	5558.6
24952	3.8033	2.5455	0.1	5842.4
24953	3.8956	2.6364	0.1	5750.8
24954	3.6189	2.5455	0.1	6092.7
24955	3.7111	2.6364	0.1	5983.2
24956	3.4344	2.5455	0.1	6400.6
24957	3.5267	2.6364	0.1	6267.7
24958	3.25	2.5455	0.1	6784.3
24959	3.3422	2.6364	0.1	6620.1
24960	3.0656	2.5455	0.1	7268.1
24961	3.1578	2.6364	0.1	7061.2
24962	2.8811	2.5455	0.1	7885.8
24963	2.9733	2.6364	0.1	7618.1
24964	2.6967	2.5455	0.1	8683.5
24965	2.7889	2.6364	0.1	8325.6
24966	2.5122	2.5455	0.1	9720.2
24967	2.6044	2.6364	0.1	9225.8
24968	2.3278	2.5455	0.1	11047
24969	2.42	2.6364	0.1	10358
24970	2.1433	2.5455	0.1	12594
24971	2.2356	2.6364	0.1	11717
24972	2.0511	2.6364	0.1	13124
24973	1.9589	2.5455	0.1	13992
24974	23.723	2.7273	0.1	59.267
24975	23.816	2.8182	0.1	39.781
24976	23.908	2.7273	0.1	22.393
24977	23.539	2.7273	0.1	98.339
24978	23.631	2.8182	0.1	78.834
24979	23.354	2.7273	0.1	137.29
24980	23.447	2.8182	0.1	117.88
24981	23.17	2.7273	0.1	176.1
24982	23.262	2.8182	0.1	156.75
24983	22.986	2.7273	0.1	214.79
24984	23.078	2.8182	0.1	195.5
24985	22.801	2.7273	0.1	253.43
24986	22.893	2.8182	0.1	234.16
24987	22.617	2.7273	0.1	292.04
24988	22.709	2.8182	0.1	272.77
24989	22.432	2.7273	0.1	330.66
24990	22.524	2.8182	0.1	311.38
24991	22.248	2.7273	0.1	369.34
24992	22.34	2.8182	0.1	350.03
24993	22.063	2.7273	0.1	408.1
24994	22.156	2.8182	0.1	388.74
24995	21.879	2.7273	0.1	446.97
24996	21.971	2.8182	0.1	427.55
24997	21.694	2.7273	0.1	485.98
24998	21.787	2.8182	0.1	466.48
24999	21.51	2.7273	0.1	525.14
25000	21.602	2.8182	0.1	505.55
25001	21.326	2.7273	0.1	564.46
25002	21.418	2.8182	0.1	544.79
25003	21.141	2.7273	0.1	603.97
25004	21.233	2.8182	0.1	584.2
25005	20.957	2.7273	0.1	643.67
25006	21.049	2.8182	0.1	623.79
25007	20.772	2.7273	0.1	683.57
25008	20.864	2.8182	0.1	663.58
25009	20.588	2.7273	0.1	723.67
25010	20.68	2.8182	0.1	703.57
25011	20.403	2.7273	0.1	763.98
25012	20.496	2.8182	0.1	743.77
25013	20.219	2.7273	0.1	804.5
25014	20.311	2.8182	0.1	784.18
25015	20.034	2.7273	0.1	845.24
25016	20.127	2.8182	0.1	824.81
25017	19.85	2.7273	0.1	886.19
25018	19.942	2.8182	0.1	865.64
25019	19.666	2.7273	0.1	927.35
25020	19.758	2.8182	0.1	906.69
25021	19.481	2.7273	0.1	968.73
25022	19.573	2.8182	0.1	947.96
25023	19.297	2.7273	0.1	1010.3
25024	19.389	2.8182	0.1	989.44
25025	19.112	2.7273	0.1	1052.1
25026	19.204	2.8182	0.1	1031.1
25027	18.928	2.7273	0.1	1094.2
25028	19.02	2.8182	0.1	1073.1
25029	18.743	2.7273	0.1	1136.4
25030	18.836	2.8182	0.1	1115.2
25031	18.559	2.7273	0.1	1178.8
25032	18.651	2.8182	0.1	1157.5
25033	18.374	2.7273	0.1	1221.5
25034	18.467	2.8182	0.1	1200.1
25035	18.19	2.7273	0.1	1264.4
25036	18.282	2.8182	0.1	1242.8
25037	18.006	2.7273	0.1	1307.5
25038	18.098	2.8182	0.1	1285.8
25039	17.821	2.7273	0.1	1350.8
25040	17.913	2.8182	0.1	1329.
25041	17.637	2.7273	0.1	1394.3
25042	17.729	2.8182	0.1	1372.4
25043	17.452	2.7273	0.1	1438.
25044	17.544	2.8182	0.1	1416.
25045	17.268	2.7273	0.1	1481.9
25046	17.36	2.8182	0.1	1459.8
25047	17.083	2.7273	0.1	1526.
25048	17.176	2.8182	0.1	1503.9
25049	16.899	2.7273	0.1	1570.4
25050	16.991	2.8182	0.1	1548.1
25051	16.714	2.7273	0.1	1614.9
25052	16.807	2.8182	0.1	1592.5
25053	16.53	2.7273	0.1	1659.6
25054	16.622	2.8182	0.1	1637.2
25055	16.346	2.7273	0.1	1704.6
25056	16.438	2.8182	0.1	1682.
25057	16.161	2.7273	0.1	1749.7
25058	16.253	2.8182	0.1	1727.
25059	15.977	2.7273	0.1	1795.1
25060	16.069	2.8182	0.1	1772.3
25061	15.792	2.7273	0.1	1840.6
25062	15.884	2.8182	0.1	1817.7
25063	15.608	2.7273	0.1	1886.4
25064	15.7	2.8182	0.1	1863.4
25065	15.423	2.7273	0.1	1932.3
25066	15.516	2.8182	0.1	1909.2
25067	15.239	2.7273	0.1	1978.5
25068	15.331	2.8182	0.1	1955.3
25069	15.054	2.7273	0.1	2024.8
25070	15.147	2.8182	0.1	2001.6
25071	14.87	2.7273	0.1	2071.4
25072	14.962	2.8182	0.1	2048.
25073	14.686	2.7273	0.1	2118.1
25074	14.778	2.8182	0.1	2094.7
25075	14.501	2.7273	0.1	2165.1
25076	14.593	2.8182	0.1	2141.5
25077	14.317	2.7273	0.1	2212.2
25078	14.409	2.8182	0.1	2188.6
25079	14.132	2.7273	0.1	2259.6
25080	14.224	2.8182	0.1	2235.8
25081	13.948	2.7273	0.1	2307.1
25082	14.04	2.8182	0.1	2283.2
25083	13.763	2.7273	0.1	2354.9
25084	13.856	2.8182	0.1	2330.9
25085	13.579	2.7273	0.1	2402.8
25086	13.671	2.8182	0.1	2378.7
25087	13.394	2.7273	0.1	2450.9
25088	13.487	2.8182	0.1	2426.7
25089	13.21	2.7273	0.1	2499.2
25090	13.302	2.8182	0.1	2475.
25091	13.026	2.7273	0.1	2547.7
25092	13.118	2.8182	0.1	2523.4
25093	12.841	2.7273	0.1	2596.4
25094	12.933	2.8182	0.1	2572.
25095	12.657	2.7273	0.1	2645.3
25096	12.749	2.8182	0.1	2620.8
25097	12.472	2.7273	0.1	2694.4
25098	12.564	2.8182	0.1	2669.7
25099	12.288	2.7273	0.1	2743.7
25100	12.38	2.8182	0.1	2718.9
25101	12.103	2.7273	0.1	2793.1
25102	12.196	2.8182	0.1	2768.3
25103	11.919	2.7273	0.1	2842.8
25104	12.011	2.8182	0.1	2817.8
25105	11.734	2.7273	0.1	2892.6
25106	11.827	2.8182	0.1	2867.6
25107	11.55	2.7273	0.1	2942.6
25108	11.642	2.8182	0.1	2917.5
25109	11.366	2.7273	0.1	2992.8
25110	11.458	2.8182	0.1	2967.6
25111	11.181	2.7273	0.1	3043.2
25112	11.273	2.8182	0.1	3017.9
25113	10.997	2.7273	0.1	3093.7
25114	11.089	2.8182	0.1	3068.3
25115	10.812	2.7273	0.1	3144.5
25116	10.904	2.8182	0.1	3119.
25117	10.628	2.7273	0.1	3195.4
25118	10.72	2.8182	0.1	3169.8
25119	10.443	2.7273	0.1	3246.5
25120	10.536	2.8182	0.1	3220.8
25121	10.259	2.7273	0.1	3297.7
25122	10.351	2.8182	0.1	3272.
25123	10.074	2.7273	0.1	3349.2
25124	10.167	2.8182	0.1	3323.3
25125	9.89	2.7273	0.1	3400.8
25126	9.9822	2.8182	0.1	3374.8
25127	9.7056	2.7273	0.1	3452.6
25128	9.7978	2.8182	0.1	3426.5
25129	9.5211	2.7273	0.1	3504.5
25130	9.6133	2.8182	0.1	3478.4
25131	9.3367	2.7273	0.1	3556.6
25132	9.4289	2.8182	0.1	3530.4
25133	9.1522	2.7273	0.1	3608.9
25134	9.2444	2.8182	0.1	3582.6
25135	8.9678	2.7273	0.1	3661.4
25136	9.06	2.8182	0.1	3635.
25137	8.7833	2.7273	0.1	3714.
25138	8.8756	2.8182	0.1	3687.5
25139	8.5989	2.7273	0.1	3766.8
25140	8.6911	2.8182	0.1	3740.3
25141	8.4144	2.7273	0.1	3819.9
25142	8.5067	2.8182	0.1	3793.2
25143	8.23	2.7273	0.1	3873.1
25144	8.3222	2.8182	0.1	3846.3
25145	8.0456	2.7273	0.1	3926.5
25146	8.1378	2.8182	0.1	3899.6
25147	7.8611	2.7273	0.1	3980.2
25148	7.9533	2.8182	0.1	3953.1
25149	7.6767	2.7273	0.1	4034.2
25150	7.7689	2.8182	0.1	4006.9
25151	7.4922	2.7273	0.1	4088.4
25152	7.5844	2.8182	0.1	4061.
25153	7.3078	2.7273	0.1	4143.1
25154	7.4	2.8182	0.1	4115.5
25155	7.1233	2.7273	0.1	4198.2
25156	7.2156	2.8182	0.1	4170.4
25157	6.9389	2.7273	0.1	4253.9
25158	7.0311	2.8182	0.1	4225.7
25159	6.7544	2.7273	0.1	4310.2
25160	6.8467	2.8182	0.1	4281.7
25161	6.57	2.7273	0.1	4367.5
25162	6.6622	2.8182	0.1	4338.5
25163	6.3856	2.7273	0.1	4425.8
25164	6.4778	2.8182	0.1	4396.2
25165	6.2011	2.7273	0.1	4485.6
25166	6.2933	2.8182	0.1	4455.2
25167	6.0167	2.7273	0.1	4547.1
25168	6.1089	2.8182	0.1	4515.8
25169	5.8322	2.7273	0.1	4610.9
25170	5.9244	2.8182	0.1	4578.4
25171	5.6478	2.7273	0.1	4677.6
25172	5.74	2.8182	0.1	4643.7
25173	5.4633	2.7273	0.1	4748.1
25174	5.5556	2.8182	0.1	4712.2
25175	5.2789	2.7273	0.1	4823.5
25176	5.3711	2.8182	0.1	4785.1
25177	5.0944	2.7273	0.1	4905.1
25178	5.1867	2.8182	0.1	4863.6
25179	4.91	2.7273	0.1	4994.7
25180	5.0022	2.8182	0.1	4949.2
25181	4.7256	2.7273	0.1	5094.8
25182	4.8178	2.8182	0.1	5044.
25183	4.5411	2.7273	0.1	5208.1
25184	4.6333	2.8182	0.1	5150.7
25185	4.3567	2.7273	0.1	5338.7
25186	4.4489	2.8182	0.1	5272.8
25187	4.1722	2.7273	0.1	5491.4
25188	4.2644	2.8182	0.1	5414.6
25189	3.9878	2.7273	0.1	5672.9
25190	4.08	2.8182	0.1	5582.
25191	3.8033	2.7273	0.1	5891.5
25192	3.8956	2.8182	0.1	5782.4
25193	3.6189	2.7273	0.1	6158.2
25194	3.7111	2.8182	0.1	6025.6
25195	3.4344	2.7273	0.1	6487.4
25196	3.5267	2.8182	0.1	6324.3
25197	3.25	2.7273	0.1	6897.5
25198	3.3422	2.8182	0.1	6694.7
25199	3.0656	2.7273	0.1	7412.2
25200	3.1578	2.8182	0.1	7157.5
25201	2.8811	2.7273	0.1	8060.1
25202	2.9733	2.8182	0.1	7738.1
25203	2.6967	2.7273	0.1	8872.5
25204	2.7889	2.8182	0.1	8464.7
25205	2.5122	2.7273	0.1	9871.6
25206	2.6044	2.8182	0.1	9361.9
25207	2.3278	2.7273	0.1	11039
25208	2.42	2.8182	0.1	10431
25209	2.1433	2.7273	0.1	12254
25210	2.2356	2.8182	0.1	11610
25211	2.0511	2.8182	0.1	12715
25212	1.9589	2.7273	0.1	13247
25213	23.723	2.9091	0.1	59.268
25214	23.816	3.	0.1	39.776
25215	23.908	2.9091	0.1	22.386
25216	23.539	2.9091	0.1	98.362
25217	23.631	3.	0.1	78.84
25218	23.354	2.9091	0.1	137.34
25219	23.447	3.	0.1	117.89
25220	23.17	2.9091	0.1	176.16
25221	23.262	3.	0.1	156.77
25222	22.986	2.9091	0.1	214.87
25223	23.078	3.	0.1	195.53
25224	22.801	2.9091	0.1	253.52
25225	22.893	3.	0.1	234.2
25226	22.617	2.9091	0.1	292.14
25227	22.709	3.	0.1	272.82
25228	22.432	2.9091	0.1	330.77
25229	22.524	3.	0.1	311.44
25230	22.248	2.9091	0.1	369.45
25231	22.34	3.	0.1	350.08
25232	22.063	2.9091	0.1	408.21
25233	22.156	3.	0.1	388.79
25234	21.879	2.9091	0.1	447.08
25235	21.971	3.	0.1	427.6
25236	21.694	2.9091	0.1	486.08
25237	21.787	3.	0.1	466.53
25238	21.51	2.9091	0.1	525.23
25239	21.602	3.	0.1	505.6
25240	21.326	2.9091	0.1	564.55
25241	21.418	3.	0.1	544.83
25242	21.141	2.9091	0.1	604.04
25243	21.233	3.	0.1	584.23
25244	20.957	2.9091	0.1	643.73
25245	21.049	3.	0.1	623.82
25246	20.772	2.9091	0.1	683.62
25247	20.864	3.	0.1	663.61
25248	20.588	2.9091	0.1	723.71
25249	20.68	3.	0.1	703.6
25250	20.403	2.9091	0.1	764.01
25251	20.496	3.	0.1	743.79
25252	20.219	2.9091	0.1	804.52
25253	20.311	3.	0.1	784.19
25254	20.034	2.9091	0.1	845.24
25255	20.127	3.	0.1	824.81
25256	19.85	2.9091	0.1	886.18
25257	19.942	3.	0.1	865.64
25258	19.666	2.9091	0.1	927.34
25259	19.758	3.	0.1	906.69
25260	19.481	2.9091	0.1	968.71
25261	19.573	3.	0.1	947.95
25262	19.297	2.9091	0.1	1010.3
25263	19.389	3.	0.1	989.43
25264	19.112	2.9091	0.1	1052.1
25265	19.204	3.	0.1	1031.1
25266	18.928	2.9091	0.1	1094.1
25267	19.02	3.	0.1	1073.
25268	18.743	2.9091	0.1	1136.4
25269	18.836	3.	0.1	1115.2
25270	18.559	2.9091	0.1	1178.8
25271	18.651	3.	0.1	1157.5
25272	18.374	2.9091	0.1	1221.5
25273	18.467	3.	0.1	1200.1
25274	18.19	2.9091	0.1	1264.3
25275	18.282	3.	0.1	1242.8
25276	18.006	2.9091	0.1	1307.4
25277	18.098	3.	0.1	1285.8
25278	17.821	2.9091	0.1	1350.7
25279	17.913	3.	0.1	1329.
25280	17.637	2.9091	0.1	1394.2
25281	17.729	3.	0.1	1372.4
25282	17.452	2.9091	0.1	1437.9
25283	17.544	3.	0.1	1416.
25284	17.268	2.9091	0.1	1481.8
25285	17.36	3.	0.1	1459.8
25286	17.083	2.9091	0.1	1525.9
25287	17.176	3.	0.1	1503.8
25288	16.899	2.9091	0.1	1570.3
25289	16.991	3.	0.1	1548.
25290	16.714	2.9091	0.1	1614.8
25291	16.807	3.	0.1	1592.5
25292	16.53	2.9091	0.1	1659.6
25293	16.622	3.	0.1	1637.1
25294	16.346	2.9091	0.1	1704.5
25295	16.438	3.	0.1	1682.
25296	16.161	2.9091	0.1	1749.6
25297	16.253	3.	0.1	1727.
25298	15.977	2.9091	0.1	1795.
25299	16.069	3.	0.1	1772.3
25300	15.792	2.9091	0.1	1840.5
25301	15.884	3.	0.1	1817.7
25302	15.608	2.9091	0.1	1886.3
25303	15.7	3.	0.1	1863.4
25304	15.423	2.9091	0.1	1932.2
25305	15.516	3.	0.1	1909.2
25306	15.239	2.9091	0.1	1978.4
25307	15.331	3.	0.1	1955.3
25308	15.054	2.9091	0.1	2024.8
25309	15.147	3.	0.1	2001.5
25310	14.87	2.9091	0.1	2071.3
25311	14.962	3.	0.1	2048.
25312	14.686	2.9091	0.1	2118.1
25313	14.778	3.	0.1	2094.6
25314	14.501	2.9091	0.1	2165.
25315	14.593	3.	0.1	2141.5
25316	14.317	2.9091	0.1	2212.2
25317	14.409	3.	0.1	2188.5
25318	14.132	2.9091	0.1	2259.5
25319	14.224	3.	0.1	2235.8
25320	13.948	2.9091	0.1	2307.
25321	14.04	3.	0.1	2283.2
25322	13.763	2.9091	0.1	2354.8
25323	13.856	3.	0.1	2330.8
25324	13.579	2.9091	0.1	2402.7
25325	13.671	3.	0.1	2378.7
25326	13.394	2.9091	0.1	2450.8
25327	13.487	3.	0.1	2426.7
25328	13.21	2.9091	0.1	2499.1
25329	13.302	3.	0.1	2474.9
25330	13.026	2.9091	0.1	2547.6
25331	13.118	3.	0.1	2523.3
25332	12.841	2.9091	0.1	2596.3
25333	12.933	3.	0.1	2571.9
25334	12.657	2.9091	0.1	2645.2
25335	12.749	3.	0.1	2620.7
25336	12.472	2.9091	0.1	2694.3
25337	12.564	3.	0.1	2669.7
25338	12.288	2.9091	0.1	2743.6
25339	12.38	3.	0.1	2718.9
25340	12.103	2.9091	0.1	2793.
25341	12.196	3.	0.1	2768.2
25342	11.919	2.9091	0.1	2842.6
25343	12.011	3.	0.1	2817.8
25344	11.734	2.9091	0.1	2892.5
25345	11.827	3.	0.1	2867.5
25346	11.55	2.9091	0.1	2942.5
25347	11.642	3.	0.1	2917.4
25348	11.366	2.9091	0.1	2992.7
25349	11.458	3.	0.1	2967.5
25350	11.181	2.9091	0.1	3043.
25351	11.273	3.	0.1	3017.8
25352	10.997	2.9091	0.1	3093.6
25353	11.089	3.	0.1	3068.3
25354	10.812	2.9091	0.1	3144.3
25355	10.904	3.	0.1	3118.9
25356	10.628	2.9091	0.1	3195.2
25357	10.72	3.	0.1	3169.7
25358	10.443	2.9091	0.1	3246.3
25359	10.536	3.	0.1	3220.7
25360	10.259	2.9091	0.1	3297.6
25361	10.351	3.	0.1	3271.9
25362	10.074	2.9091	0.1	3349.
25363	10.167	3.	0.1	3323.2
25364	9.89	2.9091	0.1	3400.6
25365	9.9822	3.	0.1	3374.8
25366	9.7056	2.9091	0.1	3452.4
25367	9.7978	3.	0.1	3426.4
25368	9.5211	2.9091	0.1	3504.3
25369	9.6133	3.	0.1	3478.3
25370	9.3367	2.9091	0.1	3556.4
25371	9.4289	3.	0.1	3530.3
25372	9.1522	2.9091	0.1	3608.7
25373	9.2444	3.	0.1	3582.5
25374	8.9678	2.9091	0.1	3661.1
25375	9.06	3.	0.1	3634.9
25376	8.7833	2.9091	0.1	3713.8
25377	8.8756	3.	0.1	3687.4
25378	8.5989	2.9091	0.1	3766.6
25379	8.6911	3.	0.1	3740.1
25380	8.4144	2.9091	0.1	3819.6
25381	8.5067	3.	0.1	3793.
25382	8.23	2.9091	0.1	3872.8
25383	8.3222	3.	0.1	3846.1
25384	8.0456	2.9091	0.1	3926.2
25385	8.1378	3.	0.1	3899.4
25386	7.8611	2.9091	0.1	3979.9
25387	7.9533	3.	0.1	3953.
25388	7.6767	2.9091	0.1	4033.8
25389	7.7689	3.	0.1	4006.8
25390	7.4922	2.9091	0.1	4088.1
25391	7.5844	3.	0.1	4060.9
25392	7.3078	2.9091	0.1	4142.7
25393	7.4	3.	0.1	4115.3
25394	7.1233	2.9091	0.1	4197.9
25395	7.2156	3.	0.1	4170.2
25396	6.9389	2.9091	0.1	4253.6
25397	7.0311	3.	0.1	4225.6
25398	6.7544	2.9091	0.1	4309.9
25399	6.8467	3.	0.1	4281.6
25400	6.57	2.9091	0.1	4367.2
25401	6.6622	3.	0.1	4338.3
25402	6.3856	2.9091	0.1	4425.6
25403	6.4778	3.	0.1	4396.1
25404	6.2011	2.9091	0.1	4485.5
25405	6.2933	3.	0.1	4455.2
25406	6.0167	2.9091	0.1	4547.2
25407	6.1089	3.	0.1	4515.8
25408	5.8322	2.9091	0.1	4611.2
25409	5.9244	3.	0.1	4578.5
25410	5.6478	2.9091	0.1	4678.3
25411	5.74	3.	0.1	4643.9
25412	5.4633	2.9091	0.1	4749.2
25413	5.5556	3.	0.1	4712.7
25414	5.2789	2.9091	0.1	4825.2
25415	5.3711	3.	0.1	4785.8
25416	5.0944	2.9091	0.1	4907.7
25417	5.1867	3.	0.1	4864.6
25418	4.91	2.9091	0.1	4998.5
25419	5.0022	3.	0.1	4950.7
25420	4.7256	2.9091	0.1	5100.
25421	4.8178	3.	0.1	5046.2
25422	4.5411	2.9091	0.1	5215.4
25423	4.6333	3.	0.1	5153.8
25424	4.3567	2.9091	0.1	5348.7
25425	4.4489	3.	0.1	5277.
25426	4.1722	2.9091	0.1	5505.2
25427	4.2644	3.	0.1	5420.4
25428	3.9878	2.9091	0.1	5691.5
25429	4.08	3.	0.1	5589.9
25430	3.8033	2.9091	0.1	5916.6
25431	3.8956	3.	0.1	5793.1
25432	3.6189	2.9091	0.1	6191.9
25433	3.7111	3.	0.1	6040.1
25434	3.4344	2.9091	0.1	6531.9
25435	3.5267	3.	0.1	6343.5
25436	3.25	2.9091	0.1	6955.4
25437	3.3422	3.	0.1	6719.9
25438	3.0656	2.9091	0.1	7485.
25439	3.1578	3.	0.1	7190.
25440	2.8811	2.9091	0.1	8145.8
25441	2.9733	3.	0.1	7778.2
25442	2.6967	2.9091	0.1	8959.6
25443	2.7889	3.	0.1	8510.
25444	2.5122	2.9091	0.1	9929.7
25445	2.6044	3.	0.1	9403.5
25446	2.3278	2.9091	0.1	11012
25447	2.42	3.	0.1	10448
25448	2.1433	2.9091	0.1	12077
25449	2.2356	3.	0.1	11567
25450	2.0511	3.	0.1	12582
25451	1.9589	2.9091	0.1	12913
25452	23.723	3.0909	0.1	59.268
25453	23.816	3.1818	0.1	39.781
25454	23.908	3.0909	0.1	22.386
25455	23.539	3.0909	0.1	98.362
25456	23.631	3.1818	0.1	78.834
25457	23.354	3.0909	0.1	137.34
25458	23.447	3.1818	0.1	117.88
25459	23.17	3.0909	0.1	176.16
25460	23.262	3.1818	0.1	156.75
25461	22.986	3.0909	0.1	214.87
25462	23.078	3.1818	0.1	195.5
25463	22.801	3.0909	0.1	253.52
25464	22.893	3.1818	0.1	234.16
25465	22.617	3.0909	0.1	292.14
25466	22.709	3.1818	0.1	272.77
25467	22.432	3.0909	0.1	330.77
25468	22.524	3.1818	0.1	311.38
25469	22.248	3.0909	0.1	369.45
25470	22.34	3.1818	0.1	350.03
25471	22.063	3.0909	0.1	408.21
25472	22.156	3.1818	0.1	388.74
25473	21.879	3.0909	0.1	447.08
25474	21.971	3.1818	0.1	427.55
25475	21.694	3.0909	0.1	486.08
25476	21.787	3.1818	0.1	466.48
25477	21.51	3.0909	0.1	525.23
25478	21.602	3.1818	0.1	505.55
25479	21.326	3.0909	0.1	564.55
25480	21.418	3.1818	0.1	544.79
25481	21.141	3.0909	0.1	604.04
25482	21.233	3.1818	0.1	584.2
25483	20.957	3.0909	0.1	643.73
25484	21.049	3.1818	0.1	623.79
25485	20.772	3.0909	0.1	683.62
25486	20.864	3.1818	0.1	663.58
25487	20.588	3.0909	0.1	723.71
25488	20.68	3.1818	0.1	703.57
25489	20.403	3.0909	0.1	764.01
25490	20.496	3.1818	0.1	743.77
25491	20.219	3.0909	0.1	804.52
25492	20.311	3.1818	0.1	784.18
25493	20.034	3.0909	0.1	845.24
25494	20.127	3.1818	0.1	824.81
25495	19.85	3.0909	0.1	886.18
25496	19.942	3.1818	0.1	865.64
25497	19.666	3.0909	0.1	927.34
25498	19.758	3.1818	0.1	906.69
25499	19.481	3.0909	0.1	968.71
25500	19.573	3.1818	0.1	947.96
25501	19.297	3.0909	0.1	1010.3
25502	19.389	3.1818	0.1	989.44
25503	19.112	3.0909	0.1	1052.1
25504	19.204	3.1818	0.1	1031.1
25505	18.928	3.0909	0.1	1094.1
25506	19.02	3.1818	0.1	1073.1
25507	18.743	3.0909	0.1	1136.4
25508	18.836	3.1818	0.1	1115.2
25509	18.559	3.0909	0.1	1178.8
25510	18.651	3.1818	0.1	1157.5
25511	18.374	3.0909	0.1	1221.5
25512	18.467	3.1818	0.1	1200.1
25513	18.19	3.0909	0.1	1264.3
25514	18.282	3.1818	0.1	1242.8
25515	18.006	3.0909	0.1	1307.4
25516	18.098	3.1818	0.1	1285.8
25517	17.821	3.0909	0.1	1350.7
25518	17.913	3.1818	0.1	1329.
25519	17.637	3.0909	0.1	1394.2
25520	17.729	3.1818	0.1	1372.4
25521	17.452	3.0909	0.1	1437.9
25522	17.544	3.1818	0.1	1416.
25523	17.268	3.0909	0.1	1481.8
25524	17.36	3.1818	0.1	1459.8
25525	17.083	3.0909	0.1	1525.9
25526	17.176	3.1818	0.1	1503.9
25527	16.899	3.0909	0.1	1570.3
25528	16.991	3.1818	0.1	1548.1
25529	16.714	3.0909	0.1	1614.8
25530	16.807	3.1818	0.1	1592.5
25531	16.53	3.0909	0.1	1659.6
25532	16.622	3.1818	0.1	1637.2
25533	16.346	3.0909	0.1	1704.5
25534	16.438	3.1818	0.1	1682.
25535	16.161	3.0909	0.1	1749.6
25536	16.253	3.1818	0.1	1727.
25537	15.977	3.0909	0.1	1795.
25538	16.069	3.1818	0.1	1772.3
25539	15.792	3.0909	0.1	1840.5
25540	15.884	3.1818	0.1	1817.7
25541	15.608	3.0909	0.1	1886.3
25542	15.7	3.1818	0.1	1863.4
25543	15.423	3.0909	0.1	1932.2
25544	15.516	3.1818	0.1	1909.2
25545	15.239	3.0909	0.1	1978.4
25546	15.331	3.1818	0.1	1955.3
25547	15.054	3.0909	0.1	2024.8
25548	15.147	3.1818	0.1	2001.6
25549	14.87	3.0909	0.1	2071.3
25550	14.962	3.1818	0.1	2048.
25551	14.686	3.0909	0.1	2118.1
25552	14.778	3.1818	0.1	2094.7
25553	14.501	3.0909	0.1	2165.
25554	14.593	3.1818	0.1	2141.5
25555	14.317	3.0909	0.1	2212.2
25556	14.409	3.1818	0.1	2188.6
25557	14.132	3.0909	0.1	2259.5
25558	14.224	3.1818	0.1	2235.8
25559	13.948	3.0909	0.1	2307.
25560	14.04	3.1818	0.1	2283.2
25561	13.763	3.0909	0.1	2354.8
25562	13.856	3.1818	0.1	2330.9
25563	13.579	3.0909	0.1	2402.7
25564	13.671	3.1818	0.1	2378.7
25565	13.394	3.0909	0.1	2450.8
25566	13.487	3.1818	0.1	2426.7
25567	13.21	3.0909	0.1	2499.1
25568	13.302	3.1818	0.1	2475.
25569	13.026	3.0909	0.1	2547.6
25570	13.118	3.1818	0.1	2523.4
25571	12.841	3.0909	0.1	2596.3
25572	12.933	3.1818	0.1	2572.
25573	12.657	3.0909	0.1	2645.2
25574	12.749	3.1818	0.1	2620.8
25575	12.472	3.0909	0.1	2694.3
25576	12.564	3.1818	0.1	2669.7
25577	12.288	3.0909	0.1	2743.6
25578	12.38	3.1818	0.1	2718.9
25579	12.103	3.0909	0.1	2793.
25580	12.196	3.1818	0.1	2768.3
25581	11.919	3.0909	0.1	2842.6
25582	12.011	3.1818	0.1	2817.8
25583	11.734	3.0909	0.1	2892.5
25584	11.827	3.1818	0.1	2867.6
25585	11.55	3.0909	0.1	2942.5
25586	11.642	3.1818	0.1	2917.5
25587	11.366	3.0909	0.1	2992.7
25588	11.458	3.1818	0.1	2967.6
25589	11.181	3.0909	0.1	3043.
25590	11.273	3.1818	0.1	3017.9
25591	10.997	3.0909	0.1	3093.6
25592	11.089	3.1818	0.1	3068.3
25593	10.812	3.0909	0.1	3144.3
25594	10.904	3.1818	0.1	3119.
25595	10.628	3.0909	0.1	3195.2
25596	10.72	3.1818	0.1	3169.8
25597	10.443	3.0909	0.1	3246.3
25598	10.536	3.1818	0.1	3220.8
25599	10.259	3.0909	0.1	3297.6
25600	10.351	3.1818	0.1	3272.
25601	10.074	3.0909	0.1	3349.
25602	10.167	3.1818	0.1	3323.3
25603	9.89	3.0909	0.1	3400.6
25604	9.9822	3.1818	0.1	3374.8
25605	9.7056	3.0909	0.1	3452.4
25606	9.7978	3.1818	0.1	3426.5
25607	9.5211	3.0909	0.1	3504.3
25608	9.6133	3.1818	0.1	3478.4
25609	9.3367	3.0909	0.1	3556.4
25610	9.4289	3.1818	0.1	3530.4
25611	9.1522	3.0909	0.1	3608.7
25612	9.2444	3.1818	0.1	3582.6
25613	8.9678	3.0909	0.1	3661.1
25614	9.06	3.1818	0.1	3635.
25615	8.7833	3.0909	0.1	3713.8
25616	8.8756	3.1818	0.1	3687.5
25617	8.5989	3.0909	0.1	3766.6
25618	8.6911	3.1818	0.1	3740.3
25619	8.4144	3.0909	0.1	3819.6
25620	8.5067	3.1818	0.1	3793.2
25621	8.23	3.0909	0.1	3872.8
25622	8.3222	3.1818	0.1	3846.3
25623	8.0456	3.0909	0.1	3926.2
25624	8.1378	3.1818	0.1	3899.6
25625	7.8611	3.0909	0.1	3979.9
25626	7.9533	3.1818	0.1	3953.1
25627	7.6767	3.0909	0.1	4033.8
25628	7.7689	3.1818	0.1	4006.9
25629	7.4922	3.0909	0.1	4088.1
25630	7.5844	3.1818	0.1	4061.
25631	7.3078	3.0909	0.1	4142.7
25632	7.4	3.1818	0.1	4115.5
25633	7.1233	3.0909	0.1	4197.9
25634	7.2156	3.1818	0.1	4170.4
25635	6.9389	3.0909	0.1	4253.6
25636	7.0311	3.1818	0.1	4225.7
25637	6.7544	3.0909	0.1	4309.9
25638	6.8467	3.1818	0.1	4281.7
25639	6.57	3.0909	0.1	4367.2
25640	6.6622	3.1818	0.1	4338.5
25641	6.3856	3.0909	0.1	4425.6
25642	6.4778	3.1818	0.1	4396.2
25643	6.2011	3.0909	0.1	4485.5
25644	6.2933	3.1818	0.1	4455.2
25645	6.0167	3.0909	0.1	4547.2
25646	6.1089	3.1818	0.1	4515.8
25647	5.8322	3.0909	0.1	4611.2
25648	5.9244	3.1818	0.1	4578.4
25649	5.6478	3.0909	0.1	4678.3
25650	5.74	3.1818	0.1	4643.7
25651	5.4633	3.0909	0.1	4749.2
25652	5.5556	3.1818	0.1	4712.2
25653	5.2789	3.0909	0.1	4825.2
25654	5.3711	3.1818	0.1	4785.1
25655	5.0944	3.0909	0.1	4907.7
25656	5.1867	3.1818	0.1	4863.6
25657	4.91	3.0909	0.1	4998.5
25658	5.0022	3.1818	0.1	4949.2
25659	4.7256	3.0909	0.1	5100.
25660	4.8178	3.1818	0.1	5044.
25661	4.5411	3.0909	0.1	5215.4
25662	4.6333	3.1818	0.1	5150.7
25663	4.3567	3.0909	0.1	5348.7
25664	4.4489	3.1818	0.1	5272.8
25665	4.1722	3.0909	0.1	5505.2
25666	4.2644	3.1818	0.1	5414.6
25667	3.9878	3.0909	0.1	5691.5
25668	4.08	3.1818	0.1	5582.
25669	3.8033	3.0909	0.1	5916.6
25670	3.8956	3.1818	0.1	5782.4
25671	3.6189	3.0909	0.1	6191.9
25672	3.7111	3.1818	0.1	6025.6
25673	3.4344	3.0909	0.1	6531.9
25674	3.5267	3.1818	0.1	6324.3
25675	3.25	3.0909	0.1	6955.4
25676	3.3422	3.1818	0.1	6694.7
25677	3.0656	3.0909	0.1	7485.
25678	3.1578	3.1818	0.1	7157.5
25679	2.8811	3.0909	0.1	8145.8
25680	2.9733	3.1818	0.1	7738.1
25681	2.6967	3.0909	0.1	8959.6
25682	2.7889	3.1818	0.1	8464.7
25683	2.5122	3.0909	0.1	9929.7
25684	2.6044	3.1818	0.1	9361.9
25685	2.3278	3.0909	0.1	11012
25686	2.42	3.1818	0.1	10431
25687	2.1433	3.0909	0.1	12077
25688	2.2356	3.1818	0.1	11610
25689	2.0511	3.1818	0.1	12715
25690	1.9589	3.0909	0.1	12913
25691	23.723	3.2727	0.1	59.267
25692	23.816	3.3636	0.1	39.794
25693	23.908	3.2727	0.1	22.393
25694	23.539	3.2727	0.1	98.339
25695	23.631	3.3636	0.1	78.814
25696	23.354	3.2727	0.1	137.29
25697	23.447	3.3636	0.1	117.83
25698	23.17	3.2727	0.1	176.1
25699	23.262	3.3636	0.1	156.67
25700	22.986	3.2727	0.1	214.79
25701	23.078	3.3636	0.1	195.39
25702	22.801	3.2727	0.1	253.43
25703	22.893	3.3636	0.1	234.03
25704	22.617	3.2727	0.1	292.04
25705	22.709	3.3636	0.1	272.62
25706	22.432	3.2727	0.1	330.66
25707	22.524	3.3636	0.1	311.22
25708	22.248	3.2727	0.1	369.34
25709	22.34	3.3636	0.1	349.86
25710	22.063	3.2727	0.1	408.1
25711	22.156	3.3636	0.1	388.57
25712	21.879	3.2727	0.1	446.97
25713	21.971	3.3636	0.1	427.38
25714	21.694	3.2727	0.1	485.98
25715	21.787	3.3636	0.1	466.32
25716	21.51	3.2727	0.1	525.14
25717	21.602	3.3636	0.1	505.41
25718	21.326	3.2727	0.1	564.46
25719	21.418	3.3636	0.1	544.66
25720	21.141	3.2727	0.1	603.97
25721	21.233	3.3636	0.1	584.08
25722	20.957	3.2727	0.1	643.67
25723	21.049	3.3636	0.1	623.69
25724	20.772	3.2727	0.1	683.57
25725	20.864	3.3636	0.1	663.5
25726	20.588	3.2727	0.1	723.67
25727	20.68	3.3636	0.1	703.51
25728	20.403	3.2727	0.1	763.98
25729	20.496	3.3636	0.1	743.73
25730	20.219	3.2727	0.1	804.5
25731	20.311	3.3636	0.1	784.15
25732	20.034	3.2727	0.1	845.24
25733	20.127	3.3636	0.1	824.79
25734	19.85	3.2727	0.1	886.19
25735	19.942	3.3636	0.1	865.64
25736	19.666	3.2727	0.1	927.35
25737	19.758	3.3636	0.1	906.7
25738	19.481	3.2727	0.1	968.73
25739	19.573	3.3636	0.1	947.98
25740	19.297	3.2727	0.1	1010.3
25741	19.389	3.3636	0.1	989.48
25742	19.112	3.2727	0.1	1052.1
25743	19.204	3.3636	0.1	1031.2
25744	18.928	3.2727	0.1	1094.2
25745	19.02	3.3636	0.1	1073.1
25746	18.743	3.2727	0.1	1136.4
25747	18.836	3.3636	0.1	1115.2
25748	18.559	3.2727	0.1	1178.8
25749	18.651	3.3636	0.1	1157.6
25750	18.374	3.2727	0.1	1221.5
25751	18.467	3.3636	0.1	1200.2
25752	18.19	3.2727	0.1	1264.4
25753	18.282	3.3636	0.1	1242.9
25754	18.006	3.2727	0.1	1307.5
25755	18.098	3.3636	0.1	1285.9
25756	17.821	3.2727	0.1	1350.8
25757	17.913	3.3636	0.1	1329.1
25758	17.637	3.2727	0.1	1394.3
25759	17.729	3.3636	0.1	1372.5
25760	17.452	3.2727	0.1	1438.
25761	17.544	3.3636	0.1	1416.1
25762	17.268	3.2727	0.1	1481.9
25763	17.36	3.3636	0.1	1459.9
25764	17.083	3.2727	0.1	1526.
25765	17.176	3.3636	0.1	1504.
25766	16.899	3.2727	0.1	1570.4
25767	16.991	3.3636	0.1	1548.2
25768	16.714	3.2727	0.1	1614.9
25769	16.807	3.3636	0.1	1592.6
25770	16.53	3.2727	0.1	1659.6
25771	16.622	3.3636	0.1	1637.3
25772	16.346	3.2727	0.1	1704.6
25773	16.438	3.3636	0.1	1682.1
25774	16.161	3.2727	0.1	1749.7
25775	16.253	3.3636	0.1	1727.2
25776	15.977	3.2727	0.1	1795.1
25777	16.069	3.3636	0.1	1772.4
25778	15.792	3.2727	0.1	1840.6
25779	15.884	3.3636	0.1	1817.9
25780	15.608	3.2727	0.1	1886.4
25781	15.7	3.3636	0.1	1863.5
25782	15.423	3.2727	0.1	1932.3
25783	15.516	3.3636	0.1	1909.4
25784	15.239	3.2727	0.1	1978.5
25785	15.331	3.3636	0.1	1955.4
25786	15.054	3.2727	0.1	2024.8
25787	15.147	3.3636	0.1	2001.7
25788	14.87	3.2727	0.1	2071.4
25789	14.962	3.3636	0.1	2048.1
25790	14.686	3.2727	0.1	2118.1
25791	14.778	3.3636	0.1	2094.8
25792	14.501	3.2727	0.1	2165.1
25793	14.593	3.3636	0.1	2141.6
25794	14.317	3.2727	0.1	2212.2
25795	14.409	3.3636	0.1	2188.7
25796	14.132	3.2727	0.1	2259.6
25797	14.224	3.3636	0.1	2235.9
25798	13.948	3.2727	0.1	2307.1
25799	14.04	3.3636	0.1	2283.4
25800	13.763	3.2727	0.1	2354.9
25801	13.856	3.3636	0.1	2331.
25802	13.579	3.2727	0.1	2402.8
25803	13.671	3.3636	0.1	2378.8
25804	13.394	3.2727	0.1	2450.9
25805	13.487	3.3636	0.1	2426.9
25806	13.21	3.2727	0.1	2499.2
25807	13.302	3.3636	0.1	2475.1
25808	13.026	3.2727	0.1	2547.7
25809	13.118	3.3636	0.1	2523.5
25810	12.841	3.2727	0.1	2596.4
25811	12.933	3.3636	0.1	2572.1
25812	12.657	3.2727	0.1	2645.3
25813	12.749	3.3636	0.1	2620.9
25814	12.472	3.2727	0.1	2694.4
25815	12.564	3.3636	0.1	2669.9
25816	12.288	3.2727	0.1	2743.7
25817	12.38	3.3636	0.1	2719.1
25818	12.103	3.2727	0.1	2793.1
25819	12.196	3.3636	0.1	2768.4
25820	11.919	3.2727	0.1	2842.8
25821	12.011	3.3636	0.1	2818.
25822	11.734	3.2727	0.1	2892.6
25823	11.827	3.3636	0.1	2867.7
25824	11.55	3.2727	0.1	2942.6
25825	11.642	3.3636	0.1	2917.7
25826	11.366	3.2727	0.1	2992.8
25827	11.458	3.3636	0.1	2967.8
25828	11.181	3.2727	0.1	3043.2
25829	11.273	3.3636	0.1	3018.1
25830	10.997	3.2727	0.1	3093.7
25831	11.089	3.3636	0.1	3068.5
25832	10.812	3.2727	0.1	3144.5
25833	10.904	3.3636	0.1	3119.2
25834	10.628	3.2727	0.1	3195.4
25835	10.72	3.3636	0.1	3170.
25836	10.443	3.2727	0.1	3246.5
25837	10.536	3.3636	0.1	3221.
25838	10.259	3.2727	0.1	3297.7
25839	10.351	3.3636	0.1	3272.2
25840	10.074	3.2727	0.1	3349.2
25841	10.167	3.3636	0.1	3323.6
25842	9.89	3.2727	0.1	3400.8
25843	9.9822	3.3636	0.1	3375.1
25844	9.7056	3.2727	0.1	3452.6
25845	9.7978	3.3636	0.1	3426.8
25846	9.5211	3.2727	0.1	3504.5
25847	9.6133	3.3636	0.1	3478.7
25848	9.3367	3.2727	0.1	3556.6
25849	9.4289	3.3636	0.1	3530.7
25850	9.1522	3.2727	0.1	3608.9
25851	9.2444	3.3636	0.1	3582.9
25852	8.9678	3.2727	0.1	3661.4
25853	9.06	3.3636	0.1	3635.3
25854	8.7833	3.2727	0.1	3714.
25855	8.8756	3.3636	0.1	3687.9
25856	8.5989	3.2727	0.1	3766.8
25857	8.6911	3.3636	0.1	3740.6
25858	8.4144	3.2727	0.1	3819.9
25859	8.5067	3.3636	0.1	3793.6
25860	8.23	3.2727	0.1	3873.1
25861	8.3222	3.3636	0.1	3846.7
25862	8.0456	3.2727	0.1	3926.5
25863	8.1378	3.3636	0.1	3900.
25864	7.8611	3.2727	0.1	3980.2
25865	7.9533	3.3636	0.1	3953.6
25866	7.6767	3.2727	0.1	4034.2
25867	7.7689	3.3636	0.1	4007.4
25868	7.4922	3.2727	0.1	4088.4
25869	7.5844	3.3636	0.1	4061.5
25870	7.3078	3.2727	0.1	4143.1
25871	7.4	3.3636	0.1	4116.
25872	7.1233	3.2727	0.1	4198.2
25873	7.2156	3.3636	0.1	4170.9
25874	6.9389	3.2727	0.1	4253.9
25875	7.0311	3.3636	0.1	4226.2
25876	6.7544	3.2727	0.1	4310.2
25877	6.8467	3.3636	0.1	4282.2
25878	6.57	3.2727	0.1	4367.5
25879	6.6622	3.3636	0.1	4338.9
25880	6.3856	3.2727	0.1	4425.8
25881	6.4778	3.3636	0.1	4396.6
25882	6.2011	3.2727	0.1	4485.6
25883	6.2933	3.3636	0.1	4455.4
25884	6.0167	3.2727	0.1	4547.1
25885	6.1089	3.3636	0.1	4515.8
25886	5.8322	3.2727	0.1	4610.9
25887	5.9244	3.3636	0.1	4578.1
25888	5.6478	3.2727	0.1	4677.6
25889	5.74	3.3636	0.1	4642.9
25890	5.4633	3.2727	0.1	4748.1
25891	5.5556	3.3636	0.1	4711.
25892	5.2789	3.2727	0.1	4823.5
25893	5.3711	3.3636	0.1	4783.1
25894	5.0944	3.2727	0.1	4905.1
25895	5.1867	3.3636	0.1	4860.5
25896	4.91	3.2727	0.1	4994.7
25897	5.0022	3.3636	0.1	4944.6
25898	4.7256	3.2727	0.1	5094.8
25899	4.8178	3.3636	0.1	5037.5
25900	4.5411	3.2727	0.1	5208.1
25901	4.6333	3.3636	0.1	5141.6
25902	4.3567	3.2727	0.1	5338.7
25903	4.4489	3.3636	0.1	5260.2
25904	4.1722	3.2727	0.1	5491.4
25905	4.2644	3.3636	0.1	5397.4
25906	3.9878	3.2727	0.1	5672.9
25907	4.08	3.3636	0.1	5558.6
25908	3.8033	3.2727	0.1	5891.5
25909	3.8956	3.3636	0.1	5750.8
25910	3.6189	3.2727	0.1	6158.2
25911	3.7111	3.3636	0.1	5983.2
25912	3.4344	3.2727	0.1	6487.4
25913	3.5267	3.3636	0.1	6267.7
25914	3.25	3.2727	0.1	6897.5
25915	3.3422	3.3636	0.1	6620.1
25916	3.0656	3.2727	0.1	7412.2
25917	3.1578	3.3636	0.1	7061.2
25918	2.8811	3.2727	0.1	8060.1
25919	2.9733	3.3636	0.1	7618.1
25920	2.6967	3.2727	0.1	8872.5
25921	2.7889	3.3636	0.1	8325.6
25922	2.5122	3.2727	0.1	9871.6
25923	2.6044	3.3636	0.1	9225.8
25924	2.3278	3.2727	0.1	11039
25925	2.42	3.3636	0.1	10358
25926	2.1433	3.2727	0.1	12254
25927	2.2356	3.3636	0.1	11717
25928	2.0511	3.3636	0.1	13124
25929	1.9589	3.2727	0.1	13247
25930	23.723	3.4545	0.1	59.262
25931	23.816	3.5455	0.1	39.815
25932	23.908	3.4545	0.1	22.407
25933	23.539	3.4545	0.1	98.292
25934	23.631	3.5455	0.1	78.779
25935	23.354	3.4545	0.1	137.2
25936	23.447	3.5455	0.1	117.74
25937	23.17	3.4545	0.1	175.97
25938	23.262	3.5455	0.1	156.53
25939	22.986	3.4545	0.1	214.63
25940	23.078	3.5455	0.1	195.2
25941	22.801	3.4545	0.1	253.24
25942	22.893	3.5455	0.1	233.8
25943	22.617	3.4545	0.1	291.83
25944	22.709	3.5455	0.1	272.37
25945	22.432	3.4545	0.1	330.44
25946	22.524	3.5455	0.1	310.95
25947	22.248	3.4545	0.1	369.11
25948	22.34	3.5455	0.1	349.58
25949	22.063	3.4545	0.1	407.88
25950	22.156	3.5455	0.1	388.29
25951	21.879	3.4545	0.1	446.76
25952	21.971	3.5455	0.1	427.11
25953	21.694	3.4545	0.1	485.78
25954	21.787	3.5455	0.1	466.07
25955	21.51	3.4545	0.1	524.95
25956	21.602	3.5455	0.1	505.17
25957	21.326	3.4545	0.1	564.3
25958	21.418	3.5455	0.1	544.44
25959	21.141	3.4545	0.1	603.83
25960	21.233	3.5455	0.1	583.9
25961	20.957	3.4545	0.1	643.55
25962	21.049	3.5455	0.1	623.54
25963	20.772	3.4545	0.1	683.47
25964	20.864	3.5455	0.1	663.37
25965	20.588	3.4545	0.1	723.6
25966	20.68	3.5455	0.1	703.41
25967	20.403	3.4545	0.1	763.93
25968	20.496	3.5455	0.1	743.65
25969	20.219	3.4545	0.1	804.47
25970	20.311	3.5455	0.1	784.1
25971	20.034	3.4545	0.1	845.22
25972	20.127	3.5455	0.1	824.76
25973	19.85	3.4545	0.1	886.19
25974	19.942	3.5455	0.1	865.64
25975	19.666	3.4545	0.1	927.37
25976	19.758	3.5455	0.1	906.72
25977	19.481	3.4545	0.1	968.76
25978	19.573	3.5455	0.1	948.02
25979	19.297	3.4545	0.1	1010.4
25980	19.389	3.5455	0.1	989.53
25981	19.112	3.4545	0.1	1052.2
25982	19.204	3.5455	0.1	1031.3
25983	18.928	3.4545	0.1	1094.2
25984	19.02	3.5455	0.1	1073.2
25985	18.743	3.4545	0.1	1136.5
25986	18.836	3.5455	0.1	1115.3
25987	18.559	3.4545	0.1	1178.9
25988	18.651	3.5455	0.1	1157.7
25989	18.374	3.4545	0.1	1221.6
25990	18.467	3.5455	0.1	1200.3
25991	18.19	3.4545	0.1	1264.5
25992	18.282	3.5455	0.1	1243.1
25993	18.006	3.4545	0.1	1307.6
25994	18.098	3.5455	0.1	1286.1
25995	17.821	3.4545	0.1	1350.9
25996	17.913	3.5455	0.1	1329.3
25997	17.637	3.4545	0.1	1394.4
25998	17.729	3.5455	0.1	1372.7
25999	17.452	3.4545	0.1	1438.1
26000	17.544	3.5455	0.1	1416.3
26001	17.268	3.4545	0.1	1482.
26002	17.36	3.5455	0.1	1460.1
26003	17.083	3.4545	0.1	1526.2
26004	17.176	3.5455	0.1	1504.1
26005	16.899	3.4545	0.1	1570.5
26006	16.991	3.5455	0.1	1548.4
26007	16.714	3.4545	0.1	1615.
26008	16.807	3.5455	0.1	1592.8
26009	16.53	3.4545	0.1	1659.8
26010	16.622	3.5455	0.1	1637.5
26011	16.346	3.4545	0.1	1704.7
26012	16.438	3.5455	0.1	1682.3
26013	16.161	3.4545	0.1	1749.9
26014	16.253	3.5455	0.1	1727.4
26015	15.977	3.4545	0.1	1795.2
26016	16.069	3.5455	0.1	1772.6
26017	15.792	3.4545	0.1	1840.8
26018	15.884	3.5455	0.1	1818.1
26019	15.608	3.4545	0.1	1886.5
26020	15.7	3.5455	0.1	1863.7
26021	15.423	3.4545	0.1	1932.5
26022	15.516	3.5455	0.1	1909.6
26023	15.239	3.4545	0.1	1978.7
26024	15.331	3.5455	0.1	1955.6
26025	15.054	3.4545	0.1	2025.
26026	15.147	3.5455	0.1	2001.9
26027	14.87	3.4545	0.1	2071.6
26028	14.962	3.5455	0.1	2048.4
26029	14.686	3.4545	0.1	2118.3
26030	14.778	3.5455	0.1	2095.
26031	14.501	3.4545	0.1	2165.3
26032	14.593	3.5455	0.1	2141.9
26033	14.317	3.4545	0.1	2212.4
26034	14.409	3.5455	0.1	2188.9
26035	14.132	3.4545	0.1	2259.8
26036	14.224	3.5455	0.1	2236.2
26037	13.948	3.4545	0.1	2307.3
26038	14.04	3.5455	0.1	2283.6
26039	13.763	3.4545	0.1	2355.
26040	13.856	3.5455	0.1	2331.2
26041	13.579	3.4545	0.1	2403.
26042	13.671	3.5455	0.1	2379.1
26043	13.394	3.4545	0.1	2451.1
26044	13.487	3.5455	0.1	2427.1
26045	13.21	3.4545	0.1	2499.4
26046	13.302	3.5455	0.1	2475.3
26047	13.026	3.4545	0.1	2547.9
26048	13.118	3.5455	0.1	2523.7
26049	12.841	3.4545	0.1	2596.6
26050	12.933	3.5455	0.1	2572.4
26051	12.657	3.4545	0.1	2645.5
26052	12.749	3.5455	0.1	2621.2
26053	12.472	3.4545	0.1	2694.6
26054	12.564	3.5455	0.1	2670.1
26055	12.288	3.4545	0.1	2743.9
26056	12.38	3.5455	0.1	2719.3
26057	12.103	3.4545	0.1	2793.3
26058	12.196	3.5455	0.1	2768.7
26059	11.919	3.4545	0.1	2843.
26060	12.011	3.5455	0.1	2818.3
26061	11.734	3.4545	0.1	2892.8
26062	11.827	3.5455	0.1	2868.
26063	11.55	3.4545	0.1	2942.8
26064	11.642	3.5455	0.1	2917.9
26065	11.366	3.4545	0.1	2993.
26066	11.458	3.5455	0.1	2968.1
26067	11.181	3.4545	0.1	3043.4
26068	11.273	3.5455	0.1	3018.4
26069	10.997	3.4545	0.1	3094.
26070	11.089	3.5455	0.1	3068.8
26071	10.812	3.4545	0.1	3144.7
26072	10.904	3.5455	0.1	3119.5
26073	10.628	3.4545	0.1	3195.7
26074	10.72	3.5455	0.1	3170.4
26075	10.443	3.4545	0.1	3246.8
26076	10.536	3.5455	0.1	3221.4
26077	10.259	3.4545	0.1	3298.
26078	10.351	3.5455	0.1	3272.6
26079	10.074	3.4545	0.1	3349.5
26080	10.167	3.5455	0.1	3324.
26081	9.89	3.4545	0.1	3401.1
26082	9.9822	3.5455	0.1	3375.5
26083	9.7056	3.4545	0.1	3452.9
26084	9.7978	3.5455	0.1	3427.2
26085	9.5211	3.4545	0.1	3504.9
26086	9.6133	3.5455	0.1	3479.1
26087	9.3367	3.4545	0.1	3557.
26088	9.4289	3.5455	0.1	3531.2
26089	9.1522	3.4545	0.1	3609.3
26090	9.2444	3.5455	0.1	3583.5
26091	8.9678	3.4545	0.1	3661.8
26092	9.06	3.5455	0.1	3635.9
26093	8.7833	3.4545	0.1	3714.5
26094	8.8756	3.5455	0.1	3688.5
26095	8.5989	3.4545	0.1	3767.4
26096	8.6911	3.5455	0.1	3741.3
26097	8.4144	3.4545	0.1	3820.4
26098	8.5067	3.5455	0.1	3794.2
26099	8.23	3.4545	0.1	3873.6
26100	8.3222	3.5455	0.1	3847.4
26101	8.0456	3.4545	0.1	3927.1
26102	8.1378	3.5455	0.1	3900.8
26103	7.8611	3.4545	0.1	3980.8
26104	7.9533	3.5455	0.1	3954.4
26105	7.6767	3.4545	0.1	4034.8
26106	7.7689	3.5455	0.1	4008.2
26107	7.4922	3.4545	0.1	4089.1
26108	7.5844	3.5455	0.1	4062.4
26109	7.3078	3.4545	0.1	4143.8
26110	7.4	3.5455	0.1	4116.8
26111	7.1233	3.4545	0.1	4198.9
26112	7.2156	3.5455	0.1	4171.7
26113	6.9389	3.4545	0.1	4254.5
26114	7.0311	3.5455	0.1	4227.
26115	6.7544	3.4545	0.1	4310.8
26116	6.8467	3.5455	0.1	4283.
26117	6.57	3.4545	0.1	4368.
26118	6.6622	3.5455	0.1	4339.6
26119	6.3856	3.4545	0.1	4426.2
26120	6.4778	3.5455	0.1	4397.1
26121	6.2011	3.4545	0.1	4485.7
26122	6.2933	3.5455	0.1	4455.7
26123	6.0167	3.4545	0.1	4546.9
26124	6.1089	3.5455	0.1	4515.8
26125	5.8322	3.4545	0.1	4610.2
26126	5.9244	3.5455	0.1	4577.6
26127	5.6478	3.4545	0.1	4676.3
26128	5.74	3.5455	0.1	4641.8
26129	5.4633	3.4545	0.1	4745.9
26130	5.5556	3.5455	0.1	4708.8
26131	5.2789	3.4545	0.1	4820.
26132	5.3711	3.5455	0.1	4779.7
26133	5.0944	3.4545	0.1	4900.
26134	5.1867	3.5455	0.1	4855.3
26135	4.91	3.4545	0.1	4987.4
26136	5.0022	3.5455	0.1	4937.2
26137	4.7256	3.4545	0.1	5084.4
26138	4.8178	3.5455	0.1	5026.9
26139	4.5411	3.4545	0.1	5193.7
26140	4.6333	3.5455	0.1	5126.8
26141	4.3567	3.4545	0.1	5318.9
26142	4.4489	3.5455	0.1	5239.7
26143	4.1722	3.4545	0.1	5464.5
26144	4.2644	3.5455	0.1	5369.4
26145	3.9878	3.4545	0.1	5636.4
26146	4.08	3.5455	0.1	5520.6
26147	3.8033	3.4545	0.1	5842.4
26148	3.8956	3.5455	0.1	5699.7
26149	3.6189	3.4545	0.1	6092.7
26150	3.7111	3.5455	0.1	5914.7
26151	3.4344	3.4545	0.1	6400.6
26152	3.5267	3.5455	0.1	6176.7
26153	3.25	3.4545	0.1	6784.3
26154	3.3422	3.5455	0.1	6500.1
26155	3.0656	3.4545	0.1	7268.1
26156	3.1578	3.5455	0.1	6905.2
26157	2.8811	3.4545	0.1	7885.8
26158	2.9733	3.5455	0.1	7420.2
26159	2.6967	3.4545	0.1	8683.5
26160	2.7889	3.5455	0.1	8086.6
26161	2.5122	3.4545	0.1	9720.2
26162	2.6044	3.5455	0.1	8966.5
26163	2.3278	3.4545	0.1	11047
26164	2.42	3.5455	0.1	10155
26165	2.1433	3.4545	0.1	12594
26166	2.2356	3.5455	0.1	11781
26167	2.0511	3.5455	0.1	13861
26168	1.9589	3.4545	0.1	13992
26169	23.723	3.6364	0.1	59.254
26170	23.816	3.7273	0.1	39.843
26171	23.908	3.6364	0.1	22.426
26172	23.539	3.6364	0.1	98.216
26173	23.631	3.7273	0.1	78.726
26174	23.354	3.6364	0.1	137.06
26175	23.447	3.7273	0.1	117.61
26176	23.17	3.6364	0.1	175.77
26177	23.262	3.7273	0.1	156.32
26178	22.986	3.6364	0.1	214.39
26179	23.078	3.7273	0.1	194.94
26180	22.801	3.6364	0.1	252.95
26181	22.893	3.7273	0.1	233.48
26182	22.617	3.6364	0.1	291.51
26183	22.709	3.7273	0.1	272.01
26184	22.432	3.6364	0.1	330.11
26185	22.524	3.7273	0.1	310.57
26186	22.248	3.6364	0.1	368.78
26187	22.34	3.7273	0.1	349.19
26188	22.063	3.6364	0.1	407.55
26189	22.156	3.7273	0.1	387.9
26190	21.879	3.6364	0.1	446.45
26191	21.971	3.7273	0.1	426.74
26192	21.694	3.6364	0.1	485.49
26193	21.787	3.7273	0.1	465.72
26194	21.51	3.6364	0.1	524.69
26195	21.602	3.7273	0.1	504.85
26196	21.326	3.6364	0.1	564.07
26197	21.418	3.7273	0.1	544.16
26198	21.141	3.6364	0.1	603.63
26199	21.233	3.7273	0.1	583.65
26200	20.957	3.6364	0.1	643.38
26201	21.049	3.7273	0.1	623.32
26202	20.772	3.6364	0.1	683.34
26203	20.864	3.7273	0.1	663.2
26204	20.588	3.6364	0.1	723.49
26205	20.68	3.7273	0.1	703.27
26206	20.403	3.6364	0.1	763.86
26207	20.496	3.7273	0.1	743.55
26208	20.219	3.6364	0.1	804.43
26209	20.311	3.7273	0.1	784.04
26210	20.034	3.6364	0.1	845.21
26211	20.127	3.7273	0.1	824.74
26212	19.85	3.6364	0.1	886.2
26213	19.942	3.7273	0.1	865.64
26214	19.666	3.6364	0.1	927.41
26215	19.758	3.7273	0.1	906.76
26216	19.481	3.6364	0.1	968.83
26217	19.573	3.7273	0.1	948.08
26218	19.297	3.6364	0.1	1010.5
26219	19.389	3.7273	0.1	989.62
26220	19.112	3.6364	0.1	1052.3
26221	19.204	3.7273	0.1	1031.4
26222	18.928	3.6364	0.1	1094.3
26223	19.02	3.7273	0.1	1073.3
26224	18.743	3.6364	0.1	1136.6
26225	18.836	3.7273	0.1	1115.5
26226	18.559	3.6364	0.1	1179.1
26227	18.651	3.7273	0.1	1157.9
26228	18.374	3.6364	0.1	1221.8
26229	18.467	3.7273	0.1	1200.5
26230	18.19	3.6364	0.1	1264.7
26231	18.282	3.7273	0.1	1243.3
26232	18.006	3.6364	0.1	1307.8
26233	18.098	3.7273	0.1	1286.3
26234	17.821	3.6364	0.1	1351.1
26235	17.913	3.7273	0.1	1329.5
26236	17.637	3.6364	0.1	1394.6
26237	17.729	3.7273	0.1	1372.9
26238	17.452	3.6364	0.1	1438.3
26239	17.544	3.7273	0.1	1416.5
26240	17.268	3.6364	0.1	1482.2
26241	17.36	3.7273	0.1	1460.4
26242	17.083	3.6364	0.1	1526.4
26243	17.176	3.7273	0.1	1504.4
26244	16.899	3.6364	0.1	1570.7
26245	16.991	3.7273	0.1	1548.6
26246	16.714	3.6364	0.1	1615.3
26247	16.807	3.7273	0.1	1593.1
26248	16.53	3.6364	0.1	1660.
26249	16.622	3.7273	0.1	1637.7
26250	16.346	3.6364	0.1	1705.
26251	16.438	3.7273	0.1	1682.6
26252	16.161	3.6364	0.1	1750.1
26253	16.253	3.7273	0.1	1727.6
26254	15.977	3.6364	0.1	1795.5
26255	16.069	3.7273	0.1	1772.9
26256	15.792	3.6364	0.1	1841.
26257	15.884	3.7273	0.1	1818.4
26258	15.608	3.6364	0.1	1886.8
26259	15.7	3.7273	0.1	1864.
26260	15.423	3.6364	0.1	1932.7
26261	15.516	3.7273	0.1	1909.9
26262	15.239	3.6364	0.1	1978.9
26263	15.331	3.7273	0.1	1955.9
26264	15.054	3.6364	0.1	2025.3
26265	15.147	3.7273	0.1	2002.2
26266	14.87	3.6364	0.1	2071.8
26267	14.962	3.7273	0.1	2048.6
26268	14.686	3.6364	0.1	2118.6
26269	14.778	3.7273	0.1	2095.3
26270	14.501	3.6364	0.1	2165.5
26271	14.593	3.7273	0.1	2142.2
26272	14.317	3.6364	0.1	2212.7
26273	14.409	3.7273	0.1	2189.2
26274	14.132	3.6364	0.1	2260.
26275	14.224	3.7273	0.1	2236.5
26276	13.948	3.6364	0.1	2307.6
26277	14.04	3.7273	0.1	2283.9
26278	13.763	3.6364	0.1	2355.3
26279	13.856	3.7273	0.1	2331.6
26280	13.579	3.6364	0.1	2403.2
26281	13.671	3.7273	0.1	2379.4
26282	13.394	3.6364	0.1	2451.4
26283	13.487	3.7273	0.1	2427.4
26284	13.21	3.6364	0.1	2499.7
26285	13.302	3.7273	0.1	2475.7
26286	13.026	3.6364	0.1	2548.2
26287	13.118	3.7273	0.1	2524.1
26288	12.841	3.6364	0.1	2596.9
26289	12.933	3.7273	0.1	2572.7
26290	12.657	3.6364	0.1	2645.8
26291	12.749	3.7273	0.1	2621.5
26292	12.472	3.6364	0.1	2694.9
26293	12.564	3.7273	0.1	2670.5
26294	12.288	3.6364	0.1	2744.2
26295	12.38	3.7273	0.1	2719.7
26296	12.103	3.6364	0.1	2793.7
26297	12.196	3.7273	0.1	2769.1
26298	11.919	3.6364	0.1	2843.3
26299	12.011	3.7273	0.1	2818.6
26300	11.734	3.6364	0.1	2893.2
26301	11.827	3.7273	0.1	2868.4
26302	11.55	3.6364	0.1	2943.2
26303	11.642	3.7273	0.1	2918.3
26304	11.366	3.6364	0.1	2993.4
26305	11.458	3.7273	0.1	2968.5
26306	11.181	3.6364	0.1	3043.8
26307	11.273	3.7273	0.1	3018.8
26308	10.997	3.6364	0.1	3094.4
26309	11.089	3.7273	0.1	3069.3
26310	10.812	3.6364	0.1	3145.2
26311	10.904	3.7273	0.1	3120.
26312	10.628	3.6364	0.1	3196.1
26313	10.72	3.7273	0.1	3170.8
26314	10.443	3.6364	0.1	3247.2
26315	10.536	3.7273	0.1	3221.9
26316	10.259	3.6364	0.1	3298.5
26317	10.351	3.7273	0.1	3273.1
26318	10.074	3.6364	0.1	3350.
26319	10.167	3.7273	0.1	3324.5
26320	9.89	3.6364	0.1	3401.6
26321	9.9822	3.7273	0.1	3376.1
26322	9.7056	3.6364	0.1	3453.5
26323	9.7978	3.7273	0.1	3427.9
26324	9.5211	3.6364	0.1	3505.5
26325	9.6133	3.7273	0.1	3479.8
26326	9.3367	3.6364	0.1	3557.6
26327	9.4289	3.7273	0.1	3531.9
26328	9.1522	3.6364	0.1	3610.
26329	9.2444	3.7273	0.1	3584.2
26330	8.9678	3.6364	0.1	3662.5
26331	9.06	3.7273	0.1	3636.6
26332	8.7833	3.6364	0.1	3715.2
26333	8.8756	3.7273	0.1	3689.3
26334	8.5989	3.6364	0.1	3768.1
26335	8.6911	3.7273	0.1	3742.1
26336	8.4144	3.6364	0.1	3821.2
26337	8.5067	3.7273	0.1	3795.1
26338	8.23	3.6364	0.1	3874.5
26339	8.3222	3.7273	0.1	3848.3
26340	8.0456	3.6364	0.1	3928.
26341	8.1378	3.7273	0.1	3901.8
26342	7.8611	3.6364	0.1	3981.8
26343	7.9533	3.7273	0.1	3955.4
26344	7.6767	3.6364	0.1	4035.8
26345	7.7689	3.7273	0.1	4009.3
26346	7.4922	3.6364	0.1	4090.1
26347	7.5844	3.7273	0.1	4063.5
26348	7.3078	3.6364	0.1	4144.8
26349	7.4	3.7273	0.1	4118.
26350	7.1233	3.6364	0.1	4199.9
26351	7.2156	3.7273	0.1	4172.9
26352	6.9389	3.6364	0.1	4255.5
26353	7.0311	3.7273	0.1	4228.2
26354	6.7544	3.6364	0.1	4311.7
26355	6.8467	3.7273	0.1	4284.
26356	6.57	3.6364	0.1	4368.7
26357	6.6622	3.7273	0.1	4340.5
26358	6.3856	3.6364	0.1	4426.7
26359	6.4778	3.7273	0.1	4397.8
26360	6.2011	3.6364	0.1	4485.8
26361	6.2933	3.7273	0.1	4456.1
26362	6.0167	3.6364	0.1	4546.5
26363	6.1089	3.7273	0.1	4515.7
26364	5.8322	3.6364	0.1	4609.2
26365	5.9244	3.7273	0.1	4576.9
26366	5.6478	3.6364	0.1	4674.3
26367	5.74	3.7273	0.1	4640.1
26368	5.4633	3.6364	0.1	4742.6
26369	5.5556	3.7273	0.1	4705.9
26370	5.2789	3.6364	0.1	4815.
26371	5.3711	3.7273	0.1	4775.
26372	5.0944	3.6364	0.1	4892.5
26373	5.1867	3.7273	0.1	4848.3
26374	4.91	3.6364	0.1	4976.6
26375	5.0022	3.7273	0.1	4926.9
26376	4.7256	3.6364	0.1	5069.3
26377	4.8178	3.7273	0.1	5012.4
26378	4.5411	3.6364	0.1	5172.8
26379	4.6333	3.7273	0.1	5106.6
26380	4.3567	3.6364	0.1	5290.2
26381	4.4489	3.7273	0.1	5212.
26382	4.1722	3.6364	0.1	5425.5
26383	4.2644	3.7273	0.1	5331.7
26384	3.9878	3.6364	0.1	5583.8
26385	4.08	3.7273	0.1	5469.7
26386	3.8033	3.6364	0.1	5771.9
26387	3.8956	3.7273	0.1	5631.3
26388	3.6189	3.6364	0.1	5998.6
26389	3.7111	3.7273	0.1	5823.5
26390	3.4344	3.6364	0.1	6276.
26391	3.5267	3.7273	0.1	6055.6
26392	3.25	3.6364	0.1	6621.
26393	3.3422	3.7273	0.1	6340.4
26394	3.0656	3.6364	0.1	7057.4
26395	3.1578	3.7273	0.1	6696.4
26396	2.8811	3.6364	0.1	7621.8
26397	2.9733	3.7273	0.1	7150.7
26398	2.6967	3.6364	0.1	8372.4
26399	2.7889	3.7273	0.1	7746.8
26400	2.5122	3.6364	0.1	9409.3
26401	2.6044	3.7273	0.1	8558.1
26402	2.3278	3.6364	0.1	10906
26403	2.42	3.7273	0.1	9724.4
26404	2.1433	3.6364	0.1	13065
26405	2.2356	3.7273	0.1	11550
26406	2.0511	3.7273	0.1	14645
26407	1.9589	3.6364	0.1	15368
26408	23.723	3.8182	0.1	59.238
26409	23.816	3.9091	0.1	39.875
26410	23.908	3.8182	0.1	22.451
26411	23.539	3.8182	0.1	98.109
26412	23.631	3.9091	0.1	78.649
26413	23.354	3.8182	0.1	136.87
26414	23.447	3.9091	0.1	117.43
26415	23.17	3.8182	0.1	175.5
26416	23.262	3.9091	0.1	156.05
26417	22.986	3.8182	0.1	214.05
26418	23.078	3.9091	0.1	194.58
26419	22.801	3.8182	0.1	252.56
26420	22.893	3.9091	0.1	233.06
26421	22.617	3.8182	0.1	291.09
26422	22.709	3.9091	0.1	271.54
26423	22.432	3.8182	0.1	329.67
26424	22.524	3.9091	0.1	310.07
26425	22.248	3.8182	0.1	368.34
26426	22.34	3.9091	0.1	348.69
26427	22.063	3.8182	0.1	407.12
26428	22.156	3.9091	0.1	387.41
26429	21.879	3.8182	0.1	446.04
26430	21.971	3.9091	0.1	426.27
26431	21.694	3.8182	0.1	485.11
26432	21.787	3.9091	0.1	465.28
26433	21.51	3.8182	0.1	524.35
26434	21.602	3.9091	0.1	504.45
26435	21.326	3.8182	0.1	563.77
26436	21.418	3.9091	0.1	543.81
26437	21.141	3.8182	0.1	603.37
26438	21.233	3.9091	0.1	583.34
26439	20.957	3.8182	0.1	643.17
26440	21.049	3.9091	0.1	623.07
26441	20.772	3.8182	0.1	683.17
26442	20.864	3.9091	0.1	663.
26443	20.588	3.8182	0.1	723.37
26444	20.68	3.9091	0.1	703.12
26445	20.403	3.8182	0.1	763.78
26446	20.496	3.9091	0.1	743.45
26447	20.219	3.8182	0.1	804.39
26448	20.311	3.9091	0.1	783.98
26449	20.034	3.8182	0.1	845.2
26450	20.127	3.9091	0.1	824.72
26451	19.85	3.8182	0.1	886.23
26452	19.942	3.9091	0.1	865.67
26453	19.666	3.8182	0.1	927.47
26454	19.758	3.9091	0.1	906.82
26455	19.481	3.8182	0.1	968.92
26456	19.573	3.9091	0.1	948.18
26457	19.297	3.8182	0.1	1010.6
26458	19.389	3.9091	0.1	989.75
26459	19.112	3.8182	0.1	1052.4
26460	19.204	3.9091	0.1	1031.5
26461	18.928	3.8182	0.1	1094.5
26462	19.02	3.9091	0.1	1073.5
26463	18.743	3.8182	0.1	1136.8
26464	18.836	3.9091	0.1	1115.7
26465	18.559	3.8182	0.1	1179.3
26466	18.651	3.9091	0.1	1158.1
26467	18.374	3.8182	0.1	1222.
26468	18.467	3.9091	0.1	1200.7
26469	18.19	3.8182	0.1	1264.9
26470	18.282	3.9091	0.1	1243.5
26471	18.006	3.8182	0.1	1308.
26472	18.098	3.9091	0.1	1286.5
26473	17.821	3.8182	0.1	1351.3
26474	17.913	3.9091	0.1	1329.8
26475	17.637	3.8182	0.1	1394.9
26476	17.729	3.9091	0.1	1373.2
26477	17.452	3.8182	0.1	1438.6
26478	17.544	3.9091	0.1	1416.8
26479	17.268	3.8182	0.1	1482.5
26480	17.36	3.9091	0.1	1460.7
26481	17.083	3.8182	0.1	1526.7
26482	17.176	3.9091	0.1	1504.7
26483	16.899	3.8182	0.1	1571.
26484	16.991	3.9091	0.1	1549.
26485	16.714	3.8182	0.1	1615.6
26486	16.807	3.9091	0.1	1593.4
26487	16.53	3.8182	0.1	1660.3
26488	16.622	3.9091	0.1	1638.1
26489	16.346	3.8182	0.1	1705.3
26490	16.438	3.9091	0.1	1682.9
26491	16.161	3.8182	0.1	1750.4
26492	16.253	3.9091	0.1	1728.
26493	15.977	3.8182	0.1	1795.8
26494	16.069	3.9091	0.1	1773.3
26495	15.792	3.8182	0.1	1841.4
26496	15.884	3.9091	0.1	1818.7
26497	15.608	3.8182	0.1	1887.1
26498	15.7	3.9091	0.1	1864.4
26499	15.423	3.8182	0.1	1933.1
26500	15.516	3.9091	0.1	1910.2
26501	15.239	3.8182	0.1	1979.2
26502	15.331	3.9091	0.1	1956.3
26503	15.054	3.8182	0.1	2025.6
26504	15.147	3.9091	0.1	2002.6
26505	14.87	3.8182	0.1	2072.2
26506	14.962	3.9091	0.1	2049.
26507	14.686	3.8182	0.1	2118.9
26508	14.778	3.9091	0.1	2095.7
26509	14.501	3.8182	0.1	2165.9
26510	14.593	3.9091	0.1	2142.6
26511	14.317	3.8182	0.1	2213.
26512	14.409	3.9091	0.1	2189.6
26513	14.132	3.8182	0.1	2260.4
26514	14.224	3.9091	0.1	2236.9
26515	13.948	3.8182	0.1	2307.9
26516	14.04	3.9091	0.1	2284.3
26517	13.763	3.8182	0.1	2355.7
26518	13.856	3.9091	0.1	2332.
26519	13.579	3.8182	0.1	2403.6
26520	13.671	3.9091	0.1	2379.8
26521	13.394	3.8182	0.1	2451.7
26522	13.487	3.9091	0.1	2427.8
26523	13.21	3.8182	0.1	2500.1
26524	13.302	3.9091	0.1	2476.1
26525	13.026	3.8182	0.1	2548.6
26526	13.118	3.9091	0.1	2524.5
26527	12.841	3.8182	0.1	2597.3
26528	12.933	3.9091	0.1	2573.1
26529	12.657	3.8182	0.1	2646.2
26530	12.749	3.9091	0.1	2621.9
26531	12.472	3.8182	0.1	2695.3
26532	12.564	3.9091	0.1	2671.
26533	12.288	3.8182	0.1	2744.6
26534	12.38	3.9091	0.1	2720.2
26535	12.103	3.8182	0.1	2794.1
26536	12.196	3.9091	0.1	2769.6
26537	11.919	3.8182	0.1	2843.8
26538	12.011	3.9091	0.1	2819.1
26539	11.734	3.8182	0.1	2893.6
26540	11.827	3.9091	0.1	2868.9
26541	11.55	3.8182	0.1	2943.7
26542	11.642	3.9091	0.1	2918.9
26543	11.366	3.8182	0.1	2993.9
26544	11.458	3.9091	0.1	2969.
26545	11.181	3.8182	0.1	3044.3
26546	11.273	3.9091	0.1	3019.3
26547	10.997	3.8182	0.1	3094.9
26548	11.089	3.9091	0.1	3069.9
26549	10.812	3.8182	0.1	3145.7
26550	10.904	3.9091	0.1	3120.6
26551	10.628	3.8182	0.1	3196.7
26552	10.72	3.9091	0.1	3171.5
26553	10.443	3.8182	0.1	3247.8
26554	10.536	3.9091	0.1	3222.5
26555	10.259	3.8182	0.1	3299.1
26556	10.351	3.9091	0.1	3273.8
26557	10.074	3.8182	0.1	3350.6
26558	10.167	3.9091	0.1	3325.2
26559	9.89	3.8182	0.1	3402.3
26560	9.9822	3.9091	0.1	3376.8
26561	9.7056	3.8182	0.1	3454.2
26562	9.7978	3.9091	0.1	3428.6
26563	9.5211	3.8182	0.1	3506.2
26564	9.6133	3.9091	0.1	3480.6
26565	9.3367	3.8182	0.1	3558.4
26566	9.4289	3.9091	0.1	3532.8
26567	9.1522	3.8182	0.1	3610.8
26568	9.2444	3.9091	0.1	3585.1
26569	8.9678	3.8182	0.1	3663.4
26570	9.06	3.9091	0.1	3637.6
26571	8.7833	3.8182	0.1	3716.2
26572	8.8756	3.9091	0.1	3690.3
26573	8.5989	3.8182	0.1	3769.1
26574	8.6911	3.9091	0.1	3743.2
26575	8.4144	3.8182	0.1	3822.3
26576	8.5067	3.9091	0.1	3796.3
26577	8.23	3.8182	0.1	3875.6
26578	8.3222	3.9091	0.1	3849.5
26579	8.0456	3.8182	0.1	3929.2
26580	8.1378	3.9091	0.1	3903.
26581	7.8611	3.8182	0.1	3983.
26582	7.9533	3.9091	0.1	3956.7
26583	7.6767	3.8182	0.1	4037.
26584	7.7689	3.9091	0.1	4010.7
26585	7.4922	3.8182	0.1	4091.4
26586	7.5844	3.9091	0.1	4064.9
26587	7.3078	3.8182	0.1	4146.1
26588	7.4	3.9091	0.1	4119.4
26589	7.1233	3.8182	0.1	4201.2
26590	7.2156	3.9091	0.1	4174.3
26591	6.9389	3.8182	0.1	4256.7
26592	7.0311	3.9091	0.1	4229.6
26593	6.7544	3.8182	0.1	4312.8
26594	6.8467	3.9091	0.1	4285.3
26595	6.57	3.8182	0.1	4369.6
26596	6.6622	3.9091	0.1	4341.6
26597	6.3856	3.8182	0.1	4427.3
26598	6.4778	3.9091	0.1	4398.7
26599	6.2011	3.8182	0.1	4486.
26600	6.2933	3.9091	0.1	4456.6
26601	6.0167	3.8182	0.1	4546.1
26602	6.1089	3.9091	0.1	4515.6
26603	5.8322	3.8182	0.1	4607.8
26604	5.9244	3.9091	0.1	4576.
26605	5.6478	3.8182	0.1	4671.7
26606	5.74	3.9091	0.1	4638.
26607	5.4633	3.8182	0.1	4738.3
26608	5.5556	3.9091	0.1	4702.2
26609	5.2789	3.8182	0.1	4808.4
26610	5.3711	3.9091	0.1	4769.2
26611	5.0944	3.8182	0.1	4882.8
26612	5.1867	3.9091	0.1	4839.5
26613	4.91	3.8182	0.1	4962.7
26614	5.0022	3.9091	0.1	4914.3
26615	4.7256	3.8182	0.1	5049.8
26616	4.8178	3.9091	0.1	4994.5
26617	4.5411	3.8182	0.1	5145.9
26618	4.6333	3.9091	0.1	5081.8
26619	4.3567	3.8182	0.1	5253.5
26620	4.4489	3.9091	0.1	5178.
26621	4.1722	3.8182	0.1	5375.8
26622	4.2644	3.9091	0.1	5285.6
26623	3.9878	3.8182	0.1	5517.1
26624	4.08	3.9091	0.1	5407.6
26625	3.8033	3.8182	0.1	5682.8
26626	3.8956	3.9091	0.1	5548.4
26627	3.6189	3.8182	0.1	5880.2
26628	3.7111	3.9091	0.1	5713.2
26629	3.4344	3.8182	0.1	6119.5
26630	3.5267	3.9091	0.1	5909.7
26631	3.25	3.8182	0.1	6415.2
26632	3.3422	3.9091	0.1	6148.3
26633	3.0656	3.8182	0.1	6788.9
26634	3.1578	3.9091	0.1	6444.2
26635	2.8811	3.8182	0.1	7274.9
26636	2.9733	3.9091	0.1	6821.
26637	2.6967	3.8182	0.1	7932.7
26638	2.7889	3.9091	0.1	7317.2
26639	2.5122	3.8182	0.1	8877.4
26640	2.6044	3.9091	0.1	8001.6
26641	2.3278	3.8182	0.1	10388
26642	2.42	3.9091	0.1	9017.7
26643	2.1433	3.8182	0.1	13179
26644	2.2356	3.9091	0.1	10691
26645	2.0511	3.9091	0.1	14693
26646	1.9589	3.8182	0.1	17688
26647	23.723	4.	0.1	59.211
26648	23.816	4.0909	0.1	39.909
26649	23.908	4.	0.1	22.479
26650	23.539	4.	0.1	97.962
26651	23.631	4.0909	0.1	78.542
26652	23.354	4.	0.1	136.61
26653	23.447	4.0909	0.1	117.19
26654	23.17	4.	0.1	175.14
26655	23.262	4.0909	0.1	155.69
26656	22.986	4.	0.1	213.6
26657	23.078	4.0909	0.1	194.12
26658	22.801	4.	0.1	252.06
26659	22.893	4.0909	0.1	232.52
26660	22.617	4.	0.1	290.55
26661	22.709	4.0909	0.1	270.95
26662	22.432	4.	0.1	329.11
26663	22.524	4.0909	0.1	309.46
26664	22.248	4.	0.1	367.78
26665	22.34	4.0909	0.1	348.07
26666	22.063	4.	0.1	406.59
26667	22.156	4.0909	0.1	386.81
26668	21.879	4.	0.1	445.54
26669	21.971	4.0909	0.1	425.71
26670	21.694	4.	0.1	484.65
26671	21.787	4.0909	0.1	464.76
26672	21.51	4.	0.1	523.94
26673	21.602	4.0909	0.1	503.99
26674	21.326	4.	0.1	563.42
26675	21.418	4.0909	0.1	543.4
26676	21.141	4.	0.1	603.08
26677	21.233	4.0909	0.1	583.
26678	20.957	4.	0.1	642.93
26679	21.049	4.0909	0.1	622.8
26680	20.772	4.	0.1	682.99
26681	20.864	4.0909	0.1	662.78
26682	20.588	4.	0.1	723.24
26683	20.68	4.0909	0.1	702.97
26684	20.403	4.	0.1	763.7
26685	20.496	4.0909	0.1	743.35
26686	20.219	4.	0.1	804.36
26687	20.311	4.0909	0.1	783.94
26688	20.034	4.	0.1	845.22
26689	20.127	4.0909	0.1	824.73
26690	19.85	4.	0.1	886.29
26691	19.942	4.0909	0.1	865.72
26692	19.666	4.	0.1	927.57
26693	19.758	4.0909	0.1	906.92
26694	19.481	4.	0.1	969.05
26695	19.573	4.0909	0.1	948.32
26696	19.297	4.	0.1	1010.7
26697	19.389	4.0909	0.1	989.92
26698	19.112	4.	0.1	1052.6
26699	19.204	4.0909	0.1	1031.7
26700	18.928	4.	0.1	1094.7
26701	19.02	4.0909	0.1	1073.7
26702	18.743	4.	0.1	1137.
26703	18.836	4.0909	0.1	1116.
26704	18.559	4.	0.1	1179.6
26705	18.651	4.0909	0.1	1158.4
26706	18.374	4.	0.1	1222.3
26707	18.467	4.0909	0.1	1201.
26708	18.19	4.	0.1	1265.2
26709	18.282	4.0909	0.1	1243.9
26710	18.006	4.	0.1	1308.3
26711	18.098	4.0909	0.1	1286.9
26712	17.821	4.	0.1	1351.7
26713	17.913	4.0909	0.1	1330.1
26714	17.637	4.	0.1	1395.2
26715	17.729	4.0909	0.1	1373.6
26716	17.452	4.	0.1	1439.
26717	17.544	4.0909	0.1	1417.2
26718	17.268	4.	0.1	1482.9
26719	17.36	4.0909	0.1	1461.1
26720	17.083	4.	0.1	1527.1
26721	17.176	4.0909	0.1	1505.1
26722	16.899	4.	0.1	1571.4
26723	16.991	4.0909	0.1	1549.4
26724	16.714	4.	0.1	1616.
26725	16.807	4.0909	0.1	1593.9
26726	16.53	4.	0.1	1660.7
26727	16.622	4.0909	0.1	1638.5
26728	16.346	4.	0.1	1705.7
26729	16.438	4.0909	0.1	1683.4
26730	16.161	4.	0.1	1750.8
26731	16.253	4.0909	0.1	1728.4
26732	15.977	4.	0.1	1796.2
26733	16.069	4.0909	0.1	1773.7
26734	15.792	4.	0.1	1841.8
26735	15.884	4.0909	0.1	1819.2
26736	15.608	4.	0.1	1887.5
26737	15.7	4.0909	0.1	1864.8
26738	15.423	4.	0.1	1933.5
26739	15.516	4.0909	0.1	1910.7
26740	15.239	4.	0.1	1979.7
26741	15.331	4.0909	0.1	1956.8
26742	15.054	4.	0.1	2026.
26743	15.147	4.0909	0.1	2003.
26744	14.87	4.	0.1	2072.6
26745	14.962	4.0909	0.1	2049.5
26746	14.686	4.	0.1	2119.4
26747	14.778	4.0909	0.1	2096.2
26748	14.501	4.	0.1	2166.3
26749	14.593	4.0909	0.1	2143.
26750	14.317	4.	0.1	2213.5
26751	14.409	4.0909	0.1	2190.1
26752	14.132	4.	0.1	2260.8
26753	14.224	4.0909	0.1	2237.4
26754	13.948	4.	0.1	2308.4
26755	14.04	4.0909	0.1	2284.8
26756	13.763	4.	0.1	2356.1
26757	13.856	4.0909	0.1	2332.5
26758	13.579	4.	0.1	2404.1
26759	13.671	4.0909	0.1	2380.3
26760	13.394	4.	0.1	2452.2
26761	13.487	4.0909	0.1	2428.4
26762	13.21	4.	0.1	2500.5
26763	13.302	4.0909	0.1	2476.6
26764	13.026	4.	0.1	2549.1
26765	13.118	4.0909	0.1	2525.
26766	12.841	4.	0.1	2597.8
26767	12.933	4.0909	0.1	2573.7
26768	12.657	4.	0.1	2646.7
26769	12.749	4.0909	0.1	2622.5
26770	12.472	4.	0.1	2695.8
26771	12.564	4.0909	0.1	2671.5
26772	12.288	4.	0.1	2745.1
26773	12.38	4.0909	0.1	2720.7
26774	12.103	4.	0.1	2794.6
26775	12.196	4.0909	0.1	2770.1
26776	11.919	4.	0.1	2844.3
26777	12.011	4.0909	0.1	2819.7
26778	11.734	4.	0.1	2894.2
26779	11.827	4.0909	0.1	2869.5
26780	11.55	4.	0.1	2944.2
26781	11.642	4.0909	0.1	2919.5
26782	11.366	4.	0.1	2994.5
26783	11.458	4.0909	0.1	2969.7
26784	11.181	4.	0.1	3044.9
26785	11.273	4.0909	0.1	3020.
26786	10.997	4.	0.1	3095.6
26787	11.089	4.0909	0.1	3070.6
26788	10.812	4.	0.1	3146.4
26789	10.904	4.0909	0.1	3121.3
26790	10.628	4.	0.1	3197.4
26791	10.72	4.0909	0.1	3172.2
26792	10.443	4.	0.1	3248.5
26793	10.536	4.0909	0.1	3223.3
26794	10.259	4.	0.1	3299.9
26795	10.351	4.0909	0.1	3274.6
26796	10.074	4.	0.1	3351.4
26797	10.167	4.0909	0.1	3326.1
26798	9.89	4.	0.1	3403.2
26799	9.9822	4.0909	0.1	3377.7
26800	9.7056	4.	0.1	3455.1
26801	9.7978	4.0909	0.1	3429.6
26802	9.5211	4.	0.1	3507.2
26803	9.6133	4.0909	0.1	3481.6
26804	9.3367	4.	0.1	3559.4
26805	9.4289	4.0909	0.1	3533.8
26806	9.1522	4.	0.1	3611.9
26807	9.2444	4.0909	0.1	3586.2
26808	8.9678	4.	0.1	3664.5
26809	9.06	4.0909	0.1	3638.8
26810	8.7833	4.	0.1	3717.3
26811	8.8756	4.0909	0.1	3691.5
26812	8.5989	4.	0.1	3770.4
26813	8.6911	4.0909	0.1	3744.5
26814	8.4144	4.	0.1	3823.6
26815	8.5067	4.0909	0.1	3797.6
26816	8.23	4.	0.1	3877.
26817	8.3222	4.0909	0.1	3851.
26818	8.0456	4.	0.1	3930.6
26819	8.1378	4.0909	0.1	3904.5
26820	7.8611	4.	0.1	3984.5
26821	7.9533	4.0909	0.1	3958.3
26822	7.6767	4.	0.1	4038.6
26823	7.7689	4.0909	0.1	4012.3
26824	7.4922	4.	0.1	4093.
26825	7.5844	4.0909	0.1	4066.6
26826	7.3078	4.	0.1	4147.6
26827	7.4	4.0909	0.1	4121.1
26828	7.1233	4.	0.1	4202.7
26829	7.2156	4.0909	0.1	4176.
26830	6.9389	4.	0.1	4258.2
26831	7.0311	4.0909	0.1	4231.2
26832	6.7544	4.	0.1	4314.1
26833	6.8467	4.0909	0.1	4286.8
26834	6.57	4.	0.1	4370.7
26835	6.6622	4.0909	0.1	4343.
26836	6.3856	4.	0.1	4428.
26837	6.4778	4.0909	0.1	4399.7
26838	6.2011	4.	0.1	4486.2
26839	6.2933	4.0909	0.1	4457.1
26840	6.0167	4.	0.1	4545.5
26841	6.1089	4.0909	0.1	4515.4
26842	5.8322	4.	0.1	4606.2
26843	5.9244	4.0909	0.1	4574.8
26844	5.6478	4.	0.1	4668.5
26845	5.74	4.0909	0.1	4635.5
26846	5.4633	4.	0.1	4733.1
26847	5.5556	4.0909	0.1	4697.9
26848	5.2789	4.	0.1	4800.4
26849	5.3711	4.0909	0.1	4762.3
26850	5.0944	4.	0.1	4871.1
26851	5.1867	4.0909	0.1	4829.3
26852	4.91	4.	0.1	4946.1
26853	5.0022	4.0909	0.1	4899.5
26854	4.7256	4.	0.1	5026.5
26855	4.8178	4.0909	0.1	4973.7
26856	4.5411	4.	0.1	5113.9
26857	4.6333	4.0909	0.1	5053.
26858	4.3567	4.	0.1	5210.1
26859	4.4489	4.0909	0.1	5138.8
26860	4.1722	4.	0.1	5317.3
26861	4.2644	4.0909	0.1	5232.6
26862	3.9878	4.	0.1	5438.8
26863	4.08	4.0909	0.1	5336.7
26864	3.8033	4.	0.1	5578.6
26865	3.8956	4.0909	0.1	5453.9
26866	3.6189	4.	0.1	5742.3
26867	3.7111	4.0909	0.1	5588.2
26868	3.4344	4.	0.1	5937.7
26869	3.5267	4.0909	0.1	5744.8
26870	3.25	4.	0.1	6176.
26871	3.3422	4.0909	0.1	5931.3
26872	3.0656	4.	0.1	6474.5
26873	3.1578	4.0909	0.1	6159.2
26874	2.8811	4.	0.1	6860.9
26875	2.9733	4.0909	0.1	6446.
26876	2.6967	4.	0.1	7383.7
26877	2.7889	4.0909	0.1	6820.
26878	2.5122	4.	0.1	8141.6
26879	2.6044	4.0909	0.1	7331.1
26880	2.3278	4.	0.1	9332.1
26881	2.42	4.0909	0.1	8079.3
26882	2.1433	4.	0.1	12312
26883	2.2356	4.0909	0.1	9255.7
26884	2.0511	4.0909	0.1	12401
26885	1.9589	4.	0.1	21782
26886	23.723	4.1818	0.1	59.167
26887	23.816	4.2727	0.1	39.939
26888	23.908	4.1818	0.1	22.509
26889	23.539	4.1818	0.1	97.765
26890	23.631	4.2727	0.1	78.394
26891	23.354	4.1818	0.1	136.28
26892	23.447	4.2727	0.1	116.88
26893	23.17	4.1818	0.1	174.68
26894	23.262	4.2727	0.1	155.23
26895	22.986	4.1818	0.1	213.05
26896	23.078	4.2727	0.1	193.54
26897	22.801	4.1818	0.1	251.44
26898	22.893	4.2727	0.1	231.86
26899	22.617	4.1818	0.1	289.89
26900	22.709	4.2727	0.1	270.24
26901	22.432	4.1818	0.1	328.45
26902	22.524	4.2727	0.1	308.73
26903	22.248	4.1818	0.1	367.13
26904	22.34	4.2727	0.1	347.36
26905	22.063	4.1818	0.1	405.97
26906	22.156	4.2727	0.1	386.13
26907	21.879	4.1818	0.1	444.96
26908	21.971	4.2727	0.1	425.07
26909	21.694	4.1818	0.1	484.14
26910	21.787	4.2727	0.1	464.19
26911	21.51	4.1818	0.1	523.49
26912	21.602	4.2727	0.1	503.49
26913	21.326	4.1818	0.1	563.03
26914	21.418	4.2727	0.1	542.97
26915	21.141	4.1818	0.1	602.76
26916	21.233	4.2727	0.1	582.65
26917	20.957	4.1818	0.1	642.68
26918	21.049	4.2727	0.1	622.51
26919	20.772	4.1818	0.1	682.8
26920	20.864	4.2727	0.1	662.57
26921	20.588	4.1818	0.1	723.12
26922	20.68	4.2727	0.1	702.83
26923	20.403	4.1818	0.1	763.63
26924	20.496	4.2727	0.1	743.28
26925	20.219	4.1818	0.1	804.35
26926	20.311	4.2727	0.1	783.93
26927	20.034	4.1818	0.1	845.27
26928	20.127	4.2727	0.1	824.77
26929	19.85	4.1818	0.1	886.39
26930	19.942	4.2727	0.1	865.82
26931	19.666	4.1818	0.1	927.71
26932	19.758	4.2727	0.1	907.06
26933	19.481	4.1818	0.1	969.23
26934	19.573	4.2727	0.1	948.51
26935	19.297	4.1818	0.1	1011.
26936	19.389	4.2727	0.1	990.16
26937	19.112	4.1818	0.1	1052.9
26938	19.204	4.2727	0.1	1032.
26939	18.928	4.1818	0.1	1095.
26940	19.02	4.2727	0.1	1074.1
26941	18.743	4.1818	0.1	1137.4
26942	18.836	4.2727	0.1	1116.3
26943	18.559	4.1818	0.1	1179.9
26944	18.651	4.2727	0.1	1158.8
26945	18.374	4.1818	0.1	1222.6
26946	18.467	4.2727	0.1	1201.4
26947	18.19	4.1818	0.1	1265.6
26948	18.282	4.2727	0.1	1244.3
26949	18.006	4.1818	0.1	1308.7
26950	18.098	4.2727	0.1	1287.3
26951	17.821	4.1818	0.1	1352.1
26952	17.913	4.2727	0.1	1330.6
26953	17.637	4.1818	0.1	1395.6
26954	17.729	4.2727	0.1	1374.
26955	17.452	4.1818	0.1	1439.4
26956	17.544	4.2727	0.1	1417.7
26957	17.268	4.1818	0.1	1483.3
26958	17.36	4.2727	0.1	1461.6
26959	17.083	4.1818	0.1	1527.5
26960	17.176	4.2727	0.1	1505.6
26961	16.899	4.1818	0.1	1571.9
26962	16.991	4.2727	0.1	1549.9
26963	16.714	4.1818	0.1	1616.4
26964	16.807	4.2727	0.1	1594.4
26965	16.53	4.1818	0.1	1661.2
26966	16.622	4.2727	0.1	1639.
26967	16.346	4.1818	0.1	1706.2
26968	16.438	4.2727	0.1	1683.9
26969	16.161	4.1818	0.1	1751.3
26970	16.253	4.2727	0.1	1729.
26971	15.977	4.1818	0.1	1796.7
26972	16.069	4.2727	0.1	1774.2
26973	15.792	4.1818	0.1	1842.3
26974	15.884	4.2727	0.1	1819.7
26975	15.608	4.1818	0.1	1888.
26976	15.7	4.2727	0.1	1865.4
26977	15.423	4.1818	0.1	1934.
26978	15.516	4.2727	0.1	1911.3
26979	15.239	4.1818	0.1	1980.2
26980	15.331	4.2727	0.1	1957.3
26981	15.054	4.1818	0.1	2026.5
26982	15.147	4.2727	0.1	2003.6
26983	14.87	4.1818	0.1	2073.1
26984	14.962	4.2727	0.1	2050.1
26985	14.686	4.1818	0.1	2119.9
26986	14.778	4.2727	0.1	2096.7
26987	14.501	4.1818	0.1	2166.8
26988	14.593	4.2727	0.1	2143.6
26989	14.317	4.1818	0.1	2214.
26990	14.409	4.2727	0.1	2190.7
26991	14.132	4.1818	0.1	2261.4
26992	14.224	4.2727	0.1	2237.9
26993	13.948	4.1818	0.1	2308.9
26994	14.04	4.2727	0.1	2285.4
26995	13.763	4.1818	0.1	2356.7
26996	13.856	4.2727	0.1	2333.
26997	13.579	4.1818	0.1	2404.6
26998	13.671	4.2727	0.1	2380.9
26999	13.394	4.1818	0.1	2452.8
27000	13.487	4.2727	0.1	2429.
27001	13.21	4.1818	0.1	2501.1
27002	13.302	4.2727	0.1	2477.2
27003	13.026	4.1818	0.1	2549.7
27004	13.118	4.2727	0.1	2525.7
27005	12.841	4.1818	0.1	2598.4
27006	12.933	4.2727	0.1	2574.3
27007	12.657	4.1818	0.1	2647.3
27008	12.749	4.2727	0.1	2623.1
27009	12.472	4.1818	0.1	2696.4
27010	12.564	4.2727	0.1	2672.2
27011	12.288	4.1818	0.1	2745.7
27012	12.38	4.2727	0.1	2721.4
27013	12.103	4.1818	0.1	2795.3
27014	12.196	4.2727	0.1	2770.8
27015	11.919	4.1818	0.1	2845.
27016	12.011	4.2727	0.1	2820.4
27017	11.734	4.1818	0.1	2894.9
27018	11.827	4.2727	0.1	2870.2
27019	11.55	4.1818	0.1	2944.9
27020	11.642	4.2727	0.1	2920.2
27021	11.366	4.1818	0.1	2995.2
27022	11.458	4.2727	0.1	2970.4
27023	11.181	4.1818	0.1	3045.7
27024	11.273	4.2727	0.1	3020.8
27025	10.997	4.1818	0.1	3096.3
27026	11.089	4.2727	0.1	3071.4
27027	10.812	4.1818	0.1	3147.2
27028	10.904	4.2727	0.1	3122.1
27029	10.628	4.1818	0.1	3198.2
27030	10.72	4.2727	0.1	3173.1
27031	10.443	4.1818	0.1	3249.4
27032	10.536	4.2727	0.1	3224.2
27033	10.259	4.1818	0.1	3300.8
27034	10.351	4.2727	0.1	3275.6
27035	10.074	4.1818	0.1	3352.4
27036	10.167	4.2727	0.1	3327.1
27037	9.89	4.1818	0.1	3404.2
27038	9.9822	4.2727	0.1	3378.8
27039	9.7056	4.1818	0.1	3456.1
27040	9.7978	4.2727	0.1	3430.7
27041	9.5211	4.1818	0.1	3508.3
27042	9.6133	4.2727	0.1	3482.8
27043	9.3367	4.1818	0.1	3560.6
27044	9.4289	4.2727	0.1	3535.
27045	9.1522	4.1818	0.1	3613.1
27046	9.2444	4.2727	0.1	3587.5
27047	8.9678	4.1818	0.1	3665.8
27048	9.06	4.2727	0.1	3640.1
27049	8.7833	4.1818	0.1	3718.7
27050	8.8756	4.2727	0.1	3693.
27051	8.5989	4.1818	0.1	3771.8
27052	8.6911	4.2727	0.1	3746.
27053	8.4144	4.1818	0.1	3825.1
27054	8.5067	4.2727	0.1	3799.2
27055	8.23	4.1818	0.1	3878.6
27056	8.3222	4.2727	0.1	3852.6
27057	8.0456	4.1818	0.1	3932.3
27058	8.1378	4.2727	0.1	3906.3
27059	7.8611	4.1818	0.1	3986.2
27060	7.9533	4.2727	0.1	3960.1
27061	7.6767	4.1818	0.1	4040.3
27062	7.7689	4.2727	0.1	4014.2
27063	7.4922	4.1818	0.1	4094.8
27064	7.5844	4.2727	0.1	4068.5
27065	7.3078	4.1818	0.1	4149.5
27066	7.4	4.2727	0.1	4123.1
27067	7.1233	4.1818	0.1	4204.5
27068	7.2156	4.2727	0.1	4177.9
27069	6.9389	4.1818	0.1	4259.9
27070	7.0311	4.2727	0.1	4233.
27071	6.7544	4.1818	0.1	4315.7
27072	6.8467	4.2727	0.1	4288.5
27073	6.57	4.1818	0.1	4371.9
27074	6.6622	4.2727	0.1	4344.4
27075	6.3856	4.1818	0.1	4428.8
27076	6.4778	4.2727	0.1	4400.8
27077	6.2011	4.1818	0.1	4486.4
27078	6.2933	4.2727	0.1	4457.7
27079	6.0167	4.1818	0.1	4544.8
27080	6.1089	4.2727	0.1	4515.2
27081	5.8322	4.1818	0.1	4604.2
27082	5.9244	4.2727	0.1	4573.5
27083	5.6478	4.1818	0.1	4664.9
27084	5.74	4.2727	0.1	4632.7
27085	5.4633	4.1818	0.1	4727.1
27086	5.5556	4.2727	0.1	4692.9
27087	5.2789	4.1818	0.1	4791.2
27088	5.3711	4.2727	0.1	4754.5
27089	5.0944	4.1818	0.1	4857.7
27090	5.1867	4.2727	0.1	4817.8
27091	4.91	4.1818	0.1	4927.1
27092	5.0022	4.2727	0.1	4883.
27093	4.7256	4.1818	0.1	5000.2
27094	4.8178	4.2727	0.1	4950.6
27095	4.5411	4.1818	0.1	5077.9
27096	4.6333	4.2727	0.1	5021.2
27097	4.3567	4.1818	0.1	5161.3
27098	4.4489	4.2727	0.1	5095.5
27099	4.1722	4.1818	0.1	5251.9
27100	4.2644	4.2727	0.1	5174.4
27101	3.9878	4.1818	0.1	5351.6
27102	4.08	4.2727	0.1	5259.1
27103	3.8033	4.1818	0.1	5463.1
27104	3.8956	4.2727	0.1	5351.1
27105	3.6189	4.1818	0.1	5590.
27106	3.7111	4.2727	0.1	5452.6
27107	3.4344	4.1818	0.1	5737.4
27108	3.5267	4.2727	0.1	5566.6
27109	3.25	4.1818	0.1	5912.8
27110	3.3422	4.2727	0.1	5697.7
27111	3.0656	4.1818	0.1	6128.
27112	3.1578	4.2727	0.1	5852.8
27113	2.8811	4.1818	0.1	6401.1
27114	2.9733	4.2727	0.1	6042.4
27115	2.6967	4.1818	0.1	6762.
27116	2.7889	4.2727	0.1	6282.9
27117	2.5122	4.1818	0.1	7262.9
27118	2.6044	4.2727	0.1	6599.9
27119	2.3278	4.1818	0.1	8004.9
27120	2.42	4.2727	0.1	7030.3
27121	2.1433	4.1818	0.1	9382.4
27122	2.2356	4.2727	0.1	7641.4
27123	2.0511	4.2727	0.1	8764.2
27124	1.9589	4.1818	0.1	7939.9
27125	23.723	4.3636	0.1	59.097
27126	23.816	4.4545	0.1	39.96
27127	23.908	4.3636	0.1	22.537
27128	23.539	4.3636	0.1	97.504
27129	23.631	4.4545	0.1	78.19
27130	23.354	4.3636	0.1	135.84
27131	23.447	4.4545	0.1	116.47
27132	23.17	4.3636	0.1	174.11
27133	23.262	4.4545	0.1	154.66
27134	22.986	4.3636	0.1	212.37
27135	23.078	4.4545	0.1	192.83
27136	22.801	4.3636	0.1	250.69
27137	22.893	4.4545	0.1	231.07
27138	22.617	4.3636	0.1	289.12
27139	22.709	4.4545	0.1	269.41
27140	22.432	4.3636	0.1	327.67
27141	22.524	4.4545	0.1	307.9
27142	22.248	4.3636	0.1	366.39
27143	22.34	4.4545	0.1	346.55
27144	22.063	4.3636	0.1	405.27
27145	22.156	4.4545	0.1	385.38
27146	21.879	4.3636	0.1	444.33
27147	21.971	4.4545	0.1	424.39
27148	21.694	4.3636	0.1	483.58
27149	21.787	4.4545	0.1	463.58
27150	21.51	4.3636	0.1	523.01
27151	21.602	4.4545	0.1	502.96
27152	21.326	4.3636	0.1	562.63
27153	21.418	4.4545	0.1	542.54
27154	21.141	4.3636	0.1	602.44
27155	21.233	4.4545	0.1	582.3
27156	20.957	4.3636	0.1	642.44
27157	21.049	4.4545	0.1	622.25
27158	20.772	4.3636	0.1	682.64
27159	20.864	4.4545	0.1	662.39
27160	20.588	4.3636	0.1	723.03
27161	20.68	4.4545	0.1	702.72
27162	20.403	4.3636	0.1	763.61
27163	20.496	4.4545	0.1	743.25
27164	20.219	4.3636	0.1	804.39
27165	20.311	4.4545	0.1	783.97
27166	20.034	4.3636	0.1	845.37
27167	20.127	4.4545	0.1	824.88
27168	19.85	4.3636	0.1	886.54
27169	19.942	4.4545	0.1	865.98
27170	19.666	4.3636	0.1	927.91
27171	19.758	4.4545	0.1	907.28
27172	19.481	4.3636	0.1	969.48
27173	19.573	4.4545	0.1	948.77
27174	19.297	4.3636	0.1	1011.2
27175	19.389	4.4545	0.1	990.46
27176	19.112	4.3636	0.1	1053.2
27177	19.204	4.4545	0.1	1032.4
27178	18.928	4.3636	0.1	1095.4
27179	19.02	4.4545	0.1	1074.4
27180	18.743	4.3636	0.1	1137.7
27181	18.836	4.4545	0.1	1116.7
27182	18.559	4.3636	0.1	1180.3
27183	18.651	4.4545	0.1	1159.2
27184	18.374	4.3636	0.1	1223.1
27185	18.467	4.4545	0.1	1201.9
27186	18.19	4.3636	0.1	1266.
27187	18.282	4.4545	0.1	1244.8
27188	18.006	4.3636	0.1	1309.2
27189	18.098	4.4545	0.1	1287.8
27190	17.821	4.3636	0.1	1352.6
27191	17.913	4.4545	0.1	1331.1
27192	17.637	4.3636	0.1	1396.1
27193	17.729	4.4545	0.1	1374.6
27194	17.452	4.3636	0.1	1439.9
27195	17.544	4.4545	0.1	1418.3
27196	17.268	4.3636	0.1	1483.9
27197	17.36	4.4545	0.1	1462.1
27198	17.083	4.3636	0.1	1528.1
27199	17.176	4.4545	0.1	1506.2
27200	16.899	4.3636	0.1	1572.4
27201	16.991	4.4545	0.1	1550.5
27202	16.714	4.3636	0.1	1617.
27203	16.807	4.4545	0.1	1595.
27204	16.53	4.3636	0.1	1661.8
27205	16.622	4.4545	0.1	1639.6
27206	16.346	4.3636	0.1	1706.7
27207	16.438	4.4545	0.1	1684.5
27208	16.161	4.3636	0.1	1751.9
27209	16.253	4.4545	0.1	1729.6
27210	15.977	4.3636	0.1	1797.3
27211	16.069	4.4545	0.1	1774.9
27212	15.792	4.3636	0.1	1842.9
27213	15.884	4.4545	0.1	1820.3
27214	15.608	4.3636	0.1	1888.6
27215	15.7	4.4545	0.1	1866.
27216	15.423	4.3636	0.1	1934.6
27217	15.516	4.4545	0.1	1911.9
27218	15.239	4.3636	0.1	1980.8
27219	15.331	4.4545	0.1	1958.
27220	15.054	4.3636	0.1	2027.1
27221	15.147	4.4545	0.1	2004.2
27222	14.87	4.3636	0.1	2073.7
27223	14.962	4.4545	0.1	2050.7
27224	14.686	4.3636	0.1	2120.5
27225	14.778	4.4545	0.1	2097.4
27226	14.501	4.3636	0.1	2167.5
27227	14.593	4.4545	0.1	2144.3
27228	14.317	4.3636	0.1	2214.6
27229	14.409	4.4545	0.1	2191.3
27230	14.132	4.3636	0.1	2262.
27231	14.224	4.4545	0.1	2238.6
27232	13.948	4.3636	0.1	2309.5
27233	14.04	4.4545	0.1	2286.1
27234	13.763	4.3636	0.1	2357.3
27235	13.856	4.4545	0.1	2333.7
27236	13.579	4.3636	0.1	2405.3
27237	13.671	4.4545	0.1	2381.6
27238	13.394	4.3636	0.1	2453.4
27239	13.487	4.4545	0.1	2429.7
27240	13.21	4.3636	0.1	2501.8
27241	13.302	4.4545	0.1	2477.9
27242	13.026	4.3636	0.1	2550.3
27243	13.118	4.4545	0.1	2526.4
27244	12.841	4.3636	0.1	2599.1
27245	12.933	4.4545	0.1	2575.
27246	12.657	4.3636	0.1	2648.
27247	12.749	4.4545	0.1	2623.9
27248	12.472	4.3636	0.1	2697.1
27249	12.564	4.4545	0.1	2672.9
27250	12.288	4.3636	0.1	2746.5
27251	12.38	4.4545	0.1	2722.2
27252	12.103	4.3636	0.1	2796.
27253	12.196	4.4545	0.1	2771.6
27254	11.919	4.3636	0.1	2845.7
27255	12.011	4.4545	0.1	2821.2
27256	11.734	4.3636	0.1	2895.6
27257	11.827	4.4545	0.1	2871.
27258	11.55	4.3636	0.1	2945.7
27259	11.642	4.4545	0.1	2921.1
27260	11.366	4.3636	0.1	2996.
27261	11.458	4.4545	0.1	2971.3
27262	11.181	4.3636	0.1	3046.5
27263	11.273	4.4545	0.1	3021.7
27264	10.997	4.3636	0.1	3097.2
27265	11.089	4.4545	0.1	3072.3
27266	10.812	4.3636	0.1	3148.1
27267	10.904	4.4545	0.1	3123.1
27268	10.628	4.3636	0.1	3199.2
27269	10.72	4.4545	0.1	3174.1
27270	10.443	4.3636	0.1	3250.4
27271	10.536	4.4545	0.1	3225.3
27272	10.259	4.3636	0.1	3301.9
27273	10.351	4.4545	0.1	3276.7
27274	10.074	4.3636	0.1	3353.5
27275	10.167	4.4545	0.1	3328.2
27276	9.89	4.3636	0.1	3405.3
27277	9.9822	4.4545	0.1	3380.
27278	9.7056	4.3636	0.1	3457.3
27279	9.7978	4.4545	0.1	3431.9
27280	9.5211	4.3636	0.1	3509.5
27281	9.6133	4.4545	0.1	3484.1
27282	9.3367	4.3636	0.1	3561.9
27283	9.4289	4.4545	0.1	3536.4
27284	9.1522	4.3636	0.1	3614.5
27285	9.2444	4.4545	0.1	3588.9
27286	8.9678	4.3636	0.1	3667.3
27287	9.06	4.4545	0.1	3641.7
27288	8.7833	4.3636	0.1	3720.3
27289	8.8756	4.4545	0.1	3694.6
27290	8.5989	4.3636	0.1	3773.4
27291	8.6911	4.4545	0.1	3747.7
27292	8.4144	4.3636	0.1	3826.8
27293	8.5067	4.4545	0.1	3801.
27294	8.23	4.3636	0.1	3880.4
27295	8.3222	4.4545	0.1	3854.5
27296	8.0456	4.3636	0.1	3934.1
27297	8.1378	4.4545	0.1	3908.2
27298	7.8611	4.3636	0.1	3988.1
27299	7.9533	4.4545	0.1	3962.1
27300	7.6767	4.3636	0.1	4042.3
27301	7.7689	4.4545	0.1	4016.3
27302	7.4922	4.3636	0.1	4096.8
27303	7.5844	4.4545	0.1	4070.6
27304	7.3078	4.3636	0.1	4151.5
27305	7.4	4.4545	0.1	4125.2
27306	7.1233	4.3636	0.1	4206.5
27307	7.2156	4.4545	0.1	4180.
27308	6.9389	4.3636	0.1	4261.7
27309	7.0311	4.4545	0.1	4235.1
27310	6.7544	4.3636	0.1	4317.3
27311	6.8467	4.4545	0.1	4290.4
27312	6.57	4.3636	0.1	4373.3
27313	6.6622	4.4545	0.1	4346.
27314	6.3856	4.3636	0.1	4429.7
27315	6.4778	4.4545	0.1	4402.
27316	6.2011	4.3636	0.1	4486.5
27317	6.2933	4.4545	0.1	4458.3
27318	6.0167	4.3636	0.1	4543.9
27319	6.1089	4.4545	0.1	4514.9
27320	5.8322	4.3636	0.1	4602.
27321	5.9244	4.4545	0.1	4572.
27322	5.6478	4.3636	0.1	4660.7
27323	5.74	4.4545	0.1	4629.5
27324	5.4633	4.3636	0.1	4720.4
27325	5.5556	4.4545	0.1	4687.5
27326	5.2789	4.3636	0.1	4781.1
27327	5.3711	4.4545	0.1	4746.1
27328	5.0944	4.3636	0.1	4843.
27329	5.1867	4.4545	0.1	4805.3
27330	4.91	4.3636	0.1	4906.4
27331	5.0022	4.4545	0.1	4865.2
27332	4.7256	4.3636	0.1	4971.6
27333	4.8178	4.4545	0.1	4925.8
27334	4.5411	4.3636	0.1	5038.8
27335	4.6333	4.4545	0.1	4987.3
27336	4.3567	4.3636	0.1	5108.6
27337	4.4489	4.4545	0.1	5049.6
27338	4.1722	4.3636	0.1	5181.6
27339	4.2644	4.4545	0.1	5112.9
27340	3.9878	4.3636	0.1	5258.4
27341	4.08	4.4545	0.1	5177.4
27342	3.8033	4.3636	0.1	5340.1
27343	3.8956	4.4545	0.1	5243.3
27344	3.6189	4.3636	0.1	5428.4
27345	3.7111	4.4545	0.1	5311.
27346	3.4344	4.3636	0.1	5525.6
27347	3.5267	4.4545	0.1	5381.3
27348	3.25	4.3636	0.1	5635.4
27349	3.3422	4.4545	0.1	5455.7
27350	3.0656	4.3636	0.1	5763.5
27351	3.1578	4.4545	0.1	5536.7
27352	2.8811	4.3636	0.1	5918.4
27353	2.9733	4.4545	0.1	5628.1
27354	2.6967	4.3636	0.1	6111.6
27355	2.7889	4.4545	0.1	5735.7
27356	2.5122	4.3636	0.1	6353.6
27357	2.6044	4.4545	0.1	5865.2
27358	2.3278	4.3636	0.1	6638.3
27359	2.42	4.4545	0.1	6016.9
27360	2.1433	4.3636	0.1	6917.1
27361	2.2356	4.4545	0.1	6157.
27362	2.0511	4.4545	0.1	6368.3
27363	1.9589	4.3636	0.1	5667.3
27364	23.723	4.5455	0.1	58.988
27365	23.816	4.6364	0.1	39.959
27366	23.908	4.5455	0.1	22.559
27367	23.539	4.5455	0.1	97.159
27368	23.631	4.6364	0.1	77.91
27369	23.354	4.5455	0.1	135.3
27370	23.447	4.6364	0.1	115.95
27371	23.17	4.5455	0.1	173.4
27372	23.262	4.6364	0.1	153.94
27373	22.986	4.5455	0.1	211.55
27374	23.078	4.6364	0.1	191.98
27375	22.801	4.5455	0.1	249.82
27376	22.893	4.6364	0.1	230.14
27377	22.617	4.5455	0.1	288.23
27378	22.709	4.6364	0.1	268.46
27379	22.432	4.5455	0.1	326.81
27380	22.524	4.6364	0.1	306.97
27381	22.248	4.5455	0.1	365.58
27382	22.34	4.6364	0.1	345.67
27383	22.063	4.5455	0.1	404.53
27384	22.156	4.6364	0.1	384.58
27385	21.879	4.5455	0.1	443.67
27386	21.971	4.6364	0.1	423.68
27387	21.694	4.5455	0.1	483.01
27388	21.787	4.6364	0.1	462.97
27389	21.51	4.5455	0.1	522.53
27390	21.602	4.6364	0.1	502.45
27391	21.326	4.5455	0.1	562.25
27392	21.418	4.6364	0.1	542.13
27393	21.141	4.5455	0.1	602.15
27394	21.233	4.6364	0.1	581.99
27395	20.957	4.5455	0.1	642.24
27396	21.049	4.6364	0.1	622.04
27397	20.772	4.5455	0.1	682.52
27398	20.864	4.6364	0.1	662.27
27399	20.588	4.5455	0.1	722.99
27400	20.68	4.6364	0.1	702.69
27401	20.403	4.5455	0.1	763.65
27402	20.496	4.6364	0.1	743.29
27403	20.219	4.5455	0.1	804.49
27404	20.311	4.6364	0.1	784.08
27405	20.034	4.5455	0.1	845.53
27406	20.127	4.6364	0.1	825.06
27407	19.85	4.5455	0.1	886.76
27408	19.942	4.6364	0.1	866.22
27409	19.666	4.5455	0.1	928.19
27410	19.758	4.6364	0.1	907.58
27411	19.481	4.5455	0.1	969.8
27412	19.573	4.6364	0.1	949.12
27413	19.297	4.5455	0.1	1011.6
27414	19.389	4.6364	0.1	990.86
27415	19.112	4.5455	0.1	1053.6
27416	19.204	4.6364	0.1	1032.8
27417	18.928	4.5455	0.1	1095.8
27418	19.02	4.6364	0.1	1074.9
27419	18.743	4.5455	0.1	1138.2
27420	18.836	4.6364	0.1	1117.2
27421	18.559	4.5455	0.1	1180.8
27422	18.651	4.6364	0.1	1159.7
27423	18.374	4.5455	0.1	1223.6
27424	18.467	4.6364	0.1	1202.4
27425	18.19	4.5455	0.1	1266.6
27426	18.282	4.6364	0.1	1245.3
27427	18.006	4.5455	0.1	1309.8
27428	18.098	4.6364	0.1	1288.4
27429	17.821	4.5455	0.1	1353.2
27430	17.913	4.6364	0.1	1331.7
27431	17.637	4.5455	0.1	1396.7
27432	17.729	4.6364	0.1	1375.2
27433	17.452	4.5455	0.1	1440.5
27434	17.544	4.6364	0.1	1418.9
27435	17.268	4.5455	0.1	1484.5
27436	17.36	4.6364	0.1	1462.8
27437	17.083	4.5455	0.1	1528.7
27438	17.176	4.6364	0.1	1506.9
27439	16.899	4.5455	0.1	1573.1
27440	16.991	4.6364	0.1	1551.2
27441	16.714	4.5455	0.1	1617.6
27442	16.807	4.6364	0.1	1595.7
27443	16.53	4.5455	0.1	1662.4
27444	16.622	4.6364	0.1	1640.3
27445	16.346	4.5455	0.1	1707.4
27446	16.438	4.6364	0.1	1685.2
27447	16.161	4.5455	0.1	1752.6
27448	16.253	4.6364	0.1	1730.3
27449	15.977	4.5455	0.1	1798.
27450	16.069	4.6364	0.1	1775.6
27451	15.792	4.5455	0.1	1843.5
27452	15.884	4.6364	0.1	1821.1
27453	15.608	4.5455	0.1	1889.3
27454	15.7	4.6364	0.1	1866.7
27455	15.423	4.5455	0.1	1935.3
27456	15.516	4.6364	0.1	1912.6
27457	15.239	4.5455	0.1	1981.5
27458	15.331	4.6364	0.1	1958.7
27459	15.054	4.5455	0.1	2027.8
27460	15.147	4.6364	0.1	2005.
27461	14.87	4.5455	0.1	2074.4
27462	14.962	4.6364	0.1	2051.5
27463	14.686	4.5455	0.1	2121.2
27464	14.778	4.6364	0.1	2098.1
27465	14.501	4.5455	0.1	2168.2
27466	14.593	4.6364	0.1	2145.
27467	14.317	4.5455	0.1	2215.3
27468	14.409	4.6364	0.1	2192.1
27469	14.132	4.5455	0.1	2262.7
27470	14.224	4.6364	0.1	2239.4
27471	13.948	4.5455	0.1	2310.3
27472	14.04	4.6364	0.1	2286.8
27473	13.763	4.5455	0.1	2358.
27474	13.856	4.6364	0.1	2334.5
27475	13.579	4.5455	0.1	2406.
27476	13.671	4.6364	0.1	2382.4
27477	13.394	4.5455	0.1	2454.2
27478	13.487	4.6364	0.1	2430.4
27479	13.21	4.5455	0.1	2502.5
27480	13.302	4.6364	0.1	2478.7
27481	13.026	4.5455	0.1	2551.1
27482	13.118	4.6364	0.1	2527.2
27483	12.841	4.5455	0.1	2599.8
27484	12.933	4.6364	0.1	2575.8
27485	12.657	4.5455	0.1	2648.8
27486	12.749	4.6364	0.1	2624.7
27487	12.472	4.5455	0.1	2697.9
27488	12.564	4.6364	0.1	2673.8
27489	12.288	4.5455	0.1	2747.3
27490	12.38	4.6364	0.1	2723.
27491	12.103	4.5455	0.1	2796.8
27492	12.196	4.6364	0.1	2772.5
27493	11.919	4.5455	0.1	2846.6
27494	12.011	4.6364	0.1	2822.1
27495	11.734	4.5455	0.1	2896.5
27496	11.827	4.6364	0.1	2872.
27497	11.55	4.5455	0.1	2946.6
27498	11.642	4.6364	0.1	2922.
27499	11.366	4.5455	0.1	2997.
27500	11.458	4.6364	0.1	2972.3
27501	11.181	4.5455	0.1	3047.5
27502	11.273	4.6364	0.1	3022.7
27503	10.997	4.5455	0.1	3098.2
27504	11.089	4.6364	0.1	3073.3
27505	10.812	4.5455	0.1	3149.1
27506	10.904	4.6364	0.1	3124.2
27507	10.628	4.5455	0.1	3200.2
27508	10.72	4.6364	0.1	3175.2
27509	10.443	4.5455	0.1	3251.5
27510	10.536	4.6364	0.1	3226.4
27511	10.259	4.5455	0.1	3303.
27512	10.351	4.6364	0.1	3277.9
27513	10.074	4.5455	0.1	3354.7
27514	10.167	4.6364	0.1	3329.5
27515	9.89	4.5455	0.1	3406.6
27516	9.9822	4.6364	0.1	3381.3
27517	9.7056	4.5455	0.1	3458.7
27518	9.7978	4.6364	0.1	3433.3
27519	9.5211	4.5455	0.1	3511.
27520	9.6133	4.6364	0.1	3485.5
27521	9.3367	4.5455	0.1	3563.4
27522	9.4289	4.6364	0.1	3537.9
27523	9.1522	4.5455	0.1	3616.1
27524	9.2444	4.6364	0.1	3590.5
27525	8.9678	4.5455	0.1	3668.9
27526	9.06	4.6364	0.1	3643.3
27527	8.7833	4.5455	0.1	3722.
27528	8.8756	4.6364	0.1	3696.3
27529	8.5989	4.5455	0.1	3775.3
27530	8.6911	4.6364	0.1	3749.5
27531	8.4144	4.5455	0.1	3828.7
27532	8.5067	4.6364	0.1	3802.9
27533	8.23	4.5455	0.1	3882.3
27534	8.3222	4.6364	0.1	3856.5
27535	8.0456	4.5455	0.1	3936.2
27536	8.1378	4.6364	0.1	3910.3
27537	7.8611	4.5455	0.1	3990.3
27538	7.9533	4.6364	0.1	3964.3
27539	7.6767	4.5455	0.1	4044.5
27540	7.7689	4.6364	0.1	4018.5
27541	7.4922	4.5455	0.1	4099.
27542	7.5844	4.6364	0.1	4072.9
27543	7.3078	4.5455	0.1	4153.7
27544	7.4	4.6364	0.1	4127.5
27545	7.1233	4.5455	0.1	4208.6
27546	7.2156	4.6364	0.1	4182.3
27547	6.9389	4.5455	0.1	4263.8
27548	7.0311	4.6364	0.1	4237.3
27549	6.7544	4.5455	0.1	4319.1
27550	6.8467	4.6364	0.1	4292.4
27551	6.57	4.5455	0.1	4374.7
27552	6.6622	4.6364	0.1	4347.8
27553	6.3856	4.5455	0.1	4430.6
27554	6.4778	4.6364	0.1	4403.3
27555	6.2011	4.5455	0.1	4486.7
27556	6.2933	4.6364	0.1	4458.9
27557	6.0167	4.5455	0.1	4543.
27558	6.1089	4.6364	0.1	4514.6
27559	5.8322	4.5455	0.1	4599.6
27560	5.9244	4.6364	0.1	4570.4
27561	5.6478	4.5455	0.1	4656.3
27562	5.74	4.6364	0.1	4626.2
27563	5.4633	4.5455	0.1	4713.3
27564	5.5556	4.6364	0.1	4681.9
27565	5.2789	4.5455	0.1	4770.4
27566	5.3711	4.6364	0.1	4737.3
27567	5.0944	4.5455	0.1	4827.5
27568	5.1867	4.6364	0.1	4792.4
27569	4.91	4.5455	0.1	4884.6
27570	5.0022	4.6364	0.1	4846.8
27571	4.7256	4.5455	0.1	4941.5
27572	4.8178	4.6364	0.1	4900.2
27573	4.5411	4.5455	0.1	4998.
27574	4.6333	4.6364	0.1	4952.3
27575	4.3567	4.5455	0.1	5053.9
27576	4.4489	4.6364	0.1	5002.5
27577	4.1722	4.5455	0.1	5108.7
27578	4.2644	4.6364	0.1	5050.1
27579	3.9878	4.5455	0.1	5162.1
27580	4.08	4.6364	0.1	5094.3
27581	3.8033	4.5455	0.1	5213.7
27582	3.8956	4.6364	0.1	5134.
27583	3.6189	4.5455	0.1	5263.
27584	3.7111	4.6364	0.1	5168.2
27585	3.4344	4.5455	0.1	5309.8
27586	3.5267	4.6364	0.1	5195.3
27587	3.25	4.5455	0.1	5354.2
27588	3.3422	4.6364	0.1	5214.1
27589	3.0656	4.5455	0.1	5396.5
27590	3.1578	4.6364	0.1	5223.3
27591	2.8811	4.5455	0.1	5437.4
27592	2.9733	4.6364	0.1	5221.4
27593	2.6967	4.5455	0.1	5475.7
27594	2.7889	4.6364	0.1	5207.1
27595	2.5122	4.5455	0.1	5504.8
27596	2.6044	4.6364	0.1	5176.4
27597	2.3278	4.5455	0.1	5491.2
27598	2.42	4.6364	0.1	5120.3
27599	2.1433	4.5455	0.1	5477.6
27600	2.2356	4.6364	0.1	5008.4
27601	2.0511	4.6364	0.1	4990.8
27602	1.9589	4.5455	0.1	4420.1
27603	23.723	4.7273	0.1	58.821
27604	23.816	4.8182	0.1	39.922
27605	23.908	4.7273	0.1	22.567
27606	23.539	4.7273	0.1	96.703
27607	23.631	4.8182	0.1	77.522
27608	23.354	4.7273	0.1	134.6
27609	23.447	4.8182	0.1	115.27
27610	23.17	4.7273	0.1	172.54
27611	23.262	4.8182	0.1	153.04
27612	22.986	4.7273	0.1	210.59
27613	23.078	4.8182	0.1	190.96
27614	22.801	4.7273	0.1	248.82
27615	22.893	4.8182	0.1	229.07
27616	22.617	4.7273	0.1	287.24
27617	22.709	4.8182	0.1	267.41
27618	22.432	4.7273	0.1	325.88
27619	22.524	4.8182	0.1	305.98
27620	22.248	4.7273	0.1	364.72
27621	22.34	4.8182	0.1	344.77
27622	22.063	4.7273	0.1	403.77
27623	22.156	4.8182	0.1	383.78
27624	21.879	4.7273	0.1	443.02
27625	21.971	4.8182	0.1	422.99
27626	21.694	4.7273	0.1	482.46
27627	21.787	4.8182	0.1	462.4
27628	21.51	4.7273	0.1	522.1
27629	21.602	4.8182	0.1	502.
27630	21.326	4.7273	0.1	561.92
27631	21.418	4.8182	0.1	541.79
27632	21.141	4.7273	0.1	601.92
27633	21.233	4.8182	0.1	581.76
27634	20.957	4.7273	0.1	642.11
27635	21.049	4.8182	0.1	621.91
27636	20.772	4.7273	0.1	682.48
27637	20.864	4.8182	0.1	662.24
27638	20.588	4.7273	0.1	723.03
27639	20.68	4.8182	0.1	702.75
27640	20.403	4.7273	0.1	763.77
27641	20.496	4.8182	0.1	743.43
27642	20.219	4.7273	0.1	804.69
27643	20.311	4.8182	0.1	784.3
27644	20.034	4.7273	0.1	845.79
27645	20.127	4.8182	0.1	825.34
27646	19.85	4.7273	0.1	887.08
27647	19.942	4.8182	0.1	866.57
27648	19.666	4.7273	0.1	928.56
27649	19.758	4.8182	0.1	907.98
27650	19.481	4.7273	0.1	970.22
27651	19.573	4.8182	0.1	949.58
27652	19.297	4.7273	0.1	1012.1
27653	19.389	4.8182	0.1	991.36
27654	19.112	4.7273	0.1	1054.1
27655	19.204	4.8182	0.1	1033.3
27656	18.928	4.7273	0.1	1096.4
27657	19.02	4.8182	0.1	1075.5
27658	18.743	4.7273	0.1	1138.8
27659	18.836	4.8182	0.1	1117.8
27660	18.559	4.7273	0.1	1181.4
27661	18.651	4.8182	0.1	1160.4
27662	18.374	4.7273	0.1	1224.2
27663	18.467	4.8182	0.1	1203.1
27664	18.19	4.7273	0.1	1267.2
27665	18.282	4.8182	0.1	1246.
27666	18.006	4.7273	0.1	1310.4
27667	18.098	4.8182	0.1	1289.2
27668	17.821	4.7273	0.1	1353.8
27669	17.913	4.8182	0.1	1332.5
27670	17.637	4.7273	0.1	1397.4
27671	17.729	4.8182	0.1	1376.
27672	17.452	4.7273	0.1	1441.2
27673	17.544	4.8182	0.1	1419.7
27674	17.268	4.7273	0.1	1485.2
27675	17.36	4.8182	0.1	1463.6
27676	17.083	4.7273	0.1	1529.4
27677	17.176	4.8182	0.1	1507.7
27678	16.899	4.7273	0.1	1573.8
27679	16.991	4.8182	0.1	1552.
27680	16.714	4.7273	0.1	1618.4
27681	16.807	4.8182	0.1	1596.5
27682	16.53	4.7273	0.1	1663.2
27683	16.622	4.8182	0.1	1641.1
27684	16.346	4.7273	0.1	1708.2
27685	16.438	4.8182	0.1	1686.
27686	16.161	4.7273	0.1	1753.3
27687	16.253	4.8182	0.1	1731.1
27688	15.977	4.7273	0.1	1798.7
27689	16.069	4.8182	0.1	1776.4
27690	15.792	4.7273	0.1	1844.3
27691	15.884	4.8182	0.1	1821.9
27692	15.608	4.7273	0.1	1890.1
27693	15.7	4.8182	0.1	1867.6
27694	15.423	4.7273	0.1	1936.1
27695	15.516	4.8182	0.1	1913.4
27696	15.239	4.7273	0.1	1982.2
27697	15.331	4.8182	0.1	1959.5
27698	15.054	4.7273	0.1	2028.6
27699	15.147	4.8182	0.1	2005.8
27700	14.87	4.7273	0.1	2075.2
27701	14.962	4.8182	0.1	2052.3
27702	14.686	4.7273	0.1	2122.
27703	14.778	4.8182	0.1	2099.
27704	14.501	4.7273	0.1	2169.
27705	14.593	4.8182	0.1	2145.8
27706	14.317	4.7273	0.1	2216.1
27707	14.409	4.8182	0.1	2192.9
27708	14.132	4.7273	0.1	2263.5
27709	14.224	4.8182	0.1	2240.2
27710	13.948	4.7273	0.1	2311.1
27711	14.04	4.8182	0.1	2287.7
27712	13.763	4.7273	0.1	2358.9
27713	13.856	4.8182	0.1	2335.4
27714	13.579	4.7273	0.1	2406.8
27715	13.671	4.8182	0.1	2383.2
27716	13.394	4.7273	0.1	2455.
27717	13.487	4.8182	0.1	2431.3
27718	13.21	4.7273	0.1	2503.4
27719	13.302	4.8182	0.1	2479.6
27720	13.026	4.7273	0.1	2551.9
27721	13.118	4.8182	0.1	2528.1
27722	12.841	4.7273	0.1	2600.7
27723	12.933	4.8182	0.1	2576.7
27724	12.657	4.7273	0.1	2649.7
27725	12.749	4.8182	0.1	2625.6
27726	12.472	4.7273	0.1	2698.8
27727	12.564	4.8182	0.1	2674.7
27728	12.288	4.7273	0.1	2748.2
27729	12.38	4.8182	0.1	2724.
27730	12.103	4.7273	0.1	2797.8
27731	12.196	4.8182	0.1	2773.4
27732	11.919	4.7273	0.1	2847.5
27733	12.011	4.8182	0.1	2823.1
27734	11.734	4.7273	0.1	2897.5
27735	11.827	4.8182	0.1	2873.
27736	11.55	4.7273	0.1	2947.7
27737	11.642	4.8182	0.1	2923.1
27738	11.366	4.7273	0.1	2998.
27739	11.458	4.8182	0.1	2973.3
27740	11.181	4.7273	0.1	3048.6
27741	11.273	4.8182	0.1	3023.8
27742	10.997	4.7273	0.1	3099.3
27743	11.089	4.8182	0.1	3074.5
27744	10.812	4.7273	0.1	3150.3
27745	10.904	4.8182	0.1	3125.4
27746	10.628	4.7273	0.1	3201.4
27747	10.72	4.8182	0.1	3176.4
27748	10.443	4.7273	0.1	3252.8
27749	10.536	4.8182	0.1	3227.7
27750	10.259	4.7273	0.1	3304.3
27751	10.351	4.8182	0.1	3279.2
27752	10.074	4.7273	0.1	3356.1
27753	10.167	4.8182	0.1	3330.9
27754	9.89	4.7273	0.1	3408.
27755	9.9822	4.8182	0.1	3382.7
27756	9.7056	4.7273	0.1	3460.2
27757	9.7978	4.8182	0.1	3434.8
27758	9.5211	4.7273	0.1	3512.5
27759	9.6133	4.8182	0.1	3487.1
27760	9.3367	4.7273	0.1	3565.1
27761	9.4289	4.8182	0.1	3539.6
27762	9.1522	4.7273	0.1	3617.8
27763	9.2444	4.8182	0.1	3592.3
27764	8.9678	4.7273	0.1	3670.7
27765	9.06	4.8182	0.1	3645.2
27766	8.7833	4.7273	0.1	3723.9
27767	8.8756	4.8182	0.1	3698.2
27768	8.5989	4.7273	0.1	3777.2
27769	8.6911	4.8182	0.1	3751.5
27770	8.4144	4.7273	0.1	3830.8
27771	8.5067	4.8182	0.1	3805.
27772	8.23	4.7273	0.1	3884.5
27773	8.3222	4.8182	0.1	3858.7
27774	8.0456	4.7273	0.1	3938.4
27775	8.1378	4.8182	0.1	3912.6
27776	7.8611	4.7273	0.1	3992.6
27777	7.9533	4.8182	0.1	3966.7
27778	7.6767	4.7273	0.1	4046.9
27779	7.7689	4.8182	0.1	4020.9
27780	7.4922	4.7273	0.1	4101.4
27781	7.5844	4.8182	0.1	4075.4
27782	7.3078	4.7273	0.1	4156.1
27783	7.4	4.8182	0.1	4130.
27784	7.1233	4.7273	0.1	4210.9
27785	7.2156	4.8182	0.1	4184.7
27786	6.9389	4.7273	0.1	4265.9
27787	7.0311	4.8182	0.1	4239.6
27788	6.7544	4.7273	0.1	4321.1
27789	6.8467	4.8182	0.1	4294.6
27790	6.57	4.7273	0.1	4376.3
27791	6.6622	4.8182	0.1	4349.6
27792	6.3856	4.7273	0.1	4431.6
27793	6.4778	4.8182	0.1	4404.6
27794	6.2011	4.7273	0.1	4486.9
27795	6.2933	4.8182	0.1	4459.6
27796	6.0167	4.7273	0.1	4542.1
27797	6.1089	4.8182	0.1	4514.4
27798	5.8322	4.7273	0.1	4597.1
27799	5.9244	4.8182	0.1	4568.9
27800	5.6478	4.7273	0.1	4651.8
27801	5.74	4.8182	0.1	4622.9
27802	5.4633	4.7273	0.1	4706.
27803	5.5556	4.8182	0.1	4676.2
27804	5.2789	4.7273	0.1	4759.4
27805	5.3711	4.8182	0.1	4728.5
27806	5.0944	4.7273	0.1	4811.7
27807	5.1867	4.8182	0.1	4779.3
27808	4.91	4.7273	0.1	4862.4
27809	5.0022	4.8182	0.1	4828.3
27810	4.7256	4.7273	0.1	4911.
27811	4.8178	4.8182	0.1	4874.6
27812	4.5411	4.7273	0.1	4956.7
27813	4.6333	4.8182	0.1	4917.4
27814	4.3567	4.7273	0.1	4998.7
27815	4.4489	4.8182	0.1	4955.7
27816	4.1722	4.7273	0.1	5035.6
27817	4.2644	4.8182	0.1	4987.9
27818	3.9878	4.7273	0.1	5066.
27819	4.08	4.8182	0.1	5012.4
27820	3.8033	4.7273	0.1	5088.
27821	3.8956	4.8182	0.1	5027.
27822	3.6189	4.7273	0.1	5099.5
27823	3.7111	4.8182	0.1	5029.
27824	3.4344	4.7273	0.1	5097.8
27825	3.5267	4.8182	0.1	5015.1
27826	3.25	4.7273	0.1	5080.
27827	3.3422	4.8182	0.1	4981.8
27828	3.0656	4.7273	0.1	5042.5
27829	3.1578	4.8182	0.1	4924.7
27830	2.8811	4.7273	0.1	4981.3
27831	2.9733	4.8182	0.1	4839.2
27832	2.6967	4.7273	0.1	4890.8
27833	2.7889	4.8182	0.1	4720.5
27834	2.5122	4.7273	0.1	4762.6
27835	2.6044	4.8182	0.1	4564.1
27836	2.3278	4.7273	0.1	4586.1
27837	2.42	4.8182	0.1	4366.3
27838	2.1433	4.7273	0.1	4432.6
27839	2.2356	4.8182	0.1	4129.8
27840	2.0511	4.8182	0.1	4014.1
27841	1.9589	4.7273	0.1	3547.8
27842	23.723	4.9091	0.1	58.569
27843	23.816	5.	0.1	39.821
27844	23.908	4.9091	0.1	22.55
27845	23.539	4.9091	0.1	96.098
27846	23.631	5.	0.1	76.98
27847	23.354	4.9091	0.1	133.74
27848	23.447	5.	0.1	114.39
27849	23.17	4.9091	0.1	171.5
27850	23.262	5.	0.1	151.96
27851	22.986	4.9091	0.1	209.48
27852	23.078	5.	0.1	189.78
27853	22.801	4.9091	0.1	247.71
27854	22.893	5.	0.1	227.9
27855	22.617	4.9091	0.1	286.19
27856	22.709	5.	0.1	266.3
27857	22.432	4.9091	0.1	324.92
27858	22.524	5.	0.1	304.97
27859	22.248	4.9091	0.1	363.88
27860	22.34	5.	0.1	343.89
27861	22.063	4.9091	0.1	403.05
27862	22.156	5.	0.1	383.03
27863	21.879	4.9091	0.1	442.43
27864	21.971	5.	0.1	422.39
27865	21.694	4.9091	0.1	482.
27866	21.787	5.	0.1	461.93
27867	21.51	4.9091	0.1	521.75
27868	21.602	5.	0.1	501.66
27869	21.326	4.9091	0.1	561.69
27870	21.418	5.	0.1	541.57
27871	21.141	4.9091	0.1	601.8
27872	21.233	5.	0.1	581.66
27873	20.957	4.9091	0.1	642.09
27874	21.049	5.	0.1	621.91
27875	20.772	4.9091	0.1	682.55
27876	20.864	5.	0.1	662.34
27877	20.588	4.9091	0.1	723.19
27878	20.68	5.	0.1	702.94
27879	20.403	4.9091	0.1	764.01
27880	20.496	5.	0.1	743.71
27881	20.219	4.9091	0.1	805.
27882	20.311	5.	0.1	784.65
27883	20.034	4.9091	0.1	846.17
27884	20.127	5.	0.1	825.76
27885	19.85	4.9091	0.1	887.52
27886	19.942	5.	0.1	867.05
27887	19.666	4.9091	0.1	929.05
27888	19.758	5.	0.1	908.52
27889	19.481	4.9091	0.1	970.76
27890	19.573	5.	0.1	950.16
27891	19.297	4.9091	0.1	1012.7
27892	19.389	5.	0.1	991.99
27893	19.112	4.9091	0.1	1054.7
27894	19.204	5.	0.1	1034.
27895	18.928	4.9091	0.1	1097.
27896	19.02	5.	0.1	1076.2
27897	18.743	4.9091	0.1	1139.5
27898	18.836	5.	0.1	1118.6
27899	18.559	4.9091	0.1	1182.1
27900	18.651	5.	0.1	1161.1
27901	18.374	4.9091	0.1	1225.
27902	18.467	5.	0.1	1203.9
27903	18.19	4.9091	0.1	1268.
27904	18.282	5.	0.1	1246.8
27905	18.006	4.9091	0.1	1311.2
27906	18.098	5.	0.1	1290.
27907	17.821	4.9091	0.1	1354.6
27908	17.913	5.	0.1	1333.3
27909	17.637	4.9091	0.1	1398.2
27910	17.729	5.	0.1	1376.8
27911	17.452	4.9091	0.1	1442.1
27912	17.544	5.	0.1	1420.5
27913	17.268	4.9091	0.1	1486.1
27914	17.36	5.	0.1	1464.5
27915	17.083	4.9091	0.1	1530.3
27916	17.176	5.	0.1	1508.6
27917	16.899	4.9091	0.1	1574.6
27918	16.991	5.	0.1	1552.9
27919	16.714	4.9091	0.1	1619.2
27920	16.807	5.	0.1	1597.4
27921	16.53	4.9091	0.1	1664.
27922	16.622	5.	0.1	1642.
27923	16.346	4.9091	0.1	1709.
27924	16.438	5.	0.1	1686.9
27925	16.161	4.9091	0.1	1754.2
27926	16.253	5.	0.1	1732.
27927	15.977	4.9091	0.1	1799.6
27928	16.069	5.	0.1	1777.3
27929	15.792	4.9091	0.1	1845.2
27930	15.884	5.	0.1	1822.8
27931	15.608	4.9091	0.1	1891.
27932	15.7	5.	0.1	1868.5
27933	15.423	4.9091	0.1	1936.9
27934	15.516	5.	0.1	1914.4
27935	15.239	4.9091	0.1	1983.1
27936	15.331	5.	0.1	1960.5
27937	15.054	4.9091	0.1	2029.5
27938	15.147	5.	0.1	2006.7
27939	14.87	4.9091	0.1	2076.1
27940	14.962	5.	0.1	2053.2
27941	14.686	4.9091	0.1	2122.9
27942	14.778	5.	0.1	2099.9
27943	14.501	4.9091	0.1	2169.8
27944	14.593	5.	0.1	2146.8
27945	14.317	4.9091	0.1	2217.
27946	14.409	5.	0.1	2193.9
27947	14.132	4.9091	0.1	2264.4
27948	14.224	5.	0.1	2241.1
27949	13.948	4.9091	0.1	2312.
27950	14.04	5.	0.1	2288.6
27951	13.763	4.9091	0.1	2359.8
27952	13.856	5.	0.1	2336.3
27953	13.579	4.9091	0.1	2407.7
27954	13.671	5.	0.1	2384.2
27955	13.394	4.9091	0.1	2455.9
27956	13.487	5.	0.1	2432.3
27957	13.21	4.9091	0.1	2504.3
27958	13.302	5.	0.1	2480.6
27959	13.026	4.9091	0.1	2552.9
27960	13.118	5.	0.1	2529.1
27961	12.841	4.9091	0.1	2601.7
27962	12.933	5.	0.1	2577.7
27963	12.657	4.9091	0.1	2650.7
27964	12.749	5.	0.1	2626.6
27965	12.472	4.9091	0.1	2699.8
27966	12.564	5.	0.1	2675.7
27967	12.288	4.9091	0.1	2749.2
27968	12.38	5.	0.1	2725.
27969	12.103	4.9091	0.1	2798.8
27970	12.196	5.	0.1	2774.5
27971	11.919	4.9091	0.1	2848.6
27972	12.011	5.	0.1	2824.2
27973	11.734	4.9091	0.1	2898.6
27974	11.827	5.	0.1	2874.1
27975	11.55	4.9091	0.1	2948.8
27976	11.642	5.	0.1	2924.2
27977	11.366	4.9091	0.1	2999.2
27978	11.458	5.	0.1	2974.5
27979	11.181	4.9091	0.1	3049.8
27980	11.273	5.	0.1	3025.
27981	10.997	4.9091	0.1	3100.5
27982	11.089	5.	0.1	3075.7
27983	10.812	4.9091	0.1	3151.5
27984	10.904	5.	0.1	3126.7
27985	10.628	4.9091	0.1	3202.7
27986	10.72	5.	0.1	3177.8
27987	10.443	4.9091	0.1	3254.1
27988	10.536	5.	0.1	3229.1
27989	10.259	4.9091	0.1	3305.7
27990	10.351	5.	0.1	3280.6
27991	10.074	4.9091	0.1	3357.6
27992	10.167	5.	0.1	3332.4
27993	9.89	4.9091	0.1	3409.6
27994	9.9822	5.	0.1	3384.3
27995	9.7056	4.9091	0.1	3461.8
27996	9.7978	5.	0.1	3436.5
27997	9.5211	4.9091	0.1	3514.2
27998	9.6133	5.	0.1	3488.8
27999	9.3367	4.9091	0.1	3566.8
28000	9.4289	5.	0.1	3541.4
28001	9.1522	4.9091	0.1	3619.7
28002	9.2444	5.	0.1	3594.1
28003	8.9678	4.9091	0.1	3672.7
28004	9.06	5.	0.1	3647.1
28005	8.7833	4.9091	0.1	3725.9
28006	8.8756	5.	0.1	3700.3
28007	8.5989	4.9091	0.1	3779.3
28008	8.6911	5.	0.1	3753.7
28009	8.4144	4.9091	0.1	3833.
28010	8.5067	5.	0.1	3807.3
28011	8.23	4.9091	0.1	3886.8
28012	8.3222	5.	0.1	3861.
28013	8.0456	4.9091	0.1	3940.8
28014	8.1378	5.	0.1	3915.
28015	7.8611	4.9091	0.1	3995.
28016	7.9533	5.	0.1	3969.2
28017	7.6767	4.9091	0.1	4049.4
28018	7.7689	5.	0.1	4023.5
28019	7.4922	4.9091	0.1	4103.9
28020	7.5844	5.	0.1	4078.
28021	7.3078	4.9091	0.1	4158.6
28022	7.4	5.	0.1	4132.6
28023	7.1233	4.9091	0.1	4213.4
28024	7.2156	5.	0.1	4187.3
28025	6.9389	4.9091	0.1	4268.2
28026	7.0311	5.	0.1	4242.1
28027	6.7544	4.9091	0.1	4323.1
28028	6.8467	5.	0.1	4296.8
28029	6.57	4.9091	0.1	4378.
28030	6.6622	5.	0.1	4351.6
28031	6.3856	4.9091	0.1	4432.7
28032	6.4778	5.	0.1	4406.1
28033	6.2011	4.9091	0.1	4487.1
28034	6.2933	5.	0.1	4460.4
28035	6.0167	4.9091	0.1	4541.2
28036	6.1089	5.	0.1	4514.3
28037	5.8322	4.9091	0.1	4594.7
28038	5.9244	5.	0.1	4567.5
28039	5.6478	4.9091	0.1	4647.3
28040	5.74	5.	0.1	4619.7
28041	5.4633	4.9091	0.1	4698.7
28042	5.5556	5.	0.1	4670.7
28043	5.2789	4.9091	0.1	4748.5
28044	5.3711	5.	0.1	4719.9
28045	5.0944	4.9091	0.1	4796.
28046	5.1867	5.	0.1	4766.7
28047	4.91	4.9091	0.1	4840.5
28048	5.0022	5.	0.1	4810.3
28049	4.7256	4.9091	0.1	4881.
28050	4.8178	5.	0.1	4849.8
28051	4.5411	4.9091	0.1	4916.4
28052	4.6333	5.	0.1	4883.8
28053	4.3567	4.9091	0.1	4944.9
28054	4.4489	5.	0.1	4910.7
28055	4.1722	4.9091	0.1	4964.7
28056	4.2644	5.	0.1	4928.5
28057	3.9878	4.9091	0.1	4973.2
28058	4.08	5.	0.1	4934.6
28059	3.8033	4.9091	0.1	4967.4
28060	3.8956	5.	0.1	4925.8
28061	3.6189	4.9091	0.1	4943.6
28062	3.7111	5.	0.1	4898.1
28063	3.4344	4.9091	0.1	4897.2
28064	3.5267	5.	0.1	4847.
28065	3.25	4.9091	0.1	4823.1
28066	3.3422	5.	0.1	4767.
28067	3.0656	4.9091	0.1	4715.3
28068	3.1578	5.	0.1	4651.7
28069	2.8811	4.9091	0.1	4567.9
28070	2.9733	5.	0.1	4494.9
28071	2.6967	4.9091	0.1	4375.7
28072	2.7889	5.	0.1	4291.1
28073	2.5122	4.9091	0.1	4137.7
28074	2.6044	5.	0.1	4038.7
28075	2.3278	4.9091	0.1	3862.5
28076	2.42	5.	0.1	3745.
28077	2.1433	4.9091	0.1	3640.7
28078	2.2356	5.	0.1	3434.5
28079	2.0511	5.	0.1	3267.6
28080	1.9589	4.9091	0.1	2899.5
28081	23.723	5.0909	0.1	58.188
28082	23.816	5.1818	0.1	39.612
28083	23.908	5.0909	0.1	22.486
28084	23.539	5.0909	0.1	95.293
28085	23.631	5.1818	0.1	76.216
28086	23.354	5.0909	0.1	132.65
28087	23.447	5.1818	0.1	113.27
28088	23.17	5.0909	0.1	170.29
28089	23.262	5.1818	0.1	150.67
28090	22.986	5.0909	0.1	208.26
28091	23.078	5.1818	0.1	188.48
28092	22.801	5.0909	0.1	246.55
28093	22.893	5.1818	0.1	226.68
28094	22.617	5.0909	0.1	285.15
28095	22.709	5.1818	0.1	265.22
28096	22.432	5.0909	0.1	324.01
28097	22.524	5.1818	0.1	304.05
28098	22.248	5.0909	0.1	363.11
28099	22.34	5.1818	0.1	343.13
28100	22.063	5.0909	0.1	402.44
28101	22.156	5.1818	0.1	382.43
28102	21.879	5.0909	0.1	441.96
28103	21.971	5.1818	0.1	421.94
28104	21.694	5.0909	0.1	481.66
28105	21.787	5.1818	0.1	461.64
28106	21.51	5.0909	0.1	521.55
28107	21.602	5.1818	0.1	501.5
28108	21.326	5.0909	0.1	561.61
28109	21.418	5.1818	0.1	541.54
28110	21.141	5.0909	0.1	601.83
28111	21.233	5.1818	0.1	581.74
28112	20.957	5.0909	0.1	642.22
28113	21.049	5.1818	0.1	622.1
28114	20.772	5.0909	0.1	682.78
28115	20.864	5.1818	0.1	662.62
28116	20.588	5.0909	0.1	723.5
28117	20.68	5.1818	0.1	703.3
28118	20.403	5.0909	0.1	764.4
28119	20.496	5.1818	0.1	744.15
28120	20.219	5.0909	0.1	805.46
28121	20.311	5.1818	0.1	785.16
28122	20.034	5.0909	0.1	846.69
28123	20.127	5.1818	0.1	826.34
28124	19.85	5.0909	0.1	888.1
28125	19.942	5.1818	0.1	867.69
28126	19.666	5.0909	0.1	929.68
28127	19.758	5.1818	0.1	909.21
28128	19.481	5.0909	0.1	971.44
28129	19.573	5.1818	0.1	950.9
28130	19.297	5.0909	0.1	1013.4
28131	19.389	5.1818	0.1	992.76
28132	19.112	5.0909	0.1	1055.5
28133	19.204	5.1818	0.1	1034.8
28134	18.928	5.0909	0.1	1097.8
28135	19.02	5.1818	0.1	1077.
28136	18.743	5.0909	0.1	1140.3
28137	18.836	5.1818	0.1	1119.4
28138	18.559	5.0909	0.1	1183.
28139	18.651	5.1818	0.1	1162.
28140	18.374	5.0909	0.1	1225.8
28141	18.467	5.1818	0.1	1204.8
28142	18.19	5.0909	0.1	1268.9
28143	18.282	5.1818	0.1	1247.8
28144	18.006	5.0909	0.1	1312.1
28145	18.098	5.1818	0.1	1290.9
28146	17.821	5.0909	0.1	1355.5
28147	17.913	5.1818	0.1	1334.3
28148	17.637	5.0909	0.1	1399.2
28149	17.729	5.1818	0.1	1377.8
28150	17.452	5.0909	0.1	1443.
28151	17.544	5.1818	0.1	1421.5
28152	17.268	5.0909	0.1	1487.
28153	17.36	5.1818	0.1	1465.4
28154	17.083	5.0909	0.1	1531.2
28155	17.176	5.1818	0.1	1509.6
28156	16.899	5.0909	0.1	1575.6
28157	16.991	5.1818	0.1	1553.9
28158	16.714	5.0909	0.1	1620.2
28159	16.807	5.1818	0.1	1598.4
28160	16.53	5.0909	0.1	1665.
28161	16.622	5.1818	0.1	1643.1
28162	16.346	5.0909	0.1	1710.
28163	16.438	5.1818	0.1	1687.9
28164	16.161	5.0909	0.1	1755.2
28165	16.253	5.1818	0.1	1733.
28166	15.977	5.0909	0.1	1800.6
28167	16.069	5.1818	0.1	1778.3
28168	15.792	5.0909	0.1	1846.1
28169	15.884	5.1818	0.1	1823.8
28170	15.608	5.0909	0.1	1891.9
28171	15.7	5.1818	0.1	1869.5
28172	15.423	5.0909	0.1	1937.9
28173	15.516	5.1818	0.1	1915.4
28174	15.239	5.0909	0.1	1984.1
28175	15.331	5.1818	0.1	1961.5
28176	15.054	5.0909	0.1	2030.5
28177	15.147	5.1818	0.1	2007.8
28178	14.87	5.0909	0.1	2077.1
28179	14.962	5.1818	0.1	2054.2
28180	14.686	5.0909	0.1	2123.8
28181	14.778	5.1818	0.1	2100.9
28182	14.501	5.0909	0.1	2170.8
28183	14.593	5.1818	0.1	2147.8
28184	14.317	5.0909	0.1	2218.
28185	14.409	5.1818	0.1	2194.9
28186	14.132	5.0909	0.1	2265.4
28187	14.224	5.1818	0.1	2242.2
28188	13.948	5.0909	0.1	2313.
28189	14.04	5.1818	0.1	2289.7
28190	13.763	5.0909	0.1	2360.8
28191	13.856	5.1818	0.1	2337.4
28192	13.579	5.0909	0.1	2408.8
28193	13.671	5.1818	0.1	2385.2
28194	13.394	5.0909	0.1	2456.9
28195	13.487	5.1818	0.1	2433.3
28196	13.21	5.0909	0.1	2505.3
28197	13.302	5.1818	0.1	2481.6
28198	13.026	5.0909	0.1	2553.9
28199	13.118	5.1818	0.1	2530.1
28200	12.841	5.0909	0.1	2602.7
28201	12.933	5.1818	0.1	2578.8
28202	12.657	5.0909	0.1	2651.7
28203	12.749	5.1818	0.1	2627.7
28204	12.472	5.0909	0.1	2700.9
28205	12.564	5.1818	0.1	2676.8
28206	12.288	5.0909	0.1	2750.3
28207	12.38	5.1818	0.1	2726.2
28208	12.103	5.0909	0.1	2799.9
28209	12.196	5.1818	0.1	2775.7
28210	11.919	5.0909	0.1	2849.7
28211	12.011	5.1818	0.1	2825.4
28212	11.734	5.0909	0.1	2899.8
28213	11.827	5.1818	0.1	2875.3
28214	11.55	5.0909	0.1	2950.
28215	11.642	5.1818	0.1	2925.4
28216	11.366	5.0909	0.1	3000.4
28217	11.458	5.1818	0.1	2975.8
28218	11.181	5.0909	0.1	3051.
28219	11.273	5.1818	0.1	3026.3
28220	10.997	5.0909	0.1	3101.9
28221	11.089	5.1818	0.1	3077.1
28222	10.812	5.0909	0.1	3152.9
28223	10.904	5.1818	0.1	3128.
28224	10.628	5.0909	0.1	3204.2
28225	10.72	5.1818	0.1	3179.2
28226	10.443	5.0909	0.1	3255.6
28227	10.536	5.1818	0.1	3230.6
28228	10.259	5.0909	0.1	3307.3
28229	10.351	5.1818	0.1	3282.2
28230	10.074	5.0909	0.1	3359.1
28231	10.167	5.1818	0.1	3334.
28232	9.89	5.0909	0.1	3411.2
28233	9.9822	5.1818	0.1	3386.
28234	9.7056	5.0909	0.1	3463.5
28235	9.7978	5.1818	0.1	3438.2
28236	9.5211	5.0909	0.1	3516.
28237	9.6133	5.1818	0.1	3490.6
28238	9.3367	5.0909	0.1	3568.7
28239	9.4289	5.1818	0.1	3543.3
28240	9.1522	5.0909	0.1	3621.6
28241	9.2444	5.1818	0.1	3596.1
28242	8.9678	5.0909	0.1	3674.7
28243	9.06	5.1818	0.1	3649.2
28244	8.7833	5.0909	0.1	3728.1
28245	8.8756	5.1818	0.1	3702.5
28246	8.5989	5.0909	0.1	3781.6
28247	8.6911	5.1818	0.1	3755.9
28248	8.4144	5.0909	0.1	3835.3
28249	8.5067	5.1818	0.1	3809.6
28250	8.23	5.0909	0.1	3889.2
28251	8.3222	5.1818	0.1	3863.5
28252	8.0456	5.0909	0.1	3943.4
28253	8.1378	5.1818	0.1	3917.6
28254	7.8611	5.0909	0.1	3997.6
28255	7.9533	5.1818	0.1	3971.8
28256	7.6767	5.0909	0.1	4052.
28257	7.7689	5.1818	0.1	4026.2
28258	7.4922	5.0909	0.1	4106.6
28259	7.5844	5.1818	0.1	4080.7
28260	7.3078	5.0909	0.1	4161.3
28261	7.4	5.1818	0.1	4135.3
28262	7.1233	5.0909	0.1	4216.
28263	7.2156	5.1818	0.1	4190.
28264	6.9389	5.0909	0.1	4270.7
28265	7.0311	5.1818	0.1	4244.7
28266	6.7544	5.0909	0.1	4325.3
28267	6.8467	5.1818	0.1	4299.3
28268	6.57	5.0909	0.1	4379.8
28269	6.6622	5.1818	0.1	4353.7
28270	6.3856	5.0909	0.1	4433.9
28271	6.4778	5.1818	0.1	4407.8
28272	6.2011	5.0909	0.1	4487.6
28273	6.2933	5.1818	0.1	4461.4
28274	6.0167	5.0909	0.1	4540.5
28275	6.1089	5.1818	0.1	4514.4
28276	5.8322	5.0909	0.1	4592.5
28277	5.9244	5.1818	0.1	4566.3
28278	5.6478	5.0909	0.1	4643.1
28279	5.74	5.1818	0.1	4616.9
28280	5.4633	5.0909	0.1	4691.9
28281	5.5556	5.1818	0.1	4665.7
28282	5.2789	5.0909	0.1	4738.1
28283	5.3711	5.1818	0.1	4711.9
28284	5.0944	5.0909	0.1	4781.1
28285	5.1867	5.1818	0.1	4754.9
28286	4.91	5.0909	0.1	4819.7
28287	5.0022	5.1818	0.1	4793.6
28288	4.7256	5.0909	0.1	4852.6
28289	4.8178	5.1818	0.1	4826.7
28290	4.5411	5.0909	0.1	4878.2
28291	4.6333	5.1818	0.1	4852.6
28292	4.3567	5.0909	0.1	4894.3
28293	4.4489	5.1818	0.1	4869.2
28294	4.1722	5.0909	0.1	4898.3
28295	4.2644	5.1818	0.1	4873.8
28296	3.9878	5.0909	0.1	4886.9
28297	4.08	5.1818	0.1	4863.2
28298	3.8033	5.0909	0.1	4855.9
28299	3.8956	5.1818	0.1	4833.6
28300	3.6189	5.0909	0.1	4800.6
28301	3.7111	5.1818	0.1	4779.9
28302	3.4344	5.0909	0.1	4714.9
28303	3.5267	5.1818	0.1	4696.4
28304	3.25	5.0909	0.1	4592.3
28305	3.3422	5.1818	0.1	4576.5
28306	3.0656	5.0909	0.1	4425.6
28307	3.1578	5.1818	0.1	4412.7
28308	2.8811	5.0909	0.1	4208.2
28309	2.9733	5.1818	0.1	4197.8
28310	2.6967	5.0909	0.1	3937.2
28311	2.7889	5.1818	0.1	3926.8
28312	2.5122	5.0909	0.1	3618.2
28313	2.6044	5.1818	0.1	3600.5
28314	2.3278	5.0909	0.1	3274.3
28315	2.42	5.1818	0.1	3234.1
28316	2.1433	5.0909	0.1	3001.7
28317	2.2356	5.1818	0.1	2867.1
28318	2.0511	5.1818	0.1	2653.2
28319	1.9589	5.0909	0.1	2373.1
28320	23.723	5.2727	0.1	57.612
28321	23.816	5.3636	0.1	39.208
28322	23.908	5.2727	0.1	22.345
28323	23.539	5.2727	0.1	94.226
28324	23.631	5.3636	0.1	75.131
28325	23.354	5.2727	0.1	131.35
28326	23.447	5.3636	0.1	111.87
28327	23.17	5.2727	0.1	168.94
28328	23.262	5.3636	0.1	149.24
28329	22.986	5.2727	0.1	206.99
28330	23.078	5.3636	0.1	187.17
28331	22.801	5.2727	0.1	245.43
28332	22.893	5.3636	0.1	225.55
28333	22.617	5.2727	0.1	284.2
28334	22.709	5.3636	0.1	264.3
28335	22.432	5.2727	0.1	323.25
28336	22.524	5.3636	0.1	303.33
28337	22.248	5.2727	0.1	362.53
28338	22.34	5.3636	0.1	342.61
28339	22.063	5.2727	0.1	402.02
28340	22.156	5.3636	0.1	382.09
28341	21.879	5.2727	0.1	441.7
28342	21.971	5.3636	0.1	421.76
28343	21.694	5.2727	0.1	481.55
28344	21.787	5.3636	0.1	461.6
28345	21.51	5.2727	0.1	521.56
28346	21.602	5.3636	0.1	501.6
28347	21.326	5.2727	0.1	561.74
28348	21.418	5.3636	0.1	541.76
28349	21.141	5.2727	0.1	602.07
28350	21.233	5.3636	0.1	582.06
28351	20.957	5.2727	0.1	642.56
28352	21.049	5.3636	0.1	622.52
28353	20.772	5.2727	0.1	683.2
28354	20.864	5.3636	0.1	663.13
28355	20.588	5.2727	0.1	724.01
28356	20.68	5.3636	0.1	703.89
28357	20.403	5.2727	0.1	764.97
28358	20.496	5.3636	0.1	744.81
28359	20.219	5.2727	0.1	806.1
28360	20.311	5.3636	0.1	785.88
28361	20.034	5.2727	0.1	847.39
28362	20.127	5.3636	0.1	827.12
28363	19.85	5.2727	0.1	888.84
28364	19.942	5.3636	0.1	868.51
28365	19.666	5.2727	0.1	930.47
28366	19.758	5.3636	0.1	910.08
28367	19.481	5.2727	0.1	972.27
28368	19.573	5.3636	0.1	951.81
28369	19.297	5.2727	0.1	1014.2
28370	19.389	5.3636	0.1	993.71
28371	19.112	5.2727	0.1	1056.4
28372	19.204	5.3636	0.1	1035.8
28373	18.928	5.2727	0.1	1098.7
28374	19.02	5.3636	0.1	1078.
28375	18.743	5.2727	0.1	1141.2
28376	18.836	5.3636	0.1	1120.5
28377	18.559	5.2727	0.1	1183.9
28378	18.651	5.3636	0.1	1163.1
28379	18.374	5.2727	0.1	1226.8
28380	18.467	5.3636	0.1	1205.9
28381	18.19	5.2727	0.1	1269.9
28382	18.282	5.3636	0.1	1248.8
28383	18.006	5.2727	0.1	1313.1
28384	18.098	5.3636	0.1	1292.
28385	17.821	5.2727	0.1	1356.6
28386	17.913	5.3636	0.1	1335.4
28387	17.637	5.2727	0.1	1400.2
28388	17.729	5.3636	0.1	1378.9
28389	17.452	5.2727	0.1	1444.
28390	17.544	5.3636	0.1	1422.6
28391	17.268	5.2727	0.1	1488.
28392	17.36	5.3636	0.1	1466.6
28393	17.083	5.2727	0.1	1532.2
28394	17.176	5.3636	0.1	1510.7
28395	16.899	5.2727	0.1	1576.7
28396	16.991	5.3636	0.1	1555.
28397	16.714	5.2727	0.1	1621.3
28398	16.807	5.3636	0.1	1599.5
28399	16.53	5.2727	0.1	1666.1
28400	16.622	5.3636	0.1	1644.2
28401	16.346	5.2727	0.1	1711.
28402	16.438	5.3636	0.1	1689.1
28403	16.161	5.2727	0.1	1756.2
28404	16.253	5.3636	0.1	1734.2
28405	15.977	5.2727	0.1	1801.6
28406	16.069	5.3636	0.1	1779.5
28407	15.792	5.2727	0.1	1847.2
28408	15.884	5.3636	0.1	1824.9
28409	15.608	5.2727	0.1	1893.
28410	15.7	5.3636	0.1	1870.6
28411	15.423	5.2727	0.1	1939.
28412	15.516	5.3636	0.1	1916.5
28413	15.239	5.2727	0.1	1985.2
28414	15.331	5.3636	0.1	1962.6
28415	15.054	5.2727	0.1	2031.5
28416	15.147	5.3636	0.1	2008.9
28417	14.87	5.2727	0.1	2078.1
28418	14.962	5.3636	0.1	2055.4
28419	14.686	5.2727	0.1	2124.9
28420	14.778	5.3636	0.1	2102.
28421	14.501	5.2727	0.1	2171.9
28422	14.593	5.3636	0.1	2148.9
28423	14.317	5.2727	0.1	2219.1
28424	14.409	5.3636	0.1	2196.
28425	14.132	5.2727	0.1	2266.5
28426	14.224	5.3636	0.1	2243.3
28427	13.948	5.2727	0.1	2314.1
28428	14.04	5.3636	0.1	2290.8
28429	13.763	5.2727	0.1	2361.9
28430	13.856	5.3636	0.1	2338.5
28431	13.579	5.2727	0.1	2409.9
28432	13.671	5.3636	0.1	2386.4
28433	13.394	5.2727	0.1	2458.1
28434	13.487	5.3636	0.1	2434.5
28435	13.21	5.2727	0.1	2506.5
28436	13.302	5.3636	0.1	2482.8
28437	13.026	5.2727	0.1	2555.1
28438	13.118	5.3636	0.1	2531.3
28439	12.841	5.2727	0.1	2603.9
28440	12.933	5.3636	0.1	2580.
28441	12.657	5.2727	0.1	2652.9
28442	12.749	5.3636	0.1	2628.9
28443	12.472	5.2727	0.1	2702.1
28444	12.564	5.3636	0.1	2678.1
28445	12.288	5.2727	0.1	2751.5
28446	12.38	5.3636	0.1	2727.4
28447	12.103	5.2727	0.1	2801.1
28448	12.196	5.3636	0.1	2776.9
28449	11.919	5.2727	0.1	2851.
28450	12.011	5.3636	0.1	2826.7
28451	11.734	5.2727	0.1	2901.
28452	11.827	5.3636	0.1	2876.6
28453	11.55	5.2727	0.1	2951.3
28454	11.642	5.3636	0.1	2926.8
28455	11.366	5.2727	0.1	3001.7
28456	11.458	5.3636	0.1	2977.1
28457	11.181	5.2727	0.1	3052.4
28458	11.273	5.3636	0.1	3027.7
28459	10.997	5.2727	0.1	3103.3
28460	11.089	5.3636	0.1	3078.5
28461	10.812	5.2727	0.1	3154.4
28462	10.904	5.3636	0.1	3129.5
28463	10.628	5.2727	0.1	3205.7
28464	10.72	5.3636	0.1	3180.7
28465	10.443	5.2727	0.1	3257.2
28466	10.536	5.3636	0.1	3232.2
28467	10.259	5.2727	0.1	3308.9
28468	10.351	5.3636	0.1	3283.8
28469	10.074	5.2727	0.1	3360.8
28470	10.167	5.3636	0.1	3335.7
28471	9.89	5.2727	0.1	3413.
28472	9.9822	5.3636	0.1	3387.8
28473	9.7056	5.2727	0.1	3465.3
28474	9.7978	5.3636	0.1	3440.
28475	9.5211	5.2727	0.1	3517.9
28476	9.6133	5.3636	0.1	3492.6
28477	9.3367	5.2727	0.1	3570.7
28478	9.4289	5.3636	0.1	3545.3
28479	9.1522	5.2727	0.1	3623.7
28480	9.2444	5.3636	0.1	3598.2
28481	8.9678	5.2727	0.1	3676.9
28482	9.06	5.3636	0.1	3651.4
28483	8.7833	5.2727	0.1	3730.3
28484	8.8756	5.3636	0.1	3704.7
28485	8.5989	5.2727	0.1	3784.
28486	8.6911	5.3636	0.1	3758.3
28487	8.4144	5.2727	0.1	3837.8
28488	8.5067	5.3636	0.1	3812.1
28489	8.23	5.2727	0.1	3891.8
28490	8.3222	5.3636	0.1	3866.1
28491	8.0456	5.2727	0.1	3946.
28492	8.1378	5.3636	0.1	3920.2
28493	7.8611	5.2727	0.1	4000.3
28494	7.9533	5.3636	0.1	3974.5
28495	7.6767	5.2727	0.1	4054.8
28496	7.7689	5.3636	0.1	4029.
28497	7.4922	5.2727	0.1	4109.4
28498	7.5844	5.3636	0.1	4083.6
28499	7.3078	5.2727	0.1	4164.
28500	7.4	5.3636	0.1	4138.2
28501	7.1233	5.2727	0.1	4218.7
28502	7.2156	5.3636	0.1	4192.8
28503	6.9389	5.2727	0.1	4273.3
28504	7.0311	5.3636	0.1	4247.4
28505	6.7544	5.2727	0.1	4327.6
28506	6.8467	5.3636	0.1	4301.8
28507	6.57	5.2727	0.1	4381.7
28508	6.6622	5.3636	0.1	4356.
28509	6.3856	5.2727	0.1	4435.3
28510	6.4778	5.3636	0.1	4409.7
28511	6.2011	5.2727	0.1	4488.3
28512	6.2933	5.3636	0.1	4462.7
28513	6.0167	5.2727	0.1	4540.2
28514	6.1089	5.3636	0.1	4514.8
28515	5.8322	5.2727	0.1	4590.7
28516	5.9244	5.3636	0.1	4565.6
28517	5.6478	5.2727	0.1	4639.5
28518	5.74	5.3636	0.1	4614.7
28519	5.4633	5.2727	0.1	4685.7
28520	5.5556	5.3636	0.1	4661.4
28521	5.2789	5.2727	0.1	4728.7
28522	5.3711	5.3636	0.1	4705.
28523	5.0944	5.2727	0.1	4767.5
28524	5.1867	5.3636	0.1	4744.5
28525	4.91	5.2727	0.1	4800.7
28526	5.0022	5.3636	0.1	4778.8
28527	4.7256	5.2727	0.1	4826.7
28528	4.8178	5.3636	0.1	4806.2
28529	4.5411	5.2727	0.1	4843.6
28530	4.6333	5.3636	0.1	4824.9
28531	4.3567	5.2727	0.1	4848.6
28532	4.4489	5.3636	0.1	4832.3
28533	4.1722	5.2727	0.1	4838.6
28534	4.2644	5.3636	0.1	4825.5
28535	3.9878	5.2727	0.1	4809.7
28536	4.08	5.3636	0.1	4800.6
28537	3.8033	5.2727	0.1	4757.
28538	3.8956	5.3636	0.1	4753.2
28539	3.6189	5.2727	0.1	4674.8
28540	3.7111	5.3636	0.1	4677.7
28541	3.4344	5.2727	0.1	4556.4
28542	3.5267	5.3636	0.1	4567.5
28543	3.25	5.2727	0.1	4394.1
28544	3.3422	5.3636	0.1	4415.4
28545	3.0656	5.2727	0.1	4180.3
28546	3.1578	5.3636	0.1	4213.3
28547	2.8811	5.2727	0.1	3908.3
28548	2.9733	5.3636	0.1	3953.5
28549	2.6967	5.2727	0.1	3576.2
28550	2.7889	5.3636	0.1	3631.
28551	2.5122	5.2727	0.1	3193.
28552	2.6044	5.3636	0.1	3247.3
28553	2.3278	5.2727	0.1	2789.2
28554	2.42	5.3636	0.1	2819.4
28555	2.1433	5.2727	0.1	2464.
28556	2.2356	5.3636	0.1	2393.6
28557	2.0511	5.3636	0.1	2121.6
28558	1.9589	5.2727	0.1	1920.5
28559	23.723	5.4545	0.1	56.729
28560	23.816	5.5455	0.1	38.49
28561	23.908	5.4545	0.1	22.046
28562	23.539	5.4545	0.1	92.847
28563	23.631	5.5455	0.1	73.678
28564	23.354	5.4545	0.1	129.87
28565	23.447	5.5455	0.1	110.35
28566	23.17	5.4545	0.1	167.59
28567	23.262	5.5455	0.1	147.94
28568	22.986	5.4545	0.1	205.86
28569	23.078	5.5455	0.1	186.16
28570	22.801	5.4545	0.1	244.54
28571	22.893	5.5455	0.1	224.83
28572	22.617	5.4545	0.1	283.54
28573	22.709	5.5455	0.1	263.83
28574	22.432	5.4545	0.1	322.8
28575	22.524	5.5455	0.1	303.1
28576	22.248	5.4545	0.1	362.27
28577	22.34	5.5455	0.1	342.57
28578	22.063	5.4545	0.1	401.93
28579	22.156	5.5455	0.1	382.22
28580	21.879	5.4545	0.1	441.75
28581	21.971	5.5455	0.1	422.04
28582	21.694	5.4545	0.1	481.74
28583	21.787	5.5455	0.1	462.01
28584	21.51	5.4545	0.1	521.87
28585	21.602	5.5455	0.1	502.13
28586	21.326	5.4545	0.1	562.15
28587	21.418	5.5455	0.1	542.39
28588	21.141	5.4545	0.1	602.58
28589	21.233	5.5455	0.1	582.78
28590	20.957	5.4545	0.1	643.16
28591	21.049	5.5455	0.1	623.32
28592	20.772	5.4545	0.1	683.88
28593	20.864	5.5455	0.1	664.
28594	20.588	5.4545	0.1	724.75
28595	20.68	5.5455	0.1	704.83
28596	20.403	5.4545	0.1	765.78
28597	20.496	5.5455	0.1	745.8
28598	20.219	5.4545	0.1	806.96
28599	20.311	5.5455	0.1	786.92
28600	20.034	5.4545	0.1	848.3
28601	20.127	5.5455	0.1	828.2
28602	19.85	5.4545	0.1	889.8
28603	19.942	5.5455	0.1	869.64
28604	19.666	5.4545	0.1	931.46
28605	19.758	5.5455	0.1	911.23
28606	19.481	5.4545	0.1	973.29
28607	19.573	5.5455	0.1	952.99
28608	19.297	5.4545	0.1	1015.3
28609	19.389	5.5455	0.1	994.92
28610	19.112	5.4545	0.1	1057.5
28611	19.204	5.5455	0.1	1037.
28612	18.928	5.4545	0.1	1099.8
28613	19.02	5.5455	0.1	1079.3
28614	18.743	5.4545	0.1	1142.4
28615	18.836	5.5455	0.1	1121.7
28616	18.559	5.4545	0.1	1185.1
28617	18.651	5.5455	0.1	1164.4
28618	18.374	5.4545	0.1	1228.
28619	18.467	5.5455	0.1	1207.2
28620	18.19	5.4545	0.1	1271.
28621	18.282	5.5455	0.1	1250.1
28622	18.006	5.4545	0.1	1314.3
28623	18.098	5.5455	0.1	1293.3
28624	17.821	5.4545	0.1	1357.7
28625	17.913	5.5455	0.1	1336.7
28626	17.637	5.4545	0.1	1401.4
28627	17.729	5.5455	0.1	1380.2
28628	17.452	5.4545	0.1	1445.2
28629	17.544	5.5455	0.1	1423.9
28630	17.268	5.4545	0.1	1489.2
28631	17.36	5.5455	0.1	1467.9
28632	17.083	5.4545	0.1	1533.4
28633	17.176	5.5455	0.1	1512.
28634	16.899	5.4545	0.1	1577.8
28635	16.991	5.5455	0.1	1556.3
28636	16.714	5.4545	0.1	1622.4
28637	16.807	5.5455	0.1	1600.8
28638	16.53	5.4545	0.1	1667.2
28639	16.622	5.5455	0.1	1645.5
28640	16.346	5.4545	0.1	1712.2
28641	16.438	5.5455	0.1	1690.4
28642	16.161	5.4545	0.1	1757.4
28643	16.253	5.5455	0.1	1735.5
28644	15.977	5.4545	0.1	1802.8
28645	16.069	5.5455	0.1	1780.7
28646	15.792	5.4545	0.1	1848.4
28647	15.884	5.5455	0.1	1826.2
28648	15.608	5.4545	0.1	1894.2
28649	15.7	5.5455	0.1	1871.9
28650	15.423	5.4545	0.1	1940.2
28651	15.516	5.5455	0.1	1917.8
28652	15.239	5.4545	0.1	1986.3
28653	15.331	5.5455	0.1	1963.9
28654	15.054	5.4545	0.1	2032.7
28655	15.147	5.5455	0.1	2010.2
28656	14.87	5.4545	0.1	2079.3
28657	14.962	5.5455	0.1	2056.6
28658	14.686	5.4545	0.1	2126.1
28659	14.778	5.5455	0.1	2103.3
28660	14.501	5.4545	0.1	2173.1
28661	14.593	5.5455	0.1	2150.2
28662	14.317	5.4545	0.1	2220.3
28663	14.409	5.5455	0.1	2197.3
28664	14.132	5.4545	0.1	2267.7
28665	14.224	5.5455	0.1	2244.6
28666	13.948	5.4545	0.1	2315.2
28667	14.04	5.5455	0.1	2292.1
28668	13.763	5.4545	0.1	2363.
28669	13.856	5.5455	0.1	2339.8
28670	13.579	5.4545	0.1	2411.
28671	13.671	5.5455	0.1	2387.7
28672	13.394	5.4545	0.1	2459.3
28673	13.487	5.5455	0.1	2435.8
28674	13.21	5.4545	0.1	2507.7
28675	13.302	5.5455	0.1	2484.1
28676	13.026	5.4545	0.1	2556.3
28677	13.118	5.5455	0.1	2532.6
28678	12.841	5.4545	0.1	2605.1
28679	12.933	5.5455	0.1	2581.3
28680	12.657	5.4545	0.1	2654.1
28681	12.749	5.5455	0.1	2630.3
28682	12.472	5.4545	0.1	2703.4
28683	12.564	5.5455	0.1	2679.4
28684	12.288	5.4545	0.1	2752.8
28685	12.38	5.5455	0.1	2728.7
28686	12.103	5.4545	0.1	2802.5
28687	12.196	5.5455	0.1	2778.3
28688	11.919	5.4545	0.1	2852.3
28689	12.011	5.5455	0.1	2828.1
28690	11.734	5.4545	0.1	2902.4
28691	11.827	5.5455	0.1	2878.
28692	11.55	5.4545	0.1	2952.7
28693	11.642	5.5455	0.1	2928.2
28694	11.366	5.4545	0.1	3003.2
28695	11.458	5.5455	0.1	2978.6
28696	11.181	5.4545	0.1	3053.9
28697	11.273	5.5455	0.1	3029.3
28698	10.997	5.4545	0.1	3104.8
28699	11.089	5.5455	0.1	3080.1
28700	10.812	5.4545	0.1	3155.9
28701	10.904	5.5455	0.1	3131.1
28702	10.628	5.4545	0.1	3207.3
28703	10.72	5.5455	0.1	3182.4
28704	10.443	5.4545	0.1	3258.8
28705	10.536	5.5455	0.1	3233.9
28706	10.259	5.4545	0.1	3310.6
28707	10.351	5.5455	0.1	3285.6
28708	10.074	5.4545	0.1	3362.6
28709	10.167	5.5455	0.1	3337.5
28710	9.89	5.4545	0.1	3414.8
28711	9.9822	5.5455	0.1	3389.7
28712	9.7056	5.4545	0.1	3467.3
28713	9.7978	5.5455	0.1	3442.
28714	9.5211	5.4545	0.1	3519.9
28715	9.6133	5.5455	0.1	3494.6
28716	9.3367	5.4545	0.1	3572.8
28717	9.4289	5.5455	0.1	3547.4
28718	9.1522	5.4545	0.1	3625.9
28719	9.2444	5.5455	0.1	3600.4
28720	8.9678	5.4545	0.1	3679.2
28721	9.06	5.5455	0.1	3653.7
28722	8.7833	5.4545	0.1	3732.7
28723	8.8756	5.5455	0.1	3707.2
28724	8.5989	5.4545	0.1	3786.5
28725	8.6911	5.5455	0.1	3760.8
28726	8.4144	5.4545	0.1	3840.4
28727	8.5067	5.5455	0.1	3814.7
28728	8.23	5.4545	0.1	3894.5
28729	8.3222	5.5455	0.1	3868.8
28730	8.0456	5.4545	0.1	3948.8
28731	8.1378	5.5455	0.1	3923.
28732	7.8611	5.4545	0.1	4003.2
28733	7.9533	5.5455	0.1	3977.4
28734	7.6767	5.4545	0.1	4057.7
28735	7.7689	5.5455	0.1	4031.9
28736	7.4922	5.4545	0.1	4112.3
28737	7.5844	5.5455	0.1	4086.6
28738	7.3078	5.4545	0.1	4167.
28739	7.4	5.5455	0.1	4141.2
28740	7.1233	5.4545	0.1	4221.6
28741	7.2156	5.5455	0.1	4195.9
28742	6.9389	5.4545	0.1	4276.
28743	7.0311	5.5455	0.1	4250.4
28744	6.7544	5.4545	0.1	4330.2
28745	6.8467	5.5455	0.1	4304.6
28746	6.57	5.4545	0.1	4384.
28747	6.6622	5.5455	0.1	4358.6
28748	6.3856	5.4545	0.1	4437.1
28749	6.4778	5.5455	0.1	4411.9
28750	6.2011	5.4545	0.1	4489.3
28751	6.2933	5.5455	0.1	4464.4
28752	6.0167	5.4545	0.1	4540.3
28753	6.1089	5.5455	0.1	4515.8
28754	5.8322	5.4545	0.1	4589.6
28755	5.9244	5.5455	0.1	4565.6
28756	5.6478	5.4545	0.1	4636.6
28757	5.74	5.5455	0.1	4613.3
28758	5.4633	5.4545	0.1	4680.7
28759	5.5556	5.5455	0.1	4658.2
28760	5.2789	5.4545	0.1	4720.8
28761	5.3711	5.5455	0.1	4699.5
28762	5.0944	5.4545	0.1	4755.9
28763	5.1867	5.5455	0.1	4736.1
28764	4.91	5.4545	0.1	4784.3
28765	5.0022	5.5455	0.1	4766.5
28766	4.7256	5.4545	0.1	4804.4
28767	4.8178	5.5455	0.1	4789.1
28768	4.5411	5.4545	0.1	4813.6
28769	4.6333	5.5455	0.1	4801.6
28770	4.3567	5.4545	0.1	4809.1
28771	4.4489	5.5455	0.1	4801.4
28772	4.1722	5.4545	0.1	4787.4
28773	4.2644	5.5455	0.1	4785.1
28774	3.9878	5.4545	0.1	4743.9
28775	4.08	5.5455	0.1	4748.6
28776	3.8033	5.4545	0.1	4673.4
28777	3.8956	5.5455	0.1	4686.8
28778	3.6189	5.4545	0.1	4569.6
28779	3.7111	5.5455	0.1	4594.
28780	3.4344	5.4545	0.1	4425.3
28781	3.5267	5.5455	0.1	4463.2
28782	3.25	5.4545	0.1	4232.5
28783	3.3422	5.5455	0.1	4286.7
28784	3.0656	5.4545	0.1	3983.1
28785	3.1578	5.5455	0.1	4056.4
28786	2.8811	5.4545	0.1	3670.6
28787	2.9733	5.5455	0.1	3764.3
28788	2.6967	5.4545	0.1	3292.4
28789	2.7889	5.5455	0.1	3405.
28790	2.5122	5.4545	0.1	2856.4
28791	2.6044	5.5455	0.1	2978.4
28792	2.3278	5.4545	0.1	2392.3
28793	2.42	5.5455	0.1	2497.2
28794	2.1433	5.4545	0.1	1998.2
28795	2.2356	5.5455	0.1	2002.5
28796	2.0511	5.5455	0.1	1642.4
28797	1.9589	5.4545	0.1	1509.3
28798	23.723	5.6364	0.1	55.523
28799	23.816	5.7273	0.1	37.32
28800	23.908	5.6364	0.1	21.517
28801	23.539	5.6364	0.1	91.362
28802	23.631	5.7273	0.1	72.573
28803	23.354	5.6364	0.1	128.63
28804	23.447	5.7273	0.1	109.94
28805	23.17	5.6364	0.1	166.72
28806	23.262	5.7273	0.1	148.15
28807	22.986	5.6364	0.1	205.33
28808	23.078	5.7273	0.1	186.87
28809	22.801	5.6364	0.1	244.3
28810	22.893	5.7273	0.1	225.92
28811	22.617	5.6364	0.1	283.55
28812	22.709	5.7273	0.1	265.22
28813	22.432	5.6364	0.1	323.01
28814	22.524	5.7273	0.1	304.72
28815	22.248	5.6364	0.1	362.65
28816	22.34	5.7273	0.1	344.39
28817	22.063	5.6364	0.1	402.46
28818	22.156	5.7273	0.1	384.2
28819	21.879	5.6364	0.1	442.41
28820	21.971	5.7273	0.1	424.15
28821	21.694	5.6364	0.1	482.5
28822	21.787	5.7273	0.1	464.23
28823	21.51	5.6364	0.1	522.73
28824	21.602	5.7273	0.1	504.44
28825	21.326	5.6364	0.1	563.1
28826	21.418	5.7273	0.1	544.77
28827	21.141	5.6364	0.1	603.6
28828	21.233	5.7273	0.1	585.23
28829	20.957	5.6364	0.1	644.24
28830	21.049	5.7273	0.1	625.83
28831	20.772	5.6364	0.1	685.02
28832	20.864	5.7273	0.1	666.55
28833	20.588	5.6364	0.1	725.94
28834	20.68	5.7273	0.1	707.41
28835	20.403	5.6364	0.1	767.01
28836	20.496	5.7273	0.1	748.42
28837	20.219	5.6364	0.1	808.23
28838	20.311	5.7273	0.1	789.56
28839	20.034	5.6364	0.1	849.6
28840	20.127	5.7273	0.1	830.86
28841	19.85	5.6364	0.1	891.13
28842	19.942	5.7273	0.1	872.3
28843	19.666	5.6364	0.1	932.82
28844	19.758	5.7273	0.1	913.91
28845	19.481	5.6364	0.1	974.67
28846	19.573	5.7273	0.1	955.67
28847	19.297	5.6364	0.1	1016.7
28848	19.389	5.7273	0.1	997.6
28849	19.112	5.6364	0.1	1058.9
28850	19.204	5.7273	0.1	1039.7
28851	18.928	5.6364	0.1	1101.2
28852	19.02	5.7273	0.1	1082.
28853	18.743	5.6364	0.1	1143.8
28854	18.836	5.7273	0.1	1124.4
28855	18.559	5.6364	0.1	1186.5
28856	18.651	5.7273	0.1	1167.
28857	18.374	5.6364	0.1	1229.4
28858	18.467	5.7273	0.1	1209.8
28859	18.19	5.6364	0.1	1272.5
28860	18.282	5.7273	0.1	1252.8
28861	18.006	5.6364	0.1	1315.7
28862	18.098	5.7273	0.1	1295.9
28863	17.821	5.6364	0.1	1359.2
28864	17.913	5.7273	0.1	1339.3
28865	17.637	5.6364	0.1	1402.8
28866	17.729	5.7273	0.1	1382.8
28867	17.452	5.6364	0.1	1446.6
28868	17.544	5.7273	0.1	1426.5
28869	17.268	5.6364	0.1	1490.7
28870	17.36	5.7273	0.1	1470.4
28871	17.083	5.6364	0.1	1534.9
28872	17.176	5.7273	0.1	1514.5
28873	16.899	5.6364	0.1	1579.3
28874	16.991	5.7273	0.1	1558.8
28875	16.714	5.6364	0.1	1623.9
28876	16.807	5.7273	0.1	1603.3
28877	16.53	5.6364	0.1	1668.7
28878	16.622	5.7273	0.1	1647.9
28879	16.346	5.6364	0.1	1713.6
28880	16.438	5.7273	0.1	1692.8
28881	16.161	5.6364	0.1	1758.8
28882	16.253	5.7273	0.1	1737.9
28883	15.977	5.6364	0.1	1804.2
28884	16.069	5.7273	0.1	1783.1
28885	15.792	5.6364	0.1	1849.8
28886	15.884	5.7273	0.1	1828.6
28887	15.608	5.6364	0.1	1895.6
28888	15.7	5.7273	0.1	1874.3
28889	15.423	5.6364	0.1	1941.5
28890	15.516	5.7273	0.1	1920.1
28891	15.239	5.6364	0.1	1987.7
28892	15.331	5.7273	0.1	1966.2
28893	15.054	5.6364	0.1	2034.1
28894	15.147	5.7273	0.1	2012.5
28895	14.87	5.6364	0.1	2080.7
28896	14.962	5.7273	0.1	2058.9
28897	14.686	5.6364	0.1	2127.5
28898	14.778	5.7273	0.1	2105.6
28899	14.501	5.6364	0.1	2174.4
28900	14.593	5.7273	0.1	2152.5
28901	14.317	5.6364	0.1	2221.6
28902	14.409	5.7273	0.1	2199.5
28903	14.132	5.6364	0.1	2269.
28904	14.224	5.7273	0.1	2246.8
28905	13.948	5.6364	0.1	2316.6
28906	14.04	5.7273	0.1	2294.3
28907	13.763	5.6364	0.1	2364.4
28908	13.856	5.7273	0.1	2342.
28909	13.579	5.6364	0.1	2412.4
28910	13.671	5.7273	0.1	2389.9
28911	13.394	5.6364	0.1	2460.6
28912	13.487	5.7273	0.1	2438.
28913	13.21	5.6364	0.1	2509.1
28914	13.302	5.7273	0.1	2486.3
28915	13.026	5.6364	0.1	2557.7
28916	13.118	5.7273	0.1	2534.8
28917	12.841	5.6364	0.1	2606.5
28918	12.933	5.7273	0.1	2583.5
28919	12.657	5.6364	0.1	2655.6
28920	12.749	5.7273	0.1	2632.4
28921	12.472	5.6364	0.1	2704.8
28922	12.564	5.7273	0.1	2681.6
28923	12.288	5.6364	0.1	2754.3
28924	12.38	5.7273	0.1	2730.9
28925	12.103	5.6364	0.1	2803.9
28926	12.196	5.7273	0.1	2780.5
28927	11.919	5.6364	0.1	2853.8
28928	12.011	5.7273	0.1	2830.3
28929	11.734	5.6364	0.1	2903.9
28930	11.827	5.7273	0.1	2880.3
28931	11.55	5.6364	0.1	2954.2
28932	11.642	5.7273	0.1	2930.5
28933	11.366	5.6364	0.1	3004.8
28934	11.458	5.7273	0.1	2980.9
28935	11.181	5.6364	0.1	3055.5
28936	11.273	5.7273	0.1	3031.5
28937	10.997	5.6364	0.1	3106.5
28938	11.089	5.7273	0.1	3082.4
28939	10.812	5.6364	0.1	3157.6
28940	10.904	5.7273	0.1	3133.5
28941	10.628	5.6364	0.1	3209.
28942	10.72	5.7273	0.1	3184.8
28943	10.443	5.6364	0.1	3260.7
28944	10.536	5.7273	0.1	3236.3
28945	10.259	5.6364	0.1	3312.5
28946	10.351	5.7273	0.1	3288.
28947	10.074	5.6364	0.1	3364.6
28948	10.167	5.7273	0.1	3340.
28949	9.89	5.6364	0.1	3416.8
28950	9.9822	5.7273	0.1	3392.2
28951	9.7056	5.6364	0.1	3469.4
28952	9.7978	5.7273	0.1	3444.6
28953	9.5211	5.6364	0.1	3522.1
28954	9.6133	5.7273	0.1	3497.3
28955	9.3367	5.6364	0.1	3575.1
28956	9.4289	5.7273	0.1	3550.2
28957	9.1522	5.6364	0.1	3628.2
28958	9.2444	5.7273	0.1	3603.3
28959	8.9678	5.6364	0.1	3681.6
28960	9.06	5.7273	0.1	3656.6
28961	8.7833	5.6364	0.1	3735.3
28962	8.8756	5.7273	0.1	3710.1
28963	8.5989	5.6364	0.1	3789.1
28964	8.6911	5.7273	0.1	3763.9
28965	8.4144	5.6364	0.1	3843.1
28966	8.5067	5.7273	0.1	3817.9
28967	8.23	5.6364	0.1	3897.3
28968	8.3222	5.7273	0.1	3872.
28969	8.0456	5.6364	0.1	3951.7
28970	8.1378	5.7273	0.1	3926.3
28971	7.8611	5.6364	0.1	4006.2
28972	7.9533	5.7273	0.1	3980.8
28973	7.6767	5.6364	0.1	4060.8
28974	7.7689	5.7273	0.1	4035.4
28975	7.4922	5.6364	0.1	4115.5
28976	7.5844	5.7273	0.1	4090.1
28977	7.3078	5.6364	0.1	4170.1
28978	7.4	5.7273	0.1	4144.7
28979	7.1233	5.6364	0.1	4224.7
28980	7.2156	5.7273	0.1	4199.4
28981	6.9389	5.6364	0.1	4279.
28982	7.0311	5.7273	0.1	4253.8
28983	6.7544	5.6364	0.1	4333.
28984	6.8467	5.7273	0.1	4308.
28985	6.57	5.6364	0.1	4386.5
28986	6.6622	5.7273	0.1	4361.7
28987	6.3856	5.6364	0.1	4439.2
28988	6.4778	5.7273	0.1	4414.7
28989	6.2011	5.6364	0.1	4490.9
28990	6.2933	5.7273	0.1	4466.8
28991	6.0167	5.6364	0.1	4541.
28992	6.1089	5.7273	0.1	4517.5
28993	5.8322	5.6364	0.1	4589.3
28994	5.9244	5.7273	0.1	4566.5
28995	5.6478	5.6364	0.1	4634.9
28996	5.74	5.7273	0.1	4613.1
28997	5.4633	5.6364	0.1	4677.
28998	5.5556	5.7273	0.1	4656.6
28999	5.2789	5.6364	0.1	4714.8
29000	5.3711	5.7273	0.1	4696.
29001	5.0944	5.6364	0.1	4746.7
29002	5.1867	5.7273	0.1	4730.1
29003	4.91	5.6364	0.1	4771.3
29004	5.0022	5.7273	0.1	4757.5
29005	4.7256	5.6364	0.1	4786.4
29006	4.8178	5.7273	0.1	4776.2
29007	4.5411	5.6364	0.1	4789.4
29008	4.6333	5.7273	0.1	4783.9
29009	4.3567	5.6364	0.1	4777.3
29010	4.4489	5.7273	0.1	4777.7
29011	4.1722	5.6364	0.1	4746.2
29012	4.2644	5.7273	0.1	4754.
29013	3.9878	5.6364	0.1	4691.3
29014	4.08	5.7273	0.1	4708.5
29015	3.8033	5.6364	0.1	4607.1
29016	3.8956	5.7273	0.1	4636.2
29017	3.6189	5.6364	0.1	4487.1
29018	3.7111	5.7273	0.1	4530.8
29019	3.4344	5.6364	0.1	4323.8
29020	3.5267	5.7273	0.1	4385.4
29021	3.25	5.6364	0.1	4109.3
29022	3.3422	5.7273	0.1	4192.5
29023	3.0656	5.6364	0.1	3835.5
29024	3.1578	5.7273	0.1	3943.8
29025	2.8811	5.6364	0.1	3495.6
29026	2.9733	5.7273	0.1	3631.9
29027	2.6967	5.6364	0.1	3085.8
29028	2.7889	5.7273	0.1	3250.7
29029	2.5122	5.6364	0.1	2609.5
29030	2.6044	5.7273	0.1	2797.9
29031	2.3278	5.6364	0.1	2085.9
29032	2.42	5.7273	0.1	2279.
29033	2.1433	5.6364	0.1	1595.4
29034	2.2356	5.7273	0.1	1715.2
29035	2.0511	5.7273	0.1	1214.
29036	1.9589	5.6364	0.1	1115.1
29037	23.723	5.8182	0.1	54.987
29038	23.816	5.9091	0.1	34.557
29039	23.908	5.8182	0.1	20.574
29040	23.539	5.8182	0.1	91.855
29041	23.631	5.9091	0.1	69.24
29042	23.354	5.8182	0.1	130.09
29043	23.447	5.9091	0.1	105.97
29044	23.17	5.8182	0.1	168.86
29045	23.262	5.9091	0.1	143.62
29046	22.986	5.8182	0.1	207.95
29047	23.078	5.9091	0.1	181.88
29048	22.801	5.8182	0.1	247.28
29049	22.893	5.9091	0.1	220.56
29050	22.617	5.8182	0.1	286.79
29051	22.709	5.9091	0.1	259.57
29052	22.432	5.8182	0.1	326.46
29053	22.524	5.9091	0.1	298.84
29054	22.248	5.8182	0.1	366.27
29055	22.34	5.9091	0.1	338.34
29056	22.063	5.8182	0.1	406.21
29057	22.156	5.9091	0.1	378.04
29058	21.879	5.8182	0.1	446.27
29059	21.971	5.9091	0.1	417.9
29060	21.694	5.8182	0.1	486.44
29061	21.787	5.9091	0.1	457.94
29062	21.51	5.8182	0.1	526.74
29063	21.602	5.9091	0.1	498.12
29064	21.326	5.8182	0.1	567.16
29065	21.418	5.9091	0.1	538.46
29066	21.141	5.8182	0.1	607.7
29067	21.233	5.9091	0.1	578.94
29068	20.957	5.8182	0.1	648.37
29069	21.049	5.9091	0.1	619.56
29070	20.772	5.8182	0.1	689.17
29071	20.864	5.9091	0.1	660.33
29072	20.588	5.8182	0.1	730.11
29073	20.68	5.9091	0.1	701.25
29074	20.403	5.8182	0.1	771.18
29075	20.496	5.9091	0.1	742.32
29076	20.219	5.8182	0.1	812.4
29077	20.311	5.9091	0.1	783.53
29078	20.034	5.8182	0.1	853.76
29079	20.127	5.9091	0.1	824.91
29080	19.85	5.8182	0.1	895.28
29081	19.942	5.9091	0.1	866.43
29082	19.666	5.8182	0.1	936.95
29083	19.758	5.9091	0.1	908.12
29084	19.481	5.8182	0.1	978.78
29085	19.573	5.9091	0.1	949.97
29086	19.297	5.8182	0.1	1020.8
29087	19.389	5.9091	0.1	991.98
29088	19.112	5.8182	0.1	1062.9
29089	19.204	5.9091	0.1	1034.2
29090	18.928	5.8182	0.1	1105.3
29091	19.02	5.9091	0.1	1076.5
29092	18.743	5.8182	0.1	1147.8
29093	18.836	5.9091	0.1	1119.
29094	18.559	5.8182	0.1	1190.5
29095	18.651	5.9091	0.1	1161.7
29096	18.374	5.8182	0.1	1233.3
29097	18.467	5.9091	0.1	1204.6
29098	18.19	5.8182	0.1	1276.4
29099	18.282	5.9091	0.1	1247.7
29100	18.006	5.8182	0.1	1319.6
29101	18.098	5.9091	0.1	1290.9
29102	17.821	5.8182	0.1	1363.
29103	17.913	5.9091	0.1	1334.3
29104	17.637	5.8182	0.1	1406.6
29105	17.729	5.9091	0.1	1377.9
29106	17.452	5.8182	0.1	1450.4
29107	17.544	5.9091	0.1	1421.7
29108	17.268	5.8182	0.1	1494.4
29109	17.36	5.9091	0.1	1465.7
29110	17.083	5.8182	0.1	1538.6
29111	17.176	5.9091	0.1	1509.9
29112	16.899	5.8182	0.1	1582.9
29113	16.991	5.9091	0.1	1554.2
29114	16.714	5.8182	0.1	1627.5
29115	16.807	5.9091	0.1	1598.8
29116	16.53	5.8182	0.1	1672.2
29117	16.622	5.9091	0.1	1643.5
29118	16.346	5.8182	0.1	1717.2
29119	16.438	5.9091	0.1	1688.5
29120	16.161	5.8182	0.1	1762.3
29121	16.253	5.9091	0.1	1733.6
29122	15.977	5.8182	0.1	1807.7
29123	16.069	5.9091	0.1	1779.
29124	15.792	5.8182	0.1	1853.2
29125	15.884	5.9091	0.1	1824.5
29126	15.608	5.8182	0.1	1899.
29127	15.7	5.9091	0.1	1870.2
29128	15.423	5.8182	0.1	1944.9
29129	15.516	5.9091	0.1	1916.1
29130	15.239	5.8182	0.1	1991.1
29131	15.331	5.9091	0.1	1962.3
29132	15.054	5.8182	0.1	2037.4
29133	15.147	5.9091	0.1	2008.6
29134	14.87	5.8182	0.1	2084.
29135	14.962	5.9091	0.1	2055.1
29136	14.686	5.8182	0.1	2130.7
29137	14.778	5.9091	0.1	2101.9
29138	14.501	5.8182	0.1	2177.7
29139	14.593	5.9091	0.1	2148.8
29140	14.317	5.8182	0.1	2224.8
29141	14.409	5.9091	0.1	2195.9
29142	14.132	5.8182	0.1	2272.2
29143	14.224	5.9091	0.1	2243.3
29144	13.948	5.8182	0.1	2319.8
29145	14.04	5.9091	0.1	2290.8
29146	13.763	5.8182	0.1	2367.5
29147	13.856	5.9091	0.1	2338.6
29148	13.579	5.8182	0.1	2415.5
29149	13.671	5.9091	0.1	2386.6
29150	13.394	5.8182	0.1	2463.7
29151	13.487	5.9091	0.1	2434.7
29152	13.21	5.8182	0.1	2512.1
29153	13.302	5.9091	0.1	2483.1
29154	13.026	5.8182	0.1	2560.7
29155	13.118	5.9091	0.1	2531.7
29156	12.841	5.8182	0.1	2609.6
29157	12.933	5.9091	0.1	2580.5
29158	12.657	5.8182	0.1	2658.6
29159	12.749	5.9091	0.1	2629.5
29160	12.472	5.8182	0.1	2707.8
29161	12.564	5.9091	0.1	2678.7
29162	12.288	5.8182	0.1	2757.3
29163	12.38	5.9091	0.1	2728.1
29164	12.103	5.8182	0.1	2806.9
29165	12.196	5.9091	0.1	2777.8
29166	11.919	5.8182	0.1	2856.8
29167	12.011	5.9091	0.1	2827.7
29168	11.734	5.8182	0.1	2906.9
29169	11.827	5.9091	0.1	2877.7
29170	11.55	5.8182	0.1	2957.2
29171	11.642	5.9091	0.1	2928.
29172	11.366	5.8182	0.1	3007.8
29173	11.458	5.9091	0.1	2978.6
29174	11.181	5.8182	0.1	3058.5
29175	11.273	5.9091	0.1	3029.3
29176	10.997	5.8182	0.1	3109.5
29177	11.089	5.9091	0.1	3080.3
29178	10.812	5.8182	0.1	3160.7
29179	10.904	5.9091	0.1	3131.5
29180	10.628	5.8182	0.1	3212.1
29181	10.72	5.9091	0.1	3182.9
29182	10.443	5.8182	0.1	3263.8
29183	10.536	5.9091	0.1	3234.5
29184	10.259	5.8182	0.1	3315.6
29185	10.351	5.9091	0.1	3286.4
29186	10.074	5.8182	0.1	3367.7
29187	10.167	5.9091	0.1	3338.5
29188	9.89	5.8182	0.1	3420.1
29189	9.9822	5.9091	0.1	3390.9
29190	9.7056	5.8182	0.1	3472.6
29191	9.7978	5.9091	0.1	3443.5
29192	9.5211	5.8182	0.1	3525.4
29193	9.6133	5.9091	0.1	3496.3
29194	9.3367	5.8182	0.1	3578.4
29195	9.4289	5.9091	0.1	3549.3
29196	9.1522	5.8182	0.1	3631.7
29197	9.2444	5.9091	0.1	3602.6
29198	8.9678	5.8182	0.1	3685.2
29199	9.06	5.9091	0.1	3656.1
29200	8.7833	5.8182	0.1	3738.8
29201	8.8756	5.9091	0.1	3709.8
29202	8.5989	5.8182	0.1	3792.7
29203	8.6911	5.9091	0.1	3763.8
29204	8.4144	5.8182	0.1	3846.8
29205	8.5067	5.9091	0.1	3818.
29206	8.23	5.8182	0.1	3901.1
29207	8.3222	5.9091	0.1	3872.3
29208	8.0456	5.8182	0.1	3955.5
29209	8.1378	5.9091	0.1	3926.9
29210	7.8611	5.8182	0.1	4010.1
29211	7.9533	5.9091	0.1	3981.6
29212	7.6767	5.8182	0.1	4064.7
29213	7.7689	5.9091	0.1	4036.3
29214	7.4922	5.8182	0.1	4119.4
29215	7.5844	5.9091	0.1	4091.2
29216	7.3078	5.8182	0.1	4174.1
29217	7.4	5.9091	0.1	4146.1
29218	7.1233	5.8182	0.1	4228.6
29219	7.2156	5.9091	0.1	4200.8
29220	6.9389	5.8182	0.1	4282.9
29221	7.0311	5.9091	0.1	4255.4
29222	6.7544	5.8182	0.1	4336.7
29223	6.8467	5.9091	0.1	4309.6
29224	6.57	5.8182	0.1	4390.
29225	6.6622	5.9091	0.1	4363.3
29226	6.3856	5.8182	0.1	4442.4
29227	6.4778	5.9091	0.1	4416.3
29228	6.2011	5.8182	0.1	4493.5
29229	6.2933	5.9091	0.1	4468.2
29230	6.0167	5.8182	0.1	4543.1
29231	6.1089	5.9091	0.1	4518.6
29232	5.8322	5.8182	0.1	4590.4
29233	5.9244	5.9091	0.1	4567.1
29234	5.6478	5.8182	0.1	4634.9
29235	5.74	5.9091	0.1	4613.
29236	5.4633	5.8182	0.1	4675.5
29237	5.5556	5.9091	0.1	4655.5
29238	5.2789	5.8182	0.1	4711.4
29239	5.3711	5.9091	0.1	4693.6
29240	5.0944	5.8182	0.1	4740.9
29241	5.1867	5.9091	0.1	4726.1
29242	4.91	5.8182	0.1	4762.4
29243	5.0022	5.9091	0.1	4751.3
29244	4.7256	5.8182	0.1	4773.7
29245	4.8178	5.9091	0.1	4767.3
29246	4.5411	5.8182	0.1	4772.1
29247	4.6333	5.9091	0.1	4771.5
29248	4.3567	5.8182	0.1	4754.3
29249	4.4489	5.9091	0.1	4761.
29250	4.1722	5.8182	0.1	4716.3
29251	4.2644	5.9091	0.1	4732.1
29252	3.9878	5.8182	0.1	4653.3
29253	4.08	5.9091	0.1	4680.2
29254	3.8033	5.8182	0.1	4559.6
29255	3.8956	5.9091	0.1	4600.1
29256	3.6189	5.8182	0.1	4428.7
29257	3.7111	5.9091	0.1	4485.4
29258	3.4344	5.8182	0.1	4253.5
29259	3.5267	5.9091	0.1	4329.1
29260	3.25	5.8182	0.1	4026.1
29261	3.3422	5.9091	0.1	4123.5
29262	3.0656	5.8182	0.1	3738.9
29263	3.1578	5.9091	0.1	3860.5
29264	2.8811	5.8182	0.1	3385.1
29265	2.9733	5.9091	0.1	3532.5
29266	2.6967	5.8182	0.1	2960.3
29267	2.7889	5.9091	0.1	3133.3
29268	2.5122	5.8182	0.1	2463.6
29269	2.6044	5.9091	0.1	2659.8
29270	2.3278	5.8182	0.1	1900.
29271	2.42	5.9091	0.1	2112.9
29272	2.1433	5.8182	0.1	1298.9
29273	2.2356	5.9091	0.1	1498.2
29274	1.9589	5.8182	0.1	726.44
29275	2.0511	5.9091	0.1	842.47
29276	0.255	5.8182	0.1	2965.2
29277	0.17	5.7273	0.1	2866.7
29278	8.5e-002	5.8182	0.1	2087.3
29279	0.17	5.9091	0.1	2389.6
29280	0.425	5.8182	0.1	3447.8
29281	0.34	5.7273	0.1	3455.6
29282	0.34	5.9091	0.1	3165.1
29283	0.595	5.8182	0.1	3534.5
29284	0.51	5.7273	0.1	3618.2
29285	0.51	5.9091	0.1	3390.8
29286	0.765	5.8182	0.1	3404.1
29287	0.68	5.7273	0.1	3574.1
29288	0.68	5.9091	0.1	3355.6
29289	0.935	5.8182	0.1	3109.2
29290	0.85	5.7273	0.1	3355.6
29291	0.85	5.9091	0.1	3130.
29292	1.105	5.8182	0.1	2683.2
29293	1.02	5.7273	0.1	3003.8
29294	1.02	5.9091	0.1	2758.9
29295	1.275	5.8182	0.1	2149.1
29296	1.19	5.7273	0.1	2545.2
29297	1.19	5.9091	0.1	2265.3
29298	1.445	5.8182	0.1	1557.4
29299	1.36	5.7273	0.1	2020.
29300	1.36	5.9091	0.1	1666.2
29301	1.53	5.7273	0.1	1567.9
29302	1.615	5.8182	0.1	955.94
29303	1.53	5.9091	0.1	1000.6
29304	0.255	5.6364	0.1	3365.2
29305	0.17	5.5455	0.1	3509.6
29306	8.5e-002	5.6364	0.1	3214.
29307	0.425	5.6364	0.1	3627.2
29308	0.34	5.5455	0.1	3771.
29309	0.595	5.6364	0.1	3657.6
29310	0.51	5.5455	0.1	3825.8
29311	0.765	5.6364	0.1	3525.5
29312	0.68	5.5455	0.1	3761.5
29313	0.935	5.6364	0.1	3250.7
29314	0.85	5.5455	0.1	3555.2
29315	1.105	5.6364	0.1	2867.3
29316	1.02	5.5455	0.1	3240.6
29317	1.275	5.6364	0.1	2416.3
29318	1.19	5.5455	0.1	2849.2
29319	1.445	5.6364	0.1	2006.9
29320	1.36	5.5455	0.1	2442.4
29321	1.53	5.5455	0.1	2184.8
29322	1.615	5.6364	0.1	1546.2
29323	0.255	5.4545	0.1	3904.5
29324	0.17	5.3636	0.1	4160.6
29325	8.5e-002	5.4545	0.1	4040.3
29326	0.425	5.4545	0.1	3969.
29327	0.34	5.3636	0.1	4209.3
29328	0.595	5.4545	0.1	3927.6
29329	0.51	5.3636	0.1	4156.7
29330	0.765	5.4545	0.1	3789.
29331	0.68	5.3636	0.1	4066.9
29332	0.935	5.4545	0.1	3542.
29333	0.85	5.3636	0.1	3877.2
29334	1.105	5.4545	0.1	3216.2
29335	1.02	5.3636	0.1	3610.1
29336	1.275	5.4545	0.1	2858.
29337	1.19	5.3636	0.1	3293.7
29338	1.445	5.4545	0.1	2581.
29339	1.36	5.3636	0.1	2985.3
29340	1.53	5.3636	0.1	2839.2
29341	1.615	5.4545	0.1	2125.9
29342	0.255	5.2727	0.1	4444.9
29343	0.17	5.1818	0.1	4743.8
29344	8.5e-002	5.2727	0.1	4697.8
29345	0.425	5.2727	0.1	4391.7
29346	0.34	5.1818	0.1	4697.
29347	0.595	5.2727	0.1	4290.3
29348	0.51	5.1818	0.1	4567.7
29349	0.765	5.2727	0.1	4148.6
29350	0.68	5.1818	0.1	4459.3
29351	0.935	5.2727	0.1	3935.7
29352	0.85	5.1818	0.1	4291.8
29353	1.105	5.2727	0.1	3671.6
29354	1.02	5.1818	0.1	4077.2
29355	1.275	5.2727	0.1	3393.5
29356	1.19	5.1818	0.1	3832.4
29357	1.445	5.2727	0.1	3205.5
29358	1.36	5.1818	0.1	3598.8
29359	1.53	5.1818	0.1	3529.5
29360	1.615	5.2727	0.1	2705.1
29361	0.255	5.0909	0.1	4974.5
29362	0.17	5.	0.1	5284.8
29363	8.5e-002	5.0909	0.1	5271.2
29364	0.425	5.0909	0.1	4863.2
29365	0.34	5.	0.1	5205.6
29366	0.595	5.0909	0.1	4726.8
29367	0.51	5.	0.1	5037.
29368	0.765	5.0909	0.1	4591.4
29369	0.68	5.	0.1	4925.1
29370	0.935	5.0909	0.1	4417.9
29371	0.85	5.	0.1	4788.3
29372	1.105	5.0909	0.1	4215.5
29373	1.02	5.	0.1	4631.6
29374	1.275	5.0909	0.1	4005.8
29375	1.19	5.	0.1	4457.5
29376	1.445	5.0909	0.1	3885.5
29377	1.36	5.	0.1	4288.5
29378	1.53	5.	0.1	4286.1
29379	1.615	5.0909	0.1	3307.2
29380	0.255	4.9091	0.1	5496.
29381	0.17	4.8182	0.1	5801.6
29382	8.5e-002	4.9091	0.1	5803.7
29383	0.425	4.9091	0.1	5367.2
29384	0.34	4.8182	0.1	5725.3
29385	0.595	4.9091	0.1	5222.1
29386	0.51	4.8182	0.1	5548.3
29387	0.765	4.9091	0.1	5107.5
29388	0.68	4.8182	0.1	5452.1
29389	0.935	4.9091	0.1	4982.7
29390	0.85	4.8182	0.1	5359.2
29391	1.105	4.9091	0.1	4847.3
29392	1.02	4.8182	0.1	5272.3
29393	1.275	4.9091	0.1	4705.4
29394	1.19	4.8182	0.1	5180.8
29395	1.445	4.9091	0.1	4649.4
29396	1.36	4.8182	0.1	5086.4
29397	1.53	4.8182	0.1	5158.7
29398	1.615	4.9091	0.1	3962.8
29399	0.255	4.7273	0.1	6012.9
29400	0.17	4.6364	0.1	6303.2
29401	8.5e-002	4.7273	0.1	6313.9
29402	0.425	4.7273	0.1	5893.4
29403	0.34	4.6364	0.1	6250.
29404	0.595	4.7273	0.1	5763.5
29405	0.51	4.6364	0.1	6087.9
29406	0.765	4.7273	0.1	5687.7
29407	0.68	4.6364	0.1	6027.
29408	0.935	4.7273	0.1	5628.2
29409	0.85	4.6364	0.1	5996.3
29410	1.105	4.7273	0.1	5578.1
29411	1.02	4.6364	0.1	6001.7
29412	1.275	4.7273	0.1	5524.3
29413	1.19	4.6364	0.1	6027.8
29414	1.445	4.7273	0.1	5549.1
29415	1.36	4.6364	0.1	6050.2
29416	1.53	4.6364	0.1	6244.2
29417	1.615	4.7273	0.1	4717.9
29418	0.255	4.5455	0.1	6524.2
29419	0.17	4.4545	0.1	6790.6
29420	8.5e-002	4.5455	0.1	6807.1
29421	0.425	4.5455	0.1	6432.
29422	0.34	4.4545	0.1	6772.7
29423	0.595	4.5455	0.1	6336.8
29424	0.51	4.4545	0.1	6641.9
29425	0.765	4.5455	0.1	6319.8
29426	0.68	4.4545	0.1	6633.4
29427	0.935	4.5455	0.1	6350.3
29428	0.85	4.4545	0.1	6684.9
29429	1.105	4.5455	0.1	6425.4
29430	1.02	4.4545	0.1	6815.1
29431	1.275	4.5455	0.1	6514.5
29432	1.19	4.4545	0.1	7019.7
29433	1.445	4.5455	0.1	6687.
29434	1.36	4.4545	0.1	7266.2
29435	1.53	4.4545	0.1	7730.1
29436	1.615	4.5455	0.1	5676.5
29437	0.255	4.3636	0.1	7025.1
29438	0.17	4.2727	0.1	7260.7
29439	8.5e-002	4.3636	0.1	7282.7
29440	0.425	4.3636	0.1	6971.4
29441	0.34	4.2727	0.1	7284.1
29442	0.595	4.3636	0.1	6925.2
29443	0.51	4.2727	0.1	7194.4
29444	0.765	4.3636	0.1	6984.7
29445	0.68	4.2727	0.1	7250.
29446	0.935	4.3636	0.1	7133.9
29447	0.85	4.2727	0.1	7400.4
29448	1.105	4.3636	0.1	7389.6
29449	1.02	4.2727	0.1	7687.1
29450	1.275	4.3636	0.1	7740.9
29451	1.19	4.2727	0.1	8144.
29452	1.445	4.3636	0.1	8222.7
29453	1.36	4.2727	0.1	8854.9
29454	1.53	4.2727	0.1	10258
29455	1.615	4.3636	0.1	6978.1
29456	0.255	4.1818	0.1	7507.9
29457	0.17	4.0909	0.1	7707.9
29458	8.5e-002	4.1818	0.1	7738.1
29459	0.425	4.1818	0.1	7497.6
29460	0.34	4.0909	0.1	7772.8
29461	0.595	4.1818	0.1	7508.1
29462	0.51	4.0909	0.1	7727.4
29463	0.765	4.1818	0.1	7654.9
29464	0.68	4.0909	0.1	7851.8
29465	0.935	4.1818	0.1	7942.9
29466	0.85	4.0909	0.1	8107.2
29467	1.105	4.1818	0.1	8432.
29468	1.02	4.0909	0.1	8563.6
29469	1.275	4.1818	0.1	9246.2
29470	1.19	4.0909	0.1	9320.5
29471	1.445	4.1818	0.1	10831
29472	1.36	4.0909	0.1	10602
29473	1.53	4.0909	0.1	14167
29474	1.615	4.1818	0.1	9306.4
29475	0.255	3.8182	0.1	8378.5
29476	0.17	3.7273	0.1	8497.2
29477	0.17	3.9091	0.1	8123.8
29478	8.5e-002	3.8182	0.1	8569.2
29479	0.425	3.8182	0.1	8446.2
29480	0.34	3.7273	0.1	8626.3
29481	0.34	3.9091	0.1	8225.3
29482	0.595	3.8182	0.1	8563.3
29483	0.51	3.7273	0.1	8656.3
29484	0.51	3.9091	0.1	8221.5
29485	0.765	3.8182	0.1	8870.7
29486	0.68	3.7273	0.1	8896.2
29487	0.68	3.9091	0.1	8410.1
29488	0.935	3.8182	0.1	9402.9
29489	0.85	3.7273	0.1	9316.2
29490	0.85	3.9091	0.1	8761.1
29491	1.105	3.8182	0.1	10286
29492	1.02	3.7273	0.1	10006
29493	1.02	3.9091	0.1	9364.4
29494	1.275	3.8182	0.1	11806
29495	1.19	3.7273	0.1	11096
29496	1.19	3.9091	0.1	10366
29497	1.445	3.8182	0.1	14585
29498	1.36	3.7273	0.1	12864
29499	1.36	3.9091	0.1	12102
29500	1.615	3.8182	0.1	18635
29501	1.53	3.7273	0.1	15751
29502	1.53	3.9091	0.1	16364
29503	1.7	3.7273	0.1	18948
29504	1.7833	3.8182	0.1	20680
29505	1.7	3.9091	0.1	25762
29506	0.255	3.6364	0.1	8739.6
29507	0.17	3.5455	0.1	8813.3
29508	8.5e-002	3.6364	0.1	8925.5
29509	0.425	3.6364	0.1	8832.9
29510	0.34	3.5455	0.1	8959.5
29511	0.595	3.6364	0.1	8986.3
29512	0.51	3.5455	0.1	9012.5
29513	0.765	3.6364	0.1	9341.5
29514	0.68	3.5455	0.1	9285.7
29515	0.935	3.6364	0.1	9924.8
29516	0.85	3.5455	0.1	9739.7
29517	1.105	3.6364	0.1	10833
29518	1.02	3.5455	0.1	10445
29519	1.275	3.6364	0.1	12196
29520	1.19	3.5455	0.1	11469
29521	1.445	3.6364	0.1	14103
29522	1.36	3.5455	0.1	12883
29523	1.615	3.6364	0.1	15947
29524	1.53	3.5455	0.1	14600
29525	1.7	3.5455	0.1	15776
29526	1.7833	3.6364	0.1	16557
29527	0.255	3.4545	0.1	9030.
29528	0.17	3.3636	0.1	9055.4
29529	8.5e-002	3.4545	0.1	9220.2
29530	0.425	3.4545	0.1	9137.9
29531	0.34	3.3636	0.1	9209.8
29532	0.595	3.4545	0.1	9312.1
29533	0.51	3.3636	0.1	9275.3
29534	0.765	3.4545	0.1	9687.5
29535	0.68	3.3636	0.1	9564.6
29536	0.935	3.4545	0.1	10269
29537	0.85	3.3636	0.1	10024
29538	1.105	3.4545	0.1	11101
29539	1.02	3.3636	0.1	10697
29540	1.275	3.4545	0.1	12188
29541	1.19	3.3636	0.1	11589
29542	1.445	3.4545	0.1	13408
29543	1.36	3.3636	0.1	12656
29544	1.615	3.4545	0.1	14397
29545	1.53	3.3636	0.1	13688
29546	1.7	3.3636	0.1	14297
29547	1.7833	3.4545	0.1	14683
29548	0.255	3.2727	0.1	9234.
29549	0.17	3.1818	0.1	9208.2
29550	8.5e-002	3.2727	0.1	9432.4
29551	0.425	3.2727	0.1	9347.8
29552	0.34	3.1818	0.1	9364.9
29553	0.595	3.2727	0.1	9530.6
29554	0.51	3.1818	0.1	9435.6
29555	0.765	3.2727	0.1	9907.8
29556	0.68	3.1818	0.1	9730.
29557	0.935	3.2727	0.1	10464
29558	0.85	3.1818	0.1	10183
29559	1.105	3.2727	0.1	11204
29560	1.02	3.1818	0.1	10817
29561	1.275	3.2727	0.1	12079
29562	1.19	3.1818	0.1	11605
29563	1.445	3.2727	0.1	12951
29564	1.36	3.1818	0.1	12460
29565	1.615	3.2727	0.1	13581
29566	1.53	3.1818	0.1	13205
29567	1.7	3.1818	0.1	13592
29568	1.7833	3.2727	0.1	13722
29569	0.255	3.0909	0.1	9339.3
29570	0.17	3.	0.1	9260.4
29571	8.5e-002	3.0909	0.1	9543.9
29572	0.425	3.0909	0.1	9454.6
29573	0.34	3.	0.1	9417.5
29574	0.595	3.0909	0.1	9639.4
29575	0.51	3.	0.1	9489.3
29576	0.765	3.0909	0.1	10013
29577	0.68	3.	0.1	9784.5
29578	0.935	3.0909	0.1	10549
29579	0.85	3.	0.1	10233
29580	1.105	3.0909	0.1	11235
29581	1.02	3.	0.1	10852
29582	1.275	3.0909	0.1	12004
29583	1.19	3.	0.1	11601
29584	1.445	3.0909	0.1	12726
29585	1.36	3.	0.1	12389
29586	1.615	3.0909	0.1	13219
29587	1.53	3.	0.1	13050
29588	1.7	3.	0.1	13382
29589	1.7833	3.0909	0.1	13312
29590	0.255	2.9091	0.1	9339.3
29591	0.17	2.8182	0.1	9208.2
29592	8.5e-002	2.9091	0.1	9543.9
29593	0.425	2.9091	0.1	9454.6
29594	0.34	2.8182	0.1	9364.9
29595	0.595	2.9091	0.1	9639.4
29596	0.51	2.8182	0.1	9435.6
29597	0.765	2.9091	0.1	10013
29598	0.68	2.8182	0.1	9730.
29599	0.935	2.9091	0.1	10549
29600	0.85	2.8182	0.1	10183
29601	1.105	2.9091	0.1	11235
29602	1.02	2.8182	0.1	10817
29603	1.275	2.9091	0.1	12004
29604	1.19	2.8182	0.1	11605
29605	1.445	2.9091	0.1	12726
29606	1.36	2.8182	0.1	12460
29607	1.615	2.9091	0.1	13219
29608	1.53	2.8182	0.1	13205
29609	1.7	2.8182	0.1	13592
29610	1.7833	2.9091	0.1	13312
29611	0.255	2.7273	0.1	9234.
29612	0.17	2.6364	0.1	9055.4
29613	8.5e-002	2.7273	0.1	9432.4
29614	0.425	2.7273	0.1	9347.8
29615	0.34	2.6364	0.1	9209.8
29616	0.595	2.7273	0.1	9530.6
29617	0.51	2.6364	0.1	9275.3
29618	0.765	2.7273	0.1	9907.8
29619	0.68	2.6364	0.1	9564.6
29620	0.935	2.7273	0.1	10464
29621	0.85	2.6364	0.1	10024
29622	1.105	2.7273	0.1	11204
29623	1.02	2.6364	0.1	10697
29624	1.275	2.7273	0.1	12079
29625	1.19	2.6364	0.1	11589
29626	1.445	2.7273	0.1	12951
29627	1.36	2.6364	0.1	12656
29628	1.615	2.7273	0.1	13581
29629	1.53	2.6364	0.1	13688
29630	1.7	2.6364	0.1	14297
29631	1.7833	2.7273	0.1	13722
29632	0.255	2.5455	0.1	9030.
29633	0.17	2.4545	0.1	8813.3
29634	8.5e-002	2.5455	0.1	9220.2
29635	0.425	2.5455	0.1	9137.9
29636	0.34	2.4545	0.1	8959.5
29637	0.595	2.5455	0.1	9312.1
29638	0.51	2.4545	0.1	9012.5
29639	0.765	2.5455	0.1	9687.5
29640	0.68	2.4545	0.1	9285.7
29641	0.935	2.5455	0.1	10269
29642	0.85	2.4545	0.1	9739.7
29643	1.105	2.5455	0.1	11101
29644	1.02	2.4545	0.1	10445
29645	1.275	2.5455	0.1	12188
29646	1.19	2.4545	0.1	11469
29647	1.445	2.5455	0.1	13408
29648	1.36	2.4545	0.1	12883
29649	1.615	2.5455	0.1	14397
29650	1.53	2.4545	0.1	14600
29651	1.7	2.4545	0.1	15776
29652	1.7833	2.5455	0.1	14683
29653	0.255	2.3636	0.1	8739.6
29654	0.17	2.2727	0.1	8497.2
29655	8.5e-002	2.3636	0.1	8925.5
29656	0.425	2.3636	0.1	8832.9
29657	0.34	2.2727	0.1	8626.3
29658	0.595	2.3636	0.1	8986.3
29659	0.51	2.2727	0.1	8656.3
29660	0.765	2.3636	0.1	9341.5
29661	0.68	2.2727	0.1	8896.2
29662	0.935	2.3636	0.1	9924.8
29663	0.85	2.2727	0.1	9316.2
29664	1.105	2.3636	0.1	10833
29665	1.02	2.2727	0.1	10006
29666	1.275	2.3636	0.1	12196
29667	1.19	2.2727	0.1	11096
29668	1.445	2.3636	0.1	14103
29669	1.36	2.2727	0.1	12864
29670	1.615	2.3636	0.1	15947
29671	1.53	2.2727	0.1	15751
29672	1.7	2.2727	0.1	18948
29673	1.7833	2.3636	0.1	16557
29674	0.255	2.1818	0.1	8378.5
29675	0.17	2.0909	0.1	8123.8
29676	8.5e-002	2.1818	0.1	8569.2
29677	0.425	2.1818	0.1	8446.2
29678	0.34	2.0909	0.1	8225.3
29679	0.595	2.1818	0.1	8563.3
29680	0.51	2.0909	0.1	8221.5
29681	0.765	2.1818	0.1	8870.7
29682	0.68	2.0909	0.1	8410.1
29683	0.935	2.1818	0.1	9402.9
29684	0.85	2.0909	0.1	8761.1
29685	1.105	2.1818	0.1	10286
29686	1.02	2.0909	0.1	9364.5
29687	1.275	2.1818	0.1	11806
29688	1.19	2.0909	0.1	10366
29689	1.445	2.1818	0.1	14585
29690	1.36	2.0909	0.1	12102
29691	1.615	2.1818	0.1	18635
29692	1.53	2.0909	0.1	16364
29693	1.7833	2.1818	0.1	20680
29694	1.7	2.0909	0.1	25762
29695	1.53	1.7273	0.1	10258
29696	1.445	1.8182	0.1	10831
29697	1.53	1.9091	0.1	14167
29698	1.615	1.8182	0.1	9306.4
29699	1.53	1.5455	0.1	7730.1
29700	1.445	1.6364	0.1	8222.7
29701	1.615	1.6364	0.1	6978.1
29702	1.53	1.3636	0.1	6244.2
29703	1.445	1.4545	0.1	6687.
29704	1.615	1.4545	0.1	5676.5
29705	1.53	1.1818	0.1	5158.7
29706	1.445	1.2727	0.1	5549.1
29707	1.615	1.2727	0.1	4717.9
29708	1.53	1.	0.1	4286.1
29709	1.445	1.0909	0.1	4649.4
29710	1.615	1.0909	0.1	3962.8
29711	1.53	0.81818	0.1	3529.5
29712	1.445	0.90909	0.1	3885.5
29713	1.615	0.90909	0.1	3307.2
29714	1.53	0.63636	0.1	2839.2
29715	1.445	0.72727	0.1	3205.5
29716	1.615	0.72727	0.1	2705.1
29717	1.53	0.45455	0.1	2184.8
29718	1.445	0.54545	0.1	2581.
29719	1.615	0.54545	0.1	2125.9
29720	1.53	0.27273	0.1	1567.9
29721	1.445	0.36364	0.1	2006.9
29722	1.615	0.36364	0.1	1546.2
29723	1.445	0.18182	0.1	1557.4
29724	1.615	0.18182	0.1	955.94
29725	1.53	9.0909e-002	0.1	1000.6
29726	1.36	1.7273	0.1	8854.9
29727	1.275	1.8182	0.1	9246.2
29728	1.36	1.9091	0.1	10602
29729	1.36	1.5455	0.1	7266.2
29730	1.275	1.6364	0.1	7740.9
29731	1.36	1.3636	0.1	6050.2
29732	1.275	1.4545	0.1	6514.5
29733	1.36	1.1818	0.1	5086.4
29734	1.275	1.2727	0.1	5524.3
29735	1.36	1.	0.1	4288.5
29736	1.275	1.0909	0.1	4705.4
29737	1.36	0.81818	0.1	3598.8
29738	1.275	0.90909	0.1	4005.8
29739	1.36	0.63636	0.1	2985.3
29740	1.275	0.72727	0.1	3393.5
29741	1.36	0.45455	0.1	2442.4
29742	1.275	0.54545	0.1	2858.
29743	1.36	0.27273	0.1	2020.
29744	1.275	0.36364	0.1	2416.3
29745	1.275	0.18182	0.1	2149.1
29746	1.36	9.0909e-002	0.1	1666.2
29747	1.19	1.7273	0.1	8144.
29748	1.105	1.8182	0.1	8432.
29749	1.19	1.9091	0.1	9320.5
29750	1.19	1.5455	0.1	7019.7
29751	1.105	1.6364	0.1	7389.7
29752	1.19	1.3636	0.1	6027.8
29753	1.105	1.4545	0.1	6425.4
29754	1.19	1.1818	0.1	5180.8
29755	1.105	1.2727	0.1	5578.1
29756	1.19	1.	0.1	4457.5
29757	1.105	1.0909	0.1	4847.3
29758	1.19	0.81818	0.1	3832.4
29759	1.105	0.90909	0.1	4215.5
29760	1.19	0.63636	0.1	3293.7
29761	1.105	0.72727	0.1	3671.6
29762	1.19	0.45455	0.1	2849.2
29763	1.105	0.54545	0.1	3216.2
29764	1.19	0.27273	0.1	2545.2
29765	1.105	0.36364	0.1	2867.3
29766	1.105	0.18182	0.1	2683.2
29767	1.19	9.0909e-002	0.1	2265.3
29768	1.02	1.7273	0.1	7687.1
29769	0.935	1.8182	0.1	7942.9
29770	1.02	1.9091	0.1	8563.6
29771	1.02	1.5455	0.1	6815.1
29772	0.935	1.6364	0.1	7134.
29773	1.02	1.3636	0.1	6001.7
29774	0.935	1.4545	0.1	6350.3
29775	1.02	1.1818	0.1	5272.3
29776	0.935	1.2727	0.1	5628.2
29777	1.02	1.	0.1	4631.6
29778	0.935	1.0909	0.1	4982.7
29779	1.02	0.81818	0.1	4077.2
29780	0.935	0.90909	0.1	4417.9
29781	1.02	0.63636	0.1	3610.1
29782	0.935	0.72727	0.1	3935.7
29783	1.02	0.45455	0.1	3240.6
29784	0.935	0.54545	0.1	3542.
29785	1.02	0.27273	0.1	3003.8
29786	0.935	0.36364	0.1	3250.7
29787	0.935	0.18182	0.1	3109.2
29788	1.02	9.0909e-002	0.1	2758.9
29789	0.85	1.7273	0.1	7400.4
29790	0.765	1.8182	0.1	7654.9
29791	0.85	1.9091	0.1	8107.2
29792	0.85	1.5455	0.1	6684.9
29793	0.765	1.6364	0.1	6984.7
29794	0.85	1.3636	0.1	5996.3
29795	0.765	1.4545	0.1	6319.8
29796	0.85	1.1818	0.1	5359.2
29797	0.765	1.2727	0.1	5687.7
29798	0.85	1.	0.1	4788.3
29799	0.765	1.0909	0.1	5107.5
29800	0.85	0.81818	0.1	4291.8
29801	0.765	0.90909	0.1	4591.4
29802	0.85	0.63636	0.1	3877.2
29803	0.765	0.72727	0.1	4148.6
29804	0.85	0.45455	0.1	3555.2
29805	0.765	0.54545	0.1	3789.
29806	0.85	0.27273	0.1	3355.6
29807	0.765	0.36364	0.1	3525.5
29808	0.765	0.18182	0.1	3404.1
29809	0.85	9.0909e-002	0.1	3130.
29810	0.68	1.7273	0.1	7250.
29811	0.595	1.8182	0.1	7508.1
29812	0.68	1.9091	0.1	7851.8
29813	0.68	1.5455	0.1	6633.4
29814	0.595	1.6364	0.1	6925.2
29815	0.68	1.3636	0.1	6027.
29816	0.595	1.4545	0.1	6336.8
29817	0.68	1.1818	0.1	5452.1
29818	0.595	1.2727	0.1	5763.5
29819	0.68	1.	0.1	4925.1
29820	0.595	1.0909	0.1	5222.1
29821	0.68	0.81818	0.1	4459.3
29822	0.595	0.90909	0.1	4726.8
29823	0.68	0.63636	0.1	4066.9
29824	0.595	0.72727	0.1	4290.3
29825	0.68	0.45455	0.1	3761.5
29826	0.595	0.54545	0.1	3927.6
29827	0.68	0.27273	0.1	3574.1
29828	0.595	0.36364	0.1	3657.6
29829	0.595	0.18182	0.1	3534.5
29830	0.68	9.0909e-002	0.1	3355.6
29831	0.51	1.7273	0.1	7194.4
29832	0.425	1.8182	0.1	7497.6
29833	0.51	1.9091	0.1	7727.4
29834	0.51	1.5455	0.1	6641.9
29835	0.425	1.6364	0.1	6971.4
29836	0.51	1.3636	0.1	6087.9
29837	0.425	1.4545	0.1	6432.
29838	0.51	1.1818	0.1	5548.3
29839	0.425	1.2727	0.1	5893.4
29840	0.51	1.	0.1	5037.
29841	0.425	1.0909	0.1	5367.2
29842	0.51	0.81818	0.1	4567.7
29843	0.425	0.90909	0.1	4863.2
29844	0.51	0.63636	0.1	4156.7
29845	0.425	0.72727	0.1	4391.8
29846	0.51	0.45455	0.1	3825.8
29847	0.425	0.54545	0.1	3969.
29848	0.51	0.27273	0.1	3618.2
29849	0.425	0.36364	0.1	3627.2
29850	0.425	0.18182	0.1	3447.8
29851	0.51	9.0909e-002	0.1	3390.8
29852	0.34	1.7273	0.1	7284.1
29853	0.255	1.8182	0.1	7507.9
29854	0.34	1.9091	0.1	7772.8
29855	0.34	1.5455	0.1	6772.7
29856	0.255	1.6364	0.1	7025.1
29857	0.34	1.3636	0.1	6250.
29858	0.255	1.4545	0.1	6524.2
29859	0.34	1.1818	0.1	5725.3
29860	0.255	1.2727	0.1	6012.9
29861	0.34	1.	0.1	5205.6
29862	0.255	1.0909	0.1	5496.
29863	0.34	0.81818	0.1	4697.
29864	0.255	0.90909	0.1	4974.5
29865	0.34	0.63636	0.1	4209.3
29866	0.255	0.72727	0.1	4444.9
29867	0.34	0.45455	0.1	3771.
29868	0.255	0.54545	0.1	3904.5
29869	0.34	0.27273	0.1	3455.6
29870	0.255	0.36364	0.1	3365.3
29871	0.255	0.18182	0.1	2965.2
29872	0.34	9.0909e-002	0.1	3165.1
29873	0.17	1.7273	0.1	7260.7
29874	0.17	1.9091	0.1	7707.9
29875	8.5e-002	1.8182	0.1	7738.1
29876	0.17	1.5455	0.1	6790.6
29877	8.5e-002	1.6364	0.1	7282.7
29878	0.17	1.3636	0.1	6303.2
29879	8.5e-002	1.4545	0.1	6807.1
29880	0.17	1.1818	0.1	5801.7
29881	8.5e-002	1.2727	0.1	6313.9
29882	0.17	1.	0.1	5284.8
29883	8.5e-002	1.0909	0.1	5803.7
29884	0.17	0.81818	0.1	4743.8
29885	8.5e-002	0.90909	0.1	5271.2
29886	0.17	0.63636	0.1	4160.6
29887	8.5e-002	0.72727	0.1	4697.8
29888	0.17	0.45455	0.1	3509.6
29889	8.5e-002	0.54545	0.1	4040.3
29890	0.17	0.27273	0.1	2866.7
29891	8.5e-002	0.36364	0.1	3214.
29892	8.5e-002	0.18182	0.1	2087.3
29893	0.17	9.0909e-002	0.1	2389.6
29894	0.255	4.	0.1	7963.
29895	8.5e-002	4.	0.1	8169.2
29896	0.425	4.	0.1	7995.
29897	0.595	4.	0.1	8062.4
29898	0.765	4.	0.1	8296.4
29899	0.935	4.	0.1	8722.2
29900	1.105	4.	0.1	9451.8
29901	1.275	4.	0.1	10694
29902	1.445	4.	0.1	14047
29903	1.615	4.	0.1	23769
29904	1.8667	3.7273	0.1	18544
29905	1.8667	3.9091	0.1	24502
29906	1.8667	3.5455	0.1	15539
29907	1.8667	3.3636	0.1	14127
29908	1.8667	3.1818	0.1	13446
29909	1.8667	3.	0.1	13242
29910	1.8667	2.8182	0.1	13446
29911	1.8667	2.6364	0.1	14127
29912	1.8667	2.4545	0.1	15539
29913	1.8667	2.2727	0.1	18544
29914	1.8667	2.0909	0.1	24502
29915	0.255	2.	0.1	7963.
29916	8.5e-002	2.	0.1	8169.2
29917	0.425	2.	0.1	7995.
29918	0.595	2.	0.1	8062.4
29919	0.765	2.	0.1	8296.4
29920	0.935	2.	0.1	8722.2
29921	1.105	2.	0.1	9451.8
29922	1.275	2.	0.1	10694
29923	1.445	2.	0.1	14047
29924	1.615	2.	0.1	23769
29925	1.8667	0.27273	0.1	735.2
29926	1.8667	9.0909e-002	0.1	290.78
29927	1.8667	0.18182	5.e-002	130.04
29928	1.8667	0.45455	0.1	1109.
29929	1.8667	0.36364	5.e-002	276.81
29930	1.8667	0.63636	0.1	1458.3
29931	1.8667	0.54545	5.e-002	422.57
29932	1.8667	0.81818	0.1	1821.
29933	1.8667	0.72727	5.e-002	580.35
29934	1.8667	1.	0.1	2225.1
29935	1.8667	0.90909	5.e-002	758.47
29936	1.8667	1.1818	0.1	2704.7
29937	1.8667	1.0909	5.e-002	969.1
29938	1.8667	1.3636	0.1	3326.1
29939	1.8667	1.2727	5.e-002	1233.4
29940	1.8667	1.5455	0.1	4173.
29941	1.8667	1.4545	5.e-002	1586.5
29942	1.8667	1.7273	0.1	5849.9
29943	1.8667	1.6364	5.e-002	2155.8
29944	1.8667	1.9091	0.1	16184
29945	1.8667	1.8182	5.e-002	3571.6
29946	1.7833	2.	0.1	26714
29947	1.8667	2.	5.e-002	3128.7
29948	1.7	1.9091	0.1	17515
29949	1.7	2.	5.e-002	3287.4
29950	1.7	1.7273	0.1	7168.5
29951	1.7	1.8182	5.e-002	3856.2
29952	1.7	1.5455	0.1	5484.5
29953	1.7	1.6364	5.e-002	2334.2
29954	1.7	1.3636	0.1	4580.2
29955	1.7	1.4545	5.e-002	1743.9
29956	1.7	1.1818	0.1	3859.3
29957	1.7	1.2727	5.e-002	1355.9
29958	1.7	1.	0.1	3256.3
29959	1.7	1.0909	5.e-002	1067.9
29960	1.7	0.81818	0.1	2705.1
29961	1.7	0.90909	5.e-002	837.85
29962	1.7	0.63636	0.1	2174.7
29963	1.7	0.72727	5.e-002	643.87
29964	1.7	0.45455	0.1	1639.3
29965	1.7	0.54545	5.e-002	471.71
29966	1.7	0.27273	0.1	1059.1
29967	1.7	0.36364	5.e-002	311.18
29968	1.7	9.0909e-002	0.1	397.56
29969	1.7	0.18182	5.e-002	142.78
29970	1.8667	5.7273	0.1	735.2
29971	1.8667	5.9091	0.1	290.78
29972	1.8667	5.8182	5.e-002	130.04
29973	1.8667	5.5455	0.1	1109.
29974	1.8667	5.6364	5.e-002	276.81
29975	1.8667	5.3636	0.1	1458.3
29976	1.8667	5.4545	5.e-002	422.57
29977	1.8667	5.1818	0.1	1821.
29978	1.8667	5.2727	5.e-002	580.35
29979	1.8667	5.	0.1	2225.1
29980	1.8667	5.0909	5.e-002	758.47
29981	1.8667	4.8182	0.1	2704.7
29982	1.8667	4.9091	5.e-002	969.1
29983	1.8667	4.6364	0.1	3326.1
29984	1.8667	4.7273	5.e-002	1233.4
29985	1.8667	4.4545	0.1	4173.
29986	1.8667	4.5455	5.e-002	1586.5
29987	1.8667	4.2727	0.1	5849.9
29988	1.8667	4.3636	5.e-002	2155.8
29989	1.8667	4.0909	0.1	16184
29990	1.8667	4.1818	5.e-002	3571.6
29991	1.7833	4.	0.1	26714
29992	1.8667	4.	5.e-002	3128.7
29993	1.7	4.0909	0.1	17515
29994	1.7	4.	5.e-002	3287.4
29995	1.7	4.2727	0.1	7168.5
29996	1.7	4.1818	5.e-002	3856.2
29997	1.7	4.4545	0.1	5484.5
29998	1.7	4.3636	5.e-002	2334.2
29999	1.7	4.6364	0.1	4580.2
30000	1.7	4.5455	5.e-002	1743.9
30001	1.7	4.8182	0.1	3859.3
30002	1.7	4.7273	5.e-002	1355.9
30003	1.7	5.	0.1	3256.3
30004	1.7	4.9091	5.e-002	1067.9
30005	1.7	5.1818	0.1	2705.1
30006	1.7	5.0909	5.e-002	837.85
30007	1.7	5.3636	0.1	2174.7
30008	1.7	5.2727	5.e-002	643.87
30009	1.7	5.5455	0.1	1639.3
30010	1.7	5.4545	5.e-002	471.71
30011	1.7	5.7273	0.1	1059.1
30012	1.7	5.6364	5.e-002	311.18
30013	1.7	5.9091	0.1	397.56
30014	1.7	5.8182	5.e-002	142.78
30015	1.9589	6.	0.1	388.25
30016	1.8667	6.	5.e-002	39.915
30017	2.1433	6.	0.1	1078.5
30018	2.0511	6.	5.e-002	26.613
30019	2.3278	6.	0.1	1743.6
30020	2.2356	6.	5.e-002	71.118
30021	2.5122	6.	0.1	2333.7
30022	2.42	6.	5.e-002	91.449
30023	2.6967	6.	0.1	2850.9
30024	2.6044	6.	5.e-002	100.03
30025	2.8811	6.	0.1	3293.5
30026	2.7889	6.	5.e-002	100.39
30027	3.0656	6.	0.1	3663.1
30028	2.9733	6.	5.e-002	95.837
30029	3.25	6.	0.1	3964.2
30030	3.1578	6.	5.e-002	88.614
30031	3.4344	6.	0.1	4203.5
30032	3.3422	6.	5.e-002	80.362
30033	3.6189	6.	0.1	4388.8
30034	3.5267	6.	5.e-002	72.168
30035	3.8033	6.	0.1	4527.9
30036	3.7111	6.	5.e-002	64.701
30037	3.9878	6.	0.1	4628.5
30038	3.8956	6.	5.e-002	58.315
30039	4.1722	6.	0.1	4697.1
30040	4.08	6.	5.e-002	53.15
30041	4.3567	6.	0.1	4739.6
30042	4.2644	6.	5.e-002	49.206
30043	4.5411	6.	0.1	4761.1
30044	4.4489	6.	5.e-002	46.402
30045	4.7256	6.	0.1	4765.6
30046	4.6333	6.	5.e-002	44.609
30047	4.91	6.	0.1	4756.6
30048	4.8178	6.	5.e-002	43.682
30049	5.0944	6.	0.1	4736.9
30050	5.0022	6.	5.e-002	43.473
30051	5.2789	6.	0.1	4708.8
30052	5.1867	6.	5.e-002	43.845
30053	5.4633	6.	0.1	4674.
30054	5.3711	6.	5.e-002	44.672
30055	5.6478	6.	0.1	4634.1
30056	5.5556	6.	5.e-002	45.845
30057	5.8322	6.	0.1	4590.1
30058	5.74	6.	5.e-002	47.27
30059	6.0167	6.	0.1	4543.1
30060	5.9244	6.	5.e-002	48.869
30061	6.2011	6.	0.1	4493.8
30062	6.1089	6.	5.e-002	50.577
30063	6.3856	6.	0.1	4442.7
30064	6.2933	6.	5.e-002	52.344
30065	6.57	6.	0.1	4390.3
30066	6.4778	6.	5.e-002	54.126
30067	6.7544	6.	0.1	4336.9
30068	6.6622	6.	5.e-002	55.893
30069	6.9389	6.	0.1	4282.9
30070	6.8467	6.	5.e-002	57.618
30071	7.1233	6.	0.1	4228.4
30072	7.0311	6.	5.e-002	59.284
30073	7.3078	6.	0.1	4173.6
30074	7.2156	6.	5.e-002	60.876
30075	7.4922	6.	0.1	4118.7
30076	7.4	6.	5.e-002	62.386
30077	7.6767	6.	0.1	4063.8
30078	7.5844	6.	5.e-002	63.808
30079	7.8611	6.	0.1	4008.8
30080	7.7689	6.	5.e-002	65.138
30081	8.0456	6.	0.1	3954.
30082	7.9533	6.	5.e-002	66.376
30083	8.23	6.	0.1	3899.2
30084	8.1378	6.	5.e-002	67.521
30085	8.4144	6.	0.1	3844.7
30086	8.3222	6.	5.e-002	68.575
30087	8.5989	6.	0.1	3790.3
30088	8.5067	6.	5.e-002	69.541
30089	8.7833	6.	0.1	3736.1
30090	8.6911	6.	5.e-002	70.422
30091	8.9678	6.	0.1	3682.2
30092	8.8756	6.	5.e-002	71.222
30093	9.1522	6.	0.1	3628.4
30094	9.06	6.	5.e-002	71.944
30095	9.3367	6.	0.1	3574.9
30096	9.2444	6.	5.e-002	72.592
30097	9.5211	6.	0.1	3521.7
30098	9.4289	6.	5.e-002	73.171
30099	9.7056	6.	0.1	3468.6
30100	9.6133	6.	5.e-002	73.685
30101	9.89	6.	0.1	3415.9
30102	9.7978	6.	5.e-002	74.137
30103	10.074	6.	0.1	3363.3
30104	9.9822	6.	5.e-002	74.531
30105	10.259	6.	0.1	3311.
30106	10.167	6.	5.e-002	74.871
30107	10.443	6.	0.1	3258.9
30108	10.351	6.	5.e-002	75.162
30109	10.628	6.	0.1	3207.1
30110	10.536	6.	5.e-002	75.405
30111	10.812	6.	0.1	3155.5
30112	10.72	6.	5.e-002	75.604
30113	10.997	6.	0.1	3104.1
30114	10.904	6.	5.e-002	75.763
30115	11.181	6.	0.1	3053.
30116	11.089	6.	5.e-002	75.883
30117	11.366	6.	0.1	3002.
30118	11.273	6.	5.e-002	75.968
30119	11.55	6.	0.1	2951.3
30120	11.458	6.	5.e-002	76.021
30121	11.734	6.	0.1	2900.9
30122	11.642	6.	5.e-002	76.042
30123	11.919	6.	0.1	2850.6
30124	11.827	6.	5.e-002	76.035
30125	12.103	6.	0.1	2800.6
30126	12.011	6.	5.e-002	76.001
30127	12.288	6.	0.1	2750.8
30128	12.196	6.	5.e-002	75.943
30129	12.472	6.	0.1	2701.2
30130	12.38	6.	5.e-002	75.861
30131	12.657	6.	0.1	2651.8
30132	12.564	6.	5.e-002	75.757
30133	12.841	6.	0.1	2602.6
30134	12.749	6.	5.e-002	75.633
30135	13.026	6.	0.1	2553.7
30136	12.933	6.	5.e-002	75.489
30137	13.21	6.	0.1	2505.
30138	13.118	6.	5.e-002	75.327
30139	13.394	6.	0.1	2456.4
30140	13.302	6.	5.e-002	75.149
30141	13.579	6.	0.1	2408.1
30142	13.487	6.	5.e-002	74.954
30143	13.763	6.	0.1	2360.
30144	13.671	6.	5.e-002	74.744
30145	13.948	6.	0.1	2312.1
30146	13.856	6.	5.e-002	74.518
30147	14.132	6.	0.1	2264.4
30148	14.04	6.	5.e-002	74.279
30149	14.317	6.	0.1	2216.9
30150	14.224	6.	5.e-002	74.027
30151	14.501	6.	0.1	2169.6
30152	14.409	6.	5.e-002	73.761
30153	14.686	6.	0.1	2122.5
30154	14.593	6.	5.e-002	73.482
30155	14.87	6.	0.1	2075.6
30156	14.778	6.	5.e-002	73.191
30157	15.054	6.	0.1	2029.
30158	14.962	6.	5.e-002	72.887
30159	15.239	6.	0.1	1982.5
30160	15.147	6.	5.e-002	72.571
30161	15.423	6.	0.1	1936.2
30162	15.331	6.	5.e-002	72.243
30163	15.608	6.	0.1	1890.1
30164	15.516	6.	5.e-002	71.902
30165	15.792	6.	0.1	1844.3
30166	15.7	6.	5.e-002	71.549
30167	15.977	6.	0.1	1798.6
30168	15.884	6.	5.e-002	71.183
30169	16.161	6.	0.1	1753.1
30170	16.069	6.	5.e-002	70.804
30171	16.346	6.	0.1	1707.8
30172	16.253	6.	5.e-002	70.412
30173	16.53	6.	0.1	1662.7
30174	16.438	6.	5.e-002	70.006
30175	16.714	6.	0.1	1617.8
30176	16.622	6.	5.e-002	69.586
30177	16.899	6.	0.1	1573.1
30178	16.807	6.	5.e-002	69.15
30179	17.083	6.	0.1	1528.6
30180	16.991	6.	5.e-002	68.699
30181	17.268	6.	0.1	1484.3
30182	17.176	6.	5.e-002	68.231
30183	17.452	6.	0.1	1440.2
30184	17.36	6.	5.e-002	67.746
30185	17.637	6.	0.1	1396.2
30186	17.544	6.	5.e-002	67.242
30187	17.821	6.	0.1	1352.5
30188	17.729	6.	5.e-002	66.718
30189	18.006	6.	0.1	1308.9
30190	17.913	6.	5.e-002	66.173
30191	18.19	6.	0.1	1265.5
30192	18.098	6.	5.e-002	65.605
30193	18.374	6.	0.1	1222.3
30194	18.282	6.	5.e-002	65.013
30195	18.559	6.	0.1	1179.3
30196	18.467	6.	5.e-002	64.395
30197	18.743	6.	0.1	1136.4
30198	18.651	6.	5.e-002	63.749
30199	18.928	6.	0.1	1093.7
30200	18.836	6.	5.e-002	63.073
30201	19.112	6.	0.1	1051.2
30202	19.02	6.	5.e-002	62.365
30203	19.297	6.	0.1	1008.9
30204	19.204	6.	5.e-002	61.623
30205	19.481	6.	0.1	966.76
30206	19.389	6.	5.e-002	60.842
30207	19.666	6.	0.1	924.77
30208	19.573	6.	5.e-002	60.022
30209	19.85	6.	0.1	882.94
30210	19.758	6.	5.e-002	59.157
30211	20.034	6.	0.1	841.28
30212	19.942	6.	5.e-002	58.245
30213	20.219	6.	0.1	799.77
30214	20.127	6.	5.e-002	57.282
30215	20.403	6.	0.1	758.42
30216	20.311	6.	5.e-002	56.264
30217	20.588	6.	0.1	717.23
30218	20.496	6.	5.e-002	55.185
30219	20.772	6.	0.1	676.19
30220	20.68	6.	5.e-002	54.041
30221	20.957	6.	0.1	635.31
30222	20.864	6.	5.e-002	52.826
30223	21.141	6.	0.1	594.58
30224	21.049	6.	5.e-002	51.534
30225	21.326	6.	0.1	554.
30226	21.233	6.	5.e-002	50.157
30227	21.51	6.	0.1	513.58
30228	21.418	6.	5.e-002	48.688
30229	21.694	6.	0.1	473.32
30230	21.602	6.	5.e-002	47.117
30231	21.879	6.	0.1	433.23
30232	21.787	6.	5.e-002	45.435
30233	22.063	6.	0.1	393.31
30234	21.971	6.	5.e-002	43.629
30235	22.248	6.	0.1	353.59
30236	22.156	6.	5.e-002	41.685
30237	22.432	6.	0.1	314.09
30238	22.34	6.	5.e-002	39.587
30239	22.617	6.	0.1	274.83
30240	22.524	6.	5.e-002	37.313
30241	22.801	6.	0.1	235.87
30242	22.709	6.	5.e-002	34.838
30243	22.986	6.	0.1	197.27
30244	22.893	6.	5.e-002	32.128
30245	23.17	6.	0.1	159.15
30246	23.078	6.	5.e-002	29.137
30247	23.354	6.	0.1	121.66
30248	23.262	6.	5.e-002	25.798
30249	23.539	6.	0.1	85.124
30250	23.447	6.	5.e-002	22.006
30251	23.723	6.	0.1	50.197
30252	23.631	6.	5.e-002	17.562
30253	23.908	6.	0.1	18.618
30254	23.816	6.	5.e-002	11.835
30255	24.	5.9091	0.1	5.8842
30256	24.	6.	5.e-002	4.5376
30257	24.	5.7273	0.1	6.9313
30258	24.	5.8182	5.e-002	4.0391
30259	24.	5.5455	0.1	7.1889
30260	24.	5.6364	5.e-002	4.6286
30261	24.	5.3636	0.1	7.272
30262	24.	5.4545	5.e-002	5.1406
30263	24.	5.1818	0.1	7.2822
30264	24.	5.2727	5.e-002	5.4181
30265	24.	5.	0.1	7.2523
30266	24.	5.0909	5.e-002	5.5444
30267	24.	4.8182	0.1	7.2075
30268	24.	4.9091	5.e-002	5.5661
30269	24.	4.6364	0.1	7.1563
30270	24.	4.7273	5.e-002	5.5148
30271	24.	4.4545	0.1	7.1045
30272	24.	4.5455	5.e-002	5.4134
30273	24.	4.2727	0.1	7.0552
30274	24.	4.3636	5.e-002	5.28
30275	24.	4.0909	0.1	7.0103
30276	24.	4.1818	5.e-002	5.1292
30277	24.	3.9091	0.1	6.971
30278	24.	4.	5.e-002	4.9735
30279	24.	3.7273	0.1	6.9382
30280	24.	3.8182	5.e-002	4.8241
30281	24.	3.5455	0.1	6.9122
30282	24.	3.6364	5.e-002	4.6909
30283	24.	3.3636	0.1	6.8935
30284	24.	3.4545	5.e-002	4.5824
30285	24.	3.1818	0.1	6.8822
30286	24.	3.2727	5.e-002	4.5058
30287	24.	3.	0.1	6.8784
30288	24.	3.0909	5.e-002	4.4662
30289	24.	2.8182	0.1	6.8822
30290	24.	2.9091	5.e-002	4.4662
30291	24.	2.6364	0.1	6.8935
30292	24.	2.7273	5.e-002	4.5058
30293	24.	2.4545	0.1	6.9122
30294	24.	2.5455	5.e-002	4.5824
30295	24.	2.2727	0.1	6.9382
30296	24.	2.3636	5.e-002	4.6909
30297	24.	2.0909	0.1	6.971
30298	24.	2.1818	5.e-002	4.8241
30299	24.	1.9091	0.1	7.0103
30300	24.	2.	5.e-002	4.9735
30301	24.	1.7273	0.1	7.0552
30302	24.	1.8182	5.e-002	5.1292
30303	24.	1.5455	0.1	7.1045
30304	24.	1.6364	5.e-002	5.28
30305	24.	1.3636	0.1	7.1563
30306	24.	1.4545	5.e-002	5.4135
30307	24.	1.1818	0.1	7.2075
30308	24.	1.2727	5.e-002	5.5148
30309	24.	1.	0.1	7.2523
30310	24.	1.0909	5.e-002	5.5662
30311	24.	0.81818	0.1	7.2822
30312	24.	0.90909	5.e-002	5.5444
30313	24.	0.63636	0.1	7.272
30314	24.	0.72727	5.e-002	5.4181
30315	24.	0.45455	0.1	7.1889
30316	24.	0.54545	5.e-002	5.1406
30317	24.	0.27273	0.1	6.9313
30318	24.	0.36364	5.e-002	4.6286
30319	24.	9.0909e-002	0.1	5.8842
30320	24.	0.18182	5.e-002	4.0391
30321	2.3842e-015	0.27273	0.1	2412.8
30322	7.9472e-016	9.0909e-002	0.1	798.58
30323	1.6109e-015	0.18182	5.e-002	72.546
30324	3.9736e-015	0.45455	0.1	3762.
30325	3.2219e-015	0.36364	5.e-002	42.764
30326	5.563e-015	0.63636	0.1	4589.9
30327	4.8328e-015	0.54545	5.e-002	42.351
30328	7.1525e-015	0.81818	0.1	5234.1
30329	6.4438e-015	0.72727	5.e-002	39.363
30330	8.7419e-015	1.	0.1	5797.1
30331	8.0547e-015	0.90909	5.e-002	35.207
30332	1.0331e-014	1.1818	0.1	6321.8
30333	9.6657e-015	1.0909	5.e-002	31.27
30334	1.1921e-014	1.3636	0.1	6822.9
30335	1.1277e-014	1.2727	5.e-002	27.375
30336	1.351e-014	1.5455	0.1	7303.6
30337	1.2888e-014	1.4545	5.e-002	23.191
30338	1.51e-014	1.7273	0.1	7763.7
30339	1.4498e-014	1.6364	5.e-002	18.744
30340	1.6689e-014	1.9091	0.1	8202.5
30341	1.6109e-014	1.8182	5.e-002	14.556
30342	1.8279e-014	2.0909	0.1	8617.1
30343	1.772e-014	2.	5.e-002	11.387
30344	1.9868e-014	2.2727	0.1	8999.3
30345	1.9331e-014	2.1818	5.e-002	9.5692
30346	2.1457e-014	2.4545	0.1	9333.6
30347	2.0942e-014	2.3636	5.e-002	8.8548
30348	2.3047e-014	2.6364	0.1	9597.7
30349	2.2553e-014	2.5455	5.e-002	9.1217
30350	2.4636e-014	2.8182	0.1	9768.2
30351	2.4164e-014	2.7273	5.e-002	10.127
30352	2.6226e-014	3.	0.1	9827.2
30353	2.5775e-014	2.9091	5.e-002	11.012
30354	2.7815e-014	3.1818	0.1	9768.2
30355	2.7386e-014	3.0909	5.e-002	11.012
30356	2.9405e-014	3.3636	0.1	9597.7
30357	2.8997e-014	3.2727	5.e-002	10.126
30358	3.0994e-014	3.5455	0.1	9333.6
30359	3.0608e-014	3.4545	5.e-002	9.1211
30360	3.2583e-014	3.7273	0.1	8999.3
30361	3.2219e-014	3.6364	5.e-002	8.8543
30362	3.4173e-014	3.9091	0.1	8617.1
30363	3.383e-014	3.8182	5.e-002	9.5688
30364	3.5762e-014	4.0909	0.1	8202.5
30365	3.5441e-014	4.	5.e-002	11.387
30366	3.7352e-014	4.2727	0.1	7763.7
30367	3.7052e-014	4.1818	5.e-002	14.555
30368	3.8941e-014	4.4545	0.1	7303.6
30369	3.8663e-014	4.3636	5.e-002	18.744
30370	4.0531e-014	4.6364	0.1	6822.9
30371	4.0274e-014	4.5455	5.e-002	23.191
30372	4.212e-014	4.8182	0.1	6321.8
30373	4.1885e-014	4.7273	5.e-002	27.374
30374	4.371e-014	5.	0.1	5797.1
30375	4.3495e-014	4.9091	5.e-002	31.269
30376	4.5299e-014	5.1818	0.1	5234.1
30377	4.5106e-014	5.0909	5.e-002	35.207
30378	4.6888e-014	5.3636	0.1	4589.9
30379	4.6717e-014	5.2727	5.e-002	39.363
30380	4.8478e-014	5.5455	0.1	3762.
30381	4.8328e-014	5.4545	5.e-002	42.351
30382	5.0067e-014	5.7273	0.1	2412.8
30383	4.9939e-014	5.6364	5.e-002	42.764
30384	5.1657e-014	5.9091	0.1	798.58
30385	5.155e-014	5.8182	5.e-002	72.546
30386	8.5e-002	6.	0.1	1125.
30387	5.2451e-014	6.	5.e-002	793.71
30388	0.255	6.	0.1	2643.2
30389	0.17	6.	5.e-002	627.44
30390	0.425	6.	0.1	3168.3
30391	0.34	6.	5.e-002	501.18
30392	0.595	6.	0.1	3274.5
30393	0.51	6.	5.e-002	437.69
30394	0.765	6.	0.1	3145.8
30395	0.68	6.	5.e-002	385.62
30396	0.935	6.	0.1	2846.4
30397	0.85	6.	5.e-002	336.83
30398	1.105	6.	0.1	2411.
30399	1.02	6.	5.e-002	286.41
30400	1.275	6.	0.1	1857.1
30401	1.19	6.	5.e-002	229.59
30402	1.445	6.	0.1	1183.9
30403	1.36	6.	5.e-002	162.15
30404	1.615	6.	0.1	427.94
30405	1.53	6.	5.e-002	69.12
30406	1.7	6.	5.e-002	48.808
30407	23.908	0.	0.1	18.618
30408	24.	0.	5.e-002	4.5376
30409	23.723	0.	0.1	50.197
30410	23.816	0.	5.e-002	11.835
30411	23.539	0.	0.1	85.124
30412	23.631	0.	5.e-002	17.562
30413	23.354	0.	0.1	121.66
30414	23.447	0.	5.e-002	22.006
30415	23.17	0.	0.1	159.15
30416	23.262	0.	5.e-002	25.798
30417	22.986	0.	0.1	197.27
30418	23.078	0.	5.e-002	29.137
30419	22.801	0.	0.1	235.87
30420	22.893	0.	5.e-002	32.128
30421	22.617	0.	0.1	274.83
30422	22.709	0.	5.e-002	34.838
30423	22.432	0.	0.1	314.09
30424	22.524	0.	5.e-002	37.313
30425	22.248	0.	0.1	353.59
30426	22.34	0.	5.e-002	39.587
30427	22.063	0.	0.1	393.31
30428	22.156	0.	5.e-002	41.685
30429	21.879	0.	0.1	433.23
30430	21.971	0.	5.e-002	43.629
30431	21.694	0.	0.1	473.32
30432	21.787	0.	5.e-002	45.435
30433	21.51	0.	0.1	513.58
30434	21.602	0.	5.e-002	47.117
30435	21.326	0.	0.1	554.
30436	21.418	0.	5.e-002	48.688
30437	21.141	0.	0.1	594.58
30438	21.233	0.	5.e-002	50.157
30439	20.957	0.	0.1	635.31
30440	21.049	0.	5.e-002	51.534
30441	20.772	0.	0.1	676.19
30442	20.864	0.	5.e-002	52.826
30443	20.588	0.	0.1	717.23
30444	20.68	0.	5.e-002	54.041
30445	20.403	0.	0.1	758.42
30446	20.496	0.	5.e-002	55.185
30447	20.219	0.	0.1	799.77
30448	20.311	0.	5.e-002	56.264
30449	20.034	0.	0.1	841.28
30450	20.127	0.	5.e-002	57.282
30451	19.85	0.	0.1	882.94
30452	19.942	0.	5.e-002	58.245
30453	19.666	0.	0.1	924.77
30454	19.758	0.	5.e-002	59.157
30455	19.481	0.	0.1	966.76
30456	19.573	0.	5.e-002	60.022
30457	19.297	0.	0.1	1008.9
30458	19.389	0.	5.e-002	60.842
30459	19.112	0.	0.1	1051.2
30460	19.204	0.	5.e-002	61.623
30461	18.928	0.	0.1	1093.7
30462	19.02	0.	5.e-002	62.366
30463	18.743	0.	0.1	1136.4
30464	18.836	0.	5.e-002	63.074
30465	18.559	0.	0.1	1179.3
30466	18.651	0.	5.e-002	63.749
30467	18.374	0.	0.1	1222.3
30468	18.467	0.	5.e-002	64.395
30469	18.19	0.	0.1	1265.5
30470	18.282	0.	5.e-002	65.013
30471	18.006	0.	0.1	1308.9
30472	18.098	0.	5.e-002	65.605
30473	17.821	0.	0.1	1352.5
30474	17.913	0.	5.e-002	66.173
30475	17.637	0.	0.1	1396.2
30476	17.729	0.	5.e-002	66.718
30477	17.452	0.	0.1	1440.2
30478	17.544	0.	5.e-002	67.242
30479	17.268	0.	0.1	1484.3
30480	17.36	0.	5.e-002	67.746
30481	17.083	0.	0.1	1528.6
30482	17.176	0.	5.e-002	68.231
30483	16.899	0.	0.1	1573.1
30484	16.991	0.	5.e-002	68.699
30485	16.714	0.	0.1	1617.8
30486	16.807	0.	5.e-002	69.151
30487	16.53	0.	0.1	1662.7
30488	16.622	0.	5.e-002	69.586
30489	16.346	0.	0.1	1707.8
30490	16.438	0.	5.e-002	70.006
30491	16.161	0.	0.1	1753.1
30492	16.253	0.	5.e-002	70.412
30493	15.977	0.	0.1	1798.6
30494	16.069	0.	5.e-002	70.805
30495	15.792	0.	0.1	1844.3
30496	15.884	0.	5.e-002	71.183
30497	15.608	0.	0.1	1890.1
30498	15.7	0.	5.e-002	71.549
30499	15.423	0.	0.1	1936.2
30500	15.516	0.	5.e-002	71.902
30501	15.239	0.	0.1	1982.5
30502	15.331	0.	5.e-002	72.243
30503	15.054	0.	0.1	2029.
30504	15.147	0.	5.e-002	72.571
30505	14.87	0.	0.1	2075.6
30506	14.962	0.	5.e-002	72.887
30507	14.686	0.	0.1	2122.5
30508	14.778	0.	5.e-002	73.191
30509	14.501	0.	0.1	2169.6
30510	14.593	0.	5.e-002	73.482
30511	14.317	0.	0.1	2216.9
30512	14.409	0.	5.e-002	73.761
30513	14.132	0.	0.1	2264.4
30514	14.224	0.	5.e-002	74.027
30515	13.948	0.	0.1	2312.1
30516	14.04	0.	5.e-002	74.28
30517	13.763	0.	0.1	2360.
30518	13.856	0.	5.e-002	74.519
30519	13.579	0.	0.1	2408.1
30520	13.671	0.	5.e-002	74.744
30521	13.394	0.	0.1	2456.4
30522	13.487	0.	5.e-002	74.954
30523	13.21	0.	0.1	2505.
30524	13.302	0.	5.e-002	75.149
30525	13.026	0.	0.1	2553.7
30526	13.118	0.	5.e-002	75.328
30527	12.841	0.	0.1	2602.6
30528	12.933	0.	5.e-002	75.489
30529	12.657	0.	0.1	2651.8
30530	12.749	0.	5.e-002	75.633
30531	12.472	0.	0.1	2701.2
30532	12.564	0.	5.e-002	75.757
30533	12.288	0.	0.1	2750.8
30534	12.38	0.	5.e-002	75.861
30535	12.103	0.	0.1	2800.6
30536	12.196	0.	5.e-002	75.943
30537	11.919	0.	0.1	2850.6
30538	12.011	0.	5.e-002	76.002
30539	11.734	0.	0.1	2900.9
30540	11.827	0.	5.e-002	76.036
30541	11.55	0.	0.1	2951.3
30542	11.642	0.	5.e-002	76.043
30543	11.366	0.	0.1	3002.
30544	11.458	0.	5.e-002	76.021
30545	11.181	0.	0.1	3053.
30546	11.273	0.	5.e-002	75.969
30547	10.997	0.	0.1	3104.1
30548	11.089	0.	5.e-002	75.884
30549	10.812	0.	0.1	3155.5
30550	10.904	0.	5.e-002	75.763
30551	10.628	0.	0.1	3207.1
30552	10.72	0.	5.e-002	75.605
30553	10.443	0.	0.1	3258.9
30554	10.536	0.	5.e-002	75.405
30555	10.259	0.	0.1	3311.
30556	10.351	0.	5.e-002	75.162
30557	10.074	0.	0.1	3363.3
30558	10.167	0.	5.e-002	74.872
30559	9.89	0.	0.1	3415.9
30560	9.9822	0.	5.e-002	74.531
30561	9.7056	0.	0.1	3468.6
30562	9.7978	0.	5.e-002	74.137
30563	9.5211	0.	0.1	3521.7
30564	9.6133	0.	5.e-002	73.685
30565	9.3367	0.	0.1	3574.9
30566	9.4289	0.	5.e-002	73.172
30567	9.1522	0.	0.1	3628.4
30568	9.2444	0.	5.e-002	72.593
30569	8.9678	0.	0.1	3682.2
30570	9.06	0.	5.e-002	71.944
30571	8.7833	0.	0.1	3736.1
30572	8.8756	0.	5.e-002	71.222
30573	8.5989	0.	0.1	3790.3
30574	8.6911	0.	5.e-002	70.423
30575	8.4144	0.	0.1	3844.7
30576	8.5067	0.	5.e-002	69.542
30577	8.23	0.	0.1	3899.2
30578	8.3222	0.	5.e-002	68.576
30579	8.0456	0.	0.1	3954.
30580	8.1378	0.	5.e-002	67.521
30581	7.8611	0.	0.1	4008.8
30582	7.9533	0.	5.e-002	66.376
30583	7.6767	0.	0.1	4063.8
30584	7.7689	0.	5.e-002	65.139
30585	7.4922	0.	0.1	4118.7
30586	7.5844	0.	5.e-002	63.809
30587	7.3078	0.	0.1	4173.6
30588	7.4	0.	5.e-002	62.387
30589	7.1233	0.	0.1	4228.4
30590	7.2156	0.	5.e-002	60.877
30591	6.9389	0.	0.1	4282.9
30592	7.0311	0.	5.e-002	59.284
30593	6.7544	0.	0.1	4336.9
30594	6.8467	0.	5.e-002	57.619
30595	6.57	0.	0.1	4390.3
30596	6.6622	0.	5.e-002	55.893
30597	6.3856	0.	0.1	4442.7
30598	6.4778	0.	5.e-002	54.127
30599	6.2011	0.	0.1	4493.8
30600	6.2933	0.	5.e-002	52.344
30601	6.0167	0.	0.1	4543.1
30602	6.1089	0.	5.e-002	50.578
30603	5.8322	0.	0.1	4590.1
30604	5.9244	0.	5.e-002	48.869
30605	5.6478	0.	0.1	4634.1
30606	5.74	0.	5.e-002	47.27
30607	5.4633	0.	0.1	4674.
30608	5.5556	0.	5.e-002	45.845
30609	5.2789	0.	0.1	4708.8
30610	5.3711	0.	5.e-002	44.673
30611	5.0944	0.	0.1	4736.9
30612	5.1867	0.	5.e-002	43.846
30613	4.91	0.	0.1	4756.6
30614	5.0022	0.	5.e-002	43.474
30615	4.7256	0.	0.1	4765.6
30616	4.8178	0.	5.e-002	43.682
30617	4.5411	0.	0.1	4761.1
30618	4.6333	0.	5.e-002	44.609
30619	4.3567	0.	0.1	4739.6
30620	4.4489	0.	5.e-002	46.402
30621	4.1722	0.	0.1	4697.1
30622	4.2644	0.	5.e-002	49.207
30623	3.9878	0.	0.1	4628.5
30624	4.08	0.	5.e-002	53.15
30625	3.8033	0.	0.1	4527.9
30626	3.8956	0.	5.e-002	58.315
30627	3.6189	0.	0.1	4388.8
30628	3.7111	0.	5.e-002	64.702
30629	3.4344	0.	0.1	4203.5
30630	3.5267	0.	5.e-002	72.169
30631	3.25	0.	0.1	3964.2
30632	3.3422	0.	5.e-002	80.362
30633	3.0656	0.	0.1	3663.1
30634	3.1578	0.	5.e-002	88.614
30635	2.8811	0.	0.1	3293.5
30636	2.9733	0.	5.e-002	95.837
30637	2.6967	0.	0.1	2850.9
30638	2.7889	0.	5.e-002	100.4
30639	2.5122	0.	0.1	2333.7
30640	2.6044	0.	5.e-002	100.03
30641	2.3278	0.	0.1	1743.6
30642	2.42	0.	5.e-002	91.449
30643	2.1433	0.	0.1	1078.5
30644	2.2356	0.	5.e-002	71.118
30645	1.9589	0.	0.1	388.25
30646	2.0511	0.	5.e-002	26.613
30647	1.8667	0.	5.e-002	39.915
30648	1.615	4.9703e-031	0.1	427.94
30649	1.7	5.2319e-031	5.e-002	48.808
30650	1.445	4.4471e-031	0.1	1183.9
30651	1.53	0.	5.e-002	69.12
30652	1.275	3.9239e-031	0.1	1857.1
30653	1.36	0.	5.e-002	162.15
30654	1.105	3.4007e-031	0.1	2411.
30655	1.19	0.	5.e-002	229.59
30656	0.935	2.8775e-031	0.1	2846.4
30657	1.02	0.	5.e-002	286.41
30658	0.765	2.3543e-031	0.1	3145.8
30659	0.85	0.	5.e-002	336.83
30660	0.595	1.8311e-031	0.1	3274.5
30661	0.68	0.	5.e-002	385.62
30662	0.425	1.308e-031	0.1	3168.3
30663	0.51	0.	5.e-002	437.69
30664	0.255	7.8478e-032	0.1	2643.2
30665	0.34	0.	5.e-002	501.18
30666	8.5e-002	2.6159e-032	0.1	1125.
30667	0.17	0.	5.e-002	627.44
30668	0.	0.	5.e-002	793.71
30669	0.255	7.8478e-032	0.	301.31
30670	8.5e-002	2.6159e-032	0.	806.15
30671	0.425	1.308e-031	0.	220.67
30672	0.595	1.8311e-031	0.	173.67
30673	0.765	2.3543e-031	0.	147.84
30674	0.935	2.8775e-031	0.	127.62
30675	1.105	3.4007e-031	0.	108.03
30676	1.275	3.9239e-031	0.	85.281
30677	1.445	4.4471e-031	0.	57.114
30678	1.615	4.9703e-031	0.	18.542
30679	1.7	9.0909e-002	0.	34.27
30680	7.9472e-016	9.0909e-002	0.	299.69
30681	2.1433	0.	0.	24.177
30682	1.9589	0.	0.	7.9692
30683	2.3278	0.	0.	28.077
30684	2.5122	0.	0.	28.769
30685	2.6967	0.	0.	26.898
30686	2.8811	0.	0.	23.755
30687	3.0656	0.	0.	20.267
30688	3.25	0.	0.	16.876
30689	3.4344	0.	0.	13.813
30690	3.6189	0.	0.	11.162
30691	3.8033	0.	0.	8.9307
30692	3.9878	0.	0.	7.0873
30693	4.1722	0.	0.	5.5866
30694	4.3567	0.	0.	4.3805
30695	4.5411	0.	0.	3.4241
30696	4.7256	0.	0.	2.6779
30697	4.91	0.	0.	2.1084
30698	5.0944	0.	0.	1.6872
30699	5.2789	0.	0.	1.3904
30700	5.4633	0.	0.	1.1976
30701	5.6478	0.	0.	1.0917
30702	5.8322	0.	0.	1.0581
30703	6.0167	0.	0.	1.0841
30704	6.2011	0.	0.	1.1591
30705	6.3856	0.	0.	1.2735
30706	6.57	0.	0.	1.4193
30707	6.7544	0.	0.	1.5894
30708	6.9389	0.	0.	1.7779
30709	7.1233	0.	0.	1.9798
30710	7.3078	0.	0.	2.1908
30711	7.4922	0.	0.	2.4074
30712	7.6767	0.	0.	2.6269
30713	7.8611	0.	0.	2.8468
30714	8.0456	0.	0.	3.0655
30715	8.23	0.	0.	3.2814
30716	8.4144	0.	0.	3.4934
30717	8.5989	0.	0.	3.7007
30718	8.7833	0.	0.	3.9028
30719	8.9678	0.	0.	4.0992
30720	9.1522	0.	0.	4.2898
30721	9.3367	0.	0.	4.4745
30722	9.5211	0.	0.	4.6532
30723	9.7056	0.	0.	4.826
30724	9.89	0.	0.	4.9932
30725	10.074	0.	0.	5.155
30726	10.259	0.	0.	5.3117
30727	10.443	0.	0.	5.4634
30728	10.628	0.	0.	5.6105
30729	10.812	0.	0.	5.7534
30730	10.997	0.	0.	5.8923
30731	11.181	0.	0.	6.0277
30732	11.366	0.	0.	6.1597
30733	11.55	0.	0.	6.2888
30734	11.734	0.	0.	6.4152
30735	11.919	0.	0.	6.5393
30736	12.103	0.	0.	6.6613
30737	12.288	0.	0.	6.7817
30738	12.472	0.	0.	6.9006
30739	12.657	0.	0.	7.0183
30740	12.841	0.	0.	7.1351
30741	13.026	0.	0.	7.2513
30742	13.21	0.	0.	7.3671
30743	13.394	0.	0.	7.4828
30744	13.579	0.	0.	7.5987
30745	13.763	0.	0.	7.7148
30746	13.948	0.	0.	7.8316
30747	14.132	0.	0.	7.9491
30748	14.317	0.	0.	8.0676
30749	14.501	0.	0.	8.1874
30750	14.686	0.	0.	8.3086
30751	14.87	0.	0.	8.4313
30752	15.054	0.	0.	8.5559
30753	15.239	0.	0.	8.6825
30754	15.423	0.	0.	8.8112
30755	15.608	0.	0.	8.9423
30756	15.792	0.	0.	9.0759
30757	15.977	0.	0.	9.2122
30758	16.161	0.	0.	9.3513
30759	16.346	0.	0.	9.4934
30760	16.53	0.	0.	9.6387
30761	16.714	0.	0.	9.7872
30762	16.899	0.	0.	9.9392
30763	17.083	0.	0.	10.095
30764	17.268	0.	0.	10.254
30765	17.452	0.	0.	10.417
30766	17.637	0.	0.	10.583
30767	17.821	0.	0.	10.754
30768	18.006	0.	0.	10.928
30769	18.19	0.	0.	11.106
30770	18.374	0.	0.	11.288
30771	18.559	0.	0.	11.474
30772	18.743	0.	0.	11.663
30773	18.928	0.	0.	11.856
30774	19.112	0.	0.	12.053
30775	19.297	0.	0.	12.252
30776	19.481	0.	0.	12.455
30777	19.666	0.	0.	12.66
30778	19.85	0.	0.	12.866
30779	20.034	0.	0.	13.075
30780	20.219	0.	0.	13.283
30781	20.403	0.	0.	13.492
30782	20.588	0.	0.	13.7
30783	20.772	0.	0.	13.905
30784	20.957	0.	0.	14.106
30785	21.141	0.	0.	14.302
30786	21.326	0.	0.	14.491
30787	21.51	0.	0.	14.67
30788	21.694	0.	0.	14.837
30789	21.879	0.	0.	14.988
30790	22.063	0.	0.	15.119
30791	22.248	0.	0.	15.224
30792	22.432	0.	0.	15.297
30793	22.617	0.	0.	15.329
30794	22.801	0.	0.	15.306
30795	22.986	0.	0.	15.211
30796	23.17	0.	0.	15.014
30797	23.354	0.	0.	14.653
30798	23.539	0.	0.	14.074
30799	23.723	0.	0.	12.559
30800	23.908	0.	0.	8.6132
30801	1.8667	9.0909e-002	0.	32.497
30802	24.	9.0909e-002	0.	20.34
30803	1.445	6.	0.	57.114
30804	1.615	6.	0.	18.542
30805	1.275	6.	0.	85.281
30806	1.105	6.	0.	108.03
30807	0.935	6.	0.	127.62
30808	0.765	6.	0.	147.84
30809	0.595	6.	0.	173.67
30810	0.425	6.	0.	220.67
30811	0.255	6.	0.	301.31
30812	8.5e-002	6.	0.	806.15
30813	1.7	5.9091	0.	34.27
30814	5.1657e-014	5.9091	0.	299.69
30815	5.0067e-014	5.7273	0.	-1120.8
30816	4.8478e-014	5.5455	0.	-1826.
30817	4.6888e-014	5.3636	0.	-2245.
30818	4.5299e-014	5.1818	0.	-2565.3
30819	4.371e-014	5.	0.	-2843.9
30820	4.212e-014	4.8182	0.	-3103.1
30821	4.0531e-014	4.6364	0.	-3350.5
30822	3.8941e-014	4.4545	0.	-3587.9
30823	3.7352e-014	4.2727	0.	-3815.2
30824	3.5762e-014	4.0909	0.	-4031.9
30825	3.4173e-014	3.9091	0.	-4236.9
30826	3.2583e-014	3.7273	0.	-4426.3
30827	3.0994e-014	3.5455	0.	-4592.4
30828	2.9405e-014	3.3636	0.	-4724.3
30829	2.7815e-014	3.1818	0.	-4810.5
30830	2.6226e-014	3.	0.	-4841.1
30831	2.4636e-014	2.8182	0.	-4810.5
30832	2.3047e-014	2.6364	0.	-4724.3
30833	2.1457e-014	2.4545	0.	-4592.4
30834	1.9868e-014	2.2727	0.	-4426.3
30835	1.8279e-014	2.0909	0.	-4236.9
30836	1.6689e-014	1.9091	0.	-4031.9
30837	1.51e-014	1.7273	0.	-3815.2
30838	1.351e-014	1.5455	0.	-3587.9
30839	1.1921e-014	1.3636	0.	-3350.5
30840	1.0331e-014	1.1818	0.	-3103.1
30841	8.7419e-015	1.	0.	-2843.9
30842	7.1525e-015	0.81818	0.	-2565.3
30843	5.563e-015	0.63636	0.	-2245.
30844	3.9736e-015	0.45455	0.	-1826.
30845	2.3842e-015	0.27273	0.	-1120.8
30846	24.	0.27273	0.	50.362
30847	24.	0.45455	0.	74.722
30848	24.	0.63636	0.	94.144
30849	24.	0.81818	0.	110.48
30850	24.	1.	0.	124.5
30851	24.	1.1818	0.	136.62
30852	24.	1.3636	0.	147.11
30853	24.	1.5455	0.	156.18
30854	24.	1.7273	0.	163.95
30855	24.	1.9091	0.	170.52
30856	24.	2.0909	0.	175.98
30857	24.	2.2727	0.	180.38
30858	24.	2.4545	0.	183.76
30859	24.	2.6364	0.	186.15
30860	24.	2.8182	0.	187.58
30861	24.	3.	0.	188.05
30862	24.	3.1818	0.	187.58
30863	24.	3.3636	0.	186.15
30864	24.	3.5455	0.	183.76
30865	24.	3.7273	0.	180.38
30866	24.	3.9091	0.	175.98
30867	24.	4.0909	0.	170.52
30868	24.	4.2727	0.	163.95
30869	24.	4.4545	0.	156.18
30870	24.	4.6364	0.	147.11
30871	24.	4.8182	0.	136.62
30872	24.	5.	0.	124.5
30873	24.	5.1818	0.	110.48
30874	24.	5.3636	0.	94.144
30875	24.	5.5455	0.	74.722
30876	24.	5.7273	0.	50.362
30877	24.	5.9091	0.	20.34
30878	23.908	6.	0.	8.6132
30879	23.723	6.	0.	12.559
30880	23.539	6.	0.	14.073
30881	23.354	6.	0.	14.653
30882	23.17	6.	0.	15.014
30883	22.986	6.	0.	15.211
30884	22.801	6.	0.	15.306
30885	22.617	6.	0.	15.329
30886	22.432	6.	0.	15.297
30887	22.248	6.	0.	15.224
30888	22.063	6.	0.	15.119
30889	21.879	6.	0.	14.988
30890	21.694	6.	0.	14.837
30891	21.51	6.	0.	14.67
30892	21.326	6.	0.	14.491
30893	21.141	6.	0.	14.302
30894	20.957	6.	0.	14.106
30895	20.772	6.	0.	13.905
30896	20.588	6.	0.	13.7
30897	20.403	6.	0.	13.492
30898	20.219	6.	0.	13.283
30899	20.034	6.	0.	13.075
30900	19.85	6.	0.	12.866
30901	19.666	6.	0.	12.66
30902	19.481	6.	0.	12.455
30903	19.297	6.	0.	12.252
30904	19.112	6.	0.	12.053
30905	18.928	6.	0.	11.856
30906	18.743	6.	0.	11.663
30907	18.559	6.	0.	11.474
30908	18.374	6.	0.	11.288
30909	18.19	6.	0.	11.106
30910	18.006	6.	0.	10.928
30911	17.821	6.	0.	10.753
30912	17.637	6.	0.	10.583
30913	17.452	6.	0.	10.416
30914	17.268	6.	0.	10.254
30915	17.083	6.	0.	10.095
30916	16.899	6.	0.	9.9391
30917	16.714	6.	0.	9.7872
30918	16.53	6.	0.	9.6386
30919	16.346	6.	0.	9.4934
30920	16.161	6.	0.	9.3513
30921	15.977	6.	0.	9.2121
30922	15.792	6.	0.	9.0759
30923	15.608	6.	0.	8.9422
30924	15.423	6.	0.	8.8111
30925	15.239	6.	0.	8.6824
30926	15.054	6.	0.	8.5558
30927	14.87	6.	0.	8.4313
30928	14.686	6.	0.	8.3085
30929	14.501	6.	0.	8.1873
30930	14.317	6.	0.	8.0676
30931	14.132	6.	0.	7.949
30932	13.948	6.	0.	7.8315
30933	13.763	6.	0.	7.7148
30934	13.579	6.	0.	7.5986
30935	13.394	6.	0.	7.4828
30936	13.21	6.	0.	7.3671
30937	13.026	6.	0.	7.2512
30938	12.841	6.	0.	7.135
30939	12.657	6.	0.	7.0182
30940	12.472	6.	0.	6.9005
30941	12.288	6.	0.	6.7816
30942	12.103	6.	0.	6.6613
30943	11.919	6.	0.	6.5392
30944	11.734	6.	0.	6.4151
30945	11.55	6.	0.	6.2887
30946	11.366	6.	0.	6.1597
30947	11.181	6.	0.	6.0276
30948	10.997	6.	0.	5.8923
30949	10.812	6.	0.	5.7534
30950	10.628	6.	0.	5.6105
30951	10.443	6.	0.	5.4634
30952	10.259	6.	0.	5.3116
30953	10.074	6.	0.	5.155
30954	9.89	6.	0.	4.9932
30955	9.7056	6.	0.	4.826
30956	9.5211	6.	0.	4.6531
30957	9.3367	6.	0.	4.4744
30958	9.1522	6.	0.	4.2898
30959	8.9678	6.	0.	4.0992
30960	8.7833	6.	0.	3.9028
30961	8.5989	6.	0.	3.7007
30962	8.4144	6.	0.	3.4934
30963	8.23	6.	0.	3.2814
30964	8.0456	6.	0.	3.0655
30965	7.8611	6.	0.	2.8468
30966	7.6767	6.	0.	2.6268
30967	7.4922	6.	0.	2.4074
30968	7.3078	6.	0.	2.1907
30969	7.1233	6.	0.	1.9797
30970	6.9389	6.	0.	1.7779
30971	6.7544	6.	0.	1.5894
30972	6.57	6.	0.	1.4193
30973	6.3856	6.	0.	1.2735
30974	6.2011	6.	0.	1.159
30975	6.0167	6.	0.	1.0841
30976	5.8322	6.	0.	1.058
30977	5.6478	6.	0.	1.0917
30978	5.4633	6.	0.	1.1976
30979	5.2789	6.	0.	1.3904
30980	5.0944	6.	0.	1.6872
30981	4.91	6.	0.	2.1084
30982	4.7256	6.	0.	2.6779
30983	4.5411	6.	0.	3.4241
30984	4.3567	6.	0.	4.3805
30985	4.1722	6.	0.	5.5866
30986	3.9878	6.	0.	7.0872
30987	3.8033	6.	0.	8.9306
30988	3.6189	6.	0.	11.162
30989	3.4344	6.	0.	13.813
30990	3.25	6.	0.	16.876
30991	3.0656	6.	0.	20.267
30992	2.8811	6.	0.	23.755
30993	2.6967	6.	0.	26.898
30994	2.5122	6.	0.	28.769
30995	2.3278	6.	0.	28.077
30996	2.1433	6.	0.	24.177
30997	1.9589	6.	0.	7.9692
30998	1.8667	5.9091	0.	32.497
30999	1.7	4.2727	0.	4220.2
31000	1.7	4.0909	0.	3982.9
31001	1.7	4.4545	0.	2177.5
31002	1.7	4.6364	0.	1635.4
31003	1.7	4.8182	0.	1176.
31004	1.7	5.	0.	866.35
31005	1.7	5.1818	0.	633.12
31006	1.7	5.3636	0.	448.85
31007	1.7	5.5455	0.	295.84
31008	1.7	5.7273	0.	163.34
31009	1.7833	4.	0.	2856.7
31010	1.8667	5.7273	0.	194.86
31011	1.8667	5.5455	0.	382.89
31012	1.8667	5.3636	0.	606.27
31013	1.8667	5.1818	0.	872.45
31014	1.8667	5.	0.	1195.9
31015	1.8667	4.8182	0.	1604.1
31016	1.8667	4.6364	0.	2165.
31017	1.8667	4.4545	0.	2856.6
31018	1.8667	4.2727	0.	5069.
31019	1.8667	4.0909	0.	5055.5
31020	1.7	1.7273	0.	4220.2
31021	1.7	1.9091	0.	3982.9
31022	1.7	1.5455	0.	2177.5
31023	1.7	1.3636	0.	1635.4
31024	1.7	1.1818	0.	1176.
31025	1.7	1.	0.	866.35
31026	1.7	0.81818	0.	633.12
31027	1.7	0.63636	0.	448.85
31028	1.7	0.45455	0.	295.84
31029	1.7	0.27273	0.	163.34
31030	1.7833	2.	0.	2856.7
31031	1.8667	0.27273	0.	194.86
31032	1.8667	0.45455	0.	382.89
31033	1.8667	0.63636	0.	606.27
31034	1.8667	0.81818	0.	872.45
31035	1.8667	1.	0.	1195.9
31036	1.8667	1.1818	0.	1604.1
31037	1.8667	1.3636	0.	2165.
31038	1.8667	1.5455	0.	2856.6
31039	1.8667	1.7273	0.	5069.
31040	1.8667	1.9091	0.	5055.5
