Node Numbers,X Locations (inches),Y Locations (inches),Z Locations (inches),Equivalent Elastic Strains (in/in),Equivalent Stress (psi),Max Principal Elastic Strain (in/in),Max Principal Stress (psi),Middle Principal Elastic Strain (in/in),Middle Principal Stress (psi),Min Principal Elastic Strain (in/in),Min Principal Stress (psi),Total Deformation (in)
1,2.1331,3.1576,0,0.00025249,2523.1,0.00012808,491.07,4.7865e-05,-111.64,-0.00024057,-2278.8,0.0069139
2,2.7801,3.5846,0,0.00028062,2804.3,0.0001253,420.96,7.4172e-05,36.773,-0.00027085,-2555.6,0.012423
3,3.6388,1.885,0,0.00012124,1211.6,4.4014e-05,19.335,3.4891e-05,-49.212,-0.0001216,-1225,0.022842
4,4.1151,4.5733,0,0.00010916,1090.8,4.0303e-05,20.256,3.0488e-05,-53.487,-0.00010954,-1105.6,0.029898
5,1.0938,0.87099,0,0.00011293,1128.5,6.1059e-05,243.79,1.5981e-05,-94.913,-0.00010652,-1015.3,0.0011842
6,1.3671,2.2996,0,0.00017629,1761.6,0.00010229,460.5,1.8094e-05,-172.15,-0.00016264,-1530.1,0.0024431
7,3.8033,0.68231,0,8.6549e-05,864.89,3.6501e-05,102.71,2.4229e-05,10.498,-8.4253e-05,-804.59,0.023758
8,3.6214,5.4355,0,7.8404e-05,783.49,3.2339e-05,74.715,2.1514e-05,-6.6205,-7.6928e-05,-746.27,0.021105
9,3.5907,3.6877,0,0.00016854,1684.3,6.8217e-05,34.236,3.6363e-05,-205.1,-0.00017017,-1756.9,0.022568
10,1.2779,3.8379,0,0.00017082,1707,8.5457e-05,359.7,3.765e-05,0.49636,-0.00016183,-1498.3,0.0021325
11,4.4769,4.0071,0,0.00011525,1151.7,3.87e-05,-69.95,3.0396e-05,-132.35,-0.00011856,-1251.5,0.036179
12,1.0764,4.9745,0,0.00010593,1058.6,5.7923e-05,252.66,1.6172e-05,-61.035,-9.9127e-05,-927.34,0.0011886
13,4.904,0.85689,0,9.8718e-05,986.5,3.5601e-05,43.683,3.1437e-05,12.398,-9.7727e-05,-958.09,0.042246
14,6.0009,1.022,0,9.1154e-05,910.91,3.0663e-05,-1.8122,2.8927e-05,-14.857,-9.1431e-05,-919.18,0.062954
15,7.0806,1.1255,0,8.2467e-05,824.1,2.772e-05,-0.012487,2.6355e-05,-10.27,-8.2637e-05,-829.19,0.085384
16,8.1634,1.1634,0,7.2887e-05,728.37,2.4213e-05,-2.0894,2.359e-05,-6.774,-7.3037e-05,-732.79,0.10973
17,9.3156,1.1848,0,6.3333e-05,632.89,2.104e-05,0.030673,2.0665e-05,-2.7897,-6.3379e-05,-634.26,0.1375
18,10.463,1.1802,0,5.4106e-05,540.69,1.7963e-05,0.74758,1.7741e-05,-0.91955,-5.4109e-05,-540.77,0.16679
19,11.603,1.1742,0,4.559e-05,455.58,1.5396e-05,3.8265,1.48e-05,-0.65687,-4.5534e-05,-453.98,0.1973
20,12.73,1.1738,0,3.7861e-05,378.35,1.3024e-05,5.9393,1.2139e-05,-0.71493,-3.7767e-05,-375.69,0.22861
21,13.856,1.1742,0,3.0876e-05,308.55,1.0814e-05,7.1539,9.7827e-06,-0.5949,-3.0757e-05,-305.2,0.26086
22,14.979,1.1773,0,2.461e-05,245.93,8.8077e-06,7.8921,7.6753e-06,-0.61661,-2.4475e-05,-242.18,0.29381
23,16.104,1.1793,0,1.9067e-05,190.54,7.0091e-06,8.3058,5.8284e-06,-0.56583,-1.892e-05,-186.52,0.32742
24,17.229,1.1827,0,1.4252e-05,142.42,5.4426e-06,8.5827,4.221e-06,-0.596,-1.4094e-05,-138.21,0.36149
25,18.355,1.1833,0,1.0171e-05,101.64,4.1016e-06,8.7005,2.8667e-06,-0.57748,-1.0001e-05,-97.261,0.39594
26,19.484,1.1844,0,6.8213e-06,68.166,2.9879e-06,8.6766,1.7594e-06,-0.55428,-6.6361e-06,-63.634,0.43073
27,20.612,1.1895,0,4.2036e-06,42.007,2.1098e-06,8.5854,8.8533e-07,-0.61506,-3.9917e-06,-37.259,0.46565
28,21.745,1.1954,0,2.3435e-06,23.419,1.4526e-06,8.295,2.7049e-07,-0.58721,-2.0823e-06,-18.265,0.50084
29,22.872,1.1965,0,1.2341e-06,12.333,1.0027e-06,7.673,-9.9823e-08,-0.61058,-8.837e-07,-6.5004,0.53589
30,22.871,4.7976,0,1.2355e-06,12.347,1.0044e-06,7.6944,-1.003e-07,-0.60618,-8.8392e-07,-6.494,0.5361
31,21.741,4.7974,0,2.3475e-06,23.458,1.4539e-06,8.2905,2.7157e-07,-0.59334,-2.0867e-06,-18.312,0.50097
32,20.609,4.8001,0,4.2173e-06,42.144,2.112e-06,8.5583,8.9213e-07,-0.60739,-4.0066e-06,-37.415,0.46584
33,19.48,4.7868,0,6.8274e-06,68.227,2.9935e-06,8.7095,1.7579e-06,-0.57429,-6.6414e-06,-63.684,0.43088
34,18.353,4.7722,0,1.0186e-05,101.79,4.1034e-06,8.6635,2.8736e-06,-0.57676,-1.0017e-05,-97.429,0.39616
35,17.225,4.7375,0,1.4267e-05,142.57,5.449e-06,8.6185,4.2263e-06,-0.56839,-1.4108e-05,-138.32,0.36165
36,16.102,4.707,0,1.9087e-05,190.74,7.0147e-06,8.3488,5.8411e-06,-0.46917,-1.8938e-05,-186.65,0.32762
37,14.977,4.6916,0,2.4621e-05,246.04,8.8054e-06,7.8726,7.6868e-06,-0.53146,-2.4485e-05,-242.26,0.29405
38,13.856,4.6853,0,3.0868e-05,308.47,1.0807e-05,7.1704,9.7879e-06,-0.48962,-3.0747e-05,-305.05,0.26117
39,12.732,4.684,0,3.7821e-05,377.95,1.3006e-05,5.9436,1.2135e-05,-0.6048,-3.7726e-05,-375.24,0.229
40,11.609,4.683,0,4.5484e-05,454.52,1.5349e-05,3.7034,1.4773e-05,-0.6249,-4.543e-05,-452.97,0.19781
41,10.473,4.7186,0,5.3882e-05,538.45,1.7799e-05,-0.34319,1.7719e-05,-0.94707,-5.3904e-05,-539.09,0.16736
42,9.3111,4.7516,0,6.3172e-05,631.29,2.1127e-05,-0.36428,2.034e-05,-6.2752,-6.3283e-05,-634.58,0.13768
43,8.1314,4.743,0,7.3277e-05,732.26,2.4847e-05,-4.4046,2.2643e-05,-20.967,-7.3694e-05,-744.81,0.10931
44,6.9016,4.7025,0,8.5204e-05,851.45,3.0793e-05,14.565,2.4857e-05,-30.038,-8.5379e-05,-858.31,0.081948
45,5.5386,4.611,0,8.9481e-05,894.19,3.148e-05,-8.7552,2.5359e-05,-54.744,-9.0473e-05,-925.06,0.054682
46,4.6503,5.2138,0,0.00010058,1005.1,3.6123e-05,50.716,3.286e-05,26.203,-9.9246e-05,-966.39,0.038113
47,4.9014,1.722,0,0.00010134,1012.7,3.7146e-05,30.962,2.993e-05,-23.254,-0.0001011,-1007.8,0.043103
48,5.9154,2.0892,0,9.1671e-05,916.08,3.1127e-05,-14.739,2.7399e-05,-42.747,-9.2617e-05,-944.5,0.062157
49,8.1284,2.3493,0,7.2602e-05,725.52,2.4644e-05,-3.8068,2.2443e-05,-20.343,-7.2999e-05,-737.45,0.10965
50,18.354,2.3672,0,1.0243e-05,102.36,4.3053e-06,10.559,2.7394e-06,-1.2074,-1.0033e-05,-97.171,0.39611
51,17.228,2.3632,0,1.4299e-05,142.89,5.6363e-06,10.401,4.0903e-06,-1.2149,-1.4107e-05,-137.95,0.3617
52,19.48,2.3839,0,6.9199e-06,69.151,3.2081e-06,10.656,1.6301e-06,-1.2012,-6.6824e-06,-63.658,0.43079
53,20.603,2.4007,0,4.3625e-06,43.595,2.3572e-06,10.739,7.6246e-07,-1.2427,-4.0756e-06,-37.594,0.46555
54,6.894,3.4936,0,8.4331e-05,842.73,3.1285e-05,17.729,2.3485e-05,-40.874,-8.4572e-05,-852.77,0.08233
55,22.874,2.3959,0,1.5685e-06,15.675,1.3471e-06,10.745,-2.4775e-07,-1.238,-1.0138e-06,-6.9941,0.53605
56,22.867,3.5945,0,1.5718e-06,15.707,1.3477e-06,10.727,-2.4604e-07,-1.2477,-1.0192e-06,-7.0572,0.53592
57,9.295,2.3527,0,6.2966e-05,629.22,2.1137e-05,-0.53166,2.0123e-05,-8.1459,-6.311e-05,-633.53,0.13764
58,10.462,2.3524,0,5.3799e-05,537.62,1.7752e-05,-0.68749,1.7694e-05,-1.1211,-5.3829e-05,-538.52,0.16736
59,11.604,2.3532,0,4.5421e-05,453.9,1.5346e-05,3.7355,1.4726e-05,-0.92521,-4.5372e-05,-452.48,0.19787
60,12.729,2.3533,0,3.7775e-05,377.49,1.3074e-05,6.6579,1.2044e-05,-1.0823,-3.7674e-05,-374.64,0.22907
61,13.854,2.3553,0,3.0853e-05,308.32,1.093e-05,8.3773,9.6757e-06,-1.0452,-3.0718e-05,-304.55,0.26123
62,14.977,2.3578,0,2.4622e-05,246.05,8.9601e-06,9.3858,7.56e-06,-1.1342,-2.4465e-05,-241.75,0.29411
63,16.103,2.3615,0,1.9099e-05,190.86,7.1913e-06,10.038,5.6993e-06,-1.1719,-1.8923e-05,-186.18,0.32768
64,21.741,2.3991,0,2.5653e-06,25.636,1.7316e-06,10.751,1.4354e-07,-1.1808,-2.1849e-06,-18.676,0.50084
65,21.736,3.5979,0,2.5706e-06,25.688,1.7333e-06,10.739,1.4451e-07,-1.1979,-2.1909e-06,-18.745,0.5008
66,20.603,3.5951,0,4.3633e-06,43.603,2.3531e-06,10.69,7.6663e-07,-1.2302,-4.0783e-06,-37.633,0.46564
67,19.472,3.5792,0,6.9368e-06,69.32,3.2187e-06,10.653,1.6258e-06,-1.3158,-6.7e-06,-63.873,0.43062
68,18.351,3.5689,0,1.0252e-05,102.45,4.3016e-06,10.467,2.7465e-06,-1.2162,-1.0045e-05,-97.324,0.39613
69,17.221,3.5446,0,1.4326e-05,143.16,5.6391e-06,10.309,4.1011e-06,-1.2473,-1.4137e-05,-138.28,0.36158
70,16.099,3.5354,0,1.9117e-05,191.04,7.191e-06,9.9417,5.7074e-06,-1.2053,-1.8944e-05,-186.43,0.32765
71,14.975,3.5259,0,2.4627e-05,246.1,8.9649e-06,9.3709,7.5551e-06,-1.2214,-2.4472e-05,-241.86,0.29415
72,13.852,3.5196,0,3.0859e-05,308.38,1.0932e-05,8.335,9.6728e-06,-1.1274,-3.0726e-05,-304.66,0.26127
73,12.728,3.5163,0,3.7773e-05,377.47,1.307e-05,6.6456,1.2046e-05,-1.0529,-3.7672e-05,-374.61,0.22915
74,11.606,3.5161,0,4.5366e-05,453.35,1.5319e-05,3.5958,1.4711e-05,-0.96555,-4.532e-05,-452.02,0.19803
75,10.461,3.5249,0,5.3709e-05,536.71,1.7718e-05,-0.88701,1.7653e-05,-1.3725,-5.3747e-05,-537.84,0.16744
76,9.3004,3.5312,0,6.2714e-05,626.71,2.1205e-05,-0.29291,1.9805e-05,-10.812,-6.2896e-05,-632.19,0.13789
77,8.1004,3.5286,0,7.312e-05,730.7,2.5667e-05,-0.21323,2.1473e-05,-31.726,-7.3613e-05,-746.16,0.10911
78,3.381,4.8963,0,0.0001029,1028.3,4.9919e-05,179.59,2.2019e-05,-30.033,-9.8742e-05,-937.39,0.018334
79,3.3953,4.1452,0,0.00015832,1582.1,6.3173e-05,20.31,3.4706e-05,-193.58,-0.00016018,-1657.9,0.019474
80,1.0861,1.738,0,0.00013998,1398.9,7.5185e-05,276.31,1.8093e-05,-152.66,-0.00013285,-1286.8,0.0014119
81,1.6076,2.7699,0,0.00014683,1467.3,5.4969e-05,-144.95,2.2886e-05,-386.01,-0.00015437,-1717.8,0.003654
82,2.8541,2.9362,0,0.00023618,2360.1,0.00010558,387.85,6.5475e-05,86.484,-0.00022666,-2108.5,0.013454
83,2.2606,4.6388,0,0.00016803,1679.1,6.3712e-05,-77.143,3.3431e-05,-304.66,-0.00017336,-1858.4,0.0056416
84,2.3811,4.5247,0,0.000204,2038.6,0.00012989,568.77,-3.4176e-06,-432.81,-0.0001823,-1776.8,0.0064794
85,3.7791,1.3136,0,0.00010122,1011.5,3.9961e-05,88.363,3.0243e-05,15.346,-9.9259e-05,-957.68,0.024309
86,3.5245,2.4879,0,0.00015497,1548.6,5.2726e-05,-79.399,4.1038e-05,-167.22,-0.00015898,-1670,0.021672
87,2.2445,3.7258,0,0.00033685,3366.2,0.00013447,298.04,9.835e-05,26.616,-0.00033051,-3195.6,0.0072909
88,3.5847,3.1027,0,0.00017437,1742.5,6.6743e-05,5.6284,4.187e-05,-181.26,-0.00017661,-1822.8,0.022655
89,4.7019,2.3721,0,0.00011812,1180.4,4.5632e-05,47.082,3.1755e-05,-57.18,-0.00011795,-1182,0.040009
90,7.005,2.2953,0,8.3301e-05,832.44,3.0164e-05,11.532,2.3944e-05,-35.206,-8.3605e-05,-843.29,0.08456
91,5.6827,3.2531,0,8.7118e-05,870.58,3.2826e-05,-22.284,1.9446e-05,-122.82,-8.9149e-05,-938.76,0.057938
92,4.3432,2.7686,0,0.00012645,1263.6,5.8015e-05,65.328,1.7795e-05,-236.87,-0.00012662,-1322,0.034135
93,4.5273,3.3954,0,0.00011921,1191.2,4.52e-05,-21.727,2.6935e-05,-158.96,-0.00012168,-1275.6,0.037188
94,1.9398,4.4308,0,0.00018363,1835,7.2009e-05,-69.52,3.3462e-05,-359.15,-0.0001892,-2032.1,0.0044035
95,3.1547,4.5169,0,0.00014034,1402.4,6.7152e-05,256.86,3.3071e-05,0.79662,-0.00013419,-1255.9,0.015681
96,3.1547,4.5169,0.1,0.00014034,1402.4,0.00013419,1255.9,-3.3071e-05,-0.79662,-6.7152e-05,-256.86,0.015681
97,1.9398,4.4308,0.1,0.00018363,1835,0.0001892,2032.1,-3.3462e-05,359.15,-7.2009e-05,69.52,0.0044035
98,4.5273,3.3954,0.1,0.00011921,1191.2,0.00012168,1275.6,-2.6935e-05,158.96,-4.52e-05,21.727,0.037188
99,4.3432,2.7686,0.1,0.00012645,1263.6,0.00012662,1322,-1.7795e-05,236.87,-5.8015e-05,-65.328,0.034135
100,5.6827,3.2531,0.1,8.7118e-05,870.58,8.9149e-05,938.76,-1.9446e-05,122.82,-3.2826e-05,22.284,0.057938
101,7.005,2.2953,0.1,8.3301e-05,832.44,8.3605e-05,843.29,-2.3944e-05,35.206,-3.0164e-05,-11.532,0.08456
102,4.7019,2.3721,0.1,0.00011812,1180.4,0.00011795,1182,-3.1755e-05,57.18,-4.5632e-05,-47.082,0.040009
103,3.5847,3.1027,0.1,0.00017437,1742.5,0.00017661,1822.8,-4.187e-05,181.26,-6.6743e-05,-5.6284,0.022655
104,2.2445,3.7258,0.1,0.00033685,3366.2,0.00033051,3195.6,-9.835e-05,-26.616,-0.00013447,-298.04,0.0072909
105,3.5245,2.4879,0.1,0.00015497,1548.6,0.00015898,1670,-4.1038e-05,167.22,-5.2726e-05,79.399,0.021672
106,3.7791,1.3136,0.1,0.00010122,1011.5,9.9259e-05,957.68,-3.0243e-05,-15.346,-3.9961e-05,-88.363,0.024309
107,2.3811,4.5247,0.1,0.000204,2038.6,0.0001823,1776.8,3.4176e-06,432.81,-0.00012989,-568.77,0.0064794
108,2.2606,4.6388,0.1,0.00016803,1679.1,0.00017336,1858.4,-3.3431e-05,304.66,-6.3712e-05,77.143,0.0056416
109,2.8541,2.9362,0.1,0.00023618,2360.1,0.00022666,2108.5,-6.5475e-05,-86.484,-0.00010558,-387.85,0.013454
110,1.6076,2.7699,0.1,0.00014683,1467.3,0.00015437,1717.8,-2.2886e-05,386.01,-5.4969e-05,144.95,0.003654
111,1.0861,1.738,0.1,0.00013998,1398.9,0.00013285,1286.8,-1.8093e-05,152.66,-7.5185e-05,-276.31,0.0014119
112,3.3953,4.1452,0.1,0.00015832,1582.1,0.00016018,1657.9,-3.4706e-05,193.58,-6.3173e-05,-20.31,0.019474
113,3.381,4.8963,0.1,0.0001029,1028.3,9.8742e-05,937.39,-2.2019e-05,30.033,-4.9919e-05,-179.59,0.018334
114,8.1004,3.5286,0.1,7.312e-05,730.7,7.3613e-05,746.16,-2.1473e-05,31.726,-2.5667e-05,0.21323,0.10911
115,9.3004,3.5312,0.1,6.2714e-05,626.71,6.2896e-05,632.19,-1.9805e-05,10.812,-2.1205e-05,0.29291,0.13789
116,10.461,3.5249,0.1,5.3709e-05,536.71,5.3747e-05,537.84,-1.7653e-05,1.3725,-1.7718e-05,0.88701,0.16744
117,11.606,3.5161,0.1,4.5366e-05,453.35,4.532e-05,452.02,-1.4711e-05,0.96555,-1.5319e-05,-3.5958,0.19803
118,12.728,3.5163,0.1,3.7773e-05,377.47,3.7672e-05,374.61,-1.2046e-05,1.0529,-1.307e-05,-6.6456,0.22915
119,13.852,3.5196,0.1,3.0859e-05,308.38,3.0726e-05,304.66,-9.6728e-06,1.1274,-1.0932e-05,-8.335,0.26127
120,14.975,3.5259,0.1,2.4627e-05,246.1,2.4472e-05,241.86,-7.5551e-06,1.2214,-8.9649e-06,-9.3709,0.29415
121,16.099,3.5354,0.1,1.9117e-05,191.04,1.8944e-05,186.43,-5.7074e-06,1.2053,-7.191e-06,-9.9417,0.32765
122,17.221,3.5446,0.1,1.4326e-05,143.16,1.4137e-05,138.28,-4.1011e-06,1.2473,-5.6391e-06,-10.309,0.36158
123,18.351,3.5689,0.1,1.0252e-05,102.45,1.0045e-05,97.324,-2.7465e-06,1.2162,-4.3016e-06,-10.467,0.39613
124,19.472,3.5792,0.1,6.9368e-06,69.32,6.7e-06,63.873,-1.6258e-06,1.3158,-3.2187e-06,-10.653,0.43062
125,20.603,3.5951,0.1,4.3633e-06,43.603,4.0783e-06,37.633,-7.6663e-07,1.2302,-2.3531e-06,-10.69,0.46564
126,21.736,3.5979,0.1,2.5706e-06,25.688,2.1909e-06,18.745,-1.4451e-07,1.1979,-1.7333e-06,-10.739,0.5008
127,21.741,2.3991,0.1,2.5653e-06,25.636,2.1849e-06,18.676,-1.4354e-07,1.1808,-1.7316e-06,-10.751,0.50084
128,16.103,2.3615,0.1,1.9099e-05,190.86,1.8923e-05,186.18,-5.6993e-06,1.1719,-7.1913e-06,-10.038,0.32768
129,14.977,2.3578,0.1,2.4622e-05,246.05,2.4465e-05,241.75,-7.56e-06,1.1342,-8.9601e-06,-9.3857,0.29411
130,13.854,2.3553,0.1,3.0853e-05,308.32,3.0718e-05,304.55,-9.6757e-06,1.0452,-1.093e-05,-8.3773,0.26123
131,12.729,2.3533,0.1,3.7775e-05,377.49,3.7674e-05,374.64,-1.2044e-05,1.0823,-1.3074e-05,-6.6579,0.22907
132,11.604,2.3532,0.1,4.5421e-05,453.9,4.5372e-05,452.48,-1.4726e-05,0.92521,-1.5346e-05,-3.7355,0.19787
133,10.462,2.3524,0.1,5.3799e-05,537.62,5.3829e-05,538.52,-1.7694e-05,1.1211,-1.7752e-05,0.68749,0.16736
134,9.295,2.3527,0.1,6.2966e-05,629.22,6.311e-05,633.53,-2.0123e-05,8.1459,-2.1137e-05,0.53166,0.13764
135,22.867,3.5945,0.1,1.5718e-06,15.707,1.0192e-06,7.0572,2.4604e-07,1.2477,-1.3477e-06,-10.727,0.53592
136,22.874,2.3959,0.1,1.5685e-06,15.675,1.0138e-06,6.9941,2.4775e-07,1.238,-1.3471e-06,-10.745,0.53605
137,6.894,3.4936,0.1,8.4331e-05,842.73,8.4572e-05,852.77,-2.3485e-05,40.874,-3.1285e-05,-17.729,0.08233
138,20.603,2.4007,0.1,4.3625e-06,43.595,4.0756e-06,37.594,-7.6246e-07,1.2427,-2.3572e-06,-10.739,0.46555
139,19.48,2.3839,0.1,6.9199e-06,69.151,6.6824e-06,63.658,-1.6301e-06,1.2012,-3.2081e-06,-10.656,0.43079
140,17.228,2.3632,0.1,1.4299e-05,142.89,1.4107e-05,137.95,-4.0903e-06,1.2149,-5.6363e-06,-10.401,0.3617
141,18.354,2.3672,0.1,1.0243e-05,102.36,1.0033e-05,97.171,-2.7394e-06,1.2074,-4.3053e-06,-10.559,0.39611
142,8.1284,2.3493,0.1,7.2602e-05,725.52,7.2999e-05,737.45,-2.2443e-05,20.343,-2.4644e-05,3.8068,0.10965
143,5.9154,2.0892,0.1,9.1671e-05,916.08,9.2617e-05,944.5,-2.7399e-05,42.747,-3.1127e-05,14.739,0.062157
144,4.9014,1.722,0.1,0.00010134,1012.7,0.0001011,1007.8,-2.993e-05,23.254,-3.7146e-05,-30.962,0.043103
145,4.6503,5.2138,0.1,0.00010058,1005.1,9.9246e-05,966.39,-3.286e-05,-26.203,-3.6123e-05,-50.716,0.038113
146,5.5386,4.611,0.1,8.9481e-05,894.19,9.0473e-05,925.06,-2.5359e-05,54.744,-3.148e-05,8.7552,0.054682
147,6.9016,4.7025,0.1,8.5204e-05,851.45,8.5379e-05,858.31,-2.4857e-05,30.038,-3.0793e-05,-14.565,0.081948
148,8.1314,4.743,0.1,7.3277e-05,732.26,7.3694e-05,744.81,-2.2643e-05,20.967,-2.4847e-05,4.4046,0.10931
149,9.3111,4.7516,0.1,6.3172e-05,631.29,6.3283e-05,634.58,-2.034e-05,6.2752,-2.1127e-05,0.36428,0.13768
150,10.473,4.7186,0.1,5.3882e-05,538.45,5.3904e-05,539.09,-1.7719e-05,0.94707,-1.7799e-05,0.34319,0.16736
151,11.609,4.683,0.1,4.5484e-05,454.52,4.543e-05,452.97,-1.4773e-05,0.6249,-1.5349e-05,-3.7034,0.19781
152,12.732,4.684,0.1,3.7821e-05,377.95,3.7726e-05,375.24,-1.2135e-05,0.6048,-1.3006e-05,-5.9436,0.229
153,13.856,4.6853,0.1,3.0868e-05,308.47,3.0747e-05,305.05,-9.7879e-06,0.48962,-1.0807e-05,-7.1704,0.26117
154,14.977,4.6916,0.1,2.4621e-05,246.04,2.4485e-05,242.26,-7.6868e-06,0.53146,-8.8054e-06,-7.8726,0.29405
155,16.102,4.707,0.1,1.9087e-05,190.74,1.8938e-05,186.65,-5.8411e-06,0.46917,-7.0147e-06,-8.3488,0.32762
156,17.225,4.7375,0.1,1.4267e-05,142.57,1.4108e-05,138.32,-4.2263e-06,0.56839,-5.449e-06,-8.6185,0.36165
157,18.353,4.7722,0.1,1.0186e-05,101.79,1.0017e-05,97.429,-2.8736e-06,0.57676,-4.1034e-06,-8.6635,0.39616
158,19.48,4.7868,0.1,6.8274e-06,68.227,6.6414e-06,63.684,-1.7579e-06,0.57429,-2.9935e-06,-8.7095,0.43088
159,20.609,4.8001,0.1,4.2173e-06,42.144,4.0066e-06,37.415,-8.9214e-07,0.60739,-2.112e-06,-8.5583,0.46584
160,21.741,4.7974,0.1,2.3475e-06,23.458,2.0867e-06,18.312,-2.7157e-07,0.59334,-1.4539e-06,-8.2905,0.50097
161,22.871,4.7976,0.1,1.2355e-06,12.347,8.8392e-07,6.494,1.003e-07,0.60618,-1.0044e-06,-7.6943,0.5361
162,22.872,1.1965,0.1,1.2341e-06,12.333,8.8371e-07,6.5004,9.9823e-08,0.61058,-1.0027e-06,-7.673,0.53589
163,21.745,1.1954,0.1,2.3435e-06,23.419,2.0823e-06,18.265,-2.7049e-07,0.58721,-1.4526e-06,-8.295,0.50084
164,20.612,1.1895,0.1,4.2036e-06,42.007,3.9917e-06,37.259,-8.8533e-07,0.61506,-2.1098e-06,-8.5854,0.46565
165,19.484,1.1844,0.1,6.8213e-06,68.166,6.6361e-06,63.634,-1.7594e-06,0.55428,-2.9879e-06,-8.6766,0.43073
166,18.355,1.1833,0.1,1.0171e-05,101.64,1.0001e-05,97.261,-2.8667e-06,0.57748,-4.1016e-06,-8.7005,0.39594
167,17.229,1.1827,0.1,1.4252e-05,142.42,1.4094e-05,138.21,-4.221e-06,0.596,-5.4426e-06,-8.5827,0.36149
168,16.104,1.1793,0.1,1.9067e-05,190.54,1.892e-05,186.52,-5.8284e-06,0.56583,-7.0091e-06,-8.3058,0.32742
169,14.979,1.1773,0.1,2.461e-05,245.93,2.4475e-05,242.18,-7.6753e-06,0.61661,-8.8077e-06,-7.8921,0.29381
170,13.856,1.1742,0.1,3.0876e-05,308.55,3.0757e-05,305.2,-9.7827e-06,0.5949,-1.0814e-05,-7.1539,0.26086
171,12.73,1.1738,0.1,3.7861e-05,378.35,3.7767e-05,375.69,-1.2139e-05,0.71493,-1.3024e-05,-5.9393,0.22861
172,11.603,1.1742,0.1,4.559e-05,455.58,4.5534e-05,453.98,-1.48e-05,0.65687,-1.5396e-05,-3.8265,0.1973
173,10.463,1.1802,0.1,5.4106e-05,540.69,5.4109e-05,540.77,-1.7741e-05,0.91955,-1.7963e-05,-0.74757,0.16679
174,9.3156,1.1848,0.1,6.3333e-05,632.89,6.3379e-05,634.26,-2.0665e-05,2.7897,-2.104e-05,-0.030673,0.1375
175,8.1634,1.1634,0.1,7.2887e-05,728.37,7.3037e-05,732.79,-2.359e-05,6.774,-2.4213e-05,2.0894,0.10973
176,7.0806,1.1255,0.1,8.2467e-05,824.1,8.2637e-05,829.19,-2.6355e-05,10.27,-2.772e-05,0.012487,0.085384
177,6.0009,1.022,0.1,9.1154e-05,910.91,9.1431e-05,919.18,-2.8927e-05,14.857,-3.0663e-05,1.8122,0.062954
178,4.904,0.85689,0.1,9.8718e-05,986.5,9.7727e-05,958.09,-3.1437e-05,-12.398,-3.5601e-05,-43.683,0.042246
179,1.0764,4.9745,0.1,0.00010593,1058.6,9.9127e-05,927.34,-1.6172e-05,61.035,-5.7923e-05,-252.66,0.0011886
180,4.4769,4.0071,0.1,0.00011525,1151.7,0.00011856,1251.5,-3.0396e-05,132.35,-3.87e-05,69.95,0.036179
181,1.2779,3.8379,0.1,0.00017082,1707,0.00016183,1498.3,-3.765e-05,-0.49636,-8.5457e-05,-359.7,0.0021325
182,3.5907,3.6877,0.1,0.00016854,1684.3,0.00017017,1756.9,-3.6363e-05,205.1,-6.8217e-05,-34.236,0.022568
183,3.6214,5.4355,0.1,7.8404e-05,783.49,7.6928e-05,746.27,-2.1514e-05,6.6205,-3.2339e-05,-74.715,0.021105
184,3.8033,0.68231,0.1,8.6549e-05,864.89,8.4253e-05,804.59,-2.4229e-05,-10.498,-3.6501e-05,-102.71,0.023758
185,1.3671,2.2996,0.1,0.00017629,1761.6,0.00016264,1530.1,-1.8094e-05,172.15,-0.00010229,-460.5,0.0024431
186,1.0938,0.87099,0.1,0.00011293,1128.5,0.00010652,1015.3,-1.5981e-05,94.913,-6.1059e-05,-243.79,0.0011842
187,4.1151,4.5733,0.1,0.00010916,1090.8,0.00010954,1105.6,-3.0488e-05,53.487,-4.0303e-05,-20.256,0.029898
188,3.6388,1.885,0.1,0.00012124,1211.6,0.0001216,1225,-3.4891e-05,49.212,-4.4014e-05,-19.335,0.022842
189,2.7801,3.5846,0.1,0.00028062,2804.3,0.00027085,2555.6,-7.4172e-05,-36.773,-0.0001253,-420.96,0.012423
190,2.1331,3.1576,0.1,0.00025249,2523.1,0.00024057,2278.8,-4.7865e-05,111.64,-0.00012808,-491.07,0.0069139
191,1.22,6,0,9.7628e-05,975.61,4.0691e-05,146.13,3.1105e-05,74.107,-9.3682e-05,-863.49,0.00098879
192,2.44,6,0,7.0844e-05,707.95,1.6975e-05,-200.98,1.5805e-05,-209.77,-7.7827e-05,-913.28,0.0042204
193,3.937e-14,6,0,6.1026e-05,609.84,1.2205e-05,-365.02,-3.3408e-07,-459.24,-7.45e-05,-1016.5,0
194,1.22,1.0236e-31,0,0.00010704,1069.7,4.7997e-05,169.19,2.876e-05,24.652,-0.00010301,-965.39,0.0010182
195,2.44,0,0,8.2342e-05,822.86,2.5262e-05,-118.12,1.9524e-05,-161.23,-8.701e-05,-961.68,0.0045188
196,0,0,0,5.4924e-05,548.86,8.0062e-06,-401.79,-1.8714e-06,-476.01,-6.9479e-05,-983.99,0
197,3.7326,0,0,7.374e-05,736.89,3.0318e-05,78.52,2.1206e-05,10.055,-7.1994e-05,-690.21,0.021379
198,4.8586,0,0,9.5713e-05,956.47,3.3008e-05,34.107,3.2301e-05,28.796,-9.4641e-05,-925,0.040089
199,5.9846,0,0,9.192e-05,918.57,3.0405e-05,-2.2888,3.0003e-05,-5.3122,-9.2049e-05,-922.36,0.061177
200,7.1105,0,0,8.2657e-05,825.99,2.7517e-05,1.8728,2.7042e-05,-1.6931,-8.2653e-05,-825.9,0.084589
201,8.2365,0,0,7.3254e-05,732.03,2.4516e-05,4.6203,2.4018e-05,0.88022,-7.316e-05,-729.28,0.11009
202,9.3625,0,0,6.3579e-05,635.35,2.135e-05,4.2674,2.0748e-05,-0.251,-6.351e-05,-633.33,0.13743
203,10.488,0,0,5.43e-05,542.63,1.8448e-05,5.8517,1.7558e-05,-0.83536,-5.4212e-05,-540.09,0.16637
204,11.614,0,0,4.58e-05,457.69,1.5752e-05,7.479,1.4717e-05,-0.29469,-4.5673e-05,-454.04,0.19667
205,12.74,0,0,3.7988e-05,379.62,1.3268e-05,8.7624,1.2096e-05,-0.04195,-3.7832e-05,-375.18,0.22811
206,13.866,0,0,3.0933e-05,309.12,1.101e-05,9.7335,9.7353e-06,0.15743,-3.0754e-05,-304.06,0.26049
207,14.992,0,0,2.4623e-05,246.06,8.9772e-06,10.403,7.6256e-06,0.24731,-2.4426e-05,-240.57,0.29363
208,16.118,0,0,1.9057e-05,190.44,7.1615e-06,10.714,5.7772e-06,0.31316,-1.8848e-05,-184.71,0.32737
209,17.244,0,0,1.4228e-05,142.18,5.5761e-06,10.868,4.1768e-06,0.35451,-1.4008e-05,-136.28,0.36156
210,18.37,0,0,1.014e-05,101.33,4.2259e-06,10.886,2.8206e-06,0.32716,-9.9076e-06,-95.308,0.3961
211,19.496,0,0,6.7813e-06,67.766,3.0905e-06,10.627,1.7187e-06,0.3203,-6.536e-06,-61.702,0.43086
212,20.622,0,0,4.1562e-06,41.533,2.1758e-06,10.192,8.6852e-07,0.37003,-3.8884e-06,-35.371,0.46577
213,21.748,0,0,2.2366e-06,22.351,1.4504e-06,9.2543,2.5958e-07,0.30719,-1.9353e-06,-16.184,0.50077
214,22.874,0,0,1.0302e-06,10.295,8.9024e-07,7.6237,-8.6026e-08,0.2884,-6.7604e-07,-4.1447,0.53579
215,2.6067,0,0,4.5488e-05,454.56,1.4662e-05,-95.517,6.5986e-06,-156.1,-4.9464e-05,-577.33,0.0044918
216,24,0,0,4.6479e-07,4.6447,4.8062e-07,5.1393,-1.0682e-07,0.72545,-1.6426e-07,0.29386,0.57083
217,4.1961e-14,4.8,0,8.2908e-05,828.5,4.6265e-06,-748.95,-2.8872e-06,-805.4,-0.00010921,-1604.2,0
218,3.1471e-14,3.6,0,8.7832e-05,877.71,3.2192e-06,-866.6,-6.9988e-06,-943.38,-0.00011837,-1780.2,0
219,2.0981e-14,2.4,0,8.7532e-05,874.71,1.512e-06,-842.09,-1.946e-06,-868.07,-0.0001166,-1729.5,0
220,1.049e-14,1.2,0,7.7749e-05,776.95,2.3411e-06,-735.67,-2.3164e-06,-770.66,-0.00010332,-1529.5,0
221,24,1.2,0,8.3041e-07,8.2984,7.7241e-07,6.8116,-2.1254e-07,-0.58892,-4.2164e-07,-2.16,0.57097
222,24,2.4,0,1.2434e-06,12.426,1.1602e-06,10.159,-3.6471e-07,-1.2981,-5.9771e-07,-3.0487,0.57109
223,24,3.6,0,1.2434e-06,12.425,1.159e-06,10.133,-3.6316e-07,-1.304,-6.0053e-07,-3.0875,0.57118
224,24,4.8,0,8.3207e-07,8.3149,7.7291e-07,6.8005,-2.1223e-07,-0.60144,-4.245e-07,-2.1963,0.57123
225,24,6,0,4.6527e-07,4.6495,4.8117e-07,5.1458,-1.071e-07,0.72567,-1.6421e-07,0.29656,0.57126
226,22.874,6,0,1.0299e-06,10.292,8.9154e-07,7.6499,-8.7175e-08,0.29625,-6.7392e-07,-4.1123,0.53623
227,21.748,6,0,2.2365e-06,22.349,1.456e-06,9.3238,2.5377e-07,0.29054,-1.9314e-06,-16.128,0.5012
228,20.622,6,0,4.1629e-06,41.6,2.1841e-06,10.277,8.6711e-07,0.38141,-3.8923e-06,-35.379,0.46621
229,19.496,6,0,6.7882e-06,67.835,3.0972e-06,10.717,1.7214e-06,0.37976,-6.54e-06,-61.693,0.43129
230,18.37,6,0,1.0165e-05,101.58,4.2517e-06,11.129,2.8203e-06,0.37385,-9.9266e-06,-95.402,0.39653
231,17.244,6,0,1.4252e-05,142.42,5.6273e-06,11.368,4.1548e-06,0.3051,-1.4021e-05,-136.26,0.362
232,16.118,6,0,1.9069e-05,190.56,7.2128e-06,11.264,5.7491e-06,0.26584,-1.8849e-05,-184.55,0.3278
233,14.992,6,0,2.4637e-05,246.2,9.0253e-06,10.937,7.6044e-06,0.26057,-2.4429e-05,-240.42,0.29406
234,13.866,6,0,3.095e-05,309.29,1.1057e-05,10.227,9.7144e-06,0.13757,-3.0761e-05,-303.98,0.26092
235,12.74,6,0,3.8003e-05,379.76,1.3303e-05,9.0902,1.2078e-05,-0.11269,-3.7842e-05,-375.19,0.22854
236,11.614,6,0,4.5759e-05,457.28,1.5659e-05,6.5695,1.4755e-05,-0.22824,-4.5647e-05,-454.07,0.1971
237,10.488,6,0,5.4331e-05,542.94,1.83e-05,3.8504,1.7654e-05,-1.008,-5.4281e-05,-541.5,0.1668
238,9.3625,6,0,6.3785e-05,637.41,2.1377e-05,3.6571,2.0829e-05,-0.4574,-6.373e-05,-635.8,0.13787
239,8.2365,6,0,7.3293e-05,732.43,2.4505e-05,-1.3071,2.3528e-05,-8.6543,-7.346e-05,-737.38,0.11053
240,7.1105,6,0,8.3602e-05,835.44,2.8361e-05,4.9511,2.6732e-05,-7.2944,-8.3635e-05,-836.55,0.085055
241,5.9846,6,0,9.1898e-05,918.34,3.2044e-05,21.43,2.9374e-05,1.3695,-9.1493e-05,-906.78,0.06169
242,4.8586,6,0,9.1778e-05,917.15,3.4458e-05,54.817,2.8181e-05,7.652,-9.0625e-05,-885.01,0.040615
243,3.7326,6,0,7.1157e-05,711.08,2.5454e-05,29.772,2.2858e-05,10.27,-7.0456e-05,-690.86,0.021838
244,2.6067,6,0,4.2055e-05,420.25,1.4896e-05,-82.499,4.093e-06,-163.67,-4.565e-05,-537.42,0.0048442
245,2.44,1.5,0,0.00023291,2327.5,7.1007e-05,-476.6,4.2505e-05,-690.76,-0.00025203,-2903.8,0.0069485
246,2.44,1,0,0.0001516,1515,5.4267e-05,-283.52,1.504e-05,-578.26,-0.0001641,-1924.2,0.0060308
247,2.44,0.5,0,0.00010254,1024.7,3.2869e-05,-194.17,1.7272e-05,-311.36,-0.00011063,-1272.4,0.0052569
248,2.44,2,0,0.00047824,4779.1,0.00018066,-383.5,8.0245e-05,-1138,-0.00049963,-5494.9,0.00805
249,2.6067,0.5,0,7.5213e-05,751.61,2.3186e-05,-114.71,1.6994e-05,-161.23,-7.9799e-05,-888.5,0.0056872
250,2.6067,1,0,0.00013746,1373.6,4.4952e-05,-95.005,3.7287e-05,-152.6,-0.00014158,-1496.5,0.006939
251,2.6067,1.5,0,0.00023105,2308.9,8.9805e-05,97.397,6.1633e-05,-114.28,-0.00023061,-2310.1,0.0082685
252,2.6067,2,0,0.0004147,4144.1,0.00013666,-373.04,0.00010253,-629.5,-0.00043116,-4639.4,0.0095897
253,2.44,4.5,0,0.00015081,1507,9.5927e-05,657.6,2.5723e-05,130.12,-0.00013031,-1042.3,0.0068448
254,2.44,5,0,4.2484e-05,424.55,2.6711e-05,133.06,1.958e-06,-52.931,-3.7945e-05,-352.75,0.0058361
255,2.44,5.5,0,8.9282e-05,892.2,3.4667e-05,36.174,2.374e-05,-45.923,-8.9164e-05,-894.24,0.0050058
256,2.44,4,0,0.00041894,4186.5,0.00020169,834.5,0.00010313,93.93,-0.0003982,-3672.9,0.0082527
257,2.6067,5.5,0,5.5181e-05,551.43,2.1062e-05,-77.304,5.4988e-06,-194.24,-5.8862e-05,-677.82,0.0059516
258,2.6067,5,0,9.1366e-05,913.03,3.0605e-05,-63.005,2.3522e-05,-116.22,-9.4298e-05,-1001.5,0.0071216
259,2.6067,4.5,0,0.00024541,2452.4,0.00015809,962.41,2.4858e-05,-38.622,-0.00021385,-1832.2,0.0084502
260,2.6067,4,0,0.00043327,4329.7,0.00017756,64.052,8.693e-05,-616.88,-0.00043864,-4565.8,0.0098507
261,2.6067,5.5,0.1,5.5181e-05,551.43,5.8862e-05,677.82,-5.4988e-06,194.24,-2.1062e-05,77.304,0.0059516
262,2.6067,5,0.1,9.1366e-05,913.03,9.4298e-05,1001.5,-2.3522e-05,116.22,-3.0605e-05,63.005,0.0071216
263,2.6067,4.5,0.1,0.00024541,2452.4,0.00021385,1832.2,-2.4858e-05,38.622,-0.00015809,-962.41,0.0084502
264,2.6067,4,0.1,0.00043327,4329.7,0.00043864,4565.8,-8.693e-05,616.88,-0.00017756,-64.052,0.0098507
265,2.44,4,0.1,0.00041894,4186.5,0.0003982,3672.9,-0.00010313,-93.93,-0.00020169,-834.5,0.0082527
266,2.44,4.5,0.1,0.00015081,1507,0.00013031,1042.3,-2.5723e-05,-130.12,-9.5927e-05,-657.6,0.0068448
267,2.44,5,0.1,4.2484e-05,424.55,3.7945e-05,352.75,-1.958e-06,52.931,-2.6711e-05,-133.06,0.0058361
268,2.44,5.5,0.1,8.9282e-05,892.2,8.9164e-05,894.24,-2.374e-05,45.923,-3.4667e-05,-36.174,0.0050058
269,2.6067,0.5,0.1,7.5213e-05,751.61,7.9799e-05,888.5,-1.6994e-05,161.23,-2.3186e-05,114.71,0.0056872
270,2.6067,1,0.1,0.00013746,1373.6,0.00014158,1496.5,-3.7287e-05,152.6,-4.4952e-05,95.005,0.006939
271,2.6067,1.5,0.1,0.00023105,2308.9,0.00023061,2310.1,-6.1633e-05,114.28,-8.9805e-05,-97.397,0.0082685
272,2.6067,2,0.1,0.0004147,4144.1,0.00043116,4639.4,-0.00010253,629.5,-0.00013666,373.04,0.0095897
273,2.44,2,0.1,0.00047824,4779.1,0.00049963,5494.9,-8.0245e-05,1138,-0.00018066,383.5,0.00805
274,2.44,1.5,0.1,0.00023291,2327.5,0.00025203,2903.8,-4.2505e-05,690.76,-7.1007e-05,476.6,0.0069485
275,2.44,1,0.1,0.0001516,1515,0.0001641,1924.2,-1.504e-05,578.26,-5.4267e-05,283.52,0.0060308
276,2.44,0.5,0.1,0.00010254,1024.7,0.00011063,1272.4,-1.7272e-05,311.36,-3.2869e-05,194.17,0.0052569
277,2.6067,6,0.1,4.2055e-05,420.25,4.565e-05,537.42,-4.093e-06,163.67,-1.4896e-05,82.499,0.0048442
278,3.7326,6,0.1,7.1157e-05,711.08,7.0456e-05,690.86,-2.2858e-05,-10.27,-2.5454e-05,-29.772,0.021838
279,4.8586,6,0.1,9.1778e-05,917.15,9.0625e-05,885.01,-2.8181e-05,-7.652,-3.4458e-05,-54.817,0.040615
280,5.9846,6,0.1,9.1898e-05,918.34,9.1493e-05,906.78,-2.9374e-05,-1.3695,-3.2044e-05,-21.43,0.06169
281,7.1105,6,0.1,8.3602e-05,835.44,8.3635e-05,836.55,-2.6732e-05,7.2944,-2.8361e-05,-4.9511,0.085055
282,8.2365,6,0.1,7.3293e-05,732.43,7.346e-05,737.38,-2.3528e-05,8.6543,-2.4505e-05,1.3071,0.11053
283,9.3625,6,0.1,6.3785e-05,637.41,6.373e-05,635.8,-2.0829e-05,0.4574,-2.1377e-05,-3.6571,0.13787
284,10.488,6,0.1,5.4331e-05,542.94,5.4281e-05,541.5,-1.7654e-05,1.008,-1.83e-05,-3.8504,0.1668
285,11.614,6,0.1,4.5759e-05,457.28,4.5647e-05,454.07,-1.4755e-05,0.22824,-1.5659e-05,-6.5695,0.1971
286,12.74,6,0.1,3.8003e-05,379.76,3.7842e-05,375.19,-1.2078e-05,0.11269,-1.3303e-05,-9.0902,0.22854
287,13.866,6,0.1,3.095e-05,309.29,3.0761e-05,303.98,-9.7144e-06,-0.13757,-1.1057e-05,-10.227,0.26092
288,14.992,6,0.1,2.4637e-05,246.2,2.4429e-05,240.42,-7.6044e-06,-0.26057,-9.0253e-06,-10.937,0.29406
289,16.118,6,0.1,1.9069e-05,190.56,1.8849e-05,184.55,-5.7491e-06,-0.26584,-7.2128e-06,-11.264,0.3278
290,17.244,6,0.1,1.4252e-05,142.42,1.4021e-05,136.26,-4.1548e-06,-0.3051,-5.6273e-06,-11.368,0.362
291,18.37,6,0.1,1.0165e-05,101.58,9.9266e-06,95.402,-2.8203e-06,-0.37385,-4.2517e-06,-11.129,0.39653
292,19.496,6,0.1,6.7882e-06,67.835,6.54e-06,61.693,-1.7214e-06,-0.37976,-3.0972e-06,-10.717,0.43129
293,20.622,6,0.1,4.1629e-06,41.6,3.8923e-06,35.379,-8.6711e-07,-0.38141,-2.1841e-06,-10.277,0.46621
294,21.748,6,0.1,2.2365e-06,22.349,1.9314e-06,16.128,-2.5377e-07,-0.29054,-1.456e-06,-9.3238,0.5012
295,22.874,6,0.1,1.0299e-06,10.292,6.7392e-07,4.1124,8.7175e-08,-0.29625,-8.9154e-07,-7.6499,0.53623
296,24,6,0.1,4.6527e-07,4.6495,1.6421e-07,-0.29656,1.071e-07,-0.72566,-4.8117e-07,-5.1458,0.57126
297,24,4.8,0.1,8.3207e-07,8.3149,4.245e-07,2.1964,2.1223e-07,0.60144,-7.7291e-07,-6.8005,0.57123
298,24,3.6,0.1,1.2434e-06,12.425,6.0053e-07,3.0875,3.6316e-07,1.304,-1.159e-06,-10.133,0.57118
299,24,2.4,0.1,1.2434e-06,12.426,5.9771e-07,3.0488,3.6471e-07,1.2981,-1.1602e-06,-10.159,0.57109
300,24,1.2,0.1,8.3041e-07,8.2984,4.2164e-07,2.16,2.1254e-07,0.58892,-7.7241e-07,-6.8116,0.57097
301,1.049e-14,1.2,0.1,7.7749e-05,776.95,0.00010332,1529.5,2.3164e-06,770.66,-2.3411e-06,735.67,0
302,2.0981e-14,2.4,0.1,8.7532e-05,874.71,0.0001166,1729.5,1.946e-06,868.07,-1.512e-06,842.09,0
303,3.1471e-14,3.6,0.1,8.7832e-05,877.71,0.00011837,1780.2,6.9988e-06,943.38,-3.2192e-06,866.6,0
304,4.1961e-14,4.8,0.1,8.2908e-05,828.5,0.00010921,1604.2,2.8872e-06,805.4,-4.6265e-06,748.95,0
305,24,0,0.1,4.6479e-07,4.6447,1.6426e-07,-0.29386,1.0682e-07,-0.72544,-4.8062e-07,-5.1393,0.57083
306,22.874,0,0.1,1.0302e-06,10.295,6.7604e-07,4.1447,8.6025e-08,-0.2884,-8.9024e-07,-7.6237,0.53579
307,21.748,0,0.1,2.2366e-06,22.351,1.9353e-06,16.184,-2.5958e-07,-0.30719,-1.4504e-06,-9.2543,0.50077
308,20.622,0,0.1,4.1562e-06,41.533,3.8884e-06,35.371,-8.6852e-07,-0.37003,-2.1758e-06,-10.192,0.46577
309,19.496,0,0.1,6.7813e-06,67.766,6.536e-06,61.702,-1.7187e-06,-0.3203,-3.0905e-06,-10.627,0.43086
310,18.37,0,0.1,1.014e-05,101.33,9.9076e-06,95.308,-2.8206e-06,-0.32716,-4.2259e-06,-10.886,0.3961
311,17.244,0,0.1,1.4228e-05,142.18,1.4008e-05,136.28,-4.1768e-06,-0.35451,-5.5761e-06,-10.868,0.36156
312,16.118,0,0.1,1.9057e-05,190.44,1.8848e-05,184.71,-5.7772e-06,-0.31316,-7.1615e-06,-10.714,0.32737
313,14.992,0,0.1,2.4623e-05,246.06,2.4426e-05,240.57,-7.6256e-06,-0.24731,-8.9772e-06,-10.403,0.29363
314,13.866,0,0.1,3.0933e-05,309.12,3.0754e-05,304.06,-9.7353e-06,-0.15743,-1.101e-05,-9.7335,0.26049
315,12.74,0,0.1,3.7988e-05,379.62,3.7832e-05,375.18,-1.2096e-05,0.04195,-1.3268e-05,-8.7624,0.22811
316,11.614,0,0.1,4.58e-05,457.69,4.5673e-05,454.04,-1.4717e-05,0.29469,-1.5752e-05,-7.479,0.19667
317,10.488,0,0.1,5.43e-05,542.63,5.4212e-05,540.09,-1.7558e-05,0.83536,-1.8448e-05,-5.8517,0.16637
318,9.3625,0,0.1,6.3579e-05,635.35,6.351e-05,633.33,-2.0748e-05,0.251,-2.135e-05,-4.2674,0.13743
319,8.2365,0,0.1,7.3254e-05,732.03,7.316e-05,729.28,-2.4018e-05,-0.88022,-2.4516e-05,-4.6203,0.11009
320,7.1105,0,0.1,8.2657e-05,825.99,8.2653e-05,825.9,-2.7042e-05,1.6931,-2.7517e-05,-1.8727,0.084589
321,5.9846,0,0.1,9.192e-05,918.57,9.2049e-05,922.36,-3.0003e-05,5.3122,-3.0405e-05,2.2888,0.061177
322,4.8586,0,0.1,9.5713e-05,956.47,9.4641e-05,925,-3.2301e-05,-28.796,-3.3008e-05,-34.107,0.040089
323,3.7326,0,0.1,7.374e-05,736.89,7.1994e-05,690.21,-2.1206e-05,-10.055,-3.0318e-05,-78.52,0.021379
324,2.6067,0,0.1,4.5488e-05,454.56,4.9464e-05,577.33,-6.5986e-06,156.1,-1.4662e-05,95.517,0.0044918
325,2.44,0,0.1,8.2342e-05,822.86,8.701e-05,961.68,-1.9524e-05,161.23,-2.5262e-05,118.12,0.0045188
326,1.22,1.0236e-31,0.1,0.00010704,1069.7,0.00010301,965.39,-2.876e-05,-24.652,-4.7997e-05,-169.19,0.0010182
327,0,0,0.1,5.4924e-05,548.86,6.9479e-05,983.99,1.8714e-06,476.01,-8.0062e-06,401.79,0
328,3.937e-14,6,0.1,6.1026e-05,609.84,7.45e-05,1016.5,3.3408e-07,459.24,-1.2205e-05,365.02,0
329,1.22,6,0.1,9.7628e-05,975.61,9.3682e-05,863.49,-3.1105e-05,-74.107,-4.0691e-05,-146.13,0.00098879
330,2.44,6,0.1,7.0844e-05,707.95,7.7827e-05,913.28,-1.5805e-05,209.77,-1.6975e-05,200.98,0.0042204
331,1.7055,3.4977,0,0.00020285,2027.1,7.8857e-05,215.67,6.641e-05,122.15,-0.00019694,-1856.6,0.0041561
332,2.4936,3.0469,0,0.00024297,2428,0.00011634,435.79,5.6194e-05,-16.156,-0.00023265,-2186.4,0.0098778
333,2.1888,3.4417,0,0.00028997,2897.7,0.00012769,367.63,7.3393e-05,-40.367,-0.00028224,-2712.5,0.0072141
334,2.1331,3.1576,0.05,1.6899e-05,168.88,1.2977e-05,97.502,-2.7525e-21,-2.0682e-14,-1.2977e-05,-97.502,0.0069032
335,2.2865,2.5788,0,0.00035198,3517.4,0.00011923,-210.26,9.1331e-05,-419.87,-0.00036223,-3827.8,0.007771
336,3.1854,3.6362,0,0.00022305,2229,8.1957e-05,116.37,7.0041e-05,26.843,-0.00022048,-2156,0.017126
337,2.8171,3.2604,0,0.00025175,2515.7,0.00011009,364.18,6.9572e-05,59.74,-0.00024315,-2289.9,0.013054
338,2.5123,3.6552,0,0.00029429,2940.8,0.00011768,267.75,8.6272e-05,31.779,-0.00028848,-2784,0.0096486
339,2.7801,3.5846,0.05,9.6884e-06,96.817,7.4395e-06,55.897,-1.578e-21,1.3105e-06,-7.4395e-06,-55.897,0.012409
340,2.6934,3.7923,0,0.00035085,3506.1,0.00014633,204.18,8.0589e-05,-289.76,-0.00034968,-3522.7,0.011208
341,3.709,1.5993,0,0.00011108,1110.1,4.0408e-05,41.981,3.41e-05,-5.4114,-0.00011038,-1091,0.02359
342,3.5817,2.1865,0,0.00013808,1379.9,4.8072e-05,-32.269,3.8261e-05,-105.99,-0.00014029,-1447.5,0.022275
343,4.1704,2.1286,0,0.00011884,1187.6,4.1907e-05,11.302,3.5649e-05,-35.722,-0.00011918,-1199.1,0.031131
344,3.6388,1.885,0.05,5.4891e-06,54.853,4.2149e-06,31.669,8.28e-13,2.9999e-05,-4.2149e-06,-31.669,0.022829
345,3.1227,1.6925,0,0.00016737,1672.5,5.8507e-05,-4.7693,4.9172e-05,-74.904,-0.00016861,-1711.3,0.015351
346,4.296,4.2902,0,0.00011178,1117,3.9444e-05,-25.283,3.0117e-05,-95.363,-0.00011367,-1175.7,0.033038
347,4.3827,4.8936,0,0.00010472,1046.4,3.6654e-05,23.772,3.317e-05,-2.4062,-0.00010433,-1035.5,0.033956
348,3.748,4.7348,0,0.00010269,1026.2,3.8812e-05,52.595,3.0255e-05,-11.695,-0.00010184,-1004.2,0.024023
349,3.7552,4.3593,0,0.00013305,1329.6,5.1434e-05,18.001,3.2337e-05,-125.49,-0.0001343,-1377.5,0.024515
350,4.1151,4.5733,0.05,4.2221e-06,42.191,3.242e-06,24.359,9.0936e-13,-2.232e-10,-3.242e-06,-24.359,0.029886
351,1.09,1.3045,0,0.00012616,1260.7,6.8021e-05,259.29,1.6852e-05,-125.18,-0.0001194,-1148.9,0.0013126
352,1.0938,0.87099,0.05,3.7396e-06,37.37,2.8716e-06,21.576,-6.091e-22,1.7594e-06,-2.8716e-06,-21.576,0.0011773
353,1.1569,0.4355,0,0.0001095,1094.2,5.4469e-05,206.05,2.2245e-05,-36.067,-0.00010458,-988.98,0.0011398
354,0.54692,1.0355,0,9.2256e-05,921.93,3.0612e-05,-254.12,5.6531e-06,-441.65,-0.00010265,-1255.4,0.00030491
355,1.7669,0.6855,0,0.00010666,1065.8,4.649e-05,21.246,1.6487e-05,-204.18,-0.00010796,-1139.3,0.0029166
356,1.2266,2.0188,0,0.00015805,1579.4,8.871e-05,368.17,1.8089e-05,-162.45,-0.00014771,-1408.2,0.0018955
357,1.4874,2.5348,0,0.00016088,1607.7,7.8538e-05,157.06,2.0536e-05,-278.74,-0.00015845,-1623.6,0.0030317
358,1.3671,2.2996,0.05,7.808e-06,78.026,5.9956e-06,45.049,-3.6816e-14,5.1587e-06,-5.9956e-06,-45.049,0.0024327
359,0.68356,2.9498,0,0.00013013,1300.4,5.1564e-05,-212.02,5.9709e-06,-554.59,-0.00013973,-1649.4,0.00060119
360,1.9036,1.8998,0,0.00019724,1971,8.611e-05,-12.121,2.4916e-05,-471.91,-0.00020141,-2172.4,0.0045967
361,4.3536,0.7696,0,9.1758e-05,916.95,3.3594e-05,54.739,2.9662e-05,25.191,-9.0363e-05,-876.63,0.03271
362,3.7912,0.99797,0,9.3859e-05,937.94,3.8164e-05,95.032,2.7295e-05,13.363,-9.1748e-05,-881.08,0.024067
363,3.8033,0.68231,0.05,4.0477e-06,40.449,3.1082e-06,23.353,1.9679e-13,-4.9536e-15,-3.1082e-06,-23.353,0.023745
364,3.7679,0.34116,0,8.0077e-05,800.21,3.3258e-05,89.475,2.2823e-05,11.068,-7.8077e-05,-747.06,0.022605
365,3.205,0.59116,0,7.6668e-05,766.15,2.385e-05,-51.037,2.308e-05,-56.819,-7.8501e-05,-820.06,0.01454
366,4.1359,5.3247,0,8.8574e-05,885.13,3.3397e-05,56.445,2.728e-05,10.491,-8.7345e-05,-850.76,0.029387
367,3.5012,5.1659,0,8.9869e-05,898.07,4.0527e-05,122.63,2.1794e-05,-18.122,-8.726e-05,-837.51,0.019712
368,3.6214,5.4355,0.05,3.8e-06,37.974,2.9179e-06,21.924,-6.1893e-22,-4.6504e-15,-2.9179e-06,-21.924,0.021091
369,3.677,5.7178,0,7.4307e-05,742.56,2.8468e-05,49.024,2.2247e-05,2.2817,-7.3324e-05,-715.8,0.021485
370,3.114,5.4678,0,6.362e-05,635.76,2.1525e-05,-40.181,1.6347e-05,-79.088,-6.556e-05,-694.51,0.013409
371,4.0338,3.8474,0,0.00014092,1408.2,5.3327e-05,-18.846,3.2702e-05,-173.81,-0.00014356,-1498.1,0.029102
372,3.493,3.9165,0,0.00016282,1627.1,6.419e-05,15.969,3.667e-05,-190.81,-0.00016481,-1704.6,0.021037
373,3.5877,3.3952,0,0.00017072,1706,6.7058e-05,16.762,3.8913e-05,-194.7,-0.00017276,-1785.2,0.022635
374,3.5907,3.6877,0.05,1.3646e-05,136.37,1.0479e-05,78.732,-5.8031e-13,2.7185e-06,-1.0479e-05,-78.732,0.022555
375,1.1772,4.4062,0,0.00013821,1381.1,7.1489e-05,304.67,2.7094e-05,-28.89,-0.00013046,-1212.7,0.0016281
376,1.4428,3.3039,0,0.00015062,1505.1,6.9999e-05,105.77,2.226e-05,-252.92,-0.00014988,-1546.3,0.0029449
377,1.6089,4.1343,0,0.0001733,1731.8,7.8402e-05,142.6,3.2098e-05,-205.31,-0.00017172,-1736.7,0.0032479
378,1.2779,3.8379,0.05,9.9122e-06,99.054,7.6114e-06,57.189,-5.8719e-17,1.2199e-05,-7.6114e-06,-57.189,0.0021232
379,0.63895,3.7189,0,0.00012554,1254.5,4.2228e-05,-269.3,1.4283e-05,-479.28,-0.00013695,-1615.6,0.00053854
380,5.0078,4.309,0,0.00010232,1022.4,3.472e-05,-42.134,2.8223e-05,-90.95,-0.00010449,-1088.1,0.045178
381,4.5021,3.7012,0,0.00011687,1167.9,4.0503e-05,-56.715,2.9936e-05,-136.11,-0.00011995,-1262.3,0.03671
382,4.4769,4.0071,0.05,3.8696e-06,38.67,2.9714e-06,22.326,1.6029e-12,1.3745e-05,-2.9714e-06,-22.326,0.036168
383,1.0764,4.9745,0.05,4.4282e-06,44.251,3.4003e-06,25.549,1.0779e-13,-5.4192e-15,-3.4003e-06,-25.549,0.0011819
384,1.1482,5.4873,0,0.00010106,1009.9,4.9118e-05,197.98,2.3636e-05,6.516,-9.6213e-05,-893.98,0.0011477
385,0.53822,4.8873,0,9.0931e-05,908.69,2.9506e-05,-261.43,5.7817e-06,-439.69,-0.00010154,-1246,0.00031181
386,1.7582,5.2373,0,9.3988e-05,939.24,4.5299e-05,136.93,1.793e-05,-68.703,-9.1123e-05,-888.08,0.0028778
387,5.4524,0.93942,0,9.4932e-05,948.66,3.3119e-05,20.84,3.0193e-05,-1.1437,-9.4577e-05,-938.62,0.052318
388,4.9027,1.2895,0,0.00010001,999.39,3.6203e-05,36.046,3.0845e-05,-4.2137,-9.9405e-05,-982.86,0.042732
389,4.904,0.85689,0.05,1.5856e-06,15.845,1.2175e-06,9.148,-1.9543e-13,4.7469e-06,-1.2175e-06,-9.148,0.042236
390,4.8813,0.42845,0,9.7201e-05,971.34,3.4063e-05,37.083,3.2107e-05,22.385,-9.6181e-05,-941.52,0.041227
391,6.5408,1.0737,0,8.6809e-05,867.49,2.9185e-05,-0.96531,2.7647e-05,-12.519,-8.7033e-05,-874.18,0.073917
392,5.9582,1.5556,0,9.1397e-05,913.34,3.0797e-05,-9.0131,2.8251e-05,-28.139,-9.2014e-05,-931.76,0.062631
393,6.0009,1.022,0.05,1.1008e-06,11,8.4527e-07,6.3511,1.0945e-14,2.0945e-07,-8.4527e-07,-6.3511,0.062945
394,5.9927,0.51098,0,9.1525e-05,914.62,3.0464e-05,-2.578,2.9526e-05,-9.6262,-9.1731e-05,-920.7,0.062144
395,7.622,1.1445,0,7.7676e-05,776.22,2.5962e-05,-1.0839,2.4976e-05,-8.4964,-7.7836e-05,-780.98,0.097332
396,7.0428,1.7104,0,8.2857e-05,828,2.8933e-05,5.6886,2.5148e-05,-22.747,-8.3111e-05,-836.16,0.085057
397,7.0806,1.1255,0.05,7.0546e-07,7.0497,5.4171e-07,4.0702,4.2007e-16,4.8035e-07,-5.4171e-07,-4.0702,0.085377
398,7.0956,0.56277,0,8.2537e-05,824.8,2.7469e-05,-0.19319,2.6828e-05,-5.0118,-8.2625e-05,-827.39,0.085071
399,8.7395,1.1741,0,6.8107e-05,680.6,2.2624e-05,-1.0513,2.2128e-05,-4.7761,-6.8206e-05,-683.51,0.12339
400,8.1459,1.7564,0,7.2718e-05,726.68,2.4422e-05,-2.9951,2.3001e-05,-13.674,-7.2996e-05,-734.96,0.10978
401,8.1634,1.1634,0.05,6.6282e-07,6.6236,5.0896e-07,3.8242,8.6333e-15,6.9836e-07,-5.0896e-07,-3.8242,0.10973
402,8.1999,0.58172,0,7.3039e-05,729.89,2.4148e-05,-0.36333,2.3994e-05,-1.5215,-7.3071e-05,-730.83,0.10999
403,9.8893,1.1825,0,5.8717e-05,586.77,1.9398e-05,-0.3923,1.9306e-05,-1.0843,-5.8743e-05,-587.51,0.15195
404,9.3053,1.7687,0,6.3123e-05,630.79,2.1088e-05,-0.25283,2.0371e-05,-5.6394,-6.3221e-05,-633.72,0.13764
405,9.3156,1.1848,0.05,7.4044e-07,7.3993,5.6857e-07,4.272,-1.206e-22,9.5189e-07,-5.6857e-07,-4.272,0.13749
406,9.339,0.59238,0,6.3426e-05,633.82,2.0984e-05,0.56669,2.0892e-05,-0.13137,-6.3419e-05,-633.6,0.13754
407,11.033,1.1772,0,4.9846e-05,498.12,1.6678e-05,2.2718,1.6271e-05,-0.78333,-4.982e-05,-497.37,0.18189
408,10.462,1.7663,0,5.3926e-05,538.89,1.7814e-05,-0.29404,1.7737e-05,-0.87144,-5.3946e-05,-539.47,0.16714
409,10.463,1.1802,0.05,7.0562e-07,7.0513,5.4183e-07,4.0711,-1.5831e-15,1.1919e-06,-5.4183e-07,-4.0711,0.16679
410,10.476,0.59012,0,5.4172e-05,541.35,1.8179e-05,3.0964,1.765e-05,-0.87672,-5.4133e-05,-540.23,0.16664
411,12.166,1.174,0,4.1724e-05,416.95,1.4209e-05,4.8731,1.3469e-05,-0.68564,-4.165e-05,-414.83,0.21283
412,11.604,1.7637,0,4.5477e-05,454.45,1.5346e-05,3.5884,1.4763e-05,-0.78879,-4.5428e-05,-453.04,0.19764
413,11.603,1.1742,0.05,6.2368e-07,6.2325,4.7891e-07,3.5983,-2.4161e-22,9.3666e-07,-4.7891e-07,-3.5983,0.1973
414,11.609,0.58708,0,4.5663e-05,456.31,1.5546e-05,5.4413,1.4758e-05,-0.47752,-4.5575e-05,-453.8,0.19704
415,13.293,1.174,0,3.4367e-05,343.43,1.1918e-05,6.5382,1.0961e-05,-0.65487,-3.4261e-05,-340.43,0.24463
416,12.729,1.7635,0,3.7786e-05,377.6,1.3021e-05,6.0855,1.2091e-05,-0.89631,-3.7693e-05,-374.95,0.22889
417,12.73,1.1738,0.05,5.6447e-07,5.6408,4.3344e-07,3.2567,-9.194e-23,9.7782e-07,-4.3344e-07,-3.2567,0.22861
418,12.735,0.58689,0,3.7891e-05,378.65,1.3117e-05,7.1336,1.2117e-05,-0.37832,-3.7771e-05,-375.22,0.2284
419,14.417,1.1757,0,2.7742e-05,277.23,9.8097e-06,7.5147,8.729e-06,-0.60576,-2.7615e-05,-273.68,0.27725
420,13.855,1.7647,0,3.0831e-05,308.09,1.0842e-05,7.5398,9.7295e-06,-0.81742,-3.0708e-05,-304.65,0.26108
421,13.856,1.1742,0.05,5.0878e-07,5.0843,3.9068e-07,2.9354,4.0015e-15,1.5274e-06,-3.9068e-07,-2.9354,0.26086
422,13.861,0.5871,0,3.0871e-05,308.5,1.0882e-05,8.2221,9.7591e-06,-0.21813,-3.0726e-05,-304.41,0.26071
423,15.542,1.1783,0,2.1837e-05,218.22,7.9073e-06,8.0901,6.7518e-06,-0.59124,-2.1697e-05,-214.34,0.31055
424,14.978,1.7675,0,2.4581e-05,245.64,8.8529e-06,8.4056,7.6179e-06,-0.87309,-2.4439e-05,-241.74,0.29399
425,14.979,1.1773,0.05,4.5314e-07,4.5283,3.4796e-07,2.6144,3.2597e-15,1.7488e-06,-3.4796e-07,-2.6144,0.2938
426,14.986,0.58864,0,2.4582e-05,245.65,8.8625e-06,8.9219,7.6506e-06,-0.18353,-2.4421e-05,-241.15,0.29374
427,16.667,1.181,0,1.6658e-05,166.46,6.2244e-06,8.4336,5.0247e-06,-0.58097,-1.6506e-05,-162.35,0.34441
428,16.104,1.7704,0,1.9047e-05,190.34,7.0689e-06,8.9367,5.7641e-06,-0.86676,-1.8891e-05,-186.11,0.32758
429,16.104,1.1793,0.05,3.9634e-07,3.9607,3.0434e-07,2.2867,2.2849e-15,2.1625e-06,-3.0434e-07,-2.2867,0.32742
430,16.111,0.58966,0,1.9027e-05,190.14,7.0547e-06,9.2803,5.8029e-06,-0.12534,-1.8854e-05,-185.39,0.32742
431,17.792,1.183,0,1.2209e-05,122.01,4.7704e-06,8.629,3.5439e-06,-0.58678,-1.2046e-05,-117.72,0.37868
432,17.228,1.773,0,1.4239e-05,142.29,5.5079e-06,9.2549,4.156e-06,-0.90311,-1.407e-05,-137.84,0.36161
433,17.229,1.1827,0.05,3.4522e-07,3.4498,2.6508e-07,1.9917,1.6968e-13,2.2007e-06,-2.6508e-07,-1.9917,0.36149
434,17.237,0.59134,0,1.4204e-05,141.95,5.4788e-06,9.4957,4.199e-06,-0.11989,-1.402e-05,-137.01,0.36154
435,18.919,1.1839,0,8.4926e-06,84.867,3.543e-06,8.6751,2.3131e-06,-0.56595,-8.3168e-06,-80.434,0.41331
436,18.354,1.7753,0,1.0169e-05,101.62,4.1712e-06,9.3877,2.8034e-06,-0.88968,-9.985e-06,-96.977,0.39604
437,18.355,1.1833,0.05,2.873e-07,2.8711,2.2061e-07,1.6576,1.1606e-13,2.3066e-06,-2.2061e-07,-1.6576,0.39594
438,18.363,0.59166,0,1.0119e-05,101.12,4.1327e-06,9.5604,2.8439e-06,-0.12359,-9.9236e-06,-96.053,0.39603
439,20.048,1.1869,0,5.5067e-06,55.029,2.547e-06,8.6171,1.3223e-06,-0.58479,-5.312e-06,-50.433,0.44817
440,19.482,1.7841,0,6.8329e-06,68.282,3.0671e-06,9.4334,1.6951e-06,-0.87477,-6.6286e-06,-63.416,0.43077
441,19.484,1.1844,0.05,2.288e-07,2.2864,1.7569e-07,1.3201,1.4807e-13,2.5429e-06,-1.7569e-07,-1.3201,0.43072
442,19.49,0.5922,0,6.7633e-06,67.586,3.0074e-06,9.4127,1.7394e-06,-0.11454,-6.5545e-06,-62.432,0.4308
443,21.178,1.1925,0,3.2641e-06,32.619,1.78e-06,8.4307,5.7788e-07,-0.60136,-3.0357e-06,-27.752,0.48324
444,20.607,1.7951,0,4.2456e-06,42.426,2.204e-06,9.441,8.2428e-07,-0.92603,-4.0046e-06,-37.208,0.46561
445,20.612,1.1895,0.05,1.716e-07,1.7148,1.3177e-07,0.99003,2.0046e-13,3.0119e-06,-1.3177e-07,-0.99003,0.46565
446,20.617,0.59475,0,4.1398e-06,41.37,2.1102e-06,9.1437,8.7728e-07,-0.11987,-3.9077e-06,-36.073,0.46572
447,22.309,1.196,0,1.7722e-06,17.71,1.2276e-06,7.984,8.5185e-08,-0.60001,-1.4829e-06,-12.382,0.51836
448,21.743,1.7973,0,2.42e-06,24.183,1.5667e-06,9.332,2.0734e-07,-0.88162,-2.1085e-06,-18.282,0.50085
449,21.745,1.1954,0.05,1.1752e-07,1.1744,9.0238e-08,0.67802,2.1461e-13,3.1412e-06,-9.0238e-08,-0.67801,0.50084
450,21.746,0.59772,0,2.2484e-06,22.469,1.4189e-06,8.5299,2.6527e-07,-0.13824,-1.9765e-06,-16.982,0.50081
451,22.873,1.7962,0,1.3795e-06,13.785,1.1591e-06,9.0908,-1.734e-07,-0.9214,-9.3343e-07,-6.632,0.53598
452,22.872,1.1965,0.05,7.8352e-08,0.78298,6.0165e-08,0.45206,2.0776e-13,3.4357e-06,-6.0165e-08,-0.45205,0.53589
453,22.873,0.59827,0,1.0932e-06,10.925,9.1647e-07,7.4231,-9.2656e-08,-0.15907,-7.5017e-07,-5.0993,0.53584
454,23.436,1.1983,0,1.0171e-06,10.164,8.826e-07,7.2052,-1.5709e-07,-0.60658,-6.4683e-07,-4.2863,0.55343
455,22.306,4.7975,0,1.7747e-06,17.735,1.2292e-06,7.9924,8.5498e-08,-0.60078,-1.4851e-06,-12.402,0.51853
456,22.869,4.196,0,1.382e-06,13.81,1.1604e-06,9.0932,-1.728e-07,-0.92415,-9.3633e-07,-6.6611,0.53602
457,22.871,4.7976,0.05,7.7649e-08,0.77595,5.9625e-08,0.448,2.3716e-13,3.2711e-06,-5.9625e-08,-0.44799,0.5361
458,23.435,4.7988,0,1.0189e-06,10.182,8.8379e-07,7.2107,-1.5716e-07,-0.61051,-6.4843e-07,-4.3018,0.55366
459,22.872,5.3988,0,1.0938e-06,10.93,9.1795e-07,7.4464,-9.3414e-08,-0.15254,-7.492e-07,-5.0799,0.53616
460,21.175,4.7988,0,3.2729e-06,32.706,1.7817e-06,8.4148,5.8182e-07,-0.60062,-3.0453e-06,-27.854,0.4834
461,21.739,4.1977,0,2.4249e-06,24.232,1.5684e-06,9.3255,2.0839e-07,-0.89299,-2.1139e-06,-18.342,0.50089
462,21.741,4.7974,0.05,1.2047e-07,1.2038,9.2504e-08,0.69504,1.9752e-13,3.1673e-06,-9.2503e-08,-0.69503,0.50097
463,21.744,5.3987,0,2.25e-06,22.484,1.4222e-06,8.5606,2.6291e-07,-0.14955,-1.9765e-06,-16.975,0.50109
464,20.045,4.7934,0,5.5165e-06,55.127,2.5507e-06,8.6182,1.325e-06,-0.59097,-5.3219e-06,-50.533,0.44834
465,20.606,4.1976,0,4.2529e-06,42.5,2.2032e-06,9.4034,8.2976e-07,-0.916,-4.0135e-06,-37.306,0.46575
466,20.609,4.8001,0.05,1.7573e-07,1.7561,1.3494e-07,1.0139,1.9441e-13,3.0215e-06,-1.3494e-07,-1.0139,0.46584
467,20.616,5.4,0,4.1493e-06,41.465,2.1149e-06,9.1684,8.7991e-07,-0.11088,-3.9166e-06,-36.15,0.46603
468,18.917,4.7795,0,8.5025e-06,84.967,3.5464e-06,8.6709,2.3157e-06,-0.57561,-8.327e-06,-80.541,0.41349
469,19.476,4.183,0,6.8438e-06,68.391,3.0748e-06,9.4456,1.6922e-06,-0.94236,-6.6397e-06,-63.545,0.43076
470,19.48,4.7868,0.05,2.3342e-07,2.3326,1.7924e-07,1.3467,1.4586e-13,2.6943e-06,-1.7924e-07,-1.3467,0.43087
471,19.488,5.3934,0,6.7683e-06,67.636,3.0123e-06,9.4651,1.7399e-06,-0.095284,-6.558e-06,-62.442,0.43109
472,17.789,4.7549,0,1.2223e-05,122.15,4.7742e-06,8.626,3.55e-06,-0.57261,-1.206e-05,-117.86,0.37887
473,18.352,4.1706,0,1.0181e-05,101.74,4.1703e-06,9.3238,2.8104e-06,-0.89392,-9.9989e-06,-97.138,0.39616
474,18.353,4.7722,0.05,2.8928e-07,2.8908,2.2213e-07,1.669,1.4837e-13,2.3718e-06,-2.2213e-07,-1.669,0.39616
475,18.362,5.3861,0,1.0134e-05,101.27,4.1429e-06,9.6357,2.847e-06,-0.10109,-9.937e-06,-96.155,0.39636
476,16.663,4.7222,0,1.6675e-05,166.63,6.2303e-06,8.4723,5.0337e-06,-0.51882,-1.6521e-05,-162.48,0.34458
477,17.223,4.141,0,1.426e-05,142.5,5.5127e-06,9.228,4.1641e-06,-0.90507,-1.4091e-05,-138.07,0.36163
478,17.225,4.7375,0.05,3.4822e-07,3.4798,2.6739e-07,2.0091,2.2213e-13,2.4062e-06,-2.6739e-07,-2.0091,0.36164
479,17.235,5.3687,0,1.4218e-05,142.08,5.5029e-06,9.7289,4.1906e-06,-0.13165,-1.4029e-05,-137.03,0.36184
480,15.539,4.6993,0,2.1852e-05,218.37,7.9087e-06,8.1012,6.764e-06,-0.50035,-2.171e-05,-214.44,0.31077
481,16.1,4.1212,0,1.9066e-05,190.53,7.0718e-06,8.9119,5.7746e-06,-0.83479,-1.891e-05,-186.31,0.32766
482,16.102,4.707,0.05,4.0518e-07,4.049,3.1112e-07,2.3377,1.114e-13,1.903e-06,-3.1112e-07,-2.3377,0.32762
483,16.11,5.3535,0,1.9037e-05,190.23,7.0779e-06,9.5371,5.7951e-06,-0.10159,-1.8858e-05,-185.33,0.32774
484,14.416,4.6884,0,2.7743e-05,277.24,9.8054e-06,7.5137,8.7374e-06,-0.51057,-2.7615e-05,-273.65,0.27752
485,14.976,4.1087,0,2.459e-05,245.73,8.8551e-06,8.3963,7.6213e-06,-0.87409,-2.4449e-05,-241.83,0.29413
486,14.977,4.6916,0.05,4.6105e-07,4.6074,3.5403e-07,2.6601,7.2333e-15,1.8261e-06,-3.5403e-07,-2.6601,0.29404
487,14.985,5.3458,0,2.4586e-05,245.69,8.8784e-06,9.1271,7.6456e-06,-0.1351,-2.442e-05,-241.06,0.29409
488,13.294,4.6847,0,3.4343e-05,343.2,1.1906e-05,6.5497,1.0961e-05,-0.54719,-3.4236e-05,-340.14,0.24498
489,13.854,4.1025,0,3.0831e-05,308.09,1.0841e-05,7.5361,9.7306e-06,-0.80659,-3.0708e-05,-304.64,0.26126
490,13.856,4.6853,0.05,5.1207e-07,5.1172,3.9321e-07,2.9544,4.0092e-15,1.8222e-06,-3.9321e-07,-2.9544,0.26117
491,13.861,5.3427,0,3.0866e-05,308.45,1.0895e-05,8.4188,9.7513e-06,-0.17488,-3.0717e-05,-304.24,0.26109
492,12.171,4.6835,0,4.1651e-05,416.22,1.4177e-05,4.8162,1.3454e-05,-0.61479,-4.1577e-05,-414.1,0.21327
493,12.73,4.1001,0,3.7766e-05,377.4,1.3011e-05,6.0903,1.209e-05,-0.82725,-3.7672e-05,-374.72,0.22912
494,12.732,4.684,0.05,5.6629e-07,5.659,4.3484e-07,3.2672,3.4656e-15,1.6946e-06,-4.3484e-07,-3.2672,0.22899
495,12.736,5.342,0,3.7871e-05,378.45,1.3119e-05,7.2454,1.2107e-05,-0.35719,-3.7748e-05,-374.95,0.22882
496,11.041,4.7008,0,4.9681e-05,496.47,1.6565e-05,1.6098,1.6254e-05,-0.72537,-4.9665e-05,-496.02,0.18243
497,11.608,4.0995,0,4.5397e-05,453.65,1.5309e-05,3.4613,1.4743e-05,-0.79411,-4.535e-05,-452.3,0.19797
498,11.609,4.683,0.05,6.2826e-07,6.2782,4.8242e-07,3.6247,9.2136e-16,1.1851e-06,-4.8242e-07,-3.6247,0.1978
499,11.612,5.3415,0,4.5585e-05,455.53,1.5472e-05,4.8896,1.4765e-05,-0.42293,-4.5506e-05,-453.27,0.19752
500,9.8919,4.7351,0,5.8524e-05,584.83,1.9435e-05,-0.56356,1.9055e-05,-3.4189,-5.8591e-05,-586.82,0.15233
501,10.467,4.1218,0,5.3773e-05,537.36,1.7745e-05,-0.71923,1.768e-05,-1.206,-5.3805e-05,-538.32,0.16746
502,10.473,4.7186,0.05,6.7436e-07,6.739,5.1783e-07,3.8908,-2.3111e-22,9.5327e-07,-5.1783e-07,-3.8908,0.16736
503,10.481,5.3593,0,5.4069e-05,540.32,1.8011e-05,1.4635,1.7692e-05,-0.93164,-5.406e-05,-540.05,0.16716
504,8.7213,4.7473,0,6.822e-05,681.73,2.2987e-05,-2.3853,2.1488e-05,-13.644,-6.8485e-05,-689.67,0.12326
505,9.3058,4.1414,0,6.2929e-05,628.85,2.1166e-05,-0.32869,2.006e-05,-8.6364,-6.3077e-05,-633.3,0.13786
506,9.3111,4.7516,0.05,7.2977e-07,7.2927,5.6037e-07,4.2104,-8.6943e-16,1.1785e-06,-5.6037e-07,-4.2104,0.13768
507,9.3368,5.3758,0,6.344e-05,633.96,2.0991e-05,-0.31057,2.0812e-05,-1.6606,-6.3473e-05,-634.94,0.13785
508,7.5165,4.7228,0,7.9233e-05,791.78,2.781e-05,4.9996,2.3761e-05,-25.423,-7.9537e-05,-801.56,0.095331
509,8.1159,4.1358,0,7.3189e-05,731.38,2.5256e-05,-2.316,2.2052e-05,-26.388,-7.3647e-05,-745.44,0.10929
510,8.1314,4.743,0.05,7.9439e-07,7.9385,6.1e-07,4.5833,-3.7502e-15,3.931e-07,-6.1e-07,-4.5833,0.10931
511,8.184,5.3715,0,7.3253e-05,732.03,2.4203e-05,-6.4137,2.3537e-05,-11.418,-7.3555e-05,-740.93,0.11001
512,6.2201,4.6568,0,8.7332e-05,872.72,3.1072e-05,2.423,2.5166e-05,-41.953,-8.792e-05,-891.64,0.067891
513,6.8978,4.0981,0,8.4748e-05,846.9,3.1013e-05,15.949,2.4184e-05,-35.36,-8.4962e-05,-855.44,0.082224
514,6.9016,4.7025,0.05,1.6292e-06,16.281,1.2511e-06,9.4,2.8396e-13,5.1729e-07,-1.2511e-06,-9.3999,0.08194
515,7.006,5.3513,0,8.4383e-05,843.25,2.9575e-05,9.7387,2.579e-05,-18.702,-8.45e-05,-847.37,0.083598
516,5.0945,4.9124,0,9.4938e-05,948.73,3.2366e-05,10.196,3.0507e-05,-3.773,-9.4821e-05,-945.44,0.046249
517,5.6107,3.932,0,8.8124e-05,880.63,3.2148e-05,-15.554,2.2276e-05,-89.729,-8.968e-05,-930.93,0.056433
518,5.5386,4.611,0.05,6.7295e-07,6.7248,5.1674e-07,3.8826,-5.2874e-14,4.2472e-06,-5.1674e-07,-3.8826,0.054673
519,5.7616,5.3055,0,9.0624e-05,905.62,3.0611e-05,-2.3099,2.8497e-05,-18.195,-9.0962e-05,-915.76,0.058271
520,4.6503,5.2138,0.05,1.6444e-06,16.433,1.2627e-06,9.4874,-3.8358e-13,-3.3458e-07,-1.2627e-06,-9.4874,0.038102
521,4.7545,5.6069,0,9.6165e-05,960.98,3.528e-05,52.688,3.0526e-05,16.965,-9.493e-05,-925.66,0.0394
522,5.4084,1.9056,0,9.6498e-05,964.32,3.4094e-05,7.7977,2.8705e-05,-32.694,-9.6858e-05,-976.13,0.0524
523,4.3403,1.5178,0,0.00010039,1003.2,3.4459e-05,28.897,3.3527e-05,21.894,-9.9526e-05,-977.81,0.033387
524,4.8017,2.0471,0,0.00010967,1096,4.0959e-05,35.792,3.126e-05,-37.079,-0.00010951,-1094.8,0.041577
525,4.9014,1.722,0.05,1.0311e-06,10.304,7.9177e-07,5.949,-8.7226e-14,-9.3025e-07,-7.9177e-07,-5.949,0.043093
526,6.4602,2.1923,0,8.7464e-05,874.03,3.0467e-05,-2.9461,2.5842e-05,-37.694,-8.8103e-05,-893.84,0.073098
527,5.7991,2.6712,0,8.9317e-05,892.55,3.1833e-05,-19.594,2.3562e-05,-81.739,-9.0878e-05,-941.59,0.060122
528,5.9154,2.0892,0.05,1.4391e-06,14.381,1.105e-06,8.3028,-6.72e-14,-2.8186e-07,-1.105e-06,-8.3028,0.062149
529,8.7117,2.351,0,6.7782e-05,677.35,2.2889e-05,-2.1759,2.1283e-05,-14.244,-6.8053e-05,-685.48,0.12342
530,8.1144,2.939,0,7.2853e-05,728.02,2.5155e-05,-2.0129,2.1953e-05,-26.069,-7.3301e-05,-741.77,0.10946
531,7.5667,2.3223,0,7.7942e-05,778.89,2.7394e-05,3.7912,2.3202e-05,-27.708,-7.8301e-05,-790.37,0.096861
532,8.1284,2.3493,0.05,7.1771e-07,7.1721,5.5111e-07,4.1408,-2.2724e-13,1.2346e-07,-5.5111e-07,-4.1408,0.10965
533,17.791,2.3652,0,1.2269e-05,122.61,4.9707e-06,10.479,3.4148e-06,-1.2112,-1.207e-05,-117.56,0.37887
534,18.917,2.3756,0,8.5785e-06,85.726,3.7565e-06,10.606,2.1847e-06,-1.2045,-8.3573e-06,-80.413,0.41342
535,18.352,2.9681,0,1.0213e-05,102.06,4.2743e-06,10.294,2.7435e-06,-1.2077,-1.001e-05,-97.033,0.39614
536,18.354,2.3672,0.05,2.8705e-07,2.8685,2.2042e-07,1.6561,5.567e-14,2.039e-06,-2.2042e-07,-1.6561,0.39611
537,16.665,2.3624,0,1.6698e-05,166.86,6.4136e-06,10.219,4.8948e-06,-1.1935,-1.6515e-05,-162.06,0.34464
538,17.224,2.9539,0,1.4278e-05,142.68,5.6076e-06,10.128,4.0964e-06,-1.2261,-1.4093e-05,-137.89,0.36166
539,17.228,2.3632,0.05,3.481e-07,3.4786,2.673e-07,2.0084,1.125e-13,1.891e-06,-2.673e-07,-2.0084,0.36169
540,20.041,2.3923,0,5.6355e-06,56.316,2.7825e-06,10.697,1.1962e-06,-1.2224,-5.3788e-06,-50.625,0.44815
541,19.476,2.9815,0,6.895e-06,68.902,3.1855e-06,10.444,1.6283e-06,-1.2554,-6.6637e-06,-63.559,0.43072
542,19.48,2.3839,0.05,2.3002e-07,2.2986,1.7663e-07,1.3271,1.4464e-13,2.6298e-06,-1.7663e-07,-1.3271,0.43078
543,21.172,2.3999,0,3.4515e-06,34.491,2.0443e-06,10.745,4.5291e-07,-1.2125,-3.1301e-06,-28.134,0.48319
544,20.603,2.9979,0,4.3329e-06,43.3,2.3309e-06,10.532,7.6492e-07,-1.2337,-4.0531e-06,-37.434,0.4656
545,20.603,2.4007,0.05,1.7455e-07,1.7443,1.3403e-07,1.0071,1.7037e-13,2.7268e-06,-1.3403e-07,-1.0071,0.46555
546,7.4972,3.5111,0,7.8719e-05,786.65,2.8475e-05,8.7496,2.2479e-05,-36.301,-7.9091e-05,-799.46,0.095431
547,6.9495,2.8944,0,8.3808e-05,837.5,3.0702e-05,14.462,2.3733e-05,-37.905,-8.4084e-05,-848,0.083524
548,6.2883,3.3734,0,8.5658e-05,855.99,3.2043e-05,-2.3758,2.1434e-05,-82.084,-8.6816e-05,-895.43,0.069808
549,6.894,3.4936,0.05,1.5706e-06,15.696,1.2061e-06,9.0618,-3.9565e-16,-5.2446e-09,-1.2061e-06,-9.0618,0.082323
550,22.87,2.9952,0,1.5587e-06,15.576,1.3383e-06,10.667,-2.465e-07,-1.2399,-1.0078e-06,-6.9602,0.53599
551,22.307,2.3975,0,2.0436e-06,20.422,1.5393e-06,10.748,-5.2428e-08,-1.2119,-1.599e-06,-12.832,0.51844
552,22.874,2.3959,0.05,7.4993e-08,0.74941,5.7585e-08,0.43267,1.8713e-13,3.0579e-06,-5.7585e-08,-0.43267,0.53605
553,23.437,2.398,0,1.3981e-06,13.971,1.2532e-06,10.449,-3.0731e-07,-1.2762,-8.0424e-07,-5.0099,0.55357
554,22.301,3.5962,0,2.048e-06,20.466,1.5404e-06,10.733,-5.1057e-08,-1.225,-1.6048e-06,-12.899,0.51836
555,22.867,3.5945,0.05,7.4541e-08,0.74489,5.7238e-08,0.43007,1.7611e-13,2.8995e-06,-5.7238e-08,-0.43006,0.53592
556,23.433,3.5973,0,1.3997e-06,13.987,1.2529e-06,10.427,-3.0561e-07,-1.2835,-8.0844e-07,-5.0616,0.55355
557,9.8785,2.3525,0,5.8381e-05,583.4,1.9443e-05,-0.62083,1.8909e-05,-4.6276,-5.8469e-05,-586.02,0.1523
558,9.2977,2.942,0,6.2825e-05,627.82,2.117e-05,-0.41704,1.9952e-05,-9.5704,-6.299e-05,-632.76,0.13784
559,9.295,2.3527,0.05,6.9137e-07,6.9089,5.3089e-07,3.9889,8.1927e-15,9.4826e-07,-5.3089e-07,-3.9889,0.13764
560,11.033,2.3528,0,4.9609e-05,495.75,1.6523e-05,1.3263,1.6236e-05,-0.82781,-4.96e-05,-495.5,0.18245
561,10.461,2.9386,0,5.3732e-05,536.95,1.7727e-05,-0.84459,1.7662e-05,-1.3337,-5.3769e-05,-538.04,0.16746
562,10.462,2.3524,0.05,6.9453e-07,6.9405,5.3331e-07,4.0071,-3.2011e-16,9.5355e-07,-5.3331e-07,-4.0071,0.16735
563,12.167,2.3532,0,4.1598e-05,415.69,1.421e-05,5.1955,1.3385e-05,-1.0038,-4.1523e-05,-413.56,0.21334
564,11.605,2.9346,0,4.5368e-05,453.36,1.5309e-05,3.4899,1.4719e-05,-0.94197,-4.5323e-05,-452.07,0.198
565,11.604,2.3532,0.05,6.2695e-07,6.2652,4.8142e-07,3.6172,-1.0212e-22,9.5424e-07,-4.8142e-07,-3.6172,0.19786
566,13.292,2.3543,0,3.4314e-05,342.9,1.2002e-05,7.5165,1.086e-05,-1.0638,-3.4196e-05,-339.59,0.24504
567,12.729,2.9348,0,3.7745e-05,377.19,1.3046e-05,6.4552,1.2045e-05,-1.0633,-3.7647e-05,-374.43,0.22916
568,12.729,2.3533,0.05,5.6683e-07,5.6644,4.3525e-07,3.2703,1.1356e-13,1.0637e-06,-4.3525e-07,-3.2703,0.22907
569,14.416,2.3565,0,2.7737e-05,277.18,9.9448e-06,8.8806,8.6178e-06,-1.0898,-2.7591e-05,-273.15,0.27758
570,13.853,2.9374,0,3.0825e-05,308.04,1.0903e-05,8.1474,9.6748e-06,-1.0824,-3.0694e-05,-304.4,0.26128
571,13.854,2.3553,0.05,5.1152e-07,5.1117,3.9278e-07,2.9512,9.6149e-16,1.4249e-06,-3.9278e-07,-2.9512,0.26122
572,15.54,2.3596,0,2.186e-05,218.45,8.0755e-06,9.711,6.6296e-06,-1.1531,-2.1694e-05,-213.96,0.31083
573,14.976,2.9418,0,2.4592e-05,245.75,8.9337e-06,9.1623,7.5581e-06,-1.1733,-2.444e-05,-241.59,0.29416
574,14.977,2.3578,0.05,4.5756e-07,4.5724,3.5135e-07,2.6399,1.1401e-13,1.4479e-06,-3.5135e-07,-2.6399,0.29411
575,16.101,2.9485,0,1.9075e-05,190.61,7.1617e-06,9.7691,5.704e-06,-1.1838,-1.8905e-05,-186.08,0.32769
576,16.103,2.3615,0.05,4.0357e-07,4.0329,3.0989e-07,2.3284,1.1422e-13,1.5432e-06,-3.0989e-07,-2.3284,0.32768
577,21.738,2.9985,0,2.5454e-06,25.437,1.7148e-06,10.613,1.444e-07,-1.1866,-2.1707e-06,-18.581,0.50083
578,21.741,2.3991,0.05,1.1845e-07,1.1836,9.0952e-08,0.68338,1.5668e-13,2.8093e-06,-9.0952e-08,-0.68338,0.50084
579,21.17,3.5965,0,3.4544e-06,34.52,2.0432e-06,10.714,4.5547e-07,-1.2148,-3.1345e-06,-28.188,0.48321
580,21.736,3.5979,0.05,1.2097e-07,1.2089,9.2891e-08,0.69795,1.61e-13,2.7071e-06,-9.2891e-08,-0.69795,0.50079
581,20.038,3.5872,0,5.6445e-06,56.406,2.7857e-06,10.67,1.1962e-06,-1.2735,-5.3889e-06,-50.751,0.44812
582,20.603,3.5951,0.05,1.7515e-07,1.7503,1.3449e-07,1.0105,1.7116e-13,2.4546e-06,-1.3449e-07,-1.0105,0.46564
583,18.911,3.5741,0,8.5915e-06,85.855,3.7599e-06,10.558,2.1861e-06,-1.2663,-8.3721e-06,-80.596,0.41335
584,19.472,3.5792,0.05,2.298e-07,2.2964,1.7646e-07,1.3258,1.1459e-13,2.3601e-06,-1.7646e-07,-1.3258,0.43062
585,17.786,3.5568,0,1.2287e-05,122.79,4.9701e-06,10.387,3.4238e-06,-1.2319,-1.209e-05,-117.8,0.37882
586,18.351,3.5689,0.05,2.8065e-07,2.8045,2.155e-07,1.6192,2.3083e-13,2.2779e-06,-2.155e-07,-1.6192,0.39613
587,16.66,3.54,0,1.672e-05,167.09,6.4149e-06,10.124,4.9042e-06,-1.2264,-1.654e-05,-162.35,0.34457
588,17.221,3.5446,0.05,3.4148e-07,3.4124,2.6221e-07,1.9702,1.7022e-13,1.9528e-06,-2.6221e-07,-1.9702,0.36158
589,15.537,3.5307,0,2.1872e-05,218.56,8.0778e-06,9.6554,6.6313e-06,-1.2134,-2.1708e-05,-214.14,0.31083
590,16.099,3.5354,0.05,4.0787e-07,4.0759,3.1319e-07,2.3532,1.6875e-15,1.3937e-06,-3.1319e-07,-2.3532,0.32765
591,14.414,3.5228,0,2.7743e-05,277.24,9.9484e-06,8.8522,8.614e-06,-1.1745,-2.7598e-05,-273.26,0.27762
592,14.975,3.5259,0.05,4.6355e-07,4.6323,3.5595e-07,2.6745,-2.0113e-22,1.5669e-06,-3.5595e-07,-2.6745,0.29415
593,13.29,3.518,0,3.4315e-05,342.92,1.2001e-05,7.4896,1.0859e-05,-1.0902,-3.4198e-05,-339.64,0.2451
594,13.852,3.5196,0.05,5.1476e-07,5.144,3.9527e-07,2.9699,3.4784e-16,1.3256e-06,-3.9527e-07,-2.9699,0.26126
595,12.167,3.5162,0,4.1569e-05,415.4,1.4194e-05,5.1199,1.3379e-05,-1.0093,-4.1495e-05,-413.31,0.21346
596,12.728,3.5163,0.05,5.7655e-07,5.7615,4.4272e-07,3.3264,-9.3907e-23,1.5558e-06,-4.4272e-07,-3.3264,0.22915
597,11.033,3.5205,0,4.9537e-05,495.03,1.6493e-05,1.1647,1.6207e-05,-0.97978,-4.9533e-05,-494.93,0.18257
598,11.606,3.5161,0.05,6.1726e-07,6.1684,4.7398e-07,3.5613,5.8998e-16,9.5445e-07,-4.7398e-07,-3.5613,0.19802
599,9.8806,3.5281,0,5.821e-05,581.7,1.9455e-05,-0.6322,1.8734e-05,-6.0504,-5.8322e-05,-585.02,0.15247
600,10.461,3.5249,0.05,6.5865e-07,6.5819,5.0576e-07,3.8001,1.4766e-15,9.5259e-07,-5.0576e-07,-3.8001,0.16743
601,8.7004,3.5299,0,6.7912e-05,678.66,2.3435e-05,-0.25534,2.0638e-05,-21.269,-6.8254e-05,-689.17,0.12326
602,9.3004,3.5312,0.05,7.1e-07,7.0951,5.4519e-07,4.0963,5.3484e-17,4.7768e-07,-5.4519e-07,-4.0963,0.13788
603,8.1004,3.5286,0.05,9.832e-07,9.8252,7.5497e-07,5.6726,-2.2034e-13,3.3837e-07,-7.5497e-07,-5.6726,0.1091
604,3.2678,4.7066,0,0.0001214,1213.2,5.7862e-05,213.17,2.8151e-05,-10.065,-0.0001164,-1096.2,0.016991
605,3.381,4.8963,0.05,6.1726e-06,61.684,4.7398e-06,35.613,4.1336e-13,1.3887e-06,-4.7398e-06,-35.613,0.018319
606,2.9938,4.9481,0,9.0737e-05,906.74,3.41e-05,11.998,2.3808e-05,-65.335,-9.1396e-05,-930.93,0.01268
607,3.275,4.331,0,0.00014749,1473.8,6.1054e-05,107.72,3.6882e-05,-73.903,-0.00014607,-1448.5,0.017606
608,3.3953,4.1452,0.05,1.9282e-05,192.68,1.4806e-05,111.25,-9.2954e-14,-2.3597e-14,-1.4806e-05,-111.25,0.01946
609,3.001,4.0726,0,0.00029296,2927.6,0.00011118,-26.815,6.8591e-05,-346.82,-0.000298,-3101.3,0.014327
610,1.0861,1.738,0.05,1.0268e-05,102.61,7.8844e-06,59.24,-2.3756e-13,-8.1513e-07,-7.8844e-06,-59.24,0.0014034
611,0.54305,2.069,0,0.00011131,1112.3,3.7629e-05,-288.3,7.2992e-06,-516.19,-0.00012323,-1496.9,0.00036244
612,1.7631,1.369,0,0.00014085,1407.6,6.4626e-05,-4.3581,1.1678e-05,-402.19,-0.00014349,-1568,0.00348
613,1.6076,2.7699,0.05,3.1465e-06,31.443,2.4161e-06,18.154,-3.9429e-13,2.7049e-06,-2.4161e-06,-18.154,0.003644
614,2.0238,2.385,0,0.00031161,3113.9,0.00011748,-266.73,5.1058e-05,-765.81,-0.00032616,-3600.1,0.0057297
615,3.2194,3.0194,0,0.00020273,2025.9,7.3411e-05,100.92,6.5084e-05,38.353,-0.00020029,-1955.6,0.017764
616,2.8541,2.9362,0.05,1.71e-05,170.88,1.3131e-05,98.659,2.035e-13,6.1723e-06,-1.3131e-05,-98.659,0.013441
617,2.7304,2.4681,0,0.00032303,3228.1,0.00010868,-86.09,9.5116e-05,-188.02,-0.00032758,-3364,0.011746
618,2.3209,4.5818,0,0.00018183,1817.1,9.5246e-05,234.15,1.5194e-05,-367.33,-0.00017647,-1807.4,0.0060474
619,2.1002,4.5348,0,0.00016857,1684.5,5.7301e-05,-152.67,3.8452e-05,-294.3,-0.00017572,-1903.5,0.0050231
620,2.2606,4.6388,0.05,1.4024e-05,140.15,1.0769e-05,80.914,-2.2843e-21,-1.7163e-14,-1.0769e-05,-80.914,0.0056345
621,2.3503,4.8194,0,9.8927e-05,988.59,4.23e-05,6.0815,1.5545e-05,-194.94,-0.00010059,-1067.6,0.0057451
622,2.3503,4.3194,0,0.00027663,2764.3,0.00011077,213.9,7.7204e-05,-38.319,-0.00027277,-2667.9,0.0067938
623,2.3811,4.5247,0.05,3.6289e-05,362.64,2.7866e-05,209.37,-5.9107e-21,-4.4411e-14,-2.7866e-05,-209.37,0.0064732
624,2.4105,4.5124,0,0.00014353,1434.4,7.7588e-05,347.82,2.4427e-05,-51.613,-0.00013426,-1243.9,0.006662
625,2.4105,4.2624,0,0.00027846,2782.7,0.0001256,399.69,6.9425e-05,-22.406,-0.00026963,-2569.9,0.00731
626,3.7791,1.3136,0.05,4.0443e-06,40.415,3.1055e-06,23.333,2.5085e-13,1.4028e-06,-3.1055e-06,-23.333,0.024297
627,3.1929,1.1568,0,0.00011175,1116.7,3.6279e-05,-49.734,3.3322e-05,-71.952,-0.0001138,-1177.4,0.015438
628,3.5546,2.7953,0,0.00016288,1627.7,5.6891e-05,-58.247,4.2904e-05,-163.34,-0.0001664,-1736,0.022199
629,3.9339,2.6282,0,0.00013898,1388.8,5.1989e-05,-32.442,3.2023e-05,-182.46,-0.00014202,-1490.2,0.027684
630,3.5245,2.4879,0.05,7.9627e-06,79.572,6.1143e-06,45.941,-1.2969e-21,-9.7447e-15,-6.1143e-06,-45.941,0.021659
631,3.0656,2.2439,0,0.00028403,2838.4,9.0171e-05,-260.21,7.5812e-05,-368.1,-0.00029457,-3151,0.015357
632,2.0922,4.0783,0,0.00024909,2489.2,8.529e-05,-20.626,7.5026e-05,-97.742,-0.00025102,-2547.5,0.0057265
633,2.2445,3.7258,0.05,1.1121e-05,111.14,8.5398e-06,64.165,-1.8114e-21,4.4183e-06,-8.5398e-06,-64.165,0.0072785
634,2.3423,3.8629,0,0.00036691,3666.6,0.00015788,489.57,0.00010218,71.06,-0.00035558,-3368.3,0.0078084
635,4.056,3.249,0,0.00014665,1465.5,5.5552e-05,-11.199,3.4741e-05,-167.57,-0.00014906,-1548.6,0.029609
636,3.5847,3.1027,0.05,1.0827e-05,108.2,8.3139e-06,62.467,4.0541e-14,6.511e-07,-8.3139e-06,-62.467,0.022643
637,5.1923,2.8126,0,0.00010248,1024,3.8191e-05,4.6025,2.6612e-05,-82.4,-0.00010352,-1060.2,0.048788
638,4.5225,2.5703,0,0.00012149,1214,5.025e-05,44.385,2.6105e-05,-137.03,-0.00012204,-1250.1,0.037054
639,4.7019,2.3721,0.05,8.8306e-06,88.245,6.7808e-06,50.948,-1.4383e-21,-4.5065e-07,-6.7808e-06,-50.948,0.039999
640,7.005,2.2953,0.05,1.5383e-06,15.372,1.1812e-06,8.8751,-1.356e-14,2.5027e-06,-1.1812e-06,-8.8751,0.084552
641,5.105,3.3243,0,0.00010269,1026.2,3.8567e-05,-25.362,2.3242e-05,-140.51,-0.00010502,-1104.2,0.047242
642,5.6827,3.2531,0.05,1.1912e-06,11.903,9.1466e-07,6.8724,1.8286e-13,1.7355e-06,-9.1466e-07,-6.8724,0.05793
643,4.4352,3.082,0,0.00012225,1221.6,5.0873e-05,16.282,2.2851e-05,-194.26,-0.00012391,-1296.9,0.035679
644,4.3432,2.7686,0.05,1.3197e-05,131.88,1.0134e-05,76.143,-7.5775e-13,-1.6151e-14,-1.0134e-05,-76.143,0.034124
645,4.5273,3.3954,0.05,9.0496e-06,90.434,6.949e-06,52.212,1.0978e-13,9.2094e-07,-6.949e-06,-52.212,0.037178
646,1.9398,4.4308,0.05,7.7437e-06,77.383,5.9462e-06,44.677,1.2727e-13,-9.4767e-15,-5.9462e-06,-44.677,0.0043948
647,2.1899,4.9654,0,0.00013571,1356.1,5.2246e-05,-24.877,2.918e-05,-198.19,-0.00013867,-1459.3,0.0047875
648,3.1547,4.5169,0.05,1.2766e-05,127.58,9.803e-06,73.656,3.9153e-13,-1.5624e-14,-9.803e-06,-73.656,0.015665
649,2.8807,4.5084,0,0.00017867,1785.5,0.00010153,526.35,2.9744e-05,-13.062,-0.00016371,-1466.6,0.012007
650,3.275,4.331,0.1,0.00014749,1473.8,0.00014607,1448.5,-3.6882e-05,73.903,-6.1054e-05,-107.72,0.017606
651,3.2678,4.7066,0.1,0.0001214,1213.2,0.0001164,1096.2,-2.8151e-05,10.065,-5.7862e-05,-213.17,0.016991
652,2.8807,4.5084,0.1,0.00017867,1785.5,0.00016371,1466.6,-2.9744e-05,13.062,-0.00010153,-526.35,0.012007
653,2.0922,4.0783,0.1,0.00024909,2489.2,0.00025102,2547.5,-7.5026e-05,97.742,-8.529e-05,20.626,0.0057265
654,2.1002,4.5348,0.1,0.00016857,1684.5,0.00017572,1903.5,-3.8452e-05,294.3,-5.7301e-05,152.67,0.0050231
655,1.6089,4.1343,0.1,0.0001733,1731.8,0.00017172,1736.7,-3.2098e-05,205.31,-7.8402e-05,-142.6,0.0032479
656,2.1899,4.9654,0.1,0.00013571,1356.1,0.00013867,1459.3,-2.918e-05,198.19,-5.2246e-05,24.877,0.0047875
657,4.4352,3.082,0.1,0.00012225,1221.6,0.00012391,1296.9,-2.2851e-05,194.26,-5.0873e-05,-16.282,0.035679
658,5.105,3.3243,0.1,0.00010269,1026.2,0.00010502,1104.2,-2.3242e-05,140.51,-3.8567e-05,25.362,0.047242
659,4.056,3.249,0.1,0.00014665,1465.5,0.00014906,1548.6,-3.4741e-05,167.57,-5.5552e-05,11.199,0.029609
660,4.5021,3.7012,0.1,0.00011687,1167.9,0.00011995,1262.3,-2.9936e-05,136.11,-4.0503e-05,56.715,0.03671
661,4.5225,2.5703,0.1,0.00012149,1214,0.00012204,1250.1,-2.6105e-05,137.03,-5.025e-05,-44.385,0.037054
662,3.9339,2.6282,0.1,0.00013898,1388.8,0.00014202,1490.2,-3.2023e-05,182.46,-5.1989e-05,32.442,0.027684
663,5.1923,2.8126,0.1,0.00010248,1024,0.00010352,1060.2,-2.6612e-05,82.4,-3.8191e-05,-4.6025,0.048788
664,6.2883,3.3734,0.1,8.5658e-05,855.99,8.6816e-05,895.43,-2.1434e-05,82.084,-3.2043e-05,2.3758,0.069808
665,5.7991,2.6712,0.1,8.9317e-05,892.55,9.0878e-05,941.59,-2.3562e-05,81.739,-3.1833e-05,19.594,0.060122
666,5.6107,3.932,0.1,8.8124e-05,880.63,8.968e-05,930.93,-2.2276e-05,89.729,-3.2148e-05,15.554,0.056433
667,6.9495,2.8944,0.1,8.3808e-05,837.5,8.4084e-05,848,-2.3733e-05,37.905,-3.0702e-05,-14.462,0.083524
668,7.5667,2.3223,0.1,7.7942e-05,778.89,7.8301e-05,790.37,-2.3202e-05,27.708,-2.7394e-05,-3.7912,0.096861
669,6.4602,2.1923,0.1,8.7464e-05,874.03,8.8103e-05,893.84,-2.5842e-05,37.694,-3.0467e-05,2.9461,0.073098
670,7.0428,1.7104,0.1,8.2857e-05,828,8.3111e-05,836.16,-2.5148e-05,22.747,-2.8933e-05,-5.6886,0.085057
671,4.8017,2.0471,0.1,0.00010967,1096,0.00010951,1094.8,-3.126e-05,37.079,-4.0959e-05,-35.792,0.041577
672,4.1704,2.1286,0.1,0.00011884,1187.6,0.00011918,1199.1,-3.5649e-05,35.722,-4.1907e-05,-11.302,0.031131
673,3.5546,2.7953,0.1,0.00016288,1627.7,0.0001664,1736,-4.2904e-05,163.34,-5.6891e-05,58.247,0.022199
674,3.2194,3.0194,0.1,0.00020273,2025.9,0.00020029,1955.6,-6.5084e-05,-38.353,-7.3411e-05,-100.92,0.017764
675,3.5877,3.3952,0.1,0.00017072,1706,0.00017276,1785.2,-3.8913e-05,194.7,-6.7058e-05,-16.762,0.022635
676,2.5123,3.6552,0.1,0.00029429,2940.8,0.00028848,2784,-8.6272e-05,-31.779,-0.00011768,-267.75,0.0096486
677,2.1888,3.4417,0.1,0.00028997,2897.7,0.00028224,2712.5,-7.3393e-05,40.367,-0.00012769,-367.63,0.0072141
678,2.3423,3.8629,0.1,0.00036691,3666.6,0.00035558,3368.3,-0.00010218,-71.06,-0.00015788,-489.57,0.0078084
679,3.5817,2.1865,0.1,0.00013808,1379.9,0.00014029,1447.5,-3.8261e-05,105.99,-4.8072e-05,32.269,0.022275
680,3.0656,2.2439,0.1,0.00028403,2838.4,0.00029457,3151,-7.5812e-05,368.1,-9.0171e-05,260.21,0.015357
681,4.3403,1.5178,0.1,0.00010039,1003.2,9.9526e-05,977.81,-3.3527e-05,-21.894,-3.4459e-05,-28.897,0.033387
682,3.7912,0.99797,0.1,9.3859e-05,937.94,9.1748e-05,881.08,-2.7295e-05,-13.363,-3.8164e-05,-95.032,0.024067
683,3.709,1.5993,0.1,0.00011108,1110.1,0.00011038,1091,-3.41e-05,5.4114,-4.0408e-05,-41.981,0.02359
684,3.1929,1.1568,0.1,0.00011175,1116.7,0.0001138,1177.4,-3.3322e-05,71.952,-3.6279e-05,49.734,0.015438
685,2.3209,4.5818,0.1,0.00018183,1817.1,0.00017647,1807.4,-1.5194e-05,367.33,-9.5246e-05,-234.15,0.0060474
686,2.4105,4.2624,0.1,0.00027846,2782.7,0.00026963,2569.9,-6.9425e-05,22.406,-0.0001256,-399.69,0.00731
687,2.4105,4.5124,0.1,0.00014353,1434.4,0.00013426,1243.9,-2.4427e-05,51.613,-7.7588e-05,-347.82,0.006662
688,2.3503,4.3194,0.1,0.00027663,2764.3,0.00027277,2667.9,-7.7204e-05,38.319,-0.00011077,-213.9,0.0067938
689,2.3503,4.8194,0.1,9.8927e-05,988.59,0.00010059,1067.6,-1.5545e-05,194.94,-4.23e-05,-6.0815,0.0057451
690,2.8171,3.2604,0.1,0.00025175,2515.7,0.00024315,2289.9,-6.9572e-05,-59.74,-0.00011009,-364.18,0.013054
691,2.4936,3.0469,0.1,0.00024297,2428,0.00023265,2186.4,-5.6194e-05,16.156,-0.00011634,-435.79,0.0098778
692,2.7304,2.4681,0.1,0.00032303,3228.1,0.00032758,3364,-9.5116e-05,188.02,-0.00010868,86.09,0.011746
693,1.4428,3.3039,0.1,0.00015062,1505.1,0.00014988,1546.3,-2.226e-05,252.92,-6.9999e-05,-105.77,0.0029449
694,1.4874,2.5348,0.1,0.00016088,1607.7,0.00015845,1623.6,-2.0536e-05,278.74,-7.8538e-05,-157.06,0.0030317
695,2.0238,2.385,0.1,0.00031161,3113.9,0.00032616,3600.1,-5.1058e-05,765.81,-0.00011748,266.73,0.0057297
696,1.2266,2.0188,0.1,0.00015805,1579.4,0.00014771,1408.2,-1.8089e-05,162.45,-8.871e-05,-368.17,0.0018955
697,1.09,1.3045,0.1,0.00012616,1260.7,0.0001194,1148.9,-1.6852e-05,125.18,-6.8021e-05,-259.29,0.0013126
698,1.7631,1.369,0.1,0.00014085,1407.6,0.00014349,1568,-1.1678e-05,402.19,-6.4626e-05,4.3581,0.00348
699,0.54305,2.069,0.1,0.00011131,1112.3,0.00012323,1496.9,-7.2992e-06,516.19,-3.7629e-05,288.3,0.00036244
700,3.493,3.9165,0.1,0.00016282,1627.1,0.00016481,1704.6,-3.667e-05,190.81,-6.419e-05,-15.969,0.021037
701,3.7552,4.3593,0.1,0.00013305,1329.6,0.0001343,1377.5,-3.2337e-05,125.49,-5.1434e-05,-18.001,0.024515
702,3.001,4.0726,0.1,0.00029296,2927.6,0.000298,3101.3,-6.8591e-05,346.82,-0.00011118,26.815,0.014327
703,3.5012,5.1659,0.1,8.9869e-05,898.07,8.726e-05,837.51,-2.1794e-05,18.122,-4.0527e-05,-122.63,0.019712
704,3.748,4.7348,0.1,0.00010269,1026.2,0.00010184,1004.2,-3.0255e-05,11.695,-3.8812e-05,-52.595,0.024023
705,2.9938,4.9481,0.1,9.0737e-05,906.74,9.1396e-05,930.93,-2.3808e-05,65.335,-3.41e-05,-11.998,0.01268
706,8.7004,3.5299,0.1,6.7912e-05,678.66,6.8254e-05,689.17,-2.0638e-05,21.269,-2.3435e-05,0.25534,0.12326
707,7.4972,3.5111,0.1,7.8719e-05,786.65,7.9091e-05,799.46,-2.2479e-05,36.301,-2.8475e-05,-8.7496,0.095431
708,8.1144,2.939,0.1,7.2853e-05,728.02,7.3301e-05,741.77,-2.1953e-05,26.069,-2.5155e-05,2.0129,0.10946
709,8.1159,4.1358,0.1,7.3189e-05,731.38,7.3647e-05,745.44,-2.2052e-05,26.388,-2.5256e-05,2.316,0.10929
710,9.8806,3.5281,0.1,5.821e-05,581.7,5.8322e-05,585.02,-1.8734e-05,6.0504,-1.9455e-05,0.6322,0.15247
711,9.2977,2.942,0.1,6.2825e-05,627.82,6.299e-05,632.76,-1.9952e-05,9.5704,-2.117e-05,0.41704,0.13784
712,9.3058,4.1414,0.1,6.2929e-05,628.85,6.3077e-05,633.3,-2.006e-05,8.6364,-2.1166e-05,0.32869,0.13786
713,11.033,3.5205,0.1,4.9537e-05,495.03,4.9533e-05,494.93,-1.6207e-05,0.97978,-1.6493e-05,-1.1647,0.18257
714,10.461,2.9386,0.1,5.3732e-05,536.95,5.3769e-05,538.04,-1.7662e-05,1.3337,-1.7727e-05,0.84459,0.16746
715,10.467,4.1218,0.1,5.3773e-05,537.36,5.3805e-05,538.32,-1.768e-05,1.206,-1.7745e-05,0.71923,0.16746
716,12.167,3.5162,0.1,4.1569e-05,415.4,4.1495e-05,413.31,-1.3379e-05,1.0093,-1.4194e-05,-5.1199,0.21346
717,11.605,2.9346,0.1,4.5368e-05,453.36,4.5323e-05,452.07,-1.4719e-05,0.94197,-1.5309e-05,-3.4899,0.198
718,11.608,4.0995,0.1,4.5397e-05,453.65,4.535e-05,452.3,-1.4743e-05,0.79411,-1.5309e-05,-3.4613,0.19797
719,13.29,3.518,0.1,3.4315e-05,342.92,3.4198e-05,339.64,-1.0859e-05,1.0902,-1.2001e-05,-7.4896,0.2451
720,12.729,2.9348,0.1,3.7745e-05,377.19,3.7647e-05,374.43,-1.2045e-05,1.0633,-1.3046e-05,-6.4552,0.22916
721,12.73,4.1001,0.1,3.7766e-05,377.4,3.7672e-05,374.72,-1.209e-05,0.82725,-1.3011e-05,-6.0903,0.22912
722,14.414,3.5228,0.1,2.7743e-05,277.24,2.7598e-05,273.26,-8.614e-06,1.1745,-9.9484e-06,-8.8522,0.27762
723,13.853,2.9374,0.1,3.0825e-05,308.04,3.0694e-05,304.4,-9.6748e-06,1.0824,-1.0903e-05,-8.1474,0.26128
724,13.854,4.1025,0.1,3.0831e-05,308.09,3.0708e-05,304.64,-9.7306e-06,0.80659,-1.0841e-05,-7.5361,0.26126
725,15.537,3.5307,0.1,2.1872e-05,218.56,2.1708e-05,214.14,-6.6313e-06,1.2134,-8.0778e-06,-9.6554,0.31083
726,14.976,2.9418,0.1,2.4592e-05,245.75,2.444e-05,241.59,-7.5581e-06,1.1733,-8.9337e-06,-9.1623,0.29416
727,14.976,4.1087,0.1,2.459e-05,245.73,2.4449e-05,241.83,-7.6213e-06,0.87409,-8.8551e-06,-8.3963,0.29413
728,16.66,3.54,0.1,1.672e-05,167.09,1.654e-05,162.35,-4.9042e-06,1.2264,-6.4149e-06,-10.124,0.34457
729,16.101,2.9485,0.1,1.9075e-05,190.61,1.8905e-05,186.08,-5.704e-06,1.1838,-7.1617e-06,-9.7691,0.32769
730,16.1,4.1212,0.1,1.9066e-05,190.53,1.891e-05,186.31,-5.7746e-06,0.83479,-7.0718e-06,-8.9119,0.32766
731,17.786,3.5568,0.1,1.2287e-05,122.79,1.209e-05,117.8,-3.4238e-06,1.2319,-4.9701e-06,-10.387,0.37882
732,17.224,2.9539,0.1,1.4278e-05,142.68,1.4093e-05,137.89,-4.0964e-06,1.2261,-5.6076e-06,-10.128,0.36166
733,17.223,4.141,0.1,1.426e-05,142.5,1.4091e-05,138.07,-4.1641e-06,0.90507,-5.5127e-06,-9.228,0.36163
734,18.911,3.5741,0.1,8.5915e-06,85.855,8.3721e-06,80.596,-2.1861e-06,1.2663,-3.7599e-06,-10.558,0.41335
735,18.352,2.9681,0.1,1.0213e-05,102.06,1.001e-05,97.033,-2.7435e-06,1.2077,-4.2743e-06,-10.294,0.39614
736,18.352,4.1706,0.1,1.0181e-05,101.74,9.9989e-06,97.138,-2.8104e-06,0.89392,-4.1703e-06,-9.3238,0.39616
737,20.038,3.5872,0.1,5.6445e-06,56.406,5.3889e-06,50.751,-1.1962e-06,1.2735,-2.7857e-06,-10.67,0.44812
738,19.476,2.9815,0.1,6.895e-06,68.902,6.6637e-06,63.559,-1.6284e-06,1.2554,-3.1855e-06,-10.444,0.43072
739,19.476,4.183,0.1,6.8438e-06,68.391,6.6397e-06,63.545,-1.6922e-06,0.94236,-3.0748e-06,-9.4456,0.43076
740,21.17,3.5965,0.1,3.4544e-06,34.52,3.1345e-06,28.188,-4.5547e-07,1.2148,-2.0432e-06,-10.714,0.48321
741,20.603,2.9979,0.1,4.3329e-06,43.3,4.0531e-06,37.434,-7.6492e-07,1.2337,-2.3309e-06,-10.532,0.4656
742,20.606,4.1976,0.1,4.2529e-06,42.5,4.0135e-06,37.306,-8.2976e-07,0.916,-2.2032e-06,-9.4034,0.46575
743,21.738,2.9985,0.1,2.5454e-06,25.437,2.1707e-06,18.581,-1.444e-07,1.1866,-1.7148e-06,-10.613,0.50083
744,22.301,3.5962,0.1,2.048e-06,20.466,1.6048e-06,12.899,5.1056e-08,1.225,-1.5404e-06,-10.733,0.51836
745,21.739,4.1977,0.1,2.4249e-06,24.232,2.1139e-06,18.342,-2.0839e-07,0.89299,-1.5684e-06,-9.3255,0.50089
746,22.307,2.3975,0.1,2.0436e-06,20.422,1.599e-06,12.832,5.2428e-08,1.2119,-1.5393e-06,-10.748,0.51844
747,21.172,2.3999,0.1,3.4515e-06,34.491,3.1301e-06,28.134,-4.5291e-07,1.2125,-2.0443e-06,-10.745,0.48319
748,21.743,1.7973,0.1,2.42e-06,24.183,2.1085e-06,18.282,-2.0734e-07,0.88162,-1.5667e-06,-9.332,0.50085
749,15.54,2.3596,0.1,2.186e-05,218.45,2.1694e-05,213.96,-6.6296e-06,1.1531,-8.0755e-06,-9.711,0.31083
750,16.665,2.3624,0.1,1.6698e-05,166.86,1.6515e-05,162.06,-4.8948e-06,1.1935,-6.4136e-06,-10.219,0.34464
751,16.104,1.7704,0.1,1.9047e-05,190.34,1.8891e-05,186.11,-5.7641e-06,0.86676,-7.0689e-06,-8.9367,0.32758
752,14.416,2.3565,0.1,2.7737e-05,277.18,2.7591e-05,273.15,-8.6178e-06,1.0898,-9.9448e-06,-8.8806,0.27758
753,14.978,1.7675,0.1,2.4581e-05,245.64,2.4439e-05,241.74,-7.6179e-06,0.87309,-8.8529e-06,-8.4056,0.29399
754,13.292,2.3543,0.1,3.4314e-05,342.9,3.4196e-05,339.59,-1.086e-05,1.0638,-1.2002e-05,-7.5165,0.24504
755,13.855,1.7647,0.1,3.0831e-05,308.09,3.0708e-05,304.65,-9.7295e-06,0.81742,-1.0842e-05,-7.5398,0.26108
756,12.167,2.3532,0.1,4.1598e-05,415.69,4.1523e-05,413.56,-1.3385e-05,1.0038,-1.421e-05,-5.1955,0.21334
757,12.729,1.7635,0.1,3.7786e-05,377.6,3.7693e-05,374.95,-1.2091e-05,0.89631,-1.3021e-05,-6.0855,0.22889
758,11.033,2.3528,0.1,4.9609e-05,495.75,4.96e-05,495.5,-1.6236e-05,0.82781,-1.6523e-05,-1.3263,0.18245
759,11.604,1.7637,0.1,4.5477e-05,454.45,4.5428e-05,453.04,-1.4763e-05,0.78879,-1.5346e-05,-3.5884,0.19764
760,9.8785,2.3525,0.1,5.8381e-05,583.4,5.8469e-05,586.02,-1.8909e-05,4.6276,-1.9443e-05,0.62083,0.1523
761,10.462,1.7663,0.1,5.3926e-05,538.89,5.3946e-05,539.47,-1.7737e-05,0.87144,-1.7814e-05,0.29404,0.16714
762,8.7117,2.351,0.1,6.7782e-05,677.35,6.8053e-05,685.48,-2.1283e-05,14.244,-2.2889e-05,2.1759,0.12342
763,9.3053,1.7687,0.1,6.3123e-05,630.79,6.3221e-05,633.72,-2.0371e-05,5.6394,-2.1088e-05,0.25283,0.13764
764,22.87,2.9952,0.1,1.5587e-06,15.576,1.0078e-06,6.9602,2.465e-07,1.2399,-1.3383e-06,-10.667,0.53599
765,22.869,4.196,0.1,1.382e-06,13.81,9.3633e-07,6.6611,1.728e-07,0.92415,-1.1604e-06,-9.0932,0.53602
766,23.433,3.5973,0.1,1.3997e-06,13.987,8.0844e-07,5.0616,3.0561e-07,1.2835,-1.2529e-06,-10.427,0.55355
767,22.873,1.7962,0.1,1.3795e-06,13.785,9.3343e-07,6.632,1.734e-07,0.9214,-1.1591e-06,-9.0908,0.53598
768,23.437,2.398,0.1,1.3981e-06,13.971,8.0424e-07,5.0099,3.0731e-07,1.2762,-1.2532e-06,-10.449,0.55357
769,6.8978,4.0981,0.1,8.4748e-05,846.9,8.4962e-05,855.44,-2.4184e-05,35.36,-3.1013e-05,-15.949,0.082224
770,20.041,2.3923,0.1,5.6355e-06,56.316,5.3788e-06,50.625,-1.1962e-06,1.2224,-2.7825e-06,-10.697,0.44815
771,20.607,1.7951,0.1,4.2456e-06,42.426,4.0046e-06,37.208,-8.2428e-07,0.92603,-2.204e-06,-9.441,0.46561
772,18.917,2.3756,0.1,8.5785e-06,85.726,8.3573e-06,80.413,-2.1847e-06,1.2045,-3.7565e-06,-10.606,0.41342
773,19.482,1.7841,0.1,6.8329e-06,68.282,6.6286e-06,63.416,-1.6951e-06,0.87477,-3.0671e-06,-9.4334,0.43077
774,17.791,2.3652,0.1,1.2269e-05,122.61,1.207e-05,117.56,-3.4148e-06,1.2112,-4.9707e-06,-10.479,0.37887
775,17.228,1.773,0.1,1.4239e-05,142.29,1.407e-05,137.84,-4.156e-06,0.90311,-5.5079e-06,-9.2549,0.36161
776,18.354,1.7753,0.1,1.0169e-05,101.62,9.985e-06,96.977,-2.8034e-06,0.88968,-4.1712e-06,-9.3877,0.39604
777,8.1459,1.7564,0.1,7.2718e-05,726.68,7.2996e-05,734.96,-2.3001e-05,13.674,-2.4422e-05,2.9951,0.10978
778,5.4084,1.9056,0.1,9.6498e-05,964.32,9.6858e-05,976.13,-2.8705e-05,32.694,-3.4094e-05,-7.7977,0.0524
779,5.9582,1.5556,0.1,9.1397e-05,913.34,9.2014e-05,931.76,-2.8251e-05,28.139,-3.0797e-05,9.0131,0.062631
780,4.9027,1.2895,0.1,0.00010001,999.39,9.9405e-05,982.86,-3.0845e-05,4.2137,-3.6203e-05,-36.046,0.042732
781,5.0945,4.9124,0.1,9.4938e-05,948.73,9.4821e-05,945.44,-3.0507e-05,3.773,-3.2366e-05,-10.196,0.046249
782,4.1359,5.3247,0.1,8.8574e-05,885.13,8.7345e-05,850.76,-2.728e-05,-10.491,-3.3397e-05,-56.445,0.029387
783,4.3827,4.8936,0.1,0.00010472,1046.4,0.00010433,1035.5,-3.317e-05,2.4062,-3.6654e-05,-23.772,0.033956
784,4.7545,5.6069,0.1,9.6165e-05,960.98,9.493e-05,925.66,-3.0526e-05,-16.965,-3.528e-05,-52.688,0.0394
785,6.2201,4.6568,0.1,8.7332e-05,872.72,8.792e-05,891.64,-2.5166e-05,41.953,-3.1072e-05,-2.423,0.067891
786,5.0078,4.309,0.1,0.00010232,1022.4,0.00010449,1088.1,-2.8223e-05,90.95,-3.472e-05,42.134,0.045178
787,5.7616,5.3055,0.1,9.0624e-05,905.62,9.0962e-05,915.76,-2.8497e-05,18.195,-3.0611e-05,2.3099,0.058271
788,7.5165,4.7228,0.1,7.9233e-05,791.78,7.9537e-05,801.56,-2.3761e-05,25.423,-2.781e-05,-4.9996,0.095331
789,7.006,5.3513,0.1,8.4383e-05,843.25,8.45e-05,847.37,-2.579e-05,18.702,-2.9575e-05,-9.7387,0.083598
790,8.7213,4.7473,0.1,6.822e-05,681.73,6.8485e-05,689.67,-2.1488e-05,13.644,-2.2987e-05,2.3853,0.12326
791,8.184,5.3715,0.1,7.3253e-05,732.03,7.3555e-05,740.93,-2.3537e-05,11.418,-2.4203e-05,6.4137,0.11001
792,9.8919,4.7351,0.1,5.8524e-05,584.83,5.8591e-05,586.82,-1.9055e-05,3.4189,-1.9435e-05,0.56356,0.15233
793,9.3368,5.3758,0.1,6.344e-05,633.96,6.3473e-05,634.94,-2.0812e-05,1.6606,-2.0991e-05,0.31057,0.13785
794,11.041,4.7008,0.1,4.9681e-05,496.47,4.9665e-05,496.02,-1.6254e-05,0.72537,-1.6565e-05,-1.6098,0.18243
795,10.481,5.3593,0.1,5.4069e-05,540.32,5.406e-05,540.05,-1.7692e-05,0.93164,-1.8011e-05,-1.4635,0.16716
796,12.171,4.6835,0.1,4.1651e-05,416.22,4.1577e-05,414.1,-1.3454e-05,0.61479,-1.4177e-05,-4.8162,0.21327
797,11.612,5.3415,0.1,4.5585e-05,455.53,4.5506e-05,453.27,-1.4765e-05,0.42293,-1.5472e-05,-4.8896,0.19752
798,13.294,4.6847,0.1,3.4343e-05,343.2,3.4236e-05,340.14,-1.0961e-05,0.54719,-1.1906e-05,-6.5497,0.24498
799,12.736,5.342,0.1,3.7871e-05,378.45,3.7748e-05,374.95,-1.2107e-05,0.35719,-1.3119e-05,-7.2454,0.22882
800,14.416,4.6884,0.1,2.7743e-05,277.24,2.7615e-05,273.65,-8.7374e-06,0.51057,-9.8054e-06,-7.5137,0.27752
801,13.861,5.3427,0.1,3.0866e-05,308.45,3.0717e-05,304.24,-9.7513e-06,0.17488,-1.0895e-05,-8.4188,0.26109
802,15.539,4.6993,0.1,2.1852e-05,218.37,2.171e-05,214.44,-6.764e-06,0.50035,-7.9087e-06,-8.1012,0.31077
803,14.985,5.3458,0.1,2.4586e-05,245.69,2.442e-05,241.06,-7.6457e-06,0.1351,-8.8784e-06,-9.1271,0.29409
804,16.663,4.7222,0.1,1.6675e-05,166.63,1.6521e-05,162.48,-5.0337e-06,0.51882,-6.2303e-06,-8.4723,0.34458
805,16.11,5.3535,0.1,1.9037e-05,190.23,1.8858e-05,185.33,-5.7951e-06,0.10159,-7.0779e-06,-9.5371,0.32774
806,17.789,4.7549,0.1,1.2223e-05,122.15,1.206e-05,117.86,-3.55e-06,0.57261,-4.7742e-06,-8.626,0.37887
807,17.235,5.3687,0.1,1.4218e-05,142.08,1.4029e-05,137.03,-4.1906e-06,0.13165,-5.5029e-06,-9.7289,0.36184
808,18.917,4.7795,0.1,8.5025e-06,84.967,8.327e-06,80.541,-2.3157e-06,0.57561,-3.5464e-06,-8.6709,0.41349
809,18.362,5.3861,0.1,1.0134e-05,101.27,9.937e-06,96.155,-2.847e-06,0.10109,-4.1429e-06,-9.6357,0.39636
810,20.045,4.7934,0.1,5.5165e-06,55.127,5.3219e-06,50.533,-1.325e-06,0.59097,-2.5507e-06,-8.6182,0.44834
811,19.488,5.3934,0.1,6.7683e-06,67.636,6.558e-06,62.442,-1.7399e-06,0.095284,-3.0123e-06,-9.4651,0.43109
812,21.175,4.7988,0.1,3.2729e-06,32.706,3.0453e-06,27.854,-5.8182e-07,0.60062,-1.7817e-06,-8.4148,0.4834
813,20.616,5.4,0.1,4.1493e-06,41.465,3.9166e-06,36.15,-8.7991e-07,0.11088,-2.1149e-06,-9.1684,0.46603
814,22.306,4.7975,0.1,1.7747e-06,17.735,1.4851e-06,12.402,-8.5498e-08,0.60078,-1.2292e-06,-7.9924,0.51853
815,21.744,5.3987,0.1,2.25e-06,22.484,1.9765e-06,16.975,-2.6291e-07,0.14955,-1.4222e-06,-8.5606,0.50109
816,22.872,5.3988,0.1,1.0938e-06,10.93,7.492e-07,5.0799,9.3414e-08,0.15254,-9.1795e-07,-7.4464,0.53616
817,23.435,4.7988,0.1,1.0189e-06,10.182,6.4843e-07,4.3018,1.5715e-07,0.61051,-8.8379e-07,-7.2107,0.55366
818,22.309,1.196,0.1,1.7722e-06,17.71,1.4829e-06,12.382,-8.5185e-08,0.60001,-1.2276e-06,-7.984,0.51836
819,23.436,1.1983,0.1,1.0171e-06,10.164,6.4683e-07,4.2863,1.5709e-07,0.60658,-8.826e-07,-7.2052,0.55343
820,22.873,0.59827,0.1,1.0932e-06,10.925,7.5017e-07,5.0994,9.2656e-08,0.15907,-9.1647e-07,-7.4231,0.53584
821,21.178,1.1925,0.1,3.2641e-06,32.619,3.0357e-06,27.752,-5.7788e-07,0.60136,-1.78e-06,-8.4307,0.48324
822,21.746,0.59772,0.1,2.2484e-06,22.469,1.9765e-06,16.982,-2.6527e-07,0.13824,-1.4189e-06,-8.5299,0.50081
823,20.048,1.1869,0.1,5.5067e-06,55.029,5.312e-06,50.433,-1.3223e-06,0.58479,-2.547e-06,-8.6171,0.44817
824,20.617,0.59475,0.1,4.1398e-06,41.37,3.9078e-06,36.073,-8.7728e-07,0.11987,-2.1102e-06,-9.1437,0.46572
825,18.919,1.1839,0.1,8.4926e-06,84.867,8.3168e-06,80.434,-2.3131e-06,0.56595,-3.543e-06,-8.6751,0.41331
826,19.49,0.5922,0.1,6.7633e-06,67.586,6.5545e-06,62.432,-1.7394e-06,0.11454,-3.0074e-06,-9.4127,0.4308
827,17.792,1.183,0.1,1.2209e-05,122.01,1.2046e-05,117.72,-3.5439e-06,0.58678,-4.7704e-06,-8.629,0.37868
828,18.363,0.59166,0.1,1.0119e-05,101.12,9.9236e-06,96.053,-2.8439e-06,0.12359,-4.1327e-06,-9.5604,0.39603
829,16.667,1.181,0.1,1.6658e-05,166.46,1.6506e-05,162.35,-5.0247e-06,0.58097,-6.2244e-06,-8.4336,0.34441
830,17.237,0.59134,0.1,1.4204e-05,141.95,1.402e-05,137.01,-4.199e-06,0.11989,-5.4788e-06,-9.4957,0.36154
831,15.542,1.1783,0.1,2.1837e-05,218.22,2.1697e-05,214.34,-6.7518e-06,0.59124,-7.9073e-06,-8.0901,0.31055
832,16.111,0.58966,0.1,1.9027e-05,190.14,1.8854e-05,185.39,-5.8029e-06,0.12534,-7.0547e-06,-9.2803,0.32742
833,14.417,1.1757,0.1,2.7742e-05,277.23,2.7615e-05,273.68,-8.729e-06,0.60576,-9.8097e-06,-7.5147,0.27725
834,14.986,0.58864,0.1,2.4582e-05,245.65,2.4421e-05,241.15,-7.6506e-06,0.18353,-8.8625e-06,-8.9219,0.29374
835,13.293,1.174,0.1,3.4367e-05,343.43,3.4261e-05,340.43,-1.0961e-05,0.65487,-1.1918e-05,-6.5382,0.24463
836,13.861,0.5871,0.1,3.0871e-05,308.5,3.0726e-05,304.41,-9.7591e-06,0.21813,-1.0882e-05,-8.2221,0.26071
837,12.166,1.174,0.1,4.1724e-05,416.95,4.165e-05,414.83,-1.3469e-05,0.68564,-1.4209e-05,-4.8731,0.21283
838,12.735,0.58689,0.1,3.7891e-05,378.65,3.7771e-05,375.22,-1.2117e-05,0.37832,-1.3117e-05,-7.1336,0.2284
839,11.033,1.1772,0.1,4.9846e-05,498.12,4.982e-05,497.37,-1.6271e-05,0.78333,-1.6678e-05,-2.2718,0.18189
840,11.609,0.58708,0.1,4.5663e-05,456.31,4.5575e-05,453.8,-1.4758e-05,0.47752,-1.5546e-05,-5.4413,0.19704
841,9.8893,1.1825,0.1,5.8717e-05,586.77,5.8743e-05,587.51,-1.9306e-05,1.0843,-1.9398e-05,0.3923,0.15195
842,10.476,0.59012,0.1,5.4172e-05,541.35,5.4133e-05,540.23,-1.765e-05,0.87672,-1.8179e-05,-3.0964,0.16664
843,8.7395,1.1741,0.1,6.8107e-05,680.6,6.8206e-05,683.51,-2.2128e-05,4.7761,-2.2624e-05,1.0513,0.12339
844,9.339,0.59238,0.1,6.3426e-05,633.82,6.3419e-05,633.6,-2.0892e-05,0.13137,-2.0984e-05,-0.56669,0.13754
845,7.622,1.1445,0.1,7.7676e-05,776.22,7.7836e-05,780.98,-2.4976e-05,8.4964,-2.5962e-05,1.0839,0.097332
846,8.1999,0.58172,0.1,7.3039e-05,729.89,7.3071e-05,730.83,-2.3994e-05,1.5215,-2.4148e-05,0.36333,0.10999
847,6.5408,1.0737,0.1,8.6809e-05,867.49,8.7033e-05,874.18,-2.7647e-05,12.519,-2.9185e-05,0.96531,0.073917
848,7.0956,0.56277,0.1,8.2537e-05,824.8,8.2625e-05,827.39,-2.6828e-05,5.0118,-2.7469e-05,0.19319,0.085071
849,5.4524,0.93942,0.1,9.4932e-05,948.66,9.4577e-05,938.62,-3.0193e-05,1.1437,-3.3119e-05,-20.84,0.052318
850,5.9927,0.51098,0.1,9.1525e-05,914.62,9.1731e-05,920.7,-2.9526e-05,9.6262,-3.0464e-05,2.578,0.062144
851,4.3536,0.7696,0.1,9.1758e-05,916.95,9.0363e-05,876.63,-2.9662e-05,-25.191,-3.3594e-05,-54.739,0.03271
852,4.8813,0.42845,0.1,9.7201e-05,971.34,9.6181e-05,941.52,-3.2107e-05,-22.385,-3.4063e-05,-37.083,0.041227
853,1.1772,4.4062,0.1,0.00013821,1381.1,0.00013046,1212.7,-2.7094e-05,28.89,-7.1489e-05,-304.67,0.0016281
854,1.7582,5.2373,0.1,9.3988e-05,939.24,9.1123e-05,888.08,-1.793e-05,68.703,-4.5299e-05,-136.93,0.0028778
855,0.53822,4.8873,0.1,9.0931e-05,908.69,0.00010154,1246,-5.7817e-06,439.69,-2.9506e-05,261.43,0.00031181
856,1.1482,5.4873,0.1,0.00010106,1009.9,9.6213e-05,893.98,-2.3636e-05,-6.516,-4.9118e-05,-197.98,0.0011477
857,4.0338,3.8474,0.1,0.00014092,1408.2,0.00014356,1498.1,-3.2702e-05,173.81,-5.3327e-05,18.846,0.029102
858,4.296,4.2902,0.1,0.00011178,1117,0.00011367,1175.7,-3.0117e-05,95.363,-3.9444e-05,25.283,0.033038
859,1.7055,3.4977,0.1,0.00020285,2027.1,0.00019694,1856.6,-6.641e-05,-122.15,-7.8857e-05,-215.67,0.0041561
860,0.63895,3.7189,0.1,0.00012554,1254.5,0.00013695,1615.6,-1.4283e-05,479.28,-4.2228e-05,269.3,0.00053854
861,3.1854,3.6362,0.1,0.00022305,2229,0.00022048,2156,-7.0041e-05,-26.843,-8.1957e-05,-116.37,0.017126
862,3.114,5.4678,0.1,6.362e-05,635.76,6.556e-05,694.51,-1.6347e-05,79.088,-2.1525e-05,40.181,0.013409
863,3.677,5.7178,0.1,7.4307e-05,742.56,7.3324e-05,715.8,-2.2247e-05,-2.2817,-2.8468e-05,-49.024,0.021485
864,3.205,0.59116,0.1,7.6668e-05,766.15,7.8501e-05,820.06,-2.308e-05,56.819,-2.385e-05,51.037,0.01454
865,3.7679,0.34116,0.1,8.0077e-05,800.21,7.8077e-05,747.06,-2.2823e-05,-11.068,-3.3258e-05,-89.475,0.022605
866,1.9036,1.8998,0.1,0.00019724,1971,0.00020141,2172.4,-2.4916e-05,471.91,-8.611e-05,12.121,0.0045967
867,0.68356,2.9498,0.1,0.00013013,1300.4,0.00013973,1649.4,-5.9709e-06,554.59,-5.1564e-05,212.02,0.00060119
868,1.7669,0.6855,0.1,0.00010666,1065.8,0.00010796,1139.3,-1.6487e-05,204.18,-4.649e-05,-21.246,0.0029166
869,0.54692,1.0355,0.1,9.2256e-05,921.93,0.00010265,1255.4,-5.6531e-06,441.65,-3.0612e-05,254.12,0.00030491
870,1.1569,0.4355,0.1,0.0001095,1094.2,0.00010458,988.98,-2.2245e-05,36.067,-5.4469e-05,-206.05,0.0011398
871,3.1227,1.6925,0.1,0.00016737,1672.5,0.00016861,1711.3,-4.9172e-05,74.904,-5.8507e-05,4.7693,0.015351
872,2.6934,3.7923,0.1,0.00035085,3506.1,0.00034968,3522.7,-8.0589e-05,289.76,-0.00014633,-204.18,0.011208
873,2.2865,2.5788,0.1,0.00035198,3517.4,0.00036223,3827.8,-9.1331e-05,419.87,-0.00011923,210.26,0.007771
874,1.83,6,0,8.4161e-05,841.03,2.825e-05,-31.805,2.4022e-05,-63.565,-8.5739e-05,-888.27,0.0023347
875,0.61,6,0,7.3817e-05,737.66,2.3468e-05,-131.83,1.3561e-05,-206.27,-7.9286e-05,-903.89,0.00022001
876,1.22,6,0.05,2.4732e-06,24.715,1.8991e-06,14.269,-4.0282e-22,-3.0267e-15,-1.8991e-06,-14.269,0.00098336
877,2.44,5.75,0,7.8356e-05,783.02,2.481e-05,-89.992,1.9325e-05,-131.21,-8.2038e-05,-892.81,0.0046104
878,2.44,6,0.05,1.7265e-06,17.253,1.3257e-06,9.9611,-2.8121e-22,-2.1129e-15,-1.3257e-06,-9.9611,0.0042156
879,4.7206e-14,5.4,0,6.5171e-05,651.26,1.875e-06,-606.13,-8.0882e-07,-626.29,-8.6113e-05,-1267.2,0
880,5.2451e-14,6,0.05,3.78e-05,377.74,2.9026e-05,218.09,-6.1568e-21,1.525e-05,-2.9026e-05,-218.09,0
881,1.83,1.5354e-31,0,9.4295e-05,942.3,3.3739e-05,3.822,2.6953e-05,-47.167,-9.4929e-05,-962.94,0.0024544
882,0.61,5.1181e-32,0,7.6887e-05,768.34,2.5696e-05,-133.62,1.2163e-05,-235.31,-8.2656e-05,-947.74,0.00023248
883,1.22,0,0.05,5.2426e-06,52.39,4.0257e-06,30.248,-8.5391e-22,-6.416e-15,-4.0257e-06,-30.248,0.0010125
884,2.44,0.25,0,9.177e-05,917.07,2.6212e-05,-177.58,2.0861e-05,-217.79,-9.843e-05,-1114.1,0.0048949
885,2.44,2.0472e-31,0.05,1.5103e-06,15.093,1.1597e-06,8.7138,-2.46e-22,-1.8483e-15,-1.1597e-06,-8.7138,0.0045135
886,5.2451e-15,0.6,0,6.3119e-05,630.76,2.8206e-06,-586.41,-2.4836e-06,-626.26,-8.3655e-05,-1236.2,0
887,0,0,0.05,2.7589e-05,275.7,2.1185e-05,159.17,5.8548e-14,-3.3763e-14,-2.1185e-05,-159.17,0
888,4.2956,0,0,8.4379e-05,843.21,3.1321e-05,53.74,2.6851e-05,20.155,-8.3072e-05,-805.76,0.030447
889,3.1696,0,0,5.8843e-05,588.03,1.8375e-05,-39.419,1.7573e-05,-45.439,-6.0285e-05,-630.43,0.012764
890,3.7326,0,0.05,2.3777e-06,23.761,1.8258e-06,13.718,-3.8728e-22,-2.9099e-15,-1.8258e-06,-13.718,0.021364
891,5.4216,0,0,9.3807e-05,937.42,3.1695e-05,15.824,3.1155e-05,11.765,-9.3337e-05,-923.62,0.050328
892,4.8586,0,0.05,4.6196e-07,4.6164,3.5473e-07,2.6653,-7.5243e-23,-2.923e-07,-3.5473e-07,-2.6653,0.040078
893,6.5475,0,0,8.7288e-05,872.27,2.894e-05,-0.36789,2.8543e-05,-3.346,-8.735e-05,-874.13,0.072608
894,5.9846,0,0.05,1.3853e-06,13.843,1.0637e-06,7.9923,2.5896e-14,-2.2595e-07,-1.0637e-06,-7.9923,0.061168
895,7.6735,0,0,7.7951e-05,778.97,2.5987e-05,3.022,2.5556e-05,-0.2104,-7.7902e-05,-777.56,0.097092
896,7.1105,0,0.05,1.3667e-06,13.657,1.0494e-06,7.8851,3.3595e-14,6.5056e-07,-1.0494e-06,-7.8851,0.084581
897,8.7995,0,0,6.8413e-05,683.66,2.293e-05,4.4217,2.2383e-05,0.31498,-6.8332e-05,-681.28,0.12354
898,8.2365,0,0.05,1.4525e-06,14.515,1.1153e-06,8.3803,-2.3658e-22,4.7653e-07,-1.1153e-06,-8.3803,0.11008
899,9.9254,0,0,5.8936e-05,588.95,1.9896e-05,5.0345,1.9154e-05,-0.54071,-5.8858e-05,-586.69,0.15172
900,9.3625,0,0.05,1.4581e-06,14.571,1.1197e-06,8.4128,-9.9222e-22,1.0513e-06,-1.1197e-06,-8.4128,0.13742
901,11.051,0,0,5.0047e-05,500.12,1.7097e-05,6.6423,1.6138e-05,-0.5648,-4.9939e-05,-497.04,0.18136
902,10.488,0,0.05,1.4055e-06,14.045,1.0792e-06,8.109,1.5731e-17,9.5366e-07,-1.0792e-06,-8.109,0.16636
903,12.177,0,0,4.1891e-05,418.62,1.4507e-05,8.1,1.3407e-05,-0.16834,-4.175e-05,-414.59,0.21226
904,11.614,0,0.05,1.333e-06,13.321,1.0236e-06,7.691,-2.1712e-22,9.5272e-07,-1.0236e-06,-7.691,0.19666
905,13.303,0,0,3.4457e-05,344.34,1.2136e-05,9.2276,1.0916e-05,0.057738,-3.429e-05,-339.6,0.24419
906,12.74,0,0.05,1.2443e-06,12.434,9.5547e-07,7.179,2.2734e-13,9.5352e-07,-9.5547e-07,-7.179,0.2281
907,14.429,0,0,2.7774e-05,277.55,9.9907e-06,10.046,8.6805e-06,0.20234,-2.7587e-05,-272.3,0.27697
908,13.866,0,0.05,1.1289e-06,11.281,8.6686e-07,6.5133,-5.7829e-22,1.908e-06,-8.6686e-07,-6.5133,0.26048
909,15.555,0,0,2.1836e-05,218.21,8.0661e-06,10.534,6.7014e-06,0.28019,-2.1634e-05,-212.62,0.31043
910,14.992,0,0.05,1.006e-06,10.053,7.7248e-07,5.8041,3.1858e-16,2.3852e-06,-7.7248e-07,-5.8041,0.29362
911,16.681,0,0,1.6637e-05,166.26,6.3649e-06,10.762,4.977e-06,0.33374,-1.6424e-05,-160.46,0.34442
912,16.118,0,0.05,8.8076e-07,8.8015,6.7632e-07,5.0816,1.14e-13,2.6776e-06,-6.7631e-07,-5.0816,0.32736
913,17.807,0,0,1.2177e-05,121.69,4.896e-06,10.84,3.4987e-06,0.34069,-1.1953e-05,-115.75,0.37879
914,17.244,0,0.05,7.5527e-07,7.5474,5.7995e-07,4.3575,-5.8908e-23,2.6217e-06,-5.7995e-07,-4.3575,0.36156
915,18.933,0,0,8.4515e-06,84.457,3.6521e-06,10.711,2.2696e-06,0.32352,-8.2157e-06,-78.459,0.41346
916,18.37,0,0.05,6.327e-07,6.3226,4.8583e-07,3.6504,1.6532e-13,2.2688e-06,-4.8583e-07,-3.6504,0.39609
917,20.059,0,0,5.4562e-06,54.525,2.6258e-06,10.355,1.2936e-06,0.34484,-5.2048e-06,-48.481,0.4483
918,19.496,0,0.05,5.0759e-07,5.0724,3.8977e-07,2.9286,1.7835e-13,3.1026e-06,-3.8977e-07,-2.9285,0.43086
919,21.185,0,0,3.1792e-06,31.77,1.8058e-06,9.6685,5.6396e-07,0.33791,-2.9044e-06,-25.722,0.48326
920,20.622,0,0.05,3.7882e-07,3.7856,2.9089e-07,2.1856,1.9916e-13,3.2212e-06,-2.9089e-07,-2.1856,0.46577
921,22.311,0,0,1.6122e-06,16.111,1.1674e-06,8.417,8.6212e-08,0.29355,-1.3022e-06,-10.138,0.51828
922,21.748,0,0.05,2.4711e-07,2.4694,1.8975e-07,1.4257,2.3347e-13,3.0009e-06,-1.8975e-07,-1.4257,0.50076
923,23.437,0,0,7.275e-07,7.27,6.8188e-07,6.3548,-1.2031e-07,0.32744,-3.927e-07,-1.7192,0.55331
924,22.874,0,0.05,1.3496e-07,1.3487,1.0364e-07,0.77868,3.023e-13,4.4963e-06,-1.0364e-07,-0.77868,0.53579
925,2.6067,0.25,0,5.9113e-05,590.72,1.8603e-05,-107.53,1.102e-05,-164.5,-6.3534e-05,-724.67,0.0050869
926,2.6067,0,0.05,3.6948e-06,36.923,2.8372e-06,21.317,-6.0181e-22,-4.5217e-15,-2.8372e-06,-21.317,0.004431
927,24,0.6,0,6.2833e-07,6.2789,6.1331e-07,5.8762,-1.8126e-07,-0.093881,-2.5816e-07,-0.67165,0.5709
928,24,0,0.05,2.6923e-08,0.26904,2.0673e-08,0.15533,8.3348e-13,7.572e-06,-2.0674e-08,-0.15533,0.57083
929,3.6716e-14,4.2,0,8.525e-05,851.91,3.7836e-06,-808.82,-4.9001e-06,-874.07,-0.00011369,-1691.5,0
930,4.2529e-14,4.8,0.05,1.6861e-05,168.5,1.2947e-05,97.281,1.0964e-13,7.1535e-07,-1.2947e-05,-97.281,0
931,2.6226e-14,3,0,8.7457e-05,873.96,9.0231e-07,-865.34,-3.1186e-06,-895.55,-0.00011737,-1754,0
932,3.1897e-14,3.6,0.05,1.0687e-05,106.8,8.2064e-06,61.659,1.0748e-13,6.8583e-06,-8.2064e-06,-61.659,0
933,1.5735e-14,1.8,0,8.2571e-05,825.14,3.6568e-07,-800.61,-5.9517e-07,-807.83,-0.00010993,-1629.3,0
934,2.1264e-14,2.4,0.05,5.9912e-06,59.871,4.6005e-06,34.566,3.2206e-13,6.8931e-07,-4.6005e-06,-34.566,0
935,1.0632e-14,1.2,0.05,8.5141e-06,85.083,6.5378e-06,49.123,-1.2845e-13,2.6831e-06,-6.5378e-06,-49.122,0
936,24,1.8,0,1.0335e-06,10.328,9.6361e-07,8.4653,-2.8837e-07,-0.94157,-5.0724e-07,-2.5861,0.57103
937,24,1.2,0.05,5.2647e-08,0.5261,4.0426e-08,0.30375,1.8415e-13,3.2343e-06,-4.0426e-08,-0.30374,0.57097
938,24,3,0,1.2412e-06,12.403,1.1577e-06,10.132,-3.637e-07,-1.2993,-5.9745e-07,-3.0556,0.57114
939,24,2.4,0.05,5.577e-08,0.55731,4.2824e-08,0.32177,1.7956e-13,2.9287e-06,-4.2824e-08,-0.32176,0.57109
940,24,4.2,0,1.0344e-06,10.337,9.6334e-07,8.447,-2.8745e-07,-0.95092,-5.1012e-07,-2.624,0.57121
941,24,3.6,0.05,5.529e-08,0.55251,4.2456e-08,0.319,1.7462e-13,2.8926e-06,-4.2456e-08,-0.31899,0.57117
942,24,5.4,0,6.2918e-07,6.2875,6.1368e-07,5.8728,-1.8084e-07,-0.09696,-2.5982e-07,-0.69044,0.57125
943,24,4.8,0.05,5.2428e-08,0.52392,4.0258e-08,0.30249,1.8558e-13,3.6145e-06,-4.0258e-08,-0.30248,0.57123
944,23.437,6,0,7.2799e-07,7.2749,6.8289e-07,6.3718,-1.2068e-07,0.33409,-3.9207e-07,-1.705,0.55374
945,24,6,0.05,2.8109e-08,0.2809,2.1584e-08,0.16217,8.8999e-13,8.1024e-06,-2.1585e-08,-0.16218,0.57126
946,22.311,6,0,1.6122e-06,16.111,1.1709e-06,8.4654,8.2757e-08,0.28933,-1.2993e-06,-10.095,0.51871
947,22.874,6,0.05,1.345e-07,1.3441,1.0328e-07,0.77599,3.1333e-13,4.3143e-06,-1.0328e-07,-0.77599,0.53622
948,21.185,6,0,3.1823e-06,31.801,1.8128e-06,9.7461,5.6035e-07,0.33532,-2.9046e-06,-25.699,0.4837
949,21.748,6,0.05,2.4686e-07,2.4669,1.8956e-07,1.4243,2.2737e-13,3.4018e-06,-1.8956e-07,-1.4242,0.5012
950,20.059,6,0,5.4626e-06,54.589,2.6331e-06,10.44,1.2942e-06,0.38019,-5.2085e-06,-48.479,0.44874
951,20.622,6,0.05,3.8275e-07,3.8249,2.9391e-07,2.2083,2.2737e-13,3.0119e-06,-2.9391e-07,-2.2083,0.4662
952,18.933,6,0,8.4682e-06,84.623,3.6687e-06,10.88,2.2708e-06,0.3766,-8.2276e-06,-78.505,0.41389
953,19.496,6,0.05,5.0886e-07,5.0851,3.9074e-07,2.9359,1.707e-13,2.812e-06,-3.9074e-07,-2.9359,0.43129
954,17.807,6,0,1.2201e-05,121.93,4.9341e-06,11.208,3.4875e-06,0.33917,-1.1968e-05,-115.79,0.37923
955,18.37,6,0.05,6.3717e-07,6.3673,4.8926e-07,3.6761,1.1756e-13,2.7431e-06,-4.8926e-07,-3.6761,0.39653
956,16.681,6,0,1.6655e-05,166.43,6.416e-06,11.285,4.9519e-06,0.28525,-1.6431e-05,-160.38,0.34485
957,17.244,6,0.05,7.3486e-07,7.3435,5.6428e-07,4.2398,2.2715e-13,2.1195e-06,-5.6428e-07,-4.2398,0.36199
958,15.555,6,0,2.1849e-05,218.33,8.1159e-06,11.076,6.6767e-06,0.2631,-2.1636e-05,-212.46,0.31086
959,16.118,6,0.05,8.3157e-07,8.3099,6.3854e-07,4.7977,-5.3425e-15,2.1445e-06,-6.3854e-07,-4.7977,0.3278
960,14.429,6,0,2.779e-05,277.71,1.0038e-05,10.56,8.6594e-06,0.19906,-2.7592e-05,-272.18,0.2774
961,14.992,6,0.05,9.4192e-07,9.4127,7.2328e-07,5.4344,4.5475e-13,1.9096e-06,-7.2328e-07,-5.4344,0.29406
962,13.303,6,0,3.4473e-05,344.49,1.2177e-05,9.6371,1.0896e-05,0.012498,-3.4299e-05,-339.57,0.24462
963,13.866,6,0.05,1.0529e-06,10.521,8.0847e-07,6.0745,1.4508e-16,1.4313e-06,-8.0847e-07,-6.0745,0.26092
964,12.177,6,0,4.1877e-05,418.48,1.4478e-05,7.804,1.3417e-05,-0.16936,-4.1741e-05,-414.6,0.21269
965,12.74,6,0.05,1.1512e-06,11.504,8.84e-07,6.6421,-1.8751e-22,1.3972e-06,-8.84e-07,-6.6421,0.22854
966,11.051,6,0,5.0042e-05,500.07,1.6977e-05,5.1905,1.6204e-05,-0.61802,-4.9962e-05,-497.76,0.1818
967,11.614,6,0.05,1.2475e-06,12.466,9.5792e-07,7.1975,2.2474e-13,1.4521e-06,-9.5792e-07,-7.1975,0.1971
968,9.9254,6,0,5.9054e-05,590.13,1.9835e-05,3.7264,1.9242e-05,-0.73244,-5.9002e-05,-588.62,0.15215
969,10.488,6,0.05,1.375e-06,13.74,1.0558e-06,7.9331,-2.2396e-22,9.7571e-07,-1.0558e-06,-7.9331,0.1668
970,8.7995,6,0,6.8527e-05,684.79,2.293e-05,1.0929,2.2178e-05,-4.5571,-6.8584e-05,-686.51,0.12398
971,9.3625,6,0.05,1.4008e-06,13.998,1.0756e-06,8.0819,-8.2865e-16,9.5366e-07,-1.0756e-06,-8.0819,0.13786
972,7.6735,6,0,7.8437e-05,783.83,2.5946e-05,-1.8423,2.5612e-05,-4.3498,-7.8542e-05,-786.92,0.097548
973,8.2365,6,0.05,8.8528e-07,8.8467,6.7978e-07,5.1076,-3.435e-14,1.3971e-06,-6.7978e-07,-5.1076,0.11053
974,6.5475,6,0,8.7728e-05,876.67,2.9383e-05,7.0355,2.8862e-05,3.1171,-8.7554e-05,-871.59,0.073093
975,7.1105,6,0.05,1.3191e-06,13.182,1.0129e-06,7.6108,-2.1486e-22,-2.9953e-07,-1.0129e-06,-7.6108,0.085047
976,5.4216,6,0,9.1828e-05,917.65,3.3247e-05,38.091,2.878e-05,4.5287,-9.1057e-05,-895.88,0.050864
977,5.9846,6,0.05,1.0727e-06,10.72,8.2373e-07,6.1892,-1.7473e-22,6.6108e-08,-8.2373e-07,-6.1892,0.061681
978,4.2956,6,0,8.1398e-05,813.42,2.9582e-05,39.486,2.5849e-05,11.433,-8.0495e-05,-787.59,0.030939
979,4.8586,6,0.05,2.2849e-06,22.833,1.7545e-06,13.183,-3.7216e-22,1.4076e-07,-1.7545e-06,-13.183,0.040605
980,3.1696,6,0,5.5966e-05,559.28,1.9377e-05,-32.365,1.3878e-05,-73.681,-5.7656e-05,-611.16,0.01318
981,3.7326,6,0.05,1.5965e-06,15.954,1.2259e-06,9.2108,2.1657e-13,-1.9538e-15,-1.2259e-06,-9.2108,0.021824
982,2.6067,5.75,0,4.7194e-05,471.62,1.764e-05,-82.452,3.7798e-06,-186.59,-5.09e-05,-597.44,0.0053951
983,2.6067,6,0.05,4.7838e-06,47.805,3.6734e-06,27.6,-7.7918e-22,-5.8544e-15,-3.6734e-06,-27.6,0.0047871
984,2.44,1.25,0,0.00019192,1917.9,6.2557e-05,-380.67,2.8722e-05,-634.89,-0.00020793,-2413,0.0064662
985,2.44,1.75,0,0.0003497,3494.5,0.00012503,-436.1,5.6774e-05,-948.94,-0.00037042,-4158.7,0.0074851
986,2.44,1.5,0.05,2.5529e-05,255.11,1.9603e-05,147.29,-4.1581e-21,-7.6867e-06,-1.9603e-05,-147.29,0.0069396
987,2.44,0.75,0,0.00012631,1262.2,4.32e-05,-241.61,1.5919e-05,-446.59,-0.00013676,-1593.8,0.0056289
988,2.44,1,0.05,1.1496e-05,114.88,8.8272e-06,66.324,-1.8724e-21,-1.2405e-06,-8.8272e-06,-66.324,0.0060237
989,2.44,0.5,0.05,8.744e-06,87.38,6.7143e-06,50.449,-1.4242e-21,-1.0701e-14,-6.7143e-06,-50.449,0.0052512
990,2.5233,2,0,0.00041547,4151.9,0.00015847,-379.7,6.213e-05,-1103.6,-0.00043594,-4845.9,0.0087818
991,2.44,2,0.05,3.3637e-05,336.14,2.5829e-05,194.07,6.6517e-13,3.9531e-05,-2.5829e-05,-194.07,0.0080351
992,2.6067,0.75,0,0.00010622,1061.5,3.2329e-05,-117.93,2.8845e-05,-144.11,-0.00011065,-1192.3,0.0063055
993,2.6067,0.5,0.05,8.7822e-06,87.761,6.7436e-06,50.669,-1.4304e-21,-1.0748e-14,-6.7436e-06,-50.669,0.0056408
994,2.6067,1.25,0,0.00018382,1837,6.5524e-05,-12.74,5.108e-05,-121.26,-0.00018586,-1901.5,0.0076022
995,2.6067,1,0.05,1.5561e-05,155.51,1.1949e-05,89.782,1.8095e-12,-3.5938e-14,-1.1949e-05,-89.782,0.0069036
996,2.6067,1.75,0,0.00031222,3120,9.9321e-05,-242.37,8.7044e-05,-334.62,-0.00032193,-3407.5,0.0089427
997,2.6067,1.5,0.05,2.7069e-05,270.51,2.0786e-05,156.18,-4.409e-21,7.4945e-06,-2.0786e-05,-156.18,0.0082425
998,2.6067,2,0.05,1.817e-05,181.58,1.3953e-05,104.83,-2.9595e-21,1.5086e-05,-1.3953e-05,-104.83,0.0095709
999,2.44,4.75,0,8.8693e-05,886.32,4.8901e-05,302.02,2.224e-05,101.7,-8.0109e-05,-667.31,0.0062963
1000,2.44,4.25,0,0.00023183,2316.7,0.00014686,731.39,8.5371e-06,-307.91,-0.00020641,-1923,0.0075315
1001,2.44,4.5,0.05,0.00012365,1235.7,9.4951e-05,713.43,-2.0141e-20,-1.5133e-13,-9.4951e-05,-713.43,0.0068377
1002,2.44,5.25,0,5.4152e-05,541.15,2.0043e-05,4.6243,1.4522e-05,-36.858,-5.4581e-05,-556.07,0.0054069
1003,2.44,5,0.05,2.4032e-05,240.16,1.8454e-05,138.65,-3.9143e-21,-5.2124e-06,-1.8454e-05,-138.65,0.0058315
1004,2.44,5.5,0.05,1.2865e-05,128.56,9.8786e-06,74.224,1.1507e-13,1.9305e-06,-9.8786e-06,-74.224,0.0050003
1005,2.5233,4,0,0.00032458,3243.6,0.000133,23.846,6.2745e-05,-504.05,-0.00032951,-3451.3,0.0090066
1006,2.44,4,0.05,8.5469e-05,854.1,6.5629e-05,493.11,-1.3921e-20,-1.046e-13,-6.5629e-05,-493.11,0.0082382
1007,2.6067,5.25,0,7.2058e-05,720.08,2.3655e-05,-86.521,1.5923e-05,-144.62,-7.5814e-05,-833.9,0.006523
1008,2.6067,5.5,0.05,7.8783e-06,78.728,6.0495e-06,45.454,-1.2832e-21,-3.5187e-15,-6.0495e-06,-45.454,0.0059062
1009,2.6067,4.75,0,0.00016624,1661.2,9.3231e-05,441.32,2.5131e-05,-70.35,-0.0001539,-1415.5,0.0077637
1010,2.6067,5,0.05,1.3281e-05,132.72,1.0198e-05,76.626,-2.1632e-21,-1.6254e-14,-1.0198e-05,-76.626,0.0070856
1011,2.6067,4.25,0,0.00031441,3141.9,0.00015105,387.2,5.3644e-05,-344.65,-0.00030722,-3056.1,0.009189
1012,2.6067,4.5,0.05,5.092e-05,508.85,3.91e-05,293.78,-2.4419e-20,-6.2316e-14,-3.91e-05,-293.78,0.0084236
1013,2.6067,4,0.05,1.0656e-05,106.49,8.1824e-06,61.48,-1.7356e-21,1.2371e-05,-8.1824e-06,-61.48,0.0098329
1014,2.6067,5.25,0.1,7.2058e-05,720.08,7.5814e-05,833.9,-1.5923e-05,144.62,-2.3655e-05,86.521,0.006523
1015,2.6067,5.75,0.1,4.7194e-05,471.62,5.09e-05,597.44,-3.7798e-06,186.59,-1.764e-05,82.452,0.0053951
1016,2.6067,4.75,0.1,0.00016624,1661.2,0.0001539,1415.5,-2.5131e-05,70.35,-9.3231e-05,-441.32,0.0077637
1017,2.6067,4.25,0.1,0.00031441,3141.9,0.00030722,3056.1,-5.3644e-05,344.65,-0.00015105,-387.2,0.009189
1018,2.5233,4,0.1,0.00032458,3243.6,0.00032951,3451.3,-6.2745e-05,504.05,-0.000133,-23.846,0.0090066
1019,2.44,4.25,0.1,0.00023183,2316.7,0.00020641,1923,-8.5371e-06,307.91,-0.00014686,-731.39,0.0075315
1020,2.44,4.75,0.1,8.8693e-05,886.32,8.0109e-05,667.31,-2.224e-05,-101.7,-4.8901e-05,-302.02,0.0062963
1021,2.44,5.25,0.1,5.4152e-05,541.15,5.4581e-05,556.07,-1.4522e-05,36.858,-2.0043e-05,-4.6243,0.0054069
1022,2.44,5.75,0.1,7.8356e-05,783.02,8.2038e-05,892.81,-1.9325e-05,131.21,-2.481e-05,89.992,0.0046104
1023,2.6067,0.75,0.1,0.00010622,1061.5,0.00011065,1192.3,-2.8845e-05,144.11,-3.2329e-05,117.93,0.0063055
1024,2.6067,0.25,0.1,5.9113e-05,590.72,6.3534e-05,724.67,-1.102e-05,164.5,-1.8603e-05,107.53,0.0050869
1025,2.6067,1.25,0.1,0.00018382,1837,0.00018586,1901.5,-5.108e-05,121.26,-6.5524e-05,12.74,0.0076022
1026,2.6067,1.75,0.1,0.00031222,3120,0.00032193,3407.5,-8.7044e-05,334.62,-9.9321e-05,242.37,0.0089427
1027,2.5233,2,0.1,0.00041547,4151.9,0.00043594,4845.9,-6.213e-05,1103.6,-0.00015847,379.7,0.0087818
1028,2.44,1.75,0.1,0.0003497,3494.5,0.00037042,4158.7,-5.6774e-05,948.94,-0.00012503,436.1,0.0074851
1029,2.44,1.25,0.1,0.00019192,1917.9,0.00020793,2413,-2.8722e-05,634.89,-6.2557e-05,380.67,0.0064662
1030,2.44,0.75,0.1,0.00012631,1262.2,0.00013676,1593.8,-1.5919e-05,446.59,-4.32e-05,241.61,0.0056289
1031,2.44,0.25,0.1,9.177e-05,917.07,9.843e-05,1114.1,-2.0861e-05,217.79,-2.6212e-05,177.58,0.0048949
1032,3.1696,6,0.1,5.5966e-05,559.28,5.7656e-05,611.16,-1.3878e-05,73.681,-1.9377e-05,32.365,0.01318
1033,4.2956,6,0.1,8.1398e-05,813.42,8.0495e-05,787.59,-2.5849e-05,-11.433,-2.9582e-05,-39.486,0.030939
1034,5.4216,6,0.1,9.1828e-05,917.65,9.1057e-05,895.88,-2.878e-05,-4.5287,-3.3247e-05,-38.091,0.050864
1035,6.5475,6,0.1,8.7728e-05,876.67,8.7554e-05,871.59,-2.8862e-05,-3.1171,-2.9383e-05,-7.0355,0.073093
1036,7.6735,6,0.1,7.8437e-05,783.83,7.8542e-05,786.92,-2.5612e-05,4.3498,-2.5946e-05,1.8423,0.097548
1037,8.7995,6,0.1,6.8527e-05,684.79,6.8584e-05,686.51,-2.2178e-05,4.5571,-2.293e-05,-1.0929,0.12398
1038,9.9254,6,0.1,5.9054e-05,590.13,5.9002e-05,588.62,-1.9242e-05,0.73244,-1.9835e-05,-3.7264,0.15215
1039,11.051,6,0.1,5.0042e-05,500.07,4.9962e-05,497.76,-1.6204e-05,0.61802,-1.6977e-05,-5.1905,0.1818
1040,12.177,6,0.1,4.1877e-05,418.48,4.1741e-05,414.6,-1.3417e-05,0.16936,-1.4478e-05,-7.804,0.21269
1041,13.303,6,0.1,3.4473e-05,344.49,3.4299e-05,339.57,-1.0896e-05,-0.012498,-1.2177e-05,-9.6371,0.24462
1042,14.429,6,0.1,2.779e-05,277.71,2.7592e-05,272.18,-8.6594e-06,-0.19906,-1.0038e-05,-10.56,0.2774
1043,15.555,6,0.1,2.1849e-05,218.33,2.1636e-05,212.46,-6.6767e-06,-0.2631,-8.1159e-06,-11.076,0.31086
1044,16.681,6,0.1,1.6655e-05,166.43,1.6431e-05,160.38,-4.9519e-06,-0.28525,-6.416e-06,-11.285,0.34485
1045,17.807,6,0.1,1.2201e-05,121.93,1.1968e-05,115.79,-3.4875e-06,-0.33917,-4.9341e-06,-11.208,0.37923
1046,18.933,6,0.1,8.4682e-06,84.623,8.2276e-06,78.505,-2.2708e-06,-0.37661,-3.6687e-06,-10.88,0.41389
1047,20.059,6,0.1,5.4626e-06,54.589,5.2085e-06,48.479,-1.2942e-06,-0.38019,-2.6331e-06,-10.44,0.44874
1048,21.185,6,0.1,3.1823e-06,31.801,2.9046e-06,25.699,-5.6035e-07,-0.33532,-1.8128e-06,-9.7461,0.4837
1049,22.311,6,0.1,1.6122e-06,16.111,1.2993e-06,10.095,-8.2757e-08,-0.28933,-1.1709e-06,-8.4653,0.51871
1050,23.437,6,0.1,7.2799e-07,7.2749,3.9207e-07,1.705,1.2068e-07,-0.33409,-6.8289e-07,-6.3718,0.55374
1051,24,5.4,0.1,6.2918e-07,6.2875,2.5983e-07,0.69045,1.8084e-07,0.096961,-6.1368e-07,-5.8728,0.57125
1052,24,4.2,0.1,1.0344e-06,10.337,5.1012e-07,2.624,2.8745e-07,0.95092,-9.6334e-07,-8.447,0.57121
1053,24,3,0.1,1.2412e-06,12.403,5.9745e-07,3.0556,3.637e-07,1.2993,-1.1577e-06,-10.132,0.57114
1054,24,1.8,0.1,1.0335e-06,10.328,5.0724e-07,2.5861,2.8837e-07,0.94157,-9.6361e-07,-8.4653,0.57103
1055,24,0.6,0.1,6.2833e-07,6.2789,2.5816e-07,0.67165,1.8126e-07,0.093881,-6.1331e-07,-5.8762,0.5709
1056,1.5735e-14,1.8,0.1,8.2571e-05,825.14,0.00010993,1629.3,5.9517e-07,807.83,-3.6568e-07,800.61,0
1057,5.2451e-15,0.6,0.1,6.3119e-05,630.76,8.3655e-05,1236.2,2.4836e-06,626.26,-2.8206e-06,586.41,0
1058,2.6226e-14,3,0.1,8.7457e-05,873.96,0.00011737,1754,3.1186e-06,895.55,-9.0231e-07,865.34,0
1059,3.6716e-14,4.2,0.1,8.525e-05,851.91,0.00011369,1691.5,4.9001e-06,874.07,-3.7836e-06,808.82,0
1060,4.7206e-14,5.4,0.1,6.5171e-05,651.26,8.6113e-05,1267.2,8.0882e-07,626.29,-1.875e-06,606.13,0
1061,23.437,0,0.1,7.275e-07,7.27,3.927e-07,1.7192,1.2031e-07,-0.32744,-6.8188e-07,-6.3548,0.55331
1062,22.311,0,0.1,1.6122e-06,16.111,1.3022e-06,10.138,-8.6212e-08,-0.29355,-1.1674e-06,-8.417,0.51828
1063,21.185,0,0.1,3.1792e-06,31.77,2.9044e-06,25.722,-5.6396e-07,-0.33791,-1.8058e-06,-9.6685,0.48326
1064,20.059,0,0.1,5.4562e-06,54.525,5.2048e-06,48.481,-1.2936e-06,-0.34484,-2.6258e-06,-10.355,0.4483
1065,18.933,0,0.1,8.4515e-06,84.457,8.2157e-06,78.459,-2.2696e-06,-0.32352,-3.6521e-06,-10.711,0.41346
1066,17.807,0,0.1,1.2177e-05,121.69,1.1953e-05,115.75,-3.4987e-06,-0.34069,-4.896e-06,-10.84,0.37879
1067,16.681,0,0.1,1.6637e-05,166.26,1.6424e-05,160.46,-4.977e-06,-0.33374,-6.3649e-06,-10.762,0.34442
1068,15.555,0,0.1,2.1836e-05,218.21,2.1634e-05,212.62,-6.7014e-06,-0.28019,-8.0661e-06,-10.534,0.31043
1069,14.429,0,0.1,2.7774e-05,277.55,2.7587e-05,272.3,-8.6805e-06,-0.20234,-9.9907e-06,-10.046,0.27697
1070,13.303,0,0.1,3.4457e-05,344.34,3.429e-05,339.6,-1.0916e-05,-0.057738,-1.2136e-05,-9.2276,0.24419
1071,12.177,0,0.1,4.1891e-05,418.62,4.175e-05,414.59,-1.3407e-05,0.16834,-1.4507e-05,-8.1,0.21226
1072,11.051,0,0.1,5.0047e-05,500.12,4.9939e-05,497.04,-1.6138e-05,0.5648,-1.7097e-05,-6.6423,0.18136
1073,9.9254,0,0.1,5.8936e-05,588.95,5.8858e-05,586.69,-1.9154e-05,0.54071,-1.9896e-05,-5.0345,0.15172
1074,8.7995,0,0.1,6.8413e-05,683.66,6.8332e-05,681.28,-2.2383e-05,-0.31498,-2.293e-05,-4.4217,0.12354
1075,7.6735,0,0.1,7.7951e-05,778.97,7.7902e-05,777.56,-2.5556e-05,0.2104,-2.5987e-05,-3.022,0.097092
1076,6.5475,0,0.1,8.7288e-05,872.27,8.735e-05,874.13,-2.8543e-05,3.346,-2.894e-05,0.36789,0.072608
1077,5.4216,0,0.1,9.3807e-05,937.42,9.3337e-05,923.62,-3.1155e-05,-11.765,-3.1695e-05,-15.824,0.050328
1078,4.2956,0,0.1,8.4379e-05,843.21,8.3072e-05,805.76,-2.6851e-05,-20.155,-3.1321e-05,-53.74,0.030447
1079,3.1696,0,0.1,5.8843e-05,588.03,6.0285e-05,630.43,-1.7573e-05,45.439,-1.8375e-05,39.419,0.012764
1080,1.83,1.5354e-31,0.1,9.4295e-05,942.3,9.4929e-05,962.94,-2.6953e-05,47.167,-3.3739e-05,-3.822,0.0024544
1081,0.61,5.1181e-32,0.1,7.6887e-05,768.34,8.2656e-05,947.74,-1.2163e-05,235.31,-2.5696e-05,133.62,0.00023248
1082,0.61,6,0.1,7.3817e-05,737.66,7.9286e-05,903.89,-1.3561e-05,206.27,-2.3468e-05,131.83,0.00022001
1083,1.83,6,0.1,8.4161e-05,841.03,8.5739e-05,888.27,-2.4022e-05,63.565,-2.825e-05,31.805,0.0023347
