Node Number	X Location (in)	Y Location (in)	Z Location (in)	Equivalent (von-Mises) Stress (psi)
1	7.4522	2.6951	0.	5921.5
2	8.6166	3.2622	0.	5845.
3	9.0079	1.3946	0.	3837.7
4	7.368	1.4779	0.	4608.8
5	6.3523	2.5837	0.	5402.7
6	9.705	3.3268	0.	4371.8
7	6.9158	0.57993	0.	3021.
8	9.1404	0.53844	0.	2686.1
9	7.0074	4.713	0.	4518.4
10	9.2945	5.3708	0.	2388.2
11	7.1807	5.3965	0.	3171.8
12	5.8262	0.83672	0.	4298.5
13	6.2481	3.4037	0.	5054.1
14	6.2069	5.1992	0.	3932.1
15	5.204	4.687	0.	4515.
16	3.7312	4.7379	0.	5053.7
17	1.2158	4.7829	0.	5680.4
18	1.1811	1.2087	0.	5666.4
19	2.3728	1.204	0.	5284.6
20	3.5867	1.1853	0.	5098.5
21	4.8057	1.1109	0.	4743.6
22	10.05	0.7779	0.	2673.9
23	10.899	1.2958	0.	2984.1
24	12.374	1.2023	0.	2725.3
25	13.656	1.2101	0.	2359.5
26	14.86	1.2116	0.	2071.2
27	16.03	1.2197	0.	1784.7
28	17.179	1.224	0.	1510.9
29	18.315	1.219	0.	1247.4
30	19.453	1.2085	0.	991.67
31	20.593	1.1989	0.	743.91
32	21.73	1.1942	0.	507.69
33	22.864	1.1954	0.	290.3
34	1.241	3.5929	0.	5968.7
35	1.224	2.4098	0.	5974.
36	22.855	2.3937	0.	321.82
37	22.856	3.6022	0.	321.67
38	22.858	4.8089	0.	291.52
39	21.724	4.7972	0.	509.12
40	20.584	4.7977	0.	745.05
41	19.456	4.8075	0.	990.23
42	18.332	4.8346	0.	1244.7
43	17.182	4.8217	0.	1510.9
44	16.03	4.8117	0.	1784.6
45	14.869	4.7951	0.	2065.2
46	13.695	4.7804	0.	2351.4
47	12.511	4.7815	0.	2646.
48	11.429	4.8759	0.	2882.4
49	10.307	5.0896	0.	2986.
50	5.0839	3.4509	0.	4607.1
51	3.8191	3.5133	0.	4868.9
52	2.5109	3.58	0.	5047.7
53	2.4605	2.3935	0.	5073.8
54	3.7323	2.349	0.	4865.9
55	11.014	2.406	0.	2999.2
56	12.301	2.3789	0.	2690.
57	13.584	2.3962	0.	2361.
58	14.822	2.4088	0.	2062.6
59	16.	2.4269	0.	1778.7
60	17.154	2.4353	0.	1508.9
61	18.298	2.4281	0.	1246.9
62	19.443	2.4112	0.	993.85
63	20.586	2.3975	0.	752.34
64	21.719	2.398	0.	525.89
65	21.709	3.596	0.	527.61
66	20.577	3.5926	0.	753.61
67	19.437	3.6111	0.	994.44
68	18.304	3.6243	0.	1246.6
69	17.162	3.6271	0.	1507.6
70	16.	3.6158	0.	1779.2
71	14.824	3.606	0.	2059.8
72	13.608	3.5851	0.	2351.9
73	11.029	3.655	0.	2924.3
74	5.0795	2.226	0.	4459.9
75	12.357	3.5712	0.	2657.6
76	9.119	4.8144	0.	2932.3
77	8.8956	4.4129	0.	3698.6
78	9.3334	3.9288	0.	3967.3
79	7.0564	1.0852	0.	3358.5
80	6.7878	1.9714	0.	4514.8
81	2.446	4.765	0.	5249.6
82	7.3644	5.0428	0.	2810.9
83	6.4932	4.123	0.	4626.6
84	8.8314	1.006	0.	2433.7
85	9.5568	1.8446	0.	3617.6
86	8.6585	2.6429	0.	5703.
87	7.4615	3.3243	0.	5877.4
88	9.7733	2.5478	0.	4169.
89	6.1507	1.5064	0.	4748.5
90	10.07	4.3763	0.	3394.4
91	10.07	4.3763	0.1	3394.4
92	6.1507	1.5064	0.1	4748.5
93	9.7733	2.5478	0.1	4169.
94	7.4615	3.3243	0.1	5877.4
95	8.6585	2.6429	0.1	5703.
96	9.5568	1.8446	0.1	3617.6
97	8.8314	1.006	0.1	2433.7
98	6.4932	4.123	0.1	4626.6
99	7.3644	5.0428	0.1	2810.9
100	2.446	4.765	0.1	5249.6
101	6.7878	1.9714	0.1	4514.8
102	7.0564	1.0852	0.1	3358.5
103	9.3334	3.9288	0.1	3967.3
104	8.8956	4.4129	0.1	3698.6
105	9.119	4.8144	0.1	2932.3
106	12.357	3.5712	0.1	2657.6
107	5.0795	2.226	0.1	4459.9
108	11.029	3.655	0.1	2924.3
109	13.608	3.5851	0.1	2351.9
110	14.824	3.606	0.1	2059.8
111	16.	3.6158	0.1	1779.2
112	17.162	3.6271	0.1	1507.6
113	18.304	3.6243	0.1	1246.6
114	19.437	3.6111	0.1	994.44
115	20.577	3.5926	0.1	753.61
116	21.709	3.596	0.1	527.61
117	21.719	2.398	0.1	525.89
118	20.586	2.3975	0.1	752.34
119	19.443	2.4112	0.1	993.85
120	18.298	2.4281	0.1	1246.9
121	17.154	2.4353	0.1	1508.9
122	16.	2.4269	0.1	1778.7
123	14.822	2.4088	0.1	2062.6
124	13.584	2.3962	0.1	2361.
125	12.301	2.3789	0.1	2690.
126	11.014	2.406	0.1	2999.2
127	3.7323	2.349	0.1	4865.9
128	2.4605	2.3935	0.1	5073.8
129	2.5109	3.58	0.1	5047.7
130	3.8191	3.5133	0.1	4868.9
131	5.0839	3.4509	0.1	4607.1
132	10.307	5.0896	0.1	2986.
133	11.429	4.8759	0.1	2882.4
134	12.511	4.7815	0.1	2646.
135	13.695	4.7804	0.1	2351.4
136	14.869	4.7951	0.1	2065.2
137	16.03	4.8117	0.1	1784.6
138	17.182	4.8217	0.1	1510.9
139	18.332	4.8346	0.1	1244.7
140	19.456	4.8075	0.1	990.23
141	20.584	4.7977	0.1	745.05
142	21.724	4.7972	0.1	509.12
143	22.858	4.8089	0.1	291.52
144	22.856	3.6022	0.1	321.67
145	22.855	2.3937	0.1	321.82
146	1.224	2.4098	0.1	5974.
147	1.241	3.5929	0.1	5968.7
148	22.864	1.1954	0.1	290.3
149	21.73	1.1942	0.1	507.69
150	20.593	1.1989	0.1	743.91
151	19.453	1.2085	0.1	991.67
152	18.315	1.219	0.1	1247.4
153	17.179	1.224	0.1	1510.9
154	16.03	1.2197	0.1	1784.7
155	14.86	1.2116	0.1	2071.2
156	13.656	1.2101	0.1	2359.5
157	12.374	1.2023	0.1	2725.3
158	10.899	1.2958	0.1	2984.1
159	10.05	0.7779	0.1	2673.9
160	4.8057	1.1109	0.1	4743.6
161	3.5867	1.1853	0.1	5098.5
162	2.3728	1.204	0.1	5284.6
163	1.1811	1.2087	0.1	5666.4
164	1.2158	4.7829	0.1	5680.4
165	3.7312	4.7379	0.1	5053.7
166	5.204	4.687	0.1	4515.
167	6.2069	5.1992	0.1	3932.1
168	6.2481	3.4037	0.1	5054.1
169	5.8262	0.83672	0.1	4298.5
170	7.1807	5.3965	0.1	3171.8
171	9.2945	5.3708	0.1	2388.2
172	7.0074	4.713	0.1	4518.4
173	9.1404	0.53844	0.1	2686.1
174	6.9158	0.57993	0.1	3021.
175	9.705	3.3268	0.1	4371.8
176	6.3523	2.5837	0.1	5402.7
177	7.368	1.4779	0.1	4608.8
178	9.0079	1.3946	0.1	3837.7
179	8.6166	3.2622	0.1	5845.
180	7.4522	2.6951	0.1	5921.5
181	8.1667	5.5	0.1	1823.4
182	8.1667	5.	0.1	3080.1
183	8.1667	4.5	0.1	7305.4
184	8.1667	4.	0.1	9747.6
185	8.	4.	0.1	9660.8
186	8.	4.5	0.1	6128.2
187	8.	5.	0.1	4724.9
188	8.	5.5	0.1	1148.8
189	8.1667	0.5	0.1	1287.5
190	8.1667	1.	0.1	3274.1
191	8.1667	1.5	0.1	6526.2
192	8.1667	2.	0.1	9510.3
193	8.	2.	0.1	10069
194	8.	1.5	0.1	8209.3
195	8.	1.	0.1	3248.3
196	8.	0.5	0.1	2131.3
197	8.1667	6.	0.1	1247.8
198	9.2976	6.	0.1	2105.4
199	10.429	6.	0.1	2842.1
200	11.56	6.	0.1	2827.6
201	12.69	6.	0.1	2613.5
202	13.821	6.	0.1	2361.2
203	14.952	6.	0.1	2074.3
204	16.083	6.	0.1	1793.
205	17.214	6.	0.1	1518.6
206	18.345	6.	0.1	1253.2
207	19.476	6.	0.1	992.95
208	20.607	6.	0.1	741.33
209	21.738	6.	0.1	495.28
210	22.869	6.	0.1	260.46
211	24.	6.	0.1	130.28
212	24.	4.8	0.1	183.06
213	24.	3.6	0.1	228.73
214	24.	2.4	0.1	228.47
215	24.	1.2	0.1	182.96
216	1.049e-014	1.2	0.1	3918.8
217	2.0981e-014	2.4	0.1	4123.4
218	3.1471e-014	3.6	0.1	4128.9
219	4.1961e-014	4.8	0.1	3921.5
220	24.	0.	0.1	130.52
221	22.869	0.	0.1	259.8
222	21.738	0.	0.1	494.69
223	20.607	0.	0.1	741.99
224	19.476	0.	0.1	994.68
225	18.345	0.	0.1	1253.2
226	17.214	0.	0.1	1519.1
227	16.083	0.	0.1	1794.4
228	14.952	0.	0.1	2077.1
229	13.821	0.	0.1	2376.1
230	12.69	0.	0.1	2637.9
231	11.56	0.	0.1	2956.
232	10.429	0.	0.1	2737.5
233	9.2976	0.	0.1	2056.2
234	8.1667	0.	0.1	1455.5
235	8.	0.	0.1	1450.
236	6.8571	1.0399e-030	0.1	2798.2
237	5.7143	8.6656e-031	0.1	4245.5
238	4.5714	6.9325e-031	0.1	4892.
239	3.4286	5.1994e-031	0.1	5447.5
240	2.2857	3.4662e-031	0.1	5864.8
241	1.1429	1.7331e-031	0.1	5666.1
242	0.	0.	0.1	3023.1
243	3.937e-014	6.	0.1	3004.
244	1.1429	6.	0.1	5674.5
245	2.2857	6.	0.1	5908.4
246	3.4286	6.	0.1	5407.3
247	4.5714	6.	0.1	5032.9
248	5.7143	6.	0.1	4092.7
249	6.8571	6.	0.1	2765.2
250	8.	6.	0.1	1720.8
251	6.8571	6.	0.	2765.2
252	5.7143	6.	0.	4092.7
253	4.5714	6.	0.	5032.9
254	3.4286	6.	0.	5407.3
255	2.2857	6.	0.	5908.4
256	1.1429	6.	0.	5674.5
257	8.	6.	0.	1720.8
258	3.937e-014	6.	0.	3004.
259	1.1429	1.7331e-031	0.	5666.1
260	2.2857	3.4662e-031	0.	5864.8
261	3.4286	5.1994e-031	0.	5447.5
262	4.5714	6.9325e-031	0.	4892.
263	5.7143	8.6656e-031	0.	4245.5
264	6.8571	1.0399e-030	0.	2798.2
265	8.	0.	0.	1450.
266	0.	0.	0.	3023.1
267	9.2976	0.	0.	2056.2
268	10.429	0.	0.	2737.5
269	11.56	0.	0.	2956.
270	12.69	0.	0.	2637.9
271	13.821	0.	0.	2376.1
272	14.952	0.	0.	2077.1
273	16.083	0.	0.	1794.4
274	17.214	0.	0.	1519.1
275	18.345	0.	0.	1253.2
276	19.476	0.	0.	994.68
277	20.607	0.	0.	741.99
278	21.738	0.	0.	494.69
279	22.869	0.	0.	259.8
280	8.1667	0.	0.	1455.5
281	24.	0.	0.	130.52
282	4.1961e-014	4.8	0.	3921.5
283	3.1471e-014	3.6	0.	4128.9
284	2.0981e-014	2.4	0.	4123.4
285	1.049e-014	1.2	0.	3918.8
286	24.	1.2	0.	182.96
287	24.	2.4	0.	228.47
288	24.	3.6	0.	228.73
289	24.	4.8	0.	183.06
290	24.	6.	0.	130.28
291	22.869	6.	0.	260.46
292	21.738	6.	0.	495.28
293	20.607	6.	0.	741.33
294	19.476	6.	0.	992.95
295	18.345	6.	0.	1253.2
296	17.214	6.	0.	1518.6
297	16.083	6.	0.	1793.
298	14.952	6.	0.	2074.3
299	13.821	6.	0.	2361.2
300	12.69	6.	0.	2613.5
301	11.56	6.	0.	2827.6
302	10.429	6.	0.	2842.1
303	9.2976	6.	0.	2105.4
304	8.1667	6.	0.	1247.8
305	8.	1.5	0.	8209.3
306	8.	1.	0.	3248.3
307	8.	0.5	0.	2131.3
308	8.	2.	0.	10069
309	8.1667	0.5	0.	1287.5
310	8.1667	1.	0.	3274.1
311	8.1667	1.5	0.	6526.2
312	8.1667	2.	0.	9510.3
313	8.	4.5	0.	6128.2
314	8.	5.	0.	4724.9
315	8.	5.5	0.	1148.8
316	8.	4.	0.	9660.8
317	8.1667	5.5	0.	1823.4
318	8.1667	5.	0.	3080.1
319	8.1667	4.5	0.	7305.4
320	8.1667	4.	0.	9747.6
321	6.9023	2.6394	0.	5557.6
322	8.0554	2.669	0.	5593.4
323	7.4569	3.0097	0.	5701.1
324	7.4522	2.6951	5.e-002	320.11
325	7.7261	2.3476	0.	7955.5
326	9.1608	3.2945	0.	4993.6
327	8.6376	2.9526	0.	5537.8
328	8.039	3.2933	0.	5665.3
329	8.6166	3.2622	5.e-002	411.93
330	8.3916	3.6311	0.	7713.5
331	9.5289	1.0862	0.	3235.2
332	8.9197	1.2003	0.	2998.7
333	9.2824	1.6196	0.	3720.6
334	9.0079	1.3946	5.e-002	538.03
335	8.5873	1.4473	0.	4544.1
336	7.2122	1.2816	0.	3966.
337	7.0779	1.7246	0.	4551.
338	7.368	1.4779	5.e-002	562.32
339	7.684	1.489	0.	5848.6
340	6.3002	2.9937	0.	5217.1
341	5.7159	2.4049	0.	4926.8
342	6.57	2.2775	0.	4876.7
343	6.3523	2.5837	5.e-002	443.58
344	10.367	3.4909	0.	3646.6
345	9.5192	3.6278	0.	4093.5
346	9.7391	2.9373	0.	4258.8
347	9.705	3.3268	5.e-002	376.27
348	6.371	0.70833	0.	3640.
349	6.9861	0.83259	0.	3174.3
350	6.9158	0.57993	5.e-002	198.95
351	6.8865	0.28997	0.	2894.6
352	7.4579	0.53997	0.	2461.3
353	9.5952	0.65817	0.	2620.2
354	8.9859	0.77221	0.	2518.9
355	9.1404	0.53844	5.e-002	184.27
356	9.219	0.26922	0.	2356.3
357	8.6536	0.51922	0.	1903.2
358	6.6071	4.9561	0.	4194.9
359	7.1859	4.8779	0.	3589.6
360	6.7503	4.418	0.	4561.4
361	7.0074	4.713	5.e-002	694.29
362	7.5037	4.6065	0.	4776.3
363	9.8008	5.2302	0.	2667.1
364	9.2068	5.0926	0.	2649.
365	9.2945	5.3708	5.e-002	136.83
366	9.296	5.6854	0.	2238.9
367	8.7306	5.4354	0.	2004.9
368	6.6938	5.2979	0.	3461.3
369	7.2726	5.2196	0.	2981.9
370	7.1807	5.3965	5.e-002	317.43
371	7.0189	5.6983	0.	2900.9
372	7.5903	5.4483	0.	2088.1
373	5.3159	0.97382	0.	4519.7
374	5.9884	1.1716	0.	4521.9
375	5.8262	0.83672	5.e-002	98.731
376	5.7703	0.41836	0.	4270.6
377	5.666	3.4273	0.	4826.2
378	6.3707	3.7633	0.	4828.
379	6.8548	3.364	0.	5405.6
380	6.2481	3.4037	5.e-002	155.39
381	5.7054	4.9431	0.	4220.1
382	6.2069	5.1992	5.e-002	198.58
383	5.9606	5.5996	0.	4007.9
384	4.4676	4.7125	0.	4782.3
385	5.144	4.069	0.	4556.2
386	5.8486	4.405	0.	4561.1
387	5.204	4.687	5.e-002	67.398
388	4.8877	5.3435	0.	4771.5
389	3.7751	4.1256	0.	4958.
390	3.0886	4.7515	0.	5147.
391	3.7312	4.7379	5.e-002	12.685
392	3.5799	5.369	0.	5229.8
393	1.2284	4.1879	0.	5811.4
394	1.8309	4.774	0.	5439.4
395	1.2158	4.7829	5.e-002	104.25
396	1.1793	5.3914	0.	5633.9
397	0.60789	4.7914	0.	4730.6
398	1.777	1.2063	0.	5449.7
399	1.2025	1.8092	0.	5806.8
400	1.1811	1.2087	5.e-002	102.69
401	1.162	0.60433	0.	5625.1
402	0.59055	1.2043	0.	4720.8
403	2.9798	1.1946	0.	5187.9
404	2.4167	1.7987	0.	5168.6
405	2.3728	1.204	5.e-002	59.335
406	2.3293	0.60199	0.	5567.6
407	4.1962	1.1481	0.	4918.2
408	3.6595	1.7672	0.	4977.5
409	3.5867	1.1853	5.e-002	39.644
410	3.5076	0.59265	0.	5272.
411	4.9426	1.6684	0.	4596.
412	4.8057	1.1109	5.e-002	66.969
413	4.6885	0.55546	0.	4817.5
414	10.475	1.0368	0.	2823.4
415	10.05	0.7779	5.e-002	130.89
416	10.239	0.38895	0.	2697.7
417	11.637	1.249	0.	2854.
418	10.957	1.8509	0.	2988.6
419	10.228	1.5702	0.	3276.4
420	10.899	1.2958	5.e-002	64.588
421	11.229	0.64789	0.	2966.2
422	13.015	1.2062	0.	2541.9
423	12.338	1.7906	0.	2707.5
424	12.374	1.2023	5.e-002	16.724
425	12.532	0.60115	0.	2681.5
426	14.258	1.2109	0.	2215.3
427	13.62	1.8032	0.	2359.8
428	13.656	1.2101	5.e-002	19.276
429	13.739	0.60507	0.	2367.3
430	15.445	1.2157	0.	1927.8
431	14.841	1.8102	0.	2066.4
432	14.86	1.2116	5.e-002	21.496
433	14.906	0.60579	0.	2073.1
434	16.604	1.2219	0.	1647.7
435	16.015	1.8233	0.	1780.9
436	16.03	1.2197	5.e-002	20.902
437	16.056	0.60987	0.	1788.5
438	17.747	1.2215	0.	1379.
439	17.167	1.8296	0.	1509.
440	17.179	1.224	5.e-002	20.469
441	17.197	0.61199	0.	1513.9
442	18.884	1.2137	0.	1119.4
443	18.307	1.8235	0.	1246.
444	18.315	1.219	5.e-002	19.836
445	18.33	0.60948	0.	1249.
446	20.023	1.2037	0.	867.69
447	19.448	1.8099	0.	991.52
448	19.453	1.2085	5.e-002	19.441
449	19.465	0.60424	0.	991.68
450	21.162	1.1966	0.	625.61
451	20.589	1.7982	0.	746.81
452	20.593	1.1989	5.e-002	18.616
453	20.6	0.59945	0.	741.1
454	22.297	1.1948	0.	397.64
455	21.724	1.7961	0.	515.49
456	21.73	1.1942	5.e-002	17.616
457	21.734	0.59712	0.	498.89
458	22.859	1.7946	0.	304.92
459	22.864	1.1954	5.e-002	18.425
460	22.866	0.59771	0.	272.53
461	23.432	1.1977	0.	234.
462	1.2325	3.0013	0.	5965.9
463	1.8759	3.5864	0.	5486.8
464	1.241	3.5929	5.e-002	52.189
465	0.62048	3.5964	0.	4969.
466	1.8423	2.4016	0.	5503.
467	1.224	2.4098	5.e-002	52.21
468	0.61199	2.4049	0.	4968.9
469	22.856	2.998	0.	321.27
470	22.287	2.3959	0.	421.46
471	22.855	2.3937	5.e-002	18.49
472	23.427	2.3969	0.	272.16
473	22.857	4.2055	0.	305.46
474	22.283	3.5991	0.	422.28
475	22.856	3.6022	5.e-002	18.416
476	23.428	3.6011	0.	272.12
477	22.291	4.803	0.	398.99
478	22.858	4.8089	5.e-002	18.507
479	23.429	4.8044	0.	234.67
480	22.863	5.4044	0.	273.38
481	21.154	4.7974	0.	626.9
482	21.717	4.1966	0.	517.05
483	21.724	4.7972	5.e-002	17.508
484	21.731	5.3986	0.	499.93
485	20.02	4.8026	0.	867.56
486	20.581	4.1951	0.	748.03
487	20.584	4.7977	5.e-002	18.284
488	20.596	5.3988	0.	741.34
489	18.894	4.821	0.	1117.4
490	19.447	4.2093	0.	991.06
491	19.456	4.8075	5.e-002	19.384
492	19.466	5.4037	0.	990.17
493	17.757	4.8282	0.	1377.7
494	18.318	4.2295	0.	1244.5
495	18.332	4.8346	5.e-002	19.808
496	18.339	5.4173	0.	1247.7
497	16.606	4.8167	0.	1647.6
498	17.172	4.2244	0.	1508.3
499	17.182	4.8217	5.e-002	20.594
500	17.198	5.4109	0.	1513.7
501	15.45	4.8034	0.	1924.8
502	16.015	4.2138	0.	1781.1
503	16.03	4.8117	5.e-002	21.036
504	16.057	5.4059	0.	1787.9
505	14.282	4.7877	0.	2208.2
506	14.846	4.2005	0.	2062.
507	14.869	4.7951	5.e-002	21.208
508	14.911	5.3975	0.	2068.9
509	13.103	4.7809	0.	2498.6
510	13.652	4.1827	0.	2351.3
511	13.695	4.7804	5.e-002	18.79
512	13.758	5.3902	0.	2355.3
513	11.97	4.8287	0.	2763.7
514	12.434	4.1763	0.	2651.5
515	12.511	4.7815	5.e-002	32.907
516	12.601	5.3907	0.	2628.7
517	10.868	4.9828	0.	2931.8
518	11.229	4.2654	0.	2899.3
519	11.429	4.8759	5.e-002	27.605
520	11.494	5.438	0.	2854.7
521	10.188	4.733	0.	3189.1
522	10.307	5.0896	5.e-002	62.641
523	10.368	5.5448	0.	2913.3
524	4.4515	3.4821	0.	4734.
525	5.0817	2.8384	0.	4532.7
526	5.0839	3.4509	5.e-002	35.259
527	3.165	3.5466	0.	4956.8
528	3.7757	2.9312	0.	4865.2
529	3.8191	3.5133	5.e-002	44.946
530	2.4857	2.9867	0.	5054.7
531	2.4784	4.1725	0.	5137.7
532	2.5109	3.58	5.e-002	80.924
533	3.0964	2.3713	0.	4967.8
534	2.4605	2.3935	5.e-002	76.134
535	4.4059	2.2875	0.	4662.1
536	3.7323	2.349	5.e-002	23.222
537	11.658	2.3924	0.	2843.8
538	11.022	3.0305	0.	2961.
539	10.394	2.4769	0.	3577.
540	11.014	2.406	5.e-002	78.466
541	12.942	2.3876	0.	2525.3
542	12.329	2.975	0.	2673.7
543	12.301	2.3789	5.e-002	10.248
544	14.203	2.4025	0.	2211.8
545	13.596	2.9906	0.	2356.2
546	13.584	2.3962	5.e-002	28.59
547	15.411	2.4179	0.	1920.6
548	14.823	3.0074	0.	2060.8
549	14.822	2.4088	5.e-002	23.346
550	16.577	2.4311	0.	1643.8
551	16.	3.0214	0.	1778.3
552	16.	2.4269	5.e-002	21.146
553	17.726	2.4317	0.	1377.9
554	17.158	3.0312	0.	1507.4
555	17.154	2.4353	5.e-002	20.494
556	18.871	2.4197	0.	1120.4
557	18.301	3.0262	0.	1245.7
558	18.298	2.4281	5.e-002	19.556
559	20.014	2.4044	0.	872.99
560	19.44	3.0112	0.	993.1
561	19.443	2.4112	5.e-002	19.164
562	21.152	2.3978	0.	638.74
563	20.581	2.9951	0.	751.95
564	20.586	2.3975	5.e-002	18.694
565	21.714	2.997	0.	525.93
566	21.719	2.398	5.e-002	18.303
567	21.143	3.5943	0.	640.23
568	21.709	3.596	5.e-002	18.272
569	20.007	3.6019	0.	873.92
570	20.577	3.5926	5.e-002	18.759
571	18.871	3.6177	0.	1120.5
572	19.437	3.6111	5.e-002	19.058
573	17.733	3.6257	0.	1377.1
574	18.304	3.6243	5.e-002	19.779
575	16.581	3.6215	0.	1643.4
576	17.162	3.6271	5.e-002	20.494
577	15.412	3.6109	0.	1919.5
578	16.	3.6158	5.e-002	20.522
579	14.216	3.5955	0.	2205.8
580	14.824	3.606	5.e-002	20.823
581	12.982	3.5781	0.	2504.6
582	13.608	3.5851	5.e-002	23.246
583	11.693	3.6131	0.	2789.9
584	10.549	4.0157	0.	3150.4
585	11.029	3.655	5.e-002	94.883
586	5.6151	1.8662	0.	4583.3
587	5.0795	2.226	5.e-002	85.862
588	12.357	3.5712	5.e-002	14.458
589	9.0073	4.6136	0.	3285.2
590	9.5943	4.5954	0.	3096.7
591	9.119	4.8144	5.e-002	266.14
592	8.6429	4.9072	0.	2780.5
593	9.1145	4.1708	0.	3831.4
594	8.8956	4.4129	5.e-002	361.16
595	8.5311	4.4564	0.	5130.3
596	9.7015	4.1526	0.	3645.6
597	9.3334	3.9288	5.e-002	471.22
598	8.75	3.9644	0.	6820.6
599	6.6035	1.2958	0.	4001.8
600	7.0564	1.0852	5.e-002	228.11
601	7.5282	1.0426	0.	3065.2
602	6.4692	1.7389	0.	4586.1
603	6.7878	1.9714	5.e-002	452.04
604	7.3939	1.9857	0.	7233.2
605	2.446	4.765	5.e-002	69.114
606	2.3659	5.3825	0.	5572.1
607	7.3644	5.0428	5.e-002	11.142
608	7.6822	5.0214	0.	3487.7
609	6.4932	4.123	5.e-002	415.37
610	7.2466	4.0615	0.	7036.2
611	8.8314	1.006	5.e-002	208.81
612	8.4991	1.003	0.	2748.
613	9.665	2.1962	0.	3868.9
614	9.5568	1.8446	5.e-002	436.23
615	8.8618	1.9223	0.	6465.6
616	9.2159	2.5954	0.	4851.
617	8.6585	2.6429	5.e-002	226.26
618	8.4126	2.3215	0.	7493.1
619	7.4615	3.3243	5.e-002	386.88
620	7.7308	3.6621	0.	7695.6
621	9.7733	2.5478	5.e-002	221.86
622	6.1507	1.5064	5.e-002	177.66
623	10.07	4.3763	5.e-002	60.685
624	9.7015	4.1526	0.1	3645.6
625	9.5943	4.5954	0.1	3096.7
626	10.549	4.0157	0.1	3150.4
627	10.188	4.733	0.1	3189.1
628	6.4692	1.7389	0.1	4586.1
629	6.6035	1.2958	0.1	4001.8
630	5.6151	1.8662	0.1	4583.3
631	5.9884	1.1716	0.1	4521.9
632	9.2159	2.5954	0.1	4851.
633	9.665	2.1962	0.1	3868.9
634	10.394	2.4769	0.1	3577.
635	9.7391	2.9373	0.1	4258.8
636	6.8548	3.364	0.1	5405.6
637	8.039	3.2933	0.1	5665.3
638	7.4569	3.0097	0.1	5701.1
639	7.7308	3.6621	0.1	7695.6
640	8.6376	2.9526	0.1	5537.8
641	8.0554	2.669	0.1	5593.4
642	8.4126	2.3215	0.1	7493.1
643	10.228	1.5702	0.1	3276.4
644	9.2824	1.6196	0.1	3720.6
645	8.8618	1.9223	0.1	6465.6
646	8.9859	0.77221	0.1	2518.9
647	8.9197	1.2003	0.1	2998.7
648	8.4991	1.003	0.1	2748.
649	5.8486	4.405	0.1	4561.1
650	6.3707	3.7633	0.1	4828.
651	6.7503	4.418	0.1	4561.4
652	7.2466	4.0615	0.1	7036.2
653	7.2726	5.2196	0.1	2981.9
654	7.1859	4.8779	0.1	3589.6
655	7.6822	5.0214	0.1	3487.7
656	2.4784	4.1725	0.1	5137.7
657	1.8309	4.774	0.1	5439.4
658	3.0886	4.7515	0.1	5147.
659	2.3659	5.3825	0.1	5572.1
660	6.57	2.2775	0.1	4876.7
661	7.0779	1.7246	0.1	4551.
662	7.3939	1.9857	0.1	7233.2
663	6.9861	0.83259	0.1	3174.3
664	7.2122	1.2816	0.1	3966.
665	7.5282	1.0426	0.1	3065.2
666	9.1145	4.1708	0.1	3831.4
667	9.5192	3.6278	0.1	4093.5
668	8.75	3.9644	0.1	6820.6
669	9.0073	4.6136	0.1	3285.2
670	8.5311	4.4564	0.1	5130.3
671	9.2068	5.0926	0.1	2649.
672	8.6429	4.9072	0.1	2780.5
673	11.693	3.6131	0.1	2789.9
674	12.982	3.5781	0.1	2504.6
675	12.329	2.975	0.1	2673.7
676	12.434	4.1763	0.1	2651.5
677	4.4059	2.2875	0.1	4662.1
678	5.0817	2.8384	0.1	4532.7
679	4.9426	1.6684	0.1	4596.
680	5.7159	2.4049	0.1	4926.8
681	11.022	3.0305	0.1	2961.
682	11.229	4.2654	0.1	2899.3
683	10.367	3.4909	0.1	3646.6
684	14.216	3.5955	0.1	2205.8
685	13.596	2.9906	0.1	2356.2
686	13.652	4.1827	0.1	2351.3
687	15.412	3.6109	0.1	1919.5
688	14.823	3.0074	0.1	2060.8
689	14.846	4.2005	0.1	2062.
690	16.581	3.6215	0.1	1643.4
691	16.	3.0214	0.1	1778.3
692	16.015	4.2138	0.1	1781.1
693	17.733	3.6257	0.1	1377.1
694	17.158	3.0312	0.1	1507.4
695	17.172	4.2244	0.1	1508.3
696	18.871	3.6177	0.1	1120.5
697	18.301	3.0262	0.1	1245.7
698	18.318	4.2295	0.1	1244.5
699	20.007	3.6019	0.1	873.92
700	19.44	3.0112	0.1	993.1
701	19.447	4.2093	0.1	991.06
702	21.143	3.5943	0.1	640.23
703	20.581	2.9951	0.1	751.95
704	20.581	4.1951	0.1	748.03
705	21.714	2.997	0.1	525.93
706	21.717	4.1966	0.1	517.05
707	22.283	3.5991	0.1	422.28
708	21.152	2.3978	0.1	638.74
709	22.287	2.3959	0.1	421.46
710	21.724	1.7961	0.1	515.49
711	20.014	2.4044	0.1	872.99
712	20.589	1.7982	0.1	746.81
713	18.871	2.4197	0.1	1120.4
714	19.448	1.8099	0.1	991.52
715	17.726	2.4317	0.1	1377.9
716	18.307	1.8235	0.1	1246.
717	16.577	2.4311	0.1	1643.8
718	17.167	1.8296	0.1	1509.
719	15.411	2.4179	0.1	1920.6
720	16.015	1.8233	0.1	1780.9
721	14.203	2.4025	0.1	2211.8
722	14.841	1.8102	0.1	2066.4
723	12.942	2.3876	0.1	2525.3
724	13.62	1.8032	0.1	2359.8
725	11.658	2.3924	0.1	2843.8
726	12.338	1.7906	0.1	2707.5
727	10.957	1.8509	0.1	2988.6
728	3.0964	2.3713	0.1	4967.8
729	3.7757	2.9312	0.1	4865.2
730	3.6595	1.7672	0.1	4977.5
731	2.4857	2.9867	0.1	5054.7
732	1.8423	2.4016	0.1	5503.
733	2.4167	1.7987	0.1	5168.6
734	3.165	3.5466	0.1	4956.8
735	1.8759	3.5864	0.1	5486.8
736	4.4515	3.4821	0.1	4734.
737	3.7751	4.1256	0.1	4958.
738	5.144	4.069	0.1	4556.2
739	5.666	3.4273	0.1	4826.2
740	10.868	4.9828	0.1	2931.8
741	9.8008	5.2302	0.1	2667.1
742	10.368	5.5448	0.1	2913.3
743	11.97	4.8287	0.1	2763.7
744	11.494	5.438	0.1	2854.7
745	13.103	4.7809	0.1	2498.6
746	12.601	5.3907	0.1	2628.7
747	14.282	4.7877	0.1	2208.2
748	13.758	5.3902	0.1	2355.3
749	15.45	4.8034	0.1	1924.8
750	14.911	5.3975	0.1	2068.9
751	16.606	4.8167	0.1	1647.6
752	16.057	5.4059	0.1	1787.9
753	17.757	4.8282	0.1	1377.7
754	17.198	5.4109	0.1	1513.7
755	18.894	4.821	0.1	1117.4
756	18.339	5.4173	0.1	1247.7
757	20.02	4.8026	0.1	867.56
758	19.466	5.4037	0.1	990.17
759	21.154	4.7974	0.1	626.9
760	20.596	5.3988	0.1	741.34
761	22.291	4.803	0.1	398.99
762	21.731	5.3986	0.1	499.93
763	22.857	4.2055	0.1	305.46
764	22.863	5.4044	0.1	273.38
765	23.429	4.8044	0.1	234.67
766	22.856	2.998	0.1	321.27
767	23.428	3.6011	0.1	272.12
768	22.859	1.7946	0.1	304.92
769	23.427	2.3969	0.1	272.16
770	1.2325	3.0013	0.1	5965.9
771	1.2025	1.8092	0.1	5806.8
772	0.61199	2.4049	0.1	4968.9
773	1.2284	4.1879	0.1	5811.4
774	0.62048	3.5964	0.1	4969.
775	22.297	1.1948	0.1	397.64
776	23.432	1.1977	0.1	234.
777	22.866	0.59771	0.1	272.53
778	21.162	1.1966	0.1	625.61
779	21.734	0.59712	0.1	498.89
780	20.023	1.2037	0.1	867.69
781	20.6	0.59945	0.1	741.1
782	18.884	1.2137	0.1	1119.4
783	19.465	0.60424	0.1	991.68
784	17.747	1.2215	0.1	1379.
785	18.33	0.60948	0.1	1249.
786	16.604	1.2219	0.1	1647.7
787	17.197	0.61199	0.1	1513.9
788	15.445	1.2157	0.1	1927.8
789	16.056	0.60987	0.1	1788.5
790	14.258	1.2109	0.1	2215.3
791	14.906	0.60579	0.1	2073.1
792	13.015	1.2062	0.1	2541.9
793	13.739	0.60507	0.1	2367.3
794	11.637	1.249	0.1	2854.
795	12.532	0.60115	0.1	2681.5
796	10.475	1.0368	0.1	2823.4
797	11.229	0.64789	0.1	2966.2
798	9.5952	0.65817	0.1	2620.2
799	9.5289	1.0862	0.1	3235.2
800	10.239	0.38895	0.1	2697.7
801	4.1962	1.1481	0.1	4918.2
802	5.3159	0.97382	0.1	4519.7
803	4.6885	0.55546	0.1	4817.5
804	2.9798	1.1946	0.1	5187.9
805	3.5076	0.59265	0.1	5272.
806	1.777	1.2063	0.1	5449.7
807	2.3293	0.60199	0.1	5567.6
808	0.59055	1.2043	0.1	4720.8
809	1.162	0.60433	0.1	5625.1
810	0.60789	4.7914	0.1	4730.6
811	1.1793	5.3914	0.1	5633.9
812	4.4676	4.7125	0.1	4782.3
813	3.5799	5.369	0.1	5229.8
814	5.7054	4.9431	0.1	4220.1
815	4.8877	5.3435	0.1	4771.5
816	6.6938	5.2979	0.1	3461.3
817	6.6071	4.9561	0.1	4194.9
818	5.9606	5.5996	0.1	4007.9
819	6.3002	2.9937	0.1	5217.1
820	6.371	0.70833	0.1	3640.
821	5.7703	0.41836	0.1	4270.6
822	7.5903	5.4483	0.1	2088.1
823	7.0189	5.6983	0.1	2900.9
824	8.7306	5.4354	0.1	2004.9
825	9.296	5.6854	0.1	2238.9
826	7.5037	4.6065	0.1	4776.3
827	8.6536	0.51922	0.1	1903.2
828	9.219	0.26922	0.1	2356.3
829	7.4579	0.53997	0.1	2461.3
830	6.8865	0.28997	0.1	2894.6
831	9.1608	3.2945	0.1	4993.6
832	6.9023	2.6394	0.1	5557.6
833	7.684	1.489	0.1	5848.6
834	8.5873	1.4473	0.1	4544.1
835	8.3916	3.6311	0.1	7713.5
836	7.7261	2.3476	0.1	7955.5
837	8.1667	5.25	0.1	2428.9
838	8.1667	5.75	0.1	1497.7
839	8.1667	5.5	5.e-002	235.36
840	8.1667	4.75	0.1	5144.1
841	8.1667	5.	5.e-002	414.98
842	8.1667	4.25	0.1	8051.5
843	8.1667	4.5	5.e-002	1206.6
844	8.0833	4.	0.1	8478.
845	8.1667	4.	5.e-002	1024.6
846	8.	4.25	0.1	7415.5
847	8.	4.	5.e-002	1535.2
848	8.	4.75	0.1	5350.4
849	8.	4.5	5.e-002	396.14
850	8.	5.25	0.1	2820.4
851	8.	5.	5.e-002	1238.1
852	8.	5.75	0.1	1372.7
853	8.	5.5	5.e-002	189.54
854	8.1667	0.75	0.1	2228.3
855	8.1667	0.25	0.1	1285.8
856	8.1667	0.5	5.e-002	170.62
857	8.1667	1.25	0.1	4887.1
858	8.1667	1.	5.e-002	698.42
859	8.1667	1.75	0.1	7466.2
860	8.1667	1.5	5.e-002	883.67
861	8.0833	2.	0.1	8504.2
862	8.1667	2.	5.e-002	1492.6
863	8.	1.75	0.1	8310.4
864	8.	2.	5.e-002	1384.5
865	8.	1.25	0.1	5639.5
866	8.	1.5	5.e-002	1658.8
867	8.	0.75	0.1	2669.5
868	8.	1.	5.e-002	504.49
869	8.	0.25	0.1	1763.
870	8.	0.5	5.e-002	298.79
871	8.7321	6.	0.1	1653.3
872	8.1667	6.	5.e-002	153.62
873	9.8631	6.	0.1	2470.4
874	9.2976	6.	5.e-002	11.569
875	10.994	6.	0.1	2834.4
876	10.429	6.	5.e-002	49.539
877	12.125	6.	0.1	2720.5
878	11.56	6.	5.e-002	30.405
879	13.256	6.	0.1	2487.1
880	12.69	6.	5.e-002	32.385
881	14.387	6.	0.1	2217.6
882	13.821	6.	5.e-002	38.262
883	15.518	6.	0.1	1933.5
884	14.952	6.	5.e-002	44.48
885	16.649	6.	0.1	1655.6
886	16.083	6.	5.e-002	44.927
887	17.78	6.	0.1	1385.7
888	17.214	6.	5.e-002	44.262
889	18.911	6.	0.1	1122.9
890	18.345	6.	5.e-002	43.748
891	20.042	6.	0.1	866.8
892	19.476	6.	5.e-002	40.908
893	21.173	6.	0.1	617.88
894	20.607	6.	5.e-002	37.198
895	22.304	6.	0.1	376.65
896	21.738	6.	5.e-002	32.548
897	23.435	6.	0.1	193.56
898	22.869	6.	5.e-002	28.697
899	24.	5.4	0.1	155.4
900	24.	6.	5.e-002	18.858
901	24.	4.2	0.1	205.48
902	24.	4.8	5.e-002	20.608
903	24.	3.	0.1	228.51
904	24.	3.6	5.e-002	20.4
905	24.	1.8	0.1	205.32
906	24.	2.4	5.e-002	20.226
907	24.	0.6	0.1	155.41
908	24.	1.2	5.e-002	20.526
909	1.5735e-014	1.8	0.1	4016.7
910	5.2451e-015	0.6	0.1	3316.3
911	1.0632e-014	1.2	5.e-002	242.82
912	2.6226e-014	3.	0.1	4126.
913	2.1264e-014	2.4	5.e-002	126.88
914	3.6716e-014	4.2	0.1	4021.4
915	3.1897e-014	3.6	5.e-002	121.56
916	4.7206e-014	5.4	0.1	3320.3
917	4.2529e-014	4.8	5.e-002	222.95
918	23.435	0.	0.1	193.36
919	24.	0.	5.e-002	18.929
920	22.304	0.	0.1	376.07
921	22.869	0.	5.e-002	28.422
922	21.173	0.	0.1	617.9
923	21.738	0.	5.e-002	32.99
924	20.042	0.	0.1	867.99
925	20.607	0.	5.e-002	38.056
926	18.911	0.	0.1	1123.7
927	19.476	0.	5.e-002	40.594
928	17.78	0.	0.1	1386.
929	18.345	0.	5.e-002	42.106
930	16.649	0.	0.1	1656.6
931	17.214	0.	5.e-002	43.119
932	15.518	0.	0.1	1935.6
933	16.083	0.	5.e-002	43.293
934	14.387	0.	0.1	2226.2
935	14.952	0.	5.e-002	39.222
936	13.256	0.	0.1	2505.9
937	13.821	0.	5.e-002	24.743
938	12.125	0.	0.1	2793.2
939	12.69	0.	5.e-002	20.69
940	10.994	0.	0.1	2844.7
941	11.56	0.	5.e-002	110.8
942	9.8631	0.	0.1	2375.4
943	10.429	0.	5.e-002	73.949
944	8.7321	0.	0.1	1721.6
945	9.2976	0.	5.e-002	94.181
946	8.1667	0.	5.e-002	276.39
947	7.4286	1.1265e-030	0.1	2077.8
948	8.	1.2132e-030	5.e-002	139.59
949	6.2857	9.5322e-031	0.1	3520.3
950	6.8571	0.	5.e-002	114.15
951	5.1429	7.799e-031	0.1	4568.4
952	5.7143	0.	5.e-002	46.541
953	4.	6.0659e-031	0.1	5168.4
954	4.5714	0.	5.e-002	38.254
955	2.8571	4.3328e-031	0.1	5641.2
956	3.4286	0.	5.e-002	28.882
957	1.7143	2.5997e-031	0.1	5732.9
958	2.2857	0.	5.e-002	129.19
959	0.57143	8.6656e-032	0.1	4178.2
960	1.1429	0.	5.e-002	209.8
961	0.	0.	5.e-002	1510.3
962	0.57143	6.	0.1	4182.6
963	5.2451e-014	6.	5.e-002	1455.1
964	1.7143	6.	0.1	5757.3
965	1.1429	6.	5.e-002	205.04
966	2.8571	6.	0.1	5638.9
967	2.2857	6.	5.e-002	115.24
968	4.	6.	0.1	5216.3
969	3.4286	6.	5.e-002	7.4518
970	5.1429	6.	0.1	4557.7
971	4.5714	6.	5.e-002	82.682
972	6.2857	6.	0.1	3419.8
973	5.7143	6.	5.e-002	136.01
974	7.4286	6.	0.1	2234.7
975	6.8571	6.	5.e-002	119.36
976	8.	6.	5.e-002	220.05
977	6.2857	6.	0.	3419.8
978	7.4286	6.	0.	2234.7
979	5.1429	6.	0.	4557.7
980	4.	6.	0.	5216.3
981	2.8571	6.	0.	5638.9
982	1.7143	6.	0.	5757.3
983	0.57143	6.	0.	4182.6
984	8.	5.75	0.	1372.7
985	4.7206e-014	5.4	0.	3320.3
986	1.7143	2.5997e-031	0.	5732.9
987	0.57143	8.6656e-032	0.	4178.2
988	2.8571	4.3328e-031	0.	5641.2
989	4.	6.0659e-031	0.	5168.4
990	5.1429	7.799e-031	0.	4568.4
991	6.2857	9.5322e-031	0.	3520.3
992	7.4286	1.1265e-030	0.	2077.8
993	8.	0.25	0.	1763.
994	5.2451e-015	0.6	0.	3316.3
995	9.8631	0.	0.	2375.4
996	8.7321	0.	0.	1721.6
997	10.994	0.	0.	2844.7
998	12.125	0.	0.	2793.2
999	13.256	0.	0.	2505.9
1000	14.387	0.	0.	2226.2
1001	15.518	0.	0.	1935.6
1002	16.649	0.	0.	1656.6
1003	17.78	0.	0.	1386.
1004	18.911	0.	0.	1123.7
1005	20.042	0.	0.	867.99
1006	21.173	0.	0.	617.9
1007	22.304	0.	0.	376.07
1008	23.435	0.	0.	193.36
1009	8.1667	0.25	0.	1285.8
1010	24.	0.6	0.	155.41
1011	3.6716e-014	4.2	0.	4021.4
1012	2.6226e-014	3.	0.	4126.
1013	1.5735e-014	1.8	0.	4016.7
1014	24.	1.8	0.	205.32
1015	24.	3.	0.	228.51
1016	24.	4.2	0.	205.48
1017	24.	5.4	0.	155.4
1018	23.435	6.	0.	193.56
1019	22.304	6.	0.	376.65
1020	21.173	6.	0.	617.88
1021	20.042	6.	0.	866.8
1022	18.911	6.	0.	1122.9
1023	17.78	6.	0.	1385.7
1024	16.649	6.	0.	1655.6
1025	15.518	6.	0.	1933.5
1026	14.387	6.	0.	2217.6
1027	13.256	6.	0.	2487.1
1028	12.125	6.	0.	2720.5
1029	10.994	6.	0.	2834.4
1030	9.8631	6.	0.	2470.4
1031	8.7321	6.	0.	1653.3
1032	8.1667	5.75	0.	1497.7
1033	8.	1.25	0.	5639.5
1034	8.	1.75	0.	8310.4
1035	8.	0.75	0.	2669.5
1036	8.0833	2.	0.	8504.2
1037	8.1667	0.75	0.	2228.3
1038	8.1667	1.25	0.	4887.1
1039	8.1667	1.75	0.	7466.2
1040	8.	4.75	0.	5350.4
1041	8.	4.25	0.	7415.5
1042	8.	5.25	0.	2820.4
1043	8.0833	4.	0.	8478.
1044	8.1667	5.25	0.	2428.9
1045	8.1667	4.75	0.	5144.1
1046	8.1667	4.25	0.	8051.5
