Node Number	X Location (in)	Y Location (in)	Z Location (in)	Minimum Principal Stress (psi)
1	19.	2.1818	0.	-3749.9
2	19.	2.3636	0.	-2982.7
3	19.	2.5455	0.	-2641.6
4	19.	2.7273	0.	-2467.1
5	19.	2.9091	0.	-2392.8
6	19.	3.0909	0.	-2392.8
7	19.	3.2727	0.	-2467.1
8	19.	3.4545	0.	-2641.6
9	19.	3.6364	0.	-2982.7
10	19.	3.8182	0.	-3749.9
11	19.167	2.1818	0.	-3796.4
12	19.167	2.3636	0.	-2986.5
13	19.167	2.5455	0.	-2620.8
14	19.167	2.7273	0.	-2438.8
15	19.167	2.9091	0.	-2361.
16	19.167	3.0909	0.	-2361.
17	19.167	3.2727	0.	-2438.8
18	19.167	3.4545	0.	-2620.8
19	19.167	3.6364	0.	-2986.5
20	19.167	3.8182	0.	-3796.4
21	18.816	5.8182	0.	-221.63
22	18.816	5.6364	0.	-300.18
23	18.816	5.4545	0.	-391.19
24	18.816	5.2727	0.	-488.81
25	18.816	5.0909	0.	-596.51
26	18.816	4.9091	0.	-720.8
27	18.816	4.7273	0.	-872.08
28	18.816	4.5455	0.	-1075.6
29	18.816	4.3636	0.	-1365.3
30	18.816	4.1818	0.	-1957.
31	18.816	4.	0.	-2741.8
32	18.816	3.8182	0.	-2773.2
33	18.816	3.6364	0.	-2644.6
34	18.816	3.4545	0.	-2479.4
35	18.816	3.2727	0.	-2380.7
36	18.816	3.0909	0.	-2332.9
37	18.816	2.9091	0.	-2332.9
38	18.816	2.7273	0.	-2380.7
39	18.816	2.5455	0.	-2479.4
40	18.816	2.3636	0.	-2644.6
41	18.816	2.1818	0.	-2773.2
42	18.816	2.	0.	-2741.8
43	18.816	1.8182	0.	-1957.
44	18.816	1.6364	0.	-1365.3
45	18.816	1.4545	0.	-1075.6
46	18.816	1.2727	0.	-872.08
47	18.816	1.0909	0.	-720.8
48	18.816	0.90909	0.	-596.51
49	18.816	0.72727	0.	-488.81
50	18.816	0.54545	0.	-391.19
51	18.816	0.36364	0.	-300.18
52	18.816	0.18182	0.	-221.63
53	18.631	5.8182	0.	-365.84
54	18.631	5.6364	0.	-411.88
55	18.631	5.4545	0.	-481.19
56	18.631	5.2727	0.	-566.1
57	18.631	5.0909	0.	-666.1
58	18.631	4.9091	0.	-785.01
59	18.631	4.7273	0.	-931.46
60	18.631	4.5455	0.	-1117.8
61	18.631	4.3636	0.	-1368.8
62	18.631	4.1818	0.	-1676.7
63	18.631	4.	0.	-1963.4
64	18.631	3.8182	0.	-2173.8
65	18.631	3.6364	0.	-2248.7
66	18.631	3.4545	0.	-2246.6
67	18.631	3.2727	0.	-2224.9
68	18.631	3.0909	0.	-2209.7
69	18.631	2.9091	0.	-2209.7
70	18.631	2.7273	0.	-2224.9
71	18.631	2.5455	0.	-2246.6
72	18.631	2.3636	0.	-2248.7
73	18.631	2.1818	0.	-2173.8
74	18.631	2.	0.	-1963.4
75	18.631	1.8182	0.	-1676.7
76	18.631	1.6364	0.	-1368.8
77	18.631	1.4545	0.	-1117.8
78	18.631	1.2727	0.	-931.46
79	18.631	1.0909	0.	-785.01
80	18.631	0.90909	0.	-666.1
81	18.631	0.72727	0.	-566.1
82	18.631	0.54545	0.	-481.19
83	18.631	0.36364	0.	-411.88
84	18.631	0.18182	0.	-365.84
85	18.447	5.8182	0.	-518.11
86	18.447	5.6364	0.	-553.85
87	18.447	5.4545	0.	-609.94
88	18.447	5.2727	0.	-684.02
89	18.447	5.0909	0.	-775.52
90	18.447	4.9091	0.	-886.17
91	18.447	4.7273	0.	-1019.6
92	18.447	4.5455	0.	-1180.7
93	18.447	4.3636	0.	-1367.3
94	18.447	4.1818	0.	-1567.1
95	18.447	4.	0.	-1752.7
96	18.447	3.8182	0.	-1895.7
97	18.447	3.6364	0.	-1991.9
98	18.447	3.4545	0.	-2041.5
99	18.447	3.2727	0.	-2061.5
100	18.447	3.0909	0.	-2067.7
101	18.447	2.9091	0.	-2067.7
102	18.447	2.7273	0.	-2061.5
103	18.447	2.5455	0.	-2041.5
104	18.447	2.3636	0.	-1991.9
105	18.447	2.1818	0.	-1895.7
106	18.447	2.	0.	-1752.7
107	18.447	1.8182	0.	-1567.1
108	18.447	1.6364	0.	-1367.3
109	18.447	1.4545	0.	-1180.7
110	18.447	1.2727	0.	-1019.6
111	18.447	1.0909	0.	-886.17
112	18.447	0.90909	0.	-775.52
113	18.447	0.72727	0.	-684.02
114	18.447	0.54545	0.	-609.94
115	18.447	0.36364	0.	-553.85
116	18.447	0.18182	0.	-518.1
117	18.262	5.8182	0.	-663.86
118	18.262	5.6364	0.	-695.46
119	18.262	5.4545	0.	-743.33
120	18.262	5.2727	0.	-807.59
121	18.262	5.0909	0.	-888.19
122	18.262	4.9091	0.	-985.44
123	18.262	4.7273	0.	-1099.7
124	18.262	4.5455	0.	-1229.7
125	18.262	4.3636	0.	-1371.
126	18.262	4.1818	0.	-1512.7
127	18.262	4.	0.	-1642.8
128	18.262	3.8182	0.	-1751.7
129	18.262	3.6364	0.	-1834.7
130	18.262	3.4545	0.	-1891.1
131	18.262	3.2727	0.	-1923.9
132	18.262	3.0909	0.	-1938.6
133	18.262	2.9091	0.	-1938.6
134	18.262	2.7273	0.	-1923.9
135	18.262	2.5455	0.	-1891.1
136	18.262	2.3636	0.	-1834.7
137	18.262	2.1818	0.	-1751.7
138	18.262	2.	0.	-1642.8
139	18.262	1.8182	0.	-1512.7
140	18.262	1.6364	0.	-1371.
141	18.262	1.4545	0.	-1229.7
142	18.262	1.2727	0.	-1099.7
143	18.262	1.0909	0.	-985.44
144	18.262	0.90909	0.	-888.19
145	18.262	0.72727	0.	-807.59
146	18.262	0.54545	0.	-743.33
147	18.262	0.36364	0.	-695.46
148	18.262	0.18182	0.	-663.86
149	18.078	5.8182	0.	-800.21
150	18.078	5.6364	0.	-829.18
151	18.078	5.4545	0.	-871.02
152	18.078	5.2727	0.	-926.57
153	18.078	5.0909	0.	-995.79
154	18.078	4.9091	0.	-1078.2
155	18.078	4.7273	0.	-1172.5
156	18.078	4.5455	0.	-1276.1
157	18.078	4.3636	0.	-1383.9
158	18.078	4.1818	0.	-1489.5
159	18.078	4.	0.	-1586.4
160	18.078	3.8182	0.	-1670.
161	18.078	3.6364	0.	-1737.5
162	18.078	3.4545	0.	-1787.5
163	18.078	3.2727	0.	-1820.
164	18.078	3.0909	0.	-1835.7
165	18.078	2.9091	0.	-1835.7
166	18.078	2.7273	0.	-1820.
167	18.078	2.5455	0.	-1787.5
168	18.078	2.3636	0.	-1737.5
169	18.078	2.1818	0.	-1670.
170	18.078	2.	0.	-1586.4
171	18.078	1.8182	0.	-1489.5
172	18.078	1.6364	0.	-1383.9
173	18.078	1.4545	0.	-1276.1
174	18.078	1.2727	0.	-1172.5
175	18.078	1.0909	0.	-1078.2
176	18.078	0.90909	0.	-995.79
177	18.078	0.72727	0.	-926.57
178	18.078	0.54545	0.	-871.02
179	18.078	0.36364	0.	-829.18
180	18.078	0.18182	0.	-800.21
181	17.893	5.8182	0.	-925.84
182	17.893	5.6364	0.	-952.29
183	17.893	5.4545	0.	-988.93
184	17.893	5.2727	0.	-1036.6
185	17.893	5.0909	0.	-1095.
186	17.893	4.9091	0.	-1163.4
187	17.893	4.7273	0.	-1239.9
188	17.893	4.5455	0.	-1321.7
189	17.893	4.3636	0.	-1405.1
190	17.893	4.1818	0.	-1485.7
191	17.893	4.	0.	-1559.8
192	17.893	3.8182	0.	-1624.6
193	17.893	3.6364	0.	-1678.2
194	17.893	3.4545	0.	-1719.3
195	17.893	3.2727	0.	-1747.
196	17.893	3.0909	0.	-1760.9
197	17.893	2.9091	0.	-1760.9
198	17.893	2.7273	0.	-1747.
199	17.893	2.5455	0.	-1719.3
200	17.893	2.3636	0.	-1678.2
201	17.893	2.1818	0.	-1624.6
202	17.893	2.	0.	-1559.8
203	17.893	1.8182	0.	-1485.7
204	17.893	1.6364	0.	-1405.1
205	17.893	1.4545	0.	-1321.7
206	17.893	1.2727	0.	-1239.9
207	17.893	1.0909	0.	-1163.4
208	17.893	0.90909	0.	-1095.
209	17.893	0.72727	0.	-1036.6
210	17.893	0.54545	0.	-988.93
211	17.893	0.36364	0.	-952.29
212	17.893	0.18182	0.	-925.84
213	17.709	5.8182	0.	-1040.5
214	17.709	5.6364	0.	-1064.3
215	17.709	5.4545	0.	-1096.1
216	17.709	5.2727	0.	-1136.6
217	17.709	5.0909	0.	-1185.3
218	17.709	4.9091	0.	-1241.3
219	17.709	4.7273	0.	-1302.8
220	17.709	4.5455	0.	-1367.5
221	17.709	4.3636	0.	-1432.5
222	17.709	4.1818	0.	-1494.8
223	17.709	4.	0.	-1552.2
224	17.709	3.8182	0.	-1602.6
225	17.709	3.6364	0.	-1644.7
226	17.709	3.4545	0.	-1677.4
227	17.709	3.2727	0.	-1699.7
228	17.709	3.0909	0.	-1711.1
229	17.709	2.9091	0.	-1711.1
230	17.709	2.7273	0.	-1699.7
231	17.709	2.5455	0.	-1677.4
232	17.709	2.3636	0.	-1644.7
233	17.709	2.1818	0.	-1602.6
234	17.709	2.	0.	-1552.2
235	17.709	1.8182	0.	-1494.8
236	17.709	1.6364	0.	-1432.5
237	17.709	1.4545	0.	-1367.5
238	17.709	1.2727	0.	-1302.8
239	17.709	1.0909	0.	-1241.3
240	17.709	0.90909	0.	-1185.3
241	17.709	0.72727	0.	-1136.6
242	17.709	0.54545	0.	-1096.1
243	17.709	0.36364	0.	-1064.3
244	17.709	0.18182	0.	-1040.5
245	17.524	5.8182	0.	-1144.8
246	17.524	5.6364	0.	-1165.7
247	17.524	5.4545	0.	-1193.1
248	17.524	5.2727	0.	-1227.2
249	17.524	5.0909	0.	-1267.5
250	17.524	4.9091	0.	-1313.
251	17.524	4.7273	0.	-1362.2
252	17.524	4.5455	0.	-1413.3
253	17.524	4.3636	0.	-1464.2
254	17.524	4.1818	0.	-1512.8
255	17.524	4.	0.	-1557.4
256	17.524	3.8182	0.	-1596.7
257	17.524	3.6364	0.	-1629.6
258	17.524	3.4545	0.	-1655.2
259	17.524	3.2727	0.	-1672.8
260	17.524	3.0909	0.	-1681.8
261	17.524	2.9091	0.	-1681.8
262	17.524	2.7273	0.	-1672.8
263	17.524	2.5455	0.	-1655.2
264	17.524	2.3636	0.	-1629.6
265	17.524	2.1818	0.	-1596.7
266	17.524	2.	0.	-1557.4
267	17.524	1.8182	0.	-1512.8
268	17.524	1.6364	0.	-1464.2
269	17.524	1.4545	0.	-1413.3
270	17.524	1.2727	0.	-1362.2
271	17.524	1.0909	0.	-1313.
272	17.524	0.90909	0.	-1267.5
273	17.524	0.72727	0.	-1227.2
274	17.524	0.54545	0.	-1193.1
275	17.524	0.36364	0.	-1165.7
276	17.524	0.18182	0.	-1144.8
277	17.34	5.8182	0.	-1239.5
278	17.34	5.6364	0.	-1257.6
279	17.34	5.4545	0.	-1280.9
280	17.34	5.2727	0.	-1309.4
281	17.34	5.0909	0.	-1342.5
282	17.34	4.9091	0.	-1379.3
283	17.34	4.7273	0.	-1418.7
284	17.34	4.5455	0.	-1459.1
285	17.34	4.3636	0.	-1499.1
286	17.34	4.1818	0.	-1537.1
287	17.34	4.	0.	-1571.9
288	17.34	3.8182	0.	-1602.5
289	17.34	3.6364	0.	-1628.1
290	17.34	3.4545	0.	-1648.1
291	17.34	3.2727	0.	-1661.8
292	17.34	3.0909	0.	-1668.7
293	17.34	2.9091	0.	-1668.7
294	17.34	2.7273	0.	-1661.8
295	17.34	2.5455	0.	-1648.1
296	17.34	2.3636	0.	-1628.1
297	17.34	2.1818	0.	-1602.5
298	17.34	2.	0.	-1571.9
299	17.34	1.8182	0.	-1537.1
300	17.34	1.6364	0.	-1499.1
301	17.34	1.4545	0.	-1459.1
302	17.34	1.2727	0.	-1418.7
303	17.34	1.0909	0.	-1379.3
304	17.34	0.90909	0.	-1342.5
305	17.34	0.72727	0.	-1309.4
306	17.34	0.54545	0.	-1280.9
307	17.34	0.36364	0.	-1257.6
308	17.34	0.18182	0.	-1239.5
309	17.155	5.8182	0.	-1325.8
310	17.155	5.6364	0.	-1341.3
311	17.155	5.4545	0.	-1360.9
312	17.155	5.2727	0.	-1384.5
313	17.155	5.0909	0.	-1411.6
314	17.155	4.9091	0.	-1441.3
315	17.155	4.7273	0.	-1472.8
316	17.155	4.5455	0.	-1504.8
317	17.155	4.3636	0.	-1536.2
318	17.155	4.1818	0.	-1566.
319	17.155	4.	0.	-1593.2
320	17.155	3.8182	0.	-1617.1
321	17.155	3.6364	0.	-1637.
322	17.155	3.4545	0.	-1652.5
323	17.155	3.2727	0.	-1663.1
324	17.155	3.0909	0.	-1668.5
325	17.155	2.9091	0.	-1668.5
326	17.155	2.7273	0.	-1663.1
327	17.155	2.5455	0.	-1652.5
328	17.155	2.3636	0.	-1637.
329	17.155	2.1818	0.	-1617.1
330	17.155	2.	0.	-1593.2
331	17.155	1.8182	0.	-1566.
332	17.155	1.6364	0.	-1536.2
333	17.155	1.4545	0.	-1504.8
334	17.155	1.2727	0.	-1472.8
335	17.155	1.0909	0.	-1441.3
336	17.155	0.90909	0.	-1411.6
337	17.155	0.72727	0.	-1384.5
338	17.155	0.54545	0.	-1360.9
339	17.155	0.36364	0.	-1341.3
340	17.155	0.18182	0.	-1325.8
341	16.971	5.8182	0.	-1404.9
342	16.971	5.6364	0.	-1417.9
343	16.971	5.4545	0.	-1434.3
344	16.971	5.2727	0.	-1453.8
345	16.971	5.0909	0.	-1475.9
346	16.971	4.9091	0.	-1499.9
347	16.971	4.7273	0.	-1525.
348	16.971	4.5455	0.	-1550.3
349	16.971	4.3636	0.	-1575.1
350	16.971	4.1818	0.	-1598.5
351	16.971	4.	0.	-1619.7
352	16.971	3.8182	0.	-1638.4
353	16.971	3.6364	0.	-1653.9
354	16.971	3.4545	0.	-1665.9
355	16.971	3.2727	0.	-1674.1
356	16.971	3.0909	0.	-1678.2
357	16.971	2.9091	0.	-1678.2
358	16.971	2.7273	0.	-1674.1
359	16.971	2.5455	0.	-1665.9
360	16.971	2.3636	0.	-1653.9
361	16.971	2.1818	0.	-1638.4
362	16.971	2.	0.	-1619.7
363	16.971	1.8182	0.	-1598.5
364	16.971	1.6364	0.	-1575.1
365	16.971	1.4545	0.	-1550.3
366	16.971	1.2727	0.	-1525.
367	16.971	1.0909	0.	-1499.9
368	16.971	0.90909	0.	-1475.9
369	16.971	0.72727	0.	-1453.8
370	16.971	0.54545	0.	-1434.3
371	16.971	0.36364	0.	-1417.9
372	16.971	0.18182	0.	-1404.9
373	16.786	5.8182	0.	-1478.
374	16.786	5.6364	0.	-1488.7
375	16.786	5.4545	0.	-1502.4
376	16.786	5.2727	0.	-1518.4
377	16.786	5.0909	0.	-1536.3
378	16.786	4.9091	0.	-1555.6
379	16.786	4.7273	0.	-1575.7
380	16.786	4.5455	0.	-1595.8
381	16.786	4.3636	0.	-1615.3
382	16.786	4.1818	0.	-1633.6
383	16.786	4.	0.	-1650.3
384	16.786	3.8182	0.	-1664.8
385	16.786	3.6364	0.	-1676.9
386	16.786	3.4545	0.	-1686.2
387	16.786	3.2727	0.	-1692.5
388	16.786	3.0909	0.	-1695.7
389	16.786	2.9091	0.	-1695.7
390	16.786	2.7273	0.	-1692.5
391	16.786	2.5455	0.	-1686.2
392	16.786	2.3636	0.	-1676.9
393	16.786	2.1818	0.	-1664.8
394	16.786	2.	0.	-1650.3
395	16.786	1.8182	0.	-1633.6
396	16.786	1.6364	0.	-1615.3
397	16.786	1.4545	0.	-1595.8
398	16.786	1.2727	0.	-1575.7
399	16.786	1.0909	0.	-1555.6
400	16.786	0.90909	0.	-1536.3
401	16.786	0.72727	0.	-1518.4
402	16.786	0.54545	0.	-1502.4
403	16.786	0.36364	0.	-1488.7
404	16.786	0.18182	0.	-1478.
405	16.602	5.8182	0.	-1546.
406	16.602	5.6364	0.	-1554.7
407	16.602	5.4545	0.	-1566.
408	16.602	5.2727	0.	-1579.2
409	16.602	5.0909	0.	-1593.7
410	16.602	4.9091	0.	-1609.2
411	16.602	4.7273	0.	-1625.2
412	16.602	4.5455	0.	-1641.1
413	16.602	4.3636	0.	-1656.5
414	16.602	4.1818	0.	-1671.
415	16.602	4.	0.	-1684.
416	16.602	3.8182	0.	-1695.4
417	16.602	3.6364	0.	-1704.7
418	16.602	3.4545	0.	-1712.
419	16.602	3.2727	0.	-1716.9
420	16.602	3.0909	0.	-1719.3
421	16.602	2.9091	0.	-1719.3
422	16.602	2.7273	0.	-1716.9
423	16.602	2.5455	0.	-1712.
424	16.602	2.3636	0.	-1704.7
425	16.602	2.1818	0.	-1695.4
426	16.602	2.	0.	-1684.
427	16.602	1.8182	0.	-1671.
428	16.602	1.6364	0.	-1656.5
429	16.602	1.4545	0.	-1641.1
430	16.602	1.2727	0.	-1625.2
431	16.602	1.0909	0.	-1609.2
432	16.602	0.90909	0.	-1593.7
433	16.602	0.72727	0.	-1579.2
434	16.602	0.54545	0.	-1566.
435	16.602	0.36364	0.	-1554.7
436	16.602	0.18182	0.	-1546.
437	16.417	5.8182	0.	-1609.8
438	16.417	5.6364	0.	-1616.8
439	16.417	5.4545	0.	-1626.1
440	16.417	5.2727	0.	-1636.9
441	16.417	5.0909	0.	-1648.7
442	16.417	4.9091	0.	-1661.1
443	16.417	4.7273	0.	-1673.9
444	16.417	4.5455	0.	-1686.5
445	16.417	4.3636	0.	-1698.7
446	16.417	4.1818	0.	-1710.
447	16.417	4.	0.	-1720.2
448	16.417	3.8182	0.	-1729.1
449	16.417	3.6364	0.	-1736.4
450	16.417	3.4545	0.	-1742.
451	16.417	3.2727	0.	-1745.8
452	16.417	3.0909	0.	-1747.7
453	16.417	2.9091	0.	-1747.7
454	16.417	2.7273	0.	-1745.8
455	16.417	2.5455	0.	-1742.
456	16.417	2.3636	0.	-1736.4
457	16.417	2.1818	0.	-1729.1
458	16.417	2.	0.	-1720.2
459	16.417	1.8182	0.	-1710.
460	16.417	1.6364	0.	-1698.7
461	16.417	1.4545	0.	-1686.5
462	16.417	1.2727	0.	-1673.9
463	16.417	1.0909	0.	-1661.1
464	16.417	0.90909	0.	-1648.7
465	16.417	0.72727	0.	-1636.9
466	16.417	0.54545	0.	-1626.1
467	16.417	0.36364	0.	-1616.8
468	16.417	0.18182	0.	-1609.8
469	16.233	5.8182	0.	-1670.2
470	16.233	5.6364	0.	-1675.8
471	16.233	5.4545	0.	-1683.4
472	16.233	5.2727	0.	-1692.2
473	16.233	5.0909	0.	-1701.7
474	16.233	4.9091	0.	-1711.7
475	16.233	4.7273	0.	-1721.9
476	16.233	4.5455	0.	-1731.9
477	16.233	4.3636	0.	-1741.5
478	16.233	4.1818	0.	-1750.5
479	16.233	4.	0.	-1758.5
480	16.233	3.8182	0.	-1765.4
481	16.233	3.6364	0.	-1771.1
482	16.233	3.4545	0.	-1775.4
483	16.233	3.2727	0.	-1778.4
484	16.233	3.0909	0.	-1779.9
485	16.233	2.9091	0.	-1779.9
486	16.233	2.7273	0.	-1778.4
487	16.233	2.5455	0.	-1775.4
488	16.233	2.3636	0.	-1771.1
489	16.233	2.1818	0.	-1765.4
490	16.233	2.	0.	-1758.5
491	16.233	1.8182	0.	-1750.5
492	16.233	1.6364	0.	-1741.5
493	16.233	1.4545	0.	-1731.9
494	16.233	1.2727	0.	-1721.9
495	16.233	1.0909	0.	-1711.7
496	16.233	0.90909	0.	-1701.7
497	16.233	0.72727	0.	-1692.2
498	16.233	0.54545	0.	-1683.4
499	16.233	0.36364	0.	-1675.8
500	16.233	0.18182	0.	-1670.2
501	16.049	5.8182	0.	-1728.
502	16.049	5.6364	0.	-1732.3
503	16.049	5.4545	0.	-1738.5
504	16.049	5.2727	0.	-1745.6
505	16.049	5.0909	0.	-1753.3
506	16.049	4.9091	0.	-1761.3
507	16.049	4.7273	0.	-1769.5
508	16.049	4.5455	0.	-1777.4
509	16.049	4.3636	0.	-1785.
510	16.049	4.1818	0.	-1792.
511	16.049	4.	0.	-1798.3
512	16.049	3.8182	0.	-1803.7
513	16.049	3.6364	0.	-1808.1
514	16.049	3.4545	0.	-1811.5
515	16.049	3.2727	0.	-1813.8
516	16.049	3.0909	0.	-1815.
517	16.049	2.9091	0.	-1815.
518	16.049	2.7273	0.	-1813.8
519	16.049	2.5455	0.	-1811.5
520	16.049	2.3636	0.	-1808.1
521	16.049	2.1818	0.	-1803.7
522	16.049	2.	0.	-1798.3
523	16.049	1.8182	0.	-1792.
524	16.049	1.6364	0.	-1785.
525	16.049	1.4545	0.	-1777.4
526	16.049	1.2727	0.	-1769.5
527	16.049	1.0909	0.	-1761.3
528	16.049	0.90909	0.	-1753.3
529	16.049	0.72727	0.	-1745.6
530	16.049	0.54545	0.	-1738.5
531	16.049	0.36364	0.	-1732.3
532	16.049	0.18182	0.	-1728.
533	15.864	5.8182	0.	-1783.6
534	15.864	5.6364	0.	-1786.8
535	15.864	5.4545	0.	-1791.8
536	15.864	5.2727	0.	-1797.6
537	15.864	5.0909	0.	-1803.8
538	15.864	4.9091	0.	-1810.2
539	15.864	4.7273	0.	-1816.7
540	15.864	4.5455	0.	-1823.
541	15.864	4.3636	0.	-1829.
542	15.864	4.1818	0.	-1834.5
543	15.864	4.	0.	-1839.4
544	15.864	3.8182	0.	-1843.7
545	15.864	3.6364	0.	-1847.1
546	15.864	3.4545	0.	-1849.8
547	15.864	3.2727	0.	-1851.5
548	15.864	3.0909	0.	-1852.4
549	15.864	2.9091	0.	-1852.4
550	15.864	2.7273	0.	-1851.5
551	15.864	2.5455	0.	-1849.8
552	15.864	2.3636	0.	-1847.1
553	15.864	2.1818	0.	-1843.7
554	15.864	2.	0.	-1839.4
555	15.864	1.8182	0.	-1834.5
556	15.864	1.6364	0.	-1829.
557	15.864	1.4545	0.	-1823.
558	15.864	1.2727	0.	-1816.7
559	15.864	1.0909	0.	-1810.2
560	15.864	0.90909	0.	-1803.8
561	15.864	0.72727	0.	-1797.6
562	15.864	0.54545	0.	-1791.8
563	15.864	0.36364	0.	-1786.8
564	15.864	0.18182	0.	-1783.6
565	15.68	5.8182	0.	-1837.4
566	15.68	5.6364	0.	-1839.8
567	15.68	5.4545	0.	-1843.8
568	15.68	5.2727	0.	-1848.5
569	15.68	5.0909	0.	-1853.4
570	15.68	4.9091	0.	-1858.6
571	15.68	4.7273	0.	-1863.7
572	15.68	4.5455	0.	-1868.7
573	15.68	4.3636	0.	-1873.5
574	15.68	4.1818	0.	-1877.8
575	15.68	4.	0.	-1881.7
576	15.68	3.8182	0.	-1885.
577	15.68	3.6364	0.	-1887.7
578	15.68	3.4545	0.	-1889.7
579	15.68	3.2727	0.	-1891.1
580	15.68	3.0909	0.	-1891.8
581	15.68	2.9091	0.	-1891.8
582	15.68	2.7273	0.	-1891.1
583	15.68	2.5455	0.	-1889.7
584	15.68	2.3636	0.	-1887.7
585	15.68	2.1818	0.	-1885.
586	15.68	2.	0.	-1881.7
587	15.68	1.8182	0.	-1877.8
588	15.68	1.6364	0.	-1873.5
589	15.68	1.4545	0.	-1868.7
590	15.68	1.2727	0.	-1863.7
591	15.68	1.0909	0.	-1858.6
592	15.68	0.90909	0.	-1853.4
593	15.68	0.72727	0.	-1848.5
594	15.68	0.54545	0.	-1843.8
595	15.68	0.36364	0.	-1839.8
596	15.68	0.18182	0.	-1837.4
597	15.495	5.8182	0.	-1890.
598	15.495	5.6364	0.	-1891.5
599	15.495	5.4545	0.	-1894.8
600	15.495	5.2727	0.	-1898.5
601	15.495	5.0909	0.	-1902.5
602	15.495	4.9091	0.	-1906.6
603	15.495	4.7273	0.	-1910.7
604	15.495	4.5455	0.	-1914.6
605	15.495	4.3636	0.	-1918.3
606	15.495	4.1818	0.	-1921.8
607	15.495	4.	0.	-1924.8
608	15.495	3.8182	0.	-1927.4
609	15.495	3.6364	0.	-1929.5
610	15.495	3.4545	0.	-1931.1
611	15.495	3.2727	0.	-1932.1
612	15.495	3.0909	0.	-1932.7
613	15.495	2.9091	0.	-1932.7
614	15.495	2.7273	0.	-1932.1
615	15.495	2.5455	0.	-1931.1
616	15.495	2.3636	0.	-1929.5
617	15.495	2.1818	0.	-1927.4
618	15.495	2.	0.	-1924.8
619	15.495	1.8182	0.	-1921.8
620	15.495	1.6364	0.	-1918.3
621	15.495	1.4545	0.	-1914.6
622	15.495	1.2727	0.	-1910.7
623	15.495	1.0909	0.	-1906.6
624	15.495	0.90909	0.	-1902.5
625	15.495	0.72727	0.	-1898.5
626	15.495	0.54545	0.	-1894.8
627	15.495	0.36364	0.	-1891.5
628	15.495	0.18182	0.	-1890.
629	15.311	5.8182	0.	-1941.4
630	15.311	5.6364	0.	-1942.4
631	15.311	5.4545	0.	-1944.9
632	15.311	5.2727	0.	-1947.9
633	15.311	5.0909	0.	-1951.
634	15.311	4.9091	0.	-1954.3
635	15.311	4.7273	0.	-1957.5
636	15.311	4.5455	0.	-1960.7
637	15.311	4.3636	0.	-1963.6
638	15.311	4.1818	0.	-1966.3
639	15.311	4.	0.	-1968.6
640	15.311	3.8182	0.	-1970.7
641	15.311	3.6364	0.	-1972.3
642	15.311	3.4545	0.	-1973.5
643	15.311	3.2727	0.	-1974.4
644	15.311	3.0909	0.	-1974.8
645	15.311	2.9091	0.	-1974.8
646	15.311	2.7273	0.	-1974.4
647	15.311	2.5455	0.	-1973.5
648	15.311	2.3636	0.	-1972.3
649	15.311	2.1818	0.	-1970.7
650	15.311	2.	0.	-1968.6
651	15.311	1.8182	0.	-1966.3
652	15.311	1.6364	0.	-1963.6
653	15.311	1.4545	0.	-1960.7
654	15.311	1.2727	0.	-1957.5
655	15.311	1.0909	0.	-1954.3
656	15.311	0.90909	0.	-1951.
657	15.311	0.72727	0.	-1947.9
658	15.311	0.54545	0.	-1944.9
659	15.311	0.36364	0.	-1942.4
660	15.311	0.18182	0.	-1941.4
661	15.126	5.8182	0.	-1992.1
662	15.126	5.6364	0.	-1992.5
663	15.126	5.4545	0.	-1994.5
664	15.126	5.2727	0.	-1996.8
665	15.126	5.0909	0.	-1999.3
666	15.126	4.9091	0.	-2001.9
667	15.126	4.7273	0.	-2004.4
668	15.126	4.5455	0.	-2006.9
669	15.126	4.3636	0.	-2009.2
670	15.126	4.1818	0.	-2011.3
671	15.126	4.	0.	-2013.1
672	15.126	3.8182	0.	-2014.7
673	15.126	3.6364	0.	-2016.
674	15.126	3.4545	0.	-2016.9
675	15.126	3.2727	0.	-2017.6
676	15.126	3.0909	0.	-2017.9
677	15.126	2.9091	0.	-2017.9
678	15.126	2.7273	0.	-2017.6
679	15.126	2.5455	0.	-2016.9
680	15.126	2.3636	0.	-2016.
681	15.126	2.1818	0.	-2014.7
682	15.126	2.	0.	-2013.1
683	15.126	1.8182	0.	-2011.3
684	15.126	1.6364	0.	-2009.2
685	15.126	1.4545	0.	-2006.9
686	15.126	1.2727	0.	-2004.4
687	15.126	1.0909	0.	-2001.9
688	15.126	0.90909	0.	-1999.3
689	15.126	0.72727	0.	-1996.8
690	15.126	0.54545	0.	-1994.5
691	15.126	0.36364	0.	-1992.5
692	15.126	0.18182	0.	-1992.1
693	14.942	5.8182	0.	-2042.1
694	14.942	5.6364	0.	-2042.1
695	14.942	5.4545	0.	-2043.6
696	14.942	5.2727	0.	-2045.4
697	14.942	5.0909	0.	-2047.3
698	14.942	4.9091	0.	-2049.4
699	14.942	4.7273	0.	-2051.4
700	14.942	4.5455	0.	-2053.3
701	14.942	4.3636	0.	-2055.1
702	14.942	4.1818	0.	-2056.7
703	14.942	4.	0.	-2058.1
704	14.942	3.8182	0.	-2059.4
705	14.942	3.6364	0.	-2060.3
706	14.942	3.4545	0.	-2061.1
707	14.942	3.2727	0.	-2061.6
708	14.942	3.0909	0.	-2061.8
709	14.942	2.9091	0.	-2061.8
710	14.942	2.7273	0.	-2061.6
711	14.942	2.5455	0.	-2061.1
712	14.942	2.3636	0.	-2060.3
713	14.942	2.1818	0.	-2059.4
714	14.942	2.	0.	-2058.1
715	14.942	1.8182	0.	-2056.7
716	14.942	1.6364	0.	-2055.1
717	14.942	1.4545	0.	-2053.3
718	14.942	1.2727	0.	-2051.4
719	14.942	1.0909	0.	-2049.4
720	14.942	0.90909	0.	-2047.3
721	14.942	0.72727	0.	-2045.4
722	14.942	0.54545	0.	-2043.6
723	14.942	0.36364	0.	-2042.1
724	14.942	0.18182	0.	-2042.1
725	14.757	5.8182	0.	-2091.7
726	14.757	5.6364	0.	-2091.3
727	14.757	5.4545	0.	-2092.4
728	14.757	5.2727	0.	-2093.8
729	14.757	5.0909	0.	-2095.3
730	14.757	4.9091	0.	-2096.8
731	14.757	4.7273	0.	-2098.4
732	14.757	4.5455	0.	-2099.9
733	14.757	4.3636	0.	-2101.3
734	14.757	4.1818	0.	-2102.5
735	14.757	4.	0.	-2103.6
736	14.757	3.8182	0.	-2104.6
737	14.757	3.6364	0.	-2105.3
738	14.757	3.4545	0.	-2105.9
739	14.757	3.2727	0.	-2106.3
740	14.757	3.0909	0.	-2106.4
741	14.757	2.9091	0.	-2106.4
742	14.757	2.7273	0.	-2106.3
743	14.757	2.5455	0.	-2105.9
744	14.757	2.3636	0.	-2105.3
745	14.757	2.1818	0.	-2104.6
746	14.757	2.	0.	-2103.6
747	14.757	1.8182	0.	-2102.5
748	14.757	1.6364	0.	-2101.3
749	14.757	1.4545	0.	-2099.9
750	14.757	1.2727	0.	-2098.4
751	14.757	1.0909	0.	-2096.8
752	14.757	0.90909	0.	-2095.3
753	14.757	0.72727	0.	-2093.8
754	14.757	0.54545	0.	-2092.4
755	14.757	0.36364	0.	-2091.3
756	14.757	0.18182	0.	-2091.7
757	14.573	5.8182	0.	-2141.
758	14.573	5.6364	0.	-2140.3
759	14.573	5.4545	0.	-2141.
760	14.573	5.2727	0.	-2142.
761	14.573	5.0909	0.	-2143.2
762	14.573	4.9091	0.	-2144.3
763	14.573	4.7273	0.	-2145.5
764	14.573	4.5455	0.	-2146.7
765	14.573	4.3636	0.	-2147.7
766	14.573	4.1818	0.	-2148.7
767	14.573	4.	0.	-2149.5
768	14.573	3.8182	0.	-2150.2
769	14.573	3.6364	0.	-2150.8
770	14.573	3.4545	0.	-2151.2
771	14.573	3.2727	0.	-2151.5
772	14.573	3.0909	0.	-2151.7
773	14.573	2.9091	0.	-2151.7
774	14.573	2.7273	0.	-2151.5
775	14.573	2.5455	0.	-2151.2
776	14.573	2.3636	0.	-2150.8
777	14.573	2.1818	0.	-2150.2
778	14.573	2.	0.	-2149.5
779	14.573	1.8182	0.	-2148.7
780	14.573	1.6364	0.	-2147.7
781	14.573	1.4545	0.	-2146.7
782	14.573	1.2727	0.	-2145.5
783	14.573	1.0909	0.	-2144.3
784	14.573	0.90909	0.	-2143.2
785	14.573	0.72727	0.	-2142.
786	14.573	0.54545	0.	-2141.
787	14.573	0.36364	0.	-2140.3
788	14.573	0.18182	0.	-2141.
789	14.388	5.8182	0.	-2190.1
790	14.388	5.6364	0.	-2189.
791	14.388	5.4545	0.	-2189.5
792	14.388	5.2727	0.	-2190.2
793	14.388	5.0909	0.	-2191.1
794	14.388	4.9091	0.	-2191.9
795	14.388	4.7273	0.	-2192.8
796	14.388	4.5455	0.	-2193.6
797	14.388	4.3636	0.	-2194.4
798	14.388	4.1818	0.	-2195.1
799	14.388	4.	0.	-2195.8
800	14.388	3.8182	0.	-2196.3
801	14.388	3.6364	0.	-2196.7
802	14.388	3.4545	0.	-2197.
803	14.388	3.2727	0.	-2197.3
804	14.388	3.0909	0.	-2197.4
805	14.388	2.9091	0.	-2197.4
806	14.388	2.7273	0.	-2197.3
807	14.388	2.5455	0.	-2197.
808	14.388	2.3636	0.	-2196.7
809	14.388	2.1818	0.	-2196.3
810	14.388	2.	0.	-2195.8
811	14.388	1.8182	0.	-2195.1
812	14.388	1.6364	0.	-2194.4
813	14.388	1.4545	0.	-2193.6
814	14.388	1.2727	0.	-2192.8
815	14.388	1.0909	0.	-2191.9
816	14.388	0.90909	0.	-2191.1
817	14.388	0.72727	0.	-2190.2
818	14.388	0.54545	0.	-2189.5
819	14.388	0.36364	0.	-2189.
820	14.388	0.18182	0.	-2190.1
821	14.204	5.8182	0.	-2239.
822	14.204	5.6364	0.	-2237.7
823	14.204	5.4545	0.	-2238.
824	14.204	5.2727	0.	-2238.4
825	14.204	5.0909	0.	-2239.
826	14.204	4.9091	0.	-2239.6
827	14.204	4.7273	0.	-2240.2
828	14.204	4.5455	0.	-2240.8
829	14.204	4.3636	0.	-2241.4
830	14.204	4.1818	0.	-2241.9
831	14.204	4.	0.	-2242.4
832	14.204	3.8182	0.	-2242.7
833	14.204	3.6364	0.	-2243.
834	14.204	3.4545	0.	-2243.3
835	14.204	3.2727	0.	-2243.4
836	14.204	3.0909	0.	-2243.5
837	14.204	2.9091	0.	-2243.5
838	14.204	2.7273	0.	-2243.4
839	14.204	2.5455	0.	-2243.3
840	14.204	2.3636	0.	-2243.
841	14.204	2.1818	0.	-2242.7
842	14.204	2.	0.	-2242.4
843	14.204	1.8182	0.	-2241.9
844	14.204	1.6364	0.	-2241.4
845	14.204	1.4545	0.	-2240.8
846	14.204	1.2727	0.	-2240.2
847	14.204	1.0909	0.	-2239.6
848	14.204	0.90909	0.	-2239.
849	14.204	0.72727	0.	-2238.4
850	14.204	0.54545	0.	-2238.
851	14.204	0.36364	0.	-2237.7
852	14.204	0.18182	0.	-2239.
853	14.019	5.8182	0.	-2287.8
854	14.019	5.6364	0.	-2286.4
855	14.019	5.4545	0.	-2286.4
856	14.019	5.2727	0.	-2286.7
857	14.019	5.0909	0.	-2287.
858	14.019	4.9091	0.	-2287.4
859	14.019	4.7273	0.	-2287.8
860	14.019	4.5455	0.	-2288.2
861	14.019	4.3636	0.	-2288.6
862	14.019	4.1818	0.	-2288.9
863	14.019	4.	0.	-2289.2
864	14.019	3.8182	0.	-2289.5
865	14.019	3.6364	0.	-2289.7
866	14.019	3.4545	0.	-2289.9
867	14.019	3.2727	0.	-2290.
868	14.019	3.0909	0.	-2290.
869	14.019	2.9091	0.	-2290.
870	14.019	2.7273	0.	-2290.
871	14.019	2.5455	0.	-2289.9
872	14.019	2.3636	0.	-2289.7
873	14.019	2.1818	0.	-2289.5
874	14.019	2.	0.	-2289.2
875	14.019	1.8182	0.	-2288.9
876	14.019	1.6364	0.	-2288.6
877	14.019	1.4545	0.	-2288.2
878	14.019	1.2727	0.	-2287.8
879	14.019	1.0909	0.	-2287.4
880	14.019	0.90909	0.	-2287.
881	14.019	0.72727	0.	-2286.7
882	14.019	0.54545	0.	-2286.4
883	14.019	0.36364	0.	-2286.4
884	14.019	0.18182	0.	-2287.8
885	13.835	5.8182	0.	-2336.7
886	13.835	5.6364	0.	-2335.
887	13.835	5.4545	0.	-2334.9
888	13.835	5.2727	0.	-2335.
889	13.835	5.0909	0.	-2335.1
890	13.835	4.9091	0.	-2335.3
891	13.835	4.7273	0.	-2335.5
892	13.835	4.5455	0.	-2335.8
893	13.835	4.3636	0.	-2336.
894	13.835	4.1818	0.	-2336.2
895	13.835	4.	0.	-2336.4
896	13.835	3.8182	0.	-2336.6
897	13.835	3.6364	0.	-2336.7
898	13.835	3.4545	0.	-2336.8
899	13.835	3.2727	0.	-2336.9
900	13.835	3.0909	0.	-2336.9
901	13.835	2.9091	0.	-2336.9
902	13.835	2.7273	0.	-2336.9
903	13.835	2.5455	0.	-2336.8
904	13.835	2.3636	0.	-2336.7
905	13.835	2.1818	0.	-2336.6
906	13.835	2.	0.	-2336.4
907	13.835	1.8182	0.	-2336.2
908	13.835	1.6364	0.	-2336.
909	13.835	1.4545	0.	-2335.8
910	13.835	1.2727	0.	-2335.5
911	13.835	1.0909	0.	-2335.3
912	13.835	0.90909	0.	-2335.1
913	13.835	0.72727	0.	-2335.
914	13.835	0.54545	0.	-2334.9
915	13.835	0.36364	0.	-2335.
916	13.835	0.18182	0.	-2336.7
917	13.65	5.8182	0.	-2385.5
918	13.65	5.6364	0.	-2383.7
919	13.65	5.4545	0.	-2383.4
920	13.65	5.2727	0.	-2383.3
921	13.65	5.0909	0.	-2383.3
922	13.65	4.9091	0.	-2383.4
923	13.65	4.7273	0.	-2383.4
924	13.65	4.5455	0.	-2383.5
925	13.65	4.3636	0.	-2383.6
926	13.65	4.1818	0.	-2383.7
927	13.65	4.	0.	-2383.8
928	13.65	3.8182	0.	-2383.9
929	13.65	3.6364	0.	-2384.
930	13.65	3.4545	0.	-2384.
931	13.65	3.2727	0.	-2384.1
932	13.65	3.0909	0.	-2384.1
933	13.65	2.9091	0.	-2384.1
934	13.65	2.7273	0.	-2384.1
935	13.65	2.5455	0.	-2384.
936	13.65	2.3636	0.	-2384.
937	13.65	2.1818	0.	-2383.9
938	13.65	2.	0.	-2383.8
939	13.65	1.8182	0.	-2383.7
940	13.65	1.6364	0.	-2383.6
941	13.65	1.4545	0.	-2383.5
942	13.65	1.2727	0.	-2383.4
943	13.65	1.0909	0.	-2383.4
944	13.65	0.90909	0.	-2383.3
945	13.65	0.72727	0.	-2383.3
946	13.65	0.54545	0.	-2383.4
947	13.65	0.36364	0.	-2383.7
948	13.65	0.18182	0.	-2385.5
949	13.466	5.8182	0.	-2434.4
950	13.466	5.6364	0.	-2432.5
951	13.466	5.4545	0.	-2432.1
952	13.466	5.2727	0.	-2431.8
953	13.466	5.0909	0.	-2431.7
954	13.466	4.9091	0.	-2431.6
955	13.466	4.7273	0.	-2431.5
956	13.466	4.5455	0.	-2431.5
957	13.466	4.3636	0.	-2431.5
958	13.466	4.1818	0.	-2431.5
959	13.466	4.	0.	-2431.5
960	13.466	3.8182	0.	-2431.5
961	13.466	3.6364	0.	-2431.5
962	13.466	3.4545	0.	-2431.5
963	13.466	3.2727	0.	-2431.5
964	13.466	3.0909	0.	-2431.5
965	13.466	2.9091	0.	-2431.5
966	13.466	2.7273	0.	-2431.5
967	13.466	2.5455	0.	-2431.5
968	13.466	2.3636	0.	-2431.5
969	13.466	2.1818	0.	-2431.5
970	13.466	2.	0.	-2431.5
971	13.466	1.8182	0.	-2431.5
972	13.466	1.6364	0.	-2431.5
973	13.466	1.4545	0.	-2431.5
974	13.466	1.2727	0.	-2431.5
975	13.466	1.0909	0.	-2431.6
976	13.466	0.90909	0.	-2431.7
977	13.466	0.72727	0.	-2431.8
978	13.466	0.54545	0.	-2432.1
979	13.466	0.36364	0.	-2432.5
980	13.466	0.18182	0.	-2434.4
981	13.282	5.8182	0.	-2483.4
982	13.282	5.6364	0.	-2481.4
983	13.282	5.4545	0.	-2480.8
984	13.282	5.2727	0.	-2480.5
985	13.282	5.0909	0.	-2480.2
986	13.282	4.9091	0.	-2480.
987	13.282	4.7273	0.	-2479.8
988	13.282	4.5455	0.	-2479.7
989	13.282	4.3636	0.	-2479.6
990	13.282	4.1818	0.	-2479.5
991	13.282	4.	0.	-2479.4
992	13.282	3.8182	0.	-2479.4
993	13.282	3.6364	0.	-2479.3
994	13.282	3.4545	0.	-2479.3
995	13.282	3.2727	0.	-2479.3
996	13.282	3.0909	0.	-2479.3
997	13.282	2.9091	0.	-2479.3
998	13.282	2.7273	0.	-2479.3
999	13.282	2.5455	0.	-2479.3
1000	13.282	2.3636	0.	-2479.3
1001	13.282	2.1818	0.	-2479.4
1002	13.282	2.	0.	-2479.4
1003	13.282	1.8182	0.	-2479.5
1004	13.282	1.6364	0.	-2479.6
1005	13.282	1.4545	0.	-2479.7
1006	13.282	1.2727	0.	-2479.8
1007	13.282	1.0909	0.	-2480.
1008	13.282	0.90909	0.	-2480.2
1009	13.282	0.72727	0.	-2480.5
1010	13.282	0.54545	0.	-2480.8
1011	13.282	0.36364	0.	-2481.4
1012	13.282	0.18182	0.	-2483.4
1013	13.097	5.8182	0.	-2532.5
1014	13.097	5.6364	0.	-2530.4
1015	13.097	5.4545	0.	-2529.7
1016	13.097	5.2727	0.	-2529.3
1017	13.097	5.0909	0.	-2528.9
1018	13.097	4.9091	0.	-2528.6
1019	13.097	4.7273	0.	-2528.3
1020	13.097	4.5455	0.	-2528.1
1021	13.097	4.3636	0.	-2527.9
1022	13.097	4.1818	0.	-2527.7
1023	13.097	4.	0.	-2527.6
1024	13.097	3.8182	0.	-2527.5
1025	13.097	3.6364	0.	-2527.4
1026	13.097	3.4545	0.	-2527.3
1027	13.097	3.2727	0.	-2527.3
1028	13.097	3.0909	0.	-2527.2
1029	13.097	2.9091	0.	-2527.2
1030	13.097	2.7273	0.	-2527.3
1031	13.097	2.5455	0.	-2527.3
1032	13.097	2.3636	0.	-2527.4
1033	13.097	2.1818	0.	-2527.5
1034	13.097	2.	0.	-2527.6
1035	13.097	1.8182	0.	-2527.7
1036	13.097	1.6364	0.	-2527.9
1037	13.097	1.4545	0.	-2528.1
1038	13.097	1.2727	0.	-2528.3
1039	13.097	1.0909	0.	-2528.6
1040	13.097	0.90909	0.	-2528.9
1041	13.097	0.72727	0.	-2529.3
1042	13.097	0.54545	0.	-2529.7
1043	13.097	0.36364	0.	-2530.4
1044	13.097	0.18182	0.	-2532.5
1045	12.913	5.8182	0.	-2581.7
1046	12.913	5.6364	0.	-2579.5
1047	12.913	5.4545	0.	-2578.8
1048	12.913	5.2727	0.	-2578.2
1049	12.913	5.0909	0.	-2577.7
1050	12.913	4.9091	0.	-2577.3
1051	12.913	4.7273	0.	-2576.9
1052	12.913	4.5455	0.	-2576.6
1053	12.913	4.3636	0.	-2576.4
1054	12.913	4.1818	0.	-2576.1
1055	12.913	4.	0.	-2575.9
1056	12.913	3.8182	0.	-2575.8
1057	12.913	3.6364	0.	-2575.6
1058	12.913	3.4545	0.	-2575.5
1059	12.913	3.2727	0.	-2575.5
1060	12.913	3.0909	0.	-2575.5
1061	12.913	2.9091	0.	-2575.5
1062	12.913	2.7273	0.	-2575.5
1063	12.913	2.5455	0.	-2575.5
1064	12.913	2.3636	0.	-2575.6
1065	12.913	2.1818	0.	-2575.8
1066	12.913	2.	0.	-2575.9
1067	12.913	1.8182	0.	-2576.1
1068	12.913	1.6364	0.	-2576.4
1069	12.913	1.4545	0.	-2576.6
1070	12.913	1.2727	0.	-2576.9
1071	12.913	1.0909	0.	-2577.3
1072	12.913	0.90909	0.	-2577.7
1073	12.913	0.72727	0.	-2578.2
1074	12.913	0.54545	0.	-2578.8
1075	12.913	0.36364	0.	-2579.5
1076	12.913	0.18182	0.	-2581.7
1077	12.728	5.8182	0.	-2631.1
1078	12.728	5.6364	0.	-2628.8
1079	12.728	5.4545	0.	-2628.
1080	12.728	5.2727	0.	-2627.3
1081	12.728	5.0909	0.	-2626.7
1082	12.728	4.9091	0.	-2626.2
1083	12.728	4.7273	0.	-2625.8
1084	12.728	4.5455	0.	-2625.4
1085	12.728	4.3636	0.	-2625.
1086	12.728	4.1818	0.	-2624.8
1087	12.728	4.	0.	-2624.5
1088	12.728	3.8182	0.	-2624.3
1089	12.728	3.6364	0.	-2624.1
1090	12.728	3.4545	0.	-2624.
1091	12.728	3.2727	0.	-2623.9
1092	12.728	3.0909	0.	-2623.9
1093	12.728	2.9091	0.	-2623.9
1094	12.728	2.7273	0.	-2623.9
1095	12.728	2.5455	0.	-2624.
1096	12.728	2.3636	0.	-2624.1
1097	12.728	2.1818	0.	-2624.3
1098	12.728	2.	0.	-2624.5
1099	12.728	1.8182	0.	-2624.8
1100	12.728	1.6364	0.	-2625.
1101	12.728	1.4545	0.	-2625.4
1102	12.728	1.2727	0.	-2625.8
1103	12.728	1.0909	0.	-2626.2
1104	12.728	0.90909	0.	-2626.7
1105	12.728	0.72727	0.	-2627.3
1106	12.728	0.54545	0.	-2628.
1107	12.728	0.36364	0.	-2628.8
1108	12.728	0.18182	0.	-2631.1
1109	12.544	5.8182	0.	-2680.6
1110	12.544	5.6364	0.	-2678.2
1111	12.544	5.4545	0.	-2677.3
1112	12.544	5.2727	0.	-2676.6
1113	12.544	5.0909	0.	-2675.9
1114	12.544	4.9091	0.	-2675.3
1115	12.544	4.7273	0.	-2674.8
1116	12.544	4.5455	0.	-2674.3
1117	12.544	4.3636	0.	-2673.9
1118	12.544	4.1818	0.	-2673.6
1119	12.544	4.	0.	-2673.3
1120	12.544	3.8182	0.	-2673.
1121	12.544	3.6364	0.	-2672.8
1122	12.544	3.4545	0.	-2672.7
1123	12.544	3.2727	0.	-2672.6
1124	12.544	3.0909	0.	-2672.6
1125	12.544	2.9091	0.	-2672.6
1126	12.544	2.7273	0.	-2672.6
1127	12.544	2.5455	0.	-2672.7
1128	12.544	2.3636	0.	-2672.8
1129	12.544	2.1818	0.	-2673.
1130	12.544	2.	0.	-2673.3
1131	12.544	1.8182	0.	-2673.6
1132	12.544	1.6364	0.	-2673.9
1133	12.544	1.4545	0.	-2674.3
1134	12.544	1.2727	0.	-2674.8
1135	12.544	1.0909	0.	-2675.3
1136	12.544	0.90909	0.	-2675.9
1137	12.544	0.72727	0.	-2676.6
1138	12.544	0.54545	0.	-2677.3
1139	12.544	0.36364	0.	-2678.2
1140	12.544	0.18182	0.	-2680.6
1141	12.359	5.8182	0.	-2730.3
1142	12.359	5.6364	0.	-2727.9
1143	12.359	5.4545	0.	-2726.9
1144	12.359	5.2727	0.	-2726.
1145	12.359	5.0909	0.	-2725.3
1146	12.359	4.9091	0.	-2724.6
1147	12.359	4.7273	0.	-2724.
1148	12.359	4.5455	0.	-2723.5
1149	12.359	4.3636	0.	-2723.
1150	12.359	4.1818	0.	-2722.6
1151	12.359	4.	0.	-2722.3
1152	12.359	3.8182	0.	-2722.
1153	12.359	3.6364	0.	-2721.8
1154	12.359	3.4545	0.	-2721.6
1155	12.359	3.2727	0.	-2721.5
1156	12.359	3.0909	0.	-2721.4
1157	12.359	2.9091	0.	-2721.4
1158	12.359	2.7273	0.	-2721.5
1159	12.359	2.5455	0.	-2721.6
1160	12.359	2.3636	0.	-2721.8
1161	12.359	2.1818	0.	-2722.
1162	12.359	2.	0.	-2722.3
1163	12.359	1.8182	0.	-2722.6
1164	12.359	1.6364	0.	-2723.
1165	12.359	1.4545	0.	-2723.5
1166	12.359	1.2727	0.	-2724.
1167	12.359	1.0909	0.	-2724.6
1168	12.359	0.90909	0.	-2725.3
1169	12.359	0.72727	0.	-2726.
1170	12.359	0.54545	0.	-2726.9
1171	12.359	0.36364	0.	-2727.9
1172	12.359	0.18182	0.	-2730.3
1173	12.175	5.8182	0.	-2780.1
1174	12.175	5.6364	0.	-2777.6
1175	12.175	5.4545	0.	-2776.6
1176	12.175	5.2727	0.	-2775.7
1177	12.175	5.0909	0.	-2774.9
1178	12.175	4.9091	0.	-2774.1
1179	12.175	4.7273	0.	-2773.4
1180	12.175	4.5455	0.	-2772.9
1181	12.175	4.3636	0.	-2772.3
1182	12.175	4.1818	0.	-2771.9
1183	12.175	4.	0.	-2771.5
1184	12.175	3.8182	0.	-2771.2
1185	12.175	3.6364	0.	-2770.9
1186	12.175	3.4545	0.	-2770.7
1187	12.175	3.2727	0.	-2770.6
1188	12.175	3.0909	0.	-2770.5
1189	12.175	2.9091	0.	-2770.5
1190	12.175	2.7273	0.	-2770.6
1191	12.175	2.5455	0.	-2770.7
1192	12.175	2.3636	0.	-2770.9
1193	12.175	2.1818	0.	-2771.2
1194	12.175	2.	0.	-2771.5
1195	12.175	1.8182	0.	-2771.9
1196	12.175	1.6364	0.	-2772.3
1197	12.175	1.4545	0.	-2772.9
1198	12.175	1.2727	0.	-2773.4
1199	12.175	1.0909	0.	-2774.1
1200	12.175	0.90909	0.	-2774.9
1201	12.175	0.72727	0.	-2775.7
1202	12.175	0.54545	0.	-2776.6
1203	12.175	0.36364	0.	-2777.6
1204	12.175	0.18182	0.	-2780.1
1205	11.99	5.8182	0.	-2830.1
1206	11.99	5.6364	0.	-2827.6
1207	11.99	5.4545	0.	-2826.5
1208	11.99	5.2727	0.	-2825.5
1209	11.99	5.0909	0.	-2824.6
1210	11.99	4.9091	0.	-2823.8
1211	11.99	4.7273	0.	-2823.1
1212	11.99	4.5455	0.	-2822.4
1213	11.99	4.3636	0.	-2821.8
1214	11.99	4.1818	0.	-2821.3
1215	11.99	4.	0.	-2820.9
1216	11.99	3.8182	0.	-2820.5
1217	11.99	3.6364	0.	-2820.2
1218	11.99	3.4545	0.	-2820.
1219	11.99	3.2727	0.	-2819.9
1220	11.99	3.0909	0.	-2819.8
1221	11.99	2.9091	0.	-2819.8
1222	11.99	2.7273	0.	-2819.9
1223	11.99	2.5455	0.	-2820.
1224	11.99	2.3636	0.	-2820.2
1225	11.99	2.1818	0.	-2820.5
1226	11.99	2.	0.	-2820.9
1227	11.99	1.8182	0.	-2821.3
1228	11.99	1.6364	0.	-2821.8
1229	11.99	1.4545	0.	-2822.4
1230	11.99	1.2727	0.	-2823.1
1231	11.99	1.0909	0.	-2823.8
1232	11.99	0.90909	0.	-2824.6
1233	11.99	0.72727	0.	-2825.5
1234	11.99	0.54545	0.	-2826.5
1235	11.99	0.36364	0.	-2827.6
1236	11.99	0.18182	0.	-2830.1
1237	11.806	5.8182	0.	-2880.3
1238	11.806	5.6364	0.	-2877.8
1239	11.806	5.4545	0.	-2876.6
1240	11.806	5.2727	0.	-2875.5
1241	11.806	5.0909	0.	-2874.5
1242	11.806	4.9091	0.	-2873.7
1243	11.806	4.7273	0.	-2872.9
1244	11.806	4.5455	0.	-2872.1
1245	11.806	4.3636	0.	-2871.5
1246	11.806	4.1818	0.	-2871.
1247	11.806	4.	0.	-2870.5
1248	11.806	3.8182	0.	-2870.1
1249	11.806	3.6364	0.	-2869.7
1250	11.806	3.4545	0.	-2869.5
1251	11.806	3.2727	0.	-2869.3
1252	11.806	3.0909	0.	-2869.3
1253	11.806	2.9091	0.	-2869.3
1254	11.806	2.7273	0.	-2869.3
1255	11.806	2.5455	0.	-2869.5
1256	11.806	2.3636	0.	-2869.7
1257	11.806	2.1818	0.	-2870.1
1258	11.806	2.	0.	-2870.5
1259	11.806	1.8182	0.	-2871.
1260	11.806	1.6364	0.	-2871.5
1261	11.806	1.4545	0.	-2872.1
1262	11.806	1.2727	0.	-2872.9
1263	11.806	1.0909	0.	-2873.7
1264	11.806	0.90909	0.	-2874.5
1265	11.806	0.72727	0.	-2875.5
1266	11.806	0.54545	0.	-2876.6
1267	11.806	0.36364	0.	-2877.8
1268	11.806	0.18182	0.	-2880.3
1269	11.621	5.8182	0.	-2930.8
1270	11.621	5.6364	0.	-2928.1
1271	11.621	5.4545	0.	-2926.8
1272	11.621	5.2727	0.	-2925.7
1273	11.621	5.0909	0.	-2924.7
1274	11.621	4.9091	0.	-2923.7
1275	11.621	4.7273	0.	-2922.9
1276	11.621	4.5455	0.	-2922.1
1277	11.621	4.3636	0.	-2921.4
1278	11.621	4.1818	0.	-2920.8
1279	11.621	4.	0.	-2920.3
1280	11.621	3.8182	0.	-2919.8
1281	11.621	3.6364	0.	-2919.5
1282	11.621	3.4545	0.	-2919.2
1283	11.621	3.2727	0.	-2919.
1284	11.621	3.0909	0.	-2918.9
1285	11.621	2.9091	0.	-2918.9
1286	11.621	2.7273	0.	-2919.
1287	11.621	2.5455	0.	-2919.2
1288	11.621	2.3636	0.	-2919.5
1289	11.621	2.1818	0.	-2919.8
1290	11.621	2.	0.	-2920.3
1291	11.621	1.8182	0.	-2920.8
1292	11.621	1.6364	0.	-2921.4
1293	11.621	1.4545	0.	-2922.1
1294	11.621	1.2727	0.	-2922.9
1295	11.621	1.0909	0.	-2923.7
1296	11.621	0.90909	0.	-2924.7
1297	11.621	0.72727	0.	-2925.7
1298	11.621	0.54545	0.	-2926.8
1299	11.621	0.36364	0.	-2928.1
1300	11.621	0.18182	0.	-2930.8
1301	11.437	5.8182	0.	-2981.4
1302	11.437	5.6364	0.	-2978.7
1303	11.437	5.4545	0.	-2977.3
1304	11.437	5.2727	0.	-2976.1
1305	11.437	5.0909	0.	-2975.
1306	11.437	4.9091	0.	-2974.
1307	11.437	4.7273	0.	-2973.1
1308	11.437	4.5455	0.	-2972.2
1309	11.437	4.3636	0.	-2971.5
1310	11.437	4.1818	0.	-2970.8
1311	11.437	4.	0.	-2970.2
1312	11.437	3.8182	0.	-2969.8
1313	11.437	3.6364	0.	-2969.4
1314	11.437	3.4545	0.	-2969.1
1315	11.437	3.2727	0.	-2968.9
1316	11.437	3.0909	0.	-2968.8
1317	11.437	2.9091	0.	-2968.8
1318	11.437	2.7273	0.	-2968.9
1319	11.437	2.5455	0.	-2969.1
1320	11.437	2.3636	0.	-2969.4
1321	11.437	2.1818	0.	-2969.8
1322	11.437	2.	0.	-2970.2
1323	11.437	1.8182	0.	-2970.8
1324	11.437	1.6364	0.	-2971.5
1325	11.437	1.4545	0.	-2972.2
1326	11.437	1.2727	0.	-2973.1
1327	11.437	1.0909	0.	-2974.
1328	11.437	0.90909	0.	-2975.
1329	11.437	0.72727	0.	-2976.1
1330	11.437	0.54545	0.	-2977.3
1331	11.437	0.36364	0.	-2978.7
1332	11.437	0.18182	0.	-2981.4
1333	11.252	5.8182	0.	-3032.2
1334	11.252	5.6364	0.	-3029.4
1335	11.252	5.4545	0.	-3028.
1336	11.252	5.2727	0.	-3026.7
1337	11.252	5.0909	0.	-3025.5
1338	11.252	4.9091	0.	-3024.4
1339	11.252	4.7273	0.	-3023.4
1340	11.252	4.5455	0.	-3022.5
1341	11.252	4.3636	0.	-3021.7
1342	11.252	4.1818	0.	-3021.
1343	11.252	4.	0.	-3020.4
1344	11.252	3.8182	0.	-3019.9
1345	11.252	3.6364	0.	-3019.5
1346	11.252	3.4545	0.	-3019.2
1347	11.252	3.2727	0.	-3019.
1348	11.252	3.0909	0.	-3018.9
1349	11.252	2.9091	0.	-3018.9
1350	11.252	2.7273	0.	-3019.
1351	11.252	2.5455	0.	-3019.2
1352	11.252	2.3636	0.	-3019.5
1353	11.252	2.1818	0.	-3019.9
1354	11.252	2.	0.	-3020.4
1355	11.252	1.8182	0.	-3021.
1356	11.252	1.6364	0.	-3021.7
1357	11.252	1.4545	0.	-3022.5
1358	11.252	1.2727	0.	-3023.4
1359	11.252	1.0909	0.	-3024.4
1360	11.252	0.90909	0.	-3025.5
1361	11.252	0.72727	0.	-3026.7
1362	11.252	0.54545	0.	-3028.
1363	11.252	0.36364	0.	-3029.4
1364	11.252	0.18182	0.	-3032.2
1365	11.068	5.8182	0.	-3083.2
1366	11.068	5.6364	0.	-3080.4
1367	11.068	5.4545	0.	-3078.9
1368	11.068	5.2727	0.	-3077.5
1369	11.068	5.0909	0.	-3076.3
1370	11.068	4.9091	0.	-3075.1
1371	11.068	4.7273	0.	-3074.
1372	11.068	4.5455	0.	-3073.1
1373	11.068	4.3636	0.	-3072.2
1374	11.068	4.1818	0.	-3071.4
1375	11.068	4.	0.	-3070.8
1376	11.068	3.8182	0.	-3070.2
1377	11.068	3.6364	0.	-3069.8
1378	11.068	3.4545	0.	-3069.4
1379	11.068	3.2727	0.	-3069.2
1380	11.068	3.0909	0.	-3069.1
1381	11.068	2.9091	0.	-3069.1
1382	11.068	2.7273	0.	-3069.2
1383	11.068	2.5455	0.	-3069.4
1384	11.068	2.3636	0.	-3069.8
1385	11.068	2.1818	0.	-3070.2
1386	11.068	2.	0.	-3070.8
1387	11.068	1.8182	0.	-3071.4
1388	11.068	1.6364	0.	-3072.2
1389	11.068	1.4545	0.	-3073.1
1390	11.068	1.2727	0.	-3074.
1391	11.068	1.0909	0.	-3075.1
1392	11.068	0.90909	0.	-3076.3
1393	11.068	0.72727	0.	-3077.5
1394	11.068	0.54545	0.	-3078.9
1395	11.068	0.36364	0.	-3080.4
1396	11.068	0.18182	0.	-3083.2
1397	10.883	5.8182	0.	-3134.4
1398	10.883	5.6364	0.	-3131.6
1399	10.883	5.4545	0.	-3130.
1400	10.883	5.2727	0.	-3128.5
1401	10.883	5.0909	0.	-3127.2
1402	10.883	4.9091	0.	-3126.
1403	10.883	4.7273	0.	-3124.8
1404	10.883	4.5455	0.	-3123.8
1405	10.883	4.3636	0.	-3122.8
1406	10.883	4.1818	0.	-3122.
1407	10.883	4.	0.	-3121.3
1408	10.883	3.8182	0.	-3120.7
1409	10.883	3.6364	0.	-3120.2
1410	10.883	3.4545	0.	-3119.9
1411	10.883	3.2727	0.	-3119.6
1412	10.883	3.0909	0.	-3119.5
1413	10.883	2.9091	0.	-3119.5
1414	10.883	2.7273	0.	-3119.6
1415	10.883	2.5455	0.	-3119.9
1416	10.883	2.3636	0.	-3120.2
1417	10.883	2.1818	0.	-3120.7
1418	10.883	2.	0.	-3121.3
1419	10.883	1.8182	0.	-3122.
1420	10.883	1.6364	0.	-3122.8
1421	10.883	1.4545	0.	-3123.8
1422	10.883	1.2727	0.	-3124.8
1423	10.883	1.0909	0.	-3126.
1424	10.883	0.90909	0.	-3127.2
1425	10.883	0.72727	0.	-3128.5
1426	10.883	0.54545	0.	-3130.
1427	10.883	0.36364	0.	-3131.6
1428	10.883	0.18182	0.	-3134.4
1429	10.699	5.8182	0.	-3185.9
1430	10.699	5.6364	0.	-3182.9
1431	10.699	5.4545	0.	-3181.3
1432	10.699	5.2727	0.	-3179.7
1433	10.699	5.0909	0.	-3178.3
1434	10.699	4.9091	0.	-3177.
1435	10.699	4.7273	0.	-3175.8
1436	10.699	4.5455	0.	-3174.7
1437	10.699	4.3636	0.	-3173.7
1438	10.699	4.1818	0.	-3172.8
1439	10.699	4.	0.	-3172.
1440	10.699	3.8182	0.	-3171.4
1441	10.699	3.6364	0.	-3170.9
1442	10.699	3.4545	0.	-3170.5
1443	10.699	3.2727	0.	-3170.2
1444	10.699	3.0909	0.	-3170.1
1445	10.699	2.9091	0.	-3170.1
1446	10.699	2.7273	0.	-3170.2
1447	10.699	2.5455	0.	-3170.5
1448	10.699	2.3636	0.	-3170.9
1449	10.699	2.1818	0.	-3171.4
1450	10.699	2.	0.	-3172.
1451	10.699	1.8182	0.	-3172.8
1452	10.699	1.6364	0.	-3173.7
1453	10.699	1.4545	0.	-3174.7
1454	10.699	1.2727	0.	-3175.8
1455	10.699	1.0909	0.	-3177.
1456	10.699	0.90909	0.	-3178.3
1457	10.699	0.72727	0.	-3179.7
1458	10.699	0.54545	0.	-3181.3
1459	10.699	0.36364	0.	-3182.9
1460	10.699	0.18182	0.	-3185.9
1461	10.515	5.8182	0.	-3237.5
1462	10.515	5.6364	0.	-3234.5
1463	10.515	5.4545	0.	-3232.8
1464	10.515	5.2727	0.	-3231.2
1465	10.515	5.0909	0.	-3229.7
1466	10.515	4.9091	0.	-3228.3
1467	10.515	4.7273	0.	-3227.
1468	10.515	4.5455	0.	-3225.8
1469	10.515	4.3636	0.	-3224.7
1470	10.515	4.1818	0.	-3223.8
1471	10.515	4.	0.	-3222.9
1472	10.515	3.8182	0.	-3222.3
1473	10.515	3.6364	0.	-3221.7
1474	10.515	3.4545	0.	-3221.3
1475	10.515	3.2727	0.	-3221.
1476	10.515	3.0909	0.	-3220.9
1477	10.515	2.9091	0.	-3220.9
1478	10.515	2.7273	0.	-3221.
1479	10.515	2.5455	0.	-3221.3
1480	10.515	2.3636	0.	-3221.7
1481	10.515	2.1818	0.	-3222.3
1482	10.515	2.	0.	-3222.9
1483	10.515	1.8182	0.	-3223.8
1484	10.515	1.6364	0.	-3224.7
1485	10.515	1.4545	0.	-3225.8
1486	10.515	1.2727	0.	-3227.
1487	10.515	1.0909	0.	-3228.3
1488	10.515	0.90909	0.	-3229.7
1489	10.515	0.72727	0.	-3231.2
1490	10.515	0.54545	0.	-3232.8
1491	10.515	0.36364	0.	-3234.5
1492	10.515	0.18182	0.	-3237.5
1493	10.33	5.8182	0.	-3289.4
1494	10.33	5.6364	0.	-3286.4
1495	10.33	5.4545	0.	-3284.5
1496	10.33	5.2727	0.	-3282.8
1497	10.33	5.0909	0.	-3281.2
1498	10.33	4.9091	0.	-3279.7
1499	10.33	4.7273	0.	-3278.3
1500	10.33	4.5455	0.	-3277.1
1501	10.33	4.3636	0.	-3275.9
1502	10.33	4.1818	0.	-3274.9
1503	10.33	4.	0.	-3274.
1504	10.33	3.8182	0.	-3273.3
1505	10.33	3.6364	0.	-3272.7
1506	10.33	3.4545	0.	-3272.3
1507	10.33	3.2727	0.	-3272.
1508	10.33	3.0909	0.	-3271.8
1509	10.33	2.9091	0.	-3271.8
1510	10.33	2.7273	0.	-3272.
1511	10.33	2.5455	0.	-3272.3
1512	10.33	2.3636	0.	-3272.7
1513	10.33	2.1818	0.	-3273.3
1514	10.33	2.	0.	-3274.
1515	10.33	1.8182	0.	-3274.9
1516	10.33	1.6364	0.	-3275.9
1517	10.33	1.4545	0.	-3277.1
1518	10.33	1.2727	0.	-3278.3
1519	10.33	1.0909	0.	-3279.7
1520	10.33	0.90909	0.	-3281.2
1521	10.33	0.72727	0.	-3282.8
1522	10.33	0.54545	0.	-3284.5
1523	10.33	0.36364	0.	-3286.4
1524	10.33	0.18182	0.	-3289.4
1525	10.146	5.8182	0.	-3341.5
1526	10.146	5.6364	0.	-3338.4
1527	10.146	5.4545	0.	-3336.4
1528	10.146	5.2727	0.	-3334.6
1529	10.146	5.0909	0.	-3332.9
1530	10.146	4.9091	0.	-3331.4
1531	10.146	4.7273	0.	-3329.9
1532	10.146	4.5455	0.	-3328.5
1533	10.146	4.3636	0.	-3327.3
1534	10.146	4.1818	0.	-3326.2
1535	10.146	4.	0.	-3325.3
1536	10.146	3.8182	0.	-3324.5
1537	10.146	3.6364	0.	-3323.9
1538	10.146	3.4545	0.	-3323.4
1539	10.146	3.2727	0.	-3323.1
1540	10.146	3.0909	0.	-3322.9
1541	10.146	2.9091	0.	-3322.9
1542	10.146	2.7273	0.	-3323.1
1543	10.146	2.5455	0.	-3323.4
1544	10.146	2.3636	0.	-3323.9
1545	10.146	2.1818	0.	-3324.5
1546	10.146	2.	0.	-3325.3
1547	10.146	1.8182	0.	-3326.2
1548	10.146	1.6364	0.	-3327.3
1549	10.146	1.4545	0.	-3328.5
1550	10.146	1.2727	0.	-3329.9
1551	10.146	1.0909	0.	-3331.4
1552	10.146	0.90909	0.	-3332.9
1553	10.146	0.72727	0.	-3334.6
1554	10.146	0.54545	0.	-3336.4
1555	10.146	0.36364	0.	-3338.4
1556	10.146	0.18182	0.	-3341.5
1557	9.9612	5.8182	0.	-3393.9
1558	9.9612	5.6364	0.	-3390.7
1559	9.9612	5.4545	0.	-3388.6
1560	9.9612	5.2727	0.	-3386.7
1561	9.9612	5.0909	0.	-3384.9
1562	9.9612	4.9091	0.	-3383.2
1563	9.9612	4.7273	0.	-3381.6
1564	9.9612	4.5455	0.	-3380.2
1565	9.9612	4.3636	0.	-3378.9
1566	9.9612	4.1818	0.	-3377.8
1567	9.9612	4.	0.	-3376.8
1568	9.9612	3.8182	0.	-3375.9
1569	9.9612	3.6364	0.	-3375.2
1570	9.9612	3.4545	0.	-3374.7
1571	9.9612	3.2727	0.	-3374.4
1572	9.9612	3.0909	0.	-3374.2
1573	9.9612	2.9091	0.	-3374.2
1574	9.9612	2.7273	0.	-3374.4
1575	9.9612	2.5455	0.	-3374.7
1576	9.9612	2.3636	0.	-3375.2
1577	9.9612	2.1818	0.	-3375.9
1578	9.9612	2.	0.	-3376.8
1579	9.9612	1.8182	0.	-3377.8
1580	9.9612	1.6364	0.	-3378.9
1581	9.9612	1.4545	0.	-3380.2
1582	9.9612	1.2727	0.	-3381.6
1583	9.9612	1.0909	0.	-3383.2
1584	9.9612	0.90909	0.	-3384.9
1585	9.9612	0.72727	0.	-3386.7
1586	9.9612	0.54545	0.	-3388.6
1587	9.9612	0.36364	0.	-3390.7
1588	9.9612	0.18182	0.	-3393.9
1589	9.7767	5.8182	0.	-3446.5
1590	9.7767	5.6364	0.	-3443.2
1591	9.7767	5.4545	0.	-3441.
1592	9.7767	5.2727	0.	-3439.
1593	9.7767	5.0909	0.	-3437.1
1594	9.7767	4.9091	0.	-3435.3
1595	9.7767	4.7273	0.	-3433.6
1596	9.7767	4.5455	0.	-3432.1
1597	9.7767	4.3636	0.	-3430.7
1598	9.7767	4.1818	0.	-3429.4
1599	9.7767	4.	0.	-3428.4
1600	9.7767	3.8182	0.	-3427.5
1601	9.7767	3.6364	0.	-3426.7
1602	9.7767	3.4545	0.	-3426.2
1603	9.7767	3.2727	0.	-3425.8
1604	9.7767	3.0909	0.	-3425.6
1605	9.7767	2.9091	0.	-3425.6
1606	9.7767	2.7273	0.	-3425.8
1607	9.7767	2.5455	0.	-3426.2
1608	9.7767	2.3636	0.	-3426.7
1609	9.7767	2.1818	0.	-3427.5
1610	9.7767	2.	0.	-3428.4
1611	9.7767	1.8182	0.	-3429.4
1612	9.7767	1.6364	0.	-3430.7
1613	9.7767	1.4545	0.	-3432.1
1614	9.7767	1.2727	0.	-3433.6
1615	9.7767	1.0909	0.	-3435.3
1616	9.7767	0.90909	0.	-3437.1
1617	9.7767	0.72727	0.	-3439.
1618	9.7767	0.54545	0.	-3441.
1619	9.7767	0.36364	0.	-3443.2
1620	9.7767	0.18182	0.	-3446.5
1621	9.5922	5.8182	0.	-3499.3
1622	9.5922	5.6364	0.	-3495.9
1623	9.5922	5.4545	0.	-3493.6
1624	9.5922	5.2727	0.	-3491.5
1625	9.5922	5.0909	0.	-3489.5
1626	9.5922	4.9091	0.	-3487.5
1627	9.5922	4.7273	0.	-3485.8
1628	9.5922	4.5455	0.	-3484.1
1629	9.5922	4.3636	0.	-3482.6
1630	9.5922	4.1818	0.	-3481.3
1631	9.5922	4.	0.	-3480.2
1632	9.5922	3.8182	0.	-3479.2
1633	9.5922	3.6364	0.	-3478.4
1634	9.5922	3.4545	0.	-3477.8
1635	9.5922	3.2727	0.	-3477.4
1636	9.5922	3.0909	0.	-3477.2
1637	9.5922	2.9091	0.	-3477.2
1638	9.5922	2.7273	0.	-3477.4
1639	9.5922	2.5455	0.	-3477.8
1640	9.5922	2.3636	0.	-3478.4
1641	9.5922	2.1818	0.	-3479.2
1642	9.5922	2.	0.	-3480.2
1643	9.5922	1.8182	0.	-3481.3
1644	9.5922	1.6364	0.	-3482.6
1645	9.5922	1.4545	0.	-3484.1
1646	9.5922	1.2727	0.	-3485.8
1647	9.5922	1.0909	0.	-3487.5
1648	9.5922	0.90909	0.	-3489.5
1649	9.5922	0.72727	0.	-3491.5
1650	9.5922	0.54545	0.	-3493.6
1651	9.5922	0.36364	0.	-3495.9
1652	9.5922	0.18182	0.	-3499.3
1653	9.4078	5.8182	0.	-3552.4
1654	9.4078	5.6364	0.	-3548.9
1655	9.4078	5.4545	0.	-3546.5
1656	9.4078	5.2727	0.	-3544.2
1657	9.4078	5.0909	0.	-3542.
1658	9.4078	4.9091	0.	-3540.
1659	9.4078	4.7273	0.	-3538.1
1660	9.4078	4.5455	0.	-3536.4
1661	9.4078	4.3636	0.	-3534.8
1662	9.4078	4.1818	0.	-3533.4
1663	9.4078	4.	0.	-3532.1
1664	9.4078	3.8182	0.	-3531.1
1665	9.4078	3.6364	0.	-3530.3
1666	9.4078	3.4545	0.	-3529.6
1667	9.4078	3.2727	0.	-3529.2
1668	9.4078	3.0909	0.	-3529.
1669	9.4078	2.9091	0.	-3529.
1670	9.4078	2.7273	0.	-3529.2
1671	9.4078	2.5455	0.	-3529.6
1672	9.4078	2.3636	0.	-3530.3
1673	9.4078	2.1818	0.	-3531.1
1674	9.4078	2.	0.	-3532.1
1675	9.4078	1.8182	0.	-3533.4
1676	9.4078	1.6364	0.	-3534.8
1677	9.4078	1.4545	0.	-3536.4
1678	9.4078	1.2727	0.	-3538.1
1679	9.4078	1.0909	0.	-3540.
1680	9.4078	0.90909	0.	-3542.
1681	9.4078	0.72727	0.	-3544.2
1682	9.4078	0.54545	0.	-3546.5
1683	9.4078	0.36364	0.	-3548.9
1684	9.4078	0.18182	0.	-3552.4
1685	9.2233	5.8182	0.	-3605.8
1686	9.2233	5.6364	0.	-3602.2
1687	9.2233	5.4545	0.	-3599.6
1688	9.2233	5.2727	0.	-3597.2
1689	9.2233	5.0909	0.	-3594.9
1690	9.2233	4.9091	0.	-3592.7
1691	9.2233	4.7273	0.	-3590.7
1692	9.2233	4.5455	0.	-3588.8
1693	9.2233	4.3636	0.	-3587.1
1694	9.2233	4.1818	0.	-3585.6
1695	9.2233	4.	0.	-3584.3
1696	9.2233	3.8182	0.	-3583.1
1697	9.2233	3.6364	0.	-3582.2
1698	9.2233	3.4545	0.	-3581.6
1699	9.2233	3.2727	0.	-3581.1
1700	9.2233	3.0909	0.	-3580.9
1701	9.2233	2.9091	0.	-3580.9
1702	9.2233	2.7273	0.	-3581.1
1703	9.2233	2.5455	0.	-3581.6
1704	9.2233	2.3636	0.	-3582.2
1705	9.2233	2.1818	0.	-3583.1
1706	9.2233	2.	0.	-3584.3
1707	9.2233	1.8182	0.	-3585.6
1708	9.2233	1.6364	0.	-3587.1
1709	9.2233	1.4545	0.	-3588.8
1710	9.2233	1.2727	0.	-3590.7
1711	9.2233	1.0909	0.	-3592.7
1712	9.2233	0.90909	0.	-3594.9
1713	9.2233	0.72727	0.	-3597.2
1714	9.2233	0.54545	0.	-3599.6
1715	9.2233	0.36364	0.	-3602.2
1716	9.2233	0.18182	0.	-3605.8
1717	9.0388	5.8182	0.	-3659.4
1718	9.0388	5.6364	0.	-3655.7
1719	9.0388	5.4545	0.	-3652.9
1720	9.0388	5.2727	0.	-3650.3
1721	9.0388	5.0909	0.	-3647.9
1722	9.0388	4.9091	0.	-3645.6
1723	9.0388	4.7273	0.	-3643.4
1724	9.0388	4.5455	0.	-3641.4
1725	9.0388	4.3636	0.	-3639.6
1726	9.0388	4.1818	0.	-3638.
1727	9.0388	4.	0.	-3636.6
1728	9.0388	3.8182	0.	-3635.4
1729	9.0388	3.6364	0.	-3634.4
1730	9.0388	3.4545	0.	-3633.7
1731	9.0388	3.2727	0.	-3633.2
1732	9.0388	3.0909	0.	-3632.9
1733	9.0388	2.9091	0.	-3632.9
1734	9.0388	2.7273	0.	-3633.2
1735	9.0388	2.5455	0.	-3633.7
1736	9.0388	2.3636	0.	-3634.4
1737	9.0388	2.1818	0.	-3635.4
1738	9.0388	2.	0.	-3636.6
1739	9.0388	1.8182	0.	-3638.
1740	9.0388	1.6364	0.	-3639.6
1741	9.0388	1.4545	0.	-3641.4
1742	9.0388	1.2727	0.	-3643.4
1743	9.0388	1.0909	0.	-3645.6
1744	9.0388	0.90909	0.	-3647.9
1745	9.0388	0.72727	0.	-3650.3
1746	9.0388	0.54545	0.	-3652.9
1747	9.0388	0.36364	0.	-3655.7
1748	9.0388	0.18182	0.	-3659.4
1749	8.8544	5.8182	0.	-3713.3
1750	8.8544	5.6364	0.	-3709.4
1751	8.8544	5.4545	0.	-3706.5
1752	8.8544	5.2727	0.	-3703.8
1753	8.8544	5.0909	0.	-3701.1
1754	8.8544	4.9091	0.	-3698.7
1755	8.8544	4.7273	0.	-3696.3
1756	8.8544	4.5455	0.	-3694.2
1757	8.8544	4.3636	0.	-3692.3
1758	8.8544	4.1818	0.	-3690.5
1759	8.8544	4.	0.	-3689.
1760	8.8544	3.8182	0.	-3687.7
1761	8.8544	3.6364	0.	-3686.7
1762	8.8544	3.4545	0.	-3685.9
1763	8.8544	3.2727	0.	-3685.4
1764	8.8544	3.0909	0.	-3685.1
1765	8.8544	2.9091	0.	-3685.1
1766	8.8544	2.7273	0.	-3685.4
1767	8.8544	2.5455	0.	-3685.9
1768	8.8544	2.3636	0.	-3686.7
1769	8.8544	2.1818	0.	-3687.7
1770	8.8544	2.	0.	-3689.
1771	8.8544	1.8182	0.	-3690.5
1772	8.8544	1.6364	0.	-3692.3
1773	8.8544	1.4545	0.	-3694.2
1774	8.8544	1.2727	0.	-3696.3
1775	8.8544	1.0909	0.	-3698.7
1776	8.8544	0.90909	0.	-3701.1
1777	8.8544	0.72727	0.	-3703.8
1778	8.8544	0.54545	0.	-3706.5
1779	8.8544	0.36364	0.	-3709.4
1780	8.8544	0.18182	0.	-3713.3
1781	8.6699	5.8182	0.	-3767.4
1782	8.6699	5.6364	0.	-3763.4
1783	8.6699	5.4545	0.	-3760.4
1784	8.6699	5.2727	0.	-3757.4
1785	8.6699	5.0909	0.	-3754.6
1786	8.6699	4.9091	0.	-3752.
1787	8.6699	4.7273	0.	-3749.5
1788	8.6699	4.5455	0.	-3747.2
1789	8.6699	4.3636	0.	-3745.1
1790	8.6699	4.1818	0.	-3743.2
1791	8.6699	4.	0.	-3741.6
1792	8.6699	3.8182	0.	-3740.2
1793	8.6699	3.6364	0.	-3739.1
1794	8.6699	3.4545	0.	-3738.3
1795	8.6699	3.2727	0.	-3737.7
1796	8.6699	3.0909	0.	-3737.4
1797	8.6699	2.9091	0.	-3737.4
1798	8.6699	2.7273	0.	-3737.7
1799	8.6699	2.5455	0.	-3738.3
1800	8.6699	2.3636	0.	-3739.1
1801	8.6699	2.1818	0.	-3740.2
1802	8.6699	2.	0.	-3741.6
1803	8.6699	1.8182	0.	-3743.2
1804	8.6699	1.6364	0.	-3745.1
1805	8.6699	1.4545	0.	-3747.2
1806	8.6699	1.2727	0.	-3749.5
1807	8.6699	1.0909	0.	-3752.
1808	8.6699	0.90909	0.	-3754.6
1809	8.6699	0.72727	0.	-3757.4
1810	8.6699	0.54545	0.	-3760.4
1811	8.6699	0.36364	0.	-3763.4
1812	8.6699	0.18182	0.	-3767.4
1813	8.4854	5.8182	0.	-3821.9
1814	8.4854	5.6364	0.	-3817.7
1815	8.4854	5.4545	0.	-3814.4
1816	8.4854	5.2727	0.	-3811.3
1817	8.4854	5.0909	0.	-3808.3
1818	8.4854	4.9091	0.	-3805.5
1819	8.4854	4.7273	0.	-3802.8
1820	8.4854	4.5455	0.	-3800.4
1821	8.4854	4.3636	0.	-3798.1
1822	8.4854	4.1818	0.	-3796.1
1823	8.4854	4.	0.	-3794.4
1824	8.4854	3.8182	0.	-3792.9
1825	8.4854	3.6364	0.	-3791.7
1826	8.4854	3.4545	0.	-3790.8
1827	8.4854	3.2727	0.	-3790.2
1828	8.4854	3.0909	0.	-3789.9
1829	8.4854	2.9091	0.	-3789.9
1830	8.4854	2.7273	0.	-3790.2
1831	8.4854	2.5455	0.	-3790.8
1832	8.4854	2.3636	0.	-3791.7
1833	8.4854	2.1818	0.	-3792.9
1834	8.4854	2.	0.	-3794.4
1835	8.4854	1.8182	0.	-3796.1
1836	8.4854	1.6364	0.	-3798.1
1837	8.4854	1.4545	0.	-3800.4
1838	8.4854	1.2727	0.	-3802.8
1839	8.4854	1.0909	0.	-3805.5
1840	8.4854	0.90909	0.	-3808.3
1841	8.4854	0.72727	0.	-3811.3
1842	8.4854	0.54545	0.	-3814.4
1843	8.4854	0.36364	0.	-3817.7
1844	8.4854	0.18182	0.	-3821.9
1845	8.301	5.8182	0.	-3876.6
1846	8.301	5.6364	0.	-3872.3
1847	8.301	5.4545	0.	-3868.8
1848	8.301	5.2727	0.	-3865.5
1849	8.301	5.0909	0.	-3862.3
1850	8.301	4.9091	0.	-3859.2
1851	8.301	4.7273	0.	-3856.4
1852	8.301	4.5455	0.	-3853.7
1853	8.301	4.3636	0.	-3851.3
1854	8.301	4.1818	0.	-3849.2
1855	8.301	4.	0.	-3847.3
1856	8.301	3.8182	0.	-3845.7
1857	8.301	3.6364	0.	-3844.4
1858	8.301	3.4545	0.	-3843.4
1859	8.301	3.2727	0.	-3842.8
1860	8.301	3.0909	0.	-3842.5
1861	8.301	2.9091	0.	-3842.5
1862	8.301	2.7273	0.	-3842.8
1863	8.301	2.5455	0.	-3843.4
1864	8.301	2.3636	0.	-3844.4
1865	8.301	2.1818	0.	-3845.7
1866	8.301	2.	0.	-3847.3
1867	8.301	1.8182	0.	-3849.2
1868	8.301	1.6364	0.	-3851.3
1869	8.301	1.4545	0.	-3853.7
1870	8.301	1.2727	0.	-3856.4
1871	8.301	1.0909	0.	-3859.2
1872	8.301	0.90909	0.	-3862.3
1873	8.301	0.72727	0.	-3865.5
1874	8.301	0.54545	0.	-3868.8
1875	8.301	0.36364	0.	-3872.3
1876	8.301	0.18182	0.	-3876.6
1877	8.1165	5.8182	0.	-3931.7
1878	8.1165	5.6364	0.	-3927.2
1879	8.1165	5.4545	0.	-3923.4
1880	8.1165	5.2727	0.	-3919.9
1881	8.1165	5.0909	0.	-3916.4
1882	8.1165	4.9091	0.	-3913.2
1883	8.1165	4.7273	0.	-3910.1
1884	8.1165	4.5455	0.	-3907.3
1885	8.1165	4.3636	0.	-3904.7
1886	8.1165	4.1818	0.	-3902.4
1887	8.1165	4.	0.	-3900.4
1888	8.1165	3.8182	0.	-3898.6
1889	8.1165	3.6364	0.	-3897.3
1890	8.1165	3.4545	0.	-3896.2
1891	8.1165	3.2727	0.	-3895.5
1892	8.1165	3.0909	0.	-3895.1
1893	8.1165	2.9091	0.	-3895.1
1894	8.1165	2.7273	0.	-3895.5
1895	8.1165	2.5455	0.	-3896.2
1896	8.1165	2.3636	0.	-3897.3
1897	8.1165	2.1818	0.	-3898.6
1898	8.1165	2.	0.	-3900.4
1899	8.1165	1.8182	0.	-3902.4
1900	8.1165	1.6364	0.	-3904.7
1901	8.1165	1.4545	0.	-3907.3
1902	8.1165	1.2727	0.	-3910.1
1903	8.1165	1.0909	0.	-3913.2
1904	8.1165	0.90909	0.	-3916.4
1905	8.1165	0.72727	0.	-3919.9
1906	8.1165	0.54545	0.	-3923.4
1907	8.1165	0.36364	0.	-3927.2
1908	8.1165	0.18182	0.	-3931.7
1909	7.932	5.8182	0.	-3987.
1910	7.932	5.6364	0.	-3982.3
1911	7.932	5.4545	0.	-3978.3
1912	7.932	5.2727	0.	-3974.5
1913	7.932	5.0909	0.	-3970.8
1914	7.932	4.9091	0.	-3967.3
1915	7.932	4.7273	0.	-3964.1
1916	7.932	4.5455	0.	-3961.
1917	7.932	4.3636	0.	-3958.2
1918	7.932	4.1818	0.	-3955.7
1919	7.932	4.	0.	-3953.6
1920	7.932	3.8182	0.	-3951.7
1921	7.932	3.6364	0.	-3950.2
1922	7.932	3.4545	0.	-3949.1
1923	7.932	3.2727	0.	-3948.3
1924	7.932	3.0909	0.	-3947.9
1925	7.932	2.9091	0.	-3947.9
1926	7.932	2.7273	0.	-3948.3
1927	7.932	2.5455	0.	-3949.1
1928	7.932	2.3636	0.	-3950.2
1929	7.932	2.1818	0.	-3951.7
1930	7.932	2.	0.	-3953.6
1931	7.932	1.8182	0.	-3955.7
1932	7.932	1.6364	0.	-3958.2
1933	7.932	1.4545	0.	-3961.
1934	7.932	1.2727	0.	-3964.1
1935	7.932	1.0909	0.	-3967.3
1936	7.932	0.90909	0.	-3970.8
1937	7.932	0.72727	0.	-3974.5
1938	7.932	0.54545	0.	-3978.3
1939	7.932	0.36364	0.	-3982.3
1940	7.932	0.18182	0.	-3987.
1941	7.7476	5.8182	0.	-4042.7
1942	7.7476	5.6364	0.	-4037.8
1943	7.7476	5.4545	0.	-4033.5
1944	7.7476	5.2727	0.	-4029.4
1945	7.7476	5.0909	0.	-4025.5
1946	7.7476	4.9091	0.	-4021.7
1947	7.7476	4.7273	0.	-4018.2
1948	7.7476	4.5455	0.	-4014.9
1949	7.7476	4.3636	0.	-4011.9
1950	7.7476	4.1818	0.	-4009.3
1951	7.7476	4.	0.	-4006.9
1952	7.7476	3.8182	0.	-4004.9
1953	7.7476	3.6364	0.	-4003.3
1954	7.7476	3.4545	0.	-4002.1
1955	7.7476	3.2727	0.	-4001.3
1956	7.7476	3.0909	0.	-4000.8
1957	7.7476	2.9091	0.	-4000.8
1958	7.7476	2.7273	0.	-4001.3
1959	7.7476	2.5455	0.	-4002.1
1960	7.7476	2.3636	0.	-4003.3
1961	7.7476	2.1818	0.	-4004.9
1962	7.7476	2.	0.	-4006.9
1963	7.7476	1.8182	0.	-4009.3
1964	7.7476	1.6364	0.	-4011.9
1965	7.7476	1.4545	0.	-4014.9
1966	7.7476	1.2727	0.	-4018.2
1967	7.7476	1.0909	0.	-4021.7
1968	7.7476	0.90909	0.	-4025.5
1969	7.7476	0.72727	0.	-4029.4
1970	7.7476	0.54545	0.	-4033.5
1971	7.7476	0.36364	0.	-4037.8
1972	7.7476	0.18182	0.	-4042.7
1973	7.5631	5.8182	0.	-4098.8
1974	7.5631	5.6364	0.	-4093.6
1975	7.5631	5.4545	0.	-4089.
1976	7.5631	5.2727	0.	-4084.6
1977	7.5631	5.0909	0.	-4080.4
1978	7.5631	4.9091	0.	-4076.4
1979	7.5631	4.7273	0.	-4072.6
1980	7.5631	4.5455	0.	-4069.
1981	7.5631	4.3636	0.	-4065.8
1982	7.5631	4.1818	0.	-4062.9
1983	7.5631	4.	0.	-4060.4
1984	7.5631	3.8182	0.	-4058.2
1985	7.5631	3.6364	0.	-4056.5
1986	7.5631	3.4545	0.	-4055.2
1987	7.5631	3.2727	0.	-4054.3
1988	7.5631	3.0909	0.	-4053.8
1989	7.5631	2.9091	0.	-4053.8
1990	7.5631	2.7273	0.	-4054.3
1991	7.5631	2.5455	0.	-4055.2
1992	7.5631	2.3636	0.	-4056.5
1993	7.5631	2.1818	0.	-4058.2
1994	7.5631	2.	0.	-4060.4
1995	7.5631	1.8182	0.	-4062.9
1996	7.5631	1.6364	0.	-4065.8
1997	7.5631	1.4545	0.	-4069.
1998	7.5631	1.2727	0.	-4072.6
1999	7.5631	1.0909	0.	-4076.4
2000	7.5631	0.90909	0.	-4080.4
2001	7.5631	0.72727	0.	-4084.6
2002	7.5631	0.54545	0.	-4089.
2003	7.5631	0.36364	0.	-4093.6
2004	7.5631	0.18182	0.	-4098.8
2005	7.3786	5.8182	0.	-4155.2
2006	7.3786	5.6364	0.	-4149.7
2007	7.3786	5.4545	0.	-4144.8
2008	7.3786	5.2727	0.	-4140.1
2009	7.3786	5.0909	0.	-4135.5
2010	7.3786	4.9091	0.	-4131.2
2011	7.3786	4.7273	0.	-4127.1
2012	7.3786	4.5455	0.	-4123.3
2013	7.3786	4.3636	0.	-4119.9
2014	7.3786	4.1818	0.	-4116.7
2015	7.3786	4.	0.	-4114.
2016	7.3786	3.8182	0.	-4111.7
2017	7.3786	3.6364	0.	-4109.8
2018	7.3786	3.4545	0.	-4108.4
2019	7.3786	3.2727	0.	-4107.4
2020	7.3786	3.0909	0.	-4106.9
2021	7.3786	2.9091	0.	-4106.9
2022	7.3786	2.7273	0.	-4107.4
2023	7.3786	2.5455	0.	-4108.4
2024	7.3786	2.3636	0.	-4109.8
2025	7.3786	2.1818	0.	-4111.7
2026	7.3786	2.	0.	-4114.
2027	7.3786	1.8182	0.	-4116.7
2028	7.3786	1.6364	0.	-4119.9
2029	7.3786	1.4545	0.	-4123.3
2030	7.3786	1.2727	0.	-4127.1
2031	7.3786	1.0909	0.	-4131.2
2032	7.3786	0.90909	0.	-4135.5
2033	7.3786	0.72727	0.	-4140.1
2034	7.3786	0.54545	0.	-4144.8
2035	7.3786	0.36364	0.	-4149.7
2036	7.3786	0.18182	0.	-4155.2
2037	7.1942	5.8182	0.	-4211.9
2038	7.1942	5.6364	0.	-4206.1
2039	7.1942	5.4545	0.	-4200.9
2040	7.1942	5.2727	0.	-4195.9
2041	7.1942	5.0909	0.	-4191.
2042	7.1942	4.9091	0.	-4186.3
2043	7.1942	4.7273	0.	-4181.9
2044	7.1942	4.5455	0.	-4177.8
2045	7.1942	4.3636	0.	-4174.1
2046	7.1942	4.1818	0.	-4170.7
2047	7.1942	4.	0.	-4167.8
2048	7.1942	3.8182	0.	-4165.2
2049	7.1942	3.6364	0.	-4163.2
2050	7.1942	3.4545	0.	-4161.7
2051	7.1942	3.2727	0.	-4160.6
2052	7.1942	3.0909	0.	-4160.1
2053	7.1942	2.9091	0.	-4160.1
2054	7.1942	2.7273	0.	-4160.6
2055	7.1942	2.5455	0.	-4161.7
2056	7.1942	2.3636	0.	-4163.2
2057	7.1942	2.1818	0.	-4165.2
2058	7.1942	2.	0.	-4167.8
2059	7.1942	1.8182	0.	-4170.7
2060	7.1942	1.6364	0.	-4174.1
2061	7.1942	1.4545	0.	-4177.8
2062	7.1942	1.2727	0.	-4181.9
2063	7.1942	1.0909	0.	-4186.3
2064	7.1942	0.90909	0.	-4191.
2065	7.1942	0.72727	0.	-4195.9
2066	7.1942	0.54545	0.	-4200.9
2067	7.1942	0.36364	0.	-4206.1
2068	7.1942	0.18182	0.	-4211.9
2069	7.0097	5.8182	0.	-4269.1
2070	7.0097	5.6364	0.	-4263.
2071	7.0097	5.4545	0.	-4257.4
2072	7.0097	5.2727	0.	-4251.9
2073	7.0097	5.0909	0.	-4246.7
2074	7.0097	4.9091	0.	-4241.6
2075	7.0097	4.7273	0.	-4236.9
2076	7.0097	4.5455	0.	-4232.5
2077	7.0097	4.3636	0.	-4228.4
2078	7.0097	4.1818	0.	-4224.8
2079	7.0097	4.	0.	-4221.6
2080	7.0097	3.8182	0.	-4218.9
2081	7.0097	3.6364	0.	-4216.7
2082	7.0097	3.4545	0.	-4215.
2083	7.0097	3.2727	0.	-4213.9
2084	7.0097	3.0909	0.	-4213.3
2085	7.0097	2.9091	0.	-4213.3
2086	7.0097	2.7273	0.	-4213.9
2087	7.0097	2.5455	0.	-4215.
2088	7.0097	2.3636	0.	-4216.7
2089	7.0097	2.1818	0.	-4218.9
2090	7.0097	2.	0.	-4221.6
2091	7.0097	1.8182	0.	-4224.8
2092	7.0097	1.6364	0.	-4228.4
2093	7.0097	1.4545	0.	-4232.5
2094	7.0097	1.2727	0.	-4236.9
2095	7.0097	1.0909	0.	-4241.6
2096	7.0097	0.90909	0.	-4246.7
2097	7.0097	0.72727	0.	-4251.9
2098	7.0097	0.54545	0.	-4257.4
2099	7.0097	0.36364	0.	-4263.
2100	7.0097	0.18182	0.	-4269.1
2101	6.8252	5.8182	0.	-4326.7
2102	6.8252	5.6364	0.	-4320.1
2103	6.8252	5.4545	0.	-4314.1
2104	6.8252	5.2727	0.	-4308.3
2105	6.8252	5.0909	0.	-4302.6
2106	6.8252	4.9091	0.	-4297.2
2107	6.8252	4.7273	0.	-4292.1
2108	6.8252	4.5455	0.	-4287.3
2109	6.8252	4.3636	0.	-4283.
2110	6.8252	4.1818	0.	-4279.1
2111	6.8252	4.	0.	-4275.6
2112	6.8252	3.8182	0.	-4272.7
2113	6.8252	3.6364	0.	-4270.3
2114	6.8252	3.4545	0.	-4268.5
2115	6.8252	3.2727	0.	-4267.3
2116	6.8252	3.0909	0.	-4266.7
2117	6.8252	2.9091	0.	-4266.7
2118	6.8252	2.7273	0.	-4267.3
2119	6.8252	2.5455	0.	-4268.5
2120	6.8252	2.3636	0.	-4270.3
2121	6.8252	2.1818	0.	-4272.7
2122	6.8252	2.	0.	-4275.6
2123	6.8252	1.8182	0.	-4279.1
2124	6.8252	1.6364	0.	-4283.
2125	6.8252	1.4545	0.	-4287.3
2126	6.8252	1.2727	0.	-4292.1
2127	6.8252	1.0909	0.	-4297.2
2128	6.8252	0.90909	0.	-4302.6
2129	6.8252	0.72727	0.	-4308.3
2130	6.8252	0.54545	0.	-4314.1
2131	6.8252	0.36364	0.	-4320.1
2132	6.8252	0.18182	0.	-4326.7
2133	6.6408	5.8182	0.	-4384.6
2134	6.6408	5.6364	0.	-4377.7
2135	6.6408	5.4545	0.	-4371.3
2136	6.6408	5.2727	0.	-4365.
2137	6.6408	5.0909	0.	-4358.9
2138	6.6408	4.9091	0.	-4353.1
2139	6.6408	4.7273	0.	-4347.5
2140	6.6408	4.5455	0.	-4342.4
2141	6.6408	4.3636	0.	-4337.7
2142	6.6408	4.1818	0.	-4333.4
2143	6.6408	4.	0.	-4329.7
2144	6.6408	3.8182	0.	-4326.5
2145	6.6408	3.6364	0.	-4324.
2146	6.6408	3.4545	0.	-4322.
2147	6.6408	3.2727	0.	-4320.7
2148	6.6408	3.0909	0.	-4320.
2149	6.6408	2.9091	0.	-4320.
2150	6.6408	2.7273	0.	-4320.7
2151	6.6408	2.5455	0.	-4322.
2152	6.6408	2.3636	0.	-4324.
2153	6.6408	2.1818	0.	-4326.5
2154	6.6408	2.	0.	-4329.7
2155	6.6408	1.8182	0.	-4333.4
2156	6.6408	1.6364	0.	-4337.7
2157	6.6408	1.4545	0.	-4342.4
2158	6.6408	1.2727	0.	-4347.5
2159	6.6408	1.0909	0.	-4353.1
2160	6.6408	0.90909	0.	-4358.9
2161	6.6408	0.72727	0.	-4365.
2162	6.6408	0.54545	0.	-4371.3
2163	6.6408	0.36364	0.	-4377.7
2164	6.6408	0.18182	0.	-4384.6
2165	6.4563	5.8182	0.	-4443.1
2166	6.4563	5.6364	0.	-4435.7
2167	6.4563	5.4545	0.	-4428.8
2168	6.4563	5.2727	0.	-4422.
2169	6.4563	5.0909	0.	-4415.4
2170	6.4563	4.9091	0.	-4409.1
2171	6.4563	4.7273	0.	-4403.2
2172	6.4563	4.5455	0.	-4397.6
2173	6.4563	4.3636	0.	-4392.6
2174	6.4563	4.1818	0.	-4388.
2175	6.4563	4.	0.	-4383.9
2176	6.4563	3.8182	0.	-4380.5
2177	6.4563	3.6364	0.	-4377.7
2178	6.4563	3.4545	0.	-4375.6
2179	6.4563	3.2727	0.	-4374.2
2180	6.4563	3.0909	0.	-4373.4
2181	6.4563	2.9091	0.	-4373.4
2182	6.4563	2.7273	0.	-4374.2
2183	6.4563	2.5455	0.	-4375.6
2184	6.4563	2.3636	0.	-4377.7
2185	6.4563	2.1818	0.	-4380.5
2186	6.4563	2.	0.	-4383.9
2187	6.4563	1.8182	0.	-4388.
2188	6.4563	1.6364	0.	-4392.6
2189	6.4563	1.4545	0.	-4397.6
2190	6.4563	1.2727	0.	-4403.2
2191	6.4563	1.0909	0.	-4409.1
2192	6.4563	0.90909	0.	-4415.4
2193	6.4563	0.72727	0.	-4422.
2194	6.4563	0.54545	0.	-4428.8
2195	6.4563	0.36364	0.	-4435.7
2196	6.4563	0.18182	0.	-4443.1
2197	6.2718	5.8182	0.	-4501.9
2198	6.2718	5.6364	0.	-4494.1
2199	6.2718	5.4545	0.	-4486.7
2200	6.2718	5.2727	0.	-4479.4
2201	6.2718	5.0909	0.	-4472.3
2202	6.2718	4.9091	0.	-4465.5
2203	6.2718	4.7273	0.	-4459.1
2204	6.2718	4.5455	0.	-4453.1
2205	6.2718	4.3636	0.	-4447.6
2206	6.2718	4.1818	0.	-4442.6
2207	6.2718	4.	0.	-4438.3
2208	6.2718	3.8182	0.	-4434.5
2209	6.2718	3.6364	0.	-4431.5
2210	6.2718	3.4545	0.	-4429.2
2211	6.2718	3.2727	0.	-4427.7
2212	6.2718	3.0909	0.	-4426.9
2213	6.2718	2.9091	0.	-4426.9
2214	6.2718	2.7273	0.	-4427.7
2215	6.2718	2.5455	0.	-4429.2
2216	6.2718	2.3636	0.	-4431.5
2217	6.2718	2.1818	0.	-4434.5
2218	6.2718	2.	0.	-4438.3
2219	6.2718	1.8182	0.	-4442.6
2220	6.2718	1.6364	0.	-4447.6
2221	6.2718	1.4545	0.	-4453.1
2222	6.2718	1.2727	0.	-4459.1
2223	6.2718	1.0909	0.	-4465.5
2224	6.2718	0.90909	0.	-4472.3
2225	6.2718	0.72727	0.	-4479.4
2226	6.2718	0.54545	0.	-4486.7
2227	6.2718	0.36364	0.	-4494.1
2228	6.2718	0.18182	0.	-4501.9
2229	6.0874	5.8182	0.	-4561.3
2230	6.0874	5.6364	0.	-4552.9
2231	6.0874	5.4545	0.	-4544.9
2232	6.0874	5.2727	0.	-4537.1
2233	6.0874	5.0909	0.	-4529.5
2234	6.0874	4.9091	0.	-4522.1
2235	6.0874	4.7273	0.	-4515.2
2236	6.0874	4.5455	0.	-4508.7
2237	6.0874	4.3636	0.	-4502.8
2238	6.0874	4.1818	0.	-4497.4
2239	6.0874	4.	0.	-4492.7
2240	6.0874	3.8182	0.	-4488.7
2241	6.0874	3.6364	0.	-4485.4
2242	6.0874	3.4545	0.	-4482.9
2243	6.0874	3.2727	0.	-4481.2
2244	6.0874	3.0909	0.	-4480.4
2245	6.0874	2.9091	0.	-4480.4
2246	6.0874	2.7273	0.	-4481.2
2247	6.0874	2.5455	0.	-4482.9
2248	6.0874	2.3636	0.	-4485.4
2249	6.0874	2.1818	0.	-4488.7
2250	6.0874	2.	0.	-4492.7
2251	6.0874	1.8182	0.	-4497.4
2252	6.0874	1.6364	0.	-4502.8
2253	6.0874	1.4545	0.	-4508.7
2254	6.0874	1.2727	0.	-4515.2
2255	6.0874	1.0909	0.	-4522.1
2256	6.0874	0.90909	0.	-4529.5
2257	6.0874	0.72727	0.	-4537.1
2258	6.0874	0.54545	0.	-4544.9
2259	6.0874	0.36364	0.	-4552.9
2260	6.0874	0.18182	0.	-4561.3
2261	5.9029	5.8182	0.	-4621.2
2262	5.9029	5.6364	0.	-4612.2
2263	5.9029	5.4545	0.	-4603.6
2264	5.9029	5.2727	0.	-4595.2
2265	5.9029	5.0909	0.	-4587.
2266	5.9029	4.9091	0.	-4579.1
2267	5.9029	4.7273	0.	-4571.6
2268	5.9029	4.5455	0.	-4564.6
2269	5.9029	4.3636	0.	-4558.2
2270	5.9029	4.1818	0.	-4552.4
2271	5.9029	4.	0.	-4547.2
2272	5.9029	3.8182	0.	-4542.9
2273	5.9029	3.6364	0.	-4539.4
2274	5.9029	3.4545	0.	-4536.7
2275	5.9029	3.2727	0.	-4534.8
2276	5.9029	3.0909	0.	-4533.9
2277	5.9029	2.9091	0.	-4533.9
2278	5.9029	2.7273	0.	-4534.8
2279	5.9029	2.5455	0.	-4536.7
2280	5.9029	2.3636	0.	-4539.4
2281	5.9029	2.1818	0.	-4542.9
2282	5.9029	2.	0.	-4547.2
2283	5.9029	1.8182	0.	-4552.4
2284	5.9029	1.6364	0.	-4558.2
2285	5.9029	1.4545	0.	-4564.6
2286	5.9029	1.2727	0.	-4571.6
2287	5.9029	1.0909	0.	-4579.1
2288	5.9029	0.90909	0.	-4587.
2289	5.9029	0.72727	0.	-4595.2
2290	5.9029	0.54545	0.	-4603.6
2291	5.9029	0.36364	0.	-4612.2
2292	5.9029	0.18182	0.	-4621.2
2293	5.7184	5.8182	0.	-4681.6
2294	5.7184	5.6364	0.	-4672.
2295	5.7184	5.4545	0.	-4662.8
2296	5.7184	5.2727	0.	-4653.6
2297	5.7184	5.0909	0.	-4644.8
2298	5.7184	4.9091	0.	-4636.3
2299	5.7184	4.7273	0.	-4628.2
2300	5.7184	4.5455	0.	-4620.7
2301	5.7184	4.3636	0.	-4613.7
2302	5.7184	4.1818	0.	-4607.4
2303	5.7184	4.	0.	-4601.9
2304	5.7184	3.8182	0.	-4597.2
2305	5.7184	3.6364	0.	-4593.4
2306	5.7184	3.4545	0.	-4590.4
2307	5.7184	3.2727	0.	-4588.5
2308	5.7184	3.0909	0.	-4587.5
2309	5.7184	2.9091	0.	-4587.5
2310	5.7184	2.7273	0.	-4588.5
2311	5.7184	2.5455	0.	-4590.4
2312	5.7184	2.3636	0.	-4593.4
2313	5.7184	2.1818	0.	-4597.2
2314	5.7184	2.	0.	-4601.9
2315	5.7184	1.8182	0.	-4607.4
2316	5.7184	1.6364	0.	-4613.7
2317	5.7184	1.4545	0.	-4620.7
2318	5.7184	1.2727	0.	-4628.2
2319	5.7184	1.0909	0.	-4636.3
2320	5.7184	0.90909	0.	-4644.8
2321	5.7184	0.72727	0.	-4653.6
2322	5.7184	0.54545	0.	-4662.8
2323	5.7184	0.36364	0.	-4672.
2324	5.7184	0.18182	0.	-4681.6
2325	5.534	5.8182	0.	-4742.6
2326	5.534	5.6364	0.	-4732.3
2327	5.534	5.4545	0.	-4722.4
2328	5.534	5.2727	0.	-4712.5
2329	5.534	5.0909	0.	-4703.
2330	5.534	4.9091	0.	-4693.8
2331	5.534	4.7273	0.	-4685.1
2332	5.534	4.5455	0.	-4676.9
2333	5.534	4.3636	0.	-4669.4
2334	5.534	4.1818	0.	-4662.6
2335	5.534	4.	0.	-4656.7
2336	5.534	3.8182	0.	-4651.6
2337	5.534	3.6364	0.	-4647.4
2338	5.534	3.4545	0.	-4644.3
2339	5.534	3.2727	0.	-4642.2
2340	5.534	3.0909	0.	-4641.1
2341	5.534	2.9091	0.	-4641.1
2342	5.534	2.7273	0.	-4642.2
2343	5.534	2.5455	0.	-4644.3
2344	5.534	2.3636	0.	-4647.4
2345	5.534	2.1818	0.	-4651.6
2346	5.534	2.	0.	-4656.7
2347	5.534	1.8182	0.	-4662.6
2348	5.534	1.6364	0.	-4669.4
2349	5.534	1.4545	0.	-4676.9
2350	5.534	1.2727	0.	-4685.1
2351	5.534	1.0909	0.	-4693.8
2352	5.534	0.90909	0.	-4703.
2353	5.534	0.72727	0.	-4712.5
2354	5.534	0.54545	0.	-4722.4
2355	5.534	0.36364	0.	-4732.3
2356	5.534	0.18182	0.	-4742.6
2357	5.3495	5.8182	0.	-4804.2
2358	5.3495	5.6364	0.	-4793.1
2359	5.3495	5.4545	0.	-4782.4
2360	5.3495	5.2727	0.	-4771.8
2361	5.3495	5.0909	0.	-4761.5
2362	5.3495	4.9091	0.	-4751.6
2363	5.3495	4.7273	0.	-4742.2
2364	5.3495	4.5455	0.	-4733.4
2365	5.3495	4.3636	0.	-4725.3
2366	5.3495	4.1818	0.	-4718.
2367	5.3495	4.	0.	-4711.6
2368	5.3495	3.8182	0.	-4706.1
2369	5.3495	3.6364	0.	-4701.6
2370	5.3495	3.4545	0.	-4698.2
2371	5.3495	3.2727	0.	-4695.9
2372	5.3495	3.0909	0.	-4694.7
2373	5.3495	2.9091	0.	-4694.7
2374	5.3495	2.7273	0.	-4695.9
2375	5.3495	2.5455	0.	-4698.2
2376	5.3495	2.3636	0.	-4701.6
2377	5.3495	2.1818	0.	-4706.1
2378	5.3495	2.	0.	-4711.6
2379	5.3495	1.8182	0.	-4718.
2380	5.3495	1.6364	0.	-4725.3
2381	5.3495	1.4545	0.	-4733.4
2382	5.3495	1.2727	0.	-4742.2
2383	5.3495	1.0909	0.	-4751.6
2384	5.3495	0.90909	0.	-4761.5
2385	5.3495	0.72727	0.	-4771.8
2386	5.3495	0.54545	0.	-4782.4
2387	5.3495	0.36364	0.	-4793.1
2388	5.3495	0.18182	0.	-4804.2
2389	5.165	5.8182	0.	-4866.4
2390	5.165	5.6364	0.	-4854.5
2391	5.165	5.4545	0.	-4842.9
2392	5.165	5.2727	0.	-4831.5
2393	5.165	5.0909	0.	-4820.5
2394	5.165	4.9091	0.	-4809.8
2395	5.165	4.7273	0.	-4799.7
2396	5.165	4.5455	0.	-4790.2
2397	5.165	4.3636	0.	-4781.4
2398	5.165	4.1818	0.	-4773.5
2399	5.165	4.	0.	-4766.6
2400	5.165	3.8182	0.	-4760.7
2401	5.165	3.6364	0.	-4755.8
2402	5.165	3.4545	0.	-4752.1
2403	5.165	3.2727	0.	-4749.6
2404	5.165	3.0909	0.	-4748.4
2405	5.165	2.9091	0.	-4748.4
2406	5.165	2.7273	0.	-4749.6
2407	5.165	2.5455	0.	-4752.1
2408	5.165	2.3636	0.	-4755.8
2409	5.165	2.1818	0.	-4760.7
2410	5.165	2.	0.	-4766.6
2411	5.165	1.8182	0.	-4773.5
2412	5.165	1.6364	0.	-4781.4
2413	5.165	1.4545	0.	-4790.2
2414	5.165	1.2727	0.	-4799.7
2415	5.165	1.0909	0.	-4809.8
2416	5.165	0.90909	0.	-4820.5
2417	5.165	0.72727	0.	-4831.5
2418	5.165	0.54545	0.	-4842.9
2419	5.165	0.36364	0.	-4854.5
2420	5.165	0.18182	0.	-4866.4
2421	4.9806	5.8182	0.	-4929.2
2422	4.9806	5.6364	0.	-4916.4
2423	4.9806	5.4545	0.	-4904.
2424	4.9806	5.2727	0.	-4891.7
2425	4.9806	5.0909	0.	-4879.8
2426	4.9806	4.9091	0.	-4868.3
2427	4.9806	4.7273	0.	-4857.4
2428	4.9806	4.5455	0.	-4847.2
2429	4.9806	4.3636	0.	-4837.8
2430	4.9806	4.1818	0.	-4829.2
2431	4.9806	4.	0.	-4821.8
2432	4.9806	3.8182	0.	-4815.4
2433	4.9806	3.6364	0.	-4810.1
2434	4.9806	3.4545	0.	-4806.2
2435	4.9806	3.2727	0.	-4803.5
2436	4.9806	3.0909	0.	-4802.2
2437	4.9806	2.9091	0.	-4802.2
2438	4.9806	2.7273	0.	-4803.5
2439	4.9806	2.5455	0.	-4806.2
2440	4.9806	2.3636	0.	-4810.1
2441	4.9806	2.1818	0.	-4815.4
2442	4.9806	2.	0.	-4821.8
2443	4.9806	1.8182	0.	-4829.2
2444	4.9806	1.6364	0.	-4837.8
2445	4.9806	1.4545	0.	-4847.2
2446	4.9806	1.2727	0.	-4857.4
2447	4.9806	1.0909	0.	-4868.3
2448	4.9806	0.90909	0.	-4879.8
2449	4.9806	0.72727	0.	-4891.7
2450	4.9806	0.54545	0.	-4904.
2451	4.9806	0.36364	0.	-4916.4
2452	4.9806	0.18182	0.	-4929.2
2453	4.7961	5.8182	0.	-4992.7
2454	4.7961	5.6364	0.	-4978.8
2455	4.7961	5.4545	0.	-4965.5
2456	4.7961	5.2727	0.	-4952.3
2457	4.7961	5.0909	0.	-4939.5
2458	4.7961	4.9091	0.	-4927.1
2459	4.7961	4.7273	0.	-4915.4
2460	4.7961	4.5455	0.	-4904.4
2461	4.7961	4.3636	0.	-4894.3
2462	4.7961	4.1818	0.	-4885.1
2463	4.7961	4.	0.	-4877.1
2464	4.7961	3.8182	0.	-4870.2
2465	4.7961	3.6364	0.	-4864.6
2466	4.7961	3.4545	0.	-4860.3
2467	4.7961	3.2727	0.	-4857.5
2468	4.7961	3.0909	0.	-4856.
2469	4.7961	2.9091	0.	-4856.
2470	4.7961	2.7273	0.	-4857.5
2471	4.7961	2.5455	0.	-4860.3
2472	4.7961	2.3636	0.	-4864.6
2473	4.7961	2.1818	0.	-4870.2
2474	4.7961	2.	0.	-4877.1
2475	4.7961	1.8182	0.	-4885.1
2476	4.7961	1.6364	0.	-4894.3
2477	4.7961	1.4545	0.	-4904.4
2478	4.7961	1.2727	0.	-4915.4
2479	4.7961	1.0909	0.	-4927.1
2480	4.7961	0.90909	0.	-4939.5
2481	4.7961	0.72727	0.	-4952.3
2482	4.7961	0.54545	0.	-4965.5
2483	4.7961	0.36364	0.	-4978.8
2484	4.7961	0.18182	0.	-4992.7
2485	4.6117	5.8182	0.	-5056.8
2486	4.6117	5.6364	0.	-5041.9
2487	4.6117	5.4545	0.	-5027.5
2488	4.6117	5.2727	0.	-5013.4
2489	4.6117	5.0909	0.	-4999.6
2490	4.6117	4.9091	0.	-4986.3
2491	4.6117	4.7273	0.	-4973.7
2492	4.6117	4.5455	0.	-4961.9
2493	4.6117	4.3636	0.	-4951.1
2494	4.6117	4.1818	0.	-4941.2
2495	4.6117	4.	0.	-4932.6
2496	4.6117	3.8182	0.	-4925.2
2497	4.6117	3.6364	0.	-4919.2
2498	4.6117	3.4545	0.	-4914.6
2499	4.6117	3.2727	0.	-4911.6
2500	4.6117	3.0909	0.	-4910.
2501	4.6117	2.9091	0.	-4910.
2502	4.6117	2.7273	0.	-4911.6
2503	4.6117	2.5455	0.	-4914.6
2504	4.6117	2.3636	0.	-4919.2
2505	4.6117	2.1818	0.	-4925.2
2506	4.6117	2.	0.	-4932.6
2507	4.6117	1.8182	0.	-4941.2
2508	4.6117	1.6364	0.	-4951.1
2509	4.6117	1.4545	0.	-4961.9
2510	4.6117	1.2727	0.	-4973.7
2511	4.6117	1.0909	0.	-4986.3
2512	4.6117	0.90909	0.	-4999.6
2513	4.6117	0.72727	0.	-5013.4
2514	4.6117	0.54545	0.	-5027.5
2515	4.6117	0.36364	0.	-5041.9
2516	4.6117	0.18182	0.	-5056.8
2517	4.4272	5.8182	0.	-5121.6
2518	4.4272	5.6364	0.	-5105.5
2519	4.4272	5.4545	0.	-5090.1
2520	4.4272	5.2727	0.	-5074.9
2521	4.4272	5.0909	0.	-5060.1
2522	4.4272	4.9091	0.	-5045.9
2523	4.4272	4.7273	0.	-5032.4
2524	4.4272	4.5455	0.	-5019.7
2525	4.4272	4.3636	0.	-5008.1
2526	4.4272	4.1818	0.	-4997.6
2527	4.4272	4.	0.	-4988.3
2528	4.4272	3.8182	0.	-4980.5
2529	4.4272	3.6364	0.	-4974.1
2530	4.4272	3.4545	0.	-4969.2
2531	4.4272	3.2727	0.	-4965.9
2532	4.4272	3.0909	0.	-4964.2
2533	4.4272	2.9091	0.	-4964.2
2534	4.4272	2.7273	0.	-4965.9
2535	4.4272	2.5455	0.	-4969.2
2536	4.4272	2.3636	0.	-4974.1
2537	4.4272	2.1818	0.	-4980.5
2538	4.4272	2.	0.	-4988.3
2539	4.4272	1.8182	0.	-4997.6
2540	4.4272	1.6364	0.	-5008.1
2541	4.4272	1.4545	0.	-5019.7
2542	4.4272	1.2727	0.	-5032.4
2543	4.4272	1.0909	0.	-5045.9
2544	4.4272	0.90909	0.	-5060.1
2545	4.4272	0.72727	0.	-5074.9
2546	4.4272	0.54545	0.	-5090.1
2547	4.4272	0.36364	0.	-5105.5
2548	4.4272	0.18182	0.	-5121.6
2549	4.2427	5.8182	0.	-5187.
2550	4.2427	5.6364	0.	-5169.6
2551	4.2427	5.4545	0.	-5153.1
2552	4.2427	5.2727	0.	-5136.8
2553	4.2427	5.0909	0.	-5121.
2554	4.2427	4.9091	0.	-5105.8
2555	4.2427	4.7273	0.	-5091.3
2556	4.2427	4.5455	0.	-5077.8
2557	4.2427	4.3636	0.	-5065.4
2558	4.2427	4.1818	0.	-5054.2
2559	4.2427	4.	0.	-5044.4
2560	4.2427	3.8182	0.	-5036.
2561	4.2427	3.6364	0.	-5029.2
2562	4.2427	3.4545	0.	-5024.
2563	4.2427	3.2727	0.	-5020.5
2564	4.2427	3.0909	0.	-5018.7
2565	4.2427	2.9091	0.	-5018.7
2566	4.2427	2.7273	0.	-5020.5
2567	4.2427	2.5455	0.	-5024.
2568	4.2427	2.3636	0.	-5029.2
2569	4.2427	2.1818	0.	-5036.
2570	4.2427	2.	0.	-5044.4
2571	4.2427	1.8182	0.	-5054.2
2572	4.2427	1.6364	0.	-5065.4
2573	4.2427	1.4545	0.	-5077.8
2574	4.2427	1.2727	0.	-5091.3
2575	4.2427	1.0909	0.	-5105.8
2576	4.2427	0.90909	0.	-5121.
2577	4.2427	0.72727	0.	-5136.8
2578	4.2427	0.54545	0.	-5153.1
2579	4.2427	0.36364	0.	-5169.6
2580	4.2427	0.18182	0.	-5187.
2581	4.0583	5.8182	0.	-5253.1
2582	4.0583	5.6364	0.	-5234.3
2583	4.0583	5.4545	0.	-5216.6
2584	4.0583	5.2727	0.	-5199.1
2585	4.0583	5.0909	0.	-5182.2
2586	4.0583	4.9091	0.	-5166.
2587	4.0583	4.7273	0.	-5150.6
2588	4.0583	4.5455	0.	-5136.2
2589	4.0583	4.3636	0.	-5123.
2590	4.0583	4.1818	0.	-5111.2
2591	4.0583	4.	0.	-5100.7
2592	4.0583	3.8182	0.	-5091.9
2593	4.0583	3.6364	0.	-5084.7
2594	4.0583	3.4545	0.	-5079.2
2595	4.0583	3.2727	0.	-5075.5
2596	4.0583	3.0909	0.	-5073.7
2597	4.0583	2.9091	0.	-5073.7
2598	4.0583	2.7273	0.	-5075.5
2599	4.0583	2.5455	0.	-5079.2
2600	4.0583	2.3636	0.	-5084.7
2601	4.0583	2.1818	0.	-5091.9
2602	4.0583	2.	0.	-5100.7
2603	4.0583	1.8182	0.	-5111.2
2604	4.0583	1.6364	0.	-5123.
2605	4.0583	1.4545	0.	-5136.2
2606	4.0583	1.2727	0.	-5150.6
2607	4.0583	1.0909	0.	-5166.
2608	4.0583	0.90909	0.	-5182.2
2609	4.0583	0.72727	0.	-5199.1
2610	4.0583	0.54545	0.	-5216.6
2611	4.0583	0.36364	0.	-5234.3
2612	4.0583	0.18182	0.	-5253.1
2613	3.8738	5.8182	0.	-5319.8
2614	3.8738	5.6364	0.	-5299.4
2615	3.8738	5.4545	0.	-5280.5
2616	3.8738	5.2727	0.	-5261.8
2617	3.8738	5.0909	0.	-5243.8
2618	3.8738	4.9091	0.	-5226.5
2619	3.8738	4.7273	0.	-5210.2
2620	3.8738	4.5455	0.	-5195.
2621	3.8738	4.3636	0.	-5181.
2622	3.8738	4.1818	0.	-5168.5
2623	3.8738	4.	0.	-5157.5
2624	3.8738	3.8182	0.	-5148.2
2625	3.8738	3.6364	0.	-5140.6
2626	3.8738	3.4545	0.	-5134.9
2627	3.8738	3.2727	0.	-5131.1
2628	3.8738	3.0909	0.	-5129.1
2629	3.8738	2.9091	0.	-5129.1
2630	3.8738	2.7273	0.	-5131.1
2631	3.8738	2.5455	0.	-5134.9
2632	3.8738	2.3636	0.	-5140.6
2633	3.8738	2.1818	0.	-5148.2
2634	3.8738	2.	0.	-5157.5
2635	3.8738	1.8182	0.	-5168.5
2636	3.8738	1.6364	0.	-5181.
2637	3.8738	1.4545	0.	-5195.
2638	3.8738	1.2727	0.	-5210.2
2639	3.8738	1.0909	0.	-5226.5
2640	3.8738	0.90909	0.	-5243.8
2641	3.8738	0.72727	0.	-5261.8
2642	3.8738	0.54545	0.	-5280.5
2643	3.8738	0.36364	0.	-5299.4
2644	3.8738	0.18182	0.	-5319.8
2645	3.6893	5.8182	0.	-5387.
2646	3.6893	5.6364	0.	-5364.9
2647	3.6893	5.4545	0.	-5344.7
2648	3.6893	5.2727	0.	-5324.8
2649	3.6893	5.0909	0.	-5305.7
2650	3.6893	4.9091	0.	-5287.3
2651	3.6893	4.7273	0.	-5270.1
2652	3.6893	4.5455	0.	-5254.
2653	3.6893	4.3636	0.	-5239.4
2654	3.6893	4.1818	0.	-5226.2
2655	3.6893	4.	0.	-5214.8
2656	3.6893	3.8182	0.	-5205.1
2657	3.6893	3.6364	0.	-5197.3
2658	3.6893	3.4545	0.	-5191.3
2659	3.6893	3.2727	0.	-5187.3
2660	3.6893	3.0909	0.	-5185.3
2661	3.6893	2.9091	0.	-5185.3
2662	3.6893	2.7273	0.	-5187.3
2663	3.6893	2.5455	0.	-5191.3
2664	3.6893	2.3636	0.	-5197.3
2665	3.6893	2.1818	0.	-5205.1
2666	3.6893	2.	0.	-5214.8
2667	3.6893	1.8182	0.	-5226.2
2668	3.6893	1.6364	0.	-5239.4
2669	3.6893	1.4545	0.	-5254.
2670	3.6893	1.2727	0.	-5270.1
2671	3.6893	1.0909	0.	-5287.3
2672	3.6893	0.90909	0.	-5305.7
2673	3.6893	0.72727	0.	-5324.8
2674	3.6893	0.54545	0.	-5344.7
2675	3.6893	0.36364	0.	-5364.9
2676	3.6893	0.18182	0.	-5387.
2677	3.5049	5.8182	0.	-5454.6
2678	3.5049	5.6364	0.	-5430.7
2679	3.5049	5.4545	0.	-5409.1
2680	3.5049	5.2727	0.	-5388.
2681	3.5049	5.0909	0.	-5367.7
2682	3.5049	4.9091	0.	-5348.3
2683	3.5049	4.7273	0.	-5330.2
2684	3.5049	4.5455	0.	-5313.4
2685	3.5049	4.3636	0.	-5298.2
2686	3.5049	4.1818	0.	-5284.6
2687	3.5049	4.	0.	-5272.7
2688	3.5049	3.8182	0.	-5262.8
2689	3.5049	3.6364	0.	-5254.7
2690	3.5049	3.4545	0.	-5248.7
2691	3.5049	3.2727	0.	-5244.6
2692	3.5049	3.0909	0.	-5242.6
2693	3.5049	2.9091	0.	-5242.6
2694	3.5049	2.7273	0.	-5244.6
2695	3.5049	2.5455	0.	-5248.7
2696	3.5049	2.3636	0.	-5254.7
2697	3.5049	2.1818	0.	-5262.8
2698	3.5049	2.	0.	-5272.7
2699	3.5049	1.8182	0.	-5284.6
2700	3.5049	1.6364	0.	-5298.2
2701	3.5049	1.4545	0.	-5313.4
2702	3.5049	1.2727	0.	-5330.2
2703	3.5049	1.0909	0.	-5348.3
2704	3.5049	0.90909	0.	-5367.7
2705	3.5049	0.72727	0.	-5388.
2706	3.5049	0.54545	0.	-5409.1
2707	3.5049	0.36364	0.	-5430.7
2708	3.5049	0.18182	0.	-5454.6
2709	3.3204	5.8182	0.	-5522.4
2710	3.3204	5.6364	0.	-5496.5
2711	3.3204	5.4545	0.	-5473.5
2712	3.3204	5.2727	0.	-5451.1
2713	3.3204	5.0909	0.	-5429.7
2714	3.3204	4.9091	0.	-5409.5
2715	3.3204	4.7273	0.	-5390.6
2716	3.3204	4.5455	0.	-5373.2
2717	3.3204	4.3636	0.	-5357.4
2718	3.3204	4.1818	0.	-5343.5
2719	3.3204	4.	0.	-5331.5
2720	3.3204	3.8182	0.	-5321.4
2721	3.3204	3.6364	0.	-5313.3
2722	3.3204	3.4545	0.	-5307.2
2723	3.3204	3.2727	0.	-5303.2
2724	3.3204	3.0909	0.	-5301.2
2725	3.3204	2.9091	0.	-5301.2
2726	3.3204	2.7273	0.	-5303.2
2727	3.3204	2.5455	0.	-5307.2
2728	3.3204	2.3636	0.	-5313.3
2729	3.3204	2.1818	0.	-5321.4
2730	3.3204	2.	0.	-5331.5
2731	3.3204	1.8182	0.	-5343.5
2732	3.3204	1.6364	0.	-5357.4
2733	3.3204	1.4545	0.	-5373.2
2734	3.3204	1.2727	0.	-5390.6
2735	3.3204	1.0909	0.	-5409.5
2736	3.3204	0.90909	0.	-5429.7
2737	3.3204	0.72727	0.	-5451.1
2738	3.3204	0.54545	0.	-5473.5
2739	3.3204	0.36364	0.	-5496.5
2740	3.3204	0.18182	0.	-5522.4
2741	3.1359	5.8182	0.	-5590.1
2742	3.1359	5.6364	0.	-5562.2
2743	3.1359	5.4545	0.	-5537.7
2744	3.1359	5.2727	0.	-5514.1
2745	3.1359	5.0909	0.	-5491.7
2746	3.1359	4.9091	0.	-5470.6
2747	3.1359	4.7273	0.	-5451.
2748	3.1359	4.5455	0.	-5433.2
2749	3.1359	4.3636	0.	-5417.3
2750	3.1359	4.1818	0.	-5403.2
2751	3.1359	4.	0.	-5391.2
2752	3.1359	3.8182	0.	-5381.3
2753	3.1359	3.6364	0.	-5373.3
2754	3.1359	3.4545	0.	-5367.4
2755	3.1359	3.2727	0.	-5363.4
2756	3.1359	3.0909	0.	-5361.5
2757	3.1359	2.9091	0.	-5361.5
2758	3.1359	2.7273	0.	-5363.4
2759	3.1359	2.5455	0.	-5367.4
2760	3.1359	2.3636	0.	-5373.3
2761	3.1359	2.1818	0.	-5381.3
2762	3.1359	2.	0.	-5391.2
2763	3.1359	1.8182	0.	-5403.2
2764	3.1359	1.6364	0.	-5417.3
2765	3.1359	1.4545	0.	-5433.2
2766	3.1359	1.2727	0.	-5451.
2767	3.1359	1.0909	0.	-5470.6
2768	3.1359	0.90909	0.	-5491.7
2769	3.1359	0.72727	0.	-5514.1
2770	3.1359	0.54545	0.	-5537.7
2771	3.1359	0.36364	0.	-5562.2
2772	3.1359	0.18182	0.	-5590.1
2773	2.9515	5.8182	0.	-5657.6
2774	2.9515	5.6364	0.	-5627.3
2775	2.9515	5.4545	0.	-5601.4
2776	2.9515	5.2727	0.	-5576.6
2777	2.9515	5.0909	0.	-5553.3
2778	2.9515	4.9091	0.	-5531.5
2779	2.9515	4.7273	0.	-5511.6
2780	2.9515	4.5455	0.	-5493.6
2781	2.9515	4.3636	0.	-5477.7
2782	2.9515	4.1818	0.	-5463.9
2783	2.9515	4.	0.	-5452.3
2784	2.9515	3.8182	0.	-5442.7
2785	2.9515	3.6364	0.	-5435.2
2786	2.9515	3.4545	0.	-5429.6
2787	2.9515	3.2727	0.	-5425.9
2788	2.9515	3.0909	0.	-5424.1
2789	2.9515	2.9091	0.	-5424.1
2790	2.9515	2.7273	0.	-5425.9
2791	2.9515	2.5455	0.	-5429.6
2792	2.9515	2.3636	0.	-5435.2
2793	2.9515	2.1818	0.	-5442.7
2794	2.9515	2.	0.	-5452.3
2795	2.9515	1.8182	0.	-5463.9
2796	2.9515	1.6364	0.	-5477.7
2797	2.9515	1.4545	0.	-5493.6
2798	2.9515	1.2727	0.	-5511.6
2799	2.9515	1.0909	0.	-5531.5
2800	2.9515	0.90909	0.	-5553.3
2801	2.9515	0.72727	0.	-5576.6
2802	2.9515	0.54545	0.	-5601.4
2803	2.9515	0.36364	0.	-5627.3
2804	2.9515	0.18182	0.	-5657.6
2805	2.767	5.8182	0.	-5724.2
2806	2.767	5.6364	0.	-5691.4
2807	2.767	5.4545	0.	-5664.
2808	2.767	5.2727	0.	-5638.2
2809	2.767	5.0909	0.	-5614.1
2810	2.767	4.9091	0.	-5592.
2811	2.767	4.7273	0.	-5572.
2812	2.767	4.5455	0.	-5554.3
2813	2.767	4.3636	0.	-5538.9
2814	2.767	4.1818	0.	-5525.8
2815	2.767	4.	0.	-5514.9
2816	2.767	3.8182	0.	-5506.1
2817	2.767	3.6364	0.	-5499.4
2818	2.767	3.4545	0.	-5494.4
2819	2.767	3.2727	0.	-5491.2
2820	2.767	3.0909	0.	-5489.6
2821	2.767	2.9091	0.	-5489.6
2822	2.767	2.7273	0.	-5491.2
2823	2.767	2.5455	0.	-5494.4
2824	2.767	2.3636	0.	-5499.4
2825	2.767	2.1818	0.	-5506.1
2826	2.767	2.	0.	-5514.9
2827	2.767	1.8182	0.	-5525.8
2828	2.767	1.6364	0.	-5538.9
2829	2.767	1.4545	0.	-5554.3
2830	2.767	1.2727	0.	-5572.
2831	2.767	1.0909	0.	-5592.
2832	2.767	0.90909	0.	-5614.1
2833	2.767	0.72727	0.	-5638.2
2834	2.767	0.54545	0.	-5664.
2835	2.767	0.36364	0.	-5691.4
2836	2.767	0.18182	0.	-5724.2
2837	2.5825	5.8182	0.	-5789.3
2838	2.5825	5.6364	0.	-5753.8
2839	2.5825	5.4545	0.	-5725.1
2840	2.5825	5.2727	0.	-5698.4
2841	2.5825	5.0909	0.	-5673.8
2842	2.5825	4.9091	0.	-5651.7
2843	2.5825	4.7273	0.	-5632.1
2844	2.5825	4.5455	0.	-5615.2
2845	2.5825	4.3636	0.	-5600.9
2846	2.5825	4.1818	0.	-5589.
2847	2.5825	4.	0.	-5579.5
2848	2.5825	3.8182	0.	-5572.1
2849	2.5825	3.6364	0.	-5566.6
2850	2.5825	3.4545	0.	-5562.6
2851	2.5825	3.2727	0.	-5560.1
2852	2.5825	3.0909	0.	-5558.9
2853	2.5825	2.9091	0.	-5558.9
2854	2.5825	2.7273	0.	-5560.1
2855	2.5825	2.5455	0.	-5562.6
2856	2.5825	2.3636	0.	-5566.6
2857	2.5825	2.1818	0.	-5572.1
2858	2.5825	2.	0.	-5579.5
2859	2.5825	1.8182	0.	-5589.
2860	2.5825	1.6364	0.	-5600.9
2861	2.5825	1.4545	0.	-5615.2
2862	2.5825	1.2727	0.	-5632.1
2863	2.5825	1.0909	0.	-5651.7
2864	2.5825	0.90909	0.	-5673.8
2865	2.5825	0.72727	0.	-5698.4
2866	2.5825	0.54545	0.	-5725.1
2867	2.5825	0.36364	0.	-5753.8
2868	2.5825	0.18182	0.	-5789.3
2869	2.3981	5.8182	0.	-5852.1
2870	2.3981	5.6364	0.	-5813.7
2871	2.3981	5.4545	0.	-5783.7
2872	2.3981	5.2727	0.	-5756.4
2873	2.3981	5.0909	0.	-5731.8
2874	2.3981	4.9091	0.	-5710.2
2875	2.3981	4.7273	0.	-5691.7
2876	2.3981	4.5455	0.	-5676.3
2877	2.3981	4.3636	0.	-5663.9
2878	2.3981	4.1818	0.	-5654.1
2879	2.3981	4.	0.	-5646.7
2880	2.3981	3.8182	0.	-5641.4
2881	2.3981	3.6364	0.	-5637.6
2882	2.3981	3.4545	0.	-5635.1
2883	2.3981	3.2727	0.	-5633.6
2884	2.3981	3.0909	0.	-5632.9
2885	2.3981	2.9091	0.	-5632.9
2886	2.3981	2.7273	0.	-5633.6
2887	2.3981	2.5455	0.	-5635.1
2888	2.3981	2.3636	0.	-5637.6
2889	2.3981	2.1818	0.	-5641.4
2890	2.3981	2.	0.	-5646.7
2891	2.3981	1.8182	0.	-5654.1
2892	2.3981	1.6364	0.	-5663.9
2893	2.3981	1.4545	0.	-5676.3
2894	2.3981	1.2727	0.	-5691.7
2895	2.3981	1.0909	0.	-5710.2
2896	2.3981	0.90909	0.	-5731.8
2897	2.3981	0.72727	0.	-5756.4
2898	2.3981	0.54545	0.	-5783.7
2899	2.3981	0.36364	0.	-5813.7
2900	2.3981	0.18182	0.	-5852.1
2901	2.2136	5.8182	0.	-5911.5
2902	2.2136	5.6364	0.	-5869.9
2903	2.2136	5.4545	0.	-5838.9
2904	2.2136	5.2727	0.	-5811.3
2905	2.2136	5.0909	0.	-5787.3
2906	2.2136	4.9091	0.	-5767.
2907	2.2136	4.7273	0.	-5750.5
2908	2.2136	4.5455	0.	-5737.7
2909	2.2136	4.3636	0.	-5728.1
2910	2.2136	4.1818	0.	-5721.5
2911	2.2136	4.	0.	-5717.2
2912	2.2136	3.8182	0.	-5714.7
2913	2.2136	3.6364	0.	-5713.4
2914	2.2136	3.4545	0.	-5712.9
2915	2.2136	3.2727	0.	-5712.8
2916	2.2136	3.0909	0.	-5712.8
2917	2.2136	2.9091	0.	-5712.8
2918	2.2136	2.7273	0.	-5712.8
2919	2.2136	2.5455	0.	-5712.9
2920	2.2136	2.3636	0.	-5713.4
2921	2.2136	2.1818	0.	-5714.7
2922	2.2136	2.	0.	-5717.2
2923	2.2136	1.8182	0.	-5721.5
2924	2.2136	1.6364	0.	-5728.1
2925	2.2136	1.4545	0.	-5737.7
2926	2.2136	1.2727	0.	-5750.5
2927	2.2136	1.0909	0.	-5767.
2928	2.2136	0.90909	0.	-5787.3
2929	2.2136	0.72727	0.	-5811.3
2930	2.2136	0.54545	0.	-5838.9
2931	2.2136	0.36364	0.	-5869.9
2932	2.2136	0.18182	0.	-5911.5
2933	2.0291	5.8182	0.	-5965.8
2934	2.0291	5.6364	0.	-5920.9
2935	2.0291	5.4545	0.	-5889.1
2936	2.0291	5.2727	0.	-5861.8
2937	2.0291	5.0909	0.	-5839.3
2938	2.0291	4.9091	0.	-5821.4
2939	2.0291	4.7273	0.	-5808.2
2940	2.0291	4.5455	0.	-5799.2
2941	2.0291	4.3636	0.	-5794.
2942	2.0291	4.1818	0.	-5791.8
2943	2.0291	4.	0.	-5791.8
2944	2.0291	3.8182	0.	-5793.2
2945	2.0291	3.6364	0.	-5795.3
2946	2.0291	3.4545	0.	-5797.4
2947	2.0291	3.2727	0.	-5799.1
2948	2.0291	3.0909	0.	-5800.1
2949	2.0291	2.9091	0.	-5800.1
2950	2.0291	2.7273	0.	-5799.1
2951	2.0291	2.5455	0.	-5797.4
2952	2.0291	2.3636	0.	-5795.3
2953	2.0291	2.1818	0.	-5793.2
2954	2.0291	2.	0.	-5791.8
2955	2.0291	1.8182	0.	-5791.8
2956	2.0291	1.6364	0.	-5794.
2957	2.0291	1.4545	0.	-5799.2
2958	2.0291	1.2727	0.	-5808.2
2959	2.0291	1.0909	0.	-5821.4
2960	2.0291	0.90909	0.	-5839.3
2961	2.0291	0.72727	0.	-5861.8
2962	2.0291	0.54545	0.	-5889.1
2963	2.0291	0.36364	0.	-5920.9
2964	2.0291	0.18182	0.	-5965.8
2965	1.8447	5.8182	0.	-6012.7
2966	1.8447	5.6364	0.	-5964.3
2967	1.8447	5.4545	0.	-5932.3
2968	1.8447	5.2727	0.	-5906.4
2969	1.8447	5.0909	0.	-5886.5
2970	1.8447	4.9091	0.	-5872.6
2971	1.8447	4.7273	0.	-5864.4
2972	1.8447	4.5455	0.	-5861.3
2973	1.8447	4.3636	0.	-5862.2
2974	1.8447	4.1818	0.	-5866.
2975	1.8447	4.	0.	-5871.8
2976	1.8447	3.8182	0.	-5878.3
2977	1.8447	3.6364	0.	-5884.7
2978	1.8447	3.4545	0.	-5890.2
2979	1.8447	3.2727	0.	-5894.2
2980	1.8447	3.0909	0.	-5896.2
2981	1.8447	2.9091	0.	-5896.2
2982	1.8447	2.7273	0.	-5894.2
2983	1.8447	2.5455	0.	-5890.2
2984	1.8447	2.3636	0.	-5884.7
2985	1.8447	2.1818	0.	-5878.3
2986	1.8447	2.	0.	-5871.8
2987	1.8447	1.8182	0.	-5866.
2988	1.8447	1.6364	0.	-5862.2
2989	1.8447	1.4545	0.	-5861.3
2990	1.8447	1.2727	0.	-5864.4
2991	1.8447	1.0909	0.	-5872.6
2992	1.8447	0.90909	0.	-5886.5
2993	1.8447	0.72727	0.	-5906.4
2994	1.8447	0.54545	0.	-5932.3
2995	1.8447	0.36364	0.	-5964.3
2996	1.8447	0.18182	0.	-6012.7
2997	1.6602	5.8182	0.	-6049.3
2998	1.6602	5.6364	0.	-5997.4
2999	1.6602	5.4545	0.	-5965.9
3000	1.6602	5.2727	0.	-5942.7
3001	1.6602	5.0909	0.	-5927.4
3002	1.6602	4.9091	0.	-5919.8
3003	1.6602	4.7273	0.	-5919.1
3004	1.6602	4.5455	0.	-5924.2
3005	1.6602	4.3636	0.	-5933.5
3006	1.6602	4.1818	0.	-5945.5
3007	1.6602	4.	0.	-5958.7
3008	1.6602	3.8182	0.	-5971.7
3009	1.6602	3.6364	0.	-5983.5
3010	1.6602	3.4545	0.	-5993.
3011	1.6602	3.2727	0.	-5999.7
3012	1.6602	3.0909	0.	-6003.2
3013	1.6602	2.9091	0.	-6003.2
3014	1.6602	2.7273	0.	-5999.7
3015	1.6602	2.5455	0.	-5993.
3016	1.6602	2.3636	0.	-5983.5
3017	1.6602	2.1818	0.	-5971.7
3018	1.6602	2.	0.	-5958.7
3019	1.6602	1.8182	0.	-5945.5
3020	1.6602	1.6364	0.	-5933.5
3021	1.6602	1.4545	0.	-5924.2
3022	1.6602	1.2727	0.	-5919.1
3023	1.6602	1.0909	0.	-5919.8
3024	1.6602	0.90909	0.	-5927.4
3025	1.6602	0.72727	0.	-5942.7
3026	1.6602	0.54545	0.	-5965.9
3027	1.6602	0.36364	0.	-5997.4
3028	1.6602	0.18182	0.	-6049.3
3029	1.4757	5.8182	0.	-6071.1
3030	1.4757	5.6364	0.	-6015.7
3031	1.4757	5.4545	0.	-5986.3
3032	1.4757	5.2727	0.	-5968.
3033	1.4757	5.0909	0.	-5960.3
3034	1.4757	4.9091	0.	-5962.2
3035	1.4757	4.7273	0.	-5972.5
3036	1.4757	4.5455	0.	-5989.
3037	1.4757	4.3636	0.	-6009.6
3038	1.4757	4.1818	0.	-6032.1
3039	1.4757	4.	0.	-6054.6
3040	1.4757	3.8182	0.	-6075.6
3041	1.4757	3.6364	0.	-6093.7
3042	1.4757	3.4545	0.	-6108.1
3043	1.4757	3.2727	0.	-6118.
3044	1.4757	3.0909	0.	-6123.
3045	1.4757	2.9091	0.	-6123.
3046	1.4757	2.7273	0.	-6118.
3047	1.4757	2.5455	0.	-6108.1
3048	1.4757	2.3636	0.	-6093.7
3049	1.4757	2.1818	0.	-6075.6
3050	1.4757	2.	0.	-6054.6
3051	1.4757	1.8182	0.	-6032.1
3052	1.4757	1.6364	0.	-6009.6
3053	1.4757	1.4545	0.	-5989.
3054	1.4757	1.2727	0.	-5972.5
3055	1.4757	1.0909	0.	-5962.2
3056	1.4757	0.90909	0.	-5960.3
3057	1.4757	0.72727	0.	-5968.
3058	1.4757	0.54545	0.	-5986.3
3059	1.4757	0.36364	0.	-6015.7
3060	1.4757	0.18182	0.	-6071.1
3061	1.2913	5.8182	0.	-6071.5
3062	1.2913	5.6364	0.	-6013.4
3063	1.2913	5.4545	0.	-5988.4
3064	1.2913	5.2727	0.	-5978.8
3065	1.2913	5.0909	0.	-5983.1
3066	1.2913	4.9091	0.	-5999.5
3067	1.2913	4.7273	0.	-6025.4
3068	1.2913	4.5455	0.	-6057.6
3069	1.2913	4.3636	0.	-6092.9
3070	1.2913	4.1818	0.	-6128.5
3071	1.2913	4.	0.	-6162.3
3072	1.2913	3.8182	0.	-6192.6
3073	1.2913	3.6364	0.	-6217.9
3074	1.2913	3.4545	0.	-6237.6
3075	1.2913	3.2727	0.	-6251.
3076	1.2913	3.0909	0.	-6257.8
3077	1.2913	2.9091	0.	-6257.8
3078	1.2913	2.7273	0.	-6251.
3079	1.2913	2.5455	0.	-6237.6
3080	1.2913	2.3636	0.	-6217.9
3081	1.2913	2.1818	0.	-6192.6
3082	1.2913	2.	0.	-6162.3
3083	1.2913	1.8182	0.	-6128.5
3084	1.2913	1.6364	0.	-6092.9
3085	1.2913	1.4545	0.	-6057.6
3086	1.2913	1.2727	0.	-6025.4
3087	1.2913	1.0909	0.	-5999.5
3088	1.2913	0.90909	0.	-5983.1
3089	1.2913	0.72727	0.	-5978.8
3090	1.2913	0.54545	0.	-5988.4
3091	1.2913	0.36364	0.	-6013.4
3092	1.2913	0.18182	0.	-6071.5
3093	1.1068	5.8182	0.	-6040.7
3094	1.1068	5.6364	0.	-5981.5
3095	1.1068	5.4545	0.	-5965.6
3096	1.1068	5.2727	0.	-5970.8
3097	1.1068	5.0909	0.	-5994.5
3098	1.1068	4.9091	0.	-6032.7
3099	1.1068	4.7273	0.	-6080.7
3100	1.1068	4.5455	0.	-6133.7
3101	1.1068	4.3636	0.	-6187.5
3102	1.1068	4.1818	0.	-6238.9
3103	1.1068	4.	0.	-6285.6
3104	1.1068	3.8182	0.	-6326.
3105	1.1068	3.6364	0.	-6359.2
3106	1.1068	3.4545	0.	-6384.4
3107	1.1068	3.2727	0.	-6401.3
3108	1.1068	3.0909	0.	-6409.8
3109	1.1068	2.9091	0.	-6409.8
3110	1.1068	2.7273	0.	-6401.3
3111	1.1068	2.5455	0.	-6384.4
3112	1.1068	2.3636	0.	-6359.2
3113	1.1068	2.1818	0.	-6326.
3114	1.1068	2.	0.	-6285.6
3115	1.1068	1.8182	0.	-6238.9
3116	1.1068	1.6364	0.	-6187.5
3117	1.1068	1.4545	0.	-6133.7
3118	1.1068	1.2727	0.	-6080.7
3119	1.1068	1.0909	0.	-6032.7
3120	1.1068	0.90909	0.	-5994.5
3121	1.1068	0.72727	0.	-5970.8
3122	1.1068	0.54545	0.	-5965.6
3123	1.1068	0.36364	0.	-5981.5
3124	1.1068	0.18182	0.	-6040.7
3125	0.92233	5.8182	0.	-5962.2
3126	0.92233	5.6364	0.	-5905.8
3127	0.92233	5.4545	0.	-5907.4
3128	0.92233	5.2727	0.	-5938.8
3129	0.92233	5.0909	0.	-5993.6
3130	0.92233	4.9091	0.	-6064.3
3131	0.92233	4.7273	0.	-6142.7
3132	0.92233	4.5455	0.	-6222.3
3133	0.92233	4.3636	0.	-6298.2
3134	0.92233	4.1818	0.	-6367.3
3135	0.92233	4.	0.	-6427.7
3136	0.92233	3.8182	0.	-6478.5
3137	0.92233	3.6364	0.	-6519.2
3138	0.92233	3.4545	0.	-6549.7
3139	0.92233	3.2727	0.	-6570.
3140	0.92233	3.0909	0.	-6580.1
3141	0.92233	2.9091	0.	-6580.1
3142	0.92233	2.7273	0.	-6570.
3143	0.92233	2.5455	0.	-6549.7
3144	0.92233	2.3636	0.	-6519.2
3145	0.92233	2.1818	0.	-6478.5
3146	0.92233	2.	0.	-6427.7
3147	0.92233	1.8182	0.	-6367.3
3148	0.92233	1.6364	0.	-6298.2
3149	0.92233	1.4545	0.	-6222.3
3150	0.92233	1.2727	0.	-6142.7
3151	0.92233	1.0909	0.	-6064.3
3152	0.92233	0.90909	0.	-5993.6
3153	0.92233	0.72727	0.	-5938.8
3154	0.92233	0.54545	0.	-5907.4
3155	0.92233	0.36364	0.	-5905.8
3156	0.92233	0.18182	0.	-5962.2
3157	0.73786	5.8182	0.	-5810.6
3158	0.73786	5.6364	0.	-5767.9
3159	0.73786	5.4545	0.	-5805.3
3160	0.73786	5.2727	0.	-5884.
3161	0.73786	5.0909	0.	-5989.6
3162	0.73786	4.9091	0.	-6107.4
3163	0.73786	4.7273	0.	-6225.8
3164	0.73786	4.5455	0.	-6337.1
3165	0.73786	4.3636	0.	-6437.3
3166	0.73786	4.1818	0.	-6524.4
3167	0.73786	4.	0.	-6598.
3168	0.73786	3.8182	0.	-6658.2
3169	0.73786	3.6364	0.	-6705.5
3170	0.73786	3.4545	0.	-6740.4
3171	0.73786	3.2727	0.	-6763.4
3172	0.73786	3.0909	0.	-6774.8
3173	0.73786	2.9091	0.	-6774.8
3174	0.73786	2.7273	0.	-6763.4
3175	0.73786	2.5455	0.	-6740.4
3176	0.73786	2.3636	0.	-6705.5
3177	0.73786	2.1818	0.	-6658.2
3178	0.73786	2.	0.	-6598.
3179	0.73786	1.8182	0.	-6524.4
3180	0.73786	1.6364	0.	-6437.3
3181	0.73786	1.4545	0.	-6337.1
3182	0.73786	1.2727	0.	-6225.8
3183	0.73786	1.0909	0.	-6107.4
3184	0.73786	0.90909	0.	-5989.6
3185	0.73786	0.72727	0.	-5884.
3186	0.73786	0.54545	0.	-5805.3
3187	0.73786	0.36364	0.	-5767.9
3188	0.73786	0.18182	0.	-5810.6
3189	0.5534	5.8182	0.	-5527.4
3190	0.5534	5.6364	0.	-5522.2
3191	0.5534	5.4545	0.	-5633.6
3192	0.5534	5.2727	0.	-5798.5
3193	0.5534	5.0909	0.	-5983.5
3194	0.5534	4.9091	0.	-6164.8
3195	0.5534	4.7273	0.	-6330.1
3196	0.5534	4.5455	0.	-6474.5
3197	0.5534	4.3636	0.	-6597.4
3198	0.5534	4.1818	0.	-6700.
3199	0.5534	4.	0.	-6783.9
3200	0.5534	3.8182	0.	-6850.9
3201	0.5534	3.6364	0.	-6902.6
3202	0.5534	3.4545	0.	-6940.3
3203	0.5534	3.2727	0.	-6964.9
3204	0.5534	3.0909	0.	-6977.
3205	0.5534	2.9091	0.	-6977.
3206	0.5534	2.7273	0.	-6964.9
3207	0.5534	2.5455	0.	-6940.3
3208	0.5534	2.3636	0.	-6902.6
3209	0.5534	2.1818	0.	-6850.9
3210	0.5534	2.	0.	-6783.9
3211	0.5534	1.8182	0.	-6700.
3212	0.5534	1.6364	0.	-6597.4
3213	0.5534	1.4545	0.	-6474.5
3214	0.5534	1.2727	0.	-6330.1
3215	0.5534	1.0909	0.	-6164.8
3216	0.5534	0.90909	0.	-5983.5
3217	0.5534	0.72727	0.	-5798.5
3218	0.5534	0.54545	0.	-5633.6
3219	0.5534	0.36364	0.	-5522.2
3220	0.5534	0.18182	0.	-5527.4
3221	0.36893	5.8182	0.	-5032.3
3222	0.36893	5.6364	0.	-5161.9
3223	0.36893	5.4545	0.	-5454.6
3224	0.36893	5.2727	0.	-5780.3
3225	0.36893	5.0909	0.	-6079.4
3226	0.36893	4.9091	0.	-6334.7
3227	0.36893	4.7273	0.	-6545.8
3228	0.36893	4.5455	0.	-6718.1
3229	0.36893	4.3636	0.	-6857.7
3230	0.36893	4.1818	0.	-6970.
3231	0.36893	4.	0.	-7059.5
3232	0.36893	3.8182	0.	-7129.6
3233	0.36893	3.6364	0.	-7182.9
3234	0.36893	3.4545	0.	-7221.3
3235	0.36893	3.2727	0.	-7246.2
3236	0.36893	3.0909	0.	-7258.4
3237	0.36893	2.9091	0.	-7258.4
3238	0.36893	2.7273	0.	-7246.2
3239	0.36893	2.5455	0.	-7221.3
3240	0.36893	2.3636	0.	-7182.9
3241	0.36893	2.1818	0.	-7129.6
3242	0.36893	2.	0.	-7059.5
3243	0.36893	1.8182	0.	-6970.
3244	0.36893	1.6364	0.	-6857.7
3245	0.36893	1.4545	0.	-6718.1
3246	0.36893	1.2727	0.	-6545.8
3247	0.36893	1.0909	0.	-6334.7
3248	0.36893	0.90909	0.	-6079.4
3249	0.36893	0.72727	0.	-5780.3
3250	0.36893	0.54545	0.	-5454.6
3251	0.36893	0.36364	0.	-5161.9
3252	0.36893	0.18182	0.	-5032.3
3253	0.18447	5.8182	0.	-3892.2
3254	0.18447	5.6364	0.	-4488.6
3255	0.18447	5.4545	0.	-5180.7
3256	0.18447	5.2727	0.	-5710.5
3257	0.18447	5.0909	0.	-6108.8
3258	0.18447	4.9091	0.	-6408.8
3259	0.18447	4.7273	0.	-6638.6
3260	0.18447	4.5455	0.	-6816.8
3261	0.18447	4.3636	0.	-6956.1
3262	0.18447	4.1818	0.	-7065.3
3263	0.18447	4.	0.	-7150.8
3264	0.18447	3.8182	0.	-7216.8
3265	0.18447	3.6364	0.	-7266.4
3266	0.18447	3.4545	0.	-7301.9
3267	0.18447	3.2727	0.	-7324.8
3268	0.18447	3.0909	0.	-7336.1
3269	0.18447	2.9091	0.	-7336.1
3270	0.18447	2.7273	0.	-7324.8
3271	0.18447	2.5455	0.	-7301.9
3272	0.18447	2.3636	0.	-7266.4
3273	0.18447	2.1818	0.	-7216.8
3274	0.18447	2.	0.	-7150.8
3275	0.18447	1.8182	0.	-7065.3
3276	0.18447	1.6364	0.	-6956.1
3277	0.18447	1.4545	0.	-6816.8
3278	0.18447	1.2727	0.	-6638.6
3279	0.18447	1.0909	0.	-6408.8
3280	0.18447	0.90909	0.	-6108.8
3281	0.18447	0.72727	0.	-5710.5
3282	0.18447	0.54545	0.	-5180.7
3283	0.18447	0.36364	0.	-4488.6
3284	0.18447	0.18182	0.	-3892.2
3285	19.346	0.18182	0.	-156.37
3286	19.346	0.36364	0.	-222.55
3287	19.346	0.54545	0.	-300.79
3288	19.346	0.72727	0.	-388.04
3289	19.346	0.90909	0.	-488.98
3290	19.346	1.0909	0.	-611.17
3291	19.346	1.2727	0.	-766.71
3292	19.346	1.4545	0.	-981.14
3293	19.346	1.6364	0.	-1297.4
3294	19.346	1.8182	0.	-1918.6
3295	19.346	2.	0.	-2716.3
3296	19.346	2.1818	0.	-2810.7
3297	19.346	2.3636	0.	-2622.5
3298	19.346	2.5455	0.	-2412.
3299	19.346	2.7273	0.	-2291.6
3300	19.346	2.9091	0.	-2234.9
3301	19.346	3.0909	0.	-2234.9
3302	19.346	3.2727	0.	-2291.6
3303	19.346	3.4545	0.	-2412.
3304	19.346	3.6364	0.	-2622.5
3305	19.346	3.8182	0.	-2810.7
3306	19.346	4.	0.	-2716.3
3307	19.346	4.1818	0.	-1918.6
3308	19.346	4.3636	0.	-1297.4
3309	19.346	4.5455	0.	-981.14
3310	19.346	4.7273	0.	-766.71
3311	19.346	4.9091	0.	-611.17
3312	19.346	5.0909	0.	-488.98
3313	19.346	5.2727	0.	-388.04
3314	19.346	5.4545	0.	-300.79
3315	19.346	5.6364	0.	-222.55
3316	19.346	5.8182	0.	-156.37
3317	19.525	0.18182	0.	-234.6
3318	19.525	0.36364	0.	-272.56
3319	19.525	0.54545	0.	-332.94
3320	19.525	0.72727	0.	-408.45
3321	19.525	0.90909	0.	-499.76
3322	19.525	1.0909	0.	-611.41
3323	19.525	1.2727	0.	-751.96
3324	19.525	1.4545	0.	-934.22
3325	19.525	1.6364	0.	-1176.9
3326	19.525	1.8182	0.	-1498.
3327	19.525	2.	0.	-1816.2
3328	19.525	2.1818	0.	-2069.1
3329	19.525	2.3636	0.	-2133.7
3330	19.525	2.5455	0.	-2106.3
3331	19.525	2.7273	0.	-2064.3
3332	19.525	2.9091	0.	-2039.6
3333	19.525	3.0909	0.	-2039.6
3334	19.525	3.2727	0.	-2064.3
3335	19.525	3.4545	0.	-2106.3
3336	19.525	3.6364	0.	-2133.7
3337	19.525	3.8182	0.	-2069.1
3338	19.525	4.	0.	-1816.2
3339	19.525	4.1818	0.	-1498.
3340	19.525	4.3636	0.	-1176.9
3341	19.525	4.5455	0.	-934.22
3342	19.525	4.7273	0.	-751.96
3343	19.525	4.9091	0.	-611.41
3344	19.525	5.0909	0.	-499.76
3345	19.525	5.2727	0.	-408.45
3346	19.525	5.4545	0.	-332.94
3347	19.525	5.6364	0.	-272.56
3348	19.525	5.8182	0.	-234.6
3349	19.704	0.18182	0.	-311.12
3350	19.704	0.36364	0.	-337.44
3351	19.704	0.54545	0.	-384.56
3352	19.704	0.72727	0.	-448.53
3353	19.704	0.90909	0.	-529.11
3354	19.704	1.0909	0.	-628.39
3355	19.704	1.2727	0.	-750.22
3356	19.704	1.4545	0.	-899.91
3357	19.704	1.6364	0.	-1078.9
3358	19.704	1.8182	0.	-1282.6
3359	19.704	2.	0.	-1490.6
3360	19.704	2.1818	0.	-1660.7
3361	19.704	2.3636	0.	-1765.4
3362	19.704	2.5455	0.	-1807.4
3363	19.704	2.7273	0.	-1817.1
3364	19.704	2.9091	0.	-1817.
3365	19.704	3.0909	0.	-1817.
3366	19.704	3.2727	0.	-1817.1
3367	19.704	3.4545	0.	-1807.4
3368	19.704	3.6364	0.	-1765.4
3369	19.704	3.8182	0.	-1660.7
3370	19.704	4.	0.	-1490.6
3371	19.704	4.1818	0.	-1282.6
3372	19.704	4.3636	0.	-1078.9
3373	19.704	4.5455	0.	-899.91
3374	19.704	4.7273	0.	-750.22
3375	19.704	4.9091	0.	-628.39
3376	19.704	5.0909	0.	-529.11
3377	19.704	5.2727	0.	-448.53
3378	19.704	5.4545	0.	-384.56
3379	19.704	5.6364	0.	-337.44
3380	19.704	5.8182	0.	-311.12
3381	19.883	0.18182	0.	-375.54
3382	19.883	0.36364	0.	-396.18
3383	19.883	0.54545	0.	-434.12
3384	19.883	0.72727	0.	-487.25
3385	19.883	0.90909	0.	-555.53
3386	19.883	1.0909	0.	-639.55
3387	19.883	1.2727	0.	-740.27
3388	19.883	1.4545	0.	-858.09
3389	19.883	1.6364	0.	-991.5
3390	19.883	1.8182	0.	-1134.9
3391	19.883	2.	0.	-1277.9
3392	19.883	2.1818	0.	-1404.4
3393	19.883	2.3636	0.	-1499.2
3394	19.883	2.5455	0.	-1558.
3395	19.883	2.7273	0.	-1588.3
3396	19.883	2.9091	0.	-1600.6
3397	19.883	3.0909	0.	-1600.6
3398	19.883	3.2727	0.	-1588.3
3399	19.883	3.4545	0.	-1558.
3400	19.883	3.6364	0.	-1499.2
3401	19.883	3.8182	0.	-1404.4
3402	19.883	4.	0.	-1277.9
3403	19.883	4.1818	0.	-1134.9
3404	19.883	4.3636	0.	-991.5
3405	19.883	4.5455	0.	-858.09
3406	19.883	4.7273	0.	-740.27
3407	19.883	4.9091	0.	-639.55
3408	19.883	5.0909	0.	-555.53
3409	19.883	5.2727	0.	-487.25
3410	19.883	5.4545	0.	-434.12
3411	19.883	5.6364	0.	-396.18
3412	19.883	5.8182	0.	-375.54
3413	20.062	0.18182	0.	-426.69
3414	20.062	0.36364	0.	-443.7
3415	20.062	0.54545	0.	-474.85
3416	20.062	0.72727	0.	-518.62
3417	20.062	0.90909	0.	-575.
3418	20.062	1.0909	0.	-643.87
3419	20.062	1.2727	0.	-724.86
3420	20.062	1.4545	0.	-816.87
3421	20.062	1.6364	0.	-917.58
3422	20.062	1.8182	0.	-1023.2
3423	20.062	2.	0.	-1127.7
3424	20.062	2.1818	0.	-1223.1
3425	20.062	2.3636	0.	-1300.9
3426	20.062	2.5455	0.	-1356.8
3427	20.062	2.7273	0.	-1391.1
3428	20.062	2.9091	0.	-1407.
3429	20.062	3.0909	0.	-1407.
3430	20.062	3.2727	0.	-1391.1
3431	20.062	3.4545	0.	-1356.8
3432	20.062	3.6364	0.	-1300.9
3433	20.062	3.8182	0.	-1223.1
3434	20.062	4.	0.	-1127.7
3435	20.062	4.1818	0.	-1023.2
3436	20.062	4.3636	0.	-917.58
3437	20.062	4.5455	0.	-816.87
3438	20.062	4.7273	0.	-724.86
3439	20.062	4.9091	0.	-643.87
3440	20.062	5.0909	0.	-575.
3441	20.062	5.2727	0.	-518.62
3442	20.062	5.4545	0.	-474.85
3443	20.062	5.6364	0.	-443.7
3444	20.062	5.8182	0.	-426.69
3445	20.241	0.18182	0.	-464.68
3446	20.241	0.36364	0.	-478.82
3447	20.241	0.54545	0.	-504.48
3448	20.241	0.72727	0.	-540.27
3449	20.241	0.90909	0.	-586.08
3450	20.241	1.0909	0.	-641.49
3451	20.241	1.2727	0.	-705.68
3452	20.241	1.4545	0.	-777.27
3453	20.241	1.6364	0.	-854.25
3454	20.241	1.8182	0.	-933.85
3455	20.241	2.	0.	-1012.4
3456	20.241	2.1818	0.	-1085.
3457	20.241	2.3636	0.	-1146.9
3458	20.241	2.5455	0.	-1194.3
3459	20.241	2.7273	0.	-1225.6
3460	20.241	2.9091	0.	-1240.9
3461	20.241	3.0909	0.	-1240.9
3462	20.241	3.2727	0.	-1225.6
3463	20.241	3.4545	0.	-1194.3
3464	20.241	3.6364	0.	-1146.9
3465	20.241	3.8182	0.	-1085.
3466	20.241	4.	0.	-1012.4
3467	20.241	4.1818	0.	-933.85
3468	20.241	4.3636	0.	-854.25
3469	20.241	4.5455	0.	-777.27
3470	20.241	4.7273	0.	-705.68
3471	20.241	4.9091	0.	-641.49
3472	20.241	5.0909	0.	-586.08
3473	20.241	5.2727	0.	-540.27
3474	20.241	5.4545	0.	-504.48
3475	20.241	5.6364	0.	-478.82
3476	20.241	5.8182	0.	-464.68
3477	20.42	0.18182	0.	-490.4
3478	20.42	0.36364	0.	-502.02
3479	20.42	0.54545	0.	-523.02
3480	20.42	0.72727	0.	-552.04
3481	20.42	0.90909	0.	-588.85
3482	20.42	1.0909	0.	-632.95
3483	20.42	1.2727	0.	-683.47
3484	20.42	1.4545	0.	-739.16
3485	20.42	1.6364	0.	-798.39
3486	20.42	1.8182	0.	-859.15
3487	20.42	2.	0.	-918.92
3488	20.42	2.1818	0.	-974.66
3489	20.42	2.3636	0.	-1023.1
3490	20.42	2.5455	0.	-1061.2
3491	20.42	2.7273	0.	-1087.3
3492	20.42	2.9091	0.	-1100.5
3493	20.42	3.0909	0.	-1100.5
3494	20.42	3.2727	0.	-1087.3
3495	20.42	3.4545	0.	-1061.2
3496	20.42	3.6364	0.	-1023.1
3497	20.42	3.8182	0.	-974.66
3498	20.42	4.	0.	-918.92
3499	20.42	4.1818	0.	-859.15
3500	20.42	4.3636	0.	-798.39
3501	20.42	4.5455	0.	-739.16
3502	20.42	4.7273	0.	-683.47
3503	20.42	4.9091	0.	-632.95
3504	20.42	5.0909	0.	-588.85
3505	20.42	5.2727	0.	-552.04
3506	20.42	5.4545	0.	-523.02
3507	20.42	5.6364	0.	-502.02
3508	20.42	5.8182	0.	-490.4
3509	20.599	0.18182	0.	-505.09
3510	20.599	0.36364	0.	-514.45
3511	20.599	0.54545	0.	-531.45
3512	20.599	0.72727	0.	-554.77
3513	20.599	0.90909	0.	-584.12
3514	20.599	1.0909	0.	-618.98
3515	20.599	1.2727	0.	-658.59
3516	20.599	1.4545	0.	-701.9
3517	20.599	1.6364	0.	-747.64
3518	20.599	1.8182	0.	-794.31
3519	20.599	2.	0.	-840.11
3520	20.599	2.1818	0.	-882.91
3521	20.599	2.3636	0.	-920.4
3522	20.599	2.5455	0.	-950.43
3523	20.599	2.7273	0.	-971.3
3524	20.599	2.9091	0.	-981.98
3525	20.599	3.0909	0.	-981.98
3526	20.599	3.2727	0.	-971.3
3527	20.599	3.4545	0.	-950.43
3528	20.599	3.6364	0.	-920.4
3529	20.599	3.8182	0.	-882.91
3530	20.599	4.	0.	-840.11
3531	20.599	4.1818	0.	-794.31
3532	20.599	4.3636	0.	-747.64
3533	20.599	4.5455	0.	-701.9
3534	20.599	4.7273	0.	-658.59
3535	20.599	4.9091	0.	-618.98
3536	20.599	5.0909	0.	-584.12
3537	20.599	5.2727	0.	-554.77
3538	20.599	5.4545	0.	-531.45
3539	20.599	5.6364	0.	-514.45
3540	20.599	5.8182	0.	-505.09
3541	20.778	0.18182	0.	-510.18
3542	20.778	0.36364	0.	-517.52
3543	20.778	0.54545	0.	-531.12
3544	20.778	0.72727	0.	-549.7
3545	20.778	0.90909	0.	-572.93
3546	20.778	1.0909	0.	-600.37
3547	20.778	1.2727	0.	-631.33
3548	20.778	1.4545	0.	-665.
3549	20.778	1.6364	0.	-700.38
3550	20.778	1.8182	0.	-736.32
3551	20.778	2.	0.	-771.49
3552	20.778	2.1818	0.	-804.34
3553	20.778	2.3636	0.	-833.2
3554	20.778	2.5455	0.	-856.46
3555	20.778	2.7273	0.	-872.76
3556	20.778	2.9091	0.	-881.14
3557	20.778	3.0909	0.	-881.14
3558	20.778	3.2727	0.	-872.76
3559	20.778	3.4545	0.	-856.46
3560	20.778	3.6364	0.	-833.2
3561	20.778	3.8182	0.	-804.34
3562	20.778	4.	0.	-771.49
3563	20.778	4.1818	0.	-736.32
3564	20.778	4.3636	0.	-700.38
3565	20.778	4.5455	0.	-665.
3566	20.778	4.7273	0.	-631.33
3567	20.778	4.9091	0.	-600.37
3568	20.778	5.0909	0.	-572.93
3569	20.778	5.2727	0.	-549.7
3570	20.778	5.4545	0.	-531.12
3571	20.778	5.6364	0.	-517.52
3572	20.778	5.8182	0.	-510.18
3573	20.957	0.18182	0.	-507.08
3574	20.957	0.36364	0.	-512.65
3575	20.957	0.54545	0.	-523.4
3576	20.957	0.72727	0.	-538.08
3577	20.957	0.90909	0.	-556.37
3578	20.957	1.0909	0.	-577.87
3579	20.957	1.2727	0.	-602.02
3580	20.957	1.4545	0.	-628.17
3581	20.957	1.6364	0.	-655.53
3582	20.957	1.8182	0.	-683.22
3583	20.957	2.	0.	-710.21
3584	20.957	2.1818	0.	-735.38
3585	20.957	2.3636	0.	-757.49
3586	20.957	2.5455	0.	-775.33
3587	20.957	2.7273	0.	-787.87
3588	20.957	2.9091	0.	-794.34
3589	20.957	3.0909	0.	-794.34
3590	20.957	3.2727	0.	-787.87
3591	20.957	3.4545	0.	-775.33
3592	20.957	3.6364	0.	-757.49
3593	20.957	3.8182	0.	-735.38
3594	20.957	4.	0.	-710.21
3595	20.957	4.1818	0.	-683.22
3596	20.957	4.3636	0.	-655.53
3597	20.957	4.5455	0.	-628.17
3598	20.957	4.7273	0.	-602.02
3599	20.957	4.9091	0.	-577.87
3600	20.957	5.0909	0.	-556.37
3601	20.957	5.2727	0.	-538.08
3602	20.957	5.4545	0.	-523.4
3603	20.957	5.6364	0.	-512.65
3604	20.957	5.8182	0.	-507.08
3605	21.136	0.18182	0.	-497.12
3606	21.136	0.36364	0.	-501.18
3607	21.136	0.54545	0.	-509.56
3608	21.136	0.72727	0.	-521.07
3609	21.136	0.90909	0.	-535.39
3610	21.136	1.0909	0.	-552.18
3611	21.136	1.2727	0.	-570.98
3612	21.136	1.4545	0.	-591.25
3613	21.136	1.6364	0.	-612.38
3614	21.136	1.8182	0.	-633.68
3615	21.136	2.	0.	-654.38
3616	21.136	2.1818	0.	-673.61
3617	21.136	2.3636	0.	-690.47
3618	21.136	2.5455	0.	-704.07
3619	21.136	2.7273	0.	-713.63
3620	21.136	2.9091	0.	-718.56
3621	21.136	3.0909	0.	-718.56
3622	21.136	3.2727	0.	-713.63
3623	21.136	3.4545	0.	-704.07
3624	21.136	3.6364	0.	-690.47
3625	21.136	3.8182	0.	-673.61
3626	21.136	4.	0.	-654.38
3627	21.136	4.1818	0.	-633.68
3628	21.136	4.3636	0.	-612.38
3629	21.136	4.5455	0.	-591.25
3630	21.136	4.7273	0.	-570.98
3631	21.136	4.9091	0.	-552.18
3632	21.136	5.0909	0.	-535.39
3633	21.136	5.2727	0.	-521.07
3634	21.136	5.4545	0.	-509.56
3635	21.136	5.6364	0.	-501.18
3636	21.136	5.8182	0.	-497.12
3637	21.315	0.18182	0.	-481.51
3638	21.315	0.36364	0.	-484.29
3639	21.315	0.54545	0.	-490.75
3640	21.315	0.72727	0.	-499.7
3641	21.315	0.90909	0.	-510.85
3642	21.315	1.0909	0.	-523.92
3643	21.315	1.2727	0.	-538.51
3644	21.315	1.4545	0.	-554.19
3645	21.315	1.6364	0.	-570.48
3646	21.315	1.8182	0.	-586.84
3647	21.315	2.	0.	-602.66
3648	21.315	2.1818	0.	-617.32
3649	21.315	2.3636	0.	-630.13
3650	21.315	2.5455	0.	-640.44
3651	21.315	2.7273	0.	-647.67
3652	21.315	2.9091	0.	-651.41
3653	21.315	3.0909	0.	-651.41
3654	21.315	3.2727	0.	-647.67
3655	21.315	3.4545	0.	-640.44
3656	21.315	3.6364	0.	-630.13
3657	21.315	3.8182	0.	-617.32
3658	21.315	4.	0.	-602.66
3659	21.315	4.1818	0.	-586.84
3660	21.315	4.3636	0.	-570.48
3661	21.315	4.5455	0.	-554.19
3662	21.315	4.7273	0.	-538.51
3663	21.315	4.9091	0.	-523.92
3664	21.315	5.0909	0.	-510.85
3665	21.315	5.2727	0.	-499.7
3666	21.315	5.4545	0.	-490.75
3667	21.315	5.6364	0.	-484.29
3668	21.315	5.8182	0.	-481.51
3669	21.494	0.18182	0.	-461.28
3670	21.494	0.36364	0.	-463.02
3671	21.494	0.54545	0.	-467.91
3672	21.494	0.72727	0.	-474.82
3673	21.494	0.90909	0.	-483.48
3674	21.494	1.0909	0.	-493.61
3675	21.494	1.2727	0.	-504.9
3676	21.494	1.4545	0.	-517.01
3677	21.494	1.6364	0.	-529.54
3678	21.494	1.8182	0.	-542.06
3679	21.494	2.	0.	-554.13
3680	21.494	2.1818	0.	-565.26
3681	21.494	2.3636	0.	-574.95
3682	21.494	2.5455	0.	-582.73
3683	21.494	2.7273	0.	-588.17
3684	21.494	2.9091	0.	-590.98
3685	21.494	3.0909	0.	-590.98
3686	21.494	3.2727	0.	-588.17
3687	21.494	3.4545	0.	-582.73
3688	21.494	3.6364	0.	-574.95
3689	21.494	3.8182	0.	-565.26
3690	21.494	4.	0.	-554.13
3691	21.494	4.1818	0.	-542.06
3692	21.494	4.3636	0.	-529.54
3693	21.494	4.5455	0.	-517.01
3694	21.494	4.7273	0.	-504.9
3695	21.494	4.9091	0.	-493.61
3696	21.494	5.0909	0.	-483.48
3697	21.494	5.2727	0.	-474.82
3698	21.494	5.4545	0.	-467.91
3699	21.494	5.6364	0.	-463.02
3700	21.494	5.8182	0.	-461.28
3701	21.673	0.18182	0.	-437.33
3702	21.673	0.36364	0.	-438.21
3703	21.673	0.54545	0.	-441.87
3704	21.673	0.72727	0.	-447.17
3705	21.673	0.90909	0.	-453.86
3706	21.673	1.0909	0.	-461.7
3707	21.673	1.2727	0.	-470.42
3708	21.673	1.4545	0.	-479.75
3709	21.673	1.6364	0.	-489.35
3710	21.673	1.8182	0.	-498.91
3711	21.673	2.	0.	-508.08
3712	21.673	2.1818	0.	-516.5
3713	21.673	2.3636	0.	-523.8
3714	21.673	2.5455	0.	-529.64
3715	21.673	2.7273	0.	-533.72
3716	21.673	2.9091	0.	-535.82
3717	21.673	3.0909	0.	-535.82
3718	21.673	3.2727	0.	-533.72
3719	21.673	3.4545	0.	-529.64
3720	21.673	3.6364	0.	-523.8
3721	21.673	3.8182	0.	-516.5
3722	21.673	4.	0.	-508.08
3723	21.673	4.1818	0.	-498.91
3724	21.673	4.3636	0.	-489.35
3725	21.673	4.5455	0.	-479.75
3726	21.673	4.7273	0.	-470.42
3727	21.673	4.9091	0.	-461.7
3728	21.673	5.0909	0.	-453.86
3729	21.673	5.2727	0.	-447.17
3730	21.673	5.4545	0.	-441.87
3731	21.673	5.6364	0.	-438.21
3732	21.673	5.8182	0.	-437.33
3733	21.852	0.18182	0.	-410.4
3734	21.852	0.36364	0.	-410.6
3735	21.852	0.54545	0.	-413.29
3736	21.852	0.72727	0.	-417.35
3737	21.852	0.90909	0.	-422.51
3738	21.852	1.0909	0.	-428.56
3739	21.852	1.2727	0.	-435.29
3740	21.852	1.4545	0.	-442.45
3741	21.852	1.6364	0.	-449.8
3742	21.852	1.8182	0.	-457.07
3743	21.852	2.	0.	-464.01
3744	21.852	2.1818	0.	-470.35
3745	21.852	2.3636	0.	-475.82
3746	21.852	2.5455	0.	-480.18
3747	21.852	2.7273	0.	-483.21
3748	21.852	2.9091	0.	-484.77
3749	21.852	3.0909	0.	-484.77
3750	21.852	3.2727	0.	-483.21
3751	21.852	3.4545	0.	-480.18
3752	21.852	3.6364	0.	-475.82
3753	21.852	3.8182	0.	-470.35
3754	21.852	4.	0.	-464.01
3755	21.852	4.1818	0.	-457.07
3756	21.852	4.3636	0.	-449.8
3757	21.852	4.5455	0.	-442.45
3758	21.852	4.7273	0.	-435.29
3759	21.852	4.9091	0.	-428.56
3760	21.852	5.0909	0.	-422.51
3761	21.852	5.2727	0.	-417.35
3762	21.852	5.4545	0.	-413.29
3763	21.852	5.6364	0.	-410.6
3764	21.852	5.8182	0.	-410.4
3765	22.031	0.18182	0.	-381.1
3766	22.031	0.36364	0.	-380.77
3767	22.031	0.54545	0.	-382.73
3768	22.031	0.72727	0.	-385.83
3769	22.031	0.90909	0.	-389.82
3770	22.031	1.0909	0.	-394.5
3771	22.031	1.2727	0.	-399.69
3772	22.031	1.4545	0.	-405.18
3773	22.031	1.6364	0.	-410.78
3774	22.031	1.8182	0.	-416.29
3775	22.031	2.	0.	-421.51
3776	22.031	2.1818	0.	-426.25
3777	22.031	2.3636	0.	-430.33
3778	22.031	2.5455	0.	-433.56
3779	22.031	2.7273	0.	-435.81
3780	22.031	2.9091	0.	-436.96
3781	22.031	3.0909	0.	-436.96
3782	22.031	3.2727	0.	-435.81
3783	22.031	3.4545	0.	-433.56
3784	22.031	3.6364	0.	-430.33
3785	22.031	3.8182	0.	-426.25
3786	22.031	4.	0.	-421.51
3787	22.031	4.1818	0.	-416.29
3788	22.031	4.3636	0.	-410.78
3789	22.031	4.5455	0.	-405.18
3790	22.031	4.7273	0.	-399.69
3791	22.031	4.9091	0.	-394.5
3792	22.031	5.0909	0.	-389.82
3793	22.031	5.2727	0.	-385.83
3794	22.031	5.4545	0.	-382.73
3795	22.031	5.6364	0.	-380.77
3796	22.031	5.8182	0.	-381.1
3797	22.21	0.18182	0.	-349.94
3798	22.21	0.36364	0.	-349.22
3799	22.21	0.54545	0.	-350.64
3800	22.21	0.72727	0.	-353.02
3801	22.21	0.90909	0.	-356.12
3802	22.21	1.0909	0.	-359.76
3803	22.21	1.2727	0.	-363.76
3804	22.21	1.4545	0.	-367.96
3805	22.21	1.6364	0.	-372.22
3806	22.21	1.8182	0.	-376.37
3807	22.21	2.	0.	-380.27
3808	22.21	2.1818	0.	-383.8
3809	22.21	2.3636	0.	-386.81
3810	22.21	2.5455	0.	-389.18
3811	22.21	2.7273	0.	-390.83
3812	22.21	2.9091	0.	-391.67
3813	22.21	3.0909	0.	-391.67
3814	22.21	3.2727	0.	-390.83
3815	22.21	3.4545	0.	-389.18
3816	22.21	3.6364	0.	-386.81
3817	22.21	3.8182	0.	-383.8
3818	22.21	4.	0.	-380.27
3819	22.21	4.1818	0.	-376.37
3820	22.21	4.3636	0.	-372.22
3821	22.21	4.5455	0.	-367.96
3822	22.21	4.7273	0.	-363.76
3823	22.21	4.9091	0.	-359.76
3824	22.21	5.0909	0.	-356.12
3825	22.21	5.2727	0.	-353.02
3826	22.21	5.4545	0.	-350.64
3827	22.21	5.6364	0.	-349.22
3828	22.21	5.8182	0.	-349.94
3829	22.389	0.18182	0.	-317.33
3830	22.389	0.36364	0.	-316.34
3831	22.389	0.54545	0.	-317.38
3832	22.389	0.72727	0.	-319.25
3833	22.389	0.90909	0.	-321.69
3834	22.389	1.0909	0.	-324.54
3835	22.389	1.2727	0.	-327.64
3836	22.389	1.4545	0.	-330.85
3837	22.389	1.6364	0.	-334.06
3838	22.389	1.8182	0.	-337.17
3839	22.389	2.	0.	-340.06
3840	22.389	2.1818	0.	-342.65
3841	22.389	2.3636	0.	-344.85
3842	22.389	2.5455	0.	-346.57
3843	22.389	2.7273	0.	-347.76
3844	22.389	2.9091	0.	-348.37
3845	22.389	3.0909	0.	-348.37
3846	22.389	3.2727	0.	-347.76
3847	22.389	3.4545	0.	-346.57
3848	22.389	3.6364	0.	-344.85
3849	22.389	3.8182	0.	-342.65
3850	22.389	4.	0.	-340.06
3851	22.389	4.1818	0.	-337.17
3852	22.389	4.3636	0.	-334.06
3853	22.389	4.5455	0.	-330.85
3854	22.389	4.7273	0.	-327.64
3855	22.389	4.9091	0.	-324.54
3856	22.389	5.0909	0.	-321.69
3857	22.389	5.2727	0.	-319.25
3858	22.389	5.4545	0.	-317.38
3859	22.389	5.6364	0.	-316.34
3860	22.389	5.8182	0.	-317.33
3861	22.568	0.18182	0.	-283.61
3862	22.568	0.36364	0.	-282.45
3863	22.568	0.54545	0.	-283.25
3864	22.568	0.72727	0.	-284.78
3865	22.568	0.90909	0.	-286.75
3866	22.568	1.0909	0.	-289.
3867	22.568	1.2727	0.	-291.4
3868	22.568	1.4545	0.	-293.85
3869	22.568	1.6364	0.	-296.26
3870	22.568	1.8182	0.	-298.55
3871	22.568	2.	0.	-300.67
3872	22.568	2.1818	0.	-302.54
3873	22.568	2.3636	0.	-304.12
3874	22.568	2.5455	0.	-305.35
3875	22.568	2.7273	0.	-306.19
3876	22.568	2.9091	0.	-306.62
3877	22.568	3.0909	0.	-306.62
3878	22.568	3.2727	0.	-306.19
3879	22.568	3.4545	0.	-305.35
3880	22.568	3.6364	0.	-304.12
3881	22.568	3.8182	0.	-302.54
3882	22.568	4.	0.	-300.67
3883	22.568	4.1818	0.	-298.55
3884	22.568	4.3636	0.	-296.26
3885	22.568	4.5455	0.	-293.85
3886	22.568	4.7273	0.	-291.4
3887	22.568	4.9091	0.	-289.
3888	22.568	5.0909	0.	-286.75
3889	22.568	5.2727	0.	-284.78
3890	22.568	5.4545	0.	-283.25
3891	22.568	5.6364	0.	-282.45
3892	22.568	5.8182	0.	-283.61
3893	22.747	0.18182	0.	-249.05
3894	22.747	0.36364	0.	-247.82
3895	22.747	0.54545	0.	-248.51
3896	22.747	0.72727	0.	-249.82
3897	22.747	0.90909	0.	-251.46
3898	22.747	1.0909	0.	-253.27
3899	22.747	1.2727	0.	-255.13
3900	22.747	1.4545	0.	-256.98
3901	22.747	1.6364	0.	-258.76
3902	22.747	1.8182	0.	-260.43
3903	22.747	2.	0.	-261.94
3904	22.747	2.1818	0.	-263.26
3905	22.747	2.3636	0.	-264.36
3906	22.747	2.5455	0.	-265.21
3907	22.747	2.7273	0.	-265.79
3908	22.747	2.9091	0.	-266.09
3909	22.747	3.0909	0.	-266.09
3910	22.747	3.2727	0.	-265.79
3911	22.747	3.4545	0.	-265.21
3912	22.747	3.6364	0.	-264.36
3913	22.747	3.8182	0.	-263.26
3914	22.747	4.	0.	-261.94
3915	22.747	4.1818	0.	-260.43
3916	22.747	4.3636	0.	-258.76
3917	22.747	4.5455	0.	-256.98
3918	22.747	4.7273	0.	-255.13
3919	22.747	4.9091	0.	-253.27
3920	22.747	5.0909	0.	-251.46
3921	22.747	5.2727	0.	-249.82
3922	22.747	5.4545	0.	-248.51
3923	22.747	5.6364	0.	-247.82
3924	22.747	5.8182	0.	-249.05
3925	22.926	0.18182	0.	-213.86
3926	22.926	0.36364	0.	-212.68
3927	22.926	0.54545	0.	-213.36
3928	22.926	0.72727	0.	-214.56
3929	22.926	0.90909	0.	-215.97
3930	22.926	1.0909	0.	-217.43
3931	22.926	1.2727	0.	-218.87
3932	22.926	1.4545	0.	-220.25
3933	22.926	1.6364	0.	-221.53
3934	22.926	1.8182	0.	-222.69
3935	22.926	2.	0.	-223.73
3936	22.926	2.1818	0.	-224.63
3937	22.926	2.3636	0.	-225.36
3938	22.926	2.5455	0.	-225.92
3939	22.926	2.7273	0.	-226.31
3940	22.926	2.9091	0.	-226.5
3941	22.926	3.0909	0.	-226.5
3942	22.926	3.2727	0.	-226.31
3943	22.926	3.4545	0.	-225.92
3944	22.926	3.6364	0.	-225.36
3945	22.926	3.8182	0.	-224.63
3946	22.926	4.	0.	-223.73
3947	22.926	4.1818	0.	-222.69
3948	22.926	4.3636	0.	-221.53
3949	22.926	4.5455	0.	-220.25
3950	22.926	4.7273	0.	-218.87
3951	22.926	4.9091	0.	-217.43
3952	22.926	5.0909	0.	-215.97
3953	22.926	5.2727	0.	-214.56
3954	22.926	5.4545	0.	-213.36
3955	22.926	5.6364	0.	-212.68
3956	22.926	5.8182	0.	-213.86
3957	23.105	0.18182	0.	-178.23
3958	23.105	0.36364	0.	-177.22
3959	23.105	0.54545	0.	-177.99
3960	23.105	0.72727	0.	-179.15
3961	23.105	0.90909	0.	-180.37
3962	23.105	1.0909	0.	-181.55
3963	23.105	1.2727	0.	-182.64
3964	23.105	1.4545	0.	-183.62
3965	23.105	1.6364	0.	-184.5
3966	23.105	1.8182	0.	-185.27
3967	23.105	2.	0.	-185.94
3968	23.105	2.1818	0.	-186.5
3969	23.105	2.3636	0.	-186.96
3970	23.105	2.5455	0.	-187.31
3971	23.105	2.7273	0.	-187.54
3972	23.105	2.9091	0.	-187.66
3973	23.105	3.0909	0.	-187.66
3974	23.105	3.2727	0.	-187.54
3975	23.105	3.4545	0.	-187.31
3976	23.105	3.6364	0.	-186.96
3977	23.105	3.8182	0.	-186.5
3978	23.105	4.	0.	-185.94
3979	23.105	4.1818	0.	-185.27
3980	23.105	4.3636	0.	-184.5
3981	23.105	4.5455	0.	-183.62
3982	23.105	4.7273	0.	-182.64
3983	23.105	4.9091	0.	-181.55
3984	23.105	5.0909	0.	-180.37
3985	23.105	5.2727	0.	-179.15
3986	23.105	5.4545	0.	-177.99
3987	23.105	5.6364	0.	-177.22
3988	23.105	5.8182	0.	-178.23
3989	23.284	0.18182	0.	-142.34
3990	23.284	0.36364	0.	-141.63
3991	23.284	0.54545	0.	-142.57
3992	23.284	0.72727	0.	-143.7
3993	23.284	0.90909	0.	-144.75
3994	23.284	1.0909	0.	-145.65
3995	23.284	1.2727	0.	-146.42
3996	23.284	1.4545	0.	-147.07
3997	23.284	1.6364	0.	-147.62
3998	23.284	1.8182	0.	-148.08
3999	23.284	2.	0.	-148.46
4000	23.284	2.1818	0.	-148.78
4001	23.284	2.3636	0.	-149.03
4002	23.284	2.5455	0.	-149.21
4003	23.284	2.7273	0.	-149.33
4004	23.284	2.9091	0.	-149.39
4005	23.284	3.0909	0.	-149.39
4006	23.284	3.2727	0.	-149.33
4007	23.284	3.4545	0.	-149.21
4008	23.284	3.6364	0.	-149.03
4009	23.284	3.8182	0.	-148.78
4010	23.284	4.	0.	-148.46
4011	23.284	4.1818	0.	-148.08
4012	23.284	4.3636	0.	-147.62
4013	23.284	4.5455	0.	-147.07
4014	23.284	4.7273	0.	-146.42
4015	23.284	4.9091	0.	-145.65
4016	23.284	5.0909	0.	-144.75
4017	23.284	5.2727	0.	-143.7
4018	23.284	5.4545	0.	-142.57
4019	23.284	5.6364	0.	-141.63
4020	23.284	5.8182	0.	-142.34
4021	23.463	0.18182	0.	-106.35
4022	23.463	0.36364	0.	-106.14
4023	23.463	0.54545	0.	-107.24
4024	23.463	0.72727	0.	-108.29
4025	23.463	0.90909	0.	-109.1
4026	23.463	1.0909	0.	-109.72
4027	23.463	1.2727	0.	-110.2
4028	23.463	1.4545	0.	-110.56
4029	23.463	1.6364	0.	-110.84
4030	23.463	1.8182	0.	-111.06
4031	23.463	2.	0.	-111.23
4032	23.463	2.1818	0.	-111.36
4033	23.463	2.3636	0.	-111.46
4034	23.463	2.5455	0.	-111.53
4035	23.463	2.7273	0.	-111.57
4036	23.463	2.9091	0.	-111.6
4037	23.463	3.0909	0.	-111.6
4038	23.463	3.2727	0.	-111.57
4039	23.463	3.4545	0.	-111.53
4040	23.463	3.6364	0.	-111.46
4041	23.463	3.8182	0.	-111.36
4042	23.463	4.	0.	-111.23
4043	23.463	4.1818	0.	-111.06
4044	23.463	4.3636	0.	-110.84
4045	23.463	4.5455	0.	-110.56
4046	23.463	4.7273	0.	-110.2
4047	23.463	4.9091	0.	-109.72
4048	23.463	5.0909	0.	-109.1
4049	23.463	5.2727	0.	-108.29
4050	23.463	5.4545	0.	-107.24
4051	23.463	5.6364	0.	-106.14
4052	23.463	5.8182	0.	-106.35
4053	23.642	0.18182	0.	-70.527
4054	23.642	0.36364	0.	-71.024
4055	23.642	0.54545	0.	-72.11
4056	23.642	0.72727	0.	-72.877
4057	23.642	0.90909	0.	-73.37
4058	23.642	1.0909	0.	-73.688
4059	23.642	1.2727	0.	-73.892
4060	23.642	1.4545	0.	-74.021
4061	23.642	1.6364	0.	-74.102
4062	23.642	1.8182	0.	-74.149
4063	23.642	2.	0.	-74.175
4064	23.642	2.1818	0.	-74.187
4065	23.642	2.3636	0.	-74.19
4066	23.642	2.5455	0.	-74.19
4067	23.642	2.7273	0.	-74.188
4068	23.642	2.9091	0.	-74.187
4069	23.642	3.0909	0.	-74.187
4070	23.642	3.2727	0.	-74.188
4071	23.642	3.4545	0.	-74.19
4072	23.642	3.6364	0.	-74.19
4073	23.642	3.8182	0.	-74.187
4074	23.642	4.	0.	-74.175
4075	23.642	4.1818	0.	-74.149
4076	23.642	4.3636	0.	-74.102
4077	23.642	4.5455	0.	-74.021
4078	23.642	4.7273	0.	-73.892
4079	23.642	4.9091	0.	-73.688
4080	23.642	5.0909	0.	-73.37
4081	23.642	5.2727	0.	-72.878
4082	23.642	5.4545	0.	-72.11
4083	23.642	5.6364	0.	-71.024
4084	23.642	5.8182	0.	-70.527
4085	23.821	0.18182	0.	-35.92
4086	23.821	0.36364	0.	-36.789
4087	23.821	0.54545	0.	-37.277
4088	23.821	0.72727	0.	-37.529
4089	23.821	0.90909	0.	-37.624
4090	23.821	1.0909	0.	-37.646
4091	23.821	1.2727	0.	-37.628
4092	23.821	1.4545	0.	-37.589
4093	23.821	1.6364	0.	-37.541
4094	23.821	1.8182	0.	-37.49
4095	23.821	2.	0.	-37.44
4096	23.821	2.1818	0.	-37.396
4097	23.821	2.3636	0.	-37.358
4098	23.821	2.5455	0.	-37.328
4099	23.821	2.7273	0.	-37.308
4100	23.821	2.9091	0.	-37.298
4101	23.821	3.0909	0.	-37.298
4102	23.821	3.2727	0.	-37.308
4103	23.821	3.4545	0.	-37.328
4104	23.821	3.6364	0.	-37.358
4105	23.821	3.8182	0.	-37.396
4106	23.821	4.	0.	-37.44
4107	23.821	4.1818	0.	-37.49
4108	23.821	4.3636	0.	-37.541
4109	23.821	4.5455	0.	-37.589
4110	23.821	4.7273	0.	-37.628
4111	23.821	4.9091	0.	-37.646
4112	23.821	5.0909	0.	-37.624
4113	23.821	5.2727	0.	-37.529
4114	23.821	5.4545	0.	-37.277
4115	23.821	5.6364	0.	-36.789
4116	23.821	5.8182	0.	-35.92
4117	23.821	5.8182	0.1	-23.676
4118	23.821	5.6364	0.1	-39.483
4119	23.821	5.4545	0.1	-51.632
4120	23.821	5.2727	0.1	-60.636
4121	23.821	5.0909	0.1	-67.254
4122	23.821	4.9091	0.1	-71.984
4123	23.821	4.7273	0.1	-75.21
4124	23.821	4.5455	0.1	-77.245
4125	23.821	4.3636	0.1	-78.361
4126	23.821	4.1818	0.1	-78.793
4127	23.821	4.	0.1	-78.753
4128	23.821	3.8182	0.1	-78.425
4129	23.821	3.6364	0.1	-77.965
4130	23.821	3.4545	0.1	-77.504
4131	23.821	3.2727	0.1	-77.141
4132	23.821	3.0909	0.1	-76.942
4133	23.821	2.9091	0.1	-76.942
4134	23.821	2.7273	0.1	-77.141
4135	23.821	2.5455	0.1	-77.504
4136	23.821	2.3636	0.1	-77.965
4137	23.821	2.1818	0.1	-78.425
4138	23.821	2.	0.1	-78.753
4139	23.821	1.8182	0.1	-78.793
4140	23.821	1.6364	0.1	-78.361
4141	23.821	1.4545	0.1	-77.245
4142	23.821	1.2727	0.1	-75.21
4143	23.821	1.0909	0.1	-71.984
4144	23.821	0.90909	0.1	-67.254
4145	23.821	0.72727	0.1	-60.636
4146	23.821	0.54545	0.1	-51.632
4147	23.821	0.36364	0.1	-39.483
4148	23.821	0.18182	0.1	-23.676
4149	23.642	5.8182	0.1	-20.725
4150	23.642	5.6364	0.1	-32.351
4151	23.642	5.4545	0.1	-42.949
4152	23.642	5.2727	0.1	-51.203
4153	23.642	5.0909	0.1	-57.371
4154	23.642	4.9091	0.1	-61.782
4155	23.642	4.7273	0.1	-64.755
4156	23.642	4.5455	0.1	-66.575
4157	23.642	4.3636	0.1	-67.5
4158	23.642	4.1818	0.1	-67.762
4159	23.642	4.	0.1	-67.57
4160	23.642	3.8182	0.1	-67.109
4161	23.642	3.6364	0.1	-66.541
4162	23.642	3.4545	0.1	-65.995
4163	23.642	3.2727	0.1	-65.574
4164	23.642	3.0909	0.1	-65.346
4165	23.642	2.9091	0.1	-65.346
4166	23.642	2.7273	0.1	-65.574
4167	23.642	2.5455	0.1	-65.995
4168	23.642	2.3636	0.1	-66.541
4169	23.642	2.1818	0.1	-67.109
4170	23.642	2.	0.1	-67.57
4171	23.642	1.8182	0.1	-67.762
4172	23.642	1.6364	0.1	-67.5
4173	23.642	1.4545	0.1	-66.575
4174	23.642	1.2727	0.1	-64.755
4175	23.642	1.0909	0.1	-61.782
4176	23.642	0.90909	0.1	-57.371
4177	23.642	0.72727	0.1	-51.203
4178	23.642	0.54545	0.1	-42.949
4179	23.642	0.36364	0.1	-32.351
4180	23.642	0.18182	0.1	-20.725
4181	23.463	5.8182	0.1	-19.105
4182	23.463	5.6364	0.1	-27.37
4183	23.463	5.4545	0.1	-35.943
4184	23.463	5.2727	0.1	-43.
4185	23.463	5.0909	0.1	-48.385
4186	23.463	4.9091	0.1	-52.23
4187	23.463	4.7273	0.1	-54.754
4188	23.463	4.5455	0.1	-56.197
4189	23.463	4.3636	0.1	-56.791
4190	23.463	4.1818	0.1	-56.762
4191	23.463	4.	0.1	-56.314
4192	23.463	3.8182	0.1	-55.635
4193	23.463	3.6364	0.1	-54.885
4194	23.463	3.4545	0.1	-54.201
4195	23.463	3.2727	0.1	-53.685
4196	23.463	3.0909	0.1	-53.41
4197	23.463	2.9091	0.1	-53.41
4198	23.463	2.7273	0.1	-53.685
4199	23.463	2.5455	0.1	-54.201
4200	23.463	2.3636	0.1	-54.885
4201	23.463	2.1818	0.1	-55.635
4202	23.463	2.	0.1	-56.314
4203	23.463	1.8182	0.1	-56.762
4204	23.463	1.6364	0.1	-56.791
4205	23.463	1.4545	0.1	-56.197
4206	23.463	1.2727	0.1	-54.754
4207	23.463	1.0909	0.1	-52.23
4208	23.463	0.90909	0.1	-48.385
4209	23.463	0.72727	0.1	-43.
4210	23.463	0.54545	0.1	-35.943
4211	23.463	0.36364	0.1	-27.37
4212	23.463	0.18182	0.1	-19.105
4213	23.284	5.8182	0.1	-17.808
4214	23.284	5.6364	0.1	-23.674
4215	23.284	5.4545	0.1	-30.334
4216	23.284	5.2727	0.1	-36.017
4217	23.284	5.0909	0.1	-40.404
4218	23.284	4.9091	0.1	-43.485
4219	23.284	4.7273	0.1	-45.388
4220	23.284	4.5455	0.1	-46.301
4221	23.284	4.3636	0.1	-46.432
4222	23.284	4.1818	0.1	-45.993
4223	23.284	4.	0.1	-45.187
4224	23.284	3.8182	0.1	-44.2
4225	23.284	3.6364	0.1	-43.198
4226	23.284	3.4545	0.1	-42.32
4227	23.284	3.2727	0.1	-41.673
4228	23.284	3.0909	0.1	-41.331
4229	23.284	2.9091	0.1	-41.331
4230	23.284	2.7273	0.1	-41.673
4231	23.284	2.5455	0.1	-42.32
4232	23.284	2.3636	0.1	-43.198
4233	23.284	2.1818	0.1	-44.2
4234	23.284	2.	0.1	-45.187
4235	23.284	1.8182	0.1	-45.993
4236	23.284	1.6364	0.1	-46.432
4237	23.284	1.4545	0.1	-46.3
4238	23.284	1.2727	0.1	-45.388
4239	23.284	1.0909	0.1	-43.485
4240	23.284	0.90909	0.1	-40.404
4241	23.284	0.72727	0.1	-36.017
4242	23.284	0.54545	0.1	-30.334
4243	23.284	0.36364	0.1	-23.674
4244	23.284	0.18182	0.1	-17.808
4245	23.105	5.8182	0.1	-16.645
4246	23.105	5.6364	0.1	-20.702
4247	23.105	5.4545	0.1	-25.696
4248	23.105	5.2727	0.1	-30.
4249	23.105	5.0909	0.1	-33.276
4250	23.105	4.9091	0.1	-35.447
4251	23.105	4.7273	0.1	-36.58
4252	23.105	4.5455	0.1	-36.822
4253	23.105	4.3636	0.1	-36.36
4254	23.105	4.1818	0.1	-35.394
4255	23.105	4.	0.1	-34.125
4256	23.105	3.8182	0.1	-32.742
4257	23.105	3.6364	0.1	-31.415
4258	23.105	3.4545	0.1	-30.287
4259	23.105	3.2727	0.1	-29.471
4260	23.105	3.0909	0.1	-29.043
4261	23.105	2.9091	0.1	-29.043
4262	23.105	2.7273	0.1	-29.471
4263	23.105	2.5455	0.1	-30.287
4264	23.105	2.3636	0.1	-31.415
4265	23.105	2.1818	0.1	-32.742
4266	23.105	2.	0.1	-34.125
4267	23.105	1.8182	0.1	-35.394
4268	23.105	1.6364	0.1	-36.36
4269	23.105	1.4545	0.1	-36.822
4270	23.105	1.2727	0.1	-36.58
4271	23.105	1.0909	0.1	-35.447
4272	23.105	0.90909	0.1	-33.276
4273	23.105	0.72727	0.1	-30.
4274	23.105	0.54545	0.1	-25.696
4275	23.105	0.36364	0.1	-20.702
4276	23.105	0.18182	0.1	-16.645
4277	22.926	5.8182	0.1	-15.585
4278	22.926	5.6364	0.1	-18.227
4279	22.926	5.4545	0.1	-21.788
4280	22.926	5.2727	0.1	-24.78
4281	22.926	5.0909	0.1	-26.903
4282	22.926	4.9091	0.1	-28.065
4283	22.926	4.7273	0.1	-28.308
4284	22.926	4.5455	0.1	-27.753
4285	22.926	4.3636	0.1	-26.574
4286	22.926	4.1818	0.1	-24.966
4287	22.926	4.	0.1	-23.131
4288	22.926	3.8182	0.1	-21.262
4289	22.926	3.6364	0.1	-19.536
4290	22.926	3.4545	0.1	-18.102
4291	22.926	3.2727	0.1	-17.079
4292	22.926	3.0909	0.1	-16.546
4293	22.926	2.9091	0.1	-16.546
4294	22.926	2.7273	0.1	-17.079
4295	22.926	2.5455	0.1	-18.102
4296	22.926	2.3636	0.1	-19.536
4297	22.926	2.1818	0.1	-21.262
4298	22.926	2.	0.1	-23.131
4299	22.926	1.8182	0.1	-24.966
4300	22.926	1.6364	0.1	-26.574
4301	22.926	1.4545	0.1	-27.753
4302	22.926	1.2727	0.1	-28.307
4303	22.926	1.0909	0.1	-28.065
4304	22.926	0.90909	0.1	-26.903
4305	22.926	0.72727	0.1	-24.78
4306	22.926	0.54545	0.1	-21.788
4307	22.926	0.36364	0.1	-18.227
4308	22.926	0.18182	0.1	-15.585
4309	22.747	5.8182	0.1	-14.626
4310	22.747	5.6364	0.1	-16.13
4311	22.747	5.4545	0.1	-18.451
4312	22.747	5.2727	0.1	-20.215
4313	22.747	5.0909	0.1	-21.18
4314	22.747	4.9091	0.1	-21.27
4315	22.747	4.7273	0.1	-20.524
4316	22.747	4.5455	0.1	-19.06
4317	22.747	4.3636	0.1	-17.048
4318	22.747	4.1818	0.1	-14.687
4319	22.747	4.	0.1	-12.185
4320	22.747	3.8182	0.1	-9.7433
4321	22.747	3.6364	0.1	-7.5463
4322	22.747	3.4545	0.1	-5.7514
4323	22.747	3.2727	0.1	-4.4821
4324	22.747	3.0909	0.1	-3.8248
4325	22.747	2.9091	0.1	-3.8248
4326	22.747	2.7273	0.1	-4.4821
4327	22.747	2.5455	0.1	-5.7514
4328	22.747	2.3636	0.1	-7.5464
4329	22.747	2.1818	0.1	-9.7434
4330	22.747	2.	0.1	-12.185
4331	22.747	1.8182	0.1	-14.687
4332	22.747	1.6364	0.1	-17.048
4333	22.747	1.4545	0.1	-19.06
4334	22.747	1.2727	0.1	-20.523
4335	22.747	1.0909	0.1	-21.27
4336	22.747	0.90909	0.1	-21.18
4337	22.747	0.72727	0.1	-20.215
4338	22.747	0.54545	0.1	-18.451
4339	22.747	0.36364	0.1	-16.13
4340	22.747	0.18182	0.1	-14.626
4341	22.568	5.8182	0.1	-13.781
4342	22.568	5.6364	0.1	-14.356
4343	22.568	5.4545	0.1	-15.592
4344	22.568	5.2727	0.1	-16.21
4345	22.568	5.0909	0.1	-16.026
4346	22.568	4.9091	0.1	-14.999
4347	22.568	4.7273	0.1	-13.184
4348	22.568	4.5455	0.1	-10.712
4349	22.568	4.3636	0.1	-7.7643
4350	22.568	4.1818	0.1	-4.5561
4351	22.568	4.	0.1	-1.3603
4352	22.568	3.8182	0.1	-0.13073
4353	22.568	3.6364	0.1	-9.1942e-002
4354	22.568	3.4545	0.1	-8.256e-002
4355	22.568	3.2727	0.1	-7.8779e-002
4356	22.568	3.0909	0.1	-7.7293e-002
4357	22.568	2.9091	0.1	-7.7292e-002
4358	22.568	2.7273	0.1	-7.8778e-002
4359	22.568	2.5455	0.1	-8.256e-002
4360	22.568	2.3636	0.1	-9.1943e-002
4361	22.568	2.1818	0.1	-0.13073
4362	22.568	2.	0.1	-1.3603
4363	22.568	1.8182	0.1	-4.5561
4364	22.568	1.6364	0.1	-7.7643
4365	22.568	1.4545	0.1	-10.712
4366	22.568	1.2727	0.1	-13.184
4367	22.568	1.0909	0.1	-14.999
4368	22.568	0.90909	0.1	-16.026
4369	22.568	0.72727	0.1	-16.21
4370	22.568	0.54545	0.1	-15.592
4371	22.568	0.36364	0.1	-14.356
4372	22.568	0.18182	0.1	-13.781
4373	22.389	5.8182	0.1	-13.071
4374	22.389	5.6364	0.1	-12.884
4375	22.389	5.4545	0.1	-13.159
4376	22.389	5.2727	0.1	-12.702
4377	22.389	5.0909	0.1	-11.383
4378	22.389	4.9091	0.1	-9.2049
4379	22.389	4.7273	0.1	-6.257
4380	22.389	4.5455	0.1	-2.7192
4381	22.389	4.3636	0.1	-0.19174
4382	22.389	4.1818	0.1	-0.10113
4383	22.389	4.	0.1	-8.6279e-002
4384	22.389	3.8182	0.1	-8.0225e-002
4385	22.389	3.6364	0.1	-7.7031e-002
4386	22.389	3.4545	0.1	-7.5207e-002
4387	22.389	3.2727	0.1	-7.42e-002
4388	22.389	3.0909	0.1	-7.3748e-002
4389	22.389	2.9091	0.1	-7.3749e-002
4390	22.389	2.7273	0.1	-7.4199e-002
4391	22.389	2.5455	0.1	-7.5208e-002
4392	22.389	2.3636	0.1	-7.703e-002
4393	22.389	2.1818	0.1	-8.0225e-002
4394	22.389	2.	0.1	-8.6279e-002
4395	22.389	1.8182	0.1	-0.10113
4396	22.389	1.6364	0.1	-0.19174
4397	22.389	1.4545	0.1	-2.7192
4398	22.389	1.2727	0.1	-6.257
4399	22.389	1.0909	0.1	-9.2049
4400	22.389	0.90909	0.1	-11.383
4401	22.389	0.72727	0.1	-12.702
4402	22.389	0.54545	0.1	-13.159
4403	22.389	0.36364	0.1	-12.884
4404	22.389	0.18182	0.1	-13.071
4405	22.21	5.8182	0.1	-12.518
4406	22.21	5.6364	0.1	-11.709
4407	22.21	5.4545	0.1	-11.13
4408	22.21	5.2727	0.1	-9.6552
4409	22.21	5.0909	0.1	-7.2138
4410	22.21	4.9091	0.1	-3.8667
4411	22.21	4.7273	0.1	-0.34977
4412	22.21	4.5455	0.1	-0.10529
4413	22.21	4.3636	0.1	-8.6759e-002
4414	22.21	4.1818	0.1	-8.0207e-002
4415	22.21	4.	0.1	-7.685e-002
4416	22.21	3.8182	0.1	-7.4907e-002
4417	22.21	3.6364	0.1	-7.3777e-002
4418	22.21	3.4545	0.1	-7.317e-002
4419	22.21	3.2727	0.1	-7.2883e-002
4420	22.21	3.0909	0.1	-7.278e-002
4421	22.21	2.9091	0.1	-7.278e-002
4422	22.21	2.7273	0.1	-7.2884e-002
4423	22.21	2.5455	0.1	-7.3171e-002
4424	22.21	2.3636	0.1	-7.3778e-002
4425	22.21	2.1818	0.1	-7.4907e-002
4426	22.21	2.	0.1	-7.685e-002
4427	22.21	1.8182	0.1	-8.0206e-002
4428	22.21	1.6364	0.1	-8.6761e-002
4429	22.21	1.4545	0.1	-0.10529
4430	22.21	1.2727	0.1	-0.34975
4431	22.21	1.0909	0.1	-3.8667
4432	22.21	0.90909	0.1	-7.2138
4433	22.21	0.72727	0.1	-9.6552
4434	22.21	0.54545	0.1	-11.13
4435	22.21	0.36364	0.1	-11.709
4436	22.21	0.18182	0.1	-12.518
4437	22.031	5.8182	0.1	-12.145
4438	22.031	5.6364	0.1	-10.84
4439	22.031	5.4545	0.1	-9.4961
4440	22.031	5.2727	0.1	-7.0537
4441	22.031	5.0909	0.1	-3.5125
4442	22.031	4.9091	0.1	-0.2228
4443	22.031	4.7273	0.1	-9.8424e-002
4444	22.031	4.5455	0.1	-8.4066e-002
4445	22.031	4.3636	0.1	-7.88e-002
4446	22.031	4.1818	0.1	-7.6097e-002
4447	22.031	4.	0.1	-7.4593e-002
4448	22.031	3.8182	0.1	-7.3857e-002
4449	22.031	3.6364	0.1	-7.3665e-002
4450	22.031	3.4545	0.1	-7.3804e-002
4451	22.031	3.2727	0.1	-7.406e-002
4452	22.031	3.0909	0.1	-7.4242e-002
4453	22.031	2.9091	0.1	-7.4243e-002
4454	22.031	2.7273	0.1	-7.406e-002
4455	22.031	2.5455	0.1	-7.3804e-002
4456	22.031	2.3636	0.1	-7.3666e-002
4457	22.031	2.1818	0.1	-7.3857e-002
4458	22.031	2.	0.1	-7.4594e-002
4459	22.031	1.8182	0.1	-7.6097e-002
4460	22.031	1.6364	0.1	-7.88e-002
4461	22.031	1.4545	0.1	-8.4065e-002
4462	22.031	1.2727	0.1	-9.8422e-002
4463	22.031	1.0909	0.1	-0.2228
4464	22.031	0.90909	0.1	-3.5125
4465	22.031	0.72727	0.1	-7.0537
4466	22.031	0.54545	0.1	-9.4961
4467	22.031	0.36364	0.1	-10.84
4468	22.031	0.18182	0.1	-12.145
4469	21.852	5.8182	0.1	-11.978
4470	21.852	5.6364	0.1	-10.287
4471	21.852	5.4545	0.1	-8.2602
4472	21.852	5.2727	0.1	-4.8989
4473	21.852	5.0909	0.1	-0.63035
4474	21.852	4.9091	0.1	-0.1122
4475	21.852	4.7273	0.1	-8.8523e-002
4476	21.852	4.5455	0.1	-8.1291e-002
4477	21.852	4.3636	0.1	-7.7891e-002
4478	21.852	4.1818	0.1	-7.6087e-002
4479	21.852	4.	0.1	-7.5312e-002
4480	21.852	3.8182	0.1	-7.5343e-002
4481	21.852	3.6364	0.1	-7.5968e-002
4482	21.852	3.4545	0.1	-7.6899e-002
4483	21.852	3.2727	0.1	-7.7785e-002
4484	21.852	3.0909	0.1	-7.8324e-002
4485	21.852	2.9091	0.1	-7.8323e-002
4486	21.852	2.7273	0.1	-7.7786e-002
4487	21.852	2.5455	0.1	-7.6898e-002
4488	21.852	2.3636	0.1	-7.5969e-002
4489	21.852	2.1818	0.1	-7.5342e-002
4490	21.852	2.	0.1	-7.5312e-002
4491	21.852	1.8182	0.1	-7.6087e-002
4492	21.852	1.6364	0.1	-7.7891e-002
4493	21.852	1.4545	0.1	-8.1291e-002
4494	21.852	1.2727	0.1	-8.8524e-002
4495	21.852	1.0909	0.1	-0.1122
4496	21.852	0.90909	0.1	-0.63033
4497	21.852	0.72727	0.1	-4.8989
4498	21.852	0.54545	0.1	-8.2602
4499	21.852	0.36364	0.1	-10.287
4500	21.852	0.18182	0.1	-11.978
4501	21.673	5.8182	0.1	-12.041
4502	21.673	5.6364	0.1	-10.066
4503	21.673	5.4545	0.1	-7.43
4504	21.673	5.2727	0.1	-3.2164
4505	21.673	5.0909	0.1	-0.20067
4506	21.673	4.9091	0.1	-0.10702
4507	21.673	4.7273	0.1	-9.0347e-002
4508	21.673	4.5455	0.1	-8.3693e-002
4509	21.673	4.3636	0.1	-8.028e-002
4510	21.673	4.1818	0.1	-7.859e-002
4511	21.673	4.	0.1	-7.8229e-002
4512	21.673	3.8182	0.1	-7.9002e-002
4513	21.673	3.6364	0.1	-8.0614e-002
4514	21.673	3.4545	0.1	-8.2592e-002
4515	21.673	3.2727	0.1	-8.4365e-002
4516	21.673	3.0909	0.1	-8.5408e-002
4517	21.673	2.9091	0.1	-8.5406e-002
4518	21.673	2.7273	0.1	-8.4366e-002
4519	21.673	2.5455	0.1	-8.2593e-002
4520	21.673	2.3636	0.1	-8.0614e-002
4521	21.673	2.1818	0.1	-7.9002e-002
4522	21.673	2.	0.1	-7.823e-002
4523	21.673	1.8182	0.1	-7.859e-002
4524	21.673	1.6364	0.1	-8.028e-002
4525	21.673	1.4545	0.1	-8.3695e-002
4526	21.673	1.2727	0.1	-9.0347e-002
4527	21.673	1.0909	0.1	-0.10702
4528	21.673	0.90909	0.1	-0.20067
4529	21.673	0.72727	0.1	-3.2164
4530	21.673	0.54545	0.1	-7.43
4531	21.673	0.36364	0.1	-10.066
4532	21.673	0.18182	0.1	-12.041
4533	21.494	5.8182	0.1	-12.354
4534	21.494	5.6364	0.1	-10.187
4535	21.494	5.4545	0.1	-7.0121
4536	21.494	5.2727	0.1	-2.0757
4537	21.494	5.0909	0.1	-0.18461
4538	21.494	4.9091	0.1	-0.11586
4539	21.494	4.7273	0.1	-9.7872e-002
4540	21.494	4.5455	0.1	-8.9709e-002
4541	21.494	4.3636	0.1	-8.5332e-002
4542	21.494	4.1818	0.1	-8.3275e-002
4543	21.494	4.	0.1	-8.3183e-002
4544	21.494	3.8182	0.1	-8.4844e-002
4545	21.494	3.6364	0.1	-8.7808e-002
4546	21.494	3.4545	0.1	-9.1307e-002
4547	21.494	3.2727	0.1	-9.4393e-002
4548	21.494	3.0909	0.1	-9.6196e-002
4549	21.494	2.9091	0.1	-9.6196e-002
4550	21.494	2.7273	0.1	-9.4393e-002
4551	21.494	2.5455	0.1	-9.1309e-002
4552	21.494	2.3636	0.1	-8.7807e-002
4553	21.494	2.1818	0.1	-8.4843e-002
4554	21.494	2.	0.1	-8.3184e-002
4555	21.494	1.8182	0.1	-8.3274e-002
4556	21.494	1.6364	0.1	-8.5331e-002
4557	21.494	1.4545	0.1	-8.9708e-002
4558	21.494	1.2727	0.1	-9.7872e-002
4559	21.494	1.0909	0.1	-0.11586
4560	21.494	0.90909	0.1	-0.1846
4561	21.494	0.72727	0.1	-2.0757
4562	21.494	0.54545	0.1	-7.0121
4563	21.494	0.36364	0.1	-10.187
4564	21.494	0.18182	0.1	-12.354
4565	21.315	5.8182	0.1	-12.935
4566	21.315	5.6364	0.1	-10.648
4567	21.315	5.4545	0.1	-7.0053
4568	21.315	5.2727	0.1	-1.5469
4569	21.315	5.0909	0.1	-0.20963
4570	21.315	4.9091	0.1	-0.13413
4571	21.315	4.7273	0.1	-0.11078
4572	21.315	4.5455	0.1	-9.9412e-002
4573	21.315	4.3636	0.1	-9.3107e-002
4574	21.315	4.1818	0.1	-9.0153e-002
4575	21.315	4.	0.1	-9.0197e-002
4576	21.315	3.8182	0.1	-9.2998e-002
4577	21.315	3.6364	0.1	-9.7885e-002
4578	21.315	3.4545	0.1	-0.10364
4579	21.315	3.2727	0.1	-0.10871
4580	21.315	3.0909	0.1	-0.11166
4581	21.315	2.9091	0.1	-0.11166
4582	21.315	2.7273	0.1	-0.10871
4583	21.315	2.5455	0.1	-0.10364
4584	21.315	2.3636	0.1	-9.7887e-002
4585	21.315	2.1818	0.1	-9.2999e-002
4586	21.315	2.	0.1	-9.0197e-002
4587	21.315	1.8182	0.1	-9.0153e-002
4588	21.315	1.6364	0.1	-9.3105e-002
4589	21.315	1.4545	0.1	-9.9411e-002
4590	21.315	1.2727	0.1	-0.11078
4591	21.315	1.0909	0.1	-0.13413
4592	21.315	0.90909	0.1	-0.20963
4593	21.315	0.72727	0.1	-1.5468
4594	21.315	0.54545	0.1	-7.0053
4595	21.315	0.36364	0.1	-10.648
4596	21.315	0.18182	0.1	-12.935
4597	21.136	5.8182	0.1	-13.789
4598	21.136	5.6364	0.1	-11.432
4599	21.136	5.4545	0.1	-7.394
4600	21.136	5.2727	0.1	-1.5246
4601	21.136	5.0909	0.1	-0.26258
4602	21.136	4.9091	0.1	-0.16355
4603	21.136	4.7273	0.1	-0.13044
4604	21.136	4.5455	0.1	-0.11368
4605	21.136	4.3636	0.1	-0.10407
4606	21.136	4.1818	0.1	-9.9371e-002
4607	21.136	4.	0.1	-9.9256e-002
4608	21.136	3.8182	0.1	-0.10356
4609	21.136	3.6364	0.1	-0.11127
4610	21.136	3.4545	0.1	-0.1204
4611	21.136	3.2727	0.1	-0.12842
4612	21.136	3.0909	0.1	-0.1331
4613	21.136	2.9091	0.1	-0.1331
4614	21.136	2.7273	0.1	-0.12842
4615	21.136	2.5455	0.1	-0.1204
4616	21.136	2.3636	0.1	-0.11127
4617	21.136	2.1818	0.1	-0.10355
4618	21.136	2.	0.1	-9.9257e-002
4619	21.136	1.8182	0.1	-9.9372e-002
4620	21.136	1.6364	0.1	-0.10407
4621	21.136	1.4545	0.1	-0.11368
4622	21.136	1.2727	0.1	-0.13044
4623	21.136	1.0909	0.1	-0.16355
4624	21.136	0.90909	0.1	-0.26258
4625	21.136	0.72727	0.1	-1.5246
4626	21.136	0.54545	0.1	-7.394
4627	21.136	0.36364	0.1	-11.432
4628	21.136	0.18182	0.1	-13.789
4629	20.957	5.8182	0.1	-14.903
4630	20.957	5.6364	0.1	-12.495
4631	20.957	5.4545	0.1	-8.1438
4632	20.957	5.2727	0.1	-1.8646
4633	20.957	5.0909	0.1	-0.35356
4634	20.957	4.9091	0.1	-0.20964
4635	20.957	4.7273	0.1	-0.16015
4636	20.957	4.5455	0.1	-0.13457
4637	20.957	4.3636	0.1	-0.11946
4638	20.957	4.1818	0.1	-0.11166
4639	20.957	4.	0.1	-0.11095
4640	20.957	3.8182	0.1	-0.11712
4641	20.957	3.6364	0.1	-0.12872
4642	20.957	3.4545	0.1	-0.14273
4643	20.957	3.2727	0.1	-0.15509
4644	20.957	3.0909	0.1	-0.16225
4645	20.957	2.9091	0.1	-0.16226
4646	20.957	2.7273	0.1	-0.15509
4647	20.957	2.5455	0.1	-0.14273
4648	20.957	2.3636	0.1	-0.12872
4649	20.957	2.1818	0.1	-0.11712
4650	20.957	2.	0.1	-0.11095
4651	20.957	1.8182	0.1	-0.11166
4652	20.957	1.6364	0.1	-0.11946
4653	20.957	1.4545	0.1	-0.13456
4654	20.957	1.2727	0.1	-0.16015
4655	20.957	1.0909	0.1	-0.20964
4656	20.957	0.90909	0.1	-0.35356
4657	20.957	0.72727	0.1	-1.8646
4658	20.957	0.54545	0.1	-8.1437
4659	20.957	0.36364	0.1	-12.495
4660	20.957	0.18182	0.1	-14.903
4661	20.778	5.8182	0.1	-16.238
4662	20.778	5.6364	0.1	-13.751
4663	20.778	5.4545	0.1	-9.1985
4664	20.778	5.2727	0.1	-2.5683
4665	20.778	5.0909	0.1	-0.51189
4666	20.778	4.9091	0.1	-0.28453
4667	20.778	4.7273	0.1	-0.20661
4668	20.778	4.5455	0.1	-0.16601
4669	20.778	4.3636	0.1	-0.14128
4670	20.778	4.1818	0.1	-0.12738
4671	20.778	4.	0.1	-0.12432
4672	20.778	3.8182	0.1	-0.13302
4673	20.778	3.6364	0.1	-0.15105
4674	20.778	3.4545	0.1	-0.17231
4675	20.778	3.2727	0.1	-0.19063
4676	20.778	3.0909	0.1	-0.20109
4677	20.778	2.9091	0.1	-0.20109
4678	20.778	2.7273	0.1	-0.19063
4679	20.778	2.5455	0.1	-0.17231
4680	20.778	2.3636	0.1	-0.15105
4681	20.778	2.1818	0.1	-0.13302
4682	20.778	2.	0.1	-0.12432
4683	20.778	1.8182	0.1	-0.12738
4684	20.778	1.6364	0.1	-0.14129
4685	20.778	1.4545	0.1	-0.16601
4686	20.778	1.2727	0.1	-0.20661
4687	20.778	1.0909	0.1	-0.28453
4688	20.778	0.90909	0.1	-0.51188
4689	20.778	0.72727	0.1	-2.5683
4690	20.778	0.54545	0.1	-9.1984
4691	20.778	0.36364	0.1	-13.751
4692	20.778	0.18182	0.1	-16.238
4693	20.599	5.8182	0.1	-17.713
4694	20.599	5.6364	0.1	-15.068
4695	20.599	5.4545	0.1	-10.483
4696	20.599	5.2727	0.1	-3.7479
4697	20.599	5.0909	0.1	-0.81499
4698	20.599	4.9091	0.1	-0.41771
4699	20.599	4.7273	0.1	-0.28578
4700	20.599	4.5455	0.1	-0.21762
4701	20.599	4.3636	0.1	-0.17575
4702	20.599	4.1818	0.1	-0.15162
4703	20.599	4.	0.1	-0.14608
4704	20.599	3.8182	0.1	-0.15719
4705	20.599	3.6364	0.1	-0.18103
4706	20.599	3.4545	0.1	-0.21149
4707	20.599	3.2727	0.1	-0.23729
4708	20.599	3.0909	0.1	-0.25133
4709	20.599	2.9091	0.1	-0.25133
4710	20.599	2.7273	0.1	-0.23729
4711	20.599	2.5455	0.1	-0.21149
4712	20.599	2.3636	0.1	-0.18103
4713	20.599	2.1818	0.1	-0.15719
4714	20.599	2.	0.1	-0.14608
4715	20.599	1.8182	0.1	-0.15162
4716	20.599	1.6364	0.1	-0.17575
4717	20.599	1.4545	0.1	-0.21762
4718	20.599	1.2727	0.1	-0.28578
4719	20.599	1.0909	0.1	-0.41772
4720	20.599	0.90909	0.1	-0.81499
4721	20.599	0.72727	0.1	-3.7479
4722	20.599	0.54545	0.1	-10.483
4723	20.599	0.36364	0.1	-15.068
4724	20.599	0.18182	0.1	-17.713
4725	20.42	5.8182	0.1	-19.191
4726	20.42	5.6364	0.1	-16.257
4727	20.42	5.4545	0.1	-11.921
4728	20.42	5.2727	0.1	-5.6125
4729	20.42	5.0909	0.1	-1.5135
4730	20.42	4.9091	0.1	-0.69765
4731	20.42	4.7273	0.1	-0.44036
4732	20.42	4.5455	0.1	-0.31068
4733	20.42	4.3636	0.1	-0.23024
4734	20.42	4.1818	0.1	-0.18014
4735	20.42	4.	0.1	-0.15637
4736	20.42	3.8182	0.1	-0.17306
4737	20.42	3.6364	0.1	-0.22112
4738	20.42	3.4545	0.1	-0.26616
4739	20.42	3.2727	0.1	-0.29764
4740	20.42	3.0909	0.1	-0.31318
4741	20.42	2.9091	0.1	-0.31318
4742	20.42	2.7273	0.1	-0.29764
4743	20.42	2.5455	0.1	-0.26616
4744	20.42	2.3636	0.1	-0.22112
4745	20.42	2.1818	0.1	-0.17306
4746	20.42	2.	0.1	-0.15638
4747	20.42	1.8182	0.1	-0.18014
4748	20.42	1.6364	0.1	-0.23024
4749	20.42	1.4545	0.1	-0.31068
4750	20.42	1.2727	0.1	-0.44035
4751	20.42	1.0909	0.1	-0.69765
4752	20.42	0.90909	0.1	-1.5135
4753	20.42	0.72727	0.1	-5.6124
4754	20.42	0.54545	0.1	-11.921
4755	20.42	0.36364	0.1	-16.257
4756	20.42	0.18182	0.1	-19.191
4757	20.241	5.8182	0.1	-20.465
4758	20.241	5.6364	0.1	-17.091
4759	20.241	5.4545	0.1	-13.49
4760	20.241	5.2727	0.1	-8.548
4761	20.241	5.0909	0.1	-3.6461
4762	20.241	4.9091	0.1	-1.5195
4763	20.241	4.7273	0.1	-0.83864
4764	20.241	4.5455	0.1	-0.53327
4765	20.241	4.3636	0.1	-0.36385
4766	20.241	4.1818	0.1	-0.26358
4767	20.241	4.	0.1	-0.25324
4768	20.241	3.8182	0.1	-0.27216
4769	20.241	3.6364	0.1	-0.29067
4770	20.241	3.4545	0.1	-0.34315
4771	20.241	3.2727	0.1	-0.37579
4772	20.241	3.0909	0.1	-0.38167
4773	20.241	2.9091	0.1	-0.38168
4774	20.241	2.7273	0.1	-0.37579
4775	20.241	2.5455	0.1	-0.34315
4776	20.241	2.3636	0.1	-0.29067
4777	20.241	2.1818	0.1	-0.27216
4778	20.241	2.	0.1	-0.25323
4779	20.241	1.8182	0.1	-0.26358
4780	20.241	1.6364	0.1	-0.36385
4781	20.241	1.4545	0.1	-0.53328
4782	20.241	1.2727	0.1	-0.83864
4783	20.241	1.0909	0.1	-1.5195
4784	20.241	0.90909	0.1	-3.6461
4785	20.241	0.72727	0.1	-8.548
4786	20.241	0.54545	0.1	-13.49
4787	20.241	0.36364	0.1	-17.091
4788	20.241	0.18182	0.1	-20.465
4789	20.062	5.8182	0.1	-21.257
4790	20.062	5.6364	0.1	-17.38
4791	20.062	5.4545	0.1	-15.363
4792	20.062	5.2727	0.1	-13.326
4793	20.062	5.0909	0.1	-10.391
4794	20.062	4.9091	0.1	-6.128
4795	20.062	4.7273	0.1	-2.7231
4796	20.062	4.5455	0.1	-1.2832
4797	20.062	4.3636	0.1	-0.62011
4798	20.062	4.1818	0.1	-0.33048
4799	20.062	4.	0.1	-8.6785e-002
4800	20.062	3.8182	0.1	-0.13675
4801	20.062	3.6364	0.1	-0.43357
4802	20.062	3.4545	0.1	-0.49664
4803	20.062	3.2727	0.1	-0.47333
4804	20.062	3.0909	0.1	-0.44373
4805	20.062	2.9091	0.1	-0.44372
4806	20.062	2.7273	0.1	-0.47333
4807	20.062	2.5455	0.1	-0.49664
4808	20.062	2.3636	0.1	-0.43357
4809	20.062	2.1818	0.1	-0.13675
4810	20.062	2.	0.1	-8.6785e-002
4811	20.062	1.8182	0.1	-0.33048
4812	20.062	1.6364	0.1	-0.62011
4813	20.062	1.4545	0.1	-1.2832
4814	20.062	1.2727	0.1	-2.7231
4815	20.062	1.0909	0.1	-6.128
4816	20.062	0.90909	0.1	-10.39
4817	20.062	0.72727	0.1	-13.326
4818	20.062	0.54545	0.1	-15.363
4819	20.062	0.36364	0.1	-17.38
4820	20.062	0.18182	0.1	-21.257
4821	19.883	5.8182	0.1	-21.265
4822	19.883	5.6364	0.1	-17.194
4823	19.883	5.4545	0.1	-18.257
4824	19.883	5.2727	0.1	-21.535
4825	19.883	5.0909	0.1	-25.045
4826	19.883	4.9091	0.1	-26.183
4827	19.883	4.7273	0.1	-21.779
4828	19.883	4.5455	0.1	-10.576
4829	19.883	4.3636	0.1	-3.0525
4830	19.883	4.1818	0.1	-1.0539
4831	19.883	4.	0.1	-1.2995
4832	19.883	3.8182	0.1	-1.3083
4833	19.883	3.6364	0.1	-0.66002
4834	19.883	3.4545	0.1	-0.87883
4835	19.883	3.2727	0.1	-0.69238
4836	19.883	3.0909	0.1	-0.47227
4837	19.883	2.9091	0.1	-0.47227
4838	19.883	2.7273	0.1	-0.69238
4839	19.883	2.5455	0.1	-0.87883
4840	19.883	2.3636	0.1	-0.66002
4841	19.883	2.1818	0.1	-1.3083
4842	19.883	2.	0.1	-1.2995
4843	19.883	1.8182	0.1	-1.0539
4844	19.883	1.6364	0.1	-3.0525
4845	19.883	1.4545	0.1	-10.576
4846	19.883	1.2727	0.1	-21.779
4847	19.883	1.0909	0.1	-26.183
4848	19.883	0.90909	0.1	-25.045
4849	19.883	0.72727	0.1	-21.535
4850	19.883	0.54545	0.1	-18.257
4851	19.883	0.36364	0.1	-17.194
4852	19.883	0.18182	0.1	-21.265
4853	19.704	5.8182	0.1	-20.248
4854	19.704	5.6364	0.1	-17.382
4855	19.704	5.4545	0.1	-24.167
4856	19.704	5.2727	0.1	-36.219
4857	19.704	5.0909	0.1	-50.547
4858	19.704	4.9091	0.1	-64.049
4859	19.704	4.7273	0.1	-72.429
4860	19.704	4.5455	0.1	-69.35
4861	19.704	4.3636	0.1	-44.797
4862	19.704	4.1818	0.1	-7.077
4863	19.704	4.	0.1	3.079
4864	19.704	3.8182	0.1	1.3374
4865	19.704	3.6364	0.1	-4.2536
4866	19.704	3.4545	0.1	-8.5571
4867	19.704	3.2727	0.1	-24.112
4868	19.704	3.0909	0.1	-33.64
4869	19.704	2.9091	0.1	-33.64
4870	19.704	2.7273	0.1	-24.112
4871	19.704	2.5455	0.1	-8.5571
4872	19.704	2.3636	0.1	-4.2536
4873	19.704	2.1818	0.1	1.3374
4874	19.704	2.	0.1	3.079
4875	19.704	1.8182	0.1	-7.077
4876	19.704	1.6364	0.1	-44.797
4877	19.704	1.4545	0.1	-69.35
4878	19.704	1.2727	0.1	-72.429
4879	19.704	1.0909	0.1	-64.049
4880	19.704	0.90909	0.1	-50.547
4881	19.704	0.72727	0.1	-36.219
4882	19.704	0.54545	0.1	-24.167
4883	19.704	0.36364	0.1	-17.382
4884	19.704	0.18182	0.1	-20.248
4885	19.525	5.8182	0.1	-19.188
4886	19.525	5.6364	0.1	-21.6
4887	19.525	5.4545	0.1	-38.82
4888	19.525	5.2727	0.1	-63.505
4889	19.525	5.0909	0.1	-92.316
4890	19.525	4.9091	0.1	-123.5
4891	19.525	4.7273	0.1	-155.21
4892	19.525	4.5455	0.1	-179.68
4893	19.525	4.3636	0.1	-179.81
4894	19.525	4.1818	0.1	-139.64
4895	19.525	4.	0.1	-30.53
4896	19.525	3.8182	0.1	-29.823
4897	19.525	3.6364	0.1	-65.04
4898	19.525	3.4545	0.1	-98.663
4899	19.525	3.2727	0.1	-114.04
4900	19.525	3.0909	0.1	-120.69
4901	19.525	2.9091	0.1	-120.69
4902	19.525	2.7273	0.1	-114.04
4903	19.525	2.5455	0.1	-98.663
4904	19.525	2.3636	0.1	-65.04
4905	19.525	2.1818	0.1	-29.823
4906	19.525	2.	0.1	-30.53
4907	19.525	1.8182	0.1	-139.64
4908	19.525	1.6364	0.1	-179.81
4909	19.525	1.4545	0.1	-179.68
4910	19.525	1.2727	0.1	-155.21
4911	19.525	1.0909	0.1	-123.5
4912	19.525	0.90909	0.1	-92.316
4913	19.525	0.72727	0.1	-63.505
4914	19.525	0.54545	0.1	-38.82
4915	19.525	0.36364	0.1	-21.6
4916	19.525	0.18182	0.1	-19.188
4917	19.346	5.8182	0.1	-25.332
4918	19.346	5.6364	0.1	-45.938
4919	19.346	5.4545	0.1	-80.619
4920	19.346	5.2727	0.1	-122.01
4921	19.346	5.0909	0.1	-170.07
4922	19.346	4.9091	0.1	-226.72
4923	19.346	4.7273	0.1	-296.19
4924	19.346	4.5455	0.1	-379.87
4925	19.346	4.3636	0.1	-505.09
4926	19.346	4.1818	0.1	-528.07
4927	19.346	4.	0.1	-298.94
4928	19.346	3.8182	0.1	-175.58
4929	19.346	3.6364	0.1	-220.21
4930	19.346	3.4545	0.1	-216.06
4931	19.346	3.2727	0.1	-213.95
4932	19.346	3.0909	0.1	-211.51
4933	19.346	2.9091	0.1	-211.51
4934	19.346	2.7273	0.1	-213.95
4935	19.346	2.5455	0.1	-216.06
4936	19.346	2.3636	0.1	-220.2
4937	19.346	2.1818	0.1	-175.58
4938	19.346	2.	0.1	-298.94
4939	19.346	1.8182	0.1	-528.07
4940	19.346	1.6364	0.1	-505.09
4941	19.346	1.4545	0.1	-379.87
4942	19.346	1.2727	0.1	-296.19
4943	19.346	1.0909	0.1	-226.72
4944	19.346	0.90909	0.1	-170.07
4945	19.346	0.72727	0.1	-122.01
4946	19.346	0.54545	0.1	-80.619
4947	19.346	0.36364	0.1	-45.938
4948	19.346	0.18182	0.1	-25.332
4949	0.18447	0.18182	0.1	-314.4
4950	0.18447	0.36364	0.1	-610.59
4951	0.18447	0.54545	0.1	-743.51
4952	0.18447	0.72727	0.1	-829.03
4953	0.18447	0.90909	0.1	-883.88
4954	0.18447	1.0909	0.1	-923.5
4955	0.18447	1.2727	0.1	-952.58
4956	0.18447	1.4545	0.1	-974.65
4957	0.18447	1.6364	0.1	-991.62
4958	0.18447	1.8182	0.1	-1004.8
4959	0.18447	2.	0.1	-1015.
4960	0.18447	2.1818	0.1	-1022.8
4961	0.18447	2.3636	0.1	-1028.6
4962	0.18447	2.5455	0.1	-1032.8
4963	0.18447	2.7273	0.1	-1035.5
4964	0.18447	2.9091	0.1	-1036.8
4965	0.18447	3.0909	0.1	-1036.8
4966	0.18447	3.2727	0.1	-1035.5
4967	0.18447	3.4545	0.1	-1032.8
4968	0.18447	3.6364	0.1	-1028.6
4969	0.18447	3.8182	0.1	-1022.8
4970	0.18447	4.	0.1	-1015.
4971	0.18447	4.1818	0.1	-1004.8
4972	0.18447	4.3636	0.1	-991.62
4973	0.18447	4.5455	0.1	-974.65
4974	0.18447	4.7273	0.1	-952.58
4975	0.18447	4.9091	0.1	-923.5
4976	0.18447	5.0909	0.1	-883.88
4977	0.18447	5.2727	0.1	-829.03
4978	0.18447	5.4545	0.1	-743.51
4979	0.18447	5.6364	0.1	-610.59
4980	0.18447	5.8182	0.1	-314.4
4981	0.36893	0.18182	0.1	-92.38
4982	0.36893	0.36364	0.1	137.99
4983	0.36893	0.54545	0.1	183.89
4984	0.36893	0.72727	0.1	207.05
4985	0.36893	0.90909	0.1	221.94
4986	0.36893	1.0909	0.1	232.4
4987	0.36893	1.2727	0.1	240.04
4988	0.36893	1.4545	0.1	245.8
4989	0.36893	1.6364	0.1	250.21
4990	0.36893	1.8182	0.1	253.63
4991	0.36893	2.	0.1	256.26
4992	0.36893	2.1818	0.1	258.28
4993	0.36893	2.3636	0.1	259.79
4994	0.36893	2.5455	0.1	260.87
4995	0.36893	2.7273	0.1	261.56
4996	0.36893	2.9091	0.1	261.9
4997	0.36893	3.0909	0.1	261.9
4998	0.36893	3.2727	0.1	261.56
4999	0.36893	3.4545	0.1	260.87
5000	0.36893	3.6364	0.1	259.79
5001	0.36893	3.8182	0.1	258.28
5002	0.36893	4.	0.1	256.26
5003	0.36893	4.1818	0.1	253.63
5004	0.36893	4.3636	0.1	250.21
5005	0.36893	4.5455	0.1	245.8
5006	0.36893	4.7273	0.1	240.04
5007	0.36893	4.9091	0.1	232.4
5008	0.36893	5.0909	0.1	221.94
5009	0.36893	5.2727	0.1	207.05
5010	0.36893	5.4545	0.1	183.89
5011	0.36893	5.6364	0.1	137.99
5012	0.36893	5.8182	0.1	-92.38
5013	0.5534	0.18182	0.1	-103.55
5014	0.5534	0.36364	0.1	-40.52
5015	0.5534	0.54545	0.1	-49.233
5016	0.5534	0.72727	0.1	-53.879
5017	0.5534	0.90909	0.1	-57.114
5018	0.5534	1.0909	0.1	-59.504
5019	0.5534	1.2727	0.1	-61.283
5020	0.5534	1.4545	0.1	-62.638
5021	0.5534	1.6364	0.1	-63.681
5022	0.5534	1.8182	0.1	-64.49
5023	0.5534	2.	0.1	-65.117
5024	0.5534	2.1818	0.1	-65.598
5025	0.5534	2.3636	0.1	-65.958
5026	0.5534	2.5455	0.1	-66.214
5027	0.5534	2.7273	0.1	-66.379
5028	0.5534	2.9091	0.1	-66.46
5029	0.5534	3.0909	0.1	-66.46
5030	0.5534	3.2727	0.1	-66.379
5031	0.5534	3.4545	0.1	-66.214
5032	0.5534	3.6364	0.1	-65.958
5033	0.5534	3.8182	0.1	-65.598
5034	0.5534	4.	0.1	-65.117
5035	0.5534	4.1818	0.1	-64.49
5036	0.5534	4.3636	0.1	-63.681
5037	0.5534	4.5455	0.1	-62.638
5038	0.5534	4.7273	0.1	-61.283
5039	0.5534	4.9091	0.1	-59.504
5040	0.5534	5.0909	0.1	-57.114
5041	0.5534	5.2727	0.1	-53.879
5042	0.5534	5.4545	0.1	-49.233
5043	0.5534	5.6364	0.1	-40.52
5044	0.5534	5.8182	0.1	-103.55
5045	0.73786	0.18182	0.1	-71.685
5046	0.73786	0.36364	0.1	5.7344
5047	0.73786	0.54545	0.1	10.627
5048	0.73786	0.72727	0.1	12.437
5049	0.73786	0.90909	0.1	13.684
5050	0.73786	1.0909	0.1	14.476
5051	0.73786	1.2727	0.1	15.039
5052	0.73786	1.4545	0.1	15.451
5053	0.73786	1.6364	0.1	15.764
5054	0.73786	1.8182	0.1	16.005
5055	0.73786	2.	0.1	16.191
5056	0.73786	2.1818	0.1	16.334
5057	0.73786	2.3636	0.1	16.441
5058	0.73786	2.5455	0.1	16.518
5059	0.73786	2.7273	0.1	16.567
5060	0.73786	2.9091	0.1	16.591
5061	0.73786	3.0909	0.1	16.591
5062	0.73786	3.2727	0.1	16.567
5063	0.73786	3.4545	0.1	16.518
5064	0.73786	3.6364	0.1	16.441
5065	0.73786	3.8182	0.1	16.334
5066	0.73786	4.	0.1	16.191
5067	0.73786	4.1818	0.1	16.005
5068	0.73786	4.3636	0.1	15.764
5069	0.73786	4.5455	0.1	15.451
5070	0.73786	4.7273	0.1	15.039
5071	0.73786	4.9091	0.1	14.476
5072	0.73786	5.0909	0.1	13.684
5073	0.73786	5.2727	0.1	12.437
5074	0.73786	5.4545	0.1	10.627
5075	0.73786	5.6364	0.1	5.7344
5076	0.73786	5.8182	0.1	-71.685
5077	0.92233	0.18182	0.1	-52.494
5078	0.92233	0.36364	0.1	-4.9316
5079	0.92233	0.54545	0.1	-3.9622
5080	0.92233	0.72727	0.1	-4.0188
5081	0.92233	0.90909	0.1	-4.0126
5082	0.92233	1.0909	0.1	-4.072
5083	0.92233	1.2727	0.1	-4.1328
5084	0.92233	1.4545	0.1	-4.1918
5085	0.92233	1.6364	0.1	-4.2417
5086	0.92233	1.8182	0.1	-4.282
5087	0.92233	2.	0.1	-4.3134
5088	0.92233	2.1818	0.1	-4.3374
5089	0.92233	2.3636	0.1	-4.3552
5090	0.92233	2.5455	0.1	-4.3677
5091	0.92233	2.7273	0.1	-4.3756
5092	0.92233	2.9091	0.1	-4.3795
5093	0.92233	3.0909	0.1	-4.3795
5094	0.92233	3.2727	0.1	-4.3756
5095	0.92233	3.4545	0.1	-4.3677
5096	0.92233	3.6364	0.1	-4.3552
5097	0.92233	3.8182	0.1	-4.3374
5098	0.92233	4.	0.1	-4.3134
5099	0.92233	4.1818	0.1	-4.282
5100	0.92233	4.3636	0.1	-4.2417
5101	0.92233	4.5455	0.1	-4.1918
5102	0.92233	4.7273	0.1	-4.1328
5103	0.92233	4.9091	0.1	-4.072
5104	0.92233	5.0909	0.1	-4.0126
5105	0.92233	5.2727	0.1	-4.0188
5106	0.92233	5.4545	0.1	-3.9622
5107	0.92233	5.6364	0.1	-4.9316
5108	0.92233	5.8182	0.1	-52.494
5109	1.1068	0.18182	0.1	-34.923
5110	1.1068	0.36364	0.1	-1.6953
5111	1.1068	0.54545	0.1	-4.1962e-002
5112	1.1068	0.72727	0.1	0.30027
5113	1.1068	0.90909	0.1	0.5717
5114	1.1068	1.0909	0.1	0.71013
5115	1.1068	1.2727	0.1	0.79697
5116	1.1068	1.4545	0.1	0.8486
5117	1.1068	1.6364	0.1	0.88201
5118	1.1068	1.8182	0.1	0.90469
5119	1.1068	2.	0.1	0.92102
5120	1.1068	2.1818	0.1	0.93314
5121	1.1068	2.3636	0.1	0.94214
5122	1.1068	2.5455	0.1	0.9486
5123	1.1068	2.7273	0.1	0.95279
5124	1.1068	2.9091	0.1	0.95486
5125	1.1068	3.0909	0.1	0.95486
5126	1.1068	3.2727	0.1	0.95279
5127	1.1068	3.4545	0.1	0.9486
5128	1.1068	3.6364	0.1	0.94214
5129	1.1068	3.8182	0.1	0.93314
5130	1.1068	4.	0.1	0.92102
5131	1.1068	4.1818	0.1	0.90469
5132	1.1068	4.3636	0.1	0.88201
5133	1.1068	4.5455	0.1	0.8486
5134	1.1068	4.7273	0.1	0.79697
5135	1.1068	4.9091	0.1	0.71013
5136	1.1068	5.0909	0.1	0.5717
5137	1.1068	5.2727	0.1	0.30027
5138	1.1068	5.4545	0.1	-4.1962e-002
5139	1.1068	5.6364	0.1	-1.6953
5140	1.1068	5.8182	0.1	-34.923
5141	1.2913	0.18182	0.1	-22.806
5142	1.2913	0.36364	0.1	-2.0836
5143	1.2913	0.54545	0.1	-0.86568
5144	1.2913	0.72727	0.1	-0.68878
5145	1.2913	0.90909	0.1	-0.51908
5146	1.2913	1.0909	0.1	-0.44167
5147	1.2913	1.2727	0.1	-0.39562
5148	1.2913	1.4545	0.1	-0.37373
5149	1.2913	1.6364	0.1	-0.36376
5150	1.2913	1.8182	0.1	-0.36018
5151	1.2913	2.	0.1	-0.35947
5152	1.2913	2.1818	0.1	-0.35991
5153	1.2913	2.3636	0.1	-0.36065
5154	1.2913	2.5455	0.1	-0.36132
5155	1.2913	2.7273	0.1	-0.36179
5156	1.2913	2.9091	0.1	-0.36202
5157	1.2913	3.0909	0.1	-0.36202
5158	1.2913	3.2727	0.1	-0.36179
5159	1.2913	3.4545	0.1	-0.36132
5160	1.2913	3.6364	0.1	-0.36065
5161	1.2913	3.8182	0.1	-0.35991
5162	1.2913	4.	0.1	-0.35947
5163	1.2913	4.1818	0.1	-0.36018
5164	1.2913	4.3636	0.1	-0.36375
5165	1.2913	4.5455	0.1	-0.37373
5166	1.2913	4.7273	0.1	-0.39562
5167	1.2913	4.9091	0.1	-0.44167
5168	1.2913	5.0909	0.1	-0.51908
5169	1.2913	5.2727	0.1	-0.68878
5170	1.2913	5.4545	0.1	-0.86569
5171	1.2913	5.6364	0.1	-2.0836
5172	1.2913	5.8182	0.1	-22.806
5173	1.4757	0.18182	0.1	-14.625
5174	1.4757	0.36364	0.1	-1.6508
5175	1.4757	0.54545	0.1	-0.5381
5176	1.4757	0.72727	0.1	-0.36616
5177	1.4757	0.90909	0.1	-0.19896
5178	1.4757	1.0909	0.1	-0.11498
5179	1.4757	1.2727	0.1	-6.0399e-002
5180	1.4757	1.4545	0.1	-3.0027e-002
5181	1.4757	1.6364	0.1	-1.322e-002
5182	1.4757	1.8182	0.1	-4.6995e-003
5183	1.4757	2.	0.1	-7.0562e-004
5184	1.4757	2.1818	0.1	9.0415e-004
5185	1.4757	2.3636	0.1	1.3736e-003
5186	1.4757	2.5455	0.1	1.3697e-003
5187	1.4757	2.7273	0.1	1.2371e-003
5188	1.4757	2.9091	0.1	1.139e-003
5189	1.4757	3.0909	0.1	1.139e-003
5190	1.4757	3.2727	0.1	1.2372e-003
5191	1.4757	3.4545	0.1	1.3697e-003
5192	1.4757	3.6364	0.1	1.3736e-003
5193	1.4757	3.8182	0.1	9.0427e-004
5194	1.4757	4.	0.1	-7.0546e-004
5195	1.4757	4.1818	0.1	-4.6993e-003
5196	1.4757	4.3636	0.1	-1.3219e-002
5197	1.4757	4.5455	0.1	-3.0027e-002
5198	1.4757	4.7273	0.1	-6.0399e-002
5199	1.4757	4.9091	0.1	-0.11497
5200	1.4757	5.0909	0.1	-0.19896
5201	1.4757	5.2727	0.1	-0.36616
5202	1.4757	5.4545	0.1	-0.5381
5203	1.4757	5.6364	0.1	-1.6508
5204	1.4757	5.8182	0.1	-14.625
5205	1.6602	0.18182	0.1	-9.6524
5206	1.6602	0.36364	0.1	-1.485
5207	1.6602	0.54545	0.1	-0.52476
5208	1.6602	0.72727	0.1	-0.38933
5209	1.6602	0.90909	0.1	-0.24646
5210	1.6602	1.0909	0.1	-0.17319
5211	1.6602	1.2727	0.1	-0.12319
5212	1.6602	1.4545	0.1	-9.3944e-002
5213	1.6602	1.6364	0.1	-7.7027e-002
5214	1.6602	1.8182	0.1	-6.8182e-002
5215	1.6602	2.	0.1	-6.4069e-002
5216	1.6602	2.1818	0.1	-6.2601e-002
5217	1.6602	2.3636	0.1	-6.2448e-002
5218	1.6602	2.5455	0.1	-6.2818e-002
5219	1.6602	2.7273	0.1	-6.3258e-002
5220	1.6602	2.9091	0.1	-6.3529e-002
5221	1.6602	3.0909	0.1	-6.3529e-002
5222	1.6602	3.2727	0.1	-6.3258e-002
5223	1.6602	3.4545	0.1	-6.2818e-002
5224	1.6602	3.6364	0.1	-6.2448e-002
5225	1.6602	3.8182	0.1	-6.2601e-002
5226	1.6602	4.	0.1	-6.4069e-002
5227	1.6602	4.1818	0.1	-6.8182e-002
5228	1.6602	4.3636	0.1	-7.7027e-002
5229	1.6602	4.5455	0.1	-9.3944e-002
5230	1.6602	4.7273	0.1	-0.12319
5231	1.6602	4.9091	0.1	-0.17319
5232	1.6602	5.0909	0.1	-0.24646
5233	1.6602	5.2727	0.1	-0.38933
5234	1.6602	5.4545	0.1	-0.52476
5235	1.6602	5.6364	0.1	-1.485
5236	1.6602	5.8182	0.1	-9.6524
5237	1.8447	0.18182	0.1	-6.6359
5238	1.8447	0.36364	0.1	-1.2982
5239	1.8447	0.54545	0.1	-0.4486
5240	1.8447	0.72727	0.1	-0.33411
5241	1.8447	0.90909	0.1	-0.20678
5242	1.8447	1.0909	0.1	-0.13979
5243	1.8447	1.2727	0.1	-9.1948e-002
5244	1.8447	1.4545	0.1	-6.2181e-002
5245	1.8447	1.6364	0.1	-4.3657e-002
5246	1.8447	1.8182	0.1	-3.2981e-002
5247	1.8447	2.	0.1	-2.7269e-002
5248	1.8447	2.1818	0.1	-2.4587e-002
5249	1.8447	2.3636	0.1	-2.3599e-002
5250	1.8447	2.5455	0.1	-2.3445e-002
5251	1.8447	2.7273	0.1	-2.359e-002
5252	1.8447	2.9091	0.1	-2.373e-002
5253	1.8447	3.0909	0.1	-2.373e-002
5254	1.8447	3.2727	0.1	-2.3589e-002
5255	1.8447	3.4545	0.1	-2.3445e-002
5256	1.8447	3.6364	0.1	-2.3599e-002
5257	1.8447	3.8182	0.1	-2.4587e-002
5258	1.8447	4.	0.1	-2.7269e-002
5259	1.8447	4.1818	0.1	-3.2981e-002
5260	1.8447	4.3636	0.1	-4.3656e-002
5261	1.8447	4.5455	0.1	-6.218e-002
5262	1.8447	4.7273	0.1	-9.1948e-002
5263	1.8447	4.9091	0.1	-0.13979
5264	1.8447	5.0909	0.1	-0.20678
5265	1.8447	5.2727	0.1	-0.33411
5266	1.8447	5.4545	0.1	-0.4486
5267	1.8447	5.6364	0.1	-1.2982
5268	1.8447	5.8182	0.1	-6.6359
5269	2.0291	0.18182	0.1	-4.7665
5270	2.0291	0.36364	0.1	-1.1525
5271	2.0291	0.54545	0.1	-0.40031
5272	2.0291	0.72727	0.1	-0.30492
5273	2.0291	0.90909	0.1	-0.19243
5274	2.0291	1.0909	0.1	-0.13245
5275	2.0291	1.2727	0.1	-8.8018e-002
5276	2.0291	1.4545	0.1	-5.9035e-002
5277	2.0291	1.6364	0.1	-3.993e-002
5278	2.0291	1.8182	0.1	-2.8071e-002
5279	2.0291	2.	0.1	-2.1072e-002
5280	2.0291	2.1818	0.1	-1.7248e-002
5281	2.0291	2.3636	0.1	-1.5365e-002
5282	2.0291	2.5455	0.1	-1.4575e-002
5283	2.0291	2.7273	0.1	-1.4321e-002
5284	2.0291	2.9091	0.1	-1.4271e-002
5285	2.0291	3.0909	0.1	-1.4271e-002
5286	2.0291	3.2727	0.1	-1.4321e-002
5287	2.0291	3.4545	0.1	-1.4575e-002
5288	2.0291	3.6364	0.1	-1.5365e-002
5289	2.0291	3.8182	0.1	-1.7248e-002
5290	2.0291	4.	0.1	-2.1072e-002
5291	2.0291	4.1818	0.1	-2.8071e-002
5292	2.0291	4.3636	0.1	-3.993e-002
5293	2.0291	4.5455	0.1	-5.9035e-002
5294	2.0291	4.7273	0.1	-8.8018e-002
5295	2.0291	4.9091	0.1	-0.13245
5296	2.0291	5.0909	0.1	-0.19243
5297	2.0291	5.2727	0.1	-0.30492
5298	2.0291	5.4545	0.1	-0.40031
5299	2.0291	5.6364	0.1	-1.1525
5300	2.0291	5.8182	0.1	-4.7665
5301	2.2136	0.18182	0.1	-3.5503
5302	2.2136	0.36364	0.1	-1.0251
5303	2.2136	0.54545	0.1	-0.35446
5304	2.2136	0.72727	0.1	-0.27407
5305	2.2136	0.90909	0.1	-0.174
5306	2.2136	1.0909	0.1	-0.12017
5307	2.2136	1.2727	0.1	-7.9115e-002
5308	2.2136	1.4545	0.1	-5.1283e-002
5309	2.2136	1.6364	0.1	-3.2033e-002
5310	2.2136	1.8182	0.1	-1.9328e-002
5311	2.2136	2.	0.1	-1.1223e-002
5312	2.2136	2.1818	0.1	-6.3052e-003
5313	2.2136	2.3636	0.1	-3.4845e-003
5314	2.2136	2.5455	0.1	-1.9781e-003
5315	2.2136	2.7273	0.1	-1.2473e-003
5316	2.2136	2.9091	0.1	-9.6074e-004
5317	2.2136	3.0909	0.1	-9.6074e-004
5318	2.2136	3.2727	0.1	-1.2472e-003
5319	2.2136	3.4545	0.1	-1.978e-003
5320	2.2136	3.6364	0.1	-3.4843e-003
5321	2.2136	3.8182	0.1	-6.305e-003
5322	2.2136	4.	0.1	-1.1223e-002
5323	2.2136	4.1818	0.1	-1.9327e-002
5324	2.2136	4.3636	0.1	-3.2032e-002
5325	2.2136	4.5455	0.1	-5.1283e-002
5326	2.2136	4.7273	0.1	-7.9115e-002
5327	2.2136	4.9091	0.1	-0.12017
5328	2.2136	5.0909	0.1	-0.174
5329	2.2136	5.2727	0.1	-0.27407
5330	2.2136	5.4545	0.1	-0.35446
5331	2.2136	5.6364	0.1	-1.0251
5332	2.2136	5.8182	0.1	-3.5503
5333	2.3981	0.18182	0.1	-2.7236
5334	2.3981	0.36364	0.1	-0.91615
5335	2.3981	0.54545	0.1	-0.31571
5336	2.3981	0.72727	0.1	-0.24774
5337	2.3981	0.90909	0.1	-0.15849
5338	2.3981	1.0909	0.1	-0.11025
5339	2.3981	1.2727	0.1	-7.2589e-002
5340	2.3981	1.4545	0.1	-4.627e-002
5341	2.3981	1.6364	0.1	-2.735e-002
5342	2.3981	1.8182	0.1	-1.4244e-002
5343	2.3981	2.	0.1	-5.3805e-003
5344	2.3981	2.1818	0.1	4.012e-004
5345	2.3981	2.3636	0.1	4.0267e-003
5346	2.3981	2.5455	0.1	6.1852e-003
5347	2.3981	2.7273	0.1	7.3676e-003
5348	2.3981	2.9091	0.1	7.8838e-003
5349	2.3981	3.0909	0.1	7.8838e-003
5350	2.3981	3.2727	0.1	7.3677e-003
5351	2.3981	3.4545	0.1	6.1853e-003
5352	2.3981	3.6364	0.1	4.0269e-003
5353	2.3981	3.8182	0.1	4.014e-004
5354	2.3981	4.	0.1	-5.3804e-003
5355	2.3981	4.1818	0.1	-1.4243e-002
5356	2.3981	4.3636	0.1	-2.7349e-002
5357	2.3981	4.5455	0.1	-4.627e-002
5358	2.3981	4.7273	0.1	-7.2588e-002
5359	2.3981	4.9091	0.1	-0.11025
5360	2.3981	5.0909	0.1	-0.15849
5361	2.3981	5.2727	0.1	-0.24774
5362	2.3981	5.4545	0.1	-0.31571
5363	2.3981	5.6364	0.1	-0.91615
5364	2.3981	5.8182	0.1	-2.7236
5365	2.5825	0.18182	0.1	-2.1388
5366	2.5825	0.36364	0.1	-0.82143
5367	2.5825	0.54545	0.1	-0.28159
5368	2.5825	0.72727	0.1	-0.22383
5369	2.5825	0.90909	0.1	-0.14393
5370	2.5825	1.0909	0.1	-0.10065
5371	2.5825	1.2727	0.1	-6.6217e-002
5372	2.5825	1.4545	0.1	-4.1568e-002
5373	2.5825	1.6364	0.1	-2.3292e-002
5374	2.5825	1.8182	0.1	-1.0138e-002
5375	2.5825	2.	0.1	-8.3448e-004
5376	2.5825	2.1818	0.1	5.5599e-003
5377	2.5825	2.3636	0.1	9.8119e-003
5378	2.5825	2.5455	0.1	1.2508e-002
5379	2.5825	2.7273	0.1	1.4077e-002
5380	2.5825	2.9091	0.1	1.4793e-002
5381	2.5825	3.0909	0.1	1.4793e-002
5382	2.5825	3.2727	0.1	1.4077e-002
5383	2.5825	3.4545	0.1	1.2508e-002
5384	2.5825	3.6364	0.1	9.8121e-003
5385	2.5825	3.8182	0.1	5.56e-003
5386	2.5825	4.	0.1	-8.3422e-004
5387	2.5825	4.1818	0.1	-1.0138e-002
5388	2.5825	4.3636	0.1	-2.3291e-002
5389	2.5825	4.5455	0.1	-4.1568e-002
5390	2.5825	4.7273	0.1	-6.6216e-002
5391	2.5825	4.9091	0.1	-0.10065
5392	2.5825	5.0909	0.1	-0.14393
5393	2.5825	5.2727	0.1	-0.22383
5394	2.5825	5.4545	0.1	-0.28159
5395	2.5825	5.6364	0.1	-0.82143
5396	2.5825	5.8182	0.1	-2.1388
5397	2.767	0.18182	0.1	-1.7116
5398	2.767	0.36364	0.1	-0.73873
5399	2.767	0.54545	0.1	-0.25172
5400	2.767	0.72727	0.1	-0.20245
5401	2.767	0.90909	0.1	-0.13069
5402	2.767	1.0909	0.1	-9.1816e-002
5403	2.767	1.2727	0.1	-6.0398e-002
5404	2.767	1.4545	0.1	-3.748e-002
5405	2.767	1.6364	0.1	-2.006e-002
5406	2.767	1.8182	0.1	-7.1387e-003
5407	2.767	2.	0.1	2.324e-003
5408	2.767	2.1818	0.1	9.085e-003
5409	2.767	2.3636	0.1	1.377e-002
5410	2.767	2.5455	0.1	1.6865e-002
5411	2.767	2.7273	0.1	1.8732e-002
5412	2.767	2.9091	0.1	1.9607e-002
5413	2.767	3.0909	0.1	1.9607e-002
5414	2.767	3.2727	0.1	1.8732e-002
5415	2.767	3.4545	0.1	1.6865e-002
5416	2.767	3.6364	0.1	1.377e-002
5417	2.767	3.8182	0.1	9.0851e-003
5418	2.767	4.	0.1	2.3243e-003
5419	2.767	4.1818	0.1	-7.1383e-003
5420	2.767	4.3636	0.1	-2.006e-002
5421	2.767	4.5455	0.1	-3.748e-002
5422	2.767	4.7273	0.1	-6.0397e-002
5423	2.767	4.9091	0.1	-9.1816e-002
5424	2.767	5.0909	0.1	-0.13069
5425	2.767	5.2727	0.1	-0.20245
5426	2.767	5.4545	0.1	-0.25172
5427	2.767	5.6364	0.1	-0.73873
5428	2.767	5.8182	0.1	-1.7116
5429	2.9515	0.18182	0.1	-1.391
5430	2.9515	0.36364	0.1	-0.66604
5431	2.9515	0.54545	0.1	-0.22541
5432	2.9515	0.72727	0.1	-0.18321
5433	2.9515	0.90909	0.1	-0.1186
5434	2.9515	1.0909	0.1	-8.3614e-002
5435	2.9515	1.2727	0.1	-5.4979e-002
5436	2.9515	1.4545	0.1	-3.3777e-002
5437	2.9515	1.6364	0.1	-1.7339e-002
5438	2.9515	1.8182	0.1	-4.8497e-003
5439	2.9515	2.	0.1	4.5479e-003
5440	2.9515	2.1818	0.1	1.1463e-002
5441	2.9515	2.3636	0.1	1.6401e-002
5442	2.9515	2.5455	0.1	1.9758e-002
5443	2.9515	2.7273	0.1	2.1832e-002
5444	2.9515	2.9091	0.1	2.2821e-002
5445	2.9515	3.0909	0.1	2.2821e-002
5446	2.9515	3.2727	0.1	2.1833e-002
5447	2.9515	3.4545	0.1	1.9758e-002
5448	2.9515	3.6364	0.1	1.6401e-002
5449	2.9515	3.8182	0.1	1.1463e-002
5450	2.9515	4.	0.1	4.5482e-003
5451	2.9515	4.1818	0.1	-4.8494e-003
5452	2.9515	4.3636	0.1	-1.7339e-002
5453	2.9515	4.5455	0.1	-3.3776e-002
5454	2.9515	4.7273	0.1	-5.4978e-002
5455	2.9515	4.9091	0.1	-8.3614e-002
5456	2.9515	5.0909	0.1	-0.11859
5457	2.9515	5.2727	0.1	-0.18321
5458	2.9515	5.4545	0.1	-0.22541
5459	2.9515	5.6364	0.1	-0.66604
5460	2.9515	5.8182	0.1	-1.391
5461	3.1359	0.18182	0.1	-1.1451
5462	3.1359	0.36364	0.1	-0.60183
5463	3.1359	0.54545	0.1	-0.20218
5464	3.1359	0.72727	0.1	-0.16593
5465	3.1359	0.90909	0.1	-0.1076
5466	3.1359	1.0909	0.1	-7.6066e-002
5467	3.1359	1.2727	0.1	-4.998e-002
5468	3.1359	1.4545	0.1	-3.0436e-002
5469	3.1359	1.6364	0.1	-1.5042e-002
5470	3.1359	1.8182	0.1	-3.1207e-003
5471	3.1359	2.	0.1	6.0425e-003
5472	3.1359	2.1818	0.1	1.2939e-002
5473	3.1359	2.3636	0.1	1.7977e-002
5474	3.1359	2.5455	0.1	2.1474e-002
5475	3.1359	2.7273	0.1	2.3673e-002
5476	3.1359	2.9091	0.1	2.4732e-002
5477	3.1359	3.0909	0.1	2.4732e-002
5478	3.1359	3.2727	0.1	2.3673e-002
5479	3.1359	3.4545	0.1	2.1474e-002
5480	3.1359	3.6364	0.1	1.7977e-002
5481	3.1359	3.8182	0.1	1.294e-002
5482	3.1359	4.	0.1	6.0427e-003
5483	3.1359	4.1818	0.1	-3.1202e-003
5484	3.1359	4.3636	0.1	-1.5042e-002
5485	3.1359	4.5455	0.1	-3.0436e-002
5486	3.1359	4.7273	0.1	-4.9979e-002
5487	3.1359	4.9091	0.1	-7.6066e-002
5488	3.1359	5.0909	0.1	-0.10759
5489	3.1359	5.2727	0.1	-0.16593
5490	3.1359	5.4545	0.1	-0.20218
5491	3.1359	5.6364	0.1	-0.60183
5492	3.1359	5.8182	0.1	-1.1451
5493	3.3204	0.18182	0.1	-0.95295
5494	3.3204	0.36364	0.1	-0.54482
5495	3.3204	0.54545	0.1	-0.18161
5496	3.3204	0.72727	0.1	-0.15036
5497	3.3204	0.90909	0.1	-9.7599e-002
5498	3.3204	1.0909	0.1	-6.9137e-002
5499	3.3204	1.2727	0.1	-4.5377e-002
5500	3.3204	1.4545	0.1	-2.7409e-002
5501	3.3204	1.6364	0.1	-1.3075e-002
5502	3.3204	1.8182	0.1	-1.8054e-003
5503	3.3204	2.	0.1	7.0027e-003
5504	3.3204	2.1818	0.1	1.3751e-002
5505	3.3204	2.3636	0.1	1.8765e-002
5506	3.3204	2.5455	0.1	2.2301e-002
5507	3.3204	2.7273	0.1	2.4552e-002
5508	3.3204	2.9091	0.1	2.5645e-002
5509	3.3204	3.0909	0.1	2.5645e-002
5510	3.3204	3.2727	0.1	2.4552e-002
5511	3.3204	3.4545	0.1	2.2301e-002
5512	3.3204	3.6364	0.1	1.8765e-002
5513	3.3204	3.8182	0.1	1.3751e-002
5514	3.3204	4.	0.1	7.0032e-003
5515	3.3204	4.1818	0.1	-1.8049e-003
5516	3.3204	4.3636	0.1	-1.3074e-002
5517	3.3204	4.5455	0.1	-2.7408e-002
5518	3.3204	4.7273	0.1	-4.5376e-002
5519	3.3204	4.9091	0.1	-6.9137e-002
5520	3.3204	5.0909	0.1	-9.7598e-002
5521	3.3204	5.2727	0.1	-0.15036
5522	3.3204	5.4545	0.1	-0.18161
5523	3.3204	5.6364	0.1	-0.54482
5524	3.3204	5.8182	0.1	-0.95295
5525	3.5049	0.18182	0.1	-0.80059
5526	3.5049	0.36364	0.1	-0.494
5527	3.5049	0.54545	0.1	-0.16335
5528	3.5049	0.72727	0.1	-0.13635
5529	3.5049	0.90909	0.1	-8.8541e-002
5530	3.5049	1.0909	0.1	-6.2813e-002
5531	3.5049	1.2727	0.1	-4.117e-002
5532	3.5049	1.4545	0.1	-2.4682e-002
5533	3.5049	1.6364	0.1	-1.1395e-002
5534	3.5049	1.8182	0.1	-8.2307e-004
5535	3.5049	2.	0.1	7.5505e-003
5536	3.5049	2.1818	0.1	1.4054e-002
5537	3.5049	2.3636	0.1	1.8952e-002
5538	3.5049	2.5455	0.1	2.2447e-002
5539	3.5049	2.7273	0.1	2.4693e-002
5540	3.5049	2.9091	0.1	2.5791e-002
5541	3.5049	3.0909	0.1	2.5791e-002
5542	3.5049	3.2727	0.1	2.4693e-002
5543	3.5049	3.4545	0.1	2.2447e-002
5544	3.5049	3.6364	0.1	1.8952e-002
5545	3.5049	3.8182	0.1	1.4054e-002
5546	3.5049	4.	0.1	7.5508e-003
5547	3.5049	4.1818	0.1	-8.2263e-004
5548	3.5049	4.3636	0.1	-1.1395e-002
5549	3.5049	4.5455	0.1	-2.4682e-002
5550	3.5049	4.7273	0.1	-4.1169e-002
5551	3.5049	4.9091	0.1	-6.2812e-002
5552	3.5049	5.0909	0.1	-8.854e-002
5553	3.5049	5.2727	0.1	-0.13635
5554	3.5049	5.4545	0.1	-0.16335
5555	3.5049	5.6364	0.1	-0.494
5556	3.5049	5.8182	0.1	-0.80059
5557	3.6893	0.18182	0.1	-0.67821
5558	3.6893	0.36364	0.1	-0.44852
5559	3.6893	0.54545	0.1	-0.1471
5560	3.6893	0.72727	0.1	-0.12371
5561	3.6893	0.90909	0.1	-8.0328e-002
5562	3.6893	1.0909	0.1	-5.7044e-002
5563	3.6893	1.2727	0.1	-3.7329e-002
5564	3.6893	1.4545	0.1	-2.2222e-002
5565	3.6893	1.6364	0.1	-9.9481e-003
5566	3.6893	1.8182	0.1	-8.917e-005
5567	3.6893	2.	0.1	7.8014e-003
5568	3.6893	2.1818	0.1	1.3997e-002
5569	3.6893	2.3636	0.1	1.8711e-002
5570	3.6893	2.5455	0.1	2.2106e-002
5571	3.6893	2.7273	0.1	2.4303e-002
5572	3.6893	2.9091	0.1	2.5382e-002
5573	3.6893	3.0909	0.1	2.5382e-002
5574	3.6893	3.2727	0.1	2.4303e-002
5575	3.6893	3.4545	0.1	2.2106e-002
5576	3.6893	3.6364	0.1	1.8711e-002
5577	3.6893	3.8182	0.1	1.3997e-002
5578	3.6893	4.	0.1	7.8018e-003
5579	3.6893	4.1818	0.1	-8.8698e-005
5580	3.6893	4.3636	0.1	-9.9474e-003
5581	3.6893	4.5455	0.1	-2.2221e-002
5582	3.6893	4.7273	0.1	-3.7328e-002
5583	3.6893	4.9091	0.1	-5.7043e-002
5584	3.6893	5.0909	0.1	-8.0327e-002
5585	3.6893	5.2727	0.1	-0.12371
5586	3.6893	5.4545	0.1	-0.1471
5587	3.6893	5.6364	0.1	-0.44852
5588	3.6893	5.8182	0.1	-0.67821
5589	3.8738	0.18182	0.1	-0.57885
5590	3.8738	0.36364	0.1	-0.4077
5591	3.8738	0.54545	0.1	-0.13261
5592	3.8738	0.72727	0.1	-0.11231
5593	3.8738	0.90909	0.1	-7.2904e-002
5594	3.8738	1.0909	0.1	-5.1812e-002
5595	3.8738	1.2727	0.1	-3.3851e-002
5596	3.8738	1.4545	0.1	-2.0025e-002
5597	3.8738	1.6364	0.1	-8.7194e-003
5598	3.8738	1.8182	0.1	4.3059e-004
5599	3.8738	2.	0.1	7.8146e-003
5600	3.8738	2.1818	0.1	1.3661e-002
5601	3.8738	2.3636	0.1	1.8147e-002
5602	3.8738	2.5455	0.1	2.1399e-002
5603	3.8738	2.7273	0.1	2.3517e-002
5604	3.8738	2.9091	0.1	2.456e-002
5605	3.8738	3.0909	0.1	2.456e-002
5606	3.8738	3.2727	0.1	2.3517e-002
5607	3.8738	3.4545	0.1	2.14e-002
5608	3.8738	3.6364	0.1	1.8147e-002
5609	3.8738	3.8182	0.1	1.3662e-002
5610	3.8738	4.	0.1	7.8149e-003
5611	3.8738	4.1818	0.1	4.3089e-004
5612	3.8738	4.3636	0.1	-8.7189e-003
5613	3.8738	4.5455	0.1	-2.0025e-002
5614	3.8738	4.7273	0.1	-3.385e-002
5615	3.8738	4.9091	0.1	-5.1811e-002
5616	3.8738	5.0909	0.1	-7.2903e-002
5617	3.8738	5.2727	0.1	-0.11231
5618	3.8738	5.4545	0.1	-0.13261
5619	3.8738	5.6364	0.1	-0.4077
5620	3.8738	5.8182	0.1	-0.57885
5621	4.0583	0.18182	0.1	-0.49745
5622	4.0583	0.36364	0.1	-0.37096
5623	4.0583	0.54545	0.1	-0.11968
5624	4.0583	0.72727	0.1	-0.10202
5625	4.0583	0.90909	0.1	-6.62e-002
5626	4.0583	1.0909	0.1	-4.7078e-002
5627	4.0583	1.2727	0.1	-3.0715e-002
5628	4.0583	1.4545	0.1	-1.8074e-002
5629	4.0583	1.6364	0.1	-7.683e-003
5630	4.0583	1.8182	0.1	7.766e-004
5631	4.0583	2.	0.1	7.6481e-003
5632	4.0583	2.1818	0.1	1.3125e-002
5633	4.0583	2.3636	0.1	1.7354e-002
5634	4.0583	2.5455	0.1	2.0437e-002
5635	4.0583	2.7273	0.1	2.2453e-002
5636	4.0583	2.9091	0.1	2.3449e-002
5637	4.0583	3.0909	0.1	2.3449e-002
5638	4.0583	3.2727	0.1	2.2453e-002
5639	4.0583	3.4545	0.1	2.0438e-002
5640	4.0583	3.6364	0.1	1.7354e-002
5641	4.0583	3.8182	0.1	1.3126e-002
5642	4.0583	4.	0.1	7.6485e-003
5643	4.0583	4.1818	0.1	7.7711e-004
5644	4.0583	4.3636	0.1	-7.6825e-003
5645	4.0583	4.5455	0.1	-1.8073e-002
5646	4.0583	4.7273	0.1	-3.0714e-002
5647	4.0583	4.9091	0.1	-4.7078e-002
5648	4.0583	5.0909	0.1	-6.6198e-002
5649	4.0583	5.2727	0.1	-0.10202
5650	4.0583	5.4545	0.1	-0.11968
5651	4.0583	5.6364	0.1	-0.37095
5652	4.0583	5.8182	0.1	-0.49744
5653	4.2427	0.18182	0.1	-0.43022
5654	4.2427	0.36364	0.1	-0.33779
5655	4.2427	0.54545	0.1	-0.1081
5656	4.2427	0.72727	0.1	-9.2727e-002
5657	4.2427	0.90909	0.1	-6.0136e-002
5658	4.2427	1.0909	0.1	-4.2793e-002
5659	4.2427	1.2727	0.1	-2.7885e-002
5660	4.2427	1.4545	0.1	-1.6337e-002
5661	4.2427	1.6364	0.1	-6.8042e-003
5662	4.2427	1.8182	0.1	9.9286e-004
5663	4.2427	2.	0.1	7.3586e-003
5664	4.2427	2.1818	0.1	1.246e-002
5665	4.2427	2.3636	0.1	1.6417e-002
5666	4.2427	2.5455	0.1	1.9315e-002
5667	4.2427	2.7273	0.1	2.1216e-002
5668	4.2427	2.9091	0.1	2.2157e-002
5669	4.2427	3.0909	0.1	2.2157e-002
5670	4.2427	3.2727	0.1	2.1216e-002
5671	4.2427	3.4545	0.1	1.9315e-002
5672	4.2427	3.6364	0.1	1.6417e-002
5673	4.2427	3.8182	0.1	1.246e-002
5674	4.2427	4.	0.1	7.359e-003
5675	4.2427	4.1818	0.1	9.9337e-004
5676	4.2427	4.3636	0.1	-6.8037e-003
5677	4.2427	4.5455	0.1	-1.6336e-002
5678	4.2427	4.7273	0.1	-2.7885e-002
5679	4.2427	4.9091	0.1	-4.2792e-002
5680	4.2427	5.0909	0.1	-6.0135e-002
5681	4.2427	5.2727	0.1	-9.2727e-002
5682	4.2427	5.4545	0.1	-0.1081
5683	4.2427	5.6364	0.1	-0.33779
5684	4.2427	5.8182	0.1	-0.43022
5685	4.4272	0.18182	0.1	-0.37434
5686	4.4272	0.36364	0.1	-0.3078
5687	4.4272	0.54545	0.1	-9.7725e-002
5688	4.4272	0.72727	0.1	-8.4322e-002
5689	4.4272	0.90909	0.1	-5.4659e-002
5690	4.4272	1.0909	0.1	-3.8923e-002
5691	4.4272	1.2727	0.1	-2.5343e-002
5692	4.4272	1.4545	0.1	-1.4801e-002
5693	4.4272	1.6364	0.1	-6.0697e-003
5694	4.4272	1.8182	0.1	1.0984e-003
5695	4.4272	2.	0.1	6.9741e-003
5696	4.4272	2.1818	0.1	1.1702e-002
5697	4.4272	2.3636	0.1	1.5384e-002
5698	4.4272	2.5455	0.1	1.8089e-002
5699	4.4272	2.7273	0.1	1.9868e-002
5700	4.4272	2.9091	0.1	2.0751e-002
5701	4.4272	3.0909	0.1	2.0751e-002
5702	4.4272	3.2727	0.1	1.9868e-002
5703	4.4272	3.4545	0.1	1.8089e-002
5704	4.4272	3.6364	0.1	1.5384e-002
5705	4.4272	3.8182	0.1	1.1702e-002
5706	4.4272	4.	0.1	6.9746e-003
5707	4.4272	4.1818	0.1	1.0989e-003
5708	4.4272	4.3636	0.1	-6.0691e-003
5709	4.4272	4.5455	0.1	-1.48e-002
5710	4.4272	4.7273	0.1	-2.5343e-002
5711	4.4272	4.9091	0.1	-3.8922e-002
5712	4.4272	5.0909	0.1	-5.4658e-002
5713	4.4272	5.2727	0.1	-8.4322e-002
5714	4.4272	5.4545	0.1	-9.7725e-002
5715	4.4272	5.6364	0.1	-0.3078
5716	4.4272	5.8182	0.1	-0.37434
5717	4.6117	0.18182	0.1	-0.32762
5718	4.6117	0.36364	0.1	-0.28062
5719	4.6117	0.54545	0.1	-8.8401e-002
5720	4.6117	0.72727	0.1	-7.6708e-002
5721	4.6117	0.90909	0.1	-4.9704e-002
5722	4.6117	1.0909	0.1	-3.5422e-002
5723	4.6117	1.2727	0.1	-2.3055e-002
5724	4.6117	1.4545	0.1	-1.3438e-002
5725	4.6117	1.6364	0.1	-5.4514e-003
5726	4.6117	1.8182	0.1	1.1241e-003
5727	4.6117	2.	0.1	6.5313e-003
5728	4.6117	2.1818	0.1	1.0896e-002
5729	4.6117	2.3636	0.1	1.4305e-002
5730	4.6117	2.5455	0.1	1.6817e-002
5731	4.6117	2.7273	0.1	1.8472e-002
5732	4.6117	2.9091	0.1	1.9295e-002
5733	4.6117	3.0909	0.1	1.9295e-002
5734	4.6117	3.2727	0.1	1.8472e-002
5735	4.6117	3.4545	0.1	1.6817e-002
5736	4.6117	3.6364	0.1	1.4306e-002
5737	4.6117	3.8182	0.1	1.0896e-002
5738	4.6117	4.	0.1	6.5317e-003
5739	4.6117	4.1818	0.1	1.1247e-003
5740	4.6117	4.3636	0.1	-5.4509e-003
5741	4.6117	4.5455	0.1	-1.3437e-002
5742	4.6117	4.7273	0.1	-2.3055e-002
5743	4.6117	4.9091	0.1	-3.5422e-002
5744	4.6117	5.0909	0.1	-4.9702e-002
5745	4.6117	5.2727	0.1	-7.6708e-002
5746	4.6117	5.4545	0.1	-8.8401e-002
5747	4.6117	5.6364	0.1	-0.28062
5748	4.6117	5.8182	0.1	-0.32762
5749	4.7961	0.18182	0.1	-0.28839
5750	4.7961	0.36364	0.1	-0.25595
5751	4.7961	0.54545	0.1	-8.0017e-002
5752	4.7961	0.72727	0.1	-6.9812e-002
5753	4.7961	0.90909	0.1	-4.5225e-002
5754	4.7961	1.0909	0.1	-3.2265e-002
5755	4.7961	1.2727	0.1	-2.1005e-002
5756	4.7961	1.4545	0.1	-1.2238e-002
5757	4.7961	1.6364	0.1	-4.9414e-003
5758	4.7961	1.8182	0.1	1.0796e-003
5759	4.7961	2.	0.1	6.0431e-003
5760	4.7961	2.1818	0.1	1.006e-002
5761	4.7961	2.3636	0.1	1.3205e-002
5762	4.7961	2.5455	0.1	1.5526e-002
5763	4.7961	2.7273	0.1	1.7059e-002
5764	4.7961	2.9091	0.1	1.7821e-002
5765	4.7961	3.0909	0.1	1.7821e-002
5766	4.7961	3.2727	0.1	1.7059e-002
5767	4.7961	3.4545	0.1	1.5526e-002
5768	4.7961	3.6364	0.1	1.3205e-002
5769	4.7961	3.8182	0.1	1.006e-002
5770	4.7961	4.	0.1	6.0436e-003
5771	4.7961	4.1818	0.1	1.0801e-003
5772	4.7961	4.3636	0.1	-4.9409e-003
5773	4.7961	4.5455	0.1	-1.2237e-002
5774	4.7961	4.7273	0.1	-2.1005e-002
5775	4.7961	4.9091	0.1	-3.2264e-002
5776	4.7961	5.0909	0.1	-4.5224e-002
5777	4.7961	5.2727	0.1	-6.9811e-002
5778	4.7961	5.4545	0.1	-8.0017e-002
5779	4.7961	5.6364	0.1	-0.25595
5780	4.7961	5.8182	0.1	-0.28839
5781	4.9806	0.18182	0.1	-0.25531
5782	4.9806	0.36364	0.1	-0.23352
5783	4.9806	0.54545	0.1	-7.2461e-002
5784	4.9806	0.72727	0.1	-6.3554e-002
5785	4.9806	0.90909	0.1	-4.117e-002
5786	4.9806	1.0909	0.1	-2.941e-002
5787	4.9806	1.2727	0.1	-1.9164e-002
5788	4.9806	1.4545	0.1	-1.1177e-002
5789	4.9806	1.6364	0.1	-4.518e-003
5790	4.9806	1.8182	0.1	9.8675e-004
5791	4.9806	2.	0.1	5.5332e-003
5792	4.9806	2.1818	0.1	9.22e-003
5793	4.9806	2.3636	0.1	1.2112e-002
5794	4.9806	2.5455	0.1	1.4249e-002
5795	4.9806	2.7273	0.1	1.5663e-002
5796	4.9806	2.9091	0.1	1.6366e-002
5797	4.9806	3.0909	0.1	1.6366e-002
5798	4.9806	3.2727	0.1	1.5663e-002
5799	4.9806	3.4545	0.1	1.425e-002
5800	4.9806	3.6364	0.1	1.2112e-002
5801	4.9806	3.8182	0.1	9.2204e-003
5802	4.9806	4.	0.1	5.5338e-003
5803	4.9806	4.1818	0.1	9.8714e-004
5804	4.9806	4.3636	0.1	-4.5175e-003
5805	4.9806	4.5455	0.1	-1.1176e-002
5806	4.9806	4.7273	0.1	-1.9163e-002
5807	4.9806	4.9091	0.1	-2.941e-002
5808	4.9806	5.0909	0.1	-4.1168e-002
5809	4.9806	5.2727	0.1	-6.3553e-002
5810	4.9806	5.4545	0.1	-7.2461e-002
5811	4.9806	5.6364	0.1	-0.23352
5812	4.9806	5.8182	0.1	-0.25531
5813	5.165	0.18182	0.1	-0.22734
5814	5.165	0.36364	0.1	-0.2131
5815	5.165	0.54545	0.1	-6.5649e-002
5816	5.165	0.72727	0.1	-5.7877e-002
5817	5.165	0.90909	0.1	-3.7502e-002
5818	5.165	1.0909	0.1	-2.6837e-002
5819	5.165	1.2727	0.1	-1.7516e-002
5820	5.165	1.4545	0.1	-1.0246e-002
5821	5.165	1.6364	0.1	-4.1755e-003
5822	5.165	1.8182	0.1	8.4964e-004
5823	5.165	2.	0.1	5.007e-003
5824	5.165	2.1818	0.1	8.383e-003
5825	5.165	2.3636	0.1	1.1035e-002
5826	5.165	2.5455	0.1	1.2998e-002
5827	5.165	2.7273	0.1	1.4296e-002
5828	5.165	2.9091	0.1	1.4943e-002
5829	5.165	3.0909	0.1	1.4943e-002
5830	5.165	3.2727	0.1	1.4297e-002
5831	5.165	3.4545	0.1	1.2998e-002
5832	5.165	3.6364	0.1	1.1035e-002
5833	5.165	3.8182	0.1	8.3832e-003
5834	5.165	4.	0.1	5.0072e-003
5835	5.165	4.1818	0.1	8.5027e-004
5836	5.165	4.3636	0.1	-4.1749e-003
5837	5.165	4.5455	0.1	-1.0245e-002
5838	5.165	4.7273	0.1	-1.7515e-002
5839	5.165	4.9091	0.1	-2.6836e-002
5840	5.165	5.0909	0.1	-3.7501e-002
5841	5.165	5.2727	0.1	-5.7877e-002
5842	5.165	5.4545	0.1	-6.5649e-002
5843	5.165	5.6364	0.1	-0.2131
5844	5.165	5.8182	0.1	-0.22734
5845	5.3495	0.18182	0.1	-0.20366
5846	5.3495	0.36364	0.1	-0.1945
5847	5.3495	0.54545	0.1	-5.9499e-002
5848	5.3495	0.72727	0.1	-5.2724e-002
5849	5.3495	0.90909	0.1	-3.4184e-002
5850	5.3495	1.0909	0.1	-2.4516e-002
5851	5.3495	1.2727	0.1	-1.6043e-002
5852	5.3495	1.4545	0.1	-9.431e-003
5853	5.3495	1.6364	0.1	-3.9027e-003
5854	5.3495	1.8182	0.1	6.7891e-004
5855	5.3495	2.	0.1	4.4738e-003
5856	5.3495	2.1818	0.1	7.5594e-003
5857	5.3495	2.3636	0.1	9.986e-003
5858	5.3495	2.5455	0.1	1.1784e-002
5859	5.3495	2.7273	0.1	1.2974e-002
5860	5.3495	2.9091	0.1	1.3567e-002
5861	5.3495	3.0909	0.1	1.3567e-002
5862	5.3495	3.2727	0.1	1.2974e-002
5863	5.3495	3.4545	0.1	1.1784e-002
5864	5.3495	3.6364	0.1	9.9864e-003
5865	5.3495	3.8182	0.1	7.5598e-003
5866	5.3495	4.	0.1	4.4741e-003
5867	5.3495	4.1818	0.1	6.7944e-004
5868	5.3495	4.3636	0.1	-3.9022e-003
5869	5.3495	4.5455	0.1	-9.4303e-003
5870	5.3495	4.7273	0.1	-1.6043e-002
5871	5.3495	4.9091	0.1	-2.4515e-002
5872	5.3495	5.0909	0.1	-3.4183e-002
5873	5.3495	5.2727	0.1	-5.2723e-002
5874	5.3495	5.4545	0.1	-5.9499e-002
5875	5.3495	5.6364	0.1	-0.1945
5876	5.3495	5.8182	0.1	-0.20366
5877	5.534	0.18182	0.1	-0.18359
5878	5.534	0.36364	0.1	-0.17753
5879	5.534	0.54545	0.1	-5.3931e-002
5880	5.534	0.72727	0.1	-4.8034e-002
5881	5.534	0.90909	0.1	-3.1173e-002
5882	5.534	1.0909	0.1	-2.2414e-002
5883	5.534	1.2727	0.1	-1.4718e-002
5884	5.534	1.4545	0.1	-8.7101e-003
5885	5.534	1.6364	0.1	-3.6808e-003
5886	5.534	1.8182	0.1	4.9107e-004
5887	5.534	2.	0.1	3.9499e-003
5888	5.534	2.1818	0.1	6.7654e-003
5889	5.534	2.3636	0.1	8.9812e-003
5890	5.534	2.5455	0.1	1.0624e-002
5891	5.534	2.7273	0.1	1.1712e-002
5892	5.534	2.9091	0.1	1.2255e-002
5893	5.534	3.0909	0.1	1.2255e-002
5894	5.534	3.2727	0.1	1.1713e-002
5895	5.534	3.4545	0.1	1.0624e-002
5896	5.534	3.6364	0.1	8.9815e-003
5897	5.534	3.8182	0.1	6.7656e-003
5898	5.534	4.	0.1	3.9504e-003
5899	5.534	4.1818	0.1	4.9152e-004
5900	5.534	4.3636	0.1	-3.6802e-003
5901	5.534	4.5455	0.1	-8.7094e-003
5902	5.534	4.7273	0.1	-1.4718e-002
5903	5.534	4.9091	0.1	-2.2414e-002
5904	5.534	5.0909	0.1	-3.1171e-002
5905	5.534	5.2727	0.1	-4.8033e-002
5906	5.534	5.4545	0.1	-5.3931e-002
5907	5.534	5.6364	0.1	-0.17752
5908	5.534	5.8182	0.1	-0.18358
5909	5.7184	0.18182	0.1	-0.1666
5910	5.7184	0.36364	0.1	-0.16203
5911	5.7184	0.54545	0.1	-4.8893e-002
5912	5.7184	0.72727	0.1	-4.3769e-002
5913	5.7184	0.90909	0.1	-2.8444e-002
5914	5.7184	1.0909	0.1	-2.0517e-002
5915	5.7184	1.2727	0.1	-1.3534e-002
5916	5.7184	1.4545	0.1	-8.0794e-003
5917	5.7184	1.6364	0.1	-3.5094e-003
5918	5.7184	1.8182	0.1	2.846e-004
5919	5.7184	2.	0.1	3.4328e-003
5920	5.7184	2.1818	0.1	5.9976e-003
5921	5.7184	2.3636	0.1	8.0178e-003
5922	5.7184	2.5455	0.1	9.5159e-003
5923	5.7184	2.7273	0.1	1.0509e-002
5924	5.7184	2.9091	0.1	1.1005e-002
5925	5.7184	3.0909	0.1	1.1005e-002
5926	5.7184	3.2727	0.1	1.0509e-002
5927	5.7184	3.4545	0.1	9.5162e-003
5928	5.7184	3.6364	0.1	8.0181e-003
5929	5.7184	3.8182	0.1	5.998e-003
5930	5.7184	4.	0.1	3.4334e-003
5931	5.7184	4.1818	0.1	2.8511e-004
5932	5.7184	4.3636	0.1	-3.5087e-003
5933	5.7184	4.5455	0.1	-8.0786e-003
5934	5.7184	4.7273	0.1	-1.3533e-002
5935	5.7184	4.9091	0.1	-2.0517e-002
5936	5.7184	5.0909	0.1	-2.8443e-002
5937	5.7184	5.2727	0.1	-4.3768e-002
5938	5.7184	5.4545	0.1	-4.8892e-002
5939	5.7184	5.6364	0.1	-0.16203
5940	5.7184	5.8182	0.1	-0.1666
5941	5.9029	0.18182	0.1	-0.15227
5942	5.9029	0.36364	0.1	-0.14785
5943	5.9029	0.54545	0.1	-4.4313e-002
5944	5.9029	0.72727	0.1	-3.9873e-002
5945	5.9029	0.90909	0.1	-2.5957e-002
5946	5.9029	1.0909	0.1	-1.879e-002
5947	5.9029	1.2727	0.1	-1.246e-002
5948	5.9029	1.4545	0.1	-7.5145e-003
5949	5.9029	1.6364	0.1	-3.3665e-003
5950	5.9029	1.8182	0.1	7.9383e-005
5951	5.9029	2.	0.1	2.941e-003
5952	5.9029	2.1818	0.1	5.2736e-003
5953	5.9029	2.3636	0.1	7.1123e-003
5954	5.9029	2.5455	0.1	8.4763e-003
5955	5.9029	2.7273	0.1	9.3813e-003
5956	5.9029	2.9091	0.1	9.8327e-003
5957	5.9029	3.0909	0.1	9.8327e-003
5958	5.9029	3.2727	0.1	9.3814e-003
5959	5.9029	3.4545	0.1	8.4766e-003
5960	5.9029	3.6364	0.1	7.1125e-003
5961	5.9029	3.8182	0.1	5.2741e-003
5962	5.9029	4.	0.1	2.9412e-003
5963	5.9029	4.1818	0.1	7.977e-005
5964	5.9029	4.3636	0.1	-3.366e-003
5965	5.9029	4.5455	0.1	-7.5137e-003
5966	5.9029	4.7273	0.1	-1.2459e-002
5967	5.9029	4.9091	0.1	-1.879e-002
5968	5.9029	5.0909	0.1	-2.5956e-002
5969	5.9029	5.2727	0.1	-3.9872e-002
5970	5.9029	5.4545	0.1	-4.4313e-002
5971	5.9029	5.6364	0.1	-0.14785
5972	5.9029	5.8182	0.1	-0.15226
5973	6.0874	0.18182	0.1	-0.14026
5974	6.0874	0.36364	0.1	-0.13489
5975	6.0874	0.54545	0.1	-4.0159e-002
5976	6.0874	0.72727	0.1	-3.6326e-002
5977	6.0874	0.90909	0.1	-2.3701e-002
5978	6.0874	1.0909	0.1	-1.7231e-002
5979	6.0874	1.2727	0.1	-1.15e-002
5980	6.0874	1.4545	0.1	-7.0214e-003
5981	6.0874	1.6364	0.1	-3.2616e-003
5982	6.0874	1.8182	0.1	-1.36e-004
5983	6.0874	2.	0.1	2.461e-003
5984	6.0874	2.1818	0.1	4.58e-003
5985	6.0874	2.3636	0.1	6.2505e-003
5986	6.0874	2.5455	0.1	7.4907e-003
5987	6.0874	2.7273	0.1	8.3134e-003
5988	6.0874	2.9091	0.1	8.7241e-003
5989	6.0874	3.0909	0.1	8.7242e-003
5990	6.0874	3.2727	0.1	8.3136e-003
5991	6.0874	3.4545	0.1	7.491e-003
5992	6.0874	3.6364	0.1	6.251e-003
5993	6.0874	3.8182	0.1	4.5804e-003
5994	6.0874	4.	0.1	2.4616e-003
5995	6.0874	4.1818	0.1	-1.3558e-004
5996	6.0874	4.3636	0.1	-3.2609e-003
5997	6.0874	4.5455	0.1	-7.0207e-003
5998	6.0874	4.7273	0.1	-1.1499e-002
5999	6.0874	4.9091	0.1	-1.723e-002
6000	6.0874	5.0909	0.1	-2.37e-002
6001	6.0874	5.2727	0.1	-3.6325e-002
6002	6.0874	5.4545	0.1	-4.0159e-002
6003	6.0874	5.6364	0.1	-0.13489
6004	6.0874	5.8182	0.1	-0.14026
6005	6.2718	0.18182	0.1	-0.13034
6006	6.2718	0.36364	0.1	-0.12303
6007	6.2718	0.54545	0.1	-3.639e-002
6008	6.2718	0.72727	0.1	-3.3096e-002
6009	6.2718	0.90909	0.1	-2.1655e-002
6010	6.2718	1.0909	0.1	-1.5823e-002
6011	6.2718	1.2727	0.1	-1.0642e-002
6012	6.2718	1.4545	0.1	-6.5926e-003
6013	6.2718	1.6364	0.1	-3.1894e-003
6014	6.2718	1.8182	0.1	-3.5888e-004
6015	6.2718	2.	0.1	1.9951e-003
6016	6.2718	2.1818	0.1	3.9167e-003
6017	6.2718	2.3636	0.1	5.4324e-003
6018	6.2718	2.5455	0.1	6.5579e-003
6019	6.2718	2.7273	0.1	7.3051e-003
6020	6.2718	2.9091	0.1	7.6779e-003
6021	6.2718	3.0909	0.1	7.678e-003
6022	6.2718	3.2727	0.1	7.3052e-003
6023	6.2718	3.4545	0.1	6.558e-003
6024	6.2718	3.6364	0.1	5.4327e-003
6025	6.2718	3.8182	0.1	3.9169e-003
6026	6.2718	4.	0.1	1.9956e-003
6027	6.2718	4.1818	0.1	-3.582e-004
6028	6.2718	4.3636	0.1	-3.189e-003
6029	6.2718	4.5455	0.1	-6.592e-003
6030	6.2718	4.7273	0.1	-1.0641e-002
6031	6.2718	4.9091	0.1	-1.5822e-002
6032	6.2718	5.0909	0.1	-2.1654e-002
6033	6.2718	5.2727	0.1	-3.3095e-002
6034	6.2718	5.4545	0.1	-3.6389e-002
6035	6.2718	5.6364	0.1	-0.12303
6036	6.2718	5.8182	0.1	-0.13034
6037	6.4563	0.18182	0.1	-0.12232
6038	6.4563	0.36364	0.1	-0.11217
6039	6.4563	0.54545	0.1	-3.2955e-002
6040	6.4563	0.72727	0.1	-3.0143e-002
6041	6.4563	0.90909	0.1	-1.979e-002
6042	6.4563	1.0909	0.1	-1.4542e-002
6043	6.4563	1.2727	0.1	-9.8666e-003
6044	6.4563	1.4545	0.1	-6.2114e-003
6045	6.4563	1.6364	0.1	-3.1361e-003
6046	6.4563	1.8182	0.1	-5.7645e-004
6047	6.4563	2.	0.1	1.5536e-003
6048	6.4563	2.1818	0.1	3.2934e-003
6049	6.4563	2.3636	0.1	4.6666e-003
6050	6.4563	2.5455	0.1	5.6862e-003
6051	6.4563	2.7273	0.1	6.3637e-003
6052	6.4563	2.9091	0.1	6.7017e-003
6053	6.4563	3.0909	0.1	6.7019e-003
6054	6.4563	3.2727	0.1	6.3636e-003
6055	6.4563	3.4545	0.1	5.6865e-003
6056	6.4563	3.6364	0.1	4.6669e-003
6057	6.4563	3.8182	0.1	3.2937e-003
6058	6.4563	4.	0.1	1.5542e-003
6059	6.4563	4.1818	0.1	-5.7591e-004
6060	6.4563	4.3636	0.1	-3.1355e-003
6061	6.4563	4.5455	0.1	-6.2106e-003
6062	6.4563	4.7273	0.1	-9.8659e-003
6063	6.4563	4.9091	0.1	-1.4542e-002
6064	6.4563	5.0909	0.1	-1.9789e-002
6065	6.4563	5.2727	0.1	-3.0142e-002
6066	6.4563	5.4545	0.1	-3.2955e-002
6067	6.4563	5.6364	0.1	-0.11216
6068	6.4563	5.8182	0.1	-0.12231
6069	6.6408	0.18182	0.1	-0.11609
6070	6.6408	0.36364	0.1	-0.10221
6071	6.6408	0.54545	0.1	-2.983e-002
6072	6.6408	0.72727	0.1	-2.7447e-002
6073	6.6408	0.90909	0.1	-1.8094e-002
6074	6.6408	1.0909	0.1	-1.3383e-002
6075	6.6408	1.2727	0.1	-9.1714e-003
6076	6.6408	1.4545	0.1	-5.8782e-003
6077	6.6408	1.6364	0.1	-3.1044e-003
6078	6.6408	1.8182	0.1	-7.9374e-004
6079	6.6408	2.	0.1	1.1304e-003
6080	6.6408	2.1818	0.1	2.703e-003
6081	6.6408	2.3636	0.1	3.9448e-003
6082	6.6408	2.5455	0.1	4.8673e-003
6083	6.6408	2.7273	0.1	5.4802e-003
6084	6.6408	2.9091	0.1	5.7863e-003
6085	6.6408	3.0909	0.1	5.7863e-003
6086	6.6408	3.2727	0.1	5.4802e-003
6087	6.6408	3.4545	0.1	4.8674e-003
6088	6.6408	3.6364	0.1	3.9451e-003
6089	6.6408	3.8182	0.1	2.7035e-003
6090	6.6408	4.	0.1	1.1308e-003
6091	6.6408	4.1818	0.1	-7.9308e-004
6092	6.6408	4.3636	0.1	-3.1038e-003
6093	6.6408	4.5455	0.1	-5.8777e-003
6094	6.6408	4.7273	0.1	-9.1705e-003
6095	6.6408	4.9091	0.1	-1.3382e-002
6096	6.6408	5.0909	0.1	-1.8093e-002
6097	6.6408	5.2727	0.1	-2.7446e-002
6098	6.6408	5.4545	0.1	-2.983e-002
6099	6.6408	5.6364	0.1	-0.10221
6100	6.6408	5.8182	0.1	-0.11609
6101	6.8252	0.18182	0.1	-0.11165
6102	6.8252	0.36364	0.1	-9.3074e-002
6103	6.8252	0.54545	0.1	-2.6975e-002
6104	6.8252	0.72727	0.1	-2.4977e-002
6105	6.8252	0.90909	0.1	-1.6544e-002
6106	6.8252	1.0909	0.1	-1.2325e-002
6107	6.8252	1.2727	0.1	-8.5404e-003
6108	6.8252	1.4545	0.1	-5.58e-003
6109	6.8252	1.6364	0.1	-3.0833e-003
6110	6.8252	1.8182	0.1	-1.0017e-003
6111	6.8252	2.	0.1	7.3302e-004
6112	6.8252	2.1818	0.1	2.1522e-003
6113	6.8252	2.3636	0.1	3.2731e-003
6114	6.8252	2.5455	0.1	4.1059e-003
6115	6.8252	2.7273	0.1	4.6596e-003
6116	6.8252	2.9091	0.1	4.9361e-003
6117	6.8252	3.0909	0.1	4.9362e-003
6118	6.8252	3.2727	0.1	4.6598e-003
6119	6.8252	3.4545	0.1	4.1062e-003
6120	6.8252	3.6364	0.1	3.2732e-003
6121	6.8252	3.8182	0.1	2.1523e-003
6122	6.8252	4.	0.1	7.335e-004
6123	6.8252	4.1818	0.1	-1.0012e-003
6124	6.8252	4.3636	0.1	-3.0827e-003
6125	6.8252	4.5455	0.1	-5.5793e-003
6126	6.8252	4.7273	0.1	-8.5396e-003
6127	6.8252	4.9091	0.1	-1.2324e-002
6128	6.8252	5.0909	0.1	-1.6542e-002
6129	6.8252	5.2727	0.1	-2.4977e-002
6130	6.8252	5.4545	0.1	-2.6975e-002
6131	6.8252	5.6364	0.1	-9.3072e-002
6132	6.8252	5.8182	0.1	-0.11165
6133	7.0097	0.18182	0.1	-0.1091
6134	7.0097	0.36364	0.1	-8.4694e-002
6135	7.0097	0.54545	0.1	-2.4372e-002
6136	7.0097	0.72727	0.1	-2.2721e-002
6137	7.0097	0.90909	0.1	-1.5133e-002
6138	7.0097	1.0909	0.1	-1.1367e-002
6139	7.0097	1.2727	0.1	-7.9746e-003
6140	7.0097	1.4545	0.1	-5.3203e-003
6141	7.0097	1.6364	0.1	-3.078e-003
6142	7.0097	1.8182	0.1	-1.2071e-003
6143	7.0097	2.	0.1	3.5358e-004
6144	7.0097	2.1818	0.1	1.6313e-003
6145	7.0097	2.3636	0.1	2.6414e-003
6146	7.0097	2.5455	0.1	3.392e-003
6147	7.0097	2.7273	0.1	3.8911e-003
6148	7.0097	2.9091	0.1	4.1406e-003
6149	7.0097	3.0909	0.1	4.1407e-003
6150	7.0097	3.2727	0.1	3.8914e-003
6151	7.0097	3.4545	0.1	3.3921e-003
6152	7.0097	3.6364	0.1	2.6417e-003
6153	7.0097	3.8182	0.1	1.6318e-003
6154	7.0097	4.	0.1	3.5405e-004
6155	7.0097	4.1818	0.1	-1.2065e-003
6156	7.0097	4.3636	0.1	-3.0774e-003
6157	7.0097	4.5455	0.1	-5.3197e-003
6158	7.0097	4.7273	0.1	-7.9738e-003
6159	7.0097	4.9091	0.1	-1.1366e-002
6160	7.0097	5.0909	0.1	-1.5132e-002
6161	7.0097	5.2727	0.1	-2.272e-002
6162	7.0097	5.4545	0.1	-2.4372e-002
6163	7.0097	5.6364	0.1	-8.4693e-002
6164	7.0097	5.8182	0.1	-0.1091
6165	7.1942	0.18182	0.1	-0.10873
6166	7.1942	0.36364	0.1	-7.6999e-002
6167	7.1942	0.54545	0.1	-2.1991e-002
6168	7.1942	0.72727	0.1	-2.0653e-002
6169	7.1942	0.90909	0.1	-1.3844e-002
6170	7.1942	1.0909	0.1	-1.0493e-002
6171	7.1942	1.2727	0.1	-7.4619e-003
6172	7.1942	1.4545	0.1	-5.0889e-003
6173	7.1942	1.6364	0.1	-3.0808e-003
6174	7.1942	1.8182	0.1	-1.4033e-003
6175	7.1942	2.	0.1	-2.5788e-006
6176	7.1942	2.1818	0.1	1.1453e-003
6177	7.1942	2.3636	0.1	2.0532e-003
6178	7.1942	2.5455	0.1	2.7282e-003
6179	7.1942	2.7273	0.1	3.1776e-003
6180	7.1942	2.9091	0.1	3.4019e-003
6181	7.1942	3.0909	0.1	3.4019e-003
6182	7.1942	3.2727	0.1	3.1775e-003
6183	7.1942	3.4545	0.1	2.7283e-003
6184	7.1942	3.6364	0.1	2.0535e-003
6185	7.1942	3.8182	0.1	1.1457e-003
6186	7.1942	4.	0.1	-2.1017e-006
6187	7.1942	4.1818	0.1	-1.4026e-003
6188	7.1942	4.3636	0.1	-3.0804e-003
6189	7.1942	4.5455	0.1	-5.0881e-003
6190	7.1942	4.7273	0.1	-7.4611e-003
6191	7.1942	4.9091	0.1	-1.0493e-002
6192	7.1942	5.0909	0.1	-1.3842e-002
6193	7.1942	5.2727	0.1	-2.0652e-002
6194	7.1942	5.4545	0.1	-2.1991e-002
6195	7.1942	5.6364	0.1	-7.6997e-002
6196	7.1942	5.8182	0.1	-0.10873
6197	7.3786	0.18182	0.1	-0.11114
6198	7.3786	0.36364	0.1	-6.9935e-002
6199	7.3786	0.54545	0.1	-1.9819e-002
6200	7.3786	0.72727	0.1	-1.8764e-002
6201	7.3786	0.90909	0.1	-1.2672e-002
6202	7.3786	1.0909	0.1	-9.7037e-003
6203	7.3786	1.2727	0.1	-7.0041e-003
6204	7.3786	1.4545	0.1	-4.8896e-003
6205	7.3786	1.6364	0.1	-3.097e-003
6206	7.3786	1.8182	0.1	-1.5972e-003
6207	7.3786	2.	0.1	-3.4344e-004
6208	7.3786	2.1818	0.1	6.8501e-004
6209	7.3786	2.3636	0.1	1.4991e-003
6210	7.3786	2.5455	0.1	2.1048e-003
6211	7.3786	2.7273	0.1	2.5078e-003
6212	7.3786	2.9091	0.1	2.7096e-003
6213	7.3786	3.0909	0.1	2.7097e-003
6214	7.3786	3.2727	0.1	2.5079e-003
6215	7.3786	3.4545	0.1	2.1048e-003
6216	7.3786	3.6364	0.1	1.4995e-003
6217	7.3786	3.8182	0.1	6.8524e-004
6218	7.3786	4.	0.1	-3.4284e-004
6219	7.3786	4.1818	0.1	-1.5968e-003
6220	7.3786	4.3636	0.1	-3.0963e-003
6221	7.3786	4.5455	0.1	-4.8891e-003
6222	7.3786	4.7273	0.1	-7.0033e-003
6223	7.3786	4.9091	0.1	-9.703e-003
6224	7.3786	5.0909	0.1	-1.267e-002
6225	7.3786	5.2727	0.1	-1.8763e-002
6226	7.3786	5.4545	0.1	-1.9818e-002
6227	7.3786	5.6364	0.1	-6.9934e-002
6228	7.3786	5.8182	0.1	-0.11114
6229	7.5631	0.18182	0.1	-0.11754
6230	7.5631	0.36364	0.1	-6.345e-002
6231	7.5631	0.54545	0.1	-1.7835e-002
6232	7.5631	0.72727	0.1	-1.7038e-002
6233	7.5631	0.90909	0.1	-1.1607e-002
6234	7.5631	1.0909	0.1	-8.9906e-003
6235	7.5631	1.2727	0.1	-6.5966e-003
6236	7.5631	1.4545	0.1	-4.7202e-003
6237	7.5631	1.6364	0.1	-3.1252e-003
6238	7.5631	1.8182	0.1	-1.7889e-003
6239	7.5631	2.	0.1	-6.7042e-004
6240	7.5631	2.1818	0.1	2.4873e-004
6241	7.5631	2.3636	0.1	9.7669e-004
6242	7.5631	2.5455	0.1	1.5184e-003
6243	7.5631	2.7273	0.1	1.8795e-003
6244	7.5631	2.9091	0.1	2.06e-003
6245	7.5631	3.0909	0.1	2.06e-003
6246	7.5631	3.2727	0.1	1.8794e-003
6247	7.5631	3.4545	0.1	1.5187e-003
6248	7.5631	3.6364	0.1	9.7705e-004
6249	7.5631	3.8182	0.1	2.4915e-004
6250	7.5631	4.	0.1	-6.6982e-004
6251	7.5631	4.1818	0.1	-1.7885e-003
6252	7.5631	4.3636	0.1	-3.1247e-003
6253	7.5631	4.5455	0.1	-4.7195e-003
6254	7.5631	4.7273	0.1	-6.5958e-003
6255	7.5631	4.9091	0.1	-8.9899e-003
6256	7.5631	5.0909	0.1	-1.1605e-002
6257	7.5631	5.2727	0.1	-1.7037e-002
6258	7.5631	5.4545	0.1	-1.7835e-002
6259	7.5631	5.6364	0.1	-6.3449e-002
6260	7.5631	5.8182	0.1	-0.11754
6261	7.7476	0.18182	0.1	-0.13048
6262	7.7476	0.36364	0.1	-5.7487e-002
6263	7.7476	0.54545	0.1	-1.6016e-002
6264	7.7476	0.72727	0.1	-1.5454e-002
6265	7.7476	0.90909	0.1	-1.0633e-002
6266	7.7476	1.0909	0.1	-8.3407e-003
6267	7.7476	1.2727	0.1	-6.2278e-003
6268	7.7476	1.4545	0.1	-4.5699e-003
6269	7.7476	1.6364	0.1	-3.1571e-003
6270	7.7476	1.8182	0.1	-1.9709e-003
6271	7.7476	2.	0.1	-9.7623e-004
6272	7.7476	2.1818	0.1	-1.5828e-004
6273	7.7476	2.3636	0.1	4.9065e-004
6274	7.7476	2.5455	0.1	9.7396e-004
6275	7.7476	2.7273	0.1	1.2963e-003
6276	7.7476	2.9091	0.1	1.4574e-003
6277	7.7476	3.0909	0.1	1.4574e-003
6278	7.7476	3.2727	0.1	1.2963e-003
6279	7.7476	3.4545	0.1	9.742e-004
6280	7.7476	3.6364	0.1	4.9112e-004
6281	7.7476	3.8182	0.1	-1.5781e-004
6282	7.7476	4.	0.1	-9.7593e-004
6283	7.7476	4.1818	0.1	-1.9705e-003
6284	7.7476	4.3636	0.1	-3.1564e-003
6285	7.7476	4.5455	0.1	-4.5693e-003
6286	7.7476	4.7273	0.1	-6.2271e-003
6287	7.7476	4.9091	0.1	-8.3401e-003
6288	7.7476	5.0909	0.1	-1.0631e-002
6289	7.7476	5.2727	0.1	-1.5453e-002
6290	7.7476	5.4545	0.1	-1.6016e-002
6291	7.7476	5.6364	0.1	-5.7486e-002
6292	7.7476	5.8182	0.1	-0.13048
6293	7.932	0.18182	0.1	-0.15619
6294	7.932	0.36364	0.1	-5.2011e-002
6295	7.932	0.54545	0.1	-1.4354e-002
6296	7.932	0.72727	0.1	-1.4008e-002
6297	7.932	0.90909	0.1	-9.7502e-003
6298	7.932	1.0909	0.1	-7.7557e-003
6299	7.932	1.2727	0.1	-5.9016e-003
6300	7.932	1.4545	0.1	-4.445e-003
6301	7.932	1.6364	0.1	-3.199e-003
6302	7.932	1.8182	0.1	-2.151e-003
6303	7.932	2.	0.1	-1.2705e-003
6304	7.932	2.1818	0.1	-5.4432e-004
6305	7.932	2.3636	0.1	3.1788e-005
6306	7.932	2.5455	0.1	4.6119e-004
6307	7.932	2.7273	0.1	7.4791e-004
6308	7.932	2.9091	0.1	8.9145e-004
6309	7.932	3.0909	0.1	8.9157e-004
6310	7.932	3.2727	0.1	7.4803e-004
6311	7.932	3.4545	0.1	4.6149e-004
6312	7.932	3.6364	0.1	3.2146e-005
6313	7.932	3.8182	0.1	-5.4402e-004
6314	7.932	4.	0.1	-1.2701e-003
6315	7.932	4.1818	0.1	-2.1504e-003
6316	7.932	4.3636	0.1	-3.1985e-003
6317	7.932	4.5455	0.1	-4.4443e-003
6318	7.932	4.7273	0.1	-5.9009e-003
6319	7.932	4.9091	0.1	-7.7553e-003
6320	7.932	5.0909	0.1	-9.7484e-003
6321	7.932	5.2727	0.1	-1.4008e-002
6322	7.932	5.4545	0.1	-1.4354e-002
6323	7.932	5.6364	0.1	-5.201e-002
6324	7.932	5.8182	0.1	-0.15619
6325	8.1165	0.18182	0.1	-0.21317
6326	8.1165	0.36364	0.1	-4.697e-002
6327	8.1165	0.54545	0.1	-1.2823e-002
6328	8.1165	0.72727	0.1	-1.2678e-002
6329	8.1165	0.90909	0.1	-8.9393e-003
6330	8.1165	1.0909	0.1	-7.2193e-003
6331	8.1165	1.2727	0.1	-5.6027e-003
6332	8.1165	1.4545	0.1	-4.3308e-003
6333	8.1165	1.6364	0.1	-3.2384e-003
6334	8.1165	1.8182	0.1	-2.3171e-003
6335	8.1165	2.	0.1	-1.541e-003
6336	8.1165	2.1818	0.1	-9.0001e-004
6337	8.1165	2.3636	0.1	-3.9022e-004
6338	8.1165	2.5455	0.1	-1.0058e-005
6339	8.1165	2.7273	0.1	2.4386e-004
6340	8.1165	2.9091	0.1	3.7108e-004
6341	8.1165	3.0909	0.1	3.712e-004
6342	8.1165	3.2727	0.1	2.4392e-004
6343	8.1165	3.4545	0.1	-1.0119e-005
6344	8.1165	3.6364	0.1	-3.8992e-004
6345	8.1165	3.8182	0.1	-8.9948e-004
6346	8.1165	4.	0.1	-1.5405e-003
6347	8.1165	4.1818	0.1	-2.3167e-003
6348	8.1165	4.3636	0.1	-3.2377e-003
6349	8.1165	4.5455	0.1	-4.3304e-003
6350	8.1165	4.7273	0.1	-5.6021e-003
6351	8.1165	4.9091	0.1	-7.2187e-003
6352	8.1165	5.0909	0.1	-8.9377e-003
6353	8.1165	5.2727	0.1	-1.2677e-002
6354	8.1165	5.4545	0.1	-1.2823e-002
6355	8.1165	5.6364	0.1	-4.6969e-002
6356	8.1165	5.8182	0.1	-0.21317
6357	8.301	0.18182	0.1	-0.37317
6358	8.301	0.36364	0.1	-4.2344e-002
6359	8.301	0.54545	0.1	-1.1424e-002
6360	8.301	0.72727	0.1	-1.1466e-002
6361	8.301	0.90909	0.1	-8.2078e-003
6362	8.301	1.0909	0.1	-6.7403e-003
6363	8.301	1.2727	0.1	-5.3423e-003
6364	8.301	1.4545	0.1	-4.2398e-003
6365	8.301	1.6364	0.1	-3.2884e-003
6366	8.301	1.8182	0.1	-2.4832e-003
6367	8.301	2.	0.1	-1.8026e-003
6368	8.301	2.1818	0.1	-1.2395e-003
6369	8.301	2.3636	0.1	-7.9091e-004
6370	8.301	2.5455	0.1	-4.5631e-004
6371	8.301	2.7273	0.1	-2.3208e-004
6372	8.301	2.9091	0.1	-1.1955e-004
6373	8.301	3.0909	0.1	-1.1943e-004
6374	8.301	3.2727	0.1	-2.3184e-004
6375	8.301	3.4545	0.1	-4.5602e-004
6376	8.301	3.6364	0.1	-7.9079e-004
6377	8.301	3.8182	0.1	-1.2395e-003
6378	8.301	4.	0.1	-1.8025e-003
6379	8.301	4.1818	0.1	-2.4826e-003
6380	8.301	4.3636	0.1	-3.2878e-003
6381	8.301	4.5455	0.1	-4.2392e-003
6382	8.301	4.7273	0.1	-5.3417e-003
6383	8.301	4.9091	0.1	-6.7396e-003
6384	8.301	5.0909	0.1	-8.2064e-003
6385	8.301	5.2727	0.1	-1.1465e-002
6386	8.301	5.4545	0.1	-1.1424e-002
6387	8.301	5.6364	0.1	-4.2343e-002
6388	8.301	5.8182	0.1	-0.37317
6389	8.4854	0.18182	0.1	-0.85357
6390	8.4854	0.36364	0.1	-3.8107e-002
6391	8.4854	0.54545	0.1	-1.0149e-002
6392	8.4854	0.72727	0.1	-1.0365e-002
6393	8.4854	0.90909	0.1	-7.5518e-003
6394	8.4854	1.0909	0.1	-6.3162e-003
6395	8.4854	1.2727	0.1	-5.1192e-003
6396	8.4854	1.4545	0.1	-4.1721e-003
6397	8.4854	1.6364	0.1	-3.3494e-003
6398	8.4854	1.8182	0.1	-2.6501e-003
6399	8.4854	2.	0.1	-2.0579e-003
6400	8.4854	2.1818	0.1	-1.5658e-003
6401	8.4854	2.3636	0.1	-1.1729e-003
6402	8.4854	2.5455	0.1	-8.7959e-004
6403	8.4854	2.7273	0.1	-6.8277e-004
6404	8.4854	2.9091	0.1	-5.8407e-004
6405	8.4854	3.0909	0.1	-5.8401e-004
6406	8.4854	3.2727	0.1	-6.8295e-004
6407	8.4854	3.4545	0.1	-8.7935e-004
6408	8.4854	3.6364	0.1	-1.1728e-003
6409	8.4854	3.8182	0.1	-1.5655e-003
6410	8.4854	4.	0.1	-2.0574e-003
6411	8.4854	4.1818	0.1	-2.6499e-003
6412	8.4854	4.3636	0.1	-3.3484e-003
6413	8.4854	4.5455	0.1	-4.1713e-003
6414	8.4854	4.7273	0.1	-5.1182e-003
6415	8.4854	4.9091	0.1	-6.3156e-003
6416	8.4854	5.0909	0.1	-7.5506e-003
6417	8.4854	5.2727	0.1	-1.0364e-002
6418	8.4854	5.4545	0.1	-1.0148e-002
6419	8.4854	5.6364	0.1	-3.8106e-002
6420	8.4854	5.8182	0.1	-0.85357
6421	8.6699	0.18182	0.1	-1.6503
6422	8.6699	0.36364	0.1	-3.4231e-002
6423	8.6699	0.54545	0.1	-8.9776e-003
6424	8.6699	0.72727	0.1	-9.3611e-003
6425	8.6699	0.90909	0.1	-6.9595e-003
6426	8.6699	1.0909	0.1	-5.9359e-003
6427	8.6699	1.2727	0.1	-4.9227e-003
6428	8.6699	1.4545	0.1	-4.1174e-003
6429	8.6699	1.6364	0.1	-3.4126e-003
6430	8.6699	1.8182	0.1	-2.8107e-003
6431	8.6699	2.	0.1	-2.2987e-003
6432	8.6699	2.1818	0.1	-1.8716e-003
6433	8.6699	2.3636	0.1	-1.5298e-003
6434	8.6699	2.5455	0.1	-1.2744e-003
6435	8.6699	2.7273	0.1	-1.1025e-003
6436	8.6699	2.9091	0.1	-1.0161e-003
6437	8.6699	3.0909	0.1	-1.0162e-003
6438	8.6699	3.2727	0.1	-1.1025e-003
6439	8.6699	3.4545	0.1	-1.274e-003
6440	8.6699	3.6364	0.1	-1.5296e-003
6441	8.6699	3.8182	0.1	-1.871e-003
6442	8.6699	4.	0.1	-2.2984e-003
6443	8.6699	4.1818	0.1	-2.8101e-003
6444	8.6699	4.3636	0.1	-3.4122e-003
6445	8.6699	4.5455	0.1	-4.1167e-003
6446	8.6699	4.7273	0.1	-4.922e-003
6447	8.6699	4.9091	0.1	-5.9356e-003
6448	8.6699	5.0909	0.1	-6.9576e-003
6449	8.6699	5.2727	0.1	-9.36e-003
6450	8.6699	5.4545	0.1	-8.9772e-003
6451	8.6699	5.6364	0.1	-3.423e-002
6452	8.6699	5.8182	0.1	-1.6503
6453	8.8544	0.18182	0.1	-2.513
6454	8.8544	0.36364	0.1	-3.0719e-002
6455	8.8544	0.54545	0.1	-7.9111e-003
6456	8.8544	0.72727	0.1	-8.4551e-003
6457	8.8544	0.90909	0.1	-6.4332e-003
6458	8.8544	1.0909	0.1	-5.6046e-003
6459	8.8544	1.2727	0.1	-4.7588e-003
6460	8.8544	1.4545	0.1	-4.0826e-003
6461	8.8544	1.6364	0.1	-3.4847e-003
6462	8.8544	1.8182	0.1	-2.9717e-003
6463	8.8544	2.	0.1	-2.5321e-003
6464	8.8544	2.1818	0.1	-2.1645e-003
6465	8.8544	2.3636	0.1	-1.8695e-003
6466	8.8544	2.5455	0.1	-1.6484e-003
6467	8.8544	2.7273	0.1	-1.4995e-003
6468	8.8544	2.9091	0.1	-1.4248e-003
6469	8.8544	3.0909	0.1	-1.4244e-003
6470	8.8544	3.2727	0.1	-1.4995e-003
6471	8.8544	3.4545	0.1	-1.6481e-003
6472	8.8544	3.6364	0.1	-1.8695e-003
6473	8.8544	3.8182	0.1	-2.1646e-003
6474	8.8544	4.	0.1	-2.532e-003
6475	8.8544	4.1818	0.1	-2.9713e-003
6476	8.8544	4.3636	0.1	-3.4842e-003
6477	8.8544	4.5455	0.1	-4.0821e-003
6478	8.8544	4.7273	0.1	-4.758e-003
6479	8.8544	4.9091	0.1	-5.6041e-003
6480	8.8544	5.0909	0.1	-6.4317e-003
6481	8.8544	5.2727	0.1	-8.4544e-003
6482	8.8544	5.4545	0.1	-7.9104e-003
6483	8.8544	5.6364	0.1	-3.0717e-002
6484	8.8544	5.8182	0.1	-2.513
6485	9.0388	0.18182	0.1	-3.3576
6486	9.0388	0.36364	0.1	-2.7594e-002
6487	9.0388	0.54545	0.1	-6.9365e-003
6488	9.0388	0.72727	0.1	-7.6383e-003
6489	9.0388	0.90909	0.1	-5.966e-003
6490	9.0388	1.0909	0.1	-5.314e-003
6491	9.0388	1.2727	0.1	-4.6197e-003
6492	9.0388	1.4545	0.1	-4.0607e-003
6493	9.0388	1.6364	0.1	-3.5603e-003
6494	9.0388	1.8182	0.1	-3.127e-003
6495	9.0388	2.	0.1	-2.7541e-003
6496	9.0388	2.1818	0.1	-2.4399e-003
6497	9.0388	2.3636	0.1	-2.1873e-003
6498	9.0388	2.5455	0.1	-1.9974e-003
6499	9.0388	2.7273	0.1	-1.8693e-003
6500	9.0388	2.9091	0.1	-1.8045e-003
6501	9.0388	3.0909	0.1	-1.8048e-003
6502	9.0388	3.2727	0.1	-1.8691e-003
6503	9.0388	3.4545	0.1	-1.9972e-003
6504	9.0388	3.6364	0.1	-2.1867e-003
6505	9.0388	3.8182	0.1	-2.4396e-003
6506	9.0388	4.	0.1	-2.7536e-003
6507	9.0388	4.1818	0.1	-3.1264e-003
6508	9.0388	4.3636	0.1	-3.5598e-003
6509	9.0388	4.5455	0.1	-4.0599e-003
6510	9.0388	4.7273	0.1	-4.619e-003
6511	9.0388	4.9091	0.1	-5.3132e-003
6512	9.0388	5.0909	0.1	-5.9647e-003
6513	9.0388	5.2727	0.1	-7.6372e-003
6514	9.0388	5.4545	0.1	-6.9363e-003
6515	9.0388	5.6364	0.1	-2.7593e-002
6516	9.0388	5.8182	0.1	-3.3576
6517	9.2233	0.18182	0.1	-4.1658
6518	9.2233	0.36364	0.1	-2.5017e-002
6519	9.2233	0.54545	0.1	-6.0609e-003
6520	9.2233	0.72727	0.1	-6.9169e-003
6521	9.2233	0.90909	0.1	-5.566e-003
6522	9.2233	1.0909	0.1	-5.0722e-003
6523	9.2233	1.2727	0.1	-4.5139e-003
6524	9.2233	1.4545	0.1	-4.0593e-003
6525	9.2233	1.6364	0.1	-3.6458e-003
6526	9.2233	1.8182	0.1	-3.2847e-003
6527	9.2233	2.	0.1	-2.9714e-003
6528	9.2233	2.1818	0.1	-2.7057e-003
6529	9.2233	2.3636	0.1	-2.4912e-003
6530	9.2233	2.5455	0.1	-2.3298e-003
6531	9.2233	2.7273	0.1	-2.2205e-003
6532	9.2233	2.9091	0.1	-2.1648e-003
6533	9.2233	3.0909	0.1	-2.1648e-003
6534	9.2233	3.2727	0.1	-2.2202e-003
6535	9.2233	3.4545	0.1	-2.3295e-003
6536	9.2233	3.6364	0.1	-2.491e-003
6537	9.2233	3.8182	0.1	-2.7054e-003
6538	9.2233	4.	0.1	-2.971e-003
6539	9.2233	4.1818	0.1	-3.2842e-003
6540	9.2233	4.3636	0.1	-3.6454e-003
6541	9.2233	4.5455	0.1	-4.059e-003
6542	9.2233	4.7273	0.1	-4.5134e-003
6543	9.2233	4.9091	0.1	-5.0714e-003
6544	9.2233	5.0909	0.1	-5.5645e-003
6545	9.2233	5.2727	0.1	-6.916e-003
6546	9.2233	5.4545	0.1	-6.0603e-003
6547	9.2233	5.6364	0.1	-2.5016e-002
6548	9.2233	5.8182	0.1	-4.1658
6549	9.4078	0.18182	0.1	-4.9334
6550	9.4078	0.36364	0.1	-2.3822e-002
6551	9.4078	0.54545	0.1	-5.2843e-003
6552	9.4078	0.72727	0.1	-6.2933e-003
6553	9.4078	0.90909	0.1	-5.2315e-003
6554	9.4078	1.0909	0.1	-4.8764e-003
6555	9.4078	1.2727	0.1	-4.4382e-003
6556	9.4078	1.4545	0.1	-4.0759e-003
6557	9.4078	1.6364	0.1	-3.7391e-003
6558	9.4078	1.8182	0.1	-3.4422e-003
6559	9.4078	2.	0.1	-3.1817e-003
6560	9.4078	2.1818	0.1	-2.9593e-003
6561	9.4078	2.3636	0.1	-2.7788e-003
6562	9.4078	2.5455	0.1	-2.6426e-003
6563	9.4078	2.7273	0.1	-2.55e-003
6564	9.4078	2.9091	0.1	-2.5033e-003
6565	9.4078	3.0909	0.1	-2.503e-003
6566	9.4078	3.2727	0.1	-2.5501e-003
6567	9.4078	3.4545	0.1	-2.6423e-003
6568	9.4078	3.6364	0.1	-2.7784e-003
6569	9.4078	3.8182	0.1	-2.9591e-003
6570	9.4078	4.	0.1	-3.1813e-003
6571	9.4078	4.1818	0.1	-3.4415e-003
6572	9.4078	4.3636	0.1	-3.7387e-003
6573	9.4078	4.5455	0.1	-4.0753e-003
6574	9.4078	4.7273	0.1	-4.4377e-003
6575	9.4078	4.9091	0.1	-4.8758e-003
6576	9.4078	5.0909	0.1	-5.2303e-003
6577	9.4078	5.2727	0.1	-6.2924e-003
6578	9.4078	5.4545	0.1	-5.2833e-003
6579	9.4078	5.6364	0.1	-2.3821e-002
6580	9.4078	5.8182	0.1	-4.9334
6581	9.5922	0.18182	0.1	-5.6605
6582	9.5922	0.36364	0.1	-7.5188e-002
6583	9.5922	0.54545	0.1	-4.6337e-003
6584	9.5922	0.72727	0.1	-5.7862e-003
6585	9.5922	0.90909	0.1	-4.9777e-003
6586	9.5922	1.0909	0.1	-4.7374e-003
6587	9.5922	1.2727	0.1	-4.4011e-003
6588	9.5922	1.4545	0.1	-4.1171e-003
6589	9.5922	1.6364	0.1	-3.8472e-003
6590	9.5922	1.8182	0.1	-3.6053e-003
6591	9.5922	2.	0.1	-3.3909e-003
6592	9.5922	2.1818	0.1	-3.2068e-003
6593	9.5922	2.3636	0.1	-3.0563e-003
6594	9.5922	2.5455	0.1	-2.9427e-003
6595	9.5922	2.7273	0.1	-2.8654e-003
6596	9.5922	2.9091	0.1	-2.825e-003
6597	9.5922	3.0909	0.1	-2.8256e-003
6598	9.5922	3.2727	0.1	-2.8649e-003
6599	9.5922	3.4545	0.1	-2.9427e-003
6600	9.5922	3.6364	0.1	-3.056e-003
6601	9.5922	3.8182	0.1	-3.2066e-003
6602	9.5922	4.	0.1	-3.3908e-003
6603	9.5922	4.1818	0.1	-3.6046e-003
6604	9.5922	4.3636	0.1	-3.8465e-003
6605	9.5922	4.5455	0.1	-4.1167e-003
6606	9.5922	4.7273	0.1	-4.4003e-003
6607	9.5922	4.9091	0.1	-4.737e-003
6608	9.5922	5.0909	0.1	-4.9763e-003
6609	9.5922	5.2727	0.1	-5.7854e-003
6610	9.5922	5.4545	0.1	-4.6335e-003
6611	9.5922	5.6364	0.1	-7.5186e-002
6612	9.5922	5.8182	0.1	-5.6605
6613	9.7767	0.18182	0.1	-6.3486
6614	9.7767	0.36364	0.1	-1.0848
6615	9.7767	0.54545	0.1	-4.1887e-003
6616	9.7767	0.72727	0.1	-5.4364e-003
6617	9.7767	0.90909	0.1	-4.8265e-003
6618	9.7767	1.0909	0.1	-4.6707e-003
6619	9.7767	1.2727	0.1	-4.4142e-003
6620	9.7767	1.4545	0.1	-4.194e-003
6621	9.7767	1.6364	0.1	-3.9777e-003
6622	9.7767	1.8182	0.1	-3.7822e-003
6623	9.7767	2.	0.1	-3.6078e-003
6624	9.7767	2.1818	0.1	-3.4559e-003
6625	9.7767	2.3636	0.1	-3.3312e-003
6626	9.7767	2.5455	0.1	-3.2374e-003
6627	9.7767	2.7273	0.1	-3.1716e-003
6628	9.7767	2.9091	0.1	-3.1389e-003
6629	9.7767	3.0909	0.1	-3.1391e-003
6630	9.7767	3.2727	0.1	-3.1719e-003
6631	9.7767	3.4545	0.1	-3.2365e-003
6632	9.7767	3.6364	0.1	-3.3313e-003
6633	9.7767	3.8182	0.1	-3.4553e-003
6634	9.7767	4.	0.1	-3.6071e-003
6635	9.7767	4.1818	0.1	-3.7821e-003
6636	9.7767	4.3636	0.1	-3.9775e-003
6637	9.7767	4.5455	0.1	-4.1927e-003
6638	9.7767	4.7273	0.1	-4.4139e-003
6639	9.7767	4.9091	0.1	-4.67e-003
6640	9.7767	5.0909	0.1	-4.8249e-003
6641	9.7767	5.2727	0.1	-5.435e-003
6642	9.7767	5.4545	0.1	-4.1891e-003
6643	9.7767	5.6364	0.1	-1.0848
6644	9.7767	5.8182	0.1	-6.3486
6645	9.9612	0.18182	0.1	-6.9996
6646	9.9612	0.36364	0.1	-2.093
6647	9.9612	0.54545	0.1	-4.2607e-003
6648	9.9612	0.72727	0.1	-5.3102e-003
6649	9.9612	0.90909	0.1	-4.7996e-003
6650	9.9612	1.0909	0.1	-4.6811e-003
6651	9.9612	1.2727	0.1	-4.4749e-003
6652	9.9612	1.4545	0.1	-4.2977e-003
6653	9.9612	1.6364	0.1	-4.1227e-003
6654	9.9612	1.8182	0.1	-3.9634e-003
6655	9.9612	2.	0.1	-3.8198e-003
6656	9.9612	2.1818	0.1	-3.6944e-003
6657	9.9612	2.3636	0.1	-3.5911e-003
6658	9.9612	2.5455	0.1	-3.5134e-003
6659	9.9612	2.7273	0.1	-3.4592e-003
6660	9.9612	2.9091	0.1	-3.4318e-003
6661	9.9612	3.0909	0.1	-3.4317e-003
6662	9.9612	3.2727	0.1	-3.4595e-003
6663	9.9612	3.4545	0.1	-3.513e-003
6664	9.9612	3.6364	0.1	-3.5909e-003
6665	9.9612	3.8182	0.1	-3.6939e-003
6666	9.9612	4.	0.1	-3.8196e-003
6667	9.9612	4.1818	0.1	-3.9626e-003
6668	9.9612	4.3636	0.1	-4.1221e-003
6669	9.9612	4.5455	0.1	-4.2974e-003
6670	9.9612	4.7273	0.1	-4.4743e-003
6671	9.9612	4.9091	0.1	-4.6806e-003
6672	9.9612	5.0909	0.1	-4.798e-003
6673	9.9612	5.2727	0.1	-5.3096e-003
6674	9.9612	5.4545	0.1	-4.2601e-003
6675	9.9612	5.6364	0.1	-2.093
6676	9.9612	5.8182	0.1	-6.9996
6677	10.146	0.18182	0.1	-7.6156
6678	10.146	0.36364	0.1	-3.043
6679	10.146	0.54545	0.1	-9.9211e-003
6680	10.146	0.72727	0.1	-5.6377e-003
6681	10.146	0.90909	0.1	-4.9743e-003
6682	10.146	1.0909	0.1	-4.8066e-003
6683	10.146	1.2727	0.1	-4.6063e-003
6684	10.146	1.4545	0.1	-4.4452e-003
6685	10.146	1.6364	0.1	-4.2927e-003
6686	10.146	1.8182	0.1	-4.1559e-003
6687	10.146	2.	0.1	-4.0343e-003
6688	10.146	2.1818	0.1	-3.9286e-003
6689	10.146	2.3636	0.1	-3.8415e-003
6690	10.146	2.5455	0.1	-3.7759e-003
6691	10.146	2.7273	0.1	-3.7305e-003
6692	10.146	2.9091	0.1	-3.7073e-003
6693	10.146	3.0909	0.1	-3.7074e-003
6694	10.146	3.2727	0.1	-3.7304e-003
6695	10.146	3.4545	0.1	-3.7758e-003
6696	10.146	3.6364	0.1	-3.8414e-003
6697	10.146	3.8182	0.1	-3.9284e-003
6698	10.146	4.	0.1	-4.0339e-003
6699	10.146	4.1818	0.1	-4.1555e-003
6700	10.146	4.3636	0.1	-4.2922e-003
6701	10.146	4.5455	0.1	-4.4446e-003
6702	10.146	4.7273	0.1	-4.6054e-003
6703	10.146	4.9091	0.1	-4.8057e-003
6704	10.146	5.0909	0.1	-4.9728e-003
6705	10.146	5.2727	0.1	-5.6364e-003
6706	10.146	5.4545	0.1	-9.9204e-003
6707	10.146	5.6364	0.1	-3.043
6708	10.146	5.8182	0.1	-7.6156
6709	10.33	0.18182	0.1	-8.1989
6710	10.33	0.36364	0.1	-3.9387
6711	10.33	0.54545	0.1	-0.89283
6712	10.33	0.72727	0.1	-7.3209e-003
6713	10.33	0.90909	0.1	-5.5437e-003
6714	10.33	1.0909	0.1	-5.1301e-003
6715	10.33	1.2727	0.1	-4.8542e-003
6716	10.33	1.4545	0.1	-4.667e-003
6717	10.33	1.6364	0.1	-4.5094e-003
6718	10.33	1.8182	0.1	-4.3789e-003
6719	10.33	2.	0.1	-4.2667e-003
6720	10.33	2.1818	0.1	-4.1717e-003
6721	10.33	2.3636	0.1	-4.0947e-003
6722	10.33	2.5455	0.1	-4.0373e-003
6723	10.33	2.7273	0.1	-3.9977e-003
6724	10.33	2.9091	0.1	-3.9776e-003
6725	10.33	3.0909	0.1	-3.9772e-003
6726	10.33	3.2727	0.1	-3.9976e-003
6727	10.33	3.4545	0.1	-4.037e-003
6728	10.33	3.6364	0.1	-4.0946e-003
6729	10.33	3.8182	0.1	-4.1715e-003
6730	10.33	4.	0.1	-4.2662e-003
6731	10.33	4.1818	0.1	-4.3786e-003
6732	10.33	4.3636	0.1	-4.5091e-003
6733	10.33	4.5455	0.1	-4.6662e-003
6734	10.33	4.7273	0.1	-4.8537e-003
6735	10.33	4.9091	0.1	-5.1295e-003
6736	10.33	5.0909	0.1	-5.5424e-003
6737	10.33	5.2727	0.1	-7.3195e-003
6738	10.33	5.4545	0.1	-0.89284
6739	10.33	5.6364	0.1	-3.9387
6740	10.33	5.8182	0.1	-8.1989
6741	10.515	0.18182	0.1	-8.7516
6742	10.515	0.36364	0.1	-4.7847
6743	10.515	0.54545	0.1	-2.0458
6744	10.515	0.72727	0.1	-2.0272e-002
6745	10.515	0.90909	0.1	-7.0876e-003
6746	10.515	1.0909	0.1	-5.8221e-003
6747	10.515	1.2727	0.1	-5.2921e-003
6748	10.515	1.4545	0.1	-4.9982e-003
6749	10.515	1.6364	0.1	-4.793e-003
6750	10.515	1.8182	0.1	-4.6408e-003
6751	10.515	2.	0.1	-4.5204e-003
6752	10.515	2.1818	0.1	-4.4234e-003
6753	10.515	2.3636	0.1	-4.3484e-003
6754	10.515	2.5455	0.1	-4.2933e-003
6755	10.515	2.7273	0.1	-4.256e-003
6756	10.515	2.9091	0.1	-4.2371e-003
6757	10.515	3.0909	0.1	-4.237e-003
6758	10.515	3.2727	0.1	-4.2557e-003
6759	10.515	3.4545	0.1	-4.2931e-003
6760	10.515	3.6364	0.1	-4.3478e-003
6761	10.515	3.8182	0.1	-4.4234e-003
6762	10.515	4.	0.1	-4.5198e-003
6763	10.515	4.1818	0.1	-4.6404e-003
6764	10.515	4.3636	0.1	-4.7927e-003
6765	10.515	4.5455	0.1	-4.9971e-003
6766	10.515	4.7273	0.1	-5.2917e-003
6767	10.515	4.9091	0.1	-5.8215e-003
6768	10.515	5.0909	0.1	-7.0863e-003
6769	10.515	5.2727	0.1	-2.0272e-002
6770	10.515	5.4545	0.1	-2.0459
6771	10.515	5.6364	0.1	-4.7847
6772	10.515	5.8182	0.1	-8.7516
6773	10.699	0.18182	0.1	-9.2759
6774	10.699	0.36364	0.1	-5.5853
6775	10.699	0.54545	0.1	-3.1373
6776	10.699	0.72727	0.1	-0.8627
6777	10.699	0.90909	0.1	-1.2915e-002
6778	10.699	1.0909	0.1	-7.4292e-003
6779	10.699	1.2727	0.1	-6.1168e-003
6780	10.699	1.4545	0.1	-5.5331e-003
6781	10.699	1.6364	0.1	-5.1941e-003
6782	10.699	1.8182	0.1	-4.9722e-003
6783	10.699	2.	0.1	-4.8143e-003
6784	10.699	2.1818	0.1	-4.6979e-003
6785	10.699	2.3636	0.1	-4.6112e-003
6786	10.699	2.5455	0.1	-4.5508e-003
6787	10.699	2.7273	0.1	-4.5108e-003
6788	10.699	2.9091	0.1	-4.4904e-003
6789	10.699	3.0909	0.1	-4.4907e-003
6790	10.699	3.2727	0.1	-4.5102e-003
6791	10.699	3.4545	0.1	-4.5508e-003
6792	10.699	3.6364	0.1	-4.6109e-003
6793	10.699	3.8182	0.1	-4.6975e-003
6794	10.699	4.	0.1	-4.814e-003
6795	10.699	4.1818	0.1	-4.9716e-003
6796	10.699	4.3636	0.1	-5.1937e-003
6797	10.699	4.5455	0.1	-5.5329e-003
6798	10.699	4.7273	0.1	-6.1165e-003
6799	10.699	4.9091	0.1	-7.4284e-003
6800	10.699	5.0909	0.1	-1.2914e-002
6801	10.699	5.2727	0.1	-0.86272
6802	10.699	5.4545	0.1	-3.1374
6803	10.699	5.6364	0.1	-5.5853
6804	10.699	5.8182	0.1	-9.2759
6805	10.883	0.18182	0.1	-9.7737
6806	10.883	0.36364	0.1	-6.3448
6807	10.883	0.54545	0.1	-4.1726
6808	10.883	0.72727	0.1	-2.1582
6809	10.883	0.90909	0.1	-0.28786
6810	10.883	1.0909	0.1	-1.2817e-002
6811	10.883	1.2727	0.1	-7.9547e-003
6812	10.883	1.4545	0.1	-6.5018e-003
6813	10.883	1.6364	0.1	-5.8127e-003
6814	10.883	1.8182	0.1	-5.4182e-003
6815	10.883	2.	0.1	-5.1665e-003
6816	10.883	2.1818	0.1	-4.9949e-003
6817	10.883	2.3636	0.1	-4.8764e-003
6818	10.883	2.5455	0.1	-4.7969e-003
6819	10.883	2.7273	0.1	-4.7458e-003
6820	10.883	2.9091	0.1	-4.7218e-003
6821	10.883	3.0909	0.1	-4.7212e-003
6822	10.883	3.2727	0.1	-4.7462e-003
6823	10.883	3.4545	0.1	-4.7966e-003
6824	10.883	3.6364	0.1	-4.8762e-003
6825	10.883	3.8182	0.1	-4.9947e-003
6826	10.883	4.	0.1	-5.1665e-003
6827	10.883	4.1818	0.1	-5.4179e-003
6828	10.883	4.3636	0.1	-5.8124e-003
6829	10.883	4.5455	0.1	-6.5007e-003
6830	10.883	4.7273	0.1	-7.9544e-003
6831	10.883	4.9091	0.1	-1.2817e-002
6832	10.883	5.0909	0.1	-0.28788
6833	10.883	5.2727	0.1	-2.1582
6834	10.883	5.4545	0.1	-4.1726
6835	10.883	5.6364	0.1	-6.3448
6836	10.883	5.8182	0.1	-9.7737
6837	11.068	0.18182	0.1	-10.247
6838	11.068	0.36364	0.1	-7.0672
6839	11.068	0.54545	0.1	-5.1575
6840	11.068	0.72727	0.1	-3.3956
6841	11.068	0.90909	0.1	-1.7268
6842	11.068	1.0909	0.1	-0.21699
6843	11.068	1.2727	0.1	-1.4979e-002
6844	11.068	1.4545	0.1	-8.9074e-003
6845	11.068	1.6364	0.1	-7.0492e-003
6846	11.068	1.8182	0.1	-6.1784e-003
6847	11.068	2.	0.1	-5.6899e-003
6848	11.068	2.1818	0.1	-5.3873e-003
6849	11.068	2.3636	0.1	-5.1919e-003
6850	11.068	2.5455	0.1	-5.0673e-003
6851	11.068	2.7273	0.1	-4.9914e-003
6852	11.068	2.9091	0.1	-4.9547e-003
6853	11.068	3.0909	0.1	-4.9549e-003
6854	11.068	3.2727	0.1	-4.9913e-003
6855	11.068	3.4545	0.1	-5.0671e-003
6856	11.068	3.6364	0.1	-5.1916e-003
6857	11.068	3.8182	0.1	-5.3872e-003
6858	11.068	4.	0.1	-5.6894e-003
6859	11.068	4.1818	0.1	-6.1785e-003
6860	11.068	4.3636	0.1	-7.0482e-003
6861	11.068	4.5455	0.1	-8.9071e-003
6862	11.068	4.7273	0.1	-1.4979e-002
6863	11.068	4.9091	0.1	-0.217
6864	11.068	5.0909	0.1	-1.7268
6865	11.068	5.2727	0.1	-3.3956
6866	11.068	5.4545	0.1	-5.1575
6867	11.068	5.6364	0.1	-7.0672
6868	11.068	5.8182	0.1	-10.247
6869	11.252	0.18182	0.1	-10.698
6870	11.252	0.36364	0.1	-7.7565
6871	11.252	0.54545	0.1	-6.0981
6872	11.252	0.72727	0.1	-4.5783
6873	11.252	0.90909	0.1	-3.1383
6874	11.252	1.0909	0.1	-1.7836
6875	11.252	1.2727	0.1	-0.53628
6876	11.252	1.4545	0.1	-2.4761e-002
6877	11.252	1.6364	0.1	-1.1116e-002
6878	11.252	1.8182	0.1	-8.0331e-003
6879	11.252	2.	0.1	-6.7357e-003
6880	11.252	2.1818	0.1	-6.0532e-003
6881	11.252	2.3636	0.1	-5.6561e-003
6882	11.252	2.5455	0.1	-5.4192e-003
6883	11.252	2.7273	0.1	-5.2818e-003
6884	11.252	2.9091	0.1	-5.2183e-003
6885	11.252	3.0909	0.1	-5.2184e-003
6886	11.252	3.2727	0.1	-5.2814e-003
6887	11.252	3.4545	0.1	-5.419e-003
6888	11.252	3.6364	0.1	-5.6563e-003
6889	11.252	3.8182	0.1	-6.0527e-003
6890	11.252	4.	0.1	-6.735e-003
6891	11.252	4.1818	0.1	-8.0328e-003
6892	11.252	4.3636	0.1	-1.1116e-002
6893	11.252	4.5455	0.1	-2.4761e-002
6894	11.252	4.7273	0.1	-0.5363
6895	11.252	4.9091	0.1	-1.7836
6896	11.252	5.0909	0.1	-3.1384
6897	11.252	5.2727	0.1	-4.5784
6898	11.252	5.4545	0.1	-6.0981
6899	11.252	5.6364	0.1	-7.7565
6900	11.252	5.8182	0.1	-10.698
6901	11.437	0.18182	0.1	-11.128
6902	11.437	0.36364	0.1	-8.4164
6903	11.437	0.54545	0.1	-6.9996
6904	11.437	0.72727	0.1	-5.7131
6905	11.437	0.90909	0.1	-4.4948
6906	11.437	1.0909	0.1	-3.3469
6907	11.437	1.2727	0.1	-2.276
6908	11.437	1.4545	0.1	-1.2899
6909	11.437	1.6364	0.1	-0.408
6910	11.437	1.8182	0.1	-2.6019e-002
6911	11.437	2.	0.1	-1.1176e-002
6912	11.437	2.1818	0.1	-7.9222e-003
6913	11.437	2.3636	0.1	-6.5963e-003
6914	11.437	2.5455	0.1	-5.9384e-003
6915	11.437	2.7273	0.1	-5.5989e-003
6916	11.437	2.9091	0.1	-5.4507e-003
6917	11.437	3.0909	0.1	-5.451e-003
6918	11.437	3.2727	0.1	-5.5984e-003
6919	11.437	3.4545	0.1	-5.9384e-003
6920	11.437	3.6364	0.1	-6.5958e-003
6921	11.437	3.8182	0.1	-7.9225e-003
6922	11.437	4.	0.1	-1.1176e-002
6923	11.437	4.1818	0.1	-2.602e-002
6924	11.437	4.3636	0.1	-0.40802
6925	11.437	4.5455	0.1	-1.2899
6926	11.437	4.7273	0.1	-2.276
6927	11.437	4.9091	0.1	-3.3469
6928	11.437	5.0909	0.1	-4.4948
6929	11.437	5.2727	0.1	-5.7131
6930	11.437	5.4545	0.1	-6.9997
6931	11.437	5.6364	0.1	-8.4164
6932	11.437	5.8182	0.1	-11.128
6933	11.621	0.18182	0.1	-11.538
6934	11.621	0.36364	0.1	-9.0506
6935	11.621	0.54545	0.1	-7.868
6936	11.621	0.72727	0.1	-6.8071
6937	11.621	0.90909	0.1	-5.8034
6938	11.621	1.0909	0.1	-4.857
6939	11.621	1.2727	0.1	-3.9724
6940	11.621	1.4545	0.1	-3.1547
6941	11.621	1.6364	0.1	-2.4093
6942	11.621	1.8182	0.1	-1.7418
6943	11.621	2.	0.1	-1.1577
6944	11.621	2.1818	0.1	-0.66258
6945	11.621	2.3636	0.1	-0.26357
6946	11.621	2.5455	0.1	-2.5315e-002
6947	11.621	2.7273	0.1	-7.7376e-003
6948	11.621	2.9091	0.1	-5.812e-003
6949	11.621	3.0909	0.1	-5.8118e-003
6950	11.621	3.2727	0.1	-7.7376e-003
6951	11.621	3.4545	0.1	-2.5315e-002
6952	11.621	3.6364	0.1	-0.26357
6953	11.621	3.8182	0.1	-0.66259
6954	11.621	4.	0.1	-1.1577
6955	11.621	4.1818	0.1	-1.7418
6956	11.621	4.3636	0.1	-2.4093
6957	11.621	4.5455	0.1	-3.1548
6958	11.621	4.7273	0.1	-3.9725
6959	11.621	4.9091	0.1	-4.857
6960	11.621	5.0909	0.1	-5.8034
6961	11.621	5.2727	0.1	-6.8071
6962	11.621	5.4545	0.1	-7.868
6963	11.621	5.6364	0.1	-9.0506
6964	11.621	5.8182	0.1	-11.538
6965	11.806	0.18182	0.1	-11.931
6966	11.806	0.36364	0.1	-9.6628
6967	11.806	0.54545	0.1	-8.7087
6968	11.806	0.72727	0.1	-7.8675
6969	11.806	0.90909	0.1	-7.0726
6970	11.806	1.0909	0.1	-6.3221
6971	11.806	1.2727	0.1	-5.6188
6972	11.806	1.4545	0.1	-4.9665
6973	11.806	1.6364	0.1	-4.3695
6974	11.806	1.8182	0.1	-3.8328
6975	11.806	2.	0.1	-3.361
6976	11.806	2.1818	0.1	-2.959
6977	11.806	2.3636	0.1	-2.6313
6978	11.806	2.5455	0.1	-2.3818
6979	11.806	2.7273	0.1	-2.2135
6980	11.806	2.9091	0.1	-2.1288
6981	11.806	3.0909	0.1	-2.1288
6982	11.806	3.2727	0.1	-2.2135
6983	11.806	3.4545	0.1	-2.3818
6984	11.806	3.6364	0.1	-2.6313
6985	11.806	3.8182	0.1	-2.9591
6986	11.806	4.	0.1	-3.361
6987	11.806	4.1818	0.1	-3.8328
6988	11.806	4.3636	0.1	-4.3696
6989	11.806	4.5455	0.1	-4.9665
6990	11.806	4.7273	0.1	-5.6188
6991	11.806	4.9091	0.1	-6.3221
6992	11.806	5.0909	0.1	-7.0727
6993	11.806	5.2727	0.1	-7.8676
6994	11.806	5.4545	0.1	-8.7087
6995	11.806	5.6364	0.1	-9.6628
6996	11.806	5.8182	0.1	-11.931
6997	11.99	0.18182	0.1	-12.308
6998	11.99	0.36364	0.1	-10.257
6999	11.99	0.54545	0.1	-9.5272
7000	11.99	0.72727	0.1	-8.9017
7001	11.99	0.90909	0.1	-8.3113
7002	11.99	1.0909	0.1	-7.7519
7003	11.99	1.2727	0.1	-7.225
7004	11.99	1.4545	0.1	-6.7333
7005	11.99	1.6364	0.1	-6.2802
7006	11.99	1.8182	0.1	-5.8699
7007	11.99	2.	0.1	-5.5068
7008	11.99	2.1818	0.1	-5.1955
7009	11.99	2.3636	0.1	-4.9404
7010	11.99	2.5455	0.1	-4.7453
7011	11.99	2.7273	0.1	-4.6134
7012	11.99	2.9091	0.1	-4.5469
7013	11.99	3.0909	0.1	-4.5469
7014	11.99	3.2727	0.1	-4.6134
7015	11.99	3.4545	0.1	-4.7453
7016	11.99	3.6364	0.1	-4.9404
7017	11.99	3.8182	0.1	-5.1955
7018	11.99	4.	0.1	-5.5068
7019	11.99	4.1818	0.1	-5.8699
7020	11.99	4.3636	0.1	-6.2802
7021	11.99	4.5455	0.1	-6.7333
7022	11.99	4.7273	0.1	-7.2251
7023	11.99	4.9091	0.1	-7.7519
7024	11.99	5.0909	0.1	-8.3113
7025	11.99	5.2727	0.1	-8.9018
7026	11.99	5.4545	0.1	-9.5272
7027	11.99	5.6364	0.1	-10.257
7028	11.99	5.8182	0.1	-12.308
7029	12.175	0.18182	0.1	-12.67
7030	12.175	0.36364	0.1	-10.836
7031	12.175	0.54545	0.1	-10.329
7032	12.175	0.72727	0.1	-9.9171
7033	12.175	0.90909	0.1	-9.5282
7034	12.175	1.0909	0.1	-9.1566
7035	12.175	1.2727	0.1	-8.8024
7036	12.175	1.4545	0.1	-8.467
7037	12.175	1.6364	0.1	-8.1533
7038	12.175	1.8182	0.1	-7.8649
7039	12.175	2.	0.1	-7.6061
7040	12.175	2.1818	0.1	-7.3815
7041	12.175	2.3636	0.1	-7.1954
7042	12.175	2.5455	0.1	-7.0518
7043	12.175	2.7273	0.1	-6.9542
7044	12.175	2.9091	0.1	-6.9048
7045	12.175	3.0909	0.1	-6.9048
7046	12.175	3.2727	0.1	-6.9542
7047	12.175	3.4545	0.1	-7.0519
7048	12.175	3.6364	0.1	-7.1954
7049	12.175	3.8182	0.1	-7.3815
7050	12.175	4.	0.1	-7.6062
7051	12.175	4.1818	0.1	-7.8649
7052	12.175	4.3636	0.1	-8.1533
7053	12.175	4.5455	0.1	-8.467
7054	12.175	4.7273	0.1	-8.8024
7055	12.175	4.9091	0.1	-9.1566
7056	12.175	5.0909	0.1	-9.5282
7057	12.175	5.2727	0.1	-9.9171
7058	12.175	5.4545	0.1	-10.329
7059	12.175	5.6364	0.1	-10.836
7060	12.175	5.8182	0.1	-12.67
7061	12.359	0.18182	0.1	-13.02
7062	12.359	0.36364	0.1	-11.404
7063	12.359	0.54545	0.1	-11.12
7064	12.359	0.72727	0.1	-10.921
7065	12.359	0.90909	0.1	-10.732
7066	12.359	1.0909	0.1	-10.547
7067	12.359	1.2727	0.1	-10.362
7068	12.359	1.4545	0.1	-10.18
7069	12.359	1.6364	0.1	-10.002
7070	12.359	1.8182	0.1	-9.831
7071	12.359	2.	0.1	-9.6724
7072	12.359	2.1818	0.1	-9.5304
7073	12.359	2.3636	0.1	-9.4098
7074	12.359	2.5455	0.1	-9.315
7075	12.359	2.7273	0.1	-9.2496
7076	12.359	2.9091	0.1	-9.2163
7077	12.359	3.0909	0.1	-9.2163
7078	12.359	3.2727	0.1	-9.2497
7079	12.359	3.4545	0.1	-9.315
7080	12.359	3.6364	0.1	-9.4098
7081	12.359	3.8182	0.1	-9.5304
7082	12.359	4.	0.1	-9.6724
7083	12.359	4.1818	0.1	-9.831
7084	12.359	4.3636	0.1	-10.002
7085	12.359	4.5455	0.1	-10.18
7086	12.359	4.7273	0.1	-10.362
7087	12.359	4.9091	0.1	-10.547
7088	12.359	5.0909	0.1	-10.733
7089	12.359	5.2727	0.1	-10.921
7090	12.359	5.4545	0.1	-11.12
7091	12.359	5.6364	0.1	-11.404
7092	12.359	5.8182	0.1	-13.02
7093	12.544	0.18182	0.1	-13.357
7094	12.544	0.36364	0.1	-11.965
7095	12.544	0.54545	0.1	-11.907
7096	12.544	0.72727	0.1	-11.922
7097	12.544	0.90909	0.1	-11.934
7098	12.544	1.0909	0.1	-11.933
7099	12.544	1.2727	0.1	-11.916
7100	12.544	1.4545	0.1	-11.884
7101	12.544	1.6364	0.1	-11.838
7102	12.544	1.8182	0.1	-11.781
7103	12.544	2.	0.1	-11.719
7104	12.544	2.1818	0.1	-11.656
7105	12.544	2.3636	0.1	-11.597
7106	12.544	2.5455	0.1	-11.548
7107	12.544	2.7273	0.1	-11.513
7108	12.544	2.9091	0.1	-11.495
7109	12.544	3.0909	0.1	-11.495
7110	12.544	3.2727	0.1	-11.513
7111	12.544	3.4545	0.1	-11.548
7112	12.544	3.6364	0.1	-11.597
7113	12.544	3.8182	0.1	-11.656
7114	12.544	4.	0.1	-11.719
7115	12.544	4.1818	0.1	-11.781
7116	12.544	4.3636	0.1	-11.838
7117	12.544	4.5455	0.1	-11.884
7118	12.544	4.7273	0.1	-11.916
7119	12.544	4.9091	0.1	-11.933
7120	12.544	5.0909	0.1	-11.934
7121	12.544	5.2727	0.1	-11.922
7122	12.544	5.4545	0.1	-11.907
7123	12.544	5.6364	0.1	-11.965
7124	12.544	5.8182	0.1	-13.357
7125	12.728	0.18182	0.1	-13.684
7126	12.728	0.36364	0.1	-12.523
7127	12.728	0.54545	0.1	-12.695
7128	12.728	0.72727	0.1	-12.928
7129	12.728	0.90909	0.1	-13.142
7130	12.728	1.0909	0.1	-13.327
7131	12.728	1.2727	0.1	-13.477
7132	12.728	1.4545	0.1	-13.593
7133	12.728	1.6364	0.1	-13.676
7134	12.728	1.8182	0.1	-13.73
7135	12.728	2.	0.1	-13.759
7136	12.728	2.1818	0.1	-13.771
7137	12.728	2.3636	0.1	-13.77
7138	12.728	2.5455	0.1	-13.764
7139	12.728	2.7273	0.1	-13.757
7140	12.728	2.9091	0.1	-13.753
7141	12.728	3.0909	0.1	-13.753
7142	12.728	3.2727	0.1	-13.757
7143	12.728	3.4545	0.1	-13.764
7144	12.728	3.6364	0.1	-13.77
7145	12.728	3.8182	0.1	-13.771
7146	12.728	4.	0.1	-13.759
7147	12.728	4.1818	0.1	-13.73
7148	12.728	4.3636	0.1	-13.676
7149	12.728	4.5455	0.1	-13.593
7150	12.728	4.7273	0.1	-13.477
7151	12.728	4.9091	0.1	-13.327
7152	12.728	5.0909	0.1	-13.142
7153	12.728	5.2727	0.1	-12.928
7154	12.728	5.4545	0.1	-12.695
7155	12.728	5.6364	0.1	-12.523
7156	12.728	5.8182	0.1	-13.684
7157	12.913	0.18182	0.1	-14.003
7158	12.913	0.36364	0.1	-13.083
7159	12.913	0.54545	0.1	-13.492
7160	12.913	0.72727	0.1	-13.948
7161	12.913	0.90909	0.1	-14.368
7162	12.913	1.0909	0.1	-14.74
7163	12.913	1.2727	0.1	-15.058
7164	12.913	1.4545	0.1	-15.32
7165	12.913	1.6364	0.1	-15.529
7166	12.913	1.8182	0.1	-15.689
7167	12.913	2.	0.1	-15.807
7168	12.913	2.1818	0.1	-15.889
7169	12.913	2.3636	0.1	-15.943
7170	12.913	2.5455	0.1	-15.976
7171	12.913	2.7273	0.1	-15.995
7172	12.913	2.9091	0.1	-16.003
7173	12.913	3.0909	0.1	-16.003
7174	12.913	3.2727	0.1	-15.995
7175	12.913	3.4545	0.1	-15.976
7176	12.913	3.6364	0.1	-15.943
7177	12.913	3.8182	0.1	-15.889
7178	12.913	4.	0.1	-15.807
7179	12.913	4.1818	0.1	-15.689
7180	12.913	4.3636	0.1	-15.529
7181	12.913	4.5455	0.1	-15.32
7182	12.913	4.7273	0.1	-15.058
7183	12.913	4.9091	0.1	-14.74
7184	12.913	5.0909	0.1	-14.368
7185	12.913	5.2727	0.1	-13.948
7186	12.913	5.4545	0.1	-13.492
7187	12.913	5.6364	0.1	-13.083
7188	12.913	5.8182	0.1	-14.003
7189	13.097	0.18182	0.1	-14.314
7190	13.097	0.36364	0.1	-13.649
7191	13.097	0.54545	0.1	-14.306
7192	13.097	0.72727	0.1	-14.992
7193	13.097	0.90909	0.1	-15.624
7194	13.097	1.0909	0.1	-16.186
7195	13.097	1.2727	0.1	-16.672
7196	13.097	1.4545	0.1	-17.08
7197	13.097	1.6364	0.1	-17.412
7198	13.097	1.8182	0.1	-17.675
7199	13.097	2.	0.1	-17.875
7200	13.097	2.1818	0.1	-18.023
7201	13.097	2.3636	0.1	-18.126
7202	13.097	2.5455	0.1	-18.195
7203	13.097	2.7273	0.1	-18.237
7204	13.097	2.9091	0.1	-18.256
7205	13.097	3.0909	0.1	-18.256
7206	13.097	3.2727	0.1	-18.237
7207	13.097	3.4545	0.1	-18.195
7208	13.097	3.6364	0.1	-18.126
7209	13.097	3.8182	0.1	-18.023
7210	13.097	4.	0.1	-17.875
7211	13.097	4.1818	0.1	-17.675
7212	13.097	4.3636	0.1	-17.412
7213	13.097	4.5455	0.1	-17.08
7214	13.097	4.7273	0.1	-16.672
7215	13.097	4.9091	0.1	-16.186
7216	13.097	5.0909	0.1	-15.624
7217	13.097	5.2727	0.1	-14.992
7218	13.097	5.4545	0.1	-14.306
7219	13.097	5.6364	0.1	-13.649
7220	13.097	5.8182	0.1	-14.314
7221	13.282	0.18182	0.1	-14.619
7222	13.282	0.36364	0.1	-14.226
7223	13.282	0.54545	0.1	-15.143
7224	13.282	0.72727	0.1	-16.071
7225	13.282	0.90909	0.1	-16.922
7226	13.282	1.0909	0.1	-17.678
7227	13.282	1.2727	0.1	-18.334
7228	13.282	1.4545	0.1	-18.887
7229	13.282	1.6364	0.1	-19.34
7230	13.282	1.8182	0.1	-19.701
7231	13.282	2.	0.1	-19.979
7232	13.282	2.1818	0.1	-20.186
7233	13.282	2.3636	0.1	-20.335
7234	13.282	2.5455	0.1	-20.435
7235	13.282	2.7273	0.1	-20.496
7236	13.282	2.9091	0.1	-20.524
7237	13.282	3.0909	0.1	-20.524
7238	13.282	3.2727	0.1	-20.496
7239	13.282	3.4545	0.1	-20.435
7240	13.282	3.6364	0.1	-20.335
7241	13.282	3.8182	0.1	-20.186
7242	13.282	4.	0.1	-19.979
7243	13.282	4.1818	0.1	-19.701
7244	13.282	4.3636	0.1	-19.34
7245	13.282	4.5455	0.1	-18.887
7246	13.282	4.7273	0.1	-18.334
7247	13.282	4.9091	0.1	-17.678
7248	13.282	5.0909	0.1	-16.922
7249	13.282	5.2727	0.1	-16.071
7250	13.282	5.4545	0.1	-15.143
7251	13.282	5.6364	0.1	-14.226
7252	13.282	5.8182	0.1	-14.619
7253	13.466	0.18182	0.1	-14.919
7254	13.466	0.36364	0.1	-14.821
7255	13.466	0.54545	0.1	-16.015
7256	13.466	0.72727	0.1	-17.196
7257	13.466	0.90909	0.1	-18.276
7258	13.466	1.0909	0.1	-19.233
7259	13.466	1.2727	0.1	-20.061
7260	13.466	1.4545	0.1	-20.758
7261	13.466	1.6364	0.1	-21.328
7262	13.466	1.8182	0.1	-21.782
7263	13.466	2.	0.1	-22.132
7264	13.466	2.1818	0.1	-22.393
7265	13.466	2.3636	0.1	-22.579
7266	13.466	2.5455	0.1	-22.705
7267	13.466	2.7273	0.1	-22.782
7268	13.466	2.9091	0.1	-22.818
7269	13.466	3.0909	0.1	-22.818
7270	13.466	3.2727	0.1	-22.782
7271	13.466	3.4545	0.1	-22.705
7272	13.466	3.6364	0.1	-22.579
7273	13.466	3.8182	0.1	-22.393
7274	13.466	4.	0.1	-22.132
7275	13.466	4.1818	0.1	-21.782
7276	13.466	4.3636	0.1	-21.328
7277	13.466	4.5455	0.1	-20.758
7278	13.466	4.7273	0.1	-20.061
7279	13.466	4.9091	0.1	-19.233
7280	13.466	5.0909	0.1	-18.276
7281	13.466	5.2727	0.1	-17.196
7282	13.466	5.4545	0.1	-16.015
7283	13.466	5.6364	0.1	-14.821
7284	13.466	5.8182	0.1	-14.919
7285	13.65	0.18182	0.1	-15.218
7286	13.65	0.36364	0.1	-15.439
7287	13.65	0.54545	0.1	-16.931
7288	13.65	0.72727	0.1	-18.382
7289	13.65	0.90909	0.1	-19.702
7290	13.65	1.0909	0.1	-20.867
7291	13.65	1.2727	0.1	-21.87
7292	13.65	1.4545	0.1	-22.711
7293	13.65	1.6364	0.1	-23.395
7294	13.65	1.8182	0.1	-23.936
7295	13.65	2.	0.1	-24.351
7296	13.65	2.1818	0.1	-24.657
7297	13.65	2.3636	0.1	-24.874
7298	13.65	2.5455	0.1	-25.019
7299	13.65	2.7273	0.1	-25.107
7300	13.65	2.9091	0.1	-25.148
7301	13.65	3.0909	0.1	-25.148
7302	13.65	3.2727	0.1	-25.107
7303	13.65	3.4545	0.1	-25.019
7304	13.65	3.6364	0.1	-24.874
7305	13.65	3.8182	0.1	-24.657
7306	13.65	4.	0.1	-24.351
7307	13.65	4.1818	0.1	-23.936
7308	13.65	4.3636	0.1	-23.395
7309	13.65	4.5455	0.1	-22.711
7310	13.65	4.7273	0.1	-21.87
7311	13.65	4.9091	0.1	-20.867
7312	13.65	5.0909	0.1	-19.702
7313	13.65	5.2727	0.1	-18.382
7314	13.65	5.4545	0.1	-16.931
7315	13.65	5.6364	0.1	-15.439
7316	13.65	5.8182	0.1	-15.218
7317	13.835	0.18182	0.1	-15.515
7318	13.835	0.36364	0.1	-16.09
7319	13.835	0.54545	0.1	-17.903
7320	13.835	0.72727	0.1	-19.644
7321	13.835	0.90909	0.1	-21.218
7322	13.835	1.0909	0.1	-22.6
7323	13.835	1.2727	0.1	-23.782
7324	13.835	1.4545	0.1	-24.765
7325	13.835	1.6364	0.1	-25.559
7326	13.835	1.8182	0.1	-26.18
7327	13.835	2.	0.1	-26.65
7328	13.835	2.1818	0.1	-26.992
7329	13.835	2.3636	0.1	-27.23
7330	13.835	2.5455	0.1	-27.387
7331	13.835	2.7273	0.1	-27.48
7332	13.835	2.9091	0.1	-27.523
7333	13.835	3.0909	0.1	-27.523
7334	13.835	3.2727	0.1	-27.48
7335	13.835	3.4545	0.1	-27.387
7336	13.835	3.6364	0.1	-27.23
7337	13.835	3.8182	0.1	-26.992
7338	13.835	4.	0.1	-26.65
7339	13.835	4.1818	0.1	-26.18
7340	13.835	4.3636	0.1	-25.559
7341	13.835	4.5455	0.1	-24.765
7342	13.835	4.7273	0.1	-23.782
7343	13.835	4.9091	0.1	-22.6
7344	13.835	5.0909	0.1	-21.218
7345	13.835	5.2727	0.1	-19.644
7346	13.835	5.4545	0.1	-17.903
7347	13.835	5.6364	0.1	-16.09
7348	13.835	5.8182	0.1	-15.515
7349	14.019	0.18182	0.1	-15.814
7350	14.019	0.36364	0.1	-16.78
7351	14.019	0.54545	0.1	-18.945
7352	14.019	0.72727	0.1	-20.999
7353	14.019	0.90909	0.1	-22.844
7354	14.019	1.0909	0.1	-24.454
7355	14.019	1.2727	0.1	-25.819
7356	14.019	1.4545	0.1	-26.944
7357	14.019	1.6364	0.1	-27.841
7358	14.019	1.8182	0.1	-28.533
7359	14.019	2.	0.1	-29.047
7360	14.019	2.1818	0.1	-29.413
7361	14.019	2.3636	0.1	-29.662
7362	14.019	2.5455	0.1	-29.82
7363	14.019	2.7273	0.1	-29.912
7364	14.019	2.9091	0.1	-29.954
7365	14.019	3.0909	0.1	-29.954
7366	14.019	3.2727	0.1	-29.912
7367	14.019	3.4545	0.1	-29.82
7368	14.019	3.6364	0.1	-29.662
7369	14.019	3.8182	0.1	-29.413
7370	14.019	4.	0.1	-29.047
7371	14.019	4.1818	0.1	-28.533
7372	14.019	4.3636	0.1	-27.841
7373	14.019	4.5455	0.1	-26.944
7374	14.019	4.7273	0.1	-25.819
7375	14.019	4.9091	0.1	-24.454
7376	14.019	5.0909	0.1	-22.844
7377	14.019	5.2727	0.1	-20.999
7378	14.019	5.4545	0.1	-18.945
7379	14.019	5.6364	0.1	-16.78
7380	14.019	5.8182	0.1	-15.814
7381	14.204	0.18182	0.1	-16.118
7382	14.204	0.36364	0.1	-17.52
7383	14.204	0.54545	0.1	-20.073
7384	14.204	0.72727	0.1	-22.468
7385	14.204	0.90909	0.1	-24.604
7386	14.204	1.0909	0.1	-26.453
7387	14.204	1.2727	0.1	-28.006
7388	14.204	1.4545	0.1	-29.27
7389	14.204	1.6364	0.1	-30.264
7390	14.204	1.8182	0.1	-31.016
7391	14.204	2.	0.1	-31.561
7392	14.204	2.1818	0.1	-31.937
7393	14.204	2.3636	0.1	-32.182
7394	14.204	2.5455	0.1	-32.331
7395	14.204	2.7273	0.1	-32.413
7396	14.204	2.9091	0.1	-32.448
7397	14.204	3.0909	0.1	-32.448
7398	14.204	3.2727	0.1	-32.413
7399	14.204	3.4545	0.1	-32.331
7400	14.204	3.6364	0.1	-32.182
7401	14.204	3.8182	0.1	-31.937
7402	14.204	4.	0.1	-31.561
7403	14.204	4.1818	0.1	-31.016
7404	14.204	4.3636	0.1	-30.264
7405	14.204	4.5455	0.1	-29.27
7406	14.204	4.7273	0.1	-28.006
7407	14.204	4.9091	0.1	-26.453
7408	14.204	5.0909	0.1	-24.604
7409	14.204	5.2727	0.1	-22.468
7410	14.204	5.4545	0.1	-20.073
7411	14.204	5.6364	0.1	-17.52
7412	14.204	5.8182	0.1	-16.118
7413	14.388	0.18182	0.1	-16.428
7414	14.388	0.36364	0.1	-18.322
7415	14.388	0.54545	0.1	-21.304
7416	14.388	0.72727	0.1	-24.072
7417	14.388	0.90909	0.1	-26.523
7418	14.388	1.0909	0.1	-28.625
7419	14.388	1.2727	0.1	-30.372
7420	14.388	1.4545	0.1	-31.773
7421	14.388	1.6364	0.1	-32.855
7422	14.388	1.8182	0.1	-33.653
7423	14.388	2.	0.1	-34.211
7424	14.388	2.1818	0.1	-34.579
7425	14.388	2.3636	0.1	-34.804
7426	14.388	2.5455	0.1	-34.929
7427	14.388	2.7273	0.1	-34.991
7428	14.388	2.9091	0.1	-35.016
7429	14.388	3.0909	0.1	-35.016
7430	14.388	3.2727	0.1	-34.991
7431	14.388	3.4545	0.1	-34.929
7432	14.388	3.6364	0.1	-34.804
7433	14.388	3.8182	0.1	-34.579
7434	14.388	4.	0.1	-34.211
7435	14.388	4.1818	0.1	-33.653
7436	14.388	4.3636	0.1	-32.855
7437	14.388	4.5455	0.1	-31.773
7438	14.388	4.7273	0.1	-30.372
7439	14.388	4.9091	0.1	-28.625
7440	14.388	5.0909	0.1	-26.523
7441	14.388	5.2727	0.1	-24.072
7442	14.388	5.4545	0.1	-21.304
7443	14.388	5.6364	0.1	-18.322
7444	14.388	5.8182	0.1	-16.428
7445	14.573	0.18182	0.1	-16.748
7446	14.573	0.36364	0.1	-19.198
7447	14.573	0.54545	0.1	-22.659
7448	14.573	0.72727	0.1	-25.839
7449	14.573	0.90909	0.1	-28.632
7450	14.573	1.0909	0.1	-31.004
7451	14.573	1.2727	0.1	-32.949
7452	14.573	1.4545	0.1	-34.484
7453	14.573	1.6364	0.1	-35.641
7454	14.573	1.8182	0.1	-36.469
7455	14.573	2.	0.1	-37.021
7456	14.573	2.1818	0.1	-37.36
7457	14.573	2.3636	0.1	-37.544
7458	14.573	2.5455	0.1	-37.628
7459	14.573	2.7273	0.1	-37.657
7460	14.573	2.9091	0.1	-37.664
7461	14.573	3.0909	0.1	-37.664
7462	14.573	3.2727	0.1	-37.657
7463	14.573	3.4545	0.1	-37.628
7464	14.573	3.6364	0.1	-37.544
7465	14.573	3.8182	0.1	-37.36
7466	14.573	4.	0.1	-37.021
7467	14.573	4.1818	0.1	-36.469
7468	14.573	4.3636	0.1	-35.641
7469	14.573	4.5455	0.1	-34.484
7470	14.573	4.7273	0.1	-32.949
7471	14.573	4.9091	0.1	-31.004
7472	14.573	5.0909	0.1	-28.632
7473	14.573	5.2727	0.1	-25.839
7474	14.573	5.4545	0.1	-22.659
7475	14.573	5.6364	0.1	-19.198
7476	14.573	5.8182	0.1	-16.748
7477	14.757	0.18182	0.1	-17.083
7478	14.757	0.36364	0.1	-20.164
7479	14.757	0.54545	0.1	-24.162
7480	14.757	0.72727	0.1	-27.799
7481	14.757	0.90909	0.1	-30.965
7482	14.757	1.0909	0.1	-33.624
7483	14.757	1.2727	0.1	-35.775
7484	14.757	1.4545	0.1	-37.438
7485	14.757	1.6364	0.1	-38.658
7486	14.757	1.8182	0.1	-39.494
7487	14.757	2.	0.1	-40.016
7488	14.757	2.1818	0.1	-40.299
7489	14.757	2.3636	0.1	-40.418
7490	14.757	2.5455	0.1	-40.44
7491	14.757	2.7273	0.1	-40.421
7492	14.757	2.9091	0.1	-40.401
7493	14.757	3.0909	0.1	-40.401
7494	14.757	3.2727	0.1	-40.421
7495	14.757	3.4545	0.1	-40.44
7496	14.757	3.6364	0.1	-40.418
7497	14.757	3.8182	0.1	-40.299
7498	14.757	4.	0.1	-40.016
7499	14.757	4.1818	0.1	-39.494
7500	14.757	4.3636	0.1	-38.658
7501	14.757	4.5455	0.1	-37.438
7502	14.757	4.7273	0.1	-35.775
7503	14.757	4.9091	0.1	-33.624
7504	14.757	5.0909	0.1	-30.965
7505	14.757	5.2727	0.1	-27.799
7506	14.757	5.4545	0.1	-24.162
7507	14.757	5.6364	0.1	-20.164
7508	14.757	5.8182	0.1	-17.083
7509	14.942	0.18182	0.1	-17.436
7510	14.942	0.36364	0.1	-21.238
7511	14.942	0.54545	0.1	-25.841
7512	14.942	0.72727	0.1	-29.986
7513	14.942	0.90909	0.1	-33.562
7514	14.942	1.0909	0.1	-36.53
7515	14.942	1.2727	0.1	-38.891
7516	14.942	1.4545	0.1	-40.677
7517	14.942	1.6364	0.1	-41.943
7518	14.942	1.8182	0.1	-42.762
7519	14.942	2.	0.1	-43.224
7520	14.942	2.1818	0.1	-43.42
7521	14.942	2.3636	0.1	-43.443
7522	14.942	2.5455	0.1	-43.377
7523	14.942	2.7273	0.1	-43.292
7524	14.942	2.9091	0.1	-43.237
7525	14.942	3.0909	0.1	-43.237
7526	14.942	3.2727	0.1	-43.292
7527	14.942	3.4545	0.1	-43.377
7528	14.942	3.6364	0.1	-43.443
7529	14.942	3.8182	0.1	-43.42
7530	14.942	4.	0.1	-43.224
7531	14.942	4.1818	0.1	-42.763
7532	14.942	4.3636	0.1	-41.943
7533	14.942	4.5455	0.1	-40.677
7534	14.942	4.7273	0.1	-38.891
7535	14.942	4.9091	0.1	-36.53
7536	14.942	5.0909	0.1	-33.562
7537	14.942	5.2727	0.1	-29.987
7538	14.942	5.4545	0.1	-25.841
7539	14.942	5.6364	0.1	-21.238
7540	14.942	5.8182	0.1	-17.436
7541	15.126	0.18182	0.1	-17.812
7542	15.126	0.36364	0.1	-22.438
7543	15.126	0.54545	0.1	-27.725
7544	15.126	0.72727	0.1	-32.44
7545	15.126	0.90909	0.1	-36.467
7546	15.126	1.0909	0.1	-39.768
7547	15.126	1.2727	0.1	-42.348
7548	15.126	1.4545	0.1	-44.249
7549	15.126	1.6364	0.1	-45.54
7550	15.126	1.8182	0.1	-46.313
7551	15.126	2.	0.1	-46.678
7552	15.126	2.1818	0.1	-46.749
7553	15.126	2.3636	0.1	-46.641
7554	15.126	2.5455	0.1	-46.457
7555	15.126	2.7273	0.1	-46.283
7556	15.126	2.9091	0.1	-46.18
7557	15.126	3.0909	0.1	-46.18
7558	15.126	3.2727	0.1	-46.283
7559	15.126	3.4545	0.1	-46.457
7560	15.126	3.6364	0.1	-46.641
7561	15.126	3.8182	0.1	-46.749
7562	15.126	4.	0.1	-46.678
7563	15.126	4.1818	0.1	-46.313
7564	15.126	4.3636	0.1	-45.54
7565	15.126	4.5455	0.1	-44.249
7566	15.126	4.7273	0.1	-42.348
7567	15.126	4.9091	0.1	-39.768
7568	15.126	5.0909	0.1	-36.467
7569	15.126	5.2727	0.1	-32.44
7570	15.126	5.4545	0.1	-27.725
7571	15.126	5.6364	0.1	-22.438
7572	15.126	5.8182	0.1	-17.812
7573	15.311	0.18182	0.1	-18.219
7574	15.311	0.36364	0.1	-23.787
7575	15.311	0.54545	0.1	-29.85
7576	15.311	0.72727	0.1	-35.204
7577	15.311	0.90909	0.1	-39.731
7578	15.311	1.0909	0.1	-43.393
7579	15.311	1.2727	0.1	-46.202
7580	15.311	1.4545	0.1	-48.208
7581	15.311	1.6364	0.1	-49.5
7582	15.311	1.8182	0.1	-50.193
7583	15.311	2.	0.1	-50.418
7584	15.311	2.1818	0.1	-50.318
7585	15.311	2.3636	0.1	-50.035
7586	15.311	2.5455	0.1	-49.695
7587	15.311	2.7273	0.1	-49.405
7588	15.311	2.9091	0.1	-49.241
7589	15.311	3.0909	0.1	-49.241
7590	15.311	3.2727	0.1	-49.405
7591	15.311	3.4545	0.1	-49.695
7592	15.311	3.6364	0.1	-50.035
7593	15.311	3.8182	0.1	-50.319
7594	15.311	4.	0.1	-50.418
7595	15.311	4.1818	0.1	-50.193
7596	15.311	4.3636	0.1	-49.501
7597	15.311	4.5455	0.1	-48.208
7598	15.311	4.7273	0.1	-46.202
7599	15.311	4.9091	0.1	-43.393
7600	15.311	5.0909	0.1	-39.731
7601	15.311	5.2727	0.1	-35.204
7602	15.311	5.4545	0.1	-29.85
7603	15.311	5.6364	0.1	-23.787
7604	15.311	5.8182	0.1	-18.219
7605	15.495	0.18182	0.1	-18.662
7606	15.495	0.36364	0.1	-25.311
7607	15.495	0.54545	0.1	-32.254
7608	15.495	0.72727	0.1	-38.328
7609	15.495	0.90909	0.1	-43.412
7610	15.495	1.0909	0.1	-47.469
7611	15.495	1.2727	0.1	-50.516
7612	15.495	1.4545	0.1	-52.619
7613	15.495	1.6364	0.1	-53.885
7614	15.495	1.8182	0.1	-54.455
7615	15.495	2.	0.1	-54.49
7616	15.495	2.1818	0.1	-54.166
7617	15.495	2.3636	0.1	-53.655
7618	15.495	2.5455	0.1	-53.115
7619	15.495	2.7273	0.1	-52.677
7620	15.495	2.9091	0.1	-52.433
7621	15.495	3.0909	0.1	-52.433
7622	15.495	3.2727	0.1	-52.677
7623	15.495	3.4545	0.1	-53.115
7624	15.495	3.6364	0.1	-53.655
7625	15.495	3.8182	0.1	-54.166
7626	15.495	4.	0.1	-54.49
7627	15.495	4.1818	0.1	-54.455
7628	15.495	4.3636	0.1	-53.885
7629	15.495	4.5455	0.1	-52.619
7630	15.495	4.7273	0.1	-50.516
7631	15.495	4.9091	0.1	-47.469
7632	15.495	5.0909	0.1	-43.413
7633	15.495	5.2727	0.1	-38.328
7634	15.495	5.4545	0.1	-32.254
7635	15.495	5.6364	0.1	-25.311
7636	15.495	5.8182	0.1	-18.662
7637	15.68	0.18182	0.1	-19.151
7638	15.68	0.36364	0.1	-27.037
7639	15.68	0.54545	0.1	-34.98
7640	15.68	0.72727	0.1	-41.866
7641	15.68	0.90909	0.1	-47.574
7642	15.68	1.0909	0.1	-52.066
7643	15.68	1.2727	0.1	-55.367
7644	15.68	1.4545	0.1	-57.557
7645	15.68	1.6364	0.1	-58.767
7646	15.68	1.8182	0.1	-59.165
7647	15.68	2.	0.1	-58.952
7648	15.68	2.1818	0.1	-58.339
7649	15.68	2.3636	0.1	-57.538
7650	15.68	2.5455	0.1	-56.744
7651	15.68	2.7273	0.1	-56.118
7652	15.68	2.9091	0.1	-55.775
7653	15.68	3.0909	0.1	-55.775
7654	15.68	3.2727	0.1	-56.118
7655	15.68	3.4545	0.1	-56.744
7656	15.68	3.6364	0.1	-57.538
7657	15.68	3.8182	0.1	-58.339
7658	15.68	4.	0.1	-58.952
7659	15.68	4.1818	0.1	-59.166
7660	15.68	4.3636	0.1	-58.767
7661	15.68	4.5455	0.1	-57.557
7662	15.68	4.7273	0.1	-55.367
7663	15.68	4.9091	0.1	-52.066
7664	15.68	5.0909	0.1	-47.574
7665	15.68	5.2727	0.1	-41.866
7666	15.68	5.4545	0.1	-34.98
7667	15.68	5.6364	0.1	-27.037
7668	15.68	5.8182	0.1	-19.151
7669	15.864	0.18182	0.1	-19.695
7670	15.864	0.36364	0.1	-28.994
7671	15.864	0.54545	0.1	-38.073
7672	15.864	0.72727	0.1	-45.877
7673	15.864	0.90909	0.1	-52.287
7674	15.864	1.0909	0.1	-57.264
7675	15.864	1.2727	0.1	-60.84
7676	15.864	1.4545	0.1	-63.111
7677	15.864	1.6364	0.1	-64.232
7678	15.864	1.8182	0.1	-64.405
7679	15.864	2.	0.1	-63.873
7680	15.864	2.1818	0.1	-62.894
7681	15.864	2.3636	0.1	-61.73
7682	15.864	2.5455	0.1	-60.617
7683	15.864	2.7273	0.1	-59.757
7684	15.864	2.9091	0.1	-59.289
7685	15.864	3.0909	0.1	-59.289
7686	15.864	3.2727	0.1	-59.757
7687	15.864	3.4545	0.1	-60.617
7688	15.864	3.6364	0.1	-61.73
7689	15.864	3.8182	0.1	-62.894
7690	15.864	4.	0.1	-63.873
7691	15.864	4.1818	0.1	-64.405
7692	15.864	4.3636	0.1	-64.232
7693	15.864	4.5455	0.1	-63.111
7694	15.864	4.7273	0.1	-60.84
7695	15.864	4.9091	0.1	-57.264
7696	15.864	5.0909	0.1	-52.288
7697	15.864	5.2727	0.1	-45.877
7698	15.864	5.4545	0.1	-38.073
7699	15.864	5.6364	0.1	-28.994
7700	15.864	5.8182	0.1	-19.695
7701	16.049	0.18182	0.1	-20.305
7702	16.049	0.36364	0.1	-31.211
7703	16.049	0.54545	0.1	-41.578
7704	16.049	0.72727	0.1	-50.423
7705	16.049	0.90909	0.1	-57.63
7706	16.049	1.0909	0.1	-63.156
7707	16.049	1.2727	0.1	-67.038
7708	16.049	1.4545	0.1	-69.388
7709	16.049	1.6364	0.1	-70.386
7710	16.049	1.8182	0.1	-70.275
7711	16.049	2.	0.1	-69.343
7712	16.049	2.1818	0.1	-67.909
7713	16.049	2.3636	0.1	-66.29
7714	16.049	2.5455	0.1	-64.783
7715	16.049	2.7273	0.1	-63.63
7716	16.049	2.9091	0.1	-63.008
7717	16.049	3.0909	0.1	-63.008
7718	16.049	3.2727	0.1	-63.63
7719	16.049	3.4545	0.1	-64.783
7720	16.049	3.6364	0.1	-66.29
7721	16.049	3.8182	0.1	-67.909
7722	16.049	4.	0.1	-69.343
7723	16.049	4.1818	0.1	-70.275
7724	16.049	4.3636	0.1	-70.386
7725	16.049	4.5455	0.1	-69.388
7726	16.049	4.7273	0.1	-67.038
7727	16.049	4.9091	0.1	-63.156
7728	16.049	5.0909	0.1	-57.63
7729	16.049	5.2727	0.1	-50.423
7730	16.049	5.4545	0.1	-41.578
7731	16.049	5.6364	0.1	-31.211
7732	16.049	5.8182	0.1	-20.305
7733	16.233	0.18182	0.1	-20.992
7734	16.233	0.36364	0.1	-33.717
7735	16.233	0.54545	0.1	-45.541
7736	16.233	0.72727	0.1	-55.568
7737	16.233	0.90909	0.1	-63.685
7738	16.233	1.0909	0.1	-69.844
7739	16.233	1.2727	0.1	-74.082
7740	16.233	1.4545	0.1	-76.52
7741	16.233	1.6364	0.1	-77.365
7742	16.233	1.8182	0.1	-76.901
7743	16.233	2.	0.1	-75.476
7744	16.233	2.1818	0.1	-73.478
7745	16.233	2.3636	0.1	-71.3
7746	16.233	2.5455	0.1	-69.303
7747	16.233	2.7273	0.1	-67.791
7748	16.233	2.9091	0.1	-66.979
7749	16.233	3.0909	0.1	-66.979
7750	16.233	3.2727	0.1	-67.791
7751	16.233	3.4545	0.1	-69.303
7752	16.233	3.6364	0.1	-71.3
7753	16.233	3.8182	0.1	-73.478
7754	16.233	4.	0.1	-75.476
7755	16.233	4.1818	0.1	-76.901
7756	16.233	4.3636	0.1	-77.365
7757	16.233	4.5455	0.1	-76.52
7758	16.233	4.7273	0.1	-74.082
7759	16.233	4.9091	0.1	-69.844
7760	16.233	5.0909	0.1	-63.685
7761	16.233	5.2727	0.1	-55.568
7762	16.233	5.4545	0.1	-45.541
7763	16.233	5.6364	0.1	-33.717
7764	16.233	5.8182	0.1	-20.992
7765	16.417	0.18182	0.1	-21.769
7766	16.417	0.36364	0.1	-36.535
7767	16.417	0.54545	0.1	-50.001
7768	16.417	0.72727	0.1	-61.373
7769	16.417	0.90909	0.1	-70.543
7770	16.417	1.0909	0.1	-77.449
7771	16.417	1.2727	0.1	-82.118
7772	16.417	1.4545	0.1	-84.672
7773	16.417	1.6364	0.1	-85.338
7774	16.417	1.8182	0.1	-84.448
7775	16.417	2.	0.1	-82.422
7776	16.417	2.1818	0.1	-79.732
7777	16.417	2.3636	0.1	-76.863
7778	16.417	2.5455	0.1	-74.265
7779	16.417	2.7273	0.1	-72.311
7780	16.417	2.9091	0.1	-71.266
7781	16.417	3.0909	0.1	-71.266
7782	16.417	3.2727	0.1	-72.311
7783	16.417	3.4545	0.1	-74.265
7784	16.417	3.6364	0.1	-76.863
7785	16.417	3.8182	0.1	-79.732
7786	16.417	4.	0.1	-82.422
7787	16.417	4.1818	0.1	-84.449
7788	16.417	4.3636	0.1	-85.338
7789	16.417	4.5455	0.1	-84.672
7790	16.417	4.7273	0.1	-82.118
7791	16.417	4.9091	0.1	-77.449
7792	16.417	5.0909	0.1	-70.543
7793	16.417	5.2727	0.1	-61.373
7794	16.417	5.4545	0.1	-50.001
7795	16.417	5.6364	0.1	-36.535
7796	16.417	5.8182	0.1	-21.769
7797	16.602	0.18182	0.1	-22.647
7798	16.602	0.36364	0.1	-39.678
7799	16.602	0.54545	0.1	-54.984
7800	16.602	0.72727	0.1	-67.894
7801	16.602	0.90909	0.1	-78.299
7802	16.602	1.0909	0.1	-86.111
7803	16.602	1.2727	0.1	-91.328
7804	16.602	1.4545	0.1	-94.055
7805	16.602	1.6364	0.1	-94.532
7806	16.602	1.8182	0.1	-93.139
7807	16.602	2.	0.1	-90.38
7808	16.602	2.1818	0.1	-86.84
7809	16.602	2.3636	0.1	-83.123
7810	16.602	2.5455	0.1	-79.788
7811	16.602	2.7273	0.1	-77.295
7812	16.602	2.9091	0.1	-75.966
7813	16.602	3.0909	0.1	-75.966
7814	16.602	3.2727	0.1	-77.295
7815	16.602	3.4545	0.1	-79.788
7816	16.602	3.6364	0.1	-83.123
7817	16.602	3.8182	0.1	-86.84
7818	16.602	4.	0.1	-90.38
7819	16.602	4.1818	0.1	-93.139
7820	16.602	4.3636	0.1	-94.532
7821	16.602	4.5455	0.1	-94.055
7822	16.602	4.7273	0.1	-91.328
7823	16.602	4.9091	0.1	-86.111
7824	16.602	5.0909	0.1	-78.299
7825	16.602	5.2727	0.1	-67.894
7826	16.602	5.4545	0.1	-54.984
7827	16.602	5.6364	0.1	-39.678
7828	16.602	5.8182	0.1	-22.647
7829	16.786	0.18182	0.1	-23.636
7830	16.786	0.36364	0.1	-43.142
7831	16.786	0.54545	0.1	-60.497
7832	16.786	0.72727	0.1	-75.171
7833	16.786	0.90909	0.1	-87.052
7834	16.786	1.0909	0.1	-96.
7835	16.786	1.2727	0.1	-101.95
7836	16.786	1.4545	0.1	-104.96
7837	16.786	1.6364	0.1	-105.25
7838	16.786	1.8182	0.1	-103.27
7839	16.786	2.	0.1	-99.621
7840	16.786	2.1818	0.1	-95.033
7841	16.786	2.3636	0.1	-90.271
7842	16.786	2.5455	0.1	-86.034
7843	16.786	2.7273	0.1	-82.886
7844	16.786	2.9091	0.1	-81.214
7845	16.786	3.0909	0.1	-81.214
7846	16.786	3.2727	0.1	-82.886
7847	16.786	3.4545	0.1	-86.034
7848	16.786	3.6364	0.1	-90.271
7849	16.786	3.8182	0.1	-95.033
7850	16.786	4.	0.1	-99.621
7851	16.786	4.1818	0.1	-103.27
7852	16.786	4.3636	0.1	-105.25
7853	16.786	4.5455	0.1	-104.96
7854	16.786	4.7273	0.1	-101.95
7855	16.786	4.9091	0.1	-96.
7856	16.786	5.0909	0.1	-87.052
7857	16.786	5.2727	0.1	-75.171
7858	16.786	5.4545	0.1	-60.497
7859	16.786	5.6364	0.1	-43.142
7860	16.786	5.8182	0.1	-23.636
7861	16.971	0.18182	0.1	-24.737
7862	16.971	0.36364	0.1	-46.891
7863	16.971	0.54545	0.1	-66.511
7864	16.971	0.72727	0.1	-83.227
7865	16.971	0.90909	0.1	-96.91
7866	16.971	1.0909	0.1	-107.33
7867	16.971	1.2727	0.1	-114.3
7868	16.971	1.4545	0.1	-117.77
7869	16.971	1.6364	0.1	-117.93
7870	16.971	1.8182	0.1	-115.27
7871	16.971	2.	0.1	-110.52
7872	16.971	2.1818	0.1	-104.63
7873	16.971	2.3636	0.1	-98.57
7874	16.971	2.5455	0.1	-93.227
7875	16.971	2.7273	0.1	-89.29
7876	16.971	2.9091	0.1	-87.211
7877	16.971	3.0909	0.1	-87.211
7878	16.971	3.2727	0.1	-89.29
7879	16.971	3.4545	0.1	-93.227
7880	16.971	3.6364	0.1	-98.57
7881	16.971	3.8182	0.1	-104.63
7882	16.971	4.	0.1	-110.52
7883	16.971	4.1818	0.1	-115.27
7884	16.971	4.3636	0.1	-117.93
7885	16.971	4.5455	0.1	-117.77
7886	16.971	4.7273	0.1	-114.3
7887	16.971	4.9091	0.1	-107.33
7888	16.971	5.0909	0.1	-96.91
7889	16.971	5.2727	0.1	-83.227
7890	16.971	5.4545	0.1	-66.511
7891	16.971	5.6364	0.1	-46.891
7892	16.971	5.8182	0.1	-24.737
7893	17.155	0.18182	0.1	-25.944
7894	17.155	0.36364	0.1	-50.847
7895	17.155	0.54545	0.1	-72.947
7896	17.155	0.72727	0.1	-92.053
7897	17.155	0.90909	0.1	-107.99
7898	17.155	1.0909	0.1	-120.38
7899	17.155	1.2727	0.1	-128.82
7900	17.155	1.4545	0.1	-133.07
7901	17.155	1.6364	0.1	-133.2
7902	17.155	1.8182	0.1	-129.73
7903	17.155	2.	0.1	-123.61
7904	17.155	2.1818	0.1	-116.06
7905	17.155	2.3636	0.1	-108.37
7906	17.155	2.5455	0.1	-101.68
7907	17.155	2.7273	0.1	-96.8
7908	17.155	2.9091	0.1	-94.247
7909	17.155	3.0909	0.1	-94.247
7910	17.155	3.2727	0.1	-96.8
7911	17.155	3.4545	0.1	-101.68
7912	17.155	3.6364	0.1	-108.37
7913	17.155	3.8182	0.1	-116.06
7914	17.155	4.	0.1	-123.61
7915	17.155	4.1818	0.1	-129.73
7916	17.155	4.3636	0.1	-133.2
7917	17.155	4.5455	0.1	-133.07
7918	17.155	4.7273	0.1	-128.82
7919	17.155	4.9091	0.1	-120.38
7920	17.155	5.0909	0.1	-107.99
7921	17.155	5.2727	0.1	-92.054
7922	17.155	5.4545	0.1	-72.947
7923	17.155	5.6364	0.1	-50.847
7924	17.155	5.8182	0.1	-25.944
7925	17.34	0.18182	0.1	-27.229
7926	17.34	0.36364	0.1	-54.869
7927	17.34	0.54545	0.1	-79.661
7928	17.34	0.72727	0.1	-101.61
7929	17.34	0.90909	0.1	-120.45
7930	17.34	1.0909	0.1	-135.56
7931	17.34	1.2727	0.1	-146.17
7932	17.34	1.4545	0.1	-151.7
7933	17.34	1.6364	0.1	-152.
7934	17.34	1.8182	0.1	-147.58
7935	17.34	2.	0.1	-139.66
7936	17.34	2.1818	0.1	-129.93
7937	17.34	2.3636	0.1	-120.16
7938	17.34	2.5455	0.1	-111.8
7939	17.34	2.7273	0.1	-105.83
7940	17.34	2.9091	0.1	-102.75
7941	17.34	3.0909	0.1	-102.75
7942	17.34	3.2727	0.1	-105.83
7943	17.34	3.4545	0.1	-111.8
7944	17.34	3.6364	0.1	-120.16
7945	17.34	3.8182	0.1	-129.93
7946	17.34	4.	0.1	-139.66
7947	17.34	4.1818	0.1	-147.58
7948	17.34	4.3636	0.1	-152.
7949	17.34	4.5455	0.1	-151.7
7950	17.34	4.7273	0.1	-146.17
7951	17.34	4.9091	0.1	-135.56
7952	17.34	5.0909	0.1	-120.45
7953	17.34	5.2727	0.1	-101.61
7954	17.34	5.4545	0.1	-79.661
7955	17.34	5.6364	0.1	-54.869
7956	17.34	5.8182	0.1	-27.229
7957	17.524	0.18182	0.1	-28.538
7958	17.524	0.36364	0.1	-58.735
7959	17.524	0.54545	0.1	-86.424
7960	17.524	0.72727	0.1	-111.8
7961	17.524	0.90909	0.1	-134.48
7962	17.524	1.0909	0.1	-153.44
7963	17.524	1.2727	0.1	-167.34
7964	17.524	1.4545	0.1	-174.99
7965	17.524	1.6364	0.1	-175.78
7966	17.524	1.8182	0.1	-170.17
7967	17.524	2.	0.1	-159.8
7968	17.524	2.1818	0.1	-147.09
7969	17.524	2.3636	0.1	-134.58
7970	17.524	2.5455	0.1	-124.19
7971	17.524	2.7273	0.1	-116.98
7972	17.524	2.9091	0.1	-113.35
7973	17.524	3.0909	0.1	-113.35
7974	17.524	3.2727	0.1	-116.98
7975	17.524	3.4545	0.1	-124.19
7976	17.524	3.6364	0.1	-134.58
7977	17.524	3.8182	0.1	-147.09
7978	17.524	4.	0.1	-159.8
7979	17.524	4.1818	0.1	-170.17
7980	17.524	4.3636	0.1	-175.78
7981	17.524	4.5455	0.1	-174.99
7982	17.524	4.7273	0.1	-167.34
7983	17.524	4.9091	0.1	-153.44
7984	17.524	5.0909	0.1	-134.48
7985	17.524	5.2727	0.1	-111.8
7986	17.524	5.4545	0.1	-86.424
7987	17.524	5.6364	0.1	-58.735
7988	17.524	5.8182	0.1	-28.538
7989	17.709	0.18182	0.1	-29.778
7990	17.709	0.36364	0.1	-62.126
7991	17.709	0.54545	0.1	-92.925
7992	17.709	0.72727	0.1	-122.55
7993	17.709	0.90909	0.1	-150.41
7994	17.709	1.0909	0.1	-174.91
7995	17.709	1.2727	0.1	-193.85
7996	17.709	1.4545	0.1	-205.
7997	17.709	1.6364	0.1	-206.88
7998	17.709	1.8182	0.1	-199.71
7999	17.709	2.	0.1	-185.75
8000	17.709	2.1818	0.1	-168.75
8001	17.709	2.3636	0.1	-152.5
8002	17.709	2.5455	0.1	-139.61
8003	17.709	2.7273	0.1	-131.1
8004	17.709	2.9091	0.1	-126.97
8005	17.709	3.0909	0.1	-126.97
8006	17.709	3.2727	0.1	-131.1
8007	17.709	3.4545	0.1	-139.61
8008	17.709	3.6364	0.1	-152.5
8009	17.709	3.8182	0.1	-168.75
8010	17.709	4.	0.1	-185.75
8011	17.709	4.1818	0.1	-199.71
8012	17.709	4.3636	0.1	-206.88
8013	17.709	4.5455	0.1	-205.
8014	17.709	4.7273	0.1	-193.85
8015	17.709	4.9091	0.1	-174.91
8016	17.709	5.0909	0.1	-150.41
8017	17.709	5.2727	0.1	-122.55
8018	17.709	5.4545	0.1	-92.925
8019	17.709	5.6364	0.1	-62.126
8020	17.709	5.8182	0.1	-29.778
8021	17.893	0.18182	0.1	-30.81
8022	17.893	0.36364	0.1	-64.645
8023	17.893	0.54545	0.1	-98.821
8024	17.893	0.72727	0.1	-133.83
8025	17.893	0.90909	0.1	-168.78
8026	17.893	1.0909	0.1	-201.31
8027	17.893	1.2727	0.1	-228.04
8028	17.893	1.4545	0.1	-245.04
8029	17.893	1.6364	0.1	-249.15
8030	17.893	1.8182	0.1	-239.8
8031	17.893	2.	0.1	-220.26
8032	17.893	2.1818	0.1	-196.65
8033	17.893	2.3636	0.1	-175.07
8034	17.893	2.5455	0.1	-159.11
8035	17.893	2.7273	0.1	-149.35
8036	17.893	2.9091	0.1	-144.89
8037	17.893	3.0909	0.1	-144.89
8038	17.893	3.2727	0.1	-149.35
8039	17.893	3.4545	0.1	-159.11
8040	17.893	3.6364	0.1	-175.07
8041	17.893	3.8182	0.1	-196.65
8042	17.893	4.	0.1	-220.26
8043	17.893	4.1818	0.1	-239.8
8044	17.893	4.3636	0.1	-249.15
8045	17.893	4.5455	0.1	-245.04
8046	17.893	4.7273	0.1	-228.04
8047	17.893	4.9091	0.1	-201.31
8048	17.893	5.0909	0.1	-168.78
8049	17.893	5.2727	0.1	-133.83
8050	17.893	5.4545	0.1	-98.821
8051	17.893	5.6364	0.1	-64.645
8052	17.893	5.8182	0.1	-30.81
8053	18.078	0.18182	0.1	-31.444
8054	18.078	0.36364	0.1	-65.876
8055	18.078	0.54545	0.1	-103.9
8056	18.078	0.72727	0.1	-145.92
8057	18.078	0.90909	0.1	-190.58
8058	18.078	1.0909	0.1	-234.7
8059	18.078	1.2727	0.1	-273.43
8060	18.078	1.4545	0.1	-300.39
8061	18.078	1.6364	0.1	-309.01
8062	18.078	1.8182	0.1	-296.67
8063	18.078	2.	0.1	-267.74
8064	18.078	2.1818	0.1	-233.2
8065	18.078	2.3636	0.1	-203.76
8066	18.078	2.5455	0.1	-184.06
8067	18.078	2.7273	0.1	-173.29
8068	18.078	2.9091	0.1	-168.78
8069	18.078	3.0909	0.1	-168.78
8070	18.078	3.2727	0.1	-173.29
8071	18.078	3.4545	0.1	-184.06
8072	18.078	3.6364	0.1	-203.76
8073	18.078	3.8182	0.1	-233.2
8074	18.078	4.	0.1	-267.74
8075	18.078	4.1818	0.1	-296.67
8076	18.078	4.3636	0.1	-309.01
8077	18.078	4.5455	0.1	-300.39
8078	18.078	4.7273	0.1	-273.43
8079	18.078	4.9091	0.1	-234.7
8080	18.078	5.0909	0.1	-190.58
8081	18.078	5.2727	0.1	-145.92
8082	18.078	5.4545	0.1	-103.9
8083	18.078	5.6364	0.1	-65.876
8084	18.078	5.8182	0.1	-31.444
8085	18.262	0.18182	0.1	-31.488
8086	18.262	0.36364	0.1	-65.643
8087	18.262	0.54545	0.1	-108.56
8088	18.262	0.72727	0.1	-159.93
8089	18.262	0.90909	0.1	-217.69
8090	18.262	1.0909	0.1	-278.02
8091	18.262	1.2727	0.1	-334.95
8092	18.262	1.4545	0.1	-379.26
8093	18.262	1.6364	0.1	-398.44
8094	18.262	1.8182	0.1	-382.02
8095	18.262	2.	0.1	-336.5
8096	18.262	2.1818	0.1	-282.65
8097	18.262	2.3636	0.1	-240.48
8098	18.262	2.5455	0.1	-216.22
8099	18.262	2.7273	0.1	-204.68
8100	18.262	2.9091	0.1	-200.21
8101	18.262	3.0909	0.1	-200.21
8102	18.262	3.2727	0.1	-204.68
8103	18.262	3.4545	0.1	-216.22
8104	18.262	3.6364	0.1	-240.48
8105	18.262	3.8182	0.1	-282.65
8106	18.262	4.	0.1	-336.5
8107	18.262	4.1818	0.1	-382.02
8108	18.262	4.3636	0.1	-398.44
8109	18.262	4.5455	0.1	-379.26
8110	18.262	4.7273	0.1	-334.95
8111	18.262	4.9091	0.1	-278.02
8112	18.262	5.0909	0.1	-217.69
8113	18.262	5.2727	0.1	-159.93
8114	18.262	5.4545	0.1	-108.56
8115	18.262	5.6364	0.1	-65.643
8116	18.262	5.8182	0.1	-31.488
8117	18.447	0.18182	0.1	-30.753
8118	18.447	0.36364	0.1	-64.626
8119	18.447	0.54545	0.1	-114.9
8120	18.447	0.72727	0.1	-178.87
8121	18.447	0.90909	0.1	-253.4
8122	18.447	1.0909	0.1	-335.05
8123	18.447	1.2727	0.1	-418.31
8124	18.447	1.4545	0.1	-493.25
8125	18.447	1.6364	0.1	-536.37
8126	18.447	1.8182	0.1	-519.21
8127	18.447	2.	0.1	-442.02
8128	18.447	2.1818	0.1	-348.94
8129	18.447	2.3636	0.1	-287.46
8130	18.447	2.5455	0.1	-257.83
8131	18.447	2.7273	0.1	-244.45
8132	18.447	2.9091	0.1	-239.35
8133	18.447	3.0909	0.1	-239.35
8134	18.447	3.2727	0.1	-244.45
8135	18.447	3.4545	0.1	-257.83
8136	18.447	3.6364	0.1	-287.46
8137	18.447	3.8182	0.1	-348.94
8138	18.447	4.	0.1	-442.02
8139	18.447	4.1818	0.1	-519.21
8140	18.447	4.3636	0.1	-536.37
8141	18.447	4.5455	0.1	-493.25
8142	18.447	4.7273	0.1	-418.31
8143	18.447	4.9091	0.1	-335.05
8144	18.447	5.0909	0.1	-253.4
8145	18.447	5.2727	0.1	-178.87
8146	18.447	5.4545	0.1	-114.9
8147	18.447	5.6364	0.1	-64.626
8148	18.447	5.8182	0.1	-30.753
8149	18.631	0.18182	0.1	-30.494
8150	18.631	0.36364	0.1	-67.575
8151	18.631	0.54545	0.1	-130.5
8152	18.631	0.72727	0.1	-210.76
8153	18.631	0.90909	0.1	-304.83
8154	18.631	1.0909	0.1	-411.61
8155	18.631	1.2727	0.1	-530.92
8156	18.631	1.4545	0.1	-654.43
8157	18.631	1.6364	0.1	-766.16
8158	18.631	1.8182	0.1	-789.22
8159	18.631	2.	0.1	-628.34
8160	18.631	2.1818	0.1	-447.58
8161	18.631	2.3636	0.1	-348.5
8162	18.631	2.5455	0.1	-309.02
8163	18.631	2.7273	0.1	-289.59
8164	18.631	2.9091	0.1	-281.69
8165	18.631	3.0909	0.1	-281.69
8166	18.631	3.2727	0.1	-289.59
8167	18.631	3.4545	0.1	-309.02
8168	18.631	3.6364	0.1	-348.5
8169	18.631	3.8182	0.1	-447.58
8170	18.631	4.	0.1	-628.34
8171	18.631	4.1818	0.1	-789.22
8172	18.631	4.3636	0.1	-766.16
8173	18.631	4.5455	0.1	-654.43
8174	18.631	4.7273	0.1	-530.92
8175	18.631	4.9091	0.1	-411.61
8176	18.631	5.0909	0.1	-304.83
8177	18.631	5.2727	0.1	-210.76
8178	18.631	5.4545	0.1	-130.5
8179	18.631	5.6364	0.1	-67.575
8180	18.631	5.8182	0.1	-30.494
8181	18.816	0.18182	0.1	-40.599
8182	18.816	0.36364	0.1	-98.553
8183	18.816	0.54545	0.1	-183.62
8184	18.816	0.72727	0.1	-284.93
8185	18.816	0.90909	0.1	-402.49
8186	18.816	1.0909	0.1	-539.82
8187	18.816	1.2727	0.1	-704.53
8188	18.816	1.4545	0.1	-905.87
8189	18.816	1.6364	0.1	-1179.8
8190	18.816	1.8182	0.1	-1412.1
8191	18.816	2.	0.1	-1098.4
8192	18.816	2.1818	0.1	-578.59
8193	18.816	2.3636	0.1	-426.94
8194	18.816	2.5455	0.1	-357.18
8195	18.816	2.7273	0.1	-327.78
8196	18.816	2.9091	0.1	-314.33
8197	18.816	3.0909	0.1	-314.33
8198	18.816	3.2727	0.1	-327.78
8199	18.816	3.4545	0.1	-357.18
8200	18.816	3.6364	0.1	-426.94
8201	18.816	3.8182	0.1	-578.59
8202	18.816	4.	0.1	-1098.4
8203	18.816	4.1818	0.1	-1412.1
8204	18.816	4.3636	0.1	-1179.8
8205	18.816	4.5455	0.1	-905.87
8206	18.816	4.7273	0.1	-704.53
8207	18.816	4.9091	0.1	-539.82
8208	18.816	5.0909	0.1	-402.49
8209	18.816	5.2727	0.1	-284.93
8210	18.816	5.4545	0.1	-183.62
8211	18.816	5.6364	0.1	-98.553
8212	18.816	5.8182	0.1	-40.599
8213	19.167	3.8182	0.1	-383.99
8214	19.167	3.6364	0.1	-368.27
8215	19.167	3.4545	0.1	-321.66
8216	19.167	3.2727	0.1	-295.96
8217	19.167	3.0909	0.1	-283.73
8218	19.167	2.9091	0.1	-283.73
8219	19.167	2.7273	0.1	-295.96
8220	19.167	2.5455	0.1	-321.66
8221	19.167	2.3636	0.1	-368.27
8222	19.167	2.1818	0.1	-383.99
8223	19.	3.8182	0.1	-623.75
8224	19.	3.6364	0.1	-442.77
8225	19.	3.4545	0.1	-370.59
8226	19.	3.2727	0.1	-333.6
8227	19.	3.0909	0.1	-317.43
8228	19.	2.9091	0.1	-317.43
8229	19.	2.7273	0.1	-333.6
8230	19.	2.5455	0.1	-370.59
8231	19.	2.3636	0.1	-442.77
8232	19.	2.1818	0.1	-623.75
8233	19.167	5.8182	0.1	-14.367
8234	19.167	5.6364	0.1	-34.098
8235	19.167	5.4545	0.1	-57.116
8236	19.167	5.2727	0.1	-83.904
8237	19.167	5.0909	0.1	-115.76
8238	19.167	4.9091	0.1	-155.13
8239	19.167	4.7273	0.1	-205.92
8240	19.167	4.5455	0.1	-283.31
8241	19.167	4.3636	0.1	-346.1
8242	19.167	4.1818	0.1	-873.
8243	19.167	4.	0.1	-530.12
8244	19.	4.	0.1	-1657.9
8245	19.	4.1818	0.1	-1801.9
8246	19.	4.3636	0.1	-958.34
8247	19.	4.5455	0.1	-730.99
8248	19.	4.7273	0.1	-545.76
8249	19.	4.9091	0.1	-410.62
8250	19.	5.0909	0.1	-303.52
8251	19.	5.2727	0.1	-215.34
8252	19.	5.4545	0.1	-141.56
8253	19.	5.6364	0.1	-80.077
8254	19.	5.8182	0.1	-30.303
8255	19.167	0.18182	0.1	-14.367
8256	19.167	0.36364	0.1	-34.098
8257	19.167	0.54545	0.1	-57.116
8258	19.167	0.72727	0.1	-83.904
8259	19.167	0.90909	0.1	-115.76
8260	19.167	1.0909	0.1	-155.13
8261	19.167	1.2727	0.1	-205.92
8262	19.167	1.4545	0.1	-283.31
8263	19.167	1.6364	0.1	-346.1
8264	19.167	1.8182	0.1	-873.
8265	19.167	2.	0.1	-530.12
8266	19.	2.	0.1	-1657.9
8267	19.	1.8182	0.1	-1801.9
8268	19.	1.6364	0.1	-958.34
8269	19.	1.4545	0.1	-730.99
8270	19.	1.2727	0.1	-545.76
8271	19.	1.0909	0.1	-410.62
8272	19.	0.90909	0.1	-303.52
8273	19.	0.72727	0.1	-215.34
8274	19.	0.54545	0.1	-141.56
8275	19.	0.36364	0.1	-80.077
8276	19.	0.18182	0.1	-30.303
8277	19.167	6.	0.1	-2.5508
8278	19.346	6.	0.1	-4.7469
8279	19.525	6.	0.1	-6.3664
8280	19.704	6.	0.1	-7.5601
8281	19.883	6.	0.1	-8.0503
8282	20.062	6.	0.1	-8.0287
8283	20.241	6.	0.1	-7.7513
8284	20.42	6.	0.1	-7.3579
8285	20.599	6.	0.1	-6.9448
8286	20.778	6.	0.1	-6.5674
8287	20.957	6.	0.1	-6.2562
8288	21.136	6.	0.1	-6.0248
8289	21.315	6.	0.1	-5.8768
8290	21.494	6.	0.1	-5.8099
8291	21.673	6.	0.1	-5.8186
8292	21.852	6.	0.1	-5.8955
8293	22.031	6.	0.1	-6.0328
8294	22.21	6.	0.1	-6.2223
8295	22.389	6.	0.1	-6.4554
8296	22.568	6.	0.1	-6.7234
8297	22.747	6.	0.1	-7.0171
8298	22.926	6.	0.1	-7.3264
8299	23.105	6.	0.1	-7.6377
8300	23.284	6.	0.1	-7.9382
8301	23.463	6.	0.1	-8.1796
8302	23.642	6.	0.1	-8.4307
8303	23.821	6.	0.1	-7.7082
8304	24.	6.	0.1	-5.1195
8305	24.	5.8182	0.1	-28.363
8306	24.	5.6364	0.1	-47.308
8307	24.	5.4545	0.1	-60.297
8308	24.	5.2727	0.1	-69.756
8309	24.	5.0909	0.1	-76.675
8310	24.	4.9091	0.1	-81.629
8311	24.	4.7273	0.1	-85.033
8312	24.	4.5455	0.1	-87.215
8313	24.	4.3636	0.1	-88.452
8314	24.	4.1818	0.1	-88.987
8315	24.	4.	0.1	-89.033
8316	24.	3.8182	0.1	-88.775
8317	24.	3.6364	0.1	-88.371
8318	24.	3.4545	0.1	-87.952
8319	24.	3.2727	0.1	-87.616
8320	24.	3.0909	0.1	-87.431
8321	24.	2.9091	0.1	-87.431
8322	24.	2.7273	0.1	-87.616
8323	24.	2.5455	0.1	-87.952
8324	24.	2.3636	0.1	-88.371
8325	24.	2.1818	0.1	-88.775
8326	24.	2.	0.1	-89.033
8327	24.	1.8182	0.1	-88.987
8328	24.	1.6364	0.1	-88.452
8329	24.	1.4545	0.1	-87.215
8330	24.	1.2727	0.1	-85.033
8331	24.	1.0909	0.1	-81.629
8332	24.	0.90909	0.1	-76.675
8333	24.	0.72727	0.1	-69.756
8334	24.	0.54545	0.1	-60.297
8335	24.	0.36364	0.1	-47.308
8336	24.	0.18182	0.1	-28.363
8337	1.5894e-015	0.18182	0.1	1061.9
8338	3.1789e-015	0.36364	0.1	2242.
8339	4.7683e-015	0.54545	0.1	2785.3
8340	6.3578e-015	0.72727	0.1	3109.5
8341	7.9472e-015	0.90909	0.1	3324.7
8342	9.5366e-015	1.0909	0.1	3477.9
8343	1.1126e-014	1.2727	0.1	3591.2
8344	1.2716e-014	1.4545	0.1	3677.
8345	1.4305e-014	1.6364	0.1	3743.1
8346	1.5894e-014	1.8182	0.1	3794.3
8347	1.7484e-014	2.	0.1	3834.
8348	1.9073e-014	2.1818	0.1	3864.5
8349	2.0663e-014	2.3636	0.1	3887.4
8350	2.2252e-014	2.5455	0.1	3903.7
8351	2.3842e-014	2.7273	0.1	3914.3
8352	2.5431e-014	2.9091	0.1	3919.5
8353	2.702e-014	3.0909	0.1	3919.5
8354	2.861e-014	3.2727	0.1	3914.3
8355	3.0199e-014	3.4545	0.1	3903.7
8356	3.1789e-014	3.6364	0.1	3887.4
8357	3.3378e-014	3.8182	0.1	3864.5
8358	3.4968e-014	4.	0.1	3834.
8359	3.6557e-014	4.1818	0.1	3794.3
8360	3.8147e-014	4.3636	0.1	3743.1
8361	3.9736e-014	4.5455	0.1	3677.
8362	4.1325e-014	4.7273	0.1	3591.2
8363	4.2915e-014	4.9091	0.1	3477.9
8364	4.4504e-014	5.0909	0.1	3324.7
8365	4.6094e-014	5.2727	0.1	3109.5
8366	4.7683e-014	5.4545	0.1	2785.3
8367	4.9273e-014	5.6364	0.1	2242.
8368	5.0862e-014	5.8182	0.1	1061.9
8369	24.	0.	0.1	-5.1195
8370	23.821	0.	0.1	-7.7082
8371	23.642	0.	0.1	-8.4307
8372	23.463	0.	0.1	-8.1796
8373	23.284	0.	0.1	-7.9382
8374	23.105	0.	0.1	-7.6377
8375	22.926	0.	0.1	-7.3264
8376	22.747	0.	0.1	-7.0171
8377	22.568	0.	0.1	-6.7234
8378	22.389	0.	0.1	-6.4554
8379	22.21	0.	0.1	-6.2223
8380	22.031	0.	0.1	-6.0328
8381	21.852	0.	0.1	-5.8955
8382	21.673	0.	0.1	-5.8186
8383	21.494	0.	0.1	-5.8099
8384	21.315	0.	0.1	-5.8768
8385	21.136	0.	0.1	-6.0248
8386	20.957	0.	0.1	-6.2562
8387	20.778	0.	0.1	-6.5674
8388	20.599	0.	0.1	-6.9448
8389	20.42	0.	0.1	-7.3579
8390	20.241	0.	0.1	-7.7513
8391	20.062	0.	0.1	-8.0287
8392	19.883	0.	0.1	-8.0503
8393	19.704	0.	0.1	-7.5601
8394	19.525	0.	0.1	-6.3664
8395	19.346	0.	0.1	-4.7469
8396	19.167	0.	0.1	-2.5508
8397	19.	0.	0.1	-3.4896
8398	18.816	1.2495e-029	0.1	-3.8274
8399	18.631	1.2372e-029	0.1	-3.5388
8400	18.447	1.225e-029	0.1	-3.4773
8401	18.262	1.2127e-029	0.1	-3.3314
8402	18.078	1.2005e-029	0.1	-3.1693
8403	17.893	1.1882e-029	0.1	-3.1237
8404	17.709	1.176e-029	0.1	-3.1997
8405	17.524	1.1637e-029	0.1	-3.3857
8406	17.34	1.1515e-029	0.1	-3.6523
8407	17.155	1.1392e-029	0.1	-3.97
8408	16.971	1.127e-029	0.1	-4.312
8409	16.786	1.1147e-029	0.1	-4.6567
8410	16.602	1.1025e-029	0.1	-4.9885
8411	16.417	1.0902e-029	0.1	-5.2969
8412	16.233	1.078e-029	0.1	-5.5756
8413	16.049	1.0657e-029	0.1	-5.8218
8414	15.864	1.0535e-029	0.1	-6.0347
8415	15.68	1.0412e-029	0.1	-6.2152
8416	15.495	1.029e-029	0.1	-6.3654
8417	15.311	1.0167e-029	0.1	-6.4874
8418	15.126	1.0045e-029	0.1	-6.5839
8419	14.942	9.9222e-030	0.1	-6.6574
8420	14.757	9.7997e-030	0.1	-6.7104
8421	14.573	9.6772e-030	0.1	-6.7452
8422	14.388	9.5547e-030	0.1	-6.7637
8423	14.204	9.4322e-030	0.1	-6.7678
8424	14.019	9.3097e-030	0.1	-6.759
8425	13.835	9.1872e-030	0.1	-6.7386
8426	13.65	9.0647e-030	0.1	-6.7079
8427	13.466	8.9422e-030	0.1	-6.6678
8428	13.282	8.8197e-030	0.1	-6.6191
8429	13.097	8.6972e-030	0.1	-6.5625
8430	12.913	8.5747e-030	0.1	-6.4985
8431	12.728	8.4522e-030	0.1	-6.4276
8432	12.544	8.3297e-030	0.1	-6.35
8433	12.359	8.2073e-030	0.1	-6.2661
8434	12.175	8.0848e-030	0.1	-6.176
8435	11.99	7.9623e-030	0.1	-6.0799
8436	11.806	7.8398e-030	0.1	-5.9776
8437	11.621	7.7173e-030	0.1	-5.8693
8438	11.437	7.5948e-030	0.1	-5.7548
8439	11.252	7.4723e-030	0.1	-5.6341
8440	11.068	7.3498e-030	0.1	-5.5069
8441	10.883	7.2273e-030	0.1	-5.3731
8442	10.699	7.1048e-030	0.1	-5.2325
8443	10.515	6.9823e-030	0.1	-5.0847
8444	10.33	6.8598e-030	0.1	-4.9294
8445	10.146	6.7373e-030	0.1	-4.7664
8446	9.9612	6.6148e-030	0.1	-4.5953
8447	9.7767	6.4923e-030	0.1	-4.4156
8448	9.5922	6.3698e-030	0.1	-4.2271
8449	9.4078	6.2473e-030	0.1	-4.0294
8450	9.2233	6.1248e-030	0.1	-3.8219
8451	9.0388	6.0023e-030	0.1	-3.6045
8452	8.8544	5.8798e-030	0.1	-3.3766
8453	8.6699	5.7573e-030	0.1	-3.138
8454	8.4854	5.6348e-030	0.1	-2.8883
8455	8.301	5.5123e-030	0.1	-2.6273
8456	8.1165	5.3898e-030	0.1	-2.3548
8457	7.932	5.2673e-030	0.1	-2.0708
8458	7.7476	5.1448e-030	0.1	-1.7752
8459	7.5631	5.0223e-030	0.1	-1.4684
8460	7.3786	4.8999e-030	0.1	-1.1506
8461	7.1942	4.7774e-030	0.1	-0.82263
8462	7.0097	4.6549e-030	0.1	-0.4868
8463	6.8252	4.5324e-030	0.1	-0.48147
8464	6.6408	4.4099e-030	0.1	-0.52576
8465	6.4563	4.2874e-030	0.1	-0.57376
8466	6.2718	4.1649e-030	0.1	-0.6257
8467	6.0874	4.0424e-030	0.1	-0.68186
8468	5.9029	3.9199e-030	0.1	-0.74262
8469	5.7184	3.7974e-030	0.1	-0.80833
8470	5.534	3.6749e-030	0.1	-0.87939
8471	5.3495	3.5524e-030	0.1	-0.95628
8472	5.165	3.4299e-030	0.1	-1.0395
8473	4.9806	3.3074e-030	0.1	-1.1296
8474	4.7961	3.1849e-030	0.1	-1.2272
8475	4.6117	3.0624e-030	0.1	-1.3331
8476	4.4272	2.9399e-030	0.1	-1.4483
8477	4.2427	2.8174e-030	0.1	-1.574
8478	4.0583	2.6949e-030	0.1	-1.7118
8479	3.8738	2.5724e-030	0.1	-1.8646
8480	3.6893	2.4499e-030	0.1	-2.0372
8481	3.5049	2.3274e-030	0.1	-2.2401
8482	3.3204	2.2049e-030	0.1	-2.5034
8483	3.1359	2.0824e-030	0.1	-2.9494
8484	2.9515	1.9599e-030	0.1	-4.0498
8485	2.767	1.8374e-030	0.1	-6.1346
8486	2.5825	1.7149e-030	0.1	-8.9796
8487	2.3981	1.5925e-030	0.1	-12.568
8488	2.2136	1.47e-030	0.1	-17.009
8489	2.0291	1.3475e-030	0.1	-22.472
8490	1.8447	1.225e-030	0.1	-29.188
8491	1.6602	1.1025e-030	0.1	-37.471
8492	1.4757	9.7997e-031	0.1	-47.754
8493	1.2913	8.5747e-031	0.1	-60.709
8494	1.1068	7.3498e-031	0.1	-77.238
8495	0.92233	6.1248e-031	0.1	-99.338
8496	0.73786	4.8999e-031	0.1	-129.29
8497	0.5534	3.6749e-031	0.1	-175.79
8498	0.36893	2.4499e-031	0.1	-255.86
8499	0.18447	1.225e-031	0.1	-442.18
8500	0.	0.	0.1	-1819.5
8501	3.937e-014	6.	0.1	-1819.5
8502	0.18447	6.	0.1	-442.18
8503	0.36893	6.	0.1	-255.86
8504	0.5534	6.	0.1	-175.79
8505	0.73786	6.	0.1	-129.29
8506	0.92233	6.	0.1	-99.338
8507	1.1068	6.	0.1	-77.238
8508	1.2913	6.	0.1	-60.709
8509	1.4757	6.	0.1	-47.754
8510	1.6602	6.	0.1	-37.471
8511	1.8447	6.	0.1	-29.188
8512	2.0291	6.	0.1	-22.472
8513	2.2136	6.	0.1	-17.009
8514	2.3981	6.	0.1	-12.568
8515	2.5825	6.	0.1	-8.9796
8516	2.767	6.	0.1	-6.1346
8517	2.9515	6.	0.1	-4.0498
8518	3.1359	6.	0.1	-2.9494
8519	3.3204	6.	0.1	-2.5034
8520	3.5049	6.	0.1	-2.2401
8521	3.6893	6.	0.1	-2.0372
8522	3.8738	6.	0.1	-1.8646
8523	4.0583	6.	0.1	-1.7118
8524	4.2427	6.	0.1	-1.574
8525	4.4272	6.	0.1	-1.4483
8526	4.6117	6.	0.1	-1.3331
8527	4.7961	6.	0.1	-1.2272
8528	4.9806	6.	0.1	-1.1296
8529	5.165	6.	0.1	-1.0395
8530	5.3495	6.	0.1	-0.95628
8531	5.534	6.	0.1	-0.87939
8532	5.7184	6.	0.1	-0.80833
8533	5.9029	6.	0.1	-0.74262
8534	6.0874	6.	0.1	-0.68186
8535	6.2718	6.	0.1	-0.62569
8536	6.4563	6.	0.1	-0.57376
8537	6.6408	6.	0.1	-0.52576
8538	6.8252	6.	0.1	-0.48147
8539	7.0097	6.	0.1	-0.4868
8540	7.1942	6.	0.1	-0.82263
8541	7.3786	6.	0.1	-1.1506
8542	7.5631	6.	0.1	-1.4684
8543	7.7476	6.	0.1	-1.7752
8544	7.932	6.	0.1	-2.0708
8545	8.1165	6.	0.1	-2.3548
8546	8.301	6.	0.1	-2.6273
8547	8.4854	6.	0.1	-2.8883
8548	8.6699	6.	0.1	-3.1379
8549	8.8544	6.	0.1	-3.3766
8550	9.0388	6.	0.1	-3.6045
8551	9.2233	6.	0.1	-3.8219
8552	9.4078	6.	0.1	-4.0294
8553	9.5922	6.	0.1	-4.2271
8554	9.7767	6.	0.1	-4.4156
8555	9.9612	6.	0.1	-4.5953
8556	10.146	6.	0.1	-4.7664
8557	10.33	6.	0.1	-4.9294
8558	10.515	6.	0.1	-5.0847
8559	10.699	6.	0.1	-5.2325
8560	10.883	6.	0.1	-5.3731
8561	11.068	6.	0.1	-5.5069
8562	11.252	6.	0.1	-5.6341
8563	11.437	6.	0.1	-5.7548
8564	11.621	6.	0.1	-5.8693
8565	11.806	6.	0.1	-5.9776
8566	11.99	6.	0.1	-6.0799
8567	12.175	6.	0.1	-6.176
8568	12.359	6.	0.1	-6.2661
8569	12.544	6.	0.1	-6.35
8570	12.728	6.	0.1	-6.4276
8571	12.913	6.	0.1	-6.4985
8572	13.097	6.	0.1	-6.5625
8573	13.282	6.	0.1	-6.6191
8574	13.466	6.	0.1	-6.6678
8575	13.65	6.	0.1	-6.7079
8576	13.835	6.	0.1	-6.7386
8577	14.019	6.	0.1	-6.759
8578	14.204	6.	0.1	-6.7678
8579	14.388	6.	0.1	-6.7637
8580	14.573	6.	0.1	-6.7452
8581	14.757	6.	0.1	-6.7104
8582	14.942	6.	0.1	-6.6574
8583	15.126	6.	0.1	-6.5839
8584	15.311	6.	0.1	-6.4874
8585	15.495	6.	0.1	-6.3653
8586	15.68	6.	0.1	-6.2152
8587	15.864	6.	0.1	-6.0347
8588	16.049	6.	0.1	-5.8218
8589	16.233	6.	0.1	-5.5756
8590	16.417	6.	0.1	-5.2969
8591	16.602	6.	0.1	-4.9885
8592	16.786	6.	0.1	-4.6567
8593	16.971	6.	0.1	-4.312
8594	17.155	6.	0.1	-3.97
8595	17.34	6.	0.1	-3.6523
8596	17.524	6.	0.1	-3.3857
8597	17.709	6.	0.1	-3.1997
8598	17.893	6.	0.1	-3.1237
8599	18.078	6.	0.1	-3.1693
8600	18.262	6.	0.1	-3.3314
8601	18.447	6.	0.1	-3.4773
8602	18.631	6.	0.1	-3.5388
8603	18.816	6.	0.1	-3.8274
8604	19.	6.	0.1	-3.4896
8605	18.816	6.	0.	-163.91
8606	18.631	6.	0.	-333.17
8607	18.447	6.	0.	-492.85
8608	18.262	6.	0.	-643.16
8609	18.078	6.	0.	-782.83
8610	17.893	6.	0.	-911.01
8611	17.709	6.	0.	-1027.7
8612	17.524	6.	0.	-1133.4
8613	17.34	6.	0.	-1229.2
8614	17.155	6.	0.	-1316.4
8615	16.971	6.	0.	-1396.1
8616	16.786	6.	0.	-1469.6
8617	16.602	6.	0.	-1537.8
8618	16.417	6.	0.	-1601.9
8619	16.233	6.	0.	-1662.5
8620	16.049	6.	0.	-1720.4
8621	15.864	6.	0.	-1776.
8622	15.68	6.	0.	-1830.
8623	15.495	6.	0.	-1882.5
8624	15.311	6.	0.	-1934.
8625	15.126	6.	0.	-1984.8
8626	14.942	6.	0.	-2034.9
8627	14.757	6.	0.	-2084.5
8628	14.573	6.	0.	-2133.9
8629	14.388	6.	0.	-2183.
8630	14.204	6.	0.	-2232.
8631	14.019	6.	0.	-2280.9
8632	13.835	6.	0.	-2329.8
8633	13.65	6.	0.	-2378.7
8634	13.466	6.	0.	-2427.7
8635	13.282	6.	0.	-2476.8
8636	13.097	6.	0.	-2526.
8637	12.913	6.	0.	-2575.3
8638	12.728	6.	0.	-2624.8
8639	12.544	6.	0.	-2674.4
8640	12.359	6.	0.	-2724.2
8641	12.175	6.	0.	-2774.2
8642	11.99	6.	0.	-2824.3
8643	11.806	6.	0.	-2874.7
8644	11.621	6.	0.	-2925.2
8645	11.437	6.	0.	-2976.
8646	11.252	6.	0.	-3027.
8647	11.068	6.	0.	-3078.2
8648	10.883	6.	0.	-3129.6
8649	10.699	6.	0.	-3181.2
8650	10.515	6.	0.	-3233.1
8651	10.33	6.	0.	-3285.2
8652	10.146	6.	0.	-3337.6
8653	9.9612	6.	0.	-3390.2
8654	9.7767	6.	0.	-3443.
8655	9.5922	6.	0.	-3496.1
8656	9.4078	6.	0.	-3549.5
8657	9.2233	6.	0.	-3603.2
8658	9.0388	6.	0.	-3657.1
8659	8.8544	6.	0.	-3711.3
8660	8.6699	6.	0.	-3765.9
8661	8.4854	6.	0.	-3820.7
8662	8.301	6.	0.	-3875.8
8663	8.1165	6.	0.	-3931.3
8664	7.932	6.	0.	-3987.1
8665	7.7476	6.	0.	-4043.3
8666	7.5631	6.	0.	-4099.8
8667	7.3786	6.	0.	-4156.7
8668	7.1942	6.	0.	-4214.
8669	7.0097	6.	0.	-4271.7
8670	6.8252	6.	0.	-4329.9
8671	6.6408	6.	0.	-4388.4
8672	6.4563	6.	0.	-4447.5
8673	6.2718	6.	0.	-4507.
8674	6.0874	6.	0.	-4567.
8675	5.9029	6.	0.	-4627.5
8676	5.7184	6.	0.	-4688.6
8677	5.534	6.	0.	-4750.2
8678	5.3495	6.	0.	-4812.4
8679	5.165	6.	0.	-4875.2
8680	4.9806	6.	0.	-4938.6
8681	4.7961	6.	0.	-5002.5
8682	4.6117	6.	0.	-5067.1
8683	4.4272	6.	0.	-5132.2
8684	4.2427	6.	0.	-5197.9
8685	4.0583	6.	0.	-5264.
8686	3.8738	6.	0.	-5330.5
8687	3.6893	6.	0.	-5397.3
8688	3.5049	6.	0.	-5464.2
8689	3.3204	6.	0.	-5531.
8690	3.1359	6.	0.	-5597.4
8691	2.9515	6.	0.	-5662.9
8692	2.767	6.	0.	-5727.
8693	2.5825	6.	0.	-5789.
8694	2.3981	6.	0.	-5847.9
8695	2.2136	6.	0.	-5902.3
8696	2.0291	6.	0.	-5950.5
8697	1.8447	6.	0.	-5990.1
8698	1.6602	6.	0.	-6017.7
8699	1.4757	6.	0.	-6028.4
8700	1.2913	6.	0.	-6015.2
8701	1.1068	6.	0.	-5967.3
8702	0.92233	6.	0.	-5867.2
8703	0.73786	6.	0.	-5686.
8704	0.5534	6.	0.	-5362.2
8705	0.36893	6.	0.	-4787.1
8706	0.18447	6.	0.	-3575.3
8707	19.	6.	0.	-15.109
8708	3.937e-014	6.	0.	-764.75
8709	0.18447	1.225e-031	0.	-3575.3
8710	0.36893	2.4499e-031	0.	-4787.1
8711	0.5534	3.6749e-031	0.	-5362.2
8712	0.73786	4.8999e-031	0.	-5686.
8713	0.92233	6.1248e-031	0.	-5867.2
8714	1.1068	7.3498e-031	0.	-5967.3
8715	1.2913	8.5747e-031	0.	-6015.2
8716	1.4757	9.7997e-031	0.	-6028.4
8717	1.6602	1.1025e-030	0.	-6017.7
8718	1.8447	1.225e-030	0.	-5990.1
8719	2.0291	1.3475e-030	0.	-5950.5
8720	2.2136	1.47e-030	0.	-5902.3
8721	2.3981	1.5925e-030	0.	-5847.9
8722	2.5825	1.7149e-030	0.	-5789.
8723	2.767	1.8374e-030	0.	-5727.
8724	2.9515	1.9599e-030	0.	-5662.9
8725	3.1359	2.0824e-030	0.	-5597.4
8726	3.3204	2.2049e-030	0.	-5531.
8727	3.5049	2.3274e-030	0.	-5464.2
8728	3.6893	2.4499e-030	0.	-5397.3
8729	3.8738	2.5724e-030	0.	-5330.5
8730	4.0583	2.6949e-030	0.	-5264.
8731	4.2427	2.8174e-030	0.	-5197.9
8732	4.4272	2.9399e-030	0.	-5132.2
8733	4.6117	3.0624e-030	0.	-5067.1
8734	4.7961	3.1849e-030	0.	-5002.5
8735	4.9806	3.3074e-030	0.	-4938.6
8736	5.165	3.4299e-030	0.	-4875.2
8737	5.3495	3.5524e-030	0.	-4812.4
8738	5.534	3.6749e-030	0.	-4750.2
8739	5.7184	3.7974e-030	0.	-4688.6
8740	5.9029	3.9199e-030	0.	-4627.5
8741	6.0874	4.0424e-030	0.	-4567.
8742	6.2718	4.1649e-030	0.	-4507.
8743	6.4563	4.2874e-030	0.	-4447.5
8744	6.6408	4.4099e-030	0.	-4388.4
8745	6.8252	4.5324e-030	0.	-4329.9
8746	7.0097	4.6549e-030	0.	-4271.7
8747	7.1942	4.7774e-030	0.	-4214.
8748	7.3786	4.8999e-030	0.	-4156.7
8749	7.5631	5.0223e-030	0.	-4099.8
8750	7.7476	5.1448e-030	0.	-4043.3
8751	7.932	5.2673e-030	0.	-3987.1
8752	8.1165	5.3898e-030	0.	-3931.3
8753	8.301	5.5123e-030	0.	-3875.8
8754	8.4854	5.6348e-030	0.	-3820.7
8755	8.6699	5.7573e-030	0.	-3765.9
8756	8.8544	5.8798e-030	0.	-3711.3
8757	9.0388	6.0023e-030	0.	-3657.1
8758	9.2233	6.1248e-030	0.	-3603.2
8759	9.4078	6.2473e-030	0.	-3549.5
8760	9.5922	6.3698e-030	0.	-3496.1
8761	9.7767	6.4923e-030	0.	-3443.
8762	9.9612	6.6148e-030	0.	-3390.2
8763	10.146	6.7373e-030	0.	-3337.6
8764	10.33	6.8598e-030	0.	-3285.2
8765	10.515	6.9823e-030	0.	-3233.1
8766	10.699	7.1048e-030	0.	-3181.2
8767	10.883	7.2273e-030	0.	-3129.6
8768	11.068	7.3498e-030	0.	-3078.2
8769	11.252	7.4723e-030	0.	-3027.
8770	11.437	7.5948e-030	0.	-2976.
8771	11.621	7.7173e-030	0.	-2925.2
8772	11.806	7.8398e-030	0.	-2874.7
8773	11.99	7.9623e-030	0.	-2824.3
8774	12.175	8.0848e-030	0.	-2774.2
8775	12.359	8.2073e-030	0.	-2724.2
8776	12.544	8.3297e-030	0.	-2674.4
8777	12.728	8.4522e-030	0.	-2624.8
8778	12.913	8.5747e-030	0.	-2575.3
8779	13.097	8.6972e-030	0.	-2526.
8780	13.282	8.8197e-030	0.	-2476.8
8781	13.466	8.9422e-030	0.	-2427.7
8782	13.65	9.0647e-030	0.	-2378.7
8783	13.835	9.1872e-030	0.	-2329.8
8784	14.019	9.3097e-030	0.	-2280.9
8785	14.204	9.4322e-030	0.	-2232.
8786	14.388	9.5547e-030	0.	-2183.
8787	14.573	9.6772e-030	0.	-2133.9
8788	14.757	9.7997e-030	0.	-2084.5
8789	14.942	9.9222e-030	0.	-2034.9
8790	15.126	1.0045e-029	0.	-1984.8
8791	15.311	1.0167e-029	0.	-1934.
8792	15.495	1.029e-029	0.	-1882.5
8793	15.68	1.0412e-029	0.	-1830.
8794	15.864	1.0535e-029	0.	-1776.
8795	16.049	1.0657e-029	0.	-1720.4
8796	16.233	1.078e-029	0.	-1662.5
8797	16.417	1.0902e-029	0.	-1601.9
8798	16.602	1.1025e-029	0.	-1537.8
8799	16.786	1.1147e-029	0.	-1469.6
8800	16.971	1.127e-029	0.	-1396.1
8801	17.155	1.1392e-029	0.	-1316.4
8802	17.34	1.1515e-029	0.	-1229.2
8803	17.524	1.1637e-029	0.	-1133.4
8804	17.709	1.176e-029	0.	-1027.7
8805	17.893	1.1882e-029	0.	-911.01
8806	18.078	1.2005e-029	0.	-782.83
8807	18.262	1.2127e-029	0.	-643.16
8808	18.447	1.225e-029	0.	-492.85
8809	18.631	1.2372e-029	0.	-333.17
8810	18.816	1.2495e-029	0.	-163.91
8811	19.	0.	0.	-15.109
8812	0.	0.	0.	-764.75
8813	19.346	0.	0.	-105.62
8814	19.525	0.	0.	-202.48
8815	19.704	0.	0.	-284.03
8816	19.883	0.	0.	-351.82
8817	20.062	0.	0.	-405.91
8818	20.241	0.	0.	-446.64
8819	20.42	0.	0.	-474.86
8820	20.599	0.	0.	-491.77
8821	20.778	0.	0.	-498.76
8822	20.957	0.	0.	-497.26
8823	21.136	0.	0.	-488.62
8824	21.315	0.	0.	-474.05
8825	21.494	0.	0.	-454.64
8826	21.673	0.	0.	-431.31
8827	21.852	0.	0.	-404.83
8828	22.031	0.	0.	-375.85
8829	22.21	0.	0.	-344.91
8830	22.389	0.	0.	-312.44
8831	22.568	0.	0.	-278.8
8832	22.747	0.	0.	-244.3
8833	22.926	0.	0.	-209.2
8834	23.105	0.	0.	-173.72
8835	23.284	0.	0.	-138.08
8836	23.463	0.	0.	-102.53
8837	23.642	0.	0.	-67.467
8838	23.821	0.	0.	-33.768
8839	19.167	0.	0.	-10.251
8840	24.	0.	0.	-5.6084
8841	5.0862e-014	5.8182	0.	-2498.8
8842	4.9273e-014	5.6364	0.	-4637.
8843	4.7683e-014	5.4545	0.	-5686.6
8844	4.6094e-014	5.2727	0.	-6332.
8845	4.4504e-014	5.0909	0.	-6762.7
8846	4.2915e-014	4.9091	0.	-7070.2
8847	4.1325e-014	4.7273	0.	-7297.9
8848	3.9736e-014	4.5455	0.	-7470.5
8849	3.8147e-014	4.3636	0.	-7603.5
8850	3.6557e-014	4.1818	0.	-7706.6
8851	3.4968e-014	4.	0.	-7786.5
8852	3.3378e-014	3.8182	0.	-7847.8
8853	3.1789e-014	3.6364	0.	-7893.7
8854	3.0199e-014	3.4545	0.	-7926.4
8855	2.861e-014	3.2727	0.	-7947.4
8856	2.702e-014	3.0909	0.	-7957.7
8857	2.5431e-014	2.9091	0.	-7957.7
8858	2.3842e-014	2.7273	0.	-7947.4
8859	2.2252e-014	2.5455	0.	-7926.4
8860	2.0663e-014	2.3636	0.	-7893.7
8861	1.9073e-014	2.1818	0.	-7847.8
8862	1.7484e-014	2.	0.	-7786.5
8863	1.5894e-014	1.8182	0.	-7706.6
8864	1.4305e-014	1.6364	0.	-7603.5
8865	1.2716e-014	1.4545	0.	-7470.5
8866	1.1126e-014	1.2727	0.	-7297.9
8867	9.5366e-015	1.0909	0.	-7070.2
8868	7.9472e-015	0.90909	0.	-6762.7
8869	6.3578e-015	0.72727	0.	-6332.
8870	4.7683e-015	0.54545	0.	-5686.6
8871	3.1789e-015	0.36364	0.	-4637.
8872	1.5894e-015	0.18182	0.	-2498.8
8873	24.	0.18182	0.	-6.5336
8874	24.	0.36364	0.	-6.6938
8875	24.	0.54545	0.	-6.732
8876	24.	0.72727	0.	-6.731
8877	24.	0.90909	0.	-6.7011
8878	24.	1.0909	0.	-6.6664
8879	24.	1.2727	0.	-6.6296
8880	24.	1.4545	0.	-6.5941
8881	24.	1.6364	0.	-6.5613
8882	24.	1.8182	0.	-6.5317
8883	24.	2.	0.	-6.506
8884	24.	2.1818	0.	-6.4842
8885	24.	2.3636	0.	-6.4667
8886	24.	2.5455	0.	-6.4535
8887	24.	2.7273	0.	-6.4446
8888	24.	2.9091	0.	-6.4402
8889	24.	3.0909	0.	-6.4402
8890	24.	3.2727	0.	-6.4446
8891	24.	3.4545	0.	-6.4535
8892	24.	3.6364	0.	-6.4667
8893	24.	3.8182	0.	-6.4842
8894	24.	4.	0.	-6.506
8895	24.	4.1818	0.	-6.5317
8896	24.	4.3636	0.	-6.5613
8897	24.	4.5455	0.	-6.5941
8898	24.	4.7273	0.	-6.6296
8899	24.	4.9091	0.	-6.6664
8900	24.	5.0909	0.	-6.7011
8901	24.	5.2727	0.	-6.731
8902	24.	5.4545	0.	-6.732
8903	24.	5.6364	0.	-6.6938
8904	24.	5.8182	0.	-6.5336
8905	24.	6.	0.	-5.6083
8906	23.821	6.	0.	-33.768
8907	23.642	6.	0.	-67.467
8908	23.463	6.	0.	-102.53
8909	23.284	6.	0.	-138.08
8910	23.105	6.	0.	-173.72
8911	22.926	6.	0.	-209.2
8912	22.747	6.	0.	-244.3
8913	22.568	6.	0.	-278.8
8914	22.389	6.	0.	-312.44
8915	22.21	6.	0.	-344.91
8916	22.031	6.	0.	-375.85
8917	21.852	6.	0.	-404.83
8918	21.673	6.	0.	-431.31
8919	21.494	6.	0.	-454.64
8920	21.315	6.	0.	-474.05
8921	21.136	6.	0.	-488.62
8922	20.957	6.	0.	-497.26
8923	20.778	6.	0.	-498.76
8924	20.599	6.	0.	-491.77
8925	20.42	6.	0.	-474.86
8926	20.241	6.	0.	-446.64
8927	20.062	6.	0.	-405.91
8928	19.883	6.	0.	-351.82
8929	19.704	6.	0.	-284.03
8930	19.525	6.	0.	-202.48
8931	19.346	6.	0.	-105.62
8932	19.167	6.	0.	-10.251
8933	19.	1.8182	0.	-1201.5
8934	19.	1.6364	0.	-801.46
8935	19.	1.4545	0.	-644.56
8936	19.	1.2727	0.	-529.42
8937	19.	1.0909	0.	-444.02
8938	19.	0.90909	0.	-372.15
8939	19.	0.72727	0.	-307.92
8940	19.	0.54545	0.	-246.44
8941	19.	0.36364	0.	-183.1
8942	19.	0.18182	0.	-108.06
8943	19.	2.	0.	-5292.1
8944	19.167	0.18182	0.	-86.747
8945	19.167	0.36364	0.	-155.94
8946	19.167	0.54545	0.	-219.43
8947	19.167	0.72727	0.	-285.6
8948	19.167	0.90909	0.	-359.56
8949	19.167	1.0909	0.	-447.39
8950	19.167	1.2727	0.	-557.57
8951	19.167	1.4545	0.	-709.92
8952	19.167	1.6364	0.	-920.05
8953	19.167	1.8182	0.	-1407.2
8954	19.167	2.	0.	-5545.8
8955	19.	4.1818	0.	-1201.5
8956	19.	4.3636	0.	-801.46
8957	19.	4.5455	0.	-644.56
8958	19.	4.7273	0.	-529.42
8959	19.	4.9091	0.	-444.02
8960	19.	5.0909	0.	-372.15
8961	19.	5.2727	0.	-307.92
8962	19.	5.4545	0.	-246.44
8963	19.	5.6364	0.	-183.1
8964	19.	5.8182	0.	-108.06
8965	19.	4.	0.	-5292.1
8966	19.167	5.8182	0.	-86.747
8967	19.167	5.6364	0.	-155.94
8968	19.167	5.4545	0.	-219.43
8969	19.167	5.2727	0.	-285.6
8970	19.167	5.0909	0.	-359.56
8971	19.167	4.9091	0.	-447.39
8972	19.167	4.7273	0.	-557.57
8973	19.167	4.5455	0.	-709.92
8974	19.167	4.3636	0.	-920.05
8975	19.167	4.1818	0.	-1407.2
8976	19.167	4.	0.	-5545.8
8977	19.	2.2727	0.	-3365.1
8978	19.083	2.1818	0.	-3736.
8979	18.908	2.1818	0.	-3233.8
8980	19.	2.1818	5.e-002	-158.01
8981	19.	2.0909	0.	-4442.
8982	19.	2.4545	0.	-2812.1
8983	19.083	2.3636	0.	-2973.7
8984	18.908	2.3636	0.	-2807.1
8985	19.	2.3636	5.e-002	-23.176
8986	19.	2.6364	0.	-2554.3
8987	19.083	2.5455	0.	-2628.3
8988	18.908	2.5455	0.	-2558.3
8989	19.	2.5455	5.e-002	-10.798
8990	19.	2.8182	0.	-2429.9
8991	19.083	2.7273	0.	-2452.2
8992	18.908	2.7273	0.	-2423.3
8993	19.	2.7273	5.e-002	-5.1882
8994	19.	3.	0.	-2392.8
8995	19.083	2.9091	0.	-2376.8
8996	18.908	2.9091	0.	-2362.8
8997	19.	2.9091	5.e-002	-2.5075
8998	19.	3.1818	0.	-2429.9
8999	19.083	3.0909	0.	-2376.8
9000	18.908	3.0909	0.	-2362.8
9001	19.	3.0909	5.e-002	-2.5075
9002	19.	3.3636	0.	-2554.3
9003	19.083	3.2727	0.	-2452.2
9004	18.908	3.2727	0.	-2423.3
9005	19.	3.2727	5.e-002	-5.1882
9006	19.	3.5455	0.	-2812.1
9007	19.083	3.4545	0.	-2628.3
9008	18.908	3.4545	0.	-2558.3
9009	19.	3.4545	5.e-002	-10.798
9010	19.	3.7273	0.	-3365.1
9011	19.083	3.6364	0.	-2973.7
9012	18.908	3.6364	0.	-2807.1
9013	19.	3.6364	5.e-002	-23.176
9014	19.083	3.8182	0.	-3736.
9015	18.908	3.8182	0.	-3233.8
9016	19.	3.8182	5.e-002	-158.02
9017	19.	3.9091	0.	-4442.
9018	19.167	2.2727	0.	-3386.
9019	19.256	2.1818	0.	-3283.
9020	19.167	2.1818	5.e-002	-123.48
9021	19.167	2.0909	0.	-4595.9
9022	19.167	2.4545	0.	-2802.
9023	19.256	2.3636	0.	-2797.3
9024	19.167	2.3636	5.e-002	-27.061
9025	19.167	2.6364	0.	-2529.2
9026	19.256	2.5455	0.	-2513.9
9027	19.167	2.5455	5.e-002	-12.719
9028	19.167	2.8182	0.	-2399.5
9029	19.256	2.7273	0.	-2364.5
9030	19.167	2.7273	5.e-002	-7.2932
9031	19.167	3.	0.	-2360.7
9032	19.256	2.9091	0.	-2297.9
9033	19.167	2.9091	5.e-002	-5.1002
9034	19.167	3.1818	0.	-2399.5
9035	19.256	3.0909	0.	-2297.9
9036	19.167	3.0909	5.e-002	-5.1002
9037	19.167	3.3636	0.	-2529.2
9038	19.256	3.2727	0.	-2364.5
9039	19.167	3.2727	5.e-002	-7.2933
9040	19.167	3.5455	0.	-2802.
9041	19.256	3.4545	0.	-2513.9
9042	19.167	3.4545	5.e-002	-12.719
9043	19.167	3.7273	0.	-3386.
9044	19.256	3.6364	0.	-2797.3
9045	19.167	3.6364	5.e-002	-27.062
9046	19.256	3.8182	0.	-3283.
9047	19.167	3.8182	5.e-002	-123.48
9048	19.167	3.9091	0.	-4595.9
9049	18.816	5.7273	0.	-259.94
9050	18.723	5.8182	0.	-289.43
9051	18.816	5.8182	5.e-002	-18.792
9052	18.816	5.9091	0.	-186.16
9053	18.908	5.8182	0.	-152.95
9054	18.816	5.5455	0.	-345.57
9055	18.723	5.6364	0.	-349.5
9056	18.816	5.6364	5.e-002	-17.058
9057	18.908	5.6364	0.	-228.57
9058	18.816	5.3636	0.	-440.
9059	18.723	5.4545	0.	-429.6
9060	18.816	5.4545	5.e-002	-17.9
9061	18.908	5.4545	0.	-303.92
9062	18.816	5.1818	0.	-542.65
9063	18.723	5.2727	0.	-520.98
9064	18.816	5.2727	5.e-002	-19.673
9065	18.908	5.2727	0.	-380.81
9066	18.816	5.	0.	-658.61
9067	18.723	5.0909	0.	-624.61
9068	18.816	5.0909	5.e-002	-22.383
9069	18.908	5.0909	0.	-463.38
9070	18.816	4.8182	0.	-796.34
9071	18.723	4.9091	0.	-745.48
9072	18.816	4.9091	5.e-002	-26.269
9073	18.908	4.9091	0.	-557.13
9074	18.816	4.6364	0.	-973.52
9075	18.723	4.7273	0.	-892.75
9076	18.816	4.7273	5.e-002	-32.385
9077	18.908	4.7273	0.	-670.1
9078	18.816	4.4545	0.	-1219.8
9079	18.723	4.5455	0.	-1085.
9080	18.816	4.5455	5.e-002	-40.087
9081	18.908	4.5455	0.	-820.32
9082	18.816	4.2727	0.	-1652.5
9083	18.723	4.3636	0.	-1347.7
9084	18.816	4.3636	5.e-002	-60.921
9085	18.908	4.3636	0.	-1034.6
9086	18.816	4.0909	0.	-2322.5
9087	18.723	4.1818	0.	-1800.6
9088	18.816	4.1818	5.e-002	-118.68
9089	18.908	4.1818	0.	-1422.5
9090	18.816	3.9091	0.	-2731.6
9091	18.723	4.	0.	-2345.2
9092	18.816	4.	5.e-002	-214.09
9093	18.908	4.	0.	-3982.6
9094	18.816	3.7273	0.	-2704.7
9095	18.723	3.8182	0.	-2473.3
9096	18.816	3.8182	5.e-002	-84.458
9097	18.816	3.5455	0.	-2560.7
9098	18.723	3.6364	0.	-2446.2
9099	18.816	3.6364	5.e-002	-37.165
9100	18.816	3.3636	0.	-2429.6
9101	18.723	3.4545	0.	-2362.6
9102	18.816	3.4545	5.e-002	-19.937
9103	18.816	3.1818	0.	-2356.6
9104	18.723	3.2727	0.	-2302.6
9105	18.816	3.2727	5.e-002	-11.445
9106	18.816	3.	0.	-2332.7
9107	18.723	3.0909	0.	-2271.3
9108	18.816	3.0909	5.e-002	-8.4601
9109	18.816	2.8182	0.	-2356.6
9110	18.723	2.9091	0.	-2271.3
9111	18.816	2.9091	5.e-002	-8.4601
9112	18.816	2.6364	0.	-2429.6
9113	18.723	2.7273	0.	-2302.6
9114	18.816	2.7273	5.e-002	-11.445
9115	18.816	2.4545	0.	-2560.7
9116	18.723	2.5455	0.	-2362.6
9117	18.816	2.5455	5.e-002	-19.936
9118	18.816	2.2727	0.	-2704.7
9119	18.723	2.3636	0.	-2446.2
9120	18.816	2.3636	5.e-002	-37.164
9121	18.816	2.0909	0.	-2731.6
9122	18.723	2.1818	0.	-2473.3
9123	18.816	2.1818	5.e-002	-84.458
9124	18.816	1.9091	0.	-2322.5
9125	18.723	2.	0.	-2345.2
9126	18.816	2.	5.e-002	-214.09
9127	18.908	2.	0.	-3982.6
9128	18.816	1.7273	0.	-1652.5
9129	18.723	1.8182	0.	-1800.6
9130	18.816	1.8182	5.e-002	-118.68
9131	18.908	1.8182	0.	-1422.5
9132	18.816	1.5455	0.	-1219.8
9133	18.723	1.6364	0.	-1347.7
9134	18.816	1.6364	5.e-002	-60.921
9135	18.908	1.6364	0.	-1034.6
9136	18.816	1.3636	0.	-973.52
9137	18.723	1.4545	0.	-1085.
9138	18.816	1.4545	5.e-002	-40.087
9139	18.908	1.4545	0.	-820.32
9140	18.816	1.1818	0.	-796.34
9141	18.723	1.2727	0.	-892.75
9142	18.816	1.2727	5.e-002	-32.385
9143	18.908	1.2727	0.	-670.1
9144	18.816	1.	0.	-658.61
9145	18.723	1.0909	0.	-745.48
9146	18.816	1.0909	5.e-002	-26.269
9147	18.908	1.0909	0.	-557.13
9148	18.816	0.81818	0.	-542.65
9149	18.723	0.90909	0.	-624.61
9150	18.816	0.90909	5.e-002	-22.383
9151	18.908	0.90909	0.	-463.38
9152	18.816	0.63636	0.	-440.
9153	18.723	0.72727	0.	-520.98
9154	18.816	0.72727	5.e-002	-19.673
9155	18.908	0.72727	0.	-380.81
9156	18.816	0.45455	0.	-345.57
9157	18.723	0.54545	0.	-429.6
9158	18.816	0.54545	5.e-002	-17.9
9159	18.908	0.54545	0.	-303.92
9160	18.816	0.27273	0.	-259.94
9161	18.723	0.36364	0.	-349.5
9162	18.816	0.36364	5.e-002	-17.058
9163	18.908	0.36364	0.	-228.57
9164	18.723	0.18182	0.	-289.43
9165	18.816	0.18182	5.e-002	-18.792
9166	18.816	9.0909e-002	0.	-186.16
9167	18.908	0.18182	0.	-152.95
9168	18.631	5.7273	0.	-387.79
9169	18.539	5.8182	0.	-440.7
9170	18.631	5.8182	5.e-002	-17.741
9171	18.631	5.9091	0.	-345.67
9172	18.631	5.5455	0.	-445.95
9173	18.539	5.6364	0.	-480.32
9174	18.631	5.6364	5.e-002	-16.006
9175	18.631	5.3636	0.	-523.45
9176	18.539	5.4545	0.	-542.06
9177	18.631	5.4545	5.e-002	-16.283
9178	18.631	5.1818	0.	-616.07
9179	18.539	5.2727	0.	-621.
9180	18.631	5.2727	5.e-002	-17.205
9181	18.631	5.	0.	-725.55
9182	18.539	5.0909	0.	-716.33
9183	18.631	5.0909	5.e-002	-18.733
9184	18.631	4.8182	0.	-858.15
9185	18.539	4.9091	0.	-830.61
9186	18.631	4.9091	5.e-002	-20.953
9187	18.631	4.6364	0.	-1024.3
9188	18.539	4.7273	0.	-969.92
9189	18.631	4.7273	5.e-002	-23.809
9190	18.631	4.4545	0.	-1241.7
9191	18.539	4.5455	0.	-1143.
9192	18.631	4.5455	5.e-002	-28.916
9193	18.631	4.2727	0.	-1519.6
9194	18.539	4.3636	0.	-1362.3
9195	18.631	4.3636	5.e-002	-26.748
9196	18.631	4.0909	0.	-1814.1
9197	18.539	4.1818	0.	-1617.5
9198	18.631	4.1818	5.e-002	-36.771
9199	18.631	3.9091	0.	-2065.6
9200	18.539	4.	0.	-1856.8
9201	18.631	4.	5.e-002	-29.908
9202	18.631	3.7273	0.	-2209.2
9203	18.539	3.8182	0.	-2034.3
9204	18.631	3.8182	5.e-002	-41.121
9205	18.631	3.5455	0.	-2246.5
9206	18.539	3.6364	0.	-2120.3
9207	18.631	3.6364	5.e-002	-27.362
9208	18.631	3.3636	0.	-2235.
9209	18.539	3.4545	0.	-2144.1
9210	18.631	3.4545	5.e-002	-20.084
9211	18.631	3.1818	0.	-2216.8
9212	18.539	3.2727	0.	-2143.2
9213	18.631	3.2727	5.e-002	-14.034
9214	18.631	3.	0.	-2209.3
9215	18.539	3.0909	0.	-2138.7
9216	18.631	3.0909	5.e-002	-11.478
9217	18.631	2.8182	0.	-2216.8
9218	18.539	2.9091	0.	-2138.7
9219	18.631	2.9091	5.e-002	-11.478
9220	18.631	2.6364	0.	-2235.
9221	18.539	2.7273	0.	-2143.2
9222	18.631	2.7273	5.e-002	-14.034
9223	18.631	2.4545	0.	-2246.5
9224	18.539	2.5455	0.	-2144.1
9225	18.631	2.5455	5.e-002	-20.084
9226	18.631	2.2727	0.	-2209.2
9227	18.539	2.3636	0.	-2120.3
9228	18.631	2.3636	5.e-002	-27.362
9229	18.631	2.0909	0.	-2065.6
9230	18.539	2.1818	0.	-2034.3
9231	18.631	2.1818	5.e-002	-41.121
9232	18.631	1.9091	0.	-1814.1
9233	18.539	2.	0.	-1856.8
9234	18.631	2.	5.e-002	-29.908
9235	18.631	1.7273	0.	-1519.6
9236	18.539	1.8182	0.	-1617.5
9237	18.631	1.8182	5.e-002	-36.771
9238	18.631	1.5455	0.	-1241.7
9239	18.539	1.6364	0.	-1362.3
9240	18.631	1.6364	5.e-002	-26.748
9241	18.631	1.3636	0.	-1024.3
9242	18.539	1.4545	0.	-1143.
9243	18.631	1.4545	5.e-002	-28.916
9244	18.631	1.1818	0.	-858.15
9245	18.539	1.2727	0.	-969.92
9246	18.631	1.2727	5.e-002	-23.809
9247	18.631	1.	0.	-725.55
9248	18.539	1.0909	0.	-830.61
9249	18.631	1.0909	5.e-002	-20.953
9250	18.631	0.81818	0.	-616.07
9251	18.539	0.90909	0.	-716.33
9252	18.631	0.90909	5.e-002	-18.733
9253	18.631	0.63636	0.	-523.45
9254	18.539	0.72727	0.	-621.
9255	18.631	0.72727	5.e-002	-17.205
9256	18.631	0.45455	0.	-445.95
9257	18.539	0.54545	0.	-542.06
9258	18.631	0.54545	5.e-002	-16.283
9259	18.631	0.27273	0.	-387.79
9260	18.539	0.36364	0.	-480.32
9261	18.631	0.36364	5.e-002	-16.006
9262	18.539	0.18182	0.	-440.7
9263	18.631	0.18182	5.e-002	-17.741
9264	18.631	9.0909e-002	0.	-345.67
9265	18.447	5.7273	0.	-535.33
9266	18.354	5.8182	0.	-590.32
9267	18.447	5.8182	5.e-002	-17.014
9268	18.447	5.9091	0.	-503.08
9269	18.447	5.5455	0.	-581.34
9270	18.354	5.6364	0.	-623.42
9271	18.447	5.6364	5.e-002	-15.514
9272	18.447	5.3636	0.	-646.69
9273	18.354	5.4545	0.	-674.73
9274	18.447	5.4545	5.e-002	-15.671
9275	18.447	5.1818	0.	-729.68
9276	18.354	5.2727	0.	-743.34
9277	18.447	5.2727	5.e-002	-16.224
9278	18.447	5.	0.	-830.84
9279	18.354	5.0909	0.	-828.94
9280	18.447	5.0909	5.e-002	-17.052
9281	18.447	4.8182	0.	-952.84
9282	18.354	4.9091	0.	-932.55
9283	18.447	4.9091	5.e-002	-18.066
9284	18.447	4.6364	0.	-1099.8
9285	18.354	4.7273	0.	-1056.2
9286	18.447	4.7273	5.e-002	-18.884
9287	18.447	4.4545	0.	-1273.1
9288	18.354	4.5455	0.	-1201.8
9289	18.447	4.5455	5.e-002	-18.525
9290	18.447	4.2727	0.	-1465.6
9291	18.354	4.3636	0.	-1366.3
9292	18.447	4.3636	5.e-002	-17.828
9293	18.447	4.0909	0.	-1658.4
9294	18.354	4.1818	0.	-1538.2
9295	18.447	4.1818	5.e-002	-14.733
9296	18.447	3.9091	0.	-1823.
9297	18.354	4.	0.	-1696.8
9298	18.447	4.	5.e-002	-18.369
9299	18.447	3.7273	0.	-1943.
9300	18.354	3.8182	0.	-1823.3
9301	18.447	3.8182	5.e-002	-19.574
9302	18.447	3.5455	0.	-2016.
9303	18.354	3.6364	0.	-1913.1
9304	18.447	3.6364	5.e-002	-18.538
9305	18.447	3.3636	0.	-2051.
9306	18.354	3.4545	0.	-1966.2
9307	18.447	3.4545	5.e-002	-15.346
9308	18.447	3.1818	0.	-2064.1
9309	18.354	3.2727	0.	-1992.7
9310	18.447	3.2727	5.e-002	-12.893
9311	18.447	3.	0.	-2067.2
9312	18.354	3.0909	0.	-2003.1
9313	18.447	3.0909	5.e-002	-11.513
9314	18.447	2.8182	0.	-2064.1
9315	18.354	2.9091	0.	-2003.1
9316	18.447	2.9091	5.e-002	-11.513
9317	18.447	2.6364	0.	-2051.
9318	18.354	2.7273	0.	-1992.7
9319	18.447	2.7273	5.e-002	-12.893
9320	18.447	2.4545	0.	-2016.
9321	18.354	2.5455	0.	-1966.2
9322	18.447	2.5455	5.e-002	-15.346
9323	18.447	2.2727	0.	-1943.
9324	18.354	2.3636	0.	-1913.1
9325	18.447	2.3636	5.e-002	-18.538
9326	18.447	2.0909	0.	-1823.
9327	18.354	2.1818	0.	-1823.3
9328	18.447	2.1818	5.e-002	-19.574
9329	18.447	1.9091	0.	-1658.4
9330	18.354	2.	0.	-1696.8
9331	18.447	2.	5.e-002	-18.369
9332	18.447	1.7273	0.	-1465.6
9333	18.354	1.8182	0.	-1538.2
9334	18.447	1.8182	5.e-002	-14.733
9335	18.447	1.5455	0.	-1273.1
9336	18.354	1.6364	0.	-1366.3
9337	18.447	1.6364	5.e-002	-17.828
9338	18.447	1.3636	0.	-1099.8
9339	18.354	1.4545	0.	-1201.8
9340	18.447	1.4545	5.e-002	-18.525
9341	18.447	1.1818	0.	-952.84
9342	18.354	1.2727	0.	-1056.2
9343	18.447	1.2727	5.e-002	-18.884
9344	18.447	1.	0.	-830.84
9345	18.354	1.0909	0.	-932.55
9346	18.447	1.0909	5.e-002	-18.066
9347	18.447	0.81818	0.	-729.68
9348	18.354	0.90909	0.	-828.94
9349	18.447	0.90909	5.e-002	-17.052
9350	18.447	0.63636	0.	-646.69
9351	18.354	0.72727	0.	-743.34
9352	18.447	0.72727	5.e-002	-16.224
9353	18.447	0.45455	0.	-581.34
9354	18.354	0.54545	0.	-674.73
9355	18.447	0.54545	5.e-002	-15.671
9356	18.447	0.27273	0.	-535.33
9357	18.354	0.36364	0.	-623.42
9358	18.447	0.36364	5.e-002	-15.514
9359	18.354	0.18182	0.	-590.32
9360	18.447	0.18182	5.e-002	-17.014
9361	18.447	9.0909e-002	0.	-503.08
9362	18.262	5.7273	0.	-679.26
9363	18.17	5.8182	0.	-731.62
9364	18.262	5.8182	5.e-002	-15.858
9365	18.262	5.9091	0.	-652.06
9366	18.262	5.5455	0.	-719.01
9367	18.17	5.6364	0.	-761.62
9368	18.262	5.6364	5.e-002	-14.562
9369	18.262	5.3636	0.	-775.23
9370	18.17	5.4545	0.	-806.09
9371	18.262	5.4545	5.e-002	-14.57
9372	18.262	5.1818	0.	-847.8
9373	18.17	5.2727	0.	-865.61
9374	18.262	5.2727	5.e-002	-14.754
9375	18.262	5.	0.	-936.8
9376	18.17	5.0909	0.	-940.2
9377	18.262	5.0909	5.e-002	-14.964
9378	18.262	4.8182	0.	-1042.5
9379	18.17	4.9091	0.	-1029.8
9380	18.262	4.9091	5.e-002	-15.021
9381	18.262	4.6364	0.	-1164.6
9382	18.17	4.7273	0.	-1134.
9383	18.262	4.7273	5.e-002	-14.629
9384	18.262	4.4545	0.	-1300.
9385	18.17	4.5455	0.	-1251.
9386	18.262	4.5455	5.e-002	-13.501
9387	18.262	4.2727	0.	-1441.3
9388	18.17	4.3636	0.	-1375.9
9389	18.262	4.3636	5.e-002	-11.53
9390	18.262	4.0909	0.	-1577.1
9391	18.17	4.1818	0.	-1500.1
9392	18.262	4.1818	5.e-002	-10.483
9393	18.262	3.9091	0.	-1696.7
9394	18.17	4.	0.	-1614.
9395	18.262	4.	5.e-002	-11.206
9396	18.262	3.7273	0.	-1792.8
9397	18.17	3.8182	0.	-1710.5
9398	18.262	3.8182	5.e-002	-11.79
9399	18.262	3.5455	0.	-1862.5
9400	18.17	3.6364	0.	-1785.9
9401	18.262	3.6364	5.e-002	-11.746
9402	18.262	3.3636	0.	-1907.1
9403	18.17	3.4545	0.	-1839.2
9404	18.262	3.4545	5.e-002	-11.06
9405	18.262	3.1818	0.	-1930.9
9406	18.17	3.2727	0.	-1871.9
9407	18.262	3.2727	5.e-002	-10.278
9408	18.262	3.	0.	-1938.2
9409	18.17	3.0909	0.	-1887.1
9410	18.262	3.0909	5.e-002	-9.7746
9411	18.262	2.8182	0.	-1930.9
9412	18.17	2.9091	0.	-1887.1
9413	18.262	2.9091	5.e-002	-9.7746
9414	18.262	2.6364	0.	-1907.1
9415	18.17	2.7273	0.	-1871.9
9416	18.262	2.7273	5.e-002	-10.278
9417	18.262	2.4545	0.	-1862.5
9418	18.17	2.5455	0.	-1839.2
9419	18.262	2.5455	5.e-002	-11.06
9420	18.262	2.2727	0.	-1792.8
9421	18.17	2.3636	0.	-1785.9
9422	18.262	2.3636	5.e-002	-11.746
9423	18.262	2.0909	0.	-1696.7
9424	18.17	2.1818	0.	-1710.5
9425	18.262	2.1818	5.e-002	-11.79
9426	18.262	1.9091	0.	-1577.1
9427	18.17	2.	0.	-1614.
9428	18.262	2.	5.e-002	-11.206
9429	18.262	1.7273	0.	-1441.3
9430	18.17	1.8182	0.	-1500.1
9431	18.262	1.8182	5.e-002	-10.483
9432	18.262	1.5455	0.	-1300.
9433	18.17	1.6364	0.	-1375.9
9434	18.262	1.6364	5.e-002	-11.53
9435	18.262	1.3636	0.	-1164.6
9436	18.17	1.4545	0.	-1251.
9437	18.262	1.4545	5.e-002	-13.501
9438	18.262	1.1818	0.	-1042.5
9439	18.17	1.2727	0.	-1134.
9440	18.262	1.2727	5.e-002	-14.629
9441	18.262	1.	0.	-936.8
9442	18.17	1.0909	0.	-1029.8
9443	18.262	1.0909	5.e-002	-15.021
9444	18.262	0.81818	0.	-847.8
9445	18.17	0.90909	0.	-940.2
9446	18.262	0.90909	5.e-002	-14.964
9447	18.262	0.63636	0.	-775.23
9448	18.17	0.72727	0.	-865.61
9449	18.262	0.72727	5.e-002	-14.754
9450	18.262	0.45455	0.	-719.01
9451	18.17	0.54545	0.	-806.09
9452	18.262	0.54545	5.e-002	-14.57
9453	18.262	0.27273	0.	-679.26
9454	18.17	0.36364	0.	-761.62
9455	18.262	0.36364	5.e-002	-14.562
9456	18.17	0.18182	0.	-731.62
9457	18.262	0.18182	5.e-002	-15.858
9458	18.262	9.0909e-002	0.	-652.06
9459	18.078	5.7273	0.	-814.43
9460	17.985	5.8182	0.	-862.75
9461	18.078	5.8182	5.e-002	-14.424
9462	18.078	5.9091	0.	-790.72
9463	18.078	5.5455	0.	-849.85
9464	17.985	5.6364	0.	-890.3
9465	18.078	5.6364	5.e-002	-13.419
9466	18.078	5.3636	0.	-898.63
9467	17.985	5.4545	0.	-929.32
9468	18.078	5.4545	5.e-002	-13.289
9469	18.078	5.1818	0.	-961.11
9470	17.985	5.2727	0.	-980.69
9471	18.078	5.2727	5.e-002	-13.192
9472	18.078	5.	0.	-1037.
9473	17.985	5.0909	0.	-1044.3
9474	18.078	5.0909	5.e-002	-12.992
9475	18.078	4.8182	0.	-1125.4
9476	17.985	4.9091	0.	-1119.6
9477	18.078	4.9091	5.e-002	-12.548
9478	18.078	4.6364	0.	-1224.2
9479	17.985	4.7273	0.	-1205.
9480	18.078	4.7273	5.e-002	-11.708
9481	18.078	4.4545	0.	-1329.8
9482	17.985	4.5455	0.	-1297.8
9483	18.078	4.5455	5.e-002	-10.391
9484	18.078	4.2727	0.	-1436.4
9485	17.985	4.3636	0.	-1393.6
9486	18.078	4.3636	5.e-002	-8.8944
9487	18.078	4.0909	0.	-1537.7
9488	17.985	4.1818	0.	-1487.
9489	18.078	4.1818	5.e-002	-7.9342
9490	18.078	3.9091	0.	-1627.9
9491	17.985	4.	0.	-1572.7
9492	18.078	4.	5.e-002	-7.7735
9493	18.078	3.7273	0.	-1703.5
9494	17.985	3.8182	0.	-1647.
9495	18.078	3.8182	5.e-002	-7.8455
9496	18.078	3.5455	0.	-1762.3
9497	17.985	3.6364	0.	-1707.7
9498	18.078	3.6364	5.e-002	-7.7881
9499	18.078	3.3636	0.	-1803.5
9500	17.985	3.4545	0.	-1753.3
9501	18.078	3.4545	5.e-002	-7.677
9502	18.078	3.1818	0.	-1827.6
9503	17.985	3.2727	0.	-1783.5
9504	18.078	3.2727	5.e-002	-7.5303
9505	18.078	3.	0.	-1835.5
9506	17.985	3.0909	0.	-1798.3
9507	18.078	3.0909	5.e-002	-7.4293
9508	18.078	2.8182	0.	-1827.6
9509	17.985	2.9091	0.	-1798.3
9510	18.078	2.9091	5.e-002	-7.4293
9511	18.078	2.6364	0.	-1803.5
9512	17.985	2.7273	0.	-1783.5
9513	18.078	2.7273	5.e-002	-7.5302
9514	18.078	2.4545	0.	-1762.3
9515	17.985	2.5455	0.	-1753.3
9516	18.078	2.5455	5.e-002	-7.677
9517	18.078	2.2727	0.	-1703.5
9518	17.985	2.3636	0.	-1707.7
9519	18.078	2.3636	5.e-002	-7.7881
9520	18.078	2.0909	0.	-1627.9
9521	17.985	2.1818	0.	-1647.
9522	18.078	2.1818	5.e-002	-7.8454
9523	18.078	1.9091	0.	-1537.7
9524	17.985	2.	0.	-1572.7
9525	18.078	2.	5.e-002	-7.7735
9526	18.078	1.7273	0.	-1436.4
9527	17.985	1.8182	0.	-1487.
9528	18.078	1.8182	5.e-002	-7.9342
9529	18.078	1.5455	0.	-1329.8
9530	17.985	1.6364	0.	-1393.6
9531	18.078	1.6364	5.e-002	-8.8944
9532	18.078	1.3636	0.	-1224.2
9533	17.985	1.4545	0.	-1297.8
9534	18.078	1.4545	5.e-002	-10.391
9535	18.078	1.1818	0.	-1125.4
9536	17.985	1.2727	0.	-1205.
9537	18.078	1.2727	5.e-002	-11.707
9538	18.078	1.	0.	-1037.
9539	17.985	1.0909	0.	-1119.6
9540	18.078	1.0909	5.e-002	-12.548
9541	18.078	0.81818	0.	-961.11
9542	17.985	0.90909	0.	-1044.3
9543	18.078	0.90909	5.e-002	-12.992
9544	18.078	0.63636	0.	-898.63
9545	17.985	0.72727	0.	-980.69
9546	18.078	0.72727	5.e-002	-13.192
9547	18.078	0.45455	0.	-849.85
9548	17.985	0.54545	0.	-929.32
9549	18.078	0.54545	5.e-002	-13.289
9550	18.078	0.27273	0.	-814.43
9551	17.985	0.36364	0.	-890.3
9552	18.078	0.36364	5.e-002	-13.419
9553	17.985	0.18182	0.	-862.75
9554	18.078	0.18182	5.e-002	-14.424
9555	18.078	9.0909e-002	0.	-790.72
9556	17.893	5.7273	0.	-938.88
9557	17.801	5.8182	0.	-982.99
9558	17.893	5.8182	5.e-002	-12.859
9559	17.893	5.9091	0.	-918.02
9560	17.893	5.5455	0.	-970.45
9561	17.801	5.6364	0.	-1008.
9562	17.893	5.6364	5.e-002	-12.216
9563	17.893	5.3636	0.	-1012.6
9564	17.801	5.4545	0.	-1042.1
9565	17.893	5.4545	5.e-002	-11.994
9566	17.893	5.1818	0.	-1065.8
9567	17.801	5.2727	0.	-1086.1
9568	17.893	5.2727	5.e-002	-11.723
9569	17.893	5.	0.	-1129.2
9570	17.801	5.0909	0.	-1139.5
9571	17.893	5.0909	5.e-002	-11.306
9572	17.893	4.8182	0.	-1201.6
9573	17.801	4.9091	0.	-1201.6
9574	17.893	4.9091	5.e-002	-10.664
9575	17.893	4.6364	0.	-1280.8
9576	17.801	4.7273	0.	-1270.6
9577	17.893	4.7273	5.e-002	-9.7359
9578	17.893	4.4545	0.	-1363.3
9579	17.801	4.5455	0.	-1344.
9580	17.893	4.5455	5.e-002	-8.5605
9581	17.893	4.2727	0.	-1445.3
9582	17.801	4.3636	0.	-1418.3
9583	17.893	4.3636	5.e-002	-7.3412
9584	17.893	4.0909	0.	-1522.7
9585	17.801	4.1818	0.	-1489.9
9586	17.893	4.1818	5.e-002	-6.3934
9587	17.893	3.9091	0.	-1592.1
9588	17.801	4.	0.	-1555.7
9589	17.893	4.	5.e-002	-5.8254
9590	17.893	3.7273	0.	-1651.3
9591	17.801	3.8182	0.	-1613.4
9592	17.893	3.8182	5.e-002	-5.484
9593	17.893	3.5455	0.	-1698.6
9594	17.801	3.6364	0.	-1661.3
9595	17.893	3.6364	5.e-002	-5.2579
9596	17.893	3.3636	0.	-1733.1
9597	17.801	3.4545	0.	-1698.3
9598	17.893	3.4545	5.e-002	-5.1513
9599	17.893	3.1818	0.	-1753.9
9600	17.801	3.2727	0.	-1723.4
9601	17.893	3.2727	5.e-002	-5.1266
9602	17.893	3.	0.	-1760.8
9603	17.801	3.0909	0.	-1736.
9604	17.893	3.0909	5.e-002	-5.1289
9605	17.893	2.8182	0.	-1753.9
9606	17.801	2.9091	0.	-1736.
9607	17.893	2.9091	5.e-002	-5.1289
9608	17.893	2.6364	0.	-1733.1
9609	17.801	2.7273	0.	-1723.4
9610	17.893	2.7273	5.e-002	-5.1266
9611	17.893	2.4545	0.	-1698.6
9612	17.801	2.5455	0.	-1698.3
9613	17.893	2.5455	5.e-002	-5.1513
9614	17.893	2.2727	0.	-1651.3
9615	17.801	2.3636	0.	-1661.3
9616	17.893	2.3636	5.e-002	-5.2579
9617	17.893	2.0909	0.	-1592.1
9618	17.801	2.1818	0.	-1613.4
9619	17.893	2.1818	5.e-002	-5.484
9620	17.893	1.9091	0.	-1522.7
9621	17.801	2.	0.	-1555.7
9622	17.893	2.	5.e-002	-5.8254
9623	17.893	1.7273	0.	-1445.3
9624	17.801	1.8182	0.	-1489.9
9625	17.893	1.8182	5.e-002	-6.3934
9626	17.893	1.5455	0.	-1363.3
9627	17.801	1.6364	0.	-1418.3
9628	17.893	1.6364	5.e-002	-7.3411
9629	17.893	1.3636	0.	-1280.8
9630	17.801	1.4545	0.	-1344.
9631	17.893	1.4545	5.e-002	-8.5605
9632	17.893	1.1818	0.	-1201.6
9633	17.801	1.2727	0.	-1270.6
9634	17.893	1.2727	5.e-002	-9.7359
9635	17.893	1.	0.	-1129.2
9636	17.801	1.0909	0.	-1201.6
9637	17.893	1.0909	5.e-002	-10.664
9638	17.893	0.81818	0.	-1065.8
9639	17.801	0.90909	0.	-1139.5
9640	17.893	0.90909	5.e-002	-11.306
9641	17.893	0.63636	0.	-1012.6
9642	17.801	0.72727	0.	-1086.1
9643	17.893	0.72727	5.e-002	-11.723
9644	17.893	0.45455	0.	-970.45
9645	17.801	0.54545	0.	-1042.1
9646	17.893	0.54545	5.e-002	-11.994
9647	17.893	0.27273	0.	-938.88
9648	17.801	0.36364	0.	-1008.
9649	17.893	0.36364	5.e-002	-12.216
9650	17.801	0.18182	0.	-982.99
9651	17.893	0.18182	5.e-002	-12.859
9652	17.893	9.0909e-002	0.	-918.02
9653	17.709	5.7273	0.	-1052.3
9654	17.617	5.8182	0.	-1092.5
9655	17.709	5.8182	5.e-002	-11.281
9656	17.709	5.9091	0.	-1033.9
9657	17.709	5.5455	0.	-1080.1
9658	17.617	5.6364	0.	-1114.8
9659	17.709	5.6364	5.e-002	-11.05
9660	17.709	5.3636	0.	-1116.3
9661	17.617	5.4545	0.	-1144.3
9662	17.709	5.4545	5.e-002	-10.789
9663	17.709	5.1818	0.	-1160.9
9664	17.617	5.2727	0.	-1181.6
9665	17.709	5.2727	5.e-002	-10.432
9666	17.709	5.	0.	-1213.3
9667	17.617	5.0909	0.	-1226.
9668	17.709	5.0909	5.e-002	-9.9341
9669	17.709	4.8182	0.	-1272.1
9670	17.617	4.9091	0.	-1276.7
9671	17.709	4.9091	5.e-002	-9.2565
9672	17.709	4.6364	0.	-1335.1
9673	17.617	4.7273	0.	-1332.1
9674	17.709	4.7273	5.e-002	-8.3905
9675	17.709	4.4545	0.	-1399.9
9676	17.617	4.5455	0.	-1390.
9677	17.709	4.5455	5.e-002	-7.3842
9678	17.709	4.2727	0.	-1463.6
9679	17.617	4.3636	0.	-1448.
9680	17.709	4.3636	5.e-002	-6.3587
9681	17.709	4.0909	0.	-1523.4
9682	17.617	4.1818	0.	-1503.6
9683	17.709	4.1818	5.e-002	-5.4465
9684	17.709	3.9091	0.	-1577.3
9685	17.617	4.	0.	-1554.6
9686	17.709	4.	5.e-002	-4.7027
9687	17.709	3.7273	0.	-1623.6
9688	17.617	3.8182	0.	-1599.5
9689	17.709	3.8182	5.e-002	-4.0985
9690	17.709	3.5455	0.	-1661.
9691	17.617	3.6364	0.	-1637.1
9692	17.709	3.6364	5.e-002	-3.6272
9693	17.709	3.3636	0.	-1688.5
9694	17.617	3.4545	0.	-1666.3
9695	17.709	3.4545	5.e-002	-3.3213
9696	17.709	3.1818	0.	-1705.4
9697	17.617	3.2727	0.	-1686.3
9698	17.709	3.2727	5.e-002	-3.1785
9699	17.709	3.	0.	-1711.
9700	17.617	3.0909	0.	-1696.4
9701	17.709	3.0909	5.e-002	-3.1352
9702	17.709	2.8182	0.	-1705.4
9703	17.617	2.9091	0.	-1696.4
9704	17.709	2.9091	5.e-002	-3.1352
9705	17.709	2.6364	0.	-1688.5
9706	17.617	2.7273	0.	-1686.3
9707	17.709	2.7273	5.e-002	-3.1785
9708	17.709	2.4545	0.	-1661.
9709	17.617	2.5455	0.	-1666.3
9710	17.709	2.5455	5.e-002	-3.3213
9711	17.709	2.2727	0.	-1623.6
9712	17.617	2.3636	0.	-1637.1
9713	17.709	2.3636	5.e-002	-3.6272
9714	17.709	2.0909	0.	-1577.3
9715	17.617	2.1818	0.	-1599.5
9716	17.709	2.1818	5.e-002	-4.0985
9717	17.709	1.9091	0.	-1523.4
9718	17.617	2.	0.	-1554.6
9719	17.709	2.	5.e-002	-4.7027
9720	17.709	1.7273	0.	-1463.6
9721	17.617	1.8182	0.	-1503.6
9722	17.709	1.8182	5.e-002	-5.4465
9723	17.709	1.5455	0.	-1399.9
9724	17.617	1.6364	0.	-1448.
9725	17.709	1.6364	5.e-002	-6.3587
9726	17.709	1.3636	0.	-1335.1
9727	17.617	1.4545	0.	-1390.
9728	17.709	1.4545	5.e-002	-7.3842
9729	17.709	1.1818	0.	-1272.1
9730	17.617	1.2727	0.	-1332.1
9731	17.709	1.2727	5.e-002	-8.3904
9732	17.709	1.	0.	-1213.3
9733	17.617	1.0909	0.	-1276.7
9734	17.709	1.0909	5.e-002	-9.2565
9735	17.709	0.81818	0.	-1160.9
9736	17.617	0.90909	0.	-1226.
9737	17.709	0.90909	5.e-002	-9.9341
9738	17.709	0.63636	0.	-1116.3
9739	17.617	0.72727	0.	-1181.6
9740	17.709	0.72727	5.e-002	-10.432
9741	17.709	0.45455	0.	-1080.1
9742	17.617	0.54545	0.	-1144.3
9743	17.709	0.54545	5.e-002	-10.789
9744	17.709	0.27273	0.	-1052.3
9745	17.617	0.36364	0.	-1114.8
9746	17.709	0.36364	5.e-002	-11.05
9747	17.617	0.18182	0.	-1092.5
9748	17.709	0.18182	5.e-002	-11.281
9749	17.709	9.0909e-002	0.	-1033.9
9750	17.524	5.7273	0.	-1155.1
9751	17.432	5.8182	0.	-1192.
9752	17.524	5.8182	5.e-002	-9.7769
9753	17.524	5.9091	0.	-1139.
9754	17.524	5.5455	0.	-1179.3
9755	17.432	5.6364	0.	-1211.6
9756	17.524	5.6364	5.e-002	-9.9784
9757	17.524	5.3636	0.	-1210.1
9758	17.432	5.4545	0.	-1236.8
9759	17.524	5.4545	5.e-002	-9.7207
9760	17.524	5.1818	0.	-1247.3
9761	17.432	5.2727	0.	-1268.1
9762	17.524	5.2727	5.e-002	-9.3414
9763	17.524	5.	0.	-1290.2
9764	17.432	5.0909	0.	-1304.7
9765	17.524	5.0909	5.e-002	-8.8403
9766	17.524	4.8182	0.	-1337.6
9767	17.432	4.9091	0.	-1345.9
9768	17.524	4.9091	5.e-002	-8.2047
9769	17.524	4.6364	0.	-1387.8
9770	17.432	4.7273	0.	-1390.2
9771	17.524	4.7273	5.e-002	-7.4428
9772	17.524	4.4545	0.	-1438.7
9773	17.432	4.5455	0.	-1436.
9774	17.524	4.5455	5.e-002	-6.594
9775	17.524	4.2727	0.	-1488.5
9776	17.432	4.3636	0.	-1481.4
9777	17.524	4.3636	5.e-002	-5.7215
9778	17.524	4.0909	0.	-1535.1
9779	17.432	4.1818	0.	-1524.8
9780	17.524	4.1818	5.e-002	-4.8838
9781	17.524	3.9091	0.	-1577.
9782	17.432	4.	0.	-1564.5
9783	17.524	4.	5.e-002	-4.1033
9784	17.524	3.7273	0.	-1613.1
9785	17.432	3.8182	0.	-1599.5
9786	17.524	3.8182	5.e-002	-3.3745
9787	17.524	3.5455	0.	-1642.4
9788	17.432	3.6364	0.	-1628.8
9789	17.524	3.6364	5.e-002	-2.7042
9790	17.524	3.3636	0.	-1664.
9791	17.432	3.4545	0.	-1651.6
9792	17.524	3.4545	5.e-002	-2.1346
9793	17.524	3.1818	0.	-1677.3
9794	17.432	3.2727	0.	-1667.3
9795	17.524	3.2727	5.e-002	-1.7235
9796	17.524	3.	0.	-1681.7
9797	17.432	3.0909	0.	-1675.3
9798	17.524	3.0909	5.e-002	-1.5114
9799	17.524	2.8182	0.	-1677.3
9800	17.432	2.9091	0.	-1675.3
9801	17.524	2.9091	5.e-002	-1.5114
9802	17.524	2.6364	0.	-1664.
9803	17.432	2.7273	0.	-1667.3
9804	17.524	2.7273	5.e-002	-1.7235
9805	17.524	2.4545	0.	-1642.4
9806	17.432	2.5455	0.	-1651.6
9807	17.524	2.5455	5.e-002	-2.1346
9808	17.524	2.2727	0.	-1613.1
9809	17.432	2.3636	0.	-1628.8
9810	17.524	2.3636	5.e-002	-2.7042
9811	17.524	2.0909	0.	-1577.
9812	17.432	2.1818	0.	-1599.5
9813	17.524	2.1818	5.e-002	-3.3745
9814	17.524	1.9091	0.	-1535.1
9815	17.432	2.	0.	-1564.5
9816	17.524	2.	5.e-002	-4.1033
9817	17.524	1.7273	0.	-1488.5
9818	17.432	1.8182	0.	-1524.8
9819	17.524	1.8182	5.e-002	-4.8837
9820	17.524	1.5455	0.	-1438.7
9821	17.432	1.6364	0.	-1481.4
9822	17.524	1.6364	5.e-002	-5.7215
9823	17.524	1.3636	0.	-1387.8
9824	17.432	1.4545	0.	-1436.
9825	17.524	1.4545	5.e-002	-6.594
9826	17.524	1.1818	0.	-1337.6
9827	17.432	1.2727	0.	-1390.2
9828	17.524	1.2727	5.e-002	-7.4427
9829	17.524	1.	0.	-1290.2
9830	17.432	1.0909	0.	-1345.9
9831	17.524	1.0909	5.e-002	-8.2047
9832	17.524	0.81818	0.	-1247.3
9833	17.432	0.90909	0.	-1304.7
9834	17.524	0.90909	5.e-002	-8.8403
9835	17.524	0.63636	0.	-1210.1
9836	17.432	0.72727	0.	-1268.1
9837	17.524	0.72727	5.e-002	-9.3414
9838	17.524	0.45455	0.	-1179.3
9839	17.432	0.54545	0.	-1236.8
9840	17.524	0.54545	5.e-002	-9.7207
9841	17.524	0.27273	0.	-1155.1
9842	17.432	0.36364	0.	-1211.6
9843	17.524	0.36364	5.e-002	-9.9784
9844	17.432	0.18182	0.	-1192.
9845	17.524	0.18182	5.e-002	-9.7769
9846	17.524	9.0909e-002	0.	-1139.
9847	17.34	5.7273	0.	-1248.5
9848	17.248	5.8182	0.	-1282.6
9849	17.34	5.8182	5.e-002	-8.3972
9850	17.34	5.9091	0.	-1234.3
9851	17.34	5.5455	0.	-1269.2
9852	17.248	5.6364	0.	-1299.4
9853	17.34	5.6364	5.e-002	-9.0279
9854	17.34	5.3636	0.	-1295.1
9855	17.248	5.4545	0.	-1320.8
9856	17.34	5.4545	5.e-002	-8.8027
9857	17.34	5.1818	0.	-1325.9
9858	17.248	5.2727	0.	-1346.8
9859	17.34	5.2727	5.e-002	-8.4393
9860	17.34	5.	0.	-1360.9
9861	17.248	5.0909	0.	-1376.9
9862	17.34	5.0909	5.e-002	-7.9752
9863	17.34	4.8182	0.	-1399.
9864	17.248	4.9091	0.	-1410.2
9865	17.34	4.9091	5.e-002	-7.4114
9866	17.34	4.6364	0.	-1438.9
9867	17.248	4.7273	0.	-1445.6
9868	17.34	4.7273	5.e-002	-6.76
9869	17.34	4.4545	0.	-1479.1
9870	17.248	4.5455	0.	-1481.8
9871	17.34	4.5455	5.e-002	-6.048
9872	17.34	4.2727	0.	-1518.1
9873	17.248	4.3636	0.	-1517.5
9874	17.34	4.3636	5.e-002	-5.3095
9875	17.34	4.0909	0.	-1554.5
9876	17.248	4.1818	0.	-1551.4
9877	17.34	4.1818	5.e-002	-4.5713
9878	17.34	3.9091	0.	-1587.2
9879	17.248	4.	0.	-1582.5
9880	17.34	4.	5.e-002	-3.8425
9881	17.34	3.7273	0.	-1615.3
9882	17.248	3.8182	0.	-1609.8
9883	17.34	3.8182	5.e-002	-3.1191
9884	17.34	3.5455	0.	-1638.1
9885	17.248	3.6364	0.	-1632.6
9886	17.34	3.6364	5.e-002	-2.3994
9887	17.34	3.3636	0.	-1654.9
9888	17.248	3.4545	0.	-1650.3
9889	17.34	3.4545	5.e-002	-1.6917
9890	17.34	3.1818	0.	-1665.2
9891	17.248	3.2727	0.	-1662.4
9892	17.34	3.2727	5.e-002	-1.0086
9893	17.34	3.	0.	-1668.7
9894	17.248	3.0909	0.	-1668.6
9895	17.34	3.0909	5.e-002	-0.36794
9896	17.34	2.8182	0.	-1665.2
9897	17.248	2.9091	0.	-1668.6
9898	17.34	2.9091	5.e-002	-0.36795
9899	17.34	2.6364	0.	-1654.9
9900	17.248	2.7273	0.	-1662.4
9901	17.34	2.7273	5.e-002	-1.0086
9902	17.34	2.4545	0.	-1638.1
9903	17.248	2.5455	0.	-1650.3
9904	17.34	2.5455	5.e-002	-1.6917
9905	17.34	2.2727	0.	-1615.3
9906	17.248	2.3636	0.	-1632.6
9907	17.34	2.3636	5.e-002	-2.3994
9908	17.34	2.0909	0.	-1587.2
9909	17.248	2.1818	0.	-1609.8
9910	17.34	2.1818	5.e-002	-3.1191
9911	17.34	1.9091	0.	-1554.5
9912	17.248	2.	0.	-1582.5
9913	17.34	2.	5.e-002	-3.8425
9914	17.34	1.7273	0.	-1518.1
9915	17.248	1.8182	0.	-1551.4
9916	17.34	1.8182	5.e-002	-4.5713
9917	17.34	1.5455	0.	-1479.1
9918	17.248	1.6364	0.	-1517.5
9919	17.34	1.6364	5.e-002	-5.3095
9920	17.34	1.3636	0.	-1438.9
9921	17.248	1.4545	0.	-1481.8
9922	17.34	1.4545	5.e-002	-6.0479
9923	17.34	1.1818	0.	-1399.
9924	17.248	1.2727	0.	-1445.6
9925	17.34	1.2727	5.e-002	-6.76
9926	17.34	1.	0.	-1360.9
9927	17.248	1.0909	0.	-1410.2
9928	17.34	1.0909	5.e-002	-7.4114
9929	17.34	0.81818	0.	-1325.9
9930	17.248	0.90909	0.	-1376.9
9931	17.34	0.90909	5.e-002	-7.9752
9932	17.34	0.63636	0.	-1295.1
9933	17.248	0.72727	0.	-1346.8
9934	17.34	0.72727	5.e-002	-8.4393
9935	17.34	0.45455	0.	-1269.2
9936	17.248	0.54545	0.	-1320.8
9937	17.34	0.54545	5.e-002	-8.8027
9938	17.34	0.27273	0.	-1248.5
9939	17.248	0.36364	0.	-1299.4
9940	17.34	0.36364	5.e-002	-9.0279
9941	17.248	0.18182	0.	-1282.6
9942	17.34	0.18182	5.e-002	-8.3972
9943	17.34	9.0909e-002	0.	-1234.3
9944	17.155	5.7273	0.	-1333.5
9945	17.063	5.8182	0.	-1365.3
9946	17.155	5.8182	5.e-002	-7.1662
9947	17.155	5.9091	0.	-1321.
9948	17.155	5.5455	0.	-1351.
9949	17.063	5.6364	0.	-1379.5
9950	17.155	5.6364	5.e-002	-8.2066
9951	17.155	5.3636	0.	-1372.7
9952	17.063	5.4545	0.	-1397.6
9953	17.155	5.4545	5.e-002	-8.0301
9954	17.155	5.1818	0.	-1398.1
9955	17.063	5.2727	0.	-1419.1
9956	17.155	5.2727	5.e-002	-7.7026
9957	17.155	5.	0.	-1426.5
9958	17.063	5.0909	0.	-1443.7
9959	17.155	5.0909	5.e-002	-7.2926
9960	17.155	4.8182	0.	-1457.
9961	17.063	4.9091	0.	-1470.5
9962	17.155	4.9091	5.e-002	-6.8078
9963	17.155	4.6364	0.	-1488.8
9964	17.063	4.7273	0.	-1498.8
9965	17.155	4.7273	5.e-002	-6.2597
9966	17.155	4.4545	0.	-1520.5
9967	17.063	4.5455	0.	-1527.5
9968	17.155	4.5455	5.e-002	-5.6665
9969	17.155	4.2727	0.	-1551.1
9970	17.063	4.3636	0.	-1555.6
9971	17.155	4.3636	5.e-002	-5.048
9972	17.155	4.0909	0.	-1579.6
9973	17.063	4.1818	0.	-1582.2
9974	17.155	4.1818	5.e-002	-4.4187
9975	17.155	3.9091	0.	-1605.2
9976	17.063	4.	0.	-1606.4
9977	17.155	4.	5.e-002	-3.7849
9978	17.155	3.7273	0.	-1627.1
9979	17.063	3.8182	0.	-1627.7
9980	17.155	3.8182	5.e-002	-3.1481
9981	17.155	3.5455	0.	-1644.8
9982	17.063	3.6364	0.	-1645.4
9983	17.155	3.6364	5.e-002	-2.5131
9984	17.155	3.3636	0.	-1657.8
9985	17.063	3.4545	0.	-1659.2
9986	17.155	3.4545	5.e-002	-1.8958
9987	17.155	3.1818	0.	-1665.8
9988	17.063	3.2727	0.	-1668.6
9989	17.155	3.2727	5.e-002	-1.3348
9990	17.155	3.	0.	-1668.5
9991	17.063	3.0909	0.	-1673.4
9992	17.155	3.0909	5.e-002	-0.93887
9993	17.155	2.8182	0.	-1665.8
9994	17.063	2.9091	0.	-1673.4
9995	17.155	2.9091	5.e-002	-0.93886
9996	17.155	2.6364	0.	-1657.8
9997	17.063	2.7273	0.	-1668.6
9998	17.155	2.7273	5.e-002	-1.3348
9999	17.155	2.4545	0.	-1644.8
10000	17.063	2.5455	0.	-1659.2
10001	17.155	2.5455	5.e-002	-1.8958
10002	17.155	2.2727	0.	-1627.1
10003	17.063	2.3636	0.	-1645.4
10004	17.155	2.3636	5.e-002	-2.5131
10005	17.155	2.0909	0.	-1605.2
10006	17.063	2.1818	0.	-1627.7
10007	17.155	2.1818	5.e-002	-3.1481
10008	17.155	1.9091	0.	-1579.6
10009	17.063	2.	0.	-1606.4
10010	17.155	2.	5.e-002	-3.7849
10011	17.155	1.7273	0.	-1551.1
10012	17.063	1.8182	0.	-1582.2
10013	17.155	1.8182	5.e-002	-4.4187
10014	17.155	1.5455	0.	-1520.5
10015	17.063	1.6364	0.	-1555.6
10016	17.155	1.6364	5.e-002	-5.0479
10017	17.155	1.3636	0.	-1488.8
10018	17.063	1.4545	0.	-1527.5
10019	17.155	1.4545	5.e-002	-5.6665
10020	17.155	1.1818	0.	-1457.
10021	17.063	1.2727	0.	-1498.8
10022	17.155	1.2727	5.e-002	-6.2597
10023	17.155	1.	0.	-1426.5
10024	17.063	1.0909	0.	-1470.5
10025	17.155	1.0909	5.e-002	-6.8078
10026	17.155	0.81818	0.	-1398.1
10027	17.063	0.90909	0.	-1443.7
10028	17.155	0.90909	5.e-002	-7.2926
10029	17.155	0.63636	0.	-1372.7
10030	17.063	0.72727	0.	-1419.1
10031	17.155	0.72727	5.e-002	-7.7026
10032	17.155	0.45455	0.	-1351.
10033	17.063	0.54545	0.	-1397.6
10034	17.155	0.54545	5.e-002	-8.0301
10035	17.155	0.27273	0.	-1333.5
10036	17.063	0.36364	0.	-1379.5
10037	17.155	0.36364	5.e-002	-8.2066
10038	17.063	0.18182	0.	-1365.3
10039	17.155	0.18182	5.e-002	-7.1662
10040	17.155	9.0909e-002	0.	-1321.
10041	16.971	5.7273	0.	-1411.4
10042	16.879	5.8182	0.	-1441.4
10043	16.971	5.8182	5.e-002	-6.0897
10044	16.971	5.9091	0.	-1400.4
10045	16.971	5.5455	0.	-1426.1
10046	16.879	5.6364	0.	-1453.3
10047	16.971	5.6364	5.e-002	-7.5102
10048	16.971	5.3636	0.	-1444.1
10049	16.879	5.4545	0.	-1468.3
10050	16.971	5.4545	5.e-002	-7.3889
10051	16.971	5.1818	0.	-1464.9
10052	16.879	5.2727	0.	-1486.1
10053	16.971	5.2727	5.e-002	-7.1057
10054	16.971	5.	0.	-1487.9
10055	16.879	5.0909	0.	-1506.1
10056	16.971	5.0909	5.e-002	-6.7541
10057	16.971	4.8182	0.	-1512.4
10058	16.879	4.9091	0.	-1527.7
10059	16.971	4.9091	5.e-002	-6.3454
10060	16.971	4.6364	0.	-1537.6
10061	16.879	4.7273	0.	-1550.3
10062	16.971	4.7273	5.e-002	-5.8893
10063	16.971	4.4545	0.	-1562.7
10064	16.879	4.5455	0.	-1573.
10065	16.971	4.5455	5.e-002	-5.3988
10066	16.971	4.2727	0.	-1586.8
10067	16.879	4.3636	0.	-1595.1
10068	16.971	4.3636	5.e-002	-4.8866
10069	16.971	4.0909	0.	-1609.1
10070	16.879	4.1818	0.	-1616.
10071	16.971	4.1818	5.e-002	-4.3631
10072	16.971	3.9091	0.	-1629.1
10073	16.879	4.	0.	-1635.
10074	16.971	4.	5.e-002	-3.8353
10075	16.971	3.7273	0.	-1646.1
10076	16.879	3.8182	0.	-1651.6
10077	16.971	3.8182	5.e-002	-3.3104
10078	16.971	3.5455	0.	-1659.9
10079	16.879	3.6364	0.	-1665.4
10080	16.971	3.6364	5.e-002	-2.8012
10081	16.971	3.3636	0.	-1670.
10082	16.879	3.4545	0.	-1676.
10083	16.971	3.4545	5.e-002	-2.3332
10084	16.971	3.1818	0.	-1676.1
10085	16.879	3.2727	0.	-1683.3
10086	16.971	3.2727	5.e-002	-1.9522
10087	16.971	3.	0.	-1678.2
10088	16.879	3.0909	0.	-1687.
10089	16.971	3.0909	5.e-002	-1.7281
10090	16.971	2.8182	0.	-1676.1
10091	16.879	2.9091	0.	-1687.
10092	16.971	2.9091	5.e-002	-1.7281
10093	16.971	2.6364	0.	-1670.
10094	16.879	2.7273	0.	-1683.3
10095	16.971	2.7273	5.e-002	-1.9522
10096	16.971	2.4545	0.	-1659.9
10097	16.879	2.5455	0.	-1676.
10098	16.971	2.5455	5.e-002	-2.3332
10099	16.971	2.2727	0.	-1646.1
10100	16.879	2.3636	0.	-1665.4
10101	16.971	2.3636	5.e-002	-2.8012
10102	16.971	2.0909	0.	-1629.1
10103	16.879	2.1818	0.	-1651.6
10104	16.971	2.1818	5.e-002	-3.3103
10105	16.971	1.9091	0.	-1609.1
10106	16.879	2.	0.	-1635.
10107	16.971	2.	5.e-002	-3.8352
10108	16.971	1.7273	0.	-1586.8
10109	16.879	1.8182	0.	-1616.
10110	16.971	1.8182	5.e-002	-4.363
10111	16.971	1.5455	0.	-1562.7
10112	16.879	1.6364	0.	-1595.1
10113	16.971	1.6364	5.e-002	-4.8866
10114	16.971	1.3636	0.	-1537.6
10115	16.879	1.4545	0.	-1573.
10116	16.971	1.4545	5.e-002	-5.3987
10117	16.971	1.1818	0.	-1512.4
10118	16.879	1.2727	0.	-1550.3
10119	16.971	1.2727	5.e-002	-5.8893
10120	16.971	1.	0.	-1487.9
10121	16.879	1.0909	0.	-1527.7
10122	16.971	1.0909	5.e-002	-6.3454
10123	16.971	0.81818	0.	-1464.9
10124	16.879	0.90909	0.	-1506.1
10125	16.971	0.90909	5.e-002	-6.7541
10126	16.971	0.63636	0.	-1444.1
10127	16.879	0.72727	0.	-1486.1
10128	16.971	0.72727	5.e-002	-7.1057
10129	16.971	0.45455	0.	-1426.1
10130	16.879	0.54545	0.	-1468.3
10131	16.971	0.54545	5.e-002	-7.3889
10132	16.971	0.27273	0.	-1411.4
10133	16.879	0.36364	0.	-1453.3
10134	16.971	0.36364	5.e-002	-7.5101
10135	16.879	0.18182	0.	-1441.4
10136	16.971	0.18182	5.e-002	-6.0897
10137	16.971	9.0909e-002	0.	-1400.4
10138	16.786	5.7273	0.	-1483.3
10139	16.694	5.8182	0.	-1511.9
10140	16.786	5.8182	5.e-002	-5.1618
10141	16.786	5.9091	0.	-1473.5
10142	16.786	5.5455	0.	-1495.5
10143	16.694	5.6364	0.	-1521.7
10144	16.786	5.6364	5.e-002	-6.9279
10145	16.786	5.3636	0.	-1510.4
10146	16.694	5.4545	0.	-1534.2
10147	16.786	5.4545	5.e-002	-6.8623
10148	16.786	5.1818	0.	-1527.4
10149	16.694	5.2727	0.	-1548.8
10150	16.786	5.2727	5.e-002	-6.6246
10151	16.786	5.	0.	-1546.
10152	16.694	5.0909	0.	-1565.
10153	16.786	5.0909	5.e-002	-6.3293
10154	16.786	4.8182	0.	-1565.6
10155	16.694	4.9091	0.	-1582.4
10156	16.786	4.9091	5.e-002	-5.9894
10157	16.786	4.6364	0.	-1585.7
10158	16.694	4.7273	0.	-1600.4
10159	16.786	4.7273	5.e-002	-5.6133
10160	16.786	4.4545	0.	-1605.5
10161	16.694	4.5455	0.	-1618.4
10162	16.786	4.5455	5.e-002	-5.2107
10163	16.786	4.2727	0.	-1624.5
10164	16.694	4.3636	0.	-1635.9
10165	16.786	4.3636	5.e-002	-4.7909
10166	16.786	4.0909	0.	-1642.
10167	16.694	4.1818	0.	-1652.3
10168	16.786	4.1818	5.e-002	-4.3627
10169	16.786	3.9091	0.	-1657.6
10170	16.694	4.	0.	-1667.1
10171	16.786	4.	5.e-002	-3.9341
10172	16.786	3.7273	0.	-1670.9
10173	16.694	3.8182	0.	-1680.1
10174	16.786	3.8182	5.e-002	-3.515
10175	16.786	3.5455	0.	-1681.5
10176	16.694	3.6364	0.	-1690.8
10177	16.786	3.6364	5.e-002	-3.1204
10178	16.786	3.3636	0.	-1689.4
10179	16.694	3.4545	0.	-1699.1
10180	16.786	3.4545	5.e-002	-2.7739
10181	16.786	3.1818	0.	-1694.1
10182	16.694	3.2727	0.	-1704.7
10183	16.786	3.2727	5.e-002	-2.5086
10184	16.786	3.	0.	-1695.7
10185	16.694	3.0909	0.	-1707.5
10186	16.786	3.0909	5.e-002	-2.3623
10187	16.786	2.8182	0.	-1694.1
10188	16.694	2.9091	0.	-1707.5
10189	16.786	2.9091	5.e-002	-2.3623
10190	16.786	2.6364	0.	-1689.4
10191	16.694	2.7273	0.	-1704.7
10192	16.786	2.7273	5.e-002	-2.5086
10193	16.786	2.4545	0.	-1681.5
10194	16.694	2.5455	0.	-1699.1
10195	16.786	2.5455	5.e-002	-2.7739
10196	16.786	2.2727	0.	-1670.9
10197	16.694	2.3636	0.	-1690.8
10198	16.786	2.3636	5.e-002	-3.1204
10199	16.786	2.0909	0.	-1657.6
10200	16.694	2.1818	0.	-1680.1
10201	16.786	2.1818	5.e-002	-3.515
10202	16.786	1.9091	0.	-1642.
10203	16.694	2.	0.	-1667.1
10204	16.786	2.	5.e-002	-3.9341
10205	16.786	1.7273	0.	-1624.5
10206	16.694	1.8182	0.	-1652.3
10207	16.786	1.8182	5.e-002	-4.3627
10208	16.786	1.5455	0.	-1605.5
10209	16.694	1.6364	0.	-1635.9
10210	16.786	1.6364	5.e-002	-4.7909
10211	16.786	1.3636	0.	-1585.7
10212	16.694	1.4545	0.	-1618.4
10213	16.786	1.4545	5.e-002	-5.2106
10214	16.786	1.1818	0.	-1565.6
10215	16.694	1.2727	0.	-1600.4
10216	16.786	1.2727	5.e-002	-5.6133
10217	16.786	1.	0.	-1546.
10218	16.694	1.0909	0.	-1582.4
10219	16.786	1.0909	5.e-002	-5.9894
10220	16.786	0.81818	0.	-1527.4
10221	16.694	0.90909	0.	-1565.
10222	16.786	0.90909	5.e-002	-6.3292
10223	16.786	0.63636	0.	-1510.4
10224	16.694	0.72727	0.	-1548.8
10225	16.786	0.72727	5.e-002	-6.6246
10226	16.786	0.45455	0.	-1495.5
10227	16.694	0.54545	0.	-1534.2
10228	16.786	0.54545	5.e-002	-6.8623
10229	16.786	0.27273	0.	-1483.3
10230	16.694	0.36364	0.	-1521.7
10231	16.786	0.36364	5.e-002	-6.9279
10232	16.694	0.18182	0.	-1511.9
10233	16.786	0.18182	5.e-002	-5.1618
10234	16.786	9.0909e-002	0.	-1473.5
10235	16.602	5.7273	0.	-1550.3
10236	16.51	5.8182	0.	-1577.9
10237	16.602	5.8182	5.e-002	-4.3702
10238	16.602	5.9091	0.	-1541.6
10239	16.602	5.5455	0.	-1560.3
10240	16.51	5.6364	0.	-1585.8
10241	16.602	5.6364	5.e-002	-6.4465
10242	16.602	5.3636	0.	-1572.6
10243	16.51	5.4545	0.	-1596.1
10244	16.602	5.4545	5.e-002	-6.4333
10245	16.602	5.1818	0.	-1586.4
10246	16.51	5.2727	0.	-1608.
10247	16.602	5.2727	5.e-002	-6.2384
10248	16.602	5.	0.	-1601.5
10249	16.51	5.0909	0.	-1621.2
10250	16.602	5.0909	5.e-002	-5.9941
10251	16.602	4.8182	0.	-1617.2
10252	16.51	4.9091	0.	-1635.2
10253	16.602	4.9091	5.e-002	-5.7145
10254	16.602	4.6364	0.	-1633.2
10255	16.51	4.7273	0.	-1649.5
10256	16.602	4.7273	5.e-002	-5.4068
10257	16.602	4.4545	0.	-1648.8
10258	16.51	4.5455	0.	-1663.8
10259	16.602	4.5455	5.e-002	-5.0785
10260	16.602	4.2727	0.	-1663.8
10261	16.51	4.3636	0.	-1677.6
10262	16.602	4.3636	5.e-002	-4.7375
10263	16.602	4.0909	0.	-1677.5
10264	16.51	4.1818	0.	-1690.5
10265	16.602	4.1818	5.e-002	-4.3914
10266	16.602	3.9091	0.	-1689.7
10267	16.51	4.	0.	-1702.1
10268	16.602	4.	5.e-002	-4.0483
10269	16.602	3.7273	0.	-1700.1
10270	16.51	3.8182	0.	-1712.2
10271	16.602	3.8182	5.e-002	-3.7183
10272	16.602	3.5455	0.	-1708.4
10273	16.51	3.6364	0.	-1720.6
10274	16.602	3.6364	5.e-002	-3.4151
10275	16.602	3.3636	0.	-1714.4
10276	16.51	3.4545	0.	-1727.
10277	16.602	3.4545	5.e-002	-3.1571
10278	16.602	3.1818	0.	-1718.1
10279	16.51	3.2727	0.	-1731.3
10280	16.602	3.2727	5.e-002	-2.9663
10281	16.602	3.	0.	-1719.3
10282	16.51	3.0909	0.	-1733.5
10283	16.602	3.0909	5.e-002	-2.8641
10284	16.602	2.8182	0.	-1718.1
10285	16.51	2.9091	0.	-1733.5
10286	16.602	2.9091	5.e-002	-2.8641
10287	16.602	2.6364	0.	-1714.4
10288	16.51	2.7273	0.	-1731.3
10289	16.602	2.7273	5.e-002	-2.9663
10290	16.602	2.4545	0.	-1708.4
10291	16.51	2.5455	0.	-1727.
10292	16.602	2.5455	5.e-002	-3.1571
10293	16.602	2.2727	0.	-1700.1
10294	16.51	2.3636	0.	-1720.6
10295	16.602	2.3636	5.e-002	-3.4151
10296	16.602	2.0909	0.	-1689.7
10297	16.51	2.1818	0.	-1712.2
10298	16.602	2.1818	5.e-002	-3.7182
10299	16.602	1.9091	0.	-1677.5
10300	16.51	2.	0.	-1702.1
10301	16.602	2.	5.e-002	-4.0482
10302	16.602	1.7273	0.	-1663.8
10303	16.51	1.8182	0.	-1690.5
10304	16.602	1.8182	5.e-002	-4.3914
10305	16.602	1.5455	0.	-1648.8
10306	16.51	1.6364	0.	-1677.6
10307	16.602	1.6364	5.e-002	-4.7375
10308	16.602	1.3636	0.	-1633.2
10309	16.51	1.4545	0.	-1663.8
10310	16.602	1.4545	5.e-002	-5.0785
10311	16.602	1.1818	0.	-1617.2
10312	16.51	1.2727	0.	-1649.5
10313	16.602	1.2727	5.e-002	-5.4068
10314	16.602	1.	0.	-1601.5
10315	16.51	1.0909	0.	-1635.2
10316	16.602	1.0909	5.e-002	-5.7145
10317	16.602	0.81818	0.	-1586.4
10318	16.51	0.90909	0.	-1621.2
10319	16.602	0.90909	5.e-002	-5.9941
10320	16.602	0.63636	0.	-1572.6
10321	16.51	0.72727	0.	-1608.
10322	16.602	0.72727	5.e-002	-6.2383
10323	16.602	0.45455	0.	-1560.3
10324	16.51	0.54545	0.	-1596.1
10325	16.602	0.54545	5.e-002	-6.4333
10326	16.602	0.27273	0.	-1550.3
10327	16.51	0.36364	0.	-1585.8
10328	16.602	0.36364	5.e-002	-6.4465
10329	16.51	0.18182	0.	-1577.9
10330	16.602	0.18182	5.e-002	-4.3702
10331	16.602	9.0909e-002	0.	-1541.6
10332	16.417	5.7273	0.	-1613.3
10333	16.325	5.8182	0.	-1640.
10334	16.417	5.8182	5.e-002	-3.6998
10335	16.417	5.9091	0.	-1605.4
10336	16.417	5.5455	0.	-1621.5
10337	16.325	5.6364	0.	-1646.3
10338	16.417	5.6364	5.e-002	-6.0521
10339	16.417	5.3636	0.	-1631.5
10340	16.325	5.4545	0.	-1654.8
10341	16.417	5.4545	5.e-002	-6.0861
10342	16.417	5.1818	0.	-1642.8
10343	16.325	5.2727	0.	-1664.5
10344	16.417	5.2727	5.e-002	-5.9295
10345	16.417	5.	0.	-1654.9
10346	16.325	5.0909	0.	-1675.2
10347	16.417	5.0909	5.e-002	-5.7299
10348	16.417	4.8182	0.	-1667.5
10349	16.325	4.9091	0.	-1686.4
10350	16.417	4.9091	5.e-002	-5.5019
10351	16.417	4.6364	0.	-1680.2
10352	16.325	4.7273	0.	-1697.9
10353	16.417	4.7273	5.e-002	-5.2518
10354	16.417	4.4545	0.	-1692.6
10355	16.325	4.5455	0.	-1709.2
10356	16.417	4.5455	5.e-002	-4.9859
10357	16.417	4.2727	0.	-1704.3
10358	16.325	4.3636	0.	-1720.1
10359	16.417	4.3636	5.e-002	-4.7107
10360	16.417	4.0909	0.	-1715.1
10361	16.325	4.1818	0.	-1730.2
10362	16.417	4.1818	5.e-002	-4.4331
10363	16.417	3.9091	0.	-1724.7
10364	16.325	4.	0.	-1739.3
10365	16.417	4.	5.e-002	-4.1606
10366	16.417	3.7273	0.	-1732.7
10367	16.325	3.8182	0.	-1747.2
10368	16.417	3.8182	5.e-002	-3.9022
10369	16.417	3.5455	0.	-1739.2
10370	16.325	3.6364	0.	-1753.7
10371	16.417	3.6364	5.e-002	-3.6693
10372	16.417	3.3636	0.	-1743.9
10373	16.325	3.4545	0.	-1758.7
10374	16.417	3.4545	5.e-002	-3.4753
10375	16.417	3.1818	0.	-1746.8
10376	16.325	3.2727	0.	-1762.1
10377	16.417	3.2727	5.e-002	-3.3349
10378	16.417	3.	0.	-1747.7
10379	16.325	3.0909	0.	-1763.8
10380	16.417	3.0909	5.e-002	-3.2608
10381	16.417	2.8182	0.	-1746.8
10382	16.325	2.9091	0.	-1763.8
10383	16.417	2.9091	5.e-002	-3.2608
10384	16.417	2.6364	0.	-1743.9
10385	16.325	2.7273	0.	-1762.1
10386	16.417	2.7273	5.e-002	-3.3349
10387	16.417	2.4545	0.	-1739.2
10388	16.325	2.5455	0.	-1758.7
10389	16.417	2.5455	5.e-002	-3.4753
10390	16.417	2.2727	0.	-1732.7
10391	16.325	2.3636	0.	-1753.7
10392	16.417	2.3636	5.e-002	-3.6693
10393	16.417	2.0909	0.	-1724.7
10394	16.325	2.1818	0.	-1747.2
10395	16.417	2.1818	5.e-002	-3.9022
10396	16.417	1.9091	0.	-1715.1
10397	16.325	2.	0.	-1739.3
10398	16.417	2.	5.e-002	-4.1606
10399	16.417	1.7273	0.	-1704.3
10400	16.325	1.8182	0.	-1730.2
10401	16.417	1.8182	5.e-002	-4.4331
10402	16.417	1.5455	0.	-1692.6
10403	16.325	1.6364	0.	-1720.1
10404	16.417	1.6364	5.e-002	-4.7107
10405	16.417	1.3636	0.	-1680.2
10406	16.325	1.4545	0.	-1709.2
10407	16.417	1.4545	5.e-002	-4.9859
10408	16.417	1.1818	0.	-1667.5
10409	16.325	1.2727	0.	-1697.9
10410	16.417	1.2727	5.e-002	-5.2518
10411	16.417	1.	0.	-1654.9
10412	16.325	1.0909	0.	-1686.4
10413	16.417	1.0909	5.e-002	-5.5019
10414	16.417	0.81818	0.	-1642.8
10415	16.325	0.90909	0.	-1675.2
10416	16.417	0.90909	5.e-002	-5.7299
10417	16.417	0.63636	0.	-1631.5
10418	16.325	0.72727	0.	-1664.5
10419	16.417	0.72727	5.e-002	-5.9294
10420	16.417	0.45455	0.	-1621.5
10421	16.325	0.54545	0.	-1654.8
10422	16.417	0.54545	5.e-002	-6.086
10423	16.417	0.27273	0.	-1613.3
10424	16.325	0.36364	0.	-1646.3
10425	16.417	0.36364	5.e-002	-6.0521
10426	16.325	0.18182	0.	-1640.
10427	16.417	0.18182	5.e-002	-3.6998
10428	16.417	9.0909e-002	0.	-1605.4
10429	16.233	5.7273	0.	-1673.
10430	16.141	5.8182	0.	-1699.1
10431	16.233	5.8182	5.e-002	-3.1349
10432	16.233	5.9091	0.	-1665.8
10433	16.233	5.5455	0.	-1679.6
10434	16.141	5.6364	0.	-1704.1
10435	16.233	5.6364	5.e-002	-5.7315
10436	16.233	5.3636	0.	-1687.8
10437	16.141	5.4545	0.	-1711.
10438	16.233	5.4545	5.e-002	-5.8067
10439	16.233	5.1818	0.	-1696.9
10440	16.141	5.2727	0.	-1718.9
10441	16.233	5.2727	5.e-002	-5.6833
10442	16.233	5.	0.	-1706.7
10443	16.141	5.0909	0.	-1727.5
10444	16.233	5.0909	5.e-002	-5.5219
10445	16.233	4.8182	0.	-1716.8
10446	16.141	4.9091	0.	-1736.5
10447	16.233	4.9091	5.e-002	-5.3374
10448	16.233	4.6364	0.	-1726.9
10449	16.141	4.7273	0.	-1745.7
10450	16.233	4.7273	5.e-002	-5.1354
10451	16.233	4.4545	0.	-1736.7
10452	16.141	4.5455	0.	-1754.7
10453	16.233	4.5455	5.e-002	-4.9212
10454	16.233	4.2727	0.	-1746.
10455	16.141	4.3636	0.	-1763.3
10456	16.233	4.3636	5.e-002	-4.7004
10457	16.233	4.0909	0.	-1754.5
10458	16.141	4.1818	0.	-1771.2
10459	16.233	4.1818	5.e-002	-4.4789
10460	16.233	3.9091	0.	-1761.9
10461	16.141	4.	0.	-1778.4
10462	16.233	4.	5.e-002	-4.2635
10463	16.233	3.7273	0.	-1768.2
10464	16.141	3.8182	0.	-1784.5
10465	16.233	3.8182	5.e-002	-4.0615
10466	16.233	3.5455	0.	-1773.2
10467	16.141	3.6364	0.	-1789.6
10468	16.233	3.6364	5.e-002	-3.8821
10469	16.233	3.3636	0.	-1776.9
10470	16.141	3.4545	0.	-1793.5
10471	16.233	3.4545	5.e-002	-3.7349
10472	16.233	3.1818	0.	-1779.1
10473	16.141	3.2727	0.	-1796.1
10474	16.233	3.2727	5.e-002	-3.6298
10475	16.233	3.	0.	-1779.9
10476	16.141	3.0909	0.	-1797.4
10477	16.233	3.0909	5.e-002	-3.5749
10478	16.233	2.8182	0.	-1779.1
10479	16.141	2.9091	0.	-1797.4
10480	16.233	2.9091	5.e-002	-3.5749
10481	16.233	2.6364	0.	-1776.9
10482	16.141	2.7273	0.	-1796.1
10483	16.233	2.7273	5.e-002	-3.6298
10484	16.233	2.4545	0.	-1773.2
10485	16.141	2.5455	0.	-1793.5
10486	16.233	2.5455	5.e-002	-3.7349
10487	16.233	2.2727	0.	-1768.2
10488	16.141	2.3636	0.	-1789.6
10489	16.233	2.3636	5.e-002	-3.8821
10490	16.233	2.0909	0.	-1761.9
10491	16.141	2.1818	0.	-1784.5
10492	16.233	2.1818	5.e-002	-4.0615
10493	16.233	1.9091	0.	-1754.5
10494	16.141	2.	0.	-1778.4
10495	16.233	2.	5.e-002	-4.2634
10496	16.233	1.7273	0.	-1746.
10497	16.141	1.8182	0.	-1771.2
10498	16.233	1.8182	5.e-002	-4.4789
10499	16.233	1.5455	0.	-1736.7
10500	16.141	1.6364	0.	-1763.3
10501	16.233	1.6364	5.e-002	-4.7004
10502	16.233	1.3636	0.	-1726.9
10503	16.141	1.4545	0.	-1754.7
10504	16.233	1.4545	5.e-002	-4.9212
10505	16.233	1.1818	0.	-1716.8
10506	16.141	1.2727	0.	-1745.7
10507	16.233	1.2727	5.e-002	-5.1354
10508	16.233	1.	0.	-1706.7
10509	16.141	1.0909	0.	-1736.5
10510	16.233	1.0909	5.e-002	-5.3374
10511	16.233	0.81818	0.	-1696.9
10512	16.141	0.90909	0.	-1727.5
10513	16.233	0.90909	5.e-002	-5.5219
10514	16.233	0.63636	0.	-1687.8
10515	16.141	0.72727	0.	-1718.9
10516	16.233	0.72727	5.e-002	-5.6833
10517	16.233	0.45455	0.	-1679.6
10518	16.141	0.54545	0.	-1711.
10519	16.233	0.54545	5.e-002	-5.8067
10520	16.233	0.27273	0.	-1673.
10521	16.141	0.36364	0.	-1704.1
10522	16.233	0.36364	5.e-002	-5.7315
10523	16.141	0.18182	0.	-1699.1
10524	16.233	0.18182	5.e-002	-3.1349
10525	16.233	9.0909e-002	0.	-1665.8
10526	16.049	5.7273	0.	-1730.1
10527	15.956	5.8182	0.	-1755.8
10528	16.049	5.8182	5.e-002	-2.6604
10529	16.049	5.9091	0.	-1723.6
10530	16.049	5.5455	0.	-1735.4
10531	15.956	5.6364	0.	-1759.6
10532	16.049	5.6364	5.e-002	-5.4727
10533	16.049	5.3636	0.	-1742.1
10534	15.956	5.4545	0.	-1765.2
10535	16.049	5.4545	5.e-002	-5.5835
10536	16.049	5.1818	0.	-1749.5
10537	15.956	5.2727	0.	-1771.6
10538	16.049	5.2727	5.e-002	-5.4881
10539	16.049	5.	0.	-1757.3
10540	15.956	5.0909	0.	-1778.5
10541	16.049	5.0909	5.e-002	-5.3587
10542	16.049	4.8182	0.	-1765.4
10543	15.956	4.9091	0.	-1785.8
10544	16.049	4.9091	5.e-002	-5.2104
10545	16.049	4.6364	0.	-1773.4
10546	15.956	4.7273	0.	-1793.1
10547	16.049	4.7273	5.e-002	-5.0481
10548	16.049	4.4545	0.	-1781.2
10549	15.956	4.5455	0.	-1800.2
10550	16.049	4.5455	5.e-002	-4.8764
10551	16.049	4.2727	0.	-1788.5
10552	15.956	4.3636	0.	-1807.
10553	16.049	4.3636	5.e-002	-4.7
10554	16.049	4.0909	0.	-1795.2
10555	15.956	4.1818	0.	-1813.3
10556	16.049	4.1818	5.e-002	-4.5241
10557	16.049	3.9091	0.	-1801.
10558	15.956	4.	0.	-1818.9
10559	16.049	4.	5.e-002	-4.3541
10560	16.049	3.7273	0.	-1805.9
10561	15.956	3.8182	0.	-1823.7
10562	16.049	3.8182	5.e-002	-4.1963
10563	16.049	3.5455	0.	-1809.8
10564	15.956	3.6364	0.	-1827.6
10565	16.049	3.6364	5.e-002	-4.0576
10566	16.049	3.3636	0.	-1812.7
10567	15.956	3.4545	0.	-1830.6
10568	16.049	3.4545	5.e-002	-3.9451
10569	16.049	3.1818	0.	-1814.4
10570	15.956	3.2727	0.	-1832.7
10571	16.049	3.2727	5.e-002	-3.8655
10572	16.049	3.	0.	-1815.
10573	15.956	3.0909	0.	-1833.7
10574	16.049	3.0909	5.e-002	-3.8242
10575	16.049	2.8182	0.	-1814.4
10576	15.956	2.9091	0.	-1833.7
10577	16.049	2.9091	5.e-002	-3.8242
10578	16.049	2.6364	0.	-1812.7
10579	15.956	2.7273	0.	-1832.7
10580	16.049	2.7273	5.e-002	-3.8655
10581	16.049	2.4545	0.	-1809.8
10582	15.956	2.5455	0.	-1830.6
10583	16.049	2.5455	5.e-002	-3.9451
10584	16.049	2.2727	0.	-1805.9
10585	15.956	2.3636	0.	-1827.6
10586	16.049	2.3636	5.e-002	-4.0576
10587	16.049	2.0909	0.	-1801.
10588	15.956	2.1818	0.	-1823.7
10589	16.049	2.1818	5.e-002	-4.1963
10590	16.049	1.9091	0.	-1795.2
10591	15.956	2.	0.	-1818.9
10592	16.049	2.	5.e-002	-4.3541
10593	16.049	1.7273	0.	-1788.5
10594	15.956	1.8182	0.	-1813.3
10595	16.049	1.8182	5.e-002	-4.524
10596	16.049	1.5455	0.	-1781.2
10597	15.956	1.6364	0.	-1807.
10598	16.049	1.6364	5.e-002	-4.7
10599	16.049	1.3636	0.	-1773.4
10600	15.956	1.4545	0.	-1800.2
10601	16.049	1.4545	5.e-002	-4.8764
10602	16.049	1.1818	0.	-1765.4
10603	15.956	1.2727	0.	-1793.1
10604	16.049	1.2727	5.e-002	-5.0481
10605	16.049	1.	0.	-1757.3
10606	15.956	1.0909	0.	-1785.8
10607	16.049	1.0909	5.e-002	-5.2104
10608	16.049	0.81818	0.	-1749.5
10609	15.956	0.90909	0.	-1778.5
10610	16.049	0.90909	5.e-002	-5.3587
10611	16.049	0.63636	0.	-1742.1
10612	15.956	0.72727	0.	-1771.6
10613	16.049	0.72727	5.e-002	-5.4881
10614	16.049	0.45455	0.	-1735.4
10615	15.956	0.54545	0.	-1765.2
10616	16.049	0.54545	5.e-002	-5.5835
10617	16.049	0.27273	0.	-1730.1
10618	15.956	0.36364	0.	-1759.6
10619	16.049	0.36364	5.e-002	-5.4727
10620	15.956	0.18182	0.	-1755.8
10621	16.049	0.18182	5.e-002	-2.6604
10622	16.049	9.0909e-002	0.	-1723.6
10623	15.864	5.7273	0.	-1785.1
10624	15.772	5.8182	0.	-1810.5
10625	15.864	5.8182	5.e-002	-2.2625
10626	15.864	5.9091	0.	-1779.1
10627	15.864	5.5455	0.	-1789.3
10628	15.772	5.6364	0.	-1813.3
10629	15.864	5.6364	5.e-002	-5.2653
10630	15.864	5.3636	0.	-1794.7
10631	15.772	5.4545	0.	-1817.8
10632	15.864	5.4545	5.e-002	-5.4061
10633	15.864	5.1818	0.	-1800.7
10634	15.772	5.2727	0.	-1823.
10635	15.864	5.2727	5.e-002	-5.334
10636	15.864	5.	0.	-1807.
10637	15.772	5.0909	0.	-1828.6
10638	15.864	5.0909	5.e-002	-5.2311
10639	15.864	4.8182	0.	-1813.5
10640	15.772	4.9091	0.	-1834.4
10641	15.864	4.9091	5.e-002	-5.1127
10642	15.864	4.6364	0.	-1819.9
10643	15.772	4.7273	0.	-1840.2
10644	15.864	4.7273	5.e-002	-4.983
10645	15.864	4.4545	0.	-1826.
10646	15.772	4.5455	0.	-1845.9
10647	15.864	4.5455	5.e-002	-4.8459
10648	15.864	4.2727	0.	-1831.8
10649	15.772	4.3636	0.	-1851.2
10650	15.864	4.3636	5.e-002	-4.7056
10651	15.864	4.0909	0.	-1837.
10652	15.772	4.1818	0.	-1856.2
10653	15.864	4.1818	5.e-002	-4.5662
10654	15.864	3.9091	0.	-1841.6
10655	15.772	4.	0.	-1860.6
10656	15.864	4.	5.e-002	-4.4323
10657	15.864	3.7273	0.	-1845.4
10658	15.772	3.8182	0.	-1864.3
10659	15.864	3.8182	5.e-002	-4.309
10660	15.864	3.5455	0.	-1848.4
10661	15.772	3.6364	0.	-1867.4
10662	15.864	3.6364	5.e-002	-4.2015
10663	15.864	3.3636	0.	-1850.7
10664	15.772	3.4545	0.	-1869.7
10665	15.864	3.4545	5.e-002	-4.115
10666	15.864	3.1818	0.	-1852.
10667	15.772	3.2727	0.	-1871.3
10668	15.864	3.2727	5.e-002	-4.0542
10669	15.864	3.	0.	-1852.4
10670	15.772	3.0909	0.	-1872.1
10671	15.864	3.0909	5.e-002	-4.0228
10672	15.864	2.8182	0.	-1852.
10673	15.772	2.9091	0.	-1872.1
10674	15.864	2.9091	5.e-002	-4.0228
10675	15.864	2.6364	0.	-1850.7
10676	15.772	2.7273	0.	-1871.3
10677	15.864	2.7273	5.e-002	-4.0542
10678	15.864	2.4545	0.	-1848.4
10679	15.772	2.5455	0.	-1869.7
10680	15.864	2.5455	5.e-002	-4.115
10681	15.864	2.2727	0.	-1845.4
10682	15.772	2.3636	0.	-1867.4
10683	15.864	2.3636	5.e-002	-4.2015
10684	15.864	2.0909	0.	-1841.6
10685	15.772	2.1818	0.	-1864.3
10686	15.864	2.1818	5.e-002	-4.309
10687	15.864	1.9091	0.	-1837.
10688	15.772	2.	0.	-1860.6
10689	15.864	2.	5.e-002	-4.4323
10690	15.864	1.7273	0.	-1831.8
10691	15.772	1.8182	0.	-1856.2
10692	15.864	1.8182	5.e-002	-4.5661
10693	15.864	1.5455	0.	-1826.
10694	15.772	1.6364	0.	-1851.2
10695	15.864	1.6364	5.e-002	-4.7055
10696	15.864	1.3636	0.	-1819.9
10697	15.772	1.4545	0.	-1845.9
10698	15.864	1.4545	5.e-002	-4.8459
10699	15.864	1.1818	0.	-1813.5
10700	15.772	1.2727	0.	-1840.2
10701	15.864	1.2727	5.e-002	-4.9829
10702	15.864	1.	0.	-1807.
10703	15.772	1.0909	0.	-1834.4
10704	15.864	1.0909	5.e-002	-5.1126
10705	15.864	0.81818	0.	-1800.7
10706	15.772	0.90909	0.	-1828.6
10707	15.864	0.90909	5.e-002	-5.2311
10708	15.864	0.63636	0.	-1794.7
10709	15.772	0.72727	0.	-1823.
10710	15.864	0.72727	5.e-002	-5.334
10711	15.864	0.45455	0.	-1789.3
10712	15.772	0.54545	0.	-1817.8
10713	15.864	0.54545	5.e-002	-5.4061
10714	15.864	0.27273	0.	-1785.1
10715	15.772	0.36364	0.	-1813.3
10716	15.864	0.36364	5.e-002	-5.2653
10717	15.772	0.18182	0.	-1810.5
10718	15.864	0.18182	5.e-002	-2.2625
10719	15.864	9.0909e-002	0.	-1779.1
10720	15.68	5.7273	0.	-1838.6
10721	15.587	5.8182	0.	-1863.7
10722	15.68	5.8182	5.e-002	-1.9292
10723	15.68	5.9091	0.	-1833.
10724	15.68	5.5455	0.	-1841.8
10725	15.587	5.6364	0.	-1865.7
10726	15.68	5.6364	5.e-002	-5.1002
10727	15.68	5.3636	0.	-1846.1
10728	15.587	5.4545	0.	-1869.3
10729	15.68	5.4545	5.e-002	-5.2663
10730	15.68	5.1818	0.	-1850.9
10731	15.587	5.2727	0.	-1873.5
10732	15.68	5.2727	5.e-002	-5.2133
10733	15.68	5.	0.	-1856.
10734	15.587	5.0909	0.	-1877.9
10735	15.68	5.0909	5.e-002	-5.1321
10736	15.68	4.8182	0.	-1861.1
10737	15.587	4.9091	0.	-1882.6
10738	15.68	4.9091	5.e-002	-5.038
10739	15.68	4.6364	0.	-1866.2
10740	15.587	4.7273	0.	-1887.2
10741	15.68	4.7273	5.e-002	-4.9348
10742	15.68	4.4545	0.	-1871.1
10743	15.587	4.5455	0.	-1891.7
10744	15.68	4.5455	5.e-002	-4.8259
10745	15.68	4.2727	0.	-1875.6
10746	15.587	4.3636	0.	-1895.9
10747	15.68	4.3636	5.e-002	-4.7146
10748	15.68	4.0909	0.	-1879.7
10749	15.587	4.1818	0.	-1899.8
10750	15.68	4.1818	5.e-002	-4.6044
10751	15.68	3.9091	0.	-1883.3
10752	15.587	4.	0.	-1903.2
10753	15.68	4.	5.e-002	-4.4992
10754	15.68	3.7273	0.	-1886.3
10755	15.587	3.8182	0.	-1906.2
10756	15.68	3.8182	5.e-002	-4.4028
10757	15.68	3.5455	0.	-1888.7
10758	15.587	3.6364	0.	-1908.6
10759	15.68	3.6364	5.e-002	-4.3192
10760	15.68	3.3636	0.	-1890.4
10761	15.587	3.4545	0.	-1910.4
10762	15.68	3.4545	5.e-002	-4.2524
10763	15.68	3.1818	0.	-1891.4
10764	15.587	3.2727	0.	-1911.6
10765	15.68	3.2727	5.e-002	-4.2056
10766	15.68	3.	0.	-1891.8
10767	15.587	3.0909	0.	-1912.2
10768	15.68	3.0909	5.e-002	-4.1816
10769	15.68	2.8182	0.	-1891.4
10770	15.587	2.9091	0.	-1912.2
10771	15.68	2.9091	5.e-002	-4.1816
10772	15.68	2.6364	0.	-1890.4
10773	15.587	2.7273	0.	-1911.6
10774	15.68	2.7273	5.e-002	-4.2056
10775	15.68	2.4545	0.	-1888.7
10776	15.587	2.5455	0.	-1910.4
10777	15.68	2.5455	5.e-002	-4.2524
10778	15.68	2.2727	0.	-1886.3
10779	15.587	2.3636	0.	-1908.6
10780	15.68	2.3636	5.e-002	-4.3192
10781	15.68	2.0909	0.	-1883.3
10782	15.587	2.1818	0.	-1906.2
10783	15.68	2.1818	5.e-002	-4.4028
10784	15.68	1.9091	0.	-1879.7
10785	15.587	2.	0.	-1903.2
10786	15.68	2.	5.e-002	-4.4991
10787	15.68	1.7273	0.	-1875.6
10788	15.587	1.8182	0.	-1899.8
10789	15.68	1.8182	5.e-002	-4.6044
10790	15.68	1.5455	0.	-1871.1
10791	15.587	1.6364	0.	-1895.9
10792	15.68	1.6364	5.e-002	-4.7145
10793	15.68	1.3636	0.	-1866.2
10794	15.587	1.4545	0.	-1891.7
10795	15.68	1.4545	5.e-002	-4.8259
10796	15.68	1.1818	0.	-1861.1
10797	15.587	1.2727	0.	-1887.2
10798	15.68	1.2727	5.e-002	-4.9348
10799	15.68	1.	0.	-1856.
10800	15.587	1.0909	0.	-1882.6
10801	15.68	1.0909	5.e-002	-5.0379
10802	15.68	0.81818	0.	-1850.9
10803	15.587	0.90909	0.	-1877.9
10804	15.68	0.90909	5.e-002	-5.132
10805	15.68	0.63636	0.	-1846.1
10806	15.587	0.72727	0.	-1873.5
10807	15.68	0.72727	5.e-002	-5.2133
10808	15.68	0.45455	0.	-1841.8
10809	15.587	0.54545	0.	-1869.3
10810	15.68	0.54545	5.e-002	-5.2663
10811	15.68	0.27273	0.	-1838.6
10812	15.587	0.36364	0.	-1865.7
10813	15.68	0.36364	5.e-002	-5.1002
10814	15.587	0.18182	0.	-1863.7
10815	15.68	0.18182	5.e-002	-1.9292
10816	15.68	9.0909e-002	0.	-1833.
10817	15.495	5.7273	0.	-1890.7
10818	15.403	5.8182	0.	-1915.7
10819	15.495	5.8182	5.e-002	-1.6499
10820	15.495	5.9091	0.	-1885.5
10821	15.495	5.5455	0.	-1893.1
10822	15.403	5.6364	0.	-1917.
10823	15.495	5.6364	5.e-002	-4.9698
10824	15.495	5.3636	0.	-1896.6
10825	15.403	5.4545	0.	-1919.8
10826	15.495	5.4545	5.e-002	-5.157
10827	15.495	5.1818	0.	-1900.5
10828	15.403	5.2727	0.	-1923.2
10829	15.495	5.2727	5.e-002	-5.1194
10830	15.495	5.	0.	-1904.5
10831	15.403	5.0909	0.	-1926.7
10832	15.495	5.0909	5.e-002	-5.0558
10833	15.495	4.8182	0.	-1908.6
10834	15.403	4.9091	0.	-1930.4
10835	15.495	4.9091	5.e-002	-4.9815
10836	15.495	4.6364	0.	-1912.6
10837	15.403	4.7273	0.	-1934.1
10838	15.495	4.7273	5.e-002	-4.8998
10839	15.495	4.4545	0.	-1916.5
10840	15.403	4.5455	0.	-1937.6
10841	15.495	4.5455	5.e-002	-4.8136
10842	15.495	4.2727	0.	-1920.
10843	15.403	4.3636	0.	-1941.
10844	15.495	4.3636	5.e-002	-4.7256
10845	15.495	4.0909	0.	-1923.3
10846	15.403	4.1818	0.	-1944.
10847	15.495	4.1818	5.e-002	-4.6387
10848	15.495	3.9091	0.	-1926.1
10849	15.403	4.	0.	-1946.7
10850	15.495	4.	5.e-002	-4.5561
10851	15.495	3.7273	0.	-1928.4
10852	15.403	3.8182	0.	-1949.
10853	15.495	3.8182	5.e-002	-4.4807
10854	15.495	3.5455	0.	-1930.3
10855	15.403	3.6364	0.	-1950.9
10856	15.495	3.6364	5.e-002	-4.4157
10857	15.495	3.3636	0.	-1931.6
10858	15.403	3.4545	0.	-1952.3
10859	15.495	3.4545	5.e-002	-4.3639
10860	15.495	3.1818	0.	-1932.4
10861	15.403	3.2727	0.	-1953.2
10862	15.495	3.2727	5.e-002	-4.3279
10863	15.495	3.	0.	-1932.7
10864	15.403	3.0909	0.	-1953.7
10865	15.495	3.0909	5.e-002	-4.3093
10866	15.495	2.8182	0.	-1932.4
10867	15.403	2.9091	0.	-1953.7
10868	15.495	2.9091	5.e-002	-4.3093
10869	15.495	2.6364	0.	-1931.6
10870	15.403	2.7273	0.	-1953.2
10871	15.495	2.7273	5.e-002	-4.3279
10872	15.495	2.4545	0.	-1930.3
10873	15.403	2.5455	0.	-1952.3
10874	15.495	2.5455	5.e-002	-4.3639
10875	15.495	2.2727	0.	-1928.4
10876	15.403	2.3636	0.	-1950.9
10877	15.495	2.3636	5.e-002	-4.4157
10878	15.495	2.0909	0.	-1926.1
10879	15.403	2.1818	0.	-1949.
10880	15.495	2.1818	5.e-002	-4.4807
10881	15.495	1.9091	0.	-1923.3
10882	15.403	2.	0.	-1946.7
10883	15.495	2.	5.e-002	-4.5561
10884	15.495	1.7273	0.	-1920.
10885	15.403	1.8182	0.	-1944.
10886	15.495	1.8182	5.e-002	-4.6387
10887	15.495	1.5455	0.	-1916.5
10888	15.403	1.6364	0.	-1941.
10889	15.495	1.6364	5.e-002	-4.7256
10890	15.495	1.3636	0.	-1912.6
10891	15.403	1.4545	0.	-1937.6
10892	15.495	1.4545	5.e-002	-4.8136
10893	15.495	1.1818	0.	-1908.6
10894	15.403	1.2727	0.	-1934.1
10895	15.495	1.2727	5.e-002	-4.8998
10896	15.495	1.	0.	-1904.5
10897	15.403	1.0909	0.	-1930.4
10898	15.495	1.0909	5.e-002	-4.9815
10899	15.495	0.81818	0.	-1900.5
10900	15.403	0.90909	0.	-1926.7
10901	15.495	0.90909	5.e-002	-5.0558
10902	15.495	0.63636	0.	-1896.6
10903	15.403	0.72727	0.	-1923.2
10904	15.495	0.72727	5.e-002	-5.1194
10905	15.495	0.45455	0.	-1893.1
10906	15.403	0.54545	0.	-1919.8
10907	15.495	0.54545	5.e-002	-5.157
10908	15.495	0.27273	0.	-1890.7
10909	15.403	0.36364	0.	-1917.
10910	15.495	0.36364	5.e-002	-4.9698
10911	15.403	0.18182	0.	-1915.7
10912	15.495	0.18182	5.e-002	-1.6499
10913	15.495	9.0909e-002	0.	-1885.5
10914	15.311	5.7273	0.	-1941.8
10915	15.218	5.8182	0.	-1966.8
10916	15.311	5.8182	5.e-002	-1.4158
10917	15.311	5.9091	0.	-1936.9
10918	15.311	5.5455	0.	-1943.6
10919	15.218	5.6364	0.	-1967.4
10920	15.311	5.6364	5.e-002	-4.8677
10921	15.311	5.3636	0.	-1946.4
10922	15.218	5.4545	0.	-1969.7
10923	15.311	5.4545	5.e-002	-5.0725
10924	15.311	5.1818	0.	-1949.4
10925	15.218	5.2727	0.	-1972.3
10926	15.311	5.2727	5.e-002	-5.0474
10927	15.311	5.	0.	-1952.6
10928	15.218	5.0909	0.	-1975.2
10929	15.311	5.0909	5.e-002	-4.9979
10930	15.311	4.8182	0.	-1955.9
10931	15.218	4.9091	0.	-1978.1
10932	15.311	4.9091	5.e-002	-4.9395
10933	15.311	4.6364	0.	-1959.1
10934	15.218	4.7273	0.	-1981.
10935	15.311	4.7273	5.e-002	-4.8752
10936	15.311	4.4545	0.	-1962.1
10937	15.218	4.5455	0.	-1983.8
10938	15.311	4.5455	5.e-002	-4.8071
10939	15.311	4.2727	0.	-1964.9
10940	15.218	4.3636	0.	-1986.4
10941	15.311	4.3636	5.e-002	-4.7378
10942	15.311	4.0909	0.	-1967.4
10943	15.218	4.1818	0.	-1988.8
10944	15.311	4.1818	5.e-002	-4.6695
10945	15.311	3.9091	0.	-1969.6
10946	15.218	4.	0.	-1990.9
10947	15.311	4.	5.e-002	-4.6047
10948	15.311	3.7273	0.	-1971.5
10949	15.218	3.8182	0.	-1992.7
10950	15.311	3.8182	5.e-002	-4.5457
10951	15.311	3.5455	0.	-1972.9
10952	15.218	3.6364	0.	-1994.1
10953	15.311	3.6364	5.e-002	-4.4951
10954	15.311	3.3636	0.	-1973.9
10955	15.218	3.4545	0.	-1995.2
10956	15.311	3.4545	5.e-002	-4.4549
10957	15.311	3.1818	0.	-1974.6
10958	15.218	3.2727	0.	-1996.
10959	15.311	3.2727	5.e-002	-4.427
10960	15.311	3.	0.	-1974.8
10961	15.218	3.0909	0.	-1996.3
10962	15.311	3.0909	5.e-002	-4.4127
10963	15.311	2.8182	0.	-1974.6
10964	15.218	2.9091	0.	-1996.3
10965	15.311	2.9091	5.e-002	-4.4127
10966	15.311	2.6364	0.	-1973.9
10967	15.218	2.7273	0.	-1996.
10968	15.311	2.7273	5.e-002	-4.427
10969	15.311	2.4545	0.	-1972.9
10970	15.218	2.5455	0.	-1995.2
10971	15.311	2.5455	5.e-002	-4.4549
10972	15.311	2.2727	0.	-1971.5
10973	15.218	2.3636	0.	-1994.1
10974	15.311	2.3636	5.e-002	-4.4951
10975	15.311	2.0909	0.	-1969.6
10976	15.218	2.1818	0.	-1992.7
10977	15.311	2.1818	5.e-002	-4.5457
10978	15.311	1.9091	0.	-1967.4
10979	15.218	2.	0.	-1990.9
10980	15.311	2.	5.e-002	-4.6047
10981	15.311	1.7273	0.	-1964.9
10982	15.218	1.8182	0.	-1988.8
10983	15.311	1.8182	5.e-002	-4.6695
10984	15.311	1.5455	0.	-1962.1
10985	15.218	1.6364	0.	-1986.4
10986	15.311	1.6364	5.e-002	-4.7378
10987	15.311	1.3636	0.	-1959.1
10988	15.218	1.4545	0.	-1983.8
10989	15.311	1.4545	5.e-002	-4.8071
10990	15.311	1.1818	0.	-1955.9
10991	15.218	1.2727	0.	-1981.
10992	15.311	1.2727	5.e-002	-4.8751
10993	15.311	1.	0.	-1952.6
10994	15.218	1.0909	0.	-1978.1
10995	15.311	1.0909	5.e-002	-4.9395
10996	15.311	0.81818	0.	-1949.4
10997	15.218	0.90909	0.	-1975.2
10998	15.311	0.90909	5.e-002	-4.9979
10999	15.311	0.63636	0.	-1946.4
11000	15.218	0.72727	0.	-1972.3
11001	15.311	0.72727	5.e-002	-5.0474
11002	15.311	0.45455	0.	-1943.6
11003	15.218	0.54545	0.	-1969.7
11004	15.311	0.54545	5.e-002	-5.0725
11005	15.311	0.27273	0.	-1941.8
11006	15.218	0.36364	0.	-1967.4
11007	15.311	0.36364	5.e-002	-4.8677
11008	15.218	0.18182	0.	-1966.8
11009	15.311	0.18182	5.e-002	-1.4157
11010	15.311	9.0909e-002	0.	-1936.9
11011	15.126	5.7273	0.	-1992.2
11012	15.034	5.8182	0.	-2017.1
11013	15.126	5.8182	5.e-002	-1.2191
11014	15.126	5.9091	0.	-1987.6
11015	15.126	5.5455	0.	-1993.5
11016	15.034	5.6364	0.	-2017.3
11017	15.126	5.6364	5.e-002	-4.7886
11018	15.126	5.3636	0.	-1995.6
11019	15.034	5.4545	0.	-2019.
11020	15.126	5.4545	5.e-002	-5.008
11021	15.126	5.1818	0.	-1998.
11022	15.034	5.2727	0.	-2021.1
11023	15.126	5.2727	5.e-002	-4.9929
11024	15.126	5.	0.	-2000.6
11025	15.034	5.0909	0.	-2023.3
11026	15.126	5.0909	5.e-002	-4.9547
11027	15.126	4.8182	0.	-2003.1
11028	15.034	4.9091	0.	-2025.6
11029	15.126	4.9091	5.e-002	-4.9091
11030	15.126	4.6364	0.	-2005.6
11031	15.034	4.7273	0.	-2027.9
11032	15.126	4.7273	5.e-002	-4.8587
11033	15.126	4.4545	0.	-2008.
11034	15.034	4.5455	0.	-2030.1
11035	15.126	4.5455	5.e-002	-4.8052
11036	15.126	4.2727	0.	-2010.2
11037	15.034	4.3636	0.	-2032.1
11038	15.126	4.3636	5.e-002	-4.7508
11039	15.126	4.0909	0.	-2012.2
11040	15.034	4.1818	0.	-2034.
11041	15.126	4.1818	5.e-002	-4.6972
11042	15.126	3.9091	0.	-2013.9
11043	15.034	4.	0.	-2035.6
11044	15.126	4.	5.e-002	-4.6464
11045	15.126	3.7273	0.	-2015.3
11046	15.034	3.8182	0.	-2037.
11047	15.126	3.8182	5.e-002	-4.6004
11048	15.126	3.5455	0.	-2016.4
11049	15.034	3.6364	0.	-2038.1
11050	15.126	3.6364	5.e-002	-4.5609
11051	15.126	3.3636	0.	-2017.2
11052	15.034	3.4545	0.	-2039.
11053	15.126	3.4545	5.e-002	-4.5297
11054	15.126	3.1818	0.	-2017.7
11055	15.034	3.2727	0.	-2039.6
11056	15.126	3.2727	5.e-002	-4.508
11057	15.126	3.	0.	-2017.9
11058	15.034	3.0909	0.	-2039.9
11059	15.126	3.0909	5.e-002	-4.497
11060	15.126	2.8182	0.	-2017.7
11061	15.034	2.9091	0.	-2039.9
11062	15.126	2.9091	5.e-002	-4.497
11063	15.126	2.6364	0.	-2017.2
11064	15.034	2.7273	0.	-2039.6
11065	15.126	2.7273	5.e-002	-4.508
11066	15.126	2.4545	0.	-2016.4
11067	15.034	2.5455	0.	-2039.
11068	15.126	2.5455	5.e-002	-4.5297
11069	15.126	2.2727	0.	-2015.3
11070	15.034	2.3636	0.	-2038.1
11071	15.126	2.3636	5.e-002	-4.5609
11072	15.126	2.0909	0.	-2013.9
11073	15.034	2.1818	0.	-2037.
11074	15.126	2.1818	5.e-002	-4.6004
11075	15.126	1.9091	0.	-2012.2
11076	15.034	2.	0.	-2035.6
11077	15.126	2.	5.e-002	-4.6464
11078	15.126	1.7273	0.	-2010.2
11079	15.034	1.8182	0.	-2034.
11080	15.126	1.8182	5.e-002	-4.6972
11081	15.126	1.5455	0.	-2008.
11082	15.034	1.6364	0.	-2032.1
11083	15.126	1.6364	5.e-002	-4.7507
11084	15.126	1.3636	0.	-2005.6
11085	15.034	1.4545	0.	-2030.1
11086	15.126	1.4545	5.e-002	-4.8052
11087	15.126	1.1818	0.	-2003.1
11088	15.034	1.2727	0.	-2027.9
11089	15.126	1.2727	5.e-002	-4.8586
11090	15.126	1.	0.	-2000.6
11091	15.034	1.0909	0.	-2025.6
11092	15.126	1.0909	5.e-002	-4.9091
11093	15.126	0.81818	0.	-1998.
11094	15.034	0.90909	0.	-2023.3
11095	15.126	0.90909	5.e-002	-4.9547
11096	15.126	0.63636	0.	-1995.6
11097	15.034	0.72727	0.	-2021.1
11098	15.126	0.72727	5.e-002	-4.9929
11099	15.126	0.45455	0.	-1993.5
11100	15.034	0.54545	0.	-2019.
11101	15.126	0.54545	5.e-002	-5.008
11102	15.126	0.27273	0.	-1992.2
11103	15.034	0.36364	0.	-2017.3
11104	15.126	0.36364	5.e-002	-4.7886
11105	15.034	0.18182	0.	-2017.1
11106	15.126	0.18182	5.e-002	-1.2191
11107	15.126	9.0909e-002	0.	-1987.6
11108	14.942	5.7273	0.	-2042.1
11109	14.85	5.8182	0.	-2066.9
11110	14.942	5.8182	5.e-002	-1.0538
11111	14.942	5.9091	0.	-2037.6
11112	14.942	5.5455	0.	-2042.8
11113	14.85	5.6364	0.	-2066.7
11114	14.942	5.6364	5.e-002	-4.7282
11115	14.942	5.3636	0.	-2044.5
11116	14.85	5.4545	0.	-2068.
11117	14.942	5.4545	5.e-002	-4.9599
11118	14.942	5.1818	0.	-2046.4
11119	14.85	5.2727	0.	-2069.6
11120	14.942	5.2727	5.e-002	-4.9526
11121	14.942	5.	0.	-2048.3
11122	14.85	5.0909	0.	-2071.3
11123	14.942	5.0909	5.e-002	-4.9235
11124	14.942	4.8182	0.	-2050.3
11125	14.85	4.9091	0.	-2073.1
11126	14.942	4.9091	5.e-002	-4.888
11127	14.942	4.6364	0.	-2052.3
11128	14.85	4.7273	0.	-2074.9
11129	14.942	4.7273	5.e-002	-4.8487
11130	14.942	4.4545	0.	-2054.2
11131	14.85	4.5455	0.	-2076.6
11132	14.942	4.5455	5.e-002	-4.8069
11133	14.942	4.2727	0.	-2055.9
11134	14.85	4.3636	0.	-2078.2
11135	14.942	4.3636	5.e-002	-4.7643
11136	14.942	4.0909	0.	-2057.4
11137	14.85	4.1818	0.	-2079.6
11138	14.942	4.1818	5.e-002	-4.7223
11139	14.942	3.9091	0.	-2058.7
11140	14.85	4.	0.	-2080.9
11141	14.942	4.	5.e-002	-4.6827
11142	14.942	3.7273	0.	-2059.8
11143	14.85	3.8182	0.	-2082.
11144	14.942	3.8182	5.e-002	-4.6468
11145	14.942	3.5455	0.	-2060.7
11146	14.85	3.6364	0.	-2082.8
11147	14.942	3.6364	5.e-002	-4.6161
11148	14.942	3.3636	0.	-2061.3
11149	14.85	3.4545	0.	-2083.5
11150	14.942	3.4545	5.e-002	-4.5918
11151	14.942	3.1818	0.	-2061.7
11152	14.85	3.2727	0.	-2083.9
11153	14.942	3.2727	5.e-002	-4.575
11154	14.942	3.	0.	-2061.8
11155	14.85	3.0909	0.	-2084.1
11156	14.942	3.0909	5.e-002	-4.5664
11157	14.942	2.8182	0.	-2061.7
11158	14.85	2.9091	0.	-2084.1
11159	14.942	2.9091	5.e-002	-4.5664
11160	14.942	2.6364	0.	-2061.3
11161	14.85	2.7273	0.	-2083.9
11162	14.942	2.7273	5.e-002	-4.575
11163	14.942	2.4545	0.	-2060.7
11164	14.85	2.5455	0.	-2083.5
11165	14.942	2.5455	5.e-002	-4.5918
11166	14.942	2.2727	0.	-2059.8
11167	14.85	2.3636	0.	-2082.8
11168	14.942	2.3636	5.e-002	-4.6161
11169	14.942	2.0909	0.	-2058.7
11170	14.85	2.1818	0.	-2082.
11171	14.942	2.1818	5.e-002	-4.6468
11172	14.942	1.9091	0.	-2057.4
11173	14.85	2.	0.	-2080.9
11174	14.942	2.	5.e-002	-4.6827
11175	14.942	1.7273	0.	-2055.9
11176	14.85	1.8182	0.	-2079.6
11177	14.942	1.8182	5.e-002	-4.7223
11178	14.942	1.5455	0.	-2054.2
11179	14.85	1.6364	0.	-2078.2
11180	14.942	1.6364	5.e-002	-4.7642
11181	14.942	1.3636	0.	-2052.3
11182	14.85	1.4545	0.	-2076.6
11183	14.942	1.4545	5.e-002	-4.8069
11184	14.942	1.1818	0.	-2050.3
11185	14.85	1.2727	0.	-2074.9
11186	14.942	1.2727	5.e-002	-4.8487
11187	14.942	1.	0.	-2048.3
11188	14.85	1.0909	0.	-2073.1
11189	14.942	1.0909	5.e-002	-4.888
11190	14.942	0.81818	0.	-2046.4
11191	14.85	0.90909	0.	-2071.3
11192	14.942	0.90909	5.e-002	-4.9234
11193	14.942	0.63636	0.	-2044.5
11194	14.85	0.72727	0.	-2069.6
11195	14.942	0.72727	5.e-002	-4.9526
11196	14.942	0.45455	0.	-2042.8
11197	14.85	0.54545	0.	-2068.
11198	14.942	0.54545	5.e-002	-4.9598
11199	14.942	0.27273	0.	-2042.1
11200	14.85	0.36364	0.	-2066.7
11201	14.942	0.36364	5.e-002	-4.7282
11202	14.85	0.18182	0.	-2066.9
11203	14.942	0.18182	5.e-002	-1.0537
11204	14.942	9.0909e-002	0.	-2037.6
11205	14.757	5.7273	0.	-2091.5
11206	14.665	5.8182	0.	-2116.4
11207	14.757	5.8182	5.e-002	-0.91437
11208	14.757	5.9091	0.	-2087.2
11209	14.757	5.5455	0.	-2091.8
11210	14.665	5.6364	0.	-2115.8
11211	14.757	5.6364	5.e-002	-4.6829
11212	14.757	5.3636	0.	-2093.1
11213	14.665	5.4545	0.	-2116.7
11214	14.757	5.4545	5.e-002	-4.9248
11215	14.757	5.1818	0.	-2094.5
11216	14.665	5.2727	0.	-2117.9
11217	14.757	5.2727	5.e-002	-4.9238
11218	14.757	5.	0.	-2096.
11219	14.665	5.0909	0.	-2119.2
11220	14.757	5.0909	5.e-002	-4.9018
11221	14.757	4.8182	0.	-2097.6
11222	14.665	4.9091	0.	-2120.6
11223	14.757	4.9091	5.e-002	-4.8745
11224	14.757	4.6364	0.	-2099.1
11225	14.665	4.7273	0.	-2122.
11226	14.757	4.7273	5.e-002	-4.8439
11227	14.757	4.4545	0.	-2100.6
11228	14.665	4.5455	0.	-2123.3
11229	14.757	4.5455	5.e-002	-4.8114
11230	14.757	4.2727	0.	-2101.9
11231	14.665	4.3636	0.	-2124.5
11232	14.757	4.3636	5.e-002	-4.7782
11233	14.757	4.0909	0.	-2103.1
11234	14.665	4.1818	0.	-2125.6
11235	14.757	4.1818	5.e-002	-4.7455
11236	14.757	3.9091	0.	-2104.1
11237	14.665	4.	0.	-2126.6
11238	14.757	4.	5.e-002	-4.7146
11239	14.757	3.7273	0.	-2104.9
11240	14.665	3.8182	0.	-2127.4
11241	14.757	3.8182	5.e-002	-4.6866
11242	14.757	3.5455	0.	-2105.6
11243	14.665	3.6364	0.	-2128.1
11244	14.757	3.6364	5.e-002	-4.6628
11245	14.757	3.3636	0.	-2106.1
11246	14.665	3.4545	0.	-2128.6
11247	14.757	3.4545	5.e-002	-4.6439
11248	14.757	3.1818	0.	-2106.3
11249	14.665	3.2727	0.	-2128.9
11250	14.757	3.2727	5.e-002	-4.6309
11251	14.757	3.	0.	-2106.4
11252	14.665	3.0909	0.	-2129.1
11253	14.757	3.0909	5.e-002	-4.6242
11254	14.757	2.8182	0.	-2106.3
11255	14.665	2.9091	0.	-2129.1
11256	14.757	2.9091	5.e-002	-4.6242
11257	14.757	2.6364	0.	-2106.1
11258	14.665	2.7273	0.	-2128.9
11259	14.757	2.7273	5.e-002	-4.6309
11260	14.757	2.4545	0.	-2105.6
11261	14.665	2.5455	0.	-2128.6
11262	14.757	2.5455	5.e-002	-4.6439
11263	14.757	2.2727	0.	-2104.9
11264	14.665	2.3636	0.	-2128.1
11265	14.757	2.3636	5.e-002	-4.6627
11266	14.757	2.0909	0.	-2104.1
11267	14.665	2.1818	0.	-2127.4
11268	14.757	2.1818	5.e-002	-4.6866
11269	14.757	1.9091	0.	-2103.1
11270	14.665	2.	0.	-2126.6
11271	14.757	2.	5.e-002	-4.7146
11272	14.757	1.7273	0.	-2101.9
11273	14.665	1.8182	0.	-2125.6
11274	14.757	1.8182	5.e-002	-4.7455
11275	14.757	1.5455	0.	-2100.6
11276	14.665	1.6364	0.	-2124.5
11277	14.757	1.6364	5.e-002	-4.7782
11278	14.757	1.3636	0.	-2099.1
11279	14.665	1.4545	0.	-2123.3
11280	14.757	1.4545	5.e-002	-4.8114
11281	14.757	1.1818	0.	-2097.6
11282	14.665	1.2727	0.	-2122.
11283	14.757	1.2727	5.e-002	-4.8439
11284	14.757	1.	0.	-2096.
11285	14.665	1.0909	0.	-2120.6
11286	14.757	1.0909	5.e-002	-4.8745
11287	14.757	0.81818	0.	-2094.5
11288	14.665	0.90909	0.	-2119.2
11289	14.757	0.90909	5.e-002	-4.9018
11290	14.757	0.63636	0.	-2093.1
11291	14.665	0.72727	0.	-2117.9
11292	14.757	0.72727	5.e-002	-4.9237
11293	14.757	0.45455	0.	-2091.8
11294	14.665	0.54545	0.	-2116.7
11295	14.757	0.54545	5.e-002	-4.9248
11296	14.757	0.27273	0.	-2091.5
11297	14.665	0.36364	0.	-2115.8
11298	14.757	0.36364	5.e-002	-4.6829
11299	14.665	0.18182	0.	-2116.4
11300	14.757	0.18182	5.e-002	-0.91434
11301	14.757	9.0909e-002	0.	-2087.2
11302	14.573	5.7273	0.	-2140.6
11303	14.481	5.8182	0.	-2165.6
11304	14.573	5.8182	5.e-002	-0.7966
11305	14.573	5.9091	0.	-2136.5
11306	14.573	5.5455	0.	-2140.6
11307	14.481	5.6364	0.	-2164.7
11308	14.573	5.6364	5.e-002	-4.6498
11309	14.573	5.3636	0.	-2141.5
11310	14.481	5.4545	0.	-2165.3
11311	14.573	5.4545	5.e-002	-4.9003
11312	14.573	5.1818	0.	-2142.6
11313	14.481	5.2727	0.	-2166.1
11314	14.573	5.2727	5.e-002	-4.9042
11315	14.573	5.	0.	-2143.7
11316	14.481	5.0909	0.	-2167.1
11317	14.573	5.0909	5.e-002	-4.8879
11318	14.573	4.8182	0.	-2144.9
11319	14.481	4.9091	0.	-2168.1
11320	14.573	4.9091	5.e-002	-4.867
11321	14.573	4.6364	0.	-2146.1
11322	14.481	4.7273	0.	-2169.2
11323	14.573	4.7273	5.e-002	-4.8435
11324	14.573	4.4545	0.	-2147.2
11325	14.481	4.5455	0.	-2170.1
11326	14.573	4.5455	5.e-002	-4.8183
11327	14.573	4.2727	0.	-2148.2
11328	14.481	4.3636	0.	-2171.1
11329	14.573	4.3636	5.e-002	-4.7925
11330	14.573	4.0909	0.	-2149.1
11331	14.481	4.1818	0.	-2171.9
11332	14.573	4.1818	5.e-002	-4.7671
11333	14.573	3.9091	0.	-2149.9
11334	14.481	4.	0.	-2172.6
11335	14.573	4.	5.e-002	-4.7432
11336	14.573	3.7273	0.	-2150.5
11337	14.481	3.8182	0.	-2173.3
11338	14.573	3.8182	5.e-002	-4.7214
11339	14.573	3.5455	0.	-2151.
11340	14.481	3.6364	0.	-2173.8
11341	14.573	3.6364	5.e-002	-4.7029
11342	14.573	3.3636	0.	-2151.4
11343	14.481	3.4545	0.	-2174.1
11344	14.573	3.4545	5.e-002	-4.6883
11345	14.573	3.1818	0.	-2151.6
11346	14.481	3.2727	0.	-2174.4
11347	14.573	3.2727	5.e-002	-4.6782
11348	14.573	3.	0.	-2151.6
11349	14.481	3.0909	0.	-2174.5
11350	14.573	3.0909	5.e-002	-4.673
11351	14.573	2.8182	0.	-2151.6
11352	14.481	2.9091	0.	-2174.5
11353	14.573	2.9091	5.e-002	-4.673
11354	14.573	2.6364	0.	-2151.4
11355	14.481	2.7273	0.	-2174.4
11356	14.573	2.7273	5.e-002	-4.6782
11357	14.573	2.4545	0.	-2151.
11358	14.481	2.5455	0.	-2174.1
11359	14.573	2.5455	5.e-002	-4.6883
11360	14.573	2.2727	0.	-2150.5
11361	14.481	2.3636	0.	-2173.8
11362	14.573	2.3636	5.e-002	-4.7029
11363	14.573	2.0909	0.	-2149.9
11364	14.481	2.1818	0.	-2173.3
11365	14.573	2.1818	5.e-002	-4.7214
11366	14.573	1.9091	0.	-2149.1
11367	14.481	2.	0.	-2172.6
11368	14.573	2.	5.e-002	-4.7432
11369	14.573	1.7273	0.	-2148.2
11370	14.481	1.8182	0.	-2171.9
11371	14.573	1.8182	5.e-002	-4.7671
11372	14.573	1.5455	0.	-2147.2
11373	14.481	1.6364	0.	-2171.1
11374	14.573	1.6364	5.e-002	-4.7925
11375	14.573	1.3636	0.	-2146.1
11376	14.481	1.4545	0.	-2170.1
11377	14.573	1.4545	5.e-002	-4.8183
11378	14.573	1.1818	0.	-2144.9
11379	14.481	1.2727	0.	-2169.2
11380	14.573	1.2727	5.e-002	-4.8435
11381	14.573	1.	0.	-2143.7
11382	14.481	1.0909	0.	-2168.1
11383	14.573	1.0909	5.e-002	-4.867
11384	14.573	0.81818	0.	-2142.6
11385	14.481	0.90909	0.	-2167.1
11386	14.573	0.90909	5.e-002	-4.8879
11387	14.573	0.63636	0.	-2141.5
11388	14.481	0.72727	0.	-2166.1
11389	14.573	0.72727	5.e-002	-4.9042
11390	14.573	0.45455	0.	-2140.6
11391	14.481	0.54545	0.	-2165.3
11392	14.573	0.54545	5.e-002	-4.9003
11393	14.573	0.27273	0.	-2140.6
11394	14.481	0.36364	0.	-2164.7
11395	14.573	0.36364	5.e-002	-4.6498
11396	14.481	0.18182	0.	-2165.6
11397	14.573	0.18182	5.e-002	-0.79659
11398	14.573	9.0909e-002	0.	-2136.5
11399	14.388	5.7273	0.	-2189.5
11400	14.296	5.8182	0.	-2214.5
11401	14.388	5.8182	5.e-002	-0.69688
11402	14.388	5.9091	0.	-2185.6
11403	14.388	5.5455	0.	-2189.3
11404	14.296	5.6364	0.	-2213.4
11405	14.388	5.6364	5.e-002	-4.6266
11406	14.388	5.3636	0.	-2189.9
11407	14.296	5.4545	0.	-2213.8
11408	14.388	5.4545	5.e-002	-4.8843
11409	14.388	5.1818	0.	-2190.6
11410	14.296	5.2727	0.	-2214.3
11411	14.388	5.2727	5.e-002	-4.8922
11412	14.388	5.	0.	-2191.5
11413	14.296	5.0909	0.	-2215.
11414	14.388	5.0909	5.e-002	-4.8803
11415	14.388	4.8182	0.	-2192.3
11416	14.296	4.9091	0.	-2215.8
11417	14.388	4.9091	5.e-002	-4.8645
11418	14.388	4.6364	0.	-2193.2
11419	14.296	4.7273	0.	-2216.5
11420	14.388	4.7273	5.e-002	-4.8465
11421	14.388	4.4545	0.	-2194.
11422	14.296	4.5455	0.	-2217.2
11423	14.388	4.5455	5.e-002	-4.8272
11424	14.388	4.2727	0.	-2194.8
11425	14.296	4.3636	0.	-2217.9
11426	14.388	4.3636	5.e-002	-4.8073
11427	14.388	4.0909	0.	-2195.4
11428	14.296	4.1818	0.	-2218.5
11429	14.388	4.1818	5.e-002	-4.7876
11430	14.388	3.9091	0.	-2196.
11431	14.296	4.	0.	-2219.1
11432	14.388	4.	5.e-002	-4.7691
11433	14.388	3.7273	0.	-2196.5
11434	14.296	3.8182	0.	-2219.5
11435	14.388	3.8182	5.e-002	-4.7523
11436	14.388	3.5455	0.	-2196.9
11437	14.296	3.6364	0.	-2219.9
11438	14.388	3.6364	5.e-002	-4.7379
11439	14.388	3.3636	0.	-2197.1
11440	14.296	3.4545	0.	-2220.2
11441	14.388	3.4545	5.e-002	-4.7266
11442	14.388	3.1818	0.	-2197.3
11443	14.296	3.2727	0.	-2220.3
11444	14.388	3.2727	5.e-002	-4.7188
11445	14.388	3.	0.	-2197.4
11446	14.296	3.0909	0.	-2220.4
11447	14.388	3.0909	5.e-002	-4.7149
11448	14.388	2.8182	0.	-2197.3
11449	14.296	2.9091	0.	-2220.4
11450	14.388	2.9091	5.e-002	-4.7149
11451	14.388	2.6364	0.	-2197.1
11452	14.296	2.7273	0.	-2220.3
11453	14.388	2.7273	5.e-002	-4.7188
11454	14.388	2.4545	0.	-2196.9
11455	14.296	2.5455	0.	-2220.2
11456	14.388	2.5455	5.e-002	-4.7266
11457	14.388	2.2727	0.	-2196.5
11458	14.296	2.3636	0.	-2219.9
11459	14.388	2.3636	5.e-002	-4.7379
11460	14.388	2.0909	0.	-2196.
11461	14.296	2.1818	0.	-2219.5
11462	14.388	2.1818	5.e-002	-4.7523
11463	14.388	1.9091	0.	-2195.4
11464	14.296	2.	0.	-2219.1
11465	14.388	2.	5.e-002	-4.7691
11466	14.388	1.7273	0.	-2194.8
11467	14.296	1.8182	0.	-2218.5
11468	14.388	1.8182	5.e-002	-4.7876
11469	14.388	1.5455	0.	-2194.
11470	14.296	1.6364	0.	-2217.9
11471	14.388	1.6364	5.e-002	-4.8073
11472	14.388	1.3636	0.	-2193.2
11473	14.296	1.4545	0.	-2217.2
11474	14.388	1.4545	5.e-002	-4.8271
11475	14.388	1.1818	0.	-2192.3
11476	14.296	1.2727	0.	-2216.5
11477	14.388	1.2727	5.e-002	-4.8465
11478	14.388	1.	0.	-2191.5
11479	14.296	1.0909	0.	-2215.8
11480	14.388	1.0909	5.e-002	-4.8645
11481	14.388	0.81818	0.	-2190.6
11482	14.296	0.90909	0.	-2215.
11483	14.388	0.90909	5.e-002	-4.8803
11484	14.388	0.63636	0.	-2189.9
11485	14.296	0.72727	0.	-2214.3
11486	14.388	0.72727	5.e-002	-4.8921
11487	14.388	0.45455	0.	-2189.3
11488	14.296	0.54545	0.	-2213.8
11489	14.388	0.54545	5.e-002	-4.8843
11490	14.388	0.27273	0.	-2189.5
11491	14.296	0.36364	0.	-2213.4
11492	14.388	0.36364	5.e-002	-4.6266
11493	14.296	0.18182	0.	-2214.5
11494	14.388	0.18182	5.e-002	-0.69684
11495	14.388	9.0909e-002	0.	-2185.6
11496	14.204	5.7273	0.	-2238.3
11497	14.112	5.8182	0.	-2263.4
11498	14.204	5.8182	5.e-002	-0.61222
11499	14.204	5.9091	0.	-2234.5
11500	14.204	5.5455	0.	-2237.8
11501	14.112	5.6364	0.	-2262.1
11502	14.204	5.6364	5.e-002	-4.6114
11503	14.204	5.3636	0.	-2238.2
11504	14.112	5.4545	0.	-2262.2
11505	14.204	5.4545	5.e-002	-4.8753
11506	14.204	5.1818	0.	-2238.7
11507	14.112	5.2727	0.	-2262.5
11508	14.204	5.2727	5.e-002	-4.8862
11509	14.204	5.	0.	-2239.3
11510	14.112	5.0909	0.	-2263.
11511	14.204	5.0909	5.e-002	-4.8778
11512	14.204	4.8182	0.	-2239.9
11513	14.112	4.9091	0.	-2263.5
11514	14.204	4.9091	5.e-002	-4.866
11515	14.204	4.6364	0.	-2240.5
11516	14.112	4.7273	0.	-2264.
11517	14.204	4.7273	5.e-002	-4.8524
11518	14.204	4.4545	0.	-2241.1
11519	14.112	4.5455	0.	-2264.5
11520	14.204	4.5455	5.e-002	-4.8377
11521	14.204	4.2727	0.	-2241.6
11522	14.112	4.3636	0.	-2265.
11523	14.204	4.3636	5.e-002	-4.8225
11524	14.204	4.0909	0.	-2242.1
11525	14.112	4.1818	0.	-2265.4
11526	14.204	4.1818	5.e-002	-4.8074
11527	14.204	3.9091	0.	-2242.5
11528	14.112	4.	0.	-2265.8
11529	14.204	4.	5.e-002	-4.7931
11530	14.204	3.7273	0.	-2242.9
11531	14.112	3.8182	0.	-2266.1
11532	14.204	3.8182	5.e-002	-4.7802
11533	14.204	3.5455	0.	-2243.2
11534	14.112	3.6364	0.	-2266.4
11535	14.204	3.6364	5.e-002	-4.7691
11536	14.204	3.3636	0.	-2243.3
11537	14.112	3.4545	0.	-2266.6
11538	14.204	3.4545	5.e-002	-4.7604
11539	14.204	3.1818	0.	-2243.5
11540	14.112	3.2727	0.	-2266.7
11541	14.204	3.2727	5.e-002	-4.7544
11542	14.204	3.	0.	-2243.5
11543	14.112	3.0909	0.	-2266.8
11544	14.204	3.0909	5.e-002	-4.7513
11545	14.204	2.8182	0.	-2243.5
11546	14.112	2.9091	0.	-2266.8
11547	14.204	2.9091	5.e-002	-4.7513
11548	14.204	2.6364	0.	-2243.3
11549	14.112	2.7273	0.	-2266.7
11550	14.204	2.7273	5.e-002	-4.7544
11551	14.204	2.4545	0.	-2243.2
11552	14.112	2.5455	0.	-2266.6
11553	14.204	2.5455	5.e-002	-4.7604
11554	14.204	2.2727	0.	-2242.9
11555	14.112	2.3636	0.	-2266.4
11556	14.204	2.3636	5.e-002	-4.7691
11557	14.204	2.0909	0.	-2242.5
11558	14.112	2.1818	0.	-2266.1
11559	14.204	2.1818	5.e-002	-4.7802
11560	14.204	1.9091	0.	-2242.1
11561	14.112	2.	0.	-2265.8
11562	14.204	2.	5.e-002	-4.7931
11563	14.204	1.7273	0.	-2241.6
11564	14.112	1.8182	0.	-2265.4
11565	14.204	1.8182	5.e-002	-4.8074
11566	14.204	1.5455	0.	-2241.1
11567	14.112	1.6364	0.	-2265.
11568	14.204	1.6364	5.e-002	-4.8224
11569	14.204	1.3636	0.	-2240.5
11570	14.112	1.4545	0.	-2264.5
11571	14.204	1.4545	5.e-002	-4.8377
11572	14.204	1.1818	0.	-2239.9
11573	14.112	1.2727	0.	-2264.
11574	14.204	1.2727	5.e-002	-4.8524
11575	14.204	1.	0.	-2239.3
11576	14.112	1.0909	0.	-2263.5
11577	14.204	1.0909	5.e-002	-4.866
11578	14.204	0.81818	0.	-2238.7
11579	14.112	0.90909	0.	-2263.
11580	14.204	0.90909	5.e-002	-4.8778
11581	14.204	0.63636	0.	-2238.2
11582	14.112	0.72727	0.	-2262.5
11583	14.204	0.72727	5.e-002	-4.8862
11584	14.204	0.45455	0.	-2237.8
11585	14.112	0.54545	0.	-2262.2
11586	14.204	0.54545	5.e-002	-4.8753
11587	14.204	0.27273	0.	-2238.3
11588	14.112	0.36364	0.	-2262.1
11589	14.204	0.36364	5.e-002	-4.6114
11590	14.112	0.18182	0.	-2263.4
11591	14.204	0.18182	5.e-002	-0.61217
11592	14.204	9.0909e-002	0.	-2234.5
11593	14.019	5.7273	0.	-2287.1
11594	13.927	5.8182	0.	-2312.3
11595	14.019	5.8182	5.e-002	-0.54016
11596	14.019	5.9091	0.	-2283.4
11597	14.019	5.5455	0.	-2286.4
11598	13.927	5.6364	0.	-2310.7
11599	14.019	5.6364	5.e-002	-4.6027
11600	14.019	5.3636	0.	-2286.5
11601	13.927	5.4545	0.	-2310.7
11602	14.019	5.4545	5.e-002	-4.8719
11603	14.019	5.1818	0.	-2286.8
11604	13.927	5.2727	0.	-2310.8
11605	14.019	5.2727	5.e-002	-4.8852
11606	14.019	5.	0.	-2287.2
11607	13.927	5.0909	0.	-2311.
11608	14.019	5.0909	5.e-002	-4.8796
11609	14.019	4.8182	0.	-2287.6
11610	13.927	4.9091	0.	-2311.3
11611	14.019	4.9091	5.e-002	-4.871
11612	14.019	4.6364	0.	-2288.
11613	13.927	4.7273	0.	-2311.7
11614	14.019	4.7273	5.e-002	-4.8608
11615	14.019	4.4545	0.	-2288.4
11616	13.927	4.5455	0.	-2312.
11617	14.019	4.5455	5.e-002	-4.8497
11618	14.019	4.2727	0.	-2288.7
11619	13.927	4.3636	0.	-2312.3
11620	14.019	4.3636	5.e-002	-4.8381
11621	14.019	4.0909	0.	-2289.1
11622	13.927	4.1818	0.	-2312.6
11623	14.019	4.1818	5.e-002	-4.8267
11624	14.019	3.9091	0.	-2289.4
11625	13.927	4.	0.	-2312.8
11626	14.019	4.	5.e-002	-4.8157
11627	14.019	3.7273	0.	-2289.6
11628	13.927	3.8182	0.	-2313.
11629	14.019	3.8182	5.e-002	-4.8059
11630	14.019	3.5455	0.	-2289.8
11631	13.927	3.6364	0.	-2313.2
11632	14.019	3.6364	5.e-002	-4.7974
11633	14.019	3.3636	0.	-2289.9
11634	13.927	3.4545	0.	-2313.3
11635	14.019	3.4545	5.e-002	-4.7907
11636	14.019	3.1818	0.	-2290.
11637	13.927	3.2727	0.	-2313.4
11638	14.019	3.2727	5.e-002	-4.7861
11639	14.019	3.	0.	-2290.
11640	13.927	3.0909	0.	-2313.5
11641	14.019	3.0909	5.e-002	-4.7837
11642	14.019	2.8182	0.	-2290.
11643	13.927	2.9091	0.	-2313.5
11644	14.019	2.9091	5.e-002	-4.7837
11645	14.019	2.6364	0.	-2289.9
11646	13.927	2.7273	0.	-2313.4
11647	14.019	2.7273	5.e-002	-4.7861
11648	14.019	2.4545	0.	-2289.8
11649	13.927	2.5455	0.	-2313.3
11650	14.019	2.5455	5.e-002	-4.7907
11651	14.019	2.2727	0.	-2289.6
11652	13.927	2.3636	0.	-2313.2
11653	14.019	2.3636	5.e-002	-4.7974
11654	14.019	2.0909	0.	-2289.4
11655	13.927	2.1818	0.	-2313.
11656	14.019	2.1818	5.e-002	-4.8058
11657	14.019	1.9091	0.	-2289.1
11658	13.927	2.	0.	-2312.8
11659	14.019	2.	5.e-002	-4.8157
11660	14.019	1.7273	0.	-2288.7
11661	13.927	1.8182	0.	-2312.6
11662	14.019	1.8182	5.e-002	-4.8267
11663	14.019	1.5455	0.	-2288.4
11664	13.927	1.6364	0.	-2312.3
11665	14.019	1.6364	5.e-002	-4.8381
11666	14.019	1.3636	0.	-2288.
11667	13.927	1.4545	0.	-2312.
11668	14.019	1.4545	5.e-002	-4.8497
11669	14.019	1.1818	0.	-2287.6
11670	13.927	1.2727	0.	-2311.7
11671	14.019	1.2727	5.e-002	-4.8608
11672	14.019	1.	0.	-2287.2
11673	13.927	1.0909	0.	-2311.3
11674	14.019	1.0909	5.e-002	-4.8709
11675	14.019	0.81818	0.	-2286.8
11676	13.927	0.90909	0.	-2311.
11677	14.019	0.90909	5.e-002	-4.8796
11678	14.019	0.63636	0.	-2286.5
11679	13.927	0.72727	0.	-2310.8
11680	14.019	0.72727	5.e-002	-4.8852
11681	14.019	0.45455	0.	-2286.4
11682	13.927	0.54545	0.	-2310.7
11683	14.019	0.54545	5.e-002	-4.8719
11684	14.019	0.27273	0.	-2287.1
11685	13.927	0.36364	0.	-2310.7
11686	14.019	0.36364	5.e-002	-4.6027
11687	13.927	0.18182	0.	-2312.3
11688	14.019	0.18182	5.e-002	-0.54016
11689	14.019	9.0909e-002	0.	-2283.4
11690	13.835	5.7273	0.	-2335.8
11691	13.743	5.8182	0.	-2361.1
11692	13.835	5.8182	5.e-002	-0.47873
11693	13.835	5.9091	0.	-2332.2
11694	13.835	5.5455	0.	-2334.9
11695	13.743	5.6364	0.	-2359.4
11696	13.835	5.6364	5.e-002	-4.5993
11697	13.835	5.3636	0.	-2334.9
11698	13.743	5.4545	0.	-2359.2
11699	13.835	5.4545	5.e-002	-4.873
11700	13.835	5.1818	0.	-2335.
11701	13.743	5.2727	0.	-2359.2
11702	13.835	5.2727	5.e-002	-4.8882
11703	13.835	5.	0.	-2335.2
11704	13.743	5.0909	0.	-2359.2
11705	13.835	5.0909	5.e-002	-4.8847
11706	13.835	4.8182	0.	-2335.4
11707	13.743	4.9091	0.	-2359.3
11708	13.835	4.9091	5.e-002	-4.8786
11709	13.835	4.6364	0.	-2335.6
11710	13.743	4.7273	0.	-2359.5
11711	13.835	4.7273	5.e-002	-4.8712
11712	13.835	4.4545	0.	-2335.9
11713	13.743	4.5455	0.	-2359.7
11714	13.835	4.5455	5.e-002	-4.8629
11715	13.835	4.2727	0.	-2336.1
11716	13.743	4.3636	0.	-2359.8
11717	13.835	4.3636	5.e-002	-4.8542
11718	13.835	4.0909	0.	-2336.3
11719	13.743	4.1818	0.	-2360.
11720	13.835	4.1818	5.e-002	-4.8456
11721	13.835	3.9091	0.	-2336.5
11722	13.743	4.	0.	-2360.1
11723	13.835	4.	5.e-002	-4.8373
11724	13.835	3.7273	0.	-2336.6
11725	13.743	3.8182	0.	-2360.2
11726	13.835	3.8182	5.e-002	-4.8299
11727	13.835	3.5455	0.	-2336.7
11728	13.743	3.6364	0.	-2360.3
11729	13.835	3.6364	5.e-002	-4.8234
11730	13.835	3.3636	0.	-2336.8
11731	13.743	3.4545	0.	-2360.4
11732	13.835	3.4545	5.e-002	-4.8183
11733	13.835	3.1818	0.	-2336.9
11734	13.743	3.2727	0.	-2360.5
11735	13.835	3.2727	5.e-002	-4.8148
11736	13.835	3.	0.	-2336.9
11737	13.743	3.0909	0.	-2360.5
11738	13.835	3.0909	5.e-002	-4.813
11739	13.835	2.8182	0.	-2336.9
11740	13.743	2.9091	0.	-2360.5
11741	13.835	2.9091	5.e-002	-4.813
11742	13.835	2.6364	0.	-2336.8
11743	13.743	2.7273	0.	-2360.5
11744	13.835	2.7273	5.e-002	-4.8148
11745	13.835	2.4545	0.	-2336.7
11746	13.743	2.5455	0.	-2360.4
11747	13.835	2.5455	5.e-002	-4.8183
11748	13.835	2.2727	0.	-2336.6
11749	13.743	2.3636	0.	-2360.3
11750	13.835	2.3636	5.e-002	-4.8234
11751	13.835	2.0909	0.	-2336.5
11752	13.743	2.1818	0.	-2360.2
11753	13.835	2.1818	5.e-002	-4.8299
11754	13.835	1.9091	0.	-2336.3
11755	13.743	2.	0.	-2360.1
11756	13.835	2.	5.e-002	-4.8373
11757	13.835	1.7273	0.	-2336.1
11758	13.743	1.8182	0.	-2360.
11759	13.835	1.8182	5.e-002	-4.8456
11760	13.835	1.5455	0.	-2335.9
11761	13.743	1.6364	0.	-2359.8
11762	13.835	1.6364	5.e-002	-4.8542
11763	13.835	1.3636	0.	-2335.6
11764	13.743	1.4545	0.	-2359.7
11765	13.835	1.4545	5.e-002	-4.8629
11766	13.835	1.1818	0.	-2335.4
11767	13.743	1.2727	0.	-2359.5
11768	13.835	1.2727	5.e-002	-4.8711
11769	13.835	1.	0.	-2335.2
11770	13.743	1.0909	0.	-2359.3
11771	13.835	1.0909	5.e-002	-4.8786
11772	13.835	0.81818	0.	-2335.
11773	13.743	0.90909	0.	-2359.2
11774	13.835	0.90909	5.e-002	-4.8847
11775	13.835	0.63636	0.	-2334.9
11776	13.743	0.72727	0.	-2359.2
11777	13.835	0.72727	5.e-002	-4.8882
11778	13.835	0.45455	0.	-2334.9
11779	13.743	0.54545	0.	-2359.2
11780	13.835	0.54545	5.e-002	-4.873
11781	13.835	0.27273	0.	-2335.8
11782	13.743	0.36364	0.	-2359.4
11783	13.835	0.36364	5.e-002	-4.5992
11784	13.743	0.18182	0.	-2361.1
11785	13.835	0.18182	5.e-002	-0.47871
11786	13.835	9.0909e-002	0.	-2332.2
11787	13.65	5.7273	0.	-2384.6
11788	13.558	5.8182	0.	-2410.
11789	13.65	5.8182	5.e-002	-0.42625
11790	13.65	5.9091	0.	-2381.1
11791	13.65	5.5455	0.	-2383.6
11792	13.558	5.6364	0.	-2408.1
11793	13.65	5.6364	5.e-002	-4.6001
11794	13.65	5.3636	0.	-2383.4
11795	13.558	5.4545	0.	-2407.8
11796	13.65	5.4545	5.e-002	-4.8778
11797	13.65	5.1818	0.	-2383.3
11798	13.558	5.2727	0.	-2407.6
11799	13.65	5.2727	5.e-002	-4.8945
11800	13.65	5.	0.	-2383.3
11801	13.558	5.0909	0.	-2407.5
11802	13.65	5.0909	5.e-002	-4.8927
11803	13.65	4.8182	0.	-2383.4
11804	13.558	4.9091	0.	-2407.5
11805	13.65	4.9091	5.e-002	-4.8885
11806	13.65	4.6364	0.	-2383.5
11807	13.558	4.7273	0.	-2407.5
11808	13.65	4.7273	5.e-002	-4.8832
11809	13.65	4.4545	0.	-2383.6
11810	13.558	4.5455	0.	-2407.5
11811	13.65	4.5455	5.e-002	-4.8772
11812	13.65	4.2727	0.	-2383.7
11813	13.558	4.3636	0.	-2407.6
11814	13.65	4.3636	5.e-002	-4.8709
11815	13.65	4.0909	0.	-2383.8
11816	13.558	4.1818	0.	-2407.6
11817	13.65	4.1818	5.e-002	-4.8644
11818	13.65	3.9091	0.	-2383.9
11819	13.558	4.	0.	-2407.7
11820	13.65	4.	5.e-002	-4.8583
11821	13.65	3.7273	0.	-2383.9
11822	13.558	3.8182	0.	-2407.7
11823	13.65	3.8182	5.e-002	-4.8526
11824	13.65	3.5455	0.	-2384.
11825	13.558	3.6364	0.	-2407.8
11826	13.65	3.6364	5.e-002	-4.8478
11827	13.65	3.3636	0.	-2384.
11828	13.558	3.4545	0.	-2407.8
11829	13.65	3.4545	5.e-002	-4.844
11830	13.65	3.1818	0.	-2384.1
11831	13.558	3.2727	0.	-2407.8
11832	13.65	3.2727	5.e-002	-4.8414
11833	13.65	3.	0.	-2384.1
11834	13.558	3.0909	0.	-2407.8
11835	13.65	3.0909	5.e-002	-4.84
11836	13.65	2.8182	0.	-2384.1
11837	13.558	2.9091	0.	-2407.8
11838	13.65	2.9091	5.e-002	-4.84
11839	13.65	2.6364	0.	-2384.
11840	13.558	2.7273	0.	-2407.8
11841	13.65	2.7273	5.e-002	-4.8414
11842	13.65	2.4545	0.	-2384.
11843	13.558	2.5455	0.	-2407.8
11844	13.65	2.5455	5.e-002	-4.844
11845	13.65	2.2727	0.	-2383.9
11846	13.558	2.3636	0.	-2407.8
11847	13.65	2.3636	5.e-002	-4.8478
11848	13.65	2.0909	0.	-2383.9
11849	13.558	2.1818	0.	-2407.7
11850	13.65	2.1818	5.e-002	-4.8526
11851	13.65	1.9091	0.	-2383.8
11852	13.558	2.	0.	-2407.7
11853	13.65	2.	5.e-002	-4.8583
11854	13.65	1.7273	0.	-2383.7
11855	13.558	1.8182	0.	-2407.6
11856	13.65	1.8182	5.e-002	-4.8644
11857	13.65	1.5455	0.	-2383.6
11858	13.558	1.6364	0.	-2407.6
11859	13.65	1.6364	5.e-002	-4.8708
11860	13.65	1.3636	0.	-2383.5
11861	13.558	1.4545	0.	-2407.5
11862	13.65	1.4545	5.e-002	-4.8772
11863	13.65	1.1818	0.	-2383.4
11864	13.558	1.2727	0.	-2407.5
11865	13.65	1.2727	5.e-002	-4.8832
11866	13.65	1.	0.	-2383.3
11867	13.558	1.0909	0.	-2407.5
11868	13.65	1.0909	5.e-002	-4.8885
11869	13.65	0.81818	0.	-2383.3
11870	13.558	0.90909	0.	-2407.5
11871	13.65	0.90909	5.e-002	-4.8927
11872	13.65	0.63636	0.	-2383.4
11873	13.558	0.72727	0.	-2407.6
11874	13.65	0.72727	5.e-002	-4.8945
11875	13.65	0.45455	0.	-2383.6
11876	13.558	0.54545	0.	-2407.8
11877	13.65	0.54545	5.e-002	-4.8778
11878	13.65	0.27273	0.	-2384.6
11879	13.558	0.36364	0.	-2408.1
11880	13.65	0.36364	5.e-002	-4.6001
11881	13.558	0.18182	0.	-2410.
11882	13.65	0.18182	5.e-002	-0.42622
11883	13.65	9.0909e-002	0.	-2381.1
11884	13.466	5.7273	0.	-2433.4
11885	13.374	5.8182	0.	-2458.9
11886	13.466	5.8182	5.e-002	-0.3814
11887	13.466	5.9091	0.	-2430.1
11888	13.466	5.5455	0.	-2432.3
11889	13.374	5.6364	0.	-2456.9
11890	13.466	5.6364	5.e-002	-4.6045
11891	13.466	5.3636	0.	-2432.
11892	13.374	5.4545	0.	-2456.5
11893	13.466	5.4545	5.e-002	-4.8856
11894	13.466	5.1818	0.	-2431.8
11895	13.374	5.2727	0.	-2456.2
11896	13.466	5.2727	5.e-002	-4.9035
11897	13.466	5.	0.	-2431.6
11898	13.374	5.0909	0.	-2455.9
11899	13.466	5.0909	5.e-002	-4.9031
11900	13.466	4.8182	0.	-2431.6
11901	13.374	4.9091	0.	-2455.8
11902	13.466	4.9091	5.e-002	-4.9003
11903	13.466	4.6364	0.	-2431.5
11904	13.374	4.7273	0.	-2455.7
11905	13.466	4.7273	5.e-002	-4.8967
11906	13.466	4.4545	0.	-2431.5
11907	13.374	4.5455	0.	-2455.6
11908	13.466	4.5455	5.e-002	-4.8925
11909	13.466	4.2727	0.	-2431.5
11910	13.374	4.3636	0.	-2455.5
11911	13.466	4.3636	5.e-002	-4.888
11912	13.466	4.0909	0.	-2431.5
11913	13.374	4.1818	0.	-2455.5
11914	13.466	4.1818	5.e-002	-4.8833
11915	13.466	3.9091	0.	-2431.5
11916	13.374	4.	0.	-2455.5
11917	13.466	4.	5.e-002	-4.8788
11918	13.466	3.7273	0.	-2431.5
11919	13.374	3.8182	0.	-2455.4
11920	13.466	3.8182	5.e-002	-4.8747
11921	13.466	3.5455	0.	-2431.5
11922	13.374	3.6364	0.	-2455.4
11923	13.466	3.6364	5.e-002	-4.8711
11924	13.466	3.3636	0.	-2431.5
11925	13.374	3.4545	0.	-2455.4
11926	13.466	3.4545	5.e-002	-4.8682
11927	13.466	3.1818	0.	-2431.5
11928	13.374	3.2727	0.	-2455.4
11929	13.466	3.2727	5.e-002	-4.8663
11930	13.466	3.	0.	-2431.5
11931	13.374	3.0909	0.	-2455.4
11932	13.466	3.0909	5.e-002	-4.8653
11933	13.466	2.8182	0.	-2431.5
11934	13.374	2.9091	0.	-2455.4
11935	13.466	2.9091	5.e-002	-4.8653
11936	13.466	2.6364	0.	-2431.5
11937	13.374	2.7273	0.	-2455.4
11938	13.466	2.7273	5.e-002	-4.8663
11939	13.466	2.4545	0.	-2431.5
11940	13.374	2.5455	0.	-2455.4
11941	13.466	2.5455	5.e-002	-4.8682
11942	13.466	2.2727	0.	-2431.5
11943	13.374	2.3636	0.	-2455.4
11944	13.466	2.3636	5.e-002	-4.8711
11945	13.466	2.0909	0.	-2431.5
11946	13.374	2.1818	0.	-2455.4
11947	13.466	2.1818	5.e-002	-4.8746
11948	13.466	1.9091	0.	-2431.5
11949	13.374	2.	0.	-2455.5
11950	13.466	2.	5.e-002	-4.8788
11951	13.466	1.7273	0.	-2431.5
11952	13.374	1.8182	0.	-2455.5
11953	13.466	1.8182	5.e-002	-4.8833
11954	13.466	1.5455	0.	-2431.5
11955	13.374	1.6364	0.	-2455.5
11956	13.466	1.6364	5.e-002	-4.8879
11957	13.466	1.3636	0.	-2431.5
11958	13.374	1.4545	0.	-2455.6
11959	13.466	1.4545	5.e-002	-4.8925
11960	13.466	1.1818	0.	-2431.6
11961	13.374	1.2727	0.	-2455.7
11962	13.466	1.2727	5.e-002	-4.8967
11963	13.466	1.	0.	-2431.6
11964	13.374	1.0909	0.	-2455.8
11965	13.466	1.0909	5.e-002	-4.9003
11966	13.466	0.81818	0.	-2431.8
11967	13.374	0.90909	0.	-2455.9
11968	13.466	0.90909	5.e-002	-4.903
11969	13.466	0.63636	0.	-2432.
11970	13.374	0.72727	0.	-2456.2
11971	13.466	0.72727	5.e-002	-4.9035
11972	13.466	0.45455	0.	-2432.3
11973	13.374	0.54545	0.	-2456.5
11974	13.466	0.54545	5.e-002	-4.8856
11975	13.466	0.27273	0.	-2433.4
11976	13.374	0.36364	0.	-2456.9
11977	13.466	0.36364	5.e-002	-4.6045
11978	13.374	0.18182	0.	-2458.9
11979	13.466	0.18182	5.e-002	-0.38138
11980	13.466	9.0909e-002	0.	-2430.1
11981	13.282	5.7273	0.	-2482.3
11982	13.189	5.8182	0.	-2508.
11983	13.282	5.8182	5.e-002	-0.34312
11984	13.282	5.9091	0.	-2479.1
11985	13.282	5.5455	0.	-2481.1
11986	13.189	5.6364	0.	-2505.9
11987	13.282	5.6364	5.e-002	-4.6119
11988	13.282	5.3636	0.	-2480.7
11989	13.189	5.4545	0.	-2505.3
11990	13.282	5.4545	5.e-002	-4.8959
11991	13.282	5.1818	0.	-2480.3
11992	13.189	5.2727	0.	-2504.9
11993	13.282	5.2727	5.e-002	-4.9148
11994	13.282	5.	0.	-2480.1
11995	13.189	5.0909	0.	-2504.5
11996	13.282	5.0909	5.e-002	-4.9153
11997	13.282	4.8182	0.	-2479.9
11998	13.189	4.9091	0.	-2504.3
11999	13.282	4.9091	5.e-002	-4.9139
12000	13.282	4.6364	0.	-2479.7
12001	13.189	4.7273	0.	-2504.1
12002	13.282	4.7273	5.e-002	-4.9115
12003	13.282	4.4545	0.	-2479.6
12004	13.189	4.5455	0.	-2503.9
12005	13.282	4.5455	5.e-002	-4.9088
12006	13.282	4.2727	0.	-2479.5
12007	13.189	4.3636	0.	-2503.7
12008	13.282	4.3636	5.e-002	-4.9056
12009	13.282	4.0909	0.	-2479.5
12010	13.189	4.1818	0.	-2503.6
12011	13.282	4.1818	5.e-002	-4.9023
12012	13.282	3.9091	0.	-2479.4
12013	13.189	4.	0.	-2503.5
12014	13.282	4.	5.e-002	-4.8991
12015	13.282	3.7273	0.	-2479.3
12016	13.189	3.8182	0.	-2503.4
12017	13.282	3.8182	5.e-002	-4.8961
12018	13.282	3.5455	0.	-2479.3
12019	13.189	3.6364	0.	-2503.3
12020	13.282	3.6364	5.e-002	-4.8936
12021	13.282	3.3636	0.	-2479.3
12022	13.189	3.4545	0.	-2503.3
12023	13.282	3.4545	5.e-002	-4.8915
12024	13.282	3.1818	0.	-2479.3
12025	13.189	3.2727	0.	-2503.3
12026	13.282	3.2727	5.e-002	-4.89
12027	13.282	3.	0.	-2479.3
12028	13.189	3.0909	0.	-2503.2
12029	13.282	3.0909	5.e-002	-4.8893
12030	13.282	2.8182	0.	-2479.3
12031	13.189	2.9091	0.	-2503.2
12032	13.282	2.9091	5.e-002	-4.8893
12033	13.282	2.6364	0.	-2479.3
12034	13.189	2.7273	0.	-2503.3
12035	13.282	2.7273	5.e-002	-4.89
12036	13.282	2.4545	0.	-2479.3
12037	13.189	2.5455	0.	-2503.3
12038	13.282	2.5455	5.e-002	-4.8915
12039	13.282	2.2727	0.	-2479.3
12040	13.189	2.3636	0.	-2503.3
12041	13.282	2.3636	5.e-002	-4.8935
12042	13.282	2.0909	0.	-2479.4
12043	13.189	2.1818	0.	-2503.4
12044	13.282	2.1818	5.e-002	-4.8961
12045	13.282	1.9091	0.	-2479.5
12046	13.189	2.	0.	-2503.5
12047	13.282	2.	5.e-002	-4.8991
12048	13.282	1.7273	0.	-2479.5
12049	13.189	1.8182	0.	-2503.6
12050	13.282	1.8182	5.e-002	-4.9023
12051	13.282	1.5455	0.	-2479.6
12052	13.189	1.6364	0.	-2503.7
12053	13.282	1.6364	5.e-002	-4.9056
12054	13.282	1.3636	0.	-2479.7
12055	13.189	1.4545	0.	-2503.9
12056	13.282	1.4545	5.e-002	-4.9087
12057	13.282	1.1818	0.	-2479.9
12058	13.189	1.2727	0.	-2504.1
12059	13.282	1.2727	5.e-002	-4.9115
12060	13.282	1.	0.	-2480.1
12061	13.189	1.0909	0.	-2504.3
12062	13.282	1.0909	5.e-002	-4.9138
12063	13.282	0.81818	0.	-2480.3
12064	13.189	0.90909	0.	-2504.5
12065	13.282	0.90909	5.e-002	-4.9153
12066	13.282	0.63636	0.	-2480.7
12067	13.189	0.72727	0.	-2504.9
12068	13.282	0.72727	5.e-002	-4.9148
12069	13.282	0.45455	0.	-2481.1
12070	13.189	0.54545	0.	-2505.3
12071	13.282	0.54545	5.e-002	-4.8959
12072	13.282	0.27273	0.	-2482.3
12073	13.189	0.36364	0.	-2505.9
12074	13.282	0.36364	5.e-002	-4.6118
12075	13.189	0.18182	0.	-2508.
12076	13.282	0.18182	5.e-002	-0.34312
12077	13.282	9.0909e-002	0.	-2479.1
12078	13.097	5.7273	0.	-2531.4
12079	13.005	5.8182	0.	-2557.1
12080	13.097	5.8182	5.e-002	-0.31067
12081	13.097	5.9091	0.	-2528.2
12082	13.097	5.5455	0.	-2530.
12083	13.005	5.6364	0.	-2555.
12084	13.097	5.6364	5.e-002	-4.6216
12085	13.097	5.3636	0.	-2529.5
12086	13.005	5.4545	0.	-2554.3
12087	13.097	5.4545	5.e-002	-4.9083
12088	13.097	5.1818	0.	-2529.1
12089	13.005	5.2727	0.	-2553.7
12090	13.097	5.2727	5.e-002	-4.9278
12091	13.097	5.	0.	-2528.7
12092	13.005	5.0909	0.	-2553.3
12093	13.097	5.0909	5.e-002	-4.9292
12094	13.097	4.8182	0.	-2528.4
12095	13.005	4.9091	0.	-2552.9
12096	13.097	4.9091	5.e-002	-4.9287
12097	13.097	4.6364	0.	-2528.2
12098	13.005	4.7273	0.	-2552.6
12099	13.097	4.7273	5.e-002	-4.9275
12100	13.097	4.4545	0.	-2527.9
12101	13.005	4.5455	0.	-2552.3
12102	13.097	4.5455	5.e-002	-4.9257
12103	13.097	4.2727	0.	-2527.8
12104	13.005	4.3636	0.	-2552.1
12105	13.097	4.3636	5.e-002	-4.9237
12106	13.097	4.0909	0.	-2527.6
12107	13.005	4.1818	0.	-2551.9
12108	13.097	4.1818	5.e-002	-4.9215
12109	13.097	3.9091	0.	-2527.5
12110	13.005	4.	0.	-2551.8
12111	13.097	4.	5.e-002	-4.9193
12112	13.097	3.7273	0.	-2527.4
12113	13.005	3.8182	0.	-2551.6
12114	13.097	3.8182	5.e-002	-4.9173
12115	13.097	3.5455	0.	-2527.3
12116	13.005	3.6364	0.	-2551.5
12117	13.097	3.6364	5.e-002	-4.9155
12118	13.097	3.3636	0.	-2527.3
12119	13.005	3.4545	0.	-2551.4
12120	13.097	3.4545	5.e-002	-4.9141
12121	13.097	3.1818	0.	-2527.2
12122	13.005	3.2727	0.	-2551.4
12123	13.097	3.2727	5.e-002	-4.913
12124	13.097	3.	0.	-2527.2
12125	13.005	3.0909	0.	-2551.3
12126	13.097	3.0909	5.e-002	-4.9125
12127	13.097	2.8182	0.	-2527.2
12128	13.005	2.9091	0.	-2551.3
12129	13.097	2.9091	5.e-002	-4.9125
12130	13.097	2.6364	0.	-2527.3
12131	13.005	2.7273	0.	-2551.4
12132	13.097	2.7273	5.e-002	-4.913
12133	13.097	2.4545	0.	-2527.3
12134	13.005	2.5455	0.	-2551.4
12135	13.097	2.5455	5.e-002	-4.914
12136	13.097	2.2727	0.	-2527.4
12137	13.005	2.3636	0.	-2551.5
12138	13.097	2.3636	5.e-002	-4.9155
12139	13.097	2.0909	0.	-2527.5
12140	13.005	2.1818	0.	-2551.6
12141	13.097	2.1818	5.e-002	-4.9173
12142	13.097	1.9091	0.	-2527.6
12143	13.005	2.	0.	-2551.8
12144	13.097	2.	5.e-002	-4.9193
12145	13.097	1.7273	0.	-2527.8
12146	13.005	1.8182	0.	-2551.9
12147	13.097	1.8182	5.e-002	-4.9215
12148	13.097	1.5455	0.	-2527.9
12149	13.005	1.6364	0.	-2552.1
12150	13.097	1.6364	5.e-002	-4.9237
12151	13.097	1.3636	0.	-2528.2
12152	13.005	1.4545	0.	-2552.3
12153	13.097	1.4545	5.e-002	-4.9257
12154	13.097	1.1818	0.	-2528.4
12155	13.005	1.2727	0.	-2552.6
12156	13.097	1.2727	5.e-002	-4.9275
12157	13.097	1.	0.	-2528.7
12158	13.005	1.0909	0.	-2552.9
12159	13.097	1.0909	5.e-002	-4.9287
12160	13.097	0.81818	0.	-2529.1
12161	13.005	0.90909	0.	-2553.3
12162	13.097	0.90909	5.e-002	-4.9292
12163	13.097	0.63636	0.	-2529.5
12164	13.005	0.72727	0.	-2553.7
12165	13.097	0.72727	5.e-002	-4.9278
12166	13.097	0.45455	0.	-2530.
12167	13.005	0.54545	0.	-2554.3
12168	13.097	0.54545	5.e-002	-4.9082
12169	13.097	0.27273	0.	-2531.4
12170	13.005	0.36364	0.	-2555.
12171	13.097	0.36364	5.e-002	-4.6216
12172	13.005	0.18182	0.	-2557.1
12173	13.097	0.18182	5.e-002	-0.31067
12174	13.097	9.0909e-002	0.	-2528.2
12175	12.913	5.7273	0.	-2580.6
12176	12.82	5.8182	0.	-2606.4
12177	12.913	5.8182	5.e-002	-0.28353
12178	12.913	5.9091	0.	-2577.5
12179	12.913	5.5455	0.	-2579.1
12180	12.82	5.6364	0.	-2604.2
12181	12.913	5.6364	5.e-002	-4.6334
12182	12.913	5.3636	0.	-2578.5
12183	12.82	5.4545	0.	-2603.4
12184	12.913	5.4545	5.e-002	-4.9223
12185	12.913	5.1818	0.	-2577.9
12186	12.82	5.2727	0.	-2602.8
12187	12.913	5.2727	5.e-002	-4.9425
12188	12.913	5.	0.	-2577.5
12189	12.82	5.0909	0.	-2602.2
12190	12.913	5.0909	5.e-002	-4.9445
12191	12.913	4.8182	0.	-2577.1
12192	12.82	4.9091	0.	-2601.8
12193	12.913	4.9091	5.e-002	-4.9448
12194	12.913	4.6364	0.	-2576.8
12195	12.82	4.7273	0.	-2601.4
12196	12.913	4.7273	5.e-002	-4.9443
12197	12.913	4.4545	0.	-2576.5
12198	12.82	4.5455	0.	-2601.
12199	12.913	4.5455	5.e-002	-4.9435
12200	12.913	4.2727	0.	-2576.2
12201	12.82	4.3636	0.	-2600.7
12202	12.913	4.3636	5.e-002	-4.9424
12203	12.913	4.0909	0.	-2576.
12204	12.82	4.1818	0.	-2600.4
12205	12.913	4.1818	5.e-002	-4.9411
12206	12.913	3.9091	0.	-2575.8
12207	12.82	4.	0.	-2600.2
12208	12.913	4.	5.e-002	-4.9397
12209	12.913	3.7273	0.	-2575.7
12210	12.82	3.8182	0.	-2600.
12211	12.913	3.8182	5.e-002	-4.9384
12212	12.913	3.5455	0.	-2575.6
12213	12.82	3.6364	0.	-2599.9
12214	12.913	3.6364	5.e-002	-4.9372
12215	12.913	3.3636	0.	-2575.5
12216	12.82	3.4545	0.	-2599.8
12217	12.913	3.4545	5.e-002	-4.9362
12218	12.913	3.1818	0.	-2575.5
12219	12.82	3.2727	0.	-2599.7
12220	12.913	3.2727	5.e-002	-4.9356
12221	12.913	3.	0.	-2575.4
12222	12.82	3.0909	0.	-2599.7
12223	12.913	3.0909	5.e-002	-4.9351
12224	12.913	2.8182	0.	-2575.5
12225	12.82	2.9091	0.	-2599.7
12226	12.913	2.9091	5.e-002	-4.9351
12227	12.913	2.6364	0.	-2575.5
12228	12.82	2.7273	0.	-2599.7
12229	12.913	2.7273	5.e-002	-4.9355
12230	12.913	2.4545	0.	-2575.6
12231	12.82	2.5455	0.	-2599.8
12232	12.913	2.5455	5.e-002	-4.9362
12233	12.913	2.2727	0.	-2575.7
12234	12.82	2.3636	0.	-2599.9
12235	12.913	2.3636	5.e-002	-4.9372
12236	12.913	2.0909	0.	-2575.8
12237	12.82	2.1818	0.	-2600.
12238	12.913	2.1818	5.e-002	-4.9384
12239	12.913	1.9091	0.	-2576.
12240	12.82	2.	0.	-2600.2
12241	12.913	2.	5.e-002	-4.9397
12242	12.913	1.7273	0.	-2576.2
12243	12.82	1.8182	0.	-2600.4
12244	12.913	1.8182	5.e-002	-4.941
12245	12.913	1.5455	0.	-2576.5
12246	12.82	1.6364	0.	-2600.7
12247	12.913	1.6364	5.e-002	-4.9424
12248	12.913	1.3636	0.	-2576.8
12249	12.82	1.4545	0.	-2601.
12250	12.913	1.4545	5.e-002	-4.9435
12251	12.913	1.1818	0.	-2577.1
12252	12.82	1.2727	0.	-2601.4
12253	12.913	1.2727	5.e-002	-4.9443
12254	12.913	1.	0.	-2577.5
12255	12.82	1.0909	0.	-2601.8
12256	12.913	1.0909	5.e-002	-4.9447
12257	12.913	0.81818	0.	-2577.9
12258	12.82	0.90909	0.	-2602.2
12259	12.913	0.90909	5.e-002	-4.9445
12260	12.913	0.63636	0.	-2578.5
12261	12.82	0.72727	0.	-2602.8
12262	12.913	0.72727	5.e-002	-4.9425
12263	12.913	0.45455	0.	-2579.1
12264	12.82	0.54545	0.	-2603.4
12265	12.913	0.54545	5.e-002	-4.9223
12266	12.913	0.27273	0.	-2580.6
12267	12.82	0.36364	0.	-2604.2
12268	12.913	0.36364	5.e-002	-4.6334
12269	12.82	0.18182	0.	-2606.4
12270	12.913	0.18182	5.e-002	-0.28351
12271	12.913	9.0909e-002	0.	-2577.5
12272	12.728	5.7273	0.	-2629.9
12273	12.636	5.8182	0.	-2655.8
12274	12.728	5.8182	5.e-002	-0.26134
12275	12.728	5.9091	0.	-2626.9
12276	12.728	5.5455	0.	-2628.4
12277	12.636	5.6364	0.	-2653.5
12278	12.728	5.6364	5.e-002	-4.6469
12279	12.728	5.3636	0.	-2627.6
12280	12.636	5.4545	0.	-2652.6
12281	12.728	5.4545	5.e-002	-4.9378
12282	12.728	5.1818	0.	-2627.
12283	12.636	5.2727	0.	-2651.9
12284	12.728	5.2727	5.e-002	-4.9585
12285	12.728	5.	0.	-2626.5
12286	12.636	5.0909	0.	-2651.3
12287	12.728	5.0909	5.e-002	-4.961
12288	12.728	4.8182	0.	-2626.
12289	12.636	4.9091	0.	-2650.8
12290	12.728	4.9091	5.e-002	-4.9619
12291	12.728	4.6364	0.	-2625.6
12292	12.636	4.7273	0.	-2650.3
12293	12.728	4.7273	5.e-002	-4.9621
12294	12.728	4.4545	0.	-2625.2
12295	12.636	4.5455	0.	-2649.9
12296	12.728	4.5455	5.e-002	-4.962
12297	12.728	4.2727	0.	-2624.9
12298	12.636	4.3636	0.	-2649.5
12299	12.728	4.3636	5.e-002	-4.9616
12300	12.728	4.0909	0.	-2624.6
12301	12.636	4.1818	0.	-2649.2
12302	12.728	4.1818	5.e-002	-4.9609
12303	12.728	3.9091	0.	-2624.4
12304	12.636	4.	0.	-2648.9
12305	12.728	4.	5.e-002	-4.9602
12306	12.728	3.7273	0.	-2624.2
12307	12.636	3.8182	0.	-2648.7
12308	12.728	3.8182	5.e-002	-4.9594
12309	12.728	3.5455	0.	-2624.1
12310	12.636	3.6364	0.	-2648.5
12311	12.728	3.6364	5.e-002	-4.9588
12312	12.728	3.3636	0.	-2624.
12313	12.636	3.4545	0.	-2648.4
12314	12.728	3.4545	5.e-002	-4.9582
12315	12.728	3.1818	0.	-2623.9
12316	12.636	3.2727	0.	-2648.3
12317	12.728	3.2727	5.e-002	-4.9577
12318	12.728	3.	0.	-2623.9
12319	12.636	3.0909	0.	-2648.2
12320	12.728	3.0909	5.e-002	-4.9575
12321	12.728	2.8182	0.	-2623.9
12322	12.636	2.9091	0.	-2648.2
12323	12.728	2.9091	5.e-002	-4.9575
12324	12.728	2.6364	0.	-2624.
12325	12.636	2.7273	0.	-2648.3
12326	12.728	2.7273	5.e-002	-4.9577
12327	12.728	2.4545	0.	-2624.1
12328	12.636	2.5455	0.	-2648.4
12329	12.728	2.5455	5.e-002	-4.9581
12330	12.728	2.2727	0.	-2624.2
12331	12.636	2.3636	0.	-2648.5
12332	12.728	2.3636	5.e-002	-4.9587
12333	12.728	2.0909	0.	-2624.4
12334	12.636	2.1818	0.	-2648.7
12335	12.728	2.1818	5.e-002	-4.9594
12336	12.728	1.9091	0.	-2624.6
12337	12.636	2.	0.	-2648.9
12338	12.728	2.	5.e-002	-4.9602
12339	12.728	1.7273	0.	-2624.9
12340	12.636	1.8182	0.	-2649.2
12341	12.728	1.8182	5.e-002	-4.9609
12342	12.728	1.5455	0.	-2625.2
12343	12.636	1.6364	0.	-2649.5
12344	12.728	1.6364	5.e-002	-4.9615
12345	12.728	1.3636	0.	-2625.6
12346	12.636	1.4545	0.	-2649.9
12347	12.728	1.4545	5.e-002	-4.962
12348	12.728	1.1818	0.	-2626.
12349	12.636	1.2727	0.	-2650.3
12350	12.728	1.2727	5.e-002	-4.9621
12351	12.728	1.	0.	-2626.5
12352	12.636	1.0909	0.	-2650.8
12353	12.728	1.0909	5.e-002	-4.9619
12354	12.728	0.81818	0.	-2627.
12355	12.636	0.90909	0.	-2651.3
12356	12.728	0.90909	5.e-002	-4.961
12357	12.728	0.63636	0.	-2627.6
12358	12.636	0.72727	0.	-2651.9
12359	12.728	0.72727	5.e-002	-4.9585
12360	12.728	0.45455	0.	-2628.4
12361	12.636	0.54545	0.	-2652.6
12362	12.728	0.54545	5.e-002	-4.9378
12363	12.728	0.27273	0.	-2629.9
12364	12.636	0.36364	0.	-2653.5
12365	12.728	0.36364	5.e-002	-4.6469
12366	12.636	0.18182	0.	-2655.8
12367	12.728	0.18182	5.e-002	-0.26134
12368	12.728	9.0909e-002	0.	-2626.9
12369	12.544	5.7273	0.	-2679.4
12370	12.451	5.8182	0.	-2705.4
12371	12.544	5.8182	5.e-002	-0.24415
12372	12.544	5.9091	0.	-2676.5
12373	12.544	5.5455	0.	-2677.8
12374	12.451	5.6364	0.	-2703.
12375	12.544	5.6364	5.e-002	-4.6619
12376	12.544	5.3636	0.	-2676.9
12377	12.451	5.4545	0.	-2702.1
12378	12.544	5.4545	5.e-002	-4.9545
12379	12.544	5.1818	0.	-2676.2
12380	12.451	5.2727	0.	-2701.3
12381	12.544	5.2727	5.e-002	-4.9757
12382	12.544	5.	0.	-2675.6
12383	12.451	5.0909	0.	-2700.6
12384	12.544	5.0909	5.e-002	-4.9787
12385	12.544	4.8182	0.	-2675.1
12386	12.451	4.9091	0.	-2700.
12387	12.544	4.9091	5.e-002	-4.98
12388	12.544	4.6364	0.	-2674.6
12389	12.451	4.7273	0.	-2699.4
12390	12.544	4.7273	5.e-002	-4.9807
12391	12.544	4.4545	0.	-2674.1
12392	12.451	4.5455	0.	-2698.9
12393	12.544	4.5455	5.e-002	-4.9811
12394	12.544	4.2727	0.	-2673.8
12395	12.451	4.3636	0.	-2698.5
12396	12.544	4.3636	5.e-002	-4.9813
12397	12.544	4.0909	0.	-2673.4
12398	12.451	4.1818	0.	-2698.1
12399	12.544	4.1818	5.e-002	-4.9812
12400	12.544	3.9091	0.	-2673.2
12401	12.451	4.	0.	-2697.8
12402	12.544	4.	5.e-002	-4.981
12403	12.544	3.7273	0.	-2672.9
12404	12.451	3.8182	0.	-2697.5
12405	12.544	3.8182	5.e-002	-4.9807
12406	12.544	3.5455	0.	-2672.8
12407	12.451	3.6364	0.	-2697.3
12408	12.544	3.6364	5.e-002	-4.9803
12409	12.544	3.3636	0.	-2672.6
12410	12.451	3.4545	0.	-2697.1
12411	12.544	3.4545	5.e-002	-4.9801
12412	12.544	3.1818	0.	-2672.6
12413	12.451	3.2727	0.	-2697.
12414	12.544	3.2727	5.e-002	-4.9799
12415	12.544	3.	0.	-2672.5
12416	12.451	3.0909	0.	-2697.
12417	12.544	3.0909	5.e-002	-4.9798
12418	12.544	2.8182	0.	-2672.6
12419	12.451	2.9091	0.	-2697.
12420	12.544	2.9091	5.e-002	-4.9798
12421	12.544	2.6364	0.	-2672.6
12422	12.451	2.7273	0.	-2697.
12423	12.544	2.7273	5.e-002	-4.9799
12424	12.544	2.4545	0.	-2672.8
12425	12.451	2.5455	0.	-2697.1
12426	12.544	2.5455	5.e-002	-4.9801
12427	12.544	2.2727	0.	-2672.9
12428	12.451	2.3636	0.	-2697.3
12429	12.544	2.3636	5.e-002	-4.9803
12430	12.544	2.0909	0.	-2673.2
12431	12.451	2.1818	0.	-2697.5
12432	12.544	2.1818	5.e-002	-4.9807
12433	12.544	1.9091	0.	-2673.4
12434	12.451	2.	0.	-2697.8
12435	12.544	2.	5.e-002	-4.981
12436	12.544	1.7273	0.	-2673.8
12437	12.451	1.8182	0.	-2698.1
12438	12.544	1.8182	5.e-002	-4.9812
12439	12.544	1.5455	0.	-2674.1
12440	12.451	1.6364	0.	-2698.5
12441	12.544	1.6364	5.e-002	-4.9813
12442	12.544	1.3636	0.	-2674.6
12443	12.451	1.4545	0.	-2698.9
12444	12.544	1.4545	5.e-002	-4.9811
12445	12.544	1.1818	0.	-2675.1
12446	12.451	1.2727	0.	-2699.4
12447	12.544	1.2727	5.e-002	-4.9807
12448	12.544	1.	0.	-2675.6
12449	12.451	1.0909	0.	-2700.
12450	12.544	1.0909	5.e-002	-4.9799
12451	12.544	0.81818	0.	-2676.2
12452	12.451	0.90909	0.	-2700.6
12453	12.544	0.90909	5.e-002	-4.9786
12454	12.544	0.63636	0.	-2676.9
12455	12.451	0.72727	0.	-2701.3
12456	12.544	0.72727	5.e-002	-4.9757
12457	12.544	0.45455	0.	-2677.8
12458	12.451	0.54545	0.	-2702.1
12459	12.544	0.54545	5.e-002	-4.9545
12460	12.544	0.27273	0.	-2679.4
12461	12.451	0.36364	0.	-2703.
12462	12.544	0.36364	5.e-002	-4.6619
12463	12.451	0.18182	0.	-2705.4
12464	12.544	0.18182	5.e-002	-0.24413
12465	12.544	9.0909e-002	0.	-2676.5
12466	12.359	5.7273	0.	-2729.
12467	12.267	5.8182	0.	-2755.2
12468	12.359	5.8182	5.e-002	-0.23204
12469	12.359	5.9091	0.	-2726.3
12470	12.359	5.5455	0.	-2727.3
12471	12.267	5.6364	0.	-2752.7
12472	12.359	5.6364	5.e-002	-4.6783
12473	12.359	5.3636	0.	-2726.4
12474	12.267	5.4545	0.	-2751.7
12475	12.359	5.4545	5.e-002	-4.9723
12476	12.359	5.1818	0.	-2725.6
12477	12.267	5.2727	0.	-2750.8
12478	12.359	5.2727	5.e-002	-4.9938
12479	12.359	5.	0.	-2724.9
12480	12.267	5.0909	0.	-2750.1
12481	12.359	5.0909	5.e-002	-4.9972
12482	12.359	4.8182	0.	-2724.3
12483	12.267	4.9091	0.	-2749.4
12484	12.359	4.9091	5.e-002	-4.9988
12485	12.359	4.6364	0.	-2723.8
12486	12.267	4.7273	0.	-2748.7
12487	12.359	4.7273	5.e-002	-5.0001
12488	12.359	4.4545	0.	-2723.3
12489	12.267	4.5455	0.	-2748.2
12490	12.359	4.5455	5.e-002	-5.0009
12491	12.359	4.2727	0.	-2722.8
12492	12.267	4.3636	0.	-2747.7
12493	12.359	4.3636	5.e-002	-5.0015
12494	12.359	4.0909	0.	-2722.5
12495	12.267	4.1818	0.	-2747.3
12496	12.359	4.1818	5.e-002	-5.0019
12497	12.359	3.9091	0.	-2722.1
12498	12.267	4.	0.	-2746.9
12499	12.359	4.	5.e-002	-5.0021
12500	12.359	3.7273	0.	-2721.9
12501	12.267	3.8182	0.	-2746.6
12502	12.359	3.8182	5.e-002	-5.0021
12503	12.359	3.5455	0.	-2721.7
12504	12.267	3.6364	0.	-2746.3
12505	12.359	3.6364	5.e-002	-5.0022
12506	12.359	3.3636	0.	-2721.5
12507	12.267	3.4545	0.	-2746.1
12508	12.359	3.4545	5.e-002	-5.0021
12509	12.359	3.1818	0.	-2721.4
12510	12.267	3.2727	0.	-2746.
12511	12.359	3.2727	5.e-002	-5.002
12512	12.359	3.	0.	-2721.4
12513	12.267	3.0909	0.	-2746.
12514	12.359	3.0909	5.e-002	-5.002
12515	12.359	2.8182	0.	-2721.4
12516	12.267	2.9091	0.	-2746.
12517	12.359	2.9091	5.e-002	-5.002
12518	12.359	2.6364	0.	-2721.5
12519	12.267	2.7273	0.	-2746.
12520	12.359	2.7273	5.e-002	-5.002
12521	12.359	2.4545	0.	-2721.7
12522	12.267	2.5455	0.	-2746.1
12523	12.359	2.5455	5.e-002	-5.0021
12524	12.359	2.2727	0.	-2721.9
12525	12.267	2.3636	0.	-2746.3
12526	12.359	2.3636	5.e-002	-5.0021
12527	12.359	2.0909	0.	-2722.1
12528	12.267	2.1818	0.	-2746.6
12529	12.359	2.1818	5.e-002	-5.0021
12530	12.359	1.9091	0.	-2722.5
12531	12.267	2.	0.	-2746.9
12532	12.359	2.	5.e-002	-5.0021
12533	12.359	1.7273	0.	-2722.8
12534	12.267	1.8182	0.	-2747.3
12535	12.359	1.8182	5.e-002	-5.0019
12536	12.359	1.5455	0.	-2723.3
12537	12.267	1.6364	0.	-2747.7
12538	12.359	1.6364	5.e-002	-5.0015
12539	12.359	1.3636	0.	-2723.8
12540	12.267	1.4545	0.	-2748.2
12541	12.359	1.4545	5.e-002	-5.0009
12542	12.359	1.1818	0.	-2724.3
12543	12.267	1.2727	0.	-2748.7
12544	12.359	1.2727	5.e-002	-5.
12545	12.359	1.	0.	-2724.9
12546	12.267	1.0909	0.	-2749.4
12547	12.359	1.0909	5.e-002	-4.9988
12548	12.359	0.81818	0.	-2725.6
12549	12.267	0.90909	0.	-2750.1
12550	12.359	0.90909	5.e-002	-4.9971
12551	12.359	0.63636	0.	-2726.4
12552	12.267	0.72727	0.	-2750.8
12553	12.359	0.72727	5.e-002	-4.9938
12554	12.359	0.45455	0.	-2727.3
12555	12.267	0.54545	0.	-2751.7
12556	12.359	0.54545	5.e-002	-4.9723
12557	12.359	0.27273	0.	-2729.
12558	12.267	0.36364	0.	-2752.7
12559	12.359	0.36364	5.e-002	-4.6783
12560	12.267	0.18182	0.	-2755.2
12561	12.359	0.18182	5.e-002	-0.23204
12562	12.359	9.0909e-002	0.	-2726.3
12563	12.175	5.7273	0.	-2778.8
12564	12.083	5.8182	0.	-2805.1
12565	12.175	5.8182	5.e-002	-0.22544
12566	12.175	5.9091	0.	-2776.2
12567	12.175	5.5455	0.	-2777.1
12568	12.083	5.6364	0.	-2802.6
12569	12.175	5.6364	5.e-002	-4.6958
12570	12.175	5.3636	0.	-2776.1
12571	12.083	5.4545	0.	-2801.5
12572	12.175	5.4545	5.e-002	-4.9911
12573	12.175	5.1818	0.	-2775.2
12574	12.083	5.2727	0.	-2800.6
12575	12.175	5.2727	5.e-002	-5.0129
12576	12.175	5.	0.	-2774.5
12577	12.083	5.0909	0.	-2799.7
12578	12.175	5.0909	5.e-002	-5.0165
12579	12.175	4.8182	0.	-2773.8
12580	12.083	4.9091	0.	-2799.
12581	12.175	4.9091	5.e-002	-5.0185
12582	12.175	4.6364	0.	-2773.1
12583	12.083	4.7273	0.	-2798.3
12584	12.175	4.7273	5.e-002	-5.0201
12585	12.175	4.4545	0.	-2772.6
12586	12.083	4.5455	0.	-2797.6
12587	12.175	4.5455	5.e-002	-5.0214
12588	12.175	4.2727	0.	-2772.1
12589	12.083	4.3636	0.	-2797.1
12590	12.175	4.3636	5.e-002	-5.0223
12591	12.175	4.0909	0.	-2771.7
12592	12.083	4.1818	0.	-2796.6
12593	12.175	4.1818	5.e-002	-5.0231
12594	12.175	3.9091	0.	-2771.3
12595	12.083	4.	0.	-2796.2
12596	12.175	4.	5.e-002	-5.0235
12597	12.175	3.7273	0.	-2771.
12598	12.083	3.8182	0.	-2795.8
12599	12.175	3.8182	5.e-002	-5.0239
12600	12.175	3.5455	0.	-2770.8
12601	12.083	3.6364	0.	-2795.6
12602	12.175	3.6364	5.e-002	-5.0242
12603	12.175	3.3636	0.	-2770.6
12604	12.083	3.4545	0.	-2795.4
12605	12.175	3.4545	5.e-002	-5.0243
12606	12.175	3.1818	0.	-2770.5
12607	12.083	3.2727	0.	-2795.2
12608	12.175	3.2727	5.e-002	-5.0244
12609	12.175	3.	0.	-2770.5
12610	12.083	3.0909	0.	-2795.1
12611	12.175	3.0909	5.e-002	-5.0244
12612	12.175	2.8182	0.	-2770.5
12613	12.083	2.9091	0.	-2795.1
12614	12.175	2.9091	5.e-002	-5.0244
12615	12.175	2.6364	0.	-2770.6
12616	12.083	2.7273	0.	-2795.2
12617	12.175	2.7273	5.e-002	-5.0244
12618	12.175	2.4545	0.	-2770.8
12619	12.083	2.5455	0.	-2795.4
12620	12.175	2.5455	5.e-002	-5.0243
12621	12.175	2.2727	0.	-2771.
12622	12.083	2.3636	0.	-2795.6
12623	12.175	2.3636	5.e-002	-5.0242
12624	12.175	2.0909	0.	-2771.3
12625	12.083	2.1818	0.	-2795.8
12626	12.175	2.1818	5.e-002	-5.0239
12627	12.175	1.9091	0.	-2771.7
12628	12.083	2.	0.	-2796.2
12629	12.175	2.	5.e-002	-5.0235
12630	12.175	1.7273	0.	-2772.1
12631	12.083	1.8182	0.	-2796.6
12632	12.175	1.8182	5.e-002	-5.023
12633	12.175	1.5455	0.	-2772.6
12634	12.083	1.6364	0.	-2797.1
12635	12.175	1.6364	5.e-002	-5.0223
12636	12.175	1.3636	0.	-2773.1
12637	12.083	1.4545	0.	-2797.6
12638	12.175	1.4545	5.e-002	-5.0213
12639	12.175	1.1818	0.	-2773.8
12640	12.083	1.2727	0.	-2798.3
12641	12.175	1.2727	5.e-002	-5.0201
12642	12.175	1.	0.	-2774.5
12643	12.083	1.0909	0.	-2799.
12644	12.175	1.0909	5.e-002	-5.0185
12645	12.175	0.81818	0.	-2775.2
12646	12.083	0.90909	0.	-2799.7
12647	12.175	0.90909	5.e-002	-5.0165
12648	12.175	0.63636	0.	-2776.1
12649	12.083	0.72727	0.	-2800.6
12650	12.175	0.72727	5.e-002	-5.0129
12651	12.175	0.45455	0.	-2777.1
12652	12.083	0.54545	0.	-2801.5
12653	12.175	0.54545	5.e-002	-4.991
12654	12.175	0.27273	0.	-2778.8
12655	12.083	0.36364	0.	-2802.6
12656	12.175	0.36364	5.e-002	-4.6958
12657	12.083	0.18182	0.	-2805.1
12658	12.175	0.18182	5.e-002	-0.22541
12659	12.175	9.0909e-002	0.	-2776.2
12660	11.99	5.7273	0.	-2828.8
12661	11.898	5.8182	0.	-2855.2
12662	11.99	5.8182	5.e-002	-0.22464
12663	11.99	5.9091	0.	-2826.3
12664	11.99	5.5455	0.	-2827.
12665	11.898	5.6364	0.	-2852.7
12666	11.99	5.6364	5.e-002	-4.7144
12667	11.99	5.3636	0.	-2826.
12668	11.898	5.4545	0.	-2851.5
12669	11.99	5.4545	5.e-002	-5.0107
12670	11.99	5.1818	0.	-2825.
12671	11.898	5.2727	0.	-2850.5
12672	11.99	5.2727	5.e-002	-5.0328
12673	11.99	5.	0.	-2824.2
12674	11.898	5.0909	0.	-2849.6
12675	11.99	5.0909	5.e-002	-5.0366
12676	11.99	4.8182	0.	-2823.4
12677	11.898	4.9091	0.	-2848.7
12678	11.99	4.9091	5.e-002	-5.039
12679	11.99	4.6364	0.	-2822.7
12680	11.898	4.7273	0.	-2848.
12681	11.99	4.7273	5.e-002	-5.0409
12682	11.99	4.4545	0.	-2822.1
12683	11.898	4.5455	0.	-2847.3
12684	11.99	4.5455	5.e-002	-5.0424
12685	11.99	4.2727	0.	-2821.6
12686	11.898	4.3636	0.	-2846.7
12687	11.99	4.3636	5.e-002	-5.0437
12688	11.99	4.0909	0.	-2821.1
12689	11.898	4.1818	0.	-2846.1
12690	11.99	4.1818	5.e-002	-5.0447
12691	11.99	3.9091	0.	-2820.7
12692	11.898	4.	0.	-2845.7
12693	11.99	4.	5.e-002	-5.0455
12694	11.99	3.7273	0.	-2820.4
12695	11.898	3.8182	0.	-2845.3
12696	11.99	3.8182	5.e-002	-5.0461
12697	11.99	3.5455	0.	-2820.1
12698	11.898	3.6364	0.	-2845.
12699	11.99	3.6364	5.e-002	-5.0465
12700	11.99	3.3636	0.	-2819.9
12701	11.898	3.4545	0.	-2844.8
12702	11.99	3.4545	5.e-002	-5.0469
12703	11.99	3.1818	0.	-2819.8
12704	11.898	3.2727	0.	-2844.6
12705	11.99	3.2727	5.e-002	-5.0471
12706	11.99	3.	0.	-2819.8
12707	11.898	3.0909	0.	-2844.5
12708	11.99	3.0909	5.e-002	-5.0471
12709	11.99	2.8182	0.	-2819.8
12710	11.898	2.9091	0.	-2844.5
12711	11.99	2.9091	5.e-002	-5.0471
12712	11.99	2.6364	0.	-2819.9
12713	11.898	2.7273	0.	-2844.6
12714	11.99	2.7273	5.e-002	-5.047
12715	11.99	2.4545	0.	-2820.1
12716	11.898	2.5455	0.	-2844.8
12717	11.99	2.5455	5.e-002	-5.0469
12718	11.99	2.2727	0.	-2820.4
12719	11.898	2.3636	0.	-2845.
12720	11.99	2.3636	5.e-002	-5.0465
12721	11.99	2.0909	0.	-2820.7
12722	11.898	2.1818	0.	-2845.3
12723	11.99	2.1818	5.e-002	-5.0461
12724	11.99	1.9091	0.	-2821.1
12725	11.898	2.	0.	-2845.7
12726	11.99	2.	5.e-002	-5.0455
12727	11.99	1.7273	0.	-2821.6
12728	11.898	1.8182	0.	-2846.1
12729	11.99	1.8182	5.e-002	-5.0447
12730	11.99	1.5455	0.	-2822.1
12731	11.898	1.6364	0.	-2846.7
12732	11.99	1.6364	5.e-002	-5.0437
12733	11.99	1.3636	0.	-2822.7
12734	11.898	1.4545	0.	-2847.3
12735	11.99	1.4545	5.e-002	-5.0424
12736	11.99	1.1818	0.	-2823.4
12737	11.898	1.2727	0.	-2848.
12738	11.99	1.2727	5.e-002	-5.0408
12739	11.99	1.	0.	-2824.2
12740	11.898	1.0909	0.	-2848.7
12741	11.99	1.0909	5.e-002	-5.039
12742	11.99	0.81818	0.	-2825.
12743	11.898	0.90909	0.	-2849.6
12744	11.99	0.90909	5.e-002	-5.0366
12745	11.99	0.63636	0.	-2826.
12746	11.898	0.72727	0.	-2850.5
12747	11.99	0.72727	5.e-002	-5.0328
12748	11.99	0.45455	0.	-2827.
12749	11.898	0.54545	0.	-2851.5
12750	11.99	0.54545	5.e-002	-5.0106
12751	11.99	0.27273	0.	-2828.8
12752	11.898	0.36364	0.	-2852.7
12753	11.99	0.36364	5.e-002	-4.7144
12754	11.898	0.18182	0.	-2855.2
12755	11.99	0.18182	5.e-002	-0.22463
12756	11.99	9.0909e-002	0.	-2826.3
12757	11.806	5.7273	0.	-2879.
12758	11.714	5.8182	0.	-2905.6
12759	11.806	5.8182	5.e-002	-0.23004
12760	11.806	5.9091	0.	-2876.6
12761	11.806	5.5455	0.	-2877.1
12762	11.714	5.6364	0.	-2902.9
12763	11.806	5.6364	5.e-002	-4.7341
12764	11.806	5.3636	0.	-2876.
12765	11.714	5.4545	0.	-2901.7
12766	11.806	5.4545	5.e-002	-5.0311
12767	11.806	5.1818	0.	-2875.
12768	11.714	5.2727	0.	-2900.6
12769	11.806	5.2727	5.e-002	-5.0535
12770	11.806	5.	0.	-2874.1
12771	11.714	5.0909	0.	-2899.6
12772	11.806	5.0909	5.e-002	-5.0576
12773	11.806	4.8182	0.	-2873.3
12774	11.714	4.9091	0.	-2898.7
12775	11.806	4.9091	5.e-002	-5.0601
12776	11.806	4.6364	0.	-2872.5
12777	11.714	4.7273	0.	-2897.9
12778	11.806	4.7273	5.e-002	-5.0623
12779	11.806	4.4545	0.	-2871.8
12780	11.714	4.5455	0.	-2897.1
12781	11.806	4.5455	5.e-002	-5.0641
12782	11.806	4.2727	0.	-2871.2
12783	11.714	4.3636	0.	-2896.5
12784	11.806	4.3636	5.e-002	-5.0656
12785	11.806	4.0909	0.	-2870.7
12786	11.714	4.1818	0.	-2895.9
12787	11.806	4.1818	5.e-002	-5.0669
12788	11.806	3.9091	0.	-2870.3
12789	11.714	4.	0.	-2895.4
12790	11.806	4.	5.e-002	-5.0679
12791	11.806	3.7273	0.	-2869.9
12792	11.714	3.8182	0.	-2894.9
12793	11.806	3.8182	5.e-002	-5.0687
12794	11.806	3.5455	0.	-2869.6
12795	11.714	3.6364	0.	-2894.6
12796	11.806	3.6364	5.e-002	-5.0693
12797	11.806	3.3636	0.	-2869.4
12798	11.714	3.4545	0.	-2894.4
12799	11.806	3.4545	5.e-002	-5.0697
12800	11.806	3.1818	0.	-2869.3
12801	11.714	3.2727	0.	-2894.2
12802	11.806	3.2727	5.e-002	-5.07
12803	11.806	3.	0.	-2869.3
12804	11.714	3.0909	0.	-2894.1
12805	11.806	3.0909	5.e-002	-5.0702
12806	11.806	2.8182	0.	-2869.3
12807	11.714	2.9091	0.	-2894.1
12808	11.806	2.9091	5.e-002	-5.0702
12809	11.806	2.6364	0.	-2869.4
12810	11.714	2.7273	0.	-2894.2
12811	11.806	2.7273	5.e-002	-5.07
12812	11.806	2.4545	0.	-2869.6
12813	11.714	2.5455	0.	-2894.4
12814	11.806	2.5455	5.e-002	-5.0697
12815	11.806	2.2727	0.	-2869.9
12816	11.714	2.3636	0.	-2894.6
12817	11.806	2.3636	5.e-002	-5.0693
12818	11.806	2.0909	0.	-2870.3
12819	11.714	2.1818	0.	-2894.9
12820	11.806	2.1818	5.e-002	-5.0687
12821	11.806	1.9091	0.	-2870.7
12822	11.714	2.	0.	-2895.4
12823	11.806	2.	5.e-002	-5.0679
12824	11.806	1.7273	0.	-2871.2
12825	11.714	1.8182	0.	-2895.9
12826	11.806	1.8182	5.e-002	-5.0669
12827	11.806	1.5455	0.	-2871.8
12828	11.714	1.6364	0.	-2896.5
12829	11.806	1.6364	5.e-002	-5.0656
12830	11.806	1.3636	0.	-2872.5
12831	11.714	1.4545	0.	-2897.1
12832	11.806	1.4545	5.e-002	-5.0641
12833	11.806	1.1818	0.	-2873.3
12834	11.714	1.2727	0.	-2897.9
12835	11.806	1.2727	5.e-002	-5.0623
12836	11.806	1.	0.	-2874.1
12837	11.714	1.0909	0.	-2898.7
12838	11.806	1.0909	5.e-002	-5.0601
12839	11.806	0.81818	0.	-2875.
12840	11.714	0.90909	0.	-2899.6
12841	11.806	0.90909	5.e-002	-5.0575
12842	11.806	0.63636	0.	-2876.
12843	11.714	0.72727	0.	-2900.6
12844	11.806	0.72727	5.e-002	-5.0535
12845	11.806	0.45455	0.	-2877.1
12846	11.714	0.54545	0.	-2901.7
12847	11.806	0.54545	5.e-002	-5.031
12848	11.806	0.27273	0.	-2879.
12849	11.714	0.36364	0.	-2902.9
12850	11.806	0.36364	5.e-002	-4.7341
12851	11.714	0.18182	0.	-2905.6
12852	11.806	0.18182	5.e-002	-0.23001
12853	11.806	9.0909e-002	0.	-2876.6
12854	11.621	5.7273	0.	-2929.4
12855	11.529	5.8182	0.	-2956.1
12856	11.621	5.8182	5.e-002	-0.24173
12857	11.621	5.9091	0.	-2927.1
12858	11.621	5.5455	0.	-2927.5
12859	11.529	5.6364	0.	-2953.4
12860	11.621	5.6364	5.e-002	-4.7547
12861	11.621	5.3636	0.	-2926.3
12862	11.529	5.4545	0.	-2952.1
12863	11.621	5.4545	5.e-002	-5.0522
12864	11.621	5.1818	0.	-2925.2
12865	11.529	5.2727	0.	-2950.9
12866	11.621	5.2727	5.e-002	-5.0748
12867	11.621	5.	0.	-2924.2
12868	11.529	5.0909	0.	-2949.8
12869	11.621	5.0909	5.e-002	-5.0792
12870	11.621	4.8182	0.	-2923.3
12871	11.529	4.9091	0.	-2948.9
12872	11.621	4.9091	5.e-002	-5.082
12873	11.621	4.6364	0.	-2922.5
12874	11.529	4.7273	0.	-2948.
12875	11.621	4.7273	5.e-002	-5.0843
12876	11.621	4.4545	0.	-2921.7
12877	11.529	4.5455	0.	-2947.2
12878	11.621	4.5455	5.e-002	-5.0864
12879	11.621	4.2727	0.	-2921.1
12880	11.529	4.3636	0.	-2946.4
12881	11.621	4.3636	5.e-002	-5.0881
12882	11.621	4.0909	0.	-2920.5
12883	11.529	4.1818	0.	-2945.8
12884	11.621	4.1818	5.e-002	-5.0896
12885	11.621	3.9091	0.	-2920.
12886	11.529	4.	0.	-2945.2
12887	11.621	4.	5.e-002	-5.0908
12888	11.621	3.7273	0.	-2919.6
12889	11.529	3.8182	0.	-2944.8
12890	11.621	3.8182	5.e-002	-5.0918
12891	11.621	3.5455	0.	-2919.3
12892	11.529	3.6364	0.	-2944.4
12893	11.621	3.6364	5.e-002	-5.0925
12894	11.621	3.3636	0.	-2919.1
12895	11.529	3.4545	0.	-2944.1
12896	11.621	3.4545	5.e-002	-5.0931
12897	11.621	3.1818	0.	-2919.
12898	11.529	3.2727	0.	-2944.
12899	11.621	3.2727	5.e-002	-5.0934
12900	11.621	3.	0.	-2918.9
12901	11.529	3.0909	0.	-2943.9
12902	11.621	3.0909	5.e-002	-5.0936
12903	11.621	2.8182	0.	-2919.
12904	11.529	2.9091	0.	-2943.9
12905	11.621	2.9091	5.e-002	-5.0936
12906	11.621	2.6364	0.	-2919.1
12907	11.529	2.7273	0.	-2944.
12908	11.621	2.7273	5.e-002	-5.0934
12909	11.621	2.4545	0.	-2919.3
12910	11.529	2.5455	0.	-2944.1
12911	11.621	2.5455	5.e-002	-5.0931
12912	11.621	2.2727	0.	-2919.6
12913	11.529	2.3636	0.	-2944.4
12914	11.621	2.3636	5.e-002	-5.0925
12915	11.621	2.0909	0.	-2920.
12916	11.529	2.1818	0.	-2944.8
12917	11.621	2.1818	5.e-002	-5.0918
12918	11.621	1.9091	0.	-2920.5
12919	11.529	2.	0.	-2945.2
12920	11.621	2.	5.e-002	-5.0908
12921	11.621	1.7273	0.	-2921.1
12922	11.529	1.8182	0.	-2945.8
12923	11.621	1.8182	5.e-002	-5.0896
12924	11.621	1.5455	0.	-2921.7
12925	11.529	1.6364	0.	-2946.4
12926	11.621	1.6364	5.e-002	-5.0881
12927	11.621	1.3636	0.	-2922.5
12928	11.529	1.4545	0.	-2947.2
12929	11.621	1.4545	5.e-002	-5.0864
12930	11.621	1.1818	0.	-2923.3
12931	11.529	1.2727	0.	-2948.
12932	11.621	1.2727	5.e-002	-5.0843
12933	11.621	1.	0.	-2924.2
12934	11.529	1.0909	0.	-2948.9
12935	11.621	1.0909	5.e-002	-5.0819
12936	11.621	0.81818	0.	-2925.2
12937	11.529	0.90909	0.	-2949.8
12938	11.621	0.90909	5.e-002	-5.0791
12939	11.621	0.63636	0.	-2926.3
12940	11.529	0.72727	0.	-2950.9
12941	11.621	0.72727	5.e-002	-5.0748
12942	11.621	0.45455	0.	-2927.5
12943	11.529	0.54545	0.	-2952.1
12944	11.621	0.54545	5.e-002	-5.0522
12945	11.621	0.27273	0.	-2929.4
12946	11.529	0.36364	0.	-2953.4
12947	11.621	0.36364	5.e-002	-4.7546
12948	11.529	0.18182	0.	-2956.1
12949	11.621	0.18182	5.e-002	-0.2417
12950	11.621	9.0909e-002	0.	-2927.1
12951	11.437	5.7273	0.	-2980.
12952	11.345	5.8182	0.	-3006.8
12953	11.437	5.8182	5.e-002	-0.25971
12954	11.437	5.9091	0.	-2977.8
12955	11.437	5.5455	0.	-2978.
12956	11.345	5.6364	0.	-3004.
12957	11.437	5.6364	5.e-002	-4.7762
12958	11.437	5.3636	0.	-2976.7
12959	11.345	5.4545	0.	-3002.7
12960	11.437	5.4545	5.e-002	-5.0741
12961	11.437	5.1818	0.	-2975.5
12962	11.345	5.2727	0.	-3001.4
12963	11.437	5.2727	5.e-002	-5.0969
12964	11.437	5.	0.	-2974.5
12965	11.345	5.0909	0.	-3000.3
12966	11.437	5.0909	5.e-002	-5.1015
12967	11.437	4.8182	0.	-2973.5
12968	11.345	4.9091	0.	-2999.2
12969	11.437	4.9091	5.e-002	-5.1045
12970	11.437	4.6364	0.	-2972.6
12971	11.345	4.7273	0.	-2998.3
12972	11.437	4.7273	5.e-002	-5.107
12973	11.437	4.4545	0.	-2971.8
12974	11.345	4.5455	0.	-2997.4
12975	11.437	4.5455	5.e-002	-5.1093
12976	11.437	4.2727	0.	-2971.1
12977	11.345	4.3636	0.	-2996.6
12978	11.437	4.3636	5.e-002	-5.1113
12979	11.437	4.0909	0.	-2970.5
12980	11.345	4.1818	0.	-2995.9
12981	11.437	4.1818	5.e-002	-5.1129
12982	11.437	3.9091	0.	-2970.
12983	11.345	4.	0.	-2995.3
12984	11.437	4.	5.e-002	-5.1143
12985	11.437	3.7273	0.	-2969.6
12986	11.345	3.8182	0.	-2994.8
12987	11.437	3.8182	5.e-002	-5.1154
12988	11.437	3.5455	0.	-2969.2
12989	11.345	3.6364	0.	-2994.4
12990	11.437	3.6364	5.e-002	-5.1163
12991	11.437	3.3636	0.	-2969.
12992	11.345	3.4545	0.	-2994.1
12993	11.437	3.4545	5.e-002	-5.1169
12994	11.437	3.1818	0.	-2968.8
12995	11.345	3.2727	0.	-2993.9
12996	11.437	3.2727	5.e-002	-5.1173
12997	11.437	3.	0.	-2968.8
12998	11.345	3.0909	0.	-2993.8
12999	11.437	3.0909	5.e-002	-5.1175
13000	11.437	2.8182	0.	-2968.8
13001	11.345	2.9091	0.	-2993.8
13002	11.437	2.9091	5.e-002	-5.1175
13003	11.437	2.6364	0.	-2969.
13004	11.345	2.7273	0.	-2993.9
13005	11.437	2.7273	5.e-002	-5.1173
13006	11.437	2.4545	0.	-2969.2
13007	11.345	2.5455	0.	-2994.1
13008	11.437	2.5455	5.e-002	-5.1169
13009	11.437	2.2727	0.	-2969.6
13010	11.345	2.3636	0.	-2994.4
13011	11.437	2.3636	5.e-002	-5.1163
13012	11.437	2.0909	0.	-2970.
13013	11.345	2.1818	0.	-2994.8
13014	11.437	2.1818	5.e-002	-5.1154
13015	11.437	1.9091	0.	-2970.5
13016	11.345	2.	0.	-2995.3
13017	11.437	2.	5.e-002	-5.1143
13018	11.437	1.7273	0.	-2971.1
13019	11.345	1.8182	0.	-2995.9
13020	11.437	1.8182	5.e-002	-5.1129
13021	11.437	1.5455	0.	-2971.8
13022	11.345	1.6364	0.	-2996.6
13023	11.437	1.6364	5.e-002	-5.1112
13024	11.437	1.3636	0.	-2972.6
13025	11.345	1.4545	0.	-2997.4
13026	11.437	1.4545	5.e-002	-5.1093
13027	11.437	1.1818	0.	-2973.5
13028	11.345	1.2727	0.	-2998.3
13029	11.437	1.2727	5.e-002	-5.107
13030	11.437	1.	0.	-2974.5
13031	11.345	1.0909	0.	-2999.2
13032	11.437	1.0909	5.e-002	-5.1045
13033	11.437	0.81818	0.	-2975.5
13034	11.345	0.90909	0.	-3000.3
13035	11.437	0.90909	5.e-002	-5.1014
13036	11.437	0.63636	0.	-2976.7
13037	11.345	0.72727	0.	-3001.4
13038	11.437	0.72727	5.e-002	-5.0969
13039	11.437	0.45455	0.	-2978.
13040	11.345	0.54545	0.	-3002.7
13041	11.437	0.54545	5.e-002	-5.0741
13042	11.437	0.27273	0.	-2980.
13043	11.345	0.36364	0.	-3004.
13044	11.437	0.36364	5.e-002	-4.7762
13045	11.345	0.18182	0.	-3006.8
13046	11.437	0.18182	5.e-002	-0.25967
13047	11.437	9.0909e-002	0.	-2977.8
13048	11.252	5.7273	0.	-3030.7
13049	11.16	5.8182	0.	-3057.7
13050	11.252	5.8182	5.e-002	-0.28375
13051	11.252	5.9091	0.	-3028.7
13052	11.252	5.5455	0.	-3028.7
13053	11.16	5.6364	0.	-3054.9
13054	11.252	5.6364	5.e-002	-4.7986
13055	11.252	5.3636	0.	-3027.3
13056	11.16	5.4545	0.	-3053.4
13057	11.252	5.4545	5.e-002	-5.0966
13058	11.252	5.1818	0.	-3026.1
13059	11.16	5.2727	0.	-3052.1
13060	11.252	5.2727	5.e-002	-5.1197
13061	11.252	5.	0.	-3025.
13062	11.16	5.0909	0.	-3050.9
13063	11.252	5.0909	5.e-002	-5.1244
13064	11.252	4.8182	0.	-3023.9
13065	11.16	4.9091	0.	-3049.8
13066	11.252	4.9091	5.e-002	-5.1276
13067	11.252	4.6364	0.	-3023.
13068	11.16	4.7273	0.	-3048.7
13069	11.252	4.7273	5.e-002	-5.1304
13070	11.252	4.4545	0.	-3022.1
13071	11.16	4.5455	0.	-3047.8
13072	11.252	4.5455	5.e-002	-5.1329
13073	11.252	4.2727	0.	-3021.4
13074	11.16	4.3636	0.	-3047.
13075	11.252	4.3636	5.e-002	-5.135
13076	11.252	4.0909	0.	-3020.7
13077	11.16	4.1818	0.	-3046.2
13078	11.252	4.1818	5.e-002	-5.1368
13079	11.252	3.9091	0.	-3020.1
13080	11.16	4.	0.	-3045.6
13081	11.252	4.	5.e-002	-5.1383
13082	11.252	3.7273	0.	-3019.7
13083	11.16	3.8182	0.	-3045.
13084	11.252	3.8182	5.e-002	-5.1396
13085	11.252	3.5455	0.	-3019.3
13086	11.16	3.6364	0.	-3044.6
13087	11.252	3.6364	5.e-002	-5.1405
13088	11.252	3.3636	0.	-3019.1
13089	11.16	3.4545	0.	-3044.3
13090	11.252	3.4545	5.e-002	-5.1412
13091	11.252	3.1818	0.	-3018.9
13092	11.16	3.2727	0.	-3044.1
13093	11.252	3.2727	5.e-002	-5.1417
13094	11.252	3.	0.	-3018.8
13095	11.16	3.0909	0.	-3044.
13096	11.252	3.0909	5.e-002	-5.1419
13097	11.252	2.8182	0.	-3018.9
13098	11.16	2.9091	0.	-3044.
13099	11.252	2.9091	5.e-002	-5.1419
13100	11.252	2.6364	0.	-3019.1
13101	11.16	2.7273	0.	-3044.1
13102	11.252	2.7273	5.e-002	-5.1417
13103	11.252	2.4545	0.	-3019.3
13104	11.16	2.5455	0.	-3044.3
13105	11.252	2.5455	5.e-002	-5.1412
13106	11.252	2.2727	0.	-3019.7
13107	11.16	2.3636	0.	-3044.6
13108	11.252	2.3636	5.e-002	-5.1405
13109	11.252	2.0909	0.	-3020.1
13110	11.16	2.1818	0.	-3045.
13111	11.252	2.1818	5.e-002	-5.1396
13112	11.252	1.9091	0.	-3020.7
13113	11.16	2.	0.	-3045.6
13114	11.252	2.	5.e-002	-5.1383
13115	11.252	1.7273	0.	-3021.4
13116	11.16	1.8182	0.	-3046.2
13117	11.252	1.8182	5.e-002	-5.1368
13118	11.252	1.5455	0.	-3022.1
13119	11.16	1.6364	0.	-3047.
13120	11.252	1.6364	5.e-002	-5.135
13121	11.252	1.3636	0.	-3023.
13122	11.16	1.4545	0.	-3047.8
13123	11.252	1.4545	5.e-002	-5.1329
13124	11.252	1.1818	0.	-3023.9
13125	11.16	1.2727	0.	-3048.7
13126	11.252	1.2727	5.e-002	-5.1304
13127	11.252	1.	0.	-3025.
13128	11.16	1.0909	0.	-3049.8
13129	11.252	1.0909	5.e-002	-5.1276
13130	11.252	0.81818	0.	-3026.1
13131	11.16	0.90909	0.	-3050.9
13132	11.252	0.90909	5.e-002	-5.1244
13133	11.252	0.63636	0.	-3027.3
13134	11.16	0.72727	0.	-3052.1
13135	11.252	0.72727	5.e-002	-5.1197
13136	11.252	0.45455	0.	-3028.7
13137	11.16	0.54545	0.	-3053.4
13138	11.252	0.54545	5.e-002	-5.0966
13139	11.252	0.27273	0.	-3030.7
13140	11.16	0.36364	0.	-3054.9
13141	11.252	0.36364	5.e-002	-4.7986
13142	11.16	0.18182	0.	-3057.7
13143	11.252	0.18182	5.e-002	-0.28372
13144	11.252	9.0909e-002	0.	-3028.7
13145	11.068	5.7273	0.	-3081.7
13146	10.976	5.8182	0.	-3108.8
13147	11.068	5.8182	5.e-002	-0.31377
13148	11.068	5.9091	0.	-3079.8
13149	11.068	5.5455	0.	-3079.6
13150	10.976	5.6364	0.	-3106.
13151	11.068	5.6364	5.e-002	-4.8219
13152	11.068	5.3636	0.	-3078.2
13153	10.976	5.4545	0.	-3104.4
13154	11.068	5.4545	5.e-002	-5.1199
13155	11.068	5.1818	0.	-3076.9
13156	10.976	5.2727	0.	-3103.
13157	11.068	5.2727	5.e-002	-5.1432
13158	11.068	5.	0.	-3075.7
13159	10.976	5.0909	0.	-3101.7
13160	11.068	5.0909	5.e-002	-5.1481
13161	11.068	4.8182	0.	-3074.6
13162	10.976	4.9091	0.	-3100.5
13163	11.068	4.9091	5.e-002	-5.1515
13164	11.068	4.6364	0.	-3073.5
13165	10.976	4.7273	0.	-3099.4
13166	11.068	4.7273	5.e-002	-5.1545
13167	11.068	4.4545	0.	-3072.6
13168	10.976	4.5455	0.	-3098.4
13169	11.068	4.5455	5.e-002	-5.1571
13170	11.068	4.2727	0.	-3071.8
13171	10.976	4.3636	0.	-3097.5
13172	11.068	4.3636	5.e-002	-5.1594
13173	11.068	4.0909	0.	-3071.1
13174	10.976	4.1818	0.	-3096.7
13175	11.068	4.1818	5.e-002	-5.1614
13176	11.068	3.9091	0.	-3070.5
13177	10.976	4.	0.	-3096.
13178	11.068	4.	5.e-002	-5.163
13179	11.068	3.7273	0.	-3070.
13180	10.976	3.8182	0.	-3095.5
13181	11.068	3.8182	5.e-002	-5.1644
13182	11.068	3.5455	0.	-3069.6
13183	10.976	3.6364	0.	-3095.
13184	11.068	3.6364	5.e-002	-5.1654
13185	11.068	3.3636	0.	-3069.3
13186	10.976	3.4545	0.	-3094.6
13187	11.068	3.4545	5.e-002	-5.1662
13188	11.068	3.1818	0.	-3069.1
13189	10.976	3.2727	0.	-3094.4
13190	11.068	3.2727	5.e-002	-5.1667
13191	11.068	3.	0.	-3069.1
13192	10.976	3.0909	0.	-3094.3
13193	11.068	3.0909	5.e-002	-5.167
13194	11.068	2.8182	0.	-3069.1
13195	10.976	2.9091	0.	-3094.3
13196	11.068	2.9091	5.e-002	-5.167
13197	11.068	2.6364	0.	-3069.3
13198	10.976	2.7273	0.	-3094.4
13199	11.068	2.7273	5.e-002	-5.1667
13200	11.068	2.4545	0.	-3069.6
13201	10.976	2.5455	0.	-3094.6
13202	11.068	2.5455	5.e-002	-5.1662
13203	11.068	2.2727	0.	-3070.
13204	10.976	2.3636	0.	-3095.
13205	11.068	2.3636	5.e-002	-5.1654
13206	11.068	2.0909	0.	-3070.5
13207	10.976	2.1818	0.	-3095.5
13208	11.068	2.1818	5.e-002	-5.1644
13209	11.068	1.9091	0.	-3071.1
13210	10.976	2.	0.	-3096.
13211	11.068	2.	5.e-002	-5.163
13212	11.068	1.7273	0.	-3071.8
13213	10.976	1.8182	0.	-3096.7
13214	11.068	1.8182	5.e-002	-5.1614
13215	11.068	1.5455	0.	-3072.6
13216	10.976	1.6364	0.	-3097.5
13217	11.068	1.6364	5.e-002	-5.1594
13218	11.068	1.3636	0.	-3073.5
13219	10.976	1.4545	0.	-3098.4
13220	11.068	1.4545	5.e-002	-5.1571
13221	11.068	1.1818	0.	-3074.6
13222	10.976	1.2727	0.	-3099.4
13223	11.068	1.2727	5.e-002	-5.1545
13224	11.068	1.	0.	-3075.7
13225	10.976	1.0909	0.	-3100.5
13226	11.068	1.0909	5.e-002	-5.1515
13227	11.068	0.81818	0.	-3076.9
13228	10.976	0.90909	0.	-3101.7
13229	11.068	0.90909	5.e-002	-5.1481
13230	11.068	0.63636	0.	-3078.2
13231	10.976	0.72727	0.	-3103.
13232	11.068	0.72727	5.e-002	-5.1431
13233	11.068	0.45455	0.	-3079.6
13234	10.976	0.54545	0.	-3104.4
13235	11.068	0.54545	5.e-002	-5.1199
13236	11.068	0.27273	0.	-3081.7
13237	10.976	0.36364	0.	-3106.
13238	11.068	0.36364	5.e-002	-4.8219
13239	10.976	0.18182	0.	-3108.8
13240	11.068	0.18182	5.e-002	-0.31374
13241	11.068	9.0909e-002	0.	-3079.8
13242	10.883	5.7273	0.	-3132.9
13243	10.791	5.8182	0.	-3160.1
13244	10.883	5.8182	5.e-002	-0.34957
13245	10.883	5.9091	0.	-3131.2
13246	10.883	5.5455	0.	-3130.7
13247	10.791	5.6364	0.	-3157.2
13248	10.883	5.6364	5.e-002	-4.8463
13249	10.883	5.3636	0.	-3129.2
13250	10.791	5.4545	0.	-3155.6
13251	10.883	5.4545	5.e-002	-5.144
13252	10.883	5.1818	0.	-3127.8
13253	10.791	5.2727	0.	-3154.1
13254	10.883	5.2727	5.e-002	-5.1674
13255	10.883	5.	0.	-3126.6
13256	10.791	5.0909	0.	-3152.8
13257	10.883	5.0909	5.e-002	-5.1725
13258	10.883	4.8182	0.	-3125.4
13259	10.791	4.9091	0.	-3151.5
13260	10.883	4.9091	5.e-002	-5.1762
13261	10.883	4.6364	0.	-3124.3
13262	10.791	4.7273	0.	-3150.3
13263	10.883	4.7273	5.e-002	-5.1793
13264	10.883	4.4545	0.	-3123.3
13265	10.791	4.5455	0.	-3149.2
13266	10.883	4.5455	5.e-002	-5.1821
13267	10.883	4.2727	0.	-3122.4
13268	10.791	4.3636	0.	-3148.3
13269	10.883	4.3636	5.e-002	-5.1846
13270	10.883	4.0909	0.	-3121.7
13271	10.791	4.1818	0.	-3147.4
13272	10.883	4.1818	5.e-002	-5.1867
13273	10.883	3.9091	0.	-3121.
13274	10.791	4.	0.	-3146.7
13275	10.883	4.	5.e-002	-5.1884
13276	10.883	3.7273	0.	-3120.5
13277	10.791	3.8182	0.	-3146.1
13278	10.883	3.8182	5.e-002	-5.1899
13279	10.883	3.5455	0.	-3120.
13280	10.791	3.6364	0.	-3145.6
13281	10.883	3.6364	5.e-002	-5.191
13282	10.883	3.3636	0.	-3119.7
13283	10.791	3.4545	0.	-3145.2
13284	10.883	3.4545	5.e-002	-5.1919
13285	10.883	3.1818	0.	-3119.6
13286	10.791	3.2727	0.	-3144.9
13287	10.883	3.2727	5.e-002	-5.1924
13288	10.883	3.	0.	-3119.5
13289	10.791	3.0909	0.	-3144.8
13290	10.883	3.0909	5.e-002	-5.1927
13291	10.883	2.8182	0.	-3119.6
13292	10.791	2.9091	0.	-3144.8
13293	10.883	2.9091	5.e-002	-5.1927
13294	10.883	2.6364	0.	-3119.7
13295	10.791	2.7273	0.	-3144.9
13296	10.883	2.7273	5.e-002	-5.1924
13297	10.883	2.4545	0.	-3120.
13298	10.791	2.5455	0.	-3145.2
13299	10.883	2.5455	5.e-002	-5.1919
13300	10.883	2.2727	0.	-3120.5
13301	10.791	2.3636	0.	-3145.6
13302	10.883	2.3636	5.e-002	-5.191
13303	10.883	2.0909	0.	-3121.
13304	10.791	2.1818	0.	-3146.1
13305	10.883	2.1818	5.e-002	-5.1899
13306	10.883	1.9091	0.	-3121.7
13307	10.791	2.	0.	-3146.7
13308	10.883	2.	5.e-002	-5.1884
13309	10.883	1.7273	0.	-3122.4
13310	10.791	1.8182	0.	-3147.4
13311	10.883	1.8182	5.e-002	-5.1867
13312	10.883	1.5455	0.	-3123.3
13313	10.791	1.6364	0.	-3148.3
13314	10.883	1.6364	5.e-002	-5.1846
13315	10.883	1.3636	0.	-3124.3
13316	10.791	1.4545	0.	-3149.2
13317	10.883	1.4545	5.e-002	-5.1821
13318	10.883	1.1818	0.	-3125.4
13319	10.791	1.2727	0.	-3150.3
13320	10.883	1.2727	5.e-002	-5.1793
13321	10.883	1.	0.	-3126.6
13322	10.791	1.0909	0.	-3151.5
13323	10.883	1.0909	5.e-002	-5.1762
13324	10.883	0.81818	0.	-3127.8
13325	10.791	0.90909	0.	-3152.8
13326	10.883	0.90909	5.e-002	-5.1725
13327	10.883	0.63636	0.	-3129.2
13328	10.791	0.72727	0.	-3154.1
13329	10.883	0.72727	5.e-002	-5.1674
13330	10.883	0.45455	0.	-3130.7
13331	10.791	0.54545	0.	-3155.6
13332	10.883	0.54545	5.e-002	-5.144
13333	10.883	0.27273	0.	-3132.9
13334	10.791	0.36364	0.	-3157.2
13335	10.883	0.36364	5.e-002	-4.8463
13336	10.791	0.18182	0.	-3160.1
13337	10.883	0.18182	5.e-002	-0.34956
13338	10.883	9.0909e-002	0.	-3131.2
13339	10.699	5.7273	0.	-3184.4
13340	10.607	5.8182	0.	-3211.7
13341	10.699	5.8182	5.e-002	-0.39109
13342	10.699	5.9091	0.	-3182.7
13343	10.699	5.5455	0.	-3182.1
13344	10.607	5.6364	0.	-3208.7
13345	10.699	5.6364	5.e-002	-4.8716
13346	10.699	5.3636	0.	-3180.5
13347	10.607	5.4545	0.	-3207.
13348	10.699	5.4545	5.e-002	-5.1687
13349	10.699	5.1818	0.	-3179.
13350	10.607	5.2727	0.	-3205.5
13351	10.699	5.2727	5.e-002	-5.1923
13352	10.699	5.	0.	-3177.7
13353	10.607	5.0909	0.	-3204.
13354	10.699	5.0909	5.e-002	-5.1977
13355	10.699	4.8182	0.	-3176.4
13356	10.607	4.9091	0.	-3202.6
13357	10.699	4.9091	5.e-002	-5.2016
13358	10.699	4.6364	0.	-3175.2
13359	10.607	4.7273	0.	-3201.4
13360	10.699	4.7273	5.e-002	-5.2049
13361	10.699	4.4545	0.	-3174.2
13362	10.607	4.5455	0.	-3200.2
13363	10.699	4.5455	5.e-002	-5.2079
13364	10.699	4.2727	0.	-3173.2
13365	10.607	4.3636	0.	-3199.2
13366	10.699	4.3636	5.e-002	-5.2104
13367	10.699	4.0909	0.	-3172.4
13368	10.607	4.1818	0.	-3198.3
13369	10.699	4.1818	5.e-002	-5.2127
13370	10.699	3.9091	0.	-3171.7
13371	10.607	4.	0.	-3197.5
13372	10.699	4.	5.e-002	-5.2145
13373	10.699	3.7273	0.	-3171.1
13374	10.607	3.8182	0.	-3196.8
13375	10.699	3.8182	5.e-002	-5.2161
13376	10.699	3.5455	0.	-3170.7
13377	10.607	3.6364	0.	-3196.3
13378	10.699	3.6364	5.e-002	-5.2173
13379	10.699	3.3636	0.	-3170.4
13380	10.607	3.4545	0.	-3195.9
13381	10.699	3.4545	5.e-002	-5.2182
13382	10.699	3.1818	0.	-3170.2
13383	10.607	3.2727	0.	-3195.6
13384	10.699	3.2727	5.e-002	-5.2188
13385	10.699	3.	0.	-3170.1
13386	10.607	3.0909	0.	-3195.5
13387	10.699	3.0909	5.e-002	-5.2191
13388	10.699	2.8182	0.	-3170.2
13389	10.607	2.9091	0.	-3195.5
13390	10.699	2.9091	5.e-002	-5.2191
13391	10.699	2.6364	0.	-3170.4
13392	10.607	2.7273	0.	-3195.6
13393	10.699	2.7273	5.e-002	-5.2188
13394	10.699	2.4545	0.	-3170.7
13395	10.607	2.5455	0.	-3195.9
13396	10.699	2.5455	5.e-002	-5.2182
13397	10.699	2.2727	0.	-3171.1
13398	10.607	2.3636	0.	-3196.3
13399	10.699	2.3636	5.e-002	-5.2173
13400	10.699	2.0909	0.	-3171.7
13401	10.607	2.1818	0.	-3196.8
13402	10.699	2.1818	5.e-002	-5.2161
13403	10.699	1.9091	0.	-3172.4
13404	10.607	2.	0.	-3197.5
13405	10.699	2.	5.e-002	-5.2145
13406	10.699	1.7273	0.	-3173.2
13407	10.607	1.8182	0.	-3198.3
13408	10.699	1.8182	5.e-002	-5.2127
13409	10.699	1.5455	0.	-3174.2
13410	10.607	1.6364	0.	-3199.2
13411	10.699	1.6364	5.e-002	-5.2104
13412	10.699	1.3636	0.	-3175.2
13413	10.607	1.4545	0.	-3200.2
13414	10.699	1.4545	5.e-002	-5.2079
13415	10.699	1.1818	0.	-3176.4
13416	10.607	1.2727	0.	-3201.4
13417	10.699	1.2727	5.e-002	-5.2049
13418	10.699	1.	0.	-3177.7
13419	10.607	1.0909	0.	-3202.6
13420	10.699	1.0909	5.e-002	-5.2015
13421	10.699	0.81818	0.	-3179.
13422	10.607	0.90909	0.	-3204.
13423	10.699	0.90909	5.e-002	-5.1977
13424	10.699	0.63636	0.	-3180.5
13425	10.607	0.72727	0.	-3205.5
13426	10.699	0.72727	5.e-002	-5.1923
13427	10.699	0.45455	0.	-3182.1
13428	10.607	0.54545	0.	-3207.
13429	10.699	0.54545	5.e-002	-5.1687
13430	10.699	0.27273	0.	-3184.4
13431	10.607	0.36364	0.	-3208.7
13432	10.699	0.36364	5.e-002	-4.8715
13433	10.607	0.18182	0.	-3211.7
13434	10.699	0.18182	5.e-002	-0.39104
13435	10.699	9.0909e-002	0.	-3182.7
13436	10.515	5.7273	0.	-3236.
13437	10.422	5.8182	0.	-3263.5
13438	10.515	5.8182	5.e-002	-0.43824
13439	10.515	5.9091	0.	-3234.5
13440	10.515	5.5455	0.	-3233.6
13441	10.422	5.6364	0.	-3260.4
13442	10.515	5.6364	5.e-002	-4.8979
13443	10.515	5.3636	0.	-3232.
13444	10.422	5.4545	0.	-3258.6
13445	10.515	5.4545	5.e-002	-5.1942
13446	10.515	5.1818	0.	-3230.4
13447	10.422	5.2727	0.	-3257.
13448	10.515	5.2727	5.e-002	-5.218
13449	10.515	5.	0.	-3228.9
13450	10.422	5.0909	0.	-3255.4
13451	10.515	5.0909	5.e-002	-5.2237
13452	10.515	4.8182	0.	-3227.6
13453	10.422	4.9091	0.	-3254.
13454	10.515	4.9091	5.e-002	-5.2277
13455	10.515	4.6364	0.	-3226.4
13456	10.422	4.7273	0.	-3252.6
13457	10.515	4.7273	5.e-002	-5.2313
13458	10.515	4.4545	0.	-3225.2
13459	10.422	4.5455	0.	-3251.4
13460	10.515	4.5455	5.e-002	-5.2344
13461	10.515	4.2727	0.	-3224.2
13462	10.422	4.3636	0.	-3250.3
13463	10.515	4.3636	5.e-002	-5.2371
13464	10.515	4.0909	0.	-3223.3
13465	10.422	4.1818	0.	-3249.3
13466	10.515	4.1818	5.e-002	-5.2394
13467	10.515	3.9091	0.	-3222.6
13468	10.422	4.	0.	-3248.5
13469	10.515	4.	5.e-002	-5.2414
13470	10.515	3.7273	0.	-3222.
13471	10.422	3.8182	0.	-3247.8
13472	10.515	3.8182	5.e-002	-5.243
13473	10.515	3.5455	0.	-3221.5
13474	10.422	3.6364	0.	-3247.2
13475	10.515	3.6364	5.e-002	-5.2443
13476	10.515	3.3636	0.	-3221.1
13477	10.422	3.4545	0.	-3246.8
13478	10.515	3.4545	5.e-002	-5.2453
13479	10.515	3.1818	0.	-3220.9
13480	10.422	3.2727	0.	-3246.5
13481	10.515	3.2727	5.e-002	-5.2459
13482	10.515	3.	0.	-3220.9
13483	10.422	3.0909	0.	-3246.3
13484	10.515	3.0909	5.e-002	-5.2462
13485	10.515	2.8182	0.	-3220.9
13486	10.422	2.9091	0.	-3246.3
13487	10.515	2.9091	5.e-002	-5.2462
13488	10.515	2.6364	0.	-3221.1
13489	10.422	2.7273	0.	-3246.5
13490	10.515	2.7273	5.e-002	-5.2459
13491	10.515	2.4545	0.	-3221.5
13492	10.422	2.5455	0.	-3246.8
13493	10.515	2.5455	5.e-002	-5.2453
13494	10.515	2.2727	0.	-3222.
13495	10.422	2.3636	0.	-3247.2
13496	10.515	2.3636	5.e-002	-5.2443
13497	10.515	2.0909	0.	-3222.6
13498	10.422	2.1818	0.	-3247.8
13499	10.515	2.1818	5.e-002	-5.243
13500	10.515	1.9091	0.	-3223.3
13501	10.422	2.	0.	-3248.5
13502	10.515	2.	5.e-002	-5.2414
13503	10.515	1.7273	0.	-3224.2
13504	10.422	1.8182	0.	-3249.3
13505	10.515	1.8182	5.e-002	-5.2394
13506	10.515	1.5455	0.	-3225.2
13507	10.422	1.6364	0.	-3250.3
13508	10.515	1.6364	5.e-002	-5.2371
13509	10.515	1.3636	0.	-3226.4
13510	10.422	1.4545	0.	-3251.4
13511	10.515	1.4545	5.e-002	-5.2344
13512	10.515	1.1818	0.	-3227.6
13513	10.422	1.2727	0.	-3252.6
13514	10.515	1.2727	5.e-002	-5.2312
13515	10.515	1.	0.	-3228.9
13516	10.422	1.0909	0.	-3254.
13517	10.515	1.0909	5.e-002	-5.2277
13518	10.515	0.81818	0.	-3230.4
13519	10.422	0.90909	0.	-3255.4
13520	10.515	0.90909	5.e-002	-5.2236
13521	10.515	0.63636	0.	-3232.
13522	10.422	0.72727	0.	-3257.
13523	10.515	0.72727	5.e-002	-5.218
13524	10.515	0.45455	0.	-3233.6
13525	10.422	0.54545	0.	-3258.6
13526	10.515	0.54545	5.e-002	-5.1942
13527	10.515	0.27273	0.	-3236.
13528	10.422	0.36364	0.	-3260.4
13529	10.515	0.36364	5.e-002	-4.8979
13530	10.422	0.18182	0.	-3263.5
13531	10.515	0.18182	5.e-002	-0.43824
13532	10.515	9.0909e-002	0.	-3234.5
13533	10.33	5.7273	0.	-3287.8
13534	10.238	5.8182	0.	-3315.5
13535	10.33	5.8182	5.e-002	-0.49131
13536	10.33	5.9091	0.	-3286.5
13537	10.33	5.5455	0.	-3285.4
13538	10.238	5.6364	0.	-3312.4
13539	10.33	5.6364	5.e-002	-4.9253
13540	10.33	5.3636	0.	-3283.6
13541	10.238	5.4545	0.	-3310.5
13542	10.33	5.4545	5.e-002	-5.2206
13543	10.33	5.1818	0.	-3282.
13544	10.238	5.2727	0.	-3308.7
13545	10.33	5.2727	5.e-002	-5.2446
13546	10.33	5.	0.	-3280.4
13547	10.238	5.0909	0.	-3307.1
13548	10.33	5.0909	5.e-002	-5.2504
13549	10.33	4.8182	0.	-3279.
13550	10.238	4.9091	0.	-3305.5
13551	10.33	4.9091	5.e-002	-5.2547
13552	10.33	4.6364	0.	-3277.7
13553	10.238	4.7273	0.	-3304.1
13554	10.33	4.7273	5.e-002	-5.2584
13555	10.33	4.4545	0.	-3276.5
13556	10.238	4.5455	0.	-3302.8
13557	10.33	4.5455	5.e-002	-5.2617
13558	10.33	4.2727	0.	-3275.4
13559	10.238	4.3636	0.	-3301.6
13560	10.33	4.3636	5.e-002	-5.2646
13561	10.33	4.0909	0.	-3274.5
13562	10.238	4.1818	0.	-3300.6
13563	10.33	4.1818	5.e-002	-5.267
13564	10.33	3.9091	0.	-3273.7
13565	10.238	4.	0.	-3299.7
13566	10.33	4.	5.e-002	-5.2691
13567	10.33	3.7273	0.	-3273.
13568	10.238	3.8182	0.	-3298.9
13569	10.33	3.8182	5.e-002	-5.2708
13570	10.33	3.5455	0.	-3272.5
13571	10.238	3.6364	0.	-3298.3
13572	10.33	3.6364	5.e-002	-5.2722
13573	10.33	3.3636	0.	-3272.1
13574	10.238	3.4545	0.	-3297.8
13575	10.33	3.4545	5.e-002	-5.2732
13576	10.33	3.1818	0.	-3271.9
13577	10.238	3.2727	0.	-3297.5
13578	10.33	3.2727	5.e-002	-5.2738
13579	10.33	3.	0.	-3271.8
13580	10.238	3.0909	0.	-3297.4
13581	10.33	3.0909	5.e-002	-5.2741
13582	10.33	2.8182	0.	-3271.9
13583	10.238	2.9091	0.	-3297.4
13584	10.33	2.9091	5.e-002	-5.2741
13585	10.33	2.6364	0.	-3272.1
13586	10.238	2.7273	0.	-3297.5
13587	10.33	2.7273	5.e-002	-5.2738
13588	10.33	2.4545	0.	-3272.5
13589	10.238	2.5455	0.	-3297.8
13590	10.33	2.5455	5.e-002	-5.2732
13591	10.33	2.2727	0.	-3273.
13592	10.238	2.3636	0.	-3298.3
13593	10.33	2.3636	5.e-002	-5.2722
13594	10.33	2.0909	0.	-3273.7
13595	10.238	2.1818	0.	-3298.9
13596	10.33	2.1818	5.e-002	-5.2708
13597	10.33	1.9091	0.	-3274.5
13598	10.238	2.	0.	-3299.7
13599	10.33	2.	5.e-002	-5.2691
13600	10.33	1.7273	0.	-3275.4
13601	10.238	1.8182	0.	-3300.6
13602	10.33	1.8182	5.e-002	-5.267
13603	10.33	1.5455	0.	-3276.5
13604	10.238	1.6364	0.	-3301.6
13605	10.33	1.6364	5.e-002	-5.2646
13606	10.33	1.3636	0.	-3277.7
13607	10.238	1.4545	0.	-3302.8
13608	10.33	1.4545	5.e-002	-5.2617
13609	10.33	1.1818	0.	-3279.
13610	10.238	1.2727	0.	-3304.1
13611	10.33	1.2727	5.e-002	-5.2584
13612	10.33	1.	0.	-3280.4
13613	10.238	1.0909	0.	-3305.5
13614	10.33	1.0909	5.e-002	-5.2547
13615	10.33	0.81818	0.	-3282.
13616	10.238	0.90909	0.	-3307.1
13617	10.33	0.90909	5.e-002	-5.2504
13618	10.33	0.63636	0.	-3283.6
13619	10.238	0.72727	0.	-3308.7
13620	10.33	0.72727	5.e-002	-5.2446
13621	10.33	0.45455	0.	-3285.4
13622	10.238	0.54545	0.	-3310.5
13623	10.33	0.54545	5.e-002	-5.2206
13624	10.33	0.27273	0.	-3287.8
13625	10.238	0.36364	0.	-3312.4
13626	10.33	0.36364	5.e-002	-4.9253
13627	10.238	0.18182	0.	-3315.5
13628	10.33	0.18182	5.e-002	-0.49127
13629	10.33	9.0909e-002	0.	-3286.5
13630	10.146	5.7273	0.	-3339.9
13631	10.053	5.8182	0.	-3367.7
13632	10.146	5.8182	5.e-002	-0.55033
13633	10.146	5.9091	0.	-3338.8
13634	10.146	5.5455	0.	-3337.4
13635	10.053	5.6364	0.	-3364.5
13636	10.146	5.6364	5.e-002	-4.9538
13637	10.146	5.3636	0.	-3335.5
13638	10.053	5.4545	0.	-3362.5
13639	10.146	5.4545	5.e-002	-5.2478
13640	10.146	5.1818	0.	-3333.8
13641	10.053	5.2727	0.	-3360.7
13642	10.146	5.2727	5.e-002	-5.272
13643	10.146	5.	0.	-3332.1
13644	10.053	5.0909	0.	-3358.9
13645	10.146	5.0909	5.e-002	-5.2781
13646	10.146	4.8182	0.	-3330.6
13647	10.053	4.9091	0.	-3357.3
13648	10.146	4.9091	5.e-002	-5.2826
13649	10.146	4.6364	0.	-3329.2
13650	10.053	4.7273	0.	-3355.8
13651	10.146	4.7273	5.e-002	-5.2865
13652	10.146	4.4545	0.	-3327.9
13653	10.053	4.5455	0.	-3354.4
13654	10.146	4.5455	5.e-002	-5.29
13655	10.146	4.2727	0.	-3326.8
13656	10.053	4.3636	0.	-3353.1
13657	10.146	4.3636	5.e-002	-5.2929
13658	10.146	4.0909	0.	-3325.8
13659	10.053	4.1818	0.	-3352.
13660	10.146	4.1818	5.e-002	-5.2955
13661	10.146	3.9091	0.	-3324.9
13662	10.053	4.	0.	-3351.
13663	10.146	4.	5.e-002	-5.2977
13664	10.146	3.7273	0.	-3324.2
13665	10.053	3.8182	0.	-3350.2
13666	10.146	3.8182	5.e-002	-5.2995
13667	10.146	3.5455	0.	-3323.6
13668	10.053	3.6364	0.	-3349.6
13669	10.146	3.6364	5.e-002	-5.3009
13670	10.146	3.3636	0.	-3323.2
13671	10.053	3.4545	0.	-3349.1
13672	10.146	3.4545	5.e-002	-5.3019
13673	10.146	3.1818	0.	-3323.
13674	10.053	3.2727	0.	-3348.7
13675	10.146	3.2727	5.e-002	-5.3026
13676	10.146	3.	0.	-3322.9
13677	10.053	3.0909	0.	-3348.6
13678	10.146	3.0909	5.e-002	-5.3029
13679	10.146	2.8182	0.	-3323.
13680	10.053	2.9091	0.	-3348.6
13681	10.146	2.9091	5.e-002	-5.3029
13682	10.146	2.6364	0.	-3323.2
13683	10.053	2.7273	0.	-3348.7
13684	10.146	2.7273	5.e-002	-5.3026
13685	10.146	2.4545	0.	-3323.6
13686	10.053	2.5455	0.	-3349.1
13687	10.146	2.5455	5.e-002	-5.3019
13688	10.146	2.2727	0.	-3324.2
13689	10.053	2.3636	0.	-3349.6
13690	10.146	2.3636	5.e-002	-5.3009
13691	10.146	2.0909	0.	-3324.9
13692	10.053	2.1818	0.	-3350.2
13693	10.146	2.1818	5.e-002	-5.2995
13694	10.146	1.9091	0.	-3325.8
13695	10.053	2.	0.	-3351.
13696	10.146	2.	5.e-002	-5.2977
13697	10.146	1.7273	0.	-3326.8
13698	10.053	1.8182	0.	-3352.
13699	10.146	1.8182	5.e-002	-5.2955
13700	10.146	1.5455	0.	-3327.9
13701	10.053	1.6364	0.	-3353.1
13702	10.146	1.6364	5.e-002	-5.2929
13703	10.146	1.3636	0.	-3329.2
13704	10.053	1.4545	0.	-3354.4
13705	10.146	1.4545	5.e-002	-5.2899
13706	10.146	1.1818	0.	-3330.6
13707	10.053	1.2727	0.	-3355.8
13708	10.146	1.2727	5.e-002	-5.2865
13709	10.146	1.	0.	-3332.1
13710	10.053	1.0909	0.	-3357.3
13711	10.146	1.0909	5.e-002	-5.2826
13712	10.146	0.81818	0.	-3333.8
13713	10.053	0.90909	0.	-3358.9
13714	10.146	0.90909	5.e-002	-5.2781
13715	10.146	0.63636	0.	-3335.5
13716	10.053	0.72727	0.	-3360.7
13717	10.146	0.72727	5.e-002	-5.272
13718	10.146	0.45455	0.	-3337.4
13719	10.053	0.54545	0.	-3362.5
13720	10.146	0.54545	5.e-002	-5.2478
13721	10.146	0.27273	0.	-3339.9
13722	10.053	0.36364	0.	-3364.5
13723	10.146	0.36364	5.e-002	-4.9538
13724	10.053	0.18182	0.	-3367.7
13725	10.146	0.18182	5.e-002	-0.55033
13726	10.146	9.0909e-002	0.	-3338.8
13727	9.9612	5.7273	0.	-3392.2
13728	9.8689	5.8182	0.	-3420.2
13729	9.9612	5.8182	5.e-002	-0.61571
13730	9.9612	5.9091	0.	-3391.3
13731	9.9612	5.5455	0.	-3389.6
13732	9.8689	5.6364	0.	-3416.9
13733	9.9612	5.6364	5.e-002	-4.9836
13734	9.9612	5.3636	0.	-3387.7
13735	9.8689	5.4545	0.	-3414.8
13736	9.9612	5.4545	5.e-002	-5.276
13737	9.9612	5.1818	0.	-3385.8
13738	9.8689	5.2727	0.	-3412.8
13739	9.9612	5.2727	5.e-002	-5.3004
13740	9.9612	5.	0.	-3384.1
13741	9.8689	5.0909	0.	-3411.
13742	9.9612	5.0909	5.e-002	-5.3067
13743	9.9612	4.8182	0.	-3382.4
13744	9.8689	4.9091	0.	-3409.2
13745	9.9612	4.9091	5.e-002	-5.3115
13746	9.9612	4.6364	0.	-3380.9
13747	9.8689	4.7273	0.	-3407.6
13748	9.9612	4.7273	5.e-002	-5.3155
13749	9.9612	4.4545	0.	-3379.6
13750	9.8689	4.5455	0.	-3406.1
13751	9.9612	4.5455	5.e-002	-5.3191
13752	9.9612	4.2727	0.	-3378.3
13753	9.8689	4.3636	0.	-3404.8
13754	9.9612	4.3636	5.e-002	-5.3223
13755	9.9612	4.0909	0.	-3377.3
13756	9.8689	4.1818	0.	-3403.6
13757	9.9612	4.1818	5.e-002	-5.325
13758	9.9612	3.9091	0.	-3376.3
13759	9.8689	4.	0.	-3402.6
13760	9.9612	4.	5.e-002	-5.3273
13761	9.9612	3.7273	0.	-3375.6
13762	9.8689	3.8182	0.	-3401.7
13763	9.9612	3.8182	5.e-002	-5.3291
13764	9.9612	3.5455	0.	-3375.
13765	9.8689	3.6364	0.	-3401.
13766	9.9612	3.6364	5.e-002	-5.3305
13767	9.9612	3.3636	0.	-3374.5
13768	9.8689	3.4545	0.	-3400.5
13769	9.9612	3.4545	5.e-002	-5.3316
13770	9.9612	3.1818	0.	-3374.3
13771	9.8689	3.2727	0.	-3400.1
13772	9.9612	3.2727	5.e-002	-5.3323
13773	9.9612	3.	0.	-3374.2
13774	9.8689	3.0909	0.	-3399.9
13775	9.9612	3.0909	5.e-002	-5.3327
13776	9.9612	2.8182	0.	-3374.3
13777	9.8689	2.9091	0.	-3399.9
13778	9.9612	2.9091	5.e-002	-5.3327
13779	9.9612	2.6364	0.	-3374.5
13780	9.8689	2.7273	0.	-3400.1
13781	9.9612	2.7273	5.e-002	-5.3323
13782	9.9612	2.4545	0.	-3375.
13783	9.8689	2.5455	0.	-3400.5
13784	9.9612	2.5455	5.e-002	-5.3316
13785	9.9612	2.2727	0.	-3375.6
13786	9.8689	2.3636	0.	-3401.
13787	9.9612	2.3636	5.e-002	-5.3305
13788	9.9612	2.0909	0.	-3376.3
13789	9.8689	2.1818	0.	-3401.7
13790	9.9612	2.1818	5.e-002	-5.3291
13791	9.9612	1.9091	0.	-3377.3
13792	9.8689	2.	0.	-3402.6
13793	9.9612	2.	5.e-002	-5.3273
13794	9.9612	1.7273	0.	-3378.3
13795	9.8689	1.8182	0.	-3403.6
13796	9.9612	1.8182	5.e-002	-5.325
13797	9.9612	1.5455	0.	-3379.6
13798	9.8689	1.6364	0.	-3404.8
13799	9.9612	1.6364	5.e-002	-5.3223
13800	9.9612	1.3636	0.	-3380.9
13801	9.8689	1.4545	0.	-3406.1
13802	9.9612	1.4545	5.e-002	-5.3191
13803	9.9612	1.1818	0.	-3382.4
13804	9.8689	1.2727	0.	-3407.6
13805	9.9612	1.2727	5.e-002	-5.3155
13806	9.9612	1.	0.	-3384.1
13807	9.8689	1.0909	0.	-3409.2
13808	9.9612	1.0909	5.e-002	-5.3114
13809	9.9612	0.81818	0.	-3385.8
13810	9.8689	0.90909	0.	-3411.
13811	9.9612	0.90909	5.e-002	-5.3067
13812	9.9612	0.63636	0.	-3387.7
13813	9.8689	0.72727	0.	-3412.8
13814	9.9612	0.72727	5.e-002	-5.3003
13815	9.9612	0.45455	0.	-3389.6
13816	9.8689	0.54545	0.	-3414.8
13817	9.9612	0.54545	5.e-002	-5.276
13818	9.9612	0.27273	0.	-3392.2
13819	9.8689	0.36364	0.	-3416.9
13820	9.9612	0.36364	5.e-002	-4.9836
13821	9.8689	0.18182	0.	-3420.2
13822	9.9612	0.18182	5.e-002	-0.61571
13823	9.9612	9.0909e-002	0.	-3391.3
13824	9.7767	5.7273	0.	-3444.8
13825	9.6845	5.8182	0.	-3472.9
13826	9.7767	5.8182	5.e-002	-0.68773
13827	9.7767	5.9091	0.	-3444.
13828	9.7767	5.5455	0.	-3442.1
13829	9.6845	5.6364	0.	-3469.6
13830	9.7767	5.6364	5.e-002	-5.0148
13831	9.7767	5.3636	0.	-3440.
13832	9.6845	5.4545	0.	-3467.3
13833	9.7767	5.4545	5.e-002	-5.3052
13834	9.7767	5.1818	0.	-3438.
13835	9.6845	5.2727	0.	-3465.2
13836	9.7767	5.2727	5.e-002	-5.3297
13837	9.7767	5.	0.	-3436.2
13838	9.6845	5.0909	0.	-3463.3
13839	9.7767	5.0909	5.e-002	-5.3364
13840	9.7767	4.8182	0.	-3434.4
13841	9.6845	4.9091	0.	-3461.4
13842	9.7767	4.9091	5.e-002	-5.3413
13843	9.7767	4.6364	0.	-3432.8
13844	9.6845	4.7273	0.	-3459.7
13845	9.7767	4.7273	5.e-002	-5.3456
13846	9.7767	4.4545	0.	-3431.4
13847	9.6845	4.5455	0.	-3458.1
13848	9.7767	4.5455	5.e-002	-5.3494
13849	9.7767	4.2727	0.	-3430.1
13850	9.6845	4.3636	0.	-3456.7
13851	9.7767	4.3636	5.e-002	-5.3527
13852	9.7767	4.0909	0.	-3428.9
13853	9.6845	4.1818	0.	-3455.4
13854	9.7767	4.1818	5.e-002	-5.3555
13855	9.7767	3.9091	0.	-3427.9
13856	9.6845	4.	0.	-3454.3
13857	9.7767	4.	5.e-002	-5.3578
13858	9.7767	3.7273	0.	-3427.1
13859	9.6845	3.8182	0.	-3453.3
13860	9.7767	3.8182	5.e-002	-5.3597
13861	9.7767	3.5455	0.	-3426.5
13862	9.6845	3.6364	0.	-3452.6
13863	9.7767	3.6364	5.e-002	-5.3612
13864	9.7767	3.3636	0.	-3426.
13865	9.6845	3.4545	0.	-3452.
13866	9.7767	3.4545	5.e-002	-5.3623
13867	9.7767	3.1818	0.	-3425.7
13868	9.6845	3.2727	0.	-3451.6
13869	9.7767	3.2727	5.e-002	-5.363
13870	9.7767	3.	0.	-3425.6
13871	9.6845	3.0909	0.	-3451.4
13872	9.7767	3.0909	5.e-002	-5.3634
13873	9.7767	2.8182	0.	-3425.7
13874	9.6845	2.9091	0.	-3451.4
13875	9.7767	2.9091	5.e-002	-5.3634
13876	9.7767	2.6364	0.	-3426.
13877	9.6845	2.7273	0.	-3451.6
13878	9.7767	2.7273	5.e-002	-5.363
13879	9.7767	2.4545	0.	-3426.5
13880	9.6845	2.5455	0.	-3452.
13881	9.7767	2.5455	5.e-002	-5.3623
13882	9.7767	2.2727	0.	-3427.1
13883	9.6845	2.3636	0.	-3452.6
13884	9.7767	2.3636	5.e-002	-5.3612
13885	9.7767	2.0909	0.	-3427.9
13886	9.6845	2.1818	0.	-3453.3
13887	9.7767	2.1818	5.e-002	-5.3597
13888	9.7767	1.9091	0.	-3428.9
13889	9.6845	2.	0.	-3454.3
13890	9.7767	2.	5.e-002	-5.3578
13891	9.7767	1.7273	0.	-3430.1
13892	9.6845	1.8182	0.	-3455.4
13893	9.7767	1.8182	5.e-002	-5.3554
13894	9.7767	1.5455	0.	-3431.4
13895	9.6845	1.6364	0.	-3456.7
13896	9.7767	1.6364	5.e-002	-5.3527
13897	9.7767	1.3636	0.	-3432.8
13898	9.6845	1.4545	0.	-3458.1
13899	9.7767	1.4545	5.e-002	-5.3494
13900	9.7767	1.1818	0.	-3434.4
13901	9.6845	1.2727	0.	-3459.7
13902	9.7767	1.2727	5.e-002	-5.3456
13903	9.7767	1.	0.	-3436.2
13904	9.6845	1.0909	0.	-3461.4
13905	9.7767	1.0909	5.e-002	-5.3413
13906	9.7767	0.81818	0.	-3438.
13907	9.6845	0.90909	0.	-3463.3
13908	9.7767	0.90909	5.e-002	-5.3363
13909	9.7767	0.63636	0.	-3440.
13910	9.6845	0.72727	0.	-3465.2
13911	9.7767	0.72727	5.e-002	-5.3297
13912	9.7767	0.45455	0.	-3442.1
13913	9.6845	0.54545	0.	-3467.3
13914	9.7767	0.54545	5.e-002	-5.3051
13915	9.7767	0.27273	0.	-3444.8
13916	9.6845	0.36364	0.	-3469.6
13917	9.7767	0.36364	5.e-002	-5.0147
13918	9.6845	0.18182	0.	-3472.9
13919	9.7767	0.18182	5.e-002	-0.68773
13920	9.7767	9.0909e-002	0.	-3444.
13921	9.5922	5.7273	0.	-3497.6
13922	9.5	5.8182	0.	-3525.9
13923	9.5922	5.8182	5.e-002	-0.76687
13924	9.5922	5.9091	0.	-3497.
13925	9.5922	5.5455	0.	-3494.8
13926	9.5	5.6364	0.	-3522.4
13927	9.5922	5.6364	5.e-002	-5.0473
13928	9.5922	5.3636	0.	-3492.6
13929	9.5	5.4545	0.	-3520.1
13930	9.5922	5.4545	5.e-002	-5.3354
13931	9.5922	5.1818	0.	-3490.5
13932	9.5	5.2727	0.	-3517.8
13933	9.5922	5.2727	5.e-002	-5.3602
13934	9.5922	5.	0.	-3488.5
13935	9.5	5.0909	0.	-3515.7
13936	9.5922	5.0909	5.e-002	-5.3671
13937	9.5922	4.8182	0.	-3486.6
13938	9.5	4.9091	0.	-3513.8
13939	9.5922	4.9091	5.e-002	-5.3723
13940	9.5922	4.6364	0.	-3484.9
13941	9.5	4.7273	0.	-3511.9
13942	9.5922	4.7273	5.e-002	-5.3768
13943	9.5922	4.4545	0.	-3483.4
13944	9.5	4.5455	0.	-3510.2
13945	9.5922	4.5455	5.e-002	-5.3808
13946	9.5922	4.2727	0.	-3482.
13947	9.5	4.3636	0.	-3508.7
13948	9.5922	4.3636	5.e-002	-5.3841
13949	9.5922	4.0909	0.	-3480.7
13950	9.5	4.1818	0.	-3507.3
13951	9.5922	4.1818	5.e-002	-5.387
13952	9.5922	3.9091	0.	-3479.7
13953	9.5	4.	0.	-3506.2
13954	9.5922	4.	5.e-002	-5.3894
13955	9.5922	3.7273	0.	-3478.8
13956	9.5	3.8182	0.	-3505.1
13957	9.5922	3.8182	5.e-002	-5.3914
13958	9.5922	3.5455	0.	-3478.1
13959	9.5	3.6364	0.	-3504.3
13960	9.5922	3.6364	5.e-002	-5.393
13961	9.5922	3.3636	0.	-3477.6
13962	9.5	3.4545	0.	-3503.7
13963	9.5922	3.4545	5.e-002	-5.3941
13964	9.5922	3.1818	0.	-3477.3
13965	9.5	3.2727	0.	-3503.3
13966	9.5922	3.2727	5.e-002	-5.3948
13967	9.5922	3.	0.	-3477.2
13968	9.5	3.0909	0.	-3503.1
13969	9.5922	3.0909	5.e-002	-5.3952
13970	9.5922	2.8182	0.	-3477.3
13971	9.5	2.9091	0.	-3503.1
13972	9.5922	2.9091	5.e-002	-5.3952
13973	9.5922	2.6364	0.	-3477.6
13974	9.5	2.7273	0.	-3503.3
13975	9.5922	2.7273	5.e-002	-5.3948
13976	9.5922	2.4545	0.	-3478.1
13977	9.5	2.5455	0.	-3503.7
13978	9.5922	2.5455	5.e-002	-5.3941
13979	9.5922	2.2727	0.	-3478.8
13980	9.5	2.3636	0.	-3504.3
13981	9.5922	2.3636	5.e-002	-5.393
13982	9.5922	2.0909	0.	-3479.7
13983	9.5	2.1818	0.	-3505.1
13984	9.5922	2.1818	5.e-002	-5.3914
13985	9.5922	1.9091	0.	-3480.7
13986	9.5	2.	0.	-3506.2
13987	9.5922	2.	5.e-002	-5.3894
13988	9.5922	1.7273	0.	-3482.
13989	9.5	1.8182	0.	-3507.3
13990	9.5922	1.8182	5.e-002	-5.387
13991	9.5922	1.5455	0.	-3483.4
13992	9.5	1.6364	0.	-3508.7
13993	9.5922	1.6364	5.e-002	-5.3841
13994	9.5922	1.3636	0.	-3484.9
13995	9.5	1.4545	0.	-3510.2
13996	9.5922	1.4545	5.e-002	-5.3808
13997	9.5922	1.1818	0.	-3486.6
13998	9.5	1.2727	0.	-3511.9
13999	9.5922	1.2727	5.e-002	-5.3768
14000	9.5922	1.	0.	-3488.5
14001	9.5	1.0909	0.	-3513.8
14002	9.5922	1.0909	5.e-002	-5.3723
14003	9.5922	0.81818	0.	-3490.5
14004	9.5	0.90909	0.	-3515.7
14005	9.5922	0.90909	5.e-002	-5.3671
14006	9.5922	0.63636	0.	-3492.6
14007	9.5	0.72727	0.	-3517.8
14008	9.5922	0.72727	5.e-002	-5.3602
14009	9.5922	0.45455	0.	-3494.8
14010	9.5	0.54545	0.	-3520.1
14011	9.5922	0.54545	5.e-002	-5.3354
14012	9.5922	0.27273	0.	-3497.6
14013	9.5	0.36364	0.	-3522.4
14014	9.5922	0.36364	5.e-002	-5.0473
14015	9.5	0.18182	0.	-3525.9
14016	9.5922	0.18182	5.e-002	-0.76683
14017	9.5922	9.0909e-002	0.	-3497.
14018	9.4078	5.7273	0.	-3550.6
14019	9.3155	5.8182	0.	-3579.1
14020	9.4078	5.8182	5.e-002	-0.85349
14021	9.4078	5.9091	0.	-3550.3
14022	9.4078	5.5455	0.	-3547.7
14023	9.3155	5.6364	0.	-3575.5
14024	9.4078	5.6364	5.e-002	-5.0815
14025	9.4078	5.3636	0.	-3545.3
14026	9.3155	5.4545	0.	-3573.
14027	9.4078	5.4545	5.e-002	-5.367
14028	9.4078	5.1818	0.	-3543.1
14029	9.3155	5.2727	0.	-3570.7
14030	9.4078	5.2727	5.e-002	-5.3919
14031	9.4078	5.	0.	-3541.
14032	9.3155	5.0909	0.	-3568.4
14033	9.4078	5.0909	5.e-002	-5.3991
14034	9.4078	4.8182	0.	-3539.
14035	9.3155	4.9091	0.	-3566.3
14036	9.4078	4.9091	5.e-002	-5.4045
14037	9.4078	4.6364	0.	-3537.2
14038	9.3155	4.7273	0.	-3564.4
14039	9.4078	4.7273	5.e-002	-5.4093
14040	9.4078	4.4545	0.	-3535.6
14041	9.3155	4.5455	0.	-3562.6
14042	9.4078	4.5455	5.e-002	-5.4134
14043	9.4078	4.2727	0.	-3534.1
14044	9.3155	4.3636	0.	-3560.9
14045	9.4078	4.3636	5.e-002	-5.4169
14046	9.4078	4.0909	0.	-3532.7
14047	9.3155	4.1818	0.	-3559.5
14048	9.4078	4.1818	5.e-002	-5.4199
14049	9.4078	3.9091	0.	-3531.6
14050	9.3155	4.	0.	-3558.2
14051	9.4078	4.	5.e-002	-5.4223
14052	9.4078	3.7273	0.	-3530.7
14053	9.3155	3.8182	0.	-3557.1
14054	9.4078	3.8182	5.e-002	-5.4243
14055	9.4078	3.5455	0.	-3529.9
14056	9.3155	3.6364	0.	-3556.3
14057	9.4078	3.6364	5.e-002	-5.4259
14058	9.4078	3.3636	0.	-3529.4
14059	9.3155	3.4545	0.	-3555.6
14060	9.4078	3.4545	5.e-002	-5.427
14061	9.4078	3.1818	0.	-3529.1
14062	9.3155	3.2727	0.	-3555.2
14063	9.4078	3.2727	5.e-002	-5.4278
14064	9.4078	3.	0.	-3529.
14065	9.3155	3.0909	0.	-3554.9
14066	9.4078	3.0909	5.e-002	-5.4282
14067	9.4078	2.8182	0.	-3529.1
14068	9.3155	2.9091	0.	-3554.9
14069	9.4078	2.9091	5.e-002	-5.4282
14070	9.4078	2.6364	0.	-3529.4
14071	9.3155	2.7273	0.	-3555.2
14072	9.4078	2.7273	5.e-002	-5.4278
14073	9.4078	2.4545	0.	-3529.9
14074	9.3155	2.5455	0.	-3555.6
14075	9.4078	2.5455	5.e-002	-5.427
14076	9.4078	2.2727	0.	-3530.7
14077	9.3155	2.3636	0.	-3556.3
14078	9.4078	2.3636	5.e-002	-5.4259
14079	9.4078	2.0909	0.	-3531.6
14080	9.3155	2.1818	0.	-3557.1
14081	9.4078	2.1818	5.e-002	-5.4243
14082	9.4078	1.9091	0.	-3532.7
14083	9.3155	2.	0.	-3558.2
14084	9.4078	2.	5.e-002	-5.4223
14085	9.4078	1.7273	0.	-3534.1
14086	9.3155	1.8182	0.	-3559.5
14087	9.4078	1.8182	5.e-002	-5.4199
14088	9.4078	1.5455	0.	-3535.6
14089	9.3155	1.6364	0.	-3560.9
14090	9.4078	1.6364	5.e-002	-5.4169
14091	9.4078	1.3636	0.	-3537.2
14092	9.3155	1.4545	0.	-3562.6
14093	9.4078	1.4545	5.e-002	-5.4133
14094	9.4078	1.1818	0.	-3539.
14095	9.3155	1.2727	0.	-3564.4
14096	9.4078	1.2727	5.e-002	-5.4092
14097	9.4078	1.	0.	-3541.
14098	9.3155	1.0909	0.	-3566.3
14099	9.4078	1.0909	5.e-002	-5.4045
14100	9.4078	0.81818	0.	-3543.1
14101	9.3155	0.90909	0.	-3568.4
14102	9.4078	0.90909	5.e-002	-5.3991
14103	9.4078	0.63636	0.	-3545.3
14104	9.3155	0.72727	0.	-3570.7
14105	9.4078	0.72727	5.e-002	-5.3919
14106	9.4078	0.45455	0.	-3547.7
14107	9.3155	0.54545	0.	-3573.
14108	9.4078	0.54545	5.e-002	-5.367
14109	9.4078	0.27273	0.	-3550.6
14110	9.3155	0.36364	0.	-3575.5
14111	9.4078	0.36364	5.e-002	-5.0815
14112	9.3155	0.18182	0.	-3579.1
14113	9.4078	0.18182	5.e-002	-0.85349
14114	9.4078	9.0909e-002	0.	-3550.3
14115	9.2233	5.7273	0.	-3603.9
14116	9.1311	5.8182	0.	-3632.6
14117	9.2233	5.8182	5.e-002	-0.94822
14118	9.2233	5.9091	0.	-3603.8
14119	9.2233	5.5455	0.	-3600.9
14120	9.1311	5.6364	0.	-3628.9
14121	9.2233	5.6364	5.e-002	-5.1174
14122	9.2233	5.3636	0.	-3598.4
14123	9.1311	5.4545	0.	-3626.3
14124	9.2233	5.4545	5.e-002	-5.3998
14125	9.2233	5.1818	0.	-3596.
14126	9.1311	5.2727	0.	-3623.8
14127	9.2233	5.2727	5.e-002	-5.4249
14128	9.2233	5.	0.	-3593.8
14129	9.1311	5.0909	0.	-3621.4
14130	9.2233	5.0909	5.e-002	-5.4324
14131	9.2233	4.8182	0.	-3591.7
14132	9.1311	4.9091	0.	-3619.1
14133	9.2233	4.9091	5.e-002	-5.4381
14134	9.2233	4.6364	0.	-3589.7
14135	9.1311	4.7273	0.	-3617.
14136	9.2233	4.7273	5.e-002	-5.443
14137	9.2233	4.4545	0.	-3587.9
14138	9.1311	4.5455	0.	-3615.1
14139	9.2233	4.5455	5.e-002	-5.4472
14140	9.2233	4.2727	0.	-3586.3
14141	9.1311	4.3636	0.	-3613.3
14142	9.2233	4.3636	5.e-002	-5.4509
14143	9.2233	4.0909	0.	-3584.9
14144	9.1311	4.1818	0.	-3611.8
14145	9.2233	4.1818	5.e-002	-5.454
14146	9.2233	3.9091	0.	-3583.7
14147	9.1311	4.	0.	-3610.4
14148	9.2233	4.	5.e-002	-5.4565
14149	9.2233	3.7273	0.	-3582.7
14150	9.1311	3.8182	0.	-3609.3
14151	9.2233	3.8182	5.e-002	-5.4585
14152	9.2233	3.5455	0.	-3581.9
14153	9.1311	3.6364	0.	-3608.3
14154	9.2233	3.6364	5.e-002	-5.4601
14155	9.2233	3.3636	0.	-3581.3
14156	9.1311	3.4545	0.	-3607.6
14157	9.2233	3.4545	5.e-002	-5.4613
14158	9.2233	3.1818	0.	-3581.
14159	9.1311	3.2727	0.	-3607.1
14160	9.2233	3.2727	5.e-002	-5.462
14161	9.2233	3.	0.	-3580.9
14162	9.1311	3.0909	0.	-3606.9
14163	9.2233	3.0909	5.e-002	-5.4624
14164	9.2233	2.8182	0.	-3581.
14165	9.1311	2.9091	0.	-3606.9
14166	9.2233	2.9091	5.e-002	-5.4624
14167	9.2233	2.6364	0.	-3581.3
14168	9.1311	2.7273	0.	-3607.1
14169	9.2233	2.7273	5.e-002	-5.462
14170	9.2233	2.4545	0.	-3581.9
14171	9.1311	2.5455	0.	-3607.6
14172	9.2233	2.5455	5.e-002	-5.4612
14173	9.2233	2.2727	0.	-3582.7
14174	9.1311	2.3636	0.	-3608.3
14175	9.2233	2.3636	5.e-002	-5.4601
14176	9.2233	2.0909	0.	-3583.7
14177	9.1311	2.1818	0.	-3609.3
14178	9.2233	2.1818	5.e-002	-5.4585
14179	9.2233	1.9091	0.	-3584.9
14180	9.1311	2.	0.	-3610.4
14181	9.2233	2.	5.e-002	-5.4565
14182	9.2233	1.7273	0.	-3586.3
14183	9.1311	1.8182	0.	-3611.8
14184	9.2233	1.8182	5.e-002	-5.454
14185	9.2233	1.5455	0.	-3587.9
14186	9.1311	1.6364	0.	-3613.3
14187	9.2233	1.6364	5.e-002	-5.4509
14188	9.2233	1.3636	0.	-3589.7
14189	9.1311	1.4545	0.	-3615.1
14190	9.2233	1.4545	5.e-002	-5.4472
14191	9.2233	1.1818	0.	-3591.7
14192	9.1311	1.2727	0.	-3617.
14193	9.2233	1.2727	5.e-002	-5.443
14194	9.2233	1.	0.	-3593.8
14195	9.1311	1.0909	0.	-3619.1
14196	9.2233	1.0909	5.e-002	-5.4381
14197	9.2233	0.81818	0.	-3596.
14198	9.1311	0.90909	0.	-3621.4
14199	9.2233	0.90909	5.e-002	-5.4324
14200	9.2233	0.63636	0.	-3598.4
14201	9.1311	0.72727	0.	-3623.8
14202	9.2233	0.72727	5.e-002	-5.4249
14203	9.2233	0.45455	0.	-3600.9
14204	9.1311	0.54545	0.	-3626.3
14205	9.2233	0.54545	5.e-002	-5.3998
14206	9.2233	0.27273	0.	-3603.9
14207	9.1311	0.36364	0.	-3628.9
14208	9.2233	0.36364	5.e-002	-5.1174
14209	9.1311	0.18182	0.	-3632.6
14210	9.2233	0.18182	5.e-002	-0.94819
14211	9.2233	9.0909e-002	0.	-3603.8
14212	9.0388	5.7273	0.	-3657.5
14213	8.9466	5.8182	0.	-3686.3
14214	9.0388	5.8182	5.e-002	-1.0516
14215	9.0388	5.9091	0.	-3657.6
14216	9.0388	5.5455	0.	-3654.3
14217	8.9466	5.6364	0.	-3682.5
14218	9.0388	5.6364	5.e-002	-5.1552
14219	9.0388	5.3636	0.	-3651.6
14220	8.9466	5.4545	0.	-3679.7
14221	9.0388	5.4545	5.e-002	-5.4341
14222	9.0388	5.1818	0.	-3649.1
14223	8.9466	5.2727	0.	-3677.1
14224	9.0388	5.2727	5.e-002	-5.4593
14225	9.0388	5.	0.	-3646.7
14226	8.9466	5.0909	0.	-3674.5
14227	9.0388	5.0909	5.e-002	-5.4671
14228	9.0388	4.8182	0.	-3644.5
14229	8.9466	4.9091	0.	-3672.1
14230	9.0388	4.9091	5.e-002	-5.4731
14231	9.0388	4.6364	0.	-3642.4
14232	8.9466	4.7273	0.	-3669.9
14233	9.0388	4.7273	5.e-002	-5.4782
14234	9.0388	4.4545	0.	-3640.5
14235	8.9466	4.5455	0.	-3667.8
14236	9.0388	4.5455	5.e-002	-5.4826
14237	9.0388	4.2727	0.	-3638.8
14238	8.9466	4.3636	0.	-3665.9
14239	9.0388	4.3636	5.e-002	-5.4863
14240	9.0388	4.0909	0.	-3637.3
14241	8.9466	4.1818	0.	-3664.2
14242	9.0388	4.1818	5.e-002	-5.4895
14243	9.0388	3.9091	0.	-3635.9
14244	8.9466	4.	0.	-3662.8
14245	9.0388	4.	5.e-002	-5.492
14246	9.0388	3.7273	0.	-3634.9
14247	8.9466	3.8182	0.	-3661.5
14248	9.0388	3.8182	5.e-002	-5.4941
14249	9.0388	3.5455	0.	-3634.
14250	8.9466	3.6364	0.	-3660.5
14251	9.0388	3.6364	5.e-002	-5.4957
14252	9.0388	3.3636	0.	-3633.4
14253	8.9466	3.4545	0.	-3659.8
14254	9.0388	3.4545	5.e-002	-5.4968
14255	9.0388	3.1818	0.	-3633.
14256	8.9466	3.2727	0.	-3659.3
14257	9.0388	3.2727	5.e-002	-5.4975
14258	9.0388	3.	0.	-3632.9
14259	8.9466	3.0909	0.	-3659.
14260	9.0388	3.0909	5.e-002	-5.498
14261	9.0388	2.8182	0.	-3633.
14262	8.9466	2.9091	0.	-3659.
14263	9.0388	2.9091	5.e-002	-5.498
14264	9.0388	2.6364	0.	-3633.4
14265	8.9466	2.7273	0.	-3659.3
14266	9.0388	2.7273	5.e-002	-5.4975
14267	9.0388	2.4545	0.	-3634.
14268	8.9466	2.5455	0.	-3659.8
14269	9.0388	2.5455	5.e-002	-5.4968
14270	9.0388	2.2727	0.	-3634.9
14271	8.9466	2.3636	0.	-3660.5
14272	9.0388	2.3636	5.e-002	-5.4957
14273	9.0388	2.0909	0.	-3635.9
14274	8.9466	2.1818	0.	-3661.5
14275	9.0388	2.1818	5.e-002	-5.4941
14276	9.0388	1.9091	0.	-3637.3
14277	8.9466	2.	0.	-3662.8
14278	9.0388	2.	5.e-002	-5.492
14279	9.0388	1.7273	0.	-3638.8
14280	8.9466	1.8182	0.	-3664.2
14281	9.0388	1.8182	5.e-002	-5.4895
14282	9.0388	1.5455	0.	-3640.5
14283	8.9466	1.6364	0.	-3665.9
14284	9.0388	1.6364	5.e-002	-5.4863
14285	9.0388	1.3636	0.	-3642.4
14286	8.9466	1.4545	0.	-3667.8
14287	9.0388	1.4545	5.e-002	-5.4826
14288	9.0388	1.1818	0.	-3644.5
14289	8.9466	1.2727	0.	-3669.9
14290	9.0388	1.2727	5.e-002	-5.4782
14291	9.0388	1.	0.	-3646.7
14292	8.9466	1.0909	0.	-3672.1
14293	9.0388	1.0909	5.e-002	-5.4731
14294	9.0388	0.81818	0.	-3649.1
14295	8.9466	0.90909	0.	-3674.5
14296	9.0388	0.90909	5.e-002	-5.4671
14297	9.0388	0.63636	0.	-3651.6
14298	8.9466	0.72727	0.	-3677.1
14299	9.0388	0.72727	5.e-002	-5.4593
14300	9.0388	0.45455	0.	-3654.3
14301	8.9466	0.54545	0.	-3679.7
14302	9.0388	0.54545	5.e-002	-5.4341
14303	9.0388	0.27273	0.	-3657.5
14304	8.9466	0.36364	0.	-3682.5
14305	9.0388	0.36364	5.e-002	-5.1551
14306	8.9466	0.18182	0.	-3686.3
14307	9.0388	0.18182	5.e-002	-1.0516
14308	9.0388	9.0909e-002	0.	-3657.6
14309	8.8544	5.7273	0.	-3711.3
14310	8.7621	5.8182	0.	-3740.3
14311	8.8544	5.8182	5.e-002	-1.1643
14312	8.8544	5.9091	0.	-3711.7
14313	8.8544	5.5455	0.	-3708.
14314	8.7621	5.6364	0.	-3736.4
14315	8.8544	5.6364	5.e-002	-5.195
14316	8.8544	5.3636	0.	-3705.1
14317	8.7621	5.4545	0.	-3733.4
14318	8.8544	5.4545	5.e-002	-5.47
14319	8.8544	5.1818	0.	-3702.4
14320	8.7621	5.2727	0.	-3730.6
14321	8.8544	5.2727	5.e-002	-5.4953
14322	8.8544	5.	0.	-3699.9
14323	8.7621	5.0909	0.	-3727.9
14324	8.8544	5.0909	5.e-002	-5.5035
14325	8.8544	4.8182	0.	-3697.5
14326	8.7621	4.9091	0.	-3725.3
14327	8.8544	4.9091	5.e-002	-5.5097
14328	8.8544	4.6364	0.	-3695.3
14329	8.7621	4.7273	0.	-3722.9
14330	8.8544	4.7273	5.e-002	-5.515
14331	8.8544	4.4545	0.	-3693.2
14332	8.7621	4.5455	0.	-3720.7
14333	8.8544	4.5455	5.e-002	-5.5195
14334	8.8544	4.2727	0.	-3691.4
14335	8.7621	4.3636	0.	-3718.7
14336	8.8544	4.3636	5.e-002	-5.5233
14337	8.8544	4.0909	0.	-3689.8
14338	8.7621	4.1818	0.	-3716.9
14339	8.8544	4.1818	5.e-002	-5.5265
14340	8.8544	3.9091	0.	-3688.4
14341	8.7621	4.	0.	-3715.3
14342	8.8544	4.	5.e-002	-5.5291
14343	8.8544	3.7273	0.	-3687.2
14344	8.7621	3.8182	0.	-3714.
14345	8.8544	3.8182	5.e-002	-5.5311
14346	8.8544	3.5455	0.	-3686.3
14347	8.7621	3.6364	0.	-3712.9
14348	8.8544	3.6364	5.e-002	-5.5327
14349	8.8544	3.3636	0.	-3685.6
14350	8.7621	3.4545	0.	-3712.1
14351	8.8544	3.4545	5.e-002	-5.5338
14352	8.8544	3.1818	0.	-3685.2
14353	8.7621	3.2727	0.	-3711.5
14354	8.8544	3.2727	5.e-002	-5.5346
14355	8.8544	3.	0.	-3685.1
14356	8.7621	3.0909	0.	-3711.3
14357	8.8544	3.0909	5.e-002	-5.5349
14358	8.8544	2.8182	0.	-3685.2
14359	8.7621	2.9091	0.	-3711.3
14360	8.8544	2.9091	5.e-002	-5.5349
14361	8.8544	2.6364	0.	-3685.6
14362	8.7621	2.7273	0.	-3711.5
14363	8.8544	2.7273	5.e-002	-5.5346
14364	8.8544	2.4545	0.	-3686.3
14365	8.7621	2.5455	0.	-3712.1
14366	8.8544	2.5455	5.e-002	-5.5338
14367	8.8544	2.2727	0.	-3687.2
14368	8.7621	2.3636	0.	-3712.9
14369	8.8544	2.3636	5.e-002	-5.5327
14370	8.8544	2.0909	0.	-3688.4
14371	8.7621	2.1818	0.	-3714.
14372	8.8544	2.1818	5.e-002	-5.5311
14373	8.8544	1.9091	0.	-3689.8
14374	8.7621	2.	0.	-3715.3
14375	8.8544	2.	5.e-002	-5.5291
14376	8.8544	1.7273	0.	-3691.4
14377	8.7621	1.8182	0.	-3716.9
14378	8.8544	1.8182	5.e-002	-5.5265
14379	8.8544	1.5455	0.	-3693.2
14380	8.7621	1.6364	0.	-3718.7
14381	8.8544	1.6364	5.e-002	-5.5233
14382	8.8544	1.3636	0.	-3695.3
14383	8.7621	1.4545	0.	-3720.7
14384	8.8544	1.4545	5.e-002	-5.5195
14385	8.8544	1.1818	0.	-3697.5
14386	8.7621	1.2727	0.	-3722.9
14387	8.8544	1.2727	5.e-002	-5.515
14388	8.8544	1.	0.	-3699.9
14389	8.7621	1.0909	0.	-3725.3
14390	8.8544	1.0909	5.e-002	-5.5097
14391	8.8544	0.81818	0.	-3702.4
14392	8.7621	0.90909	0.	-3727.9
14393	8.8544	0.90909	5.e-002	-5.5035
14394	8.8544	0.63636	0.	-3705.1
14395	8.7621	0.72727	0.	-3730.6
14396	8.8544	0.72727	5.e-002	-5.4953
14397	8.8544	0.45455	0.	-3708.
14398	8.7621	0.54545	0.	-3733.4
14399	8.8544	0.54545	5.e-002	-5.47
14400	8.8544	0.27273	0.	-3711.3
14401	8.7621	0.36364	0.	-3736.4
14402	8.8544	0.36364	5.e-002	-5.195
14403	8.7621	0.18182	0.	-3740.3
14404	8.8544	0.18182	5.e-002	-1.1642
14405	8.8544	9.0909e-002	0.	-3711.7
14406	8.6699	5.7273	0.	-3765.4
14407	8.5777	5.8182	0.	-3794.6
14408	8.6699	5.8182	5.e-002	-1.2869
14409	8.6699	5.9091	0.	-3766.1
14410	8.6699	5.5455	0.	-3761.9
14411	8.5777	5.6364	0.	-3790.6
14412	8.6699	5.6364	5.e-002	-5.2371
14413	8.6699	5.3636	0.	-3758.9
14414	8.5777	5.4545	0.	-3787.4
14415	8.6699	5.4545	5.e-002	-5.5077
14416	8.6699	5.1818	0.	-3756.
14417	8.5777	5.2727	0.	-3784.4
14418	8.6699	5.2727	5.e-002	-5.5331
14419	8.6699	5.	0.	-3753.3
14420	8.5777	5.0909	0.	-3781.5
14421	8.6699	5.0909	5.e-002	-5.5416
14422	8.6699	4.8182	0.	-3750.7
14423	8.5777	4.9091	0.	-3778.7
14424	8.6699	4.9091	5.e-002	-5.548
14425	8.6699	4.6364	0.	-3748.3
14426	8.5777	4.7273	0.	-3776.1
14427	8.6699	4.7273	5.e-002	-5.5535
14428	8.6699	4.4545	0.	-3746.1
14429	8.5777	4.5455	0.	-3773.8
14430	8.6699	4.5455	5.e-002	-5.5581
14431	8.6699	4.2727	0.	-3744.2
14432	8.5777	4.3636	0.	-3771.6
14433	8.6699	4.3636	5.e-002	-5.562
14434	8.6699	4.0909	0.	-3742.4
14435	8.5777	4.1818	0.	-3769.7
14436	8.6699	4.1818	5.e-002	-5.5652
14437	8.6699	3.9091	0.	-3740.9
14438	8.5777	4.	0.	-3768.
14439	8.6699	4.	5.e-002	-5.5678
14440	8.6699	3.7273	0.	-3739.7
14441	8.5777	3.8182	0.	-3766.6
14442	8.6699	3.8182	5.e-002	-5.5698
14443	8.6699	3.5455	0.	-3738.7
14444	8.5777	3.6364	0.	-3765.4
14445	8.6699	3.6364	5.e-002	-5.5713
14446	8.6699	3.3636	0.	-3738.
14447	8.5777	3.4545	0.	-3764.5
14448	8.6699	3.4545	5.e-002	-5.5725
14449	8.6699	3.1818	0.	-3737.6
14450	8.5777	3.2727	0.	-3764.
14451	8.6699	3.2727	5.e-002	-5.5732
14452	8.6699	3.	0.	-3737.4
14453	8.5777	3.0909	0.	-3763.7
14454	8.6699	3.0909	5.e-002	-5.5735
14455	8.6699	2.8182	0.	-3737.6
14456	8.5777	2.9091	0.	-3763.7
14457	8.6699	2.9091	5.e-002	-5.5735
14458	8.6699	2.6364	0.	-3738.
14459	8.5777	2.7273	0.	-3764.
14460	8.6699	2.7273	5.e-002	-5.5732
14461	8.6699	2.4545	0.	-3738.7
14462	8.5777	2.5455	0.	-3764.5
14463	8.6699	2.5455	5.e-002	-5.5725
14464	8.6699	2.2727	0.	-3739.7
14465	8.5777	2.3636	0.	-3765.4
14466	8.6699	2.3636	5.e-002	-5.5713
14467	8.6699	2.0909	0.	-3740.9
14468	8.5777	2.1818	0.	-3766.6
14469	8.6699	2.1818	5.e-002	-5.5698
14470	8.6699	1.9091	0.	-3742.4
14471	8.5777	2.	0.	-3768.
14472	8.6699	2.	5.e-002	-5.5678
14473	8.6699	1.7273	0.	-3744.2
14474	8.5777	1.8182	0.	-3769.7
14475	8.6699	1.8182	5.e-002	-5.5652
14476	8.6699	1.5455	0.	-3746.1
14477	8.5777	1.6364	0.	-3771.6
14478	8.6699	1.6364	5.e-002	-5.562
14479	8.6699	1.3636	0.	-3748.3
14480	8.5777	1.4545	0.	-3773.8
14481	8.6699	1.4545	5.e-002	-5.5581
14482	8.6699	1.1818	0.	-3750.7
14483	8.5777	1.2727	0.	-3776.1
14484	8.6699	1.2727	5.e-002	-5.5535
14485	8.6699	1.	0.	-3753.3
14486	8.5777	1.0909	0.	-3778.7
14487	8.6699	1.0909	5.e-002	-5.548
14488	8.6699	0.81818	0.	-3756.
14489	8.5777	0.90909	0.	-3781.5
14490	8.6699	0.90909	5.e-002	-5.5415
14491	8.6699	0.63636	0.	-3758.9
14492	8.5777	0.72727	0.	-3784.4
14493	8.6699	0.72727	5.e-002	-5.5331
14494	8.6699	0.45455	0.	-3761.9
14495	8.5777	0.54545	0.	-3787.4
14496	8.6699	0.54545	5.e-002	-5.5076
14497	8.6699	0.27273	0.	-3765.4
14498	8.5777	0.36364	0.	-3790.6
14499	8.6699	0.36364	5.e-002	-5.2371
14500	8.5777	0.18182	0.	-3794.6
14501	8.6699	0.18182	5.e-002	-1.2869
14502	8.6699	9.0909e-002	0.	-3766.1
14503	8.4854	5.7273	0.	-3819.8
14504	8.3932	5.8182	0.	-3849.2
14505	8.4854	5.8182	5.e-002	-1.4204
14506	8.4854	5.9091	0.	-3820.8
14507	8.4854	5.5455	0.	-3816.1
14508	8.3932	5.6364	0.	-3845.
14509	8.4854	5.6364	5.e-002	-5.2817
14510	8.4854	5.3636	0.	-3812.9
14511	8.3932	5.4545	0.	-3841.6
14512	8.4854	5.4545	5.e-002	-5.5473
14513	8.4854	5.1818	0.	-3809.8
14514	8.3932	5.2727	0.	-3838.4
14515	8.4854	5.2727	5.e-002	-5.5728
14516	8.4854	5.	0.	-3806.9
14517	8.3932	5.0909	0.	-3835.3
14518	8.4854	5.0909	5.e-002	-5.5816
14519	8.4854	4.8182	0.	-3804.1
14520	8.3932	4.9091	0.	-3832.3
14521	8.4854	4.9091	5.e-002	-5.5883
14522	8.4854	4.6364	0.	-3801.6
14523	8.3932	4.7273	0.	-3829.6
14524	8.4854	4.7273	5.e-002	-5.5939
14525	8.4854	4.4545	0.	-3799.2
14526	8.3932	4.5455	0.	-3827.
14527	8.4854	4.5455	5.e-002	-5.5986
14528	8.4854	4.2727	0.	-3797.1
14529	8.3932	4.3636	0.	-3824.7
14530	8.4854	4.3636	5.e-002	-5.6026
14531	8.4854	4.0909	0.	-3795.2
14532	8.3932	4.1818	0.	-3822.6
14533	8.4854	4.1818	5.e-002	-5.6057
14534	8.4854	3.9091	0.	-3793.6
14535	8.3932	4.	0.	-3820.8
14536	8.4854	4.	5.e-002	-5.6083
14537	8.4854	3.7273	0.	-3792.3
14538	8.3932	3.8182	0.	-3819.3
14539	8.4854	3.8182	5.e-002	-5.6103
14540	8.4854	3.5455	0.	-3791.2
14541	8.3932	3.6364	0.	-3818.1
14542	8.4854	3.6364	5.e-002	-5.6118
14543	8.4854	3.3636	0.	-3790.5
14544	8.3932	3.4545	0.	-3817.1
14545	8.4854	3.4545	5.e-002	-5.6128
14546	8.4854	3.1818	0.	-3790.
14547	8.3932	3.2727	0.	-3816.5
14548	8.4854	3.2727	5.e-002	-5.6135
14549	8.4854	3.	0.	-3789.9
14550	8.3932	3.0909	0.	-3816.2
14551	8.4854	3.0909	5.e-002	-5.6138
14552	8.4854	2.8182	0.	-3790.
14553	8.3932	2.9091	0.	-3816.2
14554	8.4854	2.9091	5.e-002	-5.6138
14555	8.4854	2.6364	0.	-3790.5
14556	8.3932	2.7273	0.	-3816.5
14557	8.4854	2.7273	5.e-002	-5.6135
14558	8.4854	2.4545	0.	-3791.2
14559	8.3932	2.5455	0.	-3817.1
14560	8.4854	2.5455	5.e-002	-5.6128
14561	8.4854	2.2727	0.	-3792.3
14562	8.3932	2.3636	0.	-3818.1
14563	8.4854	2.3636	5.e-002	-5.6118
14564	8.4854	2.0909	0.	-3793.6
14565	8.3932	2.1818	0.	-3819.3
14566	8.4854	2.1818	5.e-002	-5.6103
14567	8.4854	1.9091	0.	-3795.2
14568	8.3932	2.	0.	-3820.8
14569	8.4854	2.	5.e-002	-5.6083
14570	8.4854	1.7273	0.	-3797.1
14571	8.3932	1.8182	0.	-3822.6
14572	8.4854	1.8182	5.e-002	-5.6057
14573	8.4854	1.5455	0.	-3799.2
14574	8.3932	1.6364	0.	-3824.7
14575	8.4854	1.6364	5.e-002	-5.6025
14576	8.4854	1.3636	0.	-3801.6
14577	8.3932	1.4545	0.	-3827.
14578	8.4854	1.4545	5.e-002	-5.5986
14579	8.4854	1.1818	0.	-3804.1
14580	8.3932	1.2727	0.	-3829.6
14581	8.4854	1.2727	5.e-002	-5.5939
14582	8.4854	1.	0.	-3806.9
14583	8.3932	1.0909	0.	-3832.3
14584	8.4854	1.0909	5.e-002	-5.5883
14585	8.4854	0.81818	0.	-3809.8
14586	8.3932	0.90909	0.	-3835.3
14587	8.4854	0.90909	5.e-002	-5.5816
14588	8.4854	0.63636	0.	-3812.9
14589	8.3932	0.72727	0.	-3838.4
14590	8.4854	0.72727	5.e-002	-5.5728
14591	8.4854	0.45455	0.	-3816.1
14592	8.3932	0.54545	0.	-3841.6
14593	8.4854	0.54545	5.e-002	-5.5473
14594	8.4854	0.27273	0.	-3819.8
14595	8.3932	0.36364	0.	-3845.
14596	8.4854	0.36364	5.e-002	-5.2817
14597	8.3932	0.18182	0.	-3849.2
14598	8.4854	0.18182	5.e-002	-1.4204
14599	8.4854	9.0909e-002	0.	-3820.8
14600	8.301	5.7273	0.	-3874.4
14601	8.2087	5.8182	0.	-3904.1
14602	8.301	5.8182	5.e-002	-1.5656
14603	8.301	5.9091	0.	-3875.8
14604	8.301	5.5455	0.	-3870.5
14605	8.2087	5.6364	0.	-3899.7
14606	8.301	5.6364	5.e-002	-5.3291
14607	8.301	5.3636	0.	-3867.1
14608	8.2087	5.4545	0.	-3896.1
14609	8.301	5.4545	5.e-002	-5.5891
14610	8.301	5.1818	0.	-3863.8
14611	8.2087	5.2727	0.	-3892.7
14612	8.301	5.2727	5.e-002	-5.6146
14613	8.301	5.	0.	-3860.7
14614	8.2087	5.0909	0.	-3889.3
14615	8.301	5.0909	5.e-002	-5.6237
14616	8.301	4.8182	0.	-3857.8
14617	8.2087	4.9091	0.	-3886.2
14618	8.301	4.9091	5.e-002	-5.6306
14619	8.301	4.6364	0.	-3855.
14620	8.2087	4.7273	0.	-3883.2
14621	8.301	4.7273	5.e-002	-5.6364
14622	8.301	4.4545	0.	-3852.5
14623	8.2087	4.5455	0.	-3880.5
14624	8.301	4.5455	5.e-002	-5.6412
14625	8.301	4.2727	0.	-3850.2
14626	8.2087	4.3636	0.	-3878.
14627	8.301	4.3636	5.e-002	-5.6451
14628	8.301	4.0909	0.	-3848.2
14629	8.2087	4.1818	0.	-3875.8
14630	8.301	4.1818	5.e-002	-5.6483
14631	8.301	3.9091	0.	-3846.5
14632	8.2087	4.	0.	-3873.8
14633	8.301	4.	5.e-002	-5.6508
14634	8.301	3.7273	0.	-3845.1
14635	8.2087	3.8182	0.	-3872.2
14636	8.301	3.8182	5.e-002	-5.6527
14637	8.301	3.5455	0.	-3843.9
14638	8.2087	3.6364	0.	-3870.8
14639	8.301	3.6364	5.e-002	-5.6541
14640	8.301	3.3636	0.	-3843.1
14641	8.2087	3.4545	0.	-3869.8
14642	8.301	3.4545	5.e-002	-5.6551
14643	8.301	3.1818	0.	-3842.6
14644	8.2087	3.2727	0.	-3869.1
14645	8.301	3.2727	5.e-002	-5.6557
14646	8.301	3.	0.	-3842.4
14647	8.2087	3.0909	0.	-3868.8
14648	8.301	3.0909	5.e-002	-5.656
14649	8.301	2.8182	0.	-3842.6
14650	8.2087	2.9091	0.	-3868.8
14651	8.301	2.9091	5.e-002	-5.656
14652	8.301	2.6364	0.	-3843.1
14653	8.2087	2.7273	0.	-3869.1
14654	8.301	2.7273	5.e-002	-5.6557
14655	8.301	2.4545	0.	-3843.9
14656	8.2087	2.5455	0.	-3869.8
14657	8.301	2.5455	5.e-002	-5.6551
14658	8.301	2.2727	0.	-3845.1
14659	8.2087	2.3636	0.	-3870.8
14660	8.301	2.3636	5.e-002	-5.6541
14661	8.301	2.0909	0.	-3846.5
14662	8.2087	2.1818	0.	-3872.2
14663	8.301	2.1818	5.e-002	-5.6527
14664	8.301	1.9091	0.	-3848.2
14665	8.2087	2.	0.	-3873.8
14666	8.301	2.	5.e-002	-5.6508
14667	8.301	1.7273	0.	-3850.2
14668	8.2087	1.8182	0.	-3875.8
14669	8.301	1.8182	5.e-002	-5.6483
14670	8.301	1.5455	0.	-3852.5
14671	8.2087	1.6364	0.	-3878.
14672	8.301	1.6364	5.e-002	-5.6451
14673	8.301	1.3636	0.	-3855.
14674	8.2087	1.4545	0.	-3880.5
14675	8.301	1.4545	5.e-002	-5.6412
14676	8.301	1.1818	0.	-3857.8
14677	8.2087	1.2727	0.	-3883.2
14678	8.301	1.2727	5.e-002	-5.6364
14679	8.301	1.	0.	-3860.7
14680	8.2087	1.0909	0.	-3886.2
14681	8.301	1.0909	5.e-002	-5.6306
14682	8.301	0.81818	0.	-3863.8
14683	8.2087	0.90909	0.	-3889.3
14684	8.301	0.90909	5.e-002	-5.6237
14685	8.301	0.63636	0.	-3867.1
14686	8.2087	0.72727	0.	-3892.7
14687	8.301	0.72727	5.e-002	-5.6146
14688	8.301	0.45455	0.	-3870.5
14689	8.2087	0.54545	0.	-3896.1
14690	8.301	0.54545	5.e-002	-5.5891
14691	8.301	0.27273	0.	-3874.4
14692	8.2087	0.36364	0.	-3899.7
14693	8.301	0.36364	5.e-002	-5.3291
14694	8.2087	0.18182	0.	-3904.1
14695	8.301	0.18182	5.e-002	-1.5656
14696	8.301	9.0909e-002	0.	-3875.8
14697	8.1165	5.7273	0.	-3929.4
14698	8.0243	5.8182	0.	-3959.4
14699	8.1165	5.8182	5.e-002	-1.7233
14700	8.1165	5.9091	0.	-3931.
14701	8.1165	5.5455	0.	-3925.3
14702	8.0243	5.6364	0.	-3954.7
14703	8.1165	5.6364	5.e-002	-5.3795
14704	8.1165	5.3636	0.	-3921.6
14705	8.0243	5.4545	0.	-3950.9
14706	8.1165	5.4545	5.e-002	-5.6333
14707	8.1165	5.1818	0.	-3918.1
14708	8.0243	5.2727	0.	-3947.2
14709	8.1165	5.2727	5.e-002	-5.6589
14710	8.1165	5.	0.	-3914.8
14711	8.0243	5.0909	0.	-3943.6
14712	8.1165	5.0909	5.e-002	-5.6682
14713	8.1165	4.8182	0.	-3911.6
14714	8.0243	4.9091	0.	-3940.2
14715	8.1165	4.9091	5.e-002	-5.6754
14716	8.1165	4.6364	0.	-3908.7
14717	8.0243	4.7273	0.	-3937.1
14718	8.1165	4.7273	5.e-002	-5.6812
14719	8.1165	4.4545	0.	-3906.
14720	8.0243	4.5455	0.	-3934.1
14721	8.1165	4.5455	5.e-002	-5.6861
14722	8.1165	4.2727	0.	-3903.5
14723	8.0243	4.3636	0.	-3931.5
14724	8.1165	4.3636	5.e-002	-5.6899
14725	8.1165	4.0909	0.	-3901.4
14726	8.0243	4.1818	0.	-3929.1
14727	8.1165	4.1818	5.e-002	-5.693
14728	8.1165	3.9091	0.	-3899.5
14729	8.0243	4.	0.	-3927.
14730	8.1165	4.	5.e-002	-5.6954
14731	8.1165	3.7273	0.	-3897.9
14732	8.0243	3.8182	0.	-3925.2
14733	8.1165	3.8182	5.e-002	-5.6972
14734	8.1165	3.5455	0.	-3896.7
14735	8.0243	3.6364	0.	-3923.7
14736	8.1165	3.6364	5.e-002	-5.6985
14737	8.1165	3.3636	0.	-3895.8
14738	8.0243	3.4545	0.	-3922.6
14739	8.1165	3.4545	5.e-002	-5.6994
14740	8.1165	3.1818	0.	-3895.3
14741	8.0243	3.2727	0.	-3921.9
14742	8.1165	3.2727	5.e-002	-5.6999
14743	8.1165	3.	0.	-3895.1
14744	8.0243	3.0909	0.	-3921.5
14745	8.1165	3.0909	5.e-002	-5.7002
14746	8.1165	2.8182	0.	-3895.3
14747	8.0243	2.9091	0.	-3921.5
14748	8.1165	2.9091	5.e-002	-5.7002
14749	8.1165	2.6364	0.	-3895.8
14750	8.0243	2.7273	0.	-3921.9
14751	8.1165	2.7273	5.e-002	-5.6999
14752	8.1165	2.4545	0.	-3896.7
14753	8.0243	2.5455	0.	-3922.6
14754	8.1165	2.5455	5.e-002	-5.6994
14755	8.1165	2.2727	0.	-3897.9
14756	8.0243	2.3636	0.	-3923.7
14757	8.1165	2.3636	5.e-002	-5.6985
14758	8.1165	2.0909	0.	-3899.5
14759	8.0243	2.1818	0.	-3925.2
14760	8.1165	2.1818	5.e-002	-5.6972
14761	8.1165	1.9091	0.	-3901.4
14762	8.0243	2.	0.	-3927.
14763	8.1165	2.	5.e-002	-5.6954
14764	8.1165	1.7273	0.	-3903.5
14765	8.0243	1.8182	0.	-3929.1
14766	8.1165	1.8182	5.e-002	-5.693
14767	8.1165	1.5455	0.	-3906.
14768	8.0243	1.6364	0.	-3931.5
14769	8.1165	1.6364	5.e-002	-5.6899
14770	8.1165	1.3636	0.	-3908.7
14771	8.0243	1.4545	0.	-3934.1
14772	8.1165	1.4545	5.e-002	-5.6861
14773	8.1165	1.1818	0.	-3911.6
14774	8.0243	1.2727	0.	-3937.1
14775	8.1165	1.2727	5.e-002	-5.6812
14776	8.1165	1.	0.	-3914.8
14777	8.0243	1.0909	0.	-3940.2
14778	8.1165	1.0909	5.e-002	-5.6754
14779	8.1165	0.81818	0.	-3918.1
14780	8.0243	0.90909	0.	-3943.6
14781	8.1165	0.90909	5.e-002	-5.6682
14782	8.1165	0.63636	0.	-3921.6
14783	8.0243	0.72727	0.	-3947.2
14784	8.1165	0.72727	5.e-002	-5.6589
14785	8.1165	0.45455	0.	-3925.3
14786	8.0243	0.54545	0.	-3950.9
14787	8.1165	0.54545	5.e-002	-5.6333
14788	8.1165	0.27273	0.	-3929.4
14789	8.0243	0.36364	0.	-3954.7
14790	8.1165	0.36364	5.e-002	-5.3795
14791	8.0243	0.18182	0.	-3959.4
14792	8.1165	0.18182	5.e-002	-1.7233
14793	8.1165	9.0909e-002	0.	-3931.
14794	7.932	5.7273	0.	-3984.7
14795	7.8398	5.8182	0.	-4014.9
14796	7.932	5.8182	5.e-002	-1.8945
14797	7.932	5.9091	0.	-3986.7
14798	7.932	5.5455	0.	-3980.3
14799	7.8398	5.6364	0.	-4010.
14800	7.932	5.6364	5.e-002	-5.4332
14801	7.932	5.3636	0.	-3976.4
14802	7.8398	5.4545	0.	-4005.9
14803	7.932	5.4545	5.e-002	-5.6802
14804	7.932	5.1818	0.	-3972.7
14805	7.8398	5.2727	0.	-4002.
14806	7.932	5.2727	5.e-002	-5.7057
14807	7.932	5.	0.	-3969.1
14808	7.8398	5.0909	0.	-3998.2
14809	7.932	5.0909	5.e-002	-5.7153
14810	7.932	4.8182	0.	-3965.7
14811	7.8398	4.9091	0.	-3994.5
14812	7.932	4.9091	5.e-002	-5.7227
14813	7.932	4.6364	0.	-3962.5
14814	7.8398	4.7273	0.	-3991.1
14815	7.932	4.7273	5.e-002	-5.7286
14816	7.932	4.4545	0.	-3959.6
14817	7.8398	4.5455	0.	-3988.
14818	7.932	4.5455	5.e-002	-5.7334
14819	7.932	4.2727	0.	-3957.
14820	7.8398	4.3636	0.	-3985.1
14821	7.932	4.3636	5.e-002	-5.7372
14822	7.932	4.0909	0.	-3954.7
14823	7.8398	4.1818	0.	-3982.5
14824	7.932	4.1818	5.e-002	-5.7401
14825	7.932	3.9091	0.	-3952.6
14826	7.8398	4.	0.	-3980.2
14827	7.932	4.	5.e-002	-5.7424
14828	7.932	3.7273	0.	-3951.
14829	7.8398	3.8182	0.	-3978.3
14830	7.932	3.8182	5.e-002	-5.744
14831	7.932	3.5455	0.	-3949.7
14832	7.8398	3.6364	0.	-3976.8
14833	7.932	3.6364	5.e-002	-5.7451
14834	7.932	3.3636	0.	-3948.7
14835	7.8398	3.4545	0.	-3975.6
14836	7.932	3.4545	5.e-002	-5.7459
14837	7.932	3.1818	0.	-3948.1
14838	7.8398	3.2727	0.	-3974.8
14839	7.932	3.2727	5.e-002	-5.7464
14840	7.932	3.	0.	-3947.9
14841	7.8398	3.0909	0.	-3974.4
14842	7.932	3.0909	5.e-002	-5.7466
14843	7.932	2.8182	0.	-3948.1
14844	7.8398	2.9091	0.	-3974.4
14845	7.932	2.9091	5.e-002	-5.7466
14846	7.932	2.6364	0.	-3948.7
14847	7.8398	2.7273	0.	-3974.8
14848	7.932	2.7273	5.e-002	-5.7464
14849	7.932	2.4545	0.	-3949.7
14850	7.8398	2.5455	0.	-3975.6
14851	7.932	2.5455	5.e-002	-5.7459
14852	7.932	2.2727	0.	-3951.
14853	7.8398	2.3636	0.	-3976.8
14854	7.932	2.3636	5.e-002	-5.7451
14855	7.932	2.0909	0.	-3952.6
14856	7.8398	2.1818	0.	-3978.3
14857	7.932	2.1818	5.e-002	-5.744
14858	7.932	1.9091	0.	-3954.7
14859	7.8398	2.	0.	-3980.2
14860	7.932	2.	5.e-002	-5.7424
14861	7.932	1.7273	0.	-3957.
14862	7.8398	1.8182	0.	-3982.5
14863	7.932	1.8182	5.e-002	-5.7401
14864	7.932	1.5455	0.	-3959.6
14865	7.8398	1.6364	0.	-3985.1
14866	7.932	1.6364	5.e-002	-5.7372
14867	7.932	1.3636	0.	-3962.5
14868	7.8398	1.4545	0.	-3988.
14869	7.932	1.4545	5.e-002	-5.7334
14870	7.932	1.1818	0.	-3965.7
14871	7.8398	1.2727	0.	-3991.1
14872	7.932	1.2727	5.e-002	-5.7286
14873	7.932	1.	0.	-3969.1
14874	7.8398	1.0909	0.	-3994.5
14875	7.932	1.0909	5.e-002	-5.7227
14876	7.932	0.81818	0.	-3972.7
14877	7.8398	0.90909	0.	-3998.2
14878	7.932	0.90909	5.e-002	-5.7153
14879	7.932	0.63636	0.	-3976.4
14880	7.8398	0.72727	0.	-4002.
14881	7.932	0.72727	5.e-002	-5.7057
14882	7.932	0.45455	0.	-3980.3
14883	7.8398	0.54545	0.	-4005.9
14884	7.932	0.54545	5.e-002	-5.6802
14885	7.932	0.27273	0.	-3984.7
14886	7.8398	0.36364	0.	-4010.
14887	7.932	0.36364	5.e-002	-5.4332
14888	7.8398	0.18182	0.	-4014.9
14889	7.932	0.18182	5.e-002	-1.8945
14890	7.932	9.0909e-002	0.	-3986.7
14891	7.7476	5.7273	0.	-4040.2
14892	7.6553	5.8182	0.	-4070.8
14893	7.7476	5.8182	5.e-002	-2.0803
14894	7.7476	5.9091	0.	-4042.6
14895	7.7476	5.5455	0.	-4035.6
14896	7.6553	5.6364	0.	-4065.7
14897	7.7476	5.6364	5.e-002	-5.4907
14898	7.7476	5.3636	0.	-4031.5
14899	7.6553	5.4545	0.	-4061.3
14900	7.7476	5.4545	5.e-002	-5.73
14901	7.7476	5.1818	0.	-4027.4
14902	7.6553	5.2727	0.	-4057.
14903	7.7476	5.2727	5.e-002	-5.7554
14904	7.7476	5.	0.	-4023.6
14905	7.6553	5.0909	0.	-4052.9
14906	7.7476	5.0909	5.e-002	-5.7653
14907	7.7476	4.8182	0.	-4020.
14908	7.6553	4.9091	0.	-4049.
14909	7.7476	4.9091	5.e-002	-5.7728
14910	7.7476	4.6364	0.	-4016.6
14911	7.6553	4.7273	0.	-4045.4
14912	7.7476	4.7273	5.e-002	-5.7788
14913	7.7476	4.4545	0.	-4013.4
14914	7.6553	4.5455	0.	-4042.
14915	7.7476	4.5455	5.e-002	-5.7835
14916	7.7476	4.2727	0.	-4010.6
14917	7.6553	4.3636	0.	-4038.9
14918	7.7476	4.3636	5.e-002	-5.7872
14919	7.7476	4.0909	0.	-4008.1
14920	7.6553	4.1818	0.	-4036.1
14921	7.7476	4.1818	5.e-002	-5.7899
14922	7.7476	3.9091	0.	-4005.9
14923	7.6553	4.	0.	-4033.7
14924	7.7476	4.	5.e-002	-5.7919
14925	7.7476	3.7273	0.	-4004.1
14926	7.6553	3.8182	0.	-4031.6
14927	7.7476	3.8182	5.e-002	-5.7933
14928	7.7476	3.5455	0.	-4002.7
14929	7.6553	3.6364	0.	-4029.9
14930	7.7476	3.6364	5.e-002	-5.7943
14931	7.7476	3.3636	0.	-4001.7
14932	7.6553	3.4545	0.	-4028.6
14933	7.7476	3.4545	5.e-002	-5.7949
14934	7.7476	3.1818	0.	-4001.1
14935	7.6553	3.2727	0.	-4027.8
14936	7.7476	3.2727	5.e-002	-5.7952
14937	7.7476	3.	0.	-4000.8
14938	7.6553	3.0909	0.	-4027.3
14939	7.7476	3.0909	5.e-002	-5.7954
14940	7.7476	2.8182	0.	-4001.1
14941	7.6553	2.9091	0.	-4027.3
14942	7.7476	2.9091	5.e-002	-5.7954
14943	7.7476	2.6364	0.	-4001.7
14944	7.6553	2.7273	0.	-4027.8
14945	7.7476	2.7273	5.e-002	-5.7952
14946	7.7476	2.4545	0.	-4002.7
14947	7.6553	2.5455	0.	-4028.6
14948	7.7476	2.5455	5.e-002	-5.7949
14949	7.7476	2.2727	0.	-4004.1
14950	7.6553	2.3636	0.	-4029.9
14951	7.7476	2.3636	5.e-002	-5.7943
14952	7.7476	2.0909	0.	-4005.9
14953	7.6553	2.1818	0.	-4031.6
14954	7.7476	2.1818	5.e-002	-5.7933
14955	7.7476	1.9091	0.	-4008.1
14956	7.6553	2.	0.	-4033.7
14957	7.7476	2.	5.e-002	-5.7919
14958	7.7476	1.7273	0.	-4010.6
14959	7.6553	1.8182	0.	-4036.1
14960	7.7476	1.8182	5.e-002	-5.7899
14961	7.7476	1.5455	0.	-4013.4
14962	7.6553	1.6364	0.	-4038.9
14963	7.7476	1.6364	5.e-002	-5.7872
14964	7.7476	1.3636	0.	-4016.6
14965	7.6553	1.4545	0.	-4042.
14966	7.7476	1.4545	5.e-002	-5.7835
14967	7.7476	1.1818	0.	-4020.
14968	7.6553	1.2727	0.	-4045.4
14969	7.7476	1.2727	5.e-002	-5.7788
14970	7.7476	1.	0.	-4023.6
14971	7.6553	1.0909	0.	-4049.
14972	7.7476	1.0909	5.e-002	-5.7728
14973	7.7476	0.81818	0.	-4027.4
14974	7.6553	0.90909	0.	-4052.9
14975	7.7476	0.90909	5.e-002	-5.7653
14976	7.7476	0.63636	0.	-4031.5
14977	7.6553	0.72727	0.	-4057.
14978	7.7476	0.72727	5.e-002	-5.7554
14979	7.7476	0.45455	0.	-4035.6
14980	7.6553	0.54545	0.	-4061.3
14981	7.7476	0.54545	5.e-002	-5.73
14982	7.7476	0.27273	0.	-4040.2
14983	7.6553	0.36364	0.	-4065.7
14984	7.7476	0.36364	5.e-002	-5.4907
14985	7.6553	0.18182	0.	-4070.8
14986	7.7476	0.18182	5.e-002	-2.0803
14987	7.7476	9.0909e-002	0.	-4042.6
14988	7.5631	5.7273	0.	-4096.1
14989	7.4709	5.8182	0.	-4127.
14990	7.5631	5.8182	5.e-002	-2.2819
14991	7.5631	5.9091	0.	-4099.
14992	7.5631	5.5455	0.	-4091.3
14993	7.4709	5.6364	0.	-4121.6
14994	7.5631	5.6364	5.e-002	-5.5523
14995	7.5631	5.3636	0.	-4086.8
14996	7.4709	5.4545	0.	-4116.9
14997	7.5631	5.4545	5.e-002	-5.7831
14998	7.5631	5.1818	0.	-4082.5
14999	7.4709	5.2727	0.	-4112.4
15000	7.5631	5.2727	5.e-002	-5.8084
15001	7.5631	5.	0.	-4078.4
15002	7.4709	5.0909	0.	-4108.
15003	7.5631	5.0909	5.e-002	-5.8185
15004	7.5631	4.8182	0.	-4074.5
15005	7.4709	4.9091	0.	-4103.8
15006	7.5631	4.9091	5.e-002	-5.8261
15007	7.5631	4.6364	0.	-4070.8
15008	7.4709	4.7273	0.	-4099.8
15009	7.5631	4.7273	5.e-002	-5.832
15010	7.5631	4.4545	0.	-4067.4
15011	7.4709	4.5455	0.	-4096.2
15012	7.5631	4.5455	5.e-002	-5.8366
15013	7.5631	4.2727	0.	-4064.4
15014	7.4709	4.3636	0.	-4092.8
15015	7.5631	4.3636	5.e-002	-5.8401
15016	7.5631	4.0909	0.	-4061.7
15017	7.4709	4.1818	0.	-4089.8
15018	7.5631	4.1818	5.e-002	-5.8426
15019	7.5631	3.9091	0.	-4059.3
15020	7.4709	4.	0.	-4087.2
15021	7.5631	4.	5.e-002	-5.8443
15022	7.5631	3.7273	0.	-4057.4
15023	7.4709	3.8182	0.	-4085.
15024	7.5631	3.8182	5.e-002	-5.8454
15025	7.5631	3.5455	0.	-4055.8
15026	7.4709	3.6364	0.	-4083.2
15027	7.5631	3.6364	5.e-002	-5.8461
15028	7.5631	3.3636	0.	-4054.7
15029	7.4709	3.4545	0.	-4081.8
15030	7.5631	3.4545	5.e-002	-5.8465
15031	7.5631	3.1818	0.	-4054.1
15032	7.4709	3.2727	0.	-4080.9
15033	7.5631	3.2727	5.e-002	-5.8467
15034	7.5631	3.	0.	-4053.8
15035	7.4709	3.0909	0.	-4080.4
15036	7.5631	3.0909	5.e-002	-5.8468
15037	7.5631	2.8182	0.	-4054.1
15038	7.4709	2.9091	0.	-4080.4
15039	7.5631	2.9091	5.e-002	-5.8468
15040	7.5631	2.6364	0.	-4054.7
15041	7.4709	2.7273	0.	-4080.9
15042	7.5631	2.7273	5.e-002	-5.8467
15043	7.5631	2.4545	0.	-4055.8
15044	7.4709	2.5455	0.	-4081.8
15045	7.5631	2.5455	5.e-002	-5.8465
15046	7.5631	2.2727	0.	-4057.4
15047	7.4709	2.3636	0.	-4083.2
15048	7.5631	2.3636	5.e-002	-5.8461
15049	7.5631	2.0909	0.	-4059.3
15050	7.4709	2.1818	0.	-4085.
15051	7.5631	2.1818	5.e-002	-5.8454
15052	7.5631	1.9091	0.	-4061.7
15053	7.4709	2.	0.	-4087.2
15054	7.5631	2.	5.e-002	-5.8443
15055	7.5631	1.7273	0.	-4064.4
15056	7.4709	1.8182	0.	-4089.8
15057	7.5631	1.8182	5.e-002	-5.8426
15058	7.5631	1.5455	0.	-4067.4
15059	7.4709	1.6364	0.	-4092.8
15060	7.5631	1.6364	5.e-002	-5.8401
15061	7.5631	1.3636	0.	-4070.8
15062	7.4709	1.4545	0.	-4096.2
15063	7.5631	1.4545	5.e-002	-5.8366
15064	7.5631	1.1818	0.	-4074.5
15065	7.4709	1.2727	0.	-4099.8
15066	7.5631	1.2727	5.e-002	-5.832
15067	7.5631	1.	0.	-4078.4
15068	7.4709	1.0909	0.	-4103.8
15069	7.5631	1.0909	5.e-002	-5.8261
15070	7.5631	0.81818	0.	-4082.5
15071	7.4709	0.90909	0.	-4108.
15072	7.5631	0.90909	5.e-002	-5.8185
15073	7.5631	0.63636	0.	-4086.8
15074	7.4709	0.72727	0.	-4112.4
15075	7.5631	0.72727	5.e-002	-5.8084
15076	7.5631	0.45455	0.	-4091.3
15077	7.4709	0.54545	0.	-4116.9
15078	7.5631	0.54545	5.e-002	-5.7831
15079	7.5631	0.27273	0.	-4096.1
15080	7.4709	0.36364	0.	-4121.6
15081	7.5631	0.36364	5.e-002	-5.5523
15082	7.4709	0.18182	0.	-4127.
15083	7.5631	0.18182	5.e-002	-2.2818
15084	7.5631	9.0909e-002	0.	-4099.
15085	7.3786	5.7273	0.	-4152.4
15086	7.2864	5.8182	0.	-4183.6
15087	7.3786	5.8182	5.e-002	-2.5004
15088	7.3786	5.9091	0.	-4155.6
15089	7.3786	5.5455	0.	-4147.2
15090	7.2864	5.6364	0.	-4177.9
15091	7.3786	5.6364	5.e-002	-5.6183
15092	7.3786	5.3636	0.	-4142.4
15093	7.2864	5.4545	0.	-4172.9
15094	7.3786	5.4545	5.e-002	-5.8399
15095	7.3786	5.1818	0.	-4137.8
15096	7.2864	5.2727	0.	-4168.
15097	7.3786	5.2727	5.e-002	-5.865
15098	7.3786	5.	0.	-4133.4
15099	7.2864	5.0909	0.	-4163.3
15100	7.3786	5.0909	5.e-002	-5.8752
15101	7.3786	4.8182	0.	-4129.2
15102	7.2864	4.9091	0.	-4158.8
15103	7.3786	4.9091	5.e-002	-5.8828
15104	7.3786	4.6364	0.	-4125.2
15105	7.2864	4.7273	0.	-4154.5
15106	7.3786	4.7273	5.e-002	-5.8887
15107	7.3786	4.4545	0.	-4121.6
15108	7.2864	4.5455	0.	-4150.6
15109	7.3786	4.5455	5.e-002	-5.8931
15110	7.3786	4.2727	0.	-4118.3
15111	7.2864	4.3636	0.	-4147.
15112	7.3786	4.3636	5.e-002	-5.8963
15113	7.3786	4.0909	0.	-4115.4
15114	7.2864	4.1818	0.	-4143.7
15115	7.3786	4.1818	5.e-002	-5.8984
15116	7.3786	3.9091	0.	-4112.8
15117	7.2864	4.	0.	-4140.9
15118	7.3786	4.	5.e-002	-5.8998
15119	7.3786	3.7273	0.	-4110.7
15120	7.2864	3.8182	0.	-4138.5
15121	7.3786	3.8182	5.e-002	-5.9005
15122	7.3786	3.5455	0.	-4109.1
15123	7.2864	3.6364	0.	-4136.5
15124	7.3786	3.6364	5.e-002	-5.9009
15125	7.3786	3.3636	0.	-4107.9
15126	7.2864	3.4545	0.	-4135.
15127	7.3786	3.4545	5.e-002	-5.901
15128	7.3786	3.1818	0.	-4107.2
15129	7.2864	3.2727	0.	-4134.
15130	7.3786	3.2727	5.e-002	-5.9011
15131	7.3786	3.	0.	-4106.9
15132	7.2864	3.0909	0.	-4133.5
15133	7.3786	3.0909	5.e-002	-5.901
15134	7.3786	2.8182	0.	-4107.2
15135	7.2864	2.9091	0.	-4133.5
15136	7.3786	2.9091	5.e-002	-5.901
15137	7.3786	2.6364	0.	-4107.9
15138	7.2864	2.7273	0.	-4134.
15139	7.3786	2.7273	5.e-002	-5.9011
15140	7.3786	2.4545	0.	-4109.1
15141	7.2864	2.5455	0.	-4135.
15142	7.3786	2.5455	5.e-002	-5.901
15143	7.3786	2.2727	0.	-4110.7
15144	7.2864	2.3636	0.	-4136.5
15145	7.3786	2.3636	5.e-002	-5.9009
15146	7.3786	2.0909	0.	-4112.8
15147	7.2864	2.1818	0.	-4138.5
15148	7.3786	2.1818	5.e-002	-5.9005
15149	7.3786	1.9091	0.	-4115.4
15150	7.2864	2.	0.	-4140.9
15151	7.3786	2.	5.e-002	-5.8998
15152	7.3786	1.7273	0.	-4118.3
15153	7.2864	1.8182	0.	-4143.7
15154	7.3786	1.8182	5.e-002	-5.8984
15155	7.3786	1.5455	0.	-4121.6
15156	7.2864	1.6364	0.	-4147.
15157	7.3786	1.6364	5.e-002	-5.8963
15158	7.3786	1.3636	0.	-4125.2
15159	7.2864	1.4545	0.	-4150.6
15160	7.3786	1.4545	5.e-002	-5.8931
15161	7.3786	1.1818	0.	-4129.2
15162	7.2864	1.2727	0.	-4154.5
15163	7.3786	1.2727	5.e-002	-5.8887
15164	7.3786	1.	0.	-4133.4
15165	7.2864	1.0909	0.	-4158.8
15166	7.3786	1.0909	5.e-002	-5.8828
15167	7.3786	0.81818	0.	-4137.8
15168	7.2864	0.90909	0.	-4163.3
15169	7.3786	0.90909	5.e-002	-5.8752
15170	7.3786	0.63636	0.	-4142.4
15171	7.2864	0.72727	0.	-4168.
15172	7.3786	0.72727	5.e-002	-5.8649
15173	7.3786	0.45455	0.	-4147.2
15174	7.2864	0.54545	0.	-4172.9
15175	7.3786	0.54545	5.e-002	-5.8399
15176	7.3786	0.27273	0.	-4152.4
15177	7.2864	0.36364	0.	-4177.9
15178	7.3786	0.36364	5.e-002	-5.6183
15179	7.2864	0.18182	0.	-4183.6
15180	7.3786	0.18182	5.e-002	-2.5004
15181	7.3786	9.0909e-002	0.	-4155.6
15182	7.1942	5.7273	0.	-4209.
15183	7.1019	5.8182	0.	-4240.5
15184	7.1942	5.8182	5.e-002	-2.7372
15185	7.1942	5.9091	0.	-4212.7
15186	7.1942	5.5455	0.	-4203.5
15187	7.1019	5.6364	0.	-4234.5
15188	7.1942	5.6364	5.e-002	-5.6894
15189	7.1942	5.3636	0.	-4198.4
15190	7.1019	5.4545	0.	-4229.1
15191	7.1942	5.4545	5.e-002	-5.9007
15192	7.1942	5.1818	0.	-4193.4
15193	7.1019	5.2727	0.	-4223.9
15194	7.1942	5.2727	5.e-002	-5.9254
15195	7.1942	5.	0.	-4188.6
15196	7.1019	5.0909	0.	-4218.8
15197	7.1942	5.0909	5.e-002	-5.9359
15198	7.1942	4.8182	0.	-4184.1
15199	7.1019	4.9091	0.	-4214.
15200	7.1942	4.9091	5.e-002	-5.9435
15201	7.1942	4.6364	0.	-4179.9
15202	7.1019	4.7273	0.	-4209.4
15203	7.1942	4.7273	5.e-002	-5.9492
15204	7.1942	4.4545	0.	-4175.9
15205	7.1019	4.5455	0.	-4205.1
15206	7.1942	4.5455	5.e-002	-5.9533
15207	7.1942	4.2727	0.	-4172.4
15208	7.1019	4.3636	0.	-4201.3
15209	7.1942	4.3636	5.e-002	-5.9561
15210	7.1942	4.0909	0.	-4169.2
15211	7.1019	4.1818	0.	-4197.8
15212	7.1942	4.1818	5.e-002	-5.9578
15213	7.1942	3.9091	0.	-4166.5
15214	7.1019	4.	0.	-4194.7
15215	7.1942	4.	5.e-002	-5.9587
15216	7.1942	3.7273	0.	-4164.2
15217	7.1019	3.8182	0.	-4192.1
15218	7.1942	3.8182	5.e-002	-5.959
15219	7.1942	3.5455	0.	-4162.4
15220	7.1019	3.6364	0.	-4190.
15221	7.1942	3.6364	5.e-002	-5.959
15222	7.1942	3.3636	0.	-4161.1
15223	7.1019	3.4545	0.	-4188.4
15224	7.1942	3.4545	5.e-002	-5.9588
15225	7.1942	3.1818	0.	-4160.4
15226	7.1019	3.2727	0.	-4187.3
15227	7.1942	3.2727	5.e-002	-5.9586
15228	7.1942	3.	0.	-4160.1
15229	7.1019	3.0909	0.	-4186.7
15230	7.1942	3.0909	5.e-002	-5.9585
15231	7.1942	2.8182	0.	-4160.4
15232	7.1019	2.9091	0.	-4186.7
15233	7.1942	2.9091	5.e-002	-5.9585
15234	7.1942	2.6364	0.	-4161.1
15235	7.1019	2.7273	0.	-4187.3
15236	7.1942	2.7273	5.e-002	-5.9586
15237	7.1942	2.4545	0.	-4162.4
15238	7.1019	2.5455	0.	-4188.4
15239	7.1942	2.5455	5.e-002	-5.9588
15240	7.1942	2.2727	0.	-4164.2
15241	7.1019	2.3636	0.	-4190.
15242	7.1942	2.3636	5.e-002	-5.959
15243	7.1942	2.0909	0.	-4166.5
15244	7.1019	2.1818	0.	-4192.1
15245	7.1942	2.1818	5.e-002	-5.959
15246	7.1942	1.9091	0.	-4169.2
15247	7.1019	2.	0.	-4194.7
15248	7.1942	2.	5.e-002	-5.9587
15249	7.1942	1.7273	0.	-4172.4
15250	7.1019	1.8182	0.	-4197.8
15251	7.1942	1.8182	5.e-002	-5.9578
15252	7.1942	1.5455	0.	-4175.9
15253	7.1019	1.6364	0.	-4201.3
15254	7.1942	1.6364	5.e-002	-5.9561
15255	7.1942	1.3636	0.	-4179.9
15256	7.1019	1.4545	0.	-4205.1
15257	7.1942	1.4545	5.e-002	-5.9533
15258	7.1942	1.1818	0.	-4184.1
15259	7.1019	1.2727	0.	-4209.4
15260	7.1942	1.2727	5.e-002	-5.9492
15261	7.1942	1.	0.	-4188.6
15262	7.1019	1.0909	0.	-4214.
15263	7.1942	1.0909	5.e-002	-5.9435
15264	7.1942	0.81818	0.	-4193.4
15265	7.1019	0.90909	0.	-4218.8
15266	7.1942	0.90909	5.e-002	-5.9359
15267	7.1942	0.63636	0.	-4198.4
15268	7.1019	0.72727	0.	-4223.9
15269	7.1942	0.72727	5.e-002	-5.9254
15270	7.1942	0.45455	0.	-4203.5
15271	7.1019	0.54545	0.	-4229.1
15272	7.1942	0.54545	5.e-002	-5.9007
15273	7.1942	0.27273	0.	-4209.
15274	7.1019	0.36364	0.	-4234.5
15275	7.1942	0.36364	5.e-002	-5.6894
15276	7.1019	0.18182	0.	-4240.5
15277	7.1942	0.18182	5.e-002	-2.7372
15278	7.1942	9.0909e-002	0.	-4212.7
15279	7.0097	5.7273	0.	-4266.
15280	6.9175	5.8182	0.	-4297.9
15281	7.0097	5.8182	5.e-002	-2.9938
15282	7.0097	5.9091	0.	-4270.2
15283	7.0097	5.5455	0.	-4260.2
15284	6.9175	5.6364	0.	-4291.5
15285	7.0097	5.6364	5.e-002	-5.7659
15286	7.0097	5.3636	0.	-4254.6
15287	6.9175	5.4545	0.	-4285.8
15288	7.0097	5.4545	5.e-002	-5.966
15289	7.0097	5.1818	0.	-4249.3
15290	6.9175	5.2727	0.	-4280.1
15291	7.0097	5.2727	5.e-002	-5.9904
15292	7.0097	5.	0.	-4244.1
15293	6.9175	5.0909	0.	-4274.6
15294	7.0097	5.0909	5.e-002	-6.0009
15295	7.0097	4.8182	0.	-4239.3
15296	6.9175	4.9091	0.	-4269.4
15297	7.0097	4.9091	5.e-002	-6.0084
15298	7.0097	4.6364	0.	-4234.7
15299	6.9175	4.7273	0.	-4264.5
15300	7.0097	4.7273	5.e-002	-6.0139
15301	7.0097	4.4545	0.	-4230.5
15302	6.9175	4.5455	0.	-4259.9
15303	7.0097	4.5455	5.e-002	-6.0176
15304	7.0097	4.2727	0.	-4226.6
15305	6.9175	4.3636	0.	-4255.7
15306	7.0097	4.3636	5.e-002	-6.0199
15307	7.0097	4.0909	0.	-4223.2
15308	6.9175	4.1818	0.	-4251.9
15309	7.0097	4.1818	5.e-002	-6.021
15310	7.0097	3.9091	0.	-4220.3
15311	6.9175	4.	0.	-4248.6
15312	7.0097	4.	5.e-002	-6.0214
15313	7.0097	3.7273	0.	-4217.8
15314	6.9175	3.8182	0.	-4245.8
15315	7.0097	3.8182	5.e-002	-6.0212
15316	7.0097	3.5455	0.	-4215.9
15317	6.9175	3.6364	0.	-4243.5
15318	7.0097	3.6364	5.e-002	-6.0207
15319	7.0097	3.3636	0.	-4214.5
15320	6.9175	3.4545	0.	-4241.8
15321	7.0097	3.4545	5.e-002	-6.0201
15322	7.0097	3.1818	0.	-4213.6
15323	6.9175	3.2727	0.	-4240.6
15324	7.0097	3.2727	5.e-002	-6.0196
15325	7.0097	3.	0.	-4213.3
15326	6.9175	3.0909	0.	-4240.
15327	7.0097	3.0909	5.e-002	-6.0193
15328	7.0097	2.8182	0.	-4213.6
15329	6.9175	2.9091	0.	-4240.
15330	7.0097	2.9091	5.e-002	-6.0193
15331	7.0097	2.6364	0.	-4214.5
15332	6.9175	2.7273	0.	-4240.6
15333	7.0097	2.7273	5.e-002	-6.0196
15334	7.0097	2.4545	0.	-4215.9
15335	6.9175	2.5455	0.	-4241.8
15336	7.0097	2.5455	5.e-002	-6.0201
15337	7.0097	2.2727	0.	-4217.8
15338	6.9175	2.3636	0.	-4243.5
15339	7.0097	2.3636	5.e-002	-6.0207
15340	7.0097	2.0909	0.	-4220.3
15341	6.9175	2.1818	0.	-4245.8
15342	7.0097	2.1818	5.e-002	-6.0212
15343	7.0097	1.9091	0.	-4223.2
15344	6.9175	2.	0.	-4248.6
15345	7.0097	2.	5.e-002	-6.0214
15346	7.0097	1.7273	0.	-4226.6
15347	6.9175	1.8182	0.	-4251.9
15348	7.0097	1.8182	5.e-002	-6.021
15349	7.0097	1.5455	0.	-4230.5
15350	6.9175	1.6364	0.	-4255.7
15351	7.0097	1.6364	5.e-002	-6.0199
15352	7.0097	1.3636	0.	-4234.7
15353	6.9175	1.4545	0.	-4259.9
15354	7.0097	1.4545	5.e-002	-6.0176
15355	7.0097	1.1818	0.	-4239.3
15356	6.9175	1.2727	0.	-4264.5
15357	7.0097	1.2727	5.e-002	-6.0139
15358	7.0097	1.	0.	-4244.1
15359	6.9175	1.0909	0.	-4269.4
15360	7.0097	1.0909	5.e-002	-6.0084
15361	7.0097	0.81818	0.	-4249.3
15362	6.9175	0.90909	0.	-4274.6
15363	7.0097	0.90909	5.e-002	-6.0009
15364	7.0097	0.63636	0.	-4254.6
15365	6.9175	0.72727	0.	-4280.1
15366	7.0097	0.72727	5.e-002	-5.9904
15367	7.0097	0.45455	0.	-4260.2
15368	6.9175	0.54545	0.	-4285.8
15369	7.0097	0.54545	5.e-002	-5.966
15370	7.0097	0.27273	0.	-4266.
15371	6.9175	0.36364	0.	-4291.5
15372	7.0097	0.36364	5.e-002	-5.7659
15373	6.9175	0.18182	0.	-4297.9
15374	7.0097	0.18182	5.e-002	-2.9938
15375	7.0097	9.0909e-002	0.	-4270.2
15376	6.8252	5.7273	0.	-4323.4
15377	6.733	5.8182	0.	-4355.6
15378	6.8252	5.8182	5.e-002	-3.2717
15379	6.8252	5.9091	0.	-4328.1
15380	6.8252	5.5455	0.	-4317.1
15381	6.733	5.6364	0.	-4348.9
15382	6.8252	5.6364	5.e-002	-5.8484
15383	6.8252	5.3636	0.	-4311.2
15384	6.733	5.4545	0.	-4342.7
15385	6.8252	5.4545	5.e-002	-6.0364
15386	6.8252	5.1818	0.	-4305.5
15387	6.733	5.2727	0.	-4336.6
15388	6.8252	5.2727	5.e-002	-6.0602
15389	6.8252	5.	0.	-4299.9
15390	6.733	5.0909	0.	-4330.8
15391	6.8252	5.0909	5.e-002	-6.0707
15392	6.8252	4.8182	0.	-4294.7
15393	6.733	4.9091	0.	-4325.1
15394	6.8252	4.9091	5.e-002	-6.0781
15395	6.8252	4.6364	0.	-4289.7
15396	6.733	4.7273	0.	-4319.8
15397	6.8252	4.7273	5.e-002	-6.0832
15398	6.8252	4.4545	0.	-4285.2
15399	6.733	4.5455	0.	-4314.9
15400	6.8252	4.5455	5.e-002	-6.0864
15401	6.8252	4.2727	0.	-4281.
15402	6.733	4.3636	0.	-4310.3
15403	6.8252	4.3636	5.e-002	-6.0881
15404	6.8252	4.0909	0.	-4277.3
15405	6.733	4.1818	0.	-4306.2
15406	6.8252	4.1818	5.e-002	-6.0886
15407	6.8252	3.9091	0.	-4274.1
15408	6.733	4.	0.	-4302.7
15409	6.8252	4.	5.e-002	-6.0882
15410	6.8252	3.7273	0.	-4271.5
15411	6.733	3.8182	0.	-4299.6
15412	6.8252	3.8182	5.e-002	-6.0874
15413	6.8252	3.5455	0.	-4269.4
15414	6.733	3.6364	0.	-4297.1
15415	6.8252	3.6364	5.e-002	-6.0863
15416	6.8252	3.3636	0.	-4267.9
15417	6.733	3.4545	0.	-4295.2
15418	6.8252	3.4545	5.e-002	-6.0853
15419	6.8252	3.1818	0.	-4267.
15420	6.733	3.2727	0.	-4294.
15421	6.8252	3.2727	5.e-002	-6.0845
15422	6.8252	3.	0.	-4266.7
15423	6.733	3.0909	0.	-4293.3
15424	6.8252	3.0909	5.e-002	-6.0841
15425	6.8252	2.8182	0.	-4267.
15426	6.733	2.9091	0.	-4293.3
15427	6.8252	2.9091	5.e-002	-6.0841
15428	6.8252	2.6364	0.	-4267.9
15429	6.733	2.7273	0.	-4294.
15430	6.8252	2.7273	5.e-002	-6.0845
15431	6.8252	2.4545	0.	-4269.4
15432	6.733	2.5455	0.	-4295.2
15433	6.8252	2.5455	5.e-002	-6.0853
15434	6.8252	2.2727	0.	-4271.5
15435	6.733	2.3636	0.	-4297.1
15436	6.8252	2.3636	5.e-002	-6.0863
15437	6.8252	2.0909	0.	-4274.1
15438	6.733	2.1818	0.	-4299.6
15439	6.8252	2.1818	5.e-002	-6.0874
15440	6.8252	1.9091	0.	-4277.3
15441	6.733	2.	0.	-4302.7
15442	6.8252	2.	5.e-002	-6.0882
15443	6.8252	1.7273	0.	-4281.
15444	6.733	1.8182	0.	-4306.2
15445	6.8252	1.8182	5.e-002	-6.0886
15446	6.8252	1.5455	0.	-4285.2
15447	6.733	1.6364	0.	-4310.3
15448	6.8252	1.6364	5.e-002	-6.0881
15449	6.8252	1.3636	0.	-4289.7
15450	6.733	1.4545	0.	-4314.9
15451	6.8252	1.4545	5.e-002	-6.0864
15452	6.8252	1.1818	0.	-4294.7
15453	6.733	1.2727	0.	-4319.8
15454	6.8252	1.2727	5.e-002	-6.0832
15455	6.8252	1.	0.	-4299.9
15456	6.733	1.0909	0.	-4325.1
15457	6.8252	1.0909	5.e-002	-6.0781
15458	6.8252	0.81818	0.	-4305.5
15459	6.733	0.90909	0.	-4330.8
15460	6.8252	0.90909	5.e-002	-6.0707
15461	6.8252	0.63636	0.	-4311.2
15462	6.733	0.72727	0.	-4336.6
15463	6.8252	0.72727	5.e-002	-6.0602
15464	6.8252	0.45455	0.	-4317.1
15465	6.733	0.54545	0.	-4342.7
15466	6.8252	0.54545	5.e-002	-6.0364
15467	6.8252	0.27273	0.	-4323.4
15468	6.733	0.36364	0.	-4348.9
15469	6.8252	0.36364	5.e-002	-5.8484
15470	6.733	0.18182	0.	-4355.6
15471	6.8252	0.18182	5.e-002	-3.2717
15472	6.8252	9.0909e-002	0.	-4328.1
15473	6.6408	5.7273	0.	-4381.2
15474	6.5485	5.8182	0.	-4413.8
15475	6.6408	5.8182	5.e-002	-3.5724
15476	6.6408	5.9091	0.	-4386.4
15477	6.6408	5.5455	0.	-4374.5
15478	6.5485	5.6364	0.	-4406.7
15479	6.6408	5.6364	5.e-002	-5.9376
15480	6.6408	5.3636	0.	-4368.1
15481	6.5485	5.4545	0.	-4400.
15482	6.6408	5.4545	5.e-002	-6.1122
15483	6.6408	5.1818	0.	-4361.9
15484	6.5485	5.2727	0.	-4393.5
15485	6.6408	5.2727	5.e-002	-6.1354
15486	6.6408	5.	0.	-4356.
15487	6.5485	5.0909	0.	-4387.2
15488	6.6408	5.0909	5.e-002	-6.1459
15489	6.6408	4.8182	0.	-4350.3
15490	6.5485	4.9091	0.	-4381.1
15491	6.6408	4.9091	5.e-002	-6.153
15492	6.6408	4.6364	0.	-4345.
15493	6.5485	4.7273	0.	-4375.4
15494	6.6408	4.7273	5.e-002	-6.1577
15495	6.6408	4.4545	0.	-4340.
15496	6.5485	4.5455	0.	-4370.
15497	6.6408	4.5455	5.e-002	-6.1603
15498	6.6408	4.2727	0.	-4335.6
15499	6.5485	4.3636	0.	-4365.1
15500	6.6408	4.3636	5.e-002	-6.1612
15501	6.6408	4.0909	0.	-4331.6
15502	6.5485	4.1818	0.	-4360.7
15503	6.6408	4.1818	5.e-002	-6.1609
15504	6.6408	3.9091	0.	-4328.1
15505	6.5485	4.	0.	-4356.8
15506	6.6408	4.	5.e-002	-6.1597
15507	6.6408	3.7273	0.	-4325.3
15508	6.5485	3.8182	0.	-4353.5
15509	6.6408	3.8182	5.e-002	-6.1581
15510	6.6408	3.5455	0.	-4323.
15511	6.5485	3.6364	0.	-4350.8
15512	6.6408	3.6364	5.e-002	-6.1564
15513	6.6408	3.3636	0.	-4321.3
15514	6.5485	3.4545	0.	-4348.8
15515	6.6408	3.4545	5.e-002	-6.1548
15516	6.6408	3.1818	0.	-4320.4
15517	6.5485	3.2727	0.	-4347.4
15518	6.6408	3.2727	5.e-002	-6.1536
15519	6.6408	3.	0.	-4320.
15520	6.5485	3.0909	0.	-4346.7
15521	6.6408	3.0909	5.e-002	-6.1529
15522	6.6408	2.8182	0.	-4320.4
15523	6.5485	2.9091	0.	-4346.7
15524	6.6408	2.9091	5.e-002	-6.1529
15525	6.6408	2.6364	0.	-4321.3
15526	6.5485	2.7273	0.	-4347.4
15527	6.6408	2.7273	5.e-002	-6.1536
15528	6.6408	2.4545	0.	-4323.
15529	6.5485	2.5455	0.	-4348.8
15530	6.6408	2.5455	5.e-002	-6.1548
15531	6.6408	2.2727	0.	-4325.3
15532	6.5485	2.3636	0.	-4350.8
15533	6.6408	2.3636	5.e-002	-6.1564
15534	6.6408	2.0909	0.	-4328.1
15535	6.5485	2.1818	0.	-4353.5
15536	6.6408	2.1818	5.e-002	-6.1581
15537	6.6408	1.9091	0.	-4331.6
15538	6.5485	2.	0.	-4356.8
15539	6.6408	2.	5.e-002	-6.1597
15540	6.6408	1.7273	0.	-4335.6
15541	6.5485	1.8182	0.	-4360.7
15542	6.6408	1.8182	5.e-002	-6.1609
15543	6.6408	1.5455	0.	-4340.
15544	6.5485	1.6364	0.	-4365.1
15545	6.6408	1.6364	5.e-002	-6.1612
15546	6.6408	1.3636	0.	-4345.
15547	6.5485	1.4545	0.	-4370.
15548	6.6408	1.4545	5.e-002	-6.1603
15549	6.6408	1.1818	0.	-4350.3
15550	6.5485	1.2727	0.	-4375.4
15551	6.6408	1.2727	5.e-002	-6.1577
15552	6.6408	1.	0.	-4356.
15553	6.5485	1.0909	0.	-4381.1
15554	6.6408	1.0909	5.e-002	-6.153
15555	6.6408	0.81818	0.	-4361.9
15556	6.5485	0.90909	0.	-4387.2
15557	6.6408	0.90909	5.e-002	-6.1459
15558	6.6408	0.63636	0.	-4368.1
15559	6.5485	0.72727	0.	-4393.5
15560	6.6408	0.72727	5.e-002	-6.1354
15561	6.6408	0.45455	0.	-4374.5
15562	6.5485	0.54545	0.	-4400.
15563	6.6408	0.54545	5.e-002	-6.1122
15564	6.6408	0.27273	0.	-4381.2
15565	6.5485	0.36364	0.	-4406.7
15566	6.6408	0.36364	5.e-002	-5.9376
15567	6.5485	0.18182	0.	-4413.8
15568	6.6408	0.18182	5.e-002	-3.5724
15569	6.6408	9.0909e-002	0.	-4386.4
15570	6.4563	5.7273	0.	-4439.4
15571	6.3641	5.8182	0.	-4472.5
15572	6.4563	5.8182	5.e-002	-3.8977
15573	6.4563	5.9091	0.	-4445.1
15574	6.4563	5.5455	0.	-4432.2
15575	6.3641	5.6364	0.	-4464.9
15576	6.4563	5.6364	5.e-002	-6.0341
15577	6.4563	5.3636	0.	-4425.4
15578	6.3641	5.4545	0.	-4457.7
15579	6.4563	5.4545	5.e-002	-6.1942
15580	6.4563	5.1818	0.	-4418.7
15581	6.3641	5.2727	0.	-4450.7
15582	6.4563	5.2727	5.e-002	-6.2166
15583	6.4563	5.	0.	-4412.3
15584	6.3641	5.0909	0.	-4443.9
15585	6.4563	5.0909	5.e-002	-6.2271
15586	6.4563	4.8182	0.	-4406.2
15587	6.3641	4.9091	0.	-4437.3
15588	6.4563	4.9091	5.e-002	-6.2339
15589	6.4563	4.6364	0.	-4400.4
15590	6.3641	4.7273	0.	-4431.1
15591	6.4563	4.7273	5.e-002	-6.2379
15592	6.4563	4.4545	0.	-4395.1
15593	6.3641	4.5455	0.	-4425.4
15594	6.4563	4.5455	5.e-002	-6.2397
15595	6.4563	4.2727	0.	-4390.3
15596	6.3641	4.3636	0.	-4420.1
15597	6.4563	4.3636	5.e-002	-6.2398
15598	6.4563	4.0909	0.	-4385.9
15599	6.3641	4.1818	0.	-4415.3
15600	6.4563	4.1818	5.e-002	-6.2385
15601	6.4563	3.9091	0.	-4382.2
15602	6.3641	4.	0.	-4411.1
15603	6.4563	4.	5.e-002	-6.2364
15604	6.4563	3.7273	0.	-4379.1
15605	6.3641	3.8182	0.	-4407.5
15606	6.4563	3.8182	5.e-002	-6.2339
15607	6.4563	3.5455	0.	-4376.6
15608	6.3641	3.6364	0.	-4404.6
15609	6.4563	3.6364	5.e-002	-6.2313
15610	6.4563	3.3636	0.	-4374.9
15611	6.3641	3.4545	0.	-4402.4
15612	6.4563	3.4545	5.e-002	-6.229
15613	6.4563	3.1818	0.	-4373.8
15614	6.3641	3.2727	0.	-4400.9
15615	6.4563	3.2727	5.e-002	-6.2274
15616	6.4563	3.	0.	-4373.4
15617	6.3641	3.0909	0.	-4400.2
15618	6.4563	3.0909	5.e-002	-6.2265
15619	6.4563	2.8182	0.	-4373.8
15620	6.3641	2.9091	0.	-4400.2
15621	6.4563	2.9091	5.e-002	-6.2265
15622	6.4563	2.6364	0.	-4374.9
15623	6.3641	2.7273	0.	-4400.9
15624	6.4563	2.7273	5.e-002	-6.2274
15625	6.4563	2.4545	0.	-4376.6
15626	6.3641	2.5455	0.	-4402.4
15627	6.4563	2.5455	5.e-002	-6.229
15628	6.4563	2.2727	0.	-4379.1
15629	6.3641	2.3636	0.	-4404.6
15630	6.4563	2.3636	5.e-002	-6.2313
15631	6.4563	2.0909	0.	-4382.2
15632	6.3641	2.1818	0.	-4407.5
15633	6.4563	2.1818	5.e-002	-6.2339
15634	6.4563	1.9091	0.	-4385.9
15635	6.3641	2.	0.	-4411.1
15636	6.4563	2.	5.e-002	-6.2364
15637	6.4563	1.7273	0.	-4390.3
15638	6.3641	1.8182	0.	-4415.3
15639	6.4563	1.8182	5.e-002	-6.2385
15640	6.4563	1.5455	0.	-4395.1
15641	6.3641	1.6364	0.	-4420.1
15642	6.4563	1.6364	5.e-002	-6.2398
15643	6.4563	1.3636	0.	-4400.4
15644	6.3641	1.4545	0.	-4425.4
15645	6.4563	1.4545	5.e-002	-6.2397
15646	6.4563	1.1818	0.	-4406.2
15647	6.3641	1.2727	0.	-4431.1
15648	6.4563	1.2727	5.e-002	-6.2379
15649	6.4563	1.	0.	-4412.3
15650	6.3641	1.0909	0.	-4437.3
15651	6.4563	1.0909	5.e-002	-6.2339
15652	6.4563	0.81818	0.	-4418.7
15653	6.3641	0.90909	0.	-4443.9
15654	6.4563	0.90909	5.e-002	-6.2271
15655	6.4563	0.63636	0.	-4425.4
15656	6.3641	0.72727	0.	-4450.7
15657	6.4563	0.72727	5.e-002	-6.2166
15658	6.4563	0.45455	0.	-4432.2
15659	6.3641	0.54545	0.	-4457.7
15660	6.4563	0.54545	5.e-002	-6.1942
15661	6.4563	0.27273	0.	-4439.4
15662	6.3641	0.36364	0.	-4464.9
15663	6.4563	0.36364	5.e-002	-6.0341
15664	6.3641	0.18182	0.	-4472.5
15665	6.4563	0.18182	5.e-002	-3.8977
15666	6.4563	9.0909e-002	0.	-4445.1
15667	6.2718	5.7273	0.	-4498.
15668	6.1796	5.8182	0.	-4531.6
15669	6.2718	5.8182	5.e-002	-4.2495
15670	6.2718	5.9091	0.	-4504.4
15671	6.2718	5.5455	0.	-4490.4
15672	6.1796	5.6364	0.	-4523.5
15673	6.2718	5.6364	5.e-002	-6.1387
15674	6.2718	5.3636	0.	-4483.
15675	6.1796	5.4545	0.	-4515.8
15676	6.2718	5.4545	5.e-002	-6.2829
15677	6.2718	5.1818	0.	-4475.8
15678	6.1796	5.2727	0.	-4508.2
15679	6.2718	5.2727	5.e-002	-6.3045
15680	6.2718	5.	0.	-4468.9
15681	6.1796	5.0909	0.	-4500.9
15682	6.2718	5.0909	5.e-002	-6.3148
15683	6.2718	4.8182	0.	-4462.3
15684	6.1796	4.9091	0.	-4493.8
15685	6.2718	4.9091	5.e-002	-6.3211
15686	6.2718	4.6364	0.	-4456.1
15687	6.1796	4.7273	0.	-4487.1
15688	6.2718	4.7273	5.e-002	-6.3245
15689	6.2718	4.4545	0.	-4450.3
15690	6.1796	4.5455	0.	-4480.9
15691	6.2718	4.5455	5.e-002	-6.3254
15692	6.2718	4.2727	0.	-4445.1
15693	6.1796	4.3636	0.	-4475.2
15694	6.2718	4.3636	5.e-002	-6.3244
15695	6.2718	4.0909	0.	-4440.4
15696	6.1796	4.1818	0.	-4470.
15697	6.2718	4.1818	5.e-002	-6.322
15698	6.2718	3.9091	0.	-4436.4
15699	6.1796	4.	0.	-4465.5
15700	6.2718	4.	5.e-002	-6.3187
15701	6.2718	3.7273	0.	-4433.
15702	6.1796	3.8182	0.	-4461.6
15703	6.2718	3.8182	5.e-002	-6.3151
15704	6.2718	3.5455	0.	-4430.4
15705	6.1796	3.6364	0.	-4458.5
15706	6.2718	3.6364	5.e-002	-6.3116
15707	6.2718	3.3636	0.	-4428.5
15708	6.1796	3.4545	0.	-4456.1
15709	6.2718	3.4545	5.e-002	-6.3087
15710	6.2718	3.1818	0.	-4427.3
15711	6.1796	3.2727	0.	-4454.5
15712	6.2718	3.2727	5.e-002	-6.3065
15713	6.2718	3.	0.	-4426.9
15714	6.1796	3.0909	0.	-4453.6
15715	6.2718	3.0909	5.e-002	-6.3053
15716	6.2718	2.8182	0.	-4427.3
15717	6.1796	2.9091	0.	-4453.6
15718	6.2718	2.9091	5.e-002	-6.3053
15719	6.2718	2.6364	0.	-4428.5
15720	6.1796	2.7273	0.	-4454.5
15721	6.2718	2.7273	5.e-002	-6.3065
15722	6.2718	2.4545	0.	-4430.4
15723	6.1796	2.5455	0.	-4456.1
15724	6.2718	2.5455	5.e-002	-6.3087
15725	6.2718	2.2727	0.	-4433.
15726	6.1796	2.3636	0.	-4458.5
15727	6.2718	2.3636	5.e-002	-6.3116
15728	6.2718	2.0909	0.	-4436.4
15729	6.1796	2.1818	0.	-4461.6
15730	6.2718	2.1818	5.e-002	-6.3151
15731	6.2718	1.9091	0.	-4440.4
15732	6.1796	2.	0.	-4465.5
15733	6.2718	2.	5.e-002	-6.3187
15734	6.2718	1.7273	0.	-4445.1
15735	6.1796	1.8182	0.	-4470.
15736	6.2718	1.8182	5.e-002	-6.322
15737	6.2718	1.5455	0.	-4450.3
15738	6.1796	1.6364	0.	-4475.2
15739	6.2718	1.6364	5.e-002	-6.3244
15740	6.2718	1.3636	0.	-4456.1
15741	6.1796	1.4545	0.	-4480.9
15742	6.2718	1.4545	5.e-002	-6.3254
15743	6.2718	1.1818	0.	-4462.3
15744	6.1796	1.2727	0.	-4487.1
15745	6.2718	1.2727	5.e-002	-6.3245
15746	6.2718	1.	0.	-4468.9
15747	6.1796	1.0909	0.	-4493.8
15748	6.2718	1.0909	5.e-002	-6.3211
15749	6.2718	0.81818	0.	-4475.8
15750	6.1796	0.90909	0.	-4500.9
15751	6.2718	0.90909	5.e-002	-6.3148
15752	6.2718	0.63636	0.	-4483.
15753	6.1796	0.72727	0.	-4508.2
15754	6.2718	0.72727	5.e-002	-6.3045
15755	6.2718	0.45455	0.	-4490.4
15756	6.1796	0.54545	0.	-4515.8
15757	6.2718	0.54545	5.e-002	-6.2829
15758	6.2718	0.27273	0.	-4498.
15759	6.1796	0.36364	0.	-4523.5
15760	6.2718	0.36364	5.e-002	-6.1387
15761	6.1796	0.18182	0.	-4531.6
15762	6.2718	0.18182	5.e-002	-4.2495
15763	6.2718	9.0909e-002	0.	-4504.4
15764	6.0874	5.7273	0.	-4557.1
15765	5.9951	5.8182	0.	-4591.3
15766	6.0874	5.8182	5.e-002	-4.6296
15767	6.0874	5.9091	0.	-4564.1
15768	6.0874	5.5455	0.	-4548.9
15769	5.9951	5.6364	0.	-4582.6
15770	6.0874	5.6364	5.e-002	-6.252
15771	6.0874	5.3636	0.	-4541.
15772	5.9951	5.4545	0.	-4574.3
15773	6.0874	5.4545	5.e-002	-6.3792
15774	6.0874	5.1818	0.	-4533.3
15775	5.9951	5.2727	0.	-4566.1
15776	6.0874	5.2727	5.e-002	-6.3998
15777	6.0874	5.	0.	-4525.8
15778	5.9951	5.0909	0.	-4558.2
15779	6.0874	5.0909	5.e-002	-6.4098
15780	6.0874	4.8182	0.	-4518.7
15781	5.9951	4.9091	0.	-4550.6
15782	6.0874	4.9091	5.e-002	-6.4156
15783	6.0874	4.6364	0.	-4512.
15784	5.9951	4.7273	0.	-4543.4
15785	6.0874	4.7273	5.e-002	-6.4181
15786	6.0874	4.4545	0.	-4505.8
15787	5.9951	4.5455	0.	-4536.7
15788	6.0874	4.5455	5.e-002	-6.418
15789	6.0874	4.2727	0.	-4500.1
15790	5.9951	4.3636	0.	-4530.5
15791	6.0874	4.3636	5.e-002	-6.4158
15792	6.0874	4.0909	0.	-4495.1
15793	5.9951	4.1818	0.	-4524.9
15794	6.0874	4.1818	5.e-002	-6.412
15795	6.0874	3.9091	0.	-4490.7
15796	5.9951	4.	0.	-4520.
15797	6.0874	4.	5.e-002	-6.4075
15798	6.0874	3.7273	0.	-4487.
15799	5.9951	3.8182	0.	-4515.8
15800	6.0874	3.8182	5.e-002	-6.4026
15801	6.0874	3.5455	0.	-4484.2
15802	5.9951	3.6364	0.	-4512.4
15803	6.0874	3.6364	5.e-002	-6.398
15804	6.0874	3.3636	0.	-4482.1
15805	5.9951	3.4545	0.	-4509.8
15806	6.0874	3.4545	5.e-002	-6.3942
15807	6.0874	3.1818	0.	-4480.8
15808	5.9951	3.2727	0.	-4508.
15809	6.0874	3.2727	5.e-002	-6.3914
15810	6.0874	3.	0.	-4480.4
15811	5.9951	3.0909	0.	-4507.2
15812	6.0874	3.0909	5.e-002	-6.39
15813	6.0874	2.8182	0.	-4480.8
15814	5.9951	2.9091	0.	-4507.2
15815	6.0874	2.9091	5.e-002	-6.39
15816	6.0874	2.6364	0.	-4482.1
15817	5.9951	2.7273	0.	-4508.
15818	6.0874	2.7273	5.e-002	-6.3914
15819	6.0874	2.4545	0.	-4484.2
15820	5.9951	2.5455	0.	-4509.8
15821	6.0874	2.5455	5.e-002	-6.3942
15822	6.0874	2.2727	0.	-4487.
15823	5.9951	2.3636	0.	-4512.4
15824	6.0874	2.3636	5.e-002	-6.398
15825	6.0874	2.0909	0.	-4490.7
15826	5.9951	2.1818	0.	-4515.8
15827	6.0874	2.1818	5.e-002	-6.4027
15828	6.0874	1.9091	0.	-4495.1
15829	5.9951	2.	0.	-4520.
15830	6.0874	2.	5.e-002	-6.4075
15831	6.0874	1.7273	0.	-4500.1
15832	5.9951	1.8182	0.	-4524.9
15833	6.0874	1.8182	5.e-002	-6.412
15834	6.0874	1.5455	0.	-4505.8
15835	5.9951	1.6364	0.	-4530.5
15836	6.0874	1.6364	5.e-002	-6.4158
15837	6.0874	1.3636	0.	-4512.
15838	5.9951	1.4545	0.	-4536.7
15839	6.0874	1.4545	5.e-002	-6.418
15840	6.0874	1.1818	0.	-4518.7
15841	5.9951	1.2727	0.	-4543.4
15842	6.0874	1.2727	5.e-002	-6.4181
15843	6.0874	1.	0.	-4525.8
15844	5.9951	1.0909	0.	-4550.6
15845	6.0874	1.0909	5.e-002	-6.4156
15846	6.0874	0.81818	0.	-4533.3
15847	5.9951	0.90909	0.	-4558.2
15848	6.0874	0.90909	5.e-002	-6.4098
15849	6.0874	0.63636	0.	-4541.
15850	5.9951	0.72727	0.	-4566.1
15851	6.0874	0.72727	5.e-002	-6.3998
15852	6.0874	0.45455	0.	-4548.9
15853	5.9951	0.54545	0.	-4574.3
15854	6.0874	0.54545	5.e-002	-6.3792
15855	6.0874	0.27273	0.	-4557.1
15856	5.9951	0.36364	0.	-4582.6
15857	6.0874	0.36364	5.e-002	-6.252
15858	5.9951	0.18182	0.	-4591.3
15859	6.0874	0.18182	5.e-002	-4.6296
15860	6.0874	9.0909e-002	0.	-4564.1
15861	5.9029	5.7273	0.	-4616.7
15862	5.8107	5.8182	0.	-4651.4
15863	5.9029	5.8182	5.e-002	-5.0403
15864	5.9029	5.9091	0.	-4624.3
15865	5.9029	5.5455	0.	-4607.9
15866	5.8107	5.6364	0.	-4642.1
15867	5.9029	5.6364	5.e-002	-6.3748
15868	5.9029	5.3636	0.	-4599.4
15869	5.8107	5.4545	0.	-4633.2
15870	5.9029	5.4545	5.e-002	-6.4837
15871	5.9029	5.1818	0.	-4591.1
15872	5.8107	5.2727	0.	-4624.4
15873	5.9029	5.2727	5.e-002	-6.5033
15874	5.9029	5.	0.	-4583.
15875	5.8107	5.0909	0.	-4615.9
15876	5.9029	5.0909	5.e-002	-6.5129
15877	5.9029	4.8182	0.	-4575.3
15878	5.8107	4.9091	0.	-4607.7
15879	5.9029	4.9091	5.e-002	-6.5181
15880	5.9029	4.6364	0.	-4568.1
15881	5.8107	4.7273	0.	-4599.9
15882	5.9029	4.7273	5.e-002	-6.5197
15883	5.9029	4.4545	0.	-4561.4
15884	5.8107	4.5455	0.	-4592.6
15885	5.9029	4.5455	5.e-002	-6.5183
15886	5.9029	4.2727	0.	-4555.3
15887	5.8107	4.3636	0.	-4585.9
15888	5.9029	4.3636	5.e-002	-6.5147
15889	5.9029	4.0909	0.	-4549.8
15890	5.8107	4.1818	0.	-4579.9
15891	5.9029	4.1818	5.e-002	-6.5094
15892	5.9029	3.9091	0.	-4545.1
15893	5.8107	4.	0.	-4574.6
15894	5.9029	4.	5.e-002	-6.5034
15895	5.9029	3.7273	0.	-4541.1
15896	5.8107	3.8182	0.	-4570.
15897	5.9029	3.8182	5.e-002	-6.4971
15898	5.9029	3.5455	0.	-4538.
15899	5.8107	3.6364	0.	-4566.4
15900	5.9029	3.6364	5.e-002	-6.4913
15901	5.9029	3.3636	0.	-4535.7
15902	5.8107	3.4545	0.	-4563.5
15903	5.9029	3.4545	5.e-002	-6.4864
15904	5.9029	3.1818	0.	-4534.4
15905	5.8107	3.2727	0.	-4561.7
15906	5.9029	3.2727	5.e-002	-6.4829
15907	5.9029	3.	0.	-4533.9
15908	5.8107	3.0909	0.	-4560.7
15909	5.9029	3.0909	5.e-002	-6.481
15910	5.9029	2.8182	0.	-4534.4
15911	5.8107	2.9091	0.	-4560.7
15912	5.9029	2.9091	5.e-002	-6.481
15913	5.9029	2.6364	0.	-4535.7
15914	5.8107	2.7273	0.	-4561.7
15915	5.9029	2.7273	5.e-002	-6.4829
15916	5.9029	2.4545	0.	-4538.
15917	5.8107	2.5455	0.	-4563.5
15918	5.9029	2.5455	5.e-002	-6.4864
15919	5.9029	2.2727	0.	-4541.1
15920	5.8107	2.3636	0.	-4566.4
15921	5.9029	2.3636	5.e-002	-6.4913
15922	5.9029	2.0909	0.	-4545.1
15923	5.8107	2.1818	0.	-4570.
15924	5.9029	2.1818	5.e-002	-6.4971
15925	5.9029	1.9091	0.	-4549.8
15926	5.8107	2.	0.	-4574.6
15927	5.9029	2.	5.e-002	-6.5034
15928	5.9029	1.7273	0.	-4555.3
15929	5.8107	1.8182	0.	-4579.9
15930	5.9029	1.8182	5.e-002	-6.5094
15931	5.9029	1.5455	0.	-4561.4
15932	5.8107	1.6364	0.	-4585.9
15933	5.9029	1.6364	5.e-002	-6.5147
15934	5.9029	1.3636	0.	-4568.1
15935	5.8107	1.4545	0.	-4592.6
15936	5.9029	1.4545	5.e-002	-6.5183
15937	5.9029	1.1818	0.	-4575.3
15938	5.8107	1.2727	0.	-4599.9
15939	5.9029	1.2727	5.e-002	-6.5197
15940	5.9029	1.	0.	-4583.
15941	5.8107	1.0909	0.	-4607.7
15942	5.9029	1.0909	5.e-002	-6.5181
15943	5.9029	0.81818	0.	-4591.1
15944	5.8107	0.90909	0.	-4615.9
15945	5.9029	0.90909	5.e-002	-6.5129
15946	5.9029	0.63636	0.	-4599.4
15947	5.8107	0.72727	0.	-4624.4
15948	5.9029	0.72727	5.e-002	-6.5033
15949	5.9029	0.45455	0.	-4607.9
15950	5.8107	0.54545	0.	-4633.2
15951	5.9029	0.54545	5.e-002	-6.4838
15952	5.9029	0.27273	0.	-4616.7
15953	5.8107	0.36364	0.	-4642.1
15954	5.9029	0.36364	5.e-002	-6.3748
15955	5.8107	0.18182	0.	-4651.4
15956	5.9029	0.18182	5.e-002	-5.0403
15957	5.9029	9.0909e-002	0.	-4624.3
15958	5.7184	5.7273	0.	-4676.8
15959	5.6262	5.8182	0.	-4712.1
15960	5.7184	5.8182	5.e-002	-5.4835
15961	5.7184	5.9091	0.	-4685.1
15962	5.7184	5.5455	0.	-4667.4
15963	5.6262	5.6364	0.	-4702.2
15964	5.7184	5.6364	5.e-002	-6.5082
15965	5.7184	5.3636	0.	-4658.2
15966	5.6262	5.4545	0.	-4692.6
15967	5.7184	5.4545	5.e-002	-6.5974
15968	5.7184	5.1818	0.	-4649.2
15969	5.6262	5.2727	0.	-4683.1
15970	5.7184	5.2727	5.e-002	-6.6158
15971	5.7184	5.	0.	-4640.5
15972	5.6262	5.0909	0.	-4673.9
15973	5.7184	5.0909	5.e-002	-6.625
15974	5.7184	4.8182	0.	-4632.2
15975	5.6262	4.9091	0.	-4665.
15976	5.7184	4.9091	5.e-002	-6.6295
15977	5.7184	4.6364	0.	-4624.4
15978	5.6262	4.7273	0.	-4656.6
15979	5.7184	4.7273	5.e-002	-6.63
15980	5.7184	4.4545	0.	-4617.2
15981	5.6262	4.5455	0.	-4648.8
15982	5.7184	4.5455	5.e-002	-6.6272
15983	5.7184	4.2727	0.	-4610.6
15984	5.6262	4.3636	0.	-4641.6
15985	5.7184	4.3636	5.e-002	-6.622
15986	5.7184	4.0909	0.	-4604.7
15987	5.6262	4.1818	0.	-4635.
15988	5.7184	4.1818	5.e-002	-6.615
15989	5.7184	3.9091	0.	-4599.5
15990	5.6262	4.	0.	-4629.3
15991	5.7184	4.	5.e-002	-6.6072
15992	5.7184	3.7273	0.	-4595.3
15993	5.6262	3.8182	0.	-4624.4
15994	5.7184	3.8182	5.e-002	-6.5993
15995	5.7184	3.5455	0.	-4591.9
15996	5.6262	3.6364	0.	-4620.4
15997	5.7184	3.6364	5.e-002	-6.5921
15998	5.7184	3.3636	0.	-4589.5
15999	5.6262	3.4545	0.	-4617.4
16000	5.7184	3.4545	5.e-002	-6.586
16001	5.7184	3.1818	0.	-4588.
16002	5.6262	3.2727	0.	-4615.3
16003	5.7184	3.2727	5.e-002	-6.5817
16004	5.7184	3.	0.	-4587.5
16005	5.6262	3.0909	0.	-4614.3
16006	5.7184	3.0909	5.e-002	-6.5795
16007	5.7184	2.8182	0.	-4588.
16008	5.6262	2.9091	0.	-4614.3
16009	5.7184	2.9091	5.e-002	-6.5795
16010	5.7184	2.6364	0.	-4589.5
16011	5.6262	2.7273	0.	-4615.3
16012	5.7184	2.7273	5.e-002	-6.5817
16013	5.7184	2.4545	0.	-4591.9
16014	5.6262	2.5455	0.	-4617.4
16015	5.7184	2.5455	5.e-002	-6.586
16016	5.7184	2.2727	0.	-4595.3
16017	5.6262	2.3636	0.	-4620.4
16018	5.7184	2.3636	5.e-002	-6.5921
16019	5.7184	2.0909	0.	-4599.5
16020	5.6262	2.1818	0.	-4624.4
16021	5.7184	2.1818	5.e-002	-6.5993
16022	5.7184	1.9091	0.	-4604.7
16023	5.6262	2.	0.	-4629.3
16024	5.7184	2.	5.e-002	-6.6072
16025	5.7184	1.7273	0.	-4610.6
16026	5.6262	1.8182	0.	-4635.
16027	5.7184	1.8182	5.e-002	-6.615
16028	5.7184	1.5455	0.	-4617.2
16029	5.6262	1.6364	0.	-4641.6
16030	5.7184	1.6364	5.e-002	-6.622
16031	5.7184	1.3636	0.	-4624.4
16032	5.6262	1.4545	0.	-4648.8
16033	5.7184	1.4545	5.e-002	-6.6272
16034	5.7184	1.1818	0.	-4632.2
16035	5.6262	1.2727	0.	-4656.6
16036	5.7184	1.2727	5.e-002	-6.63
16037	5.7184	1.	0.	-4640.5
16038	5.6262	1.0909	0.	-4665.
16039	5.7184	1.0909	5.e-002	-6.6295
16040	5.7184	0.81818	0.	-4649.2
16041	5.6262	0.90909	0.	-4673.9
16042	5.7184	0.90909	5.e-002	-6.625
16043	5.7184	0.63636	0.	-4658.2
16044	5.6262	0.72727	0.	-4683.1
16045	5.7184	0.72727	5.e-002	-6.6157
16046	5.7184	0.45455	0.	-4667.4
16047	5.6262	0.54545	0.	-4692.6
16048	5.7184	0.54545	5.e-002	-6.5974
16049	5.7184	0.27273	0.	-4676.8
16050	5.6262	0.36364	0.	-4702.2
16051	5.7184	0.36364	5.e-002	-6.5082
16052	5.6262	0.18182	0.	-4712.1
16053	5.7184	0.18182	5.e-002	-5.4835
16054	5.7184	9.0909e-002	0.	-4685.1
16055	5.534	5.7273	0.	-4737.5
16056	5.4417	5.8182	0.	-4773.4
16057	5.534	5.8182	5.e-002	-5.9616
16058	5.534	5.9091	0.	-4746.4
16059	5.534	5.5455	0.	-4727.3
16060	5.4417	5.6364	0.	-4762.7
16061	5.534	5.6364	5.e-002	-6.6528
16062	5.534	5.3636	0.	-4717.4
16063	5.4417	5.4545	0.	-4752.4
16064	5.534	5.4545	5.e-002	-6.721
16065	5.534	5.1818	0.	-4707.8
16066	5.4417	5.2727	0.	-4742.2
16067	5.534	5.2727	5.e-002	-6.7381
16068	5.534	5.	0.	-4698.4
16069	5.4417	5.0909	0.	-4732.2
16070	5.534	5.0909	5.e-002	-6.7471
16071	5.534	4.8182	0.	-4689.4
16072	5.4417	4.9091	0.	-4722.7
16073	5.534	4.9091	5.e-002	-6.7507
16074	5.534	4.6364	0.	-4681.
16075	5.4417	4.7273	0.	-4713.7
16076	5.534	4.7273	5.e-002	-6.75
16077	5.534	4.4545	0.	-4673.2
16078	5.4417	4.5455	0.	-4705.2
16079	5.534	4.5455	5.e-002	-6.7456
16080	5.534	4.2727	0.	-4666.
16081	5.4417	4.3636	0.	-4697.4
16082	5.534	4.3636	5.e-002	-6.7386
16083	5.534	4.0909	0.	-4659.7
16084	5.4417	4.1818	0.	-4690.3
16085	5.534	4.1818	5.e-002	-6.7298
16086	5.534	3.9091	0.	-4654.1
16087	5.4417	4.	0.	-4684.1
16088	5.534	4.	5.e-002	-6.72
16089	5.534	3.7273	0.	-4649.5
16090	5.4417	3.8182	0.	-4678.8
16091	5.534	3.8182	5.e-002	-6.7103
16092	5.534	3.5455	0.	-4645.9
16093	5.4417	3.6364	0.	-4674.5
16094	5.534	3.6364	5.e-002	-6.7014
16095	5.534	3.3636	0.	-4643.2
16096	5.4417	3.4545	0.	-4671.2
16097	5.534	3.4545	5.e-002	-6.6941
16098	5.534	3.1818	0.	-4641.6
16099	5.4417	3.2727	0.	-4669.
16100	5.534	3.2727	5.e-002	-6.6889
16101	5.534	3.	0.	-4641.1
16102	5.4417	3.0909	0.	-4667.9
16103	5.534	3.0909	5.e-002	-6.6862
16104	5.534	2.8182	0.	-4641.6
16105	5.4417	2.9091	0.	-4667.9
16106	5.534	2.9091	5.e-002	-6.6862
16107	5.534	2.6364	0.	-4643.2
16108	5.4417	2.7273	0.	-4669.
16109	5.534	2.7273	5.e-002	-6.6889
16110	5.534	2.4545	0.	-4645.9
16111	5.4417	2.5455	0.	-4671.2
16112	5.534	2.5455	5.e-002	-6.6941
16113	5.534	2.2727	0.	-4649.5
16114	5.4417	2.3636	0.	-4674.5
16115	5.534	2.3636	5.e-002	-6.7014
16116	5.534	2.0909	0.	-4654.1
16117	5.4417	2.1818	0.	-4678.8
16118	5.534	2.1818	5.e-002	-6.7103
16119	5.534	1.9091	0.	-4659.7
16120	5.4417	2.	0.	-4684.1
16121	5.534	2.	5.e-002	-6.7201
16122	5.534	1.7273	0.	-4666.
16123	5.4417	1.8182	0.	-4690.3
16124	5.534	1.8182	5.e-002	-6.7298
16125	5.534	1.5455	0.	-4673.2
16126	5.4417	1.6364	0.	-4697.4
16127	5.534	1.6364	5.e-002	-6.7386
16128	5.534	1.3636	0.	-4681.
16129	5.4417	1.4545	0.	-4705.2
16130	5.534	1.4545	5.e-002	-6.7456
16131	5.534	1.1818	0.	-4689.4
16132	5.4417	1.2727	0.	-4713.7
16133	5.534	1.2727	5.e-002	-6.75
16134	5.534	1.	0.	-4698.4
16135	5.4417	1.0909	0.	-4722.7
16136	5.534	1.0909	5.e-002	-6.7507
16137	5.534	0.81818	0.	-4707.8
16138	5.4417	0.90909	0.	-4732.2
16139	5.534	0.90909	5.e-002	-6.7471
16140	5.534	0.63636	0.	-4717.4
16141	5.4417	0.72727	0.	-4742.2
16142	5.534	0.72727	5.e-002	-6.7381
16143	5.534	0.45455	0.	-4727.3
16144	5.4417	0.54545	0.	-4752.4
16145	5.534	0.54545	5.e-002	-6.721
16146	5.534	0.27273	0.	-4737.5
16147	5.4417	0.36364	0.	-4762.7
16148	5.534	0.36364	5.e-002	-6.6528
16149	5.4417	0.18182	0.	-4773.4
16150	5.534	0.18182	5.e-002	-5.9616
16151	5.534	9.0909e-002	0.	-4746.4
16152	5.3495	5.7273	0.	-4798.6
16153	5.2573	5.8182	0.	-4835.3
16154	5.3495	5.8182	5.e-002	-6.4769
16155	5.3495	5.9091	0.	-4808.3
16156	5.3495	5.5455	0.	-4787.8
16157	5.2573	5.6364	0.	-4823.8
16158	5.3495	5.6364	5.e-002	-6.8097
16159	5.3495	5.3636	0.	-4777.1
16160	5.2573	5.4545	0.	-4812.7
16161	5.3495	5.4545	5.e-002	-6.8555
16162	5.3495	5.1818	0.	-4766.7
16163	5.2573	5.2727	0.	-4801.7
16164	5.3495	5.2727	5.e-002	-6.8714
16165	5.3495	5.	0.	-4756.6
16166	5.2573	5.0909	0.	-4791.
16167	5.3495	5.0909	5.e-002	-6.88
16168	5.3495	4.8182	0.	-4746.9
16169	5.2573	4.9091	0.	-4780.7
16170	5.3495	4.9091	5.e-002	-6.8829
16171	5.3495	4.6364	0.	-4737.8
16172	5.2573	4.7273	0.	-4771.
16173	5.3495	4.7273	5.e-002	-6.8808
16174	5.3495	4.4545	0.	-4729.4
16175	5.2573	4.5455	0.	-4761.8
16176	5.3495	4.5455	5.e-002	-6.8748
16177	5.3495	4.2727	0.	-4721.7
16178	5.2573	4.3636	0.	-4753.4
16179	5.3495	4.3636	5.e-002	-6.8658
16180	5.3495	4.0909	0.	-4714.8
16181	5.2573	4.1818	0.	-4745.8
16182	5.3495	4.1818	5.e-002	-6.8548
16183	5.3495	3.9091	0.	-4708.8
16184	5.2573	4.	0.	-4739.1
16185	5.3495	4.	5.e-002	-6.843
16186	5.3495	3.7273	0.	-4703.8
16187	5.2573	3.8182	0.	-4733.4
16188	5.3495	3.8182	5.e-002	-6.8312
16189	5.3495	3.5455	0.	-4699.9
16190	5.2573	3.6364	0.	-4728.7
16191	5.3495	3.6364	5.e-002	-6.8205
16192	5.3495	3.3636	0.	-4697.
16193	5.2573	3.4545	0.	-4725.1
16194	5.3495	3.4545	5.e-002	-6.8118
16195	5.3495	3.1818	0.	-4695.3
16196	5.2573	3.2727	0.	-4722.8
16197	5.3495	3.2727	5.e-002	-6.8055
16198	5.3495	3.	0.	-4694.7
16199	5.2573	3.0909	0.	-4721.6
16200	5.3495	3.0909	5.e-002	-6.8023
16201	5.3495	2.8182	0.	-4695.3
16202	5.2573	2.9091	0.	-4721.6
16203	5.3495	2.9091	5.e-002	-6.8023
16204	5.3495	2.6364	0.	-4697.
16205	5.2573	2.7273	0.	-4722.8
16206	5.3495	2.7273	5.e-002	-6.8055
16207	5.3495	2.4545	0.	-4699.9
16208	5.2573	2.5455	0.	-4725.1
16209	5.3495	2.5455	5.e-002	-6.8118
16210	5.3495	2.2727	0.	-4703.8
16211	5.2573	2.3636	0.	-4728.7
16212	5.3495	2.3636	5.e-002	-6.8205
16213	5.3495	2.0909	0.	-4708.8
16214	5.2573	2.1818	0.	-4733.4
16215	5.3495	2.1818	5.e-002	-6.8312
16216	5.3495	1.9091	0.	-4714.8
16217	5.2573	2.	0.	-4739.1
16218	5.3495	2.	5.e-002	-6.843
16219	5.3495	1.7273	0.	-4721.7
16220	5.2573	1.8182	0.	-4745.8
16221	5.3495	1.8182	5.e-002	-6.8548
16222	5.3495	1.5455	0.	-4729.4
16223	5.2573	1.6364	0.	-4753.4
16224	5.3495	1.6364	5.e-002	-6.8658
16225	5.3495	1.3636	0.	-4737.8
16226	5.2573	1.4545	0.	-4761.8
16227	5.3495	1.4545	5.e-002	-6.8748
16228	5.3495	1.1818	0.	-4746.9
16229	5.2573	1.2727	0.	-4771.
16230	5.3495	1.2727	5.e-002	-6.8809
16231	5.3495	1.	0.	-4756.6
16232	5.2573	1.0909	0.	-4780.7
16233	5.3495	1.0909	5.e-002	-6.8829
16234	5.3495	0.81818	0.	-4766.7
16235	5.2573	0.90909	0.	-4791.
16236	5.3495	0.90909	5.e-002	-6.88
16237	5.3495	0.63636	0.	-4777.1
16238	5.2573	0.72727	0.	-4801.7
16239	5.3495	0.72727	5.e-002	-6.8714
16240	5.3495	0.45455	0.	-4787.8
16241	5.2573	0.54545	0.	-4812.7
16242	5.3495	0.54545	5.e-002	-6.8555
16243	5.3495	0.27273	0.	-4798.6
16244	5.2573	0.36364	0.	-4823.8
16245	5.3495	0.36364	5.e-002	-6.8097
16246	5.2573	0.18182	0.	-4835.3
16247	5.3495	0.18182	5.e-002	-6.4769
16248	5.3495	9.0909e-002	0.	-4808.3
16249	5.165	5.7273	0.	-4860.4
16250	5.0728	5.8182	0.	-4897.8
16251	5.165	5.8182	5.e-002	-7.0317
16252	5.165	5.9091	0.	-4870.8
16253	5.165	5.5455	0.	-4848.7
16254	5.0728	5.6364	0.	-4885.4
16255	5.165	5.6364	5.e-002	-6.9798
16256	5.165	5.3636	0.	-4837.2
16257	5.0728	5.4545	0.	-4873.4
16258	5.165	5.4545	5.e-002	-7.0021
16259	5.165	5.1818	0.	-4826.
16260	5.0728	5.2727	0.	-4861.6
16261	5.165	5.2727	5.e-002	-7.0168
16262	5.165	5.	0.	-4815.1
16263	5.0728	5.0909	0.	-4850.1
16264	5.165	5.0909	5.e-002	-7.0251
16265	5.165	4.8182	0.	-4804.7
16266	5.0728	4.9091	0.	-4839.
16267	5.165	4.9091	5.e-002	-7.0272
16268	5.165	4.6364	0.	-4794.9
16269	5.0728	4.7273	0.	-4828.5
16270	5.165	4.7273	5.e-002	-7.0238
16271	5.165	4.4545	0.	-4785.8
16272	5.0728	4.5455	0.	-4818.7
16273	5.165	4.5455	5.e-002	-7.016
16274	5.165	4.2727	0.	-4777.5
16275	5.0728	4.3636	0.	-4809.6
16276	5.165	4.3636	5.e-002	-7.0048
16277	5.165	4.0909	0.	-4770.1
16278	5.0728	4.1818	0.	-4801.4
16279	5.165	4.1818	5.e-002	-6.9915
16280	5.165	3.9091	0.	-4763.6
16281	5.0728	4.	0.	-4794.2
16282	5.165	4.	5.e-002	-6.9773
16283	5.165	3.7273	0.	-4758.2
16284	5.0728	3.8182	0.	-4788.
16285	5.165	3.8182	5.e-002	-6.9633
16286	5.165	3.5455	0.	-4754.
16287	5.0728	3.6364	0.	-4783.
16288	5.165	3.6364	5.e-002	-6.9507
16289	5.165	3.3636	0.	-4750.9
16290	5.0728	3.4545	0.	-4779.2
16291	5.165	3.4545	5.e-002	-6.9403
16292	5.165	3.1818	0.	-4749.
16293	5.0728	3.2727	0.	-4776.6
16294	5.165	3.2727	5.e-002	-6.9329
16295	5.165	3.	0.	-4748.4
16296	5.0728	3.0909	0.	-4775.3
16297	5.165	3.0909	5.e-002	-6.9291
16298	5.165	2.8182	0.	-4749.
16299	5.0728	2.9091	0.	-4775.3
16300	5.165	2.9091	5.e-002	-6.9291
16301	5.165	2.6364	0.	-4750.9
16302	5.0728	2.7273	0.	-4776.6
16303	5.165	2.7273	5.e-002	-6.9329
16304	5.165	2.4545	0.	-4754.
16305	5.0728	2.5455	0.	-4779.2
16306	5.165	2.5455	5.e-002	-6.9403
16307	5.165	2.2727	0.	-4758.2
16308	5.0728	2.3636	0.	-4783.
16309	5.165	2.3636	5.e-002	-6.9507
16310	5.165	2.0909	0.	-4763.6
16311	5.0728	2.1818	0.	-4788.
16312	5.165	2.1818	5.e-002	-6.9633
16313	5.165	1.9091	0.	-4770.1
16314	5.0728	2.	0.	-4794.2
16315	5.165	2.	5.e-002	-6.9773
16316	5.165	1.7273	0.	-4777.5
16317	5.0728	1.8182	0.	-4801.4
16318	5.165	1.8182	5.e-002	-6.9916
16319	5.165	1.5455	0.	-4785.8
16320	5.0728	1.6364	0.	-4809.6
16321	5.165	1.6364	5.e-002	-7.0048
16322	5.165	1.3636	0.	-4794.9
16323	5.0728	1.4545	0.	-4818.7
16324	5.165	1.4545	5.e-002	-7.016
16325	5.165	1.1818	0.	-4804.7
16326	5.0728	1.2727	0.	-4828.5
16327	5.165	1.2727	5.e-002	-7.0238
16328	5.165	1.	0.	-4815.1
16329	5.0728	1.0909	0.	-4839.
16330	5.165	1.0909	5.e-002	-7.0272
16331	5.165	0.81818	0.	-4826.
16332	5.0728	0.90909	0.	-4850.1
16333	5.165	0.90909	5.e-002	-7.0251
16334	5.165	0.63636	0.	-4837.2
16335	5.0728	0.72727	0.	-4861.6
16336	5.165	0.72727	5.e-002	-7.0168
16337	5.165	0.45455	0.	-4848.7
16338	5.0728	0.54545	0.	-4873.4
16339	5.165	0.54545	5.e-002	-7.0021
16340	5.165	0.27273	0.	-4860.4
16341	5.0728	0.36364	0.	-4885.4
16342	5.165	0.36364	5.e-002	-6.9798
16343	5.0728	0.18182	0.	-4897.8
16344	5.165	0.18182	5.e-002	-7.0318
16345	5.165	9.0909e-002	0.	-4870.8
16346	4.9806	5.7273	0.	-4922.8
16347	4.8883	5.8182	0.	-4960.9
16348	4.9806	5.8182	5.e-002	-7.6286
16349	4.9806	5.9091	0.	-4933.9
16350	4.9806	5.5455	0.	-4910.2
16351	4.8883	5.6364	0.	-4947.6
16352	4.9806	5.6364	5.e-002	-7.1642
16353	4.9806	5.3636	0.	-4897.8
16354	4.8883	5.4545	0.	-4934.7
16355	4.9806	5.4545	5.e-002	-7.1617
16356	4.9806	5.1818	0.	-4885.7
16357	4.8883	5.2727	0.	-4922.
16358	4.9806	5.2727	5.e-002	-7.1753
16359	4.9806	5.	0.	-4874.
16360	4.8883	5.0909	0.	-4909.6
16361	4.9806	5.0909	5.e-002	-7.1836
16362	4.9806	4.8182	0.	-4862.9
16363	4.8883	4.9091	0.	-4897.7
16364	4.9806	4.9091	5.e-002	-7.185
16365	4.9806	4.6364	0.	-4852.3
16366	4.8883	4.7273	0.	-4886.4
16367	4.9806	4.7273	5.e-002	-7.1802
16368	4.9806	4.4545	0.	-4842.5
16369	4.8883	4.5455	0.	-4875.8
16370	4.9806	4.5455	5.e-002	-7.1706
16371	4.9806	4.2727	0.	-4833.5
16372	4.8883	4.3636	0.	-4866.
16373	4.9806	4.3636	5.e-002	-7.1571
16374	4.9806	4.0909	0.	-4825.5
16375	4.8883	4.1818	0.	-4857.2
16376	4.9806	4.1818	5.e-002	-7.1414
16377	4.9806	3.9091	0.	-4818.5
16378	4.8883	4.	0.	-4849.4
16379	4.9806	4.	5.e-002	-7.1246
16380	4.9806	3.7273	0.	-4812.7
16381	4.8883	3.8182	0.	-4842.8
16382	4.9806	3.8182	5.e-002	-7.1081
16383	4.9806	3.5455	0.	-4808.2
16384	4.8883	3.6364	0.	-4837.4
16385	4.9806	3.6364	5.e-002	-7.0933
16386	4.9806	3.3636	0.	-4804.8
16387	4.8883	3.4545	0.	-4833.3
16388	4.9806	3.4545	5.e-002	-7.0812
16389	4.9806	3.1818	0.	-4802.8
16390	4.8883	3.2727	0.	-4830.5
16391	4.9806	3.2727	5.e-002	-7.0726
16392	4.9806	3.	0.	-4802.1
16393	4.8883	3.0909	0.	-4829.1
16394	4.9806	3.0909	5.e-002	-7.0682
16395	4.9806	2.8182	0.	-4802.8
16396	4.8883	2.9091	0.	-4829.1
16397	4.9806	2.9091	5.e-002	-7.0682
16398	4.9806	2.6364	0.	-4804.8
16399	4.8883	2.7273	0.	-4830.5
16400	4.9806	2.7273	5.e-002	-7.0726
16401	4.9806	2.4545	0.	-4808.2
16402	4.8883	2.5455	0.	-4833.3
16403	4.9806	2.5455	5.e-002	-7.0813
16404	4.9806	2.2727	0.	-4812.7
16405	4.8883	2.3636	0.	-4837.4
16406	4.9806	2.3636	5.e-002	-7.0933
16407	4.9806	2.0909	0.	-4818.5
16408	4.8883	2.1818	0.	-4842.8
16409	4.9806	2.1818	5.e-002	-7.1081
16410	4.9806	1.9091	0.	-4825.5
16411	4.8883	2.	0.	-4849.4
16412	4.9806	2.	5.e-002	-7.1246
16413	4.9806	1.7273	0.	-4833.5
16414	4.8883	1.8182	0.	-4857.2
16415	4.9806	1.8182	5.e-002	-7.1413
16416	4.9806	1.5455	0.	-4842.5
16417	4.8883	1.6364	0.	-4866.
16418	4.9806	1.6364	5.e-002	-7.1571
16419	4.9806	1.3636	0.	-4852.3
16420	4.8883	1.4545	0.	-4875.8
16421	4.9806	1.4545	5.e-002	-7.1706
16422	4.9806	1.1818	0.	-4862.9
16423	4.8883	1.2727	0.	-4886.4
16424	4.9806	1.2727	5.e-002	-7.1802
16425	4.9806	1.	0.	-4874.
16426	4.8883	1.0909	0.	-4897.7
16427	4.9806	1.0909	5.e-002	-7.185
16428	4.9806	0.81818	0.	-4885.7
16429	4.8883	0.90909	0.	-4909.6
16430	4.9806	0.90909	5.e-002	-7.1836
16431	4.9806	0.63636	0.	-4897.8
16432	4.8883	0.72727	0.	-4922.
16433	4.9806	0.72727	5.e-002	-7.1754
16434	4.9806	0.45455	0.	-4910.2
16435	4.8883	0.54545	0.	-4934.7
16436	4.9806	0.54545	5.e-002	-7.1617
16437	4.9806	0.27273	0.	-4922.8
16438	4.8883	0.36364	0.	-4947.6
16439	4.9806	0.36364	5.e-002	-7.1642
16440	4.8883	0.18182	0.	-4960.9
16441	4.9806	0.18182	5.e-002	-7.6286
16442	4.9806	9.0909e-002	0.	-4933.9
16443	4.7961	5.7273	0.	-4985.7
16444	4.7039	5.8182	0.	-5024.7
16445	4.7961	5.8182	5.e-002	-8.27
16446	4.7961	5.9091	0.	-4997.5
16447	4.7961	5.5455	0.	-4972.2
16448	4.7039	5.6364	0.	-5010.3
16449	4.7961	5.6364	5.e-002	-7.3638
16450	4.7961	5.3636	0.	-4958.9
16451	4.7039	5.4545	0.	-4996.5
16452	4.7961	5.4545	5.e-002	-7.3356
16453	4.7961	5.1818	0.	-4945.9
16454	4.7039	5.2727	0.	-4982.8
16455	4.7961	5.2727	5.e-002	-7.3484
16456	4.7961	5.	0.	-4933.3
16457	4.7039	5.0909	0.	-4969.5
16458	4.7961	5.0909	5.e-002	-7.3569
16459	4.7961	4.8182	0.	-4921.3
16460	4.7039	4.9091	0.	-4956.7
16461	4.7961	4.9091	5.e-002	-7.3578
16462	4.7961	4.6364	0.	-4909.9
16463	4.7039	4.7273	0.	-4944.6
16464	4.7961	4.7273	5.e-002	-7.3518
16465	4.7961	4.4545	0.	-4899.4
16466	4.7039	4.5455	0.	-4933.2
16467	4.7961	4.5455	5.e-002	-7.3402
16468	4.7961	4.2727	0.	-4889.7
16469	4.7039	4.3636	0.	-4922.7
16470	4.7961	4.3636	5.e-002	-7.3244
16471	4.7961	4.0909	0.	-4881.1
16472	4.7039	4.1818	0.	-4913.2
16473	4.7961	4.1818	5.e-002	-7.306
16474	4.7961	3.9091	0.	-4873.6
16475	4.7039	4.	0.	-4904.8
16476	4.7961	4.	5.e-002	-7.2865
16477	4.7961	3.7273	0.	-4867.4
16478	4.7039	3.8182	0.	-4897.7
16479	4.7961	3.8182	5.e-002	-7.2675
16480	4.7961	3.5455	0.	-4862.5
16481	4.7039	3.6364	0.	-4891.9
16482	4.7961	3.6364	5.e-002	-7.2504
16483	4.7961	3.3636	0.	-4858.9
16484	4.7039	3.4545	0.	-4887.5
16485	4.7961	3.4545	5.e-002	-7.2363
16486	4.7961	3.1818	0.	-4856.7
16487	4.7039	3.2727	0.	-4884.5
16488	4.7961	3.2727	5.e-002	-7.2264
16489	4.7961	3.	0.	-4856.
16490	4.7039	3.0909	0.	-4883.
16491	4.7961	3.0909	5.e-002	-7.2213
16492	4.7961	2.8182	0.	-4856.7
16493	4.7039	2.9091	0.	-4883.
16494	4.7961	2.9091	5.e-002	-7.2213
16495	4.7961	2.6364	0.	-4858.9
16496	4.7039	2.7273	0.	-4884.5
16497	4.7961	2.7273	5.e-002	-7.2264
16498	4.7961	2.4545	0.	-4862.5
16499	4.7039	2.5455	0.	-4887.5
16500	4.7961	2.5455	5.e-002	-7.2363
16501	4.7961	2.2727	0.	-4867.4
16502	4.7039	2.3636	0.	-4891.9
16503	4.7961	2.3636	5.e-002	-7.2503
16504	4.7961	2.0909	0.	-4873.6
16505	4.7039	2.1818	0.	-4897.7
16506	4.7961	2.1818	5.e-002	-7.2675
16507	4.7961	1.9091	0.	-4881.1
16508	4.7039	2.	0.	-4904.8
16509	4.7961	2.	5.e-002	-7.2865
16510	4.7961	1.7273	0.	-4889.7
16511	4.7039	1.8182	0.	-4913.2
16512	4.7961	1.8182	5.e-002	-7.306
16513	4.7961	1.5455	0.	-4899.4
16514	4.7039	1.6364	0.	-4922.7
16515	4.7961	1.6364	5.e-002	-7.3244
16516	4.7961	1.3636	0.	-4909.9
16517	4.7039	1.4545	0.	-4933.2
16518	4.7961	1.4545	5.e-002	-7.3402
16519	4.7961	1.1818	0.	-4921.3
16520	4.7039	1.2727	0.	-4944.6
16521	4.7961	1.2727	5.e-002	-7.3518
16522	4.7961	1.	0.	-4933.3
16523	4.7039	1.0909	0.	-4956.7
16524	4.7961	1.0909	5.e-002	-7.3578
16525	4.7961	0.81818	0.	-4945.9
16526	4.7039	0.90909	0.	-4969.5
16527	4.7961	0.90909	5.e-002	-7.3569
16528	4.7961	0.63636	0.	-4958.9
16529	4.7039	0.72727	0.	-4982.8
16530	4.7961	0.72727	5.e-002	-7.3484
16531	4.7961	0.45455	0.	-4972.2
16532	4.7039	0.54545	0.	-4996.5
16533	4.7961	0.54545	5.e-002	-7.3356
16534	4.7961	0.27273	0.	-4985.7
16535	4.7039	0.36364	0.	-5010.3
16536	4.7961	0.36364	5.e-002	-7.3638
16537	4.7039	0.18182	0.	-5024.7
16538	4.7961	0.18182	5.e-002	-8.2701
16539	4.7961	9.0909e-002	0.	-4997.5
16540	4.6117	5.7273	0.	-5049.3
16541	4.5194	5.8182	0.	-5089.2
16542	4.6117	5.8182	5.e-002	-8.9584
16543	4.6117	5.9091	0.	-5061.8
16544	4.6117	5.5455	0.	-5034.7
16545	4.5194	5.6364	0.	-5073.6
16546	4.6117	5.6364	5.e-002	-7.5796
16547	4.6117	5.3636	0.	-5020.4
16548	4.5194	5.4545	0.	-5058.8
16549	4.6117	5.4545	5.e-002	-7.5249
16550	4.6117	5.1818	0.	-5006.5
16551	4.5194	5.2727	0.	-5044.1
16552	4.6117	5.2727	5.e-002	-7.5375
16553	4.6117	5.	0.	-4993.
16554	4.5194	5.0909	0.	-5029.8
16555	4.6117	5.0909	5.e-002	-7.5465
16556	4.6117	4.8182	0.	-4980.
16557	4.5194	4.9091	0.	-5016.1
16558	4.6117	4.9091	5.e-002	-7.5472
16559	4.6117	4.6364	0.	-4967.8
16560	4.5194	4.7273	0.	-5003.
16561	4.6117	4.7273	5.e-002	-7.5401
16562	4.6117	4.4545	0.	-4956.5
16563	4.5194	4.5455	0.	-4990.8
16564	4.6117	4.5455	5.e-002	-7.5267
16565	4.6117	4.2727	0.	-4946.1
16566	4.5194	4.3636	0.	-4979.6
16567	4.6117	4.3636	5.e-002	-7.5086
16568	4.6117	4.0909	0.	-4936.9
16569	4.5194	4.1818	0.	-4969.4
16570	4.6117	4.1818	5.e-002	-7.4875
16571	4.6117	3.9091	0.	-4928.9
16572	4.5194	4.	0.	-4960.5
16573	4.6117	4.	5.e-002	-7.4652
16574	4.6117	3.7273	0.	-4922.2
16575	4.5194	3.8182	0.	-4952.8
16576	4.6117	3.8182	5.e-002	-7.4434
16577	4.6117	3.5455	0.	-4916.9
16578	4.5194	3.6364	0.	-4946.6
16579	4.6117	3.6364	5.e-002	-7.4239
16580	4.6117	3.3636	0.	-4913.1
16581	4.5194	3.4545	0.	-4941.9
16582	4.6117	3.4545	5.e-002	-7.4079
16583	4.6117	3.1818	0.	-4910.8
16584	4.5194	3.2727	0.	-4938.7
16585	4.6117	3.2727	5.e-002	-7.3966
16586	4.6117	3.	0.	-4910.
16587	4.5194	3.0909	0.	-4937.1
16588	4.6117	3.0909	5.e-002	-7.3907
16589	4.6117	2.8182	0.	-4910.8
16590	4.5194	2.9091	0.	-4937.1
16591	4.6117	2.9091	5.e-002	-7.3907
16592	4.6117	2.6364	0.	-4913.1
16593	4.5194	2.7273	0.	-4938.7
16594	4.6117	2.7273	5.e-002	-7.3966
16595	4.6117	2.4545	0.	-4916.9
16596	4.5194	2.5455	0.	-4941.9
16597	4.6117	2.5455	5.e-002	-7.4078
16598	4.6117	2.2727	0.	-4922.2
16599	4.5194	2.3636	0.	-4946.6
16600	4.6117	2.3636	5.e-002	-7.4239
16601	4.6117	2.0909	0.	-4928.9
16602	4.5194	2.1818	0.	-4952.8
16603	4.6117	2.1818	5.e-002	-7.4434
16604	4.6117	1.9091	0.	-4936.9
16605	4.5194	2.	0.	-4960.5
16606	4.6117	2.	5.e-002	-7.4652
16607	4.6117	1.7273	0.	-4946.1
16608	4.5194	1.8182	0.	-4969.4
16609	4.6117	1.8182	5.e-002	-7.4875
16610	4.6117	1.5455	0.	-4956.5
16611	4.5194	1.6364	0.	-4979.6
16612	4.6117	1.6364	5.e-002	-7.5086
16613	4.6117	1.3636	0.	-4967.8
16614	4.5194	1.4545	0.	-4990.8
16615	4.6117	1.4545	5.e-002	-7.5267
16616	4.6117	1.1818	0.	-4980.
16617	4.5194	1.2727	0.	-5003.
16618	4.6117	1.2727	5.e-002	-7.5401
16619	4.6117	1.	0.	-4993.
16620	4.5194	1.0909	0.	-5016.1
16621	4.6117	1.0909	5.e-002	-7.5472
16622	4.6117	0.81818	0.	-5006.5
16623	4.5194	0.90909	0.	-5029.8
16624	4.6117	0.90909	5.e-002	-7.5466
16625	4.6117	0.63636	0.	-5020.4
16626	4.5194	0.72727	0.	-5044.1
16627	4.6117	0.72727	5.e-002	-7.5375
16628	4.6117	0.45455	0.	-5034.7
16629	4.5194	0.54545	0.	-5058.8
16630	4.6117	0.54545	5.e-002	-7.5249
16631	4.6117	0.27273	0.	-5049.3
16632	4.5194	0.36364	0.	-5073.6
16633	4.6117	0.36364	5.e-002	-7.5795
16634	4.5194	0.18182	0.	-5089.2
16635	4.6117	0.18182	5.e-002	-8.9584
16636	4.6117	9.0909e-002	0.	-5061.8
16637	4.4272	5.7273	0.	-5113.5
16638	4.335	5.8182	0.	-5154.3
16639	4.4272	5.8182	5.e-002	-9.696
16640	4.4272	5.9091	0.	-5126.7
16641	4.4272	5.5455	0.	-5097.8
16642	4.335	5.6364	0.	-5137.5
16643	4.4272	5.6364	5.e-002	-7.8126
16644	4.4272	5.3636	0.	-5082.5
16645	4.335	5.4545	0.	-5121.6
16646	4.4272	5.4545	5.e-002	-7.731
16647	4.4272	5.1818	0.	-5067.5
16648	4.335	5.2727	0.	-5105.8
16649	4.4272	5.2727	5.e-002	-7.744
16650	4.4272	5.	0.	-5053.
16651	4.335	5.0909	0.	-5090.5
16652	4.4272	5.0909	5.e-002	-7.7543
16653	4.4272	4.8182	0.	-5039.1
16654	4.335	4.9091	0.	-5075.8
16655	4.4272	4.9091	5.e-002	-7.7552
16656	4.4272	4.6364	0.	-5026.1
16657	4.335	4.7273	0.	-5061.8
16658	4.4272	4.7273	5.e-002	-7.7474
16659	4.4272	4.4545	0.	-5013.9
16660	4.335	4.5455	0.	-5048.8
16661	4.4272	4.5455	5.e-002	-7.7323
16662	4.4272	4.2727	0.	-5002.8
16663	4.335	4.3636	0.	-5036.7
16664	4.4272	4.3636	5.e-002	-7.7119
16665	4.4272	4.0909	0.	-4993.
16666	4.335	4.1818	0.	-5025.9
16667	4.4272	4.1818	5.e-002	-7.6881
16668	4.4272	3.9091	0.	-4984.4
16669	4.335	4.	0.	-5016.3
16670	4.4272	4.	5.e-002	-7.6629
16671	4.4272	3.7273	0.	-4977.2
16672	4.335	3.8182	0.	-5008.2
16673	4.4272	3.8182	5.e-002	-7.6383
16674	4.4272	3.5455	0.	-4971.6
16675	4.335	3.6364	0.	-5001.6
16676	4.4272	3.6364	5.e-002	-7.6163
16677	4.4272	3.3636	0.	-4967.5
16678	4.335	3.4545	0.	-4996.6
16679	4.4272	3.4545	5.e-002	-7.5983
16680	4.4272	3.1818	0.	-4965.
16681	4.335	3.2727	0.	-4993.2
16682	4.4272	3.2727	5.e-002	-7.5856
16683	4.4272	3.	0.	-4964.2
16684	4.335	3.0909	0.	-4991.5
16685	4.4272	3.0909	5.e-002	-7.579
16686	4.4272	2.8182	0.	-4965.
16687	4.335	2.9091	0.	-4991.5
16688	4.4272	2.9091	5.e-002	-7.579
16689	4.4272	2.6364	0.	-4967.5
16690	4.335	2.7273	0.	-4993.2
16691	4.4272	2.7273	5.e-002	-7.5856
16692	4.4272	2.4545	0.	-4971.6
16693	4.335	2.5455	0.	-4996.6
16694	4.4272	2.5455	5.e-002	-7.5983
16695	4.4272	2.2727	0.	-4977.2
16696	4.335	2.3636	0.	-5001.6
16697	4.4272	2.3636	5.e-002	-7.6163
16698	4.4272	2.0909	0.	-4984.4
16699	4.335	2.1818	0.	-5008.2
16700	4.4272	2.1818	5.e-002	-7.6383
16701	4.4272	1.9091	0.	-4993.
16702	4.335	2.	0.	-5016.3
16703	4.4272	2.	5.e-002	-7.6628
16704	4.4272	1.7273	0.	-5002.8
16705	4.335	1.8182	0.	-5025.9
16706	4.4272	1.8182	5.e-002	-7.6881
16707	4.4272	1.5455	0.	-5013.9
16708	4.335	1.6364	0.	-5036.7
16709	4.4272	1.6364	5.e-002	-7.7119
16710	4.4272	1.3636	0.	-5026.1
16711	4.335	1.4545	0.	-5048.8
16712	4.4272	1.4545	5.e-002	-7.7323
16713	4.4272	1.1818	0.	-5039.1
16714	4.335	1.2727	0.	-5061.8
16715	4.4272	1.2727	5.e-002	-7.7474
16716	4.4272	1.	0.	-5053.
16717	4.335	1.0909	0.	-5075.8
16718	4.4272	1.0909	5.e-002	-7.7552
16719	4.4272	0.81818	0.	-5067.5
16720	4.335	0.90909	0.	-5090.5
16721	4.4272	0.90909	5.e-002	-7.7543
16722	4.4272	0.63636	0.	-5082.5
16723	4.335	0.72727	0.	-5105.8
16724	4.4272	0.72727	5.e-002	-7.744
16725	4.4272	0.45455	0.	-5097.8
16726	4.335	0.54545	0.	-5121.6
16727	4.4272	0.54545	5.e-002	-7.731
16728	4.4272	0.27273	0.	-5113.5
16729	4.335	0.36364	0.	-5137.5
16730	4.4272	0.36364	5.e-002	-7.8126
16731	4.335	0.18182	0.	-5154.3
16732	4.4272	0.18182	5.e-002	-9.6961
16733	4.4272	9.0909e-002	0.	-5126.7
16734	4.2427	5.7273	0.	-5178.3
16735	4.1505	5.8182	0.	-5220.
16736	4.2427	5.8182	5.e-002	-10.485
16737	4.2427	5.9091	0.	-5192.1
16738	4.2427	5.5455	0.	-5161.4
16739	4.1505	5.6364	0.	-5201.9
16740	4.2427	5.6364	5.e-002	-8.0639
16741	4.2427	5.3636	0.	-5144.9
16742	4.1505	5.4545	0.	-5184.8
16743	4.2427	5.4545	5.e-002	-7.9555
16744	4.2427	5.1818	0.	-5128.9
16745	4.1505	5.2727	0.	-5167.9
16746	4.2427	5.2727	5.e-002	-7.9698
16747	4.2427	5.	0.	-5113.4
16748	4.1505	5.0909	0.	-5151.6
16749	4.2427	5.0909	5.e-002	-7.9822
16750	4.2427	4.8182	0.	-5098.5
16751	4.1505	4.9091	0.	-5135.9
16752	4.2427	4.9091	5.e-002	-7.984
16753	4.2427	4.6364	0.	-5084.6
16754	4.1505	4.7273	0.	-5120.9
16755	4.2427	4.7273	5.e-002	-7.9758
16756	4.2427	4.4545	0.	-5071.6
16757	4.1505	4.5455	0.	-5107.
16758	4.2427	4.5455	5.e-002	-7.9594
16759	4.2427	4.2727	0.	-5059.8
16760	4.1505	4.3636	0.	-5094.2
16761	4.2427	4.3636	5.e-002	-7.9368
16762	4.2427	4.0909	0.	-5049.3
16763	4.1505	4.1818	0.	-5082.7
16764	4.2427	4.1818	5.e-002	-7.9104
16765	4.2427	3.9091	0.	-5040.2
16766	4.1505	4.	0.	-5072.5
16767	4.2427	4.	5.e-002	-7.8824
16768	4.2427	3.7273	0.	-5032.6
16769	4.1505	3.8182	0.	-5063.9
16770	4.2427	3.8182	5.e-002	-7.8551
16771	4.2427	3.5455	0.	-5026.6
16772	4.1505	3.6364	0.	-5056.9
16773	4.2427	3.6364	5.e-002	-7.8306
16774	4.2427	3.3636	0.	-5022.2
16775	4.1505	3.4545	0.	-5051.6
16776	4.2427	3.4545	5.e-002	-7.8106
16777	4.2427	3.1818	0.	-5019.6
16778	4.1505	3.2727	0.	-5048.
16779	4.2427	3.2727	5.e-002	-7.7965
16780	4.2427	3.	0.	-5018.7
16781	4.1505	3.0909	0.	-5046.2
16782	4.2427	3.0909	5.e-002	-7.7893
16783	4.2427	2.8182	0.	-5019.6
16784	4.1505	2.9091	0.	-5046.2
16785	4.2427	2.9091	5.e-002	-7.7893
16786	4.2427	2.6364	0.	-5022.2
16787	4.1505	2.7273	0.	-5048.
16788	4.2427	2.7273	5.e-002	-7.7965
16789	4.2427	2.4545	0.	-5026.6
16790	4.1505	2.5455	0.	-5051.6
16791	4.2427	2.5455	5.e-002	-7.8106
16792	4.2427	2.2727	0.	-5032.6
16793	4.1505	2.3636	0.	-5056.9
16794	4.2427	2.3636	5.e-002	-7.8306
16795	4.2427	2.0909	0.	-5040.2
16796	4.1505	2.1818	0.	-5063.9
16797	4.2427	2.1818	5.e-002	-7.8551
16798	4.2427	1.9091	0.	-5049.3
16799	4.1505	2.	0.	-5072.5
16800	4.2427	2.	5.e-002	-7.8824
16801	4.2427	1.7273	0.	-5059.8
16802	4.1505	1.8182	0.	-5082.7
16803	4.2427	1.8182	5.e-002	-7.9104
16804	4.2427	1.5455	0.	-5071.6
16805	4.1505	1.6364	0.	-5094.2
16806	4.2427	1.6364	5.e-002	-7.9368
16807	4.2427	1.3636	0.	-5084.6
16808	4.1505	1.4545	0.	-5107.
16809	4.2427	1.4545	5.e-002	-7.9594
16810	4.2427	1.1818	0.	-5098.5
16811	4.1505	1.2727	0.	-5120.9
16812	4.2427	1.2727	5.e-002	-7.9758
16813	4.2427	1.	0.	-5113.4
16814	4.1505	1.0909	0.	-5135.9
16815	4.2427	1.0909	5.e-002	-7.984
16816	4.2427	0.81818	0.	-5128.9
16817	4.1505	0.90909	0.	-5151.6
16818	4.2427	0.90909	5.e-002	-7.9822
16819	4.2427	0.63636	0.	-5144.9
16820	4.1505	0.72727	0.	-5167.9
16821	4.2427	0.72727	5.e-002	-7.9698
16822	4.2427	0.45455	0.	-5161.4
16823	4.1505	0.54545	0.	-5184.8
16824	4.2427	0.54545	5.e-002	-7.9555
16825	4.2427	0.27273	0.	-5178.3
16826	4.1505	0.36364	0.	-5201.9
16827	4.2427	0.36364	5.e-002	-8.0639
16828	4.1505	0.18182	0.	-5220.
16829	4.2427	0.18182	5.e-002	-10.485
16830	4.2427	9.0909e-002	0.	-5192.1
16831	4.0583	5.7273	0.	-5243.7
16832	3.966	5.8182	0.	-5286.4
16833	4.0583	5.8182	5.e-002	-11.328
16834	4.0583	5.9091	0.	-5258.1
16835	4.0583	5.5455	0.	-5225.4
16836	3.966	5.6364	0.	-5266.8
16837	4.0583	5.6364	5.e-002	-8.3345
16838	4.0583	5.3636	0.	-5207.9
16839	3.966	5.4545	0.	-5248.5
16840	4.0583	5.4545	5.e-002	-8.1999
16841	4.0583	5.1818	0.	-5190.7
16842	3.966	5.2727	0.	-5230.5
16843	4.0583	5.2727	5.e-002	-8.2168
16844	4.0583	5.	0.	-5174.1
16845	3.966	5.0909	0.	-5213.
16846	4.0583	5.0909	5.e-002	-8.2325
16847	4.0583	4.8182	0.	-5158.3
16848	3.966	4.9091	0.	-5196.2
16849	4.0583	4.9091	5.e-002	-8.236
16850	4.0583	4.6364	0.	-5143.4
16851	3.966	4.7273	0.	-5180.4
16852	4.0583	4.7273	5.e-002	-8.2281
16853	4.0583	4.4545	0.	-5129.6
16854	3.966	4.5455	0.	-5165.6
16855	4.0583	4.5455	5.e-002	-8.2108
16856	4.0583	4.2727	0.	-5117.1
16857	3.966	4.3636	0.	-5152.
16858	4.0583	4.3636	5.e-002	-8.1863
16859	4.0583	4.0909	0.	-5105.9
16860	3.966	4.1818	0.	-5139.8
16861	4.0583	4.1818	5.e-002	-8.1575
16862	4.0583	3.9091	0.	-5096.3
16863	3.966	4.	0.	-5129.1
16864	4.0583	4.	5.e-002	-8.1269
16865	4.0583	3.7273	0.	-5088.2
16866	3.966	3.8182	0.	-5120.
16867	4.0583	3.8182	5.e-002	-8.097
16868	4.0583	3.5455	0.	-5081.9
16869	3.966	3.6364	0.	-5112.6
16870	4.0583	3.6364	5.e-002	-8.0703
16871	4.0583	3.3636	0.	-5077.3
16872	3.966	3.4545	0.	-5107.
16873	4.0583	3.4545	5.e-002	-8.0485
16874	4.0583	3.1818	0.	-5074.5
16875	3.966	3.2727	0.	-5103.3
16876	4.0583	3.2727	5.e-002	-8.0331
16877	4.0583	3.	0.	-5073.6
16878	3.966	3.0909	0.	-5101.4
16879	4.0583	3.0909	5.e-002	-8.0251
16880	4.0583	2.8182	0.	-5074.5
16881	3.966	2.9091	0.	-5101.4
16882	4.0583	2.9091	5.e-002	-8.0251
16883	4.0583	2.6364	0.	-5077.3
16884	3.966	2.7273	0.	-5103.3
16885	4.0583	2.7273	5.e-002	-8.0331
16886	4.0583	2.4545	0.	-5081.9
16887	3.966	2.5455	0.	-5107.
16888	4.0583	2.5455	5.e-002	-8.0485
16889	4.0583	2.2727	0.	-5088.2
16890	3.966	2.3636	0.	-5112.6
16891	4.0583	2.3636	5.e-002	-8.0703
16892	4.0583	2.0909	0.	-5096.3
16893	3.966	2.1818	0.	-5120.
16894	4.0583	2.1818	5.e-002	-8.097
16895	4.0583	1.9091	0.	-5105.9
16896	3.966	2.	0.	-5129.1
16897	4.0583	2.	5.e-002	-8.1269
16898	4.0583	1.7273	0.	-5117.1
16899	3.966	1.8182	0.	-5139.8
16900	4.0583	1.8182	5.e-002	-8.1575
16901	4.0583	1.5455	0.	-5129.6
16902	3.966	1.6364	0.	-5152.
16903	4.0583	1.6364	5.e-002	-8.1864
16904	4.0583	1.3636	0.	-5143.4
16905	3.966	1.4545	0.	-5165.6
16906	4.0583	1.4545	5.e-002	-8.2108
16907	4.0583	1.1818	0.	-5158.3
16908	3.966	1.2727	0.	-5180.4
16909	4.0583	1.2727	5.e-002	-8.2282
16910	4.0583	1.	0.	-5174.1
16911	3.966	1.0909	0.	-5196.2
16912	4.0583	1.0909	5.e-002	-8.236
16913	4.0583	0.81818	0.	-5190.7
16914	3.966	0.90909	0.	-5213.
16915	4.0583	0.90909	5.e-002	-8.2325
16916	4.0583	0.63636	0.	-5207.9
16917	3.966	0.72727	0.	-5230.5
16918	4.0583	0.72727	5.e-002	-8.2168
16919	4.0583	0.45455	0.	-5225.4
16920	3.966	0.54545	0.	-5248.5
16921	4.0583	0.54545	5.e-002	-8.1999
16922	4.0583	0.27273	0.	-5243.7
16923	3.966	0.36364	0.	-5266.8
16924	4.0583	0.36364	5.e-002	-8.3344
16925	3.966	0.18182	0.	-5286.4
16926	4.0583	0.18182	5.e-002	-11.328
16927	4.0583	9.0909e-002	0.	-5258.1
16928	3.8738	5.7273	0.	-5309.6
16929	3.7816	5.8182	0.	-5353.3
16930	3.8738	5.8182	5.e-002	-12.227
16931	3.8738	5.9091	0.	-5324.5
16932	3.8738	5.5455	0.	-5289.9
16933	3.7816	5.6364	0.	-5332.1
16934	3.8738	5.6364	5.e-002	-8.6254
16935	3.8738	5.3636	0.	-5271.1
16936	3.7816	5.4545	0.	-5312.5
16937	3.8738	5.4545	5.e-002	-8.466
16938	3.8738	5.1818	0.	-5252.8
16939	3.7816	5.2727	0.	-5293.3
16940	3.8738	5.2727	5.e-002	-8.4874
16941	3.8738	5.	0.	-5235.2
16942	3.7816	5.0909	0.	-5274.7
16943	3.8738	5.0909	5.e-002	-8.5078
16944	3.8738	4.8182	0.	-5218.4
16945	3.7816	4.9091	0.	-5256.9
16946	3.8738	4.9091	5.e-002	-8.5142
16947	3.8738	4.6364	0.	-5202.6
16948	3.7816	4.7273	0.	-5240.1
16949	3.8738	4.7273	5.e-002	-8.5074
16950	3.8738	4.4545	0.	-5188.
16951	3.7816	4.5455	0.	-5224.5
16952	3.8738	4.5455	5.e-002	-8.4897
16953	3.8738	4.2727	0.	-5174.7
16954	3.7816	4.3636	0.	-5210.2
16955	3.8738	4.3636	5.e-002	-8.4639
16956	3.8738	4.0909	0.	-5163.
16957	3.7816	4.1818	0.	-5197.3
16958	3.8738	4.1818	5.e-002	-8.433
16959	3.8738	3.9091	0.	-5152.8
16960	3.7816	4.	0.	-5186.1
16961	3.8738	4.	5.e-002	-8.4001
16962	3.8738	3.7273	0.	-5144.4
16963	3.7816	3.8182	0.	-5176.6
16964	3.8738	3.8182	5.e-002	-8.3681
16965	3.8738	3.5455	0.	-5137.7
16966	3.7816	3.6364	0.	-5168.9
16967	3.8738	3.6364	5.e-002	-8.3393
16968	3.8738	3.3636	0.	-5132.9
16969	3.7816	3.4545	0.	-5163.1
16970	3.8738	3.4545	5.e-002	-8.316
16971	3.8738	3.1818	0.	-5130.1
16972	3.7816	3.2727	0.	-5159.2
16973	3.8738	3.2727	5.e-002	-8.2996
16974	3.8738	3.	0.	-5129.1
16975	3.7816	3.0909	0.	-5157.2
16976	3.8738	3.0909	5.e-002	-8.2912
16977	3.8738	2.8182	0.	-5130.1
16978	3.7816	2.9091	0.	-5157.2
16979	3.8738	2.9091	5.e-002	-8.2912
16980	3.8738	2.6364	0.	-5132.9
16981	3.7816	2.7273	0.	-5159.2
16982	3.8738	2.7273	5.e-002	-8.2996
16983	3.8738	2.4545	0.	-5137.7
16984	3.7816	2.5455	0.	-5163.1
16985	3.8738	2.5455	5.e-002	-8.316
16986	3.8738	2.2727	0.	-5144.4
16987	3.7816	2.3636	0.	-5168.9
16988	3.8738	2.3636	5.e-002	-8.3393
16989	3.8738	2.0909	0.	-5152.8
16990	3.7816	2.1818	0.	-5176.6
16991	3.8738	2.1818	5.e-002	-8.3681
16992	3.8738	1.9091	0.	-5163.
16993	3.7816	2.	0.	-5186.1
16994	3.8738	2.	5.e-002	-8.4001
16995	3.8738	1.7273	0.	-5174.7
16996	3.7816	1.8182	0.	-5197.3
16997	3.8738	1.8182	5.e-002	-8.433
16998	3.8738	1.5455	0.	-5188.
16999	3.7816	1.6364	0.	-5210.2
17000	3.8738	1.6364	5.e-002	-8.4639
17001	3.8738	1.3636	0.	-5202.6
17002	3.7816	1.4545	0.	-5224.5
17003	3.8738	1.4545	5.e-002	-8.4898
17004	3.8738	1.1818	0.	-5218.4
17005	3.7816	1.2727	0.	-5240.1
17006	3.8738	1.2727	5.e-002	-8.5074
17007	3.8738	1.	0.	-5235.2
17008	3.7816	1.0909	0.	-5256.9
17009	3.8738	1.0909	5.e-002	-8.5142
17010	3.8738	0.81818	0.	-5252.8
17011	3.7816	0.90909	0.	-5274.7
17012	3.8738	0.90909	5.e-002	-8.5078
17013	3.8738	0.63636	0.	-5271.1
17014	3.7816	0.72727	0.	-5293.3
17015	3.8738	0.72727	5.e-002	-8.4874
17016	3.8738	0.45455	0.	-5289.9
17017	3.7816	0.54545	0.	-5312.5
17018	3.8738	0.54545	5.e-002	-8.466
17019	3.8738	0.27273	0.	-5309.6
17020	3.7816	0.36364	0.	-5332.1
17021	3.8738	0.36364	5.e-002	-8.6254
17022	3.7816	0.18182	0.	-5353.3
17023	3.8738	0.18182	5.e-002	-12.227
17024	3.8738	9.0909e-002	0.	-5324.5
17025	3.6893	5.7273	0.	-5376.
17026	3.5971	5.8182	0.	-5420.7
17027	3.6893	5.8182	5.e-002	-13.182
17028	3.6893	5.9091	0.	-5391.3
17029	3.6893	5.5455	0.	-5354.8
17030	3.5971	5.6364	0.	-5397.8
17031	3.6893	5.6364	5.e-002	-8.9379
17032	3.6893	5.3636	0.	-5334.7
17033	3.5971	5.4545	0.	-5376.8
17034	3.6893	5.4545	5.e-002	-8.7562
17035	3.6893	5.1818	0.	-5315.2
17036	3.5971	5.2727	0.	-5356.4
17037	3.6893	5.2727	5.e-002	-8.7843
17038	3.6893	5.	0.	-5296.5
17039	3.5971	5.0909	0.	-5336.6
17040	3.6893	5.0909	5.e-002	-8.8113
17041	3.6893	4.8182	0.	-5278.7
17042	3.5971	4.9091	0.	-5317.8
17043	3.6893	4.9091	5.e-002	-8.822
17044	3.6893	4.6364	0.	-5262.
17045	3.5971	4.7273	0.	-5300.1
17046	3.6893	4.7273	5.e-002	-8.8172
17047	3.6893	4.4545	0.	-5246.7
17048	3.5971	4.5455	0.	-5283.7
17049	3.6893	4.5455	5.e-002	-8.7999
17050	3.6893	4.2727	0.	-5232.8
17051	3.5971	4.3636	0.	-5268.7
17052	3.6893	4.3636	5.e-002	-8.7733
17053	3.6893	4.0909	0.	-5220.5
17054	3.5971	4.1818	0.	-5255.4
17055	3.6893	4.1818	5.e-002	-8.7409
17056	3.6893	3.9091	0.	-5209.9
17057	3.5971	4.	0.	-5243.7
17058	3.6893	4.	5.e-002	-8.7063
17059	3.6893	3.7273	0.	-5201.1
17060	3.5971	3.8182	0.	-5233.9
17061	3.6893	3.8182	5.e-002	-8.6727
17062	3.6893	3.5455	0.	-5194.3
17063	3.5971	3.6364	0.	-5226.
17064	3.6893	3.6364	5.e-002	-8.6426
17065	3.6893	3.3636	0.	-5189.3
17066	3.5971	3.4545	0.	-5220.
17067	3.6893	3.4545	5.e-002	-8.6182
17068	3.6893	3.1818	0.	-5186.3
17069	3.5971	3.2727	0.	-5216.
17070	3.6893	3.2727	5.e-002	-8.6012
17071	3.6893	3.	0.	-5185.3
17072	3.5971	3.0909	0.	-5214.
17073	3.6893	3.0909	5.e-002	-8.5924
17074	3.6893	2.8182	0.	-5186.3
17075	3.5971	2.9091	0.	-5214.
17076	3.6893	2.9091	5.e-002	-8.5924
17077	3.6893	2.6364	0.	-5189.3
17078	3.5971	2.7273	0.	-5216.
17079	3.6893	2.7273	5.e-002	-8.6012
17080	3.6893	2.4545	0.	-5194.3
17081	3.5971	2.5455	0.	-5220.
17082	3.6893	2.5455	5.e-002	-8.6182
17083	3.6893	2.2727	0.	-5201.1
17084	3.5971	2.3636	0.	-5226.
17085	3.6893	2.3636	5.e-002	-8.6426
17086	3.6893	2.0909	0.	-5209.9
17087	3.5971	2.1818	0.	-5233.9
17088	3.6893	2.1818	5.e-002	-8.6727
17089	3.6893	1.9091	0.	-5220.5
17090	3.5971	2.	0.	-5243.7
17091	3.6893	2.	5.e-002	-8.7063
17092	3.6893	1.7273	0.	-5232.8
17093	3.5971	1.8182	0.	-5255.4
17094	3.6893	1.8182	5.e-002	-8.7409
17095	3.6893	1.5455	0.	-5246.7
17096	3.5971	1.6364	0.	-5268.7
17097	3.6893	1.6364	5.e-002	-8.7733
17098	3.6893	1.3636	0.	-5262.
17099	3.5971	1.4545	0.	-5283.7
17100	3.6893	1.4545	5.e-002	-8.7999
17101	3.6893	1.1818	0.	-5278.7
17102	3.5971	1.2727	0.	-5300.1
17103	3.6893	1.2727	5.e-002	-8.8172
17104	3.6893	1.	0.	-5296.5
17105	3.5971	1.0909	0.	-5317.8
17106	3.6893	1.0909	5.e-002	-8.8219
17107	3.6893	0.81818	0.	-5315.2
17108	3.5971	0.90909	0.	-5336.6
17109	3.6893	0.90909	5.e-002	-8.8113
17110	3.6893	0.63636	0.	-5334.7
17111	3.5971	0.72727	0.	-5356.4
17112	3.6893	0.72727	5.e-002	-8.7843
17113	3.6893	0.45455	0.	-5354.8
17114	3.5971	0.54545	0.	-5376.8
17115	3.6893	0.54545	5.e-002	-8.7562
17116	3.6893	0.27273	0.	-5376.
17117	3.5971	0.36364	0.	-5397.8
17118	3.6893	0.36364	5.e-002	-8.9379
17119	3.5971	0.18182	0.	-5420.7
17120	3.6893	0.18182	5.e-002	-13.182
17121	3.6893	9.0909e-002	0.	-5391.3
17122	3.5049	5.7273	0.	-5442.6
17123	3.4126	5.8182	0.	-5488.4
17124	3.5049	5.8182	5.e-002	-14.194
17125	3.5049	5.9091	0.	-5458.2
17126	3.5049	5.5455	0.	-5419.9
17127	3.4126	5.6364	0.	-5463.6
17128	3.5049	5.6364	5.e-002	-9.2734
17129	3.5049	5.3636	0.	-5398.5
17130	3.4126	5.4545	0.	-5441.2
17131	3.5049	5.4545	5.e-002	-9.0731
17132	3.5049	5.1818	0.	-5377.8
17133	3.4126	5.2727	0.	-5419.5
17134	3.5049	5.2727	5.e-002	-9.111
17135	3.5049	5.	0.	-5358.
17136	3.4126	5.0909	0.	-5398.7
17137	3.5049	5.0909	5.e-002	-9.1468
17138	3.5049	4.8182	0.	-5339.3
17139	3.4126	4.9091	0.	-5378.9
17140	3.5049	4.9091	5.e-002	-9.1634
17141	3.5049	4.6364	0.	-5321.8
17142	3.4126	4.7273	0.	-5360.3
17143	3.5049	4.7273	5.e-002	-9.1619
17144	3.5049	4.4545	0.	-5305.8
17145	3.4126	4.5455	0.	-5343.3
17146	3.5049	4.5455	5.e-002	-9.1458
17147	3.5049	4.2727	0.	-5291.3
17148	3.4126	4.3636	0.	-5327.8
17149	3.5049	4.3636	5.e-002	-9.1191
17150	3.5049	4.0909	0.	-5278.6
17151	3.4126	4.1818	0.	-5314.
17152	3.5049	4.1818	5.e-002	-9.0861
17153	3.5049	3.9091	0.	-5267.7
17154	3.4126	4.	0.	-5302.1
17155	3.5049	4.	5.e-002	-9.0506
17156	3.5049	3.7273	0.	-5258.7
17157	3.4126	3.8182	0.	-5292.1
17158	3.5049	3.8182	5.e-002	-9.0162
17159	3.5049	3.5455	0.	-5251.7
17160	3.4126	3.6364	0.	-5284.
17161	3.5049	3.6364	5.e-002	-8.9856
17162	3.5049	3.3636	0.	-5246.6
17163	3.4126	3.4545	0.	-5277.9
17164	3.5049	3.4545	5.e-002	-8.961
17165	3.5049	3.1818	0.	-5243.5
17166	3.4126	3.2727	0.	-5273.9
17167	3.5049	3.2727	5.e-002	-8.9439
17168	3.5049	3.	0.	-5242.5
17169	3.4126	3.0909	0.	-5271.9
17170	3.5049	3.0909	5.e-002	-8.9352
17171	3.5049	2.8182	0.	-5243.5
17172	3.4126	2.9091	0.	-5271.9
17173	3.5049	2.9091	5.e-002	-8.9352
17174	3.5049	2.6364	0.	-5246.6
17175	3.4126	2.7273	0.	-5273.9
17176	3.5049	2.7273	5.e-002	-8.9439
17177	3.5049	2.4545	0.	-5251.7
17178	3.4126	2.5455	0.	-5277.9
17179	3.5049	2.5455	5.e-002	-8.961
17180	3.5049	2.2727	0.	-5258.7
17181	3.4126	2.3636	0.	-5284.
17182	3.5049	2.3636	5.e-002	-8.9856
17183	3.5049	2.0909	0.	-5267.7
17184	3.4126	2.1818	0.	-5292.1
17185	3.5049	2.1818	5.e-002	-9.0161
17186	3.5049	1.9091	0.	-5278.6
17187	3.4126	2.	0.	-5302.1
17188	3.5049	2.	5.e-002	-9.0506
17189	3.5049	1.7273	0.	-5291.3
17190	3.4126	1.8182	0.	-5314.
17191	3.5049	1.8182	5.e-002	-9.086
17192	3.5049	1.5455	0.	-5305.8
17193	3.4126	1.6364	0.	-5327.8
17194	3.5049	1.6364	5.e-002	-9.1191
17195	3.5049	1.3636	0.	-5321.8
17196	3.4126	1.4545	0.	-5343.3
17197	3.5049	1.4545	5.e-002	-9.1458
17198	3.5049	1.1818	0.	-5339.3
17199	3.4126	1.2727	0.	-5360.3
17200	3.5049	1.2727	5.e-002	-9.1619
17201	3.5049	1.	0.	-5358.
17202	3.4126	1.0909	0.	-5378.9
17203	3.5049	1.0909	5.e-002	-9.1634
17204	3.5049	0.81818	0.	-5377.8
17205	3.4126	0.90909	0.	-5398.7
17206	3.5049	0.90909	5.e-002	-9.1468
17207	3.5049	0.63636	0.	-5398.5
17208	3.4126	0.72727	0.	-5419.5
17209	3.5049	0.72727	5.e-002	-9.111
17210	3.5049	0.45455	0.	-5419.9
17211	3.4126	0.54545	0.	-5441.2
17212	3.5049	0.54545	5.e-002	-9.0731
17213	3.5049	0.27273	0.	-5442.6
17214	3.4126	0.36364	0.	-5463.6
17215	3.5049	0.36364	5.e-002	-9.2734
17216	3.4126	0.18182	0.	-5488.4
17217	3.5049	0.18182	5.e-002	-14.194
17218	3.5049	9.0909e-002	0.	-5458.2
17219	3.3204	5.7273	0.	-5509.4
17220	3.2282	5.8182	0.	-5556.2
17221	3.3204	5.8182	5.e-002	-15.264
17222	3.3204	5.9091	0.	-5525.2
17223	3.3204	5.5455	0.	-5485.
17224	3.2282	5.6364	0.	-5529.3
17225	3.3204	5.6364	5.e-002	-9.6337
17226	3.3204	5.3636	0.	-5462.3
17227	3.2282	5.4545	0.	-5505.5
17228	3.3204	5.4545	5.e-002	-9.4203
17229	3.3204	5.1818	0.	-5440.4
17230	3.2282	5.2727	0.	-5482.6
17231	3.3204	5.2727	5.e-002	-9.4717
17232	3.3204	5.	0.	-5419.6
17233	3.2282	5.0909	0.	-5460.7
17234	3.3204	5.0909	5.e-002	-9.5191
17235	3.3204	4.8182	0.	-5400.
17236	3.2282	4.9091	0.	-5440.
17237	3.3204	4.9091	5.e-002	-9.5434
17238	3.3204	4.6364	0.	-5381.8
17239	3.2282	4.7273	0.	-5420.8
17240	3.3204	4.7273	5.e-002	-9.5465
17241	3.3204	4.4545	0.	-5365.3
17242	3.2282	4.5455	0.	-5403.2
17243	3.3204	4.5455	5.e-002	-9.5326
17244	3.3204	4.2727	0.	-5350.4
17245	3.2282	4.3636	0.	-5387.3
17246	3.3204	4.3636	5.e-002	-9.5067
17247	3.3204	4.0909	0.	-5337.5
17248	3.2282	4.1818	0.	-5373.3
17249	3.3204	4.1818	5.e-002	-9.4739
17250	3.3204	3.9091	0.	-5326.4
17251	3.2282	4.	0.	-5361.3
17252	3.3204	4.	5.e-002	-9.4387
17253	3.3204	3.7273	0.	-5317.3
17254	3.2282	3.8182	0.	-5351.3
17255	3.3204	3.8182	5.e-002	-9.4048
17256	3.3204	3.5455	0.	-5310.2
17257	3.2282	3.6364	0.	-5343.3
17258	3.3204	3.6364	5.e-002	-9.375
17259	3.3204	3.3636	0.	-5305.1
17260	3.2282	3.4545	0.	-5337.3
17261	3.3204	3.4545	5.e-002	-9.3514
17262	3.3204	3.1818	0.	-5302.1
17263	3.2282	3.2727	0.	-5333.3
17264	3.3204	3.2727	5.e-002	-9.335
17265	3.3204	3.	0.	-5301.1
17266	3.2282	3.0909	0.	-5331.3
17267	3.3204	3.0909	5.e-002	-9.3267
17268	3.3204	2.8182	0.	-5302.1
17269	3.2282	2.9091	0.	-5331.3
17270	3.3204	2.9091	5.e-002	-9.3267
17271	3.3204	2.6364	0.	-5305.1
17272	3.2282	2.7273	0.	-5333.3
17273	3.3204	2.7273	5.e-002	-9.335
17274	3.3204	2.4545	0.	-5310.2
17275	3.2282	2.5455	0.	-5337.3
17276	3.3204	2.5455	5.e-002	-9.3514
17277	3.3204	2.2727	0.	-5317.3
17278	3.2282	2.3636	0.	-5343.3
17279	3.3204	2.3636	5.e-002	-9.375
17280	3.3204	2.0909	0.	-5326.4
17281	3.2282	2.1818	0.	-5351.3
17282	3.3204	2.1818	5.e-002	-9.4048
17283	3.3204	1.9091	0.	-5337.5
17284	3.2282	2.	0.	-5361.3
17285	3.3204	2.	5.e-002	-9.4386
17286	3.3204	1.7273	0.	-5350.4
17287	3.2282	1.8182	0.	-5373.3
17288	3.3204	1.8182	5.e-002	-9.4739
17289	3.3204	1.5455	0.	-5365.3
17290	3.2282	1.6364	0.	-5387.3
17291	3.3204	1.6364	5.e-002	-9.5067
17292	3.3204	1.3636	0.	-5381.8
17293	3.2282	1.4545	0.	-5403.2
17294	3.3204	1.4545	5.e-002	-9.5326
17295	3.3204	1.1818	0.	-5400.
17296	3.2282	1.2727	0.	-5420.8
17297	3.3204	1.2727	5.e-002	-9.5465
17298	3.3204	1.	0.	-5419.6
17299	3.2282	1.0909	0.	-5440.
17300	3.3204	1.0909	5.e-002	-9.5435
17301	3.3204	0.81818	0.	-5440.4
17302	3.2282	0.90909	0.	-5460.7
17303	3.3204	0.90909	5.e-002	-9.5191
17304	3.3204	0.63636	0.	-5462.3
17305	3.2282	0.72727	0.	-5482.6
17306	3.3204	0.72727	5.e-002	-9.4717
17307	3.3204	0.45455	0.	-5485.
17308	3.2282	0.54545	0.	-5505.5
17309	3.3204	0.54545	5.e-002	-9.4204
17310	3.3204	0.27273	0.	-5509.4
17311	3.2282	0.36364	0.	-5529.3
17312	3.3204	0.36364	5.e-002	-9.6337
17313	3.2282	0.18182	0.	-5556.2
17314	3.3204	0.18182	5.e-002	-15.264
17315	3.3204	9.0909e-002	0.	-5525.2
17316	3.1359	5.7273	0.	-5576.2
17317	3.0437	5.8182	0.	-5623.8
17318	3.1359	5.8182	5.e-002	-16.389
17319	3.1359	5.9091	0.	-5591.9
17320	3.1359	5.5455	0.	-5549.9
17321	3.0437	5.6364	0.	-5594.6
17322	3.1359	5.6364	5.e-002	-10.021
17323	3.1359	5.3636	0.	-5525.9
17324	3.0437	5.4545	0.	-5569.5
17325	3.1359	5.4545	5.e-002	-9.8026
17326	3.1359	5.1818	0.	-5502.9
17327	3.0437	5.2727	0.	-5545.3
17328	3.1359	5.2727	5.e-002	-9.8721
17329	3.1359	5.	0.	-5481.1
17330	3.0437	5.0909	0.	-5522.4
17331	3.1359	5.0909	5.e-002	-9.9343
17332	3.1359	4.8182	0.	-5460.8
17333	3.0437	4.9091	0.	-5501.
17334	3.1359	4.9091	5.e-002	-9.9684
17335	3.1359	4.6364	0.	-5442.1
17336	3.0437	4.7273	0.	-5481.3
17337	3.1359	4.7273	5.e-002	-9.9772
17338	3.1359	4.4545	0.	-5425.2
17339	3.0437	4.5455	0.	-5463.4
17340	3.1359	4.5455	5.e-002	-9.9664
17341	3.1359	4.2727	0.	-5410.2
17342	3.0437	4.3636	0.	-5447.4
17343	3.1359	4.3636	5.e-002	-9.9422
17344	3.1359	4.0909	0.	-5397.2
17345	3.0437	4.1818	0.	-5433.6
17346	3.1359	4.1818	5.e-002	-9.9108
17347	3.1359	3.9091	0.	-5386.2
17348	3.0437	4.	0.	-5421.7
17349	3.1359	4.	5.e-002	-9.8773
17350	3.1359	3.7273	0.	-5377.2
17351	3.0437	3.8182	0.	-5412.
17352	3.1359	3.8182	5.e-002	-9.8456
17353	3.1359	3.5455	0.	-5370.3
17354	3.0437	3.6364	0.	-5404.2
17355	3.1359	3.6364	5.e-002	-9.8184
17356	3.1359	3.3636	0.	-5365.3
17357	3.0437	3.4545	0.	-5398.5
17358	3.1359	3.4545	5.e-002	-9.7972
17359	3.1359	3.1818	0.	-5362.4
17360	3.0437	3.2727	0.	-5394.7
17361	3.1359	3.2727	5.e-002	-9.7829
17362	3.1359	3.	0.	-5361.4
17363	3.0437	3.0909	0.	-5392.8
17364	3.1359	3.0909	5.e-002	-9.7756
17365	3.1359	2.8182	0.	-5362.4
17366	3.0437	2.9091	0.	-5392.8
17367	3.1359	2.9091	5.e-002	-9.7756
17368	3.1359	2.6364	0.	-5365.3
17369	3.0437	2.7273	0.	-5394.7
17370	3.1359	2.7273	5.e-002	-9.7829
17371	3.1359	2.4545	0.	-5370.3
17372	3.0437	2.5455	0.	-5398.5
17373	3.1359	2.5455	5.e-002	-9.7972
17374	3.1359	2.2727	0.	-5377.2
17375	3.0437	2.3636	0.	-5404.2
17376	3.1359	2.3636	5.e-002	-9.8184
17377	3.1359	2.0909	0.	-5386.2
17378	3.0437	2.1818	0.	-5412.
17379	3.1359	2.1818	5.e-002	-9.8456
17380	3.1359	1.9091	0.	-5397.2
17381	3.0437	2.	0.	-5421.7
17382	3.1359	2.	5.e-002	-9.8773
17383	3.1359	1.7273	0.	-5410.2
17384	3.0437	1.8182	0.	-5433.6
17385	3.1359	1.8182	5.e-002	-9.9108
17386	3.1359	1.5455	0.	-5425.2
17387	3.0437	1.6364	0.	-5447.4
17388	3.1359	1.6364	5.e-002	-9.9422
17389	3.1359	1.3636	0.	-5442.1
17390	3.0437	1.4545	0.	-5463.4
17391	3.1359	1.4545	5.e-002	-9.9664
17392	3.1359	1.1818	0.	-5460.8
17393	3.0437	1.2727	0.	-5481.3
17394	3.1359	1.2727	5.e-002	-9.9772
17395	3.1359	1.	0.	-5481.1
17396	3.0437	1.0909	0.	-5501.
17397	3.1359	1.0909	5.e-002	-9.9684
17398	3.1359	0.81818	0.	-5502.9
17399	3.0437	0.90909	0.	-5522.4
17400	3.1359	0.90909	5.e-002	-9.9343
17401	3.1359	0.63636	0.	-5525.9
17402	3.0437	0.72727	0.	-5545.3
17403	3.1359	0.72727	5.e-002	-9.8721
17404	3.1359	0.45455	0.	-5549.9
17405	3.0437	0.54545	0.	-5569.5
17406	3.1359	0.54545	5.e-002	-9.8026
17407	3.1359	0.27273	0.	-5576.2
17408	3.0437	0.36364	0.	-5594.6
17409	3.1359	0.36364	5.e-002	-10.021
17410	3.0437	0.18182	0.	-5623.8
17411	3.1359	0.18182	5.e-002	-16.389
17412	3.1359	9.0909e-002	0.	-5591.9
17413	2.9515	5.7273	0.	-5642.4
17414	2.8592	5.8182	0.	-5690.8
17415	2.9515	5.8182	5.e-002	-17.569
17416	2.9515	5.9091	0.	-5657.8
17417	2.9515	5.5455	0.	-5614.3
17418	2.8592	5.6364	0.	-5659.2
17419	2.9515	5.6364	5.e-002	-10.44
17420	2.9515	5.3636	0.	-5589.
17421	2.8592	5.4545	0.	-5632.6
17422	2.9515	5.4545	5.e-002	-10.227
17423	2.9515	5.1818	0.	-5564.9
17424	2.8592	5.2727	0.	-5607.3
17425	2.9515	5.2727	5.e-002	-10.32
17426	2.9515	5.	0.	-5542.4
17427	2.8592	5.0909	0.	-5583.6
17428	2.9515	5.0909	5.e-002	-10.4
17429	2.9515	4.8182	0.	-5521.5
17430	2.8592	4.9091	0.	-5561.7
17431	2.9515	4.9091	5.e-002	-10.446
17432	2.9515	4.6364	0.	-5502.6
17433	2.8592	4.7273	0.	-5541.7
17434	2.9515	4.7273	5.e-002	-10.461
17435	2.9515	4.4545	0.	-5485.6
17436	2.8592	4.5455	0.	-5523.9
17437	2.9515	4.5455	5.e-002	-10.454
17438	2.9515	4.2727	0.	-5470.8
17439	2.8592	4.3636	0.	-5508.3
17440	2.9515	4.3636	5.e-002	-10.433
17441	2.9515	4.0909	0.	-5458.
17442	2.8592	4.1818	0.	-5494.8
17443	2.9515	4.1818	5.e-002	-10.404
17444	2.9515	3.9091	0.	-5447.4
17445	2.8592	4.	0.	-5483.6
17446	2.9515	4.	5.e-002	-10.374
17447	2.9515	3.7273	0.	-5438.9
17448	2.8592	3.8182	0.	-5474.4
17449	2.9515	3.8182	5.e-002	-10.347
17450	2.9515	3.5455	0.	-5432.3
17451	2.8592	3.6364	0.	-5467.3
17452	2.9515	3.6364	5.e-002	-10.325
17453	2.9515	3.3636	0.	-5427.7
17454	2.8592	3.4545	0.	-5462.
17455	2.9515	3.4545	5.e-002	-10.308
17456	2.9515	3.1818	0.	-5424.9
17457	2.8592	3.2727	0.	-5458.6
17458	2.9515	3.2727	5.e-002	-10.297
17459	2.9515	3.	0.	-5424.
17460	2.8592	3.0909	0.	-5456.9
17461	2.9515	3.0909	5.e-002	-10.292
17462	2.9515	2.8182	0.	-5424.9
17463	2.8592	2.9091	0.	-5456.9
17464	2.9515	2.9091	5.e-002	-10.292
17465	2.9515	2.6364	0.	-5427.7
17466	2.8592	2.7273	0.	-5458.6
17467	2.9515	2.7273	5.e-002	-10.297
17468	2.9515	2.4545	0.	-5432.3
17469	2.8592	2.5455	0.	-5462.
17470	2.9515	2.5455	5.e-002	-10.308
17471	2.9515	2.2727	0.	-5438.9
17472	2.8592	2.3636	0.	-5467.3
17473	2.9515	2.3636	5.e-002	-10.325
17474	2.9515	2.0909	0.	-5447.4
17475	2.8592	2.1818	0.	-5474.4
17476	2.9515	2.1818	5.e-002	-10.347
17477	2.9515	1.9091	0.	-5458.
17478	2.8592	2.	0.	-5483.6
17479	2.9515	2.	5.e-002	-10.374
17480	2.9515	1.7273	0.	-5470.8
17481	2.8592	1.8182	0.	-5494.8
17482	2.9515	1.8182	5.e-002	-10.404
17483	2.9515	1.5455	0.	-5485.6
17484	2.8592	1.6364	0.	-5508.3
17485	2.9515	1.6364	5.e-002	-10.433
17486	2.9515	1.3636	0.	-5502.6
17487	2.8592	1.4545	0.	-5523.9
17488	2.9515	1.4545	5.e-002	-10.454
17489	2.9515	1.1818	0.	-5521.5
17490	2.8592	1.2727	0.	-5541.7
17491	2.9515	1.2727	5.e-002	-10.461
17492	2.9515	1.	0.	-5542.4
17493	2.8592	1.0909	0.	-5561.7
17494	2.9515	1.0909	5.e-002	-10.446
17495	2.9515	0.81818	0.	-5564.9
17496	2.8592	0.90909	0.	-5583.6
17497	2.9515	0.90909	5.e-002	-10.4
17498	2.9515	0.63636	0.	-5589.
17499	2.8592	0.72727	0.	-5607.3
17500	2.9515	0.72727	5.e-002	-10.32
17501	2.9515	0.45455	0.	-5614.3
17502	2.8592	0.54545	0.	-5632.6
17503	2.9515	0.54545	5.e-002	-10.227
17504	2.9515	0.27273	0.	-5642.4
17505	2.8592	0.36364	0.	-5659.2
17506	2.9515	0.36364	5.e-002	-10.44
17507	2.8592	0.18182	0.	-5690.8
17508	2.9515	0.18182	5.e-002	-17.569
17509	2.9515	9.0909e-002	0.	-5657.8
17510	2.767	5.7273	0.	-5707.8
17511	2.6748	5.8182	0.	-5756.6
17512	2.767	5.8182	5.e-002	-18.797
17513	2.767	5.9091	0.	-5722.6
17514	2.767	5.5455	0.	-5677.7
17515	2.6748	5.6364	0.	-5722.5
17516	2.767	5.6364	5.e-002	-10.895
17517	2.767	5.3636	0.	-5651.1
17518	2.6748	5.4545	0.	-5694.5
17519	2.767	5.4545	5.e-002	-10.702
17520	2.767	5.1818	0.	-5626.2
17521	2.6748	5.2727	0.	-5668.2
17522	2.767	5.2727	5.e-002	-10.825
17523	2.767	5.	0.	-5603.1
17524	2.6748	5.0909	0.	-5643.9
17525	2.767	5.0909	5.e-002	-10.927
17526	2.767	4.8182	0.	-5582.
17527	2.6748	4.9091	0.	-5621.8
17528	2.767	4.9091	5.e-002	-10.986
17529	2.767	4.6364	0.	-5563.1
17530	2.6748	4.7273	0.	-5602.
17531	2.767	4.7273	5.e-002	-11.008
17532	2.767	4.4545	0.	-5546.5
17533	2.6748	4.5455	0.	-5584.7
17534	2.767	4.5455	5.e-002	-11.005
17535	2.767	4.2727	0.	-5532.3
17536	2.6748	4.3636	0.	-5569.8
17537	2.767	4.3636	5.e-002	-10.987
17538	2.767	4.0909	0.	-5520.3
17539	2.6748	4.1818	0.	-5557.4
17540	2.767	4.1818	5.e-002	-10.963
17541	2.767	3.9091	0.	-5510.4
17542	2.6748	4.	0.	-5547.2
17543	2.767	4.	5.e-002	-10.939
17544	2.767	3.7273	0.	-5502.7
17545	2.6748	3.8182	0.	-5539.1
17546	2.767	3.8182	5.e-002	-10.919
17547	2.767	3.5455	0.	-5496.8
17548	2.6748	3.6364	0.	-5533.
17549	2.767	3.6364	5.e-002	-10.904
17550	2.767	3.3636	0.	-5492.7
17551	2.6748	3.4545	0.	-5528.5
17552	2.767	3.4545	5.e-002	-10.894
17553	2.767	3.1818	0.	-5490.3
17554	2.6748	3.2727	0.	-5525.7
17555	2.767	3.2727	5.e-002	-10.889
17556	2.767	3.	0.	-5489.5
17557	2.6748	3.0909	0.	-5524.3
17558	2.767	3.0909	5.e-002	-10.886
17559	2.767	2.8182	0.	-5490.3
17560	2.6748	2.9091	0.	-5524.3
17561	2.767	2.9091	5.e-002	-10.886
17562	2.767	2.6364	0.	-5492.7
17563	2.6748	2.7273	0.	-5525.7
17564	2.767	2.7273	5.e-002	-10.889
17565	2.767	2.4545	0.	-5496.8
17566	2.6748	2.5455	0.	-5528.5
17567	2.767	2.5455	5.e-002	-10.894
17568	2.767	2.2727	0.	-5502.7
17569	2.6748	2.3636	0.	-5533.
17570	2.767	2.3636	5.e-002	-10.904
17571	2.767	2.0909	0.	-5510.4
17572	2.6748	2.1818	0.	-5539.1
17573	2.767	2.1818	5.e-002	-10.919
17574	2.767	1.9091	0.	-5520.3
17575	2.6748	2.	0.	-5547.2
17576	2.767	2.	5.e-002	-10.939
17577	2.767	1.7273	0.	-5532.3
17578	2.6748	1.8182	0.	-5557.4
17579	2.767	1.8182	5.e-002	-10.963
17580	2.767	1.5455	0.	-5546.5
17581	2.6748	1.6364	0.	-5569.8
17582	2.767	1.6364	5.e-002	-10.987
17583	2.767	1.3636	0.	-5563.1
17584	2.6748	1.4545	0.	-5584.7
17585	2.767	1.4545	5.e-002	-11.005
17586	2.767	1.1818	0.	-5582.
17587	2.6748	1.2727	0.	-5602.
17588	2.767	1.2727	5.e-002	-11.008
17589	2.767	1.	0.	-5603.1
17590	2.6748	1.0909	0.	-5621.8
17591	2.767	1.0909	5.e-002	-10.986
17592	2.767	0.81818	0.	-5626.2
17593	2.6748	0.90909	0.	-5643.9
17594	2.767	0.90909	5.e-002	-10.927
17595	2.767	0.63636	0.	-5651.1
17596	2.6748	0.72727	0.	-5668.2
17597	2.767	0.72727	5.e-002	-10.825
17598	2.767	0.45455	0.	-5677.7
17599	2.6748	0.54545	0.	-5694.5
17600	2.767	0.54545	5.e-002	-10.702
17601	2.767	0.27273	0.	-5707.8
17602	2.6748	0.36364	0.	-5722.5
17603	2.767	0.36364	5.e-002	-10.895
17604	2.6748	0.18182	0.	-5756.6
17605	2.767	0.18182	5.e-002	-18.797
17606	2.767	9.0909e-002	0.	-5722.6
17607	2.5825	5.7273	0.	-5771.5
17608	2.4903	5.8182	0.	-5820.6
17609	2.5825	5.8182	5.e-002	-20.066
17610	2.5825	5.9091	0.	-5785.4
17611	2.5825	5.5455	0.	-5739.4
17612	2.4903	5.6364	0.	-5783.6
17613	2.5825	5.6364	5.e-002	-11.396
17614	2.5825	5.3636	0.	-5711.7
17615	2.4903	5.4545	0.	-5754.3
17616	2.5825	5.4545	5.e-002	-11.243
17617	2.5825	5.1818	0.	-5686.1
17618	2.4903	5.2727	0.	-5727.3
17619	2.5825	5.2727	5.e-002	-11.404
17620	2.5825	5.	0.	-5662.8
17621	2.4903	5.0909	0.	-5702.7
17622	2.5825	5.0909	5.e-002	-11.53
17623	2.5825	4.8182	0.	-5641.9
17624	2.4903	4.9091	0.	-5680.9
17625	2.5825	4.9091	5.e-002	-11.601
17626	2.5825	4.6364	0.	-5623.6
17627	2.4903	4.7273	0.	-5661.9
17628	2.5825	4.7273	5.e-002	-11.629
17629	2.5825	4.4545	0.	-5608.
17630	2.4903	4.5455	0.	-5645.7
17631	2.5825	4.5455	5.e-002	-11.629
17632	2.5825	4.2727	0.	-5594.9
17633	2.4903	4.3636	0.	-5632.3
17634	2.5825	4.3636	5.e-002	-11.615
17635	2.5825	4.0909	0.	-5584.2
17636	2.4903	4.1818	0.	-5621.6
17637	2.5825	4.1818	5.e-002	-11.597
17638	2.5825	3.9091	0.	-5575.7
17639	2.4903	4.	0.	-5613.1
17640	2.5825	4.	5.e-002	-11.581
17641	2.5825	3.7273	0.	-5569.3
17642	2.4903	3.8182	0.	-5606.7
17643	2.5825	3.8182	5.e-002	-11.572
17644	2.5825	3.5455	0.	-5564.5
17645	2.4903	3.6364	0.	-5602.1
17646	2.5825	3.6364	5.e-002	-11.568
17647	2.5825	3.3636	0.	-5561.3
17648	2.4903	3.4545	0.	-5598.9
17649	2.5825	3.4545	5.e-002	-11.568
17650	2.5825	3.1818	0.	-5559.4
17651	2.4903	3.2727	0.	-5596.9
17652	2.5825	3.2727	5.e-002	-11.57
17653	2.5825	3.	0.	-5558.8
17654	2.4903	3.0909	0.	-5595.9
17655	2.5825	3.0909	5.e-002	-11.572
17656	2.5825	2.8182	0.	-5559.4
17657	2.4903	2.9091	0.	-5595.9
17658	2.5825	2.9091	5.e-002	-11.572
17659	2.5825	2.6364	0.	-5561.3
17660	2.4903	2.7273	0.	-5596.9
17661	2.5825	2.7273	5.e-002	-11.57
17662	2.5825	2.4545	0.	-5564.5
17663	2.4903	2.5455	0.	-5598.9
17664	2.5825	2.5455	5.e-002	-11.568
17665	2.5825	2.2727	0.	-5569.3
17666	2.4903	2.3636	0.	-5602.1
17667	2.5825	2.3636	5.e-002	-11.568
17668	2.5825	2.0909	0.	-5575.7
17669	2.4903	2.1818	0.	-5606.7
17670	2.5825	2.1818	5.e-002	-11.572
17671	2.5825	1.9091	0.	-5584.2
17672	2.4903	2.	0.	-5613.1
17673	2.5825	2.	5.e-002	-11.581
17674	2.5825	1.7273	0.	-5594.9
17675	2.4903	1.8182	0.	-5621.6
17676	2.5825	1.8182	5.e-002	-11.597
17677	2.5825	1.5455	0.	-5608.
17678	2.4903	1.6364	0.	-5632.3
17679	2.5825	1.6364	5.e-002	-11.615
17680	2.5825	1.3636	0.	-5623.6
17681	2.4903	1.4545	0.	-5645.7
17682	2.5825	1.4545	5.e-002	-11.629
17683	2.5825	1.1818	0.	-5641.9
17684	2.4903	1.2727	0.	-5661.9
17685	2.5825	1.2727	5.e-002	-11.63
17686	2.5825	1.	0.	-5662.8
17687	2.4903	1.0909	0.	-5680.9
17688	2.5825	1.0909	5.e-002	-11.601
17689	2.5825	0.81818	0.	-5686.1
17690	2.4903	0.90909	0.	-5702.7
17691	2.5825	0.90909	5.e-002	-11.53
17692	2.5825	0.63636	0.	-5711.7
17693	2.4903	0.72727	0.	-5727.3
17694	2.5825	0.72727	5.e-002	-11.403
17695	2.5825	0.45455	0.	-5739.4
17696	2.4903	0.54545	0.	-5754.3
17697	2.5825	0.54545	5.e-002	-11.243
17698	2.5825	0.27273	0.	-5771.5
17699	2.4903	0.36364	0.	-5783.6
17700	2.5825	0.36364	5.e-002	-11.396
17701	2.4903	0.18182	0.	-5820.6
17702	2.5825	0.18182	5.e-002	-20.066
17703	2.5825	9.0909e-002	0.	-5785.4
17704	2.3981	5.7273	0.	-5832.9
17705	2.3058	5.8182	0.	-5881.7
17706	2.3981	5.8182	5.e-002	-21.367
17707	2.3981	5.9091	0.	-5845.4
17708	2.3981	5.5455	0.	-5798.7
17709	2.3058	5.6364	0.	-5841.7
17710	2.3981	5.6364	5.e-002	-11.959
17711	2.3981	5.3636	0.	-5770.1
17712	2.3058	5.4545	0.	-5811.2
17713	2.3981	5.4545	5.e-002	-11.869
17714	2.3981	5.1818	0.	-5744.1
17715	2.3058	5.2727	0.	-5783.7
17716	2.3981	5.2727	5.e-002	-12.075
17717	2.3981	5.	0.	-5721.
17718	2.3058	5.0909	0.	-5759.5
17719	2.3981	5.0909	5.e-002	-12.226
17720	2.3981	4.8182	0.	-5701.
17721	2.3058	4.9091	0.	-5738.5
17722	2.3981	4.9091	5.e-002	-12.308
17723	2.3981	4.6364	0.	-5684.
17724	2.3058	4.7273	0.	-5721.1
17725	2.3981	4.7273	5.e-002	-12.339
17726	2.3981	4.4545	0.	-5670.
17727	2.3058	4.5455	0.	-5707.
17728	2.3981	4.5455	5.e-002	-12.339
17729	2.3981	4.2727	0.	-5658.9
17730	2.3058	4.3636	0.	-5696.
17731	2.3981	4.3636	5.e-002	-12.328
17732	2.3981	4.0909	0.	-5650.3
17733	2.3058	4.1818	0.	-5687.8
17734	2.3981	4.1818	5.e-002	-12.318
17735	2.3981	3.9091	0.	-5644.
17736	2.3058	4.	0.	-5682.
17737	2.3981	4.	5.e-002	-12.314
17738	2.3981	3.7273	0.	-5639.4
17739	2.3058	3.8182	0.	-5678.
17740	2.3981	3.8182	5.e-002	-12.319
17741	2.3981	3.5455	0.	-5636.2
17742	2.3058	3.6364	0.	-5675.5
17743	2.3981	3.6364	5.e-002	-12.33
17744	2.3981	3.3636	0.	-5634.2
17745	2.3058	3.4545	0.	-5674.
17746	2.3981	3.4545	5.e-002	-12.344
17747	2.3981	3.1818	0.	-5633.1
17748	2.3058	3.2727	0.	-5673.2
17749	2.3981	3.2727	5.e-002	-12.356
17750	2.3981	3.	0.	-5632.8
17751	2.3058	3.0909	0.	-5672.9
17752	2.3981	3.0909	5.e-002	-12.363
17753	2.3981	2.8182	0.	-5633.1
17754	2.3058	2.9091	0.	-5672.9
17755	2.3981	2.9091	5.e-002	-12.363
17756	2.3981	2.6364	0.	-5634.2
17757	2.3058	2.7273	0.	-5673.2
17758	2.3981	2.7273	5.e-002	-12.356
17759	2.3981	2.4545	0.	-5636.2
17760	2.3058	2.5455	0.	-5674.
17761	2.3981	2.5455	5.e-002	-12.344
17762	2.3981	2.2727	0.	-5639.4
17763	2.3058	2.3636	0.	-5675.5
17764	2.3981	2.3636	5.e-002	-12.33
17765	2.3981	2.0909	0.	-5644.
17766	2.3058	2.1818	0.	-5678.
17767	2.3981	2.1818	5.e-002	-12.319
17768	2.3981	1.9091	0.	-5650.3
17769	2.3058	2.	0.	-5682.
17770	2.3981	2.	5.e-002	-12.314
17771	2.3981	1.7273	0.	-5658.9
17772	2.3058	1.8182	0.	-5687.8
17773	2.3981	1.8182	5.e-002	-12.318
17774	2.3981	1.5455	0.	-5670.
17775	2.3058	1.6364	0.	-5696.
17776	2.3981	1.6364	5.e-002	-12.328
17777	2.3981	1.3636	0.	-5684.
17778	2.3058	1.4545	0.	-5707.
17779	2.3981	1.4545	5.e-002	-12.339
17780	2.3981	1.1818	0.	-5701.
17781	2.3058	1.2727	0.	-5721.1
17782	2.3981	1.2727	5.e-002	-12.339
17783	2.3981	1.	0.	-5721.
17784	2.3058	1.0909	0.	-5738.5
17785	2.3981	1.0909	5.e-002	-12.308
17786	2.3981	0.81818	0.	-5744.1
17787	2.3058	0.90909	0.	-5759.5
17788	2.3981	0.90909	5.e-002	-12.226
17789	2.3981	0.63636	0.	-5770.1
17790	2.3058	0.72727	0.	-5783.7
17791	2.3981	0.72727	5.e-002	-12.075
17792	2.3981	0.45455	0.	-5798.7
17793	2.3058	0.54545	0.	-5811.2
17794	2.3981	0.54545	5.e-002	-11.869
17795	2.3981	0.27273	0.	-5832.9
17796	2.3058	0.36364	0.	-5841.7
17797	2.3981	0.36364	5.e-002	-11.959
17798	2.3058	0.18182	0.	-5881.7
17799	2.3981	0.18182	5.e-002	-21.367
17800	2.3981	9.0909e-002	0.	-5845.4
17801	2.2136	5.7273	0.	-5890.7
17802	2.1214	5.8182	0.	-5938.5
17803	2.2136	5.8182	5.e-002	-22.682
17804	2.2136	5.9091	0.	-5901.3
17805	2.2136	5.5455	0.	-5854.4
17806	2.1214	5.6364	0.	-5895.3
17807	2.2136	5.6364	5.e-002	-12.607
17808	2.2136	5.3636	0.	-5825.1
17809	2.1214	5.4545	0.	-5863.8
17810	2.2136	5.4545	5.e-002	-12.613
17811	2.2136	5.1818	0.	-5799.3
17812	2.1214	5.2727	0.	-5836.4
17813	2.2136	5.2727	5.e-002	-12.869
17814	2.2136	5.	0.	-5777.1
17815	2.1214	5.0909	0.	-5813.2
17816	2.2136	5.0909	5.e-002	-13.042
17817	2.2136	4.8182	0.	-5758.7
17818	2.1214	4.9091	0.	-5794.1
17819	2.2136	4.9091	5.e-002	-13.127
17820	2.2136	4.6364	0.	-5744.
17821	2.1214	4.7273	0.	-5779.3
17822	2.2136	4.7273	5.e-002	-13.153
17823	2.2136	4.4545	0.	-5732.8
17824	2.1214	4.5455	0.	-5768.4
17825	2.2136	4.5455	5.e-002	-13.15
17826	2.2136	4.2727	0.	-5724.7
17827	2.1214	4.3636	0.	-5761.1
17828	2.2136	4.3636	5.e-002	-13.141
17829	2.2136	4.0909	0.	-5719.2
17830	2.1214	4.1818	0.	-5756.6
17831	2.2136	4.1818	5.e-002	-13.14
17832	2.2136	3.9091	0.	-5715.8
17833	2.1214	4.	0.	-5754.5
17834	2.2136	4.	5.e-002	-13.152
17835	2.2136	3.7273	0.	-5713.9
17836	2.1214	3.8182	0.	-5753.9
17837	2.2136	3.8182	5.e-002	-13.175
17838	2.2136	3.5455	0.	-5713.
17839	2.1214	3.6364	0.	-5754.4
17840	2.2136	3.6364	5.e-002	-13.206
17841	2.2136	3.3636	0.	-5712.7
17842	2.1214	3.4545	0.	-5755.2
17843	2.2136	3.4545	5.e-002	-13.236
17844	2.2136	3.1818	0.	-5712.7
17845	2.1214	3.2727	0.	-5756.
17846	2.2136	3.2727	5.e-002	-13.26
17847	2.2136	3.	0.	-5712.7
17848	2.1214	3.0909	0.	-5756.4
17849	2.2136	3.0909	5.e-002	-13.273
17850	2.2136	2.8182	0.	-5712.7
17851	2.1214	2.9091	0.	-5756.4
17852	2.2136	2.9091	5.e-002	-13.273
17853	2.2136	2.6364	0.	-5712.7
17854	2.1214	2.7273	0.	-5756.
17855	2.2136	2.7273	5.e-002	-13.26
17856	2.2136	2.4545	0.	-5713.
17857	2.1214	2.5455	0.	-5755.2
17858	2.2136	2.5455	5.e-002	-13.236
17859	2.2136	2.2727	0.	-5713.9
17860	2.1214	2.3636	0.	-5754.4
17861	2.2136	2.3636	5.e-002	-13.206
17862	2.2136	2.0909	0.	-5715.8
17863	2.1214	2.1818	0.	-5753.9
17864	2.2136	2.1818	5.e-002	-13.175
17865	2.2136	1.9091	0.	-5719.2
17866	2.1214	2.	0.	-5754.5
17867	2.2136	2.	5.e-002	-13.152
17868	2.2136	1.7273	0.	-5724.7
17869	2.1214	1.8182	0.	-5756.6
17870	2.2136	1.8182	5.e-002	-13.14
17871	2.2136	1.5455	0.	-5732.8
17872	2.1214	1.6364	0.	-5761.1
17873	2.2136	1.6364	5.e-002	-13.141
17874	2.2136	1.3636	0.	-5744.
17875	2.1214	1.4545	0.	-5768.4
17876	2.2136	1.4545	5.e-002	-13.15
17877	2.2136	1.1818	0.	-5758.7
17878	2.1214	1.2727	0.	-5779.3
17879	2.2136	1.2727	5.e-002	-13.153
17880	2.2136	1.	0.	-5777.1
17881	2.1214	1.0909	0.	-5794.1
17882	2.2136	1.0909	5.e-002	-13.127
17883	2.2136	0.81818	0.	-5799.3
17884	2.1214	0.90909	0.	-5813.2
17885	2.2136	0.90909	5.e-002	-13.042
17886	2.2136	0.63636	0.	-5825.1
17887	2.1214	0.72727	0.	-5836.4
17888	2.2136	0.72727	5.e-002	-12.869
17889	2.2136	0.45455	0.	-5854.4
17890	2.1214	0.54545	0.	-5863.8
17891	2.2136	0.54545	5.e-002	-12.613
17892	2.2136	0.27273	0.	-5890.7
17893	2.1214	0.36364	0.	-5895.3
17894	2.2136	0.36364	5.e-002	-12.607
17895	2.1214	0.18182	0.	-5938.5
17896	2.2136	0.18182	5.e-002	-22.682
17897	2.2136	9.0909e-002	0.	-5901.3
17898	2.0291	5.7273	0.	-5943.3
17899	1.9369	5.8182	0.	-5989.
17900	2.0291	5.8182	5.e-002	-23.991
17901	2.0291	5.9091	0.	-5951.4
17902	2.0291	5.5455	0.	-5905.
17903	1.9369	5.6364	0.	-5942.4
17904	2.0291	5.6364	5.e-002	-13.381
17905	2.0291	5.3636	0.	-5875.4
17906	1.9369	5.4545	0.	-5910.5
17907	2.0291	5.4545	5.e-002	-13.52
17908	2.0291	5.1818	0.	-5850.5
17909	1.9369	5.2727	0.	-5884.
17910	2.0291	5.2727	5.e-002	-13.827
17911	2.0291	5.	0.	-5830.3
17912	1.9369	5.0909	0.	-5862.8
17913	2.0291	5.0909	5.e-002	-14.012
17914	2.0291	4.8182	0.	-5814.7
17915	1.9369	4.9091	0.	-5846.9
17916	2.0291	4.9091	5.e-002	-14.086
17917	2.0291	4.6364	0.	-5803.6
17918	1.9369	4.7273	0.	-5836.3
17919	2.0291	4.7273	5.e-002	-14.094
17920	2.0291	4.4545	0.	-5796.5
17921	1.9369	4.5455	0.	-5830.2
17922	2.0291	4.5455	5.e-002	-14.08
17923	2.0291	4.2727	0.	-5792.8
17924	1.9369	4.3636	0.	-5828.1
17925	2.0291	4.3636	5.e-002	-14.071
17926	2.0291	4.0909	0.	-5791.7
17927	1.9369	4.1818	0.	-5828.9
17928	2.0291	4.1818	5.e-002	-14.08
17929	2.0291	3.9091	0.	-5792.4
17930	1.9369	4.	0.	-5831.8
17931	2.0291	4.	5.e-002	-14.111
17932	2.0291	3.7273	0.	-5794.1
17933	1.9369	3.8182	0.	-5835.8
17934	2.0291	3.8182	5.e-002	-14.158
17935	2.0291	3.5455	0.	-5796.2
17936	1.9369	3.6364	0.	-5840.
17937	2.0291	3.6364	5.e-002	-14.21
17938	2.0291	3.3636	0.	-5798.1
17939	1.9369	3.4545	0.	-5843.8
17940	2.0291	3.4545	5.e-002	-14.259
17941	2.0291	3.1818	0.	-5799.4
17942	1.9369	3.2727	0.	-5846.6
17943	2.0291	3.2727	5.e-002	-14.297
17944	2.0291	3.	0.	-5799.9
17945	1.9369	3.0909	0.	-5848.2
17946	2.0291	3.0909	5.e-002	-14.317
17947	2.0291	2.8182	0.	-5799.4
17948	1.9369	2.9091	0.	-5848.2
17949	2.0291	2.9091	5.e-002	-14.317
17950	2.0291	2.6364	0.	-5798.1
17951	1.9369	2.7273	0.	-5846.6
17952	2.0291	2.7273	5.e-002	-14.297
17953	2.0291	2.4545	0.	-5796.2
17954	1.9369	2.5455	0.	-5843.8
17955	2.0291	2.5455	5.e-002	-14.259
17956	2.0291	2.2727	0.	-5794.1
17957	1.9369	2.3636	0.	-5840.
17958	2.0291	2.3636	5.e-002	-14.21
17959	2.0291	2.0909	0.	-5792.4
17960	1.9369	2.1818	0.	-5835.8
17961	2.0291	2.1818	5.e-002	-14.158
17962	2.0291	1.9091	0.	-5791.7
17963	1.9369	2.	0.	-5831.8
17964	2.0291	2.	5.e-002	-14.111
17965	2.0291	1.7273	0.	-5792.8
17966	1.9369	1.8182	0.	-5828.9
17967	2.0291	1.8182	5.e-002	-14.08
17968	2.0291	1.5455	0.	-5796.5
17969	1.9369	1.6364	0.	-5828.1
17970	2.0291	1.6364	5.e-002	-14.071
17971	2.0291	1.3636	0.	-5803.6
17972	1.9369	1.4545	0.	-5830.2
17973	2.0291	1.4545	5.e-002	-14.08
17974	2.0291	1.1818	0.	-5814.7
17975	1.9369	1.2727	0.	-5836.3
17976	2.0291	1.2727	5.e-002	-14.094
17977	2.0291	1.	0.	-5830.3
17978	1.9369	1.0909	0.	-5846.9
17979	2.0291	1.0909	5.e-002	-14.086
17980	2.0291	0.81818	0.	-5850.5
17981	1.9369	0.90909	0.	-5862.8
17982	2.0291	0.90909	5.e-002	-14.012
17983	2.0291	0.63636	0.	-5875.4
17984	1.9369	0.72727	0.	-5884.
17985	2.0291	0.72727	5.e-002	-13.827
17986	2.0291	0.45455	0.	-5905.
17987	1.9369	0.54545	0.	-5910.5
17988	2.0291	0.54545	5.e-002	-13.52
17989	2.0291	0.27273	0.	-5943.3
17990	1.9369	0.36364	0.	-5942.4
17991	2.0291	0.36364	5.e-002	-13.381
17992	1.9369	0.18182	0.	-5989.
17993	2.0291	0.18182	5.e-002	-23.991
17994	2.0291	9.0909e-002	0.	-5951.4
17995	1.8447	5.7273	0.	-5988.5
17996	1.7524	5.8182	0.	-6030.8
17997	1.8447	5.8182	5.e-002	-25.262
17998	1.8447	5.9091	0.	-5993.2
17999	1.8447	5.5455	0.	-5948.3
18000	1.7524	5.6364	0.	-5980.7
18001	1.8447	5.6364	5.e-002	-14.348
18002	1.8447	5.3636	0.	-5919.3
18003	1.7524	5.4545	0.	-5949.
18004	1.8447	5.4545	5.e-002	-14.662
18005	1.8447	5.1818	0.	-5896.4
18006	1.7524	5.2727	0.	-5924.4
18007	1.8447	5.2727	5.e-002	-15.01
18008	1.8447	5.	0.	-5879.5
18009	1.7524	5.0909	0.	-5906.9
18010	1.8447	5.0909	5.e-002	-15.181
18011	1.8447	4.8182	0.	-5868.5
18012	1.7524	4.9091	0.	-5896.1
18013	1.8447	4.9091	5.e-002	-15.217
18014	1.8447	4.6364	0.	-5862.7
18015	1.7524	4.7273	0.	-5891.7
18016	1.8447	4.7273	5.e-002	-15.188
18017	1.8447	4.4545	0.	-5861.6
18018	1.7524	4.5455	0.	-5892.7
18019	1.8447	4.5455	5.e-002	-15.151
18020	1.8447	4.2727	0.	-5864.
18021	1.7524	4.3636	0.	-5897.8
18022	1.8447	4.3636	5.e-002	-15.138
18023	1.8447	4.0909	0.	-5868.8
18024	1.7524	4.1818	0.	-5905.8
18025	1.8447	4.1818	5.e-002	-15.16
18026	1.8447	3.9091	0.	-5874.9
18027	1.7524	4.	0.	-5915.2
18028	1.8447	4.	5.e-002	-15.213
18029	1.8447	3.7273	0.	-5881.3
18030	1.7524	3.8182	0.	-5925.
18031	1.8447	3.8182	5.e-002	-15.285
18032	1.8447	3.5455	0.	-5887.3
18033	1.7524	3.6364	0.	-5934.1
18034	1.8447	3.6364	5.e-002	-15.362
18035	1.8447	3.3636	0.	-5892.
18036	1.7524	3.4545	0.	-5941.6
18037	1.8447	3.4545	5.e-002	-15.431
18038	1.8447	3.1818	0.	-5895.
18039	1.7524	3.2727	0.	-5947.
18040	1.8447	3.2727	5.e-002	-15.482
18041	1.8447	3.	0.	-5896.1
18042	1.7524	3.0909	0.	-5949.7
18043	1.8447	3.0909	5.e-002	-15.509
18044	1.8447	2.8182	0.	-5895.
18045	1.7524	2.9091	0.	-5949.7
18046	1.8447	2.9091	5.e-002	-15.509
18047	1.8447	2.6364	0.	-5892.
18048	1.7524	2.7273	0.	-5947.
18049	1.8447	2.7273	5.e-002	-15.482
18050	1.8447	2.4545	0.	-5887.3
18051	1.7524	2.5455	0.	-5941.6
18052	1.8447	2.5455	5.e-002	-15.431
18053	1.8447	2.2727	0.	-5881.3
18054	1.7524	2.3636	0.	-5934.1
18055	1.8447	2.3636	5.e-002	-15.362
18056	1.8447	2.0909	0.	-5874.9
18057	1.7524	2.1818	0.	-5925.
18058	1.8447	2.1818	5.e-002	-15.285
18059	1.8447	1.9091	0.	-5868.8
18060	1.7524	2.	0.	-5915.2
18061	1.8447	2.	5.e-002	-15.213
18062	1.8447	1.7273	0.	-5864.
18063	1.7524	1.8182	0.	-5905.8
18064	1.8447	1.8182	5.e-002	-15.16
18065	1.8447	1.5455	0.	-5861.6
18066	1.7524	1.6364	0.	-5897.8
18067	1.8447	1.6364	5.e-002	-15.138
18068	1.8447	1.3636	0.	-5862.7
18069	1.7524	1.4545	0.	-5892.7
18070	1.8447	1.4545	5.e-002	-15.151
18071	1.8447	1.1818	0.	-5868.5
18072	1.7524	1.2727	0.	-5891.7
18073	1.8447	1.2727	5.e-002	-15.188
18074	1.8447	1.	0.	-5879.5
18075	1.7524	1.0909	0.	-5896.1
18076	1.8447	1.0909	5.e-002	-15.217
18077	1.8447	0.81818	0.	-5896.4
18078	1.7524	0.90909	0.	-5906.9
18079	1.8447	0.90909	5.e-002	-15.181
18080	1.8447	0.63636	0.	-5919.3
18081	1.7524	0.72727	0.	-5924.4
18082	1.8447	0.72727	5.e-002	-15.01
18083	1.8447	0.45455	0.	-5948.3
18084	1.7524	0.54545	0.	-5949.
18085	1.8447	0.54545	5.e-002	-14.662
18086	1.8447	0.27273	0.	-5988.5
18087	1.7524	0.36364	0.	-5980.7
18088	1.8447	0.36364	5.e-002	-14.348
18089	1.7524	0.18182	0.	-6030.8
18090	1.8447	0.18182	5.e-002	-25.262
18091	1.8447	9.0909e-002	0.	-5993.2
18092	1.6602	5.7273	0.	-6023.3
18093	1.568	5.8182	0.	-6059.9
18094	1.6602	5.8182	5.e-002	-26.454
18095	1.6602	5.9091	0.	-6023.7
18096	1.6602	5.5455	0.	-5981.7
18097	1.568	5.6364	0.	-6006.3
18098	1.6602	5.6364	5.e-002	-15.616
18099	1.6602	5.3636	0.	-5954.3
18100	1.568	5.4545	0.	-5976.
18101	1.6602	5.4545	5.e-002	-16.143
18102	1.6602	5.1818	0.	-5935.
18103	1.568	5.2727	0.	-5955.2
18104	1.6602	5.2727	5.e-002	-16.5
18105	1.6602	5.	0.	-5923.6
18106	1.568	5.0909	0.	-5943.8
18107	1.6602	5.0909	5.e-002	-16.609
18108	1.6602	4.8182	0.	-5919.4
18109	1.568	4.9091	0.	-5941.
18110	1.6602	4.9091	5.e-002	-16.562
18111	1.6602	4.6364	0.	-5921.5
18112	1.568	4.7273	0.	-5945.8
18113	1.6602	4.7273	5.e-002	-16.466
18114	1.6602	4.4545	0.	-5928.7
18115	1.568	4.5455	0.	-5956.6
18116	1.6602	4.5455	5.e-002	-16.391
18117	1.6602	4.2727	0.	-5939.3
18118	1.568	4.3636	0.	-5971.5
18119	1.6602	4.3636	5.e-002	-16.371
18120	1.6602	4.0909	0.	-5951.9
18121	1.568	4.1818	0.	-5988.8
18122	1.6602	4.1818	5.e-002	-16.406
18123	1.6602	3.9091	0.	-5965.
18124	1.568	4.	0.	-6006.7
18125	1.6602	4.	5.e-002	-16.482
18126	1.6602	3.7273	0.	-5977.4
18127	1.568	3.8182	0.	-6023.7
18128	1.6602	3.8182	5.e-002	-16.579
18129	1.6602	3.5455	0.	-5988.1
18130	1.568	3.6364	0.	-6038.6
18131	1.6602	3.6364	5.e-002	-16.678
18132	1.6602	3.3636	0.	-5996.2
18133	1.568	3.4545	0.	-6050.5
18134	1.6602	3.4545	5.e-002	-16.763
18135	1.6602	3.1818	0.	-6001.3
18136	1.568	3.2727	0.	-6058.9
18137	1.6602	3.2727	5.e-002	-16.826
18138	1.6602	3.	0.	-6003.1
18139	1.568	3.0909	0.	-6063.1
18140	1.6602	3.0909	5.e-002	-16.858
18141	1.6602	2.8182	0.	-6001.3
18142	1.568	2.9091	0.	-6063.1
18143	1.6602	2.9091	5.e-002	-16.858
18144	1.6602	2.6364	0.	-5996.2
18145	1.568	2.7273	0.	-6058.9
18146	1.6602	2.7273	5.e-002	-16.826
18147	1.6602	2.4545	0.	-5988.1
18148	1.568	2.5455	0.	-6050.5
18149	1.6602	2.5455	5.e-002	-16.763
18150	1.6602	2.2727	0.	-5977.4
18151	1.568	2.3636	0.	-6038.6
18152	1.6602	2.3636	5.e-002	-16.678
18153	1.6602	2.0909	0.	-5965.
18154	1.568	2.1818	0.	-6023.7
18155	1.6602	2.1818	5.e-002	-16.579
18156	1.6602	1.9091	0.	-5951.9
18157	1.568	2.	0.	-6006.7
18158	1.6602	2.	5.e-002	-16.482
18159	1.6602	1.7273	0.	-5939.3
18160	1.568	1.8182	0.	-5988.8
18161	1.6602	1.8182	5.e-002	-16.406
18162	1.6602	1.5455	0.	-5928.7
18163	1.568	1.6364	0.	-5971.5
18164	1.6602	1.6364	5.e-002	-16.371
18165	1.6602	1.3636	0.	-5921.5
18166	1.568	1.4545	0.	-5956.6
18167	1.6602	1.4545	5.e-002	-16.391
18168	1.6602	1.1818	0.	-5919.4
18169	1.568	1.2727	0.	-5945.8
18170	1.6602	1.2727	5.e-002	-16.466
18171	1.6602	1.	0.	-5923.6
18172	1.568	1.0909	0.	-5941.
18173	1.6602	1.0909	5.e-002	-16.562
18174	1.6602	0.81818	0.	-5935.
18175	1.568	0.90909	0.	-5943.8
18176	1.6602	0.90909	5.e-002	-16.609
18177	1.6602	0.63636	0.	-5954.3
18178	1.568	0.72727	0.	-5955.2
18179	1.6602	0.72727	5.e-002	-16.5
18180	1.6602	0.45455	0.	-5981.7
18181	1.568	0.54545	0.	-5976.
18182	1.6602	0.54545	5.e-002	-16.143
18183	1.6602	0.27273	0.	-6023.3
18184	1.568	0.36364	0.	-6006.3
18185	1.6602	0.36364	5.e-002	-15.616
18186	1.568	0.18182	0.	-6059.9
18187	1.6602	0.18182	5.e-002	-26.454
18188	1.6602	9.0909e-002	0.	-6023.7
18189	1.4757	5.7273	0.	-6043.3
18190	1.3835	5.8182	0.	-6070.9
18191	1.4757	5.8182	5.e-002	-27.514
18192	1.4757	5.9091	0.	-6037.9
18193	1.4757	5.5455	0.	-6001.
18194	1.3835	5.6364	0.	-6014.3
18195	1.4757	5.6364	5.e-002	-17.369
18196	1.4757	5.3636	0.	-5977.2
18197	1.3835	5.4545	0.	-5987.2
18198	1.4757	5.4545	5.e-002	-18.122
18199	1.4757	5.1818	0.	-5964.1
18200	1.3835	5.2727	0.	-5973.3
18201	1.4757	5.2727	5.e-002	-18.411
18202	1.4757	5.	0.	-5961.2
18203	1.3835	5.0909	0.	-5971.6
18204	1.4757	5.0909	5.e-002	-18.369
18205	1.4757	4.8182	0.	-5967.2
18206	1.3835	4.9091	0.	-5980.8
18207	1.4757	4.9091	5.e-002	-18.17
18208	1.4757	4.6364	0.	-5980.5
18209	1.3835	4.7273	0.	-5998.9
18210	1.4757	4.7273	5.e-002	-17.965
18211	1.4757	4.4545	0.	-5999.1
18212	1.3835	4.5455	0.	-6023.3
18213	1.4757	4.5455	5.e-002	-17.837
18214	1.4757	4.2727	0.	-6020.6
18215	1.3835	4.3636	0.	-6051.2
18216	1.4757	4.3636	5.e-002	-17.805
18217	1.4757	4.0909	0.	-6043.2
18218	1.3835	4.1818	0.	-6080.3
18219	1.4757	4.1818	5.e-002	-17.852
18220	1.4757	3.9091	0.	-6064.9
18221	1.3835	4.	0.	-6108.5
18222	1.4757	4.	5.e-002	-17.947
18223	1.4757	3.7273	0.	-6084.5
18224	1.3835	3.8182	0.	-6134.1
18225	1.4757	3.8182	5.e-002	-18.063
18226	1.4757	3.5455	0.	-6100.7
18227	1.3835	3.6364	0.	-6155.8
18228	1.4757	3.6364	5.e-002	-18.176
18229	1.4757	3.3636	0.	-6112.9
18230	1.3835	3.4545	0.	-6172.8
18231	1.4757	3.4545	5.e-002	-18.27
18232	1.4757	3.1818	0.	-6120.4
18233	1.3835	3.2727	0.	-6184.5
18234	1.4757	3.2727	5.e-002	-18.337
18235	1.4757	3.	0.	-6122.9
18236	1.3835	3.0909	0.	-6190.4
18237	1.4757	3.0909	5.e-002	-18.372
18238	1.4757	2.8182	0.	-6120.4
18239	1.3835	2.9091	0.	-6190.4
18240	1.4757	2.9091	5.e-002	-18.372
18241	1.4757	2.6364	0.	-6112.9
18242	1.3835	2.7273	0.	-6184.5
18243	1.4757	2.7273	5.e-002	-18.337
18244	1.4757	2.4545	0.	-6100.7
18245	1.3835	2.5455	0.	-6172.8
18246	1.4757	2.5455	5.e-002	-18.27
18247	1.4757	2.2727	0.	-6084.5
18248	1.3835	2.3636	0.	-6155.8
18249	1.4757	2.3636	5.e-002	-18.176
18250	1.4757	2.0909	0.	-6064.9
18251	1.3835	2.1818	0.	-6134.1
18252	1.4757	2.1818	5.e-002	-18.063
18253	1.4757	1.9091	0.	-6043.2
18254	1.3835	2.	0.	-6108.5
18255	1.4757	2.	5.e-002	-17.947
18256	1.4757	1.7273	0.	-6020.6
18257	1.3835	1.8182	0.	-6080.3
18258	1.4757	1.8182	5.e-002	-17.852
18259	1.4757	1.5455	0.	-5999.1
18260	1.3835	1.6364	0.	-6051.2
18261	1.4757	1.6364	5.e-002	-17.805
18262	1.4757	1.3636	0.	-5980.5
18263	1.3835	1.4545	0.	-6023.3
18264	1.4757	1.4545	5.e-002	-17.837
18265	1.4757	1.1818	0.	-5967.2
18266	1.3835	1.2727	0.	-5998.9
18267	1.4757	1.2727	5.e-002	-17.965
18268	1.4757	1.	0.	-5961.2
18269	1.3835	1.0909	0.	-5980.8
18270	1.4757	1.0909	5.e-002	-18.17
18271	1.4757	0.81818	0.	-5964.1
18272	1.3835	0.90909	0.	-5971.6
18273	1.4757	0.90909	5.e-002	-18.369
18274	1.4757	0.63636	0.	-5977.2
18275	1.3835	0.72727	0.	-5973.3
18276	1.4757	0.72727	5.e-002	-18.411
18277	1.4757	0.45455	0.	-6001.
18278	1.3835	0.54545	0.	-5987.2
18279	1.4757	0.54545	5.e-002	-18.122
18280	1.4757	0.27273	0.	-6043.3
18281	1.3835	0.36364	0.	-6014.3
18282	1.4757	0.36364	5.e-002	-17.369
18283	1.3835	0.18182	0.	-6070.9
18284	1.4757	0.18182	5.e-002	-27.514
18285	1.4757	9.0909e-002	0.	-6037.9
18286	1.2913	5.7273	0.	-6042.3
18287	1.199	5.8182	0.	-6055.6
18288	1.2913	5.8182	5.e-002	-28.386
18289	1.2913	5.9091	0.	-6029.2
18290	1.2913	5.5455	0.	-6000.9
18291	1.199	5.6364	0.	-5997.1
18292	1.2913	5.6364	5.e-002	-19.9
18293	1.2913	5.3636	0.	-5983.6
18294	1.199	5.4545	0.	-5976.8
18295	1.2913	5.4545	5.e-002	-20.827
18296	1.2913	5.1818	0.	-5980.8
18297	1.199	5.2727	0.	-5974.7
18298	1.2913	5.2727	5.e-002	-20.89
18299	1.2913	5.	0.	-5991.1
18300	1.199	5.0909	0.	-5988.7
18301	1.2913	5.0909	5.e-002	-20.545
18302	1.2913	4.8182	0.	-6012.2
18303	1.199	4.9091	0.	-6016.1
18304	1.2913	4.9091	5.e-002	-20.093
18305	1.2913	4.6364	0.	-6041.2
18306	1.199	4.7273	0.	-6053.
18307	1.2913	4.7273	5.e-002	-19.733
18308	1.2913	4.4545	0.	-6075.
18309	1.199	4.5455	0.	-6095.6
18310	1.2913	4.5455	5.e-002	-19.535
18311	1.2913	4.2727	0.	-6110.5
18312	1.199	4.3636	0.	-6140.2
18313	1.2913	4.3636	5.e-002	-19.485
18314	1.2913	4.0909	0.	-6145.2
18315	1.199	4.1818	0.	-6183.7
18316	1.2913	4.1818	5.e-002	-19.535
18317	1.2913	3.9091	0.	-6177.3
18318	1.199	4.	0.	-6224.
18319	1.2913	4.	5.e-002	-19.637
18320	1.2913	3.7273	0.	-6205.1
18321	1.199	3.8182	0.	-6259.3
18322	1.2913	3.8182	5.e-002	-19.754
18323	1.2913	3.5455	0.	-6227.6
18324	1.199	3.6364	0.	-6288.5
18325	1.2913	3.6364	5.e-002	-19.863
18326	1.2913	3.3636	0.	-6244.2
18327	1.199	3.4545	0.	-6311.
18328	1.2913	3.4545	5.e-002	-19.951
18329	1.2913	3.1818	0.	-6254.2
18330	1.199	3.2727	0.	-6326.1
18331	1.2913	3.2727	5.e-002	-20.012
18332	1.2913	3.	0.	-6257.6
18333	1.199	3.0909	0.	-6333.8
18334	1.2913	3.0909	5.e-002	-20.043
18335	1.2913	2.8182	0.	-6254.2
18336	1.199	2.9091	0.	-6333.8
18337	1.2913	2.9091	5.e-002	-20.043
18338	1.2913	2.6364	0.	-6244.2
18339	1.199	2.7273	0.	-6326.1
18340	1.2913	2.7273	5.e-002	-20.012
18341	1.2913	2.4545	0.	-6227.6
18342	1.199	2.5455	0.	-6311.
18343	1.2913	2.5455	5.e-002	-19.951
18344	1.2913	2.2727	0.	-6205.1
18345	1.199	2.3636	0.	-6288.5
18346	1.2913	2.3636	5.e-002	-19.863
18347	1.2913	2.0909	0.	-6177.3
18348	1.199	2.1818	0.	-6259.3
18349	1.2913	2.1818	5.e-002	-19.754
18350	1.2913	1.9091	0.	-6145.2
18351	1.199	2.	0.	-6224.
18352	1.2913	2.	5.e-002	-19.637
18353	1.2913	1.7273	0.	-6110.5
18354	1.199	1.8182	0.	-6183.7
18355	1.2913	1.8182	5.e-002	-19.535
18356	1.2913	1.5455	0.	-6075.
18357	1.199	1.6364	0.	-6140.2
18358	1.2913	1.6364	5.e-002	-19.485
18359	1.2913	1.3636	0.	-6041.2
18360	1.199	1.4545	0.	-6095.6
18361	1.2913	1.4545	5.e-002	-19.535
18362	1.2913	1.1818	0.	-6012.2
18363	1.199	1.2727	0.	-6053.
18364	1.2913	1.2727	5.e-002	-19.733
18365	1.2913	1.	0.	-5991.1
18366	1.199	1.0909	0.	-6016.1
18367	1.2913	1.0909	5.e-002	-20.093
18368	1.2913	0.81818	0.	-5980.8
18369	1.199	0.90909	0.	-5988.7
18370	1.2913	0.90909	5.e-002	-20.545
18371	1.2913	0.63636	0.	-5983.6
18372	1.199	0.72727	0.	-5974.7
18373	1.2913	0.72727	5.e-002	-20.89
18374	1.2913	0.45455	0.	-6000.9
18375	1.199	0.54545	0.	-5976.8
18376	1.2913	0.54545	5.e-002	-20.827
18377	1.2913	0.27273	0.	-6042.3
18378	1.199	0.36364	0.	-5997.1
18379	1.2913	0.36364	5.e-002	-19.9
18380	1.199	0.18182	0.	-6055.6
18381	1.2913	0.18182	5.e-002	-28.386
18382	1.2913	9.0909e-002	0.	-6029.2
18383	1.1068	5.7273	0.	-6010.9
18384	1.0146	5.8182	0.	-6000.9
18385	1.1068	5.8182	5.e-002	-29.08
18386	1.1068	5.9091	0.	-5987.1
18387	1.1068	5.5455	0.	-5973.5
18388	1.0146	5.6364	0.	-5943.3
18389	1.1068	5.6364	5.e-002	-23.702
18390	1.1068	5.3636	0.	-5968.1
18391	1.0146	5.4545	0.	-5936.3
18392	1.1068	5.4545	5.e-002	-24.591
18393	1.1068	5.1818	0.	-5982.5
18394	1.0146	5.2727	0.	-5954.7
18395	1.1068	5.2727	5.e-002	-24.118
18396	1.1068	5.	0.	-6013.3
18397	1.0146	5.0909	0.	-5994.1
18398	1.1068	5.0909	5.e-002	-23.232
18399	1.1068	4.8182	0.	-6056.4
18400	1.0146	4.9091	0.	-6048.5
18401	1.1068	4.9091	5.e-002	-22.404
18402	1.1068	4.6364	0.	-6106.9
18403	1.0146	4.7273	0.	-6111.7
18404	1.1068	4.7273	5.e-002	-21.847
18405	1.1068	4.4545	0.	-6160.3
18406	1.0146	4.5455	0.	-6178.
18407	1.1068	4.5455	5.e-002	-21.569
18408	1.1068	4.2727	0.	-6213.
18409	1.0146	4.3636	0.	-6242.8
18410	1.1068	4.3636	5.e-002	-21.489
18411	1.1068	4.0909	0.	-6262.1
18412	1.0146	4.1818	0.	-6303.1
18413	1.1068	4.1818	5.e-002	-21.52
18414	1.1068	3.9091	0.	-6305.7
18415	1.0146	4.	0.	-6356.6
18416	1.1068	4.	5.e-002	-21.598
18417	1.1068	3.7273	0.	-6342.5
18418	1.0146	3.8182	0.	-6402.2
18419	1.1068	3.8182	5.e-002	-21.684
18420	1.1068	3.5455	0.	-6371.6
18421	1.0146	3.6364	0.	-6439.2
18422	1.1068	3.6364	5.e-002	-21.76
18423	1.1068	3.3636	0.	-6392.7
18424	1.0146	3.4545	0.	-6467.
18425	1.1068	3.4545	5.e-002	-21.819
18426	1.1068	3.1818	0.	-6405.5
18427	1.0146	3.2727	0.	-6485.6
18428	1.1068	3.2727	5.e-002	-21.858
18429	1.1068	3.	0.	-6409.7
18430	1.0146	3.0909	0.	-6495.
18431	1.1068	3.0909	5.e-002	-21.877
18432	1.1068	2.8182	0.	-6405.5
18433	1.0146	2.9091	0.	-6495.
18434	1.1068	2.9091	5.e-002	-21.877
18435	1.1068	2.6364	0.	-6392.7
18436	1.0146	2.7273	0.	-6485.6
18437	1.1068	2.7273	5.e-002	-21.858
18438	1.1068	2.4545	0.	-6371.6
18439	1.0146	2.5455	0.	-6467.
18440	1.1068	2.5455	5.e-002	-21.819
18441	1.1068	2.2727	0.	-6342.5
18442	1.0146	2.3636	0.	-6439.2
18443	1.1068	2.3636	5.e-002	-21.76
18444	1.1068	2.0909	0.	-6305.7
18445	1.0146	2.1818	0.	-6402.2
18446	1.1068	2.1818	5.e-002	-21.684
18447	1.1068	1.9091	0.	-6262.1
18448	1.0146	2.	0.	-6356.6
18449	1.1068	2.	5.e-002	-21.598
18450	1.1068	1.7273	0.	-6213.
18451	1.0146	1.8182	0.	-6303.1
18452	1.1068	1.8182	5.e-002	-21.52
18453	1.1068	1.5455	0.	-6160.3
18454	1.0146	1.6364	0.	-6242.8
18455	1.1068	1.6364	5.e-002	-21.489
18456	1.1068	1.3636	0.	-6106.9
18457	1.0146	1.4545	0.	-6178.
18458	1.1068	1.4545	5.e-002	-21.569
18459	1.1068	1.1818	0.	-6056.4
18460	1.0146	1.2727	0.	-6111.7
18461	1.1068	1.2727	5.e-002	-21.847
18462	1.1068	1.	0.	-6013.3
18463	1.0146	1.0909	0.	-6048.5
18464	1.1068	1.0909	5.e-002	-22.404
18465	1.1068	0.81818	0.	-5982.5
18466	1.0146	0.90909	0.	-5994.1
18467	1.1068	0.90909	5.e-002	-23.232
18468	1.1068	0.63636	0.	-5968.1
18469	1.0146	0.72727	0.	-5954.7
18470	1.1068	0.72727	5.e-002	-24.118
18471	1.1068	0.45455	0.	-5973.5
18472	1.0146	0.54545	0.	-5936.3
18473	1.1068	0.54545	5.e-002	-24.591
18474	1.1068	0.27273	0.	-6010.9
18475	1.0146	0.36364	0.	-5943.3
18476	1.1068	0.36364	5.e-002	-23.702
18477	1.0146	0.18182	0.	-6000.9
18478	1.1068	0.18182	5.e-002	-29.08
18479	1.1068	9.0909e-002	0.	-5987.1
18480	0.92233	5.7273	0.	-5933.8
18481	0.8301	5.8182	0.	-5885.6
18482	0.92233	5.8182	5.e-002	-29.796
18483	0.92233	5.9091	0.	-5894.6
18484	0.92233	5.5455	0.	-5906.5
18485	0.8301	5.6364	0.	-5836.4
18486	0.92233	5.6364	5.e-002	-29.558
18487	0.92233	5.3636	0.	-5922.9
18488	0.8301	5.4545	0.	-5856.2
18489	0.92233	5.4545	5.e-002	-29.868
18490	0.92233	5.1818	0.	-5965.8
18491	0.8301	5.2727	0.	-5911.4
18492	0.92233	5.2727	5.e-002	-28.274
18493	0.92233	5.	0.	-6028.5
18494	0.8301	5.0909	0.	-5991.6
18495	0.92233	5.0909	5.e-002	-26.493
18496	0.92233	4.8182	0.	-6103.
18497	0.8301	4.9091	0.	-6085.8
18498	0.92233	4.9091	5.e-002	-25.162
18499	0.92233	4.6364	0.	-6182.1
18500	0.8301	4.7273	0.	-6184.1
18501	0.92233	4.7273	5.e-002	-24.378
18502	0.92233	4.4545	0.	-6260.
18503	0.8301	4.5455	0.	-6279.6
18504	0.92233	4.5455	5.e-002	-23.997
18505	0.92233	4.2727	0.	-6332.5
18506	0.8301	4.3636	0.	-6367.6
18507	0.92233	4.3636	5.e-002	-23.845
18508	0.92233	4.0909	0.	-6397.3
18509	0.8301	4.1818	0.	-6445.7
18510	0.92233	4.1818	5.e-002	-23.799
18511	0.92233	3.9091	0.	-6453.
18512	0.8301	4.	0.	-6512.8
18513	0.92233	4.	5.e-002	-23.792
18514	0.92233	3.7273	0.	-6498.7
18515	0.8301	3.8182	0.	-6568.3
18516	0.92233	3.8182	5.e-002	-23.793
18517	0.92233	3.5455	0.	-6534.4
18518	0.8301	3.6364	0.	-6612.3
18519	0.92233	3.6364	5.e-002	-23.791
18520	0.92233	3.3636	0.	-6559.8
18521	0.8301	3.4545	0.	-6645.
18522	0.92233	3.4545	5.e-002	-23.787
18523	0.92233	3.1818	0.	-6575.
18524	0.8301	3.2727	0.	-6666.7
18525	0.92233	3.2727	5.e-002	-23.782
18526	0.92233	3.	0.	-6580.
18527	0.8301	3.0909	0.	-6677.5
18528	0.92233	3.0909	5.e-002	-23.778
18529	0.92233	2.8182	0.	-6575.
18530	0.8301	2.9091	0.	-6677.5
18531	0.92233	2.9091	5.e-002	-23.778
18532	0.92233	2.6364	0.	-6559.8
18533	0.8301	2.7273	0.	-6666.7
18534	0.92233	2.7273	5.e-002	-23.782
18535	0.92233	2.4545	0.	-6534.4
18536	0.8301	2.5455	0.	-6645.
18537	0.92233	2.5455	5.e-002	-23.787
18538	0.92233	2.2727	0.	-6498.7
18539	0.8301	2.3636	0.	-6612.3
18540	0.92233	2.3636	5.e-002	-23.791
18541	0.92233	2.0909	0.	-6453.
18542	0.8301	2.1818	0.	-6568.3
18543	0.92233	2.1818	5.e-002	-23.793
18544	0.92233	1.9091	0.	-6397.3
18545	0.8301	2.	0.	-6512.8
18546	0.92233	2.	5.e-002	-23.792
18547	0.92233	1.7273	0.	-6332.5
18548	0.8301	1.8182	0.	-6445.7
18549	0.92233	1.8182	5.e-002	-23.799
18550	0.92233	1.5455	0.	-6260.
18551	0.8301	1.6364	0.	-6367.6
18552	0.92233	1.6364	5.e-002	-23.845
18553	0.92233	1.3636	0.	-6182.1
18554	0.8301	1.4545	0.	-6279.6
18555	0.92233	1.4545	5.e-002	-23.997
18556	0.92233	1.1818	0.	-6103.
18557	0.8301	1.2727	0.	-6184.1
18558	0.92233	1.2727	5.e-002	-24.378
18559	0.92233	1.	0.	-6028.5
18560	0.8301	1.0909	0.	-6085.8
18561	0.92233	1.0909	5.e-002	-25.162
18562	0.92233	0.81818	0.	-5965.8
18563	0.8301	0.90909	0.	-5991.6
18564	0.92233	0.90909	5.e-002	-26.493
18565	0.92233	0.63636	0.	-5922.9
18566	0.8301	0.72727	0.	-5911.4
18567	0.92233	0.72727	5.e-002	-28.274
18568	0.92233	0.45455	0.	-5906.5
18569	0.8301	0.54545	0.	-5856.2
18570	0.92233	0.54545	5.e-002	-29.868
18571	0.92233	0.27273	0.	-5933.8
18572	0.8301	0.36364	0.	-5836.4
18573	0.92233	0.36364	5.e-002	-29.558
18574	0.8301	0.18182	0.	-5885.6
18575	0.92233	0.18182	5.e-002	-29.796
18576	0.92233	9.0909e-002	0.	-5894.6
18577	0.73786	5.7273	0.	-5788.8
18578	0.64563	5.8182	0.	-5667.9
18579	0.73786	5.8182	5.e-002	-32.095
18580	0.73786	5.9091	0.	-5724.4
18581	0.73786	5.5455	0.	-5786.3
18582	0.64563	5.6364	0.	-5644.6
18583	0.73786	5.6364	5.e-002	-38.837
18584	0.73786	5.3636	0.	-5844.1
18585	0.64563	5.4545	0.	-5719.4
18586	0.73786	5.4545	5.e-002	-37.189
18587	0.73786	5.1818	0.	-5936.1
18588	0.64563	5.2727	0.	-5841.2
18589	0.73786	5.2727	5.e-002	-33.508
18590	0.73786	5.	0.	-6047.8
18591	0.64563	5.0909	0.	-5986.3
18592	0.73786	5.0909	5.e-002	-30.516
18593	0.73786	4.8182	0.	-6166.1
18594	0.64563	4.9091	0.	-6135.7
18595	0.73786	4.9091	5.e-002	-28.672
18596	0.73786	4.6364	0.	-6281.1
18597	0.64563	4.7273	0.	-6277.5
18598	0.73786	4.7273	5.e-002	-27.682
18599	0.73786	4.4545	0.	-6386.9
18600	0.64563	4.5455	0.	-6405.5
18601	0.73786	4.5455	5.e-002	-27.163
18602	0.73786	4.2727	0.	-6480.7
18603	0.64563	4.3636	0.	-6517.1
18604	0.73786	4.3636	5.e-002	-26.859
18605	0.73786	4.0909	0.	-6561.1
18606	0.64563	4.1818	0.	-6612.
18607	0.73786	4.1818	5.e-002	-26.646
18608	0.73786	3.9091	0.	-6628.
18609	0.64563	4.	0.	-6690.8
18610	0.73786	4.	5.e-002	-26.47
18611	0.73786	3.7273	0.	-6681.8
18612	0.64563	3.8182	0.	-6754.5
18613	0.73786	3.8182	5.e-002	-26.318
18614	0.73786	3.5455	0.	-6722.9
18615	0.64563	3.6364	0.	-6804.
18616	0.73786	3.6364	5.e-002	-26.187
18617	0.73786	3.3636	0.	-6751.9
18618	0.64563	3.4545	0.	-6840.3
18619	0.73786	3.4545	5.e-002	-26.084
18620	0.73786	3.1818	0.	-6769.1
18621	0.64563	3.2727	0.	-6864.1
18622	0.73786	3.2727	5.e-002	-26.012
18623	0.73786	3.	0.	-6774.8
18624	0.64563	3.0909	0.	-6875.9
18625	0.73786	3.0909	5.e-002	-25.975
18626	0.73786	2.8182	0.	-6769.1
18627	0.64563	2.9091	0.	-6875.9
18628	0.73786	2.9091	5.e-002	-25.975
18629	0.73786	2.6364	0.	-6751.9
18630	0.64563	2.7273	0.	-6864.1
18631	0.73786	2.7273	5.e-002	-26.012
18632	0.73786	2.4545	0.	-6722.9
18633	0.64563	2.5455	0.	-6840.3
18634	0.73786	2.5455	5.e-002	-26.084
18635	0.73786	2.2727	0.	-6681.8
18636	0.64563	2.3636	0.	-6804.
18637	0.73786	2.3636	5.e-002	-26.187
18638	0.73786	2.0909	0.	-6628.
18639	0.64563	2.1818	0.	-6754.5
18640	0.73786	2.1818	5.e-002	-26.318
18641	0.73786	1.9091	0.	-6561.1
18642	0.64563	2.	0.	-6690.8
18643	0.73786	2.	5.e-002	-26.47
18644	0.73786	1.7273	0.	-6480.7
18645	0.64563	1.8182	0.	-6612.
18646	0.73786	1.8182	5.e-002	-26.646
18647	0.73786	1.5455	0.	-6386.9
18648	0.64563	1.6364	0.	-6517.1
18649	0.73786	1.6364	5.e-002	-26.859
18650	0.73786	1.3636	0.	-6281.1
18651	0.64563	1.4545	0.	-6405.5
18652	0.73786	1.4545	5.e-002	-27.163
18653	0.73786	1.1818	0.	-6166.1
18654	0.64563	1.2727	0.	-6277.5
18655	0.73786	1.2727	5.e-002	-27.682
18656	0.73786	1.	0.	-6047.8
18657	0.64563	1.0909	0.	-6135.7
18658	0.73786	1.0909	5.e-002	-28.672
18659	0.73786	0.81818	0.	-5936.1
18660	0.64563	0.90909	0.	-5986.3
18661	0.73786	0.90909	5.e-002	-30.516
18662	0.73786	0.63636	0.	-5844.1
18663	0.64563	0.72727	0.	-5841.2
18664	0.73786	0.72727	5.e-002	-33.508
18665	0.73786	0.45455	0.	-5786.3
18666	0.64563	0.54545	0.	-5719.4
18667	0.73786	0.54545	5.e-002	-37.189
18668	0.73786	0.27273	0.	-5788.8
18669	0.64563	0.36364	0.	-5644.6
18670	0.73786	0.36364	5.e-002	-38.837
18671	0.64563	0.18182	0.	-5667.9
18672	0.73786	0.18182	5.e-002	-32.095
18673	0.73786	9.0909e-002	0.	-5724.4
18674	0.5534	5.7273	0.	-5523.7
18675	0.46117	5.8182	0.	-5277.5
18676	0.5534	5.8182	5.e-002	-40.119
18677	0.5534	5.9091	0.	-5416.6
18678	0.5534	5.5455	0.	-5576.9
18679	0.46117	5.6364	0.	-5341.6
18680	0.5534	5.6364	5.e-002	-53.854
18681	0.5534	5.3636	0.	-5714.7
18682	0.46117	5.4545	0.	-5544.
18683	0.5534	5.4545	5.e-002	-46.893
18684	0.5534	5.1818	0.	-5889.8
18685	0.46117	5.2727	0.	-5788.7
18686	0.5534	5.2727	5.e-002	-39.654
18687	0.5534	5.	0.	-6073.3
18688	0.46117	5.0909	0.	-6030.5
18689	0.5534	5.0909	5.e-002	-35.181
18690	0.5534	4.8182	0.	-6246.9
18691	0.46117	4.9091	0.	-6248.9
18692	0.5534	4.9091	5.e-002	-32.703
18693	0.5534	4.6364	0.	-6401.9
18694	0.46117	4.7273	0.	-6437.3
18695	0.5534	4.7273	5.e-002	-31.299
18696	0.5534	4.4545	0.	-6535.8
18697	0.46117	4.5455	0.	-6595.8
18698	0.5534	4.5455	5.e-002	-30.375
18699	0.5534	4.2727	0.	-6648.6
18700	0.46117	4.3636	0.	-6727.2
18701	0.5534	4.3636	5.e-002	-29.673
18702	0.5534	4.0909	0.	-6741.8
18703	0.46117	4.1818	0.	-6834.8
18704	0.5534	4.1818	5.e-002	-29.092
18705	0.5534	3.9091	0.	-6817.3
18706	0.46117	4.	0.	-6921.5
18707	0.5534	4.	5.e-002	-28.599
18708	0.5534	3.7273	0.	-6876.7
18709	0.46117	3.8182	0.	-6990.1
18710	0.5534	3.8182	5.e-002	-28.185
18711	0.5534	3.5455	0.	-6921.4
18712	0.46117	3.6364	0.	-7042.7
18713	0.5534	3.6364	5.e-002	-27.852
18714	0.5534	3.3636	0.	-6952.6
18715	0.46117	3.4545	0.	-7080.8
18716	0.5534	3.4545	5.e-002	-27.599
18717	0.5534	3.1818	0.	-6970.9
18718	0.46117	3.2727	0.	-7105.5
18719	0.5534	3.2727	5.e-002	-27.43
18720	0.5534	3.	0.	-6977.
18721	0.46117	3.0909	0.	-7117.7
18722	0.5534	3.0909	5.e-002	-27.345
18723	0.5534	2.8182	0.	-6970.9
18724	0.46117	2.9091	0.	-7117.7
18725	0.5534	2.9091	5.e-002	-27.345
18726	0.5534	2.6364	0.	-6952.6
18727	0.46117	2.7273	0.	-7105.5
18728	0.5534	2.7273	5.e-002	-27.43
18729	0.5534	2.4545	0.	-6921.4
18730	0.46117	2.5455	0.	-7080.8
18731	0.5534	2.5455	5.e-002	-27.599
18732	0.5534	2.2727	0.	-6876.7
18733	0.46117	2.3636	0.	-7042.7
18734	0.5534	2.3636	5.e-002	-27.852
18735	0.5534	2.0909	0.	-6817.3
18736	0.46117	2.1818	0.	-6990.1
18737	0.5534	2.1818	5.e-002	-28.185
18738	0.5534	1.9091	0.	-6741.8
18739	0.46117	2.	0.	-6921.5
18740	0.5534	2.	5.e-002	-28.599
18741	0.5534	1.7273	0.	-6648.6
18742	0.46117	1.8182	0.	-6834.8
18743	0.5534	1.8182	5.e-002	-29.092
18744	0.5534	1.5455	0.	-6535.8
18745	0.46117	1.6364	0.	-6727.2
18746	0.5534	1.6364	5.e-002	-29.673
18747	0.5534	1.3636	0.	-6401.9
18748	0.46117	1.4545	0.	-6595.8
18749	0.5534	1.4545	5.e-002	-30.375
18750	0.5534	1.1818	0.	-6246.9
18751	0.46117	1.2727	0.	-6437.3
18752	0.5534	1.2727	5.e-002	-31.299
18753	0.5534	1.	0.	-6073.3
18754	0.46117	1.0909	0.	-6248.9
18755	0.5534	1.0909	5.e-002	-32.703
18756	0.5534	0.81818	0.	-5889.8
18757	0.46117	0.90909	0.	-6030.5
18758	0.5534	0.90909	5.e-002	-35.181
18759	0.5534	0.63636	0.	-5714.7
18760	0.46117	0.72727	0.	-5788.7
18761	0.5534	0.72727	5.e-002	-39.654
18762	0.5534	0.45455	0.	-5576.9
18763	0.46117	0.54545	0.	-5544.
18764	0.5534	0.54545	5.e-002	-46.893
18765	0.5534	0.27273	0.	-5523.7
18766	0.46117	0.36364	0.	-5341.6
18767	0.5534	0.36364	5.e-002	-53.854
18768	0.46117	0.18182	0.	-5277.5
18769	0.5534	0.18182	5.e-002	-40.119
18770	0.5534	9.0909e-002	0.	-5416.6
18771	0.36893	5.7273	0.	-5093.9
18772	0.2767	5.8182	0.	-4461.2
18773	0.36893	5.8182	5.e-002	-70.139
18774	0.36893	5.9091	0.	-4876.6
18775	0.36893	5.5455	0.	-5305.
18776	0.2767	5.6364	0.	-4822.4
18777	0.36893	5.6364	5.e-002	-78.012
18778	0.36893	5.3636	0.	-5614.9
18779	0.2767	5.4545	0.	-5311.4
18780	0.36893	5.4545	5.e-002	-59.417
18781	0.36893	5.1818	0.	-5928.4
18782	0.2767	5.2727	0.	-5740.1
18783	0.36893	5.2727	5.e-002	-48.903
18784	0.36893	5.	0.	-6206.3
18785	0.2767	5.0909	0.	-6090.6
18786	0.36893	5.0909	5.e-002	-43.508
18787	0.36893	4.8182	0.	-6439.9
18788	0.2767	4.9091	0.	-6369.6
18789	0.36893	4.9091	5.e-002	-40.643
18790	0.36893	4.6364	0.	-6631.7
18791	0.2767	4.7273	0.	-6590.9
18792	0.36893	4.7273	5.e-002	-38.709
18793	0.36893	4.4545	0.	-6787.8
18794	0.2767	4.5455	0.	-6766.6
18795	0.36893	4.5455	5.e-002	-37.209
18796	0.36893	4.2727	0.	-6913.8
18797	0.2767	4.3636	0.	-6906.4
18798	0.36893	4.3636	5.e-002	-35.972
18799	0.36893	4.0909	0.	-7014.7
18800	0.2767	4.1818	0.	-7017.4
18801	0.36893	4.1818	5.e-002	-34.937
18802	0.36893	3.9091	0.	-7094.5
18803	0.2767	4.	0.	-7104.9
18804	0.36893	4.	5.e-002	-34.076
18805	0.36893	3.7273	0.	-7156.2
18806	0.2767	3.8182	0.	-7173.1
18807	0.36893	3.8182	5.e-002	-33.376
18808	0.36893	3.5455	0.	-7202.1
18809	0.2767	3.6364	0.	-7224.6
18810	0.36893	3.6364	5.e-002	-32.827
18811	0.36893	3.3636	0.	-7233.7
18812	0.2767	3.4545	0.	-7261.6
18813	0.36893	3.4545	5.e-002	-32.421
18814	0.36893	3.1818	0.	-7252.3
18815	0.2767	3.2727	0.	-7285.5
18816	0.36893	3.2727	5.e-002	-32.153
18817	0.36893	3.	0.	-7258.4
18818	0.2767	3.0909	0.	-7297.2
18819	0.36893	3.0909	5.e-002	-32.02
18820	0.36893	2.8182	0.	-7252.3
18821	0.2767	2.9091	0.	-7297.2
18822	0.36893	2.9091	5.e-002	-32.02
18823	0.36893	2.6364	0.	-7233.7
18824	0.2767	2.7273	0.	-7285.5
18825	0.36893	2.7273	5.e-002	-32.153
18826	0.36893	2.4545	0.	-7202.1
18827	0.2767	2.5455	0.	-7261.6
18828	0.36893	2.5455	5.e-002	-32.421
18829	0.36893	2.2727	0.	-7156.2
18830	0.2767	2.3636	0.	-7224.6
18831	0.36893	2.3636	5.e-002	-32.827
18832	0.36893	2.0909	0.	-7094.5
18833	0.2767	2.1818	0.	-7173.1
18834	0.36893	2.1818	5.e-002	-33.376
18835	0.36893	1.9091	0.	-7014.7
18836	0.2767	2.	0.	-7104.9
18837	0.36893	2.	5.e-002	-34.076
18838	0.36893	1.7273	0.	-6913.8
18839	0.2767	1.8182	0.	-7017.4
18840	0.36893	1.8182	5.e-002	-34.937
18841	0.36893	1.5455	0.	-6787.8
18842	0.2767	1.6364	0.	-6906.4
18843	0.36893	1.6364	5.e-002	-35.972
18844	0.36893	1.3636	0.	-6631.7
18845	0.2767	1.4545	0.	-6766.6
18846	0.36893	1.4545	5.e-002	-37.209
18847	0.36893	1.1818	0.	-6439.9
18848	0.2767	1.2727	0.	-6590.9
18849	0.36893	1.2727	5.e-002	-38.709
18850	0.36893	1.	0.	-6206.3
18851	0.2767	1.0909	0.	-6369.6
18852	0.36893	1.0909	5.e-002	-40.643
18853	0.36893	0.81818	0.	-5928.4
18854	0.2767	0.90909	0.	-6090.6
18855	0.36893	0.90909	5.e-002	-43.508
18856	0.36893	0.63636	0.	-5614.9
18857	0.2767	0.72727	0.	-5740.1
18858	0.36893	0.72727	5.e-002	-48.903
18859	0.36893	0.45455	0.	-5305.
18860	0.2767	0.54545	0.	-5311.4
18861	0.36893	0.54545	5.e-002	-59.417
18862	0.36893	0.27273	0.	-5093.9
18863	0.2767	0.36364	0.	-4822.4
18864	0.36893	0.36364	5.e-002	-78.012
18865	0.2767	0.18182	0.	-4461.2
18866	0.36893	0.18182	5.e-002	-70.139
18867	0.36893	9.0909e-002	0.	-4876.6
18868	0.18447	5.7273	0.	-4174.7
18869	0.18447	5.8182	5.e-002	-169.74
18870	0.18447	5.9091	0.	-3692.8
18871	9.2233e-002	5.8182	0.	-3193.9
18872	0.18447	5.5455	0.	-4828.6
18873	0.18447	5.6364	5.e-002	-108.23
18874	9.2233e-002	5.6364	0.	-4547.4
18875	0.18447	5.3636	0.	-5443.8
18876	0.18447	5.4545	5.e-002	-73.448
18877	9.2233e-002	5.4545	0.	-5426.3
18878	0.18447	5.1818	0.	-5909.1
18879	0.18447	5.2727	5.e-002	-56.218
18880	9.2233e-002	5.2727	0.	-6017.9
18881	0.18447	5.	0.	-6258.6
18882	0.18447	5.0909	5.e-002	-47.275
18883	9.2233e-002	5.0909	0.	-6434.1
18884	0.18447	4.8182	0.	-6523.6
18885	0.18447	4.9091	5.e-002	-41.17
18886	9.2233e-002	4.9091	0.	-6738.6
18887	0.18447	4.6364	0.	-6727.6
18888	0.18447	4.7273	5.e-002	-36.716
18889	9.2233e-002	4.7273	0.	-6967.7
18890	0.18447	4.4545	0.	-6886.4
18891	0.18447	4.5455	5.e-002	-33.316
18892	9.2233e-002	4.5455	0.	-7143.4
18893	0.18447	4.2727	0.	-7010.7
18894	0.18447	4.3636	5.e-002	-30.663
18895	9.2233e-002	4.3636	0.	-7279.6
18896	0.18447	4.0909	0.	-7108.1
18897	0.18447	4.1818	5.e-002	-28.574
18898	9.2233e-002	4.1818	0.	-7385.9
18899	0.18447	3.9091	0.	-7183.8
18900	0.18447	4.	5.e-002	-26.93
18901	9.2233e-002	4.	0.	-7468.6
18902	0.18447	3.7273	0.	-7241.6
18903	0.18447	3.8182	5.e-002	-25.652
18904	9.2233e-002	3.8182	0.	-7532.3
18905	0.18447	3.5455	0.	-7284.2
18906	0.18447	3.6364	5.e-002	-24.683
18907	9.2233e-002	3.6364	0.	-7580.
18908	0.18447	3.3636	0.	-7313.4
18909	0.18447	3.4545	5.e-002	-23.986
18910	9.2233e-002	3.4545	0.	-7614.2
18911	0.18447	3.1818	0.	-7330.5
18912	0.18447	3.2727	5.e-002	-23.534
18913	9.2233e-002	3.2727	0.	-7636.1
18914	0.18447	3.	0.	-7336.1
18915	0.18447	3.0909	5.e-002	-23.312
18916	9.2233e-002	3.0909	0.	-7646.9
18917	0.18447	2.8182	0.	-7330.5
18918	0.18447	2.9091	5.e-002	-23.312
18919	9.2233e-002	2.9091	0.	-7646.9
18920	0.18447	2.6364	0.	-7313.4
18921	0.18447	2.7273	5.e-002	-23.534
18922	9.2233e-002	2.7273	0.	-7636.1
18923	0.18447	2.4545	0.	-7284.2
18924	0.18447	2.5455	5.e-002	-23.986
18925	9.2233e-002	2.5455	0.	-7614.2
18926	0.18447	2.2727	0.	-7241.6
18927	0.18447	2.3636	5.e-002	-24.683
18928	9.2233e-002	2.3636	0.	-7580.
18929	0.18447	2.0909	0.	-7183.8
18930	0.18447	2.1818	5.e-002	-25.652
18931	9.2233e-002	2.1818	0.	-7532.3
18932	0.18447	1.9091	0.	-7108.1
18933	0.18447	2.	5.e-002	-26.93
18934	9.2233e-002	2.	0.	-7468.6
18935	0.18447	1.7273	0.	-7010.7
18936	0.18447	1.8182	5.e-002	-28.574
18937	9.2233e-002	1.8182	0.	-7385.9
18938	0.18447	1.5455	0.	-6886.4
18939	0.18447	1.6364	5.e-002	-30.663
18940	9.2233e-002	1.6364	0.	-7279.6
18941	0.18447	1.3636	0.	-6727.6
18942	0.18447	1.4545	5.e-002	-33.316
18943	9.2233e-002	1.4545	0.	-7143.4
18944	0.18447	1.1818	0.	-6523.6
18945	0.18447	1.2727	5.e-002	-36.716
18946	9.2233e-002	1.2727	0.	-6967.7
18947	0.18447	1.	0.	-6258.6
18948	0.18447	1.0909	5.e-002	-41.17
18949	9.2233e-002	1.0909	0.	-6738.6
18950	0.18447	0.81818	0.	-5909.1
18951	0.18447	0.90909	5.e-002	-47.275
18952	9.2233e-002	0.90909	0.	-6434.1
18953	0.18447	0.63636	0.	-5443.8
18954	0.18447	0.72727	5.e-002	-56.218
18955	9.2233e-002	0.72727	0.	-6017.9
18956	0.18447	0.45455	0.	-4828.6
18957	0.18447	0.54545	5.e-002	-73.448
18958	9.2233e-002	0.54545	0.	-5426.3
18959	0.18447	0.27273	0.	-4174.7
18960	0.18447	0.36364	5.e-002	-108.23
18961	9.2233e-002	0.36364	0.	-4547.4
18962	0.18447	0.18182	5.e-002	-169.74
18963	0.18447	9.0909e-002	0.	-3692.8
18964	9.2233e-002	0.18182	0.	-3193.9
18965	19.346	0.27273	0.	-188.56
18966	19.435	0.18182	0.	-193.
18967	19.346	0.18182	5.e-002	-12.712
18968	19.346	9.0909e-002	0.	-125.33
18969	19.256	0.18182	0.	-113.56
18970	19.346	0.45455	0.	-261.55
18971	19.435	0.36364	0.	-243.84
18972	19.346	0.36364	5.e-002	-11.664
18973	19.256	0.36364	0.	-180.28
18974	19.346	0.63636	0.	-344.4
18975	19.435	0.54545	0.	-313.32
18976	19.346	0.54545	5.e-002	-12.761
18977	19.256	0.54545	0.	-249.5
18978	19.346	0.81818	0.	-438.51
18979	19.435	0.72727	0.	-394.81
18980	19.346	0.72727	5.e-002	-14.734
18981	19.256	0.72727	0.	-323.88
18982	19.346	1.	0.	-550.06
18983	19.435	0.90909	0.	-490.76
18984	19.346	0.90909	5.e-002	-17.615
18985	19.256	0.90909	0.	-408.29
18986	19.346	1.1818	0.	-688.9
18987	19.435	1.0909	0.	-607.15
18988	19.346	1.0909	5.e-002	-21.666
18989	19.256	1.0909	0.	-509.25
18990	19.346	1.3636	0.	-873.75
18991	19.435	1.2727	0.	-754.08
18992	19.346	1.2727	5.e-002	-27.788
18993	19.256	1.2727	0.	-636.61
18994	19.346	1.5455	0.	-1138.9
18995	19.435	1.4545	0.	-950.7
18996	19.346	1.4545	5.e-002	-36.001
18997	19.256	1.4545	0.	-810.86
18998	19.346	1.7273	0.	-1603.1
18999	19.435	1.6364	0.	-1225.5
19000	19.346	1.6364	5.e-002	-54.399
19001	19.256	1.6364	0.	-1061.9
19002	19.346	1.9091	0.	-2300.1
19003	19.435	1.8182	0.	-1698.6
19004	19.346	1.8182	5.e-002	-96.906
19005	19.256	1.8182	0.	-1523.6
19006	19.346	2.0909	0.	-2739.8
19007	19.435	2.	0.	-2262.1
19008	19.346	2.	5.e-002	-166.25
19009	19.256	2.	0.	-4120.1
19010	19.346	2.2727	0.	-2703.5
19011	19.435	2.1818	0.	-2439.8
19012	19.346	2.1818	5.e-002	-106.12
19013	19.346	2.4545	0.	-2512.7
19014	19.435	2.3636	0.	-2377.1
19015	19.346	2.3636	5.e-002	-44.739
19016	19.346	2.6364	0.	-2349.6
19017	19.435	2.5455	0.	-2258.5
19018	19.346	2.5455	5.e-002	-24.912
19019	19.346	2.8182	0.	-2261.9
19020	19.435	2.7273	0.	-2177.7
19021	19.346	2.7273	5.e-002	-15.303
19022	19.346	3.	0.	-2233.8
19023	19.435	2.9091	0.	-2137.2
19024	19.346	2.9091	5.e-002	-12.057
19025	19.346	3.1818	0.	-2261.9
19026	19.435	3.0909	0.	-2137.2
19027	19.346	3.0909	5.e-002	-12.057
19028	19.346	3.3636	0.	-2349.6
19029	19.435	3.2727	0.	-2177.7
19030	19.346	3.2727	5.e-002	-15.303
19031	19.346	3.5455	0.	-2512.7
19032	19.435	3.4545	0.	-2258.5
19033	19.346	3.4545	5.e-002	-24.912
19034	19.346	3.7273	0.	-2703.5
19035	19.435	3.6364	0.	-2377.1
19036	19.346	3.6364	5.e-002	-44.739
19037	19.346	3.9091	0.	-2739.8
19038	19.435	3.8182	0.	-2439.8
19039	19.346	3.8182	5.e-002	-106.12
19040	19.346	4.0909	0.	-2300.1
19041	19.435	4.	0.	-2262.1
19042	19.346	4.	5.e-002	-166.25
19043	19.256	4.	0.	-4120.1
19044	19.346	4.2727	0.	-1603.1
19045	19.435	4.1818	0.	-1698.6
19046	19.346	4.1818	5.e-002	-96.906
19047	19.256	4.1818	0.	-1523.6
19048	19.346	4.4545	0.	-1138.9
19049	19.435	4.3636	0.	-1225.5
19050	19.346	4.3636	5.e-002	-54.399
19051	19.256	4.3636	0.	-1061.9
19052	19.346	4.6364	0.	-873.75
19053	19.435	4.5455	0.	-950.7
19054	19.346	4.5455	5.e-002	-36.001
19055	19.256	4.5455	0.	-810.86
19056	19.346	4.8182	0.	-688.9
19057	19.435	4.7273	0.	-754.08
19058	19.346	4.7273	5.e-002	-27.788
19059	19.256	4.7273	0.	-636.61
19060	19.346	5.	0.	-550.06
19061	19.435	4.9091	0.	-607.15
19062	19.346	4.9091	5.e-002	-21.666
19063	19.256	4.9091	0.	-509.25
19064	19.346	5.1818	0.	-438.51
19065	19.435	5.0909	0.	-490.76
19066	19.346	5.0909	5.e-002	-17.615
19067	19.256	5.0909	0.	-408.29
19068	19.346	5.3636	0.	-344.4
19069	19.435	5.2727	0.	-394.81
19070	19.346	5.2727	5.e-002	-14.734
19071	19.256	5.2727	0.	-323.88
19072	19.346	5.5455	0.	-261.55
19073	19.435	5.4545	0.	-313.32
19074	19.346	5.4545	5.e-002	-12.761
19075	19.256	5.4545	0.	-249.5
19076	19.346	5.7273	0.	-188.56
19077	19.435	5.6364	0.	-243.84
19078	19.346	5.6364	5.e-002	-11.664
19079	19.256	5.6364	0.	-180.28
19080	19.435	5.8182	0.	-193.
19081	19.346	5.8182	5.e-002	-12.712
19082	19.346	5.9091	0.	-125.33
19083	19.256	5.8182	0.	-113.56
19084	19.525	0.27273	0.	-252.63
19085	19.614	0.18182	0.	-272.2
19086	19.525	0.18182	5.e-002	-10.79
19087	19.525	9.0909e-002	0.	-214.45
19088	19.525	0.45455	0.	-302.27
19089	19.614	0.36364	0.	-303.4
19090	19.525	0.36364	5.e-002	-9.1868
19091	19.525	0.63636	0.	-370.54
19092	19.614	0.54545	0.	-356.53
19093	19.525	0.54545	5.e-002	-9.3896
19094	19.525	0.81818	0.	-454.07
19095	19.614	0.72727	0.	-425.94
19096	19.525	0.72727	5.e-002	-10.109
19097	19.525	1.	0.	-555.58
19098	19.614	0.90909	0.	-511.62
19099	19.525	0.90909	5.e-002	-11.321
19100	19.525	1.1818	0.	-681.64
19101	19.614	1.0909	0.	-616.74
19102	19.525	1.0909	5.e-002	-13.132
19103	19.525	1.3636	0.	-842.89
19104	19.614	1.2727	0.	-747.5
19105	19.525	1.2727	5.e-002	-15.42
19106	19.525	1.5455	0.	-1054.7
19107	19.614	1.4545	0.	-913.
19108	19.525	1.4545	5.e-002	-19.645
19109	19.525	1.7273	0.	-1336.
19110	19.614	1.6364	0.	-1124.2
19111	19.525	1.6364	5.e-002	-22.407
19112	19.525	1.9091	0.	-1654.1
19113	19.614	1.8182	0.	-1387.1
19114	19.525	1.8182	5.e-002	-33.956
19115	19.525	2.0909	0.	-1938.6
19116	19.614	2.	0.	-1651.9
19117	19.525	2.	5.e-002	-33.241
19118	19.525	2.2727	0.	-2095.6
19119	19.614	2.1818	0.	-1864.4
19120	19.525	2.1818	5.e-002	-48.842
19121	19.525	2.4545	0.	-2115.8
19122	19.614	2.3636	0.	-1949.5
19123	19.525	2.3636	5.e-002	-36.819
19124	19.525	2.6364	0.	-2082.6
19125	19.614	2.5455	0.	-1956.8
19126	19.525	2.5455	5.e-002	-27.041
19127	19.525	2.8182	0.	-2049.9
19128	19.614	2.7273	0.	-1940.7
19129	19.525	2.7273	5.e-002	-19.672
19130	19.525	3.	0.	-2037.8
19131	19.614	2.9091	0.	-1928.3
19132	19.525	2.9091	5.e-002	-16.49
19133	19.525	3.1818	0.	-2049.9
19134	19.614	3.0909	0.	-1928.3
19135	19.525	3.0909	5.e-002	-16.49
19136	19.525	3.3636	0.	-2082.6
19137	19.614	3.2727	0.	-1940.7
19138	19.525	3.2727	5.e-002	-19.672
19139	19.525	3.5455	0.	-2115.8
19140	19.614	3.4545	0.	-1956.8
19141	19.525	3.4545	5.e-002	-27.041
19142	19.525	3.7273	0.	-2095.6
19143	19.614	3.6364	0.	-1949.5
19144	19.525	3.6364	5.e-002	-36.819
19145	19.525	3.9091	0.	-1938.6
19146	19.614	3.8182	0.	-1864.4
19147	19.525	3.8182	5.e-002	-48.842
19148	19.525	4.0909	0.	-1654.1
19149	19.614	4.	0.	-1651.9
19150	19.525	4.	5.e-002	-33.241
19151	19.525	4.2727	0.	-1336.
19152	19.614	4.1818	0.	-1387.1
19153	19.525	4.1818	5.e-002	-33.956
19154	19.525	4.4545	0.	-1054.7
19155	19.614	4.3636	0.	-1124.2
19156	19.525	4.3636	5.e-002	-22.407
19157	19.525	4.6364	0.	-842.89
19158	19.614	4.5455	0.	-913.
19159	19.525	4.5455	5.e-002	-19.645
19160	19.525	4.8182	0.	-681.64
19161	19.614	4.7273	0.	-747.5
19162	19.525	4.7273	5.e-002	-15.42
19163	19.525	5.	0.	-555.58
19164	19.614	4.9091	0.	-616.74
19165	19.525	4.9091	5.e-002	-13.132
19166	19.525	5.1818	0.	-454.07
19167	19.614	5.0909	0.	-511.62
19168	19.525	5.0909	5.e-002	-11.321
19169	19.525	5.3636	0.	-370.54
19170	19.614	5.2727	0.	-425.94
19171	19.525	5.2727	5.e-002	-10.109
19172	19.525	5.5455	0.	-302.27
19173	19.614	5.4545	0.	-356.53
19174	19.525	5.4545	5.e-002	-9.3896
19175	19.525	5.7273	0.	-252.63
19176	19.614	5.6364	0.	-303.4
19177	19.525	5.6364	5.e-002	-9.1868
19178	19.614	5.8182	0.	-272.2
19179	19.525	5.8182	5.e-002	-10.79
19180	19.525	5.9091	0.	-214.45
19181	19.704	0.27273	0.	-323.83
19182	19.793	0.18182	0.	-343.03
19183	19.704	0.18182	5.e-002	-9.6544
19184	19.704	9.0909e-002	0.	-294.35
19185	19.704	0.45455	0.	-360.58
19186	19.793	0.36364	0.	-366.08
19187	19.704	0.36364	5.e-002	-7.9312
19188	19.704	0.63636	0.	-416.33
19189	19.793	0.54545	0.	-408.13
19190	19.704	0.54545	5.e-002	-8.0595
19191	19.704	0.81818	0.	-488.75
19192	19.793	0.72727	0.	-466.29
19193	19.704	0.72727	5.e-002	-8.5061
19194	19.704	1.	0.	-578.75
19195	19.793	0.90909	0.	-540.42
19196	19.704	0.90909	5.e-002	-9.1924
19197	19.704	1.1818	0.	-689.29
19198	19.793	1.0909	0.	-631.85
19199	19.704	1.0909	5.e-002	-10.099
19200	19.704	1.3636	0.	-824.93
19201	19.793	1.2727	0.	-742.97
19202	19.704	1.2727	5.e-002	-11.251
19203	19.704	1.5455	0.	-989.05
19204	19.793	1.4545	0.	-876.74
19205	19.704	1.4545	5.e-002	-12.369
19206	19.704	1.7273	0.	-1180.1
19207	19.793	1.6364	0.	-1033.2
19208	19.704	1.6364	5.e-002	-13.877
19209	19.704	1.9091	0.	-1385.7
19210	19.793	1.8182	0.	-1207.2
19211	19.704	1.8182	5.e-002	-17.552
19212	19.704	2.0909	0.	-1574.2
19213	19.793	2.	0.	-1383.1
19214	19.704	2.	5.e-002	-22.348
19215	19.704	2.2727	0.	-1710.7
19216	19.793	2.1818	0.	-1531.9
19217	19.704	2.1818	5.e-002	-25.63
19218	19.704	2.4545	0.	-1783.8
19219	19.793	2.3636	0.	-1632.1
19220	19.704	2.3636	5.e-002	-27.11
19221	19.704	2.6364	0.	-1810.
19222	19.793	2.5455	0.	-1682.6
19223	19.704	2.5455	5.e-002	-23.272
19224	19.704	2.8182	0.	-1815.1
19225	19.793	2.7273	0.	-1702.7
19226	19.704	2.7273	5.e-002	-20.006
19227	19.704	3.	0.	-1815.2
19228	19.793	2.9091	0.	-1708.8
19229	19.704	2.9091	5.e-002	-18.075
19230	19.704	3.1818	0.	-1815.1
19231	19.793	3.0909	0.	-1708.8
19232	19.704	3.0909	5.e-002	-18.075
19233	19.704	3.3636	0.	-1810.
19234	19.793	3.2727	0.	-1702.7
19235	19.704	3.2727	5.e-002	-20.006
19236	19.704	3.5455	0.	-1783.8
19237	19.793	3.4545	0.	-1682.6
19238	19.704	3.4545	5.e-002	-23.272
19239	19.704	3.7273	0.	-1710.7
19240	19.793	3.6364	0.	-1632.1
19241	19.704	3.6364	5.e-002	-27.11
19242	19.704	3.9091	0.	-1574.2
19243	19.793	3.8182	0.	-1531.9
19244	19.704	3.8182	5.e-002	-25.63
19245	19.704	4.0909	0.	-1385.7
19246	19.793	4.	0.	-1383.1
19247	19.704	4.	5.e-002	-22.348
19248	19.704	4.2727	0.	-1180.1
19249	19.793	4.1818	0.	-1207.2
19250	19.704	4.1818	5.e-002	-17.552
19251	19.704	4.4545	0.	-989.05
19252	19.793	4.3636	0.	-1033.2
19253	19.704	4.3636	5.e-002	-13.877
19254	19.704	4.6364	0.	-824.93
19255	19.793	4.5455	0.	-876.74
19256	19.704	4.5455	5.e-002	-12.369
19257	19.704	4.8182	0.	-689.29
19258	19.793	4.7273	0.	-742.97
19259	19.704	4.7273	5.e-002	-11.251
19260	19.704	5.	0.	-578.75
19261	19.793	4.9091	0.	-631.85
19262	19.704	4.9091	5.e-002	-10.099
19263	19.704	5.1818	0.	-488.75
19264	19.793	5.0909	0.	-540.42
19265	19.704	5.0909	5.e-002	-9.1924
19266	19.704	5.3636	0.	-416.33
19267	19.793	5.2727	0.	-466.29
19268	19.704	5.2727	5.e-002	-8.5061
19269	19.704	5.5455	0.	-360.58
19270	19.793	5.4545	0.	-408.13
19271	19.704	5.4545	5.e-002	-8.0595
19272	19.704	5.7273	0.	-323.83
19273	19.793	5.6364	0.	-366.08
19274	19.704	5.6364	5.e-002	-7.9312
19275	19.793	5.8182	0.	-343.03
19276	19.704	5.8182	5.e-002	-9.6544
19277	19.704	5.9091	0.	-294.35
19278	19.883	0.27273	0.	-385.67
19279	19.972	0.18182	0.	-400.95
19280	19.883	0.18182	5.e-002	-8.3923
19281	19.883	9.0909e-002	0.	-361.05
19282	19.883	0.45455	0.	-414.9
19283	19.972	0.36364	0.	-419.56
19284	19.883	0.36364	5.e-002	-6.5246
19285	19.883	0.63636	0.	-460.53
19286	19.972	0.54545	0.	-453.83
19287	19.883	0.54545	5.e-002	-6.602
19288	19.883	0.81818	0.	-521.32
19289	19.972	0.72727	0.	-502.
19290	19.883	0.72727	5.e-002	-6.8775
19291	19.883	1.	0.	-597.53
19292	19.972	0.90909	0.	-564.09
19293	19.883	0.90909	5.e-002	-7.2526
19294	19.883	1.1818	0.	-689.9
19295	19.972	1.0909	0.	-640.38
19296	19.883	1.0909	5.e-002	-7.728
19297	19.883	1.3636	0.	-799.12
19298	19.972	1.2727	0.	-731.17
19299	19.883	1.2727	5.e-002	-8.3186
19300	19.883	1.5455	0.	-924.64
19301	19.972	1.4545	0.	-836.13
19302	19.883	1.4545	5.e-002	-9.2963
19303	19.883	1.7273	0.	-1063.
19304	19.972	1.6364	0.	-953.35
19305	19.883	1.6364	5.e-002	-11.033
19306	19.883	1.9091	0.	-1206.
19307	19.972	1.8182	0.	-1078.
19308	19.883	1.8182	5.e-002	-13.174
19309	19.883	2.0909	0.	-1340.5
19310	19.972	2.	0.	-1202.
19311	19.883	2.	5.e-002	-15.785
19312	19.883	2.2727	0.	-1450.7
19313	19.972	2.1818	0.	-1313.2
19314	19.883	2.1818	5.e-002	-18.385
19315	19.883	2.4545	0.	-1527.1
19316	19.972	2.3636	0.	-1399.7
19317	19.883	2.3636	5.e-002	-19.72
19318	19.883	2.6364	0.	-1571.6
19319	19.972	2.5455	0.	-1457.2
19320	19.883	2.5455	5.e-002	-19.447
19321	19.883	2.8182	0.	-1592.9
19322	19.972	2.7273	0.	-1489.7
19323	19.883	2.7273	5.e-002	-18.365
19324	19.883	3.	0.	-1599.1
19325	19.972	2.9091	0.	-1503.8
19326	19.883	2.9091	5.e-002	-17.59
19327	19.883	3.1818	0.	-1592.9
19328	19.972	3.0909	0.	-1503.8
19329	19.883	3.0909	5.e-002	-17.59
19330	19.883	3.3636	0.	-1571.6
19331	19.972	3.2727	0.	-1489.7
19332	19.883	3.2727	5.e-002	-18.365
19333	19.883	3.5455	0.	-1527.1
19334	19.972	3.4545	0.	-1457.2
19335	19.883	3.4545	5.e-002	-19.447
19336	19.883	3.7273	0.	-1450.7
19337	19.972	3.6364	0.	-1399.7
19338	19.883	3.6364	5.e-002	-19.72
19339	19.883	3.9091	0.	-1340.5
19340	19.972	3.8182	0.	-1313.2
19341	19.883	3.8182	5.e-002	-18.385
19342	19.883	4.0909	0.	-1206.
19343	19.972	4.	0.	-1202.
19344	19.883	4.	5.e-002	-15.785
19345	19.883	4.2727	0.	-1063.
19346	19.972	4.1818	0.	-1078.
19347	19.883	4.1818	5.e-002	-13.174
19348	19.883	4.4545	0.	-924.64
19349	19.972	4.3636	0.	-953.35
19350	19.883	4.3636	5.e-002	-11.033
19351	19.883	4.6364	0.	-799.12
19352	19.972	4.5455	0.	-836.13
19353	19.883	4.5455	5.e-002	-9.2963
19354	19.883	4.8182	0.	-689.9
19355	19.972	4.7273	0.	-731.17
19356	19.883	4.7273	5.e-002	-8.3186
19357	19.883	5.	0.	-597.53
19358	19.972	4.9091	0.	-640.38
19359	19.883	4.9091	5.e-002	-7.728
19360	19.883	5.1818	0.	-521.32
19361	19.972	5.0909	0.	-564.09
19362	19.883	5.0909	5.e-002	-7.2526
19363	19.883	5.3636	0.	-460.53
19364	19.972	5.2727	0.	-502.
19365	19.883	5.2727	5.e-002	-6.8775
19366	19.883	5.5455	0.	-414.9
19367	19.972	5.4545	0.	-453.83
19368	19.883	5.4545	5.e-002	-6.602
19369	19.883	5.7273	0.	-385.67
19370	19.972	5.6364	0.	-419.56
19371	19.883	5.6364	5.e-002	-6.5246
19372	19.972	5.8182	0.	-400.95
19373	19.883	5.8182	5.e-002	-8.3923
19374	19.883	5.9091	0.	-361.05
19375	20.062	0.27273	0.	-435.13
19376	20.151	0.18182	0.	-445.59
19377	20.062	0.18182	5.e-002	-7.0526
19378	20.062	9.0909e-002	0.	-414.14
19379	20.062	0.45455	0.	-459.15
19380	20.151	0.36364	0.	-461.06
19381	20.062	0.36364	5.e-002	-5.1058
19382	20.062	0.63636	0.	-496.65
19383	20.151	0.54545	0.	-489.3
19384	20.062	0.54545	5.e-002	-5.1487
19385	20.062	0.81818	0.	-546.77
19386	20.151	0.72727	0.	-528.91
19387	20.062	0.72727	5.e-002	-5.3503
19388	20.062	1.	0.	-609.42
19389	20.151	0.90909	0.	-579.85
19390	20.062	0.90909	5.e-002	-5.6203
19391	20.062	1.1818	0.	-684.36
19392	20.151	1.0909	0.	-641.89
19393	20.062	1.0909	5.e-002	-6.0025
19394	20.062	1.3636	0.	-770.84
19395	20.151	1.2727	0.	-714.43
19396	20.062	1.2727	5.e-002	-6.6122
19397	20.062	1.5455	0.	-867.17
19398	20.151	1.4545	0.	-796.26
19399	20.062	1.4545	5.e-002	-7.5938
19400	20.062	1.7273	0.	-970.27
19401	20.151	1.6364	0.	-885.17
19402	20.062	1.6364	5.e-002	-9.0372
19403	20.062	1.9091	0.	-1075.3
19404	20.151	1.8182	0.	-977.86
19405	20.062	1.8182	5.e-002	-10.802
19406	20.062	2.0909	0.	-1175.1
19407	20.151	2.	0.	-1069.5
19408	20.062	2.	5.e-002	-12.614
19409	20.062	2.2727	0.	-1261.4
19410	20.151	2.1818	0.	-1153.6
19411	20.062	2.1818	5.e-002	-14.322
19412	20.062	2.4545	0.	-1328.1
19413	20.151	2.3636	0.	-1223.7
19414	20.062	2.3636	5.e-002	-15.635
19415	20.062	2.6364	0.	-1373.
19416	20.151	2.5455	0.	-1275.4
19417	20.062	2.5455	5.e-002	-16.22
19418	20.062	2.8182	0.	-1398.
19419	20.151	2.7273	0.	-1308.3
19420	20.062	2.7273	5.e-002	-16.223
19421	20.062	3.	0.	-1406.
19422	20.151	2.9091	0.	-1324.
19423	20.062	2.9091	5.e-002	-16.082
19424	20.062	3.1818	0.	-1398.
19425	20.151	3.0909	0.	-1324.
19426	20.062	3.0909	5.e-002	-16.082
19427	20.062	3.3636	0.	-1373.
19428	20.151	3.2727	0.	-1308.3
19429	20.062	3.2727	5.e-002	-16.223
19430	20.062	3.5455	0.	-1328.1
19431	20.151	3.4545	0.	-1275.4
19432	20.062	3.4545	5.e-002	-16.22
19433	20.062	3.7273	0.	-1261.4
19434	20.151	3.6364	0.	-1223.7
19435	20.062	3.6364	5.e-002	-15.635
19436	20.062	3.9091	0.	-1175.1
19437	20.151	3.8182	0.	-1153.6
19438	20.062	3.8182	5.e-002	-14.322
19439	20.062	4.0909	0.	-1075.3
19440	20.151	4.	0.	-1069.5
19441	20.062	4.	5.e-002	-12.614
19442	20.062	4.2727	0.	-970.27
19443	20.151	4.1818	0.	-977.86
19444	20.062	4.1818	5.e-002	-10.802
19445	20.062	4.4545	0.	-867.17
19446	20.151	4.3636	0.	-885.17
19447	20.062	4.3636	5.e-002	-9.0372
19448	20.062	4.6364	0.	-770.84
19449	20.151	4.5455	0.	-796.26
19450	20.062	4.5455	5.e-002	-7.5938
19451	20.062	4.8182	0.	-684.36
19452	20.151	4.7273	0.	-714.43
19453	20.062	4.7273	5.e-002	-6.6122
19454	20.062	5.	0.	-609.42
19455	20.151	4.9091	0.	-641.89
19456	20.062	4.9091	5.e-002	-6.0025
19457	20.062	5.1818	0.	-546.77
19458	20.151	5.0909	0.	-579.85
19459	20.062	5.0909	5.e-002	-5.6203
19460	20.062	5.3636	0.	-496.65
19461	20.151	5.2727	0.	-528.91
19462	20.062	5.2727	5.e-002	-5.3503
19463	20.062	5.5455	0.	-459.15
19464	20.151	5.4545	0.	-489.3
19465	20.062	5.4545	5.e-002	-5.1487
19466	20.062	5.7273	0.	-435.13
19467	20.151	5.6364	0.	-461.06
19468	20.062	5.6364	5.e-002	-5.1058
19469	20.151	5.8182	0.	-445.59
19470	20.062	5.8182	5.e-002	-7.0526
19471	20.062	5.9091	0.	-414.14
19472	20.241	0.27273	0.	-471.74
19473	20.33	0.18182	0.	-477.48
19474	20.241	0.18182	5.e-002	-5.7205
19475	20.241	9.0909e-002	0.	-453.87
19476	20.241	0.45455	0.	-491.6
19477	20.33	0.36364	0.	-490.31
19478	20.241	0.36364	5.e-002	-3.7642
19479	20.241	0.63636	0.	-522.34
19480	20.33	0.54545	0.	-513.54
19481	20.241	0.54545	5.e-002	-3.8208
19482	20.241	0.81818	0.	-563.15
19483	20.33	0.72727	0.	-545.85
19484	20.241	0.72727	5.e-002	-4.0497
19485	20.241	1.	0.	-613.78
19486	20.33	0.90909	0.	-587.07
19487	20.241	0.90909	5.e-002	-4.3731
19488	20.241	1.1818	0.	-673.58
19489	20.33	1.0909	0.	-636.76
19490	20.241	1.0909	5.e-002	-4.8531
19491	20.241	1.3636	0.	-741.47
19492	20.33	1.2727	0.	-694.08
19493	20.241	1.2727	5.e-002	-5.5751
19494	20.241	1.5455	0.	-815.74
19495	20.33	1.4545	0.	-757.72
19496	20.241	1.4545	5.e-002	-6.5914
19497	20.241	1.7273	0.	-894.
19498	20.33	1.6364	0.	-825.85
19499	20.241	1.6364	5.e-002	-7.8456
19500	20.241	1.9091	0.	-973.01
19501	20.33	1.8182	0.	-896.07
19502	20.241	1.8182	5.e-002	-9.2102
19503	20.241	2.0909	0.	-1048.5
19504	20.33	2.	0.	-965.28
19505	20.241	2.	5.e-002	-10.583
19506	20.241	2.2727	0.	-1115.7
19507	20.33	2.1818	0.	-1029.6
19508	20.241	2.1818	5.e-002	-11.897
19509	20.241	2.4545	0.	-1170.2
19510	20.33	2.3636	0.	-1084.8
19511	20.241	2.3636	5.e-002	-13.009
19512	20.241	2.6364	0.	-1209.3
19513	20.33	2.5455	0.	-1127.6
19514	20.241	2.5455	5.e-002	-13.762
19515	20.241	2.8182	0.	-1232.6
19516	20.33	2.7273	0.	-1156.4
19517	20.241	2.7273	5.e-002	-14.141
19518	20.241	3.	0.	-1240.2
19519	20.33	2.9091	0.	-1170.7
19520	20.241	2.9091	5.e-002	-14.273
19521	20.241	3.1818	0.	-1232.6
19522	20.33	3.0909	0.	-1170.7
19523	20.241	3.0909	5.e-002	-14.273
19524	20.241	3.3636	0.	-1209.3
19525	20.33	3.2727	0.	-1156.4
19526	20.241	3.2727	5.e-002	-14.141
19527	20.241	3.5455	0.	-1170.2
19528	20.33	3.4545	0.	-1127.6
19529	20.241	3.4545	5.e-002	-13.762
19530	20.241	3.7273	0.	-1115.7
19531	20.33	3.6364	0.	-1084.8
19532	20.241	3.6364	5.e-002	-13.009
19533	20.241	3.9091	0.	-1048.5
19534	20.33	3.8182	0.	-1029.6
19535	20.241	3.8182	5.e-002	-11.897
19536	20.241	4.0909	0.	-973.01
19537	20.33	4.	0.	-965.28
19538	20.241	4.	5.e-002	-10.583
19539	20.241	4.2727	0.	-894.
19540	20.33	4.1818	0.	-896.07
19541	20.241	4.1818	5.e-002	-9.2103
19542	20.241	4.4545	0.	-815.74
19543	20.33	4.3636	0.	-825.85
19544	20.241	4.3636	5.e-002	-7.8456
19545	20.241	4.6364	0.	-741.47
19546	20.33	4.5455	0.	-757.72
19547	20.241	4.5455	5.e-002	-6.5914
19548	20.241	4.8182	0.	-673.58
19549	20.33	4.7273	0.	-694.08
19550	20.241	4.7273	5.e-002	-5.5751
19551	20.241	5.	0.	-613.78
19552	20.33	4.9091	0.	-636.76
19553	20.241	4.9091	5.e-002	-4.8531
19554	20.241	5.1818	0.	-563.15
19555	20.33	5.0909	0.	-587.07
19556	20.241	5.0909	5.e-002	-4.3731
19557	20.241	5.3636	0.	-522.34
19558	20.33	5.2727	0.	-545.85
19559	20.241	5.2727	5.e-002	-4.0497
19560	20.241	5.5455	0.	-491.6
19561	20.33	5.4545	0.	-513.54
19562	20.241	5.4545	5.e-002	-3.8208
19563	20.241	5.7273	0.	-471.74
19564	20.33	5.6364	0.	-490.31
19565	20.241	5.6364	5.e-002	-3.7642
19566	20.33	5.8182	0.	-477.48
19567	20.241	5.8182	5.e-002	-5.7205
19568	20.241	5.9091	0.	-453.87
19569	20.42	0.27273	0.	-496.21
19570	20.509	0.18182	0.	-497.71
19571	20.42	0.18182	5.e-002	-4.4628
19572	20.42	9.0909e-002	0.	-481.13
19573	20.42	0.45455	0.	-512.5
19574	20.509	0.36364	0.	-508.17
19575	20.42	0.36364	5.e-002	-2.5656
19576	20.42	0.63636	0.	-537.51
19577	20.509	0.54545	0.	-527.12
19578	20.42	0.54545	5.e-002	-2.7074
19579	20.42	0.81818	0.	-570.44
19580	20.509	0.72727	0.	-553.24
19581	20.42	0.72727	5.e-002	-3.0526
19582	20.42	1.	0.	-610.9
19583	20.509	0.90909	0.	-586.26
19584	20.42	0.90909	5.e-002	-3.518
19585	20.42	1.1818	0.	-658.21
19586	20.509	1.0909	0.	-625.7
19587	20.42	1.0909	5.e-002	-4.1383
19588	20.42	1.3636	0.	-711.31
19589	20.509	1.2727	0.	-670.74
19590	20.42	1.2727	5.e-002	-4.94
19591	20.42	1.5455	0.	-768.76
19592	20.509	1.4545	0.	-720.23
19593	20.42	1.4545	5.e-002	-5.9104
19594	20.42	1.7273	0.	-828.74
19595	20.509	1.6364	0.	-772.72
19596	20.42	1.6364	5.e-002	-6.9906
19597	20.42	1.9091	0.	-888.99
19598	20.509	1.8182	0.	-826.46
19599	20.42	1.8182	5.e-002	-8.1047
19600	20.42	2.0909	0.	-946.7
19601	20.509	2.	0.	-879.28
19602	20.42	2.	5.e-002	-9.2008
19603	20.42	2.2727	0.	-998.7
19604	20.509	2.1818	0.	-928.59
19605	20.42	2.1818	5.e-002	-10.241
19606	20.42	2.4545	0.	-1041.9
19607	20.509	2.3636	0.	-971.59
19608	20.42	2.3636	5.e-002	-11.159
19609	20.42	2.6364	0.	-1074.
19610	20.509	2.5455	0.	-1005.8
19611	20.42	2.5455	5.e-002	-11.867
19612	20.42	2.8182	0.	-1093.6
19613	20.509	2.7273	0.	-1029.3
19614	20.42	2.7273	5.e-002	-12.319
19615	20.42	3.	0.	-1100.1
19616	20.509	2.9091	0.	-1041.3
19617	20.42	2.9091	5.e-002	-12.529
19618	20.42	3.1818	0.	-1093.6
19619	20.509	3.0909	0.	-1041.3
19620	20.42	3.0909	5.e-002	-12.529
19621	20.42	3.3636	0.	-1074.
19622	20.509	3.2727	0.	-1029.3
19623	20.42	3.2727	5.e-002	-12.319
19624	20.42	3.5455	0.	-1041.9
19625	20.509	3.4545	0.	-1005.8
19626	20.42	3.4545	5.e-002	-11.867
19627	20.42	3.7273	0.	-998.7
19628	20.509	3.6364	0.	-971.59
19629	20.42	3.6364	5.e-002	-11.159
19630	20.42	3.9091	0.	-946.7
19631	20.509	3.8182	0.	-928.59
19632	20.42	3.8182	5.e-002	-10.241
19633	20.42	4.0909	0.	-888.99
19634	20.509	4.	0.	-879.28
19635	20.42	4.	5.e-002	-9.2008
19636	20.42	4.2727	0.	-828.74
19637	20.509	4.1818	0.	-826.46
19638	20.42	4.1818	5.e-002	-8.1047
19639	20.42	4.4545	0.	-768.76
19640	20.509	4.3636	0.	-772.72
19641	20.42	4.3636	5.e-002	-6.9906
19642	20.42	4.6364	0.	-711.31
19643	20.509	4.5455	0.	-720.23
19644	20.42	4.5455	5.e-002	-5.9104
19645	20.42	4.8182	0.	-658.21
19646	20.509	4.7273	0.	-670.74
19647	20.42	4.7273	5.e-002	-4.94
19648	20.42	5.	0.	-610.9
19649	20.509	4.9091	0.	-625.7
19650	20.42	4.9091	5.e-002	-4.1383
19651	20.42	5.1818	0.	-570.44
19652	20.509	5.0909	0.	-586.26
19653	20.42	5.0909	5.e-002	-3.518
19654	20.42	5.3636	0.	-537.51
19655	20.509	5.2727	0.	-553.24
19656	20.42	5.2727	5.e-002	-3.0526
19657	20.42	5.5455	0.	-512.5
19658	20.509	5.4545	0.	-527.12
19659	20.42	5.4545	5.e-002	-2.7074
19660	20.42	5.7273	0.	-496.21
19661	20.509	5.6364	0.	-508.17
19662	20.42	5.6364	5.e-002	-2.5656
19663	20.509	5.8182	0.	-497.71
19664	20.42	5.8182	5.e-002	-4.4628
19665	20.42	5.9091	0.	-481.13
19666	20.599	0.27273	0.	-509.77
19667	20.688	0.18182	0.	-507.62
19668	20.599	0.18182	5.e-002	-3.3229
19669	20.599	9.0909e-002	0.	-497.16
19670	20.599	0.45455	0.	-522.95
19671	20.688	0.36364	0.	-515.95
19672	20.599	0.36364	5.e-002	-1.5703
19673	20.599	0.63636	0.	-543.11
19674	20.688	0.54545	0.	-531.22
19675	20.599	0.54545	5.e-002	-1.8961
19676	20.599	0.81818	0.	-569.44
19677	20.688	0.72727	0.	-552.14
19678	20.599	0.72727	5.e-002	-2.4124
19679	20.599	1.	0.	-601.55
19680	20.688	0.90909	0.	-578.4
19681	20.599	0.90909	5.e-002	-3.0226
19682	20.599	1.1818	0.	-638.78
19683	20.688	1.0909	0.	-609.52
19684	20.599	1.0909	5.e-002	-3.7337
19685	20.599	1.3636	0.	-680.24
19686	20.688	1.2727	0.	-644.79
19687	20.599	1.2727	5.e-002	-4.5449
19688	20.599	1.5455	0.	-724.76
19689	20.688	1.4545	0.	-683.27
19690	20.599	1.4545	5.e-002	-5.4338
19691	20.599	1.7273	0.	-770.96
19692	20.688	1.6364	0.	-723.84
19693	20.599	1.6364	5.e-002	-6.3608
19694	20.599	1.9091	0.	-817.18
19695	20.688	1.8182	0.	-765.15
19696	20.599	1.8182	5.e-002	-7.2856
19697	20.599	2.0909	0.	-861.46
19698	20.688	2.	0.	-805.65
19699	20.599	2.	5.e-002	-8.1806
19700	20.599	2.2727	0.	-901.57
19701	20.688	2.1818	0.	-843.5
19702	20.599	2.1818	5.e-002	-9.022
19703	20.599	2.4545	0.	-935.28
19704	20.688	2.3636	0.	-876.71
19705	20.599	2.3636	5.e-002	-9.7707
19706	20.599	2.6364	0.	-960.68
19707	20.688	2.5455	0.	-903.39
19708	20.599	2.5455	5.e-002	-10.374
19709	20.599	2.8182	0.	-976.42
19710	20.688	2.7273	0.	-922.01
19711	20.599	2.7273	5.e-002	-10.789
19712	20.599	3.	0.	-981.75
19713	20.688	2.9091	0.	-931.56
19714	20.599	2.9091	5.e-002	-10.997
19715	20.599	3.1818	0.	-976.42
19716	20.688	3.0909	0.	-931.56
19717	20.599	3.0909	5.e-002	-10.997
19718	20.599	3.3636	0.	-960.68
19719	20.688	3.2727	0.	-922.01
19720	20.599	3.2727	5.e-002	-10.789
19721	20.599	3.5455	0.	-935.28
19722	20.688	3.4545	0.	-903.39
19723	20.599	3.4545	5.e-002	-10.374
19724	20.599	3.7273	0.	-901.57
19725	20.688	3.6364	0.	-876.71
19726	20.599	3.6364	5.e-002	-9.7707
19727	20.599	3.9091	0.	-861.46
19728	20.688	3.8182	0.	-843.5
19729	20.599	3.8182	5.e-002	-9.022
19730	20.599	4.0909	0.	-817.18
19731	20.688	4.	0.	-805.65
19732	20.599	4.	5.e-002	-8.1806
19733	20.599	4.2727	0.	-770.96
19734	20.688	4.1818	0.	-765.15
19735	20.599	4.1818	5.e-002	-7.2856
19736	20.599	4.4545	0.	-724.76
19737	20.688	4.3636	0.	-723.84
19738	20.599	4.3636	5.e-002	-6.3608
19739	20.599	4.6364	0.	-680.24
19740	20.688	4.5455	0.	-683.27
19741	20.599	4.5455	5.e-002	-5.4339
19742	20.599	4.8182	0.	-638.78
19743	20.688	4.7273	0.	-644.79
19744	20.599	4.7273	5.e-002	-4.5449
19745	20.599	5.	0.	-601.55
19746	20.688	4.9091	0.	-609.52
19747	20.599	4.9091	5.e-002	-3.7337
19748	20.599	5.1818	0.	-569.44
19749	20.688	5.0909	0.	-578.4
19750	20.599	5.0909	5.e-002	-3.0226
19751	20.599	5.3636	0.	-543.11
19752	20.688	5.2727	0.	-552.14
19753	20.599	5.2727	5.e-002	-2.4124
19754	20.599	5.5455	0.	-522.95
19755	20.688	5.4545	0.	-531.22
19756	20.599	5.4545	5.e-002	-1.8961
19757	20.599	5.7273	0.	-509.77
19758	20.688	5.6364	0.	-515.95
19759	20.599	5.6364	5.e-002	-1.5703
19760	20.688	5.8182	0.	-507.62
19761	20.599	5.8182	5.e-002	-3.3229
19762	20.599	5.9091	0.	-497.16
19763	20.778	0.27273	0.	-513.84
19764	20.867	0.18182	0.	-508.62
19765	20.778	0.18182	5.e-002	-2.3213
19766	20.778	9.0909e-002	0.	-503.37
19767	20.778	0.45455	0.	-524.32
19768	20.867	0.36364	0.	-515.06
19769	20.778	0.36364	5.e-002	-0.91903
19770	20.778	0.63636	0.	-540.41
19771	20.867	0.54545	0.	-527.22
19772	20.778	0.54545	5.e-002	-1.508
19773	20.778	0.81818	0.	-561.32
19774	20.867	0.72727	0.	-543.84
19775	20.778	0.72727	5.e-002	-2.1463
19776	20.778	1.	0.	-586.65
19777	20.867	0.90909	0.	-564.58
19778	20.778	0.90909	5.e-002	-2.8198
19779	20.778	1.1818	0.	-615.85
19780	20.867	1.0909	0.	-589.03
19781	20.778	1.0909	5.e-002	-3.5389
19782	20.778	1.3636	0.	-648.16
19783	20.867	1.2727	0.	-616.58
19784	20.778	1.2727	5.e-002	-4.3009
19785	20.778	1.5455	0.	-682.69
19786	20.867	1.4545	0.	-646.48
19787	20.778	1.4545	5.e-002	-5.0901
19788	20.778	1.7273	0.	-718.34
19789	20.867	1.6364	0.	-677.85
19790	20.778	1.6364	5.e-002	-5.8829
19791	20.778	1.9091	0.	-753.89
19792	20.867	1.8182	0.	-709.67
19793	20.778	1.8182	5.e-002	-6.6568
19794	20.778	2.0909	0.	-787.88
19795	20.867	2.	0.	-740.76
19796	20.778	2.	5.e-002	-7.3947
19797	20.778	2.2727	0.	-818.72
19798	20.867	2.1818	0.	-769.78
19799	20.778	2.1818	5.e-002	-8.0801
19800	20.778	2.4545	0.	-844.75
19801	20.867	2.3636	0.	-795.29
19802	20.778	2.3636	5.e-002	-8.6873
19803	20.778	2.6364	0.	-864.5
19804	20.867	2.5455	0.	-815.86
19805	20.778	2.5455	5.e-002	-9.1818
19806	20.778	2.8182	0.	-876.82
19807	20.867	2.7273	0.	-830.3
19808	20.778	2.7273	5.e-002	-9.5301
19809	20.778	3.	0.	-881.01
19810	20.867	2.9091	0.	-837.74
19811	20.778	2.9091	5.e-002	-9.7093
19812	20.778	3.1818	0.	-876.82
19813	20.867	3.0909	0.	-837.74
19814	20.778	3.0909	5.e-002	-9.7093
19815	20.778	3.3636	0.	-864.5
19816	20.867	3.2727	0.	-830.3
19817	20.778	3.2727	5.e-002	-9.5301
19818	20.778	3.5455	0.	-844.75
19819	20.867	3.4545	0.	-815.86
19820	20.778	3.4545	5.e-002	-9.1819
19821	20.778	3.7273	0.	-818.72
19822	20.867	3.6364	0.	-795.29
19823	20.778	3.6364	5.e-002	-8.6874
19824	20.778	3.9091	0.	-787.88
19825	20.867	3.8182	0.	-769.78
19826	20.778	3.8182	5.e-002	-8.0801
19827	20.778	4.0909	0.	-753.89
19828	20.867	4.	0.	-740.76
19829	20.778	4.	5.e-002	-7.3947
19830	20.778	4.2727	0.	-718.34
19831	20.867	4.1818	0.	-709.67
19832	20.778	4.1818	5.e-002	-6.6568
19833	20.778	4.4545	0.	-682.69
19834	20.867	4.3636	0.	-677.85
19835	20.778	4.3636	5.e-002	-5.8829
19836	20.778	4.6364	0.	-648.16
19837	20.867	4.5455	0.	-646.48
19838	20.778	4.5455	5.e-002	-5.0901
19839	20.778	4.8182	0.	-615.85
19840	20.867	4.7273	0.	-616.58
19841	20.778	4.7273	5.e-002	-4.3009
19842	20.778	5.	0.	-586.65
19843	20.867	4.9091	0.	-589.03
19844	20.778	4.9091	5.e-002	-3.5389
19845	20.778	5.1818	0.	-561.32
19846	20.867	5.0909	0.	-564.58
19847	20.778	5.0909	5.e-002	-2.8198
19848	20.778	5.3636	0.	-540.41
19849	20.867	5.2727	0.	-543.84
19850	20.778	5.2727	5.e-002	-2.1463
19851	20.778	5.5455	0.	-524.32
19852	20.867	5.4545	0.	-527.22
19853	20.778	5.4545	5.e-002	-1.508
19854	20.778	5.7273	0.	-513.84
19855	20.867	5.6364	0.	-515.06
19856	20.778	5.6364	5.e-002	-0.91903
19857	20.867	5.8182	0.	-508.62
19858	20.778	5.8182	5.e-002	-2.3213
19859	20.778	5.9091	0.	-503.37
19860	20.957	0.27273	0.	-509.84
19861	21.046	0.18182	0.	-502.09
19862	20.957	0.18182	5.e-002	-1.4617
19863	20.957	9.0909e-002	0.	-501.19
19864	20.957	0.45455	0.	-518.02
19865	21.046	0.36364	0.	-506.9
19866	20.957	0.36364	5.e-002	-0.92201
19867	20.957	0.63636	0.	-530.73
19868	21.046	0.54545	0.	-516.46
19869	20.957	0.54545	5.e-002	-1.5672
19870	20.957	0.81818	0.	-547.22
19871	21.046	0.72727	0.	-529.55
19872	20.957	0.72727	5.e-002	-2.1788
19873	20.957	1.	0.	-567.11
19874	21.046	0.90909	0.	-545.84
19875	20.957	0.90909	5.e-002	-2.8145
19876	20.957	1.1818	0.	-589.94
19877	21.046	1.0909	0.	-564.97
19878	20.957	1.0909	5.e-002	-3.4756
19879	20.957	1.3636	0.	-615.09
19880	21.046	1.2727	0.	-586.44
19881	20.957	1.2727	5.e-002	-4.1549
19882	20.957	1.5455	0.	-641.85
19883	21.046	1.4545	0.	-609.65
19884	20.957	1.4545	5.e-002	-4.8394
19885	20.957	1.7273	0.	-669.37
19886	21.046	1.6364	0.	-633.9
19887	20.957	1.6364	5.e-002	-5.5132
19888	20.957	1.9091	0.	-696.7
19889	21.046	1.8182	0.	-658.39
19890	20.957	1.8182	5.e-002	-6.1616
19891	20.957	2.0909	0.	-722.78
19892	21.046	2.	0.	-682.24
19893	20.957	2.	5.e-002	-6.7724
19894	20.957	2.2727	0.	-746.4
19895	21.046	2.1818	0.	-704.45
19896	20.957	2.1818	5.e-002	-7.3325
19897	20.957	2.4545	0.	-766.37
19898	21.046	2.3636	0.	-723.95
19899	20.957	2.3636	5.e-002	-7.8239
19900	20.957	2.6364	0.	-781.55
19901	21.046	2.5455	0.	-739.68
19902	20.957	2.5455	5.e-002	-8.2229
19903	20.957	2.8182	0.	-791.04
19904	21.046	2.7273	0.	-750.74
19905	20.957	2.7273	5.e-002	-8.5051
19906	20.957	3.	0.	-794.27
19907	21.046	2.9091	0.	-756.45
19908	20.957	2.9091	5.e-002	-8.6513
19909	20.957	3.1818	0.	-791.04
19910	21.046	3.0909	0.	-756.45
19911	20.957	3.0909	5.e-002	-8.6513
19912	20.957	3.3636	0.	-781.55
19913	21.046	3.2727	0.	-750.74
19914	20.957	3.2727	5.e-002	-8.5051
19915	20.957	3.5455	0.	-766.37
19916	21.046	3.4545	0.	-739.68
19917	20.957	3.4545	5.e-002	-8.223
19918	20.957	3.7273	0.	-746.4
19919	21.046	3.6364	0.	-723.95
19920	20.957	3.6364	5.e-002	-7.8239
19921	20.957	3.9091	0.	-722.78
19922	21.046	3.8182	0.	-704.45
19923	20.957	3.8182	5.e-002	-7.3325
19924	20.957	4.0909	0.	-696.7
19925	21.046	4.	0.	-682.24
19926	20.957	4.	5.e-002	-6.7724
19927	20.957	4.2727	0.	-669.37
19928	21.046	4.1818	0.	-658.39
19929	20.957	4.1818	5.e-002	-6.1616
19930	20.957	4.4545	0.	-641.85
19931	21.046	4.3636	0.	-633.9
19932	20.957	4.3636	5.e-002	-5.5132
19933	20.957	4.6364	0.	-615.09
19934	21.046	4.5455	0.	-609.65
19935	20.957	4.5455	5.e-002	-4.8394
19936	20.957	4.8182	0.	-589.94
19937	21.046	4.7273	0.	-586.44
19938	20.957	4.7273	5.e-002	-4.1549
19939	20.957	5.	0.	-567.11
19940	21.046	4.9091	0.	-564.97
19941	20.957	4.9091	5.e-002	-3.4756
19942	20.957	5.1818	0.	-547.22
19943	21.046	5.0909	0.	-545.84
19944	20.957	5.0909	5.e-002	-2.8145
19945	20.957	5.3636	0.	-530.73
19946	21.046	5.2727	0.	-529.55
19947	20.957	5.2727	5.e-002	-2.1788
19948	20.957	5.5455	0.	-518.02
19949	21.046	5.4545	0.	-516.46
19950	20.957	5.4545	5.e-002	-1.5672
19951	20.957	5.7273	0.	-509.84
19952	21.046	5.6364	0.	-506.9
19953	20.957	5.6364	5.e-002	-0.92201
19954	21.046	5.8182	0.	-502.09
19955	20.957	5.8182	5.e-002	-1.4617
19956	20.957	5.9091	0.	-501.19
19957	21.136	0.27273	0.	-499.11
19958	21.225	0.18182	0.	-489.31
19959	21.136	0.18182	5.e-002	-0.73712
19960	21.136	9.0909e-002	0.	-491.98
19961	21.136	0.45455	0.	-505.36
19962	21.225	0.36364	0.	-492.73
19963	21.136	0.36364	5.e-002	-1.3445
19964	21.136	0.63636	0.	-515.31
19965	21.225	0.54545	0.	-500.15
19966	21.136	0.54545	5.e-002	-1.8653
19967	21.136	0.81818	0.	-528.22
19968	21.225	0.72727	0.	-510.37
19969	21.136	0.72727	5.e-002	-2.3701
19970	21.136	1.	0.	-543.78
19971	21.225	0.90909	0.	-523.1
19972	21.136	0.90909	5.e-002	-2.9155
19973	21.136	1.1818	0.	-561.57
19974	21.225	1.0909	0.	-538.02
19975	21.136	1.0909	5.e-002	-3.4875
19976	21.136	1.3636	0.	-581.11
19977	21.225	1.2727	0.	-554.71
19978	21.136	1.2727	5.e-002	-4.072
19979	21.136	1.5455	0.	-601.81
19980	21.225	1.4545	0.	-572.69
19981	21.136	1.4545	5.e-002	-4.6553
19982	21.136	1.7273	0.	-623.03
19983	21.225	1.6364	0.	-591.4
19984	21.136	1.6364	5.e-002	-5.2239
19985	21.136	1.9091	0.	-644.02
19986	21.225	1.8182	0.	-610.23
19987	21.136	1.8182	5.e-002	-5.7662
19988	21.136	2.0909	0.	-663.98
19989	21.225	2.	0.	-628.49
19990	21.136	2.	5.e-002	-6.2721
19991	21.136	2.2727	0.	-682.02
19992	21.225	2.1818	0.	-645.44
19993	21.136	2.1818	5.e-002	-6.7307
19994	21.136	2.4545	0.	-697.25
19995	21.225	2.3636	0.	-660.28
19996	21.136	2.3636	5.e-002	-7.1286
19997	21.136	2.6364	0.	-708.82
19998	21.225	2.5455	0.	-672.24
19999	21.136	2.5455	5.e-002	-7.4491
20000	21.136	2.8182	0.	-716.06
20001	21.225	2.7273	0.	-680.65
20002	21.136	2.7273	5.e-002	-7.6748
20003	21.136	3.	0.	-718.53
20004	21.225	2.9091	0.	-684.98
20005	21.136	2.9091	5.e-002	-7.7916
20006	21.136	3.1818	0.	-716.06
20007	21.225	3.0909	0.	-684.98
20008	21.136	3.0909	5.e-002	-7.7916
20009	21.136	3.3636	0.	-708.82
20010	21.225	3.2727	0.	-680.65
20011	21.136	3.2727	5.e-002	-7.6748
20012	21.136	3.5455	0.	-697.25
20013	21.225	3.4545	0.	-672.24
20014	21.136	3.4545	5.e-002	-7.4491
20015	21.136	3.7273	0.	-682.02
20016	21.225	3.6364	0.	-660.28
20017	21.136	3.6364	5.e-002	-7.1286
20018	21.136	3.9091	0.	-663.98
20019	21.225	3.8182	0.	-645.44
20020	21.136	3.8182	5.e-002	-6.7307
20021	21.136	4.0909	0.	-644.02
20022	21.225	4.	0.	-628.49
20023	21.136	4.	5.e-002	-6.2721
20024	21.136	4.2727	0.	-623.03
20025	21.225	4.1818	0.	-610.23
20026	21.136	4.1818	5.e-002	-5.7662
20027	21.136	4.4545	0.	-601.81
20028	21.225	4.3636	0.	-591.4
20029	21.136	4.3636	5.e-002	-5.2239
20030	21.136	4.6364	0.	-581.11
20031	21.225	4.5455	0.	-572.69
20032	21.136	4.5455	5.e-002	-4.6553
20033	21.136	4.8182	0.	-561.57
20034	21.225	4.7273	0.	-554.71
20035	21.136	4.7273	5.e-002	-4.072
20036	21.136	5.	0.	-543.78
20037	21.225	4.9091	0.	-538.02
20038	21.136	4.9091	5.e-002	-3.4875
20039	21.136	5.1818	0.	-528.22
20040	21.225	5.0909	0.	-523.1
20041	21.136	5.0909	5.e-002	-2.9155
20042	21.136	5.3636	0.	-515.31
20043	21.225	5.2727	0.	-510.37
20044	21.136	5.2727	5.e-002	-2.3701
20045	21.136	5.5455	0.	-505.36
20046	21.225	5.4545	0.	-500.15
20047	21.136	5.4545	5.e-002	-1.8653
20048	21.136	5.7273	0.	-499.12
20049	21.225	5.6364	0.	-492.73
20050	21.136	5.6364	5.e-002	-1.3445
20051	21.225	5.8182	0.	-489.31
20052	21.136	5.8182	5.e-002	-0.73712
20053	21.136	5.9091	0.	-491.98
20054	21.315	0.27273	0.	-482.86
20055	21.404	0.18182	0.	-471.4
20056	21.315	0.18182	5.e-002	-0.13698
20057	21.315	9.0909e-002	0.	-476.96
20058	21.315	0.45455	0.	-487.51
20059	21.404	0.36364	0.	-473.65
20060	21.315	0.36364	5.e-002	-1.8003
20061	21.315	0.63636	0.	-495.21
20062	21.404	0.54545	0.	-479.33
20063	21.315	0.54545	5.e-002	-2.2133
20064	21.315	0.81818	0.	-505.27
20065	21.404	0.72727	0.	-487.25
20066	21.315	0.72727	5.e-002	-2.6119
20067	21.315	1.	0.	-517.38
20068	21.404	0.90909	0.	-497.16
20069	21.315	0.90909	5.e-002	-3.0592
20070	21.315	1.1818	0.	-531.2
20071	21.404	1.0909	0.	-508.75
20072	21.315	1.0909	5.e-002	-3.5373
20073	21.315	1.3636	0.	-546.34
20074	21.404	1.2727	0.	-521.69
20075	21.315	1.2727	5.e-002	-4.029
20076	21.315	1.5455	0.	-562.33
20077	21.404	1.4545	0.	-535.58
20078	21.315	1.4545	5.e-002	-4.5194
20079	21.315	1.7273	0.	-578.65
20080	21.404	1.6364	0.	-549.99
20081	21.315	1.6364	5.e-002	-4.996
20082	21.315	1.9091	0.	-594.74
20083	21.404	1.8182	0.	-564.43
20084	21.315	1.8182	5.e-002	-5.4484
20085	21.315	2.0909	0.	-609.98
20086	21.404	2.	0.	-578.38
20087	21.315	2.	5.e-002	-5.8672
20088	21.315	2.2727	0.	-623.71
20089	21.404	2.1818	0.	-591.27
20090	21.315	2.1818	5.e-002	-6.2433
20091	21.315	2.4545	0.	-635.27
20092	21.404	2.3636	0.	-602.53
20093	21.315	2.3636	5.e-002	-6.5661
20094	21.315	2.6364	0.	-644.04
20095	21.404	2.5455	0.	-611.57
20096	21.315	2.5455	5.e-002	-6.8238
20097	21.315	2.8182	0.	-649.52
20098	21.404	2.7273	0.	-617.92
20099	21.315	2.7273	5.e-002	-7.0041
20100	21.315	3.	0.	-651.39
20101	21.404	2.9091	0.	-621.19
20102	21.315	2.9091	5.e-002	-7.097
20103	21.315	3.1818	0.	-649.52
20104	21.404	3.0909	0.	-621.19
20105	21.315	3.0909	5.e-002	-7.097
20106	21.315	3.3636	0.	-644.04
20107	21.404	3.2727	0.	-617.92
20108	21.315	3.2727	5.e-002	-7.0041
20109	21.315	3.5455	0.	-635.27
20110	21.404	3.4545	0.	-611.57
20111	21.315	3.4545	5.e-002	-6.8238
20112	21.315	3.7273	0.	-623.71
20113	21.404	3.6364	0.	-602.53
20114	21.315	3.6364	5.e-002	-6.5661
20115	21.315	3.9091	0.	-609.98
20116	21.404	3.8182	0.	-591.27
20117	21.315	3.8182	5.e-002	-6.2433
20118	21.315	4.0909	0.	-594.74
20119	21.404	4.	0.	-578.38
20120	21.315	4.	5.e-002	-5.8672
20121	21.315	4.2727	0.	-578.65
20122	21.404	4.1818	0.	-564.43
20123	21.315	4.1818	5.e-002	-5.4484
20124	21.315	4.4545	0.	-562.33
20125	21.404	4.3636	0.	-549.99
20126	21.315	4.3636	5.e-002	-4.996
20127	21.315	4.6364	0.	-546.34
20128	21.404	4.5455	0.	-535.58
20129	21.315	4.5455	5.e-002	-4.5194
20130	21.315	4.8182	0.	-531.2
20131	21.404	4.7273	0.	-521.69
20132	21.315	4.7273	5.e-002	-4.029
20133	21.315	5.	0.	-517.38
20134	21.404	4.9091	0.	-508.75
20135	21.315	4.9091	5.e-002	-3.5373
20136	21.315	5.1818	0.	-505.27
20137	21.404	5.0909	0.	-497.16
20138	21.315	5.0909	5.e-002	-3.0592
20139	21.315	5.3636	0.	-495.21
20140	21.404	5.2727	0.	-487.25
20141	21.315	5.2727	5.e-002	-2.6119
20142	21.315	5.5455	0.	-487.51
20143	21.404	5.4545	0.	-479.33
20144	21.315	5.4545	5.e-002	-2.2133
20145	21.315	5.7273	0.	-482.86
20146	21.404	5.6364	0.	-473.65
20147	21.315	5.6364	5.e-002	-1.8003
20148	21.404	5.8182	0.	-471.4
20149	21.315	5.8182	5.e-002	-0.13698
20150	21.315	5.9091	0.	-476.96
20151	21.494	0.27273	0.	-462.09
20152	21.583	0.18182	0.	-449.31
20153	21.494	0.18182	5.e-002	-0.36792
20154	21.494	9.0909e-002	0.	-457.19
20155	21.494	0.45455	0.	-465.44
20156	21.583	0.36364	0.	-450.61
20157	21.494	0.36364	5.e-002	-2.1997
20158	21.494	0.63636	0.	-471.35
20159	21.583	0.54545	0.	-454.89
20160	21.494	0.54545	5.e-002	-2.5365
20161	21.494	0.81818	0.	-479.14
20162	21.583	0.72727	0.	-461.
20163	21.494	0.72727	5.e-002	-2.8495
20164	21.494	1.	0.	-488.53
20165	21.583	0.90909	0.	-468.66
20166	21.494	0.90909	5.e-002	-3.2099
20167	21.494	1.1818	0.	-499.25
20168	21.583	1.0909	0.	-477.65
20169	21.494	1.0909	5.e-002	-3.6026
20170	21.494	1.3636	0.	-510.95
20171	21.583	1.2727	0.	-487.65
20172	21.494	1.2727	5.e-002	-4.0103
20173	21.494	1.5455	0.	-523.27
20174	21.583	1.4545	0.	-498.37
20175	21.494	1.4545	5.e-002	-4.4188
20176	21.494	1.7273	0.	-535.79
20177	21.583	1.6364	0.	-509.43
20178	21.494	1.6364	5.e-002	-4.8161
20179	21.494	1.9091	0.	-548.09
20180	21.583	1.8182	0.	-520.48
20181	21.494	1.8182	5.e-002	-5.1923
20182	21.494	2.0909	0.	-559.69
20183	21.583	2.	0.	-531.1
20184	21.494	2.	5.e-002	-5.5388
20185	21.494	2.2727	0.	-570.1
20186	21.583	2.1818	0.	-540.87
20187	21.494	2.1818	5.e-002	-5.8477
20188	21.494	2.4545	0.	-578.83
20189	21.583	2.3636	0.	-549.37
20190	21.494	2.3636	5.e-002	-6.1105
20191	21.494	2.6364	0.	-585.44
20192	21.583	2.5455	0.	-556.18
20193	21.494	2.5455	5.e-002	-6.3185
20194	21.494	2.8182	0.	-589.57
20195	21.583	2.7273	0.	-560.94
20196	21.494	2.7273	5.e-002	-6.463
20197	21.494	3.	0.	-590.97
20198	21.583	2.9091	0.	-563.4
20199	21.494	2.9091	5.e-002	-6.5372
20200	21.494	3.1818	0.	-589.57
20201	21.583	3.0909	0.	-563.4
20202	21.494	3.0909	5.e-002	-6.5372
20203	21.494	3.3636	0.	-585.44
20204	21.583	3.2727	0.	-560.94
20205	21.494	3.2727	5.e-002	-6.463
20206	21.494	3.5455	0.	-578.83
20207	21.583	3.4545	0.	-556.18
20208	21.494	3.4545	5.e-002	-6.3185
20209	21.494	3.7273	0.	-570.1
20210	21.583	3.6364	0.	-549.37
20211	21.494	3.6364	5.e-002	-6.1105
20212	21.494	3.9091	0.	-559.69
20213	21.583	3.8182	0.	-540.87
20214	21.494	3.8182	5.e-002	-5.8477
20215	21.494	4.0909	0.	-548.09
20216	21.583	4.	0.	-531.1
20217	21.494	4.	5.e-002	-5.5388
20218	21.494	4.2727	0.	-535.79
20219	21.583	4.1818	0.	-520.48
20220	21.494	4.1818	5.e-002	-5.1923
20221	21.494	4.4545	0.	-523.27
20222	21.583	4.3636	0.	-509.43
20223	21.494	4.3636	5.e-002	-4.8161
20224	21.494	4.6364	0.	-510.95
20225	21.583	4.5455	0.	-498.37
20226	21.494	4.5455	5.e-002	-4.4188
20227	21.494	4.8182	0.	-499.25
20228	21.583	4.7273	0.	-487.65
20229	21.494	4.7273	5.e-002	-4.0103
20230	21.494	5.	0.	-488.53
20231	21.583	4.9091	0.	-477.65
20232	21.494	4.9091	5.e-002	-3.6026
20233	21.494	5.1818	0.	-479.14
20234	21.583	5.0909	0.	-468.66
20235	21.494	5.0909	5.e-002	-3.2099
20236	21.494	5.3636	0.	-471.35
20237	21.583	5.2727	0.	-461.
20238	21.494	5.2727	5.e-002	-2.8495
20239	21.494	5.5455	0.	-465.44
20240	21.583	5.4545	0.	-454.89
20241	21.494	5.4545	5.e-002	-2.5365
20242	21.494	5.7273	0.	-462.09
20243	21.583	5.6364	0.	-450.61
20244	21.494	5.6364	5.e-002	-2.1997
20245	21.583	5.8182	0.	-449.31
20246	21.494	5.8182	5.e-002	-0.36792
20247	21.494	5.9091	0.	-457.19
20248	21.673	0.27273	0.	-437.71
20249	21.762	0.18182	0.	-423.87
20250	21.673	0.18182	5.e-002	-0.77749
20251	21.673	9.0909e-002	0.	-433.58
20252	21.673	0.45455	0.	-440.02
20253	21.762	0.36364	0.	-424.4
20254	21.673	0.36364	5.e-002	-2.5322
20255	21.673	0.63636	0.	-444.5
20256	21.762	0.54545	0.	-427.58
20257	21.673	0.54545	5.e-002	-2.8144
20258	21.673	0.81818	0.	-450.5
20259	21.762	0.72727	0.	-432.26
20260	21.673	0.72727	5.e-002	-3.0616
20261	21.673	1.	0.	-457.77
20262	21.762	0.90909	0.	-438.18
20263	21.673	0.90909	5.e-002	-3.3506
20264	21.673	1.1818	0.	-466.05
20265	21.762	1.0909	0.	-445.13
20266	21.673	1.0909	5.e-002	-3.6704
20267	21.673	1.3636	0.	-475.08
20268	21.762	1.2727	0.	-452.85
20269	21.673	1.2727	5.e-002	-4.006
20270	21.673	1.5455	0.	-484.54
20271	21.762	1.4545	0.	-461.09
20272	21.673	1.4545	5.e-002	-4.3442
20273	21.673	1.7273	0.	-494.13
20274	21.762	1.6364	0.	-469.57
20275	21.673	1.6364	5.e-002	-4.674
20276	21.673	1.9091	0.	-503.49
20277	21.762	1.8182	0.	-477.99
20278	21.673	1.8182	5.e-002	-4.9861
20279	21.673	2.0909	0.	-512.29
20280	21.762	2.	0.	-486.04
20281	21.673	2.	5.e-002	-5.2728
20282	21.673	2.2727	0.	-520.15
20283	21.762	2.1818	0.	-493.42
20284	21.673	2.1818	5.e-002	-5.5269
20285	21.673	2.4545	0.	-526.72
20286	21.762	2.3636	0.	-499.81
20287	21.673	2.3636	5.e-002	-5.7416
20288	21.673	2.6364	0.	-531.67
20289	21.762	2.5455	0.	-504.91
20290	21.673	2.5455	5.e-002	-5.9102
20291	21.673	2.8182	0.	-534.76
20292	21.762	2.7273	0.	-508.47
20293	21.673	2.7273	5.e-002	-6.0267
20294	21.673	3.	0.	-535.81
20295	21.762	2.9091	0.	-510.3
20296	21.673	2.9091	5.e-002	-6.0863
20297	21.673	3.1818	0.	-534.76
20298	21.762	3.0909	0.	-510.3
20299	21.673	3.0909	5.e-002	-6.0863
20300	21.673	3.3636	0.	-531.67
20301	21.762	3.2727	0.	-508.47
20302	21.673	3.2727	5.e-002	-6.0267
20303	21.673	3.5455	0.	-526.72
20304	21.762	3.4545	0.	-504.91
20305	21.673	3.4545	5.e-002	-5.9102
20306	21.673	3.7273	0.	-520.15
20307	21.762	3.6364	0.	-499.81
20308	21.673	3.6364	5.e-002	-5.7416
20309	21.673	3.9091	0.	-512.29
20310	21.762	3.8182	0.	-493.42
20311	21.673	3.8182	5.e-002	-5.5269
20312	21.673	4.0909	0.	-503.49
20313	21.762	4.	0.	-486.04
20314	21.673	4.	5.e-002	-5.2728
20315	21.673	4.2727	0.	-494.13
20316	21.762	4.1818	0.	-477.99
20317	21.673	4.1818	5.e-002	-4.9861
20318	21.673	4.4545	0.	-484.54
20319	21.762	4.3636	0.	-469.57
20320	21.673	4.3636	5.e-002	-4.674
20321	21.673	4.6364	0.	-475.08
20322	21.762	4.5455	0.	-461.09
20323	21.673	4.5455	5.e-002	-4.3442
20324	21.673	4.8182	0.	-466.05
20325	21.762	4.7273	0.	-452.85
20326	21.673	4.7273	5.e-002	-4.006
20327	21.673	5.	0.	-457.77
20328	21.762	4.9091	0.	-445.13
20329	21.673	4.9091	5.e-002	-3.6704
20330	21.673	5.1818	0.	-450.5
20331	21.762	5.0909	0.	-438.18
20332	21.673	5.0909	5.e-002	-3.3506
20333	21.673	5.3636	0.	-444.5
20334	21.762	5.2727	0.	-432.26
20335	21.673	5.2727	5.e-002	-3.0616
20336	21.673	5.5455	0.	-440.02
20337	21.762	5.4545	0.	-427.58
20338	21.673	5.4545	5.e-002	-2.8144
20339	21.673	5.7273	0.	-437.71
20340	21.762	5.6364	0.	-424.4
20341	21.673	5.6364	5.e-002	-2.5322
20342	21.762	5.8182	0.	-423.87
20343	21.673	5.8182	5.e-002	-0.77749
20344	21.673	5.9091	0.	-433.58
20345	21.852	0.27273	0.	-410.42
20346	21.941	0.18182	0.	-395.75
20347	21.852	0.18182	5.e-002	-1.1154
20348	21.852	9.0909e-002	0.	-406.89
20349	21.852	0.45455	0.	-411.92
20350	21.941	0.36364	0.	-395.68
20351	21.852	0.36364	5.e-002	-2.8033
20352	21.852	0.63636	0.	-415.3
20353	21.941	0.54545	0.	-398.01
20354	21.852	0.54545	5.e-002	-3.0453
20355	21.852	0.81818	0.	-419.91
20356	21.941	0.72727	0.	-401.59
20357	21.852	0.72727	5.e-002	-3.2424
20358	21.852	1.	0.	-425.52
20359	21.941	0.90909	0.	-406.16
20360	21.852	0.90909	5.e-002	-3.4746
20361	21.852	1.1818	0.	-431.91
20362	21.941	1.0909	0.	-411.53
20363	21.852	1.0909	5.e-002	-3.7345
20364	21.852	1.3636	0.	-438.86
20365	21.941	1.2727	0.	-417.49
20366	21.852	1.2727	5.e-002	-4.0097
20367	21.852	1.5455	0.	-446.12
20368	21.941	1.4545	0.	-423.81
20369	21.852	1.4545	5.e-002	-4.2889
20370	21.852	1.7273	0.	-453.43
20371	21.941	1.6364	0.	-430.28
20372	21.852	1.6364	5.e-002	-4.562
20373	21.852	1.9091	0.	-460.54
20374	21.941	1.8182	0.	-436.67
20375	21.852	1.8182	5.e-002	-4.8207
20376	21.852	2.0909	0.	-467.18
20377	21.941	2.	0.	-442.76
20378	21.852	2.	5.e-002	-5.0578
20379	21.852	2.2727	0.	-473.08
20380	21.941	2.1818	0.	-448.3
20381	21.852	2.1818	5.e-002	-5.2672
20382	21.852	2.4545	0.	-478.
20383	21.941	2.3636	0.	-453.07
20384	21.852	2.3636	5.e-002	-5.4432
20385	21.852	2.6364	0.	-481.69
20386	21.941	2.5455	0.	-456.87
20387	21.852	2.5455	5.e-002	-5.5807
20388	21.852	2.8182	0.	-483.99
20389	21.941	2.7273	0.	-459.51
20390	21.852	2.7273	5.e-002	-5.6752
20391	21.852	3.	0.	-484.77
20392	21.941	2.9091	0.	-460.87
20393	21.852	2.9091	5.e-002	-5.7234
20394	21.852	3.1818	0.	-483.99
20395	21.941	3.0909	0.	-460.87
20396	21.852	3.0909	5.e-002	-5.7234
20397	21.852	3.3636	0.	-481.69
20398	21.941	3.2727	0.	-459.51
20399	21.852	3.2727	5.e-002	-5.6752
20400	21.852	3.5455	0.	-478.
20401	21.941	3.4545	0.	-456.87
20402	21.852	3.4545	5.e-002	-5.5807
20403	21.852	3.7273	0.	-473.08
20404	21.941	3.6364	0.	-453.07
20405	21.852	3.6364	5.e-002	-5.4432
20406	21.852	3.9091	0.	-467.18
20407	21.941	3.8182	0.	-448.3
20408	21.852	3.8182	5.e-002	-5.2672
20409	21.852	4.0909	0.	-460.54
20410	21.941	4.	0.	-442.76
20411	21.852	4.	5.e-002	-5.0578
20412	21.852	4.2727	0.	-453.43
20413	21.941	4.1818	0.	-436.67
20414	21.852	4.1818	5.e-002	-4.8207
20415	21.852	4.4545	0.	-446.12
20416	21.941	4.3636	0.	-430.28
20417	21.852	4.3636	5.e-002	-4.562
20418	21.852	4.6364	0.	-438.86
20419	21.941	4.5455	0.	-423.81
20420	21.852	4.5455	5.e-002	-4.2889
20421	21.852	4.8182	0.	-431.91
20422	21.941	4.7273	0.	-417.49
20423	21.852	4.7273	5.e-002	-4.0097
20424	21.852	5.	0.	-425.52
20425	21.941	4.9091	0.	-411.53
20426	21.852	4.9091	5.e-002	-3.7345
20427	21.852	5.1818	0.	-419.91
20428	21.941	5.0909	0.	-406.16
20429	21.852	5.0909	5.e-002	-3.4746
20430	21.852	5.3636	0.	-415.3
20431	21.941	5.2727	0.	-401.59
20432	21.852	5.2727	5.e-002	-3.2424
20433	21.852	5.5455	0.	-411.92
20434	21.941	5.4545	0.	-398.01
20435	21.852	5.4545	5.e-002	-3.0453
20436	21.852	5.7273	0.	-410.42
20437	21.941	5.6364	0.	-395.68
20438	21.852	5.6364	5.e-002	-2.8033
20439	21.941	5.8182	0.	-395.75
20440	21.852	5.8182	5.e-002	-1.1154
20441	21.852	5.9091	0.	-406.89
20442	22.031	0.27273	0.	-380.85
20443	22.12	0.18182	0.	-365.52
20444	22.031	0.18182	5.e-002	-1.396
20445	22.031	9.0909e-002	0.	-377.76
20446	22.031	0.45455	0.	-381.72
20447	22.12	0.36364	0.	-364.99
20448	22.031	0.36364	5.e-002	-3.022
20449	22.031	0.63636	0.	-384.25
20450	22.12	0.54545	0.	-366.68
20451	22.031	0.54545	5.e-002	-3.2335
20452	22.031	0.81818	0.	-387.8
20453	22.12	0.72727	0.	-369.43
20454	22.031	0.72727	5.e-002	-3.3926
20455	22.031	1.	0.	-392.14
20456	22.12	0.90909	0.	-372.97
20457	22.031	0.90909	5.e-002	-3.5802
20458	22.031	1.1818	0.	-397.08
20459	22.12	1.0909	0.	-377.13
20460	22.031	1.0909	5.e-002	-3.792
20461	22.031	1.3636	0.	-402.42
20462	22.12	1.2727	0.	-381.72
20463	22.031	1.2727	5.e-002	-4.0179
20464	22.031	1.5455	0.	-407.97
20465	22.12	1.4545	0.	-386.57
20466	22.031	1.4545	5.e-002	-4.2482
20467	22.031	1.7273	0.	-413.53
20468	22.12	1.6364	0.	-391.49
20469	22.031	1.6364	5.e-002	-4.4742
20470	22.031	1.9091	0.	-418.89
20471	22.12	1.8182	0.	-396.32
20472	22.031	1.8182	5.e-002	-4.6885
20473	22.031	2.0909	0.	-423.88
20474	22.12	2.	0.	-400.89
20475	22.031	2.	5.e-002	-4.8848
20476	22.031	2.2727	0.	-428.29
20477	22.12	2.1818	0.	-405.02
20478	22.031	2.1818	5.e-002	-5.0577
20479	22.031	2.4545	0.	-431.94
20480	22.12	2.3636	0.	-408.57
20481	22.031	2.3636	5.e-002	-5.2024
20482	22.031	2.6364	0.	-434.68
20483	22.12	2.5455	0.	-411.37
20484	22.031	2.5455	5.e-002	-5.315
20485	22.031	2.8182	0.	-436.38
20486	22.12	2.7273	0.	-413.32
20487	22.031	2.7273	5.e-002	-5.3922
20488	22.031	3.	0.	-436.96
20489	22.12	2.9091	0.	-414.31
20490	22.031	2.9091	5.e-002	-5.4314
20491	22.031	3.1818	0.	-436.38
20492	22.12	3.0909	0.	-414.31
20493	22.031	3.0909	5.e-002	-5.4314
20494	22.031	3.3636	0.	-434.68
20495	22.12	3.2727	0.	-413.32
20496	22.031	3.2727	5.e-002	-5.3922
20497	22.031	3.5455	0.	-431.94
20498	22.12	3.4545	0.	-411.37
20499	22.031	3.4545	5.e-002	-5.315
20500	22.031	3.7273	0.	-428.29
20501	22.12	3.6364	0.	-408.57
20502	22.031	3.6364	5.e-002	-5.2024
20503	22.031	3.9091	0.	-423.88
20504	22.12	3.8182	0.	-405.02
20505	22.031	3.8182	5.e-002	-5.0577
20506	22.031	4.0909	0.	-418.89
20507	22.12	4.	0.	-400.89
20508	22.031	4.	5.e-002	-4.8848
20509	22.031	4.2727	0.	-413.53
20510	22.12	4.1818	0.	-396.32
20511	22.031	4.1818	5.e-002	-4.6885
20512	22.031	4.4545	0.	-407.97
20513	22.12	4.3636	0.	-391.49
20514	22.031	4.3636	5.e-002	-4.4742
20515	22.031	4.6364	0.	-402.42
20516	22.12	4.5455	0.	-386.57
20517	22.031	4.5455	5.e-002	-4.2482
20518	22.031	4.8182	0.	-397.08
20519	22.12	4.7273	0.	-381.72
20520	22.031	4.7273	5.e-002	-4.0179
20521	22.031	5.	0.	-392.14
20522	22.12	4.9091	0.	-377.13
20523	22.031	4.9091	5.e-002	-3.792
20524	22.031	5.1818	0.	-387.8
20525	22.12	5.0909	0.	-372.97
20526	22.031	5.0909	5.e-002	-3.5802
20527	22.031	5.3636	0.	-384.25
20528	22.12	5.2727	0.	-369.43
20529	22.031	5.2727	5.e-002	-3.3926
20530	22.031	5.5455	0.	-381.72
20531	22.12	5.4545	0.	-366.68
20532	22.031	5.4545	5.e-002	-3.2335
20533	22.031	5.7273	0.	-380.85
20534	22.12	5.6364	0.	-364.99
20535	22.031	5.6364	5.e-002	-3.022
20536	22.12	5.8182	0.	-365.52
20537	22.031	5.8182	5.e-002	-1.396
20538	22.031	5.9091	0.	-377.76
20539	22.21	0.27273	0.	-349.49
20540	22.299	0.18182	0.	-333.63
20541	22.21	0.18182	5.e-002	-1.6323
20542	22.21	9.0909e-002	0.	-346.71
20543	22.21	0.45455	0.	-349.89
20544	22.299	0.36364	0.	-332.77
20545	22.21	0.36364	5.e-002	-3.1972
20546	22.21	0.63636	0.	-351.8
20547	22.299	0.54545	0.	-334.01
20548	22.21	0.54545	5.e-002	-3.3854
20549	22.21	0.81818	0.	-354.55
20550	22.299	0.72727	0.	-336.14
20551	22.21	0.72727	5.e-002	-3.5158
20552	22.21	1.	0.	-357.92
20553	22.299	0.90909	0.	-338.91
20554	22.21	0.90909	5.e-002	-3.6688
20555	22.21	1.1818	0.	-361.75
20556	22.299	1.0909	0.	-342.15
20557	22.21	1.0909	5.e-002	-3.8423
20558	22.21	1.3636	0.	-365.85
20559	22.299	1.2727	0.	-345.7
20560	22.21	1.2727	5.e-002	-4.0284
20561	22.21	1.5455	0.	-370.08
20562	22.299	1.4545	0.	-349.41
20563	22.21	1.4545	5.e-002	-4.2188
20564	22.21	1.7273	0.	-374.29
20565	22.299	1.6364	0.	-353.14
20566	22.21	1.6364	5.e-002	-4.4061
20567	22.21	1.9091	0.	-378.32
20568	22.299	1.8182	0.	-356.77
20569	22.21	1.8182	5.e-002	-4.5838
20570	22.21	2.0909	0.	-382.03
20571	22.299	2.	0.	-360.17
20572	22.21	2.	5.e-002	-4.7464
20573	22.21	2.2727	0.	-385.3
20574	22.299	2.1818	0.	-363.22
20575	22.21	2.1818	5.e-002	-4.8893
20576	22.21	2.4545	0.	-388.
20577	22.299	2.3636	0.	-365.83
20578	22.21	2.3636	5.e-002	-5.0087
20579	22.21	2.6364	0.	-390.01
20580	22.299	2.5455	0.	-367.88
20581	22.21	2.5455	5.e-002	-5.1012
20582	22.21	2.8182	0.	-391.25
20583	22.299	2.7273	0.	-369.3
20584	22.21	2.7273	5.e-002	-5.1645
20585	22.21	3.	0.	-391.67
20586	22.299	2.9091	0.	-370.02
20587	22.21	2.9091	5.e-002	-5.1965
20588	22.21	3.1818	0.	-391.25
20589	22.299	3.0909	0.	-370.02
20590	22.21	3.0909	5.e-002	-5.1965
20591	22.21	3.3636	0.	-390.01
20592	22.299	3.2727	0.	-369.3
20593	22.21	3.2727	5.e-002	-5.1645
20594	22.21	3.5455	0.	-388.
20595	22.299	3.4545	0.	-367.88
20596	22.21	3.4545	5.e-002	-5.1012
20597	22.21	3.7273	0.	-385.3
20598	22.299	3.6364	0.	-365.83
20599	22.21	3.6364	5.e-002	-5.0087
20600	22.21	3.9091	0.	-382.03
20601	22.299	3.8182	0.	-363.22
20602	22.21	3.8182	5.e-002	-4.8894
20603	22.21	4.0909	0.	-378.32
20604	22.299	4.	0.	-360.17
20605	22.21	4.	5.e-002	-4.7464
20606	22.21	4.2727	0.	-374.29
20607	22.299	4.1818	0.	-356.77
20608	22.21	4.1818	5.e-002	-4.5838
20609	22.21	4.4545	0.	-370.08
20610	22.299	4.3636	0.	-353.14
20611	22.21	4.3636	5.e-002	-4.4061
20612	22.21	4.6364	0.	-365.85
20613	22.299	4.5455	0.	-349.41
20614	22.21	4.5455	5.e-002	-4.2188
20615	22.21	4.8182	0.	-361.75
20616	22.299	4.7273	0.	-345.7
20617	22.21	4.7273	5.e-002	-4.0284
20618	22.21	5.	0.	-357.92
20619	22.299	4.9091	0.	-342.15
20620	22.21	4.9091	5.e-002	-3.8423
20621	22.21	5.1818	0.	-354.55
20622	22.299	5.0909	0.	-338.91
20623	22.21	5.0909	5.e-002	-3.6688
20624	22.21	5.3636	0.	-351.8
20625	22.299	5.2727	0.	-336.14
20626	22.21	5.2727	5.e-002	-3.5158
20627	22.21	5.5455	0.	-349.89
20628	22.299	5.4545	0.	-334.01
20629	22.21	5.4545	5.e-002	-3.3854
20630	22.21	5.7273	0.	-349.49
20631	22.299	5.6364	0.	-332.77
20632	22.21	5.6364	5.e-002	-3.1972
20633	22.299	5.8182	0.	-333.63
20634	22.21	5.8182	5.e-002	-1.6323
20635	22.21	5.9091	0.	-346.71
20636	22.389	0.27273	0.	-316.73
20637	22.478	0.18182	0.	-300.47
20638	22.389	0.18182	5.e-002	-1.836
20639	22.389	9.0909e-002	0.	-314.18
20640	22.389	0.45455	0.	-316.81
20641	22.478	0.36364	0.	-299.39
20642	22.389	0.36364	5.e-002	-3.3373
20643	22.389	0.63636	0.	-318.28
20644	22.478	0.54545	0.	-300.31
20645	22.389	0.54545	5.e-002	-3.5073
20646	22.389	0.81818	0.	-320.45
20647	22.478	0.72727	0.	-302.01
20648	22.389	0.72727	5.e-002	-3.6162
20649	22.389	1.	0.	-323.1
20650	22.478	0.90909	0.	-304.22
20651	22.389	0.90909	5.e-002	-3.7427
20652	22.389	1.1818	0.	-326.07
20653	22.478	1.0909	0.	-306.77
20654	22.389	1.0909	5.e-002	-3.8863
20655	22.389	1.3636	0.	-329.23
20656	22.478	1.2727	0.	-309.52
20657	22.389	1.2727	5.e-002	-4.0406
20658	22.389	1.5455	0.	-332.45
20659	22.478	1.4545	0.	-312.35
20660	22.389	1.4545	5.e-002	-4.1986
20661	22.389	1.7273	0.	-335.61
20662	22.478	1.6364	0.	-315.16
20663	22.389	1.6364	5.e-002	-4.3542
20664	22.389	1.9091	0.	-338.61
20665	22.478	1.8182	0.	-317.86
20666	22.389	1.8182	5.e-002	-4.5017
20667	22.389	2.0909	0.	-341.35
20668	22.478	2.	0.	-320.36
20669	22.389	2.	5.e-002	-4.6366
20670	22.389	2.2727	0.	-343.75
20671	22.478	2.1818	0.	-322.59
20672	22.389	2.1818	5.e-002	-4.7549
20673	22.389	2.4545	0.	-345.71
20674	22.478	2.3636	0.	-324.48
20675	22.389	2.3636	5.e-002	-4.8535
20676	22.389	2.6364	0.	-347.17
20677	22.478	2.5455	0.	-325.96
20678	22.389	2.5455	5.e-002	-4.9297
20679	22.389	2.8182	0.	-348.06
20680	22.478	2.7273	0.	-326.98
20681	22.389	2.7273	5.e-002	-4.9816
20682	22.389	3.	0.	-348.37
20683	22.478	2.9091	0.	-327.49
20684	22.389	2.9091	5.e-002	-5.0079
20685	22.389	3.1818	0.	-348.06
20686	22.478	3.0909	0.	-327.49
20687	22.389	3.0909	5.e-002	-5.0079
20688	22.389	3.3636	0.	-347.17
20689	22.478	3.2727	0.	-326.98
20690	22.389	3.2727	5.e-002	-4.9816
20691	22.389	3.5455	0.	-345.71
20692	22.478	3.4545	0.	-325.96
20693	22.389	3.4545	5.e-002	-4.9297
20694	22.389	3.7273	0.	-343.75
20695	22.478	3.6364	0.	-324.48
20696	22.389	3.6364	5.e-002	-4.8535
20697	22.389	3.9091	0.	-341.35
20698	22.478	3.8182	0.	-322.59
20699	22.389	3.8182	5.e-002	-4.7549
20700	22.389	4.0909	0.	-338.61
20701	22.478	4.	0.	-320.36
20702	22.389	4.	5.e-002	-4.6366
20703	22.389	4.2727	0.	-335.61
20704	22.478	4.1818	0.	-317.86
20705	22.389	4.1818	5.e-002	-4.5017
20706	22.389	4.4545	0.	-332.45
20707	22.478	4.3636	0.	-315.16
20708	22.389	4.3636	5.e-002	-4.3542
20709	22.389	4.6364	0.	-329.23
20710	22.478	4.5455	0.	-312.35
20711	22.389	4.5455	5.e-002	-4.1986
20712	22.389	4.8182	0.	-326.07
20713	22.478	4.7273	0.	-309.52
20714	22.389	4.7273	5.e-002	-4.0406
20715	22.389	5.	0.	-323.1
20716	22.478	4.9091	0.	-306.77
20717	22.389	4.9091	5.e-002	-3.8863
20718	22.389	5.1818	0.	-320.45
20719	22.478	5.0909	0.	-304.22
20720	22.389	5.0909	5.e-002	-3.7427
20721	22.389	5.3636	0.	-318.28
20722	22.478	5.2727	0.	-302.01
20723	22.389	5.2727	5.e-002	-3.6162
20724	22.389	5.5455	0.	-316.81
20725	22.478	5.4545	0.	-300.31
20726	22.389	5.4545	5.e-002	-3.5073
20727	22.389	5.7273	0.	-316.73
20728	22.478	5.6364	0.	-299.39
20729	22.389	5.6364	5.e-002	-3.3373
20730	22.478	5.8182	0.	-300.47
20731	22.389	5.8182	5.e-002	-1.836
20732	22.389	5.9091	0.	-314.18
20733	22.568	0.27273	0.	-282.91
20734	22.657	0.18182	0.	-266.32
20735	22.568	0.18182	5.e-002	-2.0176
20736	22.568	9.0909e-002	0.	-280.5
20737	22.568	0.45455	0.	-282.8
20738	22.657	0.36364	0.	-265.13
20739	22.568	0.36364	5.e-002	-3.4495
20740	22.568	0.63636	0.	-283.98
20741	22.657	0.54545	0.	-265.88
20742	22.568	0.54545	5.e-002	-3.6053
20743	22.568	0.81818	0.	-285.74
20744	22.657	0.72727	0.	-267.3
20745	22.568	0.72727	5.e-002	-3.6984
20746	22.568	1.	0.	-287.86
20747	22.657	0.90909	0.	-269.1
20748	22.568	0.90909	5.e-002	-3.805
20749	22.568	1.1818	0.	-290.19
20750	22.657	1.0909	0.	-271.13
20751	22.568	1.0909	5.e-002	-3.9255
20752	22.568	1.3636	0.	-292.62
20753	22.657	1.2727	0.	-273.27
20754	22.568	1.2727	5.e-002	-4.0545
20755	22.568	1.5455	0.	-295.05
20756	22.657	1.4545	0.	-275.42
20757	22.568	1.4545	5.e-002	-4.1864
20758	22.568	1.7273	0.	-297.4
20759	22.657	1.6364	0.	-277.51
20760	22.568	1.6364	5.e-002	-4.316
20761	22.568	1.9091	0.	-299.61
20762	22.657	1.8182	0.	-279.49
20763	22.568	1.8182	5.e-002	-4.4386
20764	22.568	2.0909	0.	-301.6
20765	22.657	2.	0.	-281.3
20766	22.568	2.	5.e-002	-4.5505
20767	22.568	2.2727	0.	-303.33
20768	22.657	2.1818	0.	-282.9
20769	22.568	2.1818	5.e-002	-4.6484
20770	22.568	2.4545	0.	-304.73
20771	22.657	2.3636	0.	-284.24
20772	22.568	2.3636	5.e-002	-4.7297
20773	22.568	2.6364	0.	-305.77
20774	22.657	2.5455	0.	-285.28
20775	22.568	2.5455	5.e-002	-4.7924
20776	22.568	2.8182	0.	-306.4
20777	22.657	2.7273	0.	-285.99
20778	22.568	2.7273	5.e-002	-4.8351
20779	22.568	3.	0.	-306.62
20780	22.657	2.9091	0.	-286.35
20781	22.568	2.9091	5.e-002	-4.8566
20782	22.568	3.1818	0.	-306.4
20783	22.657	3.0909	0.	-286.35
20784	22.568	3.0909	5.e-002	-4.8566
20785	22.568	3.3636	0.	-305.77
20786	22.657	3.2727	0.	-285.99
20787	22.568	3.2727	5.e-002	-4.8351
20788	22.568	3.5455	0.	-304.73
20789	22.657	3.4545	0.	-285.28
20790	22.568	3.4545	5.e-002	-4.7924
20791	22.568	3.7273	0.	-303.33
20792	22.657	3.6364	0.	-284.24
20793	22.568	3.6364	5.e-002	-4.7297
20794	22.568	3.9091	0.	-301.6
20795	22.657	3.8182	0.	-282.9
20796	22.568	3.8182	5.e-002	-4.6484
20797	22.568	4.0909	0.	-299.61
20798	22.657	4.	0.	-281.3
20799	22.568	4.	5.e-002	-4.5505
20800	22.568	4.2727	0.	-297.4
20801	22.657	4.1818	0.	-279.49
20802	22.568	4.1818	5.e-002	-4.4386
20803	22.568	4.4545	0.	-295.05
20804	22.657	4.3636	0.	-277.51
20805	22.568	4.3636	5.e-002	-4.316
20806	22.568	4.6364	0.	-292.62
20807	22.657	4.5455	0.	-275.42
20808	22.568	4.5455	5.e-002	-4.1864
20809	22.568	4.8182	0.	-290.19
20810	22.657	4.7273	0.	-273.27
20811	22.568	4.7273	5.e-002	-4.0545
20812	22.568	5.	0.	-287.86
20813	22.657	4.9091	0.	-271.13
20814	22.568	4.9091	5.e-002	-3.9255
20815	22.568	5.1818	0.	-285.74
20816	22.657	5.0909	0.	-269.1
20817	22.568	5.0909	5.e-002	-3.805
20818	22.568	5.3636	0.	-283.98
20819	22.657	5.2727	0.	-267.3
20820	22.568	5.2727	5.e-002	-3.6984
20821	22.568	5.5455	0.	-282.8
20822	22.657	5.4545	0.	-265.88
20823	22.568	5.4545	5.e-002	-3.6053
20824	22.568	5.7273	0.	-282.91
20825	22.657	5.6364	0.	-265.13
20826	22.568	5.6364	5.e-002	-3.4495
20827	22.657	5.8182	0.	-266.32
20828	22.568	5.8182	5.e-002	-2.0176
20829	22.568	5.9091	0.	-280.5
20830	22.747	0.27273	0.	-248.3
20831	22.836	0.18182	0.	-231.44
20832	22.747	0.18182	5.e-002	-2.1863
20833	22.747	9.0909e-002	0.	-245.98
20834	22.747	0.45455	0.	-248.11
20835	22.836	0.36364	0.	-230.24
20836	22.747	0.36364	5.e-002	-3.5401
20837	22.747	0.63636	0.	-249.13
20838	22.836	0.54545	0.	-230.94
20839	22.747	0.54545	5.e-002	-3.6849
20840	22.747	0.81818	0.	-250.61
20841	22.836	0.72727	0.	-232.19
20842	22.747	0.72727	5.e-002	-3.7671
20843	22.747	1.	0.	-252.35
20844	22.836	0.90909	0.	-233.71
20845	22.747	0.90909	5.e-002	-3.8591
20846	22.747	1.1818	0.	-254.19
20847	22.836	1.0909	0.	-235.35
20848	22.747	1.0909	5.e-002	-3.9618
20849	22.747	1.3636	0.	-256.05
20850	22.836	1.2727	0.	-237.
20851	22.747	1.2727	5.e-002	-4.0708
20852	22.747	1.5455	0.	-257.87
20853	22.836	1.4545	0.	-238.61
20854	22.747	1.4545	5.e-002	-4.1815
20855	22.747	1.7273	0.	-259.59
20856	22.836	1.6364	0.	-240.15
20857	22.747	1.6364	5.e-002	-4.2897
20858	22.747	1.9091	0.	-261.18
20859	22.836	1.8182	0.	-241.56
20860	22.747	1.8182	5.e-002	-4.3916
20861	22.747	2.0909	0.	-262.6
20862	22.836	2.	0.	-242.83
20863	22.747	2.	5.e-002	-4.4842
20864	22.747	2.2727	0.	-263.81
20865	22.836	2.1818	0.	-243.94
20866	22.747	2.1818	5.e-002	-4.5648
20867	22.747	2.4545	0.	-264.78
20868	22.836	2.3636	0.	-244.86
20869	22.747	2.3636	5.e-002	-4.6317
20870	22.747	2.6364	0.	-265.5
20871	22.836	2.5455	0.	-245.57
20872	22.747	2.5455	5.e-002	-4.6831
20873	22.747	2.8182	0.	-265.94
20874	22.836	2.7273	0.	-246.05
20875	22.747	2.7273	5.e-002	-4.7179
20876	22.747	3.	0.	-266.08
20877	22.836	2.9091	0.	-246.29
20878	22.747	2.9091	5.e-002	-4.7356
20879	22.747	3.1818	0.	-265.94
20880	22.836	3.0909	0.	-246.29
20881	22.747	3.0909	5.e-002	-4.7356
20882	22.747	3.3636	0.	-265.5
20883	22.836	3.2727	0.	-246.05
20884	22.747	3.2727	5.e-002	-4.7179
20885	22.747	3.5455	0.	-264.78
20886	22.836	3.4545	0.	-245.57
20887	22.747	3.4545	5.e-002	-4.6831
20888	22.747	3.7273	0.	-263.81
20889	22.836	3.6364	0.	-244.86
20890	22.747	3.6364	5.e-002	-4.6317
20891	22.747	3.9091	0.	-262.6
20892	22.836	3.8182	0.	-243.94
20893	22.747	3.8182	5.e-002	-4.5648
20894	22.747	4.0909	0.	-261.18
20895	22.836	4.	0.	-242.83
20896	22.747	4.	5.e-002	-4.4842
20897	22.747	4.2727	0.	-259.59
20898	22.836	4.1818	0.	-241.56
20899	22.747	4.1818	5.e-002	-4.3916
20900	22.747	4.4545	0.	-257.87
20901	22.836	4.3636	0.	-240.15
20902	22.747	4.3636	5.e-002	-4.2897
20903	22.747	4.6364	0.	-256.05
20904	22.836	4.5455	0.	-238.61
20905	22.747	4.5455	5.e-002	-4.1815
20906	22.747	4.8182	0.	-254.19
20907	22.836	4.7273	0.	-237.
20908	22.747	4.7273	5.e-002	-4.0708
20909	22.747	5.	0.	-252.35
20910	22.836	4.9091	0.	-235.35
20911	22.747	4.9091	5.e-002	-3.9618
20912	22.747	5.1818	0.	-250.61
20913	22.836	5.0909	0.	-233.71
20914	22.747	5.0909	5.e-002	-3.8591
20915	22.747	5.3636	0.	-249.13
20916	22.836	5.2727	0.	-232.19
20917	22.747	5.2727	5.e-002	-3.7671
20918	22.747	5.5455	0.	-248.11
20919	22.836	5.4545	0.	-230.94
20920	22.747	5.4545	5.e-002	-3.6849
20921	22.747	5.7273	0.	-248.3
20922	22.836	5.6364	0.	-230.24
20923	22.747	5.6364	5.e-002	-3.5401
20924	22.836	5.8182	0.	-231.44
20925	22.747	5.8182	5.e-002	-2.1863
20926	22.747	5.9091	0.	-245.98
20927	22.926	0.27273	0.	-213.12
20928	23.015	0.18182	0.	-196.03
20929	22.926	0.18182	5.e-002	-2.3508
20930	22.926	9.0909e-002	0.	-210.85
20931	22.926	0.45455	0.	-212.96
20932	23.015	0.36364	0.	-194.94
20933	22.926	0.36364	5.e-002	-3.6151
20934	22.926	0.63636	0.	-213.92
20935	23.015	0.54545	0.	-195.68
20936	22.926	0.54545	5.e-002	-3.7517
20937	22.926	0.81818	0.	-215.24
20938	23.015	0.72727	0.	-196.86
20939	22.926	0.72727	5.e-002	-3.8271
20940	22.926	1.	0.	-216.68
20941	23.015	0.90909	0.	-198.17
20942	22.926	0.90909	5.e-002	-3.9088
20943	22.926	1.1818	0.	-218.14
20944	23.015	1.0909	0.	-199.49
20945	22.926	1.0909	5.e-002	-3.9979
20946	22.926	1.3636	0.	-219.55
20947	23.015	1.2727	0.	-200.75
20948	22.926	1.2727	5.e-002	-4.0909
20949	22.926	1.5455	0.	-220.88
20950	23.015	1.4545	0.	-201.93
20951	22.926	1.4545	5.e-002	-4.184
20952	22.926	1.7273	0.	-222.11
20953	23.015	1.6364	0.	-203.01
20954	22.926	1.6364	5.e-002	-4.2741
20955	22.926	1.9091	0.	-223.21
20956	23.015	1.8182	0.	-203.98
20957	22.926	1.8182	5.e-002	-4.3583
20958	22.926	2.0909	0.	-224.18
20959	23.015	2.	0.	-204.84
20960	22.926	2.	5.e-002	-4.4344
20961	22.926	2.2727	0.	-224.99
20962	23.015	2.1818	0.	-205.56
20963	22.926	2.1818	5.e-002	-4.5003
20964	22.926	2.4545	0.	-225.64
20965	23.015	2.3636	0.	-206.16
20966	22.926	2.3636	5.e-002	-4.5547
20967	22.926	2.6364	0.	-226.12
20968	23.015	2.5455	0.	-206.61
20969	22.926	2.5455	5.e-002	-4.5964
20970	22.926	2.8182	0.	-226.4
20971	23.015	2.7273	0.	-206.92
20972	22.926	2.7273	5.e-002	-4.6246
20973	22.926	3.	0.	-226.5
20974	23.015	2.9091	0.	-207.08
20975	22.926	2.9091	5.e-002	-4.6388
20976	22.926	3.1818	0.	-226.4
20977	23.015	3.0909	0.	-207.08
20978	22.926	3.0909	5.e-002	-4.6388
20979	22.926	3.3636	0.	-226.12
20980	23.015	3.2727	0.	-206.92
20981	22.926	3.2727	5.e-002	-4.6246
20982	22.926	3.5455	0.	-225.64
20983	23.015	3.4545	0.	-206.61
20984	22.926	3.4545	5.e-002	-4.5964
20985	22.926	3.7273	0.	-224.99
20986	23.015	3.6364	0.	-206.16
20987	22.926	3.6364	5.e-002	-4.5547
20988	22.926	3.9091	0.	-224.18
20989	23.015	3.8182	0.	-205.56
20990	22.926	3.8182	5.e-002	-4.5003
20991	22.926	4.0909	0.	-223.21
20992	23.015	4.	0.	-204.84
20993	22.926	4.	5.e-002	-4.4344
20994	22.926	4.2727	0.	-222.11
20995	23.015	4.1818	0.	-203.98
20996	22.926	4.1818	5.e-002	-4.3583
20997	22.926	4.4545	0.	-220.88
20998	23.015	4.3636	0.	-203.01
20999	22.926	4.3636	5.e-002	-4.2741
21000	22.926	4.6364	0.	-219.55
21001	23.015	4.5455	0.	-201.93
21002	22.926	4.5455	5.e-002	-4.184
21003	22.926	4.8182	0.	-218.14
21004	23.015	4.7273	0.	-200.75
21005	22.926	4.7273	5.e-002	-4.0909
21006	22.926	5.	0.	-216.68
21007	23.015	4.9091	0.	-199.49
21008	22.926	4.9091	5.e-002	-3.9979
21009	22.926	5.1818	0.	-215.24
21010	23.015	5.0909	0.	-198.17
21011	22.926	5.0909	5.e-002	-3.9088
21012	22.926	5.3636	0.	-213.92
21013	23.015	5.2727	0.	-196.86
21014	22.926	5.2727	5.e-002	-3.8271
21015	22.926	5.5455	0.	-212.96
21016	23.015	5.4545	0.	-195.68
21017	22.926	5.4545	5.e-002	-3.7517
21018	22.926	5.7273	0.	-213.12
21019	23.015	5.6364	0.	-194.94
21020	22.926	5.6364	5.e-002	-3.6151
21021	23.015	5.8182	0.	-196.03
21022	22.926	5.8182	5.e-002	-2.3508
21023	22.926	5.9091	0.	-210.85
21024	23.105	0.27273	0.	-177.56
21025	23.194	0.18182	0.	-160.27
21026	23.105	0.18182	5.e-002	-2.5195
21027	23.105	9.0909e-002	0.	-175.32
21028	23.105	0.45455	0.	-177.54
21029	23.194	0.36364	0.	-159.42
21030	23.105	0.36364	5.e-002	-3.6802
21031	23.105	0.63636	0.	-178.53
21032	23.194	0.54545	0.	-160.28
21033	23.105	0.54545	5.e-002	-3.8115
21034	23.105	0.81818	0.	-179.74
21035	23.194	0.72727	0.	-161.42
21036	23.105	0.72727	5.e-002	-3.8838
21037	23.105	1.	0.	-180.95
21038	23.194	0.90909	0.	-162.56
21039	23.105	0.90909	5.e-002	-3.9585
21040	23.105	1.1818	0.	-182.08
21041	23.194	1.0909	0.	-163.6
21042	23.105	1.0909	5.e-002	-4.0368
21043	23.105	1.3636	0.	-183.12
21044	23.194	1.2727	0.	-164.53
21045	23.105	1.2727	5.e-002	-4.1162
21046	23.105	1.5455	0.	-184.05
21047	23.194	1.4545	0.	-165.34
21048	23.105	1.4545	5.e-002	-4.1941
21049	23.105	1.7273	0.	-184.88
21050	23.194	1.6364	0.	-166.06
21051	23.105	1.6364	5.e-002	-4.2684
21052	23.105	1.9091	0.	-185.6
21053	23.194	1.8182	0.	-166.67
21054	23.105	1.8182	5.e-002	-4.337
21055	23.105	2.0909	0.	-186.22
21056	23.194	2.	0.	-167.2
21057	23.105	2.	5.e-002	-4.3984
21058	23.105	2.2727	0.	-186.73
21059	23.194	2.1818	0.	-167.64
21060	23.105	2.1818	5.e-002	-4.4513
21061	23.105	2.4545	0.	-187.13
21062	23.194	2.3636	0.	-167.99
21063	23.105	2.3636	5.e-002	-4.4947
21064	23.105	2.6364	0.	-187.42
21065	23.194	2.5455	0.	-168.26
21066	23.105	2.5455	5.e-002	-4.5278
21067	23.105	2.8182	0.	-187.6
21068	23.194	2.7273	0.	-168.43
21069	23.105	2.7273	5.e-002	-4.5502
21070	23.105	3.	0.	-187.66
21071	23.194	2.9091	0.	-168.52
21072	23.105	2.9091	5.e-002	-4.5614
21073	23.105	3.1818	0.	-187.6
21074	23.194	3.0909	0.	-168.52
21075	23.105	3.0909	5.e-002	-4.5614
21076	23.105	3.3636	0.	-187.42
21077	23.194	3.2727	0.	-168.43
21078	23.105	3.2727	5.e-002	-4.5502
21079	23.105	3.5455	0.	-187.13
21080	23.194	3.4545	0.	-168.26
21081	23.105	3.4545	5.e-002	-4.5278
21082	23.105	3.7273	0.	-186.73
21083	23.194	3.6364	0.	-167.99
21084	23.105	3.6364	5.e-002	-4.4947
21085	23.105	3.9091	0.	-186.22
21086	23.194	3.8182	0.	-167.64
21087	23.105	3.8182	5.e-002	-4.4513
21088	23.105	4.0909	0.	-185.6
21089	23.194	4.	0.	-167.2
21090	23.105	4.	5.e-002	-4.3984
21091	23.105	4.2727	0.	-184.88
21092	23.194	4.1818	0.	-166.67
21093	23.105	4.1818	5.e-002	-4.337
21094	23.105	4.4545	0.	-184.05
21095	23.194	4.3636	0.	-166.06
21096	23.105	4.3636	5.e-002	-4.2684
21097	23.105	4.6364	0.	-183.12
21098	23.194	4.5455	0.	-165.34
21099	23.105	4.5455	5.e-002	-4.1941
21100	23.105	4.8182	0.	-182.08
21101	23.194	4.7273	0.	-164.53
21102	23.105	4.7273	5.e-002	-4.1162
21103	23.105	5.	0.	-180.95
21104	23.194	4.9091	0.	-163.6
21105	23.105	4.9091	5.e-002	-4.0368
21106	23.105	5.1818	0.	-179.74
21107	23.194	5.0909	0.	-162.56
21108	23.105	5.0909	5.e-002	-3.9585
21109	23.105	5.3636	0.	-178.53
21110	23.194	5.2727	0.	-161.42
21111	23.105	5.2727	5.e-002	-3.8838
21112	23.105	5.5455	0.	-177.54
21113	23.194	5.4545	0.	-160.28
21114	23.105	5.4545	5.e-002	-3.8115
21115	23.105	5.7273	0.	-177.56
21116	23.194	5.6364	0.	-159.42
21117	23.105	5.6364	5.e-002	-3.6802
21118	23.194	5.8182	0.	-160.27
21119	23.105	5.8182	5.e-002	-2.5195
21120	23.105	5.9091	0.	-175.32
21121	23.284	0.27273	0.	-141.79
21122	23.373	0.18182	0.	-124.34
21123	23.284	0.18182	5.e-002	-2.7017
21124	23.284	9.0909e-002	0.	-139.59
21125	23.284	0.45455	0.	-142.03
21126	23.373	0.36364	0.	-123.88
21127	23.284	0.36364	5.e-002	-3.7418
21128	23.284	0.63636	0.	-143.1
21129	23.373	0.54545	0.	-124.9
21130	23.284	0.54545	5.e-002	-3.8719
21131	23.284	0.81818	0.	-144.2
21132	23.373	0.72727	0.	-125.99
21133	23.284	0.72727	5.e-002	-3.9441
21134	23.284	1.	0.	-145.19
21135	23.373	0.90909	0.	-126.92
21136	23.284	0.90909	5.e-002	-4.0133
21137	23.284	1.1818	0.	-146.03
21138	23.373	1.0909	0.	-127.69
21139	23.284	1.0909	5.e-002	-4.0819
21140	23.284	1.3636	0.	-146.74
21141	23.373	1.2727	0.	-128.31
21142	23.284	1.2727	5.e-002	-4.1487
21143	23.284	1.5455	0.	-147.34
21144	23.373	1.4545	0.	-128.81
21145	23.284	1.4545	5.e-002	-4.2124
21146	23.284	1.7273	0.	-147.85
21147	23.373	1.6364	0.	-129.23
21148	23.284	1.6364	5.e-002	-4.2719
21149	23.284	1.9091	0.	-148.27
21150	23.373	1.8182	0.	-129.57
21151	23.284	1.8182	5.e-002	-4.3262
21152	23.284	2.0909	0.	-148.62
21153	23.373	2.	0.	-129.84
21154	23.284	2.	5.e-002	-4.3741
21155	23.284	2.2727	0.	-148.9
21156	23.373	2.1818	0.	-130.07
21157	23.284	2.1818	5.e-002	-4.4151
21158	23.284	2.4545	0.	-149.12
21159	23.373	2.3636	0.	-130.24
21160	23.284	2.3636	5.e-002	-4.4484
21161	23.284	2.6364	0.	-149.27
21162	23.373	2.5455	0.	-130.37
21163	23.284	2.5455	5.e-002	-4.4737
21164	23.284	2.8182	0.	-149.36
21165	23.373	2.7273	0.	-130.45
21166	23.284	2.7273	5.e-002	-4.4908
21167	23.284	3.	0.	-149.39
21168	23.373	2.9091	0.	-130.49
21169	23.284	2.9091	5.e-002	-4.4993
21170	23.284	3.1818	0.	-149.36
21171	23.373	3.0909	0.	-130.49
21172	23.284	3.0909	5.e-002	-4.4993
21173	23.284	3.3636	0.	-149.27
21174	23.373	3.2727	0.	-130.45
21175	23.284	3.2727	5.e-002	-4.4908
21176	23.284	3.5455	0.	-149.12
21177	23.373	3.4545	0.	-130.37
21178	23.284	3.4545	5.e-002	-4.4737
21179	23.284	3.7273	0.	-148.9
21180	23.373	3.6364	0.	-130.24
21181	23.284	3.6364	5.e-002	-4.4484
21182	23.284	3.9091	0.	-148.62
21183	23.373	3.8182	0.	-130.07
21184	23.284	3.8182	5.e-002	-4.4151
21185	23.284	4.0909	0.	-148.27
21186	23.373	4.	0.	-129.85
21187	23.284	4.	5.e-002	-4.3741
21188	23.284	4.2727	0.	-147.85
21189	23.373	4.1818	0.	-129.57
21190	23.284	4.1818	5.e-002	-4.3262
21191	23.284	4.4545	0.	-147.34
21192	23.373	4.3636	0.	-129.23
21193	23.284	4.3636	5.e-002	-4.2719
21194	23.284	4.6364	0.	-146.74
21195	23.373	4.5455	0.	-128.81
21196	23.284	4.5455	5.e-002	-4.2124
21197	23.284	4.8182	0.	-146.03
21198	23.373	4.7273	0.	-128.31
21199	23.284	4.7273	5.e-002	-4.1487
21200	23.284	5.	0.	-145.19
21201	23.373	4.9091	0.	-127.69
21202	23.284	4.9091	5.e-002	-4.0819
21203	23.284	5.1818	0.	-144.2
21204	23.373	5.0909	0.	-126.92
21205	23.284	5.0909	5.e-002	-4.0133
21206	23.284	5.3636	0.	-143.1
21207	23.373	5.2727	0.	-125.99
21208	23.284	5.2727	5.e-002	-3.9441
21209	23.284	5.5455	0.	-142.03
21210	23.373	5.4545	0.	-124.9
21211	23.284	5.4545	5.e-002	-3.8719
21212	23.284	5.7273	0.	-141.79
21213	23.373	5.6364	0.	-123.88
21214	23.284	5.6364	5.e-002	-3.7418
21215	23.373	5.8182	0.	-124.34
21216	23.284	5.8182	5.e-002	-2.7017
21217	23.284	5.9091	0.	-139.59
21218	23.463	0.27273	0.	-106.03
21219	23.552	0.18182	0.	-88.433
21220	23.463	0.18182	5.e-002	-2.9074
21221	23.463	9.0909e-002	0.	-103.89
21222	23.463	0.45455	0.	-106.62
21223	23.552	0.36364	0.	-88.574
21224	23.463	0.36364	5.e-002	-3.8117
21225	23.463	0.63636	0.	-107.73
21226	23.552	0.54545	0.	-89.669
21227	23.463	0.54545	5.e-002	-3.945
21228	23.463	0.81818	0.	-108.68
21229	23.552	0.72727	0.	-90.574
21230	23.463	0.72727	5.e-002	-4.0169
21231	23.463	1.	0.	-109.4
21232	23.552	0.90909	0.	-91.228
21233	23.463	0.90909	5.e-002	-4.0793
21234	23.463	1.1818	0.	-109.95
21235	23.552	1.0909	0.	-91.698
21236	23.463	1.0909	5.e-002	-4.1367
21237	23.463	1.3636	0.	-110.38
21238	23.552	1.2727	0.	-92.036
21239	23.463	1.2727	5.e-002	-4.1899
21240	23.463	1.5455	0.	-110.7
21241	23.552	1.4545	0.	-92.283
21242	23.463	1.4545	5.e-002	-4.239
21243	23.463	1.7273	0.	-110.95
21244	23.552	1.6364	0.	-92.463
21245	23.463	1.6364	5.e-002	-4.2839
21246	23.463	1.9091	0.	-111.15
21247	23.552	1.8182	0.	-92.597
21248	23.463	1.8182	5.e-002	-4.3241
21249	23.463	2.0909	0.	-111.3
21250	23.552	2.	0.	-92.694
21251	23.463	2.	5.e-002	-4.3591
21252	23.463	2.2727	0.	-111.41
21253	23.552	2.1818	0.	-92.766
21254	23.463	2.1818	5.e-002	-4.3887
21255	23.463	2.4545	0.	-111.49
21256	23.552	2.3636	0.	-92.816
21257	23.463	2.3636	5.e-002	-4.4125
21258	23.463	2.6364	0.	-111.55
21259	23.552	2.5455	0.	-92.851
21260	23.463	2.5455	5.e-002	-4.4305
21261	23.463	2.8182	0.	-111.59
21262	23.552	2.7273	0.	-92.873
21263	23.463	2.7273	5.e-002	-4.4425
21264	23.463	3.	0.	-111.6
21265	23.552	2.9091	0.	-92.883
21266	23.463	2.9091	5.e-002	-4.4485
21267	23.463	3.1818	0.	-111.59
21268	23.552	3.0909	0.	-92.883
21269	23.463	3.0909	5.e-002	-4.4485
21270	23.463	3.3636	0.	-111.55
21271	23.552	3.2727	0.	-92.873
21272	23.463	3.2727	5.e-002	-4.4425
21273	23.463	3.5455	0.	-111.49
21274	23.552	3.4545	0.	-92.851
21275	23.463	3.4545	5.e-002	-4.4305
21276	23.463	3.7273	0.	-111.41
21277	23.552	3.6364	0.	-92.817
21278	23.463	3.6364	5.e-002	-4.4125
21279	23.463	3.9091	0.	-111.3
21280	23.552	3.8182	0.	-92.766
21281	23.463	3.8182	5.e-002	-4.3887
21282	23.463	4.0909	0.	-111.15
21283	23.552	4.	0.	-92.694
21284	23.463	4.	5.e-002	-4.3591
21285	23.463	4.2727	0.	-110.95
21286	23.552	4.1818	0.	-92.597
21287	23.463	4.1818	5.e-002	-4.3241
21288	23.463	4.4545	0.	-110.7
21289	23.552	4.3636	0.	-92.463
21290	23.463	4.3636	5.e-002	-4.2839
21291	23.463	4.6364	0.	-110.38
21292	23.552	4.5455	0.	-92.283
21293	23.463	4.5455	5.e-002	-4.239
21294	23.463	4.8182	0.	-109.95
21295	23.552	4.7273	0.	-92.036
21296	23.463	4.7273	5.e-002	-4.1899
21297	23.463	5.	0.	-109.4
21298	23.552	4.9091	0.	-91.698
21299	23.463	4.9091	5.e-002	-4.1367
21300	23.463	5.1818	0.	-108.68
21301	23.552	5.0909	0.	-91.228
21302	23.463	5.0909	5.e-002	-4.0793
21303	23.463	5.3636	0.	-107.73
21304	23.552	5.2727	0.	-90.574
21305	23.463	5.2727	5.e-002	-4.0169
21306	23.463	5.5455	0.	-106.62
21307	23.552	5.4545	0.	-89.669
21308	23.463	5.4545	5.e-002	-3.945
21309	23.463	5.7273	0.	-106.03
21310	23.552	5.6364	0.	-88.574
21311	23.463	5.6364	5.e-002	-3.8117
21312	23.552	5.8182	0.	-88.433
21313	23.463	5.8182	5.e-002	-2.9074
21314	23.463	5.9091	0.	-103.89
21315	23.642	0.27273	0.	-70.546
21316	23.731	0.18182	0.	-53.212
21317	23.642	0.18182	5.e-002	-3.1675
21318	23.642	9.0909e-002	0.	-68.527
21319	23.642	0.45455	0.	-71.515
21320	23.731	0.36364	0.	-53.877
21321	23.642	0.36364	5.e-002	-3.9234
21322	23.642	0.63636	0.	-72.472
21323	23.731	0.54545	0.	-54.66
21324	23.642	0.54545	5.e-002	-4.0519
21325	23.642	0.81818	0.	-73.112
21326	23.731	0.72727	0.	-55.166
21327	23.642	0.72727	5.e-002	-4.116
21328	23.642	1.	0.	-73.522
21329	23.731	0.90909	0.	-55.458
21330	23.642	0.90909	5.e-002	-4.164
21331	23.642	1.1818	0.	-73.785
21332	23.731	1.0909	0.	-55.626
21333	23.642	1.0909	5.e-002	-4.2052
21334	23.642	1.3636	0.	-73.953
21335	23.731	1.2727	0.	-55.718
21336	23.642	1.2727	5.e-002	-4.2417
21337	23.642	1.5455	0.	-74.059
21338	23.731	1.4545	0.	-55.762
21339	23.642	1.4545	5.e-002	-4.2746
21340	23.642	1.7273	0.	-74.124
21341	23.731	1.6364	0.	-55.778
21342	23.642	1.6364	5.e-002	-4.3039
21343	23.642	1.9091	0.	-74.161
21344	23.731	1.8182	0.	-55.776
21345	23.642	1.8182	5.e-002	-4.3297
21346	23.642	2.0909	0.	-74.18
21347	23.731	2.	0.	-55.764
21348	23.642	2.	5.e-002	-4.3518
21349	23.642	2.2727	0.	-74.188
21350	23.731	2.1818	0.	-55.748
21351	23.642	2.1818	5.e-002	-4.3701
21352	23.642	2.4545	0.	-74.19
21353	23.731	2.3636	0.	-55.731
21354	23.642	2.3636	5.e-002	-4.3847
21355	23.642	2.6364	0.	-74.189
21356	23.731	2.5455	0.	-55.717
21357	23.642	2.5455	5.e-002	-4.3955
21358	23.642	2.8182	0.	-74.187
21359	23.731	2.7273	0.	-55.706
21360	23.642	2.7273	5.e-002	-4.4026
21361	23.642	3.	0.	-74.186
21362	23.731	2.9091	0.	-55.7
21363	23.642	2.9091	5.e-002	-4.4062
21364	23.642	3.1818	0.	-74.187
21365	23.731	3.0909	0.	-55.7
21366	23.642	3.0909	5.e-002	-4.4062
21367	23.642	3.3636	0.	-74.189
21368	23.731	3.2727	0.	-55.706
21369	23.642	3.2727	5.e-002	-4.4026
21370	23.642	3.5455	0.	-74.19
21371	23.731	3.4545	0.	-55.717
21372	23.642	3.4545	5.e-002	-4.3955
21373	23.642	3.7273	0.	-74.188
21374	23.731	3.6364	0.	-55.731
21375	23.642	3.6364	5.e-002	-4.3847
21376	23.642	3.9091	0.	-74.18
21377	23.731	3.8182	0.	-55.748
21378	23.642	3.8182	5.e-002	-4.3701
21379	23.642	4.0909	0.	-74.161
21380	23.731	4.	0.	-55.764
21381	23.642	4.	5.e-002	-4.3518
21382	23.642	4.2727	0.	-74.124
21383	23.731	4.1818	0.	-55.776
21384	23.642	4.1818	5.e-002	-4.3297
21385	23.642	4.4545	0.	-74.059
21386	23.731	4.3636	0.	-55.778
21387	23.642	4.3636	5.e-002	-4.3039
21388	23.642	4.6364	0.	-73.953
21389	23.731	4.5455	0.	-55.762
21390	23.642	4.5455	5.e-002	-4.2746
21391	23.642	4.8182	0.	-73.785
21392	23.731	4.7273	0.	-55.717
21393	23.642	4.7273	5.e-002	-4.2417
21394	23.642	5.	0.	-73.522
21395	23.731	4.9091	0.	-55.626
21396	23.642	4.9091	5.e-002	-4.2052
21397	23.642	5.1818	0.	-73.112
21398	23.731	5.0909	0.	-55.458
21399	23.642	5.0909	5.e-002	-4.164
21400	23.642	5.3636	0.	-72.472
21401	23.731	5.2727	0.	-55.166
21402	23.642	5.2727	5.e-002	-4.116
21403	23.642	5.5455	0.	-71.515
21404	23.731	5.4545	0.	-54.66
21405	23.642	5.4545	5.e-002	-4.0519
21406	23.642	5.7273	0.	-70.546
21407	23.731	5.6364	0.	-53.877
21408	23.642	5.6364	5.e-002	-3.9234
21409	23.731	5.8182	0.	-53.212
21410	23.642	5.8182	5.e-002	-3.1675
21411	23.642	5.9091	0.	-68.527
21412	23.821	0.27273	0.	-36.182
21413	23.821	0.18182	5.e-002	-3.6748
21414	23.821	9.0909e-002	0.	-34.445
21415	23.91	0.18182	0.	-20.083
21416	23.821	0.45455	0.	-37.004
21417	23.821	0.36364	5.e-002	-4.2108
21418	23.91	0.36364	0.	-20.744
21419	23.821	0.63636	0.	-37.391
21420	23.821	0.54545	5.e-002	-4.2675
21421	23.91	0.54545	0.	-21.028
21422	23.821	0.81818	0.	-37.569
21423	23.821	0.72727	5.e-002	-4.2836
21424	23.91	0.72727	0.	-21.163
21425	23.821	1.	0.	-37.63
21426	23.821	0.90909	5.e-002	-4.2951
21427	23.91	0.90909	0.	-21.204
21428	23.821	1.1818	0.	-37.633
21429	23.821	1.0909	5.e-002	-4.3052
21430	23.91	1.0909	0.	-21.204
21431	23.821	1.3636	0.	-37.606
21432	23.821	1.2727	5.e-002	-4.3151
21433	23.91	1.2727	0.	-21.182
21434	23.821	1.5455	0.	-37.563
21435	23.821	1.4545	5.e-002	-4.325
21436	23.91	1.4545	0.	-21.15
21437	23.821	1.7273	0.	-37.514
21438	23.821	1.6364	5.e-002	-4.3345
21439	23.91	1.6364	0.	-21.114
21440	23.821	1.9091	0.	-37.464
21441	23.821	1.8182	5.e-002	-4.3431
21442	23.91	1.8182	0.	-21.077
21443	23.821	2.0909	0.	-37.417
21444	23.821	2.	5.e-002	-4.3506
21445	23.91	2.	0.	-21.042
21446	23.821	2.2727	0.	-37.376
21447	23.821	2.1818	5.e-002	-4.3568
21448	23.91	2.1818	0.	-21.011
21449	23.821	2.4545	0.	-37.343
21450	23.821	2.3636	5.e-002	-4.3616
21451	23.91	2.3636	0.	-20.986
21452	23.821	2.6364	0.	-37.318
21453	23.821	2.5455	5.e-002	-4.3651
21454	23.91	2.5455	0.	-20.966
21455	23.821	2.8182	0.	-37.303
21456	23.821	2.7273	5.e-002	-4.3673
21457	23.91	2.7273	0.	-20.952
21458	23.821	3.	0.	-37.297
21459	23.821	2.9091	5.e-002	-4.3684
21460	23.91	2.9091	0.	-20.945
21461	23.821	3.1818	0.	-37.303
21462	23.821	3.0909	5.e-002	-4.3684
21463	23.91	3.0909	0.	-20.945
21464	23.821	3.3636	0.	-37.318
21465	23.821	3.2727	5.e-002	-4.3673
21466	23.91	3.2727	0.	-20.952
21467	23.821	3.5455	0.	-37.343
21468	23.821	3.4545	5.e-002	-4.3651
21469	23.91	3.4545	0.	-20.966
21470	23.821	3.7273	0.	-37.376
21471	23.821	3.6364	5.e-002	-4.3616
21472	23.91	3.6364	0.	-20.986
21473	23.821	3.9091	0.	-37.417
21474	23.821	3.8182	5.e-002	-4.3568
21475	23.91	3.8182	0.	-21.011
21476	23.821	4.0909	0.	-37.464
21477	23.821	4.	5.e-002	-4.3506
21478	23.91	4.	0.	-21.042
21479	23.821	4.2727	0.	-37.514
21480	23.821	4.1818	5.e-002	-4.3431
21481	23.91	4.1818	0.	-21.077
21482	23.821	4.4545	0.	-37.563
21483	23.821	4.3636	5.e-002	-4.3345
21484	23.91	4.3636	0.	-21.114
21485	23.821	4.6364	0.	-37.606
21486	23.821	4.5455	5.e-002	-4.325
21487	23.91	4.5455	0.	-21.15
21488	23.821	4.8182	0.	-37.633
21489	23.821	4.7273	5.e-002	-4.3151
21490	23.91	4.7273	0.	-21.182
21491	23.821	5.	0.	-37.63
21492	23.821	4.9091	5.e-002	-4.3052
21493	23.91	4.9091	0.	-21.204
21494	23.821	5.1818	0.	-37.569
21495	23.821	5.0909	5.e-002	-4.2951
21496	23.91	5.0909	0.	-21.204
21497	23.821	5.3636	0.	-37.391
21498	23.821	5.2727	5.e-002	-4.2836
21499	23.91	5.2727	0.	-21.163
21500	23.821	5.5455	0.	-37.005
21501	23.821	5.4545	5.e-002	-4.2675
21502	23.91	5.4545	0.	-21.028
21503	23.821	5.7273	0.	-36.182
21504	23.821	5.6364	5.e-002	-4.2108
21505	23.91	5.6364	0.	-20.744
21506	23.821	5.8182	5.e-002	-3.6748
21507	23.91	5.8182	0.	-20.083
21508	23.821	5.9091	0.	-34.445
21509	23.821	5.7273	0.1	-31.384
21510	23.731	5.8182	0.1	-22.199
21511	23.821	5.9091	0.1	-14.651
21512	23.91	5.8182	0.1	-25.761
21513	23.821	5.5455	0.1	-45.522
21514	23.731	5.6364	0.1	-35.917
21515	23.91	5.6364	0.1	-43.246
21516	23.821	5.3636	0.1	-56.119
21517	23.731	5.4545	0.1	-47.29
21518	23.91	5.4545	0.1	-55.861
21519	23.821	5.1818	0.1	-63.937
21520	23.731	5.2727	0.1	-55.919
21521	23.91	5.2727	0.1	-65.123
21522	23.821	5.	0.1	-69.614
21523	23.731	5.0909	0.1	-62.311
21524	23.91	5.0909	0.1	-71.912
21525	23.821	4.8182	0.1	-73.593
21526	23.731	4.9091	0.1	-66.881
21527	23.91	4.9091	0.1	-76.769
21528	23.821	4.6364	0.1	-76.225
21529	23.731	4.7273	0.1	-69.981
21530	23.91	4.7273	0.1	-80.094
21531	23.821	4.4545	0.1	-77.801
21532	23.731	4.5455	0.1	-71.908
21533	23.91	4.5455	0.1	-82.211
21534	23.821	4.2727	0.1	-78.575
21535	23.731	4.3636	0.1	-72.928
21536	23.91	4.3636	0.1	-83.394
21537	23.821	4.0909	0.1	-78.772
21538	23.731	4.1818	0.1	-73.276
21539	23.91	4.1818	0.1	-83.882
21540	23.821	3.9091	0.1	-78.588
21541	23.731	4.	0.1	-73.16
21542	23.91	4.	0.1	-83.888
21543	23.821	3.7273	0.1	-78.194
21544	23.731	3.8182	0.1	-72.766
21545	23.91	3.8182	0.1	-83.596
21546	23.821	3.5455	0.1	-77.734
21547	23.731	3.6364	0.1	-72.252
21548	23.91	3.6364	0.1	-83.166
21549	23.821	3.3636	0.1	-77.322
21550	23.731	3.4545	0.1	-71.749
21551	23.91	3.4545	0.1	-82.727
21552	23.821	3.1818	0.1	-77.041
21553	23.731	3.2727	0.1	-71.357
21554	23.91	3.2727	0.1	-82.378
21555	23.821	3.	0.1	-76.942
21556	23.731	3.0909	0.1	-71.144
21557	23.91	3.0909	0.1	-82.187
21558	23.821	2.8182	0.1	-77.041
21559	23.731	2.9091	0.1	-71.144
21560	23.91	2.9091	0.1	-82.187
21561	23.821	2.6364	0.1	-77.322
21562	23.731	2.7273	0.1	-71.357
21563	23.91	2.7273	0.1	-82.378
21564	23.821	2.4545	0.1	-77.734
21565	23.731	2.5455	0.1	-71.749
21566	23.91	2.5455	0.1	-82.727
21567	23.821	2.2727	0.1	-78.194
21568	23.731	2.3636	0.1	-72.252
21569	23.91	2.3636	0.1	-83.166
21570	23.821	2.0909	0.1	-78.588
21571	23.731	2.1818	0.1	-72.766
21572	23.91	2.1818	0.1	-83.596
21573	23.821	1.9091	0.1	-78.772
21574	23.731	2.	0.1	-73.16
21575	23.91	2.	0.1	-83.888
21576	23.821	1.7273	0.1	-78.575
21577	23.731	1.8182	0.1	-73.276
21578	23.91	1.8182	0.1	-83.882
21579	23.821	1.5455	0.1	-77.801
21580	23.731	1.6364	0.1	-72.928
21581	23.91	1.6364	0.1	-83.394
21582	23.821	1.3636	0.1	-76.225
21583	23.731	1.4545	0.1	-71.908
21584	23.91	1.4545	0.1	-82.211
21585	23.821	1.1818	0.1	-73.593
21586	23.731	1.2727	0.1	-69.98
21587	23.91	1.2727	0.1	-80.094
21588	23.821	1.	0.1	-69.614
21589	23.731	1.0909	0.1	-66.881
21590	23.91	1.0909	0.1	-76.769
21591	23.821	0.81818	0.1	-63.937
21592	23.731	0.90909	0.1	-62.311
21593	23.91	0.90909	0.1	-71.912
21594	23.821	0.63636	0.1	-56.119
21595	23.731	0.72727	0.1	-55.919
21596	23.91	0.72727	0.1	-65.123
21597	23.821	0.45455	0.1	-45.522
21598	23.731	0.54545	0.1	-47.29
21599	23.91	0.54545	0.1	-55.861
21600	23.821	0.27273	0.1	-31.384
21601	23.731	0.36364	0.1	-35.917
21602	23.91	0.36364	0.1	-43.246
21603	23.731	0.18182	0.1	-22.199
21604	23.91	0.18182	0.1	-25.761
21605	23.821	9.0909e-002	0.1	-14.651
21606	23.642	5.7273	0.1	-26.302
21607	23.552	5.8182	0.1	-19.909
21608	23.642	5.9091	0.1	-13.657
21609	23.642	5.5455	0.1	-37.593
21610	23.552	5.6364	0.1	-29.86
21611	23.642	5.3636	0.1	-47.053
21612	23.552	5.4545	0.1	-39.446
21613	23.642	5.1818	0.1	-54.274
21614	23.552	5.2727	0.1	-47.101
21615	23.642	5.	0.1	-59.569
21616	23.552	5.0909	0.1	-52.878
21617	23.642	4.8182	0.1	-63.264
21618	23.552	4.9091	0.1	-57.006
21619	23.642	4.6364	0.1	-65.662
21620	23.552	4.7273	0.1	-59.754
21621	23.642	4.4545	0.1	-67.035
21622	23.552	4.5455	0.1	-61.386
21623	23.642	4.2727	0.1	-67.629
21624	23.552	4.3636	0.1	-62.145
21625	23.642	4.0909	0.1	-67.664
21626	23.552	4.1818	0.1	-62.261
21627	23.642	3.9091	0.1	-67.339
21628	23.552	4.	0.1	-61.941
21629	23.642	3.7273	0.1	-66.824
21630	23.552	3.8182	0.1	-61.372
21631	23.642	3.5455	0.1	-66.267
21632	23.552	3.6364	0.1	-60.713
21633	23.642	3.3636	0.1	-65.784
21634	23.552	3.4545	0.1	-60.098
21635	23.642	3.1818	0.1	-65.46
21636	23.552	3.2727	0.1	-59.63
21637	23.642	3.	0.1	-65.346
21638	23.552	3.0909	0.1	-59.378
21639	23.642	2.8182	0.1	-65.46
21640	23.552	2.9091	0.1	-59.378
21641	23.642	2.6364	0.1	-65.784
21642	23.552	2.7273	0.1	-59.63
21643	23.642	2.4545	0.1	-66.267
21644	23.552	2.5455	0.1	-60.098
21645	23.642	2.2727	0.1	-66.824
21646	23.552	2.3636	0.1	-60.713
21647	23.642	2.0909	0.1	-67.339
21648	23.552	2.1818	0.1	-61.372
21649	23.642	1.9091	0.1	-67.664
21650	23.552	2.	0.1	-61.941
21651	23.642	1.7273	0.1	-67.629
21652	23.552	1.8182	0.1	-62.261
21653	23.642	1.5455	0.1	-67.035
21654	23.552	1.6364	0.1	-62.145
21655	23.642	1.3636	0.1	-65.662
21656	23.552	1.4545	0.1	-61.386
21657	23.642	1.1818	0.1	-63.264
21658	23.552	1.2727	0.1	-59.754
21659	23.642	1.	0.1	-59.569
21660	23.552	1.0909	0.1	-57.006
21661	23.642	0.81818	0.1	-54.274
21662	23.552	0.90909	0.1	-52.878
21663	23.642	0.63636	0.1	-47.053
21664	23.552	0.72727	0.1	-47.101
21665	23.642	0.45455	0.1	-37.593
21666	23.552	0.54545	0.1	-39.446
21667	23.642	0.27273	0.1	-26.302
21668	23.552	0.36364	0.1	-29.86
21669	23.552	0.18182	0.1	-19.909
21670	23.642	9.0909e-002	0.1	-13.657
21671	23.463	5.7273	0.1	-23.021
21672	23.373	5.8182	0.1	-18.446
21673	23.463	5.9091	0.1	-12.767
21674	23.463	5.5455	0.1	-31.588
21675	23.373	5.6364	0.1	-25.521
21676	23.463	5.3636	0.1	-39.44
21677	23.373	5.4545	0.1	-33.139
21678	23.463	5.1818	0.1	-45.675
21679	23.373	5.2727	0.1	-39.508
21680	23.463	5.	0.1	-50.297
21681	23.373	5.0909	0.1	-44.395
21682	23.463	4.8182	0.1	-53.485
21683	23.373	4.9091	0.1	-47.857
21684	23.463	4.6364	0.1	-55.471
21685	23.373	4.7273	0.1	-50.071
21686	23.463	4.4545	0.1	-56.491
21687	23.373	4.5455	0.1	-51.248
21688	23.463	4.2727	0.1	-56.775
21689	23.373	4.3636	0.1	-51.611
21690	23.463	4.0909	0.1	-56.537
21691	23.373	4.1818	0.1	-51.377
21692	23.463	3.9091	0.1	-55.974
21693	23.373	4.	0.1	-50.75
21694	23.463	3.7273	0.1	-55.259
21695	23.373	3.8182	0.1	-49.917
21696	23.463	3.5455	0.1	-54.543
21697	23.373	3.6364	0.1	-49.042
21698	23.463	3.3636	0.1	-53.943
21699	23.373	3.4545	0.1	-48.26
21700	23.463	3.1818	0.1	-53.547
21701	23.373	3.2727	0.1	-47.679
21702	23.463	3.	0.1	-53.409
21703	23.373	3.0909	0.1	-47.37
21704	23.463	2.8182	0.1	-53.547
21705	23.373	2.9091	0.1	-47.37
21706	23.463	2.6364	0.1	-53.943
21707	23.373	2.7273	0.1	-47.679
21708	23.463	2.4545	0.1	-54.543
21709	23.373	2.5455	0.1	-48.26
21710	23.463	2.2727	0.1	-55.259
21711	23.373	2.3636	0.1	-49.042
21712	23.463	2.0909	0.1	-55.974
21713	23.373	2.1818	0.1	-49.917
21714	23.463	1.9091	0.1	-56.537
21715	23.373	2.	0.1	-50.75
21716	23.463	1.7273	0.1	-56.775
21717	23.373	1.8182	0.1	-51.377
21718	23.463	1.5455	0.1	-56.491
21719	23.373	1.6364	0.1	-51.611
21720	23.463	1.3636	0.1	-55.471
21721	23.373	1.4545	0.1	-51.248
21722	23.463	1.1818	0.1	-53.485
21723	23.373	1.2727	0.1	-50.071
21724	23.463	1.	0.1	-50.297
21725	23.373	1.0909	0.1	-47.857
21726	23.463	0.81818	0.1	-45.675
21727	23.373	0.90909	0.1	-44.395
21728	23.463	0.63636	0.1	-39.44
21729	23.373	0.72727	0.1	-39.508
21730	23.463	0.45455	0.1	-31.588
21731	23.373	0.54545	0.1	-33.139
21732	23.463	0.27273	0.1	-23.021
21733	23.373	0.36364	0.1	-25.521
21734	23.373	0.18182	0.1	-18.446
21735	23.463	9.0909e-002	0.1	-12.767
21736	23.284	5.7273	0.1	-20.553
21737	23.194	5.8182	0.1	-17.215
21738	23.284	5.9091	0.1	-12.011
21739	23.284	5.5455	0.1	-26.934
21740	23.194	5.6364	0.1	-22.186
21741	23.284	5.3636	0.1	-33.138
21742	23.194	5.4545	0.1	-28.015
21743	23.284	5.1818	0.1	-38.189
21744	23.194	5.2727	0.1	-33.008
21745	23.284	5.	0.1	-41.931
21746	23.194	5.0909	0.1	-36.84
21747	23.284	4.8182	0.1	-44.428
21748	23.194	4.9091	0.1	-39.466
21749	23.284	4.6364	0.1	-45.839
21750	23.194	4.7273	0.1	-40.984
21751	23.284	4.4545	0.1	-46.363
21752	23.194	4.5455	0.1	-41.561
21753	23.284	4.2727	0.1	-46.21
21754	23.194	4.3636	0.1	-41.396
21755	23.284	4.0909	0.1	-45.589
21756	23.194	4.1818	0.1	-40.694
21757	23.284	3.9091	0.1	-44.693
21758	23.194	4.	0.1	-39.656
21759	23.284	3.7273	0.1	-43.699
21760	23.194	3.8182	0.1	-38.471
21761	23.284	3.5455	0.1	-42.759
21762	23.194	3.6364	0.1	-37.307
21763	23.284	3.3636	0.1	-41.996
21764	23.194	3.4545	0.1	-36.303
21765	23.284	3.1818	0.1	-41.502
21766	23.194	3.2727	0.1	-35.572
21767	23.284	3.	0.1	-41.33
21768	23.194	3.0909	0.1	-35.187
21769	23.284	2.8182	0.1	-41.502
21770	23.194	2.9091	0.1	-35.187
21771	23.284	2.6364	0.1	-41.996
21772	23.194	2.7273	0.1	-35.572
21773	23.284	2.4545	0.1	-42.759
21774	23.194	2.5455	0.1	-36.303
21775	23.284	2.2727	0.1	-43.699
21776	23.194	2.3636	0.1	-37.307
21777	23.284	2.0909	0.1	-44.693
21778	23.194	2.1818	0.1	-38.471
21779	23.284	1.9091	0.1	-45.589
21780	23.194	2.	0.1	-39.656
21781	23.284	1.7273	0.1	-46.21
21782	23.194	1.8182	0.1	-40.694
21783	23.284	1.5455	0.1	-46.363
21784	23.194	1.6364	0.1	-41.396
21785	23.284	1.3636	0.1	-45.839
21786	23.194	1.4545	0.1	-41.561
21787	23.284	1.1818	0.1	-44.428
21788	23.194	1.2727	0.1	-40.984
21789	23.284	1.	0.1	-41.931
21790	23.194	1.0909	0.1	-39.466
21791	23.284	0.81818	0.1	-38.189
21792	23.194	0.90909	0.1	-36.84
21793	23.284	0.63636	0.1	-33.138
21794	23.194	0.72727	0.1	-33.008
21795	23.284	0.45455	0.1	-26.934
21796	23.194	0.54545	0.1	-28.015
21797	23.284	0.27273	0.1	-20.553
21798	23.194	0.36364	0.1	-22.186
21799	23.194	0.18182	0.1	-17.215
21800	23.284	9.0909e-002	0.1	-12.011
21801	23.105	5.7273	0.1	-18.511
21802	23.015	5.8182	0.1	-16.104
21803	23.105	5.9091	0.1	-11.289
21804	23.105	5.5455	0.1	-23.133
21805	23.015	5.6364	0.1	-19.462
21806	23.105	5.3636	0.1	-27.809
21807	23.015	5.4545	0.1	-23.742
21808	23.105	5.1818	0.1	-31.614
21809	23.015	5.2727	0.1	-27.39
21810	23.105	5.	0.1	-34.346
21811	23.015	5.0909	0.1	-30.09
21812	23.105	4.8182	0.1	-36.003
21813	23.015	4.9091	0.1	-31.756
21814	23.105	4.6364	0.1	-36.694
21815	23.015	4.7273	0.1	-32.444
21816	23.105	4.4545	0.1	-36.587
21817	23.015	4.5455	0.1	-32.288
21818	23.105	4.2727	0.1	-35.875
21819	23.015	4.3636	0.1	-31.467
21820	23.105	4.0909	0.1	-34.758
21821	23.015	4.1818	0.1	-30.18
21822	23.105	3.9091	0.1	-33.433
21823	23.015	4.	0.1	-28.628
21824	23.105	3.7273	0.1	-32.078
21825	23.015	3.8182	0.1	-27.002
21826	23.105	3.5455	0.1	-30.851
21827	23.015	3.6364	0.1	-25.475
21828	23.105	3.3636	0.1	-29.879
21829	23.015	3.4545	0.1	-24.195
21830	23.105	3.1818	0.1	-29.257
21831	23.015	3.2727	0.1	-23.275
21832	23.105	3.	0.1	-29.043
21833	23.015	3.0909	0.1	-22.795
21834	23.105	2.8182	0.1	-29.257
21835	23.015	2.9091	0.1	-22.795
21836	23.105	2.6364	0.1	-29.879
21837	23.015	2.7273	0.1	-23.275
21838	23.105	2.4545	0.1	-30.851
21839	23.015	2.5455	0.1	-24.195
21840	23.105	2.2727	0.1	-32.078
21841	23.015	2.3636	0.1	-25.475
21842	23.105	2.0909	0.1	-33.433
21843	23.015	2.1818	0.1	-27.002
21844	23.105	1.9091	0.1	-34.758
21845	23.015	2.	0.1	-28.628
21846	23.105	1.7273	0.1	-35.875
21847	23.015	1.8182	0.1	-30.18
21848	23.105	1.5455	0.1	-36.587
21849	23.015	1.6364	0.1	-31.467
21850	23.105	1.3636	0.1	-36.694
21851	23.015	1.4545	0.1	-32.288
21852	23.105	1.1818	0.1	-36.003
21853	23.015	1.2727	0.1	-32.444
21854	23.105	1.	0.1	-34.346
21855	23.015	1.0909	0.1	-31.756
21856	23.105	0.81818	0.1	-31.614
21857	23.015	0.90909	0.1	-30.09
21858	23.105	0.63636	0.1	-27.809
21859	23.015	0.72727	0.1	-27.39
21860	23.105	0.45455	0.1	-23.133
21861	23.015	0.54545	0.1	-23.742
21862	23.105	0.27273	0.1	-18.511
21863	23.015	0.36364	0.1	-19.462
21864	23.015	0.18182	0.1	-16.104
21865	23.105	9.0909e-002	0.1	-11.289
21866	22.926	5.7273	0.1	-16.764
21867	22.836	5.8182	0.1	-15.095
21868	22.926	5.9091	0.1	-10.615
21869	22.926	5.5455	0.1	-19.947
21870	22.836	5.6364	0.1	-17.175
21871	22.926	5.3636	0.1	-23.245
21872	22.836	5.4545	0.1	-20.119
21873	22.926	5.1818	0.1	-25.816
21874	22.836	5.2727	0.1	-22.497
21875	22.926	5.	0.1	-27.467
21876	22.836	5.0909	0.1	-24.042
21877	22.926	4.8182	0.1	-28.175
21878	22.836	4.9091	0.1	-24.668
21879	22.926	4.6364	0.1	-28.023
21880	22.836	4.7273	0.1	-24.415
21881	22.926	4.4545	0.1	-27.158
21882	22.836	4.5455	0.1	-23.406
21883	22.926	4.2727	0.1	-25.767
21884	22.836	4.3636	0.1	-21.811
21885	22.926	4.0909	0.1	-24.046
21886	22.836	4.1818	0.1	-19.826
21887	22.926	3.9091	0.1	-22.195
21888	22.836	4.	0.1	-17.657
21889	22.926	3.7273	0.1	-20.398
21890	22.836	3.8182	0.1	-15.502
21891	22.926	3.5455	0.1	-18.819
21892	22.836	3.6364	0.1	-13.54
21893	22.926	3.3636	0.1	-17.59
21894	22.836	3.4545	0.1	-11.926
21895	22.926	3.1818	0.1	-16.812
21896	22.836	3.2727	0.1	-10.78
21897	22.926	3.	0.1	-16.546
21898	22.836	3.0909	0.1	-10.186
21899	22.926	2.8182	0.1	-16.812
21900	22.836	2.9091	0.1	-10.186
21901	22.926	2.6364	0.1	-17.59
21902	22.836	2.7273	0.1	-10.78
21903	22.926	2.4545	0.1	-18.819
21904	22.836	2.5455	0.1	-11.926
21905	22.926	2.2727	0.1	-20.398
21906	22.836	2.3636	0.1	-13.54
21907	22.926	2.0909	0.1	-22.195
21908	22.836	2.1818	0.1	-15.502
21909	22.926	1.9091	0.1	-24.046
21910	22.836	2.	0.1	-17.657
21911	22.926	1.7273	0.1	-25.767
21912	22.836	1.8182	0.1	-19.826
21913	22.926	1.5455	0.1	-27.158
21914	22.836	1.6364	0.1	-21.811
21915	22.926	1.3636	0.1	-28.023
21916	22.836	1.4545	0.1	-23.406
21917	22.926	1.1818	0.1	-28.175
21918	22.836	1.2727	0.1	-24.415
21919	22.926	1.	0.1	-27.467
21920	22.836	1.0909	0.1	-24.668
21921	22.926	0.81818	0.1	-25.816
21922	22.836	0.90909	0.1	-24.042
21923	22.926	0.63636	0.1	-23.245
21924	22.836	0.72727	0.1	-22.497
21925	22.926	0.45455	0.1	-19.947
21926	22.836	0.54545	0.1	-20.119
21927	22.926	0.27273	0.1	-16.764
21928	22.836	0.36364	0.1	-17.175
21929	22.836	0.18182	0.1	-15.095
21930	22.926	9.0909e-002	0.1	-10.615
21931	22.747	5.7273	0.1	-15.252
21932	22.657	5.8182	0.1	-14.194
21933	22.747	5.9091	0.1	-9.9938
21934	22.747	5.5455	0.1	-17.235
21935	22.657	5.6364	0.1	-15.24
21936	22.747	5.3636	0.1	-19.295
21937	22.657	5.4545	0.1	-17.02
21938	22.747	5.1818	0.1	-20.671
21939	22.657	5.2727	0.1	-18.212
21940	22.747	5.	0.1	-21.207
21941	22.657	5.0909	0.1	-18.603
21942	22.747	4.8182	0.1	-20.884
21943	22.657	4.9091	0.1	-18.134
21944	22.747	4.6364	0.1	-19.783
21945	22.657	4.7273	0.1	-16.853
21946	22.747	4.4545	0.1	-18.048
21947	22.657	4.5455	0.1	-14.885
21948	22.747	4.2727	0.1	-15.864
21949	22.657	4.3636	0.1	-12.404
21950	22.747	4.0909	0.1	-13.434
21951	22.657	4.1818	0.1	-9.6149
21952	22.747	3.9091	0.1	-10.963
21953	22.657	4.	0.1	-6.7329
21954	22.747	3.7273	0.1	-8.6442
21955	22.657	3.8182	0.1	-3.9686
21956	22.747	3.5455	0.1	-6.6485
21957	22.657	3.6364	0.1	-1.5253
21958	22.747	3.3636	0.1	-5.1165
21959	22.657	3.4545	0.1	-0.13995
21960	22.747	3.1818	0.1	-4.1531
21961	22.657	3.2727	0.1	-8.7321e-002
21962	22.747	3.	0.1	-3.8243
21963	22.657	3.0909	0.1	-8.0549e-002
21964	22.747	2.8182	0.1	-4.1531
21965	22.657	2.9091	0.1	-8.0548e-002
21966	22.747	2.6364	0.1	-5.1165
21967	22.657	2.7273	0.1	-8.732e-002
21968	22.747	2.4545	0.1	-6.6485
21969	22.657	2.5455	0.1	-0.13996
21970	22.747	2.2727	0.1	-8.6442
21971	22.657	2.3636	0.1	-1.5253
21972	22.747	2.0909	0.1	-10.963
21973	22.657	2.1818	0.1	-3.9687
21974	22.747	1.9091	0.1	-13.434
21975	22.657	2.	0.1	-6.733
21976	22.747	1.7273	0.1	-15.864
21977	22.657	1.8182	0.1	-9.6149
21978	22.747	1.5455	0.1	-18.048
21979	22.657	1.6364	0.1	-12.404
21980	22.747	1.3636	0.1	-19.783
21981	22.657	1.4545	0.1	-14.885
21982	22.747	1.1818	0.1	-20.884
21983	22.657	1.2727	0.1	-16.853
21984	22.747	1.	0.1	-21.207
21985	22.657	1.0909	0.1	-18.134
21986	22.747	0.81818	0.1	-20.671
21987	22.657	0.90909	0.1	-18.603
21988	22.747	0.63636	0.1	-19.295
21989	22.657	0.72727	0.1	-18.212
21990	22.747	0.45455	0.1	-17.235
21991	22.657	0.54545	0.1	-17.02
21992	22.747	0.27273	0.1	-15.252
21993	22.657	0.36364	0.1	-15.24
21994	22.657	0.18182	0.1	-14.194
21995	22.747	9.0909e-002	0.1	-9.9938
21996	22.568	5.7273	0.1	-13.957
21997	22.478	5.8182	0.1	-13.419
21998	22.568	5.9091	0.1	-9.4383
21999	22.568	5.5455	0.1	-14.925
22000	22.478	5.6364	0.1	-13.618
22001	22.568	5.3636	0.1	-15.865
22002	22.478	5.4545	0.1	-14.375
22003	22.568	5.1818	0.1	-16.092
22004	22.478	5.2727	0.1	-14.456
22005	22.568	5.	0.1	-15.494
22006	22.478	5.0909	0.1	-13.705
22007	22.568	4.8182	0.1	-14.078
22008	22.478	4.9091	0.1	-12.101
22009	22.568	4.6364	0.1	-11.939
22010	22.478	4.7273	0.1	-9.7178
22011	22.568	4.4545	0.1	-9.2315
22012	22.478	4.5455	0.1	-6.6993
22013	22.568	4.2727	0.1	-6.1543
22014	22.478	4.3636	0.1	-3.253
22015	22.568	4.0909	0.1	-2.9354
22016	22.478	4.1818	0.1	-0.28779
22017	22.568	3.9091	0.1	-0.2859
22018	22.478	4.	0.1	-0.10669
22019	22.568	3.7273	0.1	-0.10288
22020	22.478	3.8182	0.1	-8.8026e-002
22021	22.568	3.5455	0.1	-8.5971e-002
22022	22.478	3.6364	0.1	-8.1182e-002
22023	22.568	3.3636	0.1	-8.0176e-002
22024	22.478	3.4545	0.1	-7.7825e-002
22025	22.568	3.1818	0.1	-7.7735e-002
22026	22.478	3.2727	0.1	-7.6083e-002
22027	22.568	3.	0.1	-7.7035e-002
22028	22.478	3.0909	0.1	-7.5324e-002
22029	22.568	2.8182	0.1	-7.7734e-002
22030	22.478	2.9091	0.1	-7.5324e-002
22031	22.568	2.6364	0.1	-8.0177e-002
22032	22.478	2.7273	0.1	-7.6083e-002
22033	22.568	2.4545	0.1	-8.5973e-002
22034	22.478	2.5455	0.1	-7.7826e-002
22035	22.568	2.2727	0.1	-0.10288
22036	22.478	2.3636	0.1	-8.1182e-002
22037	22.568	2.0909	0.1	-0.28591
22038	22.478	2.1818	0.1	-8.8026e-002
22039	22.568	1.9091	0.1	-2.9354
22040	22.478	2.	0.1	-0.10669
22041	22.568	1.7273	0.1	-6.1543
22042	22.478	1.8182	0.1	-0.28779
22043	22.568	1.5455	0.1	-9.2315
22044	22.478	1.6364	0.1	-3.253
22045	22.568	1.3636	0.1	-11.939
22046	22.478	1.4545	0.1	-6.6993
22047	22.568	1.1818	0.1	-14.078
22048	22.478	1.2727	0.1	-9.7178
22049	22.568	1.	0.1	-15.494
22050	22.478	1.0909	0.1	-12.101
22051	22.568	0.81818	0.1	-16.092
22052	22.478	0.90909	0.1	-13.705
22053	22.568	0.63636	0.1	-15.865
22054	22.478	0.72727	0.1	-14.456
22055	22.568	0.45455	0.1	-14.925
22056	22.478	0.54545	0.1	-14.375
22057	22.568	0.27273	0.1	-13.957
22058	22.478	0.36364	0.1	-13.618
22059	22.478	0.18182	0.1	-13.419
22060	22.568	9.0909e-002	0.1	-9.4383
22061	22.389	5.7273	0.1	-12.877
22062	22.299	5.8182	0.1	-12.789
22063	22.389	5.9091	0.1	-8.9608
22064	22.389	5.5455	0.1	-12.977
22065	22.299	5.6364	0.1	-12.295
22066	22.389	5.3636	0.1	-12.898
22067	22.299	5.4545	0.1	-12.144
22068	22.389	5.1818	0.1	-12.017
22069	22.299	5.2727	0.1	-11.178
22070	22.389	5.	0.1	-10.275
22071	22.299	5.0909	0.1	-9.2975
22072	22.389	4.8182	0.1	-7.716
22073	22.299	4.9091	0.1	-6.5295
22074	22.389	4.6364	0.1	-4.4696
22075	22.299	4.7273	0.1	-3.0038
22076	22.389	4.4545	0.1	-0.87385
22077	22.299	4.5455	0.1	-0.20551
22078	22.389	4.2727	0.1	-0.11977
22079	22.299	4.3636	0.1	-0.10136
22080	22.389	4.0909	0.1	-9.1228e-002
22081	22.299	4.1818	0.1	-8.6187e-002
22082	22.389	3.9091	0.1	-8.2441e-002
22083	22.299	4.	0.1	-8.0133e-002
22084	22.389	3.7273	0.1	-7.8215e-002
22085	22.299	3.8182	0.1	-7.6927e-002
22086	22.389	3.5455	0.1	-7.5853e-002
22087	22.299	3.6364	0.1	-7.5063e-002
22088	22.389	3.3636	0.1	-7.4502e-002
22089	22.299	3.4545	0.1	-7.3982e-002
22090	22.389	3.1818	0.1	-7.3802e-002
22091	22.299	3.2727	0.1	-7.3399e-002
22092	22.389	3.	0.1	-7.3586e-002
22093	22.299	3.0909	0.1	-7.3148e-002
22094	22.389	2.8182	0.1	-7.3803e-002
22095	22.299	2.9091	0.1	-7.3148e-002
22096	22.389	2.6364	0.1	-7.4503e-002
22097	22.299	2.7273	0.1	-7.3399e-002
22098	22.389	2.4545	0.1	-7.5852e-002
22099	22.299	2.5455	0.1	-7.3983e-002
22100	22.389	2.2727	0.1	-7.8214e-002
22101	22.299	2.3636	0.1	-7.5063e-002
22102	22.389	2.0909	0.1	-8.2441e-002
22103	22.299	2.1818	0.1	-7.6927e-002
22104	22.389	1.9091	0.1	-9.1227e-002
22105	22.299	2.	0.1	-8.0133e-002
22106	22.389	1.7273	0.1	-0.11976
22107	22.299	1.8182	0.1	-8.6186e-002
22108	22.389	1.5455	0.1	-0.87384
22109	22.299	1.6364	0.1	-0.10136
22110	22.389	1.3636	0.1	-4.4695
22111	22.299	1.4545	0.1	-0.20551
22112	22.389	1.1818	0.1	-7.716
22113	22.299	1.2727	0.1	-3.0037
22114	22.389	1.	0.1	-10.275
22115	22.299	1.0909	0.1	-6.5295
22116	22.389	0.81818	0.1	-12.017
22117	22.299	0.90909	0.1	-9.2974
22118	22.389	0.63636	0.1	-12.898
22119	22.299	0.72727	0.1	-11.178
22120	22.389	0.45455	0.1	-12.977
22121	22.299	0.54545	0.1	-12.144
22122	22.389	0.27273	0.1	-12.877
22123	22.299	0.36364	0.1	-12.295
22124	22.299	0.18182	0.1	-12.789
22125	22.389	9.0909e-002	0.1	-8.9609
22126	22.21	5.7273	0.1	-12.023
22127	22.12	5.8182	0.1	-12.327
22128	22.21	5.9091	0.1	-8.575
22129	22.21	5.5455	0.1	-11.38
22130	22.12	5.6364	0.1	-11.273
22131	22.21	5.3636	0.1	-10.362
22132	22.12	5.4545	0.1	-10.313
22133	22.21	5.1818	0.1	-8.4099
22134	22.12	5.2727	0.1	-8.3535
22135	22.21	5.	0.1	-5.5176
22136	22.12	5.0909	0.1	-5.3567
22137	22.21	4.8182	0.1	-1.8267
22138	22.12	4.9091	0.1	-1.48
22139	22.21	4.6364	0.1	-0.13355
22140	22.12	4.7273	0.1	-0.12384
22141	22.21	4.4545	0.1	-9.2098e-002
22142	22.12	4.5455	0.1	-9.0242e-002
22143	22.21	4.2727	0.1	-8.234e-002
22144	22.12	4.3636	0.1	-8.1577e-002
22145	22.21	4.0909	0.1	-7.7966e-002
22146	22.12	4.1818	0.1	-7.762e-002
22147	22.21	3.9091	0.1	-7.5526e-002
22148	22.12	4.	0.1	-7.5425e-002
22149	22.21	3.7273	0.1	-7.4088e-002
22150	22.12	3.8182	0.1	-7.4192e-002
22151	22.21	3.5455	0.1	-7.3272e-002
22152	22.12	3.6364	0.1	-7.3588e-002
22153	22.21	3.3636	0.1	-7.2855e-002
22154	22.12	3.4545	0.1	-7.3387e-002
22155	22.21	3.1818	0.1	-7.2676e-002
22156	22.12	3.2727	0.1	-7.339e-002
22157	22.21	3.	0.1	-7.2629e-002
22158	22.12	3.0909	0.1	-7.3438e-002
22159	22.21	2.8182	0.1	-7.2676e-002
22160	22.12	2.9091	0.1	-7.3438e-002
22161	22.21	2.6364	0.1	-7.2856e-002
22162	22.12	2.7273	0.1	-7.339e-002
22163	22.21	2.4545	0.1	-7.3273e-002
22164	22.12	2.5455	0.1	-7.3387e-002
22165	22.21	2.2727	0.1	-7.4088e-002
22166	22.12	2.3636	0.1	-7.3589e-002
22167	22.21	2.0909	0.1	-7.5526e-002
22168	22.12	2.1818	0.1	-7.4192e-002
22169	22.21	1.9091	0.1	-7.7966e-002
22170	22.12	2.	0.1	-7.5425e-002
22171	22.21	1.7273	0.1	-8.2341e-002
22172	22.12	1.8182	0.1	-7.762e-002
22173	22.21	1.5455	0.1	-9.2098e-002
22174	22.12	1.6364	0.1	-8.1578e-002
22175	22.21	1.3636	0.1	-0.13355
22176	22.12	1.4545	0.1	-9.0242e-002
22177	22.21	1.1818	0.1	-1.8267
22178	22.12	1.2727	0.1	-0.12384
22179	22.21	1.	0.1	-5.5175
22180	22.12	1.0909	0.1	-1.48
22181	22.21	0.81818	0.1	-8.4098
22182	22.12	0.90909	0.1	-5.3566
22183	22.21	0.63636	0.1	-10.362
22184	22.12	0.72727	0.1	-8.3535
22185	22.21	0.45455	0.1	-11.38
22186	22.12	0.54545	0.1	-10.313
22187	22.21	0.27273	0.1	-12.023
22188	22.12	0.36364	0.1	-11.273
22189	22.12	0.18182	0.1	-12.327
22190	22.21	9.0909e-002	0.1	-8.575
22191	22.031	5.7273	0.1	-11.411
22192	21.941	5.8182	0.1	-12.059
22193	22.031	5.9091	0.1	-8.2946
22194	22.031	5.5455	0.1	-10.133
22195	21.941	5.6364	0.1	-10.563
22196	22.031	5.3636	0.1	-8.2465
22197	21.941	5.4545	0.1	-8.8775
22198	22.031	5.1818	0.1	-5.2547
22199	21.941	5.2727	0.1	-5.9734
22200	22.031	5.	0.1	-1.303
22201	21.941	5.0909	0.1	-1.9266
22202	22.031	4.8182	0.1	-0.11705
22203	21.941	4.9091	0.1	-0.13283
22204	22.031	4.6364	0.1	-8.7914e-002
22205	21.941	4.7273	0.1	-9.1531e-002
22206	22.031	4.4545	0.1	-8.0293e-002
22207	21.941	4.5455	0.1	-8.2101e-002
22208	22.031	4.2727	0.1	-7.6838e-002
22209	21.941	4.3636	0.1	-7.8058e-002
22210	22.031	4.0909	0.1	-7.4943e-002
22211	21.941	4.1818	0.1	-7.5913e-002
22212	22.031	3.9091	0.1	-7.3928e-002
22213	21.941	4.	0.1	-7.4828e-002
22214	22.031	3.7273	0.1	-7.3525e-002
22215	21.941	3.8182	0.1	-7.4507e-002
22216	22.031	3.5455	0.1	-7.3536e-002
22217	21.941	3.6364	0.1	-7.4745e-002
22218	22.031	3.3636	0.1	-7.3757e-002
22219	21.941	3.4545	0.1	-7.5293e-002
22220	22.031	3.1818	0.1	-7.399e-002
22221	21.941	3.2727	0.1	-7.5873e-002
22222	22.031	3.	0.1	-7.4085e-002
22223	21.941	3.0909	0.1	-7.6238e-002
22224	22.031	2.8182	0.1	-7.399e-002
22225	21.941	2.9091	0.1	-7.6238e-002
22226	22.031	2.6364	0.1	-7.3757e-002
22227	21.941	2.7273	0.1	-7.5874e-002
22228	22.031	2.4545	0.1	-7.3536e-002
22229	21.941	2.5455	0.1	-7.5293e-002
22230	22.031	2.2727	0.1	-7.3525e-002
22231	21.941	2.3636	0.1	-7.4746e-002
22232	22.031	2.0909	0.1	-7.3928e-002
22233	21.941	2.1818	0.1	-7.4507e-002
22234	22.031	1.9091	0.1	-7.4943e-002
22235	21.941	2.	0.1	-7.4828e-002
22236	22.031	1.7273	0.1	-7.6838e-002
22237	21.941	1.8182	0.1	-7.5913e-002
22238	22.031	1.5455	0.1	-8.0293e-002
22239	21.941	1.6364	0.1	-7.8058e-002
22240	22.031	1.3636	0.1	-8.7914e-002
22241	21.941	1.4545	0.1	-8.2101e-002
22242	22.031	1.1818	0.1	-0.11705
22243	21.941	1.2727	0.1	-9.153e-002
22244	22.031	1.	0.1	-1.303
22245	21.941	1.0909	0.1	-0.13283
22246	22.031	0.81818	0.1	-5.2547
22247	21.941	0.90909	0.1	-1.9266
22248	22.031	0.63636	0.1	-8.2465
22249	21.941	0.72727	0.1	-5.9733
22250	22.031	0.45455	0.1	-10.133
22251	21.941	0.54545	0.1	-8.8775
22252	22.031	0.27273	0.1	-11.411
22253	21.941	0.36364	0.1	-10.563
22254	21.941	0.18182	0.1	-12.059
22255	22.031	9.0909e-002	0.1	-8.2946
22256	21.852	5.7273	0.1	-11.061
22257	21.762	5.8182	0.1	-12.008
22258	21.852	5.9091	0.1	-8.134
22259	21.852	5.5455	0.1	-9.2429
22260	21.762	5.6364	0.1	-10.176
22261	21.852	5.3636	0.1	-6.5514
22262	21.762	5.4545	0.1	-7.8439
22263	21.852	5.1818	0.1	-2.5781
22264	21.762	5.2727	0.1	-4.0486
22265	21.852	5.	0.1	-0.1529
22266	21.762	5.0909	0.1	-0.27523
22267	21.852	4.8182	0.1	-9.4316e-002
22268	21.762	4.9091	0.1	-0.10794
22269	21.852	4.6364	0.1	-8.3195e-002
22270	21.762	4.7273	0.1	-8.9049e-002
22271	21.852	4.4545	0.1	-7.8734e-002
22272	21.762	4.5455	0.1	-8.2294e-002
22273	21.852	4.2727	0.1	-7.6441e-002
22274	21.762	4.3636	0.1	-7.8954e-002
22275	21.852	4.0909	0.1	-7.5302e-002
22276	21.762	4.1818	0.1	-7.7243e-002
22277	21.852	3.9091	0.1	-7.5017e-002
22278	21.762	4.	0.1	-7.6698e-002
22279	21.852	3.7273	0.1	-7.5401e-002
22280	21.762	3.8182	0.1	-7.7117e-002
22281	21.852	3.5455	0.1	-7.6217e-002
22282	21.762	3.6364	0.1	-7.8248e-002
22283	21.852	3.3636	0.1	-7.7151e-002
22284	21.762	3.4545	0.1	-7.9711e-002
22285	21.852	3.1818	0.1	-7.7878e-002
22286	21.762	3.2727	0.1	-8.1047e-002
22287	21.852	3.	0.1	-7.8152e-002
22288	21.762	3.0909	0.1	-8.184e-002
22289	21.852	2.8182	0.1	-7.7878e-002
22290	21.762	2.9091	0.1	-8.1839e-002
22291	21.852	2.6364	0.1	-7.7151e-002
22292	21.762	2.7273	0.1	-8.1047e-002
22293	21.852	2.4545	0.1	-7.6217e-002
22294	21.762	2.5455	0.1	-7.9711e-002
22295	21.852	2.2727	0.1	-7.5401e-002
22296	21.762	2.3636	0.1	-7.8248e-002
22297	21.852	2.0909	0.1	-7.5016e-002
22298	21.762	2.1818	0.1	-7.7117e-002
22299	21.852	1.9091	0.1	-7.5302e-002
22300	21.762	2.	0.1	-7.6698e-002
22301	21.852	1.7273	0.1	-7.6441e-002
22302	21.762	1.8182	0.1	-7.7243e-002
22303	21.852	1.5455	0.1	-7.8734e-002
22304	21.762	1.6364	0.1	-7.8954e-002
22305	21.852	1.3636	0.1	-8.3196e-002
22306	21.762	1.4545	0.1	-8.2295e-002
22307	21.852	1.1818	0.1	-9.4315e-002
22308	21.762	1.2727	0.1	-8.9049e-002
22309	21.852	1.	0.1	-0.1529
22310	21.762	1.0909	0.1	-0.10794
22311	21.852	0.81818	0.1	-2.5781
22312	21.762	0.90909	0.1	-0.27523
22313	21.852	0.63636	0.1	-6.5514
22314	21.762	0.72727	0.1	-4.0486
22315	21.852	0.45455	0.1	-9.2429
22316	21.762	0.54545	0.1	-7.8439
22317	21.852	0.27273	0.1	-11.061
22318	21.762	0.36364	0.1	-10.176
22319	21.762	0.18182	0.1	-12.008
22320	21.852	9.0909e-002	0.1	-8.1341
22321	21.673	5.7273	0.1	-10.991
22322	21.583	5.8182	0.1	-12.197
22323	21.673	5.9091	0.1	-8.1068
22324	21.673	5.5455	0.1	-8.7211
22325	21.583	5.6364	0.1	-10.126
22326	21.673	5.3636	0.1	-5.2863
22327	21.583	5.4545	0.1	-7.2186
22328	21.673	5.1818	0.1	-0.73123
22329	21.583	5.2727	0.1	-2.6226
22330	21.673	5.	0.1	-0.12513
22331	21.583	5.0909	0.1	-0.1876
22332	21.673	4.8182	0.1	-9.48e-002
22333	21.583	4.9091	0.1	-0.11104
22334	21.673	4.6364	0.1	-8.5491e-002
22335	21.583	4.7273	0.1	-9.3911e-002
22336	21.673	4.4545	0.1	-8.1112e-002
22337	21.583	4.5455	0.1	-8.6564e-002
22338	21.673	4.2727	0.1	-7.8838e-002
22339	21.583	4.3636	0.1	-8.2706e-002
22340	21.673	4.0909	0.1	-7.796e-002
22341	21.583	4.1818	0.1	-8.086e-002
22342	21.673	3.9091	0.1	-7.8259e-002
22343	21.583	4.	0.1	-8.0654e-002
22344	21.673	3.7273	0.1	-7.9515e-002
22345	21.583	3.8182	0.1	-8.1886e-002
22346	21.673	3.5455	0.1	-8.1356e-002
22347	21.583	3.6364	0.1	-8.4185e-002
22348	21.673	3.3636	0.1	-8.3263e-002
22349	21.583	3.4545	0.1	-8.693e-002
22350	21.673	3.1818	0.1	-8.469e-002
22351	21.583	3.2727	0.1	-8.9364e-002
22352	21.673	3.	0.1	-8.5217e-002
22353	21.583	3.0909	0.1	-9.0789e-002
22354	21.673	2.8182	0.1	-8.469e-002
22355	21.583	2.9091	0.1	-9.0789e-002
22356	21.673	2.6364	0.1	-8.3264e-002
22357	21.583	2.7273	0.1	-8.9365e-002
22358	21.673	2.4545	0.1	-8.1356e-002
22359	21.583	2.5455	0.1	-8.6931e-002
22360	21.673	2.2727	0.1	-7.9515e-002
22361	21.583	2.3636	0.1	-8.4184e-002
22362	21.673	2.0909	0.1	-7.8259e-002
22363	21.583	2.1818	0.1	-8.1886e-002
22364	21.673	1.9091	0.1	-7.7961e-002
22365	21.583	2.	0.1	-8.0655e-002
22366	21.673	1.7273	0.1	-7.8838e-002
22367	21.583	1.8182	0.1	-8.086e-002
22368	21.673	1.5455	0.1	-8.1114e-002
22369	21.583	1.6364	0.1	-8.2706e-002
22370	21.673	1.3636	0.1	-8.5492e-002
22371	21.583	1.4545	0.1	-8.6565e-002
22372	21.673	1.1818	0.1	-9.48e-002
22373	21.583	1.2727	0.1	-9.3911e-002
22374	21.673	1.	0.1	-0.12514
22375	21.583	1.0909	0.1	-0.11104
22376	21.673	0.81818	0.1	-0.73121
22377	21.583	0.90909	0.1	-0.1876
22378	21.673	0.63636	0.1	-5.2863
22379	21.583	0.72727	0.1	-2.6225
22380	21.673	0.45455	0.1	-8.7211
22381	21.583	0.54545	0.1	-7.2186
22382	21.673	0.27273	0.1	-10.991
22383	21.583	0.36364	0.1	-10.126
22384	21.583	0.18182	0.1	-12.197
22385	21.673	9.0909e-002	0.1	-8.1068
22386	21.494	5.7273	0.1	-11.217
22387	21.404	5.8182	0.1	-12.645
22388	21.494	5.9091	0.1	-8.2249
22389	21.494	5.5455	0.1	-8.5752
22390	21.404	5.6364	0.1	-10.416
22391	21.494	5.3636	0.1	-4.4653
22392	21.404	5.4545	0.1	-7.0038
22393	21.494	5.1818	0.1	-0.35292
22394	21.404	5.2727	0.1	-1.7789
22395	21.494	5.	0.1	-0.13231
22396	21.404	5.0909	0.1	-0.19616
22397	21.494	4.8182	0.1	-0.10307
22398	21.404	4.9091	0.1	-0.12465
22399	21.494	4.6364	0.1	-9.2099e-002
22400	21.404	4.7273	0.1	-0.10409
22401	21.494	4.4545	0.1	-8.6501e-002
22402	21.404	4.5455	0.1	-9.4395e-002
22403	21.494	4.2727	0.1	-8.3587e-002
22404	21.404	4.3636	0.1	-8.9108e-002
22405	21.494	4.0909	0.1	-8.2684e-002
22406	21.404	4.1818	0.1	-8.6641e-002
22407	21.494	3.9091	0.1	-8.3581e-002
22408	21.404	4.	0.1	-8.6645e-002
22409	21.494	3.7273	0.1	-8.5975e-002
22410	21.404	3.8182	0.1	-8.8894e-002
22411	21.494	3.5455	0.1	-8.9268e-002
22412	21.404	3.6364	0.1	-9.2831e-002
22413	21.494	3.3636	0.1	-9.2605e-002
22414	21.404	3.4545	0.1	-9.7464e-002
22415	21.494	3.1818	0.1	-9.5076e-002
22416	21.404	3.2727	0.1	-0.10154
22417	21.494	3.	0.1	-9.5986e-002
22418	21.404	3.0909	0.1	-0.10392
22419	21.494	2.8182	0.1	-9.5076e-002
22420	21.404	2.9091	0.1	-0.10392
22421	21.494	2.6364	0.1	-9.2605e-002
22422	21.404	2.7273	0.1	-0.10154
22423	21.494	2.4545	0.1	-8.9268e-002
22424	21.404	2.5455	0.1	-9.7465e-002
22425	21.494	2.2727	0.1	-8.5974e-002
22426	21.404	2.3636	0.1	-9.2831e-002
22427	21.494	2.0909	0.1	-8.358e-002
22428	21.404	2.1818	0.1	-8.8894e-002
22429	21.494	1.9091	0.1	-8.2683e-002
22430	21.404	2.	0.1	-8.6646e-002
22431	21.494	1.7273	0.1	-8.3586e-002
22432	21.404	1.8182	0.1	-8.6641e-002
22433	21.494	1.5455	0.1	-8.65e-002
22434	21.404	1.6364	0.1	-8.9106e-002
22435	21.494	1.3636	0.1	-9.2099e-002
22436	21.404	1.4545	0.1	-9.4395e-002
22437	21.494	1.1818	0.1	-0.10307
22438	21.404	1.2727	0.1	-0.10409
22439	21.494	1.	0.1	-0.13231
22440	21.404	1.0909	0.1	-0.12465
22441	21.494	0.81818	0.1	-0.35291
22442	21.404	0.90909	0.1	-0.19615
22443	21.494	0.63636	0.1	-4.4653
22444	21.404	0.72727	0.1	-1.7789
22445	21.494	0.45455	0.1	-8.5753
22446	21.404	0.54545	0.1	-7.0038
22447	21.494	0.27273	0.1	-11.217
22448	21.404	0.36364	0.1	-10.416
22449	21.404	0.18182	0.1	-12.645
22450	21.494	9.0909e-002	0.1	-8.2249
22451	21.315	5.7273	0.1	-11.747
22452	21.225	5.8182	0.1	-13.361
22453	21.315	5.9091	0.1	-8.4966
22454	21.315	5.5455	0.1	-8.8044
22455	21.225	5.6364	0.1	-11.036
22456	21.315	5.3636	0.1	-4.0972
22457	21.225	5.4545	0.1	-7.19
22458	21.315	5.1818	0.1	-0.34484
22459	21.225	5.2727	0.1	-1.5165
22460	21.315	5.	0.1	-0.15407
22461	21.225	5.0909	0.1	-0.23488
22462	21.315	4.8182	0.1	-0.11801
22463	21.225	4.9091	0.1	-0.1482
22464	21.315	4.6364	0.1	-0.10302
22465	21.225	4.7273	0.1	-0.1202
22466	21.315	4.4545	0.1	-9.4978e-002
22467	21.225	4.5455	0.1	-0.10628
22468	21.315	4.2727	0.1	-9.072e-002
22469	21.225	4.3636	0.1	-9.843e-002
22470	21.315	4.0909	0.1	-8.9481e-002
22471	21.225	4.1818	0.1	-9.4671e-002
22472	21.315	3.9091	0.1	-9.1051e-002
22473	21.225	4.	0.1	-9.468e-002
22474	21.315	3.7273	0.1	-9.5008e-002
22475	21.225	3.8182	0.1	-9.8256e-002
22476	21.315	3.5455	0.1	-0.10042
22477	21.225	3.6364	0.1	-0.10457
22478	21.315	3.3636	0.1	-0.10589
22479	21.225	3.4545	0.1	-0.11201
22480	21.315	3.1818	0.1	-0.10994
22481	21.225	3.2727	0.1	-0.11856
22482	21.315	3.	0.1	-0.11144
22483	21.225	3.0909	0.1	-0.12238
22484	21.315	2.8182	0.1	-0.10994
22485	21.225	2.9091	0.1	-0.12238
22486	21.315	2.6364	0.1	-0.10589
22487	21.225	2.7273	0.1	-0.11856
22488	21.315	2.4545	0.1	-0.10042
22489	21.225	2.5455	0.1	-0.11201
22490	21.315	2.2727	0.1	-9.5009e-002
22491	21.225	2.3636	0.1	-0.10457
22492	21.315	2.0909	0.1	-9.1052e-002
22493	21.225	2.1818	0.1	-9.8256e-002
22494	21.315	1.9091	0.1	-8.9481e-002
22495	21.225	2.	0.1	-9.4681e-002
22496	21.315	1.7273	0.1	-9.0719e-002
22497	21.225	1.8182	0.1	-9.4671e-002
22498	21.315	1.5455	0.1	-9.4977e-002
22499	21.225	1.6364	0.1	-9.8429e-002
22500	21.315	1.3636	0.1	-0.10302
22501	21.225	1.4545	0.1	-0.10628
22502	21.315	1.1818	0.1	-0.11801
22503	21.225	1.2727	0.1	-0.1202
22504	21.315	1.	0.1	-0.15407
22505	21.225	1.0909	0.1	-0.1482
22506	21.315	0.81818	0.1	-0.34483
22507	21.225	0.90909	0.1	-0.23488
22508	21.315	0.63636	0.1	-4.0972
22509	21.225	0.72727	0.1	-1.5165
22510	21.315	0.45455	0.1	-8.8045
22511	21.225	0.54545	0.1	-7.19
22512	21.315	0.27273	0.1	-11.747
22513	21.225	0.36364	0.1	-11.036
22514	21.225	0.18182	0.1	-13.361
22515	21.315	9.0909e-002	0.1	-8.4966
22516	21.136	5.7273	0.1	-12.576
22517	21.046	5.8182	0.1	-14.342
22518	21.136	5.9091	0.1	-8.9234
22519	21.136	5.5455	0.1	-9.3921
22520	21.046	5.6364	0.1	-11.954
22521	21.136	5.3636	0.1	-4.1734
22522	21.046	5.4545	0.1	-7.7505
22523	21.136	5.1818	0.1	-0.42
22524	21.046	5.2727	0.1	-1.6761
22525	21.136	5.	0.1	-0.1912
22526	21.046	5.0909	0.1	-0.30504
22527	21.136	4.8182	0.1	-0.14123
22528	21.046	4.9091	0.1	-0.18523
22529	21.136	4.6364	0.1	-0.11933
22530	21.046	4.7273	0.1	-0.14451
22531	21.136	4.4545	0.1	-0.10718
22532	21.046	4.5455	0.1	-0.12365
22533	21.136	4.2727	0.1	-0.10051
22534	21.046	4.3636	0.1	-0.1115
22535	21.136	4.0909	0.1	-9.8391e-002
22536	21.046	4.1818	0.1	-0.10538
22537	21.136	3.9091	0.1	-0.10069
22538	21.046	4.	0.1	-0.10505
22539	21.136	3.7273	0.1	-0.10686
22540	21.046	3.8182	0.1	-0.11032
22541	21.136	3.5455	0.1	-0.11542
22542	21.046	3.6364	0.1	-0.11999
22543	21.136	3.3636	0.1	-0.1241
22544	21.046	3.4545	0.1	-0.13156
22545	21.136	3.1818	0.1	-0.13051
22546	21.046	3.2727	0.1	-0.14176
22547	21.136	3.	0.1	-0.13287
22548	21.046	3.0909	0.1	-0.14768
22549	21.136	2.8182	0.1	-0.13051
22550	21.046	2.9091	0.1	-0.14768
22551	21.136	2.6364	0.1	-0.1241
22552	21.046	2.7273	0.1	-0.14176
22553	21.136	2.4545	0.1	-0.11542
22554	21.046	2.5455	0.1	-0.13156
22555	21.136	2.2727	0.1	-0.10686
22556	21.046	2.3636	0.1	-0.11999
22557	21.136	2.0909	0.1	-0.10069
22558	21.046	2.1818	0.1	-0.11032
22559	21.136	1.9091	0.1	-9.8392e-002
22560	21.046	2.	0.1	-0.10505
22561	21.136	1.7273	0.1	-0.10051
22562	21.046	1.8182	0.1	-0.10538
22563	21.136	1.5455	0.1	-0.10718
22564	21.046	1.6364	0.1	-0.1115
22565	21.136	1.3636	0.1	-0.11933
22566	21.046	1.4545	0.1	-0.12365
22567	21.136	1.1818	0.1	-0.14123
22568	21.046	1.2727	0.1	-0.14451
22569	21.136	1.	0.1	-0.1912
22570	21.046	1.0909	0.1	-0.18523
22571	21.136	0.81818	0.1	-0.42
22572	21.046	0.90909	0.1	-0.30504
22573	21.136	0.63636	0.1	-4.1734
22574	21.046	0.72727	0.1	-1.676
22575	21.136	0.45455	0.1	-9.3921
22576	21.046	0.54545	0.1	-7.7505
22577	21.136	0.27273	0.1	-12.576
22578	21.046	0.36364	0.1	-11.954
22579	21.046	0.18182	0.1	-14.342
22580	21.136	9.0909e-002	0.1	-8.9234
22581	20.957	5.7273	0.1	-13.674
22582	20.867	5.8182	0.1	-15.561
22583	20.957	5.9091	0.1	-9.4951
22584	20.957	5.5455	0.1	-10.298
22585	20.867	5.6364	0.1	-13.103
22586	20.957	5.3636	0.1	-4.6696
22587	20.867	5.4545	0.1	-8.6366
22588	20.957	5.1818	0.1	-0.57449
22589	20.867	5.2727	0.1	-2.1796
22590	20.957	5.	0.1	-0.25105
22591	20.867	5.0909	0.1	-0.42491
22592	20.957	4.8182	0.1	-0.17684
22593	20.867	4.9091	0.1	-0.24401
22594	20.957	4.6364	0.1	-0.14355
22595	20.867	4.7273	0.1	-0.18172
22596	20.957	4.4545	0.1	-0.12465
22597	20.867	4.5455	0.1	-0.14935
22598	20.957	4.2727	0.1	-0.11387
22599	20.867	4.3636	0.1	-0.12987
22600	20.957	4.0909	0.1	-0.11002
22601	20.867	4.1818	0.1	-0.1193
22602	20.957	3.9091	0.1	-0.11305
22603	20.867	4.	0.1	-0.11756
22604	20.957	3.7273	0.1	-0.1222
22605	20.867	3.8182	0.1	-0.12505
22606	20.957	3.5455	0.1	-0.13522
22607	20.867	3.6364	0.1	-0.13988
22608	20.957	3.3636	0.1	-0.14857
22609	20.867	3.4545	0.1	-0.15751
22610	20.957	3.1818	0.1	-0.15843
22611	20.867	3.2727	0.1	-0.17285
22612	20.957	3.	0.1	-0.16204
22613	20.867	3.0909	0.1	-0.18167
22614	20.957	2.8182	0.1	-0.15843
22615	20.867	2.9091	0.1	-0.18167
22616	20.957	2.6364	0.1	-0.14857
22617	20.867	2.7273	0.1	-0.17285
22618	20.957	2.4545	0.1	-0.13522
22619	20.867	2.5455	0.1	-0.15751
22620	20.957	2.2727	0.1	-0.1222
22621	20.867	2.3636	0.1	-0.13988
22622	20.957	2.0909	0.1	-0.11305
22623	20.867	2.1818	0.1	-0.12505
22624	20.957	1.9091	0.1	-0.11002
22625	20.867	2.	0.1	-0.11756
22626	20.957	1.7273	0.1	-0.11387
22627	20.867	1.8182	0.1	-0.1193
22628	20.957	1.5455	0.1	-0.12465
22629	20.867	1.6364	0.1	-0.12987
22630	20.957	1.3636	0.1	-0.14355
22631	20.867	1.4545	0.1	-0.14935
22632	20.957	1.1818	0.1	-0.17684
22633	20.867	1.2727	0.1	-0.18172
22634	20.957	1.	0.1	-0.25105
22635	20.867	1.0909	0.1	-0.24401
22636	20.957	0.81818	0.1	-0.57449
22637	20.867	0.90909	0.1	-0.42491
22638	20.957	0.63636	0.1	-4.6696
22639	20.867	0.72727	0.1	-2.1796
22640	20.957	0.45455	0.1	-10.298
22641	20.867	0.54545	0.1	-8.6366
22642	20.957	0.27273	0.1	-13.674
22643	20.867	0.36364	0.1	-13.103
22644	20.867	0.18182	0.1	-15.561
22645	20.957	9.0909e-002	0.1	-9.4952
22646	20.778	5.7273	0.1	-14.98
22647	20.688	5.8182	0.1	-16.956
22648	20.778	5.9091	0.1	-10.183
22649	20.778	5.5455	0.1	-11.452
22650	20.688	5.6364	0.1	-14.372
22651	20.778	5.3636	0.1	-5.5629
22652	20.688	5.4545	0.1	-9.7777
22653	20.778	5.1818	0.1	-0.86306
22654	20.688	5.2727	0.1	-3.0834
22655	20.778	5.	0.1	-0.35067
22656	20.688	5.0909	0.1	-0.64148
22657	20.778	4.8182	0.1	-0.23345
22658	20.688	4.9091	0.1	-0.34338
22659	20.778	4.6364	0.1	-0.18069
22660	20.688	4.7273	0.1	-0.24232
22661	20.778	4.4545	0.1	-0.15017
22662	20.688	4.5455	0.1	-0.18973
22663	20.778	4.2727	0.1	-0.13184
22664	20.688	4.3636	0.1	-0.15747
22665	20.778	4.0909	0.1	-0.12396
22666	20.688	4.1818	0.1	-0.13907
22667	20.778	3.9091	0.1	-0.12726
22668	20.688	4.	0.1	-0.13509
22669	20.778	3.7273	0.1	-0.14105
22670	20.688	3.8182	0.1	-0.1451
22671	20.778	3.5455	0.1	-0.16106
22672	20.688	3.6364	0.1	-0.16601
22673	20.778	3.3636	0.1	-0.18112
22674	20.688	3.4545	0.1	-0.19184
22675	20.778	3.1818	0.1	-0.19566
22676	20.688	3.2727	0.1	-0.21391
22677	20.778	3.	0.1	-0.20094
22678	20.688	3.0909	0.1	-0.2262
22679	20.778	2.8182	0.1	-0.19566
22680	20.688	2.9091	0.1	-0.2262
22681	20.778	2.6364	0.1	-0.18112
22682	20.688	2.7273	0.1	-0.21391
22683	20.778	2.4545	0.1	-0.16106
22684	20.688	2.5455	0.1	-0.19184
22685	20.778	2.2727	0.1	-0.14105
22686	20.688	2.3636	0.1	-0.16601
22687	20.778	2.0909	0.1	-0.12726
22688	20.688	2.1818	0.1	-0.1451
22689	20.778	1.9091	0.1	-0.12396
22690	20.688	2.	0.1	-0.13509
22691	20.778	1.7273	0.1	-0.13184
22692	20.688	1.8182	0.1	-0.13907
22693	20.778	1.5455	0.1	-0.15017
22694	20.688	1.6364	0.1	-0.15747
22695	20.778	1.3636	0.1	-0.18069
22696	20.688	1.4545	0.1	-0.18973
22697	20.778	1.1818	0.1	-0.23345
22698	20.688	1.2727	0.1	-0.24231
22699	20.778	1.	0.1	-0.35067
22700	20.688	1.0909	0.1	-0.34338
22701	20.778	0.81818	0.1	-0.86305
22702	20.688	0.90909	0.1	-0.64148
22703	20.778	0.63636	0.1	-5.5628
22704	20.688	0.72727	0.1	-3.0833
22705	20.778	0.45455	0.1	-11.452
22706	20.688	0.54545	0.1	-9.7777
22707	20.778	0.27273	0.1	-14.98
22708	20.688	0.36364	0.1	-14.372
22709	20.688	0.18182	0.1	-16.956
22710	20.778	9.0909e-002	0.1	-10.183
22711	20.599	5.7273	0.1	-16.383
22712	20.509	5.8182	0.1	-18.416
22713	20.599	5.9091	0.1	-10.932
22714	20.599	5.5455	0.1	-12.747
22715	20.509	5.6364	0.1	-15.595
22716	20.599	5.3636	0.1	-6.8489
22717	20.509	5.4545	0.1	-11.089
22718	20.599	5.1818	0.1	-1.4358
22719	20.509	5.2727	0.1	-4.5367
22720	20.599	5.	0.1	-0.53268
22721	20.509	5.0909	0.1	-1.0895
22722	20.599	4.8182	0.1	-0.33158
22723	20.509	4.9091	0.1	-0.53359
22724	20.599	4.6364	0.1	-0.24263
22725	20.509	4.7273	0.1	-0.35207
22726	20.599	4.4545	0.1	-0.19113
22727	20.509	4.5455	0.1	-0.25867
22728	20.599	4.2727	0.1	-0.15971
22729	20.509	4.3636	0.1	-0.20042
22730	20.599	4.0909	0.1	-0.14586
22731	20.509	4.1818	0.1	-0.16493
22732	20.599	3.9091	0.1	-0.14946
22733	20.509	4.	0.1	-0.15104
22734	20.599	3.7273	0.1	-0.16769
22735	20.509	3.8182	0.1	-0.16512
22736	20.599	3.5455	0.1	-0.1955
22737	20.509	3.6364	0.1	-0.20094
22738	20.599	3.3636	0.1	-0.22407
22739	20.509	3.4545	0.1	-0.23858
22740	20.599	3.1818	0.1	-0.2442
22741	20.509	3.2727	0.1	-0.26729
22742	20.599	3.	0.1	-0.25127
22743	20.509	3.0909	0.1	-0.28222
22744	20.599	2.8182	0.1	-0.2442
22745	20.509	2.9091	0.1	-0.28222
22746	20.599	2.6364	0.1	-0.22407
22747	20.509	2.7273	0.1	-0.26729
22748	20.599	2.4545	0.1	-0.1955
22749	20.509	2.5455	0.1	-0.23858
22750	20.599	2.2727	0.1	-0.16769
22751	20.509	2.3636	0.1	-0.20094
22752	20.599	2.0909	0.1	-0.14946
22753	20.509	2.1818	0.1	-0.16512
22754	20.599	1.9091	0.1	-0.14586
22755	20.509	2.	0.1	-0.15104
22756	20.599	1.7273	0.1	-0.15971
22757	20.509	1.8182	0.1	-0.16493
22758	20.599	1.5455	0.1	-0.19113
22759	20.509	1.6364	0.1	-0.20042
22760	20.599	1.3636	0.1	-0.24263
22761	20.509	1.4545	0.1	-0.25867
22762	20.599	1.1818	0.1	-0.33158
22763	20.509	1.2727	0.1	-0.35207
22764	20.599	1.	0.1	-0.53268
22765	20.509	1.0909	0.1	-0.53359
22766	20.599	0.81818	0.1	-1.4357
22767	20.509	0.90909	0.1	-1.0895
22768	20.599	0.63636	0.1	-6.8488
22769	20.509	0.72727	0.1	-4.5367
22770	20.599	0.45455	0.1	-12.747
22771	20.509	0.54545	0.1	-11.089
22772	20.599	0.27273	0.1	-16.383
22773	20.509	0.36364	0.1	-15.595
22774	20.509	0.18182	0.1	-18.416
22775	20.599	9.0909e-002	0.1	-10.932
22776	20.42	5.7273	0.1	-17.718
22777	20.33	5.8182	0.1	-19.766
22778	20.42	5.9091	0.1	-11.644
22779	20.42	5.5455	0.1	-14.046
22780	20.33	5.6364	0.1	-16.554
22781	20.42	5.3636	0.1	-8.5697
22782	20.33	5.4545	0.1	-12.506
22783	20.42	5.1818	0.1	-2.6988
22784	20.33	5.2727	0.1	-6.812
22785	20.42	5.	0.1	-0.92963
22786	20.33	5.0909	0.1	-2.2679
22787	20.42	4.8182	0.1	-0.52892
22788	20.33	4.9091	0.1	-0.99484
22789	20.42	4.6364	0.1	-0.35845
22790	20.33	4.7273	0.1	-0.59544
22791	20.42	4.4545	0.1	-0.26035
22792	20.33	4.5455	0.1	-0.40283
22793	20.42	4.2727	0.1	-0.19811
22794	20.33	4.3636	0.1	-0.28909
22795	20.42	4.0909	0.1	-0.163
22796	20.33	4.1818	0.1	-0.21927
22797	20.42	3.9091	0.1	-0.16099
22798	20.33	4.	0.1	-0.20445
22799	20.42	3.7273	0.1	-0.19486
22800	20.33	3.8182	0.1	-0.22255
22801	20.42	3.5455	0.1	-0.24268
22802	20.33	3.6364	0.1	-0.25522
22803	20.42	3.3636	0.1	-0.28168
22804	20.33	3.4545	0.1	-0.30362
22805	20.42	3.1818	0.1	-0.3054
22806	20.33	3.2727	0.1	-0.33603
22807	20.42	3.	0.1	-0.31318
22808	20.33	3.0909	0.1	-0.34733
22809	20.42	2.8182	0.1	-0.3054
22810	20.33	2.9091	0.1	-0.34733
22811	20.42	2.6364	0.1	-0.28168
22812	20.33	2.7273	0.1	-0.33603
22813	20.42	2.4545	0.1	-0.24268
22814	20.33	2.5455	0.1	-0.30362
22815	20.42	2.2727	0.1	-0.19486
22816	20.33	2.3636	0.1	-0.25522
22817	20.42	2.0909	0.1	-0.16099
22818	20.33	2.1818	0.1	-0.22255
22819	20.42	1.9091	0.1	-0.163
22820	20.33	2.	0.1	-0.20445
22821	20.42	1.7273	0.1	-0.19811
22822	20.33	1.8182	0.1	-0.21927
22823	20.42	1.5455	0.1	-0.26035
22824	20.33	1.6364	0.1	-0.28909
22825	20.42	1.3636	0.1	-0.35845
22826	20.33	1.4545	0.1	-0.40283
22827	20.42	1.1818	0.1	-0.52892
22828	20.33	1.2727	0.1	-0.59543
22829	20.42	1.	0.1	-0.92963
22830	20.33	1.0909	0.1	-0.99484
22831	20.42	0.81818	0.1	-2.6988
22832	20.33	0.90909	0.1	-2.2679
22833	20.42	0.63636	0.1	-8.5697
22834	20.33	0.72727	0.1	-6.812
22835	20.42	0.45455	0.1	-14.046
22836	20.33	0.54545	0.1	-12.506
22837	20.42	0.27273	0.1	-17.718
22838	20.33	0.36364	0.1	-16.554
22839	20.33	0.18182	0.1	-19.766
22840	20.42	9.0909e-002	0.1	-11.644
22841	20.241	5.7273	0.1	-18.758
22842	20.151	5.8182	0.1	-20.756
22843	20.241	5.9091	0.1	-12.174
22844	20.241	5.5455	0.1	-15.216
22845	20.151	5.6364	0.1	-17.022
22846	20.241	5.3636	0.1	-10.885
22847	20.151	5.4545	0.1	-14.074
22848	20.241	5.1818	0.1	-5.6212
22849	20.151	5.2727	0.1	-10.442
22850	20.241	5.	0.1	-2.1549
22851	20.151	5.0909	0.1	-6.1643
22852	20.241	4.8182	0.1	-1.0627
22853	20.151	4.9091	0.1	-2.8137
22854	20.241	4.6364	0.1	-0.64181
22855	20.151	4.7273	0.1	-1.3969
22856	20.241	4.4545	0.1	-0.42496
22857	20.151	4.5455	0.1	-0.79159
22858	20.241	4.2727	0.1	-0.29842
22859	20.151	4.3636	0.1	-0.45529
22860	20.241	4.0909	0.1	-0.24761
22861	20.151	4.1818	0.1	-0.28732
22862	20.241	3.9091	0.1	-0.25537
22863	20.151	4.	0.1	-0.16912
22864	20.241	3.7273	0.1	-0.27739
22865	20.151	3.8182	0.1	-0.20392
22866	20.241	3.5455	0.1	-0.31561
22867	20.151	3.6364	0.1	-0.35857
22868	20.241	3.3636	0.1	-0.35939
22869	20.151	3.4545	0.1	-0.41461
22870	20.241	3.1818	0.1	-0.37855
22871	20.151	3.2727	0.1	-0.42114
22872	20.241	3.	0.1	-0.38124
22873	20.151	3.0909	0.1	-0.4122
22874	20.241	2.8182	0.1	-0.37855
22875	20.151	2.9091	0.1	-0.4122
22876	20.241	2.6364	0.1	-0.35939
22877	20.151	2.7273	0.1	-0.42114
22878	20.241	2.4545	0.1	-0.31561
22879	20.151	2.5455	0.1	-0.41461
22880	20.241	2.2727	0.1	-0.27739
22881	20.151	2.3636	0.1	-0.35857
22882	20.241	2.0909	0.1	-0.25537
22883	20.151	2.1818	0.1	-0.20392
22884	20.241	1.9091	0.1	-0.24761
22885	20.151	2.	0.1	-0.16912
22886	20.241	1.7273	0.1	-0.29842
22887	20.151	1.8182	0.1	-0.28732
22888	20.241	1.5455	0.1	-0.42496
22889	20.151	1.6364	0.1	-0.45529
22890	20.241	1.3636	0.1	-0.64181
22891	20.151	1.4545	0.1	-0.79159
22892	20.241	1.1818	0.1	-1.0627
22893	20.151	1.2727	0.1	-1.3969
22894	20.241	1.	0.1	-2.1549
22895	20.151	1.0909	0.1	-2.8137
22896	20.241	0.81818	0.1	-5.6212
22897	20.151	0.90909	0.1	-6.1643
22898	20.241	0.63636	0.1	-10.885
22899	20.151	0.72727	0.1	-10.442
22900	20.241	0.45455	0.1	-15.216
22901	20.151	0.54545	0.1	-14.074
22902	20.241	0.27273	0.1	-18.758
22903	20.151	0.36364	0.1	-17.022
22904	20.151	0.18182	0.1	-20.756
22905	20.241	9.0909e-002	0.1	-12.174
22906	20.062	5.7273	0.1	-19.252
22907	19.972	5.8182	0.1	-21.081
22908	20.062	5.9091	0.1	-12.308
22909	20.062	5.5455	0.1	-16.239
22910	19.972	5.6364	0.1	-16.903
22911	20.062	5.3636	0.1	-14.239
22912	19.972	5.4545	0.1	-16.182
22913	20.062	5.1818	0.1	-11.762
22914	19.972	5.2727	0.1	-16.533
22915	20.062	5.	0.1	-7.9901
22916	19.972	5.0909	0.1	-16.458
22917	20.062	4.8182	0.1	-3.8669
22918	19.972	4.9091	0.1	-14.073
22919	20.062	4.6364	0.1	-1.7402
22920	19.972	4.7273	0.1	-8.2839
22921	20.062	4.4545	0.1	-0.85327
22922	19.972	4.5455	0.1	-3.126
22923	20.062	4.2727	0.1	-0.42787
22924	19.972	4.3636	0.1	-1.3823
22925	20.062	4.0909	0.1	-0.18027
22926	19.972	4.1818	0.1	-0.62939
22927	20.062	3.9091	0.1	-9.4296e-002
22928	19.972	4.	0.1	-0.68954
22929	20.062	3.7273	0.1	-0.27605
22930	19.972	3.8182	0.1	-0.71624
22931	20.062	3.5455	0.1	-0.4625
22932	19.972	3.6364	0.1	-0.52075
22933	20.062	3.3636	0.1	-0.48447
22934	19.972	3.4545	0.1	-0.6451
22935	20.062	3.1818	0.1	-0.45635
22936	19.972	3.2727	0.1	-0.54968
22937	20.062	3.	0.1	-0.44017
22938	19.972	3.0909	0.1	-0.45211
22939	20.062	2.8182	0.1	-0.45635
22940	19.972	2.9091	0.1	-0.45211
22941	20.062	2.6364	0.1	-0.48447
22942	19.972	2.7273	0.1	-0.54968
22943	20.062	2.4545	0.1	-0.46249
22944	19.972	2.5455	0.1	-0.6451
22945	20.062	2.2727	0.1	-0.27605
22946	19.972	2.3636	0.1	-0.52075
22947	20.062	2.0909	0.1	-9.4296e-002
22948	19.972	2.1818	0.1	-0.71624
22949	20.062	1.9091	0.1	-0.18027
22950	19.972	2.	0.1	-0.68954
22951	20.062	1.7273	0.1	-0.42787
22952	19.972	1.8182	0.1	-0.62939
22953	20.062	1.5455	0.1	-0.85327
22954	19.972	1.6364	0.1	-1.3823
22955	20.062	1.3636	0.1	-1.7402
22956	19.972	1.4545	0.1	-3.126
22957	20.062	1.1818	0.1	-3.8669
22958	19.972	1.2727	0.1	-8.2839
22959	20.062	1.	0.1	-7.99
22960	19.972	1.0909	0.1	-14.073
22961	20.062	0.81818	0.1	-11.762
22962	19.972	0.90909	0.1	-16.458
22963	20.062	0.63636	0.1	-14.239
22964	19.972	0.72727	0.1	-16.533
22965	20.062	0.45455	0.1	-16.239
22966	19.972	0.54545	0.1	-16.182
22967	20.062	0.27273	0.1	-19.252
22968	19.972	0.36364	0.1	-16.903
22969	19.972	0.18182	0.1	-21.081
22970	20.062	9.0909e-002	0.1	-12.308
22971	19.883	5.7273	0.1	-19.051
22972	19.793	5.8182	0.1	-20.427
22973	19.883	5.9091	0.1	-11.782
22974	19.883	5.5455	0.1	-17.497
22975	19.793	5.6364	0.1	-16.571
22976	19.883	5.3636	0.1	-19.752
22977	19.793	5.4545	0.1	-20.066
22978	19.883	5.1818	0.1	-23.232
22979	19.793	5.2727	0.1	-27.309
22980	19.883	5.	0.1	-25.605
22981	19.793	5.0909	0.1	-35.876
22982	19.883	4.8182	0.1	-23.926
22983	19.793	4.9091	0.1	-42.879
22984	19.883	4.6364	0.1	-15.527
22985	19.793	4.7273	0.1	-44.48
22986	19.883	4.4545	0.1	-4.9887
22987	19.793	4.5455	0.1	-35.936
22988	19.883	4.2727	0.1	-1.6365
22989	19.793	4.3636	0.1	-14.159
22990	19.883	4.0909	0.1	-1.0597
22991	19.793	4.1818	0.1	-1.8435
22992	19.883	3.9091	0.1	-1.2417
22993	19.793	4.	0.1	0.92212
22994	19.883	3.7273	0.1	-0.95493
22995	19.793	3.8182	0.1	6.7722e-002
22996	19.883	3.5455	0.1	-0.75337
22997	19.793	3.6364	0.1	-1.9052
22998	19.883	3.3636	0.1	-0.77661
22999	19.793	3.4545	0.1	-1.6248
23000	19.883	3.1818	0.1	-0.56566
23001	19.793	3.2727	0.1	-1.6325
23002	19.883	3.	0.1	-0.44396
23003	19.793	3.0909	0.1	-1.1161
23004	19.883	2.8182	0.1	-0.56566
23005	19.793	2.9091	0.1	-1.1161
23006	19.883	2.6364	0.1	-0.77661
23007	19.793	2.7273	0.1	-1.6325
23008	19.883	2.4545	0.1	-0.75337
23009	19.793	2.5455	0.1	-1.6248
23010	19.883	2.2727	0.1	-0.95493
23011	19.793	2.3636	0.1	-1.9052
23012	19.883	2.0909	0.1	-1.2417
23013	19.793	2.1818	0.1	6.7722e-002
23014	19.883	1.9091	0.1	-1.0597
23015	19.793	2.	0.1	0.92212
23016	19.883	1.7273	0.1	-1.6365
23017	19.793	1.8182	0.1	-1.8435
23018	19.883	1.5455	0.1	-4.9887
23019	19.793	1.6364	0.1	-14.159
23020	19.883	1.3636	0.1	-15.527
23021	19.793	1.4545	0.1	-35.936
23022	19.883	1.1818	0.1	-23.926
23023	19.793	1.2727	0.1	-44.48
23024	19.883	1.	0.1	-25.605
23025	19.793	1.0909	0.1	-42.879
23026	19.883	0.81818	0.1	-23.232
23027	19.793	0.90909	0.1	-35.876
23028	19.883	0.63636	0.1	-19.751
23029	19.793	0.72727	0.1	-27.309
23030	19.883	0.45455	0.1	-17.497
23031	19.793	0.54545	0.1	-20.066
23032	19.883	0.27273	0.1	-19.051
23033	19.793	0.36364	0.1	-16.571
23034	19.793	0.18182	0.1	-20.427
23035	19.883	9.0909e-002	0.1	-11.782
23036	19.704	5.7273	0.1	-18.417
23037	19.614	5.8182	0.1	-19.015
23038	19.704	5.9091	0.1	-10.268
23039	19.704	5.5455	0.1	-20.381
23040	19.614	5.6364	0.1	-18.035
23041	19.704	5.3636	0.1	-29.966
23042	19.614	5.4545	0.1	-29.364
23043	19.704	5.1818	0.1	-43.305
23044	19.614	5.2727	0.1	-47.343
23045	19.704	5.	0.1	-57.291
23046	19.614	5.0909	0.1	-68.618
23047	19.704	4.8182	0.1	-68.218
23048	19.614	4.9091	0.1	-90.603
23049	19.704	4.6364	0.1	-70.738
23050	19.614	4.7273	0.1	-110.18
23051	19.704	4.4545	0.1	-56.565
23052	19.614	4.5455	0.1	-120.35
23053	19.704	4.2727	0.1	-21.937
23054	19.614	4.3636	0.1	-108.18
23055	19.704	4.0909	0.1	0.33369
23056	19.614	4.1818	0.1	-65.527
23057	19.704	3.9091	0.1	2.4973
23058	19.614	4.	0.1	-10.078
23059	19.704	3.7273	0.1	-1.0071
23060	19.614	3.8182	0.1	-7.1245
23061	19.704	3.5455	0.1	-4.3252
23062	19.614	3.6364	0.1	-22.881
23063	19.704	3.3636	0.1	-12.986
23064	19.614	3.4545	0.1	-51.153
23065	19.704	3.1818	0.1	-26.785
23066	19.614	3.2727	0.1	-68.853
23067	19.704	3.	0.1	-31.721
23068	19.614	3.0909	0.1	-77.149
23069	19.704	2.8182	0.1	-26.785
23070	19.614	2.9091	0.1	-77.149
23071	19.704	2.6364	0.1	-12.986
23072	19.614	2.7273	0.1	-68.853
23073	19.704	2.4545	0.1	-4.3252
23074	19.614	2.5455	0.1	-51.153
23075	19.704	2.2727	0.1	-1.0071
23076	19.614	2.3636	0.1	-22.881
23077	19.704	2.0909	0.1	2.4973
23078	19.614	2.1818	0.1	-7.1245
23079	19.704	1.9091	0.1	0.33369
23080	19.614	2.	0.1	-10.078
23081	19.704	1.7273	0.1	-21.937
23082	19.614	1.8182	0.1	-65.527
23083	19.704	1.5455	0.1	-56.565
23084	19.614	1.6364	0.1	-108.18
23085	19.704	1.3636	0.1	-70.738
23086	19.614	1.4545	0.1	-120.35
23087	19.704	1.1818	0.1	-68.218
23088	19.614	1.2727	0.1	-110.18
23089	19.704	1.	0.1	-57.291
23090	19.614	1.0909	0.1	-90.603
23091	19.704	0.81818	0.1	-43.305
23092	19.614	0.90909	0.1	-68.618
23093	19.704	0.63636	0.1	-29.966
23094	19.614	0.72727	0.1	-47.343
23095	19.704	0.45455	0.1	-20.381
23096	19.614	0.54545	0.1	-29.364
23097	19.704	0.27273	0.1	-18.417
23098	19.614	0.36364	0.1	-18.035
23099	19.614	0.18182	0.1	-19.015
23100	19.704	9.0909e-002	0.1	-10.268
23101	19.525	5.7273	0.1	-19.635
23102	19.435	5.8182	0.1	-20.155
23103	19.525	5.9091	0.1	-8.0909
23104	19.525	5.5455	0.1	-29.65
23105	19.435	5.6364	0.1	-30.371
23106	19.525	5.3636	0.1	-50.96
23107	19.435	5.4545	0.1	-56.313
23108	19.525	5.1818	0.1	-77.863
23109	19.435	5.2727	0.1	-89.422
23110	19.525	5.	0.1	-107.9
23111	19.435	5.0909	0.1	-127.67
23112	19.525	4.8182	0.1	-139.31
23113	19.435	4.9091	0.1	-171.06
23114	19.525	4.6364	0.1	-167.24
23115	19.435	4.7273	0.1	-220.55
23116	19.525	4.4545	0.1	-178.9
23117	19.435	4.5455	0.1	-272.9
23118	19.525	4.2727	0.1	-158.01
23119	19.435	4.3636	0.1	-330.96
23120	19.525	4.0909	0.1	-81.928
23121	19.435	4.1818	0.1	-324.09
23122	19.525	3.9091	0.1	-24.178
23123	19.435	4.	0.1	-161.78
23124	19.525	3.7273	0.1	-40.81
23125	19.435	3.8182	0.1	-101.97
23126	19.525	3.5455	0.1	-77.218
23127	19.435	3.6364	0.1	-141.09
23128	19.525	3.3636	0.1	-103.52
23129	19.435	3.4545	0.1	-156.61
23130	19.525	3.1818	0.1	-115.32
23131	19.435	3.2727	0.1	-163.72
23132	19.525	3.	0.1	-118.87
23133	19.435	3.0909	0.1	-166.07
23134	19.525	2.8182	0.1	-115.32
23135	19.435	2.9091	0.1	-166.07
23136	19.525	2.6364	0.1	-103.52
23137	19.435	2.7273	0.1	-163.72
23138	19.525	2.4545	0.1	-77.218
23139	19.435	2.5455	0.1	-156.61
23140	19.525	2.2727	0.1	-40.81
23141	19.435	2.3636	0.1	-141.09
23142	19.525	2.0909	0.1	-24.178
23143	19.435	2.1818	0.1	-101.97
23144	19.525	1.9091	0.1	-81.928
23145	19.435	2.	0.1	-161.78
23146	19.525	1.7273	0.1	-158.01
23147	19.435	1.8182	0.1	-324.09
23148	19.525	1.5455	0.1	-178.9
23149	19.435	1.6364	0.1	-330.96
23150	19.525	1.3636	0.1	-167.24
23151	19.435	1.4545	0.1	-272.9
23152	19.525	1.1818	0.1	-139.31
23153	19.435	1.2727	0.1	-220.55
23154	19.525	1.	0.1	-107.9
23155	19.435	1.0909	0.1	-171.06
23156	19.525	0.81818	0.1	-77.863
23157	19.435	0.90909	0.1	-127.67
23158	19.525	0.63636	0.1	-50.96
23159	19.435	0.72727	0.1	-89.422
23160	19.525	0.45455	0.1	-29.65
23161	19.435	0.54545	0.1	-56.313
23162	19.525	0.27273	0.1	-19.635
23163	19.435	0.36364	0.1	-30.371
23164	19.435	0.18182	0.1	-20.155
23165	19.525	9.0909e-002	0.1	-8.0909
23166	19.346	5.7273	0.1	-34.591
23167	19.256	5.8182	0.1	-10.4
23168	19.346	5.9091	0.1	-9.4467
23169	19.346	5.5455	0.1	-63.041
23170	19.256	5.6364	0.1	-30.418
23171	19.346	5.3636	0.1	-101.27
23172	19.256	5.4545	0.1	-58.26
23173	19.346	5.1818	0.1	-146.03
23174	19.256	5.2727	0.1	-90.353
23175	19.346	5.	0.1	-198.38
23176	19.256	5.0909	0.1	-127.52
23177	19.346	4.8182	0.1	-261.41
23178	19.256	4.9091	0.1	-171.84
23179	19.346	4.6364	0.1	-337.86
23180	19.256	4.7273	0.1	-226.55
23181	19.346	4.4545	0.1	-442.12
23182	19.256	4.5455	0.1	-300.55
23183	19.346	4.2727	0.1	-511.57
23184	19.256	4.3636	0.1	-376.21
23185	19.346	4.0909	0.1	-397.23
23186	19.256	4.1818	0.1	-609.2
23187	19.346	3.9091	0.1	-193.24
23188	19.256	4.	0.1	-282.86
23189	19.346	3.7273	0.1	-180.85
23190	19.256	3.8182	0.1	-259.24
23191	19.346	3.5455	0.1	-213.41
23192	19.256	3.6364	0.1	-286.87
23193	19.346	3.3636	0.1	-212.74
23194	19.256	3.4545	0.1	-266.23
23195	19.346	3.1818	0.1	-211.34
23196	19.256	3.2727	0.1	-254.28
23197	19.346	3.	0.1	-210.31
23198	19.256	3.0909	0.1	-247.55
23199	19.346	2.8182	0.1	-211.34
23200	19.256	2.9091	0.1	-247.55
23201	19.346	2.6364	0.1	-212.74
23202	19.256	2.7273	0.1	-254.28
23203	19.346	2.4545	0.1	-213.41
23204	19.256	2.5455	0.1	-266.23
23205	19.346	2.2727	0.1	-180.85
23206	19.256	2.3636	0.1	-286.87
23207	19.346	2.0909	0.1	-193.24
23208	19.256	2.1818	0.1	-259.24
23209	19.346	1.9091	0.1	-397.23
23210	19.256	2.	0.1	-282.86
23211	19.346	1.7273	0.1	-511.57
23212	19.256	1.8182	0.1	-609.2
23213	19.346	1.5455	0.1	-442.12
23214	19.256	1.6364	0.1	-376.21
23215	19.346	1.3636	0.1	-337.86
23216	19.256	1.4545	0.1	-300.55
23217	19.346	1.1818	0.1	-261.41
23218	19.256	1.2727	0.1	-226.55
23219	19.346	1.	0.1	-198.38
23220	19.256	1.0909	0.1	-171.84
23221	19.346	0.81818	0.1	-146.03
23222	19.256	0.90909	0.1	-127.52
23223	19.346	0.63636	0.1	-101.27
23224	19.256	0.72727	0.1	-90.353
23225	19.346	0.45455	0.1	-63.041
23226	19.256	0.54545	0.1	-58.26
23227	19.346	0.27273	0.1	-34.591
23228	19.256	0.36364	0.1	-30.418
23229	19.256	0.18182	0.1	-10.4
23230	19.346	9.0909e-002	0.1	-9.4467
23231	0.18447	0.27273	0.1	-448.22
23232	0.2767	0.18182	0.1	-164.72
23233	9.2233e-002	0.18182	0.1	400.33
23234	0.18447	9.0909e-002	0.1	-223.61
23235	0.18447	0.45455	0.1	-676.46
23236	0.2767	0.36364	0.1	-235.76
23237	9.2233e-002	0.36364	0.1	831.45
23238	0.18447	0.63636	0.1	-786.15
23239	0.2767	0.54545	0.1	-279.66
23240	9.2233e-002	0.54545	0.1	1028.7
23241	0.18447	0.81818	0.1	-856.43
23242	0.2767	0.72727	0.1	-310.92
23243	9.2233e-002	0.72727	0.1	1145.1
23244	0.18447	1.	0.1	-903.68
23245	0.2767	0.90909	0.1	-330.93
23246	9.2233e-002	0.90909	0.1	1223.7
23247	0.18447	1.1818	0.1	-938.03
23248	0.2767	1.0909	0.1	-345.52
23249	9.2233e-002	1.0909	0.1	1279.6
23250	0.18447	1.3636	0.1	-963.61
23251	0.2767	1.2727	0.1	-356.25
23252	9.2233e-002	1.2727	0.1	1321.1
23253	0.18447	1.5455	0.1	-983.14
23254	0.2767	1.4545	0.1	-364.42
23255	9.2233e-002	1.4545	0.1	1352.5
23256	0.18447	1.7273	0.1	-998.2
23257	0.2767	1.6364	0.1	-370.7
23258	9.2233e-002	1.6364	0.1	1376.8
23259	0.18447	1.9091	0.1	-1009.9
23260	0.2767	1.8182	0.1	-375.57
23261	9.2233e-002	1.8182	0.1	1395.6
23262	0.18447	2.0909	0.1	-1018.9
23263	0.2767	2.	0.1	-379.34
23264	9.2233e-002	2.	0.1	1410.2
23265	0.18447	2.2727	0.1	-1025.7
23266	0.2767	2.1818	0.1	-382.24
23267	9.2233e-002	2.1818	0.1	1421.3
23268	0.18447	2.4545	0.1	-1030.7
23269	0.2767	2.3636	0.1	-384.41
23270	9.2233e-002	2.3636	0.1	1429.7
23271	0.18447	2.6364	0.1	-1034.1
23272	0.2767	2.5455	0.1	-385.95
23273	9.2233e-002	2.5455	0.1	1435.7
23274	0.18447	2.8182	0.1	-1036.1
23275	0.2767	2.7273	0.1	-386.95
23276	9.2233e-002	2.7273	0.1	1439.5
23277	0.18447	3.	0.1	-1036.8
23278	0.2767	2.9091	0.1	-387.43
23279	9.2233e-002	2.9091	0.1	1441.4
23280	0.18447	3.1818	0.1	-1036.1
23281	0.2767	3.0909	0.1	-387.43
23282	9.2233e-002	3.0909	0.1	1441.4
23283	0.18447	3.3636	0.1	-1034.1
23284	0.2767	3.2727	0.1	-386.95
23285	9.2233e-002	3.2727	0.1	1439.5
23286	0.18447	3.5455	0.1	-1030.7
23287	0.2767	3.4545	0.1	-385.95
23288	9.2233e-002	3.4545	0.1	1435.7
23289	0.18447	3.7273	0.1	-1025.7
23290	0.2767	3.6364	0.1	-384.41
23291	9.2233e-002	3.6364	0.1	1429.7
23292	0.18447	3.9091	0.1	-1018.9
23293	0.2767	3.8182	0.1	-382.24
23294	9.2233e-002	3.8182	0.1	1421.3
23295	0.18447	4.0909	0.1	-1009.9
23296	0.2767	4.	0.1	-379.34
23297	9.2233e-002	4.	0.1	1410.2
23298	0.18447	4.2727	0.1	-998.2
23299	0.2767	4.1818	0.1	-375.57
23300	9.2233e-002	4.1818	0.1	1395.6
23301	0.18447	4.4545	0.1	-983.14
23302	0.2767	4.3636	0.1	-370.7
23303	9.2233e-002	4.3636	0.1	1376.8
23304	0.18447	4.6364	0.1	-963.61
23305	0.2767	4.5455	0.1	-364.42
23306	9.2233e-002	4.5455	0.1	1352.5
23307	0.18447	4.8182	0.1	-938.03
23308	0.2767	4.7273	0.1	-356.25
23309	9.2233e-002	4.7273	0.1	1321.1
23310	0.18447	5.	0.1	-903.68
23311	0.2767	4.9091	0.1	-345.52
23312	9.2233e-002	4.9091	0.1	1279.6
23313	0.18447	5.1818	0.1	-856.43
23314	0.2767	5.0909	0.1	-330.93
23315	9.2233e-002	5.0909	0.1	1223.7
23316	0.18447	5.3636	0.1	-786.15
23317	0.2767	5.2727	0.1	-310.92
23318	9.2233e-002	5.2727	0.1	1145.1
23319	0.18447	5.5455	0.1	-676.46
23320	0.2767	5.4545	0.1	-279.66
23321	9.2233e-002	5.4545	0.1	1028.7
23322	0.18447	5.7273	0.1	-448.22
23323	0.2767	5.6364	0.1	-235.76
23324	9.2233e-002	5.6364	0.1	831.45
23325	0.2767	5.8182	0.1	-164.72
23326	9.2233e-002	5.8182	0.1	400.33
23327	0.18447	5.9091	0.1	-223.61
23328	0.36893	0.27273	0.1	90.426
23329	0.46117	0.18182	0.1	-95.87
23330	0.36893	9.0909e-002	0.1	-132.16
23331	0.36893	0.45455	0.1	161.75
23332	0.46117	0.36364	0.1	48.86
23333	0.36893	0.63636	0.1	195.62
23334	0.46117	0.54545	0.1	67.343
23335	0.36893	0.81818	0.1	214.55
23336	0.46117	0.72727	0.1	76.591
23337	0.36893	1.	0.1	227.19
23338	0.46117	0.90909	0.1	82.419
23339	0.36893	1.1818	0.1	236.23
23340	0.46117	1.0909	0.1	86.454
23341	0.36893	1.3636	0.1	242.93
23342	0.46117	1.2727	0.1	89.382
23343	0.36893	1.5455	0.1	248.01
23344	0.46117	1.4545	0.1	91.583
23345	0.36893	1.7273	0.1	251.92
23346	0.46117	1.6364	0.1	93.268
23347	0.36893	1.9091	0.1	254.95
23348	0.46117	1.8182	0.1	94.57
23349	0.36893	2.0909	0.1	257.28
23350	0.46117	2.	0.1	95.575
23351	0.36893	2.2727	0.1	259.04
23352	0.46117	2.1818	0.1	96.344
23353	0.36893	2.4545	0.1	260.33
23354	0.46117	2.3636	0.1	96.919
23355	0.36893	2.6364	0.1	261.22
23356	0.46117	2.5455	0.1	97.329
23357	0.36893	2.8182	0.1	261.73
23358	0.46117	2.7273	0.1	97.592
23359	0.36893	3.	0.1	261.9
23360	0.46117	2.9091	0.1	97.721
23361	0.36893	3.1818	0.1	261.73
23362	0.46117	3.0909	0.1	97.721
23363	0.36893	3.3636	0.1	261.22
23364	0.46117	3.2727	0.1	97.592
23365	0.36893	3.5455	0.1	260.33
23366	0.46117	3.4545	0.1	97.329
23367	0.36893	3.7273	0.1	259.04
23368	0.46117	3.6364	0.1	96.919
23369	0.36893	3.9091	0.1	257.28
23370	0.46117	3.8182	0.1	96.344
23371	0.36893	4.0909	0.1	254.95
23372	0.46117	4.	0.1	95.575
23373	0.36893	4.2727	0.1	251.92
23374	0.46117	4.1818	0.1	94.57
23375	0.36893	4.4545	0.1	248.01
23376	0.46117	4.3636	0.1	93.268
23377	0.36893	4.6364	0.1	242.93
23378	0.46117	4.5455	0.1	91.583
23379	0.36893	4.8182	0.1	236.23
23380	0.46117	4.7273	0.1	89.382
23381	0.36893	5.	0.1	227.19
23382	0.46117	4.9091	0.1	86.454
23383	0.36893	5.1818	0.1	214.55
23384	0.46117	5.0909	0.1	82.419
23385	0.36893	5.3636	0.1	195.62
23386	0.46117	5.2727	0.1	76.591
23387	0.36893	5.5455	0.1	161.75
23388	0.46117	5.4545	0.1	67.343
23389	0.36893	5.7273	0.1	90.426
23390	0.46117	5.6364	0.1	48.86
23391	0.46117	5.8182	0.1	-95.87
23392	0.36893	5.9091	0.1	-132.16
23393	0.5534	0.27273	0.1	-33.782
23394	0.64563	0.18182	0.1	-86.749
23395	0.5534	9.0909e-002	0.1	-107.23
23396	0.5534	0.45455	0.1	-44.57
23397	0.64563	0.36364	0.1	-17.39
23398	0.5534	0.63636	0.1	-51.472
23399	0.64563	0.54545	0.1	-19.303
23400	0.5534	0.81818	0.1	-55.464
23401	0.64563	0.72727	0.1	-20.72
23402	0.5534	1.	0.1	-58.294
23403	0.64563	0.90909	0.1	-21.714
23404	0.5534	1.1818	0.1	-60.386
23405	0.64563	1.0909	0.1	-22.513
23406	0.5534	1.3636	0.1	-61.957
23407	0.64563	1.2727	0.1	-23.121
23408	0.5534	1.5455	0.1	-63.157
23409	0.64563	1.4545	0.1	-23.593
23410	0.5534	1.7273	0.1	-64.085
23411	0.64563	1.6364	0.1	-23.958
23412	0.5534	1.9091	0.1	-64.803
23413	0.64563	1.8182	0.1	-24.242
23414	0.5534	2.0909	0.1	-65.357
23415	0.64563	2.	0.1	-24.463
23416	0.5534	2.2727	0.1	-65.778
23417	0.64563	2.1818	0.1	-24.632
23418	0.5534	2.4545	0.1	-66.086
23419	0.64563	2.3636	0.1	-24.758
23420	0.5534	2.6364	0.1	-66.297
23421	0.64563	2.5455	0.1	-24.848
23422	0.5534	2.8182	0.1	-66.419
23423	0.64563	2.7273	0.1	-24.906
23424	0.5534	3.	0.1	-66.46
23425	0.64563	2.9091	0.1	-24.935
23426	0.5534	3.1818	0.1	-66.419
23427	0.64563	3.0909	0.1	-24.935
23428	0.5534	3.3636	0.1	-66.297
23429	0.64563	3.2727	0.1	-24.906
23430	0.5534	3.5455	0.1	-66.086
23431	0.64563	3.4545	0.1	-24.848
23432	0.5534	3.7273	0.1	-65.778
23433	0.64563	3.6364	0.1	-24.758
23434	0.5534	3.9091	0.1	-65.357
23435	0.64563	3.8182	0.1	-24.632
23436	0.5534	4.0909	0.1	-64.803
23437	0.64563	4.	0.1	-24.463
23438	0.5534	4.2727	0.1	-64.085
23439	0.64563	4.1818	0.1	-24.242
23440	0.5534	4.4545	0.1	-63.157
23441	0.64563	4.3636	0.1	-23.958
23442	0.5534	4.6364	0.1	-61.957
23443	0.64563	4.5455	0.1	-23.593
23444	0.5534	4.8182	0.1	-60.386
23445	0.64563	4.7273	0.1	-23.121
23446	0.5534	5.	0.1	-58.294
23447	0.64563	4.9091	0.1	-22.513
23448	0.5534	5.1818	0.1	-55.464
23449	0.64563	5.0909	0.1	-21.714
23450	0.5534	5.3636	0.1	-51.472
23451	0.64563	5.2727	0.1	-20.72
23452	0.5534	5.5455	0.1	-44.57
23453	0.64563	5.4545	0.1	-19.303
23454	0.5534	5.7273	0.1	-33.782
23455	0.64563	5.6364	0.1	-17.39
23456	0.64563	5.8182	0.1	-86.749
23457	0.5534	5.9091	0.1	-107.23
23458	0.73786	0.27273	0.1	-0.39786
23459	0.8301	0.18182	0.1	-61.297
23460	0.73786	9.0909e-002	0.1	-72.519
23461	0.73786	0.45455	0.1	8.44
23462	0.8301	0.36364	0.1	0.4044
23463	0.73786	0.63636	0.1	11.596
23464	0.8301	0.54545	0.1	3.3331
23465	0.73786	0.81818	0.1	13.088
23466	0.8301	0.72727	0.1	4.2094
23467	0.73786	1.	0.1	14.093
23468	0.8301	0.90909	0.1	4.8359
23469	0.73786	1.1818	0.1	14.764
23470	0.8301	1.0909	0.1	5.2021
23471	0.73786	1.3636	0.1	15.248
23472	0.8301	1.2727	0.1	5.4534
23473	0.73786	1.5455	0.1	15.609
23474	0.8301	1.4545	0.1	5.6298
23475	0.73786	1.7273	0.1	15.886
23476	0.8301	1.6364	0.1	5.7614
23477	0.73786	1.9091	0.1	16.099
23478	0.8301	1.8182	0.1	5.8617
23479	0.73786	2.0909	0.1	16.263
23480	0.8301	2.	0.1	5.9392
23481	0.73786	2.2727	0.1	16.388
23482	0.8301	2.1818	0.1	5.9986
23483	0.73786	2.4545	0.1	16.48
23484	0.8301	2.3636	0.1	6.0432
23485	0.73786	2.6364	0.1	16.543
23486	0.8301	2.5455	0.1	6.0751
23487	0.73786	2.8182	0.1	16.579
23488	0.8301	2.7273	0.1	6.0957
23489	0.73786	3.	0.1	16.591
23490	0.8301	2.9091	0.1	6.1058
23491	0.73786	3.1818	0.1	16.579
23492	0.8301	3.0909	0.1	6.1058
23493	0.73786	3.3636	0.1	16.543
23494	0.8301	3.2727	0.1	6.0957
23495	0.73786	3.5455	0.1	16.48
23496	0.8301	3.4545	0.1	6.0751
23497	0.73786	3.7273	0.1	16.388
23498	0.8301	3.6364	0.1	6.0432
23499	0.73786	3.9091	0.1	16.263
23500	0.8301	3.8182	0.1	5.9986
23501	0.73786	4.0909	0.1	16.099
23502	0.8301	4.	0.1	5.9392
23503	0.73786	4.2727	0.1	15.886
23504	0.8301	4.1818	0.1	5.8617
23505	0.73786	4.4545	0.1	15.609
23506	0.8301	4.3636	0.1	5.7614
23507	0.73786	4.6364	0.1	15.248
23508	0.8301	4.5455	0.1	5.6298
23509	0.73786	4.8182	0.1	14.764
23510	0.8301	4.7273	0.1	5.4534
23511	0.73786	5.	0.1	14.093
23512	0.8301	4.9091	0.1	5.2021
23513	0.73786	5.1818	0.1	13.088
23514	0.8301	5.0909	0.1	4.8359
23515	0.73786	5.3636	0.1	11.596
23516	0.8301	5.2727	0.1	4.2094
23517	0.73786	5.5455	0.1	8.44
23518	0.8301	5.4545	0.1	3.3331
23519	0.73786	5.7273	0.1	-0.39786
23520	0.8301	5.6364	0.1	0.4044
23521	0.8301	5.8182	0.1	-61.297
23522	0.73786	5.9091	0.1	-72.519
23523	0.92233	0.27273	0.1	-7.056
23524	1.0146	0.18182	0.1	-43.124
23525	0.92233	9.0909e-002	0.1	-51.274
23526	0.92233	0.45455	0.1	-4.2594
23527	1.0146	0.36364	0.1	-3.3123
23528	0.92233	0.63636	0.1	-3.9447
23529	1.0146	0.54545	0.1	-2.0019
23530	0.92233	0.81818	0.1	-3.9958
23531	1.0146	0.72727	0.1	-1.8592
23532	0.92233	1.	0.1	-4.0319
23533	1.0146	0.90909	0.1	-1.7204
23534	0.92233	1.1818	0.1	-4.0966
23535	1.0146	1.0909	0.1	-1.6808
23536	0.92233	1.3636	0.1	-4.1589
23537	1.0146	1.2727	0.1	-1.6677
23538	0.92233	1.5455	0.1	-4.2146
23539	1.0146	1.4545	0.1	-1.6714
23540	0.92233	1.7273	0.1	-4.2605
23541	1.0146	1.6364	0.1	-1.6796
23542	0.92233	1.9091	0.1	-4.2968
23543	1.0146	1.8182	0.1	-1.6885
23544	0.92233	2.0909	0.1	-4.3248
23545	1.0146	2.	0.1	-1.696
23546	0.92233	2.2727	0.1	-4.3458
23547	1.0146	2.1818	0.1	-1.702
23548	0.92233	2.4545	0.1	-4.361
23549	1.0146	2.3636	0.1	-1.7064
23550	0.92233	2.6364	0.1	-4.3713
23551	1.0146	2.5455	0.1	-1.7095
23552	0.92233	2.8182	0.1	-4.3773
23553	1.0146	2.7273	0.1	-1.7113
23554	0.92233	3.	0.1	-4.3792
23555	1.0146	2.9091	0.1	-1.7123
23556	0.92233	3.1818	0.1	-4.3773
23557	1.0146	3.0909	0.1	-1.7123
23558	0.92233	3.3636	0.1	-4.3713
23559	1.0146	3.2727	0.1	-1.7113
23560	0.92233	3.5455	0.1	-4.361
23561	1.0146	3.4545	0.1	-1.7095
23562	0.92233	3.7273	0.1	-4.3458
23563	1.0146	3.6364	0.1	-1.7064
23564	0.92233	3.9091	0.1	-4.3248
23565	1.0146	3.8182	0.1	-1.702
23566	0.92233	4.0909	0.1	-4.2968
23567	1.0146	4.	0.1	-1.696
23568	0.92233	4.2727	0.1	-4.2605
23569	1.0146	4.1818	0.1	-1.6884
23570	0.92233	4.4545	0.1	-4.2146
23571	1.0146	4.3636	0.1	-1.6796
23572	0.92233	4.6364	0.1	-4.1589
23573	1.0146	4.5455	0.1	-1.6714
23574	0.92233	4.8182	0.1	-4.0966
23575	1.0146	4.7273	0.1	-1.6677
23576	0.92233	5.	0.1	-4.0319
23577	1.0146	4.9091	0.1	-1.6808
23578	0.92233	5.1818	0.1	-3.9958
23579	1.0146	5.0909	0.1	-1.7204
23580	0.92233	5.3636	0.1	-3.9447
23581	1.0146	5.2727	0.1	-1.8592
23582	0.92233	5.5455	0.1	-4.2594
23583	1.0146	5.4545	0.1	-2.0019
23584	0.92233	5.7273	0.1	-7.056
23585	1.0146	5.6364	0.1	-3.3123
23586	1.0146	5.8182	0.1	-43.124
23587	0.92233	5.9091	0.1	-51.274
23588	1.1068	0.27273	0.1	-3.9761
23589	1.199	0.18182	0.1	-28.329
23590	1.1068	9.0909e-002	0.1	-33.569
23591	1.1068	0.45455	0.1	-0.72122
23592	1.199	0.36364	0.1	-1.8877
23593	1.1068	0.63636	0.1	0.1649
23594	1.199	0.54545	0.1	-0.45354
23595	1.1068	0.81818	0.1	0.45154
23596	1.199	0.72727	0.1	-0.19417
23597	1.1068	1.	0.1	0.64929
23598	1.199	0.90909	0.1	2.6338e-002
23599	1.1068	1.1818	0.1	0.75849
23600	1.199	1.0909	0.1	0.13427
23601	1.1068	1.3636	0.1	0.82585
23602	1.199	1.2727	0.1	0.20075
23603	1.1068	1.5455	0.1	0.86728
23604	1.199	1.4545	0.1	0.23754
23605	1.1068	1.7273	0.1	0.89466
23606	1.199	1.6364	0.1	0.25925
23607	1.1068	1.9091	0.1	0.91376
23608	1.199	1.8182	0.1	0.27238
23609	1.1068	2.0909	0.1	0.92773
23610	1.199	2.	0.1	0.28089
23611	1.1068	2.2727	0.1	0.93814
23612	1.199	2.1818	0.1	0.28672
23613	1.1068	2.4545	0.1	0.94577
23614	1.199	2.3636	0.1	0.29084
23615	1.1068	2.6364	0.1	0.95103
23616	1.199	2.5455	0.1	0.29372
23617	1.1068	2.8182	0.1	0.95413
23618	1.199	2.7273	0.1	0.29558
23619	1.1068	3.	0.1	0.95515
23620	1.199	2.9091	0.1	0.29649
23621	1.1068	3.1818	0.1	0.95413
23622	1.199	3.0909	0.1	0.29649
23623	1.1068	3.3636	0.1	0.95103
23624	1.199	3.2727	0.1	0.29558
23625	1.1068	3.5455	0.1	0.94577
23626	1.199	3.4545	0.1	0.29372
23627	1.1068	3.7273	0.1	0.93814
23628	1.199	3.6364	0.1	0.29084
23629	1.1068	3.9091	0.1	0.92773
23630	1.199	3.8182	0.1	0.28672
23631	1.1068	4.0909	0.1	0.91376
23632	1.199	4.	0.1	0.28089
23633	1.1068	4.2727	0.1	0.89466
23634	1.199	4.1818	0.1	0.27238
23635	1.1068	4.4545	0.1	0.86728
23636	1.199	4.3636	0.1	0.25925
23637	1.1068	4.6364	0.1	0.82585
23638	1.199	4.5455	0.1	0.23754
23639	1.1068	4.8182	0.1	0.75849
23640	1.199	4.7273	0.1	0.20075
23641	1.1068	5.	0.1	0.64929
23642	1.199	4.9091	0.1	0.13427
23643	1.1068	5.1818	0.1	0.45154
23644	1.199	5.0909	0.1	2.6338e-002
23645	1.1068	5.3636	0.1	0.1649
23646	1.199	5.2727	0.1	-0.19417
23647	1.1068	5.5455	0.1	-0.72122
23648	1.199	5.4545	0.1	-0.45354
23649	1.1068	5.7273	0.1	-3.9761
23650	1.199	5.6364	0.1	-1.8877
23651	1.199	5.8182	0.1	-28.329
23652	1.1068	5.9091	0.1	-33.569
23653	1.2913	0.27273	0.1	-3.6382
23654	1.3835	0.18182	0.1	-18.298
23655	1.2913	9.0909e-002	0.1	-20.257
23656	1.2913	0.45455	0.1	-1.3594
23657	1.3835	0.36364	0.1	-1.8656
23658	1.2913	0.63636	0.1	-0.74885
23659	1.3835	0.54545	0.1	-0.70163
23660	1.2913	0.81818	0.1	-0.59158
23661	1.3835	0.72727	0.1	-0.52738
23662	1.2913	1.	0.1	-0.47362
23663	1.3835	0.90909	0.1	-0.35899
23664	1.2913	1.1818	0.1	-0.41454
23665	1.3835	1.0909	0.1	-0.2783
23666	1.2913	1.3636	0.1	-0.38203
23667	1.3835	1.2727	0.1	-0.22797
23668	1.2913	1.5455	0.1	-0.36697
23669	1.3835	1.4545	0.1	-0.20182
23670	1.2913	1.7273	0.1	-0.36074
23671	1.3835	1.6364	0.1	-0.18842
23672	1.2913	1.9091	0.1	-0.35894
23673	1.3835	1.8182	0.1	-0.18236
23674	1.2913	2.0909	0.1	-0.35904
23675	1.3835	2.	0.1	-0.18001
23676	1.2913	2.2727	0.1	-0.35977
23677	1.3835	2.1818	0.1	-0.17942
23678	1.2913	2.4545	0.1	-0.36057
23679	1.3835	2.3636	0.1	-0.17956
23680	1.2913	2.6364	0.1	-0.3612
23681	1.3835	2.5455	0.1	-0.1799
23682	1.2913	2.8182	0.1	-0.36158
23683	1.3835	2.7273	0.1	-0.18021
23684	1.2913	3.	0.1	-0.36171
23685	1.3835	2.9091	0.1	-0.18038
23686	1.2913	3.1818	0.1	-0.36158
23687	1.3835	3.0909	0.1	-0.18038
23688	1.2913	3.3636	0.1	-0.3612
23689	1.3835	3.2727	0.1	-0.18021
23690	1.2913	3.5455	0.1	-0.36057
23691	1.3835	3.4545	0.1	-0.1799
23692	1.2913	3.7273	0.1	-0.35977
23693	1.3835	3.6364	0.1	-0.17956
23694	1.2913	3.9091	0.1	-0.35904
23695	1.3835	3.8182	0.1	-0.17942
23696	1.2913	4.0909	0.1	-0.35894
23697	1.3835	4.	0.1	-0.18001
23698	1.2913	4.2727	0.1	-0.36074
23699	1.3835	4.1818	0.1	-0.18236
23700	1.2913	4.4545	0.1	-0.36697
23701	1.3835	4.3636	0.1	-0.18842
23702	1.2913	4.6364	0.1	-0.38203
23703	1.3835	4.5455	0.1	-0.20182
23704	1.2913	4.8182	0.1	-0.41454
23705	1.3835	4.7273	0.1	-0.22797
23706	1.2913	5.	0.1	-0.47362
23707	1.3835	4.9091	0.1	-0.2783
23708	1.2913	5.1818	0.1	-0.59158
23709	1.3835	5.0909	0.1	-0.35899
23710	1.2913	5.3636	0.1	-0.74885
23711	1.3835	5.2727	0.1	-0.52738
23712	1.2913	5.5455	0.1	-1.3594
23713	1.3835	5.4545	0.1	-0.70163
23714	1.2913	5.7273	0.1	-3.6382
23715	1.3835	5.6364	0.1	-1.8656
23716	1.3835	5.8182	0.1	-18.298
23717	1.2913	5.9091	0.1	-20.257
23718	1.4757	0.27273	0.1	-2.8506
23719	1.568	0.18182	0.1	-11.861
23720	1.4757	9.0909e-002	0.1	-10.093
23721	1.4757	0.45455	0.1	-1.0028
23722	1.568	0.36364	0.1	-1.5665
23723	1.4757	0.63636	0.1	-0.42903
23724	1.568	0.54545	0.1	-0.53117
23725	1.4757	0.81818	0.1	-0.27252
23726	1.568	0.72727	0.1	-0.37765
23727	1.4757	1.	0.1	-0.15144
23728	1.568	0.90909	0.1	-0.22267
23729	1.4757	1.1818	0.1	-8.4263e-002
23730	1.568	1.0909	0.1	-0.14406
23731	1.4757	1.3636	0.1	-4.2949e-002
23732	1.568	1.2727	0.1	-9.177e-002
23733	1.4757	1.5455	0.1	-2.0061e-002
23734	1.568	1.4545	0.1	-6.1952e-002
23735	1.4757	1.7273	0.1	-7.8441e-003
23736	1.568	1.6364	0.1	-4.5079e-002
23737	1.4757	1.9091	0.1	-1.8804e-003
23738	1.568	1.8182	0.1	-3.6388e-002
23739	1.4757	2.0909	0.1	7.2627e-004
23740	1.568	2.	0.1	-3.2329e-002
23741	1.4757	2.2727	0.1	1.6359e-003
23742	1.568	2.1818	0.1	-3.0789e-002
23743	1.4757	2.4545	0.1	1.7832e-003
23744	1.568	2.3636	0.1	-3.0478e-002
23745	1.4757	2.6364	0.1	1.6614e-003
23746	1.568	2.5455	0.1	-3.0666e-002
23747	1.4757	2.8182	0.1	1.5167e-003
23748	1.568	2.7273	0.1	-3.0954e-002
23749	1.4757	3.	0.1	1.4583e-003
23750	1.568	2.9091	0.1	-3.1139e-002
23751	1.4757	3.1818	0.1	1.5167e-003
23752	1.568	3.0909	0.1	-3.1139e-002
23753	1.4757	3.3636	0.1	1.6615e-003
23754	1.568	3.2727	0.1	-3.0954e-002
23755	1.4757	3.5455	0.1	1.7832e-003
23756	1.568	3.4545	0.1	-3.0666e-002
23757	1.4757	3.7273	0.1	1.6359e-003
23758	1.568	3.6364	0.1	-3.0478e-002
23759	1.4757	3.9091	0.1	7.264e-004
23760	1.568	3.8182	0.1	-3.0789e-002
23761	1.4757	4.0909	0.1	-1.8803e-003
23762	1.568	4.	0.1	-3.2329e-002
23763	1.4757	4.2727	0.1	-7.8439e-003
23764	1.568	4.1818	0.1	-3.6388e-002
23765	1.4757	4.4545	0.1	-2.0061e-002
23766	1.568	4.3636	0.1	-4.5078e-002
23767	1.4757	4.6364	0.1	-4.2949e-002
23768	1.568	4.5455	0.1	-6.1952e-002
23769	1.4757	4.8182	0.1	-8.4263e-002
23770	1.568	4.7273	0.1	-9.1769e-002
23771	1.4757	5.	0.1	-0.15144
23772	1.568	4.9091	0.1	-0.14406
23773	1.4757	5.1818	0.1	-0.27252
23774	1.568	5.0909	0.1	-0.22267
23775	1.4757	5.3636	0.1	-0.42903
23776	1.568	5.2727	0.1	-0.37765
23777	1.4757	5.5455	0.1	-1.0028
23778	1.568	5.4545	0.1	-0.53117
23779	1.4757	5.7273	0.1	-2.8506
23780	1.568	5.6364	0.1	-1.5665
23781	1.568	5.8182	0.1	-11.861
23782	1.4757	5.9091	0.1	-10.093
23783	1.6602	0.27273	0.1	-2.3708
23784	1.7524	0.18182	0.1	-7.9846
23785	1.6602	9.0909e-002	0.1	-3.8651
23786	1.6602	0.45455	0.1	-0.93129
23787	1.7524	0.36364	0.1	-1.3904
23788	1.6602	0.63636	0.1	-0.43796
23789	1.7524	0.54545	0.1	-0.48644
23790	1.6602	0.81818	0.1	-0.30959
23791	1.7524	0.72727	0.1	-0.36163
23792	1.6602	1.	0.1	-0.20524
23793	1.7524	0.90909	0.1	-0.22657
23794	1.6602	1.1818	0.1	-0.14532
23795	1.7524	1.0909	0.1	-0.15647
23796	1.6602	1.3636	0.1	-0.10663
23797	1.7524	1.2727	0.1	-0.10755
23798	1.6602	1.5455	0.1	-8.4121e-002
23799	1.7524	1.4545	0.1	-7.8039e-002
23800	1.6602	1.7273	0.1	-7.1606e-002
23801	1.7524	1.6364	0.1	-6.0312e-002
23802	1.6602	1.9091	0.1	-6.5371e-002
23803	1.7524	1.8182	0.1	-5.0545e-002
23804	1.6602	2.0909	0.1	-6.2746e-002
23805	1.7524	2.	0.1	-4.5628e-002
23806	1.6602	2.2727	0.1	-6.2048e-002
23807	1.7524	2.1818	0.1	-4.3549e-002
23808	1.6602	2.4545	0.1	-6.2232e-002
23809	1.7524	2.3636	0.1	-4.2977e-002
23810	1.6602	2.6364	0.1	-6.2685e-002
23811	1.7524	2.5455	0.1	-4.3085e-002
23812	1.6602	2.8182	0.1	-6.3067e-002
23813	1.7524	2.7273	0.1	-4.3377e-002
23814	1.6602	3.	0.1	-6.3211e-002
23815	1.7524	2.9091	0.1	-4.3582e-002
23816	1.6602	3.1818	0.1	-6.3067e-002
23817	1.7524	3.0909	0.1	-4.3582e-002
23818	1.6602	3.3636	0.1	-6.2685e-002
23819	1.7524	3.2727	0.1	-4.3377e-002
23820	1.6602	3.5455	0.1	-6.2232e-002
23821	1.7524	3.4545	0.1	-4.3085e-002
23822	1.6602	3.7273	0.1	-6.2048e-002
23823	1.7524	3.6364	0.1	-4.2977e-002
23824	1.6602	3.9091	0.1	-6.2746e-002
23825	1.7524	3.8182	0.1	-4.3549e-002
23826	1.6602	4.0909	0.1	-6.5371e-002
23827	1.7524	4.	0.1	-4.5628e-002
23828	1.6602	4.2727	0.1	-7.1606e-002
23829	1.7524	4.1818	0.1	-5.0545e-002
23830	1.6602	4.4545	0.1	-8.4121e-002
23831	1.7524	4.3636	0.1	-6.0311e-002
23832	1.6602	4.6364	0.1	-0.10663
23833	1.7524	4.5455	0.1	-7.8038e-002
23834	1.6602	4.8182	0.1	-0.14532
23835	1.7524	4.7273	0.1	-0.10755
23836	1.6602	5.	0.1	-0.20524
23837	1.7524	4.9091	0.1	-0.15647
23838	1.6602	5.1818	0.1	-0.30959
23839	1.7524	5.0909	0.1	-0.22657
23840	1.6602	5.3636	0.1	-0.43796
23841	1.7524	5.2727	0.1	-0.36163
23842	1.6602	5.5455	0.1	-0.93129
23843	1.7524	5.4545	0.1	-0.48644
23844	1.6602	5.7273	0.1	-2.3708
23845	1.7524	5.6364	0.1	-1.3904
23846	1.7524	5.8182	0.1	-7.9846
23847	1.6602	5.9091	0.1	-3.8651
23848	1.8447	0.27273	0.1	-1.9617
23849	1.9369	0.18182	0.1	-5.613
23850	1.8447	9.0909e-002	0.1	-1.805
23851	1.8447	0.45455	0.1	-0.81367
23852	1.9369	0.36364	0.1	-1.2244
23853	1.8447	0.63636	0.1	-0.37539
23854	1.9369	0.54545	0.1	-0.42424
23855	1.8447	0.81818	0.1	-0.26346
23856	1.9369	0.72727	0.1	-0.31943
23857	1.8447	1.	0.1	-0.16942
23858	1.9369	0.90909	0.1	-0.19956
23859	1.8447	1.1818	0.1	-0.11344
23860	1.9369	1.0909	0.1	-0.13609
23861	1.8447	1.3636	0.1	-7.5409e-002
23862	1.9369	1.2727	0.1	-8.9962e-002
23863	1.8447	1.5455	0.1	-5.1731e-002
23864	1.9369	1.4545	0.1	-6.0588e-002
23865	1.8447	1.7273	0.1	-3.7433e-002
23866	1.9369	1.6364	0.1	-4.1771e-002
23867	1.8447	1.9091	0.1	-2.9442e-002
23868	1.9369	1.8182	0.1	-3.05e-002
23869	1.8447	2.0909	0.1	-2.5384e-002
23870	1.9369	2.	0.1	-2.414e-002
23871	1.8447	2.2727	0.1	-2.3645e-002
23872	1.9369	2.1818	0.1	-2.0884e-002
23873	1.8447	2.4545	0.1	-2.314e-002
23874	1.9369	2.3636	0.1	-1.9446e-002
23875	1.8447	2.6364	0.1	-2.3177e-002
23876	1.9369	2.5455	0.1	-1.8973e-002
23877	1.8447	2.8182	0.1	-2.3343e-002
23878	1.9369	2.7273	0.1	-1.8917e-002
23879	1.8447	3.	0.1	-2.342e-002
23880	1.9369	2.9091	0.1	-1.8962e-002
23881	1.8447	3.1818	0.1	-2.3342e-002
23882	1.9369	3.0909	0.1	-1.8962e-002
23883	1.8447	3.3636	0.1	-2.3177e-002
23884	1.9369	3.2727	0.1	-1.8917e-002
23885	1.8447	3.5455	0.1	-2.314e-002
23886	1.9369	3.4545	0.1	-1.8973e-002
23887	1.8447	3.7273	0.1	-2.3645e-002
23888	1.9369	3.6364	0.1	-1.9446e-002
23889	1.8447	3.9091	0.1	-2.5384e-002
23890	1.9369	3.8182	0.1	-2.0884e-002
23891	1.8447	4.0909	0.1	-2.9442e-002
23892	1.9369	4.	0.1	-2.414e-002
23893	1.8447	4.2727	0.1	-3.7433e-002
23894	1.9369	4.1818	0.1	-3.05e-002
23895	1.8447	4.4545	0.1	-5.173e-002
23896	1.9369	4.3636	0.1	-4.1771e-002
23897	1.8447	4.6364	0.1	-7.5409e-002
23898	1.9369	4.5455	0.1	-6.0588e-002
23899	1.8447	4.8182	0.1	-0.11344
23900	1.9369	4.7273	0.1	-8.9962e-002
23901	1.8447	5.	0.1	-0.16942
23902	1.9369	4.9091	0.1	-0.13609
23903	1.8447	5.1818	0.1	-0.26346
23904	1.9369	5.0909	0.1	-0.19956
23905	1.8447	5.3636	0.1	-0.37539
23906	1.9369	5.2727	0.1	-0.31943
23907	1.8447	5.5455	0.1	-0.81367
23908	1.9369	5.4545	0.1	-0.42424
23909	1.8447	5.7273	0.1	-1.9617
23910	1.9369	5.6364	0.1	-1.2244
23911	1.9369	5.8182	0.1	-5.613
23912	1.8447	5.9091	0.1	-1.805
23913	2.0291	0.27273	0.1	-1.647
23914	2.1214	0.18182	0.1	-4.1087
23915	2.0291	9.0909e-002	0.1	-1.1945
23916	2.0291	0.45455	0.1	-0.72743
23917	2.1214	0.36364	0.1	-1.088
23918	2.0291	0.63636	0.1	-0.33911
23919	2.1214	0.54545	0.1	-0.37719
23920	2.0291	0.81818	0.1	-0.24275
23921	2.1214	0.72727	0.1	-0.28941
23922	2.0291	1.	0.1	-0.15915
23923	2.1214	0.90909	0.1	-0.18317
23924	2.0291	1.1818	0.1	-0.10816
23925	2.1214	1.0909	0.1	-0.12628
23926	2.0291	1.3636	0.1	-7.2103e-002
23927	2.1214	1.2727	0.1	-8.3546e-002
23928	2.0291	1.5455	0.1	-4.8449e-002
23929	2.1214	1.4545	0.1	-5.5142e-002
23930	2.0291	1.7273	0.1	-3.3218e-002
23931	2.1214	1.6364	0.1	-3.5963e-002
23932	2.0291	1.9091	0.1	-2.3959e-002
23933	2.1214	1.8182	0.1	-2.368e-002
23934	2.0291	2.0909	0.1	-1.8664e-002
23935	2.1214	2.	0.1	-1.6125e-002
23936	2.0291	2.2727	0.1	-1.5892e-002
23937	2.1214	2.1818	0.1	-1.1751e-002
23938	2.0291	2.4545	0.1	-1.4611e-002
23939	2.1214	2.3636	0.1	-9.3974e-003
23940	2.0291	2.6364	0.1	-1.4125e-002
23941	2.1214	2.5455	0.1	-8.2478e-003
23942	2.0291	2.8182	0.1	-1.3993e-002
23943	2.1214	2.7273	0.1	-7.7543e-003
23944	2.0291	3.	0.1	-1.3975e-002
23945	2.1214	2.9091	0.1	-7.5854e-003
23946	2.0291	3.1818	0.1	-1.3993e-002
23947	2.1214	3.0909	0.1	-7.5854e-003
23948	2.0291	3.3636	0.1	-1.4125e-002
23949	2.1214	3.2727	0.1	-7.7542e-003
23950	2.0291	3.5455	0.1	-1.4611e-002
23951	2.1214	3.4545	0.1	-8.2477e-003
23952	2.0291	3.7273	0.1	-1.5892e-002
23953	2.1214	3.6364	0.1	-9.3973e-003
23954	2.0291	3.9091	0.1	-1.8664e-002
23955	2.1214	3.8182	0.1	-1.1751e-002
23956	2.0291	4.0909	0.1	-2.3958e-002
23957	2.1214	4.	0.1	-1.6125e-002
23958	2.0291	4.2727	0.1	-3.3218e-002
23959	2.1214	4.1818	0.1	-2.3679e-002
23960	2.0291	4.4545	0.1	-4.8448e-002
23961	2.1214	4.3636	0.1	-3.5963e-002
23962	2.0291	4.6364	0.1	-7.2102e-002
23963	2.1214	4.5455	0.1	-5.5141e-002
23964	2.0291	4.8182	0.1	-0.10816
23965	2.1214	4.7273	0.1	-8.3546e-002
23966	2.0291	5.	0.1	-0.15915
23967	2.1214	4.9091	0.1	-0.12628
23968	2.0291	5.1818	0.1	-0.24275
23969	2.1214	5.0909	0.1	-0.18317
23970	2.0291	5.3636	0.1	-0.33911
23971	2.1214	5.2727	0.1	-0.28941
23972	2.0291	5.5455	0.1	-0.72743
23973	2.1214	5.4545	0.1	-0.37719
23974	2.0291	5.7273	0.1	-1.647
23975	2.1214	5.6364	0.1	-1.088
23976	2.1214	5.8182	0.1	-4.1087
23977	2.0291	5.9091	0.1	-1.1945
23978	2.2136	0.27273	0.1	-1.3932
23979	2.3058	0.18182	0.1	-3.1077
23980	2.2136	9.0909e-002	0.1	-0.92013
23981	2.2136	0.45455	0.1	-0.64921
23982	2.3058	0.36364	0.1	-0.96998
23983	2.2136	0.63636	0.1	-0.30275
23984	2.3058	0.54545	0.1	-0.33492
23985	2.2136	0.81818	0.1	-0.21895
23986	2.3058	0.72727	0.1	-0.26083
23987	2.2136	1.	0.1	-0.14427
23988	2.3058	0.90909	0.1	-0.1662
23989	2.2136	1.1818	0.1	-9.7858e-002
23990	2.3058	1.0909	0.1	-0.11518
23991	2.2136	1.3636	0.1	-6.3968e-002
23992	2.3058	1.2727	0.1	-7.5833e-002
23993	2.2136	1.5455	0.1	-4.0756e-002
23994	2.3058	1.4545	0.1	-4.8761e-002
23995	2.2136	1.7273	0.1	-2.499e-002
23996	2.3058	1.6364	0.1	-2.9676e-002
23997	2.2136	1.9091	0.1	-1.4728e-002
23998	2.3058	1.8182	0.1	-1.677e-002
23999	2.2136	2.0909	0.1	-8.3155e-003
24000	2.3058	2.	0.1	-8.2845e-003
24001	2.2136	2.2727	0.1	-4.5149e-003
24002	2.3058	2.1818	0.1	-2.9328e-003
24003	2.2136	2.4545	0.1	-2.3987e-003
24004	2.3058	2.3636	0.1	2.9193e-004
24005	2.2136	2.6364	0.1	-1.311e-003
24006	2.3058	2.5455	0.1	2.1257e-003
24007	2.2136	2.8182	0.1	-8.1972e-004
24008	2.3058	2.7273	0.1	3.0832e-003
24009	2.2136	3.	0.1	-6.8207e-004
24010	2.3058	2.9091	0.1	3.485e-003
24011	2.2136	3.1818	0.1	-8.1967e-004
24012	2.3058	3.0909	0.1	3.485e-003
24013	2.2136	3.3636	0.1	-1.3109e-003
24014	2.3058	3.2727	0.1	3.0832e-003
24015	2.2136	3.5455	0.1	-2.3986e-003
24016	2.3058	3.4545	0.1	2.1258e-003
24017	2.2136	3.7273	0.1	-4.5147e-003
24018	2.3058	3.6364	0.1	2.9211e-004
24019	2.2136	3.9091	0.1	-8.3154e-003
24020	2.3058	3.8182	0.1	-2.9326e-003
24021	2.2136	4.0909	0.1	-1.4728e-002
24022	2.3058	4.	0.1	-8.2844e-003
24023	2.2136	4.2727	0.1	-2.499e-002
24024	2.3058	4.1818	0.1	-1.6769e-002
24025	2.2136	4.4545	0.1	-4.0756e-002
24026	2.3058	4.3636	0.1	-2.9676e-002
24027	2.2136	4.6364	0.1	-6.3967e-002
24028	2.3058	4.5455	0.1	-4.876e-002
24029	2.2136	4.8182	0.1	-9.7857e-002
24030	2.3058	4.7273	0.1	-7.5832e-002
24031	2.2136	5.	0.1	-0.14427
24032	2.3058	4.9091	0.1	-0.11518
24033	2.2136	5.1818	0.1	-0.21895
24034	2.3058	5.0909	0.1	-0.1662
24035	2.2136	5.3636	0.1	-0.30275
24036	2.3058	5.2727	0.1	-0.26083
24037	2.2136	5.5455	0.1	-0.64921
24038	2.3058	5.4545	0.1	-0.33492
24039	2.2136	5.7273	0.1	-1.3932
24040	2.3058	5.6364	0.1	-0.96998
24041	2.3058	5.8182	0.1	-3.1077
24042	2.2136	5.9091	0.1	-0.92013
24043	2.3981	0.27273	0.1	-1.1886
24044	2.4903	0.18182	0.1	-2.4132
24045	2.3981	9.0909e-002	0.1	-0.76061
24046	2.3981	0.45455	0.1	-0.58202
24047	2.4903	0.36364	0.1	-0.86826
24048	2.3981	0.63636	0.1	-0.27182
24049	2.4903	0.54545	0.1	-0.2985
24050	2.3981	0.81818	0.1	-0.19872
24051	2.4903	0.72727	0.1	-0.23572
24052	2.3981	1.	0.1	-0.13193
24053	2.4903	0.90909	0.1	-0.15117
24054	2.3981	1.1818	0.1	-8.9873e-002
24055	2.4903	1.0909	0.1	-0.10543
24056	2.3981	1.3636	0.1	-5.8359e-002
24057	2.4903	1.2727	0.1	-6.9385e-002
24058	2.3981	1.5455	0.1	-3.6021e-002
24059	2.4903	1.4545	0.1	-4.3905e-002
24060	2.3981	1.7273	0.1	-2.0188e-002
24061	2.4903	1.6364	0.1	-2.5307e-002
24062	2.3981	1.9091	0.1	-9.3246e-003
24063	2.4903	1.8182	0.1	-1.2178e-002
24064	2.3981	2.0909	0.1	-2.0857e-003
24065	2.4903	2.	0.1	-3.0938e-003
24066	2.3981	2.2727	0.1	2.5595e-003
24067	2.4903	2.1818	0.1	2.9953e-003
24068	2.3981	2.4545	0.1	5.4112e-003
24069	2.4903	2.3636	0.1	6.9352e-003
24070	2.3981	2.6364	0.1	7.0554e-003
24071	2.4903	2.5455	0.1	9.3635e-003
24072	2.3981	2.8182	0.1	7.8898e-003
24073	2.4903	2.7273	0.1	1.074e-002
24074	2.3981	3.	0.1	8.143e-003
24075	2.4903	2.9091	0.1	1.1356e-002
24076	2.3981	3.1818	0.1	7.8898e-003
24077	2.4903	3.0909	0.1	1.1356e-002
24078	2.3981	3.3636	0.1	7.0555e-003
24079	2.4903	3.2727	0.1	1.074e-002
24080	2.3981	3.5455	0.1	5.4114e-003
24081	2.4903	3.4545	0.1	9.3636e-003
24082	2.3981	3.7273	0.1	2.5597e-003
24083	2.4903	3.6364	0.1	6.9354e-003
24084	2.3981	3.9091	0.1	-2.0856e-003
24085	2.4903	3.8182	0.1	2.9955e-003
24086	2.3981	4.0909	0.1	-9.3243e-003
24087	2.4903	4.	0.1	-3.0936e-003
24088	2.3981	4.2727	0.1	-2.0188e-002
24089	2.4903	4.1818	0.1	-1.2178e-002
24090	2.3981	4.4545	0.1	-3.6021e-002
24091	2.4903	4.3636	0.1	-2.5307e-002
24092	2.3981	4.6364	0.1	-5.8358e-002
24093	2.4903	4.5455	0.1	-4.3904e-002
24094	2.3981	4.8182	0.1	-8.9873e-002
24095	2.4903	4.7273	0.1	-6.9384e-002
24096	2.3981	5.	0.1	-0.13193
24097	2.4903	4.9091	0.1	-0.10543
24098	2.3981	5.1818	0.1	-0.19872
24099	2.4903	5.0909	0.1	-0.15117
24100	2.3981	5.3636	0.1	-0.27182
24101	2.4903	5.2727	0.1	-0.23572
24102	2.3981	5.5455	0.1	-0.58202
24103	2.4903	5.4545	0.1	-0.2985
24104	2.3981	5.7273	0.1	-1.1886
24105	2.4903	5.6364	0.1	-0.86826
24106	2.4903	5.8182	0.1	-2.4132
24107	2.3981	5.9091	0.1	-0.76061
24108	2.5825	0.27273	0.1	-1.0212
24109	2.6748	0.18182	0.1	-1.9136
24110	2.5825	9.0909e-002	0.1	-0.65285
24111	2.5825	0.45455	0.1	-0.52294
24112	2.6748	0.36364	0.1	-0.77965
24113	2.5825	0.63636	0.1	-0.24415
24114	2.6748	0.54545	0.1	-0.26653
24115	2.5825	0.81818	0.1	-0.18005
24116	2.6748	0.72727	0.1	-0.21308
24117	2.5825	1.	0.1	-0.12016
24118	2.6748	0.90909	0.1	-0.13728
24119	2.5825	1.1818	0.1	-8.2085e-002
24120	2.6748	1.0909	0.1	-9.6212e-002
24121	2.5825	1.3636	0.1	-5.2956e-002
24122	2.6748	1.2727	0.1	-6.3291e-002
24123	2.5825	1.5455	0.1	-3.1738e-002
24124	2.6748	1.4545	0.1	-3.9511e-002
24125	2.5825	1.7273	0.1	-1.6178e-002
24126	2.6748	1.6364	0.1	-2.1665e-002
24127	2.5825	1.9091	0.1	-5.0525e-003
24128	2.6748	1.8182	0.1	-8.6276e-003
24129	2.5825	2.0909	0.1	2.7251e-003
24130	2.6748	2.	0.1	7.5572e-004
24131	2.5825	2.2727	0.1	7.9985e-003
24132	2.6748	2.1818	0.1	7.3339e-003
24133	2.5825	2.4545	0.1	1.1438e-002
24134	2.6748	2.3636	0.1	1.1803e-002
24135	2.5825	2.6364	0.1	1.3548e-002
24136	2.6748	2.5455	0.1	1.4699e-002
24137	2.5825	2.8182	0.1	1.4678e-002
24138	2.6748	2.7273	0.1	1.6417e-002
24139	2.5825	3.	0.1	1.5032e-002
24140	2.6748	2.9091	0.1	1.7213e-002
24141	2.5825	3.1818	0.1	1.4678e-002
24142	2.6748	3.0909	0.1	1.7213e-002
24143	2.5825	3.3636	0.1	1.3548e-002
24144	2.6748	3.2727	0.1	1.6417e-002
24145	2.5825	3.5455	0.1	1.1438e-002
24146	2.6748	3.4545	0.1	1.4699e-002
24147	2.5825	3.7273	0.1	7.9986e-003
24148	2.6748	3.6364	0.1	1.1803e-002
24149	2.5825	3.9091	0.1	2.7253e-003
24150	2.6748	3.8182	0.1	7.334e-003
24151	2.5825	4.0909	0.1	-5.0522e-003
24152	2.6748	4.	0.1	7.5602e-004
24153	2.5825	4.2727	0.1	-1.6177e-002
24154	2.6748	4.1818	0.1	-8.6273e-003
24155	2.5825	4.4545	0.1	-3.1737e-002
24156	2.6748	4.3636	0.1	-2.1664e-002
24157	2.5825	4.6364	0.1	-5.2956e-002
24158	2.6748	4.5455	0.1	-3.9511e-002
24159	2.5825	4.8182	0.1	-8.2085e-002
24160	2.6748	4.7273	0.1	-6.329e-002
24161	2.5825	5.	0.1	-0.12016
24162	2.6748	4.9091	0.1	-9.6211e-002
24163	2.5825	5.1818	0.1	-0.18005
24164	2.6748	5.0909	0.1	-0.13727
24165	2.5825	5.3636	0.1	-0.24415
24166	2.6748	5.2727	0.1	-0.21308
24167	2.5825	5.5455	0.1	-0.52294
24168	2.6748	5.4545	0.1	-0.26653
24169	2.5825	5.7273	0.1	-1.0212
24170	2.6748	5.6364	0.1	-0.77965
24171	2.6748	5.8182	0.1	-1.9136
24172	2.5825	5.9091	0.1	-0.65285
24173	2.767	0.27273	0.1	-0.88293
24174	2.8592	0.18182	0.1	-1.5436
24175	2.767	9.0909e-002	0.1	-0.57321
24176	2.767	0.45455	0.1	-0.47096
24177	2.8592	0.36364	0.1	-0.70204
24178	2.767	0.63636	0.1	-0.21963
24179	2.8592	0.54545	0.1	-0.23846
24180	2.767	0.81818	0.1	-0.16322
24181	2.8592	0.72727	0.1	-0.19278
24182	2.767	1.	0.1	-0.10939
24183	2.8592	0.90909	0.1	-0.12461
24184	2.767	1.1818	0.1	-7.4923e-002
24185	2.8592	1.0909	0.1	-8.7695e-002
24186	2.767	1.3636	0.1	-4.8116e-002
24187	2.8592	1.2727	0.1	-5.7673e-002
24188	2.767	1.5455	0.1	-2.816e-002
24189	2.8592	1.4545	0.1	-3.5617e-002
24190	2.767	1.7273	0.1	-1.3124e-002
24191	2.8592	1.6364	0.1	-1.869e-002
24192	2.767	1.9091	0.1	-2.0214e-003
24193	2.8592	1.8182	0.1	-5.9851e-003
24194	2.767	2.0909	0.1	6.0289e-003
24195	2.8592	2.	0.1	3.4448e-003
24196	2.767	2.2727	0.1	1.1709e-002
24197	2.8592	2.1818	0.1	1.0283e-002
24198	2.767	2.4545	0.1	1.5569e-002
24199	2.8592	2.3636	0.1	1.5095e-002
24200	2.767	2.6364	0.1	1.8031e-002
24201	2.8592	2.5455	0.1	1.8321e-002
24202	2.767	2.8182	0.1	1.9391e-002
24203	2.8592	2.7273	0.1	2.0292e-002
24204	2.767	3.	0.1	1.9825e-002
24205	2.8592	2.9091	0.1	2.1224e-002
24206	2.767	3.1818	0.1	1.9391e-002
24207	2.8592	3.0909	0.1	2.1224e-002
24208	2.767	3.3636	0.1	1.8031e-002
24209	2.8592	3.2727	0.1	2.0292e-002
24210	2.767	3.5455	0.1	1.557e-002
24211	2.8592	3.4545	0.1	1.8321e-002
24212	2.767	3.7273	0.1	1.1709e-002
24213	2.8592	3.6364	0.1	1.5095e-002
24214	2.767	3.9091	0.1	6.0292e-003
24215	2.8592	3.8182	0.1	1.0283e-002
24216	2.767	4.0909	0.1	-2.021e-003
24217	2.8592	4.	0.1	3.4451e-003
24218	2.767	4.2727	0.1	-1.3124e-002
24219	2.8592	4.1818	0.1	-5.9848e-003
24220	2.767	4.4545	0.1	-2.816e-002
24221	2.8592	4.3636	0.1	-1.8689e-002
24222	2.767	4.6364	0.1	-4.8116e-002
24223	2.8592	4.5455	0.1	-3.5616e-002
24224	2.767	4.8182	0.1	-7.4922e-002
24225	2.8592	4.7273	0.1	-5.7673e-002
24226	2.767	5.	0.1	-0.10939
24227	2.8592	4.9091	0.1	-8.7694e-002
24228	2.767	5.1818	0.1	-0.16322
24229	2.8592	5.0909	0.1	-0.12461
24230	2.767	5.3636	0.1	-0.21963
24231	2.8592	5.2727	0.1	-0.19278
24232	2.767	5.5455	0.1	-0.47096
24233	2.8592	5.4545	0.1	-0.23846
24234	2.767	5.7273	0.1	-0.88293
24235	2.8592	5.6364	0.1	-0.70203
24236	2.8592	5.8182	0.1	-1.5436
24237	2.767	5.9091	0.1	-0.57321
24238	2.9515	0.27273	0.1	-0.76774
24239	3.0437	0.18182	0.1	-1.2627
24240	2.9515	9.0909e-002	0.1	-0.51076
24241	2.9515	0.45455	0.1	-0.42498
24242	3.0437	0.36364	0.1	-0.63365
24243	2.9515	0.63636	0.1	-0.1978
24244	3.0437	0.54545	0.1	-0.21371
24245	2.9515	0.81818	0.1	-0.14796
24246	3.0437	0.72727	0.1	-0.17453
24247	2.9515	1.	0.1	-9.9461e-002
24248	3.0437	0.90909	0.1	-0.11307
24249	2.9515	1.1818	0.1	-6.8253e-002
24250	3.0437	1.0909	0.1	-7.9822e-002
24251	2.9515	1.3636	0.1	-4.3652e-002
24252	3.0437	1.2727	0.1	-5.2466e-002
24253	2.9515	1.5455	0.1	-2.5019e-002
24254	3.0437	1.4545	0.1	-3.2096e-002
24255	2.9515	1.7273	0.1	-1.0673e-002
24256	3.0437	1.6364	0.1	-1.6182e-002
24257	2.9515	1.9091	0.1	1.9272e-004
24258	3.0437	1.8182	0.1	-3.9776e-003
24259	2.9515	2.0909	0.1	8.2956e-003
24260	3.0437	2.	0.1	5.3023e-003
24261	2.9515	2.2727	0.1	1.4185e-002
24262	3.0437	2.1818	0.1	1.2208e-002
24263	2.9515	2.4545	0.1	1.8307e-002
24264	3.0437	2.3636	0.1	1.7196e-002
24265	2.9515	2.6364	0.1	2.1006e-002
24266	3.0437	2.5455	0.1	2.0623e-002
24267	2.9515	2.8182	0.1	2.2528e-002
24268	3.0437	2.7273	0.1	2.276e-002
24269	2.9515	3.	0.1	2.3019e-002
24270	3.0437	2.9091	0.1	2.3784e-002
24271	2.9515	3.1818	0.1	2.2528e-002
24272	3.0437	3.0909	0.1	2.3784e-002
24273	2.9515	3.3636	0.1	2.1006e-002
24274	3.0437	3.2727	0.1	2.276e-002
24275	2.9515	3.5455	0.1	1.8307e-002
24276	3.0437	3.4545	0.1	2.0623e-002
24277	2.9515	3.7273	0.1	1.4185e-002
24278	3.0437	3.6364	0.1	1.7196e-002
24279	2.9515	3.9091	0.1	8.2959e-003
24280	3.0437	3.8182	0.1	1.2208e-002
24281	2.9515	4.0909	0.1	1.9301e-004
24282	3.0437	4.	0.1	5.3026e-003
24283	2.9515	4.2727	0.1	-1.0673e-002
24284	3.0437	4.1818	0.1	-3.9772e-003
24285	2.9515	4.4545	0.1	-2.5018e-002
24286	3.0437	4.3636	0.1	-1.6182e-002
24287	2.9515	4.6364	0.1	-4.3652e-002
24288	3.0437	4.5455	0.1	-3.2096e-002
24289	2.9515	4.8182	0.1	-6.8252e-002
24290	3.0437	4.7273	0.1	-5.2466e-002
24291	2.9515	5.	0.1	-9.946e-002
24292	3.0437	4.9091	0.1	-7.9822e-002
24293	2.9515	5.1818	0.1	-0.14796
24294	3.0437	5.0909	0.1	-0.11307
24295	2.9515	5.3636	0.1	-0.1978
24296	3.0437	5.2727	0.1	-0.17452
24297	2.9515	5.5455	0.1	-0.42498
24298	3.0437	5.4545	0.1	-0.21371
24299	2.9515	5.7273	0.1	-0.76774
24300	3.0437	5.6364	0.1	-0.63365
24301	3.0437	5.8182	0.1	-1.2627
24302	2.9515	5.9091	0.1	-0.51076
24303	3.1359	0.27273	0.1	-0.67094
24304	3.2282	0.18182	0.1	-1.0452
24305	3.1359	9.0909e-002	0.1	-0.45975
24306	3.1359	0.45455	0.1	-0.38415
24307	3.2282	0.36364	0.1	-0.57309
24308	3.1359	0.63636	0.1	-0.17833
24309	3.2282	0.54545	0.1	-0.19182
24310	3.1359	0.81818	0.1	-0.13416
24311	3.2282	0.72727	0.1	-0.15811
24312	3.1359	1.	0.1	-9.0376e-002
24313	3.2282	0.90909	0.1	-0.10257
24314	3.1359	1.1818	0.1	-6.2099e-002
24315	3.2282	1.0909	0.1	-7.2586e-002
24316	3.1359	1.3636	0.1	-3.9565e-002
24317	3.2282	1.2727	0.1	-4.7667e-002
24318	3.1359	1.5455	0.1	-2.2261e-002
24319	3.2282	1.4545	0.1	-2.8914e-002
24320	3.1359	1.7273	0.1	-8.7069e-003
24321	3.2282	1.6364	0.1	-1.4051e-002
24322	3.1359	1.9091	0.1	1.7671e-003
24323	3.2282	1.8182	0.1	-2.4567e-003
24324	3.1359	2.0909	0.1	9.7505e-003
24325	3.2282	2.	0.1	6.5284e-003
24326	3.1359	2.2727	0.1	1.5686e-002
24327	3.2282	2.1818	0.1	1.335e-002
24328	3.1359	2.4545	0.1	1.9931e-002
24329	3.2282	2.3636	0.1	1.8377e-002
24330	3.1359	2.6364	0.1	2.2764e-002
24331	3.2282	2.5455	0.1	2.1893e-002
24332	3.1359	2.8182	0.1	2.4385e-002
24333	3.2282	2.7273	0.1	2.4118e-002
24334	3.1359	3.	0.1	2.4912e-002
24335	3.2282	2.9091	0.1	2.5194e-002
24336	3.1359	3.1818	0.1	2.4385e-002
24337	3.2282	3.0909	0.1	2.5194e-002
24338	3.1359	3.3636	0.1	2.2764e-002
24339	3.2282	3.2727	0.1	2.4118e-002
24340	3.1359	3.5455	0.1	1.9931e-002
24341	3.2282	3.4545	0.1	2.1893e-002
24342	3.1359	3.7273	0.1	1.5686e-002
24343	3.2282	3.6364	0.1	1.8377e-002
24344	3.1359	3.9091	0.1	9.7508e-003
24345	3.2282	3.8182	0.1	1.3351e-002
24346	3.1359	4.0909	0.1	1.7675e-003
24347	3.2282	4.	0.1	6.5287e-003
24348	3.1359	4.2727	0.1	-8.7064e-003
24349	3.2282	4.1818	0.1	-2.4563e-003
24350	3.1359	4.4545	0.1	-2.2261e-002
24351	3.2282	4.3636	0.1	-1.405e-002
24352	3.1359	4.6364	0.1	-3.9565e-002
24353	3.2282	4.5455	0.1	-2.8913e-002
24354	3.1359	4.8182	0.1	-6.2098e-002
24355	3.2282	4.7273	0.1	-4.7666e-002
24356	3.1359	5.	0.1	-9.0375e-002
24357	3.2282	4.9091	0.1	-7.2586e-002
24358	3.1359	5.1818	0.1	-0.13416
24359	3.2282	5.0909	0.1	-0.10257
24360	3.1359	5.3636	0.1	-0.17833
24361	3.2282	5.2727	0.1	-0.15811
24362	3.1359	5.5455	0.1	-0.38415
24363	3.2282	5.4545	0.1	-0.19182
24364	3.1359	5.7273	0.1	-0.67094
24365	3.2282	5.6364	0.1	-0.57309
24366	3.2282	5.8182	0.1	-1.0452
24367	3.1359	5.9091	0.1	-0.45975
24368	3.3204	0.27273	0.1	-0.58898
24369	3.4126	0.18182	0.1	-0.87404
24370	3.3204	9.0909e-002	0.1	-0.41688
24371	3.3204	0.45455	0.1	-0.34776
24372	3.4126	0.36364	0.1	-0.51922
24373	3.3204	0.63636	0.1	-0.16094
24374	3.4126	0.54545	0.1	-0.17242
24375	3.3204	0.81818	0.1	-0.12167
24376	3.4126	0.72727	0.1	-0.14332
24377	3.3204	1.	0.1	-8.2075e-002
24378	3.4126	0.90909	0.1	-9.305e-002
24379	3.3204	1.1818	0.1	-5.6436e-002
24380	3.4126	1.0909	0.1	-6.5962e-002
24381	3.3204	1.3636	0.1	-3.5821e-002
24382	3.4126	1.2727	0.1	-4.3263e-002
24383	3.3204	1.5455	0.1	-1.9817e-002
24384	3.4126	1.4545	0.1	-2.6038e-002
24385	3.3204	1.7273	0.1	-7.1064e-003
24386	3.4126	1.6364	0.1	-1.2229e-002
24387	3.3204	1.9091	0.1	2.8719e-003
24388	3.4126	1.8182	0.1	-1.309e-003
24389	3.3204	2.0909	0.1	1.0609e-002
24390	3.4126	2.	0.1	7.2813e-003
24391	3.3204	2.2727	0.1	1.6462e-002
24392	3.4126	2.1818	0.1	1.3907e-002
24393	3.3204	2.4545	0.1	2.0718e-002
24394	3.4126	2.3636	0.1	1.8863e-002
24395	3.3204	2.6364	0.1	2.3598e-002
24396	3.4126	2.5455	0.1	2.2378e-002
24397	3.3204	2.8182	0.1	2.5263e-002
24398	3.4126	2.7273	0.1	2.4626e-002
24399	3.3204	3.	0.1	2.5808e-002
24400	3.4126	2.9091	0.1	2.5722e-002
24401	3.3204	3.1818	0.1	2.5264e-002
24402	3.4126	3.0909	0.1	2.5722e-002
24403	3.3204	3.3636	0.1	2.3599e-002
24404	3.4126	3.2727	0.1	2.4626e-002
24405	3.3204	3.5455	0.1	2.0718e-002
24406	3.4126	3.4545	0.1	2.2378e-002
24407	3.3204	3.7273	0.1	1.6462e-002
24408	3.4126	3.6364	0.1	1.8863e-002
24409	3.3204	3.9091	0.1	1.0609e-002
24410	3.4126	3.8182	0.1	1.3907e-002
24411	3.3204	4.0909	0.1	2.8724e-003
24412	3.4126	4.	0.1	7.2816e-003
24413	3.3204	4.2727	0.1	-7.106e-003
24414	3.4126	4.1818	0.1	-1.3085e-003
24415	3.3204	4.4545	0.1	-1.9816e-002
24416	3.4126	4.3636	0.1	-1.2228e-002
24417	3.3204	4.6364	0.1	-3.5821e-002
24418	3.4126	4.5455	0.1	-2.6037e-002
24419	3.3204	4.8182	0.1	-5.6435e-002
24420	3.4126	4.7273	0.1	-4.3263e-002
24421	3.3204	5.	0.1	-8.2074e-002
24422	3.4126	4.9091	0.1	-6.5961e-002
24423	3.3204	5.1818	0.1	-0.12167
24424	3.4126	5.0909	0.1	-9.3049e-002
24425	3.3204	5.3636	0.1	-0.16094
24426	3.4126	5.2727	0.1	-0.14332
24427	3.3204	5.5455	0.1	-0.34775
24428	3.4126	5.4545	0.1	-0.17242
24429	3.3204	5.7273	0.1	-0.58897
24430	3.4126	5.6364	0.1	-0.51921
24431	3.4126	5.8182	0.1	-0.87404
24432	3.3204	5.9091	0.1	-0.41688
24433	3.5049	0.27273	0.1	-0.5191
24434	3.5971	0.18182	0.1	-0.73739
24435	3.5049	9.0909e-002	0.1	-0.38009
24436	3.5049	0.45455	0.1	-0.31522
24437	3.5971	0.36364	0.1	-0.4711
24438	3.5049	0.63636	0.1	-0.14538
24439	3.5971	0.54545	0.1	-0.15517
24440	3.5049	0.81818	0.1	-0.11039
24441	3.5971	0.72727	0.1	-0.13
24442	3.5049	1.	0.1	-7.4525e-002
24443	3.5971	0.90909	0.1	-8.4417e-002
24444	3.5049	1.1818	0.1	-5.1259e-002
24445	3.5971	1.0909	0.1	-5.9917e-002
24446	3.5049	1.3636	0.1	-3.2417e-002
24447	3.5971	1.2727	0.1	-3.9241e-002
24448	3.5049	1.5455	0.1	-1.766e-002
24449	3.5971	1.4545	0.1	-2.3445e-002
24450	3.5049	1.7273	0.1	-5.8115e-003
24451	3.5971	1.6364	0.1	-1.0666e-002
24452	3.5049	1.9091	0.1	3.6078e-003
24453	3.5971	1.8182	0.1	-4.518e-004
24454	3.5049	2.0909	0.1	1.101e-002
24455	3.5971	2.	0.1	7.6797e-003
24456	3.5049	2.2727	0.1	1.6686e-002
24457	3.5971	2.1818	0.1	1.4029e-002
24458	3.5049	2.4545	0.1	2.0866e-002
24459	3.5971	2.3636	0.1	1.8835e-002
24460	3.5049	2.6364	0.1	2.3725e-002
24461	3.5971	2.5455	0.1	2.2279e-002
24462	3.5049	2.8182	0.1	2.5391e-002
24463	3.5971	2.7273	0.1	2.4501e-002
24464	3.5049	3.	0.1	2.5937e-002
24465	3.5971	2.9091	0.1	2.5589e-002
24466	3.5049	3.1818	0.1	2.5391e-002
24467	3.5971	3.0909	0.1	2.5589e-002
24468	3.5049	3.3636	0.1	2.3725e-002
24469	3.5971	3.2727	0.1	2.4501e-002
24470	3.5049	3.5455	0.1	2.0866e-002
24471	3.5971	3.4545	0.1	2.228e-002
24472	3.5049	3.7273	0.1	1.6686e-002
24473	3.5971	3.6364	0.1	1.8835e-002
24474	3.5049	3.9091	0.1	1.1011e-002
24475	3.5971	3.8182	0.1	1.4029e-002
24476	3.5049	4.0909	0.1	3.6082e-003
24477	3.5971	4.	0.1	7.68e-003
24478	3.5049	4.2727	0.1	-5.811e-003
24479	3.5971	4.1818	0.1	-4.5134e-004
24480	3.5049	4.4545	0.1	-1.7659e-002
24481	3.5971	4.3636	0.1	-1.0666e-002
24482	3.5049	4.6364	0.1	-3.2416e-002
24483	3.5971	4.5455	0.1	-2.3445e-002
24484	3.5049	4.8182	0.1	-5.1259e-002
24485	3.5971	4.7273	0.1	-3.924e-002
24486	3.5049	5.	0.1	-7.4524e-002
24487	3.5971	4.9091	0.1	-5.9916e-002
24488	3.5049	5.1818	0.1	-0.11039
24489	3.5971	5.0909	0.1	-8.4416e-002
24490	3.5049	5.3636	0.1	-0.14538
24491	3.5971	5.2727	0.1	-0.13
24492	3.5049	5.5455	0.1	-0.31522
24493	3.5971	5.4545	0.1	-0.15517
24494	3.5049	5.7273	0.1	-0.5191
24495	3.5971	5.6364	0.1	-0.4711
24496	3.5971	5.8182	0.1	-0.73738
24497	3.5049	5.9091	0.1	-0.38009
24498	3.6893	0.27273	0.1	-0.45916
24499	3.7816	0.18182	0.1	-0.62701
24500	3.6893	9.0909e-002	0.1	-0.34802
24501	3.6893	0.45455	0.1	-0.28604
24502	3.7816	0.36364	0.1	-0.42798
24503	3.6893	0.63636	0.1	-0.13144
24504	3.7816	0.54545	0.1	-0.13981
24505	3.6893	0.81818	0.1	-0.10018
24506	3.7816	0.72727	0.1	-0.11798
24507	3.6893	1.	0.1	-6.7656e-002
24508	3.7816	0.90909	0.1	-7.6601e-002
24509	3.6893	1.1818	0.1	-4.6532e-002
24510	3.7816	1.0909	0.1	-5.4418e-002
24511	3.6893	1.3636	0.1	-2.932e-002
24512	3.7816	1.2727	0.1	-3.5582e-002
24513	3.6893	1.5455	0.1	-1.5746e-002
24514	3.7816	1.4545	0.1	-2.1118e-002
24515	3.6893	1.7273	0.1	-4.7526e-003
24516	3.7816	1.6364	0.1	-9.3294e-003
24517	3.6893	1.9091	0.1	4.0745e-003
24518	3.7816	1.8182	0.1	1.7427e-004
24519	3.6893	2.0909	0.1	1.1085e-002
24520	3.7816	2.	0.1	7.811e-003
24521	3.6893	2.2727	0.1	1.6518e-002
24522	3.7816	2.1818	0.1	1.3832e-002
24523	3.6893	2.4545	0.1	2.0557e-002
24524	3.7816	2.3636	0.1	1.8431e-002
24525	3.6893	2.6364	0.1	2.3344e-002
24526	3.7816	2.5455	0.1	2.1755e-002
24527	3.6893	2.8182	0.1	2.4976e-002
24528	3.7816	2.7273	0.1	2.3912e-002
24529	3.6893	3.	0.1	2.5514e-002
24530	3.7816	2.9091	0.1	2.4973e-002
24531	3.6893	3.1818	0.1	2.4976e-002
24532	3.7816	3.0909	0.1	2.4973e-002
24533	3.6893	3.3636	0.1	2.3344e-002
24534	3.7816	3.2727	0.1	2.3912e-002
24535	3.6893	3.5455	0.1	2.0558e-002
24536	3.7816	3.4545	0.1	2.1755e-002
24537	3.6893	3.7273	0.1	1.6518e-002
24538	3.7816	3.6364	0.1	1.8432e-002
24539	3.6893	3.9091	0.1	1.1086e-002
24540	3.7816	3.8182	0.1	1.3832e-002
24541	3.6893	4.0909	0.1	4.075e-003
24542	3.7816	4.	0.1	7.8114e-003
24543	3.6893	4.2727	0.1	-4.752e-003
24544	3.7816	4.1818	0.1	1.7465e-004
24545	3.6893	4.4545	0.1	-1.5746e-002
24546	3.7816	4.3636	0.1	-9.3288e-003
24547	3.6893	4.6364	0.1	-2.9319e-002
24548	3.7816	4.5455	0.1	-2.1117e-002
24549	3.6893	4.8182	0.1	-4.6531e-002
24550	3.7816	4.7273	0.1	-3.5582e-002
24551	3.6893	5.	0.1	-6.7656e-002
24552	3.7816	4.9091	0.1	-5.4417e-002
24553	3.6893	5.1818	0.1	-0.10018
24554	3.7816	5.0909	0.1	-7.66e-002
24555	3.6893	5.3636	0.1	-0.13144
24556	3.7816	5.2727	0.1	-0.11798
24557	3.6893	5.5455	0.1	-0.28603
24558	3.7816	5.4545	0.1	-0.13981
24559	3.6893	5.7273	0.1	-0.45916
24560	3.7816	5.6364	0.1	-0.42797
24561	3.7816	5.8182	0.1	-0.62701
24562	3.6893	5.9091	0.1	-0.34802
24563	3.8738	0.27273	0.1	-0.40747
24564	3.966	0.18182	0.1	-0.53699
24565	3.8738	9.0909e-002	0.1	-0.31977
24566	3.8738	0.45455	0.1	-0.25981
24567	3.966	0.36364	0.1	-0.38922
24568	3.8738	0.63636	0.1	-0.11893
24569	3.966	0.54545	0.1	-0.12611
24570	3.8738	0.81818	0.1	-9.0967e-002
24571	3.966	0.72727	0.1	-0.10715
24572	3.8738	1.	0.1	-6.1436e-002
24573	3.966	0.90909	0.1	-6.9539e-002
24574	3.8738	1.1818	0.1	-4.2245e-002
24575	3.966	1.0909	0.1	-4.9437e-002
24576	3.8738	1.3636	0.1	-2.6531e-002
24577	3.966	1.2727	0.1	-3.2277e-002
24578	3.8738	1.5455	0.1	-1.4069e-002
24579	3.966	1.4545	0.1	-1.9045e-002
24580	3.8738	1.7273	0.1	-3.9062e-003
24581	3.966	1.6364	0.1	-8.1976e-003
24582	3.8738	1.9091	0.1	4.3183e-003
24583	3.966	1.8182	0.1	6.0651e-004
24584	3.8738	2.0909	0.1	1.0905e-002
24585	3.966	2.	0.1	7.7338e-003
24586	3.8738	2.2727	0.1	1.6051e-002
24587	3.966	2.1818	0.1	1.3396e-002
24588	3.8738	2.4545	0.1	1.9907e-002
24589	3.966	2.3636	0.1	1.7752e-002
24590	3.8738	2.6364	0.1	2.2583e-002
24591	3.966	2.5455	0.1	2.092e-002
24592	3.8738	2.8182	0.1	2.4159e-002
24593	3.966	2.7273	0.1	2.2986e-002
24594	3.8738	3.	0.1	2.4679e-002
24595	3.966	2.9091	0.1	2.4006e-002
24596	3.8738	3.1818	0.1	2.4159e-002
24597	3.966	3.0909	0.1	2.4006e-002
24598	3.8738	3.3636	0.1	2.2583e-002
24599	3.966	3.2727	0.1	2.2987e-002
24600	3.8738	3.5455	0.1	1.9907e-002
24601	3.966	3.4545	0.1	2.092e-002
24602	3.8738	3.7273	0.1	1.6052e-002
24603	3.966	3.6364	0.1	1.7752e-002
24604	3.8738	3.9091	0.1	1.0905e-002
24605	3.966	3.8182	0.1	1.3396e-002
24606	3.8738	4.0909	0.1	4.3186e-003
24607	3.966	4.	0.1	7.7341e-003
24608	3.8738	4.2727	0.1	-3.9058e-003
24609	3.966	4.1818	0.1	6.0691e-004
24610	3.8738	4.4545	0.1	-1.4069e-002
24611	3.966	4.3636	0.1	-8.1971e-003
24612	3.8738	4.6364	0.1	-2.653e-002
24613	3.966	4.5455	0.1	-1.9044e-002
24614	3.8738	4.8182	0.1	-4.2245e-002
24615	3.966	4.7273	0.1	-3.2276e-002
24616	3.8738	5.	0.1	-6.1435e-002
24617	3.966	4.9091	0.1	-4.9436e-002
24618	3.8738	5.1818	0.1	-9.0966e-002
24619	3.966	5.0909	0.1	-6.9538e-002
24620	3.8738	5.3636	0.1	-0.11893
24621	3.966	5.2727	0.1	-0.10715
24622	3.8738	5.5455	0.1	-0.25981
24623	3.966	5.4545	0.1	-0.12611
24624	3.8738	5.7273	0.1	-0.40747
24625	3.966	5.6364	0.1	-0.38922
24626	3.966	5.8182	0.1	-0.53699
24627	3.8738	5.9091	0.1	-0.31977
24628	4.0583	0.27273	0.1	-0.36267
24629	4.1505	0.18182	0.1	-0.46294
24630	4.0583	9.0909e-002	0.1	-0.29466
24631	4.0583	0.45455	0.1	-0.23618
24632	4.1505	0.36364	0.1	-0.35428
24633	4.0583	0.63636	0.1	-0.1077
24634	4.1505	0.54545	0.1	-0.11386
24635	4.0583	0.81818	0.1	-8.2643e-002
24636	4.1505	0.72727	0.1	-9.7358e-002
24637	4.0583	1.	0.1	-5.5812e-002
24638	4.1505	0.90909	0.1	-6.3157e-002
24639	4.0583	1.1818	0.1	-3.8371e-002
24640	4.1505	1.0909	0.1	-4.4928e-002
24641	4.0583	1.3636	0.1	-2.4029e-002
24642	4.1505	1.2727	0.1	-2.9295e-002
24643	4.0583	1.5455	0.1	-1.2607e-002
24644	4.1505	1.4545	0.1	-1.7201e-002
24645	4.0583	1.7273	0.1	-3.2396e-003
24646	4.1505	1.6364	0.1	-7.2406e-003
24647	4.0583	1.9091	0.1	4.3879e-003
24648	4.1505	1.8182	0.1	8.8711e-004
24649	4.0583	2.0909	0.1	1.0537e-002
24650	4.1505	2.	0.1	7.5053e-003
24651	4.0583	2.2727	0.1	1.5372e-002
24652	4.1505	2.1818	0.1	1.2794e-002
24653	4.0583	2.4545	0.1	1.9016e-002
24654	4.1505	2.3636	0.1	1.6887e-002
24655	4.0583	2.6364	0.1	2.1558e-002
24656	4.1505	2.5455	0.1	1.9877e-002
24657	4.0583	2.8182	0.1	2.306e-002
24658	4.1505	2.7273	0.1	2.1836e-002
24659	4.0583	3.	0.1	2.3556e-002
24660	4.1505	2.9091	0.1	2.2804e-002
24661	4.0583	3.1818	0.1	2.306e-002
24662	4.1505	3.0909	0.1	2.2804e-002
24663	4.0583	3.3636	0.1	2.1558e-002
24664	4.1505	3.2727	0.1	2.1836e-002
24665	4.0583	3.5455	0.1	1.9016e-002
24666	4.1505	3.4545	0.1	1.9878e-002
24667	4.0583	3.7273	0.1	1.5372e-002
24668	4.1505	3.6364	0.1	1.6887e-002
24669	4.0583	3.9091	0.1	1.0537e-002
24670	4.1505	3.8182	0.1	1.2795e-002
24671	4.0583	4.0909	0.1	4.3884e-003
24672	4.1505	4.	0.1	7.5057e-003
24673	4.0583	4.2727	0.1	-3.2391e-003
24674	4.1505	4.1818	0.1	8.8761e-004
24675	4.0583	4.4545	0.1	-1.2606e-002
24676	4.1505	4.3636	0.1	-7.2401e-003
24677	4.0583	4.6364	0.1	-2.4028e-002
24678	4.1505	4.5455	0.1	-1.7201e-002
24679	4.0583	4.8182	0.1	-3.837e-002
24680	4.1505	4.7273	0.1	-2.9294e-002
24681	4.0583	5.	0.1	-5.5811e-002
24682	4.1505	4.9091	0.1	-4.4928e-002
24683	4.0583	5.1818	0.1	-8.2642e-002
24684	4.1505	5.0909	0.1	-6.3156e-002
24685	4.0583	5.3636	0.1	-0.1077
24686	4.1505	5.2727	0.1	-9.7358e-002
24687	4.0583	5.5455	0.1	-0.23618
24688	4.1505	5.4545	0.1	-0.11386
24689	4.0583	5.7273	0.1	-0.36267
24690	4.1505	5.6364	0.1	-0.35428
24691	4.1505	5.8182	0.1	-0.46293
24692	4.0583	5.9091	0.1	-0.29466
24693	4.2427	0.27273	0.1	-0.32367
24694	4.335	0.18182	0.1	-0.40158
24695	4.2427	9.0909e-002	0.1	-0.27221
24696	4.2427	0.45455	0.1	-0.21485
24697	4.335	0.36364	0.1	-0.32272
24698	4.2427	0.63636	0.1	-9.759e-002
24699	4.335	0.54545	0.1	-0.10289
24700	4.2427	0.81818	0.1	-7.5113e-002
24701	4.335	0.72727	0.1	-8.851e-002
24702	4.2427	1.	0.1	-5.0721e-002
24703	4.335	0.90909	0.1	-5.7388e-002
24704	4.2427	1.1818	0.1	-3.4866e-002
24705	4.335	1.0909	0.1	-4.0851e-002
24706	4.2427	1.3636	0.1	-2.1782e-002
24707	4.335	1.2727	0.1	-2.661e-002
24708	4.2427	1.5455	0.1	-1.1326e-002
24709	4.335	1.4545	0.1	-1.5565e-002
24710	4.2427	1.7273	0.1	-2.7138e-003
24711	4.335	1.6364	0.1	-6.4345e-003
24712	4.2427	1.9091	0.1	4.3334e-003
24713	4.335	1.8182	0.1	1.0476e-003
24714	4.2427	2.0909	0.1	1.0044e-002
24715	4.335	2.	0.1	7.1679e-003
24716	4.2427	2.2727	0.1	1.4557e-002
24717	4.335	2.1818	0.1	1.2082e-002
24718	4.2427	2.4545	0.1	1.7974e-002
24719	4.335	2.3636	0.1	1.5901e-002
24720	4.2427	2.6364	0.1	2.0367e-002
24721	4.335	2.5455	0.1	1.8703e-002
24722	4.2427	2.8182	0.1	2.1784e-002
24723	4.335	2.7273	0.1	2.0543e-002
24724	4.2427	3.	0.1	2.2254e-002
24725	4.335	2.9091	0.1	2.1455e-002
24726	4.2427	3.1818	0.1	2.1784e-002
24727	4.335	3.0909	0.1	2.1455e-002
24728	4.2427	3.3636	0.1	2.0367e-002
24729	4.335	3.2727	0.1	2.0543e-002
24730	4.2427	3.5455	0.1	1.7974e-002
24731	4.335	3.4545	0.1	1.8703e-002
24732	4.2427	3.7273	0.1	1.4557e-002
24733	4.335	3.6364	0.1	1.5902e-002
24734	4.2427	3.9091	0.1	1.0044e-002
24735	4.335	3.8182	0.1	1.2082e-002
24736	4.2427	4.0909	0.1	4.3338e-003
24737	4.335	4.	0.1	7.1683e-003
24738	4.2427	4.2727	0.1	-2.7133e-003
24739	4.335	4.1818	0.1	1.048e-003
24740	4.2427	4.4545	0.1	-1.1326e-002
24741	4.335	4.3636	0.1	-6.4339e-003
24742	4.2427	4.6364	0.1	-2.1782e-002
24743	4.335	4.5455	0.1	-1.5565e-002
24744	4.2427	4.8182	0.1	-3.4865e-002
24745	4.335	4.7273	0.1	-2.6609e-002
24746	4.2427	5.	0.1	-5.072e-002
24747	4.335	4.9091	0.1	-4.0851e-002
24748	4.2427	5.1818	0.1	-7.5112e-002
24749	4.335	5.0909	0.1	-5.7387e-002
24750	4.2427	5.3636	0.1	-9.759e-002
24751	4.335	5.2727	0.1	-8.8509e-002
24752	4.2427	5.5455	0.1	-0.21485
24753	4.335	5.4545	0.1	-0.10289
24754	4.2427	5.7273	0.1	-0.32366
24755	4.335	5.6364	0.1	-0.32272
24756	4.335	5.8182	0.1	-0.40157
24757	4.2427	5.9091	0.1	-0.27221
24758	4.4272	0.27273	0.1	-0.28957
24759	4.5194	0.18182	0.1	-0.35042
24760	4.4272	9.0909e-002	0.1	-0.25204
24761	4.4272	0.45455	0.1	-0.19556
24762	4.5194	0.36364	0.1	-0.29415
24763	4.4272	0.63636	0.1	-8.8491e-002
24764	4.5194	0.54545	0.1	-9.3039e-002
24765	4.4272	0.81818	0.1	-6.8305e-002
24766	4.5194	0.72727	0.1	-8.0503e-002
24767	4.4272	1.	0.1	-4.6122e-002
24768	4.5194	0.90909	0.1	-5.2174e-002
24769	4.4272	1.1818	0.1	-3.1708e-002
24770	4.5194	1.0909	0.1	-3.7167e-002
24771	4.4272	1.3636	0.1	-1.9777e-002
24772	4.5194	1.2727	0.1	-2.4196e-002
24773	4.4272	1.5455	0.1	-1.0216e-002
24774	4.5194	1.4545	0.1	-1.4117e-002
24775	4.4272	1.7273	0.1	-2.3131e-003
24776	4.5194	1.6364	0.1	-5.7585e-003
24777	4.4272	1.9091	0.1	4.1779e-003
24778	4.5194	1.8182	0.1	1.1128e-003
24779	4.4272	2.0909	0.1	9.4589e-003
24780	4.5194	2.	0.1	6.7539e-003
24781	4.4272	2.2727	0.1	1.365e-002
24782	4.5194	2.1818	0.1	1.13e-002
24783	4.4272	2.4545	0.1	1.6834e-002
24784	4.5194	2.3636	0.1	1.4845e-002
24785	4.4272	2.6364	0.1	1.907e-002
24786	4.5194	2.5455	0.1	1.7454e-002
24787	4.4272	2.8182	0.1	2.0397e-002
24788	4.5194	2.7273	0.1	1.9171e-002
24789	4.4272	3.	0.1	2.0837e-002
24790	4.5194	2.9091	0.1	2.0023e-002
24791	4.4272	3.1818	0.1	2.0397e-002
24792	4.5194	3.0909	0.1	2.0023e-002
24793	4.4272	3.3636	0.1	1.907e-002
24794	4.5194	3.2727	0.1	1.9171e-002
24795	4.4272	3.5455	0.1	1.6834e-002
24796	4.5194	3.4545	0.1	1.7454e-002
24797	4.4272	3.7273	0.1	1.365e-002
24798	4.5194	3.6364	0.1	1.4846e-002
24799	4.4272	3.9091	0.1	9.4593e-003
24800	4.5194	3.8182	0.1	1.13e-002
24801	4.4272	4.0909	0.1	4.1784e-003
24802	4.5194	4.	0.1	6.7544e-003
24803	4.4272	4.2727	0.1	-2.3126e-003
24804	4.5194	4.1818	0.1	1.1133e-003
24805	4.4272	4.4545	0.1	-1.0215e-002
24806	4.5194	4.3636	0.1	-5.758e-003
24807	4.4272	4.6364	0.1	-1.9776e-002
24808	4.5194	4.5455	0.1	-1.4116e-002
24809	4.4272	4.8182	0.1	-3.1707e-002
24810	4.5194	4.7273	0.1	-2.4195e-002
24811	4.4272	5.	0.1	-4.6121e-002
24812	4.5194	4.9091	0.1	-3.7167e-002
24813	4.4272	5.1818	0.1	-6.8304e-002
24814	4.5194	5.0909	0.1	-5.2172e-002
24815	4.4272	5.3636	0.1	-8.849e-002
24816	4.5194	5.2727	0.1	-8.0502e-002
24817	4.4272	5.5455	0.1	-0.19556
24818	4.5194	5.4545	0.1	-9.3039e-002
24819	4.4272	5.7273	0.1	-0.28957
24820	4.5194	5.6364	0.1	-0.29415
24821	4.5194	5.8182	0.1	-0.35042
24822	4.4272	5.9091	0.1	-0.25204
24823	4.6117	0.27273	0.1	-0.25965
24824	4.7039	0.18182	0.1	-0.30756
24825	4.6117	9.0909e-002	0.1	-0.23387
24826	4.6117	0.45455	0.1	-0.17808
24827	4.7039	0.36364	0.1	-0.26823
24828	4.6117	0.63636	0.1	-8.0279e-002
24829	4.7039	0.54545	0.1	-8.4189e-002
24830	4.6117	0.81818	0.1	-6.2138e-002
24831	4.7039	0.72727	0.1	-7.3249e-002
24832	4.6117	1.	0.1	-4.196e-002
24833	4.7039	0.90909	0.1	-4.7458e-002
24834	4.6117	1.1818	0.1	-2.8856e-002
24835	4.7039	1.0909	0.1	-3.3839e-002
24836	4.6117	1.3636	0.1	-1.7981e-002
24837	4.7039	1.2727	0.1	-2.2027e-002
24838	4.6117	1.5455	0.1	-9.2469e-003
24839	4.7039	1.4545	0.1	-1.2836e-002
24840	4.6117	1.7273	0.1	-2.0085e-003
24841	4.7039	1.6364	0.1	-5.1947e-003
24842	4.6117	1.9091	0.1	3.9551e-003
24843	4.7039	1.8182	0.1	1.1031e-003
24844	4.6117	2.0909	0.1	8.8225e-003
24845	4.7039	2.	0.1	6.2882e-003
24846	4.6117	2.2727	0.1	1.2697e-002
24847	4.7039	2.1818	0.1	1.0479e-002
24848	4.6117	2.4545	0.1	1.5649e-002
24849	4.7039	2.3636	0.1	1.3756e-002
24850	4.6117	2.6364	0.1	1.7727e-002
24851	4.7039	2.5455	0.1	1.6172e-002
24852	4.6117	2.8182	0.1	1.8962e-002
24853	4.7039	2.7273	0.1	1.7766e-002
24854	4.6117	3.	0.1	1.9372e-002
24855	4.7039	2.9091	0.1	1.8558e-002
24856	4.6117	3.1818	0.1	1.8962e-002
24857	4.7039	3.0909	0.1	1.8558e-002
24858	4.6117	3.3636	0.1	1.7727e-002
24859	4.7039	3.2727	0.1	1.7766e-002
24860	4.6117	3.5455	0.1	1.5649e-002
24861	4.7039	3.4545	0.1	1.6172e-002
24862	4.6117	3.7273	0.1	1.2697e-002
24863	4.7039	3.6364	0.1	1.3756e-002
24864	4.6117	3.9091	0.1	8.8229e-003
24865	4.7039	3.8182	0.1	1.0479e-002
24866	4.6117	4.0909	0.1	3.9557e-003
24867	4.7039	4.	0.1	6.2886e-003
24868	4.6117	4.2727	0.1	-2.0079e-003
24869	4.7039	4.1818	0.1	1.1037e-003
24870	4.6117	4.4545	0.1	-9.2464e-003
24871	4.7039	4.3636	0.1	-5.1942e-003
24872	4.6117	4.6364	0.1	-1.798e-002
24873	4.7039	4.5455	0.1	-1.2835e-002
24874	4.6117	4.8182	0.1	-2.8855e-002
24875	4.7039	4.7273	0.1	-2.2026e-002
24876	4.6117	5.	0.1	-4.1959e-002
24877	4.7039	4.9091	0.1	-3.3839e-002
24878	4.6117	5.1818	0.1	-6.2137e-002
24879	4.7039	5.0909	0.1	-4.7456e-002
24880	4.6117	5.3636	0.1	-8.0278e-002
24881	4.7039	5.2727	0.1	-7.3249e-002
24882	4.6117	5.5455	0.1	-0.17808
24883	4.7039	5.4545	0.1	-8.4189e-002
24884	4.6117	5.7273	0.1	-0.25965
24885	4.7039	5.6364	0.1	-0.26823
24886	4.7039	5.8182	0.1	-0.30755
24887	4.6117	5.9091	0.1	-0.23387
24888	4.7961	0.27273	0.1	-0.23332
24889	4.8883	0.18182	0.1	-0.27148
24890	4.7961	9.0909e-002	0.1	-0.21748
24891	4.7961	0.45455	0.1	-0.16223
24892	4.8883	0.36364	0.1	-0.24469
24893	4.7961	0.63636	0.1	-7.2867e-002
24894	4.8883	0.54545	0.1	-7.6222e-002
24895	4.7961	0.81818	0.1	-5.6556e-002
24896	4.8883	0.72727	0.1	-6.6674e-002
24897	4.7961	1.	0.1	-3.8202e-002
24898	4.8883	0.90909	0.1	-4.3192e-002
24899	4.7961	1.1818	0.1	-2.629e-002
24900	4.8883	1.0909	0.1	-3.0834e-002
24901	4.7961	1.3636	0.1	-1.6382e-002
24902	4.8883	1.2727	0.1	-2.0082e-002
24903	4.7961	1.5455	0.1	-8.4116e-003
24904	4.8883	1.4545	0.1	-1.1706e-002
24905	4.7961	1.7273	0.1	-1.7911e-003
24906	4.8883	1.6364	0.1	-4.7283e-003
24907	4.7961	1.9091	0.1	3.6761e-003
24908	4.8883	1.8182	0.1	1.0342e-003
24909	4.7961	2.0909	0.1	8.1495e-003
24910	4.8883	2.	0.1	5.789e-003
24911	4.7961	2.2727	0.1	1.1719e-002
24912	4.8883	2.1818	0.1	9.6406e-003
24913	4.7961	2.4545	0.1	1.4444e-002
24914	4.8883	2.3636	0.1	1.2659e-002
24915	4.7961	2.6364	0.1	1.6366e-002
24916	4.8883	2.5455	0.1	1.4888e-002
24917	4.7961	2.8182	0.1	1.7511e-002
24918	4.8883	2.7273	0.1	1.6361e-002
24919	4.7961	3.	0.1	1.7891e-002
24920	4.8883	2.9091	0.1	1.7094e-002
24921	4.7961	3.1818	0.1	1.7511e-002
24922	4.8883	3.0909	0.1	1.7094e-002
24923	4.7961	3.3636	0.1	1.6366e-002
24924	4.8883	3.2727	0.1	1.6361e-002
24925	4.7961	3.5455	0.1	1.4445e-002
24926	4.8883	3.4545	0.1	1.4888e-002
24927	4.7961	3.7273	0.1	1.1719e-002
24928	4.8883	3.6364	0.1	1.2659e-002
24929	4.7961	3.9091	0.1	8.1498e-003
24930	4.8883	3.8182	0.1	9.6409e-003
24931	4.7961	4.0909	0.1	3.6766e-003
24932	4.8883	4.	0.1	5.7895e-003
24933	4.7961	4.2727	0.1	-1.7906e-003
24934	4.8883	4.1818	0.1	1.0347e-003
24935	4.7961	4.4545	0.1	-8.4109e-003
24936	4.8883	4.3636	0.1	-4.7278e-003
24937	4.7961	4.6364	0.1	-1.6381e-002
24938	4.8883	4.5455	0.1	-1.1705e-002
24939	4.7961	4.8182	0.1	-2.6289e-002
24940	4.8883	4.7273	0.1	-2.0081e-002
24941	4.7961	5.	0.1	-3.8201e-002
24942	4.8883	4.9091	0.1	-3.0833e-002
24943	4.7961	5.1818	0.1	-5.6555e-002
24944	4.8883	5.0909	0.1	-4.319e-002
24945	4.7961	5.3636	0.1	-7.2866e-002
24946	4.8883	5.2727	0.1	-6.6673e-002
24947	4.7961	5.5455	0.1	-0.16223
24948	4.8883	5.4545	0.1	-7.6222e-002
24949	4.7961	5.7273	0.1	-0.23332
24950	4.8883	5.6364	0.1	-0.24469
24951	4.8883	5.8182	0.1	-0.27148
24952	4.7961	5.9091	0.1	-0.21748
24953	4.9806	0.27273	0.1	-0.21007
24954	5.0728	0.18182	0.1	-0.24102
24955	4.9806	9.0909e-002	0.1	-0.20268
24956	4.9806	0.45455	0.1	-0.14782
24957	5.0728	0.36364	0.1	-0.22327
24958	4.9806	0.63636	0.1	-6.6162e-002
24959	5.0728	0.54545	0.1	-6.9041e-002
24960	4.9806	0.81818	0.1	-5.1494e-002
24961	5.0728	0.72727	0.1	-6.0708e-002
24962	4.9806	1.	0.1	-3.48e-002
24963	5.0728	0.90909	0.1	-3.9331e-002
24964	4.9806	1.1818	0.1	-2.3975e-002
24965	5.0728	1.0909	0.1	-2.812e-002
24966	4.9806	1.3636	0.1	-1.4954e-002
24967	5.0728	1.2727	0.1	-1.8338e-002
24968	4.9806	1.5455	0.1	-7.6869e-003
24969	5.0728	1.4545	0.1	-1.071e-002
24970	4.9806	1.7273	0.1	-1.6397e-003
24971	5.0728	1.6364	0.1	-4.3456e-003
24972	4.9806	1.9091	0.1	3.3633e-003
24973	5.0728	1.8182	0.1	9.1903e-004
24974	4.9806	2.0909	0.1	7.4648e-003
24975	5.0728	2.	0.1	5.2707e-003
24976	4.9806	2.2727	0.1	1.0744e-002
24977	5.0728	2.1818	0.1	8.802e-003
24978	4.9806	2.4545	0.1	1.3252e-002
24979	5.0728	2.3636	0.1	1.1574e-002
24980	4.9806	2.6364	0.1	1.5022e-002
24981	5.0728	2.5455	0.1	1.3624e-002
24982	4.9806	2.8182	0.1	1.6078e-002
24983	5.0728	2.7273	0.1	1.498e-002
24984	4.9806	3.	0.1	1.6429e-002
24985	5.0728	2.9091	0.1	1.5655e-002
24986	4.9806	3.1818	0.1	1.6078e-002
24987	5.0728	3.0909	0.1	1.5655e-002
24988	4.9806	3.3636	0.1	1.5023e-002
24989	5.0728	3.2727	0.1	1.498e-002
24990	4.9806	3.5455	0.1	1.3252e-002
24991	5.0728	3.4545	0.1	1.3624e-002
24992	4.9806	3.7273	0.1	1.0744e-002
24993	5.0728	3.6364	0.1	1.1574e-002
24994	4.9806	3.9091	0.1	7.4652e-003
24995	5.0728	3.8182	0.1	8.8023e-003
24996	4.9806	4.0909	0.1	3.3638e-003
24997	5.0728	4.	0.1	5.2711e-003
24998	4.9806	4.2727	0.1	-1.6393e-003
24999	5.0728	4.1818	0.1	9.1954e-004
25000	4.9806	4.4545	0.1	-7.6862e-003
25001	5.0728	4.3636	0.1	-4.3451e-003
25002	4.9806	4.6364	0.1	-1.4953e-002
25003	5.0728	4.5455	0.1	-1.0709e-002
25004	4.9806	4.8182	0.1	-2.3975e-002
25005	5.0728	4.7273	0.1	-1.8337e-002
25006	4.9806	5.	0.1	-3.4799e-002
25007	5.0728	4.9091	0.1	-2.812e-002
25008	4.9806	5.1818	0.1	-5.1493e-002
25009	5.0728	5.0909	0.1	-3.933e-002
25010	4.9806	5.3636	0.1	-6.6161e-002
25011	5.0728	5.2727	0.1	-6.0707e-002
25012	4.9806	5.5455	0.1	-0.14782
25013	5.0728	5.4545	0.1	-6.904e-002
25014	4.9806	5.7273	0.1	-0.21007
25015	5.0728	5.6364	0.1	-0.22327
25016	5.0728	5.8182	0.1	-0.24102
25017	4.9806	5.9091	0.1	-0.20268
25018	5.165	0.27273	0.1	-0.18949
25019	5.2573	0.18182	0.1	-0.21525
25020	5.165	9.0909e-002	0.1	-0.18933
25021	5.165	0.45455	0.1	-0.13472
25022	5.2573	0.36364	0.1	-0.20377
25023	5.165	0.63636	0.1	-6.0097e-002
25024	5.2573	0.54545	0.1	-6.2562e-002
25025	5.165	0.81818	0.1	-4.6906e-002
25026	5.2573	0.72727	0.1	-5.5294e-002
25027	5.165	1.	0.1	-3.1727e-002
25028	5.2573	0.90909	0.1	-3.5839e-002
25029	5.165	1.1818	0.1	-2.1895e-002
25030	5.2573	1.0909	0.1	-2.5674e-002
25031	5.165	1.3636	0.1	-1.3686e-002
25032	5.2573	1.2727	0.1	-1.6778e-002
25033	5.165	1.5455	0.1	-7.066e-003
25034	5.2573	1.4545	0.1	-9.8371e-003
25035	5.165	1.7273	0.1	-1.5495e-003
25036	5.2573	1.6364	0.1	-4.0382e-003
25037	5.165	1.9091	0.1	3.0213e-003
25038	5.2573	1.8182	0.1	7.6495e-004
25039	5.165	2.0909	0.1	6.7743e-003
25040	5.2573	2.	0.1	4.7409e-003
25041	5.165	2.2727	0.1	9.7791e-003
25042	5.2573	2.1818	0.1	7.9715e-003
25043	5.165	2.4545	0.1	1.208e-002
25044	5.2573	2.3636	0.1	1.0511e-002
25045	5.165	2.6364	0.1	1.3707e-002
25046	5.2573	2.5455	0.1	1.2391e-002
25047	5.165	2.8182	0.1	1.4677e-002
25048	5.2573	2.7273	0.1	1.3635e-002
25049	5.165	3.	0.1	1.5e-002
25050	5.2573	2.9091	0.1	1.4255e-002
25051	5.165	3.1818	0.1	1.4677e-002
25052	5.2573	3.0909	0.1	1.4255e-002
25053	5.165	3.3636	0.1	1.3707e-002
25054	5.2573	3.2727	0.1	1.3635e-002
25055	5.165	3.5455	0.1	1.208e-002
25056	5.2573	3.4545	0.1	1.2391e-002
25057	5.165	3.7273	0.1	9.7793e-003
25058	5.2573	3.6364	0.1	1.0511e-002
25059	5.165	3.9091	0.1	6.7746e-003
25060	5.2573	3.8182	0.1	7.9719e-003
25061	5.165	4.0909	0.1	3.0218e-003
25062	5.2573	4.	0.1	4.7412e-003
25063	5.165	4.2727	0.1	-1.5489e-003
25064	5.2573	4.1818	0.1	7.6553e-004
25065	5.165	4.4545	0.1	-7.0654e-003
25066	5.2573	4.3636	0.1	-4.0376e-003
25067	5.165	4.6364	0.1	-1.3685e-002
25068	5.2573	4.5455	0.1	-9.8365e-003
25069	5.165	4.8182	0.1	-2.1895e-002
25070	5.2573	4.7273	0.1	-1.6777e-002
25071	5.165	5.	0.1	-3.1726e-002
25072	5.2573	4.9091	0.1	-2.5673e-002
25073	5.165	5.1818	0.1	-4.6905e-002
25074	5.2573	5.0909	0.1	-3.5838e-002
25075	5.165	5.3636	0.1	-6.0097e-002
25076	5.2573	5.2727	0.1	-5.5293e-002
25077	5.165	5.5455	0.1	-0.13471
25078	5.2573	5.4545	0.1	-6.2561e-002
25079	5.165	5.7273	0.1	-0.18949
25080	5.2573	5.6364	0.1	-0.20377
25081	5.2573	5.8182	0.1	-0.21524
25082	5.165	5.9091	0.1	-0.18933
25083	5.3495	0.27273	0.1	-0.17123
25084	5.4417	0.18182	0.1	-0.19341
25085	5.3495	9.0909e-002	0.1	-0.17733
25086	5.3495	0.45455	0.1	-0.12279
25087	5.4417	0.36364	0.1	-0.18599
25088	5.3495	0.63636	0.1	-5.4607e-002
25089	5.4417	0.54545	0.1	-5.6705e-002
25090	5.3495	0.81818	0.1	-4.2747e-002
25091	5.4417	0.72727	0.1	-5.0373e-002
25092	5.3495	1.	0.1	-2.8951e-002
25093	5.4417	0.90909	0.1	-3.2675e-002
25094	5.3495	1.1818	0.1	-2.0026e-002
25095	5.4417	1.0909	0.1	-2.3463e-002
25096	5.3495	1.3636	0.1	-1.2561e-002
25097	5.4417	1.2727	0.1	-1.5379e-002
25098	5.3495	1.5455	0.1	-6.5364e-003
25099	5.4417	1.4545	0.1	-9.0695e-003
25100	5.3495	1.7273	0.1	-1.5097e-003
25101	5.4417	1.6364	0.1	-3.791e-003
25102	5.3495	1.9091	0.1	2.6602e-003
25103	5.4417	1.8182	0.1	5.8554e-004
25104	5.3495	2.0909	0.1	6.0881e-003
25105	5.4417	2.	0.1	4.2123e-003
25106	5.3495	2.2727	0.1	8.8358e-003
25107	5.4417	2.1818	0.1	7.1627e-003
25108	5.3495	2.4545	0.1	1.0942e-002
25109	5.4417	2.3636	0.1	9.4838e-003
25110	5.3495	2.6364	0.1	1.2433e-002
25111	5.4417	2.5455	0.1	1.1204e-002
25112	5.3495	2.8182	0.1	1.3322e-002
25113	5.4417	2.7273	0.1	1.2343e-002
25114	5.3495	3.	0.1	1.3618e-002
25115	5.4417	2.9091	0.1	1.2911e-002
25116	5.3495	3.1818	0.1	1.3322e-002
25117	5.4417	3.0909	0.1	1.2911e-002
25118	5.3495	3.3636	0.1	1.2433e-002
25119	5.4417	3.2727	0.1	1.2343e-002
25120	5.3495	3.5455	0.1	1.0942e-002
25121	5.4417	3.4545	0.1	1.1204e-002
25122	5.3495	3.7273	0.1	8.8362e-003
25123	5.4417	3.6364	0.1	9.4841e-003
25124	5.3495	3.9091	0.1	6.0884e-003
25125	5.4417	3.8182	0.1	7.163e-003
25126	5.3495	4.0909	0.1	2.6606e-003
25127	5.4417	4.	0.1	4.2127e-003
25128	5.3495	4.2727	0.1	-1.5092e-003
25129	5.4417	4.1818	0.1	5.8603e-004
25130	5.3495	4.4545	0.1	-6.5358e-003
25131	5.4417	4.3636	0.1	-3.7904e-003
25132	5.3495	4.6364	0.1	-1.2561e-002
25133	5.4417	4.5455	0.1	-9.0688e-003
25134	5.3495	4.8182	0.1	-2.0025e-002
25135	5.4417	4.7273	0.1	-1.5379e-002
25136	5.3495	5.	0.1	-2.895e-002
25137	5.4417	4.9091	0.1	-2.3462e-002
25138	5.3495	5.1818	0.1	-4.2746e-002
25139	5.4417	5.0909	0.1	-3.2674e-002
25140	5.3495	5.3636	0.1	-5.4606e-002
25141	5.4417	5.2727	0.1	-5.0373e-002
25142	5.3495	5.5455	0.1	-0.12279
25143	5.4417	5.4545	0.1	-5.6704e-002
25144	5.3495	5.7273	0.1	-0.17123
25145	5.4417	5.6364	0.1	-0.18598
25146	5.4417	5.8182	0.1	-0.1934
25147	5.3495	5.9091	0.1	-0.17732
25148	5.534	0.27273	0.1	-0.155
25149	5.6262	0.18182	0.1	-0.17491
25150	5.534	9.0909e-002	0.1	-0.16656
25151	5.534	0.45455	0.1	-0.11191
25152	5.6262	0.36364	0.1	-0.16975
25153	5.534	0.63636	0.1	-4.9621e-002
25154	5.6262	0.54545	0.1	-5.1403e-002
25155	5.534	0.81818	0.1	-3.8964e-002
25156	5.6262	0.72727	0.1	-4.5896e-002
25157	5.534	1.	0.1	-2.6433e-002
25158	5.6262	0.90909	0.1	-2.9806e-002
25159	5.534	1.1818	0.1	-1.8338e-002
25160	5.6262	1.0909	0.1	-2.1464e-002
25161	5.534	1.3636	0.1	-1.1556e-002
25162	5.6262	1.2727	0.1	-1.4125e-002
25163	5.534	1.5455	0.1	-6.0779e-003
25164	5.6262	1.4545	0.1	-8.3939e-003
25165	5.534	1.7273	0.1	-1.5028e-003
25166	5.6262	1.6364	0.1	-3.5944e-003
25167	5.534	1.9091	0.1	2.296e-003
25168	5.6262	1.8182	0.1	3.8829e-004
25169	5.534	2.0909	0.1	5.422e-003
25170	5.6262	2.	0.1	3.6917e-003
25171	5.534	2.2727	0.1	7.9301e-003
25172	5.6262	2.1818	0.1	6.3817e-003
25173	5.534	2.4545	0.1	9.8543e-003
25174	5.6262	2.3636	0.1	8.4996e-003
25175	5.534	2.6364	0.1	1.1217e-002
25176	5.6262	2.5455	0.1	1.007e-002
25177	5.534	2.8182	0.1	1.203e-002
25178	5.6262	2.7273	0.1	1.1111e-002
25179	5.534	3.	0.1	1.2301e-002
25180	5.6262	2.9091	0.1	1.163e-002
25181	5.534	3.1818	0.1	1.203e-002
25182	5.6262	3.0909	0.1	1.163e-002
25183	5.534	3.3636	0.1	1.1217e-002
25184	5.6262	3.2727	0.1	1.1111e-002
25185	5.534	3.5455	0.1	9.8545e-003
25186	5.6262	3.4545	0.1	1.007e-002
25187	5.534	3.7273	0.1	7.9303e-003
25188	5.6262	3.6364	0.1	8.5e-003
25189	5.534	3.9091	0.1	5.4223e-003
25190	5.6262	3.8182	0.1	6.382e-003
25191	5.534	4.0909	0.1	2.2964e-003
25192	5.6262	4.	0.1	3.6922e-003
25193	5.534	4.2727	0.1	-1.5023e-003
25194	5.6262	4.1818	0.1	3.8877e-004
25195	5.534	4.4545	0.1	-6.0772e-003
25196	5.6262	4.3636	0.1	-3.5938e-003
25197	5.534	4.6364	0.1	-1.1555e-002
25198	5.6262	4.5455	0.1	-8.3931e-003
25199	5.534	4.8182	0.1	-1.8337e-002
25200	5.6262	4.7273	0.1	-1.4124e-002
25201	5.534	5.	0.1	-2.6432e-002
25202	5.6262	4.9091	0.1	-2.1463e-002
25203	5.534	5.1818	0.1	-3.8963e-002
25204	5.6262	5.0909	0.1	-2.9804e-002
25205	5.534	5.3636	0.1	-4.9621e-002
25206	5.6262	5.2727	0.1	-4.5896e-002
25207	5.534	5.5455	0.1	-0.11191
25208	5.6262	5.4545	0.1	-5.1403e-002
25209	5.534	5.7273	0.1	-0.155
25210	5.6262	5.6364	0.1	-0.16975
25211	5.6262	5.8182	0.1	-0.1749
25212	5.534	5.9091	0.1	-0.16656
25213	5.7184	0.27273	0.1	-0.14054
25214	5.8107	0.18182	0.1	-0.15927
25215	5.7184	9.0909e-002	0.1	-0.15697
25216	5.7184	0.45455	0.1	-0.10199
25217	5.8107	0.36364	0.1	-0.15492
25218	5.7184	0.63636	0.1	-4.5099e-002
25219	5.8107	0.54545	0.1	-4.6595e-002
25220	5.7184	0.81818	0.1	-3.5529e-002
25221	5.8107	0.72727	0.1	-4.1817e-002
25222	5.7184	1.	0.1	-2.4156e-002
25223	5.8107	0.90909	0.1	-2.7198e-002
25224	5.7184	1.1818	0.1	-1.6819e-002
25225	5.8107	1.0909	0.1	-1.9652e-002
25226	5.7184	1.3636	0.1	-1.0664e-002
25227	5.8107	1.2727	0.1	-1.2996e-002
25228	5.7184	1.5455	0.1	-5.6885e-003
25229	5.8107	1.4545	0.1	-7.7962e-003
25230	5.7184	1.7273	0.1	-1.5295e-003
25231	5.8107	1.6364	0.1	-3.4374e-003
25232	5.7184	1.9091	0.1	1.9266e-003
25233	5.8107	1.8182	0.1	1.8237e-004
25234	5.7184	2.0909	0.1	4.7731e-003
25235	5.8107	2.	0.1	3.1872e-003
25236	5.7184	2.2727	0.1	7.0587e-003
25237	5.8107	2.1818	0.1	5.6358e-003
25238	5.7184	2.4545	0.1	8.8133e-003
25239	5.8107	2.3636	0.1	7.5651e-003
25240	5.7184	2.6364	0.1	1.0056e-002
25241	5.8107	2.5455	0.1	8.9962e-003
25242	5.7184	2.8182	0.1	1.0799e-002
25243	5.8107	2.7273	0.1	9.9454e-003
25244	5.7184	3.	0.1	1.1046e-002
25245	5.8107	2.9091	0.1	1.0419e-002
25246	5.7184	3.1818	0.1	1.0799e-002
25247	5.8107	3.0909	0.1	1.0419e-002
25248	5.7184	3.3636	0.1	1.0056e-002
25249	5.8107	3.2727	0.1	9.9455e-003
25250	5.7184	3.5455	0.1	8.8136e-003
25251	5.8107	3.4545	0.1	8.9965e-003
25252	5.7184	3.7273	0.1	7.0591e-003
25253	5.8107	3.6364	0.1	7.5654e-003
25254	5.7184	3.9091	0.1	4.7736e-003
25255	5.8107	3.8182	0.1	5.6362e-003
25256	5.7184	4.0909	0.1	1.9272e-003
25257	5.8107	4.	0.1	3.1876e-003
25258	5.7184	4.2727	0.1	-1.5289e-003
25259	5.8107	4.1818	0.1	1.8281e-004
25260	5.7184	4.4545	0.1	-5.6878e-003
25261	5.8107	4.3636	0.1	-3.4368e-003
25262	5.7184	4.6364	0.1	-1.0663e-002
25263	5.8107	4.5455	0.1	-7.7954e-003
25264	5.7184	4.8182	0.1	-1.6818e-002
25265	5.8107	4.7273	0.1	-1.2995e-002
25266	5.7184	5.	0.1	-2.4154e-002
25267	5.8107	4.9091	0.1	-1.9652e-002
25268	5.7184	5.1818	0.1	-3.5528e-002
25269	5.8107	5.0909	0.1	-2.7197e-002
25270	5.7184	5.3636	0.1	-4.5098e-002
25271	5.8107	5.2727	0.1	-4.1816e-002
25272	5.7184	5.5455	0.1	-0.10199
25273	5.8107	5.4545	0.1	-4.6595e-002
25274	5.7184	5.7273	0.1	-0.14054
25275	5.8107	5.6364	0.1	-0.15492
25276	5.8107	5.8182	0.1	-0.15926
25277	5.7184	5.9091	0.1	-0.15697
25278	5.9029	0.27273	0.1	-0.12764
25279	5.9951	0.18182	0.1	-0.14611
25280	5.9029	9.0909e-002	0.1	-0.14852
25281	5.9029	0.45455	0.1	-9.292e-002
25282	5.9951	0.36364	0.1	-0.14135
25283	5.9029	0.63636	0.1	-4.0977e-002
25284	5.9951	0.54545	0.1	-4.223e-002
25285	5.9029	0.81818	0.1	-3.2393e-002
25286	5.9951	0.72727	0.1	-3.8096e-002
25287	5.9029	1.	0.1	-2.208e-002
25288	5.9951	0.90909	0.1	-2.4827e-002
25289	5.9029	1.1818	0.1	-1.5439e-002
25290	5.9951	1.0909	0.1	-1.8009e-002
25291	5.9029	1.3636	0.1	-9.8585e-003
25292	5.9951	1.2727	0.1	-1.1979e-002
25293	5.9029	1.5455	0.1	-5.3452e-003
25294	5.9951	1.4545	0.1	-7.2673e-003
25295	5.9029	1.7273	0.1	-1.569e-003
25296	5.9951	1.6364	0.1	-3.3136e-003
25297	5.9029	1.9091	0.1	1.5713e-003
25298	5.9951	1.8182	0.1	-2.7994e-005
25299	5.9029	2.0909	0.1	4.1594e-003
25300	5.9951	2.	0.1	2.7012e-003
25301	5.9029	2.2727	0.1	6.2388e-003
25302	5.9951	2.1818	0.1	4.9269e-003
25303	5.9029	2.4545	0.1	7.836e-003
25304	5.9951	2.3636	0.1	6.6815e-003
25305	5.9029	2.6364	0.1	8.9679e-003
25306	5.9951	2.5455	0.1	7.9835e-003
25307	5.9029	2.8182	0.1	9.6446e-003
25308	5.9951	2.7273	0.1	8.8474e-003
25309	5.9029	3.	0.1	9.8698e-003
25310	5.9951	2.9091	0.1	9.2784e-003
25311	5.9029	3.1818	0.1	9.6447e-003
25312	5.9951	3.0909	0.1	9.2785e-003
25313	5.9029	3.3636	0.1	8.9681e-003
25314	5.9951	3.2727	0.1	8.8475e-003
25315	5.9029	3.5455	0.1	7.8363e-003
25316	5.9951	3.4545	0.1	7.9839e-003
25317	5.9029	3.7273	0.1	6.2392e-003
25318	5.9951	3.6364	0.1	6.6818e-003
25319	5.9029	3.9091	0.1	4.1597e-003
25320	5.9951	3.8182	0.1	4.9274e-003
25321	5.9029	4.0909	0.1	1.5716e-003
25322	5.9951	4.	0.1	2.7016e-003
25323	5.9029	4.2727	0.1	-1.5686e-003
25324	5.9951	4.1818	0.1	-2.7591e-005
25325	5.9029	4.4545	0.1	-5.3446e-003
25326	5.9951	4.3636	0.1	-3.313e-003
25327	5.9029	4.6364	0.1	-9.8578e-003
25328	5.9951	4.5455	0.1	-7.2666e-003
25329	5.9029	4.8182	0.1	-1.5439e-002
25330	5.9951	4.7273	0.1	-1.1978e-002
25331	5.9029	5.	0.1	-2.2079e-002
25332	5.9951	4.9091	0.1	-1.8009e-002
25333	5.9029	5.1818	0.1	-3.2392e-002
25334	5.9951	5.0909	0.1	-2.4826e-002
25335	5.9029	5.3636	0.1	-4.0976e-002
25336	5.9951	5.2727	0.1	-3.8095e-002
25337	5.9029	5.5455	0.1	-9.2919e-002
25338	5.9951	5.4545	0.1	-4.2229e-002
25339	5.9029	5.7273	0.1	-0.12763
25340	5.9951	5.6364	0.1	-0.14135
25341	5.9951	5.8182	0.1	-0.14611
25342	5.9029	5.9091	0.1	-0.14852
25343	6.0874	0.27273	0.1	-0.11612
25344	6.1796	0.18182	0.1	-0.13515
25345	6.0874	9.0909e-002	0.1	-0.14119
25346	6.0874	0.45455	0.1	-8.4633e-002
25347	6.1796	0.36364	0.1	-0.12895
25348	6.0874	0.63636	0.1	-3.7231e-002
25349	6.1796	0.54545	0.1	-3.8269e-002
25350	6.0874	0.81818	0.1	-2.9543e-002
25351	6.1796	0.72727	0.1	-3.4708e-002
25352	6.0874	1.	0.1	-2.0202e-002
25353	6.1796	0.90909	0.1	-2.2676e-002
25354	6.0874	1.1818	0.1	-1.4198e-002
25355	6.1796	1.0909	0.1	-1.6526e-002
25356	6.0874	1.3636	0.1	-9.1448e-003
25357	6.1796	1.2727	0.1	-1.107e-002
25358	6.0874	1.5455	0.1	-5.0558e-003
25359	6.1796	1.4545	0.1	-6.8064e-003
25360	6.0874	1.7273	0.1	-1.6318e-003
25361	6.1796	1.6364	0.1	-3.2251e-003
25362	6.0874	1.9091	0.1	1.2174e-003
25363	6.1796	1.8182	0.1	-2.4717e-004
25364	6.0874	2.0909	0.1	3.5673e-003
25365	6.1796	2.	0.1	2.2282e-003
25366	6.0874	2.2727	0.1	5.4565e-003
25367	6.1796	2.1818	0.1	4.2485e-003
25368	6.0874	2.4545	0.1	6.9081e-003
25369	6.1796	2.3636	0.1	5.8415e-003
25370	6.0874	2.6364	0.1	7.9372e-003
25371	6.1796	2.5455	0.1	7.0243e-003
25372	6.0874	2.8182	0.1	8.5525e-003
25373	6.1796	2.7273	0.1	7.8093e-003
25374	6.0874	3.	0.1	8.7575e-003
25375	6.1796	2.9091	0.1	8.201e-003
25376	6.0874	3.1818	0.1	8.5527e-003
25377	6.1796	3.0909	0.1	8.2011e-003
25378	6.0874	3.3636	0.1	7.9374e-003
25379	6.1796	3.2727	0.1	7.8094e-003
25380	6.0874	3.5455	0.1	6.9085e-003
25381	6.1796	3.4545	0.1	7.0246e-003
25382	6.0874	3.7273	0.1	5.4569e-003
25383	6.1796	3.6364	0.1	5.8419e-003
25384	6.0874	3.9091	0.1	3.5678e-003
25385	6.1796	3.8182	0.1	4.2488e-003
25386	6.0874	4.0909	0.1	1.2179e-003
25387	6.1796	4.	0.1	2.2288e-003
25388	6.0874	4.2727	0.1	-1.6312e-003
25389	6.1796	4.1818	0.1	-2.4662e-004
25390	6.0874	4.4545	0.1	-5.0551e-003
25391	6.1796	4.3636	0.1	-3.2246e-003
25392	6.0874	4.6364	0.1	-9.144e-003
25393	6.1796	4.5455	0.1	-6.8058e-003
25394	6.0874	4.8182	0.1	-1.4197e-002
25395	6.1796	4.7273	0.1	-1.1069e-002
25396	6.0874	5.	0.1	-2.0201e-002
25397	6.1796	4.9091	0.1	-1.6525e-002
25398	6.0874	5.1818	0.1	-2.9541e-002
25399	6.1796	5.0909	0.1	-2.2675e-002
25400	6.0874	5.3636	0.1	-3.7231e-002
25401	6.1796	5.2727	0.1	-3.4707e-002
25402	6.0874	5.5455	0.1	-8.4632e-002
25403	6.1796	5.4545	0.1	-3.8269e-002
25404	6.0874	5.7273	0.1	-0.11611
25405	6.1796	5.6364	0.1	-0.12895
25406	6.1796	5.8182	0.1	-0.13515
25407	6.0874	5.9091	0.1	-0.14119
25408	6.2718	0.27273	0.1	-0.10583
25409	6.3641	0.18182	0.1	-0.12618
25410	6.2718	9.0909e-002	0.1	-0.13501
25411	6.2718	0.45455	0.1	-7.7059e-002
25412	6.3641	0.36364	0.1	-0.11759
25413	6.2718	0.63636	0.1	-3.3826e-002
25414	6.3641	0.54545	0.1	-3.4668e-002
25415	6.2718	0.81818	0.1	-2.695e-002
25416	6.3641	0.72727	0.1	-3.1617e-002
25417	6.2718	1.	0.1	-1.8501e-002
25418	6.3641	0.90909	0.1	-2.0721e-002
25419	6.2718	1.1818	0.1	-1.3082e-002
25420	6.3641	1.0909	0.1	-1.5182e-002
25421	6.2718	1.3636	0.1	-8.5132e-003
25422	6.3641	1.2727	0.1	-1.0254e-002
25423	6.2718	1.5455	0.1	-4.8141e-003
25424	6.3641	1.4545	0.1	-6.4015e-003
25425	6.2718	1.7273	0.1	-1.714e-003
25426	6.3641	1.6364	0.1	-3.1624e-003
25427	6.2718	1.9091	0.1	8.6736e-004
25428	6.3641	1.8182	0.1	-4.6743e-004
25429	6.2718	2.0909	0.1	2.9978e-003
25430	6.3641	2.	0.1	1.7745e-003
25431	6.2718	2.2727	0.1	4.7115e-003
25432	6.3641	2.1818	0.1	3.6052e-003
25433	6.2718	2.4545	0.1	6.0288e-003
25434	6.3641	2.3636	0.1	5.0495e-003
25435	6.2718	2.6364	0.1	6.963e-003
25436	6.3641	2.5455	0.1	6.1221e-003
25437	6.2718	2.8182	0.1	7.5218e-003
25438	6.3641	2.7273	0.1	6.8344e-003
25439	6.2718	3.	0.1	7.7079e-003
25440	6.3641	2.9091	0.1	7.1898e-003
25441	6.2718	3.1818	0.1	7.5219e-003
25442	6.3641	3.0909	0.1	7.1899e-003
25443	6.2718	3.3636	0.1	6.9631e-003
25444	6.3641	3.2727	0.1	6.8344e-003
25445	6.2718	3.5455	0.1	6.029e-003
25446	6.3641	3.4545	0.1	6.1223e-003
25447	6.2718	3.7273	0.1	4.7118e-003
25448	6.3641	3.6364	0.1	5.0499e-003
25449	6.2718	3.9091	0.1	2.9982e-003
25450	6.3641	3.8182	0.1	3.6054e-003
25451	6.2718	4.0909	0.1	8.6797e-004
25452	6.3641	4.	0.1	1.7751e-003
25453	6.2718	4.2727	0.1	-1.7135e-003
25454	6.3641	4.1818	0.1	-4.6682e-004
25455	6.2718	4.4545	0.1	-4.8136e-003
25456	6.3641	4.3636	0.1	-3.1619e-003
25457	6.2718	4.6364	0.1	-8.5126e-003
25458	6.3641	4.5455	0.1	-6.4008e-003
25459	6.2718	4.8182	0.1	-1.3081e-002
25460	6.3641	4.7273	0.1	-1.0253e-002
25461	6.2718	5.	0.1	-1.85e-002
25462	6.3641	4.9091	0.1	-1.5181e-002
25463	6.2718	5.1818	0.1	-2.6949e-002
25464	6.3641	5.0909	0.1	-2.072e-002
25465	6.2718	5.3636	0.1	-3.3825e-002
25466	6.3641	5.2727	0.1	-3.1616e-002
25467	6.2718	5.5455	0.1	-7.7058e-002
25468	6.3641	5.4545	0.1	-3.4667e-002
25469	6.2718	5.7273	0.1	-0.10583
25470	6.3641	5.6364	0.1	-0.11759
25471	6.3641	5.8182	0.1	-0.12618
25472	6.2718	5.9091	0.1	-0.13501
25473	6.4563	0.27273	0.1	-9.663e-002
25474	6.5485	0.18182	0.1	-0.11904
25475	6.4563	9.0909e-002	0.1	-0.13004
25476	6.4563	0.45455	0.1	-7.0122e-002
25477	6.5485	0.36364	0.1	-0.10718
25478	6.4563	0.63636	0.1	-3.0717e-002
25479	6.5485	0.54545	0.1	-3.1388e-002
25480	6.4563	0.81818	0.1	-2.4583e-002
25481	6.5485	0.72727	0.1	-2.8793e-002
25482	6.4563	1.	0.1	-1.6952e-002
25483	6.5485	0.90909	0.1	-1.8941e-002
25484	6.4563	1.1818	0.1	-1.2069e-002
25485	6.5485	1.0909	0.1	-1.3962e-002
25486	6.4563	1.3636	0.1	-7.9457e-003
25487	6.5485	1.2727	0.1	-9.5184e-003
25488	6.4563	1.5455	0.1	-4.6048e-003
25489	6.5485	1.4545	0.1	-6.0443e-003
25490	6.4563	1.7273	0.1	-1.8024e-003
25491	6.5485	1.6364	0.1	-3.12e-003
25492	6.4563	1.9091	0.1	5.3272e-004
25493	6.5485	1.8182	0.1	-6.8488e-004
25494	6.4563	2.0909	0.1	2.4611e-003
25495	6.5485	2.	0.1	1.3421e-003
25496	6.4563	2.2727	0.1	4.0131e-003
25497	6.5485	2.1818	0.1	2.9983e-003
25498	6.4563	2.4545	0.1	5.2065e-003
25499	6.5485	2.3636	0.1	4.3057e-003
25500	6.4563	2.6364	0.1	6.0532e-003
25501	6.5485	2.5455	0.1	5.2768e-003
25502	6.4563	2.8182	0.1	6.5598e-003
25503	6.5485	2.7273	0.1	5.922e-003
25504	6.4563	3.	0.1	6.7286e-003
25505	6.5485	2.9091	0.1	6.244e-003
25506	6.4563	3.1818	0.1	6.5599e-003
25507	6.5485	3.0909	0.1	6.2441e-003
25508	6.4563	3.3636	0.1	6.0533e-003
25509	6.5485	3.2727	0.1	5.922e-003
25510	6.4563	3.5455	0.1	5.2069e-003
25511	6.5485	3.4545	0.1	5.277e-003
25512	6.4563	3.7273	0.1	4.0135e-003
25513	6.5485	3.6364	0.1	4.3061e-003
25514	6.4563	3.9091	0.1	2.4615e-003
25515	6.5485	3.8182	0.1	2.9987e-003
25516	6.4563	4.0909	0.1	5.3325e-004
25517	6.5485	4.	0.1	1.3426e-003
25518	6.4563	4.2727	0.1	-1.8018e-003
25519	6.5485	4.1818	0.1	-6.8428e-004
25520	6.4563	4.4545	0.1	-4.6041e-003
25521	6.5485	4.3636	0.1	-3.1193e-003
25522	6.4563	4.6364	0.1	-7.945e-003
25523	6.5485	4.5455	0.1	-6.0437e-003
25524	6.4563	4.8182	0.1	-1.2069e-002
25525	6.5485	4.7273	0.1	-9.5175e-003
25526	6.4563	5.	0.1	-1.6951e-002
25527	6.5485	4.9091	0.1	-1.3961e-002
25528	6.4563	5.1818	0.1	-2.4582e-002
25529	6.5485	5.0909	0.1	-1.8939e-002
25530	6.4563	5.3636	0.1	-3.0716e-002
25531	6.5485	5.2727	0.1	-2.8792e-002
25532	6.4563	5.5455	0.1	-7.0121e-002
25533	6.5485	5.4545	0.1	-3.1388e-002
25534	6.4563	5.7273	0.1	-9.6628e-002
25535	6.5485	5.6364	0.1	-0.10718
25536	6.5485	5.8182	0.1	-0.11904
25537	6.4563	5.9091	0.1	-0.13004
25538	6.6408	0.27273	0.1	-8.8419e-002
25539	6.733	0.18182	0.1	-0.11368
25540	6.6408	9.0909e-002	0.1	-0.12643
25541	6.6408	0.45455	0.1	-6.3769e-002
25542	6.733	0.36364	0.1	-9.7633e-002
25543	6.6408	0.63636	0.1	-2.7884e-002
25544	6.733	0.54545	0.1	-2.8399e-002
25545	6.6408	0.81818	0.1	-2.2425e-002
25546	6.733	0.72727	0.1	-2.621e-002
25547	6.6408	1.	0.1	-1.5546e-002
25548	6.733	0.90909	0.1	-1.7318e-002
25549	6.6408	1.1818	0.1	-1.1156e-002
25550	6.733	1.0909	0.1	-1.2853e-002
25551	6.6408	1.3636	0.1	-7.4413e-003
25552	6.733	1.2727	0.1	-8.8553e-003
25553	6.6408	1.5455	0.1	-4.4296e-003
25554	6.733	1.4545	0.1	-5.7287e-003
25555	6.6408	1.7273	0.1	-1.9009e-003
25556	6.733	1.6364	0.1	-3.0936e-003
25557	6.6408	1.9091	0.1	2.0775e-004
25558	6.733	1.8182	0.1	-8.9753e-004
25559	6.6408	2.0909	0.1	1.9503e-003
25560	6.733	2.	0.1	9.3183e-004
25561	6.6408	2.2727	0.1	3.3535e-003
25562	6.733	2.1818	0.1	2.4277e-003
25563	6.6408	2.4545	0.1	4.433e-003
25564	6.733	2.3636	0.1	3.609e-003
25565	6.6408	2.6364	0.1	5.199e-003
25566	6.733	2.5455	0.1	4.4866e-003
25567	6.6408	2.8182	0.1	5.6575e-003
25568	6.733	2.7273	0.1	5.0699e-003
25569	6.6408	3.	0.1	5.8102e-003
25570	6.733	2.9091	0.1	5.3612e-003
25571	6.6408	3.1818	0.1	5.6575e-003
25572	6.733	3.0909	0.1	5.3613e-003
25573	6.6408	3.3636	0.1	5.1991e-003
25574	6.733	3.2727	0.1	5.07e-003
25575	6.6408	3.5455	0.1	4.4332e-003
25576	6.733	3.4545	0.1	4.4869e-003
25577	6.6408	3.7273	0.1	3.3539e-003
25578	6.733	3.6364	0.1	3.6092e-003
25579	6.6408	3.9091	0.1	1.9507e-003
25580	6.733	3.8182	0.1	2.4279e-003
25581	6.6408	4.0909	0.1	2.0829e-004
25582	6.733	4.	0.1	9.3228e-004
25583	6.6408	4.2727	0.1	-1.9002e-003
25584	6.733	4.1818	0.1	-8.9693e-004
25585	6.6408	4.4545	0.1	-4.429e-003
25586	6.733	4.3636	0.1	-3.0929e-003
25587	6.6408	4.6364	0.1	-7.4406e-003
25588	6.733	4.5455	0.1	-5.7281e-003
25589	6.6408	4.8182	0.1	-1.1155e-002
25590	6.733	4.7273	0.1	-8.8544e-003
25591	6.6408	5.	0.1	-1.5545e-002
25592	6.733	4.9091	0.1	-1.2853e-002
25593	6.6408	5.1818	0.1	-2.2424e-002
25594	6.733	5.0909	0.1	-1.7316e-002
25595	6.6408	5.3636	0.1	-2.7883e-002
25596	6.733	5.2727	0.1	-2.621e-002
25597	6.6408	5.5455	0.1	-6.3769e-002
25598	6.733	5.4545	0.1	-2.8399e-002
25599	6.6408	5.7273	0.1	-8.8417e-002
25600	6.733	5.6364	0.1	-9.7631e-002
25601	6.733	5.8182	0.1	-0.11368
25602	6.6408	5.9091	0.1	-0.12642
25603	6.8252	0.27273	0.1	-8.1093e-002
25604	6.9175	0.18182	0.1	-0.11015
25605	6.8252	9.0909e-002	0.1	-0.12439
25606	6.8252	0.45455	0.1	-5.7941e-002
25607	6.9175	0.36364	0.1	-8.8876e-002
25608	6.8252	0.63636	0.1	-2.5292e-002
25609	6.9175	0.54545	0.1	-2.5671e-002
25610	6.8252	0.81818	0.1	-2.045e-002
25611	6.9175	0.72727	0.1	-2.3848e-002
25612	6.8252	1.	0.1	-1.4262e-002
25613	6.9175	0.90909	0.1	-1.5837e-002
25614	6.8252	1.1818	0.1	-1.0325e-002
25615	6.9175	1.0909	0.1	-1.1845e-002
25616	6.8252	1.3636	0.1	-6.9856e-003
25617	6.9175	1.2727	0.1	-8.2569e-003
25618	6.8252	1.5455	0.1	-4.2766e-003
25619	6.9175	1.4545	0.1	-5.4498e-003
25620	6.8252	1.7273	0.1	-1.9995e-003
25621	6.9175	1.6364	0.1	-3.0804e-003
25622	6.8252	1.9091	0.1	-9.9183e-005
25623	6.9175	1.8182	0.1	-1.1042e-003
25624	6.8252	2.0909	0.1	1.4726e-003
25625	6.9175	2.	0.1	5.4344e-004
25626	6.8252	2.2727	0.1	2.7391e-003
25627	6.9175	2.1818	0.1	1.8919e-003
25628	6.8252	2.4545	0.1	3.7135e-003
25629	6.9175	2.3636	0.1	2.9573e-003
25630	6.8252	2.6364	0.1	4.4053e-003
25631	6.9175	2.5455	0.1	3.749e-003
25632	6.8252	2.8182	0.1	4.8195e-003
25633	6.9175	2.7273	0.1	4.2754e-003
25634	6.8252	3.	0.1	4.9575e-003
25635	6.9175	2.9091	0.1	4.5384e-003
25636	6.8252	3.1818	0.1	4.8196e-003
25637	6.9175	3.0909	0.1	4.5385e-003
25638	6.8252	3.3636	0.1	4.4055e-003
25639	6.9175	3.2727	0.1	4.2756e-003
25640	6.8252	3.5455	0.1	3.7137e-003
25641	6.9175	3.4545	0.1	3.7492e-003
25642	6.8252	3.7273	0.1	2.7391e-003
25643	6.9175	3.6364	0.1	2.9575e-003
25644	6.8252	3.9091	0.1	1.4728e-003
25645	6.9175	3.8182	0.1	1.8921e-003
25646	6.8252	4.0909	0.1	-9.8675e-005
25647	6.9175	4.	0.1	5.4391e-004
25648	6.8252	4.2727	0.1	-1.9989e-003
25649	6.9175	4.1818	0.1	-1.1037e-003
25650	6.8252	4.4545	0.1	-4.2759e-003
25651	6.9175	4.3636	0.1	-3.0798e-003
25652	6.8252	4.6364	0.1	-6.9849e-003
25653	6.9175	4.5455	0.1	-5.4491e-003
25654	6.8252	4.8182	0.1	-1.0324e-002
25655	6.9175	4.7273	0.1	-8.2562e-003
25656	6.8252	5.	0.1	-1.4261e-002
25657	6.9175	4.9091	0.1	-1.1845e-002
25658	6.8252	5.1818	0.1	-2.0448e-002
25659	6.9175	5.0909	0.1	-1.5836e-002
25660	6.8252	5.3636	0.1	-2.5291e-002
25661	6.9175	5.2727	0.1	-2.3847e-002
25662	6.8252	5.5455	0.1	-5.794e-002
25663	6.9175	5.4545	0.1	-2.567e-002
25664	6.8252	5.7273	0.1	-8.1091e-002
25665	6.9175	5.6364	0.1	-8.8875e-002
25666	6.9175	5.8182	0.1	-0.11015
25667	6.8252	5.9091	0.1	-0.12439
25668	7.0097	0.27273	0.1	-7.4585e-002
25669	7.1019	0.18182	0.1	-0.10862
25670	7.0097	9.0909e-002	0.1	-0.1244
25671	7.0097	0.45455	0.1	-5.2597e-002
25672	7.1019	0.36364	0.1	-8.084e-002
25673	7.0097	0.63636	0.1	-2.2926e-002
25674	7.1019	0.54545	0.1	-2.3179e-002
25675	7.0097	0.81818	0.1	-1.8648e-002
25676	7.1019	0.72727	0.1	-2.1686e-002
25677	7.0097	1.	0.1	-1.3096e-002
25678	7.1019	0.90909	0.1	-1.4487e-002
25679	7.0097	1.1818	0.1	-9.5743e-003
25680	7.1019	1.0909	0.1	-1.093e-002
25681	7.0097	1.3636	0.1	-6.5811e-003
25682	7.1019	1.2727	0.1	-7.7177e-003
25683	7.0097	1.5455	0.1	-4.1502e-003
25684	7.1019	1.4545	0.1	-5.2042e-003
25685	7.0097	1.7273	0.1	-2.1044e-003
25686	7.1019	1.6364	0.1	-3.0791e-003
25687	7.0097	1.9091	0.1	-3.9551e-004
25688	7.1019	1.8182	0.1	-1.305e-003
25689	7.0097	2.0909	0.1	1.0191e-003
25690	7.1019	2.	0.1	1.7564e-004
25691	7.0097	2.2727	0.1	2.1598e-003
25692	7.1019	2.1818	0.1	1.3884e-003
25693	7.0097	2.4545	0.1	3.038e-003
25694	7.1019	2.3636	0.1	2.3473e-003
25695	7.0097	2.6364	0.1	3.6616e-003
25696	7.1019	2.5455	0.1	3.0602e-003
25697	7.0097	2.8182	0.1	4.0351e-003
25698	7.1019	2.7273	0.1	3.5344e-003
25699	7.0097	3.	0.1	4.1597e-003
25700	7.1019	2.9091	0.1	3.7713e-003
25701	7.0097	3.1818	0.1	4.0353e-003
25702	7.1019	3.0909	0.1	3.7713e-003
25703	7.0097	3.3636	0.1	3.6618e-003
25704	7.1019	3.2727	0.1	3.5345e-003
25705	7.0097	3.5455	0.1	3.0383e-003
25706	7.1019	3.4545	0.1	3.0603e-003
25707	7.0097	3.7273	0.1	2.1602e-003
25708	7.1019	3.6364	0.1	2.3476e-003
25709	7.0097	3.9091	0.1	1.0196e-003
25710	7.1019	3.8182	0.1	1.3888e-003
25711	7.0097	4.0909	0.1	-3.9497e-004
25712	7.1019	4.	0.1	1.7612e-004
25713	7.0097	4.2727	0.1	-2.1038e-003
25714	7.1019	4.1818	0.1	-1.3044e-003
25715	7.0097	4.4545	0.1	-4.1496e-003
25716	7.1019	4.3636	0.1	-3.0786e-003
25717	7.0097	4.6364	0.1	-6.5804e-003
25718	7.1019	4.5455	0.1	-5.2035e-003
25719	7.0097	4.8182	0.1	-9.5735e-003
25720	7.1019	4.7273	0.1	-7.7169e-003
25721	7.0097	5.	0.1	-1.3095e-002
25722	7.1019	4.9091	0.1	-1.0929e-002
25723	7.0097	5.1818	0.1	-1.8647e-002
25724	7.1019	5.0909	0.1	-1.4486e-002
25725	7.0097	5.3636	0.1	-2.2925e-002
25726	7.1019	5.2727	0.1	-2.1685e-002
25727	7.0097	5.5455	0.1	-5.2596e-002
25728	7.1019	5.4545	0.1	-2.3179e-002
25729	7.0097	5.7273	0.1	-7.4583e-002
25730	7.1019	5.6364	0.1	-8.0838e-002
25731	7.1019	5.8182	0.1	-0.10862
25732	7.0097	5.9091	0.1	-0.1244
25733	7.1942	0.27273	0.1	-6.8831e-002
25734	7.2864	0.18182	0.1	-0.10951
25735	7.1942	9.0909e-002	0.1	-0.12725
25736	7.1942	0.45455	0.1	-4.7689e-002
25737	7.2864	0.36364	0.1	-7.3461e-002
25738	7.1942	0.63636	0.1	-2.076e-002
25739	7.2864	0.54545	0.1	-2.0903e-002
25740	7.1942	0.81818	0.1	-1.6998e-002
25741	7.2864	0.72727	0.1	-1.9707e-002
25742	7.1942	1.	0.1	-1.2031e-002
25743	7.2864	0.90909	0.1	-1.3257e-002
25744	7.1942	1.1818	0.1	-8.8918e-003
25745	7.2864	1.0909	0.1	-1.0098e-002
25746	7.1942	1.3636	0.1	-6.2165e-003
25747	7.2864	1.2727	0.1	-7.2324e-003
25748	7.1942	1.5455	0.1	-4.0415e-003
25749	7.2864	1.4545	0.1	-4.9888e-003
25750	7.1942	1.7273	0.1	-2.2082e-003
25751	7.2864	1.6364	0.1	-3.0886e-003
25752	7.1942	1.9091	0.1	-6.7524e-004
25753	7.2864	1.8182	0.1	-1.5001e-003
25754	7.1942	2.0909	0.1	5.9493e-004
25755	7.2864	2.	0.1	-1.7286e-004
25756	7.1942	2.2727	0.1	1.6201e-003
25757	7.2864	2.1818	0.1	9.1524e-004
25758	7.1942	2.4545	0.1	2.4097e-003
25759	7.2864	2.3636	0.1	1.7762e-003
25760	7.1942	2.6364	0.1	2.9706e-003
25761	7.2864	2.5455	0.1	2.4166e-003
25762	7.1942	2.8182	0.1	3.3068e-003
25763	7.2864	2.7273	0.1	2.8427e-003
25764	7.1942	3.	0.1	3.4187e-003
25765	7.2864	2.9091	0.1	3.0557e-003
25766	7.1942	3.1818	0.1	3.3068e-003
25767	7.2864	3.0909	0.1	3.0558e-003
25768	7.1942	3.3636	0.1	2.9707e-003
25769	7.2864	3.2727	0.1	2.8428e-003
25770	7.1942	3.5455	0.1	2.4098e-003
25771	7.2864	3.4545	0.1	2.4166e-003
25772	7.1942	3.7273	0.1	1.6204e-003
25773	7.2864	3.6364	0.1	1.7765e-003
25774	7.1942	3.9091	0.1	5.9538e-004
25775	7.2864	3.8182	0.1	9.1557e-004
25776	7.1942	4.0909	0.1	-6.7467e-004
25777	7.2864	4.	0.1	-1.7232e-004
25778	7.1942	4.2727	0.1	-2.2076e-003
25779	7.2864	4.1818	0.1	-1.4995e-003
25780	7.1942	4.4545	0.1	-4.0408e-003
25781	7.2864	4.3636	0.1	-3.088e-003
25782	7.1942	4.6364	0.1	-6.2157e-003
25783	7.2864	4.5455	0.1	-4.9882e-003
25784	7.1942	4.8182	0.1	-8.8911e-003
25785	7.2864	4.7273	0.1	-7.2317e-003
25786	7.1942	5.	0.1	-1.203e-002
25787	7.2864	4.9091	0.1	-1.0097e-002
25788	7.1942	5.1818	0.1	-1.6997e-002
25789	7.2864	5.0909	0.1	-1.3255e-002
25790	7.1942	5.3636	0.1	-2.0759e-002
25791	7.2864	5.2727	0.1	-1.9706e-002
25792	7.1942	5.5455	0.1	-4.7688e-002
25793	7.2864	5.4545	0.1	-2.0903e-002
25794	7.1942	5.7273	0.1	-6.8829e-002
25795	7.2864	5.6364	0.1	-7.346e-002
25796	7.2864	5.8182	0.1	-0.10951
25797	7.1942	5.9091	0.1	-0.12725
25798	7.3786	0.27273	0.1	-6.3795e-002
25799	7.4709	0.18182	0.1	-0.11366
25800	7.3786	9.0909e-002	0.1	-0.13451
25801	7.3786	0.45455	0.1	-4.3184e-002
25802	7.4709	0.36364	0.1	-6.6688e-002
25803	7.3786	0.63636	0.1	-1.8782e-002
25804	7.4709	0.54545	0.1	-1.8825e-002
25805	7.3786	0.81818	0.1	-1.5494e-002
25806	7.4709	0.72727	0.1	-1.7899e-002
25807	7.3786	1.	0.1	-1.1066e-002
25808	7.4709	0.90909	0.1	-1.2138e-002
25809	7.3786	1.1818	0.1	-8.2779e-003
25810	7.4709	1.0909	0.1	-9.3463e-003
25811	7.3786	1.3636	0.1	-5.8948e-003
25812	7.4709	1.2727	0.1	-6.7997e-003
25813	7.3786	1.5455	0.1	-3.955e-003
25814	7.4709	1.4545	0.1	-4.8045e-003
25815	7.3786	1.7273	0.1	-2.3172e-003
25816	7.4709	1.6364	0.1	-3.1108e-003
25817	7.3786	1.9091	0.1	-9.4591e-004
25818	7.4709	1.8182	0.1	-1.6928e-003
25819	7.3786	2.0909	0.1	1.9159e-004
25820	7.4709	2.	0.1	-5.0676e-004
25821	7.3786	2.2727	0.1	1.1104e-003
25822	7.4709	2.1818	0.1	4.6699e-004
25823	7.3786	2.4545	0.1	1.8187e-003
25824	7.4709	2.3636	0.1	1.238e-003
25825	7.3786	2.6364	0.1	2.322e-003
25826	7.4709	2.5455	0.1	1.8116e-003
25827	7.3786	2.8182	0.1	2.6238e-003
25828	7.4709	2.7273	0.1	2.1937e-003
25829	7.3786	3.	0.1	2.7245e-003
25830	7.4709	2.9091	0.1	2.3848e-003
25831	7.3786	3.1818	0.1	2.6239e-003
25832	7.4709	3.0909	0.1	2.3849e-003
25833	7.3786	3.3636	0.1	2.322e-003
25834	7.4709	3.2727	0.1	2.1937e-003
25835	7.3786	3.5455	0.1	1.8189e-003
25836	7.4709	3.4545	0.1	1.8118e-003
25837	7.3786	3.7273	0.1	1.1107e-003
25838	7.4709	3.6364	0.1	1.2384e-003
25839	7.3786	3.9091	0.1	1.9201e-004
25840	7.4709	3.8182	0.1	4.6732e-004
25841	7.3786	4.0909	0.1	-9.4537e-004
25842	7.4709	4.	0.1	-5.0616e-004
25843	7.3786	4.2727	0.1	-2.3167e-003
25844	7.4709	4.1818	0.1	-1.6924e-003
25845	7.3786	4.4545	0.1	-3.9544e-003
25846	7.4709	4.3636	0.1	-3.1102e-003
25847	7.3786	4.6364	0.1	-5.8942e-003
25848	7.4709	4.5455	0.1	-4.8039e-003
25849	7.3786	4.8182	0.1	-8.2772e-003
25850	7.4709	4.7273	0.1	-6.799e-003
25851	7.3786	5.	0.1	-1.1064e-002
25852	7.4709	4.9091	0.1	-9.3457e-003
25853	7.3786	5.1818	0.1	-1.5493e-002
25854	7.4709	5.0909	0.1	-1.2137e-002
25855	7.3786	5.3636	0.1	-1.8781e-002
25856	7.4709	5.2727	0.1	-1.7899e-002
25857	7.3786	5.5455	0.1	-4.3183e-002
25858	7.4709	5.4545	0.1	-1.8825e-002
25859	7.3786	5.7273	0.1	-6.3795e-002
25860	7.4709	5.6364	0.1	-6.6686e-002
25861	7.4709	5.8182	0.1	-0.11366
25862	7.3786	5.9091	0.1	-0.13451
25863	7.5631	0.27273	0.1	-5.9473e-002
25864	7.6553	0.18182	0.1	-0.1228
25865	7.5631	9.0909e-002	0.1	-0.14959
25866	7.5631	0.45455	0.1	-3.9047e-002
25867	7.6553	0.36364	0.1	-6.0464e-002
25868	7.5631	0.63636	0.1	-1.6976e-002
25869	7.6553	0.54545	0.1	-1.6924e-002
25870	7.5631	0.81818	0.1	-1.4123e-002
25871	7.6553	0.72727	0.1	-1.6245e-002
25872	7.5631	1.	0.1	-1.0191e-002
25873	7.6553	0.90909	0.1	-1.1119e-002
25874	7.5631	1.1818	0.1	-7.7267e-003
25875	7.6553	1.0909	0.1	-8.6648e-003
25876	7.5631	1.3636	0.1	-5.6127e-003
25877	7.6553	1.2727	0.1	-6.4116e-003
25878	7.5631	1.5455	0.1	-3.8891e-003
25879	7.6553	1.4545	0.1	-4.6446e-003
25880	7.5631	1.7273	0.1	-2.4308e-003
25881	7.6553	1.6364	0.1	-3.1408e-003
25882	7.5631	1.9091	0.1	-1.2082e-003
25883	7.6553	1.8182	0.1	-1.8796e-003
25884	7.5631	2.0909	0.1	-1.9257e-004
25885	7.6553	2.	0.1	-8.2313e-004
25886	7.5631	2.2727	0.1	6.2884e-004
25887	7.6553	2.1818	0.1	4.5361e-005
25888	7.5631	2.4545	0.1	1.2622e-003
25889	7.6553	2.3636	0.1	7.3377e-004
25890	7.5631	2.6364	0.1	1.7127e-003
25891	7.6553	2.5455	0.1	1.2462e-003
25892	7.5631	2.8182	0.1	1.983e-003
25893	7.6553	2.7273	0.1	1.588e-003
25894	7.5631	3.	0.1	2.0731e-003
25895	7.6553	2.9091	0.1	1.7588e-003
25896	7.5631	3.1818	0.1	1.9829e-003
25897	7.6553	3.0909	0.1	1.7588e-003
25898	7.5631	3.3636	0.1	1.7128e-003
25899	7.6553	3.2727	0.1	1.5879e-003
25900	7.5631	3.5455	0.1	1.2626e-003
25901	7.6553	3.4545	0.1	1.2465e-003
25902	7.5631	3.7273	0.1	6.2922e-004
25903	7.6553	3.6364	0.1	7.3418e-004
25904	7.5631	3.9091	0.1	-1.9207e-004
25905	7.6553	3.8182	0.1	4.5808e-005
25906	7.5631	4.0909	0.1	-1.2077e-003
25907	7.6553	4.	0.1	-8.2269e-004
25908	7.5631	4.2727	0.1	-2.4304e-003
25909	7.6553	4.1818	0.1	-1.8793e-003
25910	7.5631	4.4545	0.1	-3.8885e-003
25911	7.6553	4.3636	0.1	-3.1402e-003
25912	7.5631	4.6364	0.1	-5.612e-003
25913	7.6553	4.5455	0.1	-4.6439e-003
25914	7.5631	4.8182	0.1	-7.726e-003
25915	7.6553	4.7273	0.1	-6.4108e-003
25916	7.5631	5.	0.1	-1.019e-002
25917	7.6553	4.9091	0.1	-8.6641e-003
25918	7.5631	5.1818	0.1	-1.4122e-002
25919	7.6553	5.0909	0.1	-1.1117e-002
25920	7.5631	5.3636	0.1	-1.6975e-002
25921	7.6553	5.2727	0.1	-1.6244e-002
25922	7.5631	5.5455	0.1	-3.9047e-002
25923	7.6553	5.4545	0.1	-1.6924e-002
25924	7.5631	5.7273	0.1	-5.9472e-002
25925	7.6553	5.6364	0.1	-6.0463e-002
25926	7.6553	5.8182	0.1	-0.1228
25927	7.5631	5.9091	0.1	-0.14958
25928	7.7476	0.27273	0.1	-5.5864e-002
25929	7.8398	0.18182	0.1	-0.14081
25930	7.7476	9.0909e-002	0.1	-0.18099
25931	7.7476	0.45455	0.1	-3.524e-002
25932	7.8398	0.36364	0.1	-5.4744e-002
25933	7.7476	0.63636	0.1	-1.5319e-002
25934	7.8398	0.54545	0.1	-1.5184e-002
25935	7.7476	0.81818	0.1	-1.2867e-002
25936	7.8398	0.72727	0.1	-1.473e-002
25937	7.7476	1.	0.1	-9.392e-003
25938	7.8398	0.90909	0.1	-1.019e-002
25939	7.7476	1.1818	0.1	-7.2258e-003
25940	7.8398	1.0909	0.1	-8.0473e-003
25941	7.7476	1.3636	0.1	-5.359e-003
25942	7.8398	1.2727	0.1	-6.0641e-003
25943	7.7476	1.5455	0.1	-3.8342e-003
25944	7.8398	1.4545	0.1	-4.5069e-003
25945	7.7476	1.7273	0.1	-2.5411e-003
25946	7.8398	1.6364	0.1	-3.1776e-003
25947	7.7476	1.9091	0.1	-1.4549e-003
25948	7.8398	1.8182	0.1	-2.0606e-003
25949	7.7476	2.0909	0.1	-5.5132e-004
25950	7.8398	2.	0.1	-1.1231e-003
25951	7.7476	2.2727	0.1	1.8026e-004
25952	7.8398	2.1818	0.1	-3.5114e-004
25953	7.7476	2.4545	0.1	7.4513e-004
25954	7.8398	2.3636	0.1	2.6133e-004
25955	7.7476	2.6364	0.1	1.1472e-003
25956	7.8398	2.5455	0.1	7.1766e-004
25957	7.7476	2.8182	0.1	1.3885e-003
25958	7.8398	2.7273	0.1	1.0222e-003
25959	7.7476	3.	0.1	1.4689e-003
25960	7.8398	2.9091	0.1	1.1745e-003
25961	7.7476	3.1818	0.1	1.3884e-003
25962	7.8398	3.0909	0.1	1.1746e-003
25963	7.7476	3.3636	0.1	1.1473e-003
25964	7.8398	3.2727	0.1	1.0222e-003
25965	7.7476	3.5455	0.1	7.4549e-004
25966	7.8398	3.4545	0.1	7.1793e-004
25967	7.7476	3.7273	0.1	1.8074e-004
25968	7.8398	3.6364	0.1	2.6175e-004
25969	7.7476	3.9091	0.1	-5.5093e-004
25970	7.8398	3.8182	0.1	-3.5075e-004
25971	7.7476	4.0909	0.1	-1.4545e-003
25972	7.8398	4.	0.1	-1.1228e-003
25973	7.7476	4.2727	0.1	-2.5406e-003
25974	7.8398	4.1818	0.1	-2.0601e-003
25975	7.7476	4.4545	0.1	-3.8336e-003
25976	7.8398	4.3636	0.1	-3.1771e-003
25977	7.7476	4.6364	0.1	-5.3583e-003
25978	7.8398	4.5455	0.1	-4.5062e-003
25979	7.7476	4.8182	0.1	-7.2251e-003
25980	7.8398	4.7273	0.1	-6.0633e-003
25981	7.7476	5.	0.1	-9.3909e-003
25982	7.8398	4.9091	0.1	-8.0468e-003
25983	7.7476	5.1818	0.1	-1.2865e-002
25984	7.8398	5.0909	0.1	-1.0189e-002
25985	7.7476	5.3636	0.1	-1.5319e-002
25986	7.8398	5.2727	0.1	-1.4729e-002
25987	7.7476	5.5455	0.1	-3.5239e-002
25988	7.8398	5.4545	0.1	-1.5183e-002
25989	7.7476	5.7273	0.1	-5.5863e-002
25990	7.8398	5.6364	0.1	-5.4743e-002
25991	7.8398	5.8182	0.1	-0.14081
25992	7.7476	5.9091	0.1	-0.18099
25993	7.932	0.27273	0.1	-5.3048e-002
25994	8.0243	0.18182	0.1	-0.17798
25995	7.932	9.0909e-002	0.1	-0.25453
25996	7.932	0.45455	0.1	-3.1739e-002
25997	8.0243	0.36364	0.1	-4.9486e-002
25998	7.932	0.63636	0.1	-1.3807e-002
25999	8.0243	0.54545	0.1	-1.3587e-002
26000	7.932	0.81818	0.1	-1.1723e-002
26001	8.0243	0.72727	0.1	-1.3342e-002
26002	7.932	1.	0.1	-8.6702e-003
26003	8.0243	0.90909	0.1	-9.3435e-003
26004	7.932	1.1818	0.1	-6.7779e-003
26005	8.0243	1.0909	0.1	-7.4865e-003
26006	7.932	1.3636	0.1	-5.1388e-003
26007	8.0243	1.2727	0.1	-5.7514e-003
26008	7.932	1.5455	0.1	-3.7966e-003
26009	8.0243	1.4545	0.1	-4.3873e-003
26010	7.932	1.7273	0.1	-2.6552e-003
26011	8.0243	1.6364	0.1	-3.2183e-003
26012	7.932	1.9091	0.1	-1.6945e-003
26013	8.0243	1.8182	0.1	-2.2337e-003
26014	7.932	2.0909	0.1	-8.936e-004
26015	8.0243	2.	0.1	-1.4055e-003
26016	7.932	2.2727	0.1	-2.4406e-004
26017	8.0243	2.1818	0.1	-7.2198e-004
26018	7.932	2.4545	0.1	2.5762e-004
26019	8.0243	2.3636	0.1	-1.7908e-004
26020	7.932	2.6364	0.1	6.1499e-004
26021	8.0243	2.5455	0.1	2.2566e-004
26022	7.932	2.8182	0.1	8.2974e-004
26023	8.0243	2.7273	0.1	4.9596e-004
26024	7.932	3.	0.1	9.0145e-004
26025	8.0243	2.9091	0.1	6.3133e-004
26026	7.932	3.1818	0.1	8.2986e-004
26027	8.0243	3.0909	0.1	6.3145e-004
26028	7.932	3.3636	0.1	6.152e-004
26029	8.0243	3.2727	0.1	4.9605e-004
26030	7.932	3.5455	0.1	2.5794e-004
26031	8.0243	3.4545	0.1	2.2578e-004
26032	7.932	3.7273	0.1	-2.4373e-004
26033	8.0243	3.6364	0.1	-1.7876e-004
26034	7.932	3.9091	0.1	-8.9324e-004
26035	8.0243	3.8182	0.1	-7.2157e-004
26036	7.932	4.0909	0.1	-1.694e-003
26037	8.0243	4.	0.1	-1.4051e-003
26038	7.932	4.2727	0.1	-2.6547e-003
26039	8.0243	4.1818	0.1	-2.2332e-003
26040	7.932	4.4545	0.1	-3.7961e-003
26041	8.0243	4.3636	0.1	-3.2177e-003
26042	7.932	4.6364	0.1	-5.1381e-003
26043	8.0243	4.5455	0.1	-4.3867e-003
26044	7.932	4.8182	0.1	-6.7773e-003
26045	8.0243	4.7273	0.1	-5.7508e-003
26046	7.932	5.	0.1	-8.6691e-003
26047	8.0243	4.9091	0.1	-7.486e-003
26048	7.932	5.1818	0.1	-1.1722e-002
26049	8.0243	5.0909	0.1	-9.3418e-003
26050	7.932	5.3636	0.1	-1.3806e-002
26051	8.0243	5.2727	0.1	-1.3341e-002
26052	7.932	5.5455	0.1	-3.1739e-002
26053	8.0243	5.4545	0.1	-1.3587e-002
26054	7.932	5.7273	0.1	-5.3047e-002
26055	8.0243	5.6364	0.1	-4.9484e-002
26056	8.0243	5.8182	0.1	-0.17797
26057	7.932	5.9091	0.1	-0.25453
26058	8.1165	0.27273	0.1	-5.1178e-002
26059	8.2087	0.18182	0.1	-0.26923
26060	8.1165	9.0909e-002	0.1	-0.45028
26061	8.1165	0.45455	0.1	-2.8507e-002
26062	8.2087	0.36364	0.1	-4.4652e-002
26063	8.1165	0.63636	0.1	-1.2414e-002
26064	8.2087	0.54545	0.1	-1.2122e-002
26065	8.1165	0.81818	0.1	-1.0672e-002
26066	8.2087	0.72727	0.1	-1.207e-002
26067	8.1165	1.	0.1	-8.0077e-003
26068	8.2087	0.90909	0.1	-8.5722e-003
26069	8.1165	1.1818	0.1	-6.3673e-003
26070	8.2087	1.0909	0.1	-6.9787e-003
26071	8.1165	1.3636	0.1	-4.9372e-003
26072	8.2087	1.2727	0.1	-5.4716e-003
26073	8.1165	1.5455	0.1	-3.7629e-003
26074	8.2087	1.4545	0.1	-4.2846e-003
26075	8.1165	1.7273	0.1	-2.7608e-003
26076	8.2087	1.6364	0.1	-3.2629e-003
26077	8.1165	1.9091	0.1	-1.9152e-003
26078	8.2087	1.8182	0.1	-2.3997e-003
26079	8.1165	2.0909	0.1	-1.2087e-003
26080	8.2087	2.	0.1	-1.6715e-003
26081	8.1165	2.2727	0.1	-6.3463e-004
26082	8.2087	2.1818	0.1	-1.0695e-003
26083	8.1165	2.4545	0.1	-1.9057e-004
26084	8.2087	2.3636	0.1	-5.9041e-004
26085	8.1165	2.6364	0.1	1.2589e-004
26086	8.2087	2.5455	0.1	-2.3307e-004
26087	8.1165	2.8182	0.1	3.1613e-004
26088	8.2087	2.7273	0.1	5.9778e-006
26089	8.1165	3.	0.1	3.797e-004
26090	8.2087	2.9091	0.1	1.2584e-004
26091	8.1165	3.1818	0.1	3.1622e-004
26092	8.2087	3.0909	0.1	1.2596e-004
26093	8.1165	3.3636	0.1	1.2589e-004
26094	8.2087	3.2727	0.1	6.1259e-006
26095	8.1165	3.5455	0.1	-1.9045e-004
26096	8.2087	3.4545	0.1	-2.3296e-004
26097	8.1165	3.7273	0.1	-6.3421e-004
26098	8.2087	3.6364	0.1	-5.902e-004
26099	8.1165	3.9091	0.1	-1.2082e-003
26100	8.2087	3.8182	0.1	-1.0693e-003
26101	8.1165	4.0909	0.1	-1.9148e-003
26102	8.2087	4.	0.1	-1.6713e-003
26103	8.1165	4.2727	0.1	-2.7603e-003
26104	8.2087	4.1818	0.1	-2.3992e-003
26105	8.1165	4.4545	0.1	-3.7623e-003
26106	8.2087	4.3636	0.1	-3.2623e-003
26107	8.1165	4.6364	0.1	-4.9366e-003
26108	8.2087	4.5455	0.1	-4.2841e-003
26109	8.1165	4.8182	0.1	-6.3668e-003
26110	8.2087	4.7273	0.1	-5.471e-003
26111	8.1165	5.	0.1	-8.0066e-003
26112	8.2087	4.9091	0.1	-6.978e-003
26113	8.1165	5.1818	0.1	-1.0671e-002
26114	8.2087	5.0909	0.1	-8.5707e-003
26115	8.1165	5.3636	0.1	-1.2414e-002
26116	8.2087	5.2727	0.1	-1.2069e-002
26117	8.1165	5.5455	0.1	-2.8506e-002
26118	8.2087	5.4545	0.1	-1.2122e-002
26119	8.1165	5.7273	0.1	-5.1177e-002
26120	8.2087	5.6364	0.1	-4.4651e-002
26121	8.2087	5.8182	0.1	-0.26922
26122	8.1165	5.9091	0.1	-0.45028
26123	8.301	0.27273	0.1	-5.0632e-002
26124	8.3932	0.18182	0.1	-0.55398
26125	8.301	9.0909e-002	0.1	-0.8566
26126	8.301	0.45455	0.1	-2.5532e-002
26127	8.3932	0.36364	0.1	-4.0219e-002
26128	8.301	0.63636	0.1	-1.1145e-002
26129	8.3932	0.54545	0.1	-1.0785e-002
26130	8.301	0.81818	0.1	-9.7184e-003
26131	8.3932	0.72727	0.1	-1.0913e-002
26132	8.301	1.	0.1	-7.4128e-003
26133	8.3932	0.90909	0.1	-7.8782e-003
26134	8.301	1.1818	0.1	-6.0042e-003
26135	8.3932	1.0909	0.1	-6.5269e-003
26136	8.301	1.3636	0.1	-4.7659e-003
26137	8.3932	1.2727	0.1	-5.2297e-003
26138	8.301	1.5455	0.1	-3.7457e-003
26139	8.3932	1.4545	0.1	-4.2051e-003
26140	8.301	1.7273	0.1	-2.8714e-003
26141	8.3932	1.6364	0.1	-3.3183e-003
26142	8.301	1.9091	0.1	-2.1311e-003
26143	8.3932	1.8182	0.1	-2.5662e-003
26144	8.301	2.0909	0.1	-1.511e-003
26145	8.3932	2.	0.1	-1.9299e-003
26146	8.301	2.2727	0.1	-1.0063e-003
26147	8.3932	2.1818	0.1	-1.4024e-003
26148	8.301	2.4545	0.1	-6.1546e-004
26149	8.3932	2.3636	0.1	-9.8174e-004
26150	8.301	2.6364	0.1	-3.3654e-004
26151	8.3932	2.5455	0.1	-6.6782e-004
26152	8.301	2.8182	0.1	-1.6843e-004
26153	8.3932	2.7273	0.1	-4.5732e-004
26154	8.301	3.	0.1	-1.1219e-004
26155	8.3932	2.9091	0.1	-3.5172e-004
26156	8.301	3.1818	0.1	-1.6825e-004
26157	8.3932	3.0909	0.1	-3.5163e-004
26158	8.301	3.3636	0.1	-3.3627e-004
26159	8.3932	3.2727	0.1	-4.5729e-004
26160	8.301	3.5455	0.1	-6.1525e-004
26161	8.3932	3.4545	0.1	-6.6755e-004
26162	8.301	3.7273	0.1	-1.0062e-003
26163	8.3932	3.6364	0.1	-9.8162e-004
26164	8.301	3.9091	0.1	-1.5109e-003
26165	8.3932	3.8182	0.1	-1.4023e-003
26166	8.301	4.0909	0.1	-2.1308e-003
26167	8.3932	4.	0.1	-1.9296e-003
26168	8.301	4.2727	0.1	-2.8708e-003
26169	8.3932	4.1818	0.1	-2.5658e-003
26170	8.301	4.4545	0.1	-3.7451e-003
26171	8.3932	4.3636	0.1	-3.3175e-003
26172	8.301	4.6364	0.1	-4.7654e-003
26173	8.3932	4.5455	0.1	-4.2044e-003
26174	8.301	4.8182	0.1	-6.0036e-003
26175	8.3932	4.7273	0.1	-5.2289e-003
26176	8.301	5.	0.1	-7.4118e-003
26177	8.3932	4.9091	0.1	-6.5263e-003
26178	8.301	5.1818	0.1	-9.7172e-003
26179	8.3932	5.0909	0.1	-7.8769e-003
26180	8.301	5.3636	0.1	-1.1144e-002
26181	8.3932	5.2727	0.1	-1.0912e-002
26182	8.301	5.5455	0.1	-2.5531e-002
26183	8.3932	5.4545	0.1	-1.0785e-002
26184	8.301	5.7273	0.1	-5.0631e-002
26185	8.3932	5.6364	0.1	-4.0218e-002
26186	8.3932	5.8182	0.1	-0.55398
26187	8.301	5.9091	0.1	-0.8566
26188	8.4854	0.27273	0.1	-5.2266e-002
26189	8.5777	0.18182	0.1	-1.2243
26190	8.4854	9.0909e-002	0.1	-1.377
26191	8.4854	0.45455	0.1	-2.2793e-002
26192	8.5777	0.36364	0.1	-3.6161e-002
26193	8.4854	0.63636	0.1	-9.9909e-003
26194	8.5777	0.54545	0.1	-9.5615e-003
26195	8.4854	0.81818	0.1	-8.8573e-003
26196	8.5777	0.72727	0.1	-9.8609e-003
26197	8.4854	1.	0.1	-6.8825e-003
26198	8.5777	0.90909	0.1	-7.2537e-003
26199	8.4854	1.1818	0.1	-5.6867e-003
26200	8.5777	1.0909	0.1	-6.1245e-003
26201	8.4854	1.3636	0.1	-4.6247e-003
26202	8.5777	1.2727	0.1	-5.0197e-003
26203	8.4854	1.5455	0.1	-3.7454e-003
26204	8.5777	1.4545	0.1	-4.1438e-003
26205	8.4854	1.7273	0.1	-2.9878e-003
26206	8.5777	1.6364	0.1	-3.3803e-003
26207	8.4854	1.9091	0.1	-2.3442e-003
26208	8.5777	1.8182	0.1	-2.7299e-003
26209	8.4854	2.0909	0.1	-1.8034e-003
26210	8.5777	2.	0.1	-2.1779e-003
26211	8.4854	2.2727	0.1	-1.3619e-003
26212	8.5777	2.1818	0.1	-1.7184e-003
26213	8.4854	2.4545	0.1	-1.0194e-003
26214	8.5777	2.3636	0.1	-1.3512e-003
26215	8.4854	2.6364	0.1	-7.7473e-004
26216	8.5777	2.5455	0.1	-1.0768e-003
26217	8.4854	2.8182	0.1	-6.2719e-004
26218	8.5777	2.7273	0.1	-8.9252e-004
26219	8.4854	3.	0.1	-5.7789e-004
26220	8.5777	2.9091	0.1	-8.e-004
26221	8.4854	3.1818	0.1	-6.2725e-004
26222	8.5777	3.0909	0.1	-8.e-004
26223	8.4854	3.3636	0.1	-7.747e-004
26224	8.5777	3.2727	0.1	-8.9261e-004
26225	8.4854	3.5455	0.1	-1.0192e-003
26226	8.5777	3.4545	0.1	-1.0765e-003
26227	8.4854	3.7273	0.1	-1.3617e-003
26228	8.5777	3.6364	0.1	-1.351e-003
26229	8.4854	3.9091	0.1	-1.803e-003
26230	8.5777	3.8182	0.1	-1.718e-003
26231	8.4854	4.0909	0.1	-2.3438e-003
26232	8.5777	4.	0.1	-2.1775e-003
26233	8.4854	4.2727	0.1	-2.9872e-003
26234	8.5777	4.1818	0.1	-2.7294e-003
26235	8.4854	4.4545	0.1	-3.7445e-003
26236	8.5777	4.3636	0.1	-3.3796e-003
26237	8.4854	4.6364	0.1	-4.6238e-003
26238	8.5777	4.5455	0.1	-4.143e-003
26239	8.4854	4.8182	0.1	-5.6859e-003
26240	8.5777	4.7273	0.1	-5.0189e-003
26241	8.4854	5.	0.1	-6.8816e-003
26242	8.5777	4.9091	0.1	-6.124e-003
26243	8.4854	5.1818	0.1	-8.8561e-003
26244	8.5777	5.0909	0.1	-7.2522e-003
26245	8.4854	5.3636	0.1	-9.9903e-003
26246	8.5777	5.2727	0.1	-9.8598e-003
26247	8.4854	5.5455	0.1	-2.2792e-002
26248	8.5777	5.4545	0.1	-9.5612e-003
26249	8.4854	5.7273	0.1	-5.2265e-002
26250	8.5777	5.6364	0.1	-3.6159e-002
26251	8.5777	5.8182	0.1	-1.2243
26252	8.4854	5.9091	0.1	-1.377
26253	8.6699	0.27273	0.1	-5.8476e-002
26254	8.7621	0.18182	0.1	-2.0731
26255	8.6699	9.0909e-002	0.1	-1.9142
26256	8.6699	0.45455	0.1	-2.0261e-002
26257	8.7621	0.36364	0.1	-3.2462e-002
26258	8.6699	0.63636	0.1	-8.9363e-003
26259	8.7621	0.54545	0.1	-8.4425e-003
26260	8.6699	0.81818	0.1	-8.0754e-003
26261	8.7621	0.72727	0.1	-8.9054e-003
26262	8.6699	1.	0.1	-6.4052e-003
26263	8.7621	0.90909	0.1	-6.6939e-003
26264	8.6699	1.1818	0.1	-5.4039e-003
26265	8.7621	1.0909	0.1	-5.7683e-003
26266	8.6699	1.3636	0.1	-4.503e-003
26267	8.7621	1.2727	0.1	-4.8392e-003
26268	8.6699	1.5455	0.1	-3.7525e-003
26269	8.7621	1.4545	0.1	-4.0989e-003
26270	8.6699	1.7273	0.1	-3.1019e-003
26271	8.7621	1.6364	0.1	-3.4478e-003
26272	8.6699	1.9091	0.1	-2.5467e-003
26273	8.7621	1.8182	0.1	-2.8906e-003
26274	8.6699	2.0909	0.1	-2.0782e-003
26275	8.7621	2.	0.1	-2.4149e-003
26276	8.6699	2.2727	0.1	-1.6945e-003
26277	8.7621	2.1818	0.1	-2.0177e-003
26278	8.6699	2.4545	0.1	-1.3964e-003
26279	8.7621	2.3636	0.1	-1.6994e-003
26280	8.6699	2.6364	0.1	-1.1831e-003
26281	8.7621	2.5455	0.1	-1.4612e-003
26282	8.6699	2.8182	0.1	-1.0541e-003
26283	8.7621	2.7273	0.1	-1.3009e-003
26284	8.6699	3.	0.1	-1.011e-003
26285	8.7621	2.9091	0.1	-1.2204e-003
26286	8.6699	3.1818	0.1	-1.0542e-003
26287	8.7621	3.0909	0.1	-1.2202e-003
26288	8.6699	3.3636	0.1	-1.1829e-003
26289	8.7621	3.2727	0.1	-1.3009e-003
26290	8.6699	3.5455	0.1	-1.3961e-003
26291	8.7621	3.4545	0.1	-1.4609e-003
26292	8.6699	3.7273	0.1	-1.6941e-003
26293	8.7621	3.6364	0.1	-1.6993e-003
26294	8.6699	3.9091	0.1	-2.0777e-003
26295	8.7621	3.8182	0.1	-2.0174e-003
26296	8.6699	4.0909	0.1	-2.5462e-003
26297	8.7621	4.	0.1	-2.4147e-003
26298	8.6699	4.2727	0.1	-3.1014e-003
26299	8.7621	4.1818	0.1	-2.8901e-003
26300	8.6699	4.4545	0.1	-3.752e-003
26301	8.7621	4.3636	0.1	-3.4474e-003
26302	8.6699	4.6364	0.1	-4.5023e-003
26303	8.7621	4.5455	0.1	-4.0983e-003
26304	8.6699	4.8182	0.1	-5.4034e-003
26305	8.7621	4.7273	0.1	-4.8385e-003
26306	8.6699	5.	0.1	-6.4042e-003
26307	8.7621	4.9091	0.1	-5.7679e-003
26308	8.6699	5.1818	0.1	-8.074e-003
26309	8.7621	5.0909	0.1	-6.6923e-003
26310	8.6699	5.3636	0.1	-8.9355e-003
26311	8.7621	5.2727	0.1	-8.9045e-003
26312	8.6699	5.5455	0.1	-2.026e-002
26313	8.7621	5.4545	0.1	-8.4419e-003
26314	8.6699	5.7273	0.1	-5.8475e-002
26315	8.7621	5.6364	0.1	-3.246e-002
26316	8.7621	5.8182	0.1	-2.0731
26317	8.6699	5.9091	0.1	-1.9142
26318	8.8544	0.27273	0.1	-7.8886e-002
26319	8.9466	0.18182	0.1	-2.9312
26320	8.8544	9.0909e-002	0.1	-2.438
26321	8.8544	0.45455	0.1	-1.7923e-002
26322	8.9466	0.36364	0.1	-2.9131e-002
26323	8.8544	0.63636	0.1	-7.9821e-003
26324	8.9466	0.54545	0.1	-7.4213e-003
26325	8.8544	0.81818	0.1	-7.3747e-003
26326	8.9466	0.72727	0.1	-8.0432e-003
26327	8.8544	1.	0.1	-5.9849e-003
26328	8.9466	0.90909	0.1	-6.1966e-003
26329	8.8544	1.1818	0.1	-5.1615e-003
26330	8.9466	1.0909	0.1	-5.4569e-003
26331	8.8544	1.3636	0.1	-4.4072e-003
26332	8.9466	1.2727	0.1	-4.6874e-003
26333	8.8544	1.5455	0.1	-3.7737e-003
26334	8.9466	1.4545	0.1	-4.0703e-003
26335	8.8544	1.7273	0.1	-3.2204e-003
26336	8.9466	1.6364	0.1	-3.5214e-003
26337	8.8544	1.9091	0.1	-2.7454e-003
26338	8.9466	1.8182	0.1	-3.0486e-003
26339	8.8544	2.0909	0.1	-2.3427e-003
26340	8.9466	2.	0.1	-2.6425e-003
26341	8.8544	2.2727	0.1	-2.012e-003
26342	8.9466	2.1818	0.1	-2.3018e-003
26343	8.8544	2.4545	0.1	-1.7543e-003
26344	8.9466	2.3636	0.1	-2.0281e-003
26345	8.8544	2.6364	0.1	-1.5696e-003
26346	8.9466	2.5455	0.1	-1.8227e-003
26347	8.8544	2.8182	0.1	-1.4579e-003
26348	8.9466	2.7273	0.1	-1.6842e-003
26349	8.8544	3.	0.1	-1.4205e-003
26350	8.9466	2.9091	0.1	-1.6145e-003
26351	8.8544	3.1818	0.1	-1.4577e-003
26352	8.9466	3.0909	0.1	-1.6145e-003
26353	8.8544	3.3636	0.1	-1.5694e-003
26354	8.9466	3.2727	0.1	-1.6842e-003
26355	8.8544	3.5455	0.1	-1.7542e-003
26356	8.9466	3.4545	0.1	-1.8224e-003
26357	8.8544	3.7273	0.1	-2.012e-003
26358	8.9466	3.6364	0.1	-2.0278e-003
26359	8.8544	3.9091	0.1	-2.3427e-003
26360	8.9466	3.8182	0.1	-2.3017e-003
26361	8.8544	4.0909	0.1	-2.7452e-003
26362	8.9466	4.	0.1	-2.6422e-003
26363	8.8544	4.2727	0.1	-3.22e-003
26364	8.9466	4.1818	0.1	-3.0481e-003
26365	8.8544	4.4545	0.1	-3.7732e-003
26366	8.9466	4.3636	0.1	-3.521e-003
26367	8.8544	4.6364	0.1	-4.4065e-003
26368	8.9466	4.5455	0.1	-4.0696e-003
26369	8.8544	4.8182	0.1	-5.1609e-003
26370	8.9466	4.7273	0.1	-4.6867e-003
26371	8.8544	5.	0.1	-5.9839e-003
26372	8.9466	4.9091	0.1	-5.4563e-003
26373	8.8544	5.1818	0.1	-7.3737e-003
26374	8.9466	5.0909	0.1	-6.1952e-003
26375	8.8544	5.3636	0.1	-7.9814e-003
26376	8.9466	5.2727	0.1	-8.0423e-003
26377	8.8544	5.5455	0.1	-1.7922e-002
26378	8.9466	5.4545	0.1	-7.4208e-003
26379	8.8544	5.7273	0.1	-7.8885e-002
26380	8.9466	5.6364	0.1	-2.913e-002
26381	8.9466	5.8182	0.1	-2.9312
26382	8.8544	5.9091	0.1	-2.438
26383	9.0388	0.27273	0.1	-0.1983
26384	9.1311	0.18182	0.1	-3.759
26385	9.0388	9.0909e-002	0.1	-2.9398
26386	9.0388	0.45455	0.1	-1.5757e-002
26387	9.1311	0.36364	0.1	-2.624e-002
26388	9.0388	0.63636	0.1	-7.1187e-003
26389	9.1311	0.54545	0.1	-6.495e-003
26390	9.0388	0.81818	0.1	-6.7477e-003
26391	9.1311	0.72727	0.1	-7.2728e-003
26392	9.0388	1.	0.1	-5.6139e-003
26393	9.1311	0.90909	0.1	-5.762e-003
26394	9.0388	1.1818	0.1	-4.9515e-003
26395	9.1311	1.0909	0.1	-5.19e-003
26396	9.0388	1.3636	0.1	-4.3299e-003
26397	9.1311	1.2727	0.1	-4.5645e-003
26398	9.0388	1.5455	0.1	-3.8029e-003
26399	9.1311	1.4545	0.1	-4.0583e-003
26400	9.0388	1.7273	0.1	-3.3376e-003
26401	9.1311	1.6364	0.1	-3.6018e-003
26402	9.0388	1.9091	0.1	-2.9355e-003
26403	9.1311	1.8182	0.1	-3.2049e-003
26404	9.0388	2.0909	0.1	-2.5926e-003
26405	9.1311	2.	0.1	-2.8621e-003
26406	9.0388	2.2727	0.1	-2.3096e-003
26407	9.1311	2.1818	0.1	-2.5723e-003
26408	9.0388	2.4545	0.1	-2.0887e-003
26409	9.1311	2.3636	0.1	-2.3389e-003
26410	9.0388	2.6364	0.1	-1.9299e-003
26411	9.1311	2.5455	0.1	-2.1634e-003
26412	9.0388	2.8182	0.1	-1.8335e-003
26413	9.1311	2.7273	0.1	-2.0447e-003
26414	9.0388	3.	0.1	-1.8013e-003
26415	9.1311	2.9091	0.1	-1.9845e-003
26416	9.0388	3.1818	0.1	-1.8336e-003
26417	9.1311	3.0909	0.1	-1.9847e-003
26418	9.0388	3.3636	0.1	-1.9297e-003
26419	9.1311	3.2727	0.1	-2.0445e-003
26420	9.0388	3.5455	0.1	-2.0883e-003
26421	9.1311	3.4545	0.1	-2.1631e-003
26422	9.0388	3.7273	0.1	-2.3092e-003
26423	9.1311	3.6364	0.1	-2.3385e-003
26424	9.0388	3.9091	0.1	-2.5922e-003
26425	9.1311	3.8182	0.1	-2.5721e-003
26426	9.0388	4.0909	0.1	-2.935e-003
26427	9.1311	4.	0.1	-2.8616e-003
26428	9.0388	4.2727	0.1	-3.3371e-003
26429	9.1311	4.1818	0.1	-3.2044e-003
26430	9.0388	4.4545	0.1	-3.8022e-003
26431	9.1311	4.3636	0.1	-3.6013e-003
26432	9.0388	4.6364	0.1	-4.3291e-003
26433	9.1311	4.5455	0.1	-4.0577e-003
26434	9.0388	4.8182	0.1	-4.9508e-003
26435	9.1311	4.7273	0.1	-4.5639e-003
26436	9.0388	5.	0.1	-5.6129e-003
26437	9.1311	4.9091	0.1	-5.1893e-003
26438	9.0388	5.1818	0.1	-6.7465e-003
26439	9.1311	5.0909	0.1	-5.7606e-003
26440	9.0388	5.3636	0.1	-7.118e-003
26441	9.1311	5.2727	0.1	-7.2718e-003
26442	9.0388	5.5455	0.1	-1.5756e-002
26443	9.1311	5.4545	0.1	-6.4946e-003
26444	9.0388	5.7273	0.1	-0.19829
26445	9.1311	5.6364	0.1	-2.6239e-002
26446	9.1311	5.8182	0.1	-3.759
26447	9.0388	5.9091	0.1	-2.9398
26448	9.2233	0.27273	0.1	-0.91843
26449	9.3155	0.18182	0.1	-4.5475
26450	9.2233	9.0909e-002	0.1	-3.4174
26451	9.2233	0.45455	0.1	-1.3753e-002
26452	9.3155	0.36364	0.1	-2.4116e-002
26453	9.2233	0.63636	0.1	-6.3537e-003
26454	9.3155	0.54545	0.1	-5.6664e-003
26455	9.2233	0.81818	0.1	-6.2014e-003
26456	9.3155	0.72727	0.1	-6.5981e-003
26457	9.2233	1.	0.1	-5.3004e-003
26458	9.3155	0.90909	0.1	-5.3933e-003
26459	9.2233	1.1818	0.1	-4.7821e-003
26460	9.3155	1.0909	0.1	-4.9703e-003
26461	9.2233	1.3636	0.1	-4.2792e-003
26462	9.3155	1.2727	0.1	-4.4731e-003
26463	9.2233	1.5455	0.1	-3.8471e-003
26464	9.3155	1.4545	0.1	-4.0655e-003
26465	9.2233	1.7273	0.1	-3.4608e-003
26466	9.3155	1.6364	0.1	-3.6909e-003
26467	9.2233	1.9091	0.1	-3.1243e-003
26468	9.3155	1.8182	0.1	-3.3623e-003
26469	9.2233	2.0909	0.1	-2.8353e-003
26470	9.3155	2.	0.1	-3.0758e-003
26471	9.2233	2.2727	0.1	-2.5955e-003
26472	9.3155	2.1818	0.1	-2.8319e-003
26473	9.2233	2.4545	0.1	-2.4077e-003
26474	9.3155	2.3636	0.1	-2.6346e-003
26475	9.2233	2.6364	0.1	-2.2725e-003
26476	9.3155	2.5455	0.1	-2.4859e-003
26477	9.2233	2.8182	0.1	-2.1901e-003
26478	9.3155	2.7273	0.1	-2.3851e-003
26479	9.2233	3.	0.1	-2.1623e-003
26480	9.3155	2.9091	0.1	-2.3339e-003
26481	9.2233	3.1818	0.1	-2.1899e-003
26482	9.3155	3.0909	0.1	-2.3338e-003
26483	9.2233	3.3636	0.1	-2.2722e-003
26484	9.3155	3.2727	0.1	-2.385e-003
26485	9.2233	3.5455	0.1	-2.4074e-003
26486	9.3155	3.4545	0.1	-2.4856e-003
26487	9.2233	3.7273	0.1	-2.5952e-003
26488	9.3155	3.6364	0.1	-2.6343e-003
26489	9.2233	3.9091	0.1	-2.835e-003
26490	9.3155	3.8182	0.1	-2.8317e-003
26491	9.2233	4.0909	0.1	-3.1239e-003
26492	9.3155	4.	0.1	-3.0753e-003
26493	9.2233	4.2727	0.1	-3.4604e-003
26494	9.3155	4.1818	0.1	-3.3617e-003
26495	9.2233	4.4545	0.1	-3.8467e-003
26496	9.3155	4.3636	0.1	-3.6905e-003
26497	9.2233	4.6364	0.1	-4.2788e-003
26498	9.3155	4.5455	0.1	-4.065e-003
26499	9.2233	4.8182	0.1	-4.7815e-003
26500	9.3155	4.7273	0.1	-4.4726e-003
26501	9.2233	5.	0.1	-5.2993e-003
26502	9.3155	4.9091	0.1	-4.9696e-003
26503	9.2233	5.1818	0.1	-6.2002e-003
26504	9.3155	5.0909	0.1	-5.392e-003
26505	9.2233	5.3636	0.1	-6.353e-003
26506	9.3155	5.2727	0.1	-6.5972e-003
26507	9.2233	5.5455	0.1	-1.3752e-002
26508	9.3155	5.4545	0.1	-5.6657e-003
26509	9.2233	5.7273	0.1	-0.91843
26510	9.3155	5.6364	0.1	-2.4115e-002
26511	9.3155	5.8182	0.1	-4.5475
26512	9.2233	5.9091	0.1	-3.4174
26513	9.4078	0.27273	0.1	-1.8749
26514	9.5	0.18182	0.1	-5.2952
26515	9.4078	9.0909e-002	0.1	-3.8706
26516	9.4078	0.45455	0.1	-1.1892e-002
26517	9.5	0.36364	0.1	-2.5721e-002
26518	9.4078	0.63636	0.1	-5.6902e-003
26519	9.5	0.54545	0.1	-4.9471e-003
26520	9.4078	0.81818	0.1	-5.7363e-003
26521	9.5	0.72727	0.1	-6.029e-003
26522	9.4078	1.	0.1	-5.042e-003
26523	9.5	0.90909	0.1	-5.0969e-003
26524	9.4078	1.1818	0.1	-4.6502e-003
26525	9.5	1.0909	0.1	-4.8014e-003
26526	9.4078	1.3636	0.1	-4.2522e-003
26527	9.5	1.2727	0.1	-4.4157e-003
26528	9.4078	1.5455	0.1	-3.9038e-003
26529	9.5	1.4545	0.1	-4.0937e-003
26530	9.4078	1.7273	0.1	-3.5876e-003
26531	9.5	1.6364	0.1	-3.7912e-003
26532	9.4078	1.9091	0.1	-3.3094e-003
26533	9.5	1.8182	0.1	-3.5223e-003
26534	9.4078	2.0909	0.1	-3.0682e-003
26535	9.5	2.	0.1	-3.2853e-003
26536	9.4078	2.2727	0.1	-2.8669e-003
26537	9.5	2.1818	0.1	-3.0823e-003
26538	9.4078	2.4545	0.1	-2.7087e-003
26539	9.5	2.3636	0.1	-2.9171e-003
26540	9.4078	2.6364	0.1	-2.5944e-003
26541	9.5	2.5455	0.1	-2.7923e-003
26542	9.4078	2.8182	0.1	-2.5248e-003
26543	9.5	2.7273	0.1	-2.7075e-003
26544	9.4078	3.	0.1	-2.5013e-003
26545	9.5	2.9091	0.1	-2.664e-003
26546	9.4078	3.1818	0.1	-2.5247e-003
26547	9.5	3.0909	0.1	-2.6641e-003
26548	9.4078	3.3636	0.1	-2.5943e-003
26549	9.5	3.2727	0.1	-2.7073e-003
26550	9.4078	3.5455	0.1	-2.7083e-003
26551	9.5	3.4545	0.1	-2.7922e-003
26552	9.4078	3.7273	0.1	-2.8666e-003
26553	9.5	3.6364	0.1	-2.9167e-003
26554	9.4078	3.9091	0.1	-3.0679e-003
26555	9.5	3.8182	0.1	-3.0822e-003
26556	9.4078	4.0909	0.1	-3.3088e-003
26557	9.5	4.	0.1	-3.285e-003
26558	9.4078	4.2727	0.1	-3.5871e-003
26559	9.5	4.1818	0.1	-3.5216e-003
26560	9.4078	4.4545	0.1	-3.9033e-003
26561	9.5	4.3636	0.1	-3.7906e-003
26562	9.4078	4.6364	0.1	-4.2517e-003
26563	9.5	4.5455	0.1	-4.0932e-003
26564	9.4078	4.8182	0.1	-4.6497e-003
26565	9.5	4.7273	0.1	-4.4151e-003
26566	9.4078	5.	0.1	-5.0411e-003
26567	9.5	4.9091	0.1	-4.8009e-003
26568	9.4078	5.1818	0.1	-5.7352e-003
26569	9.5	5.0909	0.1	-5.0956e-003
26570	9.4078	5.3636	0.1	-5.6892e-003
26571	9.5	5.2727	0.1	-6.028e-003
26572	9.4078	5.5455	0.1	-1.1891e-002
26573	9.5	5.4545	0.1	-4.9465e-003
26574	9.4078	5.7273	0.1	-1.8749
26575	9.5	5.6364	0.1	-2.5721e-002
26576	9.5	5.8182	0.1	-5.2952
26577	9.4078	5.9091	0.1	-3.8706
26578	9.5922	0.27273	0.1	-2.8007
26579	9.6845	0.18182	0.1	-6.003
26580	9.5922	9.0909e-002	0.1	-4.3002
26581	9.5922	0.45455	0.1	-1.0169e-002
26582	9.6845	0.36364	0.1	-0.55002
26583	9.5922	0.63636	0.1	-5.1526e-003
26584	9.6845	0.54545	0.1	-4.3818e-003
26585	9.5922	0.81818	0.1	-5.3688e-003
26586	9.6845	0.72727	0.1	-5.5929e-003
26587	9.5922	1.	0.1	-4.8515e-003
26588	9.6845	0.90909	0.1	-4.8906e-003
26589	9.5922	1.1818	0.1	-4.5656e-003
26590	9.6845	1.0909	0.1	-4.6964e-003
26591	9.5922	1.3636	0.1	-4.2564e-003
26592	9.6845	1.2727	0.1	-4.4023e-003
26593	9.5922	1.5455	0.1	-3.98e-003
26594	9.6845	1.4545	0.1	-4.1518e-003
26595	9.5922	1.7273	0.1	-3.7245e-003
26596	9.6845	1.6364	0.1	-3.9098e-003
26597	9.5922	1.9091	0.1	-3.4965e-003
26598	9.6845	1.8182	0.1	-3.6919e-003
26599	9.5922	2.0909	0.1	-3.2974e-003
26600	9.6845	2.	0.1	-3.498e-003
26601	9.5922	2.2727	0.1	-3.1302e-003
26602	9.6845	2.1818	0.1	-3.3305e-003
26603	9.5922	2.4545	0.1	-2.9982e-003
26604	9.6845	2.3636	0.1	-3.1932e-003
26605	9.5922	2.6364	0.1	-2.9027e-003
26606	9.6845	2.5455	0.1	-3.0897e-003
26607	9.5922	2.8182	0.1	-2.8439e-003
26608	9.6845	2.7273	0.1	-3.0182e-003
26609	9.5922	3.	0.1	-2.824e-003
26610	9.6845	2.9091	0.1	-2.9818e-003
26611	9.5922	3.1818	0.1	-2.8439e-003
26612	9.6845	3.0909	0.1	-2.9822e-003
26613	9.5922	3.3636	0.1	-2.9025e-003
26614	9.6845	3.2727	0.1	-3.0182e-003
26615	9.5922	3.5455	0.1	-2.998e-003
26616	9.6845	3.4545	0.1	-3.0892e-003
26617	9.5922	3.7273	0.1	-3.1299e-003
26618	9.6845	3.6364	0.1	-3.1931e-003
26619	9.5922	3.9091	0.1	-3.2972e-003
26620	9.6845	3.8182	0.1	-3.3301e-003
26621	9.5922	4.0909	0.1	-3.4961e-003
26622	9.6845	4.	0.1	-3.4977e-003
26623	9.5922	4.2727	0.1	-3.7237e-003
26624	9.6845	4.1818	0.1	-3.6915e-003
26625	9.5922	4.4545	0.1	-3.9795e-003
26626	9.6845	4.3636	0.1	-3.9093e-003
26627	9.5922	4.6364	0.1	-4.2558e-003
26628	9.6845	4.5455	0.1	-4.151e-003
26629	9.5922	4.8182	0.1	-4.565e-003
26630	9.6845	4.7273	0.1	-4.4018e-003
26631	9.5922	5.	0.1	-4.8506e-003
26632	9.6845	4.9091	0.1	-4.6958e-003
26633	9.5922	5.1818	0.1	-5.3676e-003
26634	9.6845	5.0909	0.1	-4.889e-003
26635	9.5922	5.3636	0.1	-5.1521e-003
26636	9.6845	5.2727	0.1	-5.5918e-003
26637	9.5922	5.5455	0.1	-1.0168e-002
26638	9.6845	5.4545	0.1	-4.3819e-003
26639	9.5922	5.7273	0.1	-2.8007
26640	9.6845	5.6364	0.1	-0.55001
26641	9.6845	5.8182	0.1	-6.003
26642	9.5922	5.9091	0.1	-4.3002
26643	9.7767	0.27273	0.1	-3.6777
26644	9.8689	0.18182	0.1	-6.6727
26645	9.7767	9.0909e-002	0.1	-4.7072
26646	9.7767	0.45455	0.1	-8.5846e-003
26647	9.8689	0.36364	0.1	-1.5876
26648	9.7767	0.63636	0.1	-4.7988e-003
26649	9.8689	0.54545	0.1	-4.1105e-003
26650	9.7767	0.81818	0.1	-5.1286e-003
26651	9.8689	0.72727	0.1	-5.3376e-003
26652	9.7767	1.	0.1	-4.7471e-003
26653	9.8689	0.90909	0.1	-4.7943e-003
26654	9.7767	1.1818	0.1	-4.5413e-003
26655	9.8689	1.0909	0.1	-4.6644e-003
26656	9.7767	1.3636	0.1	-4.3031e-003
26657	9.8689	1.2727	0.1	-4.437e-003
26658	9.7767	1.5455	0.1	-4.0849e-003
26659	9.8689	1.4545	0.1	-4.2407e-003
26660	9.7767	1.7273	0.1	-3.8791e-003
26661	9.8689	1.6364	0.1	-4.0466e-003
26662	9.7767	1.9091	0.1	-3.6942e-003
26663	9.8689	1.8182	0.1	-3.8703e-003
26664	9.7767	2.0909	0.1	-3.531e-003
26665	9.8689	2.	0.1	-3.7121e-003
26666	9.7767	2.2727	0.1	-3.3927e-003
26667	9.8689	2.1818	0.1	-3.574e-003
26668	9.7767	2.4545	0.1	-3.2835e-003
26669	9.8689	2.3636	0.1	-3.4604e-003
26670	9.7767	2.6364	0.1	-3.2037e-003
26671	9.8689	2.5455	0.1	-3.3749e-003
26672	9.7767	2.8182	0.1	-3.1545e-003
26673	9.8689	2.7273	0.1	-3.3151e-003
26674	9.7767	3.	0.1	-3.1382e-003
26675	9.8689	2.9091	0.1	-3.2852e-003
26676	9.7767	3.1818	0.1	-3.1547e-003
26677	9.8689	3.0909	0.1	-3.2852e-003
26678	9.7767	3.3636	0.1	-3.2034e-003
26679	9.8689	3.2727	0.1	-3.3154e-003
26680	9.7767	3.5455	0.1	-3.2831e-003
26681	9.8689	3.4545	0.1	-3.3743e-003
26682	9.7767	3.7273	0.1	-3.3925e-003
26683	9.8689	3.6364	0.1	-3.4604e-003
26684	9.7767	3.9091	0.1	-3.5304e-003
26685	9.8689	3.8182	0.1	-3.5735e-003
26686	9.7767	4.0909	0.1	-3.6938e-003
26687	9.8689	4.	0.1	-3.7117e-003
26688	9.7767	4.2727	0.1	-3.8789e-003
26689	9.8689	4.1818	0.1	-3.8699e-003
26690	9.7767	4.4545	0.1	-4.0842e-003
26691	9.8689	4.3636	0.1	-4.0462e-003
26692	9.7767	4.6364	0.1	-4.3023e-003
26693	9.8689	4.5455	0.1	-4.2399e-003
26694	9.7767	4.8182	0.1	-4.5408e-003
26695	9.8689	4.7273	0.1	-4.4365e-003
26696	9.7767	5.	0.1	-4.7459e-003
26697	9.8689	4.9091	0.1	-4.6638e-003
26698	9.7767	5.1818	0.1	-5.1271e-003
26699	9.8689	5.0909	0.1	-4.7927e-003
26700	9.7767	5.3636	0.1	-4.7983e-003
26701	9.8689	5.2727	0.1	-5.3366e-003
26702	9.7767	5.5455	0.1	-8.584e-003
26703	9.8689	5.4545	0.1	-4.1104e-003
26704	9.7767	5.7273	0.1	-3.6777
26705	9.8689	5.6364	0.1	-1.5876
26706	9.8689	5.8182	0.1	-6.6727
26707	9.7767	5.9091	0.1	-4.7072
26708	9.9612	0.27273	0.1	-4.5058
26709	10.053	0.18182	0.1	-7.3063
26710	9.9612	9.0909e-002	0.1	-5.0928
26711	9.9612	0.45455	0.1	-0.21701
26712	10.053	0.36364	0.1	-2.567
26713	9.9612	0.63636	0.1	-4.7612e-003
26714	10.053	0.54545	0.1	-5.0343e-003
26715	9.9612	0.81818	0.1	-5.0533e-003
26716	10.053	0.72727	0.1	-5.3883e-003
26717	9.9612	1.	0.1	-4.7401e-003
26718	10.053	0.90909	0.1	-4.853e-003
26719	9.9612	1.1818	0.1	-4.578e-003
26720	10.053	1.0909	0.1	-4.7253e-003
26721	9.9612	1.3636	0.1	-4.3862e-003
26722	10.053	1.2727	0.1	-4.5291e-003
26723	9.9612	1.5455	0.1	-4.21e-003
26724	10.053	1.4545	0.1	-4.364e-003
26725	9.9612	1.7273	0.1	-4.0428e-003
26726	10.053	1.6364	0.1	-4.2027e-003
26727	9.9612	1.9091	0.1	-3.8913e-003
26728	10.053	1.8182	0.1	-4.0563e-003
26729	9.9612	2.0909	0.1	-3.7568e-003
26730	10.053	2.	0.1	-3.9248e-003
26731	9.9612	2.2727	0.1	-3.6424e-003
26732	10.053	2.1818	0.1	-3.81e-003
26733	9.9612	2.4545	0.1	-3.5518e-003
26734	10.053	2.3636	0.1	-3.7154e-003
26735	9.9612	2.6364	0.1	-3.4859e-003
26736	10.053	2.5455	0.1	-3.6441e-003
26737	9.9612	2.8182	0.1	-3.4451e-003
26738	10.053	2.7273	0.1	-3.5945e-003
26739	9.9612	3.	0.1	-3.4314e-003
26740	10.053	2.9091	0.1	-3.5693e-003
26741	9.9612	3.1818	0.1	-3.4452e-003
26742	10.053	3.0909	0.1	-3.5693e-003
26743	9.9612	3.3636	0.1	-3.4859e-003
26744	10.053	3.2727	0.1	-3.5946e-003
26745	9.9612	3.5455	0.1	-3.5516e-003
26746	10.053	3.4545	0.1	-3.6438e-003
26747	9.9612	3.7273	0.1	-3.6421e-003
26748	10.053	3.6364	0.1	-3.7152e-003
26749	9.9612	3.9091	0.1	-3.7565e-003
26750	10.053	3.8182	0.1	-3.8097e-003
26751	9.9612	4.0909	0.1	-3.8908e-003
26752	10.053	4.	0.1	-3.9245e-003
26753	9.9612	4.2727	0.1	-4.0421e-003
26754	10.053	4.1818	0.1	-4.0557e-003
26755	9.9612	4.4545	0.1	-4.2096e-003
26756	10.053	4.3636	0.1	-4.2021e-003
26757	9.9612	4.6364	0.1	-4.3857e-003
26758	10.053	4.5455	0.1	-4.3635e-003
26759	9.9612	4.8182	0.1	-4.5774e-003
26760	10.053	4.7273	0.1	-4.5284e-003
26761	9.9612	5.	0.1	-4.7391e-003
26762	10.053	4.9091	0.1	-4.7246e-003
26763	9.9612	5.1818	0.1	-5.0522e-003
26764	10.053	5.0909	0.1	-4.8514e-003
26765	9.9612	5.3636	0.1	-4.7606e-003
26766	10.053	5.2727	0.1	-5.3873e-003
26767	9.9612	5.5455	0.1	-0.21702
26768	10.053	5.4545	0.1	-5.0337e-003
26769	9.9612	5.7273	0.1	-4.5058
26770	10.053	5.6364	0.1	-2.567
26771	10.053	5.8182	0.1	-7.3063
26772	9.9612	5.9091	0.1	-5.0928
26773	10.146	0.27273	0.1	-5.2876
26774	10.238	0.18182	0.1	-7.906
26775	10.146	9.0909e-002	0.1	-5.4581
26776	10.146	0.45455	0.1	-1.3422
26777	10.238	0.36364	0.1	-3.4899
26778	10.146	0.63636	0.1	-5.6133e-003
26779	10.238	0.54545	0.1	-0.28649
26780	10.146	0.81818	0.1	-5.2679e-003
26781	10.238	0.72727	0.1	-6.1692e-003
26782	10.146	1.	0.1	-4.8837e-003
26783	10.238	0.90909	0.1	-5.1865e-003
26784	10.146	1.1818	0.1	-4.7047e-003
26785	10.238	1.0909	0.1	-4.9352e-003
26786	10.146	1.3636	0.1	-4.5252e-003
26787	10.238	1.2727	0.1	-4.7116e-003
26788	10.146	1.5455	0.1	-4.3688e-003
26789	10.238	1.4545	0.1	-4.5445e-003
26790	10.146	1.7273	0.1	-4.2243e-003
26791	10.238	1.6364	0.1	-4.3936e-003
26792	10.146	1.9091	0.1	-4.0951e-003
26793	10.238	1.8182	0.1	-4.2625e-003
26794	10.146	2.0909	0.1	-3.9814e-003
26795	10.238	2.	0.1	-4.1473e-003
26796	10.146	2.2727	0.1	-3.885e-003
26797	10.238	2.1818	0.1	-4.0481e-003
26798	10.146	2.4545	0.1	-3.8086e-003
26799	10.238	2.3636	0.1	-3.9669e-003
26800	10.146	2.6364	0.1	-3.7531e-003
26801	10.238	2.5455	0.1	-3.9059e-003
26802	10.146	2.8182	0.1	-3.7188e-003
26803	10.238	2.7273	0.1	-3.8637e-003
26804	10.146	3.	0.1	-3.7072e-003
26805	10.238	2.9091	0.1	-3.8422e-003
26806	10.146	3.1818	0.1	-3.7188e-003
26807	10.238	3.0909	0.1	-3.8421e-003
26808	10.146	3.3636	0.1	-3.753e-003
26809	10.238	3.2727	0.1	-3.8636e-003
26810	10.146	3.5455	0.1	-3.8085e-003
26811	10.238	3.4545	0.1	-3.9057e-003
26812	10.146	3.7273	0.1	-3.8849e-003
26813	10.238	3.6364	0.1	-3.9668e-003
26814	10.146	3.9091	0.1	-3.9811e-003
26815	10.238	3.8182	0.1	-4.0479e-003
26816	10.146	4.0909	0.1	-4.0947e-003
26817	10.238	4.	0.1	-4.1468e-003
26818	10.146	4.2727	0.1	-4.2238e-003
26819	10.238	4.1818	0.1	-4.2622e-003
26820	10.146	4.4545	0.1	-4.3683e-003
26821	10.238	4.3636	0.1	-4.3932e-003
26822	10.146	4.6364	0.1	-4.5245e-003
26823	10.238	4.5455	0.1	-4.5439e-003
26824	10.146	4.8182	0.1	-4.7038e-003
26825	10.238	4.7273	0.1	-4.7109e-003
26826	10.146	5.	0.1	-4.8825e-003
26827	10.238	4.9091	0.1	-4.9345e-003
26828	10.146	5.1818	0.1	-5.2665e-003
26829	10.238	5.0909	0.1	-5.1851e-003
26830	10.146	5.3636	0.1	-5.6124e-003
26831	10.238	5.2727	0.1	-6.1678e-003
26832	10.146	5.5455	0.1	-1.3422
26833	10.238	5.4545	0.1	-0.2865
26834	10.146	5.7273	0.1	-5.2876
26835	10.238	5.6364	0.1	-3.4899
26836	10.238	5.8182	0.1	-7.906
26837	10.146	5.9091	0.1	-5.4581
26838	10.33	0.27273	0.1	-6.0261
26839	10.422	0.18182	0.1	-8.4741
26840	10.33	9.0909e-002	0.1	-5.8044
26841	10.33	0.45455	0.1	-2.4021
26842	10.422	0.36364	0.1	-4.3608
26843	10.33	0.63636	0.1	-1.3247e-002
26844	10.422	0.54545	0.1	-1.4682
26845	10.33	0.81818	0.1	-6.1345e-003
26846	10.422	0.72727	0.1	-9.9832e-003
26847	10.33	1.	0.1	-5.2991e-003
26848	10.422	0.90909	0.1	-6.1081e-003
26849	10.33	1.1818	0.1	-4.982e-003
26850	10.422	1.0909	0.1	-5.4065e-003
26851	10.33	1.3636	0.1	-4.7571e-003
26852	10.422	1.2727	0.1	-5.039e-003
26853	10.33	1.5455	0.1	-4.5868e-003
26854	10.422	1.4545	0.1	-4.8131e-003
26855	10.33	1.7273	0.1	-4.4436e-003
26856	10.422	1.6364	0.1	-4.6392e-003
26857	10.33	1.9091	0.1	-4.3226e-003
26858	10.422	1.8182	0.1	-4.5023e-003
26859	10.33	2.0909	0.1	-4.2191e-003
26860	10.422	2.	0.1	-4.3888e-003
26861	10.33	2.2727	0.1	-4.1332e-003
26862	10.422	2.1818	0.1	-4.2946e-003
26863	10.33	2.4545	0.1	-4.066e-003
26864	10.422	2.3636	0.1	-4.2198e-003
26865	10.33	2.6364	0.1	-4.0175e-003
26866	10.422	2.5455	0.1	-4.1643e-003
26867	10.33	2.8182	0.1	-3.9876e-003
26868	10.422	2.7273	0.1	-4.1263e-003
26869	10.33	3.	0.1	-3.9774e-003
26870	10.422	2.9091	0.1	-4.1071e-003
26871	10.33	3.1818	0.1	-3.9874e-003
26872	10.422	3.0909	0.1	-4.1068e-003
26873	10.33	3.3636	0.1	-4.0173e-003
26874	10.422	3.2727	0.1	-4.1262e-003
26875	10.33	3.5455	0.1	-4.0658e-003
26876	10.422	3.4545	0.1	-4.1641e-003
26877	10.33	3.7273	0.1	-4.133e-003
26878	10.422	3.6364	0.1	-4.2194e-003
26879	10.33	3.9091	0.1	-4.2188e-003
26880	10.422	3.8182	0.1	-4.2945e-003
26881	10.33	4.0909	0.1	-4.3222e-003
26882	10.422	4.	0.1	-4.3882e-003
26883	10.33	4.2727	0.1	-4.4433e-003
26884	10.422	4.1818	0.1	-4.5019e-003
26885	10.33	4.4545	0.1	-4.5863e-003
26886	10.422	4.3636	0.1	-4.6389e-003
26887	10.33	4.6364	0.1	-4.7565e-003
26888	10.422	4.5455	0.1	-4.8122e-003
26889	10.33	4.8182	0.1	-4.9815e-003
26890	10.422	4.7273	0.1	-5.0385e-003
26891	10.33	5.	0.1	-5.2981e-003
26892	10.422	4.9091	0.1	-5.4059e-003
26893	10.33	5.1818	0.1	-6.1331e-003
26894	10.422	5.0909	0.1	-6.1068e-003
26895	10.33	5.3636	0.1	-1.3246e-002
26896	10.422	5.2727	0.1	-9.9821e-003
26897	10.33	5.5455	0.1	-2.4021
26898	10.422	5.4545	0.1	-1.4682
26899	10.33	5.7273	0.1	-6.0261
26900	10.422	5.6364	0.1	-4.3608
26901	10.422	5.8182	0.1	-8.4741
26902	10.33	5.9091	0.1	-5.8044
26903	10.515	0.27273	0.1	-6.7247
26904	10.607	0.18182	0.1	-9.0127
26905	10.515	9.0909e-002	0.1	-6.1329
26906	10.515	0.45455	0.1	-3.4023
26907	10.607	0.36364	0.1	-5.1842
26908	10.515	0.63636	0.1	-0.75887
26909	10.607	0.54545	0.1	-2.5908
26910	10.515	0.81818	0.1	-9.2038e-003
26911	10.607	0.72727	0.1	-0.21136
26912	10.515	1.	0.1	-6.2803e-003
26913	10.607	0.90909	0.1	-8.8453e-003
26914	10.515	1.1818	0.1	-5.5193e-003
26915	10.607	1.0909	0.1	-6.4321e-003
26916	10.515	1.3636	0.1	-5.1325e-003
26917	10.607	1.2727	0.1	-5.6297e-003
26918	10.515	1.5455	0.1	-4.8904e-003
26919	10.607	1.4545	0.1	-5.2279e-003
26920	10.515	1.7273	0.1	-4.7145e-003
26921	10.607	1.6364	0.1	-4.9721e-003
26922	10.515	1.9091	0.1	-4.5794e-003
26923	10.607	1.8182	0.1	-4.7936e-003
26924	10.515	2.0909	0.1	-4.4713e-003
26925	10.607	2.	0.1	-4.6595e-003
26926	10.515	2.2727	0.1	-4.3856e-003
26927	10.607	2.1818	0.1	-4.556e-003
26928	10.515	2.4545	0.1	-4.3207e-003
26929	10.607	2.3636	0.1	-4.4771e-003
26930	10.515	2.6364	0.1	-4.2745e-003
26931	10.607	2.5455	0.1	-4.4207e-003
26932	10.515	2.8182	0.1	-4.2464e-003
26933	10.607	2.7273	0.1	-4.3828e-003
26934	10.515	3.	0.1	-4.237e-003
26935	10.607	2.9091	0.1	-4.3635e-003
26936	10.515	3.1818	0.1	-4.2463e-003
26937	10.607	3.0909	0.1	-4.3636e-003
26938	10.515	3.3636	0.1	-4.2743e-003
26939	10.607	3.2727	0.1	-4.3823e-003
26940	10.515	3.5455	0.1	-4.3203e-003
26941	10.607	3.4545	0.1	-4.4205e-003
26942	10.515	3.7273	0.1	-4.3853e-003
26943	10.607	3.6364	0.1	-4.4767e-003
26944	10.515	3.9091	0.1	-4.471e-003
26945	10.607	3.8182	0.1	-4.5558e-003
26946	10.515	4.0909	0.1	-4.5789e-003
26947	10.607	4.	0.1	-4.6591e-003
26948	10.515	4.2727	0.1	-4.7142e-003
26949	10.607	4.1818	0.1	-4.7931e-003
26950	10.515	4.4545	0.1	-4.8897e-003
26951	10.607	4.3636	0.1	-4.9718e-003
26952	10.515	4.6364	0.1	-5.1317e-003
26953	10.607	4.5455	0.1	-5.2272e-003
26954	10.515	4.8182	0.1	-5.5188e-003
26955	10.607	4.7273	0.1	-5.6293e-003
26956	10.515	5.	0.1	-6.2793e-003
26957	10.607	4.9091	0.1	-6.4314e-003
26958	10.515	5.1818	0.1	-9.2028e-003
26959	10.607	5.0909	0.1	-8.8438e-003
26960	10.515	5.3636	0.1	-0.75889
26961	10.607	5.2727	0.1	-0.21138
26962	10.515	5.5455	0.1	-3.4023
26963	10.607	5.4545	0.1	-2.5908
26964	10.515	5.7273	0.1	-6.7247
26965	10.607	5.6364	0.1	-5.1842
26966	10.607	5.8182	0.1	-9.0127
26967	10.515	5.9091	0.1	-6.1329
26968	10.699	0.27273	0.1	-7.3864
26969	10.791	0.18182	0.1	-9.5238
26970	10.699	9.0909e-002	0.1	-6.4448
26971	10.699	0.45455	0.1	-4.3485
26972	10.791	0.36364	0.1	-5.9643
26973	10.699	0.63636	0.1	-1.9863
26974	10.791	0.54545	0.1	-3.6543
26975	10.699	0.81818	0.1	-4.5636e-002
26976	10.791	0.72727	0.1	-1.5084
26977	10.699	1.	0.1	-8.9694e-003
26978	10.791	0.90909	0.1	-2.7575e-002
26979	10.699	1.1818	0.1	-6.6299e-003
26980	10.791	1.0909	0.1	-9.1225e-003
26981	10.699	1.3636	0.1	-5.7849e-003
26982	10.791	1.2727	0.1	-6.8103e-003
26983	10.699	1.5455	0.1	-5.3481e-003
26984	10.791	1.4545	0.1	-5.9264e-003
26985	10.699	1.7273	0.1	-5.0761e-003
26986	10.791	1.6364	0.1	-5.4577e-003
26987	10.699	1.9091	0.1	-4.8897e-003
26988	10.791	1.8182	0.1	-5.1699e-003
26989	10.699	2.0909	0.1	-4.7541e-003
26990	10.791	2.	0.1	-4.9758e-003
26991	10.699	2.2727	0.1	-4.6534e-003
26992	10.791	2.1818	0.1	-4.838e-003
26993	10.699	2.4545	0.1	-4.5803e-003
26994	10.791	2.3636	0.1	-4.7392e-003
26995	10.699	2.6364	0.1	-4.5303e-003
26996	10.791	2.5455	0.1	-4.6716e-003
26997	10.699	2.8182	0.1	-4.5002e-003
26998	10.791	2.7273	0.1	-4.6273e-003
26999	10.699	3.	0.1	-4.4902e-003
27000	10.791	2.9091	0.1	-4.6058e-003
27001	10.699	3.1818	0.1	-4.5e-003
27002	10.791	3.0909	0.1	-4.6056e-003
27003	10.699	3.3636	0.1	-4.53e-003
27004	10.791	3.2727	0.1	-4.6272e-003
27005	10.699	3.5455	0.1	-4.5801e-003
27006	10.791	3.4545	0.1	-4.6714e-003
27007	10.699	3.7273	0.1	-4.6531e-003
27008	10.791	3.6364	0.1	-4.739e-003
27009	10.699	3.9091	0.1	-4.7538e-003
27010	10.791	3.8182	0.1	-4.8378e-003
27011	10.699	4.0909	0.1	-4.8892e-003
27012	10.791	4.	0.1	-4.9757e-003
27013	10.699	4.2727	0.1	-5.0756e-003
27014	10.791	4.1818	0.1	-5.1694e-003
27015	10.699	4.4545	0.1	-5.3479e-003
27016	10.791	4.3636	0.1	-5.4573e-003
27017	10.699	4.6364	0.1	-5.7847e-003
27018	10.791	4.5455	0.1	-5.9258e-003
27019	10.699	4.8182	0.1	-6.6294e-003
27020	10.791	4.7273	0.1	-6.81e-003
27021	10.699	5.	0.1	-8.9682e-003
27022	10.791	4.9091	0.1	-9.1217e-003
27023	10.699	5.1818	0.1	-4.5637e-002
27024	10.791	5.0909	0.1	-2.7574e-002
27025	10.699	5.3636	0.1	-1.9863
27026	10.791	5.2727	0.1	-1.5084
27027	10.699	5.5455	0.1	-4.3485
27028	10.791	5.4545	0.1	-3.6543
27029	10.699	5.7273	0.1	-7.3864
27030	10.791	5.6364	0.1	-5.9643
27031	10.791	5.8182	0.1	-9.5238
27032	10.699	5.9091	0.1	-6.4448
27033	10.883	0.27273	0.1	-8.0144
27034	10.976	0.18182	0.1	-10.009
27035	10.883	9.0909e-002	0.1	-6.7412
27036	10.883	0.45455	0.1	-5.2458
27037	10.976	0.36364	0.1	-6.7053
27038	10.883	0.63636	0.1	-3.1539
27039	10.976	0.54545	0.1	-4.6644
27040	10.883	0.81818	0.1	-1.1952
27041	10.976	0.72727	0.1	-2.7762
27042	10.883	1.	0.1	-2.477e-002
27043	10.976	0.90909	0.1	-0.9917
27044	10.883	1.1818	0.1	-9.5257e-003
27045	10.976	1.0909	0.1	-2.4627e-002
27046	10.883	1.3636	0.1	-7.0829e-003
27047	10.976	1.2727	0.1	-9.9998e-003
27048	10.883	1.5455	0.1	-6.1111e-003
27049	10.976	1.4545	0.1	-7.3678e-003
27050	10.883	1.7273	0.1	-5.5961e-003
27051	10.976	1.6364	0.1	-6.299e-003
27052	10.883	1.9091	0.1	-5.2828e-003
27053	10.976	1.8182	0.1	-5.7348e-003
27054	10.883	2.0909	0.1	-5.0755e-003
27055	10.976	2.	0.1	-5.3948e-003
27056	10.883	2.2727	0.1	-4.9325e-003
27057	10.976	2.1818	0.1	-5.1731e-003
27058	10.883	2.4545	0.1	-4.8346e-003
27059	10.976	2.3636	0.1	-5.0248e-003
27060	10.883	2.6364	0.1	-4.7698e-003
27061	10.976	2.5455	0.1	-4.9277e-003
27062	10.883	2.8182	0.1	-4.7326e-003
27063	10.976	2.7273	0.1	-4.8669e-003
27064	10.883	3.	0.1	-4.7204e-003
27065	10.976	2.9091	0.1	-4.8378e-003
27066	10.883	3.1818	0.1	-4.7325e-003
27067	10.976	3.0909	0.1	-4.8376e-003
27068	10.883	3.3636	0.1	-4.7699e-003
27069	10.976	3.2727	0.1	-4.8671e-003
27070	10.883	3.5455	0.1	-4.8343e-003
27071	10.976	3.4545	0.1	-4.9274e-003
27072	10.883	3.7273	0.1	-4.9323e-003
27073	10.976	3.6364	0.1	-5.0245e-003
27074	10.883	3.9091	0.1	-5.0754e-003
27075	10.976	3.8182	0.1	-5.173e-003
27076	10.883	4.0909	0.1	-5.2827e-003
27077	10.976	4.	0.1	-5.3945e-003
27078	10.883	4.2727	0.1	-5.5958e-003
27079	10.976	4.1818	0.1	-5.7347e-003
27080	10.883	4.4545	0.1	-6.1104e-003
27081	10.976	4.3636	0.1	-6.2984e-003
27082	10.883	4.6364	0.1	-7.0822e-003
27083	10.976	4.5455	0.1	-7.3671e-003
27084	10.883	4.8182	0.1	-9.5251e-003
27085	10.976	4.7273	0.1	-9.9995e-003
27086	10.883	5.	0.1	-2.4769e-002
27087	10.976	4.9091	0.1	-2.4626e-002
27088	10.883	5.1818	0.1	-1.1952
27089	10.976	5.0909	0.1	-0.99173
27090	10.883	5.3636	0.1	-3.1539
27091	10.976	5.2727	0.1	-2.7762
27092	10.883	5.5455	0.1	-5.2458
27093	10.976	5.4545	0.1	-4.6644
27094	10.883	5.7273	0.1	-8.0144
27095	10.976	5.6364	0.1	-6.7053
27096	10.976	5.8182	0.1	-10.009
27097	10.883	5.9091	0.1	-6.7412
27098	11.068	0.27273	0.1	-8.6116
27099	11.16	0.18182	0.1	-10.472
27100	11.068	9.0909e-002	0.1	-7.0231
27101	11.068	0.45455	0.1	-6.0994
27102	11.16	0.36364	0.1	-7.4112
27103	11.068	0.63636	0.1	-4.2652
27104	11.16	0.54545	0.1	-5.6272
27105	11.068	0.81818	0.1	-2.5498
27106	11.16	0.72727	0.1	-3.9864
27107	11.068	1.	0.1	-0.93588
27108	11.16	0.90909	0.1	-2.4316
27109	11.068	1.1818	0.1	-2.8768e-002
27110	11.16	1.0909	0.1	-0.9738
27111	11.068	1.3636	0.1	-1.0893e-002
27112	11.16	1.2727	0.1	-3.8763e-002
27113	11.068	1.5455	0.1	-7.7916e-003
27114	11.16	1.4545	0.1	-1.217e-002
27115	11.068	1.7273	0.1	-6.5528e-003
27116	11.16	1.6364	0.1	-8.3184e-003
27117	11.068	1.9091	0.1	-5.9079e-003
27118	11.16	1.8182	0.1	-6.8468e-003
27119	11.068	2.0909	0.1	-5.5252e-003
27120	11.16	2.	0.1	-6.1003e-003
27121	11.068	2.2727	0.1	-5.2819e-003
27122	11.16	2.1818	0.1	-5.6665e-003
27123	11.068	2.4545	0.1	-5.1247e-003
27124	11.16	2.3636	0.1	-5.3982e-003
27125	11.068	2.6364	0.1	-5.0258e-003
27126	11.16	2.5455	0.1	-5.2319e-003
27127	11.068	2.8182	0.1	-4.9702e-003
27128	11.16	2.7273	0.1	-5.1327e-003
27129	11.068	3.	0.1	-4.9521e-003
27130	11.16	2.9091	0.1	-5.0858e-003
27131	11.068	3.1818	0.1	-4.9702e-003
27132	11.16	3.0909	0.1	-5.086e-003
27133	11.068	3.3636	0.1	-5.0256e-003
27134	11.16	3.2727	0.1	-5.1324e-003
27135	11.068	3.5455	0.1	-5.1244e-003
27136	11.16	3.4545	0.1	-5.2317e-003
27137	11.068	3.7273	0.1	-5.2817e-003
27138	11.16	3.6364	0.1	-5.3982e-003
27139	11.068	3.9091	0.1	-5.5249e-003
27140	11.16	3.8182	0.1	-5.6662e-003
27141	11.068	4.0909	0.1	-5.9077e-003
27142	11.16	4.	0.1	-6.0998e-003
27143	11.068	4.2727	0.1	-6.5523e-003
27144	11.16	4.1818	0.1	-6.8467e-003
27145	11.068	4.4545	0.1	-7.7909e-003
27146	11.16	4.3636	0.1	-8.3177e-003
27147	11.068	4.6364	0.1	-1.0893e-002
27148	11.16	4.5455	0.1	-1.217e-002
27149	11.068	4.8182	0.1	-2.8768e-002
27150	11.16	4.7273	0.1	-3.8763e-002
27151	11.068	5.	0.1	-0.9359
27152	11.16	4.9091	0.1	-0.97383
27153	11.068	5.1818	0.1	-2.5498
27154	11.16	5.0909	0.1	-2.4316
27155	11.068	5.3636	0.1	-4.2653
27156	11.16	5.2727	0.1	-3.9864
27157	11.068	5.5455	0.1	-6.0994
27158	11.16	5.4545	0.1	-5.6272
27159	11.068	5.7273	0.1	-8.6116
27160	11.16	5.6364	0.1	-7.4112
27161	11.16	5.8182	0.1	-10.472
27162	11.068	5.9091	0.1	-7.0231
27163	11.252	0.27273	0.1	-9.1811
27164	11.345	0.18182	0.1	-10.912
27165	11.252	9.0909e-002	0.1	-7.2916
27166	11.252	0.45455	0.1	-6.9141
27167	11.345	0.36364	0.1	-8.0858
27168	11.252	0.63636	0.1	-5.3268
27169	11.345	0.54545	0.1	-6.5483
27170	11.252	0.81818	0.1	-3.8473
27171	11.345	0.72727	0.1	-5.1452
27172	11.252	1.	0.1	-2.4499
27173	11.345	0.90909	0.1	-3.816
27174	11.252	1.1818	0.1	-1.1444
27175	11.345	1.0909	0.1	-2.5642
27176	11.252	1.3636	0.1	-9.0129e-002
27177	11.345	1.2727	0.1	-1.3987
27178	11.252	1.5455	0.1	-1.4905e-002
27179	11.345	1.4545	0.1	-0.34939
27180	11.252	1.7273	0.1	-9.2111e-003
27181	11.345	1.6364	0.1	-2.1732e-002
27182	11.252	1.9091	0.1	-7.28e-003
27183	11.345	1.8182	0.1	-1.0702e-002
27184	11.252	2.0909	0.1	-6.3518e-003
27185	11.345	2.	0.1	-7.866e-003
27186	11.252	2.2727	0.1	-5.8333e-003
27187	11.345	2.1818	0.1	-6.6354e-003
27188	11.252	2.4545	0.1	-5.5252e-003
27189	11.345	2.3636	0.1	-5.9898e-003
27190	11.252	2.6364	0.1	-5.3421e-003
27191	11.345	2.5455	0.1	-5.6263e-003
27192	11.252	2.8182	0.1	-5.2435e-003
27193	11.345	2.7273	0.1	-5.4242e-003
27194	11.252	3.	0.1	-5.2123e-003
27195	11.345	2.9091	0.1	-5.3326e-003
27196	11.252	3.1818	0.1	-5.2433e-003
27197	11.345	3.0909	0.1	-5.3328e-003
27198	11.252	3.3636	0.1	-5.3418e-003
27199	11.345	3.2727	0.1	-5.4237e-003
27200	11.252	3.5455	0.1	-5.5251e-003
27201	11.345	3.4545	0.1	-5.6262e-003
27202	11.252	3.7273	0.1	-5.8331e-003
27203	11.345	3.6364	0.1	-5.9896e-003
27204	11.252	3.9091	0.1	-6.3512e-003
27205	11.345	3.8182	0.1	-6.6354e-003
27206	11.252	4.0909	0.1	-7.2795e-003
27207	11.345	4.	0.1	-7.8655e-003
27208	11.252	4.2727	0.1	-9.2108e-003
27209	11.345	4.1818	0.1	-1.0702e-002
27210	11.252	4.4545	0.1	-1.4904e-002
27211	11.345	4.3636	0.1	-2.1732e-002
27212	11.252	4.6364	0.1	-9.0134e-002
27213	11.345	4.5455	0.1	-0.3494
27214	11.252	4.8182	0.1	-1.1444
27215	11.345	4.7273	0.1	-1.3987
27216	11.252	5.	0.1	-2.45
27217	11.345	4.9091	0.1	-2.5643
27218	11.252	5.1818	0.1	-3.8474
27219	11.345	5.0909	0.1	-3.816
27220	11.252	5.3636	0.1	-5.3268
27221	11.345	5.2727	0.1	-5.1452
27222	11.252	5.5455	0.1	-6.9142
27223	11.345	5.4545	0.1	-6.5483
27224	11.252	5.7273	0.1	-9.1811
27225	11.345	5.6364	0.1	-8.0858
27226	11.345	5.8182	0.1	-10.912
27227	11.252	5.9091	0.1	-7.2916
27228	11.437	0.27273	0.1	-9.7253
27229	11.529	0.18182	0.1	-11.332
27230	11.437	9.0909e-002	0.1	-7.5475
27231	11.437	0.45455	0.1	-7.6947
27232	11.529	0.36364	0.1	-8.7329
27233	11.437	0.63636	0.1	-6.3448
27234	11.529	0.54545	0.1	-7.4333
27235	11.437	0.81818	0.1	-5.0928
27236	11.529	0.72727	0.1	-6.2596
27237	11.437	1.	0.1	-3.9101
27238	11.529	0.90909	0.1	-5.1486
27239	11.437	1.1818	0.1	-2.8009
27240	11.529	1.0909	0.1	-4.1015
27241	11.437	1.3636	0.1	-1.7724
27242	11.529	1.2727	0.1	-3.1235
27243	11.437	1.5455	0.1	-0.83447
27244	11.529	1.4545	0.1	-2.2207
27245	11.437	1.7273	0.1	-9.1748e-002
27246	11.529	1.6364	0.1	-1.3995
27247	11.437	1.9091	0.1	-1.5257e-002
27248	11.529	1.8182	0.1	-0.66877
27249	11.437	2.0909	0.1	-9.1553e-003
27250	11.529	2.	0.1	-9.2601e-002
27251	11.437	2.2727	0.1	-7.1454e-003
27252	11.529	2.1818	0.1	-1.4178e-002
27253	11.437	2.4545	0.1	-6.2191e-003
27254	11.529	2.3636	0.1	-8.4075e-003
27255	11.437	2.6364	0.1	-5.7422e-003
27256	11.529	2.5455	0.1	-6.6205e-003
27257	11.437	2.8182	0.1	-5.5066e-003
27258	11.529	2.7273	0.1	-5.8692e-003
27259	11.437	3.	0.1	-5.4348e-003
27260	11.529	2.9091	0.1	-5.5723e-003
27261	11.437	3.1818	0.1	-5.5065e-003
27262	11.529	3.0909	0.1	-5.5724e-003
27263	11.437	3.3636	0.1	-5.742e-003
27264	11.529	3.2727	0.1	-5.869e-003
27265	11.437	3.5455	0.1	-6.2188e-003
27266	11.529	3.4545	0.1	-6.6205e-003
27267	11.437	3.7273	0.1	-7.1453e-003
27268	11.529	3.6364	0.1	-8.4073e-003
27269	11.437	3.9091	0.1	-9.1554e-003
27270	11.529	3.8182	0.1	-1.4178e-002
27271	11.437	4.0909	0.1	-1.5256e-002
27272	11.529	4.	0.1	-9.2607e-002
27273	11.437	4.2727	0.1	-9.1753e-002
27274	11.529	4.1818	0.1	-0.66879
27275	11.437	4.4545	0.1	-0.83449
27276	11.529	4.3636	0.1	-1.3995
27277	11.437	4.6364	0.1	-1.7724
27278	11.529	4.5455	0.1	-2.2207
27279	11.437	4.8182	0.1	-2.801
27280	11.529	4.7273	0.1	-3.1236
27281	11.437	5.	0.1	-3.9101
27282	11.529	4.9091	0.1	-4.1015
27283	11.437	5.1818	0.1	-5.0929
27284	11.529	5.0909	0.1	-5.1487
27285	11.437	5.3636	0.1	-6.3449
27286	11.529	5.2727	0.1	-6.2596
27287	11.437	5.5455	0.1	-7.6947
27288	11.529	5.4545	0.1	-7.4333
27289	11.437	5.7273	0.1	-9.7253
27290	11.529	5.6364	0.1	-8.7329
27291	11.529	5.8182	0.1	-11.332
27292	11.437	5.9091	0.1	-7.5475
27293	11.621	0.27273	0.1	-10.247
27294	11.714	0.18182	0.1	-11.734
27295	11.621	9.0909e-002	0.1	-7.7919
27296	11.621	0.45455	0.1	-8.4458
27297	11.714	0.36364	0.1	-9.3561
27298	11.621	0.63636	0.1	-7.3259
27299	11.714	0.54545	0.1	-8.2879
27300	11.621	0.81818	0.1	-6.294
27301	11.714	0.72727	0.1	-7.3369
27302	11.621	1.	0.1	-5.3193
27303	11.714	0.90909	0.1	-6.4376
27304	11.621	1.1818	0.1	-4.4042
27305	11.714	1.0909	0.1	-5.5892
27306	11.621	1.3636	0.1	-3.5533
27307	11.714	1.2727	0.1	-4.7952
27308	11.621	1.5455	0.1	-2.772
27309	11.714	1.4545	0.1	-4.0602
27310	11.621	1.7273	0.1	-2.0657
27311	11.714	1.6364	0.1	-3.3889
27312	11.621	1.9091	0.1	-1.4401
27313	11.714	1.8182	0.1	-2.7866
27314	11.621	2.0909	0.1	-0.90055
27315	11.714	2.	0.1	-2.2583
27316	11.621	2.2727	0.1	-0.45293
27317	11.714	2.1818	0.1	-1.8089
27318	11.621	2.4545	0.1	-0.1109
27319	11.714	2.3636	0.1	-1.443
27320	11.621	2.6364	0.1	-1.1287e-002
27321	11.714	2.5455	0.1	-1.1646
27322	11.621	2.8182	0.1	-6.4068e-003
27323	11.714	2.7273	0.1	-0.97695
27324	11.621	3.	0.1	-5.6453e-003
27325	11.714	2.9091	0.1	-0.88243
27326	11.621	3.1818	0.1	-6.4067e-003
27327	11.714	3.0909	0.1	-0.88243
27328	11.621	3.3636	0.1	-1.1287e-002
27329	11.714	3.2727	0.1	-0.97696
27330	11.621	3.5455	0.1	-0.1109
27331	11.714	3.4545	0.1	-1.1646
27332	11.621	3.7273	0.1	-0.45294
27333	11.714	3.6364	0.1	-1.443
27334	11.621	3.9091	0.1	-0.90056
27335	11.714	3.8182	0.1	-1.8089
27336	11.621	4.0909	0.1	-1.4401
27337	11.714	4.	0.1	-2.2583
27338	11.621	4.2727	0.1	-2.0658
27339	11.714	4.1818	0.1	-2.7866
27340	11.621	4.4545	0.1	-2.772
27341	11.714	4.3636	0.1	-3.389
27342	11.621	4.6364	0.1	-3.5533
27343	11.714	4.5455	0.1	-4.0602
27344	11.621	4.8182	0.1	-4.4042
27345	11.714	4.7273	0.1	-4.7953
27346	11.621	5.	0.1	-5.3194
27347	11.714	4.9091	0.1	-5.5892
27348	11.621	5.1818	0.1	-6.294
27349	11.714	5.0909	0.1	-6.4377
27350	11.621	5.3636	0.1	-7.3259
27351	11.714	5.2727	0.1	-7.3369
27352	11.621	5.5455	0.1	-8.4459
27353	11.714	5.4545	0.1	-8.2879
27354	11.621	5.7273	0.1	-10.247
27355	11.714	5.6364	0.1	-9.3561
27356	11.714	5.8182	0.1	-11.734
27357	11.621	5.9091	0.1	-7.7919
27358	11.806	0.27273	0.1	-10.749
27359	11.898	0.18182	0.1	-12.119
27360	11.806	9.0909e-002	0.1	-8.0255
27361	11.806	0.45455	0.1	-9.1721
27362	11.898	0.36364	0.1	-9.9591
27363	11.806	0.63636	0.1	-8.2763
27364	11.898	0.54545	0.1	-9.1175
27365	11.806	0.81818	0.1	-7.4587
27366	11.898	0.72727	0.1	-8.3842
27367	11.806	1.	0.1	-6.6864
27368	11.898	0.90909	0.1	-7.6916
27369	11.806	1.1818	0.1	-5.9597
27370	11.898	1.0909	0.1	-7.0367
27371	11.806	1.3636	0.1	-5.2822
27372	11.898	1.2727	0.1	-6.4216
27373	11.806	1.5455	0.1	-4.6578
27374	11.898	1.4545	0.1	-5.8496
27375	11.806	1.7273	0.1	-4.0912
27376	11.898	1.6364	0.1	-5.3247
27377	11.806	1.9091	0.1	-3.5871
27378	11.898	1.8182	0.1	-4.8511
27379	11.806	2.0909	0.1	-3.1504
27380	11.898	2.	0.1	-4.4337
27381	11.806	2.2727	0.1	-2.7857
27382	11.898	2.1818	0.1	-4.0771
27383	11.806	2.4545	0.1	-2.4971
27384	11.898	2.3636	0.1	-3.7857
27385	11.806	2.6364	0.1	-2.2883
27386	11.898	2.5455	0.1	-3.5635
27387	11.806	2.8182	0.1	-2.1619
27388	11.898	2.7273	0.1	-3.4134
27389	11.806	3.	0.1	-2.1195
27390	11.898	2.9091	0.1	-3.3378
27391	11.806	3.1818	0.1	-2.1619
27392	11.898	3.0909	0.1	-3.3378
27393	11.806	3.3636	0.1	-2.2883
27394	11.898	3.2727	0.1	-3.4134
27395	11.806	3.5455	0.1	-2.4972
27396	11.898	3.4545	0.1	-3.5635
27397	11.806	3.7273	0.1	-2.7857
27398	11.898	3.6364	0.1	-3.7858
27399	11.806	3.9091	0.1	-3.1504
27400	11.898	3.8182	0.1	-4.0771
27401	11.806	4.0909	0.1	-3.5871
27402	11.898	4.	0.1	-4.4337
27403	11.806	4.2727	0.1	-4.0912
27404	11.898	4.1818	0.1	-4.8511
27405	11.806	4.4545	0.1	-4.6578
27406	11.898	4.3636	0.1	-5.3247
27407	11.806	4.6364	0.1	-5.2822
27408	11.898	4.5455	0.1	-5.8497
27409	11.806	4.8182	0.1	-5.9597
27410	11.898	4.7273	0.1	-6.4217
27411	11.806	5.	0.1	-6.6864
27412	11.898	4.9091	0.1	-7.0367
27413	11.806	5.1818	0.1	-7.4588
27414	11.898	5.0909	0.1	-7.6916
27415	11.806	5.3636	0.1	-8.2763
27416	11.898	5.2727	0.1	-8.3843
27417	11.806	5.5455	0.1	-9.1721
27418	11.898	5.4545	0.1	-9.1175
27419	11.806	5.7273	0.1	-10.749
27420	11.898	5.6364	0.1	-9.9591
27421	11.898	5.8182	0.1	-12.119
27422	11.806	5.9091	0.1	-8.0254
27423	11.99	0.27273	0.1	-11.234
27424	12.083	0.18182	0.1	-12.489
27425	11.99	9.0909e-002	0.1	-8.2491
27426	11.99	0.45455	0.1	-9.8781
27427	12.083	0.36364	0.1	-10.546
27428	11.99	0.63636	0.1	-9.2025
27429	12.083	0.54545	0.1	-9.9277
27430	11.99	0.81818	0.1	-8.595
27431	12.083	0.72727	0.1	-9.409
27432	11.99	1.	0.1	-8.0204
27433	12.083	0.90909	0.1	-8.9194
27434	11.99	1.1818	0.1	-7.4776
27435	12.083	1.0909	0.1	-8.454
27436	11.99	1.3636	0.1	-6.9686
27437	12.083	1.2727	0.1	-8.0135
27438	11.99	1.5455	0.1	-6.4964
27439	12.083	1.4545	0.1	-7.6
27440	11.99	1.7273	0.1	-6.0649
27441	12.083	1.6364	0.1	-7.2166
27442	11.99	1.9091	0.1	-5.6784
27443	12.083	1.8182	0.1	-6.8673
27444	11.99	2.0909	0.1	-5.3414
27445	12.083	2.	0.1	-6.5564
27446	11.99	2.2727	0.1	-5.0583
27447	12.083	2.1818	0.1	-6.2884
27448	11.99	2.4545	0.1	-4.8333
27449	12.083	2.3636	0.1	-6.0678
27450	11.99	2.6364	0.1	-4.6699
27451	12.083	2.5455	0.1	-5.8986
27452	11.99	2.8182	0.1	-4.5707
27453	12.083	2.7273	0.1	-5.7838
27454	11.99	3.	0.1	-4.5375
27455	12.083	2.9091	0.1	-5.7258
27456	11.99	3.1818	0.1	-4.5707
27457	12.083	3.0909	0.1	-5.7258
27458	11.99	3.3636	0.1	-4.6699
27459	12.083	3.2727	0.1	-5.7838
27460	11.99	3.5455	0.1	-4.8333
27461	12.083	3.4545	0.1	-5.8986
27462	11.99	3.7273	0.1	-5.0583
27463	12.083	3.6364	0.1	-6.0678
27464	11.99	3.9091	0.1	-5.3414
27465	12.083	3.8182	0.1	-6.2884
27466	11.99	4.0909	0.1	-5.6784
27467	12.083	4.	0.1	-6.5564
27468	11.99	4.2727	0.1	-6.065
27469	12.083	4.1818	0.1	-6.8673
27470	11.99	4.4545	0.1	-6.4965
27471	12.083	4.3636	0.1	-7.2166
27472	11.99	4.6364	0.1	-6.9686
27473	12.083	4.5455	0.1	-7.6
27474	11.99	4.8182	0.1	-7.4776
27475	12.083	4.7273	0.1	-8.0135
27476	11.99	5.	0.1	-8.0204
27477	12.083	4.9091	0.1	-8.454
27478	11.99	5.1818	0.1	-8.595
27479	12.083	5.0909	0.1	-8.9194
27480	11.99	5.3636	0.1	-9.2025
27481	12.083	5.2727	0.1	-9.4091
27482	11.99	5.5455	0.1	-9.8781
27483	12.083	5.4545	0.1	-9.9278
27484	11.99	5.7273	0.1	-11.234
27485	12.083	5.6364	0.1	-10.546
27486	12.083	5.8182	0.1	-12.489
27487	11.99	5.9091	0.1	-8.2491
27488	12.175	0.27273	0.1	-11.704
27489	12.267	0.18182	0.1	-12.844
27490	12.175	9.0909e-002	0.1	-8.4634
27491	12.175	0.45455	0.1	-10.568
27492	12.267	0.36364	0.1	-11.119
27493	12.175	0.63636	0.1	-10.111
27494	12.267	0.54545	0.1	-10.724
27495	12.175	0.81818	0.1	-9.711
27496	12.267	0.72727	0.1	-10.419
27497	12.175	1.	0.1	-9.3311
27498	12.267	0.90909	0.1	-10.13
27499	12.175	1.1818	0.1	-8.9685
27500	12.267	1.0909	0.1	-9.8514
27501	12.175	1.3636	0.1	-8.624
27502	12.267	1.2727	0.1	-9.5821
27503	12.175	1.5455	0.1	-8.2997
27504	12.267	1.4545	0.1	-9.3233
27505	12.175	1.7273	0.1	-7.9989
27506	12.267	1.6364	0.1	-9.0773
27507	12.175	1.9091	0.1	-7.7255
27508	12.267	1.8182	0.1	-8.8479
27509	12.175	2.0909	0.1	-7.4839
27510	12.267	2.	0.1	-8.6392
27511	12.175	2.2727	0.1	-7.2786
27512	12.267	2.1818	0.1	-8.4559
27513	12.175	2.4545	0.1	-7.1139
27514	12.267	2.3636	0.1	-8.3025
27515	12.175	2.6364	0.1	-6.9934
27516	12.267	2.5455	0.1	-8.1834
27517	12.175	2.8182	0.1	-6.9199
27518	12.267	2.7273	0.1	-8.1019
27519	12.175	3.	0.1	-6.8952
27520	12.267	2.9091	0.1	-8.0605
27521	12.175	3.1818	0.1	-6.9199
27522	12.267	3.0909	0.1	-8.0605
27523	12.175	3.3636	0.1	-6.9934
27524	12.267	3.2727	0.1	-8.1019
27525	12.175	3.5455	0.1	-7.1139
27526	12.267	3.4545	0.1	-8.1834
27527	12.175	3.7273	0.1	-7.2786
27528	12.267	3.6364	0.1	-8.3025
27529	12.175	3.9091	0.1	-7.4839
27530	12.267	3.8182	0.1	-8.4559
27531	12.175	4.0909	0.1	-7.7255
27532	12.267	4.	0.1	-8.6392
27533	12.175	4.2727	0.1	-7.9989
27534	12.267	4.1818	0.1	-8.8479
27535	12.175	4.4545	0.1	-8.2997
27536	12.267	4.3636	0.1	-9.0773
27537	12.175	4.6364	0.1	-8.624
27538	12.267	4.5455	0.1	-9.3233
27539	12.175	4.8182	0.1	-8.9685
27540	12.267	4.7273	0.1	-9.5821
27541	12.175	5.	0.1	-9.3311
27542	12.267	4.9091	0.1	-9.8514
27543	12.175	5.1818	0.1	-9.711
27544	12.267	5.0909	0.1	-10.13
27545	12.175	5.3636	0.1	-10.111
27546	12.267	5.2727	0.1	-10.419
27547	12.175	5.5455	0.1	-10.568
27548	12.267	5.4545	0.1	-10.724
27549	12.175	5.7273	0.1	-11.704
27550	12.267	5.6364	0.1	-11.119
27551	12.267	5.8182	0.1	-12.844
27552	12.175	5.9091	0.1	-8.4634
27553	12.359	0.27273	0.1	-12.163
27554	12.451	0.18182	0.1	-13.188
27555	12.359	9.0909e-002	0.1	-8.6693
27556	12.359	0.45455	0.1	-11.248
27557	12.451	0.36364	0.1	-11.684
27558	12.359	0.63636	0.1	-11.009
27559	12.451	0.54545	0.1	-11.513
27560	12.359	0.81818	0.1	-10.815
27561	12.451	0.72727	0.1	-11.421
27562	12.359	1.	0.1	-10.628
27563	12.451	0.90909	0.1	-11.333
27564	12.359	1.1818	0.1	-10.443
27565	12.451	1.0909	0.1	-11.24
27566	12.359	1.3636	0.1	-10.26
27567	12.451	1.2727	0.1	-11.139
27568	12.359	1.5455	0.1	-10.08
27569	12.451	1.4545	0.1	-11.032
27570	12.359	1.7273	0.1	-9.906
27571	12.451	1.6364	0.1	-10.92
27572	12.359	1.9091	0.1	-9.7415
27573	12.451	1.8182	0.1	-10.806
27574	12.359	2.0909	0.1	-9.5913
27575	12.451	2.	0.1	-10.696
27576	12.359	2.2727	0.1	-9.4602
27577	12.451	2.1818	0.1	-10.593
27578	12.359	2.4545	0.1	-9.3526
27579	12.451	2.3636	0.1	-10.503
27580	12.359	2.6364	0.1	-9.2726
27581	12.451	2.5455	0.1	-10.432
27582	12.359	2.8182	0.1	-9.2233
27583	12.451	2.7273	0.1	-10.381
27584	12.359	3.	0.1	-9.2066
27585	12.451	2.9091	0.1	-10.356
27586	12.359	3.1818	0.1	-9.2233
27587	12.451	3.0909	0.1	-10.356
27588	12.359	3.3636	0.1	-9.2726
27589	12.451	3.2727	0.1	-10.381
27590	12.359	3.5455	0.1	-9.3526
27591	12.451	3.4545	0.1	-10.432
27592	12.359	3.7273	0.1	-9.4602
27593	12.451	3.6364	0.1	-10.503
27594	12.359	3.9091	0.1	-9.5914
27595	12.451	3.8182	0.1	-10.593
27596	12.359	4.0909	0.1	-9.7415
27597	12.451	4.	0.1	-10.696
27598	12.359	4.2727	0.1	-9.906
27599	12.451	4.1818	0.1	-10.806
27600	12.359	4.4545	0.1	-10.08
27601	12.451	4.3636	0.1	-10.92
27602	12.359	4.6364	0.1	-10.26
27603	12.451	4.5455	0.1	-11.032
27604	12.359	4.8182	0.1	-10.443
27605	12.451	4.7273	0.1	-11.139
27606	12.359	5.	0.1	-10.628
27607	12.451	4.9091	0.1	-11.24
27608	12.359	5.1818	0.1	-10.815
27609	12.451	5.0909	0.1	-11.333
27610	12.359	5.3636	0.1	-11.009
27611	12.451	5.2727	0.1	-11.421
27612	12.359	5.5455	0.1	-11.248
27613	12.451	5.4545	0.1	-11.513
27614	12.359	5.7273	0.1	-12.163
27615	12.451	5.6364	0.1	-11.684
27616	12.451	5.8182	0.1	-13.188
27617	12.359	5.9091	0.1	-8.6693
27618	12.544	0.27273	0.1	-12.611
27619	12.636	0.18182	0.1	-13.52
27620	12.544	9.0909e-002	0.1	-8.8674
27621	12.544	0.45455	0.1	-11.922
27622	12.636	0.36364	0.1	-12.244
27623	12.544	0.63636	0.1	-11.902
27624	12.636	0.54545	0.1	-12.301
27625	12.544	0.81818	0.1	-11.916
27626	12.636	0.72727	0.1	-12.425
27627	12.544	1.	0.1	-11.922
27628	12.636	0.90909	0.1	-12.538
27629	12.544	1.1818	0.1	-11.913
27630	12.636	1.0909	0.1	-12.63
27631	12.544	1.3636	0.1	-11.889
27632	12.636	1.2727	0.1	-12.697
27633	12.544	1.5455	0.1	-11.85
27634	12.636	1.4545	0.1	-12.739
27635	12.544	1.7273	0.1	-11.799
27636	12.636	1.6364	0.1	-12.757
27637	12.544	1.9091	0.1	-11.74
27638	12.636	1.8182	0.1	-12.755
27639	12.544	2.0909	0.1	-11.677
27640	12.636	2.	0.1	-12.739
27641	12.544	2.2727	0.1	-11.616
27642	12.636	2.1818	0.1	-12.713
27643	12.544	2.4545	0.1	-11.563
27644	12.636	2.3636	0.1	-12.684
27645	12.544	2.6364	0.1	-11.521
27646	12.636	2.5455	0.1	-12.656
27647	12.544	2.8182	0.1	-11.494
27648	12.636	2.7273	0.1	-12.635
27649	12.544	3.	0.1	-11.485
27650	12.636	2.9091	0.1	-12.624
27651	12.544	3.1818	0.1	-11.494
27652	12.636	3.0909	0.1	-12.624
27653	12.544	3.3636	0.1	-11.521
27654	12.636	3.2727	0.1	-12.635
27655	12.544	3.5455	0.1	-11.563
27656	12.636	3.4545	0.1	-12.656
27657	12.544	3.7273	0.1	-11.616
27658	12.636	3.6364	0.1	-12.684
27659	12.544	3.9091	0.1	-11.677
27660	12.636	3.8182	0.1	-12.713
27661	12.544	4.0909	0.1	-11.74
27662	12.636	4.	0.1	-12.739
27663	12.544	4.2727	0.1	-11.799
27664	12.636	4.1818	0.1	-12.756
27665	12.544	4.4545	0.1	-11.851
27666	12.636	4.3636	0.1	-12.757
27667	12.544	4.6364	0.1	-11.889
27668	12.636	4.5455	0.1	-12.739
27669	12.544	4.8182	0.1	-11.913
27670	12.636	4.7273	0.1	-12.697
27671	12.544	5.	0.1	-11.922
27672	12.636	4.9091	0.1	-12.63
27673	12.544	5.1818	0.1	-11.916
27674	12.636	5.0909	0.1	-12.538
27675	12.544	5.3636	0.1	-11.902
27676	12.636	5.2727	0.1	-12.425
27677	12.544	5.5455	0.1	-11.922
27678	12.636	5.4545	0.1	-12.301
27679	12.544	5.7273	0.1	-12.611
27680	12.636	5.6364	0.1	-12.244
27681	12.636	5.8182	0.1	-13.52
27682	12.544	5.9091	0.1	-8.8674
27683	12.728	0.27273	0.1	-13.054
27684	12.82	0.18182	0.1	-13.843
27685	12.728	9.0909e-002	0.1	-9.0583
27686	12.728	0.45455	0.1	-12.595
27687	12.82	0.36364	0.1	-12.802
27688	12.728	0.63636	0.1	-12.799
27689	12.82	0.54545	0.1	-13.094
27690	12.728	0.81818	0.1	-13.023
27691	12.82	0.72727	0.1	-13.438
27692	12.728	1.	0.1	-13.223
27693	12.82	0.90909	0.1	-13.755
27694	12.728	1.1818	0.1	-13.391
27695	12.82	1.0909	0.1	-14.033
27696	12.728	1.3636	0.1	-13.524
27697	12.82	1.2727	0.1	-14.267
27698	12.728	1.5455	0.1	-13.624
27699	12.82	1.4545	0.1	-14.457
27700	12.728	1.7273	0.1	-13.692
27701	12.82	1.6364	0.1	-14.603
27702	12.728	1.9091	0.1	-13.734
27703	12.82	1.8182	0.1	-14.71
27704	12.728	2.0909	0.1	-13.755
27705	12.82	2.	0.1	-14.783
27706	12.728	2.2727	0.1	-13.76
27707	12.82	2.1818	0.1	-14.83
27708	12.728	2.4545	0.1	-13.757
27709	12.82	2.3636	0.1	-14.856
27710	12.728	2.6364	0.1	-13.751
27711	12.82	2.5455	0.1	-14.87
27712	12.728	2.8182	0.1	-13.745
27713	12.82	2.7273	0.1	-14.876
27714	12.728	3.	0.1	-13.743
27715	12.82	2.9091	0.1	-14.878
27716	12.728	3.1818	0.1	-13.745
27717	12.82	3.0909	0.1	-14.878
27718	12.728	3.3636	0.1	-13.751
27719	12.82	3.2727	0.1	-14.876
27720	12.728	3.5455	0.1	-13.757
27721	12.82	3.4545	0.1	-14.87
27722	12.728	3.7273	0.1	-13.76
27723	12.82	3.6364	0.1	-14.857
27724	12.728	3.9091	0.1	-13.755
27725	12.82	3.8182	0.1	-14.83
27726	12.728	4.0909	0.1	-13.734
27727	12.82	4.	0.1	-14.783
27728	12.728	4.2727	0.1	-13.692
27729	12.82	4.1818	0.1	-14.71
27730	12.728	4.4545	0.1	-13.624
27731	12.82	4.3636	0.1	-14.603
27732	12.728	4.6364	0.1	-13.524
27733	12.82	4.5455	0.1	-14.457
27734	12.728	4.8182	0.1	-13.391
27735	12.82	4.7273	0.1	-14.267
27736	12.728	5.	0.1	-13.223
27737	12.82	4.9091	0.1	-14.033
27738	12.728	5.1818	0.1	-13.023
27739	12.82	5.0909	0.1	-13.755
27740	12.728	5.3636	0.1	-12.799
27741	12.82	5.2727	0.1	-13.438
27742	12.728	5.5455	0.1	-12.595
27743	12.82	5.4545	0.1	-13.094
27744	12.728	5.7273	0.1	-13.054
27745	12.82	5.6364	0.1	-12.802
27746	12.82	5.8182	0.1	-13.843
27747	12.728	5.9091	0.1	-9.0583
27748	12.913	0.27273	0.1	-13.492
27749	13.005	0.18182	0.1	-14.158
27750	12.913	9.0909e-002	0.1	-9.2427
27751	12.913	0.45455	0.1	-13.273
27752	13.005	0.36364	0.1	-13.365
27753	12.913	0.63636	0.1	-13.707
27754	13.005	0.54545	0.1	-13.899
27755	12.913	0.81818	0.1	-14.146
27756	13.005	0.72727	0.1	-14.47
27757	12.913	1.	0.1	-14.542
27758	13.005	0.90909	0.1	-14.996
27759	12.913	1.1818	0.1	-14.887
27760	13.005	1.0909	0.1	-15.463
27761	12.913	1.3636	0.1	-15.178
27762	13.005	1.2727	0.1	-15.865
27763	12.913	1.5455	0.1	-15.414
27764	13.005	1.4545	0.1	-16.2
27765	12.913	1.7273	0.1	-15.599
27766	13.005	1.6364	0.1	-16.471
27767	12.913	1.9091	0.1	-15.738
27768	13.005	1.8182	0.1	-16.682
27769	12.913	2.0909	0.1	-15.837
27770	13.005	2.	0.1	-16.841
27771	12.913	2.2727	0.1	-15.905
27772	13.005	2.1818	0.1	-16.956
27773	12.913	2.4545	0.1	-15.949
27774	13.005	2.3636	0.1	-17.035
27775	12.913	2.6364	0.1	-15.975
27776	13.005	2.5455	0.1	-17.086
27777	12.913	2.8182	0.1	-15.989
27778	13.005	2.7273	0.1	-17.116
27779	12.913	3.	0.1	-15.993
27780	13.005	2.9091	0.1	-17.129
27781	12.913	3.1818	0.1	-15.989
27782	13.005	3.0909	0.1	-17.129
27783	12.913	3.3636	0.1	-15.975
27784	13.005	3.2727	0.1	-17.116
27785	12.913	3.5455	0.1	-15.949
27786	13.005	3.4545	0.1	-17.086
27787	12.913	3.7273	0.1	-15.905
27788	13.005	3.6364	0.1	-17.035
27789	12.913	3.9091	0.1	-15.837
27790	13.005	3.8182	0.1	-16.956
27791	12.913	4.0909	0.1	-15.738
27792	13.005	4.	0.1	-16.841
27793	12.913	4.2727	0.1	-15.599
27794	13.005	4.1818	0.1	-16.682
27795	12.913	4.4545	0.1	-15.414
27796	13.005	4.3636	0.1	-16.471
27797	12.913	4.6364	0.1	-15.178
27798	13.005	4.5455	0.1	-16.2
27799	12.913	4.8182	0.1	-14.887
27800	13.005	4.7273	0.1	-15.865
27801	12.913	5.	0.1	-14.542
27802	13.005	4.9091	0.1	-15.463
27803	12.913	5.1818	0.1	-14.146
27804	13.005	5.0909	0.1	-14.996
27805	12.913	5.3636	0.1	-13.707
27806	13.005	5.2727	0.1	-14.47
27807	12.913	5.5455	0.1	-13.273
27808	13.005	5.4545	0.1	-13.899
27809	12.913	5.7273	0.1	-13.492
27810	13.005	5.6364	0.1	-13.365
27811	13.005	5.8182	0.1	-14.158
27812	12.913	5.9091	0.1	-9.2427
27813	13.097	0.27273	0.1	-13.93
27814	13.189	0.18182	0.1	-14.466
27815	13.097	9.0909e-002	0.1	-9.4212
27816	13.097	0.45455	0.1	-13.962
27817	13.189	0.36364	0.1	-13.937
27818	13.097	0.63636	0.1	-14.636
27819	13.189	0.54545	0.1	-14.724
27820	13.097	0.81818	0.1	-15.295
27821	13.189	0.72727	0.1	-15.531
27822	13.097	1.	0.1	-15.893
27823	13.189	0.90909	0.1	-16.272
27824	13.097	1.1818	0.1	-16.417
27825	13.189	1.0909	0.1	-16.932
27826	13.097	1.3636	0.1	-16.865
27827	13.189	1.2727	0.1	-17.503
27828	13.097	1.5455	0.1	-17.235
27829	13.189	1.4545	0.1	-17.983
27830	13.097	1.7273	0.1	-17.533
27831	13.189	1.6364	0.1	-18.376
27832	13.097	1.9091	0.1	-17.765
27833	13.189	1.8182	0.1	-18.688
27834	13.097	2.0909	0.1	-17.939
27835	13.189	2.	0.1	-18.927
27836	13.097	2.2727	0.1	-18.064
27837	13.189	2.1818	0.1	-19.105
27838	13.097	2.4545	0.1	-18.151
27839	13.189	2.3636	0.1	-19.231
27840	13.097	2.6364	0.1	-18.206
27841	13.189	2.5455	0.1	-19.315
27842	13.097	2.8182	0.1	-18.236
27843	13.189	2.7273	0.1	-19.366
27844	13.097	3.	0.1	-18.246
27845	13.189	2.9091	0.1	-19.39
27846	13.097	3.1818	0.1	-18.237
27847	13.189	3.0909	0.1	-19.39
27848	13.097	3.3636	0.1	-18.206
27849	13.189	3.2727	0.1	-19.366
27850	13.097	3.5455	0.1	-18.151
27851	13.189	3.4545	0.1	-19.315
27852	13.097	3.7273	0.1	-18.064
27853	13.189	3.6364	0.1	-19.231
27854	13.097	3.9091	0.1	-17.939
27855	13.189	3.8182	0.1	-19.105
27856	13.097	4.0909	0.1	-17.765
27857	13.189	4.	0.1	-18.927
27858	13.097	4.2727	0.1	-17.533
27859	13.189	4.1818	0.1	-18.688
27860	13.097	4.4545	0.1	-17.235
27861	13.189	4.3636	0.1	-18.376
27862	13.097	4.6364	0.1	-16.865
27863	13.189	4.5455	0.1	-17.983
27864	13.097	4.8182	0.1	-16.417
27865	13.189	4.7273	0.1	-17.503
27866	13.097	5.	0.1	-15.893
27867	13.189	4.9091	0.1	-16.932
27868	13.097	5.1818	0.1	-15.296
27869	13.189	5.0909	0.1	-16.273
27870	13.097	5.3636	0.1	-14.636
27871	13.189	5.2727	0.1	-15.531
27872	13.097	5.5455	0.1	-13.962
27873	13.189	5.4545	0.1	-14.724
27874	13.097	5.7273	0.1	-13.93
27875	13.189	5.6364	0.1	-13.937
27876	13.189	5.8182	0.1	-14.466
27877	13.097	5.9091	0.1	-9.4212
27878	13.282	0.27273	0.1	-14.371
27879	13.374	0.18182	0.1	-14.769
27880	13.282	9.0909e-002	0.1	-9.5944
27881	13.282	0.45455	0.1	-14.67
27882	13.374	0.36364	0.1	-14.523
27883	13.282	0.63636	0.1	-15.594
27884	13.374	0.54545	0.1	-15.579
27885	13.282	0.81818	0.1	-16.484
27886	13.374	0.72727	0.1	-16.633
27887	13.282	1.	0.1	-17.288
27888	13.374	0.90909	0.1	-17.598
27889	13.282	1.1818	0.1	-17.995
27890	13.374	1.0909	0.1	-18.456
27891	13.282	1.3636	0.1	-18.599
27892	13.374	1.2727	0.1	-19.197
27893	13.282	1.5455	0.1	-19.102
27894	13.374	1.4545	0.1	-19.822
27895	13.282	1.7273	0.1	-19.51
27896	13.374	1.6364	0.1	-20.334
27897	13.282	1.9091	0.1	-19.829
27898	13.374	1.8182	0.1	-20.741
27899	13.282	2.0909	0.1	-20.072
27900	13.374	2.	0.1	-21.056
27901	13.282	2.2727	0.1	-20.25
27902	13.374	2.1818	0.1	-21.29
27903	13.282	2.4545	0.1	-20.374
27904	13.374	2.3636	0.1	-21.457
27905	13.282	2.6364	0.1	-20.455
27906	13.374	2.5455	0.1	-21.57
27907	13.282	2.8182	0.1	-20.5
27908	13.374	2.7273	0.1	-21.639
27909	13.282	3.	0.1	-20.514
27910	13.374	2.9091	0.1	-21.671
27911	13.282	3.1818	0.1	-20.5
27912	13.374	3.0909	0.1	-21.671
27913	13.282	3.3636	0.1	-20.455
27914	13.374	3.2727	0.1	-21.639
27915	13.282	3.5455	0.1	-20.374
27916	13.374	3.4545	0.1	-21.57
27917	13.282	3.7273	0.1	-20.25
27918	13.374	3.6364	0.1	-21.457
27919	13.282	3.9091	0.1	-20.072
27920	13.374	3.8182	0.1	-21.29
27921	13.282	4.0909	0.1	-19.829
27922	13.374	4.	0.1	-21.056
27923	13.282	4.2727	0.1	-19.51
27924	13.374	4.1818	0.1	-20.741
27925	13.282	4.4545	0.1	-19.102
27926	13.374	4.3636	0.1	-20.334
27927	13.282	4.6364	0.1	-18.599
27928	13.374	4.5455	0.1	-19.822
27929	13.282	4.8182	0.1	-17.995
27930	13.374	4.7273	0.1	-19.197
27931	13.282	5.	0.1	-17.288
27932	13.374	4.9091	0.1	-18.456
27933	13.282	5.1818	0.1	-16.484
27934	13.374	5.0909	0.1	-17.598
27935	13.282	5.3636	0.1	-15.594
27936	13.374	5.2727	0.1	-16.633
27937	13.282	5.5455	0.1	-14.67
27938	13.374	5.4545	0.1	-15.579
27939	13.282	5.7273	0.1	-14.371
27940	13.374	5.6364	0.1	-14.523
27941	13.374	5.8182	0.1	-14.769
27942	13.282	5.9091	0.1	-9.5944
27943	13.466	0.27273	0.1	-14.818
27944	13.558	0.18182	0.1	-15.068
27945	13.466	9.0909e-002	0.1	-9.7629
27946	13.466	0.45455	0.1	-15.403
27947	13.558	0.36364	0.1	-15.13
27948	13.466	0.63636	0.1	-16.592
27949	13.558	0.54545	0.1	-16.473
27950	13.466	0.81818	0.1	-17.723
27951	13.558	0.72727	0.1	-17.789
27952	13.466	1.	0.1	-18.742
27953	13.558	0.90909	0.1	-18.989
27954	13.466	1.1818	0.1	-19.635
27955	13.558	1.0909	0.1	-20.05
27956	13.466	1.3636	0.1	-20.398
27957	13.558	1.2727	0.1	-20.966
27958	13.466	1.5455	0.1	-21.032
27959	13.558	1.4545	0.1	-21.734
27960	13.466	1.7273	0.1	-21.545
27961	13.558	1.6364	0.1	-22.362
27962	13.466	1.9091	0.1	-21.947
27963	13.558	1.8182	0.1	-22.859
27964	13.466	2.0909	0.1	-22.252
27965	13.558	2.	0.1	-23.241
27966	13.466	2.2727	0.1	-22.476
27967	13.558	2.1818	0.1	-23.525
27968	13.466	2.4545	0.1	-22.632
27969	13.558	2.3636	0.1	-23.727
27970	13.466	2.6364	0.1	-22.734
27971	13.558	2.5455	0.1	-23.862
27972	13.466	2.8182	0.1	-22.79
27973	13.558	2.7273	0.1	-23.944
27974	13.466	3.	0.1	-22.808
27975	13.558	2.9091	0.1	-23.983
27976	13.466	3.1818	0.1	-22.79
27977	13.558	3.0909	0.1	-23.983
27978	13.466	3.3636	0.1	-22.734
27979	13.558	3.2727	0.1	-23.944
27980	13.466	3.5455	0.1	-22.632
27981	13.558	3.4545	0.1	-23.862
27982	13.466	3.7273	0.1	-22.476
27983	13.558	3.6364	0.1	-23.727
27984	13.466	3.9091	0.1	-22.252
27985	13.558	3.8182	0.1	-23.525
27986	13.466	4.0909	0.1	-21.947
27987	13.558	4.	0.1	-23.241
27988	13.466	4.2727	0.1	-21.545
27989	13.558	4.1818	0.1	-22.859
27990	13.466	4.4545	0.1	-21.032
27991	13.558	4.3636	0.1	-22.362
27992	13.466	4.6364	0.1	-20.398
27993	13.558	4.5455	0.1	-21.734
27994	13.466	4.8182	0.1	-19.636
27995	13.558	4.7273	0.1	-20.966
27996	13.466	5.	0.1	-18.742
27997	13.558	4.9091	0.1	-20.05
27998	13.466	5.1818	0.1	-17.723
27999	13.558	5.0909	0.1	-18.989
28000	13.466	5.3636	0.1	-16.592
28001	13.558	5.2727	0.1	-17.789
28002	13.466	5.5455	0.1	-15.403
28003	13.558	5.4545	0.1	-16.473
28004	13.466	5.7273	0.1	-14.818
28005	13.558	5.6364	0.1	-15.13
28006	13.558	5.8182	0.1	-15.068
28007	13.466	5.9091	0.1	-9.7629
28008	13.65	0.27273	0.1	-15.277
28009	13.743	0.18182	0.1	-15.366
28010	13.65	9.0909e-002	0.1	-9.9276
28011	13.65	0.45455	0.1	-16.17
28012	13.743	0.36364	0.1	-15.764
28013	13.65	0.63636	0.1	-17.643
28014	13.743	0.54545	0.1	-17.417
28015	13.65	0.81818	0.1	-19.03
28016	13.743	0.72727	0.1	-19.013
28017	13.65	1.	0.1	-20.273
28018	13.743	0.90909	0.1	-20.46
28019	13.65	1.1818	0.1	-21.357
28020	13.743	1.0909	0.1	-21.734
28021	13.65	1.3636	0.1	-22.279
28022	13.743	1.2727	0.1	-22.826
28023	13.65	1.5455	0.1	-23.042
28024	13.743	1.4545	0.1	-23.738
28025	13.65	1.7273	0.1	-23.655
28026	13.743	1.6364	0.1	-24.477
28027	13.65	1.9091	0.1	-24.133
28028	13.743	1.8182	0.1	-25.058
28029	13.65	2.0909	0.1	-24.493
28030	13.743	2.	0.1	-25.5
28031	13.65	2.2727	0.1	-24.755
28032	13.743	2.1818	0.1	-25.824
28033	13.65	2.4545	0.1	-24.936
28034	13.743	2.3636	0.1	-26.052
28035	13.65	2.6364	0.1	-25.053
28036	13.743	2.5455	0.1	-26.203
28037	13.65	2.8182	0.1	-25.117
28038	13.743	2.7273	0.1	-26.293
28039	13.65	3.	0.1	-25.138
28040	13.743	2.9091	0.1	-26.336
28041	13.65	3.1818	0.1	-25.117
28042	13.743	3.0909	0.1	-26.336
28043	13.65	3.3636	0.1	-25.053
28044	13.743	3.2727	0.1	-26.293
28045	13.65	3.5455	0.1	-24.936
28046	13.743	3.4545	0.1	-26.203
28047	13.65	3.7273	0.1	-24.755
28048	13.743	3.6364	0.1	-26.052
28049	13.65	3.9091	0.1	-24.493
28050	13.743	3.8182	0.1	-25.824
28051	13.65	4.0909	0.1	-24.133
28052	13.743	4.	0.1	-25.5
28053	13.65	4.2727	0.1	-23.655
28054	13.743	4.1818	0.1	-25.058
28055	13.65	4.4545	0.1	-23.042
28056	13.743	4.3636	0.1	-24.477
28057	13.65	4.6364	0.1	-22.279
28058	13.743	4.5455	0.1	-23.738
28059	13.65	4.8182	0.1	-21.357
28060	13.743	4.7273	0.1	-22.826
28061	13.65	5.	0.1	-20.273
28062	13.743	4.9091	0.1	-21.734
28063	13.65	5.1818	0.1	-19.03
28064	13.743	5.0909	0.1	-20.46
28065	13.65	5.3636	0.1	-17.643
28066	13.743	5.2727	0.1	-19.013
28067	13.65	5.5455	0.1	-16.17
28068	13.743	5.4545	0.1	-17.417
28069	13.65	5.7273	0.1	-15.277
28070	13.743	5.6364	0.1	-15.764
28071	13.743	5.8182	0.1	-15.366
28072	13.65	5.9091	0.1	-9.9276
28073	13.835	0.27273	0.1	-15.75
28074	13.927	0.18182	0.1	-15.665
28075	13.835	9.0909e-002	0.1	-10.089
28076	13.835	0.45455	0.1	-16.981
28077	13.927	0.36364	0.1	-16.435
28078	13.835	0.63636	0.1	-18.76
28079	13.927	0.54545	0.1	-18.424
28080	13.835	0.81818	0.1	-20.418
28081	13.927	0.72727	0.1	-20.322
28082	13.835	1.	0.1	-21.897
28083	13.927	0.90909	0.1	-22.031
28084	13.835	1.1818	0.1	-23.18
28085	13.927	1.0909	0.1	-23.527
28086	13.835	1.3636	0.1	-24.263
28087	13.927	1.2727	0.1	-24.801
28088	13.835	1.5455	0.1	-25.151
28089	13.927	1.4545	0.1	-25.854
28090	13.835	1.7273	0.1	-25.859
28091	13.927	1.6364	0.1	-26.7
28092	13.835	1.9091	0.1	-26.405
28093	13.927	1.8182	0.1	-27.356
28094	13.835	2.0909	0.1	-26.811
28095	13.927	2.	0.1	-27.848
28096	13.835	2.2727	0.1	-27.101
28097	13.927	2.1818	0.1	-28.202
28098	13.835	2.4545	0.1	-27.298
28099	13.927	2.3636	0.1	-28.446
28100	13.835	2.6364	0.1	-27.423
28101	13.927	2.5455	0.1	-28.604
28102	13.835	2.8182	0.1	-27.492
28103	13.927	2.7273	0.1	-28.696
28104	13.835	3.	0.1	-27.513
28105	13.927	2.9091	0.1	-28.739
28106	13.835	3.1818	0.1	-27.492
28107	13.927	3.0909	0.1	-28.739
28108	13.835	3.3636	0.1	-27.423
28109	13.927	3.2727	0.1	-28.696
28110	13.835	3.5455	0.1	-27.298
28111	13.927	3.4545	0.1	-28.604
28112	13.835	3.7273	0.1	-27.101
28113	13.927	3.6364	0.1	-28.446
28114	13.835	3.9091	0.1	-26.811
28115	13.927	3.8182	0.1	-28.202
28116	13.835	4.0909	0.1	-26.405
28117	13.927	4.	0.1	-27.848
28118	13.835	4.2727	0.1	-25.859
28119	13.927	4.1818	0.1	-27.357
28120	13.835	4.4545	0.1	-25.151
28121	13.927	4.3636	0.1	-26.7
28122	13.835	4.6364	0.1	-24.263
28123	13.927	4.5455	0.1	-25.854
28124	13.835	4.8182	0.1	-23.18
28125	13.927	4.7273	0.1	-24.801
28126	13.835	5.	0.1	-21.897
28127	13.927	4.9091	0.1	-23.527
28128	13.835	5.1818	0.1	-20.419
28129	13.927	5.0909	0.1	-22.031
28130	13.835	5.3636	0.1	-18.76
28131	13.927	5.2727	0.1	-20.322
28132	13.835	5.5455	0.1	-16.981
28133	13.927	5.4545	0.1	-18.424
28134	13.835	5.7273	0.1	-15.75
28135	13.927	5.6364	0.1	-16.435
28136	13.927	5.8182	0.1	-15.665
28137	13.835	5.9091	0.1	-10.089
28138	14.019	0.27273	0.1	-16.245
28139	14.112	0.18182	0.1	-15.966
28140	14.019	9.0909e-002	0.1	-10.248
28141	14.019	0.45455	0.1	-17.847
28142	14.112	0.36364	0.1	-17.15
28143	14.019	0.63636	0.1	-19.959
28144	14.112	0.54545	0.1	-19.509
28145	14.019	0.81818	0.1	-21.909
28146	14.112	0.72727	0.1	-21.733
28147	14.019	1.	0.1	-23.637
28148	14.112	0.90909	0.1	-23.724
28149	14.019	1.1818	0.1	-25.125
28150	14.112	1.0909	0.1	-25.453
28151	14.019	1.3636	0.1	-26.37
28152	14.112	1.2727	0.1	-26.913
28153	14.019	1.5455	0.1	-27.382
28154	14.112	1.4545	0.1	-28.107
28155	14.019	1.7273	0.1	-28.177
28156	14.112	1.6364	0.1	-29.053
28157	14.019	1.9091	0.1	-28.78
28158	14.112	1.8182	0.1	-29.774
28159	14.019	2.0909	0.1	-29.22
28160	14.112	2.	0.1	-30.304
28161	14.019	2.2727	0.1	-29.527
28162	14.112	2.1818	0.1	-30.675
28163	14.019	2.4545	0.1	-29.731
28164	14.112	2.3636	0.1	-30.922
28165	14.019	2.6364	0.1	-29.856
28166	14.112	2.5455	0.1	-31.075
28167	14.019	2.8182	0.1	-29.923
28168	14.112	2.7273	0.1	-31.162
28169	14.019	3.	0.1	-29.944
28170	14.112	2.9091	0.1	-31.201
28171	14.019	3.1818	0.1	-29.923
28172	14.112	3.0909	0.1	-31.201
28173	14.019	3.3636	0.1	-29.856
28174	14.112	3.2727	0.1	-31.162
28175	14.019	3.5455	0.1	-29.731
28176	14.112	3.4545	0.1	-31.075
28177	14.019	3.7273	0.1	-29.527
28178	14.112	3.6364	0.1	-30.922
28179	14.019	3.9091	0.1	-29.22
28180	14.112	3.8182	0.1	-30.675
28181	14.019	4.0909	0.1	-28.78
28182	14.112	4.	0.1	-30.304
28183	14.019	4.2727	0.1	-28.177
28184	14.112	4.1818	0.1	-29.774
28185	14.019	4.4545	0.1	-27.382
28186	14.112	4.3636	0.1	-29.053
28187	14.019	4.6364	0.1	-26.371
28188	14.112	4.5455	0.1	-28.107
28189	14.019	4.8182	0.1	-25.125
28190	14.112	4.7273	0.1	-26.913
28191	14.019	5.	0.1	-23.637
28192	14.112	4.9091	0.1	-25.453
28193	14.019	5.1818	0.1	-21.909
28194	14.112	5.0909	0.1	-23.724
28195	14.019	5.3636	0.1	-19.959
28196	14.112	5.2727	0.1	-21.733
28197	14.019	5.5455	0.1	-17.847
28198	14.112	5.4545	0.1	-19.509
28199	14.019	5.7273	0.1	-16.245
28200	14.112	5.6364	0.1	-17.15
28201	14.112	5.8182	0.1	-15.966
28202	14.019	5.9091	0.1	-10.248
28203	14.204	0.27273	0.1	-16.766
28204	14.296	0.18182	0.1	-16.273
28205	14.204	9.0909e-002	0.1	-10.405
28206	14.204	0.45455	0.1	-18.78
28207	14.296	0.36364	0.1	-17.921
28208	14.204	0.63636	0.1	-21.257
28209	14.296	0.54545	0.1	-20.688
28210	14.204	0.81818	0.1	-23.523
28211	14.296	0.72727	0.1	-23.27
28212	14.204	1.	0.1	-25.517
28213	14.296	0.90909	0.1	-25.564
28214	14.204	1.1818	0.1	-27.218
28215	14.296	1.0909	0.1	-27.539
28216	14.204	1.3636	0.1	-28.627
28217	14.296	1.2727	0.1	-29.189
28218	14.204	1.5455	0.1	-29.757
28219	14.296	1.4545	0.1	-30.522
28220	14.204	1.7273	0.1	-30.63
28221	14.296	1.6364	0.1	-31.559
28222	14.204	1.9091	0.1	-31.278
28223	14.296	1.8182	0.1	-32.334
28224	14.204	2.0909	0.1	-31.739
28225	14.296	2.	0.1	-32.886
28226	14.204	2.2727	0.1	-32.049
28227	14.296	2.1818	0.1	-33.258
28228	14.204	2.4545	0.1	-32.246
28229	14.296	2.3636	0.1	-33.493
28230	14.204	2.6364	0.1	-32.362
28231	14.296	2.5455	0.1	-33.63
28232	14.204	2.8182	0.1	-32.421
28233	14.296	2.7273	0.1	-33.702
28234	14.204	3.	0.1	-32.439
28235	14.296	2.9091	0.1	-33.732
28236	14.204	3.1818	0.1	-32.421
28237	14.296	3.0909	0.1	-33.732
28238	14.204	3.3636	0.1	-32.362
28239	14.296	3.2727	0.1	-33.702
28240	14.204	3.5455	0.1	-32.246
28241	14.296	3.4545	0.1	-33.63
28242	14.204	3.7273	0.1	-32.049
28243	14.296	3.6364	0.1	-33.493
28244	14.204	3.9091	0.1	-31.739
28245	14.296	3.8182	0.1	-33.258
28246	14.204	4.0909	0.1	-31.278
28247	14.296	4.	0.1	-32.886
28248	14.204	4.2727	0.1	-30.63
28249	14.296	4.1818	0.1	-32.334
28250	14.204	4.4545	0.1	-29.757
28251	14.296	4.3636	0.1	-31.559
28252	14.204	4.6364	0.1	-28.627
28253	14.296	4.5455	0.1	-30.522
28254	14.204	4.8182	0.1	-27.218
28255	14.296	4.7273	0.1	-29.189
28256	14.204	5.	0.1	-25.517
28257	14.296	4.9091	0.1	-27.539
28258	14.204	5.1818	0.1	-23.523
28259	14.296	5.0909	0.1	-25.564
28260	14.204	5.3636	0.1	-21.257
28261	14.296	5.2727	0.1	-23.27
28262	14.204	5.5455	0.1	-18.78
28263	14.296	5.4545	0.1	-20.688
28264	14.204	5.7273	0.1	-16.766
28265	14.296	5.6364	0.1	-17.921
28266	14.296	5.8182	0.1	-16.273
28267	14.204	5.9091	0.1	-10.405
28268	14.388	0.27273	0.1	-17.322
28269	14.481	0.18182	0.1	-16.588
28270	14.388	9.0909e-002	0.1	-10.562
28271	14.388	0.45455	0.1	-19.797
28272	14.481	0.36364	0.1	-18.76
28273	14.388	0.63636	0.1	-22.674
28274	14.481	0.54545	0.1	-21.982
28275	14.388	0.81818	0.1	-25.285
28276	14.481	0.72727	0.1	-24.956
28277	14.388	1.	0.1	-27.563
28278	14.481	0.90909	0.1	-27.578
28279	14.388	1.1818	0.1	-29.488
28280	14.481	1.0909	0.1	-29.815
28281	14.388	1.3636	0.1	-31.062
28282	14.481	1.2727	0.1	-31.66
28283	14.388	1.5455	0.1	-32.304
28284	14.481	1.4545	0.1	-33.129
28285	14.388	1.7273	0.1	-33.244
28286	14.481	1.6364	0.1	-34.248
28287	14.388	1.9091	0.1	-33.922
28288	14.481	1.8182	0.1	-35.061
28289	14.388	2.0909	0.1	-34.386
28290	14.481	2.	0.1	-35.616
28291	14.388	2.2727	0.1	-34.682
28292	14.481	2.1818	0.1	-35.97
28293	14.388	2.4545	0.1	-34.857
28294	14.481	2.3636	0.1	-36.174
28295	14.388	2.6364	0.1	-34.951
28296	14.481	2.5455	0.1	-36.279
28297	14.388	2.8182	0.1	-34.994
28298	14.481	2.7273	0.1	-36.324
28299	14.388	3.	0.1	-35.006
28300	14.481	2.9091	0.1	-36.34
28301	14.388	3.1818	0.1	-34.994
28302	14.481	3.0909	0.1	-36.34
28303	14.388	3.3636	0.1	-34.951
28304	14.481	3.2727	0.1	-36.324
28305	14.388	3.5455	0.1	-34.857
28306	14.481	3.4545	0.1	-36.279
28307	14.388	3.7273	0.1	-34.682
28308	14.481	3.6364	0.1	-36.174
28309	14.388	3.9091	0.1	-34.386
28310	14.481	3.8182	0.1	-35.97
28311	14.388	4.0909	0.1	-33.922
28312	14.481	4.	0.1	-35.616
28313	14.388	4.2727	0.1	-33.244
28314	14.481	4.1818	0.1	-35.061
28315	14.388	4.4545	0.1	-32.304
28316	14.481	4.3636	0.1	-34.248
28317	14.388	4.6364	0.1	-31.062
28318	14.481	4.5455	0.1	-33.129
28319	14.388	4.8182	0.1	-29.488
28320	14.481	4.7273	0.1	-31.661
28321	14.388	5.	0.1	-27.563
28322	14.481	4.9091	0.1	-29.815
28323	14.388	5.1818	0.1	-25.285
28324	14.481	5.0909	0.1	-27.578
28325	14.388	5.3636	0.1	-22.675
28326	14.481	5.2727	0.1	-24.956
28327	14.388	5.5455	0.1	-19.797
28328	14.481	5.4545	0.1	-21.982
28329	14.388	5.7273	0.1	-17.322
28330	14.481	5.6364	0.1	-18.76
28331	14.481	5.8182	0.1	-16.588
28332	14.388	5.9091	0.1	-10.562
28333	14.573	0.27273	0.1	-17.92
28334	14.665	0.18182	0.1	-16.915
28335	14.573	9.0909e-002	0.1	-10.719
28336	14.573	0.45455	0.1	-20.912
28337	14.665	0.36364	0.1	-19.681
28338	14.573	0.63636	0.1	-24.236
28339	14.665	0.54545	0.1	-23.411
28340	14.573	0.81818	0.1	-27.223
28341	14.665	0.72727	0.1	-26.819
28342	14.573	1.	0.1	-29.806
28343	14.665	0.90909	0.1	-29.799
28344	14.573	1.1818	0.1	-31.965
28345	14.665	1.0909	0.1	-32.314
28346	14.573	1.3636	0.1	-33.706
28347	14.665	1.2727	0.1	-34.362
28348	14.573	1.5455	0.1	-35.053
28349	14.665	1.4545	0.1	-35.961
28350	14.573	1.7273	0.1	-36.045
28351	14.665	1.6364	0.1	-37.15
28352	14.573	1.9091	0.1	-36.735
28353	14.665	1.8182	0.1	-37.981
28354	14.573	2.0909	0.1	-37.181
28355	14.665	2.	0.1	-38.519
28356	14.573	2.2727	0.1	-37.443
28357	14.665	2.1818	0.1	-38.829
28358	14.573	2.4545	0.1	-37.577
28359	14.665	2.3636	0.1	-38.981
28360	14.573	2.6364	0.1	-37.633
28361	14.665	2.5455	0.1	-39.034
28362	14.573	2.8182	0.1	-37.651
28363	14.665	2.7273	0.1	-39.039
28364	14.573	3.	0.1	-37.654
28365	14.665	2.9091	0.1	-39.032
28366	14.573	3.1818	0.1	-37.651
28367	14.665	3.0909	0.1	-39.032
28368	14.573	3.3636	0.1	-37.633
28369	14.665	3.2727	0.1	-39.039
28370	14.573	3.5455	0.1	-37.577
28371	14.665	3.4545	0.1	-39.034
28372	14.573	3.7273	0.1	-37.443
28373	14.665	3.6364	0.1	-38.981
28374	14.573	3.9091	0.1	-37.181
28375	14.665	3.8182	0.1	-38.829
28376	14.573	4.0909	0.1	-36.735
28377	14.665	4.	0.1	-38.519
28378	14.573	4.2727	0.1	-36.045
28379	14.665	4.1818	0.1	-37.981
28380	14.573	4.4545	0.1	-35.053
28381	14.665	4.3636	0.1	-37.15
28382	14.573	4.6364	0.1	-33.706
28383	14.665	4.5455	0.1	-35.961
28384	14.573	4.8182	0.1	-31.965
28385	14.665	4.7273	0.1	-34.362
28386	14.573	5.	0.1	-29.806
28387	14.665	4.9091	0.1	-32.314
28388	14.573	5.1818	0.1	-27.223
28389	14.665	5.0909	0.1	-29.799
28390	14.573	5.3636	0.1	-24.236
28391	14.665	5.2727	0.1	-26.819
28392	14.573	5.5455	0.1	-20.912
28393	14.665	5.4545	0.1	-23.411
28394	14.573	5.7273	0.1	-17.92
28395	14.665	5.6364	0.1	-19.681
28396	14.665	5.8182	0.1	-16.915
28397	14.573	5.9091	0.1	-10.719
28398	14.757	0.27273	0.1	-18.57
28399	14.85	0.18182	0.1	-17.259
28400	14.757	9.0909e-002	0.1	-10.878
28401	14.757	0.45455	0.1	-22.146
28402	14.85	0.36364	0.1	-20.701
28403	14.757	0.63636	0.1	-25.967
28404	14.85	0.54545	0.1	-25.001
28405	14.757	0.81818	0.1	-29.37
28406	14.85	0.72727	0.1	-28.893
28407	14.757	1.	0.1	-32.283
28408	14.85	0.90909	0.1	-32.263
28409	14.757	1.1818	0.1	-34.689
28410	14.85	1.0909	0.1	-35.077
28411	14.757	1.3636	0.1	-36.596
28412	14.85	1.2727	0.1	-37.333
28413	14.757	1.5455	0.1	-38.038
28414	14.85	1.4545	0.1	-39.058
28415	14.757	1.7273	0.1	-39.067
28416	14.85	1.6364	0.1	-40.3
28417	14.757	1.9091	0.1	-39.746
28418	14.85	1.8182	0.1	-41.128
28419	14.757	2.0909	0.1	-40.148
28420	14.85	2.	0.1	-41.62
28421	14.757	2.2727	0.1	-40.349
28422	14.85	2.1818	0.1	-41.859
28423	14.757	2.4545	0.1	-40.419
28424	14.85	2.3636	0.1	-41.93
28425	14.757	2.6364	0.1	-40.421
28426	14.85	2.5455	0.1	-41.909
28427	14.757	2.8182	0.1	-40.402
28428	14.85	2.7273	0.1	-41.857
28429	14.757	3.	0.1	-40.392
28430	14.85	2.9091	0.1	-41.819
28431	14.757	3.1818	0.1	-40.402
28432	14.85	3.0909	0.1	-41.819
28433	14.757	3.3636	0.1	-40.421
28434	14.85	3.2727	0.1	-41.857
28435	14.757	3.5455	0.1	-40.42
28436	14.85	3.4545	0.1	-41.909
28437	14.757	3.7273	0.1	-40.349
28438	14.85	3.6364	0.1	-41.93
28439	14.757	3.9091	0.1	-40.148
28440	14.85	3.8182	0.1	-41.859
28441	14.757	4.0909	0.1	-39.746
28442	14.85	4.	0.1	-41.62
28443	14.757	4.2727	0.1	-39.067
28444	14.85	4.1818	0.1	-41.128
28445	14.757	4.4545	0.1	-38.038
28446	14.85	4.3636	0.1	-40.3
28447	14.757	4.6364	0.1	-36.596
28448	14.85	4.5455	0.1	-39.058
28449	14.757	4.8182	0.1	-34.689
28450	14.85	4.7273	0.1	-37.333
28451	14.757	5.	0.1	-32.283
28452	14.85	4.9091	0.1	-35.077
28453	14.757	5.1818	0.1	-29.37
28454	14.85	5.0909	0.1	-32.263
28455	14.757	5.3636	0.1	-25.967
28456	14.85	5.2727	0.1	-28.893
28457	14.757	5.5455	0.1	-22.146
28458	14.85	5.4545	0.1	-25.001
28459	14.757	5.7273	0.1	-18.57
28460	14.85	5.6364	0.1	-20.701
28461	14.85	5.8182	0.1	-17.259
28462	14.757	5.9091	0.1	-10.878
28463	14.942	0.27273	0.1	-19.283
28464	15.034	0.18182	0.1	-17.624
28465	14.942	9.0909e-002	0.1	-11.041
28466	14.942	0.45455	0.1	-23.522
28467	15.034	0.36364	0.1	-21.837
28468	14.942	0.63636	0.1	-27.9
28469	15.034	0.54545	0.1	-26.783
28470	14.942	0.81818	0.1	-31.762
28471	15.034	0.72727	0.1	-31.213
28472	14.942	1.	0.1	-35.035
28473	15.034	0.90909	0.1	-35.014
28474	14.942	1.1818	0.1	-37.7
28475	15.034	1.0909	0.1	-38.148
28476	14.942	1.3636	0.1	-39.775
28477	15.034	1.2727	0.1	-40.62
28478	14.942	1.5455	0.1	-41.301
28479	15.034	1.4545	0.1	-42.463
28480	14.942	1.7273	0.1	-42.344
28481	15.034	1.6364	0.1	-43.741
28482	14.942	1.9091	0.1	-42.984
28483	15.034	1.8182	0.1	-44.538
28484	14.942	2.0909	0.1	-43.313
28485	15.034	2.	0.1	-44.951
28486	14.942	2.2727	0.1	-43.423
28487	15.034	2.1818	0.1	-45.084
28488	14.942	2.4545	0.1	-43.401
28489	15.034	2.3636	0.1	-45.042
28490	14.942	2.6364	0.1	-43.326
28491	15.034	2.5455	0.1	-44.917
28492	14.942	2.8182	0.1	-43.256
28493	15.034	2.7273	0.1	-44.787
28494	14.942	3.	0.1	-43.228
28495	15.034	2.9091	0.1	-44.708
28496	14.942	3.1818	0.1	-43.256
28497	15.034	3.0909	0.1	-44.708
28498	14.942	3.3636	0.1	-43.326
28499	15.034	3.2727	0.1	-44.787
28500	14.942	3.5455	0.1	-43.401
28501	15.034	3.4545	0.1	-44.917
28502	14.942	3.7273	0.1	-43.423
28503	15.034	3.6364	0.1	-45.042
28504	14.942	3.9091	0.1	-43.313
28505	15.034	3.8182	0.1	-45.084
28506	14.942	4.0909	0.1	-42.984
28507	15.034	4.	0.1	-44.951
28508	14.942	4.2727	0.1	-42.344
28509	15.034	4.1818	0.1	-44.538
28510	14.942	4.4545	0.1	-41.301
28511	15.034	4.3636	0.1	-43.741
28512	14.942	4.6364	0.1	-39.775
28513	15.034	4.5455	0.1	-42.463
28514	14.942	4.8182	0.1	-37.7
28515	15.034	4.7273	0.1	-40.62
28516	14.942	5.	0.1	-35.035
28517	15.034	4.9091	0.1	-38.149
28518	14.942	5.1818	0.1	-31.762
28519	15.034	5.0909	0.1	-35.014
28520	14.942	5.3636	0.1	-27.9
28521	15.034	5.2727	0.1	-31.213
28522	14.942	5.5455	0.1	-23.522
28523	15.034	5.4545	0.1	-26.783
28524	14.942	5.7273	0.1	-19.283
28525	15.034	5.6364	0.1	-21.837
28526	15.034	5.8182	0.1	-17.624
28527	14.942	5.9091	0.1	-11.041
28528	15.126	0.27273	0.1	-20.071
28529	15.218	0.18182	0.1	-18.015
28530	15.126	9.0909e-002	0.1	-11.209
28531	15.126	0.45455	0.1	-25.064
28532	15.218	0.36364	0.1	-23.112
28533	15.126	0.63636	0.1	-30.068
28534	15.218	0.54545	0.1	-28.787
28535	15.126	0.81818	0.1	-34.441
28536	15.218	0.72727	0.1	-33.821
28537	15.126	1.	0.1	-38.106
28538	15.218	0.90909	0.1	-38.099
28539	15.126	1.1818	0.1	-41.048
28540	15.218	1.0909	0.1	-41.58
28541	15.126	1.3636	0.1	-43.289
28542	15.218	1.2727	0.1	-44.275
28543	15.126	1.5455	0.1	-44.886
28544	15.218	1.4545	0.1	-46.228
28545	15.126	1.7273	0.1	-45.918
28546	15.218	1.6364	0.1	-47.52
28547	15.126	1.9091	0.1	-46.487
28548	15.218	1.8182	0.1	-48.253
28549	15.126	2.0909	0.1	-46.705
28550	15.218	2.	0.1	-48.548
28551	15.126	2.2727	0.1	-46.686
28552	15.218	2.1818	0.1	-48.534
28553	15.126	2.4545	0.1	-46.54
28554	15.218	2.3636	0.1	-48.338
28555	15.126	2.6364	0.1	-46.361
28556	15.218	2.5455	0.1	-48.076
28557	15.126	2.8182	0.1	-46.223
28558	15.218	2.7273	0.1	-47.844
28559	15.126	3.	0.1	-46.171
28560	15.218	2.9091	0.1	-47.71
28561	15.126	3.1818	0.1	-46.223
28562	15.218	3.0909	0.1	-47.71
28563	15.126	3.3636	0.1	-46.361
28564	15.218	3.2727	0.1	-47.844
28565	15.126	3.5455	0.1	-46.54
28566	15.218	3.4545	0.1	-48.076
28567	15.126	3.7273	0.1	-46.687
28568	15.218	3.6364	0.1	-48.338
28569	15.126	3.9091	0.1	-46.705
28570	15.218	3.8182	0.1	-48.534
28571	15.126	4.0909	0.1	-46.487
28572	15.218	4.	0.1	-48.548
28573	15.126	4.2727	0.1	-45.918
28574	15.218	4.1818	0.1	-48.253
28575	15.126	4.4545	0.1	-44.886
28576	15.218	4.3636	0.1	-47.52
28577	15.126	4.6364	0.1	-43.289
28578	15.218	4.5455	0.1	-46.228
28579	15.126	4.8182	0.1	-41.048
28580	15.218	4.7273	0.1	-44.275
28581	15.126	5.	0.1	-38.107
28582	15.218	4.9091	0.1	-41.58
28583	15.126	5.1818	0.1	-34.441
28584	15.218	5.0909	0.1	-38.099
28585	15.126	5.3636	0.1	-30.068
28586	15.218	5.2727	0.1	-33.821
28587	15.126	5.5455	0.1	-25.064
28588	15.218	5.4545	0.1	-28.787
28589	15.126	5.7273	0.1	-20.071
28590	15.218	5.6364	0.1	-23.112
28591	15.218	5.8182	0.1	-18.015
28592	15.126	5.9091	0.1	-11.209
28593	15.311	0.27273	0.1	-20.948
28594	15.403	0.18182	0.1	-18.44
28595	15.311	9.0909e-002	0.1	-11.384
28596	15.311	0.45455	0.1	-26.8
28597	15.403	0.36364	0.1	-24.549
28598	15.311	0.63636	0.1	-32.513
28599	15.403	0.54545	0.1	-31.051
28600	15.311	0.81818	0.1	-37.456
28601	15.403	0.72727	0.1	-36.765
28602	15.311	1.	0.1	-41.552
28603	15.403	0.90909	0.1	-41.571
28604	15.311	1.1818	0.1	-44.788
28605	15.403	1.0909	0.1	-45.43
28606	15.311	1.3636	0.1	-47.196
28607	15.403	1.2727	0.1	-48.358
28608	15.311	1.5455	0.1	-48.846
28609	15.403	1.4545	0.1	-50.413
28610	15.311	1.7273	0.1	-49.839
28611	15.403	1.6364	0.1	-51.692
28612	15.311	1.9091	0.1	-50.297
28613	15.403	1.8182	0.1	-52.323
28614	15.311	2.0909	0.1	-50.36
28615	15.403	2.	0.1	-52.454
28616	15.311	2.2727	0.1	-50.169
28617	15.403	2.1818	0.1	-52.242
28618	15.311	2.4545	0.1	-49.857
28619	15.403	2.3636	0.1	-51.845
28620	15.311	2.6364	0.1	-49.542
28621	15.403	2.5455	0.1	-51.405
28622	15.311	2.8182	0.1	-49.315
28623	15.403	2.7273	0.1	-51.041
28624	15.311	3.	0.1	-49.233
28625	15.403	2.9091	0.1	-50.837
28626	15.311	3.1818	0.1	-49.315
28627	15.403	3.0909	0.1	-50.837
28628	15.311	3.3636	0.1	-49.542
28629	15.403	3.2727	0.1	-51.041
28630	15.311	3.5455	0.1	-49.857
28631	15.403	3.4545	0.1	-51.405
28632	15.311	3.7273	0.1	-50.169
28633	15.403	3.6364	0.1	-51.845
28634	15.311	3.9091	0.1	-50.36
28635	15.403	3.8182	0.1	-52.242
28636	15.311	4.0909	0.1	-50.297
28637	15.403	4.	0.1	-52.454
28638	15.311	4.2727	0.1	-49.839
28639	15.403	4.1818	0.1	-52.323
28640	15.311	4.4545	0.1	-48.846
28641	15.403	4.3636	0.1	-51.693
28642	15.311	4.6364	0.1	-47.196
28643	15.403	4.5455	0.1	-50.413
28644	15.311	4.8182	0.1	-44.788
28645	15.403	4.7273	0.1	-48.358
28646	15.311	5.	0.1	-41.552
28647	15.403	4.9091	0.1	-45.43
28648	15.311	5.1818	0.1	-37.456
28649	15.403	5.0909	0.1	-41.571
28650	15.311	5.3636	0.1	-32.513
28651	15.403	5.2727	0.1	-36.765
28652	15.311	5.5455	0.1	-26.8
28653	15.403	5.4545	0.1	-31.051
28654	15.311	5.7273	0.1	-20.948
28655	15.403	5.6364	0.1	-24.549
28656	15.403	5.8182	0.1	-18.44
28657	15.311	5.9091	0.1	-11.384
28658	15.495	0.27273	0.1	-21.931
28659	15.587	0.18182	0.1	-18.906
28660	15.495	9.0909e-002	0.1	-11.57
28661	15.495	0.45455	0.1	-28.764
28662	15.587	0.36364	0.1	-26.173
28663	15.495	0.63636	0.1	-35.277
28664	15.587	0.54545	0.1	-33.616
28665	15.495	0.81818	0.1	-40.858
28666	15.587	0.72727	0.1	-40.095
28667	15.495	1.	0.1	-45.431
28668	15.587	0.90909	0.1	-45.492
28669	15.495	1.1818	0.1	-48.984
28670	15.587	1.0909	0.1	-49.766
28671	15.495	1.3636	0.1	-51.56
28672	15.587	1.2727	0.1	-52.94
28673	15.495	1.5455	0.1	-53.245
28674	15.587	1.4545	0.1	-55.087
28675	15.495	1.7273	0.1	-54.163
28676	15.587	1.6364	0.1	-56.325
28677	15.495	1.9091	0.1	-54.465
28678	15.587	1.8182	0.1	-56.809
28679	15.495	2.0909	0.1	-54.321
28680	15.587	2.	0.1	-56.72
28681	15.495	2.2727	0.1	-53.903
28682	15.587	2.1818	0.1	-56.252
28683	15.495	2.4545	0.1	-53.378
28684	15.587	2.3636	0.1	-55.596
28685	15.495	2.6364	0.1	-52.889
28686	15.587	2.5455	0.1	-54.93
28687	15.495	2.8182	0.1	-52.548
28688	15.587	2.7273	0.1	-54.397
28689	15.495	3.	0.1	-52.426
28690	15.587	2.9091	0.1	-54.104
28691	15.495	3.1818	0.1	-52.548
28692	15.587	3.0909	0.1	-54.104
28693	15.495	3.3636	0.1	-52.889
28694	15.587	3.2727	0.1	-54.397
28695	15.495	3.5455	0.1	-53.378
28696	15.587	3.4545	0.1	-54.93
28697	15.495	3.7273	0.1	-53.903
28698	15.587	3.6364	0.1	-55.596
28699	15.495	3.9091	0.1	-54.321
28700	15.587	3.8182	0.1	-56.252
28701	15.495	4.0909	0.1	-54.465
28702	15.587	4.	0.1	-56.72
28703	15.495	4.2727	0.1	-54.163
28704	15.587	4.1818	0.1	-56.809
28705	15.495	4.4545	0.1	-53.245
28706	15.587	4.3636	0.1	-56.325
28707	15.495	4.6364	0.1	-51.56
28708	15.587	4.5455	0.1	-55.087
28709	15.495	4.8182	0.1	-48.984
28710	15.587	4.7273	0.1	-52.94
28711	15.495	5.	0.1	-45.431
28712	15.587	4.9091	0.1	-49.766
28713	15.495	5.1818	0.1	-40.858
28714	15.587	5.0909	0.1	-45.492
28715	15.495	5.3636	0.1	-35.277
28716	15.587	5.2727	0.1	-40.095
28717	15.495	5.5455	0.1	-28.764
28718	15.587	5.4545	0.1	-33.616
28719	15.495	5.7273	0.1	-21.931
28720	15.587	5.6364	0.1	-26.173
28721	15.587	5.8182	0.1	-18.906
28722	15.495	5.9091	0.1	-11.57
28723	15.68	0.27273	0.1	-23.037
28724	15.772	0.18182	0.1	-19.421
28725	15.68	9.0909e-002	0.1	-11.769
28726	15.68	0.45455	0.1	-30.989
28727	15.772	0.36364	0.1	-28.013
28728	15.68	0.63636	0.1	-38.409
28729	15.772	0.54545	0.1	-36.524
28730	15.68	0.81818	0.1	-44.708
28731	15.772	0.72727	0.1	-43.869
28732	15.68	1.	0.1	-49.81
28733	15.772	0.90909	0.1	-49.928
28734	15.68	1.1818	0.1	-53.708
28735	15.772	1.0909	0.1	-54.662
28736	15.68	1.3636	0.1	-56.455
28737	15.772	1.2727	0.1	-58.101
28738	15.68	1.5455	0.1	-58.155
28739	15.772	1.4545	0.1	-60.332
28740	15.68	1.7273	0.1	-58.96
28741	15.772	1.6364	0.1	-61.498
28742	15.68	1.9091	0.1	-59.052
28743	15.772	1.8182	0.1	-61.784
28744	15.68	2.0909	0.1	-58.639
28745	15.772	2.	0.1	-61.412
28746	15.68	2.2727	0.1	-57.932
28747	15.772	2.1818	0.1	-60.616
28748	15.68	2.4545	0.1	-57.134
28749	15.772	2.3636	0.1	-59.633
28750	15.68	2.6364	0.1	-56.424
28751	15.772	2.5455	0.1	-58.681
28752	15.68	2.8182	0.1	-55.94
28753	15.772	2.7273	0.1	-57.937
28754	15.68	3.	0.1	-55.768
28755	15.772	2.9091	0.1	-57.532
28756	15.68	3.1818	0.1	-55.94
28757	15.772	3.0909	0.1	-57.532
28758	15.68	3.3636	0.1	-56.424
28759	15.772	3.2727	0.1	-57.937
28760	15.68	3.5455	0.1	-57.135
28761	15.772	3.4545	0.1	-58.681
28762	15.68	3.7273	0.1	-57.932
28763	15.772	3.6364	0.1	-59.633
28764	15.68	3.9091	0.1	-58.639
28765	15.772	3.8182	0.1	-60.616
28766	15.68	4.0909	0.1	-59.052
28767	15.772	4.	0.1	-61.412
28768	15.68	4.2727	0.1	-58.96
28769	15.772	4.1818	0.1	-61.784
28770	15.68	4.4545	0.1	-58.155
28771	15.772	4.3636	0.1	-61.498
28772	15.68	4.6364	0.1	-56.455
28773	15.772	4.5455	0.1	-60.332
28774	15.68	4.8182	0.1	-53.708
28775	15.772	4.7273	0.1	-58.101
28776	15.68	5.	0.1	-49.81
28777	15.772	4.9091	0.1	-54.663
28778	15.68	5.1818	0.1	-44.708
28779	15.772	5.0909	0.1	-49.928
28780	15.68	5.3636	0.1	-38.409
28781	15.772	5.2727	0.1	-43.869
28782	15.68	5.5455	0.1	-30.989
28783	15.772	5.4545	0.1	-36.524
28784	15.68	5.7273	0.1	-23.037
28785	15.772	5.6364	0.1	-28.013
28786	15.772	5.8182	0.1	-19.421
28787	15.68	5.9091	0.1	-11.769
28788	15.864	0.27273	0.1	-24.286
28789	15.956	0.18182	0.1	-19.997
28790	15.864	9.0909e-002	0.1	-11.985
28791	15.864	0.45455	0.1	-33.513
28792	15.956	0.36364	0.1	-30.099
28793	15.864	0.63636	0.1	-41.96
28794	15.956	0.54545	0.1	-39.821
28795	15.864	0.81818	0.1	-49.071
28796	15.956	0.72727	0.1	-48.145
28797	15.864	1.	0.1	-54.767
28798	15.956	0.90909	0.1	-54.954
28799	15.864	1.1818	0.1	-59.045
28800	15.956	1.0909	0.1	-60.205
28801	15.864	1.3636	0.1	-61.969
28802	15.956	1.2727	0.1	-63.935
28803	15.864	1.5455	0.1	-63.665
28804	15.956	1.4545	0.1	-66.246
28805	15.864	1.7273	0.1	-64.313
28806	15.956	1.6364	0.1	-67.306
28807	15.864	1.9091	0.1	-64.134
28808	15.956	1.8182	0.1	-67.338
28809	15.864	2.0909	0.1	-63.378
28810	15.956	2.	0.1	-66.607
28811	15.864	2.2727	0.1	-62.307
28812	15.956	2.1818	0.1	-65.401
28813	15.864	2.4545	0.1	-61.168
28814	15.956	2.3636	0.1	-64.009
28815	15.864	2.6364	0.1	-60.181
28816	15.956	2.5455	0.1	-62.7
28817	15.864	2.8182	0.1	-59.517
28818	15.956	2.7273	0.1	-61.693
28819	15.864	3.	0.1	-59.283
28820	15.956	2.9091	0.1	-61.149
28821	15.864	3.1818	0.1	-59.517
28822	15.956	3.0909	0.1	-61.149
28823	15.864	3.3636	0.1	-60.181
28824	15.956	3.2727	0.1	-61.693
28825	15.864	3.5455	0.1	-61.168
28826	15.956	3.4545	0.1	-62.7
28827	15.864	3.7273	0.1	-62.307
28828	15.956	3.6364	0.1	-64.009
28829	15.864	3.9091	0.1	-63.378
28830	15.956	3.8182	0.1	-65.401
28831	15.864	4.0909	0.1	-64.134
28832	15.956	4.	0.1	-66.607
28833	15.864	4.2727	0.1	-64.313
28834	15.956	4.1818	0.1	-67.338
28835	15.864	4.4545	0.1	-63.666
28836	15.956	4.3636	0.1	-67.306
28837	15.864	4.6364	0.1	-61.969
28838	15.956	4.5455	0.1	-66.246
28839	15.864	4.8182	0.1	-59.045
28840	15.956	4.7273	0.1	-63.935
28841	15.864	5.	0.1	-54.767
28842	15.956	4.9091	0.1	-60.206
28843	15.864	5.1818	0.1	-49.071
28844	15.956	5.0909	0.1	-54.954
28845	15.864	5.3636	0.1	-41.96
28846	15.956	5.2727	0.1	-48.146
28847	15.864	5.5455	0.1	-33.513
28848	15.956	5.4545	0.1	-39.821
28849	15.864	5.7273	0.1	-24.286
28850	15.956	5.6364	0.1	-30.099
28851	15.956	5.8182	0.1	-19.997
28852	15.864	5.9091	0.1	-11.985
28853	16.049	0.27273	0.1	-25.696
28854	16.141	0.18182	0.1	-20.644
28855	16.049	9.0909e-002	0.1	-12.223
28856	16.049	0.45455	0.1	-36.373
28857	16.141	0.36364	0.1	-32.458
28858	16.049	0.63636	0.1	-45.986
28859	16.141	0.54545	0.1	-43.553
28860	16.049	0.81818	0.1	-54.015
28861	16.141	0.72727	0.1	-52.988
28862	16.049	1.	0.1	-60.384
28863	16.141	0.90909	0.1	-60.65
28864	16.049	1.1818	0.1	-65.09
28865	16.141	1.0909	0.1	-66.492
28866	16.049	1.3636	0.1	-68.208
28867	16.141	1.2727	0.1	-70.553
28868	16.049	1.5455	0.1	-69.883
28869	16.141	1.4545	0.1	-72.949
28870	16.049	1.7273	0.1	-70.326
28871	16.141	1.6364	0.1	-73.871
28872	16.049	1.9091	0.1	-69.805
28873	16.141	1.8182	0.1	-73.584
28874	16.049	2.0909	0.1	-68.622
28875	16.141	2.	0.1	-72.407
28876	16.049	2.2727	0.1	-67.095
28877	16.141	2.1818	0.1	-70.692
28878	16.049	2.4545	0.1	-65.532
28879	16.141	2.3636	0.1	-68.794
28880	16.049	2.6364	0.1	-64.202
28881	16.141	2.5455	0.1	-67.042
28882	16.049	2.8182	0.1	-63.314
28883	16.141	2.7273	0.1	-65.71
28884	16.049	3.	0.1	-63.003
28885	16.141	2.9091	0.1	-64.993
28886	16.049	3.1818	0.1	-63.314
28887	16.141	3.0909	0.1	-64.993
28888	16.049	3.3636	0.1	-64.202
28889	16.141	3.2727	0.1	-65.71
28890	16.049	3.5455	0.1	-65.532
28891	16.141	3.4545	0.1	-67.042
28892	16.049	3.7273	0.1	-67.095
28893	16.141	3.6364	0.1	-68.794
28894	16.049	3.9091	0.1	-68.622
28895	16.141	3.8182	0.1	-70.692
28896	16.049	4.0909	0.1	-69.805
28897	16.141	4.	0.1	-72.407
28898	16.049	4.2727	0.1	-70.326
28899	16.141	4.1818	0.1	-73.584
28900	16.049	4.4545	0.1	-69.883
28901	16.141	4.3636	0.1	-73.871
28902	16.049	4.6364	0.1	-68.208
28903	16.141	4.5455	0.1	-72.949
28904	16.049	4.8182	0.1	-65.09
28905	16.141	4.7273	0.1	-70.553
28906	16.049	5.	0.1	-60.384
28907	16.141	4.9091	0.1	-66.492
28908	16.049	5.1818	0.1	-54.015
28909	16.141	5.0909	0.1	-60.65
28910	16.049	5.3636	0.1	-45.986
28911	16.141	5.2727	0.1	-52.988
28912	16.049	5.5455	0.1	-36.373
28913	16.141	5.4545	0.1	-43.553
28914	16.049	5.7273	0.1	-25.696
28915	16.141	5.6364	0.1	-32.458
28916	16.141	5.8182	0.1	-20.644
28917	16.049	5.9091	0.1	-12.223
28918	16.233	0.27273	0.1	-27.289
28919	16.325	0.18182	0.1	-21.373
28920	16.233	9.0909e-002	0.1	-12.488
28921	16.233	0.45455	0.1	-39.606
28922	16.325	0.36364	0.1	-35.117
28923	16.233	0.63636	0.1	-50.539
28924	16.325	0.54545	0.1	-47.76
28925	16.233	0.81818	0.1	-59.616
28926	16.325	0.72727	0.1	-58.459
28927	16.233	1.	0.1	-66.756
28928	16.325	0.90909	0.1	-67.102
28929	16.233	1.1818	0.1	-71.957
28930	16.325	1.0909	0.1	-73.634
28931	16.233	1.3636	0.1	-75.297
28932	16.325	1.2727	0.1	-78.089
28933	16.233	1.5455	0.1	-76.939
28934	16.325	1.4545	0.1	-80.586
28935	16.233	1.7273	0.1	-77.129
28936	16.325	1.6364	0.1	-81.344
28937	16.233	1.9091	0.1	-76.185
28938	16.325	1.8182	0.1	-80.668
28939	16.233	2.0909	0.1	-74.474
28940	16.325	2.	0.1	-78.944
28941	16.233	2.2727	0.1	-72.386
28942	16.325	2.1818	0.1	-76.602
28943	16.233	2.4545	0.1	-70.298
28944	16.325	2.3636	0.1	-74.079
28945	16.233	2.6364	0.1	-68.543
28946	16.325	2.5455	0.1	-71.783
28947	16.233	2.8182	0.1	-67.381
28948	16.325	2.7273	0.1	-70.051
28949	16.233	3.	0.1	-66.975
28950	16.325	2.9091	0.1	-69.122
28951	16.233	3.1818	0.1	-67.381
28952	16.325	3.0909	0.1	-69.122
28953	16.233	3.3636	0.1	-68.543
28954	16.325	3.2727	0.1	-70.051
28955	16.233	3.5455	0.1	-70.298
28956	16.325	3.4545	0.1	-71.783
28957	16.233	3.7273	0.1	-72.386
28958	16.325	3.6364	0.1	-74.079
28959	16.233	3.9091	0.1	-74.474
28960	16.325	3.8182	0.1	-76.602
28961	16.233	4.0909	0.1	-76.185
28962	16.325	4.	0.1	-78.944
28963	16.233	4.2727	0.1	-77.129
28964	16.325	4.1818	0.1	-80.668
28965	16.233	4.4545	0.1	-76.939
28966	16.325	4.3636	0.1	-81.344
28967	16.233	4.6364	0.1	-75.297
28968	16.325	4.5455	0.1	-80.586
28969	16.233	4.8182	0.1	-71.957
28970	16.325	4.7273	0.1	-78.089
28971	16.233	5.	0.1	-66.757
28972	16.325	4.9091	0.1	-73.634
28973	16.233	5.1818	0.1	-59.616
28974	16.325	5.0909	0.1	-67.102
28975	16.233	5.3636	0.1	-50.539
28976	16.325	5.2727	0.1	-58.459
28977	16.233	5.5455	0.1	-39.606
28978	16.325	5.4545	0.1	-47.76
28979	16.233	5.7273	0.1	-27.289
28980	16.325	5.6364	0.1	-35.117
28981	16.325	5.8182	0.1	-21.373
28982	16.233	5.9091	0.1	-12.488
28983	16.417	0.27273	0.1	-29.082
28984	16.51	0.18182	0.1	-22.196
28985	16.417	9.0909e-002	0.1	-12.785
28986	16.417	0.45455	0.1	-43.243
28987	16.51	0.36364	0.1	-38.092
28988	16.417	0.63636	0.1	-55.671
28989	16.51	0.54545	0.1	-52.475
28990	16.417	0.81818	0.1	-65.947
28991	16.51	0.72727	0.1	-64.614
28992	16.417	1.	0.1	-73.988
28993	16.51	0.90909	0.1	-74.401
28994	16.417	1.1818	0.1	-79.778
28995	16.51	1.0909	0.1	-81.76
28996	16.417	1.3636	0.1	-83.391
28997	16.51	1.2727	0.1	-86.704
28998	16.417	1.5455	0.1	-85.002
28999	16.51	1.4545	0.1	-89.347
29000	16.417	1.7273	0.1	-84.891
29001	16.51	1.6364	0.1	-89.922
29002	16.417	1.9091	0.1	-83.433
29003	16.51	1.8182	0.1	-88.783
29004	16.417	2.0909	0.1	-81.075
29005	16.51	2.	0.1	-86.393
29006	16.417	2.2727	0.1	-78.295
29007	16.51	2.1818	0.1	-83.28
29008	16.417	2.4545	0.1	-75.562
29009	16.51	2.3636	0.1	-79.99
29010	16.417	2.6364	0.1	-73.286
29011	16.51	2.5455	0.1	-77.025
29012	16.417	2.8182	0.1	-71.786
29013	16.51	2.7273	0.1	-74.803
29014	16.417	3.	0.1	-71.264
29015	16.51	2.9091	0.1	-73.616
29016	16.417	3.1818	0.1	-71.786
29017	16.51	3.0909	0.1	-73.616
29018	16.417	3.3636	0.1	-73.286
29019	16.51	3.2727	0.1	-74.803
29020	16.417	3.5455	0.1	-75.562
29021	16.51	3.4545	0.1	-77.025
29022	16.417	3.7273	0.1	-78.295
29023	16.51	3.6364	0.1	-79.99
29024	16.417	3.9091	0.1	-81.075
29025	16.51	3.8182	0.1	-83.28
29026	16.417	4.0909	0.1	-83.433
29027	16.51	4.	0.1	-86.393
29028	16.417	4.2727	0.1	-84.891
29029	16.51	4.1818	0.1	-88.783
29030	16.417	4.4545	0.1	-85.002
29031	16.51	4.3636	0.1	-89.922
29032	16.417	4.6364	0.1	-83.391
29033	16.51	4.5455	0.1	-89.347
29034	16.417	4.8182	0.1	-79.778
29035	16.51	4.7273	0.1	-86.704
29036	16.417	5.	0.1	-73.989
29037	16.51	4.9091	0.1	-81.76
29038	16.417	5.1818	0.1	-65.947
29039	16.51	5.0909	0.1	-74.401
29040	16.417	5.3636	0.1	-55.671
29041	16.51	5.2727	0.1	-64.614
29042	16.417	5.5455	0.1	-43.243
29043	16.51	5.4545	0.1	-52.476
29044	16.417	5.7273	0.1	-29.082
29045	16.51	5.6364	0.1	-38.092
29046	16.51	5.8182	0.1	-22.196
29047	16.417	5.9091	0.1	-12.785
29048	16.602	0.27273	0.1	-31.086
29049	16.694	0.18182	0.1	-23.123
29050	16.602	9.0909e-002	0.1	-13.12
29051	16.602	0.45455	0.1	-47.303
29052	16.694	0.36364	0.1	-41.388
29053	16.602	0.63636	0.1	-61.421
29054	16.694	0.54545	0.1	-57.714
29055	16.602	0.81818	0.1	-73.085
29056	16.694	0.72727	0.1	-71.501
29057	16.602	1.	0.1	-82.198
29058	16.694	0.90909	0.1	-82.642
29059	16.602	1.1818	0.1	-88.715
29060	16.694	1.0909	0.1	-91.022
29061	16.602	1.3636	0.1	-92.689
29062	16.694	1.2727	0.1	-96.607
29063	16.602	1.5455	0.1	-94.292
29064	16.694	1.4545	0.1	-99.478
29065	16.602	1.7273	0.1	-93.834
29066	16.694	1.6364	0.1	-99.87
29067	16.602	1.9091	0.1	-91.758
29068	16.694	1.8182	0.1	-98.187
29069	16.602	2.0909	0.1	-88.609
29070	16.694	2.	0.1	-94.987
29071	16.602	2.2727	0.1	-84.98
29072	16.694	2.1818	0.1	-90.928
29073	16.602	2.4545	0.1	-81.454
29074	16.694	2.3636	0.1	-86.692
29075	16.602	2.6364	0.1	-78.54
29076	16.694	2.5455	0.1	-82.908
29077	16.602	2.8182	0.1	-76.629
29078	16.694	2.7273	0.1	-80.089
29079	16.602	3.	0.1	-75.964
29080	16.694	2.9091	0.1	-78.59
29081	16.602	3.1818	0.1	-76.629
29082	16.694	3.0909	0.1	-78.59
29083	16.602	3.3636	0.1	-78.54
29084	16.694	3.2727	0.1	-80.089
29085	16.602	3.5455	0.1	-81.454
29086	16.694	3.4545	0.1	-82.908
29087	16.602	3.7273	0.1	-84.98
29088	16.694	3.6364	0.1	-86.692
29089	16.602	3.9091	0.1	-88.609
29090	16.694	3.8182	0.1	-90.928
29091	16.602	4.0909	0.1	-91.758
29092	16.694	4.	0.1	-94.987
29093	16.602	4.2727	0.1	-93.834
29094	16.694	4.1818	0.1	-98.187
29095	16.602	4.4545	0.1	-94.292
29096	16.694	4.3636	0.1	-99.87
29097	16.602	4.6364	0.1	-92.689
29098	16.694	4.5455	0.1	-99.478
29099	16.602	4.8182	0.1	-88.715
29100	16.694	4.7273	0.1	-96.607
29101	16.602	5.	0.1	-82.198
29102	16.694	4.9091	0.1	-91.022
29103	16.602	5.1818	0.1	-73.085
29104	16.694	5.0909	0.1	-82.642
29105	16.602	5.3636	0.1	-61.421
29106	16.694	5.2727	0.1	-71.501
29107	16.602	5.5455	0.1	-47.303
29108	16.694	5.4545	0.1	-57.714
29109	16.602	5.7273	0.1	-31.086
29110	16.694	5.6364	0.1	-41.388
29111	16.694	5.8182	0.1	-23.123
29112	16.602	5.9091	0.1	-13.12
29113	16.786	0.27273	0.1	-33.303
29114	16.879	0.18182	0.1	-24.159
29115	16.786	9.0909e-002	0.1	-13.498
29116	16.786	0.45455	0.1	-51.787
29117	16.879	0.36364	0.1	-44.982
29118	16.786	0.63636	0.1	-67.814
29119	16.879	0.54545	0.1	-63.461
29120	16.786	0.81818	0.1	-81.099
29121	16.879	0.72727	0.1	-79.15
29122	16.786	1.	0.1	-91.519
29123	16.879	0.90909	0.1	-91.927
29124	16.786	1.1818	0.1	-98.971
29125	16.879	1.0909	0.1	-101.61
29126	16.786	1.3636	0.1	-103.45
29127	16.879	1.2727	0.1	-108.07
29128	16.786	1.5455	0.1	-105.1
29129	16.879	1.4545	0.1	-111.32
29130	16.786	1.7273	0.1	-104.26
29131	16.879	1.6364	0.1	-111.56
29132	16.786	1.9091	0.1	-101.45
29133	16.879	1.8182	0.1	-109.24
29134	16.786	2.0909	0.1	-97.327
29135	16.879	2.	0.1	-105.05
29136	16.786	2.2727	0.1	-92.652
29137	16.879	2.1818	0.1	-99.816
29138	16.786	2.4545	0.1	-88.152
29139	16.879	2.3636	0.1	-94.411
29140	16.786	2.6364	0.1	-84.46
29141	16.879	2.5455	0.1	-89.626
29142	16.786	2.8182	0.1	-82.05
29143	16.879	2.7273	0.1	-86.086
29144	16.786	3.	0.1	-81.214
29145	16.879	2.9091	0.1	-84.212
29146	16.786	3.1818	0.1	-82.05
29147	16.879	3.0909	0.1	-84.212
29148	16.786	3.3636	0.1	-84.46
29149	16.879	3.2727	0.1	-86.086
29150	16.786	3.5455	0.1	-88.152
29151	16.879	3.4545	0.1	-89.626
29152	16.786	3.7273	0.1	-92.652
29153	16.879	3.6364	0.1	-94.411
29154	16.786	3.9091	0.1	-97.327
29155	16.879	3.8182	0.1	-99.816
29156	16.786	4.0909	0.1	-101.45
29157	16.879	4.	0.1	-105.05
29158	16.786	4.2727	0.1	-104.26
29159	16.879	4.1818	0.1	-109.24
29160	16.786	4.4545	0.1	-105.1
29161	16.879	4.3636	0.1	-111.56
29162	16.786	4.6364	0.1	-103.45
29163	16.879	4.5455	0.1	-111.32
29164	16.786	4.8182	0.1	-98.971
29165	16.879	4.7273	0.1	-108.07
29166	16.786	5.	0.1	-91.519
29167	16.879	4.9091	0.1	-101.61
29168	16.786	5.1818	0.1	-81.1
29169	16.879	5.0909	0.1	-91.928
29170	16.786	5.3636	0.1	-67.814
29171	16.879	5.2727	0.1	-79.15
29172	16.786	5.5455	0.1	-51.787
29173	16.879	5.4545	0.1	-63.461
29174	16.786	5.7273	0.1	-33.303
29175	16.879	5.6364	0.1	-44.982
29176	16.879	5.8182	0.1	-24.159
29177	16.786	5.9091	0.1	-13.498
29178	16.971	0.27273	0.1	-35.718
29179	17.063	0.18182	0.1	-25.3
29180	16.971	9.0909e-002	0.1	-13.921
29181	16.971	0.45455	0.1	-56.662
29182	17.063	0.36364	0.1	-48.817
29183	16.971	0.63636	0.1	-74.846
29184	17.063	0.54545	0.1	-69.663
29185	16.971	0.81818	0.1	-90.056
29186	17.063	0.72727	0.1	-87.562
29187	16.971	1.	0.1	-102.11
29188	17.063	0.90909	0.1	-102.37
29189	16.971	1.1818	0.1	-110.81
29190	17.063	1.0909	0.1	-113.77
29191	16.971	1.3636	0.1	-116.03
29192	17.063	1.2727	0.1	-121.47
29193	16.971	1.5455	0.1	-117.85
29194	17.063	1.4545	0.1	-125.34
29195	16.971	1.7273	0.1	-116.6
29196	17.063	1.6364	0.1	-125.5
29197	16.971	1.9091	0.1	-112.89
29198	17.063	1.8182	0.1	-122.45
29199	16.971	2.0909	0.1	-107.57
29200	17.063	2.	0.1	-117.03
29201	16.971	2.2727	0.1	-101.6
29202	17.063	2.1818	0.1	-110.32
29203	16.971	2.4545	0.1	-95.898
29204	17.063	2.3636	0.1	-103.46
29205	16.971	2.6364	0.1	-91.258
29206	17.063	2.5455	0.1	-97.444
29207	16.971	2.8182	0.1	-88.25
29208	17.063	2.7273	0.1	-93.042
29209	16.971	3.	0.1	-87.21
29210	17.063	2.9091	0.1	-90.729
29211	16.971	3.1818	0.1	-88.25
29212	17.063	3.0909	0.1	-90.729
29213	16.971	3.3636	0.1	-91.258
29214	17.063	3.2727	0.1	-93.042
29215	16.971	3.5455	0.1	-95.898
29216	17.063	3.4545	0.1	-97.444
29217	16.971	3.7273	0.1	-101.6
29218	17.063	3.6364	0.1	-103.46
29219	16.971	3.9091	0.1	-107.57
29220	17.063	3.8182	0.1	-110.32
29221	16.971	4.0909	0.1	-112.89
29222	17.063	4.	0.1	-117.03
29223	16.971	4.2727	0.1	-116.6
29224	17.063	4.1818	0.1	-122.45
29225	16.971	4.4545	0.1	-117.85
29226	17.063	4.3636	0.1	-125.5
29227	16.971	4.6364	0.1	-116.03
29228	17.063	4.5455	0.1	-125.34
29229	16.971	4.8182	0.1	-110.81
29230	17.063	4.7273	0.1	-121.47
29231	16.971	5.	0.1	-102.11
29232	17.063	4.9091	0.1	-113.77
29233	16.971	5.1818	0.1	-90.056
29234	17.063	5.0909	0.1	-102.37
29235	16.971	5.3636	0.1	-74.846
29236	17.063	5.2727	0.1	-87.562
29237	16.971	5.5455	0.1	-56.662
29238	17.063	5.4545	0.1	-69.663
29239	16.971	5.7273	0.1	-35.718
29240	17.063	5.6364	0.1	-48.817
29241	17.063	5.8182	0.1	-25.3
29242	16.971	5.9091	0.1	-13.921
29243	17.155	0.27273	0.1	-38.286
29244	17.248	0.18182	0.1	-26.527
29245	17.155	9.0909e-002	0.1	-14.386
29246	17.155	0.45455	0.1	-61.85
29247	17.248	0.36364	0.1	-52.779
29248	17.155	0.63636	0.1	-82.473
29249	17.248	0.54545	0.1	-76.201
29250	17.155	0.81818	0.1	-100.01
29251	17.248	0.72727	0.1	-96.704
29252	17.155	1.	0.1	-114.18
29253	17.248	0.90909	0.1	-114.08
29254	17.155	1.1818	0.1	-124.6
29255	17.248	1.0909	0.1	-127.82
29256	17.155	1.3636	0.1	-130.94
29257	17.248	1.2727	0.1	-137.35
29258	17.155	1.5455	0.1	-133.13
29259	17.248	1.4545	0.1	-142.26
29260	17.155	1.7273	0.1	-131.47
29261	17.248	1.6364	0.1	-142.49
29262	17.155	1.9091	0.1	-126.67
29263	17.248	1.8182	0.1	-138.57
29264	17.155	2.0909	0.1	-119.83
29265	17.248	2.	0.1	-131.57
29266	17.155	2.2727	0.1	-112.21
29267	17.248	2.1818	0.1	-122.95
29268	17.155	2.4545	0.1	-105.02
29269	17.248	2.3636	0.1	-114.24
29270	17.155	2.6364	0.1	-99.235
29271	17.248	2.5455	0.1	-106.73
29272	17.155	2.8182	0.1	-95.52
29273	17.248	2.7273	0.1	-101.31
29274	17.155	3.	0.1	-94.243
29275	17.248	2.9091	0.1	-98.498
29276	17.155	3.1818	0.1	-95.52
29277	17.248	3.0909	0.1	-98.498
29278	17.155	3.3636	0.1	-99.235
29279	17.248	3.2727	0.1	-101.31
29280	17.155	3.5455	0.1	-105.02
29281	17.248	3.4545	0.1	-106.73
29282	17.155	3.7273	0.1	-112.21
29283	17.248	3.6364	0.1	-114.24
29284	17.155	3.9091	0.1	-119.83
29285	17.248	3.8182	0.1	-122.95
29286	17.155	4.0909	0.1	-126.67
29287	17.248	4.	0.1	-131.57
29288	17.155	4.2727	0.1	-131.47
29289	17.248	4.1818	0.1	-138.57
29290	17.155	4.4545	0.1	-133.13
29291	17.248	4.3636	0.1	-142.49
29292	17.155	4.6364	0.1	-130.94
29293	17.248	4.5455	0.1	-142.26
29294	17.155	4.8182	0.1	-124.6
29295	17.248	4.7273	0.1	-137.35
29296	17.155	5.	0.1	-114.18
29297	17.248	4.9091	0.1	-127.82
29298	17.155	5.1818	0.1	-100.01
29299	17.248	5.0909	0.1	-114.08
29300	17.155	5.3636	0.1	-82.473
29301	17.248	5.2727	0.1	-96.704
29302	17.155	5.5455	0.1	-61.85
29303	17.248	5.4545	0.1	-76.201
29304	17.155	5.7273	0.1	-38.286
29305	17.248	5.6364	0.1	-52.779
29306	17.248	5.8182	0.1	-26.527
29307	17.155	5.9091	0.1	-14.386
29308	17.34	0.27273	0.1	-40.924
29309	17.432	0.18182	0.1	-27.796
29310	17.34	9.0909e-002	0.1	-14.881
29311	17.34	0.45455	0.1	-67.206
29312	17.432	0.36364	0.1	-56.683
29313	17.34	0.63636	0.1	-90.598
29314	17.432	0.54545	0.1	-82.882
29315	17.34	0.81818	0.1	-111.01
29316	17.432	0.72727	0.1	-106.5
29317	17.34	1.	0.1	-128.
29318	17.432	0.90909	0.1	-127.23
29319	17.34	1.1818	0.1	-140.86
29320	17.432	1.0909	0.1	-144.25
29321	17.34	1.3636	0.1	-148.94
29322	17.432	1.2727	0.1	-156.51
29323	17.34	1.5455	0.1	-151.85
29324	17.432	1.4545	0.1	-163.13
29325	17.34	1.7273	0.1	-149.78
29326	17.432	1.6364	0.1	-163.71
29327	17.34	1.9091	0.1	-143.61
29328	17.432	1.8182	0.1	-158.73
29329	17.34	2.0909	0.1	-134.78
29330	17.432	2.	0.1	-149.63
29331	17.34	2.2727	0.1	-125.04
29332	17.432	2.1818	0.1	-138.44
29333	17.34	2.4545	0.1	-115.97
29334	17.432	2.3636	0.1	-127.33
29335	17.34	2.6364	0.1	-108.81
29336	17.432	2.5455	0.1	-117.97
29337	17.34	2.8182	0.1	-104.28
29338	17.432	2.7273	0.1	-111.4
29339	17.34	3.	0.1	-102.74
29340	17.432	2.9091	0.1	-108.05
29341	17.34	3.1818	0.1	-104.28
29342	17.432	3.0909	0.1	-108.05
29343	17.34	3.3636	0.1	-108.81
29344	17.432	3.2727	0.1	-111.4
29345	17.34	3.5455	0.1	-115.97
29346	17.432	3.4545	0.1	-117.97
29347	17.34	3.7273	0.1	-125.04
29348	17.432	3.6364	0.1	-127.33
29349	17.34	3.9091	0.1	-134.78
29350	17.432	3.8182	0.1	-138.44
29351	17.34	4.0909	0.1	-143.61
29352	17.432	4.	0.1	-149.63
29353	17.34	4.2727	0.1	-149.78
29354	17.432	4.1818	0.1	-158.73
29355	17.34	4.4545	0.1	-151.85
29356	17.432	4.3636	0.1	-163.71
29357	17.34	4.6364	0.1	-148.94
29358	17.432	4.5455	0.1	-163.13
29359	17.34	4.8182	0.1	-140.86
29360	17.432	4.7273	0.1	-156.51
29361	17.34	5.	0.1	-128.
29362	17.432	4.9091	0.1	-144.25
29363	17.34	5.1818	0.1	-111.01
29364	17.432	5.0909	0.1	-127.23
29365	17.34	5.3636	0.1	-90.598
29366	17.432	5.2727	0.1	-106.5
29367	17.34	5.5455	0.1	-67.206
29368	17.432	5.4545	0.1	-82.882
29369	17.34	5.7273	0.1	-40.924
29370	17.432	5.6364	0.1	-56.683
29371	17.432	5.8182	0.1	-27.796
29372	17.34	5.9091	0.1	-14.881
29373	17.524	0.27273	0.1	-43.492
29374	17.617	0.18182	0.1	-29.03
29375	17.524	9.0909e-002	0.1	-15.378
29376	17.524	0.45455	0.1	-72.5
29377	17.617	0.36364	0.1	-60.25
29378	17.524	0.63636	0.1	-99.064
29379	17.617	0.54545	0.1	-89.421
29380	17.524	0.81818	0.1	-123.12
29381	17.617	0.72727	0.1	-116.85
29382	17.524	1.	0.1	-143.95
29383	17.617	0.90909	0.1	-142.06
29384	17.524	1.1818	0.1	-160.39
29385	17.617	1.0909	0.1	-163.75
29386	17.524	1.3636	0.1	-171.16
29387	17.617	1.2727	0.1	-180.18
29388	17.524	1.5455	0.1	-175.37
29389	17.617	1.4545	0.1	-189.62
29390	17.524	1.7273	0.1	-172.96
29391	17.617	1.6364	0.1	-191.03
29392	17.524	1.9091	0.1	-164.96
29393	17.617	1.8182	0.1	-184.71
29394	17.524	2.0909	0.1	-153.42
29395	17.617	2.	0.1	-172.61
29396	17.524	2.2727	0.1	-140.81
29397	17.617	2.1818	0.1	-157.81
29398	17.524	2.4545	0.1	-129.36
29399	17.617	2.3636	0.1	-143.47
29400	17.524	2.6364	0.1	-120.56
29401	17.617	2.5455	0.1	-131.86
29402	17.524	2.8182	0.1	-115.14
29403	17.617	2.7273	0.1	-124.03
29404	17.524	3.	0.1	-113.32
29405	17.617	2.9091	0.1	-120.16
29406	17.524	3.1818	0.1	-115.14
29407	17.617	3.0909	0.1	-120.16
29408	17.524	3.3636	0.1	-120.56
29409	17.617	3.2727	0.1	-124.03
29410	17.524	3.5455	0.1	-129.36
29411	17.617	3.4545	0.1	-131.86
29412	17.524	3.7273	0.1	-140.81
29413	17.617	3.6364	0.1	-143.47
29414	17.524	3.9091	0.1	-153.42
29415	17.617	3.8182	0.1	-157.81
29416	17.524	4.0909	0.1	-164.96
29417	17.617	4.	0.1	-172.61
29418	17.524	4.2727	0.1	-172.96
29419	17.617	4.1818	0.1	-184.71
29420	17.524	4.4545	0.1	-175.37
29421	17.617	4.3636	0.1	-191.03
29422	17.524	4.6364	0.1	-171.16
29423	17.617	4.5455	0.1	-189.62
29424	17.524	4.8182	0.1	-160.39
29425	17.617	4.7273	0.1	-180.18
29426	17.524	5.	0.1	-143.95
29427	17.617	4.9091	0.1	-163.75
29428	17.524	5.1818	0.1	-123.12
29429	17.617	5.0909	0.1	-142.06
29430	17.524	5.3636	0.1	-99.064
29431	17.617	5.2727	0.1	-116.85
29432	17.524	5.5455	0.1	-72.5
29433	17.617	5.4545	0.1	-89.421
29434	17.524	5.7273	0.1	-43.492
29435	17.617	5.6364	0.1	-60.25
29436	17.617	5.8182	0.1	-29.03
29437	17.524	5.9091	0.1	-15.378
29438	17.709	0.27273	0.1	-45.783
29439	17.801	0.18182	0.1	-30.107
29440	17.709	9.0909e-002	0.1	-15.825
29441	17.709	0.45455	0.1	-77.414
29442	17.801	0.36364	0.1	-63.109
29443	17.709	0.63636	0.1	-107.67
29444	17.801	0.54545	0.1	-95.47
29445	17.709	0.81818	0.1	-136.45
29446	17.801	0.72727	0.1	-127.66
29447	17.709	1.	0.1	-162.65
29448	17.801	0.90909	0.1	-158.95
29449	17.709	1.1818	0.1	-184.38
29450	17.801	1.0909	0.1	-187.4
29451	17.709	1.3636	0.1	-199.41
29452	17.801	1.2727	0.1	-210.24
29453	17.709	1.5455	0.1	-205.91
29454	17.801	1.4545	0.1	-224.39
29455	17.709	1.7273	0.1	-203.25
29456	17.801	1.6364	0.1	-227.5
29457	17.709	1.9091	0.1	-192.67
29458	17.801	1.8182	0.1	-219.38
29459	17.709	2.0909	0.1	-177.19
29460	17.801	2.	0.1	-202.74
29461	17.709	2.2727	0.1	-160.57
29462	17.801	2.1818	0.1	-182.52
29463	17.709	2.4545	0.1	-146.
29464	17.801	2.3636	0.1	-163.68
29465	17.709	2.6364	0.1	-135.3
29466	17.801	2.5455	0.1	-149.3
29467	17.709	2.8182	0.1	-128.97
29468	17.801	2.7273	0.1	-140.2
29469	17.709	3.	0.1	-126.91
29470	17.801	2.9091	0.1	-135.93
29471	17.709	3.1818	0.1	-128.97
29472	17.801	3.0909	0.1	-135.93
29473	17.709	3.3636	0.1	-135.3
29474	17.801	3.2727	0.1	-140.2
29475	17.709	3.5455	0.1	-146.
29476	17.801	3.4545	0.1	-149.3
29477	17.709	3.7273	0.1	-160.57
29478	17.801	3.6364	0.1	-163.68
29479	17.709	3.9091	0.1	-177.19
29480	17.801	3.8182	0.1	-182.52
29481	17.709	4.0909	0.1	-192.67
29482	17.801	4.	0.1	-202.74
29483	17.709	4.2727	0.1	-203.25
29484	17.801	4.1818	0.1	-219.38
29485	17.709	4.4545	0.1	-205.91
29486	17.801	4.3636	0.1	-227.5
29487	17.709	4.6364	0.1	-199.41
29488	17.801	4.5455	0.1	-224.39
29489	17.709	4.8182	0.1	-184.38
29490	17.801	4.7273	0.1	-210.24
29491	17.709	5.	0.1	-162.65
29492	17.801	4.9091	0.1	-187.4
29493	17.709	5.1818	0.1	-136.45
29494	17.801	5.0909	0.1	-158.95
29495	17.709	5.3636	0.1	-107.67
29496	17.801	5.2727	0.1	-127.66
29497	17.709	5.5455	0.1	-77.414
29498	17.801	5.4545	0.1	-95.47
29499	17.709	5.7273	0.1	-45.783
29500	17.801	5.6364	0.1	-63.109
29501	17.801	5.8182	0.1	-30.107
29502	17.709	5.9091	0.1	-15.825
29503	17.893	0.27273	0.1	-47.521
29504	17.985	0.18182	0.1	-30.85
29505	17.893	9.0909e-002	0.1	-16.137
29506	17.893	0.45455	0.1	-81.568
29507	17.985	0.36364	0.1	-64.829
29508	17.893	0.63636	0.1	-116.22
29509	17.985	0.54545	0.1	-100.71
29510	17.893	0.81818	0.1	-151.25
29511	17.985	0.72727	0.1	-138.99
29512	17.893	1.	0.1	-185.04
29513	17.985	0.90909	0.1	-178.6
29514	17.893	1.1818	0.1	-214.68
29515	17.985	1.0909	0.1	-216.81
29516	17.893	1.3636	0.1	-236.51
29517	17.985	1.2727	0.1	-249.53
29518	17.893	1.5455	0.1	-247.02
29519	17.985	1.4545	0.1	-271.62
29520	17.893	1.7273	0.1	-244.36
29521	17.985	1.6364	0.1	-278.21
29522	17.893	1.9091	0.1	-229.91
29523	17.985	1.8182	0.1	-267.61
29524	17.893	2.0909	0.1	-208.34
29525	17.985	2.	0.1	-243.59
29526	17.893	2.2727	0.1	-185.75
29527	17.985	2.1818	0.1	-214.67
29528	17.893	2.4545	0.1	-166.98
29529	17.985	2.3636	0.1	-189.27
29530	17.893	2.6364	0.1	-154.12
29531	17.985	2.5455	0.1	-171.51
29532	17.893	2.8182	0.1	-147.
29533	17.985	2.7273	0.1	-161.29
29534	17.893	3.	0.1	-144.77
29535	17.985	2.9091	0.1	-156.83
29536	17.893	3.1818	0.1	-147.
29537	17.985	3.0909	0.1	-156.83
29538	17.893	3.3636	0.1	-154.12
29539	17.985	3.2727	0.1	-161.29
29540	17.893	3.5455	0.1	-166.98
29541	17.985	3.4545	0.1	-171.51
29542	17.893	3.7273	0.1	-185.75
29543	17.985	3.6364	0.1	-189.27
29544	17.893	3.9091	0.1	-208.34
29545	17.985	3.8182	0.1	-214.67
29546	17.893	4.0909	0.1	-229.91
29547	17.985	4.	0.1	-243.59
29548	17.893	4.2727	0.1	-244.36
29549	17.985	4.1818	0.1	-267.61
29550	17.893	4.4545	0.1	-247.02
29551	17.985	4.3636	0.1	-278.21
29552	17.893	4.6364	0.1	-236.51
29553	17.985	4.5455	0.1	-271.62
29554	17.893	4.8182	0.1	-214.68
29555	17.985	4.7273	0.1	-249.53
29556	17.893	5.	0.1	-185.04
29557	17.985	4.9091	0.1	-216.81
29558	17.893	5.1818	0.1	-151.25
29559	17.985	5.0909	0.1	-178.6
29560	17.893	5.3636	0.1	-116.22
29561	17.985	5.2727	0.1	-138.99
29562	17.893	5.5455	0.1	-81.568
29563	17.985	5.4545	0.1	-100.71
29564	17.893	5.7273	0.1	-47.521
29565	17.985	5.6364	0.1	-64.829
29566	17.985	5.8182	0.1	-30.85
29567	17.893	5.9091	0.1	-16.137
29568	18.078	0.27273	0.1	-48.389
29569	18.17	0.18182	0.1	-31.044
29570	18.078	9.0909e-002	0.1	-16.181
29571	18.078	0.45455	0.1	-84.637
29572	18.17	0.36364	0.1	-65.057
29573	18.078	0.63636	0.1	-124.74
29574	18.17	0.54545	0.1	-105.14
29575	18.078	0.81818	0.1	-168.17
29576	18.17	0.72727	0.1	-151.45
29577	18.078	1.	0.1	-212.63
29578	18.17	0.90909	0.1	-202.34
29579	18.078	1.1818	0.1	-254.06
29580	18.17	1.0909	0.1	-254.36
29581	18.078	1.3636	0.1	-286.84
29582	18.17	1.2727	0.1	-302.13
29583	18.078	1.5455	0.1	-304.53
29584	18.17	1.4545	0.1	-337.92
29585	18.078	1.7273	0.1	-302.58
29586	18.17	1.6364	0.1	-352.2
29587	18.078	1.9091	0.1	-281.93
29588	18.17	1.8182	0.1	-338.32
29589	18.078	2.0909	0.1	-250.23
29590	18.17	2.	0.1	-301.51
29591	18.078	2.2727	0.1	-218.27
29592	18.17	2.1818	0.1	-257.58
29593	18.078	2.4545	0.1	-193.71
29594	18.17	2.3636	0.1	-221.93
29595	18.078	2.6364	0.1	-178.47
29596	18.17	2.5455	0.1	-200.05
29597	18.078	2.8182	0.1	-170.81
29598	18.17	2.7273	0.1	-188.95
29599	18.078	3.	0.1	-168.55
29600	18.17	2.9091	0.1	-184.49
29601	18.078	3.1818	0.1	-170.81
29602	18.17	3.0909	0.1	-184.49
29603	18.078	3.3636	0.1	-178.47
29604	18.17	3.2727	0.1	-188.95
29605	18.078	3.5455	0.1	-193.71
29606	18.17	3.4545	0.1	-200.05
29607	18.078	3.7273	0.1	-218.27
29608	18.17	3.6364	0.1	-221.93
29609	18.078	3.9091	0.1	-250.23
29610	18.17	3.8182	0.1	-257.58
29611	18.078	4.0909	0.1	-281.93
29612	18.17	4.	0.1	-301.51
29613	18.078	4.2727	0.1	-302.58
29614	18.17	4.1818	0.1	-338.32
29615	18.078	4.4545	0.1	-304.53
29616	18.17	4.3636	0.1	-352.2
29617	18.078	4.6364	0.1	-286.84
29618	18.17	4.5455	0.1	-337.92
29619	18.078	4.8182	0.1	-254.06
29620	18.17	4.7273	0.1	-302.13
29621	18.078	5.	0.1	-212.63
29622	18.17	4.9091	0.1	-254.36
29623	18.078	5.1818	0.1	-168.17
29624	18.17	5.0909	0.1	-202.34
29625	18.078	5.3636	0.1	-124.74
29626	18.17	5.2727	0.1	-151.45
29627	18.078	5.5455	0.1	-84.637
29628	18.17	5.4545	0.1	-105.14
29629	18.078	5.7273	0.1	-48.389
29630	18.17	5.6364	0.1	-65.057
29631	18.17	5.8182	0.1	-31.044
29632	18.078	5.9091	0.1	-16.181
29633	18.262	0.27273	0.1	-48.171
29634	18.354	0.18182	0.1	-30.425
29635	18.262	9.0909e-002	0.1	-15.785
29636	18.262	0.45455	0.1	-86.719
29637	18.354	0.36364	0.1	-63.887
29638	18.262	0.63636	0.1	-134.01
29639	18.354	0.54545	0.1	-109.82
29640	18.262	0.81818	0.1	-188.72
29641	18.354	0.72727	0.1	-166.93
29642	18.262	1.	0.1	-247.84
29643	18.354	0.90909	0.1	-232.63
29644	18.262	1.1818	0.1	-306.47
29645	18.354	1.0909	0.1	-303.29
29646	18.262	1.3636	0.1	-356.95
29647	18.354	1.2727	0.1	-373.17
29648	18.262	1.5455	0.1	-388.46
29649	18.354	1.4545	0.1	-432.86
29650	18.262	1.7273	0.1	-389.62
29651	18.354	1.6364	0.1	-464.57
29652	18.262	1.9091	0.1	-358.63
29653	18.354	1.8182	0.1	-448.85
29654	18.262	2.0909	0.1	-309.07
29655	18.354	2.	0.1	-388.33
29656	18.262	2.2727	0.1	-261.16
29657	18.354	2.1818	0.1	-315.37
29658	18.262	2.4545	0.1	-227.97
29659	18.354	2.3636	0.1	-263.79
29660	18.262	2.6364	0.1	-210.08
29661	18.354	2.5455	0.1	-236.97
29662	18.262	2.8182	0.1	-202.09
29663	18.354	2.7273	0.1	-224.55
29664	18.262	3.	0.1	-199.86
29665	18.354	2.9091	0.1	-219.78
29666	18.262	3.1818	0.1	-202.09
29667	18.354	3.0909	0.1	-219.78
29668	18.262	3.3636	0.1	-210.08
29669	18.354	3.2727	0.1	-224.55
29670	18.262	3.5455	0.1	-227.97
29671	18.354	3.4545	0.1	-236.97
29672	18.262	3.7273	0.1	-261.16
29673	18.354	3.6364	0.1	-263.79
29674	18.262	3.9091	0.1	-309.07
29675	18.354	3.8182	0.1	-315.37
29676	18.262	4.0909	0.1	-358.63
29677	18.354	4.	0.1	-388.33
29678	18.262	4.2727	0.1	-389.62
29679	18.354	4.1818	0.1	-448.85
29680	18.262	4.4545	0.1	-388.46
29681	18.354	4.3636	0.1	-464.57
29682	18.262	4.6364	0.1	-356.95
29683	18.354	4.5455	0.1	-432.86
29684	18.262	4.8182	0.1	-306.47
29685	18.354	4.7273	0.1	-373.17
29686	18.262	5.	0.1	-247.84
29687	18.354	4.9091	0.1	-303.29
29688	18.262	5.1818	0.1	-188.72
29689	18.354	5.0909	0.1	-232.63
29690	18.262	5.3636	0.1	-134.01
29691	18.354	5.2727	0.1	-166.93
29692	18.262	5.5455	0.1	-86.719
29693	18.354	5.4545	0.1	-109.82
29694	18.262	5.7273	0.1	-48.171
29695	18.354	5.6364	0.1	-63.887
29696	18.354	5.8182	0.1	-30.425
29697	18.262	5.9091	0.1	-15.785
29698	18.447	0.27273	0.1	-47.049
29699	18.539	0.18182	0.1	-29.245
29700	18.447	9.0909e-002	0.1	-14.663
29701	18.447	0.45455	0.1	-89.209
29702	18.539	0.36364	0.1	-63.516
29703	18.447	0.63636	0.1	-146.6
29704	18.539	0.54545	0.1	-119.18
29705	18.447	0.81818	0.1	-216.04
29706	18.539	0.72727	0.1	-190.75
29707	18.447	1.	0.1	-294.22
29708	18.539	0.90909	0.1	-274.63
29709	18.447	1.1818	0.1	-376.63
29710	18.539	1.0909	0.1	-368.35
29711	18.447	1.3636	0.1	-455.49
29712	18.539	1.2727	0.1	-469.
29713	18.447	1.5455	0.1	-513.99
29714	18.539	1.4545	0.1	-567.57
29715	18.447	1.7273	0.1	-526.26
29716	18.539	1.6364	0.1	-645.52
29717	18.447	1.9091	0.1	-479.08
29718	18.539	1.8182	0.1	-649.71
29719	18.447	2.0909	0.1	-394.31
29720	18.539	2.	0.1	-533.97
29721	18.447	2.2727	0.1	-317.36
29722	18.539	2.1818	0.1	-397.91
29723	18.447	2.4545	0.1	-271.95
29724	18.539	2.3636	0.1	-317.94
29725	18.447	2.6364	0.1	-250.56
29726	18.539	2.5455	0.1	-283.42
29727	18.447	2.8182	0.1	-241.41
29728	18.539	2.7273	0.1	-267.01
29729	18.447	3.	0.1	-238.89
29730	18.539	2.9091	0.1	-260.52
29731	18.447	3.1818	0.1	-241.41
29732	18.539	3.0909	0.1	-260.52
29733	18.447	3.3636	0.1	-250.56
29734	18.539	3.2727	0.1	-267.01
29735	18.447	3.5455	0.1	-271.95
29736	18.539	3.4545	0.1	-283.42
29737	18.447	3.7273	0.1	-317.36
29738	18.539	3.6364	0.1	-317.94
29739	18.447	3.9091	0.1	-394.31
29740	18.539	3.8182	0.1	-397.91
29741	18.447	4.0909	0.1	-479.08
29742	18.539	4.	0.1	-533.97
29743	18.447	4.2727	0.1	-526.26
29744	18.539	4.1818	0.1	-649.71
29745	18.447	4.4545	0.1	-513.99
29746	18.539	4.3636	0.1	-645.52
29747	18.447	4.6364	0.1	-455.49
29748	18.539	4.5455	0.1	-567.57
29749	18.447	4.8182	0.1	-376.63
29750	18.539	4.7273	0.1	-469.
29751	18.447	5.	0.1	-294.22
29752	18.539	4.9091	0.1	-368.35
29753	18.447	5.1818	0.1	-216.04
29754	18.539	5.0909	0.1	-274.63
29755	18.447	5.3636	0.1	-146.6
29756	18.539	5.2727	0.1	-190.75
29757	18.447	5.5455	0.1	-89.209
29758	18.539	5.4545	0.1	-119.18
29759	18.447	5.7273	0.1	-47.049
29760	18.539	5.6364	0.1	-63.516
29761	18.539	5.8182	0.1	-29.245
29762	18.447	5.9091	0.1	-14.663
29763	18.631	0.27273	0.1	-47.913
29764	18.723	0.18182	0.1	-31.284
29765	18.631	9.0909e-002	0.1	-13.159
29766	18.631	0.45455	0.1	-98.431
29767	18.723	0.36364	0.1	-76.591
29768	18.631	0.63636	0.1	-170.43
29769	18.723	0.54545	0.1	-150.48
29770	18.631	0.81818	0.1	-257.76
29771	18.723	0.72727	0.1	-241.36
29772	18.631	1.	0.1	-358.22
29773	18.723	0.90909	0.1	-346.95
29774	18.631	1.1818	0.1	-471.18
29775	18.723	1.0909	0.1	-468.26
29776	18.631	1.3636	0.1	-592.29
29777	18.723	1.2727	0.1	-608.65
29778	18.631	1.5455	0.1	-708.75
29779	18.723	1.4545	0.1	-768.34
29780	18.631	1.7273	0.1	-774.49
29781	18.723	1.6364	0.1	-953.52
29782	18.631	1.9091	0.1	-702.79
29783	18.723	1.8182	0.1	-1084.8
29784	18.631	2.0909	0.1	-535.03
29785	18.723	2.	0.1	-855.9
29786	18.631	2.2727	0.1	-395.99
29787	18.723	2.1818	0.1	-512.58
29788	18.631	2.4545	0.1	-327.57
29789	18.723	2.3636	0.1	-387.22
29790	18.631	2.6364	0.1	-298.61
29791	18.723	2.5455	0.1	-332.7
29792	18.631	2.8182	0.1	-285.17
29793	18.723	2.7273	0.1	-308.53
29794	18.631	3.	0.1	-281.28
29795	18.723	2.9091	0.1	-297.99
29796	18.631	3.1818	0.1	-285.17
29797	18.723	3.0909	0.1	-297.99
29798	18.631	3.3636	0.1	-298.61
29799	18.723	3.2727	0.1	-308.53
29800	18.631	3.5455	0.1	-327.57
29801	18.723	3.4545	0.1	-332.7
29802	18.631	3.7273	0.1	-395.99
29803	18.723	3.6364	0.1	-387.22
29804	18.631	3.9091	0.1	-535.03
29805	18.723	3.8182	0.1	-512.58
29806	18.631	4.0909	0.1	-702.79
29807	18.723	4.	0.1	-855.9
29808	18.631	4.2727	0.1	-774.49
29809	18.723	4.1818	0.1	-1084.8
29810	18.631	4.4545	0.1	-708.75
29811	18.723	4.3636	0.1	-953.52
29812	18.631	4.6364	0.1	-592.29
29813	18.723	4.5455	0.1	-768.34
29814	18.631	4.8182	0.1	-471.18
29815	18.723	4.7273	0.1	-608.65
29816	18.631	5.	0.1	-358.22
29817	18.723	4.9091	0.1	-468.26
29818	18.631	5.1818	0.1	-257.76
29819	18.723	5.0909	0.1	-346.95
29820	18.631	5.3636	0.1	-170.43
29821	18.723	5.2727	0.1	-241.36
29822	18.631	5.5455	0.1	-98.431
29823	18.723	5.4545	0.1	-150.48
29824	18.631	5.7273	0.1	-47.913
29825	18.723	5.6364	0.1	-76.591
29826	18.723	5.8182	0.1	-31.284
29827	18.631	5.9091	0.1	-13.159
29828	18.816	0.27273	0.1	-68.233
29829	18.908	0.18182	0.1	-22.405
29830	18.816	9.0909e-002	0.1	-15.782
29831	18.816	0.45455	0.1	-140.87
29832	18.908	0.36364	0.1	-76.934
29833	18.816	0.63636	0.1	-234.24
29834	18.908	0.54545	0.1	-148.96
29835	18.816	0.81818	0.1	-343.69
29836	18.908	0.72727	0.1	-234.18
29837	18.816	1.	0.1	-471.11
29838	18.908	0.90909	0.1	-333.98
29839	18.816	1.1818	0.1	-622.07
29840	18.908	1.0909	0.1	-452.4
29841	18.816	1.3636	0.1	-804.89
29842	18.908	1.2727	0.1	-597.18
29843	18.816	1.5455	0.1	-1042.2
29844	18.908	1.4545	0.1	-785.2
29845	18.816	1.7273	0.1	-1287.6
29846	18.908	1.6364	0.1	-1019.6
29847	18.816	1.9091	0.1	-1230.6
29848	18.908	1.8182	0.1	-1524.2
29849	18.816	2.0909	0.1	-809.37
29850	18.908	2.	0.1	-1274.8
29851	18.816	2.2727	0.1	-498.69
29852	18.908	2.1818	0.1	-573.23
29853	18.816	2.4545	0.1	-390.84
29854	18.908	2.3636	0.1	-428.28
29855	18.816	2.6364	0.1	-342.05
29856	18.908	2.5455	0.1	-361.7
29857	18.816	2.8182	0.1	-320.85
29858	18.908	2.7273	0.1	-330.1
29859	18.816	3.	0.1	-314.18
29860	18.908	2.9091	0.1	-315.82
29861	18.816	3.1818	0.1	-320.85
29862	18.908	3.0909	0.1	-315.82
29863	18.816	3.3636	0.1	-342.05
29864	18.908	3.2727	0.1	-330.1
29865	18.816	3.5455	0.1	-390.84
29866	18.908	3.4545	0.1	-361.7
29867	18.816	3.7273	0.1	-498.69
29868	18.908	3.6364	0.1	-428.28
29869	18.816	3.9091	0.1	-809.37
29870	18.908	3.8182	0.1	-573.23
29871	18.816	4.0909	0.1	-1230.6
29872	18.908	4.	0.1	-1274.8
29873	18.816	4.2727	0.1	-1287.6
29874	18.908	4.1818	0.1	-1524.2
29875	18.816	4.4545	0.1	-1042.2
29876	18.908	4.3636	0.1	-1019.6
29877	18.816	4.6364	0.1	-804.89
29878	18.908	4.5455	0.1	-785.2
29879	18.816	4.8182	0.1	-622.07
29880	18.908	4.7273	0.1	-597.18
29881	18.816	5.	0.1	-471.11
29882	18.908	4.9091	0.1	-452.4
29883	18.816	5.1818	0.1	-343.69
29884	18.908	5.0909	0.1	-333.98
29885	18.816	5.3636	0.1	-234.24
29886	18.908	5.2727	0.1	-234.18
29887	18.816	5.5455	0.1	-140.87
29888	18.908	5.4545	0.1	-148.96
29889	18.816	5.7273	0.1	-68.233
29890	18.908	5.6364	0.1	-76.934
29891	18.908	5.8182	0.1	-22.405
29892	18.816	5.9091	0.1	-15.782
29893	19.167	3.7273	0.1	-366.8
29894	19.083	3.8182	0.1	-459.46
29895	19.167	3.9091	0.1	-383.28
29896	19.167	3.5455	0.1	-343.18
29897	19.083	3.6364	0.1	-394.46
29898	19.167	3.3636	0.1	-308.16
29899	19.083	3.4545	0.1	-343.25
29900	19.167	3.1818	0.1	-289.41
29901	19.083	3.2727	0.1	-314.03
29902	19.167	3.	0.1	-283.36
29903	19.083	3.0909	0.1	-300.51
29904	19.167	2.8182	0.1	-289.41
29905	19.083	2.9091	0.1	-300.51
29906	19.167	2.6364	0.1	-308.16
29907	19.083	2.7273	0.1	-314.03
29908	19.167	2.4545	0.1	-343.18
29909	19.083	2.5455	0.1	-343.25
29910	19.167	2.2727	0.1	-366.8
29911	19.083	2.3636	0.1	-394.46
29912	19.083	2.1818	0.1	-459.46
29913	19.167	2.0909	0.1	-383.28
29914	19.	3.7273	0.1	-532.85
29915	19.	3.9091	0.1	-1072.
29916	19.	3.5455	0.1	-406.61
29917	19.	3.3636	0.1	-352.09
29918	19.	3.1818	0.1	-325.5
29919	19.	3.	0.1	-317.42
29920	19.	2.8182	0.1	-325.5
29921	19.	2.6364	0.1	-352.09
29922	19.	2.4545	0.1	-406.61
29923	19.	2.2727	0.1	-532.85
29924	19.	2.0909	0.1	-1072.
29925	19.167	5.7273	0.1	-24.058
29926	19.167	5.9091	0.1	-4.3725
29927	19.167	5.8182	5.e-002	-18.413
29928	19.167	5.5455	0.1	-45.576
29929	19.167	5.6364	5.e-002	-39.782
29930	19.167	5.3636	0.1	-70.481
29931	19.167	5.4545	5.e-002	-60.832
29932	19.167	5.1818	0.1	-99.805
29933	19.167	5.2727	5.e-002	-83.848
29934	19.167	5.	0.1	-135.42
29935	19.167	5.0909	5.e-002	-110.25
29936	19.167	4.8182	0.1	-180.48
29937	19.167	4.9091	5.e-002	-142.12
29938	19.167	4.6364	0.1	-244.51
29939	19.167	4.7273	5.e-002	-182.88
29940	19.167	4.4545	0.1	-313.5
29941	19.167	4.5455	5.e-002	-238.87
29942	19.167	4.2727	0.1	-600.99
29943	19.167	4.3636	5.e-002	-326.62
29944	19.167	4.0909	0.1	-542.79
29945	19.167	4.1818	5.e-002	-564.59
29946	19.083	4.	0.1	-670.98
29947	19.167	4.	5.e-002	-499.58
29948	19.	4.0909	0.1	-1533.3
29949	19.	4.	5.e-002	-726.93
29950	19.	4.2727	0.1	-1374.2
29951	19.	4.1818	5.e-002	-762.35
29952	19.	4.4545	0.1	-843.58
29953	19.	4.3636	5.e-002	-480.72
29954	19.	4.6364	0.1	-638.16
29955	19.	4.5455	5.e-002	-360.7
29956	19.	4.8182	0.1	-478.02
29957	19.	4.7273	5.e-002	-285.08
29958	19.	5.	0.1	-356.9
29959	19.	4.9091	5.e-002	-226.79
29960	19.	5.1818	0.1	-259.26
29961	19.	5.0909	5.e-002	-179.08
29962	19.	5.3636	0.1	-178.27
29963	19.	5.2727	5.e-002	-137.79
29964	19.	5.5455	0.1	-110.64
29965	19.	5.4545	5.e-002	-100.62
29966	19.	5.7273	0.1	-54.967
29967	19.	5.6364	5.e-002	-65.988
29968	19.	5.9091	0.1	-9.4471
29969	19.	5.8182	5.e-002	-31.442
29970	19.167	0.27273	0.1	-24.058
29971	19.167	9.0909e-002	0.1	-4.3725
29972	19.167	0.18182	5.e-002	-18.413
29973	19.167	0.45455	0.1	-45.576
29974	19.167	0.36364	5.e-002	-39.782
29975	19.167	0.63636	0.1	-70.481
29976	19.167	0.54545	5.e-002	-60.832
29977	19.167	0.81818	0.1	-99.805
29978	19.167	0.72727	5.e-002	-83.848
29979	19.167	1.	0.1	-135.42
29980	19.167	0.90909	5.e-002	-110.25
29981	19.167	1.1818	0.1	-180.48
29982	19.167	1.0909	5.e-002	-142.12
29983	19.167	1.3636	0.1	-244.51
29984	19.167	1.2727	5.e-002	-182.88
29985	19.167	1.5455	0.1	-313.5
29986	19.167	1.4545	5.e-002	-238.87
29987	19.167	1.7273	0.1	-600.99
29988	19.167	1.6364	5.e-002	-326.62
29989	19.167	1.9091	0.1	-542.79
29990	19.167	1.8182	5.e-002	-564.59
29991	19.083	2.	0.1	-670.98
29992	19.167	2.	5.e-002	-499.58
29993	19.	1.9091	0.1	-1533.3
29994	19.	2.	5.e-002	-726.93
29995	19.	1.7273	0.1	-1374.2
29996	19.	1.8182	5.e-002	-762.35
29997	19.	1.5455	0.1	-843.58
29998	19.	1.6364	5.e-002	-480.72
29999	19.	1.3636	0.1	-638.16
30000	19.	1.4545	5.e-002	-360.7
30001	19.	1.1818	0.1	-478.02
30002	19.	1.2727	5.e-002	-285.08
30003	19.	1.	0.1	-356.9
30004	19.	1.0909	5.e-002	-226.79
30005	19.	0.81818	0.1	-259.26
30006	19.	0.90909	5.e-002	-179.08
30007	19.	0.63636	0.1	-178.27
30008	19.	0.72727	5.e-002	-137.79
30009	19.	0.45455	0.1	-110.64
30010	19.	0.54545	5.e-002	-100.62
30011	19.	0.27273	0.1	-54.967
30012	19.	0.36364	5.e-002	-65.988
30013	19.	9.0909e-002	0.1	-9.4471
30014	19.	0.18182	5.e-002	-31.442
30015	19.256	6.	0.1	-1.7184
30016	19.167	6.	5.e-002	-6.0261
30017	19.435	6.	0.1	-5.2082
30018	19.346	6.	5.e-002	-6.3985
30019	19.614	6.	0.1	-6.8802
30020	19.525	6.	5.e-002	-15.506
30021	19.793	6.	0.1	-7.766
30022	19.704	6.	5.e-002	-20.955
30023	19.972	6.	0.1	-8.0155
30024	19.883	6.	5.e-002	-24.552
30025	20.151	6.	0.1	-7.8748
30026	20.062	6.	5.e-002	-26.762
30027	20.33	6.	0.1	-7.5453
30028	20.241	6.	5.e-002	-28.027
30029	20.509	6.	0.1	-7.1462
30030	20.42	6.	5.e-002	-28.658
30031	20.688	6.	0.1	-6.7536
30032	20.599	6.	5.e-002	-28.886
30033	20.867	6.	0.1	-6.4109
30034	20.778	6.	5.e-002	-28.871
30035	21.046	6.	0.1	-6.1402
30036	20.957	6.	5.e-002	-28.717
30037	21.225	6.	0.1	-5.9506
30038	21.136	6.	5.e-002	-28.487
30039	21.404	6.	0.1	-5.8428
30040	21.315	6.	5.e-002	-28.213
30041	21.583	6.	0.1	-5.813
30042	21.494	6.	5.e-002	-27.905
30043	21.762	6.	0.1	-5.8548
30044	21.673	6.	5.e-002	-27.559
30045	21.941	6.	0.1	-5.9608
30046	21.852	6.	5.e-002	-27.163
30047	22.12	6.	0.1	-6.1228
30048	22.031	6.	5.e-002	-26.697
30049	22.299	6.	0.1	-6.3324
30050	22.21	6.	5.e-002	-26.14
30051	22.478	6.	0.1	-6.5811
30052	22.389	6.	5.e-002	-25.466
30053	22.657	6.	0.1	-6.8595
30054	22.568	6.	5.e-002	-24.647
30055	22.836	6.	0.1	-7.1577
30056	22.747	6.	5.e-002	-23.65
30057	23.015	6.	0.1	-7.4634
30058	22.926	6.	5.e-002	-22.438
30059	23.194	6.	0.1	-7.7623
30060	23.105	6.	5.e-002	-20.962
30061	23.373	6.	0.1	-8.0213
30062	23.284	6.	5.e-002	-19.156
30063	23.552	6.	0.1	-8.2442
30064	23.463	6.	5.e-002	-16.926
30065	23.731	6.	0.1	-7.9641
30066	23.642	6.	5.e-002	-14.086
30067	23.91	6.	0.1	-6.3885
30068	23.821	6.	5.e-002	-10.117
30069	24.	5.9091	0.1	-15.932
30070	24.	6.	5.e-002	-4.569
30071	24.	5.7273	0.1	-37.811
30072	24.	5.8182	5.e-002	-4.1553
30073	24.	5.5455	0.1	-53.798
30074	24.	5.6364	5.e-002	-4.3645
30075	24.	5.3636	0.1	-65.025
30076	24.	5.4545	5.e-002	-4.5901
30077	24.	5.1818	0.1	-73.214
30078	24.	5.2727	5.e-002	-4.6857
30079	24.	5.	0.1	-79.151
30080	24.	5.0909	5.e-002	-4.7144
30081	24.	4.8182	0.1	-83.33
30082	24.	4.9091	5.e-002	-4.7016
30083	24.	4.6364	0.1	-86.123
30084	24.	4.7273	5.e-002	-4.6642
30085	24.	4.4545	0.1	-87.833
30086	24.	4.5455	5.e-002	-4.6135
30087	24.	4.2727	0.1	-88.719
30088	24.	4.3636	5.e-002	-4.5572
30089	24.	4.0909	0.1	-89.01
30090	24.	4.1818	5.e-002	-4.5008
30091	24.	3.9091	0.1	-88.903
30092	24.	4.	5.e-002	-4.4479
30093	24.	3.7273	0.1	-88.573
30094	24.	3.8182	5.e-002	-4.4011
30095	24.	3.5455	0.1	-88.161
30096	24.	3.6364	5.e-002	-4.3621
30097	24.	3.3636	0.1	-87.784
30098	24.	3.4545	5.e-002	-4.3321
30099	24.	3.1818	0.1	-87.523
30100	24.	3.2727	5.e-002	-4.3118
30101	24.	3.	0.1	-87.431
30102	24.	3.0909	5.e-002	-4.3016
30103	24.	2.8182	0.1	-87.523
30104	24.	2.9091	5.e-002	-4.3016
30105	24.	2.6364	0.1	-87.784
30106	24.	2.7273	5.e-002	-4.3118
30107	24.	2.4545	0.1	-88.161
30108	24.	2.5455	5.e-002	-4.3321
30109	24.	2.2727	0.1	-88.573
30110	24.	2.3636	5.e-002	-4.3621
30111	24.	2.0909	0.1	-88.904
30112	24.	2.1818	5.e-002	-4.4011
30113	24.	1.9091	0.1	-89.01
30114	24.	2.	5.e-002	-4.4479
30115	24.	1.7273	0.1	-88.719
30116	24.	1.8182	5.e-002	-4.5008
30117	24.	1.5455	0.1	-87.833
30118	24.	1.6364	5.e-002	-4.5572
30119	24.	1.3636	0.1	-86.123
30120	24.	1.4545	5.e-002	-4.6135
30121	24.	1.1818	0.1	-83.33
30122	24.	1.2727	5.e-002	-4.6642
30123	24.	1.	0.1	-79.151
30124	24.	1.0909	5.e-002	-4.7016
30125	24.	0.81818	0.1	-73.214
30126	24.	0.90909	5.e-002	-4.7144
30127	24.	0.63636	0.1	-65.025
30128	24.	0.72727	5.e-002	-4.6857
30129	24.	0.45455	0.1	-53.798
30130	24.	0.54545	5.e-002	-4.5902
30131	24.	0.27273	0.1	-37.811
30132	24.	0.36364	5.e-002	-4.3645
30133	24.	9.0909e-002	0.1	-15.932
30134	24.	0.18182	5.e-002	-4.1553
30135	2.3842e-015	0.27273	0.1	1664.6
30136	7.9472e-016	9.0909e-002	0.1	-142.87
30137	1.6109e-015	0.18182	5.e-002	-95.862
30138	3.9736e-015	0.45455	0.1	2514.1
30139	3.2219e-015	0.36364	5.e-002	-49.577
30140	5.563e-015	0.63636	0.1	2947.4
30141	4.8328e-015	0.54545	5.e-002	-44.747
30142	7.1525e-015	0.81818	0.1	3217.1
30143	6.4438e-015	0.72727	5.e-002	-39.303
30144	8.7419e-015	1.	0.1	3401.3
30145	8.0547e-015	0.90909	5.e-002	-33.399
30146	1.0331e-014	1.1818	0.1	3534.5
30147	9.6657e-015	1.0909	5.e-002	-28.314
30148	1.1921e-014	1.3636	0.1	3634.1
30149	1.1277e-014	1.2727	5.e-002	-24.19
30150	1.351e-014	1.5455	0.1	3710.1
30151	1.2888e-014	1.4545	5.e-002	-20.84
30152	1.51e-014	1.7273	0.1	3768.7
30153	1.4498e-014	1.6364	5.e-002	-18.127
30154	1.6689e-014	1.9091	0.1	3814.2
30155	1.6109e-014	1.8182	5.e-002	-15.939
30156	1.8279e-014	2.0909	0.1	3849.3
30157	1.772e-014	2.	5.e-002	-14.189
30158	1.9868e-014	2.2727	0.1	3876.
30159	1.9331e-014	2.1818	5.e-002	-12.813
30160	2.1457e-014	2.4545	0.1	3895.6
30161	2.0942e-014	2.3636	5.e-002	-11.762
30162	2.3047e-014	2.6364	0.1	3909.
30163	2.2553e-014	2.5455	5.e-002	-11.002
30164	2.4636e-014	2.8182	0.1	3916.9
30165	2.4164e-014	2.7273	5.e-002	-10.507
30166	2.6226e-014	3.	0.1	3919.6
30167	2.5775e-014	2.9091	5.e-002	-10.264
30168	2.7815e-014	3.1818	0.1	3916.9
30169	2.7386e-014	3.0909	5.e-002	-10.264
30170	2.9405e-014	3.3636	0.1	3909.
30171	2.8997e-014	3.2727	5.e-002	-10.507
30172	3.0994e-014	3.5455	0.1	3895.6
30173	3.0608e-014	3.4545	5.e-002	-11.002
30174	3.2583e-014	3.7273	0.1	3876.
30175	3.2219e-014	3.6364	5.e-002	-11.762
30176	3.4173e-014	3.9091	0.1	3849.3
30177	3.383e-014	3.8182	5.e-002	-12.813
30178	3.5762e-014	4.0909	0.1	3814.2
30179	3.5441e-014	4.	5.e-002	-14.189
30180	3.7352e-014	4.2727	0.1	3768.7
30181	3.7052e-014	4.1818	5.e-002	-15.939
30182	3.8941e-014	4.4545	0.1	3710.1
30183	3.8663e-014	4.3636	5.e-002	-18.127
30184	4.0531e-014	4.6364	0.1	3634.1
30185	4.0274e-014	4.5455	5.e-002	-20.84
30186	4.212e-014	4.8182	0.1	3534.5
30187	4.1885e-014	4.7273	5.e-002	-24.19
30188	4.371e-014	5.	0.1	3401.3
30189	4.3495e-014	4.9091	5.e-002	-28.314
30190	4.5299e-014	5.1818	0.1	3217.1
30191	4.5106e-014	5.0909	5.e-002	-33.399
30192	4.6888e-014	5.3636	0.1	2947.4
30193	4.6717e-014	5.2727	5.e-002	-39.303
30194	4.8478e-014	5.5455	0.1	2514.1
30195	4.8328e-014	5.4545	5.e-002	-44.747
30196	5.0067e-014	5.7273	0.1	1664.6
30197	4.9939e-014	5.6364	5.e-002	-49.577
30198	5.1657e-014	5.9091	0.1	-142.87
30199	5.155e-014	5.8182	5.e-002	-95.862
30200	23.91	0.	0.1	-6.3885
30201	24.	0.	5.e-002	-4.569
30202	23.731	0.	0.1	-7.9641
30203	23.821	0.	5.e-002	-10.117
30204	23.552	0.	0.1	-8.2442
30205	23.642	0.	5.e-002	-14.086
30206	23.373	0.	0.1	-8.0213
30207	23.463	0.	5.e-002	-16.926
30208	23.194	0.	0.1	-7.7623
30209	23.284	0.	5.e-002	-19.156
30210	23.015	0.	0.1	-7.4634
30211	23.105	0.	5.e-002	-20.962
30212	22.836	0.	0.1	-7.1577
30213	22.926	0.	5.e-002	-22.438
30214	22.657	0.	0.1	-6.8595
30215	22.747	0.	5.e-002	-23.65
30216	22.478	0.	0.1	-6.5811
30217	22.568	0.	5.e-002	-24.647
30218	22.299	0.	0.1	-6.3325
30219	22.389	0.	5.e-002	-25.467
30220	22.12	0.	0.1	-6.1228
30221	22.21	0.	5.e-002	-26.14
30222	21.941	0.	0.1	-5.9608
30223	22.031	0.	5.e-002	-26.697
30224	21.762	0.	0.1	-5.8548
30225	21.852	0.	5.e-002	-27.163
30226	21.583	0.	0.1	-5.813
30227	21.673	0.	5.e-002	-27.559
30228	21.404	0.	0.1	-5.8428
30229	21.494	0.	5.e-002	-27.905
30230	21.225	0.	0.1	-5.9506
30231	21.315	0.	5.e-002	-28.213
30232	21.046	0.	0.1	-6.1402
30233	21.136	0.	5.e-002	-28.487
30234	20.867	0.	0.1	-6.4109
30235	20.957	0.	5.e-002	-28.717
30236	20.688	0.	0.1	-6.7536
30237	20.778	0.	5.e-002	-28.871
30238	20.509	0.	0.1	-7.1462
30239	20.599	0.	5.e-002	-28.886
30240	20.33	0.	0.1	-7.5453
30241	20.42	0.	5.e-002	-28.658
30242	20.151	0.	0.1	-7.8748
30243	20.241	0.	5.e-002	-28.027
30244	19.972	0.	0.1	-8.0155
30245	20.062	0.	5.e-002	-26.762
30246	19.793	0.	0.1	-7.766
30247	19.883	0.	5.e-002	-24.552
30248	19.614	0.	0.1	-6.8802
30249	19.704	0.	5.e-002	-20.955
30250	19.435	0.	0.1	-5.2082
30251	19.525	0.	5.e-002	-15.506
30252	19.256	0.	0.1	-1.7184
30253	19.346	0.	5.e-002	-6.3985
30254	19.167	0.	5.e-002	-6.0261
30255	18.908	1.2556e-029	0.1	-1.0908
30256	19.	1.2617e-029	5.e-002	-8.6349
30257	18.723	1.2433e-029	0.1	-3.2456
30258	18.816	0.	5.e-002	-1.74
30259	18.539	1.2311e-029	0.1	-3.3131
30260	18.631	0.	5.e-002	-6.7133
30261	18.354	1.2188e-029	0.1	-3.2945
30262	18.447	0.	5.e-002	-6.8078
30263	18.17	1.2066e-029	0.1	-3.1743
30264	18.262	0.	5.e-002	-4.4231
30265	17.985	1.1943e-029	0.1	-3.0915
30266	18.078	0.	5.e-002	-1.7159
30267	17.801	1.1821e-029	0.1	-3.1221
30268	17.893	0.	5.e-002	-5.687
30269	17.617	1.1698e-029	0.1	-3.2642
30270	17.709	0.	5.e-002	-11.264
30271	17.432	1.1576e-029	0.1	-3.4987
30272	17.524	0.	5.e-002	-17.013
30273	17.248	1.1453e-029	0.1	-3.7968
30274	17.34	0.	5.e-002	-22.616
30275	17.063	1.1331e-029	0.1	-4.131
30276	17.155	0.	5.e-002	-27.905
30277	16.879	1.1208e-029	0.1	-4.4776
30278	16.971	0.	5.e-002	-32.79
30279	16.694	1.1086e-029	0.1	-4.8181
30280	16.786	0.	5.e-002	-37.236
30281	16.51	1.0963e-029	0.1	-5.1398
30282	16.602	0.	5.e-002	-41.242
30283	16.325	1.0841e-029	0.1	-5.4344
30284	16.417	0.	5.e-002	-44.827
30285	16.141	1.0718e-029	0.1	-5.6976
30286	16.233	0.	5.e-002	-48.022
30287	15.956	1.0596e-029	0.1	-5.9276
30288	16.049	0.	5.e-002	-50.862
30289	15.772	1.0473e-029	0.1	-6.1246
30290	15.864	0.	5.e-002	-53.385
30291	15.587	1.0351e-029	0.1	-6.2901
30292	15.68	0.	5.e-002	-55.628
30293	15.403	1.0228e-029	0.1	-6.4263
30294	15.495	0.	5.e-002	-57.623
30295	15.218	1.0106e-029	0.1	-6.5356
30296	15.311	0.	5.e-002	-59.401
30297	15.034	9.9834e-030	0.1	-6.6206
30298	15.126	0.	5.e-002	-60.989
30299	14.85	9.861e-030	0.1	-6.6839
30300	14.942	0.	5.e-002	-62.41
30301	14.665	9.7385e-030	0.1	-6.7278
30302	14.757	0.	5.e-002	-63.686
30303	14.481	9.616e-030	0.1	-6.7544
30304	14.573	0.	5.e-002	-64.834
30305	14.296	9.4935e-030	0.1	-6.7657
30306	14.388	0.	5.e-002	-65.868
30307	14.112	9.371e-030	0.1	-6.7633
30308	14.204	0.	5.e-002	-66.802
30309	13.927	9.2485e-030	0.1	-6.7487
30310	14.019	0.	5.e-002	-67.646
30311	13.743	9.126e-030	0.1	-6.7231
30312	13.835	0.	5.e-002	-68.41
30313	13.558	9.0035e-030	0.1	-6.6877
30314	13.65	0.	5.e-002	-69.1
30315	13.374	8.881e-030	0.1	-6.6433
30316	13.466	0.	5.e-002	-69.723
30317	13.189	8.7585e-030	0.1	-6.5906
30318	13.282	0.	5.e-002	-70.285
30319	13.005	8.636e-030	0.1	-6.5303
30320	13.097	0.	5.e-002	-70.789
30321	12.82	8.5135e-030	0.1	-6.4628
30322	12.913	0.	5.e-002	-71.238
30323	12.636	8.391e-030	0.1	-6.3885
30324	12.728	0.	5.e-002	-71.636
30325	12.451	8.2685e-030	0.1	-6.3078
30326	12.544	0.	5.e-002	-71.984
30327	12.267	8.146e-030	0.1	-6.2208
30328	12.359	0.	5.e-002	-72.283
30329	12.083	8.0235e-030	0.1	-6.1276
30330	12.175	0.	5.e-002	-72.534
30331	11.898	7.901e-030	0.1	-6.0284
30332	11.99	0.	5.e-002	-72.738
30333	11.714	7.7785e-030	0.1	-5.9231
30334	11.806	0.	5.e-002	-72.894
30335	11.529	7.656e-030	0.1	-5.8117
30336	11.621	0.	5.e-002	-73.002
30337	11.345	7.5335e-030	0.1	-5.6941
30338	11.437	0.	5.e-002	-73.06
30339	11.16	7.411e-030	0.1	-5.5701
30340	11.252	0.	5.e-002	-73.068
30341	10.976	7.2885e-030	0.1	-5.4396
30342	11.068	0.	5.e-002	-73.024
30343	10.791	7.166e-030	0.1	-5.3023
30344	10.883	0.	5.e-002	-72.925
30345	10.607	7.0435e-030	0.1	-5.1581
30346	10.699	0.	5.e-002	-72.769
30347	10.422	6.921e-030	0.1	-5.0065
30348	10.515	0.	5.e-002	-72.553
30349	10.238	6.7985e-030	0.1	-4.8474
30350	10.33	0.	5.e-002	-72.273
30351	10.053	6.676e-030	0.1	-4.6802
30352	10.146	0.	5.e-002	-71.927
30353	9.8689	6.5536e-030	0.1	-4.5048
30354	9.9612	0.	5.e-002	-71.509
30355	9.6845	6.4311e-030	0.1	-4.3207
30356	9.7767	0.	5.e-002	-71.015
30357	9.5	6.3086e-030	0.1	-4.1275
30358	9.5922	0.	5.e-002	-70.44
30359	9.3155	6.1861e-030	0.1	-3.9249
30360	9.4078	0.	5.e-002	-69.778
30361	9.1311	6.0636e-030	0.1	-3.7124
30362	9.2233	0.	5.e-002	-69.022
30363	8.9466	5.9411e-030	0.1	-3.4896
30364	9.0388	0.	5.e-002	-68.167
30365	8.7621	5.8186e-030	0.1	-3.2563
30366	8.8544	0.	5.e-002	-67.204
30367	8.5777	5.6961e-030	0.1	-3.0121
30368	8.6699	0.	5.e-002	-66.125
30369	8.3932	5.5736e-030	0.1	-2.7566
30370	8.4854	0.	5.e-002	-64.921
30371	8.2087	5.4511e-030	0.1	-2.4898
30372	8.301	0.	5.e-002	-63.583
30373	8.0243	5.3286e-030	0.1	-2.2114
30374	8.1165	0.	5.e-002	-62.099
30375	7.8398	5.2061e-030	0.1	-1.9215
30376	7.932	0.	5.e-002	-60.459
30377	7.6553	5.0836e-030	0.1	-1.6201
30378	7.7476	0.	5.e-002	-58.65
30379	7.4709	4.9611e-030	0.1	-1.3077
30380	7.5631	0.	5.e-002	-56.658
30381	7.2864	4.8386e-030	0.1	-0.98458
30382	7.3786	0.	5.e-002	-54.47
30383	7.1019	4.7161e-030	0.1	-0.65178
30384	7.1942	0.	5.e-002	-52.068
30385	6.9175	4.5936e-030	0.1	-0.46124
30386	7.0097	0.	5.e-002	-49.436
30387	6.733	4.4711e-030	0.1	-0.50358
30388	6.8252	0.	5.e-002	-46.556
30389	6.5485	4.3486e-030	0.1	-0.54975
30390	6.6408	0.	5.e-002	-43.408
30391	6.3641	4.2261e-030	0.1	-0.59972
30392	6.4563	0.	5.e-002	-39.969
30393	6.1796	4.1036e-030	0.1	-0.65377
30394	6.2718	0.	5.e-002	-36.218
30395	5.9951	3.9811e-030	0.1	-0.71223
30396	6.0874	0.	5.e-002	-32.129
30397	5.8107	3.8586e-030	0.1	-0.77546
30398	5.9029	0.	5.e-002	-27.677
30399	5.6262	3.7361e-030	0.1	-0.84384
30400	5.7184	0.	5.e-002	-22.834
30401	5.4417	3.6136e-030	0.1	-0.91781
30402	5.534	0.	5.e-002	-17.574
30403	5.2573	3.4911e-030	0.1	-0.99785
30404	5.3495	0.	5.e-002	-11.881
30405	5.0728	3.3686e-030	0.1	-1.0845
30406	5.165	0.	5.e-002	-5.8159
30407	4.8883	3.2462e-030	0.1	-1.1783
30408	4.9806	0.	5.e-002	-2.3689
30409	4.7039	3.1237e-030	0.1	-1.2801
30410	4.7961	0.	5.e-002	-8.8959
30411	4.5194	3.0012e-030	0.1	-1.3906
30412	4.6117	0.	5.e-002	-16.78
30413	4.335	2.8787e-030	0.1	-1.5109
30414	4.4272	0.	5.e-002	-25.405
30415	4.1505	2.7562e-030	0.1	-1.6425
30416	4.2427	0.	5.e-002	-34.777
30417	3.966	2.6337e-030	0.1	-1.7876
30418	4.0583	0.	5.e-002	-44.945
30419	3.7816	2.5112e-030	0.1	-1.9496
30420	3.8738	0.	5.e-002	-55.966
30421	3.5971	2.3887e-030	0.1	-2.1357
30422	3.6893	0.	5.e-002	-67.908
30423	3.4126	2.2662e-030	0.1	-2.3631
30424	3.5049	0.	5.e-002	-80.844
30425	3.2282	2.1437e-030	0.1	-2.6908
30426	3.3204	0.	5.e-002	-94.857
30427	3.0437	2.0212e-030	0.1	-3.3847
30428	3.1359	0.	5.e-002	-110.04
30429	2.8592	1.8987e-030	0.1	-5.0083
30430	2.9515	0.	5.e-002	-126.49
30431	2.6748	1.7762e-030	0.1	-7.4985
30432	2.767	0.	5.e-002	-144.32
30433	2.4903	1.6537e-030	0.1	-10.715
30434	2.5825	0.	5.e-002	-163.67
30435	2.3058	1.5312e-030	0.1	-14.722
30436	2.3981	0.	5.e-002	-184.7
30437	2.1214	1.4087e-030	0.1	-19.663
30438	2.2136	0.	5.e-002	-207.58
30439	1.9369	1.2862e-030	0.1	-25.738
30440	2.0291	0.	5.e-002	-232.54
30441	1.7524	1.1637e-030	0.1	-33.217
30442	1.8447	0.	5.e-002	-259.84
30443	1.568	1.0412e-030	0.1	-42.471
30444	1.6602	0.	5.e-002	-289.84
30445	1.3835	9.1872e-031	0.1	-54.047
30446	1.4757	0.	5.e-002	-322.99
30447	1.199	7.9623e-031	0.1	-68.722
30448	1.2913	0.	5.e-002	-359.89
30449	1.0146	6.7373e-031	0.1	-87.924
30450	1.1068	0.	5.e-002	-401.43
30451	0.8301	5.5123e-031	0.1	-113.72
30452	0.92233	0.	5.e-002	-448.85
30453	0.64563	4.2874e-031	0.1	-151.46
30454	0.73786	0.	5.e-002	-504.64
30455	0.46117	3.0624e-031	0.1	-212.98
30456	0.5534	0.	5.e-002	-572.22
30457	0.2767	1.8374e-031	0.1	-334.83
30458	0.36893	0.	5.e-002	-663.44
30459	9.2233e-002	6.1248e-032	0.1	-897.5
30460	0.18447	0.	5.e-002	-844.57
30461	0.	0.	5.e-002	-1119.3
30462	9.2233e-002	6.	0.1	-897.5
30463	5.2451e-014	6.	5.e-002	-1119.3
30464	0.2767	6.	0.1	-334.83
30465	0.18447	6.	5.e-002	-844.57
30466	0.46117	6.	0.1	-212.98
30467	0.36893	6.	5.e-002	-663.44
30468	0.64563	6.	0.1	-151.46
30469	0.5534	6.	5.e-002	-572.22
30470	0.8301	6.	0.1	-113.72
30471	0.73786	6.	5.e-002	-504.64
30472	1.0146	6.	0.1	-87.924
30473	0.92233	6.	5.e-002	-448.85
30474	1.199	6.	0.1	-68.722
30475	1.1068	6.	5.e-002	-401.43
30476	1.3835	6.	0.1	-54.047
30477	1.2913	6.	5.e-002	-359.89
30478	1.568	6.	0.1	-42.471
30479	1.4757	6.	5.e-002	-322.99
30480	1.7524	6.	0.1	-33.217
30481	1.6602	6.	5.e-002	-289.84
30482	1.9369	6.	0.1	-25.738
30483	1.8447	6.	5.e-002	-259.84
30484	2.1214	6.	0.1	-19.663
30485	2.0291	6.	5.e-002	-232.54
30486	2.3058	6.	0.1	-14.722
30487	2.2136	6.	5.e-002	-207.58
30488	2.4903	6.	0.1	-10.715
30489	2.3981	6.	5.e-002	-184.7
30490	2.6748	6.	0.1	-7.4985
30491	2.5825	6.	5.e-002	-163.67
30492	2.8592	6.	0.1	-5.0083
30493	2.767	6.	5.e-002	-144.32
30494	3.0437	6.	0.1	-3.3847
30495	2.9515	6.	5.e-002	-126.49
30496	3.2282	6.	0.1	-2.6908
30497	3.1359	6.	5.e-002	-110.04
30498	3.4126	6.	0.1	-2.3631
30499	3.3204	6.	5.e-002	-94.857
30500	3.5971	6.	0.1	-2.1357
30501	3.5049	6.	5.e-002	-80.844
30502	3.7816	6.	0.1	-1.9496
30503	3.6893	6.	5.e-002	-67.908
30504	3.966	6.	0.1	-1.7876
30505	3.8738	6.	5.e-002	-55.966
30506	4.1505	6.	0.1	-1.6425
30507	4.0583	6.	5.e-002	-44.945
30508	4.335	6.	0.1	-1.5109
30509	4.2427	6.	5.e-002	-34.777
30510	4.5194	6.	0.1	-1.3906
30511	4.4272	6.	5.e-002	-25.405
30512	4.7039	6.	0.1	-1.2801
30513	4.6117	6.	5.e-002	-16.78
30514	4.8883	6.	0.1	-1.1783
30515	4.7961	6.	5.e-002	-8.896
30516	5.0728	6.	0.1	-1.0845
30517	4.9806	6.	5.e-002	-2.3689
30518	5.2573	6.	0.1	-0.99784
30519	5.165	6.	5.e-002	-5.8159
30520	5.4417	6.	0.1	-0.91781
30521	5.3495	6.	5.e-002	-11.881
30522	5.6262	6.	0.1	-0.84384
30523	5.534	6.	5.e-002	-17.574
30524	5.8107	6.	0.1	-0.77546
30525	5.7184	6.	5.e-002	-22.834
30526	5.9951	6.	0.1	-0.71223
30527	5.9029	6.	5.e-002	-27.677
30528	6.1796	6.	0.1	-0.65377
30529	6.0874	6.	5.e-002	-32.129
30530	6.3641	6.	0.1	-0.59972
30531	6.2718	6.	5.e-002	-36.218
30532	6.5485	6.	0.1	-0.54975
30533	6.4563	6.	5.e-002	-39.969
30534	6.733	6.	0.1	-0.50358
30535	6.6408	6.	5.e-002	-43.408
30536	6.9175	6.	0.1	-0.46124
30537	6.8252	6.	5.e-002	-46.556
30538	7.1019	6.	0.1	-0.65178
30539	7.0097	6.	5.e-002	-49.436
30540	7.2864	6.	0.1	-0.98457
30541	7.1942	6.	5.e-002	-52.068
30542	7.4709	6.	0.1	-1.3077
30543	7.3786	6.	5.e-002	-54.47
30544	7.6553	6.	0.1	-1.6201
30545	7.5631	6.	5.e-002	-56.658
30546	7.8398	6.	0.1	-1.9215
30547	7.7476	6.	5.e-002	-58.65
30548	8.0243	6.	0.1	-2.2114
30549	7.932	6.	5.e-002	-60.459
30550	8.2087	6.	0.1	-2.4898
30551	8.1165	6.	5.e-002	-62.099
30552	8.3932	6.	0.1	-2.7566
30553	8.301	6.	5.e-002	-63.582
30554	8.5777	6.	0.1	-3.0121
30555	8.4854	6.	5.e-002	-64.921
30556	8.7621	6.	0.1	-3.2563
30557	8.6699	6.	5.e-002	-66.125
30558	8.9466	6.	0.1	-3.4896
30559	8.8544	6.	5.e-002	-67.204
30560	9.1311	6.	0.1	-3.7124
30561	9.0388	6.	5.e-002	-68.167
30562	9.3155	6.	0.1	-3.9249
30563	9.2233	6.	5.e-002	-69.022
30564	9.5	6.	0.1	-4.1275
30565	9.4078	6.	5.e-002	-69.778
30566	9.6845	6.	0.1	-4.3207
30567	9.5922	6.	5.e-002	-70.44
30568	9.8689	6.	0.1	-4.5048
30569	9.7767	6.	5.e-002	-71.015
30570	10.053	6.	0.1	-4.6802
30571	9.9612	6.	5.e-002	-71.509
30572	10.238	6.	0.1	-4.8474
30573	10.146	6.	5.e-002	-71.927
30574	10.422	6.	0.1	-5.0065
30575	10.33	6.	5.e-002	-72.273
30576	10.607	6.	0.1	-5.1581
30577	10.515	6.	5.e-002	-72.553
30578	10.791	6.	0.1	-5.3023
30579	10.699	6.	5.e-002	-72.769
30580	10.976	6.	0.1	-5.4396
30581	10.883	6.	5.e-002	-72.925
30582	11.16	6.	0.1	-5.5701
30583	11.068	6.	5.e-002	-73.024
30584	11.345	6.	0.1	-5.6941
30585	11.252	6.	5.e-002	-73.068
30586	11.529	6.	0.1	-5.8117
30587	11.437	6.	5.e-002	-73.06
30588	11.714	6.	0.1	-5.9231
30589	11.621	6.	5.e-002	-73.002
30590	11.898	6.	0.1	-6.0284
30591	11.806	6.	5.e-002	-72.894
30592	12.083	6.	0.1	-6.1276
30593	11.99	6.	5.e-002	-72.738
30594	12.267	6.	0.1	-6.2208
30595	12.175	6.	5.e-002	-72.534
30596	12.451	6.	0.1	-6.3078
30597	12.359	6.	5.e-002	-72.283
30598	12.636	6.	0.1	-6.3885
30599	12.544	6.	5.e-002	-71.984
30600	12.82	6.	0.1	-6.4628
30601	12.728	6.	5.e-002	-71.636
30602	13.005	6.	0.1	-6.5303
30603	12.913	6.	5.e-002	-71.238
30604	13.189	6.	0.1	-6.5906
30605	13.097	6.	5.e-002	-70.789
30606	13.374	6.	0.1	-6.6433
30607	13.282	6.	5.e-002	-70.285
30608	13.558	6.	0.1	-6.6877
30609	13.466	6.	5.e-002	-69.723
30610	13.743	6.	0.1	-6.7231
30611	13.65	6.	5.e-002	-69.1
30612	13.927	6.	0.1	-6.7487
30613	13.835	6.	5.e-002	-68.41
30614	14.112	6.	0.1	-6.7633
30615	14.019	6.	5.e-002	-67.646
30616	14.296	6.	0.1	-6.7657
30617	14.204	6.	5.e-002	-66.802
30618	14.481	6.	0.1	-6.7544
30619	14.388	6.	5.e-002	-65.868
30620	14.665	6.	0.1	-6.7278
30621	14.573	6.	5.e-002	-64.834
30622	14.85	6.	0.1	-6.6839
30623	14.757	6.	5.e-002	-63.686
30624	15.034	6.	0.1	-6.6206
30625	14.942	6.	5.e-002	-62.41
30626	15.218	6.	0.1	-6.5356
30627	15.126	6.	5.e-002	-60.989
30628	15.403	6.	0.1	-6.4263
30629	15.311	6.	5.e-002	-59.401
30630	15.587	6.	0.1	-6.2901
30631	15.495	6.	5.e-002	-57.623
30632	15.772	6.	0.1	-6.1246
30633	15.68	6.	5.e-002	-55.628
30634	15.956	6.	0.1	-5.9276
30635	15.864	6.	5.e-002	-53.385
30636	16.141	6.	0.1	-5.6976
30637	16.049	6.	5.e-002	-50.862
30638	16.325	6.	0.1	-5.4344
30639	16.233	6.	5.e-002	-48.022
30640	16.51	6.	0.1	-5.1398
30641	16.417	6.	5.e-002	-44.827
30642	16.694	6.	0.1	-4.8181
30643	16.602	6.	5.e-002	-41.242
30644	16.879	6.	0.1	-4.4775
30645	16.786	6.	5.e-002	-37.236
30646	17.063	6.	0.1	-4.131
30647	16.971	6.	5.e-002	-32.79
30648	17.248	6.	0.1	-3.7968
30649	17.155	6.	5.e-002	-27.905
30650	17.432	6.	0.1	-3.4987
30651	17.34	6.	5.e-002	-22.616
30652	17.617	6.	0.1	-3.2642
30653	17.524	6.	5.e-002	-17.013
30654	17.801	6.	0.1	-3.1221
30655	17.709	6.	5.e-002	-11.264
30656	17.985	6.	0.1	-3.0915
30657	17.893	6.	5.e-002	-5.687
30658	18.17	6.	0.1	-3.1743
30659	18.078	6.	5.e-002	-1.7159
30660	18.354	6.	0.1	-3.2945
30661	18.262	6.	5.e-002	-4.4231
30662	18.539	6.	0.1	-3.3131
30663	18.447	6.	5.e-002	-6.8078
30664	18.723	6.	0.1	-3.2456
30665	18.631	6.	5.e-002	-6.7133
30666	18.908	6.	0.1	-1.0908
30667	18.816	6.	5.e-002	-1.74
30668	19.	6.	5.e-002	-8.6349
30669	18.723	6.	0.	-248.22
30670	18.908	6.	0.	-87.188
30671	18.539	6.	0.	-412.87
30672	18.354	6.	0.	-567.91
30673	18.17	6.	0.	-712.92
30674	17.985	6.	0.	-846.86
30675	17.801	6.	0.	-969.29
30676	17.617	6.	0.	-1080.5
30677	17.432	6.	0.	-1181.3
30678	17.248	6.	0.	-1272.8
30679	17.063	6.	0.	-1356.2
30680	16.879	6.	0.	-1432.8
30681	16.694	6.	0.	-1503.7
30682	16.51	6.	0.	-1569.9
30683	16.325	6.	0.	-1632.2
30684	16.141	6.	0.	-1691.4
30685	15.956	6.	0.	-1748.2
30686	15.772	6.	0.	-1803.
30687	15.587	6.	0.	-1856.2
30688	15.403	6.	0.	-1908.3
30689	15.218	6.	0.	-1959.4
30690	15.034	6.	0.	-2009.8
30691	14.85	6.	0.	-2059.7
30692	14.665	6.	0.	-2109.2
30693	14.481	6.	0.	-2158.4
30694	14.296	6.	0.	-2207.5
30695	14.112	6.	0.	-2256.4
30696	13.927	6.	0.	-2305.3
30697	13.743	6.	0.	-2354.2
30698	13.558	6.	0.	-2403.2
30699	13.374	6.	0.	-2452.2
30700	13.189	6.	0.	-2501.4
30701	13.005	6.	0.	-2550.6
30702	12.82	6.	0.	-2600.
30703	12.636	6.	0.	-2649.6
30704	12.451	6.	0.	-2699.3
30705	12.267	6.	0.	-2749.2
30706	12.083	6.	0.	-2799.2
30707	11.898	6.	0.	-2849.5
30708	11.714	6.	0.	-2900.
30709	11.529	6.	0.	-2950.6
30710	11.345	6.	0.	-3001.5
30711	11.16	6.	0.	-3052.6
30712	10.976	6.	0.	-3103.9
30713	10.791	6.	0.	-3155.4
30714	10.607	6.	0.	-3207.2
30715	10.422	6.	0.	-3259.2
30716	10.238	6.	0.	-3311.4
30717	10.053	6.	0.	-3363.9
30718	9.8689	6.	0.	-3416.6
30719	9.6845	6.	0.	-3469.6
30720	9.5	6.	0.	-3522.8
30721	9.3155	6.	0.	-3576.4
30722	9.1311	6.	0.	-3630.1
30723	8.9466	6.	0.	-3684.2
30724	8.7621	6.	0.	-3738.6
30725	8.5777	6.	0.	-3793.3
30726	8.3932	6.	0.	-3848.3
30727	8.2087	6.	0.	-3903.6
30728	8.0243	6.	0.	-3959.2
30729	7.8398	6.	0.	-4015.2
30730	7.6553	6.	0.	-4071.6
30731	7.4709	6.	0.	-4128.3
30732	7.2864	6.	0.	-4185.4
30733	7.1019	6.	0.	-4242.9
30734	6.9175	6.	0.	-4300.8
30735	6.733	6.	0.	-4359.1
30736	6.5485	6.	0.	-4418.
30737	6.3641	6.	0.	-4477.2
30738	6.1796	6.	0.	-4537.
30739	5.9951	6.	0.	-4597.3
30740	5.8107	6.	0.	-4658.1
30741	5.6262	6.	0.	-4719.4
30742	5.4417	6.	0.	-4781.3
30743	5.2573	6.	0.	-4843.8
30744	5.0728	6.	0.	-4906.9
30745	4.8883	6.	0.	-4970.5
30746	4.7039	6.	0.	-5034.8
30747	4.5194	6.	0.	-5099.6
30748	4.335	6.	0.	-5165.
30749	4.1505	6.	0.	-5230.9
30750	3.966	6.	0.	-5297.2
30751	3.7816	6.	0.	-5363.9
30752	3.5971	6.	0.	-5430.7
30753	3.4126	6.	0.	-5497.6
30754	3.2282	6.	0.	-5564.2
30755	3.0437	6.	0.	-5630.1
30756	2.8592	6.	0.	-5694.9
30757	2.6748	6.	0.	-5757.9
30758	2.4903	6.	0.	-5818.4
30759	2.3058	6.	0.	-5875.
30760	2.1214	6.	0.	-5926.3
30761	1.9369	6.	0.	-5970.2
30762	1.7524	6.	0.	-6003.8
30763	1.568	6.	0.	-6022.9
30764	1.3835	6.	0.	-6021.6
30765	1.199	6.	0.	-5991.
30766	1.0146	6.	0.	-5916.9
30767	0.8301	6.	0.	-5776.
30768	0.64563	6.	0.	-5523.
30769	0.46117	6.	0.	-5071.8
30770	0.2767	6.	0.	-4165.5
30771	9.2233e-002	6.	0.	-1951.4
30772	19.	5.9091	0.	-59.096
30773	5.1657e-014	5.9091	0.	-1438.5
30774	0.2767	1.8374e-031	0.	-4165.5
30775	9.2233e-002	6.1248e-032	0.	-1951.4
30776	0.46117	3.0624e-031	0.	-5071.8
30777	0.64563	4.2874e-031	0.	-5523.
30778	0.8301	5.5123e-031	0.	-5776.
30779	1.0146	6.7373e-031	0.	-5916.9
30780	1.199	7.9623e-031	0.	-5991.
30781	1.3835	9.1872e-031	0.	-6021.6
30782	1.568	1.0412e-030	0.	-6022.9
30783	1.7524	1.1637e-030	0.	-6003.8
30784	1.9369	1.2862e-030	0.	-5970.2
30785	2.1214	1.4087e-030	0.	-5926.3
30786	2.3058	1.5312e-030	0.	-5875.
30787	2.4903	1.6537e-030	0.	-5818.4
30788	2.6748	1.7762e-030	0.	-5757.9
30789	2.8592	1.8987e-030	0.	-5694.9
30790	3.0437	2.0212e-030	0.	-5630.1
30791	3.2282	2.1437e-030	0.	-5564.2
30792	3.4126	2.2662e-030	0.	-5497.6
30793	3.5971	2.3887e-030	0.	-5430.7
30794	3.7816	2.5112e-030	0.	-5363.9
30795	3.966	2.6337e-030	0.	-5297.2
30796	4.1505	2.7562e-030	0.	-5230.9
30797	4.335	2.8787e-030	0.	-5165.
30798	4.5194	3.0012e-030	0.	-5099.6
30799	4.7039	3.1237e-030	0.	-5034.8
30800	4.8883	3.2462e-030	0.	-4970.5
30801	5.0728	3.3686e-030	0.	-4906.9
30802	5.2573	3.4911e-030	0.	-4843.8
30803	5.4417	3.6136e-030	0.	-4781.3
30804	5.6262	3.7361e-030	0.	-4719.4
30805	5.8107	3.8586e-030	0.	-4658.1
30806	5.9951	3.9811e-030	0.	-4597.3
30807	6.1796	4.1036e-030	0.	-4537.
30808	6.3641	4.2261e-030	0.	-4477.2
30809	6.5485	4.3486e-030	0.	-4418.
30810	6.733	4.4711e-030	0.	-4359.1
30811	6.9175	4.5936e-030	0.	-4300.8
30812	7.1019	4.7161e-030	0.	-4242.9
30813	7.2864	4.8386e-030	0.	-4185.4
30814	7.4709	4.9611e-030	0.	-4128.3
30815	7.6553	5.0836e-030	0.	-4071.6
30816	7.8398	5.2061e-030	0.	-4015.2
30817	8.0243	5.3286e-030	0.	-3959.2
30818	8.2087	5.4511e-030	0.	-3903.6
30819	8.3932	5.5736e-030	0.	-3848.3
30820	8.5777	5.6961e-030	0.	-3793.3
30821	8.7621	5.8186e-030	0.	-3738.6
30822	8.9466	5.9411e-030	0.	-3684.2
30823	9.1311	6.0636e-030	0.	-3630.1
30824	9.3155	6.1861e-030	0.	-3576.4
30825	9.5	6.3086e-030	0.	-3522.8
30826	9.6845	6.4311e-030	0.	-3469.6
30827	9.8689	6.5536e-030	0.	-3416.6
30828	10.053	6.676e-030	0.	-3363.9
30829	10.238	6.7985e-030	0.	-3311.4
30830	10.422	6.921e-030	0.	-3259.2
30831	10.607	7.0435e-030	0.	-3207.2
30832	10.791	7.166e-030	0.	-3155.4
30833	10.976	7.2885e-030	0.	-3103.9
30834	11.16	7.411e-030	0.	-3052.6
30835	11.345	7.5335e-030	0.	-3001.5
30836	11.529	7.656e-030	0.	-2950.6
30837	11.714	7.7785e-030	0.	-2900.
30838	11.898	7.901e-030	0.	-2849.5
30839	12.083	8.0235e-030	0.	-2799.2
30840	12.267	8.146e-030	0.	-2749.2
30841	12.451	8.2685e-030	0.	-2699.3
30842	12.636	8.391e-030	0.	-2649.6
30843	12.82	8.5135e-030	0.	-2600.
30844	13.005	8.636e-030	0.	-2550.6
30845	13.189	8.7585e-030	0.	-2501.4
30846	13.374	8.881e-030	0.	-2452.2
30847	13.558	9.0035e-030	0.	-2403.2
30848	13.743	9.126e-030	0.	-2354.2
30849	13.927	9.2485e-030	0.	-2305.3
30850	14.112	9.371e-030	0.	-2256.4
30851	14.296	9.4935e-030	0.	-2207.5
30852	14.481	9.616e-030	0.	-2158.4
30853	14.665	9.7385e-030	0.	-2109.2
30854	14.85	9.861e-030	0.	-2059.7
30855	15.034	9.9834e-030	0.	-2009.8
30856	15.218	1.0106e-029	0.	-1959.4
30857	15.403	1.0228e-029	0.	-1908.3
30858	15.587	1.0351e-029	0.	-1856.2
30859	15.772	1.0473e-029	0.	-1803.
30860	15.956	1.0596e-029	0.	-1748.2
30861	16.141	1.0718e-029	0.	-1691.4
30862	16.325	1.0841e-029	0.	-1632.2
30863	16.51	1.0963e-029	0.	-1569.9
30864	16.694	1.1086e-029	0.	-1503.7
30865	16.879	1.1208e-029	0.	-1432.8
30866	17.063	1.1331e-029	0.	-1356.2
30867	17.248	1.1453e-029	0.	-1272.8
30868	17.432	1.1576e-029	0.	-1181.3
30869	17.617	1.1698e-029	0.	-1080.5
30870	17.801	1.1821e-029	0.	-969.29
30871	17.985	1.1943e-029	0.	-846.86
30872	18.17	1.2066e-029	0.	-712.92
30873	18.354	1.2188e-029	0.	-567.91
30874	18.539	1.2311e-029	0.	-412.87
30875	18.723	1.2433e-029	0.	-248.22
30876	18.908	1.2556e-029	0.	-87.188
30877	19.	9.0909e-002	0.	-59.096
30878	7.9472e-016	9.0909e-002	0.	-1438.5
30879	19.435	0.	0.	-153.89
30880	19.256	0.	0.	-55.963
30881	19.614	0.	0.	-243.2
30882	19.793	0.	0.	-317.89
30883	19.972	0.	0.	-378.84
30884	20.151	0.	0.	-426.26
30885	20.33	0.	0.	-460.74
30886	20.509	0.	0.	-483.31
30887	20.688	0.	0.	-495.26
30888	20.867	0.	0.	-498.01
30889	21.046	0.	0.	-492.94
30890	21.225	0.	0.	-481.33
30891	21.404	0.	0.	-464.35
30892	21.583	0.	0.	-442.97
30893	21.762	0.	0.	-418.07
30894	21.941	0.	0.	-390.34
30895	22.12	0.	0.	-360.38
30896	22.299	0.	0.	-328.67
30897	22.478	0.	0.	-295.61
30898	22.657	0.	0.	-261.54
30899	22.836	0.	0.	-226.74
30900	23.015	0.	0.	-191.44
30901	23.194	0.	0.	-155.87
30902	23.373	0.	0.	-120.27
30903	23.552	0.	0.	-84.94
30904	23.731	0.	0.	-50.509
30905	23.91	0.	0.	-19.077
30906	19.167	9.0909e-002	0.	-46.462
30907	24.	9.0909e-002	0.	-6.042
30908	5.0067e-014	5.7273	0.	-3542.7
30909	4.8478e-014	5.5455	0.	-5161.3
30910	4.6888e-014	5.3636	0.	-6009.3
30911	4.5299e-014	5.1818	0.	-6547.4
30912	4.371e-014	5.	0.	-6916.5
30913	4.212e-014	4.8182	0.	-7184.
30914	4.0531e-014	4.6364	0.	-7384.2
30915	3.8941e-014	4.4545	0.	-7537.
30916	3.7352e-014	4.2727	0.	-7655.1
30917	3.5762e-014	4.0909	0.	-7746.6
30918	3.4173e-014	3.9091	0.	-7817.2
30919	3.2583e-014	3.7273	0.	-7870.8
30920	3.0994e-014	3.5455	0.	-7910.1
30921	2.9405e-014	3.3636	0.	-7936.9
30922	2.7815e-014	3.1818	0.	-7952.6
30923	2.6226e-014	3.	0.	-7957.7
30924	2.4636e-014	2.8182	0.	-7952.6
30925	2.3047e-014	2.6364	0.	-7936.9
30926	2.1457e-014	2.4545	0.	-7910.1
30927	1.9868e-014	2.2727	0.	-7870.8
30928	1.8279e-014	2.0909	0.	-7817.2
30929	1.6689e-014	1.9091	0.	-7746.6
30930	1.51e-014	1.7273	0.	-7655.1
30931	1.351e-014	1.5455	0.	-7537.
30932	1.1921e-014	1.3636	0.	-7384.2
30933	1.0331e-014	1.1818	0.	-7184.
30934	8.7419e-015	1.	0.	-6916.5
30935	7.1525e-015	0.81818	0.	-6547.4
30936	5.563e-015	0.63636	0.	-6009.3
30937	3.9736e-015	0.45455	0.	-5161.3
30938	2.3842e-015	0.27273	0.	-3542.7
30939	24.	0.27273	0.	-6.6116
30940	24.	0.45455	0.	-6.7109
30941	24.	0.63636	0.	-6.7301
30942	24.	0.81818	0.	-6.715
30943	24.	1.	0.	-6.6829
30944	24.	1.1818	0.	-6.6473
30945	24.	1.3636	0.	-6.6113
30946	24.	1.5455	0.	-6.5772
30947	24.	1.7273	0.	-6.546
30948	24.	1.9091	0.	-6.5184
30949	24.	2.0909	0.	-6.4947
30950	24.	2.2727	0.	-6.4751
30951	24.	2.4545	0.	-6.4597
30952	24.	2.6364	0.	-6.4487
30953	24.	2.8182	0.	-6.4421
30954	24.	3.	0.	-6.4399
30955	24.	3.1818	0.	-6.4421
30956	24.	3.3636	0.	-6.4487
30957	24.	3.5455	0.	-6.4597
30958	24.	3.7273	0.	-6.4751
30959	24.	3.9091	0.	-6.4947
30960	24.	4.0909	0.	-6.5184
30961	24.	4.2727	0.	-6.546
30962	24.	4.4545	0.	-6.5772
30963	24.	4.6364	0.	-6.6113
30964	24.	4.8182	0.	-6.6473
30965	24.	5.	0.	-6.6829
30966	24.	5.1818	0.	-6.715
30967	24.	5.3636	0.	-6.7301
30968	24.	5.5455	0.	-6.7109
30969	24.	5.7273	0.	-6.6116
30970	24.	5.9091	0.	-6.042
30971	23.91	6.	0.	-19.077
30972	23.731	6.	0.	-50.509
30973	23.552	6.	0.	-84.94
30974	23.373	6.	0.	-120.27
30975	23.194	6.	0.	-155.87
30976	23.015	6.	0.	-191.44
30977	22.836	6.	0.	-226.74
30978	22.657	6.	0.	-261.54
30979	22.478	6.	0.	-295.61
30980	22.299	6.	0.	-328.67
30981	22.12	6.	0.	-360.38
30982	21.941	6.	0.	-390.34
30983	21.762	6.	0.	-418.07
30984	21.583	6.	0.	-442.97
30985	21.404	6.	0.	-464.35
30986	21.225	6.	0.	-481.33
30987	21.046	6.	0.	-492.94
30988	20.867	6.	0.	-498.01
30989	20.688	6.	0.	-495.26
30990	20.509	6.	0.	-483.31
30991	20.33	6.	0.	-460.74
30992	20.151	6.	0.	-426.26
30993	19.972	6.	0.	-378.84
30994	19.793	6.	0.	-317.89
30995	19.614	6.	0.	-243.2
30996	19.435	6.	0.	-153.89
30997	19.256	6.	0.	-55.963
30998	19.167	5.9091	0.	-46.462
30999	19.	1.7273	0.	-996.28
31000	19.	1.9091	0.	-2873.8
31001	19.	1.5455	0.	-722.42
31002	19.	1.3636	0.	-586.78
31003	19.	1.1818	0.	-486.55
31004	19.	1.	0.	-407.92
31005	19.	0.81818	0.	-339.87
31006	19.	0.63636	0.	-277.
31007	19.	0.45455	0.	-214.6
31008	19.	0.27273	0.	-145.47
31009	19.083	2.	0.	-4801.3
31010	19.167	0.27273	0.	-121.32
31011	19.167	0.45455	0.	-187.67
31012	19.167	0.63636	0.	-252.49
31013	19.167	0.81818	0.	-322.55
31014	19.167	1.	0.	-403.44
31015	19.167	1.1818	0.	-502.44
31016	19.167	1.3636	0.	-633.68
31017	19.167	1.5455	0.	-814.75
31018	19.167	1.7273	0.	-1161.
31019	19.167	1.9091	0.	-3150.4
31020	19.	4.2727	0.	-996.28
31021	19.	4.0909	0.	-2873.8
31022	19.	4.4545	0.	-722.42
31023	19.	4.6364	0.	-586.78
31024	19.	4.8182	0.	-486.55
31025	19.	5.	0.	-407.92
31026	19.	5.1818	0.	-339.87
31027	19.	5.3636	0.	-277.
31028	19.	5.5455	0.	-214.6
31029	19.	5.7273	0.	-145.47
31030	19.083	4.	0.	-4801.3
31031	19.167	5.7273	0.	-121.32
31032	19.167	5.5455	0.	-187.67
31033	19.167	5.3636	0.	-252.49
31034	19.167	5.1818	0.	-322.55
31035	19.167	5.	0.	-403.44
31036	19.167	4.8182	0.	-502.44
31037	19.167	4.6364	0.	-633.68
31038	19.167	4.4545	0.	-814.75
31039	19.167	4.2727	0.	-1161.
31040	19.167	4.0909	0.	-3150.4
