Node Number	X Location (in)	Y Location (in)	Z Location (in)	Equivalent (von-Mises) Stress (psi)
1	0.4	5.6	0.	5091.7
2	0.8	5.6	0.	5603.
3	1.2	5.6	0.	5876.9
4	1.6	5.6	0.	5888.4
5	2.	5.6	0.	5829.3
6	2.4	5.6	0.	5725.1
7	2.8	5.6	0.	5602.5
8	3.2	5.6	0.	5471.5
9	3.6	5.6	0.	5338.
10	4.	5.6	0.	5204.5
11	4.4	5.6	0.	5072.4
12	4.8	5.6	0.	4942.2
13	5.2	5.6	0.	4814.
14	5.6	5.6	0.	4687.7
15	6.	5.6	0.	4563.1
16	6.4	5.6	0.	4440.1
17	6.8	5.6	0.	4318.5
18	7.2	5.6	0.	4198.2
19	7.6	5.6	0.	4079.2
20	8.	5.6	0.	3961.2
21	8.4	5.6	0.	3844.4
22	8.8	5.6	0.	3728.6
23	9.2	5.6	0.	3613.7
24	9.6	5.6	0.	3499.9
25	10.	5.6	0.	3387.
26	10.4	5.6	0.	3275.1
27	10.8	5.6	0.	3164.2
28	11.2	5.6	0.	3054.1
29	11.6	5.6	0.	2945.1
30	12.	5.6	0.	2836.9
31	12.4	5.6	0.	2729.8
32	12.8	5.6	0.	2623.5
33	13.2	5.6	0.	2518.2
34	13.6	5.6	0.	2413.9
35	14.	5.6	0.	2310.5
36	14.4	5.6	0.	2208.
37	14.8	5.6	0.	2106.5
38	15.2	5.6	0.	2006.
39	15.6	5.6	0.	1906.4
40	16.	5.6	0.	1807.7
41	16.4	5.6	0.	1710.
42	16.8	5.6	0.	1613.3
43	17.2	5.6	0.	1517.5
44	17.6	5.6	0.	1422.6
45	18.	5.6	0.	1328.7
46	18.4	5.6	0.	1235.7
47	18.8	5.6	0.	1143.6
48	19.2	5.6	0.	1052.4
49	19.6	5.6	0.	962.05
50	20.	5.6	0.	872.57
51	20.4	5.6	0.	783.92
52	20.8	5.6	0.	696.07
53	21.2	5.6	0.	609.01
54	21.6	5.6	0.	522.74
55	22.	5.6	0.	437.31
56	22.4	5.6	0.	352.89
57	22.8	5.6	0.	269.87
58	23.2	5.6	0.	189.7
59	23.6	5.6	0.	117.85
60	0.4	5.2	0.	5725.8
61	0.8	5.2	0.	5367.1
62	1.2	5.2	0.	5640.8
63	1.6	5.2	0.	5654.5
64	2.	5.2	0.	5623.7
65	2.4	5.2	0.	5545.4
66	2.8	5.2	0.	5447.4
67	3.2	5.2	0.	5338.3
68	3.6	5.2	0.	5224.1
69	4.	5.2	0.	5107.4
70	4.4	5.2	0.	4989.9
71	4.8	5.2	0.	4872.3
72	5.2	5.2	0.	4754.7
73	5.6	5.2	0.	4637.5
74	6.	5.2	0.	4520.6
75	6.4	5.2	0.	4404.
76	6.8	5.2	0.	4287.9
77	7.2	5.2	0.	4172.2
78	7.6	5.2	0.	4057.
79	8.	5.2	0.	3942.2
80	8.4	5.2	0.	3828.
81	8.8	5.2	0.	3714.4
82	9.2	5.2	0.	3601.5
83	9.6	5.2	0.	3489.2
84	10.	5.2	0.	3377.6
85	10.4	5.2	0.	3266.8
86	10.8	5.2	0.	3156.7
87	11.2	5.2	0.	3047.4
88	11.6	5.2	0.	2938.9
89	12.	5.2	0.	2831.2
90	12.4	5.2	0.	2724.4
91	12.8	5.2	0.	2618.5
92	13.2	5.2	0.	2513.5
93	13.6	5.2	0.	2409.3
94	14.	5.2	0.	2306.1
95	14.4	5.2	0.	2203.8
96	14.8	5.2	0.	2102.4
97	15.2	5.2	0.	2001.9
98	15.6	5.2	0.	1902.4
99	16.	5.2	0.	1803.8
100	16.4	5.2	0.	1706.2
101	16.8	5.2	0.	1609.5
102	17.2	5.2	0.	1513.8
103	17.6	5.2	0.	1419.1
104	18.	5.2	0.	1325.3
105	18.4	5.2	0.	1232.5
106	18.8	5.2	0.	1140.7
107	19.2	5.2	0.	1049.9
108	19.6	5.2	0.	960.09
109	20.	5.2	0.	871.26
110	20.4	5.2	0.	783.43
111	20.8	5.2	0.	696.64
112	21.2	5.2	0.	610.95
113	21.6	5.2	0.	526.46
114	22.	5.2	0.	443.41
115	22.4	5.2	0.	362.3
116	22.8	5.2	0.	284.16
117	23.2	5.2	0.	211.64
118	23.6	5.2	0.	150.48
119	0.4	4.8	0.	6208.6
120	0.8	4.8	0.	5434.
121	1.2	4.8	0.	5550.7
122	1.6	4.8	0.	5503.8
123	2.	4.8	0.	5466.
124	2.4	4.8	0.	5395.9
125	2.8	4.8	0.	5312.5
126	3.2	4.8	0.	5219.3
127	3.6	4.8	0.	5120.8
128	4.	4.8	0.	5018.7
129	4.4	4.8	0.	4914.2
130	4.8	4.8	0.	4807.9
131	5.2	4.8	0.	4700.2
132	5.6	4.8	0.	4591.4
133	6.	4.8	0.	4481.6
134	6.4	4.8	0.	4371.1
135	6.8	4.8	0.	4260.
136	7.2	4.8	0.	4148.6
137	7.6	4.8	0.	4037.
138	8.	4.8	0.	3925.2
139	8.4	4.8	0.	3813.6
140	8.8	4.8	0.	3702.1
141	9.2	4.8	0.	3590.9
142	9.6	4.8	0.	3480.
143	10.	4.8	0.	3369.6
144	10.4	4.8	0.	3259.8
145	10.8	4.8	0.	3150.5
146	11.2	4.8	0.	3041.9
147	11.6	4.8	0.	2934.
148	12.	4.8	0.	2826.9
149	12.4	4.8	0.	2720.4
150	12.8	4.8	0.	2614.8
151	13.2	4.8	0.	2510.1
152	13.6	4.8	0.	2406.1
153	14.	4.8	0.	2303.1
154	14.4	4.8	0.	2200.9
155	14.8	4.8	0.	2099.6
156	15.2	4.8	0.	1999.3
157	15.6	4.8	0.	1899.9
158	16.	4.8	0.	1801.4
159	16.4	4.8	0.	1703.9
160	16.8	4.8	0.	1607.4
161	17.2	4.8	0.	1511.8
162	17.6	4.8	0.	1417.3
163	18.	4.8	0.	1323.8
164	18.4	4.8	0.	1231.3
165	18.8	4.8	0.	1139.9
166	19.2	4.8	0.	1049.6
167	19.6	4.8	0.	960.36
168	20.	4.8	0.	872.29
169	20.4	4.8	0.	785.42
170	20.8	4.8	0.	699.83
171	21.2	4.8	0.	615.64
172	21.6	4.8	0.	533.06
173	22.	4.8	0.	452.44
174	22.4	4.8	0.	374.46
175	22.8	4.8	0.	300.3
176	23.2	4.8	0.	232.57
177	23.6	4.8	0.	176.
178	0.4	4.4	0.	6531.4
179	0.8	4.4	0.	5579.8
180	1.2	4.4	0.	5560.2
181	1.6	4.4	0.	5432.9
182	2.	4.4	0.	5362.6
183	2.4	4.4	0.	5284.4
184	2.8	4.4	0.	5205.
185	3.2	4.4	0.	5121.3
186	3.6	4.4	0.	5034.
187	4.	4.4	0.	4943.3
188	4.4	4.4	0.	4849.5
189	4.8	4.4	0.	4752.8
190	5.2	4.4	0.	4653.5
191	5.6	4.4	0.	4551.9
192	6.	4.4	0.	4448.3
193	6.4	4.4	0.	4343.
194	6.8	4.4	0.	4236.4
195	7.2	4.4	0.	4128.6
196	7.6	4.4	0.	4020.
197	8.	4.4	0.	3910.9
198	8.4	4.4	0.	3801.4
199	8.8	4.4	0.	3691.7
200	9.2	4.4	0.	3581.9
201	9.6	4.4	0.	3472.4
202	10.	4.4	0.	3363.
203	10.4	4.4	0.	3254.
204	10.8	4.4	0.	3145.5
205	11.2	4.4	0.	3037.5
206	11.6	4.4	0.	2930.1
207	12.	4.4	0.	2823.3
208	12.4	4.4	0.	2717.2
209	12.8	4.4	0.	2611.9
210	13.2	4.4	0.	2507.3
211	13.6	4.4	0.	2403.6
212	14.	4.4	0.	2300.7
213	14.4	4.4	0.	2198.7
214	14.8	4.4	0.	2097.5
215	15.2	4.4	0.	1997.3
216	15.6	4.4	0.	1898.
217	16.	4.4	0.	1799.6
218	16.4	4.4	0.	1702.3
219	16.8	4.4	0.	1605.9
220	17.2	4.4	0.	1510.5
221	17.6	4.4	0.	1416.2
222	18.	4.4	0.	1322.9
223	18.4	4.4	0.	1230.7
224	18.8	4.4	0.	1139.7
225	19.2	4.4	0.	1049.9
226	19.6	4.4	0.	961.24
227	20.	4.4	0.	873.9
228	20.4	4.4	0.	787.94
229	20.8	4.4	0.	703.48
230	21.2	4.4	0.	620.67
231	21.6	4.4	0.	539.77
232	22.	4.4	0.	461.18
233	22.4	4.4	0.	385.59
234	22.8	4.4	0.	314.12
235	23.2	4.4	0.	249.15
236	23.6	4.4	0.	195.11
237	0.4	4.	0.	6734.5
238	0.8	4.	0.	5705.7
239	1.2	4.	0.	5606.6
240	1.6	4.	0.	5411.2
241	2.	4.	0.	5303.7
242	2.4	4.	0.	5209.1
243	2.8	4.	0.	5126.6
244	3.2	4.	0.	5046.8
245	3.6	4.	0.	4966.6
246	4.	4.	0.	4884.1
247	4.4	4.	0.	4798.4
248	4.8	4.	0.	4709.2
249	5.2	4.	0.	4616.5
250	5.6	4.	0.	4520.7
251	6.	4.	0.	4422.
252	6.4	4.	0.	4320.8
253	6.8	4.	0.	4217.7
254	7.2	4.	0.	4112.8
255	7.6	4.	0.	4006.7
256	8.	4.	0.	3899.6
257	8.4	4.	0.	3791.8
258	8.8	4.	0.	3683.5
259	9.2	4.	0.	3575.
260	9.6	4.	0.	3466.4
261	10.	4.	0.	3357.8
262	10.4	4.	0.	3249.5
263	10.8	4.	0.	3141.6
264	11.2	4.	0.	3034.
265	11.6	4.	0.	2927.
266	12.	4.	0.	2820.6
267	12.4	4.	0.	2714.8
268	12.8	4.	0.	2609.6
269	13.2	4.	0.	2505.3
270	13.6	4.	0.	2401.7
271	14.	4.	0.	2298.9
272	14.4	4.	0.	2197.
273	14.8	4.	0.	2096.
274	15.2	4.	0.	1995.8
275	15.6	4.	0.	1896.6
276	16.	4.	0.	1798.4
277	16.4	4.	0.	1701.1
278	16.8	4.	0.	1604.8
279	17.2	4.	0.	1509.6
280	17.6	4.	0.	1415.5
281	18.	4.	0.	1322.4
282	18.4	4.	0.	1230.5
283	18.8	4.	0.	1139.8
284	19.2	4.	0.	1050.4
285	19.6	4.	0.	962.25
286	20.	4.	0.	875.54
287	20.4	4.	0.	790.34
288	20.8	4.	0.	706.8
289	21.2	4.	0.	625.1
290	21.6	4.	0.	545.5
291	22.	4.	0.	468.39
292	22.4	4.	0.	394.42
293	22.8	4.	0.	324.64
294	23.2	4.	0.	261.29
295	23.6	4.	0.	208.73
296	0.4	3.6	0.	6853.3
297	0.8	3.6	0.	5791.3
298	1.2	3.6	0.	5651.2
299	1.6	3.6	0.	5411.7
300	2.	3.6	0.	5274.9
301	2.4	3.6	0.	5164.5
302	2.8	3.6	0.	5076.5
303	3.2	3.6	0.	4997.3
304	3.6	3.6	0.	4920.9
305	4.	3.6	0.	4843.5
306	4.4	3.6	0.	4763.2
307	4.8	3.6	0.	4679.
308	5.2	3.6	0.	4590.9
309	5.6	3.6	0.	4499.
310	6.	3.6	0.	4403.7
311	6.4	3.6	0.	4305.5
312	6.8	3.6	0.	4204.7
313	7.2	3.6	0.	4101.9
314	7.6	3.6	0.	3997.5
315	8.	3.6	0.	3891.8
316	8.4	3.6	0.	3785.2
317	8.8	3.6	0.	3677.9
318	9.2	3.6	0.	3570.2
319	9.6	3.6	0.	3462.3
320	10.	3.6	0.	3354.3
321	10.4	3.6	0.	3246.5
322	10.8	3.6	0.	3138.9
323	11.2	3.6	0.	3031.7
324	11.6	3.6	0.	2924.9
325	12.	3.6	0.	2818.7
326	12.4	3.6	0.	2713.1
327	12.8	3.6	0.	2608.1
328	13.2	3.6	0.	2503.9
329	13.6	3.6	0.	2400.4
330	14.	3.6	0.	2297.8
331	14.4	3.6	0.	2195.9
332	14.8	3.6	0.	2094.9
333	15.2	3.6	0.	1994.9
334	15.6	3.6	0.	1895.7
335	16.	3.6	0.	1797.6
336	16.4	3.6	0.	1700.4
337	16.8	3.6	0.	1604.2
338	17.2	3.6	0.	1509.1
339	17.6	3.6	0.	1415.
340	18.	3.6	0.	1322.2
341	18.4	3.6	0.	1230.5
342	18.8	3.6	0.	1140.
343	19.2	3.6	0.	1050.8
344	19.6	3.6	0.	963.09
345	20.	3.6	0.	876.83
346	20.4	3.6	0.	792.18
347	20.8	3.6	0.	709.28
348	21.2	3.6	0.	628.34
349	21.6	3.6	0.	549.6
350	22.	3.6	0.	473.44
351	22.4	3.6	0.	400.45
352	22.8	3.6	0.	331.64
353	23.2	3.6	0.	269.22
354	23.6	3.6	0.	217.51
355	0.4	3.2	0.	6908.1
356	0.8	3.2	0.	5833.9
357	1.2	3.2	0.	5676.4
358	1.6	3.2	0.	5416.1
359	2.	3.2	0.	5263.8
360	2.4	3.2	0.	5144.2
361	2.8	3.2	0.	5052.3
362	3.2	3.2	0.	4972.7
363	3.6	3.2	0.	4897.9
364	4.	3.2	0.	4822.9
365	4.4	3.2	0.	4745.2
366	4.8	3.2	0.	4663.6
367	5.2	3.2	0.	4577.8
368	5.6	3.2	0.	4487.9
369	6.	3.2	0.	4394.4
370	6.4	3.2	0.	4297.6
371	6.8	3.2	0.	4198.1
372	7.2	3.2	0.	4096.4
373	7.6	3.2	0.	3992.8
374	8.	3.2	0.	3887.9
375	8.4	3.2	0.	3781.8
376	8.8	3.2	0.	3675.
377	9.2	3.2	0.	3567.8
378	9.6	3.2	0.	3460.2
379	10.	3.2	0.	3352.5
380	10.4	3.2	0.	3244.9
381	10.8	3.2	0.	3137.6
382	11.2	3.2	0.	3030.5
383	11.6	3.2	0.	2923.9
384	12.	3.2	0.	2817.8
385	12.4	3.2	0.	2712.2
386	12.8	3.2	0.	2607.4
387	13.2	3.2	0.	2503.2
388	13.6	3.2	0.	2399.8
389	14.	3.2	0.	2297.2
390	14.4	3.2	0.	2195.4
391	14.8	3.2	0.	2094.4
392	15.2	3.2	0.	1994.4
393	15.6	3.2	0.	1895.3
394	16.	3.2	0.	1797.2
395	16.4	3.2	0.	1700.
396	16.8	3.2	0.	1603.9
397	17.2	3.2	0.	1508.8
398	17.6	3.2	0.	1414.9
399	18.	3.2	0.	1322.1
400	18.4	3.2	0.	1230.5
401	18.8	3.2	0.	1140.1
402	19.2	3.2	0.	1051.1
403	19.6	3.2	0.	963.57
404	20.	3.2	0.	877.53
405	20.4	3.2	0.	793.16
406	20.8	3.2	0.	710.6
407	21.2	3.2	0.	630.04
408	21.6	3.2	0.	551.73
409	22.	3.2	0.	476.02
410	22.4	3.2	0.	403.49
411	22.8	3.2	0.	335.13
412	23.2	3.2	0.	273.13
413	23.6	3.2	0.	221.82
414	0.4	2.8	0.	6908.1
415	0.8	2.8	0.	5833.9
416	1.2	2.8	0.	5676.4
417	1.6	2.8	0.	5416.1
418	2.	2.8	0.	5263.8
419	2.4	2.8	0.	5144.2
420	2.8	2.8	0.	5052.3
421	3.2	2.8	0.	4972.7
422	3.6	2.8	0.	4897.9
423	4.	2.8	0.	4822.9
424	4.4	2.8	0.	4745.2
425	4.8	2.8	0.	4663.6
426	5.2	2.8	0.	4577.8
427	5.6	2.8	0.	4487.9
428	6.	2.8	0.	4394.4
429	6.4	2.8	0.	4297.6
430	6.8	2.8	0.	4198.1
431	7.2	2.8	0.	4096.4
432	7.6	2.8	0.	3992.8
433	8.	2.8	0.	3887.9
434	8.4	2.8	0.	3781.8
435	8.8	2.8	0.	3675.
436	9.2	2.8	0.	3567.8
437	9.6	2.8	0.	3460.2
438	10.	2.8	0.	3352.5
439	10.4	2.8	0.	3244.9
440	10.8	2.8	0.	3137.6
441	11.2	2.8	0.	3030.5
442	11.6	2.8	0.	2923.9
443	12.	2.8	0.	2817.8
444	12.4	2.8	0.	2712.2
445	12.8	2.8	0.	2607.4
446	13.2	2.8	0.	2503.2
447	13.6	2.8	0.	2399.8
448	14.	2.8	0.	2297.2
449	14.4	2.8	0.	2195.4
450	14.8	2.8	0.	2094.4
451	15.2	2.8	0.	1994.4
452	15.6	2.8	0.	1895.3
453	16.	2.8	0.	1797.2
454	16.4	2.8	0.	1700.
455	16.8	2.8	0.	1603.9
456	17.2	2.8	0.	1508.8
457	17.6	2.8	0.	1414.9
458	18.	2.8	0.	1322.1
459	18.4	2.8	0.	1230.5
460	18.8	2.8	0.	1140.1
461	19.2	2.8	0.	1051.1
462	19.6	2.8	0.	963.57
463	20.	2.8	0.	877.53
464	20.4	2.8	0.	793.16
465	20.8	2.8	0.	710.6
466	21.2	2.8	0.	630.04
467	21.6	2.8	0.	551.73
468	22.	2.8	0.	476.02
469	22.4	2.8	0.	403.49
470	22.8	2.8	0.	335.13
471	23.2	2.8	0.	273.13
472	23.6	2.8	0.	221.82
473	0.4	2.4	0.	6853.3
474	0.8	2.4	0.	5791.3
475	1.2	2.4	0.	5651.2
476	1.6	2.4	0.	5411.7
477	2.	2.4	0.	5274.9
478	2.4	2.4	0.	5164.5
479	2.8	2.4	0.	5076.5
480	3.2	2.4	0.	4997.3
481	3.6	2.4	0.	4920.9
482	4.	2.4	0.	4843.5
483	4.4	2.4	0.	4763.2
484	4.8	2.4	0.	4679.
485	5.2	2.4	0.	4590.9
486	5.6	2.4	0.	4499.
487	6.	2.4	0.	4403.7
488	6.4	2.4	0.	4305.5
489	6.8	2.4	0.	4204.7
490	7.2	2.4	0.	4101.9
491	7.6	2.4	0.	3997.5
492	8.	2.4	0.	3891.8
493	8.4	2.4	0.	3785.2
494	8.8	2.4	0.	3677.9
495	9.2	2.4	0.	3570.2
496	9.6	2.4	0.	3462.3
497	10.	2.4	0.	3354.3
498	10.4	2.4	0.	3246.5
499	10.8	2.4	0.	3138.9
500	11.2	2.4	0.	3031.7
501	11.6	2.4	0.	2924.9
502	12.	2.4	0.	2818.7
503	12.4	2.4	0.	2713.1
504	12.8	2.4	0.	2608.1
505	13.2	2.4	0.	2503.9
506	13.6	2.4	0.	2400.4
507	14.	2.4	0.	2297.8
508	14.4	2.4	0.	2195.9
509	14.8	2.4	0.	2094.9
510	15.2	2.4	0.	1994.9
511	15.6	2.4	0.	1895.7
512	16.	2.4	0.	1797.6
513	16.4	2.4	0.	1700.4
514	16.8	2.4	0.	1604.2
515	17.2	2.4	0.	1509.1
516	17.6	2.4	0.	1415.
517	18.	2.4	0.	1322.2
518	18.4	2.4	0.	1230.5
519	18.8	2.4	0.	1140.
520	19.2	2.4	0.	1050.8
521	19.6	2.4	0.	963.09
522	20.	2.4	0.	876.83
523	20.4	2.4	0.	792.18
524	20.8	2.4	0.	709.28
525	21.2	2.4	0.	628.34
526	21.6	2.4	0.	549.6
527	22.	2.4	0.	473.44
528	22.4	2.4	0.	400.45
529	22.8	2.4	0.	331.64
530	23.2	2.4	0.	269.22
531	23.6	2.4	0.	217.51
532	0.4	2.	0.	6734.5
533	0.8	2.	0.	5705.7
534	1.2	2.	0.	5606.6
535	1.6	2.	0.	5411.2
536	2.	2.	0.	5303.7
537	2.4	2.	0.	5209.1
538	2.8	2.	0.	5126.6
539	3.2	2.	0.	5046.8
540	3.6	2.	0.	4966.6
541	4.	2.	0.	4884.1
542	4.4	2.	0.	4798.4
543	4.8	2.	0.	4709.2
544	5.2	2.	0.	4616.5
545	5.6	2.	0.	4520.7
546	6.	2.	0.	4422.
547	6.4	2.	0.	4320.8
548	6.8	2.	0.	4217.7
549	7.2	2.	0.	4112.8
550	7.6	2.	0.	4006.7
551	8.	2.	0.	3899.6
552	8.4	2.	0.	3791.8
553	8.8	2.	0.	3683.5
554	9.2	2.	0.	3575.
555	9.6	2.	0.	3466.4
556	10.	2.	0.	3357.8
557	10.4	2.	0.	3249.5
558	10.8	2.	0.	3141.6
559	11.2	2.	0.	3034.
560	11.6	2.	0.	2927.
561	12.	2.	0.	2820.6
562	12.4	2.	0.	2714.8
563	12.8	2.	0.	2609.6
564	13.2	2.	0.	2505.3
565	13.6	2.	0.	2401.7
566	14.	2.	0.	2298.9
567	14.4	2.	0.	2197.
568	14.8	2.	0.	2096.
569	15.2	2.	0.	1995.8
570	15.6	2.	0.	1896.6
571	16.	2.	0.	1798.4
572	16.4	2.	0.	1701.1
573	16.8	2.	0.	1604.8
574	17.2	2.	0.	1509.6
575	17.6	2.	0.	1415.5
576	18.	2.	0.	1322.4
577	18.4	2.	0.	1230.5
578	18.8	2.	0.	1139.8
579	19.2	2.	0.	1050.4
580	19.6	2.	0.	962.25
581	20.	2.	0.	875.54
582	20.4	2.	0.	790.34
583	20.8	2.	0.	706.8
584	21.2	2.	0.	625.1
585	21.6	2.	0.	545.5
586	22.	2.	0.	468.39
587	22.4	2.	0.	394.42
588	22.8	2.	0.	324.64
589	23.2	2.	0.	261.29
590	23.6	2.	0.	208.73
591	0.4	1.6	0.	6531.4
592	0.8	1.6	0.	5579.8
593	1.2	1.6	0.	5560.2
594	1.6	1.6	0.	5432.9
595	2.	1.6	0.	5362.6
596	2.4	1.6	0.	5284.4
597	2.8	1.6	0.	5205.
598	3.2	1.6	0.	5121.3
599	3.6	1.6	0.	5034.
600	4.	1.6	0.	4943.3
601	4.4	1.6	0.	4849.5
602	4.8	1.6	0.	4752.8
603	5.2	1.6	0.	4653.5
604	5.6	1.6	0.	4551.9
605	6.	1.6	0.	4448.3
606	6.4	1.6	0.	4343.
607	6.8	1.6	0.	4236.4
608	7.2	1.6	0.	4128.6
609	7.6	1.6	0.	4020.
610	8.	1.6	0.	3910.9
611	8.4	1.6	0.	3801.4
612	8.8	1.6	0.	3691.7
613	9.2	1.6	0.	3581.9
614	9.6	1.6	0.	3472.4
615	10.	1.6	0.	3363.
616	10.4	1.6	0.	3254.
617	10.8	1.6	0.	3145.5
618	11.2	1.6	0.	3037.5
619	11.6	1.6	0.	2930.1
620	12.	1.6	0.	2823.3
621	12.4	1.6	0.	2717.2
622	12.8	1.6	0.	2611.9
623	13.2	1.6	0.	2507.3
624	13.6	1.6	0.	2403.6
625	14.	1.6	0.	2300.7
626	14.4	1.6	0.	2198.7
627	14.8	1.6	0.	2097.5
628	15.2	1.6	0.	1997.3
629	15.6	1.6	0.	1898.
630	16.	1.6	0.	1799.6
631	16.4	1.6	0.	1702.3
632	16.8	1.6	0.	1605.9
633	17.2	1.6	0.	1510.5
634	17.6	1.6	0.	1416.2
635	18.	1.6	0.	1322.9
636	18.4	1.6	0.	1230.7
637	18.8	1.6	0.	1139.7
638	19.2	1.6	0.	1049.9
639	19.6	1.6	0.	961.24
640	20.	1.6	0.	873.9
641	20.4	1.6	0.	787.94
642	20.8	1.6	0.	703.48
643	21.2	1.6	0.	620.67
644	21.6	1.6	0.	539.77
645	22.	1.6	0.	461.18
646	22.4	1.6	0.	385.59
647	22.8	1.6	0.	314.12
648	23.2	1.6	0.	249.15
649	23.6	1.6	0.	195.11
650	0.4	1.2	0.	6208.6
651	0.8	1.2	0.	5434.
652	1.2	1.2	0.	5550.7
653	1.6	1.2	0.	5503.8
654	2.	1.2	0.	5466.
655	2.4	1.2	0.	5395.9
656	2.8	1.2	0.	5312.5
657	3.2	1.2	0.	5219.3
658	3.6	1.2	0.	5120.8
659	4.	1.2	0.	5018.7
660	4.4	1.2	0.	4914.2
661	4.8	1.2	0.	4807.9
662	5.2	1.2	0.	4700.2
663	5.6	1.2	0.	4591.4
664	6.	1.2	0.	4481.6
665	6.4	1.2	0.	4371.1
666	6.8	1.2	0.	4260.
667	7.2	1.2	0.	4148.6
668	7.6	1.2	0.	4037.
669	8.	1.2	0.	3925.2
670	8.4	1.2	0.	3813.6
671	8.8	1.2	0.	3702.1
672	9.2	1.2	0.	3590.9
673	9.6	1.2	0.	3480.
674	10.	1.2	0.	3369.6
675	10.4	1.2	0.	3259.8
676	10.8	1.2	0.	3150.5
677	11.2	1.2	0.	3041.9
678	11.6	1.2	0.	2934.
679	12.	1.2	0.	2826.9
680	12.4	1.2	0.	2720.4
681	12.8	1.2	0.	2614.8
682	13.2	1.2	0.	2510.1
683	13.6	1.2	0.	2406.1
684	14.	1.2	0.	2303.1
685	14.4	1.2	0.	2200.9
686	14.8	1.2	0.	2099.6
687	15.2	1.2	0.	1999.3
688	15.6	1.2	0.	1899.9
689	16.	1.2	0.	1801.4
690	16.4	1.2	0.	1703.9
691	16.8	1.2	0.	1607.4
692	17.2	1.2	0.	1511.8
693	17.6	1.2	0.	1417.3
694	18.	1.2	0.	1323.8
695	18.4	1.2	0.	1231.3
696	18.8	1.2	0.	1139.9
697	19.2	1.2	0.	1049.6
698	19.6	1.2	0.	960.36
699	20.	1.2	0.	872.29
700	20.4	1.2	0.	785.42
701	20.8	1.2	0.	699.83
702	21.2	1.2	0.	615.64
703	21.6	1.2	0.	533.06
704	22.	1.2	0.	452.44
705	22.4	1.2	0.	374.46
706	22.8	1.2	0.	300.3
707	23.2	1.2	0.	232.57
708	23.6	1.2	0.	176.
709	0.4	0.8	0.	5725.8
710	0.8	0.8	0.	5367.1
711	1.2	0.8	0.	5640.8
712	1.6	0.8	0.	5654.5
713	2.	0.8	0.	5623.7
714	2.4	0.8	0.	5545.4
715	2.8	0.8	0.	5447.4
716	3.2	0.8	0.	5338.3
717	3.6	0.8	0.	5224.1
718	4.	0.8	0.	5107.4
719	4.4	0.8	0.	4989.9
720	4.8	0.8	0.	4872.3
721	5.2	0.8	0.	4754.7
722	5.6	0.8	0.	4637.5
723	6.	0.8	0.	4520.6
724	6.4	0.8	0.	4404.
725	6.8	0.8	0.	4287.9
726	7.2	0.8	0.	4172.2
727	7.6	0.8	0.	4057.
728	8.	0.8	0.	3942.2
729	8.4	0.8	0.	3828.
730	8.8	0.8	0.	3714.4
731	9.2	0.8	0.	3601.5
732	9.6	0.8	0.	3489.2
733	10.	0.8	0.	3377.6
734	10.4	0.8	0.	3266.8
735	10.8	0.8	0.	3156.7
736	11.2	0.8	0.	3047.4
737	11.6	0.8	0.	2938.9
738	12.	0.8	0.	2831.2
739	12.4	0.8	0.	2724.4
740	12.8	0.8	0.	2618.5
741	13.2	0.8	0.	2513.5
742	13.6	0.8	0.	2409.3
743	14.	0.8	0.	2306.1
744	14.4	0.8	0.	2203.8
745	14.8	0.8	0.	2102.4
746	15.2	0.8	0.	2001.9
747	15.6	0.8	0.	1902.4
748	16.	0.8	0.	1803.8
749	16.4	0.8	0.	1706.2
750	16.8	0.8	0.	1609.5
751	17.2	0.8	0.	1513.8
752	17.6	0.8	0.	1419.1
753	18.	0.8	0.	1325.3
754	18.4	0.8	0.	1232.5
755	18.8	0.8	0.	1140.7
756	19.2	0.8	0.	1049.9
757	19.6	0.8	0.	960.09
758	20.	0.8	0.	871.26
759	20.4	0.8	0.	783.43
760	20.8	0.8	0.	696.64
761	21.2	0.8	0.	610.95
762	21.6	0.8	0.	526.46
763	22.	0.8	0.	443.41
764	22.4	0.8	0.	362.3
765	22.8	0.8	0.	284.16
766	23.2	0.8	0.	211.64
767	23.6	0.8	0.	150.48
768	0.4	0.4	0.	5091.7
769	0.8	0.4	0.	5603.
770	1.2	0.4	0.	5876.9
771	1.6	0.4	0.	5888.4
772	2.	0.4	0.	5829.3
773	2.4	0.4	0.	5725.1
774	2.8	0.4	0.	5602.5
775	3.2	0.4	0.	5471.5
776	3.6	0.4	0.	5338.
777	4.	0.4	0.	5204.5
778	4.4	0.4	0.	5072.4
779	4.8	0.4	0.	4942.2
780	5.2	0.4	0.	4814.
781	5.6	0.4	0.	4687.7
782	6.	0.4	0.	4563.1
783	6.4	0.4	0.	4440.1
784	6.8	0.4	0.	4318.5
785	7.2	0.4	0.	4198.2
786	7.6	0.4	0.	4079.2
787	8.	0.4	0.	3961.2
788	8.4	0.4	0.	3844.4
789	8.8	0.4	0.	3728.6
790	9.2	0.4	0.	3613.7
791	9.6	0.4	0.	3499.9
792	10.	0.4	0.	3387.
793	10.4	0.4	0.	3275.1
794	10.8	0.4	0.	3164.2
795	11.2	0.4	0.	3054.1
796	11.6	0.4	0.	2945.1
797	12.	0.4	0.	2836.9
798	12.4	0.4	0.	2729.8
799	12.8	0.4	0.	2623.5
800	13.2	0.4	0.	2518.2
801	13.6	0.4	0.	2413.9
802	14.	0.4	0.	2310.5
803	14.4	0.4	0.	2208.
804	14.8	0.4	0.	2106.5
805	15.2	0.4	0.	2006.
806	15.6	0.4	0.	1906.4
807	16.	0.4	0.	1807.7
808	16.4	0.4	0.	1710.
809	16.8	0.4	0.	1613.3
810	17.2	0.4	0.	1517.5
811	17.6	0.4	0.	1422.6
812	18.	0.4	0.	1328.7
813	18.4	0.4	0.	1235.7
814	18.8	0.4	0.	1143.6
815	19.2	0.4	0.	1052.4
816	19.6	0.4	0.	962.05
817	20.	0.4	0.	872.57
818	20.4	0.4	0.	783.92
819	20.8	0.4	0.	696.07
820	21.2	0.4	0.	609.01
821	21.6	0.4	0.	522.74
822	22.	0.4	0.	437.31
823	22.4	0.4	0.	352.89
824	22.8	0.4	0.	269.87
825	23.2	0.4	0.	189.7
826	23.6	0.4	0.	117.85
827	23.6	0.4	0.1	117.85
828	23.2	0.4	0.1	189.7
829	22.8	0.4	0.1	269.87
830	22.4	0.4	0.1	352.89
831	22.	0.4	0.1	437.31
832	21.6	0.4	0.1	522.74
833	21.2	0.4	0.1	609.01
834	20.8	0.4	0.1	696.07
835	20.4	0.4	0.1	783.92
836	20.	0.4	0.1	872.57
837	19.6	0.4	0.1	962.05
838	19.2	0.4	0.1	1052.4
839	18.8	0.4	0.1	1143.6
840	18.4	0.4	0.1	1235.7
841	18.	0.4	0.1	1328.7
842	17.6	0.4	0.1	1422.6
843	17.2	0.4	0.1	1517.5
844	16.8	0.4	0.1	1613.3
845	16.4	0.4	0.1	1710.
846	16.	0.4	0.1	1807.7
847	15.6	0.4	0.1	1906.4
848	15.2	0.4	0.1	2006.
849	14.8	0.4	0.1	2106.5
850	14.4	0.4	0.1	2208.
851	14.	0.4	0.1	2310.5
852	13.6	0.4	0.1	2413.9
853	13.2	0.4	0.1	2518.2
854	12.8	0.4	0.1	2623.5
855	12.4	0.4	0.1	2729.8
856	12.	0.4	0.1	2836.9
857	11.6	0.4	0.1	2945.1
858	11.2	0.4	0.1	3054.1
859	10.8	0.4	0.1	3164.2
860	10.4	0.4	0.1	3275.1
861	10.	0.4	0.1	3387.
862	9.6	0.4	0.1	3499.9
863	9.2	0.4	0.1	3613.7
864	8.8	0.4	0.1	3728.6
865	8.4	0.4	0.1	3844.4
866	8.	0.4	0.1	3961.2
867	7.6	0.4	0.1	4079.2
868	7.2	0.4	0.1	4198.2
869	6.8	0.4	0.1	4318.5
870	6.4	0.4	0.1	4440.1
871	6.	0.4	0.1	4563.1
872	5.6	0.4	0.1	4687.7
873	5.2	0.4	0.1	4814.
874	4.8	0.4	0.1	4942.2
875	4.4	0.4	0.1	5072.4
876	4.	0.4	0.1	5204.5
877	3.6	0.4	0.1	5338.
878	3.2	0.4	0.1	5471.5
879	2.8	0.4	0.1	5602.5
880	2.4	0.4	0.1	5725.1
881	2.	0.4	0.1	5829.3
882	1.6	0.4	0.1	5888.4
883	1.2	0.4	0.1	5876.9
884	0.8	0.4	0.1	5603.
885	0.4	0.4	0.1	5091.7
886	23.6	0.8	0.1	150.48
887	23.2	0.8	0.1	211.64
888	22.8	0.8	0.1	284.16
889	22.4	0.8	0.1	362.3
890	22.	0.8	0.1	443.41
891	21.6	0.8	0.1	526.46
892	21.2	0.8	0.1	610.95
893	20.8	0.8	0.1	696.64
894	20.4	0.8	0.1	783.43
895	20.	0.8	0.1	871.26
896	19.6	0.8	0.1	960.09
897	19.2	0.8	0.1	1049.9
898	18.8	0.8	0.1	1140.7
899	18.4	0.8	0.1	1232.5
900	18.	0.8	0.1	1325.3
901	17.6	0.8	0.1	1419.1
902	17.2	0.8	0.1	1513.8
903	16.8	0.8	0.1	1609.5
904	16.4	0.8	0.1	1706.2
905	16.	0.8	0.1	1803.8
906	15.6	0.8	0.1	1902.4
907	15.2	0.8	0.1	2001.9
908	14.8	0.8	0.1	2102.4
909	14.4	0.8	0.1	2203.8
910	14.	0.8	0.1	2306.1
911	13.6	0.8	0.1	2409.3
912	13.2	0.8	0.1	2513.5
913	12.8	0.8	0.1	2618.5
914	12.4	0.8	0.1	2724.4
915	12.	0.8	0.1	2831.2
916	11.6	0.8	0.1	2938.9
917	11.2	0.8	0.1	3047.4
918	10.8	0.8	0.1	3156.7
919	10.4	0.8	0.1	3266.8
920	10.	0.8	0.1	3377.6
921	9.6	0.8	0.1	3489.2
922	9.2	0.8	0.1	3601.5
923	8.8	0.8	0.1	3714.4
924	8.4	0.8	0.1	3828.
925	8.	0.8	0.1	3942.2
926	7.6	0.8	0.1	4057.
927	7.2	0.8	0.1	4172.2
928	6.8	0.8	0.1	4287.9
929	6.4	0.8	0.1	4404.
930	6.	0.8	0.1	4520.6
931	5.6	0.8	0.1	4637.5
932	5.2	0.8	0.1	4754.7
933	4.8	0.8	0.1	4872.3
934	4.4	0.8	0.1	4989.9
935	4.	0.8	0.1	5107.4
936	3.6	0.8	0.1	5224.1
937	3.2	0.8	0.1	5338.3
938	2.8	0.8	0.1	5447.4
939	2.4	0.8	0.1	5545.4
940	2.	0.8	0.1	5623.7
941	1.6	0.8	0.1	5654.5
942	1.2	0.8	0.1	5640.8
943	0.8	0.8	0.1	5367.1
944	0.4	0.8	0.1	5725.8
945	23.6	1.2	0.1	176.
946	23.2	1.2	0.1	232.57
947	22.8	1.2	0.1	300.3
948	22.4	1.2	0.1	374.46
949	22.	1.2	0.1	452.44
950	21.6	1.2	0.1	533.06
951	21.2	1.2	0.1	615.64
952	20.8	1.2	0.1	699.83
953	20.4	1.2	0.1	785.42
954	20.	1.2	0.1	872.29
955	19.6	1.2	0.1	960.36
956	19.2	1.2	0.1	1049.6
957	18.8	1.2	0.1	1139.9
958	18.4	1.2	0.1	1231.3
959	18.	1.2	0.1	1323.8
960	17.6	1.2	0.1	1417.3
961	17.2	1.2	0.1	1511.8
962	16.8	1.2	0.1	1607.4
963	16.4	1.2	0.1	1703.9
964	16.	1.2	0.1	1801.4
965	15.6	1.2	0.1	1899.9
966	15.2	1.2	0.1	1999.3
967	14.8	1.2	0.1	2099.6
968	14.4	1.2	0.1	2200.9
969	14.	1.2	0.1	2303.1
970	13.6	1.2	0.1	2406.1
971	13.2	1.2	0.1	2510.1
972	12.8	1.2	0.1	2614.8
973	12.4	1.2	0.1	2720.4
974	12.	1.2	0.1	2826.9
975	11.6	1.2	0.1	2934.
976	11.2	1.2	0.1	3041.9
977	10.8	1.2	0.1	3150.5
978	10.4	1.2	0.1	3259.8
979	10.	1.2	0.1	3369.6
980	9.6	1.2	0.1	3480.
981	9.2	1.2	0.1	3590.9
982	8.8	1.2	0.1	3702.1
983	8.4	1.2	0.1	3813.6
984	8.	1.2	0.1	3925.2
985	7.6	1.2	0.1	4037.
986	7.2	1.2	0.1	4148.6
987	6.8	1.2	0.1	4260.
988	6.4	1.2	0.1	4371.1
989	6.	1.2	0.1	4481.6
990	5.6	1.2	0.1	4591.4
991	5.2	1.2	0.1	4700.2
992	4.8	1.2	0.1	4807.9
993	4.4	1.2	0.1	4914.2
994	4.	1.2	0.1	5018.7
995	3.6	1.2	0.1	5120.8
996	3.2	1.2	0.1	5219.3
997	2.8	1.2	0.1	5312.5
998	2.4	1.2	0.1	5395.9
999	2.	1.2	0.1	5466.
1000	1.6	1.2	0.1	5503.8
1001	1.2	1.2	0.1	5550.7
1002	0.8	1.2	0.1	5434.
1003	0.4	1.2	0.1	6208.6
1004	23.6	1.6	0.1	195.11
1005	23.2	1.6	0.1	249.15
1006	22.8	1.6	0.1	314.12
1007	22.4	1.6	0.1	385.59
1008	22.	1.6	0.1	461.18
1009	21.6	1.6	0.1	539.77
1010	21.2	1.6	0.1	620.67
1011	20.8	1.6	0.1	703.48
1012	20.4	1.6	0.1	787.94
1013	20.	1.6	0.1	873.9
1014	19.6	1.6	0.1	961.24
1015	19.2	1.6	0.1	1049.9
1016	18.8	1.6	0.1	1139.7
1017	18.4	1.6	0.1	1230.7
1018	18.	1.6	0.1	1322.9
1019	17.6	1.6	0.1	1416.2
1020	17.2	1.6	0.1	1510.5
1021	16.8	1.6	0.1	1605.9
1022	16.4	1.6	0.1	1702.3
1023	16.	1.6	0.1	1799.6
1024	15.6	1.6	0.1	1898.
1025	15.2	1.6	0.1	1997.3
1026	14.8	1.6	0.1	2097.5
1027	14.4	1.6	0.1	2198.7
1028	14.	1.6	0.1	2300.7
1029	13.6	1.6	0.1	2403.6
1030	13.2	1.6	0.1	2507.3
1031	12.8	1.6	0.1	2611.9
1032	12.4	1.6	0.1	2717.2
1033	12.	1.6	0.1	2823.3
1034	11.6	1.6	0.1	2930.1
1035	11.2	1.6	0.1	3037.5
1036	10.8	1.6	0.1	3145.5
1037	10.4	1.6	0.1	3254.
1038	10.	1.6	0.1	3363.
1039	9.6	1.6	0.1	3472.4
1040	9.2	1.6	0.1	3581.9
1041	8.8	1.6	0.1	3691.7
1042	8.4	1.6	0.1	3801.4
1043	8.	1.6	0.1	3910.9
1044	7.6	1.6	0.1	4020.
1045	7.2	1.6	0.1	4128.6
1046	6.8	1.6	0.1	4236.4
1047	6.4	1.6	0.1	4343.
1048	6.	1.6	0.1	4448.3
1049	5.6	1.6	0.1	4551.9
1050	5.2	1.6	0.1	4653.5
1051	4.8	1.6	0.1	4752.8
1052	4.4	1.6	0.1	4849.5
1053	4.	1.6	0.1	4943.3
1054	3.6	1.6	0.1	5034.
1055	3.2	1.6	0.1	5121.3
1056	2.8	1.6	0.1	5205.
1057	2.4	1.6	0.1	5284.4
1058	2.	1.6	0.1	5362.6
1059	1.6	1.6	0.1	5432.9
1060	1.2	1.6	0.1	5560.2
1061	0.8	1.6	0.1	5579.8
1062	0.4	1.6	0.1	6531.4
1063	23.6	2.	0.1	208.73
1064	23.2	2.	0.1	261.29
1065	22.8	2.	0.1	324.64
1066	22.4	2.	0.1	394.42
1067	22.	2.	0.1	468.39
1068	21.6	2.	0.1	545.5
1069	21.2	2.	0.1	625.1
1070	20.8	2.	0.1	706.8
1071	20.4	2.	0.1	790.34
1072	20.	2.	0.1	875.54
1073	19.6	2.	0.1	962.25
1074	19.2	2.	0.1	1050.4
1075	18.8	2.	0.1	1139.8
1076	18.4	2.	0.1	1230.5
1077	18.	2.	0.1	1322.4
1078	17.6	2.	0.1	1415.5
1079	17.2	2.	0.1	1509.6
1080	16.8	2.	0.1	1604.8
1081	16.4	2.	0.1	1701.1
1082	16.	2.	0.1	1798.4
1083	15.6	2.	0.1	1896.6
1084	15.2	2.	0.1	1995.8
1085	14.8	2.	0.1	2096.
1086	14.4	2.	0.1	2197.
1087	14.	2.	0.1	2298.9
1088	13.6	2.	0.1	2401.7
1089	13.2	2.	0.1	2505.3
1090	12.8	2.	0.1	2609.6
1091	12.4	2.	0.1	2714.8
1092	12.	2.	0.1	2820.6
1093	11.6	2.	0.1	2927.
1094	11.2	2.	0.1	3034.
1095	10.8	2.	0.1	3141.6
1096	10.4	2.	0.1	3249.5
1097	10.	2.	0.1	3357.8
1098	9.6	2.	0.1	3466.4
1099	9.2	2.	0.1	3575.
1100	8.8	2.	0.1	3683.5
1101	8.4	2.	0.1	3791.8
1102	8.	2.	0.1	3899.6
1103	7.6	2.	0.1	4006.7
1104	7.2	2.	0.1	4112.8
1105	6.8	2.	0.1	4217.7
1106	6.4	2.	0.1	4320.8
1107	6.	2.	0.1	4422.
1108	5.6	2.	0.1	4520.7
1109	5.2	2.	0.1	4616.5
1110	4.8	2.	0.1	4709.2
1111	4.4	2.	0.1	4798.4
1112	4.	2.	0.1	4884.1
1113	3.6	2.	0.1	4966.6
1114	3.2	2.	0.1	5046.8
1115	2.8	2.	0.1	5126.6
1116	2.4	2.	0.1	5209.1
1117	2.	2.	0.1	5303.7
1118	1.6	2.	0.1	5411.2
1119	1.2	2.	0.1	5606.6
1120	0.8	2.	0.1	5705.7
1121	0.4	2.	0.1	6734.5
1122	23.6	2.4	0.1	217.51
1123	23.2	2.4	0.1	269.22
1124	22.8	2.4	0.1	331.64
1125	22.4	2.4	0.1	400.45
1126	22.	2.4	0.1	473.44
1127	21.6	2.4	0.1	549.6
1128	21.2	2.4	0.1	628.34
1129	20.8	2.4	0.1	709.28
1130	20.4	2.4	0.1	792.18
1131	20.	2.4	0.1	876.83
1132	19.6	2.4	0.1	963.09
1133	19.2	2.4	0.1	1050.8
1134	18.8	2.4	0.1	1140.
1135	18.4	2.4	0.1	1230.5
1136	18.	2.4	0.1	1322.2
1137	17.6	2.4	0.1	1415.
1138	17.2	2.4	0.1	1509.1
1139	16.8	2.4	0.1	1604.2
1140	16.4	2.4	0.1	1700.4
1141	16.	2.4	0.1	1797.6
1142	15.6	2.4	0.1	1895.7
1143	15.2	2.4	0.1	1994.9
1144	14.8	2.4	0.1	2094.9
1145	14.4	2.4	0.1	2195.9
1146	14.	2.4	0.1	2297.8
1147	13.6	2.4	0.1	2400.4
1148	13.2	2.4	0.1	2503.9
1149	12.8	2.4	0.1	2608.1
1150	12.4	2.4	0.1	2713.1
1151	12.	2.4	0.1	2818.7
1152	11.6	2.4	0.1	2924.9
1153	11.2	2.4	0.1	3031.7
1154	10.8	2.4	0.1	3138.9
1155	10.4	2.4	0.1	3246.5
1156	10.	2.4	0.1	3354.3
1157	9.6	2.4	0.1	3462.3
1158	9.2	2.4	0.1	3570.2
1159	8.8	2.4	0.1	3677.9
1160	8.4	2.4	0.1	3785.2
1161	8.	2.4	0.1	3891.8
1162	7.6	2.4	0.1	3997.5
1163	7.2	2.4	0.1	4101.9
1164	6.8	2.4	0.1	4204.7
1165	6.4	2.4	0.1	4305.5
1166	6.	2.4	0.1	4403.7
1167	5.6	2.4	0.1	4499.
1168	5.2	2.4	0.1	4590.9
1169	4.8	2.4	0.1	4679.
1170	4.4	2.4	0.1	4763.2
1171	4.	2.4	0.1	4843.5
1172	3.6	2.4	0.1	4920.9
1173	3.2	2.4	0.1	4997.3
1174	2.8	2.4	0.1	5076.5
1175	2.4	2.4	0.1	5164.5
1176	2.	2.4	0.1	5274.9
1177	1.6	2.4	0.1	5411.7
1178	1.2	2.4	0.1	5651.2
1179	0.8	2.4	0.1	5791.3
1180	0.4	2.4	0.1	6853.3
1181	23.6	2.8	0.1	221.82
1182	23.2	2.8	0.1	273.13
1183	22.8	2.8	0.1	335.13
1184	22.4	2.8	0.1	403.49
1185	22.	2.8	0.1	476.02
1186	21.6	2.8	0.1	551.73
1187	21.2	2.8	0.1	630.04
1188	20.8	2.8	0.1	710.6
1189	20.4	2.8	0.1	793.16
1190	20.	2.8	0.1	877.53
1191	19.6	2.8	0.1	963.57
1192	19.2	2.8	0.1	1051.1
1193	18.8	2.8	0.1	1140.1
1194	18.4	2.8	0.1	1230.5
1195	18.	2.8	0.1	1322.1
1196	17.6	2.8	0.1	1414.9
1197	17.2	2.8	0.1	1508.8
1198	16.8	2.8	0.1	1603.9
1199	16.4	2.8	0.1	1700.
1200	16.	2.8	0.1	1797.2
1201	15.6	2.8	0.1	1895.3
1202	15.2	2.8	0.1	1994.4
1203	14.8	2.8	0.1	2094.4
1204	14.4	2.8	0.1	2195.4
1205	14.	2.8	0.1	2297.2
1206	13.6	2.8	0.1	2399.8
1207	13.2	2.8	0.1	2503.2
1208	12.8	2.8	0.1	2607.4
1209	12.4	2.8	0.1	2712.2
1210	12.	2.8	0.1	2817.8
1211	11.6	2.8	0.1	2923.9
1212	11.2	2.8	0.1	3030.5
1213	10.8	2.8	0.1	3137.6
1214	10.4	2.8	0.1	3244.9
1215	10.	2.8	0.1	3352.5
1216	9.6	2.8	0.1	3460.2
1217	9.2	2.8	0.1	3567.8
1218	8.8	2.8	0.1	3675.
1219	8.4	2.8	0.1	3781.8
1220	8.	2.8	0.1	3887.9
1221	7.6	2.8	0.1	3992.8
1222	7.2	2.8	0.1	4096.4
1223	6.8	2.8	0.1	4198.1
1224	6.4	2.8	0.1	4297.6
1225	6.	2.8	0.1	4394.4
1226	5.6	2.8	0.1	4487.9
1227	5.2	2.8	0.1	4577.8
1228	4.8	2.8	0.1	4663.6
1229	4.4	2.8	0.1	4745.2
1230	4.	2.8	0.1	4822.9
1231	3.6	2.8	0.1	4897.9
1232	3.2	2.8	0.1	4972.7
1233	2.8	2.8	0.1	5052.3
1234	2.4	2.8	0.1	5144.2
1235	2.	2.8	0.1	5263.8
1236	1.6	2.8	0.1	5416.1
1237	1.2	2.8	0.1	5676.4
1238	0.8	2.8	0.1	5833.9
1239	0.4	2.8	0.1	6908.1
1240	23.6	3.2	0.1	221.82
1241	23.2	3.2	0.1	273.13
1242	22.8	3.2	0.1	335.13
1243	22.4	3.2	0.1	403.49
1244	22.	3.2	0.1	476.02
1245	21.6	3.2	0.1	551.73
1246	21.2	3.2	0.1	630.04
1247	20.8	3.2	0.1	710.6
1248	20.4	3.2	0.1	793.16
1249	20.	3.2	0.1	877.53
1250	19.6	3.2	0.1	963.57
1251	19.2	3.2	0.1	1051.1
1252	18.8	3.2	0.1	1140.1
1253	18.4	3.2	0.1	1230.5
1254	18.	3.2	0.1	1322.1
1255	17.6	3.2	0.1	1414.9
1256	17.2	3.2	0.1	1508.8
1257	16.8	3.2	0.1	1603.9
1258	16.4	3.2	0.1	1700.
1259	16.	3.2	0.1	1797.2
1260	15.6	3.2	0.1	1895.3
1261	15.2	3.2	0.1	1994.4
1262	14.8	3.2	0.1	2094.4
1263	14.4	3.2	0.1	2195.4
1264	14.	3.2	0.1	2297.2
1265	13.6	3.2	0.1	2399.8
1266	13.2	3.2	0.1	2503.2
1267	12.8	3.2	0.1	2607.4
1268	12.4	3.2	0.1	2712.2
1269	12.	3.2	0.1	2817.8
1270	11.6	3.2	0.1	2923.9
1271	11.2	3.2	0.1	3030.5
1272	10.8	3.2	0.1	3137.6
1273	10.4	3.2	0.1	3244.9
1274	10.	3.2	0.1	3352.5
1275	9.6	3.2	0.1	3460.2
1276	9.2	3.2	0.1	3567.8
1277	8.8	3.2	0.1	3675.
1278	8.4	3.2	0.1	3781.8
1279	8.	3.2	0.1	3887.9
1280	7.6	3.2	0.1	3992.8
1281	7.2	3.2	0.1	4096.4
1282	6.8	3.2	0.1	4198.1
1283	6.4	3.2	0.1	4297.6
1284	6.	3.2	0.1	4394.4
1285	5.6	3.2	0.1	4487.9
1286	5.2	3.2	0.1	4577.8
1287	4.8	3.2	0.1	4663.6
1288	4.4	3.2	0.1	4745.2
1289	4.	3.2	0.1	4822.9
1290	3.6	3.2	0.1	4897.9
1291	3.2	3.2	0.1	4972.7
1292	2.8	3.2	0.1	5052.3
1293	2.4	3.2	0.1	5144.2
1294	2.	3.2	0.1	5263.8
1295	1.6	3.2	0.1	5416.1
1296	1.2	3.2	0.1	5676.4
1297	0.8	3.2	0.1	5833.9
1298	0.4	3.2	0.1	6908.1
1299	23.6	3.6	0.1	217.51
1300	23.2	3.6	0.1	269.22
1301	22.8	3.6	0.1	331.64
1302	22.4	3.6	0.1	400.45
1303	22.	3.6	0.1	473.44
1304	21.6	3.6	0.1	549.6
1305	21.2	3.6	0.1	628.34
1306	20.8	3.6	0.1	709.28
1307	20.4	3.6	0.1	792.18
1308	20.	3.6	0.1	876.83
1309	19.6	3.6	0.1	963.09
1310	19.2	3.6	0.1	1050.8
1311	18.8	3.6	0.1	1140.
1312	18.4	3.6	0.1	1230.5
1313	18.	3.6	0.1	1322.2
1314	17.6	3.6	0.1	1415.
1315	17.2	3.6	0.1	1509.1
1316	16.8	3.6	0.1	1604.2
1317	16.4	3.6	0.1	1700.4
1318	16.	3.6	0.1	1797.6
1319	15.6	3.6	0.1	1895.7
1320	15.2	3.6	0.1	1994.9
1321	14.8	3.6	0.1	2094.9
1322	14.4	3.6	0.1	2195.9
1323	14.	3.6	0.1	2297.8
1324	13.6	3.6	0.1	2400.4
1325	13.2	3.6	0.1	2503.9
1326	12.8	3.6	0.1	2608.1
1327	12.4	3.6	0.1	2713.1
1328	12.	3.6	0.1	2818.7
1329	11.6	3.6	0.1	2924.9
1330	11.2	3.6	0.1	3031.7
1331	10.8	3.6	0.1	3138.9
1332	10.4	3.6	0.1	3246.5
1333	10.	3.6	0.1	3354.3
1334	9.6	3.6	0.1	3462.3
1335	9.2	3.6	0.1	3570.2
1336	8.8	3.6	0.1	3677.9
1337	8.4	3.6	0.1	3785.2
1338	8.	3.6	0.1	3891.8
1339	7.6	3.6	0.1	3997.5
1340	7.2	3.6	0.1	4101.9
1341	6.8	3.6	0.1	4204.7
1342	6.4	3.6	0.1	4305.5
1343	6.	3.6	0.1	4403.7
1344	5.6	3.6	0.1	4499.
1345	5.2	3.6	0.1	4590.9
1346	4.8	3.6	0.1	4679.
1347	4.4	3.6	0.1	4763.2
1348	4.	3.6	0.1	4843.5
1349	3.6	3.6	0.1	4920.9
1350	3.2	3.6	0.1	4997.3
1351	2.8	3.6	0.1	5076.5
1352	2.4	3.6	0.1	5164.5
1353	2.	3.6	0.1	5274.9
1354	1.6	3.6	0.1	5411.7
1355	1.2	3.6	0.1	5651.2
1356	0.8	3.6	0.1	5791.3
1357	0.4	3.6	0.1	6853.3
1358	23.6	4.	0.1	208.73
1359	23.2	4.	0.1	261.29
1360	22.8	4.	0.1	324.64
1361	22.4	4.	0.1	394.42
1362	22.	4.	0.1	468.39
1363	21.6	4.	0.1	545.5
1364	21.2	4.	0.1	625.1
1365	20.8	4.	0.1	706.8
1366	20.4	4.	0.1	790.34
1367	20.	4.	0.1	875.54
1368	19.6	4.	0.1	962.25
1369	19.2	4.	0.1	1050.4
1370	18.8	4.	0.1	1139.8
1371	18.4	4.	0.1	1230.5
1372	18.	4.	0.1	1322.4
1373	17.6	4.	0.1	1415.5
1374	17.2	4.	0.1	1509.6
1375	16.8	4.	0.1	1604.8
1376	16.4	4.	0.1	1701.1
1377	16.	4.	0.1	1798.4
1378	15.6	4.	0.1	1896.6
1379	15.2	4.	0.1	1995.8
1380	14.8	4.	0.1	2096.
1381	14.4	4.	0.1	2197.
1382	14.	4.	0.1	2298.9
1383	13.6	4.	0.1	2401.7
1384	13.2	4.	0.1	2505.3
1385	12.8	4.	0.1	2609.6
1386	12.4	4.	0.1	2714.8
1387	12.	4.	0.1	2820.6
1388	11.6	4.	0.1	2927.
1389	11.2	4.	0.1	3034.
1390	10.8	4.	0.1	3141.6
1391	10.4	4.	0.1	3249.5
1392	10.	4.	0.1	3357.8
1393	9.6	4.	0.1	3466.4
1394	9.2	4.	0.1	3575.
1395	8.8	4.	0.1	3683.5
1396	8.4	4.	0.1	3791.8
1397	8.	4.	0.1	3899.6
1398	7.6	4.	0.1	4006.7
1399	7.2	4.	0.1	4112.8
1400	6.8	4.	0.1	4217.7
1401	6.4	4.	0.1	4320.8
1402	6.	4.	0.1	4422.
1403	5.6	4.	0.1	4520.7
1404	5.2	4.	0.1	4616.5
1405	4.8	4.	0.1	4709.2
1406	4.4	4.	0.1	4798.4
1407	4.	4.	0.1	4884.1
1408	3.6	4.	0.1	4966.6
1409	3.2	4.	0.1	5046.8
1410	2.8	4.	0.1	5126.6
1411	2.4	4.	0.1	5209.1
1412	2.	4.	0.1	5303.7
1413	1.6	4.	0.1	5411.2
1414	1.2	4.	0.1	5606.6
1415	0.8	4.	0.1	5705.7
1416	0.4	4.	0.1	6734.5
1417	23.6	4.4	0.1	195.11
1418	23.2	4.4	0.1	249.15
1419	22.8	4.4	0.1	314.12
1420	22.4	4.4	0.1	385.59
1421	22.	4.4	0.1	461.18
1422	21.6	4.4	0.1	539.77
1423	21.2	4.4	0.1	620.67
1424	20.8	4.4	0.1	703.48
1425	20.4	4.4	0.1	787.94
1426	20.	4.4	0.1	873.9
1427	19.6	4.4	0.1	961.24
1428	19.2	4.4	0.1	1049.9
1429	18.8	4.4	0.1	1139.7
1430	18.4	4.4	0.1	1230.7
1431	18.	4.4	0.1	1322.9
1432	17.6	4.4	0.1	1416.2
1433	17.2	4.4	0.1	1510.5
1434	16.8	4.4	0.1	1605.9
1435	16.4	4.4	0.1	1702.3
1436	16.	4.4	0.1	1799.6
1437	15.6	4.4	0.1	1898.
1438	15.2	4.4	0.1	1997.3
1439	14.8	4.4	0.1	2097.5
1440	14.4	4.4	0.1	2198.7
1441	14.	4.4	0.1	2300.7
1442	13.6	4.4	0.1	2403.6
1443	13.2	4.4	0.1	2507.3
1444	12.8	4.4	0.1	2611.9
1445	12.4	4.4	0.1	2717.2
1446	12.	4.4	0.1	2823.3
1447	11.6	4.4	0.1	2930.1
1448	11.2	4.4	0.1	3037.5
1449	10.8	4.4	0.1	3145.5
1450	10.4	4.4	0.1	3254.
1451	10.	4.4	0.1	3363.
1452	9.6	4.4	0.1	3472.4
1453	9.2	4.4	0.1	3581.9
1454	8.8	4.4	0.1	3691.7
1455	8.4	4.4	0.1	3801.4
1456	8.	4.4	0.1	3910.9
1457	7.6	4.4	0.1	4020.
1458	7.2	4.4	0.1	4128.6
1459	6.8	4.4	0.1	4236.4
1460	6.4	4.4	0.1	4343.
1461	6.	4.4	0.1	4448.3
1462	5.6	4.4	0.1	4551.9
1463	5.2	4.4	0.1	4653.5
1464	4.8	4.4	0.1	4752.8
1465	4.4	4.4	0.1	4849.5
1466	4.	4.4	0.1	4943.3
1467	3.6	4.4	0.1	5034.
1468	3.2	4.4	0.1	5121.3
1469	2.8	4.4	0.1	5205.
1470	2.4	4.4	0.1	5284.4
1471	2.	4.4	0.1	5362.6
1472	1.6	4.4	0.1	5432.9
1473	1.2	4.4	0.1	5560.2
1474	0.8	4.4	0.1	5579.8
1475	0.4	4.4	0.1	6531.4
1476	23.6	4.8	0.1	176.
1477	23.2	4.8	0.1	232.57
1478	22.8	4.8	0.1	300.3
1479	22.4	4.8	0.1	374.46
1480	22.	4.8	0.1	452.44
1481	21.6	4.8	0.1	533.06
1482	21.2	4.8	0.1	615.64
1483	20.8	4.8	0.1	699.83
1484	20.4	4.8	0.1	785.42
1485	20.	4.8	0.1	872.29
1486	19.6	4.8	0.1	960.36
1487	19.2	4.8	0.1	1049.6
1488	18.8	4.8	0.1	1139.9
1489	18.4	4.8	0.1	1231.3
1490	18.	4.8	0.1	1323.8
1491	17.6	4.8	0.1	1417.3
1492	17.2	4.8	0.1	1511.8
1493	16.8	4.8	0.1	1607.4
1494	16.4	4.8	0.1	1703.9
1495	16.	4.8	0.1	1801.4
1496	15.6	4.8	0.1	1899.9
1497	15.2	4.8	0.1	1999.3
1498	14.8	4.8	0.1	2099.6
1499	14.4	4.8	0.1	2200.9
1500	14.	4.8	0.1	2303.1
1501	13.6	4.8	0.1	2406.1
1502	13.2	4.8	0.1	2510.1
1503	12.8	4.8	0.1	2614.8
1504	12.4	4.8	0.1	2720.4
1505	12.	4.8	0.1	2826.9
1506	11.6	4.8	0.1	2934.
1507	11.2	4.8	0.1	3041.9
1508	10.8	4.8	0.1	3150.5
1509	10.4	4.8	0.1	3259.8
1510	10.	4.8	0.1	3369.6
1511	9.6	4.8	0.1	3480.
1512	9.2	4.8	0.1	3590.9
1513	8.8	4.8	0.1	3702.1
1514	8.4	4.8	0.1	3813.6
1515	8.	4.8	0.1	3925.2
1516	7.6	4.8	0.1	4037.
1517	7.2	4.8	0.1	4148.6
1518	6.8	4.8	0.1	4260.
1519	6.4	4.8	0.1	4371.1
1520	6.	4.8	0.1	4481.6
1521	5.6	4.8	0.1	4591.4
1522	5.2	4.8	0.1	4700.2
1523	4.8	4.8	0.1	4807.9
1524	4.4	4.8	0.1	4914.2
1525	4.	4.8	0.1	5018.7
1526	3.6	4.8	0.1	5120.8
1527	3.2	4.8	0.1	5219.3
1528	2.8	4.8	0.1	5312.5
1529	2.4	4.8	0.1	5395.9
1530	2.	4.8	0.1	5466.
1531	1.6	4.8	0.1	5503.8
1532	1.2	4.8	0.1	5550.7
1533	0.8	4.8	0.1	5434.
1534	0.4	4.8	0.1	6208.6
1535	23.6	5.2	0.1	150.48
1536	23.2	5.2	0.1	211.64
1537	22.8	5.2	0.1	284.16
1538	22.4	5.2	0.1	362.3
1539	22.	5.2	0.1	443.41
1540	21.6	5.2	0.1	526.46
1541	21.2	5.2	0.1	610.95
1542	20.8	5.2	0.1	696.64
1543	20.4	5.2	0.1	783.43
1544	20.	5.2	0.1	871.26
1545	19.6	5.2	0.1	960.09
1546	19.2	5.2	0.1	1049.9
1547	18.8	5.2	0.1	1140.7
1548	18.4	5.2	0.1	1232.5
1549	18.	5.2	0.1	1325.3
1550	17.6	5.2	0.1	1419.1
1551	17.2	5.2	0.1	1513.8
1552	16.8	5.2	0.1	1609.5
1553	16.4	5.2	0.1	1706.2
1554	16.	5.2	0.1	1803.8
1555	15.6	5.2	0.1	1902.4
1556	15.2	5.2	0.1	2001.9
1557	14.8	5.2	0.1	2102.4
1558	14.4	5.2	0.1	2203.8
1559	14.	5.2	0.1	2306.1
1560	13.6	5.2	0.1	2409.3
1561	13.2	5.2	0.1	2513.5
1562	12.8	5.2	0.1	2618.5
1563	12.4	5.2	0.1	2724.4
1564	12.	5.2	0.1	2831.2
1565	11.6	5.2	0.1	2938.9
1566	11.2	5.2	0.1	3047.4
1567	10.8	5.2	0.1	3156.7
1568	10.4	5.2	0.1	3266.8
1569	10.	5.2	0.1	3377.6
1570	9.6	5.2	0.1	3489.2
1571	9.2	5.2	0.1	3601.5
1572	8.8	5.2	0.1	3714.4
1573	8.4	5.2	0.1	3828.
1574	8.	5.2	0.1	3942.2
1575	7.6	5.2	0.1	4057.
1576	7.2	5.2	0.1	4172.2
1577	6.8	5.2	0.1	4287.9
1578	6.4	5.2	0.1	4404.
1579	6.	5.2	0.1	4520.6
1580	5.6	5.2	0.1	4637.5
1581	5.2	5.2	0.1	4754.7
1582	4.8	5.2	0.1	4872.3
1583	4.4	5.2	0.1	4989.9
1584	4.	5.2	0.1	5107.4
1585	3.6	5.2	0.1	5224.1
1586	3.2	5.2	0.1	5338.3
1587	2.8	5.2	0.1	5447.4
1588	2.4	5.2	0.1	5545.4
1589	2.	5.2	0.1	5623.7
1590	1.6	5.2	0.1	5654.5
1591	1.2	5.2	0.1	5640.8
1592	0.8	5.2	0.1	5367.1
1593	0.4	5.2	0.1	5725.8
1594	23.6	5.6	0.1	117.85
1595	23.2	5.6	0.1	189.7
1596	22.8	5.6	0.1	269.87
1597	22.4	5.6	0.1	352.89
1598	22.	5.6	0.1	437.31
1599	21.6	5.6	0.1	522.74
1600	21.2	5.6	0.1	609.01
1601	20.8	5.6	0.1	696.07
1602	20.4	5.6	0.1	783.92
1603	20.	5.6	0.1	872.57
1604	19.6	5.6	0.1	962.05
1605	19.2	5.6	0.1	1052.4
1606	18.8	5.6	0.1	1143.6
1607	18.4	5.6	0.1	1235.7
1608	18.	5.6	0.1	1328.7
1609	17.6	5.6	0.1	1422.6
1610	17.2	5.6	0.1	1517.5
1611	16.8	5.6	0.1	1613.3
1612	16.4	5.6	0.1	1710.
1613	16.	5.6	0.1	1807.7
1614	15.6	5.6	0.1	1906.4
1615	15.2	5.6	0.1	2006.
1616	14.8	5.6	0.1	2106.5
1617	14.4	5.6	0.1	2208.
1618	14.	5.6	0.1	2310.5
1619	13.6	5.6	0.1	2413.9
1620	13.2	5.6	0.1	2518.2
1621	12.8	5.6	0.1	2623.5
1622	12.4	5.6	0.1	2729.8
1623	12.	5.6	0.1	2836.9
1624	11.6	5.6	0.1	2945.1
1625	11.2	5.6	0.1	3054.1
1626	10.8	5.6	0.1	3164.2
1627	10.4	5.6	0.1	3275.1
1628	10.	5.6	0.1	3387.
1629	9.6	5.6	0.1	3499.9
1630	9.2	5.6	0.1	3613.7
1631	8.8	5.6	0.1	3728.6
1632	8.4	5.6	0.1	3844.4
1633	8.	5.6	0.1	3961.2
1634	7.6	5.6	0.1	4079.2
1635	7.2	5.6	0.1	4198.2
1636	6.8	5.6	0.1	4318.5
1637	6.4	5.6	0.1	4440.1
1638	6.	5.6	0.1	4563.1
1639	5.6	5.6	0.1	4687.7
1640	5.2	5.6	0.1	4814.
1641	4.8	5.6	0.1	4942.2
1642	4.4	5.6	0.1	5072.4
1643	4.	5.6	0.1	5204.5
1644	3.6	5.6	0.1	5338.
1645	3.2	5.6	0.1	5471.5
1646	2.8	5.6	0.1	5602.5
1647	2.4	5.6	0.1	5725.1
1648	2.	5.6	0.1	5829.3
1649	1.6	5.6	0.1	5888.4
1650	1.2	5.6	0.1	5876.9
1651	0.8	5.6	0.1	5603.
1652	0.4	5.6	0.1	5091.7
1653	0.4	6.	0.1	5189.6
1654	0.8	6.	0.1	5927.5
1655	1.2	6.	0.1	6098.1
1656	1.6	6.	0.1	6089.6
1657	2.	6.	0.1	6002.5
1658	2.4	6.	0.1	5876.9
1659	2.8	6.	0.1	5735.5
1660	3.2	6.	0.1	5587.7
1661	3.6	6.	0.1	5439.
1662	4.	6.	0.1	5291.9
1663	4.4	6.	0.1	5147.7
1664	4.8	6.	0.1	5006.7
1665	5.2	6.	0.1	4869.
1666	5.6	6.	0.1	4734.3
1667	6.	6.	0.1	4602.5
1668	6.4	6.	0.1	4473.3
1669	6.8	6.	0.1	4346.4
1670	7.2	6.	0.1	4221.5
1671	7.6	6.	0.1	4098.6
1672	8.	6.	0.1	3977.3
1673	8.4	6.	0.1	3857.6
1674	8.8	6.	0.1	3739.4
1675	9.2	6.	0.1	3622.6
1676	9.6	6.	0.1	3507.
1677	10.	6.	0.1	3392.7
1678	10.4	6.	0.1	3279.6
1679	10.8	6.	0.1	3167.6
1680	11.2	6.	0.1	3056.7
1681	11.6	6.	0.1	2946.9
1682	12.	6.	0.1	2838.1
1683	12.4	6.	0.1	2730.4
1684	12.8	6.	0.1	2623.7
1685	13.2	6.	0.1	2518.
1686	13.6	6.	0.1	2413.3
1687	14.	6.	0.1	2309.6
1688	14.4	6.	0.1	2206.9
1689	14.8	6.	0.1	2105.1
1690	15.2	6.	0.1	2004.3
1691	15.6	6.	0.1	1904.5
1692	16.	6.	0.1	1805.6
1693	16.4	6.	0.1	1707.7
1694	16.8	6.	0.1	1610.7
1695	17.2	6.	0.1	1514.7
1696	17.6	6.	0.1	1419.5
1697	18.	6.	0.1	1325.3
1698	18.4	6.	0.1	1231.9
1699	18.8	6.	0.1	1139.4
1700	19.2	6.	0.1	1047.8
1701	19.6	6.	0.1	956.97
1702	20.	6.	0.1	866.93
1703	20.4	6.	0.1	777.63
1704	20.8	6.	0.1	689.05
1705	21.2	6.	0.1	601.16
1706	21.6	6.	0.1	513.92
1707	22.	6.	0.1	427.33
1708	22.4	6.	0.1	341.45
1709	22.8	6.	0.1	256.45
1710	23.2	6.	0.1	172.67
1711	23.6	6.	0.1	89.742
1712	24.	6.	0.1	32.254
1713	24.	5.6	0.1	78.177
1714	24.	5.2	0.1	118.93
1715	24.	4.8	0.1	146.87
1716	24.	4.4	0.1	167.39
1717	24.	4.	0.1	181.83
1718	24.	3.6	0.1	191.1
1719	24.	3.2	0.1	195.64
1720	24.	2.8	0.1	195.64
1721	24.	2.4	0.1	191.1
1722	24.	2.	0.1	181.83
1723	24.	1.6	0.1	167.39
1724	24.	1.2	0.1	146.87
1725	24.	0.8	0.1	118.93
1726	24.	0.4	0.1	78.177
1727	24.	0.	0.1	32.254
1728	23.6	0.	0.1	89.742
1729	23.2	0.	0.1	172.67
1730	22.8	0.	0.1	256.45
1731	22.4	0.	0.1	341.45
1732	22.	0.	0.1	427.33
1733	21.6	0.	0.1	513.92
1734	21.2	0.	0.1	601.16
1735	20.8	0.	0.1	689.05
1736	20.4	0.	0.1	777.63
1737	20.	0.	0.1	866.93
1738	19.6	0.	0.1	956.97
1739	19.2	0.	0.1	1047.8
1740	18.8	0.	0.1	1139.4
1741	18.4	0.	0.1	1231.9
1742	18.	0.	0.1	1325.3
1743	17.6	0.	0.1	1419.5
1744	17.2	0.	0.1	1514.7
1745	16.8	0.	0.1	1610.7
1746	16.4	0.	0.1	1707.7
1747	16.	0.	0.1	1805.6
1748	15.6	0.	0.1	1904.5
1749	15.2	0.	0.1	2004.3
1750	14.8	0.	0.1	2105.1
1751	14.4	0.	0.1	2206.9
1752	14.	0.	0.1	2309.6
1753	13.6	0.	0.1	2413.3
1754	13.2	0.	0.1	2518.
1755	12.8	0.	0.1	2623.7
1756	12.4	0.	0.1	2730.4
1757	12.	0.	0.1	2838.1
1758	11.6	0.	0.1	2946.9
1759	11.2	0.	0.1	3056.7
1760	10.8	0.	0.1	3167.6
1761	10.4	0.	0.1	3279.6
1762	10.	0.	0.1	3392.7
1763	9.6	0.	0.1	3507.
1764	9.2	0.	0.1	3622.6
1765	8.8	0.	0.1	3739.4
1766	8.4	0.	0.1	3857.6
1767	8.	0.	0.1	3977.3
1768	7.6	0.	0.1	4098.6
1769	7.2	0.	0.1	4221.5
1770	6.8	0.	0.1	4346.4
1771	6.4	0.	0.1	4473.3
1772	6.	0.	0.1	4602.5
1773	5.6	0.	0.1	4734.3
1774	5.2	0.	0.1	4869.
1775	4.8	0.	0.1	5006.7
1776	4.4	0.	0.1	5147.7
1777	4.	0.	0.1	5291.9
1778	3.6	0.	0.1	5439.
1779	3.2	0.	0.1	5587.7
1780	2.8	0.	0.1	5735.5
1781	2.4	0.	0.1	5876.9
1782	2.	0.	0.1	6002.5
1783	1.6	0.	0.1	6089.6
1784	1.2	0.	0.1	6098.1
1785	0.8	0.	0.1	5927.5
1786	0.4	0.	0.1	5189.6
1787	0.	0.	0.1	2148.8
1788	3.4968e-015	0.4	0.1	2710.1
1789	6.9935e-015	0.8	0.1	3443.3
1790	1.049e-014	1.2	0.1	3794.9
1791	1.3987e-014	1.6	0.1	3999.8
1792	1.7484e-014	2.	0.1	4114.1
1793	2.0981e-014	2.4	0.1	4178.5
1794	2.4477e-014	2.8	0.1	4207.7
1795	2.7974e-014	3.2	0.1	4207.7
1796	3.1471e-014	3.6	0.1	4178.5
1797	3.4968e-014	4.	0.1	4114.1
1798	3.8464e-014	4.4	0.1	3999.8
1799	4.1961e-014	4.8	0.1	3794.9
1800	4.5458e-014	5.2	0.1	3443.3
1801	4.8955e-014	5.6	0.1	2710.1
1802	3.937e-014	6.	0.1	2148.8
1803	4.8955e-014	5.6	0.	2710.1
1804	4.5458e-014	5.2	0.	3443.3
1805	4.1961e-014	4.8	0.	3794.9
1806	3.8464e-014	4.4	0.	3999.8
1807	3.4968e-014	4.	0.	4114.1
1808	3.1471e-014	3.6	0.	4178.5
1809	2.7974e-014	3.2	0.	4207.7
1810	2.4477e-014	2.8	0.	4207.7
1811	2.0981e-014	2.4	0.	4178.5
1812	1.7484e-014	2.	0.	4114.1
1813	1.3987e-014	1.6	0.	3999.8
1814	1.049e-014	1.2	0.	3794.9
1815	6.9935e-015	0.8	0.	3443.3
1816	3.4968e-015	0.4	0.	2710.1
1817	3.937e-014	6.	0.	2148.8
1818	0.	0.	0.	2148.8
1819	0.4	0.	0.	5189.6
1820	0.8	0.	0.	5927.5
1821	1.2	0.	0.	6098.1
1822	1.6	0.	0.	6089.6
1823	2.	0.	0.	6002.5
1824	2.4	0.	0.	5876.9
1825	2.8	0.	0.	5735.5
1826	3.2	0.	0.	5587.7
1827	3.6	0.	0.	5439.
1828	4.	0.	0.	5291.9
1829	4.4	0.	0.	5147.7
1830	4.8	0.	0.	5006.7
1831	5.2	0.	0.	4869.
1832	5.6	0.	0.	4734.3
1833	6.	0.	0.	4602.5
1834	6.4	0.	0.	4473.3
1835	6.8	0.	0.	4346.4
1836	7.2	0.	0.	4221.5
1837	7.6	0.	0.	4098.6
1838	8.	0.	0.	3977.3
1839	8.4	0.	0.	3857.6
1840	8.8	0.	0.	3739.4
1841	9.2	0.	0.	3622.6
1842	9.6	0.	0.	3507.
1843	10.	0.	0.	3392.7
1844	10.4	0.	0.	3279.6
1845	10.8	0.	0.	3167.6
1846	11.2	0.	0.	3056.7
1847	11.6	0.	0.	2946.9
1848	12.	0.	0.	2838.1
1849	12.4	0.	0.	2730.4
1850	12.8	0.	0.	2623.7
1851	13.2	0.	0.	2518.
1852	13.6	0.	0.	2413.3
1853	14.	0.	0.	2309.6
1854	14.4	0.	0.	2206.9
1855	14.8	0.	0.	2105.1
1856	15.2	0.	0.	2004.3
1857	15.6	0.	0.	1904.5
1858	16.	0.	0.	1805.6
1859	16.4	0.	0.	1707.7
1860	16.8	0.	0.	1610.7
1861	17.2	0.	0.	1514.7
1862	17.6	0.	0.	1419.5
1863	18.	0.	0.	1325.3
1864	18.4	0.	0.	1231.9
1865	18.8	0.	0.	1139.4
1866	19.2	0.	0.	1047.8
1867	19.6	0.	0.	956.97
1868	20.	0.	0.	866.93
1869	20.4	0.	0.	777.63
1870	20.8	0.	0.	689.05
1871	21.2	0.	0.	601.16
1872	21.6	0.	0.	513.92
1873	22.	0.	0.	427.33
1874	22.4	0.	0.	341.45
1875	22.8	0.	0.	256.45
1876	23.2	0.	0.	172.67
1877	23.6	0.	0.	89.742
1878	24.	0.	0.	32.254
1879	24.	0.4	0.	78.177
1880	24.	0.8	0.	118.93
1881	24.	1.2	0.	146.87
1882	24.	1.6	0.	167.39
1883	24.	2.	0.	181.83
1884	24.	2.4	0.	191.1
1885	24.	2.8	0.	195.64
1886	24.	3.2	0.	195.64
1887	24.	3.6	0.	191.1
1888	24.	4.	0.	181.83
1889	24.	4.4	0.	167.39
1890	24.	4.8	0.	146.87
1891	24.	5.2	0.	118.93
1892	24.	5.6	0.	78.177
1893	24.	6.	0.	32.254
1894	23.6	6.	0.	89.742
1895	23.2	6.	0.	172.67
1896	22.8	6.	0.	256.45
1897	22.4	6.	0.	341.45
1898	22.	6.	0.	427.33
1899	21.6	6.	0.	513.92
1900	21.2	6.	0.	601.16
1901	20.8	6.	0.	689.05
1902	20.4	6.	0.	777.63
1903	20.	6.	0.	866.93
1904	19.6	6.	0.	956.97
1905	19.2	6.	0.	1047.8
1906	18.8	6.	0.	1139.4
1907	18.4	6.	0.	1231.9
1908	18.	6.	0.	1325.3
1909	17.6	6.	0.	1419.5
1910	17.2	6.	0.	1514.7
1911	16.8	6.	0.	1610.7
1912	16.4	6.	0.	1707.7
1913	16.	6.	0.	1805.6
1914	15.6	6.	0.	1904.5
1915	15.2	6.	0.	2004.3
1916	14.8	6.	0.	2105.1
1917	14.4	6.	0.	2206.9
1918	14.	6.	0.	2309.6
1919	13.6	6.	0.	2413.3
1920	13.2	6.	0.	2518.
1921	12.8	6.	0.	2623.7
1922	12.4	6.	0.	2730.4
1923	12.	6.	0.	2838.1
1924	11.6	6.	0.	2946.9
1925	11.2	6.	0.	3056.7
1926	10.8	6.	0.	3167.6
1927	10.4	6.	0.	3279.6
1928	10.	6.	0.	3392.7
1929	9.6	6.	0.	3507.
1930	9.2	6.	0.	3622.6
1931	8.8	6.	0.	3739.4
1932	8.4	6.	0.	3857.6
1933	8.	6.	0.	3977.3
1934	7.6	6.	0.	4098.6
1935	7.2	6.	0.	4221.5
1936	6.8	6.	0.	4346.4
1937	6.4	6.	0.	4473.3
1938	6.	6.	0.	4602.5
1939	5.6	6.	0.	4734.3
1940	5.2	6.	0.	4869.
1941	4.8	6.	0.	5006.7
1942	4.4	6.	0.	5147.7
1943	4.	6.	0.	5291.9
1944	3.6	6.	0.	5439.
1945	3.2	6.	0.	5587.7
1946	2.8	6.	0.	5735.5
1947	2.4	6.	0.	5876.9
1948	2.	6.	0.	6002.5
1949	1.6	6.	0.	6089.6
1950	1.2	6.	0.	6098.1
1951	0.8	6.	0.	5927.5
1952	0.4	6.	0.	5189.6
1953	0.6	5.6	0.	5333.8
1954	0.4	5.4	0.	5374.5
1955	0.4	5.6	5.e-002	210.65
1956	0.2	5.6	0.	3839.2
1957	0.4	5.8	0.	5089.8
1958	1.	5.6	0.	5736.3
1959	0.8	5.4	0.	5471.5
1960	0.8	5.6	5.e-002	106.35
1961	0.8	5.8	0.	5755.
1962	1.4	5.6	0.	5880.7
1963	1.2	5.4	0.	5752.9
1964	1.2	5.6	5.e-002	63.951
1965	1.2	5.8	0.	5981.2
1966	1.8	5.6	0.	5857.5
1967	1.6	5.4	0.	5768.5
1968	1.6	5.6	5.e-002	52.244
1969	1.6	5.8	0.	5984.6
1970	2.2	5.6	0.	5776.2
1971	2.	5.4	0.	5724.6
1972	2.	5.6	5.e-002	45.337
1973	2.	5.8	0.	5912.8
1974	2.6	5.6	0.	5663.1
1975	2.4	5.4	0.	5634.
1976	2.4	5.6	5.e-002	40.488
1977	2.4	5.8	0.	5798.8
1978	3.	5.6	0.	5536.5
1979	2.8	5.4	0.	5524.1
1980	2.8	5.6	5.e-002	36.43
1981	2.8	5.8	0.	5667.5
1982	3.4	5.6	0.	5404.3
1983	3.2	5.4	0.	5404.3
1984	3.2	5.6	5.e-002	32.895
1985	3.2	5.8	0.	5528.6
1986	3.8	5.6	0.	5270.9
1987	3.6	5.4	0.	5280.6
1988	3.6	5.6	5.e-002	29.772
1989	3.6	5.8	0.	5387.8
1990	4.2	5.6	0.	5138.2
1991	4.	5.4	0.	5155.7
1992	4.	5.6	5.e-002	27.038
1993	4.	5.8	0.	5247.8
1994	4.6	5.6	0.	5007.2
1995	4.4	5.4	0.	5031.
1996	4.4	5.6	5.e-002	24.673
1997	4.4	5.8	0.	5109.8
1998	5.	5.6	0.	4878.
1999	4.8	5.4	0.	4907.1
2000	4.8	5.6	5.e-002	22.649
2001	4.8	5.8	0.	4974.3
2002	5.4	5.6	0.	4750.8
2003	5.2	5.4	0.	4784.2
2004	5.2	5.6	5.e-002	20.933
2005	5.2	5.8	0.	4841.4
2006	5.8	5.6	0.	4625.3
2007	5.6	5.4	0.	4662.5
2008	5.6	5.6	5.e-002	19.489
2009	5.6	5.8	0.	4710.9
2010	6.2	5.6	0.	4501.5
2011	6.	5.4	0.	4541.7
2012	6.	5.6	5.e-002	18.28
2013	6.	5.8	0.	4582.7
2014	6.6	5.6	0.	4379.3
2015	6.4	5.4	0.	4422.
2016	6.4	5.6	5.e-002	17.271
2017	6.4	5.8	0.	4456.6
2018	7.	5.6	0.	4258.3
2019	6.8	5.4	0.	4303.1
2020	6.8	5.6	5.e-002	16.429
2021	6.8	5.8	0.	4332.4
2022	7.4	5.6	0.	4138.7
2023	7.2	5.4	0.	4185.1
2024	7.2	5.6	5.e-002	15.726
2025	7.2	5.8	0.	4209.8
2026	7.8	5.6	0.	4020.2
2027	7.6	5.4	0.	4068.
2028	7.6	5.6	5.e-002	15.135
2029	7.6	5.8	0.	4088.8
2030	8.2	5.6	0.	3902.8
2031	8.	5.4	0.	3951.6
2032	8.	5.6	5.e-002	14.636
2033	8.	5.8	0.	3969.2
2034	8.6	5.6	0.	3786.5
2035	8.4	5.4	0.	3836.1
2036	8.4	5.6	5.e-002	14.212
2037	8.4	5.8	0.	3850.9
2038	9.	5.6	0.	3671.1
2039	8.8	5.4	0.	3721.4
2040	8.8	5.6	5.e-002	13.849
2041	8.8	5.8	0.	3733.8
2042	9.4	5.6	0.	3556.8
2043	9.2	5.4	0.	3607.5
2044	9.2	5.6	5.e-002	13.534
2045	9.2	5.8	0.	3618.
2046	9.8	5.6	0.	3443.5
2047	9.6	5.4	0.	3494.4
2048	9.6	5.6	5.e-002	13.258
2049	9.6	5.8	0.	3503.3
2050	10.2	5.6	0.	3331.1
2051	10.	5.4	0.	3382.2
2052	10.	5.6	5.e-002	13.014
2053	10.	5.8	0.	3389.7
2054	10.6	5.6	0.	3219.6
2055	10.4	5.4	0.	3270.8
2056	10.4	5.6	5.e-002	12.796
2057	10.4	5.8	0.	3277.1
2058	11.	5.6	0.	3109.1
2059	10.8	5.4	0.	3160.3
2060	10.8	5.6	5.e-002	12.599
2061	10.8	5.8	0.	3165.7
2062	11.4	5.6	0.	2999.6
2063	11.2	5.4	0.	3050.6
2064	11.2	5.6	5.e-002	12.419
2065	11.2	5.8	0.	3055.2
2066	11.8	5.6	0.	2891.
2067	11.6	5.4	0.	2941.9
2068	11.6	5.6	5.e-002	12.253
2069	11.6	5.8	0.	2945.7
2070	12.2	5.6	0.	2783.4
2071	12.	5.4	0.	2834.
2072	12.	5.6	5.e-002	12.099
2073	12.	5.8	0.	2837.3
2074	12.6	5.6	0.	2676.6
2075	12.4	5.4	0.	2727.
2076	12.4	5.6	5.e-002	11.955
2077	12.4	5.8	0.	2729.8
2078	13.	5.6	0.	2570.9
2079	12.8	5.4	0.	2620.9
2080	12.8	5.6	5.e-002	11.819
2081	12.8	5.8	0.	2623.3
2082	13.4	5.6	0.	2466.1
2083	13.2	5.4	0.	2515.7
2084	13.2	5.6	5.e-002	11.69
2085	13.2	5.8	0.	2517.8
2086	13.8	5.6	0.	2362.2
2087	13.6	5.4	0.	2411.5
2088	13.6	5.6	5.e-002	11.567
2089	13.6	5.8	0.	2413.3
2090	14.2	5.6	0.	2259.3
2091	14.	5.4	0.	2308.1
2092	14.	5.6	5.e-002	11.45
2093	14.	5.8	0.	2309.7
2094	14.6	5.6	0.	2157.3
2095	14.4	5.4	0.	2205.8
2096	14.4	5.6	5.e-002	11.337
2097	14.4	5.8	0.	2207.1
2098	15.	5.6	0.	2056.3
2099	14.8	5.4	0.	2104.3
2100	14.8	5.6	5.e-002	11.229
2101	14.8	5.8	0.	2105.5
2102	15.4	5.6	0.	1956.2
2103	15.2	5.4	0.	2003.8
2104	15.2	5.6	5.e-002	11.125
2105	15.2	5.8	0.	2004.8
2106	15.8	5.6	0.	1857.1
2107	15.6	5.4	0.	1904.2
2108	15.6	5.6	5.e-002	11.025
2109	15.6	5.8	0.	1905.1
2110	16.2	5.6	0.	1758.9
2111	16.	5.4	0.	1805.6
2112	16.	5.6	5.e-002	10.929
2113	16.	5.8	0.	1806.3
2114	16.6	5.6	0.	1661.7
2115	16.4	5.4	0.	1707.9
2116	16.4	5.6	5.e-002	10.838
2117	16.4	5.8	0.	1708.5
2118	17.	5.6	0.	1565.4
2119	16.8	5.4	0.	1611.2
2120	16.8	5.6	5.e-002	10.752
2121	16.8	5.8	0.	1611.6
2122	17.4	5.6	0.	1470.
2123	17.2	5.4	0.	1515.5
2124	17.2	5.6	5.e-002	10.671
2125	17.2	5.8	0.	1515.7
2126	17.8	5.6	0.	1375.6
2127	17.6	5.4	0.	1420.7
2128	17.6	5.6	5.e-002	10.595
2129	17.6	5.8	0.	1420.7
2130	18.2	5.6	0.	1282.2
2131	18.	5.4	0.	1326.8
2132	18.	5.6	5.e-002	10.527
2133	18.	5.8	0.	1326.6
2134	18.6	5.6	0.	1189.6
2135	18.4	5.4	0.	1233.9
2136	18.4	5.6	5.e-002	10.467
2137	18.4	5.8	0.	1233.4
2138	19.	5.6	0.	1098.
2139	18.8	5.4	0.	1141.9
2140	18.8	5.6	5.e-002	10.416
2141	18.8	5.8	0.	1141.1
2142	19.4	5.6	0.	1007.2
2143	19.2	5.4	0.	1050.9
2144	19.2	5.6	5.e-002	10.376
2145	19.2	5.8	0.	1049.6
2146	19.8	5.6	0.	917.28
2147	19.6	5.4	0.	960.82
2148	19.6	5.6	5.e-002	10.35
2149	19.6	5.8	0.	959.04
2150	20.2	5.6	0.	828.21
2151	20.	5.4	0.	871.64
2152	20.	5.6	5.e-002	10.338
2153	20.	5.8	0.	869.27
2154	20.6	5.6	0.	739.96
2155	20.4	5.4	0.	783.38
2156	20.4	5.6	5.e-002	10.344
2157	20.4	5.8	0.	780.28
2158	21.	5.6	0.	652.51
2159	20.8	5.4	0.	696.03
2160	20.8	5.6	5.e-002	10.371
2161	20.8	5.8	0.	692.05
2162	21.4	5.6	0.	565.84
2163	21.2	5.4	0.	609.62
2164	21.2	5.6	5.e-002	10.421
2165	21.2	5.8	0.	604.55
2166	21.8	5.6	0.	479.98
2167	21.6	5.4	0.	524.18
2168	21.6	5.6	5.e-002	10.497
2169	21.6	5.8	0.	517.77
2170	22.2	5.6	0.	395.04
2171	22.	5.4	0.	439.87
2172	22.	5.6	5.e-002	10.602
2173	22.	5.8	0.	431.72
2174	22.6	5.6	0.	311.3
2175	22.4	5.4	0.	357.
2176	22.4	5.6	5.e-002	10.736
2177	22.4	5.8	0.	346.5
2178	23.	5.6	0.	229.62
2179	22.8	5.4	0.	276.28
2180	22.8	5.6	5.e-002	10.869
2181	22.8	5.8	0.	262.34
2182	23.4	5.6	0.	153.04
2183	23.2	5.4	0.	199.78
2184	23.2	5.6	5.e-002	11.041
2185	23.2	5.8	0.	180.03
2186	23.6	5.4	0.	133.33
2187	23.6	5.6	5.e-002	11.599
2188	23.8	5.6	0.	95.396
2189	23.6	5.8	0.	102.
2190	0.6	5.2	0.	5522.4
2191	0.4	5.	0.	5962.
2192	0.4	5.2	5.e-002	86.197
2193	0.2	5.2	0.	4507.9
2194	1.	5.2	0.	5503.
2195	0.8	5.	0.	5392.4
2196	0.8	5.2	5.e-002	90.123
2197	1.4	5.2	0.	5646.2
2198	1.2	5.	0.	5590.7
2199	1.2	5.2	5.e-002	63.475
2200	1.8	5.2	0.	5638.1
2201	1.6	5.	0.	5576.1
2202	1.6	5.2	5.e-002	50.346
2203	2.2	5.2	0.	5583.8
2204	2.	5.	0.	5543.
2205	2.	5.2	5.e-002	41.871
2206	2.6	5.2	0.	5495.8
2207	2.4	5.	0.	5469.5
2208	2.4	5.2	5.e-002	36.53
2209	3.	5.2	0.	5392.4
2210	2.8	5.	0.	5379.1
2211	2.8	5.2	5.e-002	32.475
2212	3.4	5.2	0.	5280.8
2213	3.2	5.	0.	5278.3
2214	3.2	5.2	5.e-002	29.302
2215	3.8	5.2	0.	5165.5
2216	3.6	5.	0.	5172.
2217	3.6	5.2	5.e-002	26.732
2218	4.2	5.2	0.	5048.5
2219	4.	5.	0.	5062.8
2220	4.	5.2	5.e-002	24.633
2221	4.6	5.2	0.	4930.9
2222	4.4	5.	0.	4951.9
2223	4.4	5.2	5.e-002	22.916
2224	5.	5.2	0.	4813.4
2225	4.8	5.	0.	4839.9
2226	4.8	5.2	5.e-002	21.515
2227	5.4	5.2	0.	4696.
2228	5.2	5.	0.	4727.4
2229	5.2	5.2	5.e-002	20.376
2230	5.8	5.2	0.	4579.
2231	5.6	5.	0.	4614.3
2232	5.6	5.2	5.e-002	19.451
2233	6.2	5.2	0.	4462.2
2234	6.	5.	0.	4501.
2235	6.	5.2	5.e-002	18.698
2236	6.6	5.2	0.	4345.9
2237	6.4	5.	0.	4387.5
2238	6.4	5.2	5.e-002	18.083
2239	7.	5.2	0.	4230.
2240	6.8	5.	0.	4273.9
2241	6.8	5.2	5.e-002	17.576
2242	7.4	5.2	0.	4114.5
2243	7.2	5.	0.	4160.4
2244	7.2	5.2	5.e-002	17.153
2245	7.8	5.2	0.	3999.6
2246	7.6	5.	0.	4046.9
2247	7.6	5.2	5.e-002	16.796
2248	8.2	5.2	0.	3885.1
2249	8.	5.	0.	3933.7
2250	8.	5.2	5.e-002	16.489
2251	8.6	5.2	0.	3771.2
2252	8.4	5.	0.	3820.7
2253	8.4	5.2	5.e-002	16.222
2254	9.	5.2	0.	3658.
2255	8.8	5.	0.	3708.2
2256	8.8	5.2	5.e-002	15.985
2257	9.4	5.2	0.	3545.3
2258	9.2	5.	0.	3596.1
2259	9.2	5.2	5.e-002	15.772
2260	9.8	5.2	0.	3433.4
2261	9.6	5.	0.	3484.5
2262	9.6	5.2	5.e-002	15.576
2263	10.2	5.2	0.	3322.2
2264	10.	5.	0.	3373.6
2265	10.	5.2	5.e-002	15.395
2266	10.6	5.2	0.	3211.7
2267	10.4	5.	0.	3263.2
2268	10.4	5.2	5.e-002	15.225
2269	11.	5.2	0.	3102.
2270	10.8	5.	0.	3153.5
2271	10.8	5.2	5.e-002	15.064
2272	11.4	5.2	0.	2993.1
2273	11.2	5.	0.	3044.6
2274	11.2	5.2	5.e-002	14.91
2275	11.8	5.2	0.	2885.1
2276	11.6	5.	0.	2936.4
2277	11.6	5.2	5.e-002	14.761
2278	12.2	5.2	0.	2777.8
2279	12.	5.	0.	2829.
2280	12.	5.2	5.e-002	14.617
2281	12.6	5.2	0.	2671.5
2282	12.4	5.	0.	2722.4
2283	12.4	5.2	5.e-002	14.477
2284	13.	5.2	0.	2566.
2285	12.8	5.	0.	2616.6
2286	12.8	5.2	5.e-002	14.34
2287	13.4	5.2	0.	2461.4
2288	13.2	5.	0.	2511.7
2289	13.2	5.2	5.e-002	14.205
2290	13.8	5.2	0.	2357.7
2291	13.6	5.	0.	2407.6
2292	13.6	5.2	5.e-002	14.072
2293	14.2	5.2	0.	2254.9
2294	14.	5.	0.	2304.5
2295	14.	5.2	5.e-002	13.942
2296	14.6	5.2	0.	2153.1
2297	14.4	5.	0.	2202.2
2298	14.4	5.2	5.e-002	13.813
2299	15.	5.2	0.	2052.1
2300	14.8	5.	0.	2100.9
2301	14.8	5.2	5.e-002	13.685
2302	15.4	5.2	0.	1952.1
2303	15.2	5.	0.	2000.5
2304	15.2	5.2	5.e-002	13.559
2305	15.8	5.2	0.	1853.1
2306	15.6	5.	0.	1901.
2307	15.6	5.2	5.e-002	13.435
2308	16.2	5.2	0.	1755.
2309	16.	5.	0.	1802.5
2310	16.	5.2	5.e-002	13.312
2311	16.6	5.2	0.	1657.8
2312	16.4	5.	0.	1704.9
2313	16.4	5.2	5.e-002	13.19
2314	17.	5.2	0.	1561.6
2315	16.8	5.	0.	1608.3
2316	16.8	5.2	5.e-002	13.071
2317	17.4	5.2	0.	1466.4
2318	17.2	5.	0.	1512.7
2319	17.2	5.2	5.e-002	12.953
2320	17.8	5.2	0.	1372.2
2321	17.6	5.	0.	1418.
2322	17.6	5.2	5.e-002	12.838
2323	18.2	5.2	0.	1278.9
2324	18.	5.	0.	1324.4
2325	18.	5.2	5.e-002	12.725
2326	18.6	5.2	0.	1186.6
2327	18.4	5.	0.	1231.8
2328	18.4	5.2	5.e-002	12.616
2329	19.	5.2	0.	1095.3
2330	18.8	5.	0.	1140.2
2331	18.8	5.2	5.e-002	12.51
2332	19.4	5.2	0.	1005.
2333	19.2	5.	0.	1049.6
2334	19.2	5.2	5.e-002	12.408
2335	19.8	5.2	0.	915.66
2336	19.6	5.	0.	960.04
2337	19.6	5.2	5.e-002	12.312
2338	20.2	5.2	0.	827.33
2339	20.	5.	0.	871.58
2340	20.	5.2	5.e-002	12.221
2341	20.6	5.2	0.	740.02
2342	20.4	5.	0.	784.22
2343	20.4	5.2	5.e-002	12.138
2344	21.	5.2	0.	653.77
2345	20.8	5.	0.	698.01
2346	20.8	5.2	5.e-002	12.061
2347	21.4	5.2	0.	568.67
2348	21.2	5.	0.	613.05
2349	21.2	5.2	5.e-002	11.993
2350	21.8	5.2	0.	484.89
2351	21.6	5.	0.	529.49
2352	21.6	5.2	5.e-002	11.933
2353	22.2	5.2	0.	402.78
2354	22.	5.	0.	447.63
2355	22.	5.2	5.e-002	11.879
2356	22.6	5.2	0.	323.07
2357	22.4	5.	0.	368.05
2358	22.4	5.2	5.e-002	11.832
2359	23.	5.2	0.	247.5
2360	22.8	5.	0.	291.88
2361	22.8	5.2	5.e-002	11.785
2362	23.4	5.2	0.	179.71
2363	23.2	5.	0.	221.77
2364	23.2	5.2	5.e-002	11.89
2365	23.6	5.	0.	163.02
2366	23.6	5.2	5.e-002	12.213
2367	23.8	5.2	0.	132.53
2368	0.6	4.8	0.	5805.3
2369	0.4	4.6	0.	6369.
2370	0.4	4.8	5.e-002	45.771
2371	0.2	4.8	0.	4920.3
2372	1.	4.8	0.	5491.4
2373	0.8	4.6	0.	5503.6
2374	0.8	4.8	5.e-002	75.414
2375	1.4	4.8	0.	5525.8
2376	1.2	4.6	0.	5552.1
2377	1.2	4.8	5.e-002	53.054
2378	1.8	4.8	0.	5484.1
2379	1.6	4.6	0.	5465.8
2380	1.6	4.8	5.e-002	45.522
2381	2.2	4.8	0.	5430.3
2382	2.	4.6	0.	5412.6
2383	2.	4.8	5.e-002	38.967
2384	2.6	4.8	0.	5353.6
2385	2.4	4.6	0.	5339.
2386	2.4	4.8	5.e-002	34.194
2387	3.	4.8	0.	5265.4
2388	2.8	4.6	0.	5257.9
2389	2.8	4.8	5.e-002	30.448
2390	3.4	4.8	0.	5169.7
2391	3.2	4.6	0.	5169.8
2392	3.2	4.8	5.e-002	27.505
2393	3.8	4.8	0.	5069.5
2394	3.6	4.6	0.	5077.
2395	3.6	4.8	5.e-002	25.16
2396	4.2	4.8	0.	4966.2
2397	4.	4.6	0.	4980.8
2398	4.	4.8	5.e-002	23.296
2399	4.6	4.8	0.	4860.9
2400	4.4	4.6	0.	4881.7
2401	4.4	4.8	5.e-002	21.816
2402	5.	4.8	0.	4753.9
2403	4.8	4.6	0.	4780.2
2404	4.8	4.8	5.e-002	20.642
2405	5.4	4.8	0.	4645.7
2406	5.2	4.6	0.	4676.8
2407	5.2	4.8	5.e-002	19.709
2408	5.8	4.8	0.	4536.4
2409	5.6	4.6	0.	4571.6
2410	5.6	4.8	5.e-002	18.965
2411	6.2	4.8	0.	4426.3
2412	6.	4.6	0.	4464.9
2413	6.	4.8	5.e-002	18.368
2414	6.6	4.8	0.	4315.5
2415	6.4	4.6	0.	4357.
2416	6.4	4.8	5.e-002	17.883
2417	7.	4.8	0.	4204.3
2418	6.8	4.6	0.	4248.2
2419	6.8	4.8	5.e-002	17.483
2420	7.4	4.8	0.	4092.8
2421	7.2	4.6	0.	4138.6
2422	7.2	4.8	5.e-002	17.147
2423	7.8	4.8	0.	3981.1
2424	7.6	4.6	0.	4028.5
2425	7.6	4.8	5.e-002	16.861
2426	8.2	4.8	0.	3869.4
2427	8.	4.6	0.	3918.
2428	8.	4.8	5.e-002	16.611
2429	8.6	4.8	0.	3757.8
2430	8.4	4.6	0.	3807.4
2431	8.4	4.8	5.e-002	16.389
2432	9.	4.8	0.	3646.5
2433	8.8	4.6	0.	3696.8
2434	8.8	4.8	5.e-002	16.188
2435	9.4	4.8	0.	3535.4
2436	9.2	4.6	0.	3586.3
2437	9.2	4.8	5.e-002	16.004
2438	9.8	4.8	0.	3424.8
2439	9.6	4.6	0.	3476.1
2440	9.6	4.8	5.e-002	15.831
2441	10.2	4.8	0.	3314.7
2442	10.	4.6	0.	3366.3
2443	10.	4.8	5.e-002	15.668
2444	10.6	4.8	0.	3205.2
2445	10.4	4.6	0.	3256.8
2446	10.4	4.8	5.e-002	15.512
2447	11.	4.8	0.	3096.2
2448	10.8	4.6	0.	3147.9
2449	10.8	4.8	5.e-002	15.361
2450	11.4	4.8	0.	2988.
2451	11.2	4.6	0.	3039.6
2452	11.2	4.8	5.e-002	15.216
2453	11.8	4.8	0.	2880.4
2454	11.6	4.6	0.	2932.
2455	11.6	4.8	5.e-002	15.073
2456	12.2	4.8	0.	2773.6
2457	12.	4.6	0.	2825.
2458	12.	4.8	5.e-002	14.933
2459	12.6	4.8	0.	2667.6
2460	12.4	4.6	0.	2718.7
2461	12.4	4.8	5.e-002	14.796
2462	13.	4.8	0.	2562.4
2463	12.8	4.6	0.	2613.3
2464	12.8	4.8	5.e-002	14.66
2465	13.4	4.8	0.	2458.1
2466	13.2	4.6	0.	2508.6
2467	13.2	4.8	5.e-002	14.526
2468	13.8	4.8	0.	2354.6
2469	13.6	4.6	0.	2404.8
2470	13.6	4.8	5.e-002	14.394
2471	14.2	4.8	0.	2252.
2472	14.	4.6	0.	2301.8
2473	14.	4.8	5.e-002	14.262
2474	14.6	4.8	0.	2150.3
2475	14.4	4.6	0.	2199.7
2476	14.4	4.8	5.e-002	14.131
2477	15.	4.8	0.	2049.4
2478	14.8	4.6	0.	2098.5
2479	14.8	4.8	5.e-002	14.002
2480	15.4	4.8	0.	1949.6
2481	15.2	4.6	0.	1998.2
2482	15.2	4.8	5.e-002	13.873
2483	15.8	4.8	0.	1850.6
2484	15.6	4.6	0.	1898.8
2485	15.6	4.8	5.e-002	13.745
2486	16.2	4.8	0.	1752.6
2487	16.	4.6	0.	1800.4
2488	16.	4.8	5.e-002	13.618
2489	16.6	4.8	0.	1655.6
2490	16.4	4.6	0.	1703.
2491	16.4	4.8	5.e-002	13.492
2492	17.	4.8	0.	1559.6
2493	16.8	4.6	0.	1606.5
2494	16.8	4.8	5.e-002	13.366
2495	17.4	4.8	0.	1464.6
2496	17.2	4.6	0.	1511.
2497	17.2	4.8	5.e-002	13.243
2498	17.8	4.8	0.	1370.5
2499	17.6	4.6	0.	1416.6
2500	17.6	4.8	5.e-002	13.12
2501	18.2	4.8	0.	1277.6
2502	18.	4.6	0.	1323.2
2503	18.	4.8	5.e-002	12.999
2504	18.6	4.8	0.	1185.6
2505	18.4	4.6	0.	1230.9
2506	18.4	4.8	5.e-002	12.881
2507	19.	4.8	0.	1094.7
2508	18.8	4.6	0.	1139.7
2509	18.8	4.8	5.e-002	12.764
2510	19.4	4.8	0.	1005.
2511	19.2	4.6	0.	1049.6
2512	19.2	4.8	5.e-002	12.65
2513	19.8	4.8	0.	916.31
2514	19.6	4.6	0.	960.64
2515	19.6	4.8	5.e-002	12.54
2516	20.2	4.8	0.	828.84
2517	20.	4.6	0.	872.93
2518	20.	4.8	5.e-002	12.434
2519	20.6	4.8	0.	742.61
2520	20.4	4.6	0.	786.51
2521	20.4	4.8	5.e-002	12.332
2522	21.	4.8	0.	657.71
2523	20.8	4.6	0.	701.47
2524	20.8	4.8	5.e-002	12.236
2525	21.4	4.8	0.	574.31
2526	21.2	4.6	0.	617.96
2527	21.2	4.8	5.e-002	12.147
2528	21.8	4.8	0.	492.69
2529	21.6	4.6	0.	536.22
2530	21.6	4.8	5.e-002	12.065
2531	22.2	4.8	0.	413.34
2532	22.	4.6	0.	456.61
2533	22.	4.8	5.e-002	11.993
2534	22.6	4.8	0.	337.13
2535	22.4	4.6	0.	379.82
2536	22.4	4.8	5.e-002	11.941
2537	23.	4.8	0.	265.87
2538	22.8	4.6	0.	307.01
2539	22.8	4.8	5.e-002	11.924
2540	23.4	4.8	0.	202.74
2541	23.2	4.6	0.	240.69
2542	23.2	4.8	5.e-002	12.035
2543	23.6	4.6	0.	185.45
2544	23.6	4.8	5.e-002	12.228
2545	23.8	4.8	0.	159.49
2546	0.6	4.4	0.	6045.4
2547	0.4	4.2	0.	6632.6
2548	0.4	4.4	5.e-002	36.402
2549	0.2	4.4	0.	5177.5
2550	1.	4.4	0.	5569.2
2551	0.8	4.2	0.	5641.4
2552	0.8	4.4	5.e-002	73.942
2553	1.4	4.4	0.	5495.2
2554	1.2	4.2	0.	5581.5
2555	1.2	4.4	5.e-002	47.663
2556	1.8	4.4	0.	5397.
2557	1.6	4.2	0.	5420.2
2558	1.6	4.4	5.e-002	42.075
2559	2.2	4.4	0.	5322.9
2560	2.	4.2	0.	5331.7
2561	2.	4.4	5.e-002	35.912
2562	2.6	4.4	0.	5244.2
2563	2.4	4.2	0.	5245.7
2564	2.4	4.4	5.e-002	31.717
2565	3.	4.4	0.	5162.7
2566	2.8	4.2	0.	5165.
2567	2.8	4.4	5.e-002	28.305
2568	3.4	4.4	0.	5077.3
2569	3.2	4.2	0.	5083.5
2570	3.2	4.4	5.e-002	25.652
2571	3.8	4.4	0.	4988.4
2572	3.6	4.2	0.	5000.
2573	3.6	4.4	5.e-002	23.572
2574	4.2	4.4	0.	4896.2
2575	4.	4.2	0.	4913.5
2576	4.	4.4	5.e-002	21.959
2577	4.6	4.4	0.	4801.
2578	4.4	4.2	0.	4823.8
2579	4.4	4.4	5.e-002	20.712
2580	5.	4.4	0.	4703.1
2581	4.8	4.2	0.	4730.9
2582	4.8	4.4	5.e-002	19.747
2583	5.4	4.4	0.	4602.6
2584	5.2	4.2	0.	4635.
2585	5.2	4.4	5.e-002	18.996
2586	5.8	4.4	0.	4500.1
2587	5.6	4.2	0.	4536.3
2588	5.6	4.4	5.e-002	18.405
2589	6.2	4.4	0.	4395.6
2590	6.	4.2	0.	4435.1
2591	6.	4.4	5.e-002	17.933
2592	6.6	4.4	0.	4289.7
2593	6.4	4.2	0.	4331.9
2594	6.4	4.4	5.e-002	17.548
2595	7.	4.4	0.	4182.5
2596	6.8	4.2	0.	4227.
2597	6.8	4.4	5.e-002	17.229
2598	7.4	4.4	0.	4074.3
2599	7.2	4.2	0.	4120.7
2600	7.2	4.4	5.e-002	16.957
2601	7.8	4.4	0.	3965.4
2602	7.6	4.2	0.	4013.3
2603	7.6	4.4	5.e-002	16.72
2604	8.2	4.4	0.	3856.1
2605	8.	4.2	0.	3905.2
2606	8.	4.4	5.e-002	16.509
2607	8.6	4.4	0.	3746.5
2608	8.4	4.2	0.	3796.5
2609	8.4	4.4	5.e-002	16.318
2610	9.	4.4	0.	3636.8
2611	8.8	4.2	0.	3687.5
2612	8.8	4.4	5.e-002	16.141
2613	9.4	4.4	0.	3527.1
2614	9.2	4.2	0.	3578.4
2615	9.2	4.4	5.e-002	15.974
2616	9.8	4.4	0.	3417.7
2617	9.6	4.2	0.	3469.3
2618	9.6	4.4	5.e-002	15.816
2619	10.2	4.4	0.	3308.5
2620	10.	4.2	0.	3360.4
2621	10.	4.4	5.e-002	15.665
2622	10.6	4.4	0.	3199.8
2623	10.4	4.2	0.	3251.7
2624	10.4	4.4	5.e-002	15.518
2625	11.	4.4	0.	3091.5
2626	10.8	4.2	0.	3143.5
2627	10.8	4.4	5.e-002	15.375
2628	11.4	4.4	0.	2983.8
2629	11.2	4.2	0.	3035.7
2630	11.2	4.4	5.e-002	15.234
2631	11.8	4.4	0.	2876.7
2632	11.6	4.2	0.	2928.5
2633	11.6	4.4	5.e-002	15.096
2634	12.2	4.4	0.	2770.3
2635	12.	4.2	0.	2821.8
2636	12.	4.4	5.e-002	14.96
2637	12.6	4.4	0.	2664.6
2638	12.4	4.2	0.	2715.9
2639	12.4	4.4	5.e-002	14.825
2640	13.	4.4	0.	2559.6
2641	12.8	4.2	0.	2610.7
2642	12.8	4.4	5.e-002	14.692
2643	13.4	4.4	0.	2455.5
2644	13.2	4.2	0.	2506.2
2645	13.2	4.4	5.e-002	14.559
2646	13.8	4.4	0.	2352.2
2647	13.6	4.2	0.	2402.6
2648	13.6	4.4	5.e-002	14.427
2649	14.2	4.4	0.	2249.7
2650	14.	4.2	0.	2299.7
2651	14.	4.4	5.e-002	14.296
2652	14.6	4.4	0.	2148.1
2653	14.4	4.2	0.	2197.7
2654	14.4	4.4	5.e-002	14.166
2655	15.	4.4	0.	2047.4
2656	14.8	4.2	0.	2096.6
2657	14.8	4.4	5.e-002	14.036
2658	15.4	4.4	0.	1947.6
2659	15.2	4.2	0.	1996.5
2660	15.2	4.4	5.e-002	13.907
2661	15.8	4.4	0.	1848.8
2662	15.6	4.2	0.	1897.2
2663	15.6	4.4	5.e-002	13.778
2664	16.2	4.4	0.	1750.9
2665	16.	4.2	0.	1798.9
2666	16.	4.4	5.e-002	13.65
2667	16.6	4.4	0.	1654.1
2668	16.4	4.2	0.	1701.6
2669	16.4	4.4	5.e-002	13.522
2670	17.	4.4	0.	1558.2
2671	16.8	4.2	0.	1605.2
2672	16.8	4.4	5.e-002	13.395
2673	17.4	4.4	0.	1463.3
2674	17.2	4.2	0.	1509.9
2675	17.2	4.4	5.e-002	13.269
2676	17.8	4.4	0.	1369.5
2677	17.6	4.2	0.	1415.7
2678	17.6	4.4	5.e-002	13.144
2679	18.2	4.4	0.	1276.8
2680	18.	4.2	0.	1322.5
2681	18.	4.4	5.e-002	13.02
2682	18.6	4.4	0.	1185.2
2683	18.4	4.2	0.	1230.5
2684	18.4	4.4	5.e-002	12.898
2685	19.	4.4	0.	1094.8
2686	18.8	4.2	0.	1139.6
2687	18.8	4.4	5.e-002	12.777
2688	19.4	4.4	0.	1005.5
2689	19.2	4.2	0.	1050.
2690	19.2	4.4	5.e-002	12.658
2691	19.8	4.4	0.	917.56
2692	19.6	4.2	0.	961.59
2693	19.6	4.4	5.e-002	12.542
2694	20.2	4.4	0.	830.91
2695	20.	4.2	0.	874.57
2696	20.	4.4	5.e-002	12.43
2697	20.6	4.4	0.	745.69
2698	20.4	4.2	0.	788.99
2699	20.4	4.4	5.e-002	12.322
2700	21.	4.4	0.	662.04
2701	20.8	4.2	0.	704.98
2702	20.8	4.4	5.e-002	12.219
2703	21.4	4.4	0.	580.17
2704	21.2	4.2	0.	622.73
2705	21.2	4.4	5.e-002	12.125
2706	21.8	4.4	0.	500.39
2707	21.6	4.2	0.	542.48
2708	21.6	4.4	5.e-002	12.041
2709	22.2	4.4	0.	423.23
2710	22.	4.2	0.	464.64
2711	22.	4.4	5.e-002	11.975
2712	22.6	4.4	0.	349.53
2713	22.4	4.2	0.	389.87
2714	22.4	4.4	5.e-002	11.939
2715	23.	4.4	0.	280.96
2716	22.8	4.2	0.	319.26
2717	22.8	4.4	5.e-002	11.947
2718	23.4	4.4	0.	220.49
2719	23.2	4.2	0.	255.12
2720	23.2	4.4	5.e-002	12.066
2721	23.6	4.2	0.	201.86
2722	23.6	4.4	5.e-002	12.189
2723	23.8	4.4	0.	179.45
2724	0.6	4.	0.	6212.8
2725	0.4	3.8	0.	6793.8
2726	0.4	4.	5.e-002	30.417
2727	0.2	4.	0.	5332.7
2728	1.	4.	0.	5655.7
2729	0.8	3.8	0.	5747.9
2730	0.8	4.	5.e-002	75.907
2731	1.4	4.	0.	5507.8
2732	1.2	3.8	0.	5627.8
2733	1.2	4.	5.e-002	47.345
2734	1.8	4.	0.	5356.8
2735	1.6	3.8	0.	5410.2
2736	1.6	4.	5.e-002	41.178
2737	2.2	4.	0.	5255.8
2738	2.	3.8	0.	5288.1
2739	2.	4.	5.e-002	34.058
2740	2.6	4.	0.	5167.3
2741	2.4	3.8	0.	5185.9
2742	2.4	4.	5.e-002	29.686
2743	3.	4.	0.	5086.3
2744	2.8	3.8	0.	5100.8
2745	2.8	4.	5.e-002	26.315
2746	3.4	4.	0.	5006.4
2747	3.2	3.8	0.	5021.5
2748	3.2	4.	5.e-002	23.852
2749	3.8	4.	0.	4925.1
2750	3.6	3.8	0.	4943.4
2751	3.6	4.	5.e-002	22.016
2752	4.2	4.	0.	4841.1
2753	4.	3.8	0.	4863.6
2754	4.	4.	5.e-002	20.659
2755	4.6	4.	0.	4753.7
2756	4.4	3.8	0.	4780.7
2757	4.4	4.	5.e-002	19.652
2758	5.	4.	0.	4662.8
2759	4.8	3.8	0.	4694.
2760	4.8	4.	5.e-002	18.899
2761	5.4	4.	0.	4568.5
2762	5.2	3.8	0.	4603.7
2763	5.2	4.	5.e-002	18.326
2764	5.8	4.	0.	4471.3
2765	5.6	3.8	0.	4509.8
2766	5.6	4.	5.e-002	17.881
2767	6.2	4.	0.	4371.4
2768	6.	3.8	0.	4412.8
2769	6.	4.	5.e-002	17.526
2770	6.6	4.	0.	4269.2
2771	6.4	3.8	0.	4313.1
2772	6.4	4.	5.e-002	17.233
2773	7.	4.	0.	4165.2
2774	6.8	3.8	0.	4211.2
2775	6.8	4.	5.e-002	16.985
2776	7.4	4.	0.	4059.8
2777	7.2	3.8	0.	4107.4
2778	7.2	4.	5.e-002	16.768
2779	7.8	4.	0.	3953.1
2780	7.6	3.8	0.	4002.1
2781	7.6	4.	5.e-002	16.573
2782	8.2	4.	0.	3845.7
2783	8.	3.8	0.	3895.7
2784	8.	4.	5.e-002	16.395
2785	8.6	4.	0.	3737.6
2786	8.4	3.8	0.	3788.5
2787	8.4	4.	5.e-002	16.229
2788	9.	4.	0.	3629.2
2789	8.8	3.8	0.	3680.7
2790	8.8	4.	5.e-002	16.072
2791	9.4	4.	0.	3520.7
2792	9.2	3.8	0.	3572.5
2793	9.2	4.	5.e-002	15.921
2794	9.8	4.	0.	3412.1
2795	9.6	3.8	0.	3464.3
2796	9.6	4.	5.e-002	15.775
2797	10.2	4.	0.	3303.7
2798	10.	3.8	0.	3356.
2799	10.	4.	5.e-002	15.632
2800	10.6	4.	0.	3195.6
2801	10.4	3.8	0.	3248.
2802	10.4	4.	5.e-002	15.492
2803	11.	4.	0.	3087.8
2804	10.8	3.8	0.	3140.2
2805	10.8	4.	5.e-002	15.355
2806	11.4	4.	0.	2980.5
2807	11.2	3.8	0.	3032.8
2808	11.2	4.	5.e-002	15.219
2809	11.8	4.	0.	2873.8
2810	11.6	3.8	0.	2925.9
2811	11.6	4.	5.e-002	15.085
2812	12.2	4.	0.	2767.7
2813	12.	3.8	0.	2819.6
2814	12.	4.	5.e-002	14.951
2815	12.6	4.	0.	2662.2
2816	12.4	3.8	0.	2713.8
2817	12.4	4.	5.e-002	14.819
2818	13.	4.	0.	2557.5
2819	12.8	3.8	0.	2608.8
2820	12.8	4.	5.e-002	14.687
2821	13.4	4.	0.	2453.5
2822	13.2	3.8	0.	2504.5
2823	13.2	4.	5.e-002	14.555
2824	13.8	4.	0.	2350.3
2825	13.6	3.8	0.	2401.
2826	13.6	4.	5.e-002	14.425
2827	14.2	4.	0.	2248.
2828	14.	3.8	0.	2298.2
2829	14.	4.	5.e-002	14.294
2830	14.6	4.	0.	2146.5
2831	14.4	3.8	0.	2196.4
2832	14.4	4.	5.e-002	14.164
2833	15.	4.	0.	2045.9
2834	14.8	3.8	0.	2095.4
2835	14.8	4.	5.e-002	14.034
2836	15.4	4.	0.	1946.2
2837	15.2	3.8	0.	1995.2
2838	15.2	4.	5.e-002	13.905
2839	15.8	4.	0.	1847.5
2840	15.6	3.8	0.	1896.1
2841	15.6	4.	5.e-002	13.776
2842	16.2	4.	0.	1749.7
2843	16.	3.8	0.	1797.8
2844	16.	4.	5.e-002	13.647
2845	16.6	4.	0.	1653.
2846	16.4	3.8	0.	1700.6
2847	16.4	4.	5.e-002	13.519
2848	17.	4.	0.	1557.2
2849	16.8	3.8	0.	1604.4
2850	16.8	4.	5.e-002	13.391
2851	17.4	4.	0.	1462.5
2852	17.2	3.8	0.	1509.2
2853	17.2	4.	5.e-002	13.264
2854	17.8	4.	0.	1368.9
2855	17.6	3.8	0.	1415.1
2856	17.6	4.	5.e-002	13.137
2857	18.2	4.	0.	1276.5
2858	18.	3.8	0.	1322.2
2859	18.	4.	5.e-002	13.011
2860	18.6	4.	0.	1185.2
2861	18.4	3.8	0.	1230.4
2862	18.4	4.	5.e-002	12.886
2863	19.	4.	0.	1095.1
2864	18.8	3.8	0.	1139.8
2865	18.8	4.	5.e-002	12.762
2866	19.4	4.	0.	1006.3
2867	19.2	3.8	0.	1050.5
2868	19.2	4.	5.e-002	12.64
2869	19.8	4.	0.	918.88
2870	19.6	3.8	0.	962.53
2871	19.6	4.	5.e-002	12.52
2872	20.2	4.	0.	832.93
2873	20.	3.8	0.	876.05
2874	20.	4.	5.e-002	12.404
2875	20.6	4.	0.	748.55
2876	20.4	3.8	0.	791.12
2877	20.4	4.	5.e-002	12.292
2878	21.	4.	0.	665.92
2879	20.8	3.8	0.	707.91
2880	20.8	4.	5.e-002	12.187
2881	21.4	4.	0.	585.24
2882	21.2	3.8	0.	626.59
2883	21.2	4.	5.e-002	12.092
2884	21.8	4.	0.	506.84
2885	21.6	3.8	0.	547.43
2886	21.6	4.	5.e-002	12.012
2887	22.2	4.	0.	431.22
2888	22.	3.8	0.	470.8
2889	22.	4.	5.e-002	11.954
2890	22.6	4.	0.	359.16
2891	22.4	3.8	0.	397.34
2892	22.4	4.	5.e-002	11.934
2893	23.	4.	0.	292.22
2894	22.8	3.8	0.	328.05
2895	22.8	4.	5.e-002	11.959
2896	23.4	4.	0.	233.33
2897	23.2	3.8	0.	265.19
2898	23.2	4.	5.e-002	12.084
2899	23.6	3.8	0.	213.07
2900	23.6	4.	5.e-002	12.176
2901	23.8	4.	0.	193.58
2902	0.6	3.6	0.	6316.5
2903	0.4	3.4	0.	6880.6
2904	0.4	3.6	5.e-002	26.597
2905	0.2	3.6	0.	5422.4
2906	1.	3.6	0.	5721.1
2907	0.8	3.4	0.	5812.2
2908	0.8	3.6	5.e-002	76.969
2909	1.4	3.6	0.	5530.6
2910	1.2	3.4	0.	5663.
2911	1.2	3.6	5.e-002	48.443
2912	1.8	3.6	0.	5342.7
2913	1.6	3.4	0.	5413.
2914	1.6	3.6	5.e-002	41.713
2915	2.2	3.6	0.	5219.1
2916	2.	3.4	0.	5268.3
2917	2.	3.6	5.e-002	33.456
2918	2.6	3.6	0.	5120.
2919	2.4	3.4	0.	5153.5
2920	2.4	3.6	5.e-002	28.473
2921	3.	3.6	0.	5036.5
2922	2.8	3.4	0.	5063.7
2923	2.8	3.6	5.e-002	24.869
2924	3.4	3.6	0.	4958.8
2925	3.2	3.4	0.	4984.5
2926	3.2	3.6	5.e-002	22.439
2927	3.8	3.6	0.	4882.
2928	3.6	3.4	0.	4909.
2929	3.6	3.6	5.e-002	20.762
2930	4.2	3.6	0.	4803.2
2931	4.	3.4	0.	4833.
2932	4.	3.6	5.e-002	19.61
2933	4.6	3.6	0.	4721.
2934	4.4	3.4	0.	4754.
2935	4.4	3.6	5.e-002	18.804
2936	5.	3.6	0.	4634.9
2937	4.8	3.4	0.	4671.2
2938	4.8	3.6	5.e-002	18.229
2939	5.4	3.6	0.	4544.9
2940	5.2	3.4	0.	4584.3
2941	5.2	3.6	5.e-002	17.804
2942	5.8	3.6	0.	4451.3
2943	5.6	3.4	0.	4493.5
2944	5.6	3.6	5.e-002	17.477
2945	6.2	3.6	0.	4354.6
2946	6.	3.4	0.	4399.1
2947	6.	3.6	5.e-002	17.214
2948	6.6	3.6	0.	4255.1
2949	6.4	3.4	0.	4301.5
2950	6.4	3.6	5.e-002	16.993
2951	7.	3.6	0.	4153.3
2952	6.8	3.4	0.	4201.4
2953	6.8	3.6	5.e-002	16.8
2954	7.4	3.6	0.	4049.7
2955	7.2	3.4	0.	4099.1
2956	7.2	3.6	5.e-002	16.625
2957	7.8	3.6	0.	3944.7
2958	7.6	3.4	0.	3995.2
2959	7.6	3.6	5.e-002	16.463
2960	8.2	3.6	0.	3838.5
2961	8.	3.4	0.	3889.8
2962	8.	3.6	5.e-002	16.309
2963	8.6	3.6	0.	3731.5
2964	8.4	3.4	0.	3783.5
2965	8.4	3.6	5.e-002	16.162
2966	9.	3.6	0.	3624.
2967	8.8	3.4	0.	3676.4
2968	8.8	3.6	5.e-002	16.019
2969	9.4	3.6	0.	3516.2
2970	9.2	3.4	0.	3568.9
2971	9.2	3.6	5.e-002	15.879
2972	9.8	3.6	0.	3408.3
2973	9.6	3.4	0.	3461.2
2974	9.6	3.6	5.e-002	15.741
2975	10.2	3.6	0.	3300.4
2976	10.	3.4	0.	3353.4
2977	10.	3.6	5.e-002	15.606
2978	10.6	3.6	0.	3192.7
2979	10.4	3.4	0.	3245.6
2980	10.4	3.6	5.e-002	15.471
2981	11.	3.6	0.	3085.3
2982	10.8	3.4	0.	3138.2
2983	10.8	3.6	5.e-002	15.338
2984	11.4	3.6	0.	2978.3
2985	11.2	3.4	0.	3031.
2986	11.2	3.6	5.e-002	15.205
2987	11.8	3.6	0.	2871.8
2988	11.6	3.4	0.	2924.3
2989	11.6	3.6	5.e-002	15.073
2990	12.2	3.6	0.	2765.9
2991	12.	3.4	0.	2818.2
2992	12.	3.6	5.e-002	14.942
2993	12.6	3.6	0.	2660.6
2994	12.4	3.4	0.	2712.6
2995	12.4	3.6	5.e-002	14.811
2996	13.	3.6	0.	2556.
2997	12.8	3.4	0.	2607.7
2998	12.8	3.6	5.e-002	14.68
2999	13.4	3.6	0.	2452.2
3000	13.2	3.4	0.	2503.5
3001	13.2	3.6	5.e-002	14.55
3002	13.8	3.6	0.	2349.1
3003	13.6	3.4	0.	2400.
3004	13.6	3.6	5.e-002	14.419
3005	14.2	3.6	0.	2246.8
3006	14.	3.4	0.	2297.4
3007	14.	3.6	5.e-002	14.289
3008	14.6	3.6	0.	2145.4
3009	14.4	3.4	0.	2195.5
3010	14.4	3.6	5.e-002	14.16
3011	15.	3.6	0.	2044.9
3012	14.8	3.4	0.	2094.6
3013	14.8	3.6	5.e-002	14.03
3014	15.4	3.6	0.	1945.3
3015	15.2	3.4	0.	1994.5
3016	15.2	3.6	5.e-002	13.901
3017	15.8	3.6	0.	1846.6
3018	15.6	3.4	0.	1895.4
3019	15.6	3.6	5.e-002	13.772
3020	16.2	3.6	0.	1749.
3021	16.	3.4	0.	1797.2
3022	16.	3.6	5.e-002	13.643
3023	16.6	3.6	0.	1652.3
3024	16.4	3.4	0.	1700.1
3025	16.4	3.6	5.e-002	13.514
3026	17.	3.6	0.	1556.6
3027	16.8	3.4	0.	1603.9
3028	16.8	3.6	5.e-002	13.385
3029	17.4	3.6	0.	1462.1
3030	17.2	3.4	0.	1508.8
3031	17.2	3.6	5.e-002	13.257
3032	17.8	3.6	0.	1368.6
3033	17.6	3.4	0.	1414.8
3034	17.6	3.6	5.e-002	13.129
3035	18.2	3.6	0.	1276.3
3036	18.	3.4	0.	1322.
3037	18.	3.6	5.e-002	13.002
3038	18.6	3.6	0.	1185.2
3039	18.4	3.4	0.	1230.3
3040	18.4	3.6	5.e-002	12.875
3041	19.	3.6	0.	1095.4
3042	18.8	3.4	0.	1139.9
3043	18.8	3.6	5.e-002	12.749
3044	19.4	3.6	0.	1007.
3045	19.2	3.4	0.	1050.9
3046	19.2	3.6	5.e-002	12.625
3047	19.8	3.6	0.	919.95
3048	19.6	3.4	0.	963.2
3049	19.6	3.6	5.e-002	12.503
3050	20.2	3.6	0.	834.49
3051	20.	3.4	0.	877.05
3052	20.	3.6	5.e-002	12.384
3053	20.6	3.6	0.	750.7
3054	20.4	3.4	0.	792.54
3055	20.4	3.6	5.e-002	12.27
3056	21.	3.6	0.	668.77
3057	20.8	3.4	0.	709.82
3058	20.8	3.6	5.e-002	12.164
3059	21.4	3.6	0.	588.9
3060	21.2	3.4	0.	629.07
3061	21.2	3.6	5.e-002	12.069
3062	21.8	3.6	0.	511.4
3063	21.6	3.4	0.	550.56
3064	21.6	3.6	5.e-002	11.993
3065	22.2	3.6	0.	436.73
3066	22.	3.4	0.	474.63
3067	22.	3.6	5.e-002	11.943
3068	22.6	3.6	0.	365.64
3069	22.4	3.4	0.	401.89
3070	22.4	3.6	5.e-002	11.934
3071	23.	3.6	0.	299.65
3072	22.8	3.4	0.	333.32
3073	22.8	3.6	5.e-002	11.969
3074	23.4	3.6	0.	241.67
3075	23.2	3.4	0.	271.12
3076	23.2	3.6	5.e-002	12.095
3077	23.6	3.4	0.	219.63
3078	23.6	3.6	5.e-002	12.168
3079	23.8	3.6	0.	202.67
3080	0.6	3.2	0.	6365.7
3081	0.4	3.	0.	6908.
3082	0.4	3.2	5.e-002	24.665
3083	0.2	3.2	0.	5463.5
3084	1.	3.2	0.	5755.1
3085	0.8	3.	0.	5833.6
3086	0.8	3.2	5.e-002	77.472
3087	1.4	3.2	0.	5545.5
3088	1.2	3.	0.	5675.7
3089	1.2	3.2	5.e-002	49.193
3090	1.8	3.2	0.	5339.4
3091	1.6	3.	0.	5415.3
3092	1.6	3.2	5.e-002	42.28
3093	2.2	3.2	0.	5203.4
3094	2.	3.	0.	5262.9
3095	2.	3.2	5.e-002	33.407
3096	2.6	3.2	0.	5097.7
3097	2.4	3.	0.	5143.4
3098	2.4	3.2	5.e-002	27.972
3099	3.	3.2	0.	5012.1
3100	2.8	3.	0.	5051.6
3101	2.8	3.2	5.e-002	24.135
3102	3.4	3.2	0.	4935.
3103	3.2	3.	0.	4972.2
3104	3.2	3.2	5.e-002	21.668
3105	3.8	3.2	0.	4860.1
3106	3.6	3.	0.	4897.5
3107	3.6	3.2	5.e-002	20.061
3108	4.2	3.2	0.	4783.9
3109	4.	3.	0.	4822.7
3110	4.	3.2	5.e-002	19.019
3111	4.6	3.2	0.	4704.3
3112	4.4	3.	0.	4745.
3113	4.4	3.2	5.e-002	18.329
3114	5.	3.2	0.	4620.6
3115	4.8	3.	0.	4663.5
3116	4.8	3.2	5.e-002	17.856
3117	5.4	3.2	0.	4532.8
3118	5.2	3.	0.	4577.8
3119	5.2	3.2	5.e-002	17.516
3120	5.8	3.2	0.	4441.1
3121	5.6	3.	0.	4487.9
3122	5.6	3.2	5.e-002	17.256
3123	6.2	3.2	0.	4346.
3124	6.	3.	0.	4394.4
3125	6.	3.2	5.e-002	17.045
3126	6.6	3.2	0.	4247.9
3127	6.4	3.	0.	4297.6
3128	6.4	3.2	5.e-002	16.864
3129	7.	3.2	0.	4147.2
3130	6.8	3.	0.	4198.1
3131	6.8	3.2	5.e-002	16.701
3132	7.4	3.2	0.	4044.6
3133	7.2	3.	0.	4096.4
3134	7.2	3.2	5.e-002	16.549
3135	7.8	3.2	0.	3940.3
3136	7.6	3.	0.	3992.8
3137	7.6	3.2	5.e-002	16.404
3138	8.2	3.2	0.	3834.8
3139	8.	3.	0.	3887.8
3140	8.	3.2	5.e-002	16.264
3141	8.6	3.2	0.	3728.4
3142	8.4	3.	0.	3781.8
3143	8.4	3.2	5.e-002	16.126
3144	9.	3.2	0.	3621.4
3145	8.8	3.	0.	3675.
3146	8.8	3.2	5.e-002	15.991
3147	9.4	3.2	0.	3514.
3148	9.2	3.	0.	3567.7
3149	9.2	3.2	5.e-002	15.857
3150	9.8	3.2	0.	3406.3
3151	9.6	3.	0.	3460.1
3152	9.6	3.2	5.e-002	15.724
3153	10.2	3.2	0.	3298.7
3154	10.	3.	0.	3352.5
3155	10.	3.2	5.e-002	15.591
3156	10.6	3.2	0.	3191.2
3157	10.4	3.	0.	3244.9
3158	10.4	3.2	5.e-002	15.46
3159	11.	3.2	0.	3084.
3160	10.8	3.	0.	3137.5
3161	10.8	3.2	5.e-002	15.328
3162	11.4	3.2	0.	2977.2
3163	11.2	3.	0.	3030.4
3164	11.2	3.2	5.e-002	15.197
3165	11.8	3.2	0.	2870.8
3166	11.6	3.	0.	2923.8
3167	11.6	3.2	5.e-002	15.067
3168	12.2	3.2	0.	2765.
3169	12.	3.	0.	2817.7
3170	12.	3.2	5.e-002	14.936
3171	12.6	3.2	0.	2659.8
3172	12.4	3.	0.	2712.2
3173	12.4	3.2	5.e-002	14.806
3174	13.	3.2	0.	2555.3
3175	12.8	3.	0.	2607.3
3176	12.8	3.2	5.e-002	14.676
3177	13.4	3.2	0.	2451.5
3178	13.2	3.	0.	2503.1
3179	13.2	3.2	5.e-002	14.546
3180	13.8	3.2	0.	2348.5
3181	13.6	3.	0.	2399.7
3182	13.6	3.2	5.e-002	14.416
3183	14.2	3.2	0.	2246.3
3184	14.	3.	0.	2297.1
3185	14.	3.2	5.e-002	14.287
3186	14.6	3.2	0.	2144.9
3187	14.4	3.	0.	2195.3
3188	14.4	3.2	5.e-002	14.157
3189	15.	3.2	0.	2044.4
3190	14.8	3.	0.	2094.3
3191	14.8	3.2	5.e-002	14.028
3192	15.4	3.2	0.	1944.8
3193	15.2	3.	0.	1994.3
3194	15.2	3.2	5.e-002	13.898
3195	15.8	3.2	0.	1846.2
3196	15.6	3.	0.	1895.2
3197	15.6	3.2	5.e-002	13.769
3198	16.2	3.2	0.	1748.6
3199	16.	3.	0.	1797.
3200	16.	3.2	5.e-002	13.64
3201	16.6	3.2	0.	1651.9
3202	16.4	3.	0.	1699.9
3203	16.4	3.2	5.e-002	13.511
3204	17.	3.2	0.	1556.3
3205	16.8	3.	0.	1603.8
3206	16.8	3.2	5.e-002	13.382
3207	17.4	3.2	0.	1461.8
3208	17.2	3.	0.	1508.7
3209	17.2	3.2	5.e-002	13.253
3210	17.8	3.2	0.	1368.5
3211	17.6	3.	0.	1414.7
3212	17.6	3.2	5.e-002	13.125
3213	18.2	3.2	0.	1276.3
3214	18.	3.	0.	1321.9
3215	18.	3.2	5.e-002	12.996
3216	18.6	3.2	0.	1185.3
3217	18.4	3.	0.	1230.3
3218	18.4	3.2	5.e-002	12.869
3219	19.	3.2	0.	1095.6
3220	18.8	3.	0.	1140.
3221	18.8	3.2	5.e-002	12.742
3222	19.4	3.2	0.	1007.3
3223	19.2	3.	0.	1051.
3224	19.2	3.2	5.e-002	12.617
3225	19.8	3.2	0.	920.54
3226	19.6	3.	0.	963.44
3227	19.6	3.2	5.e-002	12.493
3228	20.2	3.2	0.	835.33
3229	20.	3.	0.	877.41
3230	20.	3.2	5.e-002	12.373
3231	20.6	3.2	0.	751.85
3232	20.4	3.	0.	793.04
3233	20.4	3.2	5.e-002	12.258
3234	21.	3.2	0.	670.28
3235	20.8	3.	0.	710.48
3236	20.8	3.2	5.e-002	12.152
3237	21.4	3.2	0.	590.81
3238	21.2	3.	0.	629.92
3239	21.2	3.2	5.e-002	12.058
3240	21.8	3.2	0.	513.75
3241	21.6	3.	0.	551.62
3242	21.6	3.2	5.e-002	11.984
3243	22.2	3.2	0.	439.53
3244	22.	3.	0.	475.93
3245	22.	3.2	5.e-002	11.939
3246	22.6	3.2	0.	368.89
3247	22.4	3.	0.	403.42
3248	22.4	3.2	5.e-002	11.935
3249	23.	3.2	0.	303.33
3250	22.8	3.	0.	335.07
3251	22.8	3.2	5.e-002	11.974
3252	23.4	3.2	0.	245.78
3253	23.2	3.	0.	273.08
3254	23.2	3.2	5.e-002	12.101
3255	23.6	3.	0.	221.78
3256	23.6	3.2	5.e-002	12.164
3257	23.8	3.2	0.	207.12
3258	0.6	2.8	0.	6365.7
3259	0.4	2.6	0.	6880.6
3260	0.4	2.8	5.e-002	24.665
3261	0.2	2.8	0.	5463.5
3262	1.	2.8	0.	5755.1
3263	0.8	2.6	0.	5812.2
3264	0.8	2.8	5.e-002	77.472
3265	1.4	2.8	0.	5545.5
3266	1.2	2.6	0.	5663.
3267	1.2	2.8	5.e-002	49.193
3268	1.8	2.8	0.	5339.4
3269	1.6	2.6	0.	5413.
3270	1.6	2.8	5.e-002	42.28
3271	2.2	2.8	0.	5203.4
3272	2.	2.6	0.	5268.3
3273	2.	2.8	5.e-002	33.407
3274	2.6	2.8	0.	5097.7
3275	2.4	2.6	0.	5153.5
3276	2.4	2.8	5.e-002	27.972
3277	3.	2.8	0.	5012.1
3278	2.8	2.6	0.	5063.7
3279	2.8	2.8	5.e-002	24.135
3280	3.4	2.8	0.	4935.
3281	3.2	2.6	0.	4984.5
3282	3.2	2.8	5.e-002	21.668
3283	3.8	2.8	0.	4860.1
3284	3.6	2.6	0.	4909.
3285	3.6	2.8	5.e-002	20.061
3286	4.2	2.8	0.	4783.9
3287	4.	2.6	0.	4833.
3288	4.	2.8	5.e-002	19.019
3289	4.6	2.8	0.	4704.3
3290	4.4	2.6	0.	4754.
3291	4.4	2.8	5.e-002	18.329
3292	5.	2.8	0.	4620.6
3293	4.8	2.6	0.	4671.2
3294	4.8	2.8	5.e-002	17.856
3295	5.4	2.8	0.	4532.8
3296	5.2	2.6	0.	4584.3
3297	5.2	2.8	5.e-002	17.516
3298	5.8	2.8	0.	4441.1
3299	5.6	2.6	0.	4493.5
3300	5.6	2.8	5.e-002	17.256
3301	6.2	2.8	0.	4346.
3302	6.	2.6	0.	4399.1
3303	6.	2.8	5.e-002	17.045
3304	6.6	2.8	0.	4247.9
3305	6.4	2.6	0.	4301.5
3306	6.4	2.8	5.e-002	16.864
3307	7.	2.8	0.	4147.2
3308	6.8	2.6	0.	4201.4
3309	6.8	2.8	5.e-002	16.701
3310	7.4	2.8	0.	4044.6
3311	7.2	2.6	0.	4099.1
3312	7.2	2.8	5.e-002	16.549
3313	7.8	2.8	0.	3940.3
3314	7.6	2.6	0.	3995.2
3315	7.6	2.8	5.e-002	16.404
3316	8.2	2.8	0.	3834.8
3317	8.	2.6	0.	3889.8
3318	8.	2.8	5.e-002	16.264
3319	8.6	2.8	0.	3728.4
3320	8.4	2.6	0.	3783.5
3321	8.4	2.8	5.e-002	16.126
3322	9.	2.8	0.	3621.4
3323	8.8	2.6	0.	3676.4
3324	8.8	2.8	5.e-002	15.991
3325	9.4	2.8	0.	3514.
3326	9.2	2.6	0.	3568.9
3327	9.2	2.8	5.e-002	15.857
3328	9.8	2.8	0.	3406.3
3329	9.6	2.6	0.	3461.2
3330	9.6	2.8	5.e-002	15.724
3331	10.2	2.8	0.	3298.7
3332	10.	2.6	0.	3353.4
3333	10.	2.8	5.e-002	15.591
3334	10.6	2.8	0.	3191.2
3335	10.4	2.6	0.	3245.6
3336	10.4	2.8	5.e-002	15.46
3337	11.	2.8	0.	3084.
3338	10.8	2.6	0.	3138.2
3339	10.8	2.8	5.e-002	15.328
3340	11.4	2.8	0.	2977.2
3341	11.2	2.6	0.	3031.
3342	11.2	2.8	5.e-002	15.197
3343	11.8	2.8	0.	2870.8
3344	11.6	2.6	0.	2924.3
3345	11.6	2.8	5.e-002	15.067
3346	12.2	2.8	0.	2765.
3347	12.	2.6	0.	2818.2
3348	12.	2.8	5.e-002	14.936
3349	12.6	2.8	0.	2659.8
3350	12.4	2.6	0.	2712.6
3351	12.4	2.8	5.e-002	14.806
3352	13.	2.8	0.	2555.3
3353	12.8	2.6	0.	2607.7
3354	12.8	2.8	5.e-002	14.676
3355	13.4	2.8	0.	2451.5
3356	13.2	2.6	0.	2503.5
3357	13.2	2.8	5.e-002	14.546
3358	13.8	2.8	0.	2348.5
3359	13.6	2.6	0.	2400.
3360	13.6	2.8	5.e-002	14.416
3361	14.2	2.8	0.	2246.3
3362	14.	2.6	0.	2297.4
3363	14.	2.8	5.e-002	14.287
3364	14.6	2.8	0.	2144.9
3365	14.4	2.6	0.	2195.5
3366	14.4	2.8	5.e-002	14.157
3367	15.	2.8	0.	2044.4
3368	14.8	2.6	0.	2094.6
3369	14.8	2.8	5.e-002	14.028
3370	15.4	2.8	0.	1944.8
3371	15.2	2.6	0.	1994.5
3372	15.2	2.8	5.e-002	13.898
3373	15.8	2.8	0.	1846.2
3374	15.6	2.6	0.	1895.4
3375	15.6	2.8	5.e-002	13.769
3376	16.2	2.8	0.	1748.6
3377	16.	2.6	0.	1797.2
3378	16.	2.8	5.e-002	13.64
3379	16.6	2.8	0.	1651.9
3380	16.4	2.6	0.	1700.1
3381	16.4	2.8	5.e-002	13.511
3382	17.	2.8	0.	1556.3
3383	16.8	2.6	0.	1603.9
3384	16.8	2.8	5.e-002	13.382
3385	17.4	2.8	0.	1461.8
3386	17.2	2.6	0.	1508.8
3387	17.2	2.8	5.e-002	13.253
3388	17.8	2.8	0.	1368.5
3389	17.6	2.6	0.	1414.8
3390	17.6	2.8	5.e-002	13.125
3391	18.2	2.8	0.	1276.3
3392	18.	2.6	0.	1322.
3393	18.	2.8	5.e-002	12.996
3394	18.6	2.8	0.	1185.3
3395	18.4	2.6	0.	1230.3
3396	18.4	2.8	5.e-002	12.869
3397	19.	2.8	0.	1095.6
3398	18.8	2.6	0.	1139.9
3399	18.8	2.8	5.e-002	12.742
3400	19.4	2.8	0.	1007.3
3401	19.2	2.6	0.	1050.9
3402	19.2	2.8	5.e-002	12.617
3403	19.8	2.8	0.	920.54
3404	19.6	2.6	0.	963.2
3405	19.6	2.8	5.e-002	12.493
3406	20.2	2.8	0.	835.33
3407	20.	2.6	0.	877.05
3408	20.	2.8	5.e-002	12.373
3409	20.6	2.8	0.	751.85
3410	20.4	2.6	0.	792.54
3411	20.4	2.8	5.e-002	12.258
3412	21.	2.8	0.	670.28
3413	20.8	2.6	0.	709.82
3414	20.8	2.8	5.e-002	12.152
3415	21.4	2.8	0.	590.81
3416	21.2	2.6	0.	629.07
3417	21.2	2.8	5.e-002	12.058
3418	21.8	2.8	0.	513.75
3419	21.6	2.6	0.	550.56
3420	21.6	2.8	5.e-002	11.984
3421	22.2	2.8	0.	439.53
3422	22.	2.6	0.	474.63
3423	22.	2.8	5.e-002	11.939
3424	22.6	2.8	0.	368.89
3425	22.4	2.6	0.	401.89
3426	22.4	2.8	5.e-002	11.935
3427	23.	2.8	0.	303.33
3428	22.8	2.6	0.	333.32
3429	22.8	2.8	5.e-002	11.974
3430	23.4	2.8	0.	245.78
3431	23.2	2.6	0.	271.12
3432	23.2	2.8	5.e-002	12.101
3433	23.6	2.6	0.	219.63
3434	23.6	2.8	5.e-002	12.164
3435	23.8	2.8	0.	207.12
3436	0.6	2.4	0.	6316.5
3437	0.4	2.2	0.	6793.8
3438	0.4	2.4	5.e-002	26.597
3439	0.2	2.4	0.	5422.4
3440	1.	2.4	0.	5721.1
3441	0.8	2.2	0.	5747.9
3442	0.8	2.4	5.e-002	76.969
3443	1.4	2.4	0.	5530.6
3444	1.2	2.2	0.	5627.8
3445	1.2	2.4	5.e-002	48.443
3446	1.8	2.4	0.	5342.7
3447	1.6	2.2	0.	5410.2
3448	1.6	2.4	5.e-002	41.713
3449	2.2	2.4	0.	5219.1
3450	2.	2.2	0.	5288.1
3451	2.	2.4	5.e-002	33.456
3452	2.6	2.4	0.	5120.
3453	2.4	2.2	0.	5185.9
3454	2.4	2.4	5.e-002	28.473
3455	3.	2.4	0.	5036.5
3456	2.8	2.2	0.	5100.8
3457	2.8	2.4	5.e-002	24.869
3458	3.4	2.4	0.	4958.8
3459	3.2	2.2	0.	5021.5
3460	3.2	2.4	5.e-002	22.439
3461	3.8	2.4	0.	4882.
3462	3.6	2.2	0.	4943.4
3463	3.6	2.4	5.e-002	20.762
3464	4.2	2.4	0.	4803.2
3465	4.	2.2	0.	4863.6
3466	4.	2.4	5.e-002	19.61
3467	4.6	2.4	0.	4721.
3468	4.4	2.2	0.	4780.7
3469	4.4	2.4	5.e-002	18.804
3470	5.	2.4	0.	4634.9
3471	4.8	2.2	0.	4694.
3472	4.8	2.4	5.e-002	18.229
3473	5.4	2.4	0.	4544.9
3474	5.2	2.2	0.	4603.7
3475	5.2	2.4	5.e-002	17.804
3476	5.8	2.4	0.	4451.3
3477	5.6	2.2	0.	4509.8
3478	5.6	2.4	5.e-002	17.477
3479	6.2	2.4	0.	4354.6
3480	6.	2.2	0.	4412.8
3481	6.	2.4	5.e-002	17.214
3482	6.6	2.4	0.	4255.1
3483	6.4	2.2	0.	4313.1
3484	6.4	2.4	5.e-002	16.993
3485	7.	2.4	0.	4153.3
3486	6.8	2.2	0.	4211.2
3487	6.8	2.4	5.e-002	16.8
3488	7.4	2.4	0.	4049.7
3489	7.2	2.2	0.	4107.4
3490	7.2	2.4	5.e-002	16.625
3491	7.8	2.4	0.	3944.7
3492	7.6	2.2	0.	4002.1
3493	7.6	2.4	5.e-002	16.463
3494	8.2	2.4	0.	3838.5
3495	8.	2.2	0.	3895.7
3496	8.	2.4	5.e-002	16.309
3497	8.6	2.4	0.	3731.5
3498	8.4	2.2	0.	3788.5
3499	8.4	2.4	5.e-002	16.162
3500	9.	2.4	0.	3624.
3501	8.8	2.2	0.	3680.7
3502	8.8	2.4	5.e-002	16.019
3503	9.4	2.4	0.	3516.2
3504	9.2	2.2	0.	3572.5
3505	9.2	2.4	5.e-002	15.879
3506	9.8	2.4	0.	3408.3
3507	9.6	2.2	0.	3464.3
3508	9.6	2.4	5.e-002	15.741
3509	10.2	2.4	0.	3300.4
3510	10.	2.2	0.	3356.
3511	10.	2.4	5.e-002	15.606
3512	10.6	2.4	0.	3192.7
3513	10.4	2.2	0.	3248.
3514	10.4	2.4	5.e-002	15.471
3515	11.	2.4	0.	3085.3
3516	10.8	2.2	0.	3140.2
3517	10.8	2.4	5.e-002	15.338
3518	11.4	2.4	0.	2978.3
3519	11.2	2.2	0.	3032.8
3520	11.2	2.4	5.e-002	15.205
3521	11.8	2.4	0.	2871.8
3522	11.6	2.2	0.	2925.9
3523	11.6	2.4	5.e-002	15.073
3524	12.2	2.4	0.	2765.9
3525	12.	2.2	0.	2819.6
3526	12.	2.4	5.e-002	14.942
3527	12.6	2.4	0.	2660.6
3528	12.4	2.2	0.	2713.8
3529	12.4	2.4	5.e-002	14.811
3530	13.	2.4	0.	2556.
3531	12.8	2.2	0.	2608.8
3532	12.8	2.4	5.e-002	14.68
3533	13.4	2.4	0.	2452.2
3534	13.2	2.2	0.	2504.5
3535	13.2	2.4	5.e-002	14.55
3536	13.8	2.4	0.	2349.1
3537	13.6	2.2	0.	2401.
3538	13.6	2.4	5.e-002	14.419
3539	14.2	2.4	0.	2246.8
3540	14.	2.2	0.	2298.2
3541	14.	2.4	5.e-002	14.289
3542	14.6	2.4	0.	2145.4
3543	14.4	2.2	0.	2196.4
3544	14.4	2.4	5.e-002	14.16
3545	15.	2.4	0.	2044.9
3546	14.8	2.2	0.	2095.4
3547	14.8	2.4	5.e-002	14.03
3548	15.4	2.4	0.	1945.3
3549	15.2	2.2	0.	1995.2
3550	15.2	2.4	5.e-002	13.901
3551	15.8	2.4	0.	1846.6
3552	15.6	2.2	0.	1896.1
3553	15.6	2.4	5.e-002	13.772
3554	16.2	2.4	0.	1749.
3555	16.	2.2	0.	1797.8
3556	16.	2.4	5.e-002	13.643
3557	16.6	2.4	0.	1652.3
3558	16.4	2.2	0.	1700.6
3559	16.4	2.4	5.e-002	13.514
3560	17.	2.4	0.	1556.6
3561	16.8	2.2	0.	1604.4
3562	16.8	2.4	5.e-002	13.385
3563	17.4	2.4	0.	1462.1
3564	17.2	2.2	0.	1509.2
3565	17.2	2.4	5.e-002	13.257
3566	17.8	2.4	0.	1368.6
3567	17.6	2.2	0.	1415.1
3568	17.6	2.4	5.e-002	13.129
3569	18.2	2.4	0.	1276.3
3570	18.	2.2	0.	1322.2
3571	18.	2.4	5.e-002	13.002
3572	18.6	2.4	0.	1185.2
3573	18.4	2.2	0.	1230.4
3574	18.4	2.4	5.e-002	12.875
3575	19.	2.4	0.	1095.4
3576	18.8	2.2	0.	1139.8
3577	18.8	2.4	5.e-002	12.749
3578	19.4	2.4	0.	1007.
3579	19.2	2.2	0.	1050.5
3580	19.2	2.4	5.e-002	12.625
3581	19.8	2.4	0.	919.95
3582	19.6	2.2	0.	962.53
3583	19.6	2.4	5.e-002	12.503
3584	20.2	2.4	0.	834.49
3585	20.	2.2	0.	876.05
3586	20.	2.4	5.e-002	12.384
3587	20.6	2.4	0.	750.7
3588	20.4	2.2	0.	791.12
3589	20.4	2.4	5.e-002	12.27
3590	21.	2.4	0.	668.77
3591	20.8	2.2	0.	707.91
3592	20.8	2.4	5.e-002	12.164
3593	21.4	2.4	0.	588.9
3594	21.2	2.2	0.	626.59
3595	21.2	2.4	5.e-002	12.069
3596	21.8	2.4	0.	511.4
3597	21.6	2.2	0.	547.43
3598	21.6	2.4	5.e-002	11.993
3599	22.2	2.4	0.	436.73
3600	22.	2.2	0.	470.8
3601	22.	2.4	5.e-002	11.943
3602	22.6	2.4	0.	365.64
3603	22.4	2.2	0.	397.34
3604	22.4	2.4	5.e-002	11.934
3605	23.	2.4	0.	299.65
3606	22.8	2.2	0.	328.05
3607	22.8	2.4	5.e-002	11.969
3608	23.4	2.4	0.	241.67
3609	23.2	2.2	0.	265.19
3610	23.2	2.4	5.e-002	12.095
3611	23.6	2.2	0.	213.07
3612	23.6	2.4	5.e-002	12.168
3613	23.8	2.4	0.	202.67
3614	0.6	2.	0.	6212.8
3615	0.4	1.8	0.	6632.6
3616	0.4	2.	5.e-002	30.417
3617	0.2	2.	0.	5332.7
3618	1.	2.	0.	5655.7
3619	0.8	1.8	0.	5641.4
3620	0.8	2.	5.e-002	75.907
3621	1.4	2.	0.	5507.8
3622	1.2	1.8	0.	5581.5
3623	1.2	2.	5.e-002	47.345
3624	1.8	2.	0.	5356.8
3625	1.6	1.8	0.	5420.2
3626	1.6	2.	5.e-002	41.178
3627	2.2	2.	0.	5255.8
3628	2.	1.8	0.	5331.7
3629	2.	2.	5.e-002	34.058
3630	2.6	2.	0.	5167.3
3631	2.4	1.8	0.	5245.7
3632	2.4	2.	5.e-002	29.686
3633	3.	2.	0.	5086.3
3634	2.8	1.8	0.	5165.
3635	2.8	2.	5.e-002	26.315
3636	3.4	2.	0.	5006.4
3637	3.2	1.8	0.	5083.5
3638	3.2	2.	5.e-002	23.852
3639	3.8	2.	0.	4925.1
3640	3.6	1.8	0.	5000.
3641	3.6	2.	5.e-002	22.016
3642	4.2	2.	0.	4841.1
3643	4.	1.8	0.	4913.5
3644	4.	2.	5.e-002	20.659
3645	4.6	2.	0.	4753.7
3646	4.4	1.8	0.	4823.8
3647	4.4	2.	5.e-002	19.652
3648	5.	2.	0.	4662.8
3649	4.8	1.8	0.	4730.9
3650	4.8	2.	5.e-002	18.899
3651	5.4	2.	0.	4568.5
3652	5.2	1.8	0.	4635.
3653	5.2	2.	5.e-002	18.326
3654	5.8	2.	0.	4471.3
3655	5.6	1.8	0.	4536.3
3656	5.6	2.	5.e-002	17.881
3657	6.2	2.	0.	4371.4
3658	6.	1.8	0.	4435.1
3659	6.	2.	5.e-002	17.526
3660	6.6	2.	0.	4269.2
3661	6.4	1.8	0.	4331.9
3662	6.4	2.	5.e-002	17.233
3663	7.	2.	0.	4165.2
3664	6.8	1.8	0.	4227.
3665	6.8	2.	5.e-002	16.985
3666	7.4	2.	0.	4059.8
3667	7.2	1.8	0.	4120.7
3668	7.2	2.	5.e-002	16.768
3669	7.8	2.	0.	3953.1
3670	7.6	1.8	0.	4013.3
3671	7.6	2.	5.e-002	16.573
3672	8.2	2.	0.	3845.7
3673	8.	1.8	0.	3905.2
3674	8.	2.	5.e-002	16.395
3675	8.6	2.	0.	3737.6
3676	8.4	1.8	0.	3796.5
3677	8.4	2.	5.e-002	16.229
3678	9.	2.	0.	3629.2
3679	8.8	1.8	0.	3687.5
3680	8.8	2.	5.e-002	16.072
3681	9.4	2.	0.	3520.7
3682	9.2	1.8	0.	3578.4
3683	9.2	2.	5.e-002	15.921
3684	9.8	2.	0.	3412.1
3685	9.6	1.8	0.	3469.3
3686	9.6	2.	5.e-002	15.775
3687	10.2	2.	0.	3303.7
3688	10.	1.8	0.	3360.4
3689	10.	2.	5.e-002	15.632
3690	10.6	2.	0.	3195.6
3691	10.4	1.8	0.	3251.7
3692	10.4	2.	5.e-002	15.492
3693	11.	2.	0.	3087.8
3694	10.8	1.8	0.	3143.5
3695	10.8	2.	5.e-002	15.355
3696	11.4	2.	0.	2980.5
3697	11.2	1.8	0.	3035.7
3698	11.2	2.	5.e-002	15.219
3699	11.8	2.	0.	2873.8
3700	11.6	1.8	0.	2928.5
3701	11.6	2.	5.e-002	15.085
3702	12.2	2.	0.	2767.7
3703	12.	1.8	0.	2821.8
3704	12.	2.	5.e-002	14.951
3705	12.6	2.	0.	2662.2
3706	12.4	1.8	0.	2715.9
3707	12.4	2.	5.e-002	14.819
3708	13.	2.	0.	2557.5
3709	12.8	1.8	0.	2610.7
3710	12.8	2.	5.e-002	14.687
3711	13.4	2.	0.	2453.5
3712	13.2	1.8	0.	2506.2
3713	13.2	2.	5.e-002	14.555
3714	13.8	2.	0.	2350.3
3715	13.6	1.8	0.	2402.6
3716	13.6	2.	5.e-002	14.425
3717	14.2	2.	0.	2248.
3718	14.	1.8	0.	2299.7
3719	14.	2.	5.e-002	14.294
3720	14.6	2.	0.	2146.5
3721	14.4	1.8	0.	2197.7
3722	14.4	2.	5.e-002	14.164
3723	15.	2.	0.	2045.9
3724	14.8	1.8	0.	2096.6
3725	14.8	2.	5.e-002	14.034
3726	15.4	2.	0.	1946.2
3727	15.2	1.8	0.	1996.5
3728	15.2	2.	5.e-002	13.905
3729	15.8	2.	0.	1847.5
3730	15.6	1.8	0.	1897.2
3731	15.6	2.	5.e-002	13.776
3732	16.2	2.	0.	1749.7
3733	16.	1.8	0.	1798.9
3734	16.	2.	5.e-002	13.647
3735	16.6	2.	0.	1653.
3736	16.4	1.8	0.	1701.6
3737	16.4	2.	5.e-002	13.519
3738	17.	2.	0.	1557.2
3739	16.8	1.8	0.	1605.2
3740	16.8	2.	5.e-002	13.391
3741	17.4	2.	0.	1462.5
3742	17.2	1.8	0.	1509.9
3743	17.2	2.	5.e-002	13.264
3744	17.8	2.	0.	1368.9
3745	17.6	1.8	0.	1415.7
3746	17.6	2.	5.e-002	13.137
3747	18.2	2.	0.	1276.5
3748	18.	1.8	0.	1322.5
3749	18.	2.	5.e-002	13.011
3750	18.6	2.	0.	1185.2
3751	18.4	1.8	0.	1230.5
3752	18.4	2.	5.e-002	12.886
3753	19.	2.	0.	1095.1
3754	18.8	1.8	0.	1139.6
3755	18.8	2.	5.e-002	12.762
3756	19.4	2.	0.	1006.3
3757	19.2	1.8	0.	1050.
3758	19.2	2.	5.e-002	12.64
3759	19.8	2.	0.	918.88
3760	19.6	1.8	0.	961.59
3761	19.6	2.	5.e-002	12.52
3762	20.2	2.	0.	832.93
3763	20.	1.8	0.	874.57
3764	20.	2.	5.e-002	12.404
3765	20.6	2.	0.	748.55
3766	20.4	1.8	0.	788.99
3767	20.4	2.	5.e-002	12.292
3768	21.	2.	0.	665.92
3769	20.8	1.8	0.	704.98
3770	20.8	2.	5.e-002	12.187
3771	21.4	2.	0.	585.24
3772	21.2	1.8	0.	622.73
3773	21.2	2.	5.e-002	12.092
3774	21.8	2.	0.	506.84
3775	21.6	1.8	0.	542.48
3776	21.6	2.	5.e-002	12.012
3777	22.2	2.	0.	431.22
3778	22.	1.8	0.	464.64
3779	22.	2.	5.e-002	11.954
3780	22.6	2.	0.	359.16
3781	22.4	1.8	0.	389.87
3782	22.4	2.	5.e-002	11.934
3783	23.	2.	0.	292.22
3784	22.8	1.8	0.	319.26
3785	22.8	2.	5.e-002	11.959
3786	23.4	2.	0.	233.33
3787	23.2	1.8	0.	255.12
3788	23.2	2.	5.e-002	12.084
3789	23.6	1.8	0.	201.86
3790	23.6	2.	5.e-002	12.176
3791	23.8	2.	0.	193.58
3792	0.6	1.6	0.	6045.4
3793	0.4	1.4	0.	6369.
3794	0.4	1.6	5.e-002	36.402
3795	0.2	1.6	0.	5177.5
3796	1.	1.6	0.	5569.2
3797	0.8	1.4	0.	5503.6
3798	0.8	1.6	5.e-002	73.942
3799	1.4	1.6	0.	5495.2
3800	1.2	1.4	0.	5552.1
3801	1.2	1.6	5.e-002	47.663
3802	1.8	1.6	0.	5397.
3803	1.6	1.4	0.	5465.8
3804	1.6	1.6	5.e-002	42.075
3805	2.2	1.6	0.	5322.9
3806	2.	1.4	0.	5412.6
3807	2.	1.6	5.e-002	35.912
3808	2.6	1.6	0.	5244.2
3809	2.4	1.4	0.	5339.
3810	2.4	1.6	5.e-002	31.717
3811	3.	1.6	0.	5162.7
3812	2.8	1.4	0.	5257.9
3813	2.8	1.6	5.e-002	28.305
3814	3.4	1.6	0.	5077.3
3815	3.2	1.4	0.	5169.8
3816	3.2	1.6	5.e-002	25.652
3817	3.8	1.6	0.	4988.4
3818	3.6	1.4	0.	5077.
3819	3.6	1.6	5.e-002	23.572
3820	4.2	1.6	0.	4896.2
3821	4.	1.4	0.	4980.8
3822	4.	1.6	5.e-002	21.959
3823	4.6	1.6	0.	4801.
3824	4.4	1.4	0.	4881.7
3825	4.4	1.6	5.e-002	20.712
3826	5.	1.6	0.	4703.1
3827	4.8	1.4	0.	4780.2
3828	4.8	1.6	5.e-002	19.747
3829	5.4	1.6	0.	4602.6
3830	5.2	1.4	0.	4676.8
3831	5.2	1.6	5.e-002	18.996
3832	5.8	1.6	0.	4500.1
3833	5.6	1.4	0.	4571.6
3834	5.6	1.6	5.e-002	18.405
3835	6.2	1.6	0.	4395.6
3836	6.	1.4	0.	4464.9
3837	6.	1.6	5.e-002	17.933
3838	6.6	1.6	0.	4289.7
3839	6.4	1.4	0.	4357.
3840	6.4	1.6	5.e-002	17.548
3841	7.	1.6	0.	4182.5
3842	6.8	1.4	0.	4248.2
3843	6.8	1.6	5.e-002	17.229
3844	7.4	1.6	0.	4074.3
3845	7.2	1.4	0.	4138.6
3846	7.2	1.6	5.e-002	16.957
3847	7.8	1.6	0.	3965.4
3848	7.6	1.4	0.	4028.5
3849	7.6	1.6	5.e-002	16.72
3850	8.2	1.6	0.	3856.1
3851	8.	1.4	0.	3918.
3852	8.	1.6	5.e-002	16.509
3853	8.6	1.6	0.	3746.5
3854	8.4	1.4	0.	3807.4
3855	8.4	1.6	5.e-002	16.318
3856	9.	1.6	0.	3636.8
3857	8.8	1.4	0.	3696.8
3858	8.8	1.6	5.e-002	16.141
3859	9.4	1.6	0.	3527.1
3860	9.2	1.4	0.	3586.3
3861	9.2	1.6	5.e-002	15.974
3862	9.8	1.6	0.	3417.7
3863	9.6	1.4	0.	3476.1
3864	9.6	1.6	5.e-002	15.816
3865	10.2	1.6	0.	3308.5
3866	10.	1.4	0.	3366.3
3867	10.	1.6	5.e-002	15.665
3868	10.6	1.6	0.	3199.8
3869	10.4	1.4	0.	3256.8
3870	10.4	1.6	5.e-002	15.518
3871	11.	1.6	0.	3091.5
3872	10.8	1.4	0.	3147.9
3873	10.8	1.6	5.e-002	15.375
3874	11.4	1.6	0.	2983.8
3875	11.2	1.4	0.	3039.6
3876	11.2	1.6	5.e-002	15.234
3877	11.8	1.6	0.	2876.7
3878	11.6	1.4	0.	2932.
3879	11.6	1.6	5.e-002	15.096
3880	12.2	1.6	0.	2770.3
3881	12.	1.4	0.	2825.
3882	12.	1.6	5.e-002	14.96
3883	12.6	1.6	0.	2664.6
3884	12.4	1.4	0.	2718.7
3885	12.4	1.6	5.e-002	14.825
3886	13.	1.6	0.	2559.6
3887	12.8	1.4	0.	2613.3
3888	12.8	1.6	5.e-002	14.692
3889	13.4	1.6	0.	2455.5
3890	13.2	1.4	0.	2508.6
3891	13.2	1.6	5.e-002	14.559
3892	13.8	1.6	0.	2352.2
3893	13.6	1.4	0.	2404.8
3894	13.6	1.6	5.e-002	14.427
3895	14.2	1.6	0.	2249.7
3896	14.	1.4	0.	2301.8
3897	14.	1.6	5.e-002	14.296
3898	14.6	1.6	0.	2148.1
3899	14.4	1.4	0.	2199.7
3900	14.4	1.6	5.e-002	14.166
3901	15.	1.6	0.	2047.4
3902	14.8	1.4	0.	2098.5
3903	14.8	1.6	5.e-002	14.036
3904	15.4	1.6	0.	1947.6
3905	15.2	1.4	0.	1998.2
3906	15.2	1.6	5.e-002	13.907
3907	15.8	1.6	0.	1848.8
3908	15.6	1.4	0.	1898.8
3909	15.6	1.6	5.e-002	13.778
3910	16.2	1.6	0.	1750.9
3911	16.	1.4	0.	1800.4
3912	16.	1.6	5.e-002	13.65
3913	16.6	1.6	0.	1654.1
3914	16.4	1.4	0.	1703.
3915	16.4	1.6	5.e-002	13.522
3916	17.	1.6	0.	1558.2
3917	16.8	1.4	0.	1606.5
3918	16.8	1.6	5.e-002	13.395
3919	17.4	1.6	0.	1463.3
3920	17.2	1.4	0.	1511.
3921	17.2	1.6	5.e-002	13.269
3922	17.8	1.6	0.	1369.5
3923	17.6	1.4	0.	1416.6
3924	17.6	1.6	5.e-002	13.144
3925	18.2	1.6	0.	1276.8
3926	18.	1.4	0.	1323.2
3927	18.	1.6	5.e-002	13.02
3928	18.6	1.6	0.	1185.2
3929	18.4	1.4	0.	1230.9
3930	18.4	1.6	5.e-002	12.898
3931	19.	1.6	0.	1094.8
3932	18.8	1.4	0.	1139.7
3933	18.8	1.6	5.e-002	12.777
3934	19.4	1.6	0.	1005.5
3935	19.2	1.4	0.	1049.6
3936	19.2	1.6	5.e-002	12.658
3937	19.8	1.6	0.	917.56
3938	19.6	1.4	0.	960.64
3939	19.6	1.6	5.e-002	12.542
3940	20.2	1.6	0.	830.91
3941	20.	1.4	0.	872.93
3942	20.	1.6	5.e-002	12.43
3943	20.6	1.6	0.	745.69
3944	20.4	1.4	0.	786.51
3945	20.4	1.6	5.e-002	12.322
3946	21.	1.6	0.	662.04
3947	20.8	1.4	0.	701.47
3948	20.8	1.6	5.e-002	12.219
3949	21.4	1.6	0.	580.17
3950	21.2	1.4	0.	617.96
3951	21.2	1.6	5.e-002	12.125
3952	21.8	1.6	0.	500.39
3953	21.6	1.4	0.	536.22
3954	21.6	1.6	5.e-002	12.041
3955	22.2	1.6	0.	423.23
3956	22.	1.4	0.	456.61
3957	22.	1.6	5.e-002	11.975
3958	22.6	1.6	0.	349.53
3959	22.4	1.4	0.	379.82
3960	22.4	1.6	5.e-002	11.939
3961	23.	1.6	0.	280.96
3962	22.8	1.4	0.	307.01
3963	22.8	1.6	5.e-002	11.947
3964	23.4	1.6	0.	220.49
3965	23.2	1.4	0.	240.69
3966	23.2	1.6	5.e-002	12.066
3967	23.6	1.4	0.	185.45
3968	23.6	1.6	5.e-002	12.189
3969	23.8	1.6	0.	179.45
3970	0.6	1.2	0.	5805.3
3971	0.4	1.	0.	5962.
3972	0.4	1.2	5.e-002	45.771
3973	0.2	1.2	0.	4920.3
3974	1.	1.2	0.	5491.4
3975	0.8	1.	0.	5392.4
3976	0.8	1.2	5.e-002	75.414
3977	1.4	1.2	0.	5525.8
3978	1.2	1.	0.	5590.7
3979	1.2	1.2	5.e-002	53.054
3980	1.8	1.2	0.	5484.1
3981	1.6	1.	0.	5576.1
3982	1.6	1.2	5.e-002	45.522
3983	2.2	1.2	0.	5430.3
3984	2.	1.	0.	5543.
3985	2.	1.2	5.e-002	38.967
3986	2.6	1.2	0.	5353.6
3987	2.4	1.	0.	5469.5
3988	2.4	1.2	5.e-002	34.194
3989	3.	1.2	0.	5265.4
3990	2.8	1.	0.	5379.1
3991	2.8	1.2	5.e-002	30.448
3992	3.4	1.2	0.	5169.7
3993	3.2	1.	0.	5278.3
3994	3.2	1.2	5.e-002	27.505
3995	3.8	1.2	0.	5069.5
3996	3.6	1.	0.	5172.
3997	3.6	1.2	5.e-002	25.16
3998	4.2	1.2	0.	4966.2
3999	4.	1.	0.	5062.8
4000	4.	1.2	5.e-002	23.296
4001	4.6	1.2	0.	4860.9
4002	4.4	1.	0.	4951.9
4003	4.4	1.2	5.e-002	21.816
4004	5.	1.2	0.	4753.9
4005	4.8	1.	0.	4839.9
4006	4.8	1.2	5.e-002	20.642
4007	5.4	1.2	0.	4645.7
4008	5.2	1.	0.	4727.4
4009	5.2	1.2	5.e-002	19.709
4010	5.8	1.2	0.	4536.4
4011	5.6	1.	0.	4614.3
4012	5.6	1.2	5.e-002	18.965
4013	6.2	1.2	0.	4426.3
4014	6.	1.	0.	4501.
4015	6.	1.2	5.e-002	18.368
4016	6.6	1.2	0.	4315.5
4017	6.4	1.	0.	4387.5
4018	6.4	1.2	5.e-002	17.883
4019	7.	1.2	0.	4204.3
4020	6.8	1.	0.	4273.9
4021	6.8	1.2	5.e-002	17.483
4022	7.4	1.2	0.	4092.8
4023	7.2	1.	0.	4160.4
4024	7.2	1.2	5.e-002	17.147
4025	7.8	1.2	0.	3981.1
4026	7.6	1.	0.	4046.9
4027	7.6	1.2	5.e-002	16.861
4028	8.2	1.2	0.	3869.4
4029	8.	1.	0.	3933.7
4030	8.	1.2	5.e-002	16.611
4031	8.6	1.2	0.	3757.8
4032	8.4	1.	0.	3820.7
4033	8.4	1.2	5.e-002	16.389
4034	9.	1.2	0.	3646.5
4035	8.8	1.	0.	3708.2
4036	8.8	1.2	5.e-002	16.188
4037	9.4	1.2	0.	3535.4
4038	9.2	1.	0.	3596.1
4039	9.2	1.2	5.e-002	16.004
4040	9.8	1.2	0.	3424.8
4041	9.6	1.	0.	3484.5
4042	9.6	1.2	5.e-002	15.831
4043	10.2	1.2	0.	3314.7
4044	10.	1.	0.	3373.6
4045	10.	1.2	5.e-002	15.668
4046	10.6	1.2	0.	3205.2
4047	10.4	1.	0.	3263.2
4048	10.4	1.2	5.e-002	15.512
4049	11.	1.2	0.	3096.2
4050	10.8	1.	0.	3153.5
4051	10.8	1.2	5.e-002	15.361
4052	11.4	1.2	0.	2988.
4053	11.2	1.	0.	3044.6
4054	11.2	1.2	5.e-002	15.216
4055	11.8	1.2	0.	2880.4
4056	11.6	1.	0.	2936.4
4057	11.6	1.2	5.e-002	15.073
4058	12.2	1.2	0.	2773.6
4059	12.	1.	0.	2829.
4060	12.	1.2	5.e-002	14.933
4061	12.6	1.2	0.	2667.6
4062	12.4	1.	0.	2722.4
4063	12.4	1.2	5.e-002	14.796
4064	13.	1.2	0.	2562.4
4065	12.8	1.	0.	2616.6
4066	12.8	1.2	5.e-002	14.66
4067	13.4	1.2	0.	2458.1
4068	13.2	1.	0.	2511.7
4069	13.2	1.2	5.e-002	14.526
4070	13.8	1.2	0.	2354.6
4071	13.6	1.	0.	2407.6
4072	13.6	1.2	5.e-002	14.394
4073	14.2	1.2	0.	2252.
4074	14.	1.	0.	2304.5
4075	14.	1.2	5.e-002	14.262
4076	14.6	1.2	0.	2150.3
4077	14.4	1.	0.	2202.2
4078	14.4	1.2	5.e-002	14.131
4079	15.	1.2	0.	2049.4
4080	14.8	1.	0.	2100.9
4081	14.8	1.2	5.e-002	14.002
4082	15.4	1.2	0.	1949.6
4083	15.2	1.	0.	2000.5
4084	15.2	1.2	5.e-002	13.873
4085	15.8	1.2	0.	1850.6
4086	15.6	1.	0.	1901.
4087	15.6	1.2	5.e-002	13.745
4088	16.2	1.2	0.	1752.6
4089	16.	1.	0.	1802.5
4090	16.	1.2	5.e-002	13.618
4091	16.6	1.2	0.	1655.6
4092	16.4	1.	0.	1704.9
4093	16.4	1.2	5.e-002	13.492
4094	17.	1.2	0.	1559.6
4095	16.8	1.	0.	1608.3
4096	16.8	1.2	5.e-002	13.366
4097	17.4	1.2	0.	1464.6
4098	17.2	1.	0.	1512.7
4099	17.2	1.2	5.e-002	13.243
4100	17.8	1.2	0.	1370.5
4101	17.6	1.	0.	1418.
4102	17.6	1.2	5.e-002	13.12
4103	18.2	1.2	0.	1277.6
4104	18.	1.	0.	1324.4
4105	18.	1.2	5.e-002	12.999
4106	18.6	1.2	0.	1185.6
4107	18.4	1.	0.	1231.8
4108	18.4	1.2	5.e-002	12.881
4109	19.	1.2	0.	1094.7
4110	18.8	1.	0.	1140.2
4111	18.8	1.2	5.e-002	12.764
4112	19.4	1.2	0.	1005.
4113	19.2	1.	0.	1049.6
4114	19.2	1.2	5.e-002	12.65
4115	19.8	1.2	0.	916.31
4116	19.6	1.	0.	960.04
4117	19.6	1.2	5.e-002	12.54
4118	20.2	1.2	0.	828.84
4119	20.	1.	0.	871.58
4120	20.	1.2	5.e-002	12.434
4121	20.6	1.2	0.	742.61
4122	20.4	1.	0.	784.22
4123	20.4	1.2	5.e-002	12.332
4124	21.	1.2	0.	657.71
4125	20.8	1.	0.	698.01
4126	20.8	1.2	5.e-002	12.236
4127	21.4	1.2	0.	574.31
4128	21.2	1.	0.	613.05
4129	21.2	1.2	5.e-002	12.147
4130	21.8	1.2	0.	492.69
4131	21.6	1.	0.	529.49
4132	21.6	1.2	5.e-002	12.065
4133	22.2	1.2	0.	413.34
4134	22.	1.	0.	447.63
4135	22.	1.2	5.e-002	11.993
4136	22.6	1.2	0.	337.13
4137	22.4	1.	0.	368.05
4138	22.4	1.2	5.e-002	11.941
4139	23.	1.2	0.	265.87
4140	22.8	1.	0.	291.88
4141	22.8	1.2	5.e-002	11.924
4142	23.4	1.2	0.	202.74
4143	23.2	1.	0.	221.77
4144	23.2	1.2	5.e-002	12.035
4145	23.6	1.	0.	163.02
4146	23.6	1.2	5.e-002	12.228
4147	23.8	1.2	0.	159.49
4148	0.6	0.8	0.	5522.4
4149	0.4	0.6	0.	5374.5
4150	0.4	0.8	5.e-002	86.197
4151	0.2	0.8	0.	4507.9
4152	1.	0.8	0.	5503.
4153	0.8	0.6	0.	5471.5
4154	0.8	0.8	5.e-002	90.123
4155	1.4	0.8	0.	5646.2
4156	1.2	0.6	0.	5752.9
4157	1.2	0.8	5.e-002	63.475
4158	1.8	0.8	0.	5638.1
4159	1.6	0.6	0.	5768.5
4160	1.6	0.8	5.e-002	50.346
4161	2.2	0.8	0.	5583.8
4162	2.	0.6	0.	5724.6
4163	2.	0.8	5.e-002	41.871
4164	2.6	0.8	0.	5495.8
4165	2.4	0.6	0.	5634.
4166	2.4	0.8	5.e-002	36.53
4167	3.	0.8	0.	5392.4
4168	2.8	0.6	0.	5524.1
4169	2.8	0.8	5.e-002	32.475
4170	3.4	0.8	0.	5280.8
4171	3.2	0.6	0.	5404.3
4172	3.2	0.8	5.e-002	29.302
4173	3.8	0.8	0.	5165.5
4174	3.6	0.6	0.	5280.6
4175	3.6	0.8	5.e-002	26.732
4176	4.2	0.8	0.	5048.5
4177	4.	0.6	0.	5155.7
4178	4.	0.8	5.e-002	24.633
4179	4.6	0.8	0.	4930.9
4180	4.4	0.6	0.	5031.
4181	4.4	0.8	5.e-002	22.916
4182	5.	0.8	0.	4813.4
4183	4.8	0.6	0.	4907.1
4184	4.8	0.8	5.e-002	21.515
4185	5.4	0.8	0.	4696.
4186	5.2	0.6	0.	4784.2
4187	5.2	0.8	5.e-002	20.376
4188	5.8	0.8	0.	4579.
4189	5.6	0.6	0.	4662.5
4190	5.6	0.8	5.e-002	19.451
4191	6.2	0.8	0.	4462.2
4192	6.	0.6	0.	4541.7
4193	6.	0.8	5.e-002	18.698
4194	6.6	0.8	0.	4345.9
4195	6.4	0.6	0.	4422.
4196	6.4	0.8	5.e-002	18.083
4197	7.	0.8	0.	4230.
4198	6.8	0.6	0.	4303.1
4199	6.8	0.8	5.e-002	17.576
4200	7.4	0.8	0.	4114.5
4201	7.2	0.6	0.	4185.1
4202	7.2	0.8	5.e-002	17.153
4203	7.8	0.8	0.	3999.6
4204	7.6	0.6	0.	4068.
4205	7.6	0.8	5.e-002	16.796
4206	8.2	0.8	0.	3885.1
4207	8.	0.6	0.	3951.6
4208	8.	0.8	5.e-002	16.489
4209	8.6	0.8	0.	3771.2
4210	8.4	0.6	0.	3836.1
4211	8.4	0.8	5.e-002	16.222
4212	9.	0.8	0.	3658.
4213	8.8	0.6	0.	3721.4
4214	8.8	0.8	5.e-002	15.985
4215	9.4	0.8	0.	3545.3
4216	9.2	0.6	0.	3607.5
4217	9.2	0.8	5.e-002	15.772
4218	9.8	0.8	0.	3433.4
4219	9.6	0.6	0.	3494.4
4220	9.6	0.8	5.e-002	15.576
4221	10.2	0.8	0.	3322.2
4222	10.	0.6	0.	3382.2
4223	10.	0.8	5.e-002	15.395
4224	10.6	0.8	0.	3211.7
4225	10.4	0.6	0.	3270.8
4226	10.4	0.8	5.e-002	15.225
4227	11.	0.8	0.	3102.
4228	10.8	0.6	0.	3160.3
4229	10.8	0.8	5.e-002	15.064
4230	11.4	0.8	0.	2993.1
4231	11.2	0.6	0.	3050.6
4232	11.2	0.8	5.e-002	14.91
4233	11.8	0.8	0.	2885.1
4234	11.6	0.6	0.	2941.9
4235	11.6	0.8	5.e-002	14.761
4236	12.2	0.8	0.	2777.8
4237	12.	0.6	0.	2834.
4238	12.	0.8	5.e-002	14.617
4239	12.6	0.8	0.	2671.5
4240	12.4	0.6	0.	2727.
4241	12.4	0.8	5.e-002	14.477
4242	13.	0.8	0.	2566.
4243	12.8	0.6	0.	2620.9
4244	12.8	0.8	5.e-002	14.34
4245	13.4	0.8	0.	2461.4
4246	13.2	0.6	0.	2515.7
4247	13.2	0.8	5.e-002	14.205
4248	13.8	0.8	0.	2357.7
4249	13.6	0.6	0.	2411.5
4250	13.6	0.8	5.e-002	14.072
4251	14.2	0.8	0.	2254.9
4252	14.	0.6	0.	2308.1
4253	14.	0.8	5.e-002	13.942
4254	14.6	0.8	0.	2153.1
4255	14.4	0.6	0.	2205.8
4256	14.4	0.8	5.e-002	13.813
4257	15.	0.8	0.	2052.1
4258	14.8	0.6	0.	2104.3
4259	14.8	0.8	5.e-002	13.685
4260	15.4	0.8	0.	1952.1
4261	15.2	0.6	0.	2003.8
4262	15.2	0.8	5.e-002	13.559
4263	15.8	0.8	0.	1853.1
4264	15.6	0.6	0.	1904.2
4265	15.6	0.8	5.e-002	13.435
4266	16.2	0.8	0.	1755.
4267	16.	0.6	0.	1805.6
4268	16.	0.8	5.e-002	13.312
4269	16.6	0.8	0.	1657.8
4270	16.4	0.6	0.	1707.9
4271	16.4	0.8	5.e-002	13.19
4272	17.	0.8	0.	1561.6
4273	16.8	0.6	0.	1611.2
4274	16.8	0.8	5.e-002	13.071
4275	17.4	0.8	0.	1466.4
4276	17.2	0.6	0.	1515.5
4277	17.2	0.8	5.e-002	12.953
4278	17.8	0.8	0.	1372.2
4279	17.6	0.6	0.	1420.7
4280	17.6	0.8	5.e-002	12.838
4281	18.2	0.8	0.	1278.9
4282	18.	0.6	0.	1326.8
4283	18.	0.8	5.e-002	12.725
4284	18.6	0.8	0.	1186.6
4285	18.4	0.6	0.	1233.9
4286	18.4	0.8	5.e-002	12.616
4287	19.	0.8	0.	1095.3
4288	18.8	0.6	0.	1141.9
4289	18.8	0.8	5.e-002	12.51
4290	19.4	0.8	0.	1005.
4291	19.2	0.6	0.	1050.9
4292	19.2	0.8	5.e-002	12.408
4293	19.8	0.8	0.	915.66
4294	19.6	0.6	0.	960.82
4295	19.6	0.8	5.e-002	12.312
4296	20.2	0.8	0.	827.33
4297	20.	0.6	0.	871.64
4298	20.	0.8	5.e-002	12.221
4299	20.6	0.8	0.	740.02
4300	20.4	0.6	0.	783.38
4301	20.4	0.8	5.e-002	12.138
4302	21.	0.8	0.	653.77
4303	20.8	0.6	0.	696.03
4304	20.8	0.8	5.e-002	12.061
4305	21.4	0.8	0.	568.67
4306	21.2	0.6	0.	609.62
4307	21.2	0.8	5.e-002	11.993
4308	21.8	0.8	0.	484.89
4309	21.6	0.6	0.	524.18
4310	21.6	0.8	5.e-002	11.933
4311	22.2	0.8	0.	402.78
4312	22.	0.6	0.	439.87
4313	22.	0.8	5.e-002	11.879
4314	22.6	0.8	0.	323.07
4315	22.4	0.6	0.	357.
4316	22.4	0.8	5.e-002	11.832
4317	23.	0.8	0.	247.5
4318	22.8	0.6	0.	276.28
4319	22.8	0.8	5.e-002	11.785
4320	23.4	0.8	0.	179.71
4321	23.2	0.6	0.	199.78
4322	23.2	0.8	5.e-002	11.89
4323	23.6	0.6	0.	133.33
4324	23.6	0.8	5.e-002	12.213
4325	23.8	0.8	0.	132.53
4326	0.6	0.4	0.	5333.8
4327	0.4	0.4	5.e-002	210.65
4328	0.2	0.4	0.	3839.2
4329	0.4	0.2	0.	5089.8
4330	1.	0.4	0.	5736.3
4331	0.8	0.4	5.e-002	106.35
4332	0.8	0.2	0.	5755.
4333	1.4	0.4	0.	5880.7
4334	1.2	0.4	5.e-002	63.951
4335	1.2	0.2	0.	5981.2
4336	1.8	0.4	0.	5857.5
4337	1.6	0.4	5.e-002	52.244
4338	1.6	0.2	0.	5984.6
4339	2.2	0.4	0.	5776.2
4340	2.	0.4	5.e-002	45.337
4341	2.	0.2	0.	5912.8
4342	2.6	0.4	0.	5663.1
4343	2.4	0.4	5.e-002	40.488
4344	2.4	0.2	0.	5798.8
4345	3.	0.4	0.	5536.5
4346	2.8	0.4	5.e-002	36.43
4347	2.8	0.2	0.	5667.5
4348	3.4	0.4	0.	5404.3
4349	3.2	0.4	5.e-002	32.895
4350	3.2	0.2	0.	5528.6
4351	3.8	0.4	0.	5270.9
4352	3.6	0.4	5.e-002	29.772
4353	3.6	0.2	0.	5387.8
4354	4.2	0.4	0.	5138.2
4355	4.	0.4	5.e-002	27.038
4356	4.	0.2	0.	5247.8
4357	4.6	0.4	0.	5007.2
4358	4.4	0.4	5.e-002	24.673
4359	4.4	0.2	0.	5109.8
4360	5.	0.4	0.	4878.
4361	4.8	0.4	5.e-002	22.649
4362	4.8	0.2	0.	4974.3
4363	5.4	0.4	0.	4750.8
4364	5.2	0.4	5.e-002	20.933
4365	5.2	0.2	0.	4841.4
4366	5.8	0.4	0.	4625.3
4367	5.6	0.4	5.e-002	19.489
4368	5.6	0.2	0.	4710.9
4369	6.2	0.4	0.	4501.5
4370	6.	0.4	5.e-002	18.28
4371	6.	0.2	0.	4582.7
4372	6.6	0.4	0.	4379.3
4373	6.4	0.4	5.e-002	17.271
4374	6.4	0.2	0.	4456.6
4375	7.	0.4	0.	4258.3
4376	6.8	0.4	5.e-002	16.429
4377	6.8	0.2	0.	4332.4
4378	7.4	0.4	0.	4138.7
4379	7.2	0.4	5.e-002	15.726
4380	7.2	0.2	0.	4209.8
4381	7.8	0.4	0.	4020.2
4382	7.6	0.4	5.e-002	15.135
4383	7.6	0.2	0.	4088.8
4384	8.2	0.4	0.	3902.8
4385	8.	0.4	5.e-002	14.636
4386	8.	0.2	0.	3969.2
4387	8.6	0.4	0.	3786.5
4388	8.4	0.4	5.e-002	14.212
4389	8.4	0.2	0.	3850.9
4390	9.	0.4	0.	3671.1
4391	8.8	0.4	5.e-002	13.849
4392	8.8	0.2	0.	3733.8
4393	9.4	0.4	0.	3556.8
4394	9.2	0.4	5.e-002	13.534
4395	9.2	0.2	0.	3618.
4396	9.8	0.4	0.	3443.5
4397	9.6	0.4	5.e-002	13.258
4398	9.6	0.2	0.	3503.3
4399	10.2	0.4	0.	3331.1
4400	10.	0.4	5.e-002	13.014
4401	10.	0.2	0.	3389.7
4402	10.6	0.4	0.	3219.6
4403	10.4	0.4	5.e-002	12.796
4404	10.4	0.2	0.	3277.1
4405	11.	0.4	0.	3109.1
4406	10.8	0.4	5.e-002	12.599
4407	10.8	0.2	0.	3165.7
4408	11.4	0.4	0.	2999.6
4409	11.2	0.4	5.e-002	12.419
4410	11.2	0.2	0.	3055.2
4411	11.8	0.4	0.	2891.
4412	11.6	0.4	5.e-002	12.253
4413	11.6	0.2	0.	2945.7
4414	12.2	0.4	0.	2783.3
4415	12.	0.4	5.e-002	12.099
4416	12.	0.2	0.	2837.3
4417	12.6	0.4	0.	2676.6
4418	12.4	0.4	5.e-002	11.955
4419	12.4	0.2	0.	2729.8
4420	13.	0.4	0.	2570.9
4421	12.8	0.4	5.e-002	11.819
4422	12.8	0.2	0.	2623.3
4423	13.4	0.4	0.	2466.1
4424	13.2	0.4	5.e-002	11.69
4425	13.2	0.2	0.	2517.8
4426	13.8	0.4	0.	2362.2
4427	13.6	0.4	5.e-002	11.567
4428	13.6	0.2	0.	2413.3
4429	14.2	0.4	0.	2259.3
4430	14.	0.4	5.e-002	11.45
4431	14.	0.2	0.	2309.7
4432	14.6	0.4	0.	2157.3
4433	14.4	0.4	5.e-002	11.337
4434	14.4	0.2	0.	2207.1
4435	15.	0.4	0.	2056.3
4436	14.8	0.4	5.e-002	11.229
4437	14.8	0.2	0.	2105.5
4438	15.4	0.4	0.	1956.2
4439	15.2	0.4	5.e-002	11.125
4440	15.2	0.2	0.	2004.8
4441	15.8	0.4	0.	1857.1
4442	15.6	0.4	5.e-002	11.025
4443	15.6	0.2	0.	1905.1
4444	16.2	0.4	0.	1758.9
4445	16.	0.4	5.e-002	10.929
4446	16.	0.2	0.	1806.3
4447	16.6	0.4	0.	1661.7
4448	16.4	0.4	5.e-002	10.838
4449	16.4	0.2	0.	1708.5
4450	17.	0.4	0.	1565.4
4451	16.8	0.4	5.e-002	10.752
4452	16.8	0.2	0.	1611.6
4453	17.4	0.4	0.	1470.
4454	17.2	0.4	5.e-002	10.671
4455	17.2	0.2	0.	1515.7
4456	17.8	0.4	0.	1375.6
4457	17.6	0.4	5.e-002	10.595
4458	17.6	0.2	0.	1420.7
4459	18.2	0.4	0.	1282.2
4460	18.	0.4	5.e-002	10.527
4461	18.	0.2	0.	1326.6
4462	18.6	0.4	0.	1189.6
4463	18.4	0.4	5.e-002	10.467
4464	18.4	0.2	0.	1233.4
4465	19.	0.4	0.	1098.
4466	18.8	0.4	5.e-002	10.416
4467	18.8	0.2	0.	1141.1
4468	19.4	0.4	0.	1007.2
4469	19.2	0.4	5.e-002	10.376
4470	19.2	0.2	0.	1049.6
4471	19.8	0.4	0.	917.28
4472	19.6	0.4	5.e-002	10.35
4473	19.6	0.2	0.	959.04
4474	20.2	0.4	0.	828.21
4475	20.	0.4	5.e-002	10.338
4476	20.	0.2	0.	869.27
4477	20.6	0.4	0.	739.96
4478	20.4	0.4	5.e-002	10.344
4479	20.4	0.2	0.	780.28
4480	21.	0.4	0.	652.51
4481	20.8	0.4	5.e-002	10.371
4482	20.8	0.2	0.	692.05
4483	21.4	0.4	0.	565.84
4484	21.2	0.4	5.e-002	10.421
4485	21.2	0.2	0.	604.55
4486	21.8	0.4	0.	479.98
4487	21.6	0.4	5.e-002	10.497
4488	21.6	0.2	0.	517.77
4489	22.2	0.4	0.	395.04
4490	22.	0.4	5.e-002	10.602
4491	22.	0.2	0.	431.72
4492	22.6	0.4	0.	311.3
4493	22.4	0.4	5.e-002	10.736
4494	22.4	0.2	0.	346.5
4495	23.	0.4	0.	229.62
4496	22.8	0.4	5.e-002	10.869
4497	22.8	0.2	0.	262.34
4498	23.4	0.4	0.	153.04
4499	23.2	0.4	5.e-002	11.041
4500	23.2	0.2	0.	180.03
4501	23.6	0.4	5.e-002	11.599
4502	23.6	0.2	0.	102.
4503	23.8	0.4	0.	95.396
4504	23.4	0.4	0.1	153.04
4505	23.6	0.6	0.1	133.33
4506	23.8	0.4	0.1	95.396
4507	23.6	0.2	0.1	102.
4508	23.	0.4	0.1	229.62
4509	23.2	0.6	0.1	199.78
4510	23.2	0.2	0.1	180.03
4511	22.6	0.4	0.1	311.3
4512	22.8	0.6	0.1	276.28
4513	22.8	0.2	0.1	262.34
4514	22.2	0.4	0.1	395.04
4515	22.4	0.6	0.1	357.
4516	22.4	0.2	0.1	346.5
4517	21.8	0.4	0.1	479.98
4518	22.	0.6	0.1	439.87
4519	22.	0.2	0.1	431.72
4520	21.4	0.4	0.1	565.84
4521	21.6	0.6	0.1	524.18
4522	21.6	0.2	0.1	517.77
4523	21.	0.4	0.1	652.51
4524	21.2	0.6	0.1	609.62
4525	21.2	0.2	0.1	604.55
4526	20.6	0.4	0.1	739.96
4527	20.8	0.6	0.1	696.03
4528	20.8	0.2	0.1	692.05
4529	20.2	0.4	0.1	828.21
4530	20.4	0.6	0.1	783.38
4531	20.4	0.2	0.1	780.28
4532	19.8	0.4	0.1	917.28
4533	20.	0.6	0.1	871.64
4534	20.	0.2	0.1	869.27
4535	19.4	0.4	0.1	1007.2
4536	19.6	0.6	0.1	960.82
4537	19.6	0.2	0.1	959.04
4538	19.	0.4	0.1	1098.
4539	19.2	0.6	0.1	1050.9
4540	19.2	0.2	0.1	1049.6
4541	18.6	0.4	0.1	1189.6
4542	18.8	0.6	0.1	1141.9
4543	18.8	0.2	0.1	1141.1
4544	18.2	0.4	0.1	1282.2
4545	18.4	0.6	0.1	1233.9
4546	18.4	0.2	0.1	1233.4
4547	17.8	0.4	0.1	1375.6
4548	18.	0.6	0.1	1326.8
4549	18.	0.2	0.1	1326.6
4550	17.4	0.4	0.1	1470.
4551	17.6	0.6	0.1	1420.7
4552	17.6	0.2	0.1	1420.7
4553	17.	0.4	0.1	1565.4
4554	17.2	0.6	0.1	1515.5
4555	17.2	0.2	0.1	1515.7
4556	16.6	0.4	0.1	1661.7
4557	16.8	0.6	0.1	1611.2
4558	16.8	0.2	0.1	1611.6
4559	16.2	0.4	0.1	1758.9
4560	16.4	0.6	0.1	1707.9
4561	16.4	0.2	0.1	1708.5
4562	15.8	0.4	0.1	1857.1
4563	16.	0.6	0.1	1805.6
4564	16.	0.2	0.1	1806.3
4565	15.4	0.4	0.1	1956.2
4566	15.6	0.6	0.1	1904.2
4567	15.6	0.2	0.1	1905.1
4568	15.	0.4	0.1	2056.3
4569	15.2	0.6	0.1	2003.8
4570	15.2	0.2	0.1	2004.8
4571	14.6	0.4	0.1	2157.3
4572	14.8	0.6	0.1	2104.3
4573	14.8	0.2	0.1	2105.5
4574	14.2	0.4	0.1	2259.3
4575	14.4	0.6	0.1	2205.8
4576	14.4	0.2	0.1	2207.1
4577	13.8	0.4	0.1	2362.2
4578	14.	0.6	0.1	2308.1
4579	14.	0.2	0.1	2309.7
4580	13.4	0.4	0.1	2466.1
4581	13.6	0.6	0.1	2411.5
4582	13.6	0.2	0.1	2413.3
4583	13.	0.4	0.1	2570.9
4584	13.2	0.6	0.1	2515.7
4585	13.2	0.2	0.1	2517.8
4586	12.6	0.4	0.1	2676.6
4587	12.8	0.6	0.1	2620.9
4588	12.8	0.2	0.1	2623.3
4589	12.2	0.4	0.1	2783.4
4590	12.4	0.6	0.1	2727.
4591	12.4	0.2	0.1	2729.8
4592	11.8	0.4	0.1	2891.
4593	12.	0.6	0.1	2834.
4594	12.	0.2	0.1	2837.3
4595	11.4	0.4	0.1	2999.6
4596	11.6	0.6	0.1	2941.9
4597	11.6	0.2	0.1	2945.7
4598	11.	0.4	0.1	3109.1
4599	11.2	0.6	0.1	3050.6
4600	11.2	0.2	0.1	3055.2
4601	10.6	0.4	0.1	3219.6
4602	10.8	0.6	0.1	3160.3
4603	10.8	0.2	0.1	3165.7
4604	10.2	0.4	0.1	3331.1
4605	10.4	0.6	0.1	3270.8
4606	10.4	0.2	0.1	3277.1
4607	9.8	0.4	0.1	3443.5
4608	10.	0.6	0.1	3382.2
4609	10.	0.2	0.1	3389.7
4610	9.4	0.4	0.1	3556.8
4611	9.6	0.6	0.1	3494.4
4612	9.6	0.2	0.1	3503.3
4613	9.	0.4	0.1	3671.1
4614	9.2	0.6	0.1	3607.5
4615	9.2	0.2	0.1	3618.
4616	8.6	0.4	0.1	3786.5
4617	8.8	0.6	0.1	3721.4
4618	8.8	0.2	0.1	3733.8
4619	8.2	0.4	0.1	3902.8
4620	8.4	0.6	0.1	3836.1
4621	8.4	0.2	0.1	3850.9
4622	7.8	0.4	0.1	4020.2
4623	8.	0.6	0.1	3951.6
4624	8.	0.2	0.1	3969.2
4625	7.4	0.4	0.1	4138.7
4626	7.6	0.6	0.1	4068.
4627	7.6	0.2	0.1	4088.8
4628	7.	0.4	0.1	4258.3
4629	7.2	0.6	0.1	4185.1
4630	7.2	0.2	0.1	4209.8
4631	6.6	0.4	0.1	4379.3
4632	6.8	0.6	0.1	4303.1
4633	6.8	0.2	0.1	4332.4
4634	6.2	0.4	0.1	4501.5
4635	6.4	0.6	0.1	4422.
4636	6.4	0.2	0.1	4456.6
4637	5.8	0.4	0.1	4625.3
4638	6.	0.6	0.1	4541.7
4639	6.	0.2	0.1	4582.7
4640	5.4	0.4	0.1	4750.8
4641	5.6	0.6	0.1	4662.5
4642	5.6	0.2	0.1	4710.9
4643	5.	0.4	0.1	4878.
4644	5.2	0.6	0.1	4784.2
4645	5.2	0.2	0.1	4841.4
4646	4.6	0.4	0.1	5007.2
4647	4.8	0.6	0.1	4907.1
4648	4.8	0.2	0.1	4974.3
4649	4.2	0.4	0.1	5138.2
4650	4.4	0.6	0.1	5031.
4651	4.4	0.2	0.1	5109.8
4652	3.8	0.4	0.1	5270.9
4653	4.	0.6	0.1	5155.7
4654	4.	0.2	0.1	5247.8
4655	3.4	0.4	0.1	5404.3
4656	3.6	0.6	0.1	5280.6
4657	3.6	0.2	0.1	5387.8
4658	3.	0.4	0.1	5536.5
4659	3.2	0.6	0.1	5404.3
4660	3.2	0.2	0.1	5528.6
4661	2.6	0.4	0.1	5663.1
4662	2.8	0.6	0.1	5524.1
4663	2.8	0.2	0.1	5667.5
4664	2.2	0.4	0.1	5776.2
4665	2.4	0.6	0.1	5634.
4666	2.4	0.2	0.1	5798.8
4667	1.8	0.4	0.1	5857.5
4668	2.	0.6	0.1	5724.6
4669	2.	0.2	0.1	5912.8
4670	1.4	0.4	0.1	5880.7
4671	1.6	0.6	0.1	5768.5
4672	1.6	0.2	0.1	5984.6
4673	1.	0.4	0.1	5736.3
4674	1.2	0.6	0.1	5752.9
4675	1.2	0.2	0.1	5981.2
4676	0.6	0.4	0.1	5333.8
4677	0.8	0.6	0.1	5471.5
4678	0.8	0.2	0.1	5755.
4679	0.4	0.6	0.1	5374.5
4680	0.4	0.2	0.1	5089.8
4681	0.2	0.4	0.1	3839.2
4682	23.4	0.8	0.1	179.71
4683	23.6	1.	0.1	163.02
4684	23.8	0.8	0.1	132.53
4685	23.	0.8	0.1	247.5
4686	23.2	1.	0.1	221.77
4687	22.6	0.8	0.1	323.07
4688	22.8	1.	0.1	291.88
4689	22.2	0.8	0.1	402.78
4690	22.4	1.	0.1	368.05
4691	21.8	0.8	0.1	484.89
4692	22.	1.	0.1	447.63
4693	21.4	0.8	0.1	568.67
4694	21.6	1.	0.1	529.49
4695	21.	0.8	0.1	653.77
4696	21.2	1.	0.1	613.05
4697	20.6	0.8	0.1	740.02
4698	20.8	1.	0.1	698.01
4699	20.2	0.8	0.1	827.33
4700	20.4	1.	0.1	784.22
4701	19.8	0.8	0.1	915.66
4702	20.	1.	0.1	871.58
4703	19.4	0.8	0.1	1005.
4704	19.6	1.	0.1	960.04
4705	19.	0.8	0.1	1095.3
4706	19.2	1.	0.1	1049.6
4707	18.6	0.8	0.1	1186.6
4708	18.8	1.	0.1	1140.2
4709	18.2	0.8	0.1	1278.9
4710	18.4	1.	0.1	1231.8
4711	17.8	0.8	0.1	1372.2
4712	18.	1.	0.1	1324.4
4713	17.4	0.8	0.1	1466.4
4714	17.6	1.	0.1	1418.
4715	17.	0.8	0.1	1561.6
4716	17.2	1.	0.1	1512.7
4717	16.6	0.8	0.1	1657.8
4718	16.8	1.	0.1	1608.3
4719	16.2	0.8	0.1	1755.
4720	16.4	1.	0.1	1704.9
4721	15.8	0.8	0.1	1853.1
4722	16.	1.	0.1	1802.5
4723	15.4	0.8	0.1	1952.1
4724	15.6	1.	0.1	1901.
4725	15.	0.8	0.1	2052.1
4726	15.2	1.	0.1	2000.5
4727	14.6	0.8	0.1	2153.1
4728	14.8	1.	0.1	2100.9
4729	14.2	0.8	0.1	2254.9
4730	14.4	1.	0.1	2202.2
4731	13.8	0.8	0.1	2357.7
4732	14.	1.	0.1	2304.5
4733	13.4	0.8	0.1	2461.4
4734	13.6	1.	0.1	2407.6
4735	13.	0.8	0.1	2566.
4736	13.2	1.	0.1	2511.7
4737	12.6	0.8	0.1	2671.5
4738	12.8	1.	0.1	2616.6
4739	12.2	0.8	0.1	2777.8
4740	12.4	1.	0.1	2722.4
4741	11.8	0.8	0.1	2885.1
4742	12.	1.	0.1	2829.
4743	11.4	0.8	0.1	2993.1
4744	11.6	1.	0.1	2936.4
4745	11.	0.8	0.1	3102.
4746	11.2	1.	0.1	3044.6
4747	10.6	0.8	0.1	3211.7
4748	10.8	1.	0.1	3153.5
4749	10.2	0.8	0.1	3322.2
4750	10.4	1.	0.1	3263.2
4751	9.8	0.8	0.1	3433.4
4752	10.	1.	0.1	3373.6
4753	9.4	0.8	0.1	3545.3
4754	9.6	1.	0.1	3484.5
4755	9.	0.8	0.1	3658.
4756	9.2	1.	0.1	3596.1
4757	8.6	0.8	0.1	3771.2
4758	8.8	1.	0.1	3708.2
4759	8.2	0.8	0.1	3885.1
4760	8.4	1.	0.1	3820.7
4761	7.8	0.8	0.1	3999.6
4762	8.	1.	0.1	3933.7
4763	7.4	0.8	0.1	4114.5
4764	7.6	1.	0.1	4046.9
4765	7.	0.8	0.1	4230.
4766	7.2	1.	0.1	4160.4
4767	6.6	0.8	0.1	4345.9
4768	6.8	1.	0.1	4273.9
4769	6.2	0.8	0.1	4462.2
4770	6.4	1.	0.1	4387.5
4771	5.8	0.8	0.1	4579.
4772	6.	1.	0.1	4501.
4773	5.4	0.8	0.1	4696.
4774	5.6	1.	0.1	4614.3
4775	5.	0.8	0.1	4813.4
4776	5.2	1.	0.1	4727.4
4777	4.6	0.8	0.1	4930.9
4778	4.8	1.	0.1	4839.9
4779	4.2	0.8	0.1	5048.5
4780	4.4	1.	0.1	4951.9
4781	3.8	0.8	0.1	5165.5
4782	4.	1.	0.1	5062.8
4783	3.4	0.8	0.1	5280.8
4784	3.6	1.	0.1	5172.
4785	3.	0.8	0.1	5392.4
4786	3.2	1.	0.1	5278.3
4787	2.6	0.8	0.1	5495.8
4788	2.8	1.	0.1	5379.1
4789	2.2	0.8	0.1	5583.8
4790	2.4	1.	0.1	5469.5
4791	1.8	0.8	0.1	5638.1
4792	2.	1.	0.1	5543.
4793	1.4	0.8	0.1	5646.2
4794	1.6	1.	0.1	5576.1
4795	1.	0.8	0.1	5503.
4796	1.2	1.	0.1	5590.7
4797	0.6	0.8	0.1	5522.4
4798	0.8	1.	0.1	5392.4
4799	0.4	1.	0.1	5962.
4800	0.2	0.8	0.1	4507.9
4801	23.4	1.2	0.1	202.74
4802	23.6	1.4	0.1	185.45
4803	23.8	1.2	0.1	159.49
4804	23.	1.2	0.1	265.87
4805	23.2	1.4	0.1	240.69
4806	22.6	1.2	0.1	337.13
4807	22.8	1.4	0.1	307.01
4808	22.2	1.2	0.1	413.34
4809	22.4	1.4	0.1	379.82
4810	21.8	1.2	0.1	492.69
4811	22.	1.4	0.1	456.61
4812	21.4	1.2	0.1	574.31
4813	21.6	1.4	0.1	536.22
4814	21.	1.2	0.1	657.71
4815	21.2	1.4	0.1	617.96
4816	20.6	1.2	0.1	742.61
4817	20.8	1.4	0.1	701.47
4818	20.2	1.2	0.1	828.84
4819	20.4	1.4	0.1	786.51
4820	19.8	1.2	0.1	916.31
4821	20.	1.4	0.1	872.93
4822	19.4	1.2	0.1	1005.
4823	19.6	1.4	0.1	960.64
4824	19.	1.2	0.1	1094.7
4825	19.2	1.4	0.1	1049.6
4826	18.6	1.2	0.1	1185.6
4827	18.8	1.4	0.1	1139.7
4828	18.2	1.2	0.1	1277.6
4829	18.4	1.4	0.1	1230.9
4830	17.8	1.2	0.1	1370.5
4831	18.	1.4	0.1	1323.2
4832	17.4	1.2	0.1	1464.6
4833	17.6	1.4	0.1	1416.6
4834	17.	1.2	0.1	1559.6
4835	17.2	1.4	0.1	1511.
4836	16.6	1.2	0.1	1655.6
4837	16.8	1.4	0.1	1606.5
4838	16.2	1.2	0.1	1752.6
4839	16.4	1.4	0.1	1703.
4840	15.8	1.2	0.1	1850.6
4841	16.	1.4	0.1	1800.4
4842	15.4	1.2	0.1	1949.6
4843	15.6	1.4	0.1	1898.8
4844	15.	1.2	0.1	2049.4
4845	15.2	1.4	0.1	1998.2
4846	14.6	1.2	0.1	2150.3
4847	14.8	1.4	0.1	2098.5
4848	14.2	1.2	0.1	2252.
4849	14.4	1.4	0.1	2199.7
4850	13.8	1.2	0.1	2354.6
4851	14.	1.4	0.1	2301.8
4852	13.4	1.2	0.1	2458.1
4853	13.6	1.4	0.1	2404.8
4854	13.	1.2	0.1	2562.4
4855	13.2	1.4	0.1	2508.6
4856	12.6	1.2	0.1	2667.6
4857	12.8	1.4	0.1	2613.3
4858	12.2	1.2	0.1	2773.6
4859	12.4	1.4	0.1	2718.7
4860	11.8	1.2	0.1	2880.4
4861	12.	1.4	0.1	2825.
4862	11.4	1.2	0.1	2988.
4863	11.6	1.4	0.1	2932.
4864	11.	1.2	0.1	3096.2
4865	11.2	1.4	0.1	3039.6
4866	10.6	1.2	0.1	3205.2
4867	10.8	1.4	0.1	3147.9
4868	10.2	1.2	0.1	3314.7
4869	10.4	1.4	0.1	3256.8
4870	9.8	1.2	0.1	3424.8
4871	10.	1.4	0.1	3366.3
4872	9.4	1.2	0.1	3535.4
4873	9.6	1.4	0.1	3476.1
4874	9.	1.2	0.1	3646.5
4875	9.2	1.4	0.1	3586.3
4876	8.6	1.2	0.1	3757.8
4877	8.8	1.4	0.1	3696.8
4878	8.2	1.2	0.1	3869.4
4879	8.4	1.4	0.1	3807.4
4880	7.8	1.2	0.1	3981.1
4881	8.	1.4	0.1	3918.
4882	7.4	1.2	0.1	4092.8
4883	7.6	1.4	0.1	4028.5
4884	7.	1.2	0.1	4204.3
4885	7.2	1.4	0.1	4138.6
4886	6.6	1.2	0.1	4315.5
4887	6.8	1.4	0.1	4248.2
4888	6.2	1.2	0.1	4426.3
4889	6.4	1.4	0.1	4357.
4890	5.8	1.2	0.1	4536.4
4891	6.	1.4	0.1	4464.9
4892	5.4	1.2	0.1	4645.7
4893	5.6	1.4	0.1	4571.6
4894	5.	1.2	0.1	4753.9
4895	5.2	1.4	0.1	4676.8
4896	4.6	1.2	0.1	4860.9
4897	4.8	1.4	0.1	4780.2
4898	4.2	1.2	0.1	4966.2
4899	4.4	1.4	0.1	4881.7
4900	3.8	1.2	0.1	5069.5
4901	4.	1.4	0.1	4980.8
4902	3.4	1.2	0.1	5169.7
4903	3.6	1.4	0.1	5077.
4904	3.	1.2	0.1	5265.4
4905	3.2	1.4	0.1	5169.8
4906	2.6	1.2	0.1	5353.6
4907	2.8	1.4	0.1	5257.9
4908	2.2	1.2	0.1	5430.3
4909	2.4	1.4	0.1	5339.
4910	1.8	1.2	0.1	5484.1
4911	2.	1.4	0.1	5412.6
4912	1.4	1.2	0.1	5525.8
4913	1.6	1.4	0.1	5465.8
4914	1.	1.2	0.1	5491.4
4915	1.2	1.4	0.1	5552.1
4916	0.6	1.2	0.1	5805.3
4917	0.8	1.4	0.1	5503.6
4918	0.4	1.4	0.1	6369.
4919	0.2	1.2	0.1	4920.3
4920	23.4	1.6	0.1	220.49
4921	23.6	1.8	0.1	201.86
4922	23.8	1.6	0.1	179.45
4923	23.	1.6	0.1	280.96
4924	23.2	1.8	0.1	255.12
4925	22.6	1.6	0.1	349.53
4926	22.8	1.8	0.1	319.26
4927	22.2	1.6	0.1	423.23
4928	22.4	1.8	0.1	389.87
4929	21.8	1.6	0.1	500.39
4930	22.	1.8	0.1	464.64
4931	21.4	1.6	0.1	580.17
4932	21.6	1.8	0.1	542.48
4933	21.	1.6	0.1	662.04
4934	21.2	1.8	0.1	622.73
4935	20.6	1.6	0.1	745.69
4936	20.8	1.8	0.1	704.98
4937	20.2	1.6	0.1	830.91
4938	20.4	1.8	0.1	788.99
4939	19.8	1.6	0.1	917.56
4940	20.	1.8	0.1	874.57
4941	19.4	1.6	0.1	1005.5
4942	19.6	1.8	0.1	961.59
4943	19.	1.6	0.1	1094.8
4944	19.2	1.8	0.1	1050.
4945	18.6	1.6	0.1	1185.2
4946	18.8	1.8	0.1	1139.6
4947	18.2	1.6	0.1	1276.8
4948	18.4	1.8	0.1	1230.5
4949	17.8	1.6	0.1	1369.5
4950	18.	1.8	0.1	1322.5
4951	17.4	1.6	0.1	1463.3
4952	17.6	1.8	0.1	1415.7
4953	17.	1.6	0.1	1558.2
4954	17.2	1.8	0.1	1509.9
4955	16.6	1.6	0.1	1654.1
4956	16.8	1.8	0.1	1605.2
4957	16.2	1.6	0.1	1750.9
4958	16.4	1.8	0.1	1701.6
4959	15.8	1.6	0.1	1848.8
4960	16.	1.8	0.1	1798.9
4961	15.4	1.6	0.1	1947.6
4962	15.6	1.8	0.1	1897.2
4963	15.	1.6	0.1	2047.4
4964	15.2	1.8	0.1	1996.5
4965	14.6	1.6	0.1	2148.1
4966	14.8	1.8	0.1	2096.6
4967	14.2	1.6	0.1	2249.7
4968	14.4	1.8	0.1	2197.7
4969	13.8	1.6	0.1	2352.2
4970	14.	1.8	0.1	2299.7
4971	13.4	1.6	0.1	2455.5
4972	13.6	1.8	0.1	2402.6
4973	13.	1.6	0.1	2559.6
4974	13.2	1.8	0.1	2506.2
4975	12.6	1.6	0.1	2664.6
4976	12.8	1.8	0.1	2610.7
4977	12.2	1.6	0.1	2770.3
4978	12.4	1.8	0.1	2715.9
4979	11.8	1.6	0.1	2876.7
4980	12.	1.8	0.1	2821.8
4981	11.4	1.6	0.1	2983.8
4982	11.6	1.8	0.1	2928.5
4983	11.	1.6	0.1	3091.5
4984	11.2	1.8	0.1	3035.7
4985	10.6	1.6	0.1	3199.8
4986	10.8	1.8	0.1	3143.5
4987	10.2	1.6	0.1	3308.5
4988	10.4	1.8	0.1	3251.7
4989	9.8	1.6	0.1	3417.7
4990	10.	1.8	0.1	3360.4
4991	9.4	1.6	0.1	3527.1
4992	9.6	1.8	0.1	3469.3
4993	9.	1.6	0.1	3636.8
4994	9.2	1.8	0.1	3578.4
4995	8.6	1.6	0.1	3746.5
4996	8.8	1.8	0.1	3687.5
4997	8.2	1.6	0.1	3856.1
4998	8.4	1.8	0.1	3796.5
4999	7.8	1.6	0.1	3965.4
5000	8.	1.8	0.1	3905.2
5001	7.4	1.6	0.1	4074.3
5002	7.6	1.8	0.1	4013.3
5003	7.	1.6	0.1	4182.5
5004	7.2	1.8	0.1	4120.7
5005	6.6	1.6	0.1	4289.7
5006	6.8	1.8	0.1	4227.
5007	6.2	1.6	0.1	4395.6
5008	6.4	1.8	0.1	4331.9
5009	5.8	1.6	0.1	4500.1
5010	6.	1.8	0.1	4435.1
5011	5.4	1.6	0.1	4602.6
5012	5.6	1.8	0.1	4536.3
5013	5.	1.6	0.1	4703.1
5014	5.2	1.8	0.1	4635.
5015	4.6	1.6	0.1	4801.
5016	4.8	1.8	0.1	4730.9
5017	4.2	1.6	0.1	4896.2
5018	4.4	1.8	0.1	4823.8
5019	3.8	1.6	0.1	4988.4
5020	4.	1.8	0.1	4913.5
5021	3.4	1.6	0.1	5077.3
5022	3.6	1.8	0.1	5000.
5023	3.	1.6	0.1	5162.7
5024	3.2	1.8	0.1	5083.5
5025	2.6	1.6	0.1	5244.2
5026	2.8	1.8	0.1	5165.
5027	2.2	1.6	0.1	5322.9
5028	2.4	1.8	0.1	5245.7
5029	1.8	1.6	0.1	5397.
5030	2.	1.8	0.1	5331.7
5031	1.4	1.6	0.1	5495.2
5032	1.6	1.8	0.1	5420.2
5033	1.	1.6	0.1	5569.2
5034	1.2	1.8	0.1	5581.5
5035	0.6	1.6	0.1	6045.4
5036	0.8	1.8	0.1	5641.4
5037	0.4	1.8	0.1	6632.6
5038	0.2	1.6	0.1	5177.5
5039	23.4	2.	0.1	233.33
5040	23.6	2.2	0.1	213.07
5041	23.8	2.	0.1	193.58
5042	23.	2.	0.1	292.22
5043	23.2	2.2	0.1	265.19
5044	22.6	2.	0.1	359.16
5045	22.8	2.2	0.1	328.05
5046	22.2	2.	0.1	431.22
5047	22.4	2.2	0.1	397.34
5048	21.8	2.	0.1	506.84
5049	22.	2.2	0.1	470.8
5050	21.4	2.	0.1	585.24
5051	21.6	2.2	0.1	547.43
5052	21.	2.	0.1	665.92
5053	21.2	2.2	0.1	626.59
5054	20.6	2.	0.1	748.55
5055	20.8	2.2	0.1	707.91
5056	20.2	2.	0.1	832.93
5057	20.4	2.2	0.1	791.12
5058	19.8	2.	0.1	918.88
5059	20.	2.2	0.1	876.05
5060	19.4	2.	0.1	1006.3
5061	19.6	2.2	0.1	962.53
5062	19.	2.	0.1	1095.1
5063	19.2	2.2	0.1	1050.5
5064	18.6	2.	0.1	1185.2
5065	18.8	2.2	0.1	1139.8
5066	18.2	2.	0.1	1276.5
5067	18.4	2.2	0.1	1230.4
5068	17.8	2.	0.1	1368.9
5069	18.	2.2	0.1	1322.2
5070	17.4	2.	0.1	1462.5
5071	17.6	2.2	0.1	1415.1
5072	17.	2.	0.1	1557.2
5073	17.2	2.2	0.1	1509.2
5074	16.6	2.	0.1	1653.
5075	16.8	2.2	0.1	1604.4
5076	16.2	2.	0.1	1749.7
5077	16.4	2.2	0.1	1700.6
5078	15.8	2.	0.1	1847.5
5079	16.	2.2	0.1	1797.8
5080	15.4	2.	0.1	1946.2
5081	15.6	2.2	0.1	1896.1
5082	15.	2.	0.1	2045.9
5083	15.2	2.2	0.1	1995.2
5084	14.6	2.	0.1	2146.5
5085	14.8	2.2	0.1	2095.4
5086	14.2	2.	0.1	2248.
5087	14.4	2.2	0.1	2196.4
5088	13.8	2.	0.1	2350.3
5089	14.	2.2	0.1	2298.2
5090	13.4	2.	0.1	2453.5
5091	13.6	2.2	0.1	2401.
5092	13.	2.	0.1	2557.5
5093	13.2	2.2	0.1	2504.5
5094	12.6	2.	0.1	2662.2
5095	12.8	2.2	0.1	2608.8
5096	12.2	2.	0.1	2767.7
5097	12.4	2.2	0.1	2713.8
5098	11.8	2.	0.1	2873.8
5099	12.	2.2	0.1	2819.6
5100	11.4	2.	0.1	2980.5
5101	11.6	2.2	0.1	2925.9
5102	11.	2.	0.1	3087.8
5103	11.2	2.2	0.1	3032.8
5104	10.6	2.	0.1	3195.6
5105	10.8	2.2	0.1	3140.2
5106	10.2	2.	0.1	3303.7
5107	10.4	2.2	0.1	3248.
5108	9.8	2.	0.1	3412.1
5109	10.	2.2	0.1	3356.
5110	9.4	2.	0.1	3520.7
5111	9.6	2.2	0.1	3464.3
5112	9.	2.	0.1	3629.2
5113	9.2	2.2	0.1	3572.5
5114	8.6	2.	0.1	3737.6
5115	8.8	2.2	0.1	3680.7
5116	8.2	2.	0.1	3845.7
5117	8.4	2.2	0.1	3788.5
5118	7.8	2.	0.1	3953.1
5119	8.	2.2	0.1	3895.7
5120	7.4	2.	0.1	4059.8
5121	7.6	2.2	0.1	4002.1
5122	7.	2.	0.1	4165.2
5123	7.2	2.2	0.1	4107.4
5124	6.6	2.	0.1	4269.2
5125	6.8	2.2	0.1	4211.2
5126	6.2	2.	0.1	4371.4
5127	6.4	2.2	0.1	4313.1
5128	5.8	2.	0.1	4471.3
5129	6.	2.2	0.1	4412.8
5130	5.4	2.	0.1	4568.5
5131	5.6	2.2	0.1	4509.8
5132	5.	2.	0.1	4662.8
5133	5.2	2.2	0.1	4603.7
5134	4.6	2.	0.1	4753.7
5135	4.8	2.2	0.1	4694.
5136	4.2	2.	0.1	4841.1
5137	4.4	2.2	0.1	4780.7
5138	3.8	2.	0.1	4925.1
5139	4.	2.2	0.1	4863.6
5140	3.4	2.	0.1	5006.4
5141	3.6	2.2	0.1	4943.4
5142	3.	2.	0.1	5086.3
5143	3.2	2.2	0.1	5021.5
5144	2.6	2.	0.1	5167.3
5145	2.8	2.2	0.1	5100.8
5146	2.2	2.	0.1	5255.8
5147	2.4	2.2	0.1	5185.9
5148	1.8	2.	0.1	5356.8
5149	2.	2.2	0.1	5288.1
5150	1.4	2.	0.1	5507.8
5151	1.6	2.2	0.1	5410.2
5152	1.	2.	0.1	5655.7
5153	1.2	2.2	0.1	5627.8
5154	0.6	2.	0.1	6212.8
5155	0.8	2.2	0.1	5747.9
5156	0.4	2.2	0.1	6793.8
5157	0.2	2.	0.1	5332.7
5158	23.4	2.4	0.1	241.67
5159	23.6	2.6	0.1	219.63
5160	23.8	2.4	0.1	202.67
5161	23.	2.4	0.1	299.65
5162	23.2	2.6	0.1	271.12
5163	22.6	2.4	0.1	365.64
5164	22.8	2.6	0.1	333.32
5165	22.2	2.4	0.1	436.73
5166	22.4	2.6	0.1	401.89
5167	21.8	2.4	0.1	511.4
5168	22.	2.6	0.1	474.63
5169	21.4	2.4	0.1	588.9
5170	21.6	2.6	0.1	550.56
5171	21.	2.4	0.1	668.77
5172	21.2	2.6	0.1	629.07
5173	20.6	2.4	0.1	750.7
5174	20.8	2.6	0.1	709.82
5175	20.2	2.4	0.1	834.49
5176	20.4	2.6	0.1	792.54
5177	19.8	2.4	0.1	919.95
5178	20.	2.6	0.1	877.05
5179	19.4	2.4	0.1	1007.
5180	19.6	2.6	0.1	963.2
5181	19.	2.4	0.1	1095.4
5182	19.2	2.6	0.1	1050.9
5183	18.6	2.4	0.1	1185.2
5184	18.8	2.6	0.1	1139.9
5185	18.2	2.4	0.1	1276.3
5186	18.4	2.6	0.1	1230.3
5187	17.8	2.4	0.1	1368.6
5188	18.	2.6	0.1	1322.
5189	17.4	2.4	0.1	1462.1
5190	17.6	2.6	0.1	1414.8
5191	17.	2.4	0.1	1556.6
5192	17.2	2.6	0.1	1508.8
5193	16.6	2.4	0.1	1652.3
5194	16.8	2.6	0.1	1603.9
5195	16.2	2.4	0.1	1749.
5196	16.4	2.6	0.1	1700.1
5197	15.8	2.4	0.1	1846.6
5198	16.	2.6	0.1	1797.2
5199	15.4	2.4	0.1	1945.3
5200	15.6	2.6	0.1	1895.4
5201	15.	2.4	0.1	2044.9
5202	15.2	2.6	0.1	1994.5
5203	14.6	2.4	0.1	2145.4
5204	14.8	2.6	0.1	2094.6
5205	14.2	2.4	0.1	2246.8
5206	14.4	2.6	0.1	2195.5
5207	13.8	2.4	0.1	2349.1
5208	14.	2.6	0.1	2297.4
5209	13.4	2.4	0.1	2452.2
5210	13.6	2.6	0.1	2400.
5211	13.	2.4	0.1	2556.
5212	13.2	2.6	0.1	2503.5
5213	12.6	2.4	0.1	2660.6
5214	12.8	2.6	0.1	2607.7
5215	12.2	2.4	0.1	2765.9
5216	12.4	2.6	0.1	2712.6
5217	11.8	2.4	0.1	2871.8
5218	12.	2.6	0.1	2818.2
5219	11.4	2.4	0.1	2978.3
5220	11.6	2.6	0.1	2924.3
5221	11.	2.4	0.1	3085.3
5222	11.2	2.6	0.1	3031.
5223	10.6	2.4	0.1	3192.7
5224	10.8	2.6	0.1	3138.2
5225	10.2	2.4	0.1	3300.4
5226	10.4	2.6	0.1	3245.6
5227	9.8	2.4	0.1	3408.3
5228	10.	2.6	0.1	3353.4
5229	9.4	2.4	0.1	3516.2
5230	9.6	2.6	0.1	3461.2
5231	9.	2.4	0.1	3624.
5232	9.2	2.6	0.1	3568.9
5233	8.6	2.4	0.1	3731.5
5234	8.8	2.6	0.1	3676.4
5235	8.2	2.4	0.1	3838.5
5236	8.4	2.6	0.1	3783.5
5237	7.8	2.4	0.1	3944.7
5238	8.	2.6	0.1	3889.8
5239	7.4	2.4	0.1	4049.7
5240	7.6	2.6	0.1	3995.2
5241	7.	2.4	0.1	4153.3
5242	7.2	2.6	0.1	4099.1
5243	6.6	2.4	0.1	4255.1
5244	6.8	2.6	0.1	4201.4
5245	6.2	2.4	0.1	4354.6
5246	6.4	2.6	0.1	4301.5
5247	5.8	2.4	0.1	4451.3
5248	6.	2.6	0.1	4399.1
5249	5.4	2.4	0.1	4544.9
5250	5.6	2.6	0.1	4493.5
5251	5.	2.4	0.1	4634.9
5252	5.2	2.6	0.1	4584.3
5253	4.6	2.4	0.1	4721.
5254	4.8	2.6	0.1	4671.2
5255	4.2	2.4	0.1	4803.2
5256	4.4	2.6	0.1	4754.
5257	3.8	2.4	0.1	4882.
5258	4.	2.6	0.1	4833.
5259	3.4	2.4	0.1	4958.8
5260	3.6	2.6	0.1	4909.
5261	3.	2.4	0.1	5036.5
5262	3.2	2.6	0.1	4984.5
5263	2.6	2.4	0.1	5120.
5264	2.8	2.6	0.1	5063.7
5265	2.2	2.4	0.1	5219.1
5266	2.4	2.6	0.1	5153.5
5267	1.8	2.4	0.1	5342.7
5268	2.	2.6	0.1	5268.3
5269	1.4	2.4	0.1	5530.6
5270	1.6	2.6	0.1	5413.
5271	1.	2.4	0.1	5721.1
5272	1.2	2.6	0.1	5663.
5273	0.6	2.4	0.1	6316.5
5274	0.8	2.6	0.1	5812.2
5275	0.4	2.6	0.1	6880.6
5276	0.2	2.4	0.1	5422.4
5277	23.4	2.8	0.1	245.78
5278	23.6	3.	0.1	221.78
5279	23.8	2.8	0.1	207.12
5280	23.	2.8	0.1	303.33
5281	23.2	3.	0.1	273.08
5282	22.6	2.8	0.1	368.89
5283	22.8	3.	0.1	335.07
5284	22.2	2.8	0.1	439.53
5285	22.4	3.	0.1	403.42
5286	21.8	2.8	0.1	513.75
5287	22.	3.	0.1	475.93
5288	21.4	2.8	0.1	590.81
5289	21.6	3.	0.1	551.62
5290	21.	2.8	0.1	670.28
5291	21.2	3.	0.1	629.92
5292	20.6	2.8	0.1	751.85
5293	20.8	3.	0.1	710.48
5294	20.2	2.8	0.1	835.33
5295	20.4	3.	0.1	793.04
5296	19.8	2.8	0.1	920.54
5297	20.	3.	0.1	877.41
5298	19.4	2.8	0.1	1007.3
5299	19.6	3.	0.1	963.44
5300	19.	2.8	0.1	1095.6
5301	19.2	3.	0.1	1051.
5302	18.6	2.8	0.1	1185.3
5303	18.8	3.	0.1	1140.
5304	18.2	2.8	0.1	1276.3
5305	18.4	3.	0.1	1230.3
5306	17.8	2.8	0.1	1368.5
5307	18.	3.	0.1	1321.9
5308	17.4	2.8	0.1	1461.8
5309	17.6	3.	0.1	1414.7
5310	17.	2.8	0.1	1556.3
5311	17.2	3.	0.1	1508.7
5312	16.6	2.8	0.1	1651.9
5313	16.8	3.	0.1	1603.8
5314	16.2	2.8	0.1	1748.6
5315	16.4	3.	0.1	1699.9
5316	15.8	2.8	0.1	1846.2
5317	16.	3.	0.1	1797.
5318	15.4	2.8	0.1	1944.8
5319	15.6	3.	0.1	1895.2
5320	15.	2.8	0.1	2044.4
5321	15.2	3.	0.1	1994.3
5322	14.6	2.8	0.1	2144.9
5323	14.8	3.	0.1	2094.3
5324	14.2	2.8	0.1	2246.3
5325	14.4	3.	0.1	2195.3
5326	13.8	2.8	0.1	2348.5
5327	14.	3.	0.1	2297.1
5328	13.4	2.8	0.1	2451.5
5329	13.6	3.	0.1	2399.7
5330	13.	2.8	0.1	2555.3
5331	13.2	3.	0.1	2503.1
5332	12.6	2.8	0.1	2659.8
5333	12.8	3.	0.1	2607.3
5334	12.2	2.8	0.1	2765.
5335	12.4	3.	0.1	2712.2
5336	11.8	2.8	0.1	2870.8
5337	12.	3.	0.1	2817.7
5338	11.4	2.8	0.1	2977.2
5339	11.6	3.	0.1	2923.8
5340	11.	2.8	0.1	3084.
5341	11.2	3.	0.1	3030.4
5342	10.6	2.8	0.1	3191.2
5343	10.8	3.	0.1	3137.5
5344	10.2	2.8	0.1	3298.7
5345	10.4	3.	0.1	3244.9
5346	9.8	2.8	0.1	3406.3
5347	10.	3.	0.1	3352.5
5348	9.4	2.8	0.1	3514.
5349	9.6	3.	0.1	3460.1
5350	9.	2.8	0.1	3621.4
5351	9.2	3.	0.1	3567.7
5352	8.6	2.8	0.1	3728.4
5353	8.8	3.	0.1	3675.
5354	8.2	2.8	0.1	3834.8
5355	8.4	3.	0.1	3781.8
5356	7.8	2.8	0.1	3940.3
5357	8.	3.	0.1	3887.8
5358	7.4	2.8	0.1	4044.6
5359	7.6	3.	0.1	3992.8
5360	7.	2.8	0.1	4147.2
5361	7.2	3.	0.1	4096.4
5362	6.6	2.8	0.1	4247.9
5363	6.8	3.	0.1	4198.1
5364	6.2	2.8	0.1	4346.
5365	6.4	3.	0.1	4297.6
5366	5.8	2.8	0.1	4441.1
5367	6.	3.	0.1	4394.4
5368	5.4	2.8	0.1	4532.8
5369	5.6	3.	0.1	4487.9
5370	5.	2.8	0.1	4620.6
5371	5.2	3.	0.1	4577.8
5372	4.6	2.8	0.1	4704.3
5373	4.8	3.	0.1	4663.5
5374	4.2	2.8	0.1	4783.9
5375	4.4	3.	0.1	4745.
5376	3.8	2.8	0.1	4860.1
5377	4.	3.	0.1	4822.7
5378	3.4	2.8	0.1	4935.
5379	3.6	3.	0.1	4897.5
5380	3.	2.8	0.1	5012.1
5381	3.2	3.	0.1	4972.2
5382	2.6	2.8	0.1	5097.7
5383	2.8	3.	0.1	5051.6
5384	2.2	2.8	0.1	5203.4
5385	2.4	3.	0.1	5143.4
5386	1.8	2.8	0.1	5339.4
5387	2.	3.	0.1	5262.9
5388	1.4	2.8	0.1	5545.5
5389	1.6	3.	0.1	5415.3
5390	1.	2.8	0.1	5755.1
5391	1.2	3.	0.1	5675.7
5392	0.6	2.8	0.1	6365.7
5393	0.8	3.	0.1	5833.6
5394	0.4	3.	0.1	6908.
5395	0.2	2.8	0.1	5463.5
5396	23.4	3.2	0.1	245.78
5397	23.6	3.4	0.1	219.63
5398	23.8	3.2	0.1	207.12
5399	23.	3.2	0.1	303.33
5400	23.2	3.4	0.1	271.12
5401	22.6	3.2	0.1	368.89
5402	22.8	3.4	0.1	333.32
5403	22.2	3.2	0.1	439.53
5404	22.4	3.4	0.1	401.89
5405	21.8	3.2	0.1	513.75
5406	22.	3.4	0.1	474.63
5407	21.4	3.2	0.1	590.81
5408	21.6	3.4	0.1	550.56
5409	21.	3.2	0.1	670.28
5410	21.2	3.4	0.1	629.07
5411	20.6	3.2	0.1	751.85
5412	20.8	3.4	0.1	709.82
5413	20.2	3.2	0.1	835.33
5414	20.4	3.4	0.1	792.54
5415	19.8	3.2	0.1	920.54
5416	20.	3.4	0.1	877.05
5417	19.4	3.2	0.1	1007.3
5418	19.6	3.4	0.1	963.2
5419	19.	3.2	0.1	1095.6
5420	19.2	3.4	0.1	1050.9
5421	18.6	3.2	0.1	1185.3
5422	18.8	3.4	0.1	1139.9
5423	18.2	3.2	0.1	1276.3
5424	18.4	3.4	0.1	1230.3
5425	17.8	3.2	0.1	1368.5
5426	18.	3.4	0.1	1322.
5427	17.4	3.2	0.1	1461.8
5428	17.6	3.4	0.1	1414.8
5429	17.	3.2	0.1	1556.3
5430	17.2	3.4	0.1	1508.8
5431	16.6	3.2	0.1	1651.9
5432	16.8	3.4	0.1	1603.9
5433	16.2	3.2	0.1	1748.6
5434	16.4	3.4	0.1	1700.1
5435	15.8	3.2	0.1	1846.2
5436	16.	3.4	0.1	1797.2
5437	15.4	3.2	0.1	1944.8
5438	15.6	3.4	0.1	1895.4
5439	15.	3.2	0.1	2044.4
5440	15.2	3.4	0.1	1994.5
5441	14.6	3.2	0.1	2144.9
5442	14.8	3.4	0.1	2094.6
5443	14.2	3.2	0.1	2246.3
5444	14.4	3.4	0.1	2195.5
5445	13.8	3.2	0.1	2348.5
5446	14.	3.4	0.1	2297.4
5447	13.4	3.2	0.1	2451.5
5448	13.6	3.4	0.1	2400.
5449	13.	3.2	0.1	2555.3
5450	13.2	3.4	0.1	2503.5
5451	12.6	3.2	0.1	2659.8
5452	12.8	3.4	0.1	2607.7
5453	12.2	3.2	0.1	2765.
5454	12.4	3.4	0.1	2712.6
5455	11.8	3.2	0.1	2870.8
5456	12.	3.4	0.1	2818.2
5457	11.4	3.2	0.1	2977.2
5458	11.6	3.4	0.1	2924.3
5459	11.	3.2	0.1	3084.
5460	11.2	3.4	0.1	3031.
5461	10.6	3.2	0.1	3191.2
5462	10.8	3.4	0.1	3138.2
5463	10.2	3.2	0.1	3298.7
5464	10.4	3.4	0.1	3245.6
5465	9.8	3.2	0.1	3406.3
5466	10.	3.4	0.1	3353.4
5467	9.4	3.2	0.1	3514.
5468	9.6	3.4	0.1	3461.2
5469	9.	3.2	0.1	3621.4
5470	9.2	3.4	0.1	3568.9
5471	8.6	3.2	0.1	3728.4
5472	8.8	3.4	0.1	3676.4
5473	8.2	3.2	0.1	3834.8
5474	8.4	3.4	0.1	3783.5
5475	7.8	3.2	0.1	3940.3
5476	8.	3.4	0.1	3889.8
5477	7.4	3.2	0.1	4044.6
5478	7.6	3.4	0.1	3995.2
5479	7.	3.2	0.1	4147.2
5480	7.2	3.4	0.1	4099.1
5481	6.6	3.2	0.1	4247.9
5482	6.8	3.4	0.1	4201.4
5483	6.2	3.2	0.1	4346.
5484	6.4	3.4	0.1	4301.5
5485	5.8	3.2	0.1	4441.1
5486	6.	3.4	0.1	4399.1
5487	5.4	3.2	0.1	4532.8
5488	5.6	3.4	0.1	4493.5
5489	5.	3.2	0.1	4620.6
5490	5.2	3.4	0.1	4584.3
5491	4.6	3.2	0.1	4704.3
5492	4.8	3.4	0.1	4671.2
5493	4.2	3.2	0.1	4783.9
5494	4.4	3.4	0.1	4754.
5495	3.8	3.2	0.1	4860.1
5496	4.	3.4	0.1	4833.
5497	3.4	3.2	0.1	4935.
5498	3.6	3.4	0.1	4909.
5499	3.	3.2	0.1	5012.1
5500	3.2	3.4	0.1	4984.5
5501	2.6	3.2	0.1	5097.7
5502	2.8	3.4	0.1	5063.7
5503	2.2	3.2	0.1	5203.4
5504	2.4	3.4	0.1	5153.5
5505	1.8	3.2	0.1	5339.4
5506	2.	3.4	0.1	5268.3
5507	1.4	3.2	0.1	5545.5
5508	1.6	3.4	0.1	5413.
5509	1.	3.2	0.1	5755.1
5510	1.2	3.4	0.1	5663.
5511	0.6	3.2	0.1	6365.7
5512	0.8	3.4	0.1	5812.2
5513	0.4	3.4	0.1	6880.6
5514	0.2	3.2	0.1	5463.5
5515	23.4	3.6	0.1	241.67
5516	23.6	3.8	0.1	213.07
5517	23.8	3.6	0.1	202.67
5518	23.	3.6	0.1	299.65
5519	23.2	3.8	0.1	265.19
5520	22.6	3.6	0.1	365.64
5521	22.8	3.8	0.1	328.05
5522	22.2	3.6	0.1	436.73
5523	22.4	3.8	0.1	397.34
5524	21.8	3.6	0.1	511.4
5525	22.	3.8	0.1	470.8
5526	21.4	3.6	0.1	588.9
5527	21.6	3.8	0.1	547.43
5528	21.	3.6	0.1	668.77
5529	21.2	3.8	0.1	626.59
5530	20.6	3.6	0.1	750.7
5531	20.8	3.8	0.1	707.91
5532	20.2	3.6	0.1	834.49
5533	20.4	3.8	0.1	791.12
5534	19.8	3.6	0.1	919.95
5535	20.	3.8	0.1	876.05
5536	19.4	3.6	0.1	1007.
5537	19.6	3.8	0.1	962.53
5538	19.	3.6	0.1	1095.4
5539	19.2	3.8	0.1	1050.5
5540	18.6	3.6	0.1	1185.2
5541	18.8	3.8	0.1	1139.8
5542	18.2	3.6	0.1	1276.3
5543	18.4	3.8	0.1	1230.4
5544	17.8	3.6	0.1	1368.6
5545	18.	3.8	0.1	1322.2
5546	17.4	3.6	0.1	1462.1
5547	17.6	3.8	0.1	1415.1
5548	17.	3.6	0.1	1556.6
5549	17.2	3.8	0.1	1509.2
5550	16.6	3.6	0.1	1652.3
5551	16.8	3.8	0.1	1604.4
5552	16.2	3.6	0.1	1749.
5553	16.4	3.8	0.1	1700.6
5554	15.8	3.6	0.1	1846.6
5555	16.	3.8	0.1	1797.8
5556	15.4	3.6	0.1	1945.3
5557	15.6	3.8	0.1	1896.1
5558	15.	3.6	0.1	2044.9
5559	15.2	3.8	0.1	1995.2
5560	14.6	3.6	0.1	2145.4
5561	14.8	3.8	0.1	2095.4
5562	14.2	3.6	0.1	2246.8
5563	14.4	3.8	0.1	2196.4
5564	13.8	3.6	0.1	2349.1
5565	14.	3.8	0.1	2298.2
5566	13.4	3.6	0.1	2452.2
5567	13.6	3.8	0.1	2401.
5568	13.	3.6	0.1	2556.
5569	13.2	3.8	0.1	2504.5
5570	12.6	3.6	0.1	2660.6
5571	12.8	3.8	0.1	2608.8
5572	12.2	3.6	0.1	2765.9
5573	12.4	3.8	0.1	2713.8
5574	11.8	3.6	0.1	2871.8
5575	12.	3.8	0.1	2819.6
5576	11.4	3.6	0.1	2978.3
5577	11.6	3.8	0.1	2925.9
5578	11.	3.6	0.1	3085.3
5579	11.2	3.8	0.1	3032.8
5580	10.6	3.6	0.1	3192.7
5581	10.8	3.8	0.1	3140.2
5582	10.2	3.6	0.1	3300.4
5583	10.4	3.8	0.1	3248.
5584	9.8	3.6	0.1	3408.3
5585	10.	3.8	0.1	3356.
5586	9.4	3.6	0.1	3516.2
5587	9.6	3.8	0.1	3464.3
5588	9.	3.6	0.1	3624.
5589	9.2	3.8	0.1	3572.5
5590	8.6	3.6	0.1	3731.5
5591	8.8	3.8	0.1	3680.7
5592	8.2	3.6	0.1	3838.5
5593	8.4	3.8	0.1	3788.5
5594	7.8	3.6	0.1	3944.7
5595	8.	3.8	0.1	3895.7
5596	7.4	3.6	0.1	4049.7
5597	7.6	3.8	0.1	4002.1
5598	7.	3.6	0.1	4153.3
5599	7.2	3.8	0.1	4107.4
5600	6.6	3.6	0.1	4255.1
5601	6.8	3.8	0.1	4211.2
5602	6.2	3.6	0.1	4354.6
5603	6.4	3.8	0.1	4313.1
5604	5.8	3.6	0.1	4451.3
5605	6.	3.8	0.1	4412.8
5606	5.4	3.6	0.1	4544.9
5607	5.6	3.8	0.1	4509.8
5608	5.	3.6	0.1	4634.9
5609	5.2	3.8	0.1	4603.7
5610	4.6	3.6	0.1	4721.
5611	4.8	3.8	0.1	4694.
5612	4.2	3.6	0.1	4803.2
5613	4.4	3.8	0.1	4780.7
5614	3.8	3.6	0.1	4882.
5615	4.	3.8	0.1	4863.6
5616	3.4	3.6	0.1	4958.8
5617	3.6	3.8	0.1	4943.4
5618	3.	3.6	0.1	5036.5
5619	3.2	3.8	0.1	5021.5
5620	2.6	3.6	0.1	5120.
5621	2.8	3.8	0.1	5100.8
5622	2.2	3.6	0.1	5219.1
5623	2.4	3.8	0.1	5185.9
5624	1.8	3.6	0.1	5342.7
5625	2.	3.8	0.1	5288.1
5626	1.4	3.6	0.1	5530.6
5627	1.6	3.8	0.1	5410.2
5628	1.	3.6	0.1	5721.1
5629	1.2	3.8	0.1	5627.8
5630	0.6	3.6	0.1	6316.5
5631	0.8	3.8	0.1	5747.9
5632	0.4	3.8	0.1	6793.8
5633	0.2	3.6	0.1	5422.4
5634	23.4	4.	0.1	233.33
5635	23.6	4.2	0.1	201.86
5636	23.8	4.	0.1	193.58
5637	23.	4.	0.1	292.22
5638	23.2	4.2	0.1	255.12
5639	22.6	4.	0.1	359.16
5640	22.8	4.2	0.1	319.26
5641	22.2	4.	0.1	431.22
5642	22.4	4.2	0.1	389.87
5643	21.8	4.	0.1	506.84
5644	22.	4.2	0.1	464.64
5645	21.4	4.	0.1	585.24
5646	21.6	4.2	0.1	542.48
5647	21.	4.	0.1	665.92
5648	21.2	4.2	0.1	622.73
5649	20.6	4.	0.1	748.55
5650	20.8	4.2	0.1	704.98
5651	20.2	4.	0.1	832.93
5652	20.4	4.2	0.1	788.99
5653	19.8	4.	0.1	918.88
5654	20.	4.2	0.1	874.57
5655	19.4	4.	0.1	1006.3
5656	19.6	4.2	0.1	961.59
5657	19.	4.	0.1	1095.1
5658	19.2	4.2	0.1	1050.
5659	18.6	4.	0.1	1185.2
5660	18.8	4.2	0.1	1139.6
5661	18.2	4.	0.1	1276.5
5662	18.4	4.2	0.1	1230.5
5663	17.8	4.	0.1	1368.9
5664	18.	4.2	0.1	1322.5
5665	17.4	4.	0.1	1462.5
5666	17.6	4.2	0.1	1415.7
5667	17.	4.	0.1	1557.2
5668	17.2	4.2	0.1	1509.9
5669	16.6	4.	0.1	1653.
5670	16.8	4.2	0.1	1605.2
5671	16.2	4.	0.1	1749.7
5672	16.4	4.2	0.1	1701.6
5673	15.8	4.	0.1	1847.5
5674	16.	4.2	0.1	1798.9
5675	15.4	4.	0.1	1946.2
5676	15.6	4.2	0.1	1897.2
5677	15.	4.	0.1	2045.9
5678	15.2	4.2	0.1	1996.5
5679	14.6	4.	0.1	2146.5
5680	14.8	4.2	0.1	2096.6
5681	14.2	4.	0.1	2248.
5682	14.4	4.2	0.1	2197.7
5683	13.8	4.	0.1	2350.3
5684	14.	4.2	0.1	2299.7
5685	13.4	4.	0.1	2453.5
5686	13.6	4.2	0.1	2402.6
5687	13.	4.	0.1	2557.5
5688	13.2	4.2	0.1	2506.2
5689	12.6	4.	0.1	2662.2
5690	12.8	4.2	0.1	2610.7
5691	12.2	4.	0.1	2767.7
5692	12.4	4.2	0.1	2715.9
5693	11.8	4.	0.1	2873.8
5694	12.	4.2	0.1	2821.8
5695	11.4	4.	0.1	2980.5
5696	11.6	4.2	0.1	2928.5
5697	11.	4.	0.1	3087.8
5698	11.2	4.2	0.1	3035.7
5699	10.6	4.	0.1	3195.6
5700	10.8	4.2	0.1	3143.5
5701	10.2	4.	0.1	3303.7
5702	10.4	4.2	0.1	3251.7
5703	9.8	4.	0.1	3412.1
5704	10.	4.2	0.1	3360.4
5705	9.4	4.	0.1	3520.7
5706	9.6	4.2	0.1	3469.3
5707	9.	4.	0.1	3629.2
5708	9.2	4.2	0.1	3578.4
5709	8.6	4.	0.1	3737.6
5710	8.8	4.2	0.1	3687.5
5711	8.2	4.	0.1	3845.7
5712	8.4	4.2	0.1	3796.5
5713	7.8	4.	0.1	3953.1
5714	8.	4.2	0.1	3905.2
5715	7.4	4.	0.1	4059.8
5716	7.6	4.2	0.1	4013.3
5717	7.	4.	0.1	4165.2
5718	7.2	4.2	0.1	4120.7
5719	6.6	4.	0.1	4269.2
5720	6.8	4.2	0.1	4227.
5721	6.2	4.	0.1	4371.4
5722	6.4	4.2	0.1	4331.9
5723	5.8	4.	0.1	4471.3
5724	6.	4.2	0.1	4435.1
5725	5.4	4.	0.1	4568.5
5726	5.6	4.2	0.1	4536.3
5727	5.	4.	0.1	4662.8
5728	5.2	4.2	0.1	4635.
5729	4.6	4.	0.1	4753.7
5730	4.8	4.2	0.1	4730.9
5731	4.2	4.	0.1	4841.1
5732	4.4	4.2	0.1	4823.8
5733	3.8	4.	0.1	4925.1
5734	4.	4.2	0.1	4913.5
5735	3.4	4.	0.1	5006.4
5736	3.6	4.2	0.1	5000.
5737	3.	4.	0.1	5086.3
5738	3.2	4.2	0.1	5083.5
5739	2.6	4.	0.1	5167.3
5740	2.8	4.2	0.1	5165.
5741	2.2	4.	0.1	5255.8
5742	2.4	4.2	0.1	5245.7
5743	1.8	4.	0.1	5356.8
5744	2.	4.2	0.1	5331.7
5745	1.4	4.	0.1	5507.8
5746	1.6	4.2	0.1	5420.2
5747	1.	4.	0.1	5655.7
5748	1.2	4.2	0.1	5581.5
5749	0.6	4.	0.1	6212.8
5750	0.8	4.2	0.1	5641.4
5751	0.4	4.2	0.1	6632.6
5752	0.2	4.	0.1	5332.7
5753	23.4	4.4	0.1	220.49
5754	23.6	4.6	0.1	185.45
5755	23.8	4.4	0.1	179.45
5756	23.	4.4	0.1	280.96
5757	23.2	4.6	0.1	240.69
5758	22.6	4.4	0.1	349.53
5759	22.8	4.6	0.1	307.01
5760	22.2	4.4	0.1	423.23
5761	22.4	4.6	0.1	379.82
5762	21.8	4.4	0.1	500.39
5763	22.	4.6	0.1	456.61
5764	21.4	4.4	0.1	580.17
5765	21.6	4.6	0.1	536.22
5766	21.	4.4	0.1	662.04
5767	21.2	4.6	0.1	617.96
5768	20.6	4.4	0.1	745.69
5769	20.8	4.6	0.1	701.47
5770	20.2	4.4	0.1	830.91
5771	20.4	4.6	0.1	786.51
5772	19.8	4.4	0.1	917.56
5773	20.	4.6	0.1	872.93
5774	19.4	4.4	0.1	1005.5
5775	19.6	4.6	0.1	960.64
5776	19.	4.4	0.1	1094.8
5777	19.2	4.6	0.1	1049.6
5778	18.6	4.4	0.1	1185.2
5779	18.8	4.6	0.1	1139.7
5780	18.2	4.4	0.1	1276.8
5781	18.4	4.6	0.1	1230.9
5782	17.8	4.4	0.1	1369.5
5783	18.	4.6	0.1	1323.2
5784	17.4	4.4	0.1	1463.3
5785	17.6	4.6	0.1	1416.6
5786	17.	4.4	0.1	1558.2
5787	17.2	4.6	0.1	1511.
5788	16.6	4.4	0.1	1654.1
5789	16.8	4.6	0.1	1606.5
5790	16.2	4.4	0.1	1750.9
5791	16.4	4.6	0.1	1703.
5792	15.8	4.4	0.1	1848.8
5793	16.	4.6	0.1	1800.4
5794	15.4	4.4	0.1	1947.6
5795	15.6	4.6	0.1	1898.8
5796	15.	4.4	0.1	2047.4
5797	15.2	4.6	0.1	1998.2
5798	14.6	4.4	0.1	2148.1
5799	14.8	4.6	0.1	2098.5
5800	14.2	4.4	0.1	2249.7
5801	14.4	4.6	0.1	2199.7
5802	13.8	4.4	0.1	2352.2
5803	14.	4.6	0.1	2301.8
5804	13.4	4.4	0.1	2455.5
5805	13.6	4.6	0.1	2404.8
5806	13.	4.4	0.1	2559.6
5807	13.2	4.6	0.1	2508.6
5808	12.6	4.4	0.1	2664.6
5809	12.8	4.6	0.1	2613.3
5810	12.2	4.4	0.1	2770.3
5811	12.4	4.6	0.1	2718.7
5812	11.8	4.4	0.1	2876.7
5813	12.	4.6	0.1	2825.
5814	11.4	4.4	0.1	2983.8
5815	11.6	4.6	0.1	2932.
5816	11.	4.4	0.1	3091.5
5817	11.2	4.6	0.1	3039.6
5818	10.6	4.4	0.1	3199.8
5819	10.8	4.6	0.1	3147.9
5820	10.2	4.4	0.1	3308.5
5821	10.4	4.6	0.1	3256.8
5822	9.8	4.4	0.1	3417.7
5823	10.	4.6	0.1	3366.3
5824	9.4	4.4	0.1	3527.1
5825	9.6	4.6	0.1	3476.1
5826	9.	4.4	0.1	3636.8
5827	9.2	4.6	0.1	3586.3
5828	8.6	4.4	0.1	3746.5
5829	8.8	4.6	0.1	3696.8
5830	8.2	4.4	0.1	3856.1
5831	8.4	4.6	0.1	3807.4
5832	7.8	4.4	0.1	3965.4
5833	8.	4.6	0.1	3918.
5834	7.4	4.4	0.1	4074.3
5835	7.6	4.6	0.1	4028.5
5836	7.	4.4	0.1	4182.5
5837	7.2	4.6	0.1	4138.6
5838	6.6	4.4	0.1	4289.7
5839	6.8	4.6	0.1	4248.2
5840	6.2	4.4	0.1	4395.6
5841	6.4	4.6	0.1	4357.
5842	5.8	4.4	0.1	4500.1
5843	6.	4.6	0.1	4464.9
5844	5.4	4.4	0.1	4602.6
5845	5.6	4.6	0.1	4571.6
5846	5.	4.4	0.1	4703.1
5847	5.2	4.6	0.1	4676.8
5848	4.6	4.4	0.1	4801.
5849	4.8	4.6	0.1	4780.2
5850	4.2	4.4	0.1	4896.2
5851	4.4	4.6	0.1	4881.7
5852	3.8	4.4	0.1	4988.4
5853	4.	4.6	0.1	4980.8
5854	3.4	4.4	0.1	5077.3
5855	3.6	4.6	0.1	5077.
5856	3.	4.4	0.1	5162.7
5857	3.2	4.6	0.1	5169.8
5858	2.6	4.4	0.1	5244.2
5859	2.8	4.6	0.1	5257.9
5860	2.2	4.4	0.1	5322.9
5861	2.4	4.6	0.1	5339.
5862	1.8	4.4	0.1	5397.
5863	2.	4.6	0.1	5412.6
5864	1.4	4.4	0.1	5495.2
5865	1.6	4.6	0.1	5465.8
5866	1.	4.4	0.1	5569.2
5867	1.2	4.6	0.1	5552.1
5868	0.6	4.4	0.1	6045.4
5869	0.8	4.6	0.1	5503.6
5870	0.4	4.6	0.1	6369.
5871	0.2	4.4	0.1	5177.5
5872	23.4	4.8	0.1	202.74
5873	23.6	5.	0.1	163.02
5874	23.8	4.8	0.1	159.49
5875	23.	4.8	0.1	265.87
5876	23.2	5.	0.1	221.77
5877	22.6	4.8	0.1	337.13
5878	22.8	5.	0.1	291.88
5879	22.2	4.8	0.1	413.34
5880	22.4	5.	0.1	368.05
5881	21.8	4.8	0.1	492.69
5882	22.	5.	0.1	447.63
5883	21.4	4.8	0.1	574.31
5884	21.6	5.	0.1	529.49
5885	21.	4.8	0.1	657.71
5886	21.2	5.	0.1	613.05
5887	20.6	4.8	0.1	742.61
5888	20.8	5.	0.1	698.01
5889	20.2	4.8	0.1	828.84
5890	20.4	5.	0.1	784.22
5891	19.8	4.8	0.1	916.31
5892	20.	5.	0.1	871.58
5893	19.4	4.8	0.1	1005.
5894	19.6	5.	0.1	960.04
5895	19.	4.8	0.1	1094.7
5896	19.2	5.	0.1	1049.6
5897	18.6	4.8	0.1	1185.6
5898	18.8	5.	0.1	1140.2
5899	18.2	4.8	0.1	1277.6
5900	18.4	5.	0.1	1231.8
5901	17.8	4.8	0.1	1370.5
5902	18.	5.	0.1	1324.4
5903	17.4	4.8	0.1	1464.6
5904	17.6	5.	0.1	1418.
5905	17.	4.8	0.1	1559.6
5906	17.2	5.	0.1	1512.7
5907	16.6	4.8	0.1	1655.6
5908	16.8	5.	0.1	1608.3
5909	16.2	4.8	0.1	1752.6
5910	16.4	5.	0.1	1704.9
5911	15.8	4.8	0.1	1850.6
5912	16.	5.	0.1	1802.5
5913	15.4	4.8	0.1	1949.6
5914	15.6	5.	0.1	1901.
5915	15.	4.8	0.1	2049.4
5916	15.2	5.	0.1	2000.5
5917	14.6	4.8	0.1	2150.3
5918	14.8	5.	0.1	2100.9
5919	14.2	4.8	0.1	2252.
5920	14.4	5.	0.1	2202.2
5921	13.8	4.8	0.1	2354.6
5922	14.	5.	0.1	2304.5
5923	13.4	4.8	0.1	2458.1
5924	13.6	5.	0.1	2407.6
5925	13.	4.8	0.1	2562.4
5926	13.2	5.	0.1	2511.7
5927	12.6	4.8	0.1	2667.6
5928	12.8	5.	0.1	2616.6
5929	12.2	4.8	0.1	2773.6
5930	12.4	5.	0.1	2722.4
5931	11.8	4.8	0.1	2880.4
5932	12.	5.	0.1	2829.
5933	11.4	4.8	0.1	2988.
5934	11.6	5.	0.1	2936.4
5935	11.	4.8	0.1	3096.2
5936	11.2	5.	0.1	3044.6
5937	10.6	4.8	0.1	3205.2
5938	10.8	5.	0.1	3153.5
5939	10.2	4.8	0.1	3314.7
5940	10.4	5.	0.1	3263.2
5941	9.8	4.8	0.1	3424.8
5942	10.	5.	0.1	3373.6
5943	9.4	4.8	0.1	3535.4
5944	9.6	5.	0.1	3484.5
5945	9.	4.8	0.1	3646.5
5946	9.2	5.	0.1	3596.1
5947	8.6	4.8	0.1	3757.8
5948	8.8	5.	0.1	3708.2
5949	8.2	4.8	0.1	3869.4
5950	8.4	5.	0.1	3820.7
5951	7.8	4.8	0.1	3981.1
5952	8.	5.	0.1	3933.7
5953	7.4	4.8	0.1	4092.8
5954	7.6	5.	0.1	4046.9
5955	7.	4.8	0.1	4204.3
5956	7.2	5.	0.1	4160.4
5957	6.6	4.8	0.1	4315.5
5958	6.8	5.	0.1	4273.9
5959	6.2	4.8	0.1	4426.3
5960	6.4	5.	0.1	4387.5
5961	5.8	4.8	0.1	4536.4
5962	6.	5.	0.1	4501.
5963	5.4	4.8	0.1	4645.7
5964	5.6	5.	0.1	4614.3
5965	5.	4.8	0.1	4753.9
5966	5.2	5.	0.1	4727.4
5967	4.6	4.8	0.1	4860.9
5968	4.8	5.	0.1	4839.9
5969	4.2	4.8	0.1	4966.2
5970	4.4	5.	0.1	4951.9
5971	3.8	4.8	0.1	5069.5
5972	4.	5.	0.1	5062.8
5973	3.4	4.8	0.1	5169.7
5974	3.6	5.	0.1	5172.
5975	3.	4.8	0.1	5265.4
5976	3.2	5.	0.1	5278.3
5977	2.6	4.8	0.1	5353.6
5978	2.8	5.	0.1	5379.1
5979	2.2	4.8	0.1	5430.3
5980	2.4	5.	0.1	5469.5
5981	1.8	4.8	0.1	5484.1
5982	2.	5.	0.1	5543.
5983	1.4	4.8	0.1	5525.8
5984	1.6	5.	0.1	5576.1
5985	1.	4.8	0.1	5491.4
5986	1.2	5.	0.1	5590.7
5987	0.6	4.8	0.1	5805.3
5988	0.8	5.	0.1	5392.4
5989	0.4	5.	0.1	5962.
5990	0.2	4.8	0.1	4920.3
5991	23.4	5.2	0.1	179.71
5992	23.6	5.4	0.1	133.33
5993	23.8	5.2	0.1	132.53
5994	23.	5.2	0.1	247.5
5995	23.2	5.4	0.1	199.78
5996	22.6	5.2	0.1	323.07
5997	22.8	5.4	0.1	276.28
5998	22.2	5.2	0.1	402.78
5999	22.4	5.4	0.1	357.
6000	21.8	5.2	0.1	484.89
6001	22.	5.4	0.1	439.87
6002	21.4	5.2	0.1	568.67
6003	21.6	5.4	0.1	524.18
6004	21.	5.2	0.1	653.77
6005	21.2	5.4	0.1	609.62
6006	20.6	5.2	0.1	740.02
6007	20.8	5.4	0.1	696.03
6008	20.2	5.2	0.1	827.33
6009	20.4	5.4	0.1	783.38
6010	19.8	5.2	0.1	915.66
6011	20.	5.4	0.1	871.64
6012	19.4	5.2	0.1	1005.
6013	19.6	5.4	0.1	960.82
6014	19.	5.2	0.1	1095.3
6015	19.2	5.4	0.1	1050.9
6016	18.6	5.2	0.1	1186.6
6017	18.8	5.4	0.1	1141.9
6018	18.2	5.2	0.1	1278.9
6019	18.4	5.4	0.1	1233.9
6020	17.8	5.2	0.1	1372.2
6021	18.	5.4	0.1	1326.8
6022	17.4	5.2	0.1	1466.4
6023	17.6	5.4	0.1	1420.7
6024	17.	5.2	0.1	1561.6
6025	17.2	5.4	0.1	1515.5
6026	16.6	5.2	0.1	1657.8
6027	16.8	5.4	0.1	1611.2
6028	16.2	5.2	0.1	1755.
6029	16.4	5.4	0.1	1707.9
6030	15.8	5.2	0.1	1853.1
6031	16.	5.4	0.1	1805.6
6032	15.4	5.2	0.1	1952.1
6033	15.6	5.4	0.1	1904.2
6034	15.	5.2	0.1	2052.1
6035	15.2	5.4	0.1	2003.8
6036	14.6	5.2	0.1	2153.1
6037	14.8	5.4	0.1	2104.3
6038	14.2	5.2	0.1	2254.9
6039	14.4	5.4	0.1	2205.8
6040	13.8	5.2	0.1	2357.7
6041	14.	5.4	0.1	2308.1
6042	13.4	5.2	0.1	2461.4
6043	13.6	5.4	0.1	2411.5
6044	13.	5.2	0.1	2566.
6045	13.2	5.4	0.1	2515.7
6046	12.6	5.2	0.1	2671.5
6047	12.8	5.4	0.1	2620.9
6048	12.2	5.2	0.1	2777.8
6049	12.4	5.4	0.1	2727.
6050	11.8	5.2	0.1	2885.1
6051	12.	5.4	0.1	2834.
6052	11.4	5.2	0.1	2993.1
6053	11.6	5.4	0.1	2941.9
6054	11.	5.2	0.1	3102.
6055	11.2	5.4	0.1	3050.6
6056	10.6	5.2	0.1	3211.7
6057	10.8	5.4	0.1	3160.3
6058	10.2	5.2	0.1	3322.2
6059	10.4	5.4	0.1	3270.8
6060	9.8	5.2	0.1	3433.4
6061	10.	5.4	0.1	3382.2
6062	9.4	5.2	0.1	3545.3
6063	9.6	5.4	0.1	3494.4
6064	9.	5.2	0.1	3658.
6065	9.2	5.4	0.1	3607.5
6066	8.6	5.2	0.1	3771.2
6067	8.8	5.4	0.1	3721.4
6068	8.2	5.2	0.1	3885.1
6069	8.4	5.4	0.1	3836.1
6070	7.8	5.2	0.1	3999.6
6071	8.	5.4	0.1	3951.6
6072	7.4	5.2	0.1	4114.5
6073	7.6	5.4	0.1	4068.
6074	7.	5.2	0.1	4230.
6075	7.2	5.4	0.1	4185.1
6076	6.6	5.2	0.1	4345.9
6077	6.8	5.4	0.1	4303.1
6078	6.2	5.2	0.1	4462.2
6079	6.4	5.4	0.1	4422.
6080	5.8	5.2	0.1	4579.
6081	6.	5.4	0.1	4541.7
6082	5.4	5.2	0.1	4696.
6083	5.6	5.4	0.1	4662.5
6084	5.	5.2	0.1	4813.4
6085	5.2	5.4	0.1	4784.2
6086	4.6	5.2	0.1	4930.9
6087	4.8	5.4	0.1	4907.1
6088	4.2	5.2	0.1	5048.5
6089	4.4	5.4	0.1	5031.
6090	3.8	5.2	0.1	5165.5
6091	4.	5.4	0.1	5155.7
6092	3.4	5.2	0.1	5280.8
6093	3.6	5.4	0.1	5280.6
6094	3.	5.2	0.1	5392.4
6095	3.2	5.4	0.1	5404.3
6096	2.6	5.2	0.1	5495.8
6097	2.8	5.4	0.1	5524.1
6098	2.2	5.2	0.1	5583.8
6099	2.4	5.4	0.1	5634.
6100	1.8	5.2	0.1	5638.1
6101	2.	5.4	0.1	5724.6
6102	1.4	5.2	0.1	5646.2
6103	1.6	5.4	0.1	5768.5
6104	1.	5.2	0.1	5503.
6105	1.2	5.4	0.1	5752.9
6106	0.6	5.2	0.1	5522.4
6107	0.8	5.4	0.1	5471.5
6108	0.4	5.4	0.1	5374.5
6109	0.2	5.2	0.1	4507.9
6110	23.4	5.6	0.1	153.04
6111	23.6	5.8	0.1	102.
6112	23.8	5.6	0.1	95.396
6113	23.	5.6	0.1	229.62
6114	23.2	5.8	0.1	180.03
6115	22.6	5.6	0.1	311.3
6116	22.8	5.8	0.1	262.34
6117	22.2	5.6	0.1	395.04
6118	22.4	5.8	0.1	346.5
6119	21.8	5.6	0.1	479.98
6120	22.	5.8	0.1	431.72
6121	21.4	5.6	0.1	565.84
6122	21.6	5.8	0.1	517.77
6123	21.	5.6	0.1	652.51
6124	21.2	5.8	0.1	604.55
6125	20.6	5.6	0.1	739.96
6126	20.8	5.8	0.1	692.05
6127	20.2	5.6	0.1	828.21
6128	20.4	5.8	0.1	780.28
6129	19.8	5.6	0.1	917.28
6130	20.	5.8	0.1	869.27
6131	19.4	5.6	0.1	1007.2
6132	19.6	5.8	0.1	959.04
6133	19.	5.6	0.1	1098.
6134	19.2	5.8	0.1	1049.6
6135	18.6	5.6	0.1	1189.6
6136	18.8	5.8	0.1	1141.1
6137	18.2	5.6	0.1	1282.2
6138	18.4	5.8	0.1	1233.4
6139	17.8	5.6	0.1	1375.6
6140	18.	5.8	0.1	1326.6
6141	17.4	5.6	0.1	1470.
6142	17.6	5.8	0.1	1420.7
6143	17.	5.6	0.1	1565.4
6144	17.2	5.8	0.1	1515.7
6145	16.6	5.6	0.1	1661.7
6146	16.8	5.8	0.1	1611.6
6147	16.2	5.6	0.1	1758.9
6148	16.4	5.8	0.1	1708.5
6149	15.8	5.6	0.1	1857.1
6150	16.	5.8	0.1	1806.3
6151	15.4	5.6	0.1	1956.2
6152	15.6	5.8	0.1	1905.1
6153	15.	5.6	0.1	2056.3
6154	15.2	5.8	0.1	2004.8
6155	14.6	5.6	0.1	2157.3
6156	14.8	5.8	0.1	2105.5
6157	14.2	5.6	0.1	2259.3
6158	14.4	5.8	0.1	2207.1
6159	13.8	5.6	0.1	2362.2
6160	14.	5.8	0.1	2309.7
6161	13.4	5.6	0.1	2466.1
6162	13.6	5.8	0.1	2413.3
6163	13.	5.6	0.1	2570.9
6164	13.2	5.8	0.1	2517.8
6165	12.6	5.6	0.1	2676.6
6166	12.8	5.8	0.1	2623.3
6167	12.2	5.6	0.1	2783.4
6168	12.4	5.8	0.1	2729.8
6169	11.8	5.6	0.1	2891.
6170	12.	5.8	0.1	2837.3
6171	11.4	5.6	0.1	2999.6
6172	11.6	5.8	0.1	2945.7
6173	11.	5.6	0.1	3109.1
6174	11.2	5.8	0.1	3055.2
6175	10.6	5.6	0.1	3219.6
6176	10.8	5.8	0.1	3165.7
6177	10.2	5.6	0.1	3331.1
6178	10.4	5.8	0.1	3277.1
6179	9.8	5.6	0.1	3443.5
6180	10.	5.8	0.1	3389.7
6181	9.4	5.6	0.1	3556.8
6182	9.6	5.8	0.1	3503.3
6183	9.	5.6	0.1	3671.1
6184	9.2	5.8	0.1	3618.
6185	8.6	5.6	0.1	3786.5
6186	8.8	5.8	0.1	3733.8
6187	8.2	5.6	0.1	3902.8
6188	8.4	5.8	0.1	3850.9
6189	7.8	5.6	0.1	4020.2
6190	8.	5.8	0.1	3969.2
6191	7.4	5.6	0.1	4138.7
6192	7.6	5.8	0.1	4088.8
6193	7.	5.6	0.1	4258.3
6194	7.2	5.8	0.1	4209.8
6195	6.6	5.6	0.1	4379.3
6196	6.8	5.8	0.1	4332.4
6197	6.2	5.6	0.1	4501.5
6198	6.4	5.8	0.1	4456.6
6199	5.8	5.6	0.1	4625.3
6200	6.	5.8	0.1	4582.7
6201	5.4	5.6	0.1	4750.8
6202	5.6	5.8	0.1	4710.9
6203	5.	5.6	0.1	4878.
6204	5.2	5.8	0.1	4841.4
6205	4.6	5.6	0.1	5007.2
6206	4.8	5.8	0.1	4974.3
6207	4.2	5.6	0.1	5138.2
6208	4.4	5.8	0.1	5109.8
6209	3.8	5.6	0.1	5270.9
6210	4.	5.8	0.1	5247.8
6211	3.4	5.6	0.1	5404.3
6212	3.6	5.8	0.1	5387.8
6213	3.	5.6	0.1	5536.5
6214	3.2	5.8	0.1	5528.6
6215	2.6	5.6	0.1	5663.1
6216	2.8	5.8	0.1	5667.5
6217	2.2	5.6	0.1	5776.2
6218	2.4	5.8	0.1	5798.8
6219	1.8	5.6	0.1	5857.5
6220	2.	5.8	0.1	5912.8
6221	1.4	5.6	0.1	5880.7
6222	1.6	5.8	0.1	5984.6
6223	1.	5.6	0.1	5736.3
6224	1.2	5.8	0.1	5981.2
6225	0.6	5.6	0.1	5333.8
6226	0.8	5.8	0.1	5755.
6227	0.4	5.8	0.1	5089.8
6228	0.2	5.6	0.1	3839.2
6229	0.6	6.	0.1	5533.1
6230	0.2	6.	0.1	3345.2
6231	0.4	6.	5.e-002	876.66
6232	1.	6.	0.1	6006.7
6233	0.8	6.	5.e-002	597.16
6234	1.4	6.	0.1	6092.
6235	1.2	6.	5.e-002	405.39
6236	1.8	6.	0.1	6044.8
6237	1.6	6.	5.e-002	312.46
6238	2.2	6.	0.1	5938.9
6239	2.	6.	5.e-002	239.81
6240	2.6	6.	0.1	5805.6
6241	2.4	6.	5.e-002	182.3
6242	3.	6.	0.1	5661.2
6243	2.8	6.	5.e-002	135.79
6244	3.4	6.	0.1	5513.
6245	3.2	6.	5.e-002	97.562
6246	3.8	6.	0.1	5365.2
6247	3.6	6.	5.e-002	65.95
6248	4.2	6.	0.1	5219.6
6249	4.	6.	5.e-002	39.929
6250	4.6	6.	0.1	5077.1
6251	4.4	6.	5.e-002	19.438
6252	5.	6.	0.1	4937.7
6253	4.8	6.	5.e-002	10.92
6254	5.4	6.	0.1	4801.6
6255	5.2	6.	5.e-002	20.789
6256	5.8	6.	0.1	4668.4
6257	5.6	6.	5.e-002	32.574
6258	6.2	6.	0.1	4537.9
6259	6.	6.	5.e-002	42.888
6260	6.6	6.	0.1	4409.8
6261	6.4	6.	5.e-002	51.587
6262	7.	6.	0.1	4283.9
6263	6.8	6.	5.e-002	58.835
6264	7.4	6.	0.1	4160.
6265	7.2	6.	5.e-002	64.83
6266	7.8	6.	0.1	4037.9
6267	7.6	6.	5.e-002	69.758
6268	8.2	6.	0.1	3917.5
6269	8.	6.	5.e-002	73.782
6270	8.6	6.	0.1	3798.5
6271	8.4	6.	5.e-002	77.04
6272	9.	6.	0.1	3681.
6273	8.8	6.	5.e-002	79.652
6274	9.4	6.	0.1	3564.8
6275	9.2	6.	5.e-002	81.72
6276	9.8	6.	0.1	3449.9
6277	9.6	6.	5.e-002	83.329
6278	10.2	6.	0.1	3336.1
6279	10.	6.	5.e-002	84.55
6280	10.6	6.	0.1	3223.6
6281	10.4	6.	5.e-002	85.445
6282	11.	6.	0.1	3112.1
6283	10.8	6.	5.e-002	86.064
6284	11.4	6.	0.1	3001.8
6285	11.2	6.	5.e-002	86.45
6286	11.8	6.	0.1	2892.5
6287	11.6	6.	5.e-002	86.637
6288	12.2	6.	0.1	2784.2
6289	12.	6.	5.e-002	86.657
6290	12.6	6.	0.1	2677.
6291	12.4	6.	5.e-002	86.534
6292	13.	6.	0.1	2570.8
6293	12.8	6.	5.e-002	86.287
6294	13.4	6.	0.1	2465.6
6295	13.2	6.	5.e-002	85.934
6296	13.8	6.	0.1	2361.4
6297	13.6	6.	5.e-002	85.487
6298	14.2	6.	0.1	2258.2
6299	14.	6.	5.e-002	84.957
6300	14.6	6.	0.1	2156.
6301	14.4	6.	5.e-002	84.352
6302	15.	6.	0.1	2054.7
6303	14.8	6.	5.e-002	83.677
6304	15.4	6.	0.1	1954.4
6305	15.2	6.	5.e-002	82.937
6306	15.8	6.	0.1	1855.1
6307	15.6	6.	5.e-002	82.133
6308	16.2	6.	0.1	1756.7
6309	16.	6.	5.e-002	81.264
6310	16.6	6.	0.1	1659.2
6311	16.4	6.	5.e-002	80.328
6312	17.	6.	0.1	1562.7
6313	16.8	6.	5.e-002	79.321
6314	17.4	6.	0.1	1467.1
6315	17.2	6.	5.e-002	78.236
6316	17.8	6.	0.1	1372.4
6317	17.6	6.	5.e-002	77.064
6318	18.2	6.	0.1	1278.6
6319	18.	6.	5.e-002	75.795
6320	18.6	6.	0.1	1185.7
6321	18.4	6.	5.e-002	74.412
6322	19.	6.	0.1	1093.6
6323	18.8	6.	5.e-002	72.899
6324	19.4	6.	0.1	1002.4
6325	19.2	6.	5.e-002	71.234
6326	19.8	6.	0.1	911.92
6327	19.6	6.	5.e-002	69.39
6328	20.2	6.	0.1	822.24
6329	20.	6.	5.e-002	67.334
6330	20.6	6.	0.1	733.3
6331	20.4	6.	5.e-002	65.027
6332	21.	6.	0.1	645.05
6333	20.8	6.	5.e-002	62.419
6334	21.4	6.	0.1	557.47
6335	21.2	6.	5.e-002	59.451
6336	21.8	6.	0.1	470.54
6337	21.6	6.	5.e-002	56.044
6338	22.2	6.	0.1	384.28
6339	22.	6.	5.e-002	52.095
6340	22.6	6.	0.1	298.79
6341	22.4	6.	5.e-002	47.454
6342	23.	6.	0.1	214.31
6343	22.8	6.	5.e-002	41.959
6344	23.4	6.	0.1	130.73
6345	23.2	6.	5.e-002	34.753
6346	23.8	6.	0.1	59.501
6347	23.6	6.	5.e-002	25.49
6348	24.	5.8	0.1	54.565
6349	24.	6.	5.e-002	11.236
6350	24.	5.4	0.1	98.421
6351	24.	5.6	5.e-002	11.792
6352	24.	5.	0.1	132.85
6353	24.	5.2	5.e-002	11.776
6354	24.	4.6	0.1	157.1
6355	24.	4.8	5.e-002	11.939
6356	24.	4.2	0.1	174.59
6357	24.	4.4	5.e-002	12.119
6358	24.	3.8	0.1	186.45
6359	24.	4.	5.e-002	12.172
6360	24.	3.4	0.1	193.36
6361	24.	3.6	5.e-002	12.186
6362	24.	3.	0.1	195.63
6363	24.	3.2	5.e-002	12.185
6364	24.	2.6	0.1	193.36
6365	24.	2.8	5.e-002	12.185
6366	24.	2.2	0.1	186.45
6367	24.	2.4	5.e-002	12.186
6368	24.	1.8	0.1	174.59
6369	24.	2.	5.e-002	12.172
6370	24.	1.4	0.1	157.1
6371	24.	1.6	5.e-002	12.119
6372	24.	1.	0.1	132.85
6373	24.	1.2	5.e-002	11.939
6374	24.	0.6	0.1	98.422
6375	24.	0.8	5.e-002	11.776
6376	24.	0.2	0.1	54.565
6377	24.	0.4	5.e-002	11.792
6378	23.8	0.	0.1	59.501
6379	24.	0.	5.e-002	11.236
6380	23.4	0.	0.1	130.73
6381	23.6	0.	5.e-002	25.49
6382	23.	0.	0.1	214.31
6383	23.2	0.	5.e-002	34.753
6384	22.6	0.	0.1	298.79
6385	22.8	0.	5.e-002	41.959
6386	22.2	0.	0.1	384.28
6387	22.4	0.	5.e-002	47.454
6388	21.8	0.	0.1	470.54
6389	22.	0.	5.e-002	52.095
6390	21.4	0.	0.1	557.47
6391	21.6	0.	5.e-002	56.044
6392	21.	0.	0.1	645.05
6393	21.2	0.	5.e-002	59.451
6394	20.6	0.	0.1	733.3
6395	20.8	0.	5.e-002	62.419
6396	20.2	0.	0.1	822.24
6397	20.4	0.	5.e-002	65.027
6398	19.8	0.	0.1	911.92
6399	20.	0.	5.e-002	67.334
6400	19.4	0.	0.1	1002.4
6401	19.6	0.	5.e-002	69.39
6402	19.	0.	0.1	1093.6
6403	19.2	0.	5.e-002	71.234
6404	18.6	0.	0.1	1185.7
6405	18.8	0.	5.e-002	72.899
6406	18.2	0.	0.1	1278.6
6407	18.4	0.	5.e-002	74.412
6408	17.8	0.	0.1	1372.4
6409	18.	0.	5.e-002	75.795
6410	17.4	0.	0.1	1467.1
6411	17.6	0.	5.e-002	77.065
6412	17.	0.	0.1	1562.7
6413	17.2	0.	5.e-002	78.236
6414	16.6	0.	0.1	1659.2
6415	16.8	0.	5.e-002	79.321
6416	16.2	0.	0.1	1756.7
6417	16.4	0.	5.e-002	80.328
6418	15.8	0.	0.1	1855.1
6419	16.	0.	5.e-002	81.264
6420	15.4	0.	0.1	1954.4
6421	15.6	0.	5.e-002	82.133
6422	15.	0.	0.1	2054.7
6423	15.2	0.	5.e-002	82.937
6424	14.6	0.	0.1	2156.
6425	14.8	0.	5.e-002	83.678
6426	14.2	0.	0.1	2258.2
6427	14.4	0.	5.e-002	84.352
6428	13.8	0.	0.1	2361.4
6429	14.	0.	5.e-002	84.957
6430	13.4	0.	0.1	2465.6
6431	13.6	0.	5.e-002	85.487
6432	13.	0.	0.1	2570.8
6433	13.2	0.	5.e-002	85.934
6434	12.6	0.	0.1	2677.
6435	12.8	0.	5.e-002	86.287
6436	12.2	0.	0.1	2784.2
6437	12.4	0.	5.e-002	86.534
6438	11.8	0.	0.1	2892.5
6439	12.	0.	5.e-002	86.658
6440	11.4	0.	0.1	3001.8
6441	11.6	0.	5.e-002	86.638
6442	11.	0.	0.1	3112.1
6443	11.2	0.	5.e-002	86.45
6444	10.6	0.	0.1	3223.6
6445	10.8	0.	5.e-002	86.064
6446	10.2	0.	0.1	3336.1
6447	10.4	0.	5.e-002	85.445
6448	9.8	0.	0.1	3449.9
6449	10.	0.	5.e-002	84.551
6450	9.4	0.	0.1	3564.8
6451	9.6	0.	5.e-002	83.329
6452	9.	0.	0.1	3681.
6453	9.2	0.	5.e-002	81.72
6454	8.6	0.	0.1	3798.5
6455	8.8	0.	5.e-002	79.653
6456	8.2	0.	0.1	3917.5
6457	8.4	0.	5.e-002	77.04
6458	7.8	0.	0.1	4037.9
6459	8.	0.	5.e-002	73.782
6460	7.4	0.	0.1	4160.
6461	7.6	0.	5.e-002	69.759
6462	7.	0.	0.1	4283.9
6463	7.2	0.	5.e-002	64.831
6464	6.6	0.	0.1	4409.8
6465	6.8	0.	5.e-002	58.835
6466	6.2	0.	0.1	4537.9
6467	6.4	0.	5.e-002	51.587
6468	5.8	0.	0.1	4668.4
6469	6.	0.	5.e-002	42.888
6470	5.4	0.	0.1	4801.6
6471	5.6	0.	5.e-002	32.574
6472	5.	0.	0.1	4937.7
6473	5.2	0.	5.e-002	20.789
6474	4.6	0.	0.1	5077.1
6475	4.8	0.	5.e-002	10.92
6476	4.2	0.	0.1	5219.6
6477	4.4	0.	5.e-002	19.438
6478	3.8	0.	0.1	5365.2
6479	4.	0.	5.e-002	39.929
6480	3.4	0.	0.1	5513.
6481	3.6	0.	5.e-002	65.95
6482	3.	0.	0.1	5661.2
6483	3.2	0.	5.e-002	97.562
6484	2.6	0.	0.1	5805.6
6485	2.8	0.	5.e-002	135.79
6486	2.2	0.	0.1	5938.9
6487	2.4	0.	5.e-002	182.3
6488	1.8	0.	0.1	6044.8
6489	2.	0.	5.e-002	239.81
6490	1.4	0.	0.1	6092.
6491	1.6	0.	5.e-002	312.46
6492	1.	0.	0.1	6006.7
6493	1.2	0.	5.e-002	405.39
6494	0.6	0.	0.1	5533.1
6495	0.8	0.	5.e-002	597.16
6496	0.2	0.	0.1	3345.2
6497	0.4	0.	5.e-002	876.66
6498	1.7484e-015	0.2	0.1	1944.5
6499	0.	0.	5.e-002	1852.2
6500	5.2451e-015	0.6	0.1	3074.2
6501	3.5441e-015	0.4	5.e-002	131.31
6502	8.7419e-015	1.	0.1	3619.1
6503	7.0881e-015	0.8	5.e-002	36.044
6504	1.2239e-014	1.4	0.1	3897.3
6505	1.0632e-014	1.2	5.e-002	42.885
6506	1.5735e-014	1.8	0.1	4056.9
6507	1.4176e-014	1.6	5.e-002	37.955
6508	1.9232e-014	2.2	0.1	4146.3
6509	1.772e-014	2.	5.e-002	47.817
6510	2.2729e-014	2.6	0.1	4193.1
6511	2.1264e-014	2.4	5.e-002	53.235
6512	2.6226e-014	3.	0.1	4207.7
6513	2.4809e-014	2.8	5.e-002	55.741
6514	2.9723e-014	3.4	0.1	4193.1
6515	2.8353e-014	3.2	5.e-002	55.741
6516	3.3219e-014	3.8	0.1	4146.3
6517	3.1897e-014	3.6	5.e-002	53.235
6518	3.6716e-014	4.2	0.1	4056.9
6519	3.5441e-014	4.	5.e-002	47.817
6520	4.0213e-014	4.6	0.1	3897.3
6521	3.8985e-014	4.4	5.e-002	37.955
6522	4.371e-014	5.	0.1	3619.1
6523	4.2529e-014	4.8	5.e-002	42.885
6524	4.7206e-014	5.4	0.1	3074.2
6525	4.6073e-014	5.2	5.e-002	36.044
6526	5.0703e-014	5.8	0.1	1944.5
6527	4.9617e-014	5.6	5.e-002	131.31
6528	5.2451e-014	6.	5.e-002	1852.2
6529	4.7206e-014	5.4	0.	3074.2
6530	5.0703e-014	5.8	0.	1944.5
6531	4.371e-014	5.	0.	3619.1
6532	4.0213e-014	4.6	0.	3897.3
6533	3.6716e-014	4.2	0.	4056.9
6534	3.3219e-014	3.8	0.	4146.3
6535	2.9723e-014	3.4	0.	4193.1
6536	2.6226e-014	3.	0.	4207.7
6537	2.2729e-014	2.6	0.	4193.1
6538	1.9232e-014	2.2	0.	4146.3
6539	1.5735e-014	1.8	0.	4056.9
6540	1.2239e-014	1.4	0.	3897.3
6541	8.7419e-015	1.	0.	3619.1
6542	5.2451e-015	0.6	0.	3074.2
6543	1.7484e-015	0.2	0.	1944.5
6544	0.2	6.	0.	3345.2
6545	0.2	0.	0.	3345.2
6546	0.6	0.	0.	5533.1
6547	1.	0.	0.	6006.7
6548	1.4	0.	0.	6092.
6549	1.8	0.	0.	6044.8
6550	2.2	0.	0.	5938.9
6551	2.6	0.	0.	5805.6
6552	3.	0.	0.	5661.2
6553	3.4	0.	0.	5513.
6554	3.8	0.	0.	5365.2
6555	4.2	0.	0.	5219.6
6556	4.6	0.	0.	5077.1
6557	5.	0.	0.	4937.7
6558	5.4	0.	0.	4801.6
6559	5.8	0.	0.	4668.4
6560	6.2	0.	0.	4537.9
6561	6.6	0.	0.	4409.8
6562	7.	0.	0.	4283.9
6563	7.4	0.	0.	4160.
6564	7.8	0.	0.	4037.9
6565	8.2	0.	0.	3917.5
6566	8.6	0.	0.	3798.5
6567	9.	0.	0.	3681.
6568	9.4	0.	0.	3564.8
6569	9.8	0.	0.	3449.9
6570	10.2	0.	0.	3336.1
6571	10.6	0.	0.	3223.6
6572	11.	0.	0.	3112.1
6573	11.4	0.	0.	3001.8
6574	11.8	0.	0.	2892.5
6575	12.2	0.	0.	2784.2
6576	12.6	0.	0.	2677.
6577	13.	0.	0.	2570.8
6578	13.4	0.	0.	2465.6
6579	13.8	0.	0.	2361.4
6580	14.2	0.	0.	2258.2
6581	14.6	0.	0.	2156.
6582	15.	0.	0.	2054.7
6583	15.4	0.	0.	1954.4
6584	15.8	0.	0.	1855.1
6585	16.2	0.	0.	1756.7
6586	16.6	0.	0.	1659.2
6587	17.	0.	0.	1562.7
6588	17.4	0.	0.	1467.1
6589	17.8	0.	0.	1372.4
6590	18.2	0.	0.	1278.6
6591	18.6	0.	0.	1185.7
6592	19.	0.	0.	1093.6
6593	19.4	0.	0.	1002.4
6594	19.8	0.	0.	911.92
6595	20.2	0.	0.	822.24
6596	20.6	0.	0.	733.3
6597	21.	0.	0.	645.05
6598	21.4	0.	0.	557.47
6599	21.8	0.	0.	470.54
6600	22.2	0.	0.	384.28
6601	22.6	0.	0.	298.79
6602	23.	0.	0.	214.31
6603	23.4	0.	0.	130.73
6604	23.8	0.	0.	59.501
6605	24.	0.2	0.	54.565
6606	24.	0.6	0.	98.422
6607	24.	1.	0.	132.85
6608	24.	1.4	0.	157.1
6609	24.	1.8	0.	174.59
6610	24.	2.2	0.	186.45
6611	24.	2.6	0.	193.36
6612	24.	3.	0.	195.63
6613	24.	3.4	0.	193.36
6614	24.	3.8	0.	186.45
6615	24.	4.2	0.	174.59
6616	24.	4.6	0.	157.1
6617	24.	5.	0.	132.85
6618	24.	5.4	0.	98.421
6619	24.	5.8	0.	54.565
6620	23.8	6.	0.	59.501
6621	23.4	6.	0.	130.73
6622	23.	6.	0.	214.31
6623	22.6	6.	0.	298.79
6624	22.2	6.	0.	384.28
6625	21.8	6.	0.	470.54
6626	21.4	6.	0.	557.47
6627	21.	6.	0.	645.05
6628	20.6	6.	0.	733.3
6629	20.2	6.	0.	822.24
6630	19.8	6.	0.	911.92
6631	19.4	6.	0.	1002.4
6632	19.	6.	0.	1093.6
6633	18.6	6.	0.	1185.7
6634	18.2	6.	0.	1278.6
6635	17.8	6.	0.	1372.4
6636	17.4	6.	0.	1467.1
6637	17.	6.	0.	1562.7
6638	16.6	6.	0.	1659.2
6639	16.2	6.	0.	1756.7
6640	15.8	6.	0.	1855.1
6641	15.4	6.	0.	1954.4
6642	15.	6.	0.	2054.7
6643	14.6	6.	0.	2156.
6644	14.2	6.	0.	2258.2
6645	13.8	6.	0.	2361.4
6646	13.4	6.	0.	2465.6
6647	13.	6.	0.	2570.8
6648	12.6	6.	0.	2677.
6649	12.2	6.	0.	2784.2
6650	11.8	6.	0.	2892.5
6651	11.4	6.	0.	3001.8
6652	11.	6.	0.	3112.1
6653	10.6	6.	0.	3223.6
6654	10.2	6.	0.	3336.1
6655	9.8	6.	0.	3449.9
6656	9.4	6.	0.	3564.8
6657	9.	6.	0.	3681.
6658	8.6	6.	0.	3798.5
6659	8.2	6.	0.	3917.5
6660	7.8	6.	0.	4037.9
6661	7.4	6.	0.	4160.
6662	7.	6.	0.	4283.9
6663	6.6	6.	0.	4409.8
6664	6.2	6.	0.	4537.9
6665	5.8	6.	0.	4668.4
6666	5.4	6.	0.	4801.6
6667	5.	6.	0.	4937.7
6668	4.6	6.	0.	5077.1
6669	4.2	6.	0.	5219.6
6670	3.8	6.	0.	5365.2
6671	3.4	6.	0.	5513.
6672	3.	6.	0.	5661.2
6673	2.6	6.	0.	5805.6
6674	2.2	6.	0.	5938.9
6675	1.8	6.	0.	6044.8
6676	1.4	6.	0.	6092.
6677	1.	6.	0.	6006.7
6678	0.6	6.	0.	5533.1
