Node Numbers,X Locations (inches),Y Locations (inches),Z Locations (inches),Equivalent Elastic Strains (in/in),Equivalent Stress (psi),Max Principal Elastic Strain (in/in),Max Principal Stress (psi),Middle Principal Elastic Strain (in/in),Middle Principal Stress (psi),Min Principal Elastic Strain (in/in),Min Principal Stress (psi),Total Deformation (in)
1,17.606,2.9248,0,0.00022256,2224.1,0.00013206,864.94,4.7495e-05,229.53,-0.00019702,-1607.7,1.3626
2,18.461,3.9285,0,0.00023678,2366.2,9.8222e-05,197.94,6.1264e-05,-79.74,-0.00023354,-2294.8,1.4746
3,19.423,3.1664,0,0.00012772,1276.3,4.9529e-05,-37.696,2.5388e-05,-219.08,-0.00013112,-1395,1.6059
4,16.977,1.3198,0,0.00017354,1734.2,8.7546e-05,408.35,4.1179e-05,59.963,-0.00016293,-1473.6,1.2793
5,17.292,5.3859,0,0.00012106,1209.8,5.37e-05,183.12,3.2821e-05,26.245,-0.00011674,-1097.5,1.3169
6,18.95,4.764,0,8.5933e-05,858.74,3.6852e-05,92.102,2.1962e-05,-19.777,-8.4154e-05,-817.1,1.54
7,19.107,5.3661,0,6.2747e-05,627.03,2.5434e-05,51.521,1.724e-05,-10.043,-6.1814e-05,-604.02,1.5608
8,17.09,0.52164,0,0.00011954,1194.6,5.7996e-05,226.15,2.7345e-05,-4.1528,-0.00011408,-1066.8,1.2911
9,19.771,1.7034,0,8.1249e-05,811.93,3.0704e-05,10.595,2.0998e-05,-62.329,-8.1883e-05,-835.34,1.6536
10,19.957,5.1561,0,7.286e-05,728.1,2.7987e-05,42.165,2.1125e-05,-9.3896,-7.2165e-05,-710.34,1.6786
11,22.749,4.6401,0,2.8103e-05,280.84,1.1213e-05,21.511,7.8958e-06,-3.4128,-2.7712e-05,-270.96,2.0708
12,21.649,4.6655,0,4.561e-05,455.79,1.5395e-05,-3.1257,1.418e-05,-12.252,-4.5865e-05,-463.41,1.9155
13,20.756,4.8442,0,6.0844e-05,608.02,2.1311e-05,-3.5573,1.7632e-05,-31.204,-6.1388e-05,-624.93,1.7901
14,17.151,4.542,0,0.00018315,1830.2,9.9885e-05,505.78,3.5877e-05,24.853,-0.00016932,-1516.9,1.3017
15,16.374,4.9091,0,0.00016117,1610.6,5.9077e-05,90.687,5.147e-05,33.533,-0.00015898,-1547.7,1.2029
16,19.291,0.61633,0,6.4244e-05,642,2.6518e-05,56.432,1.7131e-05,-14.097,-6.3233e-05,-617.92,1.5865
17,20.149,3.83,0,8.6428e-05,863.68,3.4526e-05,9.7148,1.8735e-05,-108.94,-8.7502e-05,-907.16,1.7061
18,20.337,0.83014,0,6.827e-05,682.22,2.6441e-05,47.344,2.0149e-05,0.065567,-6.734e-05,-657.29,1.7317
19,21.147,3.2797,0,5.4764e-05,547.27,2.4333e-05,8.2963,7.2585e-06,-119.99,-5.5524e-05,-591.72,1.8454
20,1.1502,1.2091,0,0.00056666,5662.7,0.00030736,1012,5.4873e-05,-885.07,-0.00054013,-5355.7,0.0067905
21,2.3034,1.2099,0,0.00052979,5294.3,0.00019857,-198.82,0.00011408,-833.61,-0.00054449,-5781.9,0.027688
22,3.4615,1.2092,0,0.00051216,5118.1,0.00019059,40.061,0.00013514,-376.57,-0.00051661,-5273.6,0.06315
23,4.6231,1.2085,0,0.00048365,4833.2,0.00017095,-10.077,0.00013915,-249.07,-0.00048762,-4958.3,0.11258
24,5.7886,1.2086,0,0.00045287,4525.6,0.00015664,-0.90682,0.00013707,-147.96,-0.00045523,-4598.2,0.17541
25,6.9542,1.2092,0,0.00042088,4205.9,0.00014291,-3.1275,0.00013178,-86.771,-0.00042235,-4250.2,0.25062
26,8.1135,1.2123,0,0.00038873,3884.6,0.00013044,-2.2081,0.00012442,-47.413,-0.00038956,-3909.3,0.33682
27,9.2646,1.2232,0,0.00035685,3566,0.00011867,-3.9631,0.00011585,-25.195,-0.00035734,-3580.5,0.4328
28,10.433,1.2095,0,0.00032504,3248.1,0.00010776,-0.63387,0.00010636,-11.172,-0.00032524,-3254,0.53984
29,11.59,1.1926,0,0.00029354,2933.4,9.7714e-05,7.0252,9.6082e-05,-5.2393,-0.00029351,-2932.5,0.65446
30,12.752,1.1682,0,0.00026204,2618.6,8.7803e-05,11.298,8.5255e-05,-7.8451,-0.00026197,-2616.8,0.77755
31,13.963,1.2111,0,0.000232,2318.4,7.7968e-05,20.048,7.6014e-05,5.3637,-0.00023156,-2305.7,0.91349
32,15.317,1.362,0,0.0001958,1956.6,7.123e-05,72.114,5.992e-05,-12.868,-0.00019465,-1925.6,1.0737
33,22.757,1.1662,0,2.7809e-05,277.89,1.1362e-05,23.151,7.5071e-06,-5.8105,-2.74e-05,-268.09,2.072
34,13.785,4.8065,0,0.00023613,2359.6,7.9617e-05,25.24,7.7367e-05,8.3345,-0.00023555,-2342.8,0.89303
35,12.552,4.7991,0,0.00026833,2681.4,8.9678e-05,14.126,8.793e-05,0.98889,-0.00026807,-2673.8,0.75589
36,11.302,4.8081,0,0.0003015,3012.9,0.00010014,6.3671,9.899e-05,-2.2546,-0.00030143,-3010.8,0.62514
37,10.048,4.8085,0,0.00033552,3352.9,0.00011156,2.3893,0.00010953,-12.868,-0.0003357,-3358.1,0.50341
38,8.7872,4.8089,0,0.00037025,3699.9,0.00012395,0.56137,0.00011924,-34.887,-0.00037082,-3717,0.39166
39,7.5273,4.8074,0,0.00040513,4048.5,0.00013713,-1.6405,0.0001277,-72.521,-0.00040635,-4085.2,0.29177
40,6.2689,4.8069,0,0.00043985,4395.5,0.00015145,-2.5366,0.00013417,-132.38,-0.000442,-4461.5,0.20486
41,5.0126,4.8074,0,0.00047362,4732.9,0.00016651,-13.789,0.00013746,-232.07,-0.00047742,-4852.1,0.13206
42,3.7566,4.8076,0,0.00050517,5048.3,0.0001865,31.503,0.00013522,-353.78,-0.00050955,-5198.4,0.074349
43,2.5062,4.7955,0,0.00052683,5264.7,0.00019652,-206.44,0.00011432,-824.06,-0.00054164,-5752.7,0.03284
44,1.253,4.7999,0,0.00056612,5657.3,0.00030681,1019.1,5.6279e-05,-863.28,-0.00053945,-5339.4,0.0080768
45,1.2179,3.5997,0,0.00059966,5992.4,0.00034622,1173.7,2.0616e-05,-1272.8,-0.00056261,-5654.9,0.0082598
46,1.1767,2.405,0,0.00060006,5996.4,0.00034571,1164,2.1221e-05,-1274.1,-0.0005635,-5667.4,0.0077218
47,22.657,2.3152,0,2.9845e-05,298.24,1.171e-05,15.548,8.0469e-06,-11.972,-2.9689e-05,-295.5,2.0581
48,22.636,3.4535,0,2.9983e-05,299.62,1.2732e-05,24.325,7.1335e-06,-17.741,-2.9648e-05,-294.1,2.0551
49,15.011,4.8334,0,0.00020254,2024,7.1635e-05,62.921,6.4454e-05,8.9687,-0.00020127,-1987.5,1.0365
50,21.273,2.1121,0,5.4416e-05,543.78,1.9718e-05,7.207,1.5587e-05,-23.831,-5.4632e-05,-551.43,1.863
51,2.4401,3.5974,0,0.00050813,5077.8,0.0002093,-240.64,6.8038e-05,-1302,-0.00052598,-5765.3,0.033068
52,2.3709,2.4132,0,0.0005091,5087.5,0.00020999,-241.72,6.7524e-05,-1312.2,-0.00052701,-5779.3,0.031263
53,13.441,3.5813,0,0.00024565,2454.8,8.3331e-05,24.731,7.9491e-05,-4.121,-0.00024529,-2444.4,0.8565
54,3.5657,2.4143,0,0.00049065,4903.2,0.00020062,93.394,0.00010137,-652.35,-0.00049589,-5139.9,0.069909
55,4.7624,2.4143,0,0.00046639,4660.7,0.00017447,15.096,0.00011939,-398.77,-0.00047154,-4838.7,0.12281
56,5.9628,2.414,0,0.00043988,4395.8,0.00015742,17.257,0.00012562,-221.68,-0.00044287,-4493.1,0.18947
57,7.1621,2.4161,0,0.00041033,4100.5,0.00014217,8.1976,0.00012461,-123.76,-0.00041214,-4156.7,0.26882
58,8.3616,2.4215,0,0.00037914,3788.7,0.00012874,4.9122,0.0001194,-65.247,-0.00038011,-3818.4,0.36006
59,9.5708,2.4152,0,0.00034695,3467.1,0.00011632,4.2091,0.00011178,-29.886,-0.00034738,-3479.8,0.46308
60,10.764,2.417,0,0.0003152,3149.8,0.0001048,3.0844,0.00010298,-10.569,-0.00031532,-3153.5,0.57473
61,11.932,2.3927,0,0.00028409,2838.9,9.4634e-05,9.6565,9.3139e-05,-1.5778,-0.00028395,-2834.9,0.69265
62,13.105,2.3758,0,0.00025354,2533.7,8.5461e-05,18.44,8.2326e-05,-5.1221,-0.00025331,-2527,0.81897
63,14.262,2.4124,0,0.0002264,2262.4,7.6739e-05,26.616,7.3719e-05,3.918,-0.00022587,-2247.1,0.95033
64,12.258,3.5898,0,0.00027568,2754.9,9.1804e-05,7.5583,9.0268e-05,-3.9825,-0.00027562,-2753.1,0.727
65,11.041,3.6167,0,0.00030762,3074.1,0.00010214,0.32978,0.00010049,-12.082,-0.00030782,-3080,0.60189
66,9.8132,3.6197,0,0.00034038,3401.4,0.0001139,0.49417,0.00010971,-30.942,-0.00034089,-3416.5,0.48494
67,8.5835,3.6203,0,0.00037318,3729.2,0.00012647,2.2897,0.00011772,-63.417,-0.00037418,-3759.3,0.37809
68,7.3508,3.6197,0,0.00040546,4051.8,0.00013999,3.9696,0.00012361,-119.08,-0.00040728,-4107.9,0.28235
69,6.12,3.6179,0,0.00043608,4357.8,0.00015525,10.777,0.00012537,-213.7,-0.0004391,-4455,0.1991
70,4.8911,3.6178,0,0.0004636,4632.8,0.00017231,8.2737,0.00012005,-384.4,-0.00046875,-4808.4,0.12927
71,3.665,3.6048,0,0.00048805,4877.2,0.00019836,85.096,0.00010235,-636.31,-0.00049341,-5112.6,0.073735
72,15.414,2.5413,0,0.00020274,2026,7.0477e-05,25.402,6.3154e-05,-29.621,-0.00020276,-2027.6,1.0873
73,18.741,4.2738,0,0.00013706,1369.7,5.9794e-05,150.49,3.3469e-05,-47.315,-0.00013423,-1307.4,1.5121
74,21.497,1.0694,0,4.7686e-05,476.53,1.6727e-05,15.676,1.5493e-05,6.4062,-4.7303e-05,-465.42,1.8942
75,17.309,0.94094,0,0.00010458,1045.1,5.8921e-05,304.2,1.8098e-05,-2.5297,-9.6012e-05,-859.91,1.3203
76,16.638,1.9255,0,0.00018654,1864.1,7.8136e-05,135.06,4.4816e-05,-115.29,-0.00018493,-1841.5,1.2378
77,16.107,0.77441,0,0.00016051,1604,6.118e-05,115.96,4.9557e-05,28.633,-0.00015787,-1529.9,1.1688
78,17.451,4.9847,0,9.8424e-05,983.56,5.9924e-05,359.25,1.51e-05,22.454,-8.7503e-05,-748.46,1.3386
79,16.705,3.7885,0,0.00019366,1935.2,7.4003e-05,106.04,5.6263e-05,-27.256,-0.00019197,-1892.4,1.2466
80,19.089,1.0856,0,8.0822e-05,807.66,2.979e-05,43.389,2.5331e-05,9.8876,-7.9864e-05,-780.5,1.5591
81,19.547,2.5192,0,0.00011024,1101.6,3.8878e-05,-17.681,3.0424e-05,-81.206,-0.00011178,-1149.7,1.6229
82,18.586,2.8528,0,0.00021387,2137.2,0.0001129,551.76,4.5612e-05,46.218,-0.00019916,-1792.9,1.4922
83,19.602,4.3724,0,8.8622e-05,885.61,3.1976e-05,-11.005,2.3479e-05,-74.845,-8.991e-05,-926.81,1.63
84,16.608,2.7772,0,0.00020827,2081.3,7.6215e-05,75.909,6.2882e-05,-24.269,-0.00020721,-2053.7,1.2348
85,18.179,3.4007,0,0.00025641,2562.3,0.00015665,811.52,2.3992e-05,-185.24,-0.00023077,-2099.4,1.4377
86,19.152,3.7945,0,0.00013818,1380.9,5.8319e-05,66.096,2.9014e-05,-154.09,-0.00013836,-1411.6,1.5686
87,18.612,3.445,0,0.0002112,2110.6,9.14e-05,308.09,6.0395e-05,75.122,-0.00020372,-1909.3,1.4955
88,14.62,3.6573,0,0.00021836,2182.1,7.6882e-05,55.211,6.8911e-05,-4.682,-0.00021743,-2156.2,0.99224
89,15.708,3.7043,0,0.00019782,1976.8,7.6918e-05,128.95,5.7061e-05,-20.247,-0.00019555,-1918.2,1.1229
90,15.708,3.7043,0.1,0.00019782,1976.8,0.00019555,1918.2,-5.7061e-05,20.247,-7.6918e-05,-128.95,1.1229
91,14.62,3.6573,0.1,0.00021836,2182.1,0.00021743,2156.2,-6.8911e-05,4.682,-7.6882e-05,-55.211,0.99224
92,18.612,3.445,0.1,0.0002112,2110.6,0.00020372,1909.3,-6.0395e-05,-75.122,-9.14e-05,-308.09,1.4955
93,19.152,3.7945,0.1,0.00013818,1380.9,0.00013836,1411.6,-2.9014e-05,154.09,-5.8319e-05,-66.096,1.5686
94,18.179,3.4007,0.1,0.00025641,2562.3,0.00023077,2099.4,-2.3992e-05,185.24,-0.00015665,-811.52,1.4377
95,16.608,2.7772,0.1,0.00020827,2081.3,0.00020721,2053.7,-6.2882e-05,24.269,-7.6215e-05,-75.909,1.2348
96,19.602,4.3724,0.1,8.8622e-05,885.61,8.991e-05,926.81,-2.3479e-05,74.845,-3.1976e-05,11.005,1.63
97,18.586,2.8528,0.1,0.00021387,2137.2,0.00019916,1792.9,-4.5612e-05,-46.218,-0.0001129,-551.75,1.4922
98,19.547,2.5192,0.1,0.00011024,1101.6,0.00011178,1149.7,-3.0424e-05,81.206,-3.8878e-05,17.681,1.6229
99,19.089,1.0856,0.1,8.0822e-05,807.66,7.9864e-05,780.5,-2.5331e-05,-9.8876,-2.979e-05,-43.389,1.5591
100,16.705,3.7885,0.1,0.00019366,1935.2,0.00019197,1892.4,-5.6263e-05,27.256,-7.4003e-05,-106.04,1.2466
101,17.451,4.9847,0.1,9.8424e-05,983.56,8.7503e-05,748.46,-1.51e-05,-22.454,-5.9924e-05,-359.25,1.3386
102,16.107,0.77441,0.1,0.00016051,1604,0.00015787,1529.9,-4.9557e-05,-28.633,-6.118e-05,-115.96,1.1688
103,16.638,1.9255,0.1,0.00018654,1864.1,0.00018493,1841.5,-4.4816e-05,115.29,-7.8136e-05,-135.06,1.2378
104,17.309,0.94094,0.1,0.00010458,1045.1,9.6012e-05,859.91,-1.8098e-05,2.5297,-5.8921e-05,-304.2,1.3203
105,21.497,1.0694,0.1,4.7686e-05,476.53,4.7303e-05,465.42,-1.5493e-05,-6.4062,-1.6727e-05,-15.676,1.8942
106,18.741,4.2738,0.1,0.00013706,1369.7,0.00013423,1307.4,-3.3469e-05,47.315,-5.9794e-05,-150.49,1.5121
107,15.414,2.5413,0.1,0.00020274,2026,0.00020276,2027.6,-6.3154e-05,29.621,-7.0477e-05,-25.402,1.0873
108,3.665,3.6048,0.1,0.00048805,4877.2,0.00049341,5112.6,-0.00010235,636.31,-0.00019836,-85.096,0.073735
109,4.8911,3.6178,0.1,0.0004636,4632.8,0.00046875,4808.4,-0.00012005,384.4,-0.00017231,-8.2737,0.12927
110,6.12,3.6179,0.1,0.00043608,4357.8,0.0004391,4455,-0.00012537,213.7,-0.00015525,-10.777,0.1991
111,7.3508,3.6197,0.1,0.00040546,4051.8,0.00040728,4107.9,-0.00012361,119.08,-0.00013999,-3.9696,0.28235
112,8.5835,3.6203,0.1,0.00037318,3729.2,0.00037418,3759.3,-0.00011772,63.417,-0.00012647,-2.2897,0.37809
113,9.8132,3.6197,0.1,0.00034038,3401.4,0.00034089,3416.5,-0.00010971,30.942,-0.0001139,-0.49417,0.48494
114,11.041,3.6167,0.1,0.00030762,3074.1,0.00030782,3080,-0.00010049,12.082,-0.00010214,-0.32978,0.60189
115,12.258,3.5898,0.1,0.00027568,2754.9,0.00027562,2753.1,-9.0268e-05,3.9825,-9.1804e-05,-7.5583,0.727
116,14.262,2.4124,0.1,0.0002264,2262.4,0.00022587,2247.1,-7.3719e-05,-3.918,-7.6739e-05,-26.616,0.95033
117,13.105,2.3758,0.1,0.00025354,2533.7,0.00025331,2527,-8.2326e-05,5.1221,-8.5461e-05,-18.44,0.81897
118,11.932,2.3927,0.1,0.00028409,2838.9,0.00028395,2834.9,-9.3139e-05,1.5778,-9.4634e-05,-9.6565,0.69265
119,10.764,2.417,0.1,0.0003152,3149.8,0.00031532,3153.5,-0.00010298,10.569,-0.0001048,-3.0844,0.57473
120,9.5708,2.4152,0.1,0.00034695,3467.1,0.00034738,3479.8,-0.00011178,29.886,-0.00011632,-4.2091,0.46308
121,8.3616,2.4215,0.1,0.00037914,3788.7,0.00038011,3818.4,-0.0001194,65.247,-0.00012874,-4.9122,0.36006
122,7.1621,2.4161,0.1,0.00041033,4100.5,0.00041214,4156.7,-0.00012461,123.76,-0.00014217,-8.1976,0.26882
123,5.9628,2.414,0.1,0.00043988,4395.8,0.00044287,4493.1,-0.00012562,221.68,-0.00015742,-17.257,0.18947
124,4.7624,2.4143,0.1,0.00046639,4660.7,0.00047154,4838.7,-0.00011939,398.77,-0.00017447,-15.096,0.12281
125,3.5657,2.4143,0.1,0.00049065,4903.2,0.00049589,5139.9,-0.00010137,652.35,-0.00020062,-93.394,0.069909
126,13.441,3.5813,0.1,0.00024565,2454.8,0.00024529,2444.4,-7.9491e-05,4.121,-8.3331e-05,-24.731,0.8565
127,2.3709,2.4132,0.1,0.0005091,5087.5,0.00052701,5779.3,-6.7524e-05,1312.2,-0.00020999,241.72,0.031263
128,2.4401,3.5974,0.1,0.00050813,5077.8,0.00052598,5765.3,-6.8038e-05,1302,-0.0002093,240.64,0.033068
129,21.273,2.1121,0.1,5.4416e-05,543.78,5.4632e-05,551.43,-1.5587e-05,23.831,-1.9718e-05,-7.207,1.863
130,15.011,4.8334,0.1,0.00020254,2024,0.00020127,1987.5,-6.4454e-05,-8.9687,-7.1635e-05,-62.921,1.0365
131,22.636,3.4535,0.1,2.9983e-05,299.62,2.9648e-05,294.1,-7.1335e-06,17.741,-1.2732e-05,-24.325,2.0551
132,22.657,2.3152,0.1,2.9845e-05,298.25,2.9689e-05,295.5,-8.0469e-06,11.972,-1.171e-05,-15.548,2.0581
133,1.1767,2.405,0.1,0.00060006,5996.4,0.0005635,5667.4,-2.1221e-05,1274.1,-0.00034571,-1164,0.0077218
134,1.2179,3.5997,0.1,0.00059966,5992.4,0.00056261,5654.9,-2.0616e-05,1272.8,-0.00034622,-1173.7,0.0082598
135,1.253,4.7999,0.1,0.00056612,5657.3,0.00053945,5339.4,-5.6279e-05,863.28,-0.00030681,-1019.1,0.0080768
136,2.5062,4.7955,0.1,0.00052683,5264.7,0.00054164,5752.7,-0.00011432,824.06,-0.00019652,206.44,0.03284
137,3.7566,4.8076,0.1,0.00050517,5048.3,0.00050955,5198.4,-0.00013522,353.78,-0.0001865,-31.503,0.074349
138,5.0126,4.8074,0.1,0.00047362,4732.9,0.00047742,4852.1,-0.00013746,232.07,-0.00016651,13.789,0.13206
139,6.2689,4.8069,0.1,0.00043985,4395.5,0.000442,4461.5,-0.00013417,132.38,-0.00015145,2.5366,0.20486
140,7.5273,4.8074,0.1,0.00040513,4048.5,0.00040635,4085.2,-0.0001277,72.521,-0.00013713,1.6405,0.29177
141,8.7872,4.8089,0.1,0.00037025,3699.9,0.00037082,3717,-0.00011924,34.887,-0.00012395,-0.56137,0.39166
142,10.048,4.8085,0.1,0.00033552,3352.9,0.0003357,3358.1,-0.00010953,12.868,-0.00011156,-2.3893,0.50341
143,11.302,4.8081,0.1,0.0003015,3012.9,0.00030143,3010.8,-9.899e-05,2.2546,-0.00010014,-6.3671,0.62514
144,12.552,4.7991,0.1,0.00026833,2681.4,0.00026807,2673.8,-8.793e-05,-0.98889,-8.9678e-05,-14.126,0.75589
145,13.785,4.8065,0.1,0.00023613,2359.6,0.00023555,2342.8,-7.7367e-05,-8.3345,-7.9617e-05,-25.24,0.89303
146,22.757,1.1662,0.1,2.7809e-05,277.89,2.74e-05,268.09,-7.5071e-06,5.8105,-1.1362e-05,-23.151,2.072
147,15.317,1.362,0.1,0.0001958,1956.6,0.00019465,1925.6,-5.992e-05,12.868,-7.123e-05,-72.114,1.0737
148,13.963,1.2111,0.1,0.000232,2318.4,0.00023156,2305.7,-7.6014e-05,-5.3637,-7.7968e-05,-20.048,0.91349
149,12.752,1.1682,0.1,0.00026204,2618.6,0.00026197,2616.8,-8.5255e-05,7.8451,-8.7803e-05,-11.298,0.77755
150,11.59,1.1926,0.1,0.00029354,2933.4,0.00029351,2932.5,-9.6082e-05,5.2393,-9.7714e-05,-7.0252,0.65446
151,10.433,1.2095,0.1,0.00032504,3248.1,0.00032524,3254,-0.00010636,11.172,-0.00010776,0.63388,0.53984
152,9.2646,1.2232,0.1,0.00035685,3566,0.00035734,3580.5,-0.00011585,25.195,-0.00011867,3.9631,0.4328
153,8.1135,1.2123,0.1,0.00038873,3884.6,0.00038956,3909.3,-0.00012442,47.413,-0.00013044,2.2081,0.33682
154,6.9542,1.2092,0.1,0.00042088,4205.9,0.00042235,4250.2,-0.00013178,86.771,-0.00014291,3.1275,0.25062
155,5.7886,1.2086,0.1,0.00045287,4525.6,0.00045523,4598.2,-0.00013707,147.96,-0.00015664,0.90682,0.17541
156,4.6231,1.2085,0.1,0.00048365,4833.2,0.00048762,4958.3,-0.00013915,249.07,-0.00017095,10.077,0.11258
157,3.4615,1.2092,0.1,0.00051216,5118.1,0.00051661,5273.6,-0.00013514,376.57,-0.00019059,-40.061,0.06315
158,2.3034,1.2099,0.1,0.00052979,5294.3,0.00054449,5781.9,-0.00011408,833.61,-0.00019857,198.82,0.027688
159,1.1502,1.2091,0.1,0.00056666,5662.7,0.00054013,5355.7,-5.4873e-05,885.07,-0.00030736,-1012,0.0067905
160,21.147,3.2797,0.1,5.4764e-05,547.27,5.5524e-05,591.72,-7.2585e-06,119.99,-2.4333e-05,-8.2963,1.8454
161,20.337,0.83014,0.1,6.827e-05,682.22,6.734e-05,657.29,-2.0149e-05,-0.065563,-2.6441e-05,-47.344,1.7317
162,20.149,3.83,0.1,8.6428e-05,863.68,8.7502e-05,907.16,-1.8735e-05,108.94,-3.4526e-05,-9.7148,1.7061
163,19.291,0.61633,0.1,6.4244e-05,642,6.3233e-05,617.92,-1.7131e-05,14.097,-2.6518e-05,-56.432,1.5865
164,16.374,4.9091,0.1,0.00016117,1610.6,0.00015898,1547.7,-5.147e-05,-33.533,-5.9077e-05,-90.687,1.2029
165,17.151,4.542,0.1,0.00018315,1830.2,0.00016932,1516.9,-3.5877e-05,-24.853,-9.9885e-05,-505.78,1.3017
166,20.756,4.8442,0.1,6.0844e-05,608.02,6.1388e-05,624.93,-1.7632e-05,31.204,-2.1311e-05,3.5574,1.7901
167,21.649,4.6655,0.1,4.561e-05,455.79,4.5865e-05,463.41,-1.418e-05,12.252,-1.5395e-05,3.1258,1.9155
168,22.749,4.6401,0.1,2.8103e-05,280.84,2.7712e-05,270.96,-7.8959e-06,3.4128,-1.1213e-05,-21.511,2.0708
169,19.957,5.1561,0.1,7.286e-05,728.1,7.2165e-05,710.34,-2.1125e-05,9.3896,-2.7987e-05,-42.165,1.6786
170,19.771,1.7034,0.1,8.1249e-05,811.93,8.1883e-05,835.34,-2.0998e-05,62.329,-3.0704e-05,-10.595,1.6536
171,17.09,0.52164,0.1,0.00011954,1194.6,0.00011408,1066.8,-2.7345e-05,4.1528,-5.7996e-05,-226.15,1.2911
172,19.107,5.3661,0.1,6.2747e-05,627.03,6.1814e-05,604.02,-1.724e-05,10.043,-2.5434e-05,-51.521,1.5608
173,18.95,4.764,0.1,8.5933e-05,858.74,8.4154e-05,817.1,-2.1962e-05,19.777,-3.6852e-05,-92.102,1.54
174,17.292,5.3859,0.1,0.00012106,1209.8,0.00011674,1097.5,-3.2821e-05,-26.245,-5.37e-05,-183.12,1.3169
175,16.977,1.3198,0.1,0.00017354,1734.2,0.00016293,1473.6,-4.1179e-05,-59.963,-8.7546e-05,-408.35,1.2793
176,19.423,3.1664,0.1,0.00012772,1276.3,0.00013112,1395,-2.5388e-05,219.08,-4.9529e-05,37.696,1.6059
177,18.461,3.9285,0.1,0.00023678,2366.2,0.00023354,2294.8,-6.1264e-05,79.74,-9.8222e-05,-197.94,1.4746
178,17.606,2.9248,0.1,0.00022256,2224.1,0.00019702,1607.7,-4.7495e-05,-229.53,-0.00013206,-864.94,1.3626
179,18.167,0.5,0.1,6.4483e-05,644.38,6.8712e-05,777.67,-1.0516e-05,182.38,-2.2354e-05,93.429,1.4318
180,18.167,1,0.1,0.00015741,1573,0.00015107,1431.7,-3.4529e-05,37.184,-7.5865e-05,-273.39,1.4328
181,18.167,1.5,0.1,0.00014121,1411.1,0.00013998,1439.5,-1.9973e-05,237.75,-6.6823e-05,-114.26,1.4338
182,18.167,2,0.1,0.00036603,3657.8,0.00038512,4223.9,-9.0681e-05,648.94,-0.00011202,488.61,1.4349
183,18,2,0.1,0.00035154,3512.9,0.00034628,3457.4,-6.863e-05,339.95,-0.00016032,-348.98,1.4128
184,18,1.5,0.1,0.00022286,2227.1,0.00018312,1516.6,-5.2779e-06,101.05,-0.00015854,-1050.5,1.411
185,18,1,0.1,0.00017513,1750.1,0.00015406,1357,-1.5082e-05,86.146,-0.00011162,-639.22,1.4088
186,18,0.5,0.1,4.9604e-05,495.7,5.5698e-05,690.13,-2.4541e-06,253.2,-1.5996e-05,151.45,1.4066
187,18.167,5.5,0.1,4.2282e-05,422.53,4.5365e-05,525.21,-4.498e-06,150.55,-1.5588e-05,67.226,1.4314
188,18.167,5,0.1,7.9089e-05,790.34,8.1766e-05,869.73,-2.1558e-05,93.391,-2.519e-05,66.102,1.4324
189,18.167,4.5,0.1,0.00016326,1631.4,0.0001567,1523.7,-2.5796e-05,152.44,-8.3428e-05,-280.59,1.4335
190,18.167,4,0.1,0.00046544,4651.2,0.00046772,4786.5,-0.00010275,500.24,-0.00019051,-159.17,1.4349
191,18,4,0.1,0.00034323,3429.9,0.00034056,3439.8,-6.704e-05,377.33,-0.0001527,-266.3,1.4128
192,18,4.5,0.1,0.00026276,2625.7,0.00022999,1952.7,-3.2504e-05,-19.542,-0.00016668,-1027.7,1.4109
193,18,5,0.1,0.0001655,1653.8,0.00014091,1254.7,-1.4174e-06,185.31,-0.00011262,-650.21,1.4088
194,18,5.5,0.1,3.9403e-05,393.75,4.3968e-05,530.48,-5.7975e-06,156.56,-1.0729e-05,119.5,1.4066
195,18.167,6,0.1,2.9961e-05,299.4,3.2198e-05,387.86,2.7249e-07,147.98,-1.246e-05,52.313,1.4305
196,19.139,6,0.1,5.3223e-05,531.87,5.2706e-05,518.61,-1.5426e-05,6.7,-2.0468e-05,-31.184,1.5643
197,20.111,6,0.1,6.6125e-05,660.79,6.5084e-05,630.54,-2.1686e-05,-21.423,-2.3993e-05,-38.754,1.699
198,21.083,6,0.1,5.5669e-05,556.3,5.5083e-05,539.42,-1.787e-05,-8.717,-1.9997e-05,-24.701,1.835
199,22.056,6,0.1,4.0851e-05,408.23,3.9186e-05,365.57,-1.0771e-05,-9.7843,-1.866e-05,-69.059,1.9719
200,23.028,6,0.1,2.1166e-05,211.51,1.9856e-05,181.46,-4.4345e-06,-1.0487,-1.0996e-05,-50.351,2.1095
201,24,6,0.1,1.1819e-05,118.1,1.0202e-05,92.884,-8.4845e-08,15.592,-7.8918e-06,-43.066,2.2475
202,24,4.8,0.1,1.6635e-05,166.23,1.5144e-05,151.07,2.4494e-07,39.12,-1.0277e-05,-39.939,2.2482
203,24,3.6,0.1,1.8192e-05,181.79,1.649e-05,159.73,-3.3786e-07,33.296,-1.1238e-05,-48.604,2.2485
204,24,2.4,0.1,1.7937e-05,179.24,1.6362e-05,158.08,-6.3223e-07,30.396,-1.091e-05,-46.829,2.2486
205,24,1.2,0.1,1.5356e-05,153.45,1.4121e-05,142.05,1.2364e-07,36.884,-9.3143e-06,-34.029,2.2483
206,1.049e-14,1.2,0.1,0.00039177,3915,0.00052195,7741.3,3.5157e-06,3846,-1.6998e-06,3806.8,0
207,2.0981e-14,2.4,0.1,0.00041307,4127.9,0.00055065,8171.6,3.5887e-06,4061.2,-1.0373e-06,4026.5,0
208,3.1471e-14,3.6,0.1,0.00041265,4123.7,0.00055005,8162.3,4.2193e-06,4061.2,-1.7282e-06,4016.5,0
209,4.1961e-14,4.8,0.1,0.00039411,3938.4,0.00052468,7776.4,3.8661e-06,3863.2,-2.7837e-06,3813.2,0
210,3.937e-14,6,0.1,0.00031884,3186.2,0.00040247,5668.8,1.881e-06,2658.9,-4.1685e-05,2331.6,0
211,1.28,6,0.1,0.00057044,5700.5,0.00055745,5455.6,-0.00012315,341.89,-0.00026055,-690.48,0.0062226
212,2.56,6,0.1,0.00057858,5781.8,0.0005899,6126.9,-0.00015776,509.3,-0.00019975,193.78,0.02904
213,3.84,6,0.1,0.00053531,5349.4,0.00053926,5469.4,-0.00016104,207.68,-0.00018382,36.497,0.070827
214,5.12,6,0.1,0.00048817,4878.3,0.00049114,4966.9,-0.00015179,136.2,-0.00016429,42.306,0.13029
215,6.4,6,0.1,0.00044622,4459.2,0.00044762,4500.6,-0.00014202,70.294,-0.00014962,13.186,0.20584
216,7.68,6,0.1,0.00040695,4066.7,0.00040747,4081.9,-0.00013255,24.428,-0.000135,6.0131,0.29607
217,8.96,6,0.1,0.00036928,3690.3,0.00036917,3686.8,-0.00012126,1.9454,-0.0001227,-8.8256,0.39962
218,10.24,6,0.1,0.00033288,3326.5,0.00033236,3311.5,-0.00010868,-2.3278,-0.00011202,-27.411,0.51524
219,11.52,6,0.1,0.00029738,2971.8,0.00029656,2947.9,-9.649e-05,-5.3498,-0.00010139,-42.147,0.64172
220,12.8,6,0.1,0.00026231,2621.3,0.00026122,2590,-8.4451e-05,-7.2627,-9.0758e-05,-54.651,0.77786
221,14.08,6,0.1,0.00022655,2263.9,0.00022493,2217.4,-7.2292e-05,-15.76,-8.0312e-05,-76.016,0.9225
222,15.36,6,0.1,0.00018525,1851.3,0.00018306,1788.5,-5.8658e-05,-27.68,-6.7757e-05,-96.046,1.0745
223,16.64,6,0.1,0.00013628,1361.9,0.00013157,1236.5,-3.8367e-05,-40.349,-5.9206e-05,-196.93,1.2323
224,17.36,6,0.1,7.5177e-05,751.26,7.3603e-05,737.83,-1.1948e-05,95.03,-3.6314e-05,-88.046,1.3231
225,18,6,0.1,3.8302e-05,382.75,3.7997e-05,441.74,3.9991e-06,186.29,-2.0572e-05,1.6702,1.4045
226,24,0,0.1,1.2112e-05,121.03,1.1378e-05,114.58,-4.1178e-07,26.001,-6.9764e-06,-23.322,2.2477
227,22.833,0,0.1,2.5005e-05,249.87,2.4199e-05,229.37,-6.6511e-06,-2.4281,-1.1029e-05,-35.319,2.0822
228,21.667,0,0.1,4.4774e-05,447.43,4.4049e-05,429.68,-1.2149e-05,7.4333,-1.8364e-05,-39.267,1.9173
229,20.5,0,0.1,6.4059e-05,640.15,6.2681e-05,600.04,-2.124e-05,-30.51,-2.3741e-05,-49.303,1.7536
230,19.333,0,0.1,5.9127e-05,590.86,5.6918e-05,527.72,-1.9063e-05,-43.162,-2.4134e-05,-81.267,1.5915
231,18.167,0,0.1,3.8846e-05,388.2,4.2361e-05,500.33,-4.148e-06,150.88,-1.3251e-05,82.483,1.4309
232,18,0,0.1,6.1999e-05,619.56,6.5044e-05,741.88,-4.1157e-06,222.24,-2.6212e-05,56.216,1.4045
233,16.875,2.6159e-30,0.1,0.00010144,1013.7,0.00010402,1089.8,-2.9603e-05,85.838,-3.2148e-05,66.72,1.262
234,15.75,2.4415e-30,0.1,0.00016594,1658.2,0.00016567,1651.8,-5.0986e-05,23.986,-5.8861e-05,-35.183,1.1221
235,14.625,2.2671e-30,0.1,0.00021313,2129.8,0.00021199,2096.9,-6.888e-05,-13.505,-7.3997e-05,-51.953,0.98643
236,13.5,2.0927e-30,0.1,0.00023874,2385.7,0.00024011,2427.4,-7.272e-05,76.962,-8.1908e-05,7.9282,0.85605
237,12.375,1.9183e-30,0.1,0.00027272,2725.3,0.00027352,2749.3,-8.673e-05,42.49,-9.1609e-05,5.8293,0.7317
238,11.25,1.744e-30,0.1,0.00030355,3033.4,0.00030439,3058.3,-9.7478e-05,38.824,-0.00010116,11.179,0.61423
239,10.125,1.5696e-30,0.1,0.00033469,3344.6,0.0003356,3371.6,-0.00010735,43.513,-0.00011169,10.879,0.50442
240,9,1.3952e-30,0.1,0.00036673,3664.8,0.00036779,3696.1,-0.00011734,51.038,-0.00012255,11.944,0.40308
241,7.875,1.2208e-30,0.1,0.00039998,3997.1,0.00040136,4038.1,-0.00012696,68.538,-0.0001342,14.14,0.31103
242,6.75,1.0464e-30,0.1,0.00043429,4339.9,0.00043619,4396.6,-0.00013622,95.802,-0.00014648,18.678,0.22913
243,5.625,8.7198e-31,0.1,0.00047004,4697.2,0.00047268,4776.7,-0.00014484,136.84,-0.00015984,24.178,0.15826
244,4.5,6.9758e-31,0.1,0.00050804,5076.9,0.00051221,5202.6,-0.00015325,202.67,-0.00017328,52.135,0.099366
245,3.375,5.2319e-31,0.1,0.00055154,5511.6,0.00055627,5657.1,-0.00016211,259.52,-0.00019155,38.286,0.053443
246,2.25,3.4879e-31,0.1,0.00058834,5879.3,0.00059891,6201.2,-0.00016285,477.64,-0.00020278,177.62,0.021578
247,1.125,1.744e-31,0.1,0.00056472,5643.3,0.00055216,5392.1,-0.00012744,285.84,-0.00025423,-666.87,0.0045192
248,0,0,0.1,0.00029958,2993.7,0.00037813,5325.5,1.731e-06,2497.4,-3.919e-05,2189.9,0
249,1.125,1.744e-31,0,0.00056472,5643.3,0.00025423,666.87,0.00012744,-285.84,-0.00055216,-5392.1,0.0045192
250,2.25,3.4879e-31,0,0.00058834,5879.3,0.00020278,-177.62,0.00016285,-477.64,-0.00059891,-6201.2,0.021578
251,3.375,5.2319e-31,0,0.00055154,5511.6,0.00019155,-38.286,0.00016211,-259.52,-0.00055627,-5657.1,0.053443
252,4.5,6.9758e-31,0,0.00050804,5076.9,0.00017328,-52.135,0.00015325,-202.67,-0.00051221,-5202.6,0.099366
253,5.625,8.7198e-31,0,0.00047004,4697.2,0.00015984,-24.178,0.00014484,-136.84,-0.00047268,-4776.7,0.15826
254,6.75,1.0464e-30,0,0.00043429,4339.9,0.00014648,-18.678,0.00013622,-95.802,-0.00043619,-4396.6,0.22913
255,7.875,1.2208e-30,0,0.00039998,3997.1,0.0001342,-14.14,0.00012696,-68.538,-0.00040136,-4038.1,0.31103
256,9,1.3952e-30,0,0.00036673,3664.8,0.00012255,-11.944,0.00011734,-51.038,-0.00036779,-3696.1,0.40308
257,10.125,1.5696e-30,0,0.00033469,3344.6,0.00011169,-10.879,0.00010735,-43.513,-0.0003356,-3371.6,0.50442
258,11.25,1.744e-30,0,0.00030355,3033.4,0.00010116,-11.179,9.7478e-05,-38.824,-0.00030439,-3058.3,0.61423
259,12.375,1.9183e-30,0,0.00027272,2725.3,9.1609e-05,-5.8293,8.673e-05,-42.49,-0.00027352,-2749.3,0.7317
260,13.5,2.0927e-30,0,0.00023874,2385.7,8.1908e-05,-7.9282,7.272e-05,-76.962,-0.00024011,-2427.4,0.85605
261,14.625,2.2671e-30,0,0.00021313,2129.8,7.3997e-05,51.953,6.888e-05,13.505,-0.00021199,-2096.9,0.98643
262,15.75,2.4415e-30,0,0.00016594,1658.2,5.8861e-05,35.183,5.0986e-05,-23.986,-0.00016567,-1651.8,1.1221
263,16.875,2.6159e-30,0,0.00010144,1013.7,3.2148e-05,-66.72,2.9603e-05,-85.838,-0.00010402,-1089.8,1.262
264,18,0,0,6.1999e-05,619.56,2.6212e-05,-56.216,4.1157e-06,-222.24,-6.5044e-05,-741.88,1.4045
265,0,0,0,0.00029958,2993.7,3.919e-05,-2189.9,-1.731e-06,-2497.4,-0.00037813,-5325.5,0
266,19.333,0,0,5.9127e-05,590.86,2.4134e-05,81.267,1.9063e-05,43.162,-5.6918e-05,-527.72,1.5915
267,20.5,0,0,6.4059e-05,640.15,2.3741e-05,49.303,2.124e-05,30.51,-6.2681e-05,-600.04,1.7536
268,21.667,0,0,4.4774e-05,447.43,1.8364e-05,39.267,1.2149e-05,-7.4333,-4.4049e-05,-429.68,1.9173
269,22.833,0,0,2.5005e-05,249.87,1.1029e-05,35.319,6.6511e-06,2.4281,-2.4199e-05,-229.37,2.0822
270,18.167,0,0,3.8846e-05,388.2,1.3251e-05,-82.483,4.148e-06,-150.88,-4.2361e-05,-500.33,1.4309
271,24,0,0,1.2112e-05,121.03,6.9764e-06,23.322,4.1177e-07,-26.001,-1.1378e-05,-114.58,2.2477
272,17.36,6,0,7.5177e-05,751.26,3.6314e-05,88.046,1.1948e-05,-95.03,-7.3603e-05,-737.83,1.3231
273,16.64,6,0,0.00013628,1361.9,5.9206e-05,196.93,3.8367e-05,40.349,-0.00013157,-1236.5,1.2323
274,15.36,6,0,0.00018525,1851.3,6.7757e-05,96.046,5.8658e-05,27.68,-0.00018306,-1788.5,1.0745
275,14.08,6,0,0.00022655,2263.9,8.0312e-05,76.016,7.2292e-05,15.76,-0.00022493,-2217.4,0.9225
276,12.8,6,0,0.00026231,2621.3,9.0758e-05,54.651,8.4451e-05,7.2627,-0.00026122,-2590,0.77786
277,11.52,6,0,0.00029738,2971.8,0.00010139,42.147,9.649e-05,5.3498,-0.00029656,-2947.9,0.64172
278,10.24,6,0,0.00033288,3326.5,0.00011202,27.411,0.00010868,2.3278,-0.00033236,-3311.5,0.51524
279,8.96,6,0,0.00036928,3690.3,0.0001227,8.8256,0.00012126,-1.9454,-0.00036917,-3686.8,0.39962
280,7.68,6,0,0.00040695,4066.7,0.000135,-6.0131,0.00013255,-24.428,-0.00040747,-4081.9,0.29607
281,6.4,6,0,0.00044622,4459.2,0.00014962,-13.186,0.00014202,-70.294,-0.00044762,-4500.6,0.20584
282,5.12,6,0,0.00048817,4878.3,0.00016429,-42.306,0.00015179,-136.2,-0.00049114,-4966.9,0.13029
283,3.84,6,0,0.00053531,5349.4,0.00018382,-36.497,0.00016104,-207.68,-0.00053926,-5469.4,0.070827
284,2.56,6,0,0.00057858,5781.8,0.00019975,-193.78,0.00015776,-509.3,-0.0005899,-6126.9,0.02904
285,1.28,6,0,0.00057044,5700.5,0.00026055,690.48,0.00012315,-341.89,-0.00055745,-5455.6,0.0062226
286,18,6,0,3.8302e-05,382.75,2.0572e-05,-1.6702,-3.9991e-06,-186.29,-3.7997e-05,-441.74,1.4045
287,3.937e-14,6,0,0.00031884,3186.2,4.1685e-05,-2331.6,-1.881e-06,-2658.9,-0.00040247,-5668.8,0
288,4.1961e-14,4.8,0,0.00039411,3938.4,2.7837e-06,-3813.2,-3.8661e-06,-3863.2,-0.00052468,-7776.4,0
289,3.1471e-14,3.6,0,0.00041265,4123.7,1.7282e-06,-4016.5,-4.2193e-06,-4061.2,-0.00055005,-8162.3,0
290,2.0981e-14,2.4,0,0.00041307,4127.9,1.0373e-06,-4026.5,-3.5887e-06,-4061.2,-0.00055065,-8171.6,0
291,1.049e-14,1.2,0,0.00039177,3915,1.6998e-06,-3806.8,-3.5157e-06,-3846,-0.00052195,-7741.3,0
292,24,1.2,0,1.5356e-05,153.45,9.3143e-06,34.029,-1.2364e-07,-36.884,-1.4121e-05,-142.05,2.2483
293,24,2.4,0,1.7937e-05,179.24,1.091e-05,46.829,6.3223e-07,-30.396,-1.6362e-05,-158.08,2.2486
294,24,3.6,0,1.8192e-05,181.79,1.1238e-05,48.604,3.3786e-07,-33.296,-1.649e-05,-159.73,2.2485
295,24,4.8,0,1.6635e-05,166.23,1.0277e-05,39.939,-2.4495e-07,-39.12,-1.5144e-05,-151.07,2.2482
296,24,6,0,1.1819e-05,118.1,7.8918e-06,43.066,8.4844e-08,-15.592,-1.0202e-05,-92.884,2.2475
297,23.028,6,0,2.1166e-05,211.51,1.0996e-05,50.351,4.4345e-06,1.0487,-1.9856e-05,-181.46,2.1095
298,22.056,6,0,4.0851e-05,408.23,1.866e-05,69.059,1.0771e-05,9.7843,-3.9186e-05,-365.57,1.9719
299,21.083,6,0,5.5669e-05,556.3,1.9997e-05,24.701,1.787e-05,8.717,-5.5083e-05,-539.42,1.835
300,20.111,6,0,6.6125e-05,660.79,2.3993e-05,38.754,2.1686e-05,21.423,-6.5084e-05,-630.54,1.699
301,19.139,6,0,5.3223e-05,531.87,2.0468e-05,31.184,1.5426e-05,-6.7,-5.2706e-05,-518.61,1.5643
302,18.167,6,0,2.9961e-05,299.4,1.246e-05,-52.313,-2.7248e-07,-147.98,-3.2198e-05,-387.86,1.4305
303,18,4.5,0,0.00026276,2625.7,0.00016668,1027.7,3.2504e-05,19.542,-0.00022999,-1952.7,1.4109
304,18,5,0,0.0001655,1653.8,0.00011262,650.21,1.4174e-06,-185.31,-0.00014091,-1254.7,1.4088
305,18,5.5,0,3.9403e-05,393.75,1.0729e-05,-119.5,5.7975e-06,-156.56,-4.3968e-05,-530.48,1.4066
306,18,4,0,0.00034323,3429.9,0.0001527,266.3,6.704e-05,-377.33,-0.00034056,-3439.8,1.4128
307,18.167,5.5,0,4.2282e-05,422.53,1.5588e-05,-67.226,4.498e-06,-150.55,-4.5365e-05,-525.21,1.4314
308,18.167,5,0,7.9089e-05,790.34,2.519e-05,-66.102,2.1558e-05,-93.391,-8.1766e-05,-869.73,1.4324
309,18.167,4.5,0,0.00016326,1631.4,8.3428e-05,280.59,2.5796e-05,-152.44,-0.0001567,-1523.7,1.4335
310,18.167,4,0,0.00046544,4651.2,0.00019051,159.17,0.00010275,-500.24,-0.00046772,-4786.5,1.4349
311,18,1.5,0,0.00022286,2227.1,0.00015854,1050.5,5.2779e-06,-101.05,-0.00018312,-1516.6,1.411
312,18,1,0,0.00017513,1750.1,0.00011162,639.22,1.5082e-05,-86.146,-0.00015406,-1357,1.4088
313,18,0.5,0,4.9604e-05,495.7,1.5996e-05,-151.45,2.4541e-06,-253.2,-5.5698e-05,-690.13,1.4066
314,18,2,0,0.00035154,3512.9,0.00016032,348.98,6.863e-05,-339.95,-0.00034628,-3457.4,1.4128
315,18.167,0.5,0,6.4483e-05,644.38,2.2354e-05,-93.429,1.0516e-05,-182.38,-6.8712e-05,-777.67,1.4318
316,18.167,1,0,0.00015741,1573,7.5865e-05,273.39,3.4529e-05,-37.184,-0.00015107,-1431.7,1.4328
317,18.167,1.5,0,0.00014121,1411.1,6.6823e-05,114.26,1.9973e-05,-237.75,-0.00013998,-1439.5,1.4338
318,18.167,2,0,0.00036603,3657.8,0.00011202,-488.61,9.0681e-05,-648.94,-0.00038512,-4223.9,1.4349
319,18.096,2.8888,0,0.00021624,2160.9,0.00012135,699.89,4.6009e-05,133.78,-0.00019642,-1687.7,1.4269
320,17.107,2.851,0,0.0002139,2137.5,0.00010399,469.32,5.502e-05,101.36,-0.0002018,-1828.3,1.2982
321,17.893,3.1627,0,0.00023869,2385.2,0.00014318,829.4,3.6823e-05,30.251,-0.0002138,-1852.8,1.4001
322,17.606,2.9248,0.05,2.0159e-05,201.45,1.5479e-05,116.31,1.1808e-12,2.6806e-05,-1.5479e-05,-116.31,1.3626
323,17.803,3.4624,0,0.00027611,2759.2,0.00013785,531.57,5.6308e-05,-81.116,-0.0002633,-2482.5,1.388
324,17.803,2.4624,0,0.0002843,2841,0.00014413,591.44,5.8078e-05,-55.097,-0.0002696,-2517.1,1.388
325,18.601,4.1011,0,0.00018575,1856.2,7.6768e-05,157.39,4.8791e-05,-52.822,-0.00018307,-1795,1.4933
326,18.536,3.6867,0,0.0002137,2135.5,8.5355e-05,181.97,6.1632e-05,3.7242,-0.00020998,-2037,1.4851
327,18.461,3.9285,0.05,3.8491e-05,384.65,2.9557e-05,222.08,1.5028e-12,4.6058e-06,-2.9557e-05,-222.08,1.4745
328,18.314,3.9642,0,0.00034534,3451,0.00013117,79.411,9.1323e-05,-220,-0.00034675,-3511.5,1.4547
329,19.786,3.4982,0,0.00010701,1069.4,4.1811e-05,-15.619,2.2254e-05,-162.57,-0.00010928,-1150.9,1.6559
330,19.485,2.8428,0,0.00011766,1175.8,4.2075e-05,-43.681,2.9087e-05,-141.27,-0.0001205,-1265.2,1.6145
331,19.004,3.0096,0,0.00016721,1671,6.9042e-05,165.59,4.6353e-05,-4.8904,-0.00016382,-1584.1,1.5488
332,19.287,3.4805,0,0.00013162,1315.3,5.3388e-05,10.168,2.6538e-05,-191.57,-0.00013354,-1394.3,1.5873
333,19.423,3.1664,0.05,7.5668e-06,75.616,5.8104e-06,43.657,-4.5758e-13,2.9108e-06,-5.8104e-06,-43.657,1.6059
334,17.143,1.1304,0,0.00013737,1372.7,7.0577e-05,336.31,3.1365e-05,41.692,-0.00012854,-1159.8,1.2999
335,16.807,1.6226,0,0.00017949,1793.7,8.2435e-05,268.65,4.3017e-05,-27.517,-0.00017355,-1654.7,1.2586
336,16.542,1.0471,0,0.00016536,1652.5,7.2548e-05,248.52,4.6166e-05,50.296,-0.00015938,-1494.1,1.2238
337,16.977,1.3198,0.05,2.2399e-05,223.83,1.72e-05,129.23,4.5616e-12,2.4448e-05,-1.72e-05,-129.23,1.2793
338,17.489,1.4099,0,0.00018028,1801.5,0.00010854,620.47,2.6245e-05,2.1245,-0.00016154,-1408.8,1.3448
339,16.833,5.1475,0,0.00013736,1372.7,5.3698e-05,116.69,4.1682e-05,26.409,-0.0001347,-1298.9,1.2597
340,17.371,5.1853,0,0.00010896,1088.8,5.6205e-05,266.62,2.4415e-05,27.763,-0.00010197,-921.82,1.3277
341,17.292,5.3859,0.05,1.79e-05,178.88,1.3745e-05,103.28,1.8752e-12,1.2496e-05,-1.3745e-05,-103.28,1.3168
342,17.326,5.693,0,9.5767e-05,957.01,4.3224e-05,122.19,2.2308e-05,-34.966,-9.331e-05,-903.68,1.32
343,17.646,5.443,0,7.6831e-05,767.78,2.9786e-05,13.565,1.8823e-05,-68.809,-7.7438e-05,-792.08,1.3617
344,19.028,5.065,0,7.4084e-05,740.33,3.0943e-05,70.304,1.9591e-05,-14.987,-7.2773e-05,-708.98,1.5504
345,18.846,4.5189,0,0.00011145,1113.7,4.8034e-05,119.12,2.8001e-05,-31.399,-0.00010919,-1062.2,1.526
346,19.276,4.5682,0,8.503e-05,849.72,2.9713e-05,5.2238,2.5714e-05,-24.82,-8.5324e-05,-859.12,1.5849
347,18.95,4.764,0.05,6.0864e-06,60.822,4.6736e-06,35.116,1.8128e-13,1.3922e-05,-4.6736e-06,-35.115,1.5399
348,18.558,4.882,0,7.7324e-05,772.71,2.5059e-05,-31.799,2.3375e-05,-44.448,-7.8613e-05,-810.75,1.4862
349,19.532,5.2611,0,6.676e-05,667.14,2.419e-05,27.904,2.0909e-05,3.2569,-6.6195e-05,-651.21,1.6196
350,19.107,5.3661,0.05,3.5712e-06,35.688,2.7423e-06,20.604,9.7734e-13,6.9509e-06,-2.7423e-06,-20.604,1.5608
351,19.123,5.683,0,5.7665e-05,576.25,2.2508e-05,38.026,1.6521e-05,-6.9605,-5.7005e-05,-559.4,1.5626
352,18.637,5.433,0,5.0144e-05,501.09,1.7172e-05,-32.938,1.2396e-05,-68.822,-5.1778e-05,-551.01,1.4961
353,17.2,0.73129,0,0.00011165,1115.7,5.8084e-05,262.36,2.2894e-05,-2.0443,-0.00010485,-961.83,1.3057
354,16.598,0.64803,0,0.00013662,1365.2,5.7019e-05,151.76,3.8342e-05,11.42,-0.0001333,-1278.2,1.2297
355,17.09,0.52164,0.05,1.2861e-05,128.53,9.8759e-06,74.204,9.9151e-14,3.2747e-06,-9.8759e-06,-74.204,1.2911
356,16.983,0.26082,0,0.00010825,1081.8,4.2396e-05,59.609,2.9633e-05,-36.288,-0.00010754,-1066.9,1.2766
357,17.545,0.51082,0,8.2251e-05,821.95,3.0166e-05,-13.966,2.0555e-05,-86.178,-8.3717e-05,-869.64,1.3488
358,20.054,1.2668,0,7.4579e-05,745.27,2.5424e-05,5.3124,2.3718e-05,-7.5045,-7.4608e-05,-746.29,1.6926
359,20.522,1.9077,0,6.7262e-05,672.15,2.4254e-05,1.7143,1.8798e-05,-39.281,-6.7807e-05,-690,1.7579
360,19.43,1.3945,0,8.093e-05,808.74,2.9157e-05,18.803,2.4237e-05,-18.167,-8.0855e-05,-807.79,1.6063
361,19.659,2.1113,0,9.5638e-05,955.72,3.457e-05,-5.2065,2.586e-05,-70.651,-9.676e-05,-991.97,1.6383
362,19.771,1.7034,0.05,5.3714e-06,53.677,4.1246e-06,30.991,2.1941e-12,2.0143e-05,-4.1246e-06,-30.991,1.6536
363,18.969,1.6017,0,0.0001071,1070.3,4.8229e-05,58.416,1.7245e-05,-174.39,-0.00010715,-1109.1,1.5431
364,20.357,5.0002,0,6.672e-05,666.74,2.3818e-05,13.057,2.0136e-05,-14.603,-6.6703e-05,-667.08,1.7342
365,19.78,4.7643,0,8.0691e-05,806.36,2.9922e-05,15.133,2.232e-05,-41.982,-8.0996e-05,-818.26,1.6543
366,19.957,5.1561,0.05,2.0788e-06,20.773,1.5962e-06,11.993,9.698e-13,8.859e-06,-1.5962e-06,-11.993,1.6786
367,20.034,5.5781,0,6.9421e-05,693.73,2.4874e-05,32.079,2.2511e-05,14.323,-6.8615e-05,-670.36,1.6888
368,22.199,4.6528,0,3.6788e-05,367.62,1.2976e-05,6.7286,1.1331e-05,-5.6311,-3.6753e-05,-366.92,1.993
369,22.692,4.0468,0,2.9028e-05,290.08,1.1963e-05,22.847,7.5183e-06,-10.549,-2.8674e-05,-282.49,2.063
370,22.749,4.6401,0.05,1.9957e-06,19.943,1.5325e-06,11.514,7.4568e-13,1.2669e-05,-1.5325e-06,-11.514,2.0708
371,23.374,4.72,0,2.2045e-05,220.3,1.0725e-05,30.576,3.8413e-06,-21.147,-2.1424e-05,-210.98,2.1594
372,22.888,5.32,0,2.4411e-05,243.95,1.0906e-05,34.441,6.2264e-06,-0.72164,-2.3647e-05,-225.18,2.0902
373,21.203,4.7548,0,5.3218e-05,531.81,1.8341e-05,-3.4307,1.5913e-05,-21.675,-5.3622e-05,-544.13,1.8527
374,21.398,3.9726,0,4.9912e-05,498.78,1.9548e-05,0.21505,1.1025e-05,-63.824,-5.0685e-05,-527.49,1.8805
375,21.649,4.6655,0.05,7.9809e-07,7.9754,6.1284e-07,4.6046,5.963e-13,5.1439e-06,-6.1284e-07,-4.6046,1.9155
376,21.852,5.3327,0,4.2909e-05,428.79,1.6651e-05,30.142,1.2642e-05,0.01724,-4.2316e-05,-412.92,1.9437
377,20.453,4.3371,0,7.3535e-05,734.84,2.7566e-05,0.43075,1.8531e-05,-67.46,-7.444e-05,-766,1.748
378,20.756,4.8442,0.05,2.3668e-06,23.651,1.8174e-06,13.655,1.0908e-12,1.6396e-05,-1.8174e-06,-13.655,1.7901
379,20.92,5.4221,0,5.8214e-05,581.74,2.0327e-05,8.1112,1.8053e-05,-8.974,-5.821e-05,-581.98,1.8125
380,16.763,4.7256,0,0.0001709,1707.8,7.886e-05,293.57,4.3995e-05,31.61,-0.00016385,-1530.1,1.2521
381,17.301,4.7634,0,0.00013708,1369.9,7.6316e-05,405.55,2.6423e-05,30.677,-0.00012576,-1112.7,1.3202
382,16.928,4.1653,0,0.00018748,1873.5,8.6526e-05,302.77,4.6325e-05,0.71,-0.00018048,-1703.4,1.2742
383,17.151,4.542,0.05,2.1907e-05,218.92,1.6822e-05,126.39,-1.6586e-13,7.4364e-07,-1.6822e-05,-126.39,1.3017
384,17.575,4.521,0,0.00020152,2013.8,0.00011522,631.04,3.6056e-05,36.213,-0.00018346,-1613.2,1.3561
385,15.693,4.8713,0,0.00018151,1813.8,6.511e-05,74.956,5.7904e-05,20.815,-0.00017982,-1765.3,1.1188
386,16.041,4.3067,0,0.00017925,1791.3,6.7781e-05,108.19,5.4301e-05,6.9096,-0.00017708,-1731.6,1.1629
387,16.374,4.9091,0.05,9.2732e-06,92.668,7.1207e-06,53.502,4.1668e-13,8.0227e-06,-7.1207e-06,-53.502,1.2029
388,16.507,5.4546,0,0.00014857,1484.7,5.9138e-05,143.78,4.4863e-05,36.526,-0.00014522,-1391.7,1.2178
389,19.814,0.72323,0,6.613e-05,660.85,2.6045e-05,48.625,1.9005e-05,-4.2743,-6.5217e-05,-637.08,1.6589
390,19.19,0.85095,0,7.2382e-05,723.32,2.6459e-05,37.172,2.2912e-05,10.524,-7.1534e-05,-699.1,1.5728
391,19.291,0.61633,0.05,3.7582e-06,37.556,2.8859e-06,21.683,8.5604e-13,1.302e-05,-2.8859e-06,-21.683,1.5865
392,19.312,0.30816,0,6.1621e-05,615.79,2.5305e-05,68.695,1.8071e-05,14.336,-6.0028e-05,-572.47,1.589
393,18.729,0.55816,0,5.9198e-05,591.57,1.9834e-05,-53.077,1.4074e-05,-96.355,-6.1621e-05,-665.1,1.509
394,20.648,3.5549,0,7.0456e-05,704.07,2.9282e-05,7.8944,1.3095e-05,-113.72,-7.1464e-05,-749.07,1.7756
395,19.876,4.1012,0,8.7256e-05,871.96,3.314e-05,-1.4833,2.1012e-05,-92.609,-8.8498e-05,-915.42,1.668
396,20.149,3.83,0.05,3.8547e-06,38.52,2.9599e-06,22.24,1.8627e-12,1.2966e-05,-2.9599e-06,-22.24,1.706
397,20.917,0.94975,0,5.7809e-05,577.69,2.1329e-05,29.598,1.7946e-05,4.1762,-5.7192e-05,-560.38,1.8128
398,20.337,0.83014,0.05,3.6204e-06,36.179,2.78e-06,20.888,3.1136e-13,4.1021e-06,-2.78e-06,-20.888,1.7317
399,20.419,0.41507,0,6.6142e-05,660.96,2.508e-05,48.239,2.0695e-05,15.289,-6.4999e-05,-628.58,1.7427
400,21.891,3.3666,0,4.1873e-05,418.44,1.5906e-05,-3.4246,9.8159e-06,-49.183,-4.2579e-05,-442.86,1.95
401,21.21,2.6959,0,5.438e-05,543.42,2.1889e-05,6.7244,1.1536e-05,-71.059,-5.5055e-05,-571.4,1.8542
402,20.347,2.8994,0,8.1668e-05,816.12,2.9762e-05,-18.547,2.0307e-05,-89.588,-8.3275e-05,-867.86,1.7337
403,21.147,3.2797,0.05,1.4563e-06,14.553,1.1183e-06,8.4024,-5.3829e-14,8.0589e-06,-1.1183e-06,-8.4024,1.8454
404,1.7268,1.2095,0,0.00054567,5452.9,0.00025295,406.52,8.44e-05,-859.92,-0.00054223,-5568.1,0.015394
405,1.1635,1.807,0,0.00058195,5815.5,0.00032648,1087.6,3.6841e-05,-1088.6,-0.00055056,-5502.1,0.0073349
406,1.1502,1.2091,0.05,1.035e-05,103.42,7.9472e-06,59.712,7.101e-13,0.00012368,-7.9472e-06,-59.712,0.0067575
407,1.1376,0.60456,0,0.00056152,5611.3,0.00028053,837.42,8.8749e-05,-603.54,-0.00054348,-5353.8,0.0059035
408,0.57509,1.2046,0,0.0004719,4715.7,0.00015383,-1402.7,2.3918e-05,-2378.8,-0.00052858,-6530,0.0017165
409,2.8825,1.2096,0,0.00052058,5202.2,0.00019457,-79.421,0.00012431,-607.35,-0.00053024,-5525.4,0.043665
410,2.3372,1.8116,0,0.00051832,5179.6,0.00020427,-220.37,9.011e-05,-1078.1,-0.00053505,-5775.3,0.02973
411,2.3034,1.2099,0.05,6.2652e-06,62.609,4.8109e-06,36.147,-1.0205e-21,8.3463e-05,-4.8109e-06,-36.147,0.027656
412,2.2767,0.60497,0,0.00055839,5580,0.00020043,-190.06,0.00013833,-656.61,-0.00057133,-5988.7,0.02512
413,4.0423,1.2089,0,0.00049768,4973.4,0.00018077,14.985,0.00013698,-314.04,-0.00050195,-5114.7,0.086172
414,3.5136,1.8117,0,0.00050095,5006,0.00019559,66.581,0.00011807,-515.86,-0.00050604,-5205.2,0.066897
415,3.4615,1.2092,0.05,2.9962e-06,29.941,2.3007e-06,17.287,3.4098e-13,2.026e-06,-2.3007e-06,-17.287,0.063118
416,3.4183,0.6046,0,0.00053176,5313.9,0.00019107,0.82753,0.00014863,-318.02,-0.00053643,-5465.3,0.058836
417,5.2058,1.2086,0,0.00046817,4678.4,0.0001638,-5.4926,0.00013803,-199.07,-0.00047135,-4777.7,0.14239
418,4.6927,1.8114,0,0.00047491,4745.8,0.0001727,2.4471,0.00012923,-324.16,-0.00047954,-4898.2,0.11812
419,4.6231,1.2085,0.05,2.4854e-06,24.836,1.9084e-06,14.339,1.2946e-12,1.818e-05,-1.9084e-06,-14.339,0.11255
420,4.5615,0.60427,0,0.00049581,4954.7,0.0001721,-31.2,0.00014619,-225.89,-0.0004999,-5080.4,0.1065
421,6.3714,1.2089,0,0.00043684,4365.4,0.00014977,-2.0264,0.00013439,-117.58,-0.00043876,-4424,0.21152
422,5.8757,1.8113,0,0.00044635,4460.5,0.00015703,8.1458,0.00013135,-184.8,-0.00044905,-4545.7,0.18287
423,5.7886,1.2086,0.05,2.6224e-06,26.206,2.0137e-06,15.13,-1.3942e-12,1.0309e-05,-2.0137e-06,-15.13,0.17538
424,5.7068,0.60429,0,0.00046143,4611.1,0.00015823,-12.602,0.00014095,-142.48,-0.00046393,-4687.3,0.16733
425,7.5338,1.2108,0,0.00040479,4045.1,0.00013667,-2.6941,0.00012809,-67.158,-0.00040594,-4079.7,0.29236
426,7.0581,1.8127,0,0.0004156,4153.1,0.00014254,2.5116,0.00012819,-105.29,-0.00041724,-4203.4,0.26014
427,6.9542,1.2092,0.05,2.6659e-06,26.64,2.0471e-06,15.381,8.5779e-13,8.2274e-06,-2.0471e-06,-15.381,0.25059
428,6.8521,0.60461,0,0.00042756,4272.6,0.00014469,-10.919,0.00013397,-91.456,-0.00042924,-4323.3,0.24034
429,8.689,1.2178,0,0.00037278,3725.2,0.00012455,-3.161,0.00012014,-36.273,-0.00037344,-3744.9,0.38357
430,8.2376,1.8169,0,0.00038391,3836.4,0.00012959,1.3251,0.0001219,-56.461,-0.00038481,-3863.7,0.34883
431,8.1135,1.2123,0.05,2.6683e-06,26.664,2.0489e-06,15.395,-6.0366e-13,7.8219e-06,-2.0489e-06,-15.395,0.33679
432,7.9942,0.60616,0,0.00039432,3940.5,0.00013232,-8.1761,0.00012566,-58.239,-0.00039542,-3973.4,0.32436
433,9.849,1.2164,0,0.00034094,3407,0.00011317,-2.6538,0.00011115,-17.854,-0.00034128,-3417.3,0.48515
434,9.4177,1.8192,0,0.00035186,3516.2,0.00011749,0.083646,0.00011379,-27.769,-0.00035232,-3529.9,0.44827
435,9.2646,1.2232,0.05,2.6109e-06,26.091,2.0048e-06,15.064,-1.1485e-12,2.0522e-06,-2.0048e-06,-15.064,0.43277
436,9.1323,0.61162,0,0.00036174,3614.9,0.00012061,-7.9887,0.00011656,-38.408,-0.00036252,-3638,0.41835
437,11.012,1.2011,0,0.00030929,3090.7,0.00010262,2.3108,0.00010134,-7.3404,-0.00030937,-3093.2,0.59612
438,10.599,1.8133,0,0.00032006,3198.4,0.00010626,1.0823,0.00010464,-11.08,-0.00032023,-3203.4,0.55759
439,10.433,1.2095,0.05,2.5745e-06,25.727,1.9769e-06,14.854,-1.4727e-12,1.1513e-05,-1.9769e-06,-14.854,0.53981
440,10.279,0.60477,0,0.0003298,3295.8,0.00010966,-6.2514,0.00010687,-27.223,-0.00033037,-3312.4,0.52248
441,12.171,1.1804,0,0.00027779,2776,9.2746e-05,9.0631,9.0681e-05,-6.454,-0.00027774,-2774.6,0.71507
442,11.761,1.7927,0,0.00028875,2885.5,9.6131e-05,8.0154,9.4598e-05,-3.503,-0.00028867,-2883.3,0.67383
443,11.59,1.1926,0.05,2.6611e-06,26.592,2.0434e-06,15.353,-2.1305e-12,1.1291e-05,-2.0434e-06,-15.353,0.65444
444,11.42,0.59631,0,0.00029848,2982.7,9.9006e-05,-5.3054,9.7155e-05,-19.214,-0.0002989,-2995,0.63465
445,13.357,1.1897,0,0.00024702,2468.5,8.285e-05,15.406,8.067e-05,-0.97406,-0.00024677,-2461.2,0.84462
446,12.929,1.772,0,0.00025772,2575.4,8.657e-05,14.4,8.3791e-05,-6.4793,-0.00025758,-2571.4,0.79851
447,12.752,1.1682,0.05,3.0409e-06,30.388,2.335e-06,17.545,3.9451e-13,6.5755e-06,-2.335e-06,-17.545,0.77753
448,12.563,0.58412,0,0.00026727,2670.9,8.8899e-05,-3.3312,8.6715e-05,-19.739,-0.00026766,-2682.4,0.75487
449,14.64,1.2866,0,0.00021382,2136.8,7.4544e-05,45.667,6.7982e-05,-3.6403,-0.00021307,-2115.3,0.99265
450,14.112,1.8117,0,0.00022914,2289.8,7.7246e-05,22.524,7.4917e-05,5.0258,-0.00022866,-2276,0.93215
451,13.963,1.2111,0.05,2.0881e-06,20.867,1.6034e-06,12.048,1.2113e-13,8.9278e-06,-1.6034e-06,-12.048,0.91347
452,13.731,0.60554,0,0.00023522,2350.6,7.8972e-05,-1.2029,7.5224e-05,-29.359,-0.00023573,-2365.7,0.88497
453,15.365,1.9516,0,0.00019924,1991,7.0762e-05,48.068,6.161e-05,-20.698,-0.00019869,-1976.5,1.0808
454,15.977,1.6438,0,0.00019072,1905.9,7.4382e-05,101.33,5.2416e-05,-63.714,-0.00018954,-1881.7,1.155
455,15.712,1.0682,0,0.00017812,1779.9,6.6007e-05,92.55,5.4916e-05,9.2179,-0.00017624,-1727.6,1.1211
456,15.317,1.362,0.05,4.3228e-06,43.198,3.3194e-06,24.94,1.1855e-12,1.9669e-05,-3.3194e-06,-24.94,1.0737
457,14.971,0.68102,0,0.0002044,2042.6,7.1778e-05,55.751,6.5211e-05,6.4101,-0.0002033,-2011,1.0302
458,22.707,1.7407,0,2.8811e-05,287.91,1.1523e-05,19.256,7.776e-06,-8.8984,-2.8531e-05,-281.7,2.0651
459,22.127,1.1178,0,3.7692e-05,376.66,1.3516e-05,15.448,1.2021e-05,4.2118,-3.7345e-05,-366.7,1.9829
460,22.757,1.1662,0.05,1.5722e-06,15.711,1.2073e-06,9.0708,6.9559e-13,1.2206e-05,-1.2073e-06,-9.0708,2.072
461,22.795,0.5831,0,2.6255e-05,262.37,1.1016e-05,27.886,7.1387e-06,-1.2432,-2.568e-05,-247.83,2.0772
462,23.379,1.1831,0,2.1261e-05,212.47,1.0271e-05,28.087,3.7088e-06,-21.219,-2.0711e-05,-204.7,2.1601
463,13.168,4.8028,0,0.00025223,2520.5,8.4633e-05,19.576,8.2662e-05,4.7687,-0.00025181,-2508.3,0.8235
464,14.398,4.8199,0,0.00021932,2191.7,7.5602e-05,43.902,7.0927e-05,8.7788,-0.0002184,-2165.1,0.96394
465,13.613,4.1939,0,0.00024083,2406.6,8.1423e-05,24.608,7.8425e-05,2.0819,-0.00024037,-2393.2,0.87498
466,13.785,4.8065,0.05,1.9758e-06,19.744,1.5172e-06,11.399,2.7284e-13,6.0082e-06,-1.5172e-06,-11.399,0.89301
467,13.932,5.4032,0,0.00023124,2310.8,7.9865e-05,49.884,7.4852e-05,12.216,-0.00023016,-2279.5,0.90796
468,11.927,4.8036,0,0.00028491,2847.1,9.4857e-05,9.863,9.351e-05,-0.25881,-0.00028474,-2842.3,0.6894
469,12.405,4.1945,0,0.00027193,2717.4,9.0686e-05,10.425,8.9089e-05,-1.5721,-0.00027178,-2713,0.7417
470,12.552,4.7991,0.05,2.342e-06,23.404,1.7984e-06,13.512,-3.8147e-22,2.8777e-06,-1.7984e-06,-13.512,0.75586
471,12.676,5.3995,0,0.00026523,2650.5,9.01e-05,33.503,8.6237e-05,4.4758,-0.00026457,-2631.4,0.76712
472,10.675,4.8083,0,0.00031851,3182.9,0.00010575,3.6167,0.00010436,-6.8219,-0.00031856,-3184.5,0.56302
473,11.171,4.2124,0,0.00030449,3042.8,0.00010109,2.9421,9.9734e-05,-7.2055,-0.00030456,-3044.9,0.6138
474,11.302,4.8081,0.05,2.5303e-06,25.285,1.9429e-06,14.598,-4.1212e-22,4.924e-06,-1.9429e-06,-14.598,0.62511
475,11.411,5.4041,0,0.00029936,2991.6,0.00010052,22.474,9.7912e-05,2.8437,-0.00029893,-2978.9,0.63371
476,9.4176,4.8087,0,0.00035288,3526.4,0.00011774,1.3358,0.0001144,-23.775,-0.00035326,-3537.5,0.44613
477,9.9306,4.2141,0,0.0003379,3376.6,0.00011272,1.3777,0.00010958,-22.196,-0.00033825,-3387,0.4945
478,10.048,4.8085,0.05,2.5793e-06,25.775,1.9806e-06,14.881,9.6248e-13,5.7139e-06,-1.9806e-06,-14.881,0.50339
479,10.144,5.4043,0,0.00033413,3339,0.00011104,9.2762,0.0001098,-0.086812,-0.00033397,-3334.4,0.50966
480,8.1572,4.8082,0,0.00038768,3874.1,0.00013054,-0.57555,0.00012346,-53.743,-0.00038858,-3901,0.34017
481,8.6854,4.2146,0,0.00037167,3714.2,0.00012521,1.415,0.00011845,-49.393,-0.00037246,-3737.9,0.38525
482,8.7872,4.8089,0.05,2.5813e-06,25.795,1.9821e-06,14.893,1.6878e-14,1.8088e-06,-1.9821e-06,-14.893,0.39163
483,8.8736,5.4045,0,0.0003697,3694.5,0.00012277,0.54314,0.00012075,-14.653,-0.00036994,-3701.5,0.39602
484,6.8981,4.8072,0,0.00042246,4221.7,0.00014429,-2.1023,0.00013091,-102.62,-0.00042415,-4273.2,0.24664
485,7.4391,4.2135,0,0.00040527,4049.9,0.00013856,1.1635,0.00012564,-95.933,-0.0004068,-4096.4,0.28746
486,7.5273,4.8074,0.05,2.5852e-06,25.834,1.9851e-06,14.915,7.4604e-14,3.5478e-06,-1.9851e-06,-14.915,0.29174
487,7.6036,5.4037,0,0.00040599,4057.1,0.00013606,-3.8712,0.00013009,-48.754,-0.00040686,-4083.2,0.29434
488,5.6407,4.8072,0,0.00045665,4563.3,0.00015898,-8.1721,0.00013575,-182.73,-0.00045965,-4656.3,0.16665
489,6.1944,4.2124,0,0.00043795,4376.4,0.00015335,4.1186,0.00012977,-173.06,-0.00044055,-4458.2,0.20242
490,6.2689,4.8069,0.05,2.4783e-06,24.766,1.903e-06,14.299,-2.6985e-14,3.1244e-06,-1.903e-06,-14.299,0.20483
491,6.3344,5.4034,0,0.00044298,4426.8,0.00015053,-7.8802,0.00013806,-101.62,-0.00044477,-4480.8,0.20583
492,4.3846,4.8075,0,0.00048918,4888.4,0.0001765,8.8185,0.00013618,-294.11,-0.00049332,-5024,0.10126
493,4.9518,4.2126,0,0.00046853,4682.1,0.00016941,-2.774,0.00012874,-308.31,-0.00047307,-4830.1,0.13111
494,5.0126,4.8074,0.05,2.0669e-06,20.655,1.5871e-06,11.925,-2.0712e-13,-1.5235e-06,-1.5871e-06,-11.925,0.13203
495,5.0663,5.4037,0,0.00048081,4804.8,0.00016539,-28.111,0.00014459,-184.42,-0.00048424,-4909.1,0.1317
496,3.1314,4.8016,0,0.00051553,5151.8,0.00019151,-87.517,0.00012442,-591.6,-0.00052523,-5472.8,0.051574
497,3.7108,4.2062,0,0.00049623,4958.8,0.00019242,58.199,0.00011866,-495.99,-0.00050134,-5154.4,0.074452
498,3.7566,4.8076,0.05,2.7986e-06,27.967,2.149e-06,16.147,-4.5583e-22,-5.9609e-07,-2.149e-06,-16.147,0.074317
499,3.7983,5.4038,0,0.00052012,5197.6,0.00018514,-2.6297,0.00014813,-280.75,-0.00052438,-5333.7,0.073154
500,1.8796,4.7977,0,0.00054388,5435.1,0.00025167,406.32,8.5187e-05,-844.53,-0.00054043,-5545.2,0.018277
501,2.4732,4.1965,0,0.00051639,5160.3,0.00020291,-223.57,9.0526e-05,-1068,-0.00053315,-5754,0.033244
502,2.5062,4.7955,0.05,5.938e-06,59.339,4.5596e-06,34.259,-5.9541e-12,-7.2669e-15,-4.5596e-06,-34.259,0.032808
503,2.5331,5.3977,0,0.00055224,5518.6,0.00019781,-202.56,0.00013615,-665.87,-0.00056555,-5938.2,0.031487
504,1.2354,4.1998,0,0.0005815,5811,0.00032644,1095.9,3.7342e-05,-1076.3,-0.00054985,-5488.3,0.0082594
505,1.253,4.7999,0.05,1.1717e-05,117.09,8.9973e-06,67.602,5.0441e-13,-1.4339e-14,-8.9973e-06,-67.602,0.0080437
506,1.2665,5.3999,0,0.00056492,5645.3,0.00028343,852.93,8.7871e-05,-616.42,-0.00054636,-5381.8,0.0074411
507,0.62649,4.7999,0,0.00047269,4723.6,0.00015363,-1405.9,2.4799e-05,-2373.8,-0.00052949,-6538.5,0.0020426
508,1.1973,3.0023,0,0.00059926,5988.5,0.00034597,1168.9,2.0197e-05,-1278.8,-0.00056233,-5655.7,0.0080398
509,1.829,3.5986,0,0.00055166,5512.8,0.00027772,466.18,4.4369e-05,-1287.1,-0.00054429,-5710.1,0.018606
510,1.2179,3.5997,0.05,5.1714e-06,51.679,3.971e-06,29.837,1.9549e-13,-6.3288e-15,-3.971e-06,-29.837,0.0082233
511,0.60894,3.5998,0,0.00049805,4977.1,0.00017312,-1427.8,8.7217e-06,-2663.1,-0.000556,-6906.2,0.0020653
512,1.7738,2.4091,0,0.00055242,5520.4,0.00027783,460.99,4.4392e-05,-1293,-0.00054525,-5723.3,0.017525
513,1.1767,2.405,0.05,5.1851e-06,51.815,3.9815e-06,29.915,-4.2399e-13,1.533e-05,-3.9815e-06,-29.915,0.0076852
514,0.58836,2.4025,0,0.00049858,4982.3,0.00017286,-1435.1,9.0482e-06,-2665.9,-0.0005568,-6917.4,0.0019323
515,22.646,2.8843,0,2.9866e-05,298.45,1.2112e-05,19.119,7.6731e-06,-14.234,-2.9642e-05,-294.61,2.0567
516,21.965,2.2136,0,4.2035e-05,420.06,1.4193e-05,-0.045678,1.3321e-05,-6.5996,-4.2144e-05,-423.35,1.9603
517,22.657,2.3152,0.05,1.3398e-06,13.389,1.0288e-06,7.7303,5.7739e-13,9.7222e-06,-1.0288e-06,-7.7302,2.0581
518,23.328,2.3576,0,2.3575e-05,235.58,1.1286e-05,31.013,4.3069e-06,-21.429,-2.2969e-05,-226.37,2.1532
519,22.636,3.4535,0.05,1.8462e-06,18.449,1.4176e-06,10.652,3.5453e-13,1.0287e-05,-1.4176e-06,-10.652,2.0551
520,23.318,3.5267,0,2.3833e-05,238.16,1.1933e-05,36.075,3.7668e-06,-25.285,-2.3048e-05,-226.76,2.1518
521,14.816,4.2454,0,0.00021043,2102.9,7.4228e-05,58.833,6.6701e-05,2.2818,-0.00020934,-2071.8,1.0145
522,15.011,4.8334,0.05,2.7725e-06,27.705,2.1289e-06,15.996,8.5334e-13,4.8679e-06,-2.1289e-06,-15.996,1.0365
523,15.186,5.4167,0,0.00019383,1936.9,6.9623e-05,78.939,6.1569e-05,18.42,-0.0001921,-1887.6,1.0556
524,21.385,1.5907,0,5.0954e-05,509.19,1.8178e-05,11.106,1.5505e-05,-8.9765,-5.0888e-05,-507.83,1.8786
525,21.273,2.1121,0.05,1.9237e-06,19.224,1.4772e-06,11.099,6.5309e-13,9.2848e-06,-1.4772e-06,-11.099,1.863
526,2.4055,3.0053,0,0.00050789,5075.4,0.00020956,-241.8,6.7149e-05,-1311.9,-0.00052578,-5766.9,0.032375
527,3.0526,3.6011,0,0.00049788,4975.4,0.00020382,-77.872,8.5178e-05,-969.29,-0.00050967,-5438.7,0.051516
528,2.4401,3.5974,0.05,9.3295e-06,93.231,7.1639e-06,53.827,-7.3579e-13,1.1819e-05,-7.1639e-06,-53.827,0.033035
529,2.9683,2.4137,0,0.00049969,4993.4,0.0002053,-74.236,8.443e-05,-982.39,-0.00051142,-5459.4,0.048784
530,2.3709,2.4132,0.05,8.0436e-06,80.381,6.1765e-06,46.408,3.599e-13,4.5286e-06,-6.1765e-06,-46.408,0.031231
531,13.273,2.9785,0,0.00024953,2493.6,8.434e-05,21.166,8.0903e-05,-4.658,-0.00024924,-2485.2,0.83797
532,12.85,3.5856,0,0.00026066,2604.9,8.7526e-05,15.835,8.492e-05,-3.7443,-0.00026045,-2598.8,0.79084
533,14.031,3.6193,0,0.000232,2318.4,8.0103e-05,39.947,7.4203e-05,-4.3859,-0.00023136,-2300.3,0.92357
534,13.441,3.5813,0.05,2.3105e-06,23.089,1.7742e-06,13.33,8.2885e-13,6.7801e-06,-1.7742e-06,-13.33,0.85648
535,4.164,2.4143,0,0.00047832,4779.9,0.00018754,54.241,0.00011036,-525.71,-0.00048369,-4989.2,0.094625
536,3.6154,3.0096,0,0.00048904,4887,0.00019948,89.163,0.00010157,-646.53,-0.00049435,-5124,0.072148
537,3.5657,2.4143,0.05,2.3837e-06,23.821,1.8304e-06,13.753,6.6219e-13,1.2024e-05,-1.8304e-06,-13.753,0.069877
538,5.3626,2.4142,0,0.00045308,4527.6,0.00016594,16.173,0.00012249,-310.29,-0.00045719,-4665.8,0.15449
539,4.8267,3.0161,0,0.00046492,4646,0.00017339,11.681,0.00011965,-392.11,-0.00047007,-4823,0.12644
540,4.7624,2.4143,0.05,2.5724e-06,25.707,1.9753e-06,14.842,7.0712e-14,4.2744e-06,-1.9753e-06,-14.842,0.12278
541,6.5624,2.4151,0,0.00042508,4247.9,0.0001498,12.719,0.00012511,-172.74,-0.0004275,-4324.9,0.22761
542,6.0414,3.016,0,0.00043798,4376.7,0.00015634,14.013,0.00012549,-217.72,-0.00044098,-4474,0.19471
543,5.9628,2.414,0.05,2.158e-06,21.565,1.6571e-06,12.451,-1.5801e-12,1.4425e-06,-1.6571e-06,-12.451,0.18944
544,7.7618,2.4188,0,0.00039473,3944.5,0.00013545,6.5361,0.00012201,-94.495,-0.00039613,-3987.6,0.31301
545,7.2564,3.0179,0,0.00040789,4076.1,0.00014108,6.0814,0.00012411,-121.45,-0.0004097,-4132.3,0.27599
546,7.1621,2.4161,0.05,2.3471e-06,23.455,1.8023e-06,13.542,4.272e-13,2.1001e-06,-1.8023e-06,-13.542,0.26879
547,8.9662,2.4184,0,0.00036304,3627.9,0.00012252,4.4969,0.0001156,-47.508,-0.00036374,-3649.1,0.41024
548,8.4726,3.0209,0,0.00037613,3758.7,0.0001276,3.6,0.00011854,-64.487,-0.00037712,-3788.7,0.36945
549,8.3616,2.4215,0.05,2.4595e-06,24.579,1.8886e-06,14.19,-1.447e-12,3.2962e-06,-1.8886e-06,-14.19,0.36003
550,10.167,2.4161,0,0.00033107,3308.4,0.00011053,3.4032,0.00010741,-19.988,-0.00033135,-3316.7,0.51772
551,9.692,3.0175,0,0.00034363,3433.9,0.00011511,2.346,0.00011071,-30.677,-0.0003441,-3447.9,0.47436
552,9.5708,2.4152,0.05,2.533e-06,25.312,1.945e-06,14.614,3.1042e-13,7.5673e-06,-1.945e-06,-14.614,0.46305
553,11.348,2.4049,0,0.00029964,2994.4,9.9507e-05,4.8076,9.8266e-05,-4.5133,-0.00029964,-2994.2,0.63267
554,10.903,3.0169,0,0.00031136,3111.4,0.00010346,1.6336,0.0001017,-11.608,-0.00031152,-3116.4,0.58862
555,10.764,2.417,0.05,2.6349e-06,26.331,2.0233e-06,15.202,6.0207e-13,4.8179e-06,-2.0233e-06,-15.202,0.5747
556,12.519,2.3842,0,0.00026882,2686.3,9.0016e-05,13.81,8.7764e-05,-3.1127,-0.00026863,-2680.9,0.75488
557,12.095,2.9913,0,0.00027983,2796.3,9.3177e-05,8.2933,9.169e-05,-2.8793,-0.00027973,-2793.6,0.71008
558,11.932,2.3927,0.05,2.602e-06,26.002,1.998e-06,15.012,-5.1055e-13,9.0052e-06,-1.998e-06,-15.012,0.69263
559,13.684,2.3941,0,0.00023997,2398.1,8.1086e-05,22.418,7.8036e-05,-0.49328,-0.00023959,-2387,0.88385
560,13.105,2.3758,0.05,2.7547e-06,27.528,2.1153e-06,15.893,5.6472e-13,1.0195e-05,-2.1153e-06,-15.893,0.81895
561,14.838,2.4768,0,0.00021454,2143.9,7.3591e-05,25.881,6.8432e-05,-12.883,-0.0002143,-2137.2,1.0181
562,14.441,3.0349,0,0.0002223,2221.4,7.6716e-05,40.201,7.1343e-05,-0.16685,-0.00022159,-2201.1,0.97151
563,14.262,2.4124,0.05,3.1981e-06,31.959,2.4557e-06,18.452,4.1094e-13,7.1324e-06,-2.4558e-06,-18.452,0.95031
564,11.649,3.6033,0,0.00029165,2914.5,9.6825e-05,2.8365,9.5526e-05,-6.9253,-0.00029172,-2916.5,0.66337
565,12.258,3.5898,0.05,2.4857e-06,24.84,1.9087e-06,14.342,3.0437e-13,5.8293e-06,-1.9087e-06,-14.342,0.72698
566,10.427,3.6182,0,0.000324,3237.8,0.00010796,0.01326,0.00010515,-21.115,-0.00032435,-3248.3,0.54219
567,11.041,3.6167,0.05,2.5566e-06,25.548,1.9631e-06,14.75,2.8596e-13,5.773e-06,-1.9631e-06,-14.75,0.60187
568,9.1984,3.62,0,0.00035678,3565.3,0.00012017,1.3094,0.00011373,-47.102,-0.00035753,-3587.9,0.43016
569,9.8132,3.6197,0.05,2.5495e-06,25.477,1.9577e-06,14.709,2.9362e-13,3.3429e-06,-1.9577e-06,-14.709,0.48491
570,7.9672,3.62,0,0.00038931,3890.4,0.00013322,3.1072,0.00012067,-91.241,-0.00039072,-3933.6,0.32874
571,8.5835,3.6203,0.05,2.4815e-06,24.797,1.9055e-06,14.317,2.4277e-13,3.1385e-06,-1.9055e-06,-14.317,0.37807
572,6.7354,3.6188,0,0.00042075,4204.6,0.00014762,7.3655,0.00012449,-166.42,-0.00042319,-4281.4,0.23912
573,7.3508,3.6197,0.05,2.3182e-06,23.166,1.7801e-06,13.375,1.4249e-13,1.6012e-06,-1.7801e-06,-13.375,0.28232
574,5.5055,3.6179,0,0.00044978,4494.7,0.00016378,9.5237,0.0001227,-299.13,-0.00045391,-4631.6,0.16247
575,6.12,3.6179,0.05,2.0401e-06,20.387,1.5665e-06,11.77,2.8262e-14,2.1201e-06,-1.5665e-06,-11.77,0.19908
576,4.2781,3.6113,0,0.00047563,4753,0.00018533,46.671,0.00011118,-510.48,-0.00048106,-4960.3,0.099691
577,4.8911,3.6178,0.05,2.285e-06,22.834,1.7546e-06,13.183,-8.2251e-14,-7.7622e-07,-1.7546e-06,-13.183,0.12924
578,3.665,3.6048,0.05,2.5166e-06,25.149,1.9324e-06,14.52,-7.8869e-13,-3.7806e-06,-1.9324e-06,-14.52,0.073703
579,16.011,2.6592,0,0.00020534,2051.9,7.3041e-05,48.362,6.3186e-05,-25.681,-0.00020485,-2039.6,1.1604
580,15.561,3.1228,0,0.0002001,1999.6,7.2946e-05,71.53,6.0773e-05,-19.938,-0.00019907,-1972.3,1.1053
581,15.414,2.5413,0.05,4.0861e-06,40.833,3.1376e-06,23.575,7.9879e-13,-2.4173e-06,-3.1376e-06,-23.575,1.0873
582,18.947,4.0342,0,0.00013523,1351.4,5.4663e-05,75.279,3.3979e-05,-80.134,-0.00013464,-1347.1,1.5403
583,18.741,4.2738,0.05,1.5332e-05,153.21,1.1773e-05,88.458,5.3104e-13,-3.7893e-07,-1.1773e-05,-88.458,1.5121
584,18.454,4.3869,0,0.00013862,1385.2,6.0559e-05,132.49,3.1734e-05,-84.086,-0.00013652,-1348.3,1.4728
585,21.497,1.0694,0.05,1.4184e-06,14.175,1.0892e-06,8.1837,8.6692e-13,1.1446e-05,-1.0892e-06,-8.1837,1.8942
586,21.582,0.53468,0,4.6029e-05,459.98,1.7104e-05,24.151,1.4133e-05,1.8339,-4.5547e-05,-446.58,1.9058
587,17.309,0.94094,0.05,2.2146e-06,22.131,1.7005e-06,12.777,1.3334e-12,1.8666e-05,-1.7005e-06,-12.777,1.3203
588,17.655,0.97047,0,0.00012899,1289,7.7242e-05,411.38,1.6093e-05,-48.075,-0.00011651,-1044.4,1.3645
589,16.623,2.3513,0,0.00019716,1970.2,7.6948e-05,103.78,5.3996e-05,-68.677,-0.00019599,-1947,1.2364
590,16.638,1.9255,0.05,1.4373e-05,143.64,1.1037e-05,82.928,3.118e-12,2.9757e-05,-1.1037e-05,-82.928,1.2377
591,17.319,1.9627,0,0.0002667,2665.2,0.00011641,220.85,5.7869e-05,-219.01,-0.00026393,-2636.9,1.3244
592,16.107,0.77441,0.05,7.3416e-06,73.366,5.6375e-06,42.358,-6.0664e-13,7.3815e-06,-5.6375e-06,-42.358,1.1688
593,15.928,0.38721,0,0.00016309,1629.8,5.9658e-05,72.848,5.0534e-05,4.2934,-0.00016167,-1590.1,1.1455
594,17.451,4.9847,0.05,6.4361e-06,64.317,4.9422e-06,37.133,7.5767e-13,1.6586e-05,-4.9422e-06,-37.133,1.3386
595,17.726,4.9924,0,0.00012425,1241.7,8.0507e-05,461.42,8.3712e-06,-80.582,-0.00010855,-959.1,1.3737
596,16.656,3.2829,0,0.00020021,2000.7,7.3265e-05,77.117,6.0833e-05,-16.291,-0.00019901,-1968.6,1.2409
597,16.206,3.7464,0,0.00019517,1950.3,7.4488e-05,110.18,5.7181e-05,-19.851,-0.00019331,-1901.9,1.1842
598,16.705,3.7885,0.05,9.1971e-06,91.907,7.0622e-06,53.063,-3.6356e-14,1.5048e-05,-7.0622e-06,-53.063,1.2465
599,17.352,3.8942,0,0.00026656,2663.7,0.00011151,172.31,6.2287e-05,-197.52,-0.00026505,-2657,1.3288
600,19.089,1.0856,0.05,2.7936e-06,27.917,2.1451e-06,16.118,-3.2165e-13,-6.0496e-08,-2.1451e-06,-16.118,1.5591
601,18.628,1.0428,0,0.00010899,1089.1,4.6474e-05,110.65,2.775e-05,-30.026,-0.00010693,-1042,1.4958
602,19.547,2.5192,0.05,5.7366e-06,57.326,4.405e-06,33.097,4.5422e-12,9.7604e-06,-4.405e-06,-33.097,1.6229
603,18.857,2.2596,0,0.00023379,2336.3,7.2899e-05,-272.31,5.9279e-05,-374.64,-0.00024463,-2658.1,1.5284
604,18.599,3.1489,0,0.00020681,2066.7,9.5116e-05,377.09,5.6001e-05,83.192,-0.00019741,-1820.8,1.4939
605,18.586,2.8528,0.05,1.6441e-05,164.3,1.2625e-05,94.858,4.7443e-12,3.3239e-05,-1.2625e-05,-94.858,1.4922
606,18.376,2.4264,0,0.00028023,2800.4,9.6788e-05,-86.16,7.7067e-05,-234.34,-0.00028539,-2957.7,1.4638
607,19.377,4.0835,0,0.00011316,1130.8,4.4916e-05,25.807,2.6351e-05,-113.68,-0.00011401,-1168.3,1.5992
608,19.602,4.3724,0.05,1.7896e-06,17.884,1.3742e-06,10.325,2.6998e-13,7.3121e-06,-1.3742e-06,-10.325,1.63
609,16.608,2.7772,0.05,3.0726e-06,30.705,2.3594e-06,17.728,4.7543e-12,3.3597e-05,-2.3594e-06,-17.728,1.2348
610,18.395,3.4229,0,0.00023035,2301.9,0.00012255,548.74,4.2357e-05,-53.831,-0.00021593,-1994.5,1.4665
611,18.179,3.4007,0.05,3.3569e-05,335.46,2.5777e-05,193.68,5.2056e-12,6.6856e-06,-2.5777e-05,-193.68,1.4377
612,18.173,3.7003,0,0.00034571,3454.7,0.00015433,340.66,7.3793e-05,-264.43,-0.00034041,-3376.6,1.4364
613,18.882,3.6198,0,0.00017293,1728.1,6.0891e-05,82.138,5.8114e-05,61.273,-0.00017048,-1656.3,1.5319
614,19.152,3.7945,0.05,1.2707e-05,126.98,9.7575e-06,73.314,-2.7811e-13,-2.3422e-07,-9.7575e-06,-73.314,1.5686
615,18.612,3.445,0.05,2.0646e-05,206.31,1.5853e-05,119.12,-1.6799e-12,-1.1005e-05,-1.5853e-05,-119.12,1.4954
616,15.164,3.6808,0,0.00020802,2078.8,7.6636e-05,90.091,6.3248e-05,-10.5,-0.00020649,-2037.2,1.057
617,14.62,3.6573,0.05,3.0836e-06,30.814,2.3678e-06,17.791,1.7982e-12,1.2836e-05,-2.3678e-06,-17.791,0.99222
618,15.708,3.7043,0.05,3.0005e-06,29.984,2.304e-06,17.311,1.4451e-12,2.5176e-05,-2.304e-06,-17.311,1.1228
619,15.164,3.6808,0.1,0.00020802,2078.8,0.00020649,2037.2,-6.3248e-05,10.5,-7.6636e-05,-90.091,1.057
620,16.206,3.7464,0.1,0.00019517,1950.3,0.00019331,1901.9,-5.7181e-05,19.851,-7.4488e-05,-110.18,1.1842
621,15.561,3.1228,0.1,0.0002001,1999.6,0.00019907,1972.3,-6.0773e-05,19.938,-7.2946e-05,-71.53,1.1053
622,16.041,4.3067,0.1,0.00017925,1791.3,0.00017708,1731.6,-5.4301e-05,-6.9096,-6.7781e-05,-108.19,1.1629
623,14.441,3.0349,0.1,0.0002223,2221.4,0.00022159,2201.1,-7.1343e-05,0.16685,-7.6716e-05,-40.201,0.97151
624,14.031,3.6193,0.1,0.000232,2318.4,0.00023136,2300.3,-7.4203e-05,4.3859,-8.0103e-05,-39.947,0.92357
625,14.816,4.2454,0.1,0.00021043,2102.9,0.00020934,2071.8,-6.6701e-05,-2.2818,-7.4228e-05,-58.833,1.0145
626,18.882,3.6198,0.1,0.00017293,1728.1,0.00017048,1656.3,-5.8114e-05,-61.273,-6.0891e-05,-82.138,1.5319
627,18.395,3.4229,0.1,0.00023035,2301.9,0.00021593,1994.5,-4.2357e-05,53.831,-0.00012255,-548.74,1.4665
628,18.599,3.1489,0.1,0.00020681,2066.7,0.00019741,1820.8,-5.6001e-05,-83.192,-9.5116e-05,-377.09,1.4939
629,18.536,3.6867,0.1,0.0002137,2135.5,0.00020998,2037,-6.1632e-05,-3.7242,-8.5355e-05,-181.97,1.4851
630,19.377,4.0835,0.1,0.00011316,1130.8,0.00011401,1168.3,-2.6351e-05,113.68,-4.4916e-05,-25.807,1.5992
631,18.947,4.0342,0.1,0.00013523,1351.4,0.00013464,1347.1,-3.3979e-05,80.134,-5.4663e-05,-75.279,1.5403
632,19.287,3.4805,0.1,0.00013162,1315.3,0.00013354,1394.3,-2.6538e-05,191.57,-5.3388e-05,-10.168,1.5873
633,17.893,3.1627,0.1,0.00023869,2385.2,0.0002138,1852.8,-3.6823e-05,-30.251,-0.00014318,-829.4,1.4001
634,18.173,3.7003,0.1,0.00034571,3454.7,0.00034041,3376.6,-7.3793e-05,264.43,-0.00015433,-340.66,1.4364
635,16.656,3.2829,0.1,0.00020021,2000.7,0.00019901,1968.6,-6.0833e-05,16.291,-7.3265e-05,-77.117,1.2409
636,16.623,2.3513,0.1,0.00019716,1970.2,0.00019599,1947,-5.3996e-05,68.677,-7.6948e-05,-103.78,1.2364
637,16.011,2.6592,0.1,0.00020534,2051.9,0.00020485,2039.6,-6.3186e-05,25.681,-7.3041e-05,-48.362,1.1604
638,17.107,2.851,0.1,0.0002139,2137.5,0.0002018,1828.3,-5.502e-05,-101.36,-0.00010399,-469.32,1.2982
639,19.876,4.1012,0.1,8.7256e-05,871.96,8.8498e-05,915.42,-2.1012e-05,92.609,-3.314e-05,1.4833,1.668
640,19.78,4.7643,0.1,8.0691e-05,806.36,8.0996e-05,818.26,-2.232e-05,41.982,-2.9922e-05,-15.133,1.6543
641,19.276,4.5682,0.1,8.503e-05,849.72,8.5324e-05,859.12,-2.5714e-05,24.82,-2.9713e-05,-5.2238,1.5849
642,19.004,3.0096,0.1,0.00016721,1671,0.00016382,1584.1,-4.6353e-05,4.8904,-6.9042e-05,-165.59,1.5488
643,18.096,2.8888,0.1,0.00021624,2160.9,0.00019642,1687.7,-4.6009e-05,-133.78,-0.00012135,-699.89,1.4269
644,18.376,2.4264,0.1,0.00028023,2800.4,0.00028539,2957.7,-7.7067e-05,234.34,-9.6788e-05,86.16,1.4638
645,20.347,2.8994,0.1,8.1668e-05,816.12,8.3275e-05,867.86,-2.0307e-05,89.588,-2.9762e-05,18.547,1.7337
646,19.659,2.1113,0.1,9.5638e-05,955.72,9.676e-05,991.97,-2.586e-05,70.651,-3.457e-05,5.2065,1.6383
647,19.485,2.8428,0.1,0.00011766,1175.8,0.0001205,1265.2,-2.9087e-05,141.27,-4.2075e-05,43.681,1.6145
648,18.857,2.2596,0.1,0.00023379,2336.3,0.00024463,2658.1,-5.9279e-05,374.64,-7.2899e-05,272.31,1.5284
649,19.19,0.85095,0.1,7.2382e-05,723.32,7.1534e-05,699.1,-2.2912e-05,-10.524,-2.6459e-05,-37.172,1.5728
650,19.43,1.3945,0.1,8.093e-05,808.74,8.0855e-05,807.79,-2.4237e-05,18.167,-2.9157e-05,-18.803,1.6063
651,18.628,1.0428,0.1,0.00010899,1089.1,0.00010693,1042,-2.775e-05,30.026,-4.6474e-05,-110.65,1.4958
652,16.928,4.1653,0.1,0.00018748,1873.5,0.00018048,1703.4,-4.6325e-05,-0.71,-8.6526e-05,-302.77,1.2742
653,17.352,3.8942,0.1,0.00026656,2663.7,0.00026505,2657,-6.2287e-05,197.52,-0.00011151,-172.31,1.3288
654,17.301,4.7634,0.1,0.00013708,1369.9,0.00012576,1112.7,-2.6423e-05,-30.677,-7.6316e-05,-405.55,1.3202
655,17.371,5.1853,0.1,0.00010896,1088.8,0.00010197,921.82,-2.4415e-05,-27.763,-5.6205e-05,-266.62,1.3277
656,17.726,4.9924,0.1,0.00012425,1241.7,0.00010855,959.1,-8.3712e-06,80.582,-8.0507e-05,-461.42,1.3737
657,15.712,1.0682,0.1,0.00017812,1779.9,0.00017624,1727.6,-5.4916e-05,-9.2179,-6.6007e-05,-92.55,1.1211
658,16.598,0.64803,0.1,0.00013662,1365.2,0.0001333,1278.2,-3.8342e-05,-11.42,-5.7019e-05,-151.76,1.2297
659,16.542,1.0471,0.1,0.00016536,1652.5,0.00015938,1494.1,-4.6166e-05,-50.296,-7.2548e-05,-248.52,1.2238
660,15.928,0.38721,0.1,0.00016309,1629.8,0.00016167,1590.1,-5.0534e-05,-4.2934,-5.9658e-05,-72.848,1.1455
661,15.977,1.6438,0.1,0.00019072,1905.9,0.00018954,1881.7,-5.2416e-05,63.714,-7.4382e-05,-101.33,1.155
662,16.807,1.6226,0.1,0.00017949,1793.7,0.00017355,1654.7,-4.3017e-05,27.517,-8.2435e-05,-268.65,1.2586
663,17.319,1.9627,0.1,0.0002667,2665.2,0.00026393,2636.9,-5.7869e-05,219.01,-0.00011641,-220.85,1.3244
664,17.2,0.73129,0.1,0.00011165,1115.7,0.00010485,961.83,-2.2894e-05,2.0443,-5.8084e-05,-262.36,1.3057
665,17.143,1.1304,0.1,0.00013737,1372.7,0.00012854,1159.8,-3.1365e-05,-41.692,-7.0577e-05,-336.31,1.2999
666,17.655,0.97047,0.1,0.00012899,1289,0.00011651,1044.4,-1.6093e-05,48.075,-7.7242e-05,-411.38,1.3645
667,21.385,1.5907,0.1,5.0954e-05,509.19,5.0888e-05,507.83,-1.5505e-05,8.9765,-1.8178e-05,-11.106,1.8786
668,22.127,1.1178,0.1,3.7692e-05,376.66,3.7345e-05,366.7,-1.2021e-05,-4.2118,-1.3516e-05,-15.448,1.9829
669,20.917,0.94975,0.1,5.7809e-05,577.69,5.7192e-05,560.38,-1.7946e-05,-4.1762,-2.1329e-05,-29.598,1.8128
670,21.582,0.53468,0.1,4.603e-05,459.98,4.5547e-05,446.58,-1.4133e-05,-1.8339,-1.7104e-05,-24.151,1.9058
671,18.846,4.5189,0.1,0.00011145,1113.7,0.00010919,1062.2,-2.8001e-05,31.399,-4.8034e-05,-119.12,1.526
672,18.601,4.1011,0.1,0.00018575,1856.2,0.00018307,1795,-4.8791e-05,52.822,-7.6768e-05,-157.39,1.4933
673,18.454,4.3869,0.1,0.00013862,1385.2,0.00013652,1348.3,-3.1734e-05,84.086,-6.0559e-05,-132.49,1.4728
674,14.838,2.4768,0.1,0.00021454,2143.9,0.0002143,2137.2,-6.8432e-05,12.883,-7.3591e-05,-25.881,1.0181
675,15.365,1.9516,0.1,0.00019924,1991,0.00019869,1976.5,-6.161e-05,20.698,-7.0762e-05,-48.068,1.0808
676,4.2781,3.6113,0.1,0.00047563,4753,0.00048106,4960.3,-0.00011118,510.48,-0.00018533,-46.671,0.099691
677,3.6154,3.0096,0.1,0.00048904,4887,0.00049435,5124,-0.00010157,646.53,-0.00019948,-89.163,0.072148
678,3.0526,3.6011,0.1,0.00049788,4975.4,0.00050967,5438.7,-8.5178e-05,969.29,-0.00020382,77.872,0.051516
679,3.7108,4.2062,0.1,0.00049623,4958.8,0.00050134,5154.4,-0.00011866,495.99,-0.00019242,-58.199,0.074452
680,5.5055,3.6179,0.1,0.00044978,4494.7,0.00045391,4631.6,-0.0001227,299.13,-0.00016378,-9.5237,0.16247
681,4.8267,3.0161,0.1,0.00046492,4646,0.00047007,4823,-0.00011965,392.11,-0.00017339,-11.681,0.12644
682,4.9518,4.2126,0.1,0.00046853,4682.1,0.00047307,4830.1,-0.00012874,308.31,-0.00016941,2.774,0.13111
683,6.7354,3.6188,0.1,0.00042075,4204.6,0.00042319,4281.4,-0.00012449,166.42,-0.00014762,-7.3655,0.23912
684,6.0414,3.016,0.1,0.00043798,4376.7,0.00044098,4474,-0.00012549,217.72,-0.00015634,-14.013,0.19471
685,6.1944,4.2124,0.1,0.00043795,4376.4,0.00044055,4458.2,-0.00012977,173.06,-0.00015335,-4.1186,0.20242
686,7.9672,3.62,0.1,0.00038931,3890.4,0.00039072,3933.6,-0.00012067,91.241,-0.00013322,-3.1072,0.32874
687,7.2564,3.0179,0.1,0.00040789,4076.1,0.0004097,4132.3,-0.00012411,121.45,-0.00014108,-6.0814,0.27599
688,7.4391,4.2135,0.1,0.00040527,4049.9,0.0004068,4096.4,-0.00012564,95.933,-0.00013856,-1.1635,0.28746
689,9.1984,3.62,0.1,0.00035678,3565.3,0.00035753,3587.9,-0.00011373,47.102,-0.00012017,-1.3094,0.43016
690,8.4726,3.0209,0.1,0.00037613,3758.7,0.00037712,3788.7,-0.00011854,64.487,-0.0001276,-3.6,0.36945
691,8.6854,4.2146,0.1,0.00037167,3714.2,0.00037246,3737.9,-0.00011845,49.393,-0.00012521,-1.415,0.38525
692,10.427,3.6182,0.1,0.000324,3237.8,0.00032435,3248.3,-0.00010515,21.115,-0.00010796,-0.013259,0.54219
693,9.692,3.0175,0.1,0.00034363,3433.9,0.0003441,3447.9,-0.00011071,30.677,-0.00011511,-2.346,0.47436
694,9.9306,4.2141,0.1,0.0003379,3376.6,0.00033825,3387,-0.00010958,22.196,-0.00011272,-1.3777,0.4945
695,11.649,3.6033,0.1,0.00029165,2914.5,0.00029172,2916.5,-9.5526e-05,6.9253,-9.6825e-05,-2.8365,0.66337
696,10.903,3.0169,0.1,0.00031136,3111.4,0.00031152,3116.4,-0.0001017,11.608,-0.00010346,-1.6336,0.58862
697,11.171,4.2124,0.1,0.00030449,3042.8,0.00030456,3044.9,-9.9734e-05,7.2055,-0.00010109,-2.9421,0.6138
698,12.095,2.9913,0.1,0.00027983,2796.3,0.00027973,2793.6,-9.169e-05,2.8794,-9.3177e-05,-8.2933,0.71008
699,12.85,3.5856,0.1,0.00026066,2604.9,0.00026045,2598.8,-8.492e-05,3.7443,-8.7526e-05,-15.835,0.79084
700,12.405,4.1945,0.1,0.00027193,2717.4,0.00027178,2713,-8.9089e-05,1.5721,-9.0686e-05,-10.425,0.7417
701,13.684,2.3941,0.1,0.00023997,2398.1,0.00023959,2387,-7.8036e-05,0.49328,-8.1086e-05,-22.418,0.88385
702,14.112,1.8117,0.1,0.00022914,2289.8,0.00022866,2276,-7.4918e-05,-5.0257,-7.7246e-05,-22.524,0.93215
703,12.519,2.3842,0.1,0.00026882,2686.3,0.00026863,2680.9,-8.7764e-05,3.1127,-9.0016e-05,-13.81,0.75488
704,13.273,2.9785,0.1,0.00024953,2493.6,0.00024924,2485.2,-8.0903e-05,4.658,-8.434e-05,-21.166,0.83797
705,12.929,1.772,0.1,0.00025772,2575.4,0.00025758,2571.4,-8.3791e-05,6.4793,-8.657e-05,-14.4,0.79851
706,11.348,2.4049,0.1,0.00029964,2994.4,0.00029964,2994.2,-9.8266e-05,4.5133,-9.9507e-05,-4.8076,0.63267
707,11.761,1.7927,0.1,0.00028875,2885.5,0.00028867,2883.3,-9.4598e-05,3.503,-9.6131e-05,-8.0154,0.67383
708,10.167,2.4161,0.1,0.00033107,3308.4,0.00033135,3316.7,-0.00010741,19.988,-0.00011053,-3.4032,0.51772
709,10.599,1.8133,0.1,0.00032006,3198.4,0.00032023,3203.4,-0.00010464,11.08,-0.00010626,-1.0823,0.55759
710,8.9662,2.4184,0.1,0.00036304,3627.9,0.00036374,3649.1,-0.0001156,47.508,-0.00012252,-4.4969,0.41024
711,9.4177,1.8192,0.1,0.00035186,3516.2,0.00035232,3529.9,-0.00011379,27.769,-0.00011749,-0.083646,0.44827
712,7.7618,2.4188,0.1,0.00039473,3944.5,0.00039613,3987.6,-0.00012201,94.495,-0.00013545,-6.5361,0.31301
713,8.2376,1.8169,0.1,0.00038391,3836.4,0.00038481,3863.7,-0.0001219,56.461,-0.00012959,-1.3251,0.34883
714,6.5624,2.4151,0.1,0.00042508,4247.9,0.0004275,4324.9,-0.00012511,172.74,-0.0001498,-12.719,0.22761
715,7.0581,1.8127,0.1,0.0004156,4153.1,0.00041724,4203.4,-0.00012819,105.29,-0.00014254,-2.5116,0.26014
716,5.3626,2.4142,0.1,0.00045308,4527.6,0.00045719,4665.8,-0.00012249,310.29,-0.00016594,-16.173,0.15449
717,5.8757,1.8113,0.1,0.00044635,4460.5,0.00044905,4545.7,-0.00013135,184.8,-0.00015703,-8.1458,0.18287
718,4.164,2.4143,0.1,0.00047832,4779.9,0.00048369,4989.2,-0.00011036,525.71,-0.00018754,-54.241,0.094625
719,4.6927,1.8114,0.1,0.00047491,4745.8,0.00047954,4898.2,-0.00012923,324.16,-0.0001727,-2.4471,0.11812
720,2.9683,2.4137,0.1,0.00049969,4993.4,0.00051142,5459.4,-8.443e-05,982.39,-0.0002053,74.236,0.048784
721,3.5136,1.8117,0.1,0.00050095,5006,0.00050604,5205.2,-0.00011807,515.86,-0.00019559,-66.581,0.066897
722,13.613,4.1939,0.1,0.00024083,2406.6,0.00024037,2393.2,-7.8425e-05,-2.0819,-8.1423e-05,-24.608,0.87498
723,2.4055,3.0053,0.1,0.00050789,5075.4,0.00052578,5766.9,-6.7149e-05,1311.9,-0.00020956,241.8,0.032375
724,1.7738,2.4091,0.1,0.00055242,5520.4,0.00054525,5723.3,-4.4392e-05,1293,-0.00027783,-460.99,0.017525
725,2.3372,1.8116,0.1,0.00051832,5179.6,0.00053505,5775.3,-9.011e-05,1078.1,-0.00020427,220.37,0.02973
726,1.829,3.5986,0.1,0.00055166,5512.8,0.00054429,5710.1,-4.4369e-05,1287.1,-0.00027772,-466.18,0.018606
727,2.4732,4.1965,0.1,0.00051639,5160.3,0.00053315,5754,-9.0526e-05,1068,-0.00020291,223.57,0.033244
728,21.965,2.2136,0.1,4.2035e-05,420.06,4.2144e-05,423.35,-1.3321e-05,6.5997,-1.4193e-05,0.045687,1.9603
729,21.21,2.6959,0.1,5.438e-05,543.42,5.5055e-05,571.4,-1.1536e-05,71.059,-2.1889e-05,-6.7244,1.8542
730,20.522,1.9077,0.1,6.7262e-05,672.15,6.7807e-05,690,-1.8798e-05,39.281,-2.4254e-05,-1.7143,1.7579
731,14.398,4.8199,0.1,0.00021932,2191.7,0.0002184,2165.1,-7.0927e-05,-8.7788,-7.5602e-05,-43.902,0.96394
732,15.693,4.8713,0.1,0.00018151,1813.8,0.00017982,1765.3,-5.7904e-05,-20.815,-6.511e-05,-74.956,1.1188
733,15.186,5.4167,0.1,0.00019383,1936.9,0.0001921,1887.6,-6.1569e-05,-18.42,-6.9623e-05,-78.939,1.0556
734,22.646,2.8843,0.1,2.9866e-05,298.45,2.9642e-05,294.61,-7.6731e-06,14.234,-1.2112e-05,-19.119,2.0567
735,21.891,3.3666,0.1,4.1873e-05,418.44,4.2579e-05,442.86,-9.8159e-06,49.183,-1.5906e-05,3.4246,1.95
736,22.692,4.0468,0.1,2.9028e-05,290.08,2.8674e-05,282.49,-7.5183e-06,10.549,-1.1963e-05,-22.847,2.063
737,23.318,3.5267,0.1,2.3833e-05,238.16,2.3048e-05,226.76,-3.7668e-06,25.285,-1.1933e-05,-36.075,2.1518
738,22.707,1.7407,0.1,2.8811e-05,287.91,2.8531e-05,281.7,-7.776e-06,8.8984,-1.1523e-05,-19.256,2.0651
739,23.328,2.3576,0.1,2.3575e-05,235.58,2.2969e-05,226.37,-4.3069e-06,21.429,-1.1286e-05,-31.013,2.1532
740,1.1973,3.0023,0.1,0.00059926,5988.5,0.00056233,5655.7,-2.0197e-05,1278.8,-0.00034597,-1168.9,0.0080398
741,1.1635,1.807,0.1,0.00058195,5815.5,0.00055056,5502.1,-3.6841e-05,1088.6,-0.00032648,-1087.6,0.0073349
742,0.58836,2.4025,0.1,0.00049858,4982.3,0.0005568,6917.4,-9.0482e-06,2665.9,-0.00017286,1435.1,0.0019323
743,1.2354,4.1998,0.1,0.0005815,5811,0.00054985,5488.3,-3.7342e-05,1076.3,-0.00032644,-1095.9,0.0082594
744,0.60894,3.5998,0.1,0.00049805,4977.1,0.000556,6906.2,-8.7217e-06,2663.1,-0.00017312,1427.8,0.0020653
745,1.8796,4.7977,0.1,0.00054388,5435.1,0.00054043,5545.2,-8.5187e-05,844.53,-0.00025167,-406.32,0.018277
746,0.62649,4.7999,0.1,0.00047269,4723.6,0.00052949,6538.5,-2.4799e-05,2373.8,-0.00015363,1405.9,0.0020426
747,1.2665,5.3999,0.1,0.00056492,5645.3,0.00054636,5381.8,-8.7871e-05,616.42,-0.00028343,-852.93,0.0074411
748,3.1314,4.8016,0.1,0.00051553,5151.8,0.00052523,5472.8,-0.00012442,591.6,-0.00019151,87.517,0.051574
749,2.5331,5.3977,0.1,0.00055224,5518.6,0.00056555,5938.2,-0.00013615,665.87,-0.00019781,202.56,0.031487
750,4.3846,4.8075,0.1,0.00048918,4888.4,0.00049332,5024,-0.00013618,294.11,-0.0001765,-8.8185,0.10126
751,3.7983,5.4038,0.1,0.00052012,5197.6,0.00052438,5333.7,-0.00014813,280.75,-0.00018514,2.6297,0.073154
752,5.6407,4.8072,0.1,0.00045665,4563.3,0.00045965,4656.3,-0.00013575,182.73,-0.00015898,8.1721,0.16665
753,5.0663,5.4037,0.1,0.00048081,4804.8,0.00048424,4909.1,-0.00014459,184.42,-0.00016539,28.111,0.1317
754,6.8981,4.8072,0.1,0.00042246,4221.7,0.00042415,4273.2,-0.00013091,102.62,-0.00014429,2.1023,0.24664
755,6.3344,5.4034,0.1,0.00044298,4426.8,0.00044477,4480.8,-0.00013806,101.62,-0.00015053,7.8802,0.20583
756,8.1572,4.8082,0.1,0.00038768,3874.1,0.00038858,3901,-0.00012346,53.743,-0.00013054,0.57555,0.34017
757,7.6036,5.4037,0.1,0.00040599,4057.1,0.00040686,4083.2,-0.00013009,48.754,-0.00013606,3.8712,0.29434
758,9.4176,4.8087,0.1,0.00035288,3526.4,0.00035326,3537.5,-0.0001144,23.775,-0.00011774,-1.3358,0.44613
759,8.8736,5.4045,0.1,0.0003697,3694.5,0.00036994,3701.5,-0.00012075,14.653,-0.00012277,-0.54313,0.39602
760,10.675,4.8083,0.1,0.00031851,3182.9,0.00031856,3184.5,-0.00010436,6.8219,-0.00010575,-3.6167,0.56302
761,10.144,5.4043,0.1,0.00033413,3339,0.00033397,3334.4,-0.0001098,0.086813,-0.00011104,-9.2762,0.50966
762,11.927,4.8036,0.1,0.00028491,2847.1,0.00028474,2842.3,-9.351e-05,0.25881,-9.4857e-05,-9.863,0.6894
763,11.411,5.4041,0.1,0.00029936,2991.6,0.00029893,2978.9,-9.7912e-05,-2.8437,-0.00010052,-22.474,0.63371
764,13.168,4.8028,0.1,0.00025223,2520.5,0.00025181,2508.3,-8.2662e-05,-4.7687,-8.4633e-05,-19.576,0.8235
765,12.676,5.3995,0.1,0.00026523,2650.5,0.00026457,2631.4,-8.6237e-05,-4.4758,-9.01e-05,-33.503,0.76712
766,13.932,5.4032,0.1,0.00023124,2310.8,0.00023016,2279.5,-7.4852e-05,-12.216,-7.9865e-05,-49.884,0.90796
767,23.379,1.1831,0.1,2.1261e-05,212.47,2.0711e-05,204.7,-3.7088e-06,21.219,-1.0271e-05,-28.087,2.1601
768,22.795,0.5831,0.1,2.6255e-05,262.37,2.568e-05,247.83,-7.1387e-06,1.2432,-1.1016e-05,-27.886,2.0772
769,14.64,1.2866,0.1,0.00021382,2136.8,0.00021307,2115.3,-6.7982e-05,3.6403,-7.4544e-05,-45.667,0.99265
770,14.971,0.68102,0.1,0.0002044,2042.6,0.0002033,2011,-6.5211e-05,-6.4101,-7.1778e-05,-55.751,1.0302
771,13.357,1.1897,0.1,0.00024702,2468.5,0.00024677,2461.2,-8.067e-05,0.97406,-8.285e-05,-15.406,0.84462
772,13.731,0.60554,0.1,0.00023522,2350.6,0.00023573,2365.7,-7.5224e-05,29.359,-7.8972e-05,1.2029,0.88497
773,12.171,1.1804,0.1,0.00027779,2776,0.00027774,2774.6,-9.0681e-05,6.454,-9.2746e-05,-9.0631,0.71507
774,12.563,0.58412,0.1,0.00026727,2670.9,0.00026766,2682.4,-8.6715e-05,19.739,-8.8899e-05,3.3312,0.75487
775,11.012,1.2011,0.1,0.00030929,3090.7,0.00030937,3093.2,-0.00010134,7.3404,-0.00010262,-2.3108,0.59612
776,11.42,0.59631,0.1,0.00029848,2982.7,0.0002989,2995,-9.7155e-05,19.214,-9.9006e-05,5.3054,0.63465
777,9.849,1.2164,0.1,0.00034094,3407,0.00034128,3417.3,-0.00011115,17.854,-0.00011317,2.6538,0.48515
778,10.279,0.60477,0.1,0.0003298,3295.8,0.00033037,3312.4,-0.00010687,27.223,-0.00010966,6.2514,0.52248
779,8.689,1.2178,0.1,0.00037278,3725.2,0.00037344,3744.9,-0.00012014,36.273,-0.00012455,3.161,0.38357
780,9.1323,0.61162,0.1,0.00036174,3614.9,0.00036252,3638,-0.00011656,38.408,-0.00012061,7.9887,0.41835
781,7.5338,1.2108,0.1,0.00040479,4045.1,0.00040594,4079.7,-0.00012809,67.158,-0.00013667,2.6941,0.29236
782,7.9942,0.60616,0.1,0.00039432,3940.5,0.00039542,3973.4,-0.00012566,58.239,-0.00013232,8.1761,0.32436
783,6.3714,1.2089,0.1,0.00043684,4365.4,0.00043876,4424,-0.00013439,117.58,-0.00014977,2.0264,0.21152
784,6.8521,0.60461,0.1,0.00042756,4272.6,0.00042924,4323.3,-0.00013397,91.456,-0.00014469,10.919,0.24034
785,5.2058,1.2086,0.1,0.00046817,4678.4,0.00047135,4777.7,-0.00013803,199.07,-0.0001638,5.4926,0.14239
786,5.7068,0.60429,0.1,0.00046143,4611.1,0.00046393,4687.3,-0.00014095,142.48,-0.00015823,12.602,0.16733
787,4.0423,1.2089,0.1,0.00049768,4973.4,0.00050195,5114.7,-0.00013698,314.04,-0.00018077,-14.985,0.086172
788,4.5615,0.60427,0.1,0.00049581,4954.7,0.0004999,5080.4,-0.00014619,225.89,-0.0001721,31.2,0.1065
789,2.8825,1.2096,0.1,0.00052058,5202.2,0.00053024,5525.4,-0.00012431,607.35,-0.00019457,79.421,0.043665
790,3.4183,0.6046,0.1,0.00053176,5313.9,0.00053643,5465.3,-0.00014863,318.02,-0.00019107,-0.82753,0.058836
791,1.7268,1.2095,0.1,0.00054567,5452.9,0.00054223,5568.1,-8.44e-05,859.92,-0.00025295,-406.52,0.015394
792,2.2767,0.60497,0.1,0.00055839,5580,0.00057133,5988.7,-0.00013833,656.61,-0.00020043,190.06,0.02512
793,0.57509,1.2046,0.1,0.0004719,4715.7,0.00052858,6530,-2.3918e-05,2378.8,-0.00015383,1402.7,0.0017165
794,1.1376,0.60456,0.1,0.00056152,5611.3,0.00054348,5353.8,-8.8749e-05,603.54,-0.00028053,-837.42,0.0059035
795,20.648,3.5549,0.1,7.0456e-05,704.07,7.1464e-05,749.07,-1.3095e-05,113.72,-2.9282e-05,-7.8944,1.7756
796,21.398,3.9726,0.1,4.9912e-05,498.78,5.0685e-05,527.49,-1.1025e-05,63.824,-1.9548e-05,-0.21504,1.8805
797,19.814,0.72323,0.1,6.613e-05,660.85,6.5217e-05,637.08,-1.9005e-05,4.2743,-2.6045e-05,-48.625,1.6589
798,20.054,1.2668,0.1,7.4579e-05,745.27,7.4608e-05,746.29,-2.3718e-05,7.5045,-2.5424e-05,-5.3124,1.6926
799,20.419,0.41507,0.1,6.6142e-05,660.96,6.4999e-05,628.58,-2.0695e-05,-15.289,-2.508e-05,-48.239,1.7427
800,20.453,4.3371,0.1,7.3535e-05,734.84,7.444e-05,766,-1.8531e-05,67.46,-2.7566e-05,-0.43074,1.748
801,19.786,3.4982,0.1,0.00010701,1069.4,0.00010928,1150.9,-2.2254e-05,162.57,-4.1811e-05,15.619,1.6559
802,18.729,0.55816,0.1,5.9198e-05,591.57,6.1621e-05,665.1,-1.4074e-05,96.355,-1.9834e-05,53.077,1.509
803,19.312,0.30816,0.1,6.1621e-05,615.79,6.0028e-05,572.47,-1.8071e-05,-14.336,-2.5305e-05,-68.695,1.589
804,16.763,4.7256,0.1,0.0001709,1707.8,0.00016385,1530.1,-4.3995e-05,-31.61,-7.886e-05,-293.57,1.2521
805,16.833,5.1475,0.1,0.00013736,1372.7,0.0001347,1298.9,-4.1682e-05,-26.409,-5.3698e-05,-116.69,1.2597
806,16.507,5.4546,0.1,0.00014857,1484.7,0.00014522,1391.7,-4.4863e-05,-36.526,-5.9138e-05,-143.78,1.2178
807,17.575,4.521,0.1,0.00020152,2013.8,0.00018346,1613.2,-3.6056e-05,-36.214,-0.00011522,-631.04,1.3561
808,21.203,4.7548,0.1,5.3218e-05,531.81,5.3622e-05,544.13,-1.5913e-05,21.675,-1.8341e-05,3.4307,1.8527
809,20.357,5.0002,0.1,6.672e-05,666.74,6.6703e-05,667.08,-2.0136e-05,14.603,-2.3818e-05,-13.057,1.7342
810,20.92,5.4221,0.1,5.8214e-05,581.74,5.821e-05,581.98,-1.8053e-05,8.974,-2.0327e-05,-8.1112,1.8125
811,22.199,4.6528,0.1,3.6788e-05,367.62,3.6753e-05,366.92,-1.1331e-05,5.6311,-1.2976e-05,-6.7285,1.993
812,21.852,5.3327,0.1,4.2909e-05,428.79,4.2316e-05,412.92,-1.2642e-05,-0.017239,-1.6651e-05,-30.142,1.9437
813,22.888,5.32,0.1,2.4411e-05,243.95,2.3647e-05,225.18,-6.2265e-06,0.72164,-1.0906e-05,-34.441,2.0902
814,23.374,4.72,0.1,2.2045e-05,220.3,2.1424e-05,210.98,-3.8413e-06,21.147,-1.0725e-05,-30.576,2.1594
815,19.532,5.2611,0.1,6.676e-05,667.14,6.6195e-05,651.21,-2.0909e-05,-3.2569,-2.419e-05,-27.904,1.6196
816,20.034,5.5781,0.1,6.9421e-05,693.73,6.8615e-05,670.36,-2.2511e-05,-14.323,-2.4874e-05,-32.079,1.6888
817,18.969,1.6017,0.1,0.0001071,1070.3,0.00010715,1109.1,-1.7245e-05,174.39,-4.8229e-05,-58.416,1.5431
818,17.545,0.51082,0.1,8.2251e-05,821.95,8.3717e-05,869.64,-2.0555e-05,86.178,-3.0166e-05,13.966,1.3488
819,16.983,0.26082,0.1,0.00010825,1081.8,0.00010754,1066.9,-2.9633e-05,36.288,-4.2396e-05,-59.609,1.2766
820,19.028,5.065,0.1,7.4084e-05,740.33,7.2773e-05,708.98,-1.9591e-05,14.987,-3.0943e-05,-70.304,1.5504
821,18.637,5.433,0.1,5.0144e-05,501.09,5.1778e-05,551.01,-1.2396e-05,68.822,-1.7172e-05,32.938,1.4961
822,19.123,5.683,0.1,5.7665e-05,576.25,5.7005e-05,559.4,-1.6521e-05,6.9605,-2.2508e-05,-38.026,1.5626
823,18.558,4.882,0.1,7.7324e-05,772.71,7.8613e-05,810.75,-2.3375e-05,44.448,-2.5059e-05,31.799,1.4862
824,17.646,5.443,0.1,7.6831e-05,767.78,7.7438e-05,792.08,-1.8823e-05,68.809,-2.9786e-05,-13.565,1.3617
825,17.326,5.693,0.1,9.5767e-05,957.01,9.331e-05,903.68,-2.2308e-05,34.966,-4.3224e-05,-122.19,1.32
826,17.489,1.4099,0.1,0.00018028,1801.5,0.00016154,1408.8,-2.6245e-05,-2.1246,-0.00010854,-620.47,1.3448
827,18.314,3.9642,0.1,0.00034534,3451,0.00034675,3511.5,-9.1323e-05,220,-0.00013117,-79.411,1.4547
828,17.803,2.4624,0.1,0.0002843,2841,0.0002696,2517.1,-5.8078e-05,55.097,-0.00014413,-591.44,1.388
829,17.803,3.4624,0.1,0.00027611,2759.2,0.0002633,2482.5,-5.6308e-05,81.116,-0.00013785,-531.57,1.388
830,18.167,0.75,0.1,0.00011011,1100.4,0.00010987,1104.5,-2.7152e-05,74.996,-4.4462e-05,-55.063,1.4323
831,18.167,0.25,0.1,4.9889e-05,498.55,5.3901e-05,626.7,-6.1871e-06,175.23,-1.7311e-05,91.65,1.4314
832,18.167,0.5,0.05,1.0084e-05,100.77,7.7434e-06,58.181,2.2779e-13,1.664e-05,-7.7434e-06,-58.181,1.4318
833,18.167,1.25,0.1,0.00014405,1439.5,0.00014336,1419.4,-4.7085e-05,-11.554,-4.9346e-05,-28.548,1.4333
834,18.167,1,0.05,2.9677e-05,296.57,2.2788e-05,171.22,-3.2622e-14,6.6451e-06,-2.2788e-05,-171.22,1.4328
835,18.167,1.75,0.1,0.00025102,2508.5,0.00026117,2821.4,-5.6704e-05,433,-8.6666e-05,207.88,1.4343
836,18.167,1.5,0.05,2.5501e-05,254.83,1.9582e-05,147.13,3.4497e-13,2.7642e-06,-1.9582e-05,-147.13,1.4338
837,18.083,2,0.1,0.00031729,3170.7,0.00033114,3581,-8.2569e-05,472.56,-9.8696e-05,351.38,1.4239
838,18.167,2,0.05,2.7464e-05,274.45,2.1089e-05,158.45,3.5768e-13,3.3902e-05,-2.1089e-05,-158.45,1.4349
839,18,1.75,0.1,0.00026873,2685.4,0.00025239,2394.5,-3.6952e-05,220.52,-0.00014713,-607.34,1.412
840,18,2,0.05,3.4239e-05,342.16,2.6292e-05,197.54,-4.9715e-13,4.4029e-05,-2.6292e-05,-197.54,1.4128
841,18,1.25,0.1,0.00019577,1956.4,0.00016685,1423.8,-1.1605e-05,82.889,-0.00013193,-821.15,1.41
842,18,1.5,0.05,1.3824e-05,138.14,1.0615e-05,79.758,-3.1666e-12,2.0675e-06,-1.0615e-05,-79.758,1.411
843,18,0.75,0.1,0.00010835,1082.7,0.00010373,1015,-1.4745e-05,124.76,-5.6688e-05,-190.38,1.4077
844,18,1,0.05,3.8239e-05,382.13,2.9363e-05,220.62,3.7134e-13,1.0664e-05,-2.9363e-05,-220.62,1.4088
845,18,0.25,0.1,5.3767e-05,537.3,5.8435e-05,701.46,-1.9028e-06,248.1,-2.0551e-05,107.99,1.4056
846,18,0.5,0.05,8.0537e-06,80.482,6.1842e-06,46.466,1.3236e-12,1.7041e-05,-6.1842e-06,-46.466,1.4066
847,18.167,5.25,0.1,6.0077e-05,600.35,6.3182e-05,694.59,-1.3231e-05,120.45,-1.9803e-05,71.068,1.4319
848,18.167,5.75,0.1,3.4057e-05,340.33,3.6721e-05,441.05,-2.8507e-07,163,-1.3791e-05,61.521,1.431
849,18.167,5.5,0.05,5.4735e-06,54.697,4.2029e-06,31.579,1.1345e-12,1.6041e-05,-4.2029e-06,-31.579,1.4314
850,18.167,4.75,0.1,0.00012025,1201.7,0.00011916,1196.1,-2.5052e-05,112.58,-5.2855e-05,-96.318,1.4329
851,18.167,5,0.05,1.0254e-05,102.47,7.8738e-06,59.16,5.9126e-13,-1.6547e-06,-7.8738e-06,-59.16,1.4324
852,18.167,4.25,0.1,0.00028715,2869.5,0.00029009,2988.9,-6.5577e-05,316.54,-0.00011354,-43.822,1.4342
853,18.167,4.5,0.05,2.8034e-05,280.14,2.1526e-05,161.74,1.6435e-12,4.1046e-06,-2.1526e-05,-161.74,1.4335
854,18.083,4,0.1,0.00036401,3637.6,0.00037147,3867.7,-9.6408e-05,352.28,-0.00012743,119.21,1.4238
855,18.167,4,0.05,5.8139e-05,580.99,4.4643e-05,335.43,4.7351e-16,-7.4773e-09,-4.4643e-05,-335.43,1.4348
856,18,4.25,0.1,0.00028191,2817.2,0.0002693,2576.3,-4.9848e-05,178.32,-0.00014364,-526.39,1.412
857,18,4,0.05,2.5155e-05,251.38,1.9316e-05,145.13,7.4397e-13,6.165e-06,-1.9316e-05,-145.13,1.4128
858,18,4.75,0.1,0.00021143,2112.9,0.00018396,1592.5,-1.7894e-05,75.875,-0.00013723,-820.77,1.4099
859,18,4.5,0.05,1.9473e-05,194.59,1.4952e-05,112.35,1.4884e-12,3.7456e-05,-1.4952e-05,-112.35,1.4109
860,18,5.25,0.1,0.00010128,1012.1,9.2404e-05,892.33,-3.6805e-06,170.38,-6.1568e-05,-264.56,1.4077
861,18,5,0.05,4.5006e-05,449.74,3.4559e-05,259.66,5.1017e-13,1.9138e-07,-3.4559e-05,-259.66,1.4088
862,18,5.75,0.1,3.1794e-05,317.72,3.4906e-05,440.45,2.4375e-06,196.49,-1.2911e-05,81.174,1.4056
863,18,5.5,0.05,9.5907e-06,95.841,7.3645e-06,55.334,1.8257e-12,1.1018e-05,-7.3645e-06,-55.334,1.4066
864,18.653,6,0.1,4.0987e-05,409.58,4.2401e-05,452.85,-9.9429e-06,59.561,-1.4047e-05,28.725,1.4974
865,18.167,6,0.05,5.4891e-06,54.853,4.2149e-06,31.669,-1.371e-12,-6.7166e-06,-4.2149e-06,-31.669,1.4305
866,19.625,6,0.1,5.9512e-05,594.71,5.8763e-05,573.59,-1.8555e-05,-7.352,-2.21e-05,-33.991,1.6315
867,19.139,6,0.05,1.4571e-06,14.561,1.1189e-06,8.4066,3.9679e-13,1.3894e-05,-1.1189e-06,-8.4066,1.5643
868,20.597,6,0.1,6.0882e-05,608.4,6.0071e-05,584.88,-1.9794e-05,-15.193,-2.1966e-05,-31.51,1.7669
869,20.111,6,0.05,2.0715e-06,20.701,1.5907e-06,11.952,9.103e-13,1.1321e-05,-1.5907e-06,-11.952,1.699
870,21.569,6,0.1,4.8115e-05,480.81,4.7062e-05,451.95,-1.4321e-05,-9.2582,-1.9255e-05,-46.327,1.9033
871,21.083,6,0.05,2.2726e-06,22.71,1.7451e-06,13.112,8.7718e-13,1.1391e-05,-1.7451e-06,-13.112,1.8349
872,22.542,6,0.1,3.0972e-05,309.51,2.9508e-05,273.42,-7.6038e-06,-5.4259,-1.4814e-05,-59.6,2.0406
873,22.056,6,0.05,3.3599e-06,33.575,2.5799e-06,19.385,3.7011e-13,1.1732e-05,-2.5799e-06,-19.385,1.9719
874,23.514,6,0.1,1.6278e-05,162.67,1.495e-05,136.58,-2.2717e-06,7.1814,-9.3534e-06,-46.028,2.1785
875,23.028,6,0.05,2.4639e-06,24.622,1.892e-06,14.216,1.0353e-12,1.5178e-05,-1.892e-06,-14.216,2.1095
876,24,5.4,0.1,1.4222e-05,142.12,1.2669e-05,121.94,8.3455e-08,27.382,-9.0836e-06,-41.496,2.2479
877,24,6,0.05,1.4702e-06,14.692,1.1289e-06,8.4824,2.0285e-12,2.1511e-05,-1.1289e-06,-8.4824,2.2475
878,24,4.2,0.1,1.741e-05,173.98,1.5815e-05,155.39,-4.6848e-08,36.205,-1.0756e-05,-44.255,2.2484
879,24,4.8,0.05,1.4217e-06,14.208,1.0917e-06,8.2028,5.5506e-13,1.145e-05,-1.0917e-06,-8.2028,2.2482
880,24,3,0.1,1.8059e-05,180.47,1.6421e-05,158.87,-4.8136e-07,31.874,-1.1073e-05,-47.709,2.2486
881,24,3.6,0.05,1.9258e-06,19.245,1.4788e-06,11.111,4.5585e-13,9.5428e-06,-1.4788e-06,-11.111,2.2485
882,24,1.8,0.1,1.664e-05,166.28,1.5241e-05,150.06,-2.6208e-07,33.581,-1.0104e-05,-40.365,2.2485
883,24,2.4,0.05,2.5839e-06,25.821,1.9841e-06,14.908,2.2737e-13,8.5831e-06,-1.9841e-06,-14.908,2.2485
884,24,0.6,0.1,1.3631e-05,136.22,1.2674e-05,127.75,-1.4499e-07,31.436,-8.0686e-06,-28.099,2.248
885,24,1.2,0.05,2.0372e-06,20.358,1.5643e-06,11.754,3.2485e-13,1.103e-05,-1.5643e-06,-11.754,2.2483
886,1.5735e-14,1.8,0.1,0.00040198,4017,0.00053591,7953.6,2.6096e-06,3946.5,-3.7205e-08,3926.7,0
887,5.2451e-15,0.6,0.1,0.00032962,3293.9,0.00043628,6430.1,2.563e-06,3171.2,-6.6309e-06,3102.2,0
888,1.0632e-14,1.2,0.05,2.3911e-05,238.94,1.8361e-05,137.95,-8.9105e-14,-7.2124e-07,-1.8361e-05,-137.95,0
889,2.6226e-14,3,0.1,0.00041285,4125.6,0.00055034,8166.9,2.785e-06,4052.8,-2.5889e-07,4029.9,0
890,2.1264e-14,2.4,0.05,1.3761e-05,137.51,1.0566e-05,79.392,-1.7904e-21,5.935e-05,-1.0566e-05,-79.392,0
891,3.6716e-14,4.2,0.1,0.00040277,4024.9,0.00053684,7965.4,2.3908e-06,3949.8,-7.8035e-08,3931.2,0
892,3.1897e-14,3.6,0.05,1.4439e-05,144.29,1.1088e-05,83.307,-5.1003e-14,-4.2785e-07,-1.1088e-05,-83.307,0
893,4.7206e-14,5.4,0.1,0.00033936,3391.3,0.00044891,6612.4,2.9224e-06,3261.4,-7.6188e-06,3182.2,0
894,4.2529e-14,4.8,0.05,2.963e-05,296.1,2.2752e-05,170.95,-4.8261e-21,-3.6261e-14,-2.2752e-05,-170.95,0
895,0.64,6,0.1,0.00042663,4263.4,0.00046508,5450.4,-6.0051e-05,1504.8,-0.00013682,927.99,0.0014238
896,5.2451e-14,6,0.05,0.00016196,1618.5,0.00012437,934.44,-2.638e-20,-0.00012204,-0.00012437,-934.44,0
897,1.92,6,0.1,0.00057126,5708.7,0.00057151,5775,-0.00013898,436.69,-0.00022946,-243.15,0.015244
898,1.28,6,0.05,2.0954e-05,209.4,1.609e-05,120.9,1.173e-13,-2.5644e-14,-1.609e-05,-120.9,0.0061932
899,3.2,6,0.1,0.00055534,5549.6,0.00056315,5787.5,-0.00015808,368.37,-0.00019168,115.96,0.047633
900,2.56,6,0.05,1.36e-05,135.91,1.0443e-05,78.467,-2.2152e-21,-1.6644e-14,-1.0443e-05,-78.467,0.029005
901,4.48,6,0.1,0.00051144,5110.9,0.00051494,5216.2,-0.00015618,173.72,-0.00017403,39.571,0.098448
902,3.84,6,0.05,3.4198e-06,34.174,2.6259e-06,19.73,-5.57e-22,-4.1851e-15,-2.6259e-06,-19.73,0.070793
903,5.76,6,0.1,0.00046712,4668,0.00046931,4733.3,-0.00014684,103.72,-0.00015695,27.768,0.16615
904,5.12,6,0.05,3.0341e-06,30.32,2.3298e-06,17.505,-4.9418e-22,-1.2635e-05,-2.3298e-06,-17.505,0.13025
905,7.04,6,0.1,0.00042655,4262.6,0.00042751,4291,-0.00013727,47.5,-0.0001423,9.6883,0.24921
906,6.4,6,0.05,4.5808e-06,45.777,3.5175e-06,26.429,3.6129e-14,-3.0307e-07,-3.5175e-06,-26.429,0.20581
907,8.32,6,0.1,0.0003881,3878.3,0.0003883,3884.2,-0.00012738,9.6161,-0.00012836,2.2893,0.34626
908,7.68,6,0.05,4.8908e-06,48.874,3.7555e-06,28.218,-7.9661e-22,1.9064e-06,-3.7555e-06,-28.218,0.29604
909,9.6,6,0.1,0.00035107,3508.3,0.00035076,3499.1,-0.00011499,-0.29058,-0.00011734,-17.949,0.456
910,8.96,6,0.05,5.0495e-06,50.461,3.8774e-06,29.133,-8.2246e-22,-1.6098e-14,-3.8774e-06,-29.133,0.39959
911,10.88,6,0.1,0.00031512,3149,0.00031445,3129.6,-0.00010259,-3.8488,-0.0001067,-34.722,0.5772
912,10.24,6,0.05,5.1395e-06,51.359,3.9465e-06,29.652,1.6888e-12,5.6971e-06,-3.9465e-06,-29.652,0.51522
913,12.16,6,0.1,0.00027984,2796.5,0.00027889,2768.9,-9.047e-05,-6.3077,-9.6068e-05,-48.368,0.70865
914,11.52,6,0.05,5.2039e-06,52.003,3.996e-06,30.024,1.7817e-12,2.6558e-06,-3.996e-06,-30.024,0.64169
915,13.44,6,0.1,0.00024442,2442.6,0.00024307,2403.7,-7.8381e-05,-11.581,-8.5524e-05,-65.255,0.84919
916,12.8,6,0.05,5.0771e-06,50.736,3.8986e-06,29.292,1.5933e-12,3.6859e-06,-3.8986e-06,-29.292,0.77783
917,14.72,6,0.1,0.00020589,2057.5,0.00020398,2002.9,-6.5484e-05,-21.789,-7.4017e-05,-85.902,0.99764
918,14.08,6,0.05,4.8703e-06,48.669,3.7398e-06,28.099,-7.9326e-22,4.832e-06,-3.7398e-06,-28.099,0.92248
919,16,6,0.1,0.00016002,1599.1,0.00015674,1508.2,-4.8514e-05,-34.026,-6.2911e-05,-142.2,1.1527
920,15.36,6,0.05,4.8423e-06,48.39,3.7183e-06,27.938,1.818e-12,9.6194e-06,-3.7183e-06,-27.938,1.0744
921,17,6,0.1,0.00010552,1054.5,0.00010253,986.77,-2.5118e-05,27.633,-4.7747e-05,-142.39,1.2776
922,16.64,6,0.05,1.8025e-06,18.012,1.3841e-06,10.399,6.5262e-14,2.2885e-07,-1.3841e-06,-10.399,1.2323
923,17.68,6,0.1,5.3332e-05,532.95,5.4934e-05,583.28,-1.2546e-05,76.253,-1.9005e-05,27.723,1.3638
924,17.36,6,0.05,5.4831e-06,54.793,4.2103e-06,31.635,4.1023e-13,5.3594e-06,-4.2103e-06,-31.635,1.3231
925,18,6,0.05,1.8385e-05,183.72,1.4117e-05,106.07,-6.5518e-13,2.5189e-06,-1.4117e-05,-106.07,1.4045
926,23.417,0,0.1,1.8405e-05,183.92,1.7762e-05,171.78,-3.5189e-06,11.881,-8.9883e-06,-29.214,2.1649
927,24,0,0.05,1.8731e-06,18.718,1.4383e-06,10.807,1.6227e-12,1.8273e-05,-1.4383e-06,-10.807,2.2477
928,22.25,0,0.1,3.4871e-05,348.47,3.4112e-05,329.43,-9.4092e-06,2.4331,-1.4675e-05,-37.13,1.9997
929,22.833,0,0.05,2.4341e-06,24.324,1.8691e-06,14.044,1.3366e-12,1.7817e-05,-1.8691e-06,-14.044,2.0822
930,21.083,0,0.1,5.4382e-05,543.45,5.3364e-05,514.85,-1.6778e-05,-12.165,-2.0968e-05,-43.652,1.8353
931,21.667,0,0.05,2.5568e-06,25.55,1.9633e-06,14.752,1.0528e-12,1.7193e-05,-1.9633e-06,-14.752,1.9173
932,19.917,0,0.1,6.1558e-05,615.16,5.9787e-05,563.78,-2.0414e-05,-38.808,-2.3662e-05,-63.216,1.6723
933,20.5,0,0.05,3.4498e-06,34.474,2.649e-06,19.904,1.259e-12,1.203e-05,-2.649e-06,-19.904,1.7536
934,18.75,0,0.1,4.8276e-05,482.43,4.9215e-05,510.84,-1.3389e-05,40.453,-1.6483e-05,17.205,1.5111
935,19.333,0,0.05,4.1219e-07,4.1191,3.1651e-07,2.3782,1.4133e-12,1.5357e-05,-3.1651e-07,-2.3782,1.5915
936,18.167,0,0.05,3.1289e-06,31.268,2.4026e-06,18.053,-1.9384e-13,-1.105e-06,-2.4026e-06,-18.053,1.4309
937,17.438,2.7031e-30,0.1,8.1034e-05,809.78,8.4328e-05,914.32,-1.6755e-05,154.83,-2.908e-05,62.222,1.333
938,18,2.7903e-30,0.05,1.1716e-05,117.07,8.9961e-06,67.593,6.5167e-13,5.8125e-06,-8.9961e-06,-67.593,1.4045
939,16.313,2.5287e-30,0.1,0.00013337,1332.8,0.00013459,1368.9,-4.1395e-05,46.643,-4.4151e-05,25.94,1.1916
940,16.875,0,0.05,7.1684e-06,71.634,5.5044e-06,41.358,9.5525e-13,3.8039e-06,-5.5044e-06,-41.358,1.262
941,15.188,2.3543e-30,0.1,0.00018945,1893.2,0.00018876,1873.9,-5.9932e-05,5.2518,-6.6365e-05,-43.086,1.0536
942,15.75,0,0.05,9.2591e-06,92.527,7.1098e-06,53.421,8.7359e-14,1.0218e-05,-7.1098e-06,-53.42,1.1221
943,14.063,2.1799e-30,0.1,0.00022574,2255.9,0.00022591,2261.1,-7.2408e-05,19.649,-7.6208e-05,-8.9013,0.92055
944,14.625,0,0.05,2.9972e-06,29.952,2.3015e-06,17.293,3.0825e-12,2.5104e-05,-2.3015e-06,-17.293,0.98641
945,12.938,2.0055e-30,0.1,0.00025572,2555.4,0.00025681,2588.3,-7.9768e-05,59.403,-8.6712e-05,7.2313,0.79307
946,13.5,0,0.05,4.3965e-06,43.935,3.376e-06,25.366,5.77e-14,5.6608e-06,-3.376e-06,-25.366,0.85603
947,11.813,1.8311e-30,0.1,0.00028812,2879.2,0.00028894,2903.7,-9.2093e-05,40.74,-9.6382e-05,8.5124,0.67205
948,12.375,0,0.05,6.098e-06,60.938,4.6825e-06,35.182,-1.4298e-12,6.3645e-06,-4.6825e-06,-35.182,0.73168
949,10.688,1.6568e-30,0.1,0.00031911,3188.9,0.00031999,3214.9,-0.00010241,41.209,-0.00010642,11.029,0.55832
950,11.25,0,0.05,5.4254e-06,54.216,4.166e-06,31.302,-3.2233e-12,5.1283e-06,-4.166e-06,-31.302,0.6142
951,9.5625,1.4824e-30,0.1,0.0003507,3504.6,0.00035169,3533.8,-0.00011234,47.319,-0.00011712,11.422,0.45264
952,10.125,0,0.05,5.0608e-06,50.573,3.8861e-06,29.199,-1.3486e-12,9.3681e-06,-3.8861e-06,-29.198,0.5044
953,8.4375,1.308e-30,0.1,0.00038334,3830.8,0.00038456,3867,-0.00012214,59.861,-0.00012837,13.054,0.35584
954,9,0,0.05,4.9467e-06,49.433,3.7985e-06,28.54,5.2636e-13,4.5484e-06,-3.7985e-06,-28.54,0.40306
955,7.3125,1.1336e-30,0.1,0.00041711,4168.2,0.00041875,4217.2,-0.00013157,82.336,-0.00014034,16.413,0.26876
956,7.875,0,0.05,4.8441e-06,48.407,3.7196e-06,27.948,-3.4676e-12,6.625e-06,-3.7196e-06,-27.948,0.311
957,6.1875,9.5917e-31,0.1,0.00045212,4518.1,0.00045439,4586.3,-0.00014049,116.64,-0.00015316,21.429,0.19226
958,6.75,0,0.05,4.5548e-06,45.516,3.4975e-06,26.279,-3.356e-21,7.8075e-06,-3.4975e-06,-26.279,0.2291
959,5.0625,7.8478e-31,0.1,0.00048894,4886,0.00049236,4989,-0.00014896,170.41,-0.00016656,38.158,0.12726
960,5.625,0,0.05,4.0425e-06,40.397,3.1041e-06,23.323,-3.1175e-12,-4.6122e-08,-3.1041e-06,-23.323,0.15823
961,3.9375,6.1038e-31,0.1,0.00052947,5291,0.00053395,5427.7,-0.00015741,233.08,-0.0001824,45.361,0.074717
962,4.5,0,0.05,2.5875e-06,25.857,1.9869e-06,14.929,-1.5831e-12,7.0843e-05,-1.9869e-06,-14.929,0.099333
963,2.8125,4.3599e-31,0.1,0.00056838,5679.8,0.00057618,5918.6,-0.00016118,378.38,-0.00019706,108.75,0.035694
964,3.375,0,0.05,4.6625e-06,46.593,3.5803e-06,26.901,4.8944e-13,-5.706e-15,-3.5802e-06,-26.901,0.053408
965,1.6875,2.6159e-31,0.1,0.00057344,5730.4,0.00057339,5780.6,-0.00014349,394.15,-0.00022802,-240.93,0.011208
966,2.25,0,0.05,1.412e-05,141.1,1.0842e-05,81.465,-2.2998e-21,2.2496e-06,-1.0842e-05,-81.465,0.021543
967,0.5625,8.7198e-32,0.1,0.00041489,4146,0.00045071,5250.3,-6.1587e-05,1401.1,-0.00013354,860.51,0.0010211
968,1.125,0,0.05,2.1765e-05,217.5,1.6713e-05,125.57,-6.5786e-13,4.379e-05,-1.6713e-05,-125.57,0.0044907
969,0,0,0.05,0.00015318,1530.7,0.00011762,883.77,1.0141e-14,0.00012215,-0.00011762,-883.77,0
970,1.6875,2.6159e-31,0,0.00057344,5730.4,0.00022802,240.93,0.00014349,-394.15,-0.00057339,-5780.6,0.011208
971,0.5625,8.7198e-32,0,0.00041489,4146,0.00013354,-860.51,6.1587e-05,-1401.1,-0.00045071,-5250.3,0.0010211
972,2.8125,4.3599e-31,0,0.00056838,5679.8,0.00019706,-108.75,0.00016118,-378.38,-0.00057618,-5918.6,0.035694
973,3.9375,6.1038e-31,0,0.00052947,5291,0.0001824,-45.361,0.00015741,-233.08,-0.00053395,-5427.7,0.074717
974,5.0625,7.8478e-31,0,0.00048894,4886,0.00016656,-38.158,0.00014896,-170.41,-0.00049236,-4989,0.12726
975,6.1875,9.5917e-31,0,0.00045212,4518.1,0.00015316,-21.429,0.00014049,-116.64,-0.00045439,-4586.3,0.19226
976,7.3125,1.1336e-30,0,0.00041711,4168.2,0.00014034,-16.413,0.00013157,-82.336,-0.00041875,-4217.2,0.26876
977,8.4375,1.308e-30,0,0.00038334,3830.8,0.00012837,-13.054,0.00012214,-59.861,-0.00038456,-3867,0.35584
978,9.5625,1.4824e-30,0,0.0003507,3504.6,0.00011712,-11.422,0.00011234,-47.319,-0.00035169,-3533.8,0.45264
979,10.688,1.6568e-30,0,0.00031911,3188.9,0.00010642,-11.029,0.00010241,-41.209,-0.00031999,-3214.9,0.55832
980,11.813,1.8311e-30,0,0.00028812,2879.2,9.6382e-05,-8.5124,9.2093e-05,-40.74,-0.00028894,-2903.7,0.67205
981,12.938,2.0055e-30,0,0.00025572,2555.4,8.6712e-05,-7.2313,7.9768e-05,-59.403,-0.00025681,-2588.3,0.79307
982,14.063,2.1799e-30,0,0.00022574,2255.9,7.6208e-05,8.9013,7.2408e-05,-19.649,-0.00022591,-2261.1,0.92055
983,15.188,2.3543e-30,0,0.00018945,1893.2,6.6365e-05,43.086,5.9932e-05,-5.2518,-0.00018876,-1873.9,1.0536
984,16.313,2.5287e-30,0,0.00013337,1332.8,4.4151e-05,-25.94,4.1395e-05,-46.643,-0.00013459,-1368.9,1.1916
985,17.438,2.7031e-30,0,8.1034e-05,809.78,2.908e-05,-62.222,1.6755e-05,-154.83,-8.4328e-05,-914.32,1.333
986,18,0.25,0,5.3767e-05,537.3,2.0551e-05,-107.99,1.9028e-06,-248.1,-5.8435e-05,-701.46,1.4056
987,5.2451e-15,0.6,0,0.00032962,3293.9,6.6309e-06,-3102.2,-2.563e-06,-3171.2,-0.00043628,-6430.1,0
988,19.917,0,0,6.1558e-05,615.16,2.3662e-05,63.216,2.0414e-05,38.808,-5.9787e-05,-563.78,1.6723
989,18.75,0,0,4.8276e-05,482.43,1.6483e-05,-17.205,1.3389e-05,-40.453,-4.9215e-05,-510.84,1.5111
990,21.083,0,0,5.4382e-05,543.45,2.0968e-05,43.652,1.6778e-05,12.165,-5.3364e-05,-514.85,1.8353
991,22.25,0,0,3.4871e-05,348.47,1.4675e-05,37.13,9.4092e-06,-2.4331,-3.4112e-05,-329.43,1.9997
992,23.417,0,0,1.8405e-05,183.92,8.9883e-06,29.214,3.5189e-06,-11.881,-1.7762e-05,-171.78,2.1649
993,18.167,0.25,0,4.9889e-05,498.55,1.7311e-05,-91.65,6.1871e-06,-175.23,-5.3901e-05,-626.7,1.4314
994,24,0.6,0,1.3631e-05,136.22,8.0686e-06,28.099,1.4499e-07,-31.436,-1.2674e-05,-127.75,2.248
995,17,6,0,0.00010552,1054.5,4.7747e-05,142.39,2.5118e-05,-27.633,-0.00010253,-986.77,1.2776
996,17.68,6,0,5.3332e-05,532.95,1.9005e-05,-27.723,1.2546e-05,-76.253,-5.4934e-05,-583.28,1.3638
997,16,6,0,0.00016002,1599.1,6.2911e-05,142.2,4.8514e-05,34.026,-0.00015674,-1508.2,1.1527
998,14.72,6,0,0.00020589,2057.5,7.4017e-05,85.902,6.5484e-05,21.789,-0.00020398,-2002.9,0.99764
999,13.44,6,0,0.00024442,2442.6,8.5524e-05,65.255,7.8381e-05,11.581,-0.00024307,-2403.7,0.84919
1000,12.16,6,0,0.00027984,2796.5,9.6068e-05,48.368,9.047e-05,6.3077,-0.00027889,-2768.9,0.70865
1001,10.88,6,0,0.00031512,3149,0.0001067,34.722,0.00010259,3.8488,-0.00031445,-3129.6,0.5772
1002,9.6,6,0,0.00035107,3508.3,0.00011734,17.949,0.00011499,0.29059,-0.00035076,-3499.1,0.456
1003,8.32,6,0,0.0003881,3878.3,0.00012836,-2.2893,0.00012738,-9.6161,-0.0003883,-3884.2,0.34626
1004,7.04,6,0,0.00042655,4262.6,0.0001423,-9.6883,0.00013727,-47.5,-0.00042751,-4291,0.24921
1005,5.76,6,0,0.00046712,4668,0.00015695,-27.768,0.00014684,-103.72,-0.00046931,-4733.3,0.16615
1006,4.48,6,0,0.00051144,5110.9,0.00017403,-39.571,0.00015618,-173.72,-0.00051494,-5216.2,0.098448
1007,3.2,6,0,0.00055534,5549.6,0.00019168,-115.96,0.00015808,-368.37,-0.00056315,-5787.5,0.047633
1008,1.92,6,0,0.00057126,5708.7,0.00022946,243.15,0.00013898,-436.69,-0.00057151,-5775,0.015244
1009,0.64,6,0,0.00042663,4263.4,0.00013682,-927.99,6.0051e-05,-1504.8,-0.00046508,-5450.4,0.0014238
1010,18,5.75,0,3.1794e-05,317.72,1.2911e-05,-81.174,-2.4375e-06,-196.49,-3.4906e-05,-440.45,1.4056
1011,4.7206e-14,5.4,0,0.00033936,3391.3,7.6188e-06,-3182.2,-2.9224e-06,-3261.4,-0.00044891,-6612.4,0
1012,3.6716e-14,4.2,0,0.00040277,4024.9,7.8035e-08,-3931.2,-2.3908e-06,-3949.8,-0.00053684,-7965.4,0
1013,2.6226e-14,3,0,0.00041285,4125.6,2.5889e-07,-4029.9,-2.785e-06,-4052.8,-0.00055034,-8166.9,0
1014,1.5735e-14,1.8,0,0.00040198,4017,3.7205e-08,-3926.7,-2.6096e-06,-3946.5,-0.00053591,-7953.6,0
1015,24,1.8,0,1.664e-05,166.28,1.0104e-05,40.365,2.6208e-07,-33.581,-1.5241e-05,-150.06,2.2485
1016,24,3,0,1.8059e-05,180.47,1.1073e-05,47.709,4.8136e-07,-31.874,-1.6421e-05,-158.87,2.2486
1017,24,4.2,0,1.741e-05,173.98,1.0756e-05,44.255,4.6847e-08,-36.205,-1.5815e-05,-155.39,2.2484
1018,24,5.4,0,1.4222e-05,142.12,9.0836e-06,41.496,-8.3457e-08,-27.382,-1.2669e-05,-121.94,2.2479
1019,23.514,6,0,1.6278e-05,162.67,9.3534e-06,46.028,2.2717e-06,-7.1814,-1.495e-05,-136.58,2.1785
1020,22.542,6,0,3.0972e-05,309.51,1.4814e-05,59.6,7.6038e-06,5.4259,-2.9508e-05,-273.42,2.0406
1021,21.569,6,0,4.8115e-05,480.81,1.9255e-05,46.327,1.4321e-05,9.2582,-4.7062e-05,-451.95,1.9033
1022,20.597,6,0,6.0882e-05,608.4,2.1966e-05,31.51,1.9794e-05,15.193,-6.0071e-05,-584.88,1.7669
1023,19.625,6,0,5.9512e-05,594.71,2.21e-05,33.991,1.8555e-05,7.352,-5.8763e-05,-573.59,1.6315
1024,18.653,6,0,4.0987e-05,409.58,1.4047e-05,-28.725,9.9429e-06,-59.56,-4.2401e-05,-452.85,1.4974
1025,18.167,5.75,0,3.4057e-05,340.33,1.3791e-05,-61.521,2.8507e-07,-163,-3.6721e-05,-441.05,1.431
1026,18,4.75,0,0.00021143,2112.9,0.00013723,820.77,1.7894e-05,-75.875,-0.00018396,-1592.5,1.4099
1027,18,4.25,0,0.00028191,2817.2,0.00014364,526.39,4.9848e-05,-178.32,-0.0002693,-2576.3,1.412
1028,18,5.25,0,0.00010128,1012.1,6.1568e-05,264.56,3.6805e-06,-170.38,-9.2404e-05,-892.33,1.4077
1029,18.083,4,0,0.00036401,3637.6,0.00012743,-119.21,9.6408e-05,-352.28,-0.00037147,-3867.7,1.4238
1030,18.167,5.25,0,6.0077e-05,600.35,1.9803e-05,-71.068,1.3231e-05,-120.45,-6.3182e-05,-694.59,1.4319
1031,18.167,4.75,0,0.00012025,1201.7,5.2855e-05,96.318,2.5052e-05,-112.58,-0.00011916,-1196.1,1.4329
1032,18.167,4.25,0,0.00028715,2869.5,0.00011354,43.822,6.5577e-05,-316.54,-0.00029009,-2988.9,1.4342
1033,18,1.25,0,0.00019577,1956.4,0.00013193,821.15,1.1605e-05,-82.889,-0.00016685,-1423.8,1.41
1034,18,1.75,0,0.00026873,2685.4,0.00014713,607.34,3.6952e-05,-220.52,-0.00025239,-2394.5,1.412
1035,18,0.75,0,0.00010835,1082.7,5.6688e-05,190.38,1.4745e-05,-124.76,-0.00010373,-1015,1.4077
1036,18.083,2,0,0.00031729,3170.7,9.8696e-05,-351.38,8.2569e-05,-472.56,-0.00033114,-3581,1.4239
1037,18.167,0.75,0,0.00011011,1100.4,4.4462e-05,55.063,2.7152e-05,-74.996,-0.00010987,-1104.5,1.4323
1038,18.167,1.25,0,0.00014405,1439.5,4.9346e-05,28.548,4.7085e-05,11.554,-0.00014336,-1419.4,1.4333
1039,18.167,1.75,0,0.00025102,2508.5,8.6666e-05,-207.88,5.6704e-05,-433,-0.00026117,-2821.4,1.4343
