Node Number	X Location (in)	Y Location (in)	Z Location (in)	Equivalent (von-Mises) Stress (psi)
1	8.1	2.1818	0.	14766
2	8.1	2.3636	0.	11700
3	8.1	2.5455	0.	10318
4	8.1	2.7273	0.	9601.8
5	8.1	2.9091	0.	9296.
6	8.1	3.0909	0.	9296.
7	8.1	3.2727	0.	9601.8
8	8.1	3.4545	0.	10318
9	8.1	3.6364	0.	11700
10	8.1	3.8182	0.	14766
11	8.2667	2.1818	0.	14611
12	8.2667	2.3636	0.	11645
13	8.2667	2.5455	0.	10258
14	8.2667	2.7273	0.	9541.9
15	8.2667	2.9091	0.	9235.7
16	8.2667	3.0909	0.	9235.7
17	8.2667	3.2727	0.	9541.9
18	8.2667	3.4545	0.	10258
19	8.2667	3.6364	0.	11645
20	8.2667	3.8182	0.	14611
21	7.9159	5.8182	0.	846.5
22	7.9159	5.6364	0.	1235.7
23	7.9159	5.4545	0.	1728.
24	7.9159	5.2727	0.	2281.1
25	7.9159	5.0909	0.	2908.1
26	7.9159	4.9091	0.	3640.5
27	7.9159	4.7273	0.	4534.3
28	7.9159	4.5455	0.	5688.9
29	7.9159	4.3636	0.	7331.3
30	7.9159	4.1818	0.	9744.6
31	7.9159	4.	0.	11533
32	7.9159	3.8182	0.	10964
33	7.9159	3.6364	0.	10294
34	7.9159	3.4545	0.	9560.
35	7.9159	3.2727	0.	9131.7
36	7.9159	3.0909	0.	8928.
37	7.9159	2.9091	0.	8928.
38	7.9159	2.7273	0.	9131.7
39	7.9159	2.5455	0.	9560.
40	7.9159	2.3636	0.	10294
41	7.9159	2.1818	0.	10964
42	7.9159	2.	0.	11533
43	7.9159	1.8182	0.	9744.6
44	7.9159	1.6364	0.	7331.3
45	7.9159	1.4545	0.	5688.9
46	7.9159	1.2727	0.	4534.3
47	7.9159	1.0909	0.	3640.5
48	7.9159	0.90909	0.	2908.1
49	7.9159	0.72727	0.	2281.1
50	7.9159	0.54545	0.	1728.
51	7.9159	0.36364	0.	1235.7
52	7.9159	0.18182	0.	846.5
53	7.7318	5.8182	0.	1291.6
54	7.7318	5.6364	0.	1497.9
55	7.7318	5.4545	0.	1845.6
56	7.7318	5.2727	0.	2286.3
57	7.7318	5.0909	0.	2809.3
58	7.7318	4.9091	0.	3423.6
59	7.7318	4.7273	0.	4154.8
60	7.7318	4.5455	0.	5020.7
61	7.7318	4.3636	0.	6052.2
62	7.7318	4.1818	0.	7111.5
63	7.7318	4.	0.	7802.7
64	7.7318	3.8182	0.	8326.6
65	7.7318	3.6364	0.	8487.8
66	7.7318	3.4545	0.	8442.5
67	7.7318	3.2727	0.	8330.4
68	7.7318	3.0909	0.	8260.
69	7.7318	2.9091	0.	8260.
70	7.7318	2.7273	0.	8330.4
71	7.7318	2.5455	0.	8442.5
72	7.7318	2.3636	0.	8487.8
73	7.7318	2.1818	0.	8326.6
74	7.7318	2.	0.	7802.7
75	7.7318	1.8182	0.	7111.5
76	7.7318	1.6364	0.	6052.2
77	7.7318	1.4545	0.	5020.7
78	7.7318	1.2727	0.	4154.8
79	7.7318	1.0909	0.	3423.6
80	7.7318	0.90909	0.	2809.3
81	7.7318	0.72727	0.	2286.3
82	7.7318	0.54545	0.	1845.6
83	7.7318	0.36364	0.	1497.9
84	7.7318	0.18182	0.	1291.6
85	7.5477	5.8182	0.	1768.9
86	7.5477	5.6364	0.	1919.3
87	7.5477	5.4545	0.	2181.1
88	7.5477	5.2727	0.	2534.2
89	7.5477	5.0909	0.	2968.4
90	7.5477	4.9091	0.	3480.2
91	7.5477	4.7273	0.	4067.7
92	7.5477	4.5455	0.	4724.4
93	7.5477	4.3636	0.	5396.8
94	7.5477	4.1818	0.	6018.5
95	7.5477	4.	0.	6537.1
96	7.5477	3.8182	0.	6945.8
97	7.5477	3.6364	0.	7256.9
98	7.5477	3.4545	0.	7420.3
99	7.5477	3.2727	0.	7485.2
100	7.5477	3.0909	0.	7503.3
101	7.5477	2.9091	0.	7503.3
102	7.5477	2.7273	0.	7485.2
103	7.5477	2.5455	0.	7420.3
104	7.5477	2.3636	0.	7256.9
105	7.5477	2.1818	0.	6945.8
106	7.5477	2.	0.	6537.1
107	7.5477	1.8182	0.	6018.5
108	7.5477	1.6364	0.	5396.8
109	7.5477	1.4545	0.	4724.4
110	7.5477	1.2727	0.	4067.7
111	7.5477	1.0909	0.	3480.2
112	7.5477	0.90909	0.	2968.4
113	7.5477	0.72727	0.	2534.2
114	7.5477	0.54545	0.	2181.1
115	7.5477	0.36364	0.	1919.3
116	7.5477	0.18182	0.	1768.9
117	7.3636	5.8182	0.	2211.3
118	7.3636	5.6364	0.	2340.8
119	7.3636	5.4545	0.	2550.9
120	7.3636	5.2727	0.	2834.3
121	7.3636	5.0909	0.	3185.2
122	7.3636	4.9091	0.	3595.8
123	7.3636	4.7273	0.	4054.4
124	7.3636	4.5455	0.	4540.4
125	7.3636	4.3636	0.	5022.1
126	7.3636	4.1818	0.	5458.8
127	7.3636	4.	0.	5841.9
128	7.3636	3.8182	0.	6171.5
129	7.3636	3.6364	0.	6439.9
130	7.3636	3.4545	0.	6635.6
131	7.3636	3.2727	0.	6753.3
132	7.3636	3.0909	0.	6806.4
133	7.3636	2.9091	0.	6806.4
134	7.3636	2.7273	0.	6753.3
135	7.3636	2.5455	0.	6635.6
136	7.3636	2.3636	0.	6439.9
137	7.3636	2.1818	0.	6171.5
138	7.3636	2.	0.	5841.9
139	7.3636	1.8182	0.	5458.8
140	7.3636	1.6364	0.	5022.1
141	7.3636	1.4545	0.	4540.4
142	7.3636	1.2727	0.	4054.4
143	7.3636	1.0909	0.	3595.8
144	7.3636	0.90909	0.	3185.2
145	7.3636	0.72727	0.	2834.3
146	7.3636	0.54545	0.	2550.9
147	7.3636	0.36364	0.	2340.8
148	7.3636	0.18182	0.	2211.3
149	7.1795	5.8182	0.	2608.3
150	7.1795	5.6364	0.	2725.6
151	7.1795	5.4545	0.	2900.2
152	7.1795	5.2727	0.	3129.1
153	7.1795	5.0909	0.	3408.7
154	7.1795	4.9091	0.	3730.8
155	7.1795	4.7273	0.	4082.5
156	7.1795	4.5455	0.	4445.4
157	7.1795	4.3636	0.	4797.2
158	7.1795	4.1818	0.	5121.3
159	7.1795	4.	0.	5410.7
160	7.1795	3.8182	0.	5666.9
161	7.1795	3.6364	0.	5886.5
162	7.1795	3.4545	0.	6058.
163	7.1795	3.2727	0.	6173.4
164	7.1795	3.0909	0.	6230.5
165	7.1795	2.9091	0.	6230.5
166	7.1795	2.7273	0.	6173.4
167	7.1795	2.5455	0.	6058.
168	7.1795	2.3636	0.	5886.5
169	7.1795	2.1818	0.	5666.9
170	7.1795	2.	0.	5410.7
171	7.1795	1.8182	0.	5121.3
172	7.1795	1.6364	0.	4797.2
173	7.1795	1.4545	0.	4445.4
174	7.1795	1.2727	0.	4082.5
175	7.1795	1.0909	0.	3730.8
176	7.1795	0.90909	0.	3408.7
177	7.1795	0.72727	0.	3129.1
178	7.1795	0.54545	0.	2900.2
179	7.1795	0.36364	0.	2725.6
180	7.1795	0.18182	0.	2608.3
181	6.9955	5.8182	0.	2958.6
182	6.9955	5.6364	0.	3064.7
183	6.9955	5.4545	0.	3211.1
184	6.9955	5.2727	0.	3396.1
185	6.9955	5.0909	0.	3616.9
186	6.9955	4.9091	0.	3866.5
187	6.9955	4.7273	0.	4134.1
188	6.9955	4.5455	0.	4406.
189	6.9955	4.3636	0.	4668.6
190	6.9955	4.1818	0.	4912.
191	6.9955	4.	0.	5132.6
192	6.9955	3.8182	0.	5329.5
193	6.9955	3.6364	0.	5499.8
194	6.9955	3.4545	0.	5636.9
195	6.9955	3.2727	0.	5732.6
196	6.9955	3.0909	0.	5781.7
197	6.9955	2.9091	0.	5781.7
198	6.9955	2.7273	0.	5732.6
199	6.9955	2.5455	0.	5636.9
200	6.9955	2.3636	0.	5499.8
201	6.9955	2.1818	0.	5329.5
202	6.9955	2.	0.	5132.6
203	6.9955	1.8182	0.	4912.
204	6.9955	1.6364	0.	4668.6
205	6.9955	1.4545	0.	4406.
206	6.9955	1.2727	0.	4134.1
207	6.9955	1.0909	0.	3866.5
208	6.9955	0.90909	0.	3616.9
209	6.9955	0.72727	0.	3396.1
210	6.9955	0.54545	0.	3211.1
211	6.9955	0.36364	0.	3064.7
212	6.9955	0.18182	0.	2958.6
213	6.8114	5.8182	0.	3264.2
214	6.8114	5.6364	0.	3358.2
215	6.8114	5.4545	0.	3480.3
216	6.8114	5.2727	0.	3629.
217	6.8114	5.0909	0.	3802.
218	6.8114	4.9091	0.	3993.9
219	6.8114	4.7273	0.	4196.5
220	6.8114	4.5455	0.	4400.5
221	6.8114	4.3636	0.	4597.1
222	6.8114	4.1818	0.	4780.3
223	6.8114	4.	0.	4947.3
224	6.8114	3.8182	0.	5096.8
225	6.8114	3.6364	0.	5226.3
226	6.8114	3.4545	0.	5331.
227	6.8114	3.2727	0.	5405.
228	6.8114	3.0909	0.	5443.3
229	6.8114	2.9091	0.	5443.3
230	6.8114	2.7273	0.	5405.
231	6.8114	2.5455	0.	5331.
232	6.8114	2.3636	0.	5226.3
233	6.8114	2.1818	0.	5096.8
234	6.8114	2.	0.	4947.3
235	6.8114	1.8182	0.	4780.3
236	6.8114	1.6364	0.	4597.1
237	6.8114	1.4545	0.	4400.5
238	6.8114	1.2727	0.	4196.5
239	6.8114	1.0909	0.	3993.9
240	6.8114	0.90909	0.	3802.
241	6.8114	0.72727	0.	3629.
242	6.8114	0.54545	0.	3480.3
243	6.8114	0.36364	0.	3358.2
244	6.8114	0.18182	0.	3264.2
245	6.6273	5.8182	0.	3529.
246	6.6273	5.6364	0.	3610.1
247	6.6273	5.4545	0.	3710.4
248	6.6273	5.2727	0.	3828.8
249	6.6273	5.0909	0.	3963.2
250	6.6273	4.9091	0.	4109.6
251	6.6273	4.7273	0.	4262.2
252	6.6273	4.5455	0.	4414.7
253	6.6273	4.3636	0.	4561.5
254	6.6273	4.1818	0.	4698.7
255	6.6273	4.	0.	4823.9
256	6.6273	3.8182	0.	4935.9
257	6.6273	3.6364	0.	5032.4
258	6.6273	3.4545	0.	5110.3
259	6.6273	3.2727	0.	5165.3
260	6.6273	3.0909	0.	5193.8
261	6.6273	2.9091	0.	5193.8
262	6.6273	2.7273	0.	5165.3
263	6.6273	2.5455	0.	5110.3
264	6.6273	2.3636	0.	5032.4
265	6.6273	2.1818	0.	4935.9
266	6.6273	2.	0.	4823.9
267	6.6273	1.8182	0.	4698.7
268	6.6273	1.6364	0.	4561.5
269	6.6273	1.4545	0.	4414.7
270	6.6273	1.2727	0.	4262.2
271	6.6273	1.0909	0.	4109.6
272	6.6273	0.90909	0.	3963.2
273	6.6273	0.72727	0.	3828.8
274	6.6273	0.54545	0.	3710.4
275	6.6273	0.36364	0.	3610.1
276	6.6273	0.18182	0.	3529.
277	6.4432	5.8182	0.	3757.8
278	6.4432	5.6364	0.	3825.6
279	6.4432	5.4545	0.	3906.6
280	6.4432	5.2727	0.	3999.5
281	6.4432	5.0909	0.	4102.8
282	6.4432	4.9091	0.	4213.3
283	6.4432	4.7273	0.	4327.2
284	6.4432	4.5455	0.	4440.3
285	6.4432	4.3636	0.	4549.
286	6.4432	4.1818	0.	4650.4
287	6.4432	4.	0.	4743.1
288	6.4432	3.8182	0.	4825.5
289	6.4432	3.6364	0.	4896.2
290	6.4432	3.4545	0.	4952.8
291	6.4432	3.2727	0.	4992.7
292	6.4432	3.0909	0.	5013.3
293	6.4432	2.9091	0.	5013.3
294	6.4432	2.7273	0.	4992.7
295	6.4432	2.5455	0.	4952.8
296	6.4432	2.3636	0.	4896.2
297	6.4432	2.1818	0.	4825.5
298	6.4432	2.	0.	4743.1
299	6.4432	1.8182	0.	4650.4
300	6.4432	1.6364	0.	4549.
301	6.4432	1.4545	0.	4440.3
302	6.4432	1.2727	0.	4327.2
303	6.4432	1.0909	0.	4213.3
304	6.4432	0.90909	0.	4102.8
305	6.4432	0.72727	0.	3999.5
306	6.4432	0.54545	0.	3906.6
307	6.4432	0.36364	0.	3825.6
308	6.4432	0.18182	0.	3757.8
309	6.2591	5.8182	0.	3955.5
310	6.2591	5.6364	0.	4010.5
311	6.2591	5.4545	0.	4074.3
312	6.2591	5.2727	0.	4145.8
313	6.2591	5.0909	0.	4223.8
314	6.2591	4.9091	0.	4306.1
315	6.2591	4.7273	0.	4389.9
316	6.2591	4.5455	0.	4472.6
317	6.2591	4.3636	0.	4551.7
318	6.2591	4.1818	0.	4625.4
319	6.2591	4.	0.	4692.5
320	6.2591	3.8182	0.	4752.
321	6.2591	3.6364	0.	4802.6
322	6.2591	3.4545	0.	4842.9
323	6.2591	3.2727	0.	4871.1
324	6.2591	3.0909	0.	4885.6
325	6.2591	2.9091	0.	4885.6
326	6.2591	2.7273	0.	4871.1
327	6.2591	2.5455	0.	4842.9
328	6.2591	2.3636	0.	4802.6
329	6.2591	2.1818	0.	4752.
330	6.2591	2.	0.	4692.5
331	6.2591	1.8182	0.	4625.4
332	6.2591	1.6364	0.	4551.7
333	6.2591	1.4545	0.	4472.6
334	6.2591	1.2727	0.	4389.9
335	6.2591	1.0909	0.	4306.1
336	6.2591	0.90909	0.	4223.8
337	6.2591	0.72727	0.	4145.8
338	6.2591	0.54545	0.	4074.3
339	6.2591	0.36364	0.	4010.5
340	6.2591	0.18182	0.	3955.5
341	6.075	5.8182	0.	4127.2
342	6.075	5.6364	0.	4170.
343	6.075	5.4545	0.	4218.7
344	6.075	5.2727	0.	4272.3
345	6.075	5.0909	0.	4329.7
346	6.075	4.9091	0.	4389.4
347	6.075	4.7273	0.	4449.6
348	6.075	4.5455	0.	4508.6
349	6.075	4.3636	0.	4564.7
350	6.075	4.1818	0.	4616.9
351	6.075	4.	0.	4664.1
352	6.075	3.8182	0.	4705.8
353	6.075	3.6364	0.	4741.
354	6.075	3.4545	0.	4768.8
355	6.075	3.2727	0.	4788.1
356	6.075	3.0909	0.	4798.1
357	6.075	2.9091	0.	4798.1
358	6.075	2.7273	0.	4788.1
359	6.075	2.5455	0.	4768.8
360	6.075	2.3636	0.	4741.
361	6.075	2.1818	0.	4705.8
362	6.075	2.	0.	4664.1
363	6.075	1.8182	0.	4616.9
364	6.075	1.6364	0.	4564.7
365	6.075	1.4545	0.	4508.6
366	6.075	1.2727	0.	4449.6
367	6.075	1.0909	0.	4389.4
368	6.075	0.90909	0.	4329.7
369	6.075	0.72727	0.	4272.3
370	6.075	0.54545	0.	4218.7
371	6.075	0.36364	0.	4170.
372	6.075	0.18182	0.	4127.2
373	5.8909	5.8182	0.	4277.3
374	5.8909	5.6364	0.	4308.8
375	5.8909	5.4545	0.	4344.2
376	5.8909	5.2727	0.	4382.7
377	5.8909	5.0909	0.	4423.3
378	5.8909	4.9091	0.	4465.
379	5.8909	4.7273	0.	4506.6
380	5.8909	4.5455	0.	4546.9
381	5.8909	4.3636	0.	4585.2
382	5.8909	4.1818	0.	4620.4
383	5.8909	4.	0.	4652.2
384	5.8909	3.8182	0.	4680.
385	5.8909	3.6364	0.	4703.4
386	5.8909	3.4545	0.	4721.8
387	5.8909	3.2727	0.	4734.4
388	5.8909	3.0909	0.	4740.9
389	5.8909	2.9091	0.	4740.9
390	5.8909	2.7273	0.	4734.4
391	5.8909	2.5455	0.	4721.8
392	5.8909	2.3636	0.	4703.4
393	5.8909	2.1818	0.	4680.
394	5.8909	2.	0.	4652.2
395	5.8909	1.8182	0.	4620.4
396	5.8909	1.6364	0.	4585.2
397	5.8909	1.4545	0.	4546.9
398	5.8909	1.2727	0.	4506.6
399	5.8909	1.0909	0.	4465.
400	5.8909	0.90909	0.	4423.3
401	5.8909	0.72727	0.	4382.7
402	5.8909	0.54545	0.	4344.2
403	5.8909	0.36364	0.	4308.8
404	5.8909	0.18182	0.	4277.3
405	5.7068	5.8182	0.	4409.7
406	5.7068	5.6364	0.	4430.9
407	5.7068	5.4545	0.	4454.8
408	5.7068	5.2727	0.	4480.4
409	5.7068	5.0909	0.	4507.2
410	5.7068	4.9091	0.	4534.3
411	5.7068	4.7273	0.	4561.
412	5.7068	4.5455	0.	4586.8
413	5.7068	4.3636	0.	4610.9
414	5.7068	4.1818	0.	4632.9
415	5.7068	4.	0.	4652.7
416	5.7068	3.8182	0.	4669.8
417	5.7068	3.6364	0.	4684.1
418	5.7068	3.4545	0.	4695.3
419	5.7068	3.2727	0.	4703.
420	5.7068	3.0909	0.	4706.9
421	5.7068	2.9091	0.	4706.9
422	5.7068	2.7273	0.	4703.
423	5.7068	2.5455	0.	4695.3
424	5.7068	2.3636	0.	4684.1
425	5.7068	2.1818	0.	4669.8
426	5.7068	2.	0.	4652.7
427	5.7068	1.8182	0.	4632.9
428	5.7068	1.6364	0.	4610.9
429	5.7068	1.4545	0.	4586.8
430	5.7068	1.2727	0.	4561.
431	5.7068	1.0909	0.	4534.3
432	5.7068	0.90909	0.	4507.2
433	5.7068	0.72727	0.	4480.4
434	5.7068	0.54545	0.	4454.8
435	5.7068	0.36364	0.	4430.9
436	5.7068	0.18182	0.	4409.7
437	5.5227	5.8182	0.	4527.8
438	5.5227	5.6364	0.	4539.7
439	5.5227	5.4545	0.	4553.5
440	5.5227	5.2727	0.	4568.2
441	5.5227	5.0909	0.	4583.4
442	5.5227	4.9091	0.	4598.7
443	5.5227	4.7273	0.	4613.5
444	5.5227	4.5455	0.	4627.5
445	5.5227	4.3636	0.	4640.5
446	5.5227	4.1818	0.	4652.1
447	5.5227	4.	0.	4662.5
448	5.5227	3.8182	0.	4671.3
449	5.5227	3.6364	0.	4678.7
450	5.5227	3.4545	0.	4684.3
451	5.5227	3.2727	0.	4688.2
452	5.5227	3.0909	0.	4690.2
453	5.5227	2.9091	0.	4690.2
454	5.5227	2.7273	0.	4688.2
455	5.5227	2.5455	0.	4684.3
456	5.5227	2.3636	0.	4678.7
457	5.5227	2.1818	0.	4671.3
458	5.5227	2.	0.	4662.5
459	5.5227	1.8182	0.	4652.1
460	5.5227	1.6364	0.	4640.5
461	5.5227	1.4545	0.	4627.5
462	5.5227	1.2727	0.	4613.5
463	5.5227	1.0909	0.	4598.7
464	5.5227	0.90909	0.	4583.4
465	5.5227	0.72727	0.	4568.2
466	5.5227	0.54545	0.	4553.5
467	5.5227	0.36364	0.	4539.7
468	5.5227	0.18182	0.	4527.8
469	5.3386	5.8182	0.	4634.4
470	5.3386	5.6364	0.	4638.
471	5.3386	5.4545	0.	4642.9
472	5.3386	5.2727	0.	4648.3
473	5.3386	5.0909	0.	4653.8
474	5.3386	4.9091	0.	4659.3
475	5.3386	4.7273	0.	4664.4
476	5.3386	4.5455	0.	4669.
477	5.3386	4.3636	0.	4673.
478	5.3386	4.1818	0.	4676.4
479	5.3386	4.	0.	4679.3
480	5.3386	3.8182	0.	4681.7
481	5.3386	3.6364	0.	4683.7
482	5.3386	3.4545	0.	4685.1
483	5.3386	3.2727	0.	4686.2
484	5.3386	3.0909	0.	4686.7
485	5.3386	2.9091	0.	4686.7
486	5.3386	2.7273	0.	4686.2
487	5.3386	2.5455	0.	4685.1
488	5.3386	2.3636	0.	4683.7
489	5.3386	2.1818	0.	4681.7
490	5.3386	2.	0.	4679.3
491	5.3386	1.8182	0.	4676.4
492	5.3386	1.6364	0.	4673.
493	5.3386	1.4545	0.	4669.
494	5.3386	1.2727	0.	4664.4
495	5.3386	1.0909	0.	4659.3
496	5.3386	0.90909	0.	4653.8
497	5.3386	0.72727	0.	4648.3
498	5.3386	0.54545	0.	4642.9
499	5.3386	0.36364	0.	4638.
500	5.3386	0.18182	0.	4634.4
501	5.1545	5.8182	0.	4732.
502	5.1545	5.6364	0.	4728.
503	5.1545	5.4545	0.	4725.
504	5.1545	5.2727	0.	4722.3
505	5.1545	5.0909	0.	4719.7
506	5.1545	4.9091	0.	4716.9
507	5.1545	4.7273	0.	4714.
508	5.1545	4.5455	0.	4710.9
509	5.1545	4.3636	0.	4707.7
510	5.1545	4.1818	0.	4704.6
511	5.1545	4.	0.	4701.5
512	5.1545	3.8182	0.	4698.8
513	5.1545	3.6364	0.	4696.5
514	5.1545	3.4545	0.	4694.8
515	5.1545	3.2727	0.	4693.6
516	5.1545	3.0909	0.	4692.9
517	5.1545	2.9091	0.	4692.9
518	5.1545	2.7273	0.	4693.6
519	5.1545	2.5455	0.	4694.8
520	5.1545	2.3636	0.	4696.5
521	5.1545	2.1818	0.	4698.8
522	5.1545	2.	0.	4701.5
523	5.1545	1.8182	0.	4704.6
524	5.1545	1.6364	0.	4707.7
525	5.1545	1.4545	0.	4710.9
526	5.1545	1.2727	0.	4714.
527	5.1545	1.0909	0.	4716.9
528	5.1545	0.90909	0.	4719.7
529	5.1545	0.72727	0.	4722.3
530	5.1545	0.54545	0.	4725.
531	5.1545	0.36364	0.	4728.
532	5.1545	0.18182	0.	4732.
533	4.9705	5.8182	0.	4822.5
534	4.9705	5.6364	0.	4811.6
535	4.9705	5.4545	0.	4801.6
536	4.9705	5.2727	0.	4791.8
537	4.9705	5.0909	0.	4782.1
538	4.9705	4.9091	0.	4772.3
539	4.9705	4.7273	0.	4762.7
540	4.9705	4.5455	0.	4753.2
541	4.9705	4.3636	0.	4744.1
542	4.9705	4.1818	0.	4735.5
543	4.9705	4.	0.	4727.8
544	4.9705	3.8182	0.	4721.
545	4.9705	3.6364	0.	4715.3
546	4.9705	3.4545	0.	4710.9
547	4.9705	3.2727	0.	4708.
548	4.9705	3.0909	0.	4706.5
549	4.9705	2.9091	0.	4706.5
550	4.9705	2.7273	0.	4708.
551	4.9705	2.5455	0.	4710.9
552	4.9705	2.3636	0.	4715.3
553	4.9705	2.1818	0.	4721.
554	4.9705	2.	0.	4727.8
555	4.9705	1.8182	0.	4735.5
556	4.9705	1.6364	0.	4744.1
557	4.9705	1.4545	0.	4753.2
558	4.9705	1.2727	0.	4762.7
559	4.9705	1.0909	0.	4772.3
560	4.9705	0.90909	0.	4782.1
561	4.9705	0.72727	0.	4791.8
562	4.9705	0.54545	0.	4801.6
563	4.9705	0.36364	0.	4811.6
564	4.9705	0.18182	0.	4822.5
565	4.7864	5.8182	0.	4907.4
566	4.7864	5.6364	0.	4890.2
567	4.7864	5.4545	0.	4873.8
568	4.7864	5.2727	0.	4857.7
569	4.7864	5.0909	0.	4841.8
570	4.7864	4.9091	0.	4826.
571	4.7864	4.7273	0.	4810.6
572	4.7864	4.5455	0.	4795.7
573	4.7864	4.3636	0.	4781.7
574	4.7864	4.1818	0.	4768.6
575	4.7864	4.	0.	4756.9
576	4.7864	3.8182	0.	4746.8
577	4.7864	3.6364	0.	4738.4
578	4.7864	3.4545	0.	4732.
579	4.7864	3.2727	0.	4727.6
580	4.7864	3.0909	0.	4725.4
581	4.7864	2.9091	0.	4725.4
582	4.7864	2.7273	0.	4727.6
583	4.7864	2.5455	0.	4732.
584	4.7864	2.3636	0.	4738.4
585	4.7864	2.1818	0.	4746.8
586	4.7864	2.	0.	4756.9
587	4.7864	1.8182	0.	4768.6
588	4.7864	1.6364	0.	4781.7
589	4.7864	1.4545	0.	4795.7
590	4.7864	1.2727	0.	4810.6
591	4.7864	1.0909	0.	4826.
592	4.7864	0.90909	0.	4841.8
593	4.7864	0.72727	0.	4857.7
594	4.7864	0.54545	0.	4873.8
595	4.7864	0.36364	0.	4890.2
596	4.7864	0.18182	0.	4907.4
597	4.6023	5.8182	0.	4988.1
598	4.6023	5.6364	0.	4964.9
599	4.6023	5.4545	0.	4942.8
600	4.6023	5.2727	0.	4921.
601	4.6023	5.0909	0.	4899.5
602	4.6023	4.9091	0.	4878.4
603	4.6023	4.7273	0.	4857.9
604	4.6023	4.5455	0.	4838.4
605	4.6023	4.3636	0.	4820.1
606	4.6023	4.1818	0.	4803.2
607	4.6023	4.	0.	4788.2
608	4.6023	3.8182	0.	4775.3
609	4.6023	3.6364	0.	4764.7
610	4.6023	3.4545	0.	4756.5
611	4.6023	3.2727	0.	4751.
612	4.6023	3.0909	0.	4748.2
613	4.6023	2.9091	0.	4748.2
614	4.6023	2.7273	0.	4751.
615	4.6023	2.5455	0.	4756.5
616	4.6023	2.3636	0.	4764.7
617	4.6023	2.1818	0.	4775.3
618	4.6023	2.	0.	4788.2
619	4.6023	1.8182	0.	4803.2
620	4.6023	1.6364	0.	4820.1
621	4.6023	1.4545	0.	4838.4
622	4.6023	1.2727	0.	4857.9
623	4.6023	1.0909	0.	4878.4
624	4.6023	0.90909	0.	4899.5
625	4.6023	0.72727	0.	4921.
626	4.6023	0.54545	0.	4942.8
627	4.6023	0.36364	0.	4964.9
628	4.6023	0.18182	0.	4988.1
629	4.4182	5.8182	0.	5065.6
630	4.4182	5.6364	0.	5036.8
631	4.4182	5.4545	0.	5009.3
632	4.4182	5.2727	0.	4982.3
633	4.4182	5.0909	0.	4955.7
634	4.4182	4.9091	0.	4929.7
635	4.4182	4.7273	0.	4904.8
636	4.4182	4.5455	0.	4881.1
637	4.4182	4.3636	0.	4859.
638	4.4182	4.1818	0.	4838.9
639	4.4182	4.	0.	4821.
640	4.4182	3.8182	0.	4805.7
641	4.4182	3.6364	0.	4793.1
642	4.4182	3.4545	0.	4783.6
643	4.4182	3.2727	0.	4777.1
644	4.4182	3.0909	0.	4773.9
645	4.4182	2.9091	0.	4773.9
646	4.4182	2.7273	0.	4777.1
647	4.4182	2.5455	0.	4783.6
648	4.4182	2.3636	0.	4793.1
649	4.4182	2.1818	0.	4805.7
650	4.4182	2.	0.	4821.
651	4.4182	1.8182	0.	4838.9
652	4.4182	1.6364	0.	4859.
653	4.4182	1.4545	0.	4881.1
654	4.4182	1.2727	0.	4904.8
655	4.4182	1.0909	0.	4929.7
656	4.4182	0.90909	0.	4955.7
657	4.4182	0.72727	0.	4982.3
658	4.4182	0.54545	0.	5009.3
659	4.4182	0.36364	0.	5036.8
660	4.4182	0.18182	0.	5065.6
661	4.2341	5.8182	0.	5140.7
662	4.2341	5.6364	0.	5106.6
663	4.2341	5.4545	0.	5074.
664	4.2341	5.2727	0.	5041.9
665	4.2341	5.0909	0.	5010.6
666	4.2341	4.9091	0.	4980.2
667	4.2341	4.7273	0.	4951.2
668	4.2341	4.5455	0.	4923.7
669	4.2341	4.3636	0.	4898.3
670	4.2341	4.1818	0.	4875.2
671	4.2341	4.	0.	4854.8
672	4.2341	3.8182	0.	4837.4
673	4.2341	3.6364	0.	4823.2
674	4.2341	3.4545	0.	4812.4
675	4.2341	3.2727	0.	4805.1
676	4.2341	3.0909	0.	4801.4
677	4.2341	2.9091	0.	4801.4
678	4.2341	2.7273	0.	4805.1
679	4.2341	2.5455	0.	4812.4
680	4.2341	2.3636	0.	4823.2
681	4.2341	2.1818	0.	4837.4
682	4.2341	2.	0.	4854.8
683	4.2341	1.8182	0.	4875.2
684	4.2341	1.6364	0.	4898.3
685	4.2341	1.4545	0.	4923.7
686	4.2341	1.2727	0.	4951.2
687	4.2341	1.0909	0.	4980.2
688	4.2341	0.90909	0.	5010.6
689	4.2341	0.72727	0.	5041.9
690	4.2341	0.54545	0.	5074.
691	4.2341	0.36364	0.	5106.6
692	4.2341	0.18182	0.	5140.7
693	4.05	5.8182	0.	5214.1
694	4.05	5.6364	0.	5174.7
695	4.05	5.4545	0.	5137.1
696	4.05	5.2727	0.	5100.4
697	4.05	5.0909	0.	5064.6
698	4.05	4.9091	0.	5030.
699	4.05	4.7273	0.	4997.1
700	4.05	4.5455	0.	4966.2
701	4.05	4.3636	0.	4937.7
702	4.05	4.1818	0.	4912.
703	4.05	4.	0.	4889.3
704	4.05	3.8182	0.	4870.
705	4.05	3.6364	0.	4854.3
706	4.05	3.4545	0.	4842.4
707	4.05	3.2727	0.	4834.4
708	4.05	3.0909	0.	4830.4
709	4.05	2.9091	0.	4830.4
710	4.05	2.7273	0.	4834.4
711	4.05	2.5455	0.	4842.4
712	4.05	2.3636	0.	4854.3
713	4.05	2.1818	0.	4870.
714	4.05	2.	0.	4889.3
715	4.05	1.8182	0.	4912.
716	4.05	1.6364	0.	4937.7
717	4.05	1.4545	0.	4966.2
718	4.05	1.2727	0.	4997.1
719	4.05	1.0909	0.	5030.
720	4.05	0.90909	0.	5064.6
721	4.05	0.72727	0.	5100.4
722	4.05	0.54545	0.	5137.1
723	4.05	0.36364	0.	5174.7
724	4.05	0.18182	0.	5214.1
725	3.8659	5.8182	0.	5286.3
726	3.8659	5.6364	0.	5241.6
727	3.8659	5.4545	0.	5199.2
728	3.8659	5.2727	0.	5157.9
729	3.8659	5.0909	0.	5117.8
730	3.8659	4.9091	0.	5079.2
731	3.8659	4.7273	0.	5042.6
732	3.8659	4.5455	0.	5008.4
733	3.8659	4.3636	0.	4977.1
734	3.8659	4.1818	0.	4948.9
735	3.8659	4.	0.	4924.1
736	3.8659	3.8182	0.	4903.2
737	3.8659	3.6364	0.	4886.2
738	3.8659	3.4545	0.	4873.3
739	3.8659	3.2727	0.	4864.6
740	3.8659	3.0909	0.	4860.3
741	3.8659	2.9091	0.	4860.3
742	3.8659	2.7273	0.	4864.6
743	3.8659	2.5455	0.	4873.3
744	3.8659	2.3636	0.	4886.2
745	3.8659	2.1818	0.	4903.2
746	3.8659	2.	0.	4924.1
747	3.8659	1.8182	0.	4948.9
748	3.8659	1.6364	0.	4977.1
749	3.8659	1.4545	0.	5008.4
750	3.8659	1.2727	0.	5042.6
751	3.8659	1.0909	0.	5079.2
752	3.8659	0.90909	0.	5117.8
753	3.8659	0.72727	0.	5157.9
754	3.8659	0.54545	0.	5199.2
755	3.8659	0.36364	0.	5241.6
756	3.8659	0.18182	0.	5286.3
757	3.6818	5.8182	0.	5357.6
758	3.6818	5.6364	0.	5307.5
759	3.6818	5.4545	0.	5260.4
760	3.6818	5.2727	0.	5214.5
761	3.6818	5.0909	0.	5170.2
762	3.6818	4.9091	0.	5127.7
763	3.6818	4.7273	0.	5087.6
764	3.6818	4.5455	0.	5050.3
765	3.6818	4.3636	0.	5016.3
766	3.6818	4.1818	0.	4985.8
767	3.6818	4.	0.	4959.2
768	3.6818	3.8182	0.	4936.7
769	3.6818	3.6364	0.	4918.5
770	3.6818	3.4545	0.	4904.8
771	3.6818	3.2727	0.	4895.6
772	3.6818	3.0909	0.	4891.
773	3.6818	2.9091	0.	4891.
774	3.6818	2.7273	0.	4895.6
775	3.6818	2.5455	0.	4904.8
776	3.6818	2.3636	0.	4918.5
777	3.6818	2.1818	0.	4936.7
778	3.6818	2.	0.	4959.2
779	3.6818	1.8182	0.	4985.8
780	3.6818	1.6364	0.	5016.3
781	3.6818	1.4545	0.	5050.3
782	3.6818	1.2727	0.	5087.6
783	3.6818	1.0909	0.	5127.7
784	3.6818	0.90909	0.	5170.2
785	3.6818	0.72727	0.	5214.5
786	3.6818	0.54545	0.	5260.4
787	3.6818	0.36364	0.	5307.5
788	3.6818	0.18182	0.	5357.6
789	3.4977	5.8182	0.	5428.3
790	3.4977	5.6364	0.	5372.7
791	3.4977	5.4545	0.	5320.7
792	3.4977	5.2727	0.	5270.4
793	3.4977	5.0909	0.	5221.8
794	3.4977	4.9091	0.	5175.5
795	3.4977	4.7273	0.	5132.
796	3.4977	4.5455	0.	5091.8
797	3.4977	4.3636	0.	5055.2
798	3.4977	4.1818	0.	5022.6
799	3.4977	4.	0.	4994.3
800	3.4977	3.8182	0.	4970.5
801	3.4977	3.6364	0.	4951.3
802	3.4977	3.4545	0.	4936.9
803	3.4977	3.2727	0.	4927.3
804	3.4977	3.0909	0.	4922.4
805	3.4977	2.9091	0.	4922.4
806	3.4977	2.7273	0.	4927.3
807	3.4977	2.5455	0.	4936.9
808	3.4977	2.3636	0.	4951.3
809	3.4977	2.1818	0.	4970.5
810	3.4977	2.	0.	4994.3
811	3.4977	1.8182	0.	5022.6
812	3.4977	1.6364	0.	5055.2
813	3.4977	1.4545	0.	5091.8
814	3.4977	1.2727	0.	5132.
815	3.4977	1.0909	0.	5175.5
816	3.4977	0.90909	0.	5221.8
817	3.4977	0.72727	0.	5270.4
818	3.4977	0.54545	0.	5320.7
819	3.4977	0.36364	0.	5372.7
820	3.4977	0.18182	0.	5428.3
821	3.3136	5.8182	0.	5498.5
822	3.3136	5.6364	0.	5437.1
823	3.3136	5.4545	0.	5380.3
824	3.3136	5.2727	0.	5325.3
825	3.3136	5.0909	0.	5272.5
826	3.3136	4.9091	0.	5222.5
827	3.3136	4.7273	0.	5175.7
828	3.3136	4.5455	0.	5132.6
829	3.3136	4.3636	0.	5093.7
830	3.3136	4.1818	0.	5059.3
831	3.3136	4.	0.	5029.5
832	3.3136	3.8182	0.	5004.6
833	3.3136	3.6364	0.	4984.7
834	3.3136	3.4545	0.	4969.7
835	3.3136	3.2727	0.	4959.7
836	3.3136	3.0909	0.	4954.7
837	3.3136	2.9091	0.	4954.7
838	3.3136	2.7273	0.	4959.7
839	3.3136	2.5455	0.	4969.7
840	3.3136	2.3636	0.	4984.7
841	3.3136	2.1818	0.	5004.6
842	3.3136	2.	0.	5029.5
843	3.3136	1.8182	0.	5059.3
844	3.3136	1.6364	0.	5093.7
845	3.3136	1.4545	0.	5132.6
846	3.3136	1.2727	0.	5175.7
847	3.3136	1.0909	0.	5222.5
848	3.3136	0.90909	0.	5272.5
849	3.3136	0.72727	0.	5325.3
850	3.3136	0.54545	0.	5380.3
851	3.3136	0.36364	0.	5437.1
852	3.3136	0.18182	0.	5498.5
853	3.1295	5.8182	0.	5568.2
854	3.1295	5.6364	0.	5500.7
855	3.1295	5.4545	0.	5438.8
856	3.1295	5.2727	0.	5379.2
857	3.1295	5.0909	0.	5322.2
858	3.1295	4.9091	0.	5268.4
859	3.1295	4.7273	0.	5218.5
860	3.1295	4.5455	0.	5172.8
861	3.1295	4.3636	0.	5131.8
862	3.1295	4.1818	0.	5095.8
863	3.1295	4.	0.	5064.9
864	3.1295	3.8182	0.	5039.2
865	3.1295	3.6364	0.	5018.6
866	3.1295	3.4545	0.	5003.3
867	3.1295	3.2727	0.	4993.1
868	3.1295	3.0909	0.	4988.1
869	3.1295	2.9091	0.	4988.1
870	3.1295	2.7273	0.	4993.1
871	3.1295	2.5455	0.	5003.3
872	3.1295	2.3636	0.	5018.6
873	3.1295	2.1818	0.	5039.2
874	3.1295	2.	0.	5064.9
875	3.1295	1.8182	0.	5095.8
876	3.1295	1.6364	0.	5131.8
877	3.1295	1.4545	0.	5172.8
878	3.1295	1.2727	0.	5218.5
879	3.1295	1.0909	0.	5268.4
880	3.1295	0.90909	0.	5322.2
881	3.1295	0.72727	0.	5379.2
882	3.1295	0.54545	0.	5438.8
883	3.1295	0.36364	0.	5500.7
884	3.1295	0.18182	0.	5568.2
885	2.9455	5.8182	0.	5637.2
886	2.9455	5.6364	0.	5563.3
887	2.9455	5.4545	0.	5496.1
888	2.9455	5.2727	0.	5431.8
889	2.9455	5.0909	0.	5370.5
890	2.9455	4.9091	0.	5313.2
891	2.9455	4.7273	0.	5260.2
892	2.9455	4.5455	0.	5212.2
893	2.9455	4.3636	0.	5169.4
894	2.9455	4.1818	0.	5132.2
895	2.9455	4.	0.	5100.5
896	2.9455	3.8182	0.	5074.3
897	2.9455	3.6364	0.	5053.6
898	2.9455	3.4545	0.	5038.2
899	2.9455	3.2727	0.	5028.1
900	2.9455	3.0909	0.	5023.
901	2.9455	2.9091	0.	5023.
902	2.9455	2.7273	0.	5028.1
903	2.9455	2.5455	0.	5038.2
904	2.9455	2.3636	0.	5053.6
905	2.9455	2.1818	0.	5074.3
906	2.9455	2.	0.	5100.5
907	2.9455	1.8182	0.	5132.2
908	2.9455	1.6364	0.	5169.4
909	2.9455	1.4545	0.	5212.2
910	2.9455	1.2727	0.	5260.2
911	2.9455	1.0909	0.	5313.2
912	2.9455	0.90909	0.	5370.5
913	2.9455	0.72727	0.	5431.8
914	2.9455	0.54545	0.	5496.1
915	2.9455	0.36364	0.	5563.3
916	2.9455	0.18182	0.	5637.2
917	2.7614	5.8182	0.	5705.3
918	2.7614	5.6364	0.	5624.4
919	2.7614	5.4545	0.	5551.8
920	2.7614	5.2727	0.	5482.6
921	2.7614	5.0909	0.	5417.1
922	2.7614	4.9091	0.	5356.2
923	2.7614	4.7273	0.	5300.6
924	2.7614	4.5455	0.	5250.6
925	2.7614	4.3636	0.	5206.5
926	2.7614	4.1818	0.	5168.6
927	2.7614	4.	0.	5136.6
928	2.7614	3.8182	0.	5110.5
929	2.7614	3.6364	0.	5090.
930	2.7614	3.4545	0.	5074.9
931	2.7614	3.2727	0.	5065.
932	2.7614	3.0909	0.	5060.1
933	2.7614	2.9091	0.	5060.1
934	2.7614	2.7273	0.	5065.
935	2.7614	2.5455	0.	5074.9
936	2.7614	2.3636	0.	5090.
937	2.7614	2.1818	0.	5110.5
938	2.7614	2.	0.	5136.6
939	2.7614	1.8182	0.	5168.6
940	2.7614	1.6364	0.	5206.5
941	2.7614	1.4545	0.	5250.6
942	2.7614	1.2727	0.	5300.6
943	2.7614	1.0909	0.	5356.2
944	2.7614	0.90909	0.	5417.1
945	2.7614	0.72727	0.	5482.6
946	2.7614	0.54545	0.	5551.8
947	2.7614	0.36364	0.	5624.4
948	2.7614	0.18182	0.	5705.3
949	2.5773	5.8182	0.	5772.
950	2.5773	5.6364	0.	5683.6
951	2.5773	5.4545	0.	5605.2
952	2.5773	5.2727	0.	5531.
953	2.5773	5.0909	0.	5461.4
954	2.5773	4.9091	0.	5397.2
955	2.5773	4.7273	0.	5339.2
956	2.5773	4.5455	0.	5287.8
957	2.5773	4.3636	0.	5243.1
958	2.5773	4.1818	0.	5205.2
959	2.5773	4.	0.	5173.6
960	2.5773	3.8182	0.	5148.2
961	2.5773	3.6364	0.	5128.6
962	2.5773	3.4545	0.	5114.2
963	2.5773	3.2727	0.	5104.8
964	2.5773	3.0909	0.	5100.2
965	2.5773	2.9091	0.	5100.2
966	2.5773	2.7273	0.	5104.8
967	2.5773	2.5455	0.	5114.2
968	2.5773	2.3636	0.	5128.6
969	2.5773	2.1818	0.	5148.2
970	2.5773	2.	0.	5173.6
971	2.5773	1.8182	0.	5205.2
972	2.5773	1.6364	0.	5243.1
973	2.5773	1.4545	0.	5287.8
974	2.5773	1.2727	0.	5339.2
975	2.5773	1.0909	0.	5397.2
976	2.5773	0.90909	0.	5461.4
977	2.5773	0.72727	0.	5531.
978	2.5773	0.54545	0.	5605.2
979	2.5773	0.36364	0.	5683.6
980	2.5773	0.18182	0.	5772.
981	2.3932	5.8182	0.	5836.6
982	2.3932	5.6364	0.	5739.9
983	2.3932	5.4545	0.	5655.5
984	2.3932	5.2727	0.	5576.2
985	2.3932	5.0909	0.	5502.5
986	2.3932	4.9091	0.	5435.5
987	2.3932	4.7273	0.	5375.7
988	2.3932	4.5455	0.	5323.6
989	2.3932	4.3636	0.	5279.2
990	2.3932	4.1818	0.	5242.2
991	2.3932	4.	0.	5212.
992	2.3932	3.8182	0.	5188.2
993	2.3932	3.6364	0.	5170.
994	2.3932	3.4545	0.	5156.9
995	2.3932	3.2727	0.	5148.5
996	2.3932	3.0909	0.	5144.4
997	2.3932	2.9091	0.	5144.4
998	2.3932	2.7273	0.	5148.5
999	2.3932	2.5455	0.	5156.9
1000	2.3932	2.3636	0.	5170.
1001	2.3932	2.1818	0.	5188.2
1002	2.3932	2.	0.	5212.
1003	2.3932	1.8182	0.	5242.2
1004	2.3932	1.6364	0.	5279.2
1005	2.3932	1.4545	0.	5323.6
1006	2.3932	1.2727	0.	5375.7
1007	2.3932	1.0909	0.	5435.5
1008	2.3932	0.90909	0.	5502.5
1009	2.3932	0.72727	0.	5576.2
1010	2.3932	0.54545	0.	5655.5
1011	2.3932	0.36364	0.	5739.9
1012	2.3932	0.18182	0.	5836.6
1013	2.2091	5.8182	0.	5898.1
1014	2.2091	5.6364	0.	5792.2
1015	2.2091	5.4545	0.	5701.4
1016	2.2091	5.2727	0.	5617.
1017	2.2091	5.0909	0.	5539.5
1018	2.2091	4.9091	0.	5470.1
1019	2.2091	4.7273	0.	5409.5
1020	2.2091	4.5455	0.	5357.9
1021	2.2091	4.3636	0.	5314.9
1022	2.2091	4.1818	0.	5280.1
1023	2.2091	4.	0.	5252.5
1024	2.2091	3.8182	0.	5231.2
1025	2.2091	3.6364	0.	5215.4
1026	2.2091	3.4545	0.	5204.3
1027	2.2091	3.2727	0.	5197.3
1028	2.2091	3.0909	0.	5193.9
1029	2.2091	2.9091	0.	5193.9
1030	2.2091	2.7273	0.	5197.3
1031	2.2091	2.5455	0.	5204.3
1032	2.2091	2.3636	0.	5215.4
1033	2.2091	2.1818	0.	5231.2
1034	2.2091	2.	0.	5252.5
1035	2.2091	1.8182	0.	5280.1
1036	2.2091	1.6364	0.	5314.9
1037	2.2091	1.4545	0.	5357.9
1038	2.2091	1.2727	0.	5409.5
1039	2.2091	1.0909	0.	5470.1
1040	2.2091	0.90909	0.	5539.5
1041	2.2091	0.72727	0.	5617.
1042	2.2091	0.54545	0.	5701.4
1043	2.2091	0.36364	0.	5792.2
1044	2.2091	0.18182	0.	5898.1
1045	2.025	5.8182	0.	5955.
1046	2.025	5.6364	0.	5839.
1047	2.025	5.4545	0.	5741.4
1048	2.025	5.2727	0.	5651.8
1049	2.025	5.0909	0.	5571.1
1050	2.025	4.9091	0.	5500.3
1051	2.025	4.7273	0.	5440.1
1052	2.025	4.5455	0.	5390.4
1053	2.025	4.3636	0.	5350.6
1054	2.025	4.1818	0.	5319.5
1055	2.025	4.	0.	5295.9
1056	2.025	3.8182	0.	5278.5
1057	2.025	3.6364	0.	5266.1
1058	2.025	3.4545	0.	5257.8
1059	2.025	3.2727	0.	5252.7
1060	2.025	3.0909	0.	5250.3
1061	2.025	2.9091	0.	5250.3
1062	2.025	2.7273	0.	5252.7
1063	2.025	2.5455	0.	5257.8
1064	2.025	2.3636	0.	5266.1
1065	2.025	2.1818	0.	5278.5
1066	2.025	2.	0.	5295.9
1067	2.025	1.8182	0.	5319.5
1068	2.025	1.6364	0.	5350.6
1069	2.025	1.4545	0.	5390.4
1070	2.025	1.2727	0.	5440.1
1071	2.025	1.0909	0.	5500.3
1072	2.025	0.90909	0.	5571.1
1073	2.025	0.72727	0.	5651.8
1074	2.025	0.54545	0.	5741.4
1075	2.025	0.36364	0.	5839.
1076	2.025	0.18182	0.	5955.
1077	1.8409	5.8182	0.	6005.2
1078	1.8409	5.6364	0.	5877.9
1079	1.8409	5.4545	0.	5773.2
1080	1.8409	5.2727	0.	5678.7
1081	1.8409	5.0909	0.	5595.4
1082	1.8409	4.9091	0.	5524.7
1083	1.8409	4.7273	0.	5466.8
1084	1.8409	4.5455	0.	5421.2
1085	1.8409	4.3636	0.	5386.6
1086	1.8409	4.1818	0.	5361.3
1087	1.8409	4.	0.	5343.5
1088	1.8409	3.8182	0.	5331.5
1089	1.8409	3.6364	0.	5323.8
1090	1.8409	3.4545	0.	5319.
1091	1.8409	3.2727	0.	5316.4
1092	1.8409	3.0909	0.	5315.2
1093	1.8409	2.9091	0.	5315.2
1094	1.8409	2.7273	0.	5316.4
1095	1.8409	2.5455	0.	5319.
1096	1.8409	2.3636	0.	5323.8
1097	1.8409	2.1818	0.	5331.5
1098	1.8409	2.	0.	5343.5
1099	1.8409	1.8182	0.	5361.3
1100	1.8409	1.6364	0.	5386.6
1101	1.8409	1.4545	0.	5421.2
1102	1.8409	1.2727	0.	5466.8
1103	1.8409	1.0909	0.	5524.7
1104	1.8409	0.90909	0.	5595.4
1105	1.8409	0.72727	0.	5678.7
1106	1.8409	0.54545	0.	5773.2
1107	1.8409	0.36364	0.	5877.9
1108	1.8409	0.18182	0.	6005.2
1109	1.6568	5.8182	0.	6045.9
1110	1.6568	5.6364	0.	5905.7
1111	1.6568	5.4545	0.	5793.5
1112	1.6568	5.2727	0.	5694.7
1113	1.6568	5.0909	0.	5610.4
1114	1.6568	4.9091	0.	5541.9
1115	1.6568	4.7273	0.	5489.2
1116	1.6568	4.5455	0.	5450.6
1117	1.6568	4.3636	0.	5424.
1118	1.6568	4.1818	0.	5407.
1119	1.6568	4.	0.	5397.1
1120	1.6568	3.8182	0.	5392.1
1121	1.6568	3.6364	0.	5390.2
1122	1.6568	3.4545	0.	5390.
1123	1.6568	3.2727	0.	5390.4
1124	1.6568	3.0909	0.	5390.8
1125	1.6568	2.9091	0.	5390.8
1126	1.6568	2.7273	0.	5390.4
1127	1.6568	2.5455	0.	5390.
1128	1.6568	2.3636	0.	5390.2
1129	1.6568	2.1818	0.	5392.1
1130	1.6568	2.	0.	5397.1
1131	1.6568	1.8182	0.	5407.
1132	1.6568	1.6364	0.	5424.
1133	1.6568	1.4545	0.	5450.6
1134	1.6568	1.2727	0.	5489.2
1135	1.6568	1.0909	0.	5541.9
1136	1.6568	0.90909	0.	5610.4
1137	1.6568	0.72727	0.	5694.7
1138	1.6568	0.54545	0.	5793.5
1139	1.6568	0.36364	0.	5905.7
1140	1.6568	0.18182	0.	6045.9
1141	1.4727	5.8182	0.	6072.7
1142	1.4727	5.6364	0.	5917.9
1143	1.4727	5.4545	0.	5798.1
1144	1.4727	5.2727	0.	5696.1
1145	1.4727	5.0909	0.	5613.3
1146	1.4727	4.9091	0.	5550.7
1147	1.4727	4.7273	0.	5506.9
1148	1.4727	4.5455	0.	5479.3
1149	1.4727	4.3636	0.	5464.3
1150	1.4727	4.1818	0.	5458.5
1151	1.4727	4.	0.	5458.8
1152	1.4727	3.8182	0.	5462.6
1153	1.4727	3.6364	0.	5467.8
1154	1.4727	3.4545	0.	5472.9
1155	1.4727	3.2727	0.	5476.8
1156	1.4727	3.0909	0.	5479.
1157	1.4727	2.9091	0.	5479.
1158	1.4727	2.7273	0.	5476.8
1159	1.4727	2.5455	0.	5472.9
1160	1.4727	2.3636	0.	5467.8
1161	1.4727	2.1818	0.	5462.6
1162	1.4727	2.	0.	5458.8
1163	1.4727	1.8182	0.	5458.5
1164	1.4727	1.6364	0.	5464.3
1165	1.4727	1.4545	0.	5479.3
1166	1.4727	1.2727	0.	5506.9
1167	1.4727	1.0909	0.	5550.7
1168	1.4727	0.90909	0.	5613.3
1169	1.4727	0.72727	0.	5696.1
1170	1.4727	0.54545	0.	5798.1
1171	1.4727	0.36364	0.	5917.9
1172	1.4727	0.18182	0.	6072.7
1173	1.2886	5.8182	0.	6079.4
1174	1.2886	5.6364	0.	5908.1
1175	1.2886	5.4545	0.	5781.1
1176	1.2886	5.2727	0.	5678.3
1177	1.2886	5.0909	0.	5601.5
1178	1.2886	4.9091	0.	5550.2
1179	1.2886	4.7273	0.	5521.2
1180	1.2886	4.5455	0.	5509.6
1181	1.2886	4.3636	0.	5510.4
1182	1.2886	4.1818	0.	5519.1
1183	1.2886	4.	0.	5531.9
1184	1.2886	3.8182	0.	5546.
1185	1.2886	3.6364	0.	5559.3
1186	1.2886	3.4545	0.	5570.4
1187	1.2886	3.2727	0.	5578.2
1188	1.2886	3.0909	0.	5582.3
1189	1.2886	2.9091	0.	5582.3
1190	1.2886	2.7273	0.	5578.2
1191	1.2886	2.5455	0.	5570.4
1192	1.2886	2.3636	0.	5559.3
1193	1.2886	2.1818	0.	5546.
1194	1.2886	2.	0.	5531.9
1195	1.2886	1.8182	0.	5519.1
1196	1.2886	1.6364	0.	5510.4
1197	1.2886	1.4545	0.	5509.6
1198	1.2886	1.2727	0.	5521.2
1199	1.2886	1.0909	0.	5550.2
1200	1.2886	0.90909	0.	5601.5
1201	1.2886	0.72727	0.	5678.3
1202	1.2886	0.54545	0.	5781.1
1203	1.2886	0.36364	0.	5908.1
1204	1.2886	0.18182	0.	6079.4
1205	1.1045	5.8182	0.	6055.9
1206	1.1045	5.6364	0.	5865.6
1207	1.1045	5.4545	0.	5732.8
1208	1.1045	5.2727	0.	5634.3
1209	1.1045	5.0909	0.	5571.
1210	1.1045	4.9091	0.	5539.6
1211	1.1045	4.7273	0.	5533.2
1212	1.1045	4.5455	0.	5544.
1213	1.1045	4.3636	0.	5565.3
1214	1.1045	4.1818	0.	5591.5
1215	1.1045	4.	0.	5618.7
1216	1.1045	3.8182	0.	5644.3
1217	1.1045	3.6364	0.	5666.3
1218	1.1045	3.4545	0.	5683.5
1219	1.1045	3.2727	0.	5695.4
1220	1.1045	3.0909	0.	5701.4
1221	1.1045	2.9091	0.	5701.4
1222	1.1045	2.7273	0.	5695.4
1223	1.1045	2.5455	0.	5683.5
1224	1.1045	2.3636	0.	5666.3
1225	1.1045	2.1818	0.	5644.3
1226	1.1045	2.	0.	5618.7
1227	1.1045	1.8182	0.	5591.5
1228	1.1045	1.6364	0.	5565.3
1229	1.1045	1.4545	0.	5544.
1230	1.1045	1.2727	0.	5533.2
1231	1.1045	1.0909	0.	5539.6
1232	1.1045	0.90909	0.	5571.
1233	1.1045	0.72727	0.	5634.3
1234	1.1045	0.54545	0.	5732.8
1235	1.1045	0.36364	0.	5865.6
1236	1.1045	0.18182	0.	6055.9
1237	0.92045	5.8182	0.	5987.5
1238	0.92045	5.6364	0.	5777.4
1239	0.92045	5.4545	0.	5644.3
1240	0.92045	5.2727	0.	5561.2
1241	0.92045	5.0909	0.	5525.4
1242	0.92045	4.9091	0.	5527.1
1243	0.92045	4.7273	0.	5553.7
1244	0.92045	4.5455	0.	5594.2
1245	0.92045	4.3636	0.	5640.3
1246	0.92045	4.1818	0.	5686.5
1247	0.92045	4.	0.	5729.3
1248	0.92045	3.8182	0.	5766.7
1249	0.92045	3.6364	0.	5797.3
1250	0.92045	3.4545	0.	5820.6
1251	0.92045	3.2727	0.	5836.3
1252	0.92045	3.0909	0.	5844.1
1253	0.92045	2.9091	0.	5844.1
1254	0.92045	2.7273	0.	5836.3
1255	0.92045	2.5455	0.	5820.6
1256	0.92045	2.3636	0.	5797.3
1257	0.92045	2.1818	0.	5766.7
1258	0.92045	2.	0.	5729.3
1259	0.92045	1.8182	0.	5686.5
1260	0.92045	1.6364	0.	5640.3
1261	0.92045	1.4545	0.	5594.2
1262	0.92045	1.2727	0.	5553.7
1263	0.92045	1.0909	0.	5527.1
1264	0.92045	0.90909	0.	5525.4
1265	0.92045	0.72727	0.	5561.2
1266	0.92045	0.54545	0.	5644.3
1267	0.92045	0.36364	0.	5777.4
1268	0.92045	0.18182	0.	5987.5
1269	0.73636	5.8182	0.	5843.1
1270	0.73636	5.6364	0.	5608.7
1271	0.73636	5.4545	0.	5485.2
1272	0.73636	5.2727	0.	5438.1
1273	0.73636	5.0909	0.	5451.6
1274	0.73636	4.9091	0.	5503.4
1275	0.73636	4.7273	0.	5573.8
1276	0.73636	4.5455	0.	5649.6
1277	0.73636	4.3636	0.	5722.8
1278	0.73636	4.1818	0.	5789.1
1279	0.73636	4.	0.	5846.7
1280	0.73636	3.8182	0.	5894.6
1281	0.73636	3.6364	0.	5932.7
1282	0.73636	3.4545	0.	5961.1
1283	0.73636	3.2727	0.	5979.8
1284	0.73636	3.0909	0.	5989.2
1285	0.73636	2.9091	0.	5989.2
1286	0.73636	2.7273	0.	5979.8
1287	0.73636	2.5455	0.	5961.1
1288	0.73636	2.3636	0.	5932.7
1289	0.73636	2.1818	0.	5894.6
1290	0.73636	2.	0.	5846.7
1291	0.73636	1.8182	0.	5789.1
1292	0.73636	1.6364	0.	5722.8
1293	0.73636	1.4545	0.	5649.6
1294	0.73636	1.2727	0.	5573.8
1295	0.73636	1.0909	0.	5503.4
1296	0.73636	0.90909	0.	5451.6
1297	0.73636	0.72727	0.	5438.1
1298	0.73636	0.54545	0.	5485.2
1299	0.73636	0.36364	0.	5608.7
1300	0.73636	0.18182	0.	5843.1
1301	0.55227	5.8182	0.	5584.1
1302	0.55227	5.6364	0.	5355.4
1303	0.55227	5.4545	0.	5292.4
1304	0.55227	5.2727	0.	5335.8
1305	0.55227	5.0909	0.	5440.2
1306	0.55227	4.9091	0.	5566.6
1307	0.55227	4.7273	0.	5692.5
1308	0.55227	4.5455	0.	5807.6
1309	0.55227	4.3636	0.	5908.1
1310	0.55227	4.1818	0.	5993.3
1311	0.55227	4.	0.	6063.8
1312	0.55227	3.8182	0.	6120.4
1313	0.55227	3.6364	0.	6164.4
1314	0.55227	3.4545	0.	6196.5
1315	0.55227	3.2727	0.	6217.5
1316	0.55227	3.0909	0.	6227.9
1317	0.55227	2.9091	0.	6227.9
1318	0.55227	2.7273	0.	6217.5
1319	0.55227	2.5455	0.	6196.5
1320	0.55227	2.3636	0.	6164.4
1321	0.55227	2.1818	0.	6120.4
1322	0.55227	2.	0.	6063.8
1323	0.55227	1.8182	0.	5993.3
1324	0.55227	1.6364	0.	5908.1
1325	0.55227	1.4545	0.	5807.6
1326	0.55227	1.2727	0.	5692.5
1327	0.55227	1.0909	0.	5566.6
1328	0.55227	0.90909	0.	5440.2
1329	0.55227	0.72727	0.	5335.8
1330	0.55227	0.54545	0.	5292.4
1331	0.55227	0.36364	0.	5355.4
1332	0.55227	0.18182	0.	5584.1
1333	0.36818	5.8182	0.	5043.3
1334	0.36818	5.6364	0.	4788.3
1335	0.36818	5.4545	0.	4842.2
1336	0.36818	5.2727	0.	5032.
1337	0.36818	5.0909	0.	5246.1
1338	0.36818	4.9091	0.	5443.1
1339	0.36818	4.7273	0.	5612.1
1340	0.36818	4.5455	0.	5752.6
1341	0.36818	4.3636	0.	5867.9
1342	0.36818	4.1818	0.	5961.3
1343	0.36818	4.	0.	6036.1
1344	0.36818	3.8182	0.	6094.8
1345	0.36818	3.6364	0.	6139.6
1346	0.36818	3.4545	0.	6171.9
1347	0.36818	3.2727	0.	6192.9
1348	0.36818	3.0909	0.	6203.2
1349	0.36818	2.9091	0.	6203.2
1350	0.36818	2.7273	0.	6192.9
1351	0.36818	2.5455	0.	6171.9
1352	0.36818	2.3636	0.	6139.6
1353	0.36818	2.1818	0.	6094.8
1354	0.36818	2.	0.	6036.1
1355	0.36818	1.8182	0.	5961.3
1356	0.36818	1.6364	0.	5867.9
1357	0.36818	1.4545	0.	5752.6
1358	0.36818	1.2727	0.	5612.1
1359	0.36818	1.0909	0.	5443.1
1360	0.36818	0.90909	0.	5246.1
1361	0.36818	0.72727	0.	5032.
1362	0.36818	0.54545	0.	4842.2
1363	0.36818	0.36364	0.	4788.3
1364	0.36818	0.18182	0.	5043.3
1365	0.18409	5.8182	0.	4061.6
1366	0.18409	5.6364	0.	4560.9
1367	0.18409	5.4545	0.	5226.9
1368	0.18409	5.2727	0.	5747.8
1369	0.18409	5.0909	0.	6138.
1370	0.18409	4.9091	0.	6432.2
1371	0.18409	4.7273	0.	6657.1
1372	0.18409	4.5455	0.	6831.4
1373	0.18409	4.3636	0.	6967.5
1374	0.18409	4.1818	0.	7074.2
1375	0.18409	4.	0.	7157.5
1376	0.18409	3.8182	0.	7221.8
1377	0.18409	3.6364	0.	7270.1
1378	0.18409	3.4545	0.	7304.7
1379	0.18409	3.2727	0.	7327.
1380	0.18409	3.0909	0.	7337.9
1381	0.18409	2.9091	0.	7337.9
1382	0.18409	2.7273	0.	7327.
1383	0.18409	2.5455	0.	7304.7
1384	0.18409	2.3636	0.	7270.1
1385	0.18409	2.1818	0.	7221.8
1386	0.18409	2.	0.	7157.5
1387	0.18409	1.8182	0.	7074.2
1388	0.18409	1.6364	0.	6967.5
1389	0.18409	1.4545	0.	6831.4
1390	0.18409	1.2727	0.	6657.1
1391	0.18409	1.0909	0.	6432.2
1392	0.18409	0.90909	0.	6138.
1393	0.18409	0.72727	0.	5747.8
1394	0.18409	0.54545	0.	5226.9
1395	0.18409	0.36364	0.	4560.9
1396	0.18409	0.18182	0.	4061.6
1397	8.4496	5.8182	0.	728.41
1398	8.6326	5.8182	0.	1088.1
1399	8.8155	5.8182	0.	1465.4
1400	8.9985	5.8182	0.	1801.3
1401	9.1814	5.8182	0.	2087.6
1402	9.3643	5.8182	0.	2324.4
1403	9.5473	5.8182	0.	2515.
1404	9.7302	5.8182	0.	2664.
1405	9.9132	5.8182	0.	2776.8
1406	10.096	5.8182	0.	2858.8
1407	10.279	5.8182	0.	2915.
1408	10.462	5.8182	0.	2949.8
1409	10.645	5.8182	0.	2967.4
1410	10.828	5.8182	0.	2970.9
1411	11.011	5.8182	0.	2963.2
1412	11.194	5.8182	0.	2946.5
1413	11.377	5.8182	0.	2922.7
1414	11.56	5.8182	0.	2893.3
1415	11.743	5.8182	0.	2859.5
1416	11.926	5.8182	0.	2822.3
1417	12.109	5.8182	0.	2782.5
1418	12.291	5.8182	0.	2740.7
1419	12.474	5.8182	0.	2697.4
1420	12.657	5.8182	0.	2652.9
1421	12.84	5.8182	0.	2607.7
1422	13.023	5.8182	0.	2561.8
1423	13.206	5.8182	0.	2515.5
1424	13.389	5.8182	0.	2469.
1425	13.572	5.8182	0.	2422.3
1426	13.755	5.8182	0.	2375.5
1427	13.938	5.8182	0.	2328.7
1428	14.121	5.8182	0.	2282.
1429	14.304	5.8182	0.	2235.4
1430	14.487	5.8182	0.	2188.9
1431	14.67	5.8182	0.	2142.5
1432	14.853	5.8182	0.	2096.4
1433	15.036	5.8182	0.	2050.3
1434	15.219	5.8182	0.	2004.5
1435	15.402	5.8182	0.	1958.8
1436	15.584	5.8182	0.	1913.4
1437	15.767	5.8182	0.	1868.1
1438	15.95	5.8182	0.	1823.
1439	16.133	5.8182	0.	1778.2
1440	16.316	5.8182	0.	1733.5
1441	16.499	5.8182	0.	1689.
1442	16.682	5.8182	0.	1644.8
1443	16.865	5.8182	0.	1600.7
1444	17.048	5.8182	0.	1556.8
1445	17.231	5.8182	0.	1513.2
1446	17.414	5.8182	0.	1469.7
1447	17.597	5.8182	0.	1426.4
1448	17.78	5.8182	0.	1383.3
1449	17.963	5.8182	0.	1340.4
1450	18.146	5.8182	0.	1297.7
1451	18.329	5.8182	0.	1255.2
1452	18.512	5.8182	0.	1212.9
1453	18.695	5.8182	0.	1170.8
1454	18.878	5.8182	0.	1128.8
1455	19.06	5.8182	0.	1087.
1456	19.243	5.8182	0.	1045.4
1457	19.426	5.8182	0.	1004.
1458	19.609	5.8182	0.	962.74
1459	19.792	5.8182	0.	921.64
1460	19.975	5.8182	0.	880.71
1461	20.158	5.8182	0.	839.93
1462	20.341	5.8182	0.	799.31
1463	20.524	5.8182	0.	758.83
1464	20.707	5.8182	0.	718.49
1465	20.89	5.8182	0.	678.3
1466	21.073	5.8182	0.	638.23
1467	21.256	5.8182	0.	598.3
1468	21.439	5.8182	0.	558.48
1469	21.622	5.8182	0.	518.79
1470	21.805	5.8182	0.	479.21
1471	21.988	5.8182	0.	439.75
1472	22.171	5.8182	0.	400.4
1473	22.353	5.8182	0.	361.16
1474	22.536	5.8182	0.	322.05
1475	22.719	5.8182	0.	283.08
1476	22.902	5.8182	0.	244.28
1477	23.085	5.8182	0.	205.7
1478	23.268	5.8182	0.	167.44
1479	23.451	5.8182	0.	129.73
1480	23.634	5.8182	0.	93.253
1481	23.817	5.8182	0.	61.344
1482	8.4496	5.6364	0.	1064.1
1483	8.6326	5.6364	0.	1260.2
1484	8.8155	5.6364	0.	1584.2
1485	8.9985	5.6364	0.	1899.5
1486	9.1814	5.6364	0.	2174.4
1487	9.3643	5.6364	0.	2401.9
1488	9.5473	5.6364	0.	2583.1
1489	9.7302	5.6364	0.	2722.6
1490	9.9132	5.6364	0.	2826.
1491	10.096	5.6364	0.	2899.2
1492	10.279	5.6364	0.	2947.3
1493	10.462	5.6364	0.	2975.
1494	10.645	5.6364	0.	2986.4
1495	10.828	5.6364	0.	2984.6
1496	11.011	5.6364	0.	2972.5
1497	11.194	5.6364	0.	2952.1
1498	11.377	5.6364	0.	2925.4
1499	11.56	5.6364	0.	2893.6
1500	11.743	5.6364	0.	2857.9
1501	11.926	5.6364	0.	2819.2
1502	12.109	5.6364	0.	2778.3
1503	12.291	5.6364	0.	2735.6
1504	12.474	5.6364	0.	2691.6
1505	12.657	5.6364	0.	2646.7
1506	12.84	5.6364	0.	2601.1
1507	13.023	5.6364	0.	2555.1
1508	13.206	5.6364	0.	2508.7
1509	13.389	5.6364	0.	2462.1
1510	13.572	5.6364	0.	2415.4
1511	13.755	5.6364	0.	2368.7
1512	13.938	5.6364	0.	2322.
1513	14.121	5.6364	0.	2275.3
1514	14.304	5.6364	0.	2228.8
1515	14.487	5.6364	0.	2182.4
1516	14.67	5.6364	0.	2136.2
1517	14.853	5.6364	0.	2090.1
1518	15.036	5.6364	0.	2044.1
1519	15.219	5.6364	0.	1998.4
1520	15.402	5.6364	0.	1952.8
1521	15.584	5.6364	0.	1907.4
1522	15.767	5.6364	0.	1862.3
1523	15.95	5.6364	0.	1817.3
1524	16.133	5.6364	0.	1772.5
1525	16.316	5.6364	0.	1727.8
1526	16.499	5.6364	0.	1683.4
1527	16.682	5.6364	0.	1639.2
1528	16.865	5.6364	0.	1595.2
1529	17.048	5.6364	0.	1551.4
1530	17.231	5.6364	0.	1507.7
1531	17.414	5.6364	0.	1464.3
1532	17.597	5.6364	0.	1421.
1533	17.78	5.6364	0.	1378.
1534	17.963	5.6364	0.	1335.1
1535	18.146	5.6364	0.	1292.4
1536	18.329	5.6364	0.	1250.
1537	18.512	5.6364	0.	1207.7
1538	18.695	5.6364	0.	1165.6
1539	18.878	5.6364	0.	1123.6
1540	19.06	5.6364	0.	1081.9
1541	19.243	5.6364	0.	1040.3
1542	19.426	5.6364	0.	998.97
1543	19.609	5.6364	0.	957.77
1544	19.792	5.6364	0.	916.75
1545	19.975	5.6364	0.	875.89
1546	20.158	5.6364	0.	835.21
1547	20.341	5.6364	0.	794.7
1548	20.524	5.6364	0.	754.35
1549	20.707	5.6364	0.	714.16
1550	20.89	5.6364	0.	674.14
1551	21.073	5.6364	0.	634.28
1552	21.256	5.6364	0.	594.57
1553	21.439	5.6364	0.	555.03
1554	21.622	5.6364	0.	515.64
1555	21.805	5.6364	0.	476.43
1556	21.988	5.6364	0.	437.39
1557	22.171	5.6364	0.	398.55
1558	22.353	5.6364	0.	359.92
1559	22.536	5.6364	0.	321.55
1560	22.719	5.6364	0.	283.5
1561	22.902	5.6364	0.	245.88
1562	23.085	5.6364	0.	208.87
1563	23.268	5.6364	0.	172.81
1564	23.451	5.6364	0.	138.39
1565	23.634	5.6364	0.	107.2
1566	23.817	5.6364	0.	82.885
1567	8.4496	5.4545	0.	1488.6
1568	8.6326	5.4545	0.	1558.6
1569	8.8155	5.4545	0.	1804.8
1570	8.9985	5.4545	0.	2072.6
1571	9.1814	5.4545	0.	2315.4
1572	9.3643	5.4545	0.	2518.2
1573	9.5473	5.4545	0.	2678.9
1574	9.7302	5.4545	0.	2800.8
1575	9.9132	5.4545	0.	2889.1
1576	10.096	5.4545	0.	2949.3
1577	10.279	5.4545	0.	2986.5
1578	10.462	5.4545	0.	3005.2
1579	10.645	5.4545	0.	3009.
1580	10.828	5.4545	0.	3001.
1581	11.011	5.4545	0.	2983.8
1582	11.194	5.4545	0.	2959.4
1583	11.377	5.4545	0.	2929.4
1584	11.56	5.4545	0.	2895.1
1585	11.743	5.4545	0.	2857.4
1586	11.926	5.4545	0.	2817.3
1587	12.109	5.4545	0.	2775.2
1588	12.291	5.4545	0.	2731.7
1589	12.474	5.4545	0.	2687.1
1590	12.657	5.4545	0.	2641.8
1591	12.84	5.4545	0.	2596.
1592	13.023	5.4545	0.	2549.8
1593	13.206	5.4545	0.	2503.3
1594	13.389	5.4545	0.	2456.8
1595	13.572	5.4545	0.	2410.2
1596	13.755	5.4545	0.	2363.5
1597	13.938	5.4545	0.	2317.
1598	14.121	5.4545	0.	2270.5
1599	14.304	5.4545	0.	2224.2
1600	14.487	5.4545	0.	2178.
1601	14.67	5.4545	0.	2131.9
1602	14.853	5.4545	0.	2086.
1603	15.036	5.4545	0.	2040.2
1604	15.219	5.4545	0.	1994.6
1605	15.402	5.4545	0.	1949.2
1606	15.584	5.4545	0.	1904.
1607	15.767	5.4545	0.	1859.
1608	15.95	5.4545	0.	1814.1
1609	16.133	5.4545	0.	1769.4
1610	16.316	5.4545	0.	1725.
1611	16.499	5.4545	0.	1680.7
1612	16.682	5.4545	0.	1636.6
1613	16.865	5.4545	0.	1592.6
1614	17.048	5.4545	0.	1548.9
1615	17.231	5.4545	0.	1505.4
1616	17.414	5.4545	0.	1462.
1617	17.597	5.4545	0.	1418.9
1618	17.78	5.4545	0.	1375.9
1619	17.963	5.4545	0.	1333.2
1620	18.146	5.4545	0.	1290.6
1621	18.329	5.4545	0.	1248.2
1622	18.512	5.4545	0.	1206.
1623	18.695	5.4545	0.	1164.
1624	18.878	5.4545	0.	1122.2
1625	19.06	5.4545	0.	1080.6
1626	19.243	5.4545	0.	1039.1
1627	19.426	5.4545	0.	997.86
1628	19.609	5.4545	0.	956.8
1629	19.792	5.4545	0.	915.91
1630	19.975	5.4545	0.	875.22
1631	20.158	5.4545	0.	834.7
1632	20.341	5.4545	0.	794.37
1633	20.524	5.4545	0.	754.23
1634	20.707	5.4545	0.	714.26
1635	20.89	5.4545	0.	674.48
1636	21.073	5.4545	0.	634.89
1637	21.256	5.4545	0.	595.48
1638	21.439	5.4545	0.	556.27
1639	21.622	5.4545	0.	517.27
1640	21.805	5.4545	0.	478.49
1641	21.988	5.4545	0.	439.94
1642	22.171	5.4545	0.	401.67
1643	22.353	5.4545	0.	363.72
1644	22.536	5.4545	0.	326.16
1645	22.719	5.4545	0.	289.1
1646	22.902	5.4545	0.	252.71
1647	23.085	5.4545	0.	217.28
1648	23.268	5.4545	0.	183.29
1649	23.451	5.4545	0.	151.58
1650	23.634	5.4545	0.	123.69
1651	23.817	5.4545	0.	102.21
1652	8.4496	5.2727	0.	1967.7
1653	8.6326	5.2727	0.	1938.8
1654	8.8155	5.2727	0.	2106.3
1655	8.9985	5.2727	0.	2311.2
1656	9.1814	5.2727	0.	2505.2
1657	9.3643	5.2727	0.	2669.4
1658	9.5473	5.2727	0.	2799.1
1659	9.7302	5.2727	0.	2895.7
1660	9.9132	5.2727	0.	2963.5
1661	10.096	5.2727	0.	3007.
1662	10.279	5.2727	0.	3030.7
1663	10.462	5.2727	0.	3038.5
1664	10.645	5.2727	0.	3033.5
1665	10.828	5.2727	0.	3018.6
1666	11.011	5.2727	0.	2995.9
1667	11.194	5.2727	0.	2967.1
1668	11.377	5.2727	0.	2933.6
1669	11.56	5.2727	0.	2896.6
1670	11.743	5.2727	0.	2857.
1671	11.926	5.2727	0.	2815.3
1672	12.109	5.2727	0.	2772.
1673	12.291	5.2727	0.	2727.7
1674	12.474	5.2727	0.	2682.6
1675	12.657	5.2727	0.	2636.9
1676	12.84	5.2727	0.	2590.9
1677	13.023	5.2727	0.	2544.6
1678	13.206	5.2727	0.	2498.1
1679	13.389	5.2727	0.	2451.6
1680	13.572	5.2727	0.	2405.1
1681	13.755	5.2727	0.	2358.7
1682	13.938	5.2727	0.	2312.3
1683	14.121	5.2727	0.	2266.
1684	14.304	5.2727	0.	2219.8
1685	14.487	5.2727	0.	2173.8
1686	14.67	5.2727	0.	2127.9
1687	14.853	5.2727	0.	2082.2
1688	15.036	5.2727	0.	2036.6
1689	15.219	5.2727	0.	1991.2
1690	15.402	5.2727	0.	1946.
1691	15.584	5.2727	0.	1900.9
1692	15.767	5.2727	0.	1856.
1693	15.95	5.2727	0.	1811.3
1694	16.133	5.2727	0.	1766.8
1695	16.316	5.2727	0.	1722.4
1696	16.499	5.2727	0.	1678.2
1697	16.682	5.2727	0.	1634.2
1698	16.865	5.2727	0.	1590.4
1699	17.048	5.2727	0.	1546.8
1700	17.231	5.2727	0.	1503.4
1701	17.414	5.2727	0.	1460.2
1702	17.597	5.2727	0.	1417.1
1703	17.78	5.2727	0.	1374.3
1704	17.963	5.2727	0.	1331.6
1705	18.146	5.2727	0.	1289.1
1706	18.329	5.2727	0.	1246.8
1707	18.512	5.2727	0.	1204.7
1708	18.695	5.2727	0.	1162.8
1709	18.878	5.2727	0.	1121.1
1710	19.06	5.2727	0.	1079.6
1711	19.243	5.2727	0.	1038.3
1712	19.426	5.2727	0.	997.21
1713	19.609	5.2727	0.	956.3
1714	19.792	5.2727	0.	915.57
1715	19.975	5.2727	0.	875.05
1716	20.158	5.2727	0.	834.72
1717	20.341	5.2727	0.	794.6
1718	20.524	5.2727	0.	754.67
1719	20.707	5.2727	0.	714.95
1720	20.89	5.2727	0.	675.44
1721	21.073	5.2727	0.	636.15
1722	21.256	5.2727	0.	597.07
1723	21.439	5.2727	0.	558.24
1724	21.622	5.2727	0.	519.65
1725	21.805	5.2727	0.	481.34
1726	21.988	5.2727	0.	443.34
1727	22.171	5.2727	0.	405.69
1728	22.353	5.2727	0.	368.47
1729	22.536	5.2727	0.	331.76
1730	22.719	5.2727	0.	295.71
1731	22.902	5.2727	0.	260.54
1732	23.085	5.2727	0.	226.57
1733	23.268	5.2727	0.	194.34
1734	23.451	5.2727	0.	164.63
1735	23.634	5.2727	0.	138.73
1736	23.817	5.2727	0.	118.71
1737	8.4496	5.0909	0.	2516.3
1738	8.6326	5.0909	0.	2393.
1739	8.8155	5.0909	0.	2480.4
1740	8.9985	5.0909	0.	2610.6
1741	9.1814	5.0909	0.	2741.1
1742	9.3643	5.0909	0.	2853.8
1743	9.5473	5.0909	0.	2942.2
1744	9.7302	5.0909	0.	3006.3
1745	9.9132	5.0909	0.	3048.4
1746	10.096	5.0909	0.	3071.6
1747	10.279	5.0909	0.	3079.3
1748	10.462	5.0909	0.	3074.5
1749	10.645	5.0909	0.	3059.7
1750	10.828	5.0909	0.	3037.
1751	11.011	5.0909	0.	3008.2
1752	11.194	5.0909	0.	2974.8
1753	11.377	5.0909	0.	2937.8
1754	11.56	5.0909	0.	2898.
1755	11.743	5.0909	0.	2856.3
1756	11.926	5.0909	0.	2813.1
1757	12.109	5.0909	0.	2768.7
1758	12.291	5.0909	0.	2723.6
1759	12.474	5.0909	0.	2678.
1760	12.657	5.0909	0.	2632.
1761	12.84	5.0909	0.	2585.8
1762	13.023	5.0909	0.	2539.4
1763	13.206	5.0909	0.	2493.
1764	13.389	5.0909	0.	2446.6
1765	13.572	5.0909	0.	2400.2
1766	13.755	5.0909	0.	2353.9
1767	13.938	5.0909	0.	2307.7
1768	14.121	5.0909	0.	2261.6
1769	14.304	5.0909	0.	2215.6
1770	14.487	5.0909	0.	2169.8
1771	14.67	5.0909	0.	2124.1
1772	14.853	5.0909	0.	2078.6
1773	15.036	5.0909	0.	2033.2
1774	15.219	5.0909	0.	1987.9
1775	15.402	5.0909	0.	1942.9
1776	15.584	5.0909	0.	1898.
1777	15.767	5.0909	0.	1853.2
1778	15.95	5.0909	0.	1808.6
1779	16.133	5.0909	0.	1764.3
1780	16.316	5.0909	0.	1720.
1781	16.499	5.0909	0.	1676.
1782	16.682	5.0909	0.	1632.1
1783	16.865	5.0909	0.	1588.4
1784	17.048	5.0909	0.	1544.9
1785	17.231	5.0909	0.	1501.6
1786	17.414	5.0909	0.	1458.5
1787	17.597	5.0909	0.	1415.5
1788	17.78	5.0909	0.	1372.8
1789	17.963	5.0909	0.	1330.2
1790	18.146	5.0909	0.	1287.8
1791	18.329	5.0909	0.	1245.7
1792	18.512	5.0909	0.	1203.7
1793	18.695	5.0909	0.	1161.9
1794	18.878	5.0909	0.	1120.3
1795	19.06	5.0909	0.	1078.9
1796	19.243	5.0909	0.	1037.8
1797	19.426	5.0909	0.	996.8
1798	19.609	5.0909	0.	956.03
1799	19.792	5.0909	0.	915.48
1800	19.975	5.0909	0.	875.13
1801	20.158	5.0909	0.	835.
1802	20.341	5.0909	0.	795.09
1803	20.524	5.0909	0.	755.4
1804	20.707	5.0909	0.	715.94
1805	20.89	5.0909	0.	676.71
1806	21.073	5.0909	0.	637.73
1807	21.256	5.0909	0.	599.01
1808	21.439	5.0909	0.	560.56
1809	21.622	5.0909	0.	522.41
1810	21.805	5.0909	0.	484.59
1811	21.988	5.0909	0.	447.14
1812	22.171	5.0909	0.	410.12
1813	22.353	5.0909	0.	373.61
1814	22.536	5.0909	0.	337.73
1815	22.719	5.0909	0.	302.63
1816	22.902	5.0909	0.	268.55
1817	23.085	5.0909	0.	235.82
1818	23.268	5.0909	0.	204.95
1819	23.451	5.0909	0.	176.66
1820	23.634	5.0909	0.	152.05
1821	23.817	5.0909	0.	132.9
1822	8.4496	4.9091	0.	3165.4
1823	8.6326	4.9091	0.	2931.7
1824	8.8155	4.9091	0.	2925.5
1825	8.9985	4.9091	0.	2965.1
1826	9.1814	4.9091	0.	3017.2
1827	9.3643	4.9091	0.	3066.3
1828	9.5473	4.9091	0.	3104.7
1829	9.7302	4.9091	0.	3129.8
1830	9.9132	4.9091	0.	3141.8
1831	10.096	4.9091	0.	3141.7
1832	10.279	4.9091	0.	3131.3
1833	10.462	4.9091	0.	3112.5
1834	10.645	4.9091	0.	3086.9
1835	10.828	4.9091	0.	3055.9
1836	11.011	4.9091	0.	3020.7
1837	11.194	4.9091	0.	2982.4
1838	11.377	4.9091	0.	2941.6
1839	11.56	4.9091	0.	2899.1
1840	11.743	4.9091	0.	2855.3
1841	11.926	4.9091	0.	2810.6
1842	12.109	4.9091	0.	2765.2
1843	12.291	4.9091	0.	2719.4
1844	12.474	4.9091	0.	2673.3
1845	12.657	4.9091	0.	2627.
1846	12.84	4.9091	0.	2580.7
1847	13.023	4.9091	0.	2534.3
1848	13.206	4.9091	0.	2487.9
1849	13.389	4.9091	0.	2441.6
1850	13.572	4.9091	0.	2395.4
1851	13.755	4.9091	0.	2349.3
1852	13.938	4.9091	0.	2303.3
1853	14.121	4.9091	0.	2257.4
1854	14.304	4.9091	0.	2211.6
1855	14.487	4.9091	0.	2166.
1856	14.67	4.9091	0.	2120.5
1857	14.853	4.9091	0.	2075.1
1858	15.036	4.9091	0.	2029.9
1859	15.219	4.9091	0.	1984.9
1860	15.402	4.9091	0.	1940.
1861	15.584	4.9091	0.	1895.2
1862	15.767	4.9091	0.	1850.6
1863	15.95	4.9091	0.	1806.2
1864	16.133	4.9091	0.	1761.9
1865	16.316	4.9091	0.	1717.8
1866	16.499	4.9091	0.	1673.9
1867	16.682	4.9091	0.	1630.2
1868	16.865	4.9091	0.	1586.6
1869	17.048	4.9091	0.	1543.2
1870	17.231	4.9091	0.	1500.
1871	17.414	4.9091	0.	1456.9
1872	17.597	4.9091	0.	1414.1
1873	17.78	4.9091	0.	1371.5
1874	17.963	4.9091	0.	1329.
1875	18.146	4.9091	0.	1286.7
1876	18.329	4.9091	0.	1244.7
1877	18.512	4.9091	0.	1202.8
1878	18.695	4.9091	0.	1161.1
1879	18.878	4.9091	0.	1119.7
1880	19.06	4.9091	0.	1078.4
1881	19.243	4.9091	0.	1037.4
1882	19.426	4.9091	0.	996.56
1883	19.609	4.9091	0.	955.95
1884	19.792	4.9091	0.	915.56
1885	19.975	4.9091	0.	875.4
1886	20.158	4.9091	0.	835.47
1887	20.341	4.9091	0.	795.78
1888	20.524	4.9091	0.	756.33
1889	20.707	4.9091	0.	717.13
1890	20.89	4.9091	0.	678.19
1891	21.073	4.9091	0.	639.53
1892	21.256	4.9091	0.	601.16
1893	21.439	4.9091	0.	563.1
1894	21.622	4.9091	0.	525.38
1895	21.805	4.9091	0.	488.04
1896	21.988	4.9091	0.	451.13
1897	22.171	4.9091	0.	414.71
1898	22.353	4.9091	0.	378.87
1899	22.536	4.9091	0.	343.74
1900	22.719	4.9091	0.	309.47
1901	22.902	4.9091	0.	276.31
1902	23.085	4.9091	0.	244.58
1903	23.268	4.9091	0.	214.75
1904	23.451	4.9091	0.	187.47
1905	23.634	4.9091	0.	163.75
1906	23.817	4.9091	0.	145.18
1907	8.4496	4.7273	0.	3969.7
1908	8.6326	4.7273	0.	3580.2
1909	8.8155	4.7273	0.	3442.7
1910	8.9985	4.7273	0.	3366.9
1911	9.1814	4.7273	0.	3324.4
1912	9.3643	4.7273	0.	3299.3
1913	9.5473	4.7273	0.	3280.8
1914	9.7302	4.7273	0.	3262.5
1915	9.9132	4.7273	0.	3241.1
1916	10.096	4.7273	0.	3215.5
1917	10.279	4.7273	0.	3185.7
1918	10.462	4.7273	0.	3151.8
1919	10.645	4.7273	0.	3114.7
1920	10.828	4.7273	0.	3075.
1921	11.011	4.7273	0.	3033.1
1922	11.194	4.7273	0.	2989.7
1923	11.377	4.7273	0.	2945.2
1924	11.56	4.7273	0.	2899.9
1925	11.743	4.7273	0.	2854.1
1926	11.926	4.7273	0.	2807.9
1927	12.109	4.7273	0.	2761.6
1928	12.291	4.7273	0.	2715.1
1929	12.474	4.7273	0.	2668.6
1930	12.657	4.7273	0.	2622.1
1931	12.84	4.7273	0.	2575.6
1932	13.023	4.7273	0.	2529.3
1933	13.206	4.7273	0.	2483.
1934	13.389	4.7273	0.	2436.8
1935	13.572	4.7273	0.	2390.8
1936	13.755	4.7273	0.	2344.9
1937	13.938	4.7273	0.	2299.1
1938	14.121	4.7273	0.	2253.4
1939	14.304	4.7273	0.	2207.8
1940	14.487	4.7273	0.	2162.4
1941	14.67	4.7273	0.	2117.1
1942	14.853	4.7273	0.	2071.9
1943	15.036	4.7273	0.	2026.9
1944	15.219	4.7273	0.	1982.
1945	15.402	4.7273	0.	1937.3
1946	15.584	4.7273	0.	1892.7
1947	15.767	4.7273	0.	1848.2
1948	15.95	4.7273	0.	1803.9
1949	16.133	4.7273	0.	1759.8
1950	16.316	4.7273	0.	1715.8
1951	16.499	4.7273	0.	1672.
1952	16.682	4.7273	0.	1628.4
1953	16.865	4.7273	0.	1584.9
1954	17.048	4.7273	0.	1541.6
1955	17.231	4.7273	0.	1498.5
1956	17.414	4.7273	0.	1455.6
1957	17.597	4.7273	0.	1412.8
1958	17.78	4.7273	0.	1370.3
1959	17.963	4.7273	0.	1327.9
1960	18.146	4.7273	0.	1285.8
1961	18.329	4.7273	0.	1243.8
1962	18.512	4.7273	0.	1202.1
1963	18.695	4.7273	0.	1160.5
1964	18.878	4.7273	0.	1119.2
1965	19.06	4.7273	0.	1078.
1966	19.243	4.7273	0.	1037.1
1967	19.426	4.7273	0.	996.46
1968	19.609	4.7273	0.	956.01
1969	19.792	4.7273	0.	915.79
1970	19.975	4.7273	0.	875.81
1971	20.158	4.7273	0.	836.08
1972	20.341	4.7273	0.	796.6
1973	20.524	4.7273	0.	757.39
1974	20.707	4.7273	0.	718.45
1975	20.89	4.7273	0.	679.8
1976	21.073	4.7273	0.	641.44
1977	21.256	4.7273	0.	603.41
1978	21.439	4.7273	0.	565.73
1979	21.622	4.7273	0.	528.43
1980	21.805	4.7273	0.	491.54
1981	21.988	4.7273	0.	455.13
1982	22.171	4.7273	0.	419.26
1983	22.353	4.7273	0.	384.03
1984	22.536	4.7273	0.	349.55
1985	22.719	4.7273	0.	315.99
1986	22.902	4.7273	0.	283.59
1987	23.085	4.7273	0.	252.64
1988	23.268	4.7273	0.	223.59
1989	23.451	4.7273	0.	197.06
1990	23.634	4.7273	0.	174.
1991	23.817	4.7273	0.	155.84
1992	8.4496	4.5455	0.	5022.9
1993	8.6326	4.5455	0.	4359.8
1994	8.8155	4.5455	0.	4031.1
1995	8.9985	4.5455	0.	3802.8
1996	9.1814	4.5455	0.	3650.3
1997	9.3643	4.5455	0.	3543.7
1998	9.5473	4.5455	0.	3464.3
1999	9.7302	4.5455	0.	3399.9
2000	9.9132	4.5455	0.	3343.6
2001	10.096	4.5455	0.	3291.3
2002	10.279	4.5455	0.	3241.
2003	10.462	4.5455	0.	3191.6
2004	10.645	4.5455	0.	3142.6
2005	10.828	4.5455	0.	3093.9
2006	11.011	4.5455	0.	3045.2
2007	11.194	4.5455	0.	2996.8
2008	11.377	4.5455	0.	2948.5
2009	11.56	4.5455	0.	2900.5
2010	11.743	4.5455	0.	2852.7
2011	11.926	4.5455	0.	2805.1
2012	12.109	4.5455	0.	2757.8
2013	12.291	4.5455	0.	2710.7
2014	12.474	4.5455	0.	2663.8
2015	12.657	4.5455	0.	2617.2
2016	12.84	4.5455	0.	2570.7
2017	13.023	4.5455	0.	2524.4
2018	13.206	4.5455	0.	2478.2
2019	13.389	4.5455	0.	2432.2
2020	13.572	4.5455	0.	2386.4
2021	13.755	4.5455	0.	2340.7
2022	13.938	4.5455	0.	2295.1
2023	14.121	4.5455	0.	2249.6
2024	14.304	4.5455	0.	2204.3
2025	14.487	4.5455	0.	2159.
2026	14.67	4.5455	0.	2113.9
2027	14.853	4.5455	0.	2068.9
2028	15.036	4.5455	0.	2024.1
2029	15.219	4.5455	0.	1979.4
2030	15.402	4.5455	0.	1934.8
2031	15.584	4.5455	0.	1890.3
2032	15.767	4.5455	0.	1846.
2033	15.95	4.5455	0.	1801.9
2034	16.133	4.5455	0.	1757.9
2035	16.316	4.5455	0.	1714.
2036	16.499	4.5455	0.	1670.3
2037	16.682	4.5455	0.	1626.8
2038	16.865	4.5455	0.	1583.4
2039	17.048	4.5455	0.	1540.2
2040	17.231	4.5455	0.	1497.2
2041	17.414	4.5455	0.	1454.4
2042	17.597	4.5455	0.	1411.7
2043	17.78	4.5455	0.	1369.3
2044	17.963	4.5455	0.	1327.
2045	18.146	4.5455	0.	1285.
2046	18.329	4.5455	0.	1243.1
2047	18.512	4.5455	0.	1201.4
2048	18.695	4.5455	0.	1160.
2049	18.878	4.5455	0.	1118.8
2050	19.06	4.5455	0.	1077.8
2051	19.243	4.5455	0.	1037.
2052	19.426	4.5455	0.	996.47
2053	19.609	4.5455	0.	956.17
2054	19.792	4.5455	0.	916.12
2055	19.975	4.5455	0.	876.32
2056	20.158	4.5455	0.	836.78
2057	20.341	4.5455	0.	797.51
2058	20.524	4.5455	0.	758.52
2059	20.707	4.5455	0.	719.83
2060	20.89	4.5455	0.	681.44
2061	21.073	4.5455	0.	643.39
2062	21.256	4.5455	0.	605.68
2063	21.439	4.5455	0.	568.35
2064	21.622	4.5455	0.	531.43
2065	21.805	4.5455	0.	494.96
2066	21.988	4.5455	0.	459.
2067	22.171	4.5455	0.	423.62
2068	22.353	4.5455	0.	388.91
2069	22.536	4.5455	0.	354.99
2070	22.719	4.5455	0.	322.02
2071	22.902	4.5455	0.	290.22
2072	23.085	4.5455	0.	259.89
2073	23.268	4.5455	0.	231.44
2074	23.451	4.5455	0.	205.49
2075	23.634	4.5455	0.	182.92
2076	23.817	4.5455	0.	165.08
2077	8.4496	4.3636	0.	6553.4
2078	8.6326	4.3636	0.	5301.
2079	8.8155	4.3636	0.	4654.7
2080	8.9985	4.3636	0.	4253.1
2081	9.1814	4.3636	0.	3980.5
2082	9.3643	4.3636	0.	3790.7
2083	9.5473	4.3636	0.	3649.4
2084	9.7302	4.3636	0.	3538.5
2085	9.9132	4.3636	0.	3446.7
2086	10.096	4.3636	0.	3367.3
2087	10.279	4.3636	0.	3296.3
2088	10.462	4.3636	0.	3231.1
2089	10.645	4.3636	0.	3170.1
2090	10.828	4.3636	0.	3112.3
2091	11.011	4.3636	0.	3056.9
2092	11.194	4.3636	0.	3003.4
2093	11.377	4.3636	0.	2951.4
2094	11.56	4.3636	0.	2900.7
2095	11.743	4.3636	0.	2851.
2096	11.926	4.3636	0.	2802.2
2097	12.109	4.3636	0.	2754.
2098	12.291	4.3636	0.	2706.4
2099	12.474	4.3636	0.	2659.2
2100	12.657	4.3636	0.	2612.4
2101	12.84	4.3636	0.	2565.9
2102	13.023	4.3636	0.	2519.7
2103	13.206	4.3636	0.	2473.7
2104	13.389	4.3636	0.	2427.9
2105	13.572	4.3636	0.	2382.2
2106	13.755	4.3636	0.	2336.7
2107	13.938	4.3636	0.	2291.3
2108	14.121	4.3636	0.	2246.1
2109	14.304	4.3636	0.	2200.9
2110	14.487	4.3636	0.	2155.9
2111	14.67	4.3636	0.	2111.
2112	14.853	4.3636	0.	2066.2
2113	15.036	4.3636	0.	2021.5
2114	15.219	4.3636	0.	1977.
2115	15.402	4.3636	0.	1932.5
2116	15.584	4.3636	0.	1888.2
2117	15.767	4.3636	0.	1844.1
2118	15.95	4.3636	0.	1800.
2119	16.133	4.3636	0.	1756.1
2120	16.316	4.3636	0.	1712.4
2121	16.499	4.3636	0.	1668.8
2122	16.682	4.3636	0.	1625.4
2123	16.865	4.3636	0.	1582.1
2124	17.048	4.3636	0.	1539.
2125	17.231	4.3636	0.	1496.1
2126	17.414	4.3636	0.	1453.3
2127	17.597	4.3636	0.	1410.8
2128	17.78	4.3636	0.	1368.4
2129	17.963	4.3636	0.	1326.2
2130	18.146	4.3636	0.	1284.3
2131	18.329	4.3636	0.	1242.5
2132	18.512	4.3636	0.	1201.
2133	18.695	4.3636	0.	1159.6
2134	18.878	4.3636	0.	1118.5
2135	19.06	4.3636	0.	1077.6
2136	19.243	4.3636	0.	1037.
2137	19.426	4.3636	0.	996.56
2138	19.609	4.3636	0.	956.41
2139	19.792	4.3636	0.	916.51
2140	19.975	4.3636	0.	876.87
2141	20.158	4.3636	0.	837.51
2142	20.341	4.3636	0.	798.44
2143	20.524	4.3636	0.	759.67
2144	20.707	4.3636	0.	721.2
2145	20.89	4.3636	0.	683.07
2146	21.073	4.3636	0.	645.29
2147	21.256	4.3636	0.	607.87
2148	21.439	4.3636	0.	570.86
2149	21.622	4.3636	0.	534.29
2150	21.805	4.3636	0.	498.19
2151	21.988	4.3636	0.	462.63
2152	22.171	4.3636	0.	427.67
2153	22.353	4.3636	0.	393.41
2154	22.536	4.3636	0.	359.95
2155	22.719	4.3636	0.	327.46
2156	22.902	4.3636	0.	296.15
2157	23.085	4.3636	0.	266.3
2158	23.268	4.3636	0.	238.33
2159	23.451	4.3636	0.	212.81
2160	23.634	4.3636	0.	190.63
2161	23.817	4.3636	0.	173.04
2162	8.4496	4.1818	0.	8832.2
2163	8.6326	4.1818	0.	6349.
2164	8.8155	4.1818	0.	5277.8
2165	8.9985	4.1818	0.	4692.6
2166	9.1814	4.1818	0.	4305.4
2167	9.3643	4.1818	0.	4033.7
2168	9.5473	4.1818	0.	3831.8
2169	9.7302	4.1818	0.	3674.9
2170	9.9132	4.1818	0.	3548.1
2171	10.096	4.1818	0.	3441.9
2172	10.279	4.1818	0.	3350.3
2173	10.462	4.1818	0.	3269.5
2174	10.645	4.1818	0.	3196.7
2175	10.828	4.1818	0.	3130.
2176	11.011	4.1818	0.	3067.9
2177	11.194	4.1818	0.	3009.6
2178	11.377	4.1818	0.	2954.1
2179	11.56	4.1818	0.	2900.8
2180	11.743	4.1818	0.	2849.3
2181	11.926	4.1818	0.	2799.3
2182	12.109	4.1818	0.	2750.3
2183	12.291	4.1818	0.	2702.2
2184	12.474	4.1818	0.	2654.8
2185	12.657	4.1818	0.	2607.9
2186	12.84	4.1818	0.	2561.4
2187	13.023	4.1818	0.	2515.3
2188	13.206	4.1818	0.	2469.5
2189	13.389	4.1818	0.	2423.9
2190	13.572	4.1818	0.	2378.4
2191	13.755	4.1818	0.	2333.1
2192	13.938	4.1818	0.	2287.9
2193	14.121	4.1818	0.	2242.9
2194	14.304	4.1818	0.	2197.9
2195	14.487	4.1818	0.	2153.1
2196	14.67	4.1818	0.	2108.4
2197	14.853	4.1818	0.	2063.8
2198	15.036	4.1818	0.	2019.2
2199	15.219	4.1818	0.	1974.8
2200	15.402	4.1818	0.	1930.5
2201	15.584	4.1818	0.	1886.4
2202	15.767	4.1818	0.	1842.3
2203	15.95	4.1818	0.	1798.4
2204	16.133	4.1818	0.	1754.6
2205	16.316	4.1818	0.	1711.
2206	16.499	4.1818	0.	1667.5
2207	16.682	4.1818	0.	1624.1
2208	16.865	4.1818	0.	1580.9
2209	17.048	4.1818	0.	1537.9
2210	17.231	4.1818	0.	1495.1
2211	17.414	4.1818	0.	1452.4
2212	17.597	4.1818	0.	1410.
2213	17.78	4.1818	0.	1367.7
2214	17.963	4.1818	0.	1325.6
2215	18.146	4.1818	0.	1283.7
2216	18.329	4.1818	0.	1242.
2217	18.512	4.1818	0.	1200.6
2218	18.695	4.1818	0.	1159.3
2219	18.878	4.1818	0.	1118.3
2220	19.06	4.1818	0.	1077.5
2221	19.243	4.1818	0.	1037.
2222	19.426	4.1818	0.	996.71
2223	19.609	4.1818	0.	956.68
2224	19.792	4.1818	0.	916.92
2225	19.975	4.1818	0.	877.44
2226	20.158	4.1818	0.	838.25
2227	20.341	4.1818	0.	799.35
2228	20.524	4.1818	0.	760.77
2229	20.707	4.1818	0.	722.52
2230	20.89	4.1818	0.	684.62
2231	21.073	4.1818	0.	647.08
2232	21.256	4.1818	0.	609.93
2233	21.439	4.1818	0.	573.2
2234	21.622	4.1818	0.	536.93
2235	21.805	4.1818	0.	501.15
2236	21.988	4.1818	0.	465.93
2237	22.171	4.1818	0.	431.33
2238	22.353	4.1818	0.	397.44
2239	22.536	4.1818	0.	364.37
2240	22.719	4.1818	0.	332.26
2241	22.902	4.1818	0.	301.34
2242	23.085	4.1818	0.	271.87
2243	23.268	4.1818	0.	244.27
2244	23.451	4.1818	0.	219.1
2245	23.634	4.1818	0.	197.23
2246	23.817	4.1818	0.	179.82
2247	8.4496	4.	0.	10788
2248	8.6326	4.	0.	7169.5
2249	8.8155	4.	0.	5866.7
2250	8.9985	4.	0.	5115.9
2251	9.1814	4.	0.	4618.3
2252	9.3643	4.	0.	4268.6
2253	9.5473	4.	0.	4008.1
2254	9.7302	4.	0.	3806.7
2255	9.9132	4.	0.	3645.7
2256	10.096	4.	0.	3513.3
2257	10.279	4.	0.	3401.9
2258	10.462	4.	0.	3305.9
2259	10.645	4.	0.	3221.7
2260	10.828	4.	0.	3146.5
2261	11.011	4.	0.	3078.2
2262	11.194	4.	0.	3015.2
2263	11.377	4.	0.	2956.4
2264	11.56	4.	0.	2900.8
2265	11.743	4.	0.	2847.7
2266	11.926	4.	0.	2796.5
2267	12.109	4.	0.	2746.8
2268	12.291	4.	0.	2698.3
2269	12.474	4.	0.	2650.7
2270	12.657	4.	0.	2603.8
2271	12.84	4.	0.	2557.4
2272	13.023	4.	0.	2511.4
2273	13.206	4.	0.	2465.7
2274	13.389	4.	0.	2420.2
2275	13.572	4.	0.	2375.
2276	13.755	4.	0.	2329.9
2277	13.938	4.	0.	2284.9
2278	14.121	4.	0.	2240.
2279	14.304	4.	0.	2195.3
2280	14.487	4.	0.	2150.6
2281	14.67	4.	0.	2106.1
2282	14.853	4.	0.	2061.6
2283	15.036	4.	0.	2017.2
2284	15.219	4.	0.	1973.
2285	15.402	4.	0.	1928.8
2286	15.584	4.	0.	1884.7
2287	15.767	4.	0.	1840.8
2288	15.95	4.	0.	1797.
2289	16.133	4.	0.	1753.3
2290	16.316	4.	0.	1709.7
2291	16.499	4.	0.	1666.3
2292	16.682	4.	0.	1623.1
2293	16.865	4.	0.	1580.
2294	17.048	4.	0.	1537.
2295	17.231	4.	0.	1494.3
2296	17.414	4.	0.	1451.7
2297	17.597	4.	0.	1409.3
2298	17.78	4.	0.	1367.1
2299	17.963	4.	0.	1325.
2300	18.146	4.	0.	1283.2
2301	18.329	4.	0.	1241.6
2302	18.512	4.	0.	1200.2
2303	18.695	4.	0.	1159.1
2304	18.878	4.	0.	1118.2
2305	19.06	4.	0.	1077.5
2306	19.243	4.	0.	1037.1
2307	19.426	4.	0.	996.88
2308	19.609	4.	0.	956.97
2309	19.792	4.	0.	917.34
2310	19.975	4.	0.	877.99
2311	20.158	4.	0.	838.95
2312	20.341	4.	0.	800.21
2313	20.524	4.	0.	761.8
2314	20.707	4.	0.	723.73
2315	20.89	4.	0.	686.03
2316	21.073	4.	0.	648.7
2317	21.256	4.	0.	611.78
2318	21.439	4.	0.	575.3
2319	21.622	4.	0.	539.29
2320	21.805	4.	0.	503.79
2321	21.988	4.	0.	468.85
2322	22.171	4.	0.	434.55
2323	22.353	4.	0.	400.96
2324	22.536	4.	0.	368.19
2325	22.719	4.	0.	336.4
2326	22.902	4.	0.	305.77
2327	23.085	4.	0.	276.6
2328	23.268	4.	0.	249.29
2329	23.451	4.	0.	224.4
2330	23.634	4.	0.	202.77
2331	23.817	4.	0.	185.52
2332	8.4496	3.8182	0.	10670
2333	8.6326	3.8182	0.	7881.5
2334	8.8155	3.8182	0.	6379.4
2335	8.9985	3.8182	0.	5505.3
2336	9.1814	3.8182	0.	4911.9
2337	9.3643	3.8182	0.	4489.8
2338	9.5473	3.8182	0.	4174.
2339	9.7302	3.8182	0.	3930.3
2340	9.9132	3.8182	0.	3736.8
2341	10.096	3.8182	0.	3579.7
2342	10.279	3.8182	0.	3449.4
2343	10.462	3.8182	0.	3339.4
2344	10.645	3.8182	0.	3244.6
2345	10.828	3.8182	0.	3161.5
2346	11.011	3.8182	0.	3087.4
2347	11.194	3.8182	0.	3020.2
2348	11.377	3.8182	0.	2958.4
2349	11.56	3.8182	0.	2900.7
2350	11.743	3.8182	0.	2846.1
2351	11.926	3.8182	0.	2794.
2352	12.109	3.8182	0.	2743.7
2353	12.291	3.8182	0.	2694.9
2354	12.474	3.8182	0.	2647.1
2355	12.657	3.8182	0.	2600.1
2356	12.84	3.8182	0.	2553.8
2357	13.023	3.8182	0.	2507.9
2358	13.206	3.8182	0.	2462.3
2359	13.389	3.8182	0.	2417.
2360	13.572	3.8182	0.	2372.
2361	13.755	3.8182	0.	2327.1
2362	13.938	3.8182	0.	2282.3
2363	14.121	3.8182	0.	2237.6
2364	14.304	3.8182	0.	2193.
2365	14.487	3.8182	0.	2148.5
2366	14.67	3.8182	0.	2104.1
2367	14.853	3.8182	0.	2059.8
2368	15.036	3.8182	0.	2015.5
2369	15.219	3.8182	0.	1971.4
2370	15.402	3.8182	0.	1927.3
2371	15.584	3.8182	0.	1883.3
2372	15.767	3.8182	0.	1839.5
2373	15.95	3.8182	0.	1795.8
2374	16.133	3.8182	0.	1752.2
2375	16.316	3.8182	0.	1708.7
2376	16.499	3.8182	0.	1665.3
2377	16.682	3.8182	0.	1622.2
2378	16.865	3.8182	0.	1579.1
2379	17.048	3.8182	0.	1536.3
2380	17.231	3.8182	0.	1493.6
2381	17.414	3.8182	0.	1451.
2382	17.597	3.8182	0.	1408.7
2383	17.78	3.8182	0.	1366.5
2384	17.963	3.8182	0.	1324.6
2385	18.146	3.8182	0.	1282.8
2386	18.329	3.8182	0.	1241.3
2387	18.512	3.8182	0.	1200.
2388	18.695	3.8182	0.	1158.9
2389	18.878	3.8182	0.	1118.1
2390	19.06	3.8182	0.	1077.5
2391	19.243	3.8182	0.	1037.1
2392	19.426	3.8182	0.	997.05
2393	19.609	3.8182	0.	957.25
2394	19.792	3.8182	0.	917.72
2395	19.975	3.8182	0.	878.49
2396	20.158	3.8182	0.	839.57
2397	20.341	3.8182	0.	800.97
2398	20.524	3.8182	0.	762.71
2399	20.707	3.8182	0.	724.8
2400	20.89	3.8182	0.	687.27
2401	21.073	3.8182	0.	650.12
2402	21.256	3.8182	0.	613.39
2403	21.439	3.8182	0.	577.12
2404	21.622	3.8182	0.	541.32
2405	21.805	3.8182	0.	506.04
2406	21.988	3.8182	0.	471.34
2407	22.171	3.8182	0.	437.27
2408	22.353	3.8182	0.	403.92
2409	22.536	3.8182	0.	371.4
2410	22.719	3.8182	0.	339.84
2411	22.902	3.8182	0.	309.46
2412	23.085	3.8182	0.	280.52
2413	23.268	3.8182	0.	253.43
2414	23.451	3.8182	0.	228.76
2415	23.634	3.8182	0.	207.32
2416	23.817	3.8182	0.	190.18
2417	8.4496	3.6364	0.	10104
2418	8.6326	3.6364	0.	8137.4
2419	8.8155	3.6364	0.	6766.6
2420	8.9985	3.6364	0.	5827.9
2421	9.1814	3.6364	0.	5169.1
2422	9.3643	3.6364	0.	4686.6
2423	9.5473	3.6364	0.	4322.5
2424	9.7302	3.6364	0.	4040.6
2425	9.9132	3.6364	0.	3817.8
2426	10.096	3.6364	0.	3638.4
2427	10.279	3.6364	0.	3491.3
2428	10.462	3.6364	0.	3368.6
2429	10.645	3.6364	0.	3264.4
2430	10.828	3.6364	0.	3174.5
2431	11.011	3.6364	0.	3095.3
2432	11.194	3.6364	0.	3024.5
2433	11.377	3.6364	0.	2960.1
2434	11.56	3.6364	0.	2900.6
2435	11.743	3.6364	0.	2844.8
2436	11.926	3.6364	0.	2791.9
2437	12.109	3.6364	0.	2741.1
2438	12.291	3.6364	0.	2691.9
2439	12.474	3.6364	0.	2644.
2440	12.657	3.6364	0.	2597.
2441	12.84	3.6364	0.	2550.7
2442	13.023	3.6364	0.	2505.
2443	13.206	3.6364	0.	2459.6
2444	13.389	3.6364	0.	2414.4
2445	13.572	3.6364	0.	2369.5
2446	13.755	3.6364	0.	2324.8
2447	13.938	3.6364	0.	2280.1
2448	14.121	3.6364	0.	2235.6
2449	14.304	3.6364	0.	2191.1
2450	14.487	3.6364	0.	2146.8
2451	14.67	3.6364	0.	2102.5
2452	14.853	3.6364	0.	2058.3
2453	15.036	3.6364	0.	2014.1
2454	15.219	3.6364	0.	1970.1
2455	15.402	3.6364	0.	1926.1
2456	15.584	3.6364	0.	1882.2
2457	15.767	3.6364	0.	1838.4
2458	15.95	3.6364	0.	1794.8
2459	16.133	3.6364	0.	1751.3
2460	16.316	3.6364	0.	1707.8
2461	16.499	3.6364	0.	1664.6
2462	16.682	3.6364	0.	1621.4
2463	16.865	3.6364	0.	1578.5
2464	17.048	3.6364	0.	1535.6
2465	17.231	3.6364	0.	1493.
2466	17.414	3.6364	0.	1450.5
2467	17.597	3.6364	0.	1408.2
2468	17.78	3.6364	0.	1366.1
2469	17.963	3.6364	0.	1324.2
2470	18.146	3.6364	0.	1282.6
2471	18.329	3.6364	0.	1241.1
2472	18.512	3.6364	0.	1199.8
2473	18.695	3.6364	0.	1158.8
2474	18.878	3.6364	0.	1118.
2475	19.06	3.6364	0.	1077.5
2476	19.243	3.6364	0.	1037.2
2477	19.426	3.6364	0.	997.22
2478	19.609	3.6364	0.	957.49
2479	19.792	3.6364	0.	918.06
2480	19.975	3.6364	0.	878.92
2481	20.158	3.6364	0.	840.11
2482	20.341	3.6364	0.	801.62
2483	20.524	3.6364	0.	763.48
2484	20.707	3.6364	0.	725.69
2485	20.89	3.6364	0.	688.29
2486	21.073	3.6364	0.	651.3
2487	21.256	3.6364	0.	614.72
2488	21.439	3.6364	0.	578.61
2489	21.622	3.6364	0.	542.98
2490	21.805	3.6364	0.	507.88
2491	21.988	3.6364	0.	473.36
2492	22.171	3.6364	0.	439.47
2493	22.353	3.6364	0.	406.31
2494	22.536	3.6364	0.	373.97
2495	22.719	3.6364	0.	342.6
2496	22.902	3.6364	0.	312.39
2497	23.085	3.6364	0.	283.63
2498	23.268	3.6364	0.	256.72
2499	23.451	3.6364	0.	232.21
2500	23.634	3.6364	0.	210.91
2501	23.817	3.6364	0.	193.86
2502	8.4496	3.4545	0.	9374.9
2503	8.6326	3.4545	0.	8123.5
2504	8.8155	3.4545	0.	6966.8
2505	8.9985	3.4545	0.	6058.9
2506	9.1814	3.4545	0.	5369.7
2507	9.3643	3.4545	0.	4846.3
2508	9.5473	3.4545	0.	4444.3
2509	9.7302	3.4545	0.	4131.4
2510	9.9132	3.4545	0.	3884.3
2511	10.096	3.4545	0.	3686.3
2512	10.279	3.4545	0.	3525.3
2513	10.462	3.4545	0.	3392.2
2514	10.645	3.4545	0.	3280.4
2515	10.828	3.4545	0.	3184.8
2516	11.011	3.4545	0.	3101.6
2517	11.194	3.4545	0.	3027.9
2518	11.377	3.4545	0.	2961.5
2519	11.56	3.4545	0.	2900.5
2520	11.743	3.4545	0.	2843.8
2521	11.926	3.4545	0.	2790.2
2522	12.109	3.4545	0.	2739.
2523	12.291	3.4545	0.	2689.7
2524	12.474	3.4545	0.	2641.7
2525	12.657	3.4545	0.	2594.7
2526	12.84	3.4545	0.	2548.4
2527	13.023	3.4545	0.	2502.7
2528	13.206	3.4545	0.	2457.4
2529	13.389	3.4545	0.	2412.4
2530	13.572	3.4545	0.	2367.6
2531	13.755	3.4545	0.	2323.
2532	13.938	3.4545	0.	2278.5
2533	14.121	3.4545	0.	2234.
2534	14.304	3.4545	0.	2189.7
2535	14.487	3.4545	0.	2145.4
2536	14.67	3.4545	0.	2101.2
2537	14.853	3.4545	0.	2057.1
2538	15.036	3.4545	0.	2013.1
2539	15.219	3.4545	0.	1969.1
2540	15.402	3.4545	0.	1925.2
2541	15.584	3.4545	0.	1881.4
2542	15.767	3.4545	0.	1837.7
2543	15.95	3.4545	0.	1794.1
2544	16.133	3.4545	0.	1750.6
2545	16.316	3.4545	0.	1707.2
2546	16.499	3.4545	0.	1664.
2547	16.682	3.4545	0.	1620.9
2548	16.865	3.4545	0.	1578.
2549	17.048	3.4545	0.	1535.2
2550	17.231	3.4545	0.	1492.6
2551	17.414	3.4545	0.	1450.2
2552	17.597	3.4545	0.	1407.9
2553	17.78	3.4545	0.	1365.8
2554	17.963	3.4545	0.	1324.
2555	18.146	3.4545	0.	1282.3
2556	18.329	3.4545	0.	1240.9
2557	18.512	3.4545	0.	1199.7
2558	18.695	3.4545	0.	1158.7
2559	18.878	3.4545	0.	1118.
2560	19.06	3.4545	0.	1077.5
2561	19.243	3.4545	0.	1037.3
2562	19.426	3.4545	0.	997.35
2563	19.609	3.4545	0.	957.69
2564	19.792	3.4545	0.	918.32
2565	19.975	3.4545	0.	879.26
2566	20.158	3.4545	0.	840.53
2567	20.341	3.4545	0.	802.12
2568	20.524	3.4545	0.	764.07
2569	20.707	3.4545	0.	726.39
2570	20.89	3.4545	0.	689.09
2571	21.073	3.4545	0.	652.2
2572	21.256	3.4545	0.	615.74
2573	21.439	3.4545	0.	579.75
2574	21.622	3.4545	0.	544.25
2575	21.805	3.4545	0.	509.28
2576	21.988	3.4545	0.	474.89
2577	22.171	3.4545	0.	441.14
2578	22.353	3.4545	0.	408.11
2579	22.536	3.4545	0.	375.91
2580	22.719	3.4545	0.	344.67
2581	22.902	3.4545	0.	314.59
2582	23.085	3.4545	0.	285.95
2583	23.268	3.4545	0.	259.16
2584	23.451	3.4545	0.	234.77
2585	23.634	3.4545	0.	213.58
2586	23.817	3.4545	0.	196.59
2587	8.4496	3.2727	0.	8945.6
2588	8.6326	3.2727	0.	8017.7
2589	8.8155	3.2727	0.	7047.1
2590	8.9985	3.2727	0.	6195.1
2591	9.1814	3.2727	0.	5503.
2592	9.3643	3.2727	0.	4957.4
2593	9.5473	3.2727	0.	4530.8
2594	9.7302	3.2727	0.	4196.2
2595	9.9132	3.2727	0.	3931.8
2596	10.096	3.2727	0.	3720.5
2597	10.279	3.2727	0.	3549.4
2598	10.462	3.2727	0.	3408.9
2599	10.645	3.2727	0.	3291.7
2600	10.828	3.2727	0.	3192.1
2601	11.011	3.2727	0.	3106.1
2602	11.194	3.2727	0.	3030.3
2603	11.377	3.2727	0.	2962.4
2604	11.56	3.2727	0.	2900.5
2605	11.743	3.2727	0.	2843.
2606	11.926	3.2727	0.	2789.
2607	12.109	3.2727	0.	2737.6
2608	12.291	3.2727	0.	2688.1
2609	12.474	3.2727	0.	2640.
2610	12.657	3.2727	0.	2593.
2611	12.84	3.2727	0.	2546.8
2612	13.023	3.2727	0.	2501.2
2613	13.206	3.2727	0.	2455.9
2614	13.389	3.2727	0.	2411.
2615	13.572	3.2727	0.	2366.3
2616	13.755	3.2727	0.	2321.8
2617	13.938	3.2727	0.	2277.3
2618	14.121	3.2727	0.	2233.
2619	14.304	3.2727	0.	2188.7
2620	14.487	3.2727	0.	2144.5
2621	14.67	3.2727	0.	2100.4
2622	14.853	3.2727	0.	2056.3
2623	15.036	3.2727	0.	2012.3
2624	15.219	3.2727	0.	1968.4
2625	15.402	3.2727	0.	1924.6
2626	15.584	3.2727	0.	1880.8
2627	15.767	3.2727	0.	1837.1
2628	15.95	3.2727	0.	1793.6
2629	16.133	3.2727	0.	1750.1
2630	16.316	3.2727	0.	1706.8
2631	16.499	3.2727	0.	1663.6
2632	16.682	3.2727	0.	1620.5
2633	16.865	3.2727	0.	1577.6
2634	17.048	3.2727	0.	1534.9
2635	17.231	3.2727	0.	1492.3
2636	17.414	3.2727	0.	1449.9
2637	17.597	3.2727	0.	1407.7
2638	17.78	3.2727	0.	1365.7
2639	17.963	3.2727	0.	1323.8
2640	18.146	3.2727	0.	1282.2
2641	18.329	3.2727	0.	1240.8
2642	18.512	3.2727	0.	1199.6
2643	18.695	3.2727	0.	1158.7
2644	18.878	3.2727	0.	1118.
2645	19.06	3.2727	0.	1077.5
2646	19.243	3.2727	0.	1037.4
2647	19.426	3.2727	0.	997.45
2648	19.609	3.2727	0.	957.83
2649	19.792	3.2727	0.	918.51
2650	19.975	3.2727	0.	879.5
2651	20.158	3.2727	0.	840.81
2652	20.341	3.2727	0.	802.47
2653	20.524	3.2727	0.	764.47
2654	20.707	3.2727	0.	726.86
2655	20.89	3.2727	0.	689.63
2656	21.073	3.2727	0.	652.81
2657	21.256	3.2727	0.	616.43
2658	21.439	3.2727	0.	580.52
2659	21.622	3.2727	0.	545.1
2660	21.805	3.2727	0.	510.22
2661	21.988	3.2727	0.	475.92
2662	22.171	3.2727	0.	442.26
2663	22.353	3.2727	0.	409.32
2664	22.536	3.2727	0.	377.2
2665	22.719	3.2727	0.	346.04
2666	22.902	3.2727	0.	316.05
2667	23.085	3.2727	0.	287.5
2668	23.268	3.2727	0.	260.78
2669	23.451	3.2727	0.	236.47
2670	23.634	3.2727	0.	215.34
2671	23.817	3.2727	0.	198.4
2672	8.4496	3.0909	0.	8741.5
2673	8.6326	3.0909	0.	7948.9
2674	8.8155	3.0909	0.	7070.2
2675	8.9985	3.0909	0.	6255.7
2676	9.1814	3.0909	0.	5568.3
2677	9.3643	3.0909	0.	5014.1
2678	9.5473	3.0909	0.	4575.6
2679	9.7302	3.0909	0.	4230.
2680	9.9132	3.0909	0.	3956.5
2681	10.096	3.0909	0.	3738.3
2682	10.279	3.0909	0.	3562.
2683	10.462	3.0909	0.	3417.6
2684	10.645	3.0909	0.	3297.5
2685	10.828	3.0909	0.	3195.9
2686	11.011	3.0909	0.	3108.3
2687	11.194	3.0909	0.	3031.5
2688	11.377	3.0909	0.	2962.9
2689	11.56	3.0909	0.	2900.4
2690	11.743	3.0909	0.	2842.7
2691	11.926	3.0909	0.	2788.4
2692	12.109	3.0909	0.	2736.9
2693	12.291	3.0909	0.	2687.3
2694	12.474	3.0909	0.	2639.2
2695	12.657	3.0909	0.	2592.2
2696	12.84	3.0909	0.	2546.
2697	13.023	3.0909	0.	2500.4
2698	13.206	3.0909	0.	2455.2
2699	13.389	3.0909	0.	2410.3
2700	13.572	3.0909	0.	2365.7
2701	13.755	3.0909	0.	2321.2
2702	13.938	3.0909	0.	2276.8
2703	14.121	3.0909	0.	2232.5
2704	14.304	3.0909	0.	2188.3
2705	14.487	3.0909	0.	2144.1
2706	14.67	3.0909	0.	2100.
2707	14.853	3.0909	0.	2056.
2708	15.036	3.0909	0.	2012.
2709	15.219	3.0909	0.	1968.1
2710	15.402	3.0909	0.	1924.3
2711	15.584	3.0909	0.	1880.5
2712	15.767	3.0909	0.	1836.9
2713	15.95	3.0909	0.	1793.3
2714	16.133	3.0909	0.	1749.9
2715	16.316	3.0909	0.	1706.6
2716	16.499	3.0909	0.	1663.4
2717	16.682	3.0909	0.	1620.4
2718	16.865	3.0909	0.	1577.5
2719	17.048	3.0909	0.	1534.7
2720	17.231	3.0909	0.	1492.2
2721	17.414	3.0909	0.	1449.8
2722	17.597	3.0909	0.	1407.6
2723	17.78	3.0909	0.	1365.6
2724	17.963	3.0909	0.	1323.7
2725	18.146	3.0909	0.	1282.1
2726	18.329	3.0909	0.	1240.7
2727	18.512	3.0909	0.	1199.6
2728	18.695	3.0909	0.	1158.7
2729	18.878	3.0909	0.	1118.
2730	19.06	3.0909	0.	1077.5
2731	19.243	3.0909	0.	1037.4
2732	19.426	3.0909	0.	997.5
2733	19.609	3.0909	0.	957.9
2734	19.792	3.0909	0.	918.6
2735	19.975	3.0909	0.	879.62
2736	20.158	3.0909	0.	840.96
2737	20.341	3.0909	0.	802.64
2738	20.524	3.0909	0.	764.68
2739	20.707	3.0909	0.	727.09
2740	20.89	3.0909	0.	689.9
2741	21.073	3.0909	0.	653.12
2742	21.256	3.0909	0.	616.78
2743	21.439	3.0909	0.	580.91
2744	21.622	3.0909	0.	545.53
2745	21.805	3.0909	0.	510.69
2746	21.988	3.0909	0.	476.43
2747	22.171	3.0909	0.	442.82
2748	22.353	3.0909	0.	409.92
2749	22.536	3.0909	0.	377.84
2750	22.719	3.0909	0.	346.73
2751	22.902	3.0909	0.	316.78
2752	23.085	3.0909	0.	288.27
2753	23.268	3.0909	0.	261.59
2754	23.451	3.0909	0.	237.31
2755	23.634	3.0909	0.	216.22
2756	23.817	3.0909	0.	199.3
2757	8.4496	2.9091	0.	8741.5
2758	8.6326	2.9091	0.	7948.9
2759	8.8155	2.9091	0.	7070.2
2760	8.9985	2.9091	0.	6255.7
2761	9.1814	2.9091	0.	5568.3
2762	9.3643	2.9091	0.	5014.1
2763	9.5473	2.9091	0.	4575.6
2764	9.7302	2.9091	0.	4230.
2765	9.9132	2.9091	0.	3956.5
2766	10.096	2.9091	0.	3738.3
2767	10.279	2.9091	0.	3562.
2768	10.462	2.9091	0.	3417.6
2769	10.645	2.9091	0.	3297.5
2770	10.828	2.9091	0.	3195.9
2771	11.011	2.9091	0.	3108.3
2772	11.194	2.9091	0.	3031.5
2773	11.377	2.9091	0.	2962.9
2774	11.56	2.9091	0.	2900.4
2775	11.743	2.9091	0.	2842.7
2776	11.926	2.9091	0.	2788.4
2777	12.109	2.9091	0.	2736.9
2778	12.291	2.9091	0.	2687.3
2779	12.474	2.9091	0.	2639.2
2780	12.657	2.9091	0.	2592.2
2781	12.84	2.9091	0.	2546.
2782	13.023	2.9091	0.	2500.4
2783	13.206	2.9091	0.	2455.2
2784	13.389	2.9091	0.	2410.3
2785	13.572	2.9091	0.	2365.7
2786	13.755	2.9091	0.	2321.2
2787	13.938	2.9091	0.	2276.8
2788	14.121	2.9091	0.	2232.5
2789	14.304	2.9091	0.	2188.3
2790	14.487	2.9091	0.	2144.1
2791	14.67	2.9091	0.	2100.
2792	14.853	2.9091	0.	2056.
2793	15.036	2.9091	0.	2012.
2794	15.219	2.9091	0.	1968.1
2795	15.402	2.9091	0.	1924.3
2796	15.584	2.9091	0.	1880.5
2797	15.767	2.9091	0.	1836.9
2798	15.95	2.9091	0.	1793.3
2799	16.133	2.9091	0.	1749.9
2800	16.316	2.9091	0.	1706.6
2801	16.499	2.9091	0.	1663.4
2802	16.682	2.9091	0.	1620.4
2803	16.865	2.9091	0.	1577.5
2804	17.048	2.9091	0.	1534.7
2805	17.231	2.9091	0.	1492.2
2806	17.414	2.9091	0.	1449.8
2807	17.597	2.9091	0.	1407.6
2808	17.78	2.9091	0.	1365.6
2809	17.963	2.9091	0.	1323.7
2810	18.146	2.9091	0.	1282.1
2811	18.329	2.9091	0.	1240.7
2812	18.512	2.9091	0.	1199.6
2813	18.695	2.9091	0.	1158.7
2814	18.878	2.9091	0.	1118.
2815	19.06	2.9091	0.	1077.5
2816	19.243	2.9091	0.	1037.4
2817	19.426	2.9091	0.	997.5
2818	19.609	2.9091	0.	957.9
2819	19.792	2.9091	0.	918.6
2820	19.975	2.9091	0.	879.62
2821	20.158	2.9091	0.	840.96
2822	20.341	2.9091	0.	802.64
2823	20.524	2.9091	0.	764.68
2824	20.707	2.9091	0.	727.09
2825	20.89	2.9091	0.	689.9
2826	21.073	2.9091	0.	653.12
2827	21.256	2.9091	0.	616.78
2828	21.439	2.9091	0.	580.91
2829	21.622	2.9091	0.	545.53
2830	21.805	2.9091	0.	510.69
2831	21.988	2.9091	0.	476.43
2832	22.171	2.9091	0.	442.82
2833	22.353	2.9091	0.	409.92
2834	22.536	2.9091	0.	377.84
2835	22.719	2.9091	0.	346.73
2836	22.902	2.9091	0.	316.78
2837	23.085	2.9091	0.	288.27
2838	23.268	2.9091	0.	261.59
2839	23.451	2.9091	0.	237.31
2840	23.634	2.9091	0.	216.22
2841	23.817	2.9091	0.	199.3
2842	8.4496	2.7273	0.	8945.6
2843	8.6326	2.7273	0.	8017.7
2844	8.8155	2.7273	0.	7047.1
2845	8.9985	2.7273	0.	6195.1
2846	9.1814	2.7273	0.	5503.
2847	9.3643	2.7273	0.	4957.4
2848	9.5473	2.7273	0.	4530.8
2849	9.7302	2.7273	0.	4196.2
2850	9.9132	2.7273	0.	3931.8
2851	10.096	2.7273	0.	3720.5
2852	10.279	2.7273	0.	3549.4
2853	10.462	2.7273	0.	3408.9
2854	10.645	2.7273	0.	3291.7
2855	10.828	2.7273	0.	3192.1
2856	11.011	2.7273	0.	3106.1
2857	11.194	2.7273	0.	3030.3
2858	11.377	2.7273	0.	2962.4
2859	11.56	2.7273	0.	2900.5
2860	11.743	2.7273	0.	2843.
2861	11.926	2.7273	0.	2789.
2862	12.109	2.7273	0.	2737.6
2863	12.291	2.7273	0.	2688.1
2864	12.474	2.7273	0.	2640.
2865	12.657	2.7273	0.	2593.
2866	12.84	2.7273	0.	2546.8
2867	13.023	2.7273	0.	2501.2
2868	13.206	2.7273	0.	2455.9
2869	13.389	2.7273	0.	2411.
2870	13.572	2.7273	0.	2366.3
2871	13.755	2.7273	0.	2321.8
2872	13.938	2.7273	0.	2277.3
2873	14.121	2.7273	0.	2233.
2874	14.304	2.7273	0.	2188.7
2875	14.487	2.7273	0.	2144.6
2876	14.67	2.7273	0.	2100.4
2877	14.853	2.7273	0.	2056.3
2878	15.036	2.7273	0.	2012.3
2879	15.219	2.7273	0.	1968.4
2880	15.402	2.7273	0.	1924.6
2881	15.584	2.7273	0.	1880.8
2882	15.767	2.7273	0.	1837.1
2883	15.95	2.7273	0.	1793.6
2884	16.133	2.7273	0.	1750.1
2885	16.316	2.7273	0.	1706.8
2886	16.499	2.7273	0.	1663.6
2887	16.682	2.7273	0.	1620.5
2888	16.865	2.7273	0.	1577.6
2889	17.048	2.7273	0.	1534.9
2890	17.231	2.7273	0.	1492.3
2891	17.414	2.7273	0.	1449.9
2892	17.597	2.7273	0.	1407.7
2893	17.78	2.7273	0.	1365.7
2894	17.963	2.7273	0.	1323.8
2895	18.146	2.7273	0.	1282.2
2896	18.329	2.7273	0.	1240.8
2897	18.512	2.7273	0.	1199.6
2898	18.695	2.7273	0.	1158.7
2899	18.878	2.7273	0.	1118.
2900	19.06	2.7273	0.	1077.5
2901	19.243	2.7273	0.	1037.4
2902	19.426	2.7273	0.	997.45
2903	19.609	2.7273	0.	957.83
2904	19.792	2.7273	0.	918.51
2905	19.975	2.7273	0.	879.5
2906	20.158	2.7273	0.	840.81
2907	20.341	2.7273	0.	802.47
2908	20.524	2.7273	0.	764.47
2909	20.707	2.7273	0.	726.86
2910	20.89	2.7273	0.	689.63
2911	21.073	2.7273	0.	652.81
2912	21.256	2.7273	0.	616.43
2913	21.439	2.7273	0.	580.52
2914	21.622	2.7273	0.	545.1
2915	21.805	2.7273	0.	510.22
2916	21.988	2.7273	0.	475.92
2917	22.171	2.7273	0.	442.26
2918	22.353	2.7273	0.	409.32
2919	22.536	2.7273	0.	377.2
2920	22.719	2.7273	0.	346.04
2921	22.902	2.7273	0.	316.05
2922	23.085	2.7273	0.	287.5
2923	23.268	2.7273	0.	260.78
2924	23.451	2.7273	0.	236.47
2925	23.634	2.7273	0.	215.34
2926	23.817	2.7273	0.	198.4
2927	8.4496	2.5455	0.	9374.9
2928	8.6326	2.5455	0.	8123.5
2929	8.8155	2.5455	0.	6966.8
2930	8.9985	2.5455	0.	6058.9
2931	9.1814	2.5455	0.	5369.7
2932	9.3643	2.5455	0.	4846.3
2933	9.5473	2.5455	0.	4444.3
2934	9.7302	2.5455	0.	4131.4
2935	9.9132	2.5455	0.	3884.3
2936	10.096	2.5455	0.	3686.3
2937	10.279	2.5455	0.	3525.3
2938	10.462	2.5455	0.	3392.2
2939	10.645	2.5455	0.	3280.4
2940	10.828	2.5455	0.	3184.8
2941	11.011	2.5455	0.	3101.6
2942	11.194	2.5455	0.	3027.9
2943	11.377	2.5455	0.	2961.5
2944	11.56	2.5455	0.	2900.5
2945	11.743	2.5455	0.	2843.8
2946	11.926	2.5455	0.	2790.2
2947	12.109	2.5455	0.	2739.
2948	12.291	2.5455	0.	2689.7
2949	12.474	2.5455	0.	2641.7
2950	12.657	2.5455	0.	2594.7
2951	12.84	2.5455	0.	2548.4
2952	13.023	2.5455	0.	2502.7
2953	13.206	2.5455	0.	2457.4
2954	13.389	2.5455	0.	2412.4
2955	13.572	2.5455	0.	2367.6
2956	13.755	2.5455	0.	2323.
2957	13.938	2.5455	0.	2278.5
2958	14.121	2.5455	0.	2234.
2959	14.304	2.5455	0.	2189.7
2960	14.487	2.5455	0.	2145.4
2961	14.67	2.5455	0.	2101.2
2962	14.853	2.5455	0.	2057.1
2963	15.036	2.5455	0.	2013.1
2964	15.219	2.5455	0.	1969.1
2965	15.402	2.5455	0.	1925.2
2966	15.584	2.5455	0.	1881.4
2967	15.767	2.5455	0.	1837.7
2968	15.95	2.5455	0.	1794.1
2969	16.133	2.5455	0.	1750.6
2970	16.316	2.5455	0.	1707.2
2971	16.499	2.5455	0.	1664.
2972	16.682	2.5455	0.	1620.9
2973	16.865	2.5455	0.	1578.
2974	17.048	2.5455	0.	1535.2
2975	17.231	2.5455	0.	1492.6
2976	17.414	2.5455	0.	1450.2
2977	17.597	2.5455	0.	1407.9
2978	17.78	2.5455	0.	1365.8
2979	17.963	2.5455	0.	1324.
2980	18.146	2.5455	0.	1282.3
2981	18.329	2.5455	0.	1240.9
2982	18.512	2.5455	0.	1199.7
2983	18.695	2.5455	0.	1158.7
2984	18.878	2.5455	0.	1118.
2985	19.06	2.5455	0.	1077.5
2986	19.243	2.5455	0.	1037.3
2987	19.426	2.5455	0.	997.35
2988	19.609	2.5455	0.	957.69
2989	19.792	2.5455	0.	918.32
2990	19.975	2.5455	0.	879.26
2991	20.158	2.5455	0.	840.53
2992	20.341	2.5455	0.	802.12
2993	20.524	2.5455	0.	764.07
2994	20.707	2.5455	0.	726.39
2995	20.89	2.5455	0.	689.09
2996	21.073	2.5455	0.	652.2
2997	21.256	2.5455	0.	615.74
2998	21.439	2.5455	0.	579.75
2999	21.622	2.5455	0.	544.25
3000	21.805	2.5455	0.	509.28
3001	21.988	2.5455	0.	474.89
3002	22.171	2.5455	0.	441.14
3003	22.353	2.5455	0.	408.11
3004	22.536	2.5455	0.	375.91
3005	22.719	2.5455	0.	344.67
3006	22.902	2.5455	0.	314.59
3007	23.085	2.5455	0.	285.95
3008	23.268	2.5455	0.	259.16
3009	23.451	2.5455	0.	234.77
3010	23.634	2.5455	0.	213.58
3011	23.817	2.5455	0.	196.59
3012	8.4496	2.3636	0.	10104
3013	8.6326	2.3636	0.	8137.4
3014	8.8155	2.3636	0.	6766.6
3015	8.9985	2.3636	0.	5827.9
3016	9.1814	2.3636	0.	5169.1
3017	9.3643	2.3636	0.	4686.6
3018	9.5473	2.3636	0.	4322.5
3019	9.7302	2.3636	0.	4040.6
3020	9.9132	2.3636	0.	3817.8
3021	10.096	2.3636	0.	3638.4
3022	10.279	2.3636	0.	3491.3
3023	10.462	2.3636	0.	3368.6
3024	10.645	2.3636	0.	3264.4
3025	10.828	2.3636	0.	3174.5
3026	11.011	2.3636	0.	3095.3
3027	11.194	2.3636	0.	3024.5
3028	11.377	2.3636	0.	2960.1
3029	11.56	2.3636	0.	2900.6
3030	11.743	2.3636	0.	2844.8
3031	11.926	2.3636	0.	2791.9
3032	12.109	2.3636	0.	2741.1
3033	12.291	2.3636	0.	2691.9
3034	12.474	2.3636	0.	2644.
3035	12.657	2.3636	0.	2597.
3036	12.84	2.3636	0.	2550.7
3037	13.023	2.3636	0.	2505.
3038	13.206	2.3636	0.	2459.6
3039	13.389	2.3636	0.	2414.4
3040	13.572	2.3636	0.	2369.5
3041	13.755	2.3636	0.	2324.8
3042	13.938	2.3636	0.	2280.1
3043	14.121	2.3636	0.	2235.6
3044	14.304	2.3636	0.	2191.1
3045	14.487	2.3636	0.	2146.8
3046	14.67	2.3636	0.	2102.5
3047	14.853	2.3636	0.	2058.3
3048	15.036	2.3636	0.	2014.1
3049	15.219	2.3636	0.	1970.1
3050	15.402	2.3636	0.	1926.1
3051	15.584	2.3636	0.	1882.2
3052	15.767	2.3636	0.	1838.4
3053	15.95	2.3636	0.	1794.8
3054	16.133	2.3636	0.	1751.3
3055	16.316	2.3636	0.	1707.8
3056	16.499	2.3636	0.	1664.6
3057	16.682	2.3636	0.	1621.4
3058	16.865	2.3636	0.	1578.5
3059	17.048	2.3636	0.	1535.6
3060	17.231	2.3636	0.	1493.
3061	17.414	2.3636	0.	1450.5
3062	17.597	2.3636	0.	1408.2
3063	17.78	2.3636	0.	1366.1
3064	17.963	2.3636	0.	1324.2
3065	18.146	2.3636	0.	1282.6
3066	18.329	2.3636	0.	1241.1
3067	18.512	2.3636	0.	1199.8
3068	18.695	2.3636	0.	1158.8
3069	18.878	2.3636	0.	1118.
3070	19.06	2.3636	0.	1077.5
3071	19.243	2.3636	0.	1037.2
3072	19.426	2.3636	0.	997.22
3073	19.609	2.3636	0.	957.49
3074	19.792	2.3636	0.	918.06
3075	19.975	2.3636	0.	878.92
3076	20.158	2.3636	0.	840.11
3077	20.341	2.3636	0.	801.62
3078	20.524	2.3636	0.	763.48
3079	20.707	2.3636	0.	725.69
3080	20.89	2.3636	0.	688.29
3081	21.073	2.3636	0.	651.3
3082	21.256	2.3636	0.	614.72
3083	21.439	2.3636	0.	578.61
3084	21.622	2.3636	0.	542.98
3085	21.805	2.3636	0.	507.88
3086	21.988	2.3636	0.	473.36
3087	22.171	2.3636	0.	439.47
3088	22.353	2.3636	0.	406.31
3089	22.536	2.3636	0.	373.97
3090	22.719	2.3636	0.	342.6
3091	22.902	2.3636	0.	312.39
3092	23.085	2.3636	0.	283.63
3093	23.268	2.3636	0.	256.72
3094	23.451	2.3636	0.	232.21
3095	23.634	2.3636	0.	210.91
3096	23.817	2.3636	0.	193.86
3097	8.4496	2.1818	0.	10670
3098	8.6326	2.1818	0.	7881.5
3099	8.8155	2.1818	0.	6379.4
3100	8.9985	2.1818	0.	5505.3
3101	9.1814	2.1818	0.	4911.9
3102	9.3643	2.1818	0.	4489.8
3103	9.5473	2.1818	0.	4174.
3104	9.7302	2.1818	0.	3930.3
3105	9.9132	2.1818	0.	3736.8
3106	10.096	2.1818	0.	3579.7
3107	10.279	2.1818	0.	3449.4
3108	10.462	2.1818	0.	3339.4
3109	10.645	2.1818	0.	3244.6
3110	10.828	2.1818	0.	3161.5
3111	11.011	2.1818	0.	3087.4
3112	11.194	2.1818	0.	3020.2
3113	11.377	2.1818	0.	2958.4
3114	11.56	2.1818	0.	2900.7
3115	11.743	2.1818	0.	2846.1
3116	11.926	2.1818	0.	2794.
3117	12.109	2.1818	0.	2743.7
3118	12.291	2.1818	0.	2694.9
3119	12.474	2.1818	0.	2647.1
3120	12.657	2.1818	0.	2600.1
3121	12.84	2.1818	0.	2553.8
3122	13.023	2.1818	0.	2507.9
3123	13.206	2.1818	0.	2462.3
3124	13.389	2.1818	0.	2417.
3125	13.572	2.1818	0.	2372.
3126	13.755	2.1818	0.	2327.1
3127	13.938	2.1818	0.	2282.3
3128	14.121	2.1818	0.	2237.6
3129	14.304	2.1818	0.	2193.
3130	14.487	2.1818	0.	2148.5
3131	14.67	2.1818	0.	2104.1
3132	14.853	2.1818	0.	2059.8
3133	15.036	2.1818	0.	2015.5
3134	15.219	2.1818	0.	1971.4
3135	15.402	2.1818	0.	1927.3
3136	15.584	2.1818	0.	1883.3
3137	15.767	2.1818	0.	1839.5
3138	15.95	2.1818	0.	1795.8
3139	16.133	2.1818	0.	1752.2
3140	16.316	2.1818	0.	1708.7
3141	16.499	2.1818	0.	1665.3
3142	16.682	2.1818	0.	1622.2
3143	16.865	2.1818	0.	1579.1
3144	17.048	2.1818	0.	1536.3
3145	17.231	2.1818	0.	1493.6
3146	17.414	2.1818	0.	1451.
3147	17.597	2.1818	0.	1408.7
3148	17.78	2.1818	0.	1366.5
3149	17.963	2.1818	0.	1324.6
3150	18.146	2.1818	0.	1282.8
3151	18.329	2.1818	0.	1241.3
3152	18.512	2.1818	0.	1200.
3153	18.695	2.1818	0.	1158.9
3154	18.878	2.1818	0.	1118.1
3155	19.06	2.1818	0.	1077.5
3156	19.243	2.1818	0.	1037.1
3157	19.426	2.1818	0.	997.05
3158	19.609	2.1818	0.	957.25
3159	19.792	2.1818	0.	917.72
3160	19.975	2.1818	0.	878.49
3161	20.158	2.1818	0.	839.57
3162	20.341	2.1818	0.	800.97
3163	20.524	2.1818	0.	762.71
3164	20.707	2.1818	0.	724.8
3165	20.89	2.1818	0.	687.27
3166	21.073	2.1818	0.	650.12
3167	21.256	2.1818	0.	613.39
3168	21.439	2.1818	0.	577.12
3169	21.622	2.1818	0.	541.32
3170	21.805	2.1818	0.	506.04
3171	21.988	2.1818	0.	471.34
3172	22.171	2.1818	0.	437.27
3173	22.353	2.1818	0.	403.92
3174	22.536	2.1818	0.	371.4
3175	22.719	2.1818	0.	339.84
3176	22.902	2.1818	0.	309.46
3177	23.085	2.1818	0.	280.52
3178	23.268	2.1818	0.	253.43
3179	23.451	2.1818	0.	228.76
3180	23.634	2.1818	0.	207.32
3181	23.817	2.1818	0.	190.18
3182	8.4496	2.	0.	10788
3183	8.6326	2.	0.	7169.5
3184	8.8155	2.	0.	5866.7
3185	8.9985	2.	0.	5115.9
3186	9.1814	2.	0.	4618.3
3187	9.3643	2.	0.	4268.6
3188	9.5473	2.	0.	4008.1
3189	9.7302	2.	0.	3806.7
3190	9.9132	2.	0.	3645.7
3191	10.096	2.	0.	3513.3
3192	10.279	2.	0.	3401.9
3193	10.462	2.	0.	3305.9
3194	10.645	2.	0.	3221.7
3195	10.828	2.	0.	3146.5
3196	11.011	2.	0.	3078.2
3197	11.194	2.	0.	3015.2
3198	11.377	2.	0.	2956.4
3199	11.56	2.	0.	2900.8
3200	11.743	2.	0.	2847.7
3201	11.926	2.	0.	2796.5
3202	12.109	2.	0.	2746.8
3203	12.291	2.	0.	2698.3
3204	12.474	2.	0.	2650.7
3205	12.657	2.	0.	2603.8
3206	12.84	2.	0.	2557.4
3207	13.023	2.	0.	2511.4
3208	13.206	2.	0.	2465.7
3209	13.389	2.	0.	2420.2
3210	13.572	2.	0.	2375.
3211	13.755	2.	0.	2329.9
3212	13.938	2.	0.	2284.9
3213	14.121	2.	0.	2240.
3214	14.304	2.	0.	2195.3
3215	14.487	2.	0.	2150.6
3216	14.67	2.	0.	2106.1
3217	14.853	2.	0.	2061.6
3218	15.036	2.	0.	2017.2
3219	15.219	2.	0.	1973.
3220	15.402	2.	0.	1928.8
3221	15.584	2.	0.	1884.7
3222	15.767	2.	0.	1840.8
3223	15.95	2.	0.	1797.
3224	16.133	2.	0.	1753.3
3225	16.316	2.	0.	1709.7
3226	16.499	2.	0.	1666.3
3227	16.682	2.	0.	1623.1
3228	16.865	2.	0.	1580.
3229	17.048	2.	0.	1537.
3230	17.231	2.	0.	1494.3
3231	17.414	2.	0.	1451.7
3232	17.597	2.	0.	1409.3
3233	17.78	2.	0.	1367.1
3234	17.963	2.	0.	1325.
3235	18.146	2.	0.	1283.2
3236	18.329	2.	0.	1241.6
3237	18.512	2.	0.	1200.2
3238	18.695	2.	0.	1159.1
3239	18.878	2.	0.	1118.2
3240	19.06	2.	0.	1077.5
3241	19.243	2.	0.	1037.1
3242	19.426	2.	0.	996.88
3243	19.609	2.	0.	956.97
3244	19.792	2.	0.	917.34
3245	19.975	2.	0.	877.99
3246	20.158	2.	0.	838.95
3247	20.341	2.	0.	800.21
3248	20.524	2.	0.	761.8
3249	20.707	2.	0.	723.73
3250	20.89	2.	0.	686.03
3251	21.073	2.	0.	648.7
3252	21.256	2.	0.	611.78
3253	21.439	2.	0.	575.3
3254	21.622	2.	0.	539.29
3255	21.805	2.	0.	503.79
3256	21.988	2.	0.	468.85
3257	22.171	2.	0.	434.55
3258	22.353	2.	0.	400.96
3259	22.536	2.	0.	368.19
3260	22.719	2.	0.	336.4
3261	22.902	2.	0.	305.77
3262	23.085	2.	0.	276.6
3263	23.268	2.	0.	249.29
3264	23.451	2.	0.	224.4
3265	23.634	2.	0.	202.77
3266	23.817	2.	0.	185.52
3267	8.4496	1.8182	0.	8832.2
3268	8.6326	1.8182	0.	6349.
3269	8.8155	1.8182	0.	5277.8
3270	8.9985	1.8182	0.	4692.6
3271	9.1814	1.8182	0.	4305.4
3272	9.3643	1.8182	0.	4033.7
3273	9.5473	1.8182	0.	3831.8
3274	9.7302	1.8182	0.	3674.9
3275	9.9132	1.8182	0.	3548.1
3276	10.096	1.8182	0.	3441.9
3277	10.279	1.8182	0.	3350.3
3278	10.462	1.8182	0.	3269.5
3279	10.645	1.8182	0.	3196.7
3280	10.828	1.8182	0.	3130.
3281	11.011	1.8182	0.	3067.9
3282	11.194	1.8182	0.	3009.6
3283	11.377	1.8182	0.	2954.1
3284	11.56	1.8182	0.	2900.8
3285	11.743	1.8182	0.	2849.3
3286	11.926	1.8182	0.	2799.3
3287	12.109	1.8182	0.	2750.3
3288	12.291	1.8182	0.	2702.2
3289	12.474	1.8182	0.	2654.8
3290	12.657	1.8182	0.	2607.9
3291	12.84	1.8182	0.	2561.4
3292	13.023	1.8182	0.	2515.3
3293	13.206	1.8182	0.	2469.5
3294	13.389	1.8182	0.	2423.9
3295	13.572	1.8182	0.	2378.4
3296	13.755	1.8182	0.	2333.1
3297	13.938	1.8182	0.	2287.9
3298	14.121	1.8182	0.	2242.9
3299	14.304	1.8182	0.	2197.9
3300	14.487	1.8182	0.	2153.1
3301	14.67	1.8182	0.	2108.4
3302	14.853	1.8182	0.	2063.8
3303	15.036	1.8182	0.	2019.2
3304	15.219	1.8182	0.	1974.8
3305	15.402	1.8182	0.	1930.5
3306	15.584	1.8182	0.	1886.4
3307	15.767	1.8182	0.	1842.3
3308	15.95	1.8182	0.	1798.4
3309	16.133	1.8182	0.	1754.6
3310	16.316	1.8182	0.	1711.
3311	16.499	1.8182	0.	1667.5
3312	16.682	1.8182	0.	1624.1
3313	16.865	1.8182	0.	1580.9
3314	17.048	1.8182	0.	1537.9
3315	17.231	1.8182	0.	1495.1
3316	17.414	1.8182	0.	1452.4
3317	17.597	1.8182	0.	1410.
3318	17.78	1.8182	0.	1367.7
3319	17.963	1.8182	0.	1325.6
3320	18.146	1.8182	0.	1283.7
3321	18.329	1.8182	0.	1242.
3322	18.512	1.8182	0.	1200.6
3323	18.695	1.8182	0.	1159.3
3324	18.878	1.8182	0.	1118.3
3325	19.06	1.8182	0.	1077.5
3326	19.243	1.8182	0.	1037.
3327	19.426	1.8182	0.	996.71
3328	19.609	1.8182	0.	956.68
3329	19.792	1.8182	0.	916.92
3330	19.975	1.8182	0.	877.44
3331	20.158	1.8182	0.	838.25
3332	20.341	1.8182	0.	799.35
3333	20.524	1.8182	0.	760.77
3334	20.707	1.8182	0.	722.52
3335	20.89	1.8182	0.	684.62
3336	21.073	1.8182	0.	647.08
3337	21.256	1.8182	0.	609.93
3338	21.439	1.8182	0.	573.2
3339	21.622	1.8182	0.	536.93
3340	21.805	1.8182	0.	501.15
3341	21.988	1.8182	0.	465.93
3342	22.171	1.8182	0.	431.33
3343	22.353	1.8182	0.	397.44
3344	22.536	1.8182	0.	364.37
3345	22.719	1.8182	0.	332.26
3346	22.902	1.8182	0.	301.34
3347	23.085	1.8182	0.	271.87
3348	23.268	1.8182	0.	244.27
3349	23.451	1.8182	0.	219.1
3350	23.634	1.8182	0.	197.23
3351	23.817	1.8182	0.	179.82
3352	8.4496	1.6364	0.	6553.4
3353	8.6326	1.6364	0.	5301.
3354	8.8155	1.6364	0.	4654.7
3355	8.9985	1.6364	0.	4253.1
3356	9.1814	1.6364	0.	3980.5
3357	9.3643	1.6364	0.	3790.7
3358	9.5473	1.6364	0.	3649.4
3359	9.7302	1.6364	0.	3538.5
3360	9.9132	1.6364	0.	3446.7
3361	10.096	1.6364	0.	3367.3
3362	10.279	1.6364	0.	3296.3
3363	10.462	1.6364	0.	3231.1
3364	10.645	1.6364	0.	3170.1
3365	10.828	1.6364	0.	3112.3
3366	11.011	1.6364	0.	3056.9
3367	11.194	1.6364	0.	3003.4
3368	11.377	1.6364	0.	2951.4
3369	11.56	1.6364	0.	2900.7
3370	11.743	1.6364	0.	2851.
3371	11.926	1.6364	0.	2802.2
3372	12.109	1.6364	0.	2754.
3373	12.291	1.6364	0.	2706.4
3374	12.474	1.6364	0.	2659.2
3375	12.657	1.6364	0.	2612.4
3376	12.84	1.6364	0.	2565.9
3377	13.023	1.6364	0.	2519.7
3378	13.206	1.6364	0.	2473.7
3379	13.389	1.6364	0.	2427.9
3380	13.572	1.6364	0.	2382.2
3381	13.755	1.6364	0.	2336.7
3382	13.938	1.6364	0.	2291.3
3383	14.121	1.6364	0.	2246.1
3384	14.304	1.6364	0.	2200.9
3385	14.487	1.6364	0.	2155.9
3386	14.67	1.6364	0.	2111.
3387	14.853	1.6364	0.	2066.2
3388	15.036	1.6364	0.	2021.5
3389	15.219	1.6364	0.	1977.
3390	15.402	1.6364	0.	1932.5
3391	15.584	1.6364	0.	1888.2
3392	15.767	1.6364	0.	1844.1
3393	15.95	1.6364	0.	1800.
3394	16.133	1.6364	0.	1756.1
3395	16.316	1.6364	0.	1712.4
3396	16.499	1.6364	0.	1668.8
3397	16.682	1.6364	0.	1625.4
3398	16.865	1.6364	0.	1582.1
3399	17.048	1.6364	0.	1539.
3400	17.231	1.6364	0.	1496.1
3401	17.414	1.6364	0.	1453.3
3402	17.597	1.6364	0.	1410.8
3403	17.78	1.6364	0.	1368.4
3404	17.963	1.6364	0.	1326.2
3405	18.146	1.6364	0.	1284.3
3406	18.329	1.6364	0.	1242.5
3407	18.512	1.6364	0.	1201.
3408	18.695	1.6364	0.	1159.6
3409	18.878	1.6364	0.	1118.5
3410	19.06	1.6364	0.	1077.6
3411	19.243	1.6364	0.	1037.
3412	19.426	1.6364	0.	996.56
3413	19.609	1.6364	0.	956.41
3414	19.792	1.6364	0.	916.51
3415	19.975	1.6364	0.	876.87
3416	20.158	1.6364	0.	837.51
3417	20.341	1.6364	0.	798.44
3418	20.524	1.6364	0.	759.67
3419	20.707	1.6364	0.	721.2
3420	20.89	1.6364	0.	683.07
3421	21.073	1.6364	0.	645.29
3422	21.256	1.6364	0.	607.87
3423	21.439	1.6364	0.	570.86
3424	21.622	1.6364	0.	534.29
3425	21.805	1.6364	0.	498.19
3426	21.988	1.6364	0.	462.63
3427	22.171	1.6364	0.	427.67
3428	22.353	1.6364	0.	393.41
3429	22.536	1.6364	0.	359.95
3430	22.719	1.6364	0.	327.46
3431	22.902	1.6364	0.	296.15
3432	23.085	1.6364	0.	266.3
3433	23.268	1.6364	0.	238.33
3434	23.451	1.6364	0.	212.81
3435	23.634	1.6364	0.	190.63
3436	23.817	1.6364	0.	173.04
3437	8.4496	1.4545	0.	5022.9
3438	8.6326	1.4545	0.	4359.8
3439	8.8155	1.4545	0.	4031.1
3440	8.9985	1.4545	0.	3802.8
3441	9.1814	1.4545	0.	3650.3
3442	9.3643	1.4545	0.	3543.7
3443	9.5473	1.4545	0.	3464.3
3444	9.7302	1.4545	0.	3399.9
3445	9.9132	1.4545	0.	3343.6
3446	10.096	1.4545	0.	3291.3
3447	10.279	1.4545	0.	3241.
3448	10.462	1.4545	0.	3191.6
3449	10.645	1.4545	0.	3142.6
3450	10.828	1.4545	0.	3093.9
3451	11.011	1.4545	0.	3045.2
3452	11.194	1.4545	0.	2996.8
3453	11.377	1.4545	0.	2948.5
3454	11.56	1.4545	0.	2900.5
3455	11.743	1.4545	0.	2852.7
3456	11.926	1.4545	0.	2805.1
3457	12.109	1.4545	0.	2757.8
3458	12.291	1.4545	0.	2710.7
3459	12.474	1.4545	0.	2663.8
3460	12.657	1.4545	0.	2617.2
3461	12.84	1.4545	0.	2570.7
3462	13.023	1.4545	0.	2524.4
3463	13.206	1.4545	0.	2478.2
3464	13.389	1.4545	0.	2432.2
3465	13.572	1.4545	0.	2386.4
3466	13.755	1.4545	0.	2340.7
3467	13.938	1.4545	0.	2295.1
3468	14.121	1.4545	0.	2249.6
3469	14.304	1.4545	0.	2204.3
3470	14.487	1.4545	0.	2159.
3471	14.67	1.4545	0.	2113.9
3472	14.853	1.4545	0.	2068.9
3473	15.036	1.4545	0.	2024.1
3474	15.219	1.4545	0.	1979.4
3475	15.402	1.4545	0.	1934.8
3476	15.584	1.4545	0.	1890.3
3477	15.767	1.4545	0.	1846.
3478	15.95	1.4545	0.	1801.9
3479	16.133	1.4545	0.	1757.9
3480	16.316	1.4545	0.	1714.
3481	16.499	1.4545	0.	1670.3
3482	16.682	1.4545	0.	1626.8
3483	16.865	1.4545	0.	1583.4
3484	17.048	1.4545	0.	1540.2
3485	17.231	1.4545	0.	1497.2
3486	17.414	1.4545	0.	1454.4
3487	17.597	1.4545	0.	1411.7
3488	17.78	1.4545	0.	1369.3
3489	17.963	1.4545	0.	1327.
3490	18.146	1.4545	0.	1285.
3491	18.329	1.4545	0.	1243.1
3492	18.512	1.4545	0.	1201.4
3493	18.695	1.4545	0.	1160.
3494	18.878	1.4545	0.	1118.8
3495	19.06	1.4545	0.	1077.8
3496	19.243	1.4545	0.	1037.
3497	19.426	1.4545	0.	996.47
3498	19.609	1.4545	0.	956.17
3499	19.792	1.4545	0.	916.12
3500	19.975	1.4545	0.	876.32
3501	20.158	1.4545	0.	836.78
3502	20.341	1.4545	0.	797.51
3503	20.524	1.4545	0.	758.52
3504	20.707	1.4545	0.	719.83
3505	20.89	1.4545	0.	681.44
3506	21.073	1.4545	0.	643.39
3507	21.256	1.4545	0.	605.68
3508	21.439	1.4545	0.	568.35
3509	21.622	1.4545	0.	531.43
3510	21.805	1.4545	0.	494.96
3511	21.988	1.4545	0.	459.
3512	22.171	1.4545	0.	423.62
3513	22.353	1.4545	0.	388.91
3514	22.536	1.4545	0.	354.99
3515	22.719	1.4545	0.	322.02
3516	22.902	1.4545	0.	290.22
3517	23.085	1.4545	0.	259.89
3518	23.268	1.4545	0.	231.44
3519	23.451	1.4545	0.	205.49
3520	23.634	1.4545	0.	182.92
3521	23.817	1.4545	0.	165.08
3522	8.4496	1.2727	0.	3969.7
3523	8.6326	1.2727	0.	3580.2
3524	8.8155	1.2727	0.	3442.7
3525	8.9985	1.2727	0.	3366.9
3526	9.1814	1.2727	0.	3324.4
3527	9.3643	1.2727	0.	3299.3
3528	9.5473	1.2727	0.	3280.8
3529	9.7302	1.2727	0.	3262.5
3530	9.9132	1.2727	0.	3241.1
3531	10.096	1.2727	0.	3215.5
3532	10.279	1.2727	0.	3185.7
3533	10.462	1.2727	0.	3151.8
3534	10.645	1.2727	0.	3114.7
3535	10.828	1.2727	0.	3075.
3536	11.011	1.2727	0.	3033.1
3537	11.194	1.2727	0.	2989.7
3538	11.377	1.2727	0.	2945.2
3539	11.56	1.2727	0.	2899.9
3540	11.743	1.2727	0.	2854.1
3541	11.926	1.2727	0.	2807.9
3542	12.109	1.2727	0.	2761.6
3543	12.291	1.2727	0.	2715.1
3544	12.474	1.2727	0.	2668.6
3545	12.657	1.2727	0.	2622.1
3546	12.84	1.2727	0.	2575.6
3547	13.023	1.2727	0.	2529.3
3548	13.206	1.2727	0.	2483.
3549	13.389	1.2727	0.	2436.8
3550	13.572	1.2727	0.	2390.8
3551	13.755	1.2727	0.	2344.9
3552	13.938	1.2727	0.	2299.1
3553	14.121	1.2727	0.	2253.4
3554	14.304	1.2727	0.	2207.8
3555	14.487	1.2727	0.	2162.4
3556	14.67	1.2727	0.	2117.1
3557	14.853	1.2727	0.	2071.9
3558	15.036	1.2727	0.	2026.9
3559	15.219	1.2727	0.	1982.
3560	15.402	1.2727	0.	1937.3
3561	15.584	1.2727	0.	1892.7
3562	15.767	1.2727	0.	1848.2
3563	15.95	1.2727	0.	1803.9
3564	16.133	1.2727	0.	1759.8
3565	16.316	1.2727	0.	1715.8
3566	16.499	1.2727	0.	1672.
3567	16.682	1.2727	0.	1628.4
3568	16.865	1.2727	0.	1584.9
3569	17.048	1.2727	0.	1541.6
3570	17.231	1.2727	0.	1498.5
3571	17.414	1.2727	0.	1455.6
3572	17.597	1.2727	0.	1412.8
3573	17.78	1.2727	0.	1370.3
3574	17.963	1.2727	0.	1327.9
3575	18.146	1.2727	0.	1285.8
3576	18.329	1.2727	0.	1243.8
3577	18.512	1.2727	0.	1202.1
3578	18.695	1.2727	0.	1160.5
3579	18.878	1.2727	0.	1119.2
3580	19.06	1.2727	0.	1078.
3581	19.243	1.2727	0.	1037.1
3582	19.426	1.2727	0.	996.46
3583	19.609	1.2727	0.	956.01
3584	19.792	1.2727	0.	915.79
3585	19.975	1.2727	0.	875.81
3586	20.158	1.2727	0.	836.08
3587	20.341	1.2727	0.	796.6
3588	20.524	1.2727	0.	757.39
3589	20.707	1.2727	0.	718.45
3590	20.89	1.2727	0.	679.8
3591	21.073	1.2727	0.	641.44
3592	21.256	1.2727	0.	603.41
3593	21.439	1.2727	0.	565.73
3594	21.622	1.2727	0.	528.43
3595	21.805	1.2727	0.	491.54
3596	21.988	1.2727	0.	455.13
3597	22.171	1.2727	0.	419.26
3598	22.353	1.2727	0.	384.03
3599	22.536	1.2727	0.	349.55
3600	22.719	1.2727	0.	315.99
3601	22.902	1.2727	0.	283.59
3602	23.085	1.2727	0.	252.64
3603	23.268	1.2727	0.	223.59
3604	23.451	1.2727	0.	197.06
3605	23.634	1.2727	0.	174.
3606	23.817	1.2727	0.	155.84
3607	8.4496	1.0909	0.	3165.4
3608	8.6326	1.0909	0.	2931.7
3609	8.8155	1.0909	0.	2925.5
3610	8.9985	1.0909	0.	2965.1
3611	9.1814	1.0909	0.	3017.2
3612	9.3643	1.0909	0.	3066.3
3613	9.5473	1.0909	0.	3104.7
3614	9.7302	1.0909	0.	3129.8
3615	9.9132	1.0909	0.	3141.8
3616	10.096	1.0909	0.	3141.7
3617	10.279	1.0909	0.	3131.3
3618	10.462	1.0909	0.	3112.5
3619	10.645	1.0909	0.	3086.9
3620	10.828	1.0909	0.	3055.9
3621	11.011	1.0909	0.	3020.7
3622	11.194	1.0909	0.	2982.4
3623	11.377	1.0909	0.	2941.6
3624	11.56	1.0909	0.	2899.1
3625	11.743	1.0909	0.	2855.3
3626	11.926	1.0909	0.	2810.6
3627	12.109	1.0909	0.	2765.2
3628	12.291	1.0909	0.	2719.4
3629	12.474	1.0909	0.	2673.3
3630	12.657	1.0909	0.	2627.
3631	12.84	1.0909	0.	2580.7
3632	13.023	1.0909	0.	2534.3
3633	13.206	1.0909	0.	2487.9
3634	13.389	1.0909	0.	2441.6
3635	13.572	1.0909	0.	2395.4
3636	13.755	1.0909	0.	2349.3
3637	13.938	1.0909	0.	2303.3
3638	14.121	1.0909	0.	2257.4
3639	14.304	1.0909	0.	2211.6
3640	14.487	1.0909	0.	2166.
3641	14.67	1.0909	0.	2120.5
3642	14.853	1.0909	0.	2075.1
3643	15.036	1.0909	0.	2029.9
3644	15.219	1.0909	0.	1984.9
3645	15.402	1.0909	0.	1940.
3646	15.584	1.0909	0.	1895.2
3647	15.767	1.0909	0.	1850.6
3648	15.95	1.0909	0.	1806.2
3649	16.133	1.0909	0.	1761.9
3650	16.316	1.0909	0.	1717.8
3651	16.499	1.0909	0.	1673.9
3652	16.682	1.0909	0.	1630.2
3653	16.865	1.0909	0.	1586.6
3654	17.048	1.0909	0.	1543.2
3655	17.231	1.0909	0.	1500.
3656	17.414	1.0909	0.	1456.9
3657	17.597	1.0909	0.	1414.1
3658	17.78	1.0909	0.	1371.5
3659	17.963	1.0909	0.	1329.
3660	18.146	1.0909	0.	1286.7
3661	18.329	1.0909	0.	1244.7
3662	18.512	1.0909	0.	1202.8
3663	18.695	1.0909	0.	1161.1
3664	18.878	1.0909	0.	1119.7
3665	19.06	1.0909	0.	1078.4
3666	19.243	1.0909	0.	1037.4
3667	19.426	1.0909	0.	996.56
3668	19.609	1.0909	0.	955.95
3669	19.792	1.0909	0.	915.56
3670	19.975	1.0909	0.	875.4
3671	20.158	1.0909	0.	835.47
3672	20.341	1.0909	0.	795.78
3673	20.524	1.0909	0.	756.33
3674	20.707	1.0909	0.	717.13
3675	20.89	1.0909	0.	678.19
3676	21.073	1.0909	0.	639.53
3677	21.256	1.0909	0.	601.16
3678	21.439	1.0909	0.	563.1
3679	21.622	1.0909	0.	525.38
3680	21.805	1.0909	0.	488.04
3681	21.988	1.0909	0.	451.13
3682	22.171	1.0909	0.	414.71
3683	22.353	1.0909	0.	378.87
3684	22.536	1.0909	0.	343.74
3685	22.719	1.0909	0.	309.47
3686	22.902	1.0909	0.	276.31
3687	23.085	1.0909	0.	244.58
3688	23.268	1.0909	0.	214.75
3689	23.451	1.0909	0.	187.47
3690	23.634	1.0909	0.	163.75
3691	23.817	1.0909	0.	145.18
3692	8.4496	0.90909	0.	2516.3
3693	8.6326	0.90909	0.	2393.
3694	8.8155	0.90909	0.	2480.4
3695	8.9985	0.90909	0.	2610.6
3696	9.1814	0.90909	0.	2741.1
3697	9.3643	0.90909	0.	2853.8
3698	9.5473	0.90909	0.	2942.2
3699	9.7302	0.90909	0.	3006.3
3700	9.9132	0.90909	0.	3048.4
3701	10.096	0.90909	0.	3071.6
3702	10.279	0.90909	0.	3079.3
3703	10.462	0.90909	0.	3074.5
3704	10.645	0.90909	0.	3059.7
3705	10.828	0.90909	0.	3037.
3706	11.011	0.90909	0.	3008.2
3707	11.194	0.90909	0.	2974.8
3708	11.377	0.90909	0.	2937.8
3709	11.56	0.90909	0.	2898.
3710	11.743	0.90909	0.	2856.3
3711	11.926	0.90909	0.	2813.1
3712	12.109	0.90909	0.	2768.7
3713	12.291	0.90909	0.	2723.6
3714	12.474	0.90909	0.	2678.
3715	12.657	0.90909	0.	2632.
3716	12.84	0.90909	0.	2585.8
3717	13.023	0.90909	0.	2539.4
3718	13.206	0.90909	0.	2493.
3719	13.389	0.90909	0.	2446.6
3720	13.572	0.90909	0.	2400.2
3721	13.755	0.90909	0.	2353.9
3722	13.938	0.90909	0.	2307.7
3723	14.121	0.90909	0.	2261.6
3724	14.304	0.90909	0.	2215.6
3725	14.487	0.90909	0.	2169.8
3726	14.67	0.90909	0.	2124.1
3727	14.853	0.90909	0.	2078.6
3728	15.036	0.90909	0.	2033.2
3729	15.219	0.90909	0.	1987.9
3730	15.402	0.90909	0.	1942.9
3731	15.584	0.90909	0.	1898.
3732	15.767	0.90909	0.	1853.2
3733	15.95	0.90909	0.	1808.6
3734	16.133	0.90909	0.	1764.3
3735	16.316	0.90909	0.	1720.
3736	16.499	0.90909	0.	1676.
3737	16.682	0.90909	0.	1632.1
3738	16.865	0.90909	0.	1588.4
3739	17.048	0.90909	0.	1544.9
3740	17.231	0.90909	0.	1501.6
3741	17.414	0.90909	0.	1458.5
3742	17.597	0.90909	0.	1415.5
3743	17.78	0.90909	0.	1372.8
3744	17.963	0.90909	0.	1330.2
3745	18.146	0.90909	0.	1287.8
3746	18.329	0.90909	0.	1245.7
3747	18.512	0.90909	0.	1203.7
3748	18.695	0.90909	0.	1161.9
3749	18.878	0.90909	0.	1120.3
3750	19.06	0.90909	0.	1078.9
3751	19.243	0.90909	0.	1037.8
3752	19.426	0.90909	0.	996.8
3753	19.609	0.90909	0.	956.03
3754	19.792	0.90909	0.	915.48
3755	19.975	0.90909	0.	875.13
3756	20.158	0.90909	0.	835.
3757	20.341	0.90909	0.	795.09
3758	20.524	0.90909	0.	755.4
3759	20.707	0.90909	0.	715.94
3760	20.89	0.90909	0.	676.71
3761	21.073	0.90909	0.	637.73
3762	21.256	0.90909	0.	599.01
3763	21.439	0.90909	0.	560.56
3764	21.622	0.90909	0.	522.41
3765	21.805	0.90909	0.	484.59
3766	21.988	0.90909	0.	447.14
3767	22.171	0.90909	0.	410.12
3768	22.353	0.90909	0.	373.61
3769	22.536	0.90909	0.	337.73
3770	22.719	0.90909	0.	302.63
3771	22.902	0.90909	0.	268.55
3772	23.085	0.90909	0.	235.82
3773	23.268	0.90909	0.	204.95
3774	23.451	0.90909	0.	176.66
3775	23.634	0.90909	0.	152.05
3776	23.817	0.90909	0.	132.9
3777	8.4496	0.72727	0.	1967.7
3778	8.6326	0.72727	0.	1938.8
3779	8.8155	0.72727	0.	2106.3
3780	8.9985	0.72727	0.	2311.2
3781	9.1814	0.72727	0.	2505.2
3782	9.3643	0.72727	0.	2669.4
3783	9.5473	0.72727	0.	2799.1
3784	9.7302	0.72727	0.	2895.7
3785	9.9132	0.72727	0.	2963.5
3786	10.096	0.72727	0.	3007.
3787	10.279	0.72727	0.	3030.7
3788	10.462	0.72727	0.	3038.5
3789	10.645	0.72727	0.	3033.5
3790	10.828	0.72727	0.	3018.6
3791	11.011	0.72727	0.	2995.9
3792	11.194	0.72727	0.	2967.1
3793	11.377	0.72727	0.	2933.6
3794	11.56	0.72727	0.	2896.6
3795	11.743	0.72727	0.	2857.
3796	11.926	0.72727	0.	2815.3
3797	12.109	0.72727	0.	2772.
3798	12.291	0.72727	0.	2727.7
3799	12.474	0.72727	0.	2682.6
3800	12.657	0.72727	0.	2636.9
3801	12.84	0.72727	0.	2590.9
3802	13.023	0.72727	0.	2544.6
3803	13.206	0.72727	0.	2498.1
3804	13.389	0.72727	0.	2451.6
3805	13.572	0.72727	0.	2405.1
3806	13.755	0.72727	0.	2358.7
3807	13.938	0.72727	0.	2312.3
3808	14.121	0.72727	0.	2266.
3809	14.304	0.72727	0.	2219.8
3810	14.487	0.72727	0.	2173.8
3811	14.67	0.72727	0.	2127.9
3812	14.853	0.72727	0.	2082.2
3813	15.036	0.72727	0.	2036.6
3814	15.219	0.72727	0.	1991.2
3815	15.402	0.72727	0.	1946.
3816	15.584	0.72727	0.	1900.9
3817	15.767	0.72727	0.	1856.
3818	15.95	0.72727	0.	1811.3
3819	16.133	0.72727	0.	1766.8
3820	16.316	0.72727	0.	1722.4
3821	16.499	0.72727	0.	1678.2
3822	16.682	0.72727	0.	1634.2
3823	16.865	0.72727	0.	1590.4
3824	17.048	0.72727	0.	1546.8
3825	17.231	0.72727	0.	1503.4
3826	17.414	0.72727	0.	1460.2
3827	17.597	0.72727	0.	1417.1
3828	17.78	0.72727	0.	1374.3
3829	17.963	0.72727	0.	1331.6
3830	18.146	0.72727	0.	1289.1
3831	18.329	0.72727	0.	1246.8
3832	18.512	0.72727	0.	1204.7
3833	18.695	0.72727	0.	1162.8
3834	18.878	0.72727	0.	1121.1
3835	19.06	0.72727	0.	1079.6
3836	19.243	0.72727	0.	1038.3
3837	19.426	0.72727	0.	997.21
3838	19.609	0.72727	0.	956.3
3839	19.792	0.72727	0.	915.57
3840	19.975	0.72727	0.	875.05
3841	20.158	0.72727	0.	834.72
3842	20.341	0.72727	0.	794.6
3843	20.524	0.72727	0.	754.67
3844	20.707	0.72727	0.	714.95
3845	20.89	0.72727	0.	675.44
3846	21.073	0.72727	0.	636.15
3847	21.256	0.72727	0.	597.07
3848	21.439	0.72727	0.	558.24
3849	21.622	0.72727	0.	519.65
3850	21.805	0.72727	0.	481.34
3851	21.988	0.72727	0.	443.34
3852	22.171	0.72727	0.	405.69
3853	22.353	0.72727	0.	368.47
3854	22.536	0.72727	0.	331.76
3855	22.719	0.72727	0.	295.71
3856	22.902	0.72727	0.	260.54
3857	23.085	0.72727	0.	226.57
3858	23.268	0.72727	0.	194.34
3859	23.451	0.72727	0.	164.63
3860	23.634	0.72727	0.	138.73
3861	23.817	0.72727	0.	118.71
3862	8.4496	0.54545	0.	1488.6
3863	8.6326	0.54545	0.	1558.6
3864	8.8155	0.54545	0.	1804.8
3865	8.9985	0.54545	0.	2072.6
3866	9.1814	0.54545	0.	2315.4
3867	9.3643	0.54545	0.	2518.2
3868	9.5473	0.54545	0.	2678.9
3869	9.7302	0.54545	0.	2800.8
3870	9.9132	0.54545	0.	2889.1
3871	10.096	0.54545	0.	2949.3
3872	10.279	0.54545	0.	2986.5
3873	10.462	0.54545	0.	3005.2
3874	10.645	0.54545	0.	3009.
3875	10.828	0.54545	0.	3001.
3876	11.011	0.54545	0.	2983.8
3877	11.194	0.54545	0.	2959.4
3878	11.377	0.54545	0.	2929.4
3879	11.56	0.54545	0.	2895.1
3880	11.743	0.54545	0.	2857.4
3881	11.926	0.54545	0.	2817.3
3882	12.109	0.54545	0.	2775.2
3883	12.291	0.54545	0.	2731.7
3884	12.474	0.54545	0.	2687.1
3885	12.657	0.54545	0.	2641.8
3886	12.84	0.54545	0.	2596.
3887	13.023	0.54545	0.	2549.8
3888	13.206	0.54545	0.	2503.3
3889	13.389	0.54545	0.	2456.8
3890	13.572	0.54545	0.	2410.2
3891	13.755	0.54545	0.	2363.5
3892	13.938	0.54545	0.	2317.
3893	14.121	0.54545	0.	2270.5
3894	14.304	0.54545	0.	2224.2
3895	14.487	0.54545	0.	2178.
3896	14.67	0.54545	0.	2131.9
3897	14.853	0.54545	0.	2086.
3898	15.036	0.54545	0.	2040.2
3899	15.219	0.54545	0.	1994.6
3900	15.402	0.54545	0.	1949.2
3901	15.584	0.54545	0.	1904.
3902	15.767	0.54545	0.	1859.
3903	15.95	0.54545	0.	1814.1
3904	16.133	0.54545	0.	1769.4
3905	16.316	0.54545	0.	1725.
3906	16.499	0.54545	0.	1680.7
3907	16.682	0.54545	0.	1636.6
3908	16.865	0.54545	0.	1592.6
3909	17.048	0.54545	0.	1548.9
3910	17.231	0.54545	0.	1505.4
3911	17.414	0.54545	0.	1462.
3912	17.597	0.54545	0.	1418.9
3913	17.78	0.54545	0.	1375.9
3914	17.963	0.54545	0.	1333.2
3915	18.146	0.54545	0.	1290.6
3916	18.329	0.54545	0.	1248.2
3917	18.512	0.54545	0.	1206.
3918	18.695	0.54545	0.	1164.
3919	18.878	0.54545	0.	1122.2
3920	19.06	0.54545	0.	1080.6
3921	19.243	0.54545	0.	1039.1
3922	19.426	0.54545	0.	997.86
3923	19.609	0.54545	0.	956.8
3924	19.792	0.54545	0.	915.91
3925	19.975	0.54545	0.	875.22
3926	20.158	0.54545	0.	834.7
3927	20.341	0.54545	0.	794.37
3928	20.524	0.54545	0.	754.23
3929	20.707	0.54545	0.	714.26
3930	20.89	0.54545	0.	674.48
3931	21.073	0.54545	0.	634.89
3932	21.256	0.54545	0.	595.48
3933	21.439	0.54545	0.	556.27
3934	21.622	0.54545	0.	517.27
3935	21.805	0.54545	0.	478.49
3936	21.988	0.54545	0.	439.94
3937	22.171	0.54545	0.	401.67
3938	22.353	0.54545	0.	363.72
3939	22.536	0.54545	0.	326.16
3940	22.719	0.54545	0.	289.1
3941	22.902	0.54545	0.	252.71
3942	23.085	0.54545	0.	217.28
3943	23.268	0.54545	0.	183.29
3944	23.451	0.54545	0.	151.58
3945	23.634	0.54545	0.	123.69
3946	23.817	0.54545	0.	102.21
3947	8.4496	0.36364	0.	1064.1
3948	8.6326	0.36364	0.	1260.2
3949	8.8155	0.36364	0.	1584.2
3950	8.9985	0.36364	0.	1899.5
3951	9.1814	0.36364	0.	2174.4
3952	9.3643	0.36364	0.	2401.9
3953	9.5473	0.36364	0.	2583.1
3954	9.7302	0.36364	0.	2722.6
3955	9.9132	0.36364	0.	2826.
3956	10.096	0.36364	0.	2899.2
3957	10.279	0.36364	0.	2947.3
3958	10.462	0.36364	0.	2975.
3959	10.645	0.36364	0.	2986.4
3960	10.828	0.36364	0.	2984.6
3961	11.011	0.36364	0.	2972.5
3962	11.194	0.36364	0.	2952.1
3963	11.377	0.36364	0.	2925.4
3964	11.56	0.36364	0.	2893.6
3965	11.743	0.36364	0.	2857.9
3966	11.926	0.36364	0.	2819.2
3967	12.109	0.36364	0.	2778.3
3968	12.291	0.36364	0.	2735.6
3969	12.474	0.36364	0.	2691.6
3970	12.657	0.36364	0.	2646.7
3971	12.84	0.36364	0.	2601.1
3972	13.023	0.36364	0.	2555.1
3973	13.206	0.36364	0.	2508.7
3974	13.389	0.36364	0.	2462.1
3975	13.572	0.36364	0.	2415.4
3976	13.755	0.36364	0.	2368.7
3977	13.938	0.36364	0.	2322.
3978	14.121	0.36364	0.	2275.3
3979	14.304	0.36364	0.	2228.8
3980	14.487	0.36364	0.	2182.4
3981	14.67	0.36364	0.	2136.2
3982	14.853	0.36364	0.	2090.1
3983	15.036	0.36364	0.	2044.1
3984	15.219	0.36364	0.	1998.4
3985	15.402	0.36364	0.	1952.8
3986	15.584	0.36364	0.	1907.4
3987	15.767	0.36364	0.	1862.3
3988	15.95	0.36364	0.	1817.3
3989	16.133	0.36364	0.	1772.5
3990	16.316	0.36364	0.	1727.8
3991	16.499	0.36364	0.	1683.4
3992	16.682	0.36364	0.	1639.2
3993	16.865	0.36364	0.	1595.2
3994	17.048	0.36364	0.	1551.4
3995	17.231	0.36364	0.	1507.7
3996	17.414	0.36364	0.	1464.3
3997	17.597	0.36364	0.	1421.
3998	17.78	0.36364	0.	1378.
3999	17.963	0.36364	0.	1335.1
4000	18.146	0.36364	0.	1292.4
4001	18.329	0.36364	0.	1250.
4002	18.512	0.36364	0.	1207.7
4003	18.695	0.36364	0.	1165.6
4004	18.878	0.36364	0.	1123.6
4005	19.06	0.36364	0.	1081.9
4006	19.243	0.36364	0.	1040.3
4007	19.426	0.36364	0.	998.97
4008	19.609	0.36364	0.	957.77
4009	19.792	0.36364	0.	916.75
4010	19.975	0.36364	0.	875.89
4011	20.158	0.36364	0.	835.21
4012	20.341	0.36364	0.	794.7
4013	20.524	0.36364	0.	754.35
4014	20.707	0.36364	0.	714.16
4015	20.89	0.36364	0.	674.14
4016	21.073	0.36364	0.	634.28
4017	21.256	0.36364	0.	594.57
4018	21.439	0.36364	0.	555.03
4019	21.622	0.36364	0.	515.64
4020	21.805	0.36364	0.	476.43
4021	21.988	0.36364	0.	437.39
4022	22.171	0.36364	0.	398.55
4023	22.353	0.36364	0.	359.92
4024	22.536	0.36364	0.	321.55
4025	22.719	0.36364	0.	283.5
4026	22.902	0.36364	0.	245.88
4027	23.085	0.36364	0.	208.87
4028	23.268	0.36364	0.	172.81
4029	23.451	0.36364	0.	138.39
4030	23.634	0.36364	0.	107.2
4031	23.817	0.36364	0.	82.885
4032	8.4496	0.18182	0.	728.41
4033	8.6326	0.18182	0.	1088.1
4034	8.8155	0.18182	0.	1465.4
4035	8.9985	0.18182	0.	1801.3
4036	9.1814	0.18182	0.	2087.6
4037	9.3643	0.18182	0.	2324.4
4038	9.5473	0.18182	0.	2515.
4039	9.7302	0.18182	0.	2664.
4040	9.9132	0.18182	0.	2776.8
4041	10.096	0.18182	0.	2858.8
4042	10.279	0.18182	0.	2915.
4043	10.462	0.18182	0.	2949.8
4044	10.645	0.18182	0.	2967.4
4045	10.828	0.18182	0.	2970.9
4046	11.011	0.18182	0.	2963.2
4047	11.194	0.18182	0.	2946.5
4048	11.377	0.18182	0.	2922.7
4049	11.56	0.18182	0.	2893.3
4050	11.743	0.18182	0.	2859.5
4051	11.926	0.18182	0.	2822.3
4052	12.109	0.18182	0.	2782.5
4053	12.291	0.18182	0.	2740.7
4054	12.474	0.18182	0.	2697.4
4055	12.657	0.18182	0.	2652.9
4056	12.84	0.18182	0.	2607.7
4057	13.023	0.18182	0.	2561.8
4058	13.206	0.18182	0.	2515.5
4059	13.389	0.18182	0.	2469.
4060	13.572	0.18182	0.	2422.3
4061	13.755	0.18182	0.	2375.5
4062	13.938	0.18182	0.	2328.7
4063	14.121	0.18182	0.	2282.
4064	14.304	0.18182	0.	2235.4
4065	14.487	0.18182	0.	2188.9
4066	14.67	0.18182	0.	2142.5
4067	14.853	0.18182	0.	2096.4
4068	15.036	0.18182	0.	2050.3
4069	15.219	0.18182	0.	2004.5
4070	15.402	0.18182	0.	1958.8
4071	15.584	0.18182	0.	1913.4
4072	15.767	0.18182	0.	1868.1
4073	15.95	0.18182	0.	1823.
4074	16.133	0.18182	0.	1778.2
4075	16.316	0.18182	0.	1733.5
4076	16.499	0.18182	0.	1689.
4077	16.682	0.18182	0.	1644.8
4078	16.865	0.18182	0.	1600.7
4079	17.048	0.18182	0.	1556.8
4080	17.231	0.18182	0.	1513.2
4081	17.414	0.18182	0.	1469.7
4082	17.597	0.18182	0.	1426.4
4083	17.78	0.18182	0.	1383.3
4084	17.963	0.18182	0.	1340.4
4085	18.146	0.18182	0.	1297.7
4086	18.329	0.18182	0.	1255.2
4087	18.512	0.18182	0.	1212.9
4088	18.695	0.18182	0.	1170.8
4089	18.878	0.18182	0.	1128.8
4090	19.06	0.18182	0.	1087.
4091	19.243	0.18182	0.	1045.4
4092	19.426	0.18182	0.	1004.
4093	19.609	0.18182	0.	962.74
4094	19.792	0.18182	0.	921.64
4095	19.975	0.18182	0.	880.71
4096	20.158	0.18182	0.	839.93
4097	20.341	0.18182	0.	799.31
4098	20.524	0.18182	0.	758.83
4099	20.707	0.18182	0.	718.49
4100	20.89	0.18182	0.	678.3
4101	21.073	0.18182	0.	638.23
4102	21.256	0.18182	0.	598.3
4103	21.439	0.18182	0.	558.48
4104	21.622	0.18182	0.	518.79
4105	21.805	0.18182	0.	479.21
4106	21.988	0.18182	0.	439.75
4107	22.171	0.18182	0.	400.4
4108	22.353	0.18182	0.	361.16
4109	22.536	0.18182	0.	322.05
4110	22.719	0.18182	0.	283.08
4111	22.902	0.18182	0.	244.28
4112	23.085	0.18182	0.	205.7
4113	23.268	0.18182	0.	167.44
4114	23.451	0.18182	0.	129.73
4115	23.634	0.18182	0.	93.253
4116	23.817	0.18182	0.	61.344
4117	23.817	0.18182	0.1	61.344
4118	23.634	0.18182	0.1	93.253
4119	23.451	0.18182	0.1	129.73
4120	23.268	0.18182	0.1	167.44
4121	23.085	0.18182	0.1	205.7
4122	22.902	0.18182	0.1	244.28
4123	22.719	0.18182	0.1	283.08
4124	22.536	0.18182	0.1	322.05
4125	22.353	0.18182	0.1	361.16
4126	22.171	0.18182	0.1	400.4
4127	21.988	0.18182	0.1	439.75
4128	21.805	0.18182	0.1	479.21
4129	21.622	0.18182	0.1	518.79
4130	21.439	0.18182	0.1	558.48
4131	21.256	0.18182	0.1	598.3
4132	21.073	0.18182	0.1	638.23
4133	20.89	0.18182	0.1	678.3
4134	20.707	0.18182	0.1	718.49
4135	20.524	0.18182	0.1	758.83
4136	20.341	0.18182	0.1	799.31
4137	20.158	0.18182	0.1	839.93
4138	19.975	0.18182	0.1	880.71
4139	19.792	0.18182	0.1	921.64
4140	19.609	0.18182	0.1	962.74
4141	19.426	0.18182	0.1	1004.
4142	19.243	0.18182	0.1	1045.4
4143	19.06	0.18182	0.1	1087.
4144	18.878	0.18182	0.1	1128.8
4145	18.695	0.18182	0.1	1170.8
4146	18.512	0.18182	0.1	1212.9
4147	18.329	0.18182	0.1	1255.2
4148	18.146	0.18182	0.1	1297.7
4149	17.963	0.18182	0.1	1340.4
4150	17.78	0.18182	0.1	1383.3
4151	17.597	0.18182	0.1	1426.4
4152	17.414	0.18182	0.1	1469.7
4153	17.231	0.18182	0.1	1513.2
4154	17.048	0.18182	0.1	1556.8
4155	16.865	0.18182	0.1	1600.7
4156	16.682	0.18182	0.1	1644.8
4157	16.499	0.18182	0.1	1689.
4158	16.316	0.18182	0.1	1733.5
4159	16.133	0.18182	0.1	1778.2
4160	15.95	0.18182	0.1	1823.
4161	15.767	0.18182	0.1	1868.1
4162	15.584	0.18182	0.1	1913.4
4163	15.402	0.18182	0.1	1958.8
4164	15.219	0.18182	0.1	2004.5
4165	15.036	0.18182	0.1	2050.3
4166	14.853	0.18182	0.1	2096.4
4167	14.67	0.18182	0.1	2142.5
4168	14.487	0.18182	0.1	2188.9
4169	14.304	0.18182	0.1	2235.4
4170	14.121	0.18182	0.1	2282.
4171	13.938	0.18182	0.1	2328.7
4172	13.755	0.18182	0.1	2375.5
4173	13.572	0.18182	0.1	2422.3
4174	13.389	0.18182	0.1	2469.
4175	13.206	0.18182	0.1	2515.5
4176	13.023	0.18182	0.1	2561.8
4177	12.84	0.18182	0.1	2607.7
4178	12.657	0.18182	0.1	2652.9
4179	12.474	0.18182	0.1	2697.4
4180	12.291	0.18182	0.1	2740.7
4181	12.109	0.18182	0.1	2782.5
4182	11.926	0.18182	0.1	2822.3
4183	11.743	0.18182	0.1	2859.5
4184	11.56	0.18182	0.1	2893.3
4185	11.377	0.18182	0.1	2922.7
4186	11.194	0.18182	0.1	2946.5
4187	11.011	0.18182	0.1	2963.2
4188	10.828	0.18182	0.1	2970.9
4189	10.645	0.18182	0.1	2967.4
4190	10.462	0.18182	0.1	2949.8
4191	10.279	0.18182	0.1	2915.
4192	10.096	0.18182	0.1	2858.8
4193	9.9132	0.18182	0.1	2776.8
4194	9.7302	0.18182	0.1	2664.
4195	9.5473	0.18182	0.1	2515.
4196	9.3643	0.18182	0.1	2324.4
4197	9.1814	0.18182	0.1	2087.6
4198	8.9985	0.18182	0.1	1801.3
4199	8.8155	0.18182	0.1	1465.4
4200	8.6326	0.18182	0.1	1088.1
4201	8.4496	0.18182	0.1	728.41
4202	23.817	0.36364	0.1	82.885
4203	23.634	0.36364	0.1	107.2
4204	23.451	0.36364	0.1	138.39
4205	23.268	0.36364	0.1	172.81
4206	23.085	0.36364	0.1	208.87
4207	22.902	0.36364	0.1	245.88
4208	22.719	0.36364	0.1	283.5
4209	22.536	0.36364	0.1	321.55
4210	22.353	0.36364	0.1	359.92
4211	22.171	0.36364	0.1	398.55
4212	21.988	0.36364	0.1	437.39
4213	21.805	0.36364	0.1	476.43
4214	21.622	0.36364	0.1	515.64
4215	21.439	0.36364	0.1	555.03
4216	21.256	0.36364	0.1	594.57
4217	21.073	0.36364	0.1	634.28
4218	20.89	0.36364	0.1	674.14
4219	20.707	0.36364	0.1	714.16
4220	20.524	0.36364	0.1	754.35
4221	20.341	0.36364	0.1	794.7
4222	20.158	0.36364	0.1	835.21
4223	19.975	0.36364	0.1	875.89
4224	19.792	0.36364	0.1	916.75
4225	19.609	0.36364	0.1	957.77
4226	19.426	0.36364	0.1	998.97
4227	19.243	0.36364	0.1	1040.3
4228	19.06	0.36364	0.1	1081.9
4229	18.878	0.36364	0.1	1123.6
4230	18.695	0.36364	0.1	1165.6
4231	18.512	0.36364	0.1	1207.7
4232	18.329	0.36364	0.1	1250.
4233	18.146	0.36364	0.1	1292.4
4234	17.963	0.36364	0.1	1335.1
4235	17.78	0.36364	0.1	1378.
4236	17.597	0.36364	0.1	1421.
4237	17.414	0.36364	0.1	1464.3
4238	17.231	0.36364	0.1	1507.7
4239	17.048	0.36364	0.1	1551.4
4240	16.865	0.36364	0.1	1595.2
4241	16.682	0.36364	0.1	1639.2
4242	16.499	0.36364	0.1	1683.4
4243	16.316	0.36364	0.1	1727.8
4244	16.133	0.36364	0.1	1772.5
4245	15.95	0.36364	0.1	1817.3
4246	15.767	0.36364	0.1	1862.3
4247	15.584	0.36364	0.1	1907.4
4248	15.402	0.36364	0.1	1952.8
4249	15.219	0.36364	0.1	1998.4
4250	15.036	0.36364	0.1	2044.1
4251	14.853	0.36364	0.1	2090.1
4252	14.67	0.36364	0.1	2136.2
4253	14.487	0.36364	0.1	2182.4
4254	14.304	0.36364	0.1	2228.8
4255	14.121	0.36364	0.1	2275.3
4256	13.938	0.36364	0.1	2322.
4257	13.755	0.36364	0.1	2368.7
4258	13.572	0.36364	0.1	2415.4
4259	13.389	0.36364	0.1	2462.1
4260	13.206	0.36364	0.1	2508.7
4261	13.023	0.36364	0.1	2555.1
4262	12.84	0.36364	0.1	2601.1
4263	12.657	0.36364	0.1	2646.7
4264	12.474	0.36364	0.1	2691.6
4265	12.291	0.36364	0.1	2735.6
4266	12.109	0.36364	0.1	2778.3
4267	11.926	0.36364	0.1	2819.2
4268	11.743	0.36364	0.1	2857.9
4269	11.56	0.36364	0.1	2893.6
4270	11.377	0.36364	0.1	2925.4
4271	11.194	0.36364	0.1	2952.1
4272	11.011	0.36364	0.1	2972.5
4273	10.828	0.36364	0.1	2984.6
4274	10.645	0.36364	0.1	2986.4
4275	10.462	0.36364	0.1	2975.
4276	10.279	0.36364	0.1	2947.3
4277	10.096	0.36364	0.1	2899.2
4278	9.9132	0.36364	0.1	2826.
4279	9.7302	0.36364	0.1	2722.6
4280	9.5473	0.36364	0.1	2583.1
4281	9.3643	0.36364	0.1	2401.9
4282	9.1814	0.36364	0.1	2174.4
4283	8.9985	0.36364	0.1	1899.5
4284	8.8155	0.36364	0.1	1584.2
4285	8.6326	0.36364	0.1	1260.2
4286	8.4496	0.36364	0.1	1064.1
4287	23.817	0.54545	0.1	102.21
4288	23.634	0.54545	0.1	123.69
4289	23.451	0.54545	0.1	151.58
4290	23.268	0.54545	0.1	183.29
4291	23.085	0.54545	0.1	217.28
4292	22.902	0.54545	0.1	252.71
4293	22.719	0.54545	0.1	289.1
4294	22.536	0.54545	0.1	326.16
4295	22.353	0.54545	0.1	363.72
4296	22.171	0.54545	0.1	401.67
4297	21.988	0.54545	0.1	439.94
4298	21.805	0.54545	0.1	478.49
4299	21.622	0.54545	0.1	517.27
4300	21.439	0.54545	0.1	556.27
4301	21.256	0.54545	0.1	595.48
4302	21.073	0.54545	0.1	634.89
4303	20.89	0.54545	0.1	674.48
4304	20.707	0.54545	0.1	714.26
4305	20.524	0.54545	0.1	754.23
4306	20.341	0.54545	0.1	794.37
4307	20.158	0.54545	0.1	834.7
4308	19.975	0.54545	0.1	875.22
4309	19.792	0.54545	0.1	915.91
4310	19.609	0.54545	0.1	956.8
4311	19.426	0.54545	0.1	997.86
4312	19.243	0.54545	0.1	1039.1
4313	19.06	0.54545	0.1	1080.6
4314	18.878	0.54545	0.1	1122.2
4315	18.695	0.54545	0.1	1164.
4316	18.512	0.54545	0.1	1206.
4317	18.329	0.54545	0.1	1248.2
4318	18.146	0.54545	0.1	1290.6
4319	17.963	0.54545	0.1	1333.2
4320	17.78	0.54545	0.1	1375.9
4321	17.597	0.54545	0.1	1418.9
4322	17.414	0.54545	0.1	1462.
4323	17.231	0.54545	0.1	1505.4
4324	17.048	0.54545	0.1	1548.9
4325	16.865	0.54545	0.1	1592.6
4326	16.682	0.54545	0.1	1636.6
4327	16.499	0.54545	0.1	1680.7
4328	16.316	0.54545	0.1	1725.
4329	16.133	0.54545	0.1	1769.4
4330	15.95	0.54545	0.1	1814.1
4331	15.767	0.54545	0.1	1859.
4332	15.584	0.54545	0.1	1904.
4333	15.402	0.54545	0.1	1949.2
4334	15.219	0.54545	0.1	1994.6
4335	15.036	0.54545	0.1	2040.2
4336	14.853	0.54545	0.1	2086.
4337	14.67	0.54545	0.1	2131.9
4338	14.487	0.54545	0.1	2178.
4339	14.304	0.54545	0.1	2224.2
4340	14.121	0.54545	0.1	2270.5
4341	13.938	0.54545	0.1	2317.
4342	13.755	0.54545	0.1	2363.5
4343	13.572	0.54545	0.1	2410.2
4344	13.389	0.54545	0.1	2456.8
4345	13.206	0.54545	0.1	2503.3
4346	13.023	0.54545	0.1	2549.8
4347	12.84	0.54545	0.1	2596.
4348	12.657	0.54545	0.1	2641.8
4349	12.474	0.54545	0.1	2687.1
4350	12.291	0.54545	0.1	2731.7
4351	12.109	0.54545	0.1	2775.2
4352	11.926	0.54545	0.1	2817.3
4353	11.743	0.54545	0.1	2857.4
4354	11.56	0.54545	0.1	2895.1
4355	11.377	0.54545	0.1	2929.4
4356	11.194	0.54545	0.1	2959.4
4357	11.011	0.54545	0.1	2983.8
4358	10.828	0.54545	0.1	3001.
4359	10.645	0.54545	0.1	3009.
4360	10.462	0.54545	0.1	3005.2
4361	10.279	0.54545	0.1	2986.5
4362	10.096	0.54545	0.1	2949.3
4363	9.9132	0.54545	0.1	2889.1
4364	9.7302	0.54545	0.1	2800.8
4365	9.5473	0.54545	0.1	2678.9
4366	9.3643	0.54545	0.1	2518.2
4367	9.1814	0.54545	0.1	2315.4
4368	8.9985	0.54545	0.1	2072.6
4369	8.8155	0.54545	0.1	1804.8
4370	8.6326	0.54545	0.1	1558.6
4371	8.4496	0.54545	0.1	1488.6
4372	23.817	0.72727	0.1	118.71
4373	23.634	0.72727	0.1	138.73
4374	23.451	0.72727	0.1	164.63
4375	23.268	0.72727	0.1	194.34
4376	23.085	0.72727	0.1	226.57
4377	22.902	0.72727	0.1	260.54
4378	22.719	0.72727	0.1	295.71
4379	22.536	0.72727	0.1	331.76
4380	22.353	0.72727	0.1	368.47
4381	22.171	0.72727	0.1	405.69
4382	21.988	0.72727	0.1	443.34
4383	21.805	0.72727	0.1	481.34
4384	21.622	0.72727	0.1	519.65
4385	21.439	0.72727	0.1	558.24
4386	21.256	0.72727	0.1	597.07
4387	21.073	0.72727	0.1	636.15
4388	20.89	0.72727	0.1	675.44
4389	20.707	0.72727	0.1	714.95
4390	20.524	0.72727	0.1	754.67
4391	20.341	0.72727	0.1	794.6
4392	20.158	0.72727	0.1	834.72
4393	19.975	0.72727	0.1	875.05
4394	19.792	0.72727	0.1	915.57
4395	19.609	0.72727	0.1	956.3
4396	19.426	0.72727	0.1	997.21
4397	19.243	0.72727	0.1	1038.3
4398	19.06	0.72727	0.1	1079.6
4399	18.878	0.72727	0.1	1121.1
4400	18.695	0.72727	0.1	1162.8
4401	18.512	0.72727	0.1	1204.7
4402	18.329	0.72727	0.1	1246.8
4403	18.146	0.72727	0.1	1289.1
4404	17.963	0.72727	0.1	1331.6
4405	17.78	0.72727	0.1	1374.3
4406	17.597	0.72727	0.1	1417.1
4407	17.414	0.72727	0.1	1460.2
4408	17.231	0.72727	0.1	1503.4
4409	17.048	0.72727	0.1	1546.8
4410	16.865	0.72727	0.1	1590.4
4411	16.682	0.72727	0.1	1634.2
4412	16.499	0.72727	0.1	1678.2
4413	16.316	0.72727	0.1	1722.4
4414	16.133	0.72727	0.1	1766.8
4415	15.95	0.72727	0.1	1811.3
4416	15.767	0.72727	0.1	1856.
4417	15.584	0.72727	0.1	1900.9
4418	15.402	0.72727	0.1	1946.
4419	15.219	0.72727	0.1	1991.2
4420	15.036	0.72727	0.1	2036.6
4421	14.853	0.72727	0.1	2082.2
4422	14.67	0.72727	0.1	2127.9
4423	14.487	0.72727	0.1	2173.8
4424	14.304	0.72727	0.1	2219.8
4425	14.121	0.72727	0.1	2266.
4426	13.938	0.72727	0.1	2312.3
4427	13.755	0.72727	0.1	2358.7
4428	13.572	0.72727	0.1	2405.1
4429	13.389	0.72727	0.1	2451.6
4430	13.206	0.72727	0.1	2498.1
4431	13.023	0.72727	0.1	2544.6
4432	12.84	0.72727	0.1	2590.9
4433	12.657	0.72727	0.1	2636.9
4434	12.474	0.72727	0.1	2682.6
4435	12.291	0.72727	0.1	2727.7
4436	12.109	0.72727	0.1	2772.
4437	11.926	0.72727	0.1	2815.3
4438	11.743	0.72727	0.1	2857.
4439	11.56	0.72727	0.1	2896.6
4440	11.377	0.72727	0.1	2933.6
4441	11.194	0.72727	0.1	2967.1
4442	11.011	0.72727	0.1	2995.9
4443	10.828	0.72727	0.1	3018.6
4444	10.645	0.72727	0.1	3033.5
4445	10.462	0.72727	0.1	3038.5
4446	10.279	0.72727	0.1	3030.7
4447	10.096	0.72727	0.1	3007.
4448	9.9132	0.72727	0.1	2963.5
4449	9.7302	0.72727	0.1	2895.7
4450	9.5473	0.72727	0.1	2799.1
4451	9.3643	0.72727	0.1	2669.4
4452	9.1814	0.72727	0.1	2505.2
4453	8.9985	0.72727	0.1	2311.2
4454	8.8155	0.72727	0.1	2106.3
4455	8.6326	0.72727	0.1	1938.8
4456	8.4496	0.72727	0.1	1967.7
4457	23.817	0.90909	0.1	132.9
4458	23.634	0.90909	0.1	152.05
4459	23.451	0.90909	0.1	176.66
4460	23.268	0.90909	0.1	204.95
4461	23.085	0.90909	0.1	235.82
4462	22.902	0.90909	0.1	268.55
4463	22.719	0.90909	0.1	302.63
4464	22.536	0.90909	0.1	337.73
4465	22.353	0.90909	0.1	373.61
4466	22.171	0.90909	0.1	410.12
4467	21.988	0.90909	0.1	447.14
4468	21.805	0.90909	0.1	484.59
4469	21.622	0.90909	0.1	522.41
4470	21.439	0.90909	0.1	560.56
4471	21.256	0.90909	0.1	599.01
4472	21.073	0.90909	0.1	637.73
4473	20.89	0.90909	0.1	676.71
4474	20.707	0.90909	0.1	715.94
4475	20.524	0.90909	0.1	755.4
4476	20.341	0.90909	0.1	795.09
4477	20.158	0.90909	0.1	835.
4478	19.975	0.90909	0.1	875.13
4479	19.792	0.90909	0.1	915.48
4480	19.609	0.90909	0.1	956.03
4481	19.426	0.90909	0.1	996.8
4482	19.243	0.90909	0.1	1037.8
4483	19.06	0.90909	0.1	1078.9
4484	18.878	0.90909	0.1	1120.3
4485	18.695	0.90909	0.1	1161.9
4486	18.512	0.90909	0.1	1203.7
4487	18.329	0.90909	0.1	1245.7
4488	18.146	0.90909	0.1	1287.8
4489	17.963	0.90909	0.1	1330.2
4490	17.78	0.90909	0.1	1372.8
4491	17.597	0.90909	0.1	1415.5
4492	17.414	0.90909	0.1	1458.5
4493	17.231	0.90909	0.1	1501.6
4494	17.048	0.90909	0.1	1544.9
4495	16.865	0.90909	0.1	1588.4
4496	16.682	0.90909	0.1	1632.1
4497	16.499	0.90909	0.1	1676.
4498	16.316	0.90909	0.1	1720.
4499	16.133	0.90909	0.1	1764.3
4500	15.95	0.90909	0.1	1808.6
4501	15.767	0.90909	0.1	1853.2
4502	15.584	0.90909	0.1	1898.
4503	15.402	0.90909	0.1	1942.9
4504	15.219	0.90909	0.1	1987.9
4505	15.036	0.90909	0.1	2033.2
4506	14.853	0.90909	0.1	2078.6
4507	14.67	0.90909	0.1	2124.1
4508	14.487	0.90909	0.1	2169.8
4509	14.304	0.90909	0.1	2215.6
4510	14.121	0.90909	0.1	2261.6
4511	13.938	0.90909	0.1	2307.7
4512	13.755	0.90909	0.1	2353.9
4513	13.572	0.90909	0.1	2400.2
4514	13.389	0.90909	0.1	2446.6
4515	13.206	0.90909	0.1	2493.
4516	13.023	0.90909	0.1	2539.4
4517	12.84	0.90909	0.1	2585.8
4518	12.657	0.90909	0.1	2632.
4519	12.474	0.90909	0.1	2678.
4520	12.291	0.90909	0.1	2723.6
4521	12.109	0.90909	0.1	2768.7
4522	11.926	0.90909	0.1	2813.1
4523	11.743	0.90909	0.1	2856.3
4524	11.56	0.90909	0.1	2898.
4525	11.377	0.90909	0.1	2937.8
4526	11.194	0.90909	0.1	2974.8
4527	11.011	0.90909	0.1	3008.2
4528	10.828	0.90909	0.1	3037.
4529	10.645	0.90909	0.1	3059.7
4530	10.462	0.90909	0.1	3074.5
4531	10.279	0.90909	0.1	3079.3
4532	10.096	0.90909	0.1	3071.6
4533	9.9132	0.90909	0.1	3048.4
4534	9.7302	0.90909	0.1	3006.3
4535	9.5473	0.90909	0.1	2942.2
4536	9.3643	0.90909	0.1	2853.8
4537	9.1814	0.90909	0.1	2741.1
4538	8.9985	0.90909	0.1	2610.6
4539	8.8155	0.90909	0.1	2480.4
4540	8.6326	0.90909	0.1	2393.
4541	8.4496	0.90909	0.1	2516.3
4542	23.817	1.0909	0.1	145.18
4543	23.634	1.0909	0.1	163.75
4544	23.451	1.0909	0.1	187.47
4545	23.268	1.0909	0.1	214.75
4546	23.085	1.0909	0.1	244.58
4547	22.902	1.0909	0.1	276.31
4548	22.719	1.0909	0.1	309.47
4549	22.536	1.0909	0.1	343.74
4550	22.353	1.0909	0.1	378.87
4551	22.171	1.0909	0.1	414.71
4552	21.988	1.0909	0.1	451.13
4553	21.805	1.0909	0.1	488.04
4554	21.622	1.0909	0.1	525.38
4555	21.439	1.0909	0.1	563.1
4556	21.256	1.0909	0.1	601.16
4557	21.073	1.0909	0.1	639.53
4558	20.89	1.0909	0.1	678.19
4559	20.707	1.0909	0.1	717.13
4560	20.524	1.0909	0.1	756.33
4561	20.341	1.0909	0.1	795.78
4562	20.158	1.0909	0.1	835.47
4563	19.975	1.0909	0.1	875.4
4564	19.792	1.0909	0.1	915.56
4565	19.609	1.0909	0.1	955.95
4566	19.426	1.0909	0.1	996.56
4567	19.243	1.0909	0.1	1037.4
4568	19.06	1.0909	0.1	1078.4
4569	18.878	1.0909	0.1	1119.7
4570	18.695	1.0909	0.1	1161.1
4571	18.512	1.0909	0.1	1202.8
4572	18.329	1.0909	0.1	1244.7
4573	18.146	1.0909	0.1	1286.7
4574	17.963	1.0909	0.1	1329.
4575	17.78	1.0909	0.1	1371.5
4576	17.597	1.0909	0.1	1414.1
4577	17.414	1.0909	0.1	1456.9
4578	17.231	1.0909	0.1	1500.
4579	17.048	1.0909	0.1	1543.2
4580	16.865	1.0909	0.1	1586.6
4581	16.682	1.0909	0.1	1630.2
4582	16.499	1.0909	0.1	1673.9
4583	16.316	1.0909	0.1	1717.8
4584	16.133	1.0909	0.1	1761.9
4585	15.95	1.0909	0.1	1806.2
4586	15.767	1.0909	0.1	1850.6
4587	15.584	1.0909	0.1	1895.2
4588	15.402	1.0909	0.1	1940.
4589	15.219	1.0909	0.1	1984.9
4590	15.036	1.0909	0.1	2029.9
4591	14.853	1.0909	0.1	2075.1
4592	14.67	1.0909	0.1	2120.5
4593	14.487	1.0909	0.1	2166.
4594	14.304	1.0909	0.1	2211.6
4595	14.121	1.0909	0.1	2257.4
4596	13.938	1.0909	0.1	2303.3
4597	13.755	1.0909	0.1	2349.3
4598	13.572	1.0909	0.1	2395.4
4599	13.389	1.0909	0.1	2441.6
4600	13.206	1.0909	0.1	2487.9
4601	13.023	1.0909	0.1	2534.3
4602	12.84	1.0909	0.1	2580.7
4603	12.657	1.0909	0.1	2627.
4604	12.474	1.0909	0.1	2673.3
4605	12.291	1.0909	0.1	2719.4
4606	12.109	1.0909	0.1	2765.2
4607	11.926	1.0909	0.1	2810.6
4608	11.743	1.0909	0.1	2855.3
4609	11.56	1.0909	0.1	2899.1
4610	11.377	1.0909	0.1	2941.6
4611	11.194	1.0909	0.1	2982.4
4612	11.011	1.0909	0.1	3020.7
4613	10.828	1.0909	0.1	3055.9
4614	10.645	1.0909	0.1	3086.9
4615	10.462	1.0909	0.1	3112.5
4616	10.279	1.0909	0.1	3131.3
4617	10.096	1.0909	0.1	3141.7
4618	9.9132	1.0909	0.1	3141.8
4619	9.7302	1.0909	0.1	3129.8
4620	9.5473	1.0909	0.1	3104.7
4621	9.3643	1.0909	0.1	3066.3
4622	9.1814	1.0909	0.1	3017.2
4623	8.9985	1.0909	0.1	2965.1
4624	8.8155	1.0909	0.1	2925.5
4625	8.6326	1.0909	0.1	2931.7
4626	8.4496	1.0909	0.1	3165.4
4627	23.817	1.2727	0.1	155.84
4628	23.634	1.2727	0.1	174.
4629	23.451	1.2727	0.1	197.06
4630	23.268	1.2727	0.1	223.59
4631	23.085	1.2727	0.1	252.64
4632	22.902	1.2727	0.1	283.59
4633	22.719	1.2727	0.1	315.99
4634	22.536	1.2727	0.1	349.55
4635	22.353	1.2727	0.1	384.03
4636	22.171	1.2727	0.1	419.26
4637	21.988	1.2727	0.1	455.13
4638	21.805	1.2727	0.1	491.54
4639	21.622	1.2727	0.1	528.43
4640	21.439	1.2727	0.1	565.73
4641	21.256	1.2727	0.1	603.41
4642	21.073	1.2727	0.1	641.44
4643	20.89	1.2727	0.1	679.8
4644	20.707	1.2727	0.1	718.45
4645	20.524	1.2727	0.1	757.39
4646	20.341	1.2727	0.1	796.6
4647	20.158	1.2727	0.1	836.08
4648	19.975	1.2727	0.1	875.81
4649	19.792	1.2727	0.1	915.79
4650	19.609	1.2727	0.1	956.01
4651	19.426	1.2727	0.1	996.46
4652	19.243	1.2727	0.1	1037.1
4653	19.06	1.2727	0.1	1078.
4654	18.878	1.2727	0.1	1119.2
4655	18.695	1.2727	0.1	1160.5
4656	18.512	1.2727	0.1	1202.1
4657	18.329	1.2727	0.1	1243.8
4658	18.146	1.2727	0.1	1285.8
4659	17.963	1.2727	0.1	1327.9
4660	17.78	1.2727	0.1	1370.3
4661	17.597	1.2727	0.1	1412.8
4662	17.414	1.2727	0.1	1455.6
4663	17.231	1.2727	0.1	1498.5
4664	17.048	1.2727	0.1	1541.6
4665	16.865	1.2727	0.1	1584.9
4666	16.682	1.2727	0.1	1628.4
4667	16.499	1.2727	0.1	1672.
4668	16.316	1.2727	0.1	1715.8
4669	16.133	1.2727	0.1	1759.8
4670	15.95	1.2727	0.1	1803.9
4671	15.767	1.2727	0.1	1848.2
4672	15.584	1.2727	0.1	1892.7
4673	15.402	1.2727	0.1	1937.3
4674	15.219	1.2727	0.1	1982.
4675	15.036	1.2727	0.1	2026.9
4676	14.853	1.2727	0.1	2071.9
4677	14.67	1.2727	0.1	2117.1
4678	14.487	1.2727	0.1	2162.4
4679	14.304	1.2727	0.1	2207.8
4680	14.121	1.2727	0.1	2253.4
4681	13.938	1.2727	0.1	2299.1
4682	13.755	1.2727	0.1	2344.9
4683	13.572	1.2727	0.1	2390.8
4684	13.389	1.2727	0.1	2436.8
4685	13.206	1.2727	0.1	2483.
4686	13.023	1.2727	0.1	2529.3
4687	12.84	1.2727	0.1	2575.6
4688	12.657	1.2727	0.1	2622.1
4689	12.474	1.2727	0.1	2668.6
4690	12.291	1.2727	0.1	2715.1
4691	12.109	1.2727	0.1	2761.6
4692	11.926	1.2727	0.1	2807.9
4693	11.743	1.2727	0.1	2854.1
4694	11.56	1.2727	0.1	2899.9
4695	11.377	1.2727	0.1	2945.2
4696	11.194	1.2727	0.1	2989.7
4697	11.011	1.2727	0.1	3033.1
4698	10.828	1.2727	0.1	3075.
4699	10.645	1.2727	0.1	3114.7
4700	10.462	1.2727	0.1	3151.8
4701	10.279	1.2727	0.1	3185.7
4702	10.096	1.2727	0.1	3215.5
4703	9.9132	1.2727	0.1	3241.1
4704	9.7302	1.2727	0.1	3262.5
4705	9.5473	1.2727	0.1	3280.8
4706	9.3643	1.2727	0.1	3299.3
4707	9.1814	1.2727	0.1	3324.4
4708	8.9985	1.2727	0.1	3366.9
4709	8.8155	1.2727	0.1	3442.7
4710	8.6326	1.2727	0.1	3580.2
4711	8.4496	1.2727	0.1	3969.7
4712	23.817	1.4545	0.1	165.08
4713	23.634	1.4545	0.1	182.92
4714	23.451	1.4545	0.1	205.49
4715	23.268	1.4545	0.1	231.44
4716	23.085	1.4545	0.1	259.89
4717	22.902	1.4545	0.1	290.22
4718	22.719	1.4545	0.1	322.02
4719	22.536	1.4545	0.1	354.99
4720	22.353	1.4545	0.1	388.91
4721	22.171	1.4545	0.1	423.62
4722	21.988	1.4545	0.1	459.
4723	21.805	1.4545	0.1	494.96
4724	21.622	1.4545	0.1	531.43
4725	21.439	1.4545	0.1	568.35
4726	21.256	1.4545	0.1	605.68
4727	21.073	1.4545	0.1	643.39
4728	20.89	1.4545	0.1	681.44
4729	20.707	1.4545	0.1	719.83
4730	20.524	1.4545	0.1	758.52
4731	20.341	1.4545	0.1	797.51
4732	20.158	1.4545	0.1	836.78
4733	19.975	1.4545	0.1	876.32
4734	19.792	1.4545	0.1	916.12
4735	19.609	1.4545	0.1	956.17
4736	19.426	1.4545	0.1	996.47
4737	19.243	1.4545	0.1	1037.
4738	19.06	1.4545	0.1	1077.8
4739	18.878	1.4545	0.1	1118.8
4740	18.695	1.4545	0.1	1160.
4741	18.512	1.4545	0.1	1201.4
4742	18.329	1.4545	0.1	1243.1
4743	18.146	1.4545	0.1	1285.
4744	17.963	1.4545	0.1	1327.
4745	17.78	1.4545	0.1	1369.3
4746	17.597	1.4545	0.1	1411.7
4747	17.414	1.4545	0.1	1454.4
4748	17.231	1.4545	0.1	1497.2
4749	17.048	1.4545	0.1	1540.2
4750	16.865	1.4545	0.1	1583.4
4751	16.682	1.4545	0.1	1626.8
4752	16.499	1.4545	0.1	1670.3
4753	16.316	1.4545	0.1	1714.
4754	16.133	1.4545	0.1	1757.9
4755	15.95	1.4545	0.1	1801.9
4756	15.767	1.4545	0.1	1846.
4757	15.584	1.4545	0.1	1890.3
4758	15.402	1.4545	0.1	1934.8
4759	15.219	1.4545	0.1	1979.4
4760	15.036	1.4545	0.1	2024.1
4761	14.853	1.4545	0.1	2068.9
4762	14.67	1.4545	0.1	2113.9
4763	14.487	1.4545	0.1	2159.
4764	14.304	1.4545	0.1	2204.3
4765	14.121	1.4545	0.1	2249.6
4766	13.938	1.4545	0.1	2295.1
4767	13.755	1.4545	0.1	2340.7
4768	13.572	1.4545	0.1	2386.4
4769	13.389	1.4545	0.1	2432.2
4770	13.206	1.4545	0.1	2478.2
4771	13.023	1.4545	0.1	2524.4
4772	12.84	1.4545	0.1	2570.7
4773	12.657	1.4545	0.1	2617.2
4774	12.474	1.4545	0.1	2663.8
4775	12.291	1.4545	0.1	2710.7
4776	12.109	1.4545	0.1	2757.8
4777	11.926	1.4545	0.1	2805.1
4778	11.743	1.4545	0.1	2852.7
4779	11.56	1.4545	0.1	2900.5
4780	11.377	1.4545	0.1	2948.5
4781	11.194	1.4545	0.1	2996.8
4782	11.011	1.4545	0.1	3045.2
4783	10.828	1.4545	0.1	3093.9
4784	10.645	1.4545	0.1	3142.6
4785	10.462	1.4545	0.1	3191.6
4786	10.279	1.4545	0.1	3241.
4787	10.096	1.4545	0.1	3291.3
4788	9.9132	1.4545	0.1	3343.6
4789	9.7302	1.4545	0.1	3399.9
4790	9.5473	1.4545	0.1	3464.3
4791	9.3643	1.4545	0.1	3543.7
4792	9.1814	1.4545	0.1	3650.3
4793	8.9985	1.4545	0.1	3802.8
4794	8.8155	1.4545	0.1	4031.1
4795	8.6326	1.4545	0.1	4359.8
4796	8.4496	1.4545	0.1	5022.9
4797	23.817	1.6364	0.1	173.04
4798	23.634	1.6364	0.1	190.63
4799	23.451	1.6364	0.1	212.81
4800	23.268	1.6364	0.1	238.33
4801	23.085	1.6364	0.1	266.3
4802	22.902	1.6364	0.1	296.15
4803	22.719	1.6364	0.1	327.46
4804	22.536	1.6364	0.1	359.95
4805	22.353	1.6364	0.1	393.41
4806	22.171	1.6364	0.1	427.67
4807	21.988	1.6364	0.1	462.63
4808	21.805	1.6364	0.1	498.19
4809	21.622	1.6364	0.1	534.29
4810	21.439	1.6364	0.1	570.86
4811	21.256	1.6364	0.1	607.87
4812	21.073	1.6364	0.1	645.29
4813	20.89	1.6364	0.1	683.07
4814	20.707	1.6364	0.1	721.2
4815	20.524	1.6364	0.1	759.67
4816	20.341	1.6364	0.1	798.44
4817	20.158	1.6364	0.1	837.51
4818	19.975	1.6364	0.1	876.87
4819	19.792	1.6364	0.1	916.51
4820	19.609	1.6364	0.1	956.41
4821	19.426	1.6364	0.1	996.56
4822	19.243	1.6364	0.1	1037.
4823	19.06	1.6364	0.1	1077.6
4824	18.878	1.6364	0.1	1118.5
4825	18.695	1.6364	0.1	1159.6
4826	18.512	1.6364	0.1	1201.
4827	18.329	1.6364	0.1	1242.5
4828	18.146	1.6364	0.1	1284.3
4829	17.963	1.6364	0.1	1326.2
4830	17.78	1.6364	0.1	1368.4
4831	17.597	1.6364	0.1	1410.8
4832	17.414	1.6364	0.1	1453.3
4833	17.231	1.6364	0.1	1496.1
4834	17.048	1.6364	0.1	1539.
4835	16.865	1.6364	0.1	1582.1
4836	16.682	1.6364	0.1	1625.4
4837	16.499	1.6364	0.1	1668.8
4838	16.316	1.6364	0.1	1712.4
4839	16.133	1.6364	0.1	1756.1
4840	15.95	1.6364	0.1	1800.
4841	15.767	1.6364	0.1	1844.1
4842	15.584	1.6364	0.1	1888.2
4843	15.402	1.6364	0.1	1932.5
4844	15.219	1.6364	0.1	1977.
4845	15.036	1.6364	0.1	2021.5
4846	14.853	1.6364	0.1	2066.2
4847	14.67	1.6364	0.1	2111.
4848	14.487	1.6364	0.1	2155.9
4849	14.304	1.6364	0.1	2200.9
4850	14.121	1.6364	0.1	2246.1
4851	13.938	1.6364	0.1	2291.3
4852	13.755	1.6364	0.1	2336.7
4853	13.572	1.6364	0.1	2382.2
4854	13.389	1.6364	0.1	2427.9
4855	13.206	1.6364	0.1	2473.7
4856	13.023	1.6364	0.1	2519.7
4857	12.84	1.6364	0.1	2565.9
4858	12.657	1.6364	0.1	2612.4
4859	12.474	1.6364	0.1	2659.2
4860	12.291	1.6364	0.1	2706.4
4861	12.109	1.6364	0.1	2754.
4862	11.926	1.6364	0.1	2802.2
4863	11.743	1.6364	0.1	2851.
4864	11.56	1.6364	0.1	2900.7
4865	11.377	1.6364	0.1	2951.4
4866	11.194	1.6364	0.1	3003.4
4867	11.011	1.6364	0.1	3056.9
4868	10.828	1.6364	0.1	3112.3
4869	10.645	1.6364	0.1	3170.1
4870	10.462	1.6364	0.1	3231.1
4871	10.279	1.6364	0.1	3296.3
4872	10.096	1.6364	0.1	3367.3
4873	9.9132	1.6364	0.1	3446.7
4874	9.7302	1.6364	0.1	3538.5
4875	9.5473	1.6364	0.1	3649.4
4876	9.3643	1.6364	0.1	3790.7
4877	9.1814	1.6364	0.1	3980.5
4878	8.9985	1.6364	0.1	4253.1
4879	8.8155	1.6364	0.1	4654.7
4880	8.6326	1.6364	0.1	5301.
4881	8.4496	1.6364	0.1	6553.4
4882	23.817	1.8182	0.1	179.82
4883	23.634	1.8182	0.1	197.23
4884	23.451	1.8182	0.1	219.1
4885	23.268	1.8182	0.1	244.27
4886	23.085	1.8182	0.1	271.87
4887	22.902	1.8182	0.1	301.34
4888	22.719	1.8182	0.1	332.26
4889	22.536	1.8182	0.1	364.37
4890	22.353	1.8182	0.1	397.44
4891	22.171	1.8182	0.1	431.33
4892	21.988	1.8182	0.1	465.93
4893	21.805	1.8182	0.1	501.15
4894	21.622	1.8182	0.1	536.93
4895	21.439	1.8182	0.1	573.2
4896	21.256	1.8182	0.1	609.93
4897	21.073	1.8182	0.1	647.08
4898	20.89	1.8182	0.1	684.62
4899	20.707	1.8182	0.1	722.52
4900	20.524	1.8182	0.1	760.77
4901	20.341	1.8182	0.1	799.35
4902	20.158	1.8182	0.1	838.25
4903	19.975	1.8182	0.1	877.44
4904	19.792	1.8182	0.1	916.92
4905	19.609	1.8182	0.1	956.68
4906	19.426	1.8182	0.1	996.71
4907	19.243	1.8182	0.1	1037.
4908	19.06	1.8182	0.1	1077.5
4909	18.878	1.8182	0.1	1118.3
4910	18.695	1.8182	0.1	1159.3
4911	18.512	1.8182	0.1	1200.6
4912	18.329	1.8182	0.1	1242.
4913	18.146	1.8182	0.1	1283.7
4914	17.963	1.8182	0.1	1325.6
4915	17.78	1.8182	0.1	1367.7
4916	17.597	1.8182	0.1	1410.
4917	17.414	1.8182	0.1	1452.4
4918	17.231	1.8182	0.1	1495.1
4919	17.048	1.8182	0.1	1537.9
4920	16.865	1.8182	0.1	1580.9
4921	16.682	1.8182	0.1	1624.1
4922	16.499	1.8182	0.1	1667.5
4923	16.316	1.8182	0.1	1711.
4924	16.133	1.8182	0.1	1754.6
4925	15.95	1.8182	0.1	1798.4
4926	15.767	1.8182	0.1	1842.3
4927	15.584	1.8182	0.1	1886.4
4928	15.402	1.8182	0.1	1930.5
4929	15.219	1.8182	0.1	1974.8
4930	15.036	1.8182	0.1	2019.2
4931	14.853	1.8182	0.1	2063.8
4932	14.67	1.8182	0.1	2108.4
4933	14.487	1.8182	0.1	2153.1
4934	14.304	1.8182	0.1	2197.9
4935	14.121	1.8182	0.1	2242.9
4936	13.938	1.8182	0.1	2287.9
4937	13.755	1.8182	0.1	2333.1
4938	13.572	1.8182	0.1	2378.4
4939	13.389	1.8182	0.1	2423.9
4940	13.206	1.8182	0.1	2469.5
4941	13.023	1.8182	0.1	2515.3
4942	12.84	1.8182	0.1	2561.4
4943	12.657	1.8182	0.1	2607.9
4944	12.474	1.8182	0.1	2654.8
4945	12.291	1.8182	0.1	2702.2
4946	12.109	1.8182	0.1	2750.3
4947	11.926	1.8182	0.1	2799.3
4948	11.743	1.8182	0.1	2849.3
4949	11.56	1.8182	0.1	2900.8
4950	11.377	1.8182	0.1	2954.1
4951	11.194	1.8182	0.1	3009.6
4952	11.011	1.8182	0.1	3067.9
4953	10.828	1.8182	0.1	3130.
4954	10.645	1.8182	0.1	3196.7
4955	10.462	1.8182	0.1	3269.5
4956	10.279	1.8182	0.1	3350.3
4957	10.096	1.8182	0.1	3441.9
4958	9.9132	1.8182	0.1	3548.1
4959	9.7302	1.8182	0.1	3674.9
4960	9.5473	1.8182	0.1	3831.8
4961	9.3643	1.8182	0.1	4033.7
4962	9.1814	1.8182	0.1	4305.4
4963	8.9985	1.8182	0.1	4692.6
4964	8.8155	1.8182	0.1	5277.8
4965	8.6326	1.8182	0.1	6349.
4966	8.4496	1.8182	0.1	8832.2
4967	23.817	2.	0.1	185.52
4968	23.634	2.	0.1	202.77
4969	23.451	2.	0.1	224.4
4970	23.268	2.	0.1	249.29
4971	23.085	2.	0.1	276.6
4972	22.902	2.	0.1	305.77
4973	22.719	2.	0.1	336.4
4974	22.536	2.	0.1	368.19
4975	22.353	2.	0.1	400.96
4976	22.171	2.	0.1	434.55
4977	21.988	2.	0.1	468.85
4978	21.805	2.	0.1	503.79
4979	21.622	2.	0.1	539.29
4980	21.439	2.	0.1	575.3
4981	21.256	2.	0.1	611.78
4982	21.073	2.	0.1	648.7
4983	20.89	2.	0.1	686.03
4984	20.707	2.	0.1	723.73
4985	20.524	2.	0.1	761.8
4986	20.341	2.	0.1	800.21
4987	20.158	2.	0.1	838.95
4988	19.975	2.	0.1	877.99
4989	19.792	2.	0.1	917.34
4990	19.609	2.	0.1	956.97
4991	19.426	2.	0.1	996.88
4992	19.243	2.	0.1	1037.1
4993	19.06	2.	0.1	1077.5
4994	18.878	2.	0.1	1118.2
4995	18.695	2.	0.1	1159.1
4996	18.512	2.	0.1	1200.2
4997	18.329	2.	0.1	1241.6
4998	18.146	2.	0.1	1283.2
4999	17.963	2.	0.1	1325.
5000	17.78	2.	0.1	1367.1
5001	17.597	2.	0.1	1409.3
5002	17.414	2.	0.1	1451.7
5003	17.231	2.	0.1	1494.3
5004	17.048	2.	0.1	1537.
5005	16.865	2.	0.1	1580.
5006	16.682	2.	0.1	1623.1
5007	16.499	2.	0.1	1666.3
5008	16.316	2.	0.1	1709.7
5009	16.133	2.	0.1	1753.3
5010	15.95	2.	0.1	1797.
5011	15.767	2.	0.1	1840.8
5012	15.584	2.	0.1	1884.7
5013	15.402	2.	0.1	1928.8
5014	15.219	2.	0.1	1973.
5015	15.036	2.	0.1	2017.2
5016	14.853	2.	0.1	2061.6
5017	14.67	2.	0.1	2106.1
5018	14.487	2.	0.1	2150.6
5019	14.304	2.	0.1	2195.3
5020	14.121	2.	0.1	2240.
5021	13.938	2.	0.1	2284.9
5022	13.755	2.	0.1	2329.9
5023	13.572	2.	0.1	2375.
5024	13.389	2.	0.1	2420.2
5025	13.206	2.	0.1	2465.7
5026	13.023	2.	0.1	2511.4
5027	12.84	2.	0.1	2557.4
5028	12.657	2.	0.1	2603.8
5029	12.474	2.	0.1	2650.7
5030	12.291	2.	0.1	2698.3
5031	12.109	2.	0.1	2746.8
5032	11.926	2.	0.1	2796.5
5033	11.743	2.	0.1	2847.7
5034	11.56	2.	0.1	2900.8
5035	11.377	2.	0.1	2956.4
5036	11.194	2.	0.1	3015.2
5037	11.011	2.	0.1	3078.2
5038	10.828	2.	0.1	3146.5
5039	10.645	2.	0.1	3221.7
5040	10.462	2.	0.1	3305.9
5041	10.279	2.	0.1	3401.9
5042	10.096	2.	0.1	3513.3
5043	9.9132	2.	0.1	3645.7
5044	9.7302	2.	0.1	3806.7
5045	9.5473	2.	0.1	4008.1
5046	9.3643	2.	0.1	4268.6
5047	9.1814	2.	0.1	4618.3
5048	8.9985	2.	0.1	5115.9
5049	8.8155	2.	0.1	5866.7
5050	8.6326	2.	0.1	7169.5
5051	8.4496	2.	0.1	10788
5052	23.817	2.1818	0.1	190.18
5053	23.634	2.1818	0.1	207.32
5054	23.451	2.1818	0.1	228.76
5055	23.268	2.1818	0.1	253.43
5056	23.085	2.1818	0.1	280.52
5057	22.902	2.1818	0.1	309.46
5058	22.719	2.1818	0.1	339.84
5059	22.536	2.1818	0.1	371.4
5060	22.353	2.1818	0.1	403.92
5061	22.171	2.1818	0.1	437.27
5062	21.988	2.1818	0.1	471.34
5063	21.805	2.1818	0.1	506.04
5064	21.622	2.1818	0.1	541.32
5065	21.439	2.1818	0.1	577.12
5066	21.256	2.1818	0.1	613.39
5067	21.073	2.1818	0.1	650.12
5068	20.89	2.1818	0.1	687.27
5069	20.707	2.1818	0.1	724.8
5070	20.524	2.1818	0.1	762.71
5071	20.341	2.1818	0.1	800.97
5072	20.158	2.1818	0.1	839.57
5073	19.975	2.1818	0.1	878.49
5074	19.792	2.1818	0.1	917.72
5075	19.609	2.1818	0.1	957.25
5076	19.426	2.1818	0.1	997.05
5077	19.243	2.1818	0.1	1037.1
5078	19.06	2.1818	0.1	1077.5
5079	18.878	2.1818	0.1	1118.1
5080	18.695	2.1818	0.1	1158.9
5081	18.512	2.1818	0.1	1200.
5082	18.329	2.1818	0.1	1241.3
5083	18.146	2.1818	0.1	1282.8
5084	17.963	2.1818	0.1	1324.6
5085	17.78	2.1818	0.1	1366.5
5086	17.597	2.1818	0.1	1408.7
5087	17.414	2.1818	0.1	1451.
5088	17.231	2.1818	0.1	1493.6
5089	17.048	2.1818	0.1	1536.3
5090	16.865	2.1818	0.1	1579.1
5091	16.682	2.1818	0.1	1622.2
5092	16.499	2.1818	0.1	1665.3
5093	16.316	2.1818	0.1	1708.7
5094	16.133	2.1818	0.1	1752.2
5095	15.95	2.1818	0.1	1795.8
5096	15.767	2.1818	0.1	1839.5
5097	15.584	2.1818	0.1	1883.3
5098	15.402	2.1818	0.1	1927.3
5099	15.219	2.1818	0.1	1971.4
5100	15.036	2.1818	0.1	2015.5
5101	14.853	2.1818	0.1	2059.8
5102	14.67	2.1818	0.1	2104.1
5103	14.487	2.1818	0.1	2148.5
5104	14.304	2.1818	0.1	2193.
5105	14.121	2.1818	0.1	2237.6
5106	13.938	2.1818	0.1	2282.3
5107	13.755	2.1818	0.1	2327.1
5108	13.572	2.1818	0.1	2372.
5109	13.389	2.1818	0.1	2417.
5110	13.206	2.1818	0.1	2462.3
5111	13.023	2.1818	0.1	2507.9
5112	12.84	2.1818	0.1	2553.8
5113	12.657	2.1818	0.1	2600.1
5114	12.474	2.1818	0.1	2647.1
5115	12.291	2.1818	0.1	2694.9
5116	12.109	2.1818	0.1	2743.7
5117	11.926	2.1818	0.1	2794.
5118	11.743	2.1818	0.1	2846.1
5119	11.56	2.1818	0.1	2900.7
5120	11.377	2.1818	0.1	2958.4
5121	11.194	2.1818	0.1	3020.2
5122	11.011	2.1818	0.1	3087.4
5123	10.828	2.1818	0.1	3161.5
5124	10.645	2.1818	0.1	3244.6
5125	10.462	2.1818	0.1	3339.4
5126	10.279	2.1818	0.1	3449.4
5127	10.096	2.1818	0.1	3579.7
5128	9.9132	2.1818	0.1	3736.8
5129	9.7302	2.1818	0.1	3930.3
5130	9.5473	2.1818	0.1	4174.
5131	9.3643	2.1818	0.1	4489.8
5132	9.1814	2.1818	0.1	4911.9
5133	8.9985	2.1818	0.1	5505.3
5134	8.8155	2.1818	0.1	6379.4
5135	8.6326	2.1818	0.1	7881.5
5136	8.4496	2.1818	0.1	10670
5137	23.817	2.3636	0.1	193.86
5138	23.634	2.3636	0.1	210.91
5139	23.451	2.3636	0.1	232.21
5140	23.268	2.3636	0.1	256.72
5141	23.085	2.3636	0.1	283.63
5142	22.902	2.3636	0.1	312.39
5143	22.719	2.3636	0.1	342.6
5144	22.536	2.3636	0.1	373.97
5145	22.353	2.3636	0.1	406.31
5146	22.171	2.3636	0.1	439.47
5147	21.988	2.3636	0.1	473.36
5148	21.805	2.3636	0.1	507.88
5149	21.622	2.3636	0.1	542.98
5150	21.439	2.3636	0.1	578.61
5151	21.256	2.3636	0.1	614.72
5152	21.073	2.3636	0.1	651.3
5153	20.89	2.3636	0.1	688.29
5154	20.707	2.3636	0.1	725.69
5155	20.524	2.3636	0.1	763.48
5156	20.341	2.3636	0.1	801.62
5157	20.158	2.3636	0.1	840.11
5158	19.975	2.3636	0.1	878.92
5159	19.792	2.3636	0.1	918.06
5160	19.609	2.3636	0.1	957.49
5161	19.426	2.3636	0.1	997.22
5162	19.243	2.3636	0.1	1037.2
5163	19.06	2.3636	0.1	1077.5
5164	18.878	2.3636	0.1	1118.
5165	18.695	2.3636	0.1	1158.8
5166	18.512	2.3636	0.1	1199.8
5167	18.329	2.3636	0.1	1241.1
5168	18.146	2.3636	0.1	1282.6
5169	17.963	2.3636	0.1	1324.2
5170	17.78	2.3636	0.1	1366.1
5171	17.597	2.3636	0.1	1408.2
5172	17.414	2.3636	0.1	1450.5
5173	17.231	2.3636	0.1	1493.
5174	17.048	2.3636	0.1	1535.6
5175	16.865	2.3636	0.1	1578.5
5176	16.682	2.3636	0.1	1621.4
5177	16.499	2.3636	0.1	1664.6
5178	16.316	2.3636	0.1	1707.8
5179	16.133	2.3636	0.1	1751.3
5180	15.95	2.3636	0.1	1794.8
5181	15.767	2.3636	0.1	1838.4
5182	15.584	2.3636	0.1	1882.2
5183	15.402	2.3636	0.1	1926.1
5184	15.219	2.3636	0.1	1970.1
5185	15.036	2.3636	0.1	2014.1
5186	14.853	2.3636	0.1	2058.3
5187	14.67	2.3636	0.1	2102.5
5188	14.487	2.3636	0.1	2146.8
5189	14.304	2.3636	0.1	2191.1
5190	14.121	2.3636	0.1	2235.6
5191	13.938	2.3636	0.1	2280.1
5192	13.755	2.3636	0.1	2324.8
5193	13.572	2.3636	0.1	2369.5
5194	13.389	2.3636	0.1	2414.4
5195	13.206	2.3636	0.1	2459.6
5196	13.023	2.3636	0.1	2505.
5197	12.84	2.3636	0.1	2550.7
5198	12.657	2.3636	0.1	2597.
5199	12.474	2.3636	0.1	2644.
5200	12.291	2.3636	0.1	2691.9
5201	12.109	2.3636	0.1	2741.1
5202	11.926	2.3636	0.1	2791.9
5203	11.743	2.3636	0.1	2844.8
5204	11.56	2.3636	0.1	2900.6
5205	11.377	2.3636	0.1	2960.1
5206	11.194	2.3636	0.1	3024.5
5207	11.011	2.3636	0.1	3095.3
5208	10.828	2.3636	0.1	3174.5
5209	10.645	2.3636	0.1	3264.4
5210	10.462	2.3636	0.1	3368.6
5211	10.279	2.3636	0.1	3491.3
5212	10.096	2.3636	0.1	3638.4
5213	9.9132	2.3636	0.1	3817.8
5214	9.7302	2.3636	0.1	4040.6
5215	9.5473	2.3636	0.1	4322.5
5216	9.3643	2.3636	0.1	4686.6
5217	9.1814	2.3636	0.1	5169.1
5218	8.9985	2.3636	0.1	5827.9
5219	8.8155	2.3636	0.1	6766.6
5220	8.6326	2.3636	0.1	8137.4
5221	8.4496	2.3636	0.1	10104
5222	23.817	2.5455	0.1	196.59
5223	23.634	2.5455	0.1	213.58
5224	23.451	2.5455	0.1	234.77
5225	23.268	2.5455	0.1	259.16
5226	23.085	2.5455	0.1	285.95
5227	22.902	2.5455	0.1	314.59
5228	22.719	2.5455	0.1	344.67
5229	22.536	2.5455	0.1	375.91
5230	22.353	2.5455	0.1	408.11
5231	22.171	2.5455	0.1	441.14
5232	21.988	2.5455	0.1	474.89
5233	21.805	2.5455	0.1	509.28
5234	21.622	2.5455	0.1	544.25
5235	21.439	2.5455	0.1	579.75
5236	21.256	2.5455	0.1	615.74
5237	21.073	2.5455	0.1	652.2
5238	20.89	2.5455	0.1	689.09
5239	20.707	2.5455	0.1	726.39
5240	20.524	2.5455	0.1	764.07
5241	20.341	2.5455	0.1	802.12
5242	20.158	2.5455	0.1	840.53
5243	19.975	2.5455	0.1	879.26
5244	19.792	2.5455	0.1	918.32
5245	19.609	2.5455	0.1	957.69
5246	19.426	2.5455	0.1	997.35
5247	19.243	2.5455	0.1	1037.3
5248	19.06	2.5455	0.1	1077.5
5249	18.878	2.5455	0.1	1118.
5250	18.695	2.5455	0.1	1158.7
5251	18.512	2.5455	0.1	1199.7
5252	18.329	2.5455	0.1	1240.9
5253	18.146	2.5455	0.1	1282.3
5254	17.963	2.5455	0.1	1324.
5255	17.78	2.5455	0.1	1365.8
5256	17.597	2.5455	0.1	1407.9
5257	17.414	2.5455	0.1	1450.2
5258	17.231	2.5455	0.1	1492.6
5259	17.048	2.5455	0.1	1535.2
5260	16.865	2.5455	0.1	1578.
5261	16.682	2.5455	0.1	1620.9
5262	16.499	2.5455	0.1	1664.
5263	16.316	2.5455	0.1	1707.2
5264	16.133	2.5455	0.1	1750.6
5265	15.95	2.5455	0.1	1794.1
5266	15.767	2.5455	0.1	1837.7
5267	15.584	2.5455	0.1	1881.4
5268	15.402	2.5455	0.1	1925.2
5269	15.219	2.5455	0.1	1969.1
5270	15.036	2.5455	0.1	2013.1
5271	14.853	2.5455	0.1	2057.1
5272	14.67	2.5455	0.1	2101.2
5273	14.487	2.5455	0.1	2145.4
5274	14.304	2.5455	0.1	2189.7
5275	14.121	2.5455	0.1	2234.
5276	13.938	2.5455	0.1	2278.5
5277	13.755	2.5455	0.1	2323.
5278	13.572	2.5455	0.1	2367.6
5279	13.389	2.5455	0.1	2412.4
5280	13.206	2.5455	0.1	2457.4
5281	13.023	2.5455	0.1	2502.7
5282	12.84	2.5455	0.1	2548.4
5283	12.657	2.5455	0.1	2594.7
5284	12.474	2.5455	0.1	2641.7
5285	12.291	2.5455	0.1	2689.7
5286	12.109	2.5455	0.1	2739.
5287	11.926	2.5455	0.1	2790.2
5288	11.743	2.5455	0.1	2843.8
5289	11.56	2.5455	0.1	2900.5
5290	11.377	2.5455	0.1	2961.5
5291	11.194	2.5455	0.1	3027.9
5292	11.011	2.5455	0.1	3101.6
5293	10.828	2.5455	0.1	3184.8
5294	10.645	2.5455	0.1	3280.4
5295	10.462	2.5455	0.1	3392.2
5296	10.279	2.5455	0.1	3525.3
5297	10.096	2.5455	0.1	3686.3
5298	9.9132	2.5455	0.1	3884.3
5299	9.7302	2.5455	0.1	4131.4
5300	9.5473	2.5455	0.1	4444.3
5301	9.3643	2.5455	0.1	4846.3
5302	9.1814	2.5455	0.1	5369.7
5303	8.9985	2.5455	0.1	6058.9
5304	8.8155	2.5455	0.1	6966.8
5305	8.6326	2.5455	0.1	8123.5
5306	8.4496	2.5455	0.1	9374.9
5307	23.817	2.7273	0.1	198.4
5308	23.634	2.7273	0.1	215.34
5309	23.451	2.7273	0.1	236.47
5310	23.268	2.7273	0.1	260.78
5311	23.085	2.7273	0.1	287.5
5312	22.902	2.7273	0.1	316.05
5313	22.719	2.7273	0.1	346.04
5314	22.536	2.7273	0.1	377.2
5315	22.353	2.7273	0.1	409.32
5316	22.171	2.7273	0.1	442.26
5317	21.988	2.7273	0.1	475.92
5318	21.805	2.7273	0.1	510.22
5319	21.622	2.7273	0.1	545.1
5320	21.439	2.7273	0.1	580.52
5321	21.256	2.7273	0.1	616.43
5322	21.073	2.7273	0.1	652.81
5323	20.89	2.7273	0.1	689.63
5324	20.707	2.7273	0.1	726.86
5325	20.524	2.7273	0.1	764.47
5326	20.341	2.7273	0.1	802.47
5327	20.158	2.7273	0.1	840.81
5328	19.975	2.7273	0.1	879.5
5329	19.792	2.7273	0.1	918.51
5330	19.609	2.7273	0.1	957.83
5331	19.426	2.7273	0.1	997.45
5332	19.243	2.7273	0.1	1037.4
5333	19.06	2.7273	0.1	1077.5
5334	18.878	2.7273	0.1	1118.
5335	18.695	2.7273	0.1	1158.7
5336	18.512	2.7273	0.1	1199.6
5337	18.329	2.7273	0.1	1240.8
5338	18.146	2.7273	0.1	1282.2
5339	17.963	2.7273	0.1	1323.8
5340	17.78	2.7273	0.1	1365.7
5341	17.597	2.7273	0.1	1407.7
5342	17.414	2.7273	0.1	1449.9
5343	17.231	2.7273	0.1	1492.3
5344	17.048	2.7273	0.1	1534.9
5345	16.865	2.7273	0.1	1577.6
5346	16.682	2.7273	0.1	1620.5
5347	16.499	2.7273	0.1	1663.6
5348	16.316	2.7273	0.1	1706.8
5349	16.133	2.7273	0.1	1750.1
5350	15.95	2.7273	0.1	1793.6
5351	15.767	2.7273	0.1	1837.1
5352	15.584	2.7273	0.1	1880.8
5353	15.402	2.7273	0.1	1924.6
5354	15.219	2.7273	0.1	1968.4
5355	15.036	2.7273	0.1	2012.3
5356	14.853	2.7273	0.1	2056.3
5357	14.67	2.7273	0.1	2100.4
5358	14.487	2.7273	0.1	2144.5
5359	14.304	2.7273	0.1	2188.7
5360	14.121	2.7273	0.1	2233.
5361	13.938	2.7273	0.1	2277.3
5362	13.755	2.7273	0.1	2321.8
5363	13.572	2.7273	0.1	2366.3
5364	13.389	2.7273	0.1	2411.
5365	13.206	2.7273	0.1	2455.9
5366	13.023	2.7273	0.1	2501.2
5367	12.84	2.7273	0.1	2546.8
5368	12.657	2.7273	0.1	2593.
5369	12.474	2.7273	0.1	2640.
5370	12.291	2.7273	0.1	2688.1
5371	12.109	2.7273	0.1	2737.6
5372	11.926	2.7273	0.1	2789.
5373	11.743	2.7273	0.1	2843.
5374	11.56	2.7273	0.1	2900.5
5375	11.377	2.7273	0.1	2962.4
5376	11.194	2.7273	0.1	3030.3
5377	11.011	2.7273	0.1	3106.1
5378	10.828	2.7273	0.1	3192.1
5379	10.645	2.7273	0.1	3291.7
5380	10.462	2.7273	0.1	3408.9
5381	10.279	2.7273	0.1	3549.4
5382	10.096	2.7273	0.1	3720.5
5383	9.9132	2.7273	0.1	3931.8
5384	9.7302	2.7273	0.1	4196.2
5385	9.5473	2.7273	0.1	4530.8
5386	9.3643	2.7273	0.1	4957.4
5387	9.1814	2.7273	0.1	5503.
5388	8.9985	2.7273	0.1	6195.1
5389	8.8155	2.7273	0.1	7047.1
5390	8.6326	2.7273	0.1	8017.7
5391	8.4496	2.7273	0.1	8945.6
5392	23.817	2.9091	0.1	199.3
5393	23.634	2.9091	0.1	216.22
5394	23.451	2.9091	0.1	237.31
5395	23.268	2.9091	0.1	261.59
5396	23.085	2.9091	0.1	288.27
5397	22.902	2.9091	0.1	316.78
5398	22.719	2.9091	0.1	346.73
5399	22.536	2.9091	0.1	377.84
5400	22.353	2.9091	0.1	409.92
5401	22.171	2.9091	0.1	442.82
5402	21.988	2.9091	0.1	476.43
5403	21.805	2.9091	0.1	510.69
5404	21.622	2.9091	0.1	545.53
5405	21.439	2.9091	0.1	580.91
5406	21.256	2.9091	0.1	616.78
5407	21.073	2.9091	0.1	653.12
5408	20.89	2.9091	0.1	689.9
5409	20.707	2.9091	0.1	727.09
5410	20.524	2.9091	0.1	764.68
5411	20.341	2.9091	0.1	802.64
5412	20.158	2.9091	0.1	840.96
5413	19.975	2.9091	0.1	879.62
5414	19.792	2.9091	0.1	918.6
5415	19.609	2.9091	0.1	957.9
5416	19.426	2.9091	0.1	997.5
5417	19.243	2.9091	0.1	1037.4
5418	19.06	2.9091	0.1	1077.5
5419	18.878	2.9091	0.1	1118.
5420	18.695	2.9091	0.1	1158.7
5421	18.512	2.9091	0.1	1199.6
5422	18.329	2.9091	0.1	1240.7
5423	18.146	2.9091	0.1	1282.1
5424	17.963	2.9091	0.1	1323.7
5425	17.78	2.9091	0.1	1365.6
5426	17.597	2.9091	0.1	1407.6
5427	17.414	2.9091	0.1	1449.8
5428	17.231	2.9091	0.1	1492.2
5429	17.048	2.9091	0.1	1534.7
5430	16.865	2.9091	0.1	1577.5
5431	16.682	2.9091	0.1	1620.4
5432	16.499	2.9091	0.1	1663.4
5433	16.316	2.9091	0.1	1706.6
5434	16.133	2.9091	0.1	1749.9
5435	15.95	2.9091	0.1	1793.3
5436	15.767	2.9091	0.1	1836.9
5437	15.584	2.9091	0.1	1880.5
5438	15.402	2.9091	0.1	1924.3
5439	15.219	2.9091	0.1	1968.1
5440	15.036	2.9091	0.1	2012.
5441	14.853	2.9091	0.1	2056.
5442	14.67	2.9091	0.1	2100.
5443	14.487	2.9091	0.1	2144.1
5444	14.304	2.9091	0.1	2188.3
5445	14.121	2.9091	0.1	2232.5
5446	13.938	2.9091	0.1	2276.8
5447	13.755	2.9091	0.1	2321.2
5448	13.572	2.9091	0.1	2365.7
5449	13.389	2.9091	0.1	2410.3
5450	13.206	2.9091	0.1	2455.2
5451	13.023	2.9091	0.1	2500.4
5452	12.84	2.9091	0.1	2546.
5453	12.657	2.9091	0.1	2592.2
5454	12.474	2.9091	0.1	2639.2
5455	12.291	2.9091	0.1	2687.3
5456	12.109	2.9091	0.1	2736.9
5457	11.926	2.9091	0.1	2788.4
5458	11.743	2.9091	0.1	2842.7
5459	11.56	2.9091	0.1	2900.4
5460	11.377	2.9091	0.1	2962.9
5461	11.194	2.9091	0.1	3031.5
5462	11.011	2.9091	0.1	3108.3
5463	10.828	2.9091	0.1	3195.9
5464	10.645	2.9091	0.1	3297.5
5465	10.462	2.9091	0.1	3417.6
5466	10.279	2.9091	0.1	3562.
5467	10.096	2.9091	0.1	3738.3
5468	9.9132	2.9091	0.1	3956.5
5469	9.7302	2.9091	0.1	4230.
5470	9.5473	2.9091	0.1	4575.6
5471	9.3643	2.9091	0.1	5014.1
5472	9.1814	2.9091	0.1	5568.3
5473	8.9985	2.9091	0.1	6255.7
5474	8.8155	2.9091	0.1	7070.2
5475	8.6326	2.9091	0.1	7948.9
5476	8.4496	2.9091	0.1	8741.5
5477	23.817	3.0909	0.1	199.3
5478	23.634	3.0909	0.1	216.22
5479	23.451	3.0909	0.1	237.31
5480	23.268	3.0909	0.1	261.59
5481	23.085	3.0909	0.1	288.27
5482	22.902	3.0909	0.1	316.78
5483	22.719	3.0909	0.1	346.73
5484	22.536	3.0909	0.1	377.84
5485	22.353	3.0909	0.1	409.92
5486	22.171	3.0909	0.1	442.82
5487	21.988	3.0909	0.1	476.43
5488	21.805	3.0909	0.1	510.69
5489	21.622	3.0909	0.1	545.53
5490	21.439	3.0909	0.1	580.91
5491	21.256	3.0909	0.1	616.78
5492	21.073	3.0909	0.1	653.12
5493	20.89	3.0909	0.1	689.9
5494	20.707	3.0909	0.1	727.09
5495	20.524	3.0909	0.1	764.68
5496	20.341	3.0909	0.1	802.64
5497	20.158	3.0909	0.1	840.96
5498	19.975	3.0909	0.1	879.62
5499	19.792	3.0909	0.1	918.6
5500	19.609	3.0909	0.1	957.9
5501	19.426	3.0909	0.1	997.5
5502	19.243	3.0909	0.1	1037.4
5503	19.06	3.0909	0.1	1077.5
5504	18.878	3.0909	0.1	1118.
5505	18.695	3.0909	0.1	1158.7
5506	18.512	3.0909	0.1	1199.6
5507	18.329	3.0909	0.1	1240.7
5508	18.146	3.0909	0.1	1282.1
5509	17.963	3.0909	0.1	1323.7
5510	17.78	3.0909	0.1	1365.6
5511	17.597	3.0909	0.1	1407.6
5512	17.414	3.0909	0.1	1449.8
5513	17.231	3.0909	0.1	1492.2
5514	17.048	3.0909	0.1	1534.7
5515	16.865	3.0909	0.1	1577.5
5516	16.682	3.0909	0.1	1620.4
5517	16.499	3.0909	0.1	1663.4
5518	16.316	3.0909	0.1	1706.6
5519	16.133	3.0909	0.1	1749.9
5520	15.95	3.0909	0.1	1793.3
5521	15.767	3.0909	0.1	1836.9
5522	15.584	3.0909	0.1	1880.5
5523	15.402	3.0909	0.1	1924.3
5524	15.219	3.0909	0.1	1968.1
5525	15.036	3.0909	0.1	2012.
5526	14.853	3.0909	0.1	2056.
5527	14.67	3.0909	0.1	2100.
5528	14.487	3.0909	0.1	2144.1
5529	14.304	3.0909	0.1	2188.3
5530	14.121	3.0909	0.1	2232.5
5531	13.938	3.0909	0.1	2276.8
5532	13.755	3.0909	0.1	2321.2
5533	13.572	3.0909	0.1	2365.7
5534	13.389	3.0909	0.1	2410.3
5535	13.206	3.0909	0.1	2455.2
5536	13.023	3.0909	0.1	2500.4
5537	12.84	3.0909	0.1	2546.
5538	12.657	3.0909	0.1	2592.2
5539	12.474	3.0909	0.1	2639.2
5540	12.291	3.0909	0.1	2687.3
5541	12.109	3.0909	0.1	2736.9
5542	11.926	3.0909	0.1	2788.4
5543	11.743	3.0909	0.1	2842.7
5544	11.56	3.0909	0.1	2900.4
5545	11.377	3.0909	0.1	2962.9
5546	11.194	3.0909	0.1	3031.5
5547	11.011	3.0909	0.1	3108.3
5548	10.828	3.0909	0.1	3195.9
5549	10.645	3.0909	0.1	3297.5
5550	10.462	3.0909	0.1	3417.6
5551	10.279	3.0909	0.1	3562.
5552	10.096	3.0909	0.1	3738.3
5553	9.9132	3.0909	0.1	3956.5
5554	9.7302	3.0909	0.1	4230.
5555	9.5473	3.0909	0.1	4575.6
5556	9.3643	3.0909	0.1	5014.1
5557	9.1814	3.0909	0.1	5568.3
5558	8.9985	3.0909	0.1	6255.7
5559	8.8155	3.0909	0.1	7070.2
5560	8.6326	3.0909	0.1	7948.9
5561	8.4496	3.0909	0.1	8741.5
5562	23.817	3.2727	0.1	198.4
5563	23.634	3.2727	0.1	215.34
5564	23.451	3.2727	0.1	236.47
5565	23.268	3.2727	0.1	260.78
5566	23.085	3.2727	0.1	287.5
5567	22.902	3.2727	0.1	316.05
5568	22.719	3.2727	0.1	346.04
5569	22.536	3.2727	0.1	377.2
5570	22.353	3.2727	0.1	409.32
5571	22.171	3.2727	0.1	442.26
5572	21.988	3.2727	0.1	475.92
5573	21.805	3.2727	0.1	510.22
5574	21.622	3.2727	0.1	545.1
5575	21.439	3.2727	0.1	580.52
5576	21.256	3.2727	0.1	616.43
5577	21.073	3.2727	0.1	652.81
5578	20.89	3.2727	0.1	689.63
5579	20.707	3.2727	0.1	726.86
5580	20.524	3.2727	0.1	764.47
5581	20.341	3.2727	0.1	802.47
5582	20.158	3.2727	0.1	840.81
5583	19.975	3.2727	0.1	879.5
5584	19.792	3.2727	0.1	918.51
5585	19.609	3.2727	0.1	957.83
5586	19.426	3.2727	0.1	997.45
5587	19.243	3.2727	0.1	1037.4
5588	19.06	3.2727	0.1	1077.5
5589	18.878	3.2727	0.1	1118.
5590	18.695	3.2727	0.1	1158.7
5591	18.512	3.2727	0.1	1199.6
5592	18.329	3.2727	0.1	1240.8
5593	18.146	3.2727	0.1	1282.2
5594	17.963	3.2727	0.1	1323.8
5595	17.78	3.2727	0.1	1365.7
5596	17.597	3.2727	0.1	1407.7
5597	17.414	3.2727	0.1	1449.9
5598	17.231	3.2727	0.1	1492.3
5599	17.048	3.2727	0.1	1534.9
5600	16.865	3.2727	0.1	1577.6
5601	16.682	3.2727	0.1	1620.5
5602	16.499	3.2727	0.1	1663.6
5603	16.316	3.2727	0.1	1706.8
5604	16.133	3.2727	0.1	1750.1
5605	15.95	3.2727	0.1	1793.6
5606	15.767	3.2727	0.1	1837.1
5607	15.584	3.2727	0.1	1880.8
5608	15.402	3.2727	0.1	1924.6
5609	15.219	3.2727	0.1	1968.4
5610	15.036	3.2727	0.1	2012.3
5611	14.853	3.2727	0.1	2056.3
5612	14.67	3.2727	0.1	2100.4
5613	14.487	3.2727	0.1	2144.5
5614	14.304	3.2727	0.1	2188.7
5615	14.121	3.2727	0.1	2233.
5616	13.938	3.2727	0.1	2277.3
5617	13.755	3.2727	0.1	2321.8
5618	13.572	3.2727	0.1	2366.3
5619	13.389	3.2727	0.1	2411.
5620	13.206	3.2727	0.1	2455.9
5621	13.023	3.2727	0.1	2501.2
5622	12.84	3.2727	0.1	2546.8
5623	12.657	3.2727	0.1	2593.
5624	12.474	3.2727	0.1	2640.
5625	12.291	3.2727	0.1	2688.1
5626	12.109	3.2727	0.1	2737.6
5627	11.926	3.2727	0.1	2789.
5628	11.743	3.2727	0.1	2843.
5629	11.56	3.2727	0.1	2900.5
5630	11.377	3.2727	0.1	2962.4
5631	11.194	3.2727	0.1	3030.3
5632	11.011	3.2727	0.1	3106.1
5633	10.828	3.2727	0.1	3192.1
5634	10.645	3.2727	0.1	3291.7
5635	10.462	3.2727	0.1	3408.9
5636	10.279	3.2727	0.1	3549.4
5637	10.096	3.2727	0.1	3720.5
5638	9.9132	3.2727	0.1	3931.8
5639	9.7302	3.2727	0.1	4196.2
5640	9.5473	3.2727	0.1	4530.8
5641	9.3643	3.2727	0.1	4957.4
5642	9.1814	3.2727	0.1	5503.
5643	8.9985	3.2727	0.1	6195.1
5644	8.8155	3.2727	0.1	7047.1
5645	8.6326	3.2727	0.1	8017.7
5646	8.4496	3.2727	0.1	8945.6
5647	23.817	3.4545	0.1	196.59
5648	23.634	3.4545	0.1	213.58
5649	23.451	3.4545	0.1	234.77
5650	23.268	3.4545	0.1	259.16
5651	23.085	3.4545	0.1	285.95
5652	22.902	3.4545	0.1	314.59
5653	22.719	3.4545	0.1	344.67
5654	22.536	3.4545	0.1	375.91
5655	22.353	3.4545	0.1	408.11
5656	22.171	3.4545	0.1	441.14
5657	21.988	3.4545	0.1	474.89
5658	21.805	3.4545	0.1	509.28
5659	21.622	3.4545	0.1	544.25
5660	21.439	3.4545	0.1	579.75
5661	21.256	3.4545	0.1	615.74
5662	21.073	3.4545	0.1	652.2
5663	20.89	3.4545	0.1	689.09
5664	20.707	3.4545	0.1	726.39
5665	20.524	3.4545	0.1	764.07
5666	20.341	3.4545	0.1	802.12
5667	20.158	3.4545	0.1	840.53
5668	19.975	3.4545	0.1	879.26
5669	19.792	3.4545	0.1	918.32
5670	19.609	3.4545	0.1	957.69
5671	19.426	3.4545	0.1	997.35
5672	19.243	3.4545	0.1	1037.3
5673	19.06	3.4545	0.1	1077.5
5674	18.878	3.4545	0.1	1118.
5675	18.695	3.4545	0.1	1158.7
5676	18.512	3.4545	0.1	1199.7
5677	18.329	3.4545	0.1	1240.9
5678	18.146	3.4545	0.1	1282.3
5679	17.963	3.4545	0.1	1324.
5680	17.78	3.4545	0.1	1365.8
5681	17.597	3.4545	0.1	1407.9
5682	17.414	3.4545	0.1	1450.2
5683	17.231	3.4545	0.1	1492.6
5684	17.048	3.4545	0.1	1535.2
5685	16.865	3.4545	0.1	1578.
5686	16.682	3.4545	0.1	1620.9
5687	16.499	3.4545	0.1	1664.
5688	16.316	3.4545	0.1	1707.2
5689	16.133	3.4545	0.1	1750.6
5690	15.95	3.4545	0.1	1794.1
5691	15.767	3.4545	0.1	1837.7
5692	15.584	3.4545	0.1	1881.4
5693	15.402	3.4545	0.1	1925.2
5694	15.219	3.4545	0.1	1969.1
5695	15.036	3.4545	0.1	2013.1
5696	14.853	3.4545	0.1	2057.1
5697	14.67	3.4545	0.1	2101.2
5698	14.487	3.4545	0.1	2145.4
5699	14.304	3.4545	0.1	2189.7
5700	14.121	3.4545	0.1	2234.
5701	13.938	3.4545	0.1	2278.5
5702	13.755	3.4545	0.1	2323.
5703	13.572	3.4545	0.1	2367.6
5704	13.389	3.4545	0.1	2412.4
5705	13.206	3.4545	0.1	2457.4
5706	13.023	3.4545	0.1	2502.7
5707	12.84	3.4545	0.1	2548.4
5708	12.657	3.4545	0.1	2594.7
5709	12.474	3.4545	0.1	2641.7
5710	12.291	3.4545	0.1	2689.7
5711	12.109	3.4545	0.1	2739.
5712	11.926	3.4545	0.1	2790.2
5713	11.743	3.4545	0.1	2843.8
5714	11.56	3.4545	0.1	2900.5
5715	11.377	3.4545	0.1	2961.5
5716	11.194	3.4545	0.1	3027.9
5717	11.011	3.4545	0.1	3101.6
5718	10.828	3.4545	0.1	3184.8
5719	10.645	3.4545	0.1	3280.4
5720	10.462	3.4545	0.1	3392.2
5721	10.279	3.4545	0.1	3525.3
5722	10.096	3.4545	0.1	3686.3
5723	9.9132	3.4545	0.1	3884.3
5724	9.7302	3.4545	0.1	4131.4
5725	9.5473	3.4545	0.1	4444.3
5726	9.3643	3.4545	0.1	4846.3
5727	9.1814	3.4545	0.1	5369.7
5728	8.9985	3.4545	0.1	6058.9
5729	8.8155	3.4545	0.1	6966.8
5730	8.6326	3.4545	0.1	8123.5
5731	8.4496	3.4545	0.1	9374.9
5732	23.817	3.6364	0.1	193.86
5733	23.634	3.6364	0.1	210.91
5734	23.451	3.6364	0.1	232.21
5735	23.268	3.6364	0.1	256.72
5736	23.085	3.6364	0.1	283.63
5737	22.902	3.6364	0.1	312.39
5738	22.719	3.6364	0.1	342.6
5739	22.536	3.6364	0.1	373.97
5740	22.353	3.6364	0.1	406.31
5741	22.171	3.6364	0.1	439.47
5742	21.988	3.6364	0.1	473.36
5743	21.805	3.6364	0.1	507.88
5744	21.622	3.6364	0.1	542.98
5745	21.439	3.6364	0.1	578.61
5746	21.256	3.6364	0.1	614.72
5747	21.073	3.6364	0.1	651.3
5748	20.89	3.6364	0.1	688.29
5749	20.707	3.6364	0.1	725.69
5750	20.524	3.6364	0.1	763.48
5751	20.341	3.6364	0.1	801.62
5752	20.158	3.6364	0.1	840.11
5753	19.975	3.6364	0.1	878.92
5754	19.792	3.6364	0.1	918.06
5755	19.609	3.6364	0.1	957.49
5756	19.426	3.6364	0.1	997.22
5757	19.243	3.6364	0.1	1037.2
5758	19.06	3.6364	0.1	1077.5
5759	18.878	3.6364	0.1	1118.
5760	18.695	3.6364	0.1	1158.8
5761	18.512	3.6364	0.1	1199.8
5762	18.329	3.6364	0.1	1241.1
5763	18.146	3.6364	0.1	1282.6
5764	17.963	3.6364	0.1	1324.2
5765	17.78	3.6364	0.1	1366.1
5766	17.597	3.6364	0.1	1408.2
5767	17.414	3.6364	0.1	1450.5
5768	17.231	3.6364	0.1	1493.
5769	17.048	3.6364	0.1	1535.6
5770	16.865	3.6364	0.1	1578.5
5771	16.682	3.6364	0.1	1621.4
5772	16.499	3.6364	0.1	1664.6
5773	16.316	3.6364	0.1	1707.8
5774	16.133	3.6364	0.1	1751.3
5775	15.95	3.6364	0.1	1794.8
5776	15.767	3.6364	0.1	1838.4
5777	15.584	3.6364	0.1	1882.2
5778	15.402	3.6364	0.1	1926.1
5779	15.219	3.6364	0.1	1970.1
5780	15.036	3.6364	0.1	2014.1
5781	14.853	3.6364	0.1	2058.3
5782	14.67	3.6364	0.1	2102.5
5783	14.487	3.6364	0.1	2146.8
5784	14.304	3.6364	0.1	2191.1
5785	14.121	3.6364	0.1	2235.6
5786	13.938	3.6364	0.1	2280.1
5787	13.755	3.6364	0.1	2324.8
5788	13.572	3.6364	0.1	2369.5
5789	13.389	3.6364	0.1	2414.4
5790	13.206	3.6364	0.1	2459.6
5791	13.023	3.6364	0.1	2505.
5792	12.84	3.6364	0.1	2550.7
5793	12.657	3.6364	0.1	2597.
5794	12.474	3.6364	0.1	2644.
5795	12.291	3.6364	0.1	2691.9
5796	12.109	3.6364	0.1	2741.1
5797	11.926	3.6364	0.1	2791.9
5798	11.743	3.6364	0.1	2844.8
5799	11.56	3.6364	0.1	2900.6
5800	11.377	3.6364	0.1	2960.1
5801	11.194	3.6364	0.1	3024.5
5802	11.011	3.6364	0.1	3095.3
5803	10.828	3.6364	0.1	3174.5
5804	10.645	3.6364	0.1	3264.4
5805	10.462	3.6364	0.1	3368.6
5806	10.279	3.6364	0.1	3491.3
5807	10.096	3.6364	0.1	3638.4
5808	9.9132	3.6364	0.1	3817.8
5809	9.7302	3.6364	0.1	4040.6
5810	9.5473	3.6364	0.1	4322.5
5811	9.3643	3.6364	0.1	4686.6
5812	9.1814	3.6364	0.1	5169.1
5813	8.9985	3.6364	0.1	5827.9
5814	8.8155	3.6364	0.1	6766.6
5815	8.6326	3.6364	0.1	8137.4
5816	8.4496	3.6364	0.1	10104
5817	23.817	3.8182	0.1	190.18
5818	23.634	3.8182	0.1	207.32
5819	23.451	3.8182	0.1	228.76
5820	23.268	3.8182	0.1	253.43
5821	23.085	3.8182	0.1	280.52
5822	22.902	3.8182	0.1	309.46
5823	22.719	3.8182	0.1	339.84
5824	22.536	3.8182	0.1	371.4
5825	22.353	3.8182	0.1	403.92
5826	22.171	3.8182	0.1	437.27
5827	21.988	3.8182	0.1	471.34
5828	21.805	3.8182	0.1	506.04
5829	21.622	3.8182	0.1	541.32
5830	21.439	3.8182	0.1	577.12
5831	21.256	3.8182	0.1	613.4
5832	21.073	3.8182	0.1	650.12
5833	20.89	3.8182	0.1	687.27
5834	20.707	3.8182	0.1	724.8
5835	20.524	3.8182	0.1	762.71
5836	20.341	3.8182	0.1	800.97
5837	20.158	3.8182	0.1	839.57
5838	19.975	3.8182	0.1	878.49
5839	19.792	3.8182	0.1	917.72
5840	19.609	3.8182	0.1	957.25
5841	19.426	3.8182	0.1	997.05
5842	19.243	3.8182	0.1	1037.1
5843	19.06	3.8182	0.1	1077.5
5844	18.878	3.8182	0.1	1118.1
5845	18.695	3.8182	0.1	1158.9
5846	18.512	3.8182	0.1	1200.
5847	18.329	3.8182	0.1	1241.3
5848	18.146	3.8182	0.1	1282.8
5849	17.963	3.8182	0.1	1324.6
5850	17.78	3.8182	0.1	1366.5
5851	17.597	3.8182	0.1	1408.7
5852	17.414	3.8182	0.1	1451.
5853	17.231	3.8182	0.1	1493.6
5854	17.048	3.8182	0.1	1536.3
5855	16.865	3.8182	0.1	1579.1
5856	16.682	3.8182	0.1	1622.2
5857	16.499	3.8182	0.1	1665.3
5858	16.316	3.8182	0.1	1708.7
5859	16.133	3.8182	0.1	1752.2
5860	15.95	3.8182	0.1	1795.8
5861	15.767	3.8182	0.1	1839.5
5862	15.584	3.8182	0.1	1883.3
5863	15.402	3.8182	0.1	1927.3
5864	15.219	3.8182	0.1	1971.4
5865	15.036	3.8182	0.1	2015.5
5866	14.853	3.8182	0.1	2059.8
5867	14.67	3.8182	0.1	2104.1
5868	14.487	3.8182	0.1	2148.5
5869	14.304	3.8182	0.1	2193.
5870	14.121	3.8182	0.1	2237.6
5871	13.938	3.8182	0.1	2282.3
5872	13.755	3.8182	0.1	2327.1
5873	13.572	3.8182	0.1	2372.
5874	13.389	3.8182	0.1	2417.
5875	13.206	3.8182	0.1	2462.3
5876	13.023	3.8182	0.1	2507.9
5877	12.84	3.8182	0.1	2553.8
5878	12.657	3.8182	0.1	2600.1
5879	12.474	3.8182	0.1	2647.1
5880	12.291	3.8182	0.1	2694.9
5881	12.109	3.8182	0.1	2743.7
5882	11.926	3.8182	0.1	2794.
5883	11.743	3.8182	0.1	2846.1
5884	11.56	3.8182	0.1	2900.7
5885	11.377	3.8182	0.1	2958.4
5886	11.194	3.8182	0.1	3020.2
5887	11.011	3.8182	0.1	3087.4
5888	10.828	3.8182	0.1	3161.5
5889	10.645	3.8182	0.1	3244.6
5890	10.462	3.8182	0.1	3339.4
5891	10.279	3.8182	0.1	3449.4
5892	10.096	3.8182	0.1	3579.7
5893	9.9132	3.8182	0.1	3736.8
5894	9.7302	3.8182	0.1	3930.3
5895	9.5473	3.8182	0.1	4174.
5896	9.3643	3.8182	0.1	4489.8
5897	9.1814	3.8182	0.1	4911.9
5898	8.9985	3.8182	0.1	5505.3
5899	8.8155	3.8182	0.1	6379.4
5900	8.6326	3.8182	0.1	7881.5
5901	8.4496	3.8182	0.1	10670
5902	23.817	4.	0.1	185.52
5903	23.634	4.	0.1	202.77
5904	23.451	4.	0.1	224.4
5905	23.268	4.	0.1	249.29
5906	23.085	4.	0.1	276.6
5907	22.902	4.	0.1	305.77
5908	22.719	4.	0.1	336.4
5909	22.536	4.	0.1	368.19
5910	22.353	4.	0.1	400.96
5911	22.171	4.	0.1	434.55
5912	21.988	4.	0.1	468.85
5913	21.805	4.	0.1	503.79
5914	21.622	4.	0.1	539.29
5915	21.439	4.	0.1	575.3
5916	21.256	4.	0.1	611.78
5917	21.073	4.	0.1	648.7
5918	20.89	4.	0.1	686.03
5919	20.707	4.	0.1	723.73
5920	20.524	4.	0.1	761.8
5921	20.341	4.	0.1	800.21
5922	20.158	4.	0.1	838.95
5923	19.975	4.	0.1	877.99
5924	19.792	4.	0.1	917.34
5925	19.609	4.	0.1	956.97
5926	19.426	4.	0.1	996.88
5927	19.243	4.	0.1	1037.1
5928	19.06	4.	0.1	1077.5
5929	18.878	4.	0.1	1118.2
5930	18.695	4.	0.1	1159.1
5931	18.512	4.	0.1	1200.2
5932	18.329	4.	0.1	1241.6
5933	18.146	4.	0.1	1283.2
5934	17.963	4.	0.1	1325.
5935	17.78	4.	0.1	1367.1
5936	17.597	4.	0.1	1409.3
5937	17.414	4.	0.1	1451.7
5938	17.231	4.	0.1	1494.3
5939	17.048	4.	0.1	1537.
5940	16.865	4.	0.1	1580.
5941	16.682	4.	0.1	1623.1
5942	16.499	4.	0.1	1666.3
5943	16.316	4.	0.1	1709.7
5944	16.133	4.	0.1	1753.3
5945	15.95	4.	0.1	1797.
5946	15.767	4.	0.1	1840.8
5947	15.584	4.	0.1	1884.7
5948	15.402	4.	0.1	1928.8
5949	15.219	4.	0.1	1973.
5950	15.036	4.	0.1	2017.2
5951	14.853	4.	0.1	2061.6
5952	14.67	4.	0.1	2106.1
5953	14.487	4.	0.1	2150.6
5954	14.304	4.	0.1	2195.3
5955	14.121	4.	0.1	2240.
5956	13.938	4.	0.1	2284.9
5957	13.755	4.	0.1	2329.9
5958	13.572	4.	0.1	2375.
5959	13.389	4.	0.1	2420.2
5960	13.206	4.	0.1	2465.7
5961	13.023	4.	0.1	2511.4
5962	12.84	4.	0.1	2557.4
5963	12.657	4.	0.1	2603.8
5964	12.474	4.	0.1	2650.7
5965	12.291	4.	0.1	2698.3
5966	12.109	4.	0.1	2746.8
5967	11.926	4.	0.1	2796.5
5968	11.743	4.	0.1	2847.7
5969	11.56	4.	0.1	2900.8
5970	11.377	4.	0.1	2956.4
5971	11.194	4.	0.1	3015.2
5972	11.011	4.	0.1	3078.2
5973	10.828	4.	0.1	3146.5
5974	10.645	4.	0.1	3221.7
5975	10.462	4.	0.1	3305.9
5976	10.279	4.	0.1	3401.9
5977	10.096	4.	0.1	3513.3
5978	9.9132	4.	0.1	3645.7
5979	9.7302	4.	0.1	3806.7
5980	9.5473	4.	0.1	4008.1
5981	9.3643	4.	0.1	4268.6
5982	9.1814	4.	0.1	4618.3
5983	8.9985	4.	0.1	5115.9
5984	8.8155	4.	0.1	5866.7
5985	8.6326	4.	0.1	7169.5
5986	8.4496	4.	0.1	10788
5987	23.817	4.1818	0.1	179.82
5988	23.634	4.1818	0.1	197.23
5989	23.451	4.1818	0.1	219.1
5990	23.268	4.1818	0.1	244.27
5991	23.085	4.1818	0.1	271.87
5992	22.902	4.1818	0.1	301.34
5993	22.719	4.1818	0.1	332.26
5994	22.536	4.1818	0.1	364.37
5995	22.353	4.1818	0.1	397.44
5996	22.171	4.1818	0.1	431.33
5997	21.988	4.1818	0.1	465.93
5998	21.805	4.1818	0.1	501.15
5999	21.622	4.1818	0.1	536.93
6000	21.439	4.1818	0.1	573.2
6001	21.256	4.1818	0.1	609.93
6002	21.073	4.1818	0.1	647.08
6003	20.89	4.1818	0.1	684.62
6004	20.707	4.1818	0.1	722.52
6005	20.524	4.1818	0.1	760.77
6006	20.341	4.1818	0.1	799.35
6007	20.158	4.1818	0.1	838.25
6008	19.975	4.1818	0.1	877.44
6009	19.792	4.1818	0.1	916.92
6010	19.609	4.1818	0.1	956.68
6011	19.426	4.1818	0.1	996.71
6012	19.243	4.1818	0.1	1037.
6013	19.06	4.1818	0.1	1077.5
6014	18.878	4.1818	0.1	1118.3
6015	18.695	4.1818	0.1	1159.3
6016	18.512	4.1818	0.1	1200.6
6017	18.329	4.1818	0.1	1242.
6018	18.146	4.1818	0.1	1283.7
6019	17.963	4.1818	0.1	1325.6
6020	17.78	4.1818	0.1	1367.7
6021	17.597	4.1818	0.1	1410.
6022	17.414	4.1818	0.1	1452.4
6023	17.231	4.1818	0.1	1495.1
6024	17.048	4.1818	0.1	1537.9
6025	16.865	4.1818	0.1	1580.9
6026	16.682	4.1818	0.1	1624.1
6027	16.499	4.1818	0.1	1667.5
6028	16.316	4.1818	0.1	1711.
6029	16.133	4.1818	0.1	1754.6
6030	15.95	4.1818	0.1	1798.4
6031	15.767	4.1818	0.1	1842.3
6032	15.584	4.1818	0.1	1886.4
6033	15.402	4.1818	0.1	1930.5
6034	15.219	4.1818	0.1	1974.8
6035	15.036	4.1818	0.1	2019.2
6036	14.853	4.1818	0.1	2063.8
6037	14.67	4.1818	0.1	2108.4
6038	14.487	4.1818	0.1	2153.1
6039	14.304	4.1818	0.1	2197.9
6040	14.121	4.1818	0.1	2242.9
6041	13.938	4.1818	0.1	2287.9
6042	13.755	4.1818	0.1	2333.1
6043	13.572	4.1818	0.1	2378.4
6044	13.389	4.1818	0.1	2423.9
6045	13.206	4.1818	0.1	2469.5
6046	13.023	4.1818	0.1	2515.3
6047	12.84	4.1818	0.1	2561.4
6048	12.657	4.1818	0.1	2607.9
6049	12.474	4.1818	0.1	2654.8
6050	12.291	4.1818	0.1	2702.2
6051	12.109	4.1818	0.1	2750.3
6052	11.926	4.1818	0.1	2799.3
6053	11.743	4.1818	0.1	2849.3
6054	11.56	4.1818	0.1	2900.8
6055	11.377	4.1818	0.1	2954.1
6056	11.194	4.1818	0.1	3009.6
6057	11.011	4.1818	0.1	3067.9
6058	10.828	4.1818	0.1	3130.
6059	10.645	4.1818	0.1	3196.7
6060	10.462	4.1818	0.1	3269.5
6061	10.279	4.1818	0.1	3350.3
6062	10.096	4.1818	0.1	3441.9
6063	9.9132	4.1818	0.1	3548.1
6064	9.7302	4.1818	0.1	3674.9
6065	9.5473	4.1818	0.1	3831.8
6066	9.3643	4.1818	0.1	4033.7
6067	9.1814	4.1818	0.1	4305.4
6068	8.9985	4.1818	0.1	4692.6
6069	8.8155	4.1818	0.1	5277.8
6070	8.6326	4.1818	0.1	6349.
6071	8.4496	4.1818	0.1	8832.2
6072	23.817	4.3636	0.1	173.04
6073	23.634	4.3636	0.1	190.63
6074	23.451	4.3636	0.1	212.81
6075	23.268	4.3636	0.1	238.33
6076	23.085	4.3636	0.1	266.3
6077	22.902	4.3636	0.1	296.15
6078	22.719	4.3636	0.1	327.46
6079	22.536	4.3636	0.1	359.95
6080	22.353	4.3636	0.1	393.41
6081	22.171	4.3636	0.1	427.67
6082	21.988	4.3636	0.1	462.63
6083	21.805	4.3636	0.1	498.19
6084	21.622	4.3636	0.1	534.29
6085	21.439	4.3636	0.1	570.86
6086	21.256	4.3636	0.1	607.87
6087	21.073	4.3636	0.1	645.29
6088	20.89	4.3636	0.1	683.07
6089	20.707	4.3636	0.1	721.2
6090	20.524	4.3636	0.1	759.67
6091	20.341	4.3636	0.1	798.44
6092	20.158	4.3636	0.1	837.51
6093	19.975	4.3636	0.1	876.87
6094	19.792	4.3636	0.1	916.51
6095	19.609	4.3636	0.1	956.41
6096	19.426	4.3636	0.1	996.56
6097	19.243	4.3636	0.1	1037.
6098	19.06	4.3636	0.1	1077.6
6099	18.878	4.3636	0.1	1118.5
6100	18.695	4.3636	0.1	1159.6
6101	18.512	4.3636	0.1	1201.
6102	18.329	4.3636	0.1	1242.5
6103	18.146	4.3636	0.1	1284.3
6104	17.963	4.3636	0.1	1326.2
6105	17.78	4.3636	0.1	1368.4
6106	17.597	4.3636	0.1	1410.8
6107	17.414	4.3636	0.1	1453.3
6108	17.231	4.3636	0.1	1496.1
6109	17.048	4.3636	0.1	1539.
6110	16.865	4.3636	0.1	1582.1
6111	16.682	4.3636	0.1	1625.4
6112	16.499	4.3636	0.1	1668.8
6113	16.316	4.3636	0.1	1712.4
6114	16.133	4.3636	0.1	1756.1
6115	15.95	4.3636	0.1	1800.
6116	15.767	4.3636	0.1	1844.1
6117	15.584	4.3636	0.1	1888.2
6118	15.402	4.3636	0.1	1932.5
6119	15.219	4.3636	0.1	1977.
6120	15.036	4.3636	0.1	2021.5
6121	14.853	4.3636	0.1	2066.2
6122	14.67	4.3636	0.1	2111.
6123	14.487	4.3636	0.1	2155.9
6124	14.304	4.3636	0.1	2200.9
6125	14.121	4.3636	0.1	2246.1
6126	13.938	4.3636	0.1	2291.3
6127	13.755	4.3636	0.1	2336.7
6128	13.572	4.3636	0.1	2382.2
6129	13.389	4.3636	0.1	2427.9
6130	13.206	4.3636	0.1	2473.7
6131	13.023	4.3636	0.1	2519.7
6132	12.84	4.3636	0.1	2565.9
6133	12.657	4.3636	0.1	2612.4
6134	12.474	4.3636	0.1	2659.2
6135	12.291	4.3636	0.1	2706.4
6136	12.109	4.3636	0.1	2754.
6137	11.926	4.3636	0.1	2802.2
6138	11.743	4.3636	0.1	2851.
6139	11.56	4.3636	0.1	2900.7
6140	11.377	4.3636	0.1	2951.4
6141	11.194	4.3636	0.1	3003.4
6142	11.011	4.3636	0.1	3056.9
6143	10.828	4.3636	0.1	3112.3
6144	10.645	4.3636	0.1	3170.1
6145	10.462	4.3636	0.1	3231.1
6146	10.279	4.3636	0.1	3296.3
6147	10.096	4.3636	0.1	3367.3
6148	9.9132	4.3636	0.1	3446.7
6149	9.7302	4.3636	0.1	3538.5
6150	9.5473	4.3636	0.1	3649.4
6151	9.3643	4.3636	0.1	3790.7
6152	9.1814	4.3636	0.1	3980.5
6153	8.9985	4.3636	0.1	4253.1
6154	8.8155	4.3636	0.1	4654.7
6155	8.6326	4.3636	0.1	5301.
6156	8.4496	4.3636	0.1	6553.4
6157	23.817	4.5455	0.1	165.08
6158	23.634	4.5455	0.1	182.92
6159	23.451	4.5455	0.1	205.49
6160	23.268	4.5455	0.1	231.44
6161	23.085	4.5455	0.1	259.89
6162	22.902	4.5455	0.1	290.22
6163	22.719	4.5455	0.1	322.02
6164	22.536	4.5455	0.1	354.99
6165	22.353	4.5455	0.1	388.91
6166	22.171	4.5455	0.1	423.62
6167	21.988	4.5455	0.1	459.
6168	21.805	4.5455	0.1	494.96
6169	21.622	4.5455	0.1	531.43
6170	21.439	4.5455	0.1	568.35
6171	21.256	4.5455	0.1	605.68
6172	21.073	4.5455	0.1	643.39
6173	20.89	4.5455	0.1	681.44
6174	20.707	4.5455	0.1	719.83
6175	20.524	4.5455	0.1	758.52
6176	20.341	4.5455	0.1	797.51
6177	20.158	4.5455	0.1	836.78
6178	19.975	4.5455	0.1	876.32
6179	19.792	4.5455	0.1	916.12
6180	19.609	4.5455	0.1	956.17
6181	19.426	4.5455	0.1	996.47
6182	19.243	4.5455	0.1	1037.
6183	19.06	4.5455	0.1	1077.8
6184	18.878	4.5455	0.1	1118.8
6185	18.695	4.5455	0.1	1160.
6186	18.512	4.5455	0.1	1201.4
6187	18.329	4.5455	0.1	1243.1
6188	18.146	4.5455	0.1	1285.
6189	17.963	4.5455	0.1	1327.
6190	17.78	4.5455	0.1	1369.3
6191	17.597	4.5455	0.1	1411.7
6192	17.414	4.5455	0.1	1454.4
6193	17.231	4.5455	0.1	1497.2
6194	17.048	4.5455	0.1	1540.2
6195	16.865	4.5455	0.1	1583.4
6196	16.682	4.5455	0.1	1626.8
6197	16.499	4.5455	0.1	1670.3
6198	16.316	4.5455	0.1	1714.
6199	16.133	4.5455	0.1	1757.9
6200	15.95	4.5455	0.1	1801.9
6201	15.767	4.5455	0.1	1846.
6202	15.584	4.5455	0.1	1890.3
6203	15.402	4.5455	0.1	1934.8
6204	15.219	4.5455	0.1	1979.4
6205	15.036	4.5455	0.1	2024.1
6206	14.853	4.5455	0.1	2068.9
6207	14.67	4.5455	0.1	2113.9
6208	14.487	4.5455	0.1	2159.
6209	14.304	4.5455	0.1	2204.3
6210	14.121	4.5455	0.1	2249.6
6211	13.938	4.5455	0.1	2295.1
6212	13.755	4.5455	0.1	2340.7
6213	13.572	4.5455	0.1	2386.4
6214	13.389	4.5455	0.1	2432.2
6215	13.206	4.5455	0.1	2478.2
6216	13.023	4.5455	0.1	2524.4
6217	12.84	4.5455	0.1	2570.7
6218	12.657	4.5455	0.1	2617.2
6219	12.474	4.5455	0.1	2663.8
6220	12.291	4.5455	0.1	2710.7
6221	12.109	4.5455	0.1	2757.8
6222	11.926	4.5455	0.1	2805.1
6223	11.743	4.5455	0.1	2852.7
6224	11.56	4.5455	0.1	2900.5
6225	11.377	4.5455	0.1	2948.5
6226	11.194	4.5455	0.1	2996.8
6227	11.011	4.5455	0.1	3045.2
6228	10.828	4.5455	0.1	3093.9
6229	10.645	4.5455	0.1	3142.6
6230	10.462	4.5455	0.1	3191.6
6231	10.279	4.5455	0.1	3241.
6232	10.096	4.5455	0.1	3291.3
6233	9.9132	4.5455	0.1	3343.6
6234	9.7302	4.5455	0.1	3399.9
6235	9.5473	4.5455	0.1	3464.3
6236	9.3643	4.5455	0.1	3543.7
6237	9.1814	4.5455	0.1	3650.3
6238	8.9985	4.5455	0.1	3802.8
6239	8.8155	4.5455	0.1	4031.1
6240	8.6326	4.5455	0.1	4359.8
6241	8.4496	4.5455	0.1	5022.9
6242	23.817	4.7273	0.1	155.84
6243	23.634	4.7273	0.1	174.
6244	23.451	4.7273	0.1	197.06
6245	23.268	4.7273	0.1	223.59
6246	23.085	4.7273	0.1	252.64
6247	22.902	4.7273	0.1	283.59
6248	22.719	4.7273	0.1	315.99
6249	22.536	4.7273	0.1	349.55
6250	22.353	4.7273	0.1	384.03
6251	22.171	4.7273	0.1	419.26
6252	21.988	4.7273	0.1	455.13
6253	21.805	4.7273	0.1	491.54
6254	21.622	4.7273	0.1	528.43
6255	21.439	4.7273	0.1	565.73
6256	21.256	4.7273	0.1	603.41
6257	21.073	4.7273	0.1	641.44
6258	20.89	4.7273	0.1	679.8
6259	20.707	4.7273	0.1	718.45
6260	20.524	4.7273	0.1	757.39
6261	20.341	4.7273	0.1	796.6
6262	20.158	4.7273	0.1	836.08
6263	19.975	4.7273	0.1	875.81
6264	19.792	4.7273	0.1	915.79
6265	19.609	4.7273	0.1	956.01
6266	19.426	4.7273	0.1	996.46
6267	19.243	4.7273	0.1	1037.1
6268	19.06	4.7273	0.1	1078.
6269	18.878	4.7273	0.1	1119.2
6270	18.695	4.7273	0.1	1160.5
6271	18.512	4.7273	0.1	1202.1
6272	18.329	4.7273	0.1	1243.8
6273	18.146	4.7273	0.1	1285.8
6274	17.963	4.7273	0.1	1327.9
6275	17.78	4.7273	0.1	1370.3
6276	17.597	4.7273	0.1	1412.8
6277	17.414	4.7273	0.1	1455.6
6278	17.231	4.7273	0.1	1498.5
6279	17.048	4.7273	0.1	1541.6
6280	16.865	4.7273	0.1	1584.9
6281	16.682	4.7273	0.1	1628.4
6282	16.499	4.7273	0.1	1672.
6283	16.316	4.7273	0.1	1715.8
6284	16.133	4.7273	0.1	1759.8
6285	15.95	4.7273	0.1	1803.9
6286	15.767	4.7273	0.1	1848.2
6287	15.584	4.7273	0.1	1892.7
6288	15.402	4.7273	0.1	1937.3
6289	15.219	4.7273	0.1	1982.
6290	15.036	4.7273	0.1	2026.9
6291	14.853	4.7273	0.1	2071.9
6292	14.67	4.7273	0.1	2117.1
6293	14.487	4.7273	0.1	2162.4
6294	14.304	4.7273	0.1	2207.8
6295	14.121	4.7273	0.1	2253.4
6296	13.938	4.7273	0.1	2299.1
6297	13.755	4.7273	0.1	2344.9
6298	13.572	4.7273	0.1	2390.8
6299	13.389	4.7273	0.1	2436.8
6300	13.206	4.7273	0.1	2483.
6301	13.023	4.7273	0.1	2529.3
6302	12.84	4.7273	0.1	2575.6
6303	12.657	4.7273	0.1	2622.1
6304	12.474	4.7273	0.1	2668.6
6305	12.291	4.7273	0.1	2715.1
6306	12.109	4.7273	0.1	2761.6
6307	11.926	4.7273	0.1	2807.9
6308	11.743	4.7273	0.1	2854.1
6309	11.56	4.7273	0.1	2899.9
6310	11.377	4.7273	0.1	2945.2
6311	11.194	4.7273	0.1	2989.7
6312	11.011	4.7273	0.1	3033.1
6313	10.828	4.7273	0.1	3075.
6314	10.645	4.7273	0.1	3114.7
6315	10.462	4.7273	0.1	3151.8
6316	10.279	4.7273	0.1	3185.7
6317	10.096	4.7273	0.1	3215.5
6318	9.9132	4.7273	0.1	3241.1
6319	9.7302	4.7273	0.1	3262.5
6320	9.5473	4.7273	0.1	3280.8
6321	9.3643	4.7273	0.1	3299.3
6322	9.1814	4.7273	0.1	3324.4
6323	8.9985	4.7273	0.1	3366.9
6324	8.8155	4.7273	0.1	3442.7
6325	8.6326	4.7273	0.1	3580.2
6326	8.4496	4.7273	0.1	3969.7
6327	23.817	4.9091	0.1	145.18
6328	23.634	4.9091	0.1	163.75
6329	23.451	4.9091	0.1	187.47
6330	23.268	4.9091	0.1	214.75
6331	23.085	4.9091	0.1	244.58
6332	22.902	4.9091	0.1	276.31
6333	22.719	4.9091	0.1	309.47
6334	22.536	4.9091	0.1	343.74
6335	22.353	4.9091	0.1	378.87
6336	22.171	4.9091	0.1	414.71
6337	21.988	4.9091	0.1	451.13
6338	21.805	4.9091	0.1	488.04
6339	21.622	4.9091	0.1	525.38
6340	21.439	4.9091	0.1	563.1
6341	21.256	4.9091	0.1	601.16
6342	21.073	4.9091	0.1	639.53
6343	20.89	4.9091	0.1	678.19
6344	20.707	4.9091	0.1	717.13
6345	20.524	4.9091	0.1	756.33
6346	20.341	4.9091	0.1	795.78
6347	20.158	4.9091	0.1	835.47
6348	19.975	4.9091	0.1	875.4
6349	19.792	4.9091	0.1	915.56
6350	19.609	4.9091	0.1	955.95
6351	19.426	4.9091	0.1	996.56
6352	19.243	4.9091	0.1	1037.4
6353	19.06	4.9091	0.1	1078.4
6354	18.878	4.9091	0.1	1119.7
6355	18.695	4.9091	0.1	1161.1
6356	18.512	4.9091	0.1	1202.8
6357	18.329	4.9091	0.1	1244.7
6358	18.146	4.9091	0.1	1286.7
6359	17.963	4.9091	0.1	1329.
6360	17.78	4.9091	0.1	1371.5
6361	17.597	4.9091	0.1	1414.1
6362	17.414	4.9091	0.1	1456.9
6363	17.231	4.9091	0.1	1500.
6364	17.048	4.9091	0.1	1543.2
6365	16.865	4.9091	0.1	1586.6
6366	16.682	4.9091	0.1	1630.2
6367	16.499	4.9091	0.1	1673.9
6368	16.316	4.9091	0.1	1717.8
6369	16.133	4.9091	0.1	1761.9
6370	15.95	4.9091	0.1	1806.2
6371	15.767	4.9091	0.1	1850.6
6372	15.584	4.9091	0.1	1895.2
6373	15.402	4.9091	0.1	1940.
6374	15.219	4.9091	0.1	1984.9
6375	15.036	4.9091	0.1	2029.9
6376	14.853	4.9091	0.1	2075.1
6377	14.67	4.9091	0.1	2120.5
6378	14.487	4.9091	0.1	2166.
6379	14.304	4.9091	0.1	2211.6
6380	14.121	4.9091	0.1	2257.4
6381	13.938	4.9091	0.1	2303.3
6382	13.755	4.9091	0.1	2349.3
6383	13.572	4.9091	0.1	2395.4
6384	13.389	4.9091	0.1	2441.6
6385	13.206	4.9091	0.1	2487.9
6386	13.023	4.9091	0.1	2534.3
6387	12.84	4.9091	0.1	2580.7
6388	12.657	4.9091	0.1	2627.
6389	12.474	4.9091	0.1	2673.3
6390	12.291	4.9091	0.1	2719.4
6391	12.109	4.9091	0.1	2765.2
6392	11.926	4.9091	0.1	2810.6
6393	11.743	4.9091	0.1	2855.3
6394	11.56	4.9091	0.1	2899.1
6395	11.377	4.9091	0.1	2941.6
6396	11.194	4.9091	0.1	2982.4
6397	11.011	4.9091	0.1	3020.7
6398	10.828	4.9091	0.1	3055.9
6399	10.645	4.9091	0.1	3086.9
6400	10.462	4.9091	0.1	3112.5
6401	10.279	4.9091	0.1	3131.3
6402	10.096	4.9091	0.1	3141.7
6403	9.9132	4.9091	0.1	3141.8
6404	9.7302	4.9091	0.1	3129.8
6405	9.5473	4.9091	0.1	3104.7
6406	9.3643	4.9091	0.1	3066.3
6407	9.1814	4.9091	0.1	3017.2
6408	8.9985	4.9091	0.1	2965.1
6409	8.8155	4.9091	0.1	2925.5
6410	8.6326	4.9091	0.1	2931.7
6411	8.4496	4.9091	0.1	3165.4
6412	23.817	5.0909	0.1	132.9
6413	23.634	5.0909	0.1	152.05
6414	23.451	5.0909	0.1	176.66
6415	23.268	5.0909	0.1	204.95
6416	23.085	5.0909	0.1	235.82
6417	22.902	5.0909	0.1	268.55
6418	22.719	5.0909	0.1	302.63
6419	22.536	5.0909	0.1	337.73
6420	22.353	5.0909	0.1	373.61
6421	22.171	5.0909	0.1	410.12
6422	21.988	5.0909	0.1	447.14
6423	21.805	5.0909	0.1	484.59
6424	21.622	5.0909	0.1	522.41
6425	21.439	5.0909	0.1	560.56
6426	21.256	5.0909	0.1	599.01
6427	21.073	5.0909	0.1	637.73
6428	20.89	5.0909	0.1	676.71
6429	20.707	5.0909	0.1	715.94
6430	20.524	5.0909	0.1	755.4
6431	20.341	5.0909	0.1	795.09
6432	20.158	5.0909	0.1	835.
6433	19.975	5.0909	0.1	875.13
6434	19.792	5.0909	0.1	915.48
6435	19.609	5.0909	0.1	956.03
6436	19.426	5.0909	0.1	996.8
6437	19.243	5.0909	0.1	1037.8
6438	19.06	5.0909	0.1	1078.9
6439	18.878	5.0909	0.1	1120.3
6440	18.695	5.0909	0.1	1161.9
6441	18.512	5.0909	0.1	1203.7
6442	18.329	5.0909	0.1	1245.7
6443	18.146	5.0909	0.1	1287.8
6444	17.963	5.0909	0.1	1330.2
6445	17.78	5.0909	0.1	1372.8
6446	17.597	5.0909	0.1	1415.5
6447	17.414	5.0909	0.1	1458.5
6448	17.231	5.0909	0.1	1501.6
6449	17.048	5.0909	0.1	1544.9
6450	16.865	5.0909	0.1	1588.4
6451	16.682	5.0909	0.1	1632.1
6452	16.499	5.0909	0.1	1676.
6453	16.316	5.0909	0.1	1720.
6454	16.133	5.0909	0.1	1764.3
6455	15.95	5.0909	0.1	1808.6
6456	15.767	5.0909	0.1	1853.2
6457	15.584	5.0909	0.1	1898.
6458	15.402	5.0909	0.1	1942.9
6459	15.219	5.0909	0.1	1987.9
6460	15.036	5.0909	0.1	2033.2
6461	14.853	5.0909	0.1	2078.6
6462	14.67	5.0909	0.1	2124.1
6463	14.487	5.0909	0.1	2169.8
6464	14.304	5.0909	0.1	2215.6
6465	14.121	5.0909	0.1	2261.6
6466	13.938	5.0909	0.1	2307.7
6467	13.755	5.0909	0.1	2353.9
6468	13.572	5.0909	0.1	2400.2
6469	13.389	5.0909	0.1	2446.6
6470	13.206	5.0909	0.1	2493.
6471	13.023	5.0909	0.1	2539.4
6472	12.84	5.0909	0.1	2585.8
6473	12.657	5.0909	0.1	2632.
6474	12.474	5.0909	0.1	2678.
6475	12.291	5.0909	0.1	2723.6
6476	12.109	5.0909	0.1	2768.7
6477	11.926	5.0909	0.1	2813.1
6478	11.743	5.0909	0.1	2856.3
6479	11.56	5.0909	0.1	2898.
6480	11.377	5.0909	0.1	2937.8
6481	11.194	5.0909	0.1	2974.8
6482	11.011	5.0909	0.1	3008.2
6483	10.828	5.0909	0.1	3037.
6484	10.645	5.0909	0.1	3059.7
6485	10.462	5.0909	0.1	3074.5
6486	10.279	5.0909	0.1	3079.3
6487	10.096	5.0909	0.1	3071.6
6488	9.9132	5.0909	0.1	3048.4
6489	9.7302	5.0909	0.1	3006.3
6490	9.5473	5.0909	0.1	2942.2
6491	9.3643	5.0909	0.1	2853.8
6492	9.1814	5.0909	0.1	2741.1
6493	8.9985	5.0909	0.1	2610.6
6494	8.8155	5.0909	0.1	2480.4
6495	8.6326	5.0909	0.1	2393.
6496	8.4496	5.0909	0.1	2516.3
6497	23.817	5.2727	0.1	118.71
6498	23.634	5.2727	0.1	138.73
6499	23.451	5.2727	0.1	164.63
6500	23.268	5.2727	0.1	194.34
6501	23.085	5.2727	0.1	226.57
6502	22.902	5.2727	0.1	260.54
6503	22.719	5.2727	0.1	295.71
6504	22.536	5.2727	0.1	331.76
6505	22.353	5.2727	0.1	368.47
6506	22.171	5.2727	0.1	405.69
6507	21.988	5.2727	0.1	443.34
6508	21.805	5.2727	0.1	481.34
6509	21.622	5.2727	0.1	519.65
6510	21.439	5.2727	0.1	558.24
6511	21.256	5.2727	0.1	597.07
6512	21.073	5.2727	0.1	636.15
6513	20.89	5.2727	0.1	675.44
6514	20.707	5.2727	0.1	714.95
6515	20.524	5.2727	0.1	754.67
6516	20.341	5.2727	0.1	794.6
6517	20.158	5.2727	0.1	834.72
6518	19.975	5.2727	0.1	875.05
6519	19.792	5.2727	0.1	915.57
6520	19.609	5.2727	0.1	956.3
6521	19.426	5.2727	0.1	997.21
6522	19.243	5.2727	0.1	1038.3
6523	19.06	5.2727	0.1	1079.6
6524	18.878	5.2727	0.1	1121.1
6525	18.695	5.2727	0.1	1162.8
6526	18.512	5.2727	0.1	1204.7
6527	18.329	5.2727	0.1	1246.8
6528	18.146	5.2727	0.1	1289.1
6529	17.963	5.2727	0.1	1331.6
6530	17.78	5.2727	0.1	1374.3
6531	17.597	5.2727	0.1	1417.1
6532	17.414	5.2727	0.1	1460.2
6533	17.231	5.2727	0.1	1503.4
6534	17.048	5.2727	0.1	1546.8
6535	16.865	5.2727	0.1	1590.4
6536	16.682	5.2727	0.1	1634.2
6537	16.499	5.2727	0.1	1678.2
6538	16.316	5.2727	0.1	1722.4
6539	16.133	5.2727	0.1	1766.8
6540	15.95	5.2727	0.1	1811.3
6541	15.767	5.2727	0.1	1856.
6542	15.584	5.2727	0.1	1900.9
6543	15.402	5.2727	0.1	1946.
6544	15.219	5.2727	0.1	1991.2
6545	15.036	5.2727	0.1	2036.6
6546	14.853	5.2727	0.1	2082.2
6547	14.67	5.2727	0.1	2127.9
6548	14.487	5.2727	0.1	2173.8
6549	14.304	5.2727	0.1	2219.8
6550	14.121	5.2727	0.1	2266.
6551	13.938	5.2727	0.1	2312.3
6552	13.755	5.2727	0.1	2358.7
6553	13.572	5.2727	0.1	2405.1
6554	13.389	5.2727	0.1	2451.6
6555	13.206	5.2727	0.1	2498.1
6556	13.023	5.2727	0.1	2544.6
6557	12.84	5.2727	0.1	2590.9
6558	12.657	5.2727	0.1	2636.9
6559	12.474	5.2727	0.1	2682.6
6560	12.291	5.2727	0.1	2727.7
6561	12.109	5.2727	0.1	2772.
6562	11.926	5.2727	0.1	2815.3
6563	11.743	5.2727	0.1	2857.
6564	11.56	5.2727	0.1	2896.6
6565	11.377	5.2727	0.1	2933.6
6566	11.194	5.2727	0.1	2967.1
6567	11.011	5.2727	0.1	2995.9
6568	10.828	5.2727	0.1	3018.6
6569	10.645	5.2727	0.1	3033.5
6570	10.462	5.2727	0.1	3038.5
6571	10.279	5.2727	0.1	3030.7
6572	10.096	5.2727	0.1	3007.
6573	9.9132	5.2727	0.1	2963.5
6574	9.7302	5.2727	0.1	2895.7
6575	9.5473	5.2727	0.1	2799.1
6576	9.3643	5.2727	0.1	2669.4
6577	9.1814	5.2727	0.1	2505.2
6578	8.9985	5.2727	0.1	2311.2
6579	8.8155	5.2727	0.1	2106.3
6580	8.6326	5.2727	0.1	1938.8
6581	8.4496	5.2727	0.1	1967.7
6582	23.817	5.4545	0.1	102.21
6583	23.634	5.4545	0.1	123.69
6584	23.451	5.4545	0.1	151.58
6585	23.268	5.4545	0.1	183.29
6586	23.085	5.4545	0.1	217.28
6587	22.902	5.4545	0.1	252.71
6588	22.719	5.4545	0.1	289.1
6589	22.536	5.4545	0.1	326.16
6590	22.353	5.4545	0.1	363.72
6591	22.171	5.4545	0.1	401.67
6592	21.988	5.4545	0.1	439.94
6593	21.805	5.4545	0.1	478.49
6594	21.622	5.4545	0.1	517.27
6595	21.439	5.4545	0.1	556.27
6596	21.256	5.4545	0.1	595.48
6597	21.073	5.4545	0.1	634.89
6598	20.89	5.4545	0.1	674.48
6599	20.707	5.4545	0.1	714.26
6600	20.524	5.4545	0.1	754.23
6601	20.341	5.4545	0.1	794.37
6602	20.158	5.4545	0.1	834.7
6603	19.975	5.4545	0.1	875.22
6604	19.792	5.4545	0.1	915.91
6605	19.609	5.4545	0.1	956.8
6606	19.426	5.4545	0.1	997.86
6607	19.243	5.4545	0.1	1039.1
6608	19.06	5.4545	0.1	1080.6
6609	18.878	5.4545	0.1	1122.2
6610	18.695	5.4545	0.1	1164.
6611	18.512	5.4545	0.1	1206.
6612	18.329	5.4545	0.1	1248.2
6613	18.146	5.4545	0.1	1290.6
6614	17.963	5.4545	0.1	1333.2
6615	17.78	5.4545	0.1	1375.9
6616	17.597	5.4545	0.1	1418.9
6617	17.414	5.4545	0.1	1462.
6618	17.231	5.4545	0.1	1505.4
6619	17.048	5.4545	0.1	1548.9
6620	16.865	5.4545	0.1	1592.6
6621	16.682	5.4545	0.1	1636.6
6622	16.499	5.4545	0.1	1680.7
6623	16.316	5.4545	0.1	1725.
6624	16.133	5.4545	0.1	1769.4
6625	15.95	5.4545	0.1	1814.1
6626	15.767	5.4545	0.1	1859.
6627	15.584	5.4545	0.1	1904.
6628	15.402	5.4545	0.1	1949.2
6629	15.219	5.4545	0.1	1994.6
6630	15.036	5.4545	0.1	2040.2
6631	14.853	5.4545	0.1	2086.
6632	14.67	5.4545	0.1	2131.9
6633	14.487	5.4545	0.1	2178.
6634	14.304	5.4545	0.1	2224.2
6635	14.121	5.4545	0.1	2270.5
6636	13.938	5.4545	0.1	2317.
6637	13.755	5.4545	0.1	2363.5
6638	13.572	5.4545	0.1	2410.2
6639	13.389	5.4545	0.1	2456.8
6640	13.206	5.4545	0.1	2503.3
6641	13.023	5.4545	0.1	2549.8
6642	12.84	5.4545	0.1	2596.
6643	12.657	5.4545	0.1	2641.8
6644	12.474	5.4545	0.1	2687.1
6645	12.291	5.4545	0.1	2731.7
6646	12.109	5.4545	0.1	2775.2
6647	11.926	5.4545	0.1	2817.3
6648	11.743	5.4545	0.1	2857.4
6649	11.56	5.4545	0.1	2895.1
6650	11.377	5.4545	0.1	2929.4
6651	11.194	5.4545	0.1	2959.4
6652	11.011	5.4545	0.1	2983.8
6653	10.828	5.4545	0.1	3001.
6654	10.645	5.4545	0.1	3009.
6655	10.462	5.4545	0.1	3005.2
6656	10.279	5.4545	0.1	2986.5
6657	10.096	5.4545	0.1	2949.3
6658	9.9132	5.4545	0.1	2889.1
6659	9.7302	5.4545	0.1	2800.8
6660	9.5473	5.4545	0.1	2678.9
6661	9.3643	5.4545	0.1	2518.2
6662	9.1814	5.4545	0.1	2315.4
6663	8.9985	5.4545	0.1	2072.6
6664	8.8155	5.4545	0.1	1804.8
6665	8.6326	5.4545	0.1	1558.6
6666	8.4496	5.4545	0.1	1488.6
6667	23.817	5.6364	0.1	82.885
6668	23.634	5.6364	0.1	107.2
6669	23.451	5.6364	0.1	138.39
6670	23.268	5.6364	0.1	172.81
6671	23.085	5.6364	0.1	208.87
6672	22.902	5.6364	0.1	245.88
6673	22.719	5.6364	0.1	283.5
6674	22.536	5.6364	0.1	321.55
6675	22.353	5.6364	0.1	359.92
6676	22.171	5.6364	0.1	398.55
6677	21.988	5.6364	0.1	437.39
6678	21.805	5.6364	0.1	476.43
6679	21.622	5.6364	0.1	515.64
6680	21.439	5.6364	0.1	555.03
6681	21.256	5.6364	0.1	594.57
6682	21.073	5.6364	0.1	634.28
6683	20.89	5.6364	0.1	674.14
6684	20.707	5.6364	0.1	714.16
6685	20.524	5.6364	0.1	754.35
6686	20.341	5.6364	0.1	794.7
6687	20.158	5.6364	0.1	835.21
6688	19.975	5.6364	0.1	875.89
6689	19.792	5.6364	0.1	916.75
6690	19.609	5.6364	0.1	957.77
6691	19.426	5.6364	0.1	998.97
6692	19.243	5.6364	0.1	1040.3
6693	19.06	5.6364	0.1	1081.9
6694	18.878	5.6364	0.1	1123.6
6695	18.695	5.6364	0.1	1165.6
6696	18.512	5.6364	0.1	1207.7
6697	18.329	5.6364	0.1	1250.
6698	18.146	5.6364	0.1	1292.4
6699	17.963	5.6364	0.1	1335.1
6700	17.78	5.6364	0.1	1378.
6701	17.597	5.6364	0.1	1421.
6702	17.414	5.6364	0.1	1464.3
6703	17.231	5.6364	0.1	1507.7
6704	17.048	5.6364	0.1	1551.4
6705	16.865	5.6364	0.1	1595.2
6706	16.682	5.6364	0.1	1639.2
6707	16.499	5.6364	0.1	1683.4
6708	16.316	5.6364	0.1	1727.8
6709	16.133	5.6364	0.1	1772.5
6710	15.95	5.6364	0.1	1817.3
6711	15.767	5.6364	0.1	1862.3
6712	15.584	5.6364	0.1	1907.4
6713	15.402	5.6364	0.1	1952.8
6714	15.219	5.6364	0.1	1998.4
6715	15.036	5.6364	0.1	2044.1
6716	14.853	5.6364	0.1	2090.1
6717	14.67	5.6364	0.1	2136.2
6718	14.487	5.6364	0.1	2182.4
6719	14.304	5.6364	0.1	2228.8
6720	14.121	5.6364	0.1	2275.3
6721	13.938	5.6364	0.1	2322.
6722	13.755	5.6364	0.1	2368.7
6723	13.572	5.6364	0.1	2415.4
6724	13.389	5.6364	0.1	2462.1
6725	13.206	5.6364	0.1	2508.7
6726	13.023	5.6364	0.1	2555.1
6727	12.84	5.6364	0.1	2601.1
6728	12.657	5.6364	0.1	2646.7
6729	12.474	5.6364	0.1	2691.6
6730	12.291	5.6364	0.1	2735.6
6731	12.109	5.6364	0.1	2778.3
6732	11.926	5.6364	0.1	2819.2
6733	11.743	5.6364	0.1	2857.9
6734	11.56	5.6364	0.1	2893.6
6735	11.377	5.6364	0.1	2925.4
6736	11.194	5.6364	0.1	2952.1
6737	11.011	5.6364	0.1	2972.5
6738	10.828	5.6364	0.1	2984.6
6739	10.645	5.6364	0.1	2986.4
6740	10.462	5.6364	0.1	2975.
6741	10.279	5.6364	0.1	2947.3
6742	10.096	5.6364	0.1	2899.2
6743	9.9132	5.6364	0.1	2826.
6744	9.7302	5.6364	0.1	2722.6
6745	9.5473	5.6364	0.1	2583.1
6746	9.3643	5.6364	0.1	2401.9
6747	9.1814	5.6364	0.1	2174.4
6748	8.9985	5.6364	0.1	1899.5
6749	8.8155	5.6364	0.1	1584.2
6750	8.6326	5.6364	0.1	1260.2
6751	8.4496	5.6364	0.1	1064.1
6752	23.817	5.8182	0.1	61.344
6753	23.634	5.8182	0.1	93.253
6754	23.451	5.8182	0.1	129.73
6755	23.268	5.8182	0.1	167.44
6756	23.085	5.8182	0.1	205.7
6757	22.902	5.8182	0.1	244.28
6758	22.719	5.8182	0.1	283.08
6759	22.536	5.8182	0.1	322.05
6760	22.353	5.8182	0.1	361.16
6761	22.171	5.8182	0.1	400.4
6762	21.988	5.8182	0.1	439.75
6763	21.805	5.8182	0.1	479.21
6764	21.622	5.8182	0.1	518.79
6765	21.439	5.8182	0.1	558.48
6766	21.256	5.8182	0.1	598.3
6767	21.073	5.8182	0.1	638.23
6768	20.89	5.8182	0.1	678.3
6769	20.707	5.8182	0.1	718.49
6770	20.524	5.8182	0.1	758.83
6771	20.341	5.8182	0.1	799.31
6772	20.158	5.8182	0.1	839.93
6773	19.975	5.8182	0.1	880.71
6774	19.792	5.8182	0.1	921.64
6775	19.609	5.8182	0.1	962.74
6776	19.426	5.8182	0.1	1004.
6777	19.243	5.8182	0.1	1045.4
6778	19.06	5.8182	0.1	1087.
6779	18.878	5.8182	0.1	1128.8
6780	18.695	5.8182	0.1	1170.8
6781	18.512	5.8182	0.1	1212.9
6782	18.329	5.8182	0.1	1255.2
6783	18.146	5.8182	0.1	1297.7
6784	17.963	5.8182	0.1	1340.4
6785	17.78	5.8182	0.1	1383.3
6786	17.597	5.8182	0.1	1426.4
6787	17.414	5.8182	0.1	1469.7
6788	17.231	5.8182	0.1	1513.2
6789	17.048	5.8182	0.1	1556.8
6790	16.865	5.8182	0.1	1600.7
6791	16.682	5.8182	0.1	1644.8
6792	16.499	5.8182	0.1	1689.
6793	16.316	5.8182	0.1	1733.5
6794	16.133	5.8182	0.1	1778.2
6795	15.95	5.8182	0.1	1823.
6796	15.767	5.8182	0.1	1868.1
6797	15.584	5.8182	0.1	1913.4
6798	15.402	5.8182	0.1	1958.8
6799	15.219	5.8182	0.1	2004.5
6800	15.036	5.8182	0.1	2050.3
6801	14.853	5.8182	0.1	2096.4
6802	14.67	5.8182	0.1	2142.5
6803	14.487	5.8182	0.1	2188.9
6804	14.304	5.8182	0.1	2235.4
6805	14.121	5.8182	0.1	2282.
6806	13.938	5.8182	0.1	2328.7
6807	13.755	5.8182	0.1	2375.5
6808	13.572	5.8182	0.1	2422.3
6809	13.389	5.8182	0.1	2469.
6810	13.206	5.8182	0.1	2515.5
6811	13.023	5.8182	0.1	2561.8
6812	12.84	5.8182	0.1	2607.7
6813	12.657	5.8182	0.1	2652.9
6814	12.474	5.8182	0.1	2697.4
6815	12.291	5.8182	0.1	2740.7
6816	12.109	5.8182	0.1	2782.5
6817	11.926	5.8182	0.1	2822.3
6818	11.743	5.8182	0.1	2859.5
6819	11.56	5.8182	0.1	2893.3
6820	11.377	5.8182	0.1	2922.7
6821	11.194	5.8182	0.1	2946.5
6822	11.011	5.8182	0.1	2963.2
6823	10.828	5.8182	0.1	2970.9
6824	10.645	5.8182	0.1	2967.4
6825	10.462	5.8182	0.1	2949.8
6826	10.279	5.8182	0.1	2915.
6827	10.096	5.8182	0.1	2858.8
6828	9.9132	5.8182	0.1	2776.8
6829	9.7302	5.8182	0.1	2664.
6830	9.5473	5.8182	0.1	2515.
6831	9.3643	5.8182	0.1	2324.4
6832	9.1814	5.8182	0.1	2087.6
6833	8.9985	5.8182	0.1	1801.3
6834	8.8155	5.8182	0.1	1465.4
6835	8.6326	5.8182	0.1	1088.1
6836	8.4496	5.8182	0.1	728.41
6837	0.18409	0.18182	0.1	4061.6
6838	0.18409	0.36364	0.1	4560.9
6839	0.18409	0.54545	0.1	5226.9
6840	0.18409	0.72727	0.1	5747.8
6841	0.18409	0.90909	0.1	6138.
6842	0.18409	1.0909	0.1	6432.2
6843	0.18409	1.2727	0.1	6657.1
6844	0.18409	1.4545	0.1	6831.4
6845	0.18409	1.6364	0.1	6967.5
6846	0.18409	1.8182	0.1	7074.2
6847	0.18409	2.	0.1	7157.5
6848	0.18409	2.1818	0.1	7221.8
6849	0.18409	2.3636	0.1	7270.1
6850	0.18409	2.5455	0.1	7304.7
6851	0.18409	2.7273	0.1	7327.
6852	0.18409	2.9091	0.1	7337.9
6853	0.18409	3.0909	0.1	7337.9
6854	0.18409	3.2727	0.1	7327.
6855	0.18409	3.4545	0.1	7304.7
6856	0.18409	3.6364	0.1	7270.1
6857	0.18409	3.8182	0.1	7221.8
6858	0.18409	4.	0.1	7157.5
6859	0.18409	4.1818	0.1	7074.2
6860	0.18409	4.3636	0.1	6967.5
6861	0.18409	4.5455	0.1	6831.4
6862	0.18409	4.7273	0.1	6657.1
6863	0.18409	4.9091	0.1	6432.2
6864	0.18409	5.0909	0.1	6138.
6865	0.18409	5.2727	0.1	5747.8
6866	0.18409	5.4545	0.1	5226.9
6867	0.18409	5.6364	0.1	4560.9
6868	0.18409	5.8182	0.1	4061.6
6869	0.36818	0.18182	0.1	5043.3
6870	0.36818	0.36364	0.1	4788.3
6871	0.36818	0.54545	0.1	4842.2
6872	0.36818	0.72727	0.1	5032.
6873	0.36818	0.90909	0.1	5246.1
6874	0.36818	1.0909	0.1	5443.1
6875	0.36818	1.2727	0.1	5612.1
6876	0.36818	1.4545	0.1	5752.6
6877	0.36818	1.6364	0.1	5867.9
6878	0.36818	1.8182	0.1	5961.3
6879	0.36818	2.	0.1	6036.1
6880	0.36818	2.1818	0.1	6094.8
6881	0.36818	2.3636	0.1	6139.6
6882	0.36818	2.5455	0.1	6171.9
6883	0.36818	2.7273	0.1	6192.9
6884	0.36818	2.9091	0.1	6203.2
6885	0.36818	3.0909	0.1	6203.2
6886	0.36818	3.2727	0.1	6192.9
6887	0.36818	3.4545	0.1	6171.9
6888	0.36818	3.6364	0.1	6139.6
6889	0.36818	3.8182	0.1	6094.8
6890	0.36818	4.	0.1	6036.1
6891	0.36818	4.1818	0.1	5961.3
6892	0.36818	4.3636	0.1	5867.9
6893	0.36818	4.5455	0.1	5752.6
6894	0.36818	4.7273	0.1	5612.1
6895	0.36818	4.9091	0.1	5443.1
6896	0.36818	5.0909	0.1	5246.1
6897	0.36818	5.2727	0.1	5032.
6898	0.36818	5.4545	0.1	4842.2
6899	0.36818	5.6364	0.1	4788.3
6900	0.36818	5.8182	0.1	5043.3
6901	0.55227	0.18182	0.1	5584.1
6902	0.55227	0.36364	0.1	5355.4
6903	0.55227	0.54545	0.1	5292.4
6904	0.55227	0.72727	0.1	5335.8
6905	0.55227	0.90909	0.1	5440.2
6906	0.55227	1.0909	0.1	5566.6
6907	0.55227	1.2727	0.1	5692.5
6908	0.55227	1.4545	0.1	5807.6
6909	0.55227	1.6364	0.1	5908.1
6910	0.55227	1.8182	0.1	5993.3
6911	0.55227	2.	0.1	6063.8
6912	0.55227	2.1818	0.1	6120.4
6913	0.55227	2.3636	0.1	6164.4
6914	0.55227	2.5455	0.1	6196.5
6915	0.55227	2.7273	0.1	6217.5
6916	0.55227	2.9091	0.1	6227.9
6917	0.55227	3.0909	0.1	6227.9
6918	0.55227	3.2727	0.1	6217.5
6919	0.55227	3.4545	0.1	6196.5
6920	0.55227	3.6364	0.1	6164.4
6921	0.55227	3.8182	0.1	6120.4
6922	0.55227	4.	0.1	6063.8
6923	0.55227	4.1818	0.1	5993.3
6924	0.55227	4.3636	0.1	5908.1
6925	0.55227	4.5455	0.1	5807.6
6926	0.55227	4.7273	0.1	5692.5
6927	0.55227	4.9091	0.1	5566.6
6928	0.55227	5.0909	0.1	5440.2
6929	0.55227	5.2727	0.1	5335.8
6930	0.55227	5.4545	0.1	5292.4
6931	0.55227	5.6364	0.1	5355.4
6932	0.55227	5.8182	0.1	5584.1
6933	0.73636	0.18182	0.1	5843.1
6934	0.73636	0.36364	0.1	5608.7
6935	0.73636	0.54545	0.1	5485.2
6936	0.73636	0.72727	0.1	5438.1
6937	0.73636	0.90909	0.1	5451.6
6938	0.73636	1.0909	0.1	5503.4
6939	0.73636	1.2727	0.1	5573.8
6940	0.73636	1.4545	0.1	5649.6
6941	0.73636	1.6364	0.1	5722.8
6942	0.73636	1.8182	0.1	5789.1
6943	0.73636	2.	0.1	5846.7
6944	0.73636	2.1818	0.1	5894.6
6945	0.73636	2.3636	0.1	5932.7
6946	0.73636	2.5455	0.1	5961.1
6947	0.73636	2.7273	0.1	5979.8
6948	0.73636	2.9091	0.1	5989.2
6949	0.73636	3.0909	0.1	5989.2
6950	0.73636	3.2727	0.1	5979.8
6951	0.73636	3.4545	0.1	5961.1
6952	0.73636	3.6364	0.1	5932.7
6953	0.73636	3.8182	0.1	5894.6
6954	0.73636	4.	0.1	5846.7
6955	0.73636	4.1818	0.1	5789.1
6956	0.73636	4.3636	0.1	5722.8
6957	0.73636	4.5455	0.1	5649.6
6958	0.73636	4.7273	0.1	5573.8
6959	0.73636	4.9091	0.1	5503.4
6960	0.73636	5.0909	0.1	5451.6
6961	0.73636	5.2727	0.1	5438.1
6962	0.73636	5.4545	0.1	5485.2
6963	0.73636	5.6364	0.1	5608.7
6964	0.73636	5.8182	0.1	5843.1
6965	0.92045	0.18182	0.1	5987.5
6966	0.92045	0.36364	0.1	5777.4
6967	0.92045	0.54545	0.1	5644.3
6968	0.92045	0.72727	0.1	5561.2
6969	0.92045	0.90909	0.1	5525.4
6970	0.92045	1.0909	0.1	5527.1
6971	0.92045	1.2727	0.1	5553.7
6972	0.92045	1.4545	0.1	5594.2
6973	0.92045	1.6364	0.1	5640.3
6974	0.92045	1.8182	0.1	5686.5
6975	0.92045	2.	0.1	5729.3
6976	0.92045	2.1818	0.1	5766.7
6977	0.92045	2.3636	0.1	5797.3
6978	0.92045	2.5455	0.1	5820.6
6979	0.92045	2.7273	0.1	5836.3
6980	0.92045	2.9091	0.1	5844.1
6981	0.92045	3.0909	0.1	5844.1
6982	0.92045	3.2727	0.1	5836.3
6983	0.92045	3.4545	0.1	5820.6
6984	0.92045	3.6364	0.1	5797.3
6985	0.92045	3.8182	0.1	5766.7
6986	0.92045	4.	0.1	5729.3
6987	0.92045	4.1818	0.1	5686.5
6988	0.92045	4.3636	0.1	5640.3
6989	0.92045	4.5455	0.1	5594.2
6990	0.92045	4.7273	0.1	5553.7
6991	0.92045	4.9091	0.1	5527.1
6992	0.92045	5.0909	0.1	5525.4
6993	0.92045	5.2727	0.1	5561.2
6994	0.92045	5.4545	0.1	5644.3
6995	0.92045	5.6364	0.1	5777.4
6996	0.92045	5.8182	0.1	5987.5
6997	1.1045	0.18182	0.1	6055.9
6998	1.1045	0.36364	0.1	5865.6
6999	1.1045	0.54545	0.1	5732.8
7000	1.1045	0.72727	0.1	5634.3
7001	1.1045	0.90909	0.1	5571.
7002	1.1045	1.0909	0.1	5539.6
7003	1.1045	1.2727	0.1	5533.2
7004	1.1045	1.4545	0.1	5544.
7005	1.1045	1.6364	0.1	5565.3
7006	1.1045	1.8182	0.1	5591.5
7007	1.1045	2.	0.1	5618.7
7008	1.1045	2.1818	0.1	5644.3
7009	1.1045	2.3636	0.1	5666.3
7010	1.1045	2.5455	0.1	5683.5
7011	1.1045	2.7273	0.1	5695.4
7012	1.1045	2.9091	0.1	5701.4
7013	1.1045	3.0909	0.1	5701.4
7014	1.1045	3.2727	0.1	5695.4
7015	1.1045	3.4545	0.1	5683.5
7016	1.1045	3.6364	0.1	5666.3
7017	1.1045	3.8182	0.1	5644.3
7018	1.1045	4.	0.1	5618.7
7019	1.1045	4.1818	0.1	5591.5
7020	1.1045	4.3636	0.1	5565.3
7021	1.1045	4.5455	0.1	5544.
7022	1.1045	4.7273	0.1	5533.2
7023	1.1045	4.9091	0.1	5539.6
7024	1.1045	5.0909	0.1	5571.
7025	1.1045	5.2727	0.1	5634.3
7026	1.1045	5.4545	0.1	5732.8
7027	1.1045	5.6364	0.1	5865.6
7028	1.1045	5.8182	0.1	6055.9
7029	1.2886	0.18182	0.1	6079.4
7030	1.2886	0.36364	0.1	5908.1
7031	1.2886	0.54545	0.1	5781.1
7032	1.2886	0.72727	0.1	5678.3
7033	1.2886	0.90909	0.1	5601.5
7034	1.2886	1.0909	0.1	5550.2
7035	1.2886	1.2727	0.1	5521.2
7036	1.2886	1.4545	0.1	5509.6
7037	1.2886	1.6364	0.1	5510.4
7038	1.2886	1.8182	0.1	5519.1
7039	1.2886	2.	0.1	5531.9
7040	1.2886	2.1818	0.1	5546.
7041	1.2886	2.3636	0.1	5559.3
7042	1.2886	2.5455	0.1	5570.4
7043	1.2886	2.7273	0.1	5578.2
7044	1.2886	2.9091	0.1	5582.3
7045	1.2886	3.0909	0.1	5582.3
7046	1.2886	3.2727	0.1	5578.2
7047	1.2886	3.4545	0.1	5570.4
7048	1.2886	3.6364	0.1	5559.3
7049	1.2886	3.8182	0.1	5546.
7050	1.2886	4.	0.1	5531.9
7051	1.2886	4.1818	0.1	5519.1
7052	1.2886	4.3636	0.1	5510.4
7053	1.2886	4.5455	0.1	5509.6
7054	1.2886	4.7273	0.1	5521.2
7055	1.2886	4.9091	0.1	5550.2
7056	1.2886	5.0909	0.1	5601.5
7057	1.2886	5.2727	0.1	5678.3
7058	1.2886	5.4545	0.1	5781.1
7059	1.2886	5.6364	0.1	5908.1
7060	1.2886	5.8182	0.1	6079.4
7061	1.4727	0.18182	0.1	6072.7
7062	1.4727	0.36364	0.1	5917.9
7063	1.4727	0.54545	0.1	5798.1
7064	1.4727	0.72727	0.1	5696.1
7065	1.4727	0.90909	0.1	5613.3
7066	1.4727	1.0909	0.1	5550.7
7067	1.4727	1.2727	0.1	5506.9
7068	1.4727	1.4545	0.1	5479.3
7069	1.4727	1.6364	0.1	5464.3
7070	1.4727	1.8182	0.1	5458.5
7071	1.4727	2.	0.1	5458.8
7072	1.4727	2.1818	0.1	5462.6
7073	1.4727	2.3636	0.1	5467.8
7074	1.4727	2.5455	0.1	5472.9
7075	1.4727	2.7273	0.1	5476.8
7076	1.4727	2.9091	0.1	5479.
7077	1.4727	3.0909	0.1	5479.
7078	1.4727	3.2727	0.1	5476.8
7079	1.4727	3.4545	0.1	5472.9
7080	1.4727	3.6364	0.1	5467.8
7081	1.4727	3.8182	0.1	5462.6
7082	1.4727	4.	0.1	5458.8
7083	1.4727	4.1818	0.1	5458.5
7084	1.4727	4.3636	0.1	5464.3
7085	1.4727	4.5455	0.1	5479.3
7086	1.4727	4.7273	0.1	5506.9
7087	1.4727	4.9091	0.1	5550.7
7088	1.4727	5.0909	0.1	5613.3
7089	1.4727	5.2727	0.1	5696.1
7090	1.4727	5.4545	0.1	5798.1
7091	1.4727	5.6364	0.1	5917.9
7092	1.4727	5.8182	0.1	6072.7
7093	1.6568	0.18182	0.1	6045.9
7094	1.6568	0.36364	0.1	5905.7
7095	1.6568	0.54545	0.1	5793.5
7096	1.6568	0.72727	0.1	5694.7
7097	1.6568	0.90909	0.1	5610.4
7098	1.6568	1.0909	0.1	5541.9
7099	1.6568	1.2727	0.1	5489.2
7100	1.6568	1.4545	0.1	5450.6
7101	1.6568	1.6364	0.1	5424.
7102	1.6568	1.8182	0.1	5407.
7103	1.6568	2.	0.1	5397.1
7104	1.6568	2.1818	0.1	5392.1
7105	1.6568	2.3636	0.1	5390.2
7106	1.6568	2.5455	0.1	5390.
7107	1.6568	2.7273	0.1	5390.4
7108	1.6568	2.9091	0.1	5390.8
7109	1.6568	3.0909	0.1	5390.8
7110	1.6568	3.2727	0.1	5390.4
7111	1.6568	3.4545	0.1	5390.
7112	1.6568	3.6364	0.1	5390.2
7113	1.6568	3.8182	0.1	5392.1
7114	1.6568	4.	0.1	5397.1
7115	1.6568	4.1818	0.1	5407.
7116	1.6568	4.3636	0.1	5424.
7117	1.6568	4.5455	0.1	5450.6
7118	1.6568	4.7273	0.1	5489.2
7119	1.6568	4.9091	0.1	5541.9
7120	1.6568	5.0909	0.1	5610.4
7121	1.6568	5.2727	0.1	5694.7
7122	1.6568	5.4545	0.1	5793.5
7123	1.6568	5.6364	0.1	5905.7
7124	1.6568	5.8182	0.1	6045.9
7125	1.8409	0.18182	0.1	6005.2
7126	1.8409	0.36364	0.1	5877.9
7127	1.8409	0.54545	0.1	5773.2
7128	1.8409	0.72727	0.1	5678.7
7129	1.8409	0.90909	0.1	5595.4
7130	1.8409	1.0909	0.1	5524.7
7131	1.8409	1.2727	0.1	5466.8
7132	1.8409	1.4545	0.1	5421.2
7133	1.8409	1.6364	0.1	5386.6
7134	1.8409	1.8182	0.1	5361.3
7135	1.8409	2.	0.1	5343.5
7136	1.8409	2.1818	0.1	5331.5
7137	1.8409	2.3636	0.1	5323.8
7138	1.8409	2.5455	0.1	5319.
7139	1.8409	2.7273	0.1	5316.4
7140	1.8409	2.9091	0.1	5315.2
7141	1.8409	3.0909	0.1	5315.2
7142	1.8409	3.2727	0.1	5316.4
7143	1.8409	3.4545	0.1	5319.
7144	1.8409	3.6364	0.1	5323.8
7145	1.8409	3.8182	0.1	5331.5
7146	1.8409	4.	0.1	5343.5
7147	1.8409	4.1818	0.1	5361.3
7148	1.8409	4.3636	0.1	5386.6
7149	1.8409	4.5455	0.1	5421.2
7150	1.8409	4.7273	0.1	5466.8
7151	1.8409	4.9091	0.1	5524.7
7152	1.8409	5.0909	0.1	5595.4
7153	1.8409	5.2727	0.1	5678.7
7154	1.8409	5.4545	0.1	5773.2
7155	1.8409	5.6364	0.1	5877.9
7156	1.8409	5.8182	0.1	6005.2
7157	2.025	0.18182	0.1	5955.
7158	2.025	0.36364	0.1	5839.
7159	2.025	0.54545	0.1	5741.4
7160	2.025	0.72727	0.1	5651.8
7161	2.025	0.90909	0.1	5571.1
7162	2.025	1.0909	0.1	5500.3
7163	2.025	1.2727	0.1	5440.1
7164	2.025	1.4545	0.1	5390.4
7165	2.025	1.6364	0.1	5350.6
7166	2.025	1.8182	0.1	5319.5
7167	2.025	2.	0.1	5295.9
7168	2.025	2.1818	0.1	5278.5
7169	2.025	2.3636	0.1	5266.1
7170	2.025	2.5455	0.1	5257.8
7171	2.025	2.7273	0.1	5252.7
7172	2.025	2.9091	0.1	5250.3
7173	2.025	3.0909	0.1	5250.3
7174	2.025	3.2727	0.1	5252.7
7175	2.025	3.4545	0.1	5257.8
7176	2.025	3.6364	0.1	5266.1
7177	2.025	3.8182	0.1	5278.5
7178	2.025	4.	0.1	5295.9
7179	2.025	4.1818	0.1	5319.5
7180	2.025	4.3636	0.1	5350.6
7181	2.025	4.5455	0.1	5390.4
7182	2.025	4.7273	0.1	5440.1
7183	2.025	4.9091	0.1	5500.3
7184	2.025	5.0909	0.1	5571.1
7185	2.025	5.2727	0.1	5651.8
7186	2.025	5.4545	0.1	5741.4
7187	2.025	5.6364	0.1	5839.
7188	2.025	5.8182	0.1	5955.
7189	2.2091	0.18182	0.1	5898.1
7190	2.2091	0.36364	0.1	5792.2
7191	2.2091	0.54545	0.1	5701.4
7192	2.2091	0.72727	0.1	5617.
7193	2.2091	0.90909	0.1	5539.5
7194	2.2091	1.0909	0.1	5470.1
7195	2.2091	1.2727	0.1	5409.5
7196	2.2091	1.4545	0.1	5357.9
7197	2.2091	1.6364	0.1	5314.9
7198	2.2091	1.8182	0.1	5280.1
7199	2.2091	2.	0.1	5252.5
7200	2.2091	2.1818	0.1	5231.2
7201	2.2091	2.3636	0.1	5215.4
7202	2.2091	2.5455	0.1	5204.3
7203	2.2091	2.7273	0.1	5197.3
7204	2.2091	2.9091	0.1	5193.9
7205	2.2091	3.0909	0.1	5193.9
7206	2.2091	3.2727	0.1	5197.3
7207	2.2091	3.4545	0.1	5204.3
7208	2.2091	3.6364	0.1	5215.4
7209	2.2091	3.8182	0.1	5231.2
7210	2.2091	4.	0.1	5252.5
7211	2.2091	4.1818	0.1	5280.1
7212	2.2091	4.3636	0.1	5314.9
7213	2.2091	4.5455	0.1	5357.9
7214	2.2091	4.7273	0.1	5409.5
7215	2.2091	4.9091	0.1	5470.1
7216	2.2091	5.0909	0.1	5539.5
7217	2.2091	5.2727	0.1	5617.
7218	2.2091	5.4545	0.1	5701.4
7219	2.2091	5.6364	0.1	5792.2
7220	2.2091	5.8182	0.1	5898.1
7221	2.3932	0.18182	0.1	5836.6
7222	2.3932	0.36364	0.1	5739.9
7223	2.3932	0.54545	0.1	5655.5
7224	2.3932	0.72727	0.1	5576.2
7225	2.3932	0.90909	0.1	5502.5
7226	2.3932	1.0909	0.1	5435.5
7227	2.3932	1.2727	0.1	5375.7
7228	2.3932	1.4545	0.1	5323.6
7229	2.3932	1.6364	0.1	5279.2
7230	2.3932	1.8182	0.1	5242.2
7231	2.3932	2.	0.1	5212.
7232	2.3932	2.1818	0.1	5188.2
7233	2.3932	2.3636	0.1	5170.
7234	2.3932	2.5455	0.1	5156.9
7235	2.3932	2.7273	0.1	5148.5
7236	2.3932	2.9091	0.1	5144.4
7237	2.3932	3.0909	0.1	5144.4
7238	2.3932	3.2727	0.1	5148.5
7239	2.3932	3.4545	0.1	5156.9
7240	2.3932	3.6364	0.1	5170.
7241	2.3932	3.8182	0.1	5188.2
7242	2.3932	4.	0.1	5212.
7243	2.3932	4.1818	0.1	5242.2
7244	2.3932	4.3636	0.1	5279.2
7245	2.3932	4.5455	0.1	5323.6
7246	2.3932	4.7273	0.1	5375.7
7247	2.3932	4.9091	0.1	5435.5
7248	2.3932	5.0909	0.1	5502.5
7249	2.3932	5.2727	0.1	5576.2
7250	2.3932	5.4545	0.1	5655.5
7251	2.3932	5.6364	0.1	5739.9
7252	2.3932	5.8182	0.1	5836.6
7253	2.5773	0.18182	0.1	5772.
7254	2.5773	0.36364	0.1	5683.6
7255	2.5773	0.54545	0.1	5605.2
7256	2.5773	0.72727	0.1	5531.
7257	2.5773	0.90909	0.1	5461.4
7258	2.5773	1.0909	0.1	5397.2
7259	2.5773	1.2727	0.1	5339.2
7260	2.5773	1.4545	0.1	5287.8
7261	2.5773	1.6364	0.1	5243.1
7262	2.5773	1.8182	0.1	5205.2
7263	2.5773	2.	0.1	5173.6
7264	2.5773	2.1818	0.1	5148.2
7265	2.5773	2.3636	0.1	5128.6
7266	2.5773	2.5455	0.1	5114.2
7267	2.5773	2.7273	0.1	5104.8
7268	2.5773	2.9091	0.1	5100.2
7269	2.5773	3.0909	0.1	5100.2
7270	2.5773	3.2727	0.1	5104.8
7271	2.5773	3.4545	0.1	5114.2
7272	2.5773	3.6364	0.1	5128.6
7273	2.5773	3.8182	0.1	5148.2
7274	2.5773	4.	0.1	5173.6
7275	2.5773	4.1818	0.1	5205.2
7276	2.5773	4.3636	0.1	5243.1
7277	2.5773	4.5455	0.1	5287.8
7278	2.5773	4.7273	0.1	5339.2
7279	2.5773	4.9091	0.1	5397.2
7280	2.5773	5.0909	0.1	5461.4
7281	2.5773	5.2727	0.1	5531.
7282	2.5773	5.4545	0.1	5605.2
7283	2.5773	5.6364	0.1	5683.6
7284	2.5773	5.8182	0.1	5772.
7285	2.7614	0.18182	0.1	5705.3
7286	2.7614	0.36364	0.1	5624.4
7287	2.7614	0.54545	0.1	5551.8
7288	2.7614	0.72727	0.1	5482.6
7289	2.7614	0.90909	0.1	5417.1
7290	2.7614	1.0909	0.1	5356.2
7291	2.7614	1.2727	0.1	5300.6
7292	2.7614	1.4545	0.1	5250.6
7293	2.7614	1.6364	0.1	5206.5
7294	2.7614	1.8182	0.1	5168.6
7295	2.7614	2.	0.1	5136.6
7296	2.7614	2.1818	0.1	5110.5
7297	2.7614	2.3636	0.1	5090.
7298	2.7614	2.5455	0.1	5074.9
7299	2.7614	2.7273	0.1	5065.
7300	2.7614	2.9091	0.1	5060.1
7301	2.7614	3.0909	0.1	5060.1
7302	2.7614	3.2727	0.1	5065.
7303	2.7614	3.4545	0.1	5074.9
7304	2.7614	3.6364	0.1	5090.
7305	2.7614	3.8182	0.1	5110.5
7306	2.7614	4.	0.1	5136.6
7307	2.7614	4.1818	0.1	5168.6
7308	2.7614	4.3636	0.1	5206.5
7309	2.7614	4.5455	0.1	5250.6
7310	2.7614	4.7273	0.1	5300.6
7311	2.7614	4.9091	0.1	5356.2
7312	2.7614	5.0909	0.1	5417.1
7313	2.7614	5.2727	0.1	5482.6
7314	2.7614	5.4545	0.1	5551.8
7315	2.7614	5.6364	0.1	5624.4
7316	2.7614	5.8182	0.1	5705.3
7317	2.9455	0.18182	0.1	5637.2
7318	2.9455	0.36364	0.1	5563.3
7319	2.9455	0.54545	0.1	5496.1
7320	2.9455	0.72727	0.1	5431.8
7321	2.9455	0.90909	0.1	5370.5
7322	2.9455	1.0909	0.1	5313.2
7323	2.9455	1.2727	0.1	5260.2
7324	2.9455	1.4545	0.1	5212.2
7325	2.9455	1.6364	0.1	5169.4
7326	2.9455	1.8182	0.1	5132.2
7327	2.9455	2.	0.1	5100.5
7328	2.9455	2.1818	0.1	5074.3
7329	2.9455	2.3636	0.1	5053.6
7330	2.9455	2.5455	0.1	5038.2
7331	2.9455	2.7273	0.1	5028.1
7332	2.9455	2.9091	0.1	5023.
7333	2.9455	3.0909	0.1	5023.
7334	2.9455	3.2727	0.1	5028.1
7335	2.9455	3.4545	0.1	5038.2
7336	2.9455	3.6364	0.1	5053.6
7337	2.9455	3.8182	0.1	5074.3
7338	2.9455	4.	0.1	5100.5
7339	2.9455	4.1818	0.1	5132.2
7340	2.9455	4.3636	0.1	5169.4
7341	2.9455	4.5455	0.1	5212.2
7342	2.9455	4.7273	0.1	5260.2
7343	2.9455	4.9091	0.1	5313.2
7344	2.9455	5.0909	0.1	5370.5
7345	2.9455	5.2727	0.1	5431.8
7346	2.9455	5.4545	0.1	5496.1
7347	2.9455	5.6364	0.1	5563.3
7348	2.9455	5.8182	0.1	5637.2
7349	3.1295	0.18182	0.1	5568.2
7350	3.1295	0.36364	0.1	5500.7
7351	3.1295	0.54545	0.1	5438.8
7352	3.1295	0.72727	0.1	5379.2
7353	3.1295	0.90909	0.1	5322.2
7354	3.1295	1.0909	0.1	5268.4
7355	3.1295	1.2727	0.1	5218.5
7356	3.1295	1.4545	0.1	5172.8
7357	3.1295	1.6364	0.1	5131.8
7358	3.1295	1.8182	0.1	5095.8
7359	3.1295	2.	0.1	5064.9
7360	3.1295	2.1818	0.1	5039.2
7361	3.1295	2.3636	0.1	5018.6
7362	3.1295	2.5455	0.1	5003.3
7363	3.1295	2.7273	0.1	4993.1
7364	3.1295	2.9091	0.1	4988.1
7365	3.1295	3.0909	0.1	4988.1
7366	3.1295	3.2727	0.1	4993.1
7367	3.1295	3.4545	0.1	5003.3
7368	3.1295	3.6364	0.1	5018.6
7369	3.1295	3.8182	0.1	5039.2
7370	3.1295	4.	0.1	5064.9
7371	3.1295	4.1818	0.1	5095.8
7372	3.1295	4.3636	0.1	5131.8
7373	3.1295	4.5455	0.1	5172.8
7374	3.1295	4.7273	0.1	5218.5
7375	3.1295	4.9091	0.1	5268.4
7376	3.1295	5.0909	0.1	5322.2
7377	3.1295	5.2727	0.1	5379.2
7378	3.1295	5.4545	0.1	5438.8
7379	3.1295	5.6364	0.1	5500.7
7380	3.1295	5.8182	0.1	5568.2
7381	3.3136	0.18182	0.1	5498.5
7382	3.3136	0.36364	0.1	5437.1
7383	3.3136	0.54545	0.1	5380.3
7384	3.3136	0.72727	0.1	5325.3
7385	3.3136	0.90909	0.1	5272.5
7386	3.3136	1.0909	0.1	5222.5
7387	3.3136	1.2727	0.1	5175.7
7388	3.3136	1.4545	0.1	5132.6
7389	3.3136	1.6364	0.1	5093.7
7390	3.3136	1.8182	0.1	5059.3
7391	3.3136	2.	0.1	5029.5
7392	3.3136	2.1818	0.1	5004.6
7393	3.3136	2.3636	0.1	4984.7
7394	3.3136	2.5455	0.1	4969.7
7395	3.3136	2.7273	0.1	4959.7
7396	3.3136	2.9091	0.1	4954.7
7397	3.3136	3.0909	0.1	4954.7
7398	3.3136	3.2727	0.1	4959.7
7399	3.3136	3.4545	0.1	4969.7
7400	3.3136	3.6364	0.1	4984.7
7401	3.3136	3.8182	0.1	5004.6
7402	3.3136	4.	0.1	5029.5
7403	3.3136	4.1818	0.1	5059.3
7404	3.3136	4.3636	0.1	5093.7
7405	3.3136	4.5455	0.1	5132.6
7406	3.3136	4.7273	0.1	5175.7
7407	3.3136	4.9091	0.1	5222.5
7408	3.3136	5.0909	0.1	5272.5
7409	3.3136	5.2727	0.1	5325.3
7410	3.3136	5.4545	0.1	5380.3
7411	3.3136	5.6364	0.1	5437.1
7412	3.3136	5.8182	0.1	5498.5
7413	3.4977	0.18182	0.1	5428.3
7414	3.4977	0.36364	0.1	5372.7
7415	3.4977	0.54545	0.1	5320.7
7416	3.4977	0.72727	0.1	5270.4
7417	3.4977	0.90909	0.1	5221.8
7418	3.4977	1.0909	0.1	5175.5
7419	3.4977	1.2727	0.1	5132.
7420	3.4977	1.4545	0.1	5091.8
7421	3.4977	1.6364	0.1	5055.2
7422	3.4977	1.8182	0.1	5022.6
7423	3.4977	2.	0.1	4994.3
7424	3.4977	2.1818	0.1	4970.5
7425	3.4977	2.3636	0.1	4951.3
7426	3.4977	2.5455	0.1	4936.9
7427	3.4977	2.7273	0.1	4927.3
7428	3.4977	2.9091	0.1	4922.4
7429	3.4977	3.0909	0.1	4922.4
7430	3.4977	3.2727	0.1	4927.3
7431	3.4977	3.4545	0.1	4936.9
7432	3.4977	3.6364	0.1	4951.3
7433	3.4977	3.8182	0.1	4970.5
7434	3.4977	4.	0.1	4994.3
7435	3.4977	4.1818	0.1	5022.6
7436	3.4977	4.3636	0.1	5055.2
7437	3.4977	4.5455	0.1	5091.8
7438	3.4977	4.7273	0.1	5132.
7439	3.4977	4.9091	0.1	5175.5
7440	3.4977	5.0909	0.1	5221.8
7441	3.4977	5.2727	0.1	5270.4
7442	3.4977	5.4545	0.1	5320.7
7443	3.4977	5.6364	0.1	5372.7
7444	3.4977	5.8182	0.1	5428.3
7445	3.6818	0.18182	0.1	5357.6
7446	3.6818	0.36364	0.1	5307.5
7447	3.6818	0.54545	0.1	5260.4
7448	3.6818	0.72727	0.1	5214.5
7449	3.6818	0.90909	0.1	5170.2
7450	3.6818	1.0909	0.1	5127.7
7451	3.6818	1.2727	0.1	5087.6
7452	3.6818	1.4545	0.1	5050.3
7453	3.6818	1.6364	0.1	5016.3
7454	3.6818	1.8182	0.1	4985.8
7455	3.6818	2.	0.1	4959.2
7456	3.6818	2.1818	0.1	4936.7
7457	3.6818	2.3636	0.1	4918.5
7458	3.6818	2.5455	0.1	4904.8
7459	3.6818	2.7273	0.1	4895.6
7460	3.6818	2.9091	0.1	4891.
7461	3.6818	3.0909	0.1	4891.
7462	3.6818	3.2727	0.1	4895.6
7463	3.6818	3.4545	0.1	4904.8
7464	3.6818	3.6364	0.1	4918.5
7465	3.6818	3.8182	0.1	4936.7
7466	3.6818	4.	0.1	4959.2
7467	3.6818	4.1818	0.1	4985.8
7468	3.6818	4.3636	0.1	5016.3
7469	3.6818	4.5455	0.1	5050.3
7470	3.6818	4.7273	0.1	5087.6
7471	3.6818	4.9091	0.1	5127.7
7472	3.6818	5.0909	0.1	5170.2
7473	3.6818	5.2727	0.1	5214.5
7474	3.6818	5.4545	0.1	5260.4
7475	3.6818	5.6364	0.1	5307.5
7476	3.6818	5.8182	0.1	5357.6
7477	3.8659	0.18182	0.1	5286.3
7478	3.8659	0.36364	0.1	5241.6
7479	3.8659	0.54545	0.1	5199.2
7480	3.8659	0.72727	0.1	5157.9
7481	3.8659	0.90909	0.1	5117.8
7482	3.8659	1.0909	0.1	5079.2
7483	3.8659	1.2727	0.1	5042.6
7484	3.8659	1.4545	0.1	5008.4
7485	3.8659	1.6364	0.1	4977.1
7486	3.8659	1.8182	0.1	4948.9
7487	3.8659	2.	0.1	4924.1
7488	3.8659	2.1818	0.1	4903.2
7489	3.8659	2.3636	0.1	4886.2
7490	3.8659	2.5455	0.1	4873.3
7491	3.8659	2.7273	0.1	4864.6
7492	3.8659	2.9091	0.1	4860.3
7493	3.8659	3.0909	0.1	4860.3
7494	3.8659	3.2727	0.1	4864.6
7495	3.8659	3.4545	0.1	4873.3
7496	3.8659	3.6364	0.1	4886.2
7497	3.8659	3.8182	0.1	4903.2
7498	3.8659	4.	0.1	4924.1
7499	3.8659	4.1818	0.1	4948.9
7500	3.8659	4.3636	0.1	4977.1
7501	3.8659	4.5455	0.1	5008.4
7502	3.8659	4.7273	0.1	5042.6
7503	3.8659	4.9091	0.1	5079.2
7504	3.8659	5.0909	0.1	5117.8
7505	3.8659	5.2727	0.1	5157.9
7506	3.8659	5.4545	0.1	5199.2
7507	3.8659	5.6364	0.1	5241.6
7508	3.8659	5.8182	0.1	5286.3
7509	4.05	0.18182	0.1	5214.1
7510	4.05	0.36364	0.1	5174.7
7511	4.05	0.54545	0.1	5137.1
7512	4.05	0.72727	0.1	5100.4
7513	4.05	0.90909	0.1	5064.6
7514	4.05	1.0909	0.1	5030.
7515	4.05	1.2727	0.1	4997.1
7516	4.05	1.4545	0.1	4966.2
7517	4.05	1.6364	0.1	4937.7
7518	4.05	1.8182	0.1	4912.
7519	4.05	2.	0.1	4889.3
7520	4.05	2.1818	0.1	4870.
7521	4.05	2.3636	0.1	4854.3
7522	4.05	2.5455	0.1	4842.4
7523	4.05	2.7273	0.1	4834.4
7524	4.05	2.9091	0.1	4830.4
7525	4.05	3.0909	0.1	4830.4
7526	4.05	3.2727	0.1	4834.4
7527	4.05	3.4545	0.1	4842.4
7528	4.05	3.6364	0.1	4854.3
7529	4.05	3.8182	0.1	4870.
7530	4.05	4.	0.1	4889.3
7531	4.05	4.1818	0.1	4912.
7532	4.05	4.3636	0.1	4937.7
7533	4.05	4.5455	0.1	4966.2
7534	4.05	4.7273	0.1	4997.1
7535	4.05	4.9091	0.1	5030.
7536	4.05	5.0909	0.1	5064.6
7537	4.05	5.2727	0.1	5100.4
7538	4.05	5.4545	0.1	5137.1
7539	4.05	5.6364	0.1	5174.7
7540	4.05	5.8182	0.1	5214.1
7541	4.2341	0.18182	0.1	5140.7
7542	4.2341	0.36364	0.1	5106.6
7543	4.2341	0.54545	0.1	5074.
7544	4.2341	0.72727	0.1	5041.9
7545	4.2341	0.90909	0.1	5010.6
7546	4.2341	1.0909	0.1	4980.2
7547	4.2341	1.2727	0.1	4951.2
7548	4.2341	1.4545	0.1	4923.7
7549	4.2341	1.6364	0.1	4898.3
7550	4.2341	1.8182	0.1	4875.2
7551	4.2341	2.	0.1	4854.8
7552	4.2341	2.1818	0.1	4837.4
7553	4.2341	2.3636	0.1	4823.2
7554	4.2341	2.5455	0.1	4812.4
7555	4.2341	2.7273	0.1	4805.1
7556	4.2341	2.9091	0.1	4801.4
7557	4.2341	3.0909	0.1	4801.4
7558	4.2341	3.2727	0.1	4805.1
7559	4.2341	3.4545	0.1	4812.4
7560	4.2341	3.6364	0.1	4823.2
7561	4.2341	3.8182	0.1	4837.4
7562	4.2341	4.	0.1	4854.8
7563	4.2341	4.1818	0.1	4875.2
7564	4.2341	4.3636	0.1	4898.3
7565	4.2341	4.5455	0.1	4923.7
7566	4.2341	4.7273	0.1	4951.2
7567	4.2341	4.9091	0.1	4980.2
7568	4.2341	5.0909	0.1	5010.6
7569	4.2341	5.2727	0.1	5041.9
7570	4.2341	5.4545	0.1	5074.
7571	4.2341	5.6364	0.1	5106.6
7572	4.2341	5.8182	0.1	5140.7
7573	4.4182	0.18182	0.1	5065.6
7574	4.4182	0.36364	0.1	5036.8
7575	4.4182	0.54545	0.1	5009.3
7576	4.4182	0.72727	0.1	4982.3
7577	4.4182	0.90909	0.1	4955.7
7578	4.4182	1.0909	0.1	4929.7
7579	4.4182	1.2727	0.1	4904.8
7580	4.4182	1.4545	0.1	4881.1
7581	4.4182	1.6364	0.1	4859.
7582	4.4182	1.8182	0.1	4838.9
7583	4.4182	2.	0.1	4821.
7584	4.4182	2.1818	0.1	4805.7
7585	4.4182	2.3636	0.1	4793.1
7586	4.4182	2.5455	0.1	4783.6
7587	4.4182	2.7273	0.1	4777.1
7588	4.4182	2.9091	0.1	4773.9
7589	4.4182	3.0909	0.1	4773.9
7590	4.4182	3.2727	0.1	4777.1
7591	4.4182	3.4545	0.1	4783.6
7592	4.4182	3.6364	0.1	4793.1
7593	4.4182	3.8182	0.1	4805.7
7594	4.4182	4.	0.1	4821.
7595	4.4182	4.1818	0.1	4838.9
7596	4.4182	4.3636	0.1	4859.
7597	4.4182	4.5455	0.1	4881.1
7598	4.4182	4.7273	0.1	4904.8
7599	4.4182	4.9091	0.1	4929.7
7600	4.4182	5.0909	0.1	4955.7
7601	4.4182	5.2727	0.1	4982.3
7602	4.4182	5.4545	0.1	5009.3
7603	4.4182	5.6364	0.1	5036.8
7604	4.4182	5.8182	0.1	5065.6
7605	4.6023	0.18182	0.1	4988.1
7606	4.6023	0.36364	0.1	4964.9
7607	4.6023	0.54545	0.1	4942.8
7608	4.6023	0.72727	0.1	4921.
7609	4.6023	0.90909	0.1	4899.5
7610	4.6023	1.0909	0.1	4878.4
7611	4.6023	1.2727	0.1	4857.9
7612	4.6023	1.4545	0.1	4838.4
7613	4.6023	1.6364	0.1	4820.1
7614	4.6023	1.8182	0.1	4803.2
7615	4.6023	2.	0.1	4788.2
7616	4.6023	2.1818	0.1	4775.3
7617	4.6023	2.3636	0.1	4764.7
7618	4.6023	2.5455	0.1	4756.5
7619	4.6023	2.7273	0.1	4751.
7620	4.6023	2.9091	0.1	4748.2
7621	4.6023	3.0909	0.1	4748.2
7622	4.6023	3.2727	0.1	4751.
7623	4.6023	3.4545	0.1	4756.5
7624	4.6023	3.6364	0.1	4764.7
7625	4.6023	3.8182	0.1	4775.3
7626	4.6023	4.	0.1	4788.2
7627	4.6023	4.1818	0.1	4803.2
7628	4.6023	4.3636	0.1	4820.1
7629	4.6023	4.5455	0.1	4838.4
7630	4.6023	4.7273	0.1	4857.9
7631	4.6023	4.9091	0.1	4878.4
7632	4.6023	5.0909	0.1	4899.5
7633	4.6023	5.2727	0.1	4921.
7634	4.6023	5.4545	0.1	4942.8
7635	4.6023	5.6364	0.1	4964.9
7636	4.6023	5.8182	0.1	4988.1
7637	4.7864	0.18182	0.1	4907.4
7638	4.7864	0.36364	0.1	4890.2
7639	4.7864	0.54545	0.1	4873.8
7640	4.7864	0.72727	0.1	4857.7
7641	4.7864	0.90909	0.1	4841.8
7642	4.7864	1.0909	0.1	4826.
7643	4.7864	1.2727	0.1	4810.6
7644	4.7864	1.4545	0.1	4795.7
7645	4.7864	1.6364	0.1	4781.7
7646	4.7864	1.8182	0.1	4768.6
7647	4.7864	2.	0.1	4756.9
7648	4.7864	2.1818	0.1	4746.8
7649	4.7864	2.3636	0.1	4738.4
7650	4.7864	2.5455	0.1	4732.
7651	4.7864	2.7273	0.1	4727.6
7652	4.7864	2.9091	0.1	4725.4
7653	4.7864	3.0909	0.1	4725.4
7654	4.7864	3.2727	0.1	4727.6
7655	4.7864	3.4545	0.1	4732.
7656	4.7864	3.6364	0.1	4738.4
7657	4.7864	3.8182	0.1	4746.8
7658	4.7864	4.	0.1	4756.9
7659	4.7864	4.1818	0.1	4768.6
7660	4.7864	4.3636	0.1	4781.7
7661	4.7864	4.5455	0.1	4795.7
7662	4.7864	4.7273	0.1	4810.6
7663	4.7864	4.9091	0.1	4826.
7664	4.7864	5.0909	0.1	4841.8
7665	4.7864	5.2727	0.1	4857.7
7666	4.7864	5.4545	0.1	4873.8
7667	4.7864	5.6364	0.1	4890.2
7668	4.7864	5.8182	0.1	4907.4
7669	4.9705	0.18182	0.1	4822.5
7670	4.9705	0.36364	0.1	4811.6
7671	4.9705	0.54545	0.1	4801.6
7672	4.9705	0.72727	0.1	4791.8
7673	4.9705	0.90909	0.1	4782.1
7674	4.9705	1.0909	0.1	4772.3
7675	4.9705	1.2727	0.1	4762.7
7676	4.9705	1.4545	0.1	4753.2
7677	4.9705	1.6364	0.1	4744.1
7678	4.9705	1.8182	0.1	4735.5
7679	4.9705	2.	0.1	4727.8
7680	4.9705	2.1818	0.1	4721.
7681	4.9705	2.3636	0.1	4715.3
7682	4.9705	2.5455	0.1	4710.9
7683	4.9705	2.7273	0.1	4708.
7684	4.9705	2.9091	0.1	4706.5
7685	4.9705	3.0909	0.1	4706.5
7686	4.9705	3.2727	0.1	4708.
7687	4.9705	3.4545	0.1	4710.9
7688	4.9705	3.6364	0.1	4715.3
7689	4.9705	3.8182	0.1	4721.
7690	4.9705	4.	0.1	4727.8
7691	4.9705	4.1818	0.1	4735.5
7692	4.9705	4.3636	0.1	4744.1
7693	4.9705	4.5455	0.1	4753.2
7694	4.9705	4.7273	0.1	4762.7
7695	4.9705	4.9091	0.1	4772.3
7696	4.9705	5.0909	0.1	4782.1
7697	4.9705	5.2727	0.1	4791.8
7698	4.9705	5.4545	0.1	4801.6
7699	4.9705	5.6364	0.1	4811.6
7700	4.9705	5.8182	0.1	4822.5
7701	5.1545	0.18182	0.1	4732.
7702	5.1545	0.36364	0.1	4728.
7703	5.1545	0.54545	0.1	4725.
7704	5.1545	0.72727	0.1	4722.3
7705	5.1545	0.90909	0.1	4719.7
7706	5.1545	1.0909	0.1	4716.9
7707	5.1545	1.2727	0.1	4714.
7708	5.1545	1.4545	0.1	4710.9
7709	5.1545	1.6364	0.1	4707.7
7710	5.1545	1.8182	0.1	4704.6
7711	5.1545	2.	0.1	4701.5
7712	5.1545	2.1818	0.1	4698.8
7713	5.1545	2.3636	0.1	4696.5
7714	5.1545	2.5455	0.1	4694.8
7715	5.1545	2.7273	0.1	4693.6
7716	5.1545	2.9091	0.1	4692.9
7717	5.1545	3.0909	0.1	4692.9
7718	5.1545	3.2727	0.1	4693.6
7719	5.1545	3.4545	0.1	4694.8
7720	5.1545	3.6364	0.1	4696.5
7721	5.1545	3.8182	0.1	4698.8
7722	5.1545	4.	0.1	4701.5
7723	5.1545	4.1818	0.1	4704.6
7724	5.1545	4.3636	0.1	4707.7
7725	5.1545	4.5455	0.1	4710.9
7726	5.1545	4.7273	0.1	4714.
7727	5.1545	4.9091	0.1	4716.9
7728	5.1545	5.0909	0.1	4719.7
7729	5.1545	5.2727	0.1	4722.3
7730	5.1545	5.4545	0.1	4725.
7731	5.1545	5.6364	0.1	4728.
7732	5.1545	5.8182	0.1	4732.
7733	5.3386	0.18182	0.1	4634.4
7734	5.3386	0.36364	0.1	4638.
7735	5.3386	0.54545	0.1	4642.9
7736	5.3386	0.72727	0.1	4648.3
7737	5.3386	0.90909	0.1	4653.8
7738	5.3386	1.0909	0.1	4659.3
7739	5.3386	1.2727	0.1	4664.4
7740	5.3386	1.4545	0.1	4669.
7741	5.3386	1.6364	0.1	4673.
7742	5.3386	1.8182	0.1	4676.4
7743	5.3386	2.	0.1	4679.3
7744	5.3386	2.1818	0.1	4681.7
7745	5.3386	2.3636	0.1	4683.7
7746	5.3386	2.5455	0.1	4685.1
7747	5.3386	2.7273	0.1	4686.2
7748	5.3386	2.9091	0.1	4686.7
7749	5.3386	3.0909	0.1	4686.7
7750	5.3386	3.2727	0.1	4686.2
7751	5.3386	3.4545	0.1	4685.1
7752	5.3386	3.6364	0.1	4683.7
7753	5.3386	3.8182	0.1	4681.7
7754	5.3386	4.	0.1	4679.3
7755	5.3386	4.1818	0.1	4676.4
7756	5.3386	4.3636	0.1	4673.
7757	5.3386	4.5455	0.1	4669.
7758	5.3386	4.7273	0.1	4664.4
7759	5.3386	4.9091	0.1	4659.3
7760	5.3386	5.0909	0.1	4653.8
7761	5.3386	5.2727	0.1	4648.3
7762	5.3386	5.4545	0.1	4642.9
7763	5.3386	5.6364	0.1	4638.
7764	5.3386	5.8182	0.1	4634.4
7765	5.5227	0.18182	0.1	4527.8
7766	5.5227	0.36364	0.1	4539.7
7767	5.5227	0.54545	0.1	4553.5
7768	5.5227	0.72727	0.1	4568.2
7769	5.5227	0.90909	0.1	4583.4
7770	5.5227	1.0909	0.1	4598.7
7771	5.5227	1.2727	0.1	4613.5
7772	5.5227	1.4545	0.1	4627.5
7773	5.5227	1.6364	0.1	4640.5
7774	5.5227	1.8182	0.1	4652.1
7775	5.5227	2.	0.1	4662.5
7776	5.5227	2.1818	0.1	4671.3
7777	5.5227	2.3636	0.1	4678.7
7778	5.5227	2.5455	0.1	4684.3
7779	5.5227	2.7273	0.1	4688.2
7780	5.5227	2.9091	0.1	4690.2
7781	5.5227	3.0909	0.1	4690.2
7782	5.5227	3.2727	0.1	4688.2
7783	5.5227	3.4545	0.1	4684.3
7784	5.5227	3.6364	0.1	4678.7
7785	5.5227	3.8182	0.1	4671.3
7786	5.5227	4.	0.1	4662.5
7787	5.5227	4.1818	0.1	4652.1
7788	5.5227	4.3636	0.1	4640.5
7789	5.5227	4.5455	0.1	4627.5
7790	5.5227	4.7273	0.1	4613.5
7791	5.5227	4.9091	0.1	4598.7
7792	5.5227	5.0909	0.1	4583.4
7793	5.5227	5.2727	0.1	4568.2
7794	5.5227	5.4545	0.1	4553.5
7795	5.5227	5.6364	0.1	4539.7
7796	5.5227	5.8182	0.1	4527.8
7797	5.7068	0.18182	0.1	4409.7
7798	5.7068	0.36364	0.1	4430.9
7799	5.7068	0.54545	0.1	4454.8
7800	5.7068	0.72727	0.1	4480.4
7801	5.7068	0.90909	0.1	4507.2
7802	5.7068	1.0909	0.1	4534.3
7803	5.7068	1.2727	0.1	4561.
7804	5.7068	1.4545	0.1	4586.8
7805	5.7068	1.6364	0.1	4610.9
7806	5.7068	1.8182	0.1	4632.9
7807	5.7068	2.	0.1	4652.7
7808	5.7068	2.1818	0.1	4669.8
7809	5.7068	2.3636	0.1	4684.1
7810	5.7068	2.5455	0.1	4695.3
7811	5.7068	2.7273	0.1	4703.
7812	5.7068	2.9091	0.1	4706.9
7813	5.7068	3.0909	0.1	4706.9
7814	5.7068	3.2727	0.1	4703.
7815	5.7068	3.4545	0.1	4695.3
7816	5.7068	3.6364	0.1	4684.1
7817	5.7068	3.8182	0.1	4669.8
7818	5.7068	4.	0.1	4652.7
7819	5.7068	4.1818	0.1	4632.9
7820	5.7068	4.3636	0.1	4610.9
7821	5.7068	4.5455	0.1	4586.8
7822	5.7068	4.7273	0.1	4561.
7823	5.7068	4.9091	0.1	4534.3
7824	5.7068	5.0909	0.1	4507.2
7825	5.7068	5.2727	0.1	4480.4
7826	5.7068	5.4545	0.1	4454.8
7827	5.7068	5.6364	0.1	4430.9
7828	5.7068	5.8182	0.1	4409.7
7829	5.8909	0.18182	0.1	4277.3
7830	5.8909	0.36364	0.1	4308.8
7831	5.8909	0.54545	0.1	4344.2
7832	5.8909	0.72727	0.1	4382.7
7833	5.8909	0.90909	0.1	4423.3
7834	5.8909	1.0909	0.1	4465.
7835	5.8909	1.2727	0.1	4506.6
7836	5.8909	1.4545	0.1	4546.9
7837	5.8909	1.6364	0.1	4585.2
7838	5.8909	1.8182	0.1	4620.4
7839	5.8909	2.	0.1	4652.2
7840	5.8909	2.1818	0.1	4680.
7841	5.8909	2.3636	0.1	4703.4
7842	5.8909	2.5455	0.1	4721.8
7843	5.8909	2.7273	0.1	4734.4
7844	5.8909	2.9091	0.1	4740.9
7845	5.8909	3.0909	0.1	4740.9
7846	5.8909	3.2727	0.1	4734.4
7847	5.8909	3.4545	0.1	4721.8
7848	5.8909	3.6364	0.1	4703.4
7849	5.8909	3.8182	0.1	4680.
7850	5.8909	4.	0.1	4652.2
7851	5.8909	4.1818	0.1	4620.4
7852	5.8909	4.3636	0.1	4585.2
7853	5.8909	4.5455	0.1	4546.9
7854	5.8909	4.7273	0.1	4506.6
7855	5.8909	4.9091	0.1	4465.
7856	5.8909	5.0909	0.1	4423.3
7857	5.8909	5.2727	0.1	4382.7
7858	5.8909	5.4545	0.1	4344.2
7859	5.8909	5.6364	0.1	4308.8
7860	5.8909	5.8182	0.1	4277.3
7861	6.075	0.18182	0.1	4127.2
7862	6.075	0.36364	0.1	4170.
7863	6.075	0.54545	0.1	4218.7
7864	6.075	0.72727	0.1	4272.3
7865	6.075	0.90909	0.1	4329.7
7866	6.075	1.0909	0.1	4389.4
7867	6.075	1.2727	0.1	4449.6
7868	6.075	1.4545	0.1	4508.6
7869	6.075	1.6364	0.1	4564.7
7870	6.075	1.8182	0.1	4616.9
7871	6.075	2.	0.1	4664.1
7872	6.075	2.1818	0.1	4705.8
7873	6.075	2.3636	0.1	4741.
7874	6.075	2.5455	0.1	4768.8
7875	6.075	2.7273	0.1	4788.1
7876	6.075	2.9091	0.1	4798.1
7877	6.075	3.0909	0.1	4798.1
7878	6.075	3.2727	0.1	4788.1
7879	6.075	3.4545	0.1	4768.8
7880	6.075	3.6364	0.1	4741.
7881	6.075	3.8182	0.1	4705.8
7882	6.075	4.	0.1	4664.1
7883	6.075	4.1818	0.1	4616.9
7884	6.075	4.3636	0.1	4564.7
7885	6.075	4.5455	0.1	4508.6
7886	6.075	4.7273	0.1	4449.6
7887	6.075	4.9091	0.1	4389.4
7888	6.075	5.0909	0.1	4329.7
7889	6.075	5.2727	0.1	4272.3
7890	6.075	5.4545	0.1	4218.7
7891	6.075	5.6364	0.1	4170.
7892	6.075	5.8182	0.1	4127.2
7893	6.2591	0.18182	0.1	3955.5
7894	6.2591	0.36364	0.1	4010.5
7895	6.2591	0.54545	0.1	4074.3
7896	6.2591	0.72727	0.1	4145.8
7897	6.2591	0.90909	0.1	4223.8
7898	6.2591	1.0909	0.1	4306.1
7899	6.2591	1.2727	0.1	4389.9
7900	6.2591	1.4545	0.1	4472.6
7901	6.2591	1.6364	0.1	4551.7
7902	6.2591	1.8182	0.1	4625.4
7903	6.2591	2.	0.1	4692.5
7904	6.2591	2.1818	0.1	4752.
7905	6.2591	2.3636	0.1	4802.6
7906	6.2591	2.5455	0.1	4842.9
7907	6.2591	2.7273	0.1	4871.1
7908	6.2591	2.9091	0.1	4885.6
7909	6.2591	3.0909	0.1	4885.6
7910	6.2591	3.2727	0.1	4871.1
7911	6.2591	3.4545	0.1	4842.9
7912	6.2591	3.6364	0.1	4802.6
7913	6.2591	3.8182	0.1	4752.
7914	6.2591	4.	0.1	4692.5
7915	6.2591	4.1818	0.1	4625.4
7916	6.2591	4.3636	0.1	4551.7
7917	6.2591	4.5455	0.1	4472.6
7918	6.2591	4.7273	0.1	4389.9
7919	6.2591	4.9091	0.1	4306.1
7920	6.2591	5.0909	0.1	4223.8
7921	6.2591	5.2727	0.1	4145.8
7922	6.2591	5.4545	0.1	4074.3
7923	6.2591	5.6364	0.1	4010.5
7924	6.2591	5.8182	0.1	3955.5
7925	6.4432	0.18182	0.1	3757.8
7926	6.4432	0.36364	0.1	3825.6
7927	6.4432	0.54545	0.1	3906.6
7928	6.4432	0.72727	0.1	3999.5
7929	6.4432	0.90909	0.1	4102.8
7930	6.4432	1.0909	0.1	4213.3
7931	6.4432	1.2727	0.1	4327.2
7932	6.4432	1.4545	0.1	4440.3
7933	6.4432	1.6364	0.1	4549.
7934	6.4432	1.8182	0.1	4650.4
7935	6.4432	2.	0.1	4743.1
7936	6.4432	2.1818	0.1	4825.5
7937	6.4432	2.3636	0.1	4896.2
7938	6.4432	2.5455	0.1	4952.8
7939	6.4432	2.7273	0.1	4992.7
7940	6.4432	2.9091	0.1	5013.3
7941	6.4432	3.0909	0.1	5013.3
7942	6.4432	3.2727	0.1	4992.7
7943	6.4432	3.4545	0.1	4952.8
7944	6.4432	3.6364	0.1	4896.2
7945	6.4432	3.8182	0.1	4825.5
7946	6.4432	4.	0.1	4743.1
7947	6.4432	4.1818	0.1	4650.4
7948	6.4432	4.3636	0.1	4549.
7949	6.4432	4.5455	0.1	4440.3
7950	6.4432	4.7273	0.1	4327.2
7951	6.4432	4.9091	0.1	4213.3
7952	6.4432	5.0909	0.1	4102.8
7953	6.4432	5.2727	0.1	3999.5
7954	6.4432	5.4545	0.1	3906.6
7955	6.4432	5.6364	0.1	3825.6
7956	6.4432	5.8182	0.1	3757.8
7957	6.6273	0.18182	0.1	3529.
7958	6.6273	0.36364	0.1	3610.1
7959	6.6273	0.54545	0.1	3710.4
7960	6.6273	0.72727	0.1	3828.8
7961	6.6273	0.90909	0.1	3963.2
7962	6.6273	1.0909	0.1	4109.6
7963	6.6273	1.2727	0.1	4262.2
7964	6.6273	1.4545	0.1	4414.7
7965	6.6273	1.6364	0.1	4561.5
7966	6.6273	1.8182	0.1	4698.7
7967	6.6273	2.	0.1	4823.9
7968	6.6273	2.1818	0.1	4935.9
7969	6.6273	2.3636	0.1	5032.4
7970	6.6273	2.5455	0.1	5110.3
7971	6.6273	2.7273	0.1	5165.3
7972	6.6273	2.9091	0.1	5193.8
7973	6.6273	3.0909	0.1	5193.8
7974	6.6273	3.2727	0.1	5165.3
7975	6.6273	3.4545	0.1	5110.3
7976	6.6273	3.6364	0.1	5032.4
7977	6.6273	3.8182	0.1	4935.9
7978	6.6273	4.	0.1	4823.9
7979	6.6273	4.1818	0.1	4698.7
7980	6.6273	4.3636	0.1	4561.5
7981	6.6273	4.5455	0.1	4414.7
7982	6.6273	4.7273	0.1	4262.2
7983	6.6273	4.9091	0.1	4109.6
7984	6.6273	5.0909	0.1	3963.2
7985	6.6273	5.2727	0.1	3828.8
7986	6.6273	5.4545	0.1	3710.4
7987	6.6273	5.6364	0.1	3610.1
7988	6.6273	5.8182	0.1	3529.
7989	6.8114	0.18182	0.1	3264.2
7990	6.8114	0.36364	0.1	3358.2
7991	6.8114	0.54545	0.1	3480.3
7992	6.8114	0.72727	0.1	3629.
7993	6.8114	0.90909	0.1	3802.
7994	6.8114	1.0909	0.1	3993.9
7995	6.8114	1.2727	0.1	4196.5
7996	6.8114	1.4545	0.1	4400.5
7997	6.8114	1.6364	0.1	4597.1
7998	6.8114	1.8182	0.1	4780.3
7999	6.8114	2.	0.1	4947.3
8000	6.8114	2.1818	0.1	5096.8
8001	6.8114	2.3636	0.1	5226.3
8002	6.8114	2.5455	0.1	5331.
8003	6.8114	2.7273	0.1	5405.
8004	6.8114	2.9091	0.1	5443.3
8005	6.8114	3.0909	0.1	5443.3
8006	6.8114	3.2727	0.1	5405.
8007	6.8114	3.4545	0.1	5331.
8008	6.8114	3.6364	0.1	5226.3
8009	6.8114	3.8182	0.1	5096.8
8010	6.8114	4.	0.1	4947.3
8011	6.8114	4.1818	0.1	4780.3
8012	6.8114	4.3636	0.1	4597.1
8013	6.8114	4.5455	0.1	4400.5
8014	6.8114	4.7273	0.1	4196.5
8015	6.8114	4.9091	0.1	3993.9
8016	6.8114	5.0909	0.1	3802.
8017	6.8114	5.2727	0.1	3629.
8018	6.8114	5.4545	0.1	3480.3
8019	6.8114	5.6364	0.1	3358.2
8020	6.8114	5.8182	0.1	3264.2
8021	6.9955	0.18182	0.1	2958.6
8022	6.9955	0.36364	0.1	3064.7
8023	6.9955	0.54545	0.1	3211.1
8024	6.9955	0.72727	0.1	3396.1
8025	6.9955	0.90909	0.1	3616.9
8026	6.9955	1.0909	0.1	3866.5
8027	6.9955	1.2727	0.1	4134.1
8028	6.9955	1.4545	0.1	4406.
8029	6.9955	1.6364	0.1	4668.6
8030	6.9955	1.8182	0.1	4912.
8031	6.9955	2.	0.1	5132.6
8032	6.9955	2.1818	0.1	5329.5
8033	6.9955	2.3636	0.1	5499.8
8034	6.9955	2.5455	0.1	5636.9
8035	6.9955	2.7273	0.1	5732.6
8036	6.9955	2.9091	0.1	5781.7
8037	6.9955	3.0909	0.1	5781.7
8038	6.9955	3.2727	0.1	5732.6
8039	6.9955	3.4545	0.1	5636.9
8040	6.9955	3.6364	0.1	5499.8
8041	6.9955	3.8182	0.1	5329.5
8042	6.9955	4.	0.1	5132.6
8043	6.9955	4.1818	0.1	4912.
8044	6.9955	4.3636	0.1	4668.6
8045	6.9955	4.5455	0.1	4406.
8046	6.9955	4.7273	0.1	4134.1
8047	6.9955	4.9091	0.1	3866.5
8048	6.9955	5.0909	0.1	3616.9
8049	6.9955	5.2727	0.1	3396.1
8050	6.9955	5.4545	0.1	3211.1
8051	6.9955	5.6364	0.1	3064.7
8052	6.9955	5.8182	0.1	2958.6
8053	7.1795	0.18182	0.1	2608.3
8054	7.1795	0.36364	0.1	2725.6
8055	7.1795	0.54545	0.1	2900.2
8056	7.1795	0.72727	0.1	3129.1
8057	7.1795	0.90909	0.1	3408.7
8058	7.1795	1.0909	0.1	3730.8
8059	7.1795	1.2727	0.1	4082.5
8060	7.1795	1.4545	0.1	4445.4
8061	7.1795	1.6364	0.1	4797.2
8062	7.1795	1.8182	0.1	5121.3
8063	7.1795	2.	0.1	5410.7
8064	7.1795	2.1818	0.1	5666.9
8065	7.1795	2.3636	0.1	5886.5
8066	7.1795	2.5455	0.1	6058.
8067	7.1795	2.7273	0.1	6173.4
8068	7.1795	2.9091	0.1	6230.5
8069	7.1795	3.0909	0.1	6230.5
8070	7.1795	3.2727	0.1	6173.4
8071	7.1795	3.4545	0.1	6058.
8072	7.1795	3.6364	0.1	5886.5
8073	7.1795	3.8182	0.1	5666.9
8074	7.1795	4.	0.1	5410.7
8075	7.1795	4.1818	0.1	5121.3
8076	7.1795	4.3636	0.1	4797.2
8077	7.1795	4.5455	0.1	4445.4
8078	7.1795	4.7273	0.1	4082.5
8079	7.1795	4.9091	0.1	3730.8
8080	7.1795	5.0909	0.1	3408.7
8081	7.1795	5.2727	0.1	3129.1
8082	7.1795	5.4545	0.1	2900.2
8083	7.1795	5.6364	0.1	2725.6
8084	7.1795	5.8182	0.1	2608.3
8085	7.3636	0.18182	0.1	2211.3
8086	7.3636	0.36364	0.1	2340.8
8087	7.3636	0.54545	0.1	2550.9
8088	7.3636	0.72727	0.1	2834.3
8089	7.3636	0.90909	0.1	3185.2
8090	7.3636	1.0909	0.1	3595.8
8091	7.3636	1.2727	0.1	4054.4
8092	7.3636	1.4545	0.1	4540.4
8093	7.3636	1.6364	0.1	5022.1
8094	7.3636	1.8182	0.1	5458.8
8095	7.3636	2.	0.1	5841.9
8096	7.3636	2.1818	0.1	6171.5
8097	7.3636	2.3636	0.1	6439.9
8098	7.3636	2.5455	0.1	6635.6
8099	7.3636	2.7273	0.1	6753.3
8100	7.3636	2.9091	0.1	6806.4
8101	7.3636	3.0909	0.1	6806.4
8102	7.3636	3.2727	0.1	6753.3
8103	7.3636	3.4545	0.1	6635.6
8104	7.3636	3.6364	0.1	6439.9
8105	7.3636	3.8182	0.1	6171.5
8106	7.3636	4.	0.1	5841.9
8107	7.3636	4.1818	0.1	5458.8
8108	7.3636	4.3636	0.1	5022.1
8109	7.3636	4.5455	0.1	4540.4
8110	7.3636	4.7273	0.1	4054.4
8111	7.3636	4.9091	0.1	3595.8
8112	7.3636	5.0909	0.1	3185.2
8113	7.3636	5.2727	0.1	2834.3
8114	7.3636	5.4545	0.1	2550.9
8115	7.3636	5.6364	0.1	2340.8
8116	7.3636	5.8182	0.1	2211.3
8117	7.5477	0.18182	0.1	1768.9
8118	7.5477	0.36364	0.1	1919.3
8119	7.5477	0.54545	0.1	2181.1
8120	7.5477	0.72727	0.1	2534.2
8121	7.5477	0.90909	0.1	2968.4
8122	7.5477	1.0909	0.1	3480.2
8123	7.5477	1.2727	0.1	4067.7
8124	7.5477	1.4545	0.1	4724.4
8125	7.5477	1.6364	0.1	5396.8
8126	7.5477	1.8182	0.1	6018.5
8127	7.5477	2.	0.1	6537.1
8128	7.5477	2.1818	0.1	6945.8
8129	7.5477	2.3636	0.1	7256.9
8130	7.5477	2.5455	0.1	7420.3
8131	7.5477	2.7273	0.1	7485.2
8132	7.5477	2.9091	0.1	7503.3
8133	7.5477	3.0909	0.1	7503.3
8134	7.5477	3.2727	0.1	7485.2
8135	7.5477	3.4545	0.1	7420.3
8136	7.5477	3.6364	0.1	7256.9
8137	7.5477	3.8182	0.1	6945.8
8138	7.5477	4.	0.1	6537.1
8139	7.5477	4.1818	0.1	6018.5
8140	7.5477	4.3636	0.1	5396.8
8141	7.5477	4.5455	0.1	4724.4
8142	7.5477	4.7273	0.1	4067.7
8143	7.5477	4.9091	0.1	3480.2
8144	7.5477	5.0909	0.1	2968.4
8145	7.5477	5.2727	0.1	2534.2
8146	7.5477	5.4545	0.1	2181.1
8147	7.5477	5.6364	0.1	1919.3
8148	7.5477	5.8182	0.1	1768.9
8149	7.7318	0.18182	0.1	1291.6
8150	7.7318	0.36364	0.1	1497.9
8151	7.7318	0.54545	0.1	1845.6
8152	7.7318	0.72727	0.1	2286.3
8153	7.7318	0.90909	0.1	2809.3
8154	7.7318	1.0909	0.1	3423.6
8155	7.7318	1.2727	0.1	4154.8
8156	7.7318	1.4545	0.1	5020.7
8157	7.7318	1.6364	0.1	6052.2
8158	7.7318	1.8182	0.1	7111.5
8159	7.7318	2.	0.1	7802.7
8160	7.7318	2.1818	0.1	8326.6
8161	7.7318	2.3636	0.1	8487.8
8162	7.7318	2.5455	0.1	8442.5
8163	7.7318	2.7273	0.1	8330.4
8164	7.7318	2.9091	0.1	8260.
8165	7.7318	3.0909	0.1	8260.
8166	7.7318	3.2727	0.1	8330.4
8167	7.7318	3.4545	0.1	8442.5
8168	7.7318	3.6364	0.1	8487.8
8169	7.7318	3.8182	0.1	8326.6
8170	7.7318	4.	0.1	7802.7
8171	7.7318	4.1818	0.1	7111.5
8172	7.7318	4.3636	0.1	6052.2
8173	7.7318	4.5455	0.1	5020.7
8174	7.7318	4.7273	0.1	4154.8
8175	7.7318	4.9091	0.1	3423.6
8176	7.7318	5.0909	0.1	2809.3
8177	7.7318	5.2727	0.1	2286.3
8178	7.7318	5.4545	0.1	1845.6
8179	7.7318	5.6364	0.1	1497.9
8180	7.7318	5.8182	0.1	1291.6
8181	7.9159	0.18182	0.1	846.5
8182	7.9159	0.36364	0.1	1235.7
8183	7.9159	0.54545	0.1	1728.
8184	7.9159	0.72727	0.1	2281.1
8185	7.9159	0.90909	0.1	2908.1
8186	7.9159	1.0909	0.1	3640.5
8187	7.9159	1.2727	0.1	4534.3
8188	7.9159	1.4545	0.1	5688.9
8189	7.9159	1.6364	0.1	7331.3
8190	7.9159	1.8182	0.1	9744.6
8191	7.9159	2.	0.1	11533
8192	7.9159	2.1818	0.1	10964
8193	7.9159	2.3636	0.1	10294
8194	7.9159	2.5455	0.1	9560.
8195	7.9159	2.7273	0.1	9131.7
8196	7.9159	2.9091	0.1	8928.
8197	7.9159	3.0909	0.1	8928.
8198	7.9159	3.2727	0.1	9131.7
8199	7.9159	3.4545	0.1	9560.
8200	7.9159	3.6364	0.1	10294
8201	7.9159	3.8182	0.1	10964
8202	7.9159	4.	0.1	11533
8203	7.9159	4.1818	0.1	9744.6
8204	7.9159	4.3636	0.1	7331.3
8205	7.9159	4.5455	0.1	5688.9
8206	7.9159	4.7273	0.1	4534.3
8207	7.9159	4.9091	0.1	3640.5
8208	7.9159	5.0909	0.1	2908.1
8209	7.9159	5.2727	0.1	2281.1
8210	7.9159	5.4545	0.1	1728.
8211	7.9159	5.6364	0.1	1235.7
8212	7.9159	5.8182	0.1	846.5
8213	8.2667	3.8182	0.1	14611
8214	8.2667	3.6364	0.1	11645
8215	8.2667	3.4545	0.1	10258
8216	8.2667	3.2727	0.1	9541.9
8217	8.2667	3.0909	0.1	9235.7
8218	8.2667	2.9091	0.1	9235.7
8219	8.2667	2.7273	0.1	9541.9
8220	8.2667	2.5455	0.1	10258
8221	8.2667	2.3636	0.1	11645
8222	8.2667	2.1818	0.1	14611
8223	8.1	3.8182	0.1	14766
8224	8.1	3.6364	0.1	11700
8225	8.1	3.4545	0.1	10318
8226	8.1	3.2727	0.1	9601.8
8227	8.1	3.0909	0.1	9296.
8228	8.1	2.9091	0.1	9296.
8229	8.1	2.7273	0.1	9601.8
8230	8.1	2.5455	0.1	10318
8231	8.1	2.3636	0.1	11700
8232	8.1	2.1818	0.1	14766
8233	8.2667	5.8182	0.1	401.57
8234	8.2667	5.6364	0.1	736.58
8235	8.2667	5.4545	0.1	1053.9
8236	8.2667	5.2727	0.1	1390.1
8237	8.2667	5.0909	0.1	1767.1
8238	8.2667	4.9091	0.1	2212.9
8239	8.2667	4.7273	0.1	2771.3
8240	8.2667	4.5455	0.1	3549.
8241	8.2667	4.3636	0.1	4525.4
8242	8.2667	4.1818	0.1	7895.6
8243	8.2667	4.	0.1	20993
8244	8.1	4.	0.1	21762
8245	8.1	4.1818	0.1	8692.1
8246	8.1	4.3636	0.1	5030.3
8247	8.1	4.5455	0.1	3960.7
8248	8.1	4.7273	0.1	3113.
8249	8.1	4.9091	0.1	2497.4
8250	8.1	5.0909	0.1	2000.8
8251	8.1	5.2727	0.1	1577.1
8252	8.1	5.4545	0.1	1196.9
8253	8.1	5.6364	0.1	837.13
8254	8.1	5.8182	0.1	457.73
8255	8.2667	0.18182	0.1	401.57
8256	8.2667	0.36364	0.1	736.58
8257	8.2667	0.54545	0.1	1053.9
8258	8.2667	0.72727	0.1	1390.1
8259	8.2667	0.90909	0.1	1767.1
8260	8.2667	1.0909	0.1	2212.9
8261	8.2667	1.2727	0.1	2771.3
8262	8.2667	1.4545	0.1	3549.
8263	8.2667	1.6364	0.1	4525.4
8264	8.2667	1.8182	0.1	7895.6
8265	8.2667	2.	0.1	20993
8266	8.1	2.	0.1	21762
8267	8.1	1.8182	0.1	8692.1
8268	8.1	1.6364	0.1	5030.3
8269	8.1	1.4545	0.1	3960.7
8270	8.1	1.2727	0.1	3113.
8271	8.1	1.0909	0.1	2497.4
8272	8.1	0.90909	0.1	2000.8
8273	8.1	0.72727	0.1	1577.1
8274	8.1	0.54545	0.1	1196.9
8275	8.1	0.36364	0.1	837.13
8276	8.1	0.18182	0.1	457.73
8277	8.2667	6.	0.1	50.421
8278	8.4496	6.	0.1	480.71
8279	8.6326	6.	0.1	937.07
8280	8.8155	6.	0.1	1335.6
8281	8.9985	6.	0.1	1685.3
8282	9.1814	6.	0.1	1984.8
8283	9.3643	6.	0.1	2235.1
8284	9.5473	6.	0.1	2438.8
8285	9.7302	6.	0.1	2600.
8286	9.9132	6.	0.1	2723.8
8287	10.096	6.	0.1	2815.4
8288	10.279	6.	0.1	2879.9
8289	10.462	6.	0.1	2921.8
8290	10.645	6.	0.1	2945.3
8291	10.828	6.	0.1	2953.6
8292	11.011	6.	0.1	2949.7
8293	11.194	6.	0.1	2936.2
8294	11.377	6.	0.1	2914.8
8295	11.56	6.	0.1	2887.3
8296	11.743	6.	0.1	2854.9
8297	11.926	6.	0.1	2818.8
8298	12.109	6.	0.1	2779.7
8299	12.291	6.	0.1	2738.3
8300	12.474	6.	0.1	2695.2
8301	12.657	6.	0.1	2650.8
8302	12.84	6.	0.1	2605.4
8303	13.023	6.	0.1	2559.3
8304	13.206	6.	0.1	2512.7
8305	13.389	6.	0.1	2465.8
8306	13.572	6.	0.1	2418.7
8307	13.755	6.	0.1	2371.4
8308	13.938	6.	0.1	2324.2
8309	14.121	6.	0.1	2277.
8310	14.304	6.	0.1	2229.8
8311	14.487	6.	0.1	2182.8
8312	14.67	6.	0.1	2135.9
8313	14.853	6.	0.1	2089.2
8314	15.036	6.	0.1	2042.6
8315	15.219	6.	0.1	1996.3
8316	15.402	6.	0.1	1950.1
8317	15.584	6.	0.1	1904.2
8318	15.767	6.	0.1	1858.4
8319	15.95	6.	0.1	1812.9
8320	16.133	6.	0.1	1767.5
8321	16.316	6.	0.1	1722.4
8322	16.499	6.	0.1	1677.5
8323	16.682	6.	0.1	1632.8
8324	16.865	6.	0.1	1588.3
8325	17.048	6.	0.1	1544.
8326	17.231	6.	0.1	1499.9
8327	17.414	6.	0.1	1456.
8328	17.597	6.	0.1	1412.3
8329	17.78	6.	0.1	1368.8
8330	17.963	6.	0.1	1325.5
8331	18.146	6.	0.1	1282.4
8332	18.329	6.	0.1	1239.5
8333	18.512	6.	0.1	1196.8
8334	18.695	6.	0.1	1154.3
8335	18.878	6.	0.1	1111.9
8336	19.06	6.	0.1	1069.7
8337	19.243	6.	0.1	1027.7
8338	19.426	6.	0.1	985.91
8339	19.609	6.	0.1	944.26
8340	19.792	6.	0.1	902.78
8341	19.975	6.	0.1	861.46
8342	20.158	6.	0.1	820.31
8343	20.341	6.	0.1	779.32
8344	20.524	6.	0.1	738.48
8345	20.707	6.	0.1	697.8
8346	20.89	6.	0.1	657.28
8347	21.073	6.	0.1	616.9
8348	21.256	6.	0.1	576.68
8349	21.439	6.	0.1	536.61
8350	21.622	6.	0.1	496.69
8351	21.805	6.	0.1	456.94
8352	21.988	6.	0.1	417.34
8353	22.171	6.	0.1	377.93
8354	22.353	6.	0.1	338.7
8355	22.536	6.	0.1	299.69
8356	22.719	6.	0.1	260.94
8357	22.902	6.	0.1	222.49
8358	23.085	6.	0.1	184.41
8359	23.268	6.	0.1	146.84
8360	23.451	6.	0.1	109.96
8361	23.634	6.	0.1	74.251
8362	23.817	6.	0.1	39.811
8363	24.	6.	0.1	9.4364
8364	24.	5.8182	0.1	39.539
8365	24.	5.6364	0.1	66.747
8366	24.	5.4545	0.1	87.688
8367	24.	5.2727	0.1	105.13
8368	24.	5.0909	0.1	119.98
8369	24.	4.9091	0.1	132.79
8370	24.	4.7273	0.1	143.88
8371	24.	4.5455	0.1	153.47
8372	24.	4.3636	0.1	161.72
8373	24.	4.1818	0.1	168.76
8374	24.	4.	0.1	174.65
8375	24.	3.8182	0.1	179.48
8376	24.	3.6364	0.1	183.29
8377	24.	3.4545	0.1	186.12
8378	24.	3.2727	0.1	187.99
8379	24.	3.0909	0.1	188.92
8380	24.	2.9091	0.1	188.92
8381	24.	2.7273	0.1	187.99
8382	24.	2.5455	0.1	186.12
8383	24.	2.3636	0.1	183.29
8384	24.	2.1818	0.1	179.48
8385	24.	2.	0.1	174.65
8386	24.	1.8182	0.1	168.76
8387	24.	1.6364	0.1	161.72
8388	24.	1.4545	0.1	153.47
8389	24.	1.2727	0.1	143.88
8390	24.	1.0909	0.1	132.79
8391	24.	0.90909	0.1	119.98
8392	24.	0.72727	0.1	105.13
8393	24.	0.54545	0.1	87.688
8394	24.	0.36364	0.1	66.747
8395	24.	0.18182	0.1	39.539
8396	1.5894e-015	0.18182	0.1	1377.4
8397	3.1789e-015	0.36364	0.1	2366.
8398	4.7683e-015	0.54545	0.1	2885.6
8399	6.3578e-015	0.72727	0.1	3214.4
8400	7.9472e-015	0.90909	0.1	3434.
8401	9.5366e-015	1.0909	0.1	3590.6
8402	1.1126e-014	1.2727	0.1	3706.4
8403	1.2716e-014	1.4545	0.1	3794.2
8404	1.4305e-014	1.6364	0.1	3861.8
8405	1.5894e-014	1.8182	0.1	3914.1
8406	1.7484e-014	2.	0.1	3954.6
8407	1.9073e-014	2.1818	0.1	3985.7
8408	2.0663e-014	2.3636	0.1	4008.9
8409	2.2252e-014	2.5455	0.1	4025.4
8410	2.3842e-014	2.7273	0.1	4036.
8411	2.5431e-014	2.9091	0.1	4041.2
8412	2.702e-014	3.0909	0.1	4041.2
8413	2.861e-014	3.2727	0.1	4036.
8414	3.0199e-014	3.4545	0.1	4025.4
8415	3.1789e-014	3.6364	0.1	4008.9
8416	3.3378e-014	3.8182	0.1	3985.7
8417	3.4968e-014	4.	0.1	3954.6
8418	3.6557e-014	4.1818	0.1	3914.1
8419	3.8147e-014	4.3636	0.1	3861.8
8420	3.9736e-014	4.5455	0.1	3794.2
8421	4.1325e-014	4.7273	0.1	3706.4
8422	4.2915e-014	4.9091	0.1	3590.6
8423	4.4504e-014	5.0909	0.1	3434.
8424	4.6094e-014	5.2727	0.1	3214.4
8425	4.7683e-014	5.4545	0.1	2885.6
8426	4.9273e-014	5.6364	0.1	2366.
8427	5.0862e-014	5.8182	0.1	1377.4
8428	24.	0.	0.1	9.4363
8429	23.817	0.	0.1	39.811
8430	23.634	0.	0.1	74.251
8431	23.451	0.	0.1	109.96
8432	23.268	0.	0.1	146.84
8433	23.085	0.	0.1	184.41
8434	22.902	0.	0.1	222.49
8435	22.719	0.	0.1	260.94
8436	22.536	0.	0.1	299.69
8437	22.353	0.	0.1	338.7
8438	22.171	0.	0.1	377.93
8439	21.988	0.	0.1	417.34
8440	21.805	0.	0.1	456.94
8441	21.622	0.	0.1	496.69
8442	21.439	0.	0.1	536.61
8443	21.256	0.	0.1	576.68
8444	21.073	0.	0.1	616.9
8445	20.89	0.	0.1	657.28
8446	20.707	0.	0.1	697.8
8447	20.524	0.	0.1	738.48
8448	20.341	0.	0.1	779.32
8449	20.158	0.	0.1	820.31
8450	19.975	0.	0.1	861.46
8451	19.792	0.	0.1	902.78
8452	19.609	0.	0.1	944.26
8453	19.426	0.	0.1	985.91
8454	19.243	0.	0.1	1027.7
8455	19.06	0.	0.1	1069.7
8456	18.878	0.	0.1	1111.9
8457	18.695	0.	0.1	1154.3
8458	18.512	0.	0.1	1196.8
8459	18.329	0.	0.1	1239.5
8460	18.146	0.	0.1	1282.4
8461	17.963	0.	0.1	1325.5
8462	17.78	0.	0.1	1368.8
8463	17.597	0.	0.1	1412.3
8464	17.414	0.	0.1	1456.
8465	17.231	0.	0.1	1499.9
8466	17.048	0.	0.1	1544.
8467	16.865	0.	0.1	1588.3
8468	16.682	0.	0.1	1632.8
8469	16.499	0.	0.1	1677.5
8470	16.316	0.	0.1	1722.4
8471	16.133	0.	0.1	1767.5
8472	15.95	0.	0.1	1812.9
8473	15.767	0.	0.1	1858.4
8474	15.584	0.	0.1	1904.2
8475	15.402	0.	0.1	1950.1
8476	15.219	0.	0.1	1996.3
8477	15.036	0.	0.1	2042.6
8478	14.853	0.	0.1	2089.2
8479	14.67	0.	0.1	2135.9
8480	14.487	0.	0.1	2182.8
8481	14.304	0.	0.1	2229.8
8482	14.121	0.	0.1	2277.
8483	13.938	0.	0.1	2324.2
8484	13.755	0.	0.1	2371.4
8485	13.572	0.	0.1	2418.7
8486	13.389	0.	0.1	2465.8
8487	13.206	0.	0.1	2512.7
8488	13.023	0.	0.1	2559.3
8489	12.84	0.	0.1	2605.4
8490	12.657	0.	0.1	2650.8
8491	12.474	0.	0.1	2695.2
8492	12.291	0.	0.1	2738.3
8493	12.109	0.	0.1	2779.7
8494	11.926	0.	0.1	2818.8
8495	11.743	0.	0.1	2854.9
8496	11.56	0.	0.1	2887.3
8497	11.377	0.	0.1	2914.8
8498	11.194	0.	0.1	2936.2
8499	11.011	0.	0.1	2949.7
8500	10.828	0.	0.1	2953.6
8501	10.645	0.	0.1	2945.3
8502	10.462	0.	0.1	2921.8
8503	10.279	0.	0.1	2879.9
8504	10.096	0.	0.1	2815.4
8505	9.9132	0.	0.1	2723.8
8506	9.7302	0.	0.1	2600.
8507	9.5473	0.	0.1	2438.8
8508	9.3643	0.	0.1	2235.1
8509	9.1814	0.	0.1	1984.8
8510	8.9985	0.	0.1	1685.3
8511	8.8155	0.	0.1	1335.6
8512	8.6326	0.	0.1	937.07
8513	8.4496	0.	0.1	480.71
8514	8.2667	0.	0.1	50.421
8515	8.1	0.	0.1	58.633
8516	7.9159	-1.4227e-030	0.1	566.92
8517	7.7318	-1.3896e-030	0.1	1123.
8518	7.5477	-1.3566e-030	0.1	1625.8
8519	7.3636	-1.3235e-030	0.1	2084.6
8520	7.1795	-1.2904e-030	0.1	2496.9
8521	6.9955	-1.2573e-030	0.1	2862.4
8522	6.8114	-1.2242e-030	0.1	3182.6
8523	6.6273	-1.1911e-030	0.1	3461.1
8524	6.4432	-1.158e-030	0.1	3702.5
8525	6.2591	-1.125e-030	0.1	3911.6
8526	6.075	-1.0919e-030	0.1	4093.5
8527	5.8909	-1.0588e-030	0.1	4252.6
8528	5.7068	-1.0257e-030	0.1	4393.
8529	5.5227	-9.9261e-031	0.1	4518.1
8530	5.3386	-9.5952e-031	0.1	4631.1
8531	5.1545	-9.2643e-031	0.1	4734.2
8532	4.9705	-8.9334e-031	0.1	4829.7
8533	4.7864	-8.6026e-031	0.1	4919.
8534	4.6023	-8.2717e-031	0.1	5003.7
8535	4.4182	-7.9408e-031	0.1	5084.7
8536	4.2341	-7.61e-031	0.1	5162.9
8537	4.05	-7.2791e-031	0.1	5238.9
8538	3.8659	-6.9482e-031	0.1	5313.3
8539	3.6818	-6.6174e-031	0.1	5386.5
8540	3.4977	-6.2865e-031	0.1	5458.5
8541	3.3136	-5.9556e-031	0.1	5529.5
8542	3.1295	-5.6248e-031	0.1	5599.4
8543	2.9455	-5.2939e-031	0.1	5668.
8544	2.7614	-4.963e-031	0.1	5735.
8545	2.5773	-4.6322e-031	0.1	5799.7
8546	2.3932	-4.3013e-031	0.1	5861.4
8547	2.2091	-3.9704e-031	0.1	5918.8
8548	2.025	-3.6396e-031	0.1	5970.3
8549	1.8409	-3.3087e-031	0.1	6013.6
8550	1.6568	-2.9778e-031	0.1	6045.6
8551	1.4727	-2.6469e-031	0.1	6061.6
8552	1.2886	-2.3161e-031	0.1	6055.
8553	1.1045	-1.9852e-031	0.1	6015.5
8554	0.92045	-1.6543e-031	0.1	5926.8
8555	0.73636	-1.3235e-031	0.1	5760.5
8556	0.55227	-9.9261e-032	0.1	5461.4
8557	0.36818	-6.6174e-032	0.1	4930.9
8558	0.18409	-3.3087e-032	0.1	3796.2
8559	0.	0.	0.1	2247.4
8560	3.937e-014	6.	0.1	2247.4
8561	0.18409	6.	0.1	3796.2
8562	0.36818	6.	0.1	4930.9
8563	0.55227	6.	0.1	5461.4
8564	0.73636	6.	0.1	5760.5
8565	0.92045	6.	0.1	5926.8
8566	1.1045	6.	0.1	6015.5
8567	1.2886	6.	0.1	6055.
8568	1.4727	6.	0.1	6061.6
8569	1.6568	6.	0.1	6045.6
8570	1.8409	6.	0.1	6013.6
8571	2.025	6.	0.1	5970.3
8572	2.2091	6.	0.1	5918.8
8573	2.3932	6.	0.1	5861.4
8574	2.5773	6.	0.1	5799.7
8575	2.7614	6.	0.1	5735.
8576	2.9455	6.	0.1	5668.
8577	3.1295	6.	0.1	5599.4
8578	3.3136	6.	0.1	5529.5
8579	3.4977	6.	0.1	5458.5
8580	3.6818	6.	0.1	5386.5
8581	3.8659	6.	0.1	5313.3
8582	4.05	6.	0.1	5238.9
8583	4.2341	6.	0.1	5162.9
8584	4.4182	6.	0.1	5084.7
8585	4.6023	6.	0.1	5003.7
8586	4.7864	6.	0.1	4919.
8587	4.9705	6.	0.1	4829.7
8588	5.1545	6.	0.1	4734.2
8589	5.3386	6.	0.1	4631.1
8590	5.5227	6.	0.1	4518.1
8591	5.7068	6.	0.1	4393.
8592	5.8909	6.	0.1	4252.6
8593	6.075	6.	0.1	4093.5
8594	6.2591	6.	0.1	3911.6
8595	6.4432	6.	0.1	3702.5
8596	6.6273	6.	0.1	3461.1
8597	6.8114	6.	0.1	3182.6
8598	6.9955	6.	0.1	2862.4
8599	7.1795	6.	0.1	2496.9
8600	7.3636	6.	0.1	2084.6
8601	7.5477	6.	0.1	1625.8
8602	7.7318	6.	0.1	1123.
8603	7.9159	6.	0.1	566.92
8604	8.1	6.	0.1	58.633
8605	7.9159	6.	0.	566.92
8606	7.7318	6.	0.	1123.
8607	7.5477	6.	0.	1625.8
8608	7.3636	6.	0.	2084.6
8609	7.1795	6.	0.	2496.9
8610	6.9955	6.	0.	2862.4
8611	6.8114	6.	0.	3182.6
8612	6.6273	6.	0.	3461.1
8613	6.4432	6.	0.	3702.5
8614	6.2591	6.	0.	3911.6
8615	6.075	6.	0.	4093.5
8616	5.8909	6.	0.	4252.6
8617	5.7068	6.	0.	4393.
8618	5.5227	6.	0.	4518.1
8619	5.3386	6.	0.	4631.1
8620	5.1545	6.	0.	4734.2
8621	4.9705	6.	0.	4829.7
8622	4.7864	6.	0.	4919.
8623	4.6023	6.	0.	5003.7
8624	4.4182	6.	0.	5084.7
8625	4.2341	6.	0.	5162.9
8626	4.05	6.	0.	5238.9
8627	3.8659	6.	0.	5313.3
8628	3.6818	6.	0.	5386.5
8629	3.4977	6.	0.	5458.5
8630	3.3136	6.	0.	5529.5
8631	3.1295	6.	0.	5599.4
8632	2.9455	6.	0.	5668.
8633	2.7614	6.	0.	5735.
8634	2.5773	6.	0.	5799.7
8635	2.3932	6.	0.	5861.4
8636	2.2091	6.	0.	5918.8
8637	2.025	6.	0.	5970.3
8638	1.8409	6.	0.	6013.6
8639	1.6568	6.	0.	6045.6
8640	1.4727	6.	0.	6061.6
8641	1.2886	6.	0.	6055.
8642	1.1045	6.	0.	6015.5
8643	0.92045	6.	0.	5926.8
8644	0.73636	6.	0.	5760.5
8645	0.55227	6.	0.	5461.4
8646	0.36818	6.	0.	4930.9
8647	0.18409	6.	0.	3796.2
8648	8.1	6.	0.	58.633
8649	3.937e-014	6.	0.	2247.4
8650	0.18409	-3.3087e-032	0.	3796.2
8651	0.36818	-6.6174e-032	0.	4930.9
8652	0.55227	-9.9261e-032	0.	5461.4
8653	0.73636	-1.3235e-031	0.	5760.5
8654	0.92045	-1.6543e-031	0.	5926.8
8655	1.1045	-1.9852e-031	0.	6015.5
8656	1.2886	-2.3161e-031	0.	6055.
8657	1.4727	-2.6469e-031	0.	6061.6
8658	1.6568	-2.9778e-031	0.	6045.6
8659	1.8409	-3.3087e-031	0.	6013.6
8660	2.025	-3.6396e-031	0.	5970.3
8661	2.2091	-3.9704e-031	0.	5918.8
8662	2.3932	-4.3013e-031	0.	5861.4
8663	2.5773	-4.6322e-031	0.	5799.7
8664	2.7614	-4.963e-031	0.	5735.
8665	2.9455	-5.2939e-031	0.	5668.
8666	3.1295	-5.6248e-031	0.	5599.4
8667	3.3136	-5.9556e-031	0.	5529.5
8668	3.4977	-6.2865e-031	0.	5458.5
8669	3.6818	-6.6174e-031	0.	5386.5
8670	3.8659	-6.9482e-031	0.	5313.3
8671	4.05	-7.2791e-031	0.	5238.9
8672	4.2341	-7.61e-031	0.	5162.9
8673	4.4182	-7.9408e-031	0.	5084.7
8674	4.6023	-8.2717e-031	0.	5003.7
8675	4.7864	-8.6026e-031	0.	4919.
8676	4.9705	-8.9334e-031	0.	4829.7
8677	5.1545	-9.2643e-031	0.	4734.2
8678	5.3386	-9.5952e-031	0.	4631.1
8679	5.5227	-9.9261e-031	0.	4518.1
8680	5.7068	-1.0257e-030	0.	4393.
8681	5.8909	-1.0588e-030	0.	4252.6
8682	6.075	-1.0919e-030	0.	4093.5
8683	6.2591	-1.125e-030	0.	3911.6
8684	6.4432	-1.158e-030	0.	3702.5
8685	6.6273	-1.1911e-030	0.	3461.1
8686	6.8114	-1.2242e-030	0.	3182.6
8687	6.9955	-1.2573e-030	0.	2862.4
8688	7.1795	-1.2904e-030	0.	2496.9
8689	7.3636	-1.3235e-030	0.	2084.6
8690	7.5477	-1.3566e-030	0.	1625.8
8691	7.7318	-1.3896e-030	0.	1123.
8692	7.9159	-1.4227e-030	0.	566.92
8693	8.1	0.	0.	58.633
8694	0.	0.	0.	2247.4
8695	8.4496	0.	0.	480.71
8696	8.6326	0.	0.	937.07
8697	8.8155	0.	0.	1335.6
8698	8.9985	0.	0.	1685.3
8699	9.1814	0.	0.	1984.8
8700	9.3643	0.	0.	2235.1
8701	9.5473	0.	0.	2438.8
8702	9.7302	0.	0.	2600.
8703	9.9132	0.	0.	2723.8
8704	10.096	0.	0.	2815.4
8705	10.279	0.	0.	2879.9
8706	10.462	0.	0.	2921.8
8707	10.645	0.	0.	2945.3
8708	10.828	0.	0.	2953.6
8709	11.011	0.	0.	2949.7
8710	11.194	0.	0.	2936.2
8711	11.377	0.	0.	2914.8
8712	11.56	0.	0.	2887.3
8713	11.743	0.	0.	2854.9
8714	11.926	0.	0.	2818.8
8715	12.109	0.	0.	2779.7
8716	12.291	0.	0.	2738.3
8717	12.474	0.	0.	2695.2
8718	12.657	0.	0.	2650.8
8719	12.84	0.	0.	2605.4
8720	13.023	0.	0.	2559.3
8721	13.206	0.	0.	2512.7
8722	13.389	0.	0.	2465.8
8723	13.572	0.	0.	2418.7
8724	13.755	0.	0.	2371.4
8725	13.938	0.	0.	2324.2
8726	14.121	0.	0.	2277.
8727	14.304	0.	0.	2229.8
8728	14.487	0.	0.	2182.8
8729	14.67	0.	0.	2135.9
8730	14.853	0.	0.	2089.2
8731	15.036	0.	0.	2042.6
8732	15.219	0.	0.	1996.3
8733	15.402	0.	0.	1950.1
8734	15.584	0.	0.	1904.2
8735	15.767	0.	0.	1858.4
8736	15.95	0.	0.	1812.9
8737	16.133	0.	0.	1767.5
8738	16.316	0.	0.	1722.4
8739	16.499	0.	0.	1677.5
8740	16.682	0.	0.	1632.8
8741	16.865	0.	0.	1588.3
8742	17.048	0.	0.	1544.
8743	17.231	0.	0.	1499.9
8744	17.414	0.	0.	1456.
8745	17.597	0.	0.	1412.3
8746	17.78	0.	0.	1368.8
8747	17.963	0.	0.	1325.5
8748	18.146	0.	0.	1282.4
8749	18.329	0.	0.	1239.5
8750	18.512	0.	0.	1196.8
8751	18.695	0.	0.	1154.3
8752	18.878	0.	0.	1111.9
8753	19.06	0.	0.	1069.7
8754	19.243	0.	0.	1027.7
8755	19.426	0.	0.	985.91
8756	19.609	0.	0.	944.26
8757	19.792	0.	0.	902.78
8758	19.975	0.	0.	861.46
8759	20.158	0.	0.	820.31
8760	20.341	0.	0.	779.32
8761	20.524	0.	0.	738.48
8762	20.707	0.	0.	697.8
8763	20.89	0.	0.	657.28
8764	21.073	0.	0.	616.9
8765	21.256	0.	0.	576.68
8766	21.439	0.	0.	536.61
8767	21.622	0.	0.	496.69
8768	21.805	0.	0.	456.94
8769	21.988	0.	0.	417.34
8770	22.171	0.	0.	377.93
8771	22.353	0.	0.	338.7
8772	22.536	0.	0.	299.69
8773	22.719	0.	0.	260.94
8774	22.902	0.	0.	222.49
8775	23.085	0.	0.	184.41
8776	23.268	0.	0.	146.84
8777	23.451	0.	0.	109.96
8778	23.634	0.	0.	74.251
8779	23.817	0.	0.	39.811
8780	8.2667	0.	0.	50.421
8781	24.	0.	0.	9.4364
8782	5.0862e-014	5.8182	0.	1377.4
8783	4.9273e-014	5.6364	0.	2366.
8784	4.7683e-014	5.4545	0.	2885.6
8785	4.6094e-014	5.2727	0.	3214.4
8786	4.4504e-014	5.0909	0.	3434.
8787	4.2915e-014	4.9091	0.	3590.6
8788	4.1325e-014	4.7273	0.	3706.4
8789	3.9736e-014	4.5455	0.	3794.2
8790	3.8147e-014	4.3636	0.	3861.8
8791	3.6557e-014	4.1818	0.	3914.1
8792	3.4968e-014	4.	0.	3954.6
8793	3.3378e-014	3.8182	0.	3985.7
8794	3.1789e-014	3.6364	0.	4008.9
8795	3.0199e-014	3.4545	0.	4025.4
8796	2.861e-014	3.2727	0.	4036.
8797	2.702e-014	3.0909	0.	4041.2
8798	2.5431e-014	2.9091	0.	4041.2
8799	2.3842e-014	2.7273	0.	4036.
8800	2.2252e-014	2.5455	0.	4025.4
8801	2.0663e-014	2.3636	0.	4008.9
8802	1.9073e-014	2.1818	0.	3985.7
8803	1.7484e-014	2.	0.	3954.6
8804	1.5894e-014	1.8182	0.	3914.1
8805	1.4305e-014	1.6364	0.	3861.8
8806	1.2716e-014	1.4545	0.	3794.2
8807	1.1126e-014	1.2727	0.	3706.4
8808	9.5366e-015	1.0909	0.	3590.6
8809	7.9472e-015	0.90909	0.	3434.
8810	6.3578e-015	0.72727	0.	3214.4
8811	4.7683e-015	0.54545	0.	2885.6
8812	3.1789e-015	0.36364	0.	2366.
8813	1.5894e-015	0.18182	0.	1377.4
8814	24.	0.18182	0.	39.539
8815	24.	0.36364	0.	66.747
8816	24.	0.54545	0.	87.688
8817	24.	0.72727	0.	105.13
8818	24.	0.90909	0.	119.98
8819	24.	1.0909	0.	132.79
8820	24.	1.2727	0.	143.88
8821	24.	1.4545	0.	153.47
8822	24.	1.6364	0.	161.72
8823	24.	1.8182	0.	168.76
8824	24.	2.	0.	174.65
8825	24.	2.1818	0.	179.48
8826	24.	2.3636	0.	183.29
8827	24.	2.5455	0.	186.12
8828	24.	2.7273	0.	187.99
8829	24.	2.9091	0.	188.92
8830	24.	3.0909	0.	188.92
8831	24.	3.2727	0.	187.99
8832	24.	3.4545	0.	186.12
8833	24.	3.6364	0.	183.29
8834	24.	3.8182	0.	179.48
8835	24.	4.	0.	174.65
8836	24.	4.1818	0.	168.76
8837	24.	4.3636	0.	161.72
8838	24.	4.5455	0.	153.47
8839	24.	4.7273	0.	143.88
8840	24.	4.9091	0.	132.79
8841	24.	5.0909	0.	119.98
8842	24.	5.2727	0.	105.13
8843	24.	5.4545	0.	87.688
8844	24.	5.6364	0.	66.747
8845	24.	5.8182	0.	39.539
8846	24.	6.	0.	9.4364
8847	23.817	6.	0.	39.811
8848	23.634	6.	0.	74.251
8849	23.451	6.	0.	109.96
8850	23.268	6.	0.	146.84
8851	23.085	6.	0.	184.41
8852	22.902	6.	0.	222.49
8853	22.719	6.	0.	260.94
8854	22.536	6.	0.	299.69
8855	22.353	6.	0.	338.7
8856	22.171	6.	0.	377.93
8857	21.988	6.	0.	417.34
8858	21.805	6.	0.	456.94
8859	21.622	6.	0.	496.69
8860	21.439	6.	0.	536.61
8861	21.256	6.	0.	576.68
8862	21.073	6.	0.	616.9
8863	20.89	6.	0.	657.28
8864	20.707	6.	0.	697.8
8865	20.524	6.	0.	738.48
8866	20.341	6.	0.	779.32
8867	20.158	6.	0.	820.31
8868	19.975	6.	0.	861.46
8869	19.792	6.	0.	902.78
8870	19.609	6.	0.	944.26
8871	19.426	6.	0.	985.91
8872	19.243	6.	0.	1027.7
8873	19.06	6.	0.	1069.7
8874	18.878	6.	0.	1111.9
8875	18.695	6.	0.	1154.3
8876	18.512	6.	0.	1196.8
8877	18.329	6.	0.	1239.5
8878	18.146	6.	0.	1282.4
8879	17.963	6.	0.	1325.5
8880	17.78	6.	0.	1368.8
8881	17.597	6.	0.	1412.3
8882	17.414	6.	0.	1456.
8883	17.231	6.	0.	1499.9
8884	17.048	6.	0.	1544.
8885	16.865	6.	0.	1588.3
8886	16.682	6.	0.	1632.8
8887	16.499	6.	0.	1677.5
8888	16.316	6.	0.	1722.4
8889	16.133	6.	0.	1767.5
8890	15.95	6.	0.	1812.9
8891	15.767	6.	0.	1858.4
8892	15.584	6.	0.	1904.2
8893	15.402	6.	0.	1950.1
8894	15.219	6.	0.	1996.3
8895	15.036	6.	0.	2042.6
8896	14.853	6.	0.	2089.2
8897	14.67	6.	0.	2135.9
8898	14.487	6.	0.	2182.8
8899	14.304	6.	0.	2229.8
8900	14.121	6.	0.	2277.
8901	13.938	6.	0.	2324.2
8902	13.755	6.	0.	2371.4
8903	13.572	6.	0.	2418.7
8904	13.389	6.	0.	2465.8
8905	13.206	6.	0.	2512.7
8906	13.023	6.	0.	2559.3
8907	12.84	6.	0.	2605.4
8908	12.657	6.	0.	2650.8
8909	12.474	6.	0.	2695.2
8910	12.291	6.	0.	2738.3
8911	12.109	6.	0.	2779.7
8912	11.926	6.	0.	2818.8
8913	11.743	6.	0.	2854.9
8914	11.56	6.	0.	2887.3
8915	11.377	6.	0.	2914.8
8916	11.194	6.	0.	2936.2
8917	11.011	6.	0.	2949.7
8918	10.828	6.	0.	2953.6
8919	10.645	6.	0.	2945.3
8920	10.462	6.	0.	2921.8
8921	10.279	6.	0.	2879.9
8922	10.096	6.	0.	2815.4
8923	9.9132	6.	0.	2723.8
8924	9.7302	6.	0.	2600.
8925	9.5473	6.	0.	2438.8
8926	9.3643	6.	0.	2235.1
8927	9.1814	6.	0.	1984.8
8928	8.9985	6.	0.	1685.3
8929	8.8155	6.	0.	1335.6
8930	8.6326	6.	0.	937.07
8931	8.4496	6.	0.	480.71
8932	8.2667	6.	0.	50.421
8933	8.1	1.8182	0.	8692.1
8934	8.1	1.6364	0.	5030.3
8935	8.1	1.4545	0.	3960.7
8936	8.1	1.2727	0.	3113.
8937	8.1	1.0909	0.	2497.4
8938	8.1	0.90909	0.	2000.8
8939	8.1	0.72727	0.	1577.1
8940	8.1	0.54545	0.	1196.9
8941	8.1	0.36364	0.	837.13
8942	8.1	0.18182	0.	457.73
8943	8.1	2.	0.	21762
8944	8.2667	0.18182	0.	401.57
8945	8.2667	0.36364	0.	736.58
8946	8.2667	0.54545	0.	1053.9
8947	8.2667	0.72727	0.	1390.1
8948	8.2667	0.90909	0.	1767.1
8949	8.2667	1.0909	0.	2212.9
8950	8.2667	1.2727	0.	2771.3
8951	8.2667	1.4545	0.	3549.
8952	8.2667	1.6364	0.	4525.4
8953	8.2667	1.8182	0.	7895.6
8954	8.2667	2.	0.	20993
8955	8.1	4.1818	0.	8692.1
8956	8.1	4.3636	0.	5030.3
8957	8.1	4.5455	0.	3960.7
8958	8.1	4.7273	0.	3113.
8959	8.1	4.9091	0.	2497.4
8960	8.1	5.0909	0.	2000.8
8961	8.1	5.2727	0.	1577.1
8962	8.1	5.4545	0.	1196.9
8963	8.1	5.6364	0.	837.13
8964	8.1	5.8182	0.	457.73
8965	8.1	4.	0.	21762
8966	8.2667	5.8182	0.	401.57
8967	8.2667	5.6364	0.	736.58
8968	8.2667	5.4545	0.	1053.9
8969	8.2667	5.2727	0.	1390.1
8970	8.2667	5.0909	0.	1767.1
8971	8.2667	4.9091	0.	2212.9
8972	8.2667	4.7273	0.	2771.3
8973	8.2667	4.5455	0.	3549.
8974	8.2667	4.3636	0.	4525.4
8975	8.2667	4.1818	0.	7895.6
8976	8.2667	4.	0.	20993
8977	8.1	2.2727	0.	13227
8978	8.1833	2.1818	0.	14481
8979	8.008	2.1818	0.	12721
8980	8.1	2.1818	5.e-002	867.23
8981	8.1	2.0909	0.	17826
8982	8.1	2.4545	0.	11007
8983	8.1833	2.3636	0.	11609
8984	8.008	2.3636	0.	10957
8985	8.1	2.3636	5.e-002	149.4
8986	8.1	2.6364	0.	9959.5
8987	8.1833	2.5455	0.	10271
8988	8.008	2.5455	0.	9925.3
8989	8.1	2.5455	5.e-002	70.979
8990	8.1	2.8182	0.	9448.7
8991	8.1833	2.7273	0.	9567.5
8992	8.008	2.7273	0.	9363.
8993	8.1	2.7273	5.e-002	36.48
8994	8.1	3.	0.	9295.8
8995	8.1833	2.9091	0.	9265.4
8996	8.008	2.9091	0.	9111.6
8997	8.1	2.9091	5.e-002	20.344
8998	8.1	3.1818	0.	9448.7
8999	8.1833	3.0909	0.	9265.4
9000	8.008	3.0909	0.	9111.6
9001	8.1	3.0909	5.e-002	20.344
9002	8.1	3.3636	0.	9959.5
9003	8.1833	3.2727	0.	9567.5
9004	8.008	3.2727	0.	9363.
9005	8.1	3.2727	5.e-002	36.48
9006	8.1	3.5455	0.	11007
9007	8.1833	3.4545	0.	10271
9008	8.008	3.4545	0.	9925.3
9009	8.1	3.4545	5.e-002	70.979
9010	8.1	3.7273	0.	13227
9011	8.1833	3.6364	0.	11609
9012	8.008	3.6364	0.	10957
9013	8.1	3.6364	5.e-002	149.4
9014	8.1833	3.8182	0.	14481
9015	8.008	3.8182	0.	12721
9016	8.1	3.8182	5.e-002	867.23
9017	8.1	3.9091	0.	17826
9018	8.2667	2.2727	0.	13113
9019	8.3581	2.1818	0.	12513
9020	8.2667	2.1818	5.e-002	799.65
9021	8.2667	2.0909	0.	17386
9022	8.2667	2.4545	0.	10946
9023	8.3581	2.3636	0.	10834
9024	8.2667	2.3636	5.e-002	159.58
9025	8.2667	2.6364	0.	9898.3
9026	8.3581	2.5455	0.	9801.8
9027	8.2667	2.5455	5.e-002	77.929
9028	8.2667	2.8182	0.	9387.9
9029	8.3581	2.7273	0.	9239.8
9030	8.2667	2.7273	5.e-002	43.492
9031	8.2667	3.	0.	9234.9
9032	8.3581	2.9091	0.	8988.
9033	8.2667	2.9091	5.e-002	28.91
9034	8.2667	3.1818	0.	9387.9
9035	8.3581	3.0909	0.	8988.
9036	8.2667	3.0909	5.e-002	28.91
9037	8.2667	3.3636	0.	9898.3
9038	8.3581	3.2727	0.	9239.8
9039	8.2667	3.2727	5.e-002	43.492
9040	8.2667	3.5455	0.	10946
9041	8.3581	3.4545	0.	9801.8
9042	8.2667	3.4545	5.e-002	77.929
9043	8.2667	3.7273	0.	13113
9044	8.3581	3.6364	0.	10834
9045	8.2667	3.6364	5.e-002	159.58
9046	8.3581	3.8182	0.	12513
9047	8.2667	3.8182	5.e-002	799.65
9048	8.2667	3.9091	0.	17386
9049	7.9159	5.7273	0.	1034.2
9050	7.8239	5.8182	0.	1046.3
9051	7.9159	5.8182	5.e-002	112.07
9052	7.9159	5.9091	0.	665.64
9053	8.008	5.8182	0.	585.23
9054	7.9159	5.5455	0.	1480.2
9055	7.8239	5.6364	0.	1330.9
9056	7.9159	5.6364	5.e-002	100.8
9057	8.008	5.6364	0.	962.04
9058	7.9159	5.3636	0.	2003.9
9059	7.8239	5.4545	0.	1749.5
9060	7.9159	5.4545	5.e-002	106.2
9061	8.008	5.4545	0.	1376.6
9062	7.9159	5.1818	0.	2594.2
9063	7.8239	5.2727	0.	2246.4
9064	7.9159	5.2727	5.e-002	117.62
9065	8.008	5.2727	0.	1827.
9066	7.9159	5.	0.	3273.8
9067	7.8239	5.0909	0.	2819.5
9068	7.9159	5.0909	5.e-002	134.96
9069	8.008	5.0909	0.	2331.7
9070	7.9159	4.8182	0.	4086.6
9071	7.8239	4.9091	0.	3487.9
9072	7.9159	4.9091	5.e-002	159.66
9073	8.008	4.9091	0.	2920.
9074	7.9159	4.6364	0.	5109.6
9075	7.8239	4.7273	0.	4290.1
9076	7.9159	4.7273	5.e-002	198.01
9077	8.008	4.7273	0.	3640.4
9078	7.9159	4.4545	0.	6506.6
9079	7.8239	4.5455	0.	5282.5
9080	7.9159	4.5455	5.e-002	246.62
9081	8.008	4.5455	0.	4591.9
9082	7.9159	4.2727	0.	8488.9
9083	7.8239	4.3636	0.	6572.6
9084	7.9159	4.3636	5.e-002	372.43
9085	8.008	4.3636	0.	5865.6
9086	7.9159	4.0909	0.	10484
9087	7.8239	4.1818	0.	8323.9
9088	7.9159	4.1818	5.e-002	696.8
9089	8.008	4.1818	0.	8404.
9090	7.9159	3.9091	0.	11069
9091	7.8239	4.	0.	9614.8
9092	7.9159	4.	5.e-002	1253.5
9093	8.008	4.	0.	16380
9094	7.9159	3.7273	0.	10592
9095	7.8239	3.8182	0.	9643.8
9096	7.9159	3.8182	5.e-002	579.55
9097	7.9159	3.5455	0.	9914.1
9098	7.8239	3.6364	0.	9386.8
9099	7.9159	3.6364	5.e-002	248.53
9100	7.9159	3.3636	0.	9340.5
9101	7.8239	3.4545	0.	8998.2
9102	7.9159	3.4545	5.e-002	136.47
9103	7.9159	3.1818	0.	9026.9
9104	7.8239	3.2727	0.	8729.7
9105	7.9159	3.2727	5.e-002	80.828
9106	7.9159	3.	0.	8925.6
9107	7.8239	3.0909	0.	8593.6
9108	7.9159	3.0909	5.e-002	61.395
9109	7.9159	2.8182	0.	9026.9
9110	7.8239	2.9091	0.	8593.6
9111	7.9159	2.9091	5.e-002	61.395
9112	7.9159	2.6364	0.	9340.5
9113	7.8239	2.7273	0.	8729.7
9114	7.9159	2.7273	5.e-002	80.828
9115	7.9159	2.4545	0.	9914.1
9116	7.8239	2.5455	0.	8998.2
9117	7.9159	2.5455	5.e-002	136.47
9118	7.9159	2.2727	0.	10592
9119	7.8239	2.3636	0.	9386.8
9120	7.9159	2.3636	5.e-002	248.53
9121	7.9159	2.0909	0.	11069
9122	7.8239	2.1818	0.	9643.8
9123	7.9159	2.1818	5.e-002	579.55
9124	7.9159	1.9091	0.	10484
9125	7.8239	2.	0.	9614.8
9126	7.9159	2.	5.e-002	1253.5
9127	8.008	2.	0.	16380
9128	7.9159	1.7273	0.	8488.9
9129	7.8239	1.8182	0.	8323.9
9130	7.9159	1.8182	5.e-002	696.8
9131	8.008	1.8182	0.	8404.
9132	7.9159	1.5455	0.	6506.6
9133	7.8239	1.6364	0.	6572.6
9134	7.9159	1.6364	5.e-002	372.43
9135	8.008	1.6364	0.	5865.6
9136	7.9159	1.3636	0.	5109.6
9137	7.8239	1.4545	0.	5282.5
9138	7.9159	1.4545	5.e-002	246.62
9139	8.008	1.4545	0.	4591.9
9140	7.9159	1.1818	0.	4086.6
9141	7.8239	1.2727	0.	4290.1
9142	7.9159	1.2727	5.e-002	198.01
9143	8.008	1.2727	0.	3640.4
9144	7.9159	1.	0.	3273.8
9145	7.8239	1.0909	0.	3487.9
9146	7.9159	1.0909	5.e-002	159.66
9147	8.008	1.0909	0.	2920.
9148	7.9159	0.81818	0.	2594.2
9149	7.8239	0.90909	0.	2819.5
9150	7.9159	0.90909	5.e-002	134.96
9151	8.008	0.90909	0.	2331.7
9152	7.9159	0.63636	0.	2003.9
9153	7.8239	0.72727	0.	2246.4
9154	7.9159	0.72727	5.e-002	117.62
9155	8.008	0.72727	0.	1827.
9156	7.9159	0.45455	0.	1480.2
9157	7.8239	0.54545	0.	1749.5
9158	7.9159	0.54545	5.e-002	106.2
9159	8.008	0.54545	0.	1376.6
9160	7.9159	0.27273	0.	1034.2
9161	7.8239	0.36364	0.	1330.9
9162	7.9159	0.36364	5.e-002	100.8
9163	8.008	0.36364	0.	962.04
9164	7.8239	0.18182	0.	1046.3
9165	7.9159	0.18182	5.e-002	112.07
9166	7.9159	9.0909e-002	0.	665.64
9167	8.008	0.18182	0.	585.23
9168	7.7318	5.7273	0.	1388.4
9169	7.6398	5.8182	0.	1524.1
9170	7.7318	5.8182	5.e-002	102.12
9171	7.7318	5.9091	0.	1181.8
9172	7.7318	5.5455	0.	1667.7
9173	7.6398	5.6364	0.	1695.2
9174	7.7318	5.6364	5.e-002	89.045
9175	7.7318	5.3636	0.	2064.2
9176	7.6398	5.4545	0.	1994.
9177	7.7318	5.4545	5.e-002	89.694
9178	7.7318	5.1818	0.	2547.1
9179	7.6398	5.2727	0.	2387.1
9180	7.7318	5.2727	5.e-002	94.246
9181	7.7318	5.	0.	3116.1
9182	7.6398	5.0909	0.	2862.7
9183	7.7318	5.0909	5.e-002	102.37
9184	7.7318	4.8182	0.	3788.6
9185	7.6398	4.9091	0.	3422.3
9186	7.7318	4.9091	5.e-002	114.57
9187	7.7318	4.6364	0.	4585.5
9188	7.6398	4.7273	0.	4077.3
9189	7.7318	4.7273	5.e-002	130.07
9190	7.7318	4.4545	0.	5527.6
9191	7.6398	4.5455	0.	4834.
9192	7.7318	4.5455	5.e-002	159.22
9193	7.7318	4.2727	0.	6564.2
9194	7.6398	4.3636	0.	5688.4
9195	7.7318	4.3636	5.e-002	151.62
9196	7.7318	4.0909	0.	7420.7
9197	7.6398	4.1818	0.	6535.8
9198	7.7318	4.1818	5.e-002	221.57
9199	7.7318	3.9091	0.	8044.8
9200	7.6398	4.	0.	7161.
9201	7.7318	4.	5.e-002	192.37
9202	7.7318	3.7273	0.	8390.3
9203	7.6398	3.8182	0.	7633.
9204	7.7318	3.8182	5.e-002	271.9
9205	7.7318	3.5455	0.	8453.6
9206	7.6398	3.6364	0.	7871.7
9207	7.7318	3.6364	5.e-002	190.16
9208	7.7318	3.3636	0.	8379.1
9209	7.6398	3.4545	0.	7931.
9210	7.7318	3.4545	5.e-002	141.78
9211	7.7318	3.1818	0.	8289.9
9212	7.6398	3.2727	0.	7907.4
9213	7.7318	3.2727	5.e-002	101.45
9214	7.7318	3.	0.	8255.3
9215	7.6398	3.0909	0.	7881.3
9216	7.7318	3.0909	5.e-002	84.158
9217	7.7318	2.8182	0.	8289.9
9218	7.6398	2.9091	0.	7881.3
9219	7.7318	2.9091	5.e-002	84.158
9220	7.7318	2.6364	0.	8379.1
9221	7.6398	2.7273	0.	7907.4
9222	7.7318	2.7273	5.e-002	101.45
9223	7.7318	2.4545	0.	8453.6
9224	7.6398	2.5455	0.	7931.
9225	7.7318	2.5455	5.e-002	141.78
9226	7.7318	2.2727	0.	8390.3
9227	7.6398	2.3636	0.	7871.7
9228	7.7318	2.3636	5.e-002	190.16
9229	7.7318	2.0909	0.	8044.8
9230	7.6398	2.1818	0.	7633.
9231	7.7318	2.1818	5.e-002	271.9
9232	7.7318	1.9091	0.	7420.7
9233	7.6398	2.	0.	7161.
9234	7.7318	2.	5.e-002	192.37
9235	7.7318	1.7273	0.	6564.2
9236	7.6398	1.8182	0.	6535.8
9237	7.7318	1.8182	5.e-002	221.57
9238	7.7318	1.5455	0.	5527.6
9239	7.6398	1.6364	0.	5688.4
9240	7.7318	1.6364	5.e-002	151.62
9241	7.7318	1.3636	0.	4585.5
9242	7.6398	1.4545	0.	4834.
9243	7.7318	1.4545	5.e-002	159.22
9244	7.7318	1.1818	0.	3788.6
9245	7.6398	1.2727	0.	4077.3
9246	7.7318	1.2727	5.e-002	130.07
9247	7.7318	1.	0.	3116.1
9248	7.6398	1.0909	0.	3422.3
9249	7.7318	1.0909	5.e-002	114.57
9250	7.7318	0.81818	0.	2547.1
9251	7.6398	0.90909	0.	2862.7
9252	7.7318	0.90909	5.e-002	102.37
9253	7.7318	0.63636	0.	2064.2
9254	7.6398	0.72727	0.	2387.1
9255	7.7318	0.72727	5.e-002	94.246
9256	7.7318	0.45455	0.	1667.7
9257	7.6398	0.54545	0.	1994.
9258	7.7318	0.54545	5.e-002	89.694
9259	7.7318	0.27273	0.	1388.4
9260	7.6398	0.36364	0.	1695.2
9261	7.7318	0.36364	5.e-002	89.045
9262	7.6398	0.18182	0.	1524.1
9263	7.7318	0.18182	5.e-002	102.12
9264	7.7318	9.0909e-002	0.	1181.8
9265	7.5477	5.7273	0.	1840.8
9266	7.4557	5.8182	0.	1987.
9267	7.5477	5.8182	5.e-002	96.359
9268	7.5477	5.9091	0.	1679.5
9269	7.5477	5.5455	0.	2046.9
9270	7.4557	5.6364	0.	2123.8
9271	7.5477	5.6364	5.e-002	83.622
9272	7.5477	5.3636	0.	2355.7
9273	7.4557	5.4545	0.	2355.9
9274	7.5477	5.4545	5.e-002	83.728
9275	7.5477	5.1818	0.	2750.5
9276	7.4557	5.2727	0.	2670.7
9277	7.5477	5.2727	5.e-002	86.204
9278	7.5477	5.	0.	3224.
9279	7.4557	5.0909	0.	3060.4
9280	7.5477	5.0909	5.e-002	90.215
9281	7.5477	4.8182	0.	3773.6
9282	7.4557	4.9091	0.	3519.2
9283	7.5477	4.9091	5.e-002	95.264
9284	7.5477	4.6364	0.	4394.4
9285	7.4557	4.7273	0.	4040.7
9286	7.5477	4.7273	5.e-002	99.596
9287	7.5477	4.4545	0.	5056.2
9288	7.4557	4.5455	0.	4612.
9289	7.5477	4.5455	5.e-002	98.072
9290	7.5477	4.2727	0.	5699.1
9291	7.4557	4.3636	0.	5191.7
9292	7.5477	4.3636	5.e-002	96.439
9293	7.5477	4.0909	0.	6268.8
9294	7.4557	4.1818	0.	5726.9
9295	7.5477	4.1818	5.e-002	93.423
9296	7.5477	3.9091	0.	6733.6
9297	7.4557	4.	0.	6182.7
9298	7.5477	4.	5.e-002	120.11
9299	7.5477	3.7273	0.	7094.5
9300	7.4557	3.8182	0.	6555.2
9301	7.5477	3.8182	5.e-002	131.25
9302	7.5477	3.5455	0.	7331.9
9303	7.4557	3.6364	0.	6846.8
9304	7.5477	3.6364	5.e-002	132.74
9305	7.5477	3.3636	0.	7446.9
9306	7.4557	3.4545	0.	7027.3
9307	7.5477	3.4545	5.e-002	113.2
9308	7.5477	3.1818	0.	7489.1
9309	7.4557	3.2727	0.	7118.8
9310	7.5477	3.2727	5.e-002	97.169
9311	7.5477	3.	0.	7498.4
9312	7.4557	3.0909	0.	7154.5
9313	7.5477	3.0909	5.e-002	87.736
9314	7.5477	2.8182	0.	7489.1
9315	7.4557	2.9091	0.	7154.5
9316	7.5477	2.9091	5.e-002	87.736
9317	7.5477	2.6364	0.	7446.9
9318	7.4557	2.7273	0.	7118.8
9319	7.5477	2.7273	5.e-002	97.169
9320	7.5477	2.4545	0.	7331.9
9321	7.4557	2.5455	0.	7027.3
9322	7.5477	2.5455	5.e-002	113.2
9323	7.5477	2.2727	0.	7094.5
9324	7.4557	2.3636	0.	6846.8
9325	7.5477	2.3636	5.e-002	132.74
9326	7.5477	2.0909	0.	6733.6
9327	7.4557	2.1818	0.	6555.2
9328	7.5477	2.1818	5.e-002	131.25
9329	7.5477	1.9091	0.	6268.8
9330	7.4557	2.	0.	6182.7
9331	7.5477	2.	5.e-002	120.11
9332	7.5477	1.7273	0.	5699.1
9333	7.4557	1.8182	0.	5726.9
9334	7.5477	1.8182	5.e-002	93.423
9335	7.5477	1.5455	0.	5056.2
9336	7.4557	1.6364	0.	5191.7
9337	7.5477	1.6364	5.e-002	96.439
9338	7.5477	1.3636	0.	4394.4
9339	7.4557	1.4545	0.	4612.
9340	7.5477	1.4545	5.e-002	98.072
9341	7.5477	1.1818	0.	3773.6
9342	7.4557	1.2727	0.	4040.7
9343	7.5477	1.2727	5.e-002	99.596
9344	7.5477	1.	0.	3224.
9345	7.4557	1.0909	0.	3519.2
9346	7.5477	1.0909	5.e-002	95.264
9347	7.5477	0.81818	0.	2750.5
9348	7.4557	0.90909	0.	3060.4
9349	7.5477	0.90909	5.e-002	90.215
9350	7.5477	0.63636	0.	2355.7
9351	7.4557	0.72727	0.	2670.7
9352	7.5477	0.72727	5.e-002	86.204
9353	7.5477	0.45455	0.	2046.9
9354	7.4557	0.54545	0.	2355.9
9355	7.5477	0.54545	5.e-002	83.728
9356	7.5477	0.27273	0.	1840.8
9357	7.4557	0.36364	0.	2123.8
9358	7.5477	0.36364	5.e-002	83.622
9359	7.4557	0.18182	0.	1987.
9360	7.5477	0.18182	5.e-002	96.359
9361	7.5477	9.0909e-002	0.	1679.5
9362	7.3636	5.7273	0.	2274.2
9363	7.2716	5.8182	0.	2407.9
9364	7.3636	5.8182	5.e-002	88.778
9365	7.3636	5.9091	0.	2135.2
9366	7.3636	5.5455	0.	2443.7
9367	7.2716	5.6364	0.	2529.8
9368	7.3636	5.6364	5.e-002	76.084
9369	7.3636	5.3636	0.	2691.2
9370	7.2716	5.4545	0.	2720.
9371	7.3636	5.4545	5.e-002	75.506
9372	7.3636	5.1818	0.	3009.1
9373	7.2716	5.2727	0.	2973.9
9374	7.3636	5.2727	5.e-002	76.094
9375	7.3636	5.	0.	3390.4
9376	7.2716	5.0909	0.	3287.2
9377	7.3636	5.0909	5.e-002	76.793
9378	7.3636	4.8182	0.	3825.
9379	7.2716	4.9091	0.	3652.2
9380	7.3636	4.9091	5.e-002	76.745
9381	7.3636	4.6364	0.	4296.6
9382	7.2716	4.7273	0.	4056.7
9383	7.3636	4.7273	5.e-002	74.593
9384	7.3636	4.4545	0.	4779.1
9385	7.2716	4.5455	0.	4481.7
9386	7.3636	4.5455	5.e-002	69.812
9387	7.3636	4.2727	0.	5237.
9388	7.2716	4.3636	0.	4900.4
9389	7.3636	4.3636	5.e-002	64.16
9390	7.3636	4.0909	0.	5646.5
9391	7.2716	4.1818	0.	5283.4
9392	7.3636	4.1818	5.e-002	65.521
9393	7.3636	3.9091	0.	6003.2
9394	7.2716	4.	0.	5622.
9395	7.3636	4.	5.e-002	75.562
9396	7.3636	3.7273	0.	6302.4
9397	7.2716	3.8182	0.	5916.5
9398	7.3636	3.8182	5.e-002	84.373
9399	7.3636	3.5455	0.	6534.1
9400	7.2716	3.6364	0.	6161.6
9401	7.3636	3.6364	5.e-002	88.415
9402	7.3636	3.3636	0.	6690.6
9403	7.2716	3.4545	0.	6345.9
9404	7.3636	3.4545	5.e-002	86.713
9405	7.3636	3.1818	0.	6776.
9406	7.2716	3.2727	0.	6462.9
9407	7.3636	3.2727	5.e-002	82.324
9408	7.3636	3.	0.	6802.5
9409	7.2716	3.0909	0.	6518.1
9410	7.3636	3.0909	5.e-002	79.105
9411	7.3636	2.8182	0.	6776.
9412	7.2716	2.9091	0.	6518.1
9413	7.3636	2.9091	5.e-002	79.105
9414	7.3636	2.6364	0.	6690.6
9415	7.2716	2.7273	0.	6462.9
9416	7.3636	2.7273	5.e-002	82.324
9417	7.3636	2.4545	0.	6534.1
9418	7.2716	2.5455	0.	6345.9
9419	7.3636	2.5455	5.e-002	86.713
9420	7.3636	2.2727	0.	6302.4
9421	7.2716	2.3636	0.	6161.6
9422	7.3636	2.3636	5.e-002	88.415
9423	7.3636	2.0909	0.	6003.2
9424	7.2716	2.1818	0.	5916.5
9425	7.3636	2.1818	5.e-002	84.373
9426	7.3636	1.9091	0.	5646.5
9427	7.2716	2.	0.	5622.
9428	7.3636	2.	5.e-002	75.562
9429	7.3636	1.7273	0.	5237.
9430	7.2716	1.8182	0.	5283.4
9431	7.3636	1.8182	5.e-002	65.521
9432	7.3636	1.5455	0.	4779.1
9433	7.2716	1.6364	0.	4900.4
9434	7.3636	1.6364	5.e-002	64.16
9435	7.3636	1.3636	0.	4296.6
9436	7.2716	1.4545	0.	4481.7
9437	7.3636	1.4545	5.e-002	69.812
9438	7.3636	1.1818	0.	3825.
9439	7.2716	1.2727	0.	4056.7
9440	7.3636	1.2727	5.e-002	74.593
9441	7.3636	1.	0.	3390.4
9442	7.2716	1.0909	0.	3652.2
9443	7.3636	1.0909	5.e-002	76.745
9444	7.3636	0.81818	0.	3009.1
9445	7.2716	0.90909	0.	3287.2
9446	7.3636	0.90909	5.e-002	76.793
9447	7.3636	0.63636	0.	2691.2
9448	7.2716	0.72727	0.	2973.9
9449	7.3636	0.72727	5.e-002	76.094
9450	7.3636	0.45455	0.	2443.7
9451	7.2716	0.54545	0.	2720.
9452	7.3636	0.54545	5.e-002	75.506
9453	7.3636	0.27273	0.	2274.2
9454	7.2716	0.36364	0.	2529.8
9455	7.3636	0.36364	5.e-002	76.084
9456	7.2716	0.18182	0.	2407.9
9457	7.3636	0.18182	5.e-002	88.778
9458	7.3636	9.0909e-002	0.	2135.2
9459	7.1795	5.7273	0.	2665.9
9460	7.0875	5.8182	0.	2782.2
9461	7.1795	5.8182	5.e-002	80.005
9462	7.1795	5.9091	0.	2543.6
9463	7.1795	5.5455	0.	2811.7
9464	7.0875	5.6364	0.	2893.2
9465	7.1795	5.6364	5.e-002	67.826
9466	7.1795	5.3636	0.	3013.8
9467	7.0875	5.4545	0.	3052.5
9468	7.1795	5.4545	5.e-002	66.571
9469	7.1795	5.1818	0.	3268.5
9470	7.0875	5.2727	0.	3258.1
9471	7.1795	5.2727	5.e-002	65.788
9472	7.1795	5.	0.	3569.6
9473	7.0875	5.0909	0.	3507.2
9474	7.1795	5.0909	5.e-002	64.441
9475	7.1795	4.8182	0.	3906.6
9476	7.0875	4.9091	0.	3792.2
9477	7.1795	4.9091	5.e-002	61.917
9478	7.1795	4.6364	0.	4263.5
9479	7.0875	4.7273	0.	4101.6
9480	7.1795	4.7273	5.e-002	57.786
9481	7.1795	4.4545	0.	4620.3
9482	7.0875	4.5455	0.	4419.5
9483	7.1795	4.5455	5.e-002	52.373
9484	7.1795	4.2727	0.	4957.7
9485	7.0875	4.3636	0.	4727.7
9486	7.1795	4.3636	5.e-002	48.328
9487	7.1795	4.0909	0.	5264.3
9488	7.0875	4.1818	0.	5012.8
9489	7.1795	4.1818	5.e-002	49.183
9490	7.1795	3.9091	0.	5537.1
9491	7.0875	4.	0.	5268.9
9492	7.1795	4.	5.e-002	53.795
9493	7.1795	3.7273	0.	5774.9
9494	7.0875	3.8182	0.	5496.3
9495	7.1795	3.8182	5.e-002	58.944
9496	7.1795	3.5455	0.	5970.2
9497	7.0875	3.6364	0.	5691.9
9498	7.1795	3.6364	5.e-002	63.038
9499	7.1795	3.3636	0.	6113.4
9500	7.0875	3.4545	0.	5846.7
9501	7.1795	3.4545	5.e-002	65.372
9502	7.1795	3.1818	0.	6199.5
9503	7.0875	3.2727	0.	5952.6
9504	7.1795	3.2727	5.e-002	65.855
9505	7.1795	3.	0.	6228.
9506	7.0875	3.0909	0.	6005.9
9507	7.1795	3.0909	5.e-002	65.664
9508	7.1795	2.8182	0.	6199.5
9509	7.0875	2.9091	0.	6005.9
9510	7.1795	2.9091	5.e-002	65.664
9511	7.1795	2.6364	0.	6113.4
9512	7.0875	2.7273	0.	5952.6
9513	7.1795	2.7273	5.e-002	65.855
9514	7.1795	2.4545	0.	5970.2
9515	7.0875	2.5455	0.	5846.7
9516	7.1795	2.5455	5.e-002	65.372
9517	7.1795	2.2727	0.	5774.9
9518	7.0875	2.3636	0.	5691.9
9519	7.1795	2.3636	5.e-002	63.038
9520	7.1795	2.0909	0.	5537.1
9521	7.0875	2.1818	0.	5496.3
9522	7.1795	2.1818	5.e-002	58.944
9523	7.1795	1.9091	0.	5264.3
9524	7.0875	2.	0.	5268.9
9525	7.1795	2.	5.e-002	53.795
9526	7.1795	1.7273	0.	4957.7
9527	7.0875	1.8182	0.	5012.8
9528	7.1795	1.8182	5.e-002	49.183
9529	7.1795	1.5455	0.	4620.3
9530	7.0875	1.6364	0.	4727.7
9531	7.1795	1.6364	5.e-002	48.328
9532	7.1795	1.3636	0.	4263.5
9533	7.0875	1.4545	0.	4419.5
9534	7.1795	1.4545	5.e-002	52.373
9535	7.1795	1.1818	0.	3906.6
9536	7.0875	1.2727	0.	4101.6
9537	7.1795	1.2727	5.e-002	57.786
9538	7.1795	1.	0.	3569.6
9539	7.0875	1.0909	0.	3792.2
9540	7.1795	1.0909	5.e-002	61.917
9541	7.1795	0.81818	0.	3268.5
9542	7.0875	0.90909	0.	3507.2
9543	7.1795	0.90909	5.e-002	64.441
9544	7.1795	0.63636	0.	3013.8
9545	7.0875	0.72727	0.	3258.1
9546	7.1795	0.72727	5.e-002	65.788
9547	7.1795	0.45455	0.	2811.7
9548	7.0875	0.54545	0.	3052.5
9549	7.1795	0.54545	5.e-002	66.571
9550	7.1795	0.27273	0.	2665.9
9551	7.0875	0.36364	0.	2893.2
9552	7.1795	0.36364	5.e-002	67.826
9553	7.0875	0.18182	0.	2782.2
9554	7.1795	0.18182	5.e-002	80.005
9555	7.1795	9.0909e-002	0.	2543.6
9556	6.9955	5.7273	0.	3011.1
9557	6.9034	5.8182	0.	3110.6
9558	6.9955	5.8182	5.e-002	70.814
9559	6.9955	5.9091	0.	2904.3
9560	6.9955	5.5455	0.	3137.2
9561	6.9034	5.6364	0.	3210.3
9562	6.9955	5.6364	5.e-002	59.572
9563	6.9955	5.3636	0.	3303.1
9564	6.9034	5.4545	0.	3343.8
9565	6.9955	5.4545	5.e-002	57.859
9566	6.9955	5.1818	0.	3506.3
9567	6.9034	5.2727	0.	3510.
9568	6.9955	5.2727	5.e-002	56.285
9569	6.9955	5.	0.	3741.7
9570	6.9034	5.0909	0.	3706.3
9571	6.9955	5.0909	5.e-002	53.971
9572	6.9955	4.8182	0.	4000.3
9573	6.9034	4.9091	0.	3926.6
9574	6.9955	4.9091	5.e-002	50.637
9575	6.9955	4.6364	0.	4269.9
9576	6.9034	4.7273	0.	4161.6
9577	6.9955	4.7273	5.e-002	46.303
9578	6.9955	4.4545	0.	4536.8
9579	6.9034	4.5455	0.	4399.8
9580	6.9955	4.5455	5.e-002	41.739
9581	6.9955	4.2727	0.	4789.6
9582	6.9034	4.3636	0.	4629.9
9583	6.9955	4.3636	5.e-002	38.561
9584	6.9955	4.0909	0.	5021.4
9585	6.9034	4.1818	0.	4843.8
9586	6.9955	4.1818	5.e-002	38.193
9587	6.9955	3.9091	0.	5230.1
9588	6.9034	4.	0.	5038.2
9589	6.9955	4.	5.e-002	40.175
9590	6.9955	3.7273	0.	5413.7
9591	6.9034	3.8182	0.	5211.9
9592	6.9955	3.8182	5.e-002	43.196
9593	6.9955	3.5455	0.	5567.2
9594	6.9034	3.6364	0.	5362.3
9595	6.9955	3.6364	5.e-002	46.397
9596	6.9955	3.3636	0.	5683.5
9597	6.9034	3.4545	0.	5483.4
9598	6.9955	3.4545	5.e-002	49.158
9599	6.9955	3.1818	0.	5755.7
9600	6.9034	3.2727	0.	5568.6
9601	6.9955	3.2727	5.e-002	50.974
9602	6.9955	3.	0.	5780.2
9603	6.9034	3.0909	0.	5612.4
9604	6.9955	3.0909	5.e-002	51.804
9605	6.9955	2.8182	0.	5755.7
9606	6.9034	2.9091	0.	5612.4
9607	6.9955	2.9091	5.e-002	51.804
9608	6.9955	2.6364	0.	5683.5
9609	6.9034	2.7273	0.	5568.6
9610	6.9955	2.7273	5.e-002	50.974
9611	6.9955	2.4545	0.	5567.2
9612	6.9034	2.5455	0.	5483.4
9613	6.9955	2.5455	5.e-002	49.158
9614	6.9955	2.2727	0.	5413.7
9615	6.9034	2.3636	0.	5362.3
9616	6.9955	2.3636	5.e-002	46.397
9617	6.9955	2.0909	0.	5230.1
9618	6.9034	2.1818	0.	5211.9
9619	6.9955	2.1818	5.e-002	43.196
9620	6.9955	1.9091	0.	5021.4
9621	6.9034	2.	0.	5038.2
9622	6.9955	2.	5.e-002	40.175
9623	6.9955	1.7273	0.	4789.6
9624	6.9034	1.8182	0.	4843.8
9625	6.9955	1.8182	5.e-002	38.193
9626	6.9955	1.5455	0.	4536.8
9627	6.9034	1.6364	0.	4629.9
9628	6.9955	1.6364	5.e-002	38.561
9629	6.9955	1.3636	0.	4269.9
9630	6.9034	1.4545	0.	4399.8
9631	6.9955	1.4545	5.e-002	41.739
9632	6.9955	1.1818	0.	4000.3
9633	6.9034	1.2727	0.	4161.6
9634	6.9955	1.2727	5.e-002	46.303
9635	6.9955	1.	0.	3741.7
9636	6.9034	1.0909	0.	3926.6
9637	6.9955	1.0909	5.e-002	50.637
9638	6.9955	0.81818	0.	3506.3
9639	6.9034	0.90909	0.	3706.3
9640	6.9955	0.90909	5.e-002	53.971
9641	6.9955	0.63636	0.	3303.1
9642	6.9034	0.72727	0.	3510.
9643	6.9955	0.72727	5.e-002	56.285
9644	6.9955	0.45455	0.	3137.2
9645	6.9034	0.54545	0.	3343.8
9646	6.9955	0.54545	5.e-002	57.859
9647	6.9955	0.27273	0.	3011.1
9648	6.9034	0.36364	0.	3210.3
9649	6.9955	0.36364	5.e-002	59.572
9650	6.9034	0.18182	0.	3110.6
9651	6.9955	0.18182	5.e-002	70.814
9652	6.9955	9.0909e-002	0.	2904.3
9653	6.8114	5.7273	0.	3310.9
9654	6.7193	5.8182	0.	3396.1
9655	6.8114	5.8182	5.e-002	61.838
9656	6.8114	5.9091	0.	3219.2
9657	6.8114	5.5455	0.	3418.8
9658	6.7193	5.6364	0.	3483.4
9659	6.8114	5.6364	5.e-002	51.825
9660	6.8114	5.3636	0.	3554.4
9661	6.7193	5.4545	0.	3594.2
9662	6.8114	5.4545	5.e-002	49.925
9663	6.8114	5.1818	0.	3715.4
9664	6.7193	5.2727	0.	3727.4
9665	6.8114	5.2727	5.e-002	48.029
9666	6.8114	5.	0.	3897.9
9667	6.7193	5.0909	0.	3880.8
9668	6.8114	5.0909	5.e-002	45.453
9669	6.8114	4.8182	0.	4095.2
9670	6.7193	4.9091	0.	4049.7
9671	6.8114	4.9091	5.e-002	42.12
9672	6.8114	4.6364	0.	4298.4
9673	6.7193	4.7273	0.	4227.3
9674	6.8114	4.7273	5.e-002	38.24
9675	6.8114	4.4545	0.	4498.5
9676	6.7193	4.5455	0.	4405.6
9677	6.8114	4.5455	5.e-002	34.431
9678	6.8114	4.2727	0.	4688.3
9679	6.7193	4.3636	0.	4577.6
9680	6.8114	4.3636	5.e-002	31.646
9681	6.8114	4.0909	0.	4863.3
9682	6.7193	4.1818	0.	4738.1
9683	6.8114	4.1818	5.e-002	30.545
9684	6.8114	3.9091	0.	5021.6
9685	6.7193	4.	0.	4884.6
9686	6.8114	4.	5.e-002	31.008
9687	6.8114	3.7273	0.	5161.
9688	6.7193	3.8182	0.	5015.6
9689	6.8114	3.8182	5.e-002	32.505
9690	6.8114	3.5455	0.	5278.
9691	6.7193	3.6364	0.	5128.9
9692	6.8114	3.6364	5.e-002	34.588
9693	6.8114	3.3636	0.	5367.3
9694	6.7193	3.4545	0.	5220.3
9695	6.8114	3.4545	5.e-002	36.758
9696	6.8114	3.1818	0.	5423.3
9697	6.7193	3.2727	0.	5285.
9698	6.8114	3.2727	5.e-002	38.493
9699	6.8114	3.	0.	5442.5
9700	6.7193	3.0909	0.	5318.5
9701	6.8114	3.0909	5.e-002	39.428
9702	6.8114	2.8182	0.	5423.3
9703	6.7193	2.9091	0.	5318.5
9704	6.8114	2.9091	5.e-002	39.428
9705	6.8114	2.6364	0.	5367.3
9706	6.7193	2.7273	0.	5285.
9707	6.8114	2.7273	5.e-002	38.493
9708	6.8114	2.4545	0.	5278.
9709	6.7193	2.5455	0.	5220.3
9710	6.8114	2.5455	5.e-002	36.758
9711	6.8114	2.2727	0.	5161.
9712	6.7193	2.3636	0.	5128.9
9713	6.8114	2.3636	5.e-002	34.588
9714	6.8114	2.0909	0.	5021.6
9715	6.7193	2.1818	0.	5015.6
9716	6.8114	2.1818	5.e-002	32.505
9717	6.8114	1.9091	0.	4863.3
9718	6.7193	2.	0.	4884.6
9719	6.8114	2.	5.e-002	31.008
9720	6.8114	1.7273	0.	4688.3
9721	6.7193	1.8182	0.	4738.1
9722	6.8114	1.8182	5.e-002	30.545
9723	6.8114	1.5455	0.	4498.5
9724	6.7193	1.6364	0.	4577.6
9725	6.8114	1.6364	5.e-002	31.646
9726	6.8114	1.3636	0.	4298.4
9727	6.7193	1.4545	0.	4405.6
9728	6.8114	1.4545	5.e-002	34.431
9729	6.8114	1.1818	0.	4095.2
9730	6.7193	1.2727	0.	4227.3
9731	6.8114	1.2727	5.e-002	38.24
9732	6.8114	1.	0.	3897.9
9733	6.7193	1.0909	0.	4049.7
9734	6.8114	1.0909	5.e-002	42.12
9735	6.8114	0.81818	0.	3715.4
9736	6.7193	0.90909	0.	3880.8
9737	6.8114	0.90909	5.e-002	45.453
9738	6.8114	0.63636	0.	3554.4
9739	6.7193	0.72727	0.	3727.4
9740	6.8114	0.72727	5.e-002	48.029
9741	6.8114	0.45455	0.	3418.8
9742	6.7193	0.54545	0.	3594.2
9743	6.8114	0.54545	5.e-002	49.925
9744	6.8114	0.27273	0.	3310.9
9745	6.7193	0.36364	0.	3483.4
9746	6.8114	0.36364	5.e-002	51.825
9747	6.7193	0.18182	0.	3396.1
9748	6.8114	0.18182	5.e-002	61.838
9749	6.8114	9.0909e-002	0.	3219.2
9750	6.6273	5.7273	0.	3569.3
9751	6.5352	5.8182	0.	3643.1
9752	6.6273	5.8182	5.e-002	53.521
9753	6.6273	5.9091	0.	3492.2
9754	6.6273	5.5455	0.	3660.
9755	6.5352	5.6364	0.	3717.4
9756	6.6273	5.6364	5.e-002	44.867
9757	6.6273	5.3636	0.	3769.5
9758	6.5352	5.4545	0.	3807.8
9759	6.6273	5.4545	5.e-002	42.997
9760	6.6273	5.1818	0.	3896.
9761	6.5352	5.2727	0.	3913.3
9762	6.6273	5.2727	5.e-002	41.091
9763	6.6273	5.	0.	4036.4
9764	6.5352	5.0909	0.	4031.9
9765	6.6273	5.0909	5.e-002	38.631
9766	6.6273	4.8182	0.	4185.9
9767	6.5352	4.9091	0.	4160.3
9768	6.6273	4.9091	5.e-002	35.638
9769	6.6273	4.6364	0.	4338.4
9770	6.5352	4.7273	0.	4293.5
9771	6.6273	4.7273	5.e-002	32.33
9772	6.6273	4.4545	0.	4488.
9773	6.5352	4.5455	0.	4426.4
9774	6.6273	4.5455	5.e-002	29.135
9775	6.6273	4.2727	0.	4629.9
9776	6.5352	4.3636	0.	4554.3
9777	6.6273	4.3636	5.e-002	26.57
9778	6.6273	4.0909	0.	4761.
9779	6.5352	4.1818	0.	4673.8
9780	6.6273	4.1818	5.e-002	25.
9781	6.6273	3.9091	0.	4879.6
9782	6.5352	4.	0.	4782.9
9783	6.6273	4.	5.e-002	24.467
9784	6.6273	3.7273	0.	4983.8
9785	6.5352	3.8182	0.	4880.2
9786	6.6273	3.8182	5.e-002	24.816
9787	6.6273	3.5455	0.	5071.
9788	6.5352	3.6364	0.	4964.
9789	6.6273	3.6364	5.e-002	25.823
9790	6.6273	3.3636	0.	5137.3
9791	6.5352	3.4545	0.	5031.3
9792	6.6273	3.4545	5.e-002	27.152
9793	6.6273	3.1818	0.	5179.1
9794	6.5352	3.2727	0.	5078.9
9795	6.6273	3.2727	5.e-002	28.361
9796	6.6273	3.	0.	5193.3
9797	6.5352	3.0909	0.	5103.5
9798	6.6273	3.0909	5.e-002	29.068
9799	6.6273	2.8182	0.	5179.1
9800	6.5352	2.9091	0.	5103.5
9801	6.6273	2.9091	5.e-002	29.068
9802	6.6273	2.6364	0.	5137.3
9803	6.5352	2.7273	0.	5078.9
9804	6.6273	2.7273	5.e-002	28.361
9805	6.6273	2.4545	0.	5071.
9806	6.5352	2.5455	0.	5031.3
9807	6.6273	2.5455	5.e-002	27.152
9808	6.6273	2.2727	0.	4983.8
9809	6.5352	2.3636	0.	4964.
9810	6.6273	2.3636	5.e-002	25.823
9811	6.6273	2.0909	0.	4879.6
9812	6.5352	2.1818	0.	4880.2
9813	6.6273	2.1818	5.e-002	24.816
9814	6.6273	1.9091	0.	4761.
9815	6.5352	2.	0.	4782.9
9816	6.6273	2.	5.e-002	24.467
9817	6.6273	1.7273	0.	4629.9
9818	6.5352	1.8182	0.	4673.8
9819	6.6273	1.8182	5.e-002	25.
9820	6.6273	1.5455	0.	4488.
9821	6.5352	1.6364	0.	4554.3
9822	6.6273	1.6364	5.e-002	26.57
9823	6.6273	1.3636	0.	4338.4
9824	6.5352	1.4545	0.	4426.4
9825	6.6273	1.4545	5.e-002	29.135
9826	6.6273	1.1818	0.	4185.9
9827	6.5352	1.2727	0.	4293.5
9828	6.6273	1.2727	5.e-002	32.33
9829	6.6273	1.	0.	4036.4
9830	6.5352	1.0909	0.	4160.3
9831	6.6273	1.0909	5.e-002	35.638
9832	6.6273	0.81818	0.	3896.
9833	6.5352	0.90909	0.	4031.9
9834	6.6273	0.90909	5.e-002	38.631
9835	6.6273	0.63636	0.	3769.5
9836	6.5352	0.72727	0.	3913.3
9837	6.6273	0.72727	5.e-002	41.091
9838	6.6273	0.45455	0.	3660.
9839	6.5352	0.54545	0.	3807.8
9840	6.6273	0.54545	5.e-002	42.997
9841	6.6273	0.27273	0.	3569.3
9842	6.5352	0.36364	0.	3717.4
9843	6.6273	0.36364	5.e-002	44.867
9844	6.5352	0.18182	0.	3643.1
9845	6.6273	0.18182	5.e-002	53.521
9846	6.6273	9.0909e-002	0.	3492.2
9847	6.4432	5.7273	0.	3791.5
9848	6.3511	5.8182	0.	3856.4
9849	6.4432	5.8182	5.e-002	46.115
9850	6.4432	5.9091	0.	3728.2
9851	6.4432	5.5455	0.	3866.
9852	6.3511	5.6364	0.	3917.8
9853	6.4432	5.6364	5.e-002	38.814
9854	6.4432	5.3636	0.	3953.
9855	6.3511	5.4545	0.	3990.
9856	6.4432	5.4545	5.e-002	37.114
9857	6.4432	5.1818	0.	4051.1
9858	6.3511	5.2727	0.	4072.2
9859	6.4432	5.2727	5.e-002	35.374
9860	6.4432	5.	0.	4158.
9861	6.3511	5.0909	0.	4162.7
9862	6.4432	5.0909	5.e-002	33.201
9863	6.4432	4.8182	0.	4270.3
9864	6.3511	4.9091	0.	4259.
9865	6.4432	4.9091	5.e-002	30.644
9866	6.4432	4.6364	0.	4383.7
9867	6.3511	4.7273	0.	4357.9
9868	6.4432	4.7273	5.e-002	27.875
9869	6.4432	4.4545	0.	4494.6
9870	6.3511	4.5455	0.	4455.8
9871	6.4432	4.5455	5.e-002	25.157
9872	6.4432	4.2727	0.	4599.6
9873	6.3511	4.3636	0.	4549.8
9874	6.4432	4.3636	5.e-002	22.776
9875	6.4432	4.0909	0.	4696.6
9876	6.3511	4.1818	0.	4637.5
9877	6.4432	4.1818	5.e-002	20.935
9878	6.4432	3.9091	0.	4784.1
9879	6.3511	4.	0.	4717.4
9880	6.4432	4.	5.e-002	19.726
9881	6.4432	3.7273	0.	4860.6
9882	6.3511	3.8182	0.	4788.5
9883	6.4432	3.8182	5.e-002	19.168
9884	6.4432	3.5455	0.	4924.3
9885	6.3511	3.6364	0.	4849.2
9886	6.4432	3.6364	5.e-002	19.212
9887	6.4432	3.3636	0.	4972.5
9888	6.3511	3.4545	0.	4897.7
9889	6.4432	3.4545	5.e-002	19.682
9890	6.4432	3.1818	0.	5002.7
9891	6.3511	3.2727	0.	4931.8
9892	6.4432	3.2727	5.e-002	20.269
9893	6.4432	3.	0.	5013.1
9894	6.3511	3.0909	0.	4949.4
9895	6.4432	3.0909	5.e-002	20.657
9896	6.4432	2.8182	0.	5002.7
9897	6.3511	2.9091	0.	4949.4
9898	6.4432	2.9091	5.e-002	20.657
9899	6.4432	2.6364	0.	4972.5
9900	6.3511	2.7273	0.	4931.8
9901	6.4432	2.7273	5.e-002	20.269
9902	6.4432	2.4545	0.	4924.3
9903	6.3511	2.5455	0.	4897.7
9904	6.4432	2.5455	5.e-002	19.682
9905	6.4432	2.2727	0.	4860.6
9906	6.3511	2.3636	0.	4849.2
9907	6.4432	2.3636	5.e-002	19.212
9908	6.4432	2.0909	0.	4784.1
9909	6.3511	2.1818	0.	4788.5
9910	6.4432	2.1818	5.e-002	19.168
9911	6.4432	1.9091	0.	4696.6
9912	6.3511	2.	0.	4717.4
9913	6.4432	2.	5.e-002	19.726
9914	6.4432	1.7273	0.	4599.6
9915	6.3511	1.8182	0.	4637.5
9916	6.4432	1.8182	5.e-002	20.935
9917	6.4432	1.5455	0.	4494.6
9918	6.3511	1.6364	0.	4549.8
9919	6.4432	1.6364	5.e-002	22.776
9920	6.4432	1.3636	0.	4383.7
9921	6.3511	1.4545	0.	4455.8
9922	6.4432	1.4545	5.e-002	25.157
9923	6.4432	1.1818	0.	4270.3
9924	6.3511	1.2727	0.	4357.9
9925	6.4432	1.2727	5.e-002	27.875
9926	6.4432	1.	0.	4158.
9927	6.3511	1.0909	0.	4259.
9928	6.4432	1.0909	5.e-002	30.644
9929	6.4432	0.81818	0.	4051.1
9930	6.3511	0.90909	0.	4162.7
9931	6.4432	0.90909	5.e-002	33.201
9932	6.4432	0.63636	0.	3953.
9933	6.3511	0.72727	0.	4072.2
9934	6.4432	0.72727	5.e-002	35.374
9935	6.4432	0.45455	0.	3866.
9936	6.3511	0.54545	0.	3990.
9937	6.4432	0.54545	5.e-002	37.114
9938	6.4432	0.27273	0.	3791.5
9939	6.3511	0.36364	0.	3917.8
9940	6.4432	0.36364	5.e-002	38.814
9941	6.3511	0.18182	0.	3856.4
9942	6.4432	0.18182	5.e-002	46.115
9943	6.4432	9.0909e-002	0.	3728.2
9944	6.2591	5.7273	0.	3982.9
9945	6.167	5.8182	0.	4041.3
9946	6.2591	5.8182	5.e-002	39.728
9947	6.2591	5.9091	0.	3932.3
9948	6.2591	5.5455	0.	4042.3
9949	6.167	5.6364	0.	4090.1
9950	6.2591	5.6364	5.e-002	33.672
9951	6.2591	5.3636	0.	4110.
9952	6.167	5.4545	0.	4146.2
9953	6.2591	5.4545	5.e-002	32.215
9954	6.2591	5.1818	0.	4184.8
9955	6.167	5.2727	0.	4208.8
9956	6.2591	5.2727	5.e-002	30.722
9957	6.2591	5.	0.	4264.9
9958	6.167	5.0909	0.	4276.4
9959	6.2591	5.0909	5.e-002	28.888
9960	6.2591	4.8182	0.	4348.
9961	6.167	4.9091	0.	4347.4
9962	6.2591	4.9091	5.e-002	26.762
9963	6.2591	4.6364	0.	4431.2
9964	6.167	4.7273	0.	4419.4
9965	6.2591	4.7273	5.e-002	24.46
9966	6.2591	4.4545	0.	4512.
9967	6.167	4.5455	0.	4490.2
9968	6.2591	4.5455	5.e-002	22.136
9969	6.2591	4.2727	0.	4588.4
9970	6.167	4.3636	0.	4557.9
9971	6.2591	4.3636	5.e-002	19.936
9972	6.2591	4.0909	0.	4658.8
9973	6.167	4.1818	0.	4620.9
9974	6.2591	4.1818	5.e-002	17.974
9975	6.2591	3.9091	0.	4722.1
9976	6.167	4.	0.	4678.1
9977	6.2591	4.	5.e-002	16.328
9978	6.2591	3.7273	0.	4777.2
9979	6.167	3.8182	0.	4728.7
9980	6.2591	3.8182	5.e-002	15.074
9981	6.2591	3.5455	0.	4822.6
9982	6.167	3.6364	0.	4771.7
9983	6.2591	3.6364	5.e-002	14.279
9984	6.2591	3.3636	0.	4856.8
9985	6.167	3.4545	0.	4805.8
9986	6.2591	3.4545	5.e-002	13.928
9987	6.2591	3.1818	0.	4878.2
9988	6.167	3.2727	0.	4829.6
9989	6.2591	3.2727	5.e-002	13.879
9990	6.2591	3.	0.	4885.5
9991	6.167	3.0909	0.	4841.8
9992	6.2591	3.0909	5.e-002	13.927
9993	6.2591	2.8182	0.	4878.2
9994	6.167	2.9091	0.	4841.8
9995	6.2591	2.9091	5.e-002	13.927
9996	6.2591	2.6364	0.	4856.8
9997	6.167	2.7273	0.	4829.6
9998	6.2591	2.7273	5.e-002	13.879
9999	6.2591	2.4545	0.	4822.6
10000	6.167	2.5455	0.	4805.8
10001	6.2591	2.5455	5.e-002	13.928
10002	6.2591	2.2727	0.	4777.2
10003	6.167	2.3636	0.	4771.7
10004	6.2591	2.3636	5.e-002	14.279
10005	6.2591	2.0909	0.	4722.1
10006	6.167	2.1818	0.	4728.7
10007	6.2591	2.1818	5.e-002	15.074
10008	6.2591	1.9091	0.	4658.8
10009	6.167	2.	0.	4678.1
10010	6.2591	2.	5.e-002	16.328
10011	6.2591	1.7273	0.	4588.4
10012	6.167	1.8182	0.	4620.9
10013	6.2591	1.8182	5.e-002	17.974
10014	6.2591	1.5455	0.	4512.
10015	6.167	1.6364	0.	4557.9
10016	6.2591	1.6364	5.e-002	19.936
10017	6.2591	1.3636	0.	4431.2
10018	6.167	1.4545	0.	4490.2
10019	6.2591	1.4545	5.e-002	22.136
10020	6.2591	1.1818	0.	4348.
10021	6.167	1.2727	0.	4419.4
10022	6.2591	1.2727	5.e-002	24.46
10023	6.2591	1.	0.	4264.9
10024	6.167	1.0909	0.	4347.4
10025	6.2591	1.0909	5.e-002	26.762
10026	6.2591	0.81818	0.	4184.8
10027	6.167	0.90909	0.	4276.4
10028	6.2591	0.90909	5.e-002	28.888
10029	6.2591	0.63636	0.	4110.
10030	6.167	0.72727	0.	4208.8
10031	6.2591	0.72727	5.e-002	30.722
10032	6.2591	0.45455	0.	4042.3
10033	6.167	0.54545	0.	4146.2
10034	6.2591	0.54545	5.e-002	32.215
10035	6.2591	0.27273	0.	3982.9
10036	6.167	0.36364	0.	4090.1
10037	6.2591	0.36364	5.e-002	33.672
10038	6.167	0.18182	0.	4041.3
10039	6.2591	0.18182	5.e-002	39.728
10040	6.2591	9.0909e-002	0.	3932.3
10041	6.075	5.7273	0.	4148.5
10042	5.983	5.8182	0.	4202.2
10043	6.075	5.8182	5.e-002	34.369
10044	6.075	5.9091	0.	4109.5
10045	6.075	5.5455	0.	4194.3
10046	5.983	5.6364	0.	4239.3
10047	6.075	5.6364	5.e-002	29.388
10048	6.075	5.3636	0.	4245.4
10049	5.983	5.4545	0.	4281.3
10050	6.075	5.4545	5.e-002	28.194
10051	6.075	5.1818	0.	4301.
10052	5.983	5.2727	0.	4327.3
10053	6.075	5.2727	5.e-002	26.971
10054	6.075	5.	0.	4359.5
10055	5.983	5.0909	0.	4376.3
10056	6.075	5.0909	5.e-002	25.472
10057	6.075	4.8182	0.	4419.5
10058	5.983	4.9091	0.	4427.
10059	6.075	4.9091	5.e-002	23.734
10060	6.075	4.6364	0.	4479.1
10061	5.983	4.7273	0.	4477.9
10062	6.075	4.7273	5.e-002	21.829
10063	6.075	4.4545	0.	4536.6
10064	5.983	4.5455	0.	4527.6
10065	6.075	4.5455	5.e-002	19.838
10066	6.075	4.2727	0.	4590.7
10067	5.983	4.3636	0.	4574.8
10068	6.075	4.3636	5.e-002	17.835
10069	6.075	4.0909	0.	4640.4
10070	5.983	4.1818	0.	4618.5
10071	6.075	4.1818	5.e-002	15.872
10072	6.075	3.9091	0.	4684.9
10073	5.983	4.	0.	4658.1
10074	6.075	4.	5.e-002	13.995
10075	6.075	3.7273	0.	4723.3
10076	5.983	3.8182	0.	4692.8
10077	6.075	3.8182	5.e-002	12.266
10078	6.075	3.5455	0.	4754.8
10079	5.983	3.6364	0.	4722.1
10080	6.075	3.6364	5.e-002	10.784
10081	6.075	3.3636	0.	4778.4
10082	5.983	3.4545	0.	4745.2
10083	6.075	3.4545	5.e-002	9.6507
10084	6.075	3.1818	0.	4793.
10085	5.983	3.2727	0.	4761.3
10086	6.075	3.2727	5.e-002	8.9209
10087	6.075	3.	0.	4798.
10088	5.983	3.0909	0.	4769.5
10089	6.075	3.0909	5.e-002	8.5774
10090	6.075	2.8182	0.	4793.
10091	5.983	2.9091	0.	4769.5
10092	6.075	2.9091	5.e-002	8.5774
10093	6.075	2.6364	0.	4778.4
10094	5.983	2.7273	0.	4761.3
10095	6.075	2.7273	5.e-002	8.9209
10096	6.075	2.4545	0.	4754.8
10097	5.983	2.5455	0.	4745.2
10098	6.075	2.5455	5.e-002	9.6507
10099	6.075	2.2727	0.	4723.3
10100	5.983	2.3636	0.	4722.1
10101	6.075	2.3636	5.e-002	10.784
10102	6.075	2.0909	0.	4684.9
10103	5.983	2.1818	0.	4692.8
10104	6.075	2.1818	5.e-002	12.266
10105	6.075	1.9091	0.	4640.4
10106	5.983	2.	0.	4658.1
10107	6.075	2.	5.e-002	13.995
10108	6.075	1.7273	0.	4590.7
10109	5.983	1.8182	0.	4618.5
10110	6.075	1.8182	5.e-002	15.872
10111	6.075	1.5455	0.	4536.6
10112	5.983	1.6364	0.	4574.8
10113	6.075	1.6364	5.e-002	17.835
10114	6.075	1.3636	0.	4479.1
10115	5.983	1.4545	0.	4527.6
10116	6.075	1.4545	5.e-002	19.838
10117	6.075	1.1818	0.	4419.5
10118	5.983	1.2727	0.	4477.9
10119	6.075	1.2727	5.e-002	21.829
10120	6.075	1.	0.	4359.5
10121	5.983	1.0909	0.	4427.
10122	6.075	1.0909	5.e-002	23.734
10123	6.075	0.81818	0.	4301.
10124	5.983	0.90909	0.	4376.3
10125	6.075	0.90909	5.e-002	25.472
10126	6.075	0.63636	0.	4245.4
10127	5.983	0.72727	0.	4327.3
10128	6.075	0.72727	5.e-002	26.971
10129	6.075	0.45455	0.	4194.3
10130	5.983	0.54545	0.	4281.3
10131	6.075	0.54545	5.e-002	28.194
10132	6.075	0.27273	0.	4148.5
10133	5.983	0.36364	0.	4239.3
10134	6.075	0.36364	5.e-002	29.388
10135	5.983	0.18182	0.	4202.2
10136	6.075	0.18182	5.e-002	34.369
10137	6.075	9.0909e-002	0.	4109.5
10138	5.8909	5.7273	0.	4293.
10139	5.7989	5.8182	0.	4343.4
10140	5.8909	5.8182	5.e-002	29.989
10141	5.8909	5.9091	0.	4264.3
10142	5.8909	5.5455	0.	4326.5
10143	5.7989	5.6364	0.	4369.8
10144	5.8909	5.6364	5.e-002	25.876
10145	5.8909	5.3636	0.	4363.4
10146	5.7989	5.4545	0.	4399.4
10147	5.8909	5.4545	5.e-002	24.937
10148	5.8909	5.1818	0.	4403.
10149	5.7989	5.2727	0.	4431.4
10150	5.8909	5.2727	5.e-002	23.973
10151	5.8909	5.	0.	4444.1
10152	5.7989	5.0909	0.	4465.1
10153	5.8909	5.0909	5.e-002	22.778
10154	5.8909	4.8182	0.	4485.7
10155	5.7989	4.9091	0.	4499.5
10156	5.8909	4.9091	5.e-002	21.375
10157	5.8909	4.6364	0.	4526.7
10158	5.7989	4.7273	0.	4533.7
10159	5.8909	4.7273	5.e-002	19.803
10160	5.8909	4.4545	0.	4566.
10161	5.7989	4.5455	0.	4566.7
10162	5.8909	4.5455	5.e-002	18.106
10163	5.8909	4.2727	0.	4602.7
10164	5.7989	4.3636	0.	4597.9
10165	5.8909	4.3636	5.e-002	16.314
10166	5.8909	4.0909	0.	4636.3
10167	5.7989	4.1818	0.	4626.6
10168	5.8909	4.1818	5.e-002	14.445
10169	5.8909	3.9091	0.	4666.1
10170	5.7989	4.	0.	4652.4
10171	5.8909	4.	5.e-002	12.517
10172	5.8909	3.7273	0.	4691.7
10173	5.7989	3.8182	0.	4674.9
10174	5.8909	3.8182	5.e-002	10.558
10175	5.8909	3.5455	0.	4712.5
10176	5.7989	3.6364	0.	4693.7
10177	5.8909	3.6364	5.e-002	8.6263
10178	5.8909	3.3636	0.	4728.
10179	5.7989	3.4545	0.	4708.5
10180	5.8909	3.4545	5.e-002	6.819
10181	5.8909	3.1818	0.	4737.6
10182	5.7989	3.2727	0.	4718.7
10183	5.8909	3.2727	5.e-002	5.3008
10184	5.8909	3.	0.	4740.9
10185	5.7989	3.0909	0.	4723.9
10186	5.8909	3.0909	5.e-002	4.3634
10187	5.8909	2.8182	0.	4737.6
10188	5.7989	2.9091	0.	4723.9
10189	5.8909	2.9091	5.e-002	4.3634
10190	5.8909	2.6364	0.	4728.
10191	5.7989	2.7273	0.	4718.7
10192	5.8909	2.7273	5.e-002	5.3008
10193	5.8909	2.4545	0.	4712.5
10194	5.7989	2.5455	0.	4708.5
10195	5.8909	2.5455	5.e-002	6.819
10196	5.8909	2.2727	0.	4691.7
10197	5.7989	2.3636	0.	4693.7
10198	5.8909	2.3636	5.e-002	8.6263
10199	5.8909	2.0909	0.	4666.1
10200	5.7989	2.1818	0.	4674.9
10201	5.8909	2.1818	5.e-002	10.558
10202	5.8909	1.9091	0.	4636.3
10203	5.7989	2.	0.	4652.4
10204	5.8909	2.	5.e-002	12.517
10205	5.8909	1.7273	0.	4602.7
10206	5.7989	1.8182	0.	4626.6
10207	5.8909	1.8182	5.e-002	14.445
10208	5.8909	1.5455	0.	4566.
10209	5.7989	1.6364	0.	4597.9
10210	5.8909	1.6364	5.e-002	16.314
10211	5.8909	1.3636	0.	4526.7
10212	5.7989	1.4545	0.	4566.7
10213	5.8909	1.4545	5.e-002	18.106
10214	5.8909	1.1818	0.	4485.7
10215	5.7989	1.2727	0.	4533.7
10216	5.8909	1.2727	5.e-002	19.803
10217	5.8909	1.	0.	4444.1
10218	5.7989	1.0909	0.	4499.5
10219	5.8909	1.0909	5.e-002	21.375
10220	5.8909	0.81818	0.	4403.
10221	5.7989	0.90909	0.	4465.1
10222	5.8909	0.90909	5.e-002	22.778
10223	5.8909	0.63636	0.	4363.4
10224	5.7989	0.72727	0.	4431.4
10225	5.8909	0.72727	5.e-002	23.973
10226	5.8909	0.45455	0.	4326.5
10227	5.7989	0.54545	0.	4399.4
10228	5.8909	0.54545	5.e-002	24.937
10229	5.8909	0.27273	0.	4293.
10230	5.7989	0.36364	0.	4369.8
10231	5.8909	0.36364	5.e-002	25.876
10232	5.7989	0.18182	0.	4343.4
10233	5.8909	0.18182	5.e-002	29.989
10234	5.8909	9.0909e-002	0.	4264.3
10235	5.7068	5.7273	0.	4420.3
10236	5.6148	5.8182	0.	4468.7
10237	5.7068	5.8182	5.e-002	26.509
10238	5.7068	5.9091	0.	4400.9
10239	5.7068	5.5455	0.	4442.8
10240	5.6148	5.6364	0.	4485.3
10241	5.7068	5.6364	5.e-002	23.042
10242	5.7068	5.3636	0.	4467.6
10243	5.6148	5.4545	0.	4504.1
10244	5.7068	5.4545	5.e-002	22.33
10245	5.7068	5.1818	0.	4493.8
10246	5.6148	5.2727	0.	4524.3
10247	5.7068	5.2727	5.e-002	21.598
10248	5.7068	5.	0.	4520.7
10249	5.6148	5.0909	0.	4545.2
10250	5.7068	5.0909	5.e-002	20.666
10251	5.7068	4.8182	0.	4547.6
10252	5.6148	4.9091	0.	4566.4
10253	5.7068	4.9091	5.e-002	19.546
10254	5.7068	4.6364	0.	4573.9
10255	5.6148	4.7273	0.	4587.2
10256	5.7068	4.7273	5.e-002	18.258
10257	5.7068	4.4545	0.	4598.8
10258	5.6148	4.5455	0.	4607.1
10259	5.7068	4.5455	5.e-002	16.82
10260	5.7068	4.2727	0.	4621.8
10261	5.6148	4.3636	0.	4625.6
10262	5.7068	4.3636	5.e-002	15.246
10263	5.7068	4.0909	0.	4642.7
10264	5.6148	4.1818	0.	4642.5
10265	5.7068	4.1818	5.e-002	13.538
10266	5.7068	3.9091	0.	4661.2
10267	5.6148	4.	0.	4657.5
10268	5.7068	4.	5.e-002	11.702
10269	5.7068	3.7273	0.	4676.9
10270	5.6148	3.8182	0.	4670.5
10271	5.7068	3.8182	5.e-002	9.7457
10272	5.7068	3.5455	0.	4689.7
10273	5.6148	3.6364	0.	4681.4
10274	5.7068	3.6364	5.e-002	7.6905
10275	5.7068	3.3636	0.	4699.1
10276	5.6148	3.4545	0.	4689.8
10277	5.7068	3.4545	5.e-002	5.5664
10278	5.7068	3.1818	0.	4704.9
10279	5.6148	3.2727	0.	4695.6
10280	5.7068	3.2727	5.e-002	3.4153
10281	5.7068	3.	0.	4706.9
10282	5.6148	3.0909	0.	4698.5
10283	5.7068	3.0909	5.e-002	1.3647
10284	5.7068	2.8182	0.	4704.9
10285	5.6148	2.9091	0.	4698.5
10286	5.7068	2.9091	5.e-002	1.3647
10287	5.7068	2.6364	0.	4699.1
10288	5.6148	2.7273	0.	4695.6
10289	5.7068	2.7273	5.e-002	3.4153
10290	5.7068	2.4545	0.	4689.7
10291	5.6148	2.5455	0.	4689.8
10292	5.7068	2.5455	5.e-002	5.5664
10293	5.7068	2.2727	0.	4676.9
10294	5.6148	2.3636	0.	4681.4
10295	5.7068	2.3636	5.e-002	7.6905
10296	5.7068	2.0909	0.	4661.2
10297	5.6148	2.1818	0.	4670.5
10298	5.7068	2.1818	5.e-002	9.7457
10299	5.7068	1.9091	0.	4642.7
10300	5.6148	2.	0.	4657.5
10301	5.7068	2.	5.e-002	11.702
10302	5.7068	1.7273	0.	4621.8
10303	5.6148	1.8182	0.	4642.5
10304	5.7068	1.8182	5.e-002	13.538
10305	5.7068	1.5455	0.	4598.8
10306	5.6148	1.6364	0.	4625.6
10307	5.7068	1.6364	5.e-002	15.246
10308	5.7068	1.3636	0.	4573.9
10309	5.6148	1.4545	0.	4607.1
10310	5.7068	1.4545	5.e-002	16.82
10311	5.7068	1.1818	0.	4547.6
10312	5.6148	1.2727	0.	4587.2
10313	5.7068	1.2727	5.e-002	18.258
10314	5.7068	1.	0.	4520.7
10315	5.6148	1.0909	0.	4566.4
10316	5.7068	1.0909	5.e-002	19.546
10317	5.7068	0.81818	0.	4493.8
10318	5.6148	0.90909	0.	4545.2
10319	5.7068	0.90909	5.e-002	20.666
10320	5.7068	0.63636	0.	4467.6
10321	5.6148	0.72727	0.	4524.3
10322	5.7068	0.72727	5.e-002	21.598
10323	5.7068	0.45455	0.	4442.8
10324	5.6148	0.54545	0.	4504.1
10325	5.7068	0.54545	5.e-002	22.33
10326	5.7068	0.27273	0.	4420.3
10327	5.6148	0.36364	0.	4485.3
10328	5.7068	0.36364	5.e-002	23.042
10329	5.6148	0.18182	0.	4468.7
10330	5.7068	0.18182	5.e-002	26.509
10331	5.7068	9.0909e-002	0.	4400.9
10332	5.5227	5.7273	0.	4533.7
10333	5.4307	5.8182	0.	4581.1
10334	5.5227	5.8182	5.e-002	23.839
10335	5.5227	5.9091	0.	4522.6
10336	5.5227	5.5455	0.	4546.6
10337	5.4307	5.6364	0.	4588.9
10338	5.5227	5.6364	5.e-002	20.794
10339	5.5227	5.3636	0.	4560.8
10340	5.4307	5.4545	0.	4598.1
10341	5.5227	5.4545	5.e-002	20.27
10342	5.5227	5.1818	0.	4575.8
10343	5.4307	5.2727	0.	4608.2
10344	5.5227	5.2727	5.e-002	19.737
10345	5.5227	5.	0.	4591.1
10346	5.4307	5.0909	0.	4618.6
10347	5.5227	5.0909	5.e-002	19.027
10348	5.5227	4.8182	0.	4606.1
10349	5.4307	4.9091	0.	4629.
10350	5.5227	4.9091	5.e-002	18.143
10351	5.5227	4.6364	0.	4620.5
10352	5.4307	4.7273	0.	4638.9
10353	5.5227	4.7273	5.e-002	17.094
10354	5.5227	4.4545	0.	4634.
10355	5.4307	4.5455	0.	4648.2
10356	5.5227	4.5455	5.e-002	15.888
10357	5.5227	4.2727	0.	4646.3
10358	5.4307	4.3636	0.	4656.7
10359	5.5227	4.3636	5.e-002	14.528
10360	5.5227	4.0909	0.	4657.3
10361	5.4307	4.1818	0.	4664.3
10362	5.5227	4.1818	5.e-002	13.019
10363	5.5227	3.9091	0.	4666.8
10364	5.4307	4.	0.	4670.9
10365	5.5227	4.	5.e-002	11.364
10366	5.5227	3.7273	0.	4675.
10367	5.4307	3.8182	0.	4676.5
10368	5.5227	3.8182	5.e-002	9.5771
10369	5.5227	3.5455	0.	4681.5
10370	5.4307	3.6364	0.	4681.1
10371	5.5227	3.6364	5.e-002	7.6825
10372	5.5227	3.3636	0.	4686.3
10373	5.4307	3.4545	0.	4684.7
10374	5.5227	3.4545	5.e-002	5.7262
10375	5.5227	3.1818	0.	4689.2
10376	5.4307	3.2727	0.	4687.2
10377	5.5227	3.2727	5.e-002	3.8035
10378	5.5227	3.	0.	4690.2
10379	5.4307	3.0909	0.	4688.4
10380	5.5227	3.0909	5.e-002	2.2483
10381	5.5227	2.8182	0.	4689.2
10382	5.4307	2.9091	0.	4688.4
10383	5.5227	2.9091	5.e-002	2.2483
10384	5.5227	2.6364	0.	4686.3
10385	5.4307	2.7273	0.	4687.2
10386	5.5227	2.7273	5.e-002	3.8035
10387	5.5227	2.4545	0.	4681.5
10388	5.4307	2.5455	0.	4684.7
10389	5.5227	2.5455	5.e-002	5.7262
10390	5.5227	2.2727	0.	4675.
10391	5.4307	2.3636	0.	4681.1
10392	5.5227	2.3636	5.e-002	7.6825
10393	5.5227	2.0909	0.	4666.8
10394	5.4307	2.1818	0.	4676.5
10395	5.5227	2.1818	5.e-002	9.5771
10396	5.5227	1.9091	0.	4657.3
10397	5.4307	2.	0.	4670.9
10398	5.5227	2.	5.e-002	11.364
10399	5.5227	1.7273	0.	4646.3
10400	5.4307	1.8182	0.	4664.3
10401	5.5227	1.8182	5.e-002	13.019
10402	5.5227	1.5455	0.	4634.
10403	5.4307	1.6364	0.	4656.7
10404	5.5227	1.6364	5.e-002	14.528
10405	5.5227	1.3636	0.	4620.5
10406	5.4307	1.4545	0.	4648.2
10407	5.5227	1.4545	5.e-002	15.888
10408	5.5227	1.1818	0.	4606.1
10409	5.4307	1.2727	0.	4638.9
10410	5.5227	1.2727	5.e-002	17.094
10411	5.5227	1.	0.	4591.1
10412	5.4307	1.0909	0.	4629.
10413	5.5227	1.0909	5.e-002	18.143
10414	5.5227	0.81818	0.	4575.8
10415	5.4307	0.90909	0.	4618.6
10416	5.5227	0.90909	5.e-002	19.027
10417	5.5227	0.63636	0.	4560.8
10418	5.4307	0.72727	0.	4608.2
10419	5.5227	0.72727	5.e-002	19.737
10420	5.5227	0.45455	0.	4546.6
10421	5.4307	0.54545	0.	4598.1
10422	5.5227	0.54545	5.e-002	20.27
10423	5.5227	0.27273	0.	4533.7
10424	5.4307	0.36364	0.	4588.9
10425	5.5227	0.36364	5.e-002	20.794
10426	5.4307	0.18182	0.	4581.1
10427	5.5227	0.18182	5.e-002	23.839
10428	5.5227	9.0909e-002	0.	4522.6
10429	5.3386	5.7273	0.	4636.2
10430	5.2466	5.8182	0.	4683.2
10431	5.3386	5.8182	5.e-002	21.885
10432	5.3386	5.9091	0.	4632.4
10433	5.3386	5.5455	0.	4640.4
10434	5.2466	5.6364	0.	4683.
10435	5.3386	5.6364	5.e-002	19.046
10436	5.3386	5.3636	0.	4645.5
10437	5.2466	5.4545	0.	4683.9
10438	5.3386	5.4545	5.e-002	18.671
10439	5.3386	5.1818	0.	4651.
10440	5.2466	5.2727	0.	4685.3
10441	5.3386	5.2727	5.e-002	18.301
10442	5.3386	5.	0.	4656.5
10443	5.2466	5.0909	0.	4686.7
10444	5.3386	5.0909	5.e-002	17.773
10445	5.3386	4.8182	0.	4661.8
10446	5.2466	4.9091	0.	4688.1
10447	5.3386	4.9091	5.e-002	17.084
10448	5.3386	4.6364	0.	4666.6
10449	5.2466	4.7273	0.	4689.2
10450	5.3386	4.7273	5.e-002	16.236
10451	5.3386	4.4545	0.	4671.
10452	5.2466	4.5455	0.	4689.9
10453	5.3386	4.5455	5.e-002	15.234
10454	5.3386	4.2727	0.	4674.7
10455	5.2466	4.3636	0.	4690.3
10456	5.3386	4.3636	5.e-002	14.079
10457	5.3386	4.0909	0.	4677.8
10458	5.2466	4.1818	0.	4690.5
10459	5.3386	4.1818	5.e-002	12.779
10460	5.3386	3.9091	0.	4680.5
10461	5.2466	4.	0.	4690.4
10462	5.3386	4.	5.e-002	11.345
10463	5.3386	3.7273	0.	4682.7
10464	5.2466	3.8182	0.	4690.3
10465	5.3386	3.8182	5.e-002	9.8022
10466	5.3386	3.5455	0.	4684.4
10467	5.2466	3.6364	0.	4690.1
10468	5.3386	3.6364	5.e-002	8.1975
10469	5.3386	3.3636	0.	4685.6
10470	5.2466	3.4545	0.	4689.9
10471	5.3386	3.4545	5.e-002	6.6155
10472	5.3386	3.1818	0.	4686.4
10473	5.2466	3.2727	0.	4689.8
10474	5.3386	3.2727	5.e-002	5.22
10475	5.3386	3.	0.	4686.7
10476	5.2466	3.0909	0.	4689.8
10477	5.3386	3.0909	5.e-002	4.3258
10478	5.3386	2.8182	0.	4686.4
10479	5.2466	2.9091	0.	4689.8
10480	5.3386	2.9091	5.e-002	4.3258
10481	5.3386	2.6364	0.	4685.6
10482	5.2466	2.7273	0.	4689.8
10483	5.3386	2.7273	5.e-002	5.22
10484	5.3386	2.4545	0.	4684.4
10485	5.2466	2.5455	0.	4689.9
10486	5.3386	2.5455	5.e-002	6.6155
10487	5.3386	2.2727	0.	4682.7
10488	5.2466	2.3636	0.	4690.1
10489	5.3386	2.3636	5.e-002	8.1975
10490	5.3386	2.0909	0.	4680.5
10491	5.2466	2.1818	0.	4690.3
10492	5.3386	2.1818	5.e-002	9.8022
10493	5.3386	1.9091	0.	4677.8
10494	5.2466	2.	0.	4690.4
10495	5.3386	2.	5.e-002	11.345
10496	5.3386	1.7273	0.	4674.7
10497	5.2466	1.8182	0.	4690.5
10498	5.3386	1.8182	5.e-002	12.779
10499	5.3386	1.5455	0.	4671.
10500	5.2466	1.6364	0.	4690.3
10501	5.3386	1.6364	5.e-002	14.079
10502	5.3386	1.3636	0.	4666.6
10503	5.2466	1.4545	0.	4689.9
10504	5.3386	1.4545	5.e-002	15.234
10505	5.3386	1.1818	0.	4661.8
10506	5.2466	1.2727	0.	4689.2
10507	5.3386	1.2727	5.e-002	16.236
10508	5.3386	1.	0.	4656.5
10509	5.2466	1.0909	0.	4688.1
10510	5.3386	1.0909	5.e-002	17.084
10511	5.3386	0.81818	0.	4651.
10512	5.2466	0.90909	0.	4686.7
10513	5.3386	0.90909	5.e-002	17.773
10514	5.3386	0.63636	0.	4645.5
10515	5.2466	0.72727	0.	4685.3
10516	5.3386	0.72727	5.e-002	18.301
10517	5.3386	0.45455	0.	4640.4
10518	5.2466	0.54545	0.	4683.9
10519	5.3386	0.54545	5.e-002	18.671
10520	5.3386	0.27273	0.	4636.2
10521	5.2466	0.36364	0.	4683.
10522	5.3386	0.36364	5.e-002	19.046
10523	5.2466	0.18182	0.	4683.2
10524	5.3386	0.18182	5.e-002	21.885
10525	5.3386	9.0909e-002	0.	4632.4
10526	5.1545	5.7273	0.	4730.
10527	5.0625	5.8182	0.	4777.2
10528	5.1545	5.8182	5.e-002	20.557
10529	5.1545	5.9091	0.	4732.8
10530	5.1545	5.5455	0.	4726.5
10531	5.0625	5.6364	0.	4769.8
10532	5.1545	5.6364	5.e-002	17.722
10533	5.1545	5.3636	0.	4723.7
10534	5.0625	5.4545	0.	4763.3
10535	5.1545	5.4545	5.e-002	17.455
10536	5.1545	5.1818	0.	4721.
10537	5.0625	5.2727	0.	4757.1
10538	5.1545	5.2727	5.e-002	17.216
10539	5.1545	5.	0.	4718.3
10540	5.0625	5.0909	0.	4750.9
10541	5.1545	5.0909	5.e-002	16.835
10542	5.1545	4.8182	0.	4715.4
10543	5.0625	4.9091	0.	4744.6
10544	5.1545	4.9091	5.e-002	16.305
10545	5.1545	4.6364	0.	4712.4
10546	5.0625	4.7273	0.	4738.3
10547	5.1545	4.7273	5.e-002	15.626
10548	5.1545	4.4545	0.	4709.3
10549	5.0625	4.5455	0.	4732.
10550	5.1545	4.5455	5.e-002	14.8
10551	5.1545	4.2727	0.	4706.1
10552	5.0625	4.3636	0.	4725.9
10553	5.1545	4.3636	5.e-002	13.833
10554	5.1545	4.0909	0.	4703.
10555	5.0625	4.1818	0.	4720.
10556	5.1545	4.1818	5.e-002	12.733
10557	5.1545	3.9091	0.	4700.2
10558	5.0625	4.	0.	4714.6
10559	5.1545	4.	5.e-002	11.521
10560	5.1545	3.7273	0.	4697.7
10561	5.0625	3.8182	0.	4709.9
10562	5.1545	3.8182	5.e-002	10.233
10563	5.1545	3.5455	0.	4695.6
10564	5.0625	3.6364	0.	4705.9
10565	5.1545	3.6364	5.e-002	8.9256
10566	5.1545	3.3636	0.	4694.1
10567	5.0625	3.4545	0.	4702.8
10568	5.1545	3.4545	5.e-002	7.695
10569	5.1545	3.1818	0.	4693.2
10570	5.0625	3.2727	0.	4700.8
10571	5.1545	3.2727	5.e-002	6.6876
10572	5.1545	3.	0.	4692.9
10573	5.0625	3.0909	0.	4699.7
10574	5.1545	3.0909	5.e-002	6.1002
10575	5.1545	2.8182	0.	4693.2
10576	5.0625	2.9091	0.	4699.7
10577	5.1545	2.9091	5.e-002	6.1002
10578	5.1545	2.6364	0.	4694.1
10579	5.0625	2.7273	0.	4700.8
10580	5.1545	2.7273	5.e-002	6.6876
10581	5.1545	2.4545	0.	4695.6
10582	5.0625	2.5455	0.	4702.8
10583	5.1545	2.5455	5.e-002	7.695
10584	5.1545	2.2727	0.	4697.7
10585	5.0625	2.3636	0.	4705.9
10586	5.1545	2.3636	5.e-002	8.9256
10587	5.1545	2.0909	0.	4700.2
10588	5.0625	2.1818	0.	4709.9
10589	5.1545	2.1818	5.e-002	10.233
10590	5.1545	1.9091	0.	4703.
10591	5.0625	2.	0.	4714.6
10592	5.1545	2.	5.e-002	11.521
10593	5.1545	1.7273	0.	4706.1
10594	5.0625	1.8182	0.	4720.
10595	5.1545	1.8182	5.e-002	12.733
10596	5.1545	1.5455	0.	4709.3
10597	5.0625	1.6364	0.	4725.9
10598	5.1545	1.6364	5.e-002	13.833
10599	5.1545	1.3636	0.	4712.4
10600	5.0625	1.4545	0.	4732.
10601	5.1545	1.4545	5.e-002	14.8
10602	5.1545	1.1818	0.	4715.4
10603	5.0625	1.2727	0.	4738.3
10604	5.1545	1.2727	5.e-002	15.626
10605	5.1545	1.	0.	4718.3
10606	5.0625	1.0909	0.	4744.6
10607	5.1545	1.0909	5.e-002	16.305
10608	5.1545	0.81818	0.	4721.
10609	5.0625	0.90909	0.	4750.9
10610	5.1545	0.90909	5.e-002	16.835
10611	5.1545	0.63636	0.	4723.7
10612	5.0625	0.72727	0.	4757.1
10613	5.1545	0.72727	5.e-002	17.216
10614	5.1545	0.45455	0.	4726.5
10615	5.0625	0.54545	0.	4763.3
10616	5.1545	0.54545	5.e-002	17.455
10617	5.1545	0.27273	0.	4730.
10618	5.0625	0.36364	0.	4769.8
10619	5.1545	0.36364	5.e-002	17.722
10620	5.0625	0.18182	0.	4777.2
10621	5.1545	0.18182	5.e-002	20.557
10622	5.1545	9.0909e-002	0.	4732.8
10623	4.9705	5.7273	0.	4817.
10624	4.8784	5.8182	0.	4864.9
10625	4.9705	5.8182	5.e-002	19.769
10626	4.9705	5.9091	0.	4825.7
10627	4.9705	5.5455	0.	4806.5
10628	4.8784	5.6364	0.	4850.9
10629	4.9705	5.6364	5.e-002	16.755
10630	4.9705	5.3636	0.	4796.7
10631	4.8784	5.4545	0.	4837.7
10632	4.9705	5.4545	5.e-002	16.559
10633	4.9705	5.1818	0.	4786.9
10634	4.8784	5.2727	0.	4824.8
10635	4.9705	5.2727	5.e-002	16.421
10636	4.9705	5.	0.	4777.2
10637	4.8784	5.0909	0.	4811.9
10638	4.9705	5.0909	5.e-002	16.157
10639	4.9705	4.8182	0.	4767.5
10640	4.8784	4.9091	0.	4799.2
10641	4.9705	4.9091	5.e-002	15.756
10642	4.9705	4.6364	0.	4757.9
10643	4.8784	4.7273	0.	4786.6
10644	4.9705	4.7273	5.e-002	15.217
10645	4.9705	4.4545	0.	4748.6
10646	4.8784	4.5455	0.	4774.5
10647	4.9705	4.5455	5.e-002	14.543
10648	4.9705	4.2727	0.	4739.8
10649	4.8784	4.3636	0.	4762.9
10650	4.9705	4.3636	5.e-002	13.74
10651	4.9705	4.0909	0.	4731.6
10652	4.8784	4.1818	0.	4752.1
10653	4.9705	4.1818	5.e-002	12.822
10654	4.9705	3.9091	0.	4724.3
10655	4.8784	4.	0.	4742.3
10656	4.9705	4.	5.e-002	11.813
10657	4.9705	3.7273	0.	4718.1
10658	4.8784	3.8182	0.	4733.8
10659	4.9705	3.8182	5.e-002	10.754
10660	4.9705	3.5455	0.	4713.1
10661	4.8784	3.6364	0.	4726.8
10662	4.9705	3.6364	5.e-002	9.7035
10663	4.9705	3.3636	0.	4709.5
10664	4.8784	3.4545	0.	4721.4
10665	4.9705	3.4545	5.e-002	8.748
10666	4.9705	3.1818	0.	4707.2
10667	4.8784	3.2727	0.	4717.8
10668	4.9705	3.2727	5.e-002	8.
10669	4.9705	3.	0.	4706.5
10670	4.8784	3.0909	0.	4715.9
10671	4.9705	3.0909	5.e-002	7.5825
10672	4.9705	2.8182	0.	4707.2
10673	4.8784	2.9091	0.	4715.9
10674	4.9705	2.9091	5.e-002	7.5825
10675	4.9705	2.6364	0.	4709.5
10676	4.8784	2.7273	0.	4717.8
10677	4.9705	2.7273	5.e-002	8.
10678	4.9705	2.4545	0.	4713.1
10679	4.8784	2.5455	0.	4721.4
10680	4.9705	2.5455	5.e-002	8.748
10681	4.9705	2.2727	0.	4718.1
10682	4.8784	2.3636	0.	4726.8
10683	4.9705	2.3636	5.e-002	9.7035
10684	4.9705	2.0909	0.	4724.3
10685	4.8784	2.1818	0.	4733.8
10686	4.9705	2.1818	5.e-002	10.754
10687	4.9705	1.9091	0.	4731.6
10688	4.8784	2.	0.	4742.3
10689	4.9705	2.	5.e-002	11.813
10690	4.9705	1.7273	0.	4739.8
10691	4.8784	1.8182	0.	4752.1
10692	4.9705	1.8182	5.e-002	12.822
10693	4.9705	1.5455	0.	4748.6
10694	4.8784	1.6364	0.	4762.9
10695	4.9705	1.6364	5.e-002	13.74
10696	4.9705	1.3636	0.	4757.9
10697	4.8784	1.4545	0.	4774.5
10698	4.9705	1.4545	5.e-002	14.543
10699	4.9705	1.1818	0.	4767.5
10700	4.8784	1.2727	0.	4786.6
10701	4.9705	1.2727	5.e-002	15.217
10702	4.9705	1.	0.	4777.2
10703	4.8784	1.0909	0.	4799.2
10704	4.9705	1.0909	5.e-002	15.756
10705	4.9705	0.81818	0.	4786.9
10706	4.8784	0.90909	0.	4811.9
10707	4.9705	0.90909	5.e-002	16.157
10708	4.9705	0.63636	0.	4796.7
10709	4.8784	0.72727	0.	4824.8
10710	4.9705	0.72727	5.e-002	16.421
10711	4.9705	0.45455	0.	4806.5
10712	4.8784	0.54545	0.	4837.7
10713	4.9705	0.54545	5.e-002	16.559
10714	4.9705	0.27273	0.	4817.
10715	4.8784	0.36364	0.	4850.9
10716	4.9705	0.36364	5.e-002	16.755
10717	4.8784	0.18182	0.	4864.9
10718	4.9705	0.18182	5.e-002	19.769
10719	4.9705	9.0909e-002	0.	4825.7
10720	4.7864	5.7273	0.	4898.8
10721	4.6943	5.8182	0.	4947.7
10722	4.7864	5.8182	5.e-002	19.444
10723	4.7864	5.9091	0.	4912.8
10724	4.7864	5.5455	0.	4882.
10725	4.6943	5.6364	0.	4927.5
10726	4.7864	5.6364	5.e-002	16.086
10727	4.7864	5.3636	0.	4865.8
10728	4.6943	5.4545	0.	4908.3
10729	4.7864	5.4545	5.e-002	15.93
10730	4.7864	5.1818	0.	4849.7
10731	4.6943	5.2727	0.	4889.4
10732	4.7864	5.2727	5.e-002	15.868
10733	4.7864	5.	0.	4833.9
10734	4.6943	5.0909	0.	4870.6
10735	4.7864	5.0909	5.e-002	15.695
10736	4.7864	4.8182	0.	4818.3
10737	4.6943	4.9091	0.	4852.2
10738	4.7864	4.9091	5.e-002	15.397
10739	4.7864	4.6364	0.	4803.1
10740	4.6943	4.7273	0.	4834.3
10741	4.7864	4.7273	5.e-002	14.974
10742	4.7864	4.4545	0.	4788.7
10743	4.6943	4.5455	0.	4817.
10744	4.7864	4.5455	5.e-002	14.427
10745	4.7864	4.2727	0.	4775.1
10746	4.6943	4.3636	0.	4800.8
10747	4.7864	4.3636	5.e-002	13.765
10748	4.7864	4.0909	0.	4762.7
10749	4.6943	4.1818	0.	4785.9
10750	4.7864	4.1818	5.e-002	13.005
10751	4.7864	3.9091	0.	4751.8
10752	4.6943	4.	0.	4772.5
10753	4.7864	4.	5.e-002	12.172
10754	4.7864	3.7273	0.	4742.6
10755	4.6943	3.8182	0.	4761.
10756	4.7864	3.8182	5.e-002	11.306
10757	4.7864	3.5455	0.	4735.2
10758	4.6943	3.6364	0.	4751.5
10759	4.7864	3.6364	5.e-002	10.463
10760	4.7864	3.3636	0.	4729.8
10761	4.6943	3.4545	0.	4744.2
10762	4.7864	3.4545	5.e-002	9.7142
10763	4.7864	3.1818	0.	4726.5
10764	4.6943	3.2727	0.	4739.3
10765	4.7864	3.2727	5.e-002	9.1437
10766	4.7864	3.	0.	4725.4
10767	4.6943	3.0909	0.	4736.8
10768	4.7864	3.0909	5.e-002	8.8325
10769	4.7864	2.8182	0.	4726.5
10770	4.6943	2.9091	0.	4736.8
10771	4.7864	2.9091	5.e-002	8.8325
10772	4.7864	2.6364	0.	4729.8
10773	4.6943	2.7273	0.	4739.3
10774	4.7864	2.7273	5.e-002	9.1437
10775	4.7864	2.4545	0.	4735.2
10776	4.6943	2.5455	0.	4744.2
10777	4.7864	2.5455	5.e-002	9.7142
10778	4.7864	2.2727	0.	4742.6
10779	4.6943	2.3636	0.	4751.5
10780	4.7864	2.3636	5.e-002	10.463
10781	4.7864	2.0909	0.	4751.8
10782	4.6943	2.1818	0.	4761.
10783	4.7864	2.1818	5.e-002	11.306
10784	4.7864	1.9091	0.	4762.7
10785	4.6943	2.	0.	4772.5
10786	4.7864	2.	5.e-002	12.172
10787	4.7864	1.7273	0.	4775.1
10788	4.6943	1.8182	0.	4785.9
10789	4.7864	1.8182	5.e-002	13.005
10790	4.7864	1.5455	0.	4788.7
10791	4.6943	1.6364	0.	4800.8
10792	4.7864	1.6364	5.e-002	13.765
10793	4.7864	1.3636	0.	4803.1
10794	4.6943	1.4545	0.	4817.
10795	4.7864	1.4545	5.e-002	14.427
10796	4.7864	1.1818	0.	4818.3
10797	4.6943	1.2727	0.	4834.3
10798	4.7864	1.2727	5.e-002	14.974
10799	4.7864	1.	0.	4833.9
10800	4.6943	1.0909	0.	4852.2
10801	4.7864	1.0909	5.e-002	15.397
10802	4.7864	0.81818	0.	4849.7
10803	4.6943	0.90909	0.	4870.6
10804	4.7864	0.90909	5.e-002	15.695
10805	4.7864	0.63636	0.	4865.8
10806	4.6943	0.72727	0.	4889.4
10807	4.7864	0.72727	5.e-002	15.868
10808	4.7864	0.45455	0.	4882.
10809	4.6943	0.54545	0.	4908.3
10810	4.7864	0.54545	5.e-002	15.93
10811	4.7864	0.27273	0.	4898.8
10812	4.6943	0.36364	0.	4927.5
10813	4.7864	0.36364	5.e-002	16.086
10814	4.6943	0.18182	0.	4947.7
10815	4.7864	0.18182	5.e-002	19.444
10816	4.7864	9.0909e-002	0.	4912.8
10817	4.6023	5.7273	0.	4976.5
10818	4.5102	5.8182	0.	5026.8
10819	4.6023	5.8182	5.e-002	19.512
10820	4.6023	5.9091	0.	4995.4
10821	4.6023	5.5455	0.	4953.9
10822	4.5102	5.6364	0.	5000.9
10823	4.6023	5.6364	5.e-002	15.667
10824	4.6023	5.3636	0.	4931.9
10825	4.5102	5.4545	0.	4976.1
10826	4.6023	5.4545	5.e-002	15.525
10827	4.6023	5.1818	0.	4910.2
10828	4.5102	5.2727	0.	4951.6
10829	4.6023	5.2727	5.e-002	15.517
10830	4.6023	5.	0.	4888.9
10831	4.5102	5.0909	0.	4927.6
10832	4.6023	5.0909	5.e-002	15.414
10833	4.6023	4.8182	0.	4868.1
10834	4.5102	4.9091	0.	4904.
10835	4.6023	4.9091	5.e-002	15.199
10836	4.6023	4.6364	0.	4848.1
10837	4.5102	4.7273	0.	4881.3
10838	4.6023	4.7273	5.e-002	14.869
10839	4.6023	4.4545	0.	4829.2
10840	4.5102	4.5455	0.	4859.7
10841	4.6023	4.5455	5.e-002	14.428
10842	4.6023	4.2727	0.	4811.6
10843	4.5102	4.3636	0.	4839.5
10844	4.6023	4.3636	5.e-002	13.885
10845	4.6023	4.0909	0.	4795.7
10846	4.5102	4.1818	0.	4821.
10847	4.6023	4.1818	5.e-002	13.258
10848	4.6023	3.9091	0.	4781.7
10849	4.5102	4.	0.	4804.6
10850	4.6023	4.	5.e-002	12.572
10851	4.6023	3.7273	0.	4769.9
10852	4.5102	3.8182	0.	4790.5
10853	4.6023	3.8182	5.e-002	11.864
10854	4.6023	3.5455	0.	4760.6
10855	4.5102	3.6364	0.	4778.9
10856	4.6023	3.6364	5.e-002	11.184
10857	4.6023	3.3636	0.	4753.7
10858	4.5102	3.4545	0.	4770.
10859	4.6023	3.4545	5.e-002	10.59
10860	4.6023	3.1818	0.	4749.6
10861	4.5102	3.2727	0.	4764.
10862	4.6023	3.2727	5.e-002	10.145
10863	4.6023	3.	0.	4748.2
10864	4.5102	3.0909	0.	4761.
10865	4.6023	3.0909	5.e-002	9.9056
10866	4.6023	2.8182	0.	4749.6
10867	4.5102	2.9091	0.	4761.
10868	4.6023	2.9091	5.e-002	9.9056
10869	4.6023	2.6364	0.	4753.7
10870	4.5102	2.7273	0.	4764.
10871	4.6023	2.7273	5.e-002	10.145
10872	4.6023	2.4545	0.	4760.6
10873	4.5102	2.5455	0.	4770.
10874	4.6023	2.5455	5.e-002	10.59
10875	4.6023	2.2727	0.	4769.9
10876	4.5102	2.3636	0.	4778.9
10877	4.6023	2.3636	5.e-002	11.184
10878	4.6023	2.0909	0.	4781.7
10879	4.5102	2.1818	0.	4790.5
10880	4.6023	2.1818	5.e-002	11.864
10881	4.6023	1.9091	0.	4795.7
10882	4.5102	2.	0.	4804.6
10883	4.6023	2.	5.e-002	12.572
10884	4.6023	1.7273	0.	4811.6
10885	4.5102	1.8182	0.	4821.
10886	4.6023	1.8182	5.e-002	13.258
10887	4.6023	1.5455	0.	4829.2
10888	4.5102	1.6364	0.	4839.5
10889	4.6023	1.6364	5.e-002	13.885
10890	4.6023	1.3636	0.	4848.1
10891	4.5102	1.4545	0.	4859.7
10892	4.6023	1.4545	5.e-002	14.428
10893	4.6023	1.1818	0.	4868.1
10894	4.5102	1.2727	0.	4881.3
10895	4.6023	1.2727	5.e-002	14.869
10896	4.6023	1.	0.	4888.9
10897	4.5102	1.0909	0.	4904.
10898	4.6023	1.0909	5.e-002	15.199
10899	4.6023	0.81818	0.	4910.2
10900	4.5102	0.90909	0.	4927.6
10901	4.6023	0.90909	5.e-002	15.414
10902	4.6023	0.63636	0.	4931.9
10903	4.5102	0.72727	0.	4951.6
10904	4.6023	0.72727	5.e-002	15.517
10905	4.6023	0.45455	0.	4953.9
10906	4.5102	0.54545	0.	4976.1
10907	4.6023	0.54545	5.e-002	15.525
10908	4.6023	0.27273	0.	4976.5
10909	4.5102	0.36364	0.	5000.9
10910	4.6023	0.36364	5.e-002	15.667
10911	4.5102	0.18182	0.	5026.8
10912	4.6023	0.18182	5.e-002	19.512
10913	4.6023	9.0909e-002	0.	4995.4
10914	4.4182	5.7273	0.	5051.2
10915	4.3261	5.8182	0.	5103.1
10916	4.4182	5.8182	5.e-002	19.913
10917	4.4182	5.9091	0.	5074.6
10918	4.4182	5.5455	0.	5023.1
10919	4.3261	5.6364	0.	5071.7
10920	4.4182	5.6364	5.e-002	15.455
10921	4.4182	5.3636	0.	4995.8
10922	4.3261	5.4545	0.	5041.6
10923	4.4182	5.4545	5.e-002	15.307
10924	4.4182	5.1818	0.	4968.9
10925	4.3261	5.2727	0.	5012.1
10926	4.4182	5.2727	5.e-002	15.338
10927	4.4182	5.	0.	4942.7
10928	4.3261	5.0909	0.	4983.1
10929	4.4182	5.0909	5.e-002	15.288
10930	4.4182	4.8182	0.	4917.2
10931	4.3261	4.9091	0.	4955.
10932	4.4182	4.9091	5.e-002	15.137
10933	4.4182	4.6364	0.	4892.9
10934	4.3261	4.7273	0.	4927.9
10935	4.4182	4.7273	5.e-002	14.883
10936	4.4182	4.4545	0.	4870.
10937	4.3261	4.5455	0.	4902.4
10938	4.4182	4.5455	5.e-002	14.529
10939	4.4182	4.2727	0.	4848.9
10940	4.3261	4.3636	0.	4878.6
10941	4.4182	4.3636	5.e-002	14.085
10942	4.4182	4.0909	0.	4829.9
10943	4.3261	4.1818	0.	4857.
10944	4.4182	4.1818	5.e-002	13.567
10945	4.4182	3.9091	0.	4813.3
10946	4.3261	4.	0.	4837.9
10947	4.4182	4.	5.e-002	13.001
10948	4.4182	3.7273	0.	4799.4
10949	4.3261	3.8182	0.	4821.5
10950	4.4182	3.8182	5.e-002	12.421
10951	4.4182	3.5455	0.	4788.3
10952	4.3261	3.6364	0.	4808.1
10953	4.4182	3.6364	5.e-002	11.868
10954	4.4182	3.3636	0.	4780.3
10955	4.3261	3.4545	0.	4797.9
10956	4.4182	3.4545	5.e-002	11.391
10957	4.4182	3.1818	0.	4775.5
10958	4.3261	3.2727	0.	4791.1
10959	4.4182	3.2727	5.e-002	11.037
10960	4.4182	3.	0.	4773.8
10961	4.3261	3.0909	0.	4787.6
10962	4.4182	3.0909	5.e-002	10.848
10963	4.4182	2.8182	0.	4775.5
10964	4.3261	2.9091	0.	4787.6
10965	4.4182	2.9091	5.e-002	10.848
10966	4.4182	2.6364	0.	4780.3
10967	4.3261	2.7273	0.	4791.1
10968	4.4182	2.7273	5.e-002	11.037
10969	4.4182	2.4545	0.	4788.3
10970	4.3261	2.5455	0.	4797.9
10971	4.4182	2.5455	5.e-002	11.391
10972	4.4182	2.2727	0.	4799.4
10973	4.3261	2.3636	0.	4808.1
10974	4.4182	2.3636	5.e-002	11.868
10975	4.4182	2.0909	0.	4813.3
10976	4.3261	2.1818	0.	4821.5
10977	4.4182	2.1818	5.e-002	12.421
10978	4.4182	1.9091	0.	4829.9
10979	4.3261	2.	0.	4837.9
10980	4.4182	2.	5.e-002	13.001
10981	4.4182	1.7273	0.	4848.9
10982	4.3261	1.8182	0.	4857.
10983	4.4182	1.8182	5.e-002	13.567
10984	4.4182	1.5455	0.	4870.
10985	4.3261	1.6364	0.	4878.6
10986	4.4182	1.6364	5.e-002	14.085
10987	4.4182	1.3636	0.	4892.9
10988	4.3261	1.4545	0.	4902.4
10989	4.4182	1.4545	5.e-002	14.529
10990	4.4182	1.1818	0.	4917.2
10991	4.3261	1.2727	0.	4927.9
10992	4.4182	1.2727	5.e-002	14.883
10993	4.4182	1.	0.	4942.7
10994	4.3261	1.0909	0.	4955.
10995	4.4182	1.0909	5.e-002	15.137
10996	4.4182	0.81818	0.	4968.9
10997	4.3261	0.90909	0.	4983.1
10998	4.4182	0.90909	5.e-002	15.288
10999	4.4182	0.63636	0.	4995.8
11000	4.3261	0.72727	0.	5012.1
11001	4.4182	0.72727	5.e-002	15.338
11002	4.4182	0.45455	0.	5023.1
11003	4.3261	0.54545	0.	5041.6
11004	4.4182	0.54545	5.e-002	15.307
11005	4.4182	0.27273	0.	5051.2
11006	4.3261	0.36364	0.	5071.7
11007	4.4182	0.36364	5.e-002	15.455
11008	4.3261	0.18182	0.	5103.1
11009	4.4182	0.18182	5.e-002	19.913
11010	4.4182	9.0909e-002	0.	5074.6
11011	4.2341	5.7273	0.	5123.6
11012	4.142	5.8182	0.	5177.4
11013	4.2341	5.8182	5.e-002	20.598
11014	4.2341	5.9091	0.	5151.1
11015	4.2341	5.5455	0.	5090.2
11016	4.142	5.6364	0.	5140.6
11017	4.2341	5.6364	5.e-002	15.416
11018	4.2341	5.3636	0.	5057.9
11019	4.142	5.4545	0.	5105.5
11020	4.2341	5.4545	5.e-002	15.246
11021	4.2341	5.1818	0.	5026.2
11022	4.142	5.2727	0.	5071.1
11023	4.2341	5.2727	5.e-002	15.305
11024	4.2341	5.	0.	4995.4
11025	4.142	5.0909	0.	5037.6
11026	4.2341	5.0909	5.e-002	15.296
11027	4.2341	4.8182	0.	4965.7
11028	4.142	4.9091	0.	5005.1
11029	4.2341	4.9091	5.e-002	15.196
11030	4.2341	4.6364	0.	4937.4
11031	4.142	4.7273	0.	4974.1
11032	4.2341	4.7273	5.e-002	15.002
11033	4.2341	4.4545	0.	4911.
11034	4.142	4.5455	0.	4944.9
11035	4.2341	4.5455	5.e-002	14.718
11036	4.2341	4.2727	0.	4886.7
11037	4.142	4.3636	0.	4918.
11038	4.2341	4.3636	5.e-002	14.355
11039	4.2341	4.0909	0.	4865.
11040	4.142	4.1818	0.	4893.6
11041	4.2341	4.1818	5.e-002	13.927
11042	4.2341	3.9091	0.	4846.1
11043	4.142	4.	0.	4872.
11044	4.2341	4.	5.e-002	13.458
11045	4.2341	3.7273	0.	4830.3
11046	4.142	3.8182	0.	4853.7
11047	4.2341	3.8182	5.e-002	12.979
11048	4.2341	3.5455	0.	4817.8
11049	4.142	3.6364	0.	4838.7
11050	4.2341	3.6364	5.e-002	12.526
11051	4.2341	3.3636	0.	4808.7
11052	4.142	3.4545	0.	4827.4
11053	4.2341	3.4545	5.e-002	12.137
11054	4.2341	3.1818	0.	4803.2
11055	4.142	3.2727	0.	4819.7
11056	4.2341	3.2727	5.e-002	11.852
11057	4.2341	3.	0.	4801.4
11058	4.142	3.0909	0.	4815.9
11059	4.2341	3.0909	5.e-002	11.7
11060	4.2341	2.8182	0.	4803.2
11061	4.142	2.9091	0.	4815.9
11062	4.2341	2.9091	5.e-002	11.7
11063	4.2341	2.6364	0.	4808.7
11064	4.142	2.7273	0.	4819.7
11065	4.2341	2.7273	5.e-002	11.852
11066	4.2341	2.4545	0.	4817.8
11067	4.142	2.5455	0.	4827.4
11068	4.2341	2.5455	5.e-002	12.137
11069	4.2341	2.2727	0.	4830.3
11070	4.142	2.3636	0.	4838.7
11071	4.2341	2.3636	5.e-002	12.526
11072	4.2341	2.0909	0.	4846.1
11073	4.142	2.1818	0.	4853.7
11074	4.2341	2.1818	5.e-002	12.979
11075	4.2341	1.9091	0.	4865.
11076	4.142	2.	0.	4872.
11077	4.2341	2.	5.e-002	13.458
11078	4.2341	1.7273	0.	4886.7
11079	4.142	1.8182	0.	4893.6
11080	4.2341	1.8182	5.e-002	13.927
11081	4.2341	1.5455	0.	4911.
11082	4.142	1.6364	0.	4918.
11083	4.2341	1.6364	5.e-002	14.355
11084	4.2341	1.3636	0.	4937.4
11085	4.142	1.4545	0.	4944.9
11086	4.2341	1.4545	5.e-002	14.718
11087	4.2341	1.1818	0.	4965.7
11088	4.142	1.2727	0.	4974.1
11089	4.2341	1.2727	5.e-002	15.002
11090	4.2341	1.	0.	4995.4
11091	4.142	1.0909	0.	5005.1
11092	4.2341	1.0909	5.e-002	15.196
11093	4.2341	0.81818	0.	5026.2
11094	4.142	0.90909	0.	5037.6
11095	4.2341	0.90909	5.e-002	15.296
11096	4.2341	0.63636	0.	5057.9
11097	4.142	0.72727	0.	5071.1
11098	4.2341	0.72727	5.e-002	15.305
11099	4.2341	0.45455	0.	5090.2
11100	4.142	0.54545	0.	5105.5
11101	4.2341	0.54545	5.e-002	15.246
11102	4.2341	0.27273	0.	5123.6
11103	4.142	0.36364	0.	5140.6
11104	4.2341	0.36364	5.e-002	15.416
11105	4.142	0.18182	0.	5177.4
11106	4.2341	0.18182	5.e-002	20.598
11107	4.2341	9.0909e-002	0.	5151.1
11108	4.05	5.7273	0.	5194.4
11109	3.958	5.8182	0.	5250.2
11110	4.05	5.8182	5.e-002	21.528
11111	4.05	5.9091	0.	5225.6
11112	4.05	5.5455	0.	5155.9
11113	3.958	5.6364	0.	5208.1
11114	4.05	5.6364	5.e-002	15.521
11115	4.05	5.3636	0.	5118.7
11116	3.958	5.4545	0.	5168.1
11117	4.05	5.4545	5.e-002	15.321
11118	4.05	5.1818	0.	5082.5
11119	3.958	5.2727	0.	5129.1
11120	4.05	5.2727	5.e-002	15.399
11121	4.05	5.	0.	5047.3
11122	3.958	5.0909	0.	5091.1
11123	4.05	5.0909	5.e-002	15.422
11124	4.05	4.8182	0.	5013.5
11125	3.958	4.9091	0.	5054.6
11126	4.05	4.9091	5.e-002	15.362
11127	4.05	4.6364	0.	4981.6
11128	3.958	4.7273	0.	5019.8
11129	4.05	4.7273	5.e-002	15.217
11130	4.05	4.4545	0.	4951.9
11131	3.958	4.5455	0.	4987.3
11132	4.05	4.5455	5.e-002	14.99
11133	4.05	4.2727	0.	4924.8
11134	3.958	4.3636	0.	4957.3
11135	4.05	4.3636	5.e-002	14.691
11136	4.05	4.0909	0.	4900.6
11137	3.958	4.1818	0.	4930.4
11138	4.05	4.1818	5.e-002	14.336
11139	4.05	3.9091	0.	4879.6
11140	3.958	4.	0.	4906.7
11141	4.05	4.	5.e-002	13.946
11142	4.05	3.7273	0.	4862.1
11143	3.958	3.8182	0.	4886.5
11144	4.05	3.8182	5.e-002	13.547
11145	4.05	3.5455	0.	4848.3
11146	3.958	3.6364	0.	4870.2
11147	4.05	3.6364	5.e-002	13.172
11148	4.05	3.3636	0.	4838.4
11149	3.958	3.4545	0.	4857.8
11150	4.05	3.4545	5.e-002	12.852
11151	4.05	3.1818	0.	4832.3
11152	3.958	3.2727	0.	4849.5
11153	4.05	3.2727	5.e-002	12.617
11154	4.05	3.	0.	4830.3
11155	3.958	3.0909	0.	4845.3
11156	4.05	3.0909	5.e-002	12.494
11157	4.05	2.8182	0.	4832.3
11158	3.958	2.9091	0.	4845.3
11159	4.05	2.9091	5.e-002	12.494
11160	4.05	2.6364	0.	4838.4
11161	3.958	2.7273	0.	4849.5
11162	4.05	2.7273	5.e-002	12.617
11163	4.05	2.4545	0.	4848.3
11164	3.958	2.5455	0.	4857.8
11165	4.05	2.5455	5.e-002	12.852
11166	4.05	2.2727	0.	4862.1
11167	3.958	2.3636	0.	4870.2
11168	4.05	2.3636	5.e-002	13.172
11169	4.05	2.0909	0.	4879.6
11170	3.958	2.1818	0.	4886.5
11171	4.05	2.1818	5.e-002	13.547
11172	4.05	1.9091	0.	4900.6
11173	3.958	2.	0.	4906.7
11174	4.05	2.	5.e-002	13.946
11175	4.05	1.7273	0.	4924.8
11176	3.958	1.8182	0.	4930.4
11177	4.05	1.8182	5.e-002	14.336
11178	4.05	1.5455	0.	4951.9
11179	3.958	1.6364	0.	4957.3
11180	4.05	1.6364	5.e-002	14.691
11181	4.05	1.3636	0.	4981.6
11182	3.958	1.4545	0.	4987.3
11183	4.05	1.4545	5.e-002	14.99
11184	4.05	1.1818	0.	5013.5
11185	3.958	1.2727	0.	5019.8
11186	4.05	1.2727	5.e-002	15.217
11187	4.05	1.	0.	5047.3
11188	3.958	1.0909	0.	5054.6
11189	4.05	1.0909	5.e-002	15.362
11190	4.05	0.81818	0.	5082.5
11191	3.958	0.90909	0.	5091.1
11192	4.05	0.90909	5.e-002	15.422
11193	4.05	0.63636	0.	5118.7
11194	3.958	0.72727	0.	5129.1
11195	4.05	0.72727	5.e-002	15.399
11196	4.05	0.45455	0.	5155.9
11197	3.958	0.54545	0.	5168.1
11198	4.05	0.54545	5.e-002	15.321
11199	4.05	0.27273	0.	5194.4
11200	3.958	0.36364	0.	5208.1
11201	4.05	0.36364	5.e-002	15.521
11202	3.958	0.18182	0.	5250.2
11203	4.05	0.18182	5.e-002	21.528
11204	4.05	9.0909e-002	0.	5225.6
11205	3.8659	5.7273	0.	5263.9
11206	3.7739	5.8182	0.	5321.9
11207	3.8659	5.8182	5.e-002	22.672
11208	3.8659	5.9091	0.	5298.7
11209	3.8659	5.5455	0.	5220.3
11210	3.7739	5.6364	0.	5274.5
11211	3.8659	5.6364	5.e-002	15.748
11212	3.8659	5.3636	0.	5178.5
11213	3.7739	5.4545	0.	5229.8
11214	3.8659	5.4545	5.e-002	15.512
11215	3.8659	5.1818	0.	5137.8
11216	3.7739	5.2727	0.	5186.2
11217	3.8659	5.2727	5.e-002	15.607
11218	3.8659	5.	0.	5098.4
11219	3.7739	5.0909	0.	5143.9
11220	3.8659	5.0909	5.e-002	15.656
11221	3.8659	4.8182	0.	5060.8
11222	3.7739	4.9091	0.	5103.4
11223	3.8659	4.9091	5.e-002	15.628
11224	3.8659	4.6364	0.	5025.5
11225	3.7739	4.7273	0.	5065.1
11226	3.8659	4.7273	5.e-002	15.522
11227	3.8659	4.4545	0.	4992.7
11228	3.7739	4.5455	0.	5029.3
11229	3.8659	4.5455	5.e-002	15.341
11230	3.8659	4.2727	0.	4962.9
11231	3.7739	4.3636	0.	4996.6
11232	3.8659	4.3636	5.e-002	15.094
11233	3.8659	4.0909	0.	4936.4
11234	3.7739	4.1818	0.	4967.3
11235	3.8659	4.1818	5.e-002	14.798
11236	3.8659	3.9091	0.	4913.6
11237	3.7739	4.	0.	4941.6
11238	3.8659	4.	5.e-002	14.47
11239	3.8659	3.7273	0.	4894.6
11240	3.7739	3.8182	0.	4919.9
11241	3.8659	3.8182	5.e-002	14.136
11242	3.8659	3.5455	0.	4879.7
11243	3.7739	3.6364	0.	4902.3
11244	3.8659	3.6364	5.e-002	13.822
11245	3.8659	3.3636	0.	4868.9
11246	3.7739	3.4545	0.	4889.
11247	3.8659	3.4545	5.e-002	13.555
11248	3.8659	3.1818	0.	4862.4
11249	3.7739	3.2727	0.	4880.1
11250	3.8659	3.2727	5.e-002	13.361
11251	3.8659	3.	0.	4860.2
11252	3.7739	3.0909	0.	4875.6
11253	3.8659	3.0909	5.e-002	13.259
11254	3.8659	2.8182	0.	4862.4
11255	3.7739	2.9091	0.	4875.6
11256	3.8659	2.9091	5.e-002	13.259
11257	3.8659	2.6364	0.	4868.9
11258	3.7739	2.7273	0.	4880.1
11259	3.8659	2.7273	5.e-002	13.361
11260	3.8659	2.4545	0.	4879.7
11261	3.7739	2.5455	0.	4889.
11262	3.8659	2.5455	5.e-002	13.555
11263	3.8659	2.2727	0.	4894.6
11264	3.7739	2.3636	0.	4902.3
11265	3.8659	2.3636	5.e-002	13.822
11266	3.8659	2.0909	0.	4913.6
11267	3.7739	2.1818	0.	4919.9
11268	3.8659	2.1818	5.e-002	14.136
11269	3.8659	1.9091	0.	4936.4
11270	3.7739	2.	0.	4941.6
11271	3.8659	2.	5.e-002	14.47
11272	3.8659	1.7273	0.	4962.9
11273	3.7739	1.8182	0.	4967.3
11274	3.8659	1.8182	5.e-002	14.798
11275	3.8659	1.5455	0.	4992.7
11276	3.7739	1.6364	0.	4996.6
11277	3.8659	1.6364	5.e-002	15.094
11278	3.8659	1.3636	0.	5025.5
11279	3.7739	1.4545	0.	5029.3
11280	3.8659	1.4545	5.e-002	15.341
11281	3.8659	1.1818	0.	5060.8
11282	3.7739	1.2727	0.	5065.1
11283	3.8659	1.2727	5.e-002	15.522
11284	3.8659	1.	0.	5098.4
11285	3.7739	1.0909	0.	5103.4
11286	3.8659	1.0909	5.e-002	15.628
11287	3.8659	0.81818	0.	5137.8
11288	3.7739	0.90909	0.	5143.9
11289	3.8659	0.90909	5.e-002	15.656
11290	3.8659	0.63636	0.	5178.5
11291	3.7739	0.72727	0.	5186.2
11292	3.8659	0.72727	5.e-002	15.607
11293	3.8659	0.45455	0.	5220.3
11294	3.7739	0.54545	0.	5229.8
11295	3.8659	0.54545	5.e-002	15.512
11296	3.8659	0.27273	0.	5263.9
11297	3.7739	0.36364	0.	5274.5
11298	3.8659	0.36364	5.e-002	15.748
11299	3.7739	0.18182	0.	5321.9
11300	3.8659	0.18182	5.e-002	22.672
11301	3.8659	9.0909e-002	0.	5298.7
11302	3.6818	5.7273	0.	5332.5
11303	3.5898	5.8182	0.	5392.9
11304	3.6818	5.8182	5.e-002	24.006
11305	3.6818	5.9091	0.	5370.5
11306	3.6818	5.5455	0.	5283.9
11307	3.5898	5.6364	0.	5340.1
11308	3.6818	5.6364	5.e-002	16.08
11309	3.6818	5.3636	0.	5237.4
11310	3.5898	5.4545	0.	5290.5
11311	3.6818	5.4545	5.e-002	15.808
11312	3.6818	5.1818	0.	5192.3
11313	3.5898	5.2727	0.	5242.4
11314	3.6818	5.2727	5.e-002	15.917
11315	3.6818	5.	0.	5148.8
11316	3.5898	5.0909	0.	5195.9
11317	3.6818	5.0909	5.e-002	15.989
11318	3.6818	4.8182	0.	5107.6
11319	3.5898	4.9091	0.	5151.5
11320	3.6818	4.9091	5.e-002	15.988
11321	3.6818	4.6364	0.	5068.9
11322	3.5898	4.7273	0.	5109.7
11323	3.6818	4.7273	5.e-002	15.914
11324	3.6818	4.4545	0.	5033.2
11325	3.5898	4.5455	0.	5071.
11326	3.6818	4.5455	5.e-002	15.77
11327	3.6818	4.2727	0.	5000.9
11328	3.5898	4.3636	0.	5035.7
11329	3.6818	4.3636	5.e-002	15.567
11330	3.6818	4.0909	0.	4972.4
11331	3.5898	4.1818	0.	5004.1
11332	3.6818	4.1818	5.e-002	15.317
11333	3.6818	3.9091	0.	4947.9
11334	3.5898	4.	0.	4976.7
11335	3.6818	4.	5.e-002	15.04
11336	3.6818	3.7273	0.	4927.5
11337	3.5898	3.8182	0.	4953.5
11338	3.6818	3.8182	5.e-002	14.758
11339	3.6818	3.5455	0.	4911.6
11340	3.5898	3.6364	0.	4934.9
11341	3.6818	3.6364	5.e-002	14.493
11342	3.6818	3.3636	0.	4900.1
11343	3.5898	3.4545	0.	4920.8
11344	3.6818	3.4545	5.e-002	14.269
11345	3.6818	3.1818	0.	4893.2
11346	3.5898	3.2727	0.	4911.4
11347	3.6818	3.2727	5.e-002	14.107
11348	3.6818	3.	0.	4890.9
11349	3.5898	3.0909	0.	4906.7
11350	3.6818	3.0909	5.e-002	14.021
11351	3.6818	2.8182	0.	4893.2
11352	3.5898	2.9091	0.	4906.7
11353	3.6818	2.9091	5.e-002	14.021
11354	3.6818	2.6364	0.	4900.1
11355	3.5898	2.7273	0.	4911.4
11356	3.6818	2.7273	5.e-002	14.107
11357	3.6818	2.4545	0.	4911.6
11358	3.5898	2.5455	0.	4920.8
11359	3.6818	2.5455	5.e-002	14.269
11360	3.6818	2.2727	0.	4927.5
11361	3.5898	2.3636	0.	4934.9
11362	3.6818	2.3636	5.e-002	14.493
11363	3.6818	2.0909	0.	4947.9
11364	3.5898	2.1818	0.	4953.5
11365	3.6818	2.1818	5.e-002	14.758
11366	3.6818	1.9091	0.	4972.4
11367	3.5898	2.	0.	4976.7
11368	3.6818	2.	5.e-002	15.04
11369	3.6818	1.7273	0.	5000.9
11370	3.5898	1.8182	0.	5004.1
11371	3.6818	1.8182	5.e-002	15.317
11372	3.6818	1.5455	0.	5033.2
11373	3.5898	1.6364	0.	5035.7
11374	3.6818	1.6364	5.e-002	15.567
11375	3.6818	1.3636	0.	5068.9
11376	3.5898	1.4545	0.	5071.
11377	3.6818	1.4545	5.e-002	15.77
11378	3.6818	1.1818	0.	5107.6
11379	3.5898	1.2727	0.	5109.7
11380	3.6818	1.2727	5.e-002	15.914
11381	3.6818	1.	0.	5148.8
11382	3.5898	1.0909	0.	5151.5
11383	3.6818	1.0909	5.e-002	15.988
11384	3.6818	0.81818	0.	5192.3
11385	3.5898	0.90909	0.	5195.9
11386	3.6818	0.90909	5.e-002	15.989
11387	3.6818	0.63636	0.	5237.4
11388	3.5898	0.72727	0.	5242.4
11389	3.6818	0.72727	5.e-002	15.917
11390	3.6818	0.45455	0.	5283.9
11391	3.5898	0.54545	0.	5290.5
11392	3.6818	0.54545	5.e-002	15.808
11393	3.6818	0.27273	0.	5332.5
11394	3.5898	0.36364	0.	5340.1
11395	3.6818	0.36364	5.e-002	16.08
11396	3.5898	0.18182	0.	5392.9
11397	3.6818	0.18182	5.e-002	24.006
11398	3.6818	9.0909e-002	0.	5370.5
11399	3.4977	5.7273	0.	5400.4
11400	3.4057	5.8182	0.	5463.3
11401	3.4977	5.8182	5.e-002	25.51
11402	3.4977	5.9091	0.	5441.5
11403	3.4977	5.5455	0.	5346.6
11404	3.4057	5.6364	0.	5404.9
11405	3.4977	5.6364	5.e-002	16.503
11406	3.4977	5.3636	0.	5295.5
11407	3.4057	5.4545	0.	5350.4
11408	3.4977	5.4545	5.e-002	16.199
11409	3.4977	5.1818	0.	5246.
11410	3.4057	5.2727	0.	5297.8
11411	3.4977	5.2727	5.e-002	16.325
11412	3.4977	5.	0.	5198.5
11413	3.4057	5.0909	0.	5247.1
11414	3.4977	5.0909	5.e-002	16.418
11415	3.4977	4.8182	0.	5153.7
11416	3.4057	4.9091	0.	5198.9
11417	3.4977	4.9091	5.e-002	16.442
11418	3.4977	4.6364	0.	5111.8
11419	3.4057	4.7273	0.	5153.8
11420	3.4977	4.7273	5.e-002	16.395
11421	3.4977	4.4545	0.	5073.4
11422	3.4057	4.5455	0.	5112.1
11423	3.4977	4.5455	5.e-002	16.282
11424	3.4977	4.2727	0.	5038.8
11425	3.4057	4.3636	0.	5074.4
11426	3.4977	4.3636	5.e-002	16.113
11427	3.4977	4.0909	0.	5008.4
11428	3.4057	4.1818	0.	5040.9
11429	3.4977	4.1818	5.e-002	15.902
11430	3.4977	3.9091	0.	4982.3
11431	3.4057	4.	0.	5011.9
11432	3.4977	4.	5.e-002	15.666
11433	3.4977	3.7273	0.	4960.8
11434	3.4057	3.8182	0.	4987.5
11435	3.4977	3.8182	5.e-002	15.426
11436	3.4977	3.5455	0.	4944.1
11437	3.4057	3.6364	0.	4967.9
11438	3.4977	3.6364	5.e-002	15.202
11439	3.4977	3.3636	0.	4932.
11440	3.4057	3.4545	0.	4953.2
11441	3.4977	3.4545	5.e-002	15.013
11442	3.4977	3.1818	0.	4924.8
11443	3.4057	3.2727	0.	4943.4
11444	3.4977	3.2727	5.e-002	14.877
11445	3.4977	3.	0.	4922.4
11446	3.4057	3.0909	0.	4938.5
11447	3.4977	3.0909	5.e-002	14.805
11448	3.4977	2.8182	0.	4924.8
11449	3.4057	2.9091	0.	4938.5
11450	3.4977	2.9091	5.e-002	14.805
11451	3.4977	2.6364	0.	4932.
11452	3.4057	2.7273	0.	4943.4
11453	3.4977	2.7273	5.e-002	14.877
11454	3.4977	2.4545	0.	4944.1
11455	3.4057	2.5455	0.	4953.2
11456	3.4977	2.5455	5.e-002	15.013
11457	3.4977	2.2727	0.	4960.9
11458	3.4057	2.3636	0.	4967.9
11459	3.4977	2.3636	5.e-002	15.202
11460	3.4977	2.0909	0.	4982.3
11461	3.4057	2.1818	0.	4987.5
11462	3.4977	2.1818	5.e-002	15.426
11463	3.4977	1.9091	0.	5008.4
11464	3.4057	2.	0.	5011.9
11465	3.4977	2.	5.e-002	15.666
11466	3.4977	1.7273	0.	5038.8
11467	3.4057	1.8182	0.	5040.9
11468	3.4977	1.8182	5.e-002	15.902
11469	3.4977	1.5455	0.	5073.4
11470	3.4057	1.6364	0.	5074.4
11471	3.4977	1.6364	5.e-002	16.113
11472	3.4977	1.3636	0.	5111.8
11473	3.4057	1.4545	0.	5112.1
11474	3.4977	1.4545	5.e-002	16.282
11475	3.4977	1.1818	0.	5153.7
11476	3.4057	1.2727	0.	5153.8
11477	3.4977	1.2727	5.e-002	16.395
11478	3.4977	1.	0.	5198.5
11479	3.4057	1.0909	0.	5198.9
11480	3.4977	1.0909	5.e-002	16.442
11481	3.4977	0.81818	0.	5246.
11482	3.4057	0.90909	0.	5247.1
11483	3.4977	0.90909	5.e-002	16.418
11484	3.4977	0.63636	0.	5295.5
11485	3.4057	0.72727	0.	5297.8
11486	3.4977	0.72727	5.e-002	16.325
11487	3.4977	0.45455	0.	5346.6
11488	3.4057	0.54545	0.	5350.4
11489	3.4977	0.54545	5.e-002	16.199
11490	3.4977	0.27273	0.	5400.4
11491	3.4057	0.36364	0.	5404.9
11492	3.4977	0.36364	5.e-002	16.503
11493	3.4057	0.18182	0.	5463.3
11494	3.4977	0.18182	5.e-002	25.51
11495	3.4977	9.0909e-002	0.	5441.5
11496	3.3136	5.7273	0.	5467.7
11497	3.2216	5.8182	0.	5533.2
11498	3.3136	5.8182	5.e-002	27.168
11499	3.3136	5.9091	0.	5511.6
11500	3.3136	5.5455	0.	5408.6
11501	3.2216	5.6364	0.	5468.8
11502	3.3136	5.6364	5.e-002	17.01
11503	3.3136	5.3636	0.	5352.7
11504	3.2216	5.4545	0.	5409.4
11505	3.3136	5.4545	5.e-002	16.681
11506	3.3136	5.1818	0.	5298.8
11507	3.2216	5.2727	0.	5352.2
11508	3.3136	5.2727	5.e-002	16.828
11509	3.3136	5.	0.	5247.4
11510	3.2216	5.0909	0.	5297.3
11511	3.3136	5.0909	5.e-002	16.944
11512	3.3136	4.8182	0.	5199.
11513	3.2216	4.9091	0.	5245.4
11514	3.3136	4.9091	5.e-002	16.991
11515	3.3136	4.6364	0.	5154.
11516	3.2216	4.7273	0.	5197.
11517	3.3136	4.7273	5.e-002	16.968
11518	3.3136	4.4545	0.	5113.1
11519	3.2216	4.5455	0.	5152.6
11520	3.3136	4.5455	5.e-002	16.88
11521	3.3136	4.2727	0.	5076.4
11522	3.2216	4.3636	0.	5112.7
11523	3.3136	4.3636	5.e-002	16.74
11524	3.3136	4.0909	0.	5044.3
11525	3.2216	4.1818	0.	5077.5
11526	3.3136	4.1818	5.e-002	16.561
11527	3.3136	3.9091	0.	5017.
11528	3.2216	4.	0.	5047.1
11529	3.3136	4.	5.e-002	16.361
11530	3.3136	3.7273	0.	4994.5
11531	3.2216	3.8182	0.	5021.8
11532	3.3136	3.8182	5.e-002	16.157
11533	3.3136	3.5455	0.	4977.1
11534	3.2216	3.6364	0.	5001.6
11535	3.3136	3.6364	5.e-002	15.967
11536	3.3136	3.3636	0.	4964.6
11537	3.2216	3.4545	0.	4986.4
11538	3.3136	3.4545	5.e-002	15.808
11539	3.3136	3.1818	0.	4957.1
11540	3.2216	3.2727	0.	4976.3
11541	3.3136	3.2727	5.e-002	15.693
11542	3.3136	3.	0.	4954.6
11543	3.2216	3.0909	0.	4971.3
11544	3.3136	3.0909	5.e-002	15.633
11545	3.3136	2.8182	0.	4957.1
11546	3.2216	2.9091	0.	4971.3
11547	3.3136	2.9091	5.e-002	15.633
11548	3.3136	2.6364	0.	4964.6
11549	3.2216	2.7273	0.	4976.3
11550	3.3136	2.7273	5.e-002	15.693
11551	3.3136	2.4545	0.	4977.1
11552	3.2216	2.5455	0.	4986.4
11553	3.3136	2.5455	5.e-002	15.808
11554	3.3136	2.2727	0.	4994.5
11555	3.2216	2.3636	0.	5001.6
11556	3.3136	2.3636	5.e-002	15.967
11557	3.3136	2.0909	0.	5017.
11558	3.2216	2.1818	0.	5021.8
11559	3.3136	2.1818	5.e-002	16.157
11560	3.3136	1.9091	0.	5044.3
11561	3.2216	2.	0.	5047.1
11562	3.3136	2.	5.e-002	16.361
11563	3.3136	1.7273	0.	5076.4
11564	3.2216	1.8182	0.	5077.5
11565	3.3136	1.8182	5.e-002	16.561
11566	3.3136	1.5455	0.	5113.1
11567	3.2216	1.6364	0.	5112.7
11568	3.3136	1.6364	5.e-002	16.74
11569	3.3136	1.3636	0.	5154.
11570	3.2216	1.4545	0.	5152.6
11571	3.3136	1.4545	5.e-002	16.88
11572	3.3136	1.1818	0.	5199.
11573	3.2216	1.2727	0.	5197.
11574	3.3136	1.2727	5.e-002	16.968
11575	3.3136	1.	0.	5247.4
11576	3.2216	1.0909	0.	5245.4
11577	3.3136	1.0909	5.e-002	16.991
11578	3.3136	0.81818	0.	5298.8
11579	3.2216	0.90909	0.	5297.3
11580	3.3136	0.90909	5.e-002	16.944
11581	3.3136	0.63636	0.	5352.7
11582	3.2216	0.72727	0.	5352.2
11583	3.3136	0.72727	5.e-002	16.828
11584	3.3136	0.45455	0.	5408.6
11585	3.2216	0.54545	0.	5409.4
11586	3.3136	0.54545	5.e-002	16.681
11587	3.3136	0.27273	0.	5467.7
11588	3.2216	0.36364	0.	5468.9
11589	3.3136	0.36364	5.e-002	17.01
11590	3.2216	0.18182	0.	5533.2
11591	3.3136	0.18182	5.e-002	27.168
11592	3.3136	9.0909e-002	0.	5511.6
11593	3.1295	5.7273	0.	5534.3
11594	3.0375	5.8182	0.	5602.6
11595	3.1295	5.8182	5.e-002	28.967
11596	3.1295	5.9091	0.	5580.8
11597	3.1295	5.5455	0.	5469.6
11598	3.0375	5.6364	0.	5531.9
11599	3.1295	5.6364	5.e-002	17.593
11600	3.1295	5.3636	0.	5408.9
11601	3.0375	5.4545	0.	5467.4
11602	3.1295	5.4545	5.e-002	17.253
11603	3.1295	5.1818	0.	5350.6
11604	3.0375	5.2727	0.	5405.4
11605	3.1295	5.2727	5.e-002	17.427
11606	3.1295	5.	0.	5295.2
11607	3.0375	5.0909	0.	5346.3
11608	3.1295	5.0909	5.e-002	17.571
11609	3.1295	4.8182	0.	5243.3
11610	3.0375	4.9091	0.	5290.7
11611	3.1295	4.9091	5.e-002	17.641
11612	3.1295	4.6364	0.	5195.5
11613	3.0375	4.7273	0.	5239.3
11614	3.1295	4.7273	5.e-002	17.639
11615	3.1295	4.4545	0.	5152.2
11616	3.0375	4.5455	0.	5192.4
11617	3.1295	4.5455	5.e-002	17.573
11618	3.1295	4.2727	0.	5113.7
11619	3.0375	4.3636	0.	5150.6
11620	3.1295	4.3636	5.e-002	17.457
11621	3.1295	4.0909	0.	5080.2
11622	3.0375	4.1818	0.	5113.9
11623	3.1295	4.1818	5.e-002	17.306
11624	3.1295	3.9091	0.	5051.9
11625	3.0375	4.	0.	5082.6
11626	3.1295	4.	5.e-002	17.136
11627	3.1295	3.7273	0.	5028.8
11628	3.0375	3.8182	0.	5056.7
11629	3.1295	3.8182	5.e-002	16.964
11630	3.1295	3.5455	0.	5010.9
11631	3.0375	3.6364	0.	5036.
11632	3.1295	3.6364	5.e-002	16.805
11633	3.1295	3.3636	0.	4998.1
11634	3.0375	3.4545	0.	5020.7
11635	3.1295	3.4545	5.e-002	16.673
11636	3.1295	3.1818	0.	4990.5
11637	3.0375	3.2727	0.	5010.5
11638	3.1295	3.2727	5.e-002	16.579
11639	3.1295	3.	0.	4988.
11640	3.0375	3.0909	0.	5005.5
11641	3.1295	3.0909	5.e-002	16.53
11642	3.1295	2.8182	0.	4990.5
11643	3.0375	2.9091	0.	5005.5
11644	3.1295	2.9091	5.e-002	16.53
11645	3.1295	2.6364	0.	4998.1
11646	3.0375	2.7273	0.	5010.5
11647	3.1295	2.7273	5.e-002	16.579
11648	3.1295	2.4545	0.	5010.9
11649	3.0375	2.5455	0.	5020.7
11650	3.1295	2.5455	5.e-002	16.673
11651	3.1295	2.2727	0.	5028.8
11652	3.0375	2.3636	0.	5036.
11653	3.1295	2.3636	5.e-002	16.805
11654	3.1295	2.0909	0.	5051.9
11655	3.0375	2.1818	0.	5056.7
11656	3.1295	2.1818	5.e-002	16.964
11657	3.1295	1.9091	0.	5080.2
11658	3.0375	2.	0.	5082.6
11659	3.1295	2.	5.e-002	17.136
11660	3.1295	1.7273	0.	5113.7
11661	3.0375	1.8182	0.	5113.9
11662	3.1295	1.8182	5.e-002	17.306
11663	3.1295	1.5455	0.	5152.2
11664	3.0375	1.6364	0.	5150.6
11665	3.1295	1.6364	5.e-002	17.457
11666	3.1295	1.3636	0.	5195.5
11667	3.0375	1.4545	0.	5192.4
11668	3.1295	1.4545	5.e-002	17.573
11669	3.1295	1.1818	0.	5243.3
11670	3.0375	1.2727	0.	5239.3
11671	3.1295	1.2727	5.e-002	17.639
11672	3.1295	1.	0.	5295.2
11673	3.0375	1.0909	0.	5290.7
11674	3.1295	1.0909	5.e-002	17.641
11675	3.1295	0.81818	0.	5350.6
11676	3.0375	0.90909	0.	5346.3
11677	3.1295	0.90909	5.e-002	17.571
11678	3.1295	0.63636	0.	5408.9
11679	3.0375	0.72727	0.	5405.4
11680	3.1295	0.72727	5.e-002	17.427
11681	3.1295	0.45455	0.	5469.6
11682	3.0375	0.54545	0.	5467.4
11683	3.1295	0.54545	5.e-002	17.253
11684	3.1295	0.27273	0.	5534.3
11685	3.0375	0.36364	0.	5531.9
11686	3.1295	0.36364	5.e-002	17.593
11687	3.0375	0.18182	0.	5602.6
11688	3.1295	0.18182	5.e-002	28.967
11689	3.1295	9.0909e-002	0.	5580.8
11690	2.9455	5.7273	0.	5600.1
11691	2.8534	5.8182	0.	5671.1
11692	2.9455	5.8182	5.e-002	30.891
11693	2.9455	5.9091	0.	5648.8
11694	2.9455	5.5455	0.	5529.6
11695	2.8534	5.6364	0.	5593.7
11696	2.9455	5.6364	5.e-002	18.254
11697	2.9455	5.3636	0.	5463.8
11698	2.8534	5.4545	0.	5523.8
11699	2.9455	5.4545	5.e-002	17.921
11700	2.9455	5.1818	0.	5401.
11701	2.8534	5.2727	0.	5457.1
11702	2.9455	5.2727	5.e-002	18.132
11703	2.9455	5.	0.	5341.7
11704	2.8534	5.0909	0.	5393.7
11705	2.9455	5.0909	5.e-002	18.306
11706	2.9455	4.8182	0.	5286.5
11707	2.8534	4.9091	0.	5334.6
11708	2.9455	4.9091	5.e-002	18.4
11709	2.9455	4.6364	0.	5236.1
11710	2.8534	4.7273	0.	5280.3
11711	2.9455	4.7273	5.e-002	18.417
11712	2.9455	4.4545	0.	5190.7
11713	2.8534	4.5455	0.	5231.3
11714	2.9455	4.5455	5.e-002	18.371
11715	2.9455	4.2727	0.	5150.7
11716	2.8534	4.3636	0.	5187.9
11717	2.9455	4.3636	5.e-002	18.276
11718	2.9455	4.0909	0.	5116.2
11719	2.8534	4.1818	0.	5150.3
11720	2.9455	4.1818	5.e-002	18.149
11721	2.9455	3.9091	0.	5087.3
11722	2.8534	4.	0.	5118.5
11723	2.9455	4.	5.e-002	18.008
11724	2.9455	3.7273	0.	5063.8
11725	2.8534	3.8182	0.	5092.3
11726	2.9455	3.8182	5.e-002	17.866
11727	2.9455	3.5455	0.	5045.8
11728	2.8534	3.6364	0.	5071.7
11729	2.9455	3.6364	5.e-002	17.737
11730	2.9455	3.3636	0.	5033.
11731	2.8534	3.4545	0.	5056.5
11732	2.9455	3.4545	5.e-002	17.631
11733	2.9455	3.1818	0.	5025.4
11734	2.8534	3.2727	0.	5046.4
11735	2.9455	3.2727	5.e-002	17.556
11736	2.9455	3.	0.	5022.9
11737	2.8534	3.0909	0.	5041.5
11738	2.9455	3.0909	5.e-002	17.518
11739	2.9455	2.8182	0.	5025.4
11740	2.8534	2.9091	0.	5041.5
11741	2.9455	2.9091	5.e-002	17.518
11742	2.9455	2.6364	0.	5033.
11743	2.8534	2.7273	0.	5046.4
11744	2.9455	2.7273	5.e-002	17.556
11745	2.9455	2.4545	0.	5045.8
11746	2.8534	2.5455	0.	5056.5
11747	2.9455	2.5455	5.e-002	17.631
11748	2.9455	2.2727	0.	5063.8
11749	2.8534	2.3636	0.	5071.7
11750	2.9455	2.3636	5.e-002	17.737
11751	2.9455	2.0909	0.	5087.3
11752	2.8534	2.1818	0.	5092.3
11753	2.9455	2.1818	5.e-002	17.866
11754	2.9455	1.9091	0.	5116.2
11755	2.8534	2.	0.	5118.5
11756	2.9455	2.	5.e-002	18.008
11757	2.9455	1.7273	0.	5150.7
11758	2.8534	1.8182	0.	5150.3
11759	2.9455	1.8182	5.e-002	18.149
11760	2.9455	1.5455	0.	5190.7
11761	2.8534	1.6364	0.	5187.9
11762	2.9455	1.6364	5.e-002	18.276
11763	2.9455	1.3636	0.	5236.1
11764	2.8534	1.4545	0.	5231.3
11765	2.9455	1.4545	5.e-002	18.371
11766	2.9455	1.1818	0.	5286.5
11767	2.8534	1.2727	0.	5280.3
11768	2.9455	1.2727	5.e-002	18.417
11769	2.9455	1.	0.	5341.7
11770	2.8534	1.0909	0.	5334.6
11771	2.9455	1.0909	5.e-002	18.4
11772	2.9455	0.81818	0.	5401.
11773	2.8534	0.90909	0.	5393.7
11774	2.9455	0.90909	5.e-002	18.306
11775	2.9455	0.63636	0.	5463.8
11776	2.8534	0.72727	0.	5457.1
11777	2.9455	0.72727	5.e-002	18.132
11778	2.9455	0.45455	0.	5529.6
11779	2.8534	0.54545	0.	5523.8
11780	2.9455	0.54545	5.e-002	17.921
11781	2.9455	0.27273	0.	5600.1
11782	2.8534	0.36364	0.	5593.7
11783	2.9455	0.36364	5.e-002	18.254
11784	2.8534	0.18182	0.	5671.1
11785	2.9455	0.18182	5.e-002	30.891
11786	2.9455	9.0909e-002	0.	5648.8
11787	2.7614	5.7273	0.	5664.7
11788	2.6693	5.8182	0.	5738.5
11789	2.7614	5.8182	5.e-002	32.926
11790	2.7614	5.9091	0.	5715.5
11791	2.7614	5.5455	0.	5587.9
11792	2.6693	5.6364	0.	5653.9
11793	2.7614	5.6364	5.e-002	18.997
11794	2.7614	5.3636	0.	5517.
11795	2.6693	5.4545	0.	5578.4
11796	2.7614	5.4545	5.e-002	18.695
11797	2.7614	5.1818	0.	5449.7
11798	2.6693	5.2727	0.	5506.7
11799	2.7614	5.2727	5.e-002	18.954
11800	2.7614	5.	0.	5386.5
11801	2.6693	5.0909	0.	5439.1
11802	2.7614	5.0909	5.e-002	19.164
11803	2.7614	4.8182	0.	5328.2
11804	2.6693	4.9091	0.	5376.6
11805	2.7614	4.9091	5.e-002	19.282
11806	2.7614	4.6364	0.	5275.4
11807	2.6693	4.7273	0.	5319.8
11808	2.7614	4.7273	5.e-002	19.317
11809	2.7614	4.4545	0.	5228.4
11810	2.6693	4.5455	0.	5269.1
11811	2.7614	4.5455	5.e-002	19.286
11812	2.7614	4.2727	0.	5187.4
11813	2.6693	4.3636	0.	5224.7
11814	2.7614	4.3636	5.e-002	19.21
11815	2.7614	4.0909	0.	5152.4
11816	2.6693	4.1818	0.	5186.8
11817	2.7614	4.1818	5.e-002	19.106
11818	2.7614	3.9091	0.	5123.4
11819	2.6693	4.	0.	5155.
11820	2.7614	4.	5.e-002	18.992
11821	2.7614	3.7273	0.	5100.1
11822	2.6693	3.8182	0.	5129.3
11823	2.7614	3.8182	5.e-002	18.881
11824	2.7614	3.5455	0.	5082.4
11825	2.6693	3.6364	0.	5109.2
11826	2.7614	3.6364	5.e-002	18.783
11827	2.7614	3.3636	0.	5069.8
11828	2.6693	3.4545	0.	5094.5
11829	2.7614	3.4545	5.e-002	18.704
11830	2.7614	3.1818	0.	5062.4
11831	2.6693	3.2727	0.	5084.8
11832	2.7614	3.2727	5.e-002	18.65
11833	2.7614	3.	0.	5060.
11834	2.6693	3.0909	0.	5080.1
11835	2.7614	3.0909	5.e-002	18.622
11836	2.7614	2.8182	0.	5062.4
11837	2.6693	2.9091	0.	5080.1
11838	2.7614	2.9091	5.e-002	18.622
11839	2.7614	2.6364	0.	5069.8
11840	2.6693	2.7273	0.	5084.8
11841	2.7614	2.7273	5.e-002	18.65
11842	2.7614	2.4545	0.	5082.4
11843	2.6693	2.5455	0.	5094.5
11844	2.7614	2.5455	5.e-002	18.704
11845	2.7614	2.2727	0.	5100.1
11846	2.6693	2.3636	0.	5109.2
11847	2.7614	2.3636	5.e-002	18.783
11848	2.7614	2.0909	0.	5123.4
11849	2.6693	2.1818	0.	5129.3
11850	2.7614	2.1818	5.e-002	18.881
11851	2.7614	1.9091	0.	5152.4
11852	2.6693	2.	0.	5155.
11853	2.7614	2.	5.e-002	18.992
11854	2.7614	1.7273	0.	5187.4
11855	2.6693	1.8182	0.	5186.8
11856	2.7614	1.8182	5.e-002	19.106
11857	2.7614	1.5455	0.	5228.4
11858	2.6693	1.6364	0.	5224.7
11859	2.7614	1.6364	5.e-002	19.21
11860	2.7614	1.3636	0.	5275.4
11861	2.6693	1.4545	0.	5269.1
11862	2.7614	1.4545	5.e-002	19.286
11863	2.7614	1.1818	0.	5328.2
11864	2.6693	1.2727	0.	5319.8
11865	2.7614	1.2727	5.e-002	19.317
11866	2.7614	1.	0.	5386.5
11867	2.6693	1.0909	0.	5376.6
11868	2.7614	1.0909	5.e-002	19.282
11869	2.7614	0.81818	0.	5449.7
11870	2.6693	0.90909	0.	5439.1
11871	2.7614	0.90909	5.e-002	19.164
11872	2.7614	0.63636	0.	5517.
11873	2.6693	0.72727	0.	5506.7
11874	2.7614	0.72727	5.e-002	18.954
11875	2.7614	0.45455	0.	5587.9
11876	2.6693	0.54545	0.	5578.4
11877	2.7614	0.54545	5.e-002	18.695
11878	2.7614	0.27273	0.	5664.7
11879	2.6693	0.36364	0.	5653.9
11880	2.7614	0.36364	5.e-002	18.997
11881	2.6693	0.18182	0.	5738.5
11882	2.7614	0.18182	5.e-002	32.926
11883	2.7614	9.0909e-002	0.	5715.5
11884	2.5773	5.7273	0.	5727.6
11885	2.4852	5.8182	0.	5804.2
11886	2.5773	5.8182	5.e-002	35.054
11887	2.5773	5.9091	0.	5780.2
11888	2.5773	5.5455	0.	5644.2
11889	2.4852	5.6364	0.	5711.6
11890	2.5773	5.6364	5.e-002	19.833
11891	2.5773	5.3636	0.	5567.9
11892	2.4852	5.4545	0.	5630.2
11893	2.5773	5.4545	5.e-002	19.597
11894	2.5773	5.1818	0.	5496.
11895	2.4852	5.2727	0.	5553.5
11896	2.5773	5.2727	5.e-002	19.916
11897	2.5773	5.	0.	5429.1
11898	2.4852	5.0909	0.	5481.8
11899	2.5773	5.0909	5.e-002	20.166
11900	2.5773	4.8182	0.	5368.
11901	2.4852	4.9091	0.	5416.2
11902	2.5773	4.9091	5.e-002	20.306
11903	2.5773	4.6364	0.	5313.3
11904	2.4852	4.7273	0.	5357.3
11905	2.5773	4.7273	5.e-002	20.355
11906	2.5773	4.4545	0.	5265.3
11907	2.4852	4.5455	0.	5305.6
11908	2.5773	4.5455	5.e-002	20.336
11909	2.5773	4.2727	0.	5223.9
11910	2.4852	4.3636	0.	5261.
11911	2.5773	4.3636	5.e-002	20.275
11912	2.5773	4.0909	0.	5189.2
11913	2.4852	4.1818	0.	5223.5
11914	2.5773	4.1818	5.e-002	20.194
11915	2.5773	3.9091	0.	5160.8
11916	2.4852	4.	0.	5192.7
11917	2.5773	4.	5.e-002	20.109
11918	2.5773	3.7273	0.	5138.2
11919	2.4852	3.8182	0.	5168.1
11920	2.5773	3.8182	5.e-002	20.031
11921	2.5773	3.5455	0.	5121.2
11922	2.4852	3.6364	0.	5149.2
11923	2.5773	3.6364	5.e-002	19.966
11924	2.5773	3.3636	0.	5109.4
11925	2.4852	3.4545	0.	5135.5
11926	2.5773	3.4545	5.e-002	19.917
11927	2.5773	3.1818	0.	5102.4
11928	2.4852	3.2727	0.	5126.6
11929	2.5773	3.2727	5.e-002	19.885
11930	2.5773	3.	0.	5100.1
11931	2.4852	3.0909	0.	5122.2
11932	2.5773	3.0909	5.e-002	19.869
11933	2.5773	2.8182	0.	5102.4
11934	2.4852	2.9091	0.	5122.2
11935	2.5773	2.9091	5.e-002	19.869
11936	2.5773	2.6364	0.	5109.4
11937	2.4852	2.7273	0.	5126.6
11938	2.5773	2.7273	5.e-002	19.885
11939	2.5773	2.4545	0.	5121.2
11940	2.4852	2.5455	0.	5135.5
11941	2.5773	2.5455	5.e-002	19.917
11942	2.5773	2.2727	0.	5138.2
11943	2.4852	2.3636	0.	5149.2
11944	2.5773	2.3636	5.e-002	19.966
11945	2.5773	2.0909	0.	5160.8
11946	2.4852	2.1818	0.	5168.1
11947	2.5773	2.1818	5.e-002	20.031
11948	2.5773	1.9091	0.	5189.2
11949	2.4852	2.	0.	5192.7
11950	2.5773	2.	5.e-002	20.109
11951	2.5773	1.7273	0.	5223.9
11952	2.4852	1.8182	0.	5223.5
11953	2.5773	1.8182	5.e-002	20.194
11954	2.5773	1.5455	0.	5265.3
11955	2.4852	1.6364	0.	5261.
11956	2.5773	1.6364	5.e-002	20.275
11957	2.5773	1.3636	0.	5313.3
11958	2.4852	1.4545	0.	5305.6
11959	2.5773	1.4545	5.e-002	20.336
11960	2.5773	1.1818	0.	5368.
11961	2.4852	1.2727	0.	5357.3
11962	2.5773	1.2727	5.e-002	20.355
11963	2.5773	1.	0.	5429.1
11964	2.4852	1.0909	0.	5416.2
11965	2.5773	1.0909	5.e-002	20.306
11966	2.5773	0.81818	0.	5496.
11967	2.4852	0.90909	0.	5481.8
11968	2.5773	0.90909	5.e-002	20.166
11969	2.5773	0.63636	0.	5567.9
11970	2.4852	0.72727	0.	5553.5
11971	2.5773	0.72727	5.e-002	19.916
11972	2.5773	0.45455	0.	5644.2
11973	2.4852	0.54545	0.	5630.2
11974	2.5773	0.54545	5.e-002	19.597
11975	2.5773	0.27273	0.	5727.6
11976	2.4852	0.36364	0.	5711.6
11977	2.5773	0.36364	5.e-002	19.833
11978	2.4852	0.18182	0.	5804.2
11979	2.5773	0.18182	5.e-002	35.054
11980	2.5773	9.0909e-002	0.	5780.2
11981	2.3932	5.7273	0.	5788.
11982	2.3011	5.8182	0.	5867.2
11983	2.3932	5.8182	5.e-002	37.25
11984	2.3932	5.9091	0.	5842.
11985	2.3932	5.5455	0.	5697.5
11986	2.3011	5.6364	0.	5765.9
11987	2.3932	5.6364	5.e-002	20.786
11988	2.3932	5.3636	0.	5615.6
11989	2.3011	5.4545	0.	5678.3
11990	2.3932	5.4545	5.e-002	20.658
11991	2.3932	5.1818	0.	5539.1
11992	2.3011	5.2727	0.	5596.4
11993	2.3932	5.2727	5.e-002	21.051
11994	2.3932	5.	0.	5468.7
11995	2.3011	5.0909	0.	5520.9
11996	2.3932	5.0909	5.e-002	21.341
11997	2.3932	4.8182	0.	5405.3
11998	2.3011	4.9091	0.	5452.7
11999	2.3932	4.9091	5.e-002	21.499
12000	2.3932	4.6364	0.	5349.4
12001	2.3011	4.7273	0.	5392.5
12002	2.3932	4.7273	5.e-002	21.553
12003	2.3932	4.4545	0.	5301.2
12004	2.3011	4.5455	0.	5340.6
12005	2.3932	4.5455	5.e-002	21.54
12006	2.3932	4.2727	0.	5260.5
12007	2.3011	4.3636	0.	5296.9
12008	2.3932	4.3636	5.e-002	21.493
12009	2.3932	4.0909	0.	5226.9
12010	2.3011	4.1818	0.	5261.
12011	2.3932	4.1818	5.e-002	21.434
12012	2.3932	3.9091	0.	5199.9
12013	2.3011	4.	0.	5232.1
12014	2.3932	4.	5.e-002	21.381
12015	2.3932	3.7273	0.	5178.9
12016	2.3011	3.8182	0.	5209.6
12017	2.3932	3.8182	5.e-002	21.34
12018	2.3932	3.5455	0.	5163.3
12019	2.3011	3.6364	0.	5192.6
12020	2.3932	3.6364	5.e-002	21.312
12021	2.3932	3.3636	0.	5152.6
12022	2.3011	3.4545	0.	5180.5
12023	2.3932	3.4545	5.e-002	21.296
12024	2.3932	3.1818	0.	5146.3
12025	2.3011	3.2727	0.	5172.8
12026	2.3932	3.2727	5.e-002	21.288
12027	2.3932	3.	0.	5144.2
12028	2.3011	3.0909	0.	5169.
12029	2.3932	3.0909	5.e-002	21.285
12030	2.3932	2.8182	0.	5146.3
12031	2.3011	2.9091	0.	5169.
12032	2.3932	2.9091	5.e-002	21.285
12033	2.3932	2.6364	0.	5152.6
12034	2.3011	2.7273	0.	5172.8
12035	2.3932	2.7273	5.e-002	21.288
12036	2.3932	2.4545	0.	5163.3
12037	2.3011	2.5455	0.	5180.5
12038	2.3932	2.5455	5.e-002	21.296
12039	2.3932	2.2727	0.	5178.9
12040	2.3011	2.3636	0.	5192.6
12041	2.3932	2.3636	5.e-002	21.312
12042	2.3932	2.0909	0.	5199.9
12043	2.3011	2.1818	0.	5209.6
12044	2.3932	2.1818	5.e-002	21.34
12045	2.3932	1.9091	0.	5226.9
12046	2.3011	2.	0.	5232.1
12047	2.3932	2.	5.e-002	21.381
12048	2.3932	1.7273	0.	5260.5
12049	2.3011	1.8182	0.	5261.
12050	2.3932	1.8182	5.e-002	21.434
12051	2.3932	1.5455	0.	5301.2
12052	2.3011	1.6364	0.	5296.9
12053	2.3932	1.6364	5.e-002	21.493
12054	2.3932	1.3636	0.	5349.4
12055	2.3011	1.4545	0.	5340.6
12056	2.3932	1.4545	5.e-002	21.54
12057	2.3932	1.1818	0.	5405.3
12058	2.3011	1.2727	0.	5392.5
12059	2.3932	1.2727	5.e-002	21.553
12060	2.3932	1.	0.	5468.7
12061	2.3011	1.0909	0.	5452.7
12062	2.3932	1.0909	5.e-002	21.499
12063	2.3932	0.81818	0.	5539.1
12064	2.3011	0.90909	0.	5520.9
12065	2.3932	0.90909	5.e-002	21.341
12066	2.3932	0.63636	0.	5615.6
12067	2.3011	0.72727	0.	5596.4
12068	2.3932	0.72727	5.e-002	21.051
12069	2.3932	0.45455	0.	5697.5
12070	2.3011	0.54545	0.	5678.3
12071	2.3932	0.54545	5.e-002	20.658
12072	2.3932	0.27273	0.	5788.
12073	2.3011	0.36364	0.	5765.9
12074	2.3932	0.36364	5.e-002	20.786
12075	2.3011	0.18182	0.	5867.2
12076	2.3932	0.18182	5.e-002	37.25
12077	2.3932	9.0909e-002	0.	5842.
12078	2.2091	5.7273	0.	5844.9
12079	2.117	5.8182	0.	5926.3
12080	2.2091	5.8182	5.e-002	39.486
12081	2.2091	5.9091	0.	5899.9
12082	2.2091	5.5455	0.	5746.6
12083	2.117	5.6364	0.	5815.4
12084	2.2091	5.6364	5.e-002	21.896
12085	2.2091	5.3636	0.	5658.9
12086	2.117	5.4545	0.	5721.3
12087	2.2091	5.4545	5.e-002	21.932
12088	2.2091	5.1818	0.	5578.
12089	2.117	5.2727	0.	5634.2
12090	2.2091	5.2727	5.e-002	22.408
12091	2.2091	5.	0.	5504.5
12092	2.117	5.0909	0.	5555.1
12093	2.2091	5.0909	5.e-002	22.732
12094	2.2091	4.8182	0.	5439.5
12095	2.117	4.9091	0.	5485.1
12096	2.2091	4.9091	5.e-002	22.894
12097	2.2091	4.6364	0.	5383.4
12098	2.117	4.7273	0.	5424.7
12099	2.2091	4.7273	5.e-002	22.941
12100	2.2091	4.4545	0.	5336.1
12101	2.117	4.5455	0.	5374.
12102	2.2091	4.5455	5.e-002	22.924
12103	2.2091	4.2727	0.	5297.2
12104	2.117	4.3636	0.	5332.6
12105	2.2091	4.3636	5.e-002	22.885
12106	2.2091	4.0909	0.	5266.
12107	2.117	4.1818	0.	5299.6
12108	2.2091	4.1818	5.e-002	22.851
12109	2.2091	3.9091	0.	5241.6
12110	2.117	4.	0.	5274.
12111	2.2091	4.	5.e-002	22.833
12112	2.2091	3.7273	0.	5223.1
12113	2.117	3.8182	0.	5254.7
12114	2.2091	3.8182	5.e-002	22.834
12115	2.2091	3.5455	0.	5209.7
12116	2.117	3.6364	0.	5240.7
12117	2.2091	3.6364	5.e-002	22.848
12118	2.2091	3.3636	0.	5200.6
12119	2.117	3.4545	0.	5230.9
12120	2.2091	3.4545	5.e-002	22.868
12121	2.2091	3.1818	0.	5195.4
12122	2.117	3.2727	0.	5224.9
12123	2.2091	3.2727	5.e-002	22.887
12124	2.2091	3.	0.	5193.7
12125	2.117	3.0909	0.	5222.
12126	2.2091	3.0909	5.e-002	22.898
12127	2.2091	2.8182	0.	5195.4
12128	2.117	2.9091	0.	5222.
12129	2.2091	2.9091	5.e-002	22.898
12130	2.2091	2.6364	0.	5200.6
12131	2.117	2.7273	0.	5224.9
12132	2.2091	2.7273	5.e-002	22.887
12133	2.2091	2.4545	0.	5209.7
12134	2.117	2.5455	0.	5230.9
12135	2.2091	2.5455	5.e-002	22.868
12136	2.2091	2.2727	0.	5223.1
12137	2.117	2.3636	0.	5240.7
12138	2.2091	2.3636	5.e-002	22.848
12139	2.2091	2.0909	0.	5241.6
12140	2.117	2.1818	0.	5254.7
12141	2.2091	2.1818	5.e-002	22.834
12142	2.2091	1.9091	0.	5266.
12143	2.117	2.	0.	5274.
12144	2.2091	2.	5.e-002	22.833
12145	2.2091	1.7273	0.	5297.2
12146	2.117	1.8182	0.	5299.6
12147	2.2091	1.8182	5.e-002	22.851
12148	2.2091	1.5455	0.	5336.1
12149	2.117	1.6364	0.	5332.6
12150	2.2091	1.6364	5.e-002	22.885
12151	2.2091	1.3636	0.	5383.4
12152	2.117	1.4545	0.	5374.
12153	2.2091	1.4545	5.e-002	22.924
12154	2.2091	1.1818	0.	5439.5
12155	2.117	1.2727	0.	5424.7
12156	2.2091	1.2727	5.e-002	22.941
12157	2.2091	1.	0.	5504.5
12158	2.117	1.0909	0.	5485.1
12159	2.2091	1.0909	5.e-002	22.894
12160	2.2091	0.81818	0.	5578.
12161	2.117	0.90909	0.	5555.1
12162	2.2091	0.90909	5.e-002	22.732
12163	2.2091	0.63636	0.	5658.9
12164	2.117	0.72727	0.	5634.2
12165	2.2091	0.72727	5.e-002	22.408
12166	2.2091	0.45455	0.	5746.6
12167	2.117	0.54545	0.	5721.3
12168	2.2091	0.54545	5.e-002	21.932
12169	2.2091	0.27273	0.	5844.9
12170	2.117	0.36364	0.	5815.4
12171	2.2091	0.36364	5.e-002	21.896
12172	2.117	0.18182	0.	5926.3
12173	2.2091	0.18182	5.e-002	39.486
12174	2.2091	9.0909e-002	0.	5899.9
12175	2.025	5.7273	0.	5896.6
12176	1.933	5.8182	0.	5979.8
12177	2.025	5.8182	5.e-002	41.718
12178	2.025	5.9091	0.	5952.3
12179	2.025	5.5455	0.	5789.9
12180	1.933	5.6364	0.	5858.2
12181	2.025	5.6364	5.e-002	23.231
12182	2.025	5.3636	0.	5696.3
12183	1.933	5.4545	0.	5757.1
12184	2.025	5.4545	5.e-002	23.497
12185	2.025	5.1818	0.	5611.1
12186	1.933	5.2727	0.	5665.1
12187	2.025	5.2727	5.e-002	24.057
12188	2.025	5.	0.	5535.3
12189	1.933	5.0909	0.	5583.
12190	2.025	5.0909	5.e-002	24.397
12191	2.025	4.8182	0.	5469.8
12192	1.933	4.9091	0.	5512.3
12193	2.025	4.9091	5.e-002	24.537
12194	2.025	4.6364	0.	5414.9
12195	1.933	4.7273	0.	5453.3
12196	2.025	4.7273	5.e-002	24.553
12197	2.025	4.4545	0.	5370.2
12198	1.933	4.5455	0.	5405.7
12199	2.025	4.5455	5.e-002	24.518
12200	2.025	4.2727	0.	5334.7
12201	1.933	4.3636	0.	5368.5
12202	2.025	4.3636	5.e-002	24.483
12203	2.025	4.0909	0.	5307.4
12204	1.933	4.1818	0.	5340.3
12205	2.025	4.1818	5.e-002	24.473
12206	2.025	3.9091	0.	5286.9
12207	1.933	4.	0.	5319.6
12208	2.025	4.	5.e-002	24.495
12209	2.025	3.7273	0.	5272.1
12210	1.933	3.8182	0.	5304.9
12211	2.025	3.8182	5.e-002	24.542
12212	2.025	3.5455	0.	5261.8
12213	1.933	3.6364	0.	5294.8
12214	2.025	3.6364	5.e-002	24.603
12215	2.025	3.3636	0.	5255.
12216	1.933	3.4545	0.	5288.3
12217	2.025	3.4545	5.e-002	24.662
12218	2.025	3.1818	0.	5251.3
12219	1.933	3.2727	0.	5284.4
12220	2.025	3.2727	5.e-002	24.709
12221	2.025	3.	0.	5250.1
12222	1.933	3.0909	0.	5282.6
12223	2.025	3.0909	5.e-002	24.735
12224	2.025	2.8182	0.	5251.3
12225	1.933	2.9091	0.	5282.6
12226	2.025	2.9091	5.e-002	24.735
12227	2.025	2.6364	0.	5255.
12228	1.933	2.7273	0.	5284.4
12229	2.025	2.7273	5.e-002	24.709
12230	2.025	2.4545	0.	5261.8
12231	1.933	2.5455	0.	5288.3
12232	2.025	2.5455	5.e-002	24.662
12233	2.025	2.2727	0.	5272.1
12234	1.933	2.3636	0.	5294.8
12235	2.025	2.3636	5.e-002	24.603
12236	2.025	2.0909	0.	5286.9
12237	1.933	2.1818	0.	5304.9
12238	2.025	2.1818	5.e-002	24.542
12239	2.025	1.9091	0.	5307.4
12240	1.933	2.	0.	5319.6
12241	2.025	2.	5.e-002	24.495
12242	2.025	1.7273	0.	5334.7
12243	1.933	1.8182	0.	5340.3
12244	2.025	1.8182	5.e-002	24.473
12245	2.025	1.5455	0.	5370.2
12246	1.933	1.6364	0.	5368.5
12247	2.025	1.6364	5.e-002	24.483
12248	2.025	1.3636	0.	5414.9
12249	1.933	1.4545	0.	5405.7
12250	2.025	1.4545	5.e-002	24.518
12251	2.025	1.1818	0.	5469.8
12252	1.933	1.2727	0.	5453.3
12253	2.025	1.2727	5.e-002	24.553
12254	2.025	1.	0.	5535.3
12255	1.933	1.0909	0.	5512.3
12256	2.025	1.0909	5.e-002	24.537
12257	2.025	0.81818	0.	5611.1
12258	1.933	0.90909	0.	5583.
12259	2.025	0.90909	5.e-002	24.397
12260	2.025	0.63636	0.	5696.3
12261	1.933	0.72727	0.	5665.1
12262	2.025	0.72727	5.e-002	24.057
12263	2.025	0.45455	0.	5789.9
12264	1.933	0.54545	0.	5757.1
12265	2.025	0.54545	5.e-002	23.497
12266	2.025	0.27273	0.	5896.6
12267	1.933	0.36364	0.	5858.2
12268	2.025	0.36364	5.e-002	23.231
12269	1.933	0.18182	0.	5979.8
12270	2.025	0.18182	5.e-002	41.718
12271	2.025	9.0909e-002	0.	5952.3
12272	1.8409	5.7273	0.	5941.1
12273	1.7489	5.8182	0.	6025.2
12274	1.8409	5.8182	5.e-002	43.894
12275	1.8409	5.9091	0.	5997.
12276	1.8409	5.5455	0.	5825.1
12277	1.7489	5.6364	0.	5891.5
12278	1.8409	5.6364	5.e-002	24.907
12279	1.8409	5.3636	0.	5725.5
12280	1.7489	5.4545	0.	5783.1
12281	1.8409	5.4545	5.e-002	25.475
12282	1.8409	5.1818	0.	5636.6
12283	1.7489	5.2727	0.	5686.4
12284	1.8409	5.2727	5.e-002	26.101
12285	1.8409	5.	0.	5559.6
12286	1.7489	5.0909	0.	5602.7
12287	1.8409	5.0909	5.e-002	26.414
12288	1.8409	4.8182	0.	5495.3
12289	1.7489	4.9091	0.	5533.1
12290	1.8409	4.9091	5.e-002	26.485
12291	1.8409	4.6364	0.	5443.6
12292	1.7489	4.7273	0.	5477.8
12293	1.8409	4.7273	5.e-002	26.434
12294	1.8409	4.4545	0.	5403.5
12295	1.7489	4.5455	0.	5435.7
12296	1.8409	4.5455	5.e-002	26.361
12297	1.8409	4.2727	0.	5373.6
12298	1.7489	4.3636	0.	5405.2
12299	1.8409	4.3636	5.e-002	26.321
12300	1.8409	4.0909	0.	5352.1
12301	1.7489	4.1818	0.	5384.
12302	1.8409	4.1818	5.e-002	26.337
12303	1.8409	3.9091	0.	5337.2
12304	1.7489	4.	0.	5370.2
12305	1.8409	4.	5.e-002	26.403
12306	1.8409	3.7273	0.	5327.4
12307	1.7489	3.8182	0.	5361.7
12308	1.8409	3.8182	5.e-002	26.5
12309	1.8409	3.5455	0.	5321.2
12310	1.7489	3.6364	0.	5356.9
12311	1.8409	3.6364	5.e-002	26.608
12312	1.8409	3.3636	0.	5317.5
12313	1.7489	3.4545	0.	5354.4
12314	1.8409	3.4545	5.e-002	26.707
12315	1.8409	3.1818	0.	5315.6
12316	1.7489	3.2727	0.	5353.3
12317	1.8409	3.2727	5.e-002	26.78
12318	1.8409	3.	0.	5315.1
12319	1.7489	3.0909	0.	5352.9
12320	1.8409	3.0909	5.e-002	26.82
12321	1.8409	2.8182	0.	5315.6
12322	1.7489	2.9091	0.	5352.9
12323	1.8409	2.9091	5.e-002	26.82
12324	1.8409	2.6364	0.	5317.5
12325	1.7489	2.7273	0.	5353.3
12326	1.8409	2.7273	5.e-002	26.78
12327	1.8409	2.4545	0.	5321.2
12328	1.7489	2.5455	0.	5354.4
12329	1.8409	2.5455	5.e-002	26.707
12330	1.8409	2.2727	0.	5327.4
12331	1.7489	2.3636	0.	5356.9
12332	1.8409	2.3636	5.e-002	26.608
12333	1.8409	2.0909	0.	5337.2
12334	1.7489	2.1818	0.	5361.7
12335	1.8409	2.1818	5.e-002	26.5
12336	1.8409	1.9091	0.	5352.1
12337	1.7489	2.	0.	5370.2
12338	1.8409	2.	5.e-002	26.403
12339	1.8409	1.7273	0.	5373.6
12340	1.7489	1.8182	0.	5384.
12341	1.8409	1.8182	5.e-002	26.337
12342	1.8409	1.5455	0.	5403.5
12343	1.7489	1.6364	0.	5405.2
12344	1.8409	1.6364	5.e-002	26.321
12345	1.8409	1.3636	0.	5443.6
12346	1.7489	1.4545	0.	5435.7
12347	1.8409	1.4545	5.e-002	26.361
12348	1.8409	1.1818	0.	5495.3
12349	1.7489	1.2727	0.	5477.8
12350	1.8409	1.2727	5.e-002	26.434
12351	1.8409	1.	0.	5559.6
12352	1.7489	1.0909	0.	5533.1
12353	1.8409	1.0909	5.e-002	26.485
12354	1.8409	0.81818	0.	5636.6
12355	1.7489	0.90909	0.	5602.7
12356	1.8409	0.90909	5.e-002	26.414
12357	1.8409	0.63636	0.	5725.5
12358	1.7489	0.72727	0.	5686.4
12359	1.8409	0.72727	5.e-002	26.101
12360	1.8409	0.45455	0.	5825.1
12361	1.7489	0.54545	0.	5783.1
12362	1.8409	0.54545	5.e-002	25.475
12363	1.8409	0.27273	0.	5941.1
12364	1.7489	0.36364	0.	5891.5
12365	1.8409	0.36364	5.e-002	24.907
12366	1.7489	0.18182	0.	6025.2
12367	1.8409	0.18182	5.e-002	43.894
12368	1.8409	9.0909e-002	0.	5997.
12369	1.6568	5.7273	0.	5975.2
12370	1.5648	5.8182	0.	6058.9
12371	1.6568	5.8182	5.e-002	45.937
12372	1.6568	5.9091	0.	6030.8
12373	1.6568	5.5455	0.	5849.1
12374	1.5648	5.6364	0.	5911.5
12375	1.6568	5.6364	5.e-002	27.112
12376	1.6568	5.3636	0.	5743.5
12377	1.5648	5.4545	0.	5795.5
12378	1.6568	5.4545	5.e-002	28.046
12379	1.6568	5.1818	0.	5651.9
12380	1.5648	5.2727	0.	5695.1
12381	1.6568	5.2727	5.e-002	28.683
12382	1.6568	5.	0.	5575.6
12383	1.5648	5.0909	0.	5611.6
12384	1.6568	5.0909	5.e-002	28.883
12385	1.6568	4.8182	0.	5515.
12386	1.5648	4.9091	0.	5546.1
12387	1.6568	4.9091	5.e-002	28.806
12388	1.6568	4.6364	0.	5469.4
12389	1.5648	4.7273	0.	5497.8
12390	1.6568	4.7273	5.e-002	28.637
12391	1.6568	4.4545	0.	5436.9
12392	1.5648	4.5455	0.	5464.7
12393	1.6568	4.5455	5.e-002	28.498
12394	1.6568	4.2727	0.	5415.1
12395	1.5648	4.3636	0.	5444.
12396	1.6568	4.3636	5.e-002	28.447
12397	1.6568	4.0909	0.	5401.7
12398	1.5648	4.1818	0.	5432.6
12399	1.6568	4.1818	5.e-002	28.489
12400	1.6568	3.9091	0.	5394.3
12401	1.5648	4.	0.	5427.8
12402	1.6568	4.	5.e-002	28.599
12403	1.6568	3.7273	0.	5390.9
12404	1.5648	3.8182	0.	5427.2
12405	1.6568	3.8182	5.e-002	28.744
12406	1.6568	3.5455	0.	5389.9
12407	1.5648	3.6364	0.	5428.9
12408	1.6568	3.6364	5.e-002	28.895
12409	1.6568	3.3636	0.	5390.
12410	1.5648	3.4545	0.	5431.3
12411	1.6568	3.4545	5.e-002	29.026
12412	1.6568	3.1818	0.	5390.4
12413	1.5648	3.2727	0.	5433.5
12414	1.6568	3.2727	5.e-002	29.122
12415	1.6568	3.	0.	5390.6
12416	1.5648	3.0909	0.	5434.8
12417	1.6568	3.0909	5.e-002	29.172
12418	1.6568	2.8182	0.	5390.4
12419	1.5648	2.9091	0.	5434.8
12420	1.6568	2.9091	5.e-002	29.172
12421	1.6568	2.6364	0.	5390.
12422	1.5648	2.7273	0.	5433.5
12423	1.6568	2.7273	5.e-002	29.122
12424	1.6568	2.4545	0.	5389.9
12425	1.5648	2.5455	0.	5431.3
12426	1.6568	2.5455	5.e-002	29.026
12427	1.6568	2.2727	0.	5390.9
12428	1.5648	2.3636	0.	5428.9
12429	1.6568	2.3636	5.e-002	28.895
12430	1.6568	2.0909	0.	5394.3
12431	1.5648	2.1818	0.	5427.2
12432	1.6568	2.1818	5.e-002	28.744
12433	1.6568	1.9091	0.	5401.7
12434	1.5648	2.	0.	5427.8
12435	1.6568	2.	5.e-002	28.599
12436	1.6568	1.7273	0.	5415.1
12437	1.5648	1.8182	0.	5432.6
12438	1.6568	1.8182	5.e-002	28.489
12439	1.6568	1.5455	0.	5436.9
12440	1.5648	1.6364	0.	5444.
12441	1.6568	1.6364	5.e-002	28.447
12442	1.6568	1.3636	0.	5469.4
12443	1.5648	1.4545	0.	5464.7
12444	1.6568	1.4545	5.e-002	28.498
12445	1.6568	1.1818	0.	5515.
12446	1.5648	1.2727	0.	5497.8
12447	1.6568	1.2727	5.e-002	28.637
12448	1.6568	1.	0.	5575.6
12449	1.5648	1.0909	0.	5546.1
12450	1.6568	1.0909	5.e-002	28.806
12451	1.6568	0.81818	0.	5651.9
12452	1.5648	0.90909	0.	5611.6
12453	1.6568	0.90909	5.e-002	28.883
12454	1.6568	0.63636	0.	5743.5
12455	1.5648	0.72727	0.	5695.1
12456	1.6568	0.72727	5.e-002	28.683
12457	1.6568	0.45455	0.	5849.1
12458	1.5648	0.54545	0.	5795.5
12459	1.6568	0.54545	5.e-002	28.046
12460	1.6568	0.27273	0.	5975.2
12461	1.5648	0.36364	0.	5911.5
12462	1.6568	0.36364	5.e-002	27.112
12463	1.5648	0.18182	0.	6058.9
12464	1.6568	0.18182	5.e-002	45.937
12465	1.6568	9.0909e-002	0.	6030.8
12466	1.4727	5.7273	0.	5994.5
12467	1.3807	5.8182	0.	6075.5
12468	1.4727	5.8182	5.e-002	47.759
12469	1.4727	5.9091	0.	6049.3
12470	1.4727	5.5455	0.	5857.4
12471	1.3807	5.6364	0.	5912.6
12472	1.4727	5.6364	5.e-002	30.161
12473	1.4727	5.3636	0.	5746.4
12474	1.3807	5.4545	0.	5789.3
12475	1.4727	5.4545	5.e-002	31.484
12476	1.4727	5.1818	0.	5654.
12477	1.3807	5.2727	0.	5686.9
12478	1.4727	5.2727	5.e-002	31.997
12479	1.4727	5.	0.	5581.3
12480	1.3807	5.0909	0.	5607.1
12481	1.4727	5.0909	5.e-002	31.93
12482	1.4727	4.8182	0.	5528.1
12483	1.3807	4.9091	0.	5550.2
12484	1.4727	4.9091	5.e-002	31.586
12485	1.4727	4.6364	0.	5492.5
12486	1.3807	4.7273	0.	5513.8
12487	1.4727	4.7273	5.e-002	31.227
12488	1.4727	4.4545	0.	5471.3
12489	1.3807	4.5455	0.	5494.2
12490	1.4727	4.5455	5.e-002	30.994
12491	1.4727	4.2727	0.	5461.
12492	1.3807	4.3636	0.	5487.2
12493	1.4727	4.3636	5.e-002	30.923
12494	1.4727	4.0909	0.	5458.3
12495	1.3807	4.1818	0.	5488.6
12496	1.4727	4.1818	5.e-002	30.987
12497	1.4727	3.9091	0.	5460.4
12498	1.3807	4.	0.	5495.2
12499	1.4727	4.	5.e-002	31.133
12500	1.4727	3.7273	0.	5464.9
12501	1.3807	3.8182	0.	5504.1
12502	1.4727	3.8182	5.e-002	31.315
12503	1.4727	3.5455	0.	5470.1
12504	1.3807	3.6364	0.	5513.4
12505	1.4727	3.6364	5.e-002	31.493
12506	1.4727	3.3636	0.	5474.7
12507	1.3807	3.4545	0.	5521.5
12508	1.4727	3.4545	5.e-002	31.642
12509	1.4727	3.1818	0.	5477.7
12510	1.3807	3.2727	0.	5527.4
12511	1.4727	3.2727	5.e-002	31.749
12512	1.4727	3.	0.	5478.8
12513	1.3807	3.0909	0.	5530.5
12514	1.4727	3.0909	5.e-002	31.804
12515	1.4727	2.8182	0.	5477.7
12516	1.3807	2.9091	0.	5530.5
12517	1.4727	2.9091	5.e-002	31.804
12518	1.4727	2.6364	0.	5474.7
12519	1.3807	2.7273	0.	5527.4
12520	1.4727	2.7273	5.e-002	31.749
12521	1.4727	2.4545	0.	5470.1
12522	1.3807	2.5455	0.	5521.5
12523	1.4727	2.5455	5.e-002	31.642
12524	1.4727	2.2727	0.	5464.9
12525	1.3807	2.3636	0.	5513.4
12526	1.4727	2.3636	5.e-002	31.493
12527	1.4727	2.0909	0.	5460.4
12528	1.3807	2.1818	0.	5504.1
12529	1.4727	2.1818	5.e-002	31.315
12530	1.4727	1.9091	0.	5458.3
12531	1.3807	2.	0.	5495.2
12532	1.4727	2.	5.e-002	31.133
12533	1.4727	1.7273	0.	5461.
12534	1.3807	1.8182	0.	5488.6
12535	1.4727	1.8182	5.e-002	30.987
12536	1.4727	1.5455	0.	5471.3
12537	1.3807	1.6364	0.	5487.2
12538	1.4727	1.6364	5.e-002	30.923
12539	1.4727	1.3636	0.	5492.5
12540	1.3807	1.4545	0.	5494.2
12541	1.4727	1.4545	5.e-002	30.994
12542	1.4727	1.1818	0.	5528.1
12543	1.3807	1.2727	0.	5513.8
12544	1.4727	1.2727	5.e-002	31.227
12545	1.4727	1.	0.	5581.3
12546	1.3807	1.0909	0.	5550.2
12547	1.4727	1.0909	5.e-002	31.586
12548	1.4727	0.81818	0.	5654.
12549	1.3807	0.90909	0.	5607.1
12550	1.4727	0.90909	5.e-002	31.93
12551	1.4727	0.63636	0.	5746.4
12552	1.3807	0.72727	0.	5686.9
12553	1.4727	0.72727	5.e-002	31.997
12554	1.4727	0.45455	0.	5857.4
12555	1.3807	0.54545	0.	5789.3
12556	1.4727	0.54545	5.e-002	31.484
12557	1.4727	0.27273	0.	5994.5
12558	1.3807	0.36364	0.	5912.6
12559	1.4727	0.36364	5.e-002	30.161
12560	1.3807	0.18182	0.	6075.5
12561	1.4727	0.18182	5.e-002	47.759
12562	1.4727	9.0909e-002	0.	6049.3
12563	1.2886	5.7273	0.	5992.7
12564	1.1966	5.8182	0.	6067.
12565	1.2886	5.8182	5.e-002	49.259
12566	1.2886	5.9091	0.	6045.8
12567	1.2886	5.5455	0.	5843.7
12568	1.1966	5.6364	0.	5886.4
12569	1.2886	5.6364	5.e-002	34.566
12570	1.2886	5.3636	0.	5728.7
12571	1.1966	5.4545	0.	5756.5
12572	1.2886	5.4545	5.e-002	36.186
12573	1.2886	5.1818	0.	5638.9
12574	1.1966	5.2727	0.	5656.
12575	1.2886	5.2727	5.e-002	36.299
12576	1.2886	5.	0.	5574.9
12577	1.1966	5.0909	0.	5586.
12578	1.2886	5.0909	5.e-002	35.701
12579	1.2886	4.8182	0.	5534.9
12580	1.1966	4.9091	0.	5544.6
12581	1.2886	4.9091	5.e-002	34.915
12582	1.2886	4.6364	0.	5514.7
12583	1.1966	4.7273	0.	5526.9
12584	1.2886	4.7273	5.e-002	34.283
12585	1.2886	4.4545	0.	5509.5
12586	1.1966	4.5455	0.	5526.5
12587	1.2886	4.5455	5.e-002	33.928
12588	1.2886	4.2727	0.	5514.4
12589	1.1966	4.3636	0.	5537.6
12590	1.2886	4.3636	5.e-002	33.827
12591	1.2886	4.0909	0.	5525.2
12592	1.1966	4.1818	0.	5555.1
12593	1.2886	4.1818	5.e-002	33.897
12594	1.2886	3.9091	0.	5538.7
12595	1.1966	4.	0.	5575.1
12596	1.2886	4.	5.e-002	34.056
12597	1.2886	3.7273	0.	5552.4
12598	1.1966	3.8182	0.	5595.
12599	1.2886	3.8182	5.e-002	34.242
12600	1.2886	3.5455	0.	5564.6
12601	1.1966	3.6364	0.	5612.6
12602	1.2886	3.6364	5.e-002	34.416
12603	1.2886	3.3636	0.	5574.1
12604	1.1966	3.4545	0.	5626.8
12605	1.2886	3.4545	5.e-002	34.557
12606	1.2886	3.1818	0.	5580.1
12607	1.1966	3.2727	0.	5636.7
12608	1.2886	3.2727	5.e-002	34.654
12609	1.2886	3.	0.	5582.1
12610	1.1966	3.0909	0.	5641.8
12611	1.2886	3.0909	5.e-002	34.703
12612	1.2886	2.8182	0.	5580.1
12613	1.1966	2.9091	0.	5641.8
12614	1.2886	2.9091	5.e-002	34.703
12615	1.2886	2.6364	0.	5574.1
12616	1.1966	2.7273	0.	5636.7
12617	1.2886	2.7273	5.e-002	34.654
12618	1.2886	2.4545	0.	5564.6
12619	1.1966	2.5455	0.	5626.8
12620	1.2886	2.5455	5.e-002	34.557
12621	1.2886	2.2727	0.	5552.4
12622	1.1966	2.3636	0.	5612.6
12623	1.2886	2.3636	5.e-002	34.416
12624	1.2886	2.0909	0.	5538.7
12625	1.1966	2.1818	0.	5595.
12626	1.2886	2.1818	5.e-002	34.242
12627	1.2886	1.9091	0.	5525.2
12628	1.1966	2.	0.	5575.1
12629	1.2886	2.	5.e-002	34.056
12630	1.2886	1.7273	0.	5514.4
12631	1.1966	1.8182	0.	5555.1
12632	1.2886	1.8182	5.e-002	33.897
12633	1.2886	1.5455	0.	5509.5
12634	1.1966	1.6364	0.	5537.6
12635	1.2886	1.6364	5.e-002	33.827
12636	1.2886	1.3636	0.	5514.7
12637	1.1966	1.4545	0.	5526.5
12638	1.2886	1.4545	5.e-002	33.928
12639	1.2886	1.1818	0.	5534.9
12640	1.1966	1.2727	0.	5526.9
12641	1.2886	1.2727	5.e-002	34.283
12642	1.2886	1.	0.	5574.9
12643	1.1966	1.0909	0.	5544.6
12644	1.2886	1.0909	5.e-002	34.915
12645	1.2886	0.81818	0.	5638.9
12646	1.1966	0.90909	0.	5586.
12647	1.2886	0.90909	5.e-002	35.701
12648	1.2886	0.63636	0.	5728.7
12649	1.1966	0.72727	0.	5656.
12650	1.2886	0.72727	5.e-002	36.299
12651	1.2886	0.45455	0.	5843.7
12652	1.1966	0.54545	0.	5756.5
12653	1.2886	0.54545	5.e-002	36.186
12654	1.2886	0.27273	0.	5992.7
12655	1.1966	0.36364	0.	5886.4
12656	1.2886	0.36364	5.e-002	34.566
12657	1.1966	0.18182	0.	6067.
12658	1.2886	0.18182	5.e-002	49.259
12659	1.2886	9.0909e-002	0.	6045.8
12660	1.1045	5.7273	0.	5959.3
12661	1.0125	5.8182	0.	6020.9
12662	1.1045	5.8182	5.e-002	50.459
12663	1.1045	5.9091	0.	6010.2
12664	1.1045	5.5455	0.	5798.
12665	1.0125	5.6364	0.	5820.9
12666	1.1045	5.6364	5.e-002	41.18
12667	1.1045	5.3636	0.	5682.3
12668	1.0125	5.4545	0.	5688.1
12669	1.1045	5.4545	5.e-002	42.725
12670	1.1045	5.1818	0.	5601.4
12671	1.0125	5.2727	0.	5597.4
12672	1.1045	5.2727	5.e-002	41.9
12673	1.1045	5.	0.	5554.2
12674	1.0125	5.0909	0.	5547.8
12675	1.1045	5.0909	5.e-002	40.358
12676	1.1045	4.8182	0.	5535.4
12677	1.0125	4.9091	0.	5532.9
12678	1.1045	4.9091	5.e-002	38.915
12679	1.1045	4.6364	0.	5537.9
12680	1.0125	4.7273	0.	5543.
12681	1.1045	4.7273	5.e-002	37.94
12682	1.1045	4.4545	0.	5554.1
12683	1.0125	4.5455	0.	5568.7
12684	1.1045	4.5455	5.e-002	37.445
12685	1.1045	4.2727	0.	5578.
12686	1.0125	4.3636	0.	5602.5
12687	1.1045	4.3636	5.e-002	37.291
12688	1.1045	4.0909	0.	5604.8
12689	1.0125	4.1818	0.	5638.7
12690	1.1045	4.1818	5.e-002	37.328
12691	1.1045	3.9091	0.	5631.3
12692	1.0125	4.	0.	5673.8
12693	1.1045	4.	5.e-002	37.446
12694	1.1045	3.7273	0.	5655.1
12695	1.0125	3.8182	0.	5705.3
12696	1.1045	3.8182	5.e-002	37.58
12697	1.1045	3.5455	0.	5674.7
12698	1.0125	3.6364	0.	5731.6
12699	1.1045	3.6364	5.e-002	37.699
12700	1.1045	3.3636	0.	5689.3
12701	1.0125	3.4545	0.	5752.
12702	1.1045	3.4545	5.e-002	37.79
12703	1.1045	3.1818	0.	5698.3
12704	1.0125	3.2727	0.	5765.7
12705	1.1045	3.2727	5.e-002	37.849
12706	1.1045	3.	0.	5701.3
12707	1.0125	3.0909	0.	5772.7
12708	1.1045	3.0909	5.e-002	37.879
12709	1.1045	2.8182	0.	5698.3
12710	1.0125	2.9091	0.	5772.7
12711	1.1045	2.9091	5.e-002	37.879
12712	1.1045	2.6364	0.	5689.3
12713	1.0125	2.7273	0.	5765.7
12714	1.1045	2.7273	5.e-002	37.849
12715	1.1045	2.4545	0.	5674.7
12716	1.0125	2.5455	0.	5752.
12717	1.1045	2.5455	5.e-002	37.79
12718	1.1045	2.2727	0.	5655.1
12719	1.0125	2.3636	0.	5731.6
12720	1.1045	2.3636	5.e-002	37.699
12721	1.1045	2.0909	0.	5631.3
12722	1.0125	2.1818	0.	5705.3
12723	1.1045	2.1818	5.e-002	37.58
12724	1.1045	1.9091	0.	5604.8
12725	1.0125	2.	0.	5673.8
12726	1.1045	2.	5.e-002	37.446
12727	1.1045	1.7273	0.	5578.
12728	1.0125	1.8182	0.	5638.7
12729	1.1045	1.8182	5.e-002	37.328
12730	1.1045	1.5455	0.	5554.1
12731	1.0125	1.6364	0.	5602.5
12732	1.1045	1.6364	5.e-002	37.291
12733	1.1045	1.3636	0.	5537.9
12734	1.0125	1.4545	0.	5568.7
12735	1.1045	1.4545	5.e-002	37.445
12736	1.1045	1.1818	0.	5535.4
12737	1.0125	1.2727	0.	5543.
12738	1.1045	1.2727	5.e-002	37.94
12739	1.1045	1.	0.	5554.2
12740	1.0125	1.0909	0.	5532.9
12741	1.1045	1.0909	5.e-002	38.915
12742	1.1045	0.81818	0.	5601.4
12743	1.0125	0.90909	0.	5547.8
12744	1.1045	0.90909	5.e-002	40.358
12745	1.1045	0.63636	0.	5682.3
12746	1.0125	0.72727	0.	5597.4
12747	1.1045	0.72727	5.e-002	41.9
12748	1.1045	0.45455	0.	5798.
12749	1.0125	0.54545	0.	5688.1
12750	1.1045	0.54545	5.e-002	42.725
12751	1.1045	0.27273	0.	5959.3
12752	1.0125	0.36364	0.	5820.9
12753	1.1045	0.36364	5.e-002	41.18
12754	1.0125	0.18182	0.	6020.9
12755	1.1045	0.18182	5.e-002	50.459
12756	1.1045	9.0909e-002	0.	6010.2
12757	0.92045	5.7273	0.	5880.4
12758	0.82841	5.8182	0.	5914.1
12759	0.92045	5.8182	5.e-002	51.71
12760	0.92045	5.9091	0.	5926.7
12761	0.92045	5.5455	0.	5709.
12762	0.82841	5.6364	0.	5692.3
12763	0.92045	5.6364	5.e-002	51.357
12764	0.92045	5.3636	0.	5600.9
12765	0.82841	5.4545	0.	5564.3
12766	0.92045	5.4545	5.e-002	51.886
12767	0.92045	5.1818	0.	5541.6
12768	0.82841	5.2727	0.	5499.2
12769	0.92045	5.2727	5.e-002	49.107
12770	0.92045	5.	0.	5524.9
12771	0.82841	5.0909	0.	5487.9
12772	0.92045	5.0909	5.e-002	46.008
12773	0.92045	4.8182	0.	5539.3
12774	0.82841	4.9091	0.	5514.6
12775	0.92045	4.9091	5.e-002	43.689
12776	0.92045	4.6364	0.	5573.2
12777	0.82841	4.7273	0.	5563.2
12778	0.92045	4.7273	5.e-002	42.318
12779	0.92045	4.4545	0.	5616.7
12780	0.82841	4.5455	0.	5621.4
12781	0.92045	4.5455	5.e-002	41.644
12782	0.92045	4.2727	0.	5663.1
12783	0.82841	4.3636	0.	5681.2
12784	0.92045	4.3636	5.e-002	41.364
12785	0.92045	4.0909	0.	5707.7
12786	0.82841	4.1818	0.	5737.6
12787	0.92045	4.1818	5.e-002	41.268
12788	0.92045	3.9091	0.	5747.8
12789	0.82841	4.	0.	5787.8
12790	0.92045	4.	5.e-002	41.239
12791	0.92045	3.7273	0.	5781.8
12792	0.82841	3.8182	0.	5830.5
12793	0.92045	3.8182	5.e-002	41.226
12794	0.92045	3.5455	0.	5808.8
12795	0.82841	3.6364	0.	5864.9
12796	0.92045	3.6364	5.e-002	41.211
12797	0.92045	3.3636	0.	5828.3
12798	0.82841	3.4545	0.	5890.8
12799	0.92045	3.4545	5.e-002	41.193
12800	0.92045	3.1818	0.	5840.1
12801	0.82841	3.2727	0.	5908.
12802	0.92045	3.2727	5.e-002	41.177
12803	0.92045	3.	0.	5844.
12804	0.82841	3.0909	0.	5916.6
12805	0.92045	3.0909	5.e-002	41.168
12806	0.92045	2.8182	0.	5840.1
12807	0.82841	2.9091	0.	5916.6
12808	0.92045	2.9091	5.e-002	41.168
12809	0.92045	2.6364	0.	5828.3
12810	0.82841	2.7273	0.	5908.
12811	0.92045	2.7273	5.e-002	41.177
12812	0.92045	2.4545	0.	5808.8
12813	0.82841	2.5455	0.	5890.8
12814	0.92045	2.5455	5.e-002	41.193
12815	0.92045	2.2727	0.	5781.8
12816	0.82841	2.3636	0.	5864.9
12817	0.92045	2.3636	5.e-002	41.211
12818	0.92045	2.0909	0.	5747.8
12819	0.82841	2.1818	0.	5830.5
12820	0.92045	2.1818	5.e-002	41.226
12821	0.92045	1.9091	0.	5707.7
12822	0.82841	2.	0.	5787.8
12823	0.92045	2.	5.e-002	41.239
12824	0.92045	1.7273	0.	5663.1
12825	0.82841	1.8182	0.	5737.6
12826	0.92045	1.8182	5.e-002	41.268
12827	0.92045	1.5455	0.	5616.7
12828	0.82841	1.6364	0.	5681.2
12829	0.92045	1.6364	5.e-002	41.364
12830	0.92045	1.3636	0.	5573.2
12831	0.82841	1.4545	0.	5621.4
12832	0.92045	1.4545	5.e-002	41.644
12833	0.92045	1.1818	0.	5539.3
12834	0.82841	1.2727	0.	5563.2
12835	0.92045	1.2727	5.e-002	42.318
12836	0.92045	1.	0.	5524.9
12837	0.82841	1.0909	0.	5514.6
12838	0.92045	1.0909	5.e-002	43.689
12839	0.92045	0.81818	0.	5541.6
12840	0.82841	0.90909	0.	5487.9
12841	0.92045	0.90909	5.e-002	46.008
12842	0.92045	0.63636	0.	5600.9
12843	0.82841	0.72727	0.	5499.2
12844	0.92045	0.72727	5.e-002	49.107
12845	0.92045	0.45455	0.	5709.
12846	0.82841	0.54545	0.	5564.3
12847	0.92045	0.54545	5.e-002	51.886
12848	0.92045	0.27273	0.	5880.4
12849	0.82841	0.36364	0.	5692.3
12850	0.92045	0.36364	5.e-002	51.357
12851	0.82841	0.18182	0.	5914.1
12852	0.92045	0.18182	5.e-002	51.71
12853	0.92045	9.0909e-002	0.	5926.7
12854	0.73636	5.7273	0.	5722.6
12855	0.64432	5.8182	0.	5711.9
12856	0.73636	5.8182	5.e-002	55.729
12857	0.73636	5.9091	0.	5765.4
12858	0.73636	5.5455	0.	5544.1
12859	0.64432	5.6364	0.	5481.1
12860	0.73636	5.6364	5.e-002	67.471
12861	0.73636	5.3636	0.	5458.9
12862	0.64432	5.4545	0.	5387.7
12863	0.73636	5.4545	5.e-002	64.585
12864	0.73636	5.1818	0.	5442.6
12865	0.64432	5.2727	0.	5385.5
12866	0.73636	5.2727	5.e-002	58.179
12867	0.73636	5.	0.	5475.9
12868	0.64432	5.0909	0.	5444.4
12869	0.73636	5.0909	5.e-002	52.975
12870	0.73636	4.8182	0.	5537.6
12871	0.64432	4.9091	0.	5533.6
12872	0.73636	4.9091	5.e-002	49.766
12873	0.73636	4.6364	0.	5611.
12874	0.64432	4.7273	0.	5632.
12875	0.73636	4.7273	5.e-002	48.036
12876	0.73636	4.4545	0.	5685.7
12877	0.64432	4.5455	0.	5727.7
12878	0.73636	4.5455	5.e-002	47.118
12879	0.73636	4.2727	0.	5755.7
12880	0.64432	4.3636	0.	5814.8
12881	0.73636	4.3636	5.e-002	46.574
12882	0.73636	4.0909	0.	5817.7
12883	0.64432	4.1818	0.	5890.8
12884	0.73636	4.1818	5.e-002	46.186
12885	0.73636	3.9091	0.	5870.5
12886	0.64432	4.	0.	5954.9
12887	0.73636	4.	5.e-002	45.865
12888	0.73636	3.7273	0.	5913.6
12889	0.64432	3.8182	0.	6007.3
12890	0.73636	3.8182	5.e-002	45.586
12891	0.73636	3.5455	0.	5946.8
12892	0.64432	3.6364	0.	6048.4
12893	0.73636	3.6364	5.e-002	45.348
12894	0.73636	3.3636	0.	5970.4
12895	0.64432	3.4545	0.	6078.6
12896	0.73636	3.4545	5.e-002	45.159
12897	0.73636	3.1818	0.	5984.4
12898	0.64432	3.2727	0.	6098.6
12899	0.73636	3.2727	5.e-002	45.028
12900	0.73636	3.	0.	5989.1
12901	0.64432	3.0909	0.	6108.4
12902	0.73636	3.0909	5.e-002	44.96
12903	0.73636	2.8182	0.	5984.4
12904	0.64432	2.9091	0.	6108.4
12905	0.73636	2.9091	5.e-002	44.96
12906	0.73636	2.6364	0.	5970.4
12907	0.64432	2.7273	0.	6098.6
12908	0.73636	2.7273	5.e-002	45.028
12909	0.73636	2.4545	0.	5946.8
12910	0.64432	2.5455	0.	6078.6
12911	0.73636	2.5455	5.e-002	45.159
12912	0.73636	2.2727	0.	5913.6
12913	0.64432	2.3636	0.	6048.4
12914	0.73636	2.3636	5.e-002	45.348
12915	0.73636	2.0909	0.	5870.5
12916	0.64432	2.1818	0.	6007.3
12917	0.73636	2.1818	5.e-002	45.586
12918	0.73636	1.9091	0.	5817.7
12919	0.64432	2.	0.	5954.9
12920	0.73636	2.	5.e-002	45.865
12921	0.73636	1.7273	0.	5755.7
12922	0.64432	1.8182	0.	5890.8
12923	0.73636	1.8182	5.e-002	46.186
12924	0.73636	1.5455	0.	5685.7
12925	0.64432	1.6364	0.	5814.8
12926	0.73636	1.6364	5.e-002	46.574
12927	0.73636	1.3636	0.	5611.
12928	0.64432	1.4545	0.	5727.7
12929	0.73636	1.4545	5.e-002	47.118
12930	0.73636	1.1818	0.	5537.6
12931	0.64432	1.2727	0.	5632.
12932	0.73636	1.2727	5.e-002	48.036
12933	0.73636	1.	0.	5475.9
12934	0.64432	1.0909	0.	5533.6
12935	0.73636	1.0909	5.e-002	49.766
12936	0.73636	0.81818	0.	5442.6
12937	0.64432	0.90909	0.	5444.4
12938	0.73636	0.90909	5.e-002	52.975
12939	0.73636	0.63636	0.	5458.9
12940	0.64432	0.72727	0.	5385.5
12941	0.73636	0.72727	5.e-002	58.179
12942	0.73636	0.45455	0.	5544.1
12943	0.64432	0.54545	0.	5387.7
12944	0.73636	0.54545	5.e-002	64.585
12945	0.73636	0.27273	0.	5722.6
12946	0.64432	0.36364	0.	5481.1
12947	0.73636	0.36364	5.e-002	67.471
12948	0.64432	0.18182	0.	5711.9
12949	0.73636	0.18182	5.e-002	55.729
12950	0.73636	9.0909e-002	0.	5765.4
12951	0.55227	5.7273	0.	5463.4
12952	0.46023	5.8182	0.	5310.1
12953	0.55227	5.8182	5.e-002	69.715
12954	0.55227	5.9091	0.	5479.8
12955	0.55227	5.5455	0.	5318.6
12956	0.46023	5.6364	0.	5071.
12957	0.55227	5.6364	5.e-002	93.526
12958	0.55227	5.3636	0.	5309.9
12959	0.46023	5.4545	0.	5066.3
12960	0.55227	5.4545	5.e-002	81.402
12961	0.55227	5.1818	0.	5385.4
12962	0.46023	5.2727	0.	5182.4
12963	0.55227	5.2727	5.e-002	68.826
12964	0.55227	5.	0.	5501.9
12965	0.46023	5.0909	0.	5341.7
12966	0.55227	5.0909	5.e-002	61.06
12967	0.55227	4.8182	0.	5628.6
12968	0.46023	4.9091	0.	5503.7
12969	0.55227	4.9091	5.e-002	56.75
12970	0.55227	4.6364	0.	5749.5
12971	0.46023	4.7273	0.	5651.4
12972	0.55227	4.7273	5.e-002	54.299
12973	0.55227	4.4545	0.	5857.6
12974	0.46023	4.5455	0.	5779.5
12975	0.55227	4.5455	5.e-002	52.679
12976	0.55227	4.2727	0.	5950.6
12977	0.46023	4.3636	0.	5887.6
12978	0.55227	4.3636	5.e-002	51.443
12979	0.55227	4.0909	0.	6028.4
12980	0.46023	4.1818	0.	5977.
12981	0.55227	4.1818	5.e-002	50.418
12982	0.55227	3.9091	0.	6092.
12983	0.46023	4.	0.	6049.7
12984	0.55227	4.	5.e-002	49.547
12985	0.55227	3.7273	0.	6142.4
12986	0.46023	3.8182	0.	6107.4
12987	0.55227	3.8182	5.e-002	48.817
12988	0.55227	3.5455	0.	6180.4
12989	0.46023	3.6364	0.	6151.8
12990	0.55227	3.6364	5.e-002	48.227
12991	0.55227	3.3636	0.	6206.9
12992	0.46023	3.4545	0.	6184.
12993	0.55227	3.4545	5.e-002	47.78
12994	0.55227	3.1818	0.	6222.6
12995	0.46023	3.2727	0.	6205.
12996	0.55227	3.2727	5.e-002	47.481
12997	0.55227	3.	0.	6227.8
12998	0.46023	3.0909	0.	6215.4
12999	0.55227	3.0909	5.e-002	47.331
13000	0.55227	2.8182	0.	6222.6
13001	0.46023	2.9091	0.	6215.4
13002	0.55227	2.9091	5.e-002	47.331
13003	0.55227	2.6364	0.	6206.9
13004	0.46023	2.7273	0.	6205.
13005	0.55227	2.7273	5.e-002	47.481
13006	0.55227	2.4545	0.	6180.4
13007	0.46023	2.5455	0.	6184.
13008	0.55227	2.5455	5.e-002	47.78
13009	0.55227	2.2727	0.	6142.4
13010	0.46023	2.3636	0.	6151.8
13011	0.55227	2.3636	5.e-002	48.227
13012	0.55227	2.0909	0.	6092.
13013	0.46023	2.1818	0.	6107.4
13014	0.55227	2.1818	5.e-002	48.817
13015	0.55227	1.9091	0.	6028.4
13016	0.46023	2.	0.	6049.7
13017	0.55227	2.	5.e-002	49.547
13018	0.55227	1.7273	0.	5950.6
13019	0.46023	1.8182	0.	5977.
13020	0.55227	1.8182	5.e-002	50.418
13021	0.55227	1.5455	0.	5857.6
13022	0.46023	1.6364	0.	5887.6
13023	0.55227	1.6364	5.e-002	51.443
13024	0.55227	1.3636	0.	5749.5
13025	0.46023	1.4545	0.	5779.5
13026	0.55227	1.4545	5.e-002	52.679
13027	0.55227	1.1818	0.	5628.6
13028	0.46023	1.2727	0.	5651.4
13029	0.55227	1.2727	5.e-002	54.299
13030	0.55227	1.	0.	5501.9
13031	0.46023	1.0909	0.	5503.7
13032	0.55227	1.0909	5.e-002	56.75
13033	0.55227	0.81818	0.	5385.4
13034	0.46023	0.90909	0.	5341.7
13035	0.55227	0.90909	5.e-002	61.06
13036	0.55227	0.63636	0.	5309.9
13037	0.46023	0.72727	0.	5182.4
13038	0.55227	0.72727	5.e-002	68.826
13039	0.55227	0.45455	0.	5318.6
13040	0.46023	0.54545	0.	5066.3
13041	0.55227	0.54545	5.e-002	81.402
13042	0.55227	0.27273	0.	5463.4
13043	0.46023	0.36364	0.	5071.
13044	0.55227	0.36364	5.e-002	93.526
13045	0.46023	0.18182	0.	5310.1
13046	0.55227	0.18182	5.e-002	69.715
13047	0.55227	9.0909e-002	0.	5479.8
13048	0.36818	5.7273	0.	4902.8
13049	0.27614	5.8182	0.	4547.5
13050	0.36818	5.8182	5.e-002	121.88
13051	0.36818	5.9091	0.	4936.
13052	0.36818	5.5455	0.	4805.5
13053	0.27614	5.6364	0.	4651.6
13054	0.36818	5.6364	5.e-002	135.39
13055	0.36818	5.3636	0.	4931.9
13056	0.27614	5.4545	0.	5012.3
13057	0.36818	5.4545	5.e-002	103.09
13058	0.36818	5.1818	0.	5136.7
13059	0.27614	5.2727	0.	5374.2
13060	0.36818	5.2727	5.e-002	84.842
13061	0.36818	5.	0.	5343.5
13062	0.27614	5.0909	0.	5681.3
13063	0.36818	5.0909	5.e-002	75.465
13064	0.36818	4.8182	0.	5527.1
13065	0.27614	4.9091	0.	5929.9
13066	0.36818	4.9091	5.e-002	70.471
13067	0.36818	4.6364	0.	5682.1
13068	0.27614	4.7273	0.	6128.5
13069	0.36818	4.7273	5.e-002	67.091
13070	0.36818	4.4545	0.	5810.1
13071	0.27614	4.5455	0.	6287.
13072	0.36818	4.5455	5.e-002	64.468
13073	0.36818	4.2727	0.	5914.5
13074	0.27614	4.3636	0.	6413.3
13075	0.36818	4.3636	5.e-002	62.302
13076	0.36818	4.0909	0.	5998.6
13077	0.27614	4.1818	0.	6513.7
13078	0.36818	4.1818	5.e-002	60.488
13079	0.36818	3.9091	0.	6065.4
13080	0.27614	4.	0.	6593.
13081	0.36818	4.	5.e-002	58.98
13082	0.36818	3.7273	0.	6117.2
13083	0.27614	3.8182	0.	6654.7
13084	0.36818	3.8182	5.e-002	57.752
13085	0.36818	3.5455	0.	6155.8
13086	0.27614	3.6364	0.	6701.3
13087	0.36818	3.6364	5.e-002	56.787
13088	0.36818	3.3636	0.	6182.4
13089	0.27614	3.4545	0.	6734.8
13090	0.36818	3.4545	5.e-002	56.074
13091	0.36818	3.1818	0.	6198.1
13092	0.27614	3.2727	0.	6756.5
13093	0.36818	3.2727	5.e-002	55.604
13094	0.36818	3.	0.	6203.2
13095	0.27614	3.0909	0.	6767.1
13096	0.36818	3.0909	5.e-002	55.37
13097	0.36818	2.8182	0.	6198.1
13098	0.27614	2.9091	0.	6767.1
13099	0.36818	2.9091	5.e-002	55.37
13100	0.36818	2.6364	0.	6182.4
13101	0.27614	2.7273	0.	6756.5
13102	0.36818	2.7273	5.e-002	55.604
13103	0.36818	2.4545	0.	6155.8
13104	0.27614	2.5455	0.	6734.8
13105	0.36818	2.5455	5.e-002	56.074
13106	0.36818	2.2727	0.	6117.2
13107	0.27614	2.3636	0.	6701.3
13108	0.36818	2.3636	5.e-002	56.787
13109	0.36818	2.0909	0.	6065.4
13110	0.27614	2.1818	0.	6654.7
13111	0.36818	2.1818	5.e-002	57.752
13112	0.36818	1.9091	0.	5998.6
13113	0.27614	2.	0.	6593.
13114	0.36818	2.	5.e-002	58.98
13115	0.36818	1.7273	0.	5914.5
13116	0.27614	1.8182	0.	6513.7
13117	0.36818	1.8182	5.e-002	60.488
13118	0.36818	1.5455	0.	5810.1
13119	0.27614	1.6364	0.	6413.3
13120	0.36818	1.6364	5.e-002	62.302
13121	0.36818	1.3636	0.	5682.1
13122	0.27614	1.4545	0.	6287.
13123	0.36818	1.4545	5.e-002	64.468
13124	0.36818	1.1818	0.	5527.1
13125	0.27614	1.2727	0.	6128.5
13126	0.36818	1.2727	5.e-002	67.091
13127	0.36818	1.	0.	5343.5
13128	0.27614	1.0909	0.	5929.9
13129	0.36818	1.0909	5.e-002	70.471
13130	0.36818	0.81818	0.	5136.7
13131	0.27614	0.90909	0.	5681.3
13132	0.36818	0.90909	5.e-002	75.465
13133	0.36818	0.63636	0.	4931.9
13134	0.27614	0.72727	0.	5374.2
13135	0.36818	0.72727	5.e-002	84.842
13136	0.36818	0.45455	0.	4805.5
13137	0.27614	0.54545	0.	5012.3
13138	0.36818	0.54545	5.e-002	103.09
13139	0.36818	0.27273	0.	4902.8
13140	0.27614	0.36364	0.	4651.6
13141	0.36818	0.36364	5.e-002	135.39
13142	0.27614	0.18182	0.	4547.5
13143	0.36818	0.18182	5.e-002	121.88
13144	0.36818	9.0909e-002	0.	4936.
13145	0.18409	5.7273	0.	4262.6
13146	0.18409	5.8182	5.e-002	294.58
13147	0.18409	5.9091	0.	3852.4
13148	9.2045e-002	5.8182	0.	2714.3
13149	0.18409	5.5455	0.	4884.1
13150	0.18409	5.6364	5.e-002	187.74
13151	9.2045e-002	5.6364	0.	3413.5
13152	0.18409	5.3636	0.	5485.
13153	0.18409	5.4545	5.e-002	127.45
13154	9.2045e-002	5.4545	0.	3994.5
13155	0.18409	5.1818	0.	5942.2
13156	0.18409	5.2727	5.e-002	97.573
13157	9.2045e-002	5.2727	0.	4410.7
13158	0.18409	5.	0.	6284.8
13159	0.18409	5.0909	5.e-002	82.062
13160	9.2045e-002	5.0909	0.	4709.8
13161	0.18409	4.8182	0.	6544.6
13162	0.18409	4.9091	5.e-002	71.468
13163	9.2045e-002	4.9091	0.	4931.1
13164	0.18409	4.6364	0.	6744.2
13165	0.18409	4.7273	5.e-002	63.737
13166	9.2045e-002	4.7273	0.	5098.5
13167	0.18409	4.4545	0.	6899.4
13168	0.18409	4.5455	5.e-002	57.833
13169	9.2045e-002	4.5455	0.	5227.2
13170	0.18409	4.2727	0.	7020.8
13171	0.18409	4.3636	5.e-002	53.224
13172	9.2045e-002	4.3636	0.	5327.3
13173	0.18409	4.0909	0.	7115.8
13174	0.18409	4.1818	5.e-002	49.592
13175	9.2045e-002	4.1818	0.	5405.4
13176	0.18409	3.9091	0.	7189.6
13177	0.18409	4.	5.e-002	46.731
13178	9.2045e-002	4.	0.	5466.3
13179	0.18409	3.7273	0.	7245.9
13180	0.18409	3.8182	5.e-002	44.505
13181	9.2045e-002	3.8182	0.	5513.2
13182	0.18409	3.5455	0.	7287.4
13183	0.18409	3.6364	5.e-002	42.817
13184	9.2045e-002	3.6364	0.	5548.4
13185	0.18409	3.3636	0.	7315.8
13186	0.18409	3.4545	5.e-002	41.601
13187	9.2045e-002	3.4545	0.	5573.5
13188	0.18409	3.1818	0.	7332.4
13189	0.18409	3.2727	5.e-002	40.813
13190	9.2045e-002	3.2727	0.	5589.7
13191	0.18409	3.	0.	7337.9
13192	0.18409	3.0909	5.e-002	40.426
13193	9.2045e-002	3.0909	0.	5597.6
13194	0.18409	2.8182	0.	7332.4
13195	0.18409	2.9091	5.e-002	40.426
13196	9.2045e-002	2.9091	0.	5597.6
13197	0.18409	2.6364	0.	7315.8
13198	0.18409	2.7273	5.e-002	40.813
13199	9.2045e-002	2.7273	0.	5589.7
13200	0.18409	2.4545	0.	7287.4
13201	0.18409	2.5455	5.e-002	41.601
13202	9.2045e-002	2.5455	0.	5573.5
13203	0.18409	2.2727	0.	7245.9
13204	0.18409	2.3636	5.e-002	42.817
13205	9.2045e-002	2.3636	0.	5548.4
13206	0.18409	2.0909	0.	7189.6
13207	0.18409	2.1818	5.e-002	44.505
13208	9.2045e-002	2.1818	0.	5513.2
13209	0.18409	1.9091	0.	7115.8
13210	0.18409	2.	5.e-002	46.731
13211	9.2045e-002	2.	0.	5466.3
13212	0.18409	1.7273	0.	7020.8
13213	0.18409	1.8182	5.e-002	49.592
13214	9.2045e-002	1.8182	0.	5405.4
13215	0.18409	1.5455	0.	6899.4
13216	0.18409	1.6364	5.e-002	53.224
13217	9.2045e-002	1.6364	0.	5327.3
13218	0.18409	1.3636	0.	6744.2
13219	0.18409	1.4545	5.e-002	57.833
13220	9.2045e-002	1.4545	0.	5227.2
13221	0.18409	1.1818	0.	6544.6
13222	0.18409	1.2727	5.e-002	63.737
13223	9.2045e-002	1.2727	0.	5098.5
13224	0.18409	1.	0.	6284.8
13225	0.18409	1.0909	5.e-002	71.468
13226	9.2045e-002	1.0909	0.	4931.1
13227	0.18409	0.81818	0.	5942.2
13228	0.18409	0.90909	5.e-002	82.062
13229	9.2045e-002	0.90909	0.	4709.8
13230	0.18409	0.63636	0.	5485.
13231	0.18409	0.72727	5.e-002	97.573
13232	9.2045e-002	0.72727	0.	4410.7
13233	0.18409	0.45455	0.	4884.1
13234	0.18409	0.54545	5.e-002	127.45
13235	9.2045e-002	0.54545	0.	3994.5
13236	0.18409	0.27273	0.	4262.6
13237	0.18409	0.36364	5.e-002	187.74
13238	9.2045e-002	0.36364	0.	3413.5
13239	0.18409	0.18182	5.e-002	294.58
13240	0.18409	9.0909e-002	0.	3852.4
13241	9.2045e-002	0.18182	0.	2714.3
13242	8.5411	5.8182	0.	889.5
13243	8.4496	5.7273	0.	890.1
13244	8.4496	5.8182	5.e-002	95.758
13245	8.4496	5.9091	0.	567.58
13246	8.3581	5.8182	0.	507.84
13247	8.724	5.8182	0.	1271.7
13248	8.6326	5.7273	0.	1168.5
13249	8.6326	5.8182	5.e-002	84.573
13250	8.6326	5.9091	0.	988.52
13251	8.907	5.8182	0.	1630.9
13252	8.8155	5.7273	0.	1522.
13253	8.8155	5.8182	5.e-002	77.889
13254	8.8155	5.9091	0.	1382.9
13255	9.0899	5.8182	0.	1943.
13256	8.9985	5.7273	0.	1849.1
13257	8.9985	5.8182	5.e-002	69.879
13258	8.9985	5.9091	0.	1730.1
13259	9.2729	5.8182	0.	2205.1
13260	9.1814	5.7273	0.	2130.4
13261	9.1814	5.8182	5.e-002	61.037
13262	9.1814	5.9091	0.	2026.3
13263	9.4558	5.8182	0.	2419.1
13264	9.3643	5.7273	0.	2362.9
13265	9.3643	5.8182	5.e-002	52.034
13266	9.3643	5.9091	0.	2272.4
13267	9.6388	5.8182	0.	2589.1
13268	9.5473	5.7273	0.	2549.
13269	9.5473	5.8182	5.e-002	43.403
13270	9.5473	5.9091	0.	2471.4
13271	9.8217	5.8182	0.	2720.2
13272	9.7302	5.7273	0.	2693.3
13273	9.7302	5.8182	5.e-002	35.502
13274	9.7302	5.9091	0.	2627.9
13275	10.005	5.8182	0.	2817.6
13276	9.9132	5.7273	0.	2801.4
13277	9.9132	5.8182	5.e-002	28.518
13278	9.9132	5.9091	0.	2747.3
13279	10.188	5.8182	0.	2886.8
13280	10.096	5.7273	0.	2879.
13281	10.096	5.8182	5.e-002	22.505
13282	10.096	5.9091	0.	2834.8
13283	10.371	5.8182	0.	2932.3
13284	10.279	5.7273	0.	2931.1
13285	10.279	5.8182	5.e-002	17.438
13286	10.279	5.9091	0.	2895.6
13287	10.553	5.8182	0.	2958.6
13288	10.462	5.7273	0.	2962.4
13289	10.462	5.8182	5.e-002	13.24
13290	10.462	5.9091	0.	2934.4
13291	10.736	5.8182	0.	2969.1
13292	10.645	5.7273	0.	2976.9
13293	10.645	5.8182	5.e-002	9.8124
13294	10.645	5.9091	0.	2955.2
13295	10.919	5.8182	0.	2967.
13296	10.828	5.7273	0.	2977.7
13297	10.828	5.8182	5.e-002	7.0511
13298	10.828	5.9091	0.	2961.3
13299	11.102	5.8182	0.	2954.8
13300	11.011	5.7273	0.	2967.8
13301	11.011	5.8182	5.e-002	4.8559
13302	11.011	5.9091	0.	2955.6
13303	11.285	5.8182	0.	2934.6
13304	11.194	5.7273	0.	2949.3
13305	11.194	5.8182	5.e-002	3.1382
13306	11.194	5.9091	0.	2940.5
13307	11.468	5.8182	0.	2908.
13308	11.377	5.7273	0.	2924.
13309	11.377	5.8182	5.e-002	1.8297
13310	11.377	5.9091	0.	2918.
13311	11.651	5.8182	0.	2876.4
13312	11.56	5.7273	0.	2893.4
13313	11.56	5.8182	5.e-002	0.91595
13314	11.56	5.9091	0.	2889.6
13315	11.834	5.8182	0.	2840.9
13316	11.743	5.7273	0.	2858.6
13317	11.743	5.8182	5.e-002	0.60471
13318	11.743	5.9091	0.	2856.5
13319	12.017	5.8182	0.	2802.4
13320	11.926	5.7273	0.	2820.7
13321	11.926	5.8182	5.e-002	0.89196
13322	11.926	5.9091	0.	2819.8
13323	12.2	5.8182	0.	2761.6
13324	12.109	5.7273	0.	2780.3
13325	12.109	5.8182	5.e-002	1.228
13326	12.109	5.9091	0.	2780.4
13327	12.383	5.8182	0.	2719.
13328	12.291	5.7273	0.	2738.1
13329	12.291	5.8182	5.e-002	1.4797
13330	12.291	5.9091	0.	2738.8
13331	12.566	5.8182	0.	2675.2
13332	12.474	5.7273	0.	2694.5
13333	12.474	5.8182	5.e-002	1.6455
13334	12.474	5.9091	0.	2695.5
13335	12.749	5.8182	0.	2630.3
13336	12.657	5.7273	0.	2649.8
13337	12.657	5.8182	5.e-002	1.7393
13338	12.657	5.9091	0.	2651.
13339	12.932	5.8182	0.	2584.7
13340	12.84	5.7273	0.	2604.3
13341	12.84	5.8182	5.e-002	1.7763
13342	12.84	5.9091	0.	2605.7
13343	13.115	5.8182	0.	2538.6
13344	13.023	5.7273	0.	2558.4
13345	13.023	5.8182	5.e-002	1.7697
13346	13.023	5.9091	0.	2559.6
13347	13.298	5.8182	0.	2492.2
13348	13.206	5.7273	0.	2512.
13349	13.206	5.8182	5.e-002	1.7306
13350	13.206	5.9091	0.	2513.2
13351	13.481	5.8182	0.	2445.6
13352	13.389	5.7273	0.	2465.5
13353	13.389	5.8182	5.e-002	1.668
13354	13.389	5.9091	0.	2466.4
13355	13.664	5.8182	0.	2398.9
13356	13.572	5.7273	0.	2418.8
13357	13.572	5.8182	5.e-002	1.5885
13358	13.572	5.9091	0.	2419.4
13359	13.847	5.8182	0.	2352.1
13360	13.755	5.7273	0.	2372.
13361	13.755	5.8182	5.e-002	1.4981
13362	13.755	5.9091	0.	2372.4
13363	14.029	5.8182	0.	2305.4
13364	13.938	5.7273	0.	2325.3
13365	13.938	5.8182	5.e-002	1.4011
13366	13.938	5.9091	0.	2325.3
13367	14.212	5.8182	0.	2258.7
13368	14.121	5.7273	0.	2278.6
13369	14.121	5.8182	5.e-002	1.301
13370	14.121	5.9091	0.	2278.3
13371	14.395	5.8182	0.	2212.2
13372	14.304	5.7273	0.	2232.
13373	14.304	5.8182	5.e-002	1.2002
13374	14.304	5.9091	0.	2231.3
13375	14.578	5.8182	0.	2165.7
13376	14.487	5.7273	0.	2185.6
13377	14.487	5.8182	5.e-002	1.1007
13378	14.487	5.9091	0.	2184.5
13379	14.761	5.8182	0.	2119.4
13380	14.67	5.7273	0.	2139.3
13381	14.67	5.8182	5.e-002	1.0042
13382	14.67	5.9091	0.	2137.8
13383	14.944	5.8182	0.	2073.3
13384	14.853	5.7273	0.	2093.1
13385	14.853	5.8182	5.e-002	0.91165
13386	14.853	5.9091	0.	2091.3
13387	15.127	5.8182	0.	2027.4
13388	15.036	5.7273	0.	2047.1
13389	15.036	5.8182	5.e-002	0.8238
13390	15.036	5.9091	0.	2045.
13391	15.31	5.8182	0.	1981.6
13392	15.219	5.7273	0.	2001.4
13393	15.219	5.8182	5.e-002	0.7413
13394	15.219	5.9091	0.	1998.8
13395	15.493	5.8182	0.	1936.1
13396	15.402	5.7273	0.	1955.7
13397	15.402	5.8182	5.e-002	0.66475
13398	15.402	5.9091	0.	1952.9
13399	15.676	5.8182	0.	1890.7
13400	15.584	5.7273	0.	1910.3
13401	15.584	5.8182	5.e-002	0.59443
13402	15.584	5.9091	0.	1907.1
13403	15.859	5.8182	0.	1845.6
13404	15.767	5.7273	0.	1865.1
13405	15.767	5.8182	5.e-002	0.5305
13406	15.767	5.9091	0.	1861.6
13407	16.042	5.8182	0.	1800.6
13408	15.95	5.7273	0.	1820.1
13409	15.95	5.8182	5.e-002	0.47336
13410	15.95	5.9091	0.	1816.2
13411	16.225	5.8182	0.	1755.8
13412	16.133	5.7273	0.	1775.2
13413	16.133	5.8182	5.e-002	0.42353
13414	16.133	5.9091	0.	1771.
13415	16.408	5.8182	0.	1711.3
13416	16.316	5.7273	0.	1730.6
13417	16.316	5.8182	5.e-002	0.38134
13418	16.316	5.9091	0.	1726.1
13419	16.591	5.8182	0.	1666.9
13420	16.499	5.7273	0.	1686.1
13421	16.499	5.8182	5.e-002	0.34715
13422	16.499	5.9091	0.	1681.4
13423	16.774	5.8182	0.	1622.7
13424	16.682	5.7273	0.	1641.9
13425	16.682	5.8182	5.e-002	0.32155
13426	16.682	5.9091	0.	1636.8
13427	16.957	5.8182	0.	1578.8
13428	16.865	5.7273	0.	1597.8
13429	16.865	5.8182	5.e-002	0.3049
13430	16.865	5.9091	0.	1592.5
13431	17.14	5.8182	0.	1535.
13432	17.048	5.7273	0.	1554.
13433	17.048	5.8182	5.e-002	0.29702
13434	17.048	5.9091	0.	1548.4
13435	17.322	5.8182	0.	1491.4
13436	17.231	5.7273	0.	1510.3
13437	17.231	5.8182	5.e-002	0.29741
13438	17.231	5.9091	0.	1504.4
13439	17.505	5.8182	0.	1448.
13440	17.414	5.7273	0.	1466.9
13441	17.414	5.8182	5.e-002	0.30537
13442	17.414	5.9091	0.	1460.7
13443	17.688	5.8182	0.	1404.9
13444	17.597	5.7273	0.	1423.6
13445	17.597	5.8182	5.e-002	0.31995
13446	17.597	5.9091	0.	1417.2
13447	17.871	5.8182	0.	1361.9
13448	17.78	5.7273	0.	1380.5
13449	17.78	5.8182	5.e-002	0.34011
13450	17.78	5.9091	0.	1373.9
13451	18.054	5.8182	0.	1319.1
13452	17.963	5.7273	0.	1337.7
13453	17.963	5.8182	5.e-002	0.3651
13454	17.963	5.9091	0.	1330.7
13455	18.237	5.8182	0.	1276.5
13456	18.146	5.7273	0.	1295.
13457	18.146	5.8182	5.e-002	0.39451
13458	18.146	5.9091	0.	1287.8
13459	18.42	5.8182	0.	1234.1
13460	18.329	5.7273	0.	1252.5
13461	18.329	5.8182	5.e-002	0.42813
13462	18.329	5.9091	0.	1245.
13463	18.603	5.8182	0.	1191.8
13464	18.512	5.7273	0.	1210.2
13465	18.512	5.8182	5.e-002	0.46584
13466	18.512	5.9091	0.	1202.4
13467	18.786	5.8182	0.	1149.8
13468	18.695	5.7273	0.	1168.
13469	18.695	5.8182	5.e-002	0.50775
13470	18.695	5.9091	0.	1160.1
13471	18.969	5.8182	0.	1107.9
13472	18.878	5.7273	0.	1126.1
13473	18.878	5.8182	5.e-002	0.55416
13474	18.878	5.9091	0.	1117.9
13475	19.152	5.8182	0.	1066.2
13476	19.06	5.7273	0.	1084.3
13477	19.06	5.8182	5.e-002	0.60542
13478	19.06	5.9091	0.	1075.8
13479	19.335	5.8182	0.	1024.7
13480	19.243	5.7273	0.	1042.8
13481	19.243	5.8182	5.e-002	0.66186
13482	19.243	5.9091	0.	1034.
13483	19.518	5.8182	0.	983.36
13484	19.426	5.7273	0.	1001.3
13485	19.426	5.8182	5.e-002	0.72389
13486	19.426	5.9091	0.	992.34
13487	19.701	5.8182	0.	942.18
13488	19.609	5.7273	0.	960.11
13489	19.609	5.8182	5.e-002	0.79204
13490	19.609	5.9091	0.	950.85
13491	19.884	5.8182	0.	901.17
13492	19.792	5.7273	0.	919.05
13493	19.792	5.8182	5.e-002	0.86685
13494	19.792	5.9091	0.	909.52
13495	20.067	5.8182	0.	860.31
13496	19.975	5.7273	0.	878.15
13497	19.975	5.8182	5.e-002	0.94878
13498	19.975	5.9091	0.	868.36
13499	20.25	5.8182	0.	819.61
13500	20.158	5.7273	0.	837.41
13501	20.158	5.8182	5.e-002	1.0384
13502	20.158	5.9091	0.	827.37
13503	20.433	5.8182	0.	779.06
13504	20.341	5.7273	0.	796.84
13505	20.341	5.8182	5.e-002	1.1363
13506	20.341	5.9091	0.	786.53
13507	20.616	5.8182	0.	738.65
13508	20.524	5.7273	0.	756.42
13509	20.524	5.8182	5.e-002	1.2433
13510	20.524	5.9091	0.	745.85
13511	20.798	5.8182	0.	698.39
13512	20.707	5.7273	0.	716.15
13513	20.707	5.8182	5.e-002	1.3597
13514	20.707	5.9091	0.	705.32
13515	20.981	5.8182	0.	658.25
13516	20.89	5.7273	0.	676.04
13517	20.89	5.8182	5.e-002	1.4866
13518	20.89	5.9091	0.	664.94
13519	21.164	5.8182	0.	618.25
13520	21.073	5.7273	0.	636.07
13521	21.073	5.8182	5.e-002	1.6245
13522	21.073	5.9091	0.	624.71
13523	21.347	5.8182	0.	578.38
13524	21.256	5.7273	0.	596.24
13525	21.256	5.8182	5.e-002	1.7745
13526	21.256	5.9091	0.	584.62
13527	21.53	5.8182	0.	538.62
13528	21.439	5.7273	0.	556.55
13529	21.439	5.8182	5.e-002	1.9373
13530	21.439	5.9091	0.	544.68
13531	21.713	5.8182	0.	498.99
13532	21.622	5.7273	0.	517.
13533	21.622	5.8182	5.e-002	2.1142
13534	21.622	5.9091	0.	504.88
13535	21.896	5.8182	0.	459.46
13536	21.805	5.7273	0.	477.59
13537	21.805	5.8182	5.e-002	2.3061
13538	21.805	5.9091	0.	465.23
13539	22.079	5.8182	0.	420.05
13540	21.988	5.7273	0.	438.32
13541	21.988	5.8182	5.e-002	2.5146
13542	21.988	5.9091	0.	425.73
13543	22.262	5.8182	0.	380.76
13544	22.171	5.7273	0.	399.21
13545	22.171	5.8182	5.e-002	2.7412
13546	22.171	5.9091	0.	386.39
13547	22.445	5.8182	0.	341.59
13548	22.353	5.7273	0.	360.26
13549	22.353	5.8182	5.e-002	2.9876
13550	22.353	5.9091	0.	347.22
13551	22.628	5.8182	0.	302.54
13552	22.536	5.7273	0.	321.49
13553	22.536	5.8182	5.e-002	3.2564
13554	22.536	5.9091	0.	308.23
13555	22.811	5.8182	0.	263.65
13556	22.719	5.7273	0.	282.95
13557	22.719	5.8182	5.e-002	3.5503
13558	22.719	5.9091	0.	269.47
13559	22.994	5.8182	0.	224.95
13560	22.902	5.7273	0.	244.69
13561	22.902	5.8182	5.e-002	3.8735
13562	22.902	5.9091	0.	230.96
13563	23.177	5.8182	0.	186.52
13564	23.085	5.7273	0.	206.82
13565	23.085	5.8182	5.e-002	4.2314
13566	23.085	5.9091	0.	192.78
13567	23.36	5.8182	0.	148.52
13568	23.268	5.7273	0.	169.58
13569	23.268	5.8182	5.e-002	4.6339
13570	23.268	5.9091	0.	155.04
13571	23.543	5.8182	0.	111.38
13572	23.451	5.7273	0.	133.39
13573	23.451	5.8182	5.e-002	5.0942
13574	23.451	5.9091	0.	117.92
13575	23.726	5.8182	0.	76.927
13576	23.634	5.7273	0.	99.443
13577	23.634	5.8182	5.e-002	5.6736
13578	23.634	5.9091	0.	81.958
13579	23.817	5.7273	0.	71.463
13580	23.817	5.8182	5.e-002	6.9129
13581	23.909	5.8182	0.	48.338
13582	23.817	5.9091	0.	48.611
13583	8.5411	5.6364	0.	1132.8
13584	8.4496	5.5455	0.	1275.
13585	8.4496	5.6364	5.e-002	86.674
13586	8.3581	5.6364	0.	836.48
13587	8.724	5.6364	0.	1410.9
13588	8.6326	5.5455	0.	1406.
13589	8.6326	5.6364	5.e-002	72.772
13590	8.907	5.6364	0.	1736.6
13591	8.8155	5.5455	0.	1691.7
13592	8.8155	5.6364	5.e-002	65.816
13593	9.0899	5.6364	0.	2034.2
13594	8.9985	5.5455	0.	1984.4
13595	8.9985	5.6364	5.e-002	57.319
13596	9.2729	5.6364	0.	2286.5
13597	9.1814	5.5455	0.	2244.
13598	9.1814	5.6364	5.e-002	48.433
13599	9.4558	5.6364	0.	2491.5
13600	9.3643	5.5455	0.	2459.6
13601	9.3643	5.6364	5.e-002	39.799
13602	9.6388	5.6364	0.	2652.3
13603	9.5473	5.5455	0.	2630.8
13604	9.5473	5.6364	5.e-002	31.845
13605	9.8217	5.6364	0.	2773.9
13606	9.7302	5.5455	0.	2761.6
13607	9.7302	5.6364	5.e-002	24.793
13608	10.005	5.6364	0.	2862.4
13609	9.9132	5.5455	0.	2857.5
13610	9.9132	5.6364	5.e-002	18.714
13611	10.188	5.6364	0.	2923.1
13612	10.096	5.5455	0.	2924.2
13613	10.096	5.6364	5.e-002	13.585
13614	10.371	5.6364	0.	2961.1
13615	10.279	5.5455	0.	2966.9
13616	10.279	5.6364	5.e-002	9.3328
13617	10.553	5.6364	0.	2980.7
13618	10.462	5.5455	0.	2990.1
13619	10.462	5.6364	5.e-002	5.8708
13620	10.736	5.6364	0.	2985.5
13621	10.645	5.5455	0.	2997.7
13622	10.645	5.6364	5.e-002	3.1542
13623	10.919	5.6364	0.	2978.5
13624	10.828	5.5455	0.	2992.8
13625	10.828	5.6364	5.e-002	1.4776
13626	11.102	5.6364	0.	2962.3
13627	11.011	5.5455	0.	2978.1
13628	11.011	5.6364	5.e-002	1.9353
13629	11.285	5.6364	0.	2938.7
13630	11.194	5.5455	0.	2955.8
13631	11.194	5.6364	5.e-002	3.1576
13632	11.468	5.6364	0.	2909.5
13633	11.377	5.5455	0.	2927.4
13634	11.377	5.6364	5.e-002	4.2478
13635	11.651	5.6364	0.	2875.7
13636	11.56	5.5455	0.	2894.3
13637	11.56	5.6364	5.e-002	5.1337
13638	11.834	5.6364	0.	2838.6
13639	11.743	5.5455	0.	2857.6
13640	11.743	5.6364	5.e-002	5.8355
13641	12.017	5.6364	0.	2798.7
13642	11.926	5.5455	0.	2818.2
13643	11.926	5.6364	5.e-002	6.3837
13644	12.2	5.6364	0.	2756.9
13645	12.109	5.5455	0.	2776.7
13646	12.109	5.6364	5.e-002	6.8066
13647	12.383	5.6364	0.	2713.6
13648	12.291	5.5455	0.	2733.6
13649	12.291	5.6364	5.e-002	7.1283
13650	12.566	5.6364	0.	2669.2
13651	12.474	5.5455	0.	2689.4
13652	12.474	5.6364	5.e-002	7.3695
13653	12.749	5.6364	0.	2623.9
13654	12.657	5.5455	0.	2644.2
13655	12.657	5.6364	5.e-002	7.5467
13656	12.932	5.6364	0.	2578.1
13657	12.84	5.5455	0.	2598.5
13658	12.84	5.6364	5.e-002	7.673
13659	13.115	5.6364	0.	2531.9
13660	13.023	5.5455	0.	2552.4
13661	13.023	5.6364	5.e-002	7.7594
13662	13.298	5.6364	0.	2485.4
13663	13.206	5.5455	0.	2506.
13664	13.206	5.6364	5.e-002	7.8148
13665	13.481	5.6364	0.	2438.7
13666	13.389	5.5455	0.	2459.4
13667	13.389	5.6364	5.e-002	7.8461
13668	13.664	5.6364	0.	2392.
13669	13.572	5.5455	0.	2412.7
13670	13.572	5.6364	5.e-002	7.8584
13671	13.847	5.6364	0.	2345.3
13672	13.755	5.5455	0.	2366.1
13673	13.755	5.6364	5.e-002	7.8564
13674	14.029	5.6364	0.	2298.6
13675	13.938	5.5455	0.	2319.5
13676	13.938	5.6364	5.e-002	7.8435
13677	14.212	5.6364	0.	2252.1
13678	14.121	5.5455	0.	2272.9
13679	14.121	5.6364	5.e-002	7.8225
13680	14.395	5.6364	0.	2205.6
13681	14.304	5.5455	0.	2226.5
13682	14.304	5.6364	5.e-002	7.7953
13683	14.578	5.6364	0.	2159.3
13684	14.487	5.5455	0.	2180.2
13685	14.487	5.6364	5.e-002	7.7636
13686	14.761	5.6364	0.	2113.1
13687	14.67	5.5455	0.	2134.
13688	14.67	5.6364	5.e-002	7.7289
13689	14.944	5.6364	0.	2067.1
13690	14.853	5.5455	0.	2088.
13691	14.853	5.6364	5.e-002	7.6921
13692	15.127	5.6364	0.	2021.3
13693	15.036	5.5455	0.	2042.2
13694	15.036	5.6364	5.e-002	7.6539
13695	15.31	5.6364	0.	1975.6
13696	15.219	5.5455	0.	1996.5
13697	15.219	5.6364	5.e-002	7.6147
13698	15.493	5.6364	0.	1930.1
13699	15.402	5.5455	0.	1951.
13700	15.402	5.6364	5.e-002	7.5754
13701	15.676	5.6364	0.	1884.8
13702	15.584	5.5455	0.	1905.7
13703	15.584	5.6364	5.e-002	7.536
13704	15.859	5.6364	0.	1839.8
13705	15.767	5.5455	0.	1860.6
13706	15.767	5.6364	5.e-002	7.4968
13707	16.042	5.6364	0.	1794.9
13708	15.95	5.5455	0.	1815.7
13709	15.95	5.6364	5.e-002	7.458
13710	16.225	5.6364	0.	1750.1
13711	16.133	5.5455	0.	1770.9
13712	16.133	5.6364	5.e-002	7.4199
13713	16.408	5.6364	0.	1705.6
13714	16.316	5.5455	0.	1726.4
13715	16.316	5.6364	5.e-002	7.3824
13716	16.591	5.6364	0.	1661.3
13717	16.499	5.5455	0.	1682.
13718	16.499	5.6364	5.e-002	7.3455
13719	16.774	5.6364	0.	1617.2
13720	16.682	5.5455	0.	1637.9
13721	16.682	5.6364	5.e-002	7.3094
13722	16.957	5.6364	0.	1573.3
13723	16.865	5.5455	0.	1593.9
13724	16.865	5.6364	5.e-002	7.2743
13725	17.14	5.6364	0.	1529.5
13726	17.048	5.5455	0.	1550.1
13727	17.048	5.6364	5.e-002	7.2399
13728	17.322	5.6364	0.	1486.
13729	17.231	5.5455	0.	1506.5
13730	17.231	5.6364	5.e-002	7.2064
13731	17.505	5.6364	0.	1442.7
13732	17.414	5.5455	0.	1463.1
13733	17.414	5.6364	5.e-002	7.1737
13734	17.688	5.6364	0.	1399.5
13735	17.597	5.5455	0.	1419.9
13736	17.597	5.6364	5.e-002	7.142
13737	17.871	5.6364	0.	1356.5
13738	17.78	5.5455	0.	1376.9
13739	17.78	5.6364	5.e-002	7.1112
13740	18.054	5.6364	0.	1313.8
13741	17.963	5.5455	0.	1334.1
13742	17.963	5.6364	5.e-002	7.0812
13743	18.237	5.6364	0.	1271.2
13744	18.146	5.5455	0.	1291.5
13745	18.146	5.6364	5.e-002	7.0522
13746	18.42	5.6364	0.	1228.8
13747	18.329	5.5455	0.	1249.
13748	18.329	5.6364	5.e-002	7.0243
13749	18.603	5.6364	0.	1186.6
13750	18.512	5.5455	0.	1206.8
13751	18.512	5.6364	5.e-002	6.9973
13752	18.786	5.6364	0.	1144.6
13753	18.695	5.5455	0.	1164.7
13754	18.695	5.6364	5.e-002	6.9712
13755	18.969	5.6364	0.	1102.8
13756	18.878	5.5455	0.	1122.9
13757	18.878	5.6364	5.e-002	6.9463
13758	19.152	5.6364	0.	1061.1
13759	19.06	5.5455	0.	1081.2
13760	19.06	5.6364	5.e-002	6.9225
13761	19.335	5.6364	0.	1019.7
13762	19.243	5.5455	0.	1039.7
13763	19.243	5.6364	5.e-002	6.8999
13764	19.518	5.6364	0.	978.37
13765	19.426	5.5455	0.	998.37
13766	19.426	5.6364	5.e-002	6.8784
13767	19.701	5.6364	0.	937.25
13768	19.609	5.5455	0.	957.24
13769	19.609	5.6364	5.e-002	6.8582
13770	19.884	5.6364	0.	896.31
13771	19.792	5.5455	0.	916.28
13772	19.792	5.6364	5.e-002	6.8394
13773	20.067	5.6364	0.	855.55
13774	19.975	5.5455	0.	875.51
13775	19.975	5.6364	5.e-002	6.8219
13776	20.25	5.6364	0.	814.95
13777	20.158	5.5455	0.	834.91
13778	20.158	5.6364	5.e-002	6.8058
13779	20.433	5.6364	0.	774.52
13780	20.341	5.5455	0.	794.48
13781	20.341	5.6364	5.e-002	6.7914
13782	20.616	5.6364	0.	734.25
13783	20.524	5.5455	0.	754.23
13784	20.524	5.6364	5.e-002	6.7786
13785	20.798	5.6364	0.	694.15
13786	20.707	5.5455	0.	714.16
13787	20.707	5.6364	5.e-002	6.7675
13788	20.981	5.6364	0.	654.2
13789	20.89	5.5455	0.	674.25
13790	20.89	5.6364	5.e-002	6.7581
13791	21.164	5.6364	0.	614.42
13792	21.073	5.5455	0.	634.52
13793	21.073	5.6364	5.e-002	6.7507
13794	21.347	5.6364	0.	574.79
13795	21.256	5.5455	0.	594.96
13796	21.256	5.6364	5.e-002	6.7453
13797	21.53	5.6364	0.	535.32
13798	21.439	5.5455	0.	555.57
13799	21.439	5.6364	5.e-002	6.742
13800	21.713	5.6364	0.	496.03
13801	21.622	5.5455	0.	516.37
13802	21.622	5.6364	5.e-002	6.7409
13803	21.896	5.6364	0.	456.9
13804	21.805	5.5455	0.	477.37
13805	21.805	5.6364	5.e-002	6.7423
13806	22.079	5.6364	0.	417.96
13807	21.988	5.5455	0.	438.57
13808	21.988	5.6364	5.e-002	6.7462
13809	22.262	5.6364	0.	379.22
13810	22.171	5.5455	0.	400.
13811	22.171	5.6364	5.e-002	6.7529
13812	22.445	5.6364	0.	340.72
13813	22.353	5.5455	0.	361.7
13814	22.353	5.6364	5.e-002	6.7627
13815	22.628	5.6364	0.	302.51
13816	22.536	5.5455	0.	323.72
13817	22.536	5.6364	5.e-002	6.7761
13818	22.811	5.6364	0.	264.67
13819	22.719	5.5455	0.	286.14
13820	22.719	5.6364	5.e-002	6.7941
13821	22.994	5.6364	0.	227.34
13822	22.902	5.5455	0.	249.11
13823	22.902	5.6364	5.e-002	6.8182
13824	23.177	5.6364	0.	190.79
13825	23.085	5.5455	0.	212.86
13826	23.085	5.6364	5.e-002	6.8514
13827	23.36	5.6364	0.	155.49
13828	23.268	5.5455	0.	177.81
13829	23.268	5.6364	5.e-002	6.9002
13830	23.543	5.6364	0.	122.55
13831	23.451	5.5455	0.	144.72
13832	23.451	5.6364	5.e-002	6.9832
13833	23.726	5.6364	0.	94.436
13834	23.634	5.5455	0.	115.19
13835	23.634	5.6364	5.e-002	7.17
13836	23.817	5.5455	0.	92.401
13837	23.817	5.6364	5.e-002	7.829
13838	23.909	5.6364	0.	73.18
13839	8.5411	5.4545	0.	1493.3
13840	8.4496	5.3636	0.	1727.7
13841	8.4496	5.4545	5.e-002	92.74
13842	8.3581	5.4545	0.	1196.6
13843	8.724	5.4545	0.	1665.4
13844	8.6326	5.3636	0.	1747.3
13845	8.6326	5.4545	5.e-002	73.529
13846	8.907	5.4545	0.	1930.1
13847	8.8155	5.3636	0.	1954.
13848	8.8155	5.4545	5.e-002	65.992
13849	9.0899	5.4545	0.	2189.3
13850	8.9985	5.3636	0.	2190.8
13851	8.9985	5.4545	5.e-002	56.892
13852	9.2729	5.4545	0.	2414.1
13853	9.1814	5.3636	0.	2409.7
13854	9.1814	5.4545	5.e-002	47.429
13855	9.4558	5.4545	0.	2597.
13856	9.3643	5.3636	0.	2593.5
13857	9.3643	5.4545	5.e-002	38.421
13858	9.6388	5.4545	0.	2738.9
13859	9.5473	5.3636	0.	2738.8
13860	9.5473	5.4545	5.e-002	30.337
13861	9.8217	5.4545	0.	2844.4
13862	9.7302	5.3636	0.	2848.2
13863	9.7302	5.4545	5.e-002	23.348
13864	10.005	5.4545	0.	2918.9
13865	9.9132	5.3636	0.	2926.3
13866	9.9132	5.4545	5.e-002	17.463
13867	10.188	5.4545	0.	2967.7
13868	10.096	5.3636	0.	2978.2
13869	10.096	5.4545	5.e-002	12.614
13870	10.371	5.4545	0.	2995.7
13871	10.279	5.3636	0.	3008.6
13872	10.279	5.4545	5.e-002	8.7192
13873	10.553	5.4545	0.	3007.
13874	10.462	5.3636	0.	3021.8
13875	10.462	5.4545	5.e-002	5.737
13876	10.736	5.4545	0.	3005.
13877	10.645	5.3636	0.	3021.2
13878	10.645	5.4545	5.e-002	3.7727
13879	10.919	5.4545	0.	2992.4
13880	10.828	5.3636	0.	3009.8
13881	10.828	5.4545	5.e-002	3.1212
13882	11.102	5.4545	0.	2971.6
13883	11.011	5.3636	0.	2989.8
13884	11.011	5.4545	5.e-002	3.594
13885	11.285	5.4545	0.	2944.4
13886	11.194	5.3636	0.	2963.2
13887	11.194	5.4545	5.e-002	4.4436
13888	11.468	5.4545	0.	2912.3
13889	11.377	5.3636	0.	2931.5
13890	11.377	5.4545	5.e-002	5.2777
13891	11.651	5.4545	0.	2876.3
13892	11.56	5.3636	0.	2895.8
13893	11.56	5.4545	5.e-002	5.9927
13894	11.834	5.4545	0.	2837.3
13895	11.743	5.3636	0.	2857.2
13896	11.743	5.4545	5.e-002	6.5759
13897	12.017	5.4545	0.	2796.2
13898	11.926	5.3636	0.	2816.2
13899	11.926	5.4545	5.e-002	7.0395
13900	12.2	5.4545	0.	2753.4
13901	12.109	5.3636	0.	2773.6
13902	12.109	5.4545	5.e-002	7.4011
13903	12.383	5.4545	0.	2709.4
13904	12.291	5.3636	0.	2729.7
13905	12.291	5.4545	5.e-002	7.6783
13906	12.566	5.4545	0.	2664.5
13907	12.474	5.3636	0.	2684.8
13908	12.474	5.4545	5.e-002	7.8873
13909	12.749	5.4545	0.	2618.9
13910	12.657	5.3636	0.	2639.3
13911	12.657	5.4545	5.e-002	8.0413
13912	12.932	5.4545	0.	2572.9
13913	12.84	5.3636	0.	2593.4
13914	12.84	5.4545	5.e-002	8.1514
13915	13.115	5.4545	0.	2526.5
13916	13.023	5.3636	0.	2547.1
13917	13.023	5.4545	5.e-002	8.2266
13918	13.298	5.4545	0.	2480.
13919	13.206	5.3636	0.	2500.7
13920	13.206	5.4545	5.e-002	8.2747
13921	13.481	5.4545	0.	2433.5
13922	13.389	5.3636	0.	2454.2
13923	13.389	5.4545	5.e-002	8.3014
13924	13.664	5.4545	0.	2386.8
13925	13.572	5.3636	0.	2407.6
13926	13.572	5.4545	5.e-002	8.3113
13927	13.847	5.4545	0.	2340.3
13928	13.755	5.3636	0.	2361.1
13929	13.755	5.4545	5.e-002	8.3082
13930	14.029	5.4545	0.	2293.8
13931	13.938	5.3636	0.	2314.6
13932	13.938	5.4545	5.e-002	8.2954
13933	14.212	5.4545	0.	2247.4
13934	14.121	5.3636	0.	2268.2
13935	14.121	5.4545	5.e-002	8.2751
13936	14.395	5.4545	0.	2201.1
13937	14.304	5.3636	0.	2222.
13938	14.304	5.4545	5.e-002	8.249
13939	14.578	5.4545	0.	2154.9
13940	14.487	5.3636	0.	2175.9
13941	14.487	5.4545	5.e-002	8.2187
13942	14.761	5.4545	0.	2108.9
13943	14.67	5.3636	0.	2129.9
13944	14.67	5.4545	5.e-002	8.1854
13945	14.944	5.4545	0.	2063.1
13946	14.853	5.3636	0.	2084.1
13947	14.853	5.4545	5.e-002	8.1501
13948	15.127	5.4545	0.	2017.4
13949	15.036	5.3636	0.	2038.4
13950	15.036	5.4545	5.e-002	8.1131
13951	15.31	5.4545	0.	1971.9
13952	15.219	5.3636	0.	1992.9
13953	15.219	5.4545	5.e-002	8.0752
13954	15.493	5.4545	0.	1926.6
13955	15.402	5.3636	0.	1947.6
13956	15.402	5.4545	5.e-002	8.0368
13957	15.676	5.4545	0.	1881.5
13958	15.584	5.3636	0.	1902.4
13959	15.584	5.4545	5.e-002	7.9982
13960	15.859	5.4545	0.	1836.5
13961	15.767	5.3636	0.	1857.5
13962	15.767	5.4545	5.e-002	7.9595
13963	16.042	5.4545	0.	1791.8
13964	15.95	5.3636	0.	1812.7
13965	15.95	5.4545	5.e-002	7.921
13966	16.225	5.4545	0.	1747.2
13967	16.133	5.3636	0.	1768.1
13968	16.133	5.4545	5.e-002	7.8828
13969	16.408	5.4545	0.	1702.8
13970	16.316	5.3636	0.	1723.7
13971	16.316	5.4545	5.e-002	7.8451
13972	16.591	5.4545	0.	1658.6
13973	16.499	5.3636	0.	1679.4
13974	16.499	5.4545	5.e-002	7.8077
13975	16.774	5.4545	0.	1614.6
13976	16.682	5.3636	0.	1635.4
13977	16.682	5.4545	5.e-002	7.7708
13978	16.957	5.4545	0.	1570.8
13979	16.865	5.3636	0.	1591.5
13980	16.865	5.4545	5.e-002	7.7346
13981	17.14	5.4545	0.	1527.2
13982	17.048	5.3636	0.	1547.8
13983	17.048	5.4545	5.e-002	7.699
13984	17.322	5.4545	0.	1483.7
13985	17.231	5.3636	0.	1504.4
13986	17.231	5.4545	5.e-002	7.6639
13987	17.505	5.4545	0.	1440.5
13988	17.414	5.3636	0.	1461.1
13989	17.414	5.4545	5.e-002	7.6294
13990	17.688	5.4545	0.	1397.4
13991	17.597	5.3636	0.	1418.
13992	17.597	5.4545	5.e-002	7.5957
13993	17.871	5.4545	0.	1354.5
13994	17.78	5.3636	0.	1375.1
13995	17.78	5.4545	5.e-002	7.5626
13996	18.054	5.4545	0.	1311.9
13997	17.963	5.3636	0.	1332.3
13998	17.963	5.4545	5.e-002	7.5301
13999	18.237	5.4545	0.	1269.4
14000	18.146	5.3636	0.	1289.8
14001	18.146	5.4545	5.e-002	7.4983
14002	18.42	5.4545	0.	1227.1
14003	18.329	5.3636	0.	1247.5
14004	18.329	5.4545	5.e-002	7.4672
14005	18.603	5.4545	0.	1185.
14006	18.512	5.3636	0.	1205.3
14007	18.512	5.4545	5.e-002	7.4369
14008	18.786	5.4545	0.	1143.1
14009	18.695	5.3636	0.	1163.4
14010	18.695	5.4545	5.e-002	7.4073
14011	18.969	5.4545	0.	1101.4
14012	18.878	5.3636	0.	1121.6
14013	18.878	5.4545	5.e-002	7.3785
14014	19.152	5.4545	0.	1059.8
14015	19.06	5.3636	0.	1080.1
14016	19.06	5.4545	5.e-002	7.3505
14017	19.335	5.4545	0.	1018.5
14018	19.243	5.3636	0.	1038.7
14019	19.243	5.4545	5.e-002	7.3234
14020	19.518	5.4545	0.	977.32
14021	19.426	5.3636	0.	997.5
14022	19.426	5.4545	5.e-002	7.2971
14023	19.701	5.4545	0.	936.35
14024	19.609	5.3636	0.	956.51
14025	19.609	5.4545	5.e-002	7.2718
14026	19.884	5.4545	0.	895.56
14027	19.792	5.3636	0.	915.7
14028	19.792	5.4545	5.e-002	7.2475
14029	20.067	5.4545	0.	854.96
14030	19.975	5.3636	0.	875.09
14031	19.975	5.4545	5.e-002	7.2242
14032	20.25	5.4545	0.	814.53
14033	20.158	5.3636	0.	834.67
14034	20.158	5.4545	5.e-002	7.2019
14035	20.433	5.4545	0.	774.3
14036	20.341	5.3636	0.	794.44
14037	20.341	5.4545	5.e-002	7.1809
14038	20.616	5.4545	0.	734.24
14039	20.524	5.3636	0.	754.4
14040	20.524	5.4545	5.e-002	7.161
14041	20.798	5.4545	0.	694.37
14042	20.707	5.3636	0.	714.56
14043	20.707	5.4545	5.e-002	7.1424
14044	20.981	5.4545	0.	654.68
14045	20.89	5.3636	0.	674.91
14046	20.89	5.4545	5.e-002	7.1252
14047	21.164	5.4545	0.	615.18
14048	21.073	5.3636	0.	635.46
14049	21.073	5.4545	5.e-002	7.1093
14050	21.347	5.4545	0.	575.87
14051	21.256	5.3636	0.	596.22
14052	21.256	5.4545	5.e-002	7.0951
14053	21.53	5.4545	0.	536.76
14054	21.439	5.3636	0.	557.19
14055	21.439	5.4545	5.e-002	7.0824
14056	21.713	5.4545	0.	497.87
14057	21.622	5.3636	0.	518.39
14058	21.622	5.4545	5.e-002	7.0714
14059	21.896	5.4545	0.	459.21
14060	21.805	5.3636	0.	479.84
14061	21.805	5.4545	5.e-002	7.0624
14062	22.079	5.4545	0.	420.8
14063	21.988	5.3636	0.	441.56
14064	21.988	5.4545	5.e-002	7.0555
14065	22.262	5.4545	0.	382.69
14066	22.171	5.3636	0.	403.6
14067	22.171	5.4545	5.e-002	7.051
14068	22.445	5.4545	0.	344.93
14069	22.353	5.3636	0.	366.
14070	22.353	5.4545	5.e-002	7.0494
14071	22.628	5.4545	0.	307.61
14072	22.536	5.3636	0.	328.85
14073	22.536	5.4545	5.e-002	7.0515
14074	22.811	5.4545	0.	270.88
14075	22.719	5.3636	0.	292.29
14076	22.719	5.4545	5.e-002	7.0586
14077	22.994	5.4545	0.	234.95
14078	22.902	5.3636	0.	256.49
14079	22.902	5.4545	5.e-002	7.073
14080	23.177	5.4545	0.	200.2
14081	23.085	5.3636	0.	221.78
14082	23.085	5.4545	5.e-002	7.099
14083	23.36	5.4545	0.	167.27
14084	23.268	5.3636	0.	188.66
14085	23.268	5.4545	5.e-002	7.1458
14086	23.543	5.4545	0.	137.31
14087	23.451	5.3636	0.	157.96
14088	23.451	5.4545	5.e-002	7.2314
14089	23.726	5.4545	0.	112.3
14090	23.634	5.3636	0.	131.09
14091	23.634	5.4545	5.e-002	7.4019
14092	23.817	5.3636	0.	110.39
14093	23.817	5.4545	5.e-002	7.9202
14094	23.909	5.4545	0.	93.562
14095	8.5411	5.2727	0.	1922.8
14096	8.4496	5.1818	0.	2241.8
14097	8.4496	5.2727	5.e-002	104.63
14098	8.3581	5.2727	0.	1589.1
14099	8.724	5.2727	0.	2003.1
14100	8.6326	5.1818	0.	2165.4
14101	8.6326	5.2727	5.e-002	77.816
14102	8.907	5.2727	0.	2197.3
14103	8.8155	5.1818	0.	2292.8
14104	8.8155	5.2727	5.e-002	68.28
14105	9.0899	5.2727	0.	2401.6
14106	8.9985	5.1818	0.	2460.5
14107	8.9985	5.2727	5.e-002	57.574
14108	9.2729	5.2727	0.	2583.5
14109	9.1814	5.1818	0.	2622.9
14110	9.1814	5.2727	5.e-002	47.034
14111	9.4558	5.2727	0.	2732.1
14112	9.3643	5.1818	0.	2761.5
14113	9.3643	5.2727	5.e-002	37.494
14114	9.6388	5.2727	0.	2846.1
14115	9.5473	5.1818	0.	2870.6
14116	9.5473	5.2727	5.e-002	29.297
14117	9.8217	5.2727	0.	2928.9
14118	9.7302	5.1818	0.	2951.
14119	9.7302	5.2727	5.e-002	22.469
14120	10.005	5.2727	0.	2984.8
14121	9.9132	5.1818	0.	3005.9
14122	9.9132	5.2727	5.e-002	16.909
14123	10.188	5.2727	0.	3018.6
14124	10.096	5.1818	0.	3039.3
14125	10.096	5.2727	5.e-002	12.486
14126	10.371	5.2727	0.	3034.5
14127	10.279	5.1818	0.	3055.
14128	10.279	5.2727	5.e-002	9.0984
14129	10.553	5.2727	0.	3035.9
14130	10.462	5.1818	0.	3056.5
14131	10.462	5.2727	5.e-002	6.7079
14132	10.736	5.2727	0.	3026.
14133	10.645	5.1818	0.	3046.6
14134	10.645	5.2727	5.e-002	5.3334
14135	10.919	5.2727	0.	3007.2
14136	10.828	5.1818	0.	3027.8
14137	10.828	5.2727	5.e-002	4.9098
14138	11.102	5.2727	0.	2981.5
14139	11.011	5.1818	0.	3002.
14140	11.011	5.2727	5.e-002	5.1317
14141	11.285	5.2727	0.	2950.4
14142	11.194	5.1818	0.	2970.9
14143	11.194	5.2727	5.e-002	5.6303
14144	11.468	5.2727	0.	2915.1
14145	11.377	5.1818	0.	2935.7
14146	11.377	5.2727	5.e-002	6.1794
14147	11.651	5.2727	0.	2876.8
14148	11.56	5.1818	0.	2897.3
14149	11.56	5.2727	5.e-002	6.6828
14150	11.834	5.2727	0.	2836.1
14151	11.743	5.1818	0.	2856.6
14152	11.743	5.2727	5.e-002	7.1099
14153	12.017	5.2727	0.	2793.6
14154	11.926	5.1818	0.	2814.1
14155	11.926	5.2727	5.e-002	7.4572
14156	12.2	5.2727	0.	2749.9
14157	12.109	5.1818	0.	2770.4
14158	12.109	5.2727	5.e-002	7.7312
14159	12.383	5.2727	0.	2705.2
14160	12.291	5.1818	0.	2725.7
14161	12.291	5.2727	5.e-002	7.9419
14162	12.566	5.2727	0.	2659.8
14163	12.474	5.1818	0.	2680.3
14164	12.474	5.2727	5.e-002	8.1
14165	12.749	5.2727	0.	2613.9
14166	12.657	5.1818	0.	2634.4
14167	12.657	5.2727	5.e-002	8.2149
14168	12.932	5.2727	0.	2567.7
14169	12.84	5.1818	0.	2588.3
14170	12.84	5.2727	5.e-002	8.2948
14171	13.115	5.2727	0.	2521.3
14172	13.023	5.1818	0.	2542.
14173	13.023	5.2727	5.e-002	8.3467
14174	13.298	5.2727	0.	2474.9
14175	13.206	5.1818	0.	2495.5
14176	13.206	5.2727	5.e-002	8.3766
14177	13.481	5.2727	0.	2428.4
14178	13.389	5.1818	0.	2449.1
14179	13.389	5.2727	5.e-002	8.3892
14180	13.664	5.2727	0.	2381.9
14181	13.572	5.1818	0.	2402.7
14182	13.572	5.2727	5.e-002	8.3881
14183	13.847	5.2727	0.	2335.5
14184	13.755	5.1818	0.	2356.3
14185	13.755	5.2727	5.e-002	8.3765
14186	14.029	5.2727	0.	2289.1
14187	13.938	5.1818	0.	2310.
14188	13.938	5.2727	5.e-002	8.3569
14189	14.212	5.2727	0.	2242.9
14190	14.121	5.1818	0.	2263.8
14191	14.121	5.2727	5.e-002	8.3314
14192	14.395	5.2727	0.	2196.8
14193	14.304	5.1818	0.	2217.7
14194	14.304	5.2727	5.e-002	8.3012
14195	14.578	5.2727	0.	2150.8
14196	14.487	5.1818	0.	2171.8
14197	14.487	5.2727	5.e-002	8.2676
14198	14.761	5.2727	0.	2105.
14199	14.67	5.1818	0.	2126.
14200	14.67	5.2727	5.e-002	8.2318
14201	14.944	5.2727	0.	2059.4
14202	14.853	5.1818	0.	2080.3
14203	14.853	5.2727	5.e-002	8.1943
14204	15.127	5.2727	0.	2013.9
14205	15.036	5.1818	0.	2034.9
14206	15.036	5.2727	5.e-002	8.1557
14207	15.31	5.2727	0.	1968.6
14208	15.219	5.1818	0.	1989.5
14209	15.219	5.2727	5.e-002	8.1164
14210	15.493	5.2727	0.	1923.4
14211	15.402	5.1818	0.	1944.4
14212	15.402	5.2727	5.e-002	8.0769
14213	15.676	5.2727	0.	1878.4
14214	15.584	5.1818	0.	1899.4
14215	15.584	5.2727	5.e-002	8.0374
14216	15.859	5.2727	0.	1833.6
14217	15.767	5.1818	0.	1854.6
14218	15.767	5.2727	5.e-002	7.9979
14219	16.042	5.2727	0.	1789.
14220	15.95	5.1818	0.	1809.9
14221	15.95	5.2727	5.e-002	7.9587
14222	16.225	5.2727	0.	1744.6
14223	16.133	5.1818	0.	1765.5
14224	16.133	5.2727	5.e-002	7.92
14225	16.408	5.2727	0.	1700.3
14226	16.316	5.1818	0.	1721.2
14227	16.316	5.2727	5.e-002	7.8817
14228	16.591	5.2727	0.	1656.2
14229	16.499	5.1818	0.	1677.1
14230	16.499	5.2727	5.e-002	7.8439
14231	16.774	5.2727	0.	1612.3
14232	16.682	5.1818	0.	1633.2
14233	16.682	5.2727	5.e-002	7.8067
14234	16.957	5.2727	0.	1568.6
14235	16.865	5.1818	0.	1589.4
14236	16.865	5.2727	5.e-002	7.7702
14237	17.14	5.2727	0.	1525.1
14238	17.048	5.1818	0.	1545.8
14239	17.048	5.2727	5.e-002	7.7342
14240	17.322	5.2727	0.	1481.8
14241	17.231	5.1818	0.	1502.5
14242	17.231	5.2727	5.e-002	7.6988
14243	17.505	5.2727	0.	1438.6
14244	17.414	5.1818	0.	1459.3
14245	17.414	5.2727	5.e-002	7.6641
14246	17.688	5.2727	0.	1395.7
14247	17.597	5.1818	0.	1416.3
14248	17.597	5.2727	5.e-002	7.6301
14249	17.871	5.2727	0.	1352.9
14250	17.78	5.1818	0.	1373.5
14251	17.78	5.2727	5.e-002	7.5967
14252	18.054	5.2727	0.	1310.3
14253	17.963	5.1818	0.	1330.9
14254	17.963	5.2727	5.e-002	7.564
14255	18.237	5.2727	0.	1268.
14256	18.146	5.1818	0.	1288.4
14257	18.146	5.2727	5.e-002	7.532
14258	18.42	5.2727	0.	1225.8
14259	18.329	5.1818	0.	1246.2
14260	18.329	5.2727	5.e-002	7.5008
14261	18.603	5.2727	0.	1183.8
14262	18.512	5.1818	0.	1204.2
14263	18.512	5.2727	5.e-002	7.4703
14264	18.786	5.2727	0.	1142.
14265	18.695	5.1818	0.	1162.3
14266	18.695	5.2727	5.e-002	7.4405
14267	18.969	5.2727	0.	1100.4
14268	18.878	5.1818	0.	1120.7
14269	18.878	5.2727	5.e-002	7.4115
14270	19.152	5.2727	0.	1059.
14271	19.06	5.1818	0.	1079.3
14272	19.06	5.2727	5.e-002	7.3835
14273	19.335	5.2727	0.	1017.8
14274	19.243	5.1818	0.	1038.
14275	19.243	5.2727	5.e-002	7.3562
14276	19.518	5.2727	0.	976.75
14277	19.426	5.1818	0.	996.97
14278	19.426	5.2727	5.e-002	7.3299
14279	19.701	5.2727	0.	935.93
14280	19.609	5.1818	0.	956.13
14281	19.609	5.2727	5.e-002	7.3045
14282	19.884	5.2727	0.	895.31
14283	19.792	5.1818	0.	915.49
14284	19.792	5.2727	5.e-002	7.2801
14285	20.067	5.2727	0.	854.88
14286	19.975	5.1818	0.	875.05
14287	19.975	5.2727	5.e-002	7.2568
14288	20.25	5.2727	0.	814.65
14289	20.158	5.1818	0.	834.82
14290	20.158	5.2727	5.e-002	7.2346
14291	20.433	5.2727	0.	774.63
14292	20.341	5.1818	0.	794.8
14293	20.341	5.2727	5.e-002	7.2136
14294	20.616	5.2727	0.	734.81
14295	20.524	5.1818	0.	754.99
14296	20.524	5.2727	5.e-002	7.1939
14297	20.798	5.2727	0.	695.19
14298	20.707	5.1818	0.	715.4
14299	20.707	5.2727	5.e-002	7.1756
14300	20.981	5.2727	0.	655.79
14301	20.89	5.1818	0.	676.03
14302	20.89	5.2727	5.e-002	7.1586
14303	21.164	5.2727	0.	616.6
14304	21.073	5.1818	0.	636.89
14305	21.073	5.2727	5.e-002	7.1432
14306	21.347	5.2727	0.	577.65
14307	21.256	5.1818	0.	597.99
14308	21.256	5.2727	5.e-002	7.1296
14309	21.53	5.2727	0.	538.94
14310	21.439	5.1818	0.	559.34
14311	21.439	5.2727	5.e-002	7.1177
14312	21.713	5.2727	0.	500.49
14313	21.622	5.1818	0.	520.97
14314	21.622	5.2727	5.e-002	7.1078
14315	21.896	5.2727	0.	462.33
14316	21.805	5.1818	0.	482.9
14317	21.805	5.2727	5.e-002	7.1002
14318	22.079	5.2727	0.	424.51
14319	21.988	5.1818	0.	445.17
14320	21.988	5.2727	5.e-002	7.0952
14321	22.262	5.2727	0.	387.06
14322	22.171	5.1818	0.	407.83
14323	22.171	5.2727	5.e-002	7.0932
14324	22.445	5.2727	0.	350.09
14325	22.353	5.1818	0.	370.96
14326	22.353	5.2727	5.e-002	7.095
14327	22.628	5.2727	0.	313.7
14328	22.536	5.1818	0.	334.66
14329	22.536	5.2727	5.e-002	7.1015
14330	22.811	5.2727	0.	278.08
14331	22.719	5.1818	0.	299.08
14332	22.719	5.2727	5.e-002	7.1147
14333	22.994	5.2727	0.	243.48
14334	22.902	5.1818	0.	264.45
14335	22.902	5.2727	5.e-002	7.1371
14336	23.177	5.2727	0.	210.33
14337	23.085	5.1818	0.	231.1
14338	23.085	5.2727	5.e-002	7.1737
14339	23.36	5.2727	0.	179.27
14340	23.268	5.1818	0.	199.55
14341	23.268	5.2727	5.e-002	7.2329
14342	23.543	5.2727	0.	151.31
14343	23.451	5.1818	0.	170.55
14344	23.451	5.2727	5.e-002	7.3281
14345	23.726	5.2727	0.	128.06
14346	23.634	5.1818	0.	145.32
14347	23.634	5.2727	5.e-002	7.4909
14348	23.817	5.1818	0.	125.76
14349	23.817	5.2727	5.e-002	7.925
14350	23.909	5.2727	0.	110.7
14351	8.5411	5.0909	0.	2422.2
14352	8.4496	5.	0.	2840.6
14353	8.4496	5.0909	5.e-002	122.38
14354	8.3581	5.0909	0.	2032.3
14355	8.724	5.0909	0.	2414.5
14356	8.6326	5.	0.	2662.2
14357	8.6326	5.0909	5.e-002	85.374
14358	8.907	5.0909	0.	2531.5
14359	8.8155	5.	0.	2702.9
14360	8.8155	5.0909	5.e-002	71.966
14361	9.0899	5.0909	0.	2667.6
14362	8.9985	5.	0.	2787.8
14363	8.9985	5.0909	5.e-002	58.465
14364	9.2729	5.0909	0.	2792.7
14365	9.1814	5.	0.	2879.1
14366	9.1814	5.0909	5.e-002	46.384
14367	9.4558	5.0909	0.	2895.3
14368	9.3643	5.	0.	2960.
14369	9.3643	5.0909	5.e-002	36.297
14370	9.6388	5.0909	0.	2972.7
14371	9.5473	5.	0.	3023.4
14372	9.5473	5.0909	5.e-002	28.173
14373	9.8217	5.0909	0.	3026.4
14374	9.7302	5.	0.	3068.1
14375	9.7302	5.0909	5.e-002	21.74
14376	10.005	5.0909	0.	3059.5
14377	9.9132	5.	0.	3095.
14378	9.9132	5.0909	5.e-002	16.717
14379	10.188	5.0909	0.	3075.2
14380	10.096	5.	0.	3106.6
14381	10.096	5.0909	5.e-002	12.882
14382	10.371	5.0909	0.	3076.7
14383	10.279	5.	0.	3105.3
14384	10.279	5.0909	5.e-002	10.08
14385	10.553	5.0909	0.	3067.
14386	10.462	5.	0.	3093.5
14387	10.462	5.0909	5.e-002	8.2029
14388	10.736	5.0909	0.	3048.3
14389	10.645	5.	0.	3073.3
14390	10.645	5.0909	5.e-002	7.1369
14391	10.919	5.0909	0.	3022.6
14392	10.828	5.	0.	3046.4
14393	10.828	5.0909	5.e-002	6.7085
14394	11.102	5.0909	0.	2991.5
14395	11.011	5.	0.	3014.5
14396	11.011	5.0909	5.e-002	6.6946
14397	11.285	5.0909	0.	2956.3
14398	11.194	5.	0.	2978.6
14399	11.194	5.0909	5.e-002	6.8939
14400	11.468	5.0909	0.	2917.9
14401	11.377	5.	0.	2939.7
14402	11.377	5.0909	5.e-002	7.1719
14403	11.651	5.0909	0.	2877.2
14404	11.56	5.	0.	2898.6
14405	11.56	5.0909	5.e-002	7.4554
14406	11.834	5.0909	0.	2834.7
14407	11.743	5.	0.	2855.8
14408	11.743	5.0909	5.e-002	7.7105
14409	12.017	5.0909	0.	2790.9
14410	11.926	5.	0.	2811.8
14411	11.926	5.0909	5.e-002	7.925
14412	12.2	5.0909	0.	2746.2
14413	12.109	5.	0.	2767.
14414	12.109	5.0909	5.e-002	8.0967
14415	12.383	5.0909	0.	2700.8
14416	12.291	5.	0.	2721.5
14417	12.291	5.0909	5.e-002	8.2284
14418	12.566	5.0909	0.	2655.
14419	12.474	5.	0.	2675.6
14420	12.474	5.0909	5.e-002	8.3255
14421	12.749	5.0909	0.	2608.9
14422	12.657	5.	0.	2629.5
14423	12.657	5.0909	5.e-002	8.3931
14424	12.932	5.0909	0.	2562.6
14425	12.84	5.	0.	2583.2
14426	12.84	5.0909	5.e-002	8.4362
14427	13.115	5.0909	0.	2516.2
14428	13.023	5.	0.	2536.8
14429	13.023	5.0909	5.e-002	8.4595
14430	13.298	5.0909	0.	2469.8
14431	13.206	5.	0.	2490.5
14432	13.206	5.0909	5.e-002	8.4671
14433	13.481	5.0909	0.	2423.4
14434	13.389	5.	0.	2444.1
14435	13.389	5.0909	5.e-002	8.4622
14436	13.664	5.0909	0.	2377.1
14437	13.572	5.	0.	2397.8
14438	13.572	5.0909	5.e-002	8.4475
14439	13.847	5.0909	0.	2330.8
14440	13.755	5.	0.	2351.6
14441	13.755	5.0909	5.e-002	8.4251
14442	14.029	5.0909	0.	2284.6
14443	13.938	5.	0.	2305.5
14444	13.938	5.0909	5.e-002	8.3971
14445	14.212	5.0909	0.	2238.6
14446	14.121	5.	0.	2259.5
14447	14.121	5.0909	5.e-002	8.3649
14448	14.395	5.0909	0.	2192.7
14449	14.304	5.	0.	2213.6
14450	14.304	5.0909	5.e-002	8.3294
14451	14.578	5.0909	0.	2146.9
14452	14.487	5.	0.	2167.9
14453	14.487	5.0909	5.e-002	8.2917
14454	14.761	5.0909	0.	2101.3
14455	14.67	5.	0.	2122.3
14456	14.67	5.0909	5.e-002	8.2525
14457	14.944	5.0909	0.	2055.9
14458	14.853	5.	0.	2076.8
14459	14.853	5.0909	5.e-002	8.2124
14460	15.127	5.0909	0.	2010.6
14461	15.036	5.	0.	2031.5
14462	15.036	5.0909	5.e-002	8.1716
14463	15.31	5.0909	0.	1965.4
14464	15.219	5.	0.	1986.4
14465	15.219	5.0909	5.e-002	8.1305
14466	15.493	5.0909	0.	1920.4
14467	15.402	5.	0.	1941.4
14468	15.402	5.0909	5.e-002	8.0896
14469	15.676	5.0909	0.	1875.6
14470	15.584	5.	0.	1896.6
14471	15.584	5.0909	5.e-002	8.049
14472	15.859	5.0909	0.	1830.9
14473	15.767	5.	0.	1851.9
14474	15.767	5.0909	5.e-002	8.0086
14475	16.042	5.0909	0.	1786.4
14476	15.95	5.	0.	1807.4
14477	15.95	5.0909	5.e-002	7.9686
14478	16.225	5.0909	0.	1742.1
14479	16.133	5.	0.	1763.1
14480	16.133	5.0909	5.e-002	7.9292
14481	16.408	5.0909	0.	1698.
14482	16.316	5.	0.	1718.9
14483	16.316	5.0909	5.e-002	7.8904
14484	16.591	5.0909	0.	1654.
14485	16.499	5.	0.	1674.9
14486	16.499	5.0909	5.e-002	7.8521
14487	16.774	5.0909	0.	1610.3
14488	16.682	5.	0.	1631.1
14489	16.682	5.0909	5.e-002	7.8145
14490	16.957	5.0909	0.	1566.7
14491	16.865	5.	0.	1587.5
14492	16.865	5.0909	5.e-002	7.7777
14493	17.14	5.0909	0.	1523.3
14494	17.048	5.	0.	1544.
14495	17.048	5.0909	5.e-002	7.7415
14496	17.322	5.0909	0.	1480.
14497	17.231	5.	0.	1500.8
14498	17.231	5.0909	5.e-002	7.7058
14499	17.505	5.0909	0.	1437.
14500	17.414	5.	0.	1457.7
14501	17.414	5.0909	5.e-002	7.6709
14502	17.688	5.0909	0.	1394.1
14503	17.597	5.	0.	1414.8
14504	17.597	5.0909	5.e-002	7.6368
14505	17.871	5.0909	0.	1351.5
14506	17.78	5.	0.	1372.1
14507	17.78	5.0909	5.e-002	7.6034
14508	18.054	5.0909	0.	1309.
14509	17.963	5.	0.	1329.6
14510	17.963	5.0909	5.e-002	7.5706
14511	18.237	5.0909	0.	1266.7
14512	18.146	5.	0.	1287.3
14513	18.146	5.0909	5.e-002	7.5385
14514	18.42	5.0909	0.	1224.7
14515	18.329	5.	0.	1245.1
14516	18.329	5.0909	5.e-002	7.5073
14517	18.603	5.0909	0.	1182.8
14518	18.512	5.	0.	1203.2
14519	18.512	5.0909	5.e-002	7.4768
14520	18.786	5.0909	0.	1141.1
14521	18.695	5.	0.	1161.5
14522	18.695	5.0909	5.e-002	7.4471
14523	18.969	5.0909	0.	1099.6
14524	18.878	5.	0.	1120.
14525	18.878	5.0909	5.e-002	7.4182
14526	19.152	5.0909	0.	1058.4
14527	19.06	5.	0.	1078.6
14528	19.06	5.0909	5.e-002	7.3903
14529	19.335	5.0909	0.	1017.3
14530	19.243	5.	0.	1037.5
14531	19.243	5.0909	5.e-002	7.3632
14532	19.518	5.0909	0.	976.41
14533	19.426	5.	0.	996.64
14534	19.426	5.0909	5.e-002	7.337
14535	19.701	5.0909	0.	935.75
14536	19.609	5.	0.	955.95
14537	19.609	5.0909	5.e-002	7.3119
14538	19.884	5.0909	0.	895.3
14539	19.792	5.	0.	915.48
14540	19.792	5.0909	5.e-002	7.2878
14541	20.067	5.0909	0.	855.06
14542	19.975	5.	0.	875.23
14543	19.975	5.0909	5.e-002	7.2649
14544	20.25	5.0909	0.	815.04
14545	20.158	5.	0.	835.2
14546	20.158	5.0909	5.e-002	7.2431
14547	20.433	5.0909	0.	775.24
14548	20.341	5.	0.	795.39
14549	20.341	5.0909	5.e-002	7.2227
14550	20.616	5.0909	0.	735.66
14551	20.524	5.	0.	755.82
14552	20.524	5.0909	5.e-002	7.2036
14553	20.798	5.0909	0.	696.32
14554	20.707	5.	0.	716.49
14555	20.707	5.0909	5.e-002	7.1859
14556	20.981	5.0909	0.	657.22
14557	20.89	5.	0.	677.41
14558	20.89	5.0909	5.e-002	7.1698
14559	21.164	5.0909	0.	618.36
14560	21.073	5.	0.	638.58
14561	21.073	5.0909	5.e-002	7.1555
14562	21.347	5.0909	0.	579.78
14563	21.256	5.	0.	600.04
14564	21.256	5.0909	5.e-002	7.1431
14565	21.53	5.0909	0.	541.48
14566	21.439	5.	0.	561.78
14567	21.439	5.0909	5.e-002	7.1327
14568	21.713	5.0909	0.	503.49
14569	21.622	5.	0.	523.84
14570	21.622	5.0909	5.e-002	7.1246
14571	21.896	5.0909	0.	465.86
14572	21.805	5.	0.	486.26
14573	21.805	5.0909	5.e-002	7.1192
14574	22.079	5.0909	0.	428.62
14575	21.988	5.	0.	449.08
14576	21.988	5.0909	5.e-002	7.1169
14577	22.262	5.0909	0.	391.85
14578	22.171	5.	0.	412.36
14579	22.171	5.0909	5.e-002	7.1182
14580	22.445	5.0909	0.	355.64
14581	22.353	5.	0.	376.18
14582	22.353	5.0909	5.e-002	7.1241
14583	22.628	5.0909	0.	320.14
14584	22.536	5.	0.	340.67
14585	22.536	5.0909	5.e-002	7.1358
14586	22.811	5.0909	0.	285.53
14587	22.719	5.	0.	305.98
14588	22.719	5.0909	5.e-002	7.1552
14589	22.994	5.0909	0.	252.09
14590	22.902	5.	0.	272.36
14591	22.902	5.0909	5.e-002	7.1852
14592	23.177	5.0909	0.	220.24
14593	23.085	5.	0.	240.13
14594	23.085	5.0909	5.e-002	7.2303
14595	23.36	5.0909	0.	190.56
14596	23.268	5.	0.	209.78
14597	23.268	5.0909	5.e-002	7.2973
14598	23.543	5.0909	0.	163.96
14599	23.451	5.	0.	182.01
14600	23.451	5.0909	5.e-002	7.3952
14601	23.726	5.0909	0.	141.82
14602	23.634	5.	0.	157.86
14603	23.634	5.0909	5.e-002	7.5442
14604	23.817	5.	0.	139.01
14605	23.817	5.0909	5.e-002	7.9167
14606	23.909	5.0909	0.	125.35
14607	8.5411	4.9091	0.	3011.3
14608	8.4496	4.8182	0.	3567.1
14609	8.4496	4.9091	5.e-002	147.48
14610	8.3581	4.9091	0.	2554.5
14611	8.724	4.9091	0.	2903.3
14612	8.6326	4.8182	0.	3255.5
14613	8.6326	4.9091	5.e-002	96.737
14614	8.907	4.9091	0.	2929.2
14615	8.8155	4.8182	0.	3183.9
14616	8.8155	4.9091	5.e-002	76.69
14617	9.0899	4.9091	0.	2981.6
14618	8.9985	4.8182	0.	3165.9
14619	8.9985	4.9091	5.e-002	59.079
14620	9.2729	4.9091	0.	3036.2
14621	9.1814	4.8182	0.	3170.7
14622	9.1814	4.9091	5.e-002	45.292
14623	9.4558	4.9091	0.	3082.3
14624	9.3643	4.8182	0.	3182.8
14625	9.3643	4.9091	5.e-002	34.976
14626	9.6388	4.9091	0.	3115.5
14627	9.5473	4.8182	0.	3192.7
14628	9.5473	4.9091	5.e-002	27.283
14629	9.8217	4.9091	0.	3134.8
14630	9.7302	4.8182	0.	3196.1
14631	9.7302	4.9091	5.e-002	21.51
14632	10.005	4.9091	0.	3141.1
14633	9.9132	4.8182	0.	3191.4
14634	9.9132	4.9091	5.e-002	17.168
14635	10.188	4.9091	0.	3136.2
14636	10.096	4.8182	0.	3178.6
14637	10.096	4.9091	5.e-002	13.942
14638	10.371	4.9091	0.	3121.8
14639	10.279	4.8182	0.	3158.5
14640	10.279	4.9091	5.e-002	11.619
14641	10.553	4.9091	0.	3099.6
14642	10.462	4.8182	0.	3132.1
14643	10.462	4.9091	5.e-002	10.038
14644	10.736	4.9091	0.	3071.3
14645	10.645	4.8182	0.	3100.8
14646	10.645	4.9091	5.e-002	9.0476
14647	10.919	4.9091	0.	3038.3
14648	10.828	4.8182	0.	3065.4
14649	10.828	4.9091	5.e-002	8.4983
14650	11.102	4.9091	0.	3001.5
14651	11.011	4.8182	0.	3026.9
14652	11.011	4.9091	5.e-002	8.2476
14653	11.285	4.9091	0.	2962.
14654	11.194	4.8182	0.	2986.
14655	11.194	4.9091	5.e-002	8.1781
14656	11.468	4.9091	0.	2920.4
14657	11.377	4.8182	0.	2943.4
14658	11.377	4.9091	5.e-002	8.2055
14659	11.651	4.9091	0.	2877.2
14660	11.56	4.8182	0.	2899.5
14661	11.56	4.9091	5.e-002	8.2756
14662	11.834	4.9091	0.	2833.
14663	11.743	4.8182	0.	2854.7
14664	11.743	4.9091	5.e-002	8.3572
14665	12.017	4.9091	0.	2787.9
14666	11.926	4.8182	0.	2809.3
14667	11.926	4.9091	5.e-002	8.4334
14668	12.2	4.9091	0.	2742.3
14669	12.109	4.8182	0.	2763.4
14670	12.109	4.9091	5.e-002	8.4962
14671	12.383	4.9091	0.	2696.4
14672	12.291	4.8182	0.	2717.2
14673	12.291	4.9091	5.e-002	8.5427
14674	12.566	4.9091	0.	2650.2
14675	12.474	4.8182	0.	2670.9
14676	12.474	4.9091	5.e-002	8.5731
14677	12.749	4.9091	0.	2603.9
14678	12.657	4.8182	0.	2624.5
14679	12.657	4.9091	5.e-002	8.5886
14680	12.932	4.9091	0.	2557.5
14681	12.84	4.8182	0.	2578.1
14682	12.84	4.9091	5.e-002	8.591
14683	13.115	4.9091	0.	2511.1
14684	13.023	4.8182	0.	2531.8
14685	13.023	4.9091	5.e-002	8.5824
14686	13.298	4.9091	0.	2464.8
14687	13.206	4.8182	0.	2485.5
14688	13.206	4.9091	5.e-002	8.5651
14689	13.481	4.9091	0.	2418.5
14690	13.389	4.8182	0.	2439.2
14691	13.389	4.9091	5.e-002	8.5407
14692	13.664	4.9091	0.	2372.4
14693	13.572	4.8182	0.	2393.1
14694	13.572	4.9091	5.e-002	8.5106
14695	13.847	4.9091	0.	2326.3
14696	13.755	4.8182	0.	2347.1
14697	13.755	4.9091	5.e-002	8.4762
14698	14.029	4.9091	0.	2280.3
14699	13.938	4.8182	0.	2301.2
14700	13.938	4.9091	5.e-002	8.4387
14701	14.212	4.9091	0.	2234.5
14702	14.121	4.8182	0.	2255.4
14703	14.121	4.9091	5.e-002	8.399
14704	14.395	4.9091	0.	2188.8
14705	14.304	4.8182	0.	2209.7
14706	14.304	4.9091	5.e-002	8.3576
14707	14.578	4.9091	0.	2143.2
14708	14.487	4.8182	0.	2164.2
14709	14.487	4.9091	5.e-002	8.3152
14710	14.761	4.9091	0.	2097.8
14711	14.67	4.8182	0.	2118.8
14712	14.67	4.9091	5.e-002	8.2723
14713	14.944	4.9091	0.	2052.5
14714	14.853	4.8182	0.	2073.5
14715	14.853	4.9091	5.e-002	8.2292
14716	15.127	4.9091	0.	2007.4
14717	15.036	4.8182	0.	2028.4
14718	15.036	4.9091	5.e-002	8.186
14719	15.31	4.9091	0.	1962.4
14720	15.219	4.8182	0.	1983.4
14721	15.219	4.9091	5.e-002	8.143
14722	15.493	4.9091	0.	1917.6
14723	15.402	4.8182	0.	1938.6
14724	15.402	4.9091	5.e-002	8.1006
14725	15.676	4.9091	0.	1872.9
14726	15.584	4.8182	0.	1893.9
14727	15.584	4.9091	5.e-002	8.0587
14728	15.859	4.9091	0.	1828.4
14729	15.767	4.8182	0.	1849.4
14730	15.767	4.9091	5.e-002	8.0172
14731	16.042	4.9091	0.	1784.1
14732	15.95	4.8182	0.	1805.1
14733	15.95	4.9091	5.e-002	7.9764
14734	16.225	4.9091	0.	1739.9
14735	16.133	4.8182	0.	1760.9
14736	16.133	4.9091	5.e-002	7.9363
14737	16.408	4.9091	0.	1695.9
14738	16.316	4.8182	0.	1716.8
14739	16.316	4.9091	5.e-002	7.897
14740	16.591	4.9091	0.	1652.
14741	16.499	4.8182	0.	1673.
14742	16.499	4.9091	5.e-002	7.8582
14743	16.774	4.9091	0.	1608.4
14744	16.682	4.8182	0.	1629.3
14745	16.682	4.9091	5.e-002	7.8202
14746	16.957	4.9091	0.	1564.9
14747	16.865	4.8182	0.	1585.7
14748	16.865	4.9091	5.e-002	7.7831
14749	17.14	4.9091	0.	1521.6
14750	17.048	4.8182	0.	1542.4
14751	17.048	4.9091	5.e-002	7.7466
14752	17.322	4.9091	0.	1478.5
14753	17.231	4.8182	0.	1499.2
14754	17.231	4.9091	5.e-002	7.7107
14755	17.505	4.9091	0.	1435.5
14756	17.414	4.8182	0.	1456.2
14757	17.414	4.9091	5.e-002	7.6757
14758	17.688	4.9091	0.	1392.8
14759	17.597	4.8182	0.	1413.5
14760	17.597	4.9091	5.e-002	7.6414
14761	17.871	4.9091	0.	1350.2
14762	17.78	4.8182	0.	1370.8
14763	17.78	4.9091	5.e-002	7.6079
14764	18.054	4.9091	0.	1307.9
14765	17.963	4.8182	0.	1328.4
14766	17.963	4.9091	5.e-002	7.575
14767	18.237	4.9091	0.	1265.7
14768	18.146	4.8182	0.	1286.2
14769	18.146	4.9091	5.e-002	7.5429
14770	18.42	4.9091	0.	1223.7
14771	18.329	4.8182	0.	1244.2
14772	18.329	4.9091	5.e-002	7.5117
14773	18.603	4.9091	0.	1182.
14774	18.512	4.8182	0.	1202.4
14775	18.512	4.9091	5.e-002	7.4813
14776	18.786	4.9091	0.	1140.4
14777	18.695	4.8182	0.	1160.8
14778	18.695	4.9091	5.e-002	7.4516
14779	18.969	4.9091	0.	1099.
14780	18.878	4.8182	0.	1119.4
14781	18.878	4.9091	5.e-002	7.4228
14782	19.152	4.9091	0.	1057.9
14783	19.06	4.8182	0.	1078.2
14784	19.06	4.9091	5.e-002	7.395
14785	19.335	4.9091	0.	1017.
14786	19.243	4.8182	0.	1037.2
14787	19.243	4.9091	5.e-002	7.3681
14788	19.518	4.9091	0.	976.25
14789	19.426	4.8182	0.	996.47
14790	19.426	4.9091	5.e-002	7.3422
14791	19.701	4.9091	0.	935.75
14792	19.609	4.8182	0.	955.94
14793	19.609	4.9091	5.e-002	7.3173
14794	19.884	4.9091	0.	895.48
14795	19.792	4.8182	0.	915.64
14796	19.792	4.9091	5.e-002	7.2935
14797	20.067	4.9091	0.	855.43
14798	19.975	4.8182	0.	875.57
14799	19.975	4.9091	5.e-002	7.271
14800	20.25	4.9091	0.	815.62
14801	20.158	4.8182	0.	835.74
14802	20.158	4.9091	5.e-002	7.2496
14803	20.433	4.9091	0.	776.05
14804	20.341	4.8182	0.	796.16
14805	20.341	4.9091	5.e-002	7.2297
14806	20.616	4.9091	0.	736.73
14807	20.524	4.8182	0.	756.82
14808	20.524	4.9091	5.e-002	7.2112
14809	20.798	4.9091	0.	697.66
14810	20.707	4.8182	0.	717.75
14811	20.707	4.9091	5.e-002	7.1943
14812	20.981	4.9091	0.	658.86
14813	20.89	4.8182	0.	678.95
14814	20.89	4.9091	5.e-002	7.1791
14815	21.164	4.9091	0.	620.34
14816	21.073	4.8182	0.	640.44
14817	21.073	4.9091	5.e-002	7.1659
14818	21.347	4.9091	0.	582.12
14819	21.256	4.8182	0.	602.24
14820	21.256	4.9091	5.e-002	7.1547
14821	21.53	4.9091	0.	544.23
14822	21.439	4.8182	0.	564.37
14823	21.439	4.9091	5.e-002	7.1458
14824	21.713	4.9091	0.	506.7
14825	21.622	4.8182	0.	526.86
14826	21.622	4.9091	5.e-002	7.1396
14827	21.896	4.9091	0.	469.57
14828	21.805	4.8182	0.	489.74
14829	21.805	4.9091	5.e-002	7.1364
14830	22.079	4.9091	0.	432.9
14831	21.988	4.8182	0.	453.08
14832	21.988	4.9091	5.e-002	7.1367
14833	22.262	4.9091	0.	396.77
14834	22.171	4.8182	0.	416.93
14835	22.171	4.9091	5.e-002	7.1413
14836	22.445	4.9091	0.	361.27
14837	22.353	4.8182	0.	381.4
14838	22.353	4.9091	5.e-002	7.151
14839	22.628	4.9091	0.	326.56
14840	22.536	4.8182	0.	346.59
14841	22.536	4.9091	5.e-002	7.1673
14842	22.811	4.9091	0.	292.82
14843	22.719	4.8182	0.	312.68
14844	22.719	4.9091	5.e-002	7.192
14845	22.994	4.9091	0.	260.34
14846	22.902	4.8182	0.	279.9
14847	22.902	4.9091	5.e-002	7.2279
14848	23.177	4.9091	0.	229.5
14849	23.085	4.8182	0.	248.56
14850	23.085	4.9091	5.e-002	7.2786
14851	23.36	4.9091	0.	200.84
14852	23.268	4.8182	0.	219.12
14853	23.268	4.9091	5.e-002	7.3493
14854	23.543	4.9091	0.	175.2
14855	23.451	4.8182	0.	192.22
14856	23.451	4.9091	5.e-002	7.4456
14857	23.726	4.9091	0.	153.82
14858	23.634	4.8182	0.	168.85
14859	23.634	4.9091	5.e-002	7.581
14860	23.817	4.8182	0.	150.49
14861	23.817	4.9091	5.e-002	7.9006
14862	23.909	4.9091	0.	138.
14863	8.5411	4.7273	0.	3728.2
14864	8.4496	4.6364	0.	4494.9
14865	8.4496	4.7273	5.e-002	185.93
14866	8.3581	4.7273	0.	3201.9
14867	8.724	4.7273	0.	3482.1
14868	8.6326	4.6364	0.	3968.3
14869	8.6326	4.7273	5.e-002	110.99
14870	8.907	4.7273	0.	3387.3
14871	8.8155	4.6364	0.	3735.7
14872	8.8155	4.7273	5.e-002	81.549
14873	9.0899	4.7273	0.	3335.6
14874	8.9985	4.6364	0.	3584.2
14875	8.9985	4.7273	5.e-002	58.787
14876	9.2729	4.7273	0.	3306.1
14877	9.1814	4.6364	0.	3487.
14878	9.1814	4.7273	5.e-002	44.102
14879	9.4558	4.7273	0.	3286.8
14880	9.3643	4.6364	0.	3421.4
14881	9.3643	4.7273	5.e-002	34.213
14882	9.6388	4.7273	0.	3269.8
14883	9.5473	4.6364	0.	3372.4
14884	9.5473	4.7273	5.e-002	27.32
14885	9.8217	4.7273	0.	3250.7
14886	9.7302	4.6364	0.	3331.1
14887	9.7302	4.7273	5.e-002	22.292
14888	10.005	4.7273	0.	3227.7
14889	9.9132	4.6364	0.	3292.3
14890	9.9132	4.7273	5.e-002	18.534
14891	10.188	4.7273	0.	3200.3
14892	10.096	4.6364	0.	3253.4
14893	10.096	4.7273	5.e-002	15.711
14894	10.371	4.7273	0.	3168.6
14895	10.279	4.6364	0.	3213.3
14896	10.279	4.7273	5.e-002	13.61
14897	10.553	4.7273	0.	3133.2
14898	10.462	4.6364	0.	3171.7
14899	10.462	4.7273	5.e-002	12.079
14900	10.736	4.7273	0.	3094.8
14901	10.645	4.6364	0.	3128.6
14902	10.645	4.7273	5.e-002	10.995
14903	10.919	4.7273	0.	3054.
14904	10.828	4.6364	0.	3084.4
14905	10.828	4.7273	5.e-002	10.252
14906	11.102	4.7273	0.	3011.4
14907	11.011	4.6364	0.	3039.1
14908	11.011	4.7273	5.e-002	9.7572
14909	11.285	4.7273	0.	2967.5
14910	11.194	4.6364	0.	2993.2
14911	11.194	4.7273	5.e-002	9.4367
14912	11.468	4.7273	0.	2922.6
14913	11.377	4.6364	0.	2946.8
14914	11.377	4.7273	5.e-002	9.2323
14915	11.651	4.7273	0.	2877.
14916	11.56	4.6364	0.	2900.2
14917	11.56	4.7273	5.e-002	9.1018
14918	11.834	4.7273	0.	2831.
14919	11.743	4.6364	0.	2853.4
14920	11.743	4.7273	5.e-002	9.0162
14921	12.017	4.7273	0.	2784.7
14922	11.926	4.6364	0.	2806.5
14923	11.926	4.7273	5.e-002	8.9565
14924	12.2	4.7273	0.	2738.3
14925	12.109	4.6364	0.	2759.6
14926	12.109	4.7273	5.e-002	8.9103
14927	12.383	4.7273	0.	2691.8
14928	12.291	4.6364	0.	2712.9
14929	12.291	4.7273	5.e-002	8.8701
14930	12.566	4.7273	0.	2645.3
14931	12.474	4.6364	0.	2666.2
14932	12.474	4.7273	5.e-002	8.832
14933	12.749	4.7273	0.	2598.8
14934	12.657	4.6364	0.	2619.6
14935	12.657	4.7273	5.e-002	8.7935
14936	12.932	4.7273	0.	2552.5
14937	12.84	4.6364	0.	2573.1
14938	12.84	4.7273	5.e-002	8.7535
14939	13.115	4.7273	0.	2506.1
14940	13.023	4.6364	0.	2526.8
14941	13.023	4.7273	5.e-002	8.7115
14942	13.298	4.7273	0.	2459.9
14943	13.206	4.6364	0.	2480.6
14944	13.206	4.7273	5.e-002	8.6679
14945	13.481	4.7273	0.	2413.8
14946	13.389	4.6364	0.	2434.5
14947	13.389	4.7273	5.e-002	8.6229
14948	13.664	4.7273	0.	2367.8
14949	13.572	4.6364	0.	2388.6
14950	13.572	4.7273	5.e-002	8.5766
14951	13.847	4.7273	0.	2322.
14952	13.755	4.6364	0.	2342.8
14953	13.755	4.7273	5.e-002	8.5294
14954	14.029	4.7273	0.	2276.2
14955	13.938	4.6364	0.	2297.1
14956	13.938	4.7273	5.e-002	8.4819
14957	14.212	4.7273	0.	2230.6
14958	14.121	4.6364	0.	2251.5
14959	14.121	4.7273	5.e-002	8.4342
14960	14.395	4.7273	0.	2185.1
14961	14.304	4.6364	0.	2206.
14962	14.304	4.7273	5.e-002	8.3865
14963	14.578	4.7273	0.	2139.7
14964	14.487	4.6364	0.	2160.7
14965	14.487	4.7273	5.e-002	8.3391
14966	14.761	4.7273	0.	2094.5
14967	14.67	4.6364	0.	2115.5
14968	14.67	4.7273	5.e-002	8.2922
14969	14.944	4.7273	0.	2049.4
14970	14.853	4.6364	0.	2070.4
14971	14.853	4.7273	5.e-002	8.246
14972	15.127	4.7273	0.	2004.5
14973	15.036	4.6364	0.	2025.5
14974	15.036	4.7273	5.e-002	8.2003
14975	15.31	4.7273	0.	1959.6
14976	15.219	4.6364	0.	1980.7
14977	15.219	4.7273	5.e-002	8.1553
14978	15.493	4.7273	0.	1915.
14979	15.402	4.6364	0.	1936.
14980	15.402	4.7273	5.e-002	8.1112
14981	15.676	4.7273	0.	1870.5
14982	15.584	4.6364	0.	1891.5
14983	15.584	4.7273	5.e-002	8.068
14984	15.859	4.7273	0.	1826.1
14985	15.767	4.6364	0.	1847.1
14986	15.767	4.7273	5.e-002	8.0255
14987	16.042	4.7273	0.	1781.9
14988	15.95	4.6364	0.	1802.9
14989	15.95	4.7273	5.e-002	7.9838
14990	16.225	4.7273	0.	1737.8
14991	16.133	4.6364	0.	1758.8
14992	16.133	4.7273	5.e-002	7.943
14993	16.408	4.7273	0.	1693.9
14994	16.316	4.6364	0.	1714.9
14995	16.316	4.7273	5.e-002	7.9031
14996	16.591	4.7273	0.	1650.2
14997	16.499	4.6364	0.	1671.2
14998	16.499	4.7273	5.e-002	7.8639
14999	16.774	4.7273	0.	1606.7
15000	16.682	4.6364	0.	1627.6
15001	16.682	4.7273	5.e-002	7.8255
15002	16.957	4.7273	0.	1563.3
15003	16.865	4.6364	0.	1584.2
15004	16.865	4.7273	5.e-002	7.788
15005	17.14	4.7273	0.	1520.1
15006	17.048	4.6364	0.	1540.9
15007	17.048	4.7273	5.e-002	7.7512
15008	17.322	4.7273	0.	1477.1
15009	17.231	4.6364	0.	1497.8
15010	17.231	4.7273	5.e-002	7.7152
15011	17.505	4.7273	0.	1434.2
15012	17.414	4.6364	0.	1455.
15013	17.414	4.7273	5.e-002	7.6799
15014	17.688	4.7273	0.	1391.6
15015	17.597	4.6364	0.	1412.3
15016	17.597	4.7273	5.e-002	7.6456
15017	17.871	4.7273	0.	1349.1
15018	17.78	4.6364	0.	1369.8
15019	17.78	4.7273	5.e-002	7.6119
15020	18.054	4.7273	0.	1306.9
15021	17.963	4.6364	0.	1327.5
15022	17.963	4.7273	5.e-002	7.579
15023	18.237	4.7273	0.	1264.8
15024	18.146	4.6364	0.	1285.3
15025	18.146	4.7273	5.e-002	7.5469
15026	18.42	4.7273	0.	1222.9
15027	18.329	4.6364	0.	1243.4
15028	18.329	4.7273	5.e-002	7.5157
15029	18.603	4.7273	0.	1181.3
15030	18.512	4.6364	0.	1201.7
15031	18.512	4.7273	5.e-002	7.4853
15032	18.786	4.7273	0.	1139.8
15033	18.695	4.6364	0.	1160.2
15034	18.695	4.7273	5.e-002	7.4556
15035	18.969	4.7273	0.	1098.6
15036	18.878	4.6364	0.	1118.9
15037	18.878	4.7273	5.e-002	7.427
15038	19.152	4.7273	0.	1057.6
15039	19.06	4.6364	0.	1077.9
15040	19.06	4.7273	5.e-002	7.3993
15041	19.335	4.7273	0.	1016.8
15042	19.243	4.6364	0.	1037.
15043	19.243	4.7273	5.e-002	7.3725
15044	19.518	4.7273	0.	976.23
15045	19.426	4.6364	0.	996.43
15046	19.426	4.7273	5.e-002	7.3467
15047	19.701	4.7273	0.	935.9
15048	19.609	4.6364	0.	956.06
15049	19.609	4.7273	5.e-002	7.3221
15050	19.884	4.7273	0.	895.8
15051	19.792	4.6364	0.	915.92
15052	19.792	4.7273	5.e-002	7.2987
15053	20.067	4.7273	0.	855.94
15054	19.975	4.6364	0.	876.03
15055	19.975	4.7273	5.e-002	7.2765
15056	20.25	4.7273	0.	816.34
15057	20.158	4.6364	0.	836.4
15058	20.158	4.7273	5.e-002	7.2555
15059	20.433	4.7273	0.	776.99
15060	20.341	4.6364	0.	797.02
15061	20.341	4.7273	5.e-002	7.2361
15062	20.616	4.7273	0.	737.92
15063	20.524	4.6364	0.	757.92
15064	20.524	4.7273	5.e-002	7.2183
15065	20.798	4.7273	0.	699.12
15066	20.707	4.6364	0.	719.1
15067	20.707	4.7273	5.e-002	7.2021
15068	20.981	4.7273	0.	660.61
15069	20.89	4.6364	0.	680.58
15070	20.89	4.7273	5.e-002	7.1878
15071	21.164	4.7273	0.	622.42
15072	21.073	4.6364	0.	642.38
15073	21.073	4.7273	5.e-002	7.1755
15074	21.347	4.7273	0.	584.56
15075	21.256	4.6364	0.	604.51
15076	21.256	4.7273	5.e-002	7.1656
15077	21.53	4.7273	0.	547.07
15078	21.439	4.6364	0.	567.
15079	21.439	4.7273	5.e-002	7.1582
15080	21.713	4.7273	0.	509.97
15081	21.622	4.6364	0.	529.89
15082	21.622	4.7273	5.e-002	7.1538
15083	21.896	4.7273	0.	473.32
15084	21.805	4.6364	0.	493.21
15085	21.805	4.7273	5.e-002	7.1527
15086	22.079	4.7273	0.	437.17
15087	21.988	4.6364	0.	457.02
15088	21.988	4.7273	5.e-002	7.1555
15089	22.262	4.7273	0.	401.61
15090	22.171	4.6364	0.	421.4
15091	22.171	4.7273	5.e-002	7.1631
15092	22.445	4.7273	0.	366.75
15093	22.353	4.6364	0.	386.42
15094	22.353	4.7273	5.e-002	7.1762
15095	22.628	4.7273	0.	332.71
15096	22.536	4.6364	0.	352.22
15097	22.536	4.7273	5.e-002	7.1964
15098	22.811	4.7273	0.	299.71
15099	22.719	4.6364	0.	318.96
15100	22.719	4.7273	5.e-002	7.2254
15101	22.994	4.7273	0.	267.99
15102	22.902	4.6364	0.	286.86
15103	22.902	4.7273	5.e-002	7.2655
15104	23.177	4.7273	0.	237.93
15105	23.085	4.6364	0.	256.22
15106	23.085	4.7273	5.e-002	7.3196
15107	23.36	4.7273	0.	210.05
15108	23.268	4.6364	0.	227.48
15109	23.268	4.7273	5.e-002	7.3913
15110	23.543	4.7273	0.	185.11
15111	23.451	4.6364	0.	201.24
15112	23.451	4.7273	5.e-002	7.484
15113	23.726	4.7273	0.	164.29
15114	23.634	4.6364	0.	178.44
15115	23.634	4.7273	5.e-002	7.6072
15116	23.817	4.6364	0.	160.45
15117	23.817	4.7273	5.e-002	7.8815
15118	23.909	4.7273	0.	148.97
15119	8.5411	4.5455	0.	4628.5
15120	8.4496	4.4545	0.	5785.4
15121	8.4496	4.5455	5.e-002	235.56
15122	8.3581	4.5455	0.	4066.6
15123	8.724	4.5455	0.	4162.
15124	8.6326	4.4545	0.	4823.4
15125	8.6326	4.5455	5.e-002	138.22
15126	8.907	4.5455	0.	3899.4
15127	8.8155	4.4545	0.	4339.6
15128	8.8155	4.5455	5.e-002	82.996
15129	9.0899	4.5455	0.	3716.8
15130	8.9985	4.4545	0.	4026.4
15131	8.9985	4.5455	5.e-002	58.642
15132	9.2729	4.5455	0.	3591.6
15133	9.1814	4.4545	0.	3814.7
15134	9.1814	4.5455	5.e-002	44.148
15135	9.4558	4.5455	0.	3500.9
15136	9.3643	4.4545	0.	3666.8
15137	9.3643	4.5455	5.e-002	35.294
15138	9.6388	4.5455	0.	3430.3
15139	9.5473	4.4545	0.	3556.6
15140	9.5473	4.5455	5.e-002	29.046
15141	9.8217	4.5455	0.	3370.7
15142	9.7302	4.4545	0.	3469.
15143	9.7302	4.5455	5.e-002	24.412
15144	10.005	4.5455	0.	3316.9
15145	9.9132	4.4545	0.	3395.
15146	9.9132	4.5455	5.e-002	20.844
15147	10.188	4.5455	0.	3265.9
15148	10.096	4.4545	0.	3329.2
15149	10.096	4.5455	5.e-002	18.067
15150	10.371	4.5455	0.	3216.2
15151	10.279	4.4545	0.	3268.6
15152	10.279	4.5455	5.e-002	15.899
15153	10.553	4.5455	0.	3167.
15154	10.462	4.4545	0.	3211.3
15155	10.462	4.5455	5.e-002	14.217
15156	10.736	4.5455	0.	3118.2
15157	10.645	4.4545	0.	3156.3
15158	10.645	4.5455	5.e-002	12.923
15159	10.919	4.5455	0.	3069.5
15160	10.828	4.4545	0.	3103.
15161	10.828	4.5455	5.e-002	11.938
15162	11.102	4.5455	0.	3021.
15163	11.011	4.4545	0.	3051.
15164	11.011	4.5455	5.e-002	11.194
15165	11.285	4.5455	0.	2972.6
15166	11.194	4.4545	0.	3000.
15167	11.194	4.5455	5.e-002	10.636
15168	11.468	4.5455	0.	2924.5
15169	11.377	4.4545	0.	2949.9
15170	11.377	4.5455	5.e-002	10.217
15171	11.651	4.5455	0.	2876.6
15172	11.56	4.4545	0.	2900.6
15173	11.56	4.5455	5.e-002	9.9008
15174	11.834	4.5455	0.	2828.9
15175	11.743	4.4545	0.	2851.8
15176	11.743	4.5455	5.e-002	9.659
15177	12.017	4.5455	0.	2781.4
15178	11.926	4.4545	0.	2803.6
15179	11.926	4.5455	5.e-002	9.4707
15180	12.2	4.5455	0.	2734.2
15181	12.109	4.4545	0.	2755.9
15182	12.109	4.5455	5.e-002	9.3201
15183	12.383	4.5455	0.	2687.3
15184	12.291	4.4545	0.	2708.5
15185	12.291	4.5455	5.e-002	9.196
15186	12.566	4.5455	0.	2640.5
15187	12.474	4.4545	0.	2661.5
15188	12.474	4.5455	5.e-002	9.0909
15189	12.749	4.5455	0.	2593.9
15190	12.657	4.4545	0.	2614.8
15191	12.657	4.5455	5.e-002	8.9992
15192	12.932	4.5455	0.	2547.5
15193	12.84	4.4545	0.	2568.3
15194	12.84	4.5455	5.e-002	8.9169
15195	13.115	4.5455	0.	2501.3
15196	13.023	4.4545	0.	2522.
15197	13.023	4.5455	5.e-002	8.8416
15198	13.298	4.5455	0.	2455.2
15199	13.206	4.4545	0.	2476.
15200	13.206	4.5455	5.e-002	8.7717
15201	13.481	4.5455	0.	2409.3
15202	13.389	4.4545	0.	2430.
15203	13.389	4.5455	5.e-002	8.7058
15204	13.664	4.5455	0.	2363.5
15205	13.572	4.4545	0.	2384.3
15206	13.572	4.5455	5.e-002	8.6431
15207	13.847	4.5455	0.	2317.9
15208	13.755	4.4545	0.	2338.7
15209	13.755	4.5455	5.e-002	8.5829
15210	14.029	4.5455	0.	2272.3
15211	13.938	4.4545	0.	2293.2
15212	13.938	4.5455	5.e-002	8.5252
15213	14.212	4.5455	0.	2226.9
15214	14.121	4.4545	0.	2247.8
15215	14.121	4.5455	5.e-002	8.4694
15216	14.395	4.5455	0.	2181.6
15217	14.304	4.4545	0.	2202.6
15218	14.304	4.5455	5.e-002	8.4153
15219	14.578	4.5455	0.	2136.5
15220	14.487	4.4545	0.	2157.5
15221	14.487	4.5455	5.e-002	8.3628
15222	14.761	4.5455	0.	2091.4
15223	14.67	4.4545	0.	2112.5
15224	14.67	4.5455	5.e-002	8.3119
15225	14.944	4.5455	0.	2046.5
15226	14.853	4.4545	0.	2067.6
15227	14.853	4.5455	5.e-002	8.2624
15228	15.127	4.5455	0.	2001.7
15229	15.036	4.4545	0.	2022.8
15230	15.036	4.5455	5.e-002	8.2142
15231	15.31	4.5455	0.	1957.1
15232	15.219	4.4545	0.	1978.2
15233	15.219	4.5455	5.e-002	8.1672
15234	15.493	4.5455	0.	1912.6
15235	15.402	4.4545	0.	1933.7
15236	15.402	4.5455	5.e-002	8.1215
15237	15.676	4.5455	0.	1868.2
15238	15.584	4.4545	0.	1889.3
15239	15.584	4.5455	5.e-002	8.0769
15240	15.859	4.5455	0.	1824.
15241	15.767	4.4545	0.	1845.
15242	15.767	4.5455	5.e-002	8.0334
15243	16.042	4.5455	0.	1779.9
15244	15.95	4.4545	0.	1800.9
15245	15.95	4.5455	5.e-002	7.9908
15246	16.225	4.5455	0.	1735.9
15247	16.133	4.4545	0.	1757.
15248	16.133	4.5455	5.e-002	7.9493
15249	16.408	4.5455	0.	1692.2
15250	16.316	4.4545	0.	1713.2
15251	16.316	4.5455	5.e-002	7.9088
15252	16.591	4.5455	0.	1648.6
15253	16.499	4.4545	0.	1669.5
15254	16.499	4.5455	5.e-002	7.8691
15255	16.774	4.5455	0.	1605.1
15256	16.682	4.4545	0.	1626.1
15257	16.682	4.5455	5.e-002	7.8303
15258	16.957	4.5455	0.	1561.8
15259	16.865	4.4545	0.	1582.7
15260	16.865	4.5455	5.e-002	7.7925
15261	17.14	4.5455	0.	1518.7
15262	17.048	4.4545	0.	1539.6
15263	17.048	4.5455	5.e-002	7.7555
15264	17.322	4.5455	0.	1475.8
15265	17.231	4.4545	0.	1496.6
15266	17.231	4.5455	5.e-002	7.7193
15267	17.505	4.5455	0.	1433.1
15268	17.414	4.4545	0.	1453.8
15269	17.414	4.5455	5.e-002	7.6839
15270	17.688	4.5455	0.	1390.5
15271	17.597	4.4545	0.	1411.2
15272	17.597	4.5455	5.e-002	7.6493
15273	17.871	4.5455	0.	1348.2
15274	17.78	4.4545	0.	1368.8
15275	17.78	4.5455	5.e-002	7.6156
15276	18.054	4.5455	0.	1306.
15277	17.963	4.4545	0.	1326.6
15278	17.963	4.5455	5.e-002	7.5826
15279	18.237	4.5455	0.	1264.
15280	18.146	4.4545	0.	1284.6
15281	18.146	4.5455	5.e-002	7.5505
15282	18.42	4.5455	0.	1222.3
15283	18.329	4.4545	0.	1242.8
15284	18.329	4.5455	5.e-002	7.5192
15285	18.603	4.5455	0.	1180.7
15286	18.512	4.4545	0.	1201.2
15287	18.512	4.5455	5.e-002	7.4889
15288	18.786	4.5455	0.	1139.4
15289	18.695	4.4545	0.	1159.8
15290	18.695	4.5455	5.e-002	7.4593
15291	18.969	4.5455	0.	1098.3
15292	18.878	4.4545	0.	1118.6
15293	18.878	4.5455	5.e-002	7.4307
15294	19.152	4.5455	0.	1057.4
15295	19.06	4.4545	0.	1077.7
15296	19.06	4.5455	5.e-002	7.4031
15297	19.335	4.5455	0.	1016.7
15298	19.243	4.4545	0.	1037.
15299	19.243	4.5455	5.e-002	7.3765
15300	19.518	4.5455	0.	976.32
15301	19.426	4.4545	0.	996.49
15302	19.426	4.5455	5.e-002	7.3509
15303	19.701	4.5455	0.	936.14
15304	19.609	4.4545	0.	956.26
15305	19.609	4.5455	5.e-002	7.3265
15306	19.884	4.5455	0.	896.21
15307	19.792	4.4545	0.	916.28
15308	19.792	4.5455	5.e-002	7.3033
15309	20.067	4.5455	0.	856.54
15310	19.975	4.4545	0.	876.56
15311	19.975	4.5455	5.e-002	7.2815
15312	20.25	4.5455	0.	817.14
15313	20.158	4.4545	0.	837.11
15314	20.158	4.5455	5.e-002	7.261
15315	20.433	4.5455	0.	778.01
15316	20.341	4.4545	0.	797.94
15317	20.341	4.5455	5.e-002	7.242
15318	20.616	4.5455	0.	739.17
15319	20.524	4.4545	0.	759.06
15320	20.524	4.5455	5.e-002	7.2248
15321	20.798	4.5455	0.	700.63
15322	20.707	4.4545	0.	720.48
15323	20.707	4.5455	5.e-002	7.2093
15324	20.981	4.5455	0.	662.41
15325	20.89	4.4545	0.	682.22
15326	20.89	4.5455	5.e-002	7.1958
15327	21.164	4.5455	0.	624.53
15328	21.073	4.4545	0.	644.3
15329	21.073	4.5455	5.e-002	7.1846
15330	21.347	4.5455	0.	587.01
15331	21.256	4.4545	0.	606.74
15332	21.256	4.5455	5.e-002	7.1758
15333	21.53	4.5455	0.	549.88
15334	21.439	4.4545	0.	569.57
15335	21.439	4.5455	5.e-002	7.1699
15336	21.713	4.5455	0.	513.18
15337	21.622	4.4545	0.	532.82
15338	21.622	4.5455	5.e-002	7.1671
15339	21.896	4.5455	0.	476.96
15340	21.805	4.4545	0.	496.54
15341	21.805	4.5455	5.e-002	7.168
15342	22.079	4.5455	0.	441.28
15343	21.988	4.4545	0.	460.78
15344	21.988	4.5455	5.e-002	7.1731
15345	22.262	4.5455	0.	406.23
15346	22.171	4.4545	0.	425.61
15347	22.171	4.5455	5.e-002	7.1833
15348	22.445	4.5455	0.	371.9
15349	22.353	4.4545	0.	391.12
15350	22.353	4.5455	5.e-002	7.1995
15351	22.628	4.5455	0.	338.44
15352	22.536	4.4545	0.	357.43
15353	22.536	4.5455	5.e-002	7.2229
15354	22.811	4.5455	0.	306.03
15355	22.719	4.4545	0.	324.71
15356	22.719	4.5455	5.e-002	7.2551
15357	22.994	4.5455	0.	274.92
15358	22.902	4.4545	0.	293.15
15359	22.902	4.5455	5.e-002	7.2981
15360	23.177	4.5455	0.	245.47
15361	23.085	4.4545	0.	263.06
15362	23.085	4.5455	5.e-002	7.354
15363	23.36	4.5455	0.	218.18
15364	23.268	4.4545	0.	234.86
15365	23.268	4.5455	5.e-002	7.4253
15366	23.543	4.5455	0.	193.78
15367	23.451	4.4545	0.	209.13
15368	23.451	4.5455	5.e-002	7.5138
15369	23.726	4.5455	0.	173.38
15370	23.634	4.4545	0.	186.76
15371	23.634	4.5455	5.e-002	7.6263
15372	23.817	4.4545	0.	169.05
15373	23.817	4.5455	5.e-002	7.8615
15374	23.909	4.5455	0.	158.45
15375	8.5411	4.3636	0.	5822.7
15376	8.4496	4.2727	0.	7652.3
15377	8.4496	4.3636	5.e-002	356.65
15378	8.3581	4.3636	0.	5237.3
15379	8.724	4.3636	0.	4946.5
15380	8.6326	4.2727	0.	5811.6
15381	8.6326	4.3636	5.e-002	140.99
15382	8.907	4.3636	0.	4438.4
15383	8.8155	4.2727	0.	4960.
15384	8.8155	4.3636	5.e-002	86.443
15385	9.0899	4.3636	0.	4108.6
15386	8.9985	4.2727	0.	4470.4
15387	8.9985	4.3636	5.e-002	62.171
15388	9.2729	4.3636	0.	3880.9
15389	9.1814	4.2727	0.	4141.9
15390	9.1814	4.3636	5.e-002	47.912
15391	9.4558	4.3636	0.	3717.3
15392	9.3643	4.2727	0.	3911.6
15393	9.3643	4.3636	5.e-002	39.133
15394	9.6388	4.3636	0.	3592.3
15395	9.5473	4.2727	0.	3740.3
15396	9.5473	4.3636	5.e-002	32.656
15397	9.8217	4.3636	0.	3491.6
15398	9.7302	4.2727	0.	3606.5
15399	9.7302	4.3636	5.e-002	27.724
15400	10.005	4.3636	0.	3406.4
15401	9.9132	4.2727	0.	3497.2
15402	9.9132	4.3636	5.e-002	23.861
15403	10.188	4.3636	0.	3331.5
15404	10.096	4.2727	0.	3404.5
15405	10.096	4.3636	5.e-002	20.789
15406	10.371	4.3636	0.	3263.6
15407	10.279	4.2727	0.	3323.2
15408	10.279	4.3636	5.e-002	18.328
15409	10.553	4.3636	0.	3200.5
15410	10.462	4.2727	0.	3250.3
15411	10.462	4.3636	5.e-002	16.356
15412	10.736	4.3636	0.	3141.2
15413	10.645	4.2727	0.	3183.4
15414	10.645	4.3636	5.e-002	14.78
15415	10.919	4.3636	0.	3084.6
15416	10.828	4.2727	0.	3121.1
15417	10.828	4.3636	5.e-002	13.525
15418	11.102	4.3636	0.	3030.1
15419	11.011	4.2727	0.	3062.4
15420	11.011	4.3636	5.e-002	12.532
15421	11.285	4.3636	0.	2977.4
15422	11.194	4.2727	0.	3006.4
15423	11.194	4.3636	5.e-002	11.749
15424	11.468	4.3636	0.	2926.1
15425	11.377	4.2727	0.	2952.7
15426	11.377	4.3636	5.e-002	11.133
15427	11.651	4.3636	0.	2875.9
15428	11.56	4.2727	0.	2900.7
15429	11.56	4.3636	5.e-002	10.648
15430	11.834	4.3636	0.	2826.6
15431	11.743	4.2727	0.	2850.2
15432	11.743	4.3636	5.e-002	10.264
15433	12.017	4.3636	0.	2778.1
15434	11.926	4.2727	0.	2800.7
15435	11.926	4.3636	5.e-002	9.9573
15436	12.2	4.3636	0.	2730.2
15437	12.109	4.2727	0.	2752.1
15438	12.109	4.3636	5.e-002	9.7102
15439	12.383	4.3636	0.	2682.8
15440	12.291	4.2727	0.	2704.3
15441	12.291	4.3636	5.e-002	9.5078
15442	12.566	4.3636	0.	2635.8
15443	12.474	4.2727	0.	2657.
15444	12.474	4.3636	5.e-002	9.3397
15445	12.749	4.3636	0.	2589.2
15446	12.657	4.2727	0.	2610.1
15447	12.657	4.3636	5.e-002	9.1976
15448	12.932	4.3636	0.	2542.8
15449	12.84	4.2727	0.	2563.7
15450	12.84	4.3636	5.e-002	9.0751
15451	13.115	4.3636	0.	2496.7
15452	13.023	4.2727	0.	2517.5
15453	13.023	4.3636	5.e-002	8.9678
15454	13.298	4.3636	0.	2450.8
15455	13.206	4.2727	0.	2471.6
15456	13.206	4.3636	5.e-002	8.8725
15457	13.481	4.3636	0.	2405.1
15458	13.389	4.2727	0.	2425.9
15459	13.389	4.3636	5.e-002	8.7865
15460	13.664	4.3636	0.	2359.5
15461	13.572	4.2727	0.	2380.3
15462	13.572	4.3636	5.e-002	8.7078
15463	13.847	4.3636	0.	2314.
15464	13.755	4.2727	0.	2334.9
15465	13.755	4.3636	5.e-002	8.635
15466	14.029	4.3636	0.	2268.7
15467	13.938	4.2727	0.	2289.6
15468	13.938	4.3636	5.e-002	8.5672
15469	14.212	4.3636	0.	2223.5
15470	14.121	4.2727	0.	2244.5
15471	14.121	4.3636	5.e-002	8.5035
15472	14.395	4.3636	0.	2178.4
15473	14.304	4.2727	0.	2199.4
15474	14.304	4.3636	5.e-002	8.4432
15475	14.578	4.3636	0.	2133.5
15476	14.487	4.2727	0.	2154.5
15477	14.487	4.3636	5.e-002	8.3857
15478	14.761	4.3636	0.	2088.6
15479	14.67	4.2727	0.	2109.7
15480	14.67	4.3636	5.e-002	8.3308
15481	14.944	4.3636	0.	2043.9
15482	14.853	4.2727	0.	2065.
15483	14.853	4.3636	5.e-002	8.2782
15484	15.127	4.3636	0.	1999.3
15485	15.036	4.2727	0.	2020.4
15486	15.036	4.3636	5.e-002	8.2275
15487	15.31	4.3636	0.	1954.8
15488	15.219	4.2727	0.	1975.9
15489	15.219	4.3636	5.e-002	8.1784
15490	15.493	4.3636	0.	1910.4
15491	15.402	4.2727	0.	1931.5
15492	15.402	4.3636	5.e-002	8.1311
15493	15.676	4.3636	0.	1866.2
15494	15.584	4.2727	0.	1887.3
15495	15.584	4.3636	5.e-002	8.0853
15496	15.859	4.3636	0.	1822.
15497	15.767	4.2727	0.	1843.2
15498	15.767	4.3636	5.e-002	8.0407
15499	16.042	4.3636	0.	1778.1
15500	15.95	4.2727	0.	1799.2
15501	15.95	4.3636	5.e-002	7.9973
15502	16.225	4.3636	0.	1734.3
15503	16.133	4.2727	0.	1755.3
15504	16.133	4.3636	5.e-002	7.9551
15505	16.408	4.3636	0.	1690.6
15506	16.316	4.2727	0.	1711.7
15507	16.316	4.3636	5.e-002	7.914
15508	16.591	4.3636	0.	1647.1
15509	16.499	4.2727	0.	1668.1
15510	16.499	4.3636	5.e-002	7.8739
15511	16.774	4.3636	0.	1603.7
15512	16.682	4.2727	0.	1624.7
15513	16.682	4.3636	5.e-002	7.8347
15514	16.957	4.3636	0.	1560.6
15515	16.865	4.2727	0.	1581.5
15516	16.865	4.3636	5.e-002	7.7966
15517	17.14	4.3636	0.	1517.5
15518	17.048	4.2727	0.	1538.4
15519	17.048	4.3636	5.e-002	7.7594
15520	17.322	4.3636	0.	1474.7
15521	17.231	4.2727	0.	1495.6
15522	17.231	4.3636	5.e-002	7.7229
15523	17.505	4.3636	0.	1432.1
15524	17.414	4.2727	0.	1452.9
15525	17.414	4.3636	5.e-002	7.6874
15526	17.688	4.3636	0.	1389.6
15527	17.597	4.2727	0.	1410.3
15528	17.597	4.3636	5.e-002	7.6527
15529	17.871	4.3636	0.	1347.3
15530	17.78	4.2727	0.	1368.
15531	17.78	4.3636	5.e-002	7.6189
15532	18.054	4.3636	0.	1305.3
15533	17.963	4.2727	0.	1325.9
15534	17.963	4.3636	5.e-002	7.5859
15535	18.237	4.3636	0.	1263.4
15536	18.146	4.2727	0.	1284.
15537	18.146	4.3636	5.e-002	7.5537
15538	18.42	4.3636	0.	1221.7
15539	18.329	4.2727	0.	1242.2
15540	18.329	4.3636	5.e-002	7.5224
15541	18.603	4.3636	0.	1180.3
15542	18.512	4.2727	0.	1200.7
15543	18.512	4.3636	5.e-002	7.4921
15544	18.786	4.3636	0.	1139.1
15545	18.695	4.2727	0.	1159.4
15546	18.695	4.3636	5.e-002	7.4625
15547	18.969	4.3636	0.	1098.1
15548	18.878	4.2727	0.	1118.4
15549	18.878	4.3636	5.e-002	7.434
15550	19.152	4.3636	0.	1057.3
15551	19.06	4.2727	0.	1077.5
15552	19.06	4.3636	5.e-002	7.4065
15553	19.335	4.3636	0.	1016.8
15554	19.243	4.2727	0.	1037.
15555	19.243	4.3636	5.e-002	7.38
15556	19.518	4.3636	0.	976.48
15557	19.426	4.2727	0.	996.61
15558	19.426	4.3636	5.e-002	7.3546
15559	19.701	4.3636	0.	936.45
15560	19.609	4.2727	0.	956.52
15561	19.609	4.3636	5.e-002	7.3304
15562	19.884	4.3636	0.	896.69
15563	19.792	4.2727	0.	916.69
15564	19.792	4.3636	5.e-002	7.3075
15565	20.067	4.3636	0.	857.19
15566	19.975	4.2727	0.	877.13
15567	19.975	4.3636	5.e-002	7.286
15568	20.25	4.3636	0.	817.97
15569	20.158	4.2727	0.	837.85
15570	20.158	4.3636	5.e-002	7.2658
15571	20.433	4.3636	0.	779.05
15572	20.341	4.2727	0.	798.87
15573	20.341	4.3636	5.e-002	7.2474
15574	20.616	4.3636	0.	740.43
15575	20.524	4.2727	0.	760.19
15576	20.524	4.3636	5.e-002	7.2307
15577	20.798	4.3636	0.	702.13
15578	20.707	4.2727	0.	721.83
15579	20.707	4.3636	5.e-002	7.2159
15580	20.981	4.3636	0.	664.17
15581	20.89	4.2727	0.	683.81
15582	20.89	4.3636	5.e-002	7.2032
15583	21.164	4.3636	0.	626.57
15584	21.073	4.2727	0.	646.15
15585	21.073	4.3636	5.e-002	7.1929
15586	21.347	4.3636	0.	589.36
15587	21.256	4.2727	0.	608.87
15588	21.256	4.3636	5.e-002	7.1853
15589	21.53	4.3636	0.	552.56
15590	21.439	4.2727	0.	572.
15591	21.439	4.3636	5.e-002	7.1806
15592	21.713	4.3636	0.	516.22
15593	21.622	4.2727	0.	535.58
15594	21.622	4.3636	5.e-002	7.1794
15595	21.896	4.3636	0.	480.39
15596	21.805	4.2727	0.	499.64
15597	21.805	4.3636	5.e-002	7.1821
15598	22.079	4.3636	0.	445.12
15599	21.988	4.2727	0.	464.25
15600	21.988	4.3636	5.e-002	7.1893
15601	22.262	4.3636	0.	410.5
15602	22.171	4.2727	0.	429.47
15603	22.171	4.3636	5.e-002	7.2018
15604	22.445	4.3636	0.	376.63
15605	22.353	4.2727	0.	395.39
15606	22.353	4.3636	5.e-002	7.2205
15607	22.628	4.3636	0.	343.64
15608	22.536	4.2727	0.	362.13
15609	22.536	4.3636	5.e-002	7.2465
15610	22.811	4.3636	0.	311.71
15611	22.719	4.2727	0.	329.84
15612	22.719	4.3636	5.e-002	7.2812
15613	22.994	4.3636	0.	281.08
15614	22.902	4.2727	0.	298.72
15615	22.902	4.3636	5.e-002	7.326
15616	23.177	4.3636	0.	252.11
15617	23.085	4.2727	0.	269.06
15618	23.085	4.3636	5.e-002	7.3826
15619	23.36	4.3636	0.	225.27
15620	23.268	4.2727	0.	241.28
15621	23.268	4.3636	5.e-002	7.4526
15622	23.543	4.3636	0.	201.3
15623	23.451	4.2727	0.	215.94
15624	23.451	4.3636	5.e-002	7.5369
15625	23.726	4.3636	0.	181.23
15626	23.634	4.2727	0.	193.92
15627	23.634	4.3636	5.e-002	7.6404
15628	23.817	4.2727	0.	176.42
15629	23.817	4.3636	5.e-002	7.8419
15630	23.909	4.3636	0.	166.62
15631	8.5411	4.1818	0.	7499.1
15632	8.4496	4.0909	0.	9680.8
15633	8.4496	4.1818	5.e-002	647.1
15634	8.3581	4.1818	0.	7554.
15635	8.724	4.1818	0.	5787.3
15636	8.6326	4.0909	0.	6731.2
15637	8.6326	4.1818	5.e-002	215.19
15638	8.907	4.1818	0.	4974.4
15639	8.8155	4.0909	0.	5565.7
15640	8.8155	4.1818	5.e-002	99.79
15641	9.0899	4.1818	0.	4492.7
15642	8.9985	4.0909	0.	4901.5
15643	8.9985	4.1818	5.e-002	71.741
15644	9.2729	4.1818	0.	4165.7
15645	9.1814	4.0909	0.	4460.6
15646	9.1814	4.1818	5.e-002	56.036
15647	9.4558	4.1818	0.	3930.4
15648	9.3643	4.0909	0.	4150.5
15649	9.3643	4.1818	5.e-002	45.209
15650	9.6388	4.1818	0.	3752.
15651	9.5473	4.0909	0.	3919.6
15652	9.5473	4.1818	5.e-002	37.535
15653	9.8217	4.1818	0.	3610.7
15654	9.7302	4.0909	0.	3740.6
15655	9.7302	4.1818	5.e-002	31.748
15656	10.005	4.1818	0.	3494.5
15657	9.9132	4.0909	0.	3596.7
15658	9.9132	4.1818	5.e-002	27.242
15659	10.188	4.1818	0.	3395.8
15660	10.096	4.0909	0.	3477.5
15661	10.096	4.1818	5.e-002	23.652
15662	10.371	4.1818	0.	3309.8
15663	10.279	4.0909	0.	3376.
15664	10.279	4.1818	5.e-002	20.76
15665	10.553	4.1818	0.	3233.
15666	10.462	4.0909	0.	3287.7
15667	10.462	4.1818	5.e-002	18.418
15668	10.736	4.1818	0.	3163.3
15669	10.645	4.0909	0.	3209.2
15670	10.645	4.1818	5.e-002	16.521
15671	10.919	4.1818	0.	3098.9
15672	10.828	4.0909	0.	3138.2
15673	10.828	4.1818	5.e-002	14.987
15674	11.102	4.1818	0.	3038.7
15675	11.011	4.0909	0.	3073.
15676	11.011	4.1818	5.e-002	13.751
15677	11.285	4.1818	0.	2981.8
15678	11.194	4.0909	0.	3012.4
15679	11.194	4.1818	5.e-002	12.758
15680	11.468	4.1818	0.	2927.4
15681	11.377	4.0909	0.	2955.2
15682	11.377	4.1818	5.e-002	11.962
15683	11.651	4.1818	0.	2875.1
15684	11.56	4.0909	0.	2900.8
15685	11.56	4.1818	5.e-002	11.325
15686	11.834	4.1818	0.	2824.3
15687	11.743	4.0909	0.	2848.5
15688	11.743	4.1818	5.e-002	10.814
15689	12.017	4.1818	0.	2774.8
15690	11.926	4.0909	0.	2797.9
15691	11.926	4.1818	5.e-002	10.402
15692	12.2	4.1818	0.	2726.2
15693	12.109	4.0909	0.	2748.6
15694	12.109	4.1818	5.e-002	10.068
15695	12.383	4.1818	0.	2678.5
15696	12.291	4.0909	0.	2700.2
15697	12.291	4.1818	5.e-002	9.7952
15698	12.566	4.1818	0.	2631.3
15699	12.474	4.0909	0.	2652.7
15700	12.474	4.1818	5.e-002	9.57
15701	12.749	4.1818	0.	2584.7
15702	12.657	4.0909	0.	2605.8
15703	12.657	4.1818	5.e-002	9.3819
15704	12.932	4.1818	0.	2538.4
15705	12.84	4.0909	0.	2559.4
15706	12.84	4.1818	5.e-002	9.2225
15707	13.115	4.1818	0.	2492.4
15708	13.023	4.0909	0.	2513.3
15709	13.023	4.1818	5.e-002	9.0857
15710	13.298	4.1818	0.	2446.7
15711	13.206	4.0909	0.	2467.6
15712	13.206	4.1818	5.e-002	8.9669
15713	13.481	4.1818	0.	2401.1
15714	13.389	4.0909	0.	2422.
15715	13.389	4.1818	5.e-002	8.8622
15716	13.664	4.1818	0.	2355.7
15717	13.572	4.0909	0.	2376.7
15718	13.572	4.1818	5.e-002	8.7686
15719	13.847	4.1818	0.	2310.5
15720	13.755	4.0909	0.	2331.5
15721	13.755	4.1818	5.e-002	8.6839
15722	14.029	4.1818	0.	2265.4
15723	13.938	4.0909	0.	2286.4
15724	13.938	4.1818	5.e-002	8.6067
15725	14.212	4.1818	0.	2220.4
15726	14.121	4.0909	0.	2241.5
15727	14.121	4.1818	5.e-002	8.5356
15728	14.395	4.1818	0.	2175.5
15729	14.304	4.0909	0.	2196.6
15730	14.304	4.1818	5.e-002	8.4693
15731	14.578	4.1818	0.	2130.8
15732	14.487	4.0909	0.	2151.9
15733	14.487	4.1818	5.e-002	8.4071
15734	14.761	4.1818	0.	2086.1
15735	14.67	4.0909	0.	2107.2
15736	14.67	4.1818	5.e-002	8.3485
15737	14.944	4.1818	0.	2041.5
15738	14.853	4.0909	0.	2062.7
15739	14.853	4.1818	5.e-002	8.2929
15740	15.127	4.1818	0.	1997.
15741	15.036	4.0909	0.	2018.2
15742	15.036	4.1818	5.e-002	8.2398
15743	15.31	4.1818	0.	1952.7
15744	15.219	4.0909	0.	1973.9
15745	15.219	4.1818	5.e-002	8.1888
15746	15.493	4.1818	0.	1908.4
15747	15.402	4.0909	0.	1929.6
15748	15.402	4.1818	5.e-002	8.14
15749	15.676	4.1818	0.	1864.3
15750	15.584	4.0909	0.	1885.5
15751	15.584	4.1818	5.e-002	8.093
15752	15.859	4.1818	0.	1820.3
15753	15.767	4.0909	0.	1841.5
15754	15.767	4.1818	5.e-002	8.0474
15755	16.042	4.1818	0.	1776.5
15756	15.95	4.0909	0.	1797.7
15757	15.95	4.1818	5.e-002	8.0032
15758	16.225	4.1818	0.	1732.8
15759	16.133	4.0909	0.	1753.9
15760	16.133	4.1818	5.e-002	7.9604
15761	16.408	4.1818	0.	1689.2
15762	16.316	4.0909	0.	1710.3
15763	16.316	4.1818	5.e-002	7.9188
15764	16.591	4.1818	0.	1645.8
15765	16.499	4.0909	0.	1666.9
15766	16.499	4.1818	5.e-002	7.8782
15767	16.774	4.1818	0.	1602.5
15768	16.682	4.0909	0.	1623.6
15769	16.682	4.1818	5.e-002	7.8387
15770	16.957	4.1818	0.	1559.4
15771	16.865	4.0909	0.	1580.4
15772	16.865	4.1818	5.e-002	7.8003
15773	17.14	4.1818	0.	1516.5
15774	17.048	4.0909	0.	1537.5
15775	17.048	4.1818	5.e-002	7.7628
15776	17.322	4.1818	0.	1473.8
15777	17.231	4.0909	0.	1494.7
15778	17.231	4.1818	5.e-002	7.7262
15779	17.505	4.1818	0.	1431.2
15780	17.414	4.0909	0.	1452.
15781	17.414	4.1818	5.e-002	7.6905
15782	17.688	4.1818	0.	1388.8
15783	17.597	4.0909	0.	1409.6
15784	17.597	4.1818	5.e-002	7.6557
15785	17.871	4.1818	0.	1346.6
15786	17.78	4.0909	0.	1367.3
15787	17.78	4.1818	5.e-002	7.6218
15788	18.054	4.1818	0.	1304.6
15789	17.963	4.0909	0.	1325.3
15790	17.963	4.1818	5.e-002	7.5887
15791	18.237	4.1818	0.	1262.9
15792	18.146	4.0909	0.	1283.4
15793	18.146	4.1818	5.e-002	7.5565
15794	18.42	4.1818	0.	1221.3
15795	18.329	4.0909	0.	1241.8
15796	18.329	4.1818	5.e-002	7.5253
15797	18.603	4.1818	0.	1179.9
15798	18.512	4.0909	0.	1200.4
15799	18.512	4.1818	5.e-002	7.4949
15800	18.786	4.1818	0.	1138.8
15801	18.695	4.0909	0.	1159.2
15802	18.695	4.1818	5.e-002	7.4654
15803	18.969	4.1818	0.	1097.9
15804	18.878	4.0909	0.	1118.2
15805	18.878	4.1818	5.e-002	7.4369
15806	19.152	4.1818	0.	1057.3
15807	19.06	4.0909	0.	1077.5
15808	19.06	4.1818	5.e-002	7.4095
15809	19.335	4.1818	0.	1016.8
15810	19.243	4.0909	0.	1037.
15811	19.243	4.1818	5.e-002	7.3832
15812	19.518	4.1818	0.	976.69
15813	19.426	4.0909	0.	996.77
15814	19.426	4.1818	5.e-002	7.3579
15815	19.701	4.1818	0.	936.8
15816	19.609	4.0909	0.	956.8
15817	19.609	4.1818	5.e-002	7.3339
15818	19.884	4.1818	0.	897.18
15819	19.792	4.0909	0.	917.1
15820	19.792	4.1818	5.e-002	7.3112
15821	20.067	4.1818	0.	857.84
15822	19.975	4.0909	0.	877.69
15823	19.975	4.1818	5.e-002	7.29
15824	20.25	4.1818	0.	818.8
15825	20.158	4.0909	0.	838.57
15826	20.158	4.1818	5.e-002	7.2702
15827	20.433	4.1818	0.	780.06
15828	20.341	4.0909	0.	799.75
15829	20.341	4.1818	5.e-002	7.2522
15830	20.616	4.1818	0.	741.64
15831	20.524	4.0909	0.	761.26
15832	20.524	4.1818	5.e-002	7.236
15833	20.798	4.1818	0.	703.56
15834	20.707	4.0909	0.	723.1
15835	20.707	4.1818	5.e-002	7.2218
15836	20.981	4.1818	0.	665.84
15837	20.89	4.0909	0.	685.29
15838	20.89	4.1818	5.e-002	7.2098
15839	21.164	4.1818	0.	628.49
15840	21.073	4.0909	0.	647.86
15841	21.073	4.1818	5.e-002	7.2004
15842	21.347	4.1818	0.	591.55
15843	21.256	4.0909	0.	610.83
15844	21.256	4.1818	5.e-002	7.1938
15845	21.53	4.1818	0.	555.05
15846	21.439	4.0909	0.	574.22
15847	21.439	4.1818	5.e-002	7.1903
15848	21.713	4.1818	0.	519.02
15849	21.622	4.0909	0.	538.08
15850	21.622	4.1818	5.e-002	7.1905
15851	21.896	4.1818	0.	483.52
15852	21.805	4.0909	0.	502.44
15853	21.805	4.1818	5.e-002	7.1948
15854	22.079	4.1818	0.	448.6
15855	21.988	4.0909	0.	467.37
15856	21.988	4.1818	5.e-002	7.2038
15857	22.262	4.1818	0.	414.35
15858	22.171	4.0909	0.	432.91
15859	22.171	4.1818	5.e-002	7.2183
15860	22.445	4.1818	0.	380.85
15861	22.353	4.0909	0.	399.17
15862	22.353	4.1818	5.e-002	7.239
15863	22.628	4.1818	0.	348.24
15864	22.536	4.0909	0.	366.25
15865	22.536	4.1818	5.e-002	7.267
15866	22.811	4.1818	0.	316.7
15867	22.719	4.0909	0.	334.31
15868	22.719	4.1818	5.e-002	7.3035
15869	22.994	4.1818	0.	286.46
15870	22.902	4.0909	0.	303.53
15871	22.902	4.1818	5.e-002	7.3494
15872	23.177	4.1818	0.	257.86
15873	23.085	4.0909	0.	274.22
15874	23.085	4.1818	5.e-002	7.4061
15875	23.36	4.1818	0.	231.38
15876	23.268	4.0909	0.	246.76
15877	23.268	4.1818	5.e-002	7.4745
15878	23.543	4.1818	0.	207.74
15879	23.451	4.0909	0.	221.74
15880	23.451	4.1818	5.e-002	7.555
15881	23.726	4.1818	0.	187.92
15882	23.634	4.0909	0.	199.99
15883	23.634	4.1818	5.e-002	7.6509
15884	23.817	4.0909	0.	182.66
15885	23.817	4.1818	5.e-002	7.8237
15886	23.909	4.1818	0.	173.57
15887	8.5411	4.	0.	8930.3
15888	8.4496	3.9091	0.	10568
15889	8.4496	4.	5.e-002	1154.6
15890	8.3581	4.	0.	15685
15891	8.724	4.	0.	6508.9
15892	8.6326	3.9091	0.	7507.2
15893	8.6326	4.	5.e-002	200.83
15894	8.907	4.	0.	5484.2
15895	8.8155	3.9091	0.	6116.1
15896	8.8155	4.	5.e-002	129.76
15897	9.0899	4.	0.	4862.6
15898	8.9985	3.9091	0.	5307.6
15899	8.9985	4.	5.e-002	86.661
15900	9.2729	4.	0.	4440.5
15901	9.1814	3.9091	0.	4763.6
15902	9.1814	4.	5.e-002	65.612
15903	9.4558	4.	0.	4136.5
15904	9.3643	3.9091	0.	4378.4
15905	9.3643	4.	5.e-002	52.137
15906	9.6388	4.	0.	3906.3
15907	9.5473	3.9091	0.	4090.6
15908	9.5473	4.	5.e-002	42.883
15909	9.8217	4.	0.	3725.5
15910	9.7302	3.9091	0.	3868.2
15911	9.7302	4.	5.e-002	36.011
15912	10.005	4.	0.	3579.1
15913	9.9132	3.9091	0.	3691.1
15914	9.9132	4.	5.e-002	30.699
15915	10.188	4.	0.	3457.4
15916	10.096	3.9091	0.	3546.4
15917	10.096	4.	5.e-002	26.483
15918	10.371	4.	0.	3353.8
15919	10.279	3.9091	0.	3425.6
15920	10.279	4.	5.e-002	23.09
15921	10.553	4.	0.	3263.8
15922	10.462	3.9091	0.	3322.6
15923	10.462	4.	5.e-002	20.341
15924	10.736	4.	0.	3184.1
15925	10.645	3.9091	0.	3233.1
15926	10.645	4.	5.e-002	18.11
15927	10.919	4.	0.	3112.3
15928	10.828	3.9091	0.	3154.
15929	10.828	4.	5.e-002	16.299
15930	11.102	4.	0.	3046.7
15931	11.011	3.9091	0.	3082.8
15932	11.011	4.	5.e-002	14.832
15933	11.285	4.	0.	2985.8
15934	11.194	3.9091	0.	3017.7
15935	11.194	4.	5.e-002	13.647
15936	11.468	4.	0.	2928.6
15937	11.377	3.9091	0.	2957.4
15938	11.377	4.	5.e-002	12.691
15939	11.651	4.	0.	2874.2
15940	11.56	3.9091	0.	2900.7
15941	11.56	4.	5.e-002	11.92
15942	11.834	4.	0.	2822.1
15943	11.743	3.9091	0.	2846.9
15944	11.743	4.	5.e-002	11.297
15945	12.017	4.	0.	2771.7
15946	11.926	3.9091	0.	2795.2
15947	11.926	4.	5.e-002	10.794
15948	12.2	4.	0.	2722.6
15949	12.109	3.9091	0.	2745.3
15950	12.109	4.	5.e-002	10.385
15951	12.383	4.	0.	2674.5
15952	12.291	3.9091	0.	2696.6
15953	12.291	4.	5.e-002	10.051
15954	12.566	4.	0.	2627.2
15955	12.474	3.9091	0.	2648.9
15956	12.474	4.	5.e-002	9.7755
15957	12.749	4.	0.	2580.6
15958	12.657	3.9091	0.	2601.9
15959	12.657	4.	5.e-002	9.5469
15960	12.932	4.	0.	2534.4
15961	12.84	3.9091	0.	2555.5
15962	12.84	4.	5.e-002	9.355
15963	13.115	4.	0.	2488.5
15964	13.023	3.9091	0.	2509.6
15965	13.023	4.	5.e-002	9.192
15966	13.298	4.	0.	2442.9
15967	13.206	3.9091	0.	2464.
15968	13.206	4.	5.e-002	9.0521
15969	13.481	4.	0.	2397.6
15970	13.389	3.9091	0.	2418.6
15971	13.389	4.	5.e-002	8.9307
15972	13.664	4.	0.	2352.4
15973	13.572	3.9091	0.	2373.5
15974	13.572	4.	5.e-002	8.8236
15975	13.847	4.	0.	2307.4
15976	13.755	3.9091	0.	2328.5
15977	13.755	4.	5.e-002	8.7283
15978	14.029	4.	0.	2262.5
15979	13.938	3.9091	0.	2283.6
15980	13.938	4.	5.e-002	8.6426
15981	14.212	4.	0.	2217.7
15982	14.121	3.9091	0.	2238.8
15983	14.121	4.	5.e-002	8.5647
15984	14.395	4.	0.	2173.
15985	14.304	3.9091	0.	2194.1
15986	14.304	4.	5.e-002	8.493
15987	14.578	4.	0.	2128.4
15988	14.487	3.9091	0.	2149.6
15989	14.487	4.	5.e-002	8.4265
15990	14.761	4.	0.	2083.8
15991	14.67	3.9091	0.	2105.1
15992	14.67	4.	5.e-002	8.3645
15993	14.944	4.	0.	2039.4
15994	14.853	3.9091	0.	2060.7
15995	14.853	4.	5.e-002	8.3062
15996	15.127	4.	0.	1995.1
15997	15.036	3.9091	0.	2016.4
15998	15.036	4.	5.e-002	8.2509
15999	15.31	4.	0.	1950.9
16000	15.219	3.9091	0.	1972.1
16001	15.219	4.	5.e-002	8.1982
16002	15.493	4.	0.	1906.8
16003	15.402	3.9091	0.	1928.
16004	15.402	4.	5.e-002	8.148
16005	15.676	4.	0.	1862.8
16006	15.584	3.9091	0.	1884.
16007	15.584	4.	5.e-002	8.0998
16008	15.859	4.	0.	1818.9
16009	15.767	3.9091	0.	1840.1
16010	15.767	4.	5.e-002	8.0533
16011	16.042	4.	0.	1775.1
16012	15.95	3.9091	0.	1796.3
16013	15.95	4.	5.e-002	8.0084
16014	16.225	4.	0.	1731.5
16015	16.133	3.9091	0.	1752.7
16016	16.133	4.	5.e-002	7.965
16017	16.408	4.	0.	1688.
16018	16.316	3.9091	0.	1709.2
16019	16.316	4.	5.e-002	7.9229
16020	16.591	4.	0.	1644.7
16021	16.499	3.9091	0.	1665.8
16022	16.499	4.	5.e-002	7.882
16023	16.774	4.	0.	1601.5
16024	16.682	3.9091	0.	1622.6
16025	16.682	4.	5.e-002	7.8422
16026	16.957	4.	0.	1558.5
16027	16.865	3.9091	0.	1579.5
16028	16.865	4.	5.e-002	7.8035
16029	17.14	4.	0.	1515.6
16030	17.048	3.9091	0.	1536.6
16031	17.048	4.	5.e-002	7.7658
16032	17.322	4.	0.	1473.
16033	17.231	3.9091	0.	1493.9
16034	17.231	4.	5.e-002	7.729
16035	17.505	4.	0.	1430.5
16036	17.414	3.9091	0.	1451.3
16037	17.414	4.	5.e-002	7.6932
16038	17.688	4.	0.	1388.2
16039	17.597	3.9091	0.	1409.
16040	17.597	4.	5.e-002	7.6583
16041	17.871	4.	0.	1346.
16042	17.78	3.9091	0.	1366.8
16043	17.78	4.	5.e-002	7.6244
16044	18.054	4.	0.	1304.1
16045	17.963	3.9091	0.	1324.8
16046	17.963	4.	5.e-002	7.5912
16047	18.237	4.	0.	1262.4
16048	18.146	3.9091	0.	1283.
16049	18.146	4.	5.e-002	7.5589
16050	18.42	4.	0.	1220.9
16051	18.329	3.9091	0.	1241.4
16052	18.329	4.	5.e-002	7.5277
16053	18.603	4.	0.	1179.7
16054	18.512	3.9091	0.	1200.1
16055	18.512	4.	5.e-002	7.4973
16056	18.786	4.	0.	1138.6
16057	18.695	3.9091	0.	1159.
16058	18.695	4.	5.e-002	7.4679
16059	18.969	4.	0.	1097.8
16060	18.878	3.9091	0.	1118.1
16061	18.878	4.	5.e-002	7.4394
16062	19.152	4.	0.	1057.3
16063	19.06	3.9091	0.	1077.5
16064	19.06	4.	5.e-002	7.4121
16065	19.335	4.	0.	1017.
16066	19.243	3.9091	0.	1037.1
16067	19.243	4.	5.e-002	7.3859
16068	19.518	4.	0.	976.92
16069	19.426	3.9091	0.	996.94
16070	19.426	4.	5.e-002	7.3607
16071	19.701	4.	0.	937.15
16072	19.609	3.9091	0.	957.08
16073	19.609	4.	5.e-002	7.3369
16074	19.884	4.	0.	897.66
16075	19.792	3.9091	0.	917.5
16076	19.792	4.	5.e-002	7.3145
16077	20.067	4.	0.	858.47
16078	19.975	3.9091	0.	878.22
16079	19.975	4.	5.e-002	7.2935
16080	20.25	4.	0.	819.57
16081	20.158	3.9091	0.	839.23
16082	20.158	4.	5.e-002	7.274
16083	20.433	4.	0.	781.
16084	20.341	3.9091	0.	800.56
16085	20.341	4.	5.e-002	7.2563
16086	20.616	4.	0.	742.76
16087	20.524	3.9091	0.	762.23
16088	20.524	4.	5.e-002	7.2406
16089	20.798	4.	0.	704.88
16090	20.707	3.9091	0.	724.24
16091	20.707	4.	5.e-002	7.2269
16092	20.981	4.	0.	667.36
16093	20.89	3.9091	0.	686.62
16094	20.89	4.	5.e-002	7.2156
16095	21.164	4.	0.	630.23
16096	21.073	3.9091	0.	649.38
16097	21.073	4.	5.e-002	7.207
16098	21.347	4.	0.	593.53
16099	21.256	3.9091	0.	612.56
16100	21.256	4.	5.e-002	7.2013
16101	21.53	4.	0.	557.28
16102	21.439	3.9091	0.	576.18
16103	21.439	4.	5.e-002	7.1989
16104	21.713	4.	0.	521.52
16105	21.622	3.9091	0.	540.28
16106	21.622	4.	5.e-002	7.2003
16107	21.896	4.	0.	486.29
16108	21.805	3.9091	0.	504.89
16109	21.805	4.	5.e-002	7.206
16110	22.079	4.	0.	451.67
16111	21.988	3.9091	0.	470.07
16112	21.988	4.	5.e-002	7.2165
16113	22.262	4.	0.	417.71
16114	22.171	3.9091	0.	435.88
16115	22.171	4.	5.e-002	7.2326
16116	22.445	4.	0.	384.51
16117	22.353	3.9091	0.	402.42
16118	22.353	4.	5.e-002	7.255
16119	22.628	4.	0.	352.21
16120	22.536	3.9091	0.	369.77
16121	22.536	4.	5.e-002	7.2845
16122	22.811	4.	0.	320.97
16123	22.719	3.9091	0.	338.1
16124	22.719	4.	5.e-002	7.3222
16125	22.994	4.	0.	291.04
16126	22.902	3.9091	0.	307.6
16127	22.902	4.	5.e-002	7.3688
16128	23.177	4.	0.	262.73
16129	23.085	3.9091	0.	278.55
16130	23.085	4.	5.e-002	7.4251
16131	23.36	4.	0.	236.54
16132	23.268	3.9091	0.	251.35
16133	23.268	4.	5.e-002	7.4918
16134	23.543	4.	0.	213.16
16135	23.451	3.9091	0.	226.57
16136	23.451	4.	5.e-002	7.569
16137	23.726	4.	0.	193.55
16138	23.634	3.9091	0.	205.03
16139	23.634	4.	5.e-002	7.6587
16140	23.817	3.9091	0.	187.84
16141	23.817	4.	5.e-002	7.8074
16142	23.909	4.	0.	179.41
16143	8.5411	3.8182	0.	9273.7
16144	8.4496	3.7273	0.	10335
16145	8.4496	3.8182	5.e-002	624.93
16146	8.724	3.8182	0.	7126.6
16147	8.6326	3.7273	0.	7987.4
16148	8.6326	3.8182	5.e-002	289.04
16149	8.907	3.8182	0.	5938.3
16150	8.8155	3.7273	0.	6564.6
16151	8.8155	3.8182	5.e-002	145.75
16152	9.0899	3.8182	0.	5205.5
16153	8.9985	3.7273	0.	5662.8
16154	8.9985	3.8182	5.e-002	100.09
16155	9.2729	3.8182	0.	4698.6
16156	9.1814	3.7273	0.	5038.6
16157	9.1814	3.8182	5.e-002	74.562
16158	9.4558	3.8182	0.	4330.5
16159	9.3643	3.7273	0.	4587.2
16160	9.3643	3.8182	5.e-002	58.942
16161	9.6388	3.8182	0.	4051.2
16162	9.5473	3.7273	0.	4247.7
16163	9.5473	3.8182	5.e-002	48.171
16164	9.8217	3.8182	0.	3833.
16165	9.7302	3.7273	0.	3985.1
16166	9.7302	3.8182	5.e-002	40.199
16167	10.005	3.8182	0.	3657.9
16168	9.9132	3.7273	0.	3777.1
16169	9.9132	3.8182	5.e-002	34.037
16170	10.188	3.8182	0.	3514.4
16171	10.096	3.7273	0.	3608.9
16172	10.096	3.8182	5.e-002	29.156
16173	10.371	3.8182	0.	3394.3
16174	10.279	3.7273	0.	3470.3
16175	10.279	3.8182	5.e-002	25.239
16176	10.553	3.8182	0.	3291.9
16177	10.462	3.7273	0.	3353.9
16178	10.462	3.8182	5.e-002	22.076
16179	10.736	3.8182	0.	3203.
16180	10.645	3.7273	0.	3254.5
16181	10.645	3.8182	5.e-002	19.515
16182	10.919	3.8182	0.	3124.4
16183	10.828	3.7273	0.	3167.9
16184	10.828	3.8182	5.e-002	17.441
16185	11.102	3.8182	0.	3053.8
16186	11.011	3.7273	0.	3091.3
16187	11.011	3.8182	5.e-002	15.762
16188	11.285	3.8182	0.	2989.3
16189	11.194	3.7273	0.	3022.4
16190	11.194	3.8182	5.e-002	14.406
16191	11.468	3.8182	0.	2929.5
16192	11.377	3.7273	0.	2959.3
16193	11.377	3.8182	5.e-002	13.309
16194	11.651	3.8182	0.	2873.4
16195	11.56	3.7273	0.	2900.6
16196	11.56	3.8182	5.e-002	12.423
16197	11.834	3.8182	0.	2820.1
16198	11.743	3.7273	0.	2845.5
16199	11.743	3.8182	5.e-002	11.707
16200	12.017	3.8182	0.	2768.9
16201	11.926	3.7273	0.	2792.9
16202	11.926	3.8182	5.e-002	11.126
16203	12.2	3.8182	0.	2719.3
16204	12.109	3.7273	0.	2742.4
16205	12.109	3.8182	5.e-002	10.654
16206	12.383	3.8182	0.	2671.
16207	12.291	3.7273	0.	2693.4
16208	12.291	3.8182	5.e-002	10.268
16209	12.566	3.8182	0.	2623.6
16210	12.474	3.7273	0.	2645.6
16211	12.474	3.8182	5.e-002	9.9513
16212	12.749	3.8182	0.	2576.9
16213	12.657	3.7273	0.	2598.6
16214	12.657	3.8182	5.e-002	9.6886
16215	12.932	3.8182	0.	2530.8
16216	12.84	3.7273	0.	2552.2
16217	12.84	3.8182	5.e-002	9.469
16218	13.115	3.8182	0.	2485.1
16219	13.023	3.7273	0.	2506.4
16220	13.023	3.8182	5.e-002	9.2838
16221	13.298	3.8182	0.	2439.7
16222	13.206	3.7273	0.	2460.9
16223	13.206	3.8182	5.e-002	9.126
16224	13.481	3.8182	0.	2394.5
16225	13.389	3.7273	0.	2415.7
16226	13.389	3.8182	5.e-002	8.9901
16227	13.664	3.8182	0.	2349.5
16228	13.572	3.7273	0.	2370.7
16229	13.572	3.8182	5.e-002	8.8715
16230	13.847	3.8182	0.	2304.7
16231	13.755	3.7273	0.	2325.9
16232	13.755	3.8182	5.e-002	8.7669
16233	14.029	3.8182	0.	2259.9
16234	13.938	3.7273	0.	2281.2
16235	13.938	3.8182	5.e-002	8.6738
16236	14.212	3.8182	0.	2215.3
16237	14.121	3.7273	0.	2236.6
16238	14.121	3.8182	5.e-002	8.59
16239	14.395	3.8182	0.	2170.8
16240	14.304	3.7273	0.	2192.1
16241	14.304	3.8182	5.e-002	8.5136
16242	14.578	3.8182	0.	2126.3
16243	14.487	3.7273	0.	2147.6
16244	14.487	3.8182	5.e-002	8.4434
16245	14.761	3.8182	0.	2081.9
16246	14.67	3.7273	0.	2103.3
16247	14.67	3.8182	5.e-002	8.3783
16248	14.944	3.8182	0.	2037.6
16249	14.853	3.7273	0.	2059.
16250	14.853	3.8182	5.e-002	8.3177
16251	15.127	3.8182	0.	1993.4
16252	15.036	3.7273	0.	2014.8
16253	15.036	3.8182	5.e-002	8.2605
16254	15.31	3.8182	0.	1949.3
16255	15.219	3.7273	0.	1970.7
16256	15.219	3.8182	5.e-002	8.2063
16257	15.493	3.8182	0.	1905.3
16258	15.402	3.7273	0.	1926.7
16259	15.402	3.8182	5.e-002	8.1548
16260	15.676	3.8182	0.	1861.4
16261	15.584	3.7273	0.	1882.8
16262	15.584	3.8182	5.e-002	8.1057
16263	15.859	3.8182	0.	1817.6
16264	15.767	3.7273	0.	1839.
16265	15.767	3.8182	5.e-002	8.0584
16266	16.042	3.8182	0.	1774.
16267	15.95	3.7273	0.	1795.3
16268	15.95	3.8182	5.e-002	8.0128
16269	16.225	3.8182	0.	1730.4
16270	16.133	3.7273	0.	1751.7
16271	16.133	3.8182	5.e-002	7.9689
16272	16.408	3.8182	0.	1687.
16273	16.316	3.7273	0.	1708.2
16274	16.316	3.8182	5.e-002	7.9265
16275	16.591	3.8182	0.	1643.8
16276	16.499	3.7273	0.	1664.9
16277	16.499	3.8182	5.e-002	7.8852
16278	16.774	3.8182	0.	1600.6
16279	16.682	3.7273	0.	1621.8
16280	16.682	3.8182	5.e-002	7.8451
16281	16.957	3.8182	0.	1557.7
16282	16.865	3.7273	0.	1578.8
16283	16.865	3.8182	5.e-002	7.8062
16284	17.14	3.8182	0.	1514.9
16285	17.048	3.7273	0.	1535.9
16286	17.048	3.8182	5.e-002	7.7684
16287	17.322	3.8182	0.	1472.3
16288	17.231	3.7273	0.	1493.3
16289	17.231	3.8182	5.e-002	7.7314
16290	17.505	3.8182	0.	1429.9
16291	17.414	3.7273	0.	1450.8
16292	17.414	3.8182	5.e-002	7.6955
16293	17.688	3.8182	0.	1387.6
16294	17.597	3.7273	0.	1408.4
16295	17.597	3.8182	5.e-002	7.6605
16296	17.871	3.8182	0.	1345.6
16297	17.78	3.7273	0.	1366.3
16298	17.78	3.8182	5.e-002	7.6265
16299	18.054	3.8182	0.	1303.7
16300	17.963	3.7273	0.	1324.4
16301	17.963	3.8182	5.e-002	7.5933
16302	18.237	3.8182	0.	1262.1
16303	18.146	3.7273	0.	1282.7
16304	18.146	3.8182	5.e-002	7.561
16305	18.42	3.8182	0.	1220.7
16306	18.329	3.7273	0.	1241.2
16307	18.329	3.8182	5.e-002	7.5297
16308	18.603	3.8182	0.	1179.5
16309	18.512	3.7273	0.	1199.9
16310	18.512	3.8182	5.e-002	7.4994
16311	18.786	3.8182	0.	1138.5
16312	18.695	3.7273	0.	1158.8
16313	18.695	3.8182	5.e-002	7.4699
16314	18.969	3.8182	0.	1097.8
16315	18.878	3.7273	0.	1118.
16316	18.878	3.8182	5.e-002	7.4416
16317	19.152	3.8182	0.	1057.3
16318	19.06	3.7273	0.	1077.5
16319	19.06	3.8182	5.e-002	7.4143
16320	19.335	3.8182	0.	1017.1
16321	19.243	3.7273	0.	1037.2
16322	19.243	3.8182	5.e-002	7.3881
16323	19.518	3.8182	0.	977.15
16324	19.426	3.7273	0.	997.11
16325	19.426	3.8182	5.e-002	7.3631
16326	19.701	3.8182	0.	937.48
16327	19.609	3.7273	0.	957.34
16328	19.609	3.8182	5.e-002	7.3394
16329	19.884	3.8182	0.	898.11
16330	19.792	3.7273	0.	917.86
16331	19.792	3.8182	5.e-002	7.3172
16332	20.067	3.8182	0.	859.03
16333	19.975	3.7273	0.	878.68
16334	19.975	3.8182	5.e-002	7.2964
16335	20.25	3.8182	0.	820.27
16336	20.158	3.7273	0.	839.81
16337	20.158	3.8182	5.e-002	7.2772
16338	20.433	3.8182	0.	781.84
16339	20.341	3.7273	0.	801.27
16340	20.341	3.8182	5.e-002	7.2599
16341	20.616	3.8182	0.	743.75
16342	20.524	3.7273	0.	763.07
16343	20.524	3.8182	5.e-002	7.2445
16344	20.798	3.8182	0.	706.03
16345	20.707	3.7273	0.	725.22
16346	20.707	3.8182	5.e-002	7.2313
16347	20.981	3.8182	0.	668.69
16348	20.89	3.7273	0.	687.75
16349	20.89	3.8182	5.e-002	7.2206
16350	21.164	3.8182	0.	631.75
16351	21.073	3.7273	0.	650.68
16352	21.073	3.8182	5.e-002	7.2126
16353	21.347	3.8182	0.	595.24
16354	21.256	3.7273	0.	614.03
16355	21.256	3.8182	5.e-002	7.2077
16356	21.53	3.8182	0.	559.2
16357	21.439	3.7273	0.	577.84
16358	21.439	3.8182	5.e-002	7.2063
16359	21.713	3.8182	0.	523.66
16360	21.622	3.7273	0.	542.12
16361	21.622	3.8182	5.e-002	7.2087
16362	21.896	3.8182	0.	488.66
16363	21.805	3.7273	0.	506.94
16364	21.805	3.8182	5.e-002	7.2155
16365	22.079	3.8182	0.	454.27
16366	21.988	3.7273	0.	472.32
16367	21.988	3.8182	5.e-002	7.2273
16368	22.262	3.8182	0.	420.55
16369	22.171	3.7273	0.	438.35
16370	22.171	3.8182	5.e-002	7.2447
16371	22.445	3.8182	0.	387.6
16372	22.353	3.7273	0.	405.1
16373	22.353	3.8182	5.e-002	7.2683
16374	22.628	3.8182	0.	355.54
16375	22.536	3.7273	0.	372.67
16376	22.536	3.8182	5.e-002	7.299
16377	22.811	3.8182	0.	324.54
16378	22.719	3.7273	0.	341.21
16379	22.719	3.8182	5.e-002	7.3375
16380	22.994	3.8182	0.	294.83
16381	22.902	3.7273	0.	310.91
16382	22.902	3.8182	5.e-002	7.3843
16383	23.177	3.8182	0.	266.76
16384	23.085	3.7273	0.	282.06
16385	23.085	3.8182	5.e-002	7.4402
16386	23.36	3.8182	0.	240.79
16387	23.268	3.7273	0.	255.06
16388	23.268	3.8182	5.e-002	7.5054
16389	23.543	3.8182	0.	217.61
16390	23.451	3.7273	0.	230.47
16391	23.451	3.8182	5.e-002	7.5798
16392	23.726	3.8182	0.	198.16
16393	23.634	3.7273	0.	209.1
16394	23.634	3.8182	5.e-002	7.6645
16395	23.817	3.7273	0.	192.01
16396	23.817	3.8182	5.e-002	7.7934
16397	23.909	3.8182	0.	184.19
16398	8.5411	3.6364	0.	9115.7
16399	8.4496	3.5455	0.	9721.4
16400	8.4496	3.6364	5.e-002	268.04
16401	8.724	3.6364	0.	7451.
16402	8.6326	3.5455	0.	8114.2
16403	8.6326	3.6364	5.e-002	212.05
16404	8.907	3.6364	0.	6295.4
16405	8.8155	3.5455	0.	6857.4
16406	8.8155	3.6364	5.e-002	152.63
16407	9.0899	3.6364	0.	5496.6
16408	8.9985	3.5455	0.	5938.5
16409	8.9985	3.6364	5.e-002	107.12
16410	9.2729	3.6364	0.	4926.4
16411	9.1814	3.5455	0.	5266.8
16412	9.1814	3.6364	5.e-002	81.562
16413	9.4558	3.6364	0.	4503.6
16414	9.3643	3.5455	0.	4765.
16415	9.3643	3.6364	5.e-002	64.886
16416	9.6388	3.6364	0.	4180.9
16417	9.5473	3.5455	0.	4382.6
16418	9.5473	3.6364	5.e-002	53.007
16419	9.8217	3.6364	0.	3928.8
16420	9.7302	3.5455	0.	4085.6
16421	9.7302	3.6364	5.e-002	44.054
16422	10.005	3.6364	0.	3727.9
16423	9.9132	3.5455	0.	3850.8
16424	9.9132	3.6364	5.e-002	37.083
16425	10.188	3.6364	0.	3564.7
16426	10.096	3.5455	0.	3662.2
16427	10.096	3.6364	5.e-002	31.555
16428	10.371	3.6364	0.	3429.9
16429	10.279	3.5455	0.	3508.2
16430	10.279	3.6364	5.e-002	27.13
16431	10.553	3.6364	0.	3316.5
16432	10.462	3.5455	0.	3380.4
16433	10.462	3.6364	5.e-002	23.572
16434	10.736	3.6364	0.	3219.4
16435	10.645	3.5455	0.	3272.4
16436	10.645	3.6364	5.e-002	20.705
16437	10.919	3.6364	0.	3134.9
16438	10.828	3.5455	0.	3179.6
16439	10.828	3.6364	5.e-002	18.394
16440	11.102	3.6364	0.	3059.9
16441	11.011	3.5455	0.	3098.5
16442	11.011	3.6364	5.e-002	16.529
16443	11.285	3.6364	0.	2992.3
16444	11.194	3.5455	0.	3026.2
16445	11.194	3.6364	5.e-002	15.025
16446	11.468	3.6364	0.	2930.4
16447	11.377	3.5455	0.	2960.8
16448	11.377	3.6364	5.e-002	13.811
16449	11.651	3.6364	0.	2872.7
16450	11.56	3.5455	0.	2900.5
16451	11.56	3.6364	5.e-002	12.831
16452	11.834	3.6364	0.	2818.3
16453	11.743	3.5455	0.	2844.3
16454	11.743	3.6364	5.e-002	12.038
16455	12.017	3.6364	0.	2766.5
16456	11.926	3.5455	0.	2791.
16457	11.926	3.6364	5.e-002	11.395
16458	12.2	3.6364	0.	2716.5
16459	12.109	3.5455	0.	2740.1
16460	12.109	3.6364	5.e-002	10.873
16461	12.383	3.6364	0.	2668.
16462	12.291	3.5455	0.	2690.8
16463	12.291	3.6364	5.e-002	10.445
16464	12.566	3.6364	0.	2620.5
16465	12.474	3.5455	0.	2642.8
16466	12.474	3.6364	5.e-002	10.094
16467	12.749	3.6364	0.	2573.9
16468	12.657	3.5455	0.	2595.9
16469	12.657	3.6364	5.e-002	9.8043
16470	12.932	3.6364	0.	2527.9
16471	12.84	3.5455	0.	2549.6
16472	12.84	3.6364	5.e-002	9.5624
16473	13.115	3.6364	0.	2482.3
16474	13.023	3.5455	0.	2503.8
16475	13.023	3.6364	5.e-002	9.3591
16476	13.298	3.6364	0.	2437.
16477	13.206	3.5455	0.	2458.5
16478	13.206	3.6364	5.e-002	9.1867
16479	13.481	3.6364	0.	2392.
16480	13.389	3.5455	0.	2413.4
16481	13.389	3.6364	5.e-002	9.039
16482	13.664	3.6364	0.	2347.1
16483	13.572	3.5455	0.	2368.5
16484	13.572	3.6364	5.e-002	8.911
16485	13.847	3.6364	0.	2302.4
16486	13.755	3.5455	0.	2323.9
16487	13.755	3.6364	5.e-002	8.7988
16488	14.029	3.6364	0.	2257.9
16489	13.938	3.5455	0.	2279.3
16490	13.938	3.6364	5.e-002	8.6997
16491	14.212	3.6364	0.	2213.4
16492	14.121	3.5455	0.	2234.8
16493	14.121	3.6364	5.e-002	8.611
16494	14.395	3.6364	0.	2169.
16495	14.304	3.5455	0.	2190.4
16496	14.304	3.6364	5.e-002	8.5307
16497	14.578	3.6364	0.	2124.6
16498	14.487	3.5455	0.	2146.1
16499	14.487	3.6364	5.e-002	8.4573
16500	14.761	3.6364	0.	2080.4
16501	14.67	3.5455	0.	2101.9
16502	14.67	3.6364	5.e-002	8.3898
16503	14.944	3.6364	0.	2036.2
16504	14.853	3.5455	0.	2057.7
16505	14.853	3.6364	5.e-002	8.3272
16506	15.127	3.6364	0.	1992.1
16507	15.036	3.5455	0.	2013.6
16508	15.036	3.6364	5.e-002	8.2684
16509	15.31	3.6364	0.	1948.1
16510	15.219	3.5455	0.	1969.6
16511	15.219	3.6364	5.e-002	8.2129
16512	15.493	3.6364	0.	1904.2
16513	15.402	3.5455	0.	1925.6
16514	15.402	3.6364	5.e-002	8.1605
16515	15.676	3.6364	0.	1860.3
16516	15.584	3.5455	0.	1881.8
16517	15.584	3.6364	5.e-002	8.1105
16518	15.859	3.6364	0.	1816.6
16519	15.767	3.5455	0.	1838.
16520	15.767	3.6364	5.e-002	8.0626
16521	16.042	3.6364	0.	1773.
16522	15.95	3.5455	0.	1794.4
16523	15.95	3.6364	5.e-002	8.0165
16524	16.225	3.6364	0.	1729.5
16525	16.133	3.5455	0.	1750.9
16526	16.133	3.6364	5.e-002	7.9722
16527	16.408	3.6364	0.	1686.2
16528	16.316	3.5455	0.	1707.5
16529	16.316	3.6364	5.e-002	7.9293
16530	16.591	3.6364	0.	1643.
16531	16.499	3.5455	0.	1664.3
16532	16.499	3.6364	5.e-002	7.8878
16533	16.774	3.6364	0.	1600.
16534	16.682	3.5455	0.	1621.2
16535	16.682	3.6364	5.e-002	7.8475
16536	16.957	3.6364	0.	1557.1
16537	16.865	3.5455	0.	1578.2
16538	16.865	3.6364	5.e-002	7.8084
16539	17.14	3.6364	0.	1514.3
16540	17.048	3.5455	0.	1535.4
16541	17.048	3.6364	5.e-002	7.7704
16542	17.322	3.6364	0.	1471.8
16543	17.231	3.5455	0.	1492.8
16544	17.231	3.6364	5.e-002	7.7334
16545	17.505	3.6364	0.	1429.4
16546	17.414	3.5455	0.	1450.3
16547	17.414	3.6364	5.e-002	7.6973
16548	17.688	3.6364	0.	1387.2
16549	17.597	3.5455	0.	1408.1
16550	17.597	3.6364	5.e-002	7.6623
16551	17.871	3.6364	0.	1345.2
16552	17.78	3.5455	0.	1366.
16553	17.78	3.6364	5.e-002	7.6282
16554	18.054	3.6364	0.	1303.4
16555	17.963	3.5455	0.	1324.1
16556	17.963	3.6364	5.e-002	7.5949
16557	18.237	3.6364	0.	1261.8
16558	18.146	3.5455	0.	1282.4
16559	18.146	3.6364	5.e-002	7.5626
16560	18.42	3.6364	0.	1220.5
16561	18.329	3.5455	0.	1241.
16562	18.329	3.6364	5.e-002	7.5314
16563	18.603	3.6364	0.	1179.3
16564	18.512	3.5455	0.	1199.7
16565	18.512	3.6364	5.e-002	7.501
16566	18.786	3.6364	0.	1138.4
16567	18.695	3.5455	0.	1158.7
16568	18.695	3.6364	5.e-002	7.4716
16569	18.969	3.6364	0.	1097.8
16570	18.878	3.5455	0.	1118.
16571	18.878	3.6364	5.e-002	7.4432
16572	19.152	3.6364	0.	1057.4
16573	19.06	3.5455	0.	1077.5
16574	19.06	3.6364	5.e-002	7.416
16575	19.335	3.6364	0.	1017.2
16576	19.243	3.5455	0.	1037.2
16577	19.243	3.6364	5.e-002	7.39
16578	19.518	3.6364	0.	977.35
16579	19.426	3.5455	0.	997.26
16580	19.426	3.6364	5.e-002	7.365
16581	19.701	3.6364	0.	937.77
16582	19.609	3.5455	0.	957.57
16583	19.609	3.6364	5.e-002	7.3415
16584	19.884	3.6364	0.	898.49
16585	19.792	3.5455	0.	918.16
16586	19.792	3.6364	5.e-002	7.3194
16587	20.067	3.6364	0.	859.51
16588	19.975	3.5455	0.	879.07
16589	19.975	3.6364	5.e-002	7.2988
16590	20.25	3.6364	0.	820.86
16591	20.158	3.5455	0.	840.29
16592	20.158	3.6364	5.e-002	7.2798
16593	20.433	3.6364	0.	782.54
16594	20.341	3.5455	0.	801.84
16595	20.341	3.6364	5.e-002	7.2627
16596	20.616	3.6364	0.	744.58
16597	20.524	3.5455	0.	763.75
16598	20.524	3.6364	5.e-002	7.2477
16599	20.798	3.6364	0.	706.99
16600	20.707	3.5455	0.	726.01
16601	20.707	3.6364	5.e-002	7.2349
16602	20.981	3.6364	0.	669.79
16603	20.89	3.5455	0.	688.67
16604	20.89	3.6364	5.e-002	7.2247
16605	21.164	3.6364	0.	633.
16606	21.073	3.5455	0.	651.72
16607	21.073	3.6364	5.e-002	7.2172
16608	21.347	3.6364	0.	596.65
16609	21.256	3.5455	0.	615.21
16610	21.256	3.6364	5.e-002	7.213
16611	21.53	3.6364	0.	560.78
16612	21.439	3.5455	0.	579.15
16613	21.439	3.6364	5.e-002	7.2122
16614	21.713	3.6364	0.	525.41
16615	21.622	3.5455	0.	543.59
16616	21.622	3.6364	5.e-002	7.2155
16617	21.896	3.6364	0.	490.59
16618	21.805	3.5455	0.	508.56
16619	21.805	3.6364	5.e-002	7.2232
16620	22.079	3.6364	0.	456.38
16621	21.988	3.5455	0.	474.1
16622	21.988	3.6364	5.e-002	7.236
16623	22.262	3.6364	0.	422.84
16624	22.171	3.5455	0.	440.29
16625	22.171	3.6364	5.e-002	7.2544
16626	22.445	3.6364	0.	390.08
16627	22.353	3.5455	0.	407.19
16628	22.353	3.6364	5.e-002	7.279
16629	22.628	3.6364	0.	358.2
16630	22.536	3.5455	0.	374.92
16631	22.536	3.6364	5.e-002	7.3105
16632	22.811	3.6364	0.	327.38
16633	22.719	3.5455	0.	343.62
16634	22.719	3.6364	5.e-002	7.3495
16635	22.994	3.6364	0.	297.85
16636	22.902	3.5455	0.	313.48
16637	22.902	3.6364	5.e-002	7.3965
16638	23.177	3.6364	0.	269.95
16639	23.085	3.5455	0.	284.78
16640	23.085	3.6364	5.e-002	7.4518
16641	23.36	3.6364	0.	244.15
16642	23.268	3.5455	0.	257.93
16643	23.268	3.6364	5.e-002	7.5157
16644	23.543	3.6364	0.	221.13
16645	23.451	3.5455	0.	233.48
16646	23.451	3.6364	5.e-002	7.5878
16647	23.726	3.6364	0.	201.8
16648	23.634	3.5455	0.	212.23
16649	23.634	3.6364	5.e-002	7.6687
16650	23.817	3.5455	0.	195.22
16651	23.817	3.6364	5.e-002	7.7819
16652	23.909	3.6364	0.	187.95
16653	8.5411	3.4545	0.	8745.5
16654	8.4496	3.3636	0.	9152.1
16655	8.4496	3.4545	5.e-002	150.
16656	8.724	3.4545	0.	7544.4
16657	8.6326	3.3636	0.	8060.1
16658	8.6326	3.4545	5.e-002	159.11
16659	8.907	3.4545	0.	6512.
16660	8.8155	3.3636	0.	6998.5
16661	8.8155	3.4545	5.e-002	132.12
16662	9.0899	3.4545	0.	5713.3
16663	8.9985	3.3636	0.	6121.6
16664	8.9985	3.4545	5.e-002	106.39
16665	9.2729	3.4545	0.	5107.1
16666	9.1814	3.3636	0.	5433.2
16667	9.1814	3.4545	5.e-002	85.298
16668	9.4558	3.4545	0.	4644.7
16669	9.3643	3.3636	0.	4900.1
16670	9.3643	3.4545	5.e-002	69.262
16671	9.6388	3.4545	0.	4287.5
16672	9.5473	3.3636	0.	4486.6
16673	9.5473	3.4545	5.e-002	56.933
16674	9.8217	3.4545	0.	4007.6
16675	9.7302	3.3636	0.	4163.3
16676	9.7302	3.4545	5.e-002	47.281
16677	10.005	3.4545	0.	3785.2
16678	9.9132	3.3636	0.	3907.8
16679	9.9132	3.4545	5.e-002	39.635
16680	10.188	3.4545	0.	3605.7
16681	10.096	3.3636	0.	3703.3
16682	10.096	3.4545	5.e-002	33.544
16683	10.371	3.4545	0.	3458.7
16684	10.279	3.3636	0.	3537.3
16685	10.279	3.4545	5.e-002	28.674
16686	10.553	3.4545	0.	3336.3
16687	10.462	3.3636	0.	3400.5
16688	10.462	3.4545	5.e-002	24.774
16689	10.736	3.4545	0.	3232.6
16690	10.645	3.3636	0.	3286.
16691	10.645	3.4545	5.e-002	21.646
16692	10.919	3.4545	0.	3143.2
16693	10.828	3.3636	0.	3188.5
16694	10.828	3.4545	5.e-002	19.136
16695	11.102	3.4545	0.	3064.8
16696	11.011	3.3636	0.	3103.8
16697	11.011	3.4545	5.e-002	17.12
16698	11.285	3.4545	0.	2994.7
16699	11.194	3.3636	0.	3029.1
16700	11.194	3.4545	5.e-002	15.498
16701	11.468	3.4545	0.	2931.
16702	11.377	3.3636	0.	2961.9
16703	11.377	3.4545	5.e-002	14.192
16704	11.651	3.4545	0.	2872.1
16705	11.56	3.3636	0.	2900.5
16706	11.56	3.4545	5.e-002	13.139
16707	11.834	3.4545	0.	2817.
16708	11.743	3.3636	0.	2843.4
16709	11.743	3.4545	5.e-002	12.288
16710	12.017	3.4545	0.	2764.6
16711	11.926	3.3636	0.	2789.6
16712	11.926	3.4545	5.e-002	11.598
16713	12.2	3.4545	0.	2714.3
16714	12.109	3.3636	0.	2738.3
16715	12.109	3.4545	5.e-002	11.037
16716	12.383	3.4545	0.	2665.7
16717	12.291	3.3636	0.	2688.9
16718	12.291	3.4545	5.e-002	10.579
16719	12.566	3.4545	0.	2618.2
16720	12.474	3.3636	0.	2640.8
16721	12.474	3.4545	5.e-002	10.203
16722	12.749	3.4545	0.	2571.5
16723	12.657	3.3636	0.	2593.8
16724	12.657	3.4545	5.e-002	9.8921
16725	12.932	3.4545	0.	2525.6
16726	12.84	3.3636	0.	2547.6
16727	12.84	3.4545	5.e-002	9.6334
16728	13.115	3.4545	0.	2480.1
16729	13.023	3.3636	0.	2501.9
16730	13.023	3.4545	5.e-002	9.4165
16731	13.298	3.4545	0.	2434.9
16732	13.206	3.3636	0.	2456.7
16733	13.206	3.4545	5.e-002	9.2331
16734	13.481	3.4545	0.	2390.
16735	13.389	3.3636	0.	2411.7
16736	13.389	3.4545	5.e-002	9.0765
16737	13.664	3.4545	0.	2345.3
16738	13.572	3.3636	0.	2367.
16739	13.572	3.4545	5.e-002	8.9413
16740	13.847	3.4545	0.	2300.7
16741	13.755	3.3636	0.	2322.4
16742	13.755	3.4545	5.e-002	8.8233
16743	14.029	3.4545	0.	2256.3
16744	13.938	3.3636	0.	2277.9
16745	13.938	3.4545	5.e-002	8.7195
16746	14.212	3.4545	0.	2211.9
16747	14.121	3.3636	0.	2233.5
16748	14.121	3.4545	5.e-002	8.6271
16749	14.395	3.4545	0.	2167.6
16750	14.304	3.3636	0.	2189.2
16751	14.304	3.4545	5.e-002	8.5438
16752	14.578	3.4545	0.	2123.3
16753	14.487	3.3636	0.	2145.
16754	14.487	3.4545	5.e-002	8.4681
16755	14.761	3.4545	0.	2079.2
16756	14.67	3.3636	0.	2100.8
16757	14.67	3.4545	5.e-002	8.3987
16758	14.944	3.4545	0.	2035.1
16759	14.853	3.3636	0.	2056.7
16760	14.853	3.4545	5.e-002	8.3345
16761	15.127	3.4545	0.	1991.1
16762	15.036	3.3636	0.	2012.7
16763	15.036	3.4545	5.e-002	8.2745
16764	15.31	3.4545	0.	1947.1
16765	15.219	3.3636	0.	1968.7
16766	15.219	3.4545	5.e-002	8.218
16767	15.493	3.4545	0.	1903.3
16768	15.402	3.3636	0.	1924.9
16769	15.402	3.4545	5.e-002	8.1648
16770	15.676	3.4545	0.	1859.5
16771	15.584	3.3636	0.	1881.1
16772	15.584	3.4545	5.e-002	8.1142
16773	15.859	3.4545	0.	1815.9
16774	15.767	3.3636	0.	1837.4
16775	15.767	3.4545	5.e-002	8.0658
16776	16.042	3.4545	0.	1772.3
16777	15.95	3.3636	0.	1793.8
16778	15.95	3.4545	5.e-002	8.0193
16779	16.225	3.4545	0.	1728.9
16780	16.133	3.3636	0.	1750.3
16781	16.133	3.4545	5.e-002	7.9746
16782	16.408	3.4545	0.	1685.6
16783	16.316	3.3636	0.	1707.
16784	16.316	3.4545	5.e-002	7.9315
16785	16.591	3.4545	0.	1642.4
16786	16.499	3.3636	0.	1663.8
16787	16.499	3.4545	5.e-002	7.8897
16788	16.774	3.4545	0.	1599.4
16789	16.682	3.3636	0.	1620.7
16790	16.682	3.4545	5.e-002	7.8493
16791	16.957	3.4545	0.	1556.6
16792	16.865	3.3636	0.	1577.8
16793	16.865	3.4545	5.e-002	7.8101
16794	17.14	3.4545	0.	1513.9
16795	17.048	3.3636	0.	1535.
16796	17.048	3.4545	5.e-002	7.772
16797	17.322	3.4545	0.	1471.4
16798	17.231	3.3636	0.	1492.4
16799	17.231	3.4545	5.e-002	7.7348
16800	17.505	3.4545	0.	1429.
16801	17.414	3.3636	0.	1450.
16802	17.414	3.4545	5.e-002	7.6987
16803	17.688	3.4545	0.	1386.9
16804	17.597	3.3636	0.	1407.8
16805	17.597	3.4545	5.e-002	7.6636
16806	17.871	3.4545	0.	1344.9
16807	17.78	3.3636	0.	1365.7
16808	17.78	3.4545	5.e-002	7.6295
16809	18.054	3.4545	0.	1303.2
16810	17.963	3.3636	0.	1323.9
16811	17.963	3.4545	5.e-002	7.5962
16812	18.237	3.4545	0.	1261.6
16813	18.146	3.3636	0.	1282.2
16814	18.146	3.4545	5.e-002	7.5639
16815	18.42	3.4545	0.	1220.3
16816	18.329	3.3636	0.	1240.8
16817	18.329	3.4545	5.e-002	7.5326
16818	18.603	3.4545	0.	1179.2
16819	18.512	3.3636	0.	1199.6
16820	18.512	3.4545	5.e-002	7.5023
16821	18.786	3.4545	0.	1138.4
16822	18.695	3.3636	0.	1158.7
16823	18.695	3.4545	5.e-002	7.4729
16824	18.969	3.4545	0.	1097.8
16825	18.878	3.3636	0.	1118.
16826	18.878	3.4545	5.e-002	7.4445
16827	19.152	3.4545	0.	1057.4
16828	19.06	3.3636	0.	1077.5
16829	19.06	3.4545	5.e-002	7.4174
16830	19.335	3.4545	0.	1017.3
16831	19.243	3.3636	0.	1037.3
16832	19.243	3.4545	5.e-002	7.3913
16833	19.518	3.4545	0.	977.52
16834	19.426	3.3636	0.	997.38
16835	19.426	3.4545	5.e-002	7.3665
16836	19.701	3.4545	0.	938.01
16837	19.609	3.3636	0.	957.73
16838	19.609	3.4545	5.e-002	7.343
16839	19.884	3.4545	0.	898.79
16840	19.792	3.3636	0.	918.39
16841	19.792	3.4545	5.e-002	7.321
16842	20.067	3.4545	0.	859.89
16843	19.975	3.3636	0.	879.36
16844	19.975	3.4545	5.e-002	7.3006
16845	20.25	3.4545	0.	821.32
16846	20.158	3.3636	0.	840.64
16847	20.158	3.4545	5.e-002	7.2818
16848	20.433	3.4545	0.	783.09
16849	20.341	3.3636	0.	802.27
16850	20.341	3.4545	5.e-002	7.2649
16851	20.616	3.4545	0.	745.22
16852	20.524	3.3636	0.	764.25
16853	20.524	3.4545	5.e-002	7.2502
16854	20.798	3.4545	0.	707.73
16855	20.707	3.3636	0.	726.6
16856	20.707	3.4545	5.e-002	7.2377
16857	20.981	3.4545	0.	670.64
16858	20.89	3.3636	0.	689.33
16859	20.89	3.4545	5.e-002	7.2277
16860	21.164	3.4545	0.	633.96
16861	21.073	3.3636	0.	652.48
16862	21.073	3.4545	5.e-002	7.2207
16863	21.347	3.4545	0.	597.73
16864	21.256	3.3636	0.	616.07
16865	21.256	3.4545	5.e-002	7.217
16866	21.53	3.4545	0.	561.98
16867	21.439	3.3636	0.	580.11
16868	21.439	3.4545	5.e-002	7.2168
16869	21.713	3.4545	0.	526.74
16870	21.622	3.3636	0.	544.65
16871	21.622	3.4545	5.e-002	7.2207
16872	21.896	3.4545	0.	492.05
16873	21.805	3.3636	0.	509.73
16874	21.805	3.4545	5.e-002	7.2291
16875	22.079	3.4545	0.	457.98
16876	21.988	3.3636	0.	475.38
16877	21.988	3.4545	5.e-002	7.2426
16878	22.262	3.4545	0.	424.58
16879	22.171	3.3636	0.	441.68
16880	22.171	3.4545	5.e-002	7.2617
16881	22.445	3.4545	0.	391.94
16882	22.353	3.3636	0.	408.7
16883	22.353	3.4545	5.e-002	7.287
16884	22.628	3.4545	0.	360.2
16885	22.536	3.3636	0.	376.54
16886	22.536	3.4545	5.e-002	7.319
16887	22.811	3.4545	0.	329.51
16888	22.719	3.3636	0.	345.34
16889	22.719	3.4545	5.e-002	7.3583
16890	22.994	3.4545	0.	300.11
16891	22.902	3.3636	0.	315.31
16892	22.902	3.4545	5.e-002	7.4053
16893	23.177	3.4545	0.	272.33
16894	23.085	3.3636	0.	286.71
16895	23.085	3.4545	5.e-002	7.4602
16896	23.36	3.4545	0.	246.66
16897	23.268	3.3636	0.	259.96
16898	23.268	3.4545	5.e-002	7.5231
16899	23.543	3.4545	0.	223.75
16900	23.451	3.3636	0.	235.61
16901	23.451	3.4545	5.e-002	7.5936
16902	23.726	3.4545	0.	204.5
16903	23.634	3.3636	0.	214.45
16904	23.634	3.4545	5.e-002	7.6717
16905	23.817	3.3636	0.	197.49
16906	23.817	3.4545	5.e-002	7.7732
16907	23.909	3.4545	0.	190.75
16908	8.5411	3.2727	0.	8479.9
16909	8.4496	3.1818	0.	8838.7
16910	8.4496	3.2727	5.e-002	92.183
16911	8.724	3.2727	0.	7531.6
16912	8.6326	3.1818	0.	7975.6
16913	8.6326	3.2727	5.e-002	116.27
16914	8.907	3.2727	0.	6620.4
16915	8.8155	3.1818	0.	7051.3
16916	8.8155	3.2727	5.e-002	114.64
16917	9.0899	3.2727	0.	5848.4
16918	8.9985	3.1818	0.	6220.
16919	8.9985	3.2727	5.e-002	101.5
16920	9.2729	3.2727	0.	5229.8
16921	9.1814	3.1818	0.	5532.2
16922	9.1814	3.2727	5.e-002	86.09
16923	9.4558	3.2727	0.	4743.8
16924	9.3643	3.1818	0.	4983.7
16925	9.3643	3.2727	5.e-002	71.792
16926	9.6388	3.2727	0.	4363.3
16927	9.5473	3.1818	0.	4552.
16928	9.5473	3.2727	5.e-002	59.607
16929	9.8217	3.2727	0.	4063.9
16930	9.7302	3.1818	0.	4212.5
16931	9.7302	3.2727	5.e-002	49.586
16932	10.005	3.2727	0.	3826.1
16933	9.9132	3.1818	0.	3943.8
16934	9.9132	3.2727	5.e-002	41.482
16935	10.188	3.2727	0.	3634.9
16936	10.096	3.1818	0.	3729.2
16937	10.096	3.2727	5.e-002	34.977
16938	10.371	3.2727	0.	3479.2
16939	10.279	3.1818	0.	3555.6
16940	10.279	3.2727	5.e-002	29.775
16941	10.553	3.2727	0.	3350.3
16942	10.462	3.1818	0.	3413.2
16943	10.462	3.2727	5.e-002	25.62
16944	10.736	3.2727	0.	3241.9
16945	10.645	3.1818	0.	3294.5
16946	10.645	3.2727	5.e-002	22.301
16947	10.919	3.2727	0.	3149.1
16948	10.828	3.1818	0.	3194.
16949	10.828	3.2727	5.e-002	19.647
16950	11.102	3.2727	0.	3068.2
16951	11.011	3.1818	0.	3107.2
16952	11.011	3.2727	5.e-002	17.522
16953	11.285	3.2727	0.	2996.3
16954	11.194	3.1818	0.	3030.9
16955	11.194	3.2727	5.e-002	15.818
16956	11.468	3.2727	0.	2931.4
16957	11.377	3.1818	0.	2962.6
16958	11.377	3.2727	5.e-002	14.448
16959	11.651	3.2727	0.	2871.7
16960	11.56	3.1818	0.	2900.4
16961	11.56	3.2727	5.e-002	13.346
16962	11.834	3.2727	0.	2816.
16963	11.743	3.1818	0.	2842.8
16964	11.743	3.2727	5.e-002	12.455
16965	12.017	3.2727	0.	2763.3
16966	11.926	3.1818	0.	2788.7
16967	11.926	3.2727	5.e-002	11.734
16968	12.2	3.2727	0.	2712.8
16969	12.109	3.1818	0.	2737.2
16970	12.109	3.2727	5.e-002	11.147
16971	12.383	3.2727	0.	2664.1
16972	12.291	3.1818	0.	2687.7
16973	12.291	3.2727	5.e-002	10.668
16974	12.566	3.2727	0.	2616.5
16975	12.474	3.1818	0.	2639.6
16976	12.474	3.2727	5.e-002	10.275
16977	12.749	3.2727	0.	2569.9
16978	12.657	3.1818	0.	2592.6
16979	12.657	3.2727	5.e-002	9.951
16980	12.932	3.2727	0.	2524.
16981	12.84	3.1818	0.	2546.4
16982	12.84	3.2727	5.e-002	9.6812
16983	13.115	3.2727	0.	2478.6
16984	13.023	3.1818	0.	2500.8
16985	13.023	3.2727	5.e-002	9.4552
16986	13.298	3.2727	0.	2433.5
16987	13.206	3.1818	0.	2455.6
16988	13.206	3.2727	5.e-002	9.2644
16989	13.481	3.2727	0.	2388.7
16990	13.389	3.1818	0.	2410.7
16991	13.389	3.2727	5.e-002	9.1018
16992	13.664	3.2727	0.	2344.
16993	13.572	3.1818	0.	2366.
16994	13.572	3.2727	5.e-002	8.9618
16995	13.847	3.2727	0.	2299.6
16996	13.755	3.1818	0.	2321.5
16997	13.755	3.2727	5.e-002	8.8399
16998	14.029	3.2727	0.	2255.2
16999	13.938	3.1818	0.	2277.
17000	13.938	3.2727	5.e-002	8.733
17001	14.212	3.2727	0.	2210.9
17002	14.121	3.1818	0.	2232.7
17003	14.121	3.2727	5.e-002	8.638
17004	14.395	3.2727	0.	2166.6
17005	14.304	3.1818	0.	2188.5
17006	14.304	3.2727	5.e-002	8.5527
17007	14.578	3.2727	0.	2122.5
17008	14.487	3.1818	0.	2144.3
17009	14.487	3.2727	5.e-002	8.4754
17010	14.761	3.2727	0.	2078.4
17011	14.67	3.1818	0.	2100.2
17012	14.67	3.2727	5.e-002	8.4047
17013	14.944	3.2727	0.	2034.3
17014	14.853	3.1818	0.	2056.1
17015	14.853	3.2727	5.e-002	8.3394
17016	15.127	3.2727	0.	1990.4
17017	15.036	3.1818	0.	2012.2
17018	15.036	3.2727	5.e-002	8.2786
17019	15.31	3.2727	0.	1946.5
17020	15.219	3.1818	0.	1968.2
17021	15.219	3.2727	5.e-002	8.2215
17022	15.493	3.2727	0.	1902.7
17023	15.402	3.1818	0.	1924.4
17024	15.402	3.2727	5.e-002	8.1677
17025	15.676	3.2727	0.	1859.
17026	15.584	3.1818	0.	1880.6
17027	15.584	3.2727	5.e-002	8.1167
17028	15.859	3.2727	0.	1815.4
17029	15.767	3.1818	0.	1837.
17030	15.767	3.2727	5.e-002	8.0679
17031	16.042	3.2727	0.	1771.8
17032	15.95	3.1818	0.	1793.4
17033	15.95	3.2727	5.e-002	8.0211
17034	16.225	3.2727	0.	1728.5
17035	16.133	3.1818	0.	1750.
17036	16.133	3.2727	5.e-002	7.9763
17037	16.408	3.2727	0.	1685.2
17038	16.316	3.1818	0.	1706.7
17039	16.316	3.2727	5.e-002	7.933
17040	16.591	3.2727	0.	1642.1
17041	16.499	3.1818	0.	1663.5
17042	16.499	3.2727	5.e-002	7.8911
17043	16.774	3.2727	0.	1599.1
17044	16.682	3.1818	0.	1620.4
17045	16.682	3.2727	5.e-002	7.8505
17046	16.957	3.2727	0.	1556.3
17047	16.865	3.1818	0.	1577.5
17048	16.865	3.2727	5.e-002	7.8112
17049	17.14	3.2727	0.	1513.6
17050	17.048	3.1818	0.	1534.8
17051	17.048	3.2727	5.e-002	7.773
17052	17.322	3.2727	0.	1471.1
17053	17.231	3.1818	0.	1492.2
17054	17.231	3.2727	5.e-002	7.7358
17055	17.505	3.2727	0.	1428.8
17056	17.414	3.1818	0.	1449.8
17057	17.414	3.2727	5.e-002	7.6996
17058	17.688	3.2727	0.	1386.7
17059	17.597	3.1818	0.	1407.6
17060	17.597	3.2727	5.e-002	7.6645
17061	17.871	3.2727	0.	1344.7
17062	17.78	3.1818	0.	1365.6
17063	17.78	3.2727	5.e-002	7.6303
17064	18.054	3.2727	0.	1303.
17065	17.963	3.1818	0.	1323.8
17066	17.963	3.2727	5.e-002	7.597
17067	18.237	3.2727	0.	1261.5
17068	18.146	3.1818	0.	1282.1
17069	18.146	3.2727	5.e-002	7.5647
17070	18.42	3.2727	0.	1220.2
17071	18.329	3.1818	0.	1240.7
17072	18.329	3.2727	5.e-002	7.5334
17073	18.603	3.2727	0.	1179.1
17074	18.512	3.1818	0.	1199.6
17075	18.512	3.2727	5.e-002	7.5031
17076	18.786	3.2727	0.	1138.3
17077	18.695	3.1818	0.	1158.6
17078	18.695	3.2727	5.e-002	7.4737
17079	18.969	3.2727	0.	1097.8
17080	18.878	3.1818	0.	1118.
17081	18.878	3.2727	5.e-002	7.4454
17082	19.152	3.2727	0.	1057.4
17083	19.06	3.1818	0.	1077.5
17084	19.06	3.2727	5.e-002	7.4182
17085	19.335	3.2727	0.	1017.4
17086	19.243	3.1818	0.	1037.3
17087	19.243	3.2727	5.e-002	7.3923
17088	19.518	3.2727	0.	977.64
17089	19.426	3.1818	0.	997.45
17090	19.426	3.2727	5.e-002	7.3675
17091	19.701	3.2727	0.	938.17
17092	19.609	3.1818	0.	957.84
17093	19.609	3.2727	5.e-002	7.344
17094	19.884	3.2727	0.	899.
17095	19.792	3.1818	0.	918.53
17096	19.792	3.2727	5.e-002	7.3221
17097	20.067	3.2727	0.	860.15
17098	19.975	3.1818	0.	879.53
17099	19.975	3.2727	5.e-002	7.3018
17100	20.25	3.2727	0.	821.64
17101	20.158	3.1818	0.	840.86
17102	20.158	3.2727	5.e-002	7.2831
17103	20.433	3.2727	0.	783.47
17104	20.341	3.1818	0.	802.53
17105	20.341	3.2727	5.e-002	7.2664
17106	20.616	3.2727	0.	745.66
17107	20.524	3.1818	0.	764.55
17108	20.524	3.2727	5.e-002	7.2518
17109	20.798	3.2727	0.	708.23
17110	20.707	3.1818	0.	726.95
17111	20.707	3.2727	5.e-002	7.2395
17112	20.981	3.2727	0.	671.21
17113	20.89	3.1818	0.	689.74
17114	20.89	3.2727	5.e-002	7.2298
17115	21.164	3.2727	0.	634.61
17116	21.073	3.1818	0.	652.94
17117	21.073	3.2727	5.e-002	7.2231
17118	21.347	3.2727	0.	598.46
17119	21.256	3.1818	0.	616.59
17120	21.256	3.2727	5.e-002	7.2197
17121	21.53	3.2727	0.	562.79
17122	21.439	3.1818	0.	580.69
17123	21.439	3.2727	5.e-002	7.2199
17124	21.713	3.2727	0.	527.64
17125	21.622	3.1818	0.	545.3
17126	21.622	3.2727	5.e-002	7.2242
17127	21.896	3.2727	0.	493.04
17128	21.805	3.1818	0.	510.44
17129	21.805	3.2727	5.e-002	7.233
17130	22.079	3.2727	0.	459.05
17131	21.988	3.1818	0.	476.16
17132	21.988	3.2727	5.e-002	7.247
17133	22.262	3.2727	0.	425.74
17134	22.171	3.1818	0.	442.52
17135	22.171	3.2727	5.e-002	7.2666
17136	22.445	3.2727	0.	393.19
17137	22.353	3.1818	0.	409.6
17138	22.353	3.2727	5.e-002	7.2923
17139	22.628	3.2727	0.	361.53
17140	22.536	3.1818	0.	377.51
17141	22.536	3.2727	5.e-002	7.3247
17142	22.811	3.2727	0.	330.93
17143	22.719	3.1818	0.	346.37
17144	22.719	3.2727	5.e-002	7.3642
17145	22.994	3.2727	0.	301.61
17146	22.902	3.1818	0.	316.4
17147	22.902	3.2727	5.e-002	7.4111
17148	23.177	3.2727	0.	273.91
17149	23.085	3.1818	0.	287.87
17150	23.085	3.2727	5.e-002	7.4657
17151	23.36	3.2727	0.	248.31
17152	23.268	3.1818	0.	261.18
17153	23.268	3.2727	5.e-002	7.5279
17154	23.543	3.2727	0.	225.48
17155	23.451	3.1818	0.	236.88
17156	23.451	3.2727	5.e-002	7.5973
17157	23.726	3.2727	0.	206.29
17158	23.634	3.1818	0.	215.78
17159	23.634	3.2727	5.e-002	7.6735
17160	23.817	3.1818	0.	198.84
17161	23.817	3.2727	5.e-002	7.7673
17162	23.909	3.2727	0.	192.6
17163	8.5411	3.0909	0.	8344.5
17164	8.4496	3.	0.	8737.4
17165	8.4496	3.0909	5.e-002	72.259
17166	8.724	3.0909	0.	7508.9
17167	8.6326	3.	0.	7942.
17168	8.6326	3.0909	5.e-002	97.76
17169	8.907	3.0909	0.	6662.4
17170	8.8155	3.	0.	7063.2
17171	8.8155	3.0909	5.e-002	104.19
17172	9.0899	3.0909	0.	5911.6
17173	8.9985	3.	0.	6250.3
17174	8.9985	3.0909	5.e-002	97.803
17175	9.2729	3.0909	0.	5290.9
17176	9.1814	3.	0.	5564.8
17177	9.1814	3.0909	5.e-002	85.836
17178	9.4558	3.0909	0.	4794.7
17179	9.3643	3.	0.	5012.
17180	9.3643	3.0909	5.e-002	72.84
17181	9.6388	3.0909	0.	4402.7
17182	9.5473	3.	0.	4574.4
17183	9.5473	3.0909	5.e-002	60.923
17184	9.8217	3.0909	0.	4093.2
17185	9.7302	3.	0.	4229.3
17186	9.7302	3.0909	5.e-002	50.779
17187	10.005	3.0909	0.	3847.4
17188	9.9132	3.	0.	3956.2
17189	9.9132	3.0909	5.e-002	42.45
17190	10.188	3.0909	0.	3650.1
17191	10.096	3.	0.	3738.1
17192	10.096	3.0909	5.e-002	35.729
17193	10.371	3.0909	0.	3489.8
17194	10.279	3.	0.	3561.9
17195	10.279	3.0909	5.e-002	30.35
17196	10.553	3.0909	0.	3357.5
17197	10.462	3.	0.	3417.5
17198	10.462	3.0909	5.e-002	26.059
17199	10.736	3.0909	0.	3246.7
17200	10.645	3.	0.	3297.5
17201	10.645	3.0909	5.e-002	22.638
17202	10.919	3.0909	0.	3152.1
17203	10.828	3.	0.	3195.9
17204	10.828	3.0909	5.e-002	19.908
17205	11.102	3.0909	0.	3069.9
17206	11.011	3.	0.	3108.3
17207	11.011	3.0909	5.e-002	17.726
17208	11.285	3.0909	0.	2997.2
17209	11.194	3.	0.	3031.5
17210	11.194	3.0909	5.e-002	15.979
17211	11.468	3.0909	0.	2931.6
17212	11.377	3.	0.	2962.9
17213	11.377	3.0909	5.e-002	14.577
17214	11.651	3.0909	0.	2871.5
17215	11.56	3.	0.	2900.4
17216	11.56	3.0909	5.e-002	13.449
17217	11.834	3.0909	0.	2815.5
17218	11.743	3.	0.	2842.7
17219	11.743	3.0909	5.e-002	12.539
17220	12.017	3.0909	0.	2762.6
17221	11.926	3.	0.	2788.4
17222	11.926	3.0909	5.e-002	11.802
17223	12.2	3.0909	0.	2712.1
17224	12.109	3.	0.	2736.9
17225	12.109	3.0909	5.e-002	11.203
17226	12.383	3.0909	0.	2663.2
17227	12.291	3.	0.	2687.3
17228	12.291	3.0909	5.e-002	10.713
17229	12.566	3.0909	0.	2615.7
17230	12.474	3.	0.	2639.2
17231	12.474	3.0909	5.e-002	10.312
17232	12.749	3.0909	0.	2569.1
17233	12.657	3.	0.	2592.2
17234	12.657	3.0909	5.e-002	9.9806
17235	12.932	3.0909	0.	2523.2
17236	12.84	3.	0.	2546.
17237	12.84	3.0909	5.e-002	9.7052
17238	13.115	3.0909	0.	2477.8
17239	13.023	3.	0.	2500.4
17240	13.023	3.0909	5.e-002	9.4746
17241	13.298	3.0909	0.	2432.8
17242	13.206	3.	0.	2455.2
17243	13.206	3.0909	5.e-002	9.2801
17244	13.481	3.0909	0.	2388.
17245	13.389	3.	0.	2410.3
17246	13.389	3.0909	5.e-002	9.1146
17247	13.664	3.0909	0.	2343.4
17248	13.572	3.	0.	2365.7
17249	13.572	3.0909	5.e-002	8.9721
17250	13.847	3.0909	0.	2299.
17251	13.755	3.	0.	2321.2
17252	13.755	3.0909	5.e-002	8.8483
17253	14.029	3.0909	0.	2254.6
17254	13.938	3.	0.	2276.8
17255	13.938	3.0909	5.e-002	8.7398
17256	14.212	3.0909	0.	2210.4
17257	14.121	3.	0.	2232.5
17258	14.121	3.0909	5.e-002	8.6436
17259	14.395	3.0909	0.	2166.2
17260	14.304	3.	0.	2188.2
17261	14.304	3.0909	5.e-002	8.5572
17262	14.578	3.0909	0.	2122.
17263	14.487	3.	0.	2144.1
17264	14.487	3.0909	5.e-002	8.479
17265	14.761	3.0909	0.	2078.
17266	14.67	3.	0.	2100.
17267	14.67	3.0909	5.e-002	8.4077
17268	14.944	3.0909	0.	2034.
17269	14.853	3.	0.	2055.9
17270	14.853	3.0909	5.e-002	8.3419
17271	15.127	3.0909	0.	1990.
17272	15.036	3.	0.	2012.
17273	15.036	3.0909	5.e-002	8.2807
17274	15.31	3.0909	0.	1946.2
17275	15.219	3.	0.	1968.1
17276	15.219	3.0909	5.e-002	8.2232
17277	15.493	3.0909	0.	1902.4
17278	15.402	3.	0.	1924.2
17279	15.402	3.0909	5.e-002	8.1692
17280	15.676	3.0909	0.	1858.7
17281	15.584	3.	0.	1880.5
17282	15.584	3.0909	5.e-002	8.118
17283	15.859	3.0909	0.	1815.1
17284	15.767	3.	0.	1836.9
17285	15.767	3.0909	5.e-002	8.069
17286	16.042	3.0909	0.	1771.6
17287	15.95	3.	0.	1793.3
17288	15.95	3.0909	5.e-002	8.0221
17289	16.225	3.0909	0.	1728.2
17290	16.133	3.	0.	1749.9
17291	16.133	3.0909	5.e-002	7.9771
17292	16.408	3.0909	0.	1685.
17293	16.316	3.	0.	1706.6
17294	16.316	3.0909	5.e-002	7.9338
17295	16.591	3.0909	0.	1641.9
17296	16.499	3.	0.	1663.4
17297	16.499	3.0909	5.e-002	7.8917
17298	16.774	3.0909	0.	1598.9
17299	16.682	3.	0.	1620.3
17300	16.682	3.0909	5.e-002	7.8511
17301	16.957	3.0909	0.	1556.1
17302	16.865	3.	0.	1577.5
17303	16.865	3.0909	5.e-002	7.8118
17304	17.14	3.0909	0.	1513.5
17305	17.048	3.	0.	1534.7
17306	17.048	3.0909	5.e-002	7.7735
17307	17.322	3.0909	0.	1471.
17308	17.231	3.	0.	1492.2
17309	17.231	3.0909	5.e-002	7.7363
17310	17.505	3.0909	0.	1428.7
17311	17.414	3.	0.	1449.8
17312	17.414	3.0909	5.e-002	7.7001
17313	17.688	3.0909	0.	1386.6
17314	17.597	3.	0.	1407.6
17315	17.597	3.0909	5.e-002	7.6649
17316	17.871	3.0909	0.	1344.6
17317	17.78	3.	0.	1365.5
17318	17.78	3.0909	5.e-002	7.6308
17319	18.054	3.0909	0.	1302.9
17320	17.963	3.	0.	1323.7
17321	17.963	3.0909	5.e-002	7.5974
17322	18.237	3.0909	0.	1261.4
17323	18.146	3.	0.	1282.1
17324	18.146	3.0909	5.e-002	7.5651
17325	18.42	3.0909	0.	1220.2
17326	18.329	3.	0.	1240.7
17327	18.329	3.0909	5.e-002	7.5338
17328	18.603	3.0909	0.	1179.1
17329	18.512	3.	0.	1199.6
17330	18.512	3.0909	5.e-002	7.5035
17331	18.786	3.0909	0.	1138.3
17332	18.695	3.	0.	1158.6
17333	18.695	3.0909	5.e-002	7.4741
17334	18.969	3.0909	0.	1097.8
17335	18.878	3.	0.	1117.9
17336	18.878	3.0909	5.e-002	7.4458
17337	19.152	3.0909	0.	1057.5
17338	19.06	3.	0.	1077.5
17339	19.06	3.0909	5.e-002	7.4187
17340	19.335	3.0909	0.	1017.4
17341	19.243	3.	0.	1037.4
17342	19.243	3.0909	5.e-002	7.3927
17343	19.518	3.0909	0.	977.7
17344	19.426	3.	0.	997.47
17345	19.426	3.0909	5.e-002	7.3679
17346	19.701	3.0909	0.	938.25
17347	19.609	3.	0.	957.88
17348	19.609	3.0909	5.e-002	7.3445
17349	19.884	3.0909	0.	899.11
17350	19.792	3.	0.	918.58
17351	19.792	3.0909	5.e-002	7.3227
17352	20.067	3.0909	0.	860.29
17353	19.975	3.	0.	879.59
17354	19.975	3.0909	5.e-002	7.3024
17355	20.25	3.0909	0.	821.8
17356	20.158	3.	0.	840.93
17357	20.158	3.0909	5.e-002	7.2838
17358	20.433	3.0909	0.	783.66
17359	20.341	3.	0.	802.62
17360	20.341	3.0909	5.e-002	7.2671
17361	20.616	3.0909	0.	745.88
17362	20.524	3.	0.	764.66
17363	20.524	3.0909	5.e-002	7.2526
17364	20.798	3.0909	0.	708.49
17365	20.707	3.	0.	727.07
17366	20.707	3.0909	5.e-002	7.2404
17367	20.981	3.0909	0.	671.5
17368	20.89	3.	0.	689.88
17369	20.89	3.0909	5.e-002	7.2309
17370	21.164	3.0909	0.	634.94
17371	21.073	3.	0.	653.1
17372	21.073	3.0909	5.e-002	7.2243
17373	21.347	3.0909	0.	598.83
17374	21.256	3.	0.	616.76
17375	21.256	3.0909	5.e-002	7.221
17376	21.53	3.0909	0.	563.2
17377	21.439	3.	0.	580.89
17378	21.439	3.0909	5.e-002	7.2214
17379	21.713	3.0909	0.	528.09
17380	21.622	3.	0.	545.51
17381	21.622	3.0909	5.e-002	7.2259
17382	21.896	3.0909	0.	493.53
17383	21.805	3.	0.	510.67
17384	21.805	3.0909	5.e-002	7.235
17385	22.079	3.0909	0.	459.59
17386	21.988	3.	0.	476.42
17387	21.988	3.0909	5.e-002	7.2492
17388	22.262	3.0909	0.	426.32
17389	22.171	3.	0.	442.8
17390	22.171	3.0909	5.e-002	7.269
17391	22.445	3.0909	0.	393.82
17392	22.353	3.	0.	409.9
17393	22.353	3.0909	5.e-002	7.2949
17394	22.628	3.0909	0.	362.2
17395	22.536	3.	0.	377.83
17396	22.536	3.0909	5.e-002	7.3275
17397	22.811	3.0909	0.	331.63
17398	22.719	3.	0.	346.72
17399	22.719	3.0909	5.e-002	7.3671
17400	22.994	3.0909	0.	302.36
17401	22.902	3.	0.	316.77
17402	22.902	3.0909	5.e-002	7.414
17403	23.177	3.0909	0.	274.7
17404	23.085	3.	0.	288.26
17405	23.085	3.0909	5.e-002	7.4684
17406	23.36	3.0909	0.	249.14
17407	23.268	3.	0.	261.58
17408	23.268	3.0909	5.e-002	7.5303
17409	23.543	3.0909	0.	226.35
17410	23.451	3.	0.	237.31
17411	23.451	3.0909	5.e-002	7.5991
17412	23.726	3.0909	0.	207.18
17413	23.634	3.	0.	216.22
17414	23.634	3.0909	5.e-002	7.6744
17415	23.817	3.	0.	199.29
17416	23.817	3.0909	5.e-002	7.7644
17417	23.909	3.0909	0.	193.52
17418	8.5411	2.9091	0.	8344.5
17419	8.4496	2.8182	0.	8838.7
17420	8.4496	2.9091	5.e-002	72.259
17421	8.724	2.9091	0.	7508.9
17422	8.6326	2.8182	0.	7975.6
17423	8.6326	2.9091	5.e-002	97.76
17424	8.907	2.9091	0.	6662.4
17425	8.8155	2.8182	0.	7051.3
17426	8.8155	2.9091	5.e-002	104.19
17427	9.0899	2.9091	0.	5911.6
17428	8.9985	2.8182	0.	6220.
17429	8.9985	2.9091	5.e-002	97.803
17430	9.2729	2.9091	0.	5290.9
17431	9.1814	2.8182	0.	5532.2
17432	9.1814	2.9091	5.e-002	85.836
17433	9.4558	2.9091	0.	4794.7
17434	9.3643	2.8182	0.	4983.7
17435	9.3643	2.9091	5.e-002	72.84
17436	9.6388	2.9091	0.	4402.7
17437	9.5473	2.8182	0.	4552.
17438	9.5473	2.9091	5.e-002	60.923
17439	9.8217	2.9091	0.	4093.2
17440	9.7302	2.8182	0.	4212.5
17441	9.7302	2.9091	5.e-002	50.779
17442	10.005	2.9091	0.	3847.4
17443	9.9132	2.8182	0.	3943.8
17444	9.9132	2.9091	5.e-002	42.45
17445	10.188	2.9091	0.	3650.1
17446	10.096	2.8182	0.	3729.2
17447	10.096	2.9091	5.e-002	35.729
17448	10.371	2.9091	0.	3489.8
17449	10.279	2.8182	0.	3555.6
17450	10.279	2.9091	5.e-002	30.35
17451	10.553	2.9091	0.	3357.5
17452	10.462	2.8182	0.	3413.2
17453	10.462	2.9091	5.e-002	26.059
17454	10.736	2.9091	0.	3246.7
17455	10.645	2.8182	0.	3294.5
17456	10.645	2.9091	5.e-002	22.638
17457	10.919	2.9091	0.	3152.1
17458	10.828	2.8182	0.	3194.
17459	10.828	2.9091	5.e-002	19.908
17460	11.102	2.9091	0.	3069.9
17461	11.011	2.8182	0.	3107.2
17462	11.011	2.9091	5.e-002	17.726
17463	11.285	2.9091	0.	2997.2
17464	11.194	2.8182	0.	3030.9
17465	11.194	2.9091	5.e-002	15.979
17466	11.468	2.9091	0.	2931.6
17467	11.377	2.8182	0.	2962.6
17468	11.377	2.9091	5.e-002	14.577
17469	11.651	2.9091	0.	2871.5
17470	11.56	2.8182	0.	2900.4
17471	11.56	2.9091	5.e-002	13.449
17472	11.834	2.9091	0.	2815.5
17473	11.743	2.8182	0.	2842.8
17474	11.743	2.9091	5.e-002	12.539
17475	12.017	2.9091	0.	2762.6
17476	11.926	2.8182	0.	2788.7
17477	11.926	2.9091	5.e-002	11.802
17478	12.2	2.9091	0.	2712.1
17479	12.109	2.8182	0.	2737.2
17480	12.109	2.9091	5.e-002	11.203
17481	12.383	2.9091	0.	2663.2
17482	12.291	2.8182	0.	2687.7
17483	12.291	2.9091	5.e-002	10.713
17484	12.566	2.9091	0.	2615.7
17485	12.474	2.8182	0.	2639.6
17486	12.474	2.9091	5.e-002	10.312
17487	12.749	2.9091	0.	2569.1
17488	12.657	2.8182	0.	2592.6
17489	12.657	2.9091	5.e-002	9.9806
17490	12.932	2.9091	0.	2523.2
17491	12.84	2.8182	0.	2546.4
17492	12.84	2.9091	5.e-002	9.7052
17493	13.115	2.9091	0.	2477.8
17494	13.023	2.8182	0.	2500.8
17495	13.023	2.9091	5.e-002	9.4746
17496	13.298	2.9091	0.	2432.8
17497	13.206	2.8182	0.	2455.6
17498	13.206	2.9091	5.e-002	9.2801
17499	13.481	2.9091	0.	2388.
17500	13.389	2.8182	0.	2410.7
17501	13.389	2.9091	5.e-002	9.1146
17502	13.664	2.9091	0.	2343.4
17503	13.572	2.8182	0.	2366.
17504	13.572	2.9091	5.e-002	8.9721
17505	13.847	2.9091	0.	2299.
17506	13.755	2.8182	0.	2321.5
17507	13.755	2.9091	5.e-002	8.8483
17508	14.029	2.9091	0.	2254.6
17509	13.938	2.8182	0.	2277.
17510	13.938	2.9091	5.e-002	8.7398
17511	14.212	2.9091	0.	2210.4
17512	14.121	2.8182	0.	2232.7
17513	14.121	2.9091	5.e-002	8.6436
17514	14.395	2.9091	0.	2166.2
17515	14.304	2.8182	0.	2188.5
17516	14.304	2.9091	5.e-002	8.5572
17517	14.578	2.9091	0.	2122.
17518	14.487	2.8182	0.	2144.3
17519	14.487	2.9091	5.e-002	8.479
17520	14.761	2.9091	0.	2078.
17521	14.67	2.8182	0.	2100.2
17522	14.67	2.9091	5.e-002	8.4077
17523	14.944	2.9091	0.	2034.
17524	14.853	2.8182	0.	2056.1
17525	14.853	2.9091	5.e-002	8.3419
17526	15.127	2.9091	0.	1990.
17527	15.036	2.8182	0.	2012.2
17528	15.036	2.9091	5.e-002	8.2807
17529	15.31	2.9091	0.	1946.2
17530	15.219	2.8182	0.	1968.2
17531	15.219	2.9091	5.e-002	8.2232
17532	15.493	2.9091	0.	1902.4
17533	15.402	2.8182	0.	1924.4
17534	15.402	2.9091	5.e-002	8.1692
17535	15.676	2.9091	0.	1858.7
17536	15.584	2.8182	0.	1880.6
17537	15.584	2.9091	5.e-002	8.118
17538	15.859	2.9091	0.	1815.1
17539	15.767	2.8182	0.	1837.
17540	15.767	2.9091	5.e-002	8.069
17541	16.042	2.9091	0.	1771.6
17542	15.95	2.8182	0.	1793.4
17543	15.95	2.9091	5.e-002	8.0221
17544	16.225	2.9091	0.	1728.2
17545	16.133	2.8182	0.	1750.
17546	16.133	2.9091	5.e-002	7.9771
17547	16.408	2.9091	0.	1685.
17548	16.316	2.8182	0.	1706.7
17549	16.316	2.9091	5.e-002	7.9338
17550	16.591	2.9091	0.	1641.9
17551	16.499	2.8182	0.	1663.5
17552	16.499	2.9091	5.e-002	7.8917
17553	16.774	2.9091	0.	1598.9
17554	16.682	2.8182	0.	1620.4
17555	16.682	2.9091	5.e-002	7.8511
17556	16.957	2.9091	0.	1556.1
17557	16.865	2.8182	0.	1577.5
17558	16.865	2.9091	5.e-002	7.8118
17559	17.14	2.9091	0.	1513.5
17560	17.048	2.8182	0.	1534.8
17561	17.048	2.9091	5.e-002	7.7735
17562	17.322	2.9091	0.	1471.
17563	17.231	2.8182	0.	1492.2
17564	17.231	2.9091	5.e-002	7.7363
17565	17.505	2.9091	0.	1428.7
17566	17.414	2.8182	0.	1449.8
17567	17.414	2.9091	5.e-002	7.7001
17568	17.688	2.9091	0.	1386.6
17569	17.597	2.8182	0.	1407.6
17570	17.597	2.9091	5.e-002	7.6649
17571	17.871	2.9091	0.	1344.6
17572	17.78	2.8182	0.	1365.6
17573	17.78	2.9091	5.e-002	7.6308
17574	18.054	2.9091	0.	1302.9
17575	17.963	2.8182	0.	1323.8
17576	17.963	2.9091	5.e-002	7.5974
17577	18.237	2.9091	0.	1261.4
17578	18.146	2.8182	0.	1282.1
17579	18.146	2.9091	5.e-002	7.5651
17580	18.42	2.9091	0.	1220.2
17581	18.329	2.8182	0.	1240.7
17582	18.329	2.9091	5.e-002	7.5338
17583	18.603	2.9091	0.	1179.1
17584	18.512	2.8182	0.	1199.6
17585	18.512	2.9091	5.e-002	7.5035
17586	18.786	2.9091	0.	1138.3
17587	18.695	2.8182	0.	1158.6
17588	18.695	2.9091	5.e-002	7.4741
17589	18.969	2.9091	0.	1097.8
17590	18.878	2.8182	0.	1118.
17591	18.878	2.9091	5.e-002	7.4458
17592	19.152	2.9091	0.	1057.5
17593	19.06	2.8182	0.	1077.5
17594	19.06	2.9091	5.e-002	7.4187
17595	19.335	2.9091	0.	1017.4
17596	19.243	2.8182	0.	1037.3
17597	19.243	2.9091	5.e-002	7.3927
17598	19.518	2.9091	0.	977.7
17599	19.426	2.8182	0.	997.45
17600	19.426	2.9091	5.e-002	7.3679
17601	19.701	2.9091	0.	938.25
17602	19.609	2.8182	0.	957.84
17603	19.609	2.9091	5.e-002	7.3445
17604	19.884	2.9091	0.	899.11
17605	19.792	2.8182	0.	918.53
17606	19.792	2.9091	5.e-002	7.3227
17607	20.067	2.9091	0.	860.29
17608	19.975	2.8182	0.	879.53
17609	19.975	2.9091	5.e-002	7.3024
17610	20.25	2.9091	0.	821.8
17611	20.158	2.8182	0.	840.86
17612	20.158	2.9091	5.e-002	7.2838
17613	20.433	2.9091	0.	783.66
17614	20.341	2.8182	0.	802.53
17615	20.341	2.9091	5.e-002	7.2671
17616	20.616	2.9091	0.	745.88
17617	20.524	2.8182	0.	764.55
17618	20.524	2.9091	5.e-002	7.2526
17619	20.798	2.9091	0.	708.49
17620	20.707	2.8182	0.	726.95
17621	20.707	2.9091	5.e-002	7.2404
17622	20.981	2.9091	0.	671.5
17623	20.89	2.8182	0.	689.74
17624	20.89	2.9091	5.e-002	7.2309
17625	21.164	2.9091	0.	634.94
17626	21.073	2.8182	0.	652.94
17627	21.073	2.9091	5.e-002	7.2243
17628	21.347	2.9091	0.	598.83
17629	21.256	2.8182	0.	616.59
17630	21.256	2.9091	5.e-002	7.221
17631	21.53	2.9091	0.	563.2
17632	21.439	2.8182	0.	580.69
17633	21.439	2.9091	5.e-002	7.2214
17634	21.713	2.9091	0.	528.09
17635	21.622	2.8182	0.	545.3
17636	21.622	2.9091	5.e-002	7.2259
17637	21.896	2.9091	0.	493.53
17638	21.805	2.8182	0.	510.44
17639	21.805	2.9091	5.e-002	7.235
17640	22.079	2.9091	0.	459.59
17641	21.988	2.8182	0.	476.16
17642	21.988	2.9091	5.e-002	7.2492
17643	22.262	2.9091	0.	426.32
17644	22.171	2.8182	0.	442.52
17645	22.171	2.9091	5.e-002	7.269
17646	22.445	2.9091	0.	393.82
17647	22.353	2.8182	0.	409.6
17648	22.353	2.9091	5.e-002	7.2949
17649	22.628	2.9091	0.	362.2
17650	22.536	2.8182	0.	377.51
17651	22.536	2.9091	5.e-002	7.3275
17652	22.811	2.9091	0.	331.63
17653	22.719	2.8182	0.	346.37
17654	22.719	2.9091	5.e-002	7.3671
17655	22.994	2.9091	0.	302.36
17656	22.902	2.8182	0.	316.4
17657	22.902	2.9091	5.e-002	7.414
17658	23.177	2.9091	0.	274.7
17659	23.085	2.8182	0.	287.87
17660	23.085	2.9091	5.e-002	7.4684
17661	23.36	2.9091	0.	249.14
17662	23.268	2.8182	0.	261.18
17663	23.268	2.9091	5.e-002	7.5303
17664	23.543	2.9091	0.	226.35
17665	23.451	2.8182	0.	236.88
17666	23.451	2.9091	5.e-002	7.5991
17667	23.726	2.9091	0.	207.18
17668	23.634	2.8182	0.	215.78
17669	23.634	2.9091	5.e-002	7.6744
17670	23.817	2.8182	0.	198.84
17671	23.817	2.9091	5.e-002	7.7644
17672	23.909	2.9091	0.	193.52
17673	8.5411	2.7273	0.	8479.9
17674	8.4496	2.6364	0.	9152.1
17675	8.4496	2.7273	5.e-002	92.183
17676	8.724	2.7273	0.	7531.6
17677	8.6326	2.6364	0.	8060.1
17678	8.6326	2.7273	5.e-002	116.27
17679	8.907	2.7273	0.	6620.4
17680	8.8155	2.6364	0.	6998.5
17681	8.8155	2.7273	5.e-002	114.64
17682	9.0899	2.7273	0.	5848.4
17683	8.9985	2.6364	0.	6121.6
17684	8.9985	2.7273	5.e-002	101.5
17685	9.2729	2.7273	0.	5229.8
17686	9.1814	2.6364	0.	5433.2
17687	9.1814	2.7273	5.e-002	86.09
17688	9.4558	2.7273	0.	4743.8
17689	9.3643	2.6364	0.	4900.1
17690	9.3643	2.7273	5.e-002	71.792
17691	9.6388	2.7273	0.	4363.3
17692	9.5473	2.6364	0.	4486.6
17693	9.5473	2.7273	5.e-002	59.607
17694	9.8217	2.7273	0.	4063.9
17695	9.7302	2.6364	0.	4163.3
17696	9.7302	2.7273	5.e-002	49.586
17697	10.005	2.7273	0.	3826.1
17698	9.9132	2.6364	0.	3907.8
17699	9.9132	2.7273	5.e-002	41.482
17700	10.188	2.7273	0.	3634.9
17701	10.096	2.6364	0.	3703.3
17702	10.096	2.7273	5.e-002	34.977
17703	10.371	2.7273	0.	3479.2
17704	10.279	2.6364	0.	3537.3
17705	10.279	2.7273	5.e-002	29.775
17706	10.553	2.7273	0.	3350.3
17707	10.462	2.6364	0.	3400.5
17708	10.462	2.7273	5.e-002	25.62
17709	10.736	2.7273	0.	3241.9
17710	10.645	2.6364	0.	3286.
17711	10.645	2.7273	5.e-002	22.301
17712	10.919	2.7273	0.	3149.1
17713	10.828	2.6364	0.	3188.5
17714	10.828	2.7273	5.e-002	19.647
17715	11.102	2.7273	0.	3068.2
17716	11.011	2.6364	0.	3103.8
17717	11.011	2.7273	5.e-002	17.522
17718	11.285	2.7273	0.	2996.3
17719	11.194	2.6364	0.	3029.1
17720	11.194	2.7273	5.e-002	15.818
17721	11.468	2.7273	0.	2931.4
17722	11.377	2.6364	0.	2961.9
17723	11.377	2.7273	5.e-002	14.448
17724	11.651	2.7273	0.	2871.7
17725	11.56	2.6364	0.	2900.5
17726	11.56	2.7273	5.e-002	13.346
17727	11.834	2.7273	0.	2816.
17728	11.743	2.6364	0.	2843.4
17729	11.743	2.7273	5.e-002	12.455
17730	12.017	2.7273	0.	2763.3
17731	11.926	2.6364	0.	2789.6
17732	11.926	2.7273	5.e-002	11.734
17733	12.2	2.7273	0.	2712.8
17734	12.109	2.6364	0.	2738.3
17735	12.109	2.7273	5.e-002	11.147
17736	12.383	2.7273	0.	2664.1
17737	12.291	2.6364	0.	2688.9
17738	12.291	2.7273	5.e-002	10.668
17739	12.566	2.7273	0.	2616.5
17740	12.474	2.6364	0.	2640.8
17741	12.474	2.7273	5.e-002	10.275
17742	12.749	2.7273	0.	2569.9
17743	12.657	2.6364	0.	2593.8
17744	12.657	2.7273	5.e-002	9.951
17745	12.932	2.7273	0.	2524.
17746	12.84	2.6364	0.	2547.6
17747	12.84	2.7273	5.e-002	9.6812
17748	13.115	2.7273	0.	2478.6
17749	13.023	2.6364	0.	2501.9
17750	13.023	2.7273	5.e-002	9.4552
17751	13.298	2.7273	0.	2433.5
17752	13.206	2.6364	0.	2456.7
17753	13.206	2.7273	5.e-002	9.2644
17754	13.481	2.7273	0.	2388.7
17755	13.389	2.6364	0.	2411.7
17756	13.389	2.7273	5.e-002	9.1018
17757	13.664	2.7273	0.	2344.
17758	13.572	2.6364	0.	2367.
17759	13.572	2.7273	5.e-002	8.9618
17760	13.847	2.7273	0.	2299.6
17761	13.755	2.6364	0.	2322.4
17762	13.755	2.7273	5.e-002	8.8399
17763	14.029	2.7273	0.	2255.2
17764	13.938	2.6364	0.	2277.9
17765	13.938	2.7273	5.e-002	8.733
17766	14.212	2.7273	0.	2210.9
17767	14.121	2.6364	0.	2233.5
17768	14.121	2.7273	5.e-002	8.638
17769	14.395	2.7273	0.	2166.6
17770	14.304	2.6364	0.	2189.2
17771	14.304	2.7273	5.e-002	8.5527
17772	14.578	2.7273	0.	2122.5
17773	14.487	2.6364	0.	2145.
17774	14.487	2.7273	5.e-002	8.4754
17775	14.761	2.7273	0.	2078.4
17776	14.67	2.6364	0.	2100.8
17777	14.67	2.7273	5.e-002	8.4047
17778	14.944	2.7273	0.	2034.3
17779	14.853	2.6364	0.	2056.7
17780	14.853	2.7273	5.e-002	8.3394
17781	15.127	2.7273	0.	1990.4
17782	15.036	2.6364	0.	2012.7
17783	15.036	2.7273	5.e-002	8.2786
17784	15.31	2.7273	0.	1946.5
17785	15.219	2.6364	0.	1968.7
17786	15.219	2.7273	5.e-002	8.2215
17787	15.493	2.7273	0.	1902.7
17788	15.402	2.6364	0.	1924.9
17789	15.402	2.7273	5.e-002	8.1677
17790	15.676	2.7273	0.	1859.
17791	15.584	2.6364	0.	1881.1
17792	15.584	2.7273	5.e-002	8.1167
17793	15.859	2.7273	0.	1815.4
17794	15.767	2.6364	0.	1837.4
17795	15.767	2.7273	5.e-002	8.0679
17796	16.042	2.7273	0.	1771.8
17797	15.95	2.6364	0.	1793.8
17798	15.95	2.7273	5.e-002	8.0211
17799	16.225	2.7273	0.	1728.5
17800	16.133	2.6364	0.	1750.3
17801	16.133	2.7273	5.e-002	7.9763
17802	16.408	2.7273	0.	1685.2
17803	16.316	2.6364	0.	1707.
17804	16.316	2.7273	5.e-002	7.933
17805	16.591	2.7273	0.	1642.1
17806	16.499	2.6364	0.	1663.8
17807	16.499	2.7273	5.e-002	7.8911
17808	16.774	2.7273	0.	1599.1
17809	16.682	2.6364	0.	1620.7
17810	16.682	2.7273	5.e-002	7.8505
17811	16.957	2.7273	0.	1556.3
17812	16.865	2.6364	0.	1577.8
17813	16.865	2.7273	5.e-002	7.8112
17814	17.14	2.7273	0.	1513.6
17815	17.048	2.6364	0.	1535.
17816	17.048	2.7273	5.e-002	7.773
17817	17.322	2.7273	0.	1471.1
17818	17.231	2.6364	0.	1492.4
17819	17.231	2.7273	5.e-002	7.7358
17820	17.505	2.7273	0.	1428.8
17821	17.414	2.6364	0.	1450.
17822	17.414	2.7273	5.e-002	7.6996
17823	17.688	2.7273	0.	1386.7
17824	17.597	2.6364	0.	1407.8
17825	17.597	2.7273	5.e-002	7.6645
17826	17.871	2.7273	0.	1344.7
17827	17.78	2.6364	0.	1365.7
17828	17.78	2.7273	5.e-002	7.6303
17829	18.054	2.7273	0.	1303.
17830	17.963	2.6364	0.	1323.9
17831	17.963	2.7273	5.e-002	7.597
17832	18.237	2.7273	0.	1261.5
17833	18.146	2.6364	0.	1282.2
17834	18.146	2.7273	5.e-002	7.5647
17835	18.42	2.7273	0.	1220.2
17836	18.329	2.6364	0.	1240.8
17837	18.329	2.7273	5.e-002	7.5334
17838	18.603	2.7273	0.	1179.1
17839	18.512	2.6364	0.	1199.6
17840	18.512	2.7273	5.e-002	7.5031
17841	18.786	2.7273	0.	1138.3
17842	18.695	2.6364	0.	1158.7
17843	18.695	2.7273	5.e-002	7.4737
17844	18.969	2.7273	0.	1097.8
17845	18.878	2.6364	0.	1118.
17846	18.878	2.7273	5.e-002	7.4454
17847	19.152	2.7273	0.	1057.4
17848	19.06	2.6364	0.	1077.5
17849	19.06	2.7273	5.e-002	7.4182
17850	19.335	2.7273	0.	1017.4
17851	19.243	2.6364	0.	1037.3
17852	19.243	2.7273	5.e-002	7.3923
17853	19.518	2.7273	0.	977.64
17854	19.426	2.6364	0.	997.38
17855	19.426	2.7273	5.e-002	7.3675
17856	19.701	2.7273	0.	938.17
17857	19.609	2.6364	0.	957.73
17858	19.609	2.7273	5.e-002	7.344
17859	19.884	2.7273	0.	899.
17860	19.792	2.6364	0.	918.39
17861	19.792	2.7273	5.e-002	7.3221
17862	20.067	2.7273	0.	860.15
17863	19.975	2.6364	0.	879.36
17864	19.975	2.7273	5.e-002	7.3018
17865	20.25	2.7273	0.	821.64
17866	20.158	2.6364	0.	840.64
17867	20.158	2.7273	5.e-002	7.2831
17868	20.433	2.7273	0.	783.47
17869	20.341	2.6364	0.	802.27
17870	20.341	2.7273	5.e-002	7.2664
17871	20.616	2.7273	0.	745.66
17872	20.524	2.6364	0.	764.25
17873	20.524	2.7273	5.e-002	7.2518
17874	20.798	2.7273	0.	708.23
17875	20.707	2.6364	0.	726.6
17876	20.707	2.7273	5.e-002	7.2395
17877	20.981	2.7273	0.	671.21
17878	20.89	2.6364	0.	689.33
17879	20.89	2.7273	5.e-002	7.2298
17880	21.164	2.7273	0.	634.61
17881	21.073	2.6364	0.	652.48
17882	21.073	2.7273	5.e-002	7.2231
17883	21.347	2.7273	0.	598.46
17884	21.256	2.6364	0.	616.07
17885	21.256	2.7273	5.e-002	7.2197
17886	21.53	2.7273	0.	562.79
17887	21.439	2.6364	0.	580.11
17888	21.439	2.7273	5.e-002	7.2199
17889	21.713	2.7273	0.	527.64
17890	21.622	2.6364	0.	544.65
17891	21.622	2.7273	5.e-002	7.2242
17892	21.896	2.7273	0.	493.04
17893	21.805	2.6364	0.	509.73
17894	21.805	2.7273	5.e-002	7.233
17895	22.079	2.7273	0.	459.05
17896	21.988	2.6364	0.	475.38
17897	21.988	2.7273	5.e-002	7.247
17898	22.262	2.7273	0.	425.74
17899	22.171	2.6364	0.	441.68
17900	22.171	2.7273	5.e-002	7.2666
17901	22.445	2.7273	0.	393.19
17902	22.353	2.6364	0.	408.7
17903	22.353	2.7273	5.e-002	7.2923
17904	22.628	2.7273	0.	361.53
17905	22.536	2.6364	0.	376.54
17906	22.536	2.7273	5.e-002	7.3247
17907	22.811	2.7273	0.	330.93
17908	22.719	2.6364	0.	345.34
17909	22.719	2.7273	5.e-002	7.3642
17910	22.994	2.7273	0.	301.61
17911	22.902	2.6364	0.	315.31
17912	22.902	2.7273	5.e-002	7.4111
17913	23.177	2.7273	0.	273.91
17914	23.085	2.6364	0.	286.71
17915	23.085	2.7273	5.e-002	7.4657
17916	23.36	2.7273	0.	248.31
17917	23.268	2.6364	0.	259.96
17918	23.268	2.7273	5.e-002	7.5279
17919	23.543	2.7273	0.	225.48
17920	23.451	2.6364	0.	235.61
17921	23.451	2.7273	5.e-002	7.5973
17922	23.726	2.7273	0.	206.29
17923	23.634	2.6364	0.	214.45
17924	23.634	2.7273	5.e-002	7.6735
17925	23.817	2.6364	0.	197.49
17926	23.817	2.7273	5.e-002	7.7673
17927	23.909	2.7273	0.	192.6
17928	8.5411	2.5455	0.	8745.5
17929	8.4496	2.4545	0.	9721.4
17930	8.4496	2.5455	5.e-002	150.
17931	8.724	2.5455	0.	7544.4
17932	8.6326	2.4545	0.	8114.2
17933	8.6326	2.5455	5.e-002	159.11
17934	8.907	2.5455	0.	6512.
17935	8.8155	2.4545	0.	6857.4
17936	8.8155	2.5455	5.e-002	132.12
17937	9.0899	2.5455	0.	5713.3
17938	8.9985	2.4545	0.	5938.5
17939	8.9985	2.5455	5.e-002	106.39
17940	9.2729	2.5455	0.	5107.1
17941	9.1814	2.4545	0.	5266.8
17942	9.1814	2.5455	5.e-002	85.298
17943	9.4558	2.5455	0.	4644.7
17944	9.3643	2.4545	0.	4765.
17945	9.3643	2.5455	5.e-002	69.262
17946	9.6388	2.5455	0.	4287.5
17947	9.5473	2.4545	0.	4382.6
17948	9.5473	2.5455	5.e-002	56.933
17949	9.8217	2.5455	0.	4007.6
17950	9.7302	2.4545	0.	4085.6
17951	9.7302	2.5455	5.e-002	47.281
17952	10.005	2.5455	0.	3785.2
17953	9.9132	2.4545	0.	3850.8
17954	9.9132	2.5455	5.e-002	39.635
17955	10.188	2.5455	0.	3605.7
17956	10.096	2.4545	0.	3662.2
17957	10.096	2.5455	5.e-002	33.544
17958	10.371	2.5455	0.	3458.7
17959	10.279	2.4545	0.	3508.2
17960	10.279	2.5455	5.e-002	28.674
17961	10.553	2.5455	0.	3336.3
17962	10.462	2.4545	0.	3380.4
17963	10.462	2.5455	5.e-002	24.774
17964	10.736	2.5455	0.	3232.6
17965	10.645	2.4545	0.	3272.4
17966	10.645	2.5455	5.e-002	21.646
17967	10.919	2.5455	0.	3143.2
17968	10.828	2.4545	0.	3179.6
17969	10.828	2.5455	5.e-002	19.136
17970	11.102	2.5455	0.	3064.8
17971	11.011	2.4545	0.	3098.5
17972	11.011	2.5455	5.e-002	17.12
17973	11.285	2.5455	0.	2994.7
17974	11.194	2.4545	0.	3026.2
17975	11.194	2.5455	5.e-002	15.498
17976	11.468	2.5455	0.	2931.
17977	11.377	2.4545	0.	2960.8
17978	11.377	2.5455	5.e-002	14.192
17979	11.651	2.5455	0.	2872.1
17980	11.56	2.4545	0.	2900.5
17981	11.56	2.5455	5.e-002	13.139
17982	11.834	2.5455	0.	2817.
17983	11.743	2.4545	0.	2844.3
17984	11.743	2.5455	5.e-002	12.288
17985	12.017	2.5455	0.	2764.6
17986	11.926	2.4545	0.	2791.
17987	11.926	2.5455	5.e-002	11.598
17988	12.2	2.5455	0.	2714.3
17989	12.109	2.4545	0.	2740.1
17990	12.109	2.5455	5.e-002	11.037
17991	12.383	2.5455	0.	2665.7
17992	12.291	2.4545	0.	2690.8
17993	12.291	2.5455	5.e-002	10.579
17994	12.566	2.5455	0.	2618.2
17995	12.474	2.4545	0.	2642.8
17996	12.474	2.5455	5.e-002	10.203
17997	12.749	2.5455	0.	2571.5
17998	12.657	2.4545	0.	2595.9
17999	12.657	2.5455	5.e-002	9.8921
18000	12.932	2.5455	0.	2525.6
18001	12.84	2.4545	0.	2549.6
18002	12.84	2.5455	5.e-002	9.6334
18003	13.115	2.5455	0.	2480.1
18004	13.023	2.4545	0.	2503.8
18005	13.023	2.5455	5.e-002	9.4165
18006	13.298	2.5455	0.	2434.9
18007	13.206	2.4545	0.	2458.5
18008	13.206	2.5455	5.e-002	9.2331
18009	13.481	2.5455	0.	2390.
18010	13.389	2.4545	0.	2413.4
18011	13.389	2.5455	5.e-002	9.0765
18012	13.664	2.5455	0.	2345.3
18013	13.572	2.4545	0.	2368.5
18014	13.572	2.5455	5.e-002	8.9413
18015	13.847	2.5455	0.	2300.7
18016	13.755	2.4545	0.	2323.9
18017	13.755	2.5455	5.e-002	8.8233
18018	14.029	2.5455	0.	2256.3
18019	13.938	2.4545	0.	2279.3
18020	13.938	2.5455	5.e-002	8.7195
18021	14.212	2.5455	0.	2211.9
18022	14.121	2.4545	0.	2234.8
18023	14.121	2.5455	5.e-002	8.6271
18024	14.395	2.5455	0.	2167.6
18025	14.304	2.4545	0.	2190.4
18026	14.304	2.5455	5.e-002	8.5438
18027	14.578	2.5455	0.	2123.3
18028	14.487	2.4545	0.	2146.1
18029	14.487	2.5455	5.e-002	8.4681
18030	14.761	2.5455	0.	2079.2
18031	14.67	2.4545	0.	2101.9
18032	14.67	2.5455	5.e-002	8.3987
18033	14.944	2.5455	0.	2035.1
18034	14.853	2.4545	0.	2057.7
18035	14.853	2.5455	5.e-002	8.3345
18036	15.127	2.5455	0.	1991.1
18037	15.036	2.4545	0.	2013.6
18038	15.036	2.5455	5.e-002	8.2745
18039	15.31	2.5455	0.	1947.1
18040	15.219	2.4545	0.	1969.6
18041	15.219	2.5455	5.e-002	8.218
18042	15.493	2.5455	0.	1903.3
18043	15.402	2.4545	0.	1925.6
18044	15.402	2.5455	5.e-002	8.1648
18045	15.676	2.5455	0.	1859.5
18046	15.584	2.4545	0.	1881.8
18047	15.584	2.5455	5.e-002	8.1142
18048	15.859	2.5455	0.	1815.9
18049	15.767	2.4545	0.	1838.
18050	15.767	2.5455	5.e-002	8.0658
18051	16.042	2.5455	0.	1772.3
18052	15.95	2.4545	0.	1794.4
18053	15.95	2.5455	5.e-002	8.0193
18054	16.225	2.5455	0.	1728.9
18055	16.133	2.4545	0.	1750.9
18056	16.133	2.5455	5.e-002	7.9746
18057	16.408	2.5455	0.	1685.6
18058	16.316	2.4545	0.	1707.5
18059	16.316	2.5455	5.e-002	7.9315
18060	16.591	2.5455	0.	1642.4
18061	16.499	2.4545	0.	1664.3
18062	16.499	2.5455	5.e-002	7.8897
18063	16.774	2.5455	0.	1599.4
18064	16.682	2.4545	0.	1621.2
18065	16.682	2.5455	5.e-002	7.8493
18066	16.957	2.5455	0.	1556.6
18067	16.865	2.4545	0.	1578.2
18068	16.865	2.5455	5.e-002	7.8101
18069	17.14	2.5455	0.	1513.9
18070	17.048	2.4545	0.	1535.4
18071	17.048	2.5455	5.e-002	7.772
18072	17.322	2.5455	0.	1471.4
18073	17.231	2.4545	0.	1492.8
18074	17.231	2.5455	5.e-002	7.7348
18075	17.505	2.5455	0.	1429.
18076	17.414	2.4545	0.	1450.3
18077	17.414	2.5455	5.e-002	7.6987
18078	17.688	2.5455	0.	1386.9
18079	17.597	2.4545	0.	1408.1
18080	17.597	2.5455	5.e-002	7.6636
18081	17.871	2.5455	0.	1344.9
18082	17.78	2.4545	0.	1366.
18083	17.78	2.5455	5.e-002	7.6295
18084	18.054	2.5455	0.	1303.2
18085	17.963	2.4545	0.	1324.1
18086	17.963	2.5455	5.e-002	7.5962
18087	18.237	2.5455	0.	1261.6
18088	18.146	2.4545	0.	1282.4
18089	18.146	2.5455	5.e-002	7.5639
18090	18.42	2.5455	0.	1220.3
18091	18.329	2.4545	0.	1241.
18092	18.329	2.5455	5.e-002	7.5326
18093	18.603	2.5455	0.	1179.2
18094	18.512	2.4545	0.	1199.7
18095	18.512	2.5455	5.e-002	7.5023
18096	18.786	2.5455	0.	1138.4
18097	18.695	2.4545	0.	1158.7
18098	18.695	2.5455	5.e-002	7.4729
18099	18.969	2.5455	0.	1097.8
18100	18.878	2.4545	0.	1118.
18101	18.878	2.5455	5.e-002	7.4445
18102	19.152	2.5455	0.	1057.4
18103	19.06	2.4545	0.	1077.5
18104	19.06	2.5455	5.e-002	7.4174
18105	19.335	2.5455	0.	1017.3
18106	19.243	2.4545	0.	1037.2
18107	19.243	2.5455	5.e-002	7.3913
18108	19.518	2.5455	0.	977.52
18109	19.426	2.4545	0.	997.26
18110	19.426	2.5455	5.e-002	7.3665
18111	19.701	2.5455	0.	938.01
18112	19.609	2.4545	0.	957.57
18113	19.609	2.5455	5.e-002	7.343
18114	19.884	2.5455	0.	898.79
18115	19.792	2.4545	0.	918.16
18116	19.792	2.5455	5.e-002	7.321
18117	20.067	2.5455	0.	859.89
18118	19.975	2.4545	0.	879.07
18119	19.975	2.5455	5.e-002	7.3006
18120	20.25	2.5455	0.	821.32
18121	20.158	2.4545	0.	840.29
18122	20.158	2.5455	5.e-002	7.2818
18123	20.433	2.5455	0.	783.09
18124	20.341	2.4545	0.	801.85
18125	20.341	2.5455	5.e-002	7.2649
18126	20.616	2.5455	0.	745.22
18127	20.524	2.4545	0.	763.75
18128	20.524	2.5455	5.e-002	7.2502
18129	20.798	2.5455	0.	707.73
18130	20.707	2.4545	0.	726.01
18131	20.707	2.5455	5.e-002	7.2377
18132	20.981	2.5455	0.	670.64
18133	20.89	2.4545	0.	688.67
18134	20.89	2.5455	5.e-002	7.2277
18135	21.164	2.5455	0.	633.96
18136	21.073	2.4545	0.	651.72
18137	21.073	2.5455	5.e-002	7.2207
18138	21.347	2.5455	0.	597.73
18139	21.256	2.4545	0.	615.21
18140	21.256	2.5455	5.e-002	7.217
18141	21.53	2.5455	0.	561.98
18142	21.439	2.4545	0.	579.15
18143	21.439	2.5455	5.e-002	7.2168
18144	21.713	2.5455	0.	526.74
18145	21.622	2.4545	0.	543.59
18146	21.622	2.5455	5.e-002	7.2207
18147	21.896	2.5455	0.	492.05
18148	21.805	2.4545	0.	508.56
18149	21.805	2.5455	5.e-002	7.2291
18150	22.079	2.5455	0.	457.98
18151	21.988	2.4545	0.	474.1
18152	21.988	2.5455	5.e-002	7.2426
18153	22.262	2.5455	0.	424.58
18154	22.171	2.4545	0.	440.29
18155	22.171	2.5455	5.e-002	7.2617
18156	22.445	2.5455	0.	391.94
18157	22.353	2.4545	0.	407.19
18158	22.353	2.5455	5.e-002	7.287
18159	22.628	2.5455	0.	360.2
18160	22.536	2.4545	0.	374.92
18161	22.536	2.5455	5.e-002	7.319
18162	22.811	2.5455	0.	329.51
18163	22.719	2.4545	0.	343.62
18164	22.719	2.5455	5.e-002	7.3583
18165	22.994	2.5455	0.	300.11
18166	22.902	2.4545	0.	313.48
18167	22.902	2.5455	5.e-002	7.4053
18168	23.177	2.5455	0.	272.33
18169	23.085	2.4545	0.	284.78
18170	23.085	2.5455	5.e-002	7.4602
18171	23.36	2.5455	0.	246.66
18172	23.268	2.4545	0.	257.93
18173	23.268	2.5455	5.e-002	7.5231
18174	23.543	2.5455	0.	223.75
18175	23.451	2.4545	0.	233.48
18176	23.451	2.5455	5.e-002	7.5936
18177	23.726	2.5455	0.	204.5
18178	23.634	2.4545	0.	212.23
18179	23.634	2.5455	5.e-002	7.6717
18180	23.817	2.4545	0.	195.22
18181	23.817	2.5455	5.e-002	7.7732
18182	23.909	2.5455	0.	190.75
18183	8.5411	2.3636	0.	9115.7
18184	8.4496	2.2727	0.	10335
18185	8.4496	2.3636	5.e-002	268.04
18186	8.724	2.3636	0.	7451.
18187	8.6326	2.2727	0.	7987.4
18188	8.6326	2.3636	5.e-002	212.05
18189	8.907	2.3636	0.	6295.4
18190	8.8155	2.2727	0.	6564.6
18191	8.8155	2.3636	5.e-002	152.63
18192	9.0899	2.3636	0.	5496.6
18193	8.9985	2.2727	0.	5662.8
18194	8.9985	2.3636	5.e-002	107.12
18195	9.2729	2.3636	0.	4926.4
18196	9.1814	2.2727	0.	5038.6
18197	9.1814	2.3636	5.e-002	81.562
18198	9.4558	2.3636	0.	4503.6
18199	9.3643	2.2727	0.	4587.2
18200	9.3643	2.3636	5.e-002	64.886
18201	9.6388	2.3636	0.	4180.9
18202	9.5473	2.2727	0.	4247.7
18203	9.5473	2.3636	5.e-002	53.007
18204	9.8217	2.3636	0.	3928.8
18205	9.7302	2.2727	0.	3985.1
18206	9.7302	2.3636	5.e-002	44.054
18207	10.005	2.3636	0.	3727.9
18208	9.9132	2.2727	0.	3777.1
18209	9.9132	2.3636	5.e-002	37.083
18210	10.188	2.3636	0.	3564.7
18211	10.096	2.2727	0.	3608.9
18212	10.096	2.3636	5.e-002	31.555
18213	10.371	2.3636	0.	3429.9
18214	10.279	2.2727	0.	3470.3
18215	10.279	2.3636	5.e-002	27.13
18216	10.553	2.3636	0.	3316.5
18217	10.462	2.2727	0.	3353.9
18218	10.462	2.3636	5.e-002	23.572
18219	10.736	2.3636	0.	3219.4
18220	10.645	2.2727	0.	3254.5
18221	10.645	2.3636	5.e-002	20.705
18222	10.919	2.3636	0.	3134.9
18223	10.828	2.2727	0.	3167.9
18224	10.828	2.3636	5.e-002	18.394
18225	11.102	2.3636	0.	3059.9
18226	11.011	2.2727	0.	3091.3
18227	11.011	2.3636	5.e-002	16.529
18228	11.285	2.3636	0.	2992.3
18229	11.194	2.2727	0.	3022.4
18230	11.194	2.3636	5.e-002	15.025
18231	11.468	2.3636	0.	2930.4
18232	11.377	2.2727	0.	2959.3
18233	11.377	2.3636	5.e-002	13.811
18234	11.651	2.3636	0.	2872.7
18235	11.56	2.2727	0.	2900.6
18236	11.56	2.3636	5.e-002	12.831
18237	11.834	2.3636	0.	2818.3
18238	11.743	2.2727	0.	2845.5
18239	11.743	2.3636	5.e-002	12.038
18240	12.017	2.3636	0.	2766.5
18241	11.926	2.2727	0.	2792.9
18242	11.926	2.3636	5.e-002	11.395
18243	12.2	2.3636	0.	2716.5
18244	12.109	2.2727	0.	2742.4
18245	12.109	2.3636	5.e-002	10.873
18246	12.383	2.3636	0.	2668.
18247	12.291	2.2727	0.	2693.4
18248	12.291	2.3636	5.e-002	10.445
18249	12.566	2.3636	0.	2620.5
18250	12.474	2.2727	0.	2645.6
18251	12.474	2.3636	5.e-002	10.094
18252	12.749	2.3636	0.	2573.9
18253	12.657	2.2727	0.	2598.6
18254	12.657	2.3636	5.e-002	9.8043
18255	12.932	2.3636	0.	2527.9
18256	12.84	2.2727	0.	2552.2
18257	12.84	2.3636	5.e-002	9.5624
18258	13.115	2.3636	0.	2482.3
18259	13.023	2.2727	0.	2506.4
18260	13.023	2.3636	5.e-002	9.3591
18261	13.298	2.3636	0.	2437.
18262	13.206	2.2727	0.	2460.9
18263	13.206	2.3636	5.e-002	9.1867
18264	13.481	2.3636	0.	2392.
18265	13.389	2.2727	0.	2415.7
18266	13.389	2.3636	5.e-002	9.039
18267	13.664	2.3636	0.	2347.1
18268	13.572	2.2727	0.	2370.7
18269	13.572	2.3636	5.e-002	8.911
18270	13.847	2.3636	0.	2302.4
18271	13.755	2.2727	0.	2325.9
18272	13.755	2.3636	5.e-002	8.7988
18273	14.029	2.3636	0.	2257.9
18274	13.938	2.2727	0.	2281.2
18275	13.938	2.3636	5.e-002	8.6997
18276	14.212	2.3636	0.	2213.4
18277	14.121	2.2727	0.	2236.6
18278	14.121	2.3636	5.e-002	8.611
18279	14.395	2.3636	0.	2169.
18280	14.304	2.2727	0.	2192.1
18281	14.304	2.3636	5.e-002	8.5307
18282	14.578	2.3636	0.	2124.6
18283	14.487	2.2727	0.	2147.6
18284	14.487	2.3636	5.e-002	8.4573
18285	14.761	2.3636	0.	2080.4
18286	14.67	2.2727	0.	2103.3
18287	14.67	2.3636	5.e-002	8.3898
18288	14.944	2.3636	0.	2036.2
18289	14.853	2.2727	0.	2059.
18290	14.853	2.3636	5.e-002	8.3272
18291	15.127	2.3636	0.	1992.1
18292	15.036	2.2727	0.	2014.8
18293	15.036	2.3636	5.e-002	8.2684
18294	15.31	2.3636	0.	1948.1
18295	15.219	2.2727	0.	1970.7
18296	15.219	2.3636	5.e-002	8.2129
18297	15.493	2.3636	0.	1904.2
18298	15.402	2.2727	0.	1926.7
18299	15.402	2.3636	5.e-002	8.1605
18300	15.676	2.3636	0.	1860.3
18301	15.584	2.2727	0.	1882.8
18302	15.584	2.3636	5.e-002	8.1105
18303	15.859	2.3636	0.	1816.6
18304	15.767	2.2727	0.	1839.
18305	15.767	2.3636	5.e-002	8.0626
18306	16.042	2.3636	0.	1773.
18307	15.95	2.2727	0.	1795.3
18308	15.95	2.3636	5.e-002	8.0165
18309	16.225	2.3636	0.	1729.5
18310	16.133	2.2727	0.	1751.7
18311	16.133	2.3636	5.e-002	7.9722
18312	16.408	2.3636	0.	1686.2
18313	16.316	2.2727	0.	1708.2
18314	16.316	2.3636	5.e-002	7.9293
18315	16.591	2.3636	0.	1643.
18316	16.499	2.2727	0.	1664.9
18317	16.499	2.3636	5.e-002	7.8878
18318	16.774	2.3636	0.	1600.
18319	16.682	2.2727	0.	1621.8
18320	16.682	2.3636	5.e-002	7.8475
18321	16.957	2.3636	0.	1557.1
18322	16.865	2.2727	0.	1578.8
18323	16.865	2.3636	5.e-002	7.8084
18324	17.14	2.3636	0.	1514.3
18325	17.048	2.2727	0.	1535.9
18326	17.048	2.3636	5.e-002	7.7704
18327	17.322	2.3636	0.	1471.8
18328	17.231	2.2727	0.	1493.3
18329	17.231	2.3636	5.e-002	7.7334
18330	17.505	2.3636	0.	1429.4
18331	17.414	2.2727	0.	1450.8
18332	17.414	2.3636	5.e-002	7.6973
18333	17.688	2.3636	0.	1387.2
18334	17.597	2.2727	0.	1408.4
18335	17.597	2.3636	5.e-002	7.6623
18336	17.871	2.3636	0.	1345.2
18337	17.78	2.2727	0.	1366.3
18338	17.78	2.3636	5.e-002	7.6282
18339	18.054	2.3636	0.	1303.4
18340	17.963	2.2727	0.	1324.4
18341	17.963	2.3636	5.e-002	7.5949
18342	18.237	2.3636	0.	1261.8
18343	18.146	2.2727	0.	1282.7
18344	18.146	2.3636	5.e-002	7.5626
18345	18.42	2.3636	0.	1220.5
18346	18.329	2.2727	0.	1241.2
18347	18.329	2.3636	5.e-002	7.5314
18348	18.603	2.3636	0.	1179.3
18349	18.512	2.2727	0.	1199.9
18350	18.512	2.3636	5.e-002	7.501
18351	18.786	2.3636	0.	1138.4
18352	18.695	2.2727	0.	1158.8
18353	18.695	2.3636	5.e-002	7.4716
18354	18.969	2.3636	0.	1097.8
18355	18.878	2.2727	0.	1118.
18356	18.878	2.3636	5.e-002	7.4432
18357	19.152	2.3636	0.	1057.4
18358	19.06	2.2727	0.	1077.5
18359	19.06	2.3636	5.e-002	7.416
18360	19.335	2.3636	0.	1017.2
18361	19.243	2.2727	0.	1037.2
18362	19.243	2.3636	5.e-002	7.39
18363	19.518	2.3636	0.	977.35
18364	19.426	2.2727	0.	997.11
18365	19.426	2.3636	5.e-002	7.365
18366	19.701	2.3636	0.	937.77
18367	19.609	2.2727	0.	957.34
18368	19.609	2.3636	5.e-002	7.3415
18369	19.884	2.3636	0.	898.49
18370	19.792	2.2727	0.	917.86
18371	19.792	2.3636	5.e-002	7.3194
18372	20.067	2.3636	0.	859.51
18373	19.975	2.2727	0.	878.68
18374	19.975	2.3636	5.e-002	7.2988
18375	20.25	2.3636	0.	820.86
18376	20.158	2.2727	0.	839.81
18377	20.158	2.3636	5.e-002	7.2798
18378	20.433	2.3636	0.	782.54
18379	20.341	2.2727	0.	801.27
18380	20.341	2.3636	5.e-002	7.2627
18381	20.616	2.3636	0.	744.58
18382	20.524	2.2727	0.	763.07
18383	20.524	2.3636	5.e-002	7.2477
18384	20.798	2.3636	0.	706.99
18385	20.707	2.2727	0.	725.22
18386	20.707	2.3636	5.e-002	7.2349
18387	20.981	2.3636	0.	669.79
18388	20.89	2.2727	0.	687.75
18389	20.89	2.3636	5.e-002	7.2247
18390	21.164	2.3636	0.	633.
18391	21.073	2.2727	0.	650.68
18392	21.073	2.3636	5.e-002	7.2172
18393	21.347	2.3636	0.	596.65
18394	21.256	2.2727	0.	614.03
18395	21.256	2.3636	5.e-002	7.213
18396	21.53	2.3636	0.	560.78
18397	21.439	2.2727	0.	577.84
18398	21.439	2.3636	5.e-002	7.2122
18399	21.713	2.3636	0.	525.41
18400	21.622	2.2727	0.	542.12
18401	21.622	2.3636	5.e-002	7.2155
18402	21.896	2.3636	0.	490.59
18403	21.805	2.2727	0.	506.94
18404	21.805	2.3636	5.e-002	7.2232
18405	22.079	2.3636	0.	456.38
18406	21.988	2.2727	0.	472.32
18407	21.988	2.3636	5.e-002	7.236
18408	22.262	2.3636	0.	422.84
18409	22.171	2.2727	0.	438.35
18410	22.171	2.3636	5.e-002	7.2544
18411	22.445	2.3636	0.	390.08
18412	22.353	2.2727	0.	405.1
18413	22.353	2.3636	5.e-002	7.279
18414	22.628	2.3636	0.	358.2
18415	22.536	2.2727	0.	372.67
18416	22.536	2.3636	5.e-002	7.3105
18417	22.811	2.3636	0.	327.38
18418	22.719	2.2727	0.	341.21
18419	22.719	2.3636	5.e-002	7.3495
18420	22.994	2.3636	0.	297.85
18421	22.902	2.2727	0.	310.91
18422	22.902	2.3636	5.e-002	7.3965
18423	23.177	2.3636	0.	269.95
18424	23.085	2.2727	0.	282.06
18425	23.085	2.3636	5.e-002	7.4518
18426	23.36	2.3636	0.	244.15
18427	23.268	2.2727	0.	255.06
18428	23.268	2.3636	5.e-002	7.5157
18429	23.543	2.3636	0.	221.13
18430	23.451	2.2727	0.	230.47
18431	23.451	2.3636	5.e-002	7.5878
18432	23.726	2.3636	0.	201.8
18433	23.634	2.2727	0.	209.1
18434	23.634	2.3636	5.e-002	7.6687
18435	23.817	2.2727	0.	192.01
18436	23.817	2.3636	5.e-002	7.7819
18437	23.909	2.3636	0.	187.95
18438	8.5411	2.1818	0.	9273.7
18439	8.4496	2.0909	0.	10568
18440	8.4496	2.1818	5.e-002	624.93
18441	8.724	2.1818	0.	7126.6
18442	8.6326	2.0909	0.	7507.2
18443	8.6326	2.1818	5.e-002	289.04
18444	8.907	2.1818	0.	5938.3
18445	8.8155	2.0909	0.	6116.1
18446	8.8155	2.1818	5.e-002	145.75
18447	9.0899	2.1818	0.	5205.5
18448	8.9985	2.0909	0.	5307.6
18449	8.9985	2.1818	5.e-002	100.09
18450	9.2729	2.1818	0.	4698.6
18451	9.1814	2.0909	0.	4763.6
18452	9.1814	2.1818	5.e-002	74.562
18453	9.4558	2.1818	0.	4330.5
18454	9.3643	2.0909	0.	4378.4
18455	9.3643	2.1818	5.e-002	58.942
18456	9.6388	2.1818	0.	4051.2
18457	9.5473	2.0909	0.	4090.6
18458	9.5473	2.1818	5.e-002	48.171
18459	9.8217	2.1818	0.	3833.
18460	9.7302	2.0909	0.	3868.2
18461	9.7302	2.1818	5.e-002	40.199
18462	10.005	2.1818	0.	3657.9
18463	9.9132	2.0909	0.	3691.1
18464	9.9132	2.1818	5.e-002	34.037
18465	10.188	2.1818	0.	3514.4
18466	10.096	2.0909	0.	3546.4
18467	10.096	2.1818	5.e-002	29.156
18468	10.371	2.1818	0.	3394.3
18469	10.279	2.0909	0.	3425.6
18470	10.279	2.1818	5.e-002	25.239
18471	10.553	2.1818	0.	3291.9
18472	10.462	2.0909	0.	3322.6
18473	10.462	2.1818	5.e-002	22.076
18474	10.736	2.1818	0.	3203.
18475	10.645	2.0909	0.	3233.1
18476	10.645	2.1818	5.e-002	19.515
18477	10.919	2.1818	0.	3124.4
18478	10.828	2.0909	0.	3154.
18479	10.828	2.1818	5.e-002	17.441
18480	11.102	2.1818	0.	3053.8
18481	11.011	2.0909	0.	3082.8
18482	11.011	2.1818	5.e-002	15.762
18483	11.285	2.1818	0.	2989.3
18484	11.194	2.0909	0.	3017.7
18485	11.194	2.1818	5.e-002	14.406
18486	11.468	2.1818	0.	2929.5
18487	11.377	2.0909	0.	2957.4
18488	11.377	2.1818	5.e-002	13.309
18489	11.651	2.1818	0.	2873.4
18490	11.56	2.0909	0.	2900.7
18491	11.56	2.1818	5.e-002	12.423
18492	11.834	2.1818	0.	2820.1
18493	11.743	2.0909	0.	2846.9
18494	11.743	2.1818	5.e-002	11.707
18495	12.017	2.1818	0.	2768.9
18496	11.926	2.0909	0.	2795.2
18497	11.926	2.1818	5.e-002	11.126
18498	12.2	2.1818	0.	2719.3
18499	12.109	2.0909	0.	2745.3
18500	12.109	2.1818	5.e-002	10.654
18501	12.383	2.1818	0.	2671.
18502	12.291	2.0909	0.	2696.6
18503	12.291	2.1818	5.e-002	10.268
18504	12.566	2.1818	0.	2623.6
18505	12.474	2.0909	0.	2648.9
18506	12.474	2.1818	5.e-002	9.9513
18507	12.749	2.1818	0.	2576.9
18508	12.657	2.0909	0.	2601.9
18509	12.657	2.1818	5.e-002	9.6886
18510	12.932	2.1818	0.	2530.8
18511	12.84	2.0909	0.	2555.5
18512	12.84	2.1818	5.e-002	9.469
18513	13.115	2.1818	0.	2485.1
18514	13.023	2.0909	0.	2509.6
18515	13.023	2.1818	5.e-002	9.2838
18516	13.298	2.1818	0.	2439.7
18517	13.206	2.0909	0.	2464.
18518	13.206	2.1818	5.e-002	9.126
18519	13.481	2.1818	0.	2394.5
18520	13.389	2.0909	0.	2418.6
18521	13.389	2.1818	5.e-002	8.9901
18522	13.664	2.1818	0.	2349.5
18523	13.572	2.0909	0.	2373.5
18524	13.572	2.1818	5.e-002	8.8715
18525	13.847	2.1818	0.	2304.7
18526	13.755	2.0909	0.	2328.5
18527	13.755	2.1818	5.e-002	8.7669
18528	14.029	2.1818	0.	2259.9
18529	13.938	2.0909	0.	2283.6
18530	13.938	2.1818	5.e-002	8.6738
18531	14.212	2.1818	0.	2215.3
18532	14.121	2.0909	0.	2238.8
18533	14.121	2.1818	5.e-002	8.59
18534	14.395	2.1818	0.	2170.8
18535	14.304	2.0909	0.	2194.1
18536	14.304	2.1818	5.e-002	8.5136
18537	14.578	2.1818	0.	2126.3
18538	14.487	2.0909	0.	2149.6
18539	14.487	2.1818	5.e-002	8.4434
18540	14.761	2.1818	0.	2081.9
18541	14.67	2.0909	0.	2105.1
18542	14.67	2.1818	5.e-002	8.3783
18543	14.944	2.1818	0.	2037.6
18544	14.853	2.0909	0.	2060.7
18545	14.853	2.1818	5.e-002	8.3177
18546	15.127	2.1818	0.	1993.4
18547	15.036	2.0909	0.	2016.4
18548	15.036	2.1818	5.e-002	8.2605
18549	15.31	2.1818	0.	1949.3
18550	15.219	2.0909	0.	1972.1
18551	15.219	2.1818	5.e-002	8.2063
18552	15.493	2.1818	0.	1905.3
18553	15.402	2.0909	0.	1928.
18554	15.402	2.1818	5.e-002	8.1548
18555	15.676	2.1818	0.	1861.4
18556	15.584	2.0909	0.	1884.
18557	15.584	2.1818	5.e-002	8.1057
18558	15.859	2.1818	0.	1817.6
18559	15.767	2.0909	0.	1840.1
18560	15.767	2.1818	5.e-002	8.0584
18561	16.042	2.1818	0.	1774.
18562	15.95	2.0909	0.	1796.3
18563	15.95	2.1818	5.e-002	8.0128
18564	16.225	2.1818	0.	1730.4
18565	16.133	2.0909	0.	1752.7
18566	16.133	2.1818	5.e-002	7.9689
18567	16.408	2.1818	0.	1687.
18568	16.316	2.0909	0.	1709.2
18569	16.316	2.1818	5.e-002	7.9265
18570	16.591	2.1818	0.	1643.8
18571	16.499	2.0909	0.	1665.8
18572	16.499	2.1818	5.e-002	7.8852
18573	16.774	2.1818	0.	1600.6
18574	16.682	2.0909	0.	1622.6
18575	16.682	2.1818	5.e-002	7.8451
18576	16.957	2.1818	0.	1557.7
18577	16.865	2.0909	0.	1579.5
18578	16.865	2.1818	5.e-002	7.8062
18579	17.14	2.1818	0.	1514.9
18580	17.048	2.0909	0.	1536.6
18581	17.048	2.1818	5.e-002	7.7684
18582	17.322	2.1818	0.	1472.3
18583	17.231	2.0909	0.	1493.9
18584	17.231	2.1818	5.e-002	7.7314
18585	17.505	2.1818	0.	1429.9
18586	17.414	2.0909	0.	1451.3
18587	17.414	2.1818	5.e-002	7.6955
18588	17.688	2.1818	0.	1387.6
18589	17.597	2.0909	0.	1409.
18590	17.597	2.1818	5.e-002	7.6605
18591	17.871	2.1818	0.	1345.6
18592	17.78	2.0909	0.	1366.8
18593	17.78	2.1818	5.e-002	7.6265
18594	18.054	2.1818	0.	1303.7
18595	17.963	2.0909	0.	1324.8
18596	17.963	2.1818	5.e-002	7.5933
18597	18.237	2.1818	0.	1262.1
18598	18.146	2.0909	0.	1283.
18599	18.146	2.1818	5.e-002	7.561
18600	18.42	2.1818	0.	1220.7
18601	18.329	2.0909	0.	1241.4
18602	18.329	2.1818	5.e-002	7.5297
18603	18.603	2.1818	0.	1179.5
18604	18.512	2.0909	0.	1200.1
18605	18.512	2.1818	5.e-002	7.4994
18606	18.786	2.1818	0.	1138.5
18607	18.695	2.0909	0.	1159.
18608	18.695	2.1818	5.e-002	7.4699
18609	18.969	2.1818	0.	1097.8
18610	18.878	2.0909	0.	1118.1
18611	18.878	2.1818	5.e-002	7.4416
18612	19.152	2.1818	0.	1057.3
18613	19.06	2.0909	0.	1077.5
18614	19.06	2.1818	5.e-002	7.4143
18615	19.335	2.1818	0.	1017.1
18616	19.243	2.0909	0.	1037.1
18617	19.243	2.1818	5.e-002	7.3881
18618	19.518	2.1818	0.	977.15
18619	19.426	2.0909	0.	996.94
18620	19.426	2.1818	5.e-002	7.3631
18621	19.701	2.1818	0.	937.48
18622	19.609	2.0909	0.	957.08
18623	19.609	2.1818	5.e-002	7.3394
18624	19.884	2.1818	0.	898.11
18625	19.792	2.0909	0.	917.5
18626	19.792	2.1818	5.e-002	7.3172
18627	20.067	2.1818	0.	859.03
18628	19.975	2.0909	0.	878.22
18629	19.975	2.1818	5.e-002	7.2964
18630	20.25	2.1818	0.	820.27
18631	20.158	2.0909	0.	839.23
18632	20.158	2.1818	5.e-002	7.2772
18633	20.433	2.1818	0.	781.84
18634	20.341	2.0909	0.	800.56
18635	20.341	2.1818	5.e-002	7.2599
18636	20.616	2.1818	0.	743.75
18637	20.524	2.0909	0.	762.23
18638	20.524	2.1818	5.e-002	7.2445
18639	20.798	2.1818	0.	706.03
18640	20.707	2.0909	0.	724.24
18641	20.707	2.1818	5.e-002	7.2313
18642	20.981	2.1818	0.	668.69
18643	20.89	2.0909	0.	686.62
18644	20.89	2.1818	5.e-002	7.2206
18645	21.164	2.1818	0.	631.75
18646	21.073	2.0909	0.	649.38
18647	21.073	2.1818	5.e-002	7.2126
18648	21.347	2.1818	0.	595.24
18649	21.256	2.0909	0.	612.56
18650	21.256	2.1818	5.e-002	7.2077
18651	21.53	2.1818	0.	559.2
18652	21.439	2.0909	0.	576.18
18653	21.439	2.1818	5.e-002	7.2063
18654	21.713	2.1818	0.	523.66
18655	21.622	2.0909	0.	540.28
18656	21.622	2.1818	5.e-002	7.2087
18657	21.896	2.1818	0.	488.66
18658	21.805	2.0909	0.	504.89
18659	21.805	2.1818	5.e-002	7.2155
18660	22.079	2.1818	0.	454.27
18661	21.988	2.0909	0.	470.07
18662	21.988	2.1818	5.e-002	7.2273
18663	22.262	2.1818	0.	420.55
18664	22.171	2.0909	0.	435.88
18665	22.171	2.1818	5.e-002	7.2447
18666	22.445	2.1818	0.	387.6
18667	22.353	2.0909	0.	402.42
18668	22.353	2.1818	5.e-002	7.2683
18669	22.628	2.1818	0.	355.54
18670	22.536	2.0909	0.	369.77
18671	22.536	2.1818	5.e-002	7.299
18672	22.811	2.1818	0.	324.54
18673	22.719	2.0909	0.	338.1
18674	22.719	2.1818	5.e-002	7.3375
18675	22.994	2.1818	0.	294.83
18676	22.902	2.0909	0.	307.6
18677	22.902	2.1818	5.e-002	7.3843
18678	23.177	2.1818	0.	266.76
18679	23.085	2.0909	0.	278.55
18680	23.085	2.1818	5.e-002	7.4402
18681	23.36	2.1818	0.	240.79
18682	23.268	2.0909	0.	251.35
18683	23.268	2.1818	5.e-002	7.5054
18684	23.543	2.1818	0.	217.61
18685	23.451	2.0909	0.	226.57
18686	23.451	2.1818	5.e-002	7.5798
18687	23.726	2.1818	0.	198.16
18688	23.634	2.0909	0.	205.03
18689	23.634	2.1818	5.e-002	7.6645
18690	23.817	2.0909	0.	187.84
18691	23.817	2.1818	5.e-002	7.7934
18692	23.909	2.1818	0.	184.19
18693	8.5411	2.	0.	8930.3
18694	8.4496	1.9091	0.	9680.8
18695	8.4496	2.	5.e-002	1154.6
18696	8.3581	2.	0.	15685
18697	8.724	2.	0.	6508.9
18698	8.6326	1.9091	0.	6731.2
18699	8.6326	2.	5.e-002	200.83
18700	8.907	2.	0.	5484.2
18701	8.8155	1.9091	0.	5565.7
18702	8.8155	2.	5.e-002	129.76
18703	9.0899	2.	0.	4862.6
18704	8.9985	1.9091	0.	4901.5
18705	8.9985	2.	5.e-002	86.661
18706	9.2729	2.	0.	4440.5
18707	9.1814	1.9091	0.	4460.6
18708	9.1814	2.	5.e-002	65.612
18709	9.4558	2.	0.	4136.5
18710	9.3643	1.9091	0.	4150.5
18711	9.3643	2.	5.e-002	52.137
18712	9.6388	2.	0.	3906.3
18713	9.5473	1.9091	0.	3919.6
18714	9.5473	2.	5.e-002	42.883
18715	9.8217	2.	0.	3725.5
18716	9.7302	1.9091	0.	3740.6
18717	9.7302	2.	5.e-002	36.011
18718	10.005	2.	0.	3579.1
18719	9.9132	1.9091	0.	3596.7
18720	9.9132	2.	5.e-002	30.699
18721	10.188	2.	0.	3457.4
18722	10.096	1.9091	0.	3477.5
18723	10.096	2.	5.e-002	26.483
18724	10.371	2.	0.	3353.8
18725	10.279	1.9091	0.	3376.
18726	10.279	2.	5.e-002	23.09
18727	10.553	2.	0.	3263.8
18728	10.462	1.9091	0.	3287.7
18729	10.462	2.	5.e-002	20.341
18730	10.736	2.	0.	3184.1
18731	10.645	1.9091	0.	3209.2
18732	10.645	2.	5.e-002	18.11
18733	10.919	2.	0.	3112.3
18734	10.828	1.9091	0.	3138.2
18735	10.828	2.	5.e-002	16.299
18736	11.102	2.	0.	3046.7
18737	11.011	1.9091	0.	3073.
18738	11.011	2.	5.e-002	14.832
18739	11.285	2.	0.	2985.8
18740	11.194	1.9091	0.	3012.4
18741	11.194	2.	5.e-002	13.647
18742	11.468	2.	0.	2928.6
18743	11.377	1.9091	0.	2955.2
18744	11.377	2.	5.e-002	12.691
18745	11.651	2.	0.	2874.2
18746	11.56	1.9091	0.	2900.8
18747	11.56	2.	5.e-002	11.92
18748	11.834	2.	0.	2822.1
18749	11.743	1.9091	0.	2848.5
18750	11.743	2.	5.e-002	11.297
18751	12.017	2.	0.	2771.7
18752	11.926	1.9091	0.	2797.9
18753	11.926	2.	5.e-002	10.794
18754	12.2	2.	0.	2722.6
18755	12.109	1.9091	0.	2748.6
18756	12.109	2.	5.e-002	10.385
18757	12.383	2.	0.	2674.5
18758	12.291	1.9091	0.	2700.2
18759	12.291	2.	5.e-002	10.051
18760	12.566	2.	0.	2627.2
18761	12.474	1.9091	0.	2652.7
18762	12.474	2.	5.e-002	9.7755
18763	12.749	2.	0.	2580.6
18764	12.657	1.9091	0.	2605.8
18765	12.657	2.	5.e-002	9.5469
18766	12.932	2.	0.	2534.4
18767	12.84	1.9091	0.	2559.4
18768	12.84	2.	5.e-002	9.355
18769	13.115	2.	0.	2488.5
18770	13.023	1.9091	0.	2513.3
18771	13.023	2.	5.e-002	9.192
18772	13.298	2.	0.	2442.9
18773	13.206	1.9091	0.	2467.6
18774	13.206	2.	5.e-002	9.0521
18775	13.481	2.	0.	2397.6
18776	13.389	1.9091	0.	2422.
18777	13.389	2.	5.e-002	8.9307
18778	13.664	2.	0.	2352.4
18779	13.572	1.9091	0.	2376.7
18780	13.572	2.	5.e-002	8.8236
18781	13.847	2.	0.	2307.4
18782	13.755	1.9091	0.	2331.5
18783	13.755	2.	5.e-002	8.7283
18784	14.029	2.	0.	2262.5
18785	13.938	1.9091	0.	2286.4
18786	13.938	2.	5.e-002	8.6426
18787	14.212	2.	0.	2217.7
18788	14.121	1.9091	0.	2241.5
18789	14.121	2.	5.e-002	8.5647
18790	14.395	2.	0.	2173.
18791	14.304	1.9091	0.	2196.6
18792	14.304	2.	5.e-002	8.493
18793	14.578	2.	0.	2128.4
18794	14.487	1.9091	0.	2151.9
18795	14.487	2.	5.e-002	8.4265
18796	14.761	2.	0.	2083.8
18797	14.67	1.9091	0.	2107.2
18798	14.67	2.	5.e-002	8.3645
18799	14.944	2.	0.	2039.4
18800	14.853	1.9091	0.	2062.7
18801	14.853	2.	5.e-002	8.3062
18802	15.127	2.	0.	1995.1
18803	15.036	1.9091	0.	2018.2
18804	15.036	2.	5.e-002	8.2509
18805	15.31	2.	0.	1950.9
18806	15.219	1.9091	0.	1973.9
18807	15.219	2.	5.e-002	8.1982
18808	15.493	2.	0.	1906.8
18809	15.402	1.9091	0.	1929.6
18810	15.402	2.	5.e-002	8.148
18811	15.676	2.	0.	1862.8
18812	15.584	1.9091	0.	1885.5
18813	15.584	2.	5.e-002	8.0998
18814	15.859	2.	0.	1818.9
18815	15.767	1.9091	0.	1841.5
18816	15.767	2.	5.e-002	8.0533
18817	16.042	2.	0.	1775.1
18818	15.95	1.9091	0.	1797.7
18819	15.95	2.	5.e-002	8.0084
18820	16.225	2.	0.	1731.5
18821	16.133	1.9091	0.	1753.9
18822	16.133	2.	5.e-002	7.965
18823	16.408	2.	0.	1688.
18824	16.316	1.9091	0.	1710.3
18825	16.316	2.	5.e-002	7.9229
18826	16.591	2.	0.	1644.7
18827	16.499	1.9091	0.	1666.9
18828	16.499	2.	5.e-002	7.882
18829	16.774	2.	0.	1601.5
18830	16.682	1.9091	0.	1623.6
18831	16.682	2.	5.e-002	7.8422
18832	16.957	2.	0.	1558.5
18833	16.865	1.9091	0.	1580.4
18834	16.865	2.	5.e-002	7.8035
18835	17.14	2.	0.	1515.6
18836	17.048	1.9091	0.	1537.5
18837	17.048	2.	5.e-002	7.7658
18838	17.322	2.	0.	1473.
18839	17.231	1.9091	0.	1494.7
18840	17.231	2.	5.e-002	7.729
18841	17.505	2.	0.	1430.5
18842	17.414	1.9091	0.	1452.
18843	17.414	2.	5.e-002	7.6932
18844	17.688	2.	0.	1388.2
18845	17.597	1.9091	0.	1409.6
18846	17.597	2.	5.e-002	7.6583
18847	17.871	2.	0.	1346.
18848	17.78	1.9091	0.	1367.3
18849	17.78	2.	5.e-002	7.6244
18850	18.054	2.	0.	1304.1
18851	17.963	1.9091	0.	1325.3
18852	17.963	2.	5.e-002	7.5912
18853	18.237	2.	0.	1262.4
18854	18.146	1.9091	0.	1283.4
18855	18.146	2.	5.e-002	7.5589
18856	18.42	2.	0.	1220.9
18857	18.329	1.9091	0.	1241.8
18858	18.329	2.	5.e-002	7.5277
18859	18.603	2.	0.	1179.7
18860	18.512	1.9091	0.	1200.4
18861	18.512	2.	5.e-002	7.4973
18862	18.786	2.	0.	1138.6
18863	18.695	1.9091	0.	1159.2
18864	18.695	2.	5.e-002	7.4679
18865	18.969	2.	0.	1097.8
18866	18.878	1.9091	0.	1118.2
18867	18.878	2.	5.e-002	7.4394
18868	19.152	2.	0.	1057.3
18869	19.06	1.9091	0.	1077.5
18870	19.06	2.	5.e-002	7.4121
18871	19.335	2.	0.	1017.
18872	19.243	1.9091	0.	1037.
18873	19.243	2.	5.e-002	7.3859
18874	19.518	2.	0.	976.92
18875	19.426	1.9091	0.	996.77
18876	19.426	2.	5.e-002	7.3607
18877	19.701	2.	0.	937.15
18878	19.609	1.9091	0.	956.8
18879	19.609	2.	5.e-002	7.3369
18880	19.884	2.	0.	897.66
18881	19.792	1.9091	0.	917.1
18882	19.792	2.	5.e-002	7.3145
18883	20.067	2.	0.	858.47
18884	19.975	1.9091	0.	877.69
18885	19.975	2.	5.e-002	7.2935
18886	20.25	2.	0.	819.57
18887	20.158	1.9091	0.	838.57
18888	20.158	2.	5.e-002	7.274
18889	20.433	2.	0.	781.
18890	20.341	1.9091	0.	799.75
18891	20.341	2.	5.e-002	7.2563
18892	20.616	2.	0.	742.76
18893	20.524	1.9091	0.	761.26
18894	20.524	2.	5.e-002	7.2406
18895	20.798	2.	0.	704.88
18896	20.707	1.9091	0.	723.1
18897	20.707	2.	5.e-002	7.2269
18898	20.981	2.	0.	667.36
18899	20.89	1.9091	0.	685.29
18900	20.89	2.	5.e-002	7.2156
18901	21.164	2.	0.	630.23
18902	21.073	1.9091	0.	647.86
18903	21.073	2.	5.e-002	7.207
18904	21.347	2.	0.	593.53
18905	21.256	1.9091	0.	610.83
18906	21.256	2.	5.e-002	7.2013
18907	21.53	2.	0.	557.28
18908	21.439	1.9091	0.	574.22
18909	21.439	2.	5.e-002	7.1989
18910	21.713	2.	0.	521.52
18911	21.622	1.9091	0.	538.08
18912	21.622	2.	5.e-002	7.2003
18913	21.896	2.	0.	486.29
18914	21.805	1.9091	0.	502.44
18915	21.805	2.	5.e-002	7.206
18916	22.079	2.	0.	451.67
18917	21.988	1.9091	0.	467.37
18918	21.988	2.	5.e-002	7.2165
18919	22.262	2.	0.	417.71
18920	22.171	1.9091	0.	432.91
18921	22.171	2.	5.e-002	7.2326
18922	22.445	2.	0.	384.51
18923	22.353	1.9091	0.	399.17
18924	22.353	2.	5.e-002	7.255
18925	22.628	2.	0.	352.21
18926	22.536	1.9091	0.	366.25
18927	22.536	2.	5.e-002	7.2845
18928	22.811	2.	0.	320.97
18929	22.719	1.9091	0.	334.31
18930	22.719	2.	5.e-002	7.3222
18931	22.994	2.	0.	291.04
18932	22.902	1.9091	0.	303.53
18933	22.902	2.	5.e-002	7.3688
18934	23.177	2.	0.	262.73
18935	23.085	1.9091	0.	274.22
18936	23.085	2.	5.e-002	7.4251
18937	23.36	2.	0.	236.54
18938	23.268	1.9091	0.	246.76
18939	23.268	2.	5.e-002	7.4918
18940	23.543	2.	0.	213.16
18941	23.451	1.9091	0.	221.74
18942	23.451	2.	5.e-002	7.569
18943	23.726	2.	0.	193.55
18944	23.634	1.9091	0.	199.99
18945	23.634	2.	5.e-002	7.6587
18946	23.817	1.9091	0.	182.66
18947	23.817	2.	5.e-002	7.8074
18948	23.909	2.	0.	179.41
18949	8.5411	1.8182	0.	7499.1
18950	8.4496	1.7273	0.	7652.3
18951	8.4496	1.8182	5.e-002	647.1
18952	8.3581	1.8182	0.	7554.
18953	8.724	1.8182	0.	5787.3
18954	8.6326	1.7273	0.	5811.6
18955	8.6326	1.8182	5.e-002	215.19
18956	8.907	1.8182	0.	4974.4
18957	8.8155	1.7273	0.	4960.
18958	8.8155	1.8182	5.e-002	99.79
18959	9.0899	1.8182	0.	4492.7
18960	8.9985	1.7273	0.	4470.4
18961	8.9985	1.8182	5.e-002	71.741
18962	9.2729	1.8182	0.	4165.7
18963	9.1814	1.7273	0.	4141.9
18964	9.1814	1.8182	5.e-002	56.036
18965	9.4558	1.8182	0.	3930.4
18966	9.3643	1.7273	0.	3911.6
18967	9.3643	1.8182	5.e-002	45.209
18968	9.6388	1.8182	0.	3752.
18969	9.5473	1.7273	0.	3740.3
18970	9.5473	1.8182	5.e-002	37.535
18971	9.8217	1.8182	0.	3610.7
18972	9.7302	1.7273	0.	3606.5
18973	9.7302	1.8182	5.e-002	31.748
18974	10.005	1.8182	0.	3494.5
18975	9.9132	1.7273	0.	3497.2
18976	9.9132	1.8182	5.e-002	27.242
18977	10.188	1.8182	0.	3395.8
18978	10.096	1.7273	0.	3404.5
18979	10.096	1.8182	5.e-002	23.652
18980	10.371	1.8182	0.	3309.8
18981	10.279	1.7273	0.	3323.2
18982	10.279	1.8182	5.e-002	20.76
18983	10.553	1.8182	0.	3233.
18984	10.462	1.7273	0.	3250.3
18985	10.462	1.8182	5.e-002	18.418
18986	10.736	1.8182	0.	3163.3
18987	10.645	1.7273	0.	3183.4
18988	10.645	1.8182	5.e-002	16.521
18989	10.919	1.8182	0.	3098.9
18990	10.828	1.7273	0.	3121.1
18991	10.828	1.8182	5.e-002	14.987
18992	11.102	1.8182	0.	3038.7
18993	11.011	1.7273	0.	3062.4
18994	11.011	1.8182	5.e-002	13.751
18995	11.285	1.8182	0.	2981.8
18996	11.194	1.7273	0.	3006.4
18997	11.194	1.8182	5.e-002	12.758
18998	11.468	1.8182	0.	2927.4
18999	11.377	1.7273	0.	2952.7
19000	11.377	1.8182	5.e-002	11.962
19001	11.651	1.8182	0.	2875.1
19002	11.56	1.7273	0.	2900.7
19003	11.56	1.8182	5.e-002	11.325
19004	11.834	1.8182	0.	2824.3
19005	11.743	1.7273	0.	2850.2
19006	11.743	1.8182	5.e-002	10.814
19007	12.017	1.8182	0.	2774.8
19008	11.926	1.7273	0.	2800.7
19009	11.926	1.8182	5.e-002	10.402
19010	12.2	1.8182	0.	2726.2
19011	12.109	1.7273	0.	2752.1
19012	12.109	1.8182	5.e-002	10.068
19013	12.383	1.8182	0.	2678.5
19014	12.291	1.7273	0.	2704.3
19015	12.291	1.8182	5.e-002	9.7952
19016	12.566	1.8182	0.	2631.3
19017	12.474	1.7273	0.	2657.
19018	12.474	1.8182	5.e-002	9.57
19019	12.749	1.8182	0.	2584.7
19020	12.657	1.7273	0.	2610.1
19021	12.657	1.8182	5.e-002	9.3819
19022	12.932	1.8182	0.	2538.4
19023	12.84	1.7273	0.	2563.7
19024	12.84	1.8182	5.e-002	9.2225
19025	13.115	1.8182	0.	2492.4
19026	13.023	1.7273	0.	2517.5
19027	13.023	1.8182	5.e-002	9.0857
19028	13.298	1.8182	0.	2446.7
19029	13.206	1.7273	0.	2471.6
19030	13.206	1.8182	5.e-002	8.9669
19031	13.481	1.8182	0.	2401.1
19032	13.389	1.7273	0.	2425.9
19033	13.389	1.8182	5.e-002	8.8622
19034	13.664	1.8182	0.	2355.7
19035	13.572	1.7273	0.	2380.3
19036	13.572	1.8182	5.e-002	8.7686
19037	13.847	1.8182	0.	2310.5
19038	13.755	1.7273	0.	2334.9
19039	13.755	1.8182	5.e-002	8.6839
19040	14.029	1.8182	0.	2265.4
19041	13.938	1.7273	0.	2289.6
19042	13.938	1.8182	5.e-002	8.6067
19043	14.212	1.8182	0.	2220.4
19044	14.121	1.7273	0.	2244.5
19045	14.121	1.8182	5.e-002	8.5356
19046	14.395	1.8182	0.	2175.5
19047	14.304	1.7273	0.	2199.4
19048	14.304	1.8182	5.e-002	8.4693
19049	14.578	1.8182	0.	2130.8
19050	14.487	1.7273	0.	2154.5
19051	14.487	1.8182	5.e-002	8.4071
19052	14.761	1.8182	0.	2086.1
19053	14.67	1.7273	0.	2109.7
19054	14.67	1.8182	5.e-002	8.3485
19055	14.944	1.8182	0.	2041.5
19056	14.853	1.7273	0.	2065.
19057	14.853	1.8182	5.e-002	8.2929
19058	15.127	1.8182	0.	1997.
19059	15.036	1.7273	0.	2020.4
19060	15.036	1.8182	5.e-002	8.2398
19061	15.31	1.8182	0.	1952.7
19062	15.219	1.7273	0.	1975.9
19063	15.219	1.8182	5.e-002	8.1888
19064	15.493	1.8182	0.	1908.4
19065	15.402	1.7273	0.	1931.5
19066	15.402	1.8182	5.e-002	8.14
19067	15.676	1.8182	0.	1864.3
19068	15.584	1.7273	0.	1887.3
19069	15.584	1.8182	5.e-002	8.093
19070	15.859	1.8182	0.	1820.3
19071	15.767	1.7273	0.	1843.2
19072	15.767	1.8182	5.e-002	8.0474
19073	16.042	1.8182	0.	1776.5
19074	15.95	1.7273	0.	1799.2
19075	15.95	1.8182	5.e-002	8.0032
19076	16.225	1.8182	0.	1732.8
19077	16.133	1.7273	0.	1755.3
19078	16.133	1.8182	5.e-002	7.9604
19079	16.408	1.8182	0.	1689.2
19080	16.316	1.7273	0.	1711.7
19081	16.316	1.8182	5.e-002	7.9188
19082	16.591	1.8182	0.	1645.8
19083	16.499	1.7273	0.	1668.1
19084	16.499	1.8182	5.e-002	7.8782
19085	16.774	1.8182	0.	1602.5
19086	16.682	1.7273	0.	1624.7
19087	16.682	1.8182	5.e-002	7.8387
19088	16.957	1.8182	0.	1559.4
19089	16.865	1.7273	0.	1581.5
19090	16.865	1.8182	5.e-002	7.8003
19091	17.14	1.8182	0.	1516.5
19092	17.048	1.7273	0.	1538.4
19093	17.048	1.8182	5.e-002	7.7628
19094	17.322	1.8182	0.	1473.8
19095	17.231	1.7273	0.	1495.6
19096	17.231	1.8182	5.e-002	7.7262
19097	17.505	1.8182	0.	1431.2
19098	17.414	1.7273	0.	1452.9
19099	17.414	1.8182	5.e-002	7.6905
19100	17.688	1.8182	0.	1388.8
19101	17.597	1.7273	0.	1410.3
19102	17.597	1.8182	5.e-002	7.6557
19103	17.871	1.8182	0.	1346.6
19104	17.78	1.7273	0.	1368.
19105	17.78	1.8182	5.e-002	7.6218
19106	18.054	1.8182	0.	1304.6
19107	17.963	1.7273	0.	1325.9
19108	17.963	1.8182	5.e-002	7.5887
19109	18.237	1.8182	0.	1262.9
19110	18.146	1.7273	0.	1284.
19111	18.146	1.8182	5.e-002	7.5565
19112	18.42	1.8182	0.	1221.3
19113	18.329	1.7273	0.	1242.2
19114	18.329	1.8182	5.e-002	7.5253
19115	18.603	1.8182	0.	1179.9
19116	18.512	1.7273	0.	1200.7
19117	18.512	1.8182	5.e-002	7.4949
19118	18.786	1.8182	0.	1138.8
19119	18.695	1.7273	0.	1159.4
19120	18.695	1.8182	5.e-002	7.4654
19121	18.969	1.8182	0.	1097.9
19122	18.878	1.7273	0.	1118.4
19123	18.878	1.8182	5.e-002	7.4369
19124	19.152	1.8182	0.	1057.3
19125	19.06	1.7273	0.	1077.5
19126	19.06	1.8182	5.e-002	7.4095
19127	19.335	1.8182	0.	1016.8
19128	19.243	1.7273	0.	1037.
19129	19.243	1.8182	5.e-002	7.3832
19130	19.518	1.8182	0.	976.69
19131	19.426	1.7273	0.	996.61
19132	19.426	1.8182	5.e-002	7.3579
19133	19.701	1.8182	0.	936.8
19134	19.609	1.7273	0.	956.52
19135	19.609	1.8182	5.e-002	7.3339
19136	19.884	1.8182	0.	897.18
19137	19.792	1.7273	0.	916.69
19138	19.792	1.8182	5.e-002	7.3112
19139	20.067	1.8182	0.	857.84
19140	19.975	1.7273	0.	877.13
19141	19.975	1.8182	5.e-002	7.29
19142	20.25	1.8182	0.	818.8
19143	20.158	1.7273	0.	837.85
19144	20.158	1.8182	5.e-002	7.2702
19145	20.433	1.8182	0.	780.06
19146	20.341	1.7273	0.	798.87
19147	20.341	1.8182	5.e-002	7.2522
19148	20.616	1.8182	0.	741.64
19149	20.524	1.7273	0.	760.19
19150	20.524	1.8182	5.e-002	7.236
19151	20.798	1.8182	0.	703.56
19152	20.707	1.7273	0.	721.83
19153	20.707	1.8182	5.e-002	7.2217
19154	20.981	1.8182	0.	665.84
19155	20.89	1.7273	0.	683.81
19156	20.89	1.8182	5.e-002	7.2098
19157	21.164	1.8182	0.	628.49
19158	21.073	1.7273	0.	646.15
19159	21.073	1.8182	5.e-002	7.2004
19160	21.347	1.8182	0.	591.55
19161	21.256	1.7273	0.	608.87
19162	21.256	1.8182	5.e-002	7.1938
19163	21.53	1.8182	0.	555.05
19164	21.439	1.7273	0.	572.
19165	21.439	1.8182	5.e-002	7.1903
19166	21.713	1.8182	0.	519.02
19167	21.622	1.7273	0.	535.58
19168	21.622	1.8182	5.e-002	7.1905
19169	21.896	1.8182	0.	483.52
19170	21.805	1.7273	0.	499.64
19171	21.805	1.8182	5.e-002	7.1948
19172	22.079	1.8182	0.	448.6
19173	21.988	1.7273	0.	464.25
19174	21.988	1.8182	5.e-002	7.2038
19175	22.262	1.8182	0.	414.35
19176	22.171	1.7273	0.	429.47
19177	22.171	1.8182	5.e-002	7.2183
19178	22.445	1.8182	0.	380.85
19179	22.353	1.7273	0.	395.39
19180	22.353	1.8182	5.e-002	7.239
19181	22.628	1.8182	0.	348.24
19182	22.536	1.7273	0.	362.13
19183	22.536	1.8182	5.e-002	7.267
19184	22.811	1.8182	0.	316.7
19185	22.719	1.7273	0.	329.84
19186	22.719	1.8182	5.e-002	7.3035
19187	22.994	1.8182	0.	286.46
19188	22.902	1.7273	0.	298.72
19189	22.902	1.8182	5.e-002	7.3494
19190	23.177	1.8182	0.	257.86
19191	23.085	1.7273	0.	269.06
19192	23.085	1.8182	5.e-002	7.4061
19193	23.36	1.8182	0.	231.38
19194	23.268	1.7273	0.	241.28
19195	23.268	1.8182	5.e-002	7.4745
19196	23.543	1.8182	0.	207.74
19197	23.451	1.7273	0.	215.94
19198	23.451	1.8182	5.e-002	7.555
19199	23.726	1.8182	0.	187.92
19200	23.634	1.7273	0.	193.92
19201	23.634	1.8182	5.e-002	7.6509
19202	23.817	1.7273	0.	176.42
19203	23.817	1.8182	5.e-002	7.8237
19204	23.909	1.8182	0.	173.57
19205	8.5411	1.6364	0.	5822.7
19206	8.4496	1.5455	0.	5785.4
19207	8.4496	1.6364	5.e-002	356.65
19208	8.3581	1.6364	0.	5237.3
19209	8.724	1.6364	0.	4946.5
19210	8.6326	1.5455	0.	4823.4
19211	8.6326	1.6364	5.e-002	140.99
19212	8.907	1.6364	0.	4438.4
19213	8.8155	1.5455	0.	4339.6
19214	8.8155	1.6364	5.e-002	86.443
19215	9.0899	1.6364	0.	4108.6
19216	8.9985	1.5455	0.	4026.4
19217	8.9985	1.6364	5.e-002	62.171
19218	9.2729	1.6364	0.	3880.9
19219	9.1814	1.5455	0.	3814.7
19220	9.1814	1.6364	5.e-002	47.912
19221	9.4558	1.6364	0.	3717.3
19222	9.3643	1.5455	0.	3666.8
19223	9.3643	1.6364	5.e-002	39.133
19224	9.6388	1.6364	0.	3592.3
19225	9.5473	1.5455	0.	3556.6
19226	9.5473	1.6364	5.e-002	32.656
19227	9.8217	1.6364	0.	3491.6
19228	9.7302	1.5455	0.	3469.
19229	9.7302	1.6364	5.e-002	27.724
19230	10.005	1.6364	0.	3406.4
19231	9.9132	1.5455	0.	3395.
19232	9.9132	1.6364	5.e-002	23.861
19233	10.188	1.6364	0.	3331.5
19234	10.096	1.5455	0.	3329.2
19235	10.096	1.6364	5.e-002	20.789
19236	10.371	1.6364	0.	3263.6
19237	10.279	1.5455	0.	3268.6
19238	10.279	1.6364	5.e-002	18.328
19239	10.553	1.6364	0.	3200.5
19240	10.462	1.5455	0.	3211.3
19241	10.462	1.6364	5.e-002	16.356
19242	10.736	1.6364	0.	3141.2
19243	10.645	1.5455	0.	3156.3
19244	10.645	1.6364	5.e-002	14.78
19245	10.919	1.6364	0.	3084.6
19246	10.828	1.5455	0.	3103.
19247	10.828	1.6364	5.e-002	13.525
19248	11.102	1.6364	0.	3030.1
19249	11.011	1.5455	0.	3051.
19250	11.011	1.6364	5.e-002	12.532
19251	11.285	1.6364	0.	2977.4
19252	11.194	1.5455	0.	3000.
19253	11.194	1.6364	5.e-002	11.749
19254	11.468	1.6364	0.	2926.1
19255	11.377	1.5455	0.	2949.9
19256	11.377	1.6364	5.e-002	11.133
19257	11.651	1.6364	0.	2875.9
19258	11.56	1.5455	0.	2900.6
19259	11.56	1.6364	5.e-002	10.648
19260	11.834	1.6364	0.	2826.6
19261	11.743	1.5455	0.	2851.8
19262	11.743	1.6364	5.e-002	10.264
19263	12.017	1.6364	0.	2778.1
19264	11.926	1.5455	0.	2803.6
19265	11.926	1.6364	5.e-002	9.9573
19266	12.2	1.6364	0.	2730.2
19267	12.109	1.5455	0.	2755.9
19268	12.109	1.6364	5.e-002	9.7102
19269	12.383	1.6364	0.	2682.8
19270	12.291	1.5455	0.	2708.5
19271	12.291	1.6364	5.e-002	9.5078
19272	12.566	1.6364	0.	2635.8
19273	12.474	1.5455	0.	2661.5
19274	12.474	1.6364	5.e-002	9.3397
19275	12.749	1.6364	0.	2589.2
19276	12.657	1.5455	0.	2614.8
19277	12.657	1.6364	5.e-002	9.1976
19278	12.932	1.6364	0.	2542.8
19279	12.84	1.5455	0.	2568.3
19280	12.84	1.6364	5.e-002	9.0751
19281	13.115	1.6364	0.	2496.7
19282	13.023	1.5455	0.	2522.
19283	13.023	1.6364	5.e-002	8.9678
19284	13.298	1.6364	0.	2450.8
19285	13.206	1.5455	0.	2476.
19286	13.206	1.6364	5.e-002	8.8725
19287	13.481	1.6364	0.	2405.1
19288	13.389	1.5455	0.	2430.
19289	13.389	1.6364	5.e-002	8.7865
19290	13.664	1.6364	0.	2359.5
19291	13.572	1.5455	0.	2384.3
19292	13.572	1.6364	5.e-002	8.7078
19293	13.847	1.6364	0.	2314.
19294	13.755	1.5455	0.	2338.7
19295	13.755	1.6364	5.e-002	8.635
19296	14.029	1.6364	0.	2268.7
19297	13.938	1.5455	0.	2293.2
19298	13.938	1.6364	5.e-002	8.5672
19299	14.212	1.6364	0.	2223.5
19300	14.121	1.5455	0.	2247.8
19301	14.121	1.6364	5.e-002	8.5035
19302	14.395	1.6364	0.	2178.4
19303	14.304	1.5455	0.	2202.6
19304	14.304	1.6364	5.e-002	8.4432
19305	14.578	1.6364	0.	2133.5
19306	14.487	1.5455	0.	2157.5
19307	14.487	1.6364	5.e-002	8.3857
19308	14.761	1.6364	0.	2088.6
19309	14.67	1.5455	0.	2112.5
19310	14.67	1.6364	5.e-002	8.3308
19311	14.944	1.6364	0.	2043.9
19312	14.853	1.5455	0.	2067.6
19313	14.853	1.6364	5.e-002	8.2782
19314	15.127	1.6364	0.	1999.3
19315	15.036	1.5455	0.	2022.8
19316	15.036	1.6364	5.e-002	8.2275
19317	15.31	1.6364	0.	1954.8
19318	15.219	1.5455	0.	1978.2
19319	15.219	1.6364	5.e-002	8.1784
19320	15.493	1.6364	0.	1910.4
19321	15.402	1.5455	0.	1933.7
19322	15.402	1.6364	5.e-002	8.1311
19323	15.676	1.6364	0.	1866.2
19324	15.584	1.5455	0.	1889.3
19325	15.584	1.6364	5.e-002	8.0853
19326	15.859	1.6364	0.	1822.
19327	15.767	1.5455	0.	1845.
19328	15.767	1.6364	5.e-002	8.0407
19329	16.042	1.6364	0.	1778.1
19330	15.95	1.5455	0.	1800.9
19331	15.95	1.6364	5.e-002	7.9973
19332	16.225	1.6364	0.	1734.3
19333	16.133	1.5455	0.	1757.
19334	16.133	1.6364	5.e-002	7.9551
19335	16.408	1.6364	0.	1690.6
19336	16.316	1.5455	0.	1713.2
19337	16.316	1.6364	5.e-002	7.914
19338	16.591	1.6364	0.	1647.1
19339	16.499	1.5455	0.	1669.5
19340	16.499	1.6364	5.e-002	7.8739
19341	16.774	1.6364	0.	1603.7
19342	16.682	1.5455	0.	1626.1
19343	16.682	1.6364	5.e-002	7.8347
19344	16.957	1.6364	0.	1560.6
19345	16.865	1.5455	0.	1582.7
19346	16.865	1.6364	5.e-002	7.7966
19347	17.14	1.6364	0.	1517.5
19348	17.048	1.5455	0.	1539.6
19349	17.048	1.6364	5.e-002	7.7594
19350	17.322	1.6364	0.	1474.7
19351	17.231	1.5455	0.	1496.6
19352	17.231	1.6364	5.e-002	7.7229
19353	17.505	1.6364	0.	1432.1
19354	17.414	1.5455	0.	1453.8
19355	17.414	1.6364	5.e-002	7.6874
19356	17.688	1.6364	0.	1389.6
19357	17.597	1.5455	0.	1411.2
19358	17.597	1.6364	5.e-002	7.6527
19359	17.871	1.6364	0.	1347.3
19360	17.78	1.5455	0.	1368.8
19361	17.78	1.6364	5.e-002	7.6189
19362	18.054	1.6364	0.	1305.3
19363	17.963	1.5455	0.	1326.6
19364	17.963	1.6364	5.e-002	7.5859
19365	18.237	1.6364	0.	1263.4
19366	18.146	1.5455	0.	1284.6
19367	18.146	1.6364	5.e-002	7.5537
19368	18.42	1.6364	0.	1221.7
19369	18.329	1.5455	0.	1242.8
19370	18.329	1.6364	5.e-002	7.5224
19371	18.603	1.6364	0.	1180.3
19372	18.512	1.5455	0.	1201.2
19373	18.512	1.6364	5.e-002	7.4921
19374	18.786	1.6364	0.	1139.1
19375	18.695	1.5455	0.	1159.8
19376	18.695	1.6364	5.e-002	7.4625
19377	18.969	1.6364	0.	1098.1
19378	18.878	1.5455	0.	1118.6
19379	18.878	1.6364	5.e-002	7.434
19380	19.152	1.6364	0.	1057.3
19381	19.06	1.5455	0.	1077.7
19382	19.06	1.6364	5.e-002	7.4065
19383	19.335	1.6364	0.	1016.8
19384	19.243	1.5455	0.	1037.
19385	19.243	1.6364	5.e-002	7.38
19386	19.518	1.6364	0.	976.48
19387	19.426	1.5455	0.	996.49
19388	19.426	1.6364	5.e-002	7.3546
19389	19.701	1.6364	0.	936.45
19390	19.609	1.5455	0.	956.26
19391	19.609	1.6364	5.e-002	7.3304
19392	19.884	1.6364	0.	896.69
19393	19.792	1.5455	0.	916.28
19394	19.792	1.6364	5.e-002	7.3075
19395	20.067	1.6364	0.	857.19
19396	19.975	1.5455	0.	876.56
19397	19.975	1.6364	5.e-002	7.286
19398	20.25	1.6364	0.	817.97
19399	20.158	1.5455	0.	837.11
19400	20.158	1.6364	5.e-002	7.2658
19401	20.433	1.6364	0.	779.05
19402	20.341	1.5455	0.	797.94
19403	20.341	1.6364	5.e-002	7.2474
19404	20.616	1.6364	0.	740.43
19405	20.524	1.5455	0.	759.06
19406	20.524	1.6364	5.e-002	7.2307
19407	20.798	1.6364	0.	702.13
19408	20.707	1.5455	0.	720.48
19409	20.707	1.6364	5.e-002	7.2158
19410	20.981	1.6364	0.	664.17
19411	20.89	1.5455	0.	682.22
19412	20.89	1.6364	5.e-002	7.2032
19413	21.164	1.6364	0.	626.57
19414	21.073	1.5455	0.	644.3
19415	21.073	1.6364	5.e-002	7.1929
19416	21.347	1.6364	0.	589.36
19417	21.256	1.5455	0.	606.74
19418	21.256	1.6364	5.e-002	7.1853
19419	21.53	1.6364	0.	552.56
19420	21.439	1.5455	0.	569.57
19421	21.439	1.6364	5.e-002	7.1806
19422	21.713	1.6364	0.	516.22
19423	21.622	1.5455	0.	532.82
19424	21.622	1.6364	5.e-002	7.1794
19425	21.896	1.6364	0.	480.39
19426	21.805	1.5455	0.	496.54
19427	21.805	1.6364	5.e-002	7.1821
19428	22.079	1.6364	0.	445.12
19429	21.988	1.5455	0.	460.78
19430	21.988	1.6364	5.e-002	7.1893
19431	22.262	1.6364	0.	410.5
19432	22.171	1.5455	0.	425.61
19433	22.171	1.6364	5.e-002	7.2018
19434	22.445	1.6364	0.	376.63
19435	22.353	1.5455	0.	391.12
19436	22.353	1.6364	5.e-002	7.2205
19437	22.628	1.6364	0.	343.64
19438	22.536	1.5455	0.	357.43
19439	22.536	1.6364	5.e-002	7.2465
19440	22.811	1.6364	0.	311.71
19441	22.719	1.5455	0.	324.71
19442	22.719	1.6364	5.e-002	7.2812
19443	22.994	1.6364	0.	281.08
19444	22.902	1.5455	0.	293.15
19445	22.902	1.6364	5.e-002	7.326
19446	23.177	1.6364	0.	252.11
19447	23.085	1.5455	0.	263.06
19448	23.085	1.6364	5.e-002	7.3826
19449	23.36	1.6364	0.	225.27
19450	23.268	1.5455	0.	234.86
19451	23.268	1.6364	5.e-002	7.4526
19452	23.543	1.6364	0.	201.3
19453	23.451	1.5455	0.	209.13
19454	23.451	1.6364	5.e-002	7.5369
19455	23.726	1.6364	0.	181.23
19456	23.634	1.5455	0.	186.76
19457	23.634	1.6364	5.e-002	7.6404
19458	23.817	1.5455	0.	169.05
19459	23.817	1.6364	5.e-002	7.8419
19460	23.909	1.6364	0.	166.62
19461	8.5411	1.4545	0.	4628.5
19462	8.4496	1.3636	0.	4494.9
19463	8.4496	1.4545	5.e-002	235.56
19464	8.3581	1.4545	0.	4066.6
19465	8.724	1.4545	0.	4162.
19466	8.6326	1.3636	0.	3968.3
19467	8.6326	1.4545	5.e-002	138.22
19468	8.907	1.4545	0.	3899.4
19469	8.8155	1.3636	0.	3735.7
19470	8.8155	1.4545	5.e-002	82.996
19471	9.0899	1.4545	0.	3716.8
19472	8.9985	1.3636	0.	3584.2
19473	8.9985	1.4545	5.e-002	58.642
19474	9.2729	1.4545	0.	3591.6
19475	9.1814	1.3636	0.	3487.
19476	9.1814	1.4545	5.e-002	44.148
19477	9.4558	1.4545	0.	3500.9
19478	9.3643	1.3636	0.	3421.4
19479	9.3643	1.4545	5.e-002	35.294
19480	9.6388	1.4545	0.	3430.3
19481	9.5473	1.3636	0.	3372.4
19482	9.5473	1.4545	5.e-002	29.046
19483	9.8217	1.4545	0.	3370.7
19484	9.7302	1.3636	0.	3331.1
19485	9.7302	1.4545	5.e-002	24.412
19486	10.005	1.4545	0.	3316.9
19487	9.9132	1.3636	0.	3292.3
19488	9.9132	1.4545	5.e-002	20.844
19489	10.188	1.4545	0.	3265.9
19490	10.096	1.3636	0.	3253.4
19491	10.096	1.4545	5.e-002	18.067
19492	10.371	1.4545	0.	3216.2
19493	10.279	1.3636	0.	3213.3
19494	10.279	1.4545	5.e-002	15.899
19495	10.553	1.4545	0.	3167.
19496	10.462	1.3636	0.	3171.7
19497	10.462	1.4545	5.e-002	14.217
19498	10.736	1.4545	0.	3118.2
19499	10.645	1.3636	0.	3128.6
19500	10.645	1.4545	5.e-002	12.923
19501	10.919	1.4545	0.	3069.5
19502	10.828	1.3636	0.	3084.4
19503	10.828	1.4545	5.e-002	11.938
19504	11.102	1.4545	0.	3021.
19505	11.011	1.3636	0.	3039.1
19506	11.011	1.4545	5.e-002	11.194
19507	11.285	1.4545	0.	2972.6
19508	11.194	1.3636	0.	2993.2
19509	11.194	1.4545	5.e-002	10.636
19510	11.468	1.4545	0.	2924.5
19511	11.377	1.3636	0.	2946.8
19512	11.377	1.4545	5.e-002	10.217
19513	11.651	1.4545	0.	2876.6
19514	11.56	1.3636	0.	2900.2
19515	11.56	1.4545	5.e-002	9.9008
19516	11.834	1.4545	0.	2828.9
19517	11.743	1.3636	0.	2853.4
19518	11.743	1.4545	5.e-002	9.659
19519	12.017	1.4545	0.	2781.4
19520	11.926	1.3636	0.	2806.5
19521	11.926	1.4545	5.e-002	9.4707
19522	12.2	1.4545	0.	2734.2
19523	12.109	1.3636	0.	2759.6
19524	12.109	1.4545	5.e-002	9.3201
19525	12.383	1.4545	0.	2687.3
19526	12.291	1.3636	0.	2712.9
19527	12.291	1.4545	5.e-002	9.196
19528	12.566	1.4545	0.	2640.5
19529	12.474	1.3636	0.	2666.2
19530	12.474	1.4545	5.e-002	9.0909
19531	12.749	1.4545	0.	2593.9
19532	12.657	1.3636	0.	2619.6
19533	12.657	1.4545	5.e-002	8.9992
19534	12.932	1.4545	0.	2547.5
19535	12.84	1.3636	0.	2573.1
19536	12.84	1.4545	5.e-002	8.9169
19537	13.115	1.4545	0.	2501.3
19538	13.023	1.3636	0.	2526.8
19539	13.023	1.4545	5.e-002	8.8416
19540	13.298	1.4545	0.	2455.2
19541	13.206	1.3636	0.	2480.6
19542	13.206	1.4545	5.e-002	8.7717
19543	13.481	1.4545	0.	2409.3
19544	13.389	1.3636	0.	2434.5
19545	13.389	1.4545	5.e-002	8.7058
19546	13.664	1.4545	0.	2363.5
19547	13.572	1.3636	0.	2388.6
19548	13.572	1.4545	5.e-002	8.6431
19549	13.847	1.4545	0.	2317.9
19550	13.755	1.3636	0.	2342.8
19551	13.755	1.4545	5.e-002	8.5829
19552	14.029	1.4545	0.	2272.3
19553	13.938	1.3636	0.	2297.1
19554	13.938	1.4545	5.e-002	8.5251
19555	14.212	1.4545	0.	2226.9
19556	14.121	1.3636	0.	2251.5
19557	14.121	1.4545	5.e-002	8.4694
19558	14.395	1.4545	0.	2181.6
19559	14.304	1.3636	0.	2206.
19560	14.304	1.4545	5.e-002	8.4153
19561	14.578	1.4545	0.	2136.5
19562	14.487	1.3636	0.	2160.7
19563	14.487	1.4545	5.e-002	8.3628
19564	14.761	1.4545	0.	2091.4
19565	14.67	1.3636	0.	2115.5
19566	14.67	1.4545	5.e-002	8.3119
19567	14.944	1.4545	0.	2046.5
19568	14.853	1.3636	0.	2070.4
19569	14.853	1.4545	5.e-002	8.2624
19570	15.127	1.4545	0.	2001.7
19571	15.036	1.3636	0.	2025.5
19572	15.036	1.4545	5.e-002	8.2142
19573	15.31	1.4545	0.	1957.1
19574	15.219	1.3636	0.	1980.7
19575	15.219	1.4545	5.e-002	8.1672
19576	15.493	1.4545	0.	1912.6
19577	15.402	1.3636	0.	1936.
19578	15.402	1.4545	5.e-002	8.1215
19579	15.676	1.4545	0.	1868.2
19580	15.584	1.3636	0.	1891.5
19581	15.584	1.4545	5.e-002	8.0769
19582	15.859	1.4545	0.	1824.
19583	15.767	1.3636	0.	1847.1
19584	15.767	1.4545	5.e-002	8.0334
19585	16.042	1.4545	0.	1779.9
19586	15.95	1.3636	0.	1802.9
19587	15.95	1.4545	5.e-002	7.9908
19588	16.225	1.4545	0.	1735.9
19589	16.133	1.3636	0.	1758.8
19590	16.133	1.4545	5.e-002	7.9493
19591	16.408	1.4545	0.	1692.2
19592	16.316	1.3636	0.	1714.9
19593	16.316	1.4545	5.e-002	7.9088
19594	16.591	1.4545	0.	1648.6
19595	16.499	1.3636	0.	1671.2
19596	16.499	1.4545	5.e-002	7.8691
19597	16.774	1.4545	0.	1605.1
19598	16.682	1.3636	0.	1627.6
19599	16.682	1.4545	5.e-002	7.8303
19600	16.957	1.4545	0.	1561.8
19601	16.865	1.3636	0.	1584.2
19602	16.865	1.4545	5.e-002	7.7925
19603	17.14	1.4545	0.	1518.7
19604	17.048	1.3636	0.	1540.9
19605	17.048	1.4545	5.e-002	7.7555
19606	17.322	1.4545	0.	1475.8
19607	17.231	1.3636	0.	1497.8
19608	17.231	1.4545	5.e-002	7.7193
19609	17.505	1.4545	0.	1433.1
19610	17.414	1.3636	0.	1455.
19611	17.414	1.4545	5.e-002	7.6839
19612	17.688	1.4545	0.	1390.5
19613	17.597	1.3636	0.	1412.3
19614	17.597	1.4545	5.e-002	7.6493
19615	17.871	1.4545	0.	1348.2
19616	17.78	1.3636	0.	1369.8
19617	17.78	1.4545	5.e-002	7.6156
19618	18.054	1.4545	0.	1306.
19619	17.963	1.3636	0.	1327.5
19620	17.963	1.4545	5.e-002	7.5826
19621	18.237	1.4545	0.	1264.
19622	18.146	1.3636	0.	1285.3
19623	18.146	1.4545	5.e-002	7.5505
19624	18.42	1.4545	0.	1222.3
19625	18.329	1.3636	0.	1243.4
19626	18.329	1.4545	5.e-002	7.5192
19627	18.603	1.4545	0.	1180.7
19628	18.512	1.3636	0.	1201.7
19629	18.512	1.4545	5.e-002	7.4889
19630	18.786	1.4545	0.	1139.4
19631	18.695	1.3636	0.	1160.2
19632	18.695	1.4545	5.e-002	7.4593
19633	18.969	1.4545	0.	1098.3
19634	18.878	1.3636	0.	1118.9
19635	18.878	1.4545	5.e-002	7.4307
19636	19.152	1.4545	0.	1057.4
19637	19.06	1.3636	0.	1077.9
19638	19.06	1.4545	5.e-002	7.4031
19639	19.335	1.4545	0.	1016.7
19640	19.243	1.3636	0.	1037.
19641	19.243	1.4545	5.e-002	7.3765
19642	19.518	1.4545	0.	976.32
19643	19.426	1.3636	0.	996.43
19644	19.426	1.4545	5.e-002	7.3509
19645	19.701	1.4545	0.	936.14
19646	19.609	1.3636	0.	956.06
19647	19.609	1.4545	5.e-002	7.3265
19648	19.884	1.4545	0.	896.21
19649	19.792	1.3636	0.	915.92
19650	19.792	1.4545	5.e-002	7.3033
19651	20.067	1.4545	0.	856.54
19652	19.975	1.3636	0.	876.03
19653	19.975	1.4545	5.e-002	7.2815
19654	20.25	1.4545	0.	817.14
19655	20.158	1.3636	0.	836.4
19656	20.158	1.4545	5.e-002	7.2609
19657	20.433	1.4545	0.	778.01
19658	20.341	1.3636	0.	797.02
19659	20.341	1.4545	5.e-002	7.242
19660	20.616	1.4545	0.	739.17
19661	20.524	1.3636	0.	757.92
19662	20.524	1.4545	5.e-002	7.2248
19663	20.798	1.4545	0.	700.63
19664	20.707	1.3636	0.	719.1
19665	20.707	1.4545	5.e-002	7.2093
19666	20.981	1.4545	0.	662.41
19667	20.89	1.3636	0.	680.58
19668	20.89	1.4545	5.e-002	7.1958
19669	21.164	1.4545	0.	624.53
19670	21.073	1.3636	0.	642.38
19671	21.073	1.4545	5.e-002	7.1846
19672	21.347	1.4545	0.	587.01
19673	21.256	1.3636	0.	604.51
19674	21.256	1.4545	5.e-002	7.1758
19675	21.53	1.4545	0.	549.88
19676	21.439	1.3636	0.	567.
19677	21.439	1.4545	5.e-002	7.1699
19678	21.713	1.4545	0.	513.18
19679	21.622	1.3636	0.	529.89
19680	21.622	1.4545	5.e-002	7.1671
19681	21.896	1.4545	0.	476.96
19682	21.805	1.3636	0.	493.21
19683	21.805	1.4545	5.e-002	7.168
19684	22.079	1.4545	0.	441.28
19685	21.988	1.3636	0.	457.02
19686	21.988	1.4545	5.e-002	7.1731
19687	22.262	1.4545	0.	406.23
19688	22.171	1.3636	0.	421.4
19689	22.171	1.4545	5.e-002	7.1833
19690	22.445	1.4545	0.	371.9
19691	22.353	1.3636	0.	386.42
19692	22.353	1.4545	5.e-002	7.1995
19693	22.628	1.4545	0.	338.44
19694	22.536	1.3636	0.	352.22
19695	22.536	1.4545	5.e-002	7.2229
19696	22.811	1.4545	0.	306.03
19697	22.719	1.3636	0.	318.96
19698	22.719	1.4545	5.e-002	7.2551
19699	22.994	1.4545	0.	274.92
19700	22.902	1.3636	0.	286.86
19701	22.902	1.4545	5.e-002	7.2981
19702	23.177	1.4545	0.	245.47
19703	23.085	1.3636	0.	256.22
19704	23.085	1.4545	5.e-002	7.354
19705	23.36	1.4545	0.	218.18
19706	23.268	1.3636	0.	227.48
19707	23.268	1.4545	5.e-002	7.4253
19708	23.543	1.4545	0.	193.78
19709	23.451	1.3636	0.	201.24
19710	23.451	1.4545	5.e-002	7.5138
19711	23.726	1.4545	0.	173.38
19712	23.634	1.3636	0.	178.44
19713	23.634	1.4545	5.e-002	7.6263
19714	23.817	1.3636	0.	160.45
19715	23.817	1.4545	5.e-002	7.8615
19716	23.909	1.4545	0.	158.45
19717	8.5411	1.2727	0.	3728.2
19718	8.4496	1.1818	0.	3567.1
19719	8.4496	1.2727	5.e-002	185.93
19720	8.3581	1.2727	0.	3201.9
19721	8.724	1.2727	0.	3482.1
19722	8.6326	1.1818	0.	3255.5
19723	8.6326	1.2727	5.e-002	110.99
19724	8.907	1.2727	0.	3387.3
19725	8.8155	1.1818	0.	3183.9
19726	8.8155	1.2727	5.e-002	81.549
19727	9.0899	1.2727	0.	3335.6
19728	8.9985	1.1818	0.	3165.9
19729	8.9985	1.2727	5.e-002	58.787
19730	9.2729	1.2727	0.	3306.1
19731	9.1814	1.1818	0.	3170.7
19732	9.1814	1.2727	5.e-002	44.102
19733	9.4558	1.2727	0.	3286.8
19734	9.3643	1.1818	0.	3182.8
19735	9.3643	1.2727	5.e-002	34.213
19736	9.6388	1.2727	0.	3269.8
19737	9.5473	1.1818	0.	3192.7
19738	9.5473	1.2727	5.e-002	27.32
19739	9.8217	1.2727	0.	3250.7
19740	9.7302	1.1818	0.	3196.1
19741	9.7302	1.2727	5.e-002	22.292
19742	10.005	1.2727	0.	3227.7
19743	9.9132	1.1818	0.	3191.4
19744	9.9132	1.2727	5.e-002	18.534
19745	10.188	1.2727	0.	3200.3
19746	10.096	1.1818	0.	3178.6
19747	10.096	1.2727	5.e-002	15.711
19748	10.371	1.2727	0.	3168.6
19749	10.279	1.1818	0.	3158.5
19750	10.279	1.2727	5.e-002	13.61
19751	10.553	1.2727	0.	3133.2
19752	10.462	1.1818	0.	3132.1
19753	10.462	1.2727	5.e-002	12.079
19754	10.736	1.2727	0.	3094.8
19755	10.645	1.1818	0.	3100.8
19756	10.645	1.2727	5.e-002	10.995
19757	10.919	1.2727	0.	3054.
19758	10.828	1.1818	0.	3065.4
19759	10.828	1.2727	5.e-002	10.252
19760	11.102	1.2727	0.	3011.4
19761	11.011	1.1818	0.	3026.9
19762	11.011	1.2727	5.e-002	9.7572
19763	11.285	1.2727	0.	2967.5
19764	11.194	1.1818	0.	2986.
19765	11.194	1.2727	5.e-002	9.4367
19766	11.468	1.2727	0.	2922.6
19767	11.377	1.1818	0.	2943.4
19768	11.377	1.2727	5.e-002	9.2323
19769	11.651	1.2727	0.	2877.
19770	11.56	1.1818	0.	2899.5
19771	11.56	1.2727	5.e-002	9.1018
19772	11.834	1.2727	0.	2831.
19773	11.743	1.1818	0.	2854.7
19774	11.743	1.2727	5.e-002	9.0162
19775	12.017	1.2727	0.	2784.7
19776	11.926	1.1818	0.	2809.3
19777	11.926	1.2727	5.e-002	8.9565
19778	12.2	1.2727	0.	2738.3
19779	12.109	1.1818	0.	2763.4
19780	12.109	1.2727	5.e-002	8.9103
19781	12.383	1.2727	0.	2691.8
19782	12.291	1.1818	0.	2717.2
19783	12.291	1.2727	5.e-002	8.8701
19784	12.566	1.2727	0.	2645.3
19785	12.474	1.1818	0.	2670.9
19786	12.474	1.2727	5.e-002	8.832
19787	12.749	1.2727	0.	2598.8
19788	12.657	1.1818	0.	2624.5
19789	12.657	1.2727	5.e-002	8.7935
19790	12.932	1.2727	0.	2552.5
19791	12.84	1.1818	0.	2578.1
19792	12.84	1.2727	5.e-002	8.7535
19793	13.115	1.2727	0.	2506.1
19794	13.023	1.1818	0.	2531.8
19795	13.023	1.2727	5.e-002	8.7115
19796	13.298	1.2727	0.	2459.9
19797	13.206	1.1818	0.	2485.5
19798	13.206	1.2727	5.e-002	8.6679
19799	13.481	1.2727	0.	2413.8
19800	13.389	1.1818	0.	2439.2
19801	13.389	1.2727	5.e-002	8.6229
19802	13.664	1.2727	0.	2367.8
19803	13.572	1.1818	0.	2393.1
19804	13.572	1.2727	5.e-002	8.5766
19805	13.847	1.2727	0.	2322.
19806	13.755	1.1818	0.	2347.1
19807	13.755	1.2727	5.e-002	8.5294
19808	14.029	1.2727	0.	2276.2
19809	13.938	1.1818	0.	2301.2
19810	13.938	1.2727	5.e-002	8.4819
19811	14.212	1.2727	0.	2230.6
19812	14.121	1.1818	0.	2255.4
19813	14.121	1.2727	5.e-002	8.4342
19814	14.395	1.2727	0.	2185.1
19815	14.304	1.1818	0.	2209.7
19816	14.304	1.2727	5.e-002	8.3865
19817	14.578	1.2727	0.	2139.7
19818	14.487	1.1818	0.	2164.2
19819	14.487	1.2727	5.e-002	8.3391
19820	14.761	1.2727	0.	2094.5
19821	14.67	1.1818	0.	2118.8
19822	14.67	1.2727	5.e-002	8.2922
19823	14.944	1.2727	0.	2049.4
19824	14.853	1.1818	0.	2073.5
19825	14.853	1.2727	5.e-002	8.246
19826	15.127	1.2727	0.	2004.5
19827	15.036	1.1818	0.	2028.4
19828	15.036	1.2727	5.e-002	8.2003
19829	15.31	1.2727	0.	1959.6
19830	15.219	1.1818	0.	1983.4
19831	15.219	1.2727	5.e-002	8.1553
19832	15.493	1.2727	0.	1915.
19833	15.402	1.1818	0.	1938.6
19834	15.402	1.2727	5.e-002	8.1112
19835	15.676	1.2727	0.	1870.5
19836	15.584	1.1818	0.	1893.9
19837	15.584	1.2727	5.e-002	8.068
19838	15.859	1.2727	0.	1826.1
19839	15.767	1.1818	0.	1849.4
19840	15.767	1.2727	5.e-002	8.0255
19841	16.042	1.2727	0.	1781.9
19842	15.95	1.1818	0.	1805.1
19843	15.95	1.2727	5.e-002	7.9838
19844	16.225	1.2727	0.	1737.8
19845	16.133	1.1818	0.	1760.9
19846	16.133	1.2727	5.e-002	7.943
19847	16.408	1.2727	0.	1693.9
19848	16.316	1.1818	0.	1716.8
19849	16.316	1.2727	5.e-002	7.9031
19850	16.591	1.2727	0.	1650.2
19851	16.499	1.1818	0.	1673.
19852	16.499	1.2727	5.e-002	7.8639
19853	16.774	1.2727	0.	1606.7
19854	16.682	1.1818	0.	1629.3
19855	16.682	1.2727	5.e-002	7.8255
19856	16.957	1.2727	0.	1563.3
19857	16.865	1.1818	0.	1585.7
19858	16.865	1.2727	5.e-002	7.788
19859	17.14	1.2727	0.	1520.1
19860	17.048	1.1818	0.	1542.4
19861	17.048	1.2727	5.e-002	7.7512
19862	17.322	1.2727	0.	1477.1
19863	17.231	1.1818	0.	1499.2
19864	17.231	1.2727	5.e-002	7.7152
19865	17.505	1.2727	0.	1434.2
19866	17.414	1.1818	0.	1456.2
19867	17.414	1.2727	5.e-002	7.68
19868	17.688	1.2727	0.	1391.6
19869	17.597	1.1818	0.	1413.5
19870	17.597	1.2727	5.e-002	7.6456
19871	17.871	1.2727	0.	1349.1
19872	17.78	1.1818	0.	1370.8
19873	17.78	1.2727	5.e-002	7.6119
19874	18.054	1.2727	0.	1306.9
19875	17.963	1.1818	0.	1328.4
19876	17.963	1.2727	5.e-002	7.579
19877	18.237	1.2727	0.	1264.8
19878	18.146	1.1818	0.	1286.2
19879	18.146	1.2727	5.e-002	7.5469
19880	18.42	1.2727	0.	1222.9
19881	18.329	1.1818	0.	1244.2
19882	18.329	1.2727	5.e-002	7.5157
19883	18.603	1.2727	0.	1181.3
19884	18.512	1.1818	0.	1202.4
19885	18.512	1.2727	5.e-002	7.4853
19886	18.786	1.2727	0.	1139.8
19887	18.695	1.1818	0.	1160.8
19888	18.695	1.2727	5.e-002	7.4557
19889	18.969	1.2727	0.	1098.6
19890	18.878	1.1818	0.	1119.4
19891	18.878	1.2727	5.e-002	7.427
19892	19.152	1.2727	0.	1057.6
19893	19.06	1.1818	0.	1078.2
19894	19.06	1.2727	5.e-002	7.3993
19895	19.335	1.2727	0.	1016.8
19896	19.243	1.1818	0.	1037.2
19897	19.243	1.2727	5.e-002	7.3725
19898	19.518	1.2727	0.	976.23
19899	19.426	1.1818	0.	996.47
19900	19.426	1.2727	5.e-002	7.3467
19901	19.701	1.2727	0.	935.9
19902	19.609	1.1818	0.	955.94
19903	19.609	1.2727	5.e-002	7.3221
19904	19.884	1.2727	0.	895.8
19905	19.792	1.1818	0.	915.64
19906	19.792	1.2727	5.e-002	7.2987
19907	20.067	1.2727	0.	855.94
19908	19.975	1.1818	0.	875.57
19909	19.975	1.2727	5.e-002	7.2765
19910	20.25	1.2727	0.	816.34
19911	20.158	1.1818	0.	835.74
19912	20.158	1.2727	5.e-002	7.2555
19913	20.433	1.2727	0.	776.99
19914	20.341	1.1818	0.	796.16
19915	20.341	1.2727	5.e-002	7.2361
19916	20.616	1.2727	0.	737.92
19917	20.524	1.1818	0.	756.82
19918	20.524	1.2727	5.e-002	7.2183
19919	20.798	1.2727	0.	699.12
19920	20.707	1.1818	0.	717.75
19921	20.707	1.2727	5.e-002	7.2021
19922	20.981	1.2727	0.	660.61
19923	20.89	1.1818	0.	678.95
19924	20.89	1.2727	5.e-002	7.1878
19925	21.164	1.2727	0.	622.42
19926	21.073	1.1818	0.	640.44
19927	21.073	1.2727	5.e-002	7.1755
19928	21.347	1.2727	0.	584.56
19929	21.256	1.1818	0.	602.24
19930	21.256	1.2727	5.e-002	7.1656
19931	21.53	1.2727	0.	547.07
19932	21.439	1.1818	0.	564.37
19933	21.439	1.2727	5.e-002	7.1582
19934	21.713	1.2727	0.	509.97
19935	21.622	1.1818	0.	526.86
19936	21.622	1.2727	5.e-002	7.1538
19937	21.896	1.2727	0.	473.32
19938	21.805	1.1818	0.	489.74
19939	21.805	1.2727	5.e-002	7.1527
19940	22.079	1.2727	0.	437.17
19941	21.988	1.1818	0.	453.08
19942	21.988	1.2727	5.e-002	7.1555
19943	22.262	1.2727	0.	401.61
19944	22.171	1.1818	0.	416.93
19945	22.171	1.2727	5.e-002	7.1631
19946	22.445	1.2727	0.	366.75
19947	22.353	1.1818	0.	381.4
19948	22.353	1.2727	5.e-002	7.1762
19949	22.628	1.2727	0.	332.71
19950	22.536	1.1818	0.	346.59
19951	22.536	1.2727	5.e-002	7.1964
19952	22.811	1.2727	0.	299.71
19953	22.719	1.1818	0.	312.68
19954	22.719	1.2727	5.e-002	7.2254
19955	22.994	1.2727	0.	267.99
19956	22.902	1.1818	0.	279.9
19957	22.902	1.2727	5.e-002	7.2655
19958	23.177	1.2727	0.	237.93
19959	23.085	1.1818	0.	248.56
19960	23.085	1.2727	5.e-002	7.3196
19961	23.36	1.2727	0.	210.05
19962	23.268	1.1818	0.	219.12
19963	23.268	1.2727	5.e-002	7.3913
19964	23.543	1.2727	0.	185.11
19965	23.451	1.1818	0.	192.22
19966	23.451	1.2727	5.e-002	7.484
19967	23.726	1.2727	0.	164.29
19968	23.634	1.1818	0.	168.85
19969	23.634	1.2727	5.e-002	7.6072
19970	23.817	1.1818	0.	150.49
19971	23.817	1.2727	5.e-002	7.8815
19972	23.909	1.2727	0.	148.97
19973	8.5411	1.0909	0.	3011.3
19974	8.4496	1.	0.	2840.6
19975	8.4496	1.0909	5.e-002	147.48
19976	8.3581	1.0909	0.	2554.5
19977	8.724	1.0909	0.	2903.3
19978	8.6326	1.	0.	2662.2
19979	8.6326	1.0909	5.e-002	96.737
19980	8.907	1.0909	0.	2929.2
19981	8.8155	1.	0.	2702.9
19982	8.8155	1.0909	5.e-002	76.69
19983	9.0899	1.0909	0.	2981.6
19984	8.9985	1.	0.	2787.8
19985	8.9985	1.0909	5.e-002	59.079
19986	9.2729	1.0909	0.	3036.2
19987	9.1814	1.	0.	2879.1
19988	9.1814	1.0909	5.e-002	45.292
19989	9.4558	1.0909	0.	3082.3
19990	9.3643	1.	0.	2960.
19991	9.3643	1.0909	5.e-002	34.976
19992	9.6388	1.0909	0.	3115.5
19993	9.5473	1.	0.	3023.4
19994	9.5473	1.0909	5.e-002	27.283
19995	9.8217	1.0909	0.	3134.8
19996	9.7302	1.	0.	3068.1
19997	9.7302	1.0909	5.e-002	21.51
19998	10.005	1.0909	0.	3141.1
19999	9.9132	1.	0.	3095.
20000	9.9132	1.0909	5.e-002	17.168
20001	10.188	1.0909	0.	3136.2
20002	10.096	1.	0.	3106.6
20003	10.096	1.0909	5.e-002	13.942
20004	10.371	1.0909	0.	3121.8
20005	10.279	1.	0.	3105.3
20006	10.279	1.0909	5.e-002	11.619
20007	10.553	1.0909	0.	3099.6
20008	10.462	1.	0.	3093.5
20009	10.462	1.0909	5.e-002	10.038
20010	10.736	1.0909	0.	3071.3
20011	10.645	1.	0.	3073.3
20012	10.645	1.0909	5.e-002	9.0476
20013	10.919	1.0909	0.	3038.3
20014	10.828	1.	0.	3046.4
20015	10.828	1.0909	5.e-002	8.4983
20016	11.102	1.0909	0.	3001.5
20017	11.011	1.	0.	3014.5
20018	11.011	1.0909	5.e-002	8.2476
20019	11.285	1.0909	0.	2962.
20020	11.194	1.	0.	2978.6
20021	11.194	1.0909	5.e-002	8.1781
20022	11.468	1.0909	0.	2920.4
20023	11.377	1.	0.	2939.7
20024	11.377	1.0909	5.e-002	8.2055
20025	11.651	1.0909	0.	2877.2
20026	11.56	1.	0.	2898.6
20027	11.56	1.0909	5.e-002	8.2756
20028	11.834	1.0909	0.	2833.
20029	11.743	1.	0.	2855.8
20030	11.743	1.0909	5.e-002	8.3572
20031	12.017	1.0909	0.	2787.9
20032	11.926	1.	0.	2811.8
20033	11.926	1.0909	5.e-002	8.4334
20034	12.2	1.0909	0.	2742.3
20035	12.109	1.	0.	2767.
20036	12.109	1.0909	5.e-002	8.4962
20037	12.383	1.0909	0.	2696.4
20038	12.291	1.	0.	2721.5
20039	12.291	1.0909	5.e-002	8.5427
20040	12.566	1.0909	0.	2650.2
20041	12.474	1.	0.	2675.6
20042	12.474	1.0909	5.e-002	8.5731
20043	12.749	1.0909	0.	2603.9
20044	12.657	1.	0.	2629.5
20045	12.657	1.0909	5.e-002	8.5886
20046	12.932	1.0909	0.	2557.5
20047	12.84	1.	0.	2583.2
20048	12.84	1.0909	5.e-002	8.591
20049	13.115	1.0909	0.	2511.1
20050	13.023	1.	0.	2536.8
20051	13.023	1.0909	5.e-002	8.5824
20052	13.298	1.0909	0.	2464.8
20053	13.206	1.	0.	2490.5
20054	13.206	1.0909	5.e-002	8.5651
20055	13.481	1.0909	0.	2418.5
20056	13.389	1.	0.	2444.1
20057	13.389	1.0909	5.e-002	8.5407
20058	13.664	1.0909	0.	2372.4
20059	13.572	1.	0.	2397.8
20060	13.572	1.0909	5.e-002	8.5106
20061	13.847	1.0909	0.	2326.3
20062	13.755	1.	0.	2351.6
20063	13.755	1.0909	5.e-002	8.4762
20064	14.029	1.0909	0.	2280.3
20065	13.938	1.	0.	2305.5
20066	13.938	1.0909	5.e-002	8.4387
20067	14.212	1.0909	0.	2234.5
20068	14.121	1.	0.	2259.5
20069	14.121	1.0909	5.e-002	8.399
20070	14.395	1.0909	0.	2188.8
20071	14.304	1.	0.	2213.6
20072	14.304	1.0909	5.e-002	8.3576
20073	14.578	1.0909	0.	2143.2
20074	14.487	1.	0.	2167.9
20075	14.487	1.0909	5.e-002	8.3152
20076	14.761	1.0909	0.	2097.8
20077	14.67	1.	0.	2122.3
20078	14.67	1.0909	5.e-002	8.2723
20079	14.944	1.0909	0.	2052.5
20080	14.853	1.	0.	2076.8
20081	14.853	1.0909	5.e-002	8.2292
20082	15.127	1.0909	0.	2007.4
20083	15.036	1.	0.	2031.5
20084	15.036	1.0909	5.e-002	8.186
20085	15.31	1.0909	0.	1962.4
20086	15.219	1.	0.	1986.4
20087	15.219	1.0909	5.e-002	8.143
20088	15.493	1.0909	0.	1917.6
20089	15.402	1.	0.	1941.4
20090	15.402	1.0909	5.e-002	8.1006
20091	15.676	1.0909	0.	1872.9
20092	15.584	1.	0.	1896.6
20093	15.584	1.0909	5.e-002	8.0587
20094	15.859	1.0909	0.	1828.4
20095	15.767	1.	0.	1851.9
20096	15.767	1.0909	5.e-002	8.0172
20097	16.042	1.0909	0.	1784.1
20098	15.95	1.	0.	1807.4
20099	15.95	1.0909	5.e-002	7.9764
20100	16.225	1.0909	0.	1739.9
20101	16.133	1.	0.	1763.1
20102	16.133	1.0909	5.e-002	7.9363
20103	16.408	1.0909	0.	1695.9
20104	16.316	1.	0.	1718.9
20105	16.316	1.0909	5.e-002	7.897
20106	16.591	1.0909	0.	1652.
20107	16.499	1.	0.	1674.9
20108	16.499	1.0909	5.e-002	7.8582
20109	16.774	1.0909	0.	1608.4
20110	16.682	1.	0.	1631.1
20111	16.682	1.0909	5.e-002	7.8202
20112	16.957	1.0909	0.	1564.9
20113	16.865	1.	0.	1587.5
20114	16.865	1.0909	5.e-002	7.7831
20115	17.14	1.0909	0.	1521.6
20116	17.048	1.	0.	1544.
20117	17.048	1.0909	5.e-002	7.7466
20118	17.322	1.0909	0.	1478.5
20119	17.231	1.	0.	1500.8
20120	17.231	1.0909	5.e-002	7.7107
20121	17.505	1.0909	0.	1435.5
20122	17.414	1.	0.	1457.7
20123	17.414	1.0909	5.e-002	7.6757
20124	17.688	1.0909	0.	1392.8
20125	17.597	1.	0.	1414.8
20126	17.597	1.0909	5.e-002	7.6414
20127	17.871	1.0909	0.	1350.2
20128	17.78	1.	0.	1372.1
20129	17.78	1.0909	5.e-002	7.6079
20130	18.054	1.0909	0.	1307.9
20131	17.963	1.	0.	1329.6
20132	17.963	1.0909	5.e-002	7.575
20133	18.237	1.0909	0.	1265.7
20134	18.146	1.	0.	1287.3
20135	18.146	1.0909	5.e-002	7.5429
20136	18.42	1.0909	0.	1223.7
20137	18.329	1.	0.	1245.1
20138	18.329	1.0909	5.e-002	7.5117
20139	18.603	1.0909	0.	1182.
20140	18.512	1.	0.	1203.2
20141	18.512	1.0909	5.e-002	7.4813
20142	18.786	1.0909	0.	1140.4
20143	18.695	1.	0.	1161.5
20144	18.695	1.0909	5.e-002	7.4516
20145	18.969	1.0909	0.	1099.
20146	18.878	1.	0.	1120.
20147	18.878	1.0909	5.e-002	7.4228
20148	19.152	1.0909	0.	1057.9
20149	19.06	1.	0.	1078.6
20150	19.06	1.0909	5.e-002	7.395
20151	19.335	1.0909	0.	1017.
20152	19.243	1.	0.	1037.5
20153	19.243	1.0909	5.e-002	7.3681
20154	19.518	1.0909	0.	976.25
20155	19.426	1.	0.	996.64
20156	19.426	1.0909	5.e-002	7.3422
20157	19.701	1.0909	0.	935.75
20158	19.609	1.	0.	955.95
20159	19.609	1.0909	5.e-002	7.3173
20160	19.884	1.0909	0.	895.48
20161	19.792	1.	0.	915.48
20162	19.792	1.0909	5.e-002	7.2935
20163	20.067	1.0909	0.	855.43
20164	19.975	1.	0.	875.23
20165	19.975	1.0909	5.e-002	7.271
20166	20.25	1.0909	0.	815.62
20167	20.158	1.	0.	835.2
20168	20.158	1.0909	5.e-002	7.2496
20169	20.433	1.0909	0.	776.05
20170	20.341	1.	0.	795.39
20171	20.341	1.0909	5.e-002	7.2297
20172	20.616	1.0909	0.	736.73
20173	20.524	1.	0.	755.82
20174	20.524	1.0909	5.e-002	7.2112
20175	20.798	1.0909	0.	697.66
20176	20.707	1.	0.	716.49
20177	20.707	1.0909	5.e-002	7.1943
20178	20.981	1.0909	0.	658.86
20179	20.89	1.	0.	677.41
20180	20.89	1.0909	5.e-002	7.1791
20181	21.164	1.0909	0.	620.34
20182	21.073	1.	0.	638.58
20183	21.073	1.0909	5.e-002	7.1659
20184	21.347	1.0909	0.	582.12
20185	21.256	1.	0.	600.04
20186	21.256	1.0909	5.e-002	7.1547
20187	21.53	1.0909	0.	544.23
20188	21.439	1.	0.	561.78
20189	21.439	1.0909	5.e-002	7.1458
20190	21.713	1.0909	0.	506.7
20191	21.622	1.	0.	523.84
20192	21.622	1.0909	5.e-002	7.1396
20193	21.896	1.0909	0.	469.57
20194	21.805	1.	0.	486.26
20195	21.805	1.0909	5.e-002	7.1364
20196	22.079	1.0909	0.	432.9
20197	21.988	1.	0.	449.08
20198	21.988	1.0909	5.e-002	7.1367
20199	22.262	1.0909	0.	396.77
20200	22.171	1.	0.	412.36
20201	22.171	1.0909	5.e-002	7.1413
20202	22.445	1.0909	0.	361.27
20203	22.353	1.	0.	376.18
20204	22.353	1.0909	5.e-002	7.151
20205	22.628	1.0909	0.	326.56
20206	22.536	1.	0.	340.67
20207	22.536	1.0909	5.e-002	7.1673
20208	22.811	1.0909	0.	292.82
20209	22.719	1.	0.	305.98
20210	22.719	1.0909	5.e-002	7.192
20211	22.994	1.0909	0.	260.34
20212	22.902	1.	0.	272.36
20213	22.902	1.0909	5.e-002	7.2279
20214	23.177	1.0909	0.	229.5
20215	23.085	1.	0.	240.13
20216	23.085	1.0909	5.e-002	7.2786
20217	23.36	1.0909	0.	200.84
20218	23.268	1.	0.	209.78
20219	23.268	1.0909	5.e-002	7.3493
20220	23.543	1.0909	0.	175.2
20221	23.451	1.	0.	182.01
20222	23.451	1.0909	5.e-002	7.4456
20223	23.726	1.0909	0.	153.82
20224	23.634	1.	0.	157.86
20225	23.634	1.0909	5.e-002	7.581
20226	23.817	1.	0.	139.01
20227	23.817	1.0909	5.e-002	7.9006
20228	23.909	1.0909	0.	138.
20229	8.5411	0.90909	0.	2422.2
20230	8.4496	0.81818	0.	2241.8
20231	8.4496	0.90909	5.e-002	122.38
20232	8.3581	0.90909	0.	2032.3
20233	8.724	0.90909	0.	2414.5
20234	8.6326	0.81818	0.	2165.4
20235	8.6326	0.90909	5.e-002	85.374
20236	8.907	0.90909	0.	2531.5
20237	8.8155	0.81818	0.	2292.8
20238	8.8155	0.90909	5.e-002	71.966
20239	9.0899	0.90909	0.	2667.6
20240	8.9985	0.81818	0.	2460.5
20241	8.9985	0.90909	5.e-002	58.465
20242	9.2729	0.90909	0.	2792.7
20243	9.1814	0.81818	0.	2622.9
20244	9.1814	0.90909	5.e-002	46.384
20245	9.4558	0.90909	0.	2895.3
20246	9.3643	0.81818	0.	2761.5
20247	9.3643	0.90909	5.e-002	36.297
20248	9.6388	0.90909	0.	2972.7
20249	9.5473	0.81818	0.	2870.6
20250	9.5473	0.90909	5.e-002	28.173
20251	9.8217	0.90909	0.	3026.4
20252	9.7302	0.81818	0.	2951.
20253	9.7302	0.90909	5.e-002	21.74
20254	10.005	0.90909	0.	3059.5
20255	9.9132	0.81818	0.	3005.9
20256	9.9132	0.90909	5.e-002	16.717
20257	10.188	0.90909	0.	3075.2
20258	10.096	0.81818	0.	3039.3
20259	10.096	0.90909	5.e-002	12.882
20260	10.371	0.90909	0.	3076.7
20261	10.279	0.81818	0.	3055.
20262	10.279	0.90909	5.e-002	10.08
20263	10.553	0.90909	0.	3067.
20264	10.462	0.81818	0.	3056.5
20265	10.462	0.90909	5.e-002	8.2029
20266	10.736	0.90909	0.	3048.3
20267	10.645	0.81818	0.	3046.6
20268	10.645	0.90909	5.e-002	7.1369
20269	10.919	0.90909	0.	3022.6
20270	10.828	0.81818	0.	3027.8
20271	10.828	0.90909	5.e-002	6.7085
20272	11.102	0.90909	0.	2991.5
20273	11.011	0.81818	0.	3002.
20274	11.011	0.90909	5.e-002	6.6946
20275	11.285	0.90909	0.	2956.3
20276	11.194	0.81818	0.	2970.9
20277	11.194	0.90909	5.e-002	6.8939
20278	11.468	0.90909	0.	2917.9
20279	11.377	0.81818	0.	2935.7
20280	11.377	0.90909	5.e-002	7.1719
20281	11.651	0.90909	0.	2877.2
20282	11.56	0.81818	0.	2897.3
20283	11.56	0.90909	5.e-002	7.4554
20284	11.834	0.90909	0.	2834.7
20285	11.743	0.81818	0.	2856.6
20286	11.743	0.90909	5.e-002	7.7105
20287	12.017	0.90909	0.	2790.9
20288	11.926	0.81818	0.	2814.1
20289	11.926	0.90909	5.e-002	7.925
20290	12.2	0.90909	0.	2746.2
20291	12.109	0.81818	0.	2770.4
20292	12.109	0.90909	5.e-002	8.0967
20293	12.383	0.90909	0.	2700.8
20294	12.291	0.81818	0.	2725.7
20295	12.291	0.90909	5.e-002	8.2284
20296	12.566	0.90909	0.	2655.
20297	12.474	0.81818	0.	2680.3
20298	12.474	0.90909	5.e-002	8.3255
20299	12.749	0.90909	0.	2608.9
20300	12.657	0.81818	0.	2634.4
20301	12.657	0.90909	5.e-002	8.3931
20302	12.932	0.90909	0.	2562.6
20303	12.84	0.81818	0.	2588.3
20304	12.84	0.90909	5.e-002	8.4362
20305	13.115	0.90909	0.	2516.2
20306	13.023	0.81818	0.	2542.
20307	13.023	0.90909	5.e-002	8.4595
20308	13.298	0.90909	0.	2469.8
20309	13.206	0.81818	0.	2495.5
20310	13.206	0.90909	5.e-002	8.4671
20311	13.481	0.90909	0.	2423.4
20312	13.389	0.81818	0.	2449.1
20313	13.389	0.90909	5.e-002	8.4622
20314	13.664	0.90909	0.	2377.1
20315	13.572	0.81818	0.	2402.7
20316	13.572	0.90909	5.e-002	8.4475
20317	13.847	0.90909	0.	2330.8
20318	13.755	0.81818	0.	2356.3
20319	13.755	0.90909	5.e-002	8.4251
20320	14.029	0.90909	0.	2284.7
20321	13.938	0.81818	0.	2310.
20322	13.938	0.90909	5.e-002	8.3971
20323	14.212	0.90909	0.	2238.6
20324	14.121	0.81818	0.	2263.8
20325	14.121	0.90909	5.e-002	8.3649
20326	14.395	0.90909	0.	2192.7
20327	14.304	0.81818	0.	2217.7
20328	14.304	0.90909	5.e-002	8.3294
20329	14.578	0.90909	0.	2146.9
20330	14.487	0.81818	0.	2171.8
20331	14.487	0.90909	5.e-002	8.2916
20332	14.761	0.90909	0.	2101.3
20333	14.67	0.81818	0.	2126.
20334	14.67	0.90909	5.e-002	8.2525
20335	14.944	0.90909	0.	2055.9
20336	14.853	0.81818	0.	2080.3
20337	14.853	0.90909	5.e-002	8.2124
20338	15.127	0.90909	0.	2010.6
20339	15.036	0.81818	0.	2034.9
20340	15.036	0.90909	5.e-002	8.1716
20341	15.31	0.90909	0.	1965.4
20342	15.219	0.81818	0.	1989.5
20343	15.219	0.90909	5.e-002	8.1305
20344	15.493	0.90909	0.	1920.4
20345	15.402	0.81818	0.	1944.4
20346	15.402	0.90909	5.e-002	8.0896
20347	15.676	0.90909	0.	1875.6
20348	15.584	0.81818	0.	1899.4
20349	15.584	0.90909	5.e-002	8.049
20350	15.859	0.90909	0.	1830.9
20351	15.767	0.81818	0.	1854.6
20352	15.767	0.90909	5.e-002	8.0086
20353	16.042	0.90909	0.	1786.4
20354	15.95	0.81818	0.	1809.9
20355	15.95	0.90909	5.e-002	7.9686
20356	16.225	0.90909	0.	1742.1
20357	16.133	0.81818	0.	1765.5
20358	16.133	0.90909	5.e-002	7.9292
20359	16.408	0.90909	0.	1698.
20360	16.316	0.81818	0.	1721.2
20361	16.316	0.90909	5.e-002	7.8904
20362	16.591	0.90909	0.	1654.
20363	16.499	0.81818	0.	1677.1
20364	16.499	0.90909	5.e-002	7.8521
20365	16.774	0.90909	0.	1610.3
20366	16.682	0.81818	0.	1633.2
20367	16.682	0.90909	5.e-002	7.8145
20368	16.957	0.90909	0.	1566.7
20369	16.865	0.81818	0.	1589.4
20370	16.865	0.90909	5.e-002	7.7777
20371	17.14	0.90909	0.	1523.3
20372	17.048	0.81818	0.	1545.8
20373	17.048	0.90909	5.e-002	7.7415
20374	17.322	0.90909	0.	1480.
20375	17.231	0.81818	0.	1502.5
20376	17.231	0.90909	5.e-002	7.7058
20377	17.505	0.90909	0.	1437.
20378	17.414	0.81818	0.	1459.3
20379	17.414	0.90909	5.e-002	7.6709
20380	17.688	0.90909	0.	1394.1
20381	17.597	0.81818	0.	1416.3
20382	17.597	0.90909	5.e-002	7.6368
20383	17.871	0.90909	0.	1351.5
20384	17.78	0.81818	0.	1373.5
20385	17.78	0.90909	5.e-002	7.6034
20386	18.054	0.90909	0.	1309.
20387	17.963	0.81818	0.	1330.9
20388	17.963	0.90909	5.e-002	7.5706
20389	18.237	0.90909	0.	1266.7
20390	18.146	0.81818	0.	1288.4
20391	18.146	0.90909	5.e-002	7.5385
20392	18.42	0.90909	0.	1224.7
20393	18.329	0.81818	0.	1246.2
20394	18.329	0.90909	5.e-002	7.5073
20395	18.603	0.90909	0.	1182.8
20396	18.512	0.81818	0.	1204.2
20397	18.512	0.90909	5.e-002	7.4768
20398	18.786	0.90909	0.	1141.1
20399	18.695	0.81818	0.	1162.3
20400	18.695	0.90909	5.e-002	7.4471
20401	18.969	0.90909	0.	1099.6
20402	18.878	0.81818	0.	1120.7
20403	18.878	0.90909	5.e-002	7.4182
20404	19.152	0.90909	0.	1058.4
20405	19.06	0.81818	0.	1079.3
20406	19.06	0.90909	5.e-002	7.3903
20407	19.335	0.90909	0.	1017.3
20408	19.243	0.81818	0.	1038.
20409	19.243	0.90909	5.e-002	7.3632
20410	19.518	0.90909	0.	976.41
20411	19.426	0.81818	0.	996.97
20412	19.426	0.90909	5.e-002	7.337
20413	19.701	0.90909	0.	935.75
20414	19.609	0.81818	0.	956.13
20415	19.609	0.90909	5.e-002	7.3119
20416	19.884	0.90909	0.	895.3
20417	19.792	0.81818	0.	915.49
20418	19.792	0.90909	5.e-002	7.2878
20419	20.067	0.90909	0.	855.06
20420	19.975	0.81818	0.	875.05
20421	19.975	0.90909	5.e-002	7.2649
20422	20.25	0.90909	0.	815.04
20423	20.158	0.81818	0.	834.82
20424	20.158	0.90909	5.e-002	7.2431
20425	20.433	0.90909	0.	775.24
20426	20.341	0.81818	0.	794.8
20427	20.341	0.90909	5.e-002	7.2227
20428	20.616	0.90909	0.	735.66
20429	20.524	0.81818	0.	754.99
20430	20.524	0.90909	5.e-002	7.2036
20431	20.798	0.90909	0.	696.32
20432	20.707	0.81818	0.	715.4
20433	20.707	0.90909	5.e-002	7.1859
20434	20.981	0.90909	0.	657.22
20435	20.89	0.81818	0.	676.03
20436	20.89	0.90909	5.e-002	7.1698
20437	21.164	0.90909	0.	618.36
20438	21.073	0.81818	0.	636.89
20439	21.073	0.90909	5.e-002	7.1555
20440	21.347	0.90909	0.	579.78
20441	21.256	0.81818	0.	597.99
20442	21.256	0.90909	5.e-002	7.1431
20443	21.53	0.90909	0.	541.48
20444	21.439	0.81818	0.	559.34
20445	21.439	0.90909	5.e-002	7.1327
20446	21.713	0.90909	0.	503.49
20447	21.622	0.81818	0.	520.97
20448	21.622	0.90909	5.e-002	7.1246
20449	21.896	0.90909	0.	465.86
20450	21.805	0.81818	0.	482.9
20451	21.805	0.90909	5.e-002	7.1192
20452	22.079	0.90909	0.	428.62
20453	21.988	0.81818	0.	445.17
20454	21.988	0.90909	5.e-002	7.1169
20455	22.262	0.90909	0.	391.85
20456	22.171	0.81818	0.	407.83
20457	22.171	0.90909	5.e-002	7.1182
20458	22.445	0.90909	0.	355.64
20459	22.353	0.81818	0.	370.96
20460	22.353	0.90909	5.e-002	7.1241
20461	22.628	0.90909	0.	320.14
20462	22.536	0.81818	0.	334.66
20463	22.536	0.90909	5.e-002	7.1358
20464	22.811	0.90909	0.	285.53
20465	22.719	0.81818	0.	299.08
20466	22.719	0.90909	5.e-002	7.1552
20467	22.994	0.90909	0.	252.09
20468	22.902	0.81818	0.	264.45
20469	22.902	0.90909	5.e-002	7.1852
20470	23.177	0.90909	0.	220.24
20471	23.085	0.81818	0.	231.1
20472	23.085	0.90909	5.e-002	7.2303
20473	23.36	0.90909	0.	190.56
20474	23.268	0.81818	0.	199.55
20475	23.268	0.90909	5.e-002	7.2973
20476	23.543	0.90909	0.	163.96
20477	23.451	0.81818	0.	170.55
20478	23.451	0.90909	5.e-002	7.3952
20479	23.726	0.90909	0.	141.82
20480	23.634	0.81818	0.	145.32
20481	23.634	0.90909	5.e-002	7.5442
20482	23.817	0.81818	0.	125.76
20483	23.817	0.90909	5.e-002	7.9167
20484	23.909	0.90909	0.	125.35
20485	8.5411	0.72727	0.	1922.8
20486	8.4496	0.63636	0.	1727.7
20487	8.4496	0.72727	5.e-002	104.63
20488	8.3581	0.72727	0.	1589.1
20489	8.724	0.72727	0.	2003.1
20490	8.6326	0.63636	0.	1747.3
20491	8.6326	0.72727	5.e-002	77.816
20492	8.907	0.72727	0.	2197.3
20493	8.8155	0.63636	0.	1954.
20494	8.8155	0.72727	5.e-002	68.28
20495	9.0899	0.72727	0.	2401.6
20496	8.9985	0.63636	0.	2190.8
20497	8.9985	0.72727	5.e-002	57.574
20498	9.2729	0.72727	0.	2583.5
20499	9.1814	0.63636	0.	2409.7
20500	9.1814	0.72727	5.e-002	47.034
20501	9.4558	0.72727	0.	2732.1
20502	9.3643	0.63636	0.	2593.5
20503	9.3643	0.72727	5.e-002	37.494
20504	9.6388	0.72727	0.	2846.1
20505	9.5473	0.63636	0.	2738.8
20506	9.5473	0.72727	5.e-002	29.297
20507	9.8217	0.72727	0.	2928.9
20508	9.7302	0.63636	0.	2848.2
20509	9.7302	0.72727	5.e-002	22.469
20510	10.005	0.72727	0.	2984.8
20511	9.9132	0.63636	0.	2926.3
20512	9.9132	0.72727	5.e-002	16.909
20513	10.188	0.72727	0.	3018.6
20514	10.096	0.63636	0.	2978.2
20515	10.096	0.72727	5.e-002	12.486
20516	10.371	0.72727	0.	3034.5
20517	10.279	0.63636	0.	3008.6
20518	10.279	0.72727	5.e-002	9.0984
20519	10.553	0.72727	0.	3035.9
20520	10.462	0.63636	0.	3021.8
20521	10.462	0.72727	5.e-002	6.7079
20522	10.736	0.72727	0.	3026.
20523	10.645	0.63636	0.	3021.2
20524	10.645	0.72727	5.e-002	5.3334
20525	10.919	0.72727	0.	3007.2
20526	10.828	0.63636	0.	3009.8
20527	10.828	0.72727	5.e-002	4.9098
20528	11.102	0.72727	0.	2981.5
20529	11.011	0.63636	0.	2989.8
20530	11.011	0.72727	5.e-002	5.1317
20531	11.285	0.72727	0.	2950.4
20532	11.194	0.63636	0.	2963.2
20533	11.194	0.72727	5.e-002	5.6303
20534	11.468	0.72727	0.	2915.1
20535	11.377	0.63636	0.	2931.5
20536	11.377	0.72727	5.e-002	6.1794
20537	11.651	0.72727	0.	2876.8
20538	11.56	0.63636	0.	2895.8
20539	11.56	0.72727	5.e-002	6.6828
20540	11.834	0.72727	0.	2836.1
20541	11.743	0.63636	0.	2857.2
20542	11.743	0.72727	5.e-002	7.1099
20543	12.017	0.72727	0.	2793.6
20544	11.926	0.63636	0.	2816.2
20545	11.926	0.72727	5.e-002	7.4572
20546	12.2	0.72727	0.	2749.9
20547	12.109	0.63636	0.	2773.6
20548	12.109	0.72727	5.e-002	7.7312
20549	12.383	0.72727	0.	2705.2
20550	12.291	0.63636	0.	2729.7
20551	12.291	0.72727	5.e-002	7.9419
20552	12.566	0.72727	0.	2659.8
20553	12.474	0.63636	0.	2684.8
20554	12.474	0.72727	5.e-002	8.1
20555	12.749	0.72727	0.	2613.9
20556	12.657	0.63636	0.	2639.3
20557	12.657	0.72727	5.e-002	8.2149
20558	12.932	0.72727	0.	2567.7
20559	12.84	0.63636	0.	2593.4
20560	12.84	0.72727	5.e-002	8.2948
20561	13.115	0.72727	0.	2521.3
20562	13.023	0.63636	0.	2547.1
20563	13.023	0.72727	5.e-002	8.3467
20564	13.298	0.72727	0.	2474.9
20565	13.206	0.63636	0.	2500.7
20566	13.206	0.72727	5.e-002	8.3766
20567	13.481	0.72727	0.	2428.4
20568	13.389	0.63636	0.	2454.2
20569	13.389	0.72727	5.e-002	8.3892
20570	13.664	0.72727	0.	2381.9
20571	13.572	0.63636	0.	2407.6
20572	13.572	0.72727	5.e-002	8.3881
20573	13.847	0.72727	0.	2335.5
20574	13.755	0.63636	0.	2361.1
20575	13.755	0.72727	5.e-002	8.3765
20576	14.029	0.72727	0.	2289.1
20577	13.938	0.63636	0.	2314.6
20578	13.938	0.72727	5.e-002	8.3569
20579	14.212	0.72727	0.	2242.9
20580	14.121	0.63636	0.	2268.2
20581	14.121	0.72727	5.e-002	8.3314
20582	14.395	0.72727	0.	2196.8
20583	14.304	0.63636	0.	2222.
20584	14.304	0.72727	5.e-002	8.3012
20585	14.578	0.72727	0.	2150.8
20586	14.487	0.63636	0.	2175.9
20587	14.487	0.72727	5.e-002	8.2676
20588	14.761	0.72727	0.	2105.
20589	14.67	0.63636	0.	2129.9
20590	14.67	0.72727	5.e-002	8.2318
20591	14.944	0.72727	0.	2059.4
20592	14.853	0.63636	0.	2084.1
20593	14.853	0.72727	5.e-002	8.1943
20594	15.127	0.72727	0.	2013.9
20595	15.036	0.63636	0.	2038.4
20596	15.036	0.72727	5.e-002	8.1557
20597	15.31	0.72727	0.	1968.6
20598	15.219	0.63636	0.	1992.9
20599	15.219	0.72727	5.e-002	8.1164
20600	15.493	0.72727	0.	1923.4
20601	15.402	0.63636	0.	1947.6
20602	15.402	0.72727	5.e-002	8.0769
20603	15.676	0.72727	0.	1878.4
20604	15.584	0.63636	0.	1902.4
20605	15.584	0.72727	5.e-002	8.0374
20606	15.859	0.72727	0.	1833.6
20607	15.767	0.63636	0.	1857.5
20608	15.767	0.72727	5.e-002	7.9979
20609	16.042	0.72727	0.	1789.
20610	15.95	0.63636	0.	1812.7
20611	15.95	0.72727	5.e-002	7.9587
20612	16.225	0.72727	0.	1744.6
20613	16.133	0.63636	0.	1768.1
20614	16.133	0.72727	5.e-002	7.92
20615	16.408	0.72727	0.	1700.3
20616	16.316	0.63636	0.	1723.7
20617	16.316	0.72727	5.e-002	7.8817
20618	16.591	0.72727	0.	1656.2
20619	16.499	0.63636	0.	1679.4
20620	16.499	0.72727	5.e-002	7.8439
20621	16.774	0.72727	0.	1612.3
20622	16.682	0.63636	0.	1635.4
20623	16.682	0.72727	5.e-002	7.8067
20624	16.957	0.72727	0.	1568.6
20625	16.865	0.63636	0.	1591.5
20626	16.865	0.72727	5.e-002	7.7702
20627	17.14	0.72727	0.	1525.1
20628	17.048	0.63636	0.	1547.8
20629	17.048	0.72727	5.e-002	7.7342
20630	17.322	0.72727	0.	1481.8
20631	17.231	0.63636	0.	1504.4
20632	17.231	0.72727	5.e-002	7.6988
20633	17.505	0.72727	0.	1438.6
20634	17.414	0.63636	0.	1461.1
20635	17.414	0.72727	5.e-002	7.6641
20636	17.688	0.72727	0.	1395.7
20637	17.597	0.63636	0.	1418.
20638	17.597	0.72727	5.e-002	7.6301
20639	17.871	0.72727	0.	1352.9
20640	17.78	0.63636	0.	1375.1
20641	17.78	0.72727	5.e-002	7.5967
20642	18.054	0.72727	0.	1310.3
20643	17.963	0.63636	0.	1332.3
20644	17.963	0.72727	5.e-002	7.564
20645	18.237	0.72727	0.	1268.
20646	18.146	0.63636	0.	1289.8
20647	18.146	0.72727	5.e-002	7.532
20648	18.42	0.72727	0.	1225.8
20649	18.329	0.63636	0.	1247.5
20650	18.329	0.72727	5.e-002	7.5008
20651	18.603	0.72727	0.	1183.8
20652	18.512	0.63636	0.	1205.3
20653	18.512	0.72727	5.e-002	7.4703
20654	18.786	0.72727	0.	1142.
20655	18.695	0.63636	0.	1163.4
20656	18.695	0.72727	5.e-002	7.4405
20657	18.969	0.72727	0.	1100.4
20658	18.878	0.63636	0.	1121.6
20659	18.878	0.72727	5.e-002	7.4115
20660	19.152	0.72727	0.	1059.
20661	19.06	0.63636	0.	1080.1
20662	19.06	0.72727	5.e-002	7.3835
20663	19.335	0.72727	0.	1017.8
20664	19.243	0.63636	0.	1038.7
20665	19.243	0.72727	5.e-002	7.3562
20666	19.518	0.72727	0.	976.75
20667	19.426	0.63636	0.	997.5
20668	19.426	0.72727	5.e-002	7.3299
20669	19.701	0.72727	0.	935.93
20670	19.609	0.63636	0.	956.51
20671	19.609	0.72727	5.e-002	7.3045
20672	19.884	0.72727	0.	895.31
20673	19.792	0.63636	0.	915.7
20674	19.792	0.72727	5.e-002	7.2801
20675	20.067	0.72727	0.	854.88
20676	19.975	0.63636	0.	875.09
20677	19.975	0.72727	5.e-002	7.2568
20678	20.25	0.72727	0.	814.65
20679	20.158	0.63636	0.	834.67
20680	20.158	0.72727	5.e-002	7.2346
20681	20.433	0.72727	0.	774.63
20682	20.341	0.63636	0.	794.44
20683	20.341	0.72727	5.e-002	7.2136
20684	20.616	0.72727	0.	734.81
20685	20.524	0.63636	0.	754.4
20686	20.524	0.72727	5.e-002	7.1939
20687	20.798	0.72727	0.	695.19
20688	20.707	0.63636	0.	714.56
20689	20.707	0.72727	5.e-002	7.1756
20690	20.981	0.72727	0.	655.79
20691	20.89	0.63636	0.	674.91
20692	20.89	0.72727	5.e-002	7.1586
20693	21.164	0.72727	0.	616.6
20694	21.073	0.63636	0.	635.46
20695	21.073	0.72727	5.e-002	7.1432
20696	21.347	0.72727	0.	577.65
20697	21.256	0.63636	0.	596.22
20698	21.256	0.72727	5.e-002	7.1296
20699	21.53	0.72727	0.	538.94
20700	21.439	0.63636	0.	557.19
20701	21.439	0.72727	5.e-002	7.1177
20702	21.713	0.72727	0.	500.49
20703	21.622	0.63636	0.	518.39
20704	21.622	0.72727	5.e-002	7.1078
20705	21.896	0.72727	0.	462.33
20706	21.805	0.63636	0.	479.84
20707	21.805	0.72727	5.e-002	7.1002
20708	22.079	0.72727	0.	424.51
20709	21.988	0.63636	0.	441.56
20710	21.988	0.72727	5.e-002	7.0952
20711	22.262	0.72727	0.	387.06
20712	22.171	0.63636	0.	403.6
20713	22.171	0.72727	5.e-002	7.0932
20714	22.445	0.72727	0.	350.09
20715	22.353	0.63636	0.	366.
20716	22.353	0.72727	5.e-002	7.095
20717	22.628	0.72727	0.	313.7
20718	22.536	0.63636	0.	328.85
20719	22.536	0.72727	5.e-002	7.1015
20720	22.811	0.72727	0.	278.08
20721	22.719	0.63636	0.	292.29
20722	22.719	0.72727	5.e-002	7.1147
20723	22.994	0.72727	0.	243.48
20724	22.902	0.63636	0.	256.49
20725	22.902	0.72727	5.e-002	7.1371
20726	23.177	0.72727	0.	210.33
20727	23.085	0.63636	0.	221.78
20728	23.085	0.72727	5.e-002	7.1737
20729	23.36	0.72727	0.	179.27
20730	23.268	0.63636	0.	188.66
20731	23.268	0.72727	5.e-002	7.2329
20732	23.543	0.72727	0.	151.31
20733	23.451	0.63636	0.	157.96
20734	23.451	0.72727	5.e-002	7.3281
20735	23.726	0.72727	0.	128.06
20736	23.634	0.63636	0.	131.09
20737	23.634	0.72727	5.e-002	7.4909
20738	23.817	0.63636	0.	110.39
20739	23.817	0.72727	5.e-002	7.925
20740	23.909	0.72727	0.	110.7
20741	8.5411	0.54545	0.	1493.3
20742	8.4496	0.45455	0.	1275.
20743	8.4496	0.54545	5.e-002	92.74
20744	8.3581	0.54545	0.	1196.6
20745	8.724	0.54545	0.	1665.4
20746	8.6326	0.45455	0.	1406.
20747	8.6326	0.54545	5.e-002	73.529
20748	8.907	0.54545	0.	1930.1
20749	8.8155	0.45455	0.	1691.7
20750	8.8155	0.54545	5.e-002	65.992
20751	9.0899	0.54545	0.	2189.3
20752	8.9985	0.45455	0.	1984.4
20753	8.9985	0.54545	5.e-002	56.892
20754	9.2729	0.54545	0.	2414.1
20755	9.1814	0.45455	0.	2244.
20756	9.1814	0.54545	5.e-002	47.429
20757	9.4558	0.54545	0.	2597.
20758	9.3643	0.45455	0.	2459.6
20759	9.3643	0.54545	5.e-002	38.421
20760	9.6388	0.54545	0.	2738.9
20761	9.5473	0.45455	0.	2630.8
20762	9.5473	0.54545	5.e-002	30.337
20763	9.8217	0.54545	0.	2844.4
20764	9.7302	0.45455	0.	2761.6
20765	9.7302	0.54545	5.e-002	23.348
20766	10.005	0.54545	0.	2918.9
20767	9.9132	0.45455	0.	2857.5
20768	9.9132	0.54545	5.e-002	17.463
20769	10.188	0.54545	0.	2967.7
20770	10.096	0.45455	0.	2924.2
20771	10.096	0.54545	5.e-002	12.614
20772	10.371	0.54545	0.	2995.7
20773	10.279	0.45455	0.	2966.9
20774	10.279	0.54545	5.e-002	8.7192
20775	10.553	0.54545	0.	3007.
20776	10.462	0.45455	0.	2990.1
20777	10.462	0.54545	5.e-002	5.737
20778	10.736	0.54545	0.	3005.
20779	10.645	0.45455	0.	2997.7
20780	10.645	0.54545	5.e-002	3.7727
20781	10.919	0.54545	0.	2992.4
20782	10.828	0.45455	0.	2992.8
20783	10.828	0.54545	5.e-002	3.1212
20784	11.102	0.54545	0.	2971.6
20785	11.011	0.45455	0.	2978.1
20786	11.011	0.54545	5.e-002	3.594
20787	11.285	0.54545	0.	2944.4
20788	11.194	0.45455	0.	2955.8
20789	11.194	0.54545	5.e-002	4.4436
20790	11.468	0.54545	0.	2912.3
20791	11.377	0.45455	0.	2927.4
20792	11.377	0.54545	5.e-002	5.2777
20793	11.651	0.54545	0.	2876.3
20794	11.56	0.45455	0.	2894.3
20795	11.56	0.54545	5.e-002	5.9927
20796	11.834	0.54545	0.	2837.3
20797	11.743	0.45455	0.	2857.6
20798	11.743	0.54545	5.e-002	6.5759
20799	12.017	0.54545	0.	2796.2
20800	11.926	0.45455	0.	2818.2
20801	11.926	0.54545	5.e-002	7.0395
20802	12.2	0.54545	0.	2753.4
20803	12.109	0.45455	0.	2776.7
20804	12.109	0.54545	5.e-002	7.4011
20805	12.383	0.54545	0.	2709.4
20806	12.291	0.45455	0.	2733.6
20807	12.291	0.54545	5.e-002	7.6783
20808	12.566	0.54545	0.	2664.5
20809	12.474	0.45455	0.	2689.4
20810	12.474	0.54545	5.e-002	7.8873
20811	12.749	0.54545	0.	2618.9
20812	12.657	0.45455	0.	2644.2
20813	12.657	0.54545	5.e-002	8.0413
20814	12.932	0.54545	0.	2572.9
20815	12.84	0.45455	0.	2598.5
20816	12.84	0.54545	5.e-002	8.1514
20817	13.115	0.54545	0.	2526.5
20818	13.023	0.45455	0.	2552.4
20819	13.023	0.54545	5.e-002	8.2266
20820	13.298	0.54545	0.	2480.
20821	13.206	0.45455	0.	2506.
20822	13.206	0.54545	5.e-002	8.2747
20823	13.481	0.54545	0.	2433.5
20824	13.389	0.45455	0.	2459.4
20825	13.389	0.54545	5.e-002	8.3014
20826	13.664	0.54545	0.	2386.8
20827	13.572	0.45455	0.	2412.7
20828	13.572	0.54545	5.e-002	8.3113
20829	13.847	0.54545	0.	2340.3
20830	13.755	0.45455	0.	2366.1
20831	13.755	0.54545	5.e-002	8.3082
20832	14.029	0.54545	0.	2293.8
20833	13.938	0.45455	0.	2319.5
20834	13.938	0.54545	5.e-002	8.2954
20835	14.212	0.54545	0.	2247.4
20836	14.121	0.45455	0.	2272.9
20837	14.121	0.54545	5.e-002	8.2751
20838	14.395	0.54545	0.	2201.1
20839	14.304	0.45455	0.	2226.5
20840	14.304	0.54545	5.e-002	8.249
20841	14.578	0.54545	0.	2154.9
20842	14.487	0.45455	0.	2180.2
20843	14.487	0.54545	5.e-002	8.2187
20844	14.761	0.54545	0.	2108.9
20845	14.67	0.45455	0.	2134.
20846	14.67	0.54545	5.e-002	8.1854
20847	14.944	0.54545	0.	2063.1
20848	14.853	0.45455	0.	2088.
20849	14.853	0.54545	5.e-002	8.1501
20850	15.127	0.54545	0.	2017.4
20851	15.036	0.45455	0.	2042.2
20852	15.036	0.54545	5.e-002	8.1131
20853	15.31	0.54545	0.	1971.9
20854	15.219	0.45455	0.	1996.5
20855	15.219	0.54545	5.e-002	8.0752
20856	15.493	0.54545	0.	1926.6
20857	15.402	0.45455	0.	1951.
20858	15.402	0.54545	5.e-002	8.0368
20859	15.676	0.54545	0.	1881.5
20860	15.584	0.45455	0.	1905.7
20861	15.584	0.54545	5.e-002	7.9982
20862	15.859	0.54545	0.	1836.5
20863	15.767	0.45455	0.	1860.6
20864	15.767	0.54545	5.e-002	7.9595
20865	16.042	0.54545	0.	1791.8
20866	15.95	0.45455	0.	1815.7
20867	15.95	0.54545	5.e-002	7.921
20868	16.225	0.54545	0.	1747.2
20869	16.133	0.45455	0.	1770.9
20870	16.133	0.54545	5.e-002	7.8828
20871	16.408	0.54545	0.	1702.8
20872	16.316	0.45455	0.	1726.4
20873	16.316	0.54545	5.e-002	7.8451
20874	16.591	0.54545	0.	1658.6
20875	16.499	0.45455	0.	1682.
20876	16.499	0.54545	5.e-002	7.8077
20877	16.774	0.54545	0.	1614.6
20878	16.682	0.45455	0.	1637.9
20879	16.682	0.54545	5.e-002	7.7708
20880	16.957	0.54545	0.	1570.8
20881	16.865	0.45455	0.	1593.9
20882	16.865	0.54545	5.e-002	7.7346
20883	17.14	0.54545	0.	1527.2
20884	17.048	0.45455	0.	1550.1
20885	17.048	0.54545	5.e-002	7.699
20886	17.322	0.54545	0.	1483.7
20887	17.231	0.45455	0.	1506.5
20888	17.231	0.54545	5.e-002	7.6639
20889	17.505	0.54545	0.	1440.5
20890	17.414	0.45455	0.	1463.1
20891	17.414	0.54545	5.e-002	7.6294
20892	17.688	0.54545	0.	1397.4
20893	17.597	0.45455	0.	1419.9
20894	17.597	0.54545	5.e-002	7.5957
20895	17.871	0.54545	0.	1354.5
20896	17.78	0.45455	0.	1376.9
20897	17.78	0.54545	5.e-002	7.5626
20898	18.054	0.54545	0.	1311.9
20899	17.963	0.45455	0.	1334.1
20900	17.963	0.54545	5.e-002	7.5301
20901	18.237	0.54545	0.	1269.4
20902	18.146	0.45455	0.	1291.5
20903	18.146	0.54545	5.e-002	7.4983
20904	18.42	0.54545	0.	1227.1
20905	18.329	0.45455	0.	1249.
20906	18.329	0.54545	5.e-002	7.4672
20907	18.603	0.54545	0.	1185.
20908	18.512	0.45455	0.	1206.8
20909	18.512	0.54545	5.e-002	7.4369
20910	18.786	0.54545	0.	1143.1
20911	18.695	0.45455	0.	1164.7
20912	18.695	0.54545	5.e-002	7.4073
20913	18.969	0.54545	0.	1101.4
20914	18.878	0.45455	0.	1122.9
20915	18.878	0.54545	5.e-002	7.3785
20916	19.152	0.54545	0.	1059.8
20917	19.06	0.45455	0.	1081.2
20918	19.06	0.54545	5.e-002	7.3505
20919	19.335	0.54545	0.	1018.5
20920	19.243	0.45455	0.	1039.7
20921	19.243	0.54545	5.e-002	7.3234
20922	19.518	0.54545	0.	977.33
20923	19.426	0.45455	0.	998.37
20924	19.426	0.54545	5.e-002	7.2971
20925	19.701	0.54545	0.	936.35
20926	19.609	0.45455	0.	957.24
20927	19.609	0.54545	5.e-002	7.2718
20928	19.884	0.54545	0.	895.56
20929	19.792	0.45455	0.	916.28
20930	19.792	0.54545	5.e-002	7.2475
20931	20.067	0.54545	0.	854.96
20932	19.975	0.45455	0.	875.51
20933	19.975	0.54545	5.e-002	7.2242
20934	20.25	0.54545	0.	814.53
20935	20.158	0.45455	0.	834.91
20936	20.158	0.54545	5.e-002	7.2019
20937	20.433	0.54545	0.	774.3
20938	20.341	0.45455	0.	794.48
20939	20.341	0.54545	5.e-002	7.1809
20940	20.616	0.54545	0.	734.24
20941	20.524	0.45455	0.	754.23
20942	20.524	0.54545	5.e-002	7.161
20943	20.798	0.54545	0.	694.37
20944	20.707	0.45455	0.	714.16
20945	20.707	0.54545	5.e-002	7.1424
20946	20.981	0.54545	0.	654.68
20947	20.89	0.45455	0.	674.25
20948	20.89	0.54545	5.e-002	7.1252
20949	21.164	0.54545	0.	615.18
20950	21.073	0.45455	0.	634.52
20951	21.073	0.54545	5.e-002	7.1093
20952	21.347	0.54545	0.	575.87
20953	21.256	0.45455	0.	594.96
20954	21.256	0.54545	5.e-002	7.0951
20955	21.53	0.54545	0.	536.76
20956	21.439	0.45455	0.	555.57
20957	21.439	0.54545	5.e-002	7.0824
20958	21.713	0.54545	0.	497.87
20959	21.622	0.45455	0.	516.37
20960	21.622	0.54545	5.e-002	7.0714
20961	21.896	0.54545	0.	459.21
20962	21.805	0.45455	0.	477.37
20963	21.805	0.54545	5.e-002	7.0624
20964	22.079	0.54545	0.	420.8
20965	21.988	0.45455	0.	438.57
20966	21.988	0.54545	5.e-002	7.0555
20967	22.262	0.54545	0.	382.69
20968	22.171	0.45455	0.	400.
20969	22.171	0.54545	5.e-002	7.051
20970	22.445	0.54545	0.	344.93
20971	22.353	0.45455	0.	361.7
20972	22.353	0.54545	5.e-002	7.0494
20973	22.628	0.54545	0.	307.61
20974	22.536	0.45455	0.	323.72
20975	22.536	0.54545	5.e-002	7.0515
20976	22.811	0.54545	0.	270.88
20977	22.719	0.45455	0.	286.14
20978	22.719	0.54545	5.e-002	7.0586
20979	22.994	0.54545	0.	234.95
20980	22.902	0.45455	0.	249.11
20981	22.902	0.54545	5.e-002	7.073
20982	23.177	0.54545	0.	200.2
20983	23.085	0.45455	0.	212.86
20984	23.085	0.54545	5.e-002	7.099
20985	23.36	0.54545	0.	167.27
20986	23.268	0.45455	0.	177.81
20987	23.268	0.54545	5.e-002	7.1458
20988	23.543	0.54545	0.	137.31
20989	23.451	0.45455	0.	144.72
20990	23.451	0.54545	5.e-002	7.2314
20991	23.726	0.54545	0.	112.3
20992	23.634	0.45455	0.	115.19
20993	23.634	0.54545	5.e-002	7.4019
20994	23.817	0.45455	0.	92.401
20995	23.817	0.54545	5.e-002	7.9202
20996	23.909	0.54545	0.	93.562
20997	8.5411	0.36364	0.	1132.8
20998	8.4496	0.27273	0.	890.1
20999	8.4496	0.36364	5.e-002	86.674
21000	8.3581	0.36364	0.	836.48
21001	8.724	0.36364	0.	1410.9
21002	8.6326	0.27273	0.	1168.5
21003	8.6326	0.36364	5.e-002	72.772
21004	8.907	0.36364	0.	1736.6
21005	8.8155	0.27273	0.	1522.
21006	8.8155	0.36364	5.e-002	65.816
21007	9.0899	0.36364	0.	2034.2
21008	8.9985	0.27273	0.	1849.1
21009	8.9985	0.36364	5.e-002	57.319
21010	9.2729	0.36364	0.	2286.5
21011	9.1814	0.27273	0.	2130.4
21012	9.1814	0.36364	5.e-002	48.433
21013	9.4558	0.36364	0.	2491.5
21014	9.3643	0.27273	0.	2362.9
21015	9.3643	0.36364	5.e-002	39.799
21016	9.6388	0.36364	0.	2652.3
21017	9.5473	0.27273	0.	2549.
21018	9.5473	0.36364	5.e-002	31.845
21019	9.8217	0.36364	0.	2773.9
21020	9.7302	0.27273	0.	2693.3
21021	9.7302	0.36364	5.e-002	24.793
21022	10.005	0.36364	0.	2862.4
21023	9.9132	0.27273	0.	2801.4
21024	9.9132	0.36364	5.e-002	18.714
21025	10.188	0.36364	0.	2923.1
21026	10.096	0.27273	0.	2879.
21027	10.096	0.36364	5.e-002	13.585
21028	10.371	0.36364	0.	2961.1
21029	10.279	0.27273	0.	2931.1
21030	10.279	0.36364	5.e-002	9.3328
21031	10.553	0.36364	0.	2980.7
21032	10.462	0.27273	0.	2962.4
21033	10.462	0.36364	5.e-002	5.8708
21034	10.736	0.36364	0.	2985.5
21035	10.645	0.27273	0.	2976.9
21036	10.645	0.36364	5.e-002	3.1542
21037	10.919	0.36364	0.	2978.5
21038	10.828	0.27273	0.	2977.7
21039	10.828	0.36364	5.e-002	1.4776
21040	11.102	0.36364	0.	2962.3
21041	11.011	0.27273	0.	2967.8
21042	11.011	0.36364	5.e-002	1.9353
21043	11.285	0.36364	0.	2938.7
21044	11.194	0.27273	0.	2949.3
21045	11.194	0.36364	5.e-002	3.1576
21046	11.468	0.36364	0.	2909.5
21047	11.377	0.27273	0.	2924.
21048	11.377	0.36364	5.e-002	4.2478
21049	11.651	0.36364	0.	2875.7
21050	11.56	0.27273	0.	2893.4
21051	11.56	0.36364	5.e-002	5.1337
21052	11.834	0.36364	0.	2838.6
21053	11.743	0.27273	0.	2858.6
21054	11.743	0.36364	5.e-002	5.8355
21055	12.017	0.36364	0.	2798.7
21056	11.926	0.27273	0.	2820.7
21057	11.926	0.36364	5.e-002	6.3837
21058	12.2	0.36364	0.	2756.9
21059	12.109	0.27273	0.	2780.3
21060	12.109	0.36364	5.e-002	6.8066
21061	12.383	0.36364	0.	2713.6
21062	12.291	0.27273	0.	2738.1
21063	12.291	0.36364	5.e-002	7.1283
21064	12.566	0.36364	0.	2669.2
21065	12.474	0.27273	0.	2694.5
21066	12.474	0.36364	5.e-002	7.3695
21067	12.749	0.36364	0.	2623.9
21068	12.657	0.27273	0.	2649.8
21069	12.657	0.36364	5.e-002	7.5467
21070	12.932	0.36364	0.	2578.1
21071	12.84	0.27273	0.	2604.3
21072	12.84	0.36364	5.e-002	7.673
21073	13.115	0.36364	0.	2531.9
21074	13.023	0.27273	0.	2558.4
21075	13.023	0.36364	5.e-002	7.7594
21076	13.298	0.36364	0.	2485.4
21077	13.206	0.27273	0.	2512.
21078	13.206	0.36364	5.e-002	7.8148
21079	13.481	0.36364	0.	2438.7
21080	13.389	0.27273	0.	2465.5
21081	13.389	0.36364	5.e-002	7.8461
21082	13.664	0.36364	0.	2392.
21083	13.572	0.27273	0.	2418.8
21084	13.572	0.36364	5.e-002	7.8584
21085	13.847	0.36364	0.	2345.3
21086	13.755	0.27273	0.	2372.
21087	13.755	0.36364	5.e-002	7.8564
21088	14.029	0.36364	0.	2298.6
21089	13.938	0.27273	0.	2325.3
21090	13.938	0.36364	5.e-002	7.8435
21091	14.212	0.36364	0.	2252.1
21092	14.121	0.27273	0.	2278.6
21093	14.121	0.36364	5.e-002	7.8225
21094	14.395	0.36364	0.	2205.6
21095	14.304	0.27273	0.	2232.
21096	14.304	0.36364	5.e-002	7.7953
21097	14.578	0.36364	0.	2159.3
21098	14.487	0.27273	0.	2185.6
21099	14.487	0.36364	5.e-002	7.7636
21100	14.761	0.36364	0.	2113.1
21101	14.67	0.27273	0.	2139.3
21102	14.67	0.36364	5.e-002	7.7289
21103	14.944	0.36364	0.	2067.1
21104	14.853	0.27273	0.	2093.1
21105	14.853	0.36364	5.e-002	7.6921
21106	15.127	0.36364	0.	2021.3
21107	15.036	0.27273	0.	2047.1
21108	15.036	0.36364	5.e-002	7.6539
21109	15.31	0.36364	0.	1975.6
21110	15.219	0.27273	0.	2001.4
21111	15.219	0.36364	5.e-002	7.6147
21112	15.493	0.36364	0.	1930.1
21113	15.402	0.27273	0.	1955.7
21114	15.402	0.36364	5.e-002	7.5754
21115	15.676	0.36364	0.	1884.8
21116	15.584	0.27273	0.	1910.3
21117	15.584	0.36364	5.e-002	7.536
21118	15.859	0.36364	0.	1839.8
21119	15.767	0.27273	0.	1865.1
21120	15.767	0.36364	5.e-002	7.4968
21121	16.042	0.36364	0.	1794.9
21122	15.95	0.27273	0.	1820.1
21123	15.95	0.36364	5.e-002	7.458
21124	16.225	0.36364	0.	1750.1
21125	16.133	0.27273	0.	1775.2
21126	16.133	0.36364	5.e-002	7.4199
21127	16.408	0.36364	0.	1705.6
21128	16.316	0.27273	0.	1730.6
21129	16.316	0.36364	5.e-002	7.3824
21130	16.591	0.36364	0.	1661.3
21131	16.499	0.27273	0.	1686.1
21132	16.499	0.36364	5.e-002	7.3455
21133	16.774	0.36364	0.	1617.2
21134	16.682	0.27273	0.	1641.9
21135	16.682	0.36364	5.e-002	7.3094
21136	16.957	0.36364	0.	1573.3
21137	16.865	0.27273	0.	1597.8
21138	16.865	0.36364	5.e-002	7.2743
21139	17.14	0.36364	0.	1529.5
21140	17.048	0.27273	0.	1554.
21141	17.048	0.36364	5.e-002	7.2399
21142	17.322	0.36364	0.	1486.
21143	17.231	0.27273	0.	1510.3
21144	17.231	0.36364	5.e-002	7.2064
21145	17.505	0.36364	0.	1442.7
21146	17.414	0.27273	0.	1466.9
21147	17.414	0.36364	5.e-002	7.1737
21148	17.688	0.36364	0.	1399.5
21149	17.597	0.27273	0.	1423.6
21150	17.597	0.36364	5.e-002	7.142
21151	17.871	0.36364	0.	1356.5
21152	17.78	0.27273	0.	1380.5
21153	17.78	0.36364	5.e-002	7.1112
21154	18.054	0.36364	0.	1313.8
21155	17.963	0.27273	0.	1337.7
21156	17.963	0.36364	5.e-002	7.0812
21157	18.237	0.36364	0.	1271.2
21158	18.146	0.27273	0.	1295.
21159	18.146	0.36364	5.e-002	7.0522
21160	18.42	0.36364	0.	1228.8
21161	18.329	0.27273	0.	1252.5
21162	18.329	0.36364	5.e-002	7.0243
21163	18.603	0.36364	0.	1186.6
21164	18.512	0.27273	0.	1210.2
21165	18.512	0.36364	5.e-002	6.9973
21166	18.786	0.36364	0.	1144.6
21167	18.695	0.27273	0.	1168.
21168	18.695	0.36364	5.e-002	6.9712
21169	18.969	0.36364	0.	1102.8
21170	18.878	0.27273	0.	1126.1
21171	18.878	0.36364	5.e-002	6.9463
21172	19.152	0.36364	0.	1061.1
21173	19.06	0.27273	0.	1084.3
21174	19.06	0.36364	5.e-002	6.9225
21175	19.335	0.36364	0.	1019.7
21176	19.243	0.27273	0.	1042.8
21177	19.243	0.36364	5.e-002	6.8999
21178	19.518	0.36364	0.	978.37
21179	19.426	0.27273	0.	1001.3
21180	19.426	0.36364	5.e-002	6.8784
21181	19.701	0.36364	0.	937.25
21182	19.609	0.27273	0.	960.11
21183	19.609	0.36364	5.e-002	6.8582
21184	19.884	0.36364	0.	896.31
21185	19.792	0.27273	0.	919.05
21186	19.792	0.36364	5.e-002	6.8394
21187	20.067	0.36364	0.	855.55
21188	19.975	0.27273	0.	878.15
21189	19.975	0.36364	5.e-002	6.8219
21190	20.25	0.36364	0.	814.95
21191	20.158	0.27273	0.	837.41
21192	20.158	0.36364	5.e-002	6.8059
21193	20.433	0.36364	0.	774.52
21194	20.341	0.27273	0.	796.84
21195	20.341	0.36364	5.e-002	6.7914
21196	20.616	0.36364	0.	734.25
21197	20.524	0.27273	0.	756.42
21198	20.524	0.36364	5.e-002	6.7786
21199	20.798	0.36364	0.	694.15
21200	20.707	0.27273	0.	716.15
21201	20.707	0.36364	5.e-002	6.7675
21202	20.981	0.36364	0.	654.2
21203	20.89	0.27273	0.	676.04
21204	20.89	0.36364	5.e-002	6.7581
21205	21.164	0.36364	0.	614.42
21206	21.073	0.27273	0.	636.07
21207	21.073	0.36364	5.e-002	6.7507
21208	21.347	0.36364	0.	574.79
21209	21.256	0.27273	0.	596.24
21210	21.256	0.36364	5.e-002	6.7453
21211	21.53	0.36364	0.	535.32
21212	21.439	0.27273	0.	556.55
21213	21.439	0.36364	5.e-002	6.742
21214	21.713	0.36364	0.	496.03
21215	21.622	0.27273	0.	517.
21216	21.622	0.36364	5.e-002	6.7409
21217	21.896	0.36364	0.	456.9
21218	21.805	0.27273	0.	477.59
21219	21.805	0.36364	5.e-002	6.7423
21220	22.079	0.36364	0.	417.96
21221	21.988	0.27273	0.	438.32
21222	21.988	0.36364	5.e-002	6.7462
21223	22.262	0.36364	0.	379.22
21224	22.171	0.27273	0.	399.21
21225	22.171	0.36364	5.e-002	6.7529
21226	22.445	0.36364	0.	340.72
21227	22.353	0.27273	0.	360.26
21228	22.353	0.36364	5.e-002	6.7627
21229	22.628	0.36364	0.	302.51
21230	22.536	0.27273	0.	321.49
21231	22.536	0.36364	5.e-002	6.7761
21232	22.811	0.36364	0.	264.67
21233	22.719	0.27273	0.	282.95
21234	22.719	0.36364	5.e-002	6.7941
21235	22.994	0.36364	0.	227.34
21236	22.902	0.27273	0.	244.69
21237	22.902	0.36364	5.e-002	6.8182
21238	23.177	0.36364	0.	190.79
21239	23.085	0.27273	0.	206.82
21240	23.085	0.36364	5.e-002	6.8514
21241	23.36	0.36364	0.	155.49
21242	23.268	0.27273	0.	169.58
21243	23.268	0.36364	5.e-002	6.9002
21244	23.543	0.36364	0.	122.55
21245	23.451	0.27273	0.	133.39
21246	23.451	0.36364	5.e-002	6.9832
21247	23.726	0.36364	0.	94.436
21248	23.634	0.27273	0.	99.443
21249	23.634	0.36364	5.e-002	7.17
21250	23.817	0.27273	0.	71.463
21251	23.817	0.36364	5.e-002	7.829
21252	23.909	0.36364	0.	73.18
21253	8.5411	0.18182	0.	889.5
21254	8.4496	0.18182	5.e-002	95.758
21255	8.4496	9.0909e-002	0.	567.58
21256	8.3581	0.18182	0.	507.84
21257	8.724	0.18182	0.	1271.7
21258	8.6326	0.18182	5.e-002	84.573
21259	8.6326	9.0909e-002	0.	988.52
21260	8.907	0.18182	0.	1630.9
21261	8.8155	0.18182	5.e-002	77.889
21262	8.8155	9.0909e-002	0.	1382.9
21263	9.0899	0.18182	0.	1943.
21264	8.9985	0.18182	5.e-002	69.879
21265	8.9985	9.0909e-002	0.	1730.1
21266	9.2729	0.18182	0.	2205.1
21267	9.1814	0.18182	5.e-002	61.037
21268	9.1814	9.0909e-002	0.	2026.3
21269	9.4558	0.18182	0.	2419.1
21270	9.3643	0.18182	5.e-002	52.034
21271	9.3643	9.0909e-002	0.	2272.4
21272	9.6388	0.18182	0.	2589.1
21273	9.5473	0.18182	5.e-002	43.403
21274	9.5473	9.0909e-002	0.	2471.4
21275	9.8217	0.18182	0.	2720.2
21276	9.7302	0.18182	5.e-002	35.502
21277	9.7302	9.0909e-002	0.	2627.9
21278	10.005	0.18182	0.	2817.6
21279	9.9132	0.18182	5.e-002	28.518
21280	9.9132	9.0909e-002	0.	2747.3
21281	10.188	0.18182	0.	2886.8
21282	10.096	0.18182	5.e-002	22.505
21283	10.096	9.0909e-002	0.	2834.8
21284	10.371	0.18182	0.	2932.3
21285	10.279	0.18182	5.e-002	17.438
21286	10.279	9.0909e-002	0.	2895.6
21287	10.553	0.18182	0.	2958.6
21288	10.462	0.18182	5.e-002	13.24
21289	10.462	9.0909e-002	0.	2934.4
21290	10.736	0.18182	0.	2969.1
21291	10.645	0.18182	5.e-002	9.8125
21292	10.645	9.0909e-002	0.	2955.2
21293	10.919	0.18182	0.	2967.
21294	10.828	0.18182	5.e-002	7.0511
21295	10.828	9.0909e-002	0.	2961.3
21296	11.102	0.18182	0.	2954.8
21297	11.011	0.18182	5.e-002	4.8559
21298	11.011	9.0909e-002	0.	2955.6
21299	11.285	0.18182	0.	2934.6
21300	11.194	0.18182	5.e-002	3.1382
21301	11.194	9.0909e-002	0.	2940.5
21302	11.468	0.18182	0.	2908.
21303	11.377	0.18182	5.e-002	1.8297
21304	11.377	9.0909e-002	0.	2918.
21305	11.651	0.18182	0.	2876.4
21306	11.56	0.18182	5.e-002	0.91595
21307	11.56	9.0909e-002	0.	2889.6
21308	11.834	0.18182	0.	2840.9
21309	11.743	0.18182	5.e-002	0.60471
21310	11.743	9.0909e-002	0.	2856.5
21311	12.017	0.18182	0.	2802.4
21312	11.926	0.18182	5.e-002	0.89195
21313	11.926	9.0909e-002	0.	2819.8
21314	12.2	0.18182	0.	2761.6
21315	12.109	0.18182	5.e-002	1.228
21316	12.109	9.0909e-002	0.	2780.4
21317	12.383	0.18182	0.	2719.
21318	12.291	0.18182	5.e-002	1.4797
21319	12.291	9.0909e-002	0.	2738.8
21320	12.566	0.18182	0.	2675.2
21321	12.474	0.18182	5.e-002	1.6454
21322	12.474	9.0909e-002	0.	2695.5
21323	12.749	0.18182	0.	2630.3
21324	12.657	0.18182	5.e-002	1.7393
21325	12.657	9.0909e-002	0.	2651.
21326	12.932	0.18182	0.	2584.7
21327	12.84	0.18182	5.e-002	1.7763
21328	12.84	9.0909e-002	0.	2605.7
21329	13.115	0.18182	0.	2538.6
21330	13.023	0.18182	5.e-002	1.7697
21331	13.023	9.0909e-002	0.	2559.6
21332	13.298	0.18182	0.	2492.2
21333	13.206	0.18182	5.e-002	1.7306
21334	13.206	9.0909e-002	0.	2513.2
21335	13.481	0.18182	0.	2445.6
21336	13.389	0.18182	5.e-002	1.668
21337	13.389	9.0909e-002	0.	2466.4
21338	13.664	0.18182	0.	2398.9
21339	13.572	0.18182	5.e-002	1.5885
21340	13.572	9.0909e-002	0.	2419.4
21341	13.847	0.18182	0.	2352.1
21342	13.755	0.18182	5.e-002	1.4981
21343	13.755	9.0909e-002	0.	2372.4
21344	14.029	0.18182	0.	2305.4
21345	13.938	0.18182	5.e-002	1.4011
21346	13.938	9.0909e-002	0.	2325.3
21347	14.212	0.18182	0.	2258.7
21348	14.121	0.18182	5.e-002	1.301
21349	14.121	9.0909e-002	0.	2278.3
21350	14.395	0.18182	0.	2212.2
21351	14.304	0.18182	5.e-002	1.2002
21352	14.304	9.0909e-002	0.	2231.3
21353	14.578	0.18182	0.	2165.7
21354	14.487	0.18182	5.e-002	1.1007
21355	14.487	9.0909e-002	0.	2184.5
21356	14.761	0.18182	0.	2119.4
21357	14.67	0.18182	5.e-002	1.0041
21358	14.67	9.0909e-002	0.	2137.8
21359	14.944	0.18182	0.	2073.3
21360	14.853	0.18182	5.e-002	0.91164
21361	14.853	9.0909e-002	0.	2091.3
21362	15.127	0.18182	0.	2027.4
21363	15.036	0.18182	5.e-002	0.8238
21364	15.036	9.0909e-002	0.	2045.
21365	15.31	0.18182	0.	1981.6
21366	15.219	0.18182	5.e-002	0.7413
21367	15.219	9.0909e-002	0.	1998.8
21368	15.493	0.18182	0.	1936.1
21369	15.402	0.18182	5.e-002	0.66474
21370	15.402	9.0909e-002	0.	1952.9
21371	15.676	0.18182	0.	1890.7
21372	15.584	0.18182	5.e-002	0.59442
21373	15.584	9.0909e-002	0.	1907.1
21374	15.859	0.18182	0.	1845.6
21375	15.767	0.18182	5.e-002	0.53049
21376	15.767	9.0909e-002	0.	1861.6
21377	16.042	0.18182	0.	1800.6
21378	15.95	0.18182	5.e-002	0.47336
21379	15.95	9.0909e-002	0.	1816.2
21380	16.225	0.18182	0.	1755.8
21381	16.133	0.18182	5.e-002	0.42353
21382	16.133	9.0909e-002	0.	1771.
21383	16.408	0.18182	0.	1711.3
21384	16.316	0.18182	5.e-002	0.38133
21385	16.316	9.0909e-002	0.	1726.1
21386	16.591	0.18182	0.	1666.9
21387	16.499	0.18182	5.e-002	0.34714
21388	16.499	9.0909e-002	0.	1681.4
21389	16.774	0.18182	0.	1622.7
21390	16.682	0.18182	5.e-002	0.32154
21391	16.682	9.0909e-002	0.	1636.8
21392	16.957	0.18182	0.	1578.8
21393	16.865	0.18182	5.e-002	0.30489
21394	16.865	9.0909e-002	0.	1592.5
21395	17.14	0.18182	0.	1535.
21396	17.048	0.18182	5.e-002	0.29701
21397	17.048	9.0909e-002	0.	1548.4
21398	17.322	0.18182	0.	1491.4
21399	17.231	0.18182	5.e-002	0.29741
21400	17.231	9.0909e-002	0.	1504.4
21401	17.505	0.18182	0.	1448.
21402	17.414	0.18182	5.e-002	0.30536
21403	17.414	9.0909e-002	0.	1460.7
21404	17.688	0.18182	0.	1404.9
21405	17.597	0.18182	5.e-002	0.31994
21406	17.597	9.0909e-002	0.	1417.2
21407	17.871	0.18182	0.	1361.9
21408	17.78	0.18182	5.e-002	0.34011
21409	17.78	9.0909e-002	0.	1373.9
21410	18.054	0.18182	0.	1319.1
21411	17.963	0.18182	5.e-002	0.3651
21412	17.963	9.0909e-002	0.	1330.7
21413	18.237	0.18182	0.	1276.5
21414	18.146	0.18182	5.e-002	0.3945
21415	18.146	9.0909e-002	0.	1287.8
21416	18.42	0.18182	0.	1234.1
21417	18.329	0.18182	5.e-002	0.42812
21418	18.329	9.0909e-002	0.	1245.
21419	18.603	0.18182	0.	1191.8
21420	18.512	0.18182	5.e-002	0.46583
21421	18.512	9.0909e-002	0.	1202.4
21422	18.786	0.18182	0.	1149.8
21423	18.695	0.18182	5.e-002	0.50775
21424	18.695	9.0909e-002	0.	1160.1
21425	18.969	0.18182	0.	1107.9
21426	18.878	0.18182	5.e-002	0.55415
21427	18.878	9.0909e-002	0.	1117.9
21428	19.152	0.18182	0.	1066.2
21429	19.06	0.18182	5.e-002	0.60542
21430	19.06	9.0909e-002	0.	1075.8
21431	19.335	0.18182	0.	1024.7
21432	19.243	0.18182	5.e-002	0.66185
21433	19.243	9.0909e-002	0.	1034.
21434	19.518	0.18182	0.	983.36
21435	19.426	0.18182	5.e-002	0.72388
21436	19.426	9.0909e-002	0.	992.34
21437	19.701	0.18182	0.	942.18
21438	19.609	0.18182	5.e-002	0.79204
21439	19.609	9.0909e-002	0.	950.85
21440	19.884	0.18182	0.	901.17
21441	19.792	0.18182	5.e-002	0.86684
21442	19.792	9.0909e-002	0.	909.52
21443	20.067	0.18182	0.	860.31
21444	19.975	0.18182	5.e-002	0.94878
21445	19.975	9.0909e-002	0.	868.36
21446	20.25	0.18182	0.	819.61
21447	20.158	0.18182	5.e-002	1.0384
21448	20.158	9.0909e-002	0.	827.37
21449	20.433	0.18182	0.	779.06
21450	20.341	0.18182	5.e-002	1.1363
21451	20.341	9.0909e-002	0.	786.53
21452	20.616	0.18182	0.	738.65
21453	20.524	0.18182	5.e-002	1.2432
21454	20.524	9.0909e-002	0.	745.85
21455	20.798	0.18182	0.	698.39
21456	20.707	0.18182	5.e-002	1.3597
21457	20.707	9.0909e-002	0.	705.32
21458	20.981	0.18182	0.	658.25
21459	20.89	0.18182	5.e-002	1.4865
21460	20.89	9.0909e-002	0.	664.94
21461	21.164	0.18182	0.	618.25
21462	21.073	0.18182	5.e-002	1.6245
21463	21.073	9.0909e-002	0.	624.71
21464	21.347	0.18182	0.	578.38
21465	21.256	0.18182	5.e-002	1.7745
21466	21.256	9.0909e-002	0.	584.62
21467	21.53	0.18182	0.	538.62
21468	21.439	0.18182	5.e-002	1.9373
21469	21.439	9.0909e-002	0.	544.68
21470	21.713	0.18182	0.	498.99
21471	21.622	0.18182	5.e-002	2.1141
21472	21.622	9.0909e-002	0.	504.88
21473	21.896	0.18182	0.	459.46
21474	21.805	0.18182	5.e-002	2.3061
21475	21.805	9.0909e-002	0.	465.23
21476	22.079	0.18182	0.	420.05
21477	21.988	0.18182	5.e-002	2.5146
21478	21.988	9.0909e-002	0.	425.73
21479	22.262	0.18182	0.	380.76
21480	22.171	0.18182	5.e-002	2.7412
21481	22.171	9.0909e-002	0.	386.39
21482	22.445	0.18182	0.	341.59
21483	22.353	0.18182	5.e-002	2.9876
21484	22.353	9.0909e-002	0.	347.22
21485	22.628	0.18182	0.	302.54
21486	22.536	0.18182	5.e-002	3.2564
21487	22.536	9.0909e-002	0.	308.23
21488	22.811	0.18182	0.	263.65
21489	22.719	0.18182	5.e-002	3.5503
21490	22.719	9.0909e-002	0.	269.47
21491	22.994	0.18182	0.	224.95
21492	22.902	0.18182	5.e-002	3.8735
21493	22.902	9.0909e-002	0.	230.96
21494	23.177	0.18182	0.	186.52
21495	23.085	0.18182	5.e-002	4.2314
21496	23.085	9.0909e-002	0.	192.78
21497	23.36	0.18182	0.	148.52
21498	23.268	0.18182	5.e-002	4.6339
21499	23.268	9.0909e-002	0.	155.04
21500	23.543	0.18182	0.	111.38
21501	23.451	0.18182	5.e-002	5.0942
21502	23.451	9.0909e-002	0.	117.92
21503	23.726	0.18182	0.	76.927
21504	23.634	0.18182	5.e-002	5.6736
21505	23.634	9.0909e-002	0.	81.958
21506	23.817	0.18182	5.e-002	6.9129
21507	23.817	9.0909e-002	0.	48.611
21508	23.909	0.18182	0.	48.338
21509	23.726	0.18182	0.1	76.927
21510	23.817	0.27273	0.1	71.463
21511	23.909	0.18182	0.1	48.338
21512	23.817	9.0909e-002	0.1	48.611
21513	23.543	0.18182	0.1	111.38
21514	23.634	0.27273	0.1	99.443
21515	23.634	9.0909e-002	0.1	81.958
21516	23.36	0.18182	0.1	148.52
21517	23.451	0.27273	0.1	133.39
21518	23.451	9.0909e-002	0.1	117.92
21519	23.177	0.18182	0.1	186.52
21520	23.268	0.27273	0.1	169.58
21521	23.268	9.0909e-002	0.1	155.04
21522	22.994	0.18182	0.1	224.95
21523	23.085	0.27273	0.1	206.82
21524	23.085	9.0909e-002	0.1	192.78
21525	22.811	0.18182	0.1	263.65
21526	22.902	0.27273	0.1	244.69
21527	22.902	9.0909e-002	0.1	230.96
21528	22.628	0.18182	0.1	302.54
21529	22.719	0.27273	0.1	282.95
21530	22.719	9.0909e-002	0.1	269.47
21531	22.445	0.18182	0.1	341.59
21532	22.536	0.27273	0.1	321.49
21533	22.536	9.0909e-002	0.1	308.23
21534	22.262	0.18182	0.1	380.76
21535	22.353	0.27273	0.1	360.26
21536	22.353	9.0909e-002	0.1	347.22
21537	22.079	0.18182	0.1	420.05
21538	22.171	0.27273	0.1	399.21
21539	22.171	9.0909e-002	0.1	386.39
21540	21.896	0.18182	0.1	459.46
21541	21.988	0.27273	0.1	438.32
21542	21.988	9.0909e-002	0.1	425.73
21543	21.713	0.18182	0.1	498.99
21544	21.805	0.27273	0.1	477.59
21545	21.805	9.0909e-002	0.1	465.23
21546	21.53	0.18182	0.1	538.62
21547	21.622	0.27273	0.1	517.
21548	21.622	9.0909e-002	0.1	504.88
21549	21.347	0.18182	0.1	578.38
21550	21.439	0.27273	0.1	556.55
21551	21.439	9.0909e-002	0.1	544.68
21552	21.164	0.18182	0.1	618.25
21553	21.256	0.27273	0.1	596.24
21554	21.256	9.0909e-002	0.1	584.62
21555	20.981	0.18182	0.1	658.25
21556	21.073	0.27273	0.1	636.07
21557	21.073	9.0909e-002	0.1	624.71
21558	20.798	0.18182	0.1	698.39
21559	20.89	0.27273	0.1	676.04
21560	20.89	9.0909e-002	0.1	664.94
21561	20.616	0.18182	0.1	738.65
21562	20.707	0.27273	0.1	716.15
21563	20.707	9.0909e-002	0.1	705.32
21564	20.433	0.18182	0.1	779.06
21565	20.524	0.27273	0.1	756.42
21566	20.524	9.0909e-002	0.1	745.85
21567	20.25	0.18182	0.1	819.61
21568	20.341	0.27273	0.1	796.84
21569	20.341	9.0909e-002	0.1	786.53
21570	20.067	0.18182	0.1	860.31
21571	20.158	0.27273	0.1	837.41
21572	20.158	9.0909e-002	0.1	827.37
21573	19.884	0.18182	0.1	901.17
21574	19.975	0.27273	0.1	878.15
21575	19.975	9.0909e-002	0.1	868.36
21576	19.701	0.18182	0.1	942.18
21577	19.792	0.27273	0.1	919.05
21578	19.792	9.0909e-002	0.1	909.52
21579	19.518	0.18182	0.1	983.36
21580	19.609	0.27273	0.1	960.11
21581	19.609	9.0909e-002	0.1	950.85
21582	19.335	0.18182	0.1	1024.7
21583	19.426	0.27273	0.1	1001.3
21584	19.426	9.0909e-002	0.1	992.34
21585	19.152	0.18182	0.1	1066.2
21586	19.243	0.27273	0.1	1042.8
21587	19.243	9.0909e-002	0.1	1034.
21588	18.969	0.18182	0.1	1107.9
21589	19.06	0.27273	0.1	1084.3
21590	19.06	9.0909e-002	0.1	1075.8
21591	18.786	0.18182	0.1	1149.8
21592	18.878	0.27273	0.1	1126.1
21593	18.878	9.0909e-002	0.1	1117.9
21594	18.603	0.18182	0.1	1191.8
21595	18.695	0.27273	0.1	1168.
21596	18.695	9.0909e-002	0.1	1160.1
21597	18.42	0.18182	0.1	1234.1
21598	18.512	0.27273	0.1	1210.2
21599	18.512	9.0909e-002	0.1	1202.4
21600	18.237	0.18182	0.1	1276.5
21601	18.329	0.27273	0.1	1252.5
21602	18.329	9.0909e-002	0.1	1245.
21603	18.054	0.18182	0.1	1319.1
21604	18.146	0.27273	0.1	1295.
21605	18.146	9.0909e-002	0.1	1287.8
21606	17.871	0.18182	0.1	1361.9
21607	17.963	0.27273	0.1	1337.7
21608	17.963	9.0909e-002	0.1	1330.7
21609	17.688	0.18182	0.1	1404.9
21610	17.78	0.27273	0.1	1380.5
21611	17.78	9.0909e-002	0.1	1373.9
21612	17.505	0.18182	0.1	1448.
21613	17.597	0.27273	0.1	1423.6
21614	17.597	9.0909e-002	0.1	1417.2
21615	17.322	0.18182	0.1	1491.4
21616	17.414	0.27273	0.1	1466.9
21617	17.414	9.0909e-002	0.1	1460.7
21618	17.14	0.18182	0.1	1535.
21619	17.231	0.27273	0.1	1510.3
21620	17.231	9.0909e-002	0.1	1504.4
21621	16.957	0.18182	0.1	1578.8
21622	17.048	0.27273	0.1	1554.
21623	17.048	9.0909e-002	0.1	1548.4
21624	16.774	0.18182	0.1	1622.7
21625	16.865	0.27273	0.1	1597.8
21626	16.865	9.0909e-002	0.1	1592.5
21627	16.591	0.18182	0.1	1666.9
21628	16.682	0.27273	0.1	1641.9
21629	16.682	9.0909e-002	0.1	1636.8
21630	16.408	0.18182	0.1	1711.3
21631	16.499	0.27273	0.1	1686.1
21632	16.499	9.0909e-002	0.1	1681.4
21633	16.225	0.18182	0.1	1755.8
21634	16.316	0.27273	0.1	1730.6
21635	16.316	9.0909e-002	0.1	1726.1
21636	16.042	0.18182	0.1	1800.6
21637	16.133	0.27273	0.1	1775.2
21638	16.133	9.0909e-002	0.1	1771.
21639	15.859	0.18182	0.1	1845.6
21640	15.95	0.27273	0.1	1820.1
21641	15.95	9.0909e-002	0.1	1816.2
21642	15.676	0.18182	0.1	1890.7
21643	15.767	0.27273	0.1	1865.1
21644	15.767	9.0909e-002	0.1	1861.6
21645	15.493	0.18182	0.1	1936.1
21646	15.584	0.27273	0.1	1910.3
21647	15.584	9.0909e-002	0.1	1907.1
21648	15.31	0.18182	0.1	1981.6
21649	15.402	0.27273	0.1	1955.7
21650	15.402	9.0909e-002	0.1	1952.9
21651	15.127	0.18182	0.1	2027.4
21652	15.219	0.27273	0.1	2001.4
21653	15.219	9.0909e-002	0.1	1998.8
21654	14.944	0.18182	0.1	2073.3
21655	15.036	0.27273	0.1	2047.1
21656	15.036	9.0909e-002	0.1	2045.
21657	14.761	0.18182	0.1	2119.4
21658	14.853	0.27273	0.1	2093.1
21659	14.853	9.0909e-002	0.1	2091.3
21660	14.578	0.18182	0.1	2165.7
21661	14.67	0.27273	0.1	2139.3
21662	14.67	9.0909e-002	0.1	2137.8
21663	14.395	0.18182	0.1	2212.2
21664	14.487	0.27273	0.1	2185.6
21665	14.487	9.0909e-002	0.1	2184.5
21666	14.212	0.18182	0.1	2258.7
21667	14.304	0.27273	0.1	2232.
21668	14.304	9.0909e-002	0.1	2231.3
21669	14.029	0.18182	0.1	2305.4
21670	14.121	0.27273	0.1	2278.6
21671	14.121	9.0909e-002	0.1	2278.3
21672	13.847	0.18182	0.1	2352.1
21673	13.938	0.27273	0.1	2325.3
21674	13.938	9.0909e-002	0.1	2325.3
21675	13.664	0.18182	0.1	2398.9
21676	13.755	0.27273	0.1	2372.
21677	13.755	9.0909e-002	0.1	2372.4
21678	13.481	0.18182	0.1	2445.6
21679	13.572	0.27273	0.1	2418.8
21680	13.572	9.0909e-002	0.1	2419.4
21681	13.298	0.18182	0.1	2492.2
21682	13.389	0.27273	0.1	2465.5
21683	13.389	9.0909e-002	0.1	2466.4
21684	13.115	0.18182	0.1	2538.6
21685	13.206	0.27273	0.1	2512.
21686	13.206	9.0909e-002	0.1	2513.2
21687	12.932	0.18182	0.1	2584.7
21688	13.023	0.27273	0.1	2558.4
21689	13.023	9.0909e-002	0.1	2559.6
21690	12.749	0.18182	0.1	2630.3
21691	12.84	0.27273	0.1	2604.3
21692	12.84	9.0909e-002	0.1	2605.7
21693	12.566	0.18182	0.1	2675.2
21694	12.657	0.27273	0.1	2649.8
21695	12.657	9.0909e-002	0.1	2651.
21696	12.383	0.18182	0.1	2719.
21697	12.474	0.27273	0.1	2694.5
21698	12.474	9.0909e-002	0.1	2695.5
21699	12.2	0.18182	0.1	2761.6
21700	12.291	0.27273	0.1	2738.1
21701	12.291	9.0909e-002	0.1	2738.8
21702	12.017	0.18182	0.1	2802.4
21703	12.109	0.27273	0.1	2780.3
21704	12.109	9.0909e-002	0.1	2780.4
21705	11.834	0.18182	0.1	2840.9
21706	11.926	0.27273	0.1	2820.7
21707	11.926	9.0909e-002	0.1	2819.8
21708	11.651	0.18182	0.1	2876.4
21709	11.743	0.27273	0.1	2858.6
21710	11.743	9.0909e-002	0.1	2856.5
21711	11.468	0.18182	0.1	2908.
21712	11.56	0.27273	0.1	2893.4
21713	11.56	9.0909e-002	0.1	2889.6
21714	11.285	0.18182	0.1	2934.6
21715	11.377	0.27273	0.1	2924.
21716	11.377	9.0909e-002	0.1	2918.
21717	11.102	0.18182	0.1	2954.8
21718	11.194	0.27273	0.1	2949.3
21719	11.194	9.0909e-002	0.1	2940.5
21720	10.919	0.18182	0.1	2967.
21721	11.011	0.27273	0.1	2967.8
21722	11.011	9.0909e-002	0.1	2955.6
21723	10.736	0.18182	0.1	2969.1
21724	10.828	0.27273	0.1	2977.7
21725	10.828	9.0909e-002	0.1	2961.3
21726	10.553	0.18182	0.1	2958.6
21727	10.645	0.27273	0.1	2976.9
21728	10.645	9.0909e-002	0.1	2955.2
21729	10.371	0.18182	0.1	2932.3
21730	10.462	0.27273	0.1	2962.4
21731	10.462	9.0909e-002	0.1	2934.4
21732	10.188	0.18182	0.1	2886.8
21733	10.279	0.27273	0.1	2931.1
21734	10.279	9.0909e-002	0.1	2895.6
21735	10.005	0.18182	0.1	2817.6
21736	10.096	0.27273	0.1	2879.
21737	10.096	9.0909e-002	0.1	2834.8
21738	9.8217	0.18182	0.1	2720.2
21739	9.9132	0.27273	0.1	2801.4
21740	9.9132	9.0909e-002	0.1	2747.3
21741	9.6388	0.18182	0.1	2589.1
21742	9.7302	0.27273	0.1	2693.3
21743	9.7302	9.0909e-002	0.1	2627.9
21744	9.4558	0.18182	0.1	2419.1
21745	9.5473	0.27273	0.1	2549.
21746	9.5473	9.0909e-002	0.1	2471.4
21747	9.2729	0.18182	0.1	2205.1
21748	9.3643	0.27273	0.1	2362.9
21749	9.3643	9.0909e-002	0.1	2272.4
21750	9.0899	0.18182	0.1	1943.
21751	9.1814	0.27273	0.1	2130.4
21752	9.1814	9.0909e-002	0.1	2026.3
21753	8.907	0.18182	0.1	1630.9
21754	8.9985	0.27273	0.1	1849.1
21755	8.9985	9.0909e-002	0.1	1730.1
21756	8.724	0.18182	0.1	1271.7
21757	8.8155	0.27273	0.1	1522.
21758	8.8155	9.0909e-002	0.1	1382.9
21759	8.5411	0.18182	0.1	889.5
21760	8.6326	0.27273	0.1	1168.5
21761	8.6326	9.0909e-002	0.1	988.52
21762	8.4496	0.27273	0.1	890.1
21763	8.3581	0.18182	0.1	507.84
21764	8.4496	9.0909e-002	0.1	567.58
21765	23.726	0.36364	0.1	94.436
21766	23.817	0.45455	0.1	92.401
21767	23.909	0.36364	0.1	73.18
21768	23.543	0.36364	0.1	122.55
21769	23.634	0.45455	0.1	115.19
21770	23.36	0.36364	0.1	155.49
21771	23.451	0.45455	0.1	144.72
21772	23.177	0.36364	0.1	190.79
21773	23.268	0.45455	0.1	177.81
21774	22.994	0.36364	0.1	227.34
21775	23.085	0.45455	0.1	212.86
21776	22.811	0.36364	0.1	264.67
21777	22.902	0.45455	0.1	249.11
21778	22.628	0.36364	0.1	302.51
21779	22.719	0.45455	0.1	286.14
21780	22.445	0.36364	0.1	340.72
21781	22.536	0.45455	0.1	323.72
21782	22.262	0.36364	0.1	379.22
21783	22.353	0.45455	0.1	361.7
21784	22.079	0.36364	0.1	417.96
21785	22.171	0.45455	0.1	400.
21786	21.896	0.36364	0.1	456.9
21787	21.988	0.45455	0.1	438.57
21788	21.713	0.36364	0.1	496.03
21789	21.805	0.45455	0.1	477.37
21790	21.53	0.36364	0.1	535.32
21791	21.622	0.45455	0.1	516.37
21792	21.347	0.36364	0.1	574.79
21793	21.439	0.45455	0.1	555.57
21794	21.164	0.36364	0.1	614.42
21795	21.256	0.45455	0.1	594.96
21796	20.981	0.36364	0.1	654.2
21797	21.073	0.45455	0.1	634.52
21798	20.798	0.36364	0.1	694.15
21799	20.89	0.45455	0.1	674.25
21800	20.616	0.36364	0.1	734.25
21801	20.707	0.45455	0.1	714.16
21802	20.433	0.36364	0.1	774.52
21803	20.524	0.45455	0.1	754.23
21804	20.25	0.36364	0.1	814.95
21805	20.341	0.45455	0.1	794.48
21806	20.067	0.36364	0.1	855.55
21807	20.158	0.45455	0.1	834.91
21808	19.884	0.36364	0.1	896.31
21809	19.975	0.45455	0.1	875.51
21810	19.701	0.36364	0.1	937.25
21811	19.792	0.45455	0.1	916.28
21812	19.518	0.36364	0.1	978.37
21813	19.609	0.45455	0.1	957.24
21814	19.335	0.36364	0.1	1019.7
21815	19.426	0.45455	0.1	998.37
21816	19.152	0.36364	0.1	1061.1
21817	19.243	0.45455	0.1	1039.7
21818	18.969	0.36364	0.1	1102.8
21819	19.06	0.45455	0.1	1081.2
21820	18.786	0.36364	0.1	1144.6
21821	18.878	0.45455	0.1	1122.9
21822	18.603	0.36364	0.1	1186.6
21823	18.695	0.45455	0.1	1164.7
21824	18.42	0.36364	0.1	1228.8
21825	18.512	0.45455	0.1	1206.8
21826	18.237	0.36364	0.1	1271.2
21827	18.329	0.45455	0.1	1249.
21828	18.054	0.36364	0.1	1313.8
21829	18.146	0.45455	0.1	1291.5
21830	17.871	0.36364	0.1	1356.5
21831	17.963	0.45455	0.1	1334.1
21832	17.688	0.36364	0.1	1399.5
21833	17.78	0.45455	0.1	1376.9
21834	17.505	0.36364	0.1	1442.7
21835	17.597	0.45455	0.1	1419.9
21836	17.322	0.36364	0.1	1486.
21837	17.414	0.45455	0.1	1463.1
21838	17.14	0.36364	0.1	1529.5
21839	17.231	0.45455	0.1	1506.5
21840	16.957	0.36364	0.1	1573.3
21841	17.048	0.45455	0.1	1550.1
21842	16.774	0.36364	0.1	1617.2
21843	16.865	0.45455	0.1	1593.9
21844	16.591	0.36364	0.1	1661.3
21845	16.682	0.45455	0.1	1637.9
21846	16.408	0.36364	0.1	1705.6
21847	16.499	0.45455	0.1	1682.
21848	16.225	0.36364	0.1	1750.1
21849	16.316	0.45455	0.1	1726.4
21850	16.042	0.36364	0.1	1794.9
21851	16.133	0.45455	0.1	1770.9
21852	15.859	0.36364	0.1	1839.8
21853	15.95	0.45455	0.1	1815.7
21854	15.676	0.36364	0.1	1884.8
21855	15.767	0.45455	0.1	1860.6
21856	15.493	0.36364	0.1	1930.1
21857	15.584	0.45455	0.1	1905.7
21858	15.31	0.36364	0.1	1975.6
21859	15.402	0.45455	0.1	1951.
21860	15.127	0.36364	0.1	2021.3
21861	15.219	0.45455	0.1	1996.5
21862	14.944	0.36364	0.1	2067.1
21863	15.036	0.45455	0.1	2042.2
21864	14.761	0.36364	0.1	2113.1
21865	14.853	0.45455	0.1	2088.
21866	14.578	0.36364	0.1	2159.3
21867	14.67	0.45455	0.1	2134.
21868	14.395	0.36364	0.1	2205.6
21869	14.487	0.45455	0.1	2180.2
21870	14.212	0.36364	0.1	2252.1
21871	14.304	0.45455	0.1	2226.5
21872	14.029	0.36364	0.1	2298.6
21873	14.121	0.45455	0.1	2272.9
21874	13.847	0.36364	0.1	2345.3
21875	13.938	0.45455	0.1	2319.5
21876	13.664	0.36364	0.1	2392.
21877	13.755	0.45455	0.1	2366.1
21878	13.481	0.36364	0.1	2438.7
21879	13.572	0.45455	0.1	2412.7
21880	13.298	0.36364	0.1	2485.4
21881	13.389	0.45455	0.1	2459.4
21882	13.115	0.36364	0.1	2531.9
21883	13.206	0.45455	0.1	2506.
21884	12.932	0.36364	0.1	2578.1
21885	13.023	0.45455	0.1	2552.4
21886	12.749	0.36364	0.1	2623.9
21887	12.84	0.45455	0.1	2598.5
21888	12.566	0.36364	0.1	2669.2
21889	12.657	0.45455	0.1	2644.2
21890	12.383	0.36364	0.1	2713.6
21891	12.474	0.45455	0.1	2689.4
21892	12.2	0.36364	0.1	2756.9
21893	12.291	0.45455	0.1	2733.6
21894	12.017	0.36364	0.1	2798.7
21895	12.109	0.45455	0.1	2776.7
21896	11.834	0.36364	0.1	2838.6
21897	11.926	0.45455	0.1	2818.2
21898	11.651	0.36364	0.1	2875.7
21899	11.743	0.45455	0.1	2857.6
21900	11.468	0.36364	0.1	2909.5
21901	11.56	0.45455	0.1	2894.3
21902	11.285	0.36364	0.1	2938.7
21903	11.377	0.45455	0.1	2927.4
21904	11.102	0.36364	0.1	2962.3
21905	11.194	0.45455	0.1	2955.8
21906	10.919	0.36364	0.1	2978.5
21907	11.011	0.45455	0.1	2978.1
21908	10.736	0.36364	0.1	2985.5
21909	10.828	0.45455	0.1	2992.8
21910	10.553	0.36364	0.1	2980.7
21911	10.645	0.45455	0.1	2997.7
21912	10.371	0.36364	0.1	2961.1
21913	10.462	0.45455	0.1	2990.1
21914	10.188	0.36364	0.1	2923.1
21915	10.279	0.45455	0.1	2966.9
21916	10.005	0.36364	0.1	2862.4
21917	10.096	0.45455	0.1	2924.2
21918	9.8217	0.36364	0.1	2773.9
21919	9.9132	0.45455	0.1	2857.5
21920	9.6388	0.36364	0.1	2652.3
21921	9.7302	0.45455	0.1	2761.6
21922	9.4558	0.36364	0.1	2491.5
21923	9.5473	0.45455	0.1	2630.8
21924	9.2729	0.36364	0.1	2286.5
21925	9.3643	0.45455	0.1	2459.6
21926	9.0899	0.36364	0.1	2034.2
21927	9.1814	0.45455	0.1	2244.
21928	8.907	0.36364	0.1	1736.6
21929	8.9985	0.45455	0.1	1984.4
21930	8.724	0.36364	0.1	1410.9
21931	8.8155	0.45455	0.1	1691.7
21932	8.5411	0.36364	0.1	1132.8
21933	8.6326	0.45455	0.1	1406.
21934	8.4496	0.45455	0.1	1275.
21935	8.3581	0.36364	0.1	836.48
21936	23.726	0.54545	0.1	112.3
21937	23.817	0.63636	0.1	110.39
21938	23.909	0.54545	0.1	93.562
21939	23.543	0.54545	0.1	137.31
21940	23.634	0.63636	0.1	131.09
21941	23.36	0.54545	0.1	167.27
21942	23.451	0.63636	0.1	157.96
21943	23.177	0.54545	0.1	200.2
21944	23.268	0.63636	0.1	188.66
21945	22.994	0.54545	0.1	234.95
21946	23.085	0.63636	0.1	221.78
21947	22.811	0.54545	0.1	270.88
21948	22.902	0.63636	0.1	256.49
21949	22.628	0.54545	0.1	307.61
21950	22.719	0.63636	0.1	292.29
21951	22.445	0.54545	0.1	344.93
21952	22.536	0.63636	0.1	328.85
21953	22.262	0.54545	0.1	382.69
21954	22.353	0.63636	0.1	366.
21955	22.079	0.54545	0.1	420.8
21956	22.171	0.63636	0.1	403.6
21957	21.896	0.54545	0.1	459.21
21958	21.988	0.63636	0.1	441.56
21959	21.713	0.54545	0.1	497.87
21960	21.805	0.63636	0.1	479.84
21961	21.53	0.54545	0.1	536.76
21962	21.622	0.63636	0.1	518.39
21963	21.347	0.54545	0.1	575.87
21964	21.439	0.63636	0.1	557.19
21965	21.164	0.54545	0.1	615.18
21966	21.256	0.63636	0.1	596.22
21967	20.981	0.54545	0.1	654.68
21968	21.073	0.63636	0.1	635.46
21969	20.798	0.54545	0.1	694.37
21970	20.89	0.63636	0.1	674.91
21971	20.616	0.54545	0.1	734.24
21972	20.707	0.63636	0.1	714.56
21973	20.433	0.54545	0.1	774.3
21974	20.524	0.63636	0.1	754.4
21975	20.25	0.54545	0.1	814.53
21976	20.341	0.63636	0.1	794.44
21977	20.067	0.54545	0.1	854.96
21978	20.158	0.63636	0.1	834.67
21979	19.884	0.54545	0.1	895.56
21980	19.975	0.63636	0.1	875.09
21981	19.701	0.54545	0.1	936.35
21982	19.792	0.63636	0.1	915.7
21983	19.518	0.54545	0.1	977.32
21984	19.609	0.63636	0.1	956.51
21985	19.335	0.54545	0.1	1018.5
21986	19.426	0.63636	0.1	997.5
21987	19.152	0.54545	0.1	1059.8
21988	19.243	0.63636	0.1	1038.7
21989	18.969	0.54545	0.1	1101.4
21990	19.06	0.63636	0.1	1080.1
21991	18.786	0.54545	0.1	1143.1
21992	18.878	0.63636	0.1	1121.6
21993	18.603	0.54545	0.1	1185.
21994	18.695	0.63636	0.1	1163.4
21995	18.42	0.54545	0.1	1227.1
21996	18.512	0.63636	0.1	1205.3
21997	18.237	0.54545	0.1	1269.4
21998	18.329	0.63636	0.1	1247.5
21999	18.054	0.54545	0.1	1311.9
22000	18.146	0.63636	0.1	1289.8
22001	17.871	0.54545	0.1	1354.5
22002	17.963	0.63636	0.1	1332.3
22003	17.688	0.54545	0.1	1397.4
22004	17.78	0.63636	0.1	1375.1
22005	17.505	0.54545	0.1	1440.5
22006	17.597	0.63636	0.1	1418.
22007	17.322	0.54545	0.1	1483.7
22008	17.414	0.63636	0.1	1461.1
22009	17.14	0.54545	0.1	1527.2
22010	17.231	0.63636	0.1	1504.4
22011	16.957	0.54545	0.1	1570.8
22012	17.048	0.63636	0.1	1547.8
22013	16.774	0.54545	0.1	1614.6
22014	16.865	0.63636	0.1	1591.5
22015	16.591	0.54545	0.1	1658.6
22016	16.682	0.63636	0.1	1635.4
22017	16.408	0.54545	0.1	1702.8
22018	16.499	0.63636	0.1	1679.4
22019	16.225	0.54545	0.1	1747.2
22020	16.316	0.63636	0.1	1723.7
22021	16.042	0.54545	0.1	1791.8
22022	16.133	0.63636	0.1	1768.1
22023	15.859	0.54545	0.1	1836.5
22024	15.95	0.63636	0.1	1812.7
22025	15.676	0.54545	0.1	1881.5
22026	15.767	0.63636	0.1	1857.5
22027	15.493	0.54545	0.1	1926.6
22028	15.584	0.63636	0.1	1902.4
22029	15.31	0.54545	0.1	1971.9
22030	15.402	0.63636	0.1	1947.6
22031	15.127	0.54545	0.1	2017.4
22032	15.219	0.63636	0.1	1992.9
22033	14.944	0.54545	0.1	2063.1
22034	15.036	0.63636	0.1	2038.4
22035	14.761	0.54545	0.1	2108.9
22036	14.853	0.63636	0.1	2084.1
22037	14.578	0.54545	0.1	2154.9
22038	14.67	0.63636	0.1	2129.9
22039	14.395	0.54545	0.1	2201.1
22040	14.487	0.63636	0.1	2175.9
22041	14.212	0.54545	0.1	2247.4
22042	14.304	0.63636	0.1	2222.
22043	14.029	0.54545	0.1	2293.8
22044	14.121	0.63636	0.1	2268.2
22045	13.847	0.54545	0.1	2340.3
22046	13.938	0.63636	0.1	2314.6
22047	13.664	0.54545	0.1	2386.8
22048	13.755	0.63636	0.1	2361.1
22049	13.481	0.54545	0.1	2433.5
22050	13.572	0.63636	0.1	2407.6
22051	13.298	0.54545	0.1	2480.
22052	13.389	0.63636	0.1	2454.2
22053	13.115	0.54545	0.1	2526.5
22054	13.206	0.63636	0.1	2500.7
22055	12.932	0.54545	0.1	2572.9
22056	13.023	0.63636	0.1	2547.1
22057	12.749	0.54545	0.1	2618.9
22058	12.84	0.63636	0.1	2593.4
22059	12.566	0.54545	0.1	2664.5
22060	12.657	0.63636	0.1	2639.3
22061	12.383	0.54545	0.1	2709.4
22062	12.474	0.63636	0.1	2684.8
22063	12.2	0.54545	0.1	2753.4
22064	12.291	0.63636	0.1	2729.7
22065	12.017	0.54545	0.1	2796.2
22066	12.109	0.63636	0.1	2773.6
22067	11.834	0.54545	0.1	2837.3
22068	11.926	0.63636	0.1	2816.2
22069	11.651	0.54545	0.1	2876.3
22070	11.743	0.63636	0.1	2857.2
22071	11.468	0.54545	0.1	2912.3
22072	11.56	0.63636	0.1	2895.8
22073	11.285	0.54545	0.1	2944.4
22074	11.377	0.63636	0.1	2931.5
22075	11.102	0.54545	0.1	2971.6
22076	11.194	0.63636	0.1	2963.2
22077	10.919	0.54545	0.1	2992.4
22078	11.011	0.63636	0.1	2989.8
22079	10.736	0.54545	0.1	3005.
22080	10.828	0.63636	0.1	3009.8
22081	10.553	0.54545	0.1	3007.
22082	10.645	0.63636	0.1	3021.2
22083	10.371	0.54545	0.1	2995.7
22084	10.462	0.63636	0.1	3021.8
22085	10.188	0.54545	0.1	2967.7
22086	10.279	0.63636	0.1	3008.6
22087	10.005	0.54545	0.1	2918.9
22088	10.096	0.63636	0.1	2978.2
22089	9.8217	0.54545	0.1	2844.4
22090	9.9132	0.63636	0.1	2926.3
22091	9.6388	0.54545	0.1	2738.9
22092	9.7302	0.63636	0.1	2848.2
22093	9.4558	0.54545	0.1	2597.
22094	9.5473	0.63636	0.1	2738.8
22095	9.2729	0.54545	0.1	2414.1
22096	9.3643	0.63636	0.1	2593.5
22097	9.0899	0.54545	0.1	2189.3
22098	9.1814	0.63636	0.1	2409.7
22099	8.907	0.54545	0.1	1930.1
22100	8.9985	0.63636	0.1	2190.8
22101	8.724	0.54545	0.1	1665.4
22102	8.8155	0.63636	0.1	1954.
22103	8.5411	0.54545	0.1	1493.3
22104	8.6326	0.63636	0.1	1747.3
22105	8.4496	0.63636	0.1	1727.7
22106	8.3581	0.54545	0.1	1196.6
22107	23.726	0.72727	0.1	128.06
22108	23.817	0.81818	0.1	125.76
22109	23.909	0.72727	0.1	110.7
22110	23.543	0.72727	0.1	151.31
22111	23.634	0.81818	0.1	145.32
22112	23.36	0.72727	0.1	179.27
22113	23.451	0.81818	0.1	170.55
22114	23.177	0.72727	0.1	210.33
22115	23.268	0.81818	0.1	199.55
22116	22.994	0.72727	0.1	243.48
22117	23.085	0.81818	0.1	231.1
22118	22.811	0.72727	0.1	278.08
22119	22.902	0.81818	0.1	264.45
22120	22.628	0.72727	0.1	313.7
22121	22.719	0.81818	0.1	299.08
22122	22.445	0.72727	0.1	350.09
22123	22.536	0.81818	0.1	334.66
22124	22.262	0.72727	0.1	387.06
22125	22.353	0.81818	0.1	370.96
22126	22.079	0.72727	0.1	424.51
22127	22.171	0.81818	0.1	407.83
22128	21.896	0.72727	0.1	462.33
22129	21.988	0.81818	0.1	445.17
22130	21.713	0.72727	0.1	500.49
22131	21.805	0.81818	0.1	482.9
22132	21.53	0.72727	0.1	538.94
22133	21.622	0.81818	0.1	520.97
22134	21.347	0.72727	0.1	577.65
22135	21.439	0.81818	0.1	559.34
22136	21.164	0.72727	0.1	616.6
22137	21.256	0.81818	0.1	597.99
22138	20.981	0.72727	0.1	655.79
22139	21.073	0.81818	0.1	636.89
22140	20.798	0.72727	0.1	695.19
22141	20.89	0.81818	0.1	676.03
22142	20.616	0.72727	0.1	734.81
22143	20.707	0.81818	0.1	715.4
22144	20.433	0.72727	0.1	774.63
22145	20.524	0.81818	0.1	754.99
22146	20.25	0.72727	0.1	814.65
22147	20.341	0.81818	0.1	794.8
22148	20.067	0.72727	0.1	854.88
22149	20.158	0.81818	0.1	834.82
22150	19.884	0.72727	0.1	895.31
22151	19.975	0.81818	0.1	875.05
22152	19.701	0.72727	0.1	935.93
22153	19.792	0.81818	0.1	915.49
22154	19.518	0.72727	0.1	976.75
22155	19.609	0.81818	0.1	956.13
22156	19.335	0.72727	0.1	1017.8
22157	19.426	0.81818	0.1	996.97
22158	19.152	0.72727	0.1	1059.
22159	19.243	0.81818	0.1	1038.
22160	18.969	0.72727	0.1	1100.4
22161	19.06	0.81818	0.1	1079.3
22162	18.786	0.72727	0.1	1142.
22163	18.878	0.81818	0.1	1120.7
22164	18.603	0.72727	0.1	1183.8
22165	18.695	0.81818	0.1	1162.3
22166	18.42	0.72727	0.1	1225.8
22167	18.512	0.81818	0.1	1204.2
22168	18.237	0.72727	0.1	1268.
22169	18.329	0.81818	0.1	1246.2
22170	18.054	0.72727	0.1	1310.3
22171	18.146	0.81818	0.1	1288.4
22172	17.871	0.72727	0.1	1352.9
22173	17.963	0.81818	0.1	1330.9
22174	17.688	0.72727	0.1	1395.7
22175	17.78	0.81818	0.1	1373.5
22176	17.505	0.72727	0.1	1438.6
22177	17.597	0.81818	0.1	1416.3
22178	17.322	0.72727	0.1	1481.8
22179	17.414	0.81818	0.1	1459.3
22180	17.14	0.72727	0.1	1525.1
22181	17.231	0.81818	0.1	1502.5
22182	16.957	0.72727	0.1	1568.6
22183	17.048	0.81818	0.1	1545.8
22184	16.774	0.72727	0.1	1612.3
22185	16.865	0.81818	0.1	1589.4
22186	16.591	0.72727	0.1	1656.2
22187	16.682	0.81818	0.1	1633.2
22188	16.408	0.72727	0.1	1700.3
22189	16.499	0.81818	0.1	1677.1
22190	16.225	0.72727	0.1	1744.6
22191	16.316	0.81818	0.1	1721.2
22192	16.042	0.72727	0.1	1789.
22193	16.133	0.81818	0.1	1765.5
22194	15.859	0.72727	0.1	1833.6
22195	15.95	0.81818	0.1	1809.9
22196	15.676	0.72727	0.1	1878.4
22197	15.767	0.81818	0.1	1854.6
22198	15.493	0.72727	0.1	1923.4
22199	15.584	0.81818	0.1	1899.4
22200	15.31	0.72727	0.1	1968.6
22201	15.402	0.81818	0.1	1944.4
22202	15.127	0.72727	0.1	2013.9
22203	15.219	0.81818	0.1	1989.5
22204	14.944	0.72727	0.1	2059.4
22205	15.036	0.81818	0.1	2034.9
22206	14.761	0.72727	0.1	2105.
22207	14.853	0.81818	0.1	2080.3
22208	14.578	0.72727	0.1	2150.8
22209	14.67	0.81818	0.1	2126.
22210	14.395	0.72727	0.1	2196.8
22211	14.487	0.81818	0.1	2171.8
22212	14.212	0.72727	0.1	2242.9
22213	14.304	0.81818	0.1	2217.7
22214	14.029	0.72727	0.1	2289.1
22215	14.121	0.81818	0.1	2263.8
22216	13.847	0.72727	0.1	2335.5
22217	13.938	0.81818	0.1	2310.
22218	13.664	0.72727	0.1	2381.9
22219	13.755	0.81818	0.1	2356.3
22220	13.481	0.72727	0.1	2428.4
22221	13.572	0.81818	0.1	2402.7
22222	13.298	0.72727	0.1	2474.9
22223	13.389	0.81818	0.1	2449.1
22224	13.115	0.72727	0.1	2521.3
22225	13.206	0.81818	0.1	2495.5
22226	12.932	0.72727	0.1	2567.7
22227	13.023	0.81818	0.1	2542.
22228	12.749	0.72727	0.1	2613.9
22229	12.84	0.81818	0.1	2588.3
22230	12.566	0.72727	0.1	2659.8
22231	12.657	0.81818	0.1	2634.4
22232	12.383	0.72727	0.1	2705.2
22233	12.474	0.81818	0.1	2680.3
22234	12.2	0.72727	0.1	2749.9
22235	12.291	0.81818	0.1	2725.7
22236	12.017	0.72727	0.1	2793.6
22237	12.109	0.81818	0.1	2770.4
22238	11.834	0.72727	0.1	2836.1
22239	11.926	0.81818	0.1	2814.1
22240	11.651	0.72727	0.1	2876.8
22241	11.743	0.81818	0.1	2856.6
22242	11.468	0.72727	0.1	2915.1
22243	11.56	0.81818	0.1	2897.3
22244	11.285	0.72727	0.1	2950.4
22245	11.377	0.81818	0.1	2935.7
22246	11.102	0.72727	0.1	2981.5
22247	11.194	0.81818	0.1	2970.9
22248	10.919	0.72727	0.1	3007.2
22249	11.011	0.81818	0.1	3002.
22250	10.736	0.72727	0.1	3026.
22251	10.828	0.81818	0.1	3027.8
22252	10.553	0.72727	0.1	3035.9
22253	10.645	0.81818	0.1	3046.6
22254	10.371	0.72727	0.1	3034.5
22255	10.462	0.81818	0.1	3056.5
22256	10.188	0.72727	0.1	3018.6
22257	10.279	0.81818	0.1	3055.
22258	10.005	0.72727	0.1	2984.8
22259	10.096	0.81818	0.1	3039.3
22260	9.8217	0.72727	0.1	2928.9
22261	9.9132	0.81818	0.1	3005.9
22262	9.6388	0.72727	0.1	2846.1
22263	9.7302	0.81818	0.1	2951.
22264	9.4558	0.72727	0.1	2732.1
22265	9.5473	0.81818	0.1	2870.6
22266	9.2729	0.72727	0.1	2583.5
22267	9.3643	0.81818	0.1	2761.5
22268	9.0899	0.72727	0.1	2401.6
22269	9.1814	0.81818	0.1	2622.9
22270	8.907	0.72727	0.1	2197.3
22271	8.9985	0.81818	0.1	2460.5
22272	8.724	0.72727	0.1	2003.1
22273	8.8155	0.81818	0.1	2292.8
22274	8.5411	0.72727	0.1	1922.8
22275	8.6326	0.81818	0.1	2165.4
22276	8.4496	0.81818	0.1	2241.8
22277	8.3581	0.72727	0.1	1589.1
22278	23.726	0.90909	0.1	141.82
22279	23.817	1.	0.1	139.01
22280	23.909	0.90909	0.1	125.35
22281	23.543	0.90909	0.1	163.96
22282	23.634	1.	0.1	157.86
22283	23.36	0.90909	0.1	190.56
22284	23.451	1.	0.1	182.01
22285	23.177	0.90909	0.1	220.24
22286	23.268	1.	0.1	209.78
22287	22.994	0.90909	0.1	252.09
22288	23.085	1.	0.1	240.13
22289	22.811	0.90909	0.1	285.53
22290	22.902	1.	0.1	272.36
22291	22.628	0.90909	0.1	320.14
22292	22.719	1.	0.1	305.98
22293	22.445	0.90909	0.1	355.64
22294	22.536	1.	0.1	340.67
22295	22.262	0.90909	0.1	391.85
22296	22.353	1.	0.1	376.18
22297	22.079	0.90909	0.1	428.62
22298	22.171	1.	0.1	412.36
22299	21.896	0.90909	0.1	465.86
22300	21.988	1.	0.1	449.08
22301	21.713	0.90909	0.1	503.49
22302	21.805	1.	0.1	486.26
22303	21.53	0.90909	0.1	541.48
22304	21.622	1.	0.1	523.84
22305	21.347	0.90909	0.1	579.78
22306	21.439	1.	0.1	561.78
22307	21.164	0.90909	0.1	618.36
22308	21.256	1.	0.1	600.04
22309	20.981	0.90909	0.1	657.22
22310	21.073	1.	0.1	638.58
22311	20.798	0.90909	0.1	696.32
22312	20.89	1.	0.1	677.41
22313	20.616	0.90909	0.1	735.66
22314	20.707	1.	0.1	716.49
22315	20.433	0.90909	0.1	775.24
22316	20.524	1.	0.1	755.82
22317	20.25	0.90909	0.1	815.04
22318	20.341	1.	0.1	795.39
22319	20.067	0.90909	0.1	855.06
22320	20.158	1.	0.1	835.2
22321	19.884	0.90909	0.1	895.3
22322	19.975	1.	0.1	875.23
22323	19.701	0.90909	0.1	935.75
22324	19.792	1.	0.1	915.48
22325	19.518	0.90909	0.1	976.41
22326	19.609	1.	0.1	955.95
22327	19.335	0.90909	0.1	1017.3
22328	19.426	1.	0.1	996.64
22329	19.152	0.90909	0.1	1058.4
22330	19.243	1.	0.1	1037.5
22331	18.969	0.90909	0.1	1099.6
22332	19.06	1.	0.1	1078.6
22333	18.786	0.90909	0.1	1141.1
22334	18.878	1.	0.1	1120.
22335	18.603	0.90909	0.1	1182.8
22336	18.695	1.	0.1	1161.5
22337	18.42	0.90909	0.1	1224.7
22338	18.512	1.	0.1	1203.2
22339	18.237	0.90909	0.1	1266.7
22340	18.329	1.	0.1	1245.1
22341	18.054	0.90909	0.1	1309.
22342	18.146	1.	0.1	1287.3
22343	17.871	0.90909	0.1	1351.5
22344	17.963	1.	0.1	1329.6
22345	17.688	0.90909	0.1	1394.1
22346	17.78	1.	0.1	1372.1
22347	17.505	0.90909	0.1	1437.
22348	17.597	1.	0.1	1414.8
22349	17.322	0.90909	0.1	1480.
22350	17.414	1.	0.1	1457.7
22351	17.14	0.90909	0.1	1523.3
22352	17.231	1.	0.1	1500.8
22353	16.957	0.90909	0.1	1566.7
22354	17.048	1.	0.1	1544.
22355	16.774	0.90909	0.1	1610.3
22356	16.865	1.	0.1	1587.5
22357	16.591	0.90909	0.1	1654.
22358	16.682	1.	0.1	1631.1
22359	16.408	0.90909	0.1	1698.
22360	16.499	1.	0.1	1674.9
22361	16.225	0.90909	0.1	1742.1
22362	16.316	1.	0.1	1718.9
22363	16.042	0.90909	0.1	1786.4
22364	16.133	1.	0.1	1763.1
22365	15.859	0.90909	0.1	1830.9
22366	15.95	1.	0.1	1807.4
22367	15.676	0.90909	0.1	1875.6
22368	15.767	1.	0.1	1851.9
22369	15.493	0.90909	0.1	1920.4
22370	15.584	1.	0.1	1896.6
22371	15.31	0.90909	0.1	1965.4
22372	15.402	1.	0.1	1941.4
22373	15.127	0.90909	0.1	2010.6
22374	15.219	1.	0.1	1986.4
22375	14.944	0.90909	0.1	2055.9
22376	15.036	1.	0.1	2031.5
22377	14.761	0.90909	0.1	2101.3
22378	14.853	1.	0.1	2076.8
22379	14.578	0.90909	0.1	2146.9
22380	14.67	1.	0.1	2122.3
22381	14.395	0.90909	0.1	2192.7
22382	14.487	1.	0.1	2167.9
22383	14.212	0.90909	0.1	2238.6
22384	14.304	1.	0.1	2213.6
22385	14.029	0.90909	0.1	2284.6
22386	14.121	1.	0.1	2259.5
22387	13.847	0.90909	0.1	2330.8
22388	13.938	1.	0.1	2305.5
22389	13.664	0.90909	0.1	2377.1
22390	13.755	1.	0.1	2351.6
22391	13.481	0.90909	0.1	2423.4
22392	13.572	1.	0.1	2397.8
22393	13.298	0.90909	0.1	2469.8
22394	13.389	1.	0.1	2444.1
22395	13.115	0.90909	0.1	2516.2
22396	13.206	1.	0.1	2490.5
22397	12.932	0.90909	0.1	2562.6
22398	13.023	1.	0.1	2536.8
22399	12.749	0.90909	0.1	2608.9
22400	12.84	1.	0.1	2583.2
22401	12.566	0.90909	0.1	2655.
22402	12.657	1.	0.1	2629.5
22403	12.383	0.90909	0.1	2700.8
22404	12.474	1.	0.1	2675.6
22405	12.2	0.90909	0.1	2746.2
22406	12.291	1.	0.1	2721.5
22407	12.017	0.90909	0.1	2790.9
22408	12.109	1.	0.1	2767.
22409	11.834	0.90909	0.1	2834.7
22410	11.926	1.	0.1	2811.8
22411	11.651	0.90909	0.1	2877.2
22412	11.743	1.	0.1	2855.8
22413	11.468	0.90909	0.1	2917.9
22414	11.56	1.	0.1	2898.6
22415	11.285	0.90909	0.1	2956.3
22416	11.377	1.	0.1	2939.7
22417	11.102	0.90909	0.1	2991.5
22418	11.194	1.	0.1	2978.6
22419	10.919	0.90909	0.1	3022.6
22420	11.011	1.	0.1	3014.5
22421	10.736	0.90909	0.1	3048.3
22422	10.828	1.	0.1	3046.4
22423	10.553	0.90909	0.1	3067.
22424	10.645	1.	0.1	3073.3
22425	10.371	0.90909	0.1	3076.7
22426	10.462	1.	0.1	3093.5
22427	10.188	0.90909	0.1	3075.2
22428	10.279	1.	0.1	3105.3
22429	10.005	0.90909	0.1	3059.5
22430	10.096	1.	0.1	3106.6
22431	9.8217	0.90909	0.1	3026.4
22432	9.9132	1.	0.1	3095.
22433	9.6388	0.90909	0.1	2972.7
22434	9.7302	1.	0.1	3068.1
22435	9.4558	0.90909	0.1	2895.3
22436	9.5473	1.	0.1	3023.4
22437	9.2729	0.90909	0.1	2792.7
22438	9.3643	1.	0.1	2960.
22439	9.0899	0.90909	0.1	2667.6
22440	9.1814	1.	0.1	2879.1
22441	8.907	0.90909	0.1	2531.5
22442	8.9985	1.	0.1	2787.8
22443	8.724	0.90909	0.1	2414.5
22444	8.8155	1.	0.1	2702.9
22445	8.5411	0.90909	0.1	2422.2
22446	8.6326	1.	0.1	2662.2
22447	8.4496	1.	0.1	2840.6
22448	8.3581	0.90909	0.1	2032.3
22449	23.726	1.0909	0.1	153.82
22450	23.817	1.1818	0.1	150.49
22451	23.909	1.0909	0.1	138.
22452	23.543	1.0909	0.1	175.2
22453	23.634	1.1818	0.1	168.85
22454	23.36	1.0909	0.1	200.84
22455	23.451	1.1818	0.1	192.22
22456	23.177	1.0909	0.1	229.5
22457	23.268	1.1818	0.1	219.12
22458	22.994	1.0909	0.1	260.34
22459	23.085	1.1818	0.1	248.56
22460	22.811	1.0909	0.1	292.82
22461	22.902	1.1818	0.1	279.9
22462	22.628	1.0909	0.1	326.56
22463	22.719	1.1818	0.1	312.68
22464	22.445	1.0909	0.1	361.27
22465	22.536	1.1818	0.1	346.59
22466	22.262	1.0909	0.1	396.77
22467	22.353	1.1818	0.1	381.4
22468	22.079	1.0909	0.1	432.9
22469	22.171	1.1818	0.1	416.93
22470	21.896	1.0909	0.1	469.57
22471	21.988	1.1818	0.1	453.08
22472	21.713	1.0909	0.1	506.7
22473	21.805	1.1818	0.1	489.74
22474	21.53	1.0909	0.1	544.23
22475	21.622	1.1818	0.1	526.86
22476	21.347	1.0909	0.1	582.12
22477	21.439	1.1818	0.1	564.37
22478	21.164	1.0909	0.1	620.34
22479	21.256	1.1818	0.1	602.24
22480	20.981	1.0909	0.1	658.86
22481	21.073	1.1818	0.1	640.44
22482	20.798	1.0909	0.1	697.66
22483	20.89	1.1818	0.1	678.95
22484	20.616	1.0909	0.1	736.73
22485	20.707	1.1818	0.1	717.75
22486	20.433	1.0909	0.1	776.05
22487	20.524	1.1818	0.1	756.82
22488	20.25	1.0909	0.1	815.62
22489	20.341	1.1818	0.1	796.16
22490	20.067	1.0909	0.1	855.43
22491	20.158	1.1818	0.1	835.74
22492	19.884	1.0909	0.1	895.48
22493	19.975	1.1818	0.1	875.57
22494	19.701	1.0909	0.1	935.75
22495	19.792	1.1818	0.1	915.64
22496	19.518	1.0909	0.1	976.25
22497	19.609	1.1818	0.1	955.94
22498	19.335	1.0909	0.1	1017.
22499	19.426	1.1818	0.1	996.47
22500	19.152	1.0909	0.1	1057.9
22501	19.243	1.1818	0.1	1037.2
22502	18.969	1.0909	0.1	1099.
22503	19.06	1.1818	0.1	1078.2
22504	18.786	1.0909	0.1	1140.4
22505	18.878	1.1818	0.1	1119.4
22506	18.603	1.0909	0.1	1182.
22507	18.695	1.1818	0.1	1160.8
22508	18.42	1.0909	0.1	1223.7
22509	18.512	1.1818	0.1	1202.4
22510	18.237	1.0909	0.1	1265.7
22511	18.329	1.1818	0.1	1244.2
22512	18.054	1.0909	0.1	1307.9
22513	18.146	1.1818	0.1	1286.2
22514	17.871	1.0909	0.1	1350.2
22515	17.963	1.1818	0.1	1328.4
22516	17.688	1.0909	0.1	1392.8
22517	17.78	1.1818	0.1	1370.8
22518	17.505	1.0909	0.1	1435.5
22519	17.597	1.1818	0.1	1413.5
22520	17.322	1.0909	0.1	1478.5
22521	17.414	1.1818	0.1	1456.2
22522	17.14	1.0909	0.1	1521.6
22523	17.231	1.1818	0.1	1499.2
22524	16.957	1.0909	0.1	1564.9
22525	17.048	1.1818	0.1	1542.4
22526	16.774	1.0909	0.1	1608.4
22527	16.865	1.1818	0.1	1585.7
22528	16.591	1.0909	0.1	1652.
22529	16.682	1.1818	0.1	1629.3
22530	16.408	1.0909	0.1	1695.9
22531	16.499	1.1818	0.1	1673.
22532	16.225	1.0909	0.1	1739.9
22533	16.316	1.1818	0.1	1716.8
22534	16.042	1.0909	0.1	1784.1
22535	16.133	1.1818	0.1	1760.9
22536	15.859	1.0909	0.1	1828.4
22537	15.95	1.1818	0.1	1805.1
22538	15.676	1.0909	0.1	1872.9
22539	15.767	1.1818	0.1	1849.4
22540	15.493	1.0909	0.1	1917.6
22541	15.584	1.1818	0.1	1893.9
22542	15.31	1.0909	0.1	1962.4
22543	15.402	1.1818	0.1	1938.6
22544	15.127	1.0909	0.1	2007.4
22545	15.219	1.1818	0.1	1983.4
22546	14.944	1.0909	0.1	2052.5
22547	15.036	1.1818	0.1	2028.4
22548	14.761	1.0909	0.1	2097.8
22549	14.853	1.1818	0.1	2073.5
22550	14.578	1.0909	0.1	2143.2
22551	14.67	1.1818	0.1	2118.8
22552	14.395	1.0909	0.1	2188.8
22553	14.487	1.1818	0.1	2164.2
22554	14.212	1.0909	0.1	2234.5
22555	14.304	1.1818	0.1	2209.7
22556	14.029	1.0909	0.1	2280.3
22557	14.121	1.1818	0.1	2255.4
22558	13.847	1.0909	0.1	2326.3
22559	13.938	1.1818	0.1	2301.2
22560	13.664	1.0909	0.1	2372.4
22561	13.755	1.1818	0.1	2347.1
22562	13.481	1.0909	0.1	2418.5
22563	13.572	1.1818	0.1	2393.1
22564	13.298	1.0909	0.1	2464.8
22565	13.389	1.1818	0.1	2439.2
22566	13.115	1.0909	0.1	2511.1
22567	13.206	1.1818	0.1	2485.5
22568	12.932	1.0909	0.1	2557.5
22569	13.023	1.1818	0.1	2531.8
22570	12.749	1.0909	0.1	2603.9
22571	12.84	1.1818	0.1	2578.1
22572	12.566	1.0909	0.1	2650.2
22573	12.657	1.1818	0.1	2624.5
22574	12.383	1.0909	0.1	2696.4
22575	12.474	1.1818	0.1	2670.9
22576	12.2	1.0909	0.1	2742.3
22577	12.291	1.1818	0.1	2717.2
22578	12.017	1.0909	0.1	2787.9
22579	12.109	1.1818	0.1	2763.4
22580	11.834	1.0909	0.1	2833.
22581	11.926	1.1818	0.1	2809.3
22582	11.651	1.0909	0.1	2877.2
22583	11.743	1.1818	0.1	2854.7
22584	11.468	1.0909	0.1	2920.4
22585	11.56	1.1818	0.1	2899.5
22586	11.285	1.0909	0.1	2962.
22587	11.377	1.1818	0.1	2943.4
22588	11.102	1.0909	0.1	3001.5
22589	11.194	1.1818	0.1	2986.
22590	10.919	1.0909	0.1	3038.3
22591	11.011	1.1818	0.1	3026.9
22592	10.736	1.0909	0.1	3071.3
22593	10.828	1.1818	0.1	3065.4
22594	10.553	1.0909	0.1	3099.6
22595	10.645	1.1818	0.1	3100.8
22596	10.371	1.0909	0.1	3121.8
22597	10.462	1.1818	0.1	3132.1
22598	10.188	1.0909	0.1	3136.2
22599	10.279	1.1818	0.1	3158.5
22600	10.005	1.0909	0.1	3141.1
22601	10.096	1.1818	0.1	3178.6
22602	9.8217	1.0909	0.1	3134.8
22603	9.9132	1.1818	0.1	3191.4
22604	9.6388	1.0909	0.1	3115.5
22605	9.7302	1.1818	0.1	3196.1
22606	9.4558	1.0909	0.1	3082.3
22607	9.5473	1.1818	0.1	3192.7
22608	9.2729	1.0909	0.1	3036.2
22609	9.3643	1.1818	0.1	3182.8
22610	9.0899	1.0909	0.1	2981.6
22611	9.1814	1.1818	0.1	3170.7
22612	8.907	1.0909	0.1	2929.2
22613	8.9985	1.1818	0.1	3165.9
22614	8.724	1.0909	0.1	2903.3
22615	8.8155	1.1818	0.1	3183.9
22616	8.5411	1.0909	0.1	3011.3
22617	8.6326	1.1818	0.1	3255.5
22618	8.4496	1.1818	0.1	3567.1
22619	8.3581	1.0909	0.1	2554.5
22620	23.726	1.2727	0.1	164.29
22621	23.817	1.3636	0.1	160.45
22622	23.909	1.2727	0.1	148.97
22623	23.543	1.2727	0.1	185.11
22624	23.634	1.3636	0.1	178.44
22625	23.36	1.2727	0.1	210.05
22626	23.451	1.3636	0.1	201.24
22627	23.177	1.2727	0.1	237.93
22628	23.268	1.3636	0.1	227.48
22629	22.994	1.2727	0.1	267.99
22630	23.085	1.3636	0.1	256.22
22631	22.811	1.2727	0.1	299.71
22632	22.902	1.3636	0.1	286.86
22633	22.628	1.2727	0.1	332.71
22634	22.719	1.3636	0.1	318.96
22635	22.445	1.2727	0.1	366.75
22636	22.536	1.3636	0.1	352.22
22637	22.262	1.2727	0.1	401.61
22638	22.353	1.3636	0.1	386.42
22639	22.079	1.2727	0.1	437.17
22640	22.171	1.3636	0.1	421.4
22641	21.896	1.2727	0.1	473.32
22642	21.988	1.3636	0.1	457.02
22643	21.713	1.2727	0.1	509.97
22644	21.805	1.3636	0.1	493.21
22645	21.53	1.2727	0.1	547.07
22646	21.622	1.3636	0.1	529.89
22647	21.347	1.2727	0.1	584.56
22648	21.439	1.3636	0.1	567.
22649	21.164	1.2727	0.1	622.42
22650	21.256	1.3636	0.1	604.51
22651	20.981	1.2727	0.1	660.61
22652	21.073	1.3636	0.1	642.38
22653	20.798	1.2727	0.1	699.12
22654	20.89	1.3636	0.1	680.58
22655	20.616	1.2727	0.1	737.92
22656	20.707	1.3636	0.1	719.1
22657	20.433	1.2727	0.1	776.99
22658	20.524	1.3636	0.1	757.92
22659	20.25	1.2727	0.1	816.34
22660	20.341	1.3636	0.1	797.02
22661	20.067	1.2727	0.1	855.94
22662	20.158	1.3636	0.1	836.4
22663	19.884	1.2727	0.1	895.8
22664	19.975	1.3636	0.1	876.03
22665	19.701	1.2727	0.1	935.9
22666	19.792	1.3636	0.1	915.92
22667	19.518	1.2727	0.1	976.23
22668	19.609	1.3636	0.1	956.06
22669	19.335	1.2727	0.1	1016.8
22670	19.426	1.3636	0.1	996.43
22671	19.152	1.2727	0.1	1057.6
22672	19.243	1.3636	0.1	1037.
22673	18.969	1.2727	0.1	1098.6
22674	19.06	1.3636	0.1	1077.9
22675	18.786	1.2727	0.1	1139.8
22676	18.878	1.3636	0.1	1118.9
22677	18.603	1.2727	0.1	1181.3
22678	18.695	1.3636	0.1	1160.2
22679	18.42	1.2727	0.1	1222.9
22680	18.512	1.3636	0.1	1201.7
22681	18.237	1.2727	0.1	1264.8
22682	18.329	1.3636	0.1	1243.4
22683	18.054	1.2727	0.1	1306.9
22684	18.146	1.3636	0.1	1285.3
22685	17.871	1.2727	0.1	1349.1
22686	17.963	1.3636	0.1	1327.5
22687	17.688	1.2727	0.1	1391.6
22688	17.78	1.3636	0.1	1369.8
22689	17.505	1.2727	0.1	1434.2
22690	17.597	1.3636	0.1	1412.3
22691	17.322	1.2727	0.1	1477.1
22692	17.414	1.3636	0.1	1455.
22693	17.14	1.2727	0.1	1520.1
22694	17.231	1.3636	0.1	1497.8
22695	16.957	1.2727	0.1	1563.3
22696	17.048	1.3636	0.1	1540.9
22697	16.774	1.2727	0.1	1606.7
22698	16.865	1.3636	0.1	1584.2
22699	16.591	1.2727	0.1	1650.2
22700	16.682	1.3636	0.1	1627.6
22701	16.408	1.2727	0.1	1693.9
22702	16.499	1.3636	0.1	1671.2
22703	16.225	1.2727	0.1	1737.8
22704	16.316	1.3636	0.1	1714.9
22705	16.042	1.2727	0.1	1781.9
22706	16.133	1.3636	0.1	1758.8
22707	15.859	1.2727	0.1	1826.1
22708	15.95	1.3636	0.1	1802.9
22709	15.676	1.2727	0.1	1870.5
22710	15.767	1.3636	0.1	1847.1
22711	15.493	1.2727	0.1	1915.
22712	15.584	1.3636	0.1	1891.5
22713	15.31	1.2727	0.1	1959.6
22714	15.402	1.3636	0.1	1936.
22715	15.127	1.2727	0.1	2004.5
22716	15.219	1.3636	0.1	1980.7
22717	14.944	1.2727	0.1	2049.4
22718	15.036	1.3636	0.1	2025.5
22719	14.761	1.2727	0.1	2094.5
22720	14.853	1.3636	0.1	2070.4
22721	14.578	1.2727	0.1	2139.7
22722	14.67	1.3636	0.1	2115.5
22723	14.395	1.2727	0.1	2185.1
22724	14.487	1.3636	0.1	2160.7
22725	14.212	1.2727	0.1	2230.6
22726	14.304	1.3636	0.1	2206.
22727	14.029	1.2727	0.1	2276.2
22728	14.121	1.3636	0.1	2251.5
22729	13.847	1.2727	0.1	2322.
22730	13.938	1.3636	0.1	2297.1
22731	13.664	1.2727	0.1	2367.8
22732	13.755	1.3636	0.1	2342.8
22733	13.481	1.2727	0.1	2413.8
22734	13.572	1.3636	0.1	2388.6
22735	13.298	1.2727	0.1	2459.9
22736	13.389	1.3636	0.1	2434.5
22737	13.115	1.2727	0.1	2506.1
22738	13.206	1.3636	0.1	2480.6
22739	12.932	1.2727	0.1	2552.5
22740	13.023	1.3636	0.1	2526.8
22741	12.749	1.2727	0.1	2598.8
22742	12.84	1.3636	0.1	2573.1
22743	12.566	1.2727	0.1	2645.3
22744	12.657	1.3636	0.1	2619.6
22745	12.383	1.2727	0.1	2691.8
22746	12.474	1.3636	0.1	2666.2
22747	12.2	1.2727	0.1	2738.3
22748	12.291	1.3636	0.1	2712.9
22749	12.017	1.2727	0.1	2784.7
22750	12.109	1.3636	0.1	2759.6
22751	11.834	1.2727	0.1	2831.
22752	11.926	1.3636	0.1	2806.5
22753	11.651	1.2727	0.1	2877.
22754	11.743	1.3636	0.1	2853.4
22755	11.468	1.2727	0.1	2922.6
22756	11.56	1.3636	0.1	2900.2
22757	11.285	1.2727	0.1	2967.5
22758	11.377	1.3636	0.1	2946.8
22759	11.102	1.2727	0.1	3011.4
22760	11.194	1.3636	0.1	2993.2
22761	10.919	1.2727	0.1	3054.
22762	11.011	1.3636	0.1	3039.1
22763	10.736	1.2727	0.1	3094.8
22764	10.828	1.3636	0.1	3084.4
22765	10.553	1.2727	0.1	3133.2
22766	10.645	1.3636	0.1	3128.6
22767	10.371	1.2727	0.1	3168.6
22768	10.462	1.3636	0.1	3171.7
22769	10.188	1.2727	0.1	3200.3
22770	10.279	1.3636	0.1	3213.3
22771	10.005	1.2727	0.1	3227.7
22772	10.096	1.3636	0.1	3253.4
22773	9.8217	1.2727	0.1	3250.7
22774	9.9132	1.3636	0.1	3292.3
22775	9.6388	1.2727	0.1	3269.8
22776	9.7302	1.3636	0.1	3331.1
22777	9.4558	1.2727	0.1	3286.8
22778	9.5473	1.3636	0.1	3372.4
22779	9.2729	1.2727	0.1	3306.1
22780	9.3643	1.3636	0.1	3421.4
22781	9.0899	1.2727	0.1	3335.6
22782	9.1814	1.3636	0.1	3487.
22783	8.907	1.2727	0.1	3387.3
22784	8.9985	1.3636	0.1	3584.2
22785	8.724	1.2727	0.1	3482.1
22786	8.8155	1.3636	0.1	3735.7
22787	8.5411	1.2727	0.1	3728.2
22788	8.6326	1.3636	0.1	3968.3
22789	8.4496	1.3636	0.1	4494.9
22790	8.3581	1.2727	0.1	3201.9
22791	23.726	1.4545	0.1	173.38
22792	23.817	1.5455	0.1	169.05
22793	23.909	1.4545	0.1	158.45
22794	23.543	1.4545	0.1	193.78
22795	23.634	1.5455	0.1	186.76
22796	23.36	1.4545	0.1	218.18
22797	23.451	1.5455	0.1	209.13
22798	23.177	1.4545	0.1	245.47
22799	23.268	1.5455	0.1	234.86
22800	22.994	1.4545	0.1	274.92
22801	23.085	1.5455	0.1	263.06
22802	22.811	1.4545	0.1	306.03
22803	22.902	1.5455	0.1	293.15
22804	22.628	1.4545	0.1	338.44
22805	22.719	1.5455	0.1	324.71
22806	22.445	1.4545	0.1	371.9
22807	22.536	1.5455	0.1	357.43
22808	22.262	1.4545	0.1	406.23
22809	22.353	1.5455	0.1	391.12
22810	22.079	1.4545	0.1	441.28
22811	22.171	1.5455	0.1	425.61
22812	21.896	1.4545	0.1	476.96
22813	21.988	1.5455	0.1	460.78
22814	21.713	1.4545	0.1	513.18
22815	21.805	1.5455	0.1	496.54
22816	21.53	1.4545	0.1	549.88
22817	21.622	1.5455	0.1	532.82
22818	21.347	1.4545	0.1	587.01
22819	21.439	1.5455	0.1	569.57
22820	21.164	1.4545	0.1	624.53
22821	21.256	1.5455	0.1	606.74
22822	20.981	1.4545	0.1	662.41
22823	21.073	1.5455	0.1	644.3
22824	20.798	1.4545	0.1	700.63
22825	20.89	1.5455	0.1	682.22
22826	20.616	1.4545	0.1	739.17
22827	20.707	1.5455	0.1	720.48
22828	20.433	1.4545	0.1	778.01
22829	20.524	1.5455	0.1	759.06
22830	20.25	1.4545	0.1	817.14
22831	20.341	1.5455	0.1	797.94
22832	20.067	1.4545	0.1	856.54
22833	20.158	1.5455	0.1	837.11
22834	19.884	1.4545	0.1	896.21
22835	19.975	1.5455	0.1	876.56
22836	19.701	1.4545	0.1	936.14
22837	19.792	1.5455	0.1	916.28
22838	19.518	1.4545	0.1	976.32
22839	19.609	1.5455	0.1	956.26
22840	19.335	1.4545	0.1	1016.7
22841	19.426	1.5455	0.1	996.49
22842	19.152	1.4545	0.1	1057.4
22843	19.243	1.5455	0.1	1037.
22844	18.969	1.4545	0.1	1098.3
22845	19.06	1.5455	0.1	1077.7
22846	18.786	1.4545	0.1	1139.4
22847	18.878	1.5455	0.1	1118.6
22848	18.603	1.4545	0.1	1180.7
22849	18.695	1.5455	0.1	1159.8
22850	18.42	1.4545	0.1	1222.3
22851	18.512	1.5455	0.1	1201.2
22852	18.237	1.4545	0.1	1264.
22853	18.329	1.5455	0.1	1242.8
22854	18.054	1.4545	0.1	1306.
22855	18.146	1.5455	0.1	1284.6
22856	17.871	1.4545	0.1	1348.2
22857	17.963	1.5455	0.1	1326.6
22858	17.688	1.4545	0.1	1390.5
22859	17.78	1.5455	0.1	1368.8
22860	17.505	1.4545	0.1	1433.1
22861	17.597	1.5455	0.1	1411.2
22862	17.322	1.4545	0.1	1475.8
22863	17.414	1.5455	0.1	1453.8
22864	17.14	1.4545	0.1	1518.7
22865	17.231	1.5455	0.1	1496.6
22866	16.957	1.4545	0.1	1561.8
22867	17.048	1.5455	0.1	1539.6
22868	16.774	1.4545	0.1	1605.1
22869	16.865	1.5455	0.1	1582.7
22870	16.591	1.4545	0.1	1648.6
22871	16.682	1.5455	0.1	1626.1
22872	16.408	1.4545	0.1	1692.2
22873	16.499	1.5455	0.1	1669.5
22874	16.225	1.4545	0.1	1735.9
22875	16.316	1.5455	0.1	1713.2
22876	16.042	1.4545	0.1	1779.9
22877	16.133	1.5455	0.1	1757.
22878	15.859	1.4545	0.1	1824.
22879	15.95	1.5455	0.1	1800.9
22880	15.676	1.4545	0.1	1868.2
22881	15.767	1.5455	0.1	1845.
22882	15.493	1.4545	0.1	1912.6
22883	15.584	1.5455	0.1	1889.3
22884	15.31	1.4545	0.1	1957.1
22885	15.402	1.5455	0.1	1933.7
22886	15.127	1.4545	0.1	2001.7
22887	15.219	1.5455	0.1	1978.2
22888	14.944	1.4545	0.1	2046.5
22889	15.036	1.5455	0.1	2022.8
22890	14.761	1.4545	0.1	2091.4
22891	14.853	1.5455	0.1	2067.6
22892	14.578	1.4545	0.1	2136.5
22893	14.67	1.5455	0.1	2112.5
22894	14.395	1.4545	0.1	2181.6
22895	14.487	1.5455	0.1	2157.5
22896	14.212	1.4545	0.1	2226.9
22897	14.304	1.5455	0.1	2202.6
22898	14.029	1.4545	0.1	2272.3
22899	14.121	1.5455	0.1	2247.8
22900	13.847	1.4545	0.1	2317.9
22901	13.938	1.5455	0.1	2293.2
22902	13.664	1.4545	0.1	2363.5
22903	13.755	1.5455	0.1	2338.7
22904	13.481	1.4545	0.1	2409.3
22905	13.572	1.5455	0.1	2384.3
22906	13.298	1.4545	0.1	2455.2
22907	13.389	1.5455	0.1	2430.
22908	13.115	1.4545	0.1	2501.3
22909	13.206	1.5455	0.1	2476.
22910	12.932	1.4545	0.1	2547.5
22911	13.023	1.5455	0.1	2522.
22912	12.749	1.4545	0.1	2593.9
22913	12.84	1.5455	0.1	2568.3
22914	12.566	1.4545	0.1	2640.5
22915	12.657	1.5455	0.1	2614.8
22916	12.383	1.4545	0.1	2687.3
22917	12.474	1.5455	0.1	2661.5
22918	12.2	1.4545	0.1	2734.2
22919	12.291	1.5455	0.1	2708.5
22920	12.017	1.4545	0.1	2781.4
22921	12.109	1.5455	0.1	2755.9
22922	11.834	1.4545	0.1	2828.9
22923	11.926	1.5455	0.1	2803.6
22924	11.651	1.4545	0.1	2876.6
22925	11.743	1.5455	0.1	2851.8
22926	11.468	1.4545	0.1	2924.5
22927	11.56	1.5455	0.1	2900.6
22928	11.285	1.4545	0.1	2972.6
22929	11.377	1.5455	0.1	2949.9
22930	11.102	1.4545	0.1	3021.
22931	11.194	1.5455	0.1	3000.
22932	10.919	1.4545	0.1	3069.5
22933	11.011	1.5455	0.1	3051.
22934	10.736	1.4545	0.1	3118.2
22935	10.828	1.5455	0.1	3103.
22936	10.553	1.4545	0.1	3167.
22937	10.645	1.5455	0.1	3156.3
22938	10.371	1.4545	0.1	3216.2
22939	10.462	1.5455	0.1	3211.3
22940	10.188	1.4545	0.1	3265.9
22941	10.279	1.5455	0.1	3268.6
22942	10.005	1.4545	0.1	3316.9
22943	10.096	1.5455	0.1	3329.2
22944	9.8217	1.4545	0.1	3370.7
22945	9.9132	1.5455	0.1	3395.
22946	9.6388	1.4545	0.1	3430.3
22947	9.7302	1.5455	0.1	3469.
22948	9.4558	1.4545	0.1	3500.9
22949	9.5473	1.5455	0.1	3556.6
22950	9.2729	1.4545	0.1	3591.6
22951	9.3643	1.5455	0.1	3666.8
22952	9.0899	1.4545	0.1	3716.8
22953	9.1814	1.5455	0.1	3814.7
22954	8.907	1.4545	0.1	3899.4
22955	8.9985	1.5455	0.1	4026.4
22956	8.724	1.4545	0.1	4162.
22957	8.8155	1.5455	0.1	4339.6
22958	8.5411	1.4545	0.1	4628.5
22959	8.6326	1.5455	0.1	4823.4
22960	8.4496	1.5455	0.1	5785.4
22961	8.3581	1.4545	0.1	4066.6
22962	23.726	1.6364	0.1	181.23
22963	23.817	1.7273	0.1	176.42
22964	23.909	1.6364	0.1	166.62
22965	23.543	1.6364	0.1	201.3
22966	23.634	1.7273	0.1	193.92
22967	23.36	1.6364	0.1	225.27
22968	23.451	1.7273	0.1	215.94
22969	23.177	1.6364	0.1	252.11
22970	23.268	1.7273	0.1	241.28
22971	22.994	1.6364	0.1	281.08
22972	23.085	1.7273	0.1	269.06
22973	22.811	1.6364	0.1	311.71
22974	22.902	1.7273	0.1	298.72
22975	22.628	1.6364	0.1	343.64
22976	22.719	1.7273	0.1	329.84
22977	22.445	1.6364	0.1	376.63
22978	22.536	1.7273	0.1	362.13
22979	22.262	1.6364	0.1	410.5
22980	22.353	1.7273	0.1	395.39
22981	22.079	1.6364	0.1	445.12
22982	22.171	1.7273	0.1	429.47
22983	21.896	1.6364	0.1	480.39
22984	21.988	1.7273	0.1	464.25
22985	21.713	1.6364	0.1	516.22
22986	21.805	1.7273	0.1	499.64
22987	21.53	1.6364	0.1	552.56
22988	21.622	1.7273	0.1	535.58
22989	21.347	1.6364	0.1	589.36
22990	21.439	1.7273	0.1	572.
22991	21.164	1.6364	0.1	626.57
22992	21.256	1.7273	0.1	608.87
22993	20.981	1.6364	0.1	664.17
22994	21.073	1.7273	0.1	646.15
22995	20.798	1.6364	0.1	702.13
22996	20.89	1.7273	0.1	683.81
22997	20.616	1.6364	0.1	740.43
22998	20.707	1.7273	0.1	721.83
22999	20.433	1.6364	0.1	779.05
23000	20.524	1.7273	0.1	760.19
23001	20.25	1.6364	0.1	817.97
23002	20.341	1.7273	0.1	798.87
23003	20.067	1.6364	0.1	857.19
23004	20.158	1.7273	0.1	837.85
23005	19.884	1.6364	0.1	896.69
23006	19.975	1.7273	0.1	877.13
23007	19.701	1.6364	0.1	936.45
23008	19.792	1.7273	0.1	916.69
23009	19.518	1.6364	0.1	976.48
23010	19.609	1.7273	0.1	956.52
23011	19.335	1.6364	0.1	1016.8
23012	19.426	1.7273	0.1	996.61
23013	19.152	1.6364	0.1	1057.3
23014	19.243	1.7273	0.1	1037.
23015	18.969	1.6364	0.1	1098.1
23016	19.06	1.7273	0.1	1077.5
23017	18.786	1.6364	0.1	1139.1
23018	18.878	1.7273	0.1	1118.4
23019	18.603	1.6364	0.1	1180.3
23020	18.695	1.7273	0.1	1159.4
23021	18.42	1.6364	0.1	1221.7
23022	18.512	1.7273	0.1	1200.7
23023	18.237	1.6364	0.1	1263.4
23024	18.329	1.7273	0.1	1242.2
23025	18.054	1.6364	0.1	1305.3
23026	18.146	1.7273	0.1	1284.
23027	17.871	1.6364	0.1	1347.3
23028	17.963	1.7273	0.1	1325.9
23029	17.688	1.6364	0.1	1389.6
23030	17.78	1.7273	0.1	1368.
23031	17.505	1.6364	0.1	1432.1
23032	17.597	1.7273	0.1	1410.3
23033	17.322	1.6364	0.1	1474.7
23034	17.414	1.7273	0.1	1452.9
23035	17.14	1.6364	0.1	1517.5
23036	17.231	1.7273	0.1	1495.6
23037	16.957	1.6364	0.1	1560.6
23038	17.048	1.7273	0.1	1538.4
23039	16.774	1.6364	0.1	1603.7
23040	16.865	1.7273	0.1	1581.5
23041	16.591	1.6364	0.1	1647.1
23042	16.682	1.7273	0.1	1624.7
23043	16.408	1.6364	0.1	1690.6
23044	16.499	1.7273	0.1	1668.1
23045	16.225	1.6364	0.1	1734.3
23046	16.316	1.7273	0.1	1711.7
23047	16.042	1.6364	0.1	1778.1
23048	16.133	1.7273	0.1	1755.3
23049	15.859	1.6364	0.1	1822.
23050	15.95	1.7273	0.1	1799.2
23051	15.676	1.6364	0.1	1866.2
23052	15.767	1.7273	0.1	1843.2
23053	15.493	1.6364	0.1	1910.4
23054	15.584	1.7273	0.1	1887.3
23055	15.31	1.6364	0.1	1954.8
23056	15.402	1.7273	0.1	1931.5
23057	15.127	1.6364	0.1	1999.3
23058	15.219	1.7273	0.1	1975.9
23059	14.944	1.6364	0.1	2043.9
23060	15.036	1.7273	0.1	2020.4
23061	14.761	1.6364	0.1	2088.6
23062	14.853	1.7273	0.1	2065.
23063	14.578	1.6364	0.1	2133.5
23064	14.67	1.7273	0.1	2109.7
23065	14.395	1.6364	0.1	2178.4
23066	14.487	1.7273	0.1	2154.5
23067	14.212	1.6364	0.1	2223.5
23068	14.304	1.7273	0.1	2199.4
23069	14.029	1.6364	0.1	2268.7
23070	14.121	1.7273	0.1	2244.5
23071	13.847	1.6364	0.1	2314.
23072	13.938	1.7273	0.1	2289.6
23073	13.664	1.6364	0.1	2359.5
23074	13.755	1.7273	0.1	2334.9
23075	13.481	1.6364	0.1	2405.1
23076	13.572	1.7273	0.1	2380.3
23077	13.298	1.6364	0.1	2450.8
23078	13.389	1.7273	0.1	2425.9
23079	13.115	1.6364	0.1	2496.7
23080	13.206	1.7273	0.1	2471.6
23081	12.932	1.6364	0.1	2542.8
23082	13.023	1.7273	0.1	2517.5
23083	12.749	1.6364	0.1	2589.2
23084	12.84	1.7273	0.1	2563.7
23085	12.566	1.6364	0.1	2635.8
23086	12.657	1.7273	0.1	2610.1
23087	12.383	1.6364	0.1	2682.8
23088	12.474	1.7273	0.1	2657.
23089	12.2	1.6364	0.1	2730.2
23090	12.291	1.7273	0.1	2704.3
23091	12.017	1.6364	0.1	2778.1
23092	12.109	1.7273	0.1	2752.1
23093	11.834	1.6364	0.1	2826.6
23094	11.926	1.7273	0.1	2800.7
23095	11.651	1.6364	0.1	2875.9
23096	11.743	1.7273	0.1	2850.2
23097	11.468	1.6364	0.1	2926.1
23098	11.56	1.7273	0.1	2900.7
23099	11.285	1.6364	0.1	2977.4
23100	11.377	1.7273	0.1	2952.7
23101	11.102	1.6364	0.1	3030.1
23102	11.194	1.7273	0.1	3006.4
23103	10.919	1.6364	0.1	3084.6
23104	11.011	1.7273	0.1	3062.4
23105	10.736	1.6364	0.1	3141.2
23106	10.828	1.7273	0.1	3121.1
23107	10.553	1.6364	0.1	3200.5
23108	10.645	1.7273	0.1	3183.4
23109	10.371	1.6364	0.1	3263.6
23110	10.462	1.7273	0.1	3250.3
23111	10.188	1.6364	0.1	3331.5
23112	10.279	1.7273	0.1	3323.2
23113	10.005	1.6364	0.1	3406.4
23114	10.096	1.7273	0.1	3404.5
23115	9.8217	1.6364	0.1	3491.6
23116	9.9132	1.7273	0.1	3497.2
23117	9.6388	1.6364	0.1	3592.3
23118	9.7302	1.7273	0.1	3606.5
23119	9.4558	1.6364	0.1	3717.3
23120	9.5473	1.7273	0.1	3740.3
23121	9.2729	1.6364	0.1	3880.9
23122	9.3643	1.7273	0.1	3911.6
23123	9.0899	1.6364	0.1	4108.6
23124	9.1814	1.7273	0.1	4141.9
23125	8.907	1.6364	0.1	4438.4
23126	8.9985	1.7273	0.1	4470.4
23127	8.724	1.6364	0.1	4946.5
23128	8.8155	1.7273	0.1	4960.
23129	8.5411	1.6364	0.1	5822.7
23130	8.6326	1.7273	0.1	5811.6
23131	8.4496	1.7273	0.1	7652.3
23132	8.3581	1.6364	0.1	5237.3
23133	23.726	1.8182	0.1	187.92
23134	23.817	1.9091	0.1	182.66
23135	23.909	1.8182	0.1	173.57
23136	23.543	1.8182	0.1	207.74
23137	23.634	1.9091	0.1	199.99
23138	23.36	1.8182	0.1	231.38
23139	23.451	1.9091	0.1	221.74
23140	23.177	1.8182	0.1	257.86
23141	23.268	1.9091	0.1	246.76
23142	22.994	1.8182	0.1	286.46
23143	23.085	1.9091	0.1	274.22
23144	22.811	1.8182	0.1	316.7
23145	22.902	1.9091	0.1	303.53
23146	22.628	1.8182	0.1	348.24
23147	22.719	1.9091	0.1	334.31
23148	22.445	1.8182	0.1	380.85
23149	22.536	1.9091	0.1	366.25
23150	22.262	1.8182	0.1	414.35
23151	22.353	1.9091	0.1	399.17
23152	22.079	1.8182	0.1	448.6
23153	22.171	1.9091	0.1	432.91
23154	21.896	1.8182	0.1	483.52
23155	21.988	1.9091	0.1	467.37
23156	21.713	1.8182	0.1	519.02
23157	21.805	1.9091	0.1	502.44
23158	21.53	1.8182	0.1	555.05
23159	21.622	1.9091	0.1	538.08
23160	21.347	1.8182	0.1	591.55
23161	21.439	1.9091	0.1	574.22
23162	21.164	1.8182	0.1	628.49
23163	21.256	1.9091	0.1	610.83
23164	20.981	1.8182	0.1	665.84
23165	21.073	1.9091	0.1	647.86
23166	20.798	1.8182	0.1	703.56
23167	20.89	1.9091	0.1	685.29
23168	20.616	1.8182	0.1	741.64
23169	20.707	1.9091	0.1	723.1
23170	20.433	1.8182	0.1	780.06
23171	20.524	1.9091	0.1	761.26
23172	20.25	1.8182	0.1	818.8
23173	20.341	1.9091	0.1	799.75
23174	20.067	1.8182	0.1	857.84
23175	20.158	1.9091	0.1	838.57
23176	19.884	1.8182	0.1	897.18
23177	19.975	1.9091	0.1	877.69
23178	19.701	1.8182	0.1	936.8
23179	19.792	1.9091	0.1	917.1
23180	19.518	1.8182	0.1	976.69
23181	19.609	1.9091	0.1	956.8
23182	19.335	1.8182	0.1	1016.8
23183	19.426	1.9091	0.1	996.77
23184	19.152	1.8182	0.1	1057.3
23185	19.243	1.9091	0.1	1037.
23186	18.969	1.8182	0.1	1097.9
23187	19.06	1.9091	0.1	1077.5
23188	18.786	1.8182	0.1	1138.8
23189	18.878	1.9091	0.1	1118.2
23190	18.603	1.8182	0.1	1179.9
23191	18.695	1.9091	0.1	1159.2
23192	18.42	1.8182	0.1	1221.3
23193	18.512	1.9091	0.1	1200.4
23194	18.237	1.8182	0.1	1262.9
23195	18.329	1.9091	0.1	1241.8
23196	18.054	1.8182	0.1	1304.6
23197	18.146	1.9091	0.1	1283.4
23198	17.871	1.8182	0.1	1346.6
23199	17.963	1.9091	0.1	1325.3
23200	17.688	1.8182	0.1	1388.8
23201	17.78	1.9091	0.1	1367.3
23202	17.505	1.8182	0.1	1431.2
23203	17.597	1.9091	0.1	1409.6
23204	17.322	1.8182	0.1	1473.8
23205	17.414	1.9091	0.1	1452.
23206	17.14	1.8182	0.1	1516.5
23207	17.231	1.9091	0.1	1494.7
23208	16.957	1.8182	0.1	1559.4
23209	17.048	1.9091	0.1	1537.5
23210	16.774	1.8182	0.1	1602.5
23211	16.865	1.9091	0.1	1580.4
23212	16.591	1.8182	0.1	1645.8
23213	16.682	1.9091	0.1	1623.6
23214	16.408	1.8182	0.1	1689.2
23215	16.499	1.9091	0.1	1666.9
23216	16.225	1.8182	0.1	1732.8
23217	16.316	1.9091	0.1	1710.3
23218	16.042	1.8182	0.1	1776.5
23219	16.133	1.9091	0.1	1753.9
23220	15.859	1.8182	0.1	1820.3
23221	15.95	1.9091	0.1	1797.7
23222	15.676	1.8182	0.1	1864.3
23223	15.767	1.9091	0.1	1841.5
23224	15.493	1.8182	0.1	1908.4
23225	15.584	1.9091	0.1	1885.5
23226	15.31	1.8182	0.1	1952.7
23227	15.402	1.9091	0.1	1929.6
23228	15.127	1.8182	0.1	1997.
23229	15.219	1.9091	0.1	1973.9
23230	14.944	1.8182	0.1	2041.5
23231	15.036	1.9091	0.1	2018.2
23232	14.761	1.8182	0.1	2086.1
23233	14.853	1.9091	0.1	2062.7
23234	14.578	1.8182	0.1	2130.8
23235	14.67	1.9091	0.1	2107.2
23236	14.395	1.8182	0.1	2175.5
23237	14.487	1.9091	0.1	2151.9
23238	14.212	1.8182	0.1	2220.4
23239	14.304	1.9091	0.1	2196.6
23240	14.029	1.8182	0.1	2265.4
23241	14.121	1.9091	0.1	2241.5
23242	13.847	1.8182	0.1	2310.5
23243	13.938	1.9091	0.1	2286.4
23244	13.664	1.8182	0.1	2355.7
23245	13.755	1.9091	0.1	2331.5
23246	13.481	1.8182	0.1	2401.1
23247	13.572	1.9091	0.1	2376.7
23248	13.298	1.8182	0.1	2446.7
23249	13.389	1.9091	0.1	2422.
23250	13.115	1.8182	0.1	2492.4
23251	13.206	1.9091	0.1	2467.6
23252	12.932	1.8182	0.1	2538.4
23253	13.023	1.9091	0.1	2513.3
23254	12.749	1.8182	0.1	2584.7
23255	12.84	1.9091	0.1	2559.4
23256	12.566	1.8182	0.1	2631.3
23257	12.657	1.9091	0.1	2605.8
23258	12.383	1.8182	0.1	2678.5
23259	12.474	1.9091	0.1	2652.7
23260	12.2	1.8182	0.1	2726.2
23261	12.291	1.9091	0.1	2700.2
23262	12.017	1.8182	0.1	2774.8
23263	12.109	1.9091	0.1	2748.6
23264	11.834	1.8182	0.1	2824.3
23265	11.926	1.9091	0.1	2797.9
23266	11.651	1.8182	0.1	2875.1
23267	11.743	1.9091	0.1	2848.5
23268	11.468	1.8182	0.1	2927.4
23269	11.56	1.9091	0.1	2900.8
23270	11.285	1.8182	0.1	2981.8
23271	11.377	1.9091	0.1	2955.2
23272	11.102	1.8182	0.1	3038.7
23273	11.194	1.9091	0.1	3012.4
23274	10.919	1.8182	0.1	3098.9
23275	11.011	1.9091	0.1	3073.
23276	10.736	1.8182	0.1	3163.3
23277	10.828	1.9091	0.1	3138.2
23278	10.553	1.8182	0.1	3233.
23279	10.645	1.9091	0.1	3209.2
23280	10.371	1.8182	0.1	3309.8
23281	10.462	1.9091	0.1	3287.7
23282	10.188	1.8182	0.1	3395.8
23283	10.279	1.9091	0.1	3376.
23284	10.005	1.8182	0.1	3494.5
23285	10.096	1.9091	0.1	3477.5
23286	9.8217	1.8182	0.1	3610.7
23287	9.9132	1.9091	0.1	3596.7
23288	9.6388	1.8182	0.1	3752.
23289	9.7302	1.9091	0.1	3740.6
23290	9.4558	1.8182	0.1	3930.4
23291	9.5473	1.9091	0.1	3919.6
23292	9.2729	1.8182	0.1	4165.7
23293	9.3643	1.9091	0.1	4150.5
23294	9.0899	1.8182	0.1	4492.7
23295	9.1814	1.9091	0.1	4460.6
23296	8.907	1.8182	0.1	4974.4
23297	8.9985	1.9091	0.1	4901.5
23298	8.724	1.8182	0.1	5787.3
23299	8.8155	1.9091	0.1	5565.7
23300	8.5411	1.8182	0.1	7499.1
23301	8.6326	1.9091	0.1	6731.2
23302	8.4496	1.9091	0.1	9680.8
23303	8.3581	1.8182	0.1	7554.
23304	23.726	2.	0.1	193.55
23305	23.817	2.0909	0.1	187.84
23306	23.909	2.	0.1	179.41
23307	23.543	2.	0.1	213.16
23308	23.634	2.0909	0.1	205.03
23309	23.36	2.	0.1	236.54
23310	23.451	2.0909	0.1	226.57
23311	23.177	2.	0.1	262.73
23312	23.268	2.0909	0.1	251.35
23313	22.994	2.	0.1	291.04
23314	23.085	2.0909	0.1	278.55
23315	22.811	2.	0.1	320.97
23316	22.902	2.0909	0.1	307.6
23317	22.628	2.	0.1	352.21
23318	22.719	2.0909	0.1	338.1
23319	22.445	2.	0.1	384.51
23320	22.536	2.0909	0.1	369.77
23321	22.262	2.	0.1	417.71
23322	22.353	2.0909	0.1	402.42
23323	22.079	2.	0.1	451.67
23324	22.171	2.0909	0.1	435.88
23325	21.896	2.	0.1	486.29
23326	21.988	2.0909	0.1	470.07
23327	21.713	2.	0.1	521.52
23328	21.805	2.0909	0.1	504.89
23329	21.53	2.	0.1	557.28
23330	21.622	2.0909	0.1	540.28
23331	21.347	2.	0.1	593.53
23332	21.439	2.0909	0.1	576.18
23333	21.164	2.	0.1	630.23
23334	21.256	2.0909	0.1	612.56
23335	20.981	2.	0.1	667.36
23336	21.073	2.0909	0.1	649.38
23337	20.798	2.	0.1	704.88
23338	20.89	2.0909	0.1	686.62
23339	20.616	2.	0.1	742.76
23340	20.707	2.0909	0.1	724.24
23341	20.433	2.	0.1	781.
23342	20.524	2.0909	0.1	762.23
23343	20.25	2.	0.1	819.57
23344	20.341	2.0909	0.1	800.56
23345	20.067	2.	0.1	858.47
23346	20.158	2.0909	0.1	839.23
23347	19.884	2.	0.1	897.66
23348	19.975	2.0909	0.1	878.22
23349	19.701	2.	0.1	937.15
23350	19.792	2.0909	0.1	917.5
23351	19.518	2.	0.1	976.92
23352	19.609	2.0909	0.1	957.08
23353	19.335	2.	0.1	1017.
23354	19.426	2.0909	0.1	996.94
23355	19.152	2.	0.1	1057.3
23356	19.243	2.0909	0.1	1037.1
23357	18.969	2.	0.1	1097.8
23358	19.06	2.0909	0.1	1077.5
23359	18.786	2.	0.1	1138.6
23360	18.878	2.0909	0.1	1118.1
23361	18.603	2.	0.1	1179.7
23362	18.695	2.0909	0.1	1159.
23363	18.42	2.	0.1	1220.9
23364	18.512	2.0909	0.1	1200.1
23365	18.237	2.	0.1	1262.4
23366	18.329	2.0909	0.1	1241.4
23367	18.054	2.	0.1	1304.1
23368	18.146	2.0909	0.1	1283.
23369	17.871	2.	0.1	1346.
23370	17.963	2.0909	0.1	1324.8
23371	17.688	2.	0.1	1388.2
23372	17.78	2.0909	0.1	1366.8
23373	17.505	2.	0.1	1430.5
23374	17.597	2.0909	0.1	1409.
23375	17.322	2.	0.1	1473.
23376	17.414	2.0909	0.1	1451.3
23377	17.14	2.	0.1	1515.6
23378	17.231	2.0909	0.1	1493.9
23379	16.957	2.	0.1	1558.5
23380	17.048	2.0909	0.1	1536.6
23381	16.774	2.	0.1	1601.5
23382	16.865	2.0909	0.1	1579.5
23383	16.591	2.	0.1	1644.7
23384	16.682	2.0909	0.1	1622.6
23385	16.408	2.	0.1	1688.
23386	16.499	2.0909	0.1	1665.8
23387	16.225	2.	0.1	1731.5
23388	16.316	2.0909	0.1	1709.2
23389	16.042	2.	0.1	1775.1
23390	16.133	2.0909	0.1	1752.7
23391	15.859	2.	0.1	1818.9
23392	15.95	2.0909	0.1	1796.3
23393	15.676	2.	0.1	1862.8
23394	15.767	2.0909	0.1	1840.1
23395	15.493	2.	0.1	1906.8
23396	15.584	2.0909	0.1	1884.
23397	15.31	2.	0.1	1950.9
23398	15.402	2.0909	0.1	1928.
23399	15.127	2.	0.1	1995.1
23400	15.219	2.0909	0.1	1972.1
23401	14.944	2.	0.1	2039.4
23402	15.036	2.0909	0.1	2016.4
23403	14.761	2.	0.1	2083.8
23404	14.853	2.0909	0.1	2060.7
23405	14.578	2.	0.1	2128.4
23406	14.67	2.0909	0.1	2105.1
23407	14.395	2.	0.1	2173.
23408	14.487	2.0909	0.1	2149.6
23409	14.212	2.	0.1	2217.7
23410	14.304	2.0909	0.1	2194.1
23411	14.029	2.	0.1	2262.5
23412	14.121	2.0909	0.1	2238.8
23413	13.847	2.	0.1	2307.4
23414	13.938	2.0909	0.1	2283.6
23415	13.664	2.	0.1	2352.4
23416	13.755	2.0909	0.1	2328.5
23417	13.481	2.	0.1	2397.6
23418	13.572	2.0909	0.1	2373.5
23419	13.298	2.	0.1	2442.9
23420	13.389	2.0909	0.1	2418.6
23421	13.115	2.	0.1	2488.5
23422	13.206	2.0909	0.1	2464.
23423	12.932	2.	0.1	2534.4
23424	13.023	2.0909	0.1	2509.6
23425	12.749	2.	0.1	2580.6
23426	12.84	2.0909	0.1	2555.5
23427	12.566	2.	0.1	2627.2
23428	12.657	2.0909	0.1	2601.9
23429	12.383	2.	0.1	2674.5
23430	12.474	2.0909	0.1	2648.9
23431	12.2	2.	0.1	2722.6
23432	12.291	2.0909	0.1	2696.6
23433	12.017	2.	0.1	2771.7
23434	12.109	2.0909	0.1	2745.3
23435	11.834	2.	0.1	2822.1
23436	11.926	2.0909	0.1	2795.2
23437	11.651	2.	0.1	2874.2
23438	11.743	2.0909	0.1	2846.9
23439	11.468	2.	0.1	2928.6
23440	11.56	2.0909	0.1	2900.7
23441	11.285	2.	0.1	2985.8
23442	11.377	2.0909	0.1	2957.4
23443	11.102	2.	0.1	3046.7
23444	11.194	2.0909	0.1	3017.7
23445	10.919	2.	0.1	3112.3
23446	11.011	2.0909	0.1	3082.8
23447	10.736	2.	0.1	3184.1
23448	10.828	2.0909	0.1	3154.
23449	10.553	2.	0.1	3263.8
23450	10.645	2.0909	0.1	3233.1
23451	10.371	2.	0.1	3353.8
23452	10.462	2.0909	0.1	3322.6
23453	10.188	2.	0.1	3457.4
23454	10.279	2.0909	0.1	3425.6
23455	10.005	2.	0.1	3579.1
23456	10.096	2.0909	0.1	3546.4
23457	9.8217	2.	0.1	3725.5
23458	9.9132	2.0909	0.1	3691.1
23459	9.6388	2.	0.1	3906.3
23460	9.7302	2.0909	0.1	3868.2
23461	9.4558	2.	0.1	4136.5
23462	9.5473	2.0909	0.1	4090.6
23463	9.2729	2.	0.1	4440.5
23464	9.3643	2.0909	0.1	4378.4
23465	9.0899	2.	0.1	4862.6
23466	9.1814	2.0909	0.1	4763.6
23467	8.907	2.	0.1	5484.2
23468	8.9985	2.0909	0.1	5307.6
23469	8.724	2.	0.1	6508.9
23470	8.8155	2.0909	0.1	6116.1
23471	8.5411	2.	0.1	8930.3
23472	8.6326	2.0909	0.1	7507.2
23473	8.4496	2.0909	0.1	10568
23474	8.3581	2.	0.1	15685
23475	23.726	2.1818	0.1	198.16
23476	23.817	2.2727	0.1	192.01
23477	23.909	2.1818	0.1	184.19
23478	23.543	2.1818	0.1	217.61
23479	23.634	2.2727	0.1	209.1
23480	23.36	2.1818	0.1	240.79
23481	23.451	2.2727	0.1	230.47
23482	23.177	2.1818	0.1	266.76
23483	23.268	2.2727	0.1	255.06
23484	22.994	2.1818	0.1	294.83
23485	23.085	2.2727	0.1	282.06
23486	22.811	2.1818	0.1	324.54
23487	22.902	2.2727	0.1	310.91
23488	22.628	2.1818	0.1	355.54
23489	22.719	2.2727	0.1	341.21
23490	22.445	2.1818	0.1	387.6
23491	22.536	2.2727	0.1	372.67
23492	22.262	2.1818	0.1	420.55
23493	22.353	2.2727	0.1	405.1
23494	22.079	2.1818	0.1	454.27
23495	22.171	2.2727	0.1	438.35
23496	21.896	2.1818	0.1	488.66
23497	21.988	2.2727	0.1	472.32
23498	21.713	2.1818	0.1	523.66
23499	21.805	2.2727	0.1	506.94
23500	21.53	2.1818	0.1	559.2
23501	21.622	2.2727	0.1	542.12
23502	21.347	2.1818	0.1	595.24
23503	21.439	2.2727	0.1	577.84
23504	21.164	2.1818	0.1	631.75
23505	21.256	2.2727	0.1	614.03
23506	20.981	2.1818	0.1	668.69
23507	21.073	2.2727	0.1	650.68
23508	20.798	2.1818	0.1	706.03
23509	20.89	2.2727	0.1	687.75
23510	20.616	2.1818	0.1	743.75
23511	20.707	2.2727	0.1	725.22
23512	20.433	2.1818	0.1	781.84
23513	20.524	2.2727	0.1	763.07
23514	20.25	2.1818	0.1	820.27
23515	20.341	2.2727	0.1	801.27
23516	20.067	2.1818	0.1	859.03
23517	20.158	2.2727	0.1	839.81
23518	19.884	2.1818	0.1	898.11
23519	19.975	2.2727	0.1	878.68
23520	19.701	2.1818	0.1	937.48
23521	19.792	2.2727	0.1	917.86
23522	19.518	2.1818	0.1	977.15
23523	19.609	2.2727	0.1	957.34
23524	19.335	2.1818	0.1	1017.1
23525	19.426	2.2727	0.1	997.11
23526	19.152	2.1818	0.1	1057.3
23527	19.243	2.2727	0.1	1037.2
23528	18.969	2.1818	0.1	1097.8
23529	19.06	2.2727	0.1	1077.5
23530	18.786	2.1818	0.1	1138.5
23531	18.878	2.2727	0.1	1118.
23532	18.603	2.1818	0.1	1179.5
23533	18.695	2.2727	0.1	1158.8
23534	18.42	2.1818	0.1	1220.7
23535	18.512	2.2727	0.1	1199.9
23536	18.237	2.1818	0.1	1262.1
23537	18.329	2.2727	0.1	1241.2
23538	18.054	2.1818	0.1	1303.7
23539	18.146	2.2727	0.1	1282.7
23540	17.871	2.1818	0.1	1345.6
23541	17.963	2.2727	0.1	1324.4
23542	17.688	2.1818	0.1	1387.6
23543	17.78	2.2727	0.1	1366.3
23544	17.505	2.1818	0.1	1429.9
23545	17.597	2.2727	0.1	1408.4
23546	17.322	2.1818	0.1	1472.3
23547	17.414	2.2727	0.1	1450.8
23548	17.14	2.1818	0.1	1514.9
23549	17.231	2.2727	0.1	1493.3
23550	16.957	2.1818	0.1	1557.7
23551	17.048	2.2727	0.1	1535.9
23552	16.774	2.1818	0.1	1600.6
23553	16.865	2.2727	0.1	1578.8
23554	16.591	2.1818	0.1	1643.8
23555	16.682	2.2727	0.1	1621.8
23556	16.408	2.1818	0.1	1687.
23557	16.499	2.2727	0.1	1664.9
23558	16.225	2.1818	0.1	1730.4
23559	16.316	2.2727	0.1	1708.2
23560	16.042	2.1818	0.1	1774.
23561	16.133	2.2727	0.1	1751.7
23562	15.859	2.1818	0.1	1817.6
23563	15.95	2.2727	0.1	1795.3
23564	15.676	2.1818	0.1	1861.4
23565	15.767	2.2727	0.1	1839.
23566	15.493	2.1818	0.1	1905.3
23567	15.584	2.2727	0.1	1882.8
23568	15.31	2.1818	0.1	1949.3
23569	15.402	2.2727	0.1	1926.7
23570	15.127	2.1818	0.1	1993.4
23571	15.219	2.2727	0.1	1970.7
23572	14.944	2.1818	0.1	2037.6
23573	15.036	2.2727	0.1	2014.8
23574	14.761	2.1818	0.1	2081.9
23575	14.853	2.2727	0.1	2059.
23576	14.578	2.1818	0.1	2126.3
23577	14.67	2.2727	0.1	2103.3
23578	14.395	2.1818	0.1	2170.8
23579	14.487	2.2727	0.1	2147.6
23580	14.212	2.1818	0.1	2215.3
23581	14.304	2.2727	0.1	2192.1
23582	14.029	2.1818	0.1	2259.9
23583	14.121	2.2727	0.1	2236.6
23584	13.847	2.1818	0.1	2304.7
23585	13.938	2.2727	0.1	2281.2
23586	13.664	2.1818	0.1	2349.5
23587	13.755	2.2727	0.1	2325.9
23588	13.481	2.1818	0.1	2394.5
23589	13.572	2.2727	0.1	2370.7
23590	13.298	2.1818	0.1	2439.7
23591	13.389	2.2727	0.1	2415.7
23592	13.115	2.1818	0.1	2485.1
23593	13.206	2.2727	0.1	2460.9
23594	12.932	2.1818	0.1	2530.8
23595	13.023	2.2727	0.1	2506.4
23596	12.749	2.1818	0.1	2576.9
23597	12.84	2.2727	0.1	2552.2
23598	12.566	2.1818	0.1	2623.6
23599	12.657	2.2727	0.1	2598.6
23600	12.383	2.1818	0.1	2671.
23601	12.474	2.2727	0.1	2645.6
23602	12.2	2.1818	0.1	2719.3
23603	12.291	2.2727	0.1	2693.4
23604	12.017	2.1818	0.1	2768.9
23605	12.109	2.2727	0.1	2742.4
23606	11.834	2.1818	0.1	2820.1
23607	11.926	2.2727	0.1	2792.9
23608	11.651	2.1818	0.1	2873.4
23609	11.743	2.2727	0.1	2845.5
23610	11.468	2.1818	0.1	2929.5
23611	11.56	2.2727	0.1	2900.6
23612	11.285	2.1818	0.1	2989.3
23613	11.377	2.2727	0.1	2959.3
23614	11.102	2.1818	0.1	3053.8
23615	11.194	2.2727	0.1	3022.4
23616	10.919	2.1818	0.1	3124.4
23617	11.011	2.2727	0.1	3091.3
23618	10.736	2.1818	0.1	3203.
23619	10.828	2.2727	0.1	3167.9
23620	10.553	2.1818	0.1	3291.9
23621	10.645	2.2727	0.1	3254.5
23622	10.371	2.1818	0.1	3394.3
23623	10.462	2.2727	0.1	3353.9
23624	10.188	2.1818	0.1	3514.4
23625	10.279	2.2727	0.1	3470.3
23626	10.005	2.1818	0.1	3657.9
23627	10.096	2.2727	0.1	3608.9
23628	9.8217	2.1818	0.1	3833.
23629	9.9132	2.2727	0.1	3777.1
23630	9.6388	2.1818	0.1	4051.2
23631	9.7302	2.2727	0.1	3985.1
23632	9.4558	2.1818	0.1	4330.5
23633	9.5473	2.2727	0.1	4247.7
23634	9.2729	2.1818	0.1	4698.6
23635	9.3643	2.2727	0.1	4587.2
23636	9.0899	2.1818	0.1	5205.5
23637	9.1814	2.2727	0.1	5038.6
23638	8.907	2.1818	0.1	5938.3
23639	8.9985	2.2727	0.1	5662.8
23640	8.724	2.1818	0.1	7126.6
23641	8.8155	2.2727	0.1	6564.6
23642	8.5411	2.1818	0.1	9273.7
23643	8.6326	2.2727	0.1	7987.4
23644	8.4496	2.2727	0.1	10335
23645	8.3581	2.1818	0.1	12513
23646	23.726	2.3636	0.1	201.8
23647	23.817	2.4545	0.1	195.22
23648	23.909	2.3636	0.1	187.95
23649	23.543	2.3636	0.1	221.13
23650	23.634	2.4545	0.1	212.23
23651	23.36	2.3636	0.1	244.15
23652	23.451	2.4545	0.1	233.48
23653	23.177	2.3636	0.1	269.95
23654	23.268	2.4545	0.1	257.93
23655	22.994	2.3636	0.1	297.85
23656	23.085	2.4545	0.1	284.78
23657	22.811	2.3636	0.1	327.38
23658	22.902	2.4545	0.1	313.48
23659	22.628	2.3636	0.1	358.2
23660	22.719	2.4545	0.1	343.62
23661	22.445	2.3636	0.1	390.08
23662	22.536	2.4545	0.1	374.92
23663	22.262	2.3636	0.1	422.84
23664	22.353	2.4545	0.1	407.19
23665	22.079	2.3636	0.1	456.38
23666	22.171	2.4545	0.1	440.29
23667	21.896	2.3636	0.1	490.59
23668	21.988	2.4545	0.1	474.1
23669	21.713	2.3636	0.1	525.41
23670	21.805	2.4545	0.1	508.56
23671	21.53	2.3636	0.1	560.78
23672	21.622	2.4545	0.1	543.59
23673	21.347	2.3636	0.1	596.65
23674	21.439	2.4545	0.1	579.15
23675	21.164	2.3636	0.1	633.
23676	21.256	2.4545	0.1	615.21
23677	20.981	2.3636	0.1	669.79
23678	21.073	2.4545	0.1	651.72
23679	20.798	2.3636	0.1	706.99
23680	20.89	2.4545	0.1	688.67
23681	20.616	2.3636	0.1	744.58
23682	20.707	2.4545	0.1	726.01
23683	20.433	2.3636	0.1	782.54
23684	20.524	2.4545	0.1	763.75
23685	20.25	2.3636	0.1	820.86
23686	20.341	2.4545	0.1	801.85
23687	20.067	2.3636	0.1	859.51
23688	20.158	2.4545	0.1	840.29
23689	19.884	2.3636	0.1	898.49
23690	19.975	2.4545	0.1	879.07
23691	19.701	2.3636	0.1	937.77
23692	19.792	2.4545	0.1	918.16
23693	19.518	2.3636	0.1	977.35
23694	19.609	2.4545	0.1	957.57
23695	19.335	2.3636	0.1	1017.2
23696	19.426	2.4545	0.1	997.26
23697	19.152	2.3636	0.1	1057.4
23698	19.243	2.4545	0.1	1037.2
23699	18.969	2.3636	0.1	1097.8
23700	19.06	2.4545	0.1	1077.5
23701	18.786	2.3636	0.1	1138.4
23702	18.878	2.4545	0.1	1118.
23703	18.603	2.3636	0.1	1179.3
23704	18.695	2.4545	0.1	1158.7
23705	18.42	2.3636	0.1	1220.5
23706	18.512	2.4545	0.1	1199.7
23707	18.237	2.3636	0.1	1261.8
23708	18.329	2.4545	0.1	1241.
23709	18.054	2.3636	0.1	1303.4
23710	18.146	2.4545	0.1	1282.4
23711	17.871	2.3636	0.1	1345.2
23712	17.963	2.4545	0.1	1324.1
23713	17.688	2.3636	0.1	1387.2
23714	17.78	2.4545	0.1	1366.
23715	17.505	2.3636	0.1	1429.4
23716	17.597	2.4545	0.1	1408.1
23717	17.322	2.3636	0.1	1471.8
23718	17.414	2.4545	0.1	1450.3
23719	17.14	2.3636	0.1	1514.3
23720	17.231	2.4545	0.1	1492.8
23721	16.957	2.3636	0.1	1557.1
23722	17.048	2.4545	0.1	1535.4
23723	16.774	2.3636	0.1	1600.
23724	16.865	2.4545	0.1	1578.2
23725	16.591	2.3636	0.1	1643.
23726	16.682	2.4545	0.1	1621.2
23727	16.408	2.3636	0.1	1686.2
23728	16.499	2.4545	0.1	1664.3
23729	16.225	2.3636	0.1	1729.5
23730	16.316	2.4545	0.1	1707.5
23731	16.042	2.3636	0.1	1773.
23732	16.133	2.4545	0.1	1750.9
23733	15.859	2.3636	0.1	1816.6
23734	15.95	2.4545	0.1	1794.4
23735	15.676	2.3636	0.1	1860.3
23736	15.767	2.4545	0.1	1838.
23737	15.493	2.3636	0.1	1904.2
23738	15.584	2.4545	0.1	1881.8
23739	15.31	2.3636	0.1	1948.1
23740	15.402	2.4545	0.1	1925.6
23741	15.127	2.3636	0.1	1992.1
23742	15.219	2.4545	0.1	1969.6
23743	14.944	2.3636	0.1	2036.2
23744	15.036	2.4545	0.1	2013.6
23745	14.761	2.3636	0.1	2080.4
23746	14.853	2.4545	0.1	2057.7
23747	14.578	2.3636	0.1	2124.6
23748	14.67	2.4545	0.1	2101.9
23749	14.395	2.3636	0.1	2169.
23750	14.487	2.4545	0.1	2146.1
23751	14.212	2.3636	0.1	2213.4
23752	14.304	2.4545	0.1	2190.4
23753	14.029	2.3636	0.1	2257.9
23754	14.121	2.4545	0.1	2234.8
23755	13.847	2.3636	0.1	2302.4
23756	13.938	2.4545	0.1	2279.3
23757	13.664	2.3636	0.1	2347.1
23758	13.755	2.4545	0.1	2323.9
23759	13.481	2.3636	0.1	2392.
23760	13.572	2.4545	0.1	2368.5
23761	13.298	2.3636	0.1	2437.
23762	13.389	2.4545	0.1	2413.4
23763	13.115	2.3636	0.1	2482.3
23764	13.206	2.4545	0.1	2458.5
23765	12.932	2.3636	0.1	2527.9
23766	13.023	2.4545	0.1	2503.8
23767	12.749	2.3636	0.1	2573.9
23768	12.84	2.4545	0.1	2549.6
23769	12.566	2.3636	0.1	2620.5
23770	12.657	2.4545	0.1	2595.9
23771	12.383	2.3636	0.1	2668.
23772	12.474	2.4545	0.1	2642.8
23773	12.2	2.3636	0.1	2716.5
23774	12.291	2.4545	0.1	2690.8
23775	12.017	2.3636	0.1	2766.5
23776	12.109	2.4545	0.1	2740.1
23777	11.834	2.3636	0.1	2818.3
23778	11.926	2.4545	0.1	2791.
23779	11.651	2.3636	0.1	2872.7
23780	11.743	2.4545	0.1	2844.3
23781	11.468	2.3636	0.1	2930.4
23782	11.56	2.4545	0.1	2900.5
23783	11.285	2.3636	0.1	2992.3
23784	11.377	2.4545	0.1	2960.8
23785	11.102	2.3636	0.1	3059.9
23786	11.194	2.4545	0.1	3026.2
23787	10.919	2.3636	0.1	3134.9
23788	11.011	2.4545	0.1	3098.5
23789	10.736	2.3636	0.1	3219.4
23790	10.828	2.4545	0.1	3179.6
23791	10.553	2.3636	0.1	3316.5
23792	10.645	2.4545	0.1	3272.4
23793	10.371	2.3636	0.1	3429.9
23794	10.462	2.4545	0.1	3380.4
23795	10.188	2.3636	0.1	3564.7
23796	10.279	2.4545	0.1	3508.2
23797	10.005	2.3636	0.1	3727.9
23798	10.096	2.4545	0.1	3662.2
23799	9.8217	2.3636	0.1	3928.8
23800	9.9132	2.4545	0.1	3850.8
23801	9.6388	2.3636	0.1	4180.9
23802	9.7302	2.4545	0.1	4085.6
23803	9.4558	2.3636	0.1	4503.6
23804	9.5473	2.4545	0.1	4382.6
23805	9.2729	2.3636	0.1	4926.4
23806	9.3643	2.4545	0.1	4765.
23807	9.0899	2.3636	0.1	5496.6
23808	9.1814	2.4545	0.1	5266.8
23809	8.907	2.3636	0.1	6295.4
23810	8.9985	2.4545	0.1	5938.5
23811	8.724	2.3636	0.1	7451.
23812	8.8155	2.4545	0.1	6857.4
23813	8.5411	2.3636	0.1	9115.7
23814	8.6326	2.4545	0.1	8114.2
23815	8.4496	2.4545	0.1	9721.4
23816	8.3581	2.3636	0.1	10834
23817	23.726	2.5455	0.1	204.5
23818	23.817	2.6364	0.1	197.49
23819	23.909	2.5455	0.1	190.75
23820	23.543	2.5455	0.1	223.75
23821	23.634	2.6364	0.1	214.45
23822	23.36	2.5455	0.1	246.66
23823	23.451	2.6364	0.1	235.61
23824	23.177	2.5455	0.1	272.33
23825	23.268	2.6364	0.1	259.96
23826	22.994	2.5455	0.1	300.11
23827	23.085	2.6364	0.1	286.71
23828	22.811	2.5455	0.1	329.51
23829	22.902	2.6364	0.1	315.31
23830	22.628	2.5455	0.1	360.2
23831	22.719	2.6364	0.1	345.34
23832	22.445	2.5455	0.1	391.94
23833	22.536	2.6364	0.1	376.54
23834	22.262	2.5455	0.1	424.58
23835	22.353	2.6364	0.1	408.7
23836	22.079	2.5455	0.1	457.98
23837	22.171	2.6364	0.1	441.68
23838	21.896	2.5455	0.1	492.05
23839	21.988	2.6364	0.1	475.38
23840	21.713	2.5455	0.1	526.74
23841	21.805	2.6364	0.1	509.73
23842	21.53	2.5455	0.1	561.98
23843	21.622	2.6364	0.1	544.65
23844	21.347	2.5455	0.1	597.73
23845	21.439	2.6364	0.1	580.11
23846	21.164	2.5455	0.1	633.96
23847	21.256	2.6364	0.1	616.07
23848	20.981	2.5455	0.1	670.64
23849	21.073	2.6364	0.1	652.48
23850	20.798	2.5455	0.1	707.73
23851	20.89	2.6364	0.1	689.33
23852	20.616	2.5455	0.1	745.22
23853	20.707	2.6364	0.1	726.6
23854	20.433	2.5455	0.1	783.09
23855	20.524	2.6364	0.1	764.25
23856	20.25	2.5455	0.1	821.32
23857	20.341	2.6364	0.1	802.27
23858	20.067	2.5455	0.1	859.89
23859	20.158	2.6364	0.1	840.64
23860	19.884	2.5455	0.1	898.79
23861	19.975	2.6364	0.1	879.36
23862	19.701	2.5455	0.1	938.01
23863	19.792	2.6364	0.1	918.39
23864	19.518	2.5455	0.1	977.52
23865	19.609	2.6364	0.1	957.73
23866	19.335	2.5455	0.1	1017.3
23867	19.426	2.6364	0.1	997.38
23868	19.152	2.5455	0.1	1057.4
23869	19.243	2.6364	0.1	1037.3
23870	18.969	2.5455	0.1	1097.8
23871	19.06	2.6364	0.1	1077.5
23872	18.786	2.5455	0.1	1138.4
23873	18.878	2.6364	0.1	1118.
23874	18.603	2.5455	0.1	1179.2
23875	18.695	2.6364	0.1	1158.7
23876	18.42	2.5455	0.1	1220.3
23877	18.512	2.6364	0.1	1199.6
23878	18.237	2.5455	0.1	1261.6
23879	18.329	2.6364	0.1	1240.8
23880	18.054	2.5455	0.1	1303.2
23881	18.146	2.6364	0.1	1282.2
23882	17.871	2.5455	0.1	1344.9
23883	17.963	2.6364	0.1	1323.9
23884	17.688	2.5455	0.1	1386.9
23885	17.78	2.6364	0.1	1365.7
23886	17.505	2.5455	0.1	1429.
23887	17.597	2.6364	0.1	1407.8
23888	17.322	2.5455	0.1	1471.4
23889	17.414	2.6364	0.1	1450.
23890	17.14	2.5455	0.1	1513.9
23891	17.231	2.6364	0.1	1492.4
23892	16.957	2.5455	0.1	1556.6
23893	17.048	2.6364	0.1	1535.
23894	16.774	2.5455	0.1	1599.4
23895	16.865	2.6364	0.1	1577.8
23896	16.591	2.5455	0.1	1642.4
23897	16.682	2.6364	0.1	1620.7
23898	16.408	2.5455	0.1	1685.6
23899	16.499	2.6364	0.1	1663.8
23900	16.225	2.5455	0.1	1728.9
23901	16.316	2.6364	0.1	1707.
23902	16.042	2.5455	0.1	1772.3
23903	16.133	2.6364	0.1	1750.3
23904	15.859	2.5455	0.1	1815.9
23905	15.95	2.6364	0.1	1793.8
23906	15.676	2.5455	0.1	1859.5
23907	15.767	2.6364	0.1	1837.4
23908	15.493	2.5455	0.1	1903.3
23909	15.584	2.6364	0.1	1881.1
23910	15.31	2.5455	0.1	1947.1
23911	15.402	2.6364	0.1	1924.9
23912	15.127	2.5455	0.1	1991.1
23913	15.219	2.6364	0.1	1968.7
23914	14.944	2.5455	0.1	2035.1
23915	15.036	2.6364	0.1	2012.7
23916	14.761	2.5455	0.1	2079.2
23917	14.853	2.6364	0.1	2056.7
23918	14.578	2.5455	0.1	2123.3
23919	14.67	2.6364	0.1	2100.8
23920	14.395	2.5455	0.1	2167.6
23921	14.487	2.6364	0.1	2145.
23922	14.212	2.5455	0.1	2211.9
23923	14.304	2.6364	0.1	2189.2
23924	14.029	2.5455	0.1	2256.3
23925	14.121	2.6364	0.1	2233.5
23926	13.847	2.5455	0.1	2300.7
23927	13.938	2.6364	0.1	2277.9
23928	13.664	2.5455	0.1	2345.3
23929	13.755	2.6364	0.1	2322.4
23930	13.481	2.5455	0.1	2390.
23931	13.572	2.6364	0.1	2367.
23932	13.298	2.5455	0.1	2434.9
23933	13.389	2.6364	0.1	2411.7
23934	13.115	2.5455	0.1	2480.1
23935	13.206	2.6364	0.1	2456.7
23936	12.932	2.5455	0.1	2525.6
23937	13.023	2.6364	0.1	2501.9
23938	12.749	2.5455	0.1	2571.5
23939	12.84	2.6364	0.1	2547.6
23940	12.566	2.5455	0.1	2618.2
23941	12.657	2.6364	0.1	2593.8
23942	12.383	2.5455	0.1	2665.7
23943	12.474	2.6364	0.1	2640.8
23944	12.2	2.5455	0.1	2714.3
23945	12.291	2.6364	0.1	2688.9
23946	12.017	2.5455	0.1	2764.6
23947	12.109	2.6364	0.1	2738.3
23948	11.834	2.5455	0.1	2817.
23949	11.926	2.6364	0.1	2789.6
23950	11.651	2.5455	0.1	2872.1
23951	11.743	2.6364	0.1	2843.4
23952	11.468	2.5455	0.1	2931.
23953	11.56	2.6364	0.1	2900.5
23954	11.285	2.5455	0.1	2994.7
23955	11.377	2.6364	0.1	2961.9
23956	11.102	2.5455	0.1	3064.8
23957	11.194	2.6364	0.1	3029.1
23958	10.919	2.5455	0.1	3143.2
23959	11.011	2.6364	0.1	3103.8
23960	10.736	2.5455	0.1	3232.6
23961	10.828	2.6364	0.1	3188.5
23962	10.553	2.5455	0.1	3336.3
23963	10.645	2.6364	0.1	3286.
23964	10.371	2.5455	0.1	3458.7
23965	10.462	2.6364	0.1	3400.5
23966	10.188	2.5455	0.1	3605.7
23967	10.279	2.6364	0.1	3537.3
23968	10.005	2.5455	0.1	3785.2
23969	10.096	2.6364	0.1	3703.3
23970	9.8217	2.5455	0.1	4007.6
23971	9.9132	2.6364	0.1	3907.8
23972	9.6388	2.5455	0.1	4287.5
23973	9.7302	2.6364	0.1	4163.3
23974	9.4558	2.5455	0.1	4644.7
23975	9.5473	2.6364	0.1	4486.6
23976	9.2729	2.5455	0.1	5107.1
23977	9.3643	2.6364	0.1	4900.1
23978	9.0899	2.5455	0.1	5713.3
23979	9.1814	2.6364	0.1	5433.2
23980	8.907	2.5455	0.1	6512.
23981	8.9985	2.6364	0.1	6121.6
23982	8.724	2.5455	0.1	7544.4
23983	8.8155	2.6364	0.1	6998.5
23984	8.5411	2.5455	0.1	8745.5
23985	8.6326	2.6364	0.1	8060.1
23986	8.4496	2.6364	0.1	9152.1
23987	8.3581	2.5455	0.1	9801.8
23988	23.726	2.7273	0.1	206.29
23989	23.817	2.8182	0.1	198.84
23990	23.909	2.7273	0.1	192.6
23991	23.543	2.7273	0.1	225.48
23992	23.634	2.8182	0.1	215.78
23993	23.36	2.7273	0.1	248.31
23994	23.451	2.8182	0.1	236.88
23995	23.177	2.7273	0.1	273.91
23996	23.268	2.8182	0.1	261.18
23997	22.994	2.7273	0.1	301.61
23998	23.085	2.8182	0.1	287.87
23999	22.811	2.7273	0.1	330.93
24000	22.902	2.8182	0.1	316.4
24001	22.628	2.7273	0.1	361.53
24002	22.719	2.8182	0.1	346.37
24003	22.445	2.7273	0.1	393.19
24004	22.536	2.8182	0.1	377.51
24005	22.262	2.7273	0.1	425.74
24006	22.353	2.8182	0.1	409.6
24007	22.079	2.7273	0.1	459.05
24008	22.171	2.8182	0.1	442.52
24009	21.896	2.7273	0.1	493.04
24010	21.988	2.8182	0.1	476.16
24011	21.713	2.7273	0.1	527.64
24012	21.805	2.8182	0.1	510.44
24013	21.53	2.7273	0.1	562.79
24014	21.622	2.8182	0.1	545.3
24015	21.347	2.7273	0.1	598.46
24016	21.439	2.8182	0.1	580.69
24017	21.164	2.7273	0.1	634.61
24018	21.256	2.8182	0.1	616.59
24019	20.981	2.7273	0.1	671.21
24020	21.073	2.8182	0.1	652.94
24021	20.798	2.7273	0.1	708.23
24022	20.89	2.8182	0.1	689.74
24023	20.616	2.7273	0.1	745.66
24024	20.707	2.8182	0.1	726.95
24025	20.433	2.7273	0.1	783.47
24026	20.524	2.8182	0.1	764.55
24027	20.25	2.7273	0.1	821.64
24028	20.341	2.8182	0.1	802.53
24029	20.067	2.7273	0.1	860.15
24030	20.158	2.8182	0.1	840.86
24031	19.884	2.7273	0.1	899.
24032	19.975	2.8182	0.1	879.53
24033	19.701	2.7273	0.1	938.17
24034	19.792	2.8182	0.1	918.53
24035	19.518	2.7273	0.1	977.64
24036	19.609	2.8182	0.1	957.84
24037	19.335	2.7273	0.1	1017.4
24038	19.426	2.8182	0.1	997.45
24039	19.152	2.7273	0.1	1057.4
24040	19.243	2.8182	0.1	1037.3
24041	18.969	2.7273	0.1	1097.8
24042	19.06	2.8182	0.1	1077.5
24043	18.786	2.7273	0.1	1138.3
24044	18.878	2.8182	0.1	1118.
24045	18.603	2.7273	0.1	1179.1
24046	18.695	2.8182	0.1	1158.6
24047	18.42	2.7273	0.1	1220.2
24048	18.512	2.8182	0.1	1199.6
24049	18.237	2.7273	0.1	1261.5
24050	18.329	2.8182	0.1	1240.7
24051	18.054	2.7273	0.1	1303.
24052	18.146	2.8182	0.1	1282.1
24053	17.871	2.7273	0.1	1344.7
24054	17.963	2.8182	0.1	1323.8
24055	17.688	2.7273	0.1	1386.7
24056	17.78	2.8182	0.1	1365.6
24057	17.505	2.7273	0.1	1428.8
24058	17.597	2.8182	0.1	1407.6
24059	17.322	2.7273	0.1	1471.1
24060	17.414	2.8182	0.1	1449.8
24061	17.14	2.7273	0.1	1513.6
24062	17.231	2.8182	0.1	1492.2
24063	16.957	2.7273	0.1	1556.3
24064	17.048	2.8182	0.1	1534.8
24065	16.774	2.7273	0.1	1599.1
24066	16.865	2.8182	0.1	1577.5
24067	16.591	2.7273	0.1	1642.1
24068	16.682	2.8182	0.1	1620.4
24069	16.408	2.7273	0.1	1685.2
24070	16.499	2.8182	0.1	1663.5
24071	16.225	2.7273	0.1	1728.5
24072	16.316	2.8182	0.1	1706.7
24073	16.042	2.7273	0.1	1771.8
24074	16.133	2.8182	0.1	1750.
24075	15.859	2.7273	0.1	1815.4
24076	15.95	2.8182	0.1	1793.4
24077	15.676	2.7273	0.1	1859.
24078	15.767	2.8182	0.1	1837.
24079	15.493	2.7273	0.1	1902.7
24080	15.584	2.8182	0.1	1880.6
24081	15.31	2.7273	0.1	1946.5
24082	15.402	2.8182	0.1	1924.4
24083	15.127	2.7273	0.1	1990.4
24084	15.219	2.8182	0.1	1968.2
24085	14.944	2.7273	0.1	2034.3
24086	15.036	2.8182	0.1	2012.2
24087	14.761	2.7273	0.1	2078.4
24088	14.853	2.8182	0.1	2056.1
24089	14.578	2.7273	0.1	2122.5
24090	14.67	2.8182	0.1	2100.2
24091	14.395	2.7273	0.1	2166.6
24092	14.487	2.8182	0.1	2144.3
24093	14.212	2.7273	0.1	2210.9
24094	14.304	2.8182	0.1	2188.5
24095	14.029	2.7273	0.1	2255.2
24096	14.121	2.8182	0.1	2232.7
24097	13.847	2.7273	0.1	2299.6
24098	13.938	2.8182	0.1	2277.
24099	13.664	2.7273	0.1	2344.
24100	13.755	2.8182	0.1	2321.5
24101	13.481	2.7273	0.1	2388.7
24102	13.572	2.8182	0.1	2366.
24103	13.298	2.7273	0.1	2433.5
24104	13.389	2.8182	0.1	2410.7
24105	13.115	2.7273	0.1	2478.6
24106	13.206	2.8182	0.1	2455.6
24107	12.932	2.7273	0.1	2524.
24108	13.023	2.8182	0.1	2500.8
24109	12.749	2.7273	0.1	2569.9
24110	12.84	2.8182	0.1	2546.4
24111	12.566	2.7273	0.1	2616.5
24112	12.657	2.8182	0.1	2592.6
24113	12.383	2.7273	0.1	2664.1
24114	12.474	2.8182	0.1	2639.6
24115	12.2	2.7273	0.1	2712.8
24116	12.291	2.8182	0.1	2687.7
24117	12.017	2.7273	0.1	2763.3
24118	12.109	2.8182	0.1	2737.2
24119	11.834	2.7273	0.1	2816.
24120	11.926	2.8182	0.1	2788.7
24121	11.651	2.7273	0.1	2871.7
24122	11.743	2.8182	0.1	2842.8
24123	11.468	2.7273	0.1	2931.4
24124	11.56	2.8182	0.1	2900.4
24125	11.285	2.7273	0.1	2996.3
24126	11.377	2.8182	0.1	2962.6
24127	11.102	2.7273	0.1	3068.2
24128	11.194	2.8182	0.1	3030.9
24129	10.919	2.7273	0.1	3149.1
24130	11.011	2.8182	0.1	3107.2
24131	10.736	2.7273	0.1	3241.9
24132	10.828	2.8182	0.1	3194.
24133	10.553	2.7273	0.1	3350.3
24134	10.645	2.8182	0.1	3294.5
24135	10.371	2.7273	0.1	3479.2
24136	10.462	2.8182	0.1	3413.2
24137	10.188	2.7273	0.1	3634.9
24138	10.279	2.8182	0.1	3555.6
24139	10.005	2.7273	0.1	3826.1
24140	10.096	2.8182	0.1	3729.2
24141	9.8217	2.7273	0.1	4063.9
24142	9.9132	2.8182	0.1	3943.8
24143	9.6388	2.7273	0.1	4363.3
24144	9.7302	2.8182	0.1	4212.5
24145	9.4558	2.7273	0.1	4743.8
24146	9.5473	2.8182	0.1	4552.
24147	9.2729	2.7273	0.1	5229.8
24148	9.3643	2.8182	0.1	4983.7
24149	9.0899	2.7273	0.1	5848.4
24150	9.1814	2.8182	0.1	5532.2
24151	8.907	2.7273	0.1	6620.4
24152	8.9985	2.8182	0.1	6220.
24153	8.724	2.7273	0.1	7531.6
24154	8.8155	2.8182	0.1	7051.3
24155	8.5411	2.7273	0.1	8479.9
24156	8.6326	2.8182	0.1	7975.6
24157	8.4496	2.8182	0.1	8838.7
24158	8.3581	2.7273	0.1	9239.8
24159	23.726	2.9091	0.1	207.18
24160	23.817	3.	0.1	199.29
24161	23.909	2.9091	0.1	193.52
24162	23.543	2.9091	0.1	226.35
24163	23.634	3.	0.1	216.22
24164	23.36	2.9091	0.1	249.14
24165	23.451	3.	0.1	237.31
24166	23.177	2.9091	0.1	274.7
24167	23.268	3.	0.1	261.58
24168	22.994	2.9091	0.1	302.36
24169	23.085	3.	0.1	288.26
24170	22.811	2.9091	0.1	331.63
24171	22.902	3.	0.1	316.77
24172	22.628	2.9091	0.1	362.2
24173	22.719	3.	0.1	346.72
24174	22.445	2.9091	0.1	393.82
24175	22.536	3.	0.1	377.83
24176	22.262	2.9091	0.1	426.32
24177	22.353	3.	0.1	409.9
24178	22.079	2.9091	0.1	459.59
24179	22.171	3.	0.1	442.8
24180	21.896	2.9091	0.1	493.53
24181	21.988	3.	0.1	476.42
24182	21.713	2.9091	0.1	528.09
24183	21.805	3.	0.1	510.67
24184	21.53	2.9091	0.1	563.2
24185	21.622	3.	0.1	545.51
24186	21.347	2.9091	0.1	598.83
24187	21.439	3.	0.1	580.89
24188	21.164	2.9091	0.1	634.94
24189	21.256	3.	0.1	616.76
24190	20.981	2.9091	0.1	671.5
24191	21.073	3.	0.1	653.1
24192	20.798	2.9091	0.1	708.49
24193	20.89	3.	0.1	689.88
24194	20.616	2.9091	0.1	745.88
24195	20.707	3.	0.1	727.07
24196	20.433	2.9091	0.1	783.66
24197	20.524	3.	0.1	764.66
24198	20.25	2.9091	0.1	821.8
24199	20.341	3.	0.1	802.62
24200	20.067	2.9091	0.1	860.29
24201	20.158	3.	0.1	840.93
24202	19.884	2.9091	0.1	899.11
24203	19.975	3.	0.1	879.59
24204	19.701	2.9091	0.1	938.25
24205	19.792	3.	0.1	918.58
24206	19.518	2.9091	0.1	977.7
24207	19.609	3.	0.1	957.88
24208	19.335	2.9091	0.1	1017.4
24209	19.426	3.	0.1	997.47
24210	19.152	2.9091	0.1	1057.5
24211	19.243	3.	0.1	1037.4
24212	18.969	2.9091	0.1	1097.8
24213	19.06	3.	0.1	1077.5
24214	18.786	2.9091	0.1	1138.3
24215	18.878	3.	0.1	1117.9
24216	18.603	2.9091	0.1	1179.1
24217	18.695	3.	0.1	1158.6
24218	18.42	2.9091	0.1	1220.2
24219	18.512	3.	0.1	1199.6
24220	18.237	2.9091	0.1	1261.4
24221	18.329	3.	0.1	1240.7
24222	18.054	2.9091	0.1	1302.9
24223	18.146	3.	0.1	1282.1
24224	17.871	2.9091	0.1	1344.6
24225	17.963	3.	0.1	1323.7
24226	17.688	2.9091	0.1	1386.6
24227	17.78	3.	0.1	1365.5
24228	17.505	2.9091	0.1	1428.7
24229	17.597	3.	0.1	1407.6
24230	17.322	2.9091	0.1	1471.
24231	17.414	3.	0.1	1449.8
24232	17.14	2.9091	0.1	1513.5
24233	17.231	3.	0.1	1492.2
24234	16.957	2.9091	0.1	1556.1
24235	17.048	3.	0.1	1534.7
24236	16.774	2.9091	0.1	1598.9
24237	16.865	3.	0.1	1577.5
24238	16.591	2.9091	0.1	1641.9
24239	16.682	3.	0.1	1620.3
24240	16.408	2.9091	0.1	1685.
24241	16.499	3.	0.1	1663.4
24242	16.225	2.9091	0.1	1728.2
24243	16.316	3.	0.1	1706.6
24244	16.042	2.9091	0.1	1771.6
24245	16.133	3.	0.1	1749.9
24246	15.859	2.9091	0.1	1815.1
24247	15.95	3.	0.1	1793.3
24248	15.676	2.9091	0.1	1858.7
24249	15.767	3.	0.1	1836.9
24250	15.493	2.9091	0.1	1902.4
24251	15.584	3.	0.1	1880.5
24252	15.31	2.9091	0.1	1946.2
24253	15.402	3.	0.1	1924.2
24254	15.127	2.9091	0.1	1990.
24255	15.219	3.	0.1	1968.1
24256	14.944	2.9091	0.1	2034.
24257	15.036	3.	0.1	2012.
24258	14.761	2.9091	0.1	2078.
24259	14.853	3.	0.1	2055.9
24260	14.578	2.9091	0.1	2122.
24261	14.67	3.	0.1	2100.
24262	14.395	2.9091	0.1	2166.2
24263	14.487	3.	0.1	2144.1
24264	14.212	2.9091	0.1	2210.4
24265	14.304	3.	0.1	2188.2
24266	14.029	2.9091	0.1	2254.6
24267	14.121	3.	0.1	2232.5
24268	13.847	2.9091	0.1	2299.
24269	13.938	3.	0.1	2276.8
24270	13.664	2.9091	0.1	2343.4
24271	13.755	3.	0.1	2321.2
24272	13.481	2.9091	0.1	2388.
24273	13.572	3.	0.1	2365.7
24274	13.298	2.9091	0.1	2432.8
24275	13.389	3.	0.1	2410.3
24276	13.115	2.9091	0.1	2477.8
24277	13.206	3.	0.1	2455.2
24278	12.932	2.9091	0.1	2523.2
24279	13.023	3.	0.1	2500.4
24280	12.749	2.9091	0.1	2569.1
24281	12.84	3.	0.1	2546.
24282	12.566	2.9091	0.1	2615.7
24283	12.657	3.	0.1	2592.2
24284	12.383	2.9091	0.1	2663.2
24285	12.474	3.	0.1	2639.2
24286	12.2	2.9091	0.1	2712.1
24287	12.291	3.	0.1	2687.3
24288	12.017	2.9091	0.1	2762.6
24289	12.109	3.	0.1	2736.9
24290	11.834	2.9091	0.1	2815.5
24291	11.926	3.	0.1	2788.4
24292	11.651	2.9091	0.1	2871.5
24293	11.743	3.	0.1	2842.7
24294	11.468	2.9091	0.1	2931.6
24295	11.56	3.	0.1	2900.4
24296	11.285	2.9091	0.1	2997.2
24297	11.377	3.	0.1	2962.9
24298	11.102	2.9091	0.1	3069.9
24299	11.194	3.	0.1	3031.5
24300	10.919	2.9091	0.1	3152.1
24301	11.011	3.	0.1	3108.3
24302	10.736	2.9091	0.1	3246.7
24303	10.828	3.	0.1	3195.9
24304	10.553	2.9091	0.1	3357.5
24305	10.645	3.	0.1	3297.5
24306	10.371	2.9091	0.1	3489.8
24307	10.462	3.	0.1	3417.5
24308	10.188	2.9091	0.1	3650.1
24309	10.279	3.	0.1	3561.9
24310	10.005	2.9091	0.1	3847.4
24311	10.096	3.	0.1	3738.1
24312	9.8217	2.9091	0.1	4093.2
24313	9.9132	3.	0.1	3956.2
24314	9.6388	2.9091	0.1	4402.7
24315	9.7302	3.	0.1	4229.3
24316	9.4558	2.9091	0.1	4794.7
24317	9.5473	3.	0.1	4574.4
24318	9.2729	2.9091	0.1	5290.9
24319	9.3643	3.	0.1	5012.
24320	9.0899	2.9091	0.1	5911.6
24321	9.1814	3.	0.1	5564.8
24322	8.907	2.9091	0.1	6662.4
24323	8.9985	3.	0.1	6250.3
24324	8.724	2.9091	0.1	7508.9
24325	8.8155	3.	0.1	7063.2
24326	8.5411	2.9091	0.1	8344.5
24327	8.6326	3.	0.1	7942.
24328	8.4496	3.	0.1	8737.4
24329	8.3581	2.9091	0.1	8988.
24330	23.726	3.0909	0.1	207.18
24331	23.817	3.1818	0.1	198.84
24332	23.909	3.0909	0.1	193.52
24333	23.543	3.0909	0.1	226.35
24334	23.634	3.1818	0.1	215.78
24335	23.36	3.0909	0.1	249.14
24336	23.451	3.1818	0.1	236.88
24337	23.177	3.0909	0.1	274.7
24338	23.268	3.1818	0.1	261.18
24339	22.994	3.0909	0.1	302.36
24340	23.085	3.1818	0.1	287.87
24341	22.811	3.0909	0.1	331.63
24342	22.902	3.1818	0.1	316.4
24343	22.628	3.0909	0.1	362.2
24344	22.719	3.1818	0.1	346.37
24345	22.445	3.0909	0.1	393.82
24346	22.536	3.1818	0.1	377.51
24347	22.262	3.0909	0.1	426.32
24348	22.353	3.1818	0.1	409.6
24349	22.079	3.0909	0.1	459.59
24350	22.171	3.1818	0.1	442.52
24351	21.896	3.0909	0.1	493.53
24352	21.988	3.1818	0.1	476.16
24353	21.713	3.0909	0.1	528.09
24354	21.805	3.1818	0.1	510.44
24355	21.53	3.0909	0.1	563.2
24356	21.622	3.1818	0.1	545.3
24357	21.347	3.0909	0.1	598.83
24358	21.439	3.1818	0.1	580.69
24359	21.164	3.0909	0.1	634.94
24360	21.256	3.1818	0.1	616.59
24361	20.981	3.0909	0.1	671.5
24362	21.073	3.1818	0.1	652.94
24363	20.798	3.0909	0.1	708.49
24364	20.89	3.1818	0.1	689.74
24365	20.616	3.0909	0.1	745.88
24366	20.707	3.1818	0.1	726.95
24367	20.433	3.0909	0.1	783.66
24368	20.524	3.1818	0.1	764.55
24369	20.25	3.0909	0.1	821.8
24370	20.341	3.1818	0.1	802.53
24371	20.067	3.0909	0.1	860.29
24372	20.158	3.1818	0.1	840.86
24373	19.884	3.0909	0.1	899.11
24374	19.975	3.1818	0.1	879.53
24375	19.701	3.0909	0.1	938.25
24376	19.792	3.1818	0.1	918.53
24377	19.518	3.0909	0.1	977.7
24378	19.609	3.1818	0.1	957.84
24379	19.335	3.0909	0.1	1017.4
24380	19.426	3.1818	0.1	997.45
24381	19.152	3.0909	0.1	1057.5
24382	19.243	3.1818	0.1	1037.3
24383	18.969	3.0909	0.1	1097.8
24384	19.06	3.1818	0.1	1077.5
24385	18.786	3.0909	0.1	1138.3
24386	18.878	3.1818	0.1	1118.
24387	18.603	3.0909	0.1	1179.1
24388	18.695	3.1818	0.1	1158.6
24389	18.42	3.0909	0.1	1220.2
24390	18.512	3.1818	0.1	1199.6
24391	18.237	3.0909	0.1	1261.4
24392	18.329	3.1818	0.1	1240.7
24393	18.054	3.0909	0.1	1302.9
24394	18.146	3.1818	0.1	1282.1
24395	17.871	3.0909	0.1	1344.6
24396	17.963	3.1818	0.1	1323.8
24397	17.688	3.0909	0.1	1386.6
24398	17.78	3.1818	0.1	1365.6
24399	17.505	3.0909	0.1	1428.7
24400	17.597	3.1818	0.1	1407.6
24401	17.322	3.0909	0.1	1471.
24402	17.414	3.1818	0.1	1449.8
24403	17.14	3.0909	0.1	1513.5
24404	17.231	3.1818	0.1	1492.2
24405	16.957	3.0909	0.1	1556.1
24406	17.048	3.1818	0.1	1534.8
24407	16.774	3.0909	0.1	1598.9
24408	16.865	3.1818	0.1	1577.5
24409	16.591	3.0909	0.1	1641.9
24410	16.682	3.1818	0.1	1620.4
24411	16.408	3.0909	0.1	1685.
24412	16.499	3.1818	0.1	1663.5
24413	16.225	3.0909	0.1	1728.2
24414	16.316	3.1818	0.1	1706.7
24415	16.042	3.0909	0.1	1771.6
24416	16.133	3.1818	0.1	1750.
24417	15.859	3.0909	0.1	1815.1
24418	15.95	3.1818	0.1	1793.4
24419	15.676	3.0909	0.1	1858.7
24420	15.767	3.1818	0.1	1837.
24421	15.493	3.0909	0.1	1902.4
24422	15.584	3.1818	0.1	1880.6
24423	15.31	3.0909	0.1	1946.2
24424	15.402	3.1818	0.1	1924.4
24425	15.127	3.0909	0.1	1990.
24426	15.219	3.1818	0.1	1968.2
24427	14.944	3.0909	0.1	2034.
24428	15.036	3.1818	0.1	2012.2
24429	14.761	3.0909	0.1	2078.
24430	14.853	3.1818	0.1	2056.1
24431	14.578	3.0909	0.1	2122.
24432	14.67	3.1818	0.1	2100.2
24433	14.395	3.0909	0.1	2166.2
24434	14.487	3.1818	0.1	2144.3
24435	14.212	3.0909	0.1	2210.4
24436	14.304	3.1818	0.1	2188.5
24437	14.029	3.0909	0.1	2254.6
24438	14.121	3.1818	0.1	2232.7
24439	13.847	3.0909	0.1	2299.
24440	13.938	3.1818	0.1	2277.
24441	13.664	3.0909	0.1	2343.4
24442	13.755	3.1818	0.1	2321.5
24443	13.481	3.0909	0.1	2388.
24444	13.572	3.1818	0.1	2366.
24445	13.298	3.0909	0.1	2432.8
24446	13.389	3.1818	0.1	2410.7
24447	13.115	3.0909	0.1	2477.8
24448	13.206	3.1818	0.1	2455.6
24449	12.932	3.0909	0.1	2523.2
24450	13.023	3.1818	0.1	2500.8
24451	12.749	3.0909	0.1	2569.1
24452	12.84	3.1818	0.1	2546.4
24453	12.566	3.0909	0.1	2615.7
24454	12.657	3.1818	0.1	2592.6
24455	12.383	3.0909	0.1	2663.2
24456	12.474	3.1818	0.1	2639.6
24457	12.2	3.0909	0.1	2712.1
24458	12.291	3.1818	0.1	2687.7
24459	12.017	3.0909	0.1	2762.6
24460	12.109	3.1818	0.1	2737.2
24461	11.834	3.0909	0.1	2815.5
24462	11.926	3.1818	0.1	2788.7
24463	11.651	3.0909	0.1	2871.5
24464	11.743	3.1818	0.1	2842.8
24465	11.468	3.0909	0.1	2931.6
24466	11.56	3.1818	0.1	2900.4
24467	11.285	3.0909	0.1	2997.2
24468	11.377	3.1818	0.1	2962.6
24469	11.102	3.0909	0.1	3069.9
24470	11.194	3.1818	0.1	3030.9
24471	10.919	3.0909	0.1	3152.1
24472	11.011	3.1818	0.1	3107.2
24473	10.736	3.0909	0.1	3246.7
24474	10.828	3.1818	0.1	3194.
24475	10.553	3.0909	0.1	3357.5
24476	10.645	3.1818	0.1	3294.5
24477	10.371	3.0909	0.1	3489.8
24478	10.462	3.1818	0.1	3413.2
24479	10.188	3.0909	0.1	3650.1
24480	10.279	3.1818	0.1	3555.6
24481	10.005	3.0909	0.1	3847.4
24482	10.096	3.1818	0.1	3729.2
24483	9.8217	3.0909	0.1	4093.2
24484	9.9132	3.1818	0.1	3943.8
24485	9.6388	3.0909	0.1	4402.7
24486	9.7302	3.1818	0.1	4212.5
24487	9.4558	3.0909	0.1	4794.7
24488	9.5473	3.1818	0.1	4552.
24489	9.2729	3.0909	0.1	5290.9
24490	9.3643	3.1818	0.1	4983.7
24491	9.0899	3.0909	0.1	5911.6
24492	9.1814	3.1818	0.1	5532.2
24493	8.907	3.0909	0.1	6662.4
24494	8.9985	3.1818	0.1	6220.
24495	8.724	3.0909	0.1	7508.9
24496	8.8155	3.1818	0.1	7051.3
24497	8.5411	3.0909	0.1	8344.5
24498	8.6326	3.1818	0.1	7975.6
24499	8.4496	3.1818	0.1	8838.7
24500	8.3581	3.0909	0.1	8988.
24501	23.726	3.2727	0.1	206.29
24502	23.817	3.3636	0.1	197.49
24503	23.909	3.2727	0.1	192.6
24504	23.543	3.2727	0.1	225.48
24505	23.634	3.3636	0.1	214.45
24506	23.36	3.2727	0.1	248.31
24507	23.451	3.3636	0.1	235.61
24508	23.177	3.2727	0.1	273.91
24509	23.268	3.3636	0.1	259.96
24510	22.994	3.2727	0.1	301.61
24511	23.085	3.3636	0.1	286.71
24512	22.811	3.2727	0.1	330.93
24513	22.902	3.3636	0.1	315.31
24514	22.628	3.2727	0.1	361.53
24515	22.719	3.3636	0.1	345.34
24516	22.445	3.2727	0.1	393.19
24517	22.536	3.3636	0.1	376.54
24518	22.262	3.2727	0.1	425.74
24519	22.353	3.3636	0.1	408.7
24520	22.079	3.2727	0.1	459.05
24521	22.171	3.3636	0.1	441.68
24522	21.896	3.2727	0.1	493.04
24523	21.988	3.3636	0.1	475.38
24524	21.713	3.2727	0.1	527.64
24525	21.805	3.3636	0.1	509.73
24526	21.53	3.2727	0.1	562.79
24527	21.622	3.3636	0.1	544.65
24528	21.347	3.2727	0.1	598.46
24529	21.439	3.3636	0.1	580.11
24530	21.164	3.2727	0.1	634.61
24531	21.256	3.3636	0.1	616.07
24532	20.981	3.2727	0.1	671.21
24533	21.073	3.3636	0.1	652.48
24534	20.798	3.2727	0.1	708.23
24535	20.89	3.3636	0.1	689.33
24536	20.616	3.2727	0.1	745.66
24537	20.707	3.3636	0.1	726.6
24538	20.433	3.2727	0.1	783.47
24539	20.524	3.3636	0.1	764.25
24540	20.25	3.2727	0.1	821.64
24541	20.341	3.3636	0.1	802.27
24542	20.067	3.2727	0.1	860.15
24543	20.158	3.3636	0.1	840.64
24544	19.884	3.2727	0.1	899.
24545	19.975	3.3636	0.1	879.36
24546	19.701	3.2727	0.1	938.17
24547	19.792	3.3636	0.1	918.39
24548	19.518	3.2727	0.1	977.64
24549	19.609	3.3636	0.1	957.73
24550	19.335	3.2727	0.1	1017.4
24551	19.426	3.3636	0.1	997.38
24552	19.152	3.2727	0.1	1057.4
24553	19.243	3.3636	0.1	1037.3
24554	18.969	3.2727	0.1	1097.8
24555	19.06	3.3636	0.1	1077.5
24556	18.786	3.2727	0.1	1138.3
24557	18.878	3.3636	0.1	1118.
24558	18.603	3.2727	0.1	1179.1
24559	18.695	3.3636	0.1	1158.7
24560	18.42	3.2727	0.1	1220.2
24561	18.512	3.3636	0.1	1199.6
24562	18.237	3.2727	0.1	1261.5
24563	18.329	3.3636	0.1	1240.8
24564	18.054	3.2727	0.1	1303.
24565	18.146	3.3636	0.1	1282.2
24566	17.871	3.2727	0.1	1344.7
24567	17.963	3.3636	0.1	1323.9
24568	17.688	3.2727	0.1	1386.7
24569	17.78	3.3636	0.1	1365.7
24570	17.505	3.2727	0.1	1428.8
24571	17.597	3.3636	0.1	1407.8
24572	17.322	3.2727	0.1	1471.1
24573	17.414	3.3636	0.1	1450.
24574	17.14	3.2727	0.1	1513.6
24575	17.231	3.3636	0.1	1492.4
24576	16.957	3.2727	0.1	1556.3
24577	17.048	3.3636	0.1	1535.
24578	16.774	3.2727	0.1	1599.1
24579	16.865	3.3636	0.1	1577.8
24580	16.591	3.2727	0.1	1642.1
24581	16.682	3.3636	0.1	1620.7
24582	16.408	3.2727	0.1	1685.2
24583	16.499	3.3636	0.1	1663.8
24584	16.225	3.2727	0.1	1728.5
24585	16.316	3.3636	0.1	1707.
24586	16.042	3.2727	0.1	1771.8
24587	16.133	3.3636	0.1	1750.3
24588	15.859	3.2727	0.1	1815.4
24589	15.95	3.3636	0.1	1793.8
24590	15.676	3.2727	0.1	1859.
24591	15.767	3.3636	0.1	1837.4
24592	15.493	3.2727	0.1	1902.7
24593	15.584	3.3636	0.1	1881.1
24594	15.31	3.2727	0.1	1946.5
24595	15.402	3.3636	0.1	1924.9
24596	15.127	3.2727	0.1	1990.4
24597	15.219	3.3636	0.1	1968.7
24598	14.944	3.2727	0.1	2034.3
24599	15.036	3.3636	0.1	2012.7
24600	14.761	3.2727	0.1	2078.4
24601	14.853	3.3636	0.1	2056.7
24602	14.578	3.2727	0.1	2122.5
24603	14.67	3.3636	0.1	2100.8
24604	14.395	3.2727	0.1	2166.6
24605	14.487	3.3636	0.1	2145.
24606	14.212	3.2727	0.1	2210.9
24607	14.304	3.3636	0.1	2189.2
24608	14.029	3.2727	0.1	2255.2
24609	14.121	3.3636	0.1	2233.5
24610	13.847	3.2727	0.1	2299.6
24611	13.938	3.3636	0.1	2277.9
24612	13.664	3.2727	0.1	2344.
24613	13.755	3.3636	0.1	2322.4
24614	13.481	3.2727	0.1	2388.7
24615	13.572	3.3636	0.1	2367.
24616	13.298	3.2727	0.1	2433.5
24617	13.389	3.3636	0.1	2411.7
24618	13.115	3.2727	0.1	2478.6
24619	13.206	3.3636	0.1	2456.7
24620	12.932	3.2727	0.1	2524.
24621	13.023	3.3636	0.1	2501.9
24622	12.749	3.2727	0.1	2569.9
24623	12.84	3.3636	0.1	2547.6
24624	12.566	3.2727	0.1	2616.5
24625	12.657	3.3636	0.1	2593.8
24626	12.383	3.2727	0.1	2664.1
24627	12.474	3.3636	0.1	2640.8
24628	12.2	3.2727	0.1	2712.8
24629	12.291	3.3636	0.1	2688.9
24630	12.017	3.2727	0.1	2763.3
24631	12.109	3.3636	0.1	2738.3
24632	11.834	3.2727	0.1	2816.
24633	11.926	3.3636	0.1	2789.6
24634	11.651	3.2727	0.1	2871.7
24635	11.743	3.3636	0.1	2843.4
24636	11.468	3.2727	0.1	2931.4
24637	11.56	3.3636	0.1	2900.5
24638	11.285	3.2727	0.1	2996.3
24639	11.377	3.3636	0.1	2961.9
24640	11.102	3.2727	0.1	3068.2
24641	11.194	3.3636	0.1	3029.1
24642	10.919	3.2727	0.1	3149.1
24643	11.011	3.3636	0.1	3103.8
24644	10.736	3.2727	0.1	3241.9
24645	10.828	3.3636	0.1	3188.5
24646	10.553	3.2727	0.1	3350.3
24647	10.645	3.3636	0.1	3286.
24648	10.371	3.2727	0.1	3479.2
24649	10.462	3.3636	0.1	3400.5
24650	10.188	3.2727	0.1	3634.9
24651	10.279	3.3636	0.1	3537.3
24652	10.005	3.2727	0.1	3826.1
24653	10.096	3.3636	0.1	3703.3
24654	9.8217	3.2727	0.1	4063.9
24655	9.9132	3.3636	0.1	3907.8
24656	9.6388	3.2727	0.1	4363.3
24657	9.7302	3.3636	0.1	4163.3
24658	9.4558	3.2727	0.1	4743.8
24659	9.5473	3.3636	0.1	4486.6
24660	9.2729	3.2727	0.1	5229.8
24661	9.3643	3.3636	0.1	4900.1
24662	9.0899	3.2727	0.1	5848.4
24663	9.1814	3.3636	0.1	5433.2
24664	8.907	3.2727	0.1	6620.4
24665	8.9985	3.3636	0.1	6121.6
24666	8.724	3.2727	0.1	7531.6
24667	8.8155	3.3636	0.1	6998.5
24668	8.5411	3.2727	0.1	8479.9
24669	8.6326	3.3636	0.1	8060.1
24670	8.4496	3.3636	0.1	9152.1
24671	8.3581	3.2727	0.1	9239.8
24672	23.726	3.4545	0.1	204.5
24673	23.817	3.5455	0.1	195.22
24674	23.909	3.4545	0.1	190.75
24675	23.543	3.4545	0.1	223.75
24676	23.634	3.5455	0.1	212.23
24677	23.36	3.4545	0.1	246.66
24678	23.451	3.5455	0.1	233.48
24679	23.177	3.4545	0.1	272.33
24680	23.268	3.5455	0.1	257.93
24681	22.994	3.4545	0.1	300.11
24682	23.085	3.5455	0.1	284.78
24683	22.811	3.4545	0.1	329.51
24684	22.902	3.5455	0.1	313.48
24685	22.628	3.4545	0.1	360.2
24686	22.719	3.5455	0.1	343.62
24687	22.445	3.4545	0.1	391.94
24688	22.536	3.5455	0.1	374.92
24689	22.262	3.4545	0.1	424.58
24690	22.353	3.5455	0.1	407.19
24691	22.079	3.4545	0.1	457.98
24692	22.171	3.5455	0.1	440.29
24693	21.896	3.4545	0.1	492.05
24694	21.988	3.5455	0.1	474.1
24695	21.713	3.4545	0.1	526.74
24696	21.805	3.5455	0.1	508.56
24697	21.53	3.4545	0.1	561.98
24698	21.622	3.5455	0.1	543.59
24699	21.347	3.4545	0.1	597.73
24700	21.439	3.5455	0.1	579.15
24701	21.164	3.4545	0.1	633.96
24702	21.256	3.5455	0.1	615.21
24703	20.981	3.4545	0.1	670.64
24704	21.073	3.5455	0.1	651.72
24705	20.798	3.4545	0.1	707.73
24706	20.89	3.5455	0.1	688.67
24707	20.616	3.4545	0.1	745.22
24708	20.707	3.5455	0.1	726.01
24709	20.433	3.4545	0.1	783.09
24710	20.524	3.5455	0.1	763.75
24711	20.25	3.4545	0.1	821.32
24712	20.341	3.5455	0.1	801.85
24713	20.067	3.4545	0.1	859.89
24714	20.158	3.5455	0.1	840.29
24715	19.884	3.4545	0.1	898.79
24716	19.975	3.5455	0.1	879.07
24717	19.701	3.4545	0.1	938.01
24718	19.792	3.5455	0.1	918.16
24719	19.518	3.4545	0.1	977.52
24720	19.609	3.5455	0.1	957.57
24721	19.335	3.4545	0.1	1017.3
24722	19.426	3.5455	0.1	997.26
24723	19.152	3.4545	0.1	1057.4
24724	19.243	3.5455	0.1	1037.2
24725	18.969	3.4545	0.1	1097.8
24726	19.06	3.5455	0.1	1077.5
24727	18.786	3.4545	0.1	1138.4
24728	18.878	3.5455	0.1	1118.
24729	18.603	3.4545	0.1	1179.2
24730	18.695	3.5455	0.1	1158.7
24731	18.42	3.4545	0.1	1220.3
24732	18.512	3.5455	0.1	1199.7
24733	18.237	3.4545	0.1	1261.6
24734	18.329	3.5455	0.1	1241.
24735	18.054	3.4545	0.1	1303.2
24736	18.146	3.5455	0.1	1282.4
24737	17.871	3.4545	0.1	1344.9
24738	17.963	3.5455	0.1	1324.1
24739	17.688	3.4545	0.1	1386.9
24740	17.78	3.5455	0.1	1366.
24741	17.505	3.4545	0.1	1429.
24742	17.597	3.5455	0.1	1408.1
24743	17.322	3.4545	0.1	1471.4
24744	17.414	3.5455	0.1	1450.3
24745	17.14	3.4545	0.1	1513.9
24746	17.231	3.5455	0.1	1492.8
24747	16.957	3.4545	0.1	1556.6
24748	17.048	3.5455	0.1	1535.4
24749	16.774	3.4545	0.1	1599.4
24750	16.865	3.5455	0.1	1578.2
24751	16.591	3.4545	0.1	1642.4
24752	16.682	3.5455	0.1	1621.2
24753	16.408	3.4545	0.1	1685.6
24754	16.499	3.5455	0.1	1664.3
24755	16.225	3.4545	0.1	1728.9
24756	16.316	3.5455	0.1	1707.5
24757	16.042	3.4545	0.1	1772.3
24758	16.133	3.5455	0.1	1750.9
24759	15.859	3.4545	0.1	1815.9
24760	15.95	3.5455	0.1	1794.4
24761	15.676	3.4545	0.1	1859.5
24762	15.767	3.5455	0.1	1838.
24763	15.493	3.4545	0.1	1903.3
24764	15.584	3.5455	0.1	1881.8
24765	15.31	3.4545	0.1	1947.1
24766	15.402	3.5455	0.1	1925.6
24767	15.127	3.4545	0.1	1991.1
24768	15.219	3.5455	0.1	1969.6
24769	14.944	3.4545	0.1	2035.1
24770	15.036	3.5455	0.1	2013.6
24771	14.761	3.4545	0.1	2079.2
24772	14.853	3.5455	0.1	2057.7
24773	14.578	3.4545	0.1	2123.3
24774	14.67	3.5455	0.1	2101.9
24775	14.395	3.4545	0.1	2167.6
24776	14.487	3.5455	0.1	2146.1
24777	14.212	3.4545	0.1	2211.9
24778	14.304	3.5455	0.1	2190.4
24779	14.029	3.4545	0.1	2256.3
24780	14.121	3.5455	0.1	2234.8
24781	13.847	3.4545	0.1	2300.7
24782	13.938	3.5455	0.1	2279.3
24783	13.664	3.4545	0.1	2345.3
24784	13.755	3.5455	0.1	2323.9
24785	13.481	3.4545	0.1	2390.
24786	13.572	3.5455	0.1	2368.5
24787	13.298	3.4545	0.1	2434.9
24788	13.389	3.5455	0.1	2413.4
24789	13.115	3.4545	0.1	2480.1
24790	13.206	3.5455	0.1	2458.5
24791	12.932	3.4545	0.1	2525.6
24792	13.023	3.5455	0.1	2503.8
24793	12.749	3.4545	0.1	2571.5
24794	12.84	3.5455	0.1	2549.6
24795	12.566	3.4545	0.1	2618.2
24796	12.657	3.5455	0.1	2595.9
24797	12.383	3.4545	0.1	2665.7
24798	12.474	3.5455	0.1	2642.8
24799	12.2	3.4545	0.1	2714.3
24800	12.291	3.5455	0.1	2690.8
24801	12.017	3.4545	0.1	2764.6
24802	12.109	3.5455	0.1	2740.1
24803	11.834	3.4545	0.1	2817.
24804	11.926	3.5455	0.1	2791.
24805	11.651	3.4545	0.1	2872.1
24806	11.743	3.5455	0.1	2844.3
24807	11.468	3.4545	0.1	2931.
24808	11.56	3.5455	0.1	2900.5
24809	11.285	3.4545	0.1	2994.7
24810	11.377	3.5455	0.1	2960.8
24811	11.102	3.4545	0.1	3064.8
24812	11.194	3.5455	0.1	3026.2
24813	10.919	3.4545	0.1	3143.2
24814	11.011	3.5455	0.1	3098.5
24815	10.736	3.4545	0.1	3232.6
24816	10.828	3.5455	0.1	3179.6
24817	10.553	3.4545	0.1	3336.3
24818	10.645	3.5455	0.1	3272.4
24819	10.371	3.4545	0.1	3458.7
24820	10.462	3.5455	0.1	3380.4
24821	10.188	3.4545	0.1	3605.7
24822	10.279	3.5455	0.1	3508.2
24823	10.005	3.4545	0.1	3785.2
24824	10.096	3.5455	0.1	3662.2
24825	9.8217	3.4545	0.1	4007.6
24826	9.9132	3.5455	0.1	3850.8
24827	9.6388	3.4545	0.1	4287.5
24828	9.7302	3.5455	0.1	4085.6
24829	9.4558	3.4545	0.1	4644.7
24830	9.5473	3.5455	0.1	4382.6
24831	9.2729	3.4545	0.1	5107.1
24832	9.3643	3.5455	0.1	4765.
24833	9.0899	3.4545	0.1	5713.3
24834	9.1814	3.5455	0.1	5266.8
24835	8.907	3.4545	0.1	6512.
24836	8.9985	3.5455	0.1	5938.5
24837	8.724	3.4545	0.1	7544.4
24838	8.8155	3.5455	0.1	6857.4
24839	8.5411	3.4545	0.1	8745.5
24840	8.6326	3.5455	0.1	8114.2
24841	8.4496	3.5455	0.1	9721.4
24842	8.3581	3.4545	0.1	9801.8
24843	23.726	3.6364	0.1	201.8
24844	23.817	3.7273	0.1	192.01
24845	23.909	3.6364	0.1	187.95
24846	23.543	3.6364	0.1	221.13
24847	23.634	3.7273	0.1	209.1
24848	23.36	3.6364	0.1	244.15
24849	23.451	3.7273	0.1	230.47
24850	23.177	3.6364	0.1	269.95
24851	23.268	3.7273	0.1	255.06
24852	22.994	3.6364	0.1	297.85
24853	23.085	3.7273	0.1	282.06
24854	22.811	3.6364	0.1	327.38
24855	22.902	3.7273	0.1	310.91
24856	22.628	3.6364	0.1	358.2
24857	22.719	3.7273	0.1	341.21
24858	22.445	3.6364	0.1	390.08
24859	22.536	3.7273	0.1	372.67
24860	22.262	3.6364	0.1	422.84
24861	22.353	3.7273	0.1	405.1
24862	22.079	3.6364	0.1	456.38
24863	22.171	3.7273	0.1	438.35
24864	21.896	3.6364	0.1	490.59
24865	21.988	3.7273	0.1	472.32
24866	21.713	3.6364	0.1	525.41
24867	21.805	3.7273	0.1	506.94
24868	21.53	3.6364	0.1	560.78
24869	21.622	3.7273	0.1	542.12
24870	21.347	3.6364	0.1	596.65
24871	21.439	3.7273	0.1	577.84
24872	21.164	3.6364	0.1	633.
24873	21.256	3.7273	0.1	614.03
24874	20.981	3.6364	0.1	669.79
24875	21.073	3.7273	0.1	650.68
24876	20.798	3.6364	0.1	706.99
24877	20.89	3.7273	0.1	687.75
24878	20.616	3.6364	0.1	744.58
24879	20.707	3.7273	0.1	725.22
24880	20.433	3.6364	0.1	782.54
24881	20.524	3.7273	0.1	763.07
24882	20.25	3.6364	0.1	820.86
24883	20.341	3.7273	0.1	801.27
24884	20.067	3.6364	0.1	859.51
24885	20.158	3.7273	0.1	839.81
24886	19.884	3.6364	0.1	898.49
24887	19.975	3.7273	0.1	878.68
24888	19.701	3.6364	0.1	937.77
24889	19.792	3.7273	0.1	917.86
24890	19.518	3.6364	0.1	977.35
24891	19.609	3.7273	0.1	957.34
24892	19.335	3.6364	0.1	1017.2
24893	19.426	3.7273	0.1	997.11
24894	19.152	3.6364	0.1	1057.4
24895	19.243	3.7273	0.1	1037.2
24896	18.969	3.6364	0.1	1097.8
24897	19.06	3.7273	0.1	1077.5
24898	18.786	3.6364	0.1	1138.4
24899	18.878	3.7273	0.1	1118.
24900	18.603	3.6364	0.1	1179.3
24901	18.695	3.7273	0.1	1158.8
24902	18.42	3.6364	0.1	1220.5
24903	18.512	3.7273	0.1	1199.9
24904	18.237	3.6364	0.1	1261.8
24905	18.329	3.7273	0.1	1241.2
24906	18.054	3.6364	0.1	1303.4
24907	18.146	3.7273	0.1	1282.7
24908	17.871	3.6364	0.1	1345.2
24909	17.963	3.7273	0.1	1324.4
24910	17.688	3.6364	0.1	1387.2
24911	17.78	3.7273	0.1	1366.3
24912	17.505	3.6364	0.1	1429.4
24913	17.597	3.7273	0.1	1408.4
24914	17.322	3.6364	0.1	1471.8
24915	17.414	3.7273	0.1	1450.8
24916	17.14	3.6364	0.1	1514.3
24917	17.231	3.7273	0.1	1493.3
24918	16.957	3.6364	0.1	1557.1
24919	17.048	3.7273	0.1	1535.9
24920	16.774	3.6364	0.1	1600.
24921	16.865	3.7273	0.1	1578.8
24922	16.591	3.6364	0.1	1643.
24923	16.682	3.7273	0.1	1621.8
24924	16.408	3.6364	0.1	1686.2
24925	16.499	3.7273	0.1	1664.9
24926	16.225	3.6364	0.1	1729.5
24927	16.316	3.7273	0.1	1708.2
24928	16.042	3.6364	0.1	1773.
24929	16.133	3.7273	0.1	1751.7
24930	15.859	3.6364	0.1	1816.6
24931	15.95	3.7273	0.1	1795.3
24932	15.676	3.6364	0.1	1860.3
24933	15.767	3.7273	0.1	1839.
24934	15.493	3.6364	0.1	1904.2
24935	15.584	3.7273	0.1	1882.8
24936	15.31	3.6364	0.1	1948.1
24937	15.402	3.7273	0.1	1926.7
24938	15.127	3.6364	0.1	1992.1
24939	15.219	3.7273	0.1	1970.7
24940	14.944	3.6364	0.1	2036.2
24941	15.036	3.7273	0.1	2014.8
24942	14.761	3.6364	0.1	2080.4
24943	14.853	3.7273	0.1	2059.
24944	14.578	3.6364	0.1	2124.6
24945	14.67	3.7273	0.1	2103.3
24946	14.395	3.6364	0.1	2169.
24947	14.487	3.7273	0.1	2147.6
24948	14.212	3.6364	0.1	2213.4
24949	14.304	3.7273	0.1	2192.1
24950	14.029	3.6364	0.1	2257.9
24951	14.121	3.7273	0.1	2236.6
24952	13.847	3.6364	0.1	2302.4
24953	13.938	3.7273	0.1	2281.2
24954	13.664	3.6364	0.1	2347.1
24955	13.755	3.7273	0.1	2325.9
24956	13.481	3.6364	0.1	2392.
24957	13.572	3.7273	0.1	2370.7
24958	13.298	3.6364	0.1	2437.
24959	13.389	3.7273	0.1	2415.7
24960	13.115	3.6364	0.1	2482.3
24961	13.206	3.7273	0.1	2460.9
24962	12.932	3.6364	0.1	2527.9
24963	13.023	3.7273	0.1	2506.4
24964	12.749	3.6364	0.1	2573.9
24965	12.84	3.7273	0.1	2552.2
24966	12.566	3.6364	0.1	2620.5
24967	12.657	3.7273	0.1	2598.6
24968	12.383	3.6364	0.1	2668.
24969	12.474	3.7273	0.1	2645.6
24970	12.2	3.6364	0.1	2716.5
24971	12.291	3.7273	0.1	2693.4
24972	12.017	3.6364	0.1	2766.5
24973	12.109	3.7273	0.1	2742.4
24974	11.834	3.6364	0.1	2818.3
24975	11.926	3.7273	0.1	2792.9
24976	11.651	3.6364	0.1	2872.7
24977	11.743	3.7273	0.1	2845.5
24978	11.468	3.6364	0.1	2930.4
24979	11.56	3.7273	0.1	2900.6
24980	11.285	3.6364	0.1	2992.3
24981	11.377	3.7273	0.1	2959.3
24982	11.102	3.6364	0.1	3059.9
24983	11.194	3.7273	0.1	3022.4
24984	10.919	3.6364	0.1	3134.9
24985	11.011	3.7273	0.1	3091.3
24986	10.736	3.6364	0.1	3219.4
24987	10.828	3.7273	0.1	3167.9
24988	10.553	3.6364	0.1	3316.5
24989	10.645	3.7273	0.1	3254.5
24990	10.371	3.6364	0.1	3429.9
24991	10.462	3.7273	0.1	3353.9
24992	10.188	3.6364	0.1	3564.7
24993	10.279	3.7273	0.1	3470.3
24994	10.005	3.6364	0.1	3727.9
24995	10.096	3.7273	0.1	3608.9
24996	9.8217	3.6364	0.1	3928.8
24997	9.9132	3.7273	0.1	3777.1
24998	9.6388	3.6364	0.1	4180.9
24999	9.7302	3.7273	0.1	3985.1
25000	9.4558	3.6364	0.1	4503.6
25001	9.5473	3.7273	0.1	4247.7
25002	9.2729	3.6364	0.1	4926.4
25003	9.3643	3.7273	0.1	4587.2
25004	9.0899	3.6364	0.1	5496.6
25005	9.1814	3.7273	0.1	5038.6
25006	8.907	3.6364	0.1	6295.4
25007	8.9985	3.7273	0.1	5662.8
25008	8.724	3.6364	0.1	7451.
25009	8.8155	3.7273	0.1	6564.6
25010	8.5411	3.6364	0.1	9115.7
25011	8.6326	3.7273	0.1	7987.4
25012	8.4496	3.7273	0.1	10335
25013	8.3581	3.6364	0.1	10834
25014	23.726	3.8182	0.1	198.16
25015	23.817	3.9091	0.1	187.84
25016	23.909	3.8182	0.1	184.19
25017	23.543	3.8182	0.1	217.61
25018	23.634	3.9091	0.1	205.03
25019	23.36	3.8182	0.1	240.79
25020	23.451	3.9091	0.1	226.57
25021	23.177	3.8182	0.1	266.76
25022	23.268	3.9091	0.1	251.35
25023	22.994	3.8182	0.1	294.83
25024	23.085	3.9091	0.1	278.55
25025	22.811	3.8182	0.1	324.54
25026	22.902	3.9091	0.1	307.6
25027	22.628	3.8182	0.1	355.54
25028	22.719	3.9091	0.1	338.1
25029	22.445	3.8182	0.1	387.6
25030	22.536	3.9091	0.1	369.77
25031	22.262	3.8182	0.1	420.55
25032	22.353	3.9091	0.1	402.42
25033	22.079	3.8182	0.1	454.27
25034	22.171	3.9091	0.1	435.88
25035	21.896	3.8182	0.1	488.66
25036	21.988	3.9091	0.1	470.07
25037	21.713	3.8182	0.1	523.66
25038	21.805	3.9091	0.1	504.89
25039	21.53	3.8182	0.1	559.2
25040	21.622	3.9091	0.1	540.28
25041	21.347	3.8182	0.1	595.24
25042	21.439	3.9091	0.1	576.18
25043	21.164	3.8182	0.1	631.75
25044	21.256	3.9091	0.1	612.56
25045	20.981	3.8182	0.1	668.69
25046	21.073	3.9091	0.1	649.38
25047	20.798	3.8182	0.1	706.03
25048	20.89	3.9091	0.1	686.62
25049	20.616	3.8182	0.1	743.75
25050	20.707	3.9091	0.1	724.24
25051	20.433	3.8182	0.1	781.84
25052	20.524	3.9091	0.1	762.23
25053	20.25	3.8182	0.1	820.27
25054	20.341	3.9091	0.1	800.56
25055	20.067	3.8182	0.1	859.03
25056	20.158	3.9091	0.1	839.23
25057	19.884	3.8182	0.1	898.11
25058	19.975	3.9091	0.1	878.22
25059	19.701	3.8182	0.1	937.48
25060	19.792	3.9091	0.1	917.5
25061	19.518	3.8182	0.1	977.15
25062	19.609	3.9091	0.1	957.08
25063	19.335	3.8182	0.1	1017.1
25064	19.426	3.9091	0.1	996.94
25065	19.152	3.8182	0.1	1057.3
25066	19.243	3.9091	0.1	1037.1
25067	18.969	3.8182	0.1	1097.8
25068	19.06	3.9091	0.1	1077.5
25069	18.786	3.8182	0.1	1138.5
25070	18.878	3.9091	0.1	1118.1
25071	18.603	3.8182	0.1	1179.5
25072	18.695	3.9091	0.1	1159.
25073	18.42	3.8182	0.1	1220.7
25074	18.512	3.9091	0.1	1200.1
25075	18.237	3.8182	0.1	1262.1
25076	18.329	3.9091	0.1	1241.4
25077	18.054	3.8182	0.1	1303.7
25078	18.146	3.9091	0.1	1283.
25079	17.871	3.8182	0.1	1345.6
25080	17.963	3.9091	0.1	1324.8
25081	17.688	3.8182	0.1	1387.6
25082	17.78	3.9091	0.1	1366.8
25083	17.505	3.8182	0.1	1429.9
25084	17.597	3.9091	0.1	1409.
25085	17.322	3.8182	0.1	1472.3
25086	17.414	3.9091	0.1	1451.3
25087	17.14	3.8182	0.1	1514.9
25088	17.231	3.9091	0.1	1493.9
25089	16.957	3.8182	0.1	1557.7
25090	17.048	3.9091	0.1	1536.6
25091	16.774	3.8182	0.1	1600.6
25092	16.865	3.9091	0.1	1579.5
25093	16.591	3.8182	0.1	1643.8
25094	16.682	3.9091	0.1	1622.6
25095	16.408	3.8182	0.1	1687.
25096	16.499	3.9091	0.1	1665.8
25097	16.225	3.8182	0.1	1730.4
25098	16.316	3.9091	0.1	1709.2
25099	16.042	3.8182	0.1	1774.
25100	16.133	3.9091	0.1	1752.7
25101	15.859	3.8182	0.1	1817.6
25102	15.95	3.9091	0.1	1796.3
25103	15.676	3.8182	0.1	1861.4
25104	15.767	3.9091	0.1	1840.1
25105	15.493	3.8182	0.1	1905.3
25106	15.584	3.9091	0.1	1884.
25107	15.31	3.8182	0.1	1949.3
25108	15.402	3.9091	0.1	1928.
25109	15.127	3.8182	0.1	1993.4
25110	15.219	3.9091	0.1	1972.1
25111	14.944	3.8182	0.1	2037.6
25112	15.036	3.9091	0.1	2016.4
25113	14.761	3.8182	0.1	2081.9
25114	14.853	3.9091	0.1	2060.7
25115	14.578	3.8182	0.1	2126.3
25116	14.67	3.9091	0.1	2105.1
25117	14.395	3.8182	0.1	2170.8
25118	14.487	3.9091	0.1	2149.6
25119	14.212	3.8182	0.1	2215.3
25120	14.304	3.9091	0.1	2194.1
25121	14.029	3.8182	0.1	2259.9
25122	14.121	3.9091	0.1	2238.8
25123	13.847	3.8182	0.1	2304.7
25124	13.938	3.9091	0.1	2283.6
25125	13.664	3.8182	0.1	2349.5
25126	13.755	3.9091	0.1	2328.5
25127	13.481	3.8182	0.1	2394.5
25128	13.572	3.9091	0.1	2373.5
25129	13.298	3.8182	0.1	2439.7
25130	13.389	3.9091	0.1	2418.6
25131	13.115	3.8182	0.1	2485.1
25132	13.206	3.9091	0.1	2464.
25133	12.932	3.8182	0.1	2530.8
25134	13.023	3.9091	0.1	2509.6
25135	12.749	3.8182	0.1	2576.9
25136	12.84	3.9091	0.1	2555.5
25137	12.566	3.8182	0.1	2623.6
25138	12.657	3.9091	0.1	2601.9
25139	12.383	3.8182	0.1	2671.
25140	12.474	3.9091	0.1	2648.9
25141	12.2	3.8182	0.1	2719.3
25142	12.291	3.9091	0.1	2696.6
25143	12.017	3.8182	0.1	2768.9
25144	12.109	3.9091	0.1	2745.3
25145	11.834	3.8182	0.1	2820.1
25146	11.926	3.9091	0.1	2795.2
25147	11.651	3.8182	0.1	2873.4
25148	11.743	3.9091	0.1	2846.9
25149	11.468	3.8182	0.1	2929.5
25150	11.56	3.9091	0.1	2900.7
25151	11.285	3.8182	0.1	2989.3
25152	11.377	3.9091	0.1	2957.4
25153	11.102	3.8182	0.1	3053.8
25154	11.194	3.9091	0.1	3017.7
25155	10.919	3.8182	0.1	3124.4
25156	11.011	3.9091	0.1	3082.8
25157	10.736	3.8182	0.1	3203.
25158	10.828	3.9091	0.1	3154.
25159	10.553	3.8182	0.1	3291.9
25160	10.645	3.9091	0.1	3233.1
25161	10.371	3.8182	0.1	3394.3
25162	10.462	3.9091	0.1	3322.6
25163	10.188	3.8182	0.1	3514.4
25164	10.279	3.9091	0.1	3425.6
25165	10.005	3.8182	0.1	3657.9
25166	10.096	3.9091	0.1	3546.4
25167	9.8217	3.8182	0.1	3833.
25168	9.9132	3.9091	0.1	3691.1
25169	9.6388	3.8182	0.1	4051.2
25170	9.7302	3.9091	0.1	3868.2
25171	9.4558	3.8182	0.1	4330.5
25172	9.5473	3.9091	0.1	4090.6
25173	9.2729	3.8182	0.1	4698.6
25174	9.3643	3.9091	0.1	4378.4
25175	9.0899	3.8182	0.1	5205.5
25176	9.1814	3.9091	0.1	4763.6
25177	8.907	3.8182	0.1	5938.3
25178	8.9985	3.9091	0.1	5307.6
25179	8.724	3.8182	0.1	7126.6
25180	8.8155	3.9091	0.1	6116.1
25181	8.5411	3.8182	0.1	9273.7
25182	8.6326	3.9091	0.1	7507.2
25183	8.4496	3.9091	0.1	10568
25184	8.3581	3.8182	0.1	12513
25185	23.726	4.	0.1	193.55
25186	23.817	4.0909	0.1	182.66
25187	23.909	4.	0.1	179.41
25188	23.543	4.	0.1	213.16
25189	23.634	4.0909	0.1	199.99
25190	23.36	4.	0.1	236.54
25191	23.451	4.0909	0.1	221.74
25192	23.177	4.	0.1	262.73
25193	23.268	4.0909	0.1	246.76
25194	22.994	4.	0.1	291.04
25195	23.085	4.0909	0.1	274.22
25196	22.811	4.	0.1	320.98
25197	22.902	4.0909	0.1	303.53
25198	22.628	4.	0.1	352.21
25199	22.719	4.0909	0.1	334.31
25200	22.445	4.	0.1	384.52
25201	22.536	4.0909	0.1	366.25
25202	22.262	4.	0.1	417.71
25203	22.353	4.0909	0.1	399.17
25204	22.079	4.	0.1	451.67
25205	22.171	4.0909	0.1	432.91
25206	21.896	4.	0.1	486.29
25207	21.988	4.0909	0.1	467.37
25208	21.713	4.	0.1	521.52
25209	21.805	4.0909	0.1	502.44
25210	21.53	4.	0.1	557.28
25211	21.622	4.0909	0.1	538.08
25212	21.347	4.	0.1	593.53
25213	21.439	4.0909	0.1	574.22
25214	21.164	4.	0.1	630.23
25215	21.256	4.0909	0.1	610.83
25216	20.981	4.	0.1	667.36
25217	21.073	4.0909	0.1	647.86
25218	20.798	4.	0.1	704.88
25219	20.89	4.0909	0.1	685.29
25220	20.616	4.	0.1	742.76
25221	20.707	4.0909	0.1	723.1
25222	20.433	4.	0.1	781.
25223	20.524	4.0909	0.1	761.26
25224	20.25	4.	0.1	819.57
25225	20.341	4.0909	0.1	799.75
25226	20.067	4.	0.1	858.47
25227	20.158	4.0909	0.1	838.57
25228	19.884	4.	0.1	897.66
25229	19.975	4.0909	0.1	877.69
25230	19.701	4.	0.1	937.15
25231	19.792	4.0909	0.1	917.1
25232	19.518	4.	0.1	976.92
25233	19.609	4.0909	0.1	956.8
25234	19.335	4.	0.1	1017.
25235	19.426	4.0909	0.1	996.77
25236	19.152	4.	0.1	1057.3
25237	19.243	4.0909	0.1	1037.
25238	18.969	4.	0.1	1097.8
25239	19.06	4.0909	0.1	1077.5
25240	18.786	4.	0.1	1138.6
25241	18.878	4.0909	0.1	1118.2
25242	18.603	4.	0.1	1179.7
25243	18.695	4.0909	0.1	1159.2
25244	18.42	4.	0.1	1220.9
25245	18.512	4.0909	0.1	1200.4
25246	18.237	4.	0.1	1262.4
25247	18.329	4.0909	0.1	1241.8
25248	18.054	4.	0.1	1304.1
25249	18.146	4.0909	0.1	1283.4
25250	17.871	4.	0.1	1346.
25251	17.963	4.0909	0.1	1325.3
25252	17.688	4.	0.1	1388.2
25253	17.78	4.0909	0.1	1367.3
25254	17.505	4.	0.1	1430.5
25255	17.597	4.0909	0.1	1409.6
25256	17.322	4.	0.1	1473.
25257	17.414	4.0909	0.1	1452.
25258	17.14	4.	0.1	1515.6
25259	17.231	4.0909	0.1	1494.7
25260	16.957	4.	0.1	1558.5
25261	17.048	4.0909	0.1	1537.5
25262	16.774	4.	0.1	1601.5
25263	16.865	4.0909	0.1	1580.4
25264	16.591	4.	0.1	1644.7
25265	16.682	4.0909	0.1	1623.6
25266	16.408	4.	0.1	1688.
25267	16.499	4.0909	0.1	1666.9
25268	16.225	4.	0.1	1731.5
25269	16.316	4.0909	0.1	1710.3
25270	16.042	4.	0.1	1775.1
25271	16.133	4.0909	0.1	1753.9
25272	15.859	4.	0.1	1818.9
25273	15.95	4.0909	0.1	1797.7
25274	15.676	4.	0.1	1862.8
25275	15.767	4.0909	0.1	1841.5
25276	15.493	4.	0.1	1906.8
25277	15.584	4.0909	0.1	1885.5
25278	15.31	4.	0.1	1950.9
25279	15.402	4.0909	0.1	1929.6
25280	15.127	4.	0.1	1995.1
25281	15.219	4.0909	0.1	1973.9
25282	14.944	4.	0.1	2039.4
25283	15.036	4.0909	0.1	2018.2
25284	14.761	4.	0.1	2083.8
25285	14.853	4.0909	0.1	2062.7
25286	14.578	4.	0.1	2128.4
25287	14.67	4.0909	0.1	2107.2
25288	14.395	4.	0.1	2173.
25289	14.487	4.0909	0.1	2151.9
25290	14.212	4.	0.1	2217.7
25291	14.304	4.0909	0.1	2196.6
25292	14.029	4.	0.1	2262.5
25293	14.121	4.0909	0.1	2241.5
25294	13.847	4.	0.1	2307.4
25295	13.938	4.0909	0.1	2286.4
25296	13.664	4.	0.1	2352.4
25297	13.755	4.0909	0.1	2331.5
25298	13.481	4.	0.1	2397.6
25299	13.572	4.0909	0.1	2376.7
25300	13.298	4.	0.1	2442.9
25301	13.389	4.0909	0.1	2422.
25302	13.115	4.	0.1	2488.5
25303	13.206	4.0909	0.1	2467.6
25304	12.932	4.	0.1	2534.4
25305	13.023	4.0909	0.1	2513.3
25306	12.749	4.	0.1	2580.6
25307	12.84	4.0909	0.1	2559.4
25308	12.566	4.	0.1	2627.2
25309	12.657	4.0909	0.1	2605.8
25310	12.383	4.	0.1	2674.5
25311	12.474	4.0909	0.1	2652.7
25312	12.2	4.	0.1	2722.6
25313	12.291	4.0909	0.1	2700.2
25314	12.017	4.	0.1	2771.7
25315	12.109	4.0909	0.1	2748.6
25316	11.834	4.	0.1	2822.1
25317	11.926	4.0909	0.1	2797.9
25318	11.651	4.	0.1	2874.2
25319	11.743	4.0909	0.1	2848.5
25320	11.468	4.	0.1	2928.6
25321	11.56	4.0909	0.1	2900.8
25322	11.285	4.	0.1	2985.8
25323	11.377	4.0909	0.1	2955.2
25324	11.102	4.	0.1	3046.7
25325	11.194	4.0909	0.1	3012.4
25326	10.919	4.	0.1	3112.3
25327	11.011	4.0909	0.1	3073.
25328	10.736	4.	0.1	3184.1
25329	10.828	4.0909	0.1	3138.2
25330	10.553	4.	0.1	3263.8
25331	10.645	4.0909	0.1	3209.2
25332	10.371	4.	0.1	3353.8
25333	10.462	4.0909	0.1	3287.7
25334	10.188	4.	0.1	3457.4
25335	10.279	4.0909	0.1	3376.
25336	10.005	4.	0.1	3579.1
25337	10.096	4.0909	0.1	3477.5
25338	9.8217	4.	0.1	3725.5
25339	9.9132	4.0909	0.1	3596.7
25340	9.6388	4.	0.1	3906.3
25341	9.7302	4.0909	0.1	3740.6
25342	9.4558	4.	0.1	4136.5
25343	9.5473	4.0909	0.1	3919.6
25344	9.2729	4.	0.1	4440.5
25345	9.3643	4.0909	0.1	4150.5
25346	9.0899	4.	0.1	4862.6
25347	9.1814	4.0909	0.1	4460.6
25348	8.907	4.	0.1	5484.2
25349	8.9985	4.0909	0.1	4901.5
25350	8.724	4.	0.1	6508.9
25351	8.8155	4.0909	0.1	5565.7
25352	8.5411	4.	0.1	8930.3
25353	8.6326	4.0909	0.1	6731.2
25354	8.4496	4.0909	0.1	9680.8
25355	8.3581	4.	0.1	15685
25356	23.726	4.1818	0.1	187.92
25357	23.817	4.2727	0.1	176.42
25358	23.909	4.1818	0.1	173.57
25359	23.543	4.1818	0.1	207.74
25360	23.634	4.2727	0.1	193.92
25361	23.36	4.1818	0.1	231.38
25362	23.451	4.2727	0.1	215.94
25363	23.177	4.1818	0.1	257.86
25364	23.268	4.2727	0.1	241.28
25365	22.994	4.1818	0.1	286.46
25366	23.085	4.2727	0.1	269.06
25367	22.811	4.1818	0.1	316.7
25368	22.902	4.2727	0.1	298.72
25369	22.628	4.1818	0.1	348.24
25370	22.719	4.2727	0.1	329.84
25371	22.445	4.1818	0.1	380.85
25372	22.536	4.2727	0.1	362.13
25373	22.262	4.1818	0.1	414.35
25374	22.353	4.2727	0.1	395.39
25375	22.079	4.1818	0.1	448.6
25376	22.171	4.2727	0.1	429.47
25377	21.896	4.1818	0.1	483.52
25378	21.988	4.2727	0.1	464.25
25379	21.713	4.1818	0.1	519.02
25380	21.805	4.2727	0.1	499.64
25381	21.53	4.1818	0.1	555.05
25382	21.622	4.2727	0.1	535.58
25383	21.347	4.1818	0.1	591.55
25384	21.439	4.2727	0.1	572.
25385	21.164	4.1818	0.1	628.49
25386	21.256	4.2727	0.1	608.87
25387	20.981	4.1818	0.1	665.84
25388	21.073	4.2727	0.1	646.15
25389	20.798	4.1818	0.1	703.56
25390	20.89	4.2727	0.1	683.81
25391	20.616	4.1818	0.1	741.64
25392	20.707	4.2727	0.1	721.83
25393	20.433	4.1818	0.1	780.06
25394	20.524	4.2727	0.1	760.19
25395	20.25	4.1818	0.1	818.8
25396	20.341	4.2727	0.1	798.87
25397	20.067	4.1818	0.1	857.84
25398	20.158	4.2727	0.1	837.85
25399	19.884	4.1818	0.1	897.18
25400	19.975	4.2727	0.1	877.13
25401	19.701	4.1818	0.1	936.8
25402	19.792	4.2727	0.1	916.69
25403	19.518	4.1818	0.1	976.69
25404	19.609	4.2727	0.1	956.52
25405	19.335	4.1818	0.1	1016.8
25406	19.426	4.2727	0.1	996.61
25407	19.152	4.1818	0.1	1057.3
25408	19.243	4.2727	0.1	1037.
25409	18.969	4.1818	0.1	1097.9
25410	19.06	4.2727	0.1	1077.5
25411	18.786	4.1818	0.1	1138.8
25412	18.878	4.2727	0.1	1118.4
25413	18.603	4.1818	0.1	1179.9
25414	18.695	4.2727	0.1	1159.4
25415	18.42	4.1818	0.1	1221.3
25416	18.512	4.2727	0.1	1200.7
25417	18.237	4.1818	0.1	1262.9
25418	18.329	4.2727	0.1	1242.2
25419	18.054	4.1818	0.1	1304.6
25420	18.146	4.2727	0.1	1284.
25421	17.871	4.1818	0.1	1346.6
25422	17.963	4.2727	0.1	1325.9
25423	17.688	4.1818	0.1	1388.8
25424	17.78	4.2727	0.1	1368.
25425	17.505	4.1818	0.1	1431.2
25426	17.597	4.2727	0.1	1410.3
25427	17.322	4.1818	0.1	1473.8
25428	17.414	4.2727	0.1	1452.9
25429	17.14	4.1818	0.1	1516.5
25430	17.231	4.2727	0.1	1495.6
25431	16.957	4.1818	0.1	1559.4
25432	17.048	4.2727	0.1	1538.4
25433	16.774	4.1818	0.1	1602.5
25434	16.865	4.2727	0.1	1581.5
25435	16.591	4.1818	0.1	1645.8
25436	16.682	4.2727	0.1	1624.7
25437	16.408	4.1818	0.1	1689.2
25438	16.499	4.2727	0.1	1668.1
25439	16.225	4.1818	0.1	1732.8
25440	16.316	4.2727	0.1	1711.7
25441	16.042	4.1818	0.1	1776.5
25442	16.133	4.2727	0.1	1755.3
25443	15.859	4.1818	0.1	1820.3
25444	15.95	4.2727	0.1	1799.2
25445	15.676	4.1818	0.1	1864.3
25446	15.767	4.2727	0.1	1843.2
25447	15.493	4.1818	0.1	1908.4
25448	15.584	4.2727	0.1	1887.3
25449	15.31	4.1818	0.1	1952.7
25450	15.402	4.2727	0.1	1931.5
25451	15.127	4.1818	0.1	1997.
25452	15.219	4.2727	0.1	1975.9
25453	14.944	4.1818	0.1	2041.5
25454	15.036	4.2727	0.1	2020.4
25455	14.761	4.1818	0.1	2086.1
25456	14.853	4.2727	0.1	2065.
25457	14.578	4.1818	0.1	2130.8
25458	14.67	4.2727	0.1	2109.7
25459	14.395	4.1818	0.1	2175.5
25460	14.487	4.2727	0.1	2154.5
25461	14.212	4.1818	0.1	2220.4
25462	14.304	4.2727	0.1	2199.4
25463	14.029	4.1818	0.1	2265.4
25464	14.121	4.2727	0.1	2244.5
25465	13.847	4.1818	0.1	2310.5
25466	13.938	4.2727	0.1	2289.6
25467	13.664	4.1818	0.1	2355.7
25468	13.755	4.2727	0.1	2334.9
25469	13.481	4.1818	0.1	2401.1
25470	13.572	4.2727	0.1	2380.3
25471	13.298	4.1818	0.1	2446.7
25472	13.389	4.2727	0.1	2425.9
25473	13.115	4.1818	0.1	2492.4
25474	13.206	4.2727	0.1	2471.6
25475	12.932	4.1818	0.1	2538.4
25476	13.023	4.2727	0.1	2517.5
25477	12.749	4.1818	0.1	2584.7
25478	12.84	4.2727	0.1	2563.7
25479	12.566	4.1818	0.1	2631.3
25480	12.657	4.2727	0.1	2610.1
25481	12.383	4.1818	0.1	2678.5
25482	12.474	4.2727	0.1	2657.
25483	12.2	4.1818	0.1	2726.2
25484	12.291	4.2727	0.1	2704.3
25485	12.017	4.1818	0.1	2774.8
25486	12.109	4.2727	0.1	2752.1
25487	11.834	4.1818	0.1	2824.3
25488	11.926	4.2727	0.1	2800.7
25489	11.651	4.1818	0.1	2875.1
25490	11.743	4.2727	0.1	2850.2
25491	11.468	4.1818	0.1	2927.4
25492	11.56	4.2727	0.1	2900.7
25493	11.285	4.1818	0.1	2981.8
25494	11.377	4.2727	0.1	2952.7
25495	11.102	4.1818	0.1	3038.7
25496	11.194	4.2727	0.1	3006.4
25497	10.919	4.1818	0.1	3098.9
25498	11.011	4.2727	0.1	3062.4
25499	10.736	4.1818	0.1	3163.3
25500	10.828	4.2727	0.1	3121.1
25501	10.553	4.1818	0.1	3233.
25502	10.645	4.2727	0.1	3183.4
25503	10.371	4.1818	0.1	3309.8
25504	10.462	4.2727	0.1	3250.3
25505	10.188	4.1818	0.1	3395.8
25506	10.279	4.2727	0.1	3323.2
25507	10.005	4.1818	0.1	3494.5
25508	10.096	4.2727	0.1	3404.5
25509	9.8217	4.1818	0.1	3610.7
25510	9.9132	4.2727	0.1	3497.2
25511	9.6388	4.1818	0.1	3752.
25512	9.7302	4.2727	0.1	3606.5
25513	9.4558	4.1818	0.1	3930.4
25514	9.5473	4.2727	0.1	3740.3
25515	9.2729	4.1818	0.1	4165.7
25516	9.3643	4.2727	0.1	3911.6
25517	9.0899	4.1818	0.1	4492.7
25518	9.1814	4.2727	0.1	4141.9
25519	8.907	4.1818	0.1	4974.4
25520	8.9985	4.2727	0.1	4470.4
25521	8.724	4.1818	0.1	5787.3
25522	8.8155	4.2727	0.1	4960.
25523	8.5411	4.1818	0.1	7499.1
25524	8.6326	4.2727	0.1	5811.6
25525	8.4496	4.2727	0.1	7652.3
25526	8.3581	4.1818	0.1	7554.
25527	23.726	4.3636	0.1	181.23
25528	23.817	4.4545	0.1	169.05
25529	23.909	4.3636	0.1	166.62
25530	23.543	4.3636	0.1	201.3
25531	23.634	4.4545	0.1	186.76
25532	23.36	4.3636	0.1	225.27
25533	23.451	4.4545	0.1	209.13
25534	23.177	4.3636	0.1	252.11
25535	23.268	4.4545	0.1	234.86
25536	22.994	4.3636	0.1	281.08
25537	23.085	4.4545	0.1	263.06
25538	22.811	4.3636	0.1	311.71
25539	22.902	4.4545	0.1	293.15
25540	22.628	4.3636	0.1	343.64
25541	22.719	4.4545	0.1	324.71
25542	22.445	4.3636	0.1	376.63
25543	22.536	4.4545	0.1	357.43
25544	22.262	4.3636	0.1	410.5
25545	22.353	4.4545	0.1	391.12
25546	22.079	4.3636	0.1	445.12
25547	22.171	4.4545	0.1	425.61
25548	21.896	4.3636	0.1	480.39
25549	21.988	4.4545	0.1	460.78
25550	21.713	4.3636	0.1	516.22
25551	21.805	4.4545	0.1	496.54
25552	21.53	4.3636	0.1	552.56
25553	21.622	4.4545	0.1	532.82
25554	21.347	4.3636	0.1	589.36
25555	21.439	4.4545	0.1	569.57
25556	21.164	4.3636	0.1	626.57
25557	21.256	4.4545	0.1	606.74
25558	20.981	4.3636	0.1	664.17
25559	21.073	4.4545	0.1	644.3
25560	20.798	4.3636	0.1	702.13
25561	20.89	4.4545	0.1	682.22
25562	20.616	4.3636	0.1	740.43
25563	20.707	4.4545	0.1	720.48
25564	20.433	4.3636	0.1	779.05
25565	20.524	4.4545	0.1	759.06
25566	20.25	4.3636	0.1	817.97
25567	20.341	4.4545	0.1	797.94
25568	20.067	4.3636	0.1	857.19
25569	20.158	4.4545	0.1	837.11
25570	19.884	4.3636	0.1	896.69
25571	19.975	4.4545	0.1	876.56
25572	19.701	4.3636	0.1	936.45
25573	19.792	4.4545	0.1	916.28
25574	19.518	4.3636	0.1	976.48
25575	19.609	4.4545	0.1	956.26
25576	19.335	4.3636	0.1	1016.8
25577	19.426	4.4545	0.1	996.49
25578	19.152	4.3636	0.1	1057.3
25579	19.243	4.4545	0.1	1037.
25580	18.969	4.3636	0.1	1098.1
25581	19.06	4.4545	0.1	1077.7
25582	18.786	4.3636	0.1	1139.1
25583	18.878	4.4545	0.1	1118.6
25584	18.603	4.3636	0.1	1180.3
25585	18.695	4.4545	0.1	1159.8
25586	18.42	4.3636	0.1	1221.7
25587	18.512	4.4545	0.1	1201.2
25588	18.237	4.3636	0.1	1263.4
25589	18.329	4.4545	0.1	1242.8
25590	18.054	4.3636	0.1	1305.3
25591	18.146	4.4545	0.1	1284.6
25592	17.871	4.3636	0.1	1347.3
25593	17.963	4.4545	0.1	1326.6
25594	17.688	4.3636	0.1	1389.6
25595	17.78	4.4545	0.1	1368.8
25596	17.505	4.3636	0.1	1432.1
25597	17.597	4.4545	0.1	1411.2
25598	17.322	4.3636	0.1	1474.7
25599	17.414	4.4545	0.1	1453.8
25600	17.14	4.3636	0.1	1517.5
25601	17.231	4.4545	0.1	1496.6
25602	16.957	4.3636	0.1	1560.6
25603	17.048	4.4545	0.1	1539.6
25604	16.774	4.3636	0.1	1603.7
25605	16.865	4.4545	0.1	1582.7
25606	16.591	4.3636	0.1	1647.1
25607	16.682	4.4545	0.1	1626.1
25608	16.408	4.3636	0.1	1690.6
25609	16.499	4.4545	0.1	1669.5
25610	16.225	4.3636	0.1	1734.3
25611	16.316	4.4545	0.1	1713.2
25612	16.042	4.3636	0.1	1778.1
25613	16.133	4.4545	0.1	1757.
25614	15.859	4.3636	0.1	1822.
25615	15.95	4.4545	0.1	1800.9
25616	15.676	4.3636	0.1	1866.2
25617	15.767	4.4545	0.1	1845.
25618	15.493	4.3636	0.1	1910.4
25619	15.584	4.4545	0.1	1889.3
25620	15.31	4.3636	0.1	1954.8
25621	15.402	4.4545	0.1	1933.7
25622	15.127	4.3636	0.1	1999.3
25623	15.219	4.4545	0.1	1978.2
25624	14.944	4.3636	0.1	2043.9
25625	15.036	4.4545	0.1	2022.8
25626	14.761	4.3636	0.1	2088.6
25627	14.853	4.4545	0.1	2067.6
25628	14.578	4.3636	0.1	2133.5
25629	14.67	4.4545	0.1	2112.5
25630	14.395	4.3636	0.1	2178.4
25631	14.487	4.4545	0.1	2157.5
25632	14.212	4.3636	0.1	2223.5
25633	14.304	4.4545	0.1	2202.6
25634	14.029	4.3636	0.1	2268.7
25635	14.121	4.4545	0.1	2247.8
25636	13.847	4.3636	0.1	2314.
25637	13.938	4.4545	0.1	2293.2
25638	13.664	4.3636	0.1	2359.5
25639	13.755	4.4545	0.1	2338.7
25640	13.481	4.3636	0.1	2405.1
25641	13.572	4.4545	0.1	2384.3
25642	13.298	4.3636	0.1	2450.8
25643	13.389	4.4545	0.1	2430.
25644	13.115	4.3636	0.1	2496.7
25645	13.206	4.4545	0.1	2476.
25646	12.932	4.3636	0.1	2542.8
25647	13.023	4.4545	0.1	2522.
25648	12.749	4.3636	0.1	2589.2
25649	12.84	4.4545	0.1	2568.3
25650	12.566	4.3636	0.1	2635.8
25651	12.657	4.4545	0.1	2614.8
25652	12.383	4.3636	0.1	2682.8
25653	12.474	4.4545	0.1	2661.5
25654	12.2	4.3636	0.1	2730.2
25655	12.291	4.4545	0.1	2708.5
25656	12.017	4.3636	0.1	2778.1
25657	12.109	4.4545	0.1	2755.9
25658	11.834	4.3636	0.1	2826.6
25659	11.926	4.4545	0.1	2803.6
25660	11.651	4.3636	0.1	2875.9
25661	11.743	4.4545	0.1	2851.8
25662	11.468	4.3636	0.1	2926.1
25663	11.56	4.4545	0.1	2900.6
25664	11.285	4.3636	0.1	2977.4
25665	11.377	4.4545	0.1	2949.9
25666	11.102	4.3636	0.1	3030.1
25667	11.194	4.4545	0.1	3000.
25668	10.919	4.3636	0.1	3084.6
25669	11.011	4.4545	0.1	3051.
25670	10.736	4.3636	0.1	3141.2
25671	10.828	4.4545	0.1	3103.
25672	10.553	4.3636	0.1	3200.5
25673	10.645	4.4545	0.1	3156.3
25674	10.371	4.3636	0.1	3263.6
25675	10.462	4.4545	0.1	3211.3
25676	10.188	4.3636	0.1	3331.5
25677	10.279	4.4545	0.1	3268.6
25678	10.005	4.3636	0.1	3406.4
25679	10.096	4.4545	0.1	3329.2
25680	9.8217	4.3636	0.1	3491.6
25681	9.9132	4.4545	0.1	3395.
25682	9.6388	4.3636	0.1	3592.3
25683	9.7302	4.4545	0.1	3469.
25684	9.4558	4.3636	0.1	3717.3
25685	9.5473	4.4545	0.1	3556.6
25686	9.2729	4.3636	0.1	3880.9
25687	9.3643	4.4545	0.1	3666.8
25688	9.0899	4.3636	0.1	4108.6
25689	9.1814	4.4545	0.1	3814.7
25690	8.907	4.3636	0.1	4438.4
25691	8.9985	4.4545	0.1	4026.4
25692	8.724	4.3636	0.1	4946.5
25693	8.8155	4.4545	0.1	4339.6
25694	8.5411	4.3636	0.1	5822.7
25695	8.6326	4.4545	0.1	4823.4
25696	8.4496	4.4545	0.1	5785.4
25697	8.3581	4.3636	0.1	5237.3
25698	23.726	4.5455	0.1	173.38
25699	23.817	4.6364	0.1	160.45
25700	23.909	4.5455	0.1	158.45
25701	23.543	4.5455	0.1	193.78
25702	23.634	4.6364	0.1	178.44
25703	23.36	4.5455	0.1	218.18
25704	23.451	4.6364	0.1	201.24
25705	23.177	4.5455	0.1	245.47
25706	23.268	4.6364	0.1	227.48
25707	22.994	4.5455	0.1	274.92
25708	23.085	4.6364	0.1	256.22
25709	22.811	4.5455	0.1	306.03
25710	22.902	4.6364	0.1	286.86
25711	22.628	4.5455	0.1	338.44
25712	22.719	4.6364	0.1	318.96
25713	22.445	4.5455	0.1	371.9
25714	22.536	4.6364	0.1	352.22
25715	22.262	4.5455	0.1	406.23
25716	22.353	4.6364	0.1	386.42
25717	22.079	4.5455	0.1	441.28
25718	22.171	4.6364	0.1	421.4
25719	21.896	4.5455	0.1	476.96
25720	21.988	4.6364	0.1	457.02
25721	21.713	4.5455	0.1	513.18
25722	21.805	4.6364	0.1	493.21
25723	21.53	4.5455	0.1	549.88
25724	21.622	4.6364	0.1	529.89
25725	21.347	4.5455	0.1	587.01
25726	21.439	4.6364	0.1	567.
25727	21.164	4.5455	0.1	624.53
25728	21.256	4.6364	0.1	604.51
25729	20.981	4.5455	0.1	662.41
25730	21.073	4.6364	0.1	642.38
25731	20.798	4.5455	0.1	700.63
25732	20.89	4.6364	0.1	680.58
25733	20.616	4.5455	0.1	739.17
25734	20.707	4.6364	0.1	719.1
25735	20.433	4.5455	0.1	778.01
25736	20.524	4.6364	0.1	757.92
25737	20.25	4.5455	0.1	817.14
25738	20.341	4.6364	0.1	797.02
25739	20.067	4.5455	0.1	856.54
25740	20.158	4.6364	0.1	836.4
25741	19.884	4.5455	0.1	896.21
25742	19.975	4.6364	0.1	876.03
25743	19.701	4.5455	0.1	936.14
25744	19.792	4.6364	0.1	915.92
25745	19.518	4.5455	0.1	976.32
25746	19.609	4.6364	0.1	956.06
25747	19.335	4.5455	0.1	1016.7
25748	19.426	4.6364	0.1	996.43
25749	19.152	4.5455	0.1	1057.4
25750	19.243	4.6364	0.1	1037.
25751	18.969	4.5455	0.1	1098.3
25752	19.06	4.6364	0.1	1077.9
25753	18.786	4.5455	0.1	1139.4
25754	18.878	4.6364	0.1	1118.9
25755	18.603	4.5455	0.1	1180.7
25756	18.695	4.6364	0.1	1160.2
25757	18.42	4.5455	0.1	1222.3
25758	18.512	4.6364	0.1	1201.7
25759	18.237	4.5455	0.1	1264.
25760	18.329	4.6364	0.1	1243.4
25761	18.054	4.5455	0.1	1306.
25762	18.146	4.6364	0.1	1285.3
25763	17.871	4.5455	0.1	1348.2
25764	17.963	4.6364	0.1	1327.5
25765	17.688	4.5455	0.1	1390.5
25766	17.78	4.6364	0.1	1369.8
25767	17.505	4.5455	0.1	1433.1
25768	17.597	4.6364	0.1	1412.3
25769	17.322	4.5455	0.1	1475.8
25770	17.414	4.6364	0.1	1455.
25771	17.14	4.5455	0.1	1518.7
25772	17.231	4.6364	0.1	1497.8
25773	16.957	4.5455	0.1	1561.8
25774	17.048	4.6364	0.1	1540.9
25775	16.774	4.5455	0.1	1605.1
25776	16.865	4.6364	0.1	1584.2
25777	16.591	4.5455	0.1	1648.6
25778	16.682	4.6364	0.1	1627.6
25779	16.408	4.5455	0.1	1692.2
25780	16.499	4.6364	0.1	1671.2
25781	16.225	4.5455	0.1	1735.9
25782	16.316	4.6364	0.1	1714.9
25783	16.042	4.5455	0.1	1779.9
25784	16.133	4.6364	0.1	1758.8
25785	15.859	4.5455	0.1	1824.
25786	15.95	4.6364	0.1	1802.9
25787	15.676	4.5455	0.1	1868.2
25788	15.767	4.6364	0.1	1847.1
25789	15.493	4.5455	0.1	1912.6
25790	15.584	4.6364	0.1	1891.5
25791	15.31	4.5455	0.1	1957.1
25792	15.402	4.6364	0.1	1936.
25793	15.127	4.5455	0.1	2001.7
25794	15.219	4.6364	0.1	1980.7
25795	14.944	4.5455	0.1	2046.5
25796	15.036	4.6364	0.1	2025.5
25797	14.761	4.5455	0.1	2091.4
25798	14.853	4.6364	0.1	2070.4
25799	14.578	4.5455	0.1	2136.5
25800	14.67	4.6364	0.1	2115.5
25801	14.395	4.5455	0.1	2181.6
25802	14.487	4.6364	0.1	2160.7
25803	14.212	4.5455	0.1	2226.9
25804	14.304	4.6364	0.1	2206.
25805	14.029	4.5455	0.1	2272.3
25806	14.121	4.6364	0.1	2251.5
25807	13.847	4.5455	0.1	2317.9
25808	13.938	4.6364	0.1	2297.1
25809	13.664	4.5455	0.1	2363.5
25810	13.755	4.6364	0.1	2342.8
25811	13.481	4.5455	0.1	2409.3
25812	13.572	4.6364	0.1	2388.6
25813	13.298	4.5455	0.1	2455.2
25814	13.389	4.6364	0.1	2434.5
25815	13.115	4.5455	0.1	2501.3
25816	13.206	4.6364	0.1	2480.6
25817	12.932	4.5455	0.1	2547.5
25818	13.023	4.6364	0.1	2526.8
25819	12.749	4.5455	0.1	2593.9
25820	12.84	4.6364	0.1	2573.1
25821	12.566	4.5455	0.1	2640.5
25822	12.657	4.6364	0.1	2619.6
25823	12.383	4.5455	0.1	2687.3
25824	12.474	4.6364	0.1	2666.2
25825	12.2	4.5455	0.1	2734.2
25826	12.291	4.6364	0.1	2712.9
25827	12.017	4.5455	0.1	2781.4
25828	12.109	4.6364	0.1	2759.6
25829	11.834	4.5455	0.1	2828.9
25830	11.926	4.6364	0.1	2806.5
25831	11.651	4.5455	0.1	2876.6
25832	11.743	4.6364	0.1	2853.4
25833	11.468	4.5455	0.1	2924.5
25834	11.56	4.6364	0.1	2900.2
25835	11.285	4.5455	0.1	2972.6
25836	11.377	4.6364	0.1	2946.8
25837	11.102	4.5455	0.1	3021.
25838	11.194	4.6364	0.1	2993.2
25839	10.919	4.5455	0.1	3069.5
25840	11.011	4.6364	0.1	3039.1
25841	10.736	4.5455	0.1	3118.2
25842	10.828	4.6364	0.1	3084.4
25843	10.553	4.5455	0.1	3167.
25844	10.645	4.6364	0.1	3128.6
25845	10.371	4.5455	0.1	3216.2
25846	10.462	4.6364	0.1	3171.7
25847	10.188	4.5455	0.1	3265.9
25848	10.279	4.6364	0.1	3213.3
25849	10.005	4.5455	0.1	3316.9
25850	10.096	4.6364	0.1	3253.4
25851	9.8217	4.5455	0.1	3370.7
25852	9.9132	4.6364	0.1	3292.3
25853	9.6388	4.5455	0.1	3430.3
25854	9.7302	4.6364	0.1	3331.1
25855	9.4558	4.5455	0.1	3500.9
25856	9.5473	4.6364	0.1	3372.4
25857	9.2729	4.5455	0.1	3591.6
25858	9.3643	4.6364	0.1	3421.4
25859	9.0899	4.5455	0.1	3716.8
25860	9.1814	4.6364	0.1	3487.
25861	8.907	4.5455	0.1	3899.4
25862	8.9985	4.6364	0.1	3584.2
25863	8.724	4.5455	0.1	4162.
25864	8.8155	4.6364	0.1	3735.7
25865	8.5411	4.5455	0.1	4628.5
25866	8.6326	4.6364	0.1	3968.3
25867	8.4496	4.6364	0.1	4494.9
25868	8.3581	4.5455	0.1	4066.6
25869	23.726	4.7273	0.1	164.29
25870	23.817	4.8182	0.1	150.49
25871	23.909	4.7273	0.1	148.97
25872	23.543	4.7273	0.1	185.11
25873	23.634	4.8182	0.1	168.85
25874	23.36	4.7273	0.1	210.05
25875	23.451	4.8182	0.1	192.22
25876	23.177	4.7273	0.1	237.93
25877	23.268	4.8182	0.1	219.12
25878	22.994	4.7273	0.1	267.99
25879	23.085	4.8182	0.1	248.56
25880	22.811	4.7273	0.1	299.71
25881	22.902	4.8182	0.1	279.9
25882	22.628	4.7273	0.1	332.71
25883	22.719	4.8182	0.1	312.68
25884	22.445	4.7273	0.1	366.75
25885	22.536	4.8182	0.1	346.59
25886	22.262	4.7273	0.1	401.61
25887	22.353	4.8182	0.1	381.4
25888	22.079	4.7273	0.1	437.17
25889	22.171	4.8182	0.1	416.93
25890	21.896	4.7273	0.1	473.32
25891	21.988	4.8182	0.1	453.08
25892	21.713	4.7273	0.1	509.97
25893	21.805	4.8182	0.1	489.74
25894	21.53	4.7273	0.1	547.07
25895	21.622	4.8182	0.1	526.86
25896	21.347	4.7273	0.1	584.56
25897	21.439	4.8182	0.1	564.37
25898	21.164	4.7273	0.1	622.42
25899	21.256	4.8182	0.1	602.24
25900	20.981	4.7273	0.1	660.61
25901	21.073	4.8182	0.1	640.44
25902	20.798	4.7273	0.1	699.12
25903	20.89	4.8182	0.1	678.95
25904	20.616	4.7273	0.1	737.92
25905	20.707	4.8182	0.1	717.75
25906	20.433	4.7273	0.1	776.99
25907	20.524	4.8182	0.1	756.82
25908	20.25	4.7273	0.1	816.34
25909	20.341	4.8182	0.1	796.16
25910	20.067	4.7273	0.1	855.94
25911	20.158	4.8182	0.1	835.74
25912	19.884	4.7273	0.1	895.8
25913	19.975	4.8182	0.1	875.57
25914	19.701	4.7273	0.1	935.9
25915	19.792	4.8182	0.1	915.64
25916	19.518	4.7273	0.1	976.23
25917	19.609	4.8182	0.1	955.94
25918	19.335	4.7273	0.1	1016.8
25919	19.426	4.8182	0.1	996.47
25920	19.152	4.7273	0.1	1057.6
25921	19.243	4.8182	0.1	1037.2
25922	18.969	4.7273	0.1	1098.6
25923	19.06	4.8182	0.1	1078.2
25924	18.786	4.7273	0.1	1139.8
25925	18.878	4.8182	0.1	1119.4
25926	18.603	4.7273	0.1	1181.3
25927	18.695	4.8182	0.1	1160.8
25928	18.42	4.7273	0.1	1222.9
25929	18.512	4.8182	0.1	1202.4
25930	18.237	4.7273	0.1	1264.8
25931	18.329	4.8182	0.1	1244.2
25932	18.054	4.7273	0.1	1306.9
25933	18.146	4.8182	0.1	1286.2
25934	17.871	4.7273	0.1	1349.1
25935	17.963	4.8182	0.1	1328.4
25936	17.688	4.7273	0.1	1391.6
25937	17.78	4.8182	0.1	1370.8
25938	17.505	4.7273	0.1	1434.2
25939	17.597	4.8182	0.1	1413.5
25940	17.322	4.7273	0.1	1477.1
25941	17.414	4.8182	0.1	1456.2
25942	17.14	4.7273	0.1	1520.1
25943	17.231	4.8182	0.1	1499.2
25944	16.957	4.7273	0.1	1563.3
25945	17.048	4.8182	0.1	1542.4
25946	16.774	4.7273	0.1	1606.7
25947	16.865	4.8182	0.1	1585.7
25948	16.591	4.7273	0.1	1650.2
25949	16.682	4.8182	0.1	1629.3
25950	16.408	4.7273	0.1	1693.9
25951	16.499	4.8182	0.1	1673.
25952	16.225	4.7273	0.1	1737.8
25953	16.316	4.8182	0.1	1716.8
25954	16.042	4.7273	0.1	1781.9
25955	16.133	4.8182	0.1	1760.9
25956	15.859	4.7273	0.1	1826.1
25957	15.95	4.8182	0.1	1805.1
25958	15.676	4.7273	0.1	1870.5
25959	15.767	4.8182	0.1	1849.4
25960	15.493	4.7273	0.1	1915.
25961	15.584	4.8182	0.1	1893.9
25962	15.31	4.7273	0.1	1959.6
25963	15.402	4.8182	0.1	1938.6
25964	15.127	4.7273	0.1	2004.5
25965	15.219	4.8182	0.1	1983.4
25966	14.944	4.7273	0.1	2049.4
25967	15.036	4.8182	0.1	2028.4
25968	14.761	4.7273	0.1	2094.5
25969	14.853	4.8182	0.1	2073.5
25970	14.578	4.7273	0.1	2139.7
25971	14.67	4.8182	0.1	2118.8
25972	14.395	4.7273	0.1	2185.1
25973	14.487	4.8182	0.1	2164.2
25974	14.212	4.7273	0.1	2230.6
25975	14.304	4.8182	0.1	2209.7
25976	14.029	4.7273	0.1	2276.2
25977	14.121	4.8182	0.1	2255.4
25978	13.847	4.7273	0.1	2322.
25979	13.938	4.8182	0.1	2301.2
25980	13.664	4.7273	0.1	2367.8
25981	13.755	4.8182	0.1	2347.1
25982	13.481	4.7273	0.1	2413.8
25983	13.572	4.8182	0.1	2393.1
25984	13.298	4.7273	0.1	2459.9
25985	13.389	4.8182	0.1	2439.2
25986	13.115	4.7273	0.1	2506.1
25987	13.206	4.8182	0.1	2485.5
25988	12.932	4.7273	0.1	2552.5
25989	13.023	4.8182	0.1	2531.8
25990	12.749	4.7273	0.1	2598.8
25991	12.84	4.8182	0.1	2578.1
25992	12.566	4.7273	0.1	2645.3
25993	12.657	4.8182	0.1	2624.5
25994	12.383	4.7273	0.1	2691.8
25995	12.474	4.8182	0.1	2670.9
25996	12.2	4.7273	0.1	2738.3
25997	12.291	4.8182	0.1	2717.2
25998	12.017	4.7273	0.1	2784.7
25999	12.109	4.8182	0.1	2763.4
26000	11.834	4.7273	0.1	2831.
26001	11.926	4.8182	0.1	2809.3
26002	11.651	4.7273	0.1	2877.
26003	11.743	4.8182	0.1	2854.7
26004	11.468	4.7273	0.1	2922.6
26005	11.56	4.8182	0.1	2899.5
26006	11.285	4.7273	0.1	2967.5
26007	11.377	4.8182	0.1	2943.4
26008	11.102	4.7273	0.1	3011.4
26009	11.194	4.8182	0.1	2986.
26010	10.919	4.7273	0.1	3054.
26011	11.011	4.8182	0.1	3026.9
26012	10.736	4.7273	0.1	3094.8
26013	10.828	4.8182	0.1	3065.4
26014	10.553	4.7273	0.1	3133.2
26015	10.645	4.8182	0.1	3100.8
26016	10.371	4.7273	0.1	3168.6
26017	10.462	4.8182	0.1	3132.1
26018	10.188	4.7273	0.1	3200.3
26019	10.279	4.8182	0.1	3158.5
26020	10.005	4.7273	0.1	3227.7
26021	10.096	4.8182	0.1	3178.6
26022	9.8217	4.7273	0.1	3250.7
26023	9.9132	4.8182	0.1	3191.4
26024	9.6388	4.7273	0.1	3269.8
26025	9.7302	4.8182	0.1	3196.1
26026	9.4558	4.7273	0.1	3286.8
26027	9.5473	4.8182	0.1	3192.7
26028	9.2729	4.7273	0.1	3306.1
26029	9.3643	4.8182	0.1	3182.8
26030	9.0899	4.7273	0.1	3335.6
26031	9.1814	4.8182	0.1	3170.7
26032	8.907	4.7273	0.1	3387.3
26033	8.9985	4.8182	0.1	3165.9
26034	8.724	4.7273	0.1	3482.1
26035	8.8155	4.8182	0.1	3183.9
26036	8.5411	4.7273	0.1	3728.2
26037	8.6326	4.8182	0.1	3255.5
26038	8.4496	4.8182	0.1	3567.1
26039	8.3581	4.7273	0.1	3201.9
26040	23.726	4.9091	0.1	153.82
26041	23.817	5.	0.1	139.01
26042	23.909	4.9091	0.1	138.
26043	23.543	4.9091	0.1	175.2
26044	23.634	5.	0.1	157.86
26045	23.36	4.9091	0.1	200.84
26046	23.451	5.	0.1	182.01
26047	23.177	4.9091	0.1	229.5
26048	23.268	5.	0.1	209.78
26049	22.994	4.9091	0.1	260.34
26050	23.085	5.	0.1	240.13
26051	22.811	4.9091	0.1	292.82
26052	22.902	5.	0.1	272.36
26053	22.628	4.9091	0.1	326.56
26054	22.719	5.	0.1	305.98
26055	22.445	4.9091	0.1	361.27
26056	22.536	5.	0.1	340.67
26057	22.262	4.9091	0.1	396.77
26058	22.353	5.	0.1	376.18
26059	22.079	4.9091	0.1	432.9
26060	22.171	5.	0.1	412.36
26061	21.896	4.9091	0.1	469.57
26062	21.988	5.	0.1	449.08
26063	21.713	4.9091	0.1	506.7
26064	21.805	5.	0.1	486.26
26065	21.53	4.9091	0.1	544.23
26066	21.622	5.	0.1	523.84
26067	21.347	4.9091	0.1	582.12
26068	21.439	5.	0.1	561.78
26069	21.164	4.9091	0.1	620.34
26070	21.256	5.	0.1	600.04
26071	20.981	4.9091	0.1	658.86
26072	21.073	5.	0.1	638.58
26073	20.798	4.9091	0.1	697.66
26074	20.89	5.	0.1	677.41
26075	20.616	4.9091	0.1	736.73
26076	20.707	5.	0.1	716.49
26077	20.433	4.9091	0.1	776.05
26078	20.524	5.	0.1	755.82
26079	20.25	4.9091	0.1	815.62
26080	20.341	5.	0.1	795.39
26081	20.067	4.9091	0.1	855.43
26082	20.158	5.	0.1	835.2
26083	19.884	4.9091	0.1	895.48
26084	19.975	5.	0.1	875.23
26085	19.701	4.9091	0.1	935.75
26086	19.792	5.	0.1	915.48
26087	19.518	4.9091	0.1	976.25
26088	19.609	5.	0.1	955.95
26089	19.335	4.9091	0.1	1017.
26090	19.426	5.	0.1	996.64
26091	19.152	4.9091	0.1	1057.9
26092	19.243	5.	0.1	1037.5
26093	18.969	4.9091	0.1	1099.
26094	19.06	5.	0.1	1078.6
26095	18.786	4.9091	0.1	1140.4
26096	18.878	5.	0.1	1120.
26097	18.603	4.9091	0.1	1182.
26098	18.695	5.	0.1	1161.5
26099	18.42	4.9091	0.1	1223.7
26100	18.512	5.	0.1	1203.2
26101	18.237	4.9091	0.1	1265.7
26102	18.329	5.	0.1	1245.1
26103	18.054	4.9091	0.1	1307.9
26104	18.146	5.	0.1	1287.3
26105	17.871	4.9091	0.1	1350.2
26106	17.963	5.	0.1	1329.6
26107	17.688	4.9091	0.1	1392.8
26108	17.78	5.	0.1	1372.1
26109	17.505	4.9091	0.1	1435.5
26110	17.597	5.	0.1	1414.8
26111	17.322	4.9091	0.1	1478.5
26112	17.414	5.	0.1	1457.7
26113	17.14	4.9091	0.1	1521.6
26114	17.231	5.	0.1	1500.8
26115	16.957	4.9091	0.1	1564.9
26116	17.048	5.	0.1	1544.
26117	16.774	4.9091	0.1	1608.4
26118	16.865	5.	0.1	1587.5
26119	16.591	4.9091	0.1	1652.
26120	16.682	5.	0.1	1631.1
26121	16.408	4.9091	0.1	1695.9
26122	16.499	5.	0.1	1674.9
26123	16.225	4.9091	0.1	1739.9
26124	16.316	5.	0.1	1718.9
26125	16.042	4.9091	0.1	1784.1
26126	16.133	5.	0.1	1763.1
26127	15.859	4.9091	0.1	1828.4
26128	15.95	5.	0.1	1807.4
26129	15.676	4.9091	0.1	1872.9
26130	15.767	5.	0.1	1851.9
26131	15.493	4.9091	0.1	1917.6
26132	15.584	5.	0.1	1896.6
26133	15.31	4.9091	0.1	1962.4
26134	15.402	5.	0.1	1941.4
26135	15.127	4.9091	0.1	2007.4
26136	15.219	5.	0.1	1986.4
26137	14.944	4.9091	0.1	2052.5
26138	15.036	5.	0.1	2031.5
26139	14.761	4.9091	0.1	2097.8
26140	14.853	5.	0.1	2076.8
26141	14.578	4.9091	0.1	2143.2
26142	14.67	5.	0.1	2122.3
26143	14.395	4.9091	0.1	2188.8
26144	14.487	5.	0.1	2167.9
26145	14.212	4.9091	0.1	2234.5
26146	14.304	5.	0.1	2213.6
26147	14.029	4.9091	0.1	2280.3
26148	14.121	5.	0.1	2259.5
26149	13.847	4.9091	0.1	2326.3
26150	13.938	5.	0.1	2305.5
26151	13.664	4.9091	0.1	2372.4
26152	13.755	5.	0.1	2351.6
26153	13.481	4.9091	0.1	2418.5
26154	13.572	5.	0.1	2397.8
26155	13.298	4.9091	0.1	2464.8
26156	13.389	5.	0.1	2444.1
26157	13.115	4.9091	0.1	2511.1
26158	13.206	5.	0.1	2490.5
26159	12.932	4.9091	0.1	2557.5
26160	13.023	5.	0.1	2536.8
26161	12.749	4.9091	0.1	2603.9
26162	12.84	5.	0.1	2583.2
26163	12.566	4.9091	0.1	2650.2
26164	12.657	5.	0.1	2629.5
26165	12.383	4.9091	0.1	2696.4
26166	12.474	5.	0.1	2675.6
26167	12.2	4.9091	0.1	2742.3
26168	12.291	5.	0.1	2721.5
26169	12.017	4.9091	0.1	2787.9
26170	12.109	5.	0.1	2767.
26171	11.834	4.9091	0.1	2833.
26172	11.926	5.	0.1	2811.8
26173	11.651	4.9091	0.1	2877.2
26174	11.743	5.	0.1	2855.8
26175	11.468	4.9091	0.1	2920.4
26176	11.56	5.	0.1	2898.6
26177	11.285	4.9091	0.1	2962.
26178	11.377	5.	0.1	2939.7
26179	11.102	4.9091	0.1	3001.5
26180	11.194	5.	0.1	2978.6
26181	10.919	4.9091	0.1	3038.3
26182	11.011	5.	0.1	3014.5
26183	10.736	4.9091	0.1	3071.3
26184	10.828	5.	0.1	3046.4
26185	10.553	4.9091	0.1	3099.6
26186	10.645	5.	0.1	3073.3
26187	10.371	4.9091	0.1	3121.8
26188	10.462	5.	0.1	3093.5
26189	10.188	4.9091	0.1	3136.2
26190	10.279	5.	0.1	3105.3
26191	10.005	4.9091	0.1	3141.1
26192	10.096	5.	0.1	3106.6
26193	9.8217	4.9091	0.1	3134.8
26194	9.9132	5.	0.1	3095.
26195	9.6388	4.9091	0.1	3115.5
26196	9.7302	5.	0.1	3068.1
26197	9.4558	4.9091	0.1	3082.3
26198	9.5473	5.	0.1	3023.4
26199	9.2729	4.9091	0.1	3036.2
26200	9.3643	5.	0.1	2960.
26201	9.0899	4.9091	0.1	2981.6
26202	9.1814	5.	0.1	2879.1
26203	8.907	4.9091	0.1	2929.2
26204	8.9985	5.	0.1	2787.8
26205	8.724	4.9091	0.1	2903.3
26206	8.8155	5.	0.1	2702.9
26207	8.5411	4.9091	0.1	3011.3
26208	8.6326	5.	0.1	2662.2
26209	8.4496	5.	0.1	2840.6
26210	8.3581	4.9091	0.1	2554.5
26211	23.726	5.0909	0.1	141.82
26212	23.817	5.1818	0.1	125.76
26213	23.909	5.0909	0.1	125.35
26214	23.543	5.0909	0.1	163.96
26215	23.634	5.1818	0.1	145.32
26216	23.36	5.0909	0.1	190.56
26217	23.451	5.1818	0.1	170.55
26218	23.177	5.0909	0.1	220.24
26219	23.268	5.1818	0.1	199.55
26220	22.994	5.0909	0.1	252.09
26221	23.085	5.1818	0.1	231.1
26222	22.811	5.0909	0.1	285.53
26223	22.902	5.1818	0.1	264.45
26224	22.628	5.0909	0.1	320.14
26225	22.719	5.1818	0.1	299.08
26226	22.445	5.0909	0.1	355.64
26227	22.536	5.1818	0.1	334.66
26228	22.262	5.0909	0.1	391.85
26229	22.353	5.1818	0.1	370.96
26230	22.079	5.0909	0.1	428.62
26231	22.171	5.1818	0.1	407.83
26232	21.896	5.0909	0.1	465.86
26233	21.988	5.1818	0.1	445.17
26234	21.713	5.0909	0.1	503.49
26235	21.805	5.1818	0.1	482.9
26236	21.53	5.0909	0.1	541.48
26237	21.622	5.1818	0.1	520.97
26238	21.347	5.0909	0.1	579.78
26239	21.439	5.1818	0.1	559.34
26240	21.164	5.0909	0.1	618.36
26241	21.256	5.1818	0.1	597.99
26242	20.981	5.0909	0.1	657.22
26243	21.073	5.1818	0.1	636.89
26244	20.798	5.0909	0.1	696.32
26245	20.89	5.1818	0.1	676.03
26246	20.616	5.0909	0.1	735.66
26247	20.707	5.1818	0.1	715.4
26248	20.433	5.0909	0.1	775.24
26249	20.524	5.1818	0.1	754.99
26250	20.25	5.0909	0.1	815.04
26251	20.341	5.1818	0.1	794.8
26252	20.067	5.0909	0.1	855.06
26253	20.158	5.1818	0.1	834.82
26254	19.884	5.0909	0.1	895.3
26255	19.975	5.1818	0.1	875.05
26256	19.701	5.0909	0.1	935.75
26257	19.792	5.1818	0.1	915.49
26258	19.518	5.0909	0.1	976.41
26259	19.609	5.1818	0.1	956.13
26260	19.335	5.0909	0.1	1017.3
26261	19.426	5.1818	0.1	996.97
26262	19.152	5.0909	0.1	1058.4
26263	19.243	5.1818	0.1	1038.
26264	18.969	5.0909	0.1	1099.6
26265	19.06	5.1818	0.1	1079.3
26266	18.786	5.0909	0.1	1141.1
26267	18.878	5.1818	0.1	1120.7
26268	18.603	5.0909	0.1	1182.8
26269	18.695	5.1818	0.1	1162.3
26270	18.42	5.0909	0.1	1224.7
26271	18.512	5.1818	0.1	1204.2
26272	18.237	5.0909	0.1	1266.7
26273	18.329	5.1818	0.1	1246.2
26274	18.054	5.0909	0.1	1309.
26275	18.146	5.1818	0.1	1288.4
26276	17.871	5.0909	0.1	1351.5
26277	17.963	5.1818	0.1	1330.9
26278	17.688	5.0909	0.1	1394.1
26279	17.78	5.1818	0.1	1373.5
26280	17.505	5.0909	0.1	1437.
26281	17.597	5.1818	0.1	1416.3
26282	17.322	5.0909	0.1	1480.
26283	17.414	5.1818	0.1	1459.3
26284	17.14	5.0909	0.1	1523.3
26285	17.231	5.1818	0.1	1502.5
26286	16.957	5.0909	0.1	1566.7
26287	17.048	5.1818	0.1	1545.8
26288	16.774	5.0909	0.1	1610.3
26289	16.865	5.1818	0.1	1589.4
26290	16.591	5.0909	0.1	1654.
26291	16.682	5.1818	0.1	1633.2
26292	16.408	5.0909	0.1	1698.
26293	16.499	5.1818	0.1	1677.1
26294	16.225	5.0909	0.1	1742.1
26295	16.316	5.1818	0.1	1721.2
26296	16.042	5.0909	0.1	1786.4
26297	16.133	5.1818	0.1	1765.5
26298	15.859	5.0909	0.1	1830.9
26299	15.95	5.1818	0.1	1809.9
26300	15.676	5.0909	0.1	1875.6
26301	15.767	5.1818	0.1	1854.6
26302	15.493	5.0909	0.1	1920.4
26303	15.584	5.1818	0.1	1899.4
26304	15.31	5.0909	0.1	1965.4
26305	15.402	5.1818	0.1	1944.4
26306	15.127	5.0909	0.1	2010.6
26307	15.219	5.1818	0.1	1989.5
26308	14.944	5.0909	0.1	2055.9
26309	15.036	5.1818	0.1	2034.9
26310	14.761	5.0909	0.1	2101.3
26311	14.853	5.1818	0.1	2080.3
26312	14.578	5.0909	0.1	2146.9
26313	14.67	5.1818	0.1	2126.
26314	14.395	5.0909	0.1	2192.7
26315	14.487	5.1818	0.1	2171.8
26316	14.212	5.0909	0.1	2238.6
26317	14.304	5.1818	0.1	2217.7
26318	14.029	5.0909	0.1	2284.7
26319	14.121	5.1818	0.1	2263.8
26320	13.847	5.0909	0.1	2330.8
26321	13.938	5.1818	0.1	2310.
26322	13.664	5.0909	0.1	2377.1
26323	13.755	5.1818	0.1	2356.3
26324	13.481	5.0909	0.1	2423.4
26325	13.572	5.1818	0.1	2402.7
26326	13.298	5.0909	0.1	2469.8
26327	13.389	5.1818	0.1	2449.1
26328	13.115	5.0909	0.1	2516.2
26329	13.206	5.1818	0.1	2495.5
26330	12.932	5.0909	0.1	2562.6
26331	13.023	5.1818	0.1	2542.
26332	12.749	5.0909	0.1	2608.9
26333	12.84	5.1818	0.1	2588.3
26334	12.566	5.0909	0.1	2655.
26335	12.657	5.1818	0.1	2634.4
26336	12.383	5.0909	0.1	2700.8
26337	12.474	5.1818	0.1	2680.3
26338	12.2	5.0909	0.1	2746.2
26339	12.291	5.1818	0.1	2725.7
26340	12.017	5.0909	0.1	2790.9
26341	12.109	5.1818	0.1	2770.4
26342	11.834	5.0909	0.1	2834.7
26343	11.926	5.1818	0.1	2814.1
26344	11.651	5.0909	0.1	2877.2
26345	11.743	5.1818	0.1	2856.6
26346	11.468	5.0909	0.1	2917.9
26347	11.56	5.1818	0.1	2897.3
26348	11.285	5.0909	0.1	2956.3
26349	11.377	5.1818	0.1	2935.7
26350	11.102	5.0909	0.1	2991.5
26351	11.194	5.1818	0.1	2970.9
26352	10.919	5.0909	0.1	3022.6
26353	11.011	5.1818	0.1	3002.
26354	10.736	5.0909	0.1	3048.3
26355	10.828	5.1818	0.1	3027.8
26356	10.553	5.0909	0.1	3067.
26357	10.645	5.1818	0.1	3046.6
26358	10.371	5.0909	0.1	3076.7
26359	10.462	5.1818	0.1	3056.5
26360	10.188	5.0909	0.1	3075.2
26361	10.279	5.1818	0.1	3055.
26362	10.005	5.0909	0.1	3059.5
26363	10.096	5.1818	0.1	3039.3
26364	9.8217	5.0909	0.1	3026.4
26365	9.9132	5.1818	0.1	3005.9
26366	9.6388	5.0909	0.1	2972.7
26367	9.7302	5.1818	0.1	2951.
26368	9.4558	5.0909	0.1	2895.3
26369	9.5473	5.1818	0.1	2870.6
26370	9.2729	5.0909	0.1	2792.7
26371	9.3643	5.1818	0.1	2761.5
26372	9.0899	5.0909	0.1	2667.6
26373	9.1814	5.1818	0.1	2622.9
26374	8.907	5.0909	0.1	2531.5
26375	8.9985	5.1818	0.1	2460.5
26376	8.724	5.0909	0.1	2414.5
26377	8.8155	5.1818	0.1	2292.8
26378	8.5411	5.0909	0.1	2422.2
26379	8.6326	5.1818	0.1	2165.4
26380	8.4496	5.1818	0.1	2241.8
26381	8.3581	5.0909	0.1	2032.3
26382	23.726	5.2727	0.1	128.06
26383	23.817	5.3636	0.1	110.39
26384	23.909	5.2727	0.1	110.7
26385	23.543	5.2727	0.1	151.31
26386	23.634	5.3636	0.1	131.09
26387	23.36	5.2727	0.1	179.27
26388	23.451	5.3636	0.1	157.96
26389	23.177	5.2727	0.1	210.33
26390	23.268	5.3636	0.1	188.66
26391	22.994	5.2727	0.1	243.48
26392	23.085	5.3636	0.1	221.78
26393	22.811	5.2727	0.1	278.08
26394	22.902	5.3636	0.1	256.49
26395	22.628	5.2727	0.1	313.7
26396	22.719	5.3636	0.1	292.29
26397	22.445	5.2727	0.1	350.09
26398	22.536	5.3636	0.1	328.85
26399	22.262	5.2727	0.1	387.06
26400	22.353	5.3636	0.1	366.
26401	22.079	5.2727	0.1	424.51
26402	22.171	5.3636	0.1	403.6
26403	21.896	5.2727	0.1	462.33
26404	21.988	5.3636	0.1	441.56
26405	21.713	5.2727	0.1	500.49
26406	21.805	5.3636	0.1	479.84
26407	21.53	5.2727	0.1	538.94
26408	21.622	5.3636	0.1	518.39
26409	21.347	5.2727	0.1	577.65
26410	21.439	5.3636	0.1	557.19
26411	21.164	5.2727	0.1	616.6
26412	21.256	5.3636	0.1	596.22
26413	20.981	5.2727	0.1	655.79
26414	21.073	5.3636	0.1	635.46
26415	20.798	5.2727	0.1	695.19
26416	20.89	5.3636	0.1	674.91
26417	20.616	5.2727	0.1	734.81
26418	20.707	5.3636	0.1	714.56
26419	20.433	5.2727	0.1	774.63
26420	20.524	5.3636	0.1	754.4
26421	20.25	5.2727	0.1	814.65
26422	20.341	5.3636	0.1	794.44
26423	20.067	5.2727	0.1	854.88
26424	20.158	5.3636	0.1	834.67
26425	19.884	5.2727	0.1	895.31
26426	19.975	5.3636	0.1	875.09
26427	19.701	5.2727	0.1	935.93
26428	19.792	5.3636	0.1	915.7
26429	19.518	5.2727	0.1	976.75
26430	19.609	5.3636	0.1	956.51
26431	19.335	5.2727	0.1	1017.8
26432	19.426	5.3636	0.1	997.5
26433	19.152	5.2727	0.1	1059.
26434	19.243	5.3636	0.1	1038.7
26435	18.969	5.2727	0.1	1100.4
26436	19.06	5.3636	0.1	1080.1
26437	18.786	5.2727	0.1	1142.
26438	18.878	5.3636	0.1	1121.6
26439	18.603	5.2727	0.1	1183.8
26440	18.695	5.3636	0.1	1163.4
26441	18.42	5.2727	0.1	1225.8
26442	18.512	5.3636	0.1	1205.3
26443	18.237	5.2727	0.1	1268.
26444	18.329	5.3636	0.1	1247.5
26445	18.054	5.2727	0.1	1310.3
26446	18.146	5.3636	0.1	1289.8
26447	17.871	5.2727	0.1	1352.9
26448	17.963	5.3636	0.1	1332.3
26449	17.688	5.2727	0.1	1395.7
26450	17.78	5.3636	0.1	1375.1
26451	17.505	5.2727	0.1	1438.6
26452	17.597	5.3636	0.1	1418.
26453	17.322	5.2727	0.1	1481.8
26454	17.414	5.3636	0.1	1461.1
26455	17.14	5.2727	0.1	1525.1
26456	17.231	5.3636	0.1	1504.4
26457	16.957	5.2727	0.1	1568.6
26458	17.048	5.3636	0.1	1547.8
26459	16.774	5.2727	0.1	1612.3
26460	16.865	5.3636	0.1	1591.5
26461	16.591	5.2727	0.1	1656.2
26462	16.682	5.3636	0.1	1635.4
26463	16.408	5.2727	0.1	1700.3
26464	16.499	5.3636	0.1	1679.4
26465	16.225	5.2727	0.1	1744.6
26466	16.316	5.3636	0.1	1723.7
26467	16.042	5.2727	0.1	1789.
26468	16.133	5.3636	0.1	1768.1
26469	15.859	5.2727	0.1	1833.6
26470	15.95	5.3636	0.1	1812.7
26471	15.676	5.2727	0.1	1878.4
26472	15.767	5.3636	0.1	1857.5
26473	15.493	5.2727	0.1	1923.4
26474	15.584	5.3636	0.1	1902.4
26475	15.31	5.2727	0.1	1968.6
26476	15.402	5.3636	0.1	1947.6
26477	15.127	5.2727	0.1	2013.9
26478	15.219	5.3636	0.1	1992.9
26479	14.944	5.2727	0.1	2059.4
26480	15.036	5.3636	0.1	2038.4
26481	14.761	5.2727	0.1	2105.
26482	14.853	5.3636	0.1	2084.1
26483	14.578	5.2727	0.1	2150.8
26484	14.67	5.3636	0.1	2129.9
26485	14.395	5.2727	0.1	2196.8
26486	14.487	5.3636	0.1	2175.9
26487	14.212	5.2727	0.1	2242.9
26488	14.304	5.3636	0.1	2222.
26489	14.029	5.2727	0.1	2289.1
26490	14.121	5.3636	0.1	2268.2
26491	13.847	5.2727	0.1	2335.5
26492	13.938	5.3636	0.1	2314.6
26493	13.664	5.2727	0.1	2381.9
26494	13.755	5.3636	0.1	2361.1
26495	13.481	5.2727	0.1	2428.4
26496	13.572	5.3636	0.1	2407.6
26497	13.298	5.2727	0.1	2474.9
26498	13.389	5.3636	0.1	2454.2
26499	13.115	5.2727	0.1	2521.3
26500	13.206	5.3636	0.1	2500.7
26501	12.932	5.2727	0.1	2567.7
26502	13.023	5.3636	0.1	2547.1
26503	12.749	5.2727	0.1	2613.9
26504	12.84	5.3636	0.1	2593.4
26505	12.566	5.2727	0.1	2659.8
26506	12.657	5.3636	0.1	2639.3
26507	12.383	5.2727	0.1	2705.2
26508	12.474	5.3636	0.1	2684.8
26509	12.2	5.2727	0.1	2749.9
26510	12.291	5.3636	0.1	2729.7
26511	12.017	5.2727	0.1	2793.6
26512	12.109	5.3636	0.1	2773.6
26513	11.834	5.2727	0.1	2836.1
26514	11.926	5.3636	0.1	2816.2
26515	11.651	5.2727	0.1	2876.8
26516	11.743	5.3636	0.1	2857.2
26517	11.468	5.2727	0.1	2915.1
26518	11.56	5.3636	0.1	2895.8
26519	11.285	5.2727	0.1	2950.4
26520	11.377	5.3636	0.1	2931.5
26521	11.102	5.2727	0.1	2981.5
26522	11.194	5.3636	0.1	2963.2
26523	10.919	5.2727	0.1	3007.2
26524	11.011	5.3636	0.1	2989.8
26525	10.736	5.2727	0.1	3026.
26526	10.828	5.3636	0.1	3009.8
26527	10.553	5.2727	0.1	3035.9
26528	10.645	5.3636	0.1	3021.2
26529	10.371	5.2727	0.1	3034.5
26530	10.462	5.3636	0.1	3021.8
26531	10.188	5.2727	0.1	3018.6
26532	10.279	5.3636	0.1	3008.6
26533	10.005	5.2727	0.1	2984.8
26534	10.096	5.3636	0.1	2978.2
26535	9.8217	5.2727	0.1	2928.9
26536	9.9132	5.3636	0.1	2926.3
26537	9.6388	5.2727	0.1	2846.1
26538	9.7302	5.3636	0.1	2848.2
26539	9.4558	5.2727	0.1	2732.1
26540	9.5473	5.3636	0.1	2738.8
26541	9.2729	5.2727	0.1	2583.5
26542	9.3643	5.3636	0.1	2593.5
26543	9.0899	5.2727	0.1	2401.6
26544	9.1814	5.3636	0.1	2409.7
26545	8.907	5.2727	0.1	2197.3
26546	8.9985	5.3636	0.1	2190.8
26547	8.724	5.2727	0.1	2003.1
26548	8.8155	5.3636	0.1	1954.
26549	8.5411	5.2727	0.1	1922.8
26550	8.6326	5.3636	0.1	1747.3
26551	8.4496	5.3636	0.1	1727.7
26552	8.3581	5.2727	0.1	1589.1
26553	23.726	5.4545	0.1	112.3
26554	23.817	5.5455	0.1	92.401
26555	23.909	5.4545	0.1	93.562
26556	23.543	5.4545	0.1	137.31
26557	23.634	5.5455	0.1	115.19
26558	23.36	5.4545	0.1	167.27
26559	23.451	5.5455	0.1	144.72
26560	23.177	5.4545	0.1	200.2
26561	23.268	5.5455	0.1	177.81
26562	22.994	5.4545	0.1	234.95
26563	23.085	5.5455	0.1	212.86
26564	22.811	5.4545	0.1	270.88
26565	22.902	5.5455	0.1	249.11
26566	22.628	5.4545	0.1	307.61
26567	22.719	5.5455	0.1	286.14
26568	22.445	5.4545	0.1	344.93
26569	22.536	5.5455	0.1	323.72
26570	22.262	5.4545	0.1	382.69
26571	22.353	5.5455	0.1	361.7
26572	22.079	5.4545	0.1	420.8
26573	22.171	5.5455	0.1	400.
26574	21.896	5.4545	0.1	459.21
26575	21.988	5.5455	0.1	438.57
26576	21.713	5.4545	0.1	497.87
26577	21.805	5.5455	0.1	477.37
26578	21.53	5.4545	0.1	536.76
26579	21.622	5.5455	0.1	516.37
26580	21.347	5.4545	0.1	575.87
26581	21.439	5.5455	0.1	555.57
26582	21.164	5.4545	0.1	615.18
26583	21.256	5.5455	0.1	594.96
26584	20.981	5.4545	0.1	654.68
26585	21.073	5.5455	0.1	634.52
26586	20.798	5.4545	0.1	694.37
26587	20.89	5.5455	0.1	674.25
26588	20.616	5.4545	0.1	734.24
26589	20.707	5.5455	0.1	714.16
26590	20.433	5.4545	0.1	774.3
26591	20.524	5.5455	0.1	754.23
26592	20.25	5.4545	0.1	814.53
26593	20.341	5.5455	0.1	794.48
26594	20.067	5.4545	0.1	854.96
26595	20.158	5.5455	0.1	834.91
26596	19.884	5.4545	0.1	895.56
26597	19.975	5.5455	0.1	875.51
26598	19.701	5.4545	0.1	936.35
26599	19.792	5.5455	0.1	916.28
26600	19.518	5.4545	0.1	977.33
26601	19.609	5.5455	0.1	957.24
26602	19.335	5.4545	0.1	1018.5
26603	19.426	5.5455	0.1	998.37
26604	19.152	5.4545	0.1	1059.8
26605	19.243	5.5455	0.1	1039.7
26606	18.969	5.4545	0.1	1101.4
26607	19.06	5.5455	0.1	1081.2
26608	18.786	5.4545	0.1	1143.1
26609	18.878	5.5455	0.1	1122.9
26610	18.603	5.4545	0.1	1185.
26611	18.695	5.5455	0.1	1164.7
26612	18.42	5.4545	0.1	1227.1
26613	18.512	5.5455	0.1	1206.8
26614	18.237	5.4545	0.1	1269.4
26615	18.329	5.5455	0.1	1249.
26616	18.054	5.4545	0.1	1311.9
26617	18.146	5.5455	0.1	1291.5
26618	17.871	5.4545	0.1	1354.5
26619	17.963	5.5455	0.1	1334.1
26620	17.688	5.4545	0.1	1397.4
26621	17.78	5.5455	0.1	1376.9
26622	17.505	5.4545	0.1	1440.5
26623	17.597	5.5455	0.1	1419.9
26624	17.322	5.4545	0.1	1483.7
26625	17.414	5.5455	0.1	1463.1
26626	17.14	5.4545	0.1	1527.2
26627	17.231	5.5455	0.1	1506.5
26628	16.957	5.4545	0.1	1570.8
26629	17.048	5.5455	0.1	1550.1
26630	16.774	5.4545	0.1	1614.6
26631	16.865	5.5455	0.1	1593.9
26632	16.591	5.4545	0.1	1658.6
26633	16.682	5.5455	0.1	1637.9
26634	16.408	5.4545	0.1	1702.8
26635	16.499	5.5455	0.1	1682.
26636	16.225	5.4545	0.1	1747.2
26637	16.316	5.5455	0.1	1726.4
26638	16.042	5.4545	0.1	1791.8
26639	16.133	5.5455	0.1	1770.9
26640	15.859	5.4545	0.1	1836.5
26641	15.95	5.5455	0.1	1815.7
26642	15.676	5.4545	0.1	1881.5
26643	15.767	5.5455	0.1	1860.6
26644	15.493	5.4545	0.1	1926.6
26645	15.584	5.5455	0.1	1905.7
26646	15.31	5.4545	0.1	1971.9
26647	15.402	5.5455	0.1	1951.
26648	15.127	5.4545	0.1	2017.4
26649	15.219	5.5455	0.1	1996.5
26650	14.944	5.4545	0.1	2063.1
26651	15.036	5.5455	0.1	2042.2
26652	14.761	5.4545	0.1	2108.9
26653	14.853	5.5455	0.1	2088.
26654	14.578	5.4545	0.1	2154.9
26655	14.67	5.5455	0.1	2134.
26656	14.395	5.4545	0.1	2201.1
26657	14.487	5.5455	0.1	2180.2
26658	14.212	5.4545	0.1	2247.4
26659	14.304	5.5455	0.1	2226.5
26660	14.029	5.4545	0.1	2293.8
26661	14.121	5.5455	0.1	2272.9
26662	13.847	5.4545	0.1	2340.3
26663	13.938	5.5455	0.1	2319.5
26664	13.664	5.4545	0.1	2386.8
26665	13.755	5.5455	0.1	2366.1
26666	13.481	5.4545	0.1	2433.5
26667	13.572	5.5455	0.1	2412.7
26668	13.298	5.4545	0.1	2480.
26669	13.389	5.5455	0.1	2459.4
26670	13.115	5.4545	0.1	2526.5
26671	13.206	5.5455	0.1	2506.
26672	12.932	5.4545	0.1	2572.9
26673	13.023	5.5455	0.1	2552.4
26674	12.749	5.4545	0.1	2618.9
26675	12.84	5.5455	0.1	2598.5
26676	12.566	5.4545	0.1	2664.5
26677	12.657	5.5455	0.1	2644.2
26678	12.383	5.4545	0.1	2709.4
26679	12.474	5.5455	0.1	2689.4
26680	12.2	5.4545	0.1	2753.4
26681	12.291	5.5455	0.1	2733.6
26682	12.017	5.4545	0.1	2796.2
26683	12.109	5.5455	0.1	2776.7
26684	11.834	5.4545	0.1	2837.3
26685	11.926	5.5455	0.1	2818.2
26686	11.651	5.4545	0.1	2876.3
26687	11.743	5.5455	0.1	2857.6
26688	11.468	5.4545	0.1	2912.3
26689	11.56	5.5455	0.1	2894.3
26690	11.285	5.4545	0.1	2944.4
26691	11.377	5.5455	0.1	2927.4
26692	11.102	5.4545	0.1	2971.6
26693	11.194	5.5455	0.1	2955.8
26694	10.919	5.4545	0.1	2992.4
26695	11.011	5.5455	0.1	2978.1
26696	10.736	5.4545	0.1	3005.
26697	10.828	5.5455	0.1	2992.8
26698	10.553	5.4545	0.1	3007.
26699	10.645	5.5455	0.1	2997.7
26700	10.371	5.4545	0.1	2995.7
26701	10.462	5.5455	0.1	2990.1
26702	10.188	5.4545	0.1	2967.7
26703	10.279	5.5455	0.1	2966.9
26704	10.005	5.4545	0.1	2918.9
26705	10.096	5.5455	0.1	2924.2
26706	9.8217	5.4545	0.1	2844.4
26707	9.9132	5.5455	0.1	2857.5
26708	9.6388	5.4545	0.1	2738.9
26709	9.7302	5.5455	0.1	2761.6
26710	9.4558	5.4545	0.1	2597.
26711	9.5473	5.5455	0.1	2630.8
26712	9.2729	5.4545	0.1	2414.1
26713	9.3643	5.5455	0.1	2459.6
26714	9.0899	5.4545	0.1	2189.3
26715	9.1814	5.5455	0.1	2244.
26716	8.907	5.4545	0.1	1930.1
26717	8.9985	5.5455	0.1	1984.4
26718	8.724	5.4545	0.1	1665.4
26719	8.8155	5.5455	0.1	1691.7
26720	8.5411	5.4545	0.1	1493.3
26721	8.6326	5.5455	0.1	1406.
26722	8.4496	5.5455	0.1	1275.
26723	8.3581	5.4545	0.1	1196.6
26724	23.726	5.6364	0.1	94.436
26725	23.817	5.7273	0.1	71.463
26726	23.909	5.6364	0.1	73.18
26727	23.543	5.6364	0.1	122.55
26728	23.634	5.7273	0.1	99.443
26729	23.36	5.6364	0.1	155.49
26730	23.451	5.7273	0.1	133.39
26731	23.177	5.6364	0.1	190.79
26732	23.268	5.7273	0.1	169.58
26733	22.994	5.6364	0.1	227.34
26734	23.085	5.7273	0.1	206.82
26735	22.811	5.6364	0.1	264.67
26736	22.902	5.7273	0.1	244.69
26737	22.628	5.6364	0.1	302.51
26738	22.719	5.7273	0.1	282.95
26739	22.445	5.6364	0.1	340.72
26740	22.536	5.7273	0.1	321.49
26741	22.262	5.6364	0.1	379.22
26742	22.353	5.7273	0.1	360.26
26743	22.079	5.6364	0.1	417.96
26744	22.171	5.7273	0.1	399.21
26745	21.896	5.6364	0.1	456.9
26746	21.988	5.7273	0.1	438.32
26747	21.713	5.6364	0.1	496.03
26748	21.805	5.7273	0.1	477.59
26749	21.53	5.6364	0.1	535.32
26750	21.622	5.7273	0.1	517.
26751	21.347	5.6364	0.1	574.79
26752	21.439	5.7273	0.1	556.55
26753	21.164	5.6364	0.1	614.42
26754	21.256	5.7273	0.1	596.24
26755	20.981	5.6364	0.1	654.2
26756	21.073	5.7273	0.1	636.07
26757	20.798	5.6364	0.1	694.15
26758	20.89	5.7273	0.1	676.04
26759	20.616	5.6364	0.1	734.25
26760	20.707	5.7273	0.1	716.15
26761	20.433	5.6364	0.1	774.52
26762	20.524	5.7273	0.1	756.42
26763	20.25	5.6364	0.1	814.95
26764	20.341	5.7273	0.1	796.84
26765	20.067	5.6364	0.1	855.55
26766	20.158	5.7273	0.1	837.41
26767	19.884	5.6364	0.1	896.31
26768	19.975	5.7273	0.1	878.15
26769	19.701	5.6364	0.1	937.25
26770	19.792	5.7273	0.1	919.05
26771	19.518	5.6364	0.1	978.37
26772	19.609	5.7273	0.1	960.11
26773	19.335	5.6364	0.1	1019.7
26774	19.426	5.7273	0.1	1001.3
26775	19.152	5.6364	0.1	1061.1
26776	19.243	5.7273	0.1	1042.8
26777	18.969	5.6364	0.1	1102.8
26778	19.06	5.7273	0.1	1084.3
26779	18.786	5.6364	0.1	1144.6
26780	18.878	5.7273	0.1	1126.1
26781	18.603	5.6364	0.1	1186.6
26782	18.695	5.7273	0.1	1168.
26783	18.42	5.6364	0.1	1228.8
26784	18.512	5.7273	0.1	1210.2
26785	18.237	5.6364	0.1	1271.2
26786	18.329	5.7273	0.1	1252.5
26787	18.054	5.6364	0.1	1313.8
26788	18.146	5.7273	0.1	1295.
26789	17.871	5.6364	0.1	1356.5
26790	17.963	5.7273	0.1	1337.7
26791	17.688	5.6364	0.1	1399.5
26792	17.78	5.7273	0.1	1380.5
26793	17.505	5.6364	0.1	1442.7
26794	17.597	5.7273	0.1	1423.6
26795	17.322	5.6364	0.1	1486.
26796	17.414	5.7273	0.1	1466.9
26797	17.14	5.6364	0.1	1529.5
26798	17.231	5.7273	0.1	1510.3
26799	16.957	5.6364	0.1	1573.3
26800	17.048	5.7273	0.1	1554.
26801	16.774	5.6364	0.1	1617.2
26802	16.865	5.7273	0.1	1597.8
26803	16.591	5.6364	0.1	1661.3
26804	16.682	5.7273	0.1	1641.9
26805	16.408	5.6364	0.1	1705.6
26806	16.499	5.7273	0.1	1686.1
26807	16.225	5.6364	0.1	1750.1
26808	16.316	5.7273	0.1	1730.6
26809	16.042	5.6364	0.1	1794.9
26810	16.133	5.7273	0.1	1775.2
26811	15.859	5.6364	0.1	1839.8
26812	15.95	5.7273	0.1	1820.1
26813	15.676	5.6364	0.1	1884.8
26814	15.767	5.7273	0.1	1865.1
26815	15.493	5.6364	0.1	1930.1
26816	15.584	5.7273	0.1	1910.3
26817	15.31	5.6364	0.1	1975.6
26818	15.402	5.7273	0.1	1955.7
26819	15.127	5.6364	0.1	2021.3
26820	15.219	5.7273	0.1	2001.4
26821	14.944	5.6364	0.1	2067.1
26822	15.036	5.7273	0.1	2047.1
26823	14.761	5.6364	0.1	2113.1
26824	14.853	5.7273	0.1	2093.1
26825	14.578	5.6364	0.1	2159.3
26826	14.67	5.7273	0.1	2139.3
26827	14.395	5.6364	0.1	2205.6
26828	14.487	5.7273	0.1	2185.6
26829	14.212	5.6364	0.1	2252.1
26830	14.304	5.7273	0.1	2232.
26831	14.029	5.6364	0.1	2298.6
26832	14.121	5.7273	0.1	2278.6
26833	13.847	5.6364	0.1	2345.3
26834	13.938	5.7273	0.1	2325.3
26835	13.664	5.6364	0.1	2392.
26836	13.755	5.7273	0.1	2372.
26837	13.481	5.6364	0.1	2438.7
26838	13.572	5.7273	0.1	2418.8
26839	13.298	5.6364	0.1	2485.4
26840	13.389	5.7273	0.1	2465.5
26841	13.115	5.6364	0.1	2531.9
26842	13.206	5.7273	0.1	2512.
26843	12.932	5.6364	0.1	2578.1
26844	13.023	5.7273	0.1	2558.4
26845	12.749	5.6364	0.1	2623.9
26846	12.84	5.7273	0.1	2604.3
26847	12.566	5.6364	0.1	2669.2
26848	12.657	5.7273	0.1	2649.8
26849	12.383	5.6364	0.1	2713.6
26850	12.474	5.7273	0.1	2694.5
26851	12.2	5.6364	0.1	2756.9
26852	12.291	5.7273	0.1	2738.1
26853	12.017	5.6364	0.1	2798.7
26854	12.109	5.7273	0.1	2780.3
26855	11.834	5.6364	0.1	2838.6
26856	11.926	5.7273	0.1	2820.7
26857	11.651	5.6364	0.1	2875.7
26858	11.743	5.7273	0.1	2858.6
26859	11.468	5.6364	0.1	2909.5
26860	11.56	5.7273	0.1	2893.4
26861	11.285	5.6364	0.1	2938.7
26862	11.377	5.7273	0.1	2924.
26863	11.102	5.6364	0.1	2962.3
26864	11.194	5.7273	0.1	2949.3
26865	10.919	5.6364	0.1	2978.5
26866	11.011	5.7273	0.1	2967.8
26867	10.736	5.6364	0.1	2985.5
26868	10.828	5.7273	0.1	2977.7
26869	10.553	5.6364	0.1	2980.7
26870	10.645	5.7273	0.1	2976.9
26871	10.371	5.6364	0.1	2961.1
26872	10.462	5.7273	0.1	2962.4
26873	10.188	5.6364	0.1	2923.1
26874	10.279	5.7273	0.1	2931.1
26875	10.005	5.6364	0.1	2862.4
26876	10.096	5.7273	0.1	2879.
26877	9.8217	5.6364	0.1	2773.9
26878	9.9132	5.7273	0.1	2801.4
26879	9.6388	5.6364	0.1	2652.3
26880	9.7302	5.7273	0.1	2693.3
26881	9.4558	5.6364	0.1	2491.5
26882	9.5473	5.7273	0.1	2549.
26883	9.2729	5.6364	0.1	2286.5
26884	9.3643	5.7273	0.1	2362.9
26885	9.0899	5.6364	0.1	2034.2
26886	9.1814	5.7273	0.1	2130.4
26887	8.907	5.6364	0.1	1736.6
26888	8.9985	5.7273	0.1	1849.1
26889	8.724	5.6364	0.1	1410.9
26890	8.8155	5.7273	0.1	1522.
26891	8.5411	5.6364	0.1	1132.8
26892	8.6326	5.7273	0.1	1168.5
26893	8.4496	5.7273	0.1	890.1
26894	8.3581	5.6364	0.1	836.48
26895	23.726	5.8182	0.1	76.927
26896	23.817	5.9091	0.1	48.611
26897	23.909	5.8182	0.1	48.338
26898	23.543	5.8182	0.1	111.38
26899	23.634	5.9091	0.1	81.958
26900	23.36	5.8182	0.1	148.52
26901	23.451	5.9091	0.1	117.92
26902	23.177	5.8182	0.1	186.52
26903	23.268	5.9091	0.1	155.04
26904	22.994	5.8182	0.1	224.95
26905	23.085	5.9091	0.1	192.78
26906	22.811	5.8182	0.1	263.65
26907	22.902	5.9091	0.1	230.96
26908	22.628	5.8182	0.1	302.54
26909	22.719	5.9091	0.1	269.47
26910	22.445	5.8182	0.1	341.59
26911	22.536	5.9091	0.1	308.23
26912	22.262	5.8182	0.1	380.76
26913	22.353	5.9091	0.1	347.22
26914	22.079	5.8182	0.1	420.05
26915	22.171	5.9091	0.1	386.39
26916	21.896	5.8182	0.1	459.46
26917	21.988	5.9091	0.1	425.73
26918	21.713	5.8182	0.1	498.99
26919	21.805	5.9091	0.1	465.23
26920	21.53	5.8182	0.1	538.62
26921	21.622	5.9091	0.1	504.88
26922	21.347	5.8182	0.1	578.38
26923	21.439	5.9091	0.1	544.68
26924	21.164	5.8182	0.1	618.25
26925	21.256	5.9091	0.1	584.62
26926	20.981	5.8182	0.1	658.25
26927	21.073	5.9091	0.1	624.71
26928	20.798	5.8182	0.1	698.39
26929	20.89	5.9091	0.1	664.94
26930	20.616	5.8182	0.1	738.65
26931	20.707	5.9091	0.1	705.32
26932	20.433	5.8182	0.1	779.06
26933	20.524	5.9091	0.1	745.85
26934	20.25	5.8182	0.1	819.61
26935	20.341	5.9091	0.1	786.53
26936	20.067	5.8182	0.1	860.31
26937	20.158	5.9091	0.1	827.37
26938	19.884	5.8182	0.1	901.17
26939	19.975	5.9091	0.1	868.36
26940	19.701	5.8182	0.1	942.18
26941	19.792	5.9091	0.1	909.52
26942	19.518	5.8182	0.1	983.36
26943	19.609	5.9091	0.1	950.85
26944	19.335	5.8182	0.1	1024.7
26945	19.426	5.9091	0.1	992.34
26946	19.152	5.8182	0.1	1066.2
26947	19.243	5.9091	0.1	1034.
26948	18.969	5.8182	0.1	1107.9
26949	19.06	5.9091	0.1	1075.8
26950	18.786	5.8182	0.1	1149.8
26951	18.878	5.9091	0.1	1117.9
26952	18.603	5.8182	0.1	1191.8
26953	18.695	5.9091	0.1	1160.1
26954	18.42	5.8182	0.1	1234.1
26955	18.512	5.9091	0.1	1202.4
26956	18.237	5.8182	0.1	1276.5
26957	18.329	5.9091	0.1	1245.
26958	18.054	5.8182	0.1	1319.1
26959	18.146	5.9091	0.1	1287.8
26960	17.871	5.8182	0.1	1361.9
26961	17.963	5.9091	0.1	1330.7
26962	17.688	5.8182	0.1	1404.9
26963	17.78	5.9091	0.1	1373.9
26964	17.505	5.8182	0.1	1448.
26965	17.597	5.9091	0.1	1417.2
26966	17.322	5.8182	0.1	1491.4
26967	17.414	5.9091	0.1	1460.7
26968	17.14	5.8182	0.1	1535.
26969	17.231	5.9091	0.1	1504.4
26970	16.957	5.8182	0.1	1578.8
26971	17.048	5.9091	0.1	1548.4
26972	16.774	5.8182	0.1	1622.7
26973	16.865	5.9091	0.1	1592.5
26974	16.591	5.8182	0.1	1666.9
26975	16.682	5.9091	0.1	1636.8
26976	16.408	5.8182	0.1	1711.3
26977	16.499	5.9091	0.1	1681.4
26978	16.225	5.8182	0.1	1755.8
26979	16.316	5.9091	0.1	1726.1
26980	16.042	5.8182	0.1	1800.6
26981	16.133	5.9091	0.1	1771.
26982	15.859	5.8182	0.1	1845.6
26983	15.95	5.9091	0.1	1816.2
26984	15.676	5.8182	0.1	1890.7
26985	15.767	5.9091	0.1	1861.6
26986	15.493	5.8182	0.1	1936.1
26987	15.584	5.9091	0.1	1907.1
26988	15.31	5.8182	0.1	1981.6
26989	15.402	5.9091	0.1	1952.9
26990	15.127	5.8182	0.1	2027.4
26991	15.219	5.9091	0.1	1998.8
26992	14.944	5.8182	0.1	2073.3
26993	15.036	5.9091	0.1	2045.
26994	14.761	5.8182	0.1	2119.4
26995	14.853	5.9091	0.1	2091.3
26996	14.578	5.8182	0.1	2165.7
26997	14.67	5.9091	0.1	2137.8
26998	14.395	5.8182	0.1	2212.2
26999	14.487	5.9091	0.1	2184.5
27000	14.212	5.8182	0.1	2258.7
27001	14.304	5.9091	0.1	2231.3
27002	14.029	5.8182	0.1	2305.4
27003	14.121	5.9091	0.1	2278.3
27004	13.847	5.8182	0.1	2352.1
27005	13.938	5.9091	0.1	2325.3
27006	13.664	5.8182	0.1	2398.9
27007	13.755	5.9091	0.1	2372.4
27008	13.481	5.8182	0.1	2445.6
27009	13.572	5.9091	0.1	2419.4
27010	13.298	5.8182	0.1	2492.2
27011	13.389	5.9091	0.1	2466.4
27012	13.115	5.8182	0.1	2538.6
27013	13.206	5.9091	0.1	2513.2
27014	12.932	5.8182	0.1	2584.7
27015	13.023	5.9091	0.1	2559.6
27016	12.749	5.8182	0.1	2630.3
27017	12.84	5.9091	0.1	2605.7
27018	12.566	5.8182	0.1	2675.2
27019	12.657	5.9091	0.1	2651.
27020	12.383	5.8182	0.1	2719.
27021	12.474	5.9091	0.1	2695.5
27022	12.2	5.8182	0.1	2761.6
27023	12.291	5.9091	0.1	2738.8
27024	12.017	5.8182	0.1	2802.4
27025	12.109	5.9091	0.1	2780.4
27026	11.834	5.8182	0.1	2840.9
27027	11.926	5.9091	0.1	2819.8
27028	11.651	5.8182	0.1	2876.4
27029	11.743	5.9091	0.1	2856.5
27030	11.468	5.8182	0.1	2908.
27031	11.56	5.9091	0.1	2889.6
27032	11.285	5.8182	0.1	2934.6
27033	11.377	5.9091	0.1	2918.
27034	11.102	5.8182	0.1	2954.8
27035	11.194	5.9091	0.1	2940.5
27036	10.919	5.8182	0.1	2967.
27037	11.011	5.9091	0.1	2955.6
27038	10.736	5.8182	0.1	2969.1
27039	10.828	5.9091	0.1	2961.3
27040	10.553	5.8182	0.1	2958.6
27041	10.645	5.9091	0.1	2955.2
27042	10.371	5.8182	0.1	2932.3
27043	10.462	5.9091	0.1	2934.4
27044	10.188	5.8182	0.1	2886.8
27045	10.279	5.9091	0.1	2895.6
27046	10.005	5.8182	0.1	2817.6
27047	10.096	5.9091	0.1	2834.8
27048	9.8217	5.8182	0.1	2720.2
27049	9.9132	5.9091	0.1	2747.3
27050	9.6388	5.8182	0.1	2589.1
27051	9.7302	5.9091	0.1	2627.9
27052	9.4558	5.8182	0.1	2419.1
27053	9.5473	5.9091	0.1	2471.4
27054	9.2729	5.8182	0.1	2205.1
27055	9.3643	5.9091	0.1	2272.4
27056	9.0899	5.8182	0.1	1943.
27057	9.1814	5.9091	0.1	2026.3
27058	8.907	5.8182	0.1	1630.9
27059	8.9985	5.9091	0.1	1730.1
27060	8.724	5.8182	0.1	1271.7
27061	8.8155	5.9091	0.1	1382.9
27062	8.5411	5.8182	0.1	889.5
27063	8.6326	5.9091	0.1	988.52
27064	8.3581	5.8182	0.1	507.84
27065	8.4496	5.9091	0.1	567.58
27066	0.18409	0.27273	0.1	4262.6
27067	0.27614	0.18182	0.1	4547.5
27068	9.2045e-002	0.18182	0.1	2714.3
27069	0.18409	9.0909e-002	0.1	3852.4
27070	0.18409	0.45455	0.1	4884.1
27071	0.27614	0.36364	0.1	4651.6
27072	9.2045e-002	0.36364	0.1	3413.5
27073	0.18409	0.63636	0.1	5485.
27074	0.27614	0.54545	0.1	5012.3
27075	9.2045e-002	0.54545	0.1	3994.5
27076	0.18409	0.81818	0.1	5942.2
27077	0.27614	0.72727	0.1	5374.2
27078	9.2045e-002	0.72727	0.1	4410.7
27079	0.18409	1.	0.1	6284.8
27080	0.27614	0.90909	0.1	5681.3
27081	9.2045e-002	0.90909	0.1	4709.8
27082	0.18409	1.1818	0.1	6544.6
27083	0.27614	1.0909	0.1	5929.9
27084	9.2045e-002	1.0909	0.1	4931.1
27085	0.18409	1.3636	0.1	6744.2
27086	0.27614	1.2727	0.1	6128.5
27087	9.2045e-002	1.2727	0.1	5098.5
27088	0.18409	1.5455	0.1	6899.4
27089	0.27614	1.4545	0.1	6287.
27090	9.2045e-002	1.4545	0.1	5227.2
27091	0.18409	1.7273	0.1	7020.8
27092	0.27614	1.6364	0.1	6413.3
27093	9.2045e-002	1.6364	0.1	5327.3
27094	0.18409	1.9091	0.1	7115.8
27095	0.27614	1.8182	0.1	6513.7
27096	9.2045e-002	1.8182	0.1	5405.4
27097	0.18409	2.0909	0.1	7189.6
27098	0.27614	2.	0.1	6593.
27099	9.2045e-002	2.	0.1	5466.3
27100	0.18409	2.2727	0.1	7245.9
27101	0.27614	2.1818	0.1	6654.7
27102	9.2045e-002	2.1818	0.1	5513.2
27103	0.18409	2.4545	0.1	7287.4
27104	0.27614	2.3636	0.1	6701.3
27105	9.2045e-002	2.3636	0.1	5548.4
27106	0.18409	2.6364	0.1	7315.8
27107	0.27614	2.5455	0.1	6734.8
27108	9.2045e-002	2.5455	0.1	5573.5
27109	0.18409	2.8182	0.1	7332.4
27110	0.27614	2.7273	0.1	6756.5
27111	9.2045e-002	2.7273	0.1	5589.7
27112	0.18409	3.	0.1	7337.9
27113	0.27614	2.9091	0.1	6767.1
27114	9.2045e-002	2.9091	0.1	5597.6
27115	0.18409	3.1818	0.1	7332.4
27116	0.27614	3.0909	0.1	6767.1
27117	9.2045e-002	3.0909	0.1	5597.6
27118	0.18409	3.3636	0.1	7315.8
27119	0.27614	3.2727	0.1	6756.5
27120	9.2045e-002	3.2727	0.1	5589.7
27121	0.18409	3.5455	0.1	7287.4
27122	0.27614	3.4545	0.1	6734.8
27123	9.2045e-002	3.4545	0.1	5573.5
27124	0.18409	3.7273	0.1	7245.9
27125	0.27614	3.6364	0.1	6701.3
27126	9.2045e-002	3.6364	0.1	5548.4
27127	0.18409	3.9091	0.1	7189.6
27128	0.27614	3.8182	0.1	6654.7
27129	9.2045e-002	3.8182	0.1	5513.2
27130	0.18409	4.0909	0.1	7115.8
27131	0.27614	4.	0.1	6593.
27132	9.2045e-002	4.	0.1	5466.3
27133	0.18409	4.2727	0.1	7020.8
27134	0.27614	4.1818	0.1	6513.7
27135	9.2045e-002	4.1818	0.1	5405.4
27136	0.18409	4.4545	0.1	6899.4
27137	0.27614	4.3636	0.1	6413.3
27138	9.2045e-002	4.3636	0.1	5327.3
27139	0.18409	4.6364	0.1	6744.2
27140	0.27614	4.5455	0.1	6287.
27141	9.2045e-002	4.5455	0.1	5227.2
27142	0.18409	4.8182	0.1	6544.6
27143	0.27614	4.7273	0.1	6128.5
27144	9.2045e-002	4.7273	0.1	5098.5
27145	0.18409	5.	0.1	6284.8
27146	0.27614	4.9091	0.1	5929.9
27147	9.2045e-002	4.9091	0.1	4931.1
27148	0.18409	5.1818	0.1	5942.2
27149	0.27614	5.0909	0.1	5681.3
27150	9.2045e-002	5.0909	0.1	4709.8
27151	0.18409	5.3636	0.1	5485.
27152	0.27614	5.2727	0.1	5374.2
27153	9.2045e-002	5.2727	0.1	4410.7
27154	0.18409	5.5455	0.1	4884.1
27155	0.27614	5.4545	0.1	5012.3
27156	9.2045e-002	5.4545	0.1	3994.5
27157	0.18409	5.7273	0.1	4262.6
27158	0.27614	5.6364	0.1	4651.6
27159	9.2045e-002	5.6364	0.1	3413.5
27160	0.27614	5.8182	0.1	4547.5
27161	9.2045e-002	5.8182	0.1	2714.3
27162	0.18409	5.9091	0.1	3852.4
27163	0.36818	0.27273	0.1	4902.8
27164	0.46023	0.18182	0.1	5310.1
27165	0.36818	9.0909e-002	0.1	4936.
27166	0.36818	0.45455	0.1	4805.5
27167	0.46023	0.36364	0.1	5071.
27168	0.36818	0.63636	0.1	4931.9
27169	0.46023	0.54545	0.1	5066.3
27170	0.36818	0.81818	0.1	5136.7
27171	0.46023	0.72727	0.1	5182.4
27172	0.36818	1.	0.1	5343.5
27173	0.46023	0.90909	0.1	5341.7
27174	0.36818	1.1818	0.1	5527.1
27175	0.46023	1.0909	0.1	5503.7
27176	0.36818	1.3636	0.1	5682.1
27177	0.46023	1.2727	0.1	5651.4
27178	0.36818	1.5455	0.1	5810.1
27179	0.46023	1.4545	0.1	5779.5
27180	0.36818	1.7273	0.1	5914.5
27181	0.46023	1.6364	0.1	5887.6
27182	0.36818	1.9091	0.1	5998.6
27183	0.46023	1.8182	0.1	5977.
27184	0.36818	2.0909	0.1	6065.4
27185	0.46023	2.	0.1	6049.7
27186	0.36818	2.2727	0.1	6117.2
27187	0.46023	2.1818	0.1	6107.4
27188	0.36818	2.4545	0.1	6155.8
27189	0.46023	2.3636	0.1	6151.8
27190	0.36818	2.6364	0.1	6182.4
27191	0.46023	2.5455	0.1	6184.
27192	0.36818	2.8182	0.1	6198.1
27193	0.46023	2.7273	0.1	6205.
27194	0.36818	3.	0.1	6203.2
27195	0.46023	2.9091	0.1	6215.4
27196	0.36818	3.1818	0.1	6198.1
27197	0.46023	3.0909	0.1	6215.4
27198	0.36818	3.3636	0.1	6182.4
27199	0.46023	3.2727	0.1	6205.
27200	0.36818	3.5455	0.1	6155.8
27201	0.46023	3.4545	0.1	6184.
27202	0.36818	3.7273	0.1	6117.2
27203	0.46023	3.6364	0.1	6151.8
27204	0.36818	3.9091	0.1	6065.4
27205	0.46023	3.8182	0.1	6107.4
27206	0.36818	4.0909	0.1	5998.6
27207	0.46023	4.	0.1	6049.7
27208	0.36818	4.2727	0.1	5914.5
27209	0.46023	4.1818	0.1	5977.
27210	0.36818	4.4545	0.1	5810.1
27211	0.46023	4.3636	0.1	5887.6
27212	0.36818	4.6364	0.1	5682.1
27213	0.46023	4.5455	0.1	5779.5
27214	0.36818	4.8182	0.1	5527.1
27215	0.46023	4.7273	0.1	5651.4
27216	0.36818	5.	0.1	5343.5
27217	0.46023	4.9091	0.1	5503.7
27218	0.36818	5.1818	0.1	5136.7
27219	0.46023	5.0909	0.1	5341.7
27220	0.36818	5.3636	0.1	4931.9
27221	0.46023	5.2727	0.1	5182.4
27222	0.36818	5.5455	0.1	4805.5
27223	0.46023	5.4545	0.1	5066.3
27224	0.36818	5.7273	0.1	4902.8
27225	0.46023	5.6364	0.1	5071.
27226	0.46023	5.8182	0.1	5310.1
27227	0.36818	5.9091	0.1	4936.
27228	0.55227	0.27273	0.1	5463.4
27229	0.64432	0.18182	0.1	5711.9
27230	0.55227	9.0909e-002	0.1	5479.8
27231	0.55227	0.45455	0.1	5318.6
27232	0.64432	0.36364	0.1	5481.1
27233	0.55227	0.63636	0.1	5309.9
27234	0.64432	0.54545	0.1	5387.7
27235	0.55227	0.81818	0.1	5385.4
27236	0.64432	0.72727	0.1	5385.5
27237	0.55227	1.	0.1	5501.9
27238	0.64432	0.90909	0.1	5444.4
27239	0.55227	1.1818	0.1	5628.6
27240	0.64432	1.0909	0.1	5533.6
27241	0.55227	1.3636	0.1	5749.5
27242	0.64432	1.2727	0.1	5632.
27243	0.55227	1.5455	0.1	5857.6
27244	0.64432	1.4545	0.1	5727.7
27245	0.55227	1.7273	0.1	5950.6
27246	0.64432	1.6364	0.1	5814.8
27247	0.55227	1.9091	0.1	6028.4
27248	0.64432	1.8182	0.1	5890.8
27249	0.55227	2.0909	0.1	6092.
27250	0.64432	2.	0.1	5954.9
27251	0.55227	2.2727	0.1	6142.4
27252	0.64432	2.1818	0.1	6007.3
27253	0.55227	2.4545	0.1	6180.4
27254	0.64432	2.3636	0.1	6048.4
27255	0.55227	2.6364	0.1	6206.9
27256	0.64432	2.5455	0.1	6078.6
27257	0.55227	2.8182	0.1	6222.6
27258	0.64432	2.7273	0.1	6098.6
27259	0.55227	3.	0.1	6227.8
27260	0.64432	2.9091	0.1	6108.4
27261	0.55227	3.1818	0.1	6222.6
27262	0.64432	3.0909	0.1	6108.4
27263	0.55227	3.3636	0.1	6206.9
27264	0.64432	3.2727	0.1	6098.6
27265	0.55227	3.5455	0.1	6180.4
27266	0.64432	3.4545	0.1	6078.6
27267	0.55227	3.7273	0.1	6142.4
27268	0.64432	3.6364	0.1	6048.4
27269	0.55227	3.9091	0.1	6092.
27270	0.64432	3.8182	0.1	6007.3
27271	0.55227	4.0909	0.1	6028.4
27272	0.64432	4.	0.1	5954.9
27273	0.55227	4.2727	0.1	5950.6
27274	0.64432	4.1818	0.1	5890.8
27275	0.55227	4.4545	0.1	5857.6
27276	0.64432	4.3636	0.1	5814.8
27277	0.55227	4.6364	0.1	5749.5
27278	0.64432	4.5455	0.1	5727.7
27279	0.55227	4.8182	0.1	5628.6
27280	0.64432	4.7273	0.1	5632.
27281	0.55227	5.	0.1	5501.9
27282	0.64432	4.9091	0.1	5533.6
27283	0.55227	5.1818	0.1	5385.4
27284	0.64432	5.0909	0.1	5444.4
27285	0.55227	5.3636	0.1	5309.9
27286	0.64432	5.2727	0.1	5385.5
27287	0.55227	5.5455	0.1	5318.6
27288	0.64432	5.4545	0.1	5387.7
27289	0.55227	5.7273	0.1	5463.4
27290	0.64432	5.6364	0.1	5481.1
27291	0.64432	5.8182	0.1	5711.9
27292	0.55227	5.9091	0.1	5479.8
27293	0.73636	0.27273	0.1	5722.6
27294	0.82841	0.18182	0.1	5914.1
27295	0.73636	9.0909e-002	0.1	5765.4
27296	0.73636	0.45455	0.1	5544.1
27297	0.82841	0.36364	0.1	5692.3
27298	0.73636	0.63636	0.1	5458.9
27299	0.82841	0.54545	0.1	5564.3
27300	0.73636	0.81818	0.1	5442.6
27301	0.82841	0.72727	0.1	5499.2
27302	0.73636	1.	0.1	5475.9
27303	0.82841	0.90909	0.1	5487.9
27304	0.73636	1.1818	0.1	5537.6
27305	0.82841	1.0909	0.1	5514.6
27306	0.73636	1.3636	0.1	5611.
27307	0.82841	1.2727	0.1	5563.2
27308	0.73636	1.5455	0.1	5685.7
27309	0.82841	1.4545	0.1	5621.4
27310	0.73636	1.7273	0.1	5755.7
27311	0.82841	1.6364	0.1	5681.2
27312	0.73636	1.9091	0.1	5817.7
27313	0.82841	1.8182	0.1	5737.6
27314	0.73636	2.0909	0.1	5870.5
27315	0.82841	2.	0.1	5787.8
27316	0.73636	2.2727	0.1	5913.6
27317	0.82841	2.1818	0.1	5830.5
27318	0.73636	2.4545	0.1	5946.8
27319	0.82841	2.3636	0.1	5864.9
27320	0.73636	2.6364	0.1	5970.4
27321	0.82841	2.5455	0.1	5890.8
27322	0.73636	2.8182	0.1	5984.4
27323	0.82841	2.7273	0.1	5908.
27324	0.73636	3.	0.1	5989.1
27325	0.82841	2.9091	0.1	5916.6
27326	0.73636	3.1818	0.1	5984.4
27327	0.82841	3.0909	0.1	5916.6
27328	0.73636	3.3636	0.1	5970.4
27329	0.82841	3.2727	0.1	5908.
27330	0.73636	3.5455	0.1	5946.8
27331	0.82841	3.4545	0.1	5890.8
27332	0.73636	3.7273	0.1	5913.6
27333	0.82841	3.6364	0.1	5864.9
27334	0.73636	3.9091	0.1	5870.5
27335	0.82841	3.8182	0.1	5830.5
27336	0.73636	4.0909	0.1	5817.7
27337	0.82841	4.	0.1	5787.8
27338	0.73636	4.2727	0.1	5755.7
27339	0.82841	4.1818	0.1	5737.6
27340	0.73636	4.4545	0.1	5685.7
27341	0.82841	4.3636	0.1	5681.2
27342	0.73636	4.6364	0.1	5611.
27343	0.82841	4.5455	0.1	5621.4
27344	0.73636	4.8182	0.1	5537.6
27345	0.82841	4.7273	0.1	5563.2
27346	0.73636	5.	0.1	5475.9
27347	0.82841	4.9091	0.1	5514.6
27348	0.73636	5.1818	0.1	5442.6
27349	0.82841	5.0909	0.1	5487.9
27350	0.73636	5.3636	0.1	5458.9
27351	0.82841	5.2727	0.1	5499.2
27352	0.73636	5.5455	0.1	5544.1
27353	0.82841	5.4545	0.1	5564.3
27354	0.73636	5.7273	0.1	5722.6
27355	0.82841	5.6364	0.1	5692.3
27356	0.82841	5.8182	0.1	5914.1
27357	0.73636	5.9091	0.1	5765.4
27358	0.92045	0.27273	0.1	5880.4
27359	1.0125	0.18182	0.1	6020.9
27360	0.92045	9.0909e-002	0.1	5926.7
27361	0.92045	0.45455	0.1	5709.
27362	1.0125	0.36364	0.1	5820.9
27363	0.92045	0.63636	0.1	5600.9
27364	1.0125	0.54545	0.1	5688.1
27365	0.92045	0.81818	0.1	5541.6
27366	1.0125	0.72727	0.1	5597.4
27367	0.92045	1.	0.1	5524.9
27368	1.0125	0.90909	0.1	5547.8
27369	0.92045	1.1818	0.1	5539.3
27370	1.0125	1.0909	0.1	5532.9
27371	0.92045	1.3636	0.1	5573.2
27372	1.0125	1.2727	0.1	5543.
27373	0.92045	1.5455	0.1	5616.7
27374	1.0125	1.4545	0.1	5568.7
27375	0.92045	1.7273	0.1	5663.1
27376	1.0125	1.6364	0.1	5602.5
27377	0.92045	1.9091	0.1	5707.7
27378	1.0125	1.8182	0.1	5638.7
27379	0.92045	2.0909	0.1	5747.8
27380	1.0125	2.	0.1	5673.8
27381	0.92045	2.2727	0.1	5781.8
27382	1.0125	2.1818	0.1	5705.3
27383	0.92045	2.4545	0.1	5808.8
27384	1.0125	2.3636	0.1	5731.6
27385	0.92045	2.6364	0.1	5828.3
27386	1.0125	2.5455	0.1	5752.
27387	0.92045	2.8182	0.1	5840.1
27388	1.0125	2.7273	0.1	5765.7
27389	0.92045	3.	0.1	5844.
27390	1.0125	2.9091	0.1	5772.7
27391	0.92045	3.1818	0.1	5840.1
27392	1.0125	3.0909	0.1	5772.7
27393	0.92045	3.3636	0.1	5828.3
27394	1.0125	3.2727	0.1	5765.7
27395	0.92045	3.5455	0.1	5808.8
27396	1.0125	3.4545	0.1	5752.
27397	0.92045	3.7273	0.1	5781.8
27398	1.0125	3.6364	0.1	5731.6
27399	0.92045	3.9091	0.1	5747.8
27400	1.0125	3.8182	0.1	5705.3
27401	0.92045	4.0909	0.1	5707.7
27402	1.0125	4.	0.1	5673.8
27403	0.92045	4.2727	0.1	5663.1
27404	1.0125	4.1818	0.1	5638.7
27405	0.92045	4.4545	0.1	5616.7
27406	1.0125	4.3636	0.1	5602.5
27407	0.92045	4.6364	0.1	5573.2
27408	1.0125	4.5455	0.1	5568.7
27409	0.92045	4.8182	0.1	5539.3
27410	1.0125	4.7273	0.1	5543.
27411	0.92045	5.	0.1	5524.9
27412	1.0125	4.9091	0.1	5532.9
27413	0.92045	5.1818	0.1	5541.6
27414	1.0125	5.0909	0.1	5547.8
27415	0.92045	5.3636	0.1	5600.9
27416	1.0125	5.2727	0.1	5597.4
27417	0.92045	5.5455	0.1	5709.
27418	1.0125	5.4545	0.1	5688.1
27419	0.92045	5.7273	0.1	5880.4
27420	1.0125	5.6364	0.1	5820.9
27421	1.0125	5.8182	0.1	6020.9
27422	0.92045	5.9091	0.1	5926.7
27423	1.1045	0.27273	0.1	5959.3
27424	1.1966	0.18182	0.1	6067.
27425	1.1045	9.0909e-002	0.1	6010.2
27426	1.1045	0.45455	0.1	5798.
27427	1.1966	0.36364	0.1	5886.4
27428	1.1045	0.63636	0.1	5682.3
27429	1.1966	0.54545	0.1	5756.5
27430	1.1045	0.81818	0.1	5601.4
27431	1.1966	0.72727	0.1	5656.
27432	1.1045	1.	0.1	5554.2
27433	1.1966	0.90909	0.1	5586.
27434	1.1045	1.1818	0.1	5535.4
27435	1.1966	1.0909	0.1	5544.6
27436	1.1045	1.3636	0.1	5537.9
27437	1.1966	1.2727	0.1	5526.9
27438	1.1045	1.5455	0.1	5554.1
27439	1.1966	1.4545	0.1	5526.5
27440	1.1045	1.7273	0.1	5578.
27441	1.1966	1.6364	0.1	5537.6
27442	1.1045	1.9091	0.1	5604.8
27443	1.1966	1.8182	0.1	5555.1
27444	1.1045	2.0909	0.1	5631.3
27445	1.1966	2.	0.1	5575.1
27446	1.1045	2.2727	0.1	5655.1
27447	1.1966	2.1818	0.1	5595.
27448	1.1045	2.4545	0.1	5674.7
27449	1.1966	2.3636	0.1	5612.6
27450	1.1045	2.6364	0.1	5689.3
27451	1.1966	2.5455	0.1	5626.8
27452	1.1045	2.8182	0.1	5698.3
27453	1.1966	2.7273	0.1	5636.7
27454	1.1045	3.	0.1	5701.3
27455	1.1966	2.9091	0.1	5641.8
27456	1.1045	3.1818	0.1	5698.3
27457	1.1966	3.0909	0.1	5641.8
27458	1.1045	3.3636	0.1	5689.3
27459	1.1966	3.2727	0.1	5636.7
27460	1.1045	3.5455	0.1	5674.7
27461	1.1966	3.4545	0.1	5626.8
27462	1.1045	3.7273	0.1	5655.1
27463	1.1966	3.6364	0.1	5612.6
27464	1.1045	3.9091	0.1	5631.3
27465	1.1966	3.8182	0.1	5595.
27466	1.1045	4.0909	0.1	5604.8
27467	1.1966	4.	0.1	5575.1
27468	1.1045	4.2727	0.1	5578.
27469	1.1966	4.1818	0.1	5555.1
27470	1.1045	4.4545	0.1	5554.1
27471	1.1966	4.3636	0.1	5537.6
27472	1.1045	4.6364	0.1	5537.9
27473	1.1966	4.5455	0.1	5526.5
27474	1.1045	4.8182	0.1	5535.4
27475	1.1966	4.7273	0.1	5526.9
27476	1.1045	5.	0.1	5554.2
27477	1.1966	4.9091	0.1	5544.6
27478	1.1045	5.1818	0.1	5601.4
27479	1.1966	5.0909	0.1	5586.
27480	1.1045	5.3636	0.1	5682.3
27481	1.1966	5.2727	0.1	5656.
27482	1.1045	5.5455	0.1	5798.
27483	1.1966	5.4545	0.1	5756.5
27484	1.1045	5.7273	0.1	5959.3
27485	1.1966	5.6364	0.1	5886.4
27486	1.1966	5.8182	0.1	6067.
27487	1.1045	5.9091	0.1	6010.2
27488	1.2886	0.27273	0.1	5992.7
27489	1.3807	0.18182	0.1	6075.5
27490	1.2886	9.0909e-002	0.1	6045.8
27491	1.2886	0.45455	0.1	5843.7
27492	1.3807	0.36364	0.1	5912.6
27493	1.2886	0.63636	0.1	5728.7
27494	1.3807	0.54545	0.1	5789.3
27495	1.2886	0.81818	0.1	5638.9
27496	1.3807	0.72727	0.1	5686.9
27497	1.2886	1.	0.1	5574.9
27498	1.3807	0.90909	0.1	5607.1
27499	1.2886	1.1818	0.1	5534.9
27500	1.3807	1.0909	0.1	5550.2
27501	1.2886	1.3636	0.1	5514.7
27502	1.3807	1.2727	0.1	5513.8
27503	1.2886	1.5455	0.1	5509.5
27504	1.3807	1.4545	0.1	5494.2
27505	1.2886	1.7273	0.1	5514.4
27506	1.3807	1.6364	0.1	5487.2
27507	1.2886	1.9091	0.1	5525.2
27508	1.3807	1.8182	0.1	5488.6
27509	1.2886	2.0909	0.1	5538.7
27510	1.3807	2.	0.1	5495.2
27511	1.2886	2.2727	0.1	5552.4
27512	1.3807	2.1818	0.1	5504.1
27513	1.2886	2.4545	0.1	5564.6
27514	1.3807	2.3636	0.1	5513.4
27515	1.2886	2.6364	0.1	5574.1
27516	1.3807	2.5455	0.1	5521.5
27517	1.2886	2.8182	0.1	5580.1
27518	1.3807	2.7273	0.1	5527.4
27519	1.2886	3.	0.1	5582.1
27520	1.3807	2.9091	0.1	5530.5
27521	1.2886	3.1818	0.1	5580.1
27522	1.3807	3.0909	0.1	5530.5
27523	1.2886	3.3636	0.1	5574.1
27524	1.3807	3.2727	0.1	5527.4
27525	1.2886	3.5455	0.1	5564.6
27526	1.3807	3.4545	0.1	5521.5
27527	1.2886	3.7273	0.1	5552.4
27528	1.3807	3.6364	0.1	5513.4
27529	1.2886	3.9091	0.1	5538.7
27530	1.3807	3.8182	0.1	5504.1
27531	1.2886	4.0909	0.1	5525.2
27532	1.3807	4.	0.1	5495.2
27533	1.2886	4.2727	0.1	5514.4
27534	1.3807	4.1818	0.1	5488.6
27535	1.2886	4.4545	0.1	5509.5
27536	1.3807	4.3636	0.1	5487.2
27537	1.2886	4.6364	0.1	5514.7
27538	1.3807	4.5455	0.1	5494.2
27539	1.2886	4.8182	0.1	5534.9
27540	1.3807	4.7273	0.1	5513.8
27541	1.2886	5.	0.1	5574.9
27542	1.3807	4.9091	0.1	5550.2
27543	1.2886	5.1818	0.1	5638.9
27544	1.3807	5.0909	0.1	5607.1
27545	1.2886	5.3636	0.1	5728.7
27546	1.3807	5.2727	0.1	5686.9
27547	1.2886	5.5455	0.1	5843.7
27548	1.3807	5.4545	0.1	5789.3
27549	1.2886	5.7273	0.1	5992.7
27550	1.3807	5.6364	0.1	5912.6
27551	1.3807	5.8182	0.1	6075.5
27552	1.2886	5.9091	0.1	6045.8
27553	1.4727	0.27273	0.1	5994.5
27554	1.5648	0.18182	0.1	6058.9
27555	1.4727	9.0909e-002	0.1	6049.3
27556	1.4727	0.45455	0.1	5857.4
27557	1.5648	0.36364	0.1	5911.5
27558	1.4727	0.63636	0.1	5746.4
27559	1.5648	0.54545	0.1	5795.5
27560	1.4727	0.81818	0.1	5654.
27561	1.5648	0.72727	0.1	5695.1
27562	1.4727	1.	0.1	5581.3
27563	1.5648	0.90909	0.1	5611.6
27564	1.4727	1.1818	0.1	5528.1
27565	1.5648	1.0909	0.1	5546.1
27566	1.4727	1.3636	0.1	5492.5
27567	1.5648	1.2727	0.1	5497.8
27568	1.4727	1.5455	0.1	5471.3
27569	1.5648	1.4545	0.1	5464.7
27570	1.4727	1.7273	0.1	5461.
27571	1.5648	1.6364	0.1	5444.
27572	1.4727	1.9091	0.1	5458.3
27573	1.5648	1.8182	0.1	5432.6
27574	1.4727	2.0909	0.1	5460.4
27575	1.5648	2.	0.1	5427.8
27576	1.4727	2.2727	0.1	5464.9
27577	1.5648	2.1818	0.1	5427.2
27578	1.4727	2.4545	0.1	5470.1
27579	1.5648	2.3636	0.1	5428.9
27580	1.4727	2.6364	0.1	5474.7
27581	1.5648	2.5455	0.1	5431.3
27582	1.4727	2.8182	0.1	5477.7
27583	1.5648	2.7273	0.1	5433.5
27584	1.4727	3.	0.1	5478.8
27585	1.5648	2.9091	0.1	5434.8
27586	1.4727	3.1818	0.1	5477.7
27587	1.5648	3.0909	0.1	5434.8
27588	1.4727	3.3636	0.1	5474.7
27589	1.5648	3.2727	0.1	5433.5
27590	1.4727	3.5455	0.1	5470.1
27591	1.5648	3.4545	0.1	5431.3
27592	1.4727	3.7273	0.1	5464.9
27593	1.5648	3.6364	0.1	5428.9
27594	1.4727	3.9091	0.1	5460.4
27595	1.5648	3.8182	0.1	5427.2
27596	1.4727	4.0909	0.1	5458.3
27597	1.5648	4.	0.1	5427.8
27598	1.4727	4.2727	0.1	5461.
27599	1.5648	4.1818	0.1	5432.6
27600	1.4727	4.4545	0.1	5471.3
27601	1.5648	4.3636	0.1	5444.
27602	1.4727	4.6364	0.1	5492.5
27603	1.5648	4.5455	0.1	5464.7
27604	1.4727	4.8182	0.1	5528.1
27605	1.5648	4.7273	0.1	5497.8
27606	1.4727	5.	0.1	5581.3
27607	1.5648	4.9091	0.1	5546.1
27608	1.4727	5.1818	0.1	5654.
27609	1.5648	5.0909	0.1	5611.6
27610	1.4727	5.3636	0.1	5746.4
27611	1.5648	5.2727	0.1	5695.1
27612	1.4727	5.5455	0.1	5857.4
27613	1.5648	5.4545	0.1	5795.5
27614	1.4727	5.7273	0.1	5994.5
27615	1.5648	5.6364	0.1	5911.5
27616	1.5648	5.8182	0.1	6058.9
27617	1.4727	5.9091	0.1	6049.3
27618	1.6568	0.27273	0.1	5975.2
27619	1.7489	0.18182	0.1	6025.2
27620	1.6568	9.0909e-002	0.1	6030.8
27621	1.6568	0.45455	0.1	5849.1
27622	1.7489	0.36364	0.1	5891.5
27623	1.6568	0.63636	0.1	5743.5
27624	1.7489	0.54545	0.1	5783.1
27625	1.6568	0.81818	0.1	5651.9
27626	1.7489	0.72727	0.1	5686.4
27627	1.6568	1.	0.1	5575.6
27628	1.7489	0.90909	0.1	5602.7
27629	1.6568	1.1818	0.1	5515.
27630	1.7489	1.0909	0.1	5533.1
27631	1.6568	1.3636	0.1	5469.4
27632	1.7489	1.2727	0.1	5477.8
27633	1.6568	1.5455	0.1	5436.9
27634	1.7489	1.4545	0.1	5435.7
27635	1.6568	1.7273	0.1	5415.1
27636	1.7489	1.6364	0.1	5405.2
27637	1.6568	1.9091	0.1	5401.7
27638	1.7489	1.8182	0.1	5384.
27639	1.6568	2.0909	0.1	5394.3
27640	1.7489	2.	0.1	5370.2
27641	1.6568	2.2727	0.1	5390.9
27642	1.7489	2.1818	0.1	5361.7
27643	1.6568	2.4545	0.1	5389.9
27644	1.7489	2.3636	0.1	5356.9
27645	1.6568	2.6364	0.1	5390.
27646	1.7489	2.5455	0.1	5354.4
27647	1.6568	2.8182	0.1	5390.4
27648	1.7489	2.7273	0.1	5353.3
27649	1.6568	3.	0.1	5390.6
27650	1.7489	2.9091	0.1	5352.9
27651	1.6568	3.1818	0.1	5390.4
27652	1.7489	3.0909	0.1	5352.9
27653	1.6568	3.3636	0.1	5390.
27654	1.7489	3.2727	0.1	5353.3
27655	1.6568	3.5455	0.1	5389.9
27656	1.7489	3.4545	0.1	5354.4
27657	1.6568	3.7273	0.1	5390.9
27658	1.7489	3.6364	0.1	5356.9
27659	1.6568	3.9091	0.1	5394.3
27660	1.7489	3.8182	0.1	5361.7
27661	1.6568	4.0909	0.1	5401.7
27662	1.7489	4.	0.1	5370.2
27663	1.6568	4.2727	0.1	5415.1
27664	1.7489	4.1818	0.1	5384.
27665	1.6568	4.4545	0.1	5436.9
27666	1.7489	4.3636	0.1	5405.2
27667	1.6568	4.6364	0.1	5469.4
27668	1.7489	4.5455	0.1	5435.7
27669	1.6568	4.8182	0.1	5515.
27670	1.7489	4.7273	0.1	5477.8
27671	1.6568	5.	0.1	5575.6
27672	1.7489	4.9091	0.1	5533.1
27673	1.6568	5.1818	0.1	5651.9
27674	1.7489	5.0909	0.1	5602.7
27675	1.6568	5.3636	0.1	5743.5
27676	1.7489	5.2727	0.1	5686.4
27677	1.6568	5.5455	0.1	5849.1
27678	1.7489	5.4545	0.1	5783.1
27679	1.6568	5.7273	0.1	5975.2
27680	1.7489	5.6364	0.1	5891.5
27681	1.7489	5.8182	0.1	6025.2
27682	1.6568	5.9091	0.1	6030.8
27683	1.8409	0.27273	0.1	5941.1
27684	1.933	0.18182	0.1	5979.8
27685	1.8409	9.0909e-002	0.1	5997.
27686	1.8409	0.45455	0.1	5825.1
27687	1.933	0.36364	0.1	5858.2
27688	1.8409	0.63636	0.1	5725.5
27689	1.933	0.54545	0.1	5757.1
27690	1.8409	0.81818	0.1	5636.6
27691	1.933	0.72727	0.1	5665.1
27692	1.8409	1.	0.1	5559.6
27693	1.933	0.90909	0.1	5583.
27694	1.8409	1.1818	0.1	5495.3
27695	1.933	1.0909	0.1	5512.3
27696	1.8409	1.3636	0.1	5443.6
27697	1.933	1.2727	0.1	5453.3
27698	1.8409	1.5455	0.1	5403.5
27699	1.933	1.4545	0.1	5405.7
27700	1.8409	1.7273	0.1	5373.6
27701	1.933	1.6364	0.1	5368.5
27702	1.8409	1.9091	0.1	5352.1
27703	1.933	1.8182	0.1	5340.3
27704	1.8409	2.0909	0.1	5337.2
27705	1.933	2.	0.1	5319.6
27706	1.8409	2.2727	0.1	5327.4
27707	1.933	2.1818	0.1	5304.9
27708	1.8409	2.4545	0.1	5321.2
27709	1.933	2.3636	0.1	5294.8
27710	1.8409	2.6364	0.1	5317.5
27711	1.933	2.5455	0.1	5288.3
27712	1.8409	2.8182	0.1	5315.6
27713	1.933	2.7273	0.1	5284.4
27714	1.8409	3.	0.1	5315.1
27715	1.933	2.9091	0.1	5282.6
27716	1.8409	3.1818	0.1	5315.6
27717	1.933	3.0909	0.1	5282.6
27718	1.8409	3.3636	0.1	5317.5
27719	1.933	3.2727	0.1	5284.4
27720	1.8409	3.5455	0.1	5321.2
27721	1.933	3.4545	0.1	5288.3
27722	1.8409	3.7273	0.1	5327.4
27723	1.933	3.6364	0.1	5294.8
27724	1.8409	3.9091	0.1	5337.2
27725	1.933	3.8182	0.1	5304.9
27726	1.8409	4.0909	0.1	5352.1
27727	1.933	4.	0.1	5319.6
27728	1.8409	4.2727	0.1	5373.6
27729	1.933	4.1818	0.1	5340.3
27730	1.8409	4.4545	0.1	5403.5
27731	1.933	4.3636	0.1	5368.5
27732	1.8409	4.6364	0.1	5443.6
27733	1.933	4.5455	0.1	5405.7
27734	1.8409	4.8182	0.1	5495.3
27735	1.933	4.7273	0.1	5453.3
27736	1.8409	5.	0.1	5559.6
27737	1.933	4.9091	0.1	5512.3
27738	1.8409	5.1818	0.1	5636.6
27739	1.933	5.0909	0.1	5583.
27740	1.8409	5.3636	0.1	5725.5
27741	1.933	5.2727	0.1	5665.1
27742	1.8409	5.5455	0.1	5825.1
27743	1.933	5.4545	0.1	5757.1
27744	1.8409	5.7273	0.1	5941.1
27745	1.933	5.6364	0.1	5858.2
27746	1.933	5.8182	0.1	5979.8
27747	1.8409	5.9091	0.1	5997.
27748	2.025	0.27273	0.1	5896.6
27749	2.117	0.18182	0.1	5926.3
27750	2.025	9.0909e-002	0.1	5952.3
27751	2.025	0.45455	0.1	5789.9
27752	2.117	0.36364	0.1	5815.4
27753	2.025	0.63636	0.1	5696.3
27754	2.117	0.54545	0.1	5721.3
27755	2.025	0.81818	0.1	5611.1
27756	2.117	0.72727	0.1	5634.2
27757	2.025	1.	0.1	5535.3
27758	2.117	0.90909	0.1	5555.1
27759	2.025	1.1818	0.1	5469.8
27760	2.117	1.0909	0.1	5485.1
27761	2.025	1.3636	0.1	5414.9
27762	2.117	1.2727	0.1	5424.7
27763	2.025	1.5455	0.1	5370.2
27764	2.117	1.4545	0.1	5374.
27765	2.025	1.7273	0.1	5334.7
27766	2.117	1.6364	0.1	5332.6
27767	2.025	1.9091	0.1	5307.4
27768	2.117	1.8182	0.1	5299.6
27769	2.025	2.0909	0.1	5286.9
27770	2.117	2.	0.1	5274.
27771	2.025	2.2727	0.1	5272.1
27772	2.117	2.1818	0.1	5254.7
27773	2.025	2.4545	0.1	5261.8
27774	2.117	2.3636	0.1	5240.7
27775	2.025	2.6364	0.1	5255.
27776	2.117	2.5455	0.1	5230.9
27777	2.025	2.8182	0.1	5251.3
27778	2.117	2.7273	0.1	5224.9
27779	2.025	3.	0.1	5250.1
27780	2.117	2.9091	0.1	5222.
27781	2.025	3.1818	0.1	5251.3
27782	2.117	3.0909	0.1	5222.
27783	2.025	3.3636	0.1	5255.
27784	2.117	3.2727	0.1	5224.9
27785	2.025	3.5455	0.1	5261.8
27786	2.117	3.4545	0.1	5230.9
27787	2.025	3.7273	0.1	5272.1
27788	2.117	3.6364	0.1	5240.7
27789	2.025	3.9091	0.1	5286.9
27790	2.117	3.8182	0.1	5254.7
27791	2.025	4.0909	0.1	5307.4
27792	2.117	4.	0.1	5274.
27793	2.025	4.2727	0.1	5334.7
27794	2.117	4.1818	0.1	5299.6
27795	2.025	4.4545	0.1	5370.2
27796	2.117	4.3636	0.1	5332.6
27797	2.025	4.6364	0.1	5414.9
27798	2.117	4.5455	0.1	5374.
27799	2.025	4.8182	0.1	5469.8
27800	2.117	4.7273	0.1	5424.7
27801	2.025	5.	0.1	5535.3
27802	2.117	4.9091	0.1	5485.1
27803	2.025	5.1818	0.1	5611.1
27804	2.117	5.0909	0.1	5555.1
27805	2.025	5.3636	0.1	5696.3
27806	2.117	5.2727	0.1	5634.2
27807	2.025	5.5455	0.1	5789.9
27808	2.117	5.4545	0.1	5721.3
27809	2.025	5.7273	0.1	5896.6
27810	2.117	5.6364	0.1	5815.4
27811	2.117	5.8182	0.1	5926.3
27812	2.025	5.9091	0.1	5952.3
27813	2.2091	0.27273	0.1	5844.9
27814	2.3011	0.18182	0.1	5867.2
27815	2.2091	9.0909e-002	0.1	5899.9
27816	2.2091	0.45455	0.1	5746.6
27817	2.3011	0.36364	0.1	5765.9
27818	2.2091	0.63636	0.1	5658.9
27819	2.3011	0.54545	0.1	5678.3
27820	2.2091	0.81818	0.1	5578.
27821	2.3011	0.72727	0.1	5596.4
27822	2.2091	1.	0.1	5504.5
27823	2.3011	0.90909	0.1	5520.9
27824	2.2091	1.1818	0.1	5439.5
27825	2.3011	1.0909	0.1	5452.7
27826	2.2091	1.3636	0.1	5383.4
27827	2.3011	1.2727	0.1	5392.5
27828	2.2091	1.5455	0.1	5336.1
27829	2.3011	1.4545	0.1	5340.6
27830	2.2091	1.7273	0.1	5297.2
27831	2.3011	1.6364	0.1	5296.9
27832	2.2091	1.9091	0.1	5266.
27833	2.3011	1.8182	0.1	5261.
27834	2.2091	2.0909	0.1	5241.6
27835	2.3011	2.	0.1	5232.1
27836	2.2091	2.2727	0.1	5223.1
27837	2.3011	2.1818	0.1	5209.6
27838	2.2091	2.4545	0.1	5209.7
27839	2.3011	2.3636	0.1	5192.6
27840	2.2091	2.6364	0.1	5200.6
27841	2.3011	2.5455	0.1	5180.5
27842	2.2091	2.8182	0.1	5195.4
27843	2.3011	2.7273	0.1	5172.8
27844	2.2091	3.	0.1	5193.7
27845	2.3011	2.9091	0.1	5169.
27846	2.2091	3.1818	0.1	5195.4
27847	2.3011	3.0909	0.1	5169.
27848	2.2091	3.3636	0.1	5200.6
27849	2.3011	3.2727	0.1	5172.8
27850	2.2091	3.5455	0.1	5209.7
27851	2.3011	3.4545	0.1	5180.5
27852	2.2091	3.7273	0.1	5223.1
27853	2.3011	3.6364	0.1	5192.6
27854	2.2091	3.9091	0.1	5241.6
27855	2.3011	3.8182	0.1	5209.6
27856	2.2091	4.0909	0.1	5266.
27857	2.3011	4.	0.1	5232.1
27858	2.2091	4.2727	0.1	5297.2
27859	2.3011	4.1818	0.1	5261.
27860	2.2091	4.4545	0.1	5336.1
27861	2.3011	4.3636	0.1	5296.9
27862	2.2091	4.6364	0.1	5383.4
27863	2.3011	4.5455	0.1	5340.6
27864	2.2091	4.8182	0.1	5439.5
27865	2.3011	4.7273	0.1	5392.5
27866	2.2091	5.	0.1	5504.5
27867	2.3011	4.9091	0.1	5452.7
27868	2.2091	5.1818	0.1	5578.
27869	2.3011	5.0909	0.1	5520.9
27870	2.2091	5.3636	0.1	5658.9
27871	2.3011	5.2727	0.1	5596.4
27872	2.2091	5.5455	0.1	5746.6
27873	2.3011	5.4545	0.1	5678.3
27874	2.2091	5.7273	0.1	5844.9
27875	2.3011	5.6364	0.1	5765.9
27876	2.3011	5.8182	0.1	5867.2
27877	2.2091	5.9091	0.1	5899.9
27878	2.3932	0.27273	0.1	5788.
27879	2.4852	0.18182	0.1	5804.2
27880	2.3932	9.0909e-002	0.1	5842.
27881	2.3932	0.45455	0.1	5697.5
27882	2.4852	0.36364	0.1	5711.6
27883	2.3932	0.63636	0.1	5615.6
27884	2.4852	0.54545	0.1	5630.2
27885	2.3932	0.81818	0.1	5539.1
27886	2.4852	0.72727	0.1	5553.5
27887	2.3932	1.	0.1	5468.7
27888	2.4852	0.90909	0.1	5481.8
27889	2.3932	1.1818	0.1	5405.3
27890	2.4852	1.0909	0.1	5416.2
27891	2.3932	1.3636	0.1	5349.4
27892	2.4852	1.2727	0.1	5357.3
27893	2.3932	1.5455	0.1	5301.2
27894	2.4852	1.4545	0.1	5305.6
27895	2.3932	1.7273	0.1	5260.5
27896	2.4852	1.6364	0.1	5261.
27897	2.3932	1.9091	0.1	5226.9
27898	2.4852	1.8182	0.1	5223.5
27899	2.3932	2.0909	0.1	5199.9
27900	2.4852	2.	0.1	5192.7
27901	2.3932	2.2727	0.1	5178.9
27902	2.4852	2.1818	0.1	5168.1
27903	2.3932	2.4545	0.1	5163.3
27904	2.4852	2.3636	0.1	5149.2
27905	2.3932	2.6364	0.1	5152.6
27906	2.4852	2.5455	0.1	5135.5
27907	2.3932	2.8182	0.1	5146.3
27908	2.4852	2.7273	0.1	5126.6
27909	2.3932	3.	0.1	5144.2
27910	2.4852	2.9091	0.1	5122.2
27911	2.3932	3.1818	0.1	5146.3
27912	2.4852	3.0909	0.1	5122.2
27913	2.3932	3.3636	0.1	5152.6
27914	2.4852	3.2727	0.1	5126.6
27915	2.3932	3.5455	0.1	5163.3
27916	2.4852	3.4545	0.1	5135.5
27917	2.3932	3.7273	0.1	5178.9
27918	2.4852	3.6364	0.1	5149.2
27919	2.3932	3.9091	0.1	5199.9
27920	2.4852	3.8182	0.1	5168.1
27921	2.3932	4.0909	0.1	5226.9
27922	2.4852	4.	0.1	5192.7
27923	2.3932	4.2727	0.1	5260.5
27924	2.4852	4.1818	0.1	5223.5
27925	2.3932	4.4545	0.1	5301.2
27926	2.4852	4.3636	0.1	5261.
27927	2.3932	4.6364	0.1	5349.4
27928	2.4852	4.5455	0.1	5305.6
27929	2.3932	4.8182	0.1	5405.3
27930	2.4852	4.7273	0.1	5357.3
27931	2.3932	5.	0.1	5468.7
27932	2.4852	4.9091	0.1	5416.2
27933	2.3932	5.1818	0.1	5539.1
27934	2.4852	5.0909	0.1	5481.8
27935	2.3932	5.3636	0.1	5615.6
27936	2.4852	5.2727	0.1	5553.5
27937	2.3932	5.5455	0.1	5697.5
27938	2.4852	5.4545	0.1	5630.2
27939	2.3932	5.7273	0.1	5788.
27940	2.4852	5.6364	0.1	5711.6
27941	2.4852	5.8182	0.1	5804.2
27942	2.3932	5.9091	0.1	5842.
27943	2.5773	0.27273	0.1	5727.6
27944	2.6693	0.18182	0.1	5738.5
27945	2.5773	9.0909e-002	0.1	5780.2
27946	2.5773	0.45455	0.1	5644.2
27947	2.6693	0.36364	0.1	5653.9
27948	2.5773	0.63636	0.1	5567.9
27949	2.6693	0.54545	0.1	5578.4
27950	2.5773	0.81818	0.1	5496.
27951	2.6693	0.72727	0.1	5506.7
27952	2.5773	1.	0.1	5429.1
27953	2.6693	0.90909	0.1	5439.1
27954	2.5773	1.1818	0.1	5368.
27955	2.6693	1.0909	0.1	5376.6
27956	2.5773	1.3636	0.1	5313.3
27957	2.6693	1.2727	0.1	5319.8
27958	2.5773	1.5455	0.1	5265.3
27959	2.6693	1.4545	0.1	5269.1
27960	2.5773	1.7273	0.1	5223.9
27961	2.6693	1.6364	0.1	5224.7
27962	2.5773	1.9091	0.1	5189.2
27963	2.6693	1.8182	0.1	5186.8
27964	2.5773	2.0909	0.1	5160.8
27965	2.6693	2.	0.1	5155.
27966	2.5773	2.2727	0.1	5138.2
27967	2.6693	2.1818	0.1	5129.3
27968	2.5773	2.4545	0.1	5121.2
27969	2.6693	2.3636	0.1	5109.2
27970	2.5773	2.6364	0.1	5109.4
27971	2.6693	2.5455	0.1	5094.5
27972	2.5773	2.8182	0.1	5102.4
27973	2.6693	2.7273	0.1	5084.8
27974	2.5773	3.	0.1	5100.1
27975	2.6693	2.9091	0.1	5080.1
27976	2.5773	3.1818	0.1	5102.4
27977	2.6693	3.0909	0.1	5080.1
27978	2.5773	3.3636	0.1	5109.4
27979	2.6693	3.2727	0.1	5084.8
27980	2.5773	3.5455	0.1	5121.2
27981	2.6693	3.4545	0.1	5094.5
27982	2.5773	3.7273	0.1	5138.2
27983	2.6693	3.6364	0.1	5109.2
27984	2.5773	3.9091	0.1	5160.8
27985	2.6693	3.8182	0.1	5129.3
27986	2.5773	4.0909	0.1	5189.2
27987	2.6693	4.	0.1	5155.
27988	2.5773	4.2727	0.1	5223.9
27989	2.6693	4.1818	0.1	5186.8
27990	2.5773	4.4545	0.1	5265.3
27991	2.6693	4.3636	0.1	5224.7
27992	2.5773	4.6364	0.1	5313.3
27993	2.6693	4.5455	0.1	5269.1
27994	2.5773	4.8182	0.1	5368.
27995	2.6693	4.7273	0.1	5319.8
27996	2.5773	5.	0.1	5429.1
27997	2.6693	4.9091	0.1	5376.6
27998	2.5773	5.1818	0.1	5496.
27999	2.6693	5.0909	0.1	5439.1
28000	2.5773	5.3636	0.1	5567.9
28001	2.6693	5.2727	0.1	5506.7
28002	2.5773	5.5455	0.1	5644.2
28003	2.6693	5.4545	0.1	5578.4
28004	2.5773	5.7273	0.1	5727.6
28005	2.6693	5.6364	0.1	5653.9
28006	2.6693	5.8182	0.1	5738.5
28007	2.5773	5.9091	0.1	5780.2
28008	2.7614	0.27273	0.1	5664.7
28009	2.8534	0.18182	0.1	5671.1
28010	2.7614	9.0909e-002	0.1	5715.5
28011	2.7614	0.45455	0.1	5587.9
28012	2.8534	0.36364	0.1	5593.7
28013	2.7614	0.63636	0.1	5517.
28014	2.8534	0.54545	0.1	5523.8
28015	2.7614	0.81818	0.1	5449.7
28016	2.8534	0.72727	0.1	5457.1
28017	2.7614	1.	0.1	5386.5
28018	2.8534	0.90909	0.1	5393.7
28019	2.7614	1.1818	0.1	5328.2
28020	2.8534	1.0909	0.1	5334.6
28021	2.7614	1.3636	0.1	5275.4
28022	2.8534	1.2727	0.1	5280.3
28023	2.7614	1.5455	0.1	5228.4
28024	2.8534	1.4545	0.1	5231.3
28025	2.7614	1.7273	0.1	5187.4
28026	2.8534	1.6364	0.1	5187.9
28027	2.7614	1.9091	0.1	5152.4
28028	2.8534	1.8182	0.1	5150.3
28029	2.7614	2.0909	0.1	5123.4
28030	2.8534	2.	0.1	5118.5
28031	2.7614	2.2727	0.1	5100.1
28032	2.8534	2.1818	0.1	5092.3
28033	2.7614	2.4545	0.1	5082.4
28034	2.8534	2.3636	0.1	5071.7
28035	2.7614	2.6364	0.1	5069.8
28036	2.8534	2.5455	0.1	5056.5
28037	2.7614	2.8182	0.1	5062.4
28038	2.8534	2.7273	0.1	5046.4
28039	2.7614	3.	0.1	5060.
28040	2.8534	2.9091	0.1	5041.5
28041	2.7614	3.1818	0.1	5062.4
28042	2.8534	3.0909	0.1	5041.5
28043	2.7614	3.3636	0.1	5069.8
28044	2.8534	3.2727	0.1	5046.4
28045	2.7614	3.5455	0.1	5082.4
28046	2.8534	3.4545	0.1	5056.5
28047	2.7614	3.7273	0.1	5100.1
28048	2.8534	3.6364	0.1	5071.7
28049	2.7614	3.9091	0.1	5123.4
28050	2.8534	3.8182	0.1	5092.3
28051	2.7614	4.0909	0.1	5152.4
28052	2.8534	4.	0.1	5118.5
28053	2.7614	4.2727	0.1	5187.4
28054	2.8534	4.1818	0.1	5150.3
28055	2.7614	4.4545	0.1	5228.4
28056	2.8534	4.3636	0.1	5187.9
28057	2.7614	4.6364	0.1	5275.4
28058	2.8534	4.5455	0.1	5231.3
28059	2.7614	4.8182	0.1	5328.2
28060	2.8534	4.7273	0.1	5280.3
28061	2.7614	5.	0.1	5386.5
28062	2.8534	4.9091	0.1	5334.6
28063	2.7614	5.1818	0.1	5449.7
28064	2.8534	5.0909	0.1	5393.7
28065	2.7614	5.3636	0.1	5517.
28066	2.8534	5.2727	0.1	5457.1
28067	2.7614	5.5455	0.1	5587.9
28068	2.8534	5.4545	0.1	5523.8
28069	2.7614	5.7273	0.1	5664.7
28070	2.8534	5.6364	0.1	5593.7
28071	2.8534	5.8182	0.1	5671.1
28072	2.7614	5.9091	0.1	5715.5
28073	2.9455	0.27273	0.1	5600.1
28074	3.0375	0.18182	0.1	5602.6
28075	2.9455	9.0909e-002	0.1	5648.8
28076	2.9455	0.45455	0.1	5529.6
28077	3.0375	0.36364	0.1	5531.9
28078	2.9455	0.63636	0.1	5463.8
28079	3.0375	0.54545	0.1	5467.4
28080	2.9455	0.81818	0.1	5401.
28081	3.0375	0.72727	0.1	5405.4
28082	2.9455	1.	0.1	5341.7
28083	3.0375	0.90909	0.1	5346.3
28084	2.9455	1.1818	0.1	5286.5
28085	3.0375	1.0909	0.1	5290.7
28086	2.9455	1.3636	0.1	5236.1
28087	3.0375	1.2727	0.1	5239.3
28088	2.9455	1.5455	0.1	5190.7
28089	3.0375	1.4545	0.1	5192.4
28090	2.9455	1.7273	0.1	5150.7
28091	3.0375	1.6364	0.1	5150.6
28092	2.9455	1.9091	0.1	5116.2
28093	3.0375	1.8182	0.1	5113.9
28094	2.9455	2.0909	0.1	5087.3
28095	3.0375	2.	0.1	5082.6
28096	2.9455	2.2727	0.1	5063.8
28097	3.0375	2.1818	0.1	5056.7
28098	2.9455	2.4545	0.1	5045.8
28099	3.0375	2.3636	0.1	5036.
28100	2.9455	2.6364	0.1	5033.
28101	3.0375	2.5455	0.1	5020.7
28102	2.9455	2.8182	0.1	5025.4
28103	3.0375	2.7273	0.1	5010.5
28104	2.9455	3.	0.1	5022.9
28105	3.0375	2.9091	0.1	5005.5
28106	2.9455	3.1818	0.1	5025.4
28107	3.0375	3.0909	0.1	5005.5
28108	2.9455	3.3636	0.1	5033.
28109	3.0375	3.2727	0.1	5010.5
28110	2.9455	3.5455	0.1	5045.8
28111	3.0375	3.4545	0.1	5020.7
28112	2.9455	3.7273	0.1	5063.8
28113	3.0375	3.6364	0.1	5036.
28114	2.9455	3.9091	0.1	5087.3
28115	3.0375	3.8182	0.1	5056.7
28116	2.9455	4.0909	0.1	5116.2
28117	3.0375	4.	0.1	5082.6
28118	2.9455	4.2727	0.1	5150.7
28119	3.0375	4.1818	0.1	5113.9
28120	2.9455	4.4545	0.1	5190.7
28121	3.0375	4.3636	0.1	5150.6
28122	2.9455	4.6364	0.1	5236.1
28123	3.0375	4.5455	0.1	5192.4
28124	2.9455	4.8182	0.1	5286.5
28125	3.0375	4.7273	0.1	5239.3
28126	2.9455	5.	0.1	5341.7
28127	3.0375	4.9091	0.1	5290.7
28128	2.9455	5.1818	0.1	5401.
28129	3.0375	5.0909	0.1	5346.3
28130	2.9455	5.3636	0.1	5463.8
28131	3.0375	5.2727	0.1	5405.4
28132	2.9455	5.5455	0.1	5529.6
28133	3.0375	5.4545	0.1	5467.4
28134	2.9455	5.7273	0.1	5600.1
28135	3.0375	5.6364	0.1	5531.9
28136	3.0375	5.8182	0.1	5602.6
28137	2.9455	5.9091	0.1	5648.8
28138	3.1295	0.27273	0.1	5534.3
28139	3.2216	0.18182	0.1	5533.2
28140	3.1295	9.0909e-002	0.1	5580.8
28141	3.1295	0.45455	0.1	5469.6
28142	3.2216	0.36364	0.1	5468.8
28143	3.1295	0.63636	0.1	5408.9
28144	3.2216	0.54545	0.1	5409.4
28145	3.1295	0.81818	0.1	5350.6
28146	3.2216	0.72727	0.1	5352.2
28147	3.1295	1.	0.1	5295.2
28148	3.2216	0.90909	0.1	5297.3
28149	3.1295	1.1818	0.1	5243.3
28150	3.2216	1.0909	0.1	5245.4
28151	3.1295	1.3636	0.1	5195.5
28152	3.2216	1.2727	0.1	5197.
28153	3.1295	1.5455	0.1	5152.2
28154	3.2216	1.4545	0.1	5152.6
28155	3.1295	1.7273	0.1	5113.7
28156	3.2216	1.6364	0.1	5112.7
28157	3.1295	1.9091	0.1	5080.2
28158	3.2216	1.8182	0.1	5077.5
28159	3.1295	2.0909	0.1	5051.9
28160	3.2216	2.	0.1	5047.1
28161	3.1295	2.2727	0.1	5028.8
28162	3.2216	2.1818	0.1	5021.8
28163	3.1295	2.4545	0.1	5010.9
28164	3.2216	2.3636	0.1	5001.6
28165	3.1295	2.6364	0.1	4998.1
28166	3.2216	2.5455	0.1	4986.4
28167	3.1295	2.8182	0.1	4990.5
28168	3.2216	2.7273	0.1	4976.3
28169	3.1295	3.	0.1	4988.
28170	3.2216	2.9091	0.1	4971.3
28171	3.1295	3.1818	0.1	4990.5
28172	3.2216	3.0909	0.1	4971.3
28173	3.1295	3.3636	0.1	4998.1
28174	3.2216	3.2727	0.1	4976.3
28175	3.1295	3.5455	0.1	5010.9
28176	3.2216	3.4545	0.1	4986.4
28177	3.1295	3.7273	0.1	5028.8
28178	3.2216	3.6364	0.1	5001.6
28179	3.1295	3.9091	0.1	5051.9
28180	3.2216	3.8182	0.1	5021.8
28181	3.1295	4.0909	0.1	5080.2
28182	3.2216	4.	0.1	5047.1
28183	3.1295	4.2727	0.1	5113.7
28184	3.2216	4.1818	0.1	5077.5
28185	3.1295	4.4545	0.1	5152.2
28186	3.2216	4.3636	0.1	5112.7
28187	3.1295	4.6364	0.1	5195.5
28188	3.2216	4.5455	0.1	5152.6
28189	3.1295	4.8182	0.1	5243.3
28190	3.2216	4.7273	0.1	5197.
28191	3.1295	5.	0.1	5295.2
28192	3.2216	4.9091	0.1	5245.4
28193	3.1295	5.1818	0.1	5350.6
28194	3.2216	5.0909	0.1	5297.3
28195	3.1295	5.3636	0.1	5408.9
28196	3.2216	5.2727	0.1	5352.2
28197	3.1295	5.5455	0.1	5469.6
28198	3.2216	5.4545	0.1	5409.4
28199	3.1295	5.7273	0.1	5534.3
28200	3.2216	5.6364	0.1	5468.9
28201	3.2216	5.8182	0.1	5533.2
28202	3.1295	5.9091	0.1	5580.8
28203	3.3136	0.27273	0.1	5467.7
28204	3.4057	0.18182	0.1	5463.3
28205	3.3136	9.0909e-002	0.1	5511.6
28206	3.3136	0.45455	0.1	5408.6
28207	3.4057	0.36364	0.1	5404.9
28208	3.3136	0.63636	0.1	5352.7
28209	3.4057	0.54545	0.1	5350.4
28210	3.3136	0.81818	0.1	5298.8
28211	3.4057	0.72727	0.1	5297.8
28212	3.3136	1.	0.1	5247.4
28213	3.4057	0.90909	0.1	5247.1
28214	3.3136	1.1818	0.1	5199.
28215	3.4057	1.0909	0.1	5198.9
28216	3.3136	1.3636	0.1	5154.
28217	3.4057	1.2727	0.1	5153.8
28218	3.3136	1.5455	0.1	5113.1
28219	3.4057	1.4545	0.1	5112.1
28220	3.3136	1.7273	0.1	5076.4
28221	3.4057	1.6364	0.1	5074.4
28222	3.3136	1.9091	0.1	5044.3
28223	3.4057	1.8182	0.1	5040.9
28224	3.3136	2.0909	0.1	5017.
28225	3.4057	2.	0.1	5011.9
28226	3.3136	2.2727	0.1	4994.5
28227	3.4057	2.1818	0.1	4987.5
28228	3.3136	2.4545	0.1	4977.1
28229	3.4057	2.3636	0.1	4967.9
28230	3.3136	2.6364	0.1	4964.6
28231	3.4057	2.5455	0.1	4953.2
28232	3.3136	2.8182	0.1	4957.1
28233	3.4057	2.7273	0.1	4943.4
28234	3.3136	3.	0.1	4954.6
28235	3.4057	2.9091	0.1	4938.5
28236	3.3136	3.1818	0.1	4957.1
28237	3.4057	3.0909	0.1	4938.5
28238	3.3136	3.3636	0.1	4964.6
28239	3.4057	3.2727	0.1	4943.4
28240	3.3136	3.5455	0.1	4977.1
28241	3.4057	3.4545	0.1	4953.2
28242	3.3136	3.7273	0.1	4994.5
28243	3.4057	3.6364	0.1	4967.9
28244	3.3136	3.9091	0.1	5017.
28245	3.4057	3.8182	0.1	4987.5
28246	3.3136	4.0909	0.1	5044.3
28247	3.4057	4.	0.1	5011.9
28248	3.3136	4.2727	0.1	5076.4
28249	3.4057	4.1818	0.1	5040.9
28250	3.3136	4.4545	0.1	5113.1
28251	3.4057	4.3636	0.1	5074.4
28252	3.3136	4.6364	0.1	5154.
28253	3.4057	4.5455	0.1	5112.1
28254	3.3136	4.8182	0.1	5199.
28255	3.4057	4.7273	0.1	5153.8
28256	3.3136	5.	0.1	5247.4
28257	3.4057	4.9091	0.1	5198.9
28258	3.3136	5.1818	0.1	5298.8
28259	3.4057	5.0909	0.1	5247.1
28260	3.3136	5.3636	0.1	5352.7
28261	3.4057	5.2727	0.1	5297.8
28262	3.3136	5.5455	0.1	5408.6
28263	3.4057	5.4545	0.1	5350.4
28264	3.3136	5.7273	0.1	5467.7
28265	3.4057	5.6364	0.1	5404.9
28266	3.4057	5.8182	0.1	5463.3
28267	3.3136	5.9091	0.1	5511.6
28268	3.4977	0.27273	0.1	5400.4
28269	3.5898	0.18182	0.1	5392.9
28270	3.4977	9.0909e-002	0.1	5441.5
28271	3.4977	0.45455	0.1	5346.6
28272	3.5898	0.36364	0.1	5340.1
28273	3.4977	0.63636	0.1	5295.5
28274	3.5898	0.54545	0.1	5290.5
28275	3.4977	0.81818	0.1	5246.
28276	3.5898	0.72727	0.1	5242.4
28277	3.4977	1.	0.1	5198.5
28278	3.5898	0.90909	0.1	5195.9
28279	3.4977	1.1818	0.1	5153.7
28280	3.5898	1.0909	0.1	5151.5
28281	3.4977	1.3636	0.1	5111.8
28282	3.5898	1.2727	0.1	5109.7
28283	3.4977	1.5455	0.1	5073.4
28284	3.5898	1.4545	0.1	5071.
28285	3.4977	1.7273	0.1	5038.8
28286	3.5898	1.6364	0.1	5035.7
28287	3.4977	1.9091	0.1	5008.4
28288	3.5898	1.8182	0.1	5004.1
28289	3.4977	2.0909	0.1	4982.3
28290	3.5898	2.	0.1	4976.7
28291	3.4977	2.2727	0.1	4960.8
28292	3.5898	2.1818	0.1	4953.5
28293	3.4977	2.4545	0.1	4944.1
28294	3.5898	2.3636	0.1	4934.9
28295	3.4977	2.6364	0.1	4932.
28296	3.5898	2.5455	0.1	4920.8
28297	3.4977	2.8182	0.1	4924.8
28298	3.5898	2.7273	0.1	4911.4
28299	3.4977	3.	0.1	4922.4
28300	3.5898	2.9091	0.1	4906.7
28301	3.4977	3.1818	0.1	4924.8
28302	3.5898	3.0909	0.1	4906.7
28303	3.4977	3.3636	0.1	4932.
28304	3.5898	3.2727	0.1	4911.4
28305	3.4977	3.5455	0.1	4944.1
28306	3.5898	3.4545	0.1	4920.8
28307	3.4977	3.7273	0.1	4960.8
28308	3.5898	3.6364	0.1	4934.9
28309	3.4977	3.9091	0.1	4982.3
28310	3.5898	3.8182	0.1	4953.5
28311	3.4977	4.0909	0.1	5008.4
28312	3.5898	4.	0.1	4976.7
28313	3.4977	4.2727	0.1	5038.8
28314	3.5898	4.1818	0.1	5004.1
28315	3.4977	4.4545	0.1	5073.4
28316	3.5898	4.3636	0.1	5035.7
28317	3.4977	4.6364	0.1	5111.8
28318	3.5898	4.5455	0.1	5071.
28319	3.4977	4.8182	0.1	5153.7
28320	3.5898	4.7273	0.1	5109.7
28321	3.4977	5.	0.1	5198.5
28322	3.5898	4.9091	0.1	5151.5
28323	3.4977	5.1818	0.1	5246.
28324	3.5898	5.0909	0.1	5195.9
28325	3.4977	5.3636	0.1	5295.5
28326	3.5898	5.2727	0.1	5242.4
28327	3.4977	5.5455	0.1	5346.6
28328	3.5898	5.4545	0.1	5290.5
28329	3.4977	5.7273	0.1	5400.4
28330	3.5898	5.6364	0.1	5340.1
28331	3.5898	5.8182	0.1	5392.9
28332	3.4977	5.9091	0.1	5441.5
28333	3.6818	0.27273	0.1	5332.5
28334	3.7739	0.18182	0.1	5321.9
28335	3.6818	9.0909e-002	0.1	5370.5
28336	3.6818	0.45455	0.1	5283.9
28337	3.7739	0.36364	0.1	5274.5
28338	3.6818	0.63636	0.1	5237.4
28339	3.7739	0.54545	0.1	5229.8
28340	3.6818	0.81818	0.1	5192.3
28341	3.7739	0.72727	0.1	5186.2
28342	3.6818	1.	0.1	5148.8
28343	3.7739	0.90909	0.1	5143.9
28344	3.6818	1.1818	0.1	5107.6
28345	3.7739	1.0909	0.1	5103.4
28346	3.6818	1.3636	0.1	5068.9
28347	3.7739	1.2727	0.1	5065.1
28348	3.6818	1.5455	0.1	5033.2
28349	3.7739	1.4545	0.1	5029.3
28350	3.6818	1.7273	0.1	5000.9
28351	3.7739	1.6364	0.1	4996.6
28352	3.6818	1.9091	0.1	4972.4
28353	3.7739	1.8182	0.1	4967.3
28354	3.6818	2.0909	0.1	4947.9
28355	3.7739	2.	0.1	4941.6
28356	3.6818	2.2727	0.1	4927.5
28357	3.7739	2.1818	0.1	4919.9
28358	3.6818	2.4545	0.1	4911.6
28359	3.7739	2.3636	0.1	4902.3
28360	3.6818	2.6364	0.1	4900.1
28361	3.7739	2.5455	0.1	4889.
28362	3.6818	2.8182	0.1	4893.2
28363	3.7739	2.7273	0.1	4880.1
28364	3.6818	3.	0.1	4890.9
28365	3.7739	2.9091	0.1	4875.6
28366	3.6818	3.1818	0.1	4893.2
28367	3.7739	3.0909	0.1	4875.6
28368	3.6818	3.3636	0.1	4900.1
28369	3.7739	3.2727	0.1	4880.1
28370	3.6818	3.5455	0.1	4911.6
28371	3.7739	3.4545	0.1	4889.
28372	3.6818	3.7273	0.1	4927.5
28373	3.7739	3.6364	0.1	4902.3
28374	3.6818	3.9091	0.1	4947.9
28375	3.7739	3.8182	0.1	4919.9
28376	3.6818	4.0909	0.1	4972.4
28377	3.7739	4.	0.1	4941.6
28378	3.6818	4.2727	0.1	5000.9
28379	3.7739	4.1818	0.1	4967.3
28380	3.6818	4.4545	0.1	5033.2
28381	3.7739	4.3636	0.1	4996.6
28382	3.6818	4.6364	0.1	5068.9
28383	3.7739	4.5455	0.1	5029.3
28384	3.6818	4.8182	0.1	5107.6
28385	3.7739	4.7273	0.1	5065.1
28386	3.6818	5.	0.1	5148.8
28387	3.7739	4.9091	0.1	5103.4
28388	3.6818	5.1818	0.1	5192.3
28389	3.7739	5.0909	0.1	5143.9
28390	3.6818	5.3636	0.1	5237.4
28391	3.7739	5.2727	0.1	5186.2
28392	3.6818	5.5455	0.1	5283.9
28393	3.7739	5.4545	0.1	5229.8
28394	3.6818	5.7273	0.1	5332.5
28395	3.7739	5.6364	0.1	5274.5
28396	3.7739	5.8182	0.1	5321.9
28397	3.6818	5.9091	0.1	5370.5
28398	3.8659	0.27273	0.1	5263.9
28399	3.958	0.18182	0.1	5250.2
28400	3.8659	9.0909e-002	0.1	5298.7
28401	3.8659	0.45455	0.1	5220.3
28402	3.958	0.36364	0.1	5208.1
28403	3.8659	0.63636	0.1	5178.5
28404	3.958	0.54545	0.1	5168.1
28405	3.8659	0.81818	0.1	5137.8
28406	3.958	0.72727	0.1	5129.1
28407	3.8659	1.	0.1	5098.4
28408	3.958	0.90909	0.1	5091.1
28409	3.8659	1.1818	0.1	5060.8
28410	3.958	1.0909	0.1	5054.6
28411	3.8659	1.3636	0.1	5025.5
28412	3.958	1.2727	0.1	5019.8
28413	3.8659	1.5455	0.1	4992.7
28414	3.958	1.4545	0.1	4987.3
28415	3.8659	1.7273	0.1	4962.9
28416	3.958	1.6364	0.1	4957.3
28417	3.8659	1.9091	0.1	4936.4
28418	3.958	1.8182	0.1	4930.4
28419	3.8659	2.0909	0.1	4913.6
28420	3.958	2.	0.1	4906.7
28421	3.8659	2.2727	0.1	4894.6
28422	3.958	2.1818	0.1	4886.5
28423	3.8659	2.4545	0.1	4879.7
28424	3.958	2.3636	0.1	4870.2
28425	3.8659	2.6364	0.1	4868.9
28426	3.958	2.5455	0.1	4857.8
28427	3.8659	2.8182	0.1	4862.4
28428	3.958	2.7273	0.1	4849.5
28429	3.8659	3.	0.1	4860.2
28430	3.958	2.9091	0.1	4845.3
28431	3.8659	3.1818	0.1	4862.4
28432	3.958	3.0909	0.1	4845.3
28433	3.8659	3.3636	0.1	4868.9
28434	3.958	3.2727	0.1	4849.5
28435	3.8659	3.5455	0.1	4879.7
28436	3.958	3.4545	0.1	4857.8
28437	3.8659	3.7273	0.1	4894.6
28438	3.958	3.6364	0.1	4870.2
28439	3.8659	3.9091	0.1	4913.6
28440	3.958	3.8182	0.1	4886.5
28441	3.8659	4.0909	0.1	4936.4
28442	3.958	4.	0.1	4906.7
28443	3.8659	4.2727	0.1	4962.9
28444	3.958	4.1818	0.1	4930.4
28445	3.8659	4.4545	0.1	4992.7
28446	3.958	4.3636	0.1	4957.3
28447	3.8659	4.6364	0.1	5025.5
28448	3.958	4.5455	0.1	4987.3
28449	3.8659	4.8182	0.1	5060.8
28450	3.958	4.7273	0.1	5019.8
28451	3.8659	5.	0.1	5098.4
28452	3.958	4.9091	0.1	5054.6
28453	3.8659	5.1818	0.1	5137.8
28454	3.958	5.0909	0.1	5091.1
28455	3.8659	5.3636	0.1	5178.5
28456	3.958	5.2727	0.1	5129.1
28457	3.8659	5.5455	0.1	5220.3
28458	3.958	5.4545	0.1	5168.1
28459	3.8659	5.7273	0.1	5263.9
28460	3.958	5.6364	0.1	5208.1
28461	3.958	5.8182	0.1	5250.2
28462	3.8659	5.9091	0.1	5298.7
28463	4.05	0.27273	0.1	5194.4
28464	4.142	0.18182	0.1	5177.4
28465	4.05	9.0909e-002	0.1	5225.6
28466	4.05	0.45455	0.1	5155.9
28467	4.142	0.36364	0.1	5140.6
28468	4.05	0.63636	0.1	5118.7
28469	4.142	0.54545	0.1	5105.5
28470	4.05	0.81818	0.1	5082.5
28471	4.142	0.72727	0.1	5071.1
28472	4.05	1.	0.1	5047.3
28473	4.142	0.90909	0.1	5037.6
28474	4.05	1.1818	0.1	5013.5
28475	4.142	1.0909	0.1	5005.1
28476	4.05	1.3636	0.1	4981.6
28477	4.142	1.2727	0.1	4974.1
28478	4.05	1.5455	0.1	4951.9
28479	4.142	1.4545	0.1	4944.9
28480	4.05	1.7273	0.1	4924.8
28481	4.142	1.6364	0.1	4918.
28482	4.05	1.9091	0.1	4900.6
28483	4.142	1.8182	0.1	4893.6
28484	4.05	2.0909	0.1	4879.6
28485	4.142	2.	0.1	4872.
28486	4.05	2.2727	0.1	4862.1
28487	4.142	2.1818	0.1	4853.7
28488	4.05	2.4545	0.1	4848.3
28489	4.142	2.3636	0.1	4838.7
28490	4.05	2.6364	0.1	4838.4
28491	4.142	2.5455	0.1	4827.4
28492	4.05	2.8182	0.1	4832.3
28493	4.142	2.7273	0.1	4819.7
28494	4.05	3.	0.1	4830.3
28495	4.142	2.9091	0.1	4815.9
28496	4.05	3.1818	0.1	4832.3
28497	4.142	3.0909	0.1	4815.9
28498	4.05	3.3636	0.1	4838.4
28499	4.142	3.2727	0.1	4819.7
28500	4.05	3.5455	0.1	4848.3
28501	4.142	3.4545	0.1	4827.4
28502	4.05	3.7273	0.1	4862.1
28503	4.142	3.6364	0.1	4838.7
28504	4.05	3.9091	0.1	4879.6
28505	4.142	3.8182	0.1	4853.7
28506	4.05	4.0909	0.1	4900.6
28507	4.142	4.	0.1	4872.
28508	4.05	4.2727	0.1	4924.8
28509	4.142	4.1818	0.1	4893.6
28510	4.05	4.4545	0.1	4951.9
28511	4.142	4.3636	0.1	4918.
28512	4.05	4.6364	0.1	4981.6
28513	4.142	4.5455	0.1	4944.9
28514	4.05	4.8182	0.1	5013.5
28515	4.142	4.7273	0.1	4974.1
28516	4.05	5.	0.1	5047.3
28517	4.142	4.9091	0.1	5005.1
28518	4.05	5.1818	0.1	5082.5
28519	4.142	5.0909	0.1	5037.6
28520	4.05	5.3636	0.1	5118.7
28521	4.142	5.2727	0.1	5071.1
28522	4.05	5.5455	0.1	5155.9
28523	4.142	5.4545	0.1	5105.5
28524	4.05	5.7273	0.1	5194.4
28525	4.142	5.6364	0.1	5140.6
28526	4.142	5.8182	0.1	5177.4
28527	4.05	5.9091	0.1	5225.6
28528	4.2341	0.27273	0.1	5123.6
28529	4.3261	0.18182	0.1	5103.1
28530	4.2341	9.0909e-002	0.1	5151.1
28531	4.2341	0.45455	0.1	5090.2
28532	4.3261	0.36364	0.1	5071.7
28533	4.2341	0.63636	0.1	5057.9
28534	4.3261	0.54545	0.1	5041.6
28535	4.2341	0.81818	0.1	5026.2
28536	4.3261	0.72727	0.1	5012.1
28537	4.2341	1.	0.1	4995.4
28538	4.3261	0.90909	0.1	4983.1
28539	4.2341	1.1818	0.1	4965.7
28540	4.3261	1.0909	0.1	4955.
28541	4.2341	1.3636	0.1	4937.4
28542	4.3261	1.2727	0.1	4927.9
28543	4.2341	1.5455	0.1	4911.
28544	4.3261	1.4545	0.1	4902.4
28545	4.2341	1.7273	0.1	4886.7
28546	4.3261	1.6364	0.1	4878.6
28547	4.2341	1.9091	0.1	4865.
28548	4.3261	1.8182	0.1	4857.
28549	4.2341	2.0909	0.1	4846.1
28550	4.3261	2.	0.1	4837.9
28551	4.2341	2.2727	0.1	4830.3
28552	4.3261	2.1818	0.1	4821.5
28553	4.2341	2.4545	0.1	4817.8
28554	4.3261	2.3636	0.1	4808.1
28555	4.2341	2.6364	0.1	4808.7
28556	4.3261	2.5455	0.1	4797.9
28557	4.2341	2.8182	0.1	4803.2
28558	4.3261	2.7273	0.1	4791.1
28559	4.2341	3.	0.1	4801.4
28560	4.3261	2.9091	0.1	4787.6
28561	4.2341	3.1818	0.1	4803.2
28562	4.3261	3.0909	0.1	4787.6
28563	4.2341	3.3636	0.1	4808.7
28564	4.3261	3.2727	0.1	4791.1
28565	4.2341	3.5455	0.1	4817.8
28566	4.3261	3.4545	0.1	4797.9
28567	4.2341	3.7273	0.1	4830.3
28568	4.3261	3.6364	0.1	4808.1
28569	4.2341	3.9091	0.1	4846.1
28570	4.3261	3.8182	0.1	4821.5
28571	4.2341	4.0909	0.1	4865.
28572	4.3261	4.	0.1	4837.9
28573	4.2341	4.2727	0.1	4886.7
28574	4.3261	4.1818	0.1	4857.
28575	4.2341	4.4545	0.1	4911.
28576	4.3261	4.3636	0.1	4878.6
28577	4.2341	4.6364	0.1	4937.4
28578	4.3261	4.5455	0.1	4902.4
28579	4.2341	4.8182	0.1	4965.7
28580	4.3261	4.7273	0.1	4927.9
28581	4.2341	5.	0.1	4995.4
28582	4.3261	4.9091	0.1	4955.
28583	4.2341	5.1818	0.1	5026.2
28584	4.3261	5.0909	0.1	4983.1
28585	4.2341	5.3636	0.1	5057.9
28586	4.3261	5.2727	0.1	5012.1
28587	4.2341	5.5455	0.1	5090.2
28588	4.3261	5.4545	0.1	5041.6
28589	4.2341	5.7273	0.1	5123.6
28590	4.3261	5.6364	0.1	5071.7
28591	4.3261	5.8182	0.1	5103.1
28592	4.2341	5.9091	0.1	5151.1
28593	4.4182	0.27273	0.1	5051.2
28594	4.5102	0.18182	0.1	5026.8
28595	4.4182	9.0909e-002	0.1	5074.6
28596	4.4182	0.45455	0.1	5023.1
28597	4.5102	0.36364	0.1	5000.9
28598	4.4182	0.63636	0.1	4995.8
28599	4.5102	0.54545	0.1	4976.1
28600	4.4182	0.81818	0.1	4968.9
28601	4.5102	0.72727	0.1	4951.6
28602	4.4182	1.	0.1	4942.7
28603	4.5102	0.90909	0.1	4927.6
28604	4.4182	1.1818	0.1	4917.2
28605	4.5102	1.0909	0.1	4904.
28606	4.4182	1.3636	0.1	4892.9
28607	4.5102	1.2727	0.1	4881.3
28608	4.4182	1.5455	0.1	4870.
28609	4.5102	1.4545	0.1	4859.7
28610	4.4182	1.7273	0.1	4848.9
28611	4.5102	1.6364	0.1	4839.5
28612	4.4182	1.9091	0.1	4829.9
28613	4.5102	1.8182	0.1	4821.
28614	4.4182	2.0909	0.1	4813.3
28615	4.5102	2.	0.1	4804.6
28616	4.4182	2.2727	0.1	4799.4
28617	4.5102	2.1818	0.1	4790.5
28618	4.4182	2.4545	0.1	4788.3
28619	4.5102	2.3636	0.1	4778.9
28620	4.4182	2.6364	0.1	4780.3
28621	4.5102	2.5455	0.1	4770.
28622	4.4182	2.8182	0.1	4775.5
28623	4.5102	2.7273	0.1	4764.
28624	4.4182	3.	0.1	4773.8
28625	4.5102	2.9091	0.1	4761.
28626	4.4182	3.1818	0.1	4775.5
28627	4.5102	3.0909	0.1	4761.
28628	4.4182	3.3636	0.1	4780.3
28629	4.5102	3.2727	0.1	4764.
28630	4.4182	3.5455	0.1	4788.3
28631	4.5102	3.4545	0.1	4770.
28632	4.4182	3.7273	0.1	4799.4
28633	4.5102	3.6364	0.1	4778.9
28634	4.4182	3.9091	0.1	4813.3
28635	4.5102	3.8182	0.1	4790.5
28636	4.4182	4.0909	0.1	4829.9
28637	4.5102	4.	0.1	4804.6
28638	4.4182	4.2727	0.1	4848.9
28639	4.5102	4.1818	0.1	4821.
28640	4.4182	4.4545	0.1	4870.
28641	4.5102	4.3636	0.1	4839.5
28642	4.4182	4.6364	0.1	4892.9
28643	4.5102	4.5455	0.1	4859.7
28644	4.4182	4.8182	0.1	4917.2
28645	4.5102	4.7273	0.1	4881.3
28646	4.4182	5.	0.1	4942.7
28647	4.5102	4.9091	0.1	4904.
28648	4.4182	5.1818	0.1	4968.9
28649	4.5102	5.0909	0.1	4927.6
28650	4.4182	5.3636	0.1	4995.8
28651	4.5102	5.2727	0.1	4951.6
28652	4.4182	5.5455	0.1	5023.1
28653	4.5102	5.4545	0.1	4976.1
28654	4.4182	5.7273	0.1	5051.2
28655	4.5102	5.6364	0.1	5000.9
28656	4.5102	5.8182	0.1	5026.8
28657	4.4182	5.9091	0.1	5074.6
28658	4.6023	0.27273	0.1	4976.5
28659	4.6943	0.18182	0.1	4947.7
28660	4.6023	9.0909e-002	0.1	4995.4
28661	4.6023	0.45455	0.1	4953.9
28662	4.6943	0.36364	0.1	4927.5
28663	4.6023	0.63636	0.1	4931.9
28664	4.6943	0.54545	0.1	4908.3
28665	4.6023	0.81818	0.1	4910.2
28666	4.6943	0.72727	0.1	4889.4
28667	4.6023	1.	0.1	4888.9
28668	4.6943	0.90909	0.1	4870.6
28669	4.6023	1.1818	0.1	4868.1
28670	4.6943	1.0909	0.1	4852.2
28671	4.6023	1.3636	0.1	4848.1
28672	4.6943	1.2727	0.1	4834.3
28673	4.6023	1.5455	0.1	4829.2
28674	4.6943	1.4545	0.1	4817.
28675	4.6023	1.7273	0.1	4811.6
28676	4.6943	1.6364	0.1	4800.8
28677	4.6023	1.9091	0.1	4795.7
28678	4.6943	1.8182	0.1	4785.9
28679	4.6023	2.0909	0.1	4781.7
28680	4.6943	2.	0.1	4772.5
28681	4.6023	2.2727	0.1	4769.9
28682	4.6943	2.1818	0.1	4761.
28683	4.6023	2.4545	0.1	4760.6
28684	4.6943	2.3636	0.1	4751.5
28685	4.6023	2.6364	0.1	4753.7
28686	4.6943	2.5455	0.1	4744.2
28687	4.6023	2.8182	0.1	4749.6
28688	4.6943	2.7273	0.1	4739.3
28689	4.6023	3.	0.1	4748.2
28690	4.6943	2.9091	0.1	4736.8
28691	4.6023	3.1818	0.1	4749.6
28692	4.6943	3.0909	0.1	4736.8
28693	4.6023	3.3636	0.1	4753.7
28694	4.6943	3.2727	0.1	4739.3
28695	4.6023	3.5455	0.1	4760.6
28696	4.6943	3.4545	0.1	4744.2
28697	4.6023	3.7273	0.1	4769.9
28698	4.6943	3.6364	0.1	4751.5
28699	4.6023	3.9091	0.1	4781.7
28700	4.6943	3.8182	0.1	4761.
28701	4.6023	4.0909	0.1	4795.7
28702	4.6943	4.	0.1	4772.5
28703	4.6023	4.2727	0.1	4811.6
28704	4.6943	4.1818	0.1	4785.9
28705	4.6023	4.4545	0.1	4829.2
28706	4.6943	4.3636	0.1	4800.8
28707	4.6023	4.6364	0.1	4848.1
28708	4.6943	4.5455	0.1	4817.
28709	4.6023	4.8182	0.1	4868.1
28710	4.6943	4.7273	0.1	4834.3
28711	4.6023	5.	0.1	4888.9
28712	4.6943	4.9091	0.1	4852.2
28713	4.6023	5.1818	0.1	4910.2
28714	4.6943	5.0909	0.1	4870.6
28715	4.6023	5.3636	0.1	4931.9
28716	4.6943	5.2727	0.1	4889.4
28717	4.6023	5.5455	0.1	4953.9
28718	4.6943	5.4545	0.1	4908.3
28719	4.6023	5.7273	0.1	4976.5
28720	4.6943	5.6364	0.1	4927.5
28721	4.6943	5.8182	0.1	4947.7
28722	4.6023	5.9091	0.1	4995.4
28723	4.7864	0.27273	0.1	4898.8
28724	4.8784	0.18182	0.1	4864.9
28725	4.7864	9.0909e-002	0.1	4912.8
28726	4.7864	0.45455	0.1	4882.
28727	4.8784	0.36364	0.1	4850.9
28728	4.7864	0.63636	0.1	4865.8
28729	4.8784	0.54545	0.1	4837.7
28730	4.7864	0.81818	0.1	4849.7
28731	4.8784	0.72727	0.1	4824.8
28732	4.7864	1.	0.1	4833.9
28733	4.8784	0.90909	0.1	4811.9
28734	4.7864	1.1818	0.1	4818.3
28735	4.8784	1.0909	0.1	4799.2
28736	4.7864	1.3636	0.1	4803.1
28737	4.8784	1.2727	0.1	4786.6
28738	4.7864	1.5455	0.1	4788.7
28739	4.8784	1.4545	0.1	4774.5
28740	4.7864	1.7273	0.1	4775.1
28741	4.8784	1.6364	0.1	4762.9
28742	4.7864	1.9091	0.1	4762.7
28743	4.8784	1.8182	0.1	4752.1
28744	4.7864	2.0909	0.1	4751.8
28745	4.8784	2.	0.1	4742.3
28746	4.7864	2.2727	0.1	4742.6
28747	4.8784	2.1818	0.1	4733.8
28748	4.7864	2.4545	0.1	4735.2
28749	4.8784	2.3636	0.1	4726.8
28750	4.7864	2.6364	0.1	4729.8
28751	4.8784	2.5455	0.1	4721.4
28752	4.7864	2.8182	0.1	4726.5
28753	4.8784	2.7273	0.1	4717.8
28754	4.7864	3.	0.1	4725.4
28755	4.8784	2.9091	0.1	4715.9
28756	4.7864	3.1818	0.1	4726.5
28757	4.8784	3.0909	0.1	4715.9
28758	4.7864	3.3636	0.1	4729.8
28759	4.8784	3.2727	0.1	4717.8
28760	4.7864	3.5455	0.1	4735.2
28761	4.8784	3.4545	0.1	4721.4
28762	4.7864	3.7273	0.1	4742.6
28763	4.8784	3.6364	0.1	4726.8
28764	4.7864	3.9091	0.1	4751.8
28765	4.8784	3.8182	0.1	4733.8
28766	4.7864	4.0909	0.1	4762.7
28767	4.8784	4.	0.1	4742.3
28768	4.7864	4.2727	0.1	4775.1
28769	4.8784	4.1818	0.1	4752.1
28770	4.7864	4.4545	0.1	4788.7
28771	4.8784	4.3636	0.1	4762.9
28772	4.7864	4.6364	0.1	4803.1
28773	4.8784	4.5455	0.1	4774.5
28774	4.7864	4.8182	0.1	4818.3
28775	4.8784	4.7273	0.1	4786.6
28776	4.7864	5.	0.1	4833.9
28777	4.8784	4.9091	0.1	4799.2
28778	4.7864	5.1818	0.1	4849.7
28779	4.8784	5.0909	0.1	4811.9
28780	4.7864	5.3636	0.1	4865.8
28781	4.8784	5.2727	0.1	4824.8
28782	4.7864	5.5455	0.1	4882.
28783	4.8784	5.4545	0.1	4837.7
28784	4.7864	5.7273	0.1	4898.8
28785	4.8784	5.6364	0.1	4850.9
28786	4.8784	5.8182	0.1	4864.9
28787	4.7864	5.9091	0.1	4912.8
28788	4.9705	0.27273	0.1	4817.
28789	5.0625	0.18182	0.1	4777.2
28790	4.9705	9.0909e-002	0.1	4825.7
28791	4.9705	0.45455	0.1	4806.5
28792	5.0625	0.36364	0.1	4769.8
28793	4.9705	0.63636	0.1	4796.7
28794	5.0625	0.54545	0.1	4763.3
28795	4.9705	0.81818	0.1	4786.9
28796	5.0625	0.72727	0.1	4757.1
28797	4.9705	1.	0.1	4777.2
28798	5.0625	0.90909	0.1	4750.9
28799	4.9705	1.1818	0.1	4767.5
28800	5.0625	1.0909	0.1	4744.6
28801	4.9705	1.3636	0.1	4757.9
28802	5.0625	1.2727	0.1	4738.3
28803	4.9705	1.5455	0.1	4748.6
28804	5.0625	1.4545	0.1	4732.
28805	4.9705	1.7273	0.1	4739.8
28806	5.0625	1.6364	0.1	4725.9
28807	4.9705	1.9091	0.1	4731.6
28808	5.0625	1.8182	0.1	4720.
28809	4.9705	2.0909	0.1	4724.3
28810	5.0625	2.	0.1	4714.6
28811	4.9705	2.2727	0.1	4718.1
28812	5.0625	2.1818	0.1	4709.9
28813	4.9705	2.4545	0.1	4713.1
28814	5.0625	2.3636	0.1	4705.9
28815	4.9705	2.6364	0.1	4709.5
28816	5.0625	2.5455	0.1	4702.8
28817	4.9705	2.8182	0.1	4707.2
28818	5.0625	2.7273	0.1	4700.8
28819	4.9705	3.	0.1	4706.5
28820	5.0625	2.9091	0.1	4699.7
28821	4.9705	3.1818	0.1	4707.2
28822	5.0625	3.0909	0.1	4699.7
28823	4.9705	3.3636	0.1	4709.5
28824	5.0625	3.2727	0.1	4700.8
28825	4.9705	3.5455	0.1	4713.1
28826	5.0625	3.4545	0.1	4702.8
28827	4.9705	3.7273	0.1	4718.1
28828	5.0625	3.6364	0.1	4705.9
28829	4.9705	3.9091	0.1	4724.3
28830	5.0625	3.8182	0.1	4709.9
28831	4.9705	4.0909	0.1	4731.6
28832	5.0625	4.	0.1	4714.6
28833	4.9705	4.2727	0.1	4739.8
28834	5.0625	4.1818	0.1	4720.
28835	4.9705	4.4545	0.1	4748.6
28836	5.0625	4.3636	0.1	4725.9
28837	4.9705	4.6364	0.1	4757.9
28838	5.0625	4.5455	0.1	4732.
28839	4.9705	4.8182	0.1	4767.5
28840	5.0625	4.7273	0.1	4738.3
28841	4.9705	5.	0.1	4777.2
28842	5.0625	4.9091	0.1	4744.6
28843	4.9705	5.1818	0.1	4786.9
28844	5.0625	5.0909	0.1	4750.9
28845	4.9705	5.3636	0.1	4796.7
28846	5.0625	5.2727	0.1	4757.1
28847	4.9705	5.5455	0.1	4806.5
28848	5.0625	5.4545	0.1	4763.3
28849	4.9705	5.7273	0.1	4817.
28850	5.0625	5.6364	0.1	4769.8
28851	5.0625	5.8182	0.1	4777.2
28852	4.9705	5.9091	0.1	4825.7
28853	5.1545	0.27273	0.1	4730.
28854	5.2466	0.18182	0.1	4683.2
28855	5.1545	9.0909e-002	0.1	4732.8
28856	5.1545	0.45455	0.1	4726.5
28857	5.2466	0.36364	0.1	4683.
28858	5.1545	0.63636	0.1	4723.7
28859	5.2466	0.54545	0.1	4683.9
28860	5.1545	0.81818	0.1	4721.
28861	5.2466	0.72727	0.1	4685.3
28862	5.1545	1.	0.1	4718.3
28863	5.2466	0.90909	0.1	4686.7
28864	5.1545	1.1818	0.1	4715.4
28865	5.2466	1.0909	0.1	4688.1
28866	5.1545	1.3636	0.1	4712.4
28867	5.2466	1.2727	0.1	4689.2
28868	5.1545	1.5455	0.1	4709.3
28869	5.2466	1.4545	0.1	4689.9
28870	5.1545	1.7273	0.1	4706.1
28871	5.2466	1.6364	0.1	4690.3
28872	5.1545	1.9091	0.1	4703.
28873	5.2466	1.8182	0.1	4690.5
28874	5.1545	2.0909	0.1	4700.2
28875	5.2466	2.	0.1	4690.4
28876	5.1545	2.2727	0.1	4697.7
28877	5.2466	2.1818	0.1	4690.3
28878	5.1545	2.4545	0.1	4695.6
28879	5.2466	2.3636	0.1	4690.1
28880	5.1545	2.6364	0.1	4694.1
28881	5.2466	2.5455	0.1	4689.9
28882	5.1545	2.8182	0.1	4693.2
28883	5.2466	2.7273	0.1	4689.8
28884	5.1545	3.	0.1	4692.9
28885	5.2466	2.9091	0.1	4689.8
28886	5.1545	3.1818	0.1	4693.2
28887	5.2466	3.0909	0.1	4689.8
28888	5.1545	3.3636	0.1	4694.1
28889	5.2466	3.2727	0.1	4689.8
28890	5.1545	3.5455	0.1	4695.6
28891	5.2466	3.4545	0.1	4689.9
28892	5.1545	3.7273	0.1	4697.7
28893	5.2466	3.6364	0.1	4690.1
28894	5.1545	3.9091	0.1	4700.2
28895	5.2466	3.8182	0.1	4690.3
28896	5.1545	4.0909	0.1	4703.
28897	5.2466	4.	0.1	4690.4
28898	5.1545	4.2727	0.1	4706.1
28899	5.2466	4.1818	0.1	4690.5
28900	5.1545	4.4545	0.1	4709.3
28901	5.2466	4.3636	0.1	4690.3
28902	5.1545	4.6364	0.1	4712.4
28903	5.2466	4.5455	0.1	4689.9
28904	5.1545	4.8182	0.1	4715.4
28905	5.2466	4.7273	0.1	4689.2
28906	5.1545	5.	0.1	4718.3
28907	5.2466	4.9091	0.1	4688.1
28908	5.1545	5.1818	0.1	4721.
28909	5.2466	5.0909	0.1	4686.7
28910	5.1545	5.3636	0.1	4723.7
28911	5.2466	5.2727	0.1	4685.3
28912	5.1545	5.5455	0.1	4726.5
28913	5.2466	5.4545	0.1	4683.9
28914	5.1545	5.7273	0.1	4730.
28915	5.2466	5.6364	0.1	4683.
28916	5.2466	5.8182	0.1	4683.2
28917	5.1545	5.9091	0.1	4732.8
28918	5.3386	0.27273	0.1	4636.2
28919	5.4307	0.18182	0.1	4581.1
28920	5.3386	9.0909e-002	0.1	4632.4
28921	5.3386	0.45455	0.1	4640.4
28922	5.4307	0.36364	0.1	4588.9
28923	5.3386	0.63636	0.1	4645.5
28924	5.4307	0.54545	0.1	4598.1
28925	5.3386	0.81818	0.1	4651.
28926	5.4307	0.72727	0.1	4608.2
28927	5.3386	1.	0.1	4656.5
28928	5.4307	0.90909	0.1	4618.6
28929	5.3386	1.1818	0.1	4661.8
28930	5.4307	1.0909	0.1	4629.
28931	5.3386	1.3636	0.1	4666.6
28932	5.4307	1.2727	0.1	4638.9
28933	5.3386	1.5455	0.1	4671.
28934	5.4307	1.4545	0.1	4648.2
28935	5.3386	1.7273	0.1	4674.7
28936	5.4307	1.6364	0.1	4656.7
28937	5.3386	1.9091	0.1	4677.8
28938	5.4307	1.8182	0.1	4664.3
28939	5.3386	2.0909	0.1	4680.5
28940	5.4307	2.	0.1	4670.9
28941	5.3386	2.2727	0.1	4682.7
28942	5.4307	2.1818	0.1	4676.5
28943	5.3386	2.4545	0.1	4684.4
28944	5.4307	2.3636	0.1	4681.1
28945	5.3386	2.6364	0.1	4685.6
28946	5.4307	2.5455	0.1	4684.7
28947	5.3386	2.8182	0.1	4686.4
28948	5.4307	2.7273	0.1	4687.2
28949	5.3386	3.	0.1	4686.7
28950	5.4307	2.9091	0.1	4688.4
28951	5.3386	3.1818	0.1	4686.4
28952	5.4307	3.0909	0.1	4688.4
28953	5.3386	3.3636	0.1	4685.6
28954	5.4307	3.2727	0.1	4687.2
28955	5.3386	3.5455	0.1	4684.4
28956	5.4307	3.4545	0.1	4684.7
28957	5.3386	3.7273	0.1	4682.7
28958	5.4307	3.6364	0.1	4681.1
28959	5.3386	3.9091	0.1	4680.5
28960	5.4307	3.8182	0.1	4676.5
28961	5.3386	4.0909	0.1	4677.8
28962	5.4307	4.	0.1	4670.9
28963	5.3386	4.2727	0.1	4674.7
28964	5.4307	4.1818	0.1	4664.3
28965	5.3386	4.4545	0.1	4671.
28966	5.4307	4.3636	0.1	4656.7
28967	5.3386	4.6364	0.1	4666.6
28968	5.4307	4.5455	0.1	4648.2
28969	5.3386	4.8182	0.1	4661.8
28970	5.4307	4.7273	0.1	4638.9
28971	5.3386	5.	0.1	4656.5
28972	5.4307	4.9091	0.1	4629.
28973	5.3386	5.1818	0.1	4651.
28974	5.4307	5.0909	0.1	4618.6
28975	5.3386	5.3636	0.1	4645.5
28976	5.4307	5.2727	0.1	4608.2
28977	5.3386	5.5455	0.1	4640.4
28978	5.4307	5.4545	0.1	4598.1
28979	5.3386	5.7273	0.1	4636.2
28980	5.4307	5.6364	0.1	4588.9
28981	5.4307	5.8182	0.1	4581.1
28982	5.3386	5.9091	0.1	4632.4
28983	5.5227	0.27273	0.1	4533.7
28984	5.6148	0.18182	0.1	4468.7
28985	5.5227	9.0909e-002	0.1	4522.6
28986	5.5227	0.45455	0.1	4546.6
28987	5.6148	0.36364	0.1	4485.3
28988	5.5227	0.63636	0.1	4560.8
28989	5.6148	0.54545	0.1	4504.1
28990	5.5227	0.81818	0.1	4575.8
28991	5.6148	0.72727	0.1	4524.3
28992	5.5227	1.	0.1	4591.1
28993	5.6148	0.90909	0.1	4545.2
28994	5.5227	1.1818	0.1	4606.1
28995	5.6148	1.0909	0.1	4566.4
28996	5.5227	1.3636	0.1	4620.5
28997	5.6148	1.2727	0.1	4587.2
28998	5.5227	1.5455	0.1	4634.
28999	5.6148	1.4545	0.1	4607.1
29000	5.5227	1.7273	0.1	4646.3
29001	5.6148	1.6364	0.1	4625.6
29002	5.5227	1.9091	0.1	4657.3
29003	5.6148	1.8182	0.1	4642.5
29004	5.5227	2.0909	0.1	4666.8
29005	5.6148	2.	0.1	4657.5
29006	5.5227	2.2727	0.1	4675.
29007	5.6148	2.1818	0.1	4670.5
29008	5.5227	2.4545	0.1	4681.5
29009	5.6148	2.3636	0.1	4681.4
29010	5.5227	2.6364	0.1	4686.3
29011	5.6148	2.5455	0.1	4689.8
29012	5.5227	2.8182	0.1	4689.2
29013	5.6148	2.7273	0.1	4695.6
29014	5.5227	3.	0.1	4690.2
29015	5.6148	2.9091	0.1	4698.5
29016	5.5227	3.1818	0.1	4689.2
29017	5.6148	3.0909	0.1	4698.5
29018	5.5227	3.3636	0.1	4686.3
29019	5.6148	3.2727	0.1	4695.6
29020	5.5227	3.5455	0.1	4681.5
29021	5.6148	3.4545	0.1	4689.8
29022	5.5227	3.7273	0.1	4675.
29023	5.6148	3.6364	0.1	4681.4
29024	5.5227	3.9091	0.1	4666.8
29025	5.6148	3.8182	0.1	4670.5
29026	5.5227	4.0909	0.1	4657.3
29027	5.6148	4.	0.1	4657.5
29028	5.5227	4.2727	0.1	4646.3
29029	5.6148	4.1818	0.1	4642.5
29030	5.5227	4.4545	0.1	4634.
29031	5.6148	4.3636	0.1	4625.6
29032	5.5227	4.6364	0.1	4620.5
29033	5.6148	4.5455	0.1	4607.1
29034	5.5227	4.8182	0.1	4606.1
29035	5.6148	4.7273	0.1	4587.2
29036	5.5227	5.	0.1	4591.1
29037	5.6148	4.9091	0.1	4566.4
29038	5.5227	5.1818	0.1	4575.8
29039	5.6148	5.0909	0.1	4545.2
29040	5.5227	5.3636	0.1	4560.8
29041	5.6148	5.2727	0.1	4524.3
29042	5.5227	5.5455	0.1	4546.6
29043	5.6148	5.4545	0.1	4504.1
29044	5.5227	5.7273	0.1	4533.7
29045	5.6148	5.6364	0.1	4485.3
29046	5.6148	5.8182	0.1	4468.7
29047	5.5227	5.9091	0.1	4522.6
29048	5.7068	0.27273	0.1	4420.3
29049	5.7989	0.18182	0.1	4343.4
29050	5.7068	9.0909e-002	0.1	4400.9
29051	5.7068	0.45455	0.1	4442.8
29052	5.7989	0.36364	0.1	4369.8
29053	5.7068	0.63636	0.1	4467.6
29054	5.7989	0.54545	0.1	4399.4
29055	5.7068	0.81818	0.1	4493.8
29056	5.7989	0.72727	0.1	4431.4
29057	5.7068	1.	0.1	4520.7
29058	5.7989	0.90909	0.1	4465.1
29059	5.7068	1.1818	0.1	4547.6
29060	5.7989	1.0909	0.1	4499.5
29061	5.7068	1.3636	0.1	4573.9
29062	5.7989	1.2727	0.1	4533.7
29063	5.7068	1.5455	0.1	4598.8
29064	5.7989	1.4545	0.1	4566.7
29065	5.7068	1.7273	0.1	4621.8
29066	5.7989	1.6364	0.1	4597.9
29067	5.7068	1.9091	0.1	4642.7
29068	5.7989	1.8182	0.1	4626.6
29069	5.7068	2.0909	0.1	4661.2
29070	5.7989	2.	0.1	4652.4
29071	5.7068	2.2727	0.1	4676.9
29072	5.7989	2.1818	0.1	4674.9
29073	5.7068	2.4545	0.1	4689.7
29074	5.7989	2.3636	0.1	4693.7
29075	5.7068	2.6364	0.1	4699.1
29076	5.7989	2.5455	0.1	4708.5
29077	5.7068	2.8182	0.1	4704.9
29078	5.7989	2.7273	0.1	4718.7
29079	5.7068	3.	0.1	4706.9
29080	5.7989	2.9091	0.1	4723.9
29081	5.7068	3.1818	0.1	4704.9
29082	5.7989	3.0909	0.1	4723.9
29083	5.7068	3.3636	0.1	4699.1
29084	5.7989	3.2727	0.1	4718.7
29085	5.7068	3.5455	0.1	4689.7
29086	5.7989	3.4545	0.1	4708.5
29087	5.7068	3.7273	0.1	4676.9
29088	5.7989	3.6364	0.1	4693.7
29089	5.7068	3.9091	0.1	4661.2
29090	5.7989	3.8182	0.1	4674.9
29091	5.7068	4.0909	0.1	4642.7
29092	5.7989	4.	0.1	4652.4
29093	5.7068	4.2727	0.1	4621.8
29094	5.7989	4.1818	0.1	4626.6
29095	5.7068	4.4545	0.1	4598.8
29096	5.7989	4.3636	0.1	4597.9
29097	5.7068	4.6364	0.1	4573.9
29098	5.7989	4.5455	0.1	4566.7
29099	5.7068	4.8182	0.1	4547.6
29100	5.7989	4.7273	0.1	4533.7
29101	5.7068	5.	0.1	4520.7
29102	5.7989	4.9091	0.1	4499.5
29103	5.7068	5.1818	0.1	4493.8
29104	5.7989	5.0909	0.1	4465.1
29105	5.7068	5.3636	0.1	4467.6
29106	5.7989	5.2727	0.1	4431.4
29107	5.7068	5.5455	0.1	4442.8
29108	5.7989	5.4545	0.1	4399.4
29109	5.7068	5.7273	0.1	4420.3
29110	5.7989	5.6364	0.1	4369.8
29111	5.7989	5.8182	0.1	4343.4
29112	5.7068	5.9091	0.1	4400.9
29113	5.8909	0.27273	0.1	4293.
29114	5.983	0.18182	0.1	4202.2
29115	5.8909	9.0909e-002	0.1	4264.3
29116	5.8909	0.45455	0.1	4326.5
29117	5.983	0.36364	0.1	4239.3
29118	5.8909	0.63636	0.1	4363.4
29119	5.983	0.54545	0.1	4281.3
29120	5.8909	0.81818	0.1	4403.
29121	5.983	0.72727	0.1	4327.3
29122	5.8909	1.	0.1	4444.1
29123	5.983	0.90909	0.1	4376.3
29124	5.8909	1.1818	0.1	4485.7
29125	5.983	1.0909	0.1	4427.
29126	5.8909	1.3636	0.1	4526.7
29127	5.983	1.2727	0.1	4477.9
29128	5.8909	1.5455	0.1	4566.
29129	5.983	1.4545	0.1	4527.6
29130	5.8909	1.7273	0.1	4602.7
29131	5.983	1.6364	0.1	4574.8
29132	5.8909	1.9091	0.1	4636.3
29133	5.983	1.8182	0.1	4618.5
29134	5.8909	2.0909	0.1	4666.1
29135	5.983	2.	0.1	4658.1
29136	5.8909	2.2727	0.1	4691.7
29137	5.983	2.1818	0.1	4692.8
29138	5.8909	2.4545	0.1	4712.5
29139	5.983	2.3636	0.1	4722.1
29140	5.8909	2.6364	0.1	4728.
29141	5.983	2.5455	0.1	4745.2
29142	5.8909	2.8182	0.1	4737.6
29143	5.983	2.7273	0.1	4761.3
29144	5.8909	3.	0.1	4740.9
29145	5.983	2.9091	0.1	4769.5
29146	5.8909	3.1818	0.1	4737.6
29147	5.983	3.0909	0.1	4769.5
29148	5.8909	3.3636	0.1	4728.
29149	5.983	3.2727	0.1	4761.3
29150	5.8909	3.5455	0.1	4712.5
29151	5.983	3.4545	0.1	4745.2
29152	5.8909	3.7273	0.1	4691.7
29153	5.983	3.6364	0.1	4722.1
29154	5.8909	3.9091	0.1	4666.1
29155	5.983	3.8182	0.1	4692.8
29156	5.8909	4.0909	0.1	4636.3
29157	5.983	4.	0.1	4658.1
29158	5.8909	4.2727	0.1	4602.7
29159	5.983	4.1818	0.1	4618.5
29160	5.8909	4.4545	0.1	4566.
29161	5.983	4.3636	0.1	4574.8
29162	5.8909	4.6364	0.1	4526.7
29163	5.983	4.5455	0.1	4527.6
29164	5.8909	4.8182	0.1	4485.7
29165	5.983	4.7273	0.1	4477.9
29166	5.8909	5.	0.1	4444.1
29167	5.983	4.9091	0.1	4427.
29168	5.8909	5.1818	0.1	4403.
29169	5.983	5.0909	0.1	4376.3
29170	5.8909	5.3636	0.1	4363.4
29171	5.983	5.2727	0.1	4327.3
29172	5.8909	5.5455	0.1	4326.5
29173	5.983	5.4545	0.1	4281.3
29174	5.8909	5.7273	0.1	4293.
29175	5.983	5.6364	0.1	4239.3
29176	5.983	5.8182	0.1	4202.2
29177	5.8909	5.9091	0.1	4264.3
29178	6.075	0.27273	0.1	4148.5
29179	6.167	0.18182	0.1	4041.3
29180	6.075	9.0909e-002	0.1	4109.5
29181	6.075	0.45455	0.1	4194.3
29182	6.167	0.36364	0.1	4090.1
29183	6.075	0.63636	0.1	4245.4
29184	6.167	0.54545	0.1	4146.2
29185	6.075	0.81818	0.1	4301.
29186	6.167	0.72727	0.1	4208.8
29187	6.075	1.	0.1	4359.5
29188	6.167	0.90909	0.1	4276.4
29189	6.075	1.1818	0.1	4419.5
29190	6.167	1.0909	0.1	4347.4
29191	6.075	1.3636	0.1	4479.1
29192	6.167	1.2727	0.1	4419.4
29193	6.075	1.5455	0.1	4536.6
29194	6.167	1.4545	0.1	4490.2
29195	6.075	1.7273	0.1	4590.7
29196	6.167	1.6364	0.1	4557.9
29197	6.075	1.9091	0.1	4640.4
29198	6.167	1.8182	0.1	4620.9
29199	6.075	2.0909	0.1	4684.9
29200	6.167	2.	0.1	4678.1
29201	6.075	2.2727	0.1	4723.3
29202	6.167	2.1818	0.1	4728.7
29203	6.075	2.4545	0.1	4754.8
29204	6.167	2.3636	0.1	4771.7
29205	6.075	2.6364	0.1	4778.4
29206	6.167	2.5455	0.1	4805.8
29207	6.075	2.8182	0.1	4793.
29208	6.167	2.7273	0.1	4829.6
29209	6.075	3.	0.1	4798.
29210	6.167	2.9091	0.1	4841.8
29211	6.075	3.1818	0.1	4793.
29212	6.167	3.0909	0.1	4841.8
29213	6.075	3.3636	0.1	4778.4
29214	6.167	3.2727	0.1	4829.6
29215	6.075	3.5455	0.1	4754.8
29216	6.167	3.4545	0.1	4805.8
29217	6.075	3.7273	0.1	4723.3
29218	6.167	3.6364	0.1	4771.7
29219	6.075	3.9091	0.1	4684.9
29220	6.167	3.8182	0.1	4728.7
29221	6.075	4.0909	0.1	4640.4
29222	6.167	4.	0.1	4678.1
29223	6.075	4.2727	0.1	4590.7
29224	6.167	4.1818	0.1	4620.9
29225	6.075	4.4545	0.1	4536.6
29226	6.167	4.3636	0.1	4557.9
29227	6.075	4.6364	0.1	4479.1
29228	6.167	4.5455	0.1	4490.2
29229	6.075	4.8182	0.1	4419.5
29230	6.167	4.7273	0.1	4419.4
29231	6.075	5.	0.1	4359.5
29232	6.167	4.9091	0.1	4347.4
29233	6.075	5.1818	0.1	4301.
29234	6.167	5.0909	0.1	4276.4
29235	6.075	5.3636	0.1	4245.4
29236	6.167	5.2727	0.1	4208.8
29237	6.075	5.5455	0.1	4194.3
29238	6.167	5.4545	0.1	4146.2
29239	6.075	5.7273	0.1	4148.5
29240	6.167	5.6364	0.1	4090.1
29241	6.167	5.8182	0.1	4041.3
29242	6.075	5.9091	0.1	4109.5
29243	6.2591	0.27273	0.1	3982.9
29244	6.3511	0.18182	0.1	3856.4
29245	6.2591	9.0909e-002	0.1	3932.3
29246	6.2591	0.45455	0.1	4042.3
29247	6.3511	0.36364	0.1	3917.8
29248	6.2591	0.63636	0.1	4110.
29249	6.3511	0.54545	0.1	3990.
29250	6.2591	0.81818	0.1	4184.8
29251	6.3511	0.72727	0.1	4072.2
29252	6.2591	1.	0.1	4264.9
29253	6.3511	0.90909	0.1	4162.7
29254	6.2591	1.1818	0.1	4348.
29255	6.3511	1.0909	0.1	4259.
29256	6.2591	1.3636	0.1	4431.2
29257	6.3511	1.2727	0.1	4357.9
29258	6.2591	1.5455	0.1	4512.
29259	6.3511	1.4545	0.1	4455.8
29260	6.2591	1.7273	0.1	4588.4
29261	6.3511	1.6364	0.1	4549.8
29262	6.2591	1.9091	0.1	4658.8
29263	6.3511	1.8182	0.1	4637.5
29264	6.2591	2.0909	0.1	4722.1
29265	6.3511	2.	0.1	4717.4
29266	6.2591	2.2727	0.1	4777.2
29267	6.3511	2.1818	0.1	4788.5
29268	6.2591	2.4545	0.1	4822.6
29269	6.3511	2.3636	0.1	4849.2
29270	6.2591	2.6364	0.1	4856.8
29271	6.3511	2.5455	0.1	4897.7
29272	6.2591	2.8182	0.1	4878.2
29273	6.3511	2.7273	0.1	4931.8
29274	6.2591	3.	0.1	4885.5
29275	6.3511	2.9091	0.1	4949.4
29276	6.2591	3.1818	0.1	4878.2
29277	6.3511	3.0909	0.1	4949.4
29278	6.2591	3.3636	0.1	4856.8
29279	6.3511	3.2727	0.1	4931.8
29280	6.2591	3.5455	0.1	4822.6
29281	6.3511	3.4545	0.1	4897.7
29282	6.2591	3.7273	0.1	4777.2
29283	6.3511	3.6364	0.1	4849.2
29284	6.2591	3.9091	0.1	4722.1
29285	6.3511	3.8182	0.1	4788.5
29286	6.2591	4.0909	0.1	4658.8
29287	6.3511	4.	0.1	4717.4
29288	6.2591	4.2727	0.1	4588.4
29289	6.3511	4.1818	0.1	4637.5
29290	6.2591	4.4545	0.1	4512.
29291	6.3511	4.3636	0.1	4549.8
29292	6.2591	4.6364	0.1	4431.2
29293	6.3511	4.5455	0.1	4455.8
29294	6.2591	4.8182	0.1	4348.
29295	6.3511	4.7273	0.1	4357.9
29296	6.2591	5.	0.1	4264.9
29297	6.3511	4.9091	0.1	4259.
29298	6.2591	5.1818	0.1	4184.8
29299	6.3511	5.0909	0.1	4162.7
29300	6.2591	5.3636	0.1	4110.
29301	6.3511	5.2727	0.1	4072.2
29302	6.2591	5.5455	0.1	4042.3
29303	6.3511	5.4545	0.1	3990.
29304	6.2591	5.7273	0.1	3982.9
29305	6.3511	5.6364	0.1	3917.8
29306	6.3511	5.8182	0.1	3856.4
29307	6.2591	5.9091	0.1	3932.3
29308	6.4432	0.27273	0.1	3791.5
29309	6.5352	0.18182	0.1	3643.1
29310	6.4432	9.0909e-002	0.1	3728.2
29311	6.4432	0.45455	0.1	3866.
29312	6.5352	0.36364	0.1	3717.4
29313	6.4432	0.63636	0.1	3953.
29314	6.5352	0.54545	0.1	3807.8
29315	6.4432	0.81818	0.1	4051.1
29316	6.5352	0.72727	0.1	3913.3
29317	6.4432	1.	0.1	4158.
29318	6.5352	0.90909	0.1	4031.9
29319	6.4432	1.1818	0.1	4270.3
29320	6.5352	1.0909	0.1	4160.3
29321	6.4432	1.3636	0.1	4383.7
29322	6.5352	1.2727	0.1	4293.5
29323	6.4432	1.5455	0.1	4494.6
29324	6.5352	1.4545	0.1	4426.4
29325	6.4432	1.7273	0.1	4599.6
29326	6.5352	1.6364	0.1	4554.3
29327	6.4432	1.9091	0.1	4696.6
29328	6.5352	1.8182	0.1	4673.8
29329	6.4432	2.0909	0.1	4784.1
29330	6.5352	2.	0.1	4782.9
29331	6.4432	2.2727	0.1	4860.6
29332	6.5352	2.1818	0.1	4880.2
29333	6.4432	2.4545	0.1	4924.3
29334	6.5352	2.3636	0.1	4964.
29335	6.4432	2.6364	0.1	4972.5
29336	6.5352	2.5455	0.1	5031.3
29337	6.4432	2.8182	0.1	5002.7
29338	6.5352	2.7273	0.1	5078.9
29339	6.4432	3.	0.1	5013.1
29340	6.5352	2.9091	0.1	5103.5
29341	6.4432	3.1818	0.1	5002.7
29342	6.5352	3.0909	0.1	5103.5
29343	6.4432	3.3636	0.1	4972.5
29344	6.5352	3.2727	0.1	5078.9
29345	6.4432	3.5455	0.1	4924.3
29346	6.5352	3.4545	0.1	5031.3
29347	6.4432	3.7273	0.1	4860.6
29348	6.5352	3.6364	0.1	4964.
29349	6.4432	3.9091	0.1	4784.1
29350	6.5352	3.8182	0.1	4880.2
29351	6.4432	4.0909	0.1	4696.6
29352	6.5352	4.	0.1	4782.9
29353	6.4432	4.2727	0.1	4599.6
29354	6.5352	4.1818	0.1	4673.8
29355	6.4432	4.4545	0.1	4494.6
29356	6.5352	4.3636	0.1	4554.3
29357	6.4432	4.6364	0.1	4383.7
29358	6.5352	4.5455	0.1	4426.4
29359	6.4432	4.8182	0.1	4270.3
29360	6.5352	4.7273	0.1	4293.5
29361	6.4432	5.	0.1	4158.
29362	6.5352	4.9091	0.1	4160.3
29363	6.4432	5.1818	0.1	4051.1
29364	6.5352	5.0909	0.1	4031.9
29365	6.4432	5.3636	0.1	3953.
29366	6.5352	5.2727	0.1	3913.3
29367	6.4432	5.5455	0.1	3866.
29368	6.5352	5.4545	0.1	3807.8
29369	6.4432	5.7273	0.1	3791.5
29370	6.5352	5.6364	0.1	3717.4
29371	6.5352	5.8182	0.1	3643.1
29372	6.4432	5.9091	0.1	3728.2
29373	6.6273	0.27273	0.1	3569.3
29374	6.7193	0.18182	0.1	3396.1
29375	6.6273	9.0909e-002	0.1	3492.2
29376	6.6273	0.45455	0.1	3660.
29377	6.7193	0.36364	0.1	3483.4
29378	6.6273	0.63636	0.1	3769.5
29379	6.7193	0.54545	0.1	3594.2
29380	6.6273	0.81818	0.1	3896.
29381	6.7193	0.72727	0.1	3727.4
29382	6.6273	1.	0.1	4036.4
29383	6.7193	0.90909	0.1	3880.8
29384	6.6273	1.1818	0.1	4185.9
29385	6.7193	1.0909	0.1	4049.7
29386	6.6273	1.3636	0.1	4338.4
29387	6.7193	1.2727	0.1	4227.3
29388	6.6273	1.5455	0.1	4488.
29389	6.7193	1.4545	0.1	4405.6
29390	6.6273	1.7273	0.1	4629.9
29391	6.7193	1.6364	0.1	4577.6
29392	6.6273	1.9091	0.1	4761.
29393	6.7193	1.8182	0.1	4738.1
29394	6.6273	2.0909	0.1	4879.6
29395	6.7193	2.	0.1	4884.6
29396	6.6273	2.2727	0.1	4983.8
29397	6.7193	2.1818	0.1	5015.6
29398	6.6273	2.4545	0.1	5071.
29399	6.7193	2.3636	0.1	5128.9
29400	6.6273	2.6364	0.1	5137.3
29401	6.7193	2.5455	0.1	5220.3
29402	6.6273	2.8182	0.1	5179.1
29403	6.7193	2.7273	0.1	5285.
29404	6.6273	3.	0.1	5193.3
29405	6.7193	2.9091	0.1	5318.5
29406	6.6273	3.1818	0.1	5179.1
29407	6.7193	3.0909	0.1	5318.5
29408	6.6273	3.3636	0.1	5137.3
29409	6.7193	3.2727	0.1	5285.
29410	6.6273	3.5455	0.1	5071.
29411	6.7193	3.4545	0.1	5220.3
29412	6.6273	3.7273	0.1	4983.8
29413	6.7193	3.6364	0.1	5128.9
29414	6.6273	3.9091	0.1	4879.6
29415	6.7193	3.8182	0.1	5015.6
29416	6.6273	4.0909	0.1	4761.
29417	6.7193	4.	0.1	4884.6
29418	6.6273	4.2727	0.1	4629.9
29419	6.7193	4.1818	0.1	4738.1
29420	6.6273	4.4545	0.1	4488.
29421	6.7193	4.3636	0.1	4577.6
29422	6.6273	4.6364	0.1	4338.4
29423	6.7193	4.5455	0.1	4405.6
29424	6.6273	4.8182	0.1	4185.9
29425	6.7193	4.7273	0.1	4227.3
29426	6.6273	5.	0.1	4036.4
29427	6.7193	4.9091	0.1	4049.7
29428	6.6273	5.1818	0.1	3896.
29429	6.7193	5.0909	0.1	3880.8
29430	6.6273	5.3636	0.1	3769.5
29431	6.7193	5.2727	0.1	3727.4
29432	6.6273	5.5455	0.1	3660.
29433	6.7193	5.4545	0.1	3594.2
29434	6.6273	5.7273	0.1	3569.3
29435	6.7193	5.6364	0.1	3483.4
29436	6.7193	5.8182	0.1	3396.1
29437	6.6273	5.9091	0.1	3492.2
29438	6.8114	0.27273	0.1	3310.9
29439	6.9034	0.18182	0.1	3110.6
29440	6.8114	9.0909e-002	0.1	3219.2
29441	6.8114	0.45455	0.1	3418.8
29442	6.9034	0.36364	0.1	3210.3
29443	6.8114	0.63636	0.1	3554.4
29444	6.9034	0.54545	0.1	3343.8
29445	6.8114	0.81818	0.1	3715.4
29446	6.9034	0.72727	0.1	3510.
29447	6.8114	1.	0.1	3897.9
29448	6.9034	0.90909	0.1	3706.3
29449	6.8114	1.1818	0.1	4095.2
29450	6.9034	1.0909	0.1	3926.6
29451	6.8114	1.3636	0.1	4298.4
29452	6.9034	1.2727	0.1	4161.6
29453	6.8114	1.5455	0.1	4498.5
29454	6.9034	1.4545	0.1	4399.8
29455	6.8114	1.7273	0.1	4688.3
29456	6.9034	1.6364	0.1	4629.9
29457	6.8114	1.9091	0.1	4863.3
29458	6.9034	1.8182	0.1	4843.8
29459	6.8114	2.0909	0.1	5021.6
29460	6.9034	2.	0.1	5038.2
29461	6.8114	2.2727	0.1	5161.
29462	6.9034	2.1818	0.1	5211.9
29463	6.8114	2.4545	0.1	5278.
29464	6.9034	2.3636	0.1	5362.3
29465	6.8114	2.6364	0.1	5367.3
29466	6.9034	2.5455	0.1	5483.4
29467	6.8114	2.8182	0.1	5423.3
29468	6.9034	2.7273	0.1	5568.6
29469	6.8114	3.	0.1	5442.5
29470	6.9034	2.9091	0.1	5612.4
29471	6.8114	3.1818	0.1	5423.3
29472	6.9034	3.0909	0.1	5612.4
29473	6.8114	3.3636	0.1	5367.3
29474	6.9034	3.2727	0.1	5568.6
29475	6.8114	3.5455	0.1	5278.
29476	6.9034	3.4545	0.1	5483.4
29477	6.8114	3.7273	0.1	5161.
29478	6.9034	3.6364	0.1	5362.3
29479	6.8114	3.9091	0.1	5021.6
29480	6.9034	3.8182	0.1	5211.9
29481	6.8114	4.0909	0.1	4863.3
29482	6.9034	4.	0.1	5038.2
29483	6.8114	4.2727	0.1	4688.3
29484	6.9034	4.1818	0.1	4843.8
29485	6.8114	4.4545	0.1	4498.5
29486	6.9034	4.3636	0.1	4629.9
29487	6.8114	4.6364	0.1	4298.4
29488	6.9034	4.5455	0.1	4399.8
29489	6.8114	4.8182	0.1	4095.2
29490	6.9034	4.7273	0.1	4161.6
29491	6.8114	5.	0.1	3897.9
29492	6.9034	4.9091	0.1	3926.6
29493	6.8114	5.1818	0.1	3715.4
29494	6.9034	5.0909	0.1	3706.3
29495	6.8114	5.3636	0.1	3554.4
29496	6.9034	5.2727	0.1	3510.
29497	6.8114	5.5455	0.1	3418.8
29498	6.9034	5.4545	0.1	3343.8
29499	6.8114	5.7273	0.1	3310.9
29500	6.9034	5.6364	0.1	3210.3
29501	6.9034	5.8182	0.1	3110.6
29502	6.8114	5.9091	0.1	3219.2
29503	6.9955	0.27273	0.1	3011.1
29504	7.0875	0.18182	0.1	2782.2
29505	6.9955	9.0909e-002	0.1	2904.3
29506	6.9955	0.45455	0.1	3137.2
29507	7.0875	0.36364	0.1	2893.2
29508	6.9955	0.63636	0.1	3303.1
29509	7.0875	0.54545	0.1	3052.5
29510	6.9955	0.81818	0.1	3506.3
29511	7.0875	0.72727	0.1	3258.1
29512	6.9955	1.	0.1	3741.7
29513	7.0875	0.90909	0.1	3507.2
29514	6.9955	1.1818	0.1	4000.3
29515	7.0875	1.0909	0.1	3792.2
29516	6.9955	1.3636	0.1	4269.9
29517	7.0875	1.2727	0.1	4101.6
29518	6.9955	1.5455	0.1	4536.8
29519	7.0875	1.4545	0.1	4419.5
29520	6.9955	1.7273	0.1	4789.6
29521	7.0875	1.6364	0.1	4727.7
29522	6.9955	1.9091	0.1	5021.4
29523	7.0875	1.8182	0.1	5012.8
29524	6.9955	2.0909	0.1	5230.1
29525	7.0875	2.	0.1	5268.9
29526	6.9955	2.2727	0.1	5413.7
29527	7.0875	2.1818	0.1	5496.3
29528	6.9955	2.4545	0.1	5567.2
29529	7.0875	2.3636	0.1	5691.9
29530	6.9955	2.6364	0.1	5683.5
29531	7.0875	2.5455	0.1	5846.7
29532	6.9955	2.8182	0.1	5755.7
29533	7.0875	2.7273	0.1	5952.6
29534	6.9955	3.	0.1	5780.2
29535	7.0875	2.9091	0.1	6005.9
29536	6.9955	3.1818	0.1	5755.7
29537	7.0875	3.0909	0.1	6005.9
29538	6.9955	3.3636	0.1	5683.5
29539	7.0875	3.2727	0.1	5952.6
29540	6.9955	3.5455	0.1	5567.2
29541	7.0875	3.4545	0.1	5846.7
29542	6.9955	3.7273	0.1	5413.7
29543	7.0875	3.6364	0.1	5691.9
29544	6.9955	3.9091	0.1	5230.1
29545	7.0875	3.8182	0.1	5496.3
29546	6.9955	4.0909	0.1	5021.4
29547	7.0875	4.	0.1	5268.9
29548	6.9955	4.2727	0.1	4789.6
29549	7.0875	4.1818	0.1	5012.8
29550	6.9955	4.4545	0.1	4536.8
29551	7.0875	4.3636	0.1	4727.7
29552	6.9955	4.6364	0.1	4269.9
29553	7.0875	4.5455	0.1	4419.5
29554	6.9955	4.8182	0.1	4000.3
29555	7.0875	4.7273	0.1	4101.6
29556	6.9955	5.	0.1	3741.7
29557	7.0875	4.9091	0.1	3792.2
29558	6.9955	5.1818	0.1	3506.3
29559	7.0875	5.0909	0.1	3507.2
29560	6.9955	5.3636	0.1	3303.1
29561	7.0875	5.2727	0.1	3258.1
29562	6.9955	5.5455	0.1	3137.2
29563	7.0875	5.4545	0.1	3052.5
29564	6.9955	5.7273	0.1	3011.1
29565	7.0875	5.6364	0.1	2893.2
29566	7.0875	5.8182	0.1	2782.2
29567	6.9955	5.9091	0.1	2904.3
29568	7.1795	0.27273	0.1	2665.9
29569	7.2716	0.18182	0.1	2407.9
29570	7.1795	9.0909e-002	0.1	2543.6
29571	7.1795	0.45455	0.1	2811.7
29572	7.2716	0.36364	0.1	2529.8
29573	7.1795	0.63636	0.1	3013.8
29574	7.2716	0.54545	0.1	2720.
29575	7.1795	0.81818	0.1	3268.5
29576	7.2716	0.72727	0.1	2973.9
29577	7.1795	1.	0.1	3569.6
29578	7.2716	0.90909	0.1	3287.2
29579	7.1795	1.1818	0.1	3906.6
29580	7.2716	1.0909	0.1	3652.2
29581	7.1795	1.3636	0.1	4263.5
29582	7.2716	1.2727	0.1	4056.7
29583	7.1795	1.5455	0.1	4620.3
29584	7.2716	1.4545	0.1	4481.7
29585	7.1795	1.7273	0.1	4957.7
29586	7.2716	1.6364	0.1	4900.4
29587	7.1795	1.9091	0.1	5264.3
29588	7.2716	1.8182	0.1	5283.4
29589	7.1795	2.0909	0.1	5537.1
29590	7.2716	2.	0.1	5622.
29591	7.1795	2.2727	0.1	5774.9
29592	7.2716	2.1818	0.1	5916.5
29593	7.1795	2.4545	0.1	5970.2
29594	7.2716	2.3636	0.1	6161.6
29595	7.1795	2.6364	0.1	6113.4
29596	7.2716	2.5455	0.1	6345.9
29597	7.1795	2.8182	0.1	6199.5
29598	7.2716	2.7273	0.1	6462.9
29599	7.1795	3.	0.1	6228.
29600	7.2716	2.9091	0.1	6518.1
29601	7.1795	3.1818	0.1	6199.5
29602	7.2716	3.0909	0.1	6518.1
29603	7.1795	3.3636	0.1	6113.4
29604	7.2716	3.2727	0.1	6462.9
29605	7.1795	3.5455	0.1	5970.2
29606	7.2716	3.4545	0.1	6345.9
29607	7.1795	3.7273	0.1	5774.9
29608	7.2716	3.6364	0.1	6161.6
29609	7.1795	3.9091	0.1	5537.1
29610	7.2716	3.8182	0.1	5916.5
29611	7.1795	4.0909	0.1	5264.3
29612	7.2716	4.	0.1	5622.
29613	7.1795	4.2727	0.1	4957.7
29614	7.2716	4.1818	0.1	5283.4
29615	7.1795	4.4545	0.1	4620.3
29616	7.2716	4.3636	0.1	4900.4
29617	7.1795	4.6364	0.1	4263.5
29618	7.2716	4.5455	0.1	4481.7
29619	7.1795	4.8182	0.1	3906.6
29620	7.2716	4.7273	0.1	4056.7
29621	7.1795	5.	0.1	3569.6
29622	7.2716	4.9091	0.1	3652.2
29623	7.1795	5.1818	0.1	3268.5
29624	7.2716	5.0909	0.1	3287.2
29625	7.1795	5.3636	0.1	3013.8
29626	7.2716	5.2727	0.1	2973.9
29627	7.1795	5.5455	0.1	2811.7
29628	7.2716	5.4545	0.1	2720.
29629	7.1795	5.7273	0.1	2665.9
29630	7.2716	5.6364	0.1	2529.8
29631	7.2716	5.8182	0.1	2407.9
29632	7.1795	5.9091	0.1	2543.6
29633	7.3636	0.27273	0.1	2274.2
29634	7.4557	0.18182	0.1	1987.
29635	7.3636	9.0909e-002	0.1	2135.2
29636	7.3636	0.45455	0.1	2443.7
29637	7.4557	0.36364	0.1	2123.8
29638	7.3636	0.63636	0.1	2691.2
29639	7.4557	0.54545	0.1	2355.9
29640	7.3636	0.81818	0.1	3009.1
29641	7.4557	0.72727	0.1	2670.7
29642	7.3636	1.	0.1	3390.4
29643	7.4557	0.90909	0.1	3060.4
29644	7.3636	1.1818	0.1	3825.
29645	7.4557	1.0909	0.1	3519.2
29646	7.3636	1.3636	0.1	4296.6
29647	7.4557	1.2727	0.1	4040.7
29648	7.3636	1.5455	0.1	4779.1
29649	7.4557	1.4545	0.1	4612.
29650	7.3636	1.7273	0.1	5237.
29651	7.4557	1.6364	0.1	5191.7
29652	7.3636	1.9091	0.1	5646.5
29653	7.4557	1.8182	0.1	5726.9
29654	7.3636	2.0909	0.1	6003.2
29655	7.4557	2.	0.1	6182.7
29656	7.3636	2.2727	0.1	6302.4
29657	7.4557	2.1818	0.1	6555.2
29658	7.3636	2.4545	0.1	6534.1
29659	7.4557	2.3636	0.1	6846.8
29660	7.3636	2.6364	0.1	6690.6
29661	7.4557	2.5455	0.1	7027.3
29662	7.3636	2.8182	0.1	6776.
29663	7.4557	2.7273	0.1	7118.8
29664	7.3636	3.	0.1	6802.5
29665	7.4557	2.9091	0.1	7154.5
29666	7.3636	3.1818	0.1	6776.
29667	7.4557	3.0909	0.1	7154.5
29668	7.3636	3.3636	0.1	6690.6
29669	7.4557	3.2727	0.1	7118.8
29670	7.3636	3.5455	0.1	6534.1
29671	7.4557	3.4545	0.1	7027.3
29672	7.3636	3.7273	0.1	6302.4
29673	7.4557	3.6364	0.1	6846.8
29674	7.3636	3.9091	0.1	6003.2
29675	7.4557	3.8182	0.1	6555.2
29676	7.3636	4.0909	0.1	5646.5
29677	7.4557	4.	0.1	6182.7
29678	7.3636	4.2727	0.1	5237.
29679	7.4557	4.1818	0.1	5726.9
29680	7.3636	4.4545	0.1	4779.1
29681	7.4557	4.3636	0.1	5191.7
29682	7.3636	4.6364	0.1	4296.6
29683	7.4557	4.5455	0.1	4612.
29684	7.3636	4.8182	0.1	3825.
29685	7.4557	4.7273	0.1	4040.7
29686	7.3636	5.	0.1	3390.4
29687	7.4557	4.9091	0.1	3519.2
29688	7.3636	5.1818	0.1	3009.1
29689	7.4557	5.0909	0.1	3060.4
29690	7.3636	5.3636	0.1	2691.2
29691	7.4557	5.2727	0.1	2670.7
29692	7.3636	5.5455	0.1	2443.7
29693	7.4557	5.4545	0.1	2355.9
29694	7.3636	5.7273	0.1	2274.2
29695	7.4557	5.6364	0.1	2123.8
29696	7.4557	5.8182	0.1	1987.
29697	7.3636	5.9091	0.1	2135.2
29698	7.5477	0.27273	0.1	1840.8
29699	7.6398	0.18182	0.1	1524.1
29700	7.5477	9.0909e-002	0.1	1679.5
29701	7.5477	0.45455	0.1	2046.9
29702	7.6398	0.36364	0.1	1695.2
29703	7.5477	0.63636	0.1	2355.7
29704	7.6398	0.54545	0.1	1994.
29705	7.5477	0.81818	0.1	2750.5
29706	7.6398	0.72727	0.1	2387.1
29707	7.5477	1.	0.1	3224.
29708	7.6398	0.90909	0.1	2862.7
29709	7.5477	1.1818	0.1	3773.6
29710	7.6398	1.0909	0.1	3422.3
29711	7.5477	1.3636	0.1	4394.4
29712	7.6398	1.2727	0.1	4077.3
29713	7.5477	1.5455	0.1	5056.2
29714	7.6398	1.4545	0.1	4834.
29715	7.5477	1.7273	0.1	5699.1
29716	7.6398	1.6364	0.1	5688.4
29717	7.5477	1.9091	0.1	6268.8
29718	7.6398	1.8182	0.1	6535.8
29719	7.5477	2.0909	0.1	6733.6
29720	7.6398	2.	0.1	7161.
29721	7.5477	2.2727	0.1	7094.5
29722	7.6398	2.1818	0.1	7633.
29723	7.5477	2.4545	0.1	7331.9
29724	7.6398	2.3636	0.1	7871.7
29725	7.5477	2.6364	0.1	7446.9
29726	7.6398	2.5455	0.1	7931.
29727	7.5477	2.8182	0.1	7489.1
29728	7.6398	2.7273	0.1	7907.4
29729	7.5477	3.	0.1	7498.4
29730	7.6398	2.9091	0.1	7881.3
29731	7.5477	3.1818	0.1	7489.1
29732	7.6398	3.0909	0.1	7881.3
29733	7.5477	3.3636	0.1	7446.9
29734	7.6398	3.2727	0.1	7907.4
29735	7.5477	3.5455	0.1	7331.9
29736	7.6398	3.4545	0.1	7931.
29737	7.5477	3.7273	0.1	7094.5
29738	7.6398	3.6364	0.1	7871.7
29739	7.5477	3.9091	0.1	6733.6
29740	7.6398	3.8182	0.1	7633.
29741	7.5477	4.0909	0.1	6268.8
29742	7.6398	4.	0.1	7161.
29743	7.5477	4.2727	0.1	5699.1
29744	7.6398	4.1818	0.1	6535.8
29745	7.5477	4.4545	0.1	5056.2
29746	7.6398	4.3636	0.1	5688.4
29747	7.5477	4.6364	0.1	4394.4
29748	7.6398	4.5455	0.1	4834.
29749	7.5477	4.8182	0.1	3773.6
29750	7.6398	4.7273	0.1	4077.3
29751	7.5477	5.	0.1	3224.
29752	7.6398	4.9091	0.1	3422.3
29753	7.5477	5.1818	0.1	2750.5
29754	7.6398	5.0909	0.1	2862.7
29755	7.5477	5.3636	0.1	2355.7
29756	7.6398	5.2727	0.1	2387.1
29757	7.5477	5.5455	0.1	2046.9
29758	7.6398	5.4545	0.1	1994.
29759	7.5477	5.7273	0.1	1840.8
29760	7.6398	5.6364	0.1	1695.2
29761	7.6398	5.8182	0.1	1524.1
29762	7.5477	5.9091	0.1	1679.5
29763	7.7318	0.27273	0.1	1388.4
29764	7.8239	0.18182	0.1	1046.3
29765	7.7318	9.0909e-002	0.1	1181.8
29766	7.7318	0.45455	0.1	1667.7
29767	7.8239	0.36364	0.1	1330.9
29768	7.7318	0.63636	0.1	2064.2
29769	7.8239	0.54545	0.1	1749.5
29770	7.7318	0.81818	0.1	2547.1
29771	7.8239	0.72727	0.1	2246.4
29772	7.7318	1.	0.1	3116.1
29773	7.8239	0.90909	0.1	2819.5
29774	7.7318	1.1818	0.1	3788.6
29775	7.8239	1.0909	0.1	3487.9
29776	7.7318	1.3636	0.1	4585.5
29777	7.8239	1.2727	0.1	4290.1
29778	7.7318	1.5455	0.1	5527.6
29779	7.8239	1.4545	0.1	5282.5
29780	7.7318	1.7273	0.1	6564.2
29781	7.8239	1.6364	0.1	6572.6
29782	7.7318	1.9091	0.1	7420.7
29783	7.8239	1.8182	0.1	8323.9
29784	7.7318	2.0909	0.1	8044.8
29785	7.8239	2.	0.1	9614.8
29786	7.7318	2.2727	0.1	8390.3
29787	7.8239	2.1818	0.1	9643.8
29788	7.7318	2.4545	0.1	8453.6
29789	7.8239	2.3636	0.1	9386.8
29790	7.7318	2.6364	0.1	8379.1
29791	7.8239	2.5455	0.1	8998.2
29792	7.7318	2.8182	0.1	8289.9
29793	7.8239	2.7273	0.1	8729.7
29794	7.7318	3.	0.1	8255.3
29795	7.8239	2.9091	0.1	8593.6
29796	7.7318	3.1818	0.1	8289.9
29797	7.8239	3.0909	0.1	8593.6
29798	7.7318	3.3636	0.1	8379.1
29799	7.8239	3.2727	0.1	8729.7
29800	7.7318	3.5455	0.1	8453.6
29801	7.8239	3.4545	0.1	8998.2
29802	7.7318	3.7273	0.1	8390.3
29803	7.8239	3.6364	0.1	9386.8
29804	7.7318	3.9091	0.1	8044.8
29805	7.8239	3.8182	0.1	9643.8
29806	7.7318	4.0909	0.1	7420.7
29807	7.8239	4.	0.1	9614.8
29808	7.7318	4.2727	0.1	6564.2
29809	7.8239	4.1818	0.1	8323.9
29810	7.7318	4.4545	0.1	5527.6
29811	7.8239	4.3636	0.1	6572.6
29812	7.7318	4.6364	0.1	4585.5
29813	7.8239	4.5455	0.1	5282.5
29814	7.7318	4.8182	0.1	3788.6
29815	7.8239	4.7273	0.1	4290.1
29816	7.7318	5.	0.1	3116.1
29817	7.8239	4.9091	0.1	3487.9
29818	7.7318	5.1818	0.1	2547.1
29819	7.8239	5.0909	0.1	2819.5
29820	7.7318	5.3636	0.1	2064.2
29821	7.8239	5.2727	0.1	2246.4
29822	7.7318	5.5455	0.1	1667.7
29823	7.8239	5.4545	0.1	1749.5
29824	7.7318	5.7273	0.1	1388.4
29825	7.8239	5.6364	0.1	1330.9
29826	7.8239	5.8182	0.1	1046.3
29827	7.7318	5.9091	0.1	1181.8
29828	7.9159	0.27273	0.1	1034.2
29829	8.008	0.18182	0.1	585.23
29830	7.9159	9.0909e-002	0.1	665.64
29831	7.9159	0.45455	0.1	1480.2
29832	8.008	0.36364	0.1	962.04
29833	7.9159	0.63636	0.1	2003.9
29834	8.008	0.54545	0.1	1376.6
29835	7.9159	0.81818	0.1	2594.2
29836	8.008	0.72727	0.1	1827.
29837	7.9159	1.	0.1	3273.8
29838	8.008	0.90909	0.1	2331.7
29839	7.9159	1.1818	0.1	4086.6
29840	8.008	1.0909	0.1	2920.
29841	7.9159	1.3636	0.1	5109.6
29842	8.008	1.2727	0.1	3640.4
29843	7.9159	1.5455	0.1	6506.6
29844	8.008	1.4545	0.1	4591.9
29845	7.9159	1.7273	0.1	8488.9
29846	8.008	1.6364	0.1	5865.6
29847	7.9159	1.9091	0.1	10484
29848	8.008	1.8182	0.1	8404.
29849	7.9159	2.0909	0.1	11069
29850	8.008	2.	0.1	16380
29851	7.9159	2.2727	0.1	10592
29852	8.008	2.1818	0.1	12721
29853	7.9159	2.4545	0.1	9914.1
29854	8.008	2.3636	0.1	10957
29855	7.9159	2.6364	0.1	9340.5
29856	8.008	2.5455	0.1	9925.3
29857	7.9159	2.8182	0.1	9026.9
29858	8.008	2.7273	0.1	9363.
29859	7.9159	3.	0.1	8925.6
29860	8.008	2.9091	0.1	9111.6
29861	7.9159	3.1818	0.1	9026.9
29862	8.008	3.0909	0.1	9111.6
29863	7.9159	3.3636	0.1	9340.5
29864	8.008	3.2727	0.1	9363.
29865	7.9159	3.5455	0.1	9914.1
29866	8.008	3.4545	0.1	9925.3
29867	7.9159	3.7273	0.1	10592
29868	8.008	3.6364	0.1	10957
29869	7.9159	3.9091	0.1	11069
29870	8.008	3.8182	0.1	12721
29871	7.9159	4.0909	0.1	10484
29872	8.008	4.	0.1	16380
29873	7.9159	4.2727	0.1	8488.9
29874	8.008	4.1818	0.1	8404.
29875	7.9159	4.4545	0.1	6506.6
29876	8.008	4.3636	0.1	5865.6
29877	7.9159	4.6364	0.1	5109.6
29878	8.008	4.5455	0.1	4591.9
29879	7.9159	4.8182	0.1	4086.6
29880	8.008	4.7273	0.1	3640.4
29881	7.9159	5.	0.1	3273.8
29882	8.008	4.9091	0.1	2920.
29883	7.9159	5.1818	0.1	2594.2
29884	8.008	5.0909	0.1	2331.7
29885	7.9159	5.3636	0.1	2003.9
29886	8.008	5.2727	0.1	1827.
29887	7.9159	5.5455	0.1	1480.2
29888	8.008	5.4545	0.1	1376.6
29889	7.9159	5.7273	0.1	1034.2
29890	8.008	5.6364	0.1	962.04
29891	8.008	5.8182	0.1	585.23
29892	7.9159	5.9091	0.1	665.64
29893	8.2667	3.7273	0.1	13113
29894	8.1833	3.8182	0.1	14481
29895	8.2667	3.9091	0.1	17386
29896	8.2667	3.5455	0.1	10946
29897	8.1833	3.6364	0.1	11609
29898	8.2667	3.3636	0.1	9898.3
29899	8.1833	3.4545	0.1	10271
29900	8.2667	3.1818	0.1	9387.9
29901	8.1833	3.2727	0.1	9567.5
29902	8.2667	3.	0.1	9234.9
29903	8.1833	3.0909	0.1	9265.4
29904	8.2667	2.8182	0.1	9387.9
29905	8.1833	2.9091	0.1	9265.4
29906	8.2667	2.6364	0.1	9898.3
29907	8.1833	2.7273	0.1	9567.5
29908	8.2667	2.4545	0.1	10946
29909	8.1833	2.5455	0.1	10271
29910	8.2667	2.2727	0.1	13113
29911	8.1833	2.3636	0.1	11609
29912	8.1833	2.1818	0.1	14481
29913	8.2667	2.0909	0.1	17386
29914	8.1	3.7273	0.1	13227
29915	8.1	3.9091	0.1	17826
29916	8.1	3.5455	0.1	11007
29917	8.1	3.3636	0.1	9959.5
29918	8.1	3.1818	0.1	9448.7
29919	8.1	3.	0.1	9295.8
29920	8.1	2.8182	0.1	9448.7
29921	8.1	2.6364	0.1	9959.5
29922	8.1	2.4545	0.1	11007
29923	8.1	2.2727	0.1	13227
29924	8.1	2.0909	0.1	17826
29925	8.2667	5.7273	0.1	568.44
29926	8.2667	5.9091	0.1	205.07
29927	8.2667	5.8182	5.e-002	145.77
29928	8.2667	5.5455	0.1	894.64
29929	8.2667	5.6364	5.e-002	311.28
29930	8.2667	5.3636	0.1	1221.4
29931	8.2667	5.4545	5.e-002	474.92
29932	8.2667	5.1818	0.1	1578.
29933	8.2667	5.2727	5.e-002	651.92
29934	8.2667	5.	0.1	1989.4
29935	8.2667	5.0909	5.e-002	851.72
29936	8.2667	4.8182	0.1	2491.5
29937	8.2667	4.9091	5.e-002	1088.1
29938	8.2667	4.6364	0.1	3159.2
29939	8.2667	4.7273	5.e-002	1384.5
29940	8.2667	4.4545	0.1	4033.1
29941	8.2667	4.5455	5.e-002	1781.8
29942	8.2667	4.2727	0.1	6167.4
29943	8.2667	4.3636	5.e-002	2410.5
29944	8.2667	4.0909	0.1	12518
29945	8.2667	4.1818	5.e-002	4017.6
29946	8.1833	4.	0.1	18153
29947	8.2667	4.	5.e-002	3431.2
29948	8.1	4.0909	0.1	13165
29949	8.1	4.	5.e-002	3941.4
29950	8.1	4.2727	0.1	6818.4
29951	8.1	4.1818	5.e-002	4463.9
29952	8.1	4.4545	0.1	4490.5
29953	8.1	4.3636	5.e-002	2758.5
29954	8.1	4.6364	0.1	3535.2
29955	8.1	4.5455	5.e-002	2061.1
29956	8.1	4.8182	0.1	2804.1
29957	8.1	4.7273	5.e-002	1620.3
29958	8.1	5.	0.1	2248.
29959	8.1	4.9091	5.e-002	1285.
29960	8.1	5.1818	0.1	1787.9
29961	8.1	5.0909	5.e-002	1013.
29962	8.1	5.3636	0.1	1385.9
29963	8.1	5.2727	5.e-002	779.38
29964	8.1	5.5455	0.1	1016.
29965	8.1	5.4545	5.e-002	569.73
29966	8.1	5.7273	0.1	646.44
29967	8.1	5.6364	5.e-002	374.2
29968	8.1	5.9091	0.1	234.07
29969	8.1	5.8182	5.e-002	176.61
29970	8.2667	0.27273	0.1	568.44
29971	8.2667	9.0909e-002	0.1	205.07
29972	8.2667	0.18182	5.e-002	145.77
29973	8.2667	0.45455	0.1	894.64
29974	8.2667	0.36364	5.e-002	311.28
29975	8.2667	0.63636	0.1	1221.4
29976	8.2667	0.54545	5.e-002	474.92
29977	8.2667	0.81818	0.1	1578.
29978	8.2667	0.72727	5.e-002	651.92
29979	8.2667	1.	0.1	1989.4
29980	8.2667	0.90909	5.e-002	851.72
29981	8.2667	1.1818	0.1	2491.5
29982	8.2667	1.0909	5.e-002	1088.1
29983	8.2667	1.3636	0.1	3159.2
29984	8.2667	1.2727	5.e-002	1384.5
29985	8.2667	1.5455	0.1	4033.1
29986	8.2667	1.4545	5.e-002	1781.8
29987	8.2667	1.7273	0.1	6167.4
29988	8.2667	1.6364	5.e-002	2410.5
29989	8.2667	1.9091	0.1	12518
29990	8.2667	1.8182	5.e-002	4017.6
29991	8.1833	2.	0.1	18153
29992	8.2667	2.	5.e-002	3431.2
29993	8.1	1.9091	0.1	13165
29994	8.1	2.	5.e-002	3941.4
29995	8.1	1.7273	0.1	6818.4
29996	8.1	1.8182	5.e-002	4463.9
29997	8.1	1.5455	0.1	4490.5
29998	8.1	1.6364	5.e-002	2758.5
29999	8.1	1.3636	0.1	3535.2
30000	8.1	1.4545	5.e-002	2061.1
30001	8.1	1.1818	0.1	2804.1
30002	8.1	1.2727	5.e-002	1620.3
30003	8.1	1.	0.1	2248.
30004	8.1	1.0909	5.e-002	1285.
30005	8.1	0.81818	0.1	1787.9
30006	8.1	0.90909	5.e-002	1013.
30007	8.1	0.63636	0.1	1385.9
30008	8.1	0.72727	5.e-002	779.38
30009	8.1	0.45455	0.1	1016.
30010	8.1	0.54545	5.e-002	569.73
30011	8.1	0.27273	0.1	646.44
30012	8.1	0.36364	5.e-002	374.2
30013	8.1	9.0909e-002	0.1	234.07
30014	8.1	0.18182	5.e-002	176.61
30015	8.3581	6.	0.1	247.31
30016	8.2667	6.	5.e-002	45.366
30017	8.5411	6.	0.1	707.64
30018	8.4496	6.	5.e-002	34.886
30019	8.724	6.	0.1	1135.8
30020	8.6326	6.	5.e-002	90.252
30021	8.907	6.	0.1	1510.1
30022	8.8155	6.	5.e-002	118.13
30023	9.0899	6.	0.1	1834.8
30024	8.9985	6.	5.e-002	132.53
30025	9.2729	6.	0.1	2109.8
30026	9.1814	6.	5.e-002	137.3
30027	9.4558	6.	0.1	2336.8
30028	9.3643	6.	5.e-002	136.02
30029	9.6388	6.	0.1	2519.3
30030	9.5473	6.	5.e-002	131.18
30031	9.8217	6.	0.1	2661.8
30032	9.7302	6.	5.e-002	124.62
30033	10.005	6.	0.1	2769.6
30034	9.9132	6.	5.e-002	117.57
30035	10.188	6.	0.1	2847.7
30036	10.096	6.	5.e-002	110.83
30037	10.371	6.	0.1	2900.9
30038	10.279	6.	5.e-002	104.86
30039	10.553	6.	0.1	2933.5
30040	10.462	6.	5.e-002	99.878
30041	10.736	6.	0.1	2949.4
30042	10.645	6.	5.e-002	95.954
30043	10.919	6.	0.1	2951.7
30044	10.828	6.	5.e-002	93.052
30045	11.102	6.	0.1	2943.
30046	11.011	6.	5.e-002	91.085
30047	11.285	6.	0.1	2925.5
30048	11.194	6.	5.e-002	89.935
30049	11.468	6.	0.1	2901.1
30050	11.377	6.	5.e-002	89.475
30051	11.651	6.	0.1	2871.1
30052	11.56	6.	5.e-002	89.582
30053	11.834	6.	0.1	2836.9
30054	11.743	6.	5.e-002	90.141
30055	12.017	6.	0.1	2799.2
30056	11.926	6.	5.e-002	91.048
30057	12.2	6.	0.1	2759.
30058	12.109	6.	5.e-002	92.214
30059	12.383	6.	0.1	2716.8
30060	12.291	6.	5.e-002	93.56
30061	12.566	6.	0.1	2673.
30062	12.474	6.	5.e-002	95.025
30063	12.749	6.	0.1	2628.1
30064	12.657	6.	5.e-002	96.554
30065	12.932	6.	0.1	2582.4
30066	12.84	6.	5.e-002	98.105
30067	13.115	6.	0.1	2536.
30068	13.023	6.	5.e-002	99.644
30069	13.298	6.	0.1	2489.3
30070	13.206	6.	5.e-002	101.14
30071	13.481	6.	0.1	2442.2
30072	13.389	6.	5.e-002	102.59
30073	13.664	6.	0.1	2395.1
30074	13.572	6.	5.e-002	103.95
30075	13.847	6.	0.1	2347.8
30076	13.755	6.	5.e-002	105.23
30077	14.029	6.	0.1	2300.6
30078	13.938	6.	5.e-002	106.42
30079	14.212	6.	0.1	2253.4
30080	14.121	6.	5.e-002	107.52
30081	14.395	6.	0.1	2206.3
30082	14.304	6.	5.e-002	108.51
30083	14.578	6.	0.1	2159.3
30084	14.487	6.	5.e-002	109.4
30085	14.761	6.	0.1	2112.5
30086	14.67	6.	5.e-002	110.2
30087	14.944	6.	0.1	2065.9
30088	14.853	6.	5.e-002	110.89
30089	15.127	6.	0.1	2019.5
30090	15.036	6.	5.e-002	111.49
30091	15.31	6.	0.1	1973.2
30092	15.219	6.	5.e-002	112.
30093	15.493	6.	0.1	1927.1
30094	15.402	6.	5.e-002	112.41
30095	15.676	6.	0.1	1881.3
30096	15.584	6.	5.e-002	112.74
30097	15.859	6.	0.1	1835.6
30098	15.767	6.	5.e-002	112.98
30099	16.042	6.	0.1	1790.2
30100	15.95	6.	5.e-002	113.14
30101	16.225	6.	0.1	1745.
30102	16.133	6.	5.e-002	113.22
30103	16.408	6.	0.1	1700.
30104	16.316	6.	5.e-002	113.23
30105	16.591	6.	0.1	1655.1
30106	16.499	6.	5.e-002	113.16
30107	16.774	6.	0.1	1610.5
30108	16.682	6.	5.e-002	113.02
30109	16.957	6.	0.1	1566.1
30110	16.865	6.	5.e-002	112.81
30111	17.14	6.	0.1	1521.9
30112	17.048	6.	5.e-002	112.54
30113	17.322	6.	0.1	1478.
30114	17.231	6.	5.e-002	112.19
30115	17.505	6.	0.1	1434.2
30116	17.414	6.	5.e-002	111.79
30117	17.688	6.	0.1	1390.6
30118	17.597	6.	5.e-002	111.31
30119	17.871	6.	0.1	1347.2
30120	17.78	6.	5.e-002	110.78
30121	18.054	6.	0.1	1304.
30122	17.963	6.	5.e-002	110.18
30123	18.237	6.	0.1	1261.
30124	18.146	6.	5.e-002	109.51
30125	18.42	6.	0.1	1218.2
30126	18.329	6.	5.e-002	108.78
30127	18.603	6.	0.1	1175.5
30128	18.512	6.	5.e-002	107.98
30129	18.786	6.	0.1	1133.1
30130	18.695	6.	5.e-002	107.11
30131	18.969	6.	0.1	1090.8
30132	18.878	6.	5.e-002	106.17
30133	19.152	6.	0.1	1048.7
30134	19.06	6.	5.e-002	105.16
30135	19.335	6.	0.1	1006.8
30136	19.243	6.	5.e-002	104.07
30137	19.518	6.	0.1	965.08
30138	19.426	6.	5.e-002	102.9
30139	19.701	6.	0.1	923.51
30140	19.609	6.	5.e-002	101.65
30141	19.884	6.	0.1	882.12
30142	19.792	6.	5.e-002	100.31
30143	20.067	6.	0.1	840.88
30144	19.975	6.	5.e-002	98.873
30145	20.25	6.	0.1	799.81
30146	20.158	6.	5.e-002	97.34
30147	20.433	6.	0.1	758.89
30148	20.341	6.	5.e-002	95.701
30149	20.616	6.	0.1	718.14
30150	20.524	6.	5.e-002	93.95
30151	20.798	6.	0.1	677.53
30152	20.707	6.	5.e-002	92.077
30153	20.981	6.	0.1	637.08
30154	20.89	6.	5.e-002	90.074
30155	21.164	6.	0.1	596.78
30156	21.073	6.	5.e-002	87.931
30157	21.347	6.	0.1	556.64
30158	21.256	6.	5.e-002	85.636
30159	21.53	6.	0.1	516.64
30160	21.439	6.	5.e-002	83.176
30161	21.713	6.	0.1	476.8
30162	21.622	6.	5.e-002	80.535
30163	21.896	6.	0.1	437.13
30164	21.805	6.	5.e-002	77.698
30165	22.079	6.	0.1	397.62
30166	21.988	6.	5.e-002	74.644
30167	22.262	6.	0.1	358.3
30168	22.171	6.	5.e-002	71.348
30169	22.445	6.	0.1	319.18
30170	22.353	6.	5.e-002	67.783
30171	22.628	6.	0.1	280.29
30172	22.536	6.	5.e-002	63.914
30173	22.811	6.	0.1	241.68
30174	22.719	6.	5.e-002	59.695
30175	22.994	6.	0.1	203.41
30176	22.902	6.	5.e-002	55.071
30177	23.177	6.	0.1	165.57
30178	23.085	6.	5.e-002	49.961
30179	23.36	6.	0.1	128.32
30180	23.268	6.	5.e-002	44.251
30181	23.543	6.	0.1	91.966
30182	23.451	6.	5.e-002	37.762
30183	23.726	6.	0.1	56.786
30184	23.634	6.	5.e-002	30.151
30185	23.909	6.	0.1	23.813
30186	23.817	6.	5.e-002	20.332
30187	24.	5.9091	0.1	23.118
30188	24.	6.	5.e-002	7.844
30189	24.	5.7273	0.1	53.062
30190	24.	5.8182	5.e-002	6.986
30191	24.	5.5455	0.1	77.201
30192	24.	5.6364	5.e-002	7.9969
30193	24.	5.3636	0.1	96.399
30194	24.	5.4545	5.e-002	8.8738
30195	24.	5.1818	0.1	112.55
30196	24.	5.2727	5.e-002	9.3461
30197	24.	5.	0.1	126.38
30198	24.	5.0909	5.e-002	9.5586
30199	24.	4.8182	0.1	138.33
30200	24.	4.9091	5.e-002	9.592
30201	24.	4.6364	0.1	148.67
30202	24.	4.7273	5.e-002	9.5007
30203	24.	4.4545	0.1	157.59
30204	24.	4.5455	5.e-002	9.3244
30205	24.	4.2727	0.1	165.24
30206	24.	4.3636	5.e-002	9.0939
30207	24.	4.0909	0.1	171.7
30208	24.	4.1818	5.e-002	8.8344
30209	24.	3.9091	0.1	177.07
30210	24.	4.	5.e-002	8.5673
30211	24.	3.7273	0.1	181.39
30212	24.	3.8182	5.e-002	8.3115
30213	24.	3.5455	0.1	184.7
30214	24.	3.6364	5.e-002	8.0837
30215	24.	3.3636	0.1	187.05
30216	24.	3.4545	5.e-002	7.8986
30217	24.	3.1818	0.1	188.45
30218	24.	3.2727	5.e-002	7.7679
30219	24.	3.	0.1	188.92
30220	24.	3.0909	5.e-002	7.7004
30221	24.	2.8182	0.1	188.45
30222	24.	2.9091	5.e-002	7.7004
30223	24.	2.6364	0.1	187.05
30224	24.	2.7273	5.e-002	7.7679
30225	24.	2.4545	0.1	184.7
30226	24.	2.5455	5.e-002	7.8986
30227	24.	2.2727	0.1	181.39
30228	24.	2.3636	5.e-002	8.0837
30229	24.	2.0909	0.1	177.07
30230	24.	2.1818	5.e-002	8.3115
30231	24.	1.9091	0.1	171.7
30232	24.	2.	5.e-002	8.5673
30233	24.	1.7273	0.1	165.24
30234	24.	1.8182	5.e-002	8.8344
30235	24.	1.5455	0.1	157.59
30236	24.	1.6364	5.e-002	9.0939
30237	24.	1.3636	0.1	148.67
30238	24.	1.4545	5.e-002	9.3244
30239	24.	1.1818	0.1	138.33
30240	24.	1.2727	5.e-002	9.5007
30241	24.	1.	0.1	126.38
30242	24.	1.0909	5.e-002	9.592
30243	24.	0.81818	0.1	112.55
30244	24.	0.90909	5.e-002	9.5586
30245	24.	0.63636	0.1	96.399
30246	24.	0.72727	5.e-002	9.3461
30247	24.	0.45455	0.1	77.201
30248	24.	0.54545	5.e-002	8.8738
30249	24.	0.27273	0.1	53.062
30250	24.	0.36364	5.e-002	7.9969
30251	24.	9.0909e-002	0.1	23.118
30252	24.	0.18182	5.e-002	6.986
30253	2.3842e-015	0.27273	0.1	1833.
30254	7.9472e-016	9.0909e-002	0.1	1397.1
30255	1.6109e-015	0.18182	5.e-002	165.72
30256	3.9736e-015	0.45455	0.1	2625.
30257	3.2219e-015	0.36364	5.e-002	86.136
30258	5.563e-015	0.63636	0.1	3049.9
30259	4.8328e-015	0.54545	5.e-002	77.83
30260	7.1525e-015	0.81818	0.1	3324.2
30261	6.4438e-015	0.72727	5.e-002	68.419
30262	8.7419e-015	1.	0.1	3512.3
30263	8.0547e-015	0.90909	5.e-002	58.188
30264	1.0331e-014	1.1818	0.1	3648.5
30265	9.6657e-015	1.0909	5.e-002	49.378
30266	1.1921e-014	1.3636	0.1	3750.3
30267	1.1277e-014	1.2727	5.e-002	42.23
30268	1.351e-014	1.5455	0.1	3828.
30269	1.2888e-014	1.4545	5.e-002	36.419
30270	1.51e-014	1.7273	0.1	3888.
30271	1.4498e-014	1.6364	5.e-002	31.708
30272	1.6689e-014	1.9091	0.1	3934.4
30273	1.6109e-014	1.8182	5.e-002	27.906
30274	1.8279e-014	2.0909	0.1	3970.1
30275	1.772e-014	2.	5.e-002	24.863
30276	1.9868e-014	2.2727	0.1	3997.3
30277	1.9331e-014	2.1818	5.e-002	22.467
30278	2.1457e-014	2.4545	0.1	4017.1
30279	2.0942e-014	2.3636	5.e-002	20.636
30280	2.3047e-014	2.6364	0.1	4030.7
30281	2.2553e-014	2.5455	5.e-002	19.31
30282	2.4636e-014	2.8182	0.1	4038.6
30283	2.4164e-014	2.7273	5.e-002	18.447
30284	2.6226e-014	3.	0.1	4041.2
30285	2.5775e-014	2.9091	5.e-002	18.022
30286	2.7815e-014	3.1818	0.1	4038.6
30287	2.7386e-014	3.0909	5.e-002	18.022
30288	2.9405e-014	3.3636	0.1	4030.7
30289	2.8997e-014	3.2727	5.e-002	18.447
30290	3.0994e-014	3.5455	0.1	4017.1
30291	3.0608e-014	3.4545	5.e-002	19.31
30292	3.2583e-014	3.7273	0.1	3997.3
30293	3.2219e-014	3.6364	5.e-002	20.636
30294	3.4173e-014	3.9091	0.1	3970.1
30295	3.383e-014	3.8182	5.e-002	22.467
30296	3.5762e-014	4.0909	0.1	3934.4
30297	3.5441e-014	4.	5.e-002	24.863
30298	3.7352e-014	4.2727	0.1	3888.
30299	3.7052e-014	4.1818	5.e-002	27.906
30300	3.8941e-014	4.4545	0.1	3828.
30301	3.8663e-014	4.3636	5.e-002	31.708
30302	4.0531e-014	4.6364	0.1	3750.3
30303	4.0274e-014	4.5455	5.e-002	36.419
30304	4.212e-014	4.8182	0.1	3648.5
30305	4.1885e-014	4.7273	5.e-002	42.23
30306	4.371e-014	5.	0.1	3512.3
30307	4.3495e-014	4.9091	5.e-002	49.378
30308	4.5299e-014	5.1818	0.1	3324.2
30309	4.5106e-014	5.0909	5.e-002	58.188
30310	4.6888e-014	5.3636	0.1	3049.9
30311	4.6717e-014	5.2727	5.e-002	68.419
30312	4.8478e-014	5.5455	0.1	2625.
30313	4.8328e-014	5.4545	5.e-002	77.829
30314	5.0067e-014	5.7273	0.1	1833.
30315	4.9939e-014	5.6364	5.e-002	86.136
30316	5.1657e-014	5.9091	0.1	1397.1
30317	5.155e-014	5.8182	5.e-002	165.72
30318	23.909	0.	0.1	23.812
30319	24.	0.	5.e-002	7.844
30320	23.726	0.	0.1	56.786
30321	23.817	0.	5.e-002	20.332
30322	23.543	0.	0.1	91.966
30323	23.634	0.	5.e-002	30.151
30324	23.36	0.	0.1	128.32
30325	23.451	0.	5.e-002	37.762
30326	23.177	0.	0.1	165.57
30327	23.268	0.	5.e-002	44.251
30328	22.994	0.	0.1	203.41
30329	23.085	0.	5.e-002	49.961
30330	22.811	0.	0.1	241.68
30331	22.902	0.	5.e-002	55.071
30332	22.628	0.	0.1	280.29
30333	22.719	0.	5.e-002	59.695
30334	22.445	0.	0.1	319.18
30335	22.536	0.	5.e-002	63.914
30336	22.262	0.	0.1	358.3
30337	22.353	0.	5.e-002	67.783
30338	22.079	0.	0.1	397.62
30339	22.171	0.	5.e-002	71.348
30340	21.896	0.	0.1	437.13
30341	21.988	0.	5.e-002	74.644
30342	21.713	0.	0.1	476.8
30343	21.805	0.	5.e-002	77.698
30344	21.53	0.	0.1	516.64
30345	21.622	0.	5.e-002	80.536
30346	21.347	0.	0.1	556.64
30347	21.439	0.	5.e-002	83.176
30348	21.164	0.	0.1	596.78
30349	21.256	0.	5.e-002	85.636
30350	20.981	0.	0.1	637.08
30351	21.073	0.	5.e-002	87.931
30352	20.798	0.	0.1	677.53
30353	20.89	0.	5.e-002	90.074
30354	20.616	0.	0.1	718.14
30355	20.707	0.	5.e-002	92.077
30356	20.433	0.	0.1	758.89
30357	20.524	0.	5.e-002	93.95
30358	20.25	0.	0.1	799.81
30359	20.341	0.	5.e-002	95.701
30360	20.067	0.	0.1	840.88
30361	20.158	0.	5.e-002	97.34
30362	19.884	0.	0.1	882.11
30363	19.975	0.	5.e-002	98.873
30364	19.701	0.	0.1	923.51
30365	19.792	0.	5.e-002	100.31
30366	19.518	0.	0.1	965.08
30367	19.609	0.	5.e-002	101.65
30368	19.335	0.	0.1	1006.8
30369	19.426	0.	5.e-002	102.9
30370	19.152	0.	0.1	1048.7
30371	19.243	0.	5.e-002	104.07
30372	18.969	0.	0.1	1090.8
30373	19.06	0.	5.e-002	105.16
30374	18.786	0.	0.1	1133.1
30375	18.878	0.	5.e-002	106.17
30376	18.603	0.	0.1	1175.5
30377	18.695	0.	5.e-002	107.11
30378	18.42	0.	0.1	1218.2
30379	18.512	0.	5.e-002	107.98
30380	18.237	0.	0.1	1261.
30381	18.329	0.	5.e-002	108.78
30382	18.054	0.	0.1	1304.
30383	18.146	0.	5.e-002	109.51
30384	17.871	0.	0.1	1347.2
30385	17.963	0.	5.e-002	110.18
30386	17.688	0.	0.1	1390.6
30387	17.78	0.	5.e-002	110.78
30388	17.505	0.	0.1	1434.2
30389	17.597	0.	5.e-002	111.31
30390	17.322	0.	0.1	1478.
30391	17.414	0.	5.e-002	111.79
30392	17.14	0.	0.1	1521.9
30393	17.231	0.	5.e-002	112.19
30394	16.957	0.	0.1	1566.1
30395	17.048	0.	5.e-002	112.54
30396	16.774	0.	0.1	1610.5
30397	16.865	0.	5.e-002	112.81
30398	16.591	0.	0.1	1655.1
30399	16.682	0.	5.e-002	113.02
30400	16.408	0.	0.1	1700.
30401	16.499	0.	5.e-002	113.16
30402	16.225	0.	0.1	1745.
30403	16.316	0.	5.e-002	113.23
30404	16.042	0.	0.1	1790.2
30405	16.133	0.	5.e-002	113.22
30406	15.859	0.	0.1	1835.6
30407	15.95	0.	5.e-002	113.14
30408	15.676	0.	0.1	1881.3
30409	15.767	0.	5.e-002	112.98
30410	15.493	0.	0.1	1927.1
30411	15.584	0.	5.e-002	112.74
30412	15.31	0.	0.1	1973.2
30413	15.402	0.	5.e-002	112.41
30414	15.127	0.	0.1	2019.5
30415	15.219	0.	5.e-002	112.
30416	14.944	0.	0.1	2065.9
30417	15.036	0.	5.e-002	111.49
30418	14.761	0.	0.1	2112.5
30419	14.853	0.	5.e-002	110.89
30420	14.578	0.	0.1	2159.3
30421	14.67	0.	5.e-002	110.2
30422	14.395	0.	0.1	2206.3
30423	14.487	0.	5.e-002	109.4
30424	14.212	0.	0.1	2253.4
30425	14.304	0.	5.e-002	108.51
30426	14.029	0.	0.1	2300.6
30427	14.121	0.	5.e-002	107.52
30428	13.847	0.	0.1	2347.8
30429	13.938	0.	5.e-002	106.42
30430	13.664	0.	0.1	2395.1
30431	13.755	0.	5.e-002	105.23
30432	13.481	0.	0.1	2442.2
30433	13.572	0.	5.e-002	103.95
30434	13.298	0.	0.1	2489.3
30435	13.389	0.	5.e-002	102.59
30436	13.115	0.	0.1	2536.
30437	13.206	0.	5.e-002	101.14
30438	12.932	0.	0.1	2582.4
30439	13.023	0.	5.e-002	99.644
30440	12.749	0.	0.1	2628.1
30441	12.84	0.	5.e-002	98.105
30442	12.566	0.	0.1	2673.
30443	12.657	0.	5.e-002	96.554
30444	12.383	0.	0.1	2716.8
30445	12.474	0.	5.e-002	95.025
30446	12.2	0.	0.1	2759.
30447	12.291	0.	5.e-002	93.561
30448	12.017	0.	0.1	2799.2
30449	12.109	0.	5.e-002	92.214
30450	11.834	0.	0.1	2836.9
30451	11.926	0.	5.e-002	91.048
30452	11.651	0.	0.1	2871.1
30453	11.743	0.	5.e-002	90.141
30454	11.468	0.	0.1	2901.1
30455	11.56	0.	5.e-002	89.583
30456	11.285	0.	0.1	2925.5
30457	11.377	0.	5.e-002	89.475
30458	11.102	0.	0.1	2943.
30459	11.194	0.	5.e-002	89.935
30460	10.919	0.	0.1	2951.7
30461	11.011	0.	5.e-002	91.085
30462	10.736	0.	0.1	2949.4
30463	10.828	0.	5.e-002	93.052
30464	10.553	0.	0.1	2933.5
30465	10.645	0.	5.e-002	95.954
30466	10.371	0.	0.1	2900.9
30467	10.462	0.	5.e-002	99.878
30468	10.188	0.	0.1	2847.7
30469	10.279	0.	5.e-002	104.86
30470	10.005	0.	0.1	2769.6
30471	10.096	0.	5.e-002	110.83
30472	9.8217	0.	0.1	2661.8
30473	9.9132	0.	5.e-002	117.57
30474	9.6388	0.	0.1	2519.3
30475	9.7302	0.	5.e-002	124.62
30476	9.4558	0.	0.1	2336.8
30477	9.5473	0.	5.e-002	131.18
30478	9.2729	0.	0.1	2109.8
30479	9.3643	0.	5.e-002	136.02
30480	9.0899	0.	0.1	1834.8
30481	9.1814	0.	5.e-002	137.3
30482	8.907	0.	0.1	1510.1
30483	8.9985	0.	5.e-002	132.53
30484	8.724	0.	0.1	1135.8
30485	8.8155	0.	5.e-002	118.13
30486	8.5411	0.	0.1	707.64
30487	8.6326	0.	5.e-002	90.252
30488	8.3581	0.	0.1	247.31
30489	8.4496	0.	5.e-002	34.886
30490	8.2667	0.	5.e-002	45.366
30491	8.008	-1.4393e-030	0.1	292.16
30492	8.1	-1.4558e-030	5.e-002	52.655
30493	7.8239	-1.4062e-030	0.1	843.41
30494	7.9159	0.	5.e-002	29.317
30495	7.6398	-1.3731e-030	0.1	1373.7
30496	7.7318	0.	5.e-002	82.473
30497	7.4557	-1.34e-030	0.1	1854.8
30498	7.5477	0.	5.e-002	104.19
30499	7.2716	-1.3069e-030	0.1	2290.5
30500	7.3636	0.	5.e-002	110.82
30501	7.0875	-1.2738e-030	0.1	2679.4
30502	7.1795	0.	5.e-002	107.08
30503	6.9034	-1.2408e-030	0.1	3022.3
30504	6.9955	0.	5.e-002	97.3
30505	6.7193	-1.2077e-030	0.1	3321.8
30506	6.8114	0.	5.e-002	84.472
30507	6.5352	-1.1746e-030	0.1	3581.7
30508	6.6273	0.	5.e-002	70.784
30509	6.3511	-1.1415e-030	0.1	3807.
30510	6.4432	0.	5.e-002	57.725
30511	6.167	-1.1084e-030	0.1	4002.5
30512	6.2591	0.	5.e-002	46.247
30513	5.983	-1.0753e-030	0.1	4173.
30514	6.075	0.	5.e-002	36.907
30515	5.7989	-1.0422e-030	0.1	4322.8
30516	5.8909	0.	5.e-002	29.987
30517	5.6148	-1.0091e-030	0.1	4455.6
30518	5.7068	0.	5.e-002	25.59
30519	5.4307	-9.7606e-031	0.1	4574.6
30520	5.5227	0.	5.e-002	23.717
30521	5.2466	-9.4297e-031	0.1	4682.7
30522	5.3386	0.	5.e-002	24.299
30523	5.0625	-9.0989e-031	0.1	4781.9
30524	5.1545	0.	5.e-002	27.231
30525	4.8784	-8.768e-031	0.1	4874.3
30526	4.9705	0.	5.e-002	32.393
30527	4.6943	-8.4371e-031	0.1	4961.3
30528	4.7864	0.	5.e-002	39.675
30529	4.5102	-8.1063e-031	0.1	5044.2
30530	4.6023	0.	5.e-002	48.992
30531	4.3261	-7.7754e-031	0.1	5123.7
30532	4.4182	0.	5.e-002	60.283
30533	4.142	-7.4445e-031	0.1	5200.9
30534	4.2341	0.	5.e-002	73.513
30535	3.958	-7.1137e-031	0.1	5276.1
30536	4.05	0.	5.e-002	88.67
30537	3.7739	-6.7828e-031	0.1	5349.9
30538	3.8659	0.	5.e-002	105.77
30539	3.5898	-6.4519e-031	0.1	5422.4
30540	3.6818	0.	5.e-002	124.84
30541	3.4057	-6.1211e-031	0.1	5493.9
30542	3.4977	0.	5.e-002	145.96
30543	3.2216	-5.7902e-031	0.1	5564.4
30544	3.3136	0.	5.e-002	169.2
30545	3.0375	-5.4593e-031	0.1	5633.7
30546	3.1295	0.	5.e-002	194.68
30547	2.8534	-5.1285e-031	0.1	5701.5
30548	2.9455	0.	5.e-002	222.52
30549	2.6693	-4.7976e-031	0.1	5767.3
30550	2.7614	0.	5.e-002	252.91
30551	2.4852	-4.4667e-031	0.1	5830.5
30552	2.5773	0.	5.e-002	286.04
30553	2.3011	-4.1359e-031	0.1	5890.
30554	2.3932	0.	5.e-002	322.16
30555	2.117	-3.805e-031	0.1	5944.4
30556	2.2091	0.	5.e-002	361.57
30557	1.933	-3.4741e-031	0.1	5991.8
30558	2.025	0.	5.e-002	404.63
30559	1.7489	-3.1433e-031	0.1	6029.4
30560	1.8409	0.	5.e-002	451.8
30561	1.5648	-2.8124e-031	0.1	6053.4
30562	1.6568	0.	5.e-002	503.68
30563	1.3807	-2.4815e-031	0.1	6058.
30564	1.4727	0.	5.e-002	561.05
30565	1.1966	-2.1506e-031	0.1	6034.9
30566	1.2886	0.	5.e-002	624.93
30567	1.0125	-1.8198e-031	0.1	5970.6
30568	1.1045	0.	5.e-002	696.87
30569	0.82841	-1.4889e-031	0.1	5842.7
30570	0.92045	0.	5.e-002	779.02
30571	0.64432	-1.158e-031	0.1	5609.3
30572	0.73636	0.	5.e-002	875.68
30573	0.46023	-8.2717e-032	0.1	5191.6
30574	0.55227	0.	5.e-002	992.79
30575	0.27614	-4.963e-032	0.1	4336.5
30576	0.36818	0.	5.e-002	1150.8
30577	9.2045e-002	-1.6543e-032	0.1	2564.2
30578	0.18409	0.	5.e-002	1464.8
30579	0.	0.	5.e-002	1940.5
30580	9.2045e-002	6.	0.1	2564.2
30581	5.2451e-014	6.	5.e-002	1940.5
30582	0.27614	6.	0.1	4336.5
30583	0.18409	6.	5.e-002	1464.8
30584	0.46023	6.	0.1	5191.6
30585	0.36818	6.	5.e-002	1150.8
30586	0.64432	6.	0.1	5609.3
30587	0.55227	6.	5.e-002	992.79
30588	0.82841	6.	0.1	5842.7
30589	0.73636	6.	5.e-002	875.68
30590	1.0125	6.	0.1	5970.6
30591	0.92045	6.	5.e-002	779.02
30592	1.1966	6.	0.1	6034.9
30593	1.1045	6.	5.e-002	696.87
30594	1.3807	6.	0.1	6058.
30595	1.2886	6.	5.e-002	624.93
30596	1.5648	6.	0.1	6053.4
30597	1.4727	6.	5.e-002	561.05
30598	1.7489	6.	0.1	6029.4
30599	1.6568	6.	5.e-002	503.68
30600	1.933	6.	0.1	5991.8
30601	1.8409	6.	5.e-002	451.8
30602	2.117	6.	0.1	5944.4
30603	2.025	6.	5.e-002	404.63
30604	2.3011	6.	0.1	5890.
30605	2.2091	6.	5.e-002	361.57
30606	2.4852	6.	0.1	5830.5
30607	2.3932	6.	5.e-002	322.16
30608	2.6693	6.	0.1	5767.3
30609	2.5773	6.	5.e-002	286.04
30610	2.8534	6.	0.1	5701.5
30611	2.7614	6.	5.e-002	252.91
30612	3.0375	6.	0.1	5633.7
30613	2.9455	6.	5.e-002	222.52
30614	3.2216	6.	0.1	5564.4
30615	3.1295	6.	5.e-002	194.68
30616	3.4057	6.	0.1	5493.9
30617	3.3136	6.	5.e-002	169.2
30618	3.5898	6.	0.1	5422.4
30619	3.4977	6.	5.e-002	145.96
30620	3.7739	6.	0.1	5349.9
30621	3.6818	6.	5.e-002	124.84
30622	3.958	6.	0.1	5276.1
30623	3.8659	6.	5.e-002	105.77
30624	4.142	6.	0.1	5200.9
30625	4.05	6.	5.e-002	88.67
30626	4.3261	6.	0.1	5123.7
30627	4.2341	6.	5.e-002	73.513
30628	4.5102	6.	0.1	5044.2
30629	4.4182	6.	5.e-002	60.283
30630	4.6943	6.	0.1	4961.3
30631	4.6023	6.	5.e-002	48.992
30632	4.8784	6.	0.1	4874.3
30633	4.7864	6.	5.e-002	39.675
30634	5.0625	6.	0.1	4781.9
30635	4.9705	6.	5.e-002	32.393
30636	5.2466	6.	0.1	4682.7
30637	5.1545	6.	5.e-002	27.231
30638	5.4307	6.	0.1	4574.6
30639	5.3386	6.	5.e-002	24.299
30640	5.6148	6.	0.1	4455.6
30641	5.5227	6.	5.e-002	23.717
30642	5.7989	6.	0.1	4322.8
30643	5.7068	6.	5.e-002	25.59
30644	5.983	6.	0.1	4173.
30645	5.8909	6.	5.e-002	29.987
30646	6.167	6.	0.1	4002.5
30647	6.075	6.	5.e-002	36.908
30648	6.3511	6.	0.1	3807.
30649	6.2591	6.	5.e-002	46.248
30650	6.5352	6.	0.1	3581.7
30651	6.4432	6.	5.e-002	57.725
30652	6.7193	6.	0.1	3321.8
30653	6.6273	6.	5.e-002	70.784
30654	6.9034	6.	0.1	3022.3
30655	6.8114	6.	5.e-002	84.472
30656	7.0875	6.	0.1	2679.4
30657	6.9955	6.	5.e-002	97.3
30658	7.2716	6.	0.1	2290.5
30659	7.1795	6.	5.e-002	107.08
30660	7.4557	6.	0.1	1854.8
30661	7.3636	6.	5.e-002	110.82
30662	7.6398	6.	0.1	1373.7
30663	7.5477	6.	5.e-002	104.19
30664	7.8239	6.	0.1	843.41
30665	7.7318	6.	5.e-002	82.473
30666	8.008	6.	0.1	292.16
30667	7.9159	6.	5.e-002	29.317
30668	8.1	6.	5.e-002	52.655
30669	7.8239	6.	0.	843.41
30670	8.008	6.	0.	292.16
30671	7.6398	6.	0.	1373.7
30672	7.4557	6.	0.	1854.8
30673	7.2716	6.	0.	2290.5
30674	7.0875	6.	0.	2679.4
30675	6.9034	6.	0.	3022.3
30676	6.7193	6.	0.	3321.8
30677	6.5352	6.	0.	3581.7
30678	6.3511	6.	0.	3807.
30679	6.167	6.	0.	4002.5
30680	5.983	6.	0.	4173.
30681	5.7989	6.	0.	4322.8
30682	5.6148	6.	0.	4455.6
30683	5.4307	6.	0.	4574.6
30684	5.2466	6.	0.	4682.7
30685	5.0625	6.	0.	4781.9
30686	4.8784	6.	0.	4874.3
30687	4.6943	6.	0.	4961.3
30688	4.5102	6.	0.	5044.2
30689	4.3261	6.	0.	5123.7
30690	4.142	6.	0.	5200.9
30691	3.958	6.	0.	5276.1
30692	3.7739	6.	0.	5349.9
30693	3.5898	6.	0.	5422.4
30694	3.4057	6.	0.	5493.9
30695	3.2216	6.	0.	5564.4
30696	3.0375	6.	0.	5633.7
30697	2.8534	6.	0.	5701.5
30698	2.6693	6.	0.	5767.3
30699	2.4852	6.	0.	5830.5
30700	2.3011	6.	0.	5890.
30701	2.117	6.	0.	5944.4
30702	1.933	6.	0.	5991.8
30703	1.7489	6.	0.	6029.4
30704	1.5648	6.	0.	6053.4
30705	1.3807	6.	0.	6058.
30706	1.1966	6.	0.	6034.9
30707	1.0125	6.	0.	5970.6
30708	0.82841	6.	0.	5842.7
30709	0.64432	6.	0.	5609.3
30710	0.46023	6.	0.	5191.6
30711	0.27614	6.	0.	4336.5
30712	9.2045e-002	6.	0.	2564.2
30713	8.1	5.9091	0.	234.07
30714	5.1657e-014	5.9091	0.	1397.1
30715	0.27614	-4.963e-032	0.	4336.5
30716	9.2045e-002	-1.6543e-032	0.	2564.2
30717	0.46023	-8.2717e-032	0.	5191.6
30718	0.64432	-1.158e-031	0.	5609.3
30719	0.82841	-1.4889e-031	0.	5842.7
30720	1.0125	-1.8198e-031	0.	5970.6
30721	1.1966	-2.1506e-031	0.	6034.9
30722	1.3807	-2.4815e-031	0.	6058.
30723	1.5648	-2.8124e-031	0.	6053.4
30724	1.7489	-3.1433e-031	0.	6029.4
30725	1.933	-3.4741e-031	0.	5991.8
30726	2.117	-3.805e-031	0.	5944.4
30727	2.3011	-4.1359e-031	0.	5890.
30728	2.4852	-4.4667e-031	0.	5830.5
30729	2.6693	-4.7976e-031	0.	5767.3
30730	2.8534	-5.1285e-031	0.	5701.5
30731	3.0375	-5.4593e-031	0.	5633.7
30732	3.2216	-5.7902e-031	0.	5564.4
30733	3.4057	-6.1211e-031	0.	5493.9
30734	3.5898	-6.4519e-031	0.	5422.4
30735	3.7739	-6.7828e-031	0.	5349.9
30736	3.958	-7.1137e-031	0.	5276.1
30737	4.142	-7.4445e-031	0.	5200.9
30738	4.3261	-7.7754e-031	0.	5123.7
30739	4.5102	-8.1063e-031	0.	5044.2
30740	4.6943	-8.4371e-031	0.	4961.3
30741	4.8784	-8.768e-031	0.	4874.3
30742	5.0625	-9.0989e-031	0.	4781.9
30743	5.2466	-9.4297e-031	0.	4682.7
30744	5.4307	-9.7606e-031	0.	4574.6
30745	5.6148	-1.0091e-030	0.	4455.6
30746	5.7989	-1.0422e-030	0.	4322.8
30747	5.983	-1.0753e-030	0.	4173.
30748	6.167	-1.1084e-030	0.	4002.5
30749	6.3511	-1.1415e-030	0.	3807.
30750	6.5352	-1.1746e-030	0.	3581.7
30751	6.7193	-1.2077e-030	0.	3321.8
30752	6.9034	-1.2408e-030	0.	3022.3
30753	7.0875	-1.2738e-030	0.	2679.4
30754	7.2716	-1.3069e-030	0.	2290.5
30755	7.4557	-1.34e-030	0.	1854.8
30756	7.6398	-1.3731e-030	0.	1373.7
30757	7.8239	-1.4062e-030	0.	843.41
30758	8.008	-1.4393e-030	0.	292.16
30759	8.1	9.0909e-002	0.	234.07
30760	7.9472e-016	9.0909e-002	0.	1397.1
30761	8.5411	0.	0.	707.64
30762	8.3581	0.	0.	247.31
30763	8.724	0.	0.	1135.8
30764	8.907	0.	0.	1510.1
30765	9.0899	0.	0.	1834.8
30766	9.2729	0.	0.	2109.8
30767	9.4558	0.	0.	2336.8
30768	9.6388	0.	0.	2519.3
30769	9.8217	0.	0.	2661.8
30770	10.005	0.	0.	2769.6
30771	10.188	0.	0.	2847.7
30772	10.371	0.	0.	2900.9
30773	10.553	0.	0.	2933.5
30774	10.736	0.	0.	2949.4
30775	10.919	0.	0.	2951.7
30776	11.102	0.	0.	2943.
30777	11.285	0.	0.	2925.5
30778	11.468	0.	0.	2901.1
30779	11.651	0.	0.	2871.1
30780	11.834	0.	0.	2836.9
30781	12.017	0.	0.	2799.2
30782	12.2	0.	0.	2759.
30783	12.383	0.	0.	2716.8
30784	12.566	0.	0.	2673.
30785	12.749	0.	0.	2628.1
30786	12.932	0.	0.	2582.4
30787	13.115	0.	0.	2536.
30788	13.298	0.	0.	2489.3
30789	13.481	0.	0.	2442.2
30790	13.664	0.	0.	2395.1
30791	13.847	0.	0.	2347.8
30792	14.029	0.	0.	2300.6
30793	14.212	0.	0.	2253.4
30794	14.395	0.	0.	2206.3
30795	14.578	0.	0.	2159.3
30796	14.761	0.	0.	2112.5
30797	14.944	0.	0.	2065.9
30798	15.127	0.	0.	2019.5
30799	15.31	0.	0.	1973.2
30800	15.493	0.	0.	1927.1
30801	15.676	0.	0.	1881.3
30802	15.859	0.	0.	1835.6
30803	16.042	0.	0.	1790.2
30804	16.225	0.	0.	1745.
30805	16.408	0.	0.	1700.
30806	16.591	0.	0.	1655.1
30807	16.774	0.	0.	1610.5
30808	16.957	0.	0.	1566.1
30809	17.14	0.	0.	1521.9
30810	17.322	0.	0.	1478.
30811	17.505	0.	0.	1434.2
30812	17.688	0.	0.	1390.6
30813	17.871	0.	0.	1347.2
30814	18.054	0.	0.	1304.
30815	18.237	0.	0.	1261.
30816	18.42	0.	0.	1218.2
30817	18.603	0.	0.	1175.5
30818	18.786	0.	0.	1133.1
30819	18.969	0.	0.	1090.8
30820	19.152	0.	0.	1048.7
30821	19.335	0.	0.	1006.8
30822	19.518	0.	0.	965.08
30823	19.701	0.	0.	923.51
30824	19.884	0.	0.	882.11
30825	20.067	0.	0.	840.88
30826	20.25	0.	0.	799.81
30827	20.433	0.	0.	758.89
30828	20.616	0.	0.	718.14
30829	20.798	0.	0.	677.53
30830	20.981	0.	0.	637.08
30831	21.164	0.	0.	596.78
30832	21.347	0.	0.	556.64
30833	21.53	0.	0.	516.64
30834	21.713	0.	0.	476.8
30835	21.896	0.	0.	437.13
30836	22.079	0.	0.	397.62
30837	22.262	0.	0.	358.3
30838	22.445	0.	0.	319.18
30839	22.628	0.	0.	280.29
30840	22.811	0.	0.	241.68
30841	22.994	0.	0.	203.41
30842	23.177	0.	0.	165.57
30843	23.36	0.	0.	128.32
30844	23.543	0.	0.	91.966
30845	23.726	0.	0.	56.786
30846	23.909	0.	0.	23.813
30847	8.2667	9.0909e-002	0.	205.07
30848	24.	9.0909e-002	0.	23.118
30849	5.0067e-014	5.7273	0.	1833.
30850	4.8478e-014	5.5455	0.	2625.
30851	4.6888e-014	5.3636	0.	3049.9
30852	4.5299e-014	5.1818	0.	3324.2
30853	4.371e-014	5.	0.	3512.3
30854	4.212e-014	4.8182	0.	3648.5
30855	4.0531e-014	4.6364	0.	3750.3
30856	3.8941e-014	4.4545	0.	3828.
30857	3.7352e-014	4.2727	0.	3888.
30858	3.5762e-014	4.0909	0.	3934.4
30859	3.4173e-014	3.9091	0.	3970.1
30860	3.2583e-014	3.7273	0.	3997.3
30861	3.0994e-014	3.5455	0.	4017.1
30862	2.9405e-014	3.3636	0.	4030.7
30863	2.7815e-014	3.1818	0.	4038.6
30864	2.6226e-014	3.	0.	4041.2
30865	2.4636e-014	2.8182	0.	4038.6
30866	2.3047e-014	2.6364	0.	4030.7
30867	2.1457e-014	2.4545	0.	4017.1
30868	1.9868e-014	2.2727	0.	3997.3
30869	1.8279e-014	2.0909	0.	3970.1
30870	1.6689e-014	1.9091	0.	3934.4
30871	1.51e-014	1.7273	0.	3888.
30872	1.351e-014	1.5455	0.	3828.
30873	1.1921e-014	1.3636	0.	3750.3
30874	1.0331e-014	1.1818	0.	3648.5
30875	8.7419e-015	1.	0.	3512.3
30876	7.1525e-015	0.81818	0.	3324.2
30877	5.563e-015	0.63636	0.	3049.9
30878	3.9736e-015	0.45455	0.	2625.
30879	2.3842e-015	0.27273	0.	1833.
30880	24.	0.27273	0.	53.062
30881	24.	0.45455	0.	77.201
30882	24.	0.63636	0.	96.399
30883	24.	0.81818	0.	112.55
30884	24.	1.	0.	126.38
30885	24.	1.1818	0.	138.33
30886	24.	1.3636	0.	148.67
30887	24.	1.5455	0.	157.59
30888	24.	1.7273	0.	165.24
30889	24.	1.9091	0.	171.7
30890	24.	2.0909	0.	177.07
30891	24.	2.2727	0.	181.39
30892	24.	2.4545	0.	184.7
30893	24.	2.6364	0.	187.05
30894	24.	2.8182	0.	188.45
30895	24.	3.	0.	188.92
30896	24.	3.1818	0.	188.45
30897	24.	3.3636	0.	187.05
30898	24.	3.5455	0.	184.7
30899	24.	3.7273	0.	181.39
30900	24.	3.9091	0.	177.07
30901	24.	4.0909	0.	171.7
30902	24.	4.2727	0.	165.24
30903	24.	4.4545	0.	157.59
30904	24.	4.6364	0.	148.67
30905	24.	4.8182	0.	138.33
30906	24.	5.	0.	126.38
30907	24.	5.1818	0.	112.55
30908	24.	5.3636	0.	96.399
30909	24.	5.5455	0.	77.201
30910	24.	5.7273	0.	53.062
30911	24.	5.9091	0.	23.118
30912	23.909	6.	0.	23.812
30913	23.726	6.	0.	56.786
30914	23.543	6.	0.	91.966
30915	23.36	6.	0.	128.32
30916	23.177	6.	0.	165.57
30917	22.994	6.	0.	203.41
30918	22.811	6.	0.	241.68
30919	22.628	6.	0.	280.29
30920	22.445	6.	0.	319.18
30921	22.262	6.	0.	358.3
30922	22.079	6.	0.	397.62
30923	21.896	6.	0.	437.13
30924	21.713	6.	0.	476.8
30925	21.53	6.	0.	516.64
30926	21.347	6.	0.	556.64
30927	21.164	6.	0.	596.78
30928	20.981	6.	0.	637.08
30929	20.798	6.	0.	677.53
30930	20.616	6.	0.	718.14
30931	20.433	6.	0.	758.89
30932	20.25	6.	0.	799.81
30933	20.067	6.	0.	840.88
30934	19.884	6.	0.	882.11
30935	19.701	6.	0.	923.51
30936	19.518	6.	0.	965.08
30937	19.335	6.	0.	1006.8
30938	19.152	6.	0.	1048.7
30939	18.969	6.	0.	1090.8
30940	18.786	6.	0.	1133.1
30941	18.603	6.	0.	1175.5
30942	18.42	6.	0.	1218.2
30943	18.237	6.	0.	1261.
30944	18.054	6.	0.	1304.
30945	17.871	6.	0.	1347.2
30946	17.688	6.	0.	1390.6
30947	17.505	6.	0.	1434.2
30948	17.322	6.	0.	1478.
30949	17.14	6.	0.	1521.9
30950	16.957	6.	0.	1566.1
30951	16.774	6.	0.	1610.5
30952	16.591	6.	0.	1655.1
30953	16.408	6.	0.	1700.
30954	16.225	6.	0.	1745.
30955	16.042	6.	0.	1790.2
30956	15.859	6.	0.	1835.6
30957	15.676	6.	0.	1881.3
30958	15.493	6.	0.	1927.1
30959	15.31	6.	0.	1973.2
30960	15.127	6.	0.	2019.5
30961	14.944	6.	0.	2065.9
30962	14.761	6.	0.	2112.5
30963	14.578	6.	0.	2159.3
30964	14.395	6.	0.	2206.3
30965	14.212	6.	0.	2253.4
30966	14.029	6.	0.	2300.6
30967	13.847	6.	0.	2347.8
30968	13.664	6.	0.	2395.1
30969	13.481	6.	0.	2442.2
30970	13.298	6.	0.	2489.3
30971	13.115	6.	0.	2536.
30972	12.932	6.	0.	2582.4
30973	12.749	6.	0.	2628.1
30974	12.566	6.	0.	2673.
30975	12.383	6.	0.	2716.8
30976	12.2	6.	0.	2759.
30977	12.017	6.	0.	2799.2
30978	11.834	6.	0.	2836.9
30979	11.651	6.	0.	2871.1
30980	11.468	6.	0.	2901.1
30981	11.285	6.	0.	2925.5
30982	11.102	6.	0.	2943.
30983	10.919	6.	0.	2951.7
30984	10.736	6.	0.	2949.4
30985	10.553	6.	0.	2933.5
30986	10.371	6.	0.	2900.9
30987	10.188	6.	0.	2847.7
30988	10.005	6.	0.	2769.6
30989	9.8217	6.	0.	2661.8
30990	9.6388	6.	0.	2519.3
30991	9.4558	6.	0.	2336.8
30992	9.2729	6.	0.	2109.8
30993	9.0899	6.	0.	1834.8
30994	8.907	6.	0.	1510.1
30995	8.724	6.	0.	1135.8
30996	8.5411	6.	0.	707.64
30997	8.3581	6.	0.	247.31
30998	8.2667	5.9091	0.	205.07
30999	8.1	1.7273	0.	6818.4
31000	8.1	1.9091	0.	13165
31001	8.1	1.5455	0.	4490.5
31002	8.1	1.3636	0.	3535.2
31003	8.1	1.1818	0.	2804.1
31004	8.1	1.	0.	2248.
31005	8.1	0.81818	0.	1787.9
31006	8.1	0.63636	0.	1385.9
31007	8.1	0.45455	0.	1016.
31008	8.1	0.27273	0.	646.44
31009	8.1833	2.	0.	18153
31010	8.2667	0.27273	0.	568.44
31011	8.2667	0.45455	0.	894.64
31012	8.2667	0.63636	0.	1221.4
31013	8.2667	0.81818	0.	1578.
31014	8.2667	1.	0.	1989.4
31015	8.2667	1.1818	0.	2491.5
31016	8.2667	1.3636	0.	3159.2
31017	8.2667	1.5455	0.	4033.1
31018	8.2667	1.7273	0.	6167.4
31019	8.2667	1.9091	0.	12518
31020	8.1	4.2727	0.	6818.4
31021	8.1	4.0909	0.	13165
31022	8.1	4.4545	0.	4490.5
31023	8.1	4.6364	0.	3535.2
31024	8.1	4.8182	0.	2804.1
31025	8.1	5.	0.	2248.
31026	8.1	5.1818	0.	1787.9
31027	8.1	5.3636	0.	1385.9
31028	8.1	5.5455	0.	1016.
31029	8.1	5.7273	0.	646.44
31030	8.1833	4.	0.	18153
31031	8.2667	5.7273	0.	568.44
31032	8.2667	5.5455	0.	894.64
31033	8.2667	5.3636	0.	1221.4
31034	8.2667	5.1818	0.	1578.
31035	8.2667	5.	0.	1989.4
31036	8.2667	4.8182	0.	2491.5
31037	8.2667	4.6364	0.	3159.2
31038	8.2667	4.4545	0.	4033.1
31039	8.2667	4.2727	0.	6167.4
31040	8.2667	4.0909	0.	12518
