Node Number	X Location (in)	Y Location (in)	Z Location (in)	Middle Principal Stress (psi)
1	2.	2.2	0.	137.52
2	2.	2.4	0.	-41.743
3	2.	2.6	0.	2.9042
4	2.	2.8	0.	-3.874
5	2.	3.	0.	-1.066
6	2.	3.2	0.	-3.874
7	2.	3.4	0.	2.9042
8	2.	3.6	0.	-41.743
9	2.	3.8	0.	137.52
10	2.1667	2.2	0.	211.32
11	2.1667	2.4	0.	-45.487
12	2.1667	2.6	0.	4.7313
13	2.1667	2.8	0.	-3.8691
14	2.1667	3.	0.	-0.99998
15	2.1667	3.2	0.	-3.8691
16	2.1667	3.4	0.	4.7313
17	2.1667	3.6	0.	-45.487
18	2.1667	3.8	0.	211.33
19	0.2	0.2	0.	13.084
20	0.2	0.4	0.	-713.61
21	0.2	0.6	0.	-1112.5
22	0.2	0.8	0.	-1362.4
23	0.2	1.	0.	-1543.2
24	0.2	1.2	0.	-1689.8
25	0.2	1.4	0.	-1816.4
26	0.2	1.6	0.	-1929.4
27	0.2	1.8	0.	-2030.9
28	0.2	2.	0.	-2120.5
29	0.2	2.2	0.	-2196.8
30	0.2	2.4	0.	-2258.
31	0.2	2.6	0.	-2302.6
32	0.2	2.8	0.	-2329.7
33	0.2	3.	0.	-2338.8
34	0.2	3.2	0.	-2329.7
35	0.2	3.4	0.	-2302.6
36	0.2	3.6	0.	-2258.
37	0.2	3.8	0.	-2196.8
38	0.2	4.	0.	-2120.5
39	0.2	4.2	0.	-2030.9
40	0.2	4.4	0.	-1929.4
41	0.2	4.6	0.	-1816.4
42	0.2	4.8	0.	-1689.8
43	0.2	5.	0.	-1543.2
44	0.2	5.2	0.	-1362.4
45	0.2	5.4	0.	-1112.5
46	0.2	5.6	0.	-713.61
47	0.2	5.8	0.	13.084
48	0.4	0.2	0.	-73.548
49	0.4	0.4	0.	-522.94
50	0.4	0.6	0.	-1032.4
51	0.4	0.8	0.	-1399.3
52	0.4	1.	0.	-1671.5
53	0.4	1.2	0.	-1887.6
54	0.4	1.4	0.	-2071.5
55	0.4	1.6	0.	-2234.6
56	0.4	1.8	0.	-2380.7
57	0.4	2.	0.	-2508.2
58	0.4	2.2	0.	-2613.7
59	0.4	2.4	0.	-2694.5
60	0.4	2.6	0.	-2750.3
61	0.4	2.8	0.	-2782.5
62	0.4	3.	0.	-2793.
63	0.4	3.2	0.	-2782.5
64	0.4	3.4	0.	-2750.3
65	0.4	3.6	0.	-2694.5
66	0.4	3.8	0.	-2613.7
67	0.4	4.	0.	-2508.2
68	0.4	4.2	0.	-2380.7
69	0.4	4.4	0.	-2234.6
70	0.4	4.6	0.	-2071.5
71	0.4	4.8	0.	-1887.6
72	0.4	5.	0.	-1671.5
73	0.4	5.2	0.	-1399.3
74	0.4	5.4	0.	-1032.4
75	0.4	5.6	0.	-522.94
76	0.4	5.8	0.	-73.547
77	0.6	0.2	0.	3.5367
78	0.6	0.4	0.	-248.74
79	0.6	0.6	0.	-644.65
80	0.6	0.8	0.	-989.52
81	0.6	1.	0.	-1272.5
82	0.6	1.2	0.	-1508.3
83	0.6	1.4	0.	-1714.3
84	0.6	1.6	0.	-1901.7
85	0.6	1.8	0.	-2072.5
86	0.6	2.	0.	-2221.3
87	0.6	2.2	0.	-2340.3
88	0.6	2.4	0.	-2425.4
89	0.6	2.6	0.	-2478.8
90	0.6	2.8	0.	-2506.8
91	0.6	3.	0.	-2515.3
92	0.6	3.2	0.	-2506.8
93	0.6	3.4	0.	-2478.8
94	0.6	3.6	0.	-2425.4
95	0.6	3.8	0.	-2340.3
96	0.6	4.	0.	-2221.3
97	0.6	4.2	0.	-2072.5
98	0.6	4.4	0.	-1901.7
99	0.6	4.6	0.	-1714.3
100	0.6	4.8	0.	-1508.3
101	0.6	5.	0.	-1272.5
102	0.6	5.2	0.	-989.52
103	0.6	5.4	0.	-644.65
104	0.6	5.6	0.	-248.74
105	0.6	5.8	0.	3.5367
106	0.8	0.2	0.	-13.383
107	0.8	0.4	0.	-145.03
108	0.8	0.6	0.	-444.26
109	0.8	0.8	0.	-733.99
110	0.8	1.	0.	-994.11
111	0.8	1.2	0.	-1227.9
112	0.8	1.4	0.	-1447.2
113	0.8	1.6	0.	-1660.7
114	0.8	1.8	0.	-1865.8
115	0.8	2.	0.	-2047.9
116	0.8	2.2	0.	-2189.9
117	0.8	2.4	0.	-2284.
118	0.8	2.6	0.	-2335.9
119	0.8	2.8	0.	-2359.
120	0.8	3.	0.	-2365.3
121	0.8	3.2	0.	-2359.
122	0.8	3.4	0.	-2335.9
123	0.8	3.6	0.	-2284.
124	0.8	3.8	0.	-2189.9
125	0.8	4.	0.	-2047.9
126	0.8	4.2	0.	-1865.8
127	0.8	4.4	0.	-1660.7
128	0.8	4.6	0.	-1447.2
129	0.8	4.8	0.	-1227.9
130	0.8	5.	0.	-994.11
131	0.8	5.2	0.	-733.99
132	0.8	5.4	0.	-444.26
133	0.8	5.6	0.	-145.03
134	0.8	5.8	0.	-13.383
135	1.	0.2	0.	-9.1995
136	1.	0.4	0.	-75.828
137	1.	0.6	0.	-278.64
138	1.	0.8	0.	-486.52
139	1.	1.	0.	-683.69
140	1.	1.2	0.	-876.42
141	1.	1.4	0.	-1079.9
142	1.	1.6	0.	-1306.2
143	1.	1.8	0.	-1547.4
144	1.	2.	0.	-1772.8
145	1.	2.2	0.	-1943.7
146	1.	2.4	0.	-2044.4
147	1.	2.6	0.	-2088.5
148	1.	2.8	0.	-2101.8
149	1.	3.	0.	-2104.
150	1.	3.2	0.	-2101.8
151	1.	3.4	0.	-2088.5
152	1.	3.6	0.	-2044.4
153	1.	3.8	0.	-1943.7
154	1.	4.	0.	-1772.8
155	1.	4.2	0.	-1547.4
156	1.	4.4	0.	-1306.2
157	1.	4.6	0.	-1079.9
158	1.	4.8	0.	-876.42
159	1.	5.	0.	-683.69
160	1.	5.2	0.	-486.52
161	1.	5.4	0.	-278.64
162	1.	5.6	0.	-75.828
163	1.	5.8	0.	-9.1995
164	1.2	0.2	0.	-12.614
165	1.2	0.4	0.	-49.94
166	1.2	0.6	0.	-154.6
167	1.2	0.8	0.	-260.43
168	1.2	1.	0.	-360.
169	1.2	1.2	0.	-470.15
170	1.2	1.4	0.	-618.42
171	1.2	1.6	0.	-834.7
172	1.2	1.8	0.	-1122.7
173	1.2	2.	0.	-1415.3
174	1.2	2.2	0.	-1631.9
175	1.2	2.4	0.	-1738.7
176	1.2	2.6	0.	-1767.2
177	1.2	2.8	0.	-1766.6
178	1.2	3.	0.	-1764.2
179	1.2	3.2	0.	-1766.6
180	1.2	3.4	0.	-1767.2
181	1.2	3.6	0.	-1738.7
182	1.2	3.8	0.	-1631.9
183	1.2	4.	0.	-1415.3
184	1.2	4.2	0.	-1122.7
185	1.2	4.4	0.	-834.7
186	1.2	4.6	0.	-618.42
187	1.2	4.8	0.	-470.15
188	1.2	5.	0.	-360.
189	1.2	5.2	0.	-260.43
190	1.2	5.4	0.	-154.6
191	1.2	5.6	0.	-49.94
192	1.2	5.8	0.	-12.614
193	1.4	0.2	0.	-18.893
194	1.4	0.4	0.	-42.914
195	1.4	0.6	0.	-62.566
196	1.4	0.8	0.	-61.013
197	1.4	1.	0.	-52.824
198	1.4	1.2	0.	-50.228
199	1.4	1.4	0.	-64.198
200	1.4	1.6	0.	-174.22
201	1.4	1.8	0.	-493.89
202	1.4	2.	0.	-911.47
203	1.4	2.2	0.	-1214.7
204	1.4	2.4	0.	-1321.3
205	1.4	2.6	0.	-1327.9
206	1.4	2.8	0.	-1319.6
207	1.4	3.	0.	-1315.4
208	1.4	3.2	0.	-1319.6
209	1.4	3.4	0.	-1327.9
210	1.4	3.6	0.	-1321.3
211	1.4	3.8	0.	-1214.7
212	1.4	4.	0.	-911.47
213	1.4	4.2	0.	-493.89
214	1.4	4.4	0.	-174.22
215	1.4	4.6	0.	-64.198
216	1.4	4.8	0.	-50.228
217	1.4	5.	0.	-52.824
218	1.4	5.2	0.	-61.013
219	1.4	5.4	0.	-62.566
220	1.4	5.6	0.	-42.914
221	1.4	5.8	0.	-18.893
222	1.6	0.2	0.	-29.62
223	1.6	0.4	0.	-35.961
224	1.6	0.6	0.	-23.757
225	1.6	0.8	0.	-14.425
226	1.6	1.	0.	-9.7003
227	1.6	1.2	0.	-7.3056
228	1.6	1.4	0.	-8.1358
229	1.6	1.6	0.	2.5392
230	1.6	1.8	0.	-7.6556
231	1.6	2.	0.	-102.21
232	1.6	2.2	0.	-613.
233	1.6	2.4	0.	-745.17
234	1.6	2.6	0.	-756.86
235	1.6	2.8	0.	-773.05
236	1.6	3.	0.	-777.64
237	1.6	3.2	0.	-773.05
238	1.6	3.4	0.	-756.86
239	1.6	3.6	0.	-745.17
240	1.6	3.8	0.	-613.
241	1.6	4.	0.	-102.21
242	1.6	4.2	0.	-7.6556
243	1.6	4.4	0.	2.5392
244	1.6	4.6	0.	-8.1358
245	1.6	4.8	0.	-7.3056
246	1.6	5.	0.	-9.7003
247	1.6	5.2	0.	-14.425
248	1.6	5.4	0.	-23.757
249	1.6	5.6	0.	-35.961
250	1.6	5.8	0.	-29.62
251	1.8	0.2	0.	-59.804
252	1.8	0.4	0.	-31.613
253	1.8	0.6	0.	-23.542
254	1.8	0.8	0.	-19.732
255	1.8	1.	0.	-21.008
256	1.8	1.2	0.	-18.512
257	1.8	1.4	0.	-41.241
258	1.8	1.6	0.	10.465
259	1.8	1.8	0.	-220.29
260	1.8	2.	0.	-804.28
261	1.8	2.2	0.	-156.9
262	1.8	2.4	0.	-65.586
263	1.8	2.6	0.	-130.47
264	1.8	2.8	0.	-205.31
265	1.8	3.	0.	-235.76
266	1.8	3.2	0.	-205.31
267	1.8	3.4	0.	-130.47
268	1.8	3.6	0.	-65.585
269	1.8	3.8	0.	-156.9
270	1.8	4.	0.	-804.28
271	1.8	4.2	0.	-220.29
272	1.8	4.4	0.	10.465
273	1.8	4.6	0.	-41.241
274	1.8	4.8	0.	-18.512
275	1.8	5.	0.	-21.009
276	1.8	5.2	0.	-19.732
277	1.8	5.4	0.	-23.542
278	1.8	5.6	0.	-31.613
279	1.8	5.8	0.	-59.804
280	2.3652	5.8	0.	-32.049
281	2.5636	5.8	0.	-7.9747
282	2.7621	5.8	0.	-3.3015
283	2.9606	5.8	0.	-0.25914
284	3.1591	5.8	0.	0.42955
285	3.3576	5.8	0.	0.62037
286	3.5561	5.8	0.	0.55135
287	3.7545	5.8	0.	0.43546
288	3.953	5.8	0.	0.32288
289	4.1515	5.8	0.	0.23386
290	4.35	5.8	0.	0.16804
291	4.5485	5.8	0.	0.1204
292	4.747	5.8	0.	8.451e-002
293	4.9455	5.8	0.	5.3782e-002
294	5.1439	5.8	0.	1.9236e-002
295	5.3424	5.8	0.	-4.3183e-002
296	5.5409	5.8	0.	-0.30965
297	5.7394	5.8	0.	-1.7028
298	5.9379	5.8	0.	-3.1893
299	6.1364	5.8	0.	-4.1704
300	6.3348	5.8	0.	-4.6976
301	6.5333	5.8	0.	-4.8555
302	6.7318	5.8	0.	-4.7221
303	6.9303	5.8	0.	-4.3644
304	7.1288	5.8	0.	-3.839
305	7.3273	5.8	0.	-3.1939
306	7.5258	5.8	0.	-2.4711
307	7.7242	5.8	0.	-1.7141
308	7.9227	5.8	0.	-0.98974
309	8.1212	5.8	0.	-0.45054
310	8.3197	5.8	0.	-0.2091
311	8.5182	5.8	0.	-0.11957
312	8.7167	5.8	0.	-7.8995e-002
313	8.9152	5.8	0.	-5.6853e-002
314	9.1136	5.8	0.	-4.3195e-002
315	9.3121	5.8	0.	-3.4047e-002
316	9.5106	5.8	0.	-2.7555e-002
317	9.7091	5.8	0.	-2.2729e-002
318	9.9076	5.8	0.	-1.9034e-002
319	10.106	5.8	0.	-1.6125e-002
320	10.305	5.8	0.	-1.3772e-002
321	10.503	5.8	0.	-1.1847e-002
322	10.702	5.8	0.	-1.0246e-002
323	10.9	5.8	0.	-8.9013e-003
324	11.098	5.8	0.	-7.7186e-003
325	11.297	5.8	0.	-6.7033e-003
326	11.495	5.8	0.	-5.8241e-003
327	11.694	5.8	0.	-5.0582e-003
328	11.892	5.8	0.	-4.3468e-003
329	12.091	5.8	0.	-3.7357e-003
330	12.289	5.8	0.	-3.2151e-003
331	12.488	5.8	0.	-2.7123e-003
332	12.686	5.8	0.	-2.2636e-003
333	12.885	5.8	0.	-1.8601e-003
334	13.083	5.8	0.	-1.4976e-003
335	13.282	5.8	0.	-1.1354e-003
336	13.48	5.8	0.	-8.0634e-004
337	13.679	5.8	0.	-5.0402e-004
338	13.877	5.8	0.	-2.2785e-004
339	14.076	5.8	0.	5.9741e-005
340	14.274	5.8	0.	3.1386e-004
341	14.473	5.8	0.	5.3437e-004
342	14.671	5.8	0.	7.7294e-004
343	14.87	5.8	0.	9.9734e-004
344	15.068	5.8	0.	1.212e-003
345	15.267	5.8	0.	1.4166e-003
346	15.465	5.8	0.	1.6406e-003
347	15.664	5.8	0.	1.8558e-003
348	15.862	5.8	0.	2.0681e-003
349	16.061	5.8	0.	2.275e-003
350	16.259	5.8	0.	2.5036e-003
351	16.458	5.8	0.	2.7207e-003
352	16.656	5.8	0.	2.9226e-003
353	16.855	5.8	0.	3.1519e-003
354	17.053	5.8	0.	3.3805e-003
355	17.252	5.8	0.	3.6134e-003
356	17.45	5.8	0.	3.8429e-003
357	17.648	5.8	0.	4.0996e-003
358	17.847	5.8	0.	4.3544e-003
359	18.045	5.8	0.	4.611e-003
360	18.244	5.8	0.	4.8682e-003
361	18.442	5.8	0.	5.1432e-003
362	18.641	5.8	0.	5.4067e-003
363	18.839	5.8	0.	5.6555e-003
364	19.038	5.8	0.	5.9127e-003
365	19.236	5.8	0.	6.1539e-003
366	19.435	5.8	0.	6.3742e-003
367	19.633	5.8	0.	6.5669e-003
368	19.832	5.8	0.	6.7323e-003
369	20.03	5.8	0.	6.8452e-003
370	20.229	5.8	0.	6.8884e-003
371	20.427	5.8	0.	6.8416e-003
372	20.626	5.8	0.	6.69e-003
373	20.824	5.8	0.	6.3826e-003
374	21.023	5.8	0.	5.8798e-003
375	21.221	5.8	0.	5.1442e-003
376	21.42	5.8	0.	4.0874e-003
377	21.618	5.8	0.	2.6359e-003
378	21.817	5.8	0.	6.5623e-004
379	22.015	5.8	0.	-1.9958e-003
380	22.214	5.8	0.	-5.5487e-003
381	22.412	5.8	0.	-1.027e-002
382	22.611	5.8	0.	-1.6692e-002
383	22.809	5.8	0.	-2.4956e-002
384	23.008	5.8	0.	-3.7758e-002
385	23.206	5.8	0.	-4.9409e-002
386	23.405	5.8	0.	-8.8691e-002
387	23.603	5.8	0.	-5.9733e-002
388	23.802	5.8	0.	-0.4958
389	2.3652	5.6	0.	-15.541
390	2.5636	5.6	0.	-4.2635
391	2.7621	5.6	0.	-3.4252
392	2.9606	5.6	0.	-1.2657
393	3.1591	5.6	0.	-0.7696
394	3.3576	5.6	0.	-0.5116
395	3.5561	5.6	0.	-0.42095
396	3.7545	5.6	0.	-0.35947
397	3.953	5.6	0.	-0.31001
398	4.1515	5.6	0.	-0.26428
399	4.35	5.6	0.	-0.22439
400	4.5485	5.6	0.	-0.19379
401	4.747	5.6	0.	-0.17882
402	4.9455	5.6	0.	-0.19668
403	5.1439	5.6	0.	-0.34465
404	5.3424	5.6	0.	-2.378
405	5.5409	5.6	0.	-7.2918
406	5.7394	5.6	0.	-11.147
407	5.9379	5.6	0.	-13.838
408	6.1364	5.6	0.	-15.551
409	6.3348	5.6	0.	-16.469
410	6.5333	5.6	0.	-16.754
411	6.7318	5.6	0.	-16.545
412	6.9303	5.6	0.	-15.959
413	7.1288	5.6	0.	-15.091
414	7.3273	5.6	0.	-14.02
415	7.5258	5.6	0.	-12.81
416	7.7242	5.6	0.	-11.511
417	7.9227	5.6	0.	-10.164
418	8.1212	5.6	0.	-8.7996
419	8.3197	5.6	0.	-7.4412
420	8.5182	5.6	0.	-6.1068
421	8.7167	5.6	0.	-4.8092
422	8.9152	5.6	0.	-3.5576
423	9.1136	5.6	0.	-2.358
424	9.3121	5.6	0.	-1.2149
425	9.5106	5.6	0.	-0.14601
426	9.7091	5.6	0.	1.1921e-002
427	9.9076	5.6	0.	1.1622e-002
428	10.106	5.6	0.	1.0068e-002
429	10.305	5.6	0.	8.3626e-003
430	10.503	5.6	0.	6.6779e-003
431	10.702	5.6	0.	5.0687e-003
432	10.9	5.6	0.	3.5465e-003
433	11.098	5.6	0.	2.1577e-003
434	11.297	5.6	0.	8.5797e-004
435	11.495	5.6	0.	-3.5678e-004
436	11.694	5.6	0.	-1.4945e-003
437	11.892	5.6	0.	-2.5143e-003
438	12.091	5.6	0.	-3.4883e-003
439	12.289	5.6	0.	-4.421e-003
440	12.488	5.6	0.	-5.2562e-003
441	12.686	5.6	0.	-6.0431e-003
442	12.885	5.6	0.	-6.7832e-003
443	13.083	5.6	0.	-7.4871e-003
444	13.282	5.6	0.	-8.1194e-003
445	13.48	5.6	0.	-8.723e-003
446	13.679	5.6	0.	-9.3005e-003
447	13.877	5.6	0.	-9.8578e-003
448	14.076	5.6	0.	-1.0362e-002
449	14.274	5.6	0.	-1.087e-002
450	14.473	5.6	0.	-1.1383e-002
451	14.671	5.6	0.	-1.1856e-002
452	14.87	5.6	0.	-1.2327e-002
453	15.068	5.6	0.	-1.2796e-002
454	15.267	5.6	0.	-1.3271e-002
455	15.465	5.6	0.	-1.3726e-002
456	15.664	5.6	0.	-1.419e-002
457	15.862	5.6	0.	-1.467e-002
458	16.061	5.6	0.	-1.5167e-002
459	16.259	5.6	0.	-1.5657e-002
460	16.458	5.6	0.	-1.6188e-002
461	16.656	5.6	0.	-1.6758e-002
462	16.855	5.6	0.	-1.7336e-002
463	17.053	5.6	0.	-1.7951e-002
464	17.252	5.6	0.	-1.861e-002
465	17.45	5.6	0.	-1.9313e-002
466	17.648	5.6	0.	-2.0052e-002
467	17.847	5.6	0.	-2.0846e-002
468	18.045	5.6	0.	-2.1706e-002
469	18.244	5.6	0.	-2.2637e-002
470	18.442	5.6	0.	-2.3629e-002
471	18.641	5.6	0.	-2.4714e-002
472	18.839	5.6	0.	-2.5903e-002
473	19.038	5.6	0.	-2.718e-002
474	19.236	5.6	0.	-2.857e-002
475	19.435	5.6	0.	-3.0088e-002
476	19.633	5.6	0.	-3.1743e-002
477	19.832	5.6	0.	-3.3535e-002
478	20.03	5.6	0.	-3.5497e-002
479	20.229	5.6	0.	-3.7641e-002
480	20.427	5.6	0.	-3.9988e-002
481	20.626	5.6	0.	-4.2544e-002
482	20.824	5.6	0.	-4.5353e-002
483	21.023	5.6	0.	-4.8433e-002
484	21.221	5.6	0.	-5.1801e-002
485	21.42	5.6	0.	-5.5489e-002
486	21.618	5.6	0.	-5.9534e-002
487	21.817	5.6	0.	-6.3958e-002
488	22.015	5.6	0.	-6.8772e-002
489	22.214	5.6	0.	-7.4009e-002
490	22.412	5.6	0.	-7.9595e-002
491	22.611	5.6	0.	-8.5592e-002
492	22.809	5.6	0.	-9.1109e-002
493	23.008	5.6	0.	-9.7986e-002
494	23.206	5.6	0.	-9.5233e-002
495	23.405	5.6	0.	-0.1158
496	23.603	5.6	0.	-3.5532e-003
497	23.802	5.6	0.	-0.35874
498	2.3652	5.4	0.	-12.788
499	2.5636	5.4	0.	-1.8898
500	2.7621	5.4	0.	-3.0137
501	2.9606	5.4	0.	-1.4786
502	3.1591	5.4	0.	-1.0369
503	3.3576	5.4	0.	-0.69415
504	3.5561	5.4	0.	-0.52388
505	3.7545	5.4	0.	-0.41539
506	3.953	5.4	0.	-0.35283
507	4.1515	5.4	0.	-0.32081
508	4.35	5.4	0.	-0.31836
509	4.5485	5.4	0.	-0.35703
510	4.747	5.4	0.	-0.49422
511	4.9455	5.4	0.	-1.1797
512	5.1439	5.4	0.	-6.7778
513	5.3424	5.4	0.	-14.582
514	5.5409	5.4	0.	-20.629
515	5.7394	5.4	0.	-24.939
516	5.9379	5.4	0.	-27.774
517	6.1364	5.4	0.	-29.396
518	6.3348	5.4	0.	-30.044
519	6.5333	5.4	0.	-29.923
520	6.7318	5.4	0.	-29.209
521	6.9303	5.4	0.	-28.049
522	7.1288	5.4	0.	-26.564
523	7.3273	5.4	0.	-24.852
524	7.5258	5.4	0.	-22.994
525	7.7242	5.4	0.	-21.052
526	7.9227	5.4	0.	-19.074
527	8.1212	5.4	0.	-17.099
528	8.3197	5.4	0.	-15.156
529	8.5182	5.4	0.	-13.264
530	8.7167	5.4	0.	-11.439
531	8.9152	5.4	0.	-9.6914
532	9.1136	5.4	0.	-8.0267
533	9.3121	5.4	0.	-6.4483
534	9.5106	5.4	0.	-4.9573
535	9.7091	5.4	0.	-3.553
536	9.9076	5.4	0.	-2.2335
537	10.106	5.4	0.	-0.99725
538	10.305	5.4	0.	-1.9096e-002
539	10.503	5.4	0.	-2.7188e-003
540	10.702	5.4	0.	-1.8999e-003
541	10.9	5.4	0.	-1.8848e-003
542	11.098	5.4	0.	-2.0269e-003
543	11.297	5.4	0.	-2.2422e-003
544	11.495	5.4	0.	-2.4839e-003
545	11.694	5.4	0.	-2.7357e-003
546	11.892	5.4	0.	-2.9449e-003
547	12.091	5.4	0.	-3.1717e-003
548	12.289	5.4	0.	-3.4145e-003
549	12.488	5.4	0.	-3.6101e-003
550	12.686	5.4	0.	-3.8008e-003
551	12.885	5.4	0.	-3.9874e-003
552	13.083	5.4	0.	-4.1703e-003
553	13.282	5.4	0.	-4.3154e-003
554	13.48	5.4	0.	-4.4593e-003
555	13.679	5.4	0.	-4.6015e-003
556	13.877	5.4	0.	-4.7434e-003
557	14.076	5.4	0.	-4.8513e-003
558	14.274	5.4	0.	-4.976e-003
559	14.473	5.4	0.	-5.1185e-003
560	14.671	5.4	0.	-5.2299e-003
561	14.87	5.4	0.	-5.3453e-003
562	15.068	5.4	0.	-5.463e-003
563	15.267	5.4	0.	-5.5841e-003
564	15.465	5.4	0.	-5.6858e-003
565	15.664	5.4	0.	-5.7906e-003
566	15.862	5.4	0.	-5.9038e-003
567	16.061	5.4	0.	-6.024e-003
568	16.259	5.4	0.	-6.1253e-003
569	16.458	5.4	0.	-6.2467e-003
570	16.656	5.4	0.	-6.3904e-003
571	16.855	5.4	0.	-6.517e-003
572	17.053	5.4	0.	-6.6577e-003
573	17.252	5.4	0.	-6.8048e-003
574	17.45	5.4	0.	-6.967e-003
575	17.648	5.4	0.	-7.1202e-003
576	17.847	5.4	0.	-7.2865e-003
577	18.045	5.4	0.	-7.4703e-003
578	18.244	5.4	0.	-7.6687e-003
579	18.442	5.4	0.	-7.863e-003
580	18.641	5.4	0.	-8.0834e-003
581	18.839	5.4	0.	-8.331e-003
582	19.038	5.4	0.	-8.5766e-003
583	19.236	5.4	0.	-8.8417e-003
584	19.435	5.4	0.	-9.1257e-003
585	19.633	5.4	0.	-9.4261e-003
586	19.832	5.4	0.	-9.7297e-003
587	20.03	5.4	0.	-1.005e-002
588	20.229	5.4	0.	-1.0384e-002
589	20.427	5.4	0.	-1.0722e-002
590	20.626	5.4	0.	-1.1053e-002
591	20.824	5.4	0.	-1.1378e-002
592	21.023	5.4	0.	-1.1682e-002
593	21.221	5.4	0.	-1.1931e-002
594	21.42	5.4	0.	-1.2105e-002
595	21.618	5.4	0.	-1.2147e-002
596	21.817	5.4	0.	-1.1991e-002
597	22.015	5.4	0.	-1.1522e-002
598	22.214	5.4	0.	-1.0587e-002
599	22.412	5.4	0.	-8.8808e-003
600	22.611	5.4	0.	-6.1218e-003
601	22.809	5.4	0.	-8.8734e-004
602	23.008	5.4	0.	5.5287e-003
603	23.206	5.4	0.	2.6835e-002
604	23.405	5.4	0.	2.4688e-002
605	23.603	5.4	0.	0.19708
606	23.802	5.4	0.	-8.1631e-002
607	2.3652	5.2	0.	-11.559
608	2.5636	5.2	0.	-0.3956
609	2.7621	5.2	0.	-2.6993
610	2.9606	5.2	0.	-1.6893
611	3.1591	5.2	0.	-1.5189
612	3.3576	5.2	0.	-1.2402
613	3.5561	5.2	0.	-1.0787
614	3.7545	5.2	0.	-0.96179
615	3.953	5.2	0.	-0.90472
616	4.1515	5.2	0.	-0.91924
617	4.35	5.2	0.	-1.0681
618	4.5485	5.2	0.	-1.6588
619	4.747	5.2	0.	-5.5171
620	4.9455	5.2	0.	-16.464
621	5.1439	5.2	0.	-26.554
622	5.3424	5.2	0.	-34.234
623	5.5409	5.2	0.	-39.692
624	5.7394	5.2	0.	-43.258
625	5.9379	5.2	0.	-45.258
626	6.1364	5.2	0.	-45.992
627	6.3348	5.2	0.	-45.723
628	6.5333	5.2	0.	-44.676
629	6.7318	5.2	0.	-43.041
630	6.9303	5.2	0.	-40.978
631	7.1288	5.2	0.	-38.617
632	7.3273	5.2	0.	-36.063
633	7.5258	5.2	0.	-33.399
634	7.7242	5.2	0.	-30.692
635	7.9227	5.2	0.	-27.992
636	8.1212	5.2	0.	-25.338
637	8.3197	5.2	0.	-22.759
638	8.5182	5.2	0.	-20.273
639	8.7167	5.2	0.	-17.896
640	8.9152	5.2	0.	-15.635
641	9.1136	5.2	0.	-13.494
642	9.3121	5.2	0.	-11.476
643	9.5106	5.2	0.	-9.5787
644	9.7091	5.2	0.	-7.7997
645	9.9076	5.2	0.	-6.1349
646	10.106	5.2	0.	-4.5797
647	10.305	5.2	0.	-3.1286
648	10.503	5.2	0.	-1.7773
649	10.702	5.2	0.	-0.53086
650	10.9	5.2	0.	-1.7282e-002
651	11.098	5.2	0.	-6.6729e-003
652	11.297	5.2	0.	-4.4959e-003
653	11.495	5.2	0.	-3.7121e-003
654	11.694	5.2	0.	-3.3992e-003
655	11.892	5.2	0.	-3.2529e-003
656	12.091	5.2	0.	-3.2352e-003
657	12.289	5.2	0.	-3.2989e-003
658	12.488	5.2	0.	-3.3572e-003
659	12.686	5.2	0.	-3.4407e-003
660	12.885	5.2	0.	-3.5395e-003
661	13.083	5.2	0.	-3.647e-003
662	13.282	5.2	0.	-3.7272e-003
663	13.48	5.2	0.	-3.8148e-003
664	13.679	5.2	0.	-3.9064e-003
665	13.877	5.2	0.	-4.002e-003
666	14.076	5.2	0.	-4.0679e-003
667	14.274	5.2	0.	-4.1523e-003
668	14.473	5.2	0.	-4.257e-003
669	14.671	5.2	0.	-4.3295e-003
670	14.87	5.2	0.	-4.4085e-003
671	15.068	5.2	0.	-4.4889e-003
672	15.267	5.2	0.	-4.574e-003
673	15.465	5.2	0.	-4.636e-003
674	15.664	5.2	0.	-4.7025e-003
675	15.862	5.2	0.	-4.7742e-003
676	16.061	5.2	0.	-4.8512e-003
677	16.259	5.2	0.	-4.9072e-003
678	16.458	5.2	0.	-4.9813e-003
679	16.656	5.2	0.	-5.0753e-003
680	16.855	5.2	0.	-5.1472e-003
681	17.053	5.2	0.	-5.2243e-003
682	17.252	5.2	0.	-5.3123e-003
683	17.45	5.2	0.	-5.4029e-003
684	17.648	5.2	0.	-5.4835e-003
685	17.847	5.2	0.	-5.5692e-003
686	18.045	5.2	0.	-5.661e-003
687	18.244	5.2	0.	-5.7602e-003
688	18.442	5.2	0.	-5.8482e-003
689	18.641	5.2	0.	-5.9471e-003
690	18.839	5.2	0.	-6.0629e-003
691	19.038	5.2	0.	-6.1622e-003
692	19.236	5.2	0.	-6.2635e-003
693	19.435	5.2	0.	-6.3639e-003
694	19.633	5.2	0.	-6.4631e-003
695	19.832	5.2	0.	-6.5357e-003
696	20.03	5.2	0.	-6.5995e-003
697	20.229	5.2	0.	-6.6424e-003
698	20.427	5.2	0.	-6.6514e-003
699	20.626	5.2	0.	-6.603e-003
700	20.824	5.2	0.	-6.5007e-003
701	21.023	5.2	0.	-6.3113e-003
702	21.221	5.2	0.	-5.9891e-003
703	21.42	5.2	0.	-5.4971e-003
704	21.618	5.2	0.	-4.7658e-003
705	21.817	5.2	0.	-3.7034e-003
706	22.015	5.2	0.	-2.1627e-003
707	22.214	5.2	0.	5.5468e-005
708	22.412	5.2	0.	3.2991e-003
709	22.611	5.2	0.	7.8999e-003
710	22.809	5.2	0.	1.5429e-002
711	23.008	5.2	0.	2.4571e-002
712	23.206	5.2	0.	4.9661e-002
713	23.405	5.2	0.	5.3682e-002
714	23.603	5.2	0.	0.2327
715	23.802	5.2	0.	-3.2319e-002
716	2.3652	5.	0.	-13.901
717	2.5636	5.	0.	0.7175
718	2.7621	5.	0.	-3.0153
719	2.9606	5.	0.	-1.9089
720	3.1591	5.	0.	-2.0266
721	3.3576	5.	0.	-1.8794
722	3.5561	5.	0.	-1.8554
723	3.7545	5.	0.	-1.9207
724	3.953	5.	0.	-2.1999
725	4.1515	5.	0.	-3.1126
726	4.35	5.	0.	-7.3631
727	4.5485	5.	0.	-20.804
728	4.747	5.	0.	-35.125
729	4.9455	5.	0.	-46.468
730	5.1439	5.	0.	-54.81
731	5.3424	5.	0.	-60.537
732	5.5409	5.	0.	-64.065
733	5.7394	5.	0.	-65.783
734	5.9379	5.	0.	-66.04
735	6.1364	5.	0.	-65.141
736	6.3348	5.	0.	-63.349
737	6.5333	5.	0.	-60.887
738	6.7318	5.	0.	-57.942
739	6.9303	5.	0.	-54.667
740	7.1288	5.	0.	-51.186
741	7.3273	5.	0.	-47.599
742	7.5258	5.	0.	-43.984
743	7.7242	5.	0.	-40.401
744	7.9227	5.	0.	-36.896
745	8.1212	5.	0.	-33.503
746	8.3197	5.	0.	-30.243
747	8.5182	5.	0.	-27.134
748	8.7167	5.	0.	-24.184
749	8.9152	5.	0.	-21.397
750	9.1136	5.	0.	-18.775
751	9.3121	5.	0.	-16.316
752	9.5106	5.	0.	-14.014
753	9.7091	5.	0.	-11.865
754	9.9076	5.	0.	-9.8611
755	10.106	5.	0.	-7.9953
756	10.305	5.	0.	-6.2594
757	10.503	5.	0.	-4.6461
758	10.702	5.	0.	-3.1473
759	10.9	5.	0.	-1.7573
760	11.098	5.	0.	-0.48717
761	11.297	5.	0.	-2.1997e-002
762	11.495	5.	0.	-8.7535e-003
763	11.694	5.	0.	-5.5977e-003
764	11.892	5.	0.	-4.2278e-003
765	12.091	5.	0.	-3.5248e-003
766	12.289	5.	0.	-3.1401e-003
767	12.488	5.	0.	-2.8752e-003
768	12.686	5.	0.	-2.7087e-003
769	12.885	5.	0.	-2.6042e-003
770	13.083	5.	0.	-2.5425e-003
771	13.282	5.	0.	-2.4746e-003
772	13.48	5.	0.	-2.4316e-003
773	13.679	5.	0.	-2.4043e-003
774	13.877	5.	0.	-2.391e-003
775	14.076	5.	0.	-2.3548e-003
776	14.274	5.	0.	-2.342e-003
777	14.473	5.	0.	-2.3544e-003
778	14.671	5.	0.	-2.3392e-003
779	14.87	5.	0.	-2.3288e-003
780	15.068	5.	0.	-2.3235e-003
781	15.267	5.	0.	-2.3221e-003
782	15.465	5.	0.	-2.2976e-003
783	15.664	5.	0.	-2.2768e-003
784	15.862	5.	0.	-2.258e-003
785	16.061	5.	0.	-2.242e-003
786	16.259	5.	0.	-2.2026e-003
787	16.458	5.	0.	-2.1754e-003
788	16.656	5.	0.	-2.1648e-003
789	16.855	5.	0.	-2.1242e-003
790	17.053	5.	0.	-2.0862e-003
791	17.252	5.	0.	-2.0475e-003
792	17.45	5.	0.	-2.0063e-003
793	17.648	5.	0.	-1.9428e-003
794	17.847	5.	0.	-1.8754e-003
795	18.045	5.	0.	-1.8035e-003
796	18.244	5.	0.	-1.7258e-003
797	18.442	5.	0.	-1.6223e-003
798	18.641	5.	0.	-1.5175e-003
799	18.839	5.	0.	-1.4071e-003
800	19.038	5.	0.	-1.2647e-003
801	19.236	5.	0.	-1.1008e-003
802	19.435	5.	0.	-9.1611e-004
803	19.633	5.	0.	-6.9583e-004
804	19.832	5.	0.	-4.2775e-004
805	20.03	5.	0.	-1.1396e-004
806	20.229	5.	0.	2.5596e-004
807	20.427	5.	0.	7.0346e-004
808	20.626	5.	0.	1.2509e-003
809	20.824	5.	0.	1.9099e-003
810	21.023	5.	0.	2.7171e-003
811	21.221	5.	0.	3.7241e-003
812	21.42	5.	0.	4.9826e-003
813	21.618	5.	0.	6.5736e-003
814	21.817	5.	0.	8.6083e-003
815	22.015	5.	0.	1.125e-002
816	22.214	5.	0.	1.4716e-002
817	22.412	5.	0.	1.9395e-002
818	22.611	5.	0.	2.5658e-002
819	22.809	5.	0.	3.5139e-002
820	23.008	5.	0.	4.6634e-002
821	23.206	5.	0.	7.4739e-002
822	23.405	5.	0.	8.215e-002
823	23.603	5.	0.	0.27031
824	23.802	5.	0.	2.0817e-002
825	2.3652	4.8	0.	-11.077
826	2.5636	4.8	0.	1.0527
827	2.7621	4.8	0.	-3.2069
828	2.9606	4.8	0.	-2.6194
829	3.1591	4.8	0.	-2.74
830	3.3576	4.8	0.	-2.9661
831	3.5561	4.8	0.	-3.5518
832	3.7545	4.8	0.	-5.1201
833	3.953	4.8	0.	-11.366
834	4.1515	4.8	0.	-30.323
835	4.35	4.8	0.	-50.645
836	4.5485	4.8	0.	-66.359
837	4.747	4.8	0.	-77.697
838	4.9455	4.8	0.	-85.409
839	5.1439	4.8	0.	-90.161
840	5.3424	4.8	0.	-92.516
841	5.5409	4.8	0.	-92.945
842	5.7394	4.8	0.	-91.846
843	5.9379	4.8	0.	-89.56
844	6.1364	4.8	0.	-86.375
845	6.3348	4.8	0.	-82.531
846	6.5333	4.8	0.	-78.229
847	6.7318	4.8	0.	-73.635
848	6.9303	4.8	0.	-68.881
849	7.1288	4.8	0.	-64.072
850	7.3273	4.8	0.	-59.292
851	7.5258	4.8	0.	-54.604
852	7.7242	4.8	0.	-50.054
853	7.9227	4.8	0.	-45.677
854	8.1212	4.8	0.	-41.496
855	8.3197	4.8	0.	-37.525
856	8.5182	4.8	0.	-33.771
857	8.7167	4.8	0.	-30.238
858	8.9152	4.8	0.	-26.922
859	9.1136	4.8	0.	-23.82
860	9.3121	4.8	0.	-20.923
861	9.5106	4.8	0.	-18.225
862	9.7091	4.8	0.	-15.714
863	9.9076	4.8	0.	-13.381
864	10.106	4.8	0.	-11.215
865	10.305	4.8	0.	-9.2063
866	10.503	4.8	0.	-7.3435
867	10.702	4.8	0.	-5.6166
868	10.9	4.8	0.	-4.0163
869	11.098	4.8	0.	-2.5335
870	11.297	4.8	0.	-1.1645
871	11.495	4.8	0.	-8.8053e-002
872	11.694	4.8	0.	-1.3223e-002
873	11.892	4.8	0.	-6.6155e-003
874	12.091	4.8	0.	-4.3034e-003
875	12.289	4.8	0.	-3.1817e-003
876	12.488	4.8	0.	-2.4969e-003
877	12.686	4.8	0.	-2.0602e-003
878	12.885	4.8	0.	-1.7619e-003
879	13.083	4.8	0.	-1.5533e-003
880	13.282	4.8	0.	-1.3677e-003
881	13.48	4.8	0.	-1.2248e-003
882	13.679	4.8	0.	-1.1117e-003
883	13.877	4.8	0.	-1.0217e-003
884	14.076	4.8	0.	-9.1451e-004
885	14.274	4.8	0.	-8.3661e-004
886	14.473	4.8	0.	-7.8646e-004
887	14.671	4.8	0.	-7.1159e-004
888	14.87	4.8	0.	-6.4283e-004
889	15.068	4.8	0.	-5.8028e-004
890	15.267	4.8	0.	-5.2173e-004
891	15.465	4.8	0.	-4.3882e-004
892	15.664	4.8	0.	-3.5845e-004
893	15.862	4.8	0.	-2.789e-004
894	16.061	4.8	0.	-2.0119e-004
895	16.259	4.8	0.	-9.699e-005
896	16.458	4.8	0.	-4.2001e-006
897	16.656	4.8	0.	7.913e-005
898	16.855	4.8	0.	1.9077e-004
899	17.053	4.8	0.	3.076e-004
900	17.252	4.8	0.	4.2866e-004
901	17.45	4.8	0.	5.5581e-004
902	17.648	4.8	0.	7.1348e-004
903	17.847	4.8	0.	8.7831e-004
904	18.045	4.8	0.	1.0547e-003
905	18.244	4.8	0.	1.2459e-003
906	18.442	4.8	0.	1.4714e-003
907	18.641	4.8	0.	1.7059e-003
908	18.839	4.8	0.	1.9573e-003
909	19.038	4.8	0.	2.2496e-003
910	19.236	4.8	0.	2.5746e-003
911	19.435	4.8	0.	2.9357e-003
912	19.633	4.8	0.	3.3458e-003
913	19.832	4.8	0.	3.8186e-003
914	20.03	4.8	0.	4.3557e-003
915	20.229	4.8	0.	4.9711e-003
916	20.427	4.8	0.	5.6831e-003
917	20.626	4.8	0.	6.5227e-003
918	20.824	4.8	0.	7.5009e-003
919	21.023	4.8	0.	8.6551e-003
920	21.221	4.8	0.	1.0051e-002
921	21.42	4.8	0.	1.1735e-002
922	21.618	4.8	0.	1.3797e-002
923	21.817	4.8	0.	1.6352e-002
924	22.015	4.8	0.	1.9581e-002
925	22.214	4.8	0.	2.3696e-002
926	22.412	4.8	0.	2.9112e-002
927	22.611	4.8	0.	3.6205e-002
928	22.809	4.8	0.	4.6657e-002
929	23.008	4.8	0.	5.9274e-002
930	23.206	4.8	0.	8.893e-002
931	23.405	4.8	0.	9.7914e-002
932	23.603	4.8	0.	0.29117
933	23.802	4.8	0.	5.2328e-002
934	2.3652	4.6	0.	-35.154
935	2.5636	4.6	0.	0.53835
936	2.7621	4.6	0.	-3.4051
937	2.9606	4.6	0.	-3.7869
938	3.1591	4.6	0.	-4.1984
939	3.3576	4.6	0.	-5.5327
940	3.5561	4.6	0.	-11.205
941	3.7545	4.6	0.	-37.509
942	3.953	4.6	0.	-72.144
943	4.1515	4.6	0.	-96.912
944	4.35	4.6	0.	-113.19
945	4.5485	4.6	0.	-123.31
946	4.747	4.6	0.	-128.94
947	4.9455	4.6	0.	-131.23
948	5.1439	4.6	0.	-130.98
949	5.3424	4.6	0.	-128.81
950	5.5409	4.6	0.	-125.19
951	5.7394	4.6	0.	-120.49
952	5.9379	4.6	0.	-115.02
953	6.1364	4.6	0.	-109.03
954	6.3348	4.6	0.	-102.72
955	6.5333	4.6	0.	-96.241
956	6.7318	4.6	0.	-89.735
957	6.9303	4.6	0.	-83.298
958	7.1288	4.6	0.	-77.005
959	7.3273	4.6	0.	-70.914
960	7.5258	4.6	0.	-65.065
961	7.7242	4.6	0.	-59.487
962	7.9227	4.6	0.	-54.196
963	8.1212	4.6	0.	-49.201
964	8.3197	4.6	0.	-44.503
965	8.5182	4.6	0.	-40.099
966	8.7167	4.6	0.	-35.982
967	8.9152	4.6	0.	-32.142
968	9.1136	4.6	0.	-28.568
969	9.3121	4.6	0.	-25.247
970	9.5106	4.6	0.	-22.165
971	9.7091	4.6	0.	-19.307
972	9.9076	4.6	0.	-16.66
973	10.106	4.6	0.	-14.209
974	10.305	4.6	0.	-11.941
975	10.503	4.6	0.	-9.843
976	10.702	4.6	0.	-7.9021
977	10.9	4.6	0.	-6.1066
978	11.098	4.6	0.	-4.445
979	11.297	4.6	0.	-2.9077
980	11.495	4.6	0.	-1.487
981	11.694	4.6	0.	-0.23241
982	11.892	4.6	0.	-1.507e-002
983	12.091	4.6	0.	-6.1775e-003
984	12.289	4.6	0.	-3.4606e-003
985	12.488	4.6	0.	-2.1315e-003
986	12.686	4.6	0.	-1.3545e-003
987	12.885	4.6	0.	-8.481e-004
988	13.083	4.6	0.	-4.9749e-004
989	13.282	4.6	0.	-2.0367e-004
990	13.48	4.6	0.	2.6775e-005
991	13.679	4.6	0.	2.1268e-004
992	13.877	4.6	0.	3.6557e-004
993	14.076	4.6	0.	5.3141e-004
994	14.274	4.6	0.	6.6299e-004
995	14.473	4.6	0.	7.6422e-004
996	14.671	4.6	0.	8.8899e-004
997	14.87	4.6	0.	1.006e-003
998	15.068	4.6	0.	1.1171e-003
999	15.267	4.6	0.	1.226e-003
1000	15.465	4.6	0.	1.3554e-003
1001	15.664	4.6	0.	1.4853e-003
1002	15.862	4.6	0.	1.6141e-003
1003	16.061	4.6	0.	1.7431e-003
1004	16.259	4.6	0.	1.9046e-003
1005	16.458	4.6	0.	2.0528e-003
1006	16.656	4.6	0.	2.1946e-003
1007	16.855	4.6	0.	2.3686e-003
1008	17.053	4.6	0.	2.549e-003
1009	17.252	4.6	0.	2.7379e-003
1010	17.45	4.6	0.	2.9385e-003
1011	17.648	4.6	0.	3.1685e-003
1012	17.847	4.6	0.	3.4159e-003
1013	18.045	4.6	0.	3.6795e-003
1014	18.244	4.6	0.	3.9607e-003
1015	18.442	4.6	0.	4.2835e-003
1016	18.641	4.6	0.	4.6207e-003
1017	18.839	4.6	0.	4.9818e-003
1018	19.038	4.6	0.	5.3947e-003
1019	19.236	4.6	0.	5.8482e-003
1020	19.435	4.6	0.	6.3481e-003
1021	19.633	4.6	0.	6.9033e-003
1022	19.832	4.6	0.	7.5353e-003
1023	20.03	4.6	0.	8.2446e-003
1024	20.229	4.6	0.	9.0458e-003
1025	20.427	4.6	0.	9.9552e-003
1026	20.626	4.6	0.	1.1015e-002
1027	20.824	4.6	0.	1.2226e-002
1028	21.023	4.6	0.	1.3639e-002
1029	21.221	4.6	0.	1.5312e-002
1030	21.42	4.6	0.	1.7299e-002
1031	21.618	4.6	0.	1.9696e-002
1032	21.817	4.6	0.	2.262e-002
1033	22.015	4.6	0.	2.6246e-002
1034	22.214	4.6	0.	3.0807e-002
1035	22.412	4.6	0.	3.6712e-002
1036	22.611	4.6	0.	4.4366e-002
1037	22.809	4.6	0.	5.5465e-002
1038	23.008	4.6	0.	6.8843e-002
1039	23.206	4.6	0.	9.9543e-002
1040	23.405	4.6	0.	0.10972
1041	23.603	4.6	0.	0.30686
1042	23.802	4.6	0.	7.7026e-002
1043	2.3652	4.4	0.	22.802
1044	2.5636	4.4	0.	10.402
1045	2.7621	4.4	0.	-16.005
1046	2.9606	4.4	0.	-3.1925
1047	3.1591	4.4	0.	-8.2219
1048	3.3576	4.4	0.	-21.39
1049	3.5561	4.4	0.	-80.431
1050	3.7545	4.4	0.	-130.91
1051	3.953	4.4	0.	-161.14
1052	4.1515	4.4	0.	-177.79
1053	4.35	4.4	0.	-185.68
1054	4.5485	4.4	0.	-187.78
1055	4.747	4.4	0.	-185.99
1056	4.9455	4.4	0.	-181.54
1057	5.1439	4.4	0.	-175.25
1058	5.3424	4.4	0.	-167.72
1059	5.5409	4.4	0.	-159.36
1060	5.7394	4.4	0.	-150.52
1061	5.9379	4.4	0.	-141.43
1062	6.1364	4.4	0.	-132.28
1063	6.3348	4.4	0.	-123.22
1064	6.5333	4.4	0.	-114.35
1065	6.7318	4.4	0.	-105.77
1066	6.9303	4.4	0.	-97.526
1067	7.1288	4.4	0.	-89.659
1068	7.3273	4.4	0.	-82.193
1069	7.5258	4.4	0.	-75.143
1070	7.7242	4.4	0.	-68.511
1071	7.9227	4.4	0.	-62.293
1072	8.1212	4.4	0.	-56.481
1073	8.3197	4.4	0.	-51.061
1074	8.5182	4.4	0.	-46.018
1075	8.7167	4.4	0.	-41.332
1076	8.9152	4.4	0.	-36.986
1077	9.1136	4.4	0.	-32.96
1078	9.3121	4.4	0.	-29.233
1079	9.5106	4.4	0.	-25.787
1080	9.7091	4.4	0.	-22.602
1081	9.9076	4.4	0.	-19.66
1082	10.106	4.4	0.	-16.944
1083	10.305	4.4	0.	-14.435
1084	10.503	4.4	0.	-12.119
1085	10.702	4.4	0.	-9.9808
1086	10.9	4.4	0.	-8.0058
1087	11.098	4.4	0.	-6.1809
1088	11.297	4.4	0.	-4.4942
1089	11.495	4.4	0.	-2.9343
1090	11.694	4.4	0.	-1.4934
1091	11.892	4.4	0.	-0.21747
1092	12.091	4.4	0.	-1.1906e-002
1093	12.289	4.4	0.	-4.2161e-003
1094	12.488	4.4	0.	-1.7873e-003
1095	12.686	4.4	0.	-5.9788e-004
1096	12.885	4.4	0.	1.1241e-004
1097	13.083	4.4	0.	5.8546e-004
1098	13.282	4.4	0.	9.609e-004
1099	13.48	4.4	0.	1.2508e-003
1100	13.679	4.4	0.	1.4858e-003
1101	13.877	4.4	0.	1.6846e-003
1102	14.076	4.4	0.	1.8889e-003
1103	14.274	4.4	0.	2.0572e-003
1104	14.473	4.4	0.	2.1946e-003
1105	14.671	4.4	0.	2.3537e-003
1106	14.87	4.4	0.	2.5055e-003
1107	15.068	4.4	0.	2.6512e-003
1108	15.267	4.4	0.	2.7925e-003
1109	15.465	4.4	0.	2.9599e-003
1110	15.664	4.4	0.	3.1257e-003
1111	15.862	4.4	0.	3.2932e-003
1112	16.061	4.4	0.	3.4612e-003
1113	16.259	4.4	0.	3.6596e-003
1114	16.458	4.4	0.	3.8521e-003
1115	16.656	4.4	0.	4.0379e-003
1116	16.855	4.4	0.	4.257e-003
1117	17.053	4.4	0.	4.4861e-003
1118	17.252	4.4	0.	4.7246e-003
1119	17.45	4.4	0.	4.9796e-003
1120	17.648	4.4	0.	5.2683e-003
1121	17.847	4.4	0.	5.5718e-003
1122	18.045	4.4	0.	5.8984e-003
1123	18.244	4.4	0.	6.2463e-003
1124	18.442	4.4	0.	6.6379e-003
1125	18.641	4.4	0.	7.0549e-003
1126	18.839	4.4	0.	7.4945e-003
1127	19.038	4.4	0.	7.9923e-003
1128	19.236	4.4	0.	8.5343e-003
1129	19.435	4.4	0.	9.1309e-003
1130	19.633	4.4	0.	9.7886e-003
1131	19.832	4.4	0.	1.0533e-002
1132	20.03	4.4	0.	1.1361e-002
1133	20.229	4.4	0.	1.2289e-002
1134	20.427	4.4	0.	1.3339e-002
1135	20.626	4.4	0.	1.4541e-002
1136	20.824	4.4	0.	1.5918e-002
1137	21.023	4.4	0.	1.75e-002
1138	21.221	4.4	0.	1.9359e-002
1139	21.42	4.4	0.	2.1548e-002
1140	21.618	4.4	0.	2.4157e-002
1141	21.817	4.4	0.	2.7313e-002
1142	22.015	4.4	0.	3.1196e-002
1143	22.214	4.4	0.	3.6034e-002
1144	22.412	4.4	0.	4.2255e-002
1145	22.611	4.4	0.	5.026e-002
1146	22.809	4.4	0.	6.1768e-002
1147	23.008	4.4	0.	7.5642e-002
1148	23.206	4.4	0.	0.10705
1149	23.405	4.4	0.	0.11804
1150	23.603	4.4	0.	0.3181
1151	23.802	4.4	0.	9.5569e-002
1152	2.3652	4.2	0.	-197.52
1153	2.5636	4.2	0.	14.512
1154	2.7621	4.2	0.	-10.652
1155	2.9606	4.2	0.	-9.722
1156	3.1591	4.2	0.	-38.144
1157	3.3576	4.2	0.	-138.31
1158	3.5561	4.2	0.	-207.26
1159	3.7545	4.2	0.	-244.12
1160	3.953	4.2	0.	-261.11
1161	4.1515	4.2	0.	-265.91
1162	4.35	4.2	0.	-263.19
1163	4.5485	4.2	0.	-255.81
1164	4.747	4.2	0.	-245.56
1165	4.9455	4.2	0.	-233.58
1166	5.1439	4.2	0.	-220.66
1167	5.3424	4.2	0.	-207.3
1168	5.5409	4.2	0.	-193.86
1169	5.7394	4.2	0.	-180.58
1170	5.9379	4.2	0.	-167.65
1171	6.1364	4.2	0.	-155.19
1172	6.3348	4.2	0.	-143.26
1173	6.5333	4.2	0.	-131.93
1174	6.7318	4.2	0.	-121.21
1175	6.9303	4.2	0.	-111.13
1176	7.1288	4.2	0.	-101.67
1177	7.3273	4.2	0.	-92.829
1178	7.5258	4.2	0.	-84.586
1179	7.7242	4.2	0.	-76.916
1180	7.9227	4.2	0.	-69.794
1181	8.1212	4.2	0.	-63.192
1182	8.3197	4.2	0.	-57.079
1183	8.5182	4.2	0.	-51.425
1184	8.7167	4.2	0.	-46.202
1185	8.9152	4.2	0.	-41.379
1186	9.1136	4.2	0.	-36.93
1187	9.3121	4.2	0.	-32.827
1188	9.5106	4.2	0.	-29.045
1189	9.7091	4.2	0.	-25.559
1190	9.9076	4.2	0.	-22.348
1191	10.106	4.2	0.	-19.388
1192	10.305	4.2	0.	-16.661
1193	10.503	4.2	0.	-14.148
1194	10.702	4.2	0.	-11.831
1195	10.9	4.2	0.	-9.6949
1196	11.098	4.2	0.	-7.7233
1197	11.297	4.2	0.	-5.9031
1198	11.495	4.2	0.	-4.2213
1199	11.694	4.2	0.	-2.6666
1200	11.892	4.2	0.	-1.2308
1201	12.091	4.2	0.	-6.9848e-002
1202	12.289	4.2	0.	-6.1345e-003
1203	12.488	4.2	0.	-1.4459e-003
1204	12.686	4.2	0.	2.4919e-004
1205	12.885	4.2	0.	1.1388e-003
1206	13.083	4.2	0.	1.6963e-003
1207	13.282	4.2	0.	2.1191e-003
1208	13.48	4.2	0.	2.4425e-003
1209	13.679	4.2	0.	2.7068e-003
1210	13.877	4.2	0.	2.9263e-003
1211	14.076	4.2	0.	3.1526e-003
1212	14.274	4.2	0.	3.342e-003
1213	14.473	4.2	0.	3.5019e-003
1214	14.671	4.2	0.	3.6831e-003
1215	14.87	4.2	0.	3.8575e-003
1216	15.068	4.2	0.	4.0264e-003
1217	15.267	4.2	0.	4.1924e-003
1218	15.465	4.2	0.	4.3849e-003
1219	15.664	4.2	0.	4.5752e-003
1220	15.862	4.2	0.	4.7694e-003
1221	16.061	4.2	0.	4.9698e-003
1222	16.259	4.2	0.	5.1972e-003
1223	16.458	4.2	0.	5.4205e-003
1224	16.656	4.2	0.	5.639e-003
1225	16.855	4.2	0.	5.8918e-003
1226	17.053	4.2	0.	6.155e-003
1227	17.252	4.2	0.	6.4324e-003
1228	17.45	4.2	0.	6.725e-003
1229	17.648	4.2	0.	7.0554e-003
1230	17.847	4.2	0.	7.4046e-003
1231	18.045	4.2	0.	7.7767e-003
1232	18.244	4.2	0.	8.1728e-003
1233	18.442	4.2	0.	8.6157e-003
1234	18.641	4.2	0.	9.0867e-003
1235	18.839	4.2	0.	9.5843e-003
1236	19.038	4.2	0.	1.0144e-002
1237	19.236	4.2	0.	1.0752e-002
1238	19.435	4.2	0.	1.1419e-002
1239	19.633	4.2	0.	1.2152e-002
1240	19.832	4.2	0.	1.2977e-002
1241	20.03	4.2	0.	1.3889e-002
1242	20.229	4.2	0.	1.491e-002
1243	20.427	4.2	0.	1.6054e-002
1244	20.626	4.2	0.	1.7363e-002
1245	20.824	4.2	0.	1.8844e-002
1246	21.023	4.2	0.	2.0548e-002
1247	21.221	4.2	0.	2.2531e-002
1248	21.42	4.2	0.	2.4858e-002
1249	21.618	4.2	0.	2.7616e-002
1250	21.817	4.2	0.	3.093e-002
1251	22.015	4.2	0.	3.4985e-002
1252	22.214	4.2	0.	4.001e-002
1253	22.412	4.2	0.	4.6435e-002
1254	22.611	4.2	0.	5.4678e-002
1255	22.809	4.2	0.	6.6479e-002
1256	23.008	4.2	0.	8.07e-002
1257	23.206	4.2	0.	0.11264
1258	23.405	4.2	0.	0.12424
1259	23.603	4.2	0.	0.32656
1260	23.802	4.2	0.	0.11006
1261	2.3652	4.	0.	-803.86
1262	2.5636	4.	0.	98.692
1263	2.7621	4.	0.	-29.227
1264	2.9606	4.	0.	-69.364
1265	3.1591	4.	0.	-215.12
1266	3.3576	4.	0.	-300.74
1267	3.5561	4.	0.	-344.2
1268	3.7545	4.	0.	-361.43
1269	3.953	4.	0.	-362.76
1270	4.1515	4.	0.	-354.42
1271	4.35	4.	0.	-340.35
1272	4.5485	4.	0.	-323.03
1273	4.747	4.	0.	-304.03
1274	4.9455	4.	0.	-284.37
1275	5.1439	4.	0.	-264.71
1276	5.3424	4.	0.	-245.48
1277	5.5409	4.	0.	-226.94
1278	5.7394	4.	0.	-209.25
1279	5.9379	4.	0.	-192.51
1280	6.1364	4.	0.	-176.77
1281	6.3348	4.	0.	-162.03
1282	6.5333	4.	0.	-148.29
1283	6.7318	4.	0.	-135.5
1284	6.9303	4.	0.	-123.64
1285	7.1288	4.	0.	-112.66
1286	7.3273	4.	0.	-102.51
1287	7.5258	4.	0.	-93.135
1288	7.7242	4.	0.	-84.49
1289	7.9227	4.	0.	-76.522
1290	8.1212	4.	0.	-69.184
1291	8.3197	4.	0.	-62.431
1292	8.5182	4.	0.	-56.217
1293	8.7167	4.	0.	-50.503
1294	8.9152	4.	0.	-45.248
1295	9.1136	4.	0.	-40.417
1296	9.3121	4.	0.	-35.975
1297	9.5106	4.	0.	-31.893
1298	9.7091	4.	0.	-28.139
1299	9.9076	4.	0.	-24.688
1300	10.106	4.	0.	-21.514
1301	10.305	4.	0.	-18.594
1302	10.503	4.	0.	-15.908
1303	10.702	4.	0.	-13.434
1304	10.9	4.	0.	-11.156
1305	11.098	4.	0.	-9.0568
1306	11.297	4.	0.	-7.1204
1307	11.495	4.	0.	-5.3328
1308	11.694	4.	0.	-3.6812
1309	11.892	4.	0.	-2.1541
1310	12.091	4.	0.	-0.74619
1311	12.289	4.	0.	-1.2851e-002
1312	12.488	4.	0.	-1.0789e-003
1313	12.686	4.	0.	1.2162e-003
1314	12.885	4.	0.	2.2253e-003
1315	13.083	4.	0.	2.8105e-003
1316	13.282	4.	0.	3.2412e-003
1317	13.48	4.	0.	3.5665e-003
1318	13.679	4.	0.	3.8325e-003
1319	13.877	4.	0.	4.0566e-003
1320	14.076	4.	0.	4.2902e-003
1321	14.274	4.	0.	4.488e-003
1322	14.473	4.	0.	4.6567e-003
1323	14.671	4.	0.	4.8499e-003
1324	14.87	4.	0.	5.0349e-003
1325	15.068	4.	0.	5.2199e-003
1326	15.267	4.	0.	5.4015e-003
1327	15.465	4.	0.	5.6108e-003
1328	15.664	4.	0.	5.8208e-003
1329	15.862	4.	0.	6.0331e-003
1330	16.061	4.	0.	6.2497e-003
1331	16.259	4.	0.	6.4993e-003
1332	16.458	4.	0.	6.7431e-003
1333	16.656	4.	0.	6.9857e-003
1334	16.855	4.	0.	7.2618e-003
1335	17.053	4.	0.	7.552e-003
1336	17.252	4.	0.	7.8554e-003
1337	17.45	4.	0.	8.1769e-003
1338	17.648	4.	0.	8.5368e-003
1339	17.847	4.	0.	8.9158e-003
1340	18.045	4.	0.	9.3202e-003
1341	18.244	4.	0.	9.753e-003
1342	18.442	4.	0.	1.0235e-002
1343	18.641	4.	0.	1.0741e-002
1344	18.839	4.	0.	1.1281e-002
1345	19.038	4.	0.	1.1884e-002
1346	19.236	4.	0.	1.254e-002
1347	19.435	4.	0.	1.3257e-002
1348	19.633	4.	0.	1.4041e-002
1349	19.832	4.	0.	1.492e-002
1350	20.03	4.	0.	1.5894e-002
1351	20.229	4.	0.	1.6974e-002
1352	20.427	4.	0.	1.819e-002
1353	20.626	4.	0.	1.9568e-002
1354	20.824	4.	0.	2.1131e-002
1355	21.023	4.	0.	2.2913e-002
1356	21.221	4.	0.	2.4983e-002
1357	21.42	4.	0.	2.74e-002
1358	21.618	4.	0.	3.0257e-002
1359	21.817	4.	0.	3.3675e-002
1360	22.015	4.	0.	3.7842e-002
1361	22.214	4.	0.	4.2994e-002
1362	22.412	4.	0.	4.9564e-002
1363	22.611	4.	0.	5.7971e-002
1364	22.809	4.	0.	6.9976e-002
1365	23.008	4.	0.	8.4452e-002
1366	23.206	4.	0.	0.11678
1367	23.405	4.	0.	0.12885
1368	23.603	4.	0.	0.33291
1369	23.802	4.	0.	0.1213
1370	2.3652	3.8	0.	5.2419
1371	2.5636	3.8	0.	45.14
1372	2.7621	3.8	0.	-115.22
1373	2.9606	3.8	0.	-290.74
1374	3.1591	3.8	0.	-396.6
1375	3.3576	3.8	0.	-449.32
1376	3.5561	3.8	0.	-469.83
1377	3.7545	3.8	0.	-469.64
1378	3.953	3.8	0.	-456.75
1379	4.1515	3.8	0.	-436.29
1380	4.35	3.8	0.	-411.64
1381	4.5485	3.8	0.	-384.99
1382	4.747	3.8	0.	-357.77
1383	4.9455	3.8	0.	-330.89
1384	5.1439	3.8	0.	-304.91
1385	5.3424	3.8	0.	-280.18
1386	5.5409	3.8	0.	-256.88
1387	5.7394	3.8	0.	-235.08
1388	5.9379	3.8	0.	-214.82
1389	6.1364	3.8	0.	-196.05
1390	6.3348	3.8	0.	-178.73
1391	6.5333	3.8	0.	-162.77
1392	6.7318	3.8	0.	-148.1
1393	6.9303	3.8	0.	-134.62
1394	7.1288	3.8	0.	-122.26
1395	7.3273	3.8	0.	-110.93
1396	7.5258	3.8	0.	-100.54
1397	7.7242	3.8	0.	-91.023
1398	7.9227	3.8	0.	-82.304
1399	8.1212	3.8	0.	-74.317
1400	8.3197	3.8	0.	-66.999
1401	8.5182	3.8	0.	-60.296
1402	8.7167	3.8	0.	-54.152
1403	8.9152	3.8	0.	-48.522
1404	9.1136	3.8	0.	-43.361
1405	9.3121	3.8	0.	-38.629
1406	9.5106	3.8	0.	-34.288
1407	9.7091	3.8	0.	-30.305
1408	9.9076	3.8	0.	-26.65
1409	10.106	3.8	0.	-23.294
1410	10.305	3.8	0.	-20.211
1411	10.503	3.8	0.	-17.377
1412	10.702	3.8	0.	-14.772
1413	10.9	3.8	0.	-12.375
1414	11.098	3.8	0.	-10.168
1415	11.297	3.8	0.	-8.1338
1416	11.495	3.8	0.	-6.2576
1417	11.694	3.8	0.	-4.5253
1418	11.892	3.8	0.	-2.924
1419	12.091	3.8	0.	-1.4429
1420	12.289	3.8	0.	-0.11889
1421	12.488	3.8	0.	-6.2837e-004
1422	12.686	3.8	0.	2.323e-003
1423	12.885	3.8	0.	3.3393e-003
1424	13.083	3.8	0.	3.8869e-003
1425	13.282	3.8	0.	4.282e-003
1426	13.48	3.8	0.	4.5826e-003
1427	13.679	3.8	0.	4.8314e-003
1428	13.877	3.8	0.	5.0456e-003
1429	14.076	3.8	0.	5.273e-003
1430	14.274	3.8	0.	5.4685e-003
1431	14.473	3.8	0.	5.6389e-003
1432	14.671	3.8	0.	5.8354e-003
1433	14.87	3.8	0.	6.0271e-003
1434	15.068	3.8	0.	6.2179e-003
1435	15.267	3.8	0.	6.4075e-003
1436	15.465	3.8	0.	6.6253e-003
1437	15.664	3.8	0.	6.8476e-003
1438	15.862	3.8	0.	7.072e-003
1439	16.061	3.8	0.	7.3035e-003
1440	16.259	3.8	0.	7.5647e-003
1441	16.458	3.8	0.	7.8254e-003
1442	16.656	3.8	0.	8.0789e-003
1443	16.855	3.8	0.	8.3772e-003
1444	17.053	3.8	0.	8.683e-003
1445	17.252	3.8	0.	9.006e-003
1446	17.45	3.8	0.	9.3463e-003
1447	17.648	3.8	0.	9.7274e-003
1448	17.847	3.8	0.	1.0128e-002
1449	18.045	3.8	0.	1.0557e-002
1450	18.244	3.8	0.	1.1011e-002
1451	18.442	3.8	0.	1.1518e-002
1452	18.641	3.8	0.	1.2053e-002
1453	18.839	3.8	0.	1.2623e-002
1454	19.038	3.8	0.	1.3256e-002
1455	19.236	3.8	0.	1.3944e-002
1456	19.435	3.8	0.	1.4695e-002
1457	19.633	3.8	0.	1.5516e-002
1458	19.832	3.8	0.	1.6435e-002
1459	20.03	3.8	0.	1.7447e-002
1460	20.229	3.8	0.	1.8576e-002
1461	20.427	3.8	0.	1.9834e-002
1462	20.626	3.8	0.	2.1262e-002
1463	20.824	3.8	0.	2.2875e-002
1464	21.023	3.8	0.	2.4711e-002
1465	21.221	3.8	0.	2.6844e-002
1466	21.42	3.8	0.	2.9324e-002
1467	21.618	3.8	0.	3.2245e-002
1468	21.817	3.8	0.	3.5733e-002
1469	22.015	3.8	0.	3.998e-002
1470	22.214	3.8	0.	4.5216e-002
1471	22.412	3.8	0.	5.1885e-002
1472	22.611	3.8	0.	6.0408e-002
1473	22.809	3.8	0.	7.256e-002
1474	23.008	3.8	0.	8.7224e-002
1475	23.206	3.8	0.	0.11984
1476	23.405	3.8	0.	0.13226
1477	23.603	3.8	0.	0.33766
1478	23.802	3.8	0.	0.12993
1479	2.3652	3.6	0.	-22.267
1480	2.5636	3.6	0.	-27.011
1481	2.7621	3.6	0.	-262.85
1482	2.9606	3.6	0.	-430.4
1483	3.1591	3.6	0.	-520.19
1484	3.3576	3.6	0.	-560.57
1485	3.5561	3.6	0.	-569.38
1486	3.7545	3.6	0.	-558.34
1487	3.953	3.6	0.	-535.28
1488	4.1515	3.6	0.	-505.39
1489	4.35	3.6	0.	-472.09
1490	4.5485	3.6	0.	-437.62
1491	4.747	3.6	0.	-403.4
1492	4.9455	3.6	0.	-370.33
1493	5.1439	3.6	0.	-338.93
1494	5.3424	3.6	0.	-309.47
1495	5.5409	3.6	0.	-282.07
1496	5.7394	3.6	0.	-256.76
1497	5.9379	3.6	0.	-233.47
1498	6.1364	3.6	0.	-212.13
1499	6.3348	3.6	0.	-192.6
1500	6.5333	3.6	0.	-174.76
1501	6.7318	3.6	0.	-158.49
1502	6.9303	3.6	0.	-143.65
1503	7.1288	3.6	0.	-130.13
1504	7.3273	3.6	0.	-117.8
1505	7.5258	3.6	0.	-106.57
1506	7.7242	3.6	0.	-96.326
1507	7.9227	3.6	0.	-86.983
1508	8.1212	3.6	0.	-78.459
1509	8.3197	3.6	0.	-70.677
1510	8.5182	3.6	0.	-63.57
1511	8.7167	3.6	0.	-57.077
1512	8.9152	3.6	0.	-51.14
1513	9.1136	3.6	0.	-45.711
1514	9.3121	3.6	0.	-40.742
1515	9.5106	3.6	0.	-36.193
1516	9.7091	3.6	0.	-32.026
1517	9.9076	3.6	0.	-28.206
1518	10.106	3.6	0.	-24.704
1519	10.305	3.6	0.	-21.49
1520	10.503	3.6	0.	-18.54
1521	10.702	3.6	0.	-15.829
1522	10.9	3.6	0.	-13.337
1523	11.098	3.6	0.	-11.044
1524	11.297	3.6	0.	-8.933
1525	11.495	3.6	0.	-6.9866
1526	11.694	3.6	0.	-5.1905
1527	11.892	3.6	0.	-3.5308
1528	12.091	3.6	0.	-1.9955
1529	12.289	3.6	0.	-0.5764
1530	12.488	3.6	0.	4.5366e-005
1531	12.686	3.6	0.	3.5473e-003
1532	12.885	3.6	0.	4.4184e-003
1533	13.083	3.6	0.	4.8619e-003
1534	13.282	3.6	0.	5.1884e-003
1535	13.48	3.6	0.	5.4463e-003
1536	13.679	3.6	0.	5.6657e-003
1537	13.877	3.6	0.	5.8581e-003
1538	14.076	3.6	0.	6.0731e-003
1539	14.274	3.6	0.	6.2612e-003
1540	14.473	3.6	0.	6.4257e-003
1541	14.671	3.6	0.	6.6202e-003
1542	14.87	3.6	0.	6.8133e-003
1543	15.068	3.6	0.	7.0068e-003
1544	15.267	3.6	0.	7.2004e-003
1545	15.465	3.6	0.	7.4242e-003
1546	15.664	3.6	0.	7.6513e-003
1547	15.862	3.6	0.	7.8841e-003
1548	16.061	3.6	0.	8.1198e-003
1549	16.259	3.6	0.	8.3944e-003
1550	16.458	3.6	0.	8.6633e-003
1551	16.656	3.6	0.	8.9306e-003
1552	16.855	3.6	0.	9.2346e-003
1553	17.053	3.6	0.	9.5542e-003
1554	17.252	3.6	0.	9.8892e-003
1555	17.45	3.6	0.	1.0244e-002
1556	17.648	3.6	0.	1.0637e-002
1557	17.847	3.6	0.	1.1054e-002
1558	18.045	3.6	0.	1.1497e-002
1559	18.244	3.6	0.	1.197e-002
1560	18.442	3.6	0.	1.2494e-002
1561	18.641	3.6	0.	1.3048e-002
1562	18.839	3.6	0.	1.3637e-002
1563	19.038	3.6	0.	1.429e-002
1564	19.236	3.6	0.	1.4998e-002
1565	19.435	3.6	0.	1.5772e-002
1566	19.633	3.6	0.	1.6619e-002
1567	19.832	3.6	0.	1.7563e-002
1568	20.03	3.6	0.	1.8606e-002
1569	20.229	3.6	0.	1.976e-002
1570	20.427	3.6	0.	2.1054e-002
1571	20.626	3.6	0.	2.2513e-002
1572	20.824	3.6	0.	2.4162e-002
1573	21.023	3.6	0.	2.6033e-002
1574	21.221	3.6	0.	2.8206e-002
1575	21.42	3.6	0.	3.0723e-002
1576	21.618	3.6	0.	3.369e-002
1577	21.817	3.6	0.	3.7226e-002
1578	22.015	3.6	0.	4.1523e-002
1579	22.214	3.6	0.	4.682e-002
1580	22.412	3.6	0.	5.3556e-002
1581	22.611	3.6	0.	6.2158e-002
1582	22.809	3.6	0.	7.4418e-002
1583	23.008	3.6	0.	8.9212e-002
1584	23.206	3.6	0.	0.12204
1585	23.405	3.6	0.	0.13471
1586	23.603	3.6	0.	0.34111
1587	23.802	3.6	0.	0.13633
1588	2.3652	3.4	0.	5.4618
1589	2.5636	3.4	0.	-27.304
1590	2.7621	3.4	0.	-297.22
1591	2.9606	3.4	0.	-483.28
1592	3.1591	3.4	0.	-585.01
1593	3.3576	3.4	0.	-629.58
1594	3.5561	3.4	0.	-637.23
1595	3.7545	3.4	0.	-622.
1596	3.953	3.4	0.	-593.28
1597	4.1515	3.4	0.	-557.22
1598	4.35	3.4	0.	-517.81
1599	4.5485	3.4	0.	-477.58
1600	4.747	3.4	0.	-438.1
1601	4.9455	3.4	0.	-400.32
1602	5.1439	3.4	0.	-364.76
1603	5.3424	3.4	0.	-331.67
1604	5.5409	3.4	0.	-301.14
1605	5.7394	3.4	0.	-273.13
1606	5.9379	3.4	0.	-247.53
1607	6.1364	3.4	0.	-224.21
1608	6.3348	3.4	0.	-203.
1609	6.5333	3.4	0.	-183.73
1610	6.7318	3.4	0.	-166.25
1611	6.9303	3.4	0.	-150.38
1612	7.1288	3.4	0.	-135.97
1613	7.3273	3.4	0.	-122.9
1614	7.5258	3.4	0.	-111.03
1615	7.7242	3.4	0.	-100.24
1616	7.9227	3.4	0.	-90.427
1617	8.1212	3.4	0.	-81.501
1618	8.3197	3.4	0.	-73.373
1619	8.5182	3.4	0.	-65.967
1620	8.7167	3.4	0.	-59.213
1621	8.9152	3.4	0.	-53.05
1622	9.1136	3.4	0.	-47.422
1623	9.3121	3.4	0.	-42.279
1624	9.5106	3.4	0.	-37.577
1625	9.7091	3.4	0.	-33.274
1626	9.9076	3.4	0.	-29.335
1627	10.106	3.4	0.	-25.725
1628	10.305	3.4	0.	-22.416
1629	10.503	3.4	0.	-19.381
1630	10.702	3.4	0.	-16.593
1631	10.9	3.4	0.	-14.032
1632	11.098	3.4	0.	-11.677
1633	11.297	3.4	0.	-9.5099
1634	11.495	3.4	0.	-7.5126
1635	11.694	3.4	0.	-5.6703
1636	11.892	3.4	0.	-3.9685
1637	12.091	3.4	0.	-2.3944
1638	12.289	3.4	0.	-0.93666
1639	12.488	3.4	0.	1.2722e-003
1640	12.686	3.4	0.	4.769e-003
1641	12.885	3.4	0.	5.3521e-003
1642	13.083	3.4	0.	5.6526e-003
1643	13.282	3.4	0.	5.9003e-003
1644	13.48	3.4	0.	6.1068e-003
1645	13.679	3.4	0.	6.2917e-003
1646	13.877	3.4	0.	6.4654e-003
1647	14.076	3.4	0.	6.6643e-003
1648	14.274	3.4	0.	6.8433e-003
1649	14.473	3.4	0.	7.0028e-003
1650	14.671	3.4	0.	7.1938e-003
1651	14.87	3.4	0.	7.3846e-003
1652	15.068	3.4	0.	7.5776e-003
1653	15.267	3.4	0.	7.7732e-003
1654	15.465	3.4	0.	7.9991e-003
1655	15.664	3.4	0.	8.229e-003
1656	15.862	3.4	0.	8.4652e-003
1657	16.061	3.4	0.	8.708e-003
1658	16.259	3.4	0.	8.9863e-003
1659	16.458	3.4	0.	9.2602e-003
1660	16.656	3.4	0.	9.5345e-003
1661	16.855	3.4	0.	9.8456e-003
1662	17.053	3.4	0.	1.0173e-002
1663	17.252	3.4	0.	1.0516e-002
1664	17.45	3.4	0.	1.0877e-002
1665	17.648	3.4	0.	1.1279e-002
1666	17.847	3.4	0.	1.1706e-002
1667	18.045	3.4	0.	1.2159e-002
1668	18.244	3.4	0.	1.2641e-002
1669	18.442	3.4	0.	1.3177e-002
1670	18.641	3.4	0.	1.3743e-002
1671	18.839	3.4	0.	1.4343e-002
1672	19.038	3.4	0.	1.5011e-002
1673	19.236	3.4	0.	1.5735e-002
1674	19.435	3.4	0.	1.6521e-002
1675	19.633	3.4	0.	1.7385e-002
1676	19.832	3.4	0.	1.8347e-002
1677	20.03	3.4	0.	1.9407e-002
1678	20.229	3.4	0.	2.058e-002
1679	20.427	3.4	0.	2.1891e-002
1680	20.626	3.4	0.	2.3374e-002
1681	20.824	3.4	0.	2.5044e-002
1682	21.023	3.4	0.	2.6941e-002
1683	21.221	3.4	0.	2.9135e-002
1684	21.42	3.4	0.	3.168e-002
1685	21.618	3.4	0.	3.4675e-002
1686	21.817	3.4	0.	3.8238e-002
1687	22.015	3.4	0.	4.2569e-002
1688	22.214	3.4	0.	4.7902e-002
1689	22.412	3.4	0.	5.4682e-002
1690	22.611	3.4	0.	6.334e-002
1691	22.809	3.4	0.	7.5669e-002
1692	23.008	3.4	0.	9.0554e-002
1693	23.206	3.4	0.	0.12352
1694	23.405	3.4	0.	0.13638
1695	23.603	3.4	0.	0.34345
1696	23.802	3.4	0.	0.14075
1697	2.3652	3.2	0.	-2.9064
1698	2.5636	3.2	0.	-36.922
1699	2.7621	3.2	0.	-300.65
1700	2.9606	3.2	0.	-495.76
1701	3.1591	3.2	0.	-611.24
1702	3.3576	3.2	0.	-664.29
1703	3.5561	3.2	0.	-675.1
1704	3.7545	3.2	0.	-659.49
1705	3.953	3.2	0.	-628.44
1706	4.1515	3.2	0.	-589.13
1707	4.35	3.2	0.	-546.19
1708	4.5485	3.2	0.	-502.48
1709	4.747	3.2	0.	-459.76
1710	4.9455	3.2	0.	-419.05
1711	5.1439	3.2	0.	-380.89
1712	5.3424	3.2	0.	-345.53
1713	5.5409	3.2	0.	-313.03
1714	5.7394	3.2	0.	-283.32
1715	5.9379	3.2	0.	-256.27
1716	6.1364	3.2	0.	-231.71
1717	6.3348	3.2	0.	-209.45
1718	6.5333	3.2	0.	-189.29
1719	6.7318	3.2	0.	-171.04
1720	6.9303	3.2	0.	-154.52
1721	7.1288	3.2	0.	-139.57
1722	7.3273	3.2	0.	-126.03
1723	7.5258	3.2	0.	-113.76
1724	7.7242	3.2	0.	-102.64
1725	7.9227	3.2	0.	-92.536
1726	8.1212	3.2	0.	-83.361
1727	8.3197	3.2	0.	-75.019
1728	8.5182	3.2	0.	-67.428
1729	8.7167	3.2	0.	-60.514
1730	8.9152	3.2	0.	-54.212
1731	9.1136	3.2	0.	-48.462
1732	9.3121	3.2	0.	-43.213
1733	9.5106	3.2	0.	-38.417
1734	9.7091	3.2	0.	-34.031
1735	9.9076	3.2	0.	-30.019
1736	10.106	3.2	0.	-26.344
1737	10.305	3.2	0.	-22.977
1738	10.503	3.2	0.	-19.889
1739	10.702	3.2	0.	-17.055
1740	10.9	3.2	0.	-14.453
1741	11.098	3.2	0.	-12.06
1742	11.297	3.2	0.	-9.8584
1743	11.495	3.2	0.	-7.8303
1744	11.694	3.2	0.	-5.9601
1745	11.892	3.2	0.	-4.2328
1746	12.091	3.2	0.	-2.6353
1747	12.289	3.2	0.	-1.1555
1748	12.488	3.2	0.	3.6974e-003
1749	12.686	3.2	0.	5.7281e-003
1750	12.885	3.2	0.	5.9982e-003
1751	13.083	3.2	0.	6.1726e-003
1752	13.282	3.2	0.	6.3553e-003
1753	13.48	3.2	0.	6.5234e-003
1754	13.679	3.2	0.	6.6843e-003
1755	13.877	3.2	0.	6.841e-003
1756	14.076	3.2	0.	7.0293e-003
1757	14.274	3.2	0.	7.1993e-003
1758	14.473	3.2	0.	7.3542e-003
1759	14.671	3.2	0.	7.5425e-003
1760	14.87	3.2	0.	7.7306e-003
1761	15.068	3.2	0.	7.9236e-003
1762	15.267	3.2	0.	8.1184e-003
1763	15.465	3.2	0.	8.3466e-003
1764	15.664	3.2	0.	8.5771e-003
1765	15.862	3.2	0.	8.8146e-003
1766	16.061	3.2	0.	9.0591e-003
1767	16.259	3.2	0.	9.3414e-003
1768	16.458	3.2	0.	9.6181e-003
1769	16.656	3.2	0.	9.8943e-003
1770	16.855	3.2	0.	1.0211e-002
1771	17.053	3.2	0.	1.054e-002
1772	17.252	3.2	0.	1.089e-002
1773	17.45	3.2	0.	1.1254e-002
1774	17.648	3.2	0.	1.1662e-002
1775	17.847	3.2	0.	1.2093e-002
1776	18.045	3.2	0.	1.2551e-002
1777	18.244	3.2	0.	1.3041e-002
1778	18.442	3.2	0.	1.3582e-002
1779	18.641	3.2	0.	1.4154e-002
1780	18.839	3.2	0.	1.4759e-002
1781	19.038	3.2	0.	1.5437e-002
1782	19.236	3.2	0.	1.6167e-002
1783	19.435	3.2	0.	1.6965e-002
1784	19.633	3.2	0.	1.7835e-002
1785	19.832	3.2	0.	1.8806e-002
1786	20.03	3.2	0.	1.9876e-002
1787	20.229	3.2	0.	2.1058e-002
1788	20.427	3.2	0.	2.2383e-002
1789	20.626	3.2	0.	2.3874e-002
1790	20.824	3.2	0.	2.5558e-002
1791	21.023	3.2	0.	2.747e-002
1792	21.221	3.2	0.	2.9676e-002
1793	21.42	3.2	0.	3.2235e-002
1794	21.618	3.2	0.	3.5245e-002
1795	21.817	3.2	0.	3.8828e-002
1796	22.015	3.2	0.	4.3176e-002
1797	22.214	3.2	0.	4.8527e-002
1798	22.412	3.2	0.	5.5335e-002
1799	22.611	3.2	0.	6.4023e-002
1800	22.809	3.2	0.	7.6388e-002
1801	23.008	3.2	0.	9.1329e-002
1802	23.206	3.2	0.	0.12438
1803	23.405	3.2	0.	0.13734
1804	23.603	3.2	0.	0.34481
1805	23.802	3.2	0.	0.14334
1806	2.3652	3.	0.	2.0097
1807	2.5636	3.	0.	-40.072
1808	2.7621	3.	0.	-299.46
1809	2.9606	3.	0.	-497.36
1810	3.1591	3.	0.	-617.73
1811	3.3576	3.	0.	-674.5
1812	3.5561	3.	0.	-687.08
1813	3.7545	3.	0.	-671.78
1814	3.953	3.	0.	-640.16
1815	4.1515	3.	0.	-599.88
1816	4.35	3.	0.	-555.8
1817	4.5485	3.	0.	-510.94
1818	4.747	3.	0.	-467.13
1819	4.9455	3.	0.	-425.42
1820	5.1439	3.	0.	-386.37
1821	5.3424	3.	0.	-350.24
1822	5.5409	3.	0.	-317.07
1823	5.7394	3.	0.	-286.78
1824	5.9379	3.	0.	-259.24
1825	6.1364	3.	0.	-234.25
1826	6.3348	3.	0.	-211.63
1827	6.5333	3.	0.	-191.17
1828	6.7318	3.	0.	-172.66
1829	6.9303	3.	0.	-155.93
1830	7.1288	3.	0.	-140.79
1831	7.3273	3.	0.	-127.09
1832	7.5258	3.	0.	-114.69
1833	7.7242	3.	0.	-103.44
1834	7.9227	3.	0.	-93.246
1835	8.1212	3.	0.	-83.987
1836	8.3197	3.	0.	-75.573
1837	8.5182	3.	0.	-67.919
1838	8.7167	3.	0.	-60.951
1839	8.9152	3.	0.	-54.602
1840	9.1136	3.	0.	-48.811
1841	9.3121	3.	0.	-43.526
1842	9.5106	3.	0.	-38.699
1843	9.7091	3.	0.	-34.285
1844	9.9076	3.	0.	-30.248
1845	10.106	3.	0.	-26.551
1846	10.305	3.	0.	-23.165
1847	10.503	3.	0.	-20.06
1848	10.702	3.	0.	-17.21
1849	10.9	3.	0.	-14.593
1850	11.098	3.	0.	-12.188
1851	11.297	3.	0.	-9.975
1852	11.495	3.	0.	-7.9366
1853	11.694	3.	0.	-6.057
1854	11.892	3.	0.	-4.3211
1855	12.091	3.	0.	-2.7159
1856	12.289	3.	0.	-1.2288
1857	12.488	3.	0.	5.9675e-003
1858	12.686	3.	0.	6.1009e-003
1859	12.885	3.	0.	6.2293e-003
1860	13.083	3.	0.	6.3544e-003
1861	13.282	3.	0.	6.5131e-003
1862	13.48	3.	0.	6.6655e-003
1863	13.679	3.	0.	6.8185e-003
1864	13.877	3.	0.	6.9681e-003
1865	14.076	3.	0.	7.1517e-003
1866	14.274	3.	0.	7.3189e-003
1867	14.473	3.	0.	7.4721e-003
1868	14.671	3.	0.	7.6579e-003
1869	14.87	3.	0.	7.8483e-003
1870	15.068	3.	0.	8.0389e-003
1871	15.267	3.	0.	8.2332e-003
1872	15.465	3.	0.	8.4607e-003
1873	15.664	3.	0.	8.6914e-003
1874	15.862	3.	0.	8.9323e-003
1875	16.061	3.	0.	9.1789e-003
1876	16.259	3.	0.	9.4573e-003
1877	16.458	3.	0.	9.7382e-003
1878	16.656	3.	0.	1.0016e-002
1879	16.855	3.	0.	1.0332e-002
1880	17.053	3.	0.	1.0666e-002
1881	17.252	3.	0.	1.1011e-002
1882	17.45	3.	0.	1.138e-002
1883	17.648	3.	0.	1.179e-002
1884	17.847	3.	0.	1.2222e-002
1885	18.045	3.	0.	1.2682e-002
1886	18.244	3.	0.	1.3172e-002
1887	18.442	3.	0.	1.3717e-002
1888	18.641	3.	0.	1.4289e-002
1889	18.839	3.	0.	1.4898e-002
1890	19.038	3.	0.	1.5574e-002
1891	19.236	3.	0.	1.6313e-002
1892	19.435	3.	0.	1.7109e-002
1893	19.633	3.	0.	1.7983e-002
1894	19.832	3.	0.	1.8959e-002
1895	20.03	3.	0.	2.0031e-002
1896	20.229	3.	0.	2.1216e-002
1897	20.427	3.	0.	2.2546e-002
1898	20.626	3.	0.	2.4043e-002
1899	20.824	3.	0.	2.573e-002
1900	21.023	3.	0.	2.7642e-002
1901	21.221	3.	0.	2.9852e-002
1902	21.42	3.	0.	3.2418e-002
1903	21.618	3.	0.	3.5431e-002
1904	21.817	3.	0.	3.902e-002
1905	22.015	3.	0.	4.3372e-002
1906	22.214	3.	0.	4.8733e-002
1907	22.412	3.	0.	5.5546e-002
1908	22.611	3.	0.	6.4245e-002
1909	22.809	3.	0.	7.6628e-002
1910	23.008	3.	0.	9.1582e-002
1911	23.206	3.	0.	0.12466
1912	23.405	3.	0.	0.13765
1913	23.603	3.	0.	0.34526
1914	23.802	3.	0.	0.14419
1915	2.3652	2.8	0.	-2.9064
1916	2.5636	2.8	0.	-36.922
1917	2.7621	2.8	0.	-300.65
1918	2.9606	2.8	0.	-495.76
1919	3.1591	2.8	0.	-611.24
1920	3.3576	2.8	0.	-664.29
1921	3.5561	2.8	0.	-675.1
1922	3.7545	2.8	0.	-659.49
1923	3.953	2.8	0.	-628.44
1924	4.1515	2.8	0.	-589.13
1925	4.35	2.8	0.	-546.19
1926	4.5485	2.8	0.	-502.48
1927	4.747	2.8	0.	-459.76
1928	4.9455	2.8	0.	-419.05
1929	5.1439	2.8	0.	-380.89
1930	5.3424	2.8	0.	-345.53
1931	5.5409	2.8	0.	-313.03
1932	5.7394	2.8	0.	-283.32
1933	5.9379	2.8	0.	-256.27
1934	6.1364	2.8	0.	-231.71
1935	6.3348	2.8	0.	-209.45
1936	6.5333	2.8	0.	-189.29
1937	6.7318	2.8	0.	-171.04
1938	6.9303	2.8	0.	-154.52
1939	7.1288	2.8	0.	-139.57
1940	7.3273	2.8	0.	-126.03
1941	7.5258	2.8	0.	-113.76
1942	7.7242	2.8	0.	-102.64
1943	7.9227	2.8	0.	-92.536
1944	8.1212	2.8	0.	-83.361
1945	8.3197	2.8	0.	-75.019
1946	8.5182	2.8	0.	-67.428
1947	8.7167	2.8	0.	-60.514
1948	8.9152	2.8	0.	-54.212
1949	9.1136	2.8	0.	-48.462
1950	9.3121	2.8	0.	-43.213
1951	9.5106	2.8	0.	-38.417
1952	9.7091	2.8	0.	-34.031
1953	9.9076	2.8	0.	-30.019
1954	10.106	2.8	0.	-26.344
1955	10.305	2.8	0.	-22.977
1956	10.503	2.8	0.	-19.889
1957	10.702	2.8	0.	-17.055
1958	10.9	2.8	0.	-14.453
1959	11.098	2.8	0.	-12.06
1960	11.297	2.8	0.	-9.8584
1961	11.495	2.8	0.	-7.8303
1962	11.694	2.8	0.	-5.9601
1963	11.892	2.8	0.	-4.2328
1964	12.091	2.8	0.	-2.6353
1965	12.289	2.8	0.	-1.1555
1966	12.488	2.8	0.	3.6972e-003
1967	12.686	2.8	0.	5.7285e-003
1968	12.885	2.8	0.	5.9977e-003
1969	13.083	2.8	0.	6.1734e-003
1970	13.282	2.8	0.	6.3548e-003
1971	13.48	2.8	0.	6.5243e-003
1972	13.679	2.8	0.	6.6848e-003
1973	13.877	2.8	0.	6.8409e-003
1974	14.076	2.8	0.	7.0296e-003
1975	14.274	2.8	0.	7.1992e-003
1976	14.473	2.8	0.	7.3539e-003
1977	14.671	2.8	0.	7.5422e-003
1978	14.87	2.8	0.	7.7306e-003
1979	15.068	2.8	0.	7.9231e-003
1980	15.267	2.8	0.	8.1191e-003
1981	15.465	2.8	0.	8.3455e-003
1982	15.664	2.8	0.	8.5783e-003
1983	15.862	2.8	0.	8.8138e-003
1984	16.061	2.8	0.	9.061e-003
1985	16.259	2.8	0.	9.3405e-003
1986	16.458	2.8	0.	9.619e-003
1987	16.656	2.8	0.	9.8951e-003
1988	16.855	2.8	0.	1.0211e-002
1989	17.053	2.8	0.	1.0541e-002
1990	17.252	2.8	0.	1.0889e-002
1991	17.45	2.8	0.	1.1255e-002
1992	17.648	2.8	0.	1.1662e-002
1993	17.847	2.8	0.	1.2093e-002
1994	18.045	2.8	0.	1.2551e-002
1995	18.244	2.8	0.	1.304e-002
1996	18.442	2.8	0.	1.3582e-002
1997	18.641	2.8	0.	1.4154e-002
1998	18.839	2.8	0.	1.4761e-002
1999	19.038	2.8	0.	1.5437e-002
2000	19.236	2.8	0.	1.6166e-002
2001	19.435	2.8	0.	1.6965e-002
2002	19.633	2.8	0.	1.7834e-002
2003	19.832	2.8	0.	1.8806e-002
2004	20.03	2.8	0.	1.9876e-002
2005	20.229	2.8	0.	2.1059e-002
2006	20.427	2.8	0.	2.2382e-002
2007	20.626	2.8	0.	2.3876e-002
2008	20.824	2.8	0.	2.5559e-002
2009	21.023	2.8	0.	2.7469e-002
2010	21.221	2.8	0.	2.9675e-002
2011	21.42	2.8	0.	3.2236e-002
2012	21.618	2.8	0.	3.5245e-002
2013	21.817	2.8	0.	3.8826e-002
2014	22.015	2.8	0.	4.3174e-002
2015	22.214	2.8	0.	4.8529e-002
2016	22.412	2.8	0.	5.5336e-002
2017	22.611	2.8	0.	6.4022e-002
2018	22.809	2.8	0.	7.6392e-002
2019	23.008	2.8	0.	9.1329e-002
2020	23.206	2.8	0.	0.12438
2021	23.405	2.8	0.	0.13734
2022	23.603	2.8	0.	0.34481
2023	23.802	2.8	0.	0.14334
2024	2.3652	2.6	0.	5.4617
2025	2.5636	2.6	0.	-27.305
2026	2.7621	2.6	0.	-297.22
2027	2.9606	2.6	0.	-483.28
2028	3.1591	2.6	0.	-585.01
2029	3.3576	2.6	0.	-629.58
2030	3.5561	2.6	0.	-637.23
2031	3.7545	2.6	0.	-622.
2032	3.953	2.6	0.	-593.28
2033	4.1515	2.6	0.	-557.22
2034	4.35	2.6	0.	-517.81
2035	4.5485	2.6	0.	-477.58
2036	4.747	2.6	0.	-438.1
2037	4.9455	2.6	0.	-400.32
2038	5.1439	2.6	0.	-364.76
2039	5.3424	2.6	0.	-331.67
2040	5.5409	2.6	0.	-301.14
2041	5.7394	2.6	0.	-273.13
2042	5.9379	2.6	0.	-247.53
2043	6.1364	2.6	0.	-224.21
2044	6.3348	2.6	0.	-203.
2045	6.5333	2.6	0.	-183.73
2046	6.7318	2.6	0.	-166.25
2047	6.9303	2.6	0.	-150.38
2048	7.1288	2.6	0.	-135.97
2049	7.3273	2.6	0.	-122.9
2050	7.5258	2.6	0.	-111.03
2051	7.7242	2.6	0.	-100.24
2052	7.9227	2.6	0.	-90.427
2053	8.1212	2.6	0.	-81.501
2054	8.3197	2.6	0.	-73.373
2055	8.5182	2.6	0.	-65.967
2056	8.7167	2.6	0.	-59.213
2057	8.9152	2.6	0.	-53.05
2058	9.1136	2.6	0.	-47.422
2059	9.3121	2.6	0.	-42.279
2060	9.5106	2.6	0.	-37.577
2061	9.7091	2.6	0.	-33.274
2062	9.9076	2.6	0.	-29.335
2063	10.106	2.6	0.	-25.725
2064	10.305	2.6	0.	-22.416
2065	10.503	2.6	0.	-19.381
2066	10.702	2.6	0.	-16.593
2067	10.9	2.6	0.	-14.032
2068	11.098	2.6	0.	-11.677
2069	11.297	2.6	0.	-9.5099
2070	11.495	2.6	0.	-7.5126
2071	11.694	2.6	0.	-5.6703
2072	11.892	2.6	0.	-3.9685
2073	12.091	2.6	0.	-2.3944
2074	12.289	2.6	0.	-0.93666
2075	12.488	2.6	0.	1.2723e-003
2076	12.686	2.6	0.	4.7687e-003
2077	12.885	2.6	0.	5.3525e-003
2078	13.083	2.6	0.	5.6524e-003
2079	13.282	2.6	0.	5.8989e-003
2080	13.48	2.6	0.	6.1075e-003
2081	13.679	2.6	0.	6.2931e-003
2082	13.877	2.6	0.	6.4649e-003
2083	14.076	2.6	0.	6.6661e-003
2084	14.274	2.6	0.	6.8428e-003
2085	14.473	2.6	0.	7.0021e-003
2086	14.671	2.6	0.	7.194e-003
2087	14.87	2.6	0.	7.3852e-003
2088	15.068	2.6	0.	7.5781e-003
2089	15.267	2.6	0.	7.7719e-003
2090	15.465	2.6	0.	8.0003e-003
2091	15.664	2.6	0.	8.2295e-003
2092	15.862	2.6	0.	8.4648e-003
2093	16.061	2.6	0.	8.7091e-003
2094	16.259	2.6	0.	8.9852e-003
2095	16.458	2.6	0.	9.2622e-003
2096	16.656	2.6	0.	9.534e-003
2097	16.855	2.6	0.	9.8474e-003
2098	17.053	2.6	0.	1.0172e-002
2099	17.252	2.6	0.	1.0517e-002
2100	17.45	2.6	0.	1.0878e-002
2101	17.648	2.6	0.	1.1279e-002
2102	17.847	2.6	0.	1.1705e-002
2103	18.045	2.6	0.	1.2159e-002
2104	18.244	2.6	0.	1.2642e-002
2105	18.442	2.6	0.	1.3178e-002
2106	18.641	2.6	0.	1.3742e-002
2107	18.839	2.6	0.	1.4341e-002
2108	19.038	2.6	0.	1.5011e-002
2109	19.236	2.6	0.	1.5734e-002
2110	19.435	2.6	0.	1.6523e-002
2111	19.633	2.6	0.	1.7385e-002
2112	19.832	2.6	0.	1.8346e-002
2113	20.03	2.6	0.	1.9406e-002
2114	20.229	2.6	0.	2.058e-002
2115	20.427	2.6	0.	2.1891e-002
2116	20.626	2.6	0.	2.3373e-002
2117	20.824	2.6	0.	2.5045e-002
2118	21.023	2.6	0.	2.694e-002
2119	21.221	2.6	0.	2.9135e-002
2120	21.42	2.6	0.	3.1681e-002
2121	21.618	2.6	0.	3.4674e-002
2122	21.817	2.6	0.	3.8239e-002
2123	22.015	2.6	0.	4.2567e-002
2124	22.214	2.6	0.	4.7903e-002
2125	22.412	2.6	0.	5.4681e-002
2126	22.611	2.6	0.	6.3342e-002
2127	22.809	2.6	0.	7.5666e-002
2128	23.008	2.6	0.	9.0555e-002
2129	23.206	2.6	0.	0.12352
2130	23.405	2.6	0.	0.13638
2131	23.603	2.6	0.	0.34345
2132	23.802	2.6	0.	0.14075
2133	2.3652	2.4	0.	-22.267
2134	2.5636	2.4	0.	-27.012
2135	2.7621	2.4	0.	-262.85
2136	2.9606	2.4	0.	-430.4
2137	3.1591	2.4	0.	-520.19
2138	3.3576	2.4	0.	-560.57
2139	3.5561	2.4	0.	-569.38
2140	3.7545	2.4	0.	-558.34
2141	3.953	2.4	0.	-535.28
2142	4.1515	2.4	0.	-505.39
2143	4.35	2.4	0.	-472.09
2144	4.5485	2.4	0.	-437.62
2145	4.747	2.4	0.	-403.4
2146	4.9455	2.4	0.	-370.33
2147	5.1439	2.4	0.	-338.93
2148	5.3424	2.4	0.	-309.47
2149	5.5409	2.4	0.	-282.07
2150	5.7394	2.4	0.	-256.76
2151	5.9379	2.4	0.	-233.47
2152	6.1364	2.4	0.	-212.13
2153	6.3348	2.4	0.	-192.6
2154	6.5333	2.4	0.	-174.76
2155	6.7318	2.4	0.	-158.49
2156	6.9303	2.4	0.	-143.65
2157	7.1288	2.4	0.	-130.13
2158	7.3273	2.4	0.	-117.8
2159	7.5258	2.4	0.	-106.57
2160	7.7242	2.4	0.	-96.326
2161	7.9227	2.4	0.	-86.983
2162	8.1212	2.4	0.	-78.459
2163	8.3197	2.4	0.	-70.677
2164	8.5182	2.4	0.	-63.57
2165	8.7167	2.4	0.	-57.077
2166	8.9152	2.4	0.	-51.14
2167	9.1136	2.4	0.	-45.711
2168	9.3121	2.4	0.	-40.742
2169	9.5106	2.4	0.	-36.193
2170	9.7091	2.4	0.	-32.026
2171	9.9076	2.4	0.	-28.206
2172	10.106	2.4	0.	-24.704
2173	10.305	2.4	0.	-21.49
2174	10.503	2.4	0.	-18.54
2175	10.702	2.4	0.	-15.829
2176	10.9	2.4	0.	-13.337
2177	11.098	2.4	0.	-11.044
2178	11.297	2.4	0.	-8.933
2179	11.495	2.4	0.	-6.9866
2180	11.694	2.4	0.	-5.1905
2181	11.892	2.4	0.	-3.5308
2182	12.091	2.4	0.	-1.9955
2183	12.289	2.4	0.	-0.5764
2184	12.488	2.4	0.	4.4353e-005
2185	12.686	2.4	0.	3.5464e-003
2186	12.885	2.4	0.	4.4194e-003
2187	13.083	2.4	0.	4.8623e-003
2188	13.282	2.4	0.	5.1892e-003
2189	13.48	2.4	0.	5.445e-003
2190	13.679	2.4	0.	5.6645e-003
2191	13.877	2.4	0.	5.8591e-003
2192	14.076	2.4	0.	6.0724e-003
2193	14.274	2.4	0.	6.2601e-003
2194	14.473	2.4	0.	6.427e-003
2195	14.671	2.4	0.	6.6209e-003
2196	14.87	2.4	0.	6.8133e-003
2197	15.068	2.4	0.	7.0073e-003
2198	15.267	2.4	0.	7.201e-003
2199	15.465	2.4	0.	7.4244e-003
2200	15.664	2.4	0.	7.6514e-003
2201	15.862	2.4	0.	7.8841e-003
2202	16.061	2.4	0.	8.1218e-003
2203	16.259	2.4	0.	8.3951e-003
2204	16.458	2.4	0.	8.6628e-003
2205	16.656	2.4	0.	8.9303e-003
2206	16.855	2.4	0.	9.2371e-003
2207	17.053	2.4	0.	9.5534e-003
2208	17.252	2.4	0.	9.8905e-003
2209	17.45	2.4	0.	1.0243e-002
2210	17.648	2.4	0.	1.0638e-002
2211	17.847	2.4	0.	1.1054e-002
2212	18.045	2.4	0.	1.1496e-002
2213	18.244	2.4	0.	1.197e-002
2214	18.442	2.4	0.	1.2494e-002
2215	18.641	2.4	0.	1.3048e-002
2216	18.839	2.4	0.	1.3636e-002
2217	19.038	2.4	0.	1.429e-002
2218	19.236	2.4	0.	1.5001e-002
2219	19.435	2.4	0.	1.5772e-002
2220	19.633	2.4	0.	1.6619e-002
2221	19.832	2.4	0.	1.7565e-002
2222	20.03	2.4	0.	1.8604e-002
2223	20.229	2.4	0.	1.9761e-002
2224	20.427	2.4	0.	2.1052e-002
2225	20.626	2.4	0.	2.2515e-002
2226	20.824	2.4	0.	2.4162e-002
2227	21.023	2.4	0.	2.6035e-002
2228	21.221	2.4	0.	2.8205e-002
2229	21.42	2.4	0.	3.0725e-002
2230	21.618	2.4	0.	3.3693e-002
2231	21.817	2.4	0.	3.7225e-002
2232	22.015	2.4	0.	4.1524e-002
2233	22.214	2.4	0.	4.682e-002
2234	22.412	2.4	0.	5.3556e-002
2235	22.611	2.4	0.	6.2161e-002
2236	22.809	2.4	0.	7.4416e-002
2237	23.008	2.4	0.	8.9213e-002
2238	23.206	2.4	0.	0.12204
2239	23.405	2.4	0.	0.13472
2240	23.603	2.4	0.	0.34111
2241	23.802	2.4	0.	0.13633
2242	2.3652	2.2	0.	5.2418
2243	2.5636	2.2	0.	45.14
2244	2.7621	2.2	0.	-115.22
2245	2.9606	2.2	0.	-290.74
2246	3.1591	2.2	0.	-396.6
2247	3.3576	2.2	0.	-449.32
2248	3.5561	2.2	0.	-469.83
2249	3.7545	2.2	0.	-469.64
2250	3.953	2.2	0.	-456.75
2251	4.1515	2.2	0.	-436.29
2252	4.35	2.2	0.	-411.64
2253	4.5485	2.2	0.	-384.99
2254	4.747	2.2	0.	-357.77
2255	4.9455	2.2	0.	-330.89
2256	5.1439	2.2	0.	-304.91
2257	5.3424	2.2	0.	-280.18
2258	5.5409	2.2	0.	-256.88
2259	5.7394	2.2	0.	-235.08
2260	5.9379	2.2	0.	-214.82
2261	6.1364	2.2	0.	-196.05
2262	6.3348	2.2	0.	-178.73
2263	6.5333	2.2	0.	-162.77
2264	6.7318	2.2	0.	-148.1
2265	6.9303	2.2	0.	-134.62
2266	7.1288	2.2	0.	-122.26
2267	7.3273	2.2	0.	-110.93
2268	7.5258	2.2	0.	-100.54
2269	7.7242	2.2	0.	-91.023
2270	7.9227	2.2	0.	-82.304
2271	8.1212	2.2	0.	-74.317
2272	8.3197	2.2	0.	-66.999
2273	8.5182	2.2	0.	-60.296
2274	8.7167	2.2	0.	-54.152
2275	8.9152	2.2	0.	-48.522
2276	9.1136	2.2	0.	-43.361
2277	9.3121	2.2	0.	-38.629
2278	9.5106	2.2	0.	-34.288
2279	9.7091	2.2	0.	-30.305
2280	9.9076	2.2	0.	-26.65
2281	10.106	2.2	0.	-23.294
2282	10.305	2.2	0.	-20.211
2283	10.503	2.2	0.	-17.377
2284	10.702	2.2	0.	-14.772
2285	10.9	2.2	0.	-12.375
2286	11.098	2.2	0.	-10.168
2287	11.297	2.2	0.	-8.1338
2288	11.495	2.2	0.	-6.2576
2289	11.694	2.2	0.	-4.5253
2290	11.892	2.2	0.	-2.924
2291	12.091	2.2	0.	-1.4429
2292	12.289	2.2	0.	-0.11889
2293	12.488	2.2	0.	-6.2722e-004
2294	12.686	2.2	0.	2.3232e-003
2295	12.885	2.2	0.	3.34e-003
2296	13.083	2.2	0.	3.8865e-003
2297	13.282	2.2	0.	4.2815e-003
2298	13.48	2.2	0.	4.5845e-003
2299	13.679	2.2	0.	4.8304e-003
2300	13.877	2.2	0.	5.0461e-003
2301	14.076	2.2	0.	5.273e-003
2302	14.274	2.2	0.	5.4691e-003
2303	14.473	2.2	0.	5.6377e-003
2304	14.671	2.2	0.	5.8362e-003
2305	14.87	2.2	0.	6.0275e-003
2306	15.068	2.2	0.	6.2178e-003
2307	15.267	2.2	0.	6.4076e-003
2308	15.465	2.2	0.	6.627e-003
2309	15.664	2.2	0.	6.8475e-003
2310	15.862	2.2	0.	7.0729e-003
2311	16.061	2.2	0.	7.3007e-003
2312	16.259	2.2	0.	7.5659e-003
2313	16.458	2.2	0.	7.8245e-003
2314	16.656	2.2	0.	8.0822e-003
2315	16.855	2.2	0.	8.375e-003
2316	17.053	2.2	0.	8.684e-003
2317	17.252	2.2	0.	9.0059e-003
2318	17.45	2.2	0.	9.347e-003
2319	17.648	2.2	0.	9.7265e-003
2320	17.847	2.2	0.	1.0128e-002
2321	18.045	2.2	0.	1.0555e-002
2322	18.244	2.2	0.	1.1011e-002
2323	18.442	2.2	0.	1.1519e-002
2324	18.641	2.2	0.	1.2054e-002
2325	18.839	2.2	0.	1.2623e-002
2326	19.038	2.2	0.	1.3257e-002
2327	19.236	2.2	0.	1.3945e-002
2328	19.435	2.2	0.	1.4694e-002
2329	19.633	2.2	0.	1.5515e-002
2330	19.832	2.2	0.	1.6433e-002
2331	20.03	2.2	0.	1.7447e-002
2332	20.229	2.2	0.	1.8574e-002
2333	20.427	2.2	0.	1.9834e-002
2334	20.626	2.2	0.	2.1263e-002
2335	20.824	2.2	0.	2.2876e-002
2336	21.023	2.2	0.	2.4714e-002
2337	21.221	2.2	0.	2.6844e-002
2338	21.42	2.2	0.	2.9322e-002
2339	21.618	2.2	0.	3.2245e-002
2340	21.817	2.2	0.	3.5736e-002
2341	22.015	2.2	0.	3.9979e-002
2342	22.214	2.2	0.	4.5217e-002
2343	22.412	2.2	0.	5.1884e-002
2344	22.611	2.2	0.	6.0408e-002
2345	22.809	2.2	0.	7.2561e-002
2346	23.008	2.2	0.	8.7223e-002
2347	23.206	2.2	0.	0.11984
2348	23.405	2.2	0.	0.13226
2349	23.603	2.2	0.	0.33767
2350	23.802	2.2	0.	0.12993
2351	2.3652	2.	0.	-803.86
2352	2.5636	2.	0.	98.692
2353	2.7621	2.	0.	-29.227
2354	2.9606	2.	0.	-69.364
2355	3.1591	2.	0.	-215.12
2356	3.3576	2.	0.	-300.74
2357	3.5561	2.	0.	-344.2
2358	3.7545	2.	0.	-361.43
2359	3.953	2.	0.	-362.76
2360	4.1515	2.	0.	-354.42
2361	4.35	2.	0.	-340.35
2362	4.5485	2.	0.	-323.03
2363	4.747	2.	0.	-304.03
2364	4.9455	2.	0.	-284.37
2365	5.1439	2.	0.	-264.71
2366	5.3424	2.	0.	-245.48
2367	5.5409	2.	0.	-226.94
2368	5.7394	2.	0.	-209.25
2369	5.9379	2.	0.	-192.51
2370	6.1364	2.	0.	-176.77
2371	6.3348	2.	0.	-162.03
2372	6.5333	2.	0.	-148.29
2373	6.7318	2.	0.	-135.5
2374	6.9303	2.	0.	-123.64
2375	7.1288	2.	0.	-112.66
2376	7.3273	2.	0.	-102.51
2377	7.5258	2.	0.	-93.135
2378	7.7242	2.	0.	-84.49
2379	7.9227	2.	0.	-76.522
2380	8.1212	2.	0.	-69.184
2381	8.3197	2.	0.	-62.431
2382	8.5182	2.	0.	-56.217
2383	8.7167	2.	0.	-50.503
2384	8.9152	2.	0.	-45.248
2385	9.1136	2.	0.	-40.417
2386	9.3121	2.	0.	-35.975
2387	9.5106	2.	0.	-31.893
2388	9.7091	2.	0.	-28.139
2389	9.9076	2.	0.	-24.688
2390	10.106	2.	0.	-21.514
2391	10.305	2.	0.	-18.594
2392	10.503	2.	0.	-15.908
2393	10.702	2.	0.	-13.434
2394	10.9	2.	0.	-11.156
2395	11.098	2.	0.	-9.0568
2396	11.297	2.	0.	-7.1204
2397	11.495	2.	0.	-5.3328
2398	11.694	2.	0.	-3.6812
2399	11.892	2.	0.	-2.1541
2400	12.091	2.	0.	-0.74619
2401	12.289	2.	0.	-1.2852e-002
2402	12.488	2.	0.	-1.0796e-003
2403	12.686	2.	0.	1.2163e-003
2404	12.885	2.	0.	2.2258e-003
2405	13.083	2.	0.	2.811e-003
2406	13.282	2.	0.	3.2409e-003
2407	13.48	2.	0.	3.5672e-003
2408	13.679	2.	0.	3.8324e-003
2409	13.877	2.	0.	4.0571e-003
2410	14.076	2.	0.	4.291e-003
2411	14.274	2.	0.	4.488e-003
2412	14.473	2.	0.	4.6579e-003
2413	14.671	2.	0.	4.8506e-003
2414	14.87	2.	0.	5.037e-003
2415	15.068	2.	0.	5.2196e-003
2416	15.267	2.	0.	5.401e-003
2417	15.465	2.	0.	5.61e-003
2418	15.664	2.	0.	5.8198e-003
2419	15.862	2.	0.	6.0328e-003
2420	16.061	2.	0.	6.2506e-003
2421	16.259	2.	0.	6.499e-003
2422	16.458	2.	0.	6.7438e-003
2423	16.656	2.	0.	6.9848e-003
2424	16.855	2.	0.	7.2623e-003
2425	17.053	2.	0.	7.5523e-003
2426	17.252	2.	0.	7.856e-003
2427	17.45	2.	0.	8.1774e-003
2428	17.648	2.	0.	8.5379e-003
2429	17.847	2.	0.	8.9161e-003
2430	18.045	2.	0.	9.3208e-003
2431	18.244	2.	0.	9.7534e-003
2432	18.442	2.	0.	1.0235e-002
2433	18.641	2.	0.	1.0742e-002
2434	18.839	2.	0.	1.1283e-002
2435	19.038	2.	0.	1.1886e-002
2436	19.236	2.	0.	1.254e-002
2437	19.435	2.	0.	1.3256e-002
2438	19.633	2.	0.	1.4041e-002
2439	19.832	2.	0.	1.4921e-002
2440	20.03	2.	0.	1.5894e-002
2441	20.229	2.	0.	1.6975e-002
2442	20.427	2.	0.	1.8189e-002
2443	20.626	2.	0.	1.9568e-002
2444	20.824	2.	0.	2.1129e-002
2445	21.023	2.	0.	2.2911e-002
2446	21.221	2.	0.	2.4984e-002
2447	21.42	2.	0.	2.74e-002
2448	21.618	2.	0.	3.0254e-002
2449	21.817	2.	0.	3.3676e-002
2450	22.015	2.	0.	3.7842e-002
2451	22.214	2.	0.	4.2997e-002
2452	22.412	2.	0.	4.9564e-002
2453	22.611	2.	0.	5.7973e-002
2454	22.809	2.	0.	6.9975e-002
2455	23.008	2.	0.	8.4454e-002
2456	23.206	2.	0.	0.11678
2457	23.405	2.	0.	0.12885
2458	23.603	2.	0.	0.33291
2459	23.802	2.	0.	0.1213
2460	2.3652	1.8	0.	-197.52
2461	2.5636	1.8	0.	14.512
2462	2.7621	1.8	0.	-10.652
2463	2.9606	1.8	0.	-9.722
2464	3.1591	1.8	0.	-38.144
2465	3.3576	1.8	0.	-138.31
2466	3.5561	1.8	0.	-207.26
2467	3.7545	1.8	0.	-244.12
2468	3.953	1.8	0.	-261.11
2469	4.1515	1.8	0.	-265.91
2470	4.35	1.8	0.	-263.19
2471	4.5485	1.8	0.	-255.81
2472	4.747	1.8	0.	-245.56
2473	4.9455	1.8	0.	-233.58
2474	5.1439	1.8	0.	-220.66
2475	5.3424	1.8	0.	-207.3
2476	5.5409	1.8	0.	-193.86
2477	5.7394	1.8	0.	-180.58
2478	5.9379	1.8	0.	-167.65
2479	6.1364	1.8	0.	-155.19
2480	6.3348	1.8	0.	-143.26
2481	6.5333	1.8	0.	-131.93
2482	6.7318	1.8	0.	-121.21
2483	6.9303	1.8	0.	-111.13
2484	7.1288	1.8	0.	-101.67
2485	7.3273	1.8	0.	-92.829
2486	7.5258	1.8	0.	-84.586
2487	7.7242	1.8	0.	-76.916
2488	7.9227	1.8	0.	-69.794
2489	8.1212	1.8	0.	-63.192
2490	8.3197	1.8	0.	-57.079
2491	8.5182	1.8	0.	-51.425
2492	8.7167	1.8	0.	-46.202
2493	8.9152	1.8	0.	-41.379
2494	9.1136	1.8	0.	-36.93
2495	9.3121	1.8	0.	-32.827
2496	9.5106	1.8	0.	-29.045
2497	9.7091	1.8	0.	-25.559
2498	9.9076	1.8	0.	-22.348
2499	10.106	1.8	0.	-19.388
2500	10.305	1.8	0.	-16.661
2501	10.503	1.8	0.	-14.148
2502	10.702	1.8	0.	-11.831
2503	10.9	1.8	0.	-9.6949
2504	11.098	1.8	0.	-7.7233
2505	11.297	1.8	0.	-5.9032
2506	11.495	1.8	0.	-4.2213
2507	11.694	1.8	0.	-2.6666
2508	11.892	1.8	0.	-1.2308
2509	12.091	1.8	0.	-6.985e-002
2510	12.289	1.8	0.	-6.1344e-003
2511	12.488	1.8	0.	-1.4454e-003
2512	12.686	1.8	0.	2.4957e-004
2513	12.885	1.8	0.	1.1401e-003
2514	13.083	1.8	0.	1.6968e-003
2515	13.282	1.8	0.	2.1195e-003
2516	13.48	1.8	0.	2.4426e-003
2517	13.679	1.8	0.	2.706e-003
2518	13.877	1.8	0.	2.927e-003
2519	14.076	1.8	0.	3.1532e-003
2520	14.274	1.8	0.	3.3433e-003
2521	14.473	1.8	0.	3.502e-003
2522	14.671	1.8	0.	3.6826e-003
2523	14.87	1.8	0.	3.858e-003
2524	15.068	1.8	0.	4.0272e-003
2525	15.267	1.8	0.	4.1933e-003
2526	15.465	1.8	0.	4.3849e-003
2527	15.664	1.8	0.	4.5775e-003
2528	15.862	1.8	0.	4.7722e-003
2529	16.061	1.8	0.	4.9689e-003
2530	16.259	1.8	0.	5.1977e-003
2531	16.458	1.8	0.	5.4209e-003
2532	16.656	1.8	0.	5.6379e-003
2533	16.855	1.8	0.	5.8919e-003
2534	17.053	1.8	0.	6.156e-003
2535	17.252	1.8	0.	6.4322e-003
2536	17.45	1.8	0.	6.7242e-003
2537	17.648	1.8	0.	7.0568e-003
2538	17.847	1.8	0.	7.4044e-003
2539	18.045	1.8	0.	7.7759e-003
2540	18.244	1.8	0.	8.1737e-003
2541	18.442	1.8	0.	8.6165e-003
2542	18.641	1.8	0.	9.0872e-003
2543	18.839	1.8	0.	9.5837e-003
2544	19.038	1.8	0.	1.0146e-002
2545	19.236	1.8	0.	1.0752e-002
2546	19.435	1.8	0.	1.1419e-002
2547	19.633	1.8	0.	1.2153e-002
2548	19.832	1.8	0.	1.2978e-002
2549	20.03	1.8	0.	1.3889e-002
2550	20.229	1.8	0.	1.4908e-002
2551	20.427	1.8	0.	1.6054e-002
2552	20.626	1.8	0.	1.7362e-002
2553	20.824	1.8	0.	1.8847e-002
2554	21.023	1.8	0.	2.0548e-002
2555	21.221	1.8	0.	2.2534e-002
2556	21.42	1.8	0.	2.4858e-002
2557	21.618	1.8	0.	2.7615e-002
2558	21.817	1.8	0.	3.093e-002
2559	22.015	1.8	0.	3.4982e-002
2560	22.214	1.8	0.	4.0011e-002
2561	22.412	1.8	0.	4.6434e-002
2562	22.611	1.8	0.	5.4677e-002
2563	22.809	1.8	0.	6.6478e-002
2564	23.008	1.8	0.	8.0702e-002
2565	23.206	1.8	0.	0.11264
2566	23.405	1.8	0.	0.12424
2567	23.603	1.8	0.	0.32656
2568	23.802	1.8	0.	0.11006
2569	2.3652	1.6	0.	22.802
2570	2.5636	1.6	0.	10.402
2571	2.7621	1.6	0.	-16.005
2572	2.9606	1.6	0.	-3.1925
2573	3.1591	1.6	0.	-8.2219
2574	3.3576	1.6	0.	-21.39
2575	3.5561	1.6	0.	-80.431
2576	3.7545	1.6	0.	-130.91
2577	3.953	1.6	0.	-161.14
2578	4.1515	1.6	0.	-177.79
2579	4.35	1.6	0.	-185.68
2580	4.5485	1.6	0.	-187.78
2581	4.747	1.6	0.	-185.99
2582	4.9455	1.6	0.	-181.54
2583	5.1439	1.6	0.	-175.25
2584	5.3424	1.6	0.	-167.72
2585	5.5409	1.6	0.	-159.36
2586	5.7394	1.6	0.	-150.52
2587	5.9379	1.6	0.	-141.43
2588	6.1364	1.6	0.	-132.28
2589	6.3348	1.6	0.	-123.22
2590	6.5333	1.6	0.	-114.35
2591	6.7318	1.6	0.	-105.77
2592	6.9303	1.6	0.	-97.526
2593	7.1288	1.6	0.	-89.659
2594	7.3273	1.6	0.	-82.193
2595	7.5258	1.6	0.	-75.143
2596	7.7242	1.6	0.	-68.511
2597	7.9227	1.6	0.	-62.293
2598	8.1212	1.6	0.	-56.481
2599	8.3197	1.6	0.	-51.061
2600	8.5182	1.6	0.	-46.018
2601	8.7167	1.6	0.	-41.332
2602	8.9152	1.6	0.	-36.986
2603	9.1136	1.6	0.	-32.96
2604	9.3121	1.6	0.	-29.233
2605	9.5106	1.6	0.	-25.787
2606	9.7091	1.6	0.	-22.602
2607	9.9076	1.6	0.	-19.66
2608	10.106	1.6	0.	-16.944
2609	10.305	1.6	0.	-14.435
2610	10.503	1.6	0.	-12.119
2611	10.702	1.6	0.	-9.9808
2612	10.9	1.6	0.	-8.0058
2613	11.098	1.6	0.	-6.1809
2614	11.297	1.6	0.	-4.4942
2615	11.495	1.6	0.	-2.9343
2616	11.694	1.6	0.	-1.4934
2617	11.892	1.6	0.	-0.21747
2618	12.091	1.6	0.	-1.1906e-002
2619	12.289	1.6	0.	-4.2152e-003
2620	12.488	1.6	0.	-1.7869e-003
2621	12.686	1.6	0.	-5.9744e-004
2622	12.885	1.6	0.	1.1322e-004
2623	13.083	1.6	0.	5.8611e-004
2624	13.282	1.6	0.	9.6037e-004
2625	13.48	1.6	0.	1.2529e-003
2626	13.679	1.6	0.	1.4877e-003
2627	13.877	1.6	0.	1.6846e-003
2628	14.076	1.6	0.	1.8897e-003
2629	14.274	1.6	0.	2.0579e-003
2630	14.473	1.6	0.	2.1951e-003
2631	14.671	1.6	0.	2.3555e-003
2632	14.87	1.6	0.	2.5058e-003
2633	15.068	1.6	0.	2.6514e-003
2634	15.267	1.6	0.	2.7931e-003
2635	15.465	1.6	0.	2.9607e-003
2636	15.664	1.6	0.	3.1254e-003
2637	15.862	1.6	0.	3.2927e-003
2638	16.061	1.6	0.	3.4619e-003
2639	16.259	1.6	0.	3.6602e-003
2640	16.458	1.6	0.	3.8529e-003
2641	16.656	1.6	0.	4.0372e-003
2642	16.855	1.6	0.	4.2581e-003
2643	17.053	1.6	0.	4.4857e-003
2644	17.252	1.6	0.	4.7256e-003
2645	17.45	1.6	0.	4.9813e-003
2646	17.648	1.6	0.	5.2666e-003
2647	17.847	1.6	0.	5.573e-003
2648	18.045	1.6	0.	5.8981e-003
2649	18.244	1.6	0.	6.2473e-003
2650	18.442	1.6	0.	6.6395e-003
2651	18.641	1.6	0.	7.0534e-003
2652	18.839	1.6	0.	7.494e-003
2653	19.038	1.6	0.	7.9922e-003
2654	19.236	1.6	0.	8.5358e-003
2655	19.435	1.6	0.	9.1295e-003
2656	19.633	1.6	0.	9.7894e-003
2657	19.832	1.6	0.	1.0535e-002
2658	20.03	1.6	0.	1.1363e-002
2659	20.229	1.6	0.	1.2289e-002
2660	20.427	1.6	0.	1.3338e-002
2661	20.626	1.6	0.	1.4543e-002
2662	20.824	1.6	0.	1.5918e-002
2663	21.023	1.6	0.	1.7499e-002
2664	21.221	1.6	0.	1.9357e-002
2665	21.42	1.6	0.	2.1547e-002
2666	21.618	1.6	0.	2.4158e-002
2667	21.817	1.6	0.	2.7315e-002
2668	22.015	1.6	0.	3.1198e-002
2669	22.214	1.6	0.	3.6038e-002
2670	22.412	1.6	0.	4.2253e-002
2671	22.611	1.6	0.	5.0256e-002
2672	22.809	1.6	0.	6.1769e-002
2673	23.008	1.6	0.	7.5642e-002
2674	23.206	1.6	0.	0.10706
2675	23.405	1.6	0.	0.11804
2676	23.603	1.6	0.	0.3181
2677	23.802	1.6	0.	9.557e-002
2678	2.3652	1.4	0.	-35.154
2679	2.5636	1.4	0.	0.53834
2680	2.7621	1.4	0.	-3.4051
2681	2.9606	1.4	0.	-3.7869
2682	3.1591	1.4	0.	-4.1984
2683	3.3576	1.4	0.	-5.5327
2684	3.5561	1.4	0.	-11.205
2685	3.7545	1.4	0.	-37.509
2686	3.953	1.4	0.	-72.144
2687	4.1515	1.4	0.	-96.912
2688	4.35	1.4	0.	-113.19
2689	4.5485	1.4	0.	-123.31
2690	4.747	1.4	0.	-128.94
2691	4.9455	1.4	0.	-131.23
2692	5.1439	1.4	0.	-130.98
2693	5.3424	1.4	0.	-128.81
2694	5.5409	1.4	0.	-125.19
2695	5.7394	1.4	0.	-120.49
2696	5.9379	1.4	0.	-115.02
2697	6.1364	1.4	0.	-109.03
2698	6.3348	1.4	0.	-102.72
2699	6.5333	1.4	0.	-96.241
2700	6.7318	1.4	0.	-89.735
2701	6.9303	1.4	0.	-83.298
2702	7.1288	1.4	0.	-77.005
2703	7.3273	1.4	0.	-70.914
2704	7.5258	1.4	0.	-65.065
2705	7.7242	1.4	0.	-59.487
2706	7.9227	1.4	0.	-54.196
2707	8.1212	1.4	0.	-49.201
2708	8.3197	1.4	0.	-44.503
2709	8.5182	1.4	0.	-40.099
2710	8.7167	1.4	0.	-35.982
2711	8.9152	1.4	0.	-32.142
2712	9.1136	1.4	0.	-28.568
2713	9.3121	1.4	0.	-25.247
2714	9.5106	1.4	0.	-22.165
2715	9.7091	1.4	0.	-19.307
2716	9.9076	1.4	0.	-16.66
2717	10.106	1.4	0.	-14.209
2718	10.305	1.4	0.	-11.941
2719	10.503	1.4	0.	-9.843
2720	10.702	1.4	0.	-7.9021
2721	10.9	1.4	0.	-6.1066
2722	11.098	1.4	0.	-4.445
2723	11.297	1.4	0.	-2.9077
2724	11.495	1.4	0.	-1.487
2725	11.694	1.4	0.	-0.23241
2726	11.892	1.4	0.	-1.5069e-002
2727	12.091	1.4	0.	-6.1774e-003
2728	12.289	1.4	0.	-3.4618e-003
2729	12.488	1.4	0.	-2.1314e-003
2730	12.686	1.4	0.	-1.3529e-003
2731	12.885	1.4	0.	-8.4895e-004
2732	13.083	1.4	0.	-4.9514e-004
2733	13.282	1.4	0.	-2.0277e-004
2734	13.48	1.4	0.	2.6801e-005
2735	13.679	1.4	0.	2.1181e-004
2736	13.877	1.4	0.	3.6664e-004
2737	14.076	1.4	0.	5.3128e-004
2738	14.274	1.4	0.	6.6299e-004
2739	14.473	1.4	0.	7.6341e-004
2740	14.671	1.4	0.	8.8954e-004
2741	14.87	1.4	0.	1.0063e-003
2742	15.068	1.4	0.	1.117e-003
2743	15.267	1.4	0.	1.2251e-003
2744	15.465	1.4	0.	1.3557e-003
2745	15.664	1.4	0.	1.4844e-003
2746	15.862	1.4	0.	1.6153e-003
2747	16.061	1.4	0.	1.7451e-003
2748	16.259	1.4	0.	1.9028e-003
2749	16.458	1.4	0.	2.0533e-003
2750	16.656	1.4	0.	2.1943e-003
2751	16.855	1.4	0.	2.3689e-003
2752	17.053	1.4	0.	2.5496e-003
2753	17.252	1.4	0.	2.7385e-003
2754	17.45	1.4	0.	2.9402e-003
2755	17.648	1.4	0.	3.1715e-003
2756	17.847	1.4	0.	3.4156e-003
2757	18.045	1.4	0.	3.678e-003
2758	18.244	1.4	0.	3.959e-003
2759	18.442	1.4	0.	4.2847e-003
2760	18.641	1.4	0.	4.6207e-003
2761	18.839	1.4	0.	4.9828e-003
2762	19.038	1.4	0.	5.3956e-003
2763	19.236	1.4	0.	5.8482e-003
2764	19.435	1.4	0.	6.3487e-003
2765	19.633	1.4	0.	6.9026e-003
2766	19.832	1.4	0.	7.5365e-003
2767	20.03	1.4	0.	8.2445e-003
2768	20.229	1.4	0.	9.0466e-003
2769	20.427	1.4	0.	9.9581e-003
2770	20.626	1.4	0.	1.1014e-002
2771	20.824	1.4	0.	1.2228e-002
2772	21.023	1.4	0.	1.364e-002
2773	21.221	1.4	0.	1.5313e-002
2774	21.42	1.4	0.	1.7302e-002
2775	21.618	1.4	0.	1.9697e-002
2776	21.817	1.4	0.	2.262e-002
2777	22.015	1.4	0.	2.6243e-002
2778	22.214	1.4	0.	3.0807e-002
2779	22.412	1.4	0.	3.6713e-002
2780	22.611	1.4	0.	4.4366e-002
2781	22.809	1.4	0.	5.5466e-002
2782	23.008	1.4	0.	6.8844e-002
2783	23.206	1.4	0.	9.9546e-002
2784	23.405	1.4	0.	0.10972
2785	23.603	1.4	0.	0.30686
2786	23.802	1.4	0.	7.7027e-002
2787	2.3652	1.2	0.	-11.077
2788	2.5636	1.2	0.	1.0527
2789	2.7621	1.2	0.	-3.2069
2790	2.9606	1.2	0.	-2.6194
2791	3.1591	1.2	0.	-2.74
2792	3.3576	1.2	0.	-2.9661
2793	3.5561	1.2	0.	-3.5518
2794	3.7545	1.2	0.	-5.1201
2795	3.953	1.2	0.	-11.366
2796	4.1515	1.2	0.	-30.323
2797	4.35	1.2	0.	-50.645
2798	4.5485	1.2	0.	-66.359
2799	4.747	1.2	0.	-77.697
2800	4.9455	1.2	0.	-85.409
2801	5.1439	1.2	0.	-90.161
2802	5.3424	1.2	0.	-92.516
2803	5.5409	1.2	0.	-92.945
2804	5.7394	1.2	0.	-91.846
2805	5.9379	1.2	0.	-89.56
2806	6.1364	1.2	0.	-86.375
2807	6.3348	1.2	0.	-82.531
2808	6.5333	1.2	0.	-78.229
2809	6.7318	1.2	0.	-73.635
2810	6.9303	1.2	0.	-68.881
2811	7.1288	1.2	0.	-64.072
2812	7.3273	1.2	0.	-59.292
2813	7.5258	1.2	0.	-54.604
2814	7.7242	1.2	0.	-50.054
2815	7.9227	1.2	0.	-45.677
2816	8.1212	1.2	0.	-41.496
2817	8.3197	1.2	0.	-37.525
2818	8.5182	1.2	0.	-33.771
2819	8.7167	1.2	0.	-30.238
2820	8.9152	1.2	0.	-26.922
2821	9.1136	1.2	0.	-23.82
2822	9.3121	1.2	0.	-20.923
2823	9.5106	1.2	0.	-18.225
2824	9.7091	1.2	0.	-15.714
2825	9.9076	1.2	0.	-13.381
2826	10.106	1.2	0.	-11.215
2827	10.305	1.2	0.	-9.2063
2828	10.503	1.2	0.	-7.3435
2829	10.702	1.2	0.	-5.6166
2830	10.9	1.2	0.	-4.0163
2831	11.098	1.2	0.	-2.5335
2832	11.297	1.2	0.	-1.1645
2833	11.495	1.2	0.	-8.8055e-002
2834	11.694	1.2	0.	-1.3222e-002
2835	11.892	1.2	0.	-6.6147e-003
2836	12.091	1.2	0.	-4.3041e-003
2837	12.289	1.2	0.	-3.1795e-003
2838	12.488	1.2	0.	-2.4978e-003
2839	12.686	1.2	0.	-2.0598e-003
2840	12.885	1.2	0.	-1.7613e-003
2841	13.083	1.2	0.	-1.5528e-003
2842	13.282	1.2	0.	-1.3681e-003
2843	13.48	1.2	0.	-1.2253e-003
2844	13.679	1.2	0.	-1.1118e-003
2845	13.877	1.2	0.	-1.0216e-003
2846	14.076	1.2	0.	-9.1398e-004
2847	14.274	1.2	0.	-8.3713e-004
2848	14.473	1.2	0.	-7.8654e-004
2849	14.671	1.2	0.	-7.1069e-004
2850	14.87	1.2	0.	-6.4292e-004
2851	15.068	1.2	0.	-5.7822e-004
2852	15.267	1.2	0.	-5.2069e-004
2853	15.465	1.2	0.	-4.3802e-004
2854	15.664	1.2	0.	-3.5754e-004
2855	15.862	1.2	0.	-2.8039e-004
2856	16.061	1.2	0.	-2.0027e-004
2857	16.259	1.2	0.	-9.5363e-005
2858	16.458	1.2	0.	-4.3147e-006
2859	16.656	1.2	0.	7.9113e-005
2860	16.855	1.2	0.	1.9246e-004
2861	17.053	1.2	0.	3.0743e-004
2862	17.252	1.2	0.	4.3132e-004
2863	17.45	1.2	0.	5.5718e-004
2864	17.648	1.2	0.	7.1276e-004
2865	17.847	1.2	0.	8.7857e-004
2866	18.045	1.2	0.	1.0563e-003
2867	18.244	1.2	0.	1.2466e-003
2868	18.442	1.2	0.	1.4699e-003
2869	18.641	1.2	0.	1.708e-003
2870	18.839	1.2	0.	1.9596e-003
2871	19.038	1.2	0.	2.2519e-003
2872	19.236	1.2	0.	2.576e-003
2873	19.435	1.2	0.	2.935e-003
2874	19.633	1.2	0.	3.3437e-003
2875	19.832	1.2	0.	3.8177e-003
2876	20.03	1.2	0.	4.3555e-003
2877	20.229	1.2	0.	4.9716e-003
2878	20.427	1.2	0.	5.6837e-003
2879	20.626	1.2	0.	6.5212e-003
2880	20.824	1.2	0.	7.5023e-003
2881	21.023	1.2	0.	8.6566e-003
2882	21.221	1.2	0.	1.0049e-002
2883	21.42	1.2	0.	1.1735e-002
2884	21.618	1.2	0.	1.3798e-002
2885	21.817	1.2	0.	1.6353e-002
2886	22.015	1.2	0.	1.958e-002
2887	22.214	1.2	0.	2.3697e-002
2888	22.412	1.2	0.	2.9112e-002
2889	22.611	1.2	0.	3.6207e-002
2890	22.809	1.2	0.	4.6659e-002
2891	23.008	1.2	0.	5.9273e-002
2892	23.206	1.2	0.	8.893e-002
2893	23.405	1.2	0.	9.7916e-002
2894	23.603	1.2	0.	0.29117
2895	23.802	1.2	0.	5.2327e-002
2896	2.3652	1.	0.	-13.901
2897	2.5636	1.	0.	0.7175
2898	2.7621	1.	0.	-3.0153
2899	2.9606	1.	0.	-1.9089
2900	3.1591	1.	0.	-2.0266
2901	3.3576	1.	0.	-1.8794
2902	3.5561	1.	0.	-1.8554
2903	3.7545	1.	0.	-1.9207
2904	3.953	1.	0.	-2.1999
2905	4.1515	1.	0.	-3.1126
2906	4.35	1.	0.	-7.3631
2907	4.5485	1.	0.	-20.804
2908	4.747	1.	0.	-35.125
2909	4.9455	1.	0.	-46.468
2910	5.1439	1.	0.	-54.81
2911	5.3424	1.	0.	-60.537
2912	5.5409	1.	0.	-64.065
2913	5.7394	1.	0.	-65.783
2914	5.9379	1.	0.	-66.04
2915	6.1364	1.	0.	-65.141
2916	6.3348	1.	0.	-63.349
2917	6.5333	1.	0.	-60.887
2918	6.7318	1.	0.	-57.942
2919	6.9303	1.	0.	-54.667
2920	7.1288	1.	0.	-51.186
2921	7.3273	1.	0.	-47.599
2922	7.5258	1.	0.	-43.984
2923	7.7242	1.	0.	-40.401
2924	7.9227	1.	0.	-36.896
2925	8.1212	1.	0.	-33.503
2926	8.3197	1.	0.	-30.243
2927	8.5182	1.	0.	-27.134
2928	8.7167	1.	0.	-24.184
2929	8.9152	1.	0.	-21.397
2930	9.1136	1.	0.	-18.775
2931	9.3121	1.	0.	-16.316
2932	9.5106	1.	0.	-14.014
2933	9.7091	1.	0.	-11.865
2934	9.9076	1.	0.	-9.8611
2935	10.106	1.	0.	-7.9953
2936	10.305	1.	0.	-6.2594
2937	10.503	1.	0.	-4.6461
2938	10.702	1.	0.	-3.1473
2939	10.9	1.	0.	-1.7573
2940	11.098	1.	0.	-0.48717
2941	11.297	1.	0.	-2.1995e-002
2942	11.495	1.	0.	-8.7514e-003
2943	11.694	1.	0.	-5.5963e-003
2944	11.892	1.	0.	-4.227e-003
2945	12.091	1.	0.	-3.5227e-003
2946	12.289	1.	0.	-3.1383e-003
2947	12.488	1.	0.	-2.8748e-003
2948	12.686	1.	0.	-2.7065e-003
2949	12.885	1.	0.	-2.6028e-003
2950	13.083	1.	0.	-2.5404e-003
2951	13.282	1.	0.	-2.4718e-003
2952	13.48	1.	0.	-2.4288e-003
2953	13.679	1.	0.	-2.4016e-003
2954	13.877	1.	0.	-2.3885e-003
2955	14.076	1.	0.	-2.3515e-003
2956	14.274	1.	0.	-2.3404e-003
2957	14.473	1.	0.	-2.3519e-003
2958	14.671	1.	0.	-2.3362e-003
2959	14.87	1.	0.	-2.3256e-003
2960	15.068	1.	0.	-2.321e-003
2961	15.267	1.	0.	-2.32e-003
2962	15.465	1.	0.	-2.2944e-003
2963	15.664	1.	0.	-2.2748e-003
2964	15.862	1.	0.	-2.2561e-003
2965	16.061	1.	0.	-2.2422e-003
2966	16.259	1.	0.	-2.2002e-003
2967	16.458	1.	0.	-2.1716e-003
2968	16.656	1.	0.	-2.161e-003
2969	16.855	1.	0.	-2.1215e-003
2970	17.053	1.	0.	-2.0838e-003
2971	17.252	1.	0.	-2.0461e-003
2972	17.45	1.	0.	-2.0039e-003
2973	17.648	1.	0.	-1.9398e-003
2974	17.847	1.	0.	-1.8737e-003
2975	18.045	1.	0.	-1.8019e-003
2976	18.244	1.	0.	-1.7213e-003
2977	18.442	1.	0.	-1.6197e-003
2978	18.641	1.	0.	-1.5141e-003
2979	18.839	1.	0.	-1.4053e-003
2980	19.038	1.	0.	-1.2605e-003
2981	19.236	1.	0.	-1.099e-003
2982	19.435	1.	0.	-9.1228e-004
2983	19.633	1.	0.	-6.9131e-004
2984	19.832	1.	0.	-4.2587e-004
2985	20.03	1.	0.	-1.1119e-004
2986	20.229	1.	0.	2.5865e-004
2987	20.427	1.	0.	7.029e-004
2988	20.626	1.	0.	1.2536e-003
2989	20.824	1.	0.	1.9143e-003
2990	21.023	1.	0.	2.7181e-003
2991	21.221	1.	0.	3.7274e-003
2992	21.42	1.	0.	4.9851e-003
2993	21.618	1.	0.	6.5755e-003
2994	21.817	1.	0.	8.609e-003
2995	22.015	1.	0.	1.1253e-002
2996	22.214	1.	0.	1.4717e-002
2997	22.412	1.	0.	1.9396e-002
2998	22.611	1.	0.	2.5657e-002
2999	22.809	1.	0.	3.514e-002
3000	23.008	1.	0.	4.6632e-002
3001	23.206	1.	0.	7.4741e-002
3002	23.405	1.	0.	8.2152e-002
3003	23.603	1.	0.	0.27031
3004	23.802	1.	0.	2.0815e-002
3005	2.3652	0.8	0.	-11.559
3006	2.5636	0.8	0.	-0.3956
3007	2.7621	0.8	0.	-2.6993
3008	2.9606	0.8	0.	-1.6893
3009	3.1591	0.8	0.	-1.5189
3010	3.3576	0.8	0.	-1.2402
3011	3.5561	0.8	0.	-1.0787
3012	3.7545	0.8	0.	-0.96179
3013	3.953	0.8	0.	-0.90472
3014	4.1515	0.8	0.	-0.91924
3015	4.35	0.8	0.	-1.0681
3016	4.5485	0.8	0.	-1.6588
3017	4.747	0.8	0.	-5.5171
3018	4.9455	0.8	0.	-16.464
3019	5.1439	0.8	0.	-26.554
3020	5.3424	0.8	0.	-34.234
3021	5.5409	0.8	0.	-39.692
3022	5.7394	0.8	0.	-43.258
3023	5.9379	0.8	0.	-45.258
3024	6.1364	0.8	0.	-45.992
3025	6.3348	0.8	0.	-45.723
3026	6.5333	0.8	0.	-44.676
3027	6.7318	0.8	0.	-43.041
3028	6.9303	0.8	0.	-40.978
3029	7.1288	0.8	0.	-38.617
3030	7.3273	0.8	0.	-36.063
3031	7.5258	0.8	0.	-33.399
3032	7.7242	0.8	0.	-30.692
3033	7.9227	0.8	0.	-27.992
3034	8.1212	0.8	0.	-25.338
3035	8.3197	0.8	0.	-22.759
3036	8.5182	0.8	0.	-20.273
3037	8.7167	0.8	0.	-17.896
3038	8.9152	0.8	0.	-15.635
3039	9.1136	0.8	0.	-13.494
3040	9.3121	0.8	0.	-11.476
3041	9.5106	0.8	0.	-9.5787
3042	9.7091	0.8	0.	-7.7997
3043	9.9076	0.8	0.	-6.1349
3044	10.106	0.8	0.	-4.5797
3045	10.305	0.8	0.	-3.1286
3046	10.503	0.8	0.	-1.7773
3047	10.702	0.8	0.	-0.53085
3048	10.9	0.8	0.	-1.728e-002
3049	11.098	0.8	0.	-6.671e-003
3050	11.297	0.8	0.	-4.4941e-003
3051	11.495	0.8	0.	-3.7101e-003
3052	11.694	0.8	0.	-3.3979e-003
3053	11.892	0.8	0.	-3.2504e-003
3054	12.091	0.8	0.	-3.2328e-003
3055	12.289	0.8	0.	-3.2967e-003
3056	12.488	0.8	0.	-3.3548e-003
3057	12.686	0.8	0.	-3.4388e-003
3058	12.885	0.8	0.	-3.5356e-003
3059	13.083	0.8	0.	-3.6447e-003
3060	13.282	0.8	0.	-3.7258e-003
3061	13.48	0.8	0.	-3.8129e-003
3062	13.679	0.8	0.	-3.9043e-003
3063	13.877	0.8	0.	-4.0002e-003
3064	14.076	0.8	0.	-4.0647e-003
3065	14.274	0.8	0.	-4.1495e-003
3066	14.473	0.8	0.	-4.2532e-003
3067	14.671	0.8	0.	-4.3274e-003
3068	14.87	0.8	0.	-4.4063e-003
3069	15.068	0.8	0.	-4.4881e-003
3070	15.267	0.8	0.	-4.5731e-003
3071	15.465	0.8	0.	-4.6334e-003
3072	15.664	0.8	0.	-4.701e-003
3073	15.862	0.8	0.	-4.7713e-003
3074	16.061	0.8	0.	-4.8478e-003
3075	16.259	0.8	0.	-4.9047e-003
3076	16.458	0.8	0.	-4.9808e-003
3077	16.656	0.8	0.	-5.0717e-003
3078	16.855	0.8	0.	-5.1436e-003
3079	17.053	0.8	0.	-5.2244e-003
3080	17.252	0.8	0.	-5.31e-003
3081	17.45	0.8	0.	-5.4013e-003
3082	17.648	0.8	0.	-5.4798e-003
3083	17.847	0.8	0.	-5.5647e-003
3084	18.045	0.8	0.	-5.6589e-003
3085	18.244	0.8	0.	-5.7606e-003
3086	18.442	0.8	0.	-5.8448e-003
3087	18.641	0.8	0.	-5.9449e-003
3088	18.839	0.8	0.	-6.0614e-003
3089	19.038	0.8	0.	-6.159e-003
3090	19.236	0.8	0.	-6.2594e-003
3091	19.435	0.8	0.	-6.3618e-003
3092	19.633	0.8	0.	-6.4602e-003
3093	19.832	0.8	0.	-6.5324e-003
3094	20.03	0.8	0.	-6.5952e-003
3095	20.229	0.8	0.	-6.6383e-003
3096	20.427	0.8	0.	-6.6467e-003
3097	20.626	0.8	0.	-6.6005e-003
3098	20.824	0.8	0.	-6.4946e-003
3099	21.023	0.8	0.	-6.3101e-003
3100	21.221	0.8	0.	-5.9856e-003
3101	21.42	0.8	0.	-5.4939e-003
3102	21.618	0.8	0.	-4.7644e-003
3103	21.817	0.8	0.	-3.6989e-003
3104	22.015	0.8	0.	-2.155e-003
3105	22.214	0.8	0.	5.6511e-005
3106	22.412	0.8	0.	3.3014e-003
3107	22.611	0.8	0.	7.9043e-003
3108	22.809	0.8	0.	1.543e-002
3109	23.008	0.8	0.	2.4575e-002
3110	23.206	0.8	0.	4.9664e-002
3111	23.405	0.8	0.	5.3682e-002
3112	23.603	0.8	0.	0.23271
3113	23.802	0.8	0.	-3.2315e-002
3114	2.3652	0.6	0.	-12.788
3115	2.5636	0.6	0.	-1.8898
3116	2.7621	0.6	0.	-3.0137
3117	2.9606	0.6	0.	-1.4786
3118	3.1591	0.6	0.	-1.0369
3119	3.3576	0.6	0.	-0.69414
3120	3.5561	0.6	0.	-0.52388
3121	3.7545	0.6	0.	-0.41539
3122	3.953	0.6	0.	-0.35283
3123	4.1515	0.6	0.	-0.32081
3124	4.35	0.6	0.	-0.31836
3125	4.5485	0.6	0.	-0.35703
3126	4.747	0.6	0.	-0.49422
3127	4.9455	0.6	0.	-1.1797
3128	5.1439	0.6	0.	-6.7778
3129	5.3424	0.6	0.	-14.582
3130	5.5409	0.6	0.	-20.629
3131	5.7394	0.6	0.	-24.939
3132	5.9379	0.6	0.	-27.774
3133	6.1364	0.6	0.	-29.396
3134	6.3348	0.6	0.	-30.044
3135	6.5333	0.6	0.	-29.923
3136	6.7318	0.6	0.	-29.209
3137	6.9303	0.6	0.	-28.049
3138	7.1288	0.6	0.	-26.564
3139	7.3273	0.6	0.	-24.852
3140	7.5258	0.6	0.	-22.994
3141	7.7242	0.6	0.	-21.052
3142	7.9227	0.6	0.	-19.074
3143	8.1212	0.6	0.	-17.099
3144	8.3197	0.6	0.	-15.156
3145	8.5182	0.6	0.	-13.264
3146	8.7167	0.6	0.	-11.439
3147	8.9152	0.6	0.	-9.6914
3148	9.1136	0.6	0.	-8.0266
3149	9.3121	0.6	0.	-6.4483
3150	9.5106	0.6	0.	-4.9573
3151	9.7091	0.6	0.	-3.553
3152	9.9076	0.6	0.	-2.2335
3153	10.106	0.6	0.	-0.99723
3154	10.305	0.6	0.	-1.9095e-002
3155	10.503	0.6	0.	-2.7184e-003
3156	10.702	0.6	0.	-1.8994e-003
3157	10.9	0.6	0.	-1.8847e-003
3158	11.098	0.6	0.	-2.0279e-003
3159	11.297	0.6	0.	-2.2426e-003
3160	11.495	0.6	0.	-2.485e-003
3161	11.694	0.6	0.	-2.7362e-003
3162	11.892	0.6	0.	-2.9441e-003
3163	12.091	0.6	0.	-3.1714e-003
3164	12.289	0.6	0.	-3.4142e-003
3165	12.488	0.6	0.	-3.6101e-003
3166	12.686	0.6	0.	-3.803e-003
3167	12.885	0.6	0.	-3.9898e-003
3168	13.083	0.6	0.	-4.1718e-003
3169	13.282	0.6	0.	-4.3154e-003
3170	13.48	0.6	0.	-4.4593e-003
3171	13.679	0.6	0.	-4.6036e-003
3172	13.877	0.6	0.	-4.7465e-003
3173	14.076	0.6	0.	-4.856e-003
3174	14.274	0.6	0.	-4.9783e-003
3175	14.473	0.6	0.	-5.1201e-003
3176	14.671	0.6	0.	-5.2341e-003
3177	14.87	0.6	0.	-5.3472e-003
3178	15.068	0.6	0.	-5.4643e-003
3179	15.267	0.6	0.	-5.5857e-003
3180	15.465	0.6	0.	-5.6846e-003
3181	15.664	0.6	0.	-5.7937e-003
3182	15.862	0.6	0.	-5.9053e-003
3183	16.061	0.6	0.	-6.0242e-003
3184	16.259	0.6	0.	-6.1293e-003
3185	16.458	0.6	0.	-6.2479e-003
3186	16.656	0.6	0.	-6.3938e-003
3187	16.855	0.6	0.	-6.5187e-003
3188	17.053	0.6	0.	-6.6609e-003
3189	17.252	0.6	0.	-6.8101e-003
3190	17.45	0.6	0.	-6.9703e-003
3191	17.648	0.6	0.	-7.1234e-003
3192	17.847	0.6	0.	-7.2893e-003
3193	18.045	0.6	0.	-7.4706e-003
3194	18.244	0.6	0.	-7.6705e-003
3195	18.442	0.6	0.	-7.864e-003
3196	18.641	0.6	0.	-8.0868e-003
3197	18.839	0.6	0.	-8.3362e-003
3198	19.038	0.6	0.	-8.5814e-003
3199	19.236	0.6	0.	-8.8446e-003
3200	19.435	0.6	0.	-9.1247e-003
3201	19.633	0.6	0.	-9.4275e-003
3202	19.832	0.6	0.	-9.7333e-003
3203	20.03	0.6	0.	-1.005e-002
3204	20.229	0.6	0.	-1.0388e-002
3205	20.427	0.6	0.	-1.0729e-002
3206	20.626	0.6	0.	-1.1057e-002
3207	20.824	0.6	0.	-1.1379e-002
3208	21.023	0.6	0.	-1.1686e-002
3209	21.221	0.6	0.	-1.1935e-002
3210	21.42	0.6	0.	-1.2104e-002
3211	21.618	0.6	0.	-1.2148e-002
3212	21.817	0.6	0.	-1.1996e-002
3213	22.015	0.6	0.	-1.1524e-002
3214	22.214	0.6	0.	-1.0593e-002
3215	22.412	0.6	0.	-8.8803e-003
3216	22.611	0.6	0.	-6.1219e-003
3217	22.809	0.6	0.	-8.8821e-004
3218	23.008	0.6	0.	5.5268e-003
3219	23.206	0.6	0.	2.6832e-002
3220	23.405	0.6	0.	2.4686e-002
3221	23.603	0.6	0.	0.19708
3222	23.802	0.6	0.	-8.1631e-002
3223	2.3652	0.4	0.	-15.541
3224	2.5636	0.4	0.	-4.2635
3225	2.7621	0.4	0.	-3.4252
3226	2.9606	0.4	0.	-1.2657
3227	3.1591	0.4	0.	-0.7696
3228	3.3576	0.4	0.	-0.5116
3229	3.5561	0.4	0.	-0.42095
3230	3.7545	0.4	0.	-0.35947
3231	3.953	0.4	0.	-0.31001
3232	4.1515	0.4	0.	-0.26428
3233	4.35	0.4	0.	-0.22439
3234	4.5485	0.4	0.	-0.19379
3235	4.747	0.4	0.	-0.17882
3236	4.9455	0.4	0.	-0.19667
3237	5.1439	0.4	0.	-0.34465
3238	5.3424	0.4	0.	-2.378
3239	5.5409	0.4	0.	-7.2918
3240	5.7394	0.4	0.	-11.147
3241	5.9379	0.4	0.	-13.838
3242	6.1364	0.4	0.	-15.551
3243	6.3348	0.4	0.	-16.469
3244	6.5333	0.4	0.	-16.754
3245	6.7318	0.4	0.	-16.545
3246	6.9303	0.4	0.	-15.959
3247	7.1288	0.4	0.	-15.09
3248	7.3273	0.4	0.	-14.02
3249	7.5258	0.4	0.	-12.81
3250	7.7242	0.4	0.	-11.511
3251	7.9227	0.4	0.	-10.164
3252	8.1212	0.4	0.	-8.7995
3253	8.3197	0.4	0.	-7.4412
3254	8.5182	0.4	0.	-6.1067
3255	8.7167	0.4	0.	-4.8091
3256	8.9152	0.4	0.	-3.5575
3257	9.1136	0.4	0.	-2.358
3258	9.3121	0.4	0.	-1.2149
3259	9.5106	0.4	0.	-0.14598
3260	9.7091	0.4	0.	1.1921e-002
3261	9.9076	0.4	0.	1.1623e-002
3262	10.106	0.4	0.	1.0068e-002
3263	10.305	0.4	0.	8.3634e-003
3264	10.503	0.4	0.	6.6773e-003
3265	10.702	0.4	0.	5.0694e-003
3266	10.9	0.4	0.	3.5454e-003
3267	11.098	0.4	0.	2.1584e-003
3268	11.297	0.4	0.	8.5778e-004
3269	11.495	0.4	0.	-3.577e-004
3270	11.694	0.4	0.	-1.4943e-003
3271	11.892	0.4	0.	-2.5141e-003
3272	12.091	0.4	0.	-3.4883e-003
3273	12.289	0.4	0.	-4.4213e-003
3274	12.488	0.4	0.	-5.2567e-003
3275	12.686	0.4	0.	-6.0446e-003
3276	12.885	0.4	0.	-6.7839e-003
3277	13.083	0.4	0.	-7.485e-003
3278	13.282	0.4	0.	-8.1203e-003
3279	13.48	0.4	0.	-8.7231e-003
3280	13.679	0.4	0.	-9.3007e-003
3281	13.877	0.4	0.	-9.8588e-003
3282	14.076	0.4	0.	-1.0362e-002
3283	14.274	0.4	0.	-1.0871e-002
3284	14.473	0.4	0.	-1.1383e-002
3285	14.671	0.4	0.	-1.1857e-002
3286	14.87	0.4	0.	-1.2328e-002
3287	15.068	0.4	0.	-1.2798e-002
3288	15.267	0.4	0.	-1.3273e-002
3289	15.465	0.4	0.	-1.3726e-002
3290	15.664	0.4	0.	-1.4192e-002
3291	15.862	0.4	0.	-1.467e-002
3292	16.061	0.4	0.	-1.5168e-002
3293	16.259	0.4	0.	-1.5659e-002
3294	16.458	0.4	0.	-1.6189e-002
3295	16.656	0.4	0.	-1.6759e-002
3296	16.855	0.4	0.	-1.7338e-002
3297	17.053	0.4	0.	-1.7954e-002
3298	17.252	0.4	0.	-1.8612e-002
3299	17.45	0.4	0.	-1.9313e-002
3300	17.648	0.4	0.	-2.0056e-002
3301	17.847	0.4	0.	-2.0847e-002
3302	18.045	0.4	0.	-2.1706e-002
3303	18.244	0.4	0.	-2.2641e-002
3304	18.442	0.4	0.	-2.363e-002
3305	18.641	0.4	0.	-2.4717e-002
3306	18.839	0.4	0.	-2.5906e-002
3307	19.038	0.4	0.	-2.7182e-002
3308	19.236	0.4	0.	-2.8573e-002
3309	19.435	0.4	0.	-3.0087e-002
3310	19.633	0.4	0.	-3.1743e-002
3311	19.832	0.4	0.	-3.3536e-002
3312	20.03	0.4	0.	-3.55e-002
3313	20.229	0.4	0.	-3.7641e-002
3314	20.427	0.4	0.	-3.9989e-002
3315	20.626	0.4	0.	-4.2548e-002
3316	20.824	0.4	0.	-4.5357e-002
3317	21.023	0.4	0.	-4.8434e-002
3318	21.221	0.4	0.	-5.1802e-002
3319	21.42	0.4	0.	-5.5495e-002
3320	21.618	0.4	0.	-5.9534e-002
3321	21.817	0.4	0.	-6.3959e-002
3322	22.015	0.4	0.	-6.8778e-002
3323	22.214	0.4	0.	-7.4013e-002
3324	22.412	0.4	0.	-7.9598e-002
3325	22.611	0.4	0.	-8.5594e-002
3326	22.809	0.4	0.	-9.111e-002
3327	23.008	0.4	0.	-9.7986e-002
3328	23.206	0.4	0.	-9.5236e-002
3329	23.405	0.4	0.	-0.11581
3330	23.603	0.4	0.	-3.553e-003
3331	23.802	0.4	0.	-0.35875
3332	2.3652	0.2	0.	-32.049
3333	2.5636	0.2	0.	-7.9747
3334	2.7621	0.2	0.	-3.3015
3335	2.9606	0.2	0.	-0.25915
3336	3.1591	0.2	0.	0.42955
3337	3.3576	0.2	0.	0.62037
3338	3.5561	0.2	0.	0.55135
3339	3.7545	0.2	0.	0.43546
3340	3.953	0.2	0.	0.32288
3341	4.1515	0.2	0.	0.23386
3342	4.35	0.2	0.	0.16805
3343	4.5485	0.2	0.	0.1204
3344	4.747	0.2	0.	8.4511e-002
3345	4.9455	0.2	0.	5.3783e-002
3346	5.1439	0.2	0.	1.9237e-002
3347	5.3424	0.2	0.	-4.3183e-002
3348	5.5409	0.2	0.	-0.30965
3349	5.7394	0.2	0.	-1.7028
3350	5.9379	0.2	0.	-3.1893
3351	6.1364	0.2	0.	-4.1704
3352	6.3348	0.2	0.	-4.6975
3353	6.5333	0.2	0.	-4.8555
3354	6.7318	0.2	0.	-4.7221
3355	6.9303	0.2	0.	-4.3644
3356	7.1288	0.2	0.	-3.839
3357	7.3273	0.2	0.	-3.1938
3358	7.5258	0.2	0.	-2.4711
3359	7.7242	0.2	0.	-1.7141
3360	7.9227	0.2	0.	-0.98972
3361	8.1212	0.2	0.	-0.45053
3362	8.3197	0.2	0.	-0.20909
3363	8.5182	0.2	0.	-0.11956
3364	8.7167	0.2	0.	-7.8993e-002
3365	8.9152	0.2	0.	-5.6852e-002
3366	9.1136	0.2	0.	-4.3195e-002
3367	9.3121	0.2	0.	-3.4046e-002
3368	9.5106	0.2	0.	-2.7554e-002
3369	9.7091	0.2	0.	-2.2729e-002
3370	9.9076	0.2	0.	-1.9033e-002
3371	10.106	0.2	0.	-1.6126e-002
3372	10.305	0.2	0.	-1.3772e-002
3373	10.503	0.2	0.	-1.1847e-002
3374	10.702	0.2	0.	-1.0245e-002
3375	10.9	0.2	0.	-8.8994e-003
3376	11.098	0.2	0.	-7.7175e-003
3377	11.297	0.2	0.	-6.7023e-003
3378	11.495	0.2	0.	-5.8236e-003
3379	11.694	0.2	0.	-5.0581e-003
3380	11.892	0.2	0.	-4.347e-003
3381	12.091	0.2	0.	-3.7361e-003
3382	12.289	0.2	0.	-3.2157e-003
3383	12.488	0.2	0.	-2.7122e-003
3384	12.686	0.2	0.	-2.2618e-003
3385	12.885	0.2	0.	-1.8594e-003
3386	13.083	0.2	0.	-1.4971e-003
3387	13.282	0.2	0.	-1.1361e-003
3388	13.48	0.2	0.	-8.0822e-004
3389	13.679	0.2	0.	-5.0311e-004
3390	13.877	0.2	0.	-2.2496e-004
3391	14.076	0.2	0.	6.4246e-005
3392	14.274	0.2	0.	3.1532e-004
3393	14.473	0.2	0.	5.3668e-004
3394	14.671	0.2	0.	7.7536e-004
3395	14.87	0.2	0.	9.9911e-004
3396	15.068	0.2	0.	1.212e-003
3397	15.267	0.2	0.	1.417e-003
3398	15.465	0.2	0.	1.6389e-003
3399	15.664	0.2	0.	1.8569e-003
3400	15.862	0.2	0.	2.0677e-003
3401	16.061	0.2	0.	2.2746e-003
3402	16.259	0.2	0.	2.5067e-003
3403	16.458	0.2	0.	2.7186e-003
3404	16.656	0.2	0.	2.924e-003
3405	16.855	0.2	0.	3.1523e-003
3406	17.053	0.2	0.	3.3811e-003
3407	17.252	0.2	0.	3.6185e-003
3408	17.45	0.2	0.	3.8478e-003
3409	17.648	0.2	0.	4.0988e-003
3410	17.847	0.2	0.	4.3544e-003
3411	18.045	0.2	0.	4.6103e-003
3412	18.244	0.2	0.	4.8697e-003
3413	18.442	0.2	0.	5.1422e-003
3414	18.641	0.2	0.	5.4081e-003
3415	18.839	0.2	0.	5.6604e-003
3416	19.038	0.2	0.	5.9158e-003
3417	19.236	0.2	0.	6.1533e-003
3418	19.435	0.2	0.	6.3705e-003
3419	19.633	0.2	0.	6.5676e-003
3420	19.832	0.2	0.	6.7326e-003
3421	20.03	0.2	0.	6.8434e-003
3422	20.229	0.2	0.	6.8888e-003
3423	20.427	0.2	0.	6.8458e-003
3424	20.626	0.2	0.	6.6915e-003
3425	20.824	0.2	0.	6.3798e-003
3426	21.023	0.2	0.	5.8796e-003
3427	21.221	0.2	0.	5.142e-003
3428	21.42	0.2	0.	4.0891e-003
3429	21.618	0.2	0.	2.6378e-003
3430	21.817	0.2	0.	6.5574e-004
3431	22.015	0.2	0.	-1.9921e-003
3432	22.214	0.2	0.	-5.5459e-003
3433	22.412	0.2	0.	-1.0271e-002
3434	22.611	0.2	0.	-1.6693e-002
3435	22.809	0.2	0.	-2.4955e-002
3436	23.008	0.2	0.	-3.7758e-002
3437	23.206	0.2	0.	-4.9405e-002
3438	23.405	0.2	0.	-8.8687e-002
3439	23.603	0.2	0.	-5.9734e-002
3440	23.802	0.2	0.	-0.4958
3441	23.802	0.2	0.1	0.4958
3442	23.603	0.2	0.1	5.9734e-002
3443	23.405	0.2	0.1	8.8687e-002
3444	23.206	0.2	0.1	4.9407e-002
3445	23.008	0.2	0.1	3.7755e-002
3446	22.809	0.2	0.1	2.4954e-002
3447	22.611	0.2	0.1	1.6692e-002
3448	22.412	0.2	0.1	1.0271e-002
3449	22.214	0.2	0.1	5.5457e-003
3450	22.015	0.2	0.1	1.9945e-003
3451	21.817	0.2	0.1	-6.597e-004
3452	21.618	0.2	0.1	-2.6388e-003
3453	21.42	0.2	0.1	-4.0903e-003
3454	21.221	0.2	0.1	-5.1423e-003
3455	21.023	0.2	0.1	-5.8797e-003
3456	20.824	0.2	0.1	-6.3792e-003
3457	20.626	0.2	0.1	-6.6901e-003
3458	20.427	0.2	0.1	-6.8476e-003
3459	20.229	0.2	0.1	-6.8894e-003
3460	20.03	0.2	0.1	-6.842e-003
3461	19.832	0.2	0.1	-6.7325e-003
3462	19.633	0.2	0.1	-6.5677e-003
3463	19.435	0.2	0.1	-6.3735e-003
3464	19.236	0.2	0.1	-6.1529e-003
3465	19.038	0.2	0.1	-5.9141e-003
3466	18.839	0.2	0.1	-5.6608e-003
3467	18.641	0.2	0.1	-5.4082e-003
3468	18.442	0.2	0.1	-5.1426e-003
3469	18.244	0.2	0.1	-4.8699e-003
3470	18.045	0.2	0.1	-4.611e-003
3471	17.847	0.2	0.1	-4.3553e-003
3472	17.648	0.2	0.1	-4.0997e-003
3473	17.45	0.2	0.1	-3.848e-003
3474	17.252	0.2	0.1	-3.6187e-003
3475	17.053	0.2	0.1	-3.3826e-003
3476	16.855	0.2	0.1	-3.1512e-003
3477	16.656	0.2	0.1	-2.9244e-003
3478	16.458	0.2	0.1	-2.719e-003
3479	16.259	0.2	0.1	-2.5056e-003
3480	16.061	0.2	0.1	-2.2755e-003
3481	15.862	0.2	0.1	-2.068e-003
3482	15.664	0.2	0.1	-1.8576e-003
3483	15.465	0.2	0.1	-1.6393e-003
3484	15.267	0.2	0.1	-1.4161e-003
3485	15.068	0.2	0.1	-1.213e-003
3486	14.87	0.2	0.1	-9.9853e-004
3487	14.671	0.2	0.1	-7.7588e-004
3488	14.473	0.2	0.1	-5.3574e-004
3489	14.274	0.2	0.1	-3.1549e-004
3490	14.076	0.2	0.1	-6.4515e-005
3491	13.877	0.2	0.1	2.2545e-004
3492	13.679	0.2	0.1	5.0344e-004
3493	13.48	0.2	0.1	8.0682e-004
3494	13.282	0.2	0.1	1.1364e-003
3495	13.083	0.2	0.1	1.4972e-003
3496	12.885	0.2	0.1	1.8589e-003
3497	12.686	0.2	0.1	2.2613e-003
3498	12.488	0.2	0.1	2.7119e-003
3499	12.289	0.2	0.1	3.2158e-003
3500	12.091	0.2	0.1	3.736e-003
3501	11.892	0.2	0.1	4.3471e-003
3502	11.694	0.2	0.1	5.0582e-003
3503	11.495	0.2	0.1	5.823e-003
3504	11.297	0.2	0.1	6.7029e-003
3505	11.098	0.2	0.1	7.717e-003
3506	10.9	0.2	0.1	8.8993e-003
3507	10.702	0.2	0.1	1.0245e-002
3508	10.503	0.2	0.1	1.1847e-002
3509	10.305	0.2	0.1	1.3771e-002
3510	10.106	0.2	0.1	1.6126e-002
3511	9.9076	0.2	0.1	1.9033e-002
3512	9.7091	0.2	0.1	2.2729e-002
3513	9.5106	0.2	0.1	2.7554e-002
3514	9.3121	0.2	0.1	3.4046e-002
3515	9.1136	0.2	0.1	4.3195e-002
3516	8.9152	0.2	0.1	5.6852e-002
3517	8.7167	0.2	0.1	7.8993e-002
3518	8.5182	0.2	0.1	0.11956
3519	8.3197	0.2	0.1	0.20909
3520	8.1212	0.2	0.1	0.45053
3521	7.9227	0.2	0.1	0.98972
3522	7.7242	0.2	0.1	1.7141
3523	7.5258	0.2	0.1	2.4711
3524	7.3273	0.2	0.1	3.1938
3525	7.1288	0.2	0.1	3.839
3526	6.9303	0.2	0.1	4.3644
3527	6.7318	0.2	0.1	4.7221
3528	6.5333	0.2	0.1	4.8555
3529	6.3348	0.2	0.1	4.6975
3530	6.1364	0.2	0.1	4.1704
3531	5.9379	0.2	0.1	3.1893
3532	5.7394	0.2	0.1	1.7028
3533	5.5409	0.2	0.1	0.30965
3534	5.3424	0.2	0.1	4.3183e-002
3535	5.1439	0.2	0.1	-1.9237e-002
3536	4.9455	0.2	0.1	-5.3784e-002
3537	4.747	0.2	0.1	-8.4511e-002
3538	4.5485	0.2	0.1	-0.1204
3539	4.35	0.2	0.1	-0.16805
3540	4.1515	0.2	0.1	-0.23386
3541	3.953	0.2	0.1	-0.32288
3542	3.7545	0.2	0.1	-0.43546
3543	3.5561	0.2	0.1	-0.55135
3544	3.3576	0.2	0.1	-0.62037
3545	3.1591	0.2	0.1	-0.42955
3546	2.9606	0.2	0.1	0.25915
3547	2.7621	0.2	0.1	3.3015
3548	2.5636	0.2	0.1	7.9747
3549	2.3652	0.2	0.1	32.049
3550	23.802	0.4	0.1	0.35874
3551	23.603	0.4	0.1	3.5577e-003
3552	23.405	0.4	0.1	0.11581
3553	23.206	0.4	0.1	9.5235e-002
3554	23.008	0.4	0.1	9.7989e-002
3555	22.809	0.4	0.1	9.1114e-002
3556	22.611	0.4	0.1	8.5593e-002
3557	22.412	0.4	0.1	7.9598e-002
3558	22.214	0.4	0.1	7.4013e-002
3559	22.015	0.4	0.1	6.8777e-002
3560	21.817	0.4	0.1	6.396e-002
3561	21.618	0.4	0.1	5.9536e-002
3562	21.42	0.4	0.1	5.5494e-002
3563	21.221	0.4	0.1	5.1803e-002
3564	21.023	0.4	0.1	4.8436e-002
3565	20.824	0.4	0.1	4.5357e-002
3566	20.626	0.4	0.1	4.2548e-002
3567	20.427	0.4	0.1	3.999e-002
3568	20.229	0.4	0.1	3.7642e-002
3569	20.03	0.4	0.1	3.5499e-002
3570	19.832	0.4	0.1	3.3537e-002
3571	19.633	0.4	0.1	3.1745e-002
3572	19.435	0.4	0.1	3.0088e-002
3573	19.236	0.4	0.1	2.8574e-002
3574	19.038	0.4	0.1	2.7182e-002
3575	18.839	0.4	0.1	2.5906e-002
3576	18.641	0.4	0.1	2.4717e-002
3577	18.442	0.4	0.1	2.3631e-002
3578	18.244	0.4	0.1	2.2641e-002
3579	18.045	0.4	0.1	2.1706e-002
3580	17.847	0.4	0.1	2.0848e-002
3581	17.648	0.4	0.1	2.0055e-002
3582	17.45	0.4	0.1	1.9316e-002
3583	17.252	0.4	0.1	1.8611e-002
3584	17.053	0.4	0.1	1.7954e-002
3585	16.855	0.4	0.1	1.7337e-002
3586	16.656	0.4	0.1	1.6759e-002
3587	16.458	0.4	0.1	1.6189e-002
3588	16.259	0.4	0.1	1.566e-002
3589	16.061	0.4	0.1	1.5168e-002
3590	15.862	0.4	0.1	1.4671e-002
3591	15.664	0.4	0.1	1.4192e-002
3592	15.465	0.4	0.1	1.3726e-002
3593	15.267	0.4	0.1	1.3273e-002
3594	15.068	0.4	0.1	1.2799e-002
3595	14.87	0.4	0.1	1.2327e-002
3596	14.671	0.4	0.1	1.1857e-002
3597	14.473	0.4	0.1	1.1384e-002
3598	14.274	0.4	0.1	1.0871e-002
3599	14.076	0.4	0.1	1.0363e-002
3600	13.877	0.4	0.1	9.8583e-003
3601	13.679	0.4	0.1	9.3009e-003
3602	13.48	0.4	0.1	8.7235e-003
3603	13.282	0.4	0.1	8.1201e-003
3604	13.083	0.4	0.1	7.4856e-003
3605	12.885	0.4	0.1	6.7844e-003
3606	12.686	0.4	0.1	6.0454e-003
3607	12.488	0.4	0.1	5.2569e-003
3608	12.289	0.4	0.1	4.4212e-003
3609	12.091	0.4	0.1	3.4884e-003
3610	11.892	0.4	0.1	2.5146e-003
3611	11.694	0.4	0.1	1.4942e-003
3612	11.495	0.4	0.1	3.5758e-004
3613	11.297	0.4	0.1	-8.5778e-004
3614	11.098	0.4	0.1	-2.1583e-003
3615	10.9	0.4	0.1	-3.5459e-003
3616	10.702	0.4	0.1	-5.0686e-003
3617	10.503	0.4	0.1	-6.6771e-003
3618	10.305	0.4	0.1	-8.3633e-003
3619	10.106	0.4	0.1	-1.0068e-002
3620	9.9076	0.4	0.1	-1.1623e-002
3621	9.7091	0.4	0.1	-1.1921e-002
3622	9.5106	0.4	0.1	0.14598
3623	9.3121	0.4	0.1	1.2149
3624	9.1136	0.4	0.1	2.358
3625	8.9152	0.4	0.1	3.5575
3626	8.7167	0.4	0.1	4.8091
3627	8.5182	0.4	0.1	6.1067
3628	8.3197	0.4	0.1	7.4412
3629	8.1212	0.4	0.1	8.7995
3630	7.9227	0.4	0.1	10.164
3631	7.7242	0.4	0.1	11.511
3632	7.5258	0.4	0.1	12.81
3633	7.3273	0.4	0.1	14.02
3634	7.1288	0.4	0.1	15.09
3635	6.9303	0.4	0.1	15.959
3636	6.7318	0.4	0.1	16.545
3637	6.5333	0.4	0.1	16.754
3638	6.3348	0.4	0.1	16.469
3639	6.1364	0.4	0.1	15.551
3640	5.9379	0.4	0.1	13.838
3641	5.7394	0.4	0.1	11.147
3642	5.5409	0.4	0.1	7.2918
3643	5.3424	0.4	0.1	2.378
3644	5.1439	0.4	0.1	0.34465
3645	4.9455	0.4	0.1	0.19668
3646	4.747	0.4	0.1	0.17882
3647	4.5485	0.4	0.1	0.19379
3648	4.35	0.4	0.1	0.22439
3649	4.1515	0.4	0.1	0.26428
3650	3.953	0.4	0.1	0.31001
3651	3.7545	0.4	0.1	0.35947
3652	3.5561	0.4	0.1	0.42095
3653	3.3576	0.4	0.1	0.5116
3654	3.1591	0.4	0.1	0.7696
3655	2.9606	0.4	0.1	1.2657
3656	2.7621	0.4	0.1	3.4252
3657	2.5636	0.4	0.1	4.2635
3658	2.3652	0.4	0.1	15.541
3659	23.802	0.6	0.1	8.1633e-002
3660	23.603	0.6	0.1	-0.19707
3661	23.405	0.6	0.1	-2.4685e-002
3662	23.206	0.6	0.1	-2.683e-002
3663	23.008	0.6	0.1	-5.5265e-003
3664	22.809	0.6	0.1	8.9246e-004
3665	22.611	0.6	0.1	6.1226e-003
3666	22.412	0.6	0.1	8.8789e-003
3667	22.214	0.6	0.1	1.0592e-002
3668	22.015	0.6	0.1	1.1525e-002
3669	21.817	0.6	0.1	1.1996e-002
3670	21.618	0.6	0.1	1.2149e-002
3671	21.42	0.6	0.1	1.2106e-002
3672	21.221	0.6	0.1	1.1935e-002
3673	21.023	0.6	0.1	1.1686e-002
3674	20.824	0.6	0.1	1.1379e-002
3675	20.626	0.6	0.1	1.1056e-002
3676	20.427	0.6	0.1	1.0729e-002
3677	20.229	0.6	0.1	1.0386e-002
3678	20.03	0.6	0.1	1.0049e-002
3679	19.832	0.6	0.1	9.733e-003
3680	19.633	0.6	0.1	9.4292e-003
3681	19.435	0.6	0.1	9.1247e-003
3682	19.236	0.6	0.1	8.8422e-003
3683	19.038	0.6	0.1	8.5808e-003
3684	18.839	0.6	0.1	8.3361e-003
3685	18.641	0.6	0.1	8.086e-003
3686	18.442	0.6	0.1	7.8626e-003
3687	18.244	0.6	0.1	7.672e-003
3688	18.045	0.6	0.1	7.4696e-003
3689	17.847	0.6	0.1	7.2885e-003
3690	17.648	0.6	0.1	7.122e-003
3691	17.45	0.6	0.1	6.97e-003
3692	17.252	0.6	0.1	6.8118e-003
3693	17.053	0.6	0.1	6.6595e-003
3694	16.855	0.6	0.1	6.5201e-003
3695	16.656	0.6	0.1	6.3935e-003
3696	16.458	0.6	0.1	6.2488e-003
3697	16.259	0.6	0.1	6.129e-003
3698	16.061	0.6	0.1	6.0245e-003
3699	15.862	0.6	0.1	5.9051e-003
3700	15.664	0.6	0.1	5.7931e-003
3701	15.465	0.6	0.1	5.6854e-003
3702	15.267	0.6	0.1	5.5848e-003
3703	15.068	0.6	0.1	5.4643e-003
3704	14.87	0.6	0.1	5.3474e-003
3705	14.671	0.6	0.1	5.2343e-003
3706	14.473	0.6	0.1	5.1213e-003
3707	14.274	0.6	0.1	4.9775e-003
3708	14.076	0.6	0.1	4.8555e-003
3709	13.877	0.6	0.1	4.7479e-003
3710	13.679	0.6	0.1	4.6023e-003
3711	13.48	0.6	0.1	4.4596e-003
3712	13.282	0.6	0.1	4.3152e-003
3713	13.083	0.6	0.1	4.1713e-003
3714	12.885	0.6	0.1	3.989e-003
3715	12.686	0.6	0.1	3.8044e-003
3716	12.488	0.6	0.1	3.6099e-003
3717	12.289	0.6	0.1	3.4143e-003
3718	12.091	0.6	0.1	3.1711e-003
3719	11.892	0.6	0.1	2.9444e-003
3720	11.694	0.6	0.1	2.7358e-003
3721	11.495	0.6	0.1	2.4847e-003
3722	11.297	0.6	0.1	2.2426e-003
3723	11.098	0.6	0.1	2.0283e-003
3724	10.9	0.6	0.1	1.8848e-003
3725	10.702	0.6	0.1	1.8988e-003
3726	10.503	0.6	0.1	2.7182e-003
3727	10.305	0.6	0.1	1.9096e-002
3728	10.106	0.6	0.1	0.99723
3729	9.9076	0.6	0.1	2.2335
3730	9.7091	0.6	0.1	3.553
3731	9.5106	0.6	0.1	4.9573
3732	9.3121	0.6	0.1	6.4483
3733	9.1136	0.6	0.1	8.0266
3734	8.9152	0.6	0.1	9.6914
3735	8.7167	0.6	0.1	11.439
3736	8.5182	0.6	0.1	13.264
3737	8.3197	0.6	0.1	15.156
3738	8.1212	0.6	0.1	17.099
3739	7.9227	0.6	0.1	19.074
3740	7.7242	0.6	0.1	21.052
3741	7.5258	0.6	0.1	22.994
3742	7.3273	0.6	0.1	24.852
3743	7.1288	0.6	0.1	26.564
3744	6.9303	0.6	0.1	28.049
3745	6.7318	0.6	0.1	29.209
3746	6.5333	0.6	0.1	29.923
3747	6.3348	0.6	0.1	30.044
3748	6.1364	0.6	0.1	29.396
3749	5.9379	0.6	0.1	27.774
3750	5.7394	0.6	0.1	24.939
3751	5.5409	0.6	0.1	20.629
3752	5.3424	0.6	0.1	14.582
3753	5.1439	0.6	0.1	6.7778
3754	4.9455	0.6	0.1	1.1798
3755	4.747	0.6	0.1	0.49422
3756	4.5485	0.6	0.1	0.35703
3757	4.35	0.6	0.1	0.31836
3758	4.1515	0.6	0.1	0.32081
3759	3.953	0.6	0.1	0.35283
3760	3.7545	0.6	0.1	0.41539
3761	3.5561	0.6	0.1	0.52388
3762	3.3576	0.6	0.1	0.69414
3763	3.1591	0.6	0.1	1.0369
3764	2.9606	0.6	0.1	1.4786
3765	2.7621	0.6	0.1	3.0137
3766	2.5636	0.6	0.1	1.8898
3767	2.3652	0.6	0.1	12.788
3768	23.802	0.8	0.1	3.2317e-002
3769	23.603	0.8	0.1	-0.23271
3770	23.405	0.8	0.1	-5.3684e-002
3771	23.206	0.8	0.1	-4.9662e-002
3772	23.008	0.8	0.1	-2.4574e-002
3773	22.809	0.8	0.1	-1.5432e-002
3774	22.611	0.8	0.1	-7.9045e-003
3775	22.412	0.8	0.1	-3.3012e-003
3776	22.214	0.8	0.1	-5.6396e-005
3777	22.015	0.8	0.1	2.1539e-003
3778	21.817	0.8	0.1	3.6998e-003
3779	21.618	0.8	0.1	4.7638e-003
3780	21.42	0.8	0.1	5.4927e-003
3781	21.221	0.8	0.1	5.9859e-003
3782	21.023	0.8	0.1	6.3097e-003
3783	20.824	0.8	0.1	6.4956e-003
3784	20.626	0.8	0.1	6.6007e-003
3785	20.427	0.8	0.1	6.6467e-003
3786	20.229	0.8	0.1	6.638e-003
3787	20.03	0.8	0.1	6.5965e-003
3788	19.832	0.8	0.1	6.5355e-003
3789	19.633	0.8	0.1	6.4572e-003
3790	19.435	0.8	0.1	6.3611e-003
3791	19.236	0.8	0.1	6.2605e-003
3792	19.038	0.8	0.1	6.1607e-003
3793	18.839	0.8	0.1	6.0605e-003
3794	18.641	0.8	0.1	5.9451e-003
3795	18.442	0.8	0.1	5.8448e-003
3796	18.244	0.8	0.1	5.7591e-003
3797	18.045	0.8	0.1	5.6595e-003
3798	17.847	0.8	0.1	5.5658e-003
3799	17.648	0.8	0.1	5.4792e-003
3800	17.45	0.8	0.1	5.4024e-003
3801	17.252	0.8	0.1	5.3095e-003
3802	17.053	0.8	0.1	5.2239e-003
3803	16.855	0.8	0.1	5.1428e-003
3804	16.656	0.8	0.1	5.0722e-003
3805	16.458	0.8	0.1	4.9802e-003
3806	16.259	0.8	0.1	4.9062e-003
3807	16.061	0.8	0.1	4.8487e-003
3808	15.862	0.8	0.1	4.7713e-003
3809	15.664	0.8	0.1	4.7003e-003
3810	15.465	0.8	0.1	4.6338e-003
3811	15.267	0.8	0.1	4.5728e-003
3812	15.068	0.8	0.1	4.4878e-003
3813	14.87	0.8	0.1	4.4069e-003
3814	14.671	0.8	0.1	4.3274e-003
3815	14.473	0.8	0.1	4.2543e-003
3816	14.274	0.8	0.1	4.1492e-003
3817	14.076	0.8	0.1	4.0639e-003
3818	13.877	0.8	0.1	3.9997e-003
3819	13.679	0.8	0.1	3.9042e-003
3820	13.48	0.8	0.1	3.8122e-003
3821	13.282	0.8	0.1	3.726e-003
3822	13.083	0.8	0.1	3.6454e-003
3823	12.885	0.8	0.1	3.5363e-003
3824	12.686	0.8	0.1	3.4386e-003
3825	12.488	0.8	0.1	3.355e-003
3826	12.289	0.8	0.1	3.2971e-003
3827	12.091	0.8	0.1	3.2331e-003
3828	11.892	0.8	0.1	3.25e-003
3829	11.694	0.8	0.1	3.3975e-003
3830	11.495	0.8	0.1	3.7104e-003
3831	11.297	0.8	0.1	4.4937e-003
3832	11.098	0.8	0.1	6.6701e-003
3833	10.9	0.8	0.1	1.7281e-002
3834	10.702	0.8	0.1	0.53085
3835	10.503	0.8	0.1	1.7773
3836	10.305	0.8	0.1	3.1286
3837	10.106	0.8	0.1	4.5797
3838	9.9076	0.8	0.1	6.1349
3839	9.7091	0.8	0.1	7.7997
3840	9.5106	0.8	0.1	9.5787
3841	9.3121	0.8	0.1	11.476
3842	9.1136	0.8	0.1	13.494
3843	8.9152	0.8	0.1	15.635
3844	8.7167	0.8	0.1	17.896
3845	8.5182	0.8	0.1	20.273
3846	8.3197	0.8	0.1	22.759
3847	8.1212	0.8	0.1	25.338
3848	7.9227	0.8	0.1	27.992
3849	7.7242	0.8	0.1	30.692
3850	7.5258	0.8	0.1	33.399
3851	7.3273	0.8	0.1	36.063
3852	7.1288	0.8	0.1	38.617
3853	6.9303	0.8	0.1	40.978
3854	6.7318	0.8	0.1	43.041
3855	6.5333	0.8	0.1	44.676
3856	6.3348	0.8	0.1	45.723
3857	6.1364	0.8	0.1	45.992
3858	5.9379	0.8	0.1	45.258
3859	5.7394	0.8	0.1	43.258
3860	5.5409	0.8	0.1	39.692
3861	5.3424	0.8	0.1	34.234
3862	5.1439	0.8	0.1	26.554
3863	4.9455	0.8	0.1	16.464
3864	4.747	0.8	0.1	5.5171
3865	4.5485	0.8	0.1	1.6588
3866	4.35	0.8	0.1	1.0681
3867	4.1515	0.8	0.1	0.91924
3868	3.953	0.8	0.1	0.90472
3869	3.7545	0.8	0.1	0.96179
3870	3.5561	0.8	0.1	1.0787
3871	3.3576	0.8	0.1	1.2402
3872	3.1591	0.8	0.1	1.5189
3873	2.9606	0.8	0.1	1.6893
3874	2.7621	0.8	0.1	2.6993
3875	2.5636	0.8	0.1	0.3956
3876	2.3652	0.8	0.1	11.559
3877	23.802	1.	0.1	-2.0815e-002
3878	23.603	1.	0.1	-0.27032
3879	23.405	1.	0.1	-8.2152e-002
3880	23.206	1.	0.1	-7.4739e-002
3881	23.008	1.	0.1	-4.6633e-002
3882	22.809	1.	0.1	-3.5141e-002
3883	22.611	1.	0.1	-2.5657e-002
3884	22.412	1.	0.1	-1.9397e-002
3885	22.214	1.	0.1	-1.4716e-002
3886	22.015	1.	0.1	-1.1251e-002
3887	21.817	1.	0.1	-8.6114e-003
3888	21.618	1.	0.1	-6.5761e-003
3889	21.42	1.	0.1	-4.9852e-003
3890	21.221	1.	0.1	-3.7277e-003
3891	21.023	1.	0.1	-2.7187e-003
3892	20.824	1.	0.1	-1.9158e-003
3893	20.626	1.	0.1	-1.2529e-003
3894	20.427	1.	0.1	-7.0477e-004
3895	20.229	1.	0.1	-2.6038e-004
3896	20.03	1.	0.1	1.1016e-004
3897	19.832	1.	0.1	4.2393e-004
3898	19.633	1.	0.1	6.9185e-004
3899	19.435	1.	0.1	9.103e-004
3900	19.236	1.	0.1	1.0987e-003
3901	19.038	1.	0.1	1.2615e-003
3902	18.839	1.	0.1	1.4054e-003
3903	18.641	1.	0.1	1.5131e-003
3904	18.442	1.	0.1	1.6188e-003
3905	18.244	1.	0.1	1.7216e-003
3906	18.045	1.	0.1	1.8013e-003
3907	17.847	1.	0.1	1.8744e-003
3908	17.648	1.	0.1	1.9385e-003
3909	17.45	1.	0.1	2.0039e-003
3910	17.252	1.	0.1	2.0458e-003
3911	17.053	1.	0.1	2.0835e-003
3912	16.855	1.	0.1	2.1212e-003
3913	16.656	1.	0.1	2.1595e-003
3914	16.458	1.	0.1	2.1723e-003
3915	16.259	1.	0.1	2.2e-003
3916	16.061	1.	0.1	2.2401e-003
3917	15.862	1.	0.1	2.2573e-003
3918	15.664	1.	0.1	2.2741e-003
3919	15.465	1.	0.1	2.2946e-003
3920	15.267	1.	0.1	2.3194e-003
3921	15.068	1.	0.1	2.321e-003
3922	14.87	1.	0.1	2.3262e-003
3923	14.671	1.	0.1	2.3358e-003
3924	14.473	1.	0.1	2.352e-003
3925	14.274	1.	0.1	2.3401e-003
3926	14.076	1.	0.1	2.3516e-003
3927	13.877	1.	0.1	2.3885e-003
3928	13.679	1.	0.1	2.4015e-003
3929	13.48	1.	0.1	2.4286e-003
3930	13.282	1.	0.1	2.4725e-003
3931	13.083	1.	0.1	2.5397e-003
3932	12.885	1.	0.1	2.6026e-003
3933	12.686	1.	0.1	2.7069e-003
3934	12.488	1.	0.1	2.8735e-003
3935	12.289	1.	0.1	3.138e-003
3936	12.091	1.	0.1	3.5229e-003
3937	11.892	1.	0.1	4.2273e-003
3938	11.694	1.	0.1	5.5961e-003
3939	11.495	1.	0.1	8.7511e-003
3940	11.297	1.	0.1	2.1996e-002
3941	11.098	1.	0.1	0.48717
3942	10.9	1.	0.1	1.7573
3943	10.702	1.	0.1	3.1473
3944	10.503	1.	0.1	4.6461
3945	10.305	1.	0.1	6.2594
3946	10.106	1.	0.1	7.9953
3947	9.9076	1.	0.1	9.8611
3948	9.7091	1.	0.1	11.865
3949	9.5106	1.	0.1	14.014
3950	9.3121	1.	0.1	16.316
3951	9.1136	1.	0.1	18.775
3952	8.9152	1.	0.1	21.397
3953	8.7167	1.	0.1	24.184
3954	8.5182	1.	0.1	27.134
3955	8.3197	1.	0.1	30.243
3956	8.1212	1.	0.1	33.503
3957	7.9227	1.	0.1	36.896
3958	7.7242	1.	0.1	40.401
3959	7.5258	1.	0.1	43.984
3960	7.3273	1.	0.1	47.599
3961	7.1288	1.	0.1	51.186
3962	6.9303	1.	0.1	54.667
3963	6.7318	1.	0.1	57.942
3964	6.5333	1.	0.1	60.887
3965	6.3348	1.	0.1	63.349
3966	6.1364	1.	0.1	65.141
3967	5.9379	1.	0.1	66.04
3968	5.7394	1.	0.1	65.783
3969	5.5409	1.	0.1	64.065
3970	5.3424	1.	0.1	60.537
3971	5.1439	1.	0.1	54.81
3972	4.9455	1.	0.1	46.468
3973	4.747	1.	0.1	35.125
3974	4.5485	1.	0.1	20.804
3975	4.35	1.	0.1	7.3631
3976	4.1515	1.	0.1	3.1126
3977	3.953	1.	0.1	2.1999
3978	3.7545	1.	0.1	1.9207
3979	3.5561	1.	0.1	1.8554
3980	3.3576	1.	0.1	1.8794
3981	3.1591	1.	0.1	2.0266
3982	2.9606	1.	0.1	1.9089
3983	2.7621	1.	0.1	3.0153
3984	2.5636	1.	0.1	-0.7175
3985	2.3652	1.	0.1	13.901
3986	23.802	1.2	0.1	-5.2326e-002
3987	23.603	1.2	0.1	-0.29117
3988	23.405	1.2	0.1	-9.7915e-002
3989	23.206	1.2	0.1	-8.893e-002
3990	23.008	1.2	0.1	-5.9273e-002
3991	22.809	1.2	0.1	-4.6658e-002
3992	22.611	1.2	0.1	-3.6207e-002
3993	22.412	1.2	0.1	-2.9111e-002
3994	22.214	1.2	0.1	-2.3697e-002
3995	22.015	1.2	0.1	-1.958e-002
3996	21.817	1.2	0.1	-1.6353e-002
3997	21.618	1.2	0.1	-1.3799e-002
3998	21.42	1.2	0.1	-1.1735e-002
3999	21.221	1.2	0.1	-1.0049e-002
4000	21.023	1.2	0.1	-8.657e-003
4001	20.824	1.2	0.1	-7.4999e-003
4002	20.626	1.2	0.1	-6.5205e-003
4003	20.427	1.2	0.1	-5.6839e-003
4004	20.229	1.2	0.1	-4.9726e-003
4005	20.03	1.2	0.1	-4.3564e-003
4006	19.832	1.2	0.1	-3.8187e-003
4007	19.633	1.2	0.1	-3.3437e-003
4008	19.435	1.2	0.1	-2.9372e-003
4009	19.236	1.2	0.1	-2.5743e-003
4010	19.038	1.2	0.1	-2.2501e-003
4011	18.839	1.2	0.1	-1.9577e-003
4012	18.641	1.2	0.1	-1.7078e-003
4013	18.442	1.2	0.1	-1.4697e-003
4014	18.244	1.2	0.1	-1.2468e-003
4015	18.045	1.2	0.1	-1.0566e-003
4016	17.847	1.2	0.1	-8.7888e-004
4017	17.648	1.2	0.1	-7.1298e-004
4018	17.45	1.2	0.1	-5.5651e-004
4019	17.252	1.2	0.1	-4.3053e-004
4020	17.053	1.2	0.1	-3.0705e-004
4021	16.855	1.2	0.1	-1.9094e-004
4022	16.656	1.2	0.1	-7.8556e-005
4023	16.458	1.2	0.1	3.2939e-006
4024	16.259	1.2	0.1	9.7705e-005
4025	16.061	1.2	0.1	2.0128e-004
4026	15.862	1.2	0.1	2.7984e-004
4027	15.664	1.2	0.1	3.5718e-004
4028	15.465	1.2	0.1	4.3821e-004
4029	15.267	1.2	0.1	5.1964e-004
4030	15.068	1.2	0.1	5.7805e-004
4031	14.87	1.2	0.1	6.4309e-004
4032	14.671	1.2	0.1	7.099e-004
4033	14.473	1.2	0.1	7.8688e-004
4034	14.274	1.2	0.1	8.3699e-004
4035	14.076	1.2	0.1	9.1473e-004
4036	13.877	1.2	0.1	1.0217e-003
4037	13.679	1.2	0.1	1.112e-003
4038	13.48	1.2	0.1	1.2235e-003
4039	13.282	1.2	0.1	1.3686e-003
4040	13.083	1.2	0.1	1.5529e-003
4041	12.885	1.2	0.1	1.7619e-003
4042	12.686	1.2	0.1	2.0602e-003
4043	12.488	1.2	0.1	2.4973e-003
4044	12.289	1.2	0.1	3.181e-003
4045	12.091	1.2	0.1	4.3031e-003
4046	11.892	1.2	0.1	6.6145e-003
4047	11.694	1.2	0.1	1.3222e-002
4048	11.495	1.2	0.1	8.8054e-002
4049	11.297	1.2	0.1	1.1645
4050	11.098	1.2	0.1	2.5335
4051	10.9	1.2	0.1	4.0163
4052	10.702	1.2	0.1	5.6166
4053	10.503	1.2	0.1	7.3435
4054	10.305	1.2	0.1	9.2063
4055	10.106	1.2	0.1	11.215
4056	9.9076	1.2	0.1	13.381
4057	9.7091	1.2	0.1	15.714
4058	9.5106	1.2	0.1	18.225
4059	9.3121	1.2	0.1	20.923
4060	9.1136	1.2	0.1	23.82
4061	8.9152	1.2	0.1	26.922
4062	8.7167	1.2	0.1	30.238
4063	8.5182	1.2	0.1	33.771
4064	8.3197	1.2	0.1	37.525
4065	8.1212	1.2	0.1	41.496
4066	7.9227	1.2	0.1	45.677
4067	7.7242	1.2	0.1	50.054
4068	7.5258	1.2	0.1	54.604
4069	7.3273	1.2	0.1	59.292
4070	7.1288	1.2	0.1	64.072
4071	6.9303	1.2	0.1	68.881
4072	6.7318	1.2	0.1	73.635
4073	6.5333	1.2	0.1	78.229
4074	6.3348	1.2	0.1	82.531
4075	6.1364	1.2	0.1	86.375
4076	5.9379	1.2	0.1	89.56
4077	5.7394	1.2	0.1	91.846
4078	5.5409	1.2	0.1	92.945
4079	5.3424	1.2	0.1	92.516
4080	5.1439	1.2	0.1	90.162
4081	4.9455	1.2	0.1	85.409
4082	4.747	1.2	0.1	77.697
4083	4.5485	1.2	0.1	66.359
4084	4.35	1.2	0.1	50.646
4085	4.1515	1.2	0.1	30.323
4086	3.953	1.2	0.1	11.366
4087	3.7545	1.2	0.1	5.1201
4088	3.5561	1.2	0.1	3.5518
4089	3.3576	1.2	0.1	2.9661
4090	3.1591	1.2	0.1	2.74
4091	2.9606	1.2	0.1	2.6194
4092	2.7621	1.2	0.1	3.2069
4093	2.5636	1.2	0.1	-1.0527
4094	2.3652	1.2	0.1	11.077
4095	23.802	1.4	0.1	-7.7027e-002
4096	23.603	1.4	0.1	-0.30686
4097	23.405	1.4	0.1	-0.10972
4098	23.206	1.4	0.1	-9.9546e-002
4099	23.008	1.4	0.1	-6.8842e-002
4100	22.809	1.4	0.1	-5.5465e-002
4101	22.611	1.4	0.1	-4.4366e-002
4102	22.412	1.4	0.1	-3.6714e-002
4103	22.214	1.4	0.1	-3.0807e-002
4104	22.015	1.4	0.1	-2.6246e-002
4105	21.817	1.4	0.1	-2.2619e-002
4106	21.618	1.4	0.1	-1.9697e-002
4107	21.42	1.4	0.1	-1.7301e-002
4108	21.221	1.4	0.1	-1.5312e-002
4109	21.023	1.4	0.1	-1.364e-002
4110	20.824	1.4	0.1	-1.2227e-002
4111	20.626	1.4	0.1	-1.1013e-002
4112	20.427	1.4	0.1	-9.9573e-003
4113	20.229	1.4	0.1	-9.0473e-003
4114	20.03	1.4	0.1	-8.2441e-003
4115	19.832	1.4	0.1	-7.5359e-003
4116	19.633	1.4	0.1	-6.9024e-003
4117	19.435	1.4	0.1	-6.3503e-003
4118	19.236	1.4	0.1	-5.8482e-003
4119	19.038	1.4	0.1	-5.3961e-003
4120	18.839	1.4	0.1	-4.9829e-003
4121	18.641	1.4	0.1	-4.6221e-003
4122	18.442	1.4	0.1	-4.2843e-003
4123	18.244	1.4	0.1	-3.9611e-003
4124	18.045	1.4	0.1	-3.6781e-003
4125	17.847	1.4	0.1	-3.416e-003
4126	17.648	1.4	0.1	-3.1709e-003
4127	17.45	1.4	0.1	-2.9382e-003
4128	17.252	1.4	0.1	-2.7382e-003
4129	17.053	1.4	0.1	-2.5504e-003
4130	16.855	1.4	0.1	-2.369e-003
4131	16.656	1.4	0.1	-2.1947e-003
4132	16.458	1.4	0.1	-2.0526e-003
4133	16.259	1.4	0.1	-1.9026e-003
4134	16.061	1.4	0.1	-1.7454e-003
4135	15.862	1.4	0.1	-1.6144e-003
4136	15.664	1.4	0.1	-1.4855e-003
4137	15.465	1.4	0.1	-1.3545e-003
4138	15.267	1.4	0.1	-1.225e-003
4139	15.068	1.4	0.1	-1.117e-003
4140	14.87	1.4	0.1	-1.0064e-003
4141	14.671	1.4	0.1	-8.8929e-004
4142	14.473	1.4	0.1	-7.645e-004
4143	14.274	1.4	0.1	-6.6296e-004
4144	14.076	1.4	0.1	-5.3239e-004
4145	13.877	1.4	0.1	-3.6593e-004
4146	13.679	1.4	0.1	-2.1275e-004
4147	13.48	1.4	0.1	-2.6272e-005
4148	13.282	1.4	0.1	2.0265e-004
4149	13.083	1.4	0.1	4.9572e-004
4150	12.885	1.4	0.1	8.4839e-004
4151	12.686	1.4	0.1	1.3537e-003
4152	12.488	1.4	0.1	2.1303e-003
4153	12.289	1.4	0.1	3.4609e-003
4154	12.091	1.4	0.1	6.1774e-003
4155	11.892	1.4	0.1	1.5069e-002
4156	11.694	1.4	0.1	0.23241
4157	11.495	1.4	0.1	1.487
4158	11.297	1.4	0.1	2.9077
4159	11.098	1.4	0.1	4.445
4160	10.9	1.4	0.1	6.1066
4161	10.702	1.4	0.1	7.902
4162	10.503	1.4	0.1	9.843
4163	10.305	1.4	0.1	11.941
4164	10.106	1.4	0.1	14.209
4165	9.9076	1.4	0.1	16.66
4166	9.7091	1.4	0.1	19.307
4167	9.5106	1.4	0.1	22.165
4168	9.3121	1.4	0.1	25.247
4169	9.1136	1.4	0.1	28.568
4170	8.9152	1.4	0.1	32.142
4171	8.7167	1.4	0.1	35.982
4172	8.5182	1.4	0.1	40.099
4173	8.3197	1.4	0.1	44.503
4174	8.1212	1.4	0.1	49.201
4175	7.9227	1.4	0.1	54.196
4176	7.7242	1.4	0.1	59.487
4177	7.5258	1.4	0.1	65.065
4178	7.3273	1.4	0.1	70.914
4179	7.1288	1.4	0.1	77.005
4180	6.9303	1.4	0.1	83.298
4181	6.7318	1.4	0.1	89.735
4182	6.5333	1.4	0.1	96.241
4183	6.3348	1.4	0.1	102.72
4184	6.1364	1.4	0.1	109.03
4185	5.9379	1.4	0.1	115.02
4186	5.7394	1.4	0.1	120.49
4187	5.5409	1.4	0.1	125.19
4188	5.3424	1.4	0.1	128.81
4189	5.1439	1.4	0.1	130.98
4190	4.9455	1.4	0.1	131.23
4191	4.747	1.4	0.1	128.94
4192	4.5485	1.4	0.1	123.31
4193	4.35	1.4	0.1	113.19
4194	4.1515	1.4	0.1	96.912
4195	3.953	1.4	0.1	72.144
4196	3.7545	1.4	0.1	37.509
4197	3.5561	1.4	0.1	11.205
4198	3.3576	1.4	0.1	5.5327
4199	3.1591	1.4	0.1	4.1984
4200	2.9606	1.4	0.1	3.7869
4201	2.7621	1.4	0.1	3.4051
4202	2.5636	1.4	0.1	-0.53835
4203	2.3652	1.4	0.1	35.154
4204	23.802	1.6	0.1	-9.5568e-002
4205	23.603	1.6	0.1	-0.3181
4206	23.405	1.6	0.1	-0.11804
4207	23.206	1.6	0.1	-0.10706
4208	23.008	1.6	0.1	-7.564e-002
4209	22.809	1.6	0.1	-6.1769e-002
4210	22.611	1.6	0.1	-5.0257e-002
4211	22.412	1.6	0.1	-4.2254e-002
4212	22.214	1.6	0.1	-3.6035e-002
4213	22.015	1.6	0.1	-3.1197e-002
4214	21.817	1.6	0.1	-2.7314e-002
4215	21.618	1.6	0.1	-2.4159e-002
4216	21.42	1.6	0.1	-2.1546e-002
4217	21.221	1.6	0.1	-1.9357e-002
4218	21.023	1.6	0.1	-1.7499e-002
4219	20.824	1.6	0.1	-1.5917e-002
4220	20.626	1.6	0.1	-1.4543e-002
4221	20.427	1.6	0.1	-1.3338e-002
4222	20.229	1.6	0.1	-1.229e-002
4223	20.03	1.6	0.1	-1.1362e-002
4224	19.832	1.6	0.1	-1.0533e-002
4225	19.633	1.6	0.1	-9.7904e-003
4226	19.435	1.6	0.1	-9.1295e-003
4227	19.236	1.6	0.1	-8.5341e-003
4228	19.038	1.6	0.1	-7.9922e-003
4229	18.839	1.6	0.1	-7.4941e-003
4230	18.641	1.6	0.1	-7.054e-003
4231	18.442	1.6	0.1	-6.6391e-003
4232	18.244	1.6	0.1	-6.2465e-003
4233	18.045	1.6	0.1	-5.8987e-003
4234	17.847	1.6	0.1	-5.573e-003
4235	17.648	1.6	0.1	-5.2682e-003
4236	17.45	1.6	0.1	-4.98e-003
4237	17.252	1.6	0.1	-4.7251e-003
4238	17.053	1.6	0.1	-4.4857e-003
4239	16.855	1.6	0.1	-4.2579e-003
4240	16.656	1.6	0.1	-4.0375e-003
4241	16.458	1.6	0.1	-3.8524e-003
4242	16.259	1.6	0.1	-3.6596e-003
4243	16.061	1.6	0.1	-3.4618e-003
4244	15.862	1.6	0.1	-3.2934e-003
4245	15.664	1.6	0.1	-3.1262e-003
4246	15.465	1.6	0.1	-2.9612e-003
4247	15.267	1.6	0.1	-2.793e-003
4248	15.068	1.6	0.1	-2.6513e-003
4249	14.87	1.6	0.1	-2.5055e-003
4250	14.671	1.6	0.1	-2.3549e-003
4251	14.473	1.6	0.1	-2.1943e-003
4252	14.274	1.6	0.1	-2.0577e-003
4253	14.076	1.6	0.1	-1.8889e-003
4254	13.877	1.6	0.1	-1.6849e-003
4255	13.679	1.6	0.1	-1.4878e-003
4256	13.48	1.6	0.1	-1.2514e-003
4257	13.282	1.6	0.1	-9.6048e-004
4258	13.083	1.6	0.1	-5.8624e-004
4259	12.885	1.6	0.1	-1.1276e-004
4260	12.686	1.6	0.1	5.9806e-004
4261	12.488	1.6	0.1	1.7865e-003
4262	12.289	1.6	0.1	4.2157e-003
4263	12.091	1.6	0.1	1.1906e-002
4264	11.892	1.6	0.1	0.21748
4265	11.694	1.6	0.1	1.4934
4266	11.495	1.6	0.1	2.9343
4267	11.297	1.6	0.1	4.4942
4268	11.098	1.6	0.1	6.1809
4269	10.9	1.6	0.1	8.0058
4270	10.702	1.6	0.1	9.9808
4271	10.503	1.6	0.1	12.119
4272	10.305	1.6	0.1	14.435
4273	10.106	1.6	0.1	16.944
4274	9.9076	1.6	0.1	19.66
4275	9.7091	1.6	0.1	22.602
4276	9.5106	1.6	0.1	25.787
4277	9.3121	1.6	0.1	29.233
4278	9.1136	1.6	0.1	32.96
4279	8.9152	1.6	0.1	36.986
4280	8.7167	1.6	0.1	41.332
4281	8.5182	1.6	0.1	46.018
4282	8.3197	1.6	0.1	51.061
4283	8.1212	1.6	0.1	56.481
4284	7.9227	1.6	0.1	62.293
4285	7.7242	1.6	0.1	68.511
4286	7.5258	1.6	0.1	75.143
4287	7.3273	1.6	0.1	82.193
4288	7.1288	1.6	0.1	89.659
4289	6.9303	1.6	0.1	97.526
4290	6.7318	1.6	0.1	105.77
4291	6.5333	1.6	0.1	114.35
4292	6.3348	1.6	0.1	123.22
4293	6.1364	1.6	0.1	132.28
4294	5.9379	1.6	0.1	141.43
4295	5.7394	1.6	0.1	150.52
4296	5.5409	1.6	0.1	159.36
4297	5.3424	1.6	0.1	167.72
4298	5.1439	1.6	0.1	175.25
4299	4.9455	1.6	0.1	181.54
4300	4.747	1.6	0.1	185.99
4301	4.5485	1.6	0.1	187.78
4302	4.35	1.6	0.1	185.68
4303	4.1515	1.6	0.1	177.79
4304	3.953	1.6	0.1	161.14
4305	3.7545	1.6	0.1	130.91
4306	3.5561	1.6	0.1	80.431
4307	3.3576	1.6	0.1	21.39
4308	3.1591	1.6	0.1	8.2219
4309	2.9606	1.6	0.1	3.1925
4310	2.7621	1.6	0.1	16.005
4311	2.5636	1.6	0.1	-10.402
4312	2.3652	1.6	0.1	-22.802
4313	23.802	1.8	0.1	-0.11006
4314	23.603	1.8	0.1	-0.32656
4315	23.405	1.8	0.1	-0.12424
4316	23.206	1.8	0.1	-0.11264
4317	23.008	1.8	0.1	-8.0702e-002
4318	22.809	1.8	0.1	-6.6477e-002
4319	22.611	1.8	0.1	-5.4677e-002
4320	22.412	1.8	0.1	-4.6437e-002
4321	22.214	1.8	0.1	-4.001e-002
4322	22.015	1.8	0.1	-3.4982e-002
4323	21.817	1.8	0.1	-3.093e-002
4324	21.618	1.8	0.1	-2.7615e-002
4325	21.42	1.8	0.1	-2.4859e-002
4326	21.221	1.8	0.1	-2.2532e-002
4327	21.023	1.8	0.1	-2.0548e-002
4328	20.824	1.8	0.1	-1.8847e-002
4329	20.626	1.8	0.1	-1.736e-002
4330	20.427	1.8	0.1	-1.6053e-002
4331	20.229	1.8	0.1	-1.4909e-002
4332	20.03	1.8	0.1	-1.3889e-002
4333	19.832	1.8	0.1	-1.2975e-002
4334	19.633	1.8	0.1	-1.2151e-002
4335	19.435	1.8	0.1	-1.1422e-002
4336	19.236	1.8	0.1	-1.0752e-002
4337	19.038	1.8	0.1	-1.0145e-002
4338	18.839	1.8	0.1	-9.5849e-003
4339	18.641	1.8	0.1	-9.0863e-003
4340	18.442	1.8	0.1	-8.6172e-003
4341	18.244	1.8	0.1	-8.1726e-003
4342	18.045	1.8	0.1	-7.7755e-003
4343	17.847	1.8	0.1	-7.4043e-003
4344	17.648	1.8	0.1	-7.0556e-003
4345	17.45	1.8	0.1	-6.7248e-003
4346	17.252	1.8	0.1	-6.4337e-003
4347	17.053	1.8	0.1	-6.1559e-003
4348	16.855	1.8	0.1	-5.8919e-003
4349	16.656	1.8	0.1	-5.6383e-003
4350	16.458	1.8	0.1	-5.4196e-003
4351	16.259	1.8	0.1	-5.197e-003
4352	16.061	1.8	0.1	-4.969e-003
4353	15.862	1.8	0.1	-4.7712e-003
4354	15.664	1.8	0.1	-4.5762e-003
4355	15.465	1.8	0.1	-4.384e-003
4356	15.267	1.8	0.1	-4.1928e-003
4357	15.068	1.8	0.1	-4.0268e-003
4358	14.87	1.8	0.1	-3.8574e-003
4359	14.671	1.8	0.1	-3.6838e-003
4360	14.473	1.8	0.1	-3.5019e-003
4361	14.274	1.8	0.1	-3.3429e-003
4362	14.076	1.8	0.1	-3.1532e-003
4363	13.877	1.8	0.1	-2.9261e-003
4364	13.679	1.8	0.1	-2.706e-003
4365	13.48	1.8	0.1	-2.4434e-003
4366	13.282	1.8	0.1	-2.1199e-003
4367	13.083	1.8	0.1	-1.6968e-003
4368	12.885	1.8	0.1	-1.1399e-003
4369	12.686	1.8	0.1	-2.4961e-004
4370	12.488	1.8	0.1	1.4453e-003
4371	12.289	1.8	0.1	6.1338e-003
4372	12.091	1.8	0.1	6.985e-002
4373	11.892	1.8	0.1	1.2308
4374	11.694	1.8	0.1	2.6666
4375	11.495	1.8	0.1	4.2213
4376	11.297	1.8	0.1	5.9032
4377	11.098	1.8	0.1	7.7233
4378	10.9	1.8	0.1	9.6949
4379	10.702	1.8	0.1	11.831
4380	10.503	1.8	0.1	14.148
4381	10.305	1.8	0.1	16.661
4382	10.106	1.8	0.1	19.388
4383	9.9076	1.8	0.1	22.348
4384	9.7091	1.8	0.1	25.559
4385	9.5106	1.8	0.1	29.045
4386	9.3121	1.8	0.1	32.827
4387	9.1136	1.8	0.1	36.93
4388	8.9152	1.8	0.1	41.379
4389	8.7167	1.8	0.1	46.202
4390	8.5182	1.8	0.1	51.425
4391	8.3197	1.8	0.1	57.079
4392	8.1212	1.8	0.1	63.192
4393	7.9227	1.8	0.1	69.794
4394	7.7242	1.8	0.1	76.916
4395	7.5258	1.8	0.1	84.586
4396	7.3273	1.8	0.1	92.829
4397	7.1288	1.8	0.1	101.67
4398	6.9303	1.8	0.1	111.13
4399	6.7318	1.8	0.1	121.21
4400	6.5333	1.8	0.1	131.93
4401	6.3348	1.8	0.1	143.26
4402	6.1364	1.8	0.1	155.19
4403	5.9379	1.8	0.1	167.65
4404	5.7394	1.8	0.1	180.58
4405	5.5409	1.8	0.1	193.86
4406	5.3424	1.8	0.1	207.3
4407	5.1439	1.8	0.1	220.66
4408	4.9455	1.8	0.1	233.58
4409	4.747	1.8	0.1	245.56
4410	4.5485	1.8	0.1	255.81
4411	4.35	1.8	0.1	263.19
4412	4.1515	1.8	0.1	265.91
4413	3.953	1.8	0.1	261.11
4414	3.7545	1.8	0.1	244.12
4415	3.5561	1.8	0.1	207.26
4416	3.3576	1.8	0.1	138.31
4417	3.1591	1.8	0.1	38.144
4418	2.9606	1.8	0.1	9.722
4419	2.7621	1.8	0.1	10.652
4420	2.5636	1.8	0.1	-14.512
4421	2.3652	1.8	0.1	197.52
4422	23.802	2.	0.1	-0.1213
4423	23.603	2.	0.1	-0.33291
4424	23.405	2.	0.1	-0.12885
4425	23.206	2.	0.1	-0.11678
4426	23.008	2.	0.1	-8.4454e-002
4427	22.809	2.	0.1	-6.9975e-002
4428	22.611	2.	0.1	-5.7971e-002
4429	22.412	2.	0.1	-4.9564e-002
4430	22.214	2.	0.1	-4.2995e-002
4431	22.015	2.	0.1	-3.7842e-002
4432	21.817	2.	0.1	-3.3676e-002
4433	21.618	2.	0.1	-3.0256e-002
4434	21.42	2.	0.1	-2.7401e-002
4435	21.221	2.	0.1	-2.4984e-002
4436	21.023	2.	0.1	-2.291e-002
4437	20.824	2.	0.1	-2.1129e-002
4438	20.626	2.	0.1	-1.9568e-002
4439	20.427	2.	0.1	-1.8189e-002
4440	20.229	2.	0.1	-1.6976e-002
4441	20.03	2.	0.1	-1.5893e-002
4442	19.832	2.	0.1	-1.492e-002
4443	19.633	2.	0.1	-1.4042e-002
4444	19.435	2.	0.1	-1.3256e-002
4445	19.236	2.	0.1	-1.254e-002
4446	19.038	2.	0.1	-1.1885e-002
4447	18.839	2.	0.1	-1.1282e-002
4448	18.641	2.	0.1	-1.0743e-002
4449	18.442	2.	0.1	-1.0235e-002
4450	18.244	2.	0.1	-9.7521e-003
4451	18.045	2.	0.1	-9.322e-003
4452	17.847	2.	0.1	-8.9174e-003
4453	17.648	2.	0.1	-8.5369e-003
4454	17.45	2.	0.1	-8.1771e-003
4455	17.252	2.	0.1	-7.8562e-003
4456	17.053	2.	0.1	-7.5523e-003
4457	16.855	2.	0.1	-7.2632e-003
4458	16.656	2.	0.1	-6.9849e-003
4459	16.458	2.	0.1	-6.7439e-003
4460	16.259	2.	0.1	-6.4995e-003
4461	16.061	2.	0.1	-6.2509e-003
4462	15.862	2.	0.1	-6.0332e-003
4463	15.664	2.	0.1	-5.8205e-003
4464	15.465	2.	0.1	-5.61e-003
4465	15.267	2.	0.1	-5.402e-003
4466	15.068	2.	0.1	-5.22e-003
4467	14.87	2.	0.1	-5.0365e-003
4468	14.671	2.	0.1	-4.8499e-003
4469	14.473	2.	0.1	-4.6574e-003
4470	14.274	2.	0.1	-4.4884e-003
4471	14.076	2.	0.1	-4.2897e-003
4472	13.877	2.	0.1	-4.0575e-003
4473	13.679	2.	0.1	-3.8328e-003
4474	13.48	2.	0.1	-3.5669e-003
4475	13.282	2.	0.1	-3.2404e-003
4476	13.083	2.	0.1	-2.8104e-003
4477	12.885	2.	0.1	-2.225e-003
4478	12.686	2.	0.1	-1.2159e-003
4479	12.488	2.	0.1	1.0787e-003
4480	12.289	2.	0.1	1.2852e-002
4481	12.091	2.	0.1	0.74619
4482	11.892	2.	0.1	2.1541
4483	11.694	2.	0.1	3.6812
4484	11.495	2.	0.1	5.3328
4485	11.297	2.	0.1	7.1204
4486	11.098	2.	0.1	9.0568
4487	10.9	2.	0.1	11.156
4488	10.702	2.	0.1	13.434
4489	10.503	2.	0.1	15.908
4490	10.305	2.	0.1	18.594
4491	10.106	2.	0.1	21.514
4492	9.9076	2.	0.1	24.688
4493	9.7091	2.	0.1	28.139
4494	9.5106	2.	0.1	31.893
4495	9.3121	2.	0.1	35.975
4496	9.1136	2.	0.1	40.417
4497	8.9152	2.	0.1	45.248
4498	8.7167	2.	0.1	50.503
4499	8.5182	2.	0.1	56.217
4500	8.3197	2.	0.1	62.431
4501	8.1212	2.	0.1	69.184
4502	7.9227	2.	0.1	76.522
4503	7.7242	2.	0.1	84.49
4504	7.5258	2.	0.1	93.135
4505	7.3273	2.	0.1	102.51
4506	7.1288	2.	0.1	112.66
4507	6.9303	2.	0.1	123.64
4508	6.7318	2.	0.1	135.5
4509	6.5333	2.	0.1	148.29
4510	6.3348	2.	0.1	162.03
4511	6.1364	2.	0.1	176.77
4512	5.9379	2.	0.1	192.51
4513	5.7394	2.	0.1	209.25
4514	5.5409	2.	0.1	226.94
4515	5.3424	2.	0.1	245.48
4516	5.1439	2.	0.1	264.71
4517	4.9455	2.	0.1	284.37
4518	4.747	2.	0.1	304.03
4519	4.5485	2.	0.1	323.03
4520	4.35	2.	0.1	340.35
4521	4.1515	2.	0.1	354.42
4522	3.953	2.	0.1	362.76
4523	3.7545	2.	0.1	361.43
4524	3.5561	2.	0.1	344.2
4525	3.3576	2.	0.1	300.74
4526	3.1591	2.	0.1	215.12
4527	2.9606	2.	0.1	69.364
4528	2.7621	2.	0.1	29.227
4529	2.5636	2.	0.1	-98.692
4530	2.3652	2.	0.1	803.86
4531	23.802	2.2	0.1	-0.12993
4532	23.603	2.2	0.1	-0.33766
4533	23.405	2.2	0.1	-0.13226
4534	23.206	2.2	0.1	-0.11984
4535	23.008	2.2	0.1	-8.7223e-002
4536	22.809	2.2	0.1	-7.2562e-002
4537	22.611	2.2	0.1	-6.0408e-002
4538	22.412	2.2	0.1	-5.1885e-002
4539	22.214	2.2	0.1	-4.5217e-002
4540	22.015	2.2	0.1	-3.9978e-002
4541	21.817	2.2	0.1	-3.5737e-002
4542	21.618	2.2	0.1	-3.2244e-002
4543	21.42	2.2	0.1	-2.9322e-002
4544	21.221	2.2	0.1	-2.6843e-002
4545	21.023	2.2	0.1	-2.4714e-002
4546	20.824	2.2	0.1	-2.2876e-002
4547	20.626	2.2	0.1	-2.1263e-002
4548	20.427	2.2	0.1	-1.9834e-002
4549	20.229	2.2	0.1	-1.8575e-002
4550	20.03	2.2	0.1	-1.7449e-002
4551	19.832	2.2	0.1	-1.6433e-002
4552	19.633	2.2	0.1	-1.5516e-002
4553	19.435	2.2	0.1	-1.4694e-002
4554	19.236	2.2	0.1	-1.3945e-002
4555	19.038	2.2	0.1	-1.3256e-002
4556	18.839	2.2	0.1	-1.2623e-002
4557	18.641	2.2	0.1	-1.2054e-002
4558	18.442	2.2	0.1	-1.1519e-002
4559	18.244	2.2	0.1	-1.1012e-002
4560	18.045	2.2	0.1	-1.0556e-002
4561	17.847	2.2	0.1	-1.0128e-002
4562	17.648	2.2	0.1	-9.7271e-003
4563	17.45	2.2	0.1	-9.3478e-003
4564	17.252	2.2	0.1	-9.0063e-003
4565	17.053	2.2	0.1	-8.6836e-003
4566	16.855	2.2	0.1	-8.376e-003
4567	16.656	2.2	0.1	-8.0824e-003
4568	16.458	2.2	0.1	-7.8248e-003
4569	16.259	2.2	0.1	-7.5647e-003
4570	16.061	2.2	0.1	-7.3013e-003
4571	15.862	2.2	0.1	-7.0719e-003
4572	15.664	2.2	0.1	-6.847e-003
4573	15.465	2.2	0.1	-6.6267e-003
4574	15.267	2.2	0.1	-6.4075e-003
4575	15.068	2.2	0.1	-6.2176e-003
4576	14.87	2.2	0.1	-6.0275e-003
4577	14.671	2.2	0.1	-5.8364e-003
4578	14.473	2.2	0.1	-5.6368e-003
4579	14.274	2.2	0.1	-5.469e-003
4580	14.076	2.2	0.1	-5.273e-003
4581	13.877	2.2	0.1	-5.0452e-003
4582	13.679	2.2	0.1	-4.8312e-003
4583	13.48	2.2	0.1	-4.583e-003
4584	13.282	2.2	0.1	-4.2826e-003
4585	13.083	2.2	0.1	-3.8873e-003
4586	12.885	2.2	0.1	-3.3409e-003
4587	12.686	2.2	0.1	-2.3223e-003
4588	12.488	2.2	0.1	6.269e-004
4589	12.289	2.2	0.1	0.11889
4590	12.091	2.2	0.1	1.4429
4591	11.892	2.2	0.1	2.924
4592	11.694	2.2	0.1	4.5253
4593	11.495	2.2	0.1	6.2576
4594	11.297	2.2	0.1	8.1338
4595	11.098	2.2	0.1	10.168
4596	10.9	2.2	0.1	12.375
4597	10.702	2.2	0.1	14.772
4598	10.503	2.2	0.1	17.377
4599	10.305	2.2	0.1	20.211
4600	10.106	2.2	0.1	23.294
4601	9.9076	2.2	0.1	26.65
4602	9.7091	2.2	0.1	30.305
4603	9.5106	2.2	0.1	34.288
4604	9.3121	2.2	0.1	38.629
4605	9.1136	2.2	0.1	43.361
4606	8.9152	2.2	0.1	48.522
4607	8.7167	2.2	0.1	54.152
4608	8.5182	2.2	0.1	60.296
4609	8.3197	2.2	0.1	66.999
4610	8.1212	2.2	0.1	74.317
4611	7.9227	2.2	0.1	82.304
4612	7.7242	2.2	0.1	91.023
4613	7.5258	2.2	0.1	100.54
4614	7.3273	2.2	0.1	110.93
4615	7.1288	2.2	0.1	122.26
4616	6.9303	2.2	0.1	134.62
4617	6.7318	2.2	0.1	148.1
4618	6.5333	2.2	0.1	162.77
4619	6.3348	2.2	0.1	178.73
4620	6.1364	2.2	0.1	196.05
4621	5.9379	2.2	0.1	214.82
4622	5.7394	2.2	0.1	235.08
4623	5.5409	2.2	0.1	256.88
4624	5.3424	2.2	0.1	280.18
4625	5.1439	2.2	0.1	304.91
4626	4.9455	2.2	0.1	330.89
4627	4.747	2.2	0.1	357.77
4628	4.5485	2.2	0.1	384.99
4629	4.35	2.2	0.1	411.64
4630	4.1515	2.2	0.1	436.29
4631	3.953	2.2	0.1	456.75
4632	3.7545	2.2	0.1	469.64
4633	3.5561	2.2	0.1	469.83
4634	3.3576	2.2	0.1	449.32
4635	3.1591	2.2	0.1	396.6
4636	2.9606	2.2	0.1	290.74
4637	2.7621	2.2	0.1	115.22
4638	2.5636	2.2	0.1	-45.14
4639	2.3652	2.2	0.1	-5.2418
4640	23.802	2.4	0.1	-0.13633
4641	23.603	2.4	0.1	-0.34111
4642	23.405	2.4	0.1	-0.13472
4643	23.206	2.4	0.1	-0.12204
4644	23.008	2.4	0.1	-8.9213e-002
4645	22.809	2.4	0.1	-7.4416e-002
4646	22.611	2.4	0.1	-6.216e-002
4647	22.412	2.4	0.1	-5.3555e-002
4648	22.214	2.4	0.1	-4.6819e-002
4649	22.015	2.4	0.1	-4.1524e-002
4650	21.817	2.4	0.1	-3.7227e-002
4651	21.618	2.4	0.1	-3.3691e-002
4652	21.42	2.4	0.1	-3.0726e-002
4653	21.221	2.4	0.1	-2.8204e-002
4654	21.023	2.4	0.1	-2.6036e-002
4655	20.824	2.4	0.1	-2.4161e-002
4656	20.626	2.4	0.1	-2.2513e-002
4657	20.427	2.4	0.1	-2.1052e-002
4658	20.229	2.4	0.1	-1.9761e-002
4659	20.03	2.4	0.1	-1.8605e-002
4660	19.832	2.4	0.1	-1.7565e-002
4661	19.633	2.4	0.1	-1.6619e-002
4662	19.435	2.4	0.1	-1.5773e-002
4663	19.236	2.4	0.1	-1.4999e-002
4664	19.038	2.4	0.1	-1.4289e-002
4665	18.839	2.4	0.1	-1.3636e-002
4666	18.641	2.4	0.1	-1.3047e-002
4667	18.442	2.4	0.1	-1.2494e-002
4668	18.244	2.4	0.1	-1.197e-002
4669	18.045	2.4	0.1	-1.1498e-002
4670	17.847	2.4	0.1	-1.1055e-002
4671	17.648	2.4	0.1	-1.0637e-002
4672	17.45	2.4	0.1	-1.0243e-002
4673	17.252	2.4	0.1	-9.8896e-003
4674	17.053	2.4	0.1	-9.5547e-003
4675	16.855	2.4	0.1	-9.2361e-003
4676	16.656	2.4	0.1	-8.9304e-003
4677	16.458	2.4	0.1	-8.6628e-003
4678	16.259	2.4	0.1	-8.3947e-003
4679	16.061	2.4	0.1	-8.1223e-003
4680	15.862	2.4	0.1	-7.884e-003
4681	15.664	2.4	0.1	-7.6516e-003
4682	15.465	2.4	0.1	-7.4249e-003
4683	15.267	2.4	0.1	-7.2016e-003
4684	15.068	2.4	0.1	-7.0066e-003
4685	14.87	2.4	0.1	-6.8141e-003
4686	14.671	2.4	0.1	-6.621e-003
4687	14.473	2.4	0.1	-6.4263e-003
4688	14.274	2.4	0.1	-6.2604e-003
4689	14.076	2.4	0.1	-6.0728e-003
4690	13.877	2.4	0.1	-5.8587e-003
4691	13.679	2.4	0.1	-5.6645e-003
4692	13.48	2.4	0.1	-5.4465e-003
4693	13.282	2.4	0.1	-5.1895e-003
4694	13.083	2.4	0.1	-4.8611e-003
4695	12.885	2.4	0.1	-4.419e-003
4696	12.686	2.4	0.1	-3.547e-003
4697	12.488	2.4	0.1	-4.4504e-005
4698	12.289	2.4	0.1	0.5764
4699	12.091	2.4	0.1	1.9955
4700	11.892	2.4	0.1	3.5309
4701	11.694	2.4	0.1	5.1905
4702	11.495	2.4	0.1	6.9866
4703	11.297	2.4	0.1	8.933
4704	11.098	2.4	0.1	11.044
4705	10.9	2.4	0.1	13.337
4706	10.702	2.4	0.1	15.829
4707	10.503	2.4	0.1	18.54
4708	10.305	2.4	0.1	21.49
4709	10.106	2.4	0.1	24.704
4710	9.9076	2.4	0.1	28.206
4711	9.7091	2.4	0.1	32.026
4712	9.5106	2.4	0.1	36.193
4713	9.3121	2.4	0.1	40.742
4714	9.1136	2.4	0.1	45.711
4715	8.9152	2.4	0.1	51.14
4716	8.7167	2.4	0.1	57.077
4717	8.5182	2.4	0.1	63.57
4718	8.3197	2.4	0.1	70.677
4719	8.1212	2.4	0.1	78.459
4720	7.9227	2.4	0.1	86.983
4721	7.7242	2.4	0.1	96.326
4722	7.5258	2.4	0.1	106.57
4723	7.3273	2.4	0.1	117.8
4724	7.1288	2.4	0.1	130.13
4725	6.9303	2.4	0.1	143.65
4726	6.7318	2.4	0.1	158.49
4727	6.5333	2.4	0.1	174.76
4728	6.3348	2.4	0.1	192.6
4729	6.1364	2.4	0.1	212.13
4730	5.9379	2.4	0.1	233.47
4731	5.7394	2.4	0.1	256.76
4732	5.5409	2.4	0.1	282.07
4733	5.3424	2.4	0.1	309.47
4734	5.1439	2.4	0.1	338.93
4735	4.9455	2.4	0.1	370.33
4736	4.747	2.4	0.1	403.4
4737	4.5485	2.4	0.1	437.62
4738	4.35	2.4	0.1	472.09
4739	4.1515	2.4	0.1	505.39
4740	3.953	2.4	0.1	535.28
4741	3.7545	2.4	0.1	558.34
4742	3.5561	2.4	0.1	569.38
4743	3.3576	2.4	0.1	560.57
4744	3.1591	2.4	0.1	520.19
4745	2.9606	2.4	0.1	430.4
4746	2.7621	2.4	0.1	262.85
4747	2.5636	2.4	0.1	27.012
4748	2.3652	2.4	0.1	22.267
4749	23.802	2.6	0.1	-0.14075
4750	23.603	2.6	0.1	-0.34345
4751	23.405	2.6	0.1	-0.13638
4752	23.206	2.6	0.1	-0.12352
4753	23.008	2.6	0.1	-9.0554e-002
4754	22.809	2.6	0.1	-7.5667e-002
4755	22.611	2.6	0.1	-6.3342e-002
4756	22.412	2.6	0.1	-5.4681e-002
4757	22.214	2.6	0.1	-4.7902e-002
4758	22.015	2.6	0.1	-4.2568e-002
4759	21.817	2.6	0.1	-3.8241e-002
4760	21.618	2.6	0.1	-3.4673e-002
4761	21.42	2.6	0.1	-3.1681e-002
4762	21.221	2.6	0.1	-2.9135e-002
4763	21.023	2.6	0.1	-2.6943e-002
4764	20.824	2.6	0.1	-2.5044e-002
4765	20.626	2.6	0.1	-2.3373e-002
4766	20.427	2.6	0.1	-2.1891e-002
4767	20.229	2.6	0.1	-2.0581e-002
4768	20.03	2.6	0.1	-1.9406e-002
4769	19.832	2.6	0.1	-1.8347e-002
4770	19.633	2.6	0.1	-1.7385e-002
4771	19.435	2.6	0.1	-1.6523e-002
4772	19.236	2.6	0.1	-1.5733e-002
4773	19.038	2.6	0.1	-1.5011e-002
4774	18.839	2.6	0.1	-1.4341e-002
4775	18.641	2.6	0.1	-1.3743e-002
4776	18.442	2.6	0.1	-1.3177e-002
4777	18.244	2.6	0.1	-1.264e-002
4778	18.045	2.6	0.1	-1.2159e-002
4779	17.847	2.6	0.1	-1.1706e-002
4780	17.648	2.6	0.1	-1.128e-002
4781	17.45	2.6	0.1	-1.0877e-002
4782	17.252	2.6	0.1	-1.0516e-002
4783	17.053	2.6	0.1	-1.0172e-002
4784	16.855	2.6	0.1	-9.8471e-003
4785	16.656	2.6	0.1	-9.5341e-003
4786	16.458	2.6	0.1	-9.2601e-003
4787	16.259	2.6	0.1	-8.9854e-003
4788	16.061	2.6	0.1	-8.709e-003
4789	15.862	2.6	0.1	-8.4654e-003
4790	15.664	2.6	0.1	-8.2295e-003
4791	15.465	2.6	0.1	-7.9997e-003
4792	15.267	2.6	0.1	-7.7728e-003
4793	15.068	2.6	0.1	-7.5777e-003
4794	14.87	2.6	0.1	-7.3853e-003
4795	14.671	2.6	0.1	-7.1945e-003
4796	14.473	2.6	0.1	-7.0028e-003
4797	14.274	2.6	0.1	-6.8425e-003
4798	14.076	2.6	0.1	-6.665e-003
4799	13.877	2.6	0.1	-6.4651e-003
4800	13.679	2.6	0.1	-6.2932e-003
4801	13.48	2.6	0.1	-6.1072e-003
4802	13.282	2.6	0.1	-5.8992e-003
4803	13.083	2.6	0.1	-5.653e-003
4804	12.885	2.6	0.1	-5.3527e-003
4805	12.686	2.6	0.1	-4.7689e-003
4806	12.488	2.6	0.1	-1.2727e-003
4807	12.289	2.6	0.1	0.93667
4808	12.091	2.6	0.1	2.3944
4809	11.892	2.6	0.1	3.9685
4810	11.694	2.6	0.1	5.6703
4811	11.495	2.6	0.1	7.5126
4812	11.297	2.6	0.1	9.5099
4813	11.098	2.6	0.1	11.677
4814	10.9	2.6	0.1	14.032
4815	10.702	2.6	0.1	16.593
4816	10.503	2.6	0.1	19.381
4817	10.305	2.6	0.1	22.416
4818	10.106	2.6	0.1	25.725
4819	9.9076	2.6	0.1	29.335
4820	9.7091	2.6	0.1	33.274
4821	9.5106	2.6	0.1	37.577
4822	9.3121	2.6	0.1	42.279
4823	9.1136	2.6	0.1	47.422
4824	8.9152	2.6	0.1	53.05
4825	8.7167	2.6	0.1	59.213
4826	8.5182	2.6	0.1	65.967
4827	8.3197	2.6	0.1	73.373
4828	8.1212	2.6	0.1	81.501
4829	7.9227	2.6	0.1	90.427
4830	7.7242	2.6	0.1	100.24
4831	7.5258	2.6	0.1	111.03
4832	7.3273	2.6	0.1	122.9
4833	7.1288	2.6	0.1	135.97
4834	6.9303	2.6	0.1	150.38
4835	6.7318	2.6	0.1	166.25
4836	6.5333	2.6	0.1	183.73
4837	6.3348	2.6	0.1	203.
4838	6.1364	2.6	0.1	224.21
4839	5.9379	2.6	0.1	247.53
4840	5.7394	2.6	0.1	273.13
4841	5.5409	2.6	0.1	301.14
4842	5.3424	2.6	0.1	331.67
4843	5.1439	2.6	0.1	364.76
4844	4.9455	2.6	0.1	400.32
4845	4.747	2.6	0.1	438.1
4846	4.5485	2.6	0.1	477.58
4847	4.35	2.6	0.1	517.81
4848	4.1515	2.6	0.1	557.22
4849	3.953	2.6	0.1	593.28
4850	3.7545	2.6	0.1	622.
4851	3.5561	2.6	0.1	637.23
4852	3.3576	2.6	0.1	629.58
4853	3.1591	2.6	0.1	585.01
4854	2.9606	2.6	0.1	483.28
4855	2.7621	2.6	0.1	297.22
4856	2.5636	2.6	0.1	27.305
4857	2.3652	2.6	0.1	-5.4617
4858	23.802	2.8	0.1	-0.14334
4859	23.603	2.8	0.1	-0.34481
4860	23.405	2.8	0.1	-0.13734
4861	23.206	2.8	0.1	-0.12438
4862	23.008	2.8	0.1	-9.1328e-002
4863	22.809	2.8	0.1	-7.639e-002
4864	22.611	2.8	0.1	-6.4023e-002
4865	22.412	2.8	0.1	-5.5334e-002
4866	22.214	2.8	0.1	-4.8528e-002
4867	22.015	2.8	0.1	-4.3174e-002
4868	21.817	2.8	0.1	-3.8827e-002
4869	21.618	2.8	0.1	-3.5245e-002
4870	21.42	2.8	0.1	-3.2235e-002
4871	21.221	2.8	0.1	-2.9676e-002
4872	21.023	2.8	0.1	-2.7468e-002
4873	20.824	2.8	0.1	-2.5558e-002
4874	20.626	2.8	0.1	-2.3876e-002
4875	20.427	2.8	0.1	-2.2381e-002
4876	20.229	2.8	0.1	-2.1062e-002
4877	20.03	2.8	0.1	-1.9875e-002
4878	19.832	2.8	0.1	-1.8806e-002
4879	19.633	2.8	0.1	-1.7835e-002
4880	19.435	2.8	0.1	-1.6966e-002
4881	19.236	2.8	0.1	-1.6167e-002
4882	19.038	2.8	0.1	-1.5436e-002
4883	18.839	2.8	0.1	-1.4761e-002
4884	18.641	2.8	0.1	-1.4153e-002
4885	18.442	2.8	0.1	-1.3582e-002
4886	18.244	2.8	0.1	-1.304e-002
4887	18.045	2.8	0.1	-1.2552e-002
4888	17.847	2.8	0.1	-1.2094e-002
4889	17.648	2.8	0.1	-1.1663e-002
4890	17.45	2.8	0.1	-1.1254e-002
4891	17.252	2.8	0.1	-1.0889e-002
4892	17.053	2.8	0.1	-1.054e-002
4893	16.855	2.8	0.1	-1.0211e-002
4894	16.656	2.8	0.1	-9.8949e-003
4895	16.458	2.8	0.1	-9.6189e-003
4896	16.259	2.8	0.1	-9.3398e-003
4897	16.061	2.8	0.1	-9.0608e-003
4898	15.862	2.8	0.1	-8.8151e-003
4899	15.664	2.8	0.1	-8.5767e-003
4900	15.465	2.8	0.1	-8.3451e-003
4901	15.267	2.8	0.1	-8.1192e-003
4902	15.068	2.8	0.1	-7.9229e-003
4903	14.87	2.8	0.1	-7.7311e-003
4904	14.671	2.8	0.1	-7.5419e-003
4905	14.473	2.8	0.1	-7.3533e-003
4906	14.274	2.8	0.1	-7.2006e-003
4907	14.076	2.8	0.1	-7.029e-003
4908	13.877	2.8	0.1	-6.8412e-003
4909	13.679	2.8	0.1	-6.6847e-003
4910	13.48	2.8	0.1	-6.5237e-003
4911	13.282	2.8	0.1	-6.3548e-003
4912	13.083	2.8	0.1	-6.1728e-003
4913	12.885	2.8	0.1	-5.9972e-003
4914	12.686	2.8	0.1	-5.7282e-003
4915	12.488	2.8	0.1	-3.6973e-003
4916	12.289	2.8	0.1	1.1555
4917	12.091	2.8	0.1	2.6353
4918	11.892	2.8	0.1	4.2328
4919	11.694	2.8	0.1	5.9601
4920	11.495	2.8	0.1	7.8303
4921	11.297	2.8	0.1	9.8584
4922	11.098	2.8	0.1	12.06
4923	10.9	2.8	0.1	14.453
4924	10.702	2.8	0.1	17.055
4925	10.503	2.8	0.1	19.889
4926	10.305	2.8	0.1	22.977
4927	10.106	2.8	0.1	26.344
4928	9.9076	2.8	0.1	30.019
4929	9.7091	2.8	0.1	34.031
4930	9.5106	2.8	0.1	38.417
4931	9.3121	2.8	0.1	43.213
4932	9.1136	2.8	0.1	48.462
4933	8.9152	2.8	0.1	54.212
4934	8.7167	2.8	0.1	60.514
4935	8.5182	2.8	0.1	67.428
4936	8.3197	2.8	0.1	75.019
4937	8.1212	2.8	0.1	83.361
4938	7.9227	2.8	0.1	92.536
4939	7.7242	2.8	0.1	102.64
4940	7.5258	2.8	0.1	113.76
4941	7.3273	2.8	0.1	126.03
4942	7.1288	2.8	0.1	139.57
4943	6.9303	2.8	0.1	154.52
4944	6.7318	2.8	0.1	171.04
4945	6.5333	2.8	0.1	189.29
4946	6.3348	2.8	0.1	209.45
4947	6.1364	2.8	0.1	231.71
4948	5.9379	2.8	0.1	256.27
4949	5.7394	2.8	0.1	283.32
4950	5.5409	2.8	0.1	313.03
4951	5.3424	2.8	0.1	345.53
4952	5.1439	2.8	0.1	380.89
4953	4.9455	2.8	0.1	419.05
4954	4.747	2.8	0.1	459.76
4955	4.5485	2.8	0.1	502.48
4956	4.35	2.8	0.1	546.19
4957	4.1515	2.8	0.1	589.13
4958	3.953	2.8	0.1	628.44
4959	3.7545	2.8	0.1	659.49
4960	3.5561	2.8	0.1	675.1
4961	3.3576	2.8	0.1	664.29
4962	3.1591	2.8	0.1	611.24
4963	2.9606	2.8	0.1	495.76
4964	2.7621	2.8	0.1	300.65
4965	2.5636	2.8	0.1	36.922
4966	2.3652	2.8	0.1	2.9064
4967	23.802	3.	0.1	-0.14419
4968	23.603	3.	0.1	-0.34525
4969	23.405	3.	0.1	-0.13765
4970	23.206	3.	0.1	-0.12466
4971	23.008	3.	0.1	-9.158e-002
4972	22.809	3.	0.1	-7.6626e-002
4973	22.611	3.	0.1	-6.4246e-002
4974	22.412	3.	0.1	-5.5547e-002
4975	22.214	3.	0.1	-4.8733e-002
4976	22.015	3.	0.1	-4.3372e-002
4977	21.817	3.	0.1	-3.902e-002
4978	21.618	3.	0.1	-3.5431e-002
4979	21.42	3.	0.1	-3.2418e-002
4980	21.221	3.	0.1	-2.9852e-002
4981	21.023	3.	0.1	-2.7643e-002
4982	20.824	3.	0.1	-2.5729e-002
4983	20.626	3.	0.1	-2.4041e-002
4984	20.427	3.	0.1	-2.2545e-002
4985	20.229	3.	0.1	-2.1218e-002
4986	20.03	3.	0.1	-2.0031e-002
4987	19.832	3.	0.1	-1.8958e-002
4988	19.633	3.	0.1	-1.7983e-002
4989	19.435	3.	0.1	-1.711e-002
4990	19.236	3.	0.1	-1.6312e-002
4991	19.038	3.	0.1	-1.5576e-002
4992	18.839	3.	0.1	-1.4899e-002
4993	18.641	3.	0.1	-1.4289e-002
4994	18.442	3.	0.1	-1.3716e-002
4995	18.244	3.	0.1	-1.3172e-002
4996	18.045	3.	0.1	-1.2682e-002
4997	17.847	3.	0.1	-1.2222e-002
4998	17.648	3.	0.1	-1.1791e-002
4999	17.45	3.	0.1	-1.1379e-002
5000	17.252	3.	0.1	-1.1012e-002
5001	17.053	3.	0.1	-1.0665e-002
5002	16.855	3.	0.1	-1.0332e-002
5003	16.656	3.	0.1	-1.0016e-002
5004	16.458	3.	0.1	-9.7373e-003
5005	16.259	3.	0.1	-9.4577e-003
5006	16.061	3.	0.1	-9.1787e-003
5007	15.862	3.	0.1	-8.9318e-003
5008	15.664	3.	0.1	-8.693e-003
5009	15.465	3.	0.1	-8.4612e-003
5010	15.267	3.	0.1	-8.233e-003
5011	15.068	3.	0.1	-8.0389e-003
5012	14.87	3.	0.1	-7.8481e-003
5013	14.671	3.	0.1	-7.6589e-003
5014	14.473	3.	0.1	-7.4716e-003
5015	14.274	3.	0.1	-7.3196e-003
5016	14.076	3.	0.1	-7.1508e-003
5017	13.877	3.	0.1	-6.9682e-003
5018	13.679	3.	0.1	-6.8183e-003
5019	13.48	3.	0.1	-6.6663e-003
5020	13.282	3.	0.1	-6.5123e-003
5021	13.083	3.	0.1	-6.355e-003
5022	12.885	3.	0.1	-6.2305e-003
5023	12.686	3.	0.1	-6.1001e-003
5024	12.488	3.	0.1	-5.9687e-003
5025	12.289	3.	0.1	1.2288
5026	12.091	3.	0.1	2.7159
5027	11.892	3.	0.1	4.3211
5028	11.694	3.	0.1	6.057
5029	11.495	3.	0.1	7.9366
5030	11.297	3.	0.1	9.975
5031	11.098	3.	0.1	12.188
5032	10.9	3.	0.1	14.593
5033	10.702	3.	0.1	17.21
5034	10.503	3.	0.1	20.06
5035	10.305	3.	0.1	23.165
5036	10.106	3.	0.1	26.551
5037	9.9076	3.	0.1	30.248
5038	9.7091	3.	0.1	34.285
5039	9.5106	3.	0.1	38.699
5040	9.3121	3.	0.1	43.526
5041	9.1136	3.	0.1	48.811
5042	8.9152	3.	0.1	54.602
5043	8.7167	3.	0.1	60.951
5044	8.5182	3.	0.1	67.919
5045	8.3197	3.	0.1	75.573
5046	8.1212	3.	0.1	83.987
5047	7.9227	3.	0.1	93.246
5048	7.7242	3.	0.1	103.44
5049	7.5258	3.	0.1	114.69
5050	7.3273	3.	0.1	127.09
5051	7.1288	3.	0.1	140.79
5052	6.9303	3.	0.1	155.93
5053	6.7318	3.	0.1	172.66
5054	6.5333	3.	0.1	191.17
5055	6.3348	3.	0.1	211.63
5056	6.1364	3.	0.1	234.25
5057	5.9379	3.	0.1	259.24
5058	5.7394	3.	0.1	286.78
5059	5.5409	3.	0.1	317.07
5060	5.3424	3.	0.1	350.24
5061	5.1439	3.	0.1	386.37
5062	4.9455	3.	0.1	425.42
5063	4.747	3.	0.1	467.13
5064	4.5485	3.	0.1	510.94
5065	4.35	3.	0.1	555.8
5066	4.1515	3.	0.1	599.88
5067	3.953	3.	0.1	640.16
5068	3.7545	3.	0.1	671.78
5069	3.5561	3.	0.1	687.08
5070	3.3576	3.	0.1	674.5
5071	3.1591	3.	0.1	617.73
5072	2.9606	3.	0.1	497.36
5073	2.7621	3.	0.1	299.46
5074	2.5636	3.	0.1	40.072
5075	2.3652	3.	0.1	-2.0097
5076	23.802	3.2	0.1	-0.14334
5077	23.603	3.2	0.1	-0.34481
5078	23.405	3.2	0.1	-0.13734
5079	23.206	3.2	0.1	-0.12438
5080	23.008	3.2	0.1	-9.1329e-002
5081	22.809	3.2	0.1	-7.639e-002
5082	22.611	3.2	0.1	-6.4023e-002
5083	22.412	3.2	0.1	-5.5333e-002
5084	22.214	3.2	0.1	-4.8527e-002
5085	22.015	3.2	0.1	-4.3173e-002
5086	21.817	3.2	0.1	-3.8826e-002
5087	21.618	3.2	0.1	-3.5245e-002
5088	21.42	3.2	0.1	-3.2235e-002
5089	21.221	3.2	0.1	-2.9675e-002
5090	21.023	3.2	0.1	-2.7468e-002
5091	20.824	3.2	0.1	-2.5558e-002
5092	20.626	3.2	0.1	-2.3875e-002
5093	20.427	3.2	0.1	-2.2381e-002
5094	20.229	3.2	0.1	-2.1061e-002
5095	20.03	3.2	0.1	-1.9875e-002
5096	19.832	3.2	0.1	-1.8806e-002
5097	19.633	3.2	0.1	-1.7836e-002
5098	19.435	3.2	0.1	-1.6965e-002
5099	19.236	3.2	0.1	-1.6167e-002
5100	19.038	3.2	0.1	-1.5437e-002
5101	18.839	3.2	0.1	-1.476e-002
5102	18.641	3.2	0.1	-1.4154e-002
5103	18.442	3.2	0.1	-1.3582e-002
5104	18.244	3.2	0.1	-1.304e-002
5105	18.045	3.2	0.1	-1.2551e-002
5106	17.847	3.2	0.1	-1.2093e-002
5107	17.648	3.2	0.1	-1.1662e-002
5108	17.45	3.2	0.1	-1.1254e-002
5109	17.252	3.2	0.1	-1.0889e-002
5110	17.053	3.2	0.1	-1.0541e-002
5111	16.855	3.2	0.1	-1.0212e-002
5112	16.656	3.2	0.1	-9.8948e-003
5113	16.458	3.2	0.1	-9.6181e-003
5114	16.259	3.2	0.1	-9.3403e-003
5115	16.061	3.2	0.1	-9.0599e-003
5116	15.862	3.2	0.1	-8.814e-003
5117	15.664	3.2	0.1	-8.5773e-003
5118	15.465	3.2	0.1	-8.345e-003
5119	15.267	3.2	0.1	-8.1189e-003
5120	15.068	3.2	0.1	-7.9226e-003
5121	14.87	3.2	0.1	-7.7307e-003
5122	14.671	3.2	0.1	-7.5413e-003
5123	14.473	3.2	0.1	-7.3541e-003
5124	14.274	3.2	0.1	-7.1992e-003
5125	14.076	3.2	0.1	-7.0295e-003
5126	13.877	3.2	0.1	-6.8415e-003
5127	13.679	3.2	0.1	-6.6844e-003
5128	13.48	3.2	0.1	-6.523e-003
5129	13.282	3.2	0.1	-6.3549e-003
5130	13.083	3.2	0.1	-6.1726e-003
5131	12.885	3.2	0.1	-5.9971e-003
5132	12.686	3.2	0.1	-5.7281e-003
5133	12.488	3.2	0.1	-3.697e-003
5134	12.289	3.2	0.1	1.1555
5135	12.091	3.2	0.1	2.6353
5136	11.892	3.2	0.1	4.2328
5137	11.694	3.2	0.1	5.9601
5138	11.495	3.2	0.1	7.8303
5139	11.297	3.2	0.1	9.8584
5140	11.098	3.2	0.1	12.06
5141	10.9	3.2	0.1	14.453
5142	10.702	3.2	0.1	17.055
5143	10.503	3.2	0.1	19.889
5144	10.305	3.2	0.1	22.977
5145	10.106	3.2	0.1	26.344
5146	9.9076	3.2	0.1	30.019
5147	9.7091	3.2	0.1	34.031
5148	9.5106	3.2	0.1	38.417
5149	9.3121	3.2	0.1	43.213
5150	9.1136	3.2	0.1	48.462
5151	8.9152	3.2	0.1	54.212
5152	8.7167	3.2	0.1	60.514
5153	8.5182	3.2	0.1	67.428
5154	8.3197	3.2	0.1	75.019
5155	8.1212	3.2	0.1	83.361
5156	7.9227	3.2	0.1	92.536
5157	7.7242	3.2	0.1	102.64
5158	7.5258	3.2	0.1	113.76
5159	7.3273	3.2	0.1	126.03
5160	7.1288	3.2	0.1	139.57
5161	6.9303	3.2	0.1	154.52
5162	6.7318	3.2	0.1	171.04
5163	6.5333	3.2	0.1	189.29
5164	6.3348	3.2	0.1	209.45
5165	6.1364	3.2	0.1	231.71
5166	5.9379	3.2	0.1	256.27
5167	5.7394	3.2	0.1	283.32
5168	5.5409	3.2	0.1	313.03
5169	5.3424	3.2	0.1	345.53
5170	5.1439	3.2	0.1	380.89
5171	4.9455	3.2	0.1	419.05
5172	4.747	3.2	0.1	459.76
5173	4.5485	3.2	0.1	502.48
5174	4.35	3.2	0.1	546.19
5175	4.1515	3.2	0.1	589.13
5176	3.953	3.2	0.1	628.44
5177	3.7545	3.2	0.1	659.49
5178	3.5561	3.2	0.1	675.1
5179	3.3576	3.2	0.1	664.29
5180	3.1591	3.2	0.1	611.24
5181	2.9606	3.2	0.1	495.76
5182	2.7621	3.2	0.1	300.65
5183	2.5636	3.2	0.1	36.922
5184	2.3652	3.2	0.1	2.9064
5185	23.802	3.4	0.1	-0.14075
5186	23.603	3.4	0.1	-0.34345
5187	23.405	3.4	0.1	-0.13638
5188	23.206	3.4	0.1	-0.12352
5189	23.008	3.4	0.1	-9.0552e-002
5190	22.809	3.4	0.1	-7.5668e-002
5191	22.611	3.4	0.1	-6.3341e-002
5192	22.412	3.4	0.1	-5.4683e-002
5193	22.214	3.4	0.1	-4.7901e-002
5194	22.015	3.4	0.1	-4.2569e-002
5195	21.817	3.4	0.1	-3.824e-002
5196	21.618	3.4	0.1	-3.4673e-002
5197	21.42	3.4	0.1	-3.1681e-002
5198	21.221	3.4	0.1	-2.9133e-002
5199	21.023	3.4	0.1	-2.694e-002
5200	20.824	3.4	0.1	-2.5044e-002
5201	20.626	3.4	0.1	-2.3373e-002
5202	20.427	3.4	0.1	-2.189e-002
5203	20.229	3.4	0.1	-2.0581e-002
5204	20.03	3.4	0.1	-1.9406e-002
5205	19.832	3.4	0.1	-1.8346e-002
5206	19.633	3.4	0.1	-1.7386e-002
5207	19.435	3.4	0.1	-1.6522e-002
5208	19.236	3.4	0.1	-1.5736e-002
5209	19.038	3.4	0.1	-1.501e-002
5210	18.839	3.4	0.1	-1.4342e-002
5211	18.641	3.4	0.1	-1.3743e-002
5212	18.442	3.4	0.1	-1.3177e-002
5213	18.244	3.4	0.1	-1.2642e-002
5214	18.045	3.4	0.1	-1.2159e-002
5215	17.847	3.4	0.1	-1.1706e-002
5216	17.648	3.4	0.1	-1.128e-002
5217	17.45	3.4	0.1	-1.0877e-002
5218	17.252	3.4	0.1	-1.0516e-002
5219	17.053	3.4	0.1	-1.0173e-002
5220	16.855	3.4	0.1	-9.8464e-003
5221	16.656	3.4	0.1	-9.5346e-003
5222	16.458	3.4	0.1	-9.2601e-003
5223	16.259	3.4	0.1	-8.9852e-003
5224	16.061	3.4	0.1	-8.7087e-003
5225	15.862	3.4	0.1	-8.4653e-003
5226	15.664	3.4	0.1	-8.2294e-003
5227	15.465	3.4	0.1	-7.999e-003
5228	15.267	3.4	0.1	-7.7722e-003
5229	15.068	3.4	0.1	-7.5775e-003
5230	14.87	3.4	0.1	-7.3856e-003
5231	14.671	3.4	0.1	-7.1943e-003
5232	14.473	3.4	0.1	-7.0015e-003
5233	14.274	3.4	0.1	-6.8436e-003
5234	14.076	3.4	0.1	-6.6643e-003
5235	13.877	3.4	0.1	-6.4658e-003
5236	13.679	3.4	0.1	-6.2924e-003
5237	13.48	3.4	0.1	-6.1071e-003
5238	13.282	3.4	0.1	-5.8997e-003
5239	13.083	3.4	0.1	-5.6528e-003
5240	12.885	3.4	0.1	-5.3524e-003
5241	12.686	3.4	0.1	-4.7683e-003
5242	12.488	3.4	0.1	-1.2724e-003
5243	12.289	3.4	0.1	0.93667
5244	12.091	3.4	0.1	2.3944
5245	11.892	3.4	0.1	3.9685
5246	11.694	3.4	0.1	5.6703
5247	11.495	3.4	0.1	7.5126
5248	11.297	3.4	0.1	9.5099
5249	11.098	3.4	0.1	11.677
5250	10.9	3.4	0.1	14.032
5251	10.702	3.4	0.1	16.593
5252	10.503	3.4	0.1	19.381
5253	10.305	3.4	0.1	22.416
5254	10.106	3.4	0.1	25.725
5255	9.9076	3.4	0.1	29.335
5256	9.7091	3.4	0.1	33.274
5257	9.5106	3.4	0.1	37.577
5258	9.3121	3.4	0.1	42.279
5259	9.1136	3.4	0.1	47.422
5260	8.9152	3.4	0.1	53.05
5261	8.7167	3.4	0.1	59.213
5262	8.5182	3.4	0.1	65.967
5263	8.3197	3.4	0.1	73.373
5264	8.1212	3.4	0.1	81.501
5265	7.9227	3.4	0.1	90.427
5266	7.7242	3.4	0.1	100.24
5267	7.5258	3.4	0.1	111.03
5268	7.3273	3.4	0.1	122.9
5269	7.1288	3.4	0.1	135.97
5270	6.9303	3.4	0.1	150.38
5271	6.7318	3.4	0.1	166.25
5272	6.5333	3.4	0.1	183.73
5273	6.3348	3.4	0.1	203.
5274	6.1364	3.4	0.1	224.21
5275	5.9379	3.4	0.1	247.53
5276	5.7394	3.4	0.1	273.13
5277	5.5409	3.4	0.1	301.14
5278	5.3424	3.4	0.1	331.67
5279	5.1439	3.4	0.1	364.76
5280	4.9455	3.4	0.1	400.32
5281	4.747	3.4	0.1	438.1
5282	4.5485	3.4	0.1	477.58
5283	4.35	3.4	0.1	517.81
5284	4.1515	3.4	0.1	557.22
5285	3.953	3.4	0.1	593.28
5286	3.7545	3.4	0.1	622.
5287	3.5561	3.4	0.1	637.23
5288	3.3576	3.4	0.1	629.58
5289	3.1591	3.4	0.1	585.01
5290	2.9606	3.4	0.1	483.28
5291	2.7621	3.4	0.1	297.22
5292	2.5636	3.4	0.1	27.305
5293	2.3652	3.4	0.1	-5.4617
5294	23.802	3.6	0.1	-0.13633
5295	23.603	3.6	0.1	-0.34111
5296	23.405	3.6	0.1	-0.13472
5297	23.206	3.6	0.1	-0.12204
5298	23.008	3.6	0.1	-8.9213e-002
5299	22.809	3.6	0.1	-7.4416e-002
5300	22.611	3.6	0.1	-6.2159e-002
5301	22.412	3.6	0.1	-5.3555e-002
5302	22.214	3.6	0.1	-4.682e-002
5303	22.015	3.6	0.1	-4.1523e-002
5304	21.817	3.6	0.1	-3.7227e-002
5305	21.618	3.6	0.1	-3.3692e-002
5306	21.42	3.6	0.1	-3.0725e-002
5307	21.221	3.6	0.1	-2.8206e-002
5308	21.023	3.6	0.1	-2.6035e-002
5309	20.824	3.6	0.1	-2.4161e-002
5310	20.626	3.6	0.1	-2.2513e-002
5311	20.427	3.6	0.1	-2.1053e-002
5312	20.229	3.6	0.1	-1.9761e-002
5313	20.03	3.6	0.1	-1.8606e-002
5314	19.832	3.6	0.1	-1.7564e-002
5315	19.633	3.6	0.1	-1.662e-002
5316	19.435	3.6	0.1	-1.5774e-002
5317	19.236	3.6	0.1	-1.4999e-002
5318	19.038	3.6	0.1	-1.429e-002
5319	18.839	3.6	0.1	-1.3636e-002
5320	18.641	3.6	0.1	-1.3048e-002
5321	18.442	3.6	0.1	-1.2494e-002
5322	18.244	3.6	0.1	-1.197e-002
5323	18.045	3.6	0.1	-1.1497e-002
5324	17.847	3.6	0.1	-1.1054e-002
5325	17.648	3.6	0.1	-1.0637e-002
5326	17.45	3.6	0.1	-1.0244e-002
5327	17.252	3.6	0.1	-9.8902e-003
5328	17.053	3.6	0.1	-9.5541e-003
5329	16.855	3.6	0.1	-9.2355e-003
5330	16.656	3.6	0.1	-8.9305e-003
5331	16.458	3.6	0.1	-8.6625e-003
5332	16.259	3.6	0.1	-8.3948e-003
5333	16.061	3.6	0.1	-8.1209e-003
5334	15.862	3.6	0.1	-7.8839e-003
5335	15.664	3.6	0.1	-7.6518e-003
5336	15.465	3.6	0.1	-7.4243e-003
5337	15.267	3.6	0.1	-7.2012e-003
5338	15.068	3.6	0.1	-7.0068e-003
5339	14.87	3.6	0.1	-6.8137e-003
5340	14.671	3.6	0.1	-6.6206e-003
5341	14.473	3.6	0.1	-6.4257e-003
5342	14.274	3.6	0.1	-6.2607e-003
5343	14.076	3.6	0.1	-6.073e-003
5344	13.877	3.6	0.1	-5.8581e-003
5345	13.679	3.6	0.1	-5.6649e-003
5346	13.48	3.6	0.1	-5.446e-003
5347	13.282	3.6	0.1	-5.1892e-003
5348	13.083	3.6	0.1	-4.8614e-003
5349	12.885	3.6	0.1	-4.4195e-003
5350	12.686	3.6	0.1	-3.5469e-003
5351	12.488	3.6	0.1	-4.532e-005
5352	12.289	3.6	0.1	0.57641
5353	12.091	3.6	0.1	1.9955
5354	11.892	3.6	0.1	3.5309
5355	11.694	3.6	0.1	5.1905
5356	11.495	3.6	0.1	6.9866
5357	11.297	3.6	0.1	8.933
5358	11.098	3.6	0.1	11.044
5359	10.9	3.6	0.1	13.337
5360	10.702	3.6	0.1	15.829
5361	10.503	3.6	0.1	18.54
5362	10.305	3.6	0.1	21.49
5363	10.106	3.6	0.1	24.704
5364	9.9076	3.6	0.1	28.206
5365	9.7091	3.6	0.1	32.026
5366	9.5106	3.6	0.1	36.193
5367	9.3121	3.6	0.1	40.742
5368	9.1136	3.6	0.1	45.711
5369	8.9152	3.6	0.1	51.14
5370	8.7167	3.6	0.1	57.077
5371	8.5182	3.6	0.1	63.57
5372	8.3197	3.6	0.1	70.677
5373	8.1212	3.6	0.1	78.459
5374	7.9227	3.6	0.1	86.983
5375	7.7242	3.6	0.1	96.326
5376	7.5258	3.6	0.1	106.57
5377	7.3273	3.6	0.1	117.8
5378	7.1288	3.6	0.1	130.13
5379	6.9303	3.6	0.1	143.65
5380	6.7318	3.6	0.1	158.49
5381	6.5333	3.6	0.1	174.76
5382	6.3348	3.6	0.1	192.6
5383	6.1364	3.6	0.1	212.13
5384	5.9379	3.6	0.1	233.47
5385	5.7394	3.6	0.1	256.76
5386	5.5409	3.6	0.1	282.07
5387	5.3424	3.6	0.1	309.47
5388	5.1439	3.6	0.1	338.93
5389	4.9455	3.6	0.1	370.33
5390	4.747	3.6	0.1	403.4
5391	4.5485	3.6	0.1	437.62
5392	4.35	3.6	0.1	472.09
5393	4.1515	3.6	0.1	505.39
5394	3.953	3.6	0.1	535.28
5395	3.7545	3.6	0.1	558.34
5396	3.5561	3.6	0.1	569.38
5397	3.3576	3.6	0.1	560.57
5398	3.1591	3.6	0.1	520.19
5399	2.9606	3.6	0.1	430.4
5400	2.7621	3.6	0.1	262.85
5401	2.5636	3.6	0.1	27.012
5402	2.3652	3.6	0.1	22.267
5403	23.802	3.8	0.1	-0.12993
5404	23.603	3.8	0.1	-0.33766
5405	23.405	3.8	0.1	-0.13226
5406	23.206	3.8	0.1	-0.11984
5407	23.008	3.8	0.1	-8.7222e-002
5408	22.809	3.8	0.1	-7.2561e-002
5409	22.611	3.8	0.1	-6.0409e-002
5410	22.412	3.8	0.1	-5.1886e-002
5411	22.214	3.8	0.1	-4.5217e-002
5412	22.015	3.8	0.1	-3.9978e-002
5413	21.817	3.8	0.1	-3.5735e-002
5414	21.618	3.8	0.1	-3.2244e-002
5415	21.42	3.8	0.1	-2.9323e-002
5416	21.221	3.8	0.1	-2.6843e-002
5417	21.023	3.8	0.1	-2.4713e-002
5418	20.824	3.8	0.1	-2.2876e-002
5419	20.626	3.8	0.1	-2.1261e-002
5420	20.427	3.8	0.1	-1.9834e-002
5421	20.229	3.8	0.1	-1.8575e-002
5422	20.03	3.8	0.1	-1.7447e-002
5423	19.832	3.8	0.1	-1.6434e-002
5424	19.633	3.8	0.1	-1.5516e-002
5425	19.435	3.8	0.1	-1.4694e-002
5426	19.236	3.8	0.1	-1.3944e-002
5427	19.038	3.8	0.1	-1.3256e-002
5428	18.839	3.8	0.1	-1.2622e-002
5429	18.641	3.8	0.1	-1.2054e-002
5430	18.442	3.8	0.1	-1.1518e-002
5431	18.244	3.8	0.1	-1.1012e-002
5432	18.045	3.8	0.1	-1.0556e-002
5433	17.847	3.8	0.1	-1.0128e-002
5434	17.648	3.8	0.1	-9.727e-003
5435	17.45	3.8	0.1	-9.3457e-003
5436	17.252	3.8	0.1	-9.0067e-003
5437	17.053	3.8	0.1	-8.6835e-003
5438	16.855	3.8	0.1	-8.3768e-003
5439	16.656	3.8	0.1	-8.0811e-003
5440	16.458	3.8	0.1	-7.8246e-003
5441	16.259	3.8	0.1	-7.5646e-003
5442	16.061	3.8	0.1	-7.3025e-003
5443	15.862	3.8	0.1	-7.0717e-003
5444	15.664	3.8	0.1	-6.8472e-003
5445	15.465	3.8	0.1	-6.6261e-003
5446	15.267	3.8	0.1	-6.4076e-003
5447	15.068	3.8	0.1	-6.2177e-003
5448	14.87	3.8	0.1	-6.0276e-003
5449	14.671	3.8	0.1	-5.8368e-003
5450	14.473	3.8	0.1	-5.638e-003
5451	14.274	3.8	0.1	-5.4688e-003
5452	14.076	3.8	0.1	-5.2729e-003
5453	13.877	3.8	0.1	-5.0449e-003
5454	13.679	3.8	0.1	-4.8315e-003
5455	13.48	3.8	0.1	-4.5838e-003
5456	13.282	3.8	0.1	-4.2821e-003
5457	13.083	3.8	0.1	-3.8872e-003
5458	12.885	3.8	0.1	-3.3396e-003
5459	12.686	3.8	0.1	-2.3226e-003
5460	12.488	3.8	0.1	6.2791e-004
5461	12.289	3.8	0.1	0.11889
5462	12.091	3.8	0.1	1.4429
5463	11.892	3.8	0.1	2.924
5464	11.694	3.8	0.1	4.5254
5465	11.495	3.8	0.1	6.2576
5466	11.297	3.8	0.1	8.1338
5467	11.098	3.8	0.1	10.168
5468	10.9	3.8	0.1	12.375
5469	10.702	3.8	0.1	14.772
5470	10.503	3.8	0.1	17.377
5471	10.305	3.8	0.1	20.211
5472	10.106	3.8	0.1	23.294
5473	9.9076	3.8	0.1	26.65
5474	9.7091	3.8	0.1	30.305
5475	9.5106	3.8	0.1	34.288
5476	9.3121	3.8	0.1	38.629
5477	9.1136	3.8	0.1	43.361
5478	8.9152	3.8	0.1	48.522
5479	8.7167	3.8	0.1	54.152
5480	8.5182	3.8	0.1	60.296
5481	8.3197	3.8	0.1	66.999
5482	8.1212	3.8	0.1	74.317
5483	7.9227	3.8	0.1	82.304
5484	7.7242	3.8	0.1	91.023
5485	7.5258	3.8	0.1	100.54
5486	7.3273	3.8	0.1	110.93
5487	7.1288	3.8	0.1	122.26
5488	6.9303	3.8	0.1	134.62
5489	6.7318	3.8	0.1	148.1
5490	6.5333	3.8	0.1	162.77
5491	6.3348	3.8	0.1	178.73
5492	6.1364	3.8	0.1	196.05
5493	5.9379	3.8	0.1	214.82
5494	5.7394	3.8	0.1	235.08
5495	5.5409	3.8	0.1	256.88
5496	5.3424	3.8	0.1	280.18
5497	5.1439	3.8	0.1	304.91
5498	4.9455	3.8	0.1	330.89
5499	4.747	3.8	0.1	357.77
5500	4.5485	3.8	0.1	384.99
5501	4.35	3.8	0.1	411.64
5502	4.1515	3.8	0.1	436.29
5503	3.953	3.8	0.1	456.75
5504	3.7545	3.8	0.1	469.64
5505	3.5561	3.8	0.1	469.83
5506	3.3576	3.8	0.1	449.32
5507	3.1591	3.8	0.1	396.6
5508	2.9606	3.8	0.1	290.74
5509	2.7621	3.8	0.1	115.22
5510	2.5636	3.8	0.1	-45.14
5511	2.3652	3.8	0.1	-5.2418
5512	23.802	4.	0.1	-0.1213
5513	23.603	4.	0.1	-0.33291
5514	23.405	4.	0.1	-0.12885
5515	23.206	4.	0.1	-0.11678
5516	23.008	4.	0.1	-8.4451e-002
5517	22.809	4.	0.1	-6.9976e-002
5518	22.611	4.	0.1	-5.7972e-002
5519	22.412	4.	0.1	-4.9564e-002
5520	22.214	4.	0.1	-4.2994e-002
5521	22.015	4.	0.1	-3.7841e-002
5522	21.817	4.	0.1	-3.3675e-002
5523	21.618	4.	0.1	-3.0257e-002
5524	21.42	4.	0.1	-2.74e-002
5525	21.221	4.	0.1	-2.4982e-002
5526	21.023	4.	0.1	-2.2912e-002
5527	20.824	4.	0.1	-2.1128e-002
5528	20.626	4.	0.1	-1.9569e-002
5529	20.427	4.	0.1	-1.8189e-002
5530	20.229	4.	0.1	-1.6975e-002
5531	20.03	4.	0.1	-1.5894e-002
5532	19.832	4.	0.1	-1.4921e-002
5533	19.633	4.	0.1	-1.4041e-002
5534	19.435	4.	0.1	-1.3257e-002
5535	19.236	4.	0.1	-1.254e-002
5536	19.038	4.	0.1	-1.1885e-002
5537	18.839	4.	0.1	-1.1281e-002
5538	18.641	4.	0.1	-1.0743e-002
5539	18.442	4.	0.1	-1.0234e-002
5540	18.244	4.	0.1	-9.7534e-003
5541	18.045	4.	0.1	-9.3214e-003
5542	17.847	4.	0.1	-8.9161e-003
5543	17.648	4.	0.1	-8.5366e-003
5544	17.45	4.	0.1	-8.176e-003
5545	17.252	4.	0.1	-7.8557e-003
5546	17.053	4.	0.1	-7.5518e-003
5547	16.855	4.	0.1	-7.263e-003
5548	16.656	4.	0.1	-6.9844e-003
5549	16.458	4.	0.1	-6.7433e-003
5550	16.259	4.	0.1	-6.4994e-003
5551	16.061	4.	0.1	-6.2491e-003
5552	15.862	4.	0.1	-6.0331e-003
5553	15.664	4.	0.1	-5.82e-003
5554	15.465	4.	0.1	-5.6101e-003
5555	15.267	4.	0.1	-5.402e-003
5556	15.068	4.	0.1	-5.2193e-003
5557	14.87	4.	0.1	-5.0357e-003
5558	14.671	4.	0.1	-4.85e-003
5559	14.473	4.	0.1	-4.6563e-003
5560	14.274	4.	0.1	-4.4877e-003
5561	14.076	4.	0.1	-4.29e-003
5562	13.877	4.	0.1	-4.057e-003
5563	13.679	4.	0.1	-3.8318e-003
5564	13.48	4.	0.1	-3.5666e-003
5565	13.282	4.	0.1	-3.2402e-003
5566	13.083	4.	0.1	-2.8102e-003
5567	12.885	4.	0.1	-2.2253e-003
5568	12.686	4.	0.1	-1.2159e-003
5569	12.488	4.	0.1	1.0789e-003
5570	12.289	4.	0.1	1.2852e-002
5571	12.091	4.	0.1	0.7462
5572	11.892	4.	0.1	2.1541
5573	11.694	4.	0.1	3.6812
5574	11.495	4.	0.1	5.3328
5575	11.297	4.	0.1	7.1204
5576	11.098	4.	0.1	9.0568
5577	10.9	4.	0.1	11.157
5578	10.702	4.	0.1	13.434
5579	10.503	4.	0.1	15.908
5580	10.305	4.	0.1	18.594
5581	10.106	4.	0.1	21.514
5582	9.9076	4.	0.1	24.688
5583	9.7091	4.	0.1	28.139
5584	9.5106	4.	0.1	31.893
5585	9.3121	4.	0.1	35.975
5586	9.1136	4.	0.1	40.417
5587	8.9152	4.	0.1	45.248
5588	8.7167	4.	0.1	50.503
5589	8.5182	4.	0.1	56.217
5590	8.3197	4.	0.1	62.431
5591	8.1212	4.	0.1	69.184
5592	7.9227	4.	0.1	76.522
5593	7.7242	4.	0.1	84.49
5594	7.5258	4.	0.1	93.135
5595	7.3273	4.	0.1	102.51
5596	7.1288	4.	0.1	112.66
5597	6.9303	4.	0.1	123.64
5598	6.7318	4.	0.1	135.5
5599	6.5333	4.	0.1	148.29
5600	6.3348	4.	0.1	162.03
5601	6.1364	4.	0.1	176.77
5602	5.9379	4.	0.1	192.51
5603	5.7394	4.	0.1	209.25
5604	5.5409	4.	0.1	226.94
5605	5.3424	4.	0.1	245.48
5606	5.1439	4.	0.1	264.71
5607	4.9455	4.	0.1	284.37
5608	4.747	4.	0.1	304.03
5609	4.5485	4.	0.1	323.03
5610	4.35	4.	0.1	340.35
5611	4.1515	4.	0.1	354.42
5612	3.953	4.	0.1	362.76
5613	3.7545	4.	0.1	361.43
5614	3.5561	4.	0.1	344.2
5615	3.3576	4.	0.1	300.74
5616	3.1591	4.	0.1	215.12
5617	2.9606	4.	0.1	69.364
5618	2.7621	4.	0.1	29.227
5619	2.5636	4.	0.1	-98.692
5620	2.3652	4.	0.1	803.86
5621	23.802	4.2	0.1	-0.11006
5622	23.603	4.2	0.1	-0.32656
5623	23.405	4.2	0.1	-0.12424
5624	23.206	4.2	0.1	-0.11264
5625	23.008	4.2	0.1	-8.07e-002
5626	22.809	4.2	0.1	-6.6479e-002
5627	22.611	4.2	0.1	-5.4678e-002
5628	22.412	4.2	0.1	-4.6436e-002
5629	22.214	4.2	0.1	-4.001e-002
5630	22.015	4.2	0.1	-3.4983e-002
5631	21.817	4.2	0.1	-3.0931e-002
5632	21.618	4.2	0.1	-2.7617e-002
5633	21.42	4.2	0.1	-2.486e-002
5634	21.221	4.2	0.1	-2.2533e-002
5635	21.023	4.2	0.1	-2.0548e-002
5636	20.824	4.2	0.1	-1.8846e-002
5637	20.626	4.2	0.1	-1.7361e-002
5638	20.427	4.2	0.1	-1.6054e-002
5639	20.229	4.2	0.1	-1.491e-002
5640	20.03	4.2	0.1	-1.3889e-002
5641	19.832	4.2	0.1	-1.2976e-002
5642	19.633	4.2	0.1	-1.2152e-002
5643	19.435	4.2	0.1	-1.1419e-002
5644	19.236	4.2	0.1	-1.0752e-002
5645	19.038	4.2	0.1	-1.0144e-002
5646	18.839	4.2	0.1	-9.5847e-003
5647	18.641	4.2	0.1	-9.0861e-003
5648	18.442	4.2	0.1	-8.6167e-003
5649	18.244	4.2	0.1	-8.1723e-003
5650	18.045	4.2	0.1	-7.7758e-003
5651	17.847	4.2	0.1	-7.4038e-003
5652	17.648	4.2	0.1	-7.0554e-003
5653	17.45	4.2	0.1	-6.7251e-003
5654	17.252	4.2	0.1	-6.4338e-003
5655	17.053	4.2	0.1	-6.1553e-003
5656	16.855	4.2	0.1	-5.8912e-003
5657	16.656	4.2	0.1	-5.6382e-003
5658	16.458	4.2	0.1	-5.4203e-003
5659	16.259	4.2	0.1	-5.1963e-003
5660	16.061	4.2	0.1	-4.9689e-003
5661	15.862	4.2	0.1	-4.7705e-003
5662	15.664	4.2	0.1	-4.576e-003
5663	15.465	4.2	0.1	-4.3859e-003
5664	15.267	4.2	0.1	-4.1922e-003
5665	15.068	4.2	0.1	-4.0268e-003
5666	14.87	4.2	0.1	-3.858e-003
5667	14.671	4.2	0.1	-3.6834e-003
5668	14.473	4.2	0.1	-3.5016e-003
5669	14.274	4.2	0.1	-3.3426e-003
5670	14.076	4.2	0.1	-3.1528e-003
5671	13.877	4.2	0.1	-2.9262e-003
5672	13.679	4.2	0.1	-2.7067e-003
5673	13.48	4.2	0.1	-2.4429e-003
5674	13.282	4.2	0.1	-2.1198e-003
5675	13.083	4.2	0.1	-1.6963e-003
5676	12.885	4.2	0.1	-1.139e-003
5677	12.686	4.2	0.1	-2.4953e-004
5678	12.488	4.2	0.1	1.4461e-003
5679	12.289	4.2	0.1	6.134e-003
5680	12.091	4.2	0.1	6.9851e-002
5681	11.892	4.2	0.1	1.2308
5682	11.694	4.2	0.1	2.6666
5683	11.495	4.2	0.1	4.2213
5684	11.297	4.2	0.1	5.9032
5685	11.098	4.2	0.1	7.7233
5686	10.9	4.2	0.1	9.6949
5687	10.702	4.2	0.1	11.831
5688	10.503	4.2	0.1	14.148
5689	10.305	4.2	0.1	16.661
5690	10.106	4.2	0.1	19.388
5691	9.9076	4.2	0.1	22.348
5692	9.7091	4.2	0.1	25.559
5693	9.5106	4.2	0.1	29.045
5694	9.3121	4.2	0.1	32.827
5695	9.1136	4.2	0.1	36.93
5696	8.9152	4.2	0.1	41.379
5697	8.7167	4.2	0.1	46.202
5698	8.5182	4.2	0.1	51.425
5699	8.3197	4.2	0.1	57.079
5700	8.1212	4.2	0.1	63.192
5701	7.9227	4.2	0.1	69.794
5702	7.7242	4.2	0.1	76.916
5703	7.5258	4.2	0.1	84.586
5704	7.3273	4.2	0.1	92.829
5705	7.1288	4.2	0.1	101.67
5706	6.9303	4.2	0.1	111.13
5707	6.7318	4.2	0.1	121.21
5708	6.5333	4.2	0.1	131.93
5709	6.3348	4.2	0.1	143.26
5710	6.1364	4.2	0.1	155.19
5711	5.9379	4.2	0.1	167.65
5712	5.7394	4.2	0.1	180.58
5713	5.5409	4.2	0.1	193.86
5714	5.3424	4.2	0.1	207.3
5715	5.1439	4.2	0.1	220.66
5716	4.9455	4.2	0.1	233.58
5717	4.747	4.2	0.1	245.56
5718	4.5485	4.2	0.1	255.81
5719	4.35	4.2	0.1	263.19
5720	4.1515	4.2	0.1	265.91
5721	3.953	4.2	0.1	261.11
5722	3.7545	4.2	0.1	244.12
5723	3.5561	4.2	0.1	207.26
5724	3.3576	4.2	0.1	138.31
5725	3.1591	4.2	0.1	38.144
5726	2.9606	4.2	0.1	9.722
5727	2.7621	4.2	0.1	10.652
5728	2.5636	4.2	0.1	-14.512
5729	2.3652	4.2	0.1	197.52
5730	23.802	4.4	0.1	-9.5569e-002
5731	23.603	4.4	0.1	-0.3181
5732	23.405	4.4	0.1	-0.11804
5733	23.206	4.4	0.1	-0.10705
5734	23.008	4.4	0.1	-7.5642e-002
5735	22.809	4.4	0.1	-6.1767e-002
5736	22.611	4.4	0.1	-5.0257e-002
5737	22.412	4.4	0.1	-4.2254e-002
5738	22.214	4.4	0.1	-3.6036e-002
5739	22.015	4.4	0.1	-3.1195e-002
5740	21.817	4.4	0.1	-2.7315e-002
5741	21.618	4.4	0.1	-2.4158e-002
5742	21.42	4.4	0.1	-2.1546e-002
5743	21.221	4.4	0.1	-1.9357e-002
5744	21.023	4.4	0.1	-1.7501e-002
5745	20.824	4.4	0.1	-1.5916e-002
5746	20.626	4.4	0.1	-1.4542e-002
5747	20.427	4.4	0.1	-1.3339e-002
5748	20.229	4.4	0.1	-1.229e-002
5749	20.03	4.4	0.1	-1.1361e-002
5750	19.832	4.4	0.1	-1.0534e-002
5751	19.633	4.4	0.1	-9.7903e-003
5752	19.435	4.4	0.1	-9.1311e-003
5753	19.236	4.4	0.1	-8.5343e-003
5754	19.038	4.4	0.1	-7.9917e-003
5755	18.839	4.4	0.1	-7.4944e-003
5756	18.641	4.4	0.1	-7.0537e-003
5757	18.442	4.4	0.1	-6.6389e-003
5758	18.244	4.4	0.1	-6.2467e-003
5759	18.045	4.4	0.1	-5.8978e-003
5760	17.847	4.4	0.1	-5.5723e-003
5761	17.648	4.4	0.1	-5.2675e-003
5762	17.45	4.4	0.1	-4.9794e-003
5763	17.252	4.4	0.1	-4.7241e-003
5764	17.053	4.4	0.1	-4.4863e-003
5765	16.855	4.4	0.1	-4.2573e-003
5766	16.656	4.4	0.1	-4.0382e-003
5767	16.458	4.4	0.1	-3.8524e-003
5768	16.259	4.4	0.1	-3.66e-003
5769	16.061	4.4	0.1	-3.4616e-003
5770	15.862	4.4	0.1	-3.2932e-003
5771	15.664	4.4	0.1	-3.1257e-003
5772	15.465	4.4	0.1	-2.9601e-003
5773	15.267	4.4	0.1	-2.7924e-003
5774	15.068	4.4	0.1	-2.6513e-003
5775	14.87	4.4	0.1	-2.5043e-003
5776	14.671	4.4	0.1	-2.3545e-003
5777	14.473	4.4	0.1	-2.1941e-003
5778	14.274	4.4	0.1	-2.0577e-003
5779	14.076	4.4	0.1	-1.8893e-003
5780	13.877	4.4	0.1	-1.6847e-003
5781	13.679	4.4	0.1	-1.4866e-003
5782	13.48	4.4	0.1	-1.2517e-003
5783	13.282	4.4	0.1	-9.603e-004
5784	13.083	4.4	0.1	-5.8561e-004
5785	12.885	4.4	0.1	-1.1238e-004
5786	12.686	4.4	0.1	5.981e-004
5787	12.488	4.4	0.1	1.7865e-003
5788	12.289	4.4	0.1	4.2161e-003
5789	12.091	4.4	0.1	1.1906e-002
5790	11.892	4.4	0.1	0.21748
5791	11.694	4.4	0.1	1.4934
5792	11.495	4.4	0.1	2.9343
5793	11.297	4.4	0.1	4.4942
5794	11.098	4.4	0.1	6.1809
5795	10.9	4.4	0.1	8.0058
5796	10.702	4.4	0.1	9.9808
5797	10.503	4.4	0.1	12.119
5798	10.305	4.4	0.1	14.435
5799	10.106	4.4	0.1	16.944
5800	9.9076	4.4	0.1	19.66
5801	9.7091	4.4	0.1	22.602
5802	9.5106	4.4	0.1	25.787
5803	9.3121	4.4	0.1	29.233
5804	9.1136	4.4	0.1	32.96
5805	8.9152	4.4	0.1	36.986
5806	8.7167	4.4	0.1	41.332
5807	8.5182	4.4	0.1	46.018
5808	8.3197	4.4	0.1	51.061
5809	8.1212	4.4	0.1	56.481
5810	7.9227	4.4	0.1	62.293
5811	7.7242	4.4	0.1	68.511
5812	7.5258	4.4	0.1	75.143
5813	7.3273	4.4	0.1	82.193
5814	7.1288	4.4	0.1	89.659
5815	6.9303	4.4	0.1	97.526
5816	6.7318	4.4	0.1	105.77
5817	6.5333	4.4	0.1	114.35
5818	6.3348	4.4	0.1	123.22
5819	6.1364	4.4	0.1	132.28
5820	5.9379	4.4	0.1	141.43
5821	5.7394	4.4	0.1	150.52
5822	5.5409	4.4	0.1	159.36
5823	5.3424	4.4	0.1	167.72
5824	5.1439	4.4	0.1	175.25
5825	4.9455	4.4	0.1	181.54
5826	4.747	4.4	0.1	185.99
5827	4.5485	4.4	0.1	187.78
5828	4.35	4.4	0.1	185.68
5829	4.1515	4.4	0.1	177.79
5830	3.953	4.4	0.1	161.14
5831	3.7545	4.4	0.1	130.91
5832	3.5561	4.4	0.1	80.431
5833	3.3576	4.4	0.1	21.39
5834	3.1591	4.4	0.1	8.2219
5835	2.9606	4.4	0.1	3.1925
5836	2.7621	4.4	0.1	16.005
5837	2.5636	4.4	0.1	-10.402
5838	2.3652	4.4	0.1	-22.802
5839	23.802	4.6	0.1	-7.7025e-002
5840	23.603	4.6	0.1	-0.30686
5841	23.405	4.6	0.1	-0.10972
5842	23.206	4.6	0.1	-9.9543e-002
5843	23.008	4.6	0.1	-6.884e-002
5844	22.809	4.6	0.1	-5.5465e-002
5845	22.611	4.6	0.1	-4.4366e-002
5846	22.412	4.6	0.1	-3.6713e-002
5847	22.214	4.6	0.1	-3.0806e-002
5848	22.015	4.6	0.1	-2.6246e-002
5849	21.817	4.6	0.1	-2.262e-002
5850	21.618	4.6	0.1	-1.9697e-002
5851	21.42	4.6	0.1	-1.7302e-002
5852	21.221	4.6	0.1	-1.5312e-002
5853	21.023	4.6	0.1	-1.3637e-002
5854	20.824	4.6	0.1	-1.2228e-002
5855	20.626	4.6	0.1	-1.1013e-002
5856	20.427	4.6	0.1	-9.9554e-003
5857	20.229	4.6	0.1	-9.0465e-003
5858	20.03	4.6	0.1	-8.2453e-003
5859	19.832	4.6	0.1	-7.5346e-003
5860	19.633	4.6	0.1	-6.9037e-003
5861	19.435	4.6	0.1	-6.3476e-003
5862	19.236	4.6	0.1	-5.8494e-003
5863	19.038	4.6	0.1	-5.3947e-003
5864	18.839	4.6	0.1	-4.9831e-003
5865	18.641	4.6	0.1	-4.6209e-003
5866	18.442	4.6	0.1	-4.2844e-003
5867	18.244	4.6	0.1	-3.9601e-003
5868	18.045	4.6	0.1	-3.6792e-003
5869	17.847	4.6	0.1	-3.4171e-003
5870	17.648	4.6	0.1	-3.1685e-003
5871	17.45	4.6	0.1	-2.9384e-003
5872	17.252	4.6	0.1	-2.7378e-003
5873	17.053	4.6	0.1	-2.5491e-003
5874	16.855	4.6	0.1	-2.3688e-003
5875	16.656	4.6	0.1	-2.1948e-003
5876	16.458	4.6	0.1	-2.0526e-003
5877	16.259	4.6	0.1	-1.9031e-003
5878	16.061	4.6	0.1	-1.7434e-003
5879	15.862	4.6	0.1	-1.6149e-003
5880	15.664	4.6	0.1	-1.4856e-003
5881	15.465	4.6	0.1	-1.3563e-003
5882	15.267	4.6	0.1	-1.2248e-003
5883	15.068	4.6	0.1	-1.1171e-003
5884	14.87	4.6	0.1	-1.0062e-003
5885	14.671	4.6	0.1	-8.8947e-004
5886	14.473	4.6	0.1	-7.6373e-004
5887	14.274	4.6	0.1	-6.6328e-004
5888	14.076	4.6	0.1	-5.3097e-004
5889	13.877	4.6	0.1	-3.6593e-004
5890	13.679	4.6	0.1	-2.1171e-004
5891	13.48	4.6	0.1	-2.6771e-005
5892	13.282	4.6	0.1	2.0372e-004
5893	13.083	4.6	0.1	4.9701e-004
5894	12.885	4.6	0.1	8.4841e-004
5895	12.686	4.6	0.1	1.3543e-003
5896	12.488	4.6	0.1	2.1314e-003
5897	12.289	4.6	0.1	3.4607e-003
5898	12.091	4.6	0.1	6.1777e-003
5899	11.892	4.6	0.1	1.507e-002
5900	11.694	4.6	0.1	0.23241
5901	11.495	4.6	0.1	1.487
5902	11.297	4.6	0.1	2.9077
5903	11.098	4.6	0.1	4.445
5904	10.9	4.6	0.1	6.1066
5905	10.702	4.6	0.1	7.9021
5906	10.503	4.6	0.1	9.843
5907	10.305	4.6	0.1	11.941
5908	10.106	4.6	0.1	14.209
5909	9.9076	4.6	0.1	16.66
5910	9.7091	4.6	0.1	19.307
5911	9.5106	4.6	0.1	22.165
5912	9.3121	4.6	0.1	25.247
5913	9.1136	4.6	0.1	28.568
5914	8.9152	4.6	0.1	32.142
5915	8.7167	4.6	0.1	35.982
5916	8.5182	4.6	0.1	40.099
5917	8.3197	4.6	0.1	44.503
5918	8.1212	4.6	0.1	49.201
5919	7.9227	4.6	0.1	54.196
5920	7.7242	4.6	0.1	59.487
5921	7.5258	4.6	0.1	65.065
5922	7.3273	4.6	0.1	70.914
5923	7.1288	4.6	0.1	77.005
5924	6.9303	4.6	0.1	83.298
5925	6.7318	4.6	0.1	89.735
5926	6.5333	4.6	0.1	96.241
5927	6.3348	4.6	0.1	102.72
5928	6.1364	4.6	0.1	109.03
5929	5.9379	4.6	0.1	115.02
5930	5.7394	4.6	0.1	120.49
5931	5.5409	4.6	0.1	125.19
5932	5.3424	4.6	0.1	128.81
5933	5.1439	4.6	0.1	130.98
5934	4.9455	4.6	0.1	131.23
5935	4.747	4.6	0.1	128.94
5936	4.5485	4.6	0.1	123.31
5937	4.35	4.6	0.1	113.19
5938	4.1515	4.6	0.1	96.911
5939	3.953	4.6	0.1	72.144
5940	3.7545	4.6	0.1	37.509
5941	3.5561	4.6	0.1	11.205
5942	3.3576	4.6	0.1	5.5327
5943	3.1591	4.6	0.1	4.1984
5944	2.9606	4.6	0.1	3.7869
5945	2.7621	4.6	0.1	3.4051
5946	2.5636	4.6	0.1	-0.53834
5947	2.3652	4.6	0.1	35.154
5948	23.802	4.8	0.1	-5.2326e-002
5949	23.603	4.8	0.1	-0.29117
5950	23.405	4.8	0.1	-9.7913e-002
5951	23.206	4.8	0.1	-8.893e-002
5952	23.008	4.8	0.1	-5.9274e-002
5953	22.809	4.8	0.1	-4.6658e-002
5954	22.611	4.8	0.1	-3.6206e-002
5955	22.412	4.8	0.1	-2.9112e-002
5956	22.214	4.8	0.1	-2.3697e-002
5957	22.015	4.8	0.1	-1.9579e-002
5958	21.817	4.8	0.1	-1.6353e-002
5959	21.618	4.8	0.1	-1.3795e-002
5960	21.42	4.8	0.1	-1.1735e-002
5961	21.221	4.8	0.1	-1.005e-002
5962	21.023	4.8	0.1	-8.6554e-003
5963	20.824	4.8	0.1	-7.5013e-003
5964	20.626	4.8	0.1	-6.5218e-003
5965	20.427	4.8	0.1	-5.6831e-003
5966	20.229	4.8	0.1	-4.9719e-003
5967	20.03	4.8	0.1	-4.3567e-003
5968	19.832	4.8	0.1	-3.8187e-003
5969	19.633	4.8	0.1	-3.3453e-003
5970	19.435	4.8	0.1	-2.9356e-003
5971	19.236	4.8	0.1	-2.5734e-003
5972	19.038	4.8	0.1	-2.2488e-003
5973	18.839	4.8	0.1	-1.9564e-003
5974	18.641	4.8	0.1	-1.7073e-003
5975	18.442	4.8	0.1	-1.4706e-003
5976	18.244	4.8	0.1	-1.2462e-003
5977	18.045	4.8	0.1	-1.0556e-003
5978	17.847	4.8	0.1	-8.7821e-004
5979	17.648	4.8	0.1	-7.1358e-004
5980	17.45	4.8	0.1	-5.5586e-004
5981	17.252	4.8	0.1	-4.2951e-004
5982	17.053	4.8	0.1	-3.0645e-004
5983	16.855	4.8	0.1	-1.9128e-004
5984	16.656	4.8	0.1	-7.9031e-005
5985	16.458	4.8	0.1	3.9439e-006
5986	16.259	4.8	0.1	9.7808e-005
5987	16.061	4.8	0.1	2.0151e-004
5988	15.862	4.8	0.1	2.7952e-004
5989	15.664	4.8	0.1	3.5954e-004
5990	15.465	4.8	0.1	4.3881e-004
5991	15.267	4.8	0.1	5.2067e-004
5992	15.068	4.8	0.1	5.7966e-004
5993	14.87	4.8	0.1	6.4344e-004
5994	14.671	4.8	0.1	7.1027e-004
5995	14.473	4.8	0.1	7.8724e-004
5996	14.274	4.8	0.1	8.3716e-004
5997	14.076	4.8	0.1	9.1401e-004
5998	13.877	4.8	0.1	1.0218e-003
5999	13.679	4.8	0.1	1.1117e-003
6000	13.48	4.8	0.1	1.2251e-003
6001	13.282	4.8	0.1	1.3678e-003
6002	13.083	4.8	0.1	1.5528e-003
6003	12.885	4.8	0.1	1.7624e-003
6004	12.686	4.8	0.1	2.0603e-003
6005	12.488	4.8	0.1	2.497e-003
6006	12.289	4.8	0.1	3.1809e-003
6007	12.091	4.8	0.1	4.3038e-003
6008	11.892	4.8	0.1	6.615e-003
6009	11.694	4.8	0.1	1.3223e-002
6010	11.495	4.8	0.1	8.8056e-002
6011	11.297	4.8	0.1	1.1645
6012	11.098	4.8	0.1	2.5335
6013	10.9	4.8	0.1	4.0163
6014	10.702	4.8	0.1	5.6166
6015	10.503	4.8	0.1	7.3435
6016	10.305	4.8	0.1	9.2064
6017	10.106	4.8	0.1	11.215
6018	9.9076	4.8	0.1	13.381
6019	9.7091	4.8	0.1	15.714
6020	9.5106	4.8	0.1	18.225
6021	9.3121	4.8	0.1	20.923
6022	9.1136	4.8	0.1	23.82
6023	8.9152	4.8	0.1	26.922
6024	8.7167	4.8	0.1	30.238
6025	8.5182	4.8	0.1	33.771
6026	8.3197	4.8	0.1	37.525
6027	8.1212	4.8	0.1	41.496
6028	7.9227	4.8	0.1	45.677
6029	7.7242	4.8	0.1	50.054
6030	7.5258	4.8	0.1	54.604
6031	7.3273	4.8	0.1	59.292
6032	7.1288	4.8	0.1	64.072
6033	6.9303	4.8	0.1	68.881
6034	6.7318	4.8	0.1	73.635
6035	6.5333	4.8	0.1	78.229
6036	6.3348	4.8	0.1	82.531
6037	6.1364	4.8	0.1	86.375
6038	5.9379	4.8	0.1	89.56
6039	5.7394	4.8	0.1	91.846
6040	5.5409	4.8	0.1	92.945
6041	5.3424	4.8	0.1	92.516
6042	5.1439	4.8	0.1	90.161
6043	4.9455	4.8	0.1	85.409
6044	4.747	4.8	0.1	77.697
6045	4.5485	4.8	0.1	66.359
6046	4.35	4.8	0.1	50.645
6047	4.1515	4.8	0.1	30.323
6048	3.953	4.8	0.1	11.366
6049	3.7545	4.8	0.1	5.1201
6050	3.5561	4.8	0.1	3.5518
6051	3.3576	4.8	0.1	2.9661
6052	3.1591	4.8	0.1	2.74
6053	2.9606	4.8	0.1	2.6194
6054	2.7621	4.8	0.1	3.2069
6055	2.5636	4.8	0.1	-1.0527
6056	2.3652	4.8	0.1	11.077
6057	23.802	5.	0.1	-2.0814e-002
6058	23.603	5.	0.1	-0.27031
6059	23.405	5.	0.1	-8.2149e-002
6060	23.206	5.	0.1	-7.4739e-002
6061	23.008	5.	0.1	-4.6632e-002
6062	22.809	5.	0.1	-3.514e-002
6063	22.611	5.	0.1	-2.5658e-002
6064	22.412	5.	0.1	-1.9395e-002
6065	22.214	5.	0.1	-1.4715e-002
6066	22.015	5.	0.1	-1.125e-002
6067	21.817	5.	0.1	-8.6086e-003
6068	21.618	5.	0.1	-6.5738e-003
6069	21.42	5.	0.1	-4.983e-003
6070	21.221	5.	0.1	-3.7229e-003
6071	21.023	5.	0.1	-2.7153e-003
6072	20.824	5.	0.1	-1.9095e-003
6073	20.626	5.	0.1	-1.2498e-003
6074	20.427	5.	0.1	-7.0242e-004
6075	20.229	5.	0.1	-2.5693e-004
6076	20.03	5.	0.1	1.1363e-004
6077	19.832	5.	0.1	4.2972e-004
6078	19.633	5.	0.1	6.9667e-004
6079	19.435	5.	0.1	9.1313e-004
6080	19.236	5.	0.1	1.1005e-003
6081	19.038	5.	0.1	1.263e-003
6082	18.839	5.	0.1	1.4068e-003
6083	18.641	5.	0.1	1.5171e-003
6084	18.442	5.	0.1	1.6225e-003
6085	18.244	5.	0.1	1.7267e-003
6086	18.045	5.	0.1	1.8046e-003
6087	17.847	5.	0.1	1.8749e-003
6088	17.648	5.	0.1	1.9429e-003
6089	17.45	5.	0.1	2.0068e-003
6090	17.252	5.	0.1	2.048e-003
6091	17.053	5.	0.1	2.086e-003
6092	16.855	5.	0.1	2.1235e-003
6093	16.656	5.	0.1	2.1646e-003
6094	16.458	5.	0.1	2.1767e-003
6095	16.259	5.	0.1	2.2032e-003
6096	16.061	5.	0.1	2.2426e-003
6097	15.862	5.	0.1	2.2583e-003
6098	15.664	5.	0.1	2.2764e-003
6099	15.465	5.	0.1	2.2979e-003
6100	15.267	5.	0.1	2.322e-003
6101	15.068	5.	0.1	2.3245e-003
6102	14.87	5.	0.1	2.3283e-003
6103	14.671	5.	0.1	2.3384e-003
6104	14.473	5.	0.1	2.3556e-003
6105	14.274	5.	0.1	2.3417e-003
6106	14.076	5.	0.1	2.3548e-003
6107	13.877	5.	0.1	2.3911e-003
6108	13.679	5.	0.1	2.4043e-003
6109	13.48	5.	0.1	2.4315e-003
6110	13.282	5.	0.1	2.4758e-003
6111	13.083	5.	0.1	2.542e-003
6112	12.885	5.	0.1	2.6041e-003
6113	12.686	5.	0.1	2.7097e-003
6114	12.488	5.	0.1	2.8755e-003
6115	12.289	5.	0.1	3.1407e-003
6116	12.091	5.	0.1	3.5249e-003
6117	11.892	5.	0.1	4.2281e-003
6118	11.694	5.	0.1	5.5979e-003
6119	11.495	5.	0.1	8.7542e-003
6120	11.297	5.	0.1	2.1998e-002
6121	11.098	5.	0.1	0.48718
6122	10.9	5.	0.1	1.7573
6123	10.702	5.	0.1	3.1473
6124	10.503	5.	0.1	4.6461
6125	10.305	5.	0.1	6.2594
6126	10.106	5.	0.1	7.9953
6127	9.9076	5.	0.1	9.8611
6128	9.7091	5.	0.1	11.865
6129	9.5106	5.	0.1	14.014
6130	9.3121	5.	0.1	16.316
6131	9.1136	5.	0.1	18.775
6132	8.9152	5.	0.1	21.397
6133	8.7167	5.	0.1	24.184
6134	8.5182	5.	0.1	27.134
6135	8.3197	5.	0.1	30.243
6136	8.1212	5.	0.1	33.503
6137	7.9227	5.	0.1	36.896
6138	7.7242	5.	0.1	40.401
6139	7.5258	5.	0.1	43.984
6140	7.3273	5.	0.1	47.599
6141	7.1288	5.	0.1	51.186
6142	6.9303	5.	0.1	54.667
6143	6.7318	5.	0.1	57.942
6144	6.5333	5.	0.1	60.887
6145	6.3348	5.	0.1	63.349
6146	6.1364	5.	0.1	65.141
6147	5.9379	5.	0.1	66.04
6148	5.7394	5.	0.1	65.783
6149	5.5409	5.	0.1	64.065
6150	5.3424	5.	0.1	60.537
6151	5.1439	5.	0.1	54.81
6152	4.9455	5.	0.1	46.468
6153	4.747	5.	0.1	35.125
6154	4.5485	5.	0.1	20.804
6155	4.35	5.	0.1	7.3631
6156	4.1515	5.	0.1	3.1126
6157	3.953	5.	0.1	2.1999
6158	3.7545	5.	0.1	1.9207
6159	3.5561	5.	0.1	1.8554
6160	3.3576	5.	0.1	1.8794
6161	3.1591	5.	0.1	2.0266
6162	2.9606	5.	0.1	1.9089
6163	2.7621	5.	0.1	3.0153
6164	2.5636	5.	0.1	-0.7175
6165	2.3652	5.	0.1	13.901
6166	23.802	5.2	0.1	3.2319e-002
6167	23.603	5.2	0.1	-0.2327
6168	23.405	5.2	0.1	-5.3681e-002
6169	23.206	5.2	0.1	-4.9659e-002
6170	23.008	5.2	0.1	-2.4571e-002
6171	22.809	5.2	0.1	-1.5429e-002
6172	22.611	5.2	0.1	-7.9001e-003
6173	22.412	5.2	0.1	-3.2996e-003
6174	22.214	5.2	0.1	-5.368e-005
6175	22.015	5.2	0.1	2.1602e-003
6176	21.817	5.2	0.1	3.7028e-003
6177	21.618	5.2	0.1	4.7653e-003
6178	21.42	5.2	0.1	5.4966e-003
6179	21.221	5.2	0.1	5.9884e-003
6180	21.023	5.2	0.1	6.3117e-003
6181	20.824	5.2	0.1	6.4982e-003
6182	20.626	5.2	0.1	6.605e-003
6183	20.427	5.2	0.1	6.6516e-003
6184	20.229	5.2	0.1	6.6397e-003
6185	20.03	5.2	0.1	6.599e-003
6186	19.832	5.2	0.1	6.5367e-003
6187	19.633	5.2	0.1	6.461e-003
6188	19.435	5.2	0.1	6.3637e-003
6189	19.236	5.2	0.1	6.2638e-003
6190	19.038	5.2	0.1	6.1612e-003
6191	18.839	5.2	0.1	6.0629e-003
6192	18.641	5.2	0.1	5.9488e-003
6193	18.442	5.2	0.1	5.8473e-003
6194	18.244	5.2	0.1	5.7592e-003
6195	18.045	5.2	0.1	5.6606e-003
6196	17.847	5.2	0.1	5.5685e-003
6197	17.648	5.2	0.1	5.4826e-003
6198	17.45	5.2	0.1	5.4037e-003
6199	17.252	5.2	0.1	5.3111e-003
6200	17.053	5.2	0.1	5.2255e-003
6201	16.855	5.2	0.1	5.147e-003
6202	16.656	5.2	0.1	5.0741e-003
6203	16.458	5.2	0.1	4.9823e-003
6204	16.259	5.2	0.1	4.9071e-003
6205	16.061	5.2	0.1	4.8516e-003
6206	15.862	5.2	0.1	4.7743e-003
6207	15.664	5.2	0.1	4.7022e-003
6208	15.465	5.2	0.1	4.6353e-003
6209	15.267	5.2	0.1	4.5742e-003
6210	15.068	5.2	0.1	4.4888e-003
6211	14.87	5.2	0.1	4.4081e-003
6212	14.671	5.2	0.1	4.3307e-003
6213	14.473	5.2	0.1	4.2569e-003
6214	14.274	5.2	0.1	4.1526e-003
6215	14.076	5.2	0.1	4.0675e-003
6216	13.877	5.2	0.1	4.0031e-003
6217	13.679	5.2	0.1	3.9071e-003
6218	13.48	5.2	0.1	3.8151e-003
6219	13.282	5.2	0.1	3.7276e-003
6220	13.083	5.2	0.1	3.6471e-003
6221	12.885	5.2	0.1	3.5386e-003
6222	12.686	5.2	0.1	3.4409e-003
6223	12.488	5.2	0.1	3.3569e-003
6224	12.289	5.2	0.1	3.2994e-003
6225	12.091	5.2	0.1	3.2345e-003
6226	11.892	5.2	0.1	3.2531e-003
6227	11.694	5.2	0.1	3.3991e-003
6228	11.495	5.2	0.1	3.7122e-003
6229	11.297	5.2	0.1	4.4961e-003
6230	11.098	5.2	0.1	6.6735e-003
6231	10.9	5.2	0.1	1.7282e-002
6232	10.702	5.2	0.1	0.53087
6233	10.503	5.2	0.1	1.7773
6234	10.305	5.2	0.1	3.1286
6235	10.106	5.2	0.1	4.5797
6236	9.9076	5.2	0.1	6.1349
6237	9.7091	5.2	0.1	7.7997
6238	9.5106	5.2	0.1	9.5787
6239	9.3121	5.2	0.1	11.476
6240	9.1136	5.2	0.1	13.494
6241	8.9152	5.2	0.1	15.635
6242	8.7167	5.2	0.1	17.896
6243	8.5182	5.2	0.1	20.273
6244	8.3197	5.2	0.1	22.759
6245	8.1212	5.2	0.1	25.338
6246	7.9227	5.2	0.1	27.992
6247	7.7242	5.2	0.1	30.692
6248	7.5258	5.2	0.1	33.399
6249	7.3273	5.2	0.1	36.063
6250	7.1288	5.2	0.1	38.617
6251	6.9303	5.2	0.1	40.978
6252	6.7318	5.2	0.1	43.041
6253	6.5333	5.2	0.1	44.676
6254	6.3348	5.2	0.1	45.723
6255	6.1364	5.2	0.1	45.992
6256	5.9379	5.2	0.1	45.258
6257	5.7394	5.2	0.1	43.258
6258	5.5409	5.2	0.1	39.692
6259	5.3424	5.2	0.1	34.234
6260	5.1439	5.2	0.1	26.554
6261	4.9455	5.2	0.1	16.464
6262	4.747	5.2	0.1	5.517
6263	4.5485	5.2	0.1	1.6588
6264	4.35	5.2	0.1	1.0681
6265	4.1515	5.2	0.1	0.91924
6266	3.953	5.2	0.1	0.90472
6267	3.7545	5.2	0.1	0.96179
6268	3.5561	5.2	0.1	1.0787
6269	3.3576	5.2	0.1	1.2402
6270	3.1591	5.2	0.1	1.5189
6271	2.9606	5.2	0.1	1.6893
6272	2.7621	5.2	0.1	2.6993
6273	2.5636	5.2	0.1	0.3956
6274	2.3652	5.2	0.1	11.559
6275	23.802	5.4	0.1	8.1632e-002
6276	23.603	5.4	0.1	-0.19708
6277	23.405	5.4	0.1	-2.4689e-002
6278	23.206	5.4	0.1	-2.6835e-002
6279	23.008	5.4	0.1	-5.5286e-003
6280	22.809	5.4	0.1	8.8911e-004
6281	22.611	5.4	0.1	6.1223e-003
6282	22.412	5.4	0.1	8.8799e-003
6283	22.214	5.4	0.1	1.0589e-002
6284	22.015	5.4	0.1	1.1521e-002
6285	21.817	5.4	0.1	1.1991e-002
6286	21.618	5.4	0.1	1.2147e-002
6287	21.42	5.4	0.1	1.2104e-002
6288	21.221	5.4	0.1	1.1932e-002
6289	21.023	5.4	0.1	1.1683e-002
6290	20.824	5.4	0.1	1.1379e-002
6291	20.626	5.4	0.1	1.1053e-002
6292	20.427	5.4	0.1	1.0722e-002
6293	20.229	5.4	0.1	1.0382e-002
6294	20.03	5.4	0.1	1.005e-002
6295	19.832	5.4	0.1	9.7303e-003
6296	19.633	5.4	0.1	9.4251e-003
6297	19.435	5.4	0.1	9.1244e-003
6298	19.236	5.4	0.1	8.8407e-003
6299	19.038	5.4	0.1	8.5762e-003
6300	18.839	5.4	0.1	8.3298e-003
6301	18.641	5.4	0.1	8.0837e-003
6302	18.442	5.4	0.1	7.863e-003
6303	18.244	5.4	0.1	7.6694e-003
6304	18.045	5.4	0.1	7.4697e-003
6305	17.847	5.4	0.1	7.2882e-003
6306	17.648	5.4	0.1	7.1202e-003
6307	17.45	5.4	0.1	6.9672e-003
6308	17.252	5.4	0.1	6.8057e-003
6309	17.053	5.4	0.1	6.6558e-003
6310	16.855	5.4	0.1	6.5171e-003
6311	16.656	5.4	0.1	6.3908e-003
6312	16.458	5.4	0.1	6.2482e-003
6313	16.259	5.4	0.1	6.125e-003
6314	16.061	5.4	0.1	6.0236e-003
6315	15.862	5.4	0.1	5.9041e-003
6316	15.664	5.4	0.1	5.7918e-003
6317	15.465	5.4	0.1	5.6856e-003
6318	15.267	5.4	0.1	5.5847e-003
6319	15.068	5.4	0.1	5.4633e-003
6320	14.87	5.4	0.1	5.3449e-003
6321	14.671	5.4	0.1	5.2294e-003
6322	14.473	5.4	0.1	5.1192e-003
6323	14.274	5.4	0.1	4.9768e-003
6324	14.076	5.4	0.1	4.8513e-003
6325	13.877	5.4	0.1	4.7431e-003
6326	13.679	5.4	0.1	4.602e-003
6327	13.48	5.4	0.1	4.459e-003
6328	13.282	5.4	0.1	4.316e-003
6329	13.083	5.4	0.1	4.1709e-003
6330	12.885	5.4	0.1	3.9879e-003
6331	12.686	5.4	0.1	3.8016e-003
6332	12.488	5.4	0.1	3.61e-003
6333	12.289	5.4	0.1	3.4147e-003
6334	12.091	5.4	0.1	3.172e-003
6335	11.892	5.4	0.1	2.9456e-003
6336	11.694	5.4	0.1	2.7359e-003
6337	11.495	5.4	0.1	2.4841e-003
6338	11.297	5.4	0.1	2.2423e-003
6339	11.098	5.4	0.1	2.0269e-003
6340	10.9	5.4	0.1	1.8839e-003
6341	10.702	5.4	0.1	1.9001e-003
6342	10.503	5.4	0.1	2.719e-003
6343	10.305	5.4	0.1	1.9098e-002
6344	10.106	5.4	0.1	0.99726
6345	9.9076	5.4	0.1	2.2336
6346	9.7091	5.4	0.1	3.553
6347	9.5106	5.4	0.1	4.9573
6348	9.3121	5.4	0.1	6.4483
6349	9.1136	5.4	0.1	8.0267
6350	8.9152	5.4	0.1	9.6914
6351	8.7167	5.4	0.1	11.439
6352	8.5182	5.4	0.1	13.264
6353	8.3197	5.4	0.1	15.156
6354	8.1212	5.4	0.1	17.099
6355	7.9227	5.4	0.1	19.074
6356	7.7242	5.4	0.1	21.052
6357	7.5258	5.4	0.1	22.994
6358	7.3273	5.4	0.1	24.852
6359	7.1288	5.4	0.1	26.564
6360	6.9303	5.4	0.1	28.049
6361	6.7318	5.4	0.1	29.209
6362	6.5333	5.4	0.1	29.923
6363	6.3348	5.4	0.1	30.044
6364	6.1364	5.4	0.1	29.396
6365	5.9379	5.4	0.1	27.774
6366	5.7394	5.4	0.1	24.939
6367	5.5409	5.4	0.1	20.629
6368	5.3424	5.4	0.1	14.582
6369	5.1439	5.4	0.1	6.7778
6370	4.9455	5.4	0.1	1.1797
6371	4.747	5.4	0.1	0.49422
6372	4.5485	5.4	0.1	0.35703
6373	4.35	5.4	0.1	0.31836
6374	4.1515	5.4	0.1	0.32081
6375	3.953	5.4	0.1	0.35283
6376	3.7545	5.4	0.1	0.41539
6377	3.5561	5.4	0.1	0.52388
6378	3.3576	5.4	0.1	0.69415
6379	3.1591	5.4	0.1	1.0369
6380	2.9606	5.4	0.1	1.4786
6381	2.7621	5.4	0.1	3.0137
6382	2.5636	5.4	0.1	1.8898
6383	2.3652	5.4	0.1	12.788
6384	23.802	5.6	0.1	0.35874
6385	23.603	5.6	0.1	3.554e-003
6386	23.405	5.6	0.1	0.1158
6387	23.206	5.6	0.1	9.5232e-002
6388	23.008	5.6	0.1	9.7987e-002
6389	22.809	5.6	0.1	9.1109e-002
6390	22.611	5.6	0.1	8.5593e-002
6391	22.412	5.6	0.1	7.9595e-002
6392	22.214	5.6	0.1	7.4008e-002
6393	22.015	5.6	0.1	6.8774e-002
6394	21.817	5.6	0.1	6.3956e-002
6395	21.618	5.6	0.1	5.9533e-002
6396	21.42	5.6	0.1	5.5491e-002
6397	21.221	5.6	0.1	5.1801e-002
6398	21.023	5.6	0.1	4.8434e-002
6399	20.824	5.6	0.1	4.5353e-002
6400	20.626	5.6	0.1	4.2544e-002
6401	20.427	5.6	0.1	3.9989e-002
6402	20.229	5.6	0.1	3.7641e-002
6403	20.03	5.6	0.1	3.5496e-002
6404	19.832	5.6	0.1	3.3536e-002
6405	19.633	5.6	0.1	3.1742e-002
6406	19.435	5.6	0.1	3.0087e-002
6407	19.236	5.6	0.1	2.8571e-002
6408	19.038	5.6	0.1	2.7181e-002
6409	18.839	5.6	0.1	2.5904e-002
6410	18.641	5.6	0.1	2.4715e-002
6411	18.442	5.6	0.1	2.3629e-002
6412	18.244	5.6	0.1	2.2637e-002
6413	18.045	5.6	0.1	2.1707e-002
6414	17.847	5.6	0.1	2.0846e-002
6415	17.648	5.6	0.1	2.0051e-002
6416	17.45	5.6	0.1	1.9314e-002
6417	17.252	5.6	0.1	1.8609e-002
6418	17.053	5.6	0.1	1.7952e-002
6419	16.855	5.6	0.1	1.7336e-002
6420	16.656	5.6	0.1	1.6758e-002
6421	16.458	5.6	0.1	1.6188e-002
6422	16.259	5.6	0.1	1.5659e-002
6423	16.061	5.6	0.1	1.5167e-002
6424	15.862	5.6	0.1	1.4669e-002
6425	15.664	5.6	0.1	1.419e-002
6426	15.465	5.6	0.1	1.3725e-002
6427	15.267	5.6	0.1	1.3272e-002
6428	15.068	5.6	0.1	1.2798e-002
6429	14.87	5.6	0.1	1.2326e-002
6430	14.671	5.6	0.1	1.1856e-002
6431	14.473	5.6	0.1	1.1384e-002
6432	14.274	5.6	0.1	1.0869e-002
6433	14.076	5.6	0.1	1.0363e-002
6434	13.877	5.6	0.1	9.8579e-003
6435	13.679	5.6	0.1	9.3007e-003
6436	13.48	5.6	0.1	8.7228e-003
6437	13.282	5.6	0.1	8.1197e-003
6438	13.083	5.6	0.1	7.4868e-003
6439	12.885	5.6	0.1	6.7845e-003
6440	12.686	5.6	0.1	6.0427e-003
6441	12.488	5.6	0.1	5.2561e-003
6442	12.289	5.6	0.1	4.4213e-003
6443	12.091	5.6	0.1	3.4876e-003
6444	11.892	5.6	0.1	2.5144e-003
6445	11.694	5.6	0.1	1.4941e-003
6446	11.495	5.6	0.1	3.5748e-004
6447	11.297	5.6	0.1	-8.5823e-004
6448	11.098	5.6	0.1	-2.1579e-003
6449	10.9	5.6	0.1	-3.546e-003
6450	10.702	5.6	0.1	-5.0688e-003
6451	10.503	5.6	0.1	-6.6775e-003
6452	10.305	5.6	0.1	-8.3631e-003
6453	10.106	5.6	0.1	-1.0068e-002
6454	9.9076	5.6	0.1	-1.1622e-002
6455	9.7091	5.6	0.1	-1.1921e-002
6456	9.5106	5.6	0.1	0.14602
6457	9.3121	5.6	0.1	1.2149
6458	9.1136	5.6	0.1	2.358
6459	8.9152	5.6	0.1	3.5576
6460	8.7167	5.6	0.1	4.8092
6461	8.5182	5.6	0.1	6.1068
6462	8.3197	5.6	0.1	7.4412
6463	8.1212	5.6	0.1	8.7996
6464	7.9227	5.6	0.1	10.164
6465	7.7242	5.6	0.1	11.511
6466	7.5258	5.6	0.1	12.81
6467	7.3273	5.6	0.1	14.02
6468	7.1288	5.6	0.1	15.091
6469	6.9303	5.6	0.1	15.959
6470	6.7318	5.6	0.1	16.545
6471	6.5333	5.6	0.1	16.754
6472	6.3348	5.6	0.1	16.469
6473	6.1364	5.6	0.1	15.551
6474	5.9379	5.6	0.1	13.838
6475	5.7394	5.6	0.1	11.147
6476	5.5409	5.6	0.1	7.2918
6477	5.3424	5.6	0.1	2.378
6478	5.1439	5.6	0.1	0.34465
6479	4.9455	5.6	0.1	0.19668
6480	4.747	5.6	0.1	0.17882
6481	4.5485	5.6	0.1	0.19379
6482	4.35	5.6	0.1	0.22439
6483	4.1515	5.6	0.1	0.26428
6484	3.953	5.6	0.1	0.31001
6485	3.7545	5.6	0.1	0.35947
6486	3.5561	5.6	0.1	0.42095
6487	3.3576	5.6	0.1	0.5116
6488	3.1591	5.6	0.1	0.7696
6489	2.9606	5.6	0.1	1.2657
6490	2.7621	5.6	0.1	3.4252
6491	2.5636	5.6	0.1	4.2635
6492	2.3652	5.6	0.1	15.541
6493	23.802	5.8	0.1	0.4958
6494	23.603	5.8	0.1	5.9733e-002
6495	23.405	5.8	0.1	8.869e-002
6496	23.206	5.8	0.1	4.9408e-002
6497	23.008	5.8	0.1	3.776e-002
6498	22.809	5.8	0.1	2.4956e-002
6499	22.611	5.8	0.1	1.6693e-002
6500	22.412	5.8	0.1	1.0268e-002
6501	22.214	5.8	0.1	5.5477e-003
6502	22.015	5.8	0.1	1.9957e-003
6503	21.817	5.8	0.1	-6.5555e-004
6504	21.618	5.8	0.1	-2.6344e-003
6505	21.42	5.8	0.1	-4.0918e-003
6506	21.221	5.8	0.1	-5.1428e-003
6507	21.023	5.8	0.1	-5.8798e-003
6508	20.824	5.8	0.1	-6.3814e-003
6509	20.626	5.8	0.1	-6.6871e-003
6510	20.427	5.8	0.1	-6.8409e-003
6511	20.229	5.8	0.1	-6.8898e-003
6512	20.03	5.8	0.1	-6.8441e-003
6513	19.832	5.8	0.1	-6.7327e-003
6514	19.633	5.8	0.1	-6.5675e-003
6515	19.435	5.8	0.1	-6.3744e-003
6516	19.236	5.8	0.1	-6.1537e-003
6517	19.038	5.8	0.1	-5.9114e-003
6518	18.839	5.8	0.1	-5.6562e-003
6519	18.641	5.8	0.1	-5.4058e-003
6520	18.442	5.8	0.1	-5.1435e-003
6521	18.244	5.8	0.1	-4.8693e-003
6522	18.045	5.8	0.1	-4.6126e-003
6523	17.847	5.8	0.1	-4.3548e-003
6524	17.648	5.8	0.1	-4.0987e-003
6525	17.45	5.8	0.1	-3.8444e-003
6526	17.252	5.8	0.1	-3.6117e-003
6527	17.053	5.8	0.1	-3.3813e-003
6528	16.855	5.8	0.1	-3.1525e-003
6529	16.656	5.8	0.1	-2.9232e-003
6530	16.458	5.8	0.1	-2.7201e-003
6531	16.259	5.8	0.1	-2.5038e-003
6532	16.061	5.8	0.1	-2.2742e-003
6533	15.862	5.8	0.1	-2.0671e-003
6534	15.664	5.8	0.1	-1.8567e-003
6535	15.465	5.8	0.1	-1.6404e-003
6536	15.267	5.8	0.1	-1.4175e-003
6537	15.068	5.8	0.1	-1.2119e-003
6538	14.87	5.8	0.1	-9.9741e-004
6539	14.671	5.8	0.1	-7.7285e-004
6540	14.473	5.8	0.1	-5.341e-004
6541	14.274	5.8	0.1	-3.1398e-004
6542	14.076	5.8	0.1	-5.998e-005
6543	13.877	5.8	0.1	2.2781e-004
6544	13.679	5.8	0.1	5.0444e-004
6545	13.48	5.8	0.1	8.0581e-004
6546	13.282	5.8	0.1	1.1356e-003
6547	13.083	5.8	0.1	1.4971e-003
6548	12.885	5.8	0.1	1.8603e-003
6549	12.686	5.8	0.1	2.2645e-003
6550	12.488	5.8	0.1	2.7124e-003
6551	12.289	5.8	0.1	3.2153e-003
6552	12.091	5.8	0.1	3.7358e-003
6553	11.892	5.8	0.1	4.3464e-003
6554	11.694	5.8	0.1	5.0584e-003
6555	11.495	5.8	0.1	5.8236e-003
6556	11.297	5.8	0.1	6.7029e-003
6557	11.098	5.8	0.1	7.7192e-003
6558	10.9	5.8	0.1	8.901e-003
6559	10.702	5.8	0.1	1.0246e-002
6560	10.503	5.8	0.1	1.1847e-002
6561	10.305	5.8	0.1	1.3773e-002
6562	10.106	5.8	0.1	1.6125e-002
6563	9.9076	5.8	0.1	1.9033e-002
6564	9.7091	5.8	0.1	2.2729e-002
6565	9.5106	5.8	0.1	2.7555e-002
6566	9.3121	5.8	0.1	3.4047e-002
6567	9.1136	5.8	0.1	4.3195e-002
6568	8.9152	5.8	0.1	5.6854e-002
6569	8.7167	5.8	0.1	7.8995e-002
6570	8.5182	5.8	0.1	0.11957
6571	8.3197	5.8	0.1	0.2091
6572	8.1212	5.8	0.1	0.45054
6573	7.9227	5.8	0.1	0.98975
6574	7.7242	5.8	0.1	1.7141
6575	7.5258	5.8	0.1	2.4711
6576	7.3273	5.8	0.1	3.1939
6577	7.1288	5.8	0.1	3.839
6578	6.9303	5.8	0.1	4.3644
6579	6.7318	5.8	0.1	4.7221
6580	6.5333	5.8	0.1	4.8555
6581	6.3348	5.8	0.1	4.6976
6582	6.1364	5.8	0.1	4.1704
6583	5.9379	5.8	0.1	3.1893
6584	5.7394	5.8	0.1	1.7028
6585	5.5409	5.8	0.1	0.30965
6586	5.3424	5.8	0.1	4.3183e-002
6587	5.1439	5.8	0.1	-1.9236e-002
6588	4.9455	5.8	0.1	-5.3782e-002
6589	4.747	5.8	0.1	-8.451e-002
6590	4.5485	5.8	0.1	-0.12039
6591	4.35	5.8	0.1	-0.16804
6592	4.1515	5.8	0.1	-0.23386
6593	3.953	5.8	0.1	-0.32288
6594	3.7545	5.8	0.1	-0.43546
6595	3.5561	5.8	0.1	-0.55135
6596	3.3576	5.8	0.1	-0.62037
6597	3.1591	5.8	0.1	-0.42955
6598	2.9606	5.8	0.1	0.25914
6599	2.7621	5.8	0.1	3.3015
6600	2.5636	5.8	0.1	7.9747
6601	2.3652	5.8	0.1	32.049
6602	1.8	5.8	0.1	59.804
6603	1.8	5.6	0.1	31.613
6604	1.8	5.4	0.1	23.542
6605	1.8	5.2	0.1	19.732
6606	1.8	5.	0.1	21.009
6607	1.8	4.8	0.1	18.512
6608	1.8	4.6	0.1	41.241
6609	1.8	4.4	0.1	-10.465
6610	1.8	4.2	0.1	220.29
6611	1.8	4.	0.1	804.28
6612	1.8	3.8	0.1	156.9
6613	1.8	3.6	0.1	65.586
6614	1.8	3.4	0.1	130.47
6615	1.8	3.2	0.1	205.31
6616	1.8	3.	0.1	235.76
6617	1.8	2.8	0.1	205.31
6618	1.8	2.6	0.1	130.47
6619	1.8	2.4	0.1	65.585
6620	1.8	2.2	0.1	156.9
6621	1.8	2.	0.1	804.28
6622	1.8	1.8	0.1	220.29
6623	1.8	1.6	0.1	-10.465
6624	1.8	1.4	0.1	41.241
6625	1.8	1.2	0.1	18.512
6626	1.8	1.	0.1	21.008
6627	1.8	0.8	0.1	19.732
6628	1.8	0.6	0.1	23.542
6629	1.8	0.4	0.1	31.613
6630	1.8	0.2	0.1	59.804
6631	1.6	5.8	0.1	29.62
6632	1.6	5.6	0.1	35.961
6633	1.6	5.4	0.1	23.757
6634	1.6	5.2	0.1	14.425
6635	1.6	5.	0.1	9.7003
6636	1.6	4.8	0.1	7.3056
6637	1.6	4.6	0.1	8.1358
6638	1.6	4.4	0.1	-2.5392
6639	1.6	4.2	0.1	7.6556
6640	1.6	4.	0.1	102.21
6641	1.6	3.8	0.1	613.
6642	1.6	3.6	0.1	745.17
6643	1.6	3.4	0.1	756.86
6644	1.6	3.2	0.1	773.05
6645	1.6	3.	0.1	777.64
6646	1.6	2.8	0.1	773.05
6647	1.6	2.6	0.1	756.86
6648	1.6	2.4	0.1	745.17
6649	1.6	2.2	0.1	613.
6650	1.6	2.	0.1	102.21
6651	1.6	1.8	0.1	7.6556
6652	1.6	1.6	0.1	-2.5392
6653	1.6	1.4	0.1	8.1358
6654	1.6	1.2	0.1	7.3056
6655	1.6	1.	0.1	9.7003
6656	1.6	0.8	0.1	14.425
6657	1.6	0.6	0.1	23.757
6658	1.6	0.4	0.1	35.961
6659	1.6	0.2	0.1	29.62
6660	1.4	5.8	0.1	18.893
6661	1.4	5.6	0.1	42.914
6662	1.4	5.4	0.1	62.566
6663	1.4	5.2	0.1	61.013
6664	1.4	5.	0.1	52.824
6665	1.4	4.8	0.1	50.228
6666	1.4	4.6	0.1	64.198
6667	1.4	4.4	0.1	174.22
6668	1.4	4.2	0.1	493.89
6669	1.4	4.	0.1	911.47
6670	1.4	3.8	0.1	1214.7
6671	1.4	3.6	0.1	1321.3
6672	1.4	3.4	0.1	1327.9
6673	1.4	3.2	0.1	1319.6
6674	1.4	3.	0.1	1315.4
6675	1.4	2.8	0.1	1319.6
6676	1.4	2.6	0.1	1327.9
6677	1.4	2.4	0.1	1321.3
6678	1.4	2.2	0.1	1214.7
6679	1.4	2.	0.1	911.47
6680	1.4	1.8	0.1	493.89
6681	1.4	1.6	0.1	174.22
6682	1.4	1.4	0.1	64.198
6683	1.4	1.2	0.1	50.228
6684	1.4	1.	0.1	52.824
6685	1.4	0.8	0.1	61.013
6686	1.4	0.6	0.1	62.566
6687	1.4	0.4	0.1	42.914
6688	1.4	0.2	0.1	18.893
6689	1.2	5.8	0.1	12.614
6690	1.2	5.6	0.1	49.94
6691	1.2	5.4	0.1	154.6
6692	1.2	5.2	0.1	260.43
6693	1.2	5.	0.1	360.
6694	1.2	4.8	0.1	470.15
6695	1.2	4.6	0.1	618.42
6696	1.2	4.4	0.1	834.7
6697	1.2	4.2	0.1	1122.7
6698	1.2	4.	0.1	1415.3
6699	1.2	3.8	0.1	1631.9
6700	1.2	3.6	0.1	1738.7
6701	1.2	3.4	0.1	1767.2
6702	1.2	3.2	0.1	1766.6
6703	1.2	3.	0.1	1764.2
6704	1.2	2.8	0.1	1766.6
6705	1.2	2.6	0.1	1767.2
6706	1.2	2.4	0.1	1738.7
6707	1.2	2.2	0.1	1631.9
6708	1.2	2.	0.1	1415.3
6709	1.2	1.8	0.1	1122.7
6710	1.2	1.6	0.1	834.7
6711	1.2	1.4	0.1	618.42
6712	1.2	1.2	0.1	470.15
6713	1.2	1.	0.1	360.
6714	1.2	0.8	0.1	260.43
6715	1.2	0.6	0.1	154.6
6716	1.2	0.4	0.1	49.94
6717	1.2	0.2	0.1	12.614
6718	1.	5.8	0.1	9.1995
6719	1.	5.6	0.1	75.828
6720	1.	5.4	0.1	278.64
6721	1.	5.2	0.1	486.52
6722	1.	5.	0.1	683.69
6723	1.	4.8	0.1	876.42
6724	1.	4.6	0.1	1079.9
6725	1.	4.4	0.1	1306.2
6726	1.	4.2	0.1	1547.4
6727	1.	4.	0.1	1772.8
6728	1.	3.8	0.1	1943.7
6729	1.	3.6	0.1	2044.4
6730	1.	3.4	0.1	2088.5
6731	1.	3.2	0.1	2101.8
6732	1.	3.	0.1	2104.
6733	1.	2.8	0.1	2101.8
6734	1.	2.6	0.1	2088.5
6735	1.	2.4	0.1	2044.4
6736	1.	2.2	0.1	1943.7
6737	1.	2.	0.1	1772.8
6738	1.	1.8	0.1	1547.4
6739	1.	1.6	0.1	1306.2
6740	1.	1.4	0.1	1079.9
6741	1.	1.2	0.1	876.42
6742	1.	1.	0.1	683.69
6743	1.	0.8	0.1	486.52
6744	1.	0.6	0.1	278.64
6745	1.	0.4	0.1	75.828
6746	1.	0.2	0.1	9.1995
6747	0.8	5.8	0.1	13.383
6748	0.8	5.6	0.1	145.03
6749	0.8	5.4	0.1	444.26
6750	0.8	5.2	0.1	733.99
6751	0.8	5.	0.1	994.11
6752	0.8	4.8	0.1	1227.9
6753	0.8	4.6	0.1	1447.2
6754	0.8	4.4	0.1	1660.7
6755	0.8	4.2	0.1	1865.8
6756	0.8	4.	0.1	2047.9
6757	0.8	3.8	0.1	2189.9
6758	0.8	3.6	0.1	2284.
6759	0.8	3.4	0.1	2335.9
6760	0.8	3.2	0.1	2359.
6761	0.8	3.	0.1	2365.3
6762	0.8	2.8	0.1	2359.
6763	0.8	2.6	0.1	2335.9
6764	0.8	2.4	0.1	2284.
6765	0.8	2.2	0.1	2189.9
6766	0.8	2.	0.1	2047.9
6767	0.8	1.8	0.1	1865.8
6768	0.8	1.6	0.1	1660.7
6769	0.8	1.4	0.1	1447.2
6770	0.8	1.2	0.1	1227.9
6771	0.8	1.	0.1	994.11
6772	0.8	0.8	0.1	733.99
6773	0.8	0.6	0.1	444.26
6774	0.8	0.4	0.1	145.03
6775	0.8	0.2	0.1	13.383
6776	0.6	5.8	0.1	-3.5367
6777	0.6	5.6	0.1	248.74
6778	0.6	5.4	0.1	644.65
6779	0.6	5.2	0.1	989.52
6780	0.6	5.	0.1	1272.5
6781	0.6	4.8	0.1	1508.3
6782	0.6	4.6	0.1	1714.3
6783	0.6	4.4	0.1	1901.7
6784	0.6	4.2	0.1	2072.5
6785	0.6	4.	0.1	2221.3
6786	0.6	3.8	0.1	2340.3
6787	0.6	3.6	0.1	2425.4
6788	0.6	3.4	0.1	2478.8
6789	0.6	3.2	0.1	2506.8
6790	0.6	3.	0.1	2515.3
6791	0.6	2.8	0.1	2506.8
6792	0.6	2.6	0.1	2478.8
6793	0.6	2.4	0.1	2425.4
6794	0.6	2.2	0.1	2340.3
6795	0.6	2.	0.1	2221.3
6796	0.6	1.8	0.1	2072.5
6797	0.6	1.6	0.1	1901.7
6798	0.6	1.4	0.1	1714.3
6799	0.6	1.2	0.1	1508.3
6800	0.6	1.	0.1	1272.5
6801	0.6	0.8	0.1	989.52
6802	0.6	0.6	0.1	644.65
6803	0.6	0.4	0.1	248.74
6804	0.6	0.2	0.1	-3.5367
6805	0.4	5.8	0.1	73.547
6806	0.4	5.6	0.1	522.94
6807	0.4	5.4	0.1	1032.4
6808	0.4	5.2	0.1	1399.3
6809	0.4	5.	0.1	1671.5
6810	0.4	4.8	0.1	1887.6
6811	0.4	4.6	0.1	2071.5
6812	0.4	4.4	0.1	2234.6
6813	0.4	4.2	0.1	2380.7
6814	0.4	4.	0.1	2508.2
6815	0.4	3.8	0.1	2613.7
6816	0.4	3.6	0.1	2694.5
6817	0.4	3.4	0.1	2750.3
6818	0.4	3.2	0.1	2782.5
6819	0.4	3.	0.1	2793.
6820	0.4	2.8	0.1	2782.5
6821	0.4	2.6	0.1	2750.3
6822	0.4	2.4	0.1	2694.5
6823	0.4	2.2	0.1	2613.7
6824	0.4	2.	0.1	2508.2
6825	0.4	1.8	0.1	2380.7
6826	0.4	1.6	0.1	2234.6
6827	0.4	1.4	0.1	2071.5
6828	0.4	1.2	0.1	1887.6
6829	0.4	1.	0.1	1671.5
6830	0.4	0.8	0.1	1399.3
6831	0.4	0.6	0.1	1032.4
6832	0.4	0.4	0.1	522.94
6833	0.4	0.2	0.1	73.548
6834	0.2	5.8	0.1	-13.084
6835	0.2	5.6	0.1	713.61
6836	0.2	5.4	0.1	1112.5
6837	0.2	5.2	0.1	1362.4
6838	0.2	5.	0.1	1543.2
6839	0.2	4.8	0.1	1689.8
6840	0.2	4.6	0.1	1816.4
6841	0.2	4.4	0.1	1929.4
6842	0.2	4.2	0.1	2030.9
6843	0.2	4.	0.1	2120.5
6844	0.2	3.8	0.1	2196.8
6845	0.2	3.6	0.1	2258.
6846	0.2	3.4	0.1	2302.6
6847	0.2	3.2	0.1	2329.7
6848	0.2	3.	0.1	2338.8
6849	0.2	2.8	0.1	2329.7
6850	0.2	2.6	0.1	2302.6
6851	0.2	2.4	0.1	2258.
6852	0.2	2.2	0.1	2196.8
6853	0.2	2.	0.1	2120.5
6854	0.2	1.8	0.1	2030.9
6855	0.2	1.6	0.1	1929.4
6856	0.2	1.4	0.1	1816.4
6857	0.2	1.2	0.1	1689.8
6858	0.2	1.	0.1	1543.2
6859	0.2	0.8	0.1	1362.4
6860	0.2	0.6	0.1	1112.5
6861	0.2	0.4	0.1	713.61
6862	0.2	0.2	0.1	-13.084
6863	2.1667	3.8	0.1	-211.32
6864	2.1667	3.6	0.1	45.487
6865	2.1667	3.4	0.1	-4.7313
6866	2.1667	3.2	0.1	3.8691
6867	2.1667	3.	0.1	0.99998
6868	2.1667	2.8	0.1	3.8691
6869	2.1667	2.6	0.1	-4.7313
6870	2.1667	2.4	0.1	45.487
6871	2.1667	2.2	0.1	-211.32
6872	2.	3.8	0.1	-137.52
6873	2.	3.6	0.1	41.743
6874	2.	3.4	0.1	-2.9042
6875	2.	3.2	0.1	3.874
6876	2.	3.	0.1	1.066
6877	2.	2.8	0.1	3.874
6878	2.	2.6	0.1	-2.9042
6879	2.	2.4	0.1	41.743
6880	2.	2.2	0.1	-137.52
6881	2.1667	0.2	0.1	-11.366
6882	2.1667	0.4	0.1	-18.086
6883	2.1667	0.6	0.1	-18.145
6884	2.1667	0.8	0.1	-21.248
6885	2.1667	1.	0.1	-22.863
6886	2.1667	1.2	0.1	-35.231
6887	2.1667	1.4	0.1	-26.692
6888	2.1667	1.6	0.1	-129.79
6889	2.1667	1.8	0.1	139.64
6890	2.1667	2.	0.1	1385.2
6891	2.	2.	0.1	1873.
6892	2.	1.8	0.1	130.01
6893	2.	1.6	0.1	-123.72
6894	2.	1.4	0.1	-29.33
6895	2.	1.2	0.1	-35.822
6896	2.	1.	0.1	-23.898
6897	2.	0.8	0.1	-22.185
6898	2.	0.6	0.1	-18.983
6899	2.	0.4	0.1	-19.764
6900	2.	0.2	0.1	-7.9259
6901	2.1667	5.8	0.1	-11.366
6902	2.1667	5.6	0.1	-18.086
6903	2.1667	5.4	0.1	-18.145
6904	2.1667	5.2	0.1	-21.248
6905	2.1667	5.	0.1	-22.863
6906	2.1667	4.8	0.1	-35.231
6907	2.1667	4.6	0.1	-26.692
6908	2.1667	4.4	0.1	-129.79
6909	2.1667	4.2	0.1	139.64
6910	2.1667	4.	0.1	1385.2
6911	2.	4.	0.1	1873.
6912	2.	4.2	0.1	130.01
6913	2.	4.4	0.1	-123.72
6914	2.	4.6	0.1	-29.33
6915	2.	4.8	0.1	-35.822
6916	2.	5.	0.1	-23.897
6917	2.	5.2	0.1	-22.185
6918	2.	5.4	0.1	-18.983
6919	2.	5.6	0.1	-19.764
6920	2.	5.8	0.1	-7.9259
6921	2.1667	6.	0.1	71.702
6922	2.3652	6.	0.1	8.876
6923	2.5636	6.	0.1	-2.761
6924	2.7621	6.	0.1	2.9767e-002
6925	2.9606	6.	0.1	0.30602
6926	3.1591	6.	0.1	0.97078
6927	3.3576	6.	0.1	1.207
6928	3.5561	6.	0.1	1.2775
6929	3.7545	6.	0.1	1.2014
6930	3.953	6.	0.1	1.0509
6931	4.1515	6.	0.1	0.86606
6932	4.35	6.	0.1	0.67593
6933	4.5485	6.	0.1	0.49711
6934	4.747	6.	0.1	0.33838
6935	4.9455	6.	0.1	0.20317
6936	5.1439	6.	0.1	9.175e-002
6937	5.3424	6.	0.1	2.5611e-003
6938	5.5409	6.	0.1	-6.6863e-002
6939	5.7394	6.	0.1	-0.11928
6940	5.9379	6.	0.1	-0.15734
6941	6.1364	6.	0.1	-0.18346
6942	6.3348	6.	0.1	-0.19974
6943	6.5333	6.	0.1	-0.20813
6944	6.7318	6.	0.1	-0.21039
6945	6.9303	6.	0.1	-0.20803
6946	7.1288	6.	0.1	-0.20227
6947	7.3273	6.	0.1	-0.1941
6948	7.5258	6.	0.1	-0.18424
6949	7.7242	6.	0.1	-0.17332
6950	7.9227	6.	0.1	-0.16177
6951	8.1212	6.	0.1	-0.14995
6952	8.3197	6.	0.1	-0.13813
6953	8.5182	6.	0.1	-0.12649
6954	8.7167	6.	0.1	-0.11518
6955	8.9152	6.	0.1	-0.1043
6956	9.1136	6.	0.1	-9.3916e-002
6957	9.3121	6.	0.1	-8.4069e-002
6958	9.5106	6.	0.1	-7.4775e-002
6959	9.7091	6.	0.1	-6.6052e-002
6960	9.9076	6.	0.1	-5.7876e-002
6961	10.106	6.	0.1	-5.0234e-002
6962	10.305	6.	0.1	-4.3123e-002
6963	10.503	6.	0.1	-3.65e-002
6964	10.702	6.	0.1	-3.0347e-002
6965	10.9	6.	0.1	-2.4625e-002
6966	11.098	6.	0.1	-1.935e-002
6967	11.297	6.	0.1	-1.445e-002
6968	11.495	6.	0.1	-9.9067e-003
6969	11.694	6.	0.1	-5.6827e-003
6970	11.892	6.	0.1	-1.7956e-003
6971	12.091	6.	0.1	1.8359e-003
6972	12.289	6.	0.1	5.2347e-003
6973	12.488	6.	0.1	8.3697e-003
6974	12.686	6.	0.1	1.1302e-002
6975	12.885	6.	0.1	1.4045e-002
6976	13.083	6.	0.1	1.6626e-002
6977	13.282	6.	0.1	1.9025e-002
6978	13.48	6.	0.1	2.1298e-002
6979	13.679	6.	0.1	2.3452e-002
6980	13.877	6.	0.1	2.5509e-002
6981	14.076	6.	0.1	2.7455e-002
6982	14.274	6.	0.1	2.9342e-002
6983	14.473	6.	0.1	3.119e-002
6984	14.671	6.	0.1	3.2963e-002
6985	14.87	6.	0.1	3.4711e-002
6986	15.068	6.	0.1	3.6439e-002
6987	15.267	6.	0.1	3.8166e-002
6988	15.465	6.	0.1	3.9875e-002
6989	15.664	6.	0.1	4.1609e-002
6990	15.862	6.	0.1	4.3376e-002
6991	16.061	6.	0.1	4.5191e-002
6992	16.259	6.	0.1	4.7044e-002
6993	16.458	6.	0.1	4.8984e-002
6994	16.656	6.	0.1	5.1022e-002
6995	16.855	6.	0.1	5.314e-002
6996	17.053	6.	0.1	5.5381e-002
6997	17.252	6.	0.1	5.7755e-002
6998	17.45	6.	0.1	6.0284e-002
6999	17.648	6.	0.1	6.2969e-002
7000	17.847	6.	0.1	6.5845e-002
7001	18.045	6.	0.1	6.8933e-002
7002	18.244	6.	0.1	7.2261e-002
7003	18.442	6.	0.1	7.583e-002
7004	18.641	6.	0.1	7.9694e-002
7005	18.839	6.	0.1	8.3882e-002
7006	19.038	6.	0.1	8.8403e-002
7007	19.236	6.	0.1	9.3307e-002
7008	19.435	6.	0.1	9.8626e-002
7009	19.633	6.	0.1	0.10441
7010	19.832	6.	0.1	0.11068
7011	20.03	6.	0.1	0.11752
7012	20.229	6.	0.1	0.12496
7013	20.427	6.	0.1	0.13308
7014	20.626	6.	0.1	0.14195
7015	20.824	6.	0.1	0.15164
7016	21.023	6.	0.1	0.16228
7017	21.221	6.	0.1	0.17396
7018	21.42	6.	0.1	0.18682
7019	21.618	6.	0.1	0.20104
7020	21.817	6.	0.1	0.21683
7021	22.015	6.	0.1	0.23445
7022	22.214	6.	0.1	0.25426
7023	22.412	6.	0.1	0.27671
7024	22.611	6.	0.1	0.30252
7025	22.809	6.	0.1	0.33228
7026	23.008	6.	0.1	0.36863
7027	23.206	6.	0.1	0.40821
7028	23.405	6.	0.1	0.48027
7029	23.603	6.	0.1	0.50777
7030	23.802	6.	0.1	0.88623
7031	24.	6.	0.1	-1.1791
7032	24.	5.8	0.1	-2.0168
7033	24.	5.6	0.1	-1.9446
7034	24.	5.4	0.1	-2.1539
7035	24.	5.2	0.1	-2.1813
7036	24.	5.	0.1	-2.2172
7037	24.	4.8	0.1	-2.2369
7038	24.	4.6	0.1	-2.2529
7039	24.	4.4	0.1	-2.2646
7040	24.	4.2	0.1	-2.2736
7041	24.	4.	0.1	-2.2806
7042	24.	3.8	0.1	-2.2859
7043	24.	3.6	0.1	-2.2897
7044	24.	3.4	0.1	-2.2924
7045	24.	3.2	0.1	-2.2939
7046	24.	3.	0.1	-2.2944
7047	24.	2.8	0.1	-2.2939
7048	24.	2.6	0.1	-2.2924
7049	24.	2.4	0.1	-2.2897
7050	24.	2.2	0.1	-2.2859
7051	24.	2.	0.1	-2.2806
7052	24.	1.8	0.1	-2.2736
7053	24.	1.6	0.1	-2.2646
7054	24.	1.4	0.1	-2.2529
7055	24.	1.2	0.1	-2.2369
7056	24.	1.	0.1	-2.2172
7057	24.	0.8	0.1	-2.1813
7058	24.	0.6	0.1	-2.1539
7059	24.	0.4	0.1	-1.9446
7060	24.	0.2	0.1	-2.0168
7061	1.7484e-015	0.2	0.1	1117.7
7062	3.4968e-015	0.4	0.1	2080.5
7063	5.2451e-015	0.6	0.1	2570.
7064	6.9935e-015	0.8	0.1	2902.7
7065	8.7419e-015	1.	0.1	3163.4
7066	1.049e-014	1.2	0.1	3383.5
7067	1.2239e-014	1.4	0.1	3575.8
7068	1.3987e-014	1.6	0.1	3746.7
7069	1.5735e-014	1.8	0.1	3899.5
7070	1.7484e-014	2.	0.1	4036.1
7071	1.9232e-014	2.2	0.1	4156.6
7072	2.0981e-014	2.4	0.1	4258.7
7073	2.2729e-014	2.6	0.1	4337.8
7074	2.4477e-014	2.8	0.1	4388.
7075	2.6226e-014	3.	0.1	4405.
7076	2.7974e-014	3.2	0.1	4388.
7077	2.9723e-014	3.4	0.1	4337.8
7078	3.1471e-014	3.6	0.1	4258.7
7079	3.3219e-014	3.8	0.1	4156.6
7080	3.4968e-014	4.	0.1	4036.1
7081	3.6716e-014	4.2	0.1	3899.5
7082	3.8464e-014	4.4	0.1	3746.7
7083	4.0213e-014	4.6	0.1	3575.8
7084	4.1961e-014	4.8	0.1	3383.5
7085	4.371e-014	5.	0.1	3163.4
7086	4.5458e-014	5.2	0.1	2902.7
7087	4.7206e-014	5.4	0.1	2570.
7088	4.8955e-014	5.6	0.1	2080.5
7089	5.0703e-014	5.8	0.1	1117.7
7090	3.937e-014	6.	0.1	-324.
7091	0.2	6.	0.1	48.37
7092	0.4	6.	0.1	-11.983
7093	0.6	6.	0.1	-6.8024
7094	0.8	6.	0.1	-4.3377
7095	1.	6.	0.1	-4.6939
7096	1.2	6.	0.1	-4.672
7097	1.4	6.	0.1	-4.6131
7098	1.6	6.	0.1	-7.7905
7099	1.8	6.	0.1	8.8362
7100	2.	6.	0.1	106.36
7101	24.	0.	0.1	-1.1791
7102	23.802	0.	0.1	0.88623
7103	23.603	0.	0.1	0.50778
7104	23.405	0.	0.1	0.48027
7105	23.206	0.	0.1	0.40821
7106	23.008	0.	0.1	0.36863
7107	22.809	0.	0.1	0.33229
7108	22.611	0.	0.1	0.30252
7109	22.412	0.	0.1	0.2767
7110	22.214	0.	0.1	0.25425
7111	22.015	0.	0.1	0.23445
7112	21.817	0.	0.1	0.21683
7113	21.618	0.	0.1	0.20105
7114	21.42	0.	0.1	0.18683
7115	21.221	0.	0.1	0.17396
7116	21.023	0.	0.1	0.16229
7117	20.824	0.	0.1	0.15165
7118	20.626	0.	0.1	0.14195
7119	20.427	0.	0.1	0.13309
7120	20.229	0.	0.1	0.12496
7121	20.03	0.	0.1	0.11752
7122	19.832	0.	0.1	0.11068
7123	19.633	0.	0.1	0.10441
7124	19.435	0.	0.1	9.8627e-002
7125	19.236	0.	0.1	9.3306e-002
7126	19.038	0.	0.1	8.8405e-002
7127	18.839	0.	0.1	8.3888e-002
7128	18.641	0.	0.1	7.9696e-002
7129	18.442	0.	0.1	7.5832e-002
7130	18.244	0.	0.1	7.2258e-002
7131	18.045	0.	0.1	6.894e-002
7132	17.847	0.	0.1	6.5847e-002
7133	17.648	0.	0.1	6.2964e-002
7134	17.45	0.	0.1	6.0289e-002
7135	17.252	0.	0.1	5.7758e-002
7136	17.053	0.	0.1	5.5382e-002
7137	16.855	0.	0.1	5.314e-002
7138	16.656	0.	0.1	5.1022e-002
7139	16.458	0.	0.1	4.8984e-002
7140	16.259	0.	0.1	4.7046e-002
7141	16.061	0.	0.1	4.5193e-002
7142	15.862	0.	0.1	4.3377e-002
7143	15.664	0.	0.1	4.1612e-002
7144	15.465	0.	0.1	3.9875e-002
7145	15.267	0.	0.1	3.8166e-002
7146	15.068	0.	0.1	3.6438e-002
7147	14.87	0.	0.1	3.4711e-002
7148	14.671	0.	0.1	3.2965e-002
7149	14.473	0.	0.1	3.1191e-002
7150	14.274	0.	0.1	2.9344e-002
7151	14.076	0.	0.1	2.7457e-002
7152	13.877	0.	0.1	2.5511e-002
7153	13.679	0.	0.1	2.3453e-002
7154	13.48	0.	0.1	2.1297e-002
7155	13.282	0.	0.1	1.9025e-002
7156	13.083	0.	0.1	1.6628e-002
7157	12.885	0.	0.1	1.4046e-002
7158	12.686	0.	0.1	1.1301e-002
7159	12.488	0.	0.1	8.3708e-003
7160	12.289	0.	0.1	5.2349e-003
7161	12.091	0.	0.1	1.8355e-003
7162	11.892	0.	0.1	-1.7949e-003
7163	11.694	0.	0.1	-5.6835e-003
7164	11.495	0.	0.1	-9.9069e-003
7165	11.297	0.	0.1	-1.4451e-002
7166	11.098	0.	0.1	-1.935e-002
7167	10.9	0.	0.1	-2.4625e-002
7168	10.702	0.	0.1	-3.0347e-002
7169	10.503	0.	0.1	-3.6499e-002
7170	10.305	0.	0.1	-4.3123e-002
7171	10.106	0.	0.1	-5.0235e-002
7172	9.9076	0.	0.1	-5.7877e-002
7173	9.7091	0.	0.1	-6.6052e-002
7174	9.5106	0.	0.1	-7.4776e-002
7175	9.3121	0.	0.1	-8.4069e-002
7176	9.1136	0.	0.1	-9.3917e-002
7177	8.9152	0.	0.1	-0.1043
7178	8.7167	0.	0.1	-0.11518
7179	8.5182	0.	0.1	-0.12649
7180	8.3197	0.	0.1	-0.13813
7181	8.1212	0.	0.1	-0.14995
7182	7.9227	0.	0.1	-0.16178
7183	7.7242	0.	0.1	-0.17332
7184	7.5258	0.	0.1	-0.18425
7185	7.3273	0.	0.1	-0.1941
7186	7.1288	0.	0.1	-0.20228
7187	6.9303	0.	0.1	-0.20803
7188	6.7318	0.	0.1	-0.21039
7189	6.5333	0.	0.1	-0.20813
7190	6.3348	0.	0.1	-0.19974
7191	6.1364	0.	0.1	-0.18346
7192	5.9379	0.	0.1	-0.15735
7193	5.7394	0.	0.1	-0.11928
7194	5.5409	0.	0.1	-6.6864e-002
7195	5.3424	0.	0.1	2.5595e-003
7196	5.1439	0.	0.1	9.1749e-002
7197	4.9455	0.	0.1	0.20317
7198	4.747	0.	0.1	0.33837
7199	4.5485	0.	0.1	0.49711
7200	4.35	0.	0.1	0.67593
7201	4.1515	0.	0.1	0.86605
7202	3.953	0.	0.1	1.0509
7203	3.7545	0.	0.1	1.2014
7204	3.5561	0.	0.1	1.2775
7205	3.3576	0.	0.1	1.207
7206	3.1591	0.	0.1	0.97078
7207	2.9606	0.	0.1	0.30602
7208	2.7621	0.	0.1	2.9764e-002
7209	2.5636	0.	0.1	-2.761
7210	2.3652	0.	0.1	8.876
7211	2.1667	0.	0.1	71.702
7212	2.	0.	0.1	106.36
7213	1.8	3.3848e-030	0.1	8.8362
7214	1.6	3.0087e-030	0.1	-7.7905
7215	1.4	2.6326e-030	0.1	-4.6131
7216	1.2	2.2565e-030	0.1	-4.672
7217	1.	1.8804e-030	0.1	-4.6939
7218	0.8	1.5043e-030	0.1	-4.3377
7219	0.6	1.1283e-030	0.1	-6.8024
7220	0.4	7.5217e-031	0.1	-11.983
7221	0.2	3.7609e-031	0.1	48.37
7222	0.	0.	0.1	-324.
7223	0.2	3.7609e-031	0.	-48.37
7224	0.4	7.5217e-031	0.	11.983
7225	0.6	1.1283e-030	0.	6.8024
7226	0.8	1.5043e-030	0.	4.3377
7227	1.	1.8804e-030	0.	4.6939
7228	1.2	2.2565e-030	0.	4.672
7229	1.4	2.6326e-030	0.	4.6131
7230	1.6	3.0087e-030	0.	7.7905
7231	1.8	3.3848e-030	0.	-8.8362
7232	2.	0.	0.	-106.36
7233	0.	0.	0.	324.
7234	2.3652	0.	0.	-8.876
7235	2.5636	0.	0.	2.761
7236	2.7621	0.	0.	-2.9762e-002
7237	2.9606	0.	0.	-0.30602
7238	3.1591	0.	0.	-0.97078
7239	3.3576	0.	0.	-1.207
7240	3.5561	0.	0.	-1.2775
7241	3.7545	0.	0.	-1.2014
7242	3.953	0.	0.	-1.0509
7243	4.1515	0.	0.	-0.86605
7244	4.35	0.	0.	-0.67593
7245	4.5485	0.	0.	-0.49711
7246	4.747	0.	0.	-0.33837
7247	4.9455	0.	0.	-0.20317
7248	5.1439	0.	0.	-9.1749e-002
7249	5.3424	0.	0.	-2.5595e-003
7250	5.5409	0.	0.	6.6864e-002
7251	5.7394	0.	0.	0.11928
7252	5.9379	0.	0.	0.15735
7253	6.1364	0.	0.	0.18346
7254	6.3348	0.	0.	0.19974
7255	6.5333	0.	0.	0.20813
7256	6.7318	0.	0.	0.21039
7257	6.9303	0.	0.	0.20803
7258	7.1288	0.	0.	0.20228
7259	7.3273	0.	0.	0.1941
7260	7.5258	0.	0.	0.18425
7261	7.7242	0.	0.	0.17332
7262	7.9227	0.	0.	0.16177
7263	8.1212	0.	0.	0.14995
7264	8.3197	0.	0.	0.13813
7265	8.5182	0.	0.	0.12649
7266	8.7167	0.	0.	0.11518
7267	8.9152	0.	0.	0.1043
7268	9.1136	0.	0.	9.3917e-002
7269	9.3121	0.	0.	8.4069e-002
7270	9.5106	0.	0.	7.4776e-002
7271	9.7091	0.	0.	6.6053e-002
7272	9.9076	0.	0.	5.7877e-002
7273	10.106	0.	0.	5.0235e-002
7274	10.305	0.	0.	4.3124e-002
7275	10.503	0.	0.	3.65e-002
7276	10.702	0.	0.	3.0347e-002
7277	10.9	0.	0.	2.4625e-002
7278	11.098	0.	0.	1.935e-002
7279	11.297	0.	0.	1.4451e-002
7280	11.495	0.	0.	9.9065e-003
7281	11.694	0.	0.	5.6833e-003
7282	11.892	0.	0.	1.7958e-003
7283	12.091	0.	0.	-1.8349e-003
7284	12.289	0.	0.	-5.2339e-003
7285	12.488	0.	0.	-8.3699e-003
7286	12.686	0.	0.	-1.1299e-002
7287	12.885	0.	0.	-1.4046e-002
7288	13.083	0.	0.	-1.6628e-002
7289	13.282	0.	0.	-1.9025e-002
7290	13.48	0.	0.	-2.1296e-002
7291	13.679	0.	0.	-2.3453e-002
7292	13.877	0.	0.	-2.5511e-002
7293	14.076	0.	0.	-2.7455e-002
7294	14.274	0.	0.	-2.9343e-002
7295	14.473	0.	0.	-3.119e-002
7296	14.671	0.	0.	-3.2965e-002
7297	14.87	0.	0.	-3.4712e-002
7298	15.068	0.	0.	-3.6439e-002
7299	15.267	0.	0.	-3.8165e-002
7300	15.465	0.	0.	-3.9874e-002
7301	15.664	0.	0.	-4.161e-002
7302	15.862	0.	0.	-4.3376e-002
7303	16.061	0.	0.	-4.5191e-002
7304	16.259	0.	0.	-4.7046e-002
7305	16.458	0.	0.	-4.8983e-002
7306	16.656	0.	0.	-5.1022e-002
7307	16.855	0.	0.	-5.3141e-002
7308	17.053	0.	0.	-5.5383e-002
7309	17.252	0.	0.	-5.7758e-002
7310	17.45	0.	0.	-6.0287e-002
7311	17.648	0.	0.	-6.2961e-002
7312	17.847	0.	0.	-6.5848e-002
7313	18.045	0.	0.	-6.8937e-002
7314	18.244	0.	0.	-7.2257e-002
7315	18.442	0.	0.	-7.5832e-002
7316	18.641	0.	0.	-7.9697e-002
7317	18.839	0.	0.	-8.3885e-002
7318	19.038	0.	0.	-8.8407e-002
7319	19.236	0.	0.	-9.3306e-002
7320	19.435	0.	0.	-9.8625e-002
7321	19.633	0.	0.	-0.10441
7322	19.832	0.	0.	-0.11068
7323	20.03	0.	0.	-0.11752
7324	20.229	0.	0.	-0.12496
7325	20.427	0.	0.	-0.13309
7326	20.626	0.	0.	-0.14195
7327	20.824	0.	0.	-0.15165
7328	21.023	0.	0.	-0.16228
7329	21.221	0.	0.	-0.17396
7330	21.42	0.	0.	-0.18682
7331	21.618	0.	0.	-0.20105
7332	21.817	0.	0.	-0.21683
7333	22.015	0.	0.	-0.23445
7334	22.214	0.	0.	-0.25425
7335	22.412	0.	0.	-0.27671
7336	22.611	0.	0.	-0.30252
7337	22.809	0.	0.	-0.33229
7338	23.008	0.	0.	-0.36863
7339	23.206	0.	0.	-0.40821
7340	23.405	0.	0.	-0.48027
7341	23.603	0.	0.	-0.50777
7342	23.802	0.	0.	-0.88623
7343	2.1667	0.	0.	-71.702
7344	24.	0.	0.	1.1791
7345	1.8	6.	0.	-8.8362
7346	1.6	6.	0.	7.7905
7347	1.4	6.	0.	4.6131
7348	1.2	6.	0.	4.672
7349	1.	6.	0.	4.6939
7350	0.8	6.	0.	4.3377
7351	0.6	6.	0.	6.8024
7352	0.4	6.	0.	11.983
7353	0.2	6.	0.	-48.37
7354	2.	6.	0.	-106.36
7355	3.937e-014	6.	0.	324.
7356	5.0703e-014	5.8	0.	-1117.7
7357	4.8955e-014	5.6	0.	-2080.5
7358	4.7206e-014	5.4	0.	-2570.
7359	4.5458e-014	5.2	0.	-2902.7
7360	4.371e-014	5.	0.	-3163.4
7361	4.1961e-014	4.8	0.	-3383.5
7362	4.0213e-014	4.6	0.	-3575.8
7363	3.8464e-014	4.4	0.	-3746.7
7364	3.6716e-014	4.2	0.	-3899.5
7365	3.4968e-014	4.	0.	-4036.1
7366	3.3219e-014	3.8	0.	-4156.6
7367	3.1471e-014	3.6	0.	-4258.7
7368	2.9723e-014	3.4	0.	-4337.8
7369	2.7974e-014	3.2	0.	-4388.
7370	2.6226e-014	3.	0.	-4405.
7371	2.4477e-014	2.8	0.	-4388.
7372	2.2729e-014	2.6	0.	-4337.8
7373	2.0981e-014	2.4	0.	-4258.7
7374	1.9232e-014	2.2	0.	-4156.6
7375	1.7484e-014	2.	0.	-4036.1
7376	1.5735e-014	1.8	0.	-3899.5
7377	1.3987e-014	1.6	0.	-3746.7
7378	1.2239e-014	1.4	0.	-3575.8
7379	1.049e-014	1.2	0.	-3383.5
7380	8.7419e-015	1.	0.	-3163.4
7381	6.9935e-015	0.8	0.	-2902.7
7382	5.2451e-015	0.6	0.	-2570.
7383	3.4968e-015	0.4	0.	-2080.5
7384	1.7484e-015	0.2	0.	-1117.7
7385	24.	0.2	0.	2.0168
7386	24.	0.4	0.	1.9446
7387	24.	0.6	0.	2.1539
7388	24.	0.8	0.	2.1813
7389	24.	1.	0.	2.2172
7390	24.	1.2	0.	2.2369
7391	24.	1.4	0.	2.2529
7392	24.	1.6	0.	2.2646
7393	24.	1.8	0.	2.2736
7394	24.	2.	0.	2.2806
7395	24.	2.2	0.	2.2859
7396	24.	2.4	0.	2.2897
7397	24.	2.6	0.	2.2924
7398	24.	2.8	0.	2.2939
7399	24.	3.	0.	2.2944
7400	24.	3.2	0.	2.2939
7401	24.	3.4	0.	2.2924
7402	24.	3.6	0.	2.2897
7403	24.	3.8	0.	2.2859
7404	24.	4.	0.	2.2806
7405	24.	4.2	0.	2.2736
7406	24.	4.4	0.	2.2646
7407	24.	4.6	0.	2.2529
7408	24.	4.8	0.	2.2369
7409	24.	5.	0.	2.2172
7410	24.	5.2	0.	2.1813
7411	24.	5.4	0.	2.1539
7412	24.	5.6	0.	1.9446
7413	24.	5.8	0.	2.0168
7414	24.	6.	0.	1.1791
7415	23.802	6.	0.	-0.88623
7416	23.603	6.	0.	-0.50777
7417	23.405	6.	0.	-0.48027
7418	23.206	6.	0.	-0.4082
7419	23.008	6.	0.	-0.36863
7420	22.809	6.	0.	-0.33229
7421	22.611	6.	0.	-0.30252
7422	22.412	6.	0.	-0.2767
7423	22.214	6.	0.	-0.25426
7424	22.015	6.	0.	-0.23444
7425	21.817	6.	0.	-0.21683
7426	21.618	6.	0.	-0.20104
7427	21.42	6.	0.	-0.18682
7428	21.221	6.	0.	-0.17396
7429	21.023	6.	0.	-0.16228
7430	20.824	6.	0.	-0.15164
7431	20.626	6.	0.	-0.14194
7432	20.427	6.	0.	-0.13308
7433	20.229	6.	0.	-0.12496
7434	20.03	6.	0.	-0.11751
7435	19.832	6.	0.	-0.11068
7436	19.633	6.	0.	-0.10441
7437	19.435	6.	0.	-9.8623e-002
7438	19.236	6.	0.	-9.3304e-002
7439	19.038	6.	0.	-8.8403e-002
7440	18.839	6.	0.	-8.3882e-002
7441	18.641	6.	0.	-7.9693e-002
7442	18.442	6.	0.	-7.5828e-002
7443	18.244	6.	0.	-7.2257e-002
7444	18.045	6.	0.	-6.8933e-002
7445	17.847	6.	0.	-6.5843e-002
7446	17.648	6.	0.	-6.2966e-002
7447	17.45	6.	0.	-6.0283e-002
7448	17.252	6.	0.	-5.7755e-002
7449	17.053	6.	0.	-5.538e-002
7450	16.855	6.	0.	-5.3139e-002
7451	16.656	6.	0.	-5.1019e-002
7452	16.458	6.	0.	-4.8983e-002
7453	16.259	6.	0.	-4.7044e-002
7454	16.061	6.	0.	-4.5191e-002
7455	15.862	6.	0.	-4.3375e-002
7456	15.664	6.	0.	-4.1608e-002
7457	15.465	6.	0.	-3.9874e-002
7458	15.267	6.	0.	-3.8165e-002
7459	15.068	6.	0.	-3.6438e-002
7460	14.87	6.	0.	-3.4709e-002
7461	14.671	6.	0.	-3.2962e-002
7462	14.473	6.	0.	-3.1189e-002
7463	14.274	6.	0.	-2.9342e-002
7464	14.076	6.	0.	-2.7453e-002
7465	13.877	6.	0.	-2.5509e-002
7466	13.679	6.	0.	-2.3451e-002
7467	13.48	6.	0.	-2.1297e-002
7468	13.282	6.	0.	-1.9025e-002
7469	13.083	6.	0.	-1.6626e-002
7470	12.885	6.	0.	-1.4044e-002
7471	12.686	6.	0.	-1.1301e-002
7472	12.488	6.	0.	-8.3696e-003
7473	12.289	6.	0.	-5.2344e-003
7474	12.091	6.	0.	-1.8349e-003
7475	11.892	6.	0.	1.7961e-003
7476	11.694	6.	0.	5.683e-003
7477	11.495	6.	0.	9.9071e-003
7478	11.297	6.	0.	1.4452e-002
7479	11.098	6.	0.	1.9351e-002
7480	10.9	6.	0.	2.4625e-002
7481	10.702	6.	0.	3.0347e-002
7482	10.503	6.	0.	3.65e-002
7483	10.305	6.	0.	4.3123e-002
7484	10.106	6.	0.	5.0235e-002
7485	9.9076	6.	0.	5.7877e-002
7486	9.7091	6.	0.	6.6053e-002
7487	9.5106	6.	0.	7.4775e-002
7488	9.3121	6.	0.	8.4069e-002
7489	9.1136	6.	0.	9.3917e-002
7490	8.9152	6.	0.	0.1043
7491	8.7167	6.	0.	0.11518
7492	8.5182	6.	0.	0.12649
7493	8.3197	6.	0.	0.13813
7494	8.1212	6.	0.	0.14995
7495	7.9227	6.	0.	0.16177
7496	7.7242	6.	0.	0.17332
7497	7.5258	6.	0.	0.18424
7498	7.3273	6.	0.	0.1941
7499	7.1288	6.	0.	0.20227
7500	6.9303	6.	0.	0.20803
7501	6.7318	6.	0.	0.21039
7502	6.5333	6.	0.	0.20813
7503	6.3348	6.	0.	0.19974
7504	6.1364	6.	0.	0.18346
7505	5.9379	6.	0.	0.15734
7506	5.7394	6.	0.	0.11928
7507	5.5409	6.	0.	6.6863e-002
7508	5.3424	6.	0.	-2.561e-003
7509	5.1439	6.	0.	-9.175e-002
7510	4.9455	6.	0.	-0.20317
7511	4.747	6.	0.	-0.33838
7512	4.5485	6.	0.	-0.49711
7513	4.35	6.	0.	-0.67593
7514	4.1515	6.	0.	-0.86606
7515	3.953	6.	0.	-1.0509
7516	3.7545	6.	0.	-1.2014
7517	3.5561	6.	0.	-1.2775
7518	3.3576	6.	0.	-1.207
7519	3.1591	6.	0.	-0.97078
7520	2.9606	6.	0.	-0.30602
7521	2.7621	6.	0.	-2.9767e-002
7522	2.5636	6.	0.	2.761
7523	2.3652	6.	0.	-8.876
7524	2.1667	6.	0.	-71.702
7525	2.	4.2	0.	-130.01
7526	2.	4.4	0.	123.72
7527	2.	4.6	0.	29.33
7528	2.	4.8	0.	35.822
7529	2.	5.	0.	23.897
7530	2.	5.2	0.	22.185
7531	2.	5.4	0.	18.983
7532	2.	5.6	0.	19.764
7533	2.	5.8	0.	7.9259
7534	2.	4.	0.	-1873.
7535	2.1667	5.8	0.	11.366
7536	2.1667	5.6	0.	18.086
7537	2.1667	5.4	0.	18.145
7538	2.1667	5.2	0.	21.248
7539	2.1667	5.	0.	22.863
7540	2.1667	4.8	0.	35.231
7541	2.1667	4.6	0.	26.692
7542	2.1667	4.4	0.	129.79
7543	2.1667	4.2	0.	-139.64
7544	2.1667	4.	0.	-1385.2
7545	2.	1.8	0.	-130.01
7546	2.	1.6	0.	123.72
7547	2.	1.4	0.	29.33
7548	2.	1.2	0.	35.822
7549	2.	1.	0.	23.898
7550	2.	0.8	0.	22.185
7551	2.	0.6	0.	18.983
7552	2.	0.4	0.	19.764
7553	2.	0.2	0.	7.9259
7554	2.	2.	0.	-1873.
7555	2.1667	0.2	0.	11.366
7556	2.1667	0.4	0.	18.086
7557	2.1667	0.6	0.	18.145
7558	2.1667	0.8	0.	21.248
7559	2.1667	1.	0.	22.863
7560	2.1667	1.2	0.	35.231
7561	2.1667	1.4	0.	26.692
7562	2.1667	1.6	0.	129.79
7563	2.1667	1.8	0.	-139.64
7564	2.1667	2.	0.	-1385.2
7565	2.	2.3	0.	48.551
7566	2.0833	2.2	0.	172.78
7567	1.9	2.2	0.	13.655
7568	2.	2.2	5.e-002	-1.2623e-003
7569	2.	2.1	0.	-985.34
7570	2.	2.5	0.	-19.104
7571	2.0833	2.4	0.	-43.533
7572	1.9	2.4	0.	-40.678
7573	2.	2.4	5.e-002	-9.7845e-004
7574	2.	2.7	0.	-0.48358
7575	2.0833	2.6	0.	3.8066
7576	1.9	2.6	0.	-2.3911
7577	2.	2.6	5.e-002	-4.4831e-004
7578	2.	2.9	0.	-2.3277
7579	2.0833	2.8	0.	-3.857
7580	1.9	2.8	0.	-13.715
7581	2.	2.8	5.e-002	-3.0217e-004
7582	2.	3.1	0.	-2.3277
7583	2.0833	3.	0.	-1.0651
7584	1.9	3.	0.	-38.77
7585	2.	3.	5.e-002	6.485e-005
7586	2.	3.3	0.	-0.48358
7587	2.0833	3.2	0.	-3.857
7588	1.9	3.2	0.	-13.715
7589	2.	3.2	5.e-002	4.2313e-004
7590	2.	3.5	0.	-19.104
7591	2.0833	3.4	0.	3.8066
7592	1.9	3.4	0.	-2.3911
7593	2.	3.4	5.e-002	6.2633e-004
7594	2.	3.7	0.	48.551
7595	2.0833	3.6	0.	-43.533
7596	1.9	3.6	0.	-40.678
7597	2.	3.6	5.e-002	1.3197e-003
7598	2.0833	3.8	0.	172.78
7599	1.9	3.8	0.	13.655
7600	2.	3.8	5.e-002	1.4438e-003
7601	2.	3.9	0.	-985.34
7602	2.1667	2.3	0.	80.929
7603	2.2659	2.2	0.	111.66
7604	2.1667	2.2	5.e-002	-1.3129e-003
7605	2.1667	2.1	0.	-681.41
7606	2.1667	2.5	0.	-20.037
7607	2.2659	2.4	0.	-33.68
7608	2.1667	2.4	5.e-002	-6.4281e-004
7609	2.1667	2.7	0.	0.43104
7610	2.2659	2.6	0.	5.6754
7611	2.1667	2.6	5.e-002	-4.0435e-004
7612	2.1667	2.9	0.	-2.3508
7613	2.2659	2.8	0.	-3.3924
7614	2.1667	2.8	5.e-002	-1.0418e-004
7615	2.1667	3.1	0.	-2.3508
7616	2.2659	3.	0.	0.47153
7617	2.1667	3.	5.e-002	6.1035e-005
7618	2.1667	3.3	0.	0.43103
7619	2.2659	3.2	0.	-3.3924
7620	2.1667	3.2	5.e-002	2.6353e-004
7621	2.1667	3.5	0.	-20.037
7622	2.2659	3.4	0.	5.6754
7623	2.1667	3.4	5.e-002	5.5116e-004
7624	2.1667	3.7	0.	80.929
7625	2.2659	3.6	0.	-33.68
7626	2.1667	3.6	5.e-002	8.9914e-004
7627	2.2659	3.8	0.	111.66
7628	2.1667	3.8	5.e-002	1.5424e-003
7629	2.1667	3.9	0.	-681.41
7630	0.2	0.3	0.	-350.94
7631	0.3	0.2	0.	16.777
7632	0.2	0.2	5.e-002	-8.3212e-005
7633	0.2	0.1	0.	89.942
7634	0.1	0.2	0.	-537.77
7635	0.2	0.5	0.	-917.63
7636	0.3	0.4	0.	-622.2
7637	0.2	0.4	5.e-002	-1.3717e-004
7638	0.1	0.4	0.	-1402.5
7639	0.2	0.7	0.	-1238.7
7640	0.3	0.6	0.	-1082.5
7641	0.2	0.6	5.e-002	-2.3194e-004
7642	0.1	0.6	0.	-1843.2
7643	0.2	0.9	0.	-1453.2
7644	0.3	0.8	0.	-1390.8
7645	0.2	0.8	5.e-002	-2.71e-004
7646	0.1	0.8	0.	-2132.5
7647	0.2	1.1	0.	-1616.7
7648	0.3	1.	0.	-1615.7
7649	0.2	1.	5.e-002	-2.6003e-004
7650	0.1	1.	0.	-2352.4
7651	0.2	1.3	0.	-1753.2
7652	0.3	1.2	0.	-1795.6
7653	0.2	1.2	5.e-002	-2.4976e-004
7654	0.1	1.2	0.	-2535.4
7655	0.2	1.5	0.	-1873.
7656	0.3	1.4	0.	-1949.5
7657	0.2	1.4	5.e-002	-3.0064e-004
7658	0.1	1.4	0.	-2694.7
7659	0.2	1.7	0.	-1980.2
7660	0.3	1.6	0.	-2086.4
7661	0.2	1.6	5.e-002	-3.4693e-004
7662	0.1	1.6	0.	-2836.6
7663	0.2	1.9	0.	-2075.8
7664	0.3	1.8	0.	-2209.3
7665	0.2	1.8	5.e-002	-2.7344e-004
7666	0.1	1.8	0.	-2963.7
7667	0.2	2.1	0.	-2158.7
7668	0.3	2.	0.	-2317.
7669	0.2	2.	5.e-002	-3.1456e-004
7670	0.1	2.	0.	-3076.9
7671	0.2	2.3	0.	-2227.4
7672	0.3	2.2	0.	-2407.1
7673	0.2	2.2	5.e-002	-2.1734e-004
7674	0.1	2.2	0.	-3175.4
7675	0.2	2.5	0.	-2280.3
7676	0.3	2.4	0.	-2477.4
7677	0.2	2.4	5.e-002	-2.3239e-004
7678	0.1	2.4	0.	-3257.3
7679	0.2	2.7	0.	-2316.2
7680	0.3	2.6	0.	-2527.
7681	0.2	2.6	5.e-002	-1.9727e-004
7682	0.1	2.6	0.	-3319.4
7683	0.2	2.9	0.	-2334.3
7684	0.3	2.8	0.	-2556.2
7685	0.2	2.8	5.e-002	1.3903e-005
7686	0.1	2.8	0.	-3358.5
7687	0.2	3.1	0.	-2334.3
7688	0.3	3.	0.	-2565.9
7689	0.2	3.	5.e-002	1.7426e-008
7690	0.1	3.	0.	-3371.9
7691	0.2	3.3	0.	-2316.2
7692	0.3	3.2	0.	-2556.2
7693	0.2	3.2	5.e-002	1.0866e-004
7694	0.1	3.2	0.	-3358.5
7695	0.2	3.5	0.	-2280.3
7696	0.3	3.4	0.	-2527.
7697	0.2	3.4	5.e-002	3.2326e-004
7698	0.1	3.4	0.	-3319.4
7699	0.2	3.7	0.	-2227.4
7700	0.3	3.6	0.	-2477.4
7701	0.2	3.6	5.e-002	4.7877e-004
7702	0.1	3.6	0.	-3257.3
7703	0.2	3.9	0.	-2158.7
7704	0.3	3.8	0.	-2407.1
7705	0.2	3.8	5.e-002	4.6294e-004
7706	0.1	3.8	0.	-3175.4
7707	0.2	4.1	0.	-2075.8
7708	0.3	4.	0.	-2317.
7709	0.2	4.	5.e-002	5.1599e-004
7710	0.1	4.	0.	-3076.9
7711	0.2	4.3	0.	-1980.2
7712	0.3	4.2	0.	-2209.3
7713	0.2	4.2	5.e-002	4.6337e-004
7714	0.1	4.2	0.	-2963.7
7715	0.2	4.5	0.	-1873.
7716	0.3	4.4	0.	-2086.4
7717	0.2	4.4	5.e-002	4.1461e-004
7718	0.1	4.4	0.	-2836.6
7719	0.2	4.7	0.	-1753.2
7720	0.3	4.6	0.	-1949.5
7721	0.2	4.6	5.e-002	3.9177e-004
7722	0.1	4.6	0.	-2694.7
7723	0.2	4.9	0.	-1616.7
7724	0.3	4.8	0.	-1795.6
7725	0.2	4.8	5.e-002	3.3504e-004
7726	0.1	4.8	0.	-2535.4
7727	0.2	5.1	0.	-1453.2
7728	0.3	5.	0.	-1615.7
7729	0.2	5.	5.e-002	3.1871e-004
7730	0.1	5.	0.	-2352.4
7731	0.2	5.3	0.	-1238.7
7732	0.3	5.2	0.	-1390.8
7733	0.2	5.2	5.e-002	3.1957e-004
7734	0.1	5.2	0.	-2132.5
7735	0.2	5.5	0.	-917.63
7736	0.3	5.4	0.	-1082.5
7737	0.2	5.4	5.e-002	2.1853e-004
7738	0.1	5.4	0.	-1843.2
7739	0.2	5.7	0.	-350.94
7740	0.3	5.6	0.	-622.2
7741	0.2	5.6	5.e-002	1.4318e-004
7742	0.1	5.6	0.	-1402.5
7743	0.3	5.8	0.	16.777
7744	0.2	5.8	5.e-002	5.3198e-005
7745	0.2	5.9	0.	89.942
7746	0.1	5.8	0.	-537.77
7747	0.4	0.3	0.	-221.44
7748	0.5	0.2	0.	-35.197
7749	0.4	0.2	5.e-002	-1.0786e-004
7750	0.4	0.1	0.	-21.529
7751	0.4	0.5	0.	-778.66
7752	0.5	0.4	0.	-385.91
7753	0.4	0.4	5.e-002	-1.277e-004
7754	0.4	0.7	0.	-1217.4
7755	0.5	0.6	0.	-840.25
7756	0.4	0.6	5.e-002	-1.788e-004
7757	0.4	0.9	0.	-1536.4
7758	0.5	0.8	0.	-1198.2
7759	0.4	0.8	5.e-002	-2.2861e-004
7760	0.4	1.1	0.	-1780.2
7761	0.5	1.	0.	-1477.
7762	0.4	1.	5.e-002	-2.4716e-004
7763	0.4	1.3	0.	-1979.9
7764	0.5	1.2	0.	-1703.1
7765	0.4	1.2	5.e-002	-2.4601e-004
7766	0.4	1.5	0.	-2153.3
7767	0.5	1.4	0.	-1897.7
7768	0.4	1.4	5.e-002	-2.6646e-004
7769	0.4	1.7	0.	-2307.9
7770	0.5	1.6	0.	-2072.3
7771	0.4	1.6	5.e-002	-3.2324e-004
7772	0.4	1.9	0.	-2444.7
7773	0.5	1.8	0.	-2230.
7774	0.4	1.8	5.e-002	-2.6012e-004
7775	0.4	2.1	0.	-2561.2
7776	0.5	2.	0.	-2367.4
7777	0.4	2.	5.e-002	-2.6369e-004
7778	0.4	2.3	0.	-2654.4
7779	0.5	2.2	0.	-2478.9
7780	0.4	2.2	5.e-002	-2.2333e-004
7781	0.4	2.5	0.	-2722.7
7782	0.5	2.4	0.	-2561.1
7783	0.4	2.4	5.e-002	-1.8917e-005
7784	0.4	2.7	0.	-2766.8
7785	0.5	2.6	0.	-2615.1
7786	0.4	2.6	5.e-002	-6.1551e-005
7787	0.4	2.9	0.	-2788.2
7788	0.5	2.8	0.	-2644.8
7789	0.4	2.8	5.e-002	2.1075e-004
7790	0.4	3.1	0.	-2788.2
7791	0.5	3.	0.	-2654.1
7792	0.4	3.	5.e-002	-4.0328e-010
7793	0.4	3.3	0.	-2766.8
7794	0.5	3.2	0.	-2644.8
7795	0.4	3.2	5.e-002	-1.406e-004
7796	0.4	3.5	0.	-2722.7
7797	0.5	3.4	0.	-2615.1
7798	0.4	3.4	5.e-002	1.8283e-004
7799	0.4	3.7	0.	-2654.4
7800	0.5	3.6	0.	-2561.1
7801	0.4	3.6	5.e-002	2.97e-004
7802	0.4	3.9	0.	-2561.2
7803	0.5	3.8	0.	-2478.9
7804	0.4	3.8	5.e-002	3.3526e-004
7805	0.4	4.1	0.	-2444.7
7806	0.5	4.	0.	-2367.4
7807	0.4	4.	5.e-002	2.9661e-004
7808	0.4	4.3	0.	-2307.9
7809	0.5	4.2	0.	-2230.
7810	0.4	4.2	5.e-002	4.1522e-004
7811	0.4	4.5	0.	-2153.3
7812	0.5	4.4	0.	-2072.3
7813	0.4	4.4	5.e-002	4.817e-004
7814	0.4	4.7	0.	-1979.9
7815	0.5	4.6	0.	-1897.7
7816	0.4	4.6	5.e-002	3.5729e-004
7817	0.4	4.9	0.	-1780.2
7818	0.5	4.8	0.	-1703.1
7819	0.4	4.8	5.e-002	3.5078e-004
7820	0.4	5.1	0.	-1536.4
7821	0.5	5.	0.	-1477.
7822	0.4	5.	5.e-002	3.0791e-004
7823	0.4	5.3	0.	-1217.4
7824	0.5	5.2	0.	-1198.2
7825	0.4	5.2	5.e-002	2.7819e-004
7826	0.4	5.5	0.	-778.66
7827	0.5	5.4	0.	-840.25
7828	0.4	5.4	5.e-002	3.0959e-004
7829	0.4	5.7	0.	-221.44
7830	0.5	5.6	0.	-385.91
7831	0.4	5.6	5.e-002	1.2727e-004
7832	0.5	5.8	0.	-35.197
7833	0.4	5.8	5.e-002	1.0467e-004
7834	0.4	5.9	0.	-21.529
7835	0.6	0.3	0.	-58.029
7836	0.7	0.2	0.	-4.9143
7837	0.6	0.2	5.e-002	-1.1903e-004
7838	0.6	0.1	0.	10.103
7839	0.6	0.5	0.	-446.02
7840	0.7	0.4	0.	-196.08
7841	0.6	0.4	5.e-002	-5.7077e-005
7842	0.6	0.7	0.	-817.45
7843	0.7	0.6	0.	-545.68
7844	0.6	0.6	5.e-002	-1.6427e-004
7845	0.6	0.9	0.	-1131.6
7846	0.7	0.8	0.	-864.93
7847	0.6	0.8	5.e-002	-2.3636e-004
7848	0.6	1.1	0.	-1391.
7849	0.7	1.	0.	-1138.2
7850	0.6	1.	5.e-002	-2.7051e-004
7851	0.6	1.3	0.	-1611.9
7852	0.7	1.2	0.	-1373.9
7853	0.6	1.2	5.e-002	-2.7993e-004
7854	0.6	1.5	0.	-1808.6
7855	0.7	1.4	0.	-1586.7
7856	0.6	1.4	5.e-002	-3.3605e-004
7857	0.6	1.7	0.	-1987.7
7858	0.7	1.6	0.	-1786.6
7859	0.6	1.6	5.e-002	-4.1014e-004
7860	0.6	1.9	0.	-2147.5
7861	0.7	1.8	0.	-1973.7
7862	0.6	1.8	5.e-002	-4.1613e-004
7863	0.6	2.1	0.	-2281.4
7864	0.7	2.	0.	-2138.2
7865	0.6	2.	5.e-002	-4.3795e-004
7866	0.6	2.3	0.	-2383.5
7867	0.7	2.2	0.	-2267.7
7868	0.6	2.2	5.e-002	-4.7484e-004
7869	0.6	2.5	0.	-2452.9
7870	0.7	2.4	0.	-2356.3
7871	0.6	2.4	5.e-002	-4.0345e-004
7872	0.6	2.7	0.	-2493.8
7873	0.7	2.6	0.	-2408.1
7874	0.6	2.6	5.e-002	-3.4313e-004
7875	0.6	2.9	0.	-2512.1
7876	0.7	2.8	0.	-2433.1
7877	0.6	2.8	5.e-002	-1.1136e-004
7878	0.6	3.1	0.	-2512.1
7879	0.7	3.	0.	-2440.3
7880	0.6	3.	5.e-002	1.442e-010
7881	0.6	3.3	0.	-2493.8
7882	0.7	3.2	0.	-2433.1
7883	0.6	3.2	5.e-002	2.0171e-004
7884	0.6	3.5	0.	-2452.9
7885	0.7	3.4	0.	-2408.1
7886	0.6	3.4	5.e-002	4.7645e-004
7887	0.6	3.7	0.	-2383.5
7888	0.7	3.6	0.	-2356.3
7889	0.6	3.6	5.e-002	6.265e-004
7890	0.6	3.9	0.	-2281.4
7891	0.7	3.8	0.	-2267.7
7892	0.6	3.8	5.e-002	7.2308e-004
7893	0.6	4.1	0.	-2147.5
7894	0.7	4.	0.	-2138.2
7895	0.6	4.	5.e-002	5.6674e-004
7896	0.6	4.3	0.	-1987.7
7897	0.7	4.2	0.	-1973.7
7898	0.6	4.2	5.e-002	5.6868e-004
7899	0.6	4.5	0.	-1808.6
7900	0.7	4.4	0.	-1786.6
7901	0.6	4.4	5.e-002	4.7837e-004
7902	0.6	4.7	0.	-1611.9
7903	0.7	4.6	0.	-1586.7
7904	0.6	4.6	5.e-002	4.6549e-004
7905	0.6	4.9	0.	-1391.
7906	0.7	4.8	0.	-1373.9
7907	0.6	4.8	5.e-002	3.9398e-004
7908	0.6	5.1	0.	-1131.6
7909	0.7	5.	0.	-1138.2
7910	0.6	5.	5.e-002	3.6156e-004
7911	0.6	5.3	0.	-817.45
7912	0.7	5.2	0.	-864.93
7913	0.6	5.2	5.e-002	2.6494e-004
7914	0.6	5.5	0.	-446.02
7915	0.7	5.4	0.	-545.68
7916	0.6	5.4	5.e-002	2.0096e-004
7917	0.6	5.7	0.	-58.029
7918	0.7	5.6	0.	-196.08
7919	0.6	5.6	5.e-002	1.5105e-004
7920	0.7	5.8	0.	-4.9143
7921	0.6	5.8	5.e-002	7.2765e-005
7922	0.6	5.9	0.	10.103
7923	0.8	0.3	0.	-36.392
7924	0.9	0.2	0.	-11.292
7925	0.8	0.2	5.e-002	-2.9125e-005
7926	0.8	0.1	0.	-0.25386
7927	0.8	0.5	0.	-292.46
7928	0.9	0.4	0.	-109.61
7929	0.8	0.4	5.e-002	-1.2634e-004
7930	0.8	0.7	0.	-588.89
7931	0.9	0.6	0.	-363.1
7932	0.8	0.6	5.e-002	-1.8457e-004
7933	0.8	0.9	0.	-864.15
7934	0.9	0.8	0.	-613.9
7935	0.8	0.8	5.e-002	-1.8183e-004
7936	0.8	1.1	0.	-1111.4
7937	0.9	1.	0.	-844.39
7938	0.8	1.	5.e-002	-2.4838e-004
7939	0.8	1.3	0.	-1338.3
7940	0.9	1.2	0.	-1058.9
7941	0.8	1.2	5.e-002	-3.1089e-004
7942	0.8	1.5	0.	-1554.8
7943	0.9	1.4	0.	-1270.5
7944	0.8	1.4	5.e-002	-4.0752e-004
7945	0.8	1.7	0.	-1764.2
7946	0.9	1.6	0.	-1489.9
7947	0.8	1.6	5.e-002	-4.8636e-004
7948	0.8	1.9	0.	-1957.9
7949	0.9	1.8	0.	-1712.
7950	0.8	1.8	5.e-002	-6.0694e-004
7951	0.8	2.1	0.	-2120.1
7952	0.9	2.	0.	-1914.6
7953	0.8	2.	5.e-002	-5.5064e-004
7954	0.8	2.3	0.	-2238.4
7955	0.9	2.2	0.	-2069.9
7956	0.8	2.2	5.e-002	-6.3717e-004
7957	0.8	2.5	0.	-2311.8
7958	0.9	2.4	0.	-2166.
7959	0.8	2.4	5.e-002	-3.7434e-004
7960	0.8	2.7	0.	-2349.6
7961	0.9	2.6	0.	-2213.
7962	0.8	2.6	5.e-002	-2.3367e-004
7963	0.8	2.9	0.	-2364.5
7964	0.9	2.8	0.	-2230.6
7965	0.8	2.8	5.e-002	-8.3271e-005
7966	0.8	3.1	0.	-2364.5
7967	0.9	3.	0.	-2234.6
7968	0.8	3.	5.e-002	4.7748e-011
7969	0.8	3.3	0.	-2349.6
7970	0.9	3.2	0.	-2230.6
7971	0.8	3.2	5.e-002	1.2015e-004
7972	0.8	3.5	0.	-2311.8
7973	0.9	3.4	0.	-2213.
7974	0.8	3.4	5.e-002	2.143e-004
7975	0.8	3.7	0.	-2238.4
7976	0.9	3.6	0.	-2166.
7977	0.8	3.6	5.e-002	4.995e-004
7978	0.8	3.9	0.	-2120.1
7979	0.9	3.8	0.	-2069.9
7980	0.8	3.8	5.e-002	6.7105e-004
7981	0.8	4.1	0.	-1957.9
7982	0.9	4.	0.	-1914.6
7983	0.8	4.	5.e-002	7.9952e-004
7984	0.8	4.3	0.	-1764.2
7985	0.9	4.2	0.	-1712.
7986	0.8	4.2	5.e-002	7.3822e-004
7987	0.8	4.5	0.	-1554.8
7988	0.9	4.4	0.	-1489.9
7989	0.8	4.4	5.e-002	5.8656e-004
7990	0.8	4.7	0.	-1338.3
7991	0.9	4.6	0.	-1270.5
7992	0.8	4.6	5.e-002	5.3083e-004
7993	0.8	4.9	0.	-1111.4
7994	0.9	4.8	0.	-1058.9
7995	0.8	4.8	5.e-002	3.7837e-004
7996	0.8	5.1	0.	-864.15
7997	0.9	5.	0.	-844.39
7998	0.8	5.	5.e-002	2.964e-004
7999	0.8	5.3	0.	-588.88
8000	0.9	5.2	0.	-613.9
8001	0.8	5.2	5.e-002	2.0818e-004
8002	0.8	5.5	0.	-292.46
8003	0.9	5.4	0.	-363.1
8004	0.8	5.4	5.e-002	2.3823e-004
8005	0.8	5.7	0.	-36.392
8006	0.9	5.6	0.	-109.61
8007	0.8	5.6	5.e-002	1.2884e-004
8008	0.9	5.8	0.	-11.292
8009	0.8	5.8	5.e-002	3.016e-005
8010	0.8	5.9	0.	-0.25386
8011	1.	0.3	0.	-20.942
8012	1.1	0.2	0.	-10.865
8013	1.	0.2	5.e-002	-1.5875e-005
8014	1.	0.1	0.	1.9037
8015	1.	0.5	0.	-173.28
8016	1.1	0.4	0.	-62.325
8017	1.	0.4	5.e-002	-7.8879e-005
8018	1.	0.7	0.	-382.31
8019	1.1	0.6	0.	-219.02
8020	1.	0.6	5.e-002	-1.0893e-004
8021	1.	0.9	0.	-584.98
8022	1.1	0.8	0.	-378.72
8023	1.	0.8	5.e-002	-2.0467e-004
8024	1.	1.1	0.	-780.26
8025	1.1	1.	0.	-529.32
8026	1.	1.	5.e-002	-1.821e-004
8027	1.	1.3	0.	-978.92
8028	1.1	1.2	0.	-682.18
8029	1.	1.2	5.e-002	-3.4658e-004
8030	1.	1.5	0.	-1194.4
8031	1.1	1.4	0.	-858.36
8032	1.	1.4	5.e-002	-4.7204e-004
8033	1.	1.7	0.	-1428.6
8034	1.1	1.6	0.	-1078.8
8035	1.	1.6	5.e-002	-5.627e-004
8036	1.	1.9	0.	-1662.1
8037	1.1	1.8	0.	-1341.9
8038	1.	1.8	5.e-002	-6.5075e-004
8039	1.	2.1	0.	-1860.6
8040	1.1	2.	0.	-1599.2
8041	1.	2.	5.e-002	-6.0627e-004
8042	1.	2.3	0.	-1997.
8043	1.1	2.2	0.	-1791.3
8044	1.	2.2	5.e-002	-3.3835e-004
8045	1.	2.5	0.	-2070.
8046	1.1	2.4	0.	-1893.5
8047	1.	2.4	5.e-002	-1.398e-004
8048	1.	2.7	0.	-2099.2
8049	1.1	2.6	0.	-1928.6
8050	1.	2.6	5.e-002	-7.2927e-005
8051	1.	2.9	0.	-2107.3
8052	1.1	2.8	0.	-1934.4
8053	1.	2.8	5.e-002	1.577e-005
8054	1.	3.1	0.	-2107.3
8055	1.1	3.	0.	-1934.1
8056	1.	3.	5.e-002	6.1035e-005
8057	1.	3.3	0.	-2099.2
8058	1.1	3.2	0.	-1934.4
8059	1.	3.2	5.e-002	1.4958e-005
8060	1.	3.5	0.	-2070.
8061	1.1	3.4	0.	-1928.6
8062	1.	3.4	5.e-002	1.2275e-004
8063	1.	3.7	0.	-1997.
8064	1.1	3.6	0.	-1893.5
8065	1.	3.6	5.e-002	2.5249e-004
8066	1.	3.9	0.	-1860.6
8067	1.1	3.8	0.	-1791.3
8068	1.	3.8	5.e-002	5.1075e-004
8069	1.	4.1	0.	-1662.1
8070	1.1	4.	0.	-1599.2
8071	1.	4.	5.e-002	7.4751e-004
8072	1.	4.3	0.	-1428.6
8073	1.1	4.2	0.	-1341.9
8074	1.	4.2	5.e-002	7.8477e-004
8075	1.	4.5	0.	-1194.4
8076	1.1	4.4	0.	-1078.8
8077	1.	4.4	5.e-002	6.5496e-004
8078	1.	4.7	0.	-978.92
8079	1.1	4.6	0.	-858.36
8080	1.	4.6	5.e-002	5.1975e-004
8081	1.	4.9	0.	-780.26
8082	1.1	4.8	0.	-682.18
8083	1.	4.8	5.e-002	3.6342e-004
8084	1.	5.1	0.	-584.98
8085	1.1	5.	0.	-529.32
8086	1.	5.	5.e-002	2.6559e-004
8087	1.	5.3	0.	-382.31
8088	1.1	5.2	0.	-378.72
8089	1.	5.2	5.e-002	2.2411e-004
8090	1.	5.5	0.	-173.28
8091	1.1	5.4	0.	-219.02
8092	1.	5.4	5.e-002	1.6126e-004
8093	1.	5.7	0.	-20.942
8094	1.1	5.6	0.	-62.325
8095	1.	5.6	5.e-002	1.0292e-004
8096	1.1	5.8	0.	-10.865
8097	1.	5.8	5.e-002	2.0578e-005
8098	1.	5.9	0.	1.9037
8099	1.2	0.3	0.	-22.312
8100	1.3	0.2	0.	-15.595
8101	1.2	0.2	5.e-002	-3.3722e-006
8102	1.2	0.1	0.	0.80723
8103	1.2	0.5	0.	-97.715
8104	1.3	0.4	0.	-47.713
8105	1.2	0.4	5.e-002	-5.7184e-005
8106	1.2	0.7	0.	-207.4
8107	1.3	0.6	0.	-107.67
8108	1.2	0.6	5.e-002	-6.0022e-005
8109	1.2	0.9	0.	-310.03
8110	1.3	0.8	0.	-154.23
8111	1.2	0.8	5.e-002	-1.4019e-004
8112	1.2	1.1	0.	-415.14
8113	1.3	1.	0.	-189.96
8114	1.2	1.	5.e-002	-2.0312e-004
8115	1.2	1.3	0.	-545.26
8116	1.3	1.2	0.	-234.8
8117	1.2	1.2	5.e-002	-2.8881e-004
8118	1.2	1.5	0.	-728.8
8119	1.3	1.4	0.	-321.14
8120	1.2	1.4	5.e-002	-4.4573e-004
8121	1.2	1.7	0.	-981.92
8122	1.3	1.6	0.	-505.19
8123	1.2	1.6	5.e-002	-5.9116e-004
8124	1.2	1.9	0.	-1272.8
8125	1.3	1.8	0.	-815.98
8126	1.2	1.8	5.e-002	-7.1038e-004
8127	1.2	2.1	0.	-1528.1
8128	1.3	2.	0.	-1169.6
8129	1.2	2.	5.e-002	-5.2505e-004
8130	1.2	2.3	0.	-1690.8
8131	1.3	2.2	0.	-1426.9
8132	1.2	2.2	5.e-002	-2.4487e-004
8133	1.2	2.5	0.	-1759.6
8134	1.3	2.4	0.	-1531.4
8135	1.2	2.4	5.e-002	-2.2332e-005
8136	1.2	2.7	0.	-1774.
8137	1.3	2.6	0.	-1547.9
8138	1.2	2.6	5.e-002	4.4845e-005
8139	1.2	2.9	0.	-1772.5
8140	1.3	2.8	0.	-1543.2
8141	1.2	2.8	5.e-002	3.9889e-005
8142	1.2	3.1	0.	-1772.5
8143	1.3	3.	0.	-1539.8
8144	1.2	3.	5.e-002	-1.1559e-014
8145	1.2	3.3	0.	-1774.
8146	1.3	3.2	0.	-1543.2
8147	1.2	3.2	5.e-002	-9.24e-006
8148	1.2	3.5	0.	-1759.6
8149	1.3	3.4	0.	-1547.9
8150	1.2	3.4	5.e-002	-2.8706e-005
8151	1.2	3.7	0.	-1690.8
8152	1.3	3.6	0.	-1531.4
8153	1.2	3.6	5.e-002	6.6146e-005
8154	1.2	3.9	0.	-1528.1
8155	1.3	3.8	0.	-1426.9
8156	1.2	3.8	5.e-002	3.1379e-004
8157	1.2	4.1	0.	-1272.8
8158	1.3	4.	0.	-1169.6
8159	1.2	4.	5.e-002	6.8915e-004
8160	1.2	4.3	0.	-981.92
8161	1.3	4.2	0.	-815.98
8162	1.2	4.2	5.e-002	7.8263e-004
8163	1.2	4.5	0.	-728.8
8164	1.3	4.4	0.	-505.19
8165	1.2	4.4	5.e-002	7.1916e-004
8166	1.2	4.7	0.	-545.26
8167	1.3	4.6	0.	-321.14
8168	1.2	4.6	5.e-002	5.3031e-004
8169	1.2	4.9	0.	-415.14
8170	1.3	4.8	0.	-234.8
8171	1.2	4.8	5.e-002	3.5454e-004
8172	1.2	5.1	0.	-310.03
8173	1.3	5.	0.	-189.96
8174	1.2	5.	5.e-002	2.5829e-004
8175	1.2	5.3	0.	-207.4
8176	1.3	5.2	0.	-154.23
8177	1.2	5.2	5.e-002	1.5418e-004
8178	1.2	5.5	0.	-97.715
8179	1.3	5.4	0.	-107.67
8180	1.2	5.4	5.e-002	9.3324e-005
8181	1.2	5.7	0.	-22.312
8182	1.3	5.6	0.	-47.713
8183	1.2	5.6	5.e-002	3.8627e-005
8184	1.3	5.8	0.	-15.595
8185	1.2	5.8	5.e-002	8.4305e-006
8186	1.2	5.9	0.	0.80723
8187	1.4	0.3	0.	-28.014
8188	1.5	0.2	0.	-24.002
8189	1.4	0.2	5.e-002	5.5384e-008
8190	1.4	0.1	0.	-0.78859
8191	1.4	0.5	0.	-53.791
8192	1.5	0.4	0.	-42.281
8193	1.4	0.4	5.e-002	-1.5125e-005
8194	1.4	0.7	0.	-62.354
8195	1.5	0.6	0.	-38.987
8196	1.4	0.6	5.e-002	-5.436e-005
8197	1.4	0.9	0.	-56.608
8198	1.5	0.8	0.	-26.9
8199	1.4	0.8	5.e-002	-8.5491e-005
8200	1.4	1.1	0.	-51.507
8201	1.5	1.	0.	-19.456
8202	1.4	1.	5.e-002	-1.2153e-004
8203	1.4	1.3	0.	-57.356
8204	1.5	1.2	0.	-15.665
8205	1.4	1.2	5.e-002	-2.9081e-004
8206	1.4	1.5	0.	-114.13
8207	1.5	1.4	0.	-16.034
8208	1.4	1.4	5.e-002	-4.0594e-004
8209	1.4	1.7	0.	-333.6
8210	1.5	1.6	0.	-20.28
8211	1.4	1.6	5.e-002	-6.2204e-004
8212	1.4	1.9	0.	-709.13
8213	1.5	1.8	0.	-68.317
8214	1.4	1.8	5.e-002	-7.6729e-004
8215	1.4	2.1	0.	-1072.
8216	1.5	2.	0.	-510.97
8217	1.4	2.	5.e-002	-3.8699e-004
8218	1.4	2.3	0.	-1278.8
8219	1.5	2.2	0.	-915.82
8220	1.4	2.2	5.e-002	-1.2137e-004
8221	1.4	2.5	0.	-1336.3
8222	1.5	2.4	0.	-1032.6
8223	1.4	2.4	5.e-002	7.4485e-005
8224	1.4	2.7	0.	-1334.4
8225	1.5	2.6	0.	-1042.1
8226	1.4	2.6	5.e-002	9.0429e-005
8227	1.4	2.9	0.	-1327.3
8228	1.5	2.8	0.	-1046.3
8229	1.4	2.8	5.e-002	9.2357e-005
8230	1.4	3.1	0.	-1327.3
8231	1.5	3.	0.	-1046.5
8232	1.4	3.	5.e-002	4.5776e-005
8233	1.4	3.3	0.	-1334.4
8234	1.5	3.2	0.	-1046.3
8235	1.4	3.2	5.e-002	-4.5427e-005
8236	1.4	3.5	0.	-1336.3
8237	1.5	3.4	0.	-1042.1
8238	1.4	3.4	5.e-002	-6.1924e-005
8239	1.4	3.7	0.	-1278.8
8240	1.5	3.6	0.	-1032.6
8241	1.4	3.6	5.e-002	-2.9219e-005
8242	1.4	3.9	0.	-1072.
8243	1.5	3.8	0.	-915.82
8244	1.4	3.8	5.e-002	1.4776e-004
8245	1.4	4.1	0.	-709.13
8246	1.5	4.	0.	-510.97
8247	1.4	4.	5.e-002	4.9788e-004
8248	1.4	4.3	0.	-333.6
8249	1.5	4.2	0.	-68.317
8250	1.4	4.2	5.e-002	8.8917e-004
8251	1.4	4.5	0.	-114.13
8252	1.5	4.4	0.	-20.28
8253	1.4	4.4	5.e-002	7.9766e-004
8254	1.4	4.7	0.	-57.356
8255	1.5	4.6	0.	-16.034
8256	1.4	4.6	5.e-002	4.6581e-004
8257	1.4	4.9	0.	-51.507
8258	1.5	4.8	0.	-15.665
8259	1.4	4.8	5.e-002	3.0933e-004
8260	1.4	5.1	0.	-56.608
8261	1.5	5.	0.	-19.456
8262	1.4	5.	5.e-002	2.1254e-004
8263	1.4	5.3	0.	-62.354
8264	1.5	5.2	0.	-26.9
8265	1.4	5.2	5.e-002	1.1044e-004
8266	1.4	5.5	0.	-53.791
8267	1.5	5.4	0.	-38.987
8268	1.4	5.4	5.e-002	6.03e-005
8269	1.4	5.7	0.	-28.014
8270	1.5	5.6	0.	-42.281
8271	1.4	5.6	5.e-002	2.1175e-005
8272	1.5	5.8	0.	-24.002
8273	1.4	5.8	5.e-002	-2.882e-006
8274	1.4	5.9	0.	-0.78859
8275	1.6	0.3	0.	-35.139
8276	1.7	0.2	0.	-48.558
8277	1.6	0.2	5.e-002	1.8783e-005
8278	1.6	0.1	0.	-2.6
8279	1.6	0.5	0.	-29.211
8280	1.7	0.4	0.	-35.654
8281	1.6	0.4	5.e-002	2.5145e-005
8282	1.6	0.7	0.	-18.104
8283	1.7	0.6	0.	-23.458
8284	1.6	0.6	5.e-002	-2.4384e-005
8285	1.6	0.9	0.	-11.654
8286	1.7	0.8	0.	-17.227
8287	1.6	0.8	5.e-002	-6.4661e-005
8288	1.6	1.1	0.	-8.3372
8289	1.7	1.	0.	-15.73
8290	1.6	1.	5.e-002	-1.4314e-004
8291	1.6	1.3	0.	-7.7531
8292	1.7	1.2	0.	-13.449
8293	1.6	1.2	5.e-002	-2.0454e-004
8294	1.6	1.5	0.	-2.8021
8295	1.7	1.4	0.	-25.063
8296	1.6	1.4	5.e-002	-3.5531e-004
8297	1.6	1.7	0.	-0.11554
8298	1.7	1.6	0.	6.2499
8299	1.6	1.6	5.e-002	-5.8342e-004
8300	1.6	1.9	0.	26.991
8301	1.7	1.8	0.	-110.98
8302	1.6	1.8	5.e-002	-1.0577e-003
8303	1.6	2.1	0.	-372.59
8304	1.7	2.	0.	-372.4
8305	1.6	2.	5.e-002	-1.7299e-004
8306	1.6	2.3	0.	-704.34
8307	1.7	2.2	0.	-268.92
8308	1.6	2.2	5.e-002	-2.4005e-005
8309	1.6	2.5	0.	-769.31
8310	1.7	2.4	0.	-344.76
8311	1.6	2.4	5.e-002	1.4432e-005
8312	1.6	2.7	0.	-777.48
8313	1.7	2.6	0.	-441.65
8314	1.6	2.6	5.e-002	4.5816e-005
8315	1.6	2.9	0.	-785.48
8316	1.7	2.8	0.	-489.69
8317	1.6	2.8	5.e-002	9.6234e-005
8318	1.6	3.1	0.	-785.48
8319	1.7	3.	0.	-506.7
8320	1.6	3.	5.e-002	5.3406e-005
8321	1.6	3.3	0.	-777.48
8322	1.7	3.2	0.	-489.69
8323	1.6	3.2	5.e-002	-5.8373e-007
8324	1.6	3.5	0.	-769.31
8325	1.7	3.4	0.	-441.65
8326	1.6	3.4	5.e-002	2.1967e-005
8327	1.6	3.7	0.	-704.33
8328	1.7	3.6	0.	-344.76
8329	1.6	3.6	5.e-002	3.802e-005
8330	1.6	3.9	0.	-372.59
8331	1.7	3.8	0.	-268.92
8332	1.6	3.8	5.e-002	4.057e-005
8333	1.6	4.1	0.	26.991
8334	1.7	4.	0.	-372.4
8335	1.6	4.	5.e-002	2.4297e-004
8336	1.6	4.3	0.	-0.11556
8337	1.7	4.2	0.	-110.98
8338	1.6	4.2	5.e-002	1.3023e-003
8339	1.6	4.5	0.	-2.8021
8340	1.7	4.4	0.	6.2499
8341	1.6	4.4	5.e-002	6.9056e-004
8342	1.6	4.7	0.	-7.7531
8343	1.7	4.6	0.	-25.063
8344	1.6	4.6	5.e-002	3.5927e-004
8345	1.6	4.9	0.	-8.3372
8346	1.7	4.8	0.	-13.449
8347	1.6	4.8	5.e-002	2.1211e-004
8348	1.6	5.1	0.	-11.654
8349	1.7	5.	0.	-15.73
8350	1.6	5.	5.e-002	1.3872e-004
8351	1.6	5.3	0.	-18.104
8352	1.7	5.2	0.	-17.227
8353	1.6	5.2	5.e-002	5.096e-005
8354	1.6	5.5	0.	-29.211
8355	1.7	5.4	0.	-23.458
8356	1.6	5.4	5.e-002	2.4384e-005
8357	1.6	5.7	0.	-35.139
8358	1.7	5.6	0.	-35.654
8359	1.6	5.6	5.e-002	1.2072e-005
8360	1.7	5.8	0.	-48.558
8361	1.6	5.8	5.e-002	-2.1943e-005
8362	1.6	5.9	0.	-2.6
8363	1.8	0.3	0.	-45.083
8364	1.8	0.2	5.e-002	1.4635e-005
8365	1.8	0.1	0.	-34.843
8366	1.9	0.2	0.	-14.504
8367	1.8	0.5	0.	-26.278
8368	1.8	0.4	5.e-002	4.5429e-006
8369	1.9	0.4	0.	3.3124
8370	1.8	0.7	0.	-21.237
8371	1.8	0.6	5.e-002	1.5141e-005
8372	1.9	0.6	0.	0.63798
8373	1.8	0.9	0.	-20.221
8374	1.8	0.8	5.e-002	-2.5624e-014
8375	1.9	0.8	0.	1.0991
8376	1.8	1.1	0.	-19.725
8377	1.8	1.	5.e-002	-1.7058e-005
8378	1.9	1.	0.	-1.6039
8379	1.8	1.3	0.	-29.875
8380	1.8	1.2	5.e-002	-9.5835e-005
8381	1.9	1.2	0.	4.6209
8382	1.8	1.5	0.	-15.403
8383	1.8	1.4	5.e-002	-2.1652e-004
8384	1.9	1.4	0.	-25.331
8385	1.8	1.7	0.	-106.14
8386	1.8	1.6	5.e-002	-4.6289e-004
8387	1.9	1.6	0.	78.495
8388	1.8	1.9	0.	-516.48
8389	1.8	1.8	5.e-002	-1.3374e-003
8390	1.9	1.8	0.	-414.68
8391	1.8	2.1	0.	-339.83
8392	1.8	2.	5.e-002	-8.8935e-004
8393	1.9	2.	0.	-804.31
8394	1.8	2.3	0.	-121.82
8395	1.8	2.2	5.e-002	-2.529e-004
8396	1.8	2.5	0.	-84.853
8397	1.8	2.4	5.e-002	-2.7051e-004
8398	1.8	2.7	0.	-174.11
8399	1.8	2.6	5.e-002	-7.1252e-005
8400	1.8	2.9	0.	-226.66
8401	1.8	2.8	5.e-002	8.6942e-006
8402	1.8	3.1	0.	-226.66
8403	1.8	3.	5.e-002	5.722e-005
8404	1.8	3.3	0.	-174.11
8405	1.8	3.2	5.e-002	1.1577e-004
8406	1.8	3.5	0.	-84.853
8407	1.8	3.4	5.e-002	2.0283e-004
8408	1.8	3.7	0.	-121.82
8409	1.8	3.6	5.e-002	3.5332e-004
8410	1.8	3.9	0.	-339.83
8411	1.8	3.8	5.e-002	3.2556e-004
8412	1.8	4.1	0.	-516.48
8413	1.8	4.	5.e-002	9.467e-004
8414	1.9	4.	0.	-804.31
8415	1.8	4.3	0.	-106.14
8416	1.8	4.2	5.e-002	1.4842e-003
8417	1.9	4.2	0.	-414.68
8418	1.8	4.5	0.	-15.403
8419	1.8	4.4	5.e-002	5.4102e-004
8420	1.9	4.4	0.	78.495
8421	1.8	4.7	0.	-29.875
8422	1.8	4.6	5.e-002	1.9556e-004
8423	1.9	4.6	0.	-25.331
8424	1.8	4.9	0.	-19.725
8425	1.8	4.8	5.e-002	3.3098e-005
8426	1.9	4.8	0.	4.6209
8427	1.8	5.1	0.	-20.221
8428	1.8	5.	5.e-002	3.3648e-006
8429	1.9	5.	0.	-1.6039
8430	1.8	5.3	0.	-21.237
8431	1.8	5.2	5.e-002	-4.0424e-005
8432	1.9	5.2	0.	1.0991
8433	1.8	5.5	0.	-26.278
8434	1.8	5.4	5.e-002	-1.3812e-005
8435	1.9	5.4	0.	0.63798
8436	1.8	5.7	0.	-45.083
8437	1.8	5.6	5.e-002	-3.4499e-005
8438	1.9	5.6	0.	3.3124
8439	1.8	5.8	5.e-002	-2.5624e-005
8440	1.8	5.9	0.	-34.843
8441	1.9	5.8	0.	-14.504
8442	2.4644	5.8	0.	-21.694
8443	2.3652	5.7	0.	-22.055
8444	2.3652	5.8	5.e-002	-1.6035e-006
8445	2.3652	5.9	0.	-21.647
8446	2.2659	5.8	0.	-1.6049
8447	2.6629	5.8	0.	-5.2531
8448	2.5636	5.7	0.	-6.1897
8449	2.5636	5.8	5.e-002	1.373e-006
8450	2.5636	5.9	0.	-1.1611
8451	2.8614	5.8	0.	-1.6027
8452	2.7621	5.7	0.	-3.4721
8453	2.7621	5.8	5.e-002	3.2489e-006
8454	2.7621	5.9	0.	-0.74641
8455	3.0598	5.8	0.	0.1545
8456	2.9606	5.7	0.	-0.8131
8457	2.9606	5.8	5.e-002	6.3255e-006
8458	2.9606	5.9	0.	0.36401
8459	3.2583	5.8	0.	0.54868
8460	3.1591	5.7	0.	-0.19279
8461	3.1591	5.8	5.e-002	4.6722e-006
8462	3.1591	5.9	0.	0.36917
8463	3.4568	5.8	0.	0.59219
8464	3.3576	5.7	0.	5.0552e-002
8465	3.3576	5.8	5.e-002	1.34e-006
8466	3.3576	5.9	0.	0.40724
8467	3.6553	5.8	0.	0.49348
8468	3.5561	5.7	0.	7.5771e-002
8469	3.5561	5.8	5.e-002	-2.5948e-006
8470	3.5561	5.9	0.	0.36448
8471	3.8538	5.8	0.	0.37745
8472	3.7545	5.7	0.	5.8232e-002
8473	3.7545	5.8	5.e-002	-5.165e-006
8474	3.7545	5.9	0.	0.32086
8475	4.0523	5.8	0.	0.27653
8476	3.953	5.7	0.	3.1732e-002
8477	3.953	5.8	5.e-002	-7.6759e-006
8478	3.953	5.9	0.	0.27469
8479	4.2508	5.8	0.	0.19954
8480	4.1515	5.7	0.	1.1494e-002
8481	4.1515	5.8	5.e-002	-6.4028e-006
8482	4.1515	5.9	0.	0.23338
8483	4.4492	5.8	0.	0.14336
8484	4.35	5.7	0.	-2.3494e-003
8485	4.35	5.8	5.e-002	-5.2054e-006
8486	4.35	5.9	0.	0.19763
8487	4.6477	5.8	0.	0.10218
8488	4.5485	5.7	0.	-1.2607e-002
8489	4.5485	5.8	5.e-002	-4.129e-006
8490	4.5485	5.9	0.	0.16784
8491	4.8462	5.8	0.	6.9658e-002
8492	4.747	5.7	0.	-2.3928e-002
8493	4.747	5.8	5.e-002	-2.9377e-006
8494	4.747	5.9	0.	0.14356
8495	5.0447	5.8	0.	3.8661e-002
8496	4.9455	5.7	0.	-4.4323e-002
8497	4.9455	5.8	5.e-002	-1.3488e-006
8498	4.9455	5.9	0.	0.12417
8499	5.2432	5.8	0.	-3.5246e-003
8500	5.1439	5.7	0.	-0.1001
8501	5.1439	5.8	5.e-002	7.3154e-006
8502	5.1439	5.9	0.	0.10896
8503	5.4417	5.8	0.	-0.10886
8504	5.3424	5.7	0.	-0.46509
8505	5.3424	5.8	5.e-002	1.4338e-004
8506	5.3424	5.9	0.	9.7213e-002
8507	5.6402	5.8	0.	-0.80051
8508	5.5409	5.7	0.	-3.3584
8509	5.5409	5.8	5.e-002	1.6823e-004
8510	5.5409	5.9	0.	8.789e-002
8511	5.8386	5.8	0.	-2.4309
8512	5.7394	5.7	0.	-6.3716
8513	5.7394	5.8	5.e-002	7.5387e-005
8514	5.7394	5.9	0.	-0.20238
8515	6.0371	5.8	0.	-3.6786
8516	5.9379	5.7	0.	-8.4992
8517	5.9379	5.8	5.e-002	6.7779e-005
8518	5.9379	5.9	0.	-1.0744
8519	6.2356	5.8	0.	-4.4348
8520	6.1364	5.7	0.	-9.8552
8521	6.1364	5.8	5.e-002	6.7588e-005
8522	6.1364	5.9	0.	-1.6174
8523	6.4341	5.8	0.	-4.7781
8524	6.3348	5.7	0.	-10.581
8525	6.3348	5.8	5.e-002	7.0024e-005
8526	6.3348	5.9	0.	-1.8925
8527	6.6326	5.8	0.	-4.7908
8528	6.5333	5.7	0.	-10.804
8529	6.5333	5.8	5.e-002	3.809e-005
8530	6.5333	5.9	0.	-1.9546
8531	6.8311	5.8	0.	-4.5454
8532	6.7318	5.7	0.	-10.632
8533	6.7318	5.8	5.e-002	5.3786e-005
8534	6.7318	5.9	0.	-1.8509
8535	7.0295	5.8	0.	-4.1038
8536	6.9303	5.7	0.	-10.158
8537	6.9303	5.8	5.e-002	4.259e-005
8538	6.9303	5.9	0.	-1.6221
8539	7.228	5.8	0.	-3.5182
8540	7.1288	5.7	0.	-9.4584
8541	7.1288	5.8	5.e-002	5.0011e-005
8542	7.1288	5.9	0.	-1.3048
8543	7.4265	5.8	0.	-2.8333
8544	7.3273	5.7	0.	-8.5945
8545	7.3273	5.8	5.e-002	5.5766e-005
8546	7.3273	5.9	0.	-0.93694
8547	7.625	5.8	0.	-2.0908
8548	7.5258	5.7	0.	-7.6172
8549	7.5258	5.8	5.e-002	3.5483e-005
8550	7.5258	5.9	0.	-0.57228
8551	7.8235	5.8	0.	-1.3407
8552	7.7242	5.7	0.	-6.567
8553	7.7242	5.8	5.e-002	4.0326e-005
8554	7.7242	5.9	0.	-0.29904
8555	8.022	5.8	0.	-0.6843
8556	7.9227	5.7	0.	-5.4758
8557	7.9227	5.8	5.e-002	3.1762e-005
8558	7.9227	5.9	0.	-0.16065
8559	8.2205	5.8	0.	-0.3001
8560	8.1212	5.7	0.	-4.3691
8561	8.1212	5.8	5.e-002	3.6341e-005
8562	8.1212	5.9	0.	-9.8965e-002
8563	8.4189	5.8	0.	-0.15487
8564	8.3197	5.7	0.	-3.2669
8565	8.3197	5.8	5.e-002	3.1633e-005
8566	8.3197	5.9	0.	-6.7851e-002
8567	8.6174	5.8	0.	-9.6093e-002
8568	8.5182	5.7	0.	-2.1864
8569	8.5182	5.8	5.e-002	2.7887e-005
8570	8.5182	5.9	0.	-4.9854e-002
8571	8.8159	5.8	0.	-6.6596e-002
8572	8.7167	5.7	0.	-1.1507
8573	8.7167	5.8	5.e-002	3.1097e-005
8574	8.7167	5.9	0.	-3.8347e-002
8575	9.0144	5.8	0.	-4.9376e-002
8576	8.9152	5.7	0.	-0.28833
8577	8.9152	5.8	5.e-002	2.8343e-005
8578	8.9152	5.9	0.	-3.0458e-002
8579	9.2129	5.8	0.	-3.8268e-002
8580	9.1136	5.7	0.	-5.3369e-002
8581	9.1136	5.8	5.e-002	2.8237e-005
8582	9.1136	5.9	0.	-2.4761e-002
8583	9.4114	5.8	0.	-3.0593e-002
8584	9.3121	5.7	0.	-2.0855e-002
8585	9.3121	5.8	5.e-002	2.2223e-005
8586	9.3121	5.9	0.	-2.0487e-002
8587	9.6098	5.8	0.	-2.5012e-002
8588	9.5106	5.7	0.	-1.0665e-002
8589	9.5106	5.8	5.e-002	2.2162e-005
8590	9.5106	5.9	0.	-1.7186e-002
8591	9.8083	5.8	0.	-2.0797e-002
8592	9.7091	5.7	0.	-6.2335e-003
8593	9.7091	5.8	5.e-002	1.7894e-005
8594	9.7091	5.9	0.	-1.4563e-002
8595	10.007	5.8	0.	-1.7522e-002
8596	9.9076	5.7	0.	-4.0597e-003
8597	9.9076	5.8	5.e-002	1.9363e-005
8598	9.9076	5.9	0.	-1.2455e-002
8599	10.205	5.8	0.	-1.4909e-002
8600	10.106	5.7	0.	-2.9616e-003
8601	10.106	5.8	5.e-002	1.6411e-005
8602	10.106	5.9	0.	-1.0735e-002
8603	10.404	5.8	0.	-1.2782e-002
8604	10.305	5.7	0.	-2.427e-003
8605	10.305	5.8	5.e-002	1.1838e-005
8606	10.305	5.9	0.	-9.2968e-003
8607	10.602	5.8	0.	-1.1026e-002
8608	10.503	5.7	0.	-2.2255e-003
8609	10.503	5.8	5.e-002	1.195e-005
8610	10.503	5.9	0.	-8.0973e-003
8611	10.801	5.8	0.	-9.5586e-003
8612	10.702	5.7	0.	-2.2223e-003
8613	10.702	5.8	5.e-002	1.0031e-005
8614	10.702	5.9	0.	-7.0823e-003
8615	10.999	5.8	0.	-8.2989e-003
8616	10.9	5.7	0.	-2.3446e-003
8617	10.9	5.8	5.e-002	7.937e-006
8618	10.9	5.9	0.	-6.2263e-003
8619	11.198	5.8	0.	-7.2026e-003
8620	11.098	5.7	0.	-2.5029e-003
8621	11.098	5.8	5.e-002	9.0113e-006
8622	11.098	5.9	0.	-5.4543e-003
8623	11.396	5.8	0.	-6.2573e-003
8624	11.297	5.7	0.	-2.7109e-003
8625	11.297	5.8	5.e-002	9.1631e-006
8626	11.297	5.9	0.	-4.7927e-003
8627	11.595	5.8	0.	-5.4363e-003
8628	11.495	5.7	0.	-2.9488e-003
8629	11.495	5.8	5.e-002	5.7662e-006
8630	11.495	5.9	0.	-4.219e-003
8631	11.793	5.8	0.	-4.6988e-003
8632	11.694	5.7	0.	-3.2053e-003
8633	11.694	5.8	5.e-002	3.3457e-006
8634	11.694	5.9	0.	-3.7234e-003
8635	11.992	5.8	0.	-4.0384e-003
8636	11.892	5.7	0.	-3.4286e-003
8637	11.892	5.8	5.e-002	3.6636e-006
8638	11.892	5.9	0.	-3.2517e-003
8639	12.19	5.8	0.	-3.4732e-003
8640	12.091	5.7	0.	-3.6763e-003
8641	12.091	5.8	5.e-002	3.3682e-006
8642	12.091	5.9	0.	-2.8551e-003
8643	12.389	5.8	0.	-2.9619e-003
8644	12.289	5.7	0.	-3.9453e-003
8645	12.289	5.8	5.e-002	3.3704e-006
8646	12.289	5.9	0.	-2.5274e-003
8647	12.587	5.8	0.	-2.4865e-003
8648	12.488	5.7	0.	-4.1709e-003
8649	12.488	5.8	5.e-002	4.4683e-006
8650	12.488	5.9	0.	-2.2002e-003
8651	12.786	5.8	0.	-2.0607e-003
8652	12.686	5.7	0.	-4.396e-003
8653	12.686	5.8	5.e-002	4.8906e-006
8654	12.686	5.9	0.	-1.9128e-003
8655	12.984	5.8	0.	-1.6779e-003
8656	12.885	5.7	0.	-4.6169e-003
8657	12.885	5.8	5.e-002	6.2259e-006
8658	12.885	5.9	0.	-1.655e-003
8659	13.183	5.8	0.	-1.3158e-003
8660	13.083	5.7	0.	-4.8372e-003
8661	13.083	5.8	5.e-002	6.4596e-006
8662	13.083	5.9	0.	-1.4293e-003
8663	13.381	5.8	0.	-9.7033e-004
8664	13.282	5.7	0.	-5.019e-003
8665	13.282	5.8	5.e-002	7.4045e-006
8666	13.282	5.9	0.	-1.1926e-003
8667	13.58	5.8	0.	-6.5472e-004
8668	13.48	5.7	0.	-5.2003e-003
8669	13.48	5.8	5.e-002	9.9449e-006
8670	13.48	5.9	0.	-9.808e-004
8671	13.778	5.8	0.	-3.6556e-004
8672	13.679	5.7	0.	-5.3799e-003
8673	13.679	5.8	5.e-002	9.4726e-006
8674	13.679	5.9	0.	-7.8661e-004
8675	13.977	5.8	0.	-8.3743e-005
8676	13.877	5.7	0.	-5.5603e-003
8677	13.877	5.8	5.e-002	9.7062e-006
8678	13.877	5.9	0.	-6.1154e-004
8679	14.175	5.8	0.	1.8706e-004
8680	14.076	5.7	0.	-5.7071e-003
8681	14.076	5.8	5.e-002	1.4581e-005
8682	14.076	5.9	0.	-4.1853e-004
8683	14.373	5.8	0.	4.2433e-004
8684	14.274	5.7	0.	-5.8707e-003
8685	14.274	5.8	5.e-002	1.3929e-005
8686	14.274	5.9	0.	-2.5391e-004
8687	14.572	5.8	0.	6.5384e-004
8688	14.473	5.7	0.	-6.0531e-003
8689	14.473	5.8	5.e-002	1.6748e-005
8690	14.473	5.9	0.	-1.165e-004
8691	14.77	5.8	0.	8.8531e-004
8692	14.671	5.7	0.	-6.2054e-003
8693	14.671	5.8	5.e-002	1.7431e-005
8694	14.671	5.9	0.	4.452e-005
8695	14.969	5.8	0.	1.1048e-003
8696	14.87	5.7	0.	-6.3629e-003
8697	14.87	5.8	5.e-002	1.524e-005
8698	14.87	5.9	0.	1.9478e-004
8699	15.167	5.8	0.	1.3144e-003
8700	15.068	5.7	0.	-6.5248e-003
8701	15.068	5.8	5.e-002	2.0398e-005
8702	15.068	5.9	0.	3.4042e-004
8703	15.366	5.8	0.	1.5287e-003
8704	15.267	5.7	0.	-6.6939e-003
8705	15.267	5.8	5.e-002	2.2639e-005
8706	15.267	5.9	0.	4.7994e-004
8707	15.564	5.8	0.	1.7484e-003
8708	15.465	5.7	0.	-6.8442e-003
8709	15.465	5.8	5.e-002	2.4033e-005
8710	15.465	5.9	0.	6.4296e-004
8711	15.763	5.8	0.	1.9621e-003
8712	15.664	5.7	0.	-7.0038e-003
8713	15.664	5.8	5.e-002	2.5422e-005
8714	15.664	5.9	0.	8.0178e-004
8715	15.961	5.8	0.	2.1717e-003
8716	15.862	5.7	0.	-7.174e-003
8717	15.862	5.8	5.e-002	2.2715e-005
8718	15.862	5.9	0.	9.6002e-004
8719	16.16	5.8	0.	2.3895e-003
8720	16.061	5.7	0.	-7.3561e-003
8721	16.061	5.8	5.e-002	2.3546e-005
8722	16.061	5.9	0.	1.1194e-003
8723	16.358	5.8	0.	2.6124e-003
8724	16.259	5.7	0.	-7.5257e-003
8725	16.259	5.8	5.e-002	2.0588e-005
8726	16.259	5.9	0.	1.3046e-003
8727	16.557	5.8	0.	2.8219e-003
8728	16.458	5.7	0.	-7.723e-003
8729	16.458	5.8	5.e-002	2.4031e-005
8730	16.458	5.9	0.	1.4825e-003
8731	16.755	5.8	0.	3.0375e-003
8732	16.656	5.7	0.	-7.95e-003
8733	16.656	5.8	5.e-002	2.1481e-005
8734	16.656	5.9	0.	1.654e-003
8735	16.954	5.8	0.	3.2666e-003
8736	16.855	5.7	0.	-8.1693e-003
8737	16.855	5.8	5.e-002	2.111e-005
8738	16.855	5.9	0.	1.8568e-003
8739	17.152	5.8	0.	3.4974e-003
8740	17.053	5.7	0.	-8.4105e-003
8741	17.053	5.8	5.e-002	2.4336e-005
8742	17.053	5.9	0.	2.0676e-003
8743	17.351	5.8	0.	3.7287e-003
8744	17.252	5.7	0.	-8.6746e-003
8745	17.252	5.8	5.e-002	2.1337e-005
8746	17.252	5.9	0.	2.2907e-003
8747	17.549	5.8	0.	3.9719e-003
8748	17.45	5.7	0.	-8.9664e-003
8749	17.45	5.8	5.e-002	2.3985e-005
8750	17.45	5.9	0.	2.525e-003
8751	17.748	5.8	0.	4.2277e-003
8752	17.648	5.7	0.	-9.2667e-003
8753	17.648	5.8	5.e-002	2.1179e-005
8754	17.648	5.9	0.	2.7957e-003
8755	17.946	5.8	0.	4.4836e-003
8756	17.847	5.7	0.	-9.6006e-003
8757	17.847	5.8	5.e-002	2.1347e-005
8758	17.847	5.9	0.	3.082e-003
8759	18.145	5.8	0.	4.7407e-003
8760	18.045	5.7	0.	-9.9713e-003
8761	18.045	5.8	5.e-002	1.7858e-005
8762	18.045	5.9	0.	3.3893e-003
8763	18.343	5.8	0.	5.007e-003
8764	18.244	5.7	0.	-1.0383e-002
8765	18.244	5.8	5.e-002	2.1727e-005
8766	18.244	5.9	0.	3.7207e-003
8767	18.542	5.8	0.	5.2765e-003
8768	18.442	5.7	0.	-1.0823e-002
8769	18.442	5.8	5.e-002	1.4892e-005
8770	18.442	5.9	0.	4.0967e-003
8771	18.74	5.8	0.	5.533e-003
8772	18.641	5.7	0.	-1.1323e-002
8773	18.641	5.8	5.e-002	1.2011e-005
8774	18.641	5.9	0.	4.4965e-003
8775	18.939	5.8	0.	5.7864e-003
8776	18.839	5.7	0.	-1.189e-002
8777	18.839	5.8	5.e-002	1.4944e-005
8778	18.839	5.9	0.	4.9236e-003
8779	19.137	5.8	0.	6.0362e-003
8780	19.038	5.7	0.	-1.2505e-002
8781	19.038	5.8	5.e-002	1.9855e-005
8782	19.038	5.9	0.	5.4081e-003
8783	19.336	5.8	0.	6.2675e-003
8784	19.236	5.7	0.	-1.3196e-002
8785	19.236	5.8	5.e-002	1.7115e-005
8786	19.236	5.9	0.	5.9394e-003
8787	19.534	5.8	0.	6.4748e-003
8788	19.435	5.7	0.	-1.3971e-002
8789	19.435	5.8	5.e-002	1.797e-005
8790	19.435	5.9	0.	6.5258e-003
8791	19.733	5.8	0.	6.6547e-003
8792	19.633	5.7	0.	-1.484e-002
8793	19.633	5.8	5.e-002	1.8749e-005
8794	19.633	5.9	0.	7.1722e-003
8795	19.931	5.8	0.	6.7949e-003
8796	19.832	5.7	0.	-1.5806e-002
8797	19.832	5.8	5.e-002	1.5155e-005
8798	19.832	5.9	0.	7.9042e-003
8799	20.13	5.8	0.	6.8743e-003
8800	20.03	5.7	0.	-1.6897e-002
8801	20.03	5.8	5.e-002	1.5497e-005
8802	20.03	5.9	0.	8.7173e-003
8803	20.328	5.8	0.	6.8743e-003
8804	20.229	5.7	0.	-1.8131e-002
8805	20.229	5.8	5.e-002	1.7376e-005
8806	20.229	5.9	0.	9.6288e-003
8807	20.527	5.8	0.	6.7771e-003
8808	20.427	5.7	0.	-1.9529e-002
8809	20.427	5.8	5.e-002	1.797e-005
8810	20.427	5.9	0.	1.0653e-002
8811	20.725	5.8	0.	6.5503e-003
8812	20.626	5.7	0.	-2.1104e-002
8813	20.626	5.8	5.e-002	1.911e-005
8814	20.626	5.9	0.	1.1824e-002
8815	20.923	5.8	0.	6.1485e-003
8816	20.824	5.7	0.	-2.2905e-002
8817	20.824	5.8	5.e-002	1.7729e-005
8818	20.824	5.9	0.	1.3149e-002
8819	21.122	5.8	0.	5.5335e-003
8820	21.023	5.7	0.	-2.4963e-002
8821	21.023	5.8	5.e-002	1.4545e-005
8822	21.023	5.9	0.	1.4664e-002
8823	21.32	5.8	0.	4.6427e-003
8824	21.221	5.7	0.	-2.7308e-002
8825	21.221	5.8	5.e-002	1.3151e-005
8826	21.221	5.9	0.	1.6431e-002
8827	21.519	5.8	0.	3.3957e-003
8828	21.42	5.7	0.	-3.0001e-002
8829	21.42	5.8	5.e-002	1.0508e-005
8830	21.42	5.9	0.	1.8487e-002
8831	21.717	5.8	0.	1.6894e-003
8832	21.618	5.7	0.	-3.3098e-002
8833	21.618	5.8	5.e-002	1.0857e-005
8834	21.618	5.9	0.	2.0925e-002
8835	21.916	5.8	0.	-6.1389e-004
8836	21.817	5.7	0.	-3.6679e-002
8837	21.817	5.8	5.e-002	8.3354e-006
8838	21.817	5.9	0.	2.3839e-002
8839	22.114	5.8	0.	-3.6993e-003
8840	22.015	5.7	0.	-4.0819e-002
8841	22.015	5.8	5.e-002	5.6701e-006
8842	22.015	5.9	0.	2.7394e-002
8843	22.313	5.8	0.	-7.8126e-003
8844	22.214	5.7	0.	-4.5642e-002
8845	22.214	5.8	5.e-002	6.2183e-006
8846	22.214	5.9	0.	3.1797e-002
8847	22.511	5.8	0.	-1.3351e-002
8848	22.412	5.7	0.	-5.1228e-002
8849	22.412	5.8	5.e-002	6.8681e-006
8850	22.412	5.9	0.	3.7413e-002
8851	22.71	5.8	0.	-2.0647e-002
8852	22.611	5.7	0.	-5.7841e-002
8853	22.611	5.8	5.e-002	5.852e-006
8854	22.611	5.9	0.	4.4667e-002
8855	22.908	5.8	0.	-3.1116e-002
8856	22.809	5.7	0.	-6.503e-002
8857	22.809	5.8	5.e-002	5.4323e-006
8858	22.809	5.9	0.	5.4876e-002
8859	23.107	5.8	0.	-4.3262e-002
8860	23.008	5.7	0.	-7.4898e-002
8861	23.008	5.8	5.e-002	7.7372e-006
8862	23.008	5.9	0.	6.7997e-002
8863	23.305	5.8	0.	-6.8716e-002
8864	23.206	5.7	0.	-7.8719e-002
8865	23.206	5.8	5.e-002	9.1466e-006
8866	23.206	5.9	0.	9.3825e-002
8867	23.504	5.8	0.	-7.4322e-002
8868	23.405	5.7	0.	-0.10653
8869	23.405	5.8	5.e-002	7.1271e-006
8870	23.405	5.9	0.	0.11168
8871	23.702	5.8	0.	-0.28063
8872	23.603	5.7	0.	-2.9996e-002
8873	23.603	5.8	5.e-002	6.6878e-006
8874	23.603	5.9	0.	0.23446
8875	23.802	5.7	0.	-0.41105
8876	23.802	5.8	5.e-002	1.7291e-005
8877	23.901	5.8	0.	-6.1615e-002
8878	23.802	5.9	0.	-1.2125e-002
8879	2.4644	5.6	0.	-11.207
8880	2.3652	5.5	0.	-13.53
8881	2.3652	5.6	5.e-002	-2.1862e-005
8882	2.2659	5.6	0.	2.4768
8883	2.6629	5.6	0.	-3.9075
8884	2.5636	5.5	0.	-2.7098
8885	2.5636	5.6	5.e-002	1.219e-005
8886	2.8614	5.6	0.	-2.264
8887	2.7621	5.5	0.	-3.1712
8888	2.7621	5.6	5.e-002	2.9375e-005
8889	3.0598	5.6	0.	-0.97527
8890	2.9606	5.5	0.	-1.3869
8891	2.9606	5.6	5.e-002	3.0711e-005
8892	3.2583	5.6	0.	-0.62534
8893	3.1591	5.5	0.	-0.91301
8894	3.1591	5.6	5.e-002	2.9795e-005
8895	3.4568	5.6	0.	-0.46188
8896	3.3576	5.5	0.	-0.6013
8897	3.3576	5.6	5.e-002	2.4973e-005
8898	3.6553	5.6	0.	-0.38958
8899	3.5561	5.5	0.	-0.46253
8900	3.5561	5.6	5.e-002	2.2393e-005
8901	3.8538	5.6	0.	-0.33517
8902	3.7545	5.5	0.	-0.37234
8903	3.7545	5.6	5.e-002	1.6689e-005
8904	4.0523	5.6	0.	-0.28764
8905	3.953	5.5	0.	-0.31307
8906	3.953	5.6	5.e-002	1.5486e-005
8907	4.2508	5.6	0.	-0.2445
8908	4.1515	5.5	0.	-0.2716
8909	4.1515	5.6	5.e-002	1.4218e-005
8910	4.4492	5.6	0.	-0.20859
8911	4.35	5.5	0.	-0.24686
8912	4.35	5.6	5.e-002	2.3891e-005
8913	4.6477	5.6	0.	-0.18437
8914	4.5485	5.5	0.	-0.2429
8915	4.5485	5.6	5.e-002	4.5376e-005
8916	4.8462	5.6	0.	-0.18123
8917	4.747	5.5	0.	-0.27738
8918	4.747	5.6	5.e-002	1.1684e-004
8919	5.0447	5.6	0.	-0.23358
8920	4.9455	5.5	0.	-0.43893
8921	4.9455	5.6	5.e-002	2.479e-004
8922	5.2432	5.6	0.	-0.68916
8923	5.1439	5.5	0.	-1.991
8924	5.1439	5.6	5.e-002	1.3239e-004
8925	5.4417	5.6	0.	-4.7209
8926	5.3424	5.5	0.	-8.3374
8927	5.3424	5.6	5.e-002	3.8234e-005
8928	5.6402	5.6	0.	-9.2107
8929	5.5409	5.5	0.	-13.955
8930	5.5409	5.6	5.e-002	2.1125e-005
8931	5.8386	5.6	0.	-12.491
8932	5.7394	5.5	0.	-18.048
8933	5.7394	5.6	5.e-002	2.1249e-005
8934	6.0371	5.6	0.	-14.694
8935	5.9379	5.5	0.	-20.814
8936	5.9379	5.6	5.e-002	1.2442e-005
8937	6.2356	5.6	0.	-16.011
8938	6.1364	5.5	0.	-22.483
8939	6.1364	5.6	5.e-002	1.8116e-005
8940	6.4341	5.6	0.	-16.613
8941	6.3348	5.5	0.	-23.266
8942	6.3348	5.6	5.e-002	1.5545e-005
8943	6.6326	5.6	0.	-16.651
8944	6.5333	5.5	0.	-23.348
8945	6.5333	5.6	5.e-002	1.2308e-005
8946	6.8311	5.6	0.	-16.254
8947	6.7318	5.5	0.	-22.887
8948	6.7318	5.6	5.e-002	8.7773e-006
8949	7.0295	5.6	0.	-15.527
8950	6.9303	5.5	0.	-22.014
8951	6.9303	5.6	5.e-002	1.3738e-005
8952	7.228	5.6	0.	-14.557
8953	7.1288	5.5	0.	-20.837
8954	7.1288	5.6	5.e-002	9.4956e-006
8955	7.4265	5.6	0.	-13.417
8956	7.3273	5.5	0.	-19.446
8957	7.3273	5.6	5.e-002	8.1956e-006
8958	7.625	5.6	0.	-12.162
8959	7.5258	5.5	0.	-17.912
8960	7.5258	5.6	5.e-002	7.331e-006
8961	7.8235	5.6	0.	-10.84
8962	7.7242	5.5	0.	-16.292
8963	7.7242	5.6	5.e-002	8.5823e-006
8964	8.022	5.6	0.	-9.4838
8965	7.9227	5.5	0.	-14.63
8966	7.9227	5.6	5.e-002	5.9569e-006
8967	8.2205	5.6	0.	-8.1222
8968	8.1212	5.5	0.	-12.961
8969	8.1212	5.6	5.e-002	7.1429e-006
8970	8.4189	5.6	0.	-6.7757
8971	8.3197	5.5	0.	-11.31
8972	8.3197	5.6	5.e-002	5.3115e-006
8973	8.6174	5.6	0.	-5.4596
8974	8.5182	5.5	0.	-9.6969
8975	8.5182	5.6	5.e-002	5.6e-006
8976	8.8159	5.6	0.	-4.1849
8977	8.7167	5.5	0.	-8.1359
8978	8.7167	5.6	5.e-002	5.0091e-006
8979	9.0144	5.6	0.	-2.9592
8980	8.9152	5.5	0.	-6.6363
8981	8.9152	5.6	5.e-002	5.1724e-006
8982	9.2129	5.6	0.	-1.7877
8983	9.1136	5.5	0.	-5.2041
8984	9.1136	5.6	5.e-002	3.9e-006
8985	9.4114	5.6	0.	-0.6748
8986	9.3121	5.5	0.	-3.8429
8987	9.3121	5.6	5.e-002	3.7259e-006
8988	9.6098	5.6	0.	7.913e-003
8989	9.5106	5.5	0.	-2.554
8990	9.5106	5.6	5.e-002	3.772e-006
8991	9.8083	5.6	0.	1.2125e-002
8992	9.7091	5.5	0.	-1.3372
8993	9.7091	5.6	5.e-002	3.622e-006
8994	10.007	5.6	0.	1.0904e-002
8995	9.9076	5.5	0.	-0.19156
8996	9.9076	5.6	5.e-002	3.3953e-006
8997	10.205	5.6	0.	9.234e-003
8998	10.106	5.5	0.	5.5752e-003
8999	10.106	5.6	5.e-002	3.368e-006
9000	10.404	5.6	0.	7.5281e-003
9001	10.305	5.5	0.	4.3945e-003
9002	10.305	5.6	5.e-002	3.5154e-006
9003	10.602	5.6	0.	5.8771e-003
9004	10.503	5.5	0.	3.2456e-003
9005	10.503	5.6	5.e-002	3.4831e-006
9006	10.801	5.6	0.	4.3097e-003
9007	10.702	5.5	0.	2.1707e-003
9008	10.702	5.6	5.e-002	3.4156e-006
9009	10.999	5.6	0.	2.8533e-003
9010	10.9	5.5	0.	1.1652e-003
9011	10.9	5.6	5.e-002	3.5168e-006
9012	11.198	5.6	0.	1.5085e-003
9013	11.098	5.5	0.	2.6976e-004
9014	11.098	5.6	5.e-002	4.1897e-006
9015	11.396	5.6	0.	2.5103e-004
9016	11.297	5.5	0.	-5.6531e-004
9017	11.297	5.6	5.e-002	4.4082e-006
9018	11.595	5.6	0.	-9.2536e-004
9019	11.495	5.5	0.	-1.3439e-003
9020	11.495	5.6	5.e-002	3.49e-006
9021	11.793	5.6	0.	-2.0042e-003
9022	11.694	5.5	0.	-2.0731e-003
9023	11.694	5.6	5.e-002	3.0107e-006
9024	11.992	5.6	0.	-3.0012e-003
9025	11.892	5.5	0.	-2.7121e-003
9026	11.892	5.6	5.e-002	3.4077e-006
9027	12.19	5.6	0.	-3.9546e-003
9028	12.091	5.5	0.	-3.3303e-003
9029	12.091	5.6	5.e-002	2.7374e-006
9030	12.389	5.6	0.	-4.8385e-003
9031	12.289	5.5	0.	-3.9314e-003
9032	12.289	5.6	5.e-002	3.4435e-006
9033	12.587	5.6	0.	-5.6496e-003
9034	12.488	5.5	0.	-4.4569e-003
9035	12.488	5.6	5.e-002	3.5289e-006
9036	12.786	5.6	0.	-6.4131e-003
9037	12.686	5.5	0.	-4.9535e-003
9038	12.686	5.6	5.e-002	4.4829e-006
9039	12.984	5.6	0.	-7.1352e-003
9040	12.885	5.5	0.	-5.4229e-003
9041	12.885	5.6	5.e-002	4.6046e-006
9042	13.183	5.6	0.	-7.8033e-003
9043	13.083	5.5	0.	-5.8712e-003
9044	13.083	5.6	5.e-002	4.3457e-006
9045	13.381	5.6	0.	-8.4212e-003
9046	13.282	5.5	0.	-6.2637e-003
9047	13.282	5.6	5.e-002	4.094e-006
9048	13.58	5.6	0.	-9.0117e-003
9049	13.48	5.5	0.	-6.6406e-003
9050	13.48	5.6	5.e-002	4.0155e-006
9051	13.778	5.6	0.	-9.5792e-003
9052	13.679	5.5	0.	-7.0031e-003
9053	13.679	5.6	5.e-002	3.694e-006
9054	13.977	5.6	0.	-1.011e-002
9055	13.877	5.5	0.	-7.3549e-003
9056	13.877	5.6	5.e-002	4.4139e-006
9057	14.175	5.6	0.	-1.0616e-002
9058	14.076	5.5	0.	-7.663e-003
9059	14.076	5.6	5.e-002	4.4141e-006
9060	14.373	5.6	0.	-1.1126e-002
9061	14.274	5.5	0.	-7.9807e-003
9062	14.274	5.6	5.e-002	4.8358e-006
9063	14.572	5.6	0.	-1.162e-002
9064	14.473	5.5	0.	-8.3102e-003
9065	14.473	5.6	5.e-002	5.0927e-006
9066	14.77	5.6	0.	-1.2091e-002
9067	14.671	5.5	0.	-8.6037e-003
9068	14.671	5.6	5.e-002	4.4913e-006
9069	14.969	5.6	0.	-1.2561e-002
9070	14.87	5.5	0.	-8.8978e-003
9071	14.87	5.6	5.e-002	5.0752e-006
9072	15.167	5.6	0.	-1.3033e-002
9073	15.068	5.5	0.	-9.1927e-003
9074	15.068	5.6	5.e-002	6.1909e-006
9075	15.366	5.6	0.	-1.3498e-002
9076	15.267	5.5	0.	-9.4914e-003
9077	15.267	5.6	5.e-002	5.0825e-006
9078	15.564	5.6	0.	-1.3958e-002
9079	15.465	5.5	0.	-9.771e-003
9080	15.465	5.6	5.e-002	4.9185e-006
9081	15.763	5.6	0.	-1.443e-002
9082	15.664	5.5	0.	-1.0056e-002
9083	15.664	5.6	5.e-002	5.0856e-006
9084	15.961	5.6	0.	-1.4919e-002
9085	15.862	5.5	0.	-1.0354e-002
9086	15.862	5.6	5.e-002	4.5931e-006
9087	16.16	5.6	0.	-1.5412e-002
9088	16.061	5.5	0.	-1.0663e-002
9089	16.061	5.6	5.e-002	3.9785e-006
9090	16.358	5.6	0.	-1.5923e-002
9091	16.259	5.5	0.	-1.096e-002
9092	16.259	5.6	5.e-002	5.5107e-006
9093	16.557	5.6	0.	-1.6473e-002
9094	16.458	5.5	0.	-1.1287e-002
9095	16.458	5.6	5.e-002	5.4424e-006
9096	16.755	5.6	0.	-1.7047e-002
9097	16.656	5.5	0.	-1.1645e-002
9098	16.656	5.6	5.e-002	5.4242e-006
9099	16.954	5.6	0.	-1.7643e-002
9100	16.855	5.5	0.	-1.1998e-002
9101	16.855	5.6	5.e-002	5.8805e-006
9102	17.152	5.6	0.	-1.828e-002
9103	17.053	5.5	0.	-1.2376e-002
9104	17.053	5.6	5.e-002	5.2968e-006
9105	17.351	5.6	0.	-1.8961e-002
9106	17.252	5.5	0.	-1.2779e-002
9107	17.252	5.6	5.e-002	5.5831e-006
9108	17.549	5.6	0.	-1.9682e-002
9109	17.45	5.5	0.	-1.3212e-002
9110	17.45	5.6	5.e-002	6.1505e-006
9111	17.748	5.6	0.	-2.0449e-002
9112	17.648	5.5	0.	-1.3659e-002
9113	17.648	5.6	5.e-002	5.3411e-006
9114	17.946	5.6	0.	-2.1276e-002
9115	17.847	5.5	0.	-1.4139e-002
9116	17.847	5.6	5.e-002	6.0197e-006
9117	18.145	5.6	0.	-2.2171e-002
9118	18.045	5.5	0.	-1.466e-002
9119	18.045	5.6	5.e-002	8.0229e-006
9120	18.343	5.6	0.	-2.3133e-002
9121	18.244	5.5	0.	-1.5224e-002
9122	18.244	5.6	5.e-002	6.7797e-006
9123	18.542	5.6	0.	-2.4171e-002
9124	18.442	5.5	0.	-1.5816e-002
9125	18.442	5.6	5.e-002	5.822e-006
9126	18.74	5.6	0.	-2.5308e-002
9127	18.641	5.5	0.	-1.6467e-002
9128	18.641	5.6	5.e-002	3.9894e-006
9129	18.939	5.6	0.	-2.6541e-002
9130	18.839	5.5	0.	-1.7183e-002
9131	18.839	5.6	5.e-002	4.5942e-006
9132	19.137	5.6	0.	-2.7875e-002
9133	19.038	5.5	0.	-1.7941e-002
9134	19.038	5.6	5.e-002	7.4156e-006
9135	19.336	5.6	0.	-2.9329e-002
9136	19.236	5.5	0.	-1.8764e-002
9137	19.236	5.6	5.e-002	6.6957e-006
9138	19.534	5.6	0.	-3.0915e-002
9139	19.435	5.5	0.	-1.9659e-002
9140	19.435	5.6	5.e-002	6.0846e-006
9141	19.733	5.6	0.	-3.2638e-002
9142	19.633	5.5	0.	-2.0629e-002
9143	19.633	5.6	5.e-002	6.6642e-006
9144	19.931	5.6	0.	-3.4516e-002
9145	19.832	5.5	0.	-2.1667e-002
9146	19.832	5.6	5.e-002	6.9669e-006
9147	20.13	5.6	0.	-3.6568e-002
9148	20.03	5.5	0.	-2.2796e-002
9149	20.03	5.6	5.e-002	4.3201e-006
9150	20.328	5.6	0.	-3.8814e-002
9151	20.229	5.5	0.	-2.4019e-002
9152	20.229	5.6	5.e-002	5.6394e-006
9153	20.527	5.6	0.	-4.1266e-002
9154	20.427	5.5	0.	-2.5342e-002
9155	20.427	5.6	5.e-002	8.6511e-006
9156	20.725	5.6	0.	-4.3949e-002
9157	20.626	5.5	0.	-2.6761e-002
9158	20.626	5.6	5.e-002	9.7428e-006
9159	20.923	5.6	0.	-4.6894e-002
9160	20.824	5.5	0.	-2.8299e-002
9161	20.824	5.6	5.e-002	8.3195e-006
9162	21.122	5.6	0.	-5.0119e-002
9163	21.023	5.5	0.	-2.9952e-002
9164	21.023	5.6	5.e-002	8.4619e-006
9165	21.32	5.6	0.	-5.3649e-002
9166	21.221	5.5	0.	-3.1712e-002
9167	21.221	5.6	5.e-002	7.7906e-006
9168	21.519	5.6	0.	-5.7518e-002
9169	21.42	5.5	0.	-3.3582e-002
9170	21.42	5.6	5.e-002	4.459e-006
9171	21.717	5.6	0.	-6.1756e-002
9172	21.618	5.5	0.	-3.5548e-002
9173	21.618	5.6	5.e-002	6.4358e-006
9174	21.916	5.6	0.	-6.6383e-002
9175	21.817	5.5	0.	-3.7582e-002
9176	21.817	5.6	5.e-002	6.0217e-006
9177	22.114	5.6	0.	-7.142e-002
9178	22.015	5.5	0.	-3.9625e-002
9179	22.015	5.6	5.e-002	5.9666e-006
9180	22.313	5.6	0.	-7.6854e-002
9181	22.214	5.5	0.	-4.1605e-002
9182	22.214	5.6	5.e-002	3.3994e-006
9183	22.511	5.6	0.	-8.2685e-002
9184	22.412	5.5	0.	-4.3319e-002
9185	22.412	5.6	5.e-002	4.031e-006
9186	22.71	5.6	0.	-8.8517e-002
9187	22.611	5.5	0.	-4.4631e-002
9188	22.611	5.6	5.e-002	5.4326e-006
9189	22.908	5.6	0.	-9.4869e-002
9190	22.809	5.5	0.	-4.435e-002
9191	22.809	5.6	5.e-002	5.5513e-006
9192	23.107	5.6	0.	-9.728e-002
9193	23.008	5.5	0.	-4.3989e-002
9194	23.008	5.6	5.e-002	7.9792e-006
9195	23.305	5.6	0.	-0.1071
9196	23.206	5.5	0.	-3.1126e-002
9197	23.206	5.6	5.e-002	6.6346e-006
9198	23.504	5.6	0.	-6.4428e-002
9199	23.405	5.5	0.	-4.129e-002
9200	23.405	5.6	5.e-002	6.4526e-006
9201	23.702	5.6	0.	-0.20383
9202	23.603	5.5	0.	0.10261
9203	23.603	5.6	5.e-002	7.846e-006
9204	23.802	5.5	0.	-0.21194
9205	23.802	5.6	5.e-002	1.6986e-005
9206	23.901	5.6	0.	2.1834e-002
9207	2.4644	5.4	0.	-7.9385
9208	2.3652	5.3	0.	-12.004
9209	2.3652	5.4	5.e-002	-1.336e-005
9210	2.2659	5.4	0.	0.34703
9211	2.6629	5.4	0.	-2.544
9212	2.5636	5.3	0.	-1.0036
9213	2.5636	5.4	5.e-002	2.9305e-005
9214	2.8614	5.4	0.	-2.2479
9215	2.7621	5.3	0.	-2.8131
9216	2.7621	5.4	5.e-002	5.5723e-005
9217	3.0598	5.4	0.	-1.2483
9218	2.9606	5.3	0.	-1.5875
9219	2.9606	5.4	5.e-002	6.7017e-005
9220	3.2583	5.4	0.	-0.86066
9221	3.1591	5.3	0.	-1.2863
9222	3.1591	5.4	5.e-002	6.5411e-005
9223	3.4568	5.4	0.	-0.60755
9224	3.3576	5.3	0.	-0.96572
9225	3.3576	5.4	5.e-002	6.7018e-005
9226	3.6553	5.4	0.	-0.46947
9227	3.5561	5.3	0.	-0.78821
9228	3.5561	5.4	5.e-002	7.3804e-005
9229	3.8538	5.4	0.	-0.38406
9230	3.7545	5.3	0.	-0.66466
9231	3.7545	5.4	5.e-002	7.491e-005
9232	4.0523	5.4	0.	-0.33615
9233	3.953	5.3	0.	-0.5933
9234	3.953	5.4	5.e-002	7.9299e-005
9235	4.2508	5.4	0.	-0.31734
9236	4.1515	5.3	0.	-0.56722
9237	4.1515	5.4	5.e-002	9.0272e-005
9238	4.4492	5.4	0.	-0.33125
9239	4.35	5.3	0.	-0.60074
9240	4.35	5.4	5.e-002	1.3803e-004
9241	4.6477	5.4	0.	-0.40276
9242	4.5485	5.3	0.	-0.75936
9243	4.5485	5.4	5.e-002	1.927e-004
9244	4.8462	5.4	0.	-0.66561
9245	4.747	5.3	0.	-1.4652
9246	4.747	5.4	5.e-002	2.5078e-004
9247	5.0447	5.4	0.	-2.8063
9248	4.9455	5.3	0.	-6.9039
9249	4.9455	5.4	5.e-002	2.0558e-004
9250	5.2432	5.4	0.	-10.591
9251	5.1439	5.3	0.	-16.546
9252	5.1439	5.4	5.e-002	1.4477e-004
9253	5.4417	5.4	0.	-17.595
9254	5.3424	5.3	0.	-24.4
9255	5.3424	5.4	5.e-002	7.5539e-005
9256	5.6402	5.4	0.	-22.781
9257	5.5409	5.3	0.	-30.166
9258	5.5409	5.4	5.e-002	4.3921e-005
9259	5.8386	5.4	0.	-26.355
9260	5.7394	5.3	0.	-34.107
9261	5.7394	5.4	5.e-002	3.1086e-005
9262	6.0371	5.4	0.	-28.585
9263	5.9379	5.3	0.	-36.525
9264	5.9379	5.4	5.e-002	1.5743e-005
9265	6.2356	5.4	0.	-29.721
9266	6.1364	5.3	0.	-37.704
9267	6.1364	5.4	5.e-002	1.3603e-005
9268	6.4341	5.4	0.	-29.984
9269	6.3348	5.3	0.	-37.893
9270	6.3348	5.4	5.e-002	1.5213e-005
9271	6.6326	5.4	0.	-29.567
9272	6.5333	5.3	0.	-37.309
9273	6.5333	5.4	5.e-002	1.3979e-005
9274	6.8311	5.4	0.	-28.63
9275	6.7318	5.3	0.	-36.135
9276	6.7318	5.4	5.e-002	1.1446e-005
9277	7.0295	5.4	0.	-27.308
9278	6.9303	5.3	0.	-34.523
9279	6.9303	5.4	5.e-002	1.298e-005
9280	7.228	5.4	0.	-25.71
9281	7.1288	5.3	0.	-32.6
9282	7.1288	5.4	5.e-002	7.6834e-006
9283	7.4265	5.4	0.	-23.925
9284	7.3273	5.3	0.	-30.467
9285	7.3273	5.4	5.e-002	9.6135e-006
9286	7.625	5.4	0.	-22.025
9287	7.5258	5.3	0.	-28.206
9288	7.5258	5.4	5.e-002	7.948e-006
9289	7.8235	5.4	0.	-20.065
9290	7.7242	5.3	0.	-25.882
9291	7.7242	5.4	5.e-002	6.4023e-006
9292	8.022	5.4	0.	-18.089
9293	7.9227	5.3	0.	-23.543
9294	7.9227	5.4	5.e-002	6.9622e-006
9295	8.2205	5.4	0.	-16.129
9296	8.1212	5.3	0.	-21.229
9297	8.1212	5.4	5.e-002	6.287e-006
9298	8.4189	5.4	0.	-14.211
9299	8.3197	5.3	0.	-18.968
9300	8.3197	5.4	5.e-002	6.1968e-006
9301	8.6174	5.4	0.	-12.353
9302	8.5182	5.3	0.	-16.779
9303	8.5182	5.4	5.e-002	5.7345e-006
9304	8.8159	5.4	0.	-10.567
9305	8.7167	5.3	0.	-14.678
9306	8.7167	5.4	5.e-002	5.8934e-006
9307	9.0144	5.4	0.	-8.8604
9308	8.9152	5.3	0.	-12.674
9309	8.9152	5.4	5.e-002	5.1946e-006
9310	9.2129	5.4	0.	-7.2387
9311	9.1136	5.3	0.	-10.772
9312	9.1136	5.4	5.e-002	4.3068e-006
9313	9.4114	5.4	0.	-5.704
9314	9.3121	5.3	0.	-8.9738
9315	9.3121	5.4	5.e-002	4.8001e-006
9316	9.6098	5.4	0.	-4.2563
9317	9.5106	5.3	0.	-7.2799
9318	9.5106	5.4	5.e-002	4.4127e-006
9319	9.8083	5.4	0.	-2.8943
9320	9.7091	5.3	0.	-5.6886
9321	9.7091	5.4	5.e-002	4.1065e-006
9322	10.007	5.4	0.	-1.616
9323	9.9076	5.3	0.	-4.1967
9324	9.9076	5.4	5.e-002	4.2024e-006
9325	10.205	5.4	0.	-0.42303
9326	10.106	5.3	0.	-2.8008
9327	10.106	5.4	5.e-002	4.2394e-006
9328	10.404	5.4	0.	-4.6809e-003
9329	10.305	5.3	0.	-1.4972
9330	10.305	5.4	5.e-002	4.5516e-006
9331	10.602	5.4	0.	-2.1208e-003
9332	10.503	5.3	0.	-0.29913
9333	10.503	5.4	5.e-002	4.3487e-006
9334	10.801	5.4	0.	-1.8511e-003
9335	10.702	5.3	0.	-9.0483e-003
9336	10.702	5.4	5.e-002	4.2445e-006
9337	10.999	5.4	0.	-1.9409e-003
9338	10.9	5.3	0.	-4.37e-003
9339	10.9	5.4	5.e-002	4.2055e-006
9340	11.198	5.4	0.	-2.1277e-003
9341	11.098	5.3	0.	-3.3094e-003
9342	11.098	5.4	5.e-002	4.8084e-006
9343	11.396	5.4	0.	-2.3594e-003
9344	11.297	5.3	0.	-2.9896e-003
9345	11.297	5.4	5.e-002	4.9455e-006
9346	11.595	5.4	0.	-2.6077e-003
9347	11.495	5.3	0.	-2.9316e-003
9348	11.495	5.4	5.e-002	4.1412e-006
9349	11.793	5.4	0.	-2.839e-003
9350	11.694	5.3	0.	-2.9915e-003
9351	11.694	5.4	5.e-002	4.0454e-006
9352	11.992	5.4	0.	-3.0574e-003
9353	11.892	5.3	0.	-3.0673e-003
9354	11.892	5.4	5.e-002	4.6289e-006
9355	12.19	5.4	0.	-3.2925e-003
9356	12.091	5.3	0.	-3.1953e-003
9357	12.091	5.4	5.e-002	3.9221e-006
9358	12.389	5.4	0.	-3.5119e-003
9359	12.289	5.3	0.	-3.3617e-003
9360	12.289	5.4	5.e-002	4.4737e-006
9361	12.587	5.4	0.	-3.7051e-003
9362	12.488	5.3	0.	-3.4959e-003
9363	12.488	5.4	5.e-002	4.3811e-006
9364	12.786	5.4	0.	-3.8939e-003
9365	12.686	5.3	0.	-3.637e-003
9366	12.686	5.4	5.e-002	5.8273e-006
9367	12.984	5.4	0.	-4.0787e-003
9368	12.885	5.3	0.	-3.7817e-003
9369	12.885	5.4	5.e-002	5.296e-006
9370	13.183	5.4	0.	-4.2427e-003
9371	13.083	5.3	0.	-3.9277e-003
9372	13.083	5.4	5.e-002	5.4232e-006
9373	13.381	5.4	0.	-4.3873e-003
9374	13.282	5.3	0.	-4.0402e-003
9375	13.282	5.4	5.e-002	5.1076e-006
9376	13.58	5.4	0.	-4.5304e-003
9377	13.48	5.3	0.	-4.1555e-003
9378	13.48	5.4	5.e-002	5.1954e-006
9379	13.778	5.4	0.	-4.6724e-003
9380	13.679	5.3	0.	-4.2716e-003
9381	13.679	5.4	5.e-002	5.063e-006
9382	13.977	5.4	0.	-4.7973e-003
9383	13.877	5.3	0.	-4.3893e-003
9384	13.877	5.4	5.e-002	5.237e-006
9385	14.175	5.4	0.	-4.9136e-003
9386	14.076	5.3	0.	-4.475e-003
9387	14.076	5.4	5.e-002	5.1607e-006
9388	14.373	5.4	0.	-5.0472e-003
9389	14.274	5.3	0.	-4.5783e-003
9390	14.274	5.4	5.e-002	5.8641e-006
9391	14.572	5.4	0.	-5.1742e-003
9392	14.473	5.3	0.	-4.7006e-003
9393	14.473	5.4	5.e-002	6.12e-006
9394	14.77	5.4	0.	-5.2876e-003
9395	14.671	5.3	0.	-4.7913e-003
9396	14.671	5.4	5.e-002	5.3125e-006
9397	14.969	5.4	0.	-5.4041e-003
9398	14.87	5.3	0.	-4.8871e-003
9399	14.87	5.4	5.e-002	5.7168e-006
9400	15.167	5.4	0.	-5.5235e-003
9401	15.068	5.3	0.	-4.9848e-003
9402	15.068	5.4	5.e-002	6.7332e-006
9403	15.366	5.4	0.	-5.6349e-003
9404	15.267	5.3	0.	-5.0864e-003
9405	15.267	5.4	5.e-002	6.1995e-006
9406	15.564	5.4	0.	-5.7382e-003
9407	15.465	5.3	0.	-5.1669e-003
9408	15.465	5.4	5.e-002	6.1036e-006
9409	15.763	5.4	0.	-5.8472e-003
9410	15.664	5.3	0.	-5.251e-003
9411	15.664	5.4	5.e-002	6.3609e-006
9412	15.961	5.4	0.	-5.9639e-003
9413	15.862	5.3	0.	-5.3419e-003
9414	15.862	5.4	5.e-002	6.3806e-006
9415	16.16	5.4	0.	-6.0747e-003
9416	16.061	5.3	0.	-5.4389e-003
9417	16.061	5.4	5.e-002	6.2168e-006
9418	16.358	5.4	0.	-6.1861e-003
9419	16.259	5.3	0.	-5.5158e-003
9420	16.259	5.4	5.e-002	7.0897e-006
9421	16.557	5.4	0.	-6.3186e-003
9422	16.458	5.3	0.	-5.6116e-003
9423	16.458	5.4	5.e-002	7.4675e-006
9424	16.755	5.4	0.	-6.4538e-003
9425	16.656	5.3	0.	-5.7284e-003
9426	16.656	5.4	5.e-002	6.2469e-006
9427	16.954	5.4	0.	-6.5874e-003
9428	16.855	5.3	0.	-5.8254e-003
9429	16.855	5.4	5.e-002	6.8343e-006
9430	17.152	5.4	0.	-6.7314e-003
9431	17.053	5.3	0.	-5.9318e-003
9432	17.053	5.4	5.e-002	5.7852e-006
9433	17.351	5.4	0.	-6.886e-003
9434	17.252	5.3	0.	-6.0466e-003
9435	17.252	5.4	5.e-002	7.7443e-006
9436	17.549	5.4	0.	-7.0438e-003
9437	17.45	5.3	0.	-6.1699e-003
9438	17.45	5.4	5.e-002	7.4162e-006
9439	17.748	5.4	0.	-7.2035e-003
9440	17.648	5.3	0.	-6.2834e-003
9441	17.648	5.4	5.e-002	6.8709e-006
9442	17.946	5.4	0.	-7.3786e-003
9443	17.847	5.3	0.	-6.4055e-003
9444	17.847	5.4	5.e-002	7.6045e-006
9445	18.145	5.4	0.	-7.5698e-003
9446	18.045	5.3	0.	-6.539e-003
9447	18.045	5.4	5.e-002	7.8124e-006
9448	18.343	5.4	0.	-7.7663e-003
9449	18.244	5.3	0.	-6.6828e-003
9450	18.244	5.4	5.e-002	7.0594e-006
9451	18.542	5.4	0.	-7.9737e-003
9452	18.442	5.3	0.	-6.8184e-003
9453	18.442	5.4	5.e-002	6.9359e-006
9454	18.74	5.4	0.	-8.2079e-003
9455	18.641	5.3	0.	-6.9717e-003
9456	18.641	5.4	5.e-002	4.9925e-006
9457	18.939	5.4	0.	-8.4546e-003
9458	18.839	5.3	0.	-7.1461e-003
9459	18.839	5.4	5.e-002	6.1236e-006
9460	19.137	5.4	0.	-8.7102e-003
9461	19.038	5.3	0.	-7.3102e-003
9462	19.038	5.4	5.e-002	8.2112e-006
9463	19.336	5.4	0.	-8.985e-003
9464	19.236	5.3	0.	-7.4839e-003
9465	19.236	5.4	5.e-002	8.4578e-006
9466	19.534	5.4	0.	-9.2775e-003
9467	19.435	5.3	0.	-7.6651e-003
9468	19.435	5.4	5.e-002	6.0839e-006
9469	19.733	5.4	0.	-9.5799e-003
9470	19.633	5.3	0.	-7.8524e-003
9471	19.633	5.4	5.e-002	7.2202e-006
9472	19.931	5.4	0.	-9.8925e-003
9473	19.832	5.3	0.	-8.026e-003
9474	19.832	5.4	5.e-002	9.285e-006
9475	20.13	5.4	0.	-1.022e-002
9476	20.03	5.3	0.	-8.2014e-003
9477	20.03	5.4	5.e-002	5.7549e-006
9478	20.328	5.4	0.	-1.0557e-002
9479	20.229	5.3	0.	-8.3705e-003
9480	20.229	5.4	5.e-002	6.5663e-006
9481	20.527	5.4	0.	-1.0893e-002
9482	20.427	5.3	0.	-8.5212e-003
9483	20.427	5.4	5.e-002	9.2609e-006
9484	20.725	5.4	0.	-1.1223e-002
9485	20.626	5.3	0.	-8.6363e-003
9486	20.626	5.4	5.e-002	1.1428e-005
9487	20.923	5.4	0.	-1.154e-002
9488	20.824	5.3	0.	-8.7172e-003
9489	20.824	5.4	5.e-002	9.9873e-006
9490	21.122	5.4	0.	-1.1819e-002
9491	21.023	5.3	0.	-8.738e-003
9492	21.023	5.4	5.e-002	9.1231e-006
9493	21.32	5.4	0.	-1.2036e-002
9494	21.221	5.3	0.	-8.6591e-003
9495	21.221	5.4	5.e-002	9.3031e-006
9496	21.519	5.4	0.	-1.2151e-002
9497	21.42	5.3	0.	-8.4493e-003
9498	21.42	5.4	5.e-002	6.4955e-006
9499	21.717	5.4	0.	-1.2104e-002
9500	21.618	5.3	0.	-8.0444e-003
9501	21.618	5.4	5.e-002	6.9921e-006
9502	21.916	5.4	0.	-1.1807e-002
9503	21.817	5.3	0.	-7.3627e-003
9504	21.817	5.4	5.e-002	5.2328e-006
9505	22.114	5.4	0.	-1.1128e-002
9506	22.015	5.3	0.	-6.2697e-003
9507	22.015	5.4	5.e-002	7.8952e-006
9508	22.313	5.4	0.	-9.8444e-003
9509	22.214	5.3	0.	-4.5853e-003
9510	22.214	5.4	5.e-002	6.6417e-006
9511	22.511	5.4	0.	-7.6748e-003
9512	22.412	5.3	0.	-1.9784e-003
9513	22.412	5.4	5.e-002	5.034e-006
9514	22.71	5.4	0.	-3.7893e-003
9515	22.611	5.3	0.	1.865e-003
9516	22.611	5.4	5.e-002	5.3263e-006
9517	22.908	5.4	0.	1.8232e-003
9518	22.809	5.3	0.	8.4497e-003
9519	22.809	5.4	5.e-002	7.3812e-006
9520	23.107	5.4	0.	1.5229e-002
9521	23.008	5.3	0.	1.6479e-002
9522	23.008	5.4	5.e-002	9.9719e-006
9523	23.305	5.4	0.	2.3651e-002
9524	23.206	5.3	0.	3.9978e-002
9525	23.206	5.4	5.e-002	8.7215e-006
9526	23.504	5.4	0.	0.10492
9527	23.405	5.3	0.	4.1256e-002
9528	23.405	5.4	5.e-002	1.1449e-005
9529	23.702	5.4	0.	2.9635e-002
9530	23.603	5.3	0.	0.21734
9531	23.603	5.4	5.e-002	1.284e-005
9532	23.802	5.3	0.	-5.3825e-002
9533	23.802	5.4	5.e-002	1.849e-005
9534	23.901	5.4	0.	0.23368
9535	2.4644	5.2	0.	-6.348
9536	2.3652	5.1	0.	-12.671
9537	2.3652	5.2	5.e-002	1.6122e-005
9538	2.2659	5.2	0.	0.67718
9539	2.6629	5.2	0.	-1.5969
9540	2.5636	5.1	0.	0.20936
9541	2.5636	5.2	5.e-002	6.3279e-005
9542	2.8614	5.2	0.	-2.2097
9543	2.7621	5.1	0.	-2.8372
9544	2.7621	5.2	5.e-002	1.0393e-004
9545	3.0598	5.2	0.	-1.6104
9546	2.9606	5.1	0.	-1.803
9547	2.9606	5.2	5.e-002	1.0714e-004
9548	3.2583	5.2	0.	-1.3827
9549	3.1591	5.1	0.	-1.7787
9550	3.1591	5.2	5.e-002	1.2521e-004
9551	3.4568	5.2	0.	-1.1609
9552	3.3576	5.1	0.	-1.5516
9553	3.3576	5.2	5.e-002	1.4015e-004
9554	3.6553	5.2	0.	-1.0201
9555	3.5561	5.1	0.	-1.4335
9556	3.5561	5.2	5.e-002	1.5194e-004
9557	3.8538	5.2	0.	-0.93051
9558	3.7545	5.1	0.	-1.3677
9559	3.7545	5.2	5.e-002	1.6327e-004
9560	4.0523	5.2	0.	-0.90365
9561	3.953	5.1	0.	-1.399
9562	3.953	5.2	5.e-002	1.8445e-004
9563	4.2508	5.2	0.	-0.96829
9564	4.1515	5.1	0.	-1.6143
9565	4.1515	5.2	5.e-002	2.0776e-004
9566	4.4492	5.2	0.	-1.2493
9567	4.35	5.1	0.	-2.4194
9568	4.35	5.2	5.e-002	2.3991e-004
9569	4.6477	5.2	0.	-2.5812
9570	4.5485	5.1	0.	-6.8936
9571	4.5485	5.2	5.e-002	3.1605e-004
9572	4.8462	5.2	0.	-10.398
9573	4.747	5.1	0.	-19.375
9574	4.747	5.2	5.e-002	2.3713e-004
9575	5.0447	5.2	0.	-21.459
9576	4.9455	5.1	0.	-31.378
9577	4.9455	5.2	5.e-002	2.2426e-004
9578	5.2432	5.2	0.	-30.385
9579	5.1439	5.1	0.	-40.672
9580	5.1439	5.2	5.e-002	1.051e-004
9581	5.4417	5.2	0.	-36.96
9582	5.3424	5.1	0.	-47.39
9583	5.3424	5.2	5.e-002	8.9721e-005
9584	5.6402	5.2	0.	-41.473
9585	5.5409	5.1	0.	-51.887
9586	5.5409	5.2	5.e-002	3.9819e-005
9587	5.8386	5.2	0.	-44.257
9588	5.7394	5.1	0.	-54.529
9589	5.7394	5.2	5.e-002	2.715e-005
9590	6.0371	5.2	0.	-45.625
9591	5.9379	5.1	0.	-55.658
9592	5.9379	5.2	5.e-002	2.6745e-005
9593	6.2356	5.2	0.	-45.858
9594	6.1364	5.1	0.	-55.576
9595	6.1364	5.2	5.e-002	2.1559e-005
9596	6.4341	5.2	0.	-45.201
9597	6.3348	5.1	0.	-54.545
9598	6.3348	5.2	5.e-002	2.2328e-005
9599	6.6326	5.2	0.	-43.86
9600	6.5333	5.1	0.	-52.79
9601	6.5333	5.2	5.e-002	1.561e-005
9602	6.8311	5.2	0.	-42.012
9603	6.7318	5.1	0.	-50.501
9604	6.7318	5.2	5.e-002	9.7929e-006
9605	7.0295	5.2	0.	-39.8
9606	6.9303	5.1	0.	-47.831
9607	6.9303	5.2	5.e-002	8.8506e-006
9608	7.228	5.2	0.	-37.342
9609	7.1288	5.1	0.	-44.91
9610	7.1288	5.2	5.e-002	9.5472e-006
9611	7.4265	5.2	0.	-34.733
9612	7.3273	5.1	0.	-41.84
9613	7.3273	5.2	5.e-002	8.4237e-006
9614	7.625	5.2	0.	-32.047
9615	7.5258	5.1	0.	-38.701
9616	7.5258	5.2	5.e-002	9.4093e-006
9617	7.8235	5.2	0.	-29.344
9618	7.7242	5.1	0.	-35.556
9619	7.7242	5.2	5.e-002	7.6484e-006
9620	8.022	5.2	0.	-26.667
9621	7.9227	5.1	0.	-32.454
9622	7.9227	5.2	5.e-002	6.6501e-006
9623	8.2205	5.2	0.	-24.05
9624	8.1212	5.1	0.	-29.43
9625	8.1212	5.2	5.e-002	6.0675e-006
9626	8.4189	5.2	0.	-21.517
9627	8.3197	5.1	0.	-26.511
9628	8.3197	5.2	5.e-002	6.6213e-006
9629	8.6174	5.2	0.	-19.086
9630	8.5182	5.1	0.	-23.713
9631	8.5182	5.2	5.e-002	5.7567e-006
9632	8.8159	5.2	0.	-16.766
9633	8.7167	5.1	0.	-21.05
9634	8.7167	5.2	5.e-002	5.5688e-006
9635	9.0144	5.2	0.	-14.566
9636	8.9152	5.1	0.	-18.526
9637	8.9152	5.2	5.e-002	5.138e-006
9638	9.2129	5.2	0.	-12.486
9639	9.1136	5.1	0.	-16.146
9640	9.1136	5.2	5.e-002	4.9713e-006
9641	9.4114	5.2	0.	-10.528
9642	9.3121	5.1	0.	-13.907
9643	9.3121	5.2	5.e-002	4.8661e-006
9644	9.6098	5.2	0.	-8.6902
9645	9.5106	5.1	0.	-11.808
9646	9.5106	5.2	5.e-002	4.684e-006
9647	9.8083	5.2	0.	-6.9682
9648	9.7091	5.1	0.	-9.844
9649	9.7091	5.2	5.e-002	4.66e-006
9650	10.007	5.2	0.	-5.3582
9651	9.9076	5.1	0.	-8.0099
9652	9.9076	5.2	5.e-002	4.848e-006
9653	10.205	5.2	0.	-3.8549
9654	10.106	5.1	0.	-6.2996
9655	10.106	5.2	5.e-002	4.3925e-006
9656	10.404	5.2	0.	-2.4534
9657	10.305	5.1	0.	-4.7063
9658	10.305	5.2	5.e-002	4.8595e-006
9659	10.602	5.2	0.	-1.1505
9660	10.503	5.1	0.	-3.2238
9661	10.503	5.2	5.e-002	4.7073e-006
9662	10.801	5.2	0.	-7.7385e-002
9663	10.702	5.1	0.	-1.846
9664	10.702	5.2	5.e-002	4.4663e-006
9665	10.999	5.2	0.	-9.5737e-003
9666	10.9	5.1	0.	-0.57906
9667	10.9	5.2	5.e-002	4.6694e-006
9668	11.198	5.2	0.	-5.303e-003
9669	11.098	5.1	0.	-2.2638e-002
9670	11.098	5.2	5.e-002	5.2418e-006
9671	11.396	5.2	0.	-4.0231e-003
9672	11.297	5.1	0.	-8.4097e-003
9673	11.297	5.2	5.e-002	5.2097e-006
9674	11.595	5.2	0.	-3.5227e-003
9675	11.495	5.1	0.	-5.4268e-003
9676	11.495	5.2	5.e-002	4.4049e-006
9677	11.793	5.2	0.	-3.3098e-003
9678	11.694	5.1	0.	-4.2574e-003
9679	11.694	5.2	5.e-002	4.5465e-006
9680	11.992	5.2	0.	-3.235e-003
9681	11.892	5.1	0.	-3.6577e-003
9682	11.892	5.2	5.e-002	5.0681e-006
9683	12.19	5.2	0.	-3.2616e-003
9684	12.091	5.1	0.	-3.3558e-003
9685	12.091	5.2	5.e-002	4.514e-006
9686	12.389	5.2	0.	-3.3245e-003
9687	12.289	5.1	0.	-3.2199e-003
9688	12.289	5.2	5.e-002	5.0953e-006
9689	12.587	5.2	0.	-3.3966e-003
9690	12.488	5.1	0.	-3.1274e-003
9691	12.488	5.2	5.e-002	4.952e-006
9692	12.786	5.2	0.	-3.4885e-003
9693	12.686	5.1	0.	-3.0905e-003
9694	12.686	5.2	5.e-002	6.3399e-006
9695	12.984	5.2	0.	-3.5921e-003
9696	12.885	5.1	0.	-3.0891e-003
9697	12.885	5.2	5.e-002	5.6156e-006
9698	13.183	5.2	0.	-3.6863e-003
9699	13.083	5.1	0.	-3.1119e-003
9700	13.083	5.2	5.e-002	5.8664e-006
9701	13.381	5.2	0.	-3.7704e-003
9702	13.282	5.1	0.	-3.117e-003
9703	13.282	5.2	5.e-002	5.4628e-006
9704	13.58	5.2	0.	-3.8601e-003
9705	13.48	5.1	0.	-3.1379e-003
9706	13.48	5.2	5.e-002	5.9088e-006
9707	13.778	5.2	0.	-3.9538e-003
9708	13.679	5.1	0.	-3.1684e-003
9709	13.679	5.2	5.e-002	5.8063e-006
9710	13.977	5.2	0.	-4.0347e-003
9711	13.877	5.1	0.	-3.2078e-003
9712	13.877	5.2	5.e-002	6.0813e-006
9713	14.175	5.2	0.	-4.1099e-003
9714	14.076	5.1	0.	-3.2209e-003
9715	14.076	5.2	5.e-002	5.6288e-006
9716	14.373	5.2	0.	-4.2045e-003
9717	14.274	5.1	0.	-3.255e-003
9718	14.274	5.2	5.e-002	6.495e-006
9719	14.572	5.2	0.	-4.2932e-003
9720	14.473	5.1	0.	-3.3118e-003
9721	14.473	5.2	5.e-002	6.5506e-006
9722	14.77	5.2	0.	-4.369e-003
9723	14.671	5.1	0.	-3.3387e-003
9724	14.671	5.2	5.e-002	5.8312e-006
9725	14.969	5.2	0.	-4.4487e-003
9726	14.87	5.1	0.	-3.3713e-003
9727	14.87	5.2	5.e-002	6.0127e-006
9728	15.167	5.2	0.	-4.5314e-003
9729	15.068	5.1	0.	-3.4072e-003
9730	15.068	5.2	5.e-002	7.0304e-006
9731	15.366	5.2	0.	-4.605e-003
9732	15.267	5.1	0.	-3.4473e-003
9733	15.267	5.2	5.e-002	6.5599e-006
9734	15.564	5.2	0.	-4.6693e-003
9735	15.465	5.1	0.	-3.4644e-003
9736	15.465	5.2	5.e-002	6.449e-006
9737	15.763	5.2	0.	-4.7385e-003
9738	15.664	5.1	0.	-3.4855e-003
9739	15.664	5.2	5.e-002	6.5366e-006
9740	15.961	5.2	0.	-4.8128e-003
9741	15.862	5.1	0.	-3.5102e-003
9742	15.862	5.2	5.e-002	6.929e-006
9743	16.16	5.2	0.	-4.8793e-003
9744	16.061	5.1	0.	-3.5389e-003
9745	16.061	5.2	5.e-002	7.2734e-006
9746	16.358	5.2	0.	-4.9444e-003
9747	16.259	5.1	0.	-3.5452e-003
9748	16.259	5.2	5.e-002	8.4124e-006
9749	16.557	5.2	0.	-5.0285e-003
9750	16.458	5.1	0.	-3.5666e-003
9751	16.458	5.2	5.e-002	7.8854e-006
9752	16.755	5.2	0.	-5.1115e-003
9753	16.656	5.1	0.	-3.6061e-003
9754	16.656	5.2	5.e-002	6.4215e-006
9755	16.954	5.2	0.	-5.186e-003
9756	16.855	5.1	0.	-3.6194e-003
9757	16.855	5.2	5.e-002	7.3229e-006
9758	17.152	5.2	0.	-5.2686e-003
9759	17.053	5.1	0.	-3.6364e-003
9760	17.053	5.2	5.e-002	6.9942e-006
9761	17.351	5.2	0.	-5.358e-003
9762	17.252	5.1	0.	-3.6583e-003
9763	17.252	5.2	5.e-002	7.9696e-006
9764	17.549	5.2	0.	-5.4437e-003
9765	17.45	5.1	0.	-3.6799e-003
9766	17.45	5.2	5.e-002	8.2945e-006
9767	17.748	5.2	0.	-5.5269e-003
9768	17.648	5.1	0.	-3.6851e-003
9769	17.648	5.2	5.e-002	7.2226e-006
9770	17.946	5.2	0.	-5.6157e-003
9771	17.847	5.1	0.	-3.6905e-003
9772	17.847	5.2	5.e-002	7.7917e-006
9773	18.145	5.2	0.	-5.7114e-003
9774	18.045	5.1	0.	-3.6964e-003
9775	18.045	5.2	5.e-002	7.8915e-006
9776	18.343	5.2	0.	-5.8051e-003
9777	18.244	5.1	0.	-3.7025e-003
9778	18.244	5.2	5.e-002	6.7529e-006
9779	18.542	5.2	0.	-5.8988e-003
9780	18.442	5.1	0.	-3.6897e-003
9781	18.442	5.2	5.e-002	7.1353e-006
9782	18.74	5.2	0.	-6.0064e-003
9783	18.641	5.1	0.	-3.6812e-003
9784	18.641	5.2	5.e-002	5.4153e-006
9785	18.939	5.2	0.	-6.1142e-003
9786	18.839	5.1	0.	-3.6775e-003
9787	18.839	5.2	5.e-002	7.1667e-006
9788	19.137	5.2	0.	-6.2149e-003
9789	19.038	5.1	0.	-3.6489e-003
9790	19.038	5.2	5.e-002	8.7461e-006
9791	19.336	5.2	0.	-6.3162e-003
9792	19.236	5.1	0.	-3.6097e-003
9793	19.236	5.2	5.e-002	8.9573e-006
9794	19.534	5.2	0.	-6.4165e-003
9795	19.435	5.1	0.	-3.5586e-003
9796	19.435	5.2	5.e-002	6.6242e-006
9797	19.733	5.2	0.	-6.5031e-003
9798	19.633	5.1	0.	-3.488e-003
9799	19.633	5.2	5.e-002	7.1051e-006
9800	19.931	5.2	0.	-6.5723e-003
9801	19.832	5.1	0.	-3.379e-003
9802	19.832	5.2	5.e-002	1.0125e-005
9803	20.13	5.2	0.	-6.6268e-003
9804	20.03	5.1	0.	-3.2412e-003
9805	20.03	5.2	5.e-002	6.2005e-006
9806	20.328	5.2	0.	-6.6543e-003
9807	20.229	5.1	0.	-3.0632e-003
9808	20.229	5.2	5.e-002	6.6402e-006
9809	20.527	5.2	0.	-6.6365e-003
9810	20.427	5.1	0.	-2.8275e-003
9811	20.427	5.2	5.e-002	9.6388e-006
9812	20.725	5.2	0.	-6.5638e-003
9813	20.626	5.1	0.	-2.5109e-003
9814	20.626	5.2	5.e-002	1.2119e-005
9815	20.923	5.2	0.	-6.4214e-003
9816	20.824	5.1	0.	-2.1089e-003
9817	20.824	5.2	5.e-002	1.0266e-005
9818	21.122	5.2	0.	-6.1703e-003
9819	21.023	5.1	0.	-1.5862e-003
9820	21.023	5.2	5.e-002	9.5126e-006
9821	21.32	5.2	0.	-5.7696e-003
9822	21.221	5.1	0.	-8.9354e-004
9823	21.221	5.2	5.e-002	1.0766e-005
9824	21.519	5.2	0.	-5.1669e-003
9825	21.42	5.1	0.	1.4088e-005
9826	21.42	5.2	5.e-002	7.3816e-006
9827	21.717	5.2	0.	-4.283e-003
9828	21.618	5.1	0.	1.2127e-003
9829	21.618	5.2	5.e-002	6.8976e-006
9830	21.916	5.2	0.	-3.0003e-003
9831	21.817	5.1	0.	2.8046e-003
9832	21.817	5.2	5.e-002	6.3686e-006
9833	22.114	5.2	0.	-1.1492e-003
9834	22.015	5.1	0.	4.9465e-003
9835	22.015	5.2	5.e-002	7.7247e-006
9836	22.313	5.2	0.	1.5374e-003
9837	22.214	5.1	0.	7.8476e-003
9838	22.214	5.2	5.e-002	6.7116e-006
9839	22.511	5.2	0.	5.3871e-003
9840	22.412	5.1	0.	1.1878e-002
9841	22.412	5.2	5.e-002	5.135e-006
9842	22.71	5.2	0.	1.1326e-002
9843	22.611	5.1	0.	1.739e-002
9844	22.611	5.2	5.e-002	5.9151e-006
9845	22.908	5.2	0.	1.9423e-002
9846	22.809	5.1	0.	2.5987e-002
9847	22.809	5.2	5.e-002	8.9489e-006
9848	23.107	5.2	0.	3.6033e-002
9849	23.008	5.1	0.	3.6408e-002
9850	23.008	5.2	5.e-002	1.1932e-005
9851	23.305	5.2	0.	4.9302e-002
9852	23.206	5.1	0.	6.3116e-002
9853	23.206	5.2	5.e-002	1.1087e-005
9854	23.504	5.2	0.	0.13652
9855	23.405	5.1	0.	6.8941e-002
9856	23.405	5.2	5.e-002	1.2517e-005
9857	23.702	5.2	0.	6.8763e-002
9858	23.603	5.1	0.	0.25266
9859	23.603	5.2	5.e-002	1.3975e-005
9860	23.802	5.1	0.	-4.2131e-003
9861	23.802	5.2	5.e-002	1.7596e-005
9862	23.901	5.2	0.	0.24081
9863	2.4644	5.	0.	-6.8596
9864	2.3652	4.9	0.	-12.477
9865	2.3652	5.	5.e-002	2.0733e-005
9866	2.2659	5.	0.	-2.0543
9867	2.6629	5.	0.	-1.1729
9868	2.5636	4.9	0.	0.90681
9869	2.5636	5.	5.e-002	1.253e-004
9870	2.8614	5.	0.	-2.468
9871	2.7621	4.9	0.	-3.1108
9872	2.7621	5.	5.e-002	1.6782e-004
9873	3.0598	5.	0.	-1.97
9874	2.9606	4.9	0.	-2.2699
9875	2.9606	5.	5.e-002	1.8626e-004
9876	3.2583	5.	0.	-1.952
9877	3.1591	4.9	0.	-2.3795
9878	3.1591	5.	5.e-002	2.2603e-004
9879	3.4568	5.	0.	-1.8619
9880	3.3576	4.9	0.	-2.3807
9881	3.3576	5.	5.e-002	2.3411e-004
9882	3.6553	5.	0.	-1.8731
9883	3.5561	4.9	0.	-2.5567
9884	3.5561	5.	5.e-002	2.5456e-004
9885	3.8538	5.	0.	-2.0188
9886	3.7545	4.9	0.	-3.017
9887	3.7545	5.	5.e-002	2.565e-004
9888	4.0523	5.	0.	-2.5016
9889	3.953	4.9	0.	-4.3879
9890	3.953	5.	5.e-002	3.5273e-004
9891	4.2508	5.	0.	-4.2912
9892	4.1515	4.9	0.	-10.28
9893	4.1515	5.	5.e-002	2.7237e-004
9894	4.4492	5.	0.	-12.901
9895	4.35	4.9	0.	-26.564
9896	4.35	5.	5.e-002	2.653e-004
9897	4.6477	5.	0.	-27.843
9898	4.5485	4.9	0.	-43.263
9899	4.5485	5.	5.e-002	2.385e-004
9900	4.8462	5.	0.	-40.785
9901	4.747	4.9	0.	-56.353
9902	4.747	5.	5.e-002	3.0595e-004
9903	5.0447	5.	0.	-50.638
9904	4.9455	4.9	0.	-65.929
9905	4.9455	5.	5.e-002	2.3445e-004
9906	5.2432	5.	0.	-57.673
9907	5.1439	4.9	0.	-72.489
9908	5.1439	5.	5.e-002	9.4782e-005
9909	5.4417	5.	0.	-62.3
9910	5.3424	4.9	0.	-76.534
9911	5.3424	5.	5.e-002	6.363e-005
9912	5.6402	5.	0.	-64.923
9913	5.5409	4.9	0.	-78.513
9914	5.5409	5.	5.e-002	4.3356e-005
9915	5.8386	5.	0.	-65.911
9916	5.7394	4.9	0.	-78.823
9917	5.7394	5.	5.e-002	4.4784e-005
9918	6.0371	5.	0.	-65.591
9919	5.9379	4.9	0.	-77.808
9920	5.9379	5.	5.e-002	2.1824e-005
9921	6.2356	5.	0.	-64.245
9922	6.1364	4.9	0.	-75.766
9923	6.1364	5.	5.e-002	1.6308e-005
9924	6.4341	5.	0.	-62.119
9925	6.3348	4.9	0.	-72.948
9926	6.3348	5.	5.e-002	1.7518e-005
9927	6.6326	5.	0.	-59.416
9928	6.5333	4.9	0.	-69.566
9929	6.5333	5.	5.e-002	1.0812e-005
9930	6.8311	5.	0.	-56.306
9931	6.7318	4.9	0.	-65.796
9932	6.7318	5.	5.e-002	1.3655e-005
9933	7.0295	5.	0.	-52.928
9934	6.9303	4.9	0.	-61.781
9935	6.9303	5.	5.e-002	8.4749e-006
9936	7.228	5.	0.	-49.394
9937	7.1288	4.9	0.	-57.637
9938	7.1288	5.	5.e-002	7.6748e-006
9939	7.4265	5.	0.	-45.793
9940	7.3273	4.9	0.	-53.453
9941	7.3273	5.	5.e-002	8.2124e-006
9942	7.625	5.	0.	-42.195
9943	7.5258	4.9	0.	-49.302
9944	7.5258	5.	5.e-002	7.5613e-006
9945	7.8235	5.	0.	-38.651
9946	7.7242	4.9	0.	-45.236
9947	7.7242	5.	5.e-002	7.264e-006
9948	8.022	5.	0.	-35.201
9949	7.9227	4.9	0.	-41.295
9950	7.9227	5.	5.e-002	6.4135e-006
9951	8.2205	5.	0.	-31.874
9952	8.1212	4.9	0.	-37.508
9953	8.1212	5.	5.e-002	6.2133e-006
9954	8.4189	5.	0.	-28.69
9955	8.3197	4.9	0.	-33.893
9956	8.3197	5.	5.e-002	6.1162e-006
9957	8.6174	5.	0.	-25.66
9958	8.5182	4.9	0.	-30.462
9959	8.5182	5.	5.e-002	6.1786e-006
9960	8.8159	5.	0.	-22.792
9961	8.7167	4.9	0.	-27.22
9962	8.7167	5.	5.e-002	5.1588e-006
9963	9.0144	5.	0.	-20.087
9964	8.9152	4.9	0.	-24.169
9965	8.9152	5.	5.e-002	4.7819e-006
9966	9.2129	5.	0.	-17.547
9967	9.1136	4.9	0.	-21.308
9968	9.1136	5.	5.e-002	5.1297e-006
9969	9.4114	5.	0.	-15.166
9970	9.3121	4.9	0.	-18.63
9971	9.3121	5.	5.e-002	5.0151e-006
9972	9.6098	5.	0.	-12.941
9973	9.5106	4.9	0.	-16.13
9974	9.5106	5.	5.e-002	5.0445e-006
9975	9.8083	5.	0.	-10.864
9976	9.7091	4.9	0.	-13.801
9977	9.7091	5.	5.e-002	4.4814e-006
9978	10.007	5.	0.	-8.9289
9979	9.9076	4.9	0.	-11.633
9980	9.9076	5.	5.e-002	4.9877e-006
9981	10.205	5.	0.	-7.128
9982	10.106	4.9	0.	-9.6171
9983	10.106	5.	5.e-002	4.8811e-006
9984	10.404	5.	0.	-5.4534
9985	10.305	4.9	0.	-7.7448
9986	10.305	5.	5.e-002	4.9747e-006
9987	10.602	5.	0.	-3.8972
9988	10.503	4.9	0.	-6.007
9989	10.503	5.	5.e-002	4.5908e-006
9990	10.801	5.	0.	-2.4523
9991	10.702	4.9	0.	-4.3942
9992	10.702	5.	5.e-002	4.6822e-006
9993	10.999	5.	0.	-1.1155
9994	10.9	4.9	0.	-2.8987
9995	10.9	5.	5.e-002	4.6751e-006
9996	11.198	5.	0.	-7.687e-002
9997	11.098	4.9	0.	-1.514
9998	11.098	5.	5.e-002	5.073e-006
9999	11.396	5.	0.	-1.2608e-002
10000	11.297	4.9	0.	-0.27844
10001	11.297	5.	5.e-002	5.0794e-006
10002	11.595	5.	0.	-6.8159e-003
10003	11.495	4.9	0.	-1.7819e-002
10004	11.495	5.	5.e-002	4.5748e-006
10005	11.793	5.	0.	-4.8061e-003
10006	11.694	4.9	0.	-8.0252e-003
10007	11.694	5.	5.e-002	4.6531e-006
10008	11.992	5.	0.	-3.8322e-003
10009	11.892	4.9	0.	-5.153e-003
10010	11.892	5.	5.e-002	5.294e-006
10011	12.19	5.	0.	-3.3105e-003
10012	12.091	4.9	0.	-3.8492e-003
10013	12.091	5.	5.e-002	4.7618e-006
10014	12.389	5.	0.	-2.9954e-003
10015	12.289	4.9	0.	-3.1532e-003
10016	12.289	5.	5.e-002	5.3554e-006
10017	12.587	5.	0.	-2.7846e-003
10018	12.488	4.9	0.	-2.697e-003
10019	12.488	5.	5.e-002	5.2635e-006
10020	12.786	5.	0.	-2.6517e-003
10021	12.686	4.9	0.	-2.4012e-003
10022	12.686	5.	5.e-002	6.6544e-006
10023	12.984	5.	0.	-2.5702e-003
10024	12.885	4.9	0.	-2.2007e-003
10025	12.885	5.	5.e-002	5.8588e-006
10026	13.183	5.	0.	-2.5063e-003
10027	13.083	4.9	0.	-2.0644e-003
10028	13.083	5.	5.e-002	5.8649e-006
10029	13.381	5.	0.	-2.4515e-003
10030	13.282	4.9	0.	-1.9357e-003
10031	13.282	5.	5.e-002	5.7349e-006
10032	13.58	5.	0.	-2.4168e-003
10033	13.48	4.9	0.	-1.8406e-003
10034	13.48	5.	5.e-002	5.961e-006
10035	13.778	5.	0.	-2.3968e-003
10036	13.679	4.9	0.	-1.7681e-003
10037	13.679	5.	5.e-002	5.707e-006
10038	13.977	5.	0.	-2.3723e-003
10039	13.877	4.9	0.	-1.7143e-003
10040	13.877	5.	5.e-002	6.1218e-006
10041	14.175	5.	0.	-2.3479e-003
10042	14.076	4.9	0.	-1.6404e-003
10043	14.076	5.	5.e-002	5.7279e-006
10044	14.373	5.	0.	-2.3479e-003
10045	14.274	4.9	0.	-1.593e-003
10046	14.274	5.	5.e-002	6.5789e-006
10047	14.572	5.	0.	-2.3466e-003
10048	14.473	4.9	0.	-1.5722e-003
10049	14.473	5.	5.e-002	6.9144e-006
10050	14.77	5.	0.	-2.3339e-003
10051	14.671	4.9	0.	-1.5253e-003
10052	14.671	5.	5.e-002	5.3143e-006
10053	14.969	5.	0.	-2.3261e-003
10054	14.87	4.9	0.	-1.4839e-003
10055	14.87	5.	5.e-002	5.9999e-006
10056	15.167	5.	0.	-2.3227e-003
10057	15.068	4.9	0.	-1.4482e-003
10058	15.068	5.	5.e-002	6.9464e-006
10059	15.366	5.	0.	-2.3098e-003
10060	15.267	4.9	0.	-1.4164e-003
10061	15.267	5.	5.e-002	6.3314e-006
10062	15.564	5.	0.	-2.2873e-003
10063	15.465	4.9	0.	-1.361e-003
10064	15.465	5.	5.e-002	6.7672e-006
10065	15.763	5.	0.	-2.2675e-003
10066	15.664	4.9	0.	-1.3087e-003
10067	15.664	5.	5.e-002	6.6074e-006
10068	15.961	5.	0.	-2.2502e-003
10069	15.862	4.9	0.	-1.2577e-003
10070	15.862	5.	5.e-002	7.0728e-006
10071	16.16	5.	0.	-2.2225e-003
10072	16.061	4.9	0.	-1.2091e-003
10073	16.061	5.	5.e-002	7.8012e-006
10074	16.358	5.	0.	-2.1893e-003
10075	16.259	4.9	0.	-1.1354e-003
10076	16.259	5.	5.e-002	8.9346e-006
10077	16.557	5.	0.	-2.1705e-003
10078	16.458	4.9	0.	-1.0734e-003
10079	16.458	5.	5.e-002	8.371e-006
10080	16.755	5.	0.	-2.1449e-003
10081	16.656	4.9	0.	-1.0244e-003
10082	16.656	5.	5.e-002	6.4818e-006
10083	16.954	5.	0.	-2.1057e-003
10084	16.855	4.9	0.	-9.4605e-004
10085	16.855	5.	5.e-002	7.4588e-006
10086	17.152	5.	0.	-2.0674e-003
10087	17.053	4.9	0.	-8.663e-004
10088	17.053	5.	5.e-002	6.8494e-006
10089	17.351	5.	0.	-2.0275e-003
10090	17.252	4.9	0.	-7.8389e-004
10091	17.252	5.	5.e-002	8.147e-006
10092	17.549	5.	0.	-1.9753e-003
10093	17.45	4.9	0.	-6.9697e-004
10094	17.45	5.	5.e-002	8.0008e-006
10095	17.748	5.	0.	-1.91e-003
10096	17.648	4.9	0.	-5.8339e-004
10097	17.648	5.	5.e-002	7.4774e-006
10098	17.946	5.	0.	-1.8405e-003
10099	17.847	4.9	0.	-4.6407e-004
10100	17.847	5.	5.e-002	7.1982e-006
10101	18.145	5.	0.	-1.7659e-003
10102	18.045	4.9	0.	-3.3642e-004
10103	18.045	5.	5.e-002	7.5804e-006
10104	18.343	5.	0.	-1.6755e-003
10105	18.244	4.9	0.	-1.9808e-004
10106	18.244	5.	5.e-002	6.3165e-006
10107	18.542	5.	0.	-1.5716e-003
10108	18.442	4.9	0.	-2.9362e-005
10109	18.442	5.	5.e-002	6.951e-006
10110	18.74	5.	0.	-1.4643e-003
10111	18.641	4.9	0.	1.4491e-004
10112	18.641	5.	5.e-002	4.9246e-006
10113	18.939	5.	0.	-1.3383e-003
10114	18.839	4.9	0.	3.3097e-004
10115	18.839	5.	5.e-002	6.4077e-006
10116	19.137	5.	0.	-1.1857e-003
10117	19.038	4.9	0.	5.5395e-004
10118	19.038	5.	5.e-002	8.2322e-006
10119	19.336	5.	0.	-1.012e-003
10120	19.236	4.9	0.	8.0456e-004
10121	19.236	5.	5.e-002	8.4762e-006
10122	19.534	5.	0.	-8.1023e-004
10123	19.435	4.9	0.	1.0844e-003
10124	19.435	5.	5.e-002	6.1866e-006
10125	19.733	5.	0.	-5.6696e-004
10126	19.633	4.9	0.	1.4072e-003
10127	19.633	5.	5.e-002	7.409e-006
10128	19.931	5.	0.	-2.7719e-004
10129	19.832	4.9	0.	1.7861e-003
10130	19.832	5.	5.e-002	1.0075e-005
10131	20.13	5.	0.	6.3204e-005
10132	20.03	4.9	0.	2.2209e-003
10133	20.03	5.	5.e-002	6.3633e-006
10134	20.328	5.	0.	4.7005e-004
10135	20.229	4.9	0.	2.7239e-003
10136	20.229	5.	5.e-002	7.0598e-006
10137	20.527	5.	0.	9.6511e-004
10138	20.427	4.9	0.	3.3153e-003
10139	20.427	5.	5.e-002	9.7732e-006
10140	20.725	5.	0.	1.5652e-003
10141	20.626	4.9	0.	4.0217e-003
10142	20.626	5.	5.e-002	1.1971e-005
10143	20.923	5.	0.	2.2942e-003
10144	20.824	4.9	0.	4.8548e-003
10145	20.824	5.	5.e-002	1.0379e-005
10146	21.122	5.	0.	3.1958e-003
10147	21.023	4.9	0.	5.8517e-003
10148	21.023	5.	5.e-002	9.5746e-006
10149	21.32	5.	0.	4.3212e-003
10150	21.221	4.9	0.	7.0711e-003
10151	21.221	5.	5.e-002	1.0338e-005
10152	21.519	5.	0.	5.7357e-003
10153	21.42	4.9	0.	8.5628e-003
10154	21.42	5.	5.e-002	6.9952e-006
10155	21.717	5.	0.	7.5341e-003
10156	21.618	4.9	0.	1.0413e-002
10157	21.618	5.	5.e-002	6.0511e-006
10158	21.916	5.	0.	9.8516e-003
10159	21.817	4.9	0.	1.2733e-002
10160	21.817	5.	5.e-002	5.3098e-006
10161	22.114	5.	0.	1.2874e-002
10162	22.015	4.9	0.	1.5698e-002
10163	22.015	5.	5.e-002	9.2964e-006
10164	22.313	5.	0.	1.6899e-002
10165	22.214	4.9	0.	1.9521e-002
10166	22.214	5.	5.e-002	6.742e-006
10167	22.511	5.	0.	2.2292e-002
10168	22.412	4.9	0.	2.4605e-002
10169	22.412	5.	5.e-002	5.9869e-006
10170	22.71	5.	0.	3.0029e-002
10171	22.611	4.9	0.	3.1323e-002
10172	22.611	5.	5.e-002	5.4228e-006
10173	22.908	5.	0.	4.0262e-002
10174	22.809	4.9	0.	4.1333e-002
10175	22.809	5.	5.e-002	8.1064e-006
10176	23.107	5.	0.	5.952e-002
10177	23.008	4.9	0.	5.3434e-002
10178	23.008	5.	5.e-002	1.3493e-005
10179	23.305	5.	0.	7.59e-002
10180	23.206	4.9	0.	8.2358e-002
10181	23.206	5.	5.e-002	1.0062e-005
10182	23.504	5.	0.	0.1691
10183	23.405	4.9	0.	9.0598e-002
10184	23.405	5.	5.e-002	1.3416e-005
10185	23.702	5.	0.	0.11153
10186	23.603	4.9	0.	0.28137
10187	23.603	5.	5.e-002	1.3329e-005
10188	23.802	4.9	0.	3.7476e-002
10189	23.802	5.	5.e-002	1.7879e-005
10190	23.901	5.	0.	0.26461
10191	2.4644	4.8	0.	-5.1743
10192	2.3652	4.7	0.	-23.109
10193	2.3652	4.8	5.e-002	1.1874e-004
10194	2.2659	4.8	0.	4.9391
10195	2.6629	4.8	0.	-1.0811
10196	2.5636	4.7	0.	0.79486
10197	2.5636	4.8	5.e-002	2.0382e-004
10198	2.8614	4.8	0.	-2.9039
10199	2.7621	4.7	0.	-3.3116
10200	2.7621	4.8	5.e-002	2.6897e-004
10201	3.0598	4.8	0.	-2.6549
10202	2.9606	4.7	0.	-3.1952
10203	2.9606	4.8	5.e-002	2.9689e-004
10204	3.2583	4.8	0.	-2.8139
10205	3.1591	4.7	0.	-3.4146
10206	3.1591	4.8	5.e-002	3.3019e-004
10207	3.4568	4.8	0.	-3.1772
10208	3.3576	4.7	0.	-3.9935
10209	3.3576	4.8	5.e-002	3.9958e-004
10210	3.6553	4.8	0.	-4.0809
10211	3.5561	4.7	0.	-5.8301
10212	3.5561	4.8	5.e-002	3.6785e-004
10213	3.8538	4.8	0.	-6.9304
10214	3.7545	4.7	0.	-13.197
10215	3.7545	4.8	5.e-002	3.55e-004
10216	4.0523	4.8	0.	-19.053
10217	3.953	4.7	0.	-37.41
10218	3.953	4.8	5.e-002	3.9684e-004
10219	4.2508	4.8	0.	-40.356
10220	4.1515	4.7	0.	-62.949
10221	4.1515	4.8	5.e-002	3.156e-004
10222	4.4492	4.8	0.	-58.539
10223	4.35	4.7	0.	-81.776
10224	4.35	4.8	5.e-002	3.4429e-004
10225	4.6477	4.8	0.	-72.057
10226	4.5485	4.7	0.	-94.799
10227	4.5485	4.8	5.e-002	1.8807e-004
10228	4.8462	4.8	0.	-81.567
10229	4.747	4.7	0.	-103.31
10230	4.747	4.8	5.e-002	1.4937e-004
10231	5.0447	4.8	0.	-87.79
10232	4.9455	4.7	0.	-108.32
10233	4.9455	4.8	5.e-002	1.544e-004
10234	5.2432	4.8	0.	-91.34
10235	5.1439	4.7	0.	-110.58
10236	5.1439	4.8	5.e-002	8.1531e-005
10237	5.4417	4.8	0.	-92.73
10238	5.3424	4.7	0.	-110.67
10239	5.3424	4.8	5.e-002	8.3252e-005
10240	5.6402	4.8	0.	-92.395
10241	5.5409	4.7	0.	-109.07
10242	5.5409	4.8	5.e-002	4.1477e-005
10243	5.8386	4.8	0.	-90.703
10244	5.7394	4.7	0.	-106.17
10245	5.7394	4.8	5.e-002	2.9647e-005
10246	6.0371	4.8	0.	-87.968
10247	5.9379	4.7	0.	-102.3
10248	5.9379	4.8	5.e-002	2.1803e-005
10249	6.2356	4.8	0.	-84.454
10250	6.1364	4.7	0.	-97.708
10251	6.1364	4.8	5.e-002	1.645e-005
10252	6.4341	4.8	0.	-80.381
10253	6.3348	4.7	0.	-92.629
10254	6.3348	4.8	5.e-002	1.3856e-005
10255	6.6326	4.8	0.	-75.934
10256	6.5333	4.7	0.	-87.242
10257	6.5333	4.8	5.e-002	1.023e-005
10258	6.8311	4.8	0.	-71.259
10259	6.7318	4.7	0.	-81.692
10260	6.7318	4.8	5.e-002	5.6556e-006
10261	7.0295	4.8	0.	-66.478
10262	6.9303	4.7	0.	-76.095
10263	6.9303	4.8	5.e-002	8.0648e-006
10264	7.228	4.8	0.	-61.684
10265	7.1288	4.7	0.	-70.545
10266	7.1288	4.8	5.e-002	5.8923e-006
10267	7.4265	4.8	0.	-56.949
10268	7.3273	4.7	0.	-65.11
10269	7.3273	4.8	5.e-002	7.5249e-006
10270	7.625	4.8	0.	-52.33
10271	7.5258	4.7	0.	-59.842
10272	7.5258	4.8	5.e-002	4.1207e-006
10273	7.8235	4.8	0.	-47.867
10274	7.7242	4.7	0.	-54.778
10275	7.7242	4.8	5.e-002	5.9868e-006
10276	8.022	4.8	0.	-43.588
10277	7.9227	4.7	0.	-49.944
10278	7.9227	4.8	5.e-002	6.3055e-006
10279	8.2205	4.8	0.	-39.512
10280	8.1212	4.7	0.	-45.356
10281	8.1212	4.8	5.e-002	5.9488e-006
10282	8.4189	4.8	0.	-35.649
10283	8.3197	4.7	0.	-41.022
10284	8.3197	4.8	5.e-002	5.8036e-006
10285	8.6174	4.8	0.	-32.006
10286	8.5182	4.7	0.	-36.944
10287	8.5182	4.8	5.e-002	5.4875e-006
10288	8.8159	4.8	0.	-28.581
10289	8.7167	4.7	0.	-33.119
10290	8.7167	4.8	5.e-002	5.5788e-006
10291	9.0144	4.8	0.	-25.372
10292	8.9152	4.7	0.	-29.541
10293	8.9152	4.8	5.e-002	5.2627e-006
10294	9.2129	4.8	0.	-22.372
10295	9.1136	4.7	0.	-26.204
10296	9.1136	4.8	5.e-002	4.4028e-006
10297	9.4114	4.8	0.	-19.575
10298	9.3121	4.7	0.	-23.095
10299	9.3121	4.8	5.e-002	4.4493e-006
10300	9.6098	4.8	0.	-16.97
10301	9.5106	4.7	0.	-20.205
10302	9.5106	4.8	5.e-002	4.5735e-006
10303	9.8083	4.8	0.	-14.548
10304	9.7091	4.7	0.	-17.521
10305	9.7091	4.8	5.e-002	4.7842e-006
10306	10.007	4.8	0.	-12.299
10307	9.9076	4.7	0.	-15.031
10308	9.9076	4.8	5.e-002	4.747e-006
10309	10.205	4.8	0.	-10.212
10310	10.106	4.7	0.	-12.723
10311	10.106	4.8	5.e-002	4.5872e-006
10312	10.404	4.8	0.	-8.2755
10313	10.305	4.7	0.	-10.585
10314	10.305	4.8	5.e-002	4.8584e-006
10315	10.602	4.8	0.	-6.4806
10316	10.503	4.7	0.	-8.6051
10317	10.503	4.8	5.e-002	4.9137e-006
10318	10.801	4.8	0.	-4.8169
10319	10.702	4.7	0.	-6.7715
10320	10.702	4.8	5.e-002	4.7015e-006
10321	10.999	4.8	0.	-3.2751
10322	10.9	4.7	0.	-5.0738
10323	10.9	4.8	5.e-002	4.534e-006
10324	11.198	4.8	0.	-1.8478
10325	11.098	4.7	0.	-3.5017
10326	11.098	4.8	5.e-002	4.8849e-006
10327	11.396	4.8	0.	-0.5444
10328	11.297	4.7	0.	-2.047
10329	11.297	4.8	5.e-002	4.8487e-006
10330	11.595	4.8	0.	-2.467e-002
10331	11.495	4.7	0.	-0.71207
10332	11.495	4.8	5.e-002	4.1437e-006
10333	11.793	4.8	0.	-8.9512e-003
10334	11.694	4.7	0.	-3.0771e-002
10335	11.694	4.8	5.e-002	4.3297e-006
10336	11.992	4.8	0.	-5.2511e-003
10337	11.892	4.7	0.	-9.2992e-003
10338	11.892	4.8	5.e-002	4.8657e-006
10339	12.19	4.8	0.	-3.6681e-003
10340	12.091	4.7	0.	-5.0447e-003
10341	12.091	4.8	5.e-002	4.6133e-006
10342	12.389	4.8	0.	-2.8053e-003
10343	12.289	4.7	0.	-3.296e-003
10344	12.289	4.8	5.e-002	4.8742e-006
10345	12.587	4.8	0.	-2.2606e-003
10346	12.488	4.7	0.	-2.3249e-003
10347	12.488	4.8	5.e-002	4.9537e-006
10348	12.786	4.8	0.	-1.9006e-003
10349	12.686	4.7	0.	-1.7255e-003
10350	12.686	4.8	5.e-002	6.2286e-006
10351	12.984	4.8	0.	-1.6511e-003
10352	12.885	4.7	0.	-1.323e-003
10353	12.885	4.8	5.e-002	5.7967e-006
10354	13.183	4.8	0.	-1.4562e-003
10355	13.083	4.7	0.	-1.0409e-003
10356	13.083	4.8	5.e-002	5.6082e-006
10357	13.381	4.8	0.	-1.2934e-003
10358	13.282	4.7	0.	-7.9818e-004
10359	13.282	4.8	5.e-002	5.2937e-006
10360	13.58	4.8	0.	-1.1662e-003
10361	13.48	4.7	0.	-6.085e-004
10362	13.48	4.8	5.e-002	5.7915e-006
10363	13.778	4.8	0.	-1.0653e-003
10364	13.679	4.7	0.	-4.5614e-004
10365	13.679	4.8	5.e-002	5.4922e-006
10366	13.977	4.8	0.	-9.671e-004
10367	13.877	4.7	0.	-3.3211e-004
10368	13.877	4.8	5.e-002	5.7608e-006
10369	14.175	4.8	0.	-8.7482e-004
10370	14.076	4.7	0.	-1.9318e-004
10371	14.076	4.8	5.e-002	5.4541e-006
10372	14.373	4.8	0.	-8.1101e-004
10373	14.274	4.7	0.	-8.6231e-005
10374	14.274	4.8	5.e-002	6.1412e-006
10375	14.572	4.8	0.	-7.4866e-004
10376	14.473	4.7	0.	-8.4981e-006
10377	14.473	4.8	5.e-002	6.1926e-006
10378	14.77	4.8	0.	-6.7698e-004
10379	14.671	4.7	0.	9.3234e-005
10380	14.671	4.8	5.e-002	4.5698e-006
10381	14.969	4.8	0.	-6.1143e-004
10382	14.87	4.7	0.	1.8793e-004
10383	14.87	4.8	5.e-002	5.5125e-006
10384	15.167	4.8	0.	-5.5097e-004
10385	15.068	4.7	0.	2.765e-004
10386	15.068	4.8	5.e-002	6.3725e-006
10387	15.366	4.8	0.	-4.8032e-004
10388	15.267	4.7	0.	3.6189e-004
10389	15.267	4.8	5.e-002	5.7089e-006
10390	15.564	4.8	0.	-3.9875e-004
10391	15.465	4.7	0.	4.6969e-004
10392	15.465	4.8	5.e-002	6.1731e-006
10393	15.763	4.8	0.	-3.1886e-004
10394	15.664	4.7	0.	5.7648e-004
10395	15.664	4.8	5.e-002	6.373e-006
10396	15.961	4.8	0.	-2.4029e-004
10397	15.862	4.7	0.	6.8232e-004
10398	15.862	4.8	5.e-002	6.6914e-006
10399	16.16	4.8	0.	-1.4941e-004
10400	16.061	4.7	0.	7.8733e-004
10401	16.061	4.8	5.e-002	7.6213e-006
10402	16.358	4.8	0.	-5.0992e-005
10403	16.259	4.7	0.	9.2193e-004
10404	16.259	4.8	5.e-002	8.8344e-006
10405	16.557	4.8	0.	3.699e-005
10406	16.458	4.7	0.	1.0442e-003
10407	16.458	4.8	5.e-002	7.523e-006
10408	16.755	4.8	0.	1.3439e-004
10409	16.656	4.7	0.	1.1586e-003
10410	16.656	4.8	5.e-002	6.0931e-006
10411	16.954	4.8	0.	2.4853e-004
10412	16.855	4.7	0.	1.3034e-003
10413	16.855	4.8	5.e-002	7.0015e-006
10414	17.152	4.8	0.	3.6736e-004
10415	17.053	4.7	0.	1.4541e-003
10416	17.053	4.8	5.e-002	6.8064e-006
10417	17.351	4.8	0.	4.9134e-004
10418	17.252	4.7	0.	1.6112e-003
10419	17.252	4.8	5.e-002	7.703e-006
10420	17.549	4.8	0.	6.3361e-004
10421	17.45	4.7	0.	1.7775e-003
10422	17.45	4.8	5.e-002	6.9306e-006
10423	17.748	4.8	0.	7.9469e-004
10424	17.648	4.7	0.	1.9738e-003
10425	17.648	4.8	5.e-002	6.3737e-006
10426	17.946	4.8	0.	9.6509e-004
10427	17.847	4.7	0.	2.1826e-003
10428	17.847	4.8	5.e-002	6.3545e-006
10429	18.145	4.8	0.	1.1487e-003
10430	18.045	4.7	0.	2.4055e-003
10431	18.045	4.8	5.e-002	5.9652e-006
10432	18.343	4.8	0.	1.3567e-003
10433	18.244	4.7	0.	2.6449e-003
10434	18.244	4.8	5.e-002	5.1232e-006
10435	18.542	4.8	0.	1.5864e-003
10436	18.442	4.7	0.	2.9224e-003
10437	18.442	4.8	5.e-002	5.7125e-006
10438	18.74	4.8	0.	1.829e-003
10439	18.641	4.7	0.	3.2119e-003
10440	18.641	4.8	5.e-002	4.0433e-006
10441	18.939	4.8	0.	2.1003e-003
10442	18.839	4.7	0.	3.5222e-003
10443	18.839	4.8	5.e-002	6.2642e-006
10444	19.137	4.8	0.	2.4084e-003
10445	19.038	4.7	0.	3.8791e-003
10446	19.038	4.8	5.e-002	8.3937e-006
10447	19.336	4.8	0.	2.7507e-003
10448	19.236	4.7	0.	4.2731e-003
10449	19.236	4.8	5.e-002	7.331e-006
10450	19.534	4.8	0.	3.1354e-003
10451	19.435	4.7	0.	4.7088e-003
10452	19.435	4.8	5.e-002	5.1679e-006
10453	19.733	4.8	0.	3.5759e-003
10454	19.633	4.7	0.	5.1971e-003
10455	19.633	4.8	5.e-002	6.9325e-006
10456	19.931	4.8	0.	4.0795e-003
10457	19.832	4.7	0.	5.7557e-003
10458	19.832	4.8	5.e-002	8.9688e-006
10459	20.13	4.8	0.	4.654e-003
10460	20.03	4.7	0.	6.3856e-003
10461	20.03	4.8	5.e-002	5.7042e-006
10462	20.328	4.8	0.	5.3156e-003
10463	20.229	4.7	0.	7.1012e-003
10464	20.229	4.8	5.e-002	6.5178e-006
10465	20.527	4.8	0.	6.0887e-003
10466	20.427	4.7	0.	7.92e-003
10467	20.427	4.8	5.e-002	8.865e-006
10468	20.725	4.8	0.	6.9942e-003
10469	20.626	4.7	0.	8.8787e-003
10470	20.626	4.8	5.e-002	1.0386e-005
10471	20.923	4.8	0.	8.0559e-003
10472	20.824	4.7	0.	9.983e-003
10473	20.824	4.8	5.e-002	1.002e-005
10474	21.122	4.8	0.	9.3248e-003
10475	21.023	4.7	0.	1.1277e-002
10476	21.023	4.8	5.e-002	8.802e-006
10477	21.32	4.8	0.	1.0857e-002
10478	21.221	4.7	0.	1.2823e-002
10479	21.221	4.8	5.e-002	9.6203e-006
10480	21.519	4.8	0.	1.2719e-002
10481	21.42	4.7	0.	1.4672e-002
10482	21.42	4.8	5.e-002	5.1866e-006
10483	21.717	4.8	0.	1.5012e-002
10484	21.618	4.7	0.	1.6916e-002
10485	21.618	4.8	5.e-002	5.4653e-006
10486	21.916	4.8	0.	1.7882e-002
10487	21.817	4.7	0.	1.9671e-002
10488	21.817	4.8	5.e-002	4.3906e-006
10489	22.114	4.8	0.	2.1521e-002
10490	22.015	4.7	0.	2.3115e-002
10491	22.015	4.8	5.e-002	7.7424e-006
10492	22.313	4.8	0.	2.6236e-002
10493	22.214	4.7	0.	2.7472e-002
10494	22.214	4.8	5.e-002	4.8785e-006
10495	22.511	4.8	0.	3.2409e-002
10496	22.412	4.7	0.	3.3152e-002
10497	22.412	4.8	5.e-002	5.5197e-006
10498	22.71	4.8	0.	4.1039e-002
10499	22.611	4.7	0.	4.0547e-002
10500	22.611	4.8	5.e-002	4.9865e-006
10501	22.908	4.8	0.	5.2306e-002
10502	22.809	4.7	0.	5.1343e-002
10503	22.809	4.8	5.e-002	8.6234e-006
10504	23.107	4.8	0.	7.2874e-002
10505	23.008	4.7	0.	6.4362e-002
10506	23.008	4.8	5.e-002	1.1965e-005
10507	23.305	4.8	0.	9.0748e-002
10508	23.206	4.7	0.	9.456e-002
10509	23.206	4.8	5.e-002	1.0745e-005
10510	23.504	4.8	0.	0.18707
10511	23.405	4.7	0.	0.10416
10512	23.405	4.8	5.e-002	1.1281e-005
10513	23.702	4.8	0.	0.13562
10514	23.603	4.7	0.	0.2994
10515	23.603	4.8	5.e-002	1.1547e-005
10516	23.802	4.7	0.	6.5278e-002
10517	23.802	4.8	5.e-002	1.4663e-005
10518	23.901	4.8	0.	0.27374
10519	2.4644	4.6	0.	-17.525
10520	2.3652	4.5	0.	-6.1187
10521	2.3652	4.6	5.e-002	2.4885e-004
10522	2.2659	4.6	0.	-27.148
10523	2.6629	4.6	0.	-1.4304
10524	2.5636	4.5	0.	5.4326
10525	2.5636	4.6	5.e-002	3.8223e-004
10526	2.8614	4.6	0.	-3.5389
10527	2.7621	4.5	0.	-9.6723
10528	2.7621	4.6	5.e-002	4.4847e-004
10529	3.0598	4.6	0.	-3.8921
10530	2.9606	4.5	0.	-3.3845
10531	2.9606	4.6	5.e-002	4.8422e-004
10532	3.2583	4.6	0.	-4.6012
10533	3.1591	4.5	0.	-5.7911
10534	3.1591	4.6	5.e-002	5.282e-004
10535	3.4568	4.6	0.	-7.1267
10536	3.3576	4.5	0.	-9.5535
10537	3.3576	4.6	5.e-002	5.0227e-004
10538	3.6553	4.6	0.	-19.716
10539	3.5561	4.5	0.	-34.967
10540	3.5561	4.6	5.e-002	4.685e-004
10541	3.8538	4.6	0.	-54.586
10542	3.7545	4.5	0.	-82.598
10543	3.7545	4.6	5.e-002	3.1109e-004
10544	4.0523	4.6	0.	-84.773
10545	3.953	4.5	0.	-116.37
10546	3.953	4.6	5.e-002	3.4126e-004
10547	4.2508	4.6	0.	-105.21
10548	4.1515	4.5	0.	-137.28
10549	4.1515	4.6	5.e-002	3.0813e-004
10550	4.4492	4.6	0.	-118.34
10551	4.35	4.5	0.	-149.41
10552	4.35	4.6	5.e-002	2.7477e-004
10553	4.6477	4.6	0.	-126.17
10554	4.5485	4.5	0.	-155.54
10555	4.5485	4.6	5.e-002	2.3704e-004
10556	4.8462	4.6	0.	-130.1
10557	4.747	4.5	0.	-157.47
10558	4.747	4.6	5.e-002	1.1216e-004
10559	5.0447	4.6	0.	-131.11
10560	4.9455	4.5	0.	-156.39
10561	4.9455	4.6	5.e-002	1.24e-004
10562	5.2432	4.6	0.	-129.89
10563	5.1439	4.5	0.	-153.12
10564	5.1439	4.6	5.e-002	6.8628e-005
10565	5.4417	4.6	0.	-127.
10566	5.3424	4.5	0.	-148.27
10567	5.3424	4.6	5.e-002	4.8986e-005
10568	5.6402	4.6	0.	-122.84
10569	5.5409	4.5	0.	-142.28
10570	5.5409	4.6	5.e-002	3.8457e-005
10571	5.8386	4.6	0.	-117.75
10572	5.7394	4.5	0.	-135.51
10573	5.7394	4.6	5.e-002	2.5788e-005
10574	6.0371	4.6	0.	-112.02
10575	5.9379	4.5	0.	-128.23
10576	5.9379	4.6	5.e-002	9.7023e-006
10577	6.2356	4.6	0.	-105.87
10578	6.1364	4.5	0.	-120.66
10579	6.1364	4.6	5.e-002	1.5679e-005
10580	6.4341	4.6	0.	-99.479
10581	6.3348	4.5	0.	-112.97
10582	6.3348	4.6	5.e-002	6.4491e-006
10583	6.6326	4.6	0.	-92.99
10584	6.5333	4.5	0.	-105.3
10585	6.5333	4.6	5.e-002	1.0648e-005
10586	6.8311	4.6	0.	-86.518
10587	6.7318	4.5	0.	-97.758
10588	6.7318	4.6	5.e-002	6.2606e-007
10589	7.0295	4.6	0.	-80.153
10590	6.9303	4.5	0.	-90.417
10591	6.9303	4.6	5.e-002	4.2747e-006
10592	7.228	4.6	0.	-73.961
10593	7.1288	4.5	0.	-83.337
10594	7.1288	4.6	5.e-002	6.7523e-006
10595	7.4265	4.6	0.	-67.991
10596	7.3273	4.5	0.	-76.559
10597	7.3273	4.6	5.e-002	6.5741e-006
10598	7.625	4.6	0.	-62.278
10599	7.5258	4.5	0.	-70.11
10600	7.5258	4.6	5.e-002	4.0233e-006
10601	7.8235	4.6	0.	-56.843
10602	7.7242	4.5	0.	-64.005
10603	7.7242	4.6	5.e-002	5.2062e-006
10604	8.022	4.6	0.	-51.7
10605	7.9227	4.5	0.	-58.251
10606	7.9227	4.6	5.e-002	4.4177e-006
10607	8.2205	4.6	0.	-46.853
10608	8.1212	4.5	0.	-52.848
10609	8.1212	4.6	5.e-002	4.1436e-006
10610	8.4189	4.6	0.	-42.302
10611	8.3197	4.5	0.	-47.789
10612	8.3197	4.6	5.e-002	4.4593e-006
10613	8.6174	4.6	0.	-38.041
10614	8.5182	4.5	0.	-43.066
10615	8.5182	4.6	5.e-002	5.4313e-006
10616	8.8159	4.6	0.	-34.063
10617	8.7167	4.5	0.	-38.665
10618	8.7167	4.6	5.e-002	4.4942e-006
10619	9.0144	4.6	0.	-30.356
10620	8.9152	4.5	0.	-34.573
10621	8.9152	4.6	5.e-002	3.7639e-006
10622	9.2129	4.6	0.	-26.908
10623	9.1136	4.5	0.	-30.773
10624	9.1136	4.6	5.e-002	3.4884e-006
10625	9.4114	4.6	0.	-23.707
10626	9.3121	4.5	0.	-27.25
10627	9.3121	4.6	5.e-002	4.1936e-006
10628	9.6098	4.6	0.	-20.736
10629	9.5106	4.5	0.	-23.986
10630	9.5106	4.6	5.e-002	3.6498e-006
10631	9.8083	4.6	0.	-17.984
10632	9.7091	4.5	0.	-20.965
10633	9.7091	4.6	5.e-002	3.6004e-006
10634	10.007	4.6	0.	-15.435
10635	9.9076	4.5	0.	-18.17
10636	9.9076	4.6	5.e-002	3.5805e-006
10637	10.205	4.6	0.	-13.075
10638	10.106	4.5	0.	-15.587
10639	10.106	4.6	5.e-002	3.3945e-006
10640	10.404	4.6	0.	-10.892
10641	10.305	4.5	0.	-13.199
10642	10.305	4.6	5.e-002	3.8613e-006
10643	10.602	4.6	0.	-8.873
10644	10.503	4.5	0.	-10.993
10645	10.503	4.6	5.e-002	3.8286e-006
10646	10.801	4.6	0.	-7.0047
10647	10.702	4.5	0.	-8.9533
10648	10.702	4.6	5.e-002	3.5736e-006
10649	10.999	4.6	0.	-5.2761
10650	10.9	4.5	0.	-7.0684
10651	10.9	4.6	5.e-002	3.2679e-006
10652	11.198	4.6	0.	-3.6765
10653	11.098	4.5	0.	-5.3254
10654	11.098	4.6	5.e-002	3.7329e-006
10655	11.396	4.6	0.	-2.1967
10656	11.297	4.5	0.	-3.7135
10657	11.297	4.6	5.e-002	3.6607e-006
10658	11.595	4.6	0.	-0.8357
10659	11.495	4.5	0.	-2.2227
10660	11.495	4.6	5.e-002	3.0717e-006
10661	11.793	4.6	0.	-3.5944e-002
10662	11.694	4.5	0.	-0.85117
10663	11.694	4.6	5.e-002	3.0692e-006
10664	11.992	4.6	0.	-9.1117e-003
10665	11.892	4.5	0.	-3.4415e-002
10666	11.892	4.6	5.e-002	3.7813e-006
10667	12.19	4.6	0.	-4.5535e-003
10668	12.091	4.5	0.	-8.14e-003
10669	12.091	4.6	5.e-002	3.3275e-006
10670	12.389	4.6	0.	-2.7085e-003
10671	12.289	4.5	0.	-3.7685e-003
10672	12.289	4.6	5.e-002	3.8153e-006
10673	12.587	4.6	0.	-1.7047e-003
10674	12.488	4.5	0.	-1.9701e-003
10675	12.488	4.6	5.e-002	3.7797e-006
10676	12.786	4.6	0.	-1.0816e-003
10677	12.686	4.5	0.	-9.9633e-004
10678	12.686	4.6	5.e-002	4.9539e-006
10679	12.984	4.6	0.	-6.6156e-004
10680	12.885	4.5	0.	-3.857e-004
10681	12.885	4.6	5.e-002	4.5149e-006
10682	13.183	4.6	0.	-3.4369e-004
10683	13.083	4.5	0.	3.0427e-005
10684	13.083	4.6	5.e-002	4.3355e-006
10685	13.381	4.6	0.	-8.4006e-005
10686	13.282	4.5	0.	3.6928e-004
10687	13.282	4.6	5.e-002	3.9391e-006
10688	13.58	4.6	0.	1.227e-004
10689	13.48	4.5	0.	6.3321e-004
10690	13.48	4.6	5.e-002	4.3569e-006
10691	13.778	4.6	0.	2.9117e-004
10692	13.679	4.5	0.	8.4692e-004
10693	13.679	4.6	5.e-002	4.0745e-006
10694	13.977	4.6	0.	4.4991e-004
10695	13.877	4.5	0.	1.0256e-003
10696	13.877	4.6	5.e-002	4.1679e-006
10697	14.175	4.6	0.	5.9819e-004
10698	14.076	4.5	0.	1.2131e-003
10699	14.076	4.6	5.e-002	4.1042e-006
10700	14.373	4.6	0.	7.1428e-004
10701	14.274	4.5	0.	1.3652e-003
10702	14.274	4.6	5.e-002	4.5723e-006
10703	14.572	4.6	0.	8.2705e-004
10704	14.473	4.5	0.	1.4865e-003
10705	14.473	4.6	5.e-002	4.528e-006
10706	14.77	4.6	0.	9.4775e-004
10707	14.671	4.5	0.	1.6303e-003
10708	14.671	4.6	5.e-002	3.0089e-006
10709	14.969	4.6	0.	1.0617e-003
10710	14.87	4.5	0.	1.7664e-003
10711	14.87	4.6	5.e-002	3.6692e-006
10712	15.167	4.6	0.	1.1715e-003
10713	15.068	4.5	0.	1.8964e-003
10714	15.068	4.6	5.e-002	4.557e-006
10715	15.366	4.6	0.	1.2906e-003
10716	15.267	4.5	0.	2.023e-003
10717	15.267	4.6	5.e-002	4.1884e-006
10718	15.564	4.6	0.	1.4201e-003
10719	15.465	4.5	0.	2.1729e-003
10720	15.465	4.6	5.e-002	4.245e-006
10721	15.763	4.6	0.	1.5494e-003
10722	15.664	4.5	0.	2.3222e-003
10723	15.664	4.6	5.e-002	4.3765e-006
10724	15.961	4.6	0.	1.6782e-003
10725	15.862	4.5	0.	2.4718e-003
10726	15.862	4.6	5.e-002	4.6099e-006
10727	16.16	4.6	0.	1.8234e-003
10728	16.061	4.5	0.	2.6218e-003
10729	16.061	4.6	5.e-002	5.6837e-006
10730	16.358	4.6	0.	1.9781e-003
10731	16.259	4.5	0.	2.8033e-003
10732	16.259	4.6	5.e-002	7.179e-006
10733	16.557	4.6	0.	2.123e-003
10734	16.458	4.5	0.	2.9751e-003
10735	16.458	4.6	5.e-002	5.634e-006
10736	16.755	4.6	0.	2.2808e-003
10737	16.656	4.5	0.	3.1406e-003
10738	16.656	4.6	5.e-002	4.4686e-006
10739	16.954	4.6	0.	2.4579e-003
10740	16.855	4.5	0.	3.3387e-003
10741	16.855	4.6	5.e-002	5.0368e-006
10742	17.152	4.6	0.	2.6424e-003
10743	17.053	4.5	0.	3.5452e-003
10744	17.053	4.6	5.e-002	4.4363e-006
10745	17.351	4.6	0.	2.837e-003
10746	17.252	4.5	0.	3.7607e-003
10747	17.252	4.6	5.e-002	5.6016e-006
10748	17.549	4.6	0.	3.0522e-003
10749	17.45	4.5	0.	3.9905e-003
10750	17.45	4.6	5.e-002	4.9475e-006
10751	17.748	4.6	0.	3.2906e-003
10752	17.648	4.5	0.	4.2518e-003
10753	17.648	4.6	5.e-002	4.4088e-006
10754	17.946	4.6	0.	3.5459e-003
10755	17.847	4.5	0.	4.5295e-003
10756	17.847	4.6	5.e-002	3.2639e-006
10757	18.145	4.6	0.	3.8181e-003
10758	18.045	4.5	0.	4.8269e-003
10759	18.045	4.6	5.e-002	3.6616e-006
10760	18.343	4.6	0.	4.1197e-003
10761	18.244	4.5	0.	5.144e-003
10762	18.244	4.6	5.e-002	2.4143e-006
10763	18.542	4.6	0.	4.4493e-003
10764	18.442	4.5	0.	5.5038e-003
10765	18.442	4.6	5.e-002	2.8917e-006
10766	18.74	4.6	0.	4.798e-003
10767	18.641	4.5	0.	5.8838e-003
10768	18.641	4.6	5.e-002	1.2868e-006
10769	18.939	4.6	0.	5.1845e-003
10770	18.839	4.5	0.	6.2872e-003
10771	18.839	4.6	5.e-002	3.5266e-006
10772	19.137	4.6	0.	5.617e-003
10773	19.038	4.5	0.	6.7458e-003
10774	19.038	4.6	5.e-002	5.1941e-006
10775	19.336	4.6	0.	6.0929e-003
10776	19.236	4.5	0.	7.2472e-003
10777	19.236	4.6	5.e-002	5.0525e-006
10778	19.534	4.6	0.	6.6195e-003
10779	19.435	4.5	0.	7.7992e-003
10780	19.435	4.6	5.e-002	3.2766e-006
10781	19.733	4.6	0.	7.2119e-003
10782	19.633	4.5	0.	8.4098e-003
10783	19.633	4.6	5.e-002	4.4086e-006
10784	19.931	4.6	0.	7.8811e-003
10785	19.832	4.5	0.	9.1025e-003
10786	19.832	4.6	5.e-002	6.5454e-006
10787	20.13	4.6	0.	8.6346e-003
10788	20.03	4.5	0.	9.8761e-003
10789	20.03	4.6	5.e-002	3.5311e-006
10790	20.328	4.6	0.	9.4876e-003
10791	20.229	4.5	0.	1.0746e-002
10792	20.229	4.6	5.e-002	3.8238e-006
10793	20.527	4.6	0.	1.0469e-002
10794	20.427	4.5	0.	1.1731e-002
10795	20.427	4.6	5.e-002	6.1356e-006
10796	20.725	4.6	0.	1.1601e-002
10797	20.626	4.5	0.	1.2868e-002
10798	20.626	4.6	5.e-002	8.2774e-006
10799	20.923	4.6	0.	1.2908e-002
10800	20.824	4.5	0.	1.4169e-002
10801	20.824	4.6	5.e-002	7.1356e-006
10802	21.122	4.6	0.	1.4445e-002
10803	21.023	4.5	0.	1.5673e-002
10804	21.023	4.6	5.e-002	6.1635e-006
10805	21.32	4.6	0.	1.6267e-002
10806	21.221	4.5	0.	1.7447e-002
10807	21.221	4.6	5.e-002	6.8145e-006
10808	21.519	4.6	0.	1.8447e-002
10809	21.42	4.5	0.	1.9543e-002
10810	21.42	4.6	5.e-002	2.4075e-006
10811	21.717	4.6	0.	2.1091e-002
10812	21.618	4.5	0.	2.2055e-002
10813	21.618	4.6	5.e-002	2.4792e-006
10814	21.916	4.6	0.	2.4343e-002
10815	21.817	4.5	0.	2.5104e-002
10816	21.817	4.6	5.e-002	1.2662e-006
10817	22.114	4.6	0.	2.8403e-002
10818	22.015	4.5	0.	2.8869e-002
10819	22.015	4.6	5.e-002	4.2521e-006
10820	22.313	4.6	0.	3.3584e-002
10821	22.214	4.5	0.	3.358e-002
10822	22.214	4.6	5.e-002	2.639e-006
10823	22.511	4.6	0.	4.0279e-002
10824	22.412	4.5	0.	3.9654e-002
10825	22.412	4.6	5.e-002	1.3944e-006
10826	22.71	4.6	0.	4.9508e-002
10827	22.611	4.5	0.	4.7494e-002
10828	22.611	4.6	5.e-002	3.2162e-006
10829	22.908	4.6	0.	6.1469e-002
10830	22.809	4.5	0.	5.8809e-002
10831	22.809	4.6	5.e-002	5.6788e-006
10832	23.107	4.6	0.	8.2917e-002
10833	23.008	4.5	0.	7.2446e-002
10834	23.008	4.6	5.e-002	8.0648e-006
10835	23.305	4.6	0.	0.10186
10836	23.206	4.5	0.	0.10351
10837	23.206	4.6	5.e-002	7.3748e-006
10838	23.504	4.6	0.	0.20055
10839	23.405	4.5	0.	0.11411
10840	23.405	4.6	5.e-002	8.1613e-006
10841	23.702	4.6	0.	0.15409
10842	23.603	4.5	0.	0.31273
10843	23.603	4.6	5.e-002	5.7633e-006
10844	23.802	4.5	0.	8.6735e-002
10845	23.802	4.6	5.e-002	7.3031e-006
10846	23.901	4.6	0.	0.28126
10847	2.4644	4.4	0.	16.684
10848	2.3652	4.3	0.	-88.465
10849	2.3652	4.4	5.e-002	5.0417e-004
10850	2.2659	4.4	0.	86.014
10851	2.6629	4.4	0.	-2.7739
10852	2.5636	4.3	0.	13.376
10853	2.5636	4.4	5.e-002	7.0443e-004
10854	2.8614	4.4	0.	-9.4002
10855	2.7621	4.3	0.	-13.129
10856	2.7621	4.4	5.e-002	7.5472e-004
10857	3.0598	4.4	0.	-5.2292
10858	2.9606	4.3	0.	-5.7137
10859	2.9606	4.4	5.e-002	7.3122e-004
10860	3.2583	4.4	0.	-10.936
10861	3.1591	4.3	0.	-14.222
10862	3.1591	4.4	5.e-002	5.1438e-004
10863	3.4568	4.4	0.	-44.835
10864	3.3576	4.3	0.	-68.947
10865	3.3576	4.4	5.e-002	4.5065e-004
10866	3.6553	4.4	0.	-106.3
10867	3.5561	4.3	0.	-143.05
10868	3.5561	4.4	5.e-002	4.1447e-004
10869	3.8538	4.4	0.	-146.59
10870	3.7545	4.3	0.	-187.4
10871	3.7545	4.4	5.e-002	3.2341e-004
10872	4.0523	4.4	0.	-169.79
10873	3.953	4.3	0.	-211.1
10874	3.953	4.4	5.e-002	2.9878e-004
10875	4.2508	4.4	0.	-181.9
10876	4.1515	4.3	0.	-221.85
10877	4.1515	4.4	5.e-002	3.2211e-004
10878	4.4492	4.4	0.	-186.81
10879	4.35	4.3	0.	-224.44
10880	4.35	4.4	5.e-002	2.0372e-004
10881	4.6477	4.4	0.	-186.92
10882	4.5485	4.3	0.	-221.8
10883	4.5485	4.4	5.e-002	1.3985e-004
10884	4.8462	4.4	0.	-183.78
10885	4.747	4.3	0.	-215.78
10886	4.747	4.4	5.e-002	1.5461e-004
10887	5.0447	4.4	0.	-178.4
10888	4.9455	4.3	0.	-207.56
10889	4.9455	4.4	5.e-002	7.031e-005
10890	5.2432	4.4	0.	-171.48
10891	5.1439	4.3	0.	-197.96
10892	5.1439	4.4	5.e-002	5.5242e-005
10893	5.4417	4.4	0.	-163.54
10894	5.3424	4.3	0.	-187.51
10895	5.3424	4.4	5.e-002	4.2787e-005
10896	5.6402	4.4	0.	-154.94
10897	5.5409	4.3	0.	-176.61
10898	5.5409	4.4	5.e-002	3.2649e-005
10899	5.8386	4.4	0.	-145.97
10900	5.7394	4.3	0.	-165.55
10901	5.7394	4.4	5.e-002	1.149e-006
10902	6.0371	4.4	0.	-136.85
10903	5.9379	4.3	0.	-154.54
10904	5.9379	4.4	5.e-002	2.1137e-005
10905	6.2356	4.4	0.	-127.75
10906	6.1364	4.3	0.	-143.73
10907	6.1364	4.4	5.e-002	1.4295e-005
10908	6.4341	4.4	0.	-118.79
10909	6.3348	4.3	0.	-133.24
10910	6.3348	4.4	5.e-002	5.3464e-006
10911	6.6326	4.4	0.	-110.06
10912	6.5333	4.3	0.	-123.14
10913	6.5333	4.4	5.e-002	5.9505e-006
10914	6.8311	4.4	0.	-101.65
10915	6.7318	4.3	0.	-113.5
10916	6.7318	4.4	5.e-002	1.4154e-006
10917	7.0295	4.4	0.	-93.594
10918	6.9303	4.3	0.	-104.33
10919	6.9303	4.4	5.e-002	4.511e-006
10920	7.228	4.4	0.	-85.927
10921	7.1288	4.3	0.	-95.669
10922	7.1288	4.4	5.e-002	4.3471e-006
10923	7.4265	4.4	0.	-78.669
10924	7.3273	4.3	0.	-87.516
10925	7.3273	4.4	5.e-002	4.1321e-006
10926	7.625	4.4	0.	-71.828
10927	7.5258	4.3	0.	-79.869
10928	7.5258	4.4	5.e-002	3.5456e-006
10929	7.8235	4.4	0.	-65.403
10930	7.7242	4.3	0.	-72.719
10931	7.7242	4.4	5.e-002	6.3186e-006
10932	8.022	4.4	0.	-59.388
10933	7.9227	4.3	0.	-66.05
10934	7.9227	4.4	5.e-002	3.1926e-006
10935	8.2205	4.4	0.	-53.772
10936	8.1212	4.3	0.	-59.843
10937	8.1212	4.4	5.e-002	4.3109e-006
10938	8.4189	4.4	0.	-48.54
10939	8.3197	4.3	0.	-54.077
10940	8.3197	4.4	5.e-002	2.7887e-006
10941	8.6174	4.4	0.	-43.676
10942	8.5182	4.3	0.	-48.729
10943	8.5182	4.4	5.e-002	4.3926e-006
10944	8.8159	4.4	0.	-39.16
10945	8.7167	4.3	0.	-43.775
10946	8.7167	4.4	5.e-002	3.8118e-006
10947	9.0144	4.4	0.	-34.974
10948	8.9152	4.3	0.	-39.191
10949	8.9152	4.4	5.e-002	3.2601e-006
10950	9.2129	4.4	0.	-31.097
10951	9.1136	4.3	0.	-34.953
10952	9.1136	4.4	5.e-002	2.955e-006
10953	9.4114	4.4	0.	-27.511
10954	9.3121	4.3	0.	-31.039
10955	9.3121	4.4	5.e-002	3.0012e-006
10956	9.6098	4.4	0.	-24.195
10957	9.5106	4.3	0.	-27.425
10958	9.5106	4.4	5.e-002	3.4326e-006
10959	9.8083	4.4	0.	-21.132
10960	9.7091	4.3	0.	-24.091
10961	9.7091	4.4	5.e-002	3.2356e-006
10962	10.007	4.4	0.	-18.302
10963	9.9076	4.3	0.	-21.014
10964	9.9076	4.4	5.e-002	3.3401e-006
10965	10.205	4.4	0.	-15.69
10966	10.106	4.3	0.	-18.176
10967	10.106	4.4	5.e-002	2.9658e-006
10968	10.404	4.4	0.	-13.278
10969	10.305	4.3	0.	-15.559
10970	10.305	4.4	5.e-002	3.7145e-006
10971	10.602	4.4	0.	-11.05
10972	10.503	4.3	0.	-13.145
10973	10.503	4.4	5.e-002	3.2921e-006
10974	10.801	4.4	0.	-8.9936
10975	10.702	4.3	0.	-10.918
10976	10.702	4.4	5.e-002	3.1005e-006
10977	10.999	4.4	0.	-7.0937
10978	10.9	4.3	0.	-8.8623
10979	10.9	4.4	5.e-002	3.1552e-006
10980	11.198	4.4	0.	-5.3378
10981	11.098	4.3	0.	-6.9643
10982	11.098	4.4	5.e-002	3.2898e-006
10983	11.396	4.4	0.	-3.7143
10984	11.297	4.3	0.	-5.2112
10985	11.297	4.4	5.e-002	3.2849e-006
10986	11.595	4.4	0.	-2.2132
10987	11.495	4.3	0.	-3.5905
10988	11.495	4.4	5.e-002	2.6174e-006
10989	11.793	4.4	0.	-0.83191
10990	11.694	4.3	0.	-2.0923
10991	11.694	4.4	5.e-002	2.7404e-006
10992	11.992	4.4	0.	-2.9881e-002
10993	11.892	4.3	0.	-0.71515
10994	11.892	4.4	5.e-002	3.5769e-006
10995	12.19	4.4	0.	-6.7598e-003
10996	12.091	4.3	0.	-2.1401e-002
10997	12.091	4.4	5.e-002	3.1762e-006
10998	12.389	4.4	0.	-2.772e-003
10999	12.289	4.3	0.	-4.9505e-003
11000	12.289	4.4	5.e-002	3.5343e-006
11001	12.587	4.4	0.	-1.1167e-003
11002	12.488	4.3	0.	-1.6278e-003
11003	12.488	4.4	5.e-002	3.3453e-006
11004	12.786	4.4	0.	-2.095e-004
11005	12.686	4.3	0.	-1.9678e-004
11006	12.686	4.4	5.e-002	4.7152e-006
11007	12.984	4.4	0.	3.6601e-004
11008	12.885	4.3	0.	6.0906e-004
11009	12.885	4.4	5.e-002	4.1594e-006
11010	13.183	4.4	0.	7.8291e-004
11011	13.083	4.3	0.	1.1308e-003
11012	13.083	4.4	5.e-002	4.1163e-006
11013	13.381	4.4	0.	1.1118e-003
11014	13.282	4.3	0.	1.5352e-003
11015	13.282	4.4	5.e-002	3.8248e-006
11016	13.58	4.4	0.	1.3721e-003
11017	13.48	4.3	0.	1.8461e-003
11018	13.48	4.4	5.e-002	4.0166e-006
11019	13.778	4.4	0.	1.5877e-003
11020	13.679	4.3	0.	2.0991e-003
11021	13.679	4.4	5.e-002	3.7185e-006
11022	13.977	4.4	0.	1.7884e-003
11023	13.877	4.3	0.	2.311e-003
11024	13.877	4.4	5.e-002	3.9157e-006
11025	14.175	4.4	0.	1.9742e-003
11026	14.076	4.3	0.	2.5287e-003
11027	14.076	4.4	5.e-002	3.426e-006
11028	14.373	4.4	0.	2.1266e-003
11029	14.274	4.3	0.	2.7095e-003
11030	14.274	4.4	5.e-002	3.9765e-006
11031	14.572	4.4	0.	2.2746e-003
11032	14.473	4.3	0.	2.8599e-003
11033	14.473	4.4	5.e-002	4.0936e-006
11034	14.77	4.4	0.	2.4298e-003
11035	14.671	4.3	0.	3.0317e-003
11036	14.671	4.4	5.e-002	2.7181e-006
11037	14.969	4.4	0.	2.5784e-003
11038	14.87	4.3	0.	3.1962e-003
11039	14.87	4.4	5.e-002	3.3296e-006
11040	15.167	4.4	0.	2.7217e-003
11041	15.068	4.3	0.	3.3549e-003
11042	15.068	4.4	5.e-002	4.0827e-006
11043	15.366	4.4	0.	2.876e-003
11044	15.267	4.3	0.	3.5098e-003
11045	15.267	4.4	5.e-002	3.6165e-006
11046	15.564	4.4	0.	3.0425e-003
11047	15.465	4.3	0.	3.6911e-003
11048	15.465	4.4	5.e-002	3.9381e-006
11049	15.763	4.4	0.	3.209e-003
11050	15.664	4.3	0.	3.8704e-003
11051	15.664	4.4	5.e-002	3.9584e-006
11052	15.961	4.4	0.	3.3767e-003
11053	15.862	4.3	0.	4.0524e-003
11054	15.862	4.4	5.e-002	4.5612e-006
11055	16.16	4.4	0.	3.5598e-003
11056	16.061	4.3	0.	4.2378e-003
11057	16.061	4.4	5.e-002	5.2014e-006
11058	16.358	4.4	0.	3.7551e-003
11059	16.259	4.3	0.	4.452e-003
11060	16.259	4.4	5.e-002	6.8262e-006
11061	16.557	4.4	0.	3.9442e-003
11062	16.458	4.3	0.	4.6611e-003
11063	16.458	4.4	5.e-002	5.1711e-006
11064	16.755	4.4	0.	4.1465e-003
11065	16.656	4.3	0.	4.8646e-003
11066	16.656	4.4	5.e-002	4.2343e-006
11067	16.954	4.4	0.	4.3704e-003
11068	16.855	4.3	0.	5.1019e-003
11069	16.855	4.4	5.e-002	4.6626e-006
11070	17.152	4.4	0.	4.6041e-003
11071	17.053	4.3	0.	5.3494e-003
11072	17.053	4.4	5.e-002	3.6876e-006
11073	17.351	4.4	0.	4.8506e-003
11074	17.252	4.3	0.	5.6089e-003
11075	17.252	4.4	5.e-002	4.8754e-006
11076	17.549	4.4	0.	5.1222e-003
11077	17.45	4.3	0.	5.8842e-003
11078	17.45	4.4	5.e-002	4.1897e-006
11079	17.748	4.4	0.	5.4181e-003
11080	17.648	4.3	0.	6.1954e-003
11081	17.648	4.4	5.e-002	3.1389e-006
11082	17.946	4.4	0.	5.7329e-003
11083	17.847	4.3	0.	6.5234e-003
11084	17.847	4.4	5.e-002	3.1166e-006
11085	18.145	4.4	0.	6.0698e-003
11086	18.045	4.3	0.	6.8746e-003
11087	18.045	4.4	5.e-002	2.6331e-006
11088	18.343	4.4	0.	6.4393e-003
11089	18.244	4.3	0.	7.2485e-003
11090	18.244	4.4	5.e-002	1.7704e-006
11091	18.542	4.4	0.	6.8431e-003
11092	18.442	4.3	0.	7.6678e-003
11093	18.442	4.4	5.e-002	2.1344e-006
11094	18.74	4.4	0.	7.2709e-003
11095	18.641	4.3	0.	8.1139e-003
11096	18.641	4.4	5.e-002	6.7336e-007
11097	18.939	4.4	0.	7.7391e-003
11098	18.839	4.3	0.	8.5849e-003
11099	18.839	4.4	5.e-002	2.8956e-006
11100	19.137	4.4	0.	8.2583e-003
11101	19.038	4.3	0.	9.1162e-003
11102	19.038	4.4	5.e-002	4.8928e-006
11103	19.336	4.4	0.	8.8267e-003
11104	19.236	4.3	0.	9.6939e-003
11105	19.236	4.4	5.e-002	4.6406e-006
11106	19.534	4.4	0.	9.4528e-003
11107	19.435	4.3	0.	1.0328e-002
11108	19.435	4.4	5.e-002	2.8632e-006
11109	19.733	4.4	0.	1.0153e-002
11110	19.633	4.3	0.	1.1027e-002
11111	19.633	4.4	5.e-002	3.6135e-006
11112	19.931	4.4	0.	1.0937e-002
11113	19.832	4.3	0.	1.1815e-002
11114	19.832	4.4	5.e-002	5.9559e-006
11115	20.13	4.4	0.	1.1814e-002
11116	20.03	4.3	0.	1.2688e-002
11117	20.03	4.4	5.e-002	3.3575e-006
11118	20.328	4.4	0.	1.28e-002
11119	20.229	4.3	0.	1.3666e-002
11120	20.229	4.4	5.e-002	4.3554e-006
11121	20.527	4.4	0.	1.3923e-002
11122	20.427	4.3	0.	1.4767e-002
11123	20.427	4.4	5.e-002	5.2753e-006
11124	20.725	4.4	0.	1.5209e-002
11125	20.626	4.3	0.	1.6027e-002
11126	20.626	4.4	5.e-002	8.2506e-006
11127	20.923	4.4	0.	1.6683e-002
11128	20.824	4.3	0.	1.7461e-002
11129	20.824	4.4	5.e-002	7.9101e-006
11130	21.122	4.4	0.	1.8397e-002
11131	21.023	4.3	0.	1.9108e-002
11132	21.023	4.4	5.e-002	4.6165e-006
11133	21.32	4.4	0.	2.0412e-002
11134	21.221	4.3	0.	2.1034e-002
11135	21.221	4.4	5.e-002	5.8148e-006
11136	21.519	4.4	0.	2.2799e-002
11137	21.42	4.3	0.	2.3298e-002
11138	21.42	4.4	5.e-002	2.7742e-006
11139	21.717	4.4	0.	2.5665e-002
11140	21.618	4.3	0.	2.5987e-002
11141	21.618	4.4	5.e-002	1.4572e-006
11142	21.916	4.4	0.	2.9161e-002
11143	21.817	4.3	0.	2.9228e-002
11144	21.817	4.4	5.e-002	1.5388e-007
11145	22.114	4.4	0.	3.3487e-002
11146	22.015	4.3	0.	3.3203e-002
11147	22.015	4.4	5.e-002	5.1324e-006
11148	22.313	4.4	0.	3.8963e-002
11149	22.214	4.3	0.	3.8141e-002
11150	22.214	4.4	5.e-002	1.346e-006
11151	22.511	4.4	0.	4.5988e-002
11152	22.412	4.3	0.	4.4471e-002
11153	22.412	4.4	5.e-002	1.5969e-006
11154	22.71	4.4	0.	5.5593e-002
11155	22.611	4.3	0.	5.2601e-002
11156	22.611	4.4	5.e-002	2.9907e-006
11157	22.908	4.4	0.	6.7998e-002
11158	22.809	4.3	0.	6.4262e-002
11159	22.809	4.4	5.e-002	3.7205e-006
11160	23.107	4.4	0.	9.0035e-002
11161	23.008	4.3	0.	7.8315e-002
11162	23.008	4.4	5.e-002	7.5458e-006
11163	23.305	4.4	0.	0.1097
11164	23.206	4.3	0.	0.11
11165	23.206	4.4	5.e-002	5.3574e-006
11166	23.504	4.4	0.	0.21012
11167	23.405	4.3	0.	0.1213
11168	23.405	4.4	5.e-002	5.8592e-006
11169	23.702	4.4	0.	0.16755
11170	23.603	4.3	0.	0.32252
11171	23.603	4.4	5.e-002	2.5508e-006
11172	23.802	4.3	0.	0.10316
11173	23.802	4.4	5.e-002	8.5054e-006
11174	23.901	4.4	0.	0.28614
11175	2.4644	4.2	0.	-92.261
11176	2.3652	4.1	0.	-506.09
11177	2.3652	4.2	5.e-002	1.492e-003
11178	2.2659	4.2	0.	-434.27
11179	2.6629	4.2	0.	1.7991
11180	2.5636	4.1	0.	56.598
11181	2.5636	4.2	5.e-002	1.1278e-003
11182	2.8614	4.2	0.	-9.4507
11183	2.7621	4.1	0.	-18.912
11184	2.7621	4.2	5.e-002	6.9709e-004
11185	3.0598	4.2	0.	-14.989
11186	2.9606	4.1	0.	-16.823
11187	2.9606	4.2	5.e-002	5.3538e-004
11188	3.2583	4.2	0.	-82.838
11189	3.1591	4.1	0.	-116.66
11190	3.1591	4.2	5.e-002	4.8929e-004
11191	3.4568	4.2	0.	-174.14
11192	3.3576	4.1	0.	-219.2
11193	3.3576	4.2	5.e-002	3.206e-004
11194	3.6553	4.2	0.	-226.63
11195	3.5561	4.1	0.	-275.77
11196	3.5561	4.2	5.e-002	3.0951e-004
11197	3.8538	4.2	0.	-253.16
11198	3.7545	4.1	0.	-302.83
11199	3.7545	4.2	5.e-002	2.6072e-004
11200	4.0523	4.2	0.	-263.81
11201	3.953	4.1	0.	-311.96
11202	3.953	4.2	5.e-002	2.5057e-004
11203	4.2508	4.2	0.	-264.7
11204	4.1515	4.1	0.	-310.18
11205	4.1515	4.2	5.e-002	1.6068e-004
11206	4.4492	4.2	0.	-259.58
11207	4.35	4.1	0.	-301.78
11208	4.35	4.2	5.e-002	1.8211e-004
11209	4.6477	4.2	0.	-250.72
11210	4.5485	4.1	0.	-289.43
11211	4.5485	4.2	5.e-002	1.0507e-004
11212	4.8462	4.2	0.	-239.58
11213	4.747	4.1	0.	-274.8
11214	4.747	4.2	5.e-002	6.4831e-005
11215	5.0447	4.2	0.	-227.13
11216	4.9455	4.1	0.	-258.98
11217	4.9455	4.2	5.e-002	5.2971e-005
11218	5.2432	4.2	0.	-213.98
11219	5.1439	4.1	0.	-242.69
11220	5.1439	4.2	5.e-002	4.2755e-005
11221	5.4417	4.2	0.	-200.58
11222	5.3424	4.1	0.	-226.39
11223	5.3424	4.2	5.e-002	3.5283e-005
11224	5.6402	4.2	0.	-187.22
11225	5.5409	4.1	0.	-210.4
11226	5.5409	4.2	5.e-002	1.4265e-005
11227	5.8386	4.2	0.	-174.12
11228	5.7394	4.1	0.	-194.92
11229	5.7394	4.2	5.e-002	2.4727e-006
11230	6.0371	4.2	0.	-161.42
11231	5.9379	4.1	0.	-180.09
11232	5.9379	4.2	5.e-002	8.2736e-006
11233	6.2356	4.2	0.	-149.22
11234	6.1364	4.1	0.	-165.98
11235	6.1364	4.2	5.e-002	5.2495e-006
11236	6.4341	4.2	0.	-137.6
11237	6.3348	4.1	0.	-152.65
11238	6.3348	4.2	5.e-002	7.3268e-006
11239	6.6326	4.2	0.	-126.57
11240	6.5333	4.1	0.	-140.11
11241	6.5333	4.2	5.e-002	-4.4009e-006
11242	6.8311	4.2	0.	-116.17
11243	6.7318	4.1	0.	-128.36
11244	6.7318	4.2	5.e-002	-2.0456e-006
11245	7.0295	4.2	0.	-106.4
11246	6.9303	4.1	0.	-117.39
11247	6.9303	4.2	5.e-002	3.949e-006
11248	7.228	4.2	0.	-97.251
11249	7.1288	4.1	0.	-107.17
11250	7.1288	4.2	5.e-002	3.9877e-006
11251	7.4265	4.2	0.	-88.709
11252	7.3273	4.1	0.	-97.673
11253	7.3273	4.2	5.e-002	3.6675e-006
11254	7.625	4.2	0.	-80.752
11255	7.5258	4.1	0.	-88.865
11256	7.5258	4.2	5.e-002	2.6969e-006
11257	7.8235	4.2	0.	-73.356
11258	7.7242	4.1	0.	-80.708
11259	7.7242	4.2	5.e-002	2.4407e-006
11260	8.022	4.2	0.	-66.494
11261	7.9227	4.1	0.	-73.163
11262	7.9227	4.2	5.e-002	1.9505e-006
11263	8.2205	4.2	0.	-60.136
11264	8.1212	4.1	0.	-66.194
11265	8.1212	4.2	5.e-002	3.8536e-006
11266	8.4189	4.2	0.	-54.252
11267	8.3197	4.1	0.	-59.761
11268	8.3197	4.2	5.e-002	2.591e-006
11269	8.6174	4.2	0.	-48.814
11270	8.5182	4.1	0.	-53.828
11271	8.5182	4.2	5.e-002	2.7959e-006
11272	8.8159	4.2	0.	-43.791
11273	8.7167	4.1	0.	-48.359
11274	8.7167	4.2	5.e-002	2.8901e-006
11275	9.0144	4.2	0.	-39.155
11276	8.9152	4.1	0.	-43.321
11277	8.9152	4.2	5.e-002	2.5117e-006
11278	9.2129	4.2	0.	-34.879
11279	9.1136	4.1	0.	-38.681
11280	9.1136	4.2	5.e-002	2.7546e-006
11281	9.4114	4.2	0.	-30.936
11282	9.3121	4.1	0.	-34.41
11283	9.3121	4.2	5.e-002	2.3838e-006
11284	9.6098	4.2	0.	-27.303
11285	9.5106	4.1	0.	-30.478
11286	9.5106	4.2	5.e-002	3.4665e-006
11287	9.8083	4.2	0.	-23.954
11288	9.7091	4.1	0.	-26.859
11289	9.7091	4.2	5.e-002	2.4034e-006
11290	10.007	4.2	0.	-20.868
11291	9.9076	4.1	0.	-23.528
11292	9.9076	4.2	5.e-002	3.1993e-006
11293	10.205	4.2	0.	-18.025
11294	10.106	4.1	0.	-20.461
11295	10.106	4.2	5.e-002	3.0803e-006
11296	10.404	4.2	0.	-15.405
11297	10.305	4.1	0.	-17.639
11298	10.305	4.2	5.e-002	3.4017e-006
11299	10.602	4.2	0.	-12.99
11300	10.503	4.1	0.	-15.039
11301	10.503	4.2	5.e-002	2.8238e-006
11302	10.801	4.2	0.	-10.763
11303	10.702	4.1	0.	-12.644
11304	10.702	4.2	5.e-002	2.7725e-006
11305	10.999	4.2	0.	-8.7094
11306	10.9	4.1	0.	-10.437
11307	10.9	4.2	5.e-002	2.5501e-006
11308	11.198	4.2	0.	-6.8134
11309	11.098	4.1	0.	-8.4021
11310	11.098	4.2	5.e-002	2.7893e-006
11311	11.396	4.2	0.	-5.0624
11312	11.297	4.1	0.	-6.5241
11313	11.297	4.2	5.e-002	2.7939e-006
11314	11.595	4.2	0.	-3.444
11315	11.495	4.1	0.	-4.7897
11316	11.495	4.2	5.e-002	2.2162e-006
11317	11.793	4.2	0.	-1.9478
11318	11.694	4.1	0.	-3.1868
11319	11.694	4.2	5.e-002	2.4299e-006
11320	11.992	4.2	0.	-0.57504
11321	11.892	4.1	0.	-1.7049
11322	11.892	4.2	5.e-002	3.0873e-006
11323	12.19	4.2	0.	-1.4395e-002
11324	12.091	4.1	0.	-0.35479
11325	12.091	4.2	5.e-002	2.7687e-006
11326	12.389	4.2	0.	-3.1066e-003
11327	12.289	4.1	0.	-8.2655e-003
11328	12.289	4.2	5.e-002	3.1233e-006
11329	12.587	4.2	0.	-4.5436e-004
11330	12.488	4.1	0.	-1.2757e-003
11331	12.488	4.2	5.e-002	3.1482e-006
11332	12.786	4.2	0.	7.4508e-004
11333	12.686	4.1	0.	7.0852e-004
11334	12.686	4.2	5.e-002	4.4138e-006
11335	12.984	4.2	0.	1.4408e-003
11336	12.885	4.1	0.	1.6691e-003
11337	12.885	4.2	5.e-002	3.7247e-006
11338	13.183	4.2	0.	1.9199e-003
11339	13.083	4.1	0.	2.249e-003
11340	13.083	4.2	5.e-002	3.6936e-006
11341	13.381	4.2	0.	2.2878e-003
11342	13.282	4.1	0.	2.6816e-003
11343	13.282	4.2	5.e-002	3.2805e-006
11344	13.58	4.2	0.	2.5789e-003
11345	13.48	4.1	0.	3.0101e-003
11346	13.48	4.2	5.e-002	3.7084e-006
11347	13.778	4.2	0.	2.8192e-003
11348	13.679	4.1	0.	3.2782e-003
11349	13.679	4.2	5.e-002	3.2439e-006
11350	13.977	4.2	0.	3.0412e-003
11351	13.877	4.1	0.	3.5025e-003
11352	13.877	4.2	5.e-002	3.4983e-006
11353	14.175	4.2	0.	3.2484e-003
11354	14.076	4.1	0.	3.7344e-003
11355	14.076	4.2	5.e-002	2.9057e-006
11356	14.373	4.2	0.	3.4226e-003
11357	14.274	4.1	0.	3.9296e-003
11358	14.274	4.2	5.e-002	3.5637e-006
11359	14.572	4.2	0.	3.5928e-003
11360	14.473	4.1	0.	4.0954e-003
11361	14.473	4.2	5.e-002	3.4933e-006
11362	14.77	4.2	0.	3.7704e-003
11363	14.671	4.1	0.	4.2838e-003
11364	14.671	4.2	5.e-002	2.1786e-006
11365	14.969	4.2	0.	3.9418e-003
11366	14.87	4.1	0.	4.4646e-003
11367	14.87	4.2	5.e-002	2.7732e-006
11368	15.167	4.2	0.	4.1091e-003
11369	15.068	4.1	0.	4.6427e-003
11370	15.068	4.2	5.e-002	3.4726e-006
11371	15.366	4.2	0.	4.2883e-003
11372	15.267	4.1	0.	4.8175e-003
11373	15.267	4.2	5.e-002	3.1157e-006
11374	15.564	4.2	0.	4.4796e-003
11375	15.465	4.1	0.	5.0194e-003
11376	15.465	4.2	5.e-002	3.2965e-006
11377	15.763	4.2	0.	4.6717e-003
11378	15.664	4.1	0.	5.2205e-003
11379	15.664	4.2	5.e-002	3.6088e-006
11380	15.961	4.2	0.	4.8688e-003
11381	15.862	4.1	0.	5.4247e-003
11382	15.862	4.2	5.e-002	3.925e-006
11383	16.16	4.2	0.	5.0826e-003
11384	16.061	4.1	0.	5.6342e-003
11385	16.061	4.2	5.e-002	4.8971e-006
11386	16.358	4.2	0.	5.3079e-003
11387	16.259	4.1	0.	5.8737e-003
11388	16.259	4.2	5.e-002	6.2491e-006
11389	16.557	4.2	0.	5.5287e-003
11390	16.458	4.1	0.	6.1082e-003
11391	16.458	4.2	5.e-002	4.9475e-006
11392	16.755	4.2	0.	5.7642e-003
11393	16.656	4.1	0.	6.3398e-003
11394	16.656	4.2	5.e-002	3.8899e-006
11395	16.954	4.2	0.	6.022e-003
11396	16.855	4.1	0.	6.6054e-003
11397	16.855	4.2	5.e-002	4.4502e-006
11398	17.152	4.2	0.	6.2921e-003
11399	17.053	4.1	0.	6.8831e-003
11400	17.053	4.2	5.e-002	3.1198e-006
11401	17.351	4.2	0.	6.5769e-003
11402	17.252	4.1	0.	7.1747e-003
11403	17.252	4.2	5.e-002	4.2141e-006
11404	17.549	4.2	0.	6.8882e-003
11405	17.45	4.1	0.	7.4829e-003
11406	17.45	4.2	5.e-002	3.4406e-006
11407	17.748	4.2	0.	7.2278e-003
11408	17.648	4.1	0.	7.8293e-003
11409	17.648	4.2	5.e-002	2.609e-006
11410	17.946	4.2	0.	7.5882e-003
11411	17.847	4.1	0.	8.1948e-003
11412	17.847	4.2	5.e-002	2.0136e-006
11413	18.145	4.2	0.	7.9719e-003
11414	18.045	4.1	0.	8.5844e-003
11415	18.045	4.2	5.e-002	2.3345e-006
11416	18.343	4.2	0.	8.391e-003
11417	18.244	4.1	0.	9.0003e-003
11418	18.244	4.2	5.e-002	8.6998e-007
11419	18.542	4.2	0.	8.8474e-003
11420	18.442	4.1	0.	9.4645e-003
11421	18.442	4.2	5.e-002	1.2683e-006
11422	18.74	4.2	0.	9.3312e-003
11423	18.641	4.1	0.	9.9546e-003
11424	18.641	4.2	5.e-002	-7.1215e-009
11425	18.939	4.2	0.	9.8594e-003
11426	18.839	4.1	0.	1.0475e-002
11427	18.839	4.2	5.e-002	2.2352e-006
11428	19.137	4.2	0.	1.0443e-002
11429	19.038	4.1	0.	1.1058e-002
11430	19.038	4.2	5.e-002	3.7987e-006
11431	19.336	4.2	0.	1.1079e-002
11432	19.236	4.1	0.	1.1692e-002
11433	19.236	4.2	5.e-002	4.7699e-006
11434	19.534	4.2	0.	1.1778e-002
11435	19.435	4.1	0.	1.2386e-002
11436	19.435	4.2	5.e-002	2.6066e-006
11437	19.733	4.2	0.	1.2556e-002
11438	19.633	4.1	0.	1.3147e-002
11439	19.633	4.2	5.e-002	3.0521e-006
11440	19.931	4.2	0.	1.3422e-002
11441	19.832	4.1	0.	1.4001e-002
11442	19.832	4.2	5.e-002	5.9522e-006
11443	20.13	4.2	0.	1.4387e-002
11444	20.03	4.1	0.	1.4947e-002
11445	20.03	4.2	5.e-002	2.5519e-006
11446	20.328	4.2	0.	1.5467e-002
11447	20.229	4.1	0.	1.5999e-002
11448	20.229	4.2	5.e-002	2.8717e-006
11449	20.527	4.2	0.	1.669e-002
11450	20.427	4.1	0.	1.7182e-002
11451	20.427	4.2	5.e-002	6.2264e-006
11452	20.725	4.2	0.	1.8082e-002
11453	20.626	4.1	0.	1.8529e-002
11454	20.626	4.2	5.e-002	7.7596e-006
11455	20.923	4.2	0.	1.9669e-002
11456	20.824	4.1	0.	2.0054e-002
11457	20.824	4.2	5.e-002	5.8953e-006
11458	21.122	4.2	0.	2.1506e-002
11459	21.023	4.1	0.	2.18e-002
11460	21.023	4.2	5.e-002	4.5829e-006
11461	21.32	4.2	0.	2.3652e-002
11462	21.221	4.1	0.	2.383e-002
11463	21.221	4.2	5.e-002	4.4558e-006
11464	21.519	4.2	0.	2.6182e-002
11465	21.42	4.1	0.	2.6206e-002
11466	21.42	4.2	5.e-002	1.7347e-006
11467	21.717	4.2	0.	2.9201e-002
11468	21.618	4.1	0.	2.9017e-002
11469	21.618	4.2	5.e-002	1.4445e-006
11470	21.916	4.2	0.	3.2862e-002
11471	21.817	4.1	0.	3.2387e-002
11472	21.817	4.2	5.e-002	-1.6612e-006
11473	22.114	4.2	0.	3.7366e-002
11474	22.015	4.1	0.	3.6502e-002
11475	22.015	4.2	5.e-002	3.3073e-006
11476	22.313	4.2	0.	4.3036e-002
11477	22.214	4.1	0.	4.1594e-002
11478	22.214	4.2	5.e-002	1.2798e-006
11479	22.511	4.2	0.	5.028e-002
11480	22.412	4.1	0.	4.8096e-002
11481	22.412	4.2	5.e-002	1.4748e-006
11482	22.71	4.2	0.	6.0147e-002
11483	22.611	4.1	0.	5.6425e-002
11484	22.611	4.2	5.e-002	1.227e-006
11485	22.908	4.2	0.	7.2866e-002
11486	22.809	4.1	0.	6.8331e-002
11487	22.809	4.2	5.e-002	4.6487e-006
11488	23.107	4.2	0.	9.5326e-002
11489	23.008	4.1	0.	8.2684e-002
11490	23.008	4.2	5.e-002	5.47e-006
11491	23.305	4.2	0.	0.11553
11492	23.206	4.1	0.	0.11482
11493	23.206	4.2	5.e-002	4.9498e-006
11494	23.504	4.2	0.	0.21729
11495	23.405	4.1	0.	0.12667
11496	23.405	4.2	5.e-002	5.477e-006
11497	23.702	4.2	0.	0.17784
11498	23.603	4.1	0.	0.32988
11499	23.603	4.2	5.e-002	5.8141e-006
11500	23.802	4.1	0.	0.11596
11501	23.802	4.2	5.e-002	6.2717e-006
11502	23.901	4.2	0.	0.28973
11503	2.4644	4.	0.	-358.99
11504	2.3652	3.9	0.	-341.41
11505	2.3652	4.	5.e-002	1.0539e-003
11506	2.2659	4.	0.	-626.97
11507	2.6629	4.	0.	35.731
11508	2.5636	3.9	0.	72.1
11509	2.5636	4.	5.e-002	3.2442e-004
11510	2.8614	4.	0.	-26.884
11511	2.7621	3.9	0.	-33.812
11512	2.7621	4.	5.e-002	3.769e-004
11513	3.0598	4.	0.	-140.87
11514	2.9606	3.9	0.	-175.02
11515	2.9606	4.	5.e-002	3.2757e-004
11516	3.2583	4.	0.	-259.93
11517	3.1591	3.9	0.	-306.28
11518	3.1591	4.	5.e-002	3.1404e-004
11519	3.4568	4.	0.	-323.81
11520	3.3576	3.9	0.	-375.39
11521	3.3576	4.	5.e-002	2.2292e-004
11522	3.6553	4.	0.	-353.61
11523	3.5561	3.9	0.	-407.21
11524	3.5561	4.	5.e-002	2.5648e-004
11525	3.8538	4.	0.	-362.54
11526	3.7545	3.9	0.	-415.64
11527	3.7545	4.	5.e-002	1.7368e-004
11528	4.0523	4.	0.	-358.82
11529	3.953	3.9	0.	-409.8
11530	3.953	4.	5.e-002	1.4391e-004
11531	4.2508	4.	0.	-347.51
11532	4.1515	3.9	0.	-395.38
11533	4.1515	4.	5.e-002	1.1437e-004
11534	4.4492	4.	0.	-331.75
11535	4.35	3.9	0.	-376.01
11536	4.35	4.	5.e-002	6.1202e-005
11537	4.6477	4.	0.	-313.56
11538	4.5485	3.9	0.	-354.02
11539	4.5485	4.	5.e-002	9.9434e-005
11540	4.8462	4.	0.	-294.21
11541	4.747	3.9	0.	-330.9
11542	4.747	4.	5.e-002	6.7401e-005
11543	5.0447	4.	0.	-274.55
11544	4.9455	3.9	0.	-307.63
11545	4.9455	4.	5.e-002	3.491e-005
11546	5.2432	4.	0.	-255.1
11547	5.1439	3.9	0.	-284.81
11548	5.1439	4.	5.e-002	3.382e-005
11549	5.4417	4.	0.	-236.21
11550	5.3424	3.9	0.	-262.83
11551	5.3424	4.	5.e-002	2.5759e-005
11552	5.6402	4.	0.	-218.09
11553	5.5409	3.9	0.	-241.91
11554	5.5409	4.	5.e-002	2.0867e-005
11555	5.8386	4.	0.	-200.88
11556	5.7394	3.9	0.	-222.17
11557	5.7394	4.	5.e-002	5.1806e-006
11558	6.0371	4.	0.	-184.64
11559	5.9379	3.9	0.	-203.67
11560	5.9379	4.	5.e-002	7.813e-006
11561	6.2356	4.	0.	-169.4
11562	6.1364	3.9	0.	-186.41
11563	6.1364	4.	5.e-002	3.3878e-006
11564	6.4341	4.	0.	-155.16
11565	6.3348	3.9	0.	-170.38
11566	6.3348	4.	5.e-002	5.701e-006
11567	6.6326	4.	0.	-141.9
11568	6.5333	3.9	0.	-155.53
11569	6.5333	4.	5.e-002	1.719e-006
11570	6.8311	4.	0.	-129.57
11571	6.7318	3.9	0.	-141.8
11572	6.7318	4.	5.e-002	2.6836e-008
11573	7.0295	4.	0.	-118.15
11574	6.9303	3.9	0.	-129.14
11575	6.9303	4.	5.e-002	1.684e-006
11576	7.228	4.	0.	-107.59
11577	7.1288	3.9	0.	-117.46
11578	7.1288	4.	5.e-002	7.7586e-007
11579	7.4265	4.	0.	-97.823
11580	7.3273	3.9	0.	-106.72
11581	7.3273	4.	5.e-002	2.0359e-006
11582	7.625	4.	0.	-88.813
11583	7.5258	3.9	0.	-96.841
11584	7.5258	4.	5.e-002	4.4618e-007
11585	7.8235	4.	0.	-80.506
11586	7.7242	3.9	0.	-87.76
11587	7.7242	4.	5.e-002	1.9593e-006
11588	8.022	4.	0.	-72.854
11589	7.9227	3.9	0.	-79.417
11590	7.9227	4.	5.e-002	3.3773e-006
11591	8.2205	4.	0.	-65.808
11592	8.1212	3.9	0.	-71.756
11593	8.1212	4.	5.e-002	1.9972e-006
11594	8.4189	4.	0.	-59.325
11595	8.3197	3.9	0.	-64.721
11596	8.3197	4.	5.e-002	2.3267e-006
11597	8.6174	4.	0.	-53.36
11598	8.5182	3.9	0.	-58.263
11599	8.5182	4.	5.e-002	3.0045e-006
11600	8.8159	4.	0.	-47.876
11601	8.7167	3.9	0.	-52.334
11602	8.7167	4.	5.e-002	2.6896e-006
11603	9.0144	4.	0.	-42.833
11604	8.9152	3.9	0.	-46.892
11605	8.9152	4.	5.e-002	2.6777e-006
11606	9.2129	4.	0.	-38.196
11607	9.1136	3.9	0.	-41.897
11608	9.1136	4.	5.e-002	3.046e-006
11609	9.4114	4.	0.	-33.934
11610	9.3121	3.9	0.	-37.31
11611	9.3121	4.	5.e-002	2.7073e-006
11612	9.6098	4.	0.	-30.016
11613	9.5106	3.9	0.	-33.099
11614	9.5106	4.	5.e-002	2.6988e-006
11615	9.8083	4.	0.	-26.414
11616	9.7091	3.9	0.	-29.231
11617	9.7091	4.	5.e-002	2.801e-006
11618	10.007	4.	0.	-23.101
11619	9.9076	3.9	0.	-25.678
11620	9.9076	4.	5.e-002	3.1518e-006
11621	10.205	4.	0.	-20.054
11622	10.106	3.9	0.	-22.414
11623	10.106	4.	5.e-002	2.7392e-006
11624	10.404	4.	0.	-17.251
11625	10.305	3.9	0.	-19.413
11626	10.305	4.	5.e-002	3.059e-006
11627	10.602	4.	0.	-14.671
11628	10.503	3.9	0.	-16.653
11629	10.503	4.	5.e-002	3.0403e-006
11630	10.801	4.	0.	-12.296
11631	10.702	3.9	0.	-14.114
11632	10.702	4.	5.e-002	3.1992e-006
11633	10.999	4.	0.	-10.107
11634	10.9	3.9	0.	-11.777
11635	10.9	4.	5.e-002	2.7527e-006
11636	11.198	4.	0.	-8.0888
11637	11.098	3.9	0.	-9.6241
11638	11.098	4.	5.e-002	3.3184e-006
11639	11.396	4.	0.	-6.2267
11640	11.297	3.9	0.	-7.6393
11641	11.297	4.	5.e-002	3.1108e-006
11642	11.595	4.	0.	-4.5071
11643	11.495	3.9	0.	-5.8077
11644	11.495	4.	5.e-002	2.5704e-006
11645	11.793	4.	0.	-2.9176
11646	11.694	3.9	0.	-4.1161
11647	11.694	4.	5.e-002	2.9044e-006
11648	11.992	4.	0.	-1.4481
11649	11.892	3.9	0.	-2.552
11650	11.892	4.	5.e-002	3.3704e-006
11651	12.19	4.	0.	-0.14459
11652	12.091	3.9	0.	-1.1066
11653	12.091	4.	5.e-002	3.0458e-006
11654	12.389	4.	0.	-4.04e-003
11655	12.289	3.9	0.	-2.6939e-002
11656	12.289	4.	5.e-002	3.5974e-006
11657	12.587	4.	0.	3.331e-004
11658	12.488	3.9	0.	-8.7297e-004
11659	12.488	4.	5.e-002	3.5096e-006
11660	12.786	4.	0.	1.7916e-003
11661	12.686	3.9	0.	1.7467e-003
11662	12.686	4.	5.e-002	4.7371e-006
11663	12.984	4.	0.	2.5458e-003
11664	12.885	3.9	0.	2.7769e-003
11665	12.885	4.	5.e-002	4.2171e-006
11666	13.183	4.	0.	3.0392e-003
11667	13.083	3.9	0.	3.3526e-003
11668	13.083	4.	5.e-002	4.287e-006
11669	13.381	4.	0.	3.411e-003
11670	13.282	3.9	0.	3.7708e-003
11671	13.282	4.	5.e-002	3.8221e-006
11672	13.58	4.	0.	3.7036e-003
11673	13.48	3.9	0.	4.0871e-003
11674	13.48	4.	5.e-002	4.2804e-006
11675	13.778	4.	0.	3.947e-003
11676	13.679	3.9	0.	4.3468e-003
11677	13.679	4.	5.e-002	4.082e-006
11678	13.977	4.	0.	4.1749e-003
11679	13.877	3.9	0.	4.5677e-003
11680	13.877	4.	5.e-002	3.8367e-006
11681	14.175	4.	0.	4.39e-003
11682	14.076	3.9	0.	4.7996e-003
11683	14.076	4.	5.e-002	3.6091e-006
11684	14.373	4.	0.	4.5728e-003
11685	14.274	3.9	0.	4.9974e-003
11686	14.274	4.	5.e-002	4.2969e-006
11687	14.572	4.	0.	4.7534e-003
11688	14.473	3.9	0.	5.1679e-003
11689	14.473	4.	5.e-002	4.1359e-006
11690	14.77	4.	0.	4.9423e-003
11691	14.671	3.9	0.	5.3636e-003
11692	14.671	4.	5.e-002	2.7118e-006
11693	14.969	4.	0.	5.1271e-003
11694	14.87	3.9	0.	5.5528e-003
11695	14.87	4.	5.e-002	3.205e-006
11696	15.167	4.	0.	5.3103e-003
11697	15.068	3.9	0.	5.7414e-003
11698	15.068	4.	5.e-002	4.2629e-006
11699	15.366	4.	0.	5.5056e-003
11700	15.267	3.9	0.	5.9278e-003
11701	15.267	4.	5.e-002	3.6512e-006
11702	15.564	4.	0.	5.7151e-003
11703	15.465	3.9	0.	6.142e-003
11704	15.465	4.	5.e-002	4.0812e-006
11705	15.763	4.	0.	5.9261e-003
11706	15.664	3.9	0.	6.3589e-003
11707	15.664	4.	5.e-002	4.5215e-006
11708	15.961	4.	0.	6.1404e-003
11709	15.862	3.9	0.	6.5779e-003
11710	15.862	4.	5.e-002	4.8054e-006
11711	16.16	4.	0.	6.3734e-003
11712	16.061	3.9	0.	6.8028e-003
11713	16.061	4.	5.e-002	5.9469e-006
11714	16.358	4.	0.	6.62e-003
11715	16.259	3.9	0.	7.0589e-003
11716	16.259	4.	5.e-002	7.1868e-006
11717	16.557	4.	0.	6.863e-003
11718	16.458	3.9	0.	7.3119e-003
11719	16.458	4.	5.e-002	5.7239e-006
11720	16.755	4.	0.	7.1222e-003
11721	16.656	3.9	0.	7.5607e-003
11722	16.656	4.	5.e-002	4.3652e-006
11723	16.954	4.	0.	7.4053e-003
11724	16.855	3.9	0.	7.8487e-003
11725	16.855	4.	5.e-002	5.0453e-006
11726	17.152	4.	0.	7.7019e-003
11727	17.053	3.9	0.	8.1476e-003
11728	17.053	4.	5.e-002	4.191e-006
11729	17.351	4.	0.	8.0141e-003
11730	17.252	3.9	0.	8.4616e-003
11731	17.252	4.	5.e-002	4.7845e-006
11732	17.549	4.	0.	8.3545e-003
11733	17.45	3.9	0.	8.7935e-003
11734	17.45	4.	5.e-002	4.5101e-006
11735	17.748	4.	0.	8.7237e-003
11736	17.648	3.9	0.	9.1649e-003
11737	17.648	4.	5.e-002	3.4236e-006
11738	17.946	4.	0.	9.1151e-003
11739	17.847	3.9	0.	9.5558e-003
11740	17.847	4.	5.e-002	3.2632e-006
11741	18.145	4.	0.	9.5333e-003
11742	18.045	3.9	0.	9.9732e-003
11743	18.045	4.	5.e-002	2.2038e-006
11744	18.343	4.	0.	9.9905e-003
11745	18.244	3.9	0.	1.0418e-002
11746	18.244	4.	5.e-002	1.4583e-006
11747	18.542	4.	0.	1.0484e-002
11748	18.442	3.9	0.	1.0914e-002
11749	18.442	4.	5.e-002	2.3378e-006
11750	18.74	4.	0.	1.1007e-002
11751	18.641	3.9	0.	1.1435e-002
11752	18.641	4.	5.e-002	8.1347e-007
11753	18.939	4.	0.	1.1577e-002
11754	18.839	3.9	0.	1.1991e-002
11755	18.839	4.	5.e-002	3.1314e-006
11756	19.137	4.	0.	1.2206e-002
11757	19.038	3.9	0.	1.2611e-002
11758	19.038	4.	5.e-002	5.2276e-006
11759	19.336	4.	0.	1.2891e-002
11760	19.236	3.9	0.	1.3284e-002
11761	19.236	4.	5.e-002	5.1312e-006
11762	19.534	4.	0.	1.3641e-002
11763	19.435	3.9	0.	1.402e-002
11764	19.435	4.	5.e-002	2.8434e-006
11765	19.733	4.	0.	1.4471e-002
11766	19.633	3.9	0.	1.4824e-002
11767	19.633	4.	5.e-002	4.6201e-006
11768	19.931	4.	0.	1.5396e-002
11769	19.832	3.9	0.	1.5725e-002
11770	19.832	4.	5.e-002	7.5624e-006
11771	20.13	4.	0.	1.6421e-002
11772	20.03	3.9	0.	1.6719e-002
11773	20.03	4.	5.e-002	4.6375e-006
11774	20.328	4.	0.	1.7566e-002
11775	20.229	3.9	0.	1.7825e-002
11776	20.229	4.	5.e-002	4.6104e-006
11777	20.527	4.	0.	1.886e-002
11778	20.427	3.9	0.	1.9065e-002
11779	20.427	4.	5.e-002	7.9068e-006
11780	20.725	4.	0.	2.0326e-002
11781	20.626	3.9	0.	2.047e-002
11782	20.626	4.	5.e-002	9.8567e-006
11783	20.923	4.	0.	2.1993e-002
11784	20.824	3.9	0.	2.2059e-002
11785	20.824	4.	5.e-002	8.958e-006
11786	21.122	4.	0.	2.3913e-002
11787	21.023	3.9	0.	2.3871e-002
11788	21.023	4.	5.e-002	6.5625e-006
11789	21.32	4.	0.	2.6147e-002
11790	21.221	3.9	0.	2.5975e-002
11791	21.221	4.	5.e-002	7.3407e-006
11792	21.519	4.	0.	2.8772e-002
11793	21.42	3.9	0.	2.8426e-002
11794	21.42	4.	5.e-002	2.7109e-006
11795	21.717	4.	0.	3.1892e-002
11796	21.618	3.9	0.	3.1318e-002
11797	21.618	4.	5.e-002	3.4006e-006
11798	21.916	4.	0.	3.566e-002
11799	21.817	3.9	0.	3.4773e-002
11800	21.817	4.	5.e-002	1.2972e-006
11801	22.114	4.	0.	4.0283e-002
11802	22.015	3.9	0.	3.8983e-002
11803	22.015	4.	5.e-002	5.287e-006
11804	22.313	4.	0.	4.6088e-002
11805	22.214	3.9	0.	4.418e-002
11806	22.214	4.	5.e-002	2.5014e-006
11807	22.511	4.	0.	5.3486e-002
11808	22.412	3.9	0.	5.0802e-002
11809	22.412	4.	5.e-002	2.594e-006
11810	22.71	4.	0.	6.3534e-002
11811	22.611	3.9	0.	5.9269e-002
11812	22.611	4.	5.e-002	3.3648e-006
11813	22.908	4.	0.	7.6478e-002
11814	22.809	3.9	0.	7.135e-002
11815	22.809	4.	5.e-002	5.6431e-006
11816	23.107	4.	0.	9.9251e-002
11817	23.008	3.9	0.	8.5924e-002
11818	23.008	4.	5.e-002	8.3165e-006
11819	23.305	4.	0.	0.11986
11820	23.206	3.9	0.	0.1184
11821	23.206	4.	5.e-002	6.7773e-006
11822	23.504	4.	0.	0.22264
11823	23.405	3.9	0.	0.13065
11824	23.405	4.	5.e-002	7.1638e-006
11825	23.702	4.	0.	0.18566
11826	23.603	3.9	0.	0.33541
11827	23.603	4.	5.e-002	3.7876e-006
11828	23.802	3.9	0.	0.12586
11829	23.802	4.	5.e-002	9.6381e-006
11830	23.901	4.	0.	0.29232
11831	2.4644	3.8	0.	32.089
11832	2.3652	3.7	0.	-4.5262
11833	2.3652	3.8	5.e-002	2.8259e-004
11834	2.6629	3.8	0.	8.7132
11835	2.5636	3.7	0.	14.846
11836	2.5636	3.8	5.e-002	1.4617e-004
11837	2.8614	3.8	0.	-204.22
11838	2.7621	3.7	0.	-191.2
11839	2.7621	3.8	5.e-002	2.1745e-004
11840	3.0598	3.8	0.	-345.98
11841	2.9606	3.7	0.	-362.9
11842	2.9606	3.8	5.e-002	1.6186e-004
11843	3.2583	3.8	0.	-424.56
11844	3.1591	3.7	0.	-459.58
11845	3.1591	3.8	5.e-002	1.7382e-004
11846	3.4568	3.8	0.	-460.57
11847	3.3576	3.7	0.	-505.54
11848	3.3576	3.8	5.e-002	1.21e-004
11849	3.6553	3.8	0.	-470.32
11850	3.5561	3.7	0.	-519.9
11851	3.5561	3.8	5.e-002	1.3767e-004
11852	3.8538	3.8	0.	-463.52
11853	3.7545	3.7	0.	-514.13
11854	3.7545	3.8	5.e-002	1.1045e-004
11855	4.0523	3.8	0.	-446.7
11856	3.953	3.7	0.	-496.08
11857	3.953	3.8	5.e-002	1.0498e-004
11858	4.2508	3.8	0.	-424.05
11859	4.1515	3.7	0.	-470.87
11860	4.1515	3.8	5.e-002	4.7867e-005
11861	4.4492	3.8	0.	-398.36
11862	4.35	3.7	0.	-441.88
11863	4.35	3.8	5.e-002	7.8706e-005
11864	4.6477	3.8	0.	-371.4
11865	4.5485	3.7	0.	-411.31
11866	4.5485	3.8	5.e-002	4.3183e-005
11867	4.8462	3.8	0.	-344.34
11868	4.747	3.7	0.	-380.59
11869	4.747	3.8	5.e-002	4.7774e-005
11870	5.0447	3.8	0.	-317.9
11871	4.9455	3.7	0.	-350.61
11872	4.9455	3.8	5.e-002	1.7148e-005
11873	5.2432	3.8	0.	-292.55
11874	5.1439	3.7	0.	-321.92
11875	5.1439	3.8	5.e-002	2.4327e-005
11876	5.4417	3.8	0.	-268.53
11877	5.3424	3.7	0.	-294.82
11878	5.3424	3.8	5.e-002	9.6905e-006
11879	5.6402	3.8	0.	-245.98
11880	5.5409	3.7	0.	-269.47
11881	5.5409	3.8	5.e-002	3.2619e-006
11882	5.8386	3.8	0.	-224.95
11883	5.7394	3.7	0.	-245.92
11884	5.7394	3.8	5.e-002	3.5409e-006
11885	6.0371	3.8	0.	-205.44
11886	5.9379	3.7	0.	-224.15
11887	5.9379	3.8	5.e-002	-2.4338e-006
11888	6.2356	3.8	0.	-187.39
11889	6.1364	3.7	0.	-204.09
11890	6.1364	3.8	5.e-002	-1.2602e-008
11891	6.4341	3.8	0.	-170.75
11892	6.3348	3.7	0.	-185.66
11893	6.3348	3.8	5.e-002	3.7008e-006
11894	6.6326	3.8	0.	-155.43
11895	6.5333	3.7	0.	-168.77
11896	6.5333	3.8	5.e-002	-7.4094e-007
11897	6.8311	3.8	0.	-141.36
11898	6.7318	3.7	0.	-153.29
11899	6.7318	3.8	5.e-002	-1.4971e-006
11900	7.0295	3.8	0.	-128.44
11901	6.9303	3.7	0.	-139.14
11902	6.9303	3.8	5.e-002	-1.1556e-006
11903	7.228	3.8	0.	-116.6
11904	7.1288	3.7	0.	-126.2
11905	7.1288	3.8	5.e-002	-6.6987e-007
11906	7.4265	3.8	0.	-105.73
11907	7.3273	3.7	0.	-114.37
11908	7.3273	3.8	5.e-002	-5.1174e-007
11909	7.625	3.8	0.	-95.782
11910	7.5258	3.7	0.	-103.56
11911	7.5258	3.8	5.e-002	5.0122e-007
11912	7.8235	3.8	0.	-86.664
11913	7.7242	3.7	0.	-93.678
11914	7.7242	3.8	5.e-002	2.546e-006
11915	8.022	3.8	0.	-78.311
11916	7.9227	3.7	0.	-84.648
11917	7.9227	3.8	5.e-002	9.4472e-007
11918	8.2205	3.8	0.	-70.658
11919	8.1212	3.7	0.	-76.392
11920	8.1212	3.8	5.e-002	3.4098e-007
11921	8.4189	3.8	0.	-63.648
11922	8.3197	3.7	0.	-68.843
11923	8.3197	3.8	5.e-002	1.3349e-006
11924	8.6174	3.8	0.	-57.224
11925	8.5182	3.7	0.	-61.939
11926	8.5182	3.8	5.e-002	2.4445e-006
11927	8.8159	3.8	0.	-51.338
11928	8.7167	3.7	0.	-55.621
11929	8.7167	3.8	5.e-002	2.1713e-006
11930	9.0144	3.8	0.	-45.942
11931	8.9152	3.7	0.	-49.838
11932	8.9152	3.8	5.e-002	1.8971e-006
11933	9.2129	3.8	0.	-40.995
11934	9.1136	3.7	0.	-44.543
11935	9.1136	3.8	5.e-002	2.1692e-006
11936	9.4114	3.8	0.	-36.458
11937	9.3121	3.7	0.	-39.693
11938	9.3121	3.8	5.e-002	1.9889e-006
11939	9.6098	3.8	0.	-32.297
11940	9.5106	3.7	0.	-35.249
11941	9.5106	3.8	5.e-002	1.7778e-006
11942	9.8083	3.8	0.	-28.478
11943	9.7091	3.7	0.	-31.174
11944	9.7091	3.8	5.e-002	1.8557e-006
11945	10.007	3.8	0.	-24.972
11946	9.9076	3.7	0.	-27.437
11947	9.9076	3.8	5.e-002	2.6673e-006
11948	10.205	3.8	0.	-21.752
11949	10.106	3.7	0.	-24.008
11950	10.106	3.8	5.e-002	2.8046e-006
11951	10.404	3.8	0.	-18.794
11952	10.305	3.7	0.	-20.861
11953	10.305	3.8	5.e-002	2.9366e-006
11954	10.602	3.8	0.	-16.075
11955	10.503	3.7	0.	-17.969
11956	10.503	3.8	5.e-002	2.5805e-006
11957	10.801	3.8	0.	-13.574
11958	10.702	3.7	0.	-15.312
11959	10.702	3.8	5.e-002	2.6189e-006
11960	10.999	3.8	0.	-11.271
11961	10.9	3.7	0.	-12.867
11962	10.9	3.8	5.e-002	2.8783e-006
11963	11.198	3.8	0.	-9.1508
11964	11.098	3.7	0.	-10.618
11965	11.098	3.8	5.e-002	3.0696e-006
11966	11.396	3.8	0.	-7.1957
11967	11.297	3.7	0.	-8.5454
11968	11.297	3.8	5.e-002	2.8775e-006
11969	11.595	3.8	0.	-5.3915
11970	11.495	3.7	0.	-6.6345
11971	11.495	3.8	5.e-002	2.5187e-006
11972	11.793	3.8	0.	-3.7247
11973	11.694	3.7	0.	-4.8707
11974	11.694	3.8	5.e-002	2.7042e-006
11975	11.992	3.8	0.	-2.1832
11976	11.892	3.7	0.	-3.2404
11977	11.892	3.8	5.e-002	3.4159e-006
11978	12.19	3.8	0.	-0.75939
11979	12.091	3.7	0.	-1.7323
11980	12.091	3.8	5.e-002	3.0366e-006
11981	12.389	3.8	0.	-6.9459e-003
11982	12.289	3.7	0.	-0.34517
11983	12.289	3.8	5.e-002	3.3509e-006
11984	12.587	3.8	0.	1.3136e-003
11985	12.488	3.7	0.	-3.289e-004
11986	12.488	3.8	5.e-002	3.4783e-006
11987	12.786	3.8	0.	2.9171e-003
11988	12.686	3.7	0.	2.9219e-003
11989	12.686	3.8	5.e-002	4.8179e-006
11990	12.984	3.8	0.	3.6419e-003
11991	12.885	3.7	0.	3.8863e-003
11992	12.885	3.8	5.e-002	4.2163e-006
11993	13.183	3.8	0.	4.097e-003
11994	13.083	3.7	0.	4.3893e-003
11995	13.083	3.8	5.e-002	4.2607e-006
11996	13.381	3.8	0.	4.4386e-003
11997	13.282	3.7	0.	4.7534e-003
11998	13.282	3.8	5.e-002	3.8499e-006
11999	13.58	3.8	0.	4.7104e-003
12000	13.48	3.7	0.	5.0345e-003
12001	13.48	3.8	5.e-002	4.048e-006
12002	13.778	3.8	0.	4.9404e-003
12003	13.679	3.7	0.	5.2697e-003
12004	13.679	3.8	5.e-002	3.7648e-006
12005	13.977	3.8	0.	5.1603e-003
12006	13.877	3.7	0.	5.4738e-003
12007	13.877	3.8	5.e-002	4.1133e-006
12008	14.175	3.8	0.	5.3713e-003
12009	14.076	3.7	0.	5.6956e-003
12010	14.076	3.8	5.e-002	3.6022e-006
12011	14.373	3.8	0.	5.5538e-003
12012	14.274	3.7	0.	5.888e-003
12013	14.274	3.8	5.e-002	4.1161e-006
12014	14.572	3.8	0.	5.737e-003
12015	14.473	3.7	0.	6.056e-003
12016	14.473	3.8	5.e-002	4.2617e-006
12017	14.77	3.8	0.	5.9309e-003
12018	14.671	3.7	0.	6.2519e-003
12019	14.671	3.8	5.e-002	2.7178e-006
12020	14.969	3.8	0.	6.122e-003
12021	14.87	3.7	0.	6.4448e-003
12022	14.87	3.8	5.e-002	3.2152e-006
12023	15.167	3.8	0.	6.312e-003
12024	15.068	3.7	0.	6.6374e-003
12025	15.068	3.8	5.e-002	4.1037e-006
12026	15.366	3.8	0.	6.5156e-003
12027	15.267	3.7	0.	6.8294e-003
12028	15.267	3.8	5.e-002	3.8504e-006
12029	15.564	3.8	0.	6.7355e-003
12030	15.465	3.7	0.	7.0507e-003
12031	15.465	3.8	5.e-002	4.0565e-006
12032	15.763	3.8	0.	6.9587e-003
12033	15.664	3.7	0.	7.2758e-003
12034	15.664	3.8	5.e-002	4.7248e-006
12035	15.961	3.8	0.	7.1866e-003
12036	15.862	3.7	0.	7.5049e-003
12037	15.862	3.8	5.e-002	5.1584e-006
12038	16.16	3.8	0.	7.4328e-003
12039	16.061	3.7	0.	7.7391e-003
12040	16.061	3.8	5.e-002	6.4061e-006
12041	16.358	3.8	0.	7.6936e-003
12042	16.259	3.7	0.	8.0075e-003
12043	16.259	3.8	5.e-002	6.9562e-006
12044	16.557	3.8	0.	7.9506e-003
12045	16.458	3.7	0.	8.2728e-003
12046	16.458	3.8	5.e-002	6.2126e-006
12047	16.755	3.8	0.	8.2263e-003
12048	16.656	3.7	0.	8.5338e-003
12049	16.656	3.8	5.e-002	4.1319e-006
12050	16.954	3.8	0.	8.5282e-003
12051	16.855	3.7	0.	8.8356e-003
12052	16.855	3.8	5.e-002	4.9593e-006
12053	17.152	3.8	0.	8.8424e-003
12054	17.053	3.7	0.	9.1488e-003
12055	17.053	3.8	5.e-002	3.7234e-006
12056	17.351	3.8	0.	9.1738e-003
12057	17.252	3.7	0.	9.4785e-003
12058	17.252	3.8	5.e-002	5.1586e-006
12059	17.549	3.8	0.	9.5343e-003
12060	17.45	3.7	0.	9.8266e-003
12061	17.45	3.8	5.e-002	4.8842e-006
12062	17.748	3.8	0.	9.9249e-003
12063	17.648	3.7	0.	1.0214e-002
12064	17.648	3.8	5.e-002	3.6002e-006
12065	17.946	3.8	0.	1.0339e-002
12066	17.847	3.7	0.	1.0624e-002
12067	17.847	3.8	5.e-002	2.9933e-006
12068	18.145	3.8	0.	1.078e-002
12069	18.045	3.7	0.	1.1061e-002
12070	18.045	3.8	5.e-002	2.9158e-006
12071	18.343	3.8	0.	1.1261e-002
12072	18.244	3.7	0.	1.1525e-002
12073	18.244	3.8	5.e-002	1.659e-006
12074	18.542	3.8	0.	1.1781e-002
12075	18.442	3.7	0.	1.2042e-002
12076	18.442	3.8	5.e-002	2.5563e-006
12077	18.74	3.8	0.	1.2333e-002
12078	18.641	3.7	0.	1.2586e-002
12079	18.641	3.8	5.e-002	1.3113e-006
12080	18.939	3.8	0.	1.2934e-002
12081	18.839	3.7	0.	1.3167e-002
12082	18.839	3.8	5.e-002	4.1012e-006
12083	19.137	3.8	0.	1.3593e-002
12084	19.038	3.7	0.	1.3811e-002
12085	19.038	3.8	5.e-002	5.9443e-006
12086	19.336	3.8	0.	1.4312e-002
12087	19.236	3.7	0.	1.451e-002
12088	19.236	3.8	5.e-002	5.6798e-006
12089	19.534	3.8	0.	1.5097e-002
12090	19.435	3.7	0.	1.5274e-002
12091	19.435	3.8	5.e-002	4.5867e-006
12092	19.733	3.8	0.	1.5965e-002
12093	19.633	3.7	0.	1.6109e-002
12094	19.633	3.8	5.e-002	4.9213e-006
12095	19.931	3.8	0.	1.6929e-002
12096	19.832	3.7	0.	1.7042e-002
12097	19.832	3.8	5.e-002	7.8505e-006
12098	20.13	3.8	0.	1.7997e-002
12099	20.03	3.7	0.	1.8071e-002
12100	20.03	3.8	5.e-002	5.373e-006
12101	20.328	3.8	0.	1.9188e-002
12102	20.229	3.7	0.	1.9213e-002
12103	20.229	3.8	5.e-002	6.3155e-006
12104	20.527	3.8	0.	2.0528e-002
12105	20.427	3.7	0.	2.0491e-002
12106	20.427	3.8	5.e-002	8.2061e-006
12107	20.725	3.8	0.	2.2044e-002
12108	20.626	3.7	0.	2.1936e-002
12109	20.626	3.8	5.e-002	9.6915e-006
12110	20.923	3.8	0.	2.3764e-002
12111	20.824	3.7	0.	2.3568e-002
12112	20.824	3.8	5.e-002	8.269e-006
12113	21.122	3.8	0.	2.5742e-002
12114	21.023	3.7	0.	2.5424e-002
12115	21.023	3.8	5.e-002	6.3371e-006
12116	21.32	3.8	0.	2.8038e-002
12117	21.221	3.7	0.	2.7578e-002
12118	21.221	3.8	5.e-002	8.6117e-006
12119	21.519	3.8	0.	3.0727e-002
12120	21.42	3.7	0.	3.0079e-002
12121	21.42	3.8	5.e-002	5.8598e-006
12122	21.717	3.8	0.	3.3914e-002
12123	21.618	3.7	0.	3.3025e-002
12124	21.618	3.8	5.e-002	2.8258e-006
12125	21.916	3.8	0.	3.7757e-002
12126	21.817	3.7	0.	3.6539e-002
12127	21.817	3.8	5.e-002	2.7109e-006
12128	22.114	3.8	0.	4.2461e-002
12129	22.015	3.7	0.	4.0813e-002
12130	22.015	3.8	5.e-002	5.5792e-006
12131	22.313	3.8	0.	4.8357e-002
12132	22.214	3.7	0.	4.6081e-002
12133	22.214	3.8	5.e-002	3.7306e-006
12134	22.511	3.8	0.	5.5861e-002
12135	22.412	3.7	0.	5.2785e-002
12136	22.412	3.8	5.e-002	4.7551e-006
12137	22.71	3.8	0.	6.6039e-002
12138	22.611	3.7	0.	6.135e-002
12139	22.611	3.8	5.e-002	4.4965e-006
12140	22.908	3.8	0.	7.9146e-002
12141	22.809	3.7	0.	7.3558e-002
12142	22.809	3.8	5.e-002	4.9721e-006
12143	23.107	3.8	0.	0.10215
12144	23.008	3.7	0.	8.8289e-002
12145	23.008	3.8	5.e-002	7.3984e-006
12146	23.305	3.8	0.	0.12306
12147	23.206	3.7	0.	0.12101
12148	23.206	3.8	5.e-002	6.9129e-006
12149	23.504	3.8	0.	0.22662
12150	23.405	3.7	0.	0.13357
12151	23.405	3.8	5.e-002	7.1271e-006
12152	23.702	3.8	0.	0.19158
12153	23.603	3.7	0.	0.33949
12154	23.603	3.8	5.e-002	1.7938e-006
12155	23.802	3.7	0.	0.13335
12156	23.802	3.8	5.e-002	9.5725e-006
12157	23.901	3.8	0.	0.29421
12158	2.4644	3.6	0.	-21.458
12159	2.3652	3.5	0.	-8.4092
12160	2.3652	3.6	5.e-002	3.8934e-004
12161	2.6629	3.6	0.	-117.99
12162	2.5636	3.5	0.	-28.084
12163	2.5636	3.6	5.e-002	1.1487e-004
12164	2.8614	3.6	0.	-347.83
12165	2.7621	3.5	0.	-286.61
12166	2.7621	3.6	5.e-002	3.7758e-005
12167	3.0598	3.6	0.	-476.63
12168	2.9606	3.5	0.	-460.16
12169	2.9606	3.6	5.e-002	6.5892e-005
12170	3.2583	3.6	0.	-541.37
12171	3.1591	3.5	0.	-554.27
12172	3.1591	3.6	5.e-002	8.5092e-005
12173	3.4568	3.6	0.	-565.62
12174	3.3576	3.5	0.	-595.91
12175	3.3576	3.6	5.e-002	6.6256e-005
12176	3.6553	3.6	0.	-564.24
12177	3.5561	3.5	0.	-603.71
12178	3.5561	3.6	5.e-002	7.8838e-005
12179	3.8538	3.6	0.	-547.03
12180	3.7545	3.5	0.	-590.36
12181	3.7545	3.6	5.e-002	8.0195e-005
12182	4.0523	3.6	0.	-520.45
12183	3.953	3.5	0.	-564.36
12184	3.953	3.6	5.e-002	5.564e-005
12185	4.2508	3.6	0.	-488.8
12186	4.1515	3.5	0.	-531.34
12187	4.1515	3.6	5.e-002	3.3677e-005
12188	4.4492	3.6	0.	-454.88
12189	4.35	3.5	0.	-494.96
12190	4.35	3.6	5.e-002	3.3823e-005
12191	4.6477	3.6	0.	-420.52
12192	4.5485	3.5	0.	-457.6
12193	4.5485	3.6	5.e-002	2.8441e-005
12194	4.8462	3.6	0.	-386.87
12195	4.747	3.5	0.	-420.75
12196	4.747	3.6	5.e-002	1.2531e-005
12197	5.0447	3.6	0.	-354.63
12198	4.9455	3.5	0.	-385.32
12199	4.9455	3.6	5.e-002	1.6893e-005
12200	5.2432	3.6	0.	-324.2
12201	5.1439	3.5	0.	-351.84
12202	5.1439	3.6	5.e-002	5.5893e-006
12203	5.4417	3.6	0.	-295.77
12204	5.3424	3.5	0.	-320.57
12205	5.3424	3.6	5.e-002	6.2423e-006
12206	5.6402	3.6	0.	-269.42
12207	5.5409	3.5	0.	-291.61
12208	5.5409	3.6	5.e-002	-2.753e-006
12209	5.8386	3.6	0.	-245.12
12210	5.7394	3.5	0.	-264.94
12211	5.7394	3.6	5.e-002	-1.7019e-006
12212	6.0371	3.6	0.	-222.8
12213	5.9379	3.5	0.	-240.5
12214	5.9379	3.6	5.e-002	-2.9918e-006
12215	6.2356	3.6	0.	-202.36
12216	6.1364	3.5	0.	-218.17
12217	6.1364	3.6	5.e-002	-1.4136e-006
12218	6.4341	3.6	0.	-183.68
12219	6.3348	3.5	0.	-197.8
12220	6.3348	3.6	5.e-002	-1.021e-006
12221	6.6326	3.6	0.	-166.63
12222	6.5333	3.5	0.	-179.25
12223	6.5333	3.6	5.e-002	-4.4349e-006
12224	6.8311	3.6	0.	-151.07
12225	6.7318	3.5	0.	-162.37
12226	6.7318	3.6	5.e-002	-2.2482e-006
12227	7.0295	3.6	0.	-136.89
12228	6.9303	3.5	0.	-147.02
12229	6.9303	3.6	5.e-002	-2.0375e-006
12230	7.228	3.6	0.	-123.97
12231	7.1288	3.5	0.	-133.05
12232	7.1288	3.6	5.e-002	-2.0417e-006
12233	7.4265	3.6	0.	-112.19
12234	7.3273	3.5	0.	-120.35
12235	7.3273	3.6	5.e-002	-1.7233e-008
12236	7.625	3.6	0.	-101.45
12237	7.5258	3.5	0.	-108.8
12238	7.5258	3.6	5.e-002	2.0319e-007
12239	7.8235	3.6	0.	-91.655
12240	7.7242	3.5	0.	-98.285
12241	7.7242	3.6	5.e-002	1.439e-006
12242	8.022	3.6	0.	-82.721
12243	7.9227	3.5	0.	-88.709
12244	7.9227	3.6	5.e-002	-1.0501e-006
12245	8.2205	3.6	0.	-74.568
12246	8.1212	3.5	0.	-79.984
12247	8.1212	3.6	5.e-002	6.0436e-007
12248	8.4189	3.6	0.	-67.124
12249	8.3197	3.5	0.	-72.03
12250	8.3197	3.6	5.e-002	1.2025e-006
12251	8.6174	3.6	0.	-60.324
12252	8.5182	3.5	0.	-64.774
12253	8.5182	3.6	5.e-002	1.3908e-006
12254	8.8159	3.6	0.	-54.109
12255	8.7167	3.5	0.	-58.151
12256	8.7167	3.6	5.e-002	1.6679e-006
12257	9.0144	3.6	0.	-48.426
12258	8.9152	3.5	0.	-52.102
12259	8.9152	3.6	5.e-002	1.9637e-006
12260	9.2129	3.6	0.	-43.226
12261	9.1136	3.5	0.	-46.573
12262	9.1136	3.6	5.e-002	1.805e-006
12263	9.4114	3.6	0.	-38.468
12264	9.3121	3.5	0.	-41.518
12265	9.3121	3.6	5.e-002	2.119e-006
12266	9.6098	3.6	0.	-34.109
12267	9.5106	3.5	0.	-36.893
12268	9.5106	3.6	5.e-002	2.4505e-006
12269	9.8083	3.6	0.	-30.116
12270	9.7091	3.5	0.	-32.659
12271	9.7091	3.6	5.e-002	1.6134e-006
12272	10.007	3.6	0.	-26.455
12273	9.9076	3.5	0.	-28.78
12274	9.9076	3.6	5.e-002	2.2176e-006
12275	10.205	3.6	0.	-23.097
12276	10.106	3.5	0.	-25.224
12277	10.106	3.6	5.e-002	2.3918e-006
12278	10.404	3.6	0.	-20.015
12279	10.305	3.5	0.	-21.963
12280	10.305	3.6	5.e-002	2.7655e-006
12281	10.602	3.6	0.	-17.184
12282	10.503	3.5	0.	-18.971
12283	10.503	3.6	5.e-002	2.45e-006
12284	10.801	3.6	0.	-14.583
12285	10.702	3.5	0.	-16.222
12286	10.702	3.6	5.e-002	2.4955e-006
12287	10.999	3.6	0.	-12.191
12288	10.9	3.5	0.	-13.696
12289	10.9	3.6	5.e-002	2.548e-006
12290	11.198	3.6	0.	-9.9887
12291	11.098	3.5	0.	-11.372
12292	11.098	3.6	5.e-002	3.0886e-006
12293	11.396	3.6	0.	-7.9598
12294	11.297	3.5	0.	-9.2334
12295	11.297	3.6	5.e-002	2.9136e-006
12296	11.595	3.6	0.	-6.0886
12297	11.495	3.5	0.	-7.2619
12298	11.495	3.6	5.e-002	2.2762e-006
12299	11.793	3.6	0.	-4.3607
12300	11.694	3.5	0.	-5.4431
12301	11.694	3.6	5.e-002	2.7407e-006
12302	11.992	3.6	0.	-2.7631
12303	11.892	3.5	0.	-3.7626
12304	11.892	3.6	5.e-002	3.268e-006
12305	12.19	3.6	0.	-1.2846
12306	12.091	3.5	0.	-2.2082
12307	12.091	3.6	5.e-002	3.1078e-006
12308	12.389	3.6	0.	-2.868e-002
12309	12.289	3.5	0.	-0.76939
12310	12.289	3.6	5.e-002	3.6887e-006
12311	12.587	3.6	0.	2.555e-003
12312	12.488	3.5	0.	5.7044e-004
12313	12.488	3.6	5.e-002	3.5916e-006
12314	12.786	3.6	0.	4.0679e-003
12315	12.686	3.5	0.	4.1702e-003
12316	12.686	3.6	5.e-002	4.9694e-006
12317	12.984	3.6	0.	4.6642e-003
12318	12.885	3.5	0.	4.9106e-003
12319	12.885	3.6	5.e-002	4.1907e-006
12320	13.183	3.6	0.	5.0347e-003
12321	13.083	3.5	0.	5.2845e-003
12322	13.083	3.6	5.e-002	4.4796e-006
12323	13.381	3.6	0.	5.3218e-003
12324	13.282	3.5	0.	5.5717e-003
12325	13.282	3.6	5.e-002	3.8301e-006
12326	13.58	3.6	0.	5.5582e-003
12327	13.48	3.5	0.	5.8036e-003
12328	13.48	3.6	5.e-002	4.4103e-006
12329	13.778	3.6	0.	5.763e-003
12330	13.679	3.5	0.	6.0055e-003
12331	13.679	3.6	5.e-002	4.2858e-006
12332	13.977	3.6	0.	5.966e-003
12333	13.877	3.5	0.	6.1883e-003
12334	13.877	3.6	5.e-002	4.1143e-006
12335	14.175	3.6	0.	6.1671e-003
12336	14.076	3.5	0.	6.3951e-003
12337	14.076	3.6	5.e-002	3.7839e-006
12338	14.373	3.6	0.	6.3432e-003
12339	14.274	3.5	0.	6.5787e-003
12340	14.274	3.6	5.e-002	4.425e-006
12341	14.572	3.6	0.	6.5225e-003
12342	14.473	3.5	0.	6.7408e-003
12343	14.473	3.6	5.e-002	4.3289e-006
12344	14.77	3.6	0.	6.7161e-003
12345	14.671	3.5	0.	6.9336e-003
12346	14.671	3.6	5.e-002	3.0971e-006
12347	14.969	3.6	0.	6.9093e-003
12348	14.87	3.5	0.	7.1256e-003
12349	14.87	3.6	5.e-002	3.6123e-006
12350	15.167	3.6	0.	7.1027e-003
12351	15.068	3.5	0.	7.3191e-003
12352	15.068	3.6	5.e-002	4.3179e-006
12353	15.366	3.6	0.	7.3113e-003
12354	15.267	3.5	0.	7.5139e-003
12355	15.267	3.6	5.e-002	4.1856e-006
12356	15.564	3.6	0.	7.5366e-003
12357	15.465	3.5	0.	7.739e-003
12358	15.465	3.6	5.e-002	4.7467e-006
12359	15.763	3.6	0.	7.7665e-003
12360	15.664	3.5	0.	7.9678e-003
12361	15.664	3.6	5.e-002	4.9653e-006
12362	15.961	3.6	0.	8.0006e-003
12363	15.862	3.5	0.	8.2027e-003
12364	15.862	3.6	5.e-002	5.3892e-006
12365	16.16	3.6	0.	8.2556e-003
12366	16.061	3.5	0.	8.4422e-003
12367	16.061	3.6	5.e-002	6.0839e-006
12368	16.358	3.6	0.	8.5272e-003
12369	16.259	3.5	0.	8.719e-003
12370	16.259	3.6	5.e-002	7.3511e-006
12371	16.557	3.6	0.	8.7952e-003
12372	16.458	3.5	0.	8.9908e-003
12373	16.458	3.6	5.e-002	7.1826e-006
12374	16.755	3.6	0.	9.0806e-003
12375	16.656	3.5	0.	9.262e-003
12376	16.656	3.6	5.e-002	5.0224e-006
12377	16.954	3.6	0.	9.3923e-003
12378	16.855	3.5	0.	9.57e-003
12379	16.855	3.6	5.e-002	5.1091e-006
12380	17.152	3.6	0.	9.7193e-003
12381	17.053	3.5	0.	9.894e-003
12382	17.053	3.6	5.e-002	4.3826e-006
12383	17.351	3.6	0.	1.0064e-002
12384	17.252	3.5	0.	1.0233e-002
12385	17.252	3.6	5.e-002	5.315e-006
12386	17.549	3.6	0.	1.0438e-002
12387	17.45	3.5	0.	1.0592e-002
12388	17.45	3.6	5.e-002	5.0584e-006
12389	17.748	3.6	0.	1.0842e-002
12390	17.648	3.5	0.	1.099e-002
12391	17.648	3.6	5.e-002	3.5419e-006
12392	17.946	3.6	0.	1.1272e-002
12393	17.847	3.5	0.	1.1412e-002
12394	17.847	3.6	5.e-002	3.72e-006
12395	18.145	3.6	0.	1.173e-002
12396	18.045	3.5	0.	1.1861e-002
12397	18.045	3.6	5.e-002	3.1482e-006
12398	18.343	3.6	0.	1.2228e-002
12399	18.244	3.5	0.	1.2339e-002
12400	18.244	3.6	5.e-002	2.1826e-006
12401	18.542	3.6	0.	1.2766e-002
12402	18.442	3.5	0.	1.287e-002
12403	18.442	3.6	5.e-002	3.0923e-006
12404	18.74	3.6	0.	1.3337e-002
12405	18.641	3.5	0.	1.343e-002
12406	18.641	3.6	5.e-002	2.8072e-006
12407	18.939	3.6	0.	1.3957e-002
12408	18.839	3.5	0.	1.4025e-002
12409	18.839	3.6	5.e-002	4.3752e-006
12410	19.137	3.6	0.	1.4637e-002
12411	19.038	3.5	0.	1.4687e-002
12412	19.038	3.6	5.e-002	6.7251e-006
12413	19.336	3.6	0.	1.5377e-002
12414	19.236	3.5	0.	1.5404e-002
12415	19.236	3.6	5.e-002	5.9768e-006
12416	19.534	3.6	0.	1.6187e-002
12417	19.435	3.5	0.	1.6185e-002
12418	19.435	3.6	5.e-002	4.9148e-006
12419	19.733	3.6	0.	1.708e-002
12420	19.633	3.5	0.	1.7041e-002
12421	19.633	3.6	5.e-002	5.8107e-006
12422	19.931	3.6	0.	1.8072e-002
12423	19.832	3.5	0.	1.7995e-002
12424	19.832	3.6	5.e-002	9.1665e-006
12425	20.13	3.6	0.	1.9168e-002
12426	20.03	3.5	0.	1.9047e-002
12427	20.03	3.6	5.e-002	5.2924e-006
12428	20.328	3.6	0.	2.039e-002
12429	20.229	3.5	0.	2.0212e-002
12430	20.229	3.6	5.e-002	6.6699e-006
12431	20.527	3.6	0.	2.1763e-002
12432	20.427	3.5	0.	2.1515e-002
12433	20.427	3.6	5.e-002	1.0009e-005
12434	20.725	3.6	0.	2.3313e-002
12435	20.626	3.5	0.	2.2988e-002
12436	20.626	3.6	5.e-002	1.1459e-005
12437	20.923	3.6	0.	2.5068e-002
12438	20.824	3.5	0.	2.4649e-002
12439	20.824	3.6	5.e-002	1.0061e-005
12440	21.122	3.6	0.	2.7083e-002
12441	21.023	3.5	0.	2.6534e-002
12442	21.023	3.6	5.e-002	7.6604e-006
12443	21.32	3.6	0.	2.9419e-002
12444	21.221	3.5	0.	2.8718e-002
12445	21.221	3.6	5.e-002	9.914e-006
12446	21.519	3.6	0.	3.2148e-002
12447	21.42	3.5	0.	3.1251e-002
12448	21.42	3.6	5.e-002	6.2557e-006
12449	21.717	3.6	0.	3.5382e-002
12450	21.618	3.5	0.	3.4233e-002
12451	21.618	3.6	5.e-002	5.1044e-006
12452	21.916	3.6	0.	3.9273e-002
12453	21.817	3.5	0.	3.7784e-002
12454	21.817	3.6	5.e-002	5.0379e-006
12455	22.114	3.6	0.	4.4033e-002
12456	22.015	3.5	0.	4.21e-002
12457	22.015	3.6	5.e-002	7.0093e-006
12458	22.313	3.6	0.	4.9992e-002
12459	22.214	3.5	0.	4.7416e-002
12460	22.214	3.6	5.e-002	6.0476e-006
12461	22.511	3.6	0.	5.7568e-002
12462	22.412	3.5	0.	5.4175e-002
12463	22.412	3.6	5.e-002	6.1046e-006
12464	22.71	3.6	0.	6.7838e-002
12465	22.611	3.5	0.	6.2807e-002
12466	22.611	3.6	5.e-002	5.9387e-006
12467	22.908	3.6	0.	8.1062e-002
12468	22.809	3.5	0.	7.5103e-002
12469	22.809	3.6	5.e-002	8.1721e-006
12470	23.107	3.6	0.	0.10423
12471	23.008	3.5	0.	8.9945e-002
12472	23.008	3.6	5.e-002	9.4944e-006
12473	23.305	3.6	0.	0.12536
12474	23.206	3.5	0.	0.12285
12475	23.206	3.6	5.e-002	6.9496e-006
12476	23.504	3.6	0.	0.22949
12477	23.405	3.5	0.	0.13562
12478	23.405	3.6	5.e-002	1.0995e-005
12479	23.702	3.6	0.	0.19591
12480	23.603	3.5	0.	0.34237
12481	23.603	3.6	5.e-002	7.4599e-006
12482	23.802	3.5	0.	0.13874
12483	23.802	3.6	5.e-002	1.1429e-005
12484	23.901	3.6	0.	0.29555
12485	2.4644	3.4	0.	0.59871
12486	2.3652	3.3	0.	1.5886
12487	2.3652	3.4	5.e-002	2.5151e-004
12488	2.6629	3.4	0.	-154.51
12489	2.5636	3.3	0.	-36.405
12490	2.5636	3.4	5.e-002	8.4593e-005
12491	2.8614	3.4	0.	-390.51
12492	2.7621	3.3	0.	-304.99
12493	2.7621	3.4	5.e-002	2.6386e-005
12494	3.0598	3.4	0.	-534.69
12495	2.9606	3.3	0.	-493.3
12496	2.9606	3.4	5.e-002	1.4298e-005
12497	3.2583	3.4	0.	-607.76
12498	3.1591	3.3	0.	-600.19
12499	3.1591	3.4	5.e-002	2.7899e-005
12500	3.4568	3.4	0.	-633.72
12501	3.3576	3.3	0.	-647.99
12502	3.3576	3.4	5.e-002	3.6541e-005
12503	3.6553	3.4	0.	-629.81
12504	3.5561	3.3	0.	-656.68
12505	3.5561	3.4	5.e-002	4.3099e-005
12506	3.8538	3.4	0.	-607.75
12507	3.7545	3.3	0.	-640.98
12508	3.7545	3.4	5.e-002	1.7222e-005
12509	4.0523	3.4	0.	-575.31
12510	3.953	3.3	0.	-610.96
12511	3.953	3.4	5.e-002	3.3679e-005
12512	4.2508	3.4	0.	-537.55
12513	4.1515	3.3	0.	-573.22
12514	4.1515	3.4	5.e-002	1.8232e-005
12515	4.4492	3.4	0.	-497.71
12516	4.35	3.3	0.	-532.01
12517	4.35	3.4	5.e-002	4.2681e-006
12518	4.6477	3.4	0.	-457.84
12519	4.5485	3.3	0.	-490.03
12520	4.5485	3.4	5.e-002	8.6661e-006
12521	4.8462	3.4	0.	-419.21
12522	4.747	3.3	0.	-448.93
12523	4.747	3.4	5.e-002	8.801e-007
12524	5.0447	3.4	0.	-382.54
12525	4.9455	3.3	0.	-409.68
12526	4.9455	3.4	5.e-002	8.2808e-006
12527	5.2432	3.4	0.	-348.22
12528	5.1439	3.3	0.	-372.82
12529	5.1439	3.4	5.e-002	-2.6938e-006
12530	5.4417	3.4	0.	-316.41
12531	5.3424	3.3	0.	-338.6
12532	5.3424	3.4	5.e-002	-5.9938e-006
12533	5.6402	3.4	0.	-287.14
12534	5.5409	3.3	0.	-307.09
12535	5.5409	3.4	5.e-002	-6.0436e-006
12536	5.8386	3.4	0.	-260.33
12537	5.7394	3.3	0.	-278.23
12538	5.7394	3.4	5.e-002	-7.3406e-006
12539	6.0371	3.4	0.	-235.87
12540	5.9379	3.3	0.	-251.9
12541	5.9379	3.4	5.e-002	-5.1268e-006
12542	6.2356	3.4	0.	-213.61
12543	6.1364	3.3	0.	-227.96
12544	6.1364	3.4	5.e-002	-5.1251e-006
12545	6.4341	3.4	0.	-193.37
12546	6.3348	3.3	0.	-206.22
12547	6.3348	3.4	5.e-002	-7.225e-006
12548	6.6326	3.4	0.	-174.99
12549	6.5333	3.3	0.	-186.51
12550	6.5333	3.4	5.e-002	-3.1009e-006
12551	6.8311	3.4	0.	-158.31
12552	6.7318	3.3	0.	-168.64
12553	6.7318	3.4	5.e-002	-3.3848e-006
12554	7.0295	3.4	0.	-143.18
12555	6.9303	3.3	0.	-152.45
12556	6.9303	3.4	5.e-002	-2.9903e-006
12557	7.228	3.4	0.	-129.44
12558	7.1288	3.3	0.	-137.77
12559	7.1288	3.4	5.e-002	-4.3159e-006
12560	7.4265	3.4	0.	-116.96
12561	7.3273	3.3	0.	-124.47
12562	7.3273	3.4	5.e-002	-2.7095e-006
12563	7.625	3.4	0.	-105.63
12564	7.5258	3.3	0.	-112.4
12565	7.5258	3.4	5.e-002	-2.0481e-006
12566	7.8235	3.4	0.	-95.333
12567	7.7242	3.3	0.	-101.44
12568	7.7242	3.4	5.e-002	-5.413e-007
12569	8.022	3.4	0.	-85.964
12570	7.9227	3.3	0.	-91.485
12571	7.9227	3.4	5.e-002	6.9782e-008
12572	8.2205	3.4	0.	-77.437
12573	8.1212	3.3	0.	-82.435
12574	8.1212	3.4	5.e-002	-2.3435e-007
12575	8.4189	3.4	0.	-69.67
12576	8.3197	3.3	0.	-74.201
12577	8.3197	3.4	5.e-002	-4.15e-007
12578	8.6174	3.4	0.	-62.59
12579	8.5182	3.3	0.	-66.703
12580	8.5182	3.4	5.e-002	1.2806e-006
12581	8.8159	3.4	0.	-56.131
12582	8.7167	3.3	0.	-59.869
12583	8.7167	3.4	5.e-002	1.1332e-006
12584	9.0144	3.4	0.	-50.236
12585	8.9152	3.3	0.	-53.637
12586	8.9152	3.4	5.e-002	1.4785e-006
12587	9.2129	3.4	0.	-44.851
12588	9.1136	3.3	0.	-47.949
12589	9.1136	3.4	5.e-002	1.3323e-006
12590	9.4114	3.4	0.	-39.928
12591	9.3121	3.3	0.	-42.754
12592	9.3121	3.4	5.e-002	1.2689e-006
12593	9.6098	3.4	0.	-35.426
12594	9.5106	3.3	0.	-38.005
12595	9.5106	3.4	5.e-002	1.6383e-006
12596	9.8083	3.4	0.	-31.304
12597	9.7091	3.3	0.	-33.661
12598	9.7091	3.4	5.e-002	2.5204e-006
12599	10.007	3.4	0.	-27.53
12600	9.9076	3.3	0.	-29.686
12601	9.9076	3.4	5.e-002	2.4547e-006
12602	10.205	3.4	0.	-24.071
12603	10.106	3.3	0.	-26.044
12604	10.106	3.4	5.e-002	2.387e-006
12605	10.404	3.4	0.	-20.898
12606	10.305	3.3	0.	-22.707
12607	10.305	3.4	5.e-002	3.2858e-006
12608	10.602	3.4	0.	-17.987
12609	10.503	3.3	0.	-19.645
12610	10.503	3.4	5.e-002	2.989e-006
12611	10.801	3.4	0.	-15.313
12612	10.702	3.3	0.	-16.835
12613	10.702	3.4	5.e-002	2.9464e-006
12614	10.999	3.4	0.	-12.855
12615	10.9	3.3	0.	-14.254
12616	10.9	3.4	5.e-002	2.7811e-006
12617	11.198	3.4	0.	-10.594
12618	11.098	3.3	0.	-11.88
12619	11.098	3.4	5.e-002	3.2239e-006
12620	11.396	3.4	0.	-8.5113
12621	11.297	3.3	0.	-9.6961
12622	11.297	3.4	5.e-002	3.0643e-006
12623	11.595	3.4	0.	-6.5915
12624	11.495	3.3	0.	-7.6837
12625	11.495	3.4	5.e-002	2.677e-006
12626	11.793	3.4	0.	-4.8194
12627	11.694	3.3	0.	-5.8278
12628	11.694	3.4	5.e-002	3.0333e-006
12629	11.992	3.4	0.	-3.1814
12630	11.892	3.3	0.	-4.1135
12631	11.892	3.4	5.e-002	3.8072e-006
12632	12.19	3.4	0.	-1.6653
12633	12.091	3.3	0.	-2.5281
12634	12.091	3.4	5.e-002	3.5274e-006
12635	12.389	3.4	0.	-0.26424
12636	12.289	3.3	0.	-1.0595
12637	12.289	3.4	5.e-002	4.0214e-006
12638	12.587	3.4	0.	4.0303e-003
12639	12.488	3.3	0.	2.3275e-003
12640	12.488	3.4	5.e-002	3.995e-006
12641	12.786	3.4	0.	5.1201e-003
12642	12.686	3.3	0.	5.3022e-003
12643	12.686	3.4	5.e-002	5.5947e-006
12644	12.984	3.4	0.	5.5166e-003
12645	12.885	3.3	0.	5.7197e-003
12646	12.885	3.4	5.e-002	5.0645e-006
12647	13.183	3.4	0.	5.7815e-003
12648	13.083	3.3	0.	5.9511e-003
12649	13.083	3.4	5.e-002	5.0425e-006
12650	13.381	3.4	0.	6.0056e-003
12651	13.282	3.3	0.	6.1626e-003
12652	13.282	3.4	5.e-002	4.7097e-006
12653	13.58	3.4	0.	6.2e-003
12654	13.48	3.3	0.	6.3477e-003
12655	13.48	3.4	5.e-002	5.0751e-006
12656	13.778	3.4	0.	6.3787e-003
12657	13.679	3.3	0.	6.519e-003
12658	13.679	3.4	5.e-002	4.5178e-006
12659	13.977	3.4	0.	6.5646e-003
12660	13.877	3.3	0.	6.6832e-003
12661	13.877	3.4	5.e-002	4.8231e-006
12662	14.175	3.4	0.	6.7533e-003
12663	14.076	3.3	0.	6.8761e-003
12664	14.076	3.4	5.e-002	4.5068e-006
12665	14.373	3.4	0.	6.9224e-003
12666	14.274	3.3	0.	7.0501e-003
12667	14.274	3.4	5.e-002	5.0265e-006
12668	14.572	3.4	0.	7.0976e-003
12669	14.473	3.3	0.	7.207e-003
12670	14.473	3.4	5.e-002	5.1887e-006
12671	14.77	3.4	0.	7.2883e-003
12672	14.671	3.3	0.	7.3965e-003
12673	14.671	3.4	5.e-002	3.8529e-006
12674	14.969	3.4	0.	7.4801e-003
12675	14.87	3.3	0.	7.5858e-003
12676	14.87	3.4	5.e-002	4.4281e-006
12677	15.167	3.4	0.	7.6743e-003
12678	15.068	3.3	0.	7.7788e-003
12679	15.068	3.4	5.e-002	5.4921e-006
12680	15.366	3.4	0.	7.885e-003
12681	15.267	3.3	0.	7.974e-003
12682	15.267	3.4	5.e-002	5.2419e-006
12683	15.564	3.4	0.	8.1128e-003
12684	15.465	3.3	0.	8.2012e-003
12685	15.465	3.4	5.e-002	5.8233e-006
12686	15.763	3.4	0.	8.3457e-003
12687	15.664	3.3	0.	8.4315e-003
12688	15.664	3.4	5.e-002	5.8038e-006
12689	15.961	3.4	0.	8.5851e-003
12690	15.862	3.3	0.	8.6686e-003
12691	15.862	3.4	5.e-002	6.7309e-006
12692	16.16	3.4	0.	8.8455e-003
12693	16.061	3.3	0.	8.9124e-003
12694	16.061	3.4	5.e-002	7.1816e-006
12695	16.358	3.4	0.	9.1215e-003
12696	16.259	3.3	0.	9.193e-003
12697	16.259	3.4	5.e-002	8.5787e-006
12698	16.557	3.4	0.	9.3954e-003
12699	16.458	3.3	0.	9.4685e-003
12700	16.458	3.4	5.e-002	7.9665e-006
12701	16.755	3.4	0.	9.688e-003
12702	16.656	3.3	0.	9.7441e-003
12703	16.656	3.4	5.e-002	6.6277e-006
12704	16.954	3.4	0.	1.0007e-002
12705	16.855	3.3	0.	1.0058e-002
12706	16.855	3.4	5.e-002	6.7316e-006
12707	17.152	3.4	0.	1.0342e-002
12708	17.053	3.3	0.	1.0387e-002
12709	17.053	3.4	5.e-002	5.7655e-006
12710	17.351	3.4	0.	1.0694e-002
12711	17.252	3.3	0.	1.0734e-002
12712	17.252	3.4	5.e-002	7.1841e-006
12713	17.549	3.4	0.	1.1075e-002
12714	17.45	3.3	0.	1.1097e-002
12715	17.45	3.4	5.e-002	5.9774e-006
12716	17.748	3.4	0.	1.1489e-002
12717	17.648	3.3	0.	1.1502e-002
12718	17.648	3.4	5.e-002	5.212e-006
12719	17.946	3.4	0.	1.1929e-002
12720	17.847	3.3	0.	1.1932e-002
12721	17.847	3.4	5.e-002	4.9115e-006
12722	18.145	3.4	0.	1.2396e-002
12723	18.045	3.3	0.	1.2388e-002
12724	18.045	3.4	5.e-002	4.8672e-006
12725	18.343	3.4	0.	1.2905e-002
12726	18.244	3.3	0.	1.2874e-002
12727	18.244	3.4	5.e-002	3.9012e-006
12728	18.542	3.4	0.	1.3455e-002
12729	18.442	3.3	0.	1.3413e-002
12730	18.442	3.4	5.e-002	4.5909e-006
12731	18.74	3.4	0.	1.4037e-002
12732	18.641	3.3	0.	1.3982e-002
12733	18.641	3.4	5.e-002	3.6036e-006
12734	18.939	3.4	0.	1.467e-002
12735	18.839	3.3	0.	1.4585e-002
12736	18.839	3.4	5.e-002	6.6416e-006
12737	19.137	3.4	0.	1.5366e-002
12738	19.038	3.3	0.	1.5259e-002
12739	19.038	3.4	5.e-002	8.5184e-006
12740	19.336	3.4	0.	1.612e-002
12741	19.236	3.3	0.	1.5987e-002
12742	19.236	3.4	5.e-002	8.7354e-006
12743	19.534	3.4	0.	1.6943e-002
12744	19.435	3.3	0.	1.6779e-002
12745	19.435	3.4	5.e-002	7.2271e-006
12746	19.733	3.4	0.	1.7855e-002
12747	19.633	3.3	0.	1.7647e-002
12748	19.633	3.4	5.e-002	9.1104e-006
12749	19.931	3.4	0.	1.8864e-002
12750	19.832	3.3	0.	1.8614e-002
12751	19.832	3.4	5.e-002	1.1012e-005
12752	20.13	3.4	0.	1.9979e-002
12753	20.03	3.3	0.	1.968e-002
12754	20.03	3.4	5.e-002	9.0605e-006
12755	20.328	3.4	0.	2.1218e-002
12756	20.229	3.3	0.	2.0859e-002
12757	20.229	3.4	5.e-002	8.0741e-006
12758	20.527	3.4	0.	2.2612e-002
12759	20.427	3.3	0.	2.2177e-002
12760	20.427	3.4	5.e-002	1.1426e-005
12761	20.725	3.4	0.	2.4184e-002
12762	20.626	3.3	0.	2.3666e-002
12763	20.626	3.4	5.e-002	1.3798e-005
12764	20.923	3.4	0.	2.5962e-002
12765	20.824	3.3	0.	2.5344e-002
12766	20.824	3.4	5.e-002	1.1916e-005
12767	21.122	3.4	0.	2.8001e-002
12768	21.023	3.3	0.	2.7249e-002
12769	21.023	3.4	5.e-002	1.0489e-005
12770	21.32	3.4	0.	3.0361e-002
12771	21.221	3.3	0.	2.945e-002
12772	21.221	3.4	5.e-002	1.3249e-005
12773	21.519	3.4	0.	3.3118e-002
12774	21.42	3.3	0.	3.2003e-002
12775	21.42	3.4	5.e-002	6.6581e-006
12776	21.717	3.4	0.	3.638e-002
12777	21.618	3.3	0.	3.5007e-002
12778	21.618	3.4	5.e-002	7.4958e-006
12779	21.916	3.4	0.	4.0302e-002
12780	21.817	3.3	0.	3.8581e-002
12781	21.817	3.4	5.e-002	6.4903e-006
12782	22.114	3.4	0.	4.5096e-002
12783	22.015	3.3	0.	4.2922e-002
12784	22.015	3.4	5.e-002	1.0335e-005
12785	22.313	3.4	0.	5.1094e-002
12786	22.214	3.3	0.	4.8265e-002
12787	22.214	3.4	5.e-002	8.4355e-006
12788	22.511	3.4	0.	5.872e-002
12789	22.412	3.3	0.	5.506e-002
12790	22.412	3.4	5.e-002	6.5979e-006
12791	22.71	3.4	0.	6.9051e-002
12792	22.611	3.3	0.	6.3734e-002
12793	22.611	3.4	5.e-002	7.4297e-006
12794	22.908	3.4	0.	8.2353e-002
12795	22.809	3.3	0.	7.6083e-002
12796	22.809	3.4	5.e-002	9.5304e-006
12797	23.107	3.4	0.	0.10563
12798	23.008	3.3	0.	9.0998e-002
12799	23.008	3.4	5.e-002	1.4564e-005
12800	23.305	3.4	0.	0.12692
12801	23.206	3.3	0.	0.12401
12802	23.206	3.4	5.e-002	1.4794e-005
12803	23.504	3.4	0.	0.23144
12804	23.405	3.3	0.	0.13692
12805	23.405	3.4	5.e-002	1.1125e-005
12806	23.702	3.4	0.	0.19886
12807	23.603	3.3	0.	0.34421
12808	23.603	3.4	5.e-002	9.4221e-006
12809	23.802	3.3	0.	0.14223
12810	23.802	3.4	5.e-002	9.5319e-006
12811	23.901	3.4	0.	0.29644
12812	2.4644	3.2	0.	-2.362
12813	2.3652	3.1	0.	-0.31995
12814	2.3652	3.2	5.e-002	1.6631e-004
12815	2.6629	3.2	0.	-167.42
12816	2.5636	3.1	0.	-43.22
12817	2.5636	3.2	5.e-002	5.3687e-005
12818	2.8614	3.2	0.	-398.23
12819	2.7621	3.1	0.	-305.58
12820	2.7621	3.2	5.e-002	2.3373e-005
12821	3.0598	3.2	0.	-553.62
12822	2.9606	3.1	0.	-500.45
12823	2.9606	3.2	5.e-002	-7.2885e-006
12824	3.2583	3.2	0.	-637.88
12825	3.1591	3.1	0.	-616.76
12826	3.1591	3.2	5.e-002	8.6585e-006
12827	3.4568	3.2	0.	-669.78
12828	3.3576	3.1	0.	-670.59
12829	3.3576	3.2	5.e-002	9.0568e-006
12830	3.6553	3.2	0.	-667.35
12831	3.5561	3.1	0.	-681.67
12832	3.5561	3.2	5.e-002	1.4888e-005
12833	3.8538	3.2	0.	-643.99
12834	3.7545	3.1	0.	-665.89
12835	3.7545	3.2	5.e-002	8.7062e-006
12836	4.0523	3.2	0.	-608.8
12837	3.953	3.1	0.	-634.41
12838	3.953	3.2	5.e-002	-3.6885e-007
12839	4.2508	3.2	0.	-567.67
12840	4.1515	3.1	0.	-594.55
12841	4.1515	3.2	5.e-002	4.9442e-006
12842	4.4492	3.2	0.	-524.34
12843	4.35	3.1	0.	-551.01
12844	4.35	3.2	5.e-002	5.318e-006
12845	4.6477	3.2	0.	-481.13
12846	4.5485	3.1	0.	-506.71
12847	4.5485	3.2	5.e-002	-1.1491e-006
12848	4.8462	3.2	0.	-439.41
12849	4.747	3.1	0.	-463.44
12850	4.747	3.2	5.e-002	-1.4199e-005
12851	5.0447	3.2	0.	-399.97
12852	4.9455	3.1	0.	-422.23
12853	4.9455	3.2	5.e-002	-7.55e-006
12854	5.2432	3.2	0.	-363.21
12855	5.1439	3.1	0.	-383.63
12856	5.1439	3.2	5.e-002	-1.1463e-005
12857	5.4417	3.2	0.	-329.28
12858	5.3424	3.1	0.	-347.89
12859	5.3424	3.2	5.e-002	-1.098e-005
12860	5.6402	3.2	0.	-298.18
12861	5.5409	3.1	0.	-315.05
12862	5.5409	3.2	5.e-002	-8.1903e-006
12863	5.8386	3.2	0.	-269.8
12864	5.7394	3.1	0.	-285.05
12865	5.7394	3.2	5.e-002	-5.9215e-006
12866	6.0371	3.2	0.	-243.99
12867	5.9379	3.1	0.	-257.76
12868	5.9379	3.2	5.e-002	-8.8756e-006
12869	6.2356	3.2	0.	-220.58
12870	6.1364	3.1	0.	-232.98
12871	6.1364	3.2	5.e-002	-6.4166e-006
12872	6.4341	3.2	0.	-199.37
12873	6.3348	3.1	0.	-210.54
12874	6.3348	3.2	5.e-002	-3.0406e-006
12875	6.6326	3.2	0.	-180.16
12876	6.5333	3.1	0.	-190.23
12877	6.5333	3.2	5.e-002	-3.9555e-006
12878	6.8311	3.2	0.	-162.78
12879	6.7318	3.1	0.	-171.85
12880	6.7318	3.2	5.e-002	-4.8916e-006
12881	7.0295	3.2	0.	-147.05
12882	6.9303	3.1	0.	-155.22
12883	6.9303	3.2	5.e-002	-5.3019e-006
12884	7.228	3.2	0.	-132.8
12885	7.1288	3.1	0.	-140.18
12886	7.1288	3.2	5.e-002	-5.7e-006
12887	7.4265	3.2	0.	-119.9
12888	7.3273	3.1	0.	-126.56
12889	7.3273	3.2	5.e-002	-3.4175e-007
12890	7.625	3.2	0.	-108.2
12891	7.5258	3.1	0.	-114.23
12892	7.5258	3.2	5.e-002	-2.4667e-006
12893	7.8235	3.2	0.	-97.586
12894	7.7242	3.1	0.	-103.04
12895	7.7242	3.2	5.e-002	-7.583e-007
12896	8.022	3.2	0.	-87.949
12897	7.9227	3.1	0.	-92.894
12898	7.9227	3.2	5.e-002	-9.2064e-007
12899	8.2205	3.2	0.	-79.19
12900	8.1212	3.1	0.	-83.678
12901	8.1212	3.2	5.e-002	-8.8071e-008
12902	8.4189	3.2	0.	-71.224
12903	8.3197	3.1	0.	-75.3
12904	8.3197	3.2	5.e-002	7.2729e-007
12905	8.6174	3.2	0.	-63.971
12906	8.5182	3.1	0.	-67.679
12907	8.5182	3.2	5.e-002	6.5016e-007
12908	8.8159	3.2	0.	-57.363
12909	8.7167	3.1	0.	-60.738
12910	8.7167	3.2	5.e-002	5.7565e-007
12911	9.0144	3.2	0.	-51.337
12912	8.9152	3.1	0.	-54.413
12913	8.9152	3.2	5.e-002	9.8317e-007
12914	9.2129	3.2	0.	-45.838
12915	9.1136	3.1	0.	-48.644
12916	9.1136	3.2	5.e-002	4.5053e-007
12917	9.4114	3.2	0.	-40.815
12918	9.3121	3.1	0.	-43.377
12919	9.3121	3.2	5.e-002	2.3096e-006
12920	9.6098	3.2	0.	-36.224
12921	9.5106	3.1	0.	-38.566
12922	9.5106	3.2	5.e-002	2.2635e-006
12923	9.8083	3.2	0.	-32.025
12924	9.7091	3.1	0.	-34.167
12925	9.7091	3.2	5.e-002	1.9826e-006
12926	10.007	3.2	0.	-28.181
12927	9.9076	3.1	0.	-30.142
12928	9.9076	3.2	5.e-002	1.944e-006
12929	10.205	3.2	0.	-24.661
12930	10.106	3.1	0.	-26.457
12931	10.106	3.2	5.e-002	2.6313e-006
12932	10.404	3.2	0.	-21.433
12933	10.305	3.1	0.	-23.081
12934	10.305	3.2	5.e-002	2.598e-006
12935	10.602	3.2	0.	-18.472
12936	10.503	3.1	0.	-19.985
12937	10.503	3.2	5.e-002	2.5727e-006
12938	10.801	3.2	0.	-15.754
12939	10.702	3.1	0.	-17.144
12940	10.702	3.2	5.e-002	2.6676e-006
12941	10.999	3.2	0.	-13.256
12942	10.9	3.1	0.	-14.534
12943	10.9	3.2	5.e-002	2.5251e-006
12944	11.198	3.2	0.	-10.959
12945	11.098	3.1	0.	-12.136
12946	11.098	3.2	5.e-002	2.9837e-006
12947	11.396	3.2	0.	-8.8444
12948	11.297	3.1	0.	-9.9286
12949	11.297	3.2	5.e-002	2.9065e-006
12950	11.595	3.2	0.	-6.8952
12951	11.495	3.1	0.	-7.8957
12952	11.495	3.2	5.e-002	2.5919e-006
12953	11.793	3.2	0.	-5.0964
12954	11.694	3.1	0.	-6.0211
12955	11.694	3.2	5.e-002	3.0235e-006
12956	11.992	3.2	0.	-3.434
12957	11.892	3.1	0.	-4.2898
12958	11.892	3.2	5.e-002	3.8127e-006
12959	12.19	3.2	0.	-1.8954
12960	12.091	3.1	0.	-2.6888
12961	12.091	3.2	5.e-002	3.5306e-006
12962	12.389	3.2	0.	-0.46905
12963	12.289	3.1	0.	-1.2056
12964	12.289	3.2	5.e-002	4.2025e-006
12965	12.587	3.2	0.	5.4226e-003
12966	12.488	3.1	0.	5.2333e-003
12967	12.488	3.2	5.e-002	4.1592e-006
12968	12.786	3.2	0.	5.8829e-003
12969	12.686	3.1	0.	6.0051e-003
12970	12.686	3.2	5.e-002	5.5473e-006
12971	12.984	3.2	0.	6.0892e-003
12972	12.885	3.1	0.	6.1712e-003
12973	12.885	3.2	5.e-002	5.2224e-006
12974	13.183	3.2	0.	6.2649e-003
12975	13.083	3.1	0.	6.3088e-003
12976	13.083	3.2	5.e-002	5.0995e-006
12977	13.381	3.2	0.	6.4394e-003
12978	13.282	3.1	0.	6.4734e-003
12979	13.282	3.2	5.e-002	4.8429e-006
12980	13.58	3.2	0.	6.6035e-003
12981	13.48	3.1	0.	6.63e-003
12982	13.48	3.2	5.e-002	5.2346e-006
12983	13.778	3.2	0.	6.7621e-003
12984	13.679	3.1	0.	6.7847e-003
12985	13.679	3.2	5.e-002	4.7767e-006
12986	13.977	3.2	0.	6.9345e-003
12987	13.877	3.1	0.	6.9364e-003
12988	13.877	3.2	5.e-002	5.0036e-006
12989	14.175	3.2	0.	7.1135e-003
12990	14.076	3.1	0.	7.1212e-003
12991	14.076	3.2	5.e-002	4.8153e-006
12992	14.373	3.2	0.	7.2759e-003
12993	14.274	3.1	0.	7.2891e-003
12994	14.274	3.2	5.e-002	5.3427e-006
12995	14.572	3.2	0.	7.4474e-003
12996	14.473	3.1	0.	7.4427e-003
12997	14.473	3.2	5.e-002	5.2139e-006
12998	14.77	3.2	0.	7.6355e-003
12999	14.671	3.1	0.	7.6294e-003
13000	14.671	3.2	5.e-002	4.1895e-006
13001	14.969	3.2	0.	7.826e-003
13002	14.87	3.1	0.	7.8184e-003
13003	14.87	3.2	5.e-002	4.6554e-006
13004	15.167	3.2	0.	8.0198e-003
13005	15.068	3.1	0.	8.0101e-003
13006	15.068	3.2	5.e-002	5.7248e-006
13007	15.366	3.2	0.	8.2312e-003
13008	15.267	3.1	0.	8.2046e-003
13009	15.267	3.2	5.e-002	5.2425e-006
13010	15.564	3.2	0.	8.4605e-003
13011	15.465	3.1	0.	8.4325e-003
13012	15.465	3.2	5.e-002	5.8284e-006
13013	15.763	3.2	0.	8.6943e-003
13014	15.664	3.1	0.	8.6631e-003
13015	15.664	3.2	5.e-002	6.1745e-006
13016	15.961	3.2	0.	8.9352e-003
13017	15.862	3.1	0.	8.9025e-003
13018	15.862	3.2	5.e-002	7.1165e-006
13019	16.16	3.2	0.	9.1985e-003
13020	16.061	3.1	0.	9.1482e-003
13021	16.061	3.2	5.e-002	7.6968e-006
13022	16.358	3.2	0.	9.4779e-003
13023	16.259	3.1	0.	9.4287e-003
13024	16.259	3.2	5.e-002	9.1128e-006
13025	16.557	3.2	0.	9.7542e-003
13026	16.458	3.1	0.	9.7077e-003
13027	16.458	3.2	5.e-002	8.0303e-006
13028	16.755	3.2	0.	1.005e-002
13029	16.656	3.1	0.	9.9852e-003
13030	16.656	3.2	5.e-002	6.5852e-006
13031	16.954	3.2	0.	1.0373e-002
13032	16.855	3.1	0.	1.0301e-002
13033	16.855	3.2	5.e-002	6.6987e-006
13034	17.152	3.2	0.	1.0712e-002
13035	17.053	3.1	0.	1.0633e-002
13036	17.053	3.2	5.e-002	6.4528e-006
13037	17.351	3.2	0.	1.1069e-002
13038	17.252	3.1	0.	1.0981e-002
13039	17.252	3.2	5.e-002	7.1617e-006
13040	17.549	3.2	0.	1.1455e-002
13041	17.45	3.1	0.	1.1348e-002
13042	17.45	3.2	5.e-002	6.6755e-006
13043	17.748	3.2	0.	1.1875e-002
13044	17.648	3.1	0.	1.1758e-002
13045	17.648	3.2	5.e-002	5.7015e-006
13046	17.946	3.2	0.	1.2319e-002
13047	17.847	3.1	0.	1.2189e-002
13048	17.847	3.2	5.e-002	5.9064e-006
13049	18.145	3.2	0.	1.2792e-002
13050	18.045	3.1	0.	1.2649e-002
13051	18.045	3.2	5.e-002	5.4063e-006
13052	18.343	3.2	0.	1.3307e-002
13053	18.244	3.1	0.	1.3139e-002
13054	18.244	3.2	5.e-002	4.4478e-006
13055	18.542	3.2	0.	1.3863e-002
13056	18.442	3.1	0.	1.3682e-002
13057	18.442	3.2	5.e-002	5.6246e-006
13058	18.74	3.2	0.	1.4451e-002
13059	18.641	3.1	0.	1.4255e-002
13060	18.641	3.2	5.e-002	4.4155e-006
13061	18.939	3.2	0.	1.5091e-002
13062	18.839	3.1	0.	1.4862e-002
13063	18.839	3.2	5.e-002	6.7665e-006
13064	19.137	3.2	0.	1.5795e-002
13065	19.038	3.1	0.	1.554e-002
13066	19.038	3.2	5.e-002	8.6618e-006
13067	19.336	3.2	0.	1.6558e-002
13068	19.236	3.1	0.	1.6275e-002
13069	19.236	3.2	5.e-002	9.5993e-006
13070	19.534	3.2	0.	1.739e-002
13071	19.435	3.1	0.	1.7073e-002
13072	19.435	3.2	5.e-002	8.6098e-006
13073	19.733	3.2	0.	1.8309e-002
13074	19.633	3.1	0.	1.7945e-002
13075	19.633	3.2	5.e-002	9.5463e-006
13076	19.931	3.2	0.	1.9328e-002
13077	19.832	3.1	0.	1.8919e-002
13078	19.832	3.2	5.e-002	1.2891e-005
13079	20.13	3.2	0.	2.0452e-002
13080	20.03	3.1	0.	1.9991e-002
13081	20.03	3.2	5.e-002	1.0481e-005
13082	20.328	3.2	0.	2.1703e-002
13083	20.229	3.1	0.	2.1176e-002
13084	20.229	3.2	5.e-002	9.9845e-006
13085	20.527	3.2	0.	2.3108e-002
13086	20.427	3.1	0.	2.2504e-002
13087	20.427	3.2	5.e-002	1.3317e-005
13088	20.725	3.2	0.	2.4691e-002
13089	20.626	3.1	0.	2.3999e-002
13090	20.626	3.2	5.e-002	1.427e-005
13091	20.923	3.2	0.	2.6484e-002
13092	20.824	3.1	0.	2.5685e-002
13093	20.824	3.2	5.e-002	1.2849e-005
13094	21.122	3.2	0.	2.8535e-002
13095	21.023	3.1	0.	2.7598e-002
13096	21.023	3.2	5.e-002	1.1889e-005
13097	21.32	3.2	0.	3.0909e-002
13098	21.221	3.1	0.	2.9807e-002
13099	21.221	3.2	5.e-002	1.3755e-005
13100	21.519	3.2	0.	3.368e-002
13101	21.42	3.1	0.	3.2371e-002
13102	21.42	3.2	5.e-002	9.9789e-006
13103	21.717	3.2	0.	3.6959e-002
13104	21.618	3.1	0.	3.5383e-002
13105	21.618	3.2	5.e-002	8.0217e-006
13106	21.916	3.2	0.	4.0899e-002
13107	21.817	3.1	0.	3.897e-002
13108	21.817	3.2	5.e-002	7.0329e-006
13109	22.114	3.2	0.	4.5711e-002
13110	22.015	3.1	0.	4.3321e-002
13111	22.015	3.2	5.e-002	1.0864e-005
13112	22.313	3.2	0.	5.1732e-002
13113	22.214	3.1	0.	4.8678e-002
13114	22.214	3.2	5.e-002	8.009e-006
13115	22.511	3.2	0.	5.9386e-002
13116	22.412	3.1	0.	5.549e-002
13117	22.412	3.2	5.e-002	8.9937e-006
13118	22.71	3.2	0.	6.975e-002
13119	22.611	3.1	0.	6.4184e-002
13120	22.611	3.2	5.e-002	9.8899e-006
13121	22.908	3.2	0.	8.3097e-002
13122	22.809	3.1	0.	7.656e-002
13123	22.809	3.2	5.e-002	9.9836e-006
13124	23.107	3.2	0.	0.10645
13125	23.008	3.1	0.	9.1509e-002
13126	23.008	3.2	5.e-002	1.4885e-005
13127	23.305	3.2	0.	0.12781
13128	23.206	3.1	0.	0.12458
13129	23.206	3.2	5.e-002	1.1182e-005
13130	23.504	3.2	0.	0.23257
13131	23.405	3.1	0.	0.13756
13132	23.405	3.2	5.e-002	1.1258e-005
13133	23.702	3.2	0.	0.20059
13134	23.603	3.1	0.	0.34511
13135	23.603	3.2	5.e-002	1.1356e-005
13136	23.802	3.1	0.	0.14395
13137	23.802	3.2	5.e-002	1.3289e-005
13138	23.901	3.2	0.	0.29695
13139	2.4644	3.	0.	1.1396
13140	2.3652	2.9	0.	-0.31995
13141	2.3652	3.	5.e-002	5.7221e-005
13142	2.6629	3.	0.	-169.77
13143	2.5636	2.9	0.	-43.22
13144	2.5636	3.	5.e-002	4.3631e-005
13145	2.8614	3.	0.	-398.41
13146	2.7621	2.9	0.	-305.58
13147	2.7621	3.	5.e-002	3.0518e-005
13148	3.0598	3.	0.	-557.54
13149	2.9606	2.9	0.	-500.45
13150	2.9606	3.	5.e-002	1.9074e-005
13151	3.2583	3.	0.	-646.11
13152	3.1591	2.9	0.	-616.76
13153	3.1591	3.	5.e-002	6.1672e-011
13154	3.4568	3.	0.	-680.79
13155	3.3576	2.9	0.	-670.59
13156	3.3576	3.	5.e-002	5.58e-011
13157	3.6553	3.	0.	-679.43
13158	3.5561	2.9	0.	-681.67
13159	3.5561	3.	5.e-002	-7.6293e-006
13160	3.8538	3.	0.	-655.97
13161	3.7545	2.9	0.	-665.89
13162	3.7545	3.	5.e-002	-7.6294e-006
13163	4.0523	3.	0.	-620.02
13164	3.953	2.9	0.	-634.41
13165	3.953	3.	5.e-002	-2.2888e-005
13166	4.2508	3.	0.	-577.84
13167	4.1515	2.9	0.	-594.55
13168	4.1515	3.	5.e-002	-7.6294e-006
13169	4.4492	3.	0.	-533.37
13170	4.35	2.9	0.	-551.01
13171	4.35	3.	5.e-002	-2.2888e-005
13172	4.6477	3.	0.	-489.03
13173	4.5485	2.9	0.	-506.71
13174	4.5485	3.	5.e-002	-2.2888e-005
13175	4.8462	3.	0.	-446.27
13176	4.747	2.9	0.	-463.44
13177	4.747	3.	5.e-002	-1.5259e-005
13178	5.0447	3.	0.	-405.9
13179	4.9455	2.9	0.	-422.23
13180	4.9455	3.	5.e-002	-1.1444e-005
13181	5.2432	3.	0.	-368.31
13182	5.1439	2.9	0.	-383.63
13183	5.1439	3.	5.e-002	-1.5259e-005
13184	5.4417	3.	0.	-333.65
13185	5.3424	2.9	0.	-347.89
13186	5.3424	3.	5.e-002	-1.5259e-005
13187	5.6402	3.	0.	-301.92
13188	5.5409	2.9	0.	-315.05
13189	5.5409	3.	5.e-002	-7.6294e-006
13190	5.8386	3.	0.	-273.01
13191	5.7394	2.9	0.	-285.05
13192	5.7394	3.	5.e-002	-1.1444e-005
13193	6.0371	3.	0.	-246.75
13194	5.9379	2.9	0.	-257.76
13195	5.9379	3.	5.e-002	-1.1444e-005
13196	6.2356	3.	0.	-222.94
13197	6.1364	2.9	0.	-232.98
13198	6.1364	3.	5.e-002	-7.6294e-006
13199	6.4341	3.	0.	-201.4
13200	6.3348	2.9	0.	-210.54
13201	6.3348	3.	5.e-002	-7.6294e-006
13202	6.6326	3.	0.	-181.91
13203	6.5333	2.9	0.	-190.23
13204	6.5333	3.	5.e-002	-3.8147e-006
13205	6.8311	3.	0.	-164.29
13206	6.7318	2.9	0.	-171.85
13207	6.7318	3.	5.e-002	-7.6294e-006
13208	7.0295	3.	0.	-148.36
13209	6.9303	2.9	0.	-155.22
13210	6.9303	3.	5.e-002	-7.6294e-006
13211	7.228	3.	0.	-133.94
13212	7.1288	2.9	0.	-140.18
13213	7.1288	3.	5.e-002	-3.8147e-006
13214	7.4265	3.	0.	-120.89
13215	7.3273	2.9	0.	-126.56
13216	7.3273	3.	5.e-002	-9.5367e-007
13217	7.625	3.	0.	-109.07
13218	7.5258	2.9	0.	-114.23
13219	7.5258	3.	5.e-002	-2.861e-006
13220	7.8235	3.	0.	-98.345
13221	7.7242	2.9	0.	-103.04
13222	7.7242	3.	5.e-002	-3.8147e-006
13223	8.022	3.	0.	-88.616
13224	7.9227	2.9	0.	-92.894
13225	7.9227	3.	5.e-002	-3.8147e-006
13226	8.2205	3.	0.	-79.78
13227	8.1212	2.9	0.	-83.678
13228	8.1212	3.	5.e-002	-1.9073e-006
13229	8.4189	3.	0.	-71.746
13230	8.3197	2.9	0.	-75.3
13231	8.3197	3.	5.e-002	-5.4682e-013
13232	8.6174	3.	0.	-64.435
13233	8.5182	2.9	0.	-67.679
13234	8.5182	3.	5.e-002	-4.1734e-015
13235	8.8159	3.	0.	-57.777
13236	8.7167	2.9	0.	-60.738
13237	8.7167	3.	5.e-002	-6.2447e-013
13238	9.0144	3.	0.	-51.707
13239	8.9152	2.9	0.	-54.413
13240	8.9152	3.	5.e-002	-1.8584e-015
13241	9.2129	3.	0.	-46.169
13242	9.1136	2.9	0.	-48.644
13243	9.1136	3.	5.e-002	1.1741e-012
13244	9.4114	3.	0.	-41.112
13245	9.3121	2.9	0.	-43.377
13246	9.3121	3.	5.e-002	1.4405e-012
13247	9.6098	3.	0.	-36.492
13248	9.5106	2.9	0.	-38.566
13249	9.5106	3.	5.e-002	1.4305e-006
13250	9.8083	3.	0.	-32.266
13251	9.7091	2.9	0.	-34.167
13252	9.7091	3.	5.e-002	1.1921e-006
13253	10.007	3.	0.	-28.4
13254	9.9076	2.9	0.	-30.142
13255	9.9076	3.	5.e-002	1.1921e-006
13256	10.205	3.	0.	-24.858
13257	10.106	2.9	0.	-26.457
13258	10.106	3.	5.e-002	1.6689e-006
13259	10.404	3.	0.	-21.612
13260	10.305	2.9	0.	-23.081
13261	10.305	3.	5.e-002	2.1458e-006
13262	10.602	3.	0.	-18.635
13263	10.503	2.9	0.	-19.985
13264	10.503	3.	5.e-002	2.1458e-006
13265	10.801	3.	0.	-15.902
13266	10.702	2.9	0.	-17.144
13267	10.702	3.	5.e-002	2.1458e-006
13268	10.999	3.	0.	-13.391
13269	10.9	2.9	0.	-14.534
13270	10.9	3.	5.e-002	2.1458e-006
13271	11.198	3.	0.	-11.082
13272	11.098	2.9	0.	-12.136
13273	11.098	3.	5.e-002	2.5034e-006
13274	11.396	3.	0.	-8.9558
13275	11.297	2.9	0.	-9.9286
13276	11.297	3.	5.e-002	2.3842e-006
13277	11.595	3.	0.	-6.9968
13278	11.495	2.9	0.	-7.8957
13279	11.495	3.	5.e-002	1.9073e-006
13280	11.793	3.	0.	-5.189
13281	11.694	2.9	0.	-6.0211
13282	11.694	3.	5.e-002	2.4736e-006
13283	11.992	3.	0.	-3.5185
13284	11.892	2.9	0.	-4.2898
13285	11.892	3.	5.e-002	3.2932e-006
13286	12.19	3.	0.	-1.9723
13287	12.091	2.9	0.	-2.6888
13288	12.091	3.	5.e-002	2.9728e-006
13289	12.389	3.	0.	-0.5385
13290	12.289	2.9	0.	-1.2056
13291	12.289	3.	5.e-002	3.8147e-006
13292	12.587	3.	0.	6.0336e-003
13293	12.488	2.9	0.	5.2332e-003
13294	12.488	3.	5.e-002	3.5763e-006
13295	12.786	3.	0.	6.1645e-003
13296	12.686	2.9	0.	6.0053e-003
13297	12.686	3.	5.e-002	5.275e-006
13298	12.984	3.	0.	6.2912e-003
13299	12.885	2.9	0.	6.171e-003
13300	12.885	3.	5.e-002	4.4853e-006
13301	13.183	3.	0.	6.433e-003
13302	13.083	2.9	0.	6.3092e-003
13303	13.083	3.	5.e-002	4.5598e-006
13304	13.381	3.	0.	6.5886e-003
13305	13.282	2.9	0.	6.4731e-003
13306	13.282	3.	5.e-002	4.4554e-006
13307	13.58	3.	0.	6.7412e-003
13308	13.48	2.9	0.	6.6305e-003
13309	13.48	3.	5.e-002	4.7088e-006
13310	13.778	3.	0.	6.8925e-003
13311	13.679	2.9	0.	6.785e-003
13312	13.679	3.	5.e-002	4.3511e-006
13313	13.977	3.	0.	7.059e-003
13314	13.877	2.9	0.	6.9363e-003
13315	13.877	3.	5.e-002	4.53e-006
13316	14.175	3.	0.	7.2344e-003
13317	14.076	2.9	0.	7.1214e-003
13318	14.076	3.	5.e-002	4.3511e-006
13319	14.373	3.	0.	7.3945e-003
13320	14.274	2.9	0.	7.289e-003
13321	14.274	3.	5.e-002	4.7088e-006
13322	14.572	3.	0.	7.564e-003
13323	14.473	2.9	0.	7.4425e-003
13324	14.473	3.	5.e-002	4.828e-006
13325	14.77	3.	0.	7.752e-003
13326	14.671	2.9	0.	7.6292e-003
13327	14.671	3.	5.e-002	3.6359e-006
13328	14.969	3.	0.	7.9424e-003
13329	14.87	2.9	0.	7.8184e-003
13330	14.87	3.	5.e-002	4.2915e-006
13331	15.167	3.	0.	8.1348e-003
13332	15.068	2.9	0.	8.0099e-003
13333	15.068	3.	5.e-002	5.2452e-006
13334	15.366	3.	0.	8.3456e-003
13335	15.267	2.9	0.	8.205e-003
13336	15.267	3.	5.e-002	5.0068e-006
13337	15.564	3.	0.	8.5746e-003
13338	15.465	2.9	0.	8.4319e-003
13339	15.465	3.	5.e-002	5.4836e-006
13340	15.763	3.	0.	8.8103e-003
13341	15.664	2.9	0.	8.6637e-003
13342	15.664	3.	5.e-002	5.4836e-006
13343	15.961	3.	0.	9.054e-003
13344	15.862	2.9	0.	8.9021e-003
13345	15.862	3.	5.e-002	6.5565e-006
13346	16.16	3.	0.	9.3163e-003
13347	16.061	2.9	0.	9.1491e-003
13348	16.061	3.	5.e-002	7.6294e-006
13349	16.358	3.	0.	9.5958e-003
13350	16.259	2.9	0.	9.4282e-003
13351	16.259	3.	5.e-002	8.5831e-006
13352	16.557	3.	0.	9.8753e-003
13353	16.458	2.9	0.	9.7082e-003
13354	16.458	3.	5.e-002	8.4639e-006
13355	16.755	3.	0.	1.0172e-002
13356	16.656	2.9	0.	9.9856e-003
13357	16.656	3.	5.e-002	6.0797e-006
13358	16.954	3.	0.	1.0496e-002
13359	16.855	2.9	0.	1.0301e-002
13360	16.855	3.	5.e-002	6.6757e-006
13361	17.152	3.	0.	1.0836e-002
13362	17.053	2.9	0.	1.0634e-002
13363	17.053	3.	5.e-002	6.1989e-006
13364	17.351	3.	0.	1.1193e-002
13365	17.252	2.9	0.	1.0981e-002
13366	17.252	3.	5.e-002	6.9142e-006
13367	17.549	3.	0.	1.1582e-002
13368	17.45	2.9	0.	1.1348e-002
13369	17.45	3.	5.e-002	6.4373e-006
13370	17.748	3.	0.	1.2003e-002
13371	17.648	2.9	0.	1.1758e-002
13372	17.648	3.	5.e-002	5.2452e-006
13373	17.946	3.	0.	1.2448e-002
13374	17.847	2.9	0.	1.2189e-002
13375	17.847	3.	5.e-002	5.2452e-006
13376	18.145	3.	0.	1.2923e-002
13377	18.045	2.9	0.	1.2649e-002
13378	18.045	3.	5.e-002	5.2452e-006
13379	18.343	3.	0.	1.3439e-002
13380	18.244	2.9	0.	1.3138e-002
13381	18.244	3.	5.e-002	4.53e-006
13382	18.542	3.	0.	1.3997e-002
13383	18.442	2.9	0.	1.3682e-002
13384	18.442	3.	5.e-002	5.0068e-006
13385	18.74	3.	0.	1.4587e-002
13386	18.641	2.9	0.	1.4255e-002
13387	18.641	3.	5.e-002	4.2915e-006
13388	18.939	3.	0.	1.5229e-002
13389	18.839	2.9	0.	1.4863e-002
13390	18.839	3.	5.e-002	7.1526e-006
13391	19.137	3.	0.	1.5936e-002
13392	19.038	2.9	0.	1.554e-002
13393	19.038	3.	5.e-002	9.0599e-006
13394	19.336	3.	0.	1.6702e-002
13395	19.236	2.9	0.	1.6274e-002
13396	19.236	3.	5.e-002	1.0014e-005
13397	19.534	3.	0.	1.7537e-002
13398	19.435	2.9	0.	1.7073e-002
13399	19.435	3.	5.e-002	8.5831e-006
13400	19.733	3.	0.	1.846e-002
13401	19.633	2.9	0.	1.7945e-002
13402	19.633	3.	5.e-002	1.0014e-005
13403	19.931	3.	0.	1.9482e-002
13404	19.832	2.9	0.	1.8919e-002
13405	19.832	3.	5.e-002	1.2875e-005
13406	20.13	3.	0.	2.0609e-002
13407	20.03	2.9	0.	1.9991e-002
13408	20.03	3.	5.e-002	1.049e-005
13409	20.328	3.	0.	2.1863e-002
13410	20.229	2.9	0.	2.1176e-002
13411	20.229	3.	5.e-002	1.049e-005
13412	20.527	3.	0.	2.3273e-002
13413	20.427	2.9	0.	2.2503e-002
13414	20.427	3.	5.e-002	1.3351e-005
13415	20.725	3.	0.	2.4861e-002
13416	20.626	2.9	0.	2.4e-002
13417	20.626	3.	5.e-002	1.5259e-005
13418	20.923	3.	0.	2.6655e-002
13419	20.824	2.9	0.	2.5685e-002
13420	20.824	3.	5.e-002	1.4782e-005
13421	21.122	3.	0.	2.871e-002
13422	21.023	2.9	0.	2.7598e-002
13423	21.023	3.	5.e-002	1.2398e-005
13424	21.32	3.	0.	3.1088e-002
13425	21.221	2.9	0.	2.9806e-002
13426	21.221	3.	5.e-002	1.3351e-005
13427	21.519	3.	0.	3.3865e-002
13428	21.42	2.9	0.	3.2371e-002
13429	21.42	3.	5.e-002	9.5368e-006
13430	21.717	3.	0.	3.7148e-002
13431	21.618	2.9	0.	3.5383e-002
13432	21.618	3.	5.e-002	8.5831e-006
13433	21.916	3.	0.	4.1093e-002
13434	21.817	2.9	0.	3.8969e-002
13435	21.817	3.	5.e-002	8.5831e-006
13436	22.114	3.	0.	4.5911e-002
13437	22.015	2.9	0.	4.332e-002
13438	22.015	3.	5.e-002	1.049e-005
13439	22.313	3.	0.	5.1941e-002
13440	22.214	2.9	0.	4.8679e-002
13441	22.214	3.	5.e-002	9.5367e-006
13442	22.511	3.	0.	5.9603e-002
13443	22.412	2.9	0.	5.549e-002
13444	22.412	3.	5.e-002	7.6294e-006
13445	22.71	3.	0.	6.998e-002
13446	22.611	2.9	0.	6.4184e-002
13447	22.611	3.	5.e-002	1.049e-005
13448	22.908	3.	0.	8.3343e-002
13449	22.809	2.9	0.	7.6562e-002
13450	22.809	3.	5.e-002	1.049e-005
13451	23.107	3.	0.	0.10671
13452	23.008	2.9	0.	9.1509e-002
13453	23.008	3.	5.e-002	1.3351e-005
13454	23.305	3.	0.	0.12811
13455	23.206	2.9	0.	0.12458
13456	23.206	3.	5.e-002	9.5367e-006
13457	23.504	3.	0.	0.23294
13458	23.405	2.9	0.	0.13756
13459	23.405	3.	5.e-002	1.1444e-005
13460	23.702	3.	0.	0.20116
13461	23.603	2.9	0.	0.34511
13462	23.603	3.	5.e-002	9.5367e-006
13463	23.802	2.9	0.	0.14395
13464	23.802	3.	5.e-002	1.1444e-005
13465	23.901	3.	0.	0.29712
13466	2.4644	2.8	0.	-2.362
13467	2.3652	2.7	0.	1.5886
13468	2.3652	2.8	5.e-002	-5.1172e-005
13469	2.6629	2.8	0.	-167.42
13470	2.5636	2.7	0.	-36.406
13471	2.5636	2.8	5.e-002	3.0364e-005
13472	2.8614	2.8	0.	-398.23
13473	2.7621	2.7	0.	-304.99
13474	2.7621	2.8	5.e-002	3.5759e-005
13475	3.0598	2.8	0.	-553.62
13476	2.9606	2.7	0.	-493.3
13477	2.9606	2.8	5.e-002	1.8088e-005
13478	3.2583	2.8	0.	-637.88
13479	3.1591	2.7	0.	-600.19
13480	3.1591	2.8	5.e-002	7.96e-006
13481	3.4568	2.8	0.	-669.78
13482	3.3576	2.7	0.	-647.99
13483	3.3576	2.8	5.e-002	-8.5585e-006
13484	3.6553	2.8	0.	-667.35
13485	3.5561	2.7	0.	-656.67
13486	3.5561	2.8	5.e-002	-2.1687e-005
13487	3.8538	2.8	0.	-643.99
13488	3.7545	2.7	0.	-640.98
13489	3.7545	2.8	5.e-002	-2.583e-005
13490	4.0523	2.8	0.	-608.8
13491	3.953	2.7	0.	-610.96
13492	3.953	2.8	5.e-002	-2.9104e-005
13493	4.2508	2.8	0.	-567.67
13494	4.1515	2.7	0.	-573.21
13495	4.1515	2.8	5.e-002	-2.7797e-005
13496	4.4492	2.8	0.	-524.34
13497	4.35	2.7	0.	-532.01
13498	4.35	2.8	5.e-002	-2.6931e-005
13499	4.6477	2.8	0.	-481.13
13500	4.5485	2.7	0.	-490.03
13501	4.5485	2.8	5.e-002	-2.5905e-005
13502	4.8462	2.8	0.	-439.41
13503	4.747	2.7	0.	-448.93
13504	4.747	2.8	5.e-002	-2.029e-005
13505	5.0447	2.8	0.	-399.97
13506	4.9455	2.7	0.	-409.68
13507	4.9455	2.8	5.e-002	-1.8521e-005
13508	5.2432	2.8	0.	-363.21
13509	5.1439	2.7	0.	-372.82
13510	5.1439	2.8	5.e-002	-1.6995e-005
13511	5.4417	2.8	0.	-329.28
13512	5.3424	2.7	0.	-338.6
13513	5.3424	2.8	5.e-002	-1.7153e-005
13514	5.6402	2.8	0.	-298.18
13515	5.5409	2.7	0.	-307.09
13516	5.5409	2.8	5.e-002	-1.0969e-005
13517	5.8386	2.8	0.	-269.8
13518	5.7394	2.7	0.	-278.23
13519	5.7394	2.8	5.e-002	-7.7955e-006
13520	6.0371	2.8	0.	-243.99
13521	5.9379	2.7	0.	-251.9
13522	5.9379	2.8	5.e-002	-8.6674e-006
13523	6.2356	2.8	0.	-220.58
13524	6.1364	2.7	0.	-227.96
13525	6.1364	2.8	5.e-002	-7.2439e-006
13526	6.4341	2.8	0.	-199.37
13527	6.3348	2.7	0.	-206.22
13528	6.3348	2.8	5.e-002	-4.053e-006
13529	6.6326	2.8	0.	-180.16
13530	6.5333	2.7	0.	-186.51
13531	6.5333	2.8	5.e-002	-3.2654e-006
13532	6.8311	2.8	0.	-162.78
13533	6.7318	2.7	0.	-168.64
13534	6.7318	2.8	5.e-002	-8.3652e-006
13535	7.0295	2.8	0.	-147.05
13536	6.9303	2.7	0.	-152.45
13537	6.9303	2.8	5.e-002	-7.9799e-006
13538	7.228	2.8	0.	-132.8
13539	7.1288	2.7	0.	-137.77
13540	7.1288	2.8	5.e-002	-5.6916e-006
13541	7.4265	2.8	0.	-119.9
13542	7.3273	2.7	0.	-124.47
13543	7.3273	2.8	5.e-002	-2.5347e-006
13544	7.625	2.8	0.	-108.2
13545	7.5258	2.7	0.	-112.4
13546	7.5258	2.8	5.e-002	-2.2718e-006
13547	7.8235	2.8	0.	-97.586
13548	7.7242	2.7	0.	-101.44
13549	7.7242	2.8	5.e-002	-4.0052e-006
13550	8.022	2.8	0.	-87.949
13551	7.9227	2.7	0.	-91.485
13552	7.9227	2.8	5.e-002	-9.7031e-007
13553	8.2205	2.8	0.	-79.19
13554	8.1212	2.7	0.	-82.435
13555	8.1212	2.8	5.e-002	-1.7863e-006
13556	8.4189	2.8	0.	-71.224
13557	8.3197	2.7	0.	-74.201
13558	8.3197	2.8	5.e-002	-7.4149e-007
13559	8.6174	2.8	0.	-63.971
13560	8.5182	2.7	0.	-66.703
13561	8.5182	2.8	5.e-002	-6.4384e-007
13562	8.8159	2.8	0.	-57.363
13563	8.7167	2.7	0.	-59.869
13564	8.7167	2.8	5.e-002	-5.7173e-007
13565	9.0144	2.8	0.	-51.337
13566	8.9152	2.7	0.	-53.637
13567	8.9152	2.8	5.e-002	-5.003e-007
13568	9.2129	2.8	0.	-45.838
13569	9.1136	2.7	0.	-47.949
13570	9.1136	2.8	5.e-002	-4.4006e-007
13571	9.4114	2.8	0.	-40.815
13572	9.3121	2.7	0.	-42.754
13573	9.3121	2.8	5.e-002	-3.928e-007
13574	9.6098	2.8	0.	-36.224
13575	9.5106	2.7	0.	-38.005
13576	9.5106	2.8	5.e-002	1.2653e-007
13577	9.8083	2.8	0.	-32.025
13578	9.7091	2.7	0.	-33.661
13579	9.7091	2.8	5.e-002	6.4336e-007
13580	10.007	2.8	0.	-28.181
13581	9.9076	2.7	0.	-29.686
13582	9.9076	2.8	5.e-002	6.8128e-007
13583	10.205	2.8	0.	-24.661
13584	10.106	2.7	0.	-26.044
13585	10.106	2.8	5.e-002	7.1149e-007
13586	10.404	2.8	0.	-21.433
13587	10.305	2.7	0.	-22.707
13588	10.305	2.8	5.e-002	1.4561e-006
13589	10.602	2.8	0.	-18.472
13590	10.503	2.7	0.	-19.645
13591	10.503	2.8	5.e-002	1.4828e-006
13592	10.801	2.8	0.	-15.754
13593	10.702	2.7	0.	-16.835
13594	10.702	2.8	5.e-002	1.0284e-006
13595	10.999	2.8	0.	-13.256
13596	10.9	2.7	0.	-14.254
13597	10.9	2.8	5.e-002	1.5291e-006
13598	11.198	2.8	0.	-10.959
13599	11.098	2.7	0.	-11.88
13600	11.098	2.8	5.e-002	1.9037e-006
13601	11.396	2.8	0.	-8.8444
13602	11.297	2.7	0.	-9.6961
13603	11.297	2.8	5.e-002	1.9223e-006
13604	11.595	2.8	0.	-6.8952
13605	11.495	2.7	0.	-7.6837
13606	11.495	2.8	5.e-002	1.4023e-006
13607	11.793	2.8	0.	-5.0964
13608	11.694	2.7	0.	-5.8278
13609	11.694	2.8	5.e-002	1.8354e-006
13610	11.992	2.8	0.	-3.434
13611	11.892	2.7	0.	-4.1135
13612	11.892	2.8	5.e-002	2.774e-006
13613	12.19	2.8	0.	-1.8954
13614	12.091	2.7	0.	-2.5281
13615	12.091	2.8	5.e-002	2.5121e-006
13616	12.389	2.8	0.	-0.46905
13617	12.289	2.7	0.	-1.0595
13618	12.289	2.8	5.e-002	3.2483e-006
13619	12.587	2.8	0.	5.4228e-003
13620	12.488	2.7	0.	2.3275e-003
13621	12.488	2.8	5.e-002	3.2021e-006
13622	12.786	2.8	0.	5.8829e-003
13623	12.686	2.7	0.	5.3023e-003
13624	12.686	2.8	5.e-002	4.6899e-006
13625	12.984	2.8	0.	6.0894e-003
13626	12.885	2.7	0.	5.7196e-003
13627	12.885	2.8	5.e-002	4.2026e-006
13628	13.183	2.8	0.	6.2651e-003
13629	13.083	2.7	0.	5.9514e-003
13630	13.083	2.8	5.e-002	4.2808e-006
13631	13.381	2.8	0.	6.4396e-003
13632	13.282	2.7	0.	6.1617e-003
13633	13.282	2.8	5.e-002	3.7997e-006
13634	13.58	2.8	0.	6.6042e-003
13635	13.48	2.7	0.	6.3484e-003
13636	13.48	2.8	5.e-002	4.2727e-006
13637	13.778	2.8	0.	6.7623e-003
13638	13.679	2.7	0.	6.52e-003
13639	13.679	2.8	5.e-002	4.1045e-006
13640	13.977	2.8	0.	6.9346e-003
13641	13.877	2.7	0.	6.6829e-003
13642	13.877	2.8	5.e-002	4.1155e-006
13643	14.175	2.8	0.	7.1136e-003
13644	14.076	2.7	0.	6.8772e-003
13645	14.076	2.8	5.e-002	4.1253e-006
13646	14.373	2.8	0.	7.2757e-003
13647	14.274	2.7	0.	7.0498e-003
13648	14.274	2.8	5.e-002	4.0742e-006
13649	14.572	2.8	0.	7.4471e-003
13650	14.473	2.7	0.	7.2065e-003
13651	14.473	2.8	5.e-002	4.3822e-006
13652	14.77	2.8	0.	7.6354e-003
13653	14.671	2.7	0.	7.3964e-003
13654	14.671	2.8	5.e-002	3.1421e-006
13655	14.969	2.8	0.	7.8257e-003
13656	14.87	2.7	0.	7.5861e-003
13657	14.87	2.8	5.e-002	3.808e-006
13658	15.167	2.8	0.	8.0199e-003
13659	15.068	2.7	0.	7.7788e-003
13660	15.068	2.8	5.e-002	4.8847e-006
13661	15.366	2.8	0.	8.231e-003
13662	15.267	2.7	0.	7.9738e-003
13663	15.267	2.8	5.e-002	4.533e-006
13664	15.564	2.8	0.	8.4605e-003
13665	15.465	2.7	0.	8.2012e-003
13666	15.465	2.8	5.e-002	4.7816e-006
13667	15.763	2.8	0.	8.6946e-003
13668	15.664	2.7	0.	8.4324e-003
13669	15.664	2.8	5.e-002	5.8657e-006
13670	15.961	2.8	0.	8.9358e-003
13671	15.862	2.7	0.	8.668e-003
13672	15.862	2.8	5.e-002	5.9962e-006
13673	16.16	2.8	0.	9.199e-003
13674	16.061	2.7	0.	8.9139e-003
13675	16.061	2.8	5.e-002	6.9652e-006
13676	16.358	2.8	0.	9.4779e-003
13677	16.259	2.7	0.	9.192e-003
13678	16.259	2.8	5.e-002	8.4118e-006
13679	16.557	2.8	0.	9.7551e-003
13680	16.458	2.7	0.	9.47e-003
13681	16.458	2.8	5.e-002	7.3496e-006
13682	16.755	2.8	0.	1.0051e-002
13683	16.656	2.7	0.	9.7443e-003
13684	16.656	2.8	5.e-002	5.6946e-006
13685	16.954	2.8	0.	1.0374e-002
13686	16.855	2.7	0.	1.0059e-002
13687	16.855	2.8	5.e-002	6.4143e-006
13688	17.152	2.8	0.	1.0712e-002
13689	17.053	2.7	0.	1.0387e-002
13690	17.053	2.8	5.e-002	5.7081e-006
13691	17.351	2.8	0.	1.1069e-002
13692	17.252	2.7	0.	1.0734e-002
13693	17.252	2.8	5.e-002	6.4281e-006
13694	17.549	2.8	0.	1.1455e-002
13695	17.45	2.7	0.	1.1097e-002
13696	17.45	2.8	5.e-002	5.9639e-006
13697	17.748	2.8	0.	1.1874e-002
13698	17.648	2.7	0.	1.1502e-002
13699	17.648	2.8	5.e-002	4.7905e-006
13700	17.946	2.8	0.	1.2319e-002
13701	17.847	2.7	0.	1.1931e-002
13702	17.847	2.8	5.e-002	5.2999e-006
13703	18.145	2.8	0.	1.2791e-002
13704	18.045	2.7	0.	1.2387e-002
13705	18.045	2.8	5.e-002	4.3675e-006
13706	18.343	2.8	0.	1.3306e-002
13707	18.244	2.7	0.	1.2874e-002
13708	18.244	2.8	5.e-002	4.3745e-006
13709	18.542	2.8	0.	1.3863e-002
13710	18.442	2.7	0.	1.3413e-002
13711	18.442	2.8	5.e-002	5.1031e-006
13712	18.74	2.8	0.	1.4452e-002
13713	18.641	2.7	0.	1.3982e-002
13714	18.641	2.8	5.e-002	4.6434e-006
13715	18.939	2.8	0.	1.5092e-002
13716	18.839	2.7	0.	1.4586e-002
13717	18.839	2.8	5.e-002	7.5335e-006
13718	19.137	2.8	0.	1.5794e-002
13719	19.038	2.7	0.	1.5259e-002
13720	19.038	2.8	5.e-002	9.4552e-006
13721	19.336	2.8	0.	1.6557e-002
13722	19.236	2.7	0.	1.5986e-002
13723	19.236	2.8	5.e-002	9.9448e-006
13724	19.534	2.8	0.	1.739e-002
13725	19.435	2.7	0.	1.6781e-002
13726	19.435	2.8	5.e-002	7.5939e-006
13727	19.733	2.8	0.	1.8309e-002
13728	19.633	2.7	0.	1.7647e-002
13729	19.633	2.8	5.e-002	9.5182e-006
13730	19.931	2.8	0.	1.9328e-002
13731	19.832	2.7	0.	1.8614e-002
13732	19.832	2.8	5.e-002	1.3329e-005
13733	20.13	2.8	0.	2.0452e-002
13734	20.03	2.7	0.	1.9679e-002
13735	20.03	2.8	5.e-002	1.0015e-005
13736	20.328	2.8	0.	2.1703e-002
13737	20.229	2.7	0.	2.0859e-002
13738	20.229	2.8	5.e-002	1.0514e-005
13739	20.527	2.8	0.	2.3108e-002
13740	20.427	2.7	0.	2.2177e-002
13741	20.427	2.8	5.e-002	1.2903e-005
13742	20.725	2.8	0.	2.4692e-002
13743	20.626	2.7	0.	2.3666e-002
13744	20.626	2.8	5.e-002	1.481e-005
13745	20.923	2.8	0.	2.6483e-002
13746	20.824	2.7	0.	2.5344e-002
13747	20.824	2.8	5.e-002	1.528e-005
13748	21.122	2.8	0.	2.8534e-002
13749	21.023	2.7	0.	2.7248e-002
13750	21.023	2.8	5.e-002	1.1949e-005
13751	21.32	2.8	0.	3.0909e-002
13752	21.221	2.7	0.	2.9449e-002
13753	21.221	2.8	5.e-002	1.2946e-005
13754	21.519	2.8	0.	3.3681e-002
13755	21.42	2.7	0.	3.2004e-002
13756	21.42	2.8	5.e-002	1.0994e-005
13757	21.717	2.8	0.	3.6958e-002
13758	21.618	2.7	0.	3.5006e-002
13759	21.618	2.8	5.e-002	9.1384e-006
13760	21.916	2.8	0.	4.0897e-002
13761	21.817	2.7	0.	3.8581e-002
13762	21.817	2.8	5.e-002	8.2202e-006
13763	22.114	2.8	0.	4.5711e-002
13764	22.015	2.7	0.	4.292e-002
13765	22.015	2.8	5.e-002	1.1065e-005
13766	22.313	2.8	0.	5.1734e-002
13767	22.214	2.7	0.	4.8266e-002
13768	22.214	2.8	5.e-002	1.1057e-005
13769	22.511	2.8	0.	5.9386e-002
13770	22.412	2.7	0.	5.506e-002
13771	22.412	2.8	5.e-002	1.0067e-005
13772	22.71	2.8	0.	6.9751e-002
13773	22.611	2.7	0.	6.3734e-002
13774	22.611	2.8	5.e-002	1.1079e-005
13775	22.908	2.8	0.	8.3099e-002
13776	22.809	2.7	0.	7.6083e-002
13777	22.809	2.8	5.e-002	1.0037e-005
13778	23.107	2.8	0.	0.10645
13779	23.008	2.7	0.	9.0998e-002
13780	23.008	2.8	5.e-002	1.3718e-005
13781	23.305	2.8	0.	0.12781
13782	23.206	2.7	0.	0.12401
13783	23.206	2.8	5.e-002	1.1694e-005
13784	23.504	2.8	0.	0.23257
13785	23.405	2.7	0.	0.13692
13786	23.405	2.8	5.e-002	1.1621e-005
13787	23.702	2.8	0.	0.20059
13788	23.603	2.7	0.	0.34421
13789	23.603	2.8	5.e-002	1.1518e-005
13790	23.802	2.7	0.	0.14224
13791	23.802	2.8	5.e-002	1.3399e-005
13792	23.901	2.8	0.	0.29695
13793	2.4644	2.6	0.	0.59867
13794	2.3652	2.5	0.	-8.4092
13795	2.3652	2.6	5.e-002	-1.2139e-004
13796	2.6629	2.6	0.	-154.51
13797	2.5636	2.5	0.	-28.084
13798	2.5636	2.6	5.e-002	-6.0577e-006
13799	2.8614	2.6	0.	-390.51
13800	2.7621	2.5	0.	-286.61
13801	2.7621	2.6	5.e-002	2.7238e-005
13802	3.0598	2.6	0.	-534.69
13803	2.9606	2.5	0.	-460.16
13804	2.9606	2.6	5.e-002	7.6049e-006
13805	3.2583	2.6	0.	-607.76
13806	3.1591	2.5	0.	-554.27
13807	3.1591	2.6	5.e-002	-1.7727e-005
13808	3.4568	2.6	0.	-633.72
13809	3.3576	2.5	0.	-595.91
13810	3.3576	2.6	5.e-002	-2.7657e-005
13811	3.6553	2.6	0.	-629.81
13812	3.5561	2.5	0.	-603.71
13813	3.5561	2.6	5.e-002	-3.552e-005
13814	3.8538	2.6	0.	-607.75
13815	3.7545	2.5	0.	-590.36
13816	3.7545	2.6	5.e-002	-4.8892e-005
13817	4.0523	2.6	0.	-575.31
13818	3.953	2.5	0.	-564.36
13819	3.953	2.6	5.e-002	-4.4569e-005
13820	4.2508	2.6	0.	-537.55
13821	4.1515	2.5	0.	-531.34
13822	4.1515	2.6	5.e-002	-4.2884e-005
13823	4.4492	2.6	0.	-497.71
13824	4.35	2.5	0.	-494.96
13825	4.35	2.6	5.e-002	-3.9375e-005
13826	4.6477	2.6	0.	-457.84
13827	4.5485	2.5	0.	-457.6
13828	4.5485	2.6	5.e-002	-2.2215e-005
13829	4.8462	2.6	0.	-419.21
13830	4.747	2.5	0.	-420.75
13831	4.747	2.6	5.e-002	-2.4994e-005
13832	5.0447	2.6	0.	-382.54
13833	4.9455	2.5	0.	-385.32
13834	4.9455	2.6	5.e-002	-2.2438e-005
13835	5.2432	2.6	0.	-348.22
13836	5.1439	2.5	0.	-351.84
13837	5.1439	2.6	5.e-002	-2.1557e-005
13838	5.4417	2.6	0.	-316.41
13839	5.3424	2.5	0.	-320.57
13840	5.3424	2.6	5.e-002	-1.8512e-005
13841	5.6402	2.6	0.	-287.14
13842	5.5409	2.5	0.	-291.61
13843	5.5409	2.6	5.e-002	-1.3102e-005
13844	5.8386	2.6	0.	-260.33
13845	5.7394	2.5	0.	-264.94
13846	5.7394	2.6	5.e-002	-1.6198e-005
13847	6.0371	2.6	0.	-235.87
13848	5.9379	2.5	0.	-240.5
13849	5.9379	2.6	5.e-002	-1.0341e-005
13850	6.2356	2.6	0.	-213.61
13851	6.1364	2.5	0.	-218.17
13852	6.1364	2.6	5.e-002	-1.0217e-005
13853	6.4341	2.6	0.	-193.37
13854	6.3348	2.5	0.	-197.8
13855	6.3348	2.6	5.e-002	-8.1781e-006
13856	6.6326	2.6	0.	-174.99
13857	6.5333	2.5	0.	-179.25
13858	6.5333	2.6	5.e-002	-8.4947e-006
13859	6.8311	2.6	0.	-158.31
13860	6.7318	2.5	0.	-162.37
13861	6.7318	2.6	5.e-002	-7.2675e-006
13862	7.0295	2.6	0.	-143.18
13863	6.9303	2.5	0.	-147.02
13864	6.9303	2.6	5.e-002	-4.4096e-006
13865	7.228	2.6	0.	-129.44
13866	7.1288	2.5	0.	-133.05
13867	7.1288	2.6	5.e-002	-7.4525e-006
13868	7.4265	2.6	0.	-116.96
13869	7.3273	2.5	0.	-120.35
13870	7.3273	2.6	5.e-002	-4.0311e-006
13871	7.625	2.6	0.	-105.63
13872	7.5258	2.5	0.	-108.8
13873	7.5258	2.6	5.e-002	-3.5069e-006
13874	7.8235	2.6	0.	-95.333
13875	7.7242	2.5	0.	-98.285
13876	7.7242	2.6	5.e-002	-5.0943e-006
13877	8.022	2.6	0.	-85.964
13878	7.9227	2.5	0.	-88.709
13879	7.9227	2.6	5.e-002	-2.8232e-006
13880	8.2205	2.6	0.	-77.437
13881	8.1212	2.5	0.	-79.984
13882	8.1212	2.6	5.e-002	-1.6722e-006
13883	8.4189	2.6	0.	-69.67
13884	8.3197	2.5	0.	-72.03
13885	8.3197	2.6	5.e-002	-1.4414e-006
13886	8.6174	2.6	0.	-62.59
13887	8.5182	2.5	0.	-64.774
13888	8.5182	2.6	5.e-002	-1.2687e-006
13889	8.8159	2.6	0.	-56.131
13890	8.7167	2.5	0.	-58.151
13891	8.7167	2.6	5.e-002	-1.0916e-006
13892	9.0144	2.6	0.	-50.236
13893	8.9152	2.5	0.	-52.102
13894	8.9152	2.6	5.e-002	-9.7448e-007
13895	9.2129	2.6	0.	-44.851
13896	9.1136	2.5	0.	-46.573
13897	9.1136	2.6	5.e-002	-8.5448e-007
13898	9.4114	2.6	0.	-39.928
13899	9.3121	2.5	0.	-41.518
13900	9.3121	2.6	5.e-002	-7.6971e-007
13901	9.6098	2.6	0.	-35.426
13902	9.5106	2.5	0.	-36.893
13903	9.5106	2.6	5.e-002	-6.8047e-007
13904	9.8083	2.6	0.	-31.304
13905	9.7091	2.5	0.	-32.659
13906	9.7091	2.6	5.e-002	3.5253e-007
13907	10.007	2.6	0.	-27.53
13908	9.9076	2.5	0.	-28.78
13909	9.9076	2.6	5.e-002	9.0554e-007
13910	10.205	2.6	0.	-24.071
13911	10.106	2.5	0.	-25.224
13912	10.106	2.6	5.e-002	7.2133e-007
13913	10.404	2.6	0.	-20.898
13914	10.305	2.5	0.	-21.963
13915	10.305	2.6	5.e-002	1.4946e-006
13916	10.602	2.6	0.	-17.987
13917	10.503	2.5	0.	-18.971
13918	10.503	2.6	5.e-002	1.0703e-006
13919	10.801	2.6	0.	-15.313
13920	10.702	2.5	0.	-16.222
13921	10.702	2.6	5.e-002	9.9158e-007
13922	10.999	2.6	0.	-12.855
13923	10.9	2.5	0.	-13.696
13924	10.9	2.6	5.e-002	1.278e-006
13925	11.198	2.6	0.	-10.594
13926	11.098	2.5	0.	-11.372
13927	11.098	2.6	5.e-002	1.6684e-006
13928	11.396	2.6	0.	-8.5113
13929	11.297	2.5	0.	-9.2334
13930	11.297	2.6	5.e-002	1.6467e-006
13931	11.595	2.6	0.	-6.5915
13932	11.495	2.5	0.	-7.2619
13933	11.495	2.6	5.e-002	9.6255e-007
13934	11.793	2.6	0.	-4.8194
13935	11.694	2.5	0.	-5.4431
13936	11.694	2.6	5.e-002	1.5895e-006
13937	11.992	2.6	0.	-3.1814
13938	11.892	2.5	0.	-3.7626
13939	11.892	2.6	5.e-002	2.5634e-006
13940	12.19	2.6	0.	-1.6653
13941	12.091	2.5	0.	-2.2082
13942	12.091	2.6	5.e-002	2.2111e-006
13943	12.389	2.6	0.	-0.26424
13944	12.289	2.5	0.	-0.76939
13945	12.289	2.6	5.e-002	2.9231e-006
13946	12.587	2.6	0.	4.0303e-003
13947	12.488	2.5	0.	5.7e-004
13948	12.488	2.6	5.e-002	2.9788e-006
13949	12.786	2.6	0.	5.1201e-003
13950	12.686	2.5	0.	4.1696e-003
13951	12.686	2.6	5.e-002	4.4785e-006
13952	12.984	2.6	0.	5.5167e-003
13953	12.885	2.5	0.	4.9113e-003
13954	12.885	2.6	5.e-002	3.898e-006
13955	13.183	2.6	0.	5.7807e-003
13956	13.083	2.5	0.	5.2846e-003
13957	13.083	2.6	5.e-002	4.0543e-006
13958	13.381	2.6	0.	6.0053e-003
13959	13.282	2.5	0.	5.5714e-003
13960	13.282	2.6	5.e-002	3.5908e-006
13961	13.58	2.6	0.	6.2011e-003
13962	13.48	2.5	0.	5.8033e-003
13963	13.48	2.6	5.e-002	4.2824e-006
13964	13.778	2.6	0.	6.3792e-003
13965	13.679	2.5	0.	6.0056e-003
13966	13.679	2.6	5.e-002	3.7972e-006
13967	13.977	2.6	0.	6.5653e-003
13968	13.877	2.5	0.	6.1886e-003
13969	13.877	2.6	5.e-002	4.116e-006
13970	14.175	2.6	0.	6.754e-003
13971	14.076	2.5	0.	6.3958e-003
13972	14.076	2.6	5.e-002	4.0187e-006
13973	14.373	2.6	0.	6.9218e-003
13974	14.274	2.5	0.	6.5779e-003
13975	14.274	2.6	5.e-002	4.3314e-006
13976	14.572	2.6	0.	7.0973e-003
13977	14.473	2.5	0.	6.741e-003
13978	14.473	2.6	5.e-002	4.2929e-006
13979	14.77	2.6	0.	7.2888e-003
13980	14.671	2.5	0.	6.9341e-003
13981	14.671	2.6	5.e-002	2.9429e-006
13982	14.969	2.6	0.	7.4807e-003
13983	14.87	2.5	0.	7.126e-003
13984	14.87	2.6	5.e-002	3.6804e-006
13985	15.167	2.6	0.	7.6739e-003
13986	15.068	2.5	0.	7.3196e-003
13987	15.068	2.6	5.e-002	4.7589e-006
13988	15.366	2.6	0.	7.8849e-003
13989	15.267	2.5	0.	7.5136e-003
13990	15.267	2.6	5.e-002	4.294e-006
13991	15.564	2.6	0.	8.1136e-003
13992	15.465	2.5	0.	7.7397e-003
13993	15.465	2.6	5.e-002	5.2684e-006
13994	15.763	2.6	0.	8.3458e-003
13995	15.664	2.5	0.	7.9682e-003
13996	15.664	2.6	5.e-002	5.5286e-006
13997	15.961	2.6	0.	8.5854e-003
13998	15.862	2.5	0.	8.2024e-003
13999	15.862	2.6	5.e-002	5.7899e-006
14000	16.16	2.6	0.	8.8455e-003
14001	16.061	2.5	0.	8.4438e-003
14002	16.061	2.6	5.e-002	7.1378e-006
14003	16.358	2.6	0.	9.1219e-003
14004	16.259	2.5	0.	8.7188e-003
14005	16.259	2.6	5.e-002	7.9953e-006
14006	16.557	2.6	0.	9.3962e-003
14007	16.458	2.5	0.	8.9916e-003
14008	16.458	2.6	5.e-002	7.898e-006
14009	16.755	2.6	0.	9.6886e-003
14010	16.656	2.5	0.	9.2616e-003
14011	16.656	2.6	5.e-002	6.0184e-006
14012	16.954	2.6	0.	1.0007e-002
14013	16.855	2.5	0.	9.5722e-003
14014	16.855	2.6	5.e-002	6.6274e-006
14015	17.152	2.6	0.	1.0342e-002
14016	17.053	2.5	0.	9.893e-003
14017	17.053	2.6	5.e-002	5.4418e-006
14018	17.351	2.6	0.	1.0694e-002
14019	17.252	2.5	0.	1.0234e-002
14020	17.252	2.6	5.e-002	6.8904e-006
14021	17.549	2.6	0.	1.1076e-002
14022	17.45	2.5	0.	1.0592e-002
14023	17.45	2.6	5.e-002	5.9566e-006
14024	17.748	2.6	0.	1.1489e-002
14025	17.648	2.5	0.	1.0991e-002
14026	17.648	2.6	5.e-002	5.2778e-006
14027	17.946	2.6	0.	1.1928e-002
14028	17.847	2.5	0.	1.1412e-002
14029	17.847	2.6	5.e-002	5.5857e-006
14030	18.145	2.6	0.	1.2396e-002
14031	18.045	2.5	0.	1.186e-002
14032	18.045	2.6	5.e-002	5.3822e-006
14033	18.343	2.6	0.	1.2905e-002
14034	18.244	2.5	0.	1.234e-002
14035	18.244	2.6	5.e-002	4.6778e-006
14036	18.542	2.6	0.	1.3455e-002
14037	18.442	2.5	0.	1.287e-002
14038	18.442	2.6	5.e-002	5.4133e-006
14039	18.74	2.6	0.	1.4036e-002
14040	18.641	2.5	0.	1.343e-002
14041	18.641	2.6	5.e-002	4.2636e-006
14042	18.939	2.6	0.	1.467e-002
14043	18.839	2.5	0.	1.4024e-002
14044	18.839	2.6	5.e-002	7.8929e-006
14045	19.137	2.6	0.	1.5366e-002
14046	19.038	2.5	0.	1.4687e-002
14047	19.038	2.6	5.e-002	1.0538e-005
14048	19.336	2.6	0.	1.612e-002
14049	19.236	2.5	0.	1.5405e-002
14050	19.236	2.6	5.e-002	1.0329e-005
14051	19.534	2.6	0.	1.6945e-002
14052	19.435	2.5	0.	1.6186e-002
14053	19.435	2.6	5.e-002	8.9661e-006
14054	19.733	2.6	0.	1.7855e-002
14055	19.633	2.5	0.	1.7041e-002
14056	19.633	2.6	5.e-002	9.9491e-006
14057	19.931	2.6	0.	1.8864e-002
14058	19.832	2.5	0.	1.7996e-002
14059	19.832	2.6	5.e-002	1.3273e-005
14060	20.13	2.6	0.	1.9978e-002
14061	20.03	2.5	0.	1.9046e-002
14062	20.03	2.6	5.e-002	9.996e-006
14063	20.328	2.6	0.	2.1218e-002
14064	20.229	2.5	0.	2.0213e-002
14065	20.229	2.6	5.e-002	1.1455e-005
14066	20.527	2.6	0.	2.2612e-002
14067	20.427	2.5	0.	2.1515e-002
14068	20.427	2.6	5.e-002	1.3842e-005
14069	20.725	2.6	0.	2.4184e-002
14070	20.626	2.5	0.	2.2988e-002
14071	20.626	2.6	5.e-002	1.625e-005
14072	20.923	2.6	0.	2.5962e-002
14073	20.824	2.5	0.	2.4649e-002
14074	20.824	2.6	5.e-002	1.5279e-005
14075	21.122	2.6	0.	2.8e-002
14076	21.023	2.5	0.	2.6534e-002
14077	21.023	2.6	5.e-002	1.3852e-005
14078	21.32	2.6	0.	3.0361e-002
14079	21.221	2.5	0.	2.8718e-002
14080	21.221	2.6	5.e-002	1.3486e-005
14081	21.519	2.6	0.	3.3118e-002
14082	21.42	2.5	0.	3.1252e-002
14083	21.42	2.6	5.e-002	9.5728e-006
14084	21.717	2.6	0.	3.638e-002
14085	21.618	2.5	0.	3.4234e-002
14086	21.618	2.6	5.e-002	9.6648e-006
14087	21.916	2.6	0.	4.0301e-002
14088	21.817	2.5	0.	3.7785e-002
14089	21.817	2.6	5.e-002	1.0691e-005
14090	22.114	2.6	0.	4.5095e-002
14091	22.015	2.5	0.	4.2099e-002
14092	22.015	2.6	5.e-002	1.2566e-005
14093	22.313	2.6	0.	5.1094e-002
14094	22.214	2.5	0.	4.7416e-002
14095	22.214	2.6	5.e-002	1.2528e-005
14096	22.511	2.6	0.	5.872e-002
14097	22.412	2.5	0.	5.4175e-002
14098	22.412	2.6	5.e-002	9.6062e-006
14099	22.71	2.6	0.	6.905e-002
14100	22.611	2.5	0.	6.2809e-002
14101	22.611	2.6	5.e-002	1.0672e-005
14102	22.908	2.6	0.	8.2352e-002
14103	22.809	2.5	0.	7.51e-002
14104	22.809	2.6	5.e-002	1.0486e-005
14105	23.107	2.6	0.	0.10563
14106	23.008	2.5	0.	8.9946e-002
14107	23.008	2.6	5.e-002	1.4045e-005
14108	23.305	2.6	0.	0.12692
14109	23.206	2.5	0.	0.12285
14110	23.206	2.6	5.e-002	1.19e-005
14111	23.504	2.6	0.	0.23144
14112	23.405	2.5	0.	0.13562
14113	23.405	2.6	5.e-002	1.1752e-005
14114	23.702	2.6	0.	0.19886
14115	23.603	2.5	0.	0.34237
14116	23.603	2.6	5.e-002	1.1548e-005
14117	23.802	2.5	0.	0.13874
14118	23.802	2.6	5.e-002	1.3409e-005
14119	23.901	2.6	0.	0.29644
14120	2.4644	2.4	0.	-21.458
14121	2.3652	2.3	0.	-4.5263
14122	2.3652	2.4	5.e-002	-2.7169e-004
14123	2.6629	2.4	0.	-118.
14124	2.5636	2.3	0.	14.846
14125	2.5636	2.4	5.e-002	-5.382e-005
14126	2.8614	2.4	0.	-347.83
14127	2.7621	2.3	0.	-191.2
14128	2.7621	2.4	5.e-002	2.0616e-006
14129	3.0598	2.4	0.	-476.63
14130	2.9606	2.3	0.	-362.9
14131	2.9606	2.4	5.e-002	-5.7326e-005
14132	3.2583	2.4	0.	-541.37
14133	3.1591	2.3	0.	-459.58
14134	3.1591	2.4	5.e-002	-7.1428e-005
14135	3.4568	2.4	0.	-565.62
14136	3.3576	2.3	0.	-505.54
14137	3.3576	2.4	5.e-002	-9.0647e-005
14138	3.6553	2.4	0.	-564.24
14139	3.5561	2.3	0.	-519.9
14140	3.5561	2.4	5.e-002	-6.4506e-005
14141	3.8538	2.4	0.	-547.03
14142	3.7545	2.3	0.	-514.13
14143	3.7545	2.4	5.e-002	-7.0962e-005
14144	4.0523	2.4	0.	-520.45
14145	3.953	2.3	0.	-496.08
14146	3.953	2.4	5.e-002	-6.0354e-005
14147	4.2508	2.4	0.	-488.8
14148	4.1515	2.3	0.	-470.87
14149	4.1515	2.4	5.e-002	-6.7766e-005
14150	4.4492	2.4	0.	-454.88
14151	4.35	2.3	0.	-441.88
14152	4.35	2.4	5.e-002	-5.5316e-005
14153	4.6477	2.4	0.	-420.52
14154	4.5485	2.3	0.	-411.31
14155	4.5485	2.4	5.e-002	-2.8332e-005
14156	4.8462	2.4	0.	-386.87
14157	4.747	2.3	0.	-380.59
14158	4.747	2.4	5.e-002	-4.0564e-005
14159	5.0447	2.4	0.	-354.63
14160	4.9455	2.3	0.	-350.61
14161	4.9455	2.4	5.e-002	-3.0469e-005
14162	5.2432	2.4	0.	-324.2
14163	5.1439	2.3	0.	-321.92
14164	5.1439	2.4	5.e-002	-2.3133e-005
14165	5.4417	2.4	0.	-295.77
14166	5.3424	2.3	0.	-294.82
14167	5.3424	2.4	5.e-002	-2.443e-005
14168	5.6402	2.4	0.	-269.42
14169	5.5409	2.3	0.	-269.47
14170	5.5409	2.4	5.e-002	-1.6211e-005
14171	5.8386	2.4	0.	-245.12
14172	5.7394	2.3	0.	-245.92
14173	5.7394	2.4	5.e-002	-1.5915e-005
14174	6.0371	2.4	0.	-222.8
14175	5.9379	2.3	0.	-224.15
14176	5.9379	2.4	5.e-002	-1.3652e-005
14177	6.2356	2.4	0.	-202.36
14178	6.1364	2.3	0.	-204.09
14179	6.1364	2.4	5.e-002	-8.3952e-006
14180	6.4341	2.4	0.	-183.68
14181	6.3348	2.3	0.	-185.66
14182	6.3348	2.4	5.e-002	-9.4106e-006
14183	6.6326	2.4	0.	-166.63
14184	6.5333	2.3	0.	-168.77
14185	6.5333	2.4	5.e-002	-5.4465e-006
14186	6.8311	2.4	0.	-151.07
14187	6.7318	2.3	0.	-153.29
14188	6.7318	2.4	5.e-002	-7.575e-006
14189	7.0295	2.4	0.	-136.89
14190	6.9303	2.3	0.	-139.14
14191	6.9303	2.4	5.e-002	-6.2372e-006
14192	7.228	2.4	0.	-123.97
14193	7.1288	2.3	0.	-126.2
14194	7.1288	2.4	5.e-002	-6.1466e-006
14195	7.4265	2.4	0.	-112.19
14196	7.3273	2.3	0.	-114.37
14197	7.3273	2.4	5.e-002	-4.3479e-006
14198	7.625	2.4	0.	-101.45
14199	7.5258	2.3	0.	-103.56
14200	7.5258	2.4	5.e-002	-5.6649e-006
14201	7.8235	2.4	0.	-91.655
14202	7.7242	2.3	0.	-93.678
14203	7.7242	2.4	5.e-002	-3.2081e-006
14204	8.022	2.4	0.	-82.721
14205	7.9227	2.3	0.	-84.648
14206	7.9227	2.4	5.e-002	-3.7374e-006
14207	8.2205	2.4	0.	-74.568
14208	8.1212	2.3	0.	-76.392
14209	8.1212	2.4	5.e-002	-2.4012e-006
14210	8.4189	2.4	0.	-67.124
14211	8.3197	2.3	0.	-68.843
14212	8.3197	2.4	5.e-002	-2.0717e-006
14213	8.6174	2.4	0.	-60.324
14214	8.5182	2.3	0.	-61.939
14215	8.5182	2.4	5.e-002	-1.8075e-006
14216	8.8159	2.4	0.	-54.109
14217	8.7167	2.3	0.	-55.621
14218	8.7167	2.4	5.e-002	-1.1187e-006
14219	9.0144	2.4	0.	-48.426
14220	8.9152	2.3	0.	-49.838
14221	8.9152	2.4	5.e-002	-9.6059e-007
14222	9.2129	2.4	0.	-43.226
14223	9.1136	2.3	0.	-44.543
14224	9.1136	2.4	5.e-002	-1.2577e-006
14225	9.4114	2.4	0.	-38.468
14226	9.3121	2.3	0.	-39.693
14227	9.3121	2.4	5.e-002	-1.1118e-006
14228	9.6098	2.4	0.	-34.109
14229	9.5106	2.3	0.	-35.249
14230	9.5106	2.4	5.e-002	-5.0584e-007
14231	9.8083	2.4	0.	-30.116
14232	9.7091	2.3	0.	-31.174
14233	9.7091	2.4	5.e-002	-1.781e-007
14234	10.007	2.4	0.	-26.455
14235	9.9076	2.3	0.	-27.437
14236	9.9076	2.4	5.e-002	4.349e-007
14237	10.205	2.4	0.	-23.097
14238	10.106	2.3	0.	-24.008
14239	10.106	2.4	5.e-002	5.264e-007
14240	10.404	2.4	0.	-20.015
14241	10.305	2.3	0.	-20.861
14242	10.305	2.4	5.e-002	5.9717e-007
14243	10.602	2.4	0.	-17.184
14244	10.503	2.3	0.	-17.969
14245	10.503	2.4	5.e-002	5.6417e-007
14246	10.801	2.4	0.	-14.583
14247	10.702	2.3	0.	-15.312
14248	10.702	2.4	5.e-002	7.3335e-007
14249	10.999	2.4	0.	-12.191
14250	10.9	2.3	0.	-12.867
14251	10.9	2.4	5.e-002	6.7817e-007
14252	11.198	2.4	0.	-9.9887
14253	11.098	2.3	0.	-10.618
14254	11.098	2.4	5.e-002	1.5711e-006
14255	11.396	2.4	0.	-7.9598
14256	11.297	2.3	0.	-8.5454
14257	11.297	2.4	5.e-002	1.4945e-006
14258	11.595	2.4	0.	-6.0886
14259	11.495	2.3	0.	-6.6345
14260	11.495	2.4	5.e-002	1.1329e-006
14261	11.793	2.4	0.	-4.3607
14262	11.694	2.3	0.	-4.8707
14263	11.694	2.4	5.e-002	1.6415e-006
14264	11.992	2.4	0.	-2.7631
14265	11.892	2.3	0.	-3.2404
14266	11.892	2.4	5.e-002	2.4653e-006
14267	12.19	2.4	0.	-1.2846
14268	12.091	2.3	0.	-1.7323
14269	12.091	2.4	5.e-002	2.3111e-006
14270	12.389	2.4	0.	-2.8681e-002
14271	12.289	2.3	0.	-0.34517
14272	12.289	2.4	5.e-002	2.929e-006
14273	12.587	2.4	0.	2.5542e-003
14274	12.488	2.3	0.	-3.2883e-004
14275	12.488	2.4	5.e-002	3.0871e-006
14276	12.786	2.4	0.	4.068e-003
14277	12.686	2.3	0.	2.9216e-003
14278	12.686	2.4	5.e-002	4.344e-006
14279	12.984	2.4	0.	4.6649e-003
14280	12.885	2.3	0.	3.8871e-003
14281	12.885	2.4	5.e-002	4.146e-006
14282	13.183	2.4	0.	5.0353e-003
14283	13.083	2.3	0.	4.3893e-003
14284	13.083	2.4	5.e-002	4.3708e-006
14285	13.381	2.4	0.	5.3215e-003
14286	13.282	2.3	0.	4.7536e-003
14287	13.282	2.4	5.e-002	3.6357e-006
14288	13.58	2.4	0.	5.5569e-003
14289	13.48	2.3	0.	5.0348e-003
14290	13.48	2.4	5.e-002	3.9327e-006
14291	13.778	2.4	0.	5.7628e-003
14292	13.679	2.3	0.	5.2686e-003
14293	13.679	2.4	5.e-002	3.8437e-006
14294	13.977	2.4	0.	5.9662e-003
14295	13.877	2.3	0.	5.4746e-003
14296	13.877	2.4	5.e-002	4.2394e-006
14297	14.175	2.4	0.	6.1663e-003
14298	14.076	2.3	0.	5.6953e-003
14299	14.076	2.4	5.e-002	3.668e-006
14300	14.373	2.4	0.	6.3433e-003
14301	14.274	2.3	0.	5.8877e-003
14302	14.274	2.4	5.e-002	4.2864e-006
14303	14.572	2.4	0.	6.5235e-003
14304	14.473	2.3	0.	6.056e-003
14305	14.473	2.4	5.e-002	4.4988e-006
14306	14.77	2.4	0.	6.7165e-003
14307	14.671	2.3	0.	6.2527e-003
14308	14.671	2.4	5.e-002	3.3972e-006
14309	14.969	2.4	0.	6.9095e-003
14310	14.87	2.3	0.	6.445e-003
14311	14.87	2.4	5.e-002	3.6657e-006
14312	15.167	2.4	0.	7.1033e-003
14313	15.068	2.3	0.	6.6376e-003
14314	15.068	2.4	5.e-002	5.1017e-006
14315	15.366	2.4	0.	7.3117e-003
14316	15.267	2.3	0.	6.8298e-003
14317	15.267	2.4	5.e-002	4.4051e-006
14318	15.564	2.4	0.	7.5368e-003
14319	15.465	2.3	0.	7.0516e-003
14320	15.465	2.4	5.e-002	4.7939e-006
14321	15.763	2.4	0.	7.7665e-003
14322	15.664	2.3	0.	7.2759e-003
14323	15.664	2.4	5.e-002	5.4155e-006
14324	15.961	2.4	0.	8.0016e-003
14325	15.862	2.3	0.	7.5054e-003
14326	15.862	2.4	5.e-002	6.1629e-006
14327	16.16	2.4	0.	8.257e-003
14328	16.061	2.3	0.	7.7387e-003
14329	16.061	2.4	5.e-002	6.9347e-006
14330	16.358	2.4	0.	8.5273e-003
14331	16.259	2.3	0.	8.0085e-003
14332	16.259	2.4	5.e-002	8.6492e-006
14333	16.557	2.4	0.	8.7948e-003
14334	16.458	2.3	0.	8.2722e-003
14335	16.458	2.4	5.e-002	7.8307e-006
14336	16.755	2.4	0.	9.0818e-003
14337	16.656	2.3	0.	8.5353e-003
14338	16.656	2.4	5.e-002	6.2123e-006
14339	16.954	2.4	0.	9.3931e-003
14340	16.855	2.3	0.	8.8357e-003
14341	16.855	2.4	5.e-002	7.1663e-006
14342	17.152	2.4	0.	9.7196e-003
14343	17.053	2.3	0.	9.1489e-003
14344	17.053	2.4	5.e-002	5.6511e-006
14345	17.351	2.4	0.	1.0064e-002
14346	17.252	2.3	0.	9.4791e-003
14347	17.252	2.4	5.e-002	7.3287e-006
14348	17.549	2.4	0.	1.0438e-002
14349	17.45	2.3	0.	9.8266e-003
14350	17.45	2.4	5.e-002	6.4012e-006
14351	17.748	2.4	0.	1.0843e-002
14352	17.648	2.3	0.	1.0215e-002
14353	17.648	2.4	5.e-002	5.7502e-006
14354	17.946	2.4	0.	1.1272e-002
14355	17.847	2.3	0.	1.0624e-002
14356	17.847	2.4	5.e-002	5.5942e-006
14357	18.145	2.4	0.	1.1729e-002
14358	18.045	2.3	0.	1.106e-002
14359	18.045	2.4	5.e-002	5.6717e-006
14360	18.343	2.4	0.	1.2228e-002
14361	18.244	2.3	0.	1.1525e-002
14362	18.244	2.4	5.e-002	5.21e-006
14363	18.542	2.4	0.	1.2766e-002
14364	18.442	2.3	0.	1.2042e-002
14365	18.442	2.4	5.e-002	6.4311e-006
14366	18.74	2.4	0.	1.3336e-002
14367	18.641	2.3	0.	1.2587e-002
14368	18.641	2.4	5.e-002	5.762e-006
14369	18.939	2.4	0.	1.3957e-002
14370	18.839	2.3	0.	1.3167e-002
14371	18.839	2.4	5.e-002	8.7012e-006
14372	19.137	2.4	0.	1.4638e-002
14373	19.038	2.3	0.	1.3812e-002
14374	19.038	2.4	5.e-002	1.0892e-005
14375	19.336	2.4	0.	1.5378e-002
14376	19.236	2.3	0.	1.4512e-002
14377	19.236	2.4	5.e-002	1.2106e-005
14378	19.534	2.4	0.	1.6186e-002
14379	19.435	2.3	0.	1.5273e-002
14380	19.435	2.4	5.e-002	9.8301e-006
14381	19.733	2.4	0.	1.7082e-002
14382	19.633	2.3	0.	1.6109e-002
14383	19.633	2.4	5.e-002	1.132e-005
14384	19.931	2.4	0.	1.8072e-002
14385	19.832	2.3	0.	1.7042e-002
14386	19.832	2.4	5.e-002	1.462e-005
14387	20.13	2.4	0.	1.9168e-002
14388	20.03	2.3	0.	1.807e-002
14389	20.03	2.4	5.e-002	1.1354e-005
14390	20.328	2.4	0.	2.039e-002
14391	20.229	2.3	0.	1.9213e-002
14392	20.229	2.4	5.e-002	1.3316e-005
14393	20.527	2.4	0.	2.1763e-002
14394	20.427	2.3	0.	2.049e-002
14395	20.427	2.4	5.e-002	1.5715e-005
14396	20.725	2.4	0.	2.3314e-002
14397	20.626	2.3	0.	2.1937e-002
14398	20.626	2.4	5.e-002	1.7195e-005
14399	20.923	2.4	0.	2.5069e-002
14400	20.824	2.3	0.	2.3569e-002
14401	20.824	2.4	5.e-002	1.6184e-005
14402	21.122	2.4	0.	2.7083e-002
14403	21.023	2.3	0.	2.5426e-002
14404	21.023	2.4	5.e-002	1.4789e-005
14405	21.32	2.4	0.	2.9419e-002
14406	21.221	2.3	0.	2.7578e-002
14407	21.221	2.4	5.e-002	1.4935e-005
14408	21.519	2.4	0.	3.215e-002
14409	21.42	2.3	0.	3.0079e-002
14410	21.42	2.4	5.e-002	1.0959e-005
14411	21.717	2.4	0.	3.5383e-002
14412	21.618	2.3	0.	3.3026e-002
14413	21.618	2.4	5.e-002	1.201e-005
14414	21.916	2.4	0.	3.9273e-002
14415	21.817	2.3	0.	3.6539e-002
14416	21.817	2.4	5.e-002	9.3174e-006
14417	22.114	2.4	0.	4.4033e-002
14418	22.015	2.3	0.	4.0812e-002
14419	22.015	2.4	5.e-002	1.3991e-005
14420	22.313	2.4	0.	4.9992e-002
14421	22.214	2.3	0.	4.6081e-002
14422	22.214	2.4	5.e-002	1.2069e-005
14423	22.511	2.4	0.	5.7569e-002
14424	22.412	2.3	0.	5.2785e-002
14425	22.412	2.4	5.e-002	1.0031e-005
14426	22.71	2.4	0.	6.7838e-002
14427	22.611	2.3	0.	6.1351e-002
14428	22.611	2.4	5.e-002	1.1175e-005
14429	22.908	2.4	0.	8.1061e-002
14430	22.809	2.3	0.	7.3557e-002
14431	22.809	2.4	5.e-002	1.1872e-005
14432	23.107	2.4	0.	0.10423
14433	23.008	2.3	0.	8.8289e-002
14434	23.008	2.4	5.e-002	1.2437e-005
14435	23.305	2.4	0.	0.12536
14436	23.206	2.3	0.	0.12101
14437	23.206	2.4	5.e-002	1.0165e-005
14438	23.504	2.4	0.	0.22949
14439	23.405	2.3	0.	0.13357
14440	23.405	2.4	5.e-002	1.185e-005
14441	23.702	2.4	0.	0.1959
14442	23.603	2.3	0.	0.33949
14443	23.603	2.4	5.e-002	7.7687e-006
14444	23.802	2.3	0.	0.13335
14445	23.802	2.4	5.e-002	1.153e-005
14446	23.901	2.4	0.	0.29555
14447	2.4644	2.2	0.	32.089
14448	2.3652	2.1	0.	-341.41
14449	2.3652	2.2	5.e-002	-1.8371e-004
14450	2.6629	2.2	0.	8.7132
14451	2.5636	2.1	0.	72.1
14452	2.5636	2.2	5.e-002	-1.2128e-004
14453	2.8614	2.2	0.	-204.22
14454	2.7621	2.1	0.	-33.812
14455	2.7621	2.2	5.e-002	-1.6628e-004
14456	3.0598	2.2	0.	-345.98
14457	2.9606	2.1	0.	-175.02
14458	2.9606	2.2	5.e-002	-1.2693e-004
14459	3.2583	2.2	0.	-424.56
14460	3.1591	2.1	0.	-306.28
14461	3.1591	2.2	5.e-002	-1.527e-004
14462	3.4568	2.2	0.	-460.57
14463	3.3576	2.1	0.	-375.39
14464	3.3576	2.2	5.e-002	-1.3366e-004
14465	3.6553	2.2	0.	-470.32
14466	3.5561	2.1	0.	-407.21
14467	3.5561	2.2	5.e-002	-1.0853e-004
14468	3.8538	2.2	0.	-463.52
14469	3.7545	2.1	0.	-415.64
14470	3.7545	2.2	5.e-002	-8.6077e-005
14471	4.0523	2.2	0.	-446.7
14472	3.953	2.1	0.	-409.8
14473	3.953	2.2	5.e-002	-9.2326e-005
14474	4.2508	2.2	0.	-424.05
14475	4.1515	2.1	0.	-395.38
14476	4.1515	2.2	5.e-002	-9.2438e-005
14477	4.4492	2.2	0.	-398.36
14478	4.35	2.1	0.	-376.01
14479	4.35	2.2	5.e-002	-6.7806e-005
14480	4.6477	2.2	0.	-371.4
14481	4.5485	2.1	0.	-354.02
14482	4.5485	2.2	5.e-002	-6.5752e-005
14483	4.8462	2.2	0.	-344.34
14484	4.747	2.1	0.	-330.9
14485	4.747	2.2	5.e-002	-1.2627e-005
14486	5.0447	2.2	0.	-317.9
14487	4.9455	2.1	0.	-307.63
14488	4.9455	2.2	5.e-002	-2.8918e-005
14489	5.2432	2.2	0.	-292.55
14490	5.1439	2.1	0.	-284.81
14491	5.1439	2.2	5.e-002	-3.7369e-005
14492	5.4417	2.2	0.	-268.53
14493	5.3424	2.1	0.	-262.83
14494	5.3424	2.2	5.e-002	-1.9083e-005
14495	5.6402	2.2	0.	-245.98
14496	5.5409	2.1	0.	-241.91
14497	5.5409	2.2	5.e-002	-8.9228e-006
14498	5.8386	2.2	0.	-224.95
14499	5.7394	2.1	0.	-222.17
14500	5.7394	2.2	5.e-002	-1.0057e-005
14501	6.0371	2.2	0.	-205.44
14502	5.9379	2.1	0.	-203.67
14503	5.9379	2.2	5.e-002	-1.2521e-005
14504	6.2356	2.2	0.	-187.39
14505	6.1364	2.1	0.	-186.41
14506	6.1364	2.2	5.e-002	-8.8449e-006
14507	6.4341	2.2	0.	-170.75
14508	6.3348	2.1	0.	-170.38
14509	6.3348	2.2	5.e-002	-1.2199e-005
14510	6.6326	2.2	0.	-155.43
14511	6.5333	2.1	0.	-155.53
14512	6.5333	2.2	5.e-002	-9.2621e-006
14513	6.8311	2.2	0.	-141.36
14514	6.7318	2.1	0.	-141.8
14515	6.7318	2.2	5.e-002	-8.4538e-006
14516	7.0295	2.2	0.	-128.44
14517	6.9303	2.1	0.	-129.14
14518	6.9303	2.2	5.e-002	-3.9169e-006
14519	7.228	2.2	0.	-116.6
14520	7.1288	2.1	0.	-117.46
14521	7.1288	2.2	5.e-002	-4.4765e-006
14522	7.4265	2.2	0.	-105.73
14523	7.3273	2.1	0.	-106.72
14524	7.3273	2.2	5.e-002	-5.4116e-006
14525	7.625	2.2	0.	-95.782
14526	7.5258	2.1	0.	-96.841
14527	7.5258	2.2	5.e-002	-4.8738e-006
14528	7.8235	2.2	0.	-86.664
14529	7.7242	2.1	0.	-87.76
14530	7.7242	2.2	5.e-002	-3.2599e-006
14531	8.022	2.2	0.	-78.311
14532	7.9227	2.1	0.	-79.417
14533	7.9227	2.2	5.e-002	-3.4143e-006
14534	8.2205	2.2	0.	-70.658
14535	8.1212	2.1	0.	-71.756
14536	8.1212	2.2	5.e-002	-2.8843e-006
14537	8.4189	2.2	0.	-63.648
14538	8.3197	2.1	0.	-64.721
14539	8.3197	2.2	5.e-002	-2.7425e-006
14540	8.6174	2.2	0.	-57.224
14541	8.5182	2.1	0.	-58.263
14542	8.5182	2.2	5.e-002	-2.4109e-006
14543	8.8159	2.2	0.	-51.338
14544	8.7167	2.1	0.	-52.334
14545	8.7167	2.2	5.e-002	-1.1299e-006
14546	9.0144	2.2	0.	-45.942
14547	8.9152	2.1	0.	-46.892
14548	8.9152	2.2	5.e-002	-1.4043e-006
14549	9.2129	2.2	0.	-40.995
14550	9.1136	2.1	0.	-41.897
14551	9.1136	2.2	5.e-002	-1.2083e-006
14552	9.4114	2.2	0.	-36.458
14553	9.3121	2.1	0.	-37.31
14554	9.3121	2.2	5.e-002	-9.2607e-007
14555	9.6098	2.2	0.	-32.297
14556	9.5106	2.1	0.	-33.099
14557	9.5106	2.2	5.e-002	1.9276e-007
14558	9.8083	2.2	0.	-28.478
14559	9.7091	2.1	0.	-29.231
14560	9.7091	2.2	5.e-002	1.7063e-008
14561	10.007	2.2	0.	-24.972
14562	9.9076	2.1	0.	-25.678
14563	9.9076	2.2	5.e-002	7.0162e-007
14564	10.205	2.2	0.	-21.752
14565	10.106	2.1	0.	-22.414
14566	10.106	2.2	5.e-002	-1.3517e-007
14567	10.404	2.2	0.	-18.794
14568	10.305	2.1	0.	-19.413
14569	10.305	2.2	5.e-002	6.9248e-007
14570	10.602	2.2	0.	-16.075
14571	10.503	2.1	0.	-16.653
14572	10.503	2.2	5.e-002	1.0187e-006
14573	10.801	2.2	0.	-13.574
14574	10.702	2.1	0.	-14.114
14575	10.702	2.2	5.e-002	4.863e-007
14576	10.999	2.2	0.	-11.271
14577	10.9	2.1	0.	-11.777
14578	10.9	2.2	5.e-002	5.882e-007
14579	11.198	2.2	0.	-9.1508
14580	11.098	2.1	0.	-9.6241
14581	11.098	2.2	5.e-002	1.1179e-006
14582	11.396	2.2	0.	-7.1957
14583	11.297	2.1	0.	-7.6393
14584	11.297	2.2	5.e-002	1.3084e-006
14585	11.595	2.2	0.	-5.3915
14586	11.495	2.1	0.	-5.8077
14587	11.495	2.2	5.e-002	8.8325e-007
14588	11.793	2.2	0.	-3.7247
14589	11.694	2.1	0.	-4.1161
14590	11.694	2.2	5.e-002	1.4412e-006
14591	11.992	2.2	0.	-2.1832
14592	11.892	2.1	0.	-2.552
14593	11.892	2.2	5.e-002	2.3488e-006
14594	12.19	2.2	0.	-0.75939
14595	12.091	2.1	0.	-1.1066
14596	12.091	2.2	5.e-002	2.1689e-006
14597	12.389	2.2	0.	-6.945e-003
14598	12.289	2.1	0.	-2.6939e-002
14599	12.289	2.2	5.e-002	2.7923e-006
14600	12.587	2.2	0.	1.3143e-003
14601	12.488	2.1	0.	-8.7273e-004
14602	12.488	2.2	5.e-002	3.0196e-006
14603	12.786	2.2	0.	2.9175e-003
14604	12.686	2.1	0.	1.7469e-003
14605	12.686	2.2	5.e-002	4.6147e-006
14606	12.984	2.2	0.	3.6421e-003
14607	12.885	2.1	0.	2.7775e-003
14608	12.885	2.2	5.e-002	3.8608e-006
14609	13.183	2.2	0.	4.0966e-003
14610	13.083	2.1	0.	3.3527e-003
14611	13.083	2.2	5.e-002	3.9749e-006
14612	13.381	2.2	0.	4.4393e-003
14613	13.282	2.1	0.	3.7704e-003
14614	13.282	2.2	5.e-002	3.5028e-006
14615	13.58	2.2	0.	4.7109e-003
14616	13.48	2.1	0.	4.0884e-003
14617	13.48	2.2	5.e-002	4.4167e-006
14618	13.778	2.2	0.	4.9402e-003
14619	13.679	2.1	0.	4.3463e-003
14620	13.679	2.2	5.e-002	3.6835e-006
14621	13.977	2.2	0.	5.1606e-003
14622	13.877	2.1	0.	4.5682e-003
14623	13.877	2.2	5.e-002	4.1135e-006
14624	14.175	2.2	0.	5.3715e-003
14625	14.076	2.1	0.	4.8e-003
14626	14.076	2.2	5.e-002	3.795e-006
14627	14.373	2.2	0.	5.5535e-003
14628	14.274	2.1	0.	4.9977e-003
14629	14.274	2.2	5.e-002	4.475e-006
14630	14.572	2.2	0.	5.7368e-003
14631	14.473	2.1	0.	5.1679e-003
14632	14.473	2.2	5.e-002	4.7403e-006
14633	14.77	2.2	0.	5.9315e-003
14634	14.671	2.1	0.	5.3644e-003
14635	14.671	2.2	5.e-002	3.2461e-006
14636	14.969	2.2	0.	6.1221e-003
14637	14.87	2.1	0.	5.554e-003
14638	14.87	2.2	5.e-002	3.8752e-006
14639	15.167	2.2	0.	6.3121e-003
14640	15.068	2.1	0.	5.7413e-003
14641	15.068	2.2	5.e-002	5.0861e-006
14642	15.366	2.2	0.	6.5165e-003
14643	15.267	2.1	0.	5.9276e-003
14644	15.267	2.2	5.e-002	4.6263e-006
14645	15.564	2.2	0.	6.7364e-003
14646	15.465	2.1	0.	6.1425e-003
14647	15.465	2.2	5.e-002	5.0152e-006
14648	15.763	2.2	0.	6.9592e-003
14649	15.664	2.1	0.	6.3584e-003
14650	15.664	2.2	5.e-002	5.8988e-006
14651	15.961	2.2	0.	7.1856e-003
14652	15.862	2.1	0.	6.5782e-003
14653	15.862	2.2	5.e-002	6.4186e-006
14654	16.16	2.2	0.	7.432e-003
14655	16.061	2.1	0.	6.8018e-003
14656	16.061	2.2	5.e-002	6.9504e-006
14657	16.358	2.2	0.	7.6938e-003
14658	16.259	2.1	0.	7.0594e-003
14659	16.259	2.2	5.e-002	8.5621e-006
14660	16.557	2.2	0.	7.9518e-003
14661	16.458	2.1	0.	7.3118e-003
14662	16.458	2.2	5.e-002	7.5156e-006
14663	16.755	2.2	0.	8.2269e-003
14664	16.656	2.1	0.	7.5619e-003
14665	16.656	2.2	5.e-002	6.6275e-006
14666	16.954	2.2	0.	8.5276e-003
14667	16.855	2.1	0.	7.8478e-003
14668	16.855	2.2	5.e-002	6.8628e-006
14669	17.152	2.2	0.	8.8428e-003
14670	17.053	2.1	0.	8.1482e-003
14671	17.053	2.2	5.e-002	6.0612e-006
14672	17.351	2.2	0.	9.1741e-003
14673	17.252	2.1	0.	8.4619e-003
14674	17.252	2.2	5.e-002	7.0489e-006
14675	17.549	2.2	0.	9.5341e-003
14676	17.45	2.1	0.	8.794e-003
14677	17.45	2.2	5.e-002	6.8609e-006
14678	17.748	2.2	0.	9.9243e-003
14679	17.648	2.1	0.	9.1649e-003
14680	17.648	2.2	5.e-002	5.9729e-006
14681	17.946	2.2	0.	1.0338e-002
14682	17.847	2.1	0.	9.5558e-003
14683	17.847	2.2	5.e-002	6.3187e-006
14684	18.145	2.2	0.	1.078e-002
14685	18.045	2.1	0.	9.9729e-003
14686	18.045	2.2	5.e-002	6.1686e-006
14687	18.343	2.2	0.	1.1261e-002
14688	18.244	2.1	0.	1.0418e-002
14689	18.244	2.2	5.e-002	5.698e-006
14690	18.542	2.2	0.	1.1782e-002
14691	18.442	2.1	0.	1.0914e-002
14692	18.442	2.2	5.e-002	7.3743e-006
14693	18.74	2.2	0.	1.2333e-002
14694	18.641	2.1	0.	1.1436e-002
14695	18.641	2.2	5.e-002	6.2799e-006
14696	18.939	2.2	0.	1.2934e-002
14697	18.839	2.1	0.	1.1992e-002
14698	18.839	2.2	5.e-002	8.9768e-006
14699	19.137	2.2	0.	1.3595e-002
14700	19.038	2.1	0.	1.2613e-002
14701	19.038	2.2	5.e-002	1.1888e-005
14702	19.336	2.2	0.	1.4312e-002
14703	19.236	2.1	0.	1.3285e-002
14704	19.236	2.2	5.e-002	1.2201e-005
14705	19.534	2.2	0.	1.5095e-002
14706	19.435	2.1	0.	1.4019e-002
14707	19.435	2.2	5.e-002	1.0133e-005
14708	19.733	2.2	0.	1.5964e-002
14709	19.633	2.1	0.	1.4823e-002
14710	19.633	2.2	5.e-002	1.214e-005
14711	19.931	2.2	0.	1.6928e-002
14712	19.832	2.1	0.	1.5724e-002
14713	19.832	2.2	5.e-002	1.5024e-005
14714	20.13	2.2	0.	1.7997e-002
14715	20.03	2.1	0.	1.6719e-002
14716	20.03	2.2	5.e-002	1.2214e-005
14717	20.328	2.2	0.	1.9188e-002
14718	20.229	2.1	0.	1.7825e-002
14719	20.229	2.2	5.e-002	1.3247e-005
14720	20.527	2.2	0.	2.0529e-002
14721	20.427	2.1	0.	1.9064e-002
14722	20.427	2.2	5.e-002	1.5156e-005
14723	20.725	2.2	0.	2.2045e-002
14724	20.626	2.1	0.	2.047e-002
14725	20.626	2.2	5.e-002	1.7072e-005
14726	20.923	2.2	0.	2.3766e-002
14727	20.824	2.1	0.	2.2059e-002
14728	20.824	2.2	5.e-002	1.7076e-005
14729	21.122	2.2	0.	2.5743e-002
14730	21.023	2.1	0.	2.3872e-002
14731	21.023	2.2	5.e-002	1.4222e-005
14732	21.32	2.2	0.	2.8038e-002
14733	21.221	2.1	0.	2.5976e-002
14734	21.221	2.2	5.e-002	1.7311e-005
14735	21.519	2.2	0.	3.0726e-002
14736	21.42	2.1	0.	2.8425e-002
14737	21.42	2.2	5.e-002	1.2302e-005
14738	21.717	2.2	0.	3.3915e-002
14739	21.618	2.1	0.	3.1316e-002
14740	21.618	2.2	5.e-002	1.1453e-005
14741	21.916	2.2	0.	3.7757e-002
14742	21.817	2.1	0.	3.4775e-002
14743	21.817	2.2	5.e-002	1.3613e-005
14744	22.114	2.2	0.	4.2461e-002
14745	22.015	2.1	0.	3.8983e-002
14746	22.015	2.2	5.e-002	1.3528e-005
14747	22.313	2.2	0.	4.8357e-002
14748	22.214	2.1	0.	4.4182e-002
14749	22.214	2.2	5.e-002	1.344e-005
14750	22.511	2.2	0.	5.586e-002
14751	22.412	2.1	0.	5.0801e-002
14752	22.412	2.2	5.e-002	1.232e-005
14753	22.71	2.2	0.	6.6039e-002
14754	22.611	2.1	0.	5.927e-002
14755	22.611	2.2	5.e-002	1.3591e-005
14756	22.908	2.2	0.	7.9146e-002
14757	22.809	2.1	0.	7.1351e-002
14758	22.809	2.2	5.e-002	1.4193e-005
14759	23.107	2.2	0.	0.10215
14760	23.008	2.1	0.	8.5924e-002
14761	23.008	2.2	5.e-002	1.459e-005
14762	23.305	2.2	0.	0.12306
14763	23.206	2.1	0.	0.1184
14764	23.206	2.2	5.e-002	8.4202e-006
14765	23.504	2.2	0.	0.22662
14766	23.405	2.1	0.	0.13065
14767	23.405	2.2	5.e-002	1.004e-005
14768	23.702	2.2	0.	0.19158
14769	23.603	2.1	0.	0.33541
14770	23.603	2.2	5.e-002	9.6317e-006
14771	23.802	2.1	0.	0.12586
14772	23.802	2.2	5.e-002	1.5298e-005
14773	23.901	2.2	0.	0.29421
14774	2.4644	2.	0.	-358.99
14775	2.3652	1.9	0.	-506.09
14776	2.3652	2.	5.e-002	-1.0055e-003
14777	2.2659	2.	0.	-626.97
14778	2.6629	2.	0.	35.731
14779	2.5636	1.9	0.	56.598
14780	2.5636	2.	5.e-002	-2.2801e-004
14781	2.8614	2.	0.	-26.884
14782	2.7621	1.9	0.	-18.912
14783	2.7621	2.	5.e-002	-3.0499e-004
14784	3.0598	2.	0.	-140.87
14785	2.9606	1.9	0.	-16.823
14786	2.9606	2.	5.e-002	-2.4179e-004
14787	3.2583	2.	0.	-259.93
14788	3.1591	1.9	0.	-116.66
14789	3.1591	2.	5.e-002	-1.9599e-004
14790	3.4568	2.	0.	-323.8
14791	3.3576	1.9	0.	-219.2
14792	3.3576	2.	5.e-002	-2.089e-004
14793	3.6553	2.	0.	-353.61
14794	3.5561	1.9	0.	-275.77
14795	3.5561	2.	5.e-002	-1.261e-004
14796	3.8538	2.	0.	-362.54
14797	3.7545	1.9	0.	-302.83
14798	3.7545	2.	5.e-002	-1.0459e-004
14799	4.0523	2.	0.	-358.82
14800	3.953	1.9	0.	-311.96
14801	3.953	2.	5.e-002	-1.0436e-004
14802	4.2508	2.	0.	-347.51
14803	4.1515	1.9	0.	-310.18
14804	4.1515	2.	5.e-002	-1.0769e-004
14805	4.4492	2.	0.	-331.75
14806	4.35	1.9	0.	-301.78
14807	4.35	2.	5.e-002	-1.0533e-004
14808	4.6477	2.	0.	-313.56
14809	4.5485	1.9	0.	-289.43
14810	4.5485	2.	5.e-002	-5.1804e-005
14811	4.8462	2.	0.	-294.21
14812	4.747	1.9	0.	-274.8
14813	4.747	2.	5.e-002	-9.7776e-006
14814	5.0447	2.	0.	-274.55
14815	4.9455	1.9	0.	-258.98
14816	4.9455	2.	5.e-002	-4.4594e-005
14817	5.2432	2.	0.	-255.1
14818	5.1439	1.9	0.	-242.69
14819	5.1439	2.	5.e-002	-5.1211e-005
14820	5.4417	2.	0.	-236.21
14821	5.3424	1.9	0.	-226.39
14822	5.3424	2.	5.e-002	-8.084e-006
14823	5.6402	2.	0.	-218.09
14824	5.5409	1.9	0.	-210.4
14825	5.5409	2.	5.e-002	-1.8433e-005
14826	5.8386	2.	0.	-200.88
14827	5.7394	1.9	0.	-194.92
14828	5.7394	2.	5.e-002	-1.6394e-005
14829	6.0371	2.	0.	-184.64
14830	5.9379	1.9	0.	-180.09
14831	5.9379	2.	5.e-002	-1.3942e-005
14832	6.2356	2.	0.	-169.4
14833	6.1364	1.9	0.	-165.98
14834	6.1364	2.	5.e-002	-1.2593e-005
14835	6.4341	2.	0.	-155.16
14836	6.3348	1.9	0.	-152.65
14837	6.3348	2.	5.e-002	-1.4262e-005
14838	6.6326	2.	0.	-141.9
14839	6.5333	1.9	0.	-140.11
14840	6.5333	2.	5.e-002	-1.273e-005
14841	6.8311	2.	0.	-129.57
14842	6.7318	1.9	0.	-128.36
14843	6.7318	2.	5.e-002	-6.1841e-006
14844	7.0295	2.	0.	-118.15
14845	6.9303	1.9	0.	-117.39
14846	6.9303	2.	5.e-002	-1.077e-005
14847	7.228	2.	0.	-107.59
14848	7.1288	1.9	0.	-107.17
14849	7.1288	2.	5.e-002	-7.0425e-006
14850	7.4265	2.	0.	-97.823
14851	7.3273	1.9	0.	-97.673
14852	7.3273	2.	5.e-002	-7.0993e-006
14853	7.625	2.	0.	-88.813
14854	7.5258	1.9	0.	-88.865
14855	7.5258	2.	5.e-002	-4.6186e-006
14856	7.8235	2.	0.	-80.506
14857	7.7242	1.9	0.	-80.708
14858	7.7242	2.	5.e-002	-3.8835e-006
14859	8.022	2.	0.	-72.854
14860	7.9227	1.9	0.	-73.163
14861	7.9227	2.	5.e-002	-2.4704e-006
14862	8.2205	2.	0.	-65.808
14863	8.1212	1.9	0.	-66.194
14864	8.1212	2.	5.e-002	-2.8532e-006
14865	8.4189	2.	0.	-59.325
14866	8.3197	1.9	0.	-59.761
14867	8.3197	2.	5.e-002	-3.0496e-006
14868	8.6174	2.	0.	-53.36
14869	8.5182	1.9	0.	-53.828
14870	8.5182	2.	5.e-002	-2.3789e-006
14871	8.8159	2.	0.	-47.876
14872	8.7167	1.9	0.	-48.359
14873	8.7167	2.	5.e-002	-1.9467e-006
14874	9.0144	2.	0.	-42.833
14875	8.9152	1.9	0.	-43.321
14876	8.9152	2.	5.e-002	-2.0939e-006
14877	9.2129	2.	0.	-38.196
14878	9.1136	1.9	0.	-38.681
14879	9.1136	2.	5.e-002	-4.2136e-007
14880	9.4114	2.	0.	-33.934
14881	9.3121	1.9	0.	-34.41
14882	9.3121	2.	5.e-002	-7.621e-007
14883	9.6098	2.	0.	-30.016
14884	9.5106	1.9	0.	-30.478
14885	9.5106	2.	5.e-002	-4.8921e-007
14886	9.8083	2.	0.	-26.414
14887	9.7091	1.9	0.	-26.859
14888	9.7091	2.	5.e-002	1.5658e-007
14889	10.007	2.	0.	-23.101
14890	9.9076	1.9	0.	-23.528
14891	9.9076	2.	5.e-002	-1.9628e-007
14892	10.205	2.	0.	-20.054
14893	10.106	1.9	0.	-20.461
14894	10.106	2.	5.e-002	2.0731e-007
14895	10.404	2.	0.	-17.251
14896	10.305	1.9	0.	-17.639
14897	10.305	2.	5.e-002	8.0013e-007
14898	10.602	2.	0.	-14.671
14899	10.503	1.9	0.	-15.039
14900	10.503	2.	5.e-002	4.1708e-007
14901	10.801	2.	0.	-12.296
14902	10.702	1.9	0.	-12.644
14903	10.702	2.	5.e-002	3.9591e-007
14904	10.999	2.	0.	-10.107
14905	10.9	1.9	0.	-10.437
14906	10.9	2.	5.e-002	4.9674e-007
14907	11.198	2.	0.	-8.0888
14908	11.098	1.9	0.	-8.4021
14909	11.098	2.	5.e-002	1.0599e-006
14910	11.396	2.	0.	-6.2267
14911	11.297	1.9	0.	-6.5241
14912	11.297	2.	5.e-002	1.1306e-006
14913	11.595	2.	0.	-4.5071
14914	11.495	1.9	0.	-4.7897
14915	11.495	2.	5.e-002	8.4052e-007
14916	11.793	2.	0.	-2.9176
14917	11.694	1.9	0.	-3.1868
14918	11.694	2.	5.e-002	1.404e-006
14919	11.992	2.	0.	-1.4481
14920	11.892	1.9	0.	-1.7049
14921	11.892	2.	5.e-002	2.3087e-006
14922	12.19	2.	0.	-0.14459
14923	12.091	1.9	0.	-0.35479
14924	12.091	2.	5.e-002	2.1109e-006
14925	12.389	2.	0.	-4.0407e-003
14926	12.289	1.9	0.	-8.2658e-003
14927	12.289	2.	5.e-002	2.7828e-006
14928	12.587	2.	0.	3.3286e-004
14929	12.488	1.9	0.	-1.2757e-003
14930	12.488	2.	5.e-002	2.9288e-006
14931	12.786	2.	0.	1.792e-003
14932	12.686	1.9	0.	7.0879e-004
14933	12.686	2.	5.e-002	4.5464e-006
14934	12.984	2.	0.	2.5463e-003
14935	12.885	1.9	0.	1.67e-003
14936	12.885	2.	5.e-002	4.2617e-006
14937	13.183	2.	0.	3.0393e-003
14938	13.083	1.9	0.	2.2495e-003
14939	13.083	2.	5.e-002	4.2517e-006
14940	13.381	2.	0.	3.4112e-003
14941	13.282	1.9	0.	2.6816e-003
14942	13.282	2.	5.e-002	3.8555e-006
14943	13.58	2.	0.	3.704e-003
14944	13.48	1.9	0.	3.0104e-003
14945	13.48	2.	5.e-002	4.3966e-006
14946	13.778	2.	0.	3.9472e-003
14947	13.679	1.9	0.	3.2779e-003
14948	13.679	2.	5.e-002	3.8774e-006
14949	13.977	2.	0.	4.1755e-003
14950	13.877	1.9	0.	3.5031e-003
14951	13.877	2.	5.e-002	4.1373e-006
14952	14.175	2.	0.	4.3904e-003
14953	14.076	1.9	0.	3.7351e-003
14954	14.076	2.	5.e-002	4.0277e-006
14955	14.373	2.	0.	4.5734e-003
14956	14.274	1.9	0.	3.9303e-003
14957	14.274	2.	5.e-002	4.5281e-006
14958	14.572	2.	0.	4.7544e-003
14959	14.473	1.9	0.	4.096e-003
14960	14.473	2.	5.e-002	4.6388e-006
14961	14.77	2.	0.	4.9437e-003
14962	14.671	1.9	0.	4.2839e-003
14963	14.671	2.	5.e-002	3.6191e-006
14964	14.969	2.	0.	5.128e-003
14965	14.87	1.9	0.	4.466e-003
14966	14.87	2.	5.e-002	4.3136e-006
14967	15.167	2.	0.	5.3099e-003
14968	15.068	1.9	0.	4.643e-003
14969	15.068	2.	5.e-002	5.0995e-006
14970	15.366	2.	0.	5.5049e-003
14971	15.267	1.9	0.	4.8177e-003
14972	15.267	2.	5.e-002	4.7206e-006
14973	15.564	2.	0.	5.7142e-003
14974	15.465	1.9	0.	5.019e-003
14975	15.465	2.	5.e-002	5.3439e-006
14976	15.763	2.	0.	5.9255e-003
14977	15.664	1.9	0.	5.2212e-003
14978	15.664	2.	5.e-002	5.8992e-006
14979	15.961	2.	0.	6.1407e-003
14980	15.862	1.9	0.	5.426e-003
14981	15.862	2.	5.e-002	6.1577e-006
14982	16.16	2.	0.	6.3737e-003
14983	16.061	1.9	0.	5.6342e-003
14984	16.061	2.	5.e-002	7.3295e-006
14985	16.358	2.	0.	6.6202e-003
14986	16.259	1.9	0.	5.8738e-003
14987	16.259	2.	5.e-002	8.702e-006
14988	16.557	2.	0.	6.863e-003
14989	16.458	1.9	0.	6.1088e-003
14990	16.458	2.	5.e-002	8.526e-006
14991	16.755	2.	0.	7.122e-003
14992	16.656	1.9	0.	6.3388e-003
14993	16.656	2.	5.e-002	6.5375e-006
14994	16.954	2.	0.	7.4056e-003
14995	16.855	1.9	0.	6.6057e-003
14996	16.855	2.	5.e-002	7.1418e-006
14997	17.152	2.	0.	7.7023e-003
14998	17.053	1.9	0.	6.8838e-003
14999	17.053	2.	5.e-002	6.6993e-006
15000	17.351	2.	0.	8.0146e-003
15001	17.252	1.9	0.	7.1749e-003
15002	17.252	2.	5.e-002	7.9184e-006
15003	17.549	2.	0.	8.3553e-003
15004	17.45	1.9	0.	7.4828e-003
15005	17.45	2.	5.e-002	7.2208e-006
15006	17.748	2.	0.	8.7244e-003
15007	17.648	1.9	0.	7.8306e-003
15008	17.648	2.	5.e-002	6.8558e-006
15009	17.946	2.	0.	9.1156e-003
15010	17.847	1.9	0.	8.1948e-003
15011	17.847	2.	5.e-002	6.5347e-006
15012	18.145	2.	0.	9.5339e-003
15013	18.045	1.9	0.	8.5842e-003
15014	18.045	2.	5.e-002	7.0976e-006
15015	18.343	2.	0.	9.9904e-003
15016	18.244	1.9	0.	9.0009e-003
15017	18.244	2.	5.e-002	6.6379e-006
15018	18.542	2.	0.	1.0484e-002
15019	18.442	1.9	0.	9.4645e-003
15020	18.442	2.	5.e-002	7.6206e-006
15021	18.74	2.	0.	1.1008e-002
15022	18.641	1.9	0.	9.955e-003
15023	18.641	2.	5.e-002	6.9821e-006
15024	18.939	2.	0.	1.1579e-002
15025	18.839	1.9	0.	1.0476e-002
15026	18.839	2.	5.e-002	9.9667e-006
15027	19.137	2.	0.	1.2207e-002
15028	19.038	1.9	0.	1.106e-002
15029	19.038	2.	5.e-002	1.2427e-005
15030	19.336	2.	0.	1.2891e-002
15031	19.236	1.9	0.	1.1692e-002
15032	19.236	2.	5.e-002	1.3401e-005
15033	19.534	2.	0.	1.3641e-002
15034	19.435	1.9	0.	1.2386e-002
15035	19.435	2.	5.e-002	1.1376e-005
15036	19.733	2.	0.	1.4472e-002
15037	19.633	1.9	0.	1.3147e-002
15038	19.633	2.	5.e-002	1.1895e-005
15039	19.931	2.	0.	1.5396e-002
15040	19.832	1.9	0.	1.4002e-002
15041	19.832	2.	5.e-002	1.5311e-005
15042	20.13	2.	0.	1.6421e-002
15043	20.03	1.9	0.	1.4946e-002
15044	20.03	2.	5.e-002	1.299e-005
15045	20.328	2.	0.	1.7566e-002
15046	20.229	1.9	0.	1.5999e-002
15047	20.229	2.	5.e-002	1.3586e-005
15048	20.527	2.	0.	1.8859e-002
15049	20.427	1.9	0.	1.7182e-002
15050	20.427	2.	5.e-002	1.6428e-005
15051	20.725	2.	0.	2.0325e-002
15052	20.626	1.9	0.	1.8528e-002
15053	20.626	2.	5.e-002	1.8834e-005
15054	20.923	2.	0.	2.1992e-002
15055	20.824	1.9	0.	2.0054e-002
15056	20.824	2.	5.e-002	1.7407e-005
15057	21.122	2.	0.	2.3913e-002
15058	21.023	1.9	0.	2.1799e-002
15059	21.023	2.	5.e-002	1.6474e-005
15060	21.32	2.	0.	2.6148e-002
15061	21.221	1.9	0.	2.3832e-002
15062	21.221	2.	5.e-002	1.6673e-005
15063	21.519	2.	0.	2.8771e-002
15064	21.42	1.9	0.	2.6206e-002
15065	21.42	2.	5.e-002	1.4524e-005
15066	21.717	2.	0.	3.1892e-002
15067	21.618	1.9	0.	2.9015e-002
15068	21.618	2.	5.e-002	1.3794e-005
15069	21.916	2.	0.	3.5661e-002
15070	21.817	1.9	0.	3.2388e-002
15071	21.817	2.	5.e-002	1.3961e-005
15072	22.114	2.	0.	4.0285e-002
15073	22.015	1.9	0.	3.6501e-002
15074	22.015	2.	5.e-002	1.5864e-005
15075	22.313	2.	0.	4.609e-002
15076	22.214	1.9	0.	4.1596e-002
15077	22.214	2.	5.e-002	1.4807e-005
15078	22.511	2.	0.	5.3486e-002
15079	22.412	1.9	0.	4.8095e-002
15080	22.412	2.	5.e-002	1.3572e-005
15081	22.71	2.	0.	6.3534e-002
15082	22.611	1.9	0.	5.6425e-002
15083	22.611	2.	5.e-002	1.4843e-005
15084	22.908	2.	0.	7.6479e-002
15085	22.809	1.9	0.	6.8331e-002
15086	22.809	2.	5.e-002	1.4479e-005
15087	23.107	2.	0.	9.9252e-002
15088	23.008	1.9	0.	8.2687e-002
15089	23.008	2.	5.e-002	1.5735e-005
15090	23.305	2.	0.	0.11986
15091	23.206	1.9	0.	0.11482
15092	23.206	2.	5.e-002	1.5027e-005
15093	23.504	2.	0.	0.22264
15094	23.405	1.9	0.	0.12667
15095	23.405	2.	5.e-002	1.5723e-005
15096	23.702	2.	0.	0.18566
15097	23.603	1.9	0.	0.32988
15098	23.603	2.	5.e-002	1.5242e-005
15099	23.802	1.9	0.	0.11596
15100	23.802	2.	5.e-002	1.5271e-005
15101	23.901	2.	0.	0.29232
15102	2.4644	1.8	0.	-92.261
15103	2.3652	1.7	0.	-88.465
15104	2.3652	1.8	5.e-002	-1.2012e-003
15105	2.2659	1.8	0.	-434.27
15106	2.6629	1.8	0.	1.7991
15107	2.5636	1.7	0.	13.376
15108	2.5636	1.8	5.e-002	-1.0075e-003
15109	2.8614	1.8	0.	-9.4507
15110	2.7621	1.7	0.	-13.129
15111	2.7621	1.8	5.e-002	-5.9808e-004
15112	3.0598	1.8	0.	-14.989
15113	2.9606	1.7	0.	-5.7137
15114	2.9606	1.8	5.e-002	-4.6159e-004
15115	3.2583	1.8	0.	-82.838
15116	3.1591	1.7	0.	-14.222
15117	3.1591	1.8	5.e-002	-4.2455e-004
15118	3.4568	1.8	0.	-174.14
15119	3.3576	1.7	0.	-68.947
15120	3.3576	1.8	5.e-002	-2.6237e-004
15121	3.6553	1.8	0.	-226.63
15122	3.5561	1.7	0.	-143.05
15123	3.5561	1.8	5.e-002	-2.2173e-004
15124	3.8538	1.8	0.	-253.16
15125	3.7545	1.7	0.	-187.4
15126	3.7545	1.8	5.e-002	-1.7632e-004
15127	4.0523	1.8	0.	-263.81
15128	3.953	1.7	0.	-211.1
15129	3.953	1.8	5.e-002	-2.1439e-004
15130	4.2508	1.8	0.	-264.7
15131	4.1515	1.7	0.	-221.85
15132	4.1515	1.8	5.e-002	-1.2889e-004
15133	4.4492	1.8	0.	-259.58
15134	4.35	1.7	0.	-224.44
15135	4.35	1.8	5.e-002	-1.2298e-004
15136	4.6477	1.8	0.	-250.72
15137	4.5485	1.7	0.	-221.8
15138	4.5485	1.8	5.e-002	-1.1344e-004
15139	4.8462	1.8	0.	-239.58
15140	4.747	1.7	0.	-215.78
15141	4.747	1.8	5.e-002	-7.6686e-005
15142	5.0447	1.8	0.	-227.13
15143	4.9455	1.7	0.	-207.56
15144	4.9455	1.8	5.e-002	-2.3252e-005
15145	5.2432	1.8	0.	-213.98
15146	5.1439	1.7	0.	-197.96
15147	5.1439	1.8	5.e-002	-4.0826e-005
15148	5.4417	1.8	0.	-200.58
15149	5.3424	1.7	0.	-187.51
15150	5.3424	1.8	5.e-002	-1.7786e-005
15151	5.6402	1.8	0.	-187.22
15152	5.5409	1.7	0.	-176.61
15153	5.5409	1.8	5.e-002	-1.6417e-005
15154	5.8386	1.8	0.	-174.12
15155	5.7394	1.7	0.	-165.55
15156	5.7394	1.8	5.e-002	-1.3266e-005
15157	6.0371	1.8	0.	-161.42
15158	5.9379	1.7	0.	-154.54
15159	5.9379	1.8	5.e-002	-1.26e-005
15160	6.2356	1.8	0.	-149.22
15161	6.1364	1.7	0.	-143.73
15162	6.1364	1.8	5.e-002	-1.9338e-005
15163	6.4341	1.8	0.	-137.6
15164	6.3348	1.7	0.	-133.24
15165	6.3348	1.8	5.e-002	-9.2372e-006
15166	6.6326	1.8	0.	-126.57
15167	6.5333	1.7	0.	-123.14
15168	6.5333	1.8	5.e-002	-7.9637e-006
15169	6.8311	1.8	0.	-116.17
15170	6.7318	1.7	0.	-113.5
15171	6.7318	1.8	5.e-002	-1.0832e-005
15172	7.0295	1.8	0.	-106.4
15173	6.9303	1.7	0.	-104.33
15174	6.9303	1.8	5.e-002	-7.9188e-006
15175	7.228	1.8	0.	-97.251
15176	7.1288	1.7	0.	-95.669
15177	7.1288	1.8	5.e-002	-7.1383e-006
15178	7.4265	1.8	0.	-88.709
15179	7.3273	1.7	0.	-87.516
15180	7.3273	1.8	5.e-002	-3.4088e-006
15181	7.625	1.8	0.	-80.752
15182	7.5258	1.7	0.	-79.869
15183	7.5258	1.8	5.e-002	-5.3749e-006
15184	7.8235	1.8	0.	-73.356
15185	7.7242	1.7	0.	-72.719
15186	7.7242	1.8	5.e-002	-4.7313e-006
15187	8.022	1.8	0.	-66.494
15188	7.9227	1.7	0.	-66.05
15189	7.9227	1.8	5.e-002	-3.0551e-006
15190	8.2205	1.8	0.	-60.136
15191	8.1212	1.7	0.	-59.843
15192	8.1212	1.8	5.e-002	-2.7183e-006
15193	8.4189	1.8	0.	-54.252
15194	8.3197	1.7	0.	-54.077
15195	8.3197	1.8	5.e-002	-2.8486e-006
15196	8.6174	1.8	0.	-48.814
15197	8.5182	1.7	0.	-48.729
15198	8.5182	1.8	5.e-002	-2.3558e-006
15199	8.8159	1.8	0.	-43.791
15200	8.7167	1.7	0.	-43.775
15201	8.7167	1.8	5.e-002	-1.7817e-006
15202	9.0144	1.8	0.	-39.155
15203	8.9152	1.7	0.	-39.191
15204	8.9152	1.8	5.e-002	-1.0285e-006
15205	9.2129	1.8	0.	-34.879
15206	9.1136	1.7	0.	-34.953
15207	9.1136	1.8	5.e-002	-1.03e-006
15208	9.4114	1.8	0.	-30.936
15209	9.3121	1.7	0.	-31.039
15210	9.3121	1.8	5.e-002	-1.3905e-006
15211	9.6098	1.8	0.	-27.303
15212	9.5106	1.7	0.	-27.425
15213	9.5106	1.8	5.e-002	-7.2079e-007
15214	9.8083	1.8	0.	-23.954
15215	9.7091	1.7	0.	-24.091
15216	9.7091	1.8	5.e-002	-1.938e-007
15217	10.007	1.8	0.	-20.868
15218	9.9076	1.7	0.	-21.014
15219	9.9076	1.8	5.e-002	3.4045e-007
15220	10.205	1.8	0.	-18.025
15221	10.106	1.7	0.	-18.176
15222	10.106	1.8	5.e-002	-1.8115e-007
15223	10.404	1.8	0.	-15.405
15224	10.305	1.7	0.	-15.559
15225	10.305	1.8	5.e-002	7.3829e-007
15226	10.602	1.8	0.	-12.99
15227	10.503	1.7	0.	-13.145
15228	10.503	1.8	5.e-002	8.9817e-007
15229	10.801	1.8	0.	-10.763
15230	10.702	1.7	0.	-10.918
15231	10.702	1.8	5.e-002	5.8192e-007
15232	10.999	1.8	0.	-8.7094
15233	10.9	1.7	0.	-8.8623
15234	10.9	1.8	5.e-002	5.3625e-007
15235	11.198	1.8	0.	-6.8134
15236	11.098	1.7	0.	-6.9643
15237	11.098	1.8	5.e-002	9.6674e-007
15238	11.396	1.8	0.	-5.0624
15239	11.297	1.7	0.	-5.2112
15240	11.297	1.8	5.e-002	1.0963e-006
15241	11.595	1.8	0.	-3.444
15242	11.495	1.7	0.	-3.5905
15243	11.495	1.8	5.e-002	7.2907e-007
15244	11.793	1.8	0.	-1.9478
15245	11.694	1.7	0.	-2.0923
15246	11.694	1.8	5.e-002	1.3461e-006
15247	11.992	1.8	0.	-0.57505
15248	11.892	1.7	0.	-0.71515
15249	11.892	1.8	5.e-002	2.3109e-006
15250	12.19	1.8	0.	-1.4395e-002
15251	12.091	1.7	0.	-2.1401e-002
15252	12.091	1.8	5.e-002	2.3062e-006
15253	12.389	1.8	0.	-3.1063e-003
15254	12.289	1.7	0.	-4.9501e-003
15255	12.289	1.8	5.e-002	2.7781e-006
15256	12.587	1.8	0.	-4.5388e-004
15257	12.488	1.7	0.	-1.6274e-003
15258	12.488	1.8	5.e-002	3.1123e-006
15259	12.786	1.8	0.	7.459e-004
15260	12.686	1.7	0.	-1.9637e-004
15261	12.686	1.8	5.e-002	4.6308e-006
15262	12.984	1.8	0.	1.4416e-003
15263	12.885	1.7	0.	6.101e-004
15264	12.885	1.8	5.e-002	4.1656e-006
15265	13.183	1.8	0.	1.9203e-003
15266	13.083	1.7	0.	1.1314e-003
15267	13.083	1.8	5.e-002	4.2319e-006
15268	13.381	1.8	0.	2.288e-003
15269	13.282	1.7	0.	1.5351e-003
15270	13.282	1.8	5.e-002	3.7411e-006
15271	13.58	1.8	0.	2.5786e-003
15272	13.48	1.7	0.	1.8472e-003
15273	13.48	1.8	5.e-002	4.2808e-006
15274	13.778	1.8	0.	2.8192e-003
15275	13.679	1.7	0.	2.0997e-003
15276	13.679	1.8	5.e-002	4.1793e-006
15277	13.977	1.8	0.	3.0418e-003
15278	13.877	1.7	0.	2.3114e-003
15279	13.877	1.8	5.e-002	4.3858e-006
15280	14.175	1.8	0.	3.2493e-003
15281	14.076	1.7	0.	2.5293e-003
15282	14.076	1.8	5.e-002	3.9666e-006
15283	14.373	1.8	0.	3.4233e-003
15284	14.274	1.7	0.	2.7105e-003
15285	14.274	1.8	5.e-002	4.6527e-006
15286	14.572	1.8	0.	3.5927e-003
15287	14.473	1.7	0.	2.8602e-003
15288	14.473	1.8	5.e-002	4.6956e-006
15289	14.77	1.8	0.	3.7704e-003
15290	14.671	1.7	0.	3.0323e-003
15291	14.671	1.8	5.e-002	3.5043e-006
15292	14.969	1.8	0.	3.9425e-003
15293	14.87	1.7	0.	3.1966e-003
15294	14.87	1.8	5.e-002	4.3053e-006
15295	15.167	1.8	0.	4.11e-003
15296	15.068	1.7	0.	3.3554e-003
15297	15.068	1.8	5.e-002	5.2206e-006
15298	15.366	1.8	0.	4.2887e-003
15299	15.267	1.7	0.	3.5106e-003
15300	15.267	1.8	5.e-002	5.0456e-006
15301	15.564	1.8	0.	4.4807e-003
15302	15.465	1.7	0.	3.6914e-003
15303	15.465	1.8	5.e-002	5.6817e-006
15304	15.763	1.8	0.	4.6742e-003
15305	15.664	1.7	0.	3.8713e-003
15306	15.664	1.8	5.e-002	6.0851e-006
15307	15.961	1.8	0.	4.8698e-003
15308	15.862	1.7	0.	4.0536e-003
15309	15.862	1.8	5.e-002	6.9607e-006
15310	16.16	1.8	0.	5.0825e-003
15311	16.061	1.7	0.	4.2378e-003
15312	16.061	1.8	5.e-002	7.4182e-006
15313	16.358	1.8	0.	5.3083e-003
15314	16.259	1.7	0.	4.4525e-003
15315	16.259	1.8	5.e-002	8.7294e-006
15316	16.557	1.8	0.	5.5283e-003
15317	16.458	1.7	0.	4.6617e-003
15318	16.458	1.8	5.e-002	8.3636e-006
15319	16.755	1.8	0.	5.7637e-003
15320	16.656	1.7	0.	4.8637e-003
15321	16.656	1.8	5.e-002	6.7804e-006
15322	16.954	1.8	0.	6.0225e-003
15323	16.855	1.7	0.	5.1025e-003
15324	16.855	1.8	5.e-002	7.8768e-006
15325	17.152	1.8	0.	6.2925e-003
15326	17.053	1.7	0.	5.3497e-003
15327	17.053	1.8	5.e-002	7.0337e-006
15328	17.351	1.8	0.	6.5764e-003
15329	17.252	1.7	0.	5.6092e-003
15330	17.252	1.8	5.e-002	7.5722e-006
15331	17.549	1.8	0.	6.8885e-003
15332	17.45	1.7	0.	5.8846e-003
15333	17.45	1.8	5.e-002	7.4781e-006
15334	17.748	1.8	0.	7.2284e-003
15335	17.648	1.7	0.	6.1952e-003
15336	17.648	1.8	5.e-002	7.2691e-006
15337	17.946	1.8	0.	7.5876e-003
15338	17.847	1.7	0.	6.524e-003
15339	17.847	1.8	5.e-002	7.1664e-006
15340	18.145	1.8	0.	7.9719e-003
15341	18.045	1.7	0.	6.874e-003
15342	18.045	1.8	5.e-002	7.7597e-006
15343	18.343	1.8	0.	8.3918e-003
15344	18.244	1.7	0.	7.2495e-003
15345	18.244	1.8	5.e-002	7.0038e-006
15346	18.542	1.8	0.	8.8481e-003
15347	18.442	1.7	0.	7.669e-003
15348	18.442	1.8	5.e-002	8.526e-006
15349	18.74	1.8	0.	9.3312e-003
15350	18.641	1.7	0.	8.1135e-003
15351	18.641	1.8	5.e-002	7.8211e-006
15352	18.939	1.8	0.	9.86e-003
15353	18.839	1.7	0.	8.5843e-003
15354	18.839	1.8	5.e-002	1.0646e-005
15355	19.137	1.8	0.	1.0443e-002
15356	19.038	1.7	0.	9.117e-003
15357	19.038	1.8	5.e-002	1.3519e-005
15358	19.336	1.8	0.	1.1079e-002
15359	19.236	1.7	0.	9.6944e-003
15360	19.236	1.8	5.e-002	1.4319e-005
15361	19.534	1.8	0.	1.1778e-002
15362	19.435	1.7	0.	1.0328e-002
15363	19.435	1.8	5.e-002	1.1118e-005
15364	19.733	1.8	0.	1.2556e-002
15365	19.633	1.7	0.	1.1028e-002
15366	19.633	1.8	5.e-002	1.3598e-005
15367	19.931	1.8	0.	1.3423e-002
15368	19.832	1.7	0.	1.1816e-002
15369	19.832	1.8	5.e-002	1.6457e-005
15370	20.13	1.8	0.	1.4386e-002
15371	20.03	1.7	0.	1.2689e-002
15372	20.03	1.8	5.e-002	1.3235e-005
15373	20.328	1.8	0.	1.5466e-002
15374	20.229	1.7	0.	1.3665e-002
15375	20.229	1.8	5.e-002	1.4329e-005
15376	20.527	1.8	0.	1.669e-002
15377	20.427	1.7	0.	1.4767e-002
15378	20.427	1.8	5.e-002	1.7212e-005
15379	20.725	1.8	0.	1.8082e-002
15380	20.626	1.7	0.	1.6027e-002
15381	20.626	1.8	5.e-002	1.9116e-005
15382	20.923	1.8	0.	1.967e-002
15383	20.824	1.7	0.	1.7461e-002
15384	20.824	1.8	5.e-002	1.8158e-005
15385	21.122	1.8	0.	2.1507e-002
15386	21.023	1.7	0.	1.9107e-002
15387	21.023	1.8	5.e-002	1.7258e-005
15388	21.32	1.8	0.	2.3653e-002
15389	21.221	1.7	0.	2.1035e-002
15390	21.221	1.8	5.e-002	1.8351e-005
15391	21.519	1.8	0.	2.6181e-002
15392	21.42	1.7	0.	2.3297e-002
15393	21.42	1.8	5.e-002	1.3773e-005
15394	21.717	1.8	0.	2.9201e-002
15395	21.618	1.7	0.	2.5987e-002
15396	21.618	1.8	5.e-002	1.3259e-005
15397	21.916	1.8	0.	3.286e-002
15398	21.817	1.7	0.	2.9229e-002
15399	21.817	1.8	5.e-002	1.3496e-005
15400	22.114	1.8	0.	3.7365e-002
15401	22.015	1.7	0.	3.3203e-002
15402	22.015	1.8	5.e-002	1.8251e-005
15403	22.313	1.8	0.	4.3035e-002
15404	22.214	1.7	0.	3.8143e-002
15405	22.214	1.8	5.e-002	1.7993e-005
15406	22.511	1.8	0.	5.0279e-002
15407	22.412	1.7	0.	4.4469e-002
15408	22.412	1.8	5.e-002	1.2896e-005
15409	22.71	1.8	0.	6.0146e-002
15410	22.611	1.7	0.	5.2598e-002
15411	22.611	1.8	5.e-002	1.4096e-005
15412	22.908	1.8	0.	7.2867e-002
15413	22.809	1.7	0.	6.4262e-002
15414	22.809	1.8	5.e-002	1.6607e-005
15415	23.107	1.8	0.	9.5329e-002
15416	23.008	1.7	0.	7.8316e-002
15417	23.008	1.8	5.e-002	1.6964e-005
15418	23.305	1.8	0.	0.11553
15419	23.206	1.7	0.	0.11
15420	23.206	1.8	5.e-002	1.2241e-005
15421	23.504	1.8	0.	0.21729
15422	23.405	1.7	0.	0.1213
15423	23.405	1.8	5.e-002	1.3854e-005
15424	23.702	1.8	0.	0.17784
15425	23.603	1.7	0.	0.32252
15426	23.603	1.8	5.e-002	1.5134e-005
15427	23.802	1.7	0.	0.10315
15428	23.802	1.8	5.e-002	1.5324e-005
15429	23.901	1.8	0.	0.28973
15430	2.4644	1.6	0.	16.685
15431	2.3652	1.5	0.	-6.1187
15432	2.3652	1.6	5.e-002	-4.7756e-004
15433	2.2659	1.6	0.	86.014
15434	2.6629	1.6	0.	-2.7739
15435	2.5636	1.5	0.	5.4326
15436	2.5636	1.6	5.e-002	-5.8535e-004
15437	2.8614	1.6	0.	-9.4002
15438	2.7621	1.5	0.	-9.6723
15439	2.7621	1.6	5.e-002	-6.1407e-004
15440	3.0598	1.6	0.	-5.2292
15441	2.9606	1.5	0.	-3.3845
15442	2.9606	1.6	5.e-002	-5.2049e-004
15443	3.2583	1.6	0.	-10.936
15444	3.1591	1.5	0.	-5.7911
15445	3.1591	1.6	5.e-002	-5.0737e-004
15446	3.4568	1.6	0.	-44.835
15447	3.3576	1.5	0.	-9.5535
15448	3.3576	1.6	5.e-002	-3.405e-004
15449	3.6553	1.6	0.	-106.3
15450	3.5561	1.5	0.	-34.967
15451	3.5561	1.6	5.e-002	-3.1202e-004
15452	3.8538	1.6	0.	-146.59
15453	3.7545	1.5	0.	-82.598
15454	3.7545	1.6	5.e-002	-1.8755e-004
15455	4.0523	1.6	0.	-169.79
15456	3.953	1.5	0.	-116.37
15457	3.953	1.6	5.e-002	-1.738e-004
15458	4.2508	1.6	0.	-181.9
15459	4.1515	1.5	0.	-137.28
15460	4.1515	1.6	5.e-002	-1.635e-004
15461	4.4492	1.6	0.	-186.81
15462	4.35	1.5	0.	-149.41
15463	4.35	1.6	5.e-002	-1.0763e-004
15464	4.6477	1.6	0.	-186.92
15465	4.5485	1.5	0.	-155.54
15466	4.5485	1.6	5.e-002	-9.8776e-005
15467	4.8462	1.6	0.	-183.78
15468	4.747	1.5	0.	-157.47
15469	4.747	1.6	5.e-002	-5.4424e-005
15470	5.0447	1.6	0.	-178.4
15471	4.9455	1.5	0.	-156.39
15472	4.9455	1.6	5.e-002	-7.5527e-005
15473	5.2432	1.6	0.	-171.48
15474	5.1439	1.5	0.	-153.12
15475	5.1439	1.6	5.e-002	-4.1273e-005
15476	5.4417	1.6	0.	-163.54
15477	5.3424	1.5	0.	-148.27
15478	5.3424	1.6	5.e-002	-7.3452e-005
15479	5.6402	1.6	0.	-154.94
15480	5.5409	1.5	0.	-142.28
15481	5.5409	1.6	5.e-002	-2.8128e-005
15482	5.8386	1.6	0.	-145.97
15483	5.7394	1.5	0.	-135.51
15484	5.7394	1.6	5.e-002	-2.4991e-005
15485	6.0371	1.6	0.	-136.85
15486	5.9379	1.5	0.	-128.23
15487	5.9379	1.6	5.e-002	-1.9003e-005
15488	6.2356	1.6	0.	-127.75
15489	6.1364	1.5	0.	-120.66
15490	6.1364	1.6	5.e-002	-1.1242e-005
15491	6.4341	1.6	0.	-118.79
15492	6.3348	1.5	0.	-112.97
15493	6.3348	1.6	5.e-002	-1.908e-005
15494	6.6326	1.6	0.	-110.06
15495	6.5333	1.5	0.	-105.3
15496	6.5333	1.6	5.e-002	-7.8797e-006
15497	6.8311	1.6	0.	-101.65
15498	6.7318	1.5	0.	-97.758
15499	6.7318	1.6	5.e-002	-8.0912e-006
15500	7.0295	1.6	0.	-93.594
15501	6.9303	1.5	0.	-90.417
15502	6.9303	1.6	5.e-002	-7.0778e-006
15503	7.228	1.6	0.	-85.927
15504	7.1288	1.5	0.	-83.337
15505	7.1288	1.6	5.e-002	-8.3143e-006
15506	7.4265	1.6	0.	-78.669
15507	7.3273	1.5	0.	-76.559
15508	7.3273	1.6	5.e-002	-5.3514e-006
15509	7.625	1.6	0.	-71.828
15510	7.5258	1.5	0.	-70.11
15511	7.5258	1.6	5.e-002	-4.9461e-006
15512	7.8235	1.6	0.	-65.403
15513	7.7242	1.5	0.	-64.005
15514	7.7242	1.6	5.e-002	-6.2426e-006
15515	8.022	1.6	0.	-59.388
15516	7.9227	1.5	0.	-58.251
15517	7.9227	1.6	5.e-002	-2.3641e-006
15518	8.2205	1.6	0.	-53.772
15519	8.1212	1.5	0.	-52.848
15520	8.1212	1.6	5.e-002	-2.9915e-006
15521	8.4189	1.6	0.	-48.54
15522	8.3197	1.5	0.	-47.789
15523	8.3197	1.6	5.e-002	-3.1879e-006
15524	8.6174	1.6	0.	-43.676
15525	8.5182	1.5	0.	-43.066
15526	8.5182	1.6	5.e-002	-2.0346e-006
15527	8.8159	1.6	0.	-39.16
15528	8.7167	1.5	0.	-38.665
15529	8.7167	1.6	5.e-002	-2.1017e-006
15530	9.0144	1.6	0.	-34.974
15531	8.9152	1.5	0.	-34.573
15532	8.9152	1.6	5.e-002	-1.8405e-006
15533	9.2129	1.6	0.	-31.097
15534	9.1136	1.5	0.	-30.773
15535	9.1136	1.6	5.e-002	-8.3093e-007
15536	9.4114	1.6	0.	-27.511
15537	9.3121	1.5	0.	-27.25
15538	9.3121	1.6	5.e-002	-1.0312e-006
15539	9.6098	1.6	0.	-24.195
15540	9.5106	1.5	0.	-23.986
15541	9.5106	1.6	5.e-002	-5.5154e-007
15542	9.8083	1.6	0.	-21.132
15543	9.7091	1.5	0.	-20.965
15544	9.7091	1.6	5.e-002	-1.6921e-007
15545	10.007	1.6	0.	-18.302
15546	9.9076	1.5	0.	-18.17
15547	9.9076	1.6	5.e-002	-8.23e-008
15548	10.205	1.6	0.	-15.69
15549	10.106	1.5	0.	-15.587
15550	10.106	1.6	5.e-002	4.7868e-008
15551	10.404	1.6	0.	-13.278
15552	10.305	1.5	0.	-13.199
15553	10.305	1.6	5.e-002	3.5589e-007
15554	10.602	1.6	0.	-11.05
15555	10.503	1.5	0.	-10.993
15556	10.503	1.6	5.e-002	7.3491e-008
15557	10.801	1.6	0.	-8.9936
15558	10.702	1.5	0.	-8.9533
15559	10.702	1.6	5.e-002	3.4915e-007
15560	10.999	1.6	0.	-7.0937
15561	10.9	1.5	0.	-7.0684
15562	10.9	1.6	5.e-002	7.8727e-008
15563	11.198	1.6	0.	-5.3378
15564	11.098	1.5	0.	-5.3254
15565	11.098	1.6	5.e-002	5.9661e-007
15566	11.396	1.6	0.	-3.7143
15567	11.297	1.5	0.	-3.7135
15568	11.297	1.6	5.e-002	6.4659e-007
15569	11.595	1.6	0.	-2.2132
15570	11.495	1.5	0.	-2.2227
15571	11.495	1.6	5.e-002	4.9573e-007
15572	11.793	1.6	0.	-0.83192
15573	11.694	1.5	0.	-0.85117
15574	11.694	1.6	5.e-002	9.4005e-007
15575	11.992	1.6	0.	-2.9881e-002
15576	11.892	1.5	0.	-3.4415e-002
15577	11.892	1.6	5.e-002	2.1148e-006
15578	12.19	1.6	0.	-6.7593e-003
15579	12.091	1.5	0.	-8.1399e-003
15580	12.091	1.6	5.e-002	2.1304e-006
15581	12.389	1.6	0.	-2.7714e-003
15582	12.289	1.5	0.	-3.7687e-003
15583	12.289	1.6	5.e-002	2.8144e-006
15584	12.587	1.6	0.	-1.1163e-003
15585	12.488	1.5	0.	-1.9698e-003
15586	12.488	1.6	5.e-002	2.9415e-006
15587	12.786	1.6	0.	-2.0887e-004
15588	12.686	1.5	0.	-9.9535e-004
15589	12.686	1.6	5.e-002	4.6587e-006
15590	12.984	1.6	0.	3.6675e-004
15591	12.885	1.5	0.	-3.8571e-004
15592	12.885	1.6	5.e-002	4.1553e-006
15593	13.183	1.6	0.	7.8297e-004
15594	13.083	1.5	0.	3.1926e-005
15595	13.083	1.6	5.e-002	4.0712e-006
15596	13.381	1.6	0.	1.1126e-003
15597	13.282	1.5	0.	3.6947e-004
15598	13.282	1.6	5.e-002	3.7465e-006
15599	13.58	1.6	0.	1.3741e-003
15600	13.48	1.5	0.	6.3429e-004
15601	13.48	1.6	5.e-002	4.3712e-006
15602	13.778	1.6	0.	1.5887e-003
15603	13.679	1.5	0.	8.4741e-004
15604	13.679	1.6	5.e-002	3.8182e-006
15605	13.977	1.6	0.	1.7888e-003
15606	13.877	1.5	0.	1.0261e-003
15607	13.877	1.6	5.e-002	4.1057e-006
15608	14.175	1.6	0.	1.9749e-003
15609	14.076	1.5	0.	1.2134e-003
15610	14.076	1.6	5.e-002	3.9177e-006
15611	14.373	1.6	0.	2.1272e-003
15612	14.274	1.5	0.	1.3656e-003
15613	14.274	1.6	5.e-002	4.2766e-006
15614	14.572	1.6	0.	2.2757e-003
15615	14.473	1.5	0.	1.4864e-003
15616	14.473	1.6	5.e-002	4.5578e-006
15617	14.77	1.6	0.	2.4308e-003
15618	14.671	1.5	0.	1.6315e-003
15619	14.671	1.6	5.e-002	3.6664e-006
15620	14.969	1.6	0.	2.5786e-003
15621	14.87	1.5	0.	1.7667e-003
15622	14.87	1.6	5.e-002	4.3262e-006
15623	15.167	1.6	0.	2.7222e-003
15624	15.068	1.5	0.	1.8964e-003
15625	15.068	1.6	5.e-002	5.2491e-006
15626	15.366	1.6	0.	2.8767e-003
15627	15.267	1.5	0.	2.0228e-003
15628	15.267	1.6	5.e-002	4.7942e-006
15629	15.564	1.6	0.	3.0427e-003
15630	15.465	1.5	0.	2.1735e-003
15631	15.465	1.6	5.e-002	5.5572e-006
15632	15.763	1.6	0.	3.2086e-003
15633	15.664	1.5	0.	2.3216e-003
15634	15.664	1.6	5.e-002	5.6662e-006
15635	15.961	1.6	0.	3.3768e-003
15636	15.862	1.5	0.	2.4722e-003
15637	15.862	1.6	5.e-002	6.1816e-006
15638	16.16	1.6	0.	3.5604e-003
15639	16.061	1.5	0.	2.6232e-003
15640	16.061	1.6	5.e-002	7.4931e-006
15641	16.358	1.6	0.	3.7558e-003
15642	16.259	1.5	0.	2.8027e-003
15643	16.259	1.6	5.e-002	8.6248e-006
15644	16.557	1.6	0.	3.9442e-003
15645	16.458	1.5	0.	2.9758e-003
15646	16.458	1.6	5.e-002	8.318e-006
15647	16.755	1.6	0.	4.1466e-003
15648	16.656	1.5	0.	3.14e-003
15649	16.656	1.6	5.e-002	6.98e-006
15650	16.954	1.6	0.	4.3707e-003
15651	16.855	1.5	0.	3.3394e-003
15652	16.855	1.6	5.e-002	7.5201e-006
15653	17.152	1.6	0.	4.6043e-003
15654	17.053	1.5	0.	3.5453e-003
15655	17.053	1.6	5.e-002	6.426e-006
15656	17.351	1.6	0.	4.8519e-003
15657	17.252	1.5	0.	3.7615e-003
15658	17.252	1.6	5.e-002	8.1787e-006
15659	17.549	1.6	0.	5.1223e-003
15660	17.45	1.5	0.	3.9922e-003
15661	17.45	1.6	5.e-002	7.5852e-006
15662	17.748	1.6	0.	5.4179e-003
15663	17.648	1.5	0.	4.2525e-003
15664	17.648	1.6	5.e-002	6.7163e-006
15665	17.946	1.6	0.	5.7334e-003
15666	17.847	1.5	0.	4.5299e-003
15667	17.847	1.6	5.e-002	7.3756e-006
15668	18.145	1.6	0.	6.0702e-003
15669	18.045	1.5	0.	4.826e-003
15670	18.045	1.6	5.e-002	7.5793e-006
15671	18.343	1.6	0.	6.4405e-003
15672	18.244	1.5	0.	5.1436e-003
15673	18.244	1.6	5.e-002	7.3589e-006
15674	18.542	1.6	0.	6.8432e-003
15675	18.442	1.5	0.	5.5052e-003
15676	18.442	1.6	5.e-002	8.8753e-006
15677	18.74	1.6	0.	7.2699e-003
15678	18.641	1.5	0.	5.883e-003
15679	18.641	1.6	5.e-002	8.0817e-006
15680	18.939	1.6	0.	7.7387e-003
15681	18.839	1.5	0.	6.2874e-003
15682	18.839	1.6	5.e-002	1.1296e-005
15683	19.137	1.6	0.	8.2589e-003
15684	19.038	1.5	0.	6.7463e-003
15685	19.038	1.6	5.e-002	1.3564e-005
15686	19.336	1.6	0.	8.8267e-003
15687	19.236	1.5	0.	7.2479e-003
15688	19.236	1.6	5.e-002	1.4108e-005
15689	19.534	1.6	0.	9.4525e-003
15690	19.435	1.5	0.	7.7988e-003
15691	19.435	1.6	5.e-002	1.1862e-005
15692	19.733	1.6	0.	1.0154e-002
15693	19.633	1.5	0.	8.4099e-003
15694	19.633	1.6	5.e-002	1.3313e-005
15695	19.931	1.6	0.	1.0939e-002
15696	19.832	1.5	0.	9.1039e-003
15697	19.832	1.6	5.e-002	1.6462e-005
15698	20.13	1.6	0.	1.1814e-002
15699	20.03	1.5	0.	9.8769e-003
15700	20.03	1.6	5.e-002	1.3769e-005
15701	20.328	1.6	0.	1.28e-002
15702	20.229	1.5	0.	1.0746e-002
15703	20.229	1.6	5.e-002	1.3937e-005
15704	20.527	1.6	0.	1.3923e-002
15705	20.427	1.5	0.	1.1732e-002
15706	20.427	1.6	5.e-002	1.6841e-005
15707	20.725	1.6	0.	1.5209e-002
15708	20.626	1.5	0.	1.2869e-002
15709	20.626	1.6	5.e-002	1.9848e-005
15710	20.923	1.6	0.	1.6682e-002
15711	20.824	1.5	0.	1.417e-002
15712	20.824	1.6	5.e-002	1.8359e-005
15713	21.122	1.6	0.	1.8396e-002
15714	21.023	1.5	0.	1.5673e-002
15715	21.023	1.6	5.e-002	1.6951e-005
15716	21.32	1.6	0.	2.0411e-002
15717	21.221	1.5	0.	1.7446e-002
15718	21.221	1.6	5.e-002	1.8727e-005
15719	21.519	1.6	0.	2.2799e-002
15720	21.42	1.5	0.	1.9544e-002
15721	21.42	1.6	5.e-002	1.4025e-005
15722	21.717	1.6	0.	2.5667e-002
15723	21.618	1.5	0.	2.2056e-002
15724	21.618	1.6	5.e-002	1.4775e-005
15725	21.916	1.6	0.	2.9163e-002
15726	21.817	1.5	0.	2.5105e-002
15727	21.817	1.6	5.e-002	1.4587e-005
15728	22.114	1.6	0.	3.349e-002
15729	22.015	1.5	0.	2.8869e-002
15730	22.015	1.6	5.e-002	1.8158e-005
15731	22.313	1.6	0.	3.8964e-002
15732	22.214	1.5	0.	3.3582e-002
15733	22.214	1.6	5.e-002	1.717e-005
15734	22.511	1.6	0.	4.5985e-002
15735	22.412	1.5	0.	3.9654e-002
15736	22.412	1.6	5.e-002	1.3773e-005
15737	22.71	1.6	0.	5.5592e-002
15738	22.611	1.5	0.	4.7493e-002
15739	22.611	1.6	5.e-002	1.4206e-005
15740	22.908	1.6	0.	6.7999e-002
15741	22.809	1.5	0.	5.881e-002
15742	22.809	1.6	5.e-002	1.5783e-005
15743	23.107	1.6	0.	9.0035e-002
15744	23.008	1.5	0.	7.2446e-002
15745	23.008	1.6	5.e-002	1.8012e-005
15746	23.305	1.6	0.	0.1097
15747	23.206	1.5	0.	0.10352
15748	23.206	1.6	5.e-002	1.2996e-005
15749	23.504	1.6	0.	0.21012
15750	23.405	1.5	0.	0.11411
15751	23.405	1.6	5.e-002	1.268e-005
15752	23.702	1.6	0.	0.16755
15753	23.603	1.5	0.	0.31274
15754	23.603	1.6	5.e-002	1.3253e-005
15755	23.802	1.5	0.	8.6737e-002
15756	23.802	1.6	5.e-002	1.3805e-005
15757	23.901	1.6	0.	0.28614
15758	2.4644	1.4	0.	-17.525
15759	2.3652	1.3	0.	-23.109
15760	2.3652	1.4	5.e-002	-1.4118e-004
15761	2.2659	1.4	0.	-27.147
15762	2.6629	1.4	0.	-1.4304
15763	2.5636	1.3	0.	0.79485
15764	2.5636	1.4	5.e-002	-3.0753e-004
15765	2.8614	1.4	0.	-3.5389
15766	2.7621	1.3	0.	-3.3116
15767	2.7621	1.4	5.e-002	-3.4647e-004
15768	3.0598	1.4	0.	-3.8921
15769	2.9606	1.3	0.	-3.1952
15770	2.9606	1.4	5.e-002	-4.065e-004
15771	3.2583	1.4	0.	-4.6012
15772	3.1591	1.3	0.	-3.4146
15773	3.1591	1.4	5.e-002	-3.9056e-004
15774	3.4568	1.4	0.	-7.1267
15775	3.3576	1.3	0.	-3.9935
15776	3.3576	1.4	5.e-002	-4.1352e-004
15777	3.6553	1.4	0.	-19.716
15778	3.5561	1.3	0.	-5.8301
15779	3.5561	1.4	5.e-002	-3.2985e-004
15780	3.8538	1.4	0.	-54.586
15781	3.7545	1.3	0.	-13.197
15782	3.7545	1.4	5.e-002	-3.0923e-004
15783	4.0523	1.4	0.	-84.773
15784	3.953	1.3	0.	-37.41
15785	3.953	1.4	5.e-002	-2.2829e-004
15786	4.2508	1.4	0.	-105.21
15787	4.1515	1.3	0.	-62.949
15788	4.1515	1.4	5.e-002	-2.1003e-004
15789	4.4492	1.4	0.	-118.34
15790	4.35	1.3	0.	-81.776
15791	4.35	1.4	5.e-002	-1.38e-004
15792	4.6477	1.4	0.	-126.17
15793	4.5485	1.3	0.	-94.799
15794	4.5485	1.4	5.e-002	-1.2056e-004
15795	4.8462	1.4	0.	-130.1
15796	4.747	1.3	0.	-103.31
15797	4.747	1.4	5.e-002	-1.4508e-004
15798	5.0447	1.4	0.	-131.11
15799	4.9455	1.3	0.	-108.32
15800	4.9455	1.4	5.e-002	-8.6738e-005
15801	5.2432	1.4	0.	-129.89
15802	5.1439	1.3	0.	-110.58
15803	5.1439	1.4	5.e-002	-4.1727e-005
15804	5.4417	1.4	0.	-127.
15805	5.3424	1.3	0.	-110.67
15806	5.3424	1.4	5.e-002	-5.6992e-005
15807	5.6402	1.4	0.	-122.84
15808	5.5409	1.3	0.	-109.07
15809	5.5409	1.4	5.e-002	-4.6071e-005
15810	5.8386	1.4	0.	-117.75
15811	5.7394	1.3	0.	-106.17
15812	5.7394	1.4	5.e-002	-3.6945e-005
15813	6.0371	1.4	0.	-112.02
15814	5.9379	1.3	0.	-102.3
15815	5.9379	1.4	5.e-002	-1.9351e-005
15816	6.2356	1.4	0.	-105.87
15817	6.1364	1.3	0.	-97.708
15818	6.1364	1.4	5.e-002	-8.7739e-006
15819	6.4341	1.4	0.	-99.479
15820	6.3348	1.3	0.	-92.629
15821	6.3348	1.4	5.e-002	-8.1634e-006
15822	6.6326	1.4	0.	-92.99
15823	6.5333	1.3	0.	-87.242
15824	6.5333	1.4	5.e-002	-1.6519e-005
15825	6.8311	1.4	0.	-86.518
15826	6.7318	1.3	0.	-81.692
15827	6.7318	1.4	5.e-002	-7.8461e-006
15828	7.0295	1.4	0.	-80.153
15829	6.9303	1.3	0.	-76.096
15830	6.9303	1.4	5.e-002	-1.3655e-005
15831	7.228	1.4	0.	-73.961
15832	7.1288	1.3	0.	-70.545
15833	7.1288	1.4	5.e-002	-5.7082e-006
15834	7.4265	1.4	0.	-67.991
15835	7.3273	1.3	0.	-65.11
15836	7.3273	1.4	5.e-002	-8.272e-006
15837	7.625	1.4	0.	-62.278
15838	7.5258	1.3	0.	-59.842
15839	7.5258	1.4	5.e-002	-4.9935e-006
15840	7.8235	1.4	0.	-56.843
15841	7.7242	1.3	0.	-54.778
15842	7.7242	1.4	5.e-002	-4.9091e-006
15843	8.022	1.4	0.	-51.7
15844	7.9227	1.3	0.	-49.944
15845	7.9227	1.4	5.e-002	-4.2369e-006
15846	8.2205	1.4	0.	-46.853
15847	8.1212	1.3	0.	-45.356
15848	8.1212	1.4	5.e-002	-4.1267e-006
15849	8.4189	1.4	0.	-42.302
15850	8.3197	1.3	0.	-41.022
15851	8.3197	1.4	5.e-002	-3.7587e-006
15852	8.6174	1.4	0.	-38.041
15853	8.5182	1.3	0.	-36.944
15854	8.5182	1.4	5.e-002	-3.056e-006
15855	8.8159	1.4	0.	-34.063
15856	8.7167	1.3	0.	-33.119
15857	8.7167	1.4	5.e-002	-1.6331e-006
15858	9.0144	1.4	0.	-30.356
15859	8.9152	1.3	0.	-29.541
15860	8.9152	1.4	5.e-002	-1.7339e-006
15861	9.2129	1.4	0.	-26.908
15862	9.1136	1.3	0.	-26.204
15863	9.1136	1.4	5.e-002	-1.5165e-006
15864	9.4114	1.4	0.	-23.707
15865	9.3121	1.3	0.	-23.095
15866	9.3121	1.4	5.e-002	-8.2177e-007
15867	9.6098	1.4	0.	-20.736
15868	9.5106	1.3	0.	-20.205
15869	9.5106	1.4	5.e-002	-3.9383e-007
15870	9.8083	1.4	0.	-17.984
15871	9.7091	1.3	0.	-17.521
15872	9.7091	1.4	5.e-002	-1.4249e-007
15873	10.007	1.4	0.	-15.435
15874	9.9076	1.3	0.	-15.031
15875	9.9076	1.4	5.e-002	-2.3073e-007
15876	10.205	1.4	0.	-13.075
15877	10.106	1.3	0.	-12.723
15878	10.106	1.4	5.e-002	-3.1545e-010
15879	10.404	1.4	0.	-10.892
15880	10.305	1.3	0.	-10.585
15881	10.305	1.4	5.e-002	7.7792e-007
15882	10.602	1.4	0.	-8.873
15883	10.503	1.3	0.	-8.6051
15884	10.503	1.4	5.e-002	5.3521e-008
15885	10.801	1.4	0.	-7.0047
15886	10.702	1.3	0.	-6.7715
15887	10.702	1.4	5.e-002	8.0645e-008
15888	10.999	1.4	0.	-5.2761
15889	10.9	1.3	0.	-5.0738
15890	10.9	1.4	5.e-002	2.3307e-007
15891	11.198	1.4	0.	-3.6765
15892	11.098	1.3	0.	-3.5017
15893	11.098	1.4	5.e-002	4.4527e-007
15894	11.396	1.4	0.	-2.1967
15895	11.297	1.3	0.	-2.0471
15896	11.297	1.4	5.e-002	5.6105e-007
15897	11.595	1.4	0.	-0.8357
15898	11.495	1.3	0.	-0.71208
15899	11.495	1.4	5.e-002	3.2777e-007
15900	11.793	1.4	0.	-3.5943e-002
15901	11.694	1.3	0.	-3.0771e-002
15902	11.694	1.4	5.e-002	1.0705e-006
15903	11.992	1.4	0.	-9.1111e-003
15904	11.892	1.3	0.	-9.2981e-003
15905	11.892	1.4	5.e-002	2.0533e-006
15906	12.19	1.4	0.	-4.554e-003
15907	12.091	1.3	0.	-5.045e-003
15908	12.091	1.4	5.e-002	1.9039e-006
15909	12.389	1.4	0.	-2.709e-003
15910	12.289	1.3	0.	-3.2955e-003
15911	12.289	1.4	5.e-002	2.7037e-006
15912	12.587	1.4	0.	-1.7039e-003
15913	12.488	1.3	0.	-2.3253e-003
15914	12.488	1.4	5.e-002	2.8972e-006
15915	12.786	1.4	0.	-1.0813e-003
15916	12.686	1.3	0.	-1.7246e-003
15917	12.686	1.4	5.e-002	4.7059e-006
15918	12.984	1.4	0.	-6.6081e-004
15919	12.885	1.3	0.	-1.3231e-003
15920	12.885	1.4	5.e-002	4.0238e-006
15921	13.183	1.4	0.	-3.4207e-004
15922	13.083	1.3	0.	-1.0395e-003
15923	13.083	1.4	5.e-002	4.0202e-006
15924	13.381	1.4	0.	-8.354e-005
15925	13.282	1.3	0.	-7.9793e-004
15926	13.282	1.4	5.e-002	3.5823e-006
15927	13.58	1.4	0.	1.2228e-004
15928	13.48	1.3	0.	-6.0871e-004
15929	13.48	1.4	5.e-002	4.1318e-006
15930	13.778	1.4	0.	2.9126e-004
15931	13.679	1.3	0.	-4.5663e-004
15932	13.679	1.4	5.e-002	3.4701e-006
15933	13.977	1.4	0.	4.5038e-004
15934	13.877	1.3	0.	-3.3152e-004
15935	13.877	1.4	5.e-002	3.9998e-006
15936	14.175	1.4	0.	5.9812e-004
15937	14.076	1.3	0.	-1.9298e-004
15938	14.076	1.4	5.e-002	3.3615e-006
15939	14.373	1.4	0.	7.1387e-004
15940	14.274	1.3	0.	-8.6493e-005
15941	14.274	1.4	5.e-002	4.0685e-006
15942	14.572	1.4	0.	8.2692e-004
15943	14.473	1.3	0.	-8.9401e-006
15944	14.473	1.4	5.e-002	4.1713e-006
15945	14.77	1.4	0.	9.482e-004
15946	14.671	1.3	0.	9.3961e-005
15947	14.671	1.4	5.e-002	3.7347e-006
15948	14.969	1.4	0.	1.0618e-003
15949	14.87	1.3	0.	1.8806e-004
15950	14.87	1.4	5.e-002	4.3094e-006
15951	15.167	1.4	0.	1.171e-003
15952	15.068	1.3	0.	2.7747e-004
15953	15.068	1.4	5.e-002	4.9878e-006
15954	15.366	1.4	0.	1.2903e-003
15955	15.267	1.3	0.	3.6196e-004
15956	15.267	1.4	5.e-002	4.7701e-006
15957	15.564	1.4	0.	1.4199e-003
15958	15.465	1.3	0.	4.7026e-004
15959	15.465	1.4	5.e-002	5.6817e-006
15960	15.763	1.4	0.	1.5496e-003
15961	15.664	1.3	0.	5.7651e-004
15962	15.664	1.4	5.e-002	5.7814e-006
15963	15.961	1.4	0.	1.6798e-003
15964	15.862	1.3	0.	6.8216e-004
15965	15.862	1.4	5.e-002	6.4048e-006
15966	16.16	1.4	0.	1.8235e-003
15967	16.061	1.3	0.	7.8879e-004
15968	16.061	1.4	5.e-002	7.1863e-006
15969	16.358	1.4	0.	1.9775e-003
15970	16.259	1.3	0.	9.2184e-004
15971	16.259	1.4	5.e-002	8.4335e-006
15972	16.557	1.4	0.	2.1231e-003
15973	16.458	1.3	0.	1.0444e-003
15974	16.458	1.4	5.e-002	8.085e-006
15975	16.755	1.4	0.	2.2808e-003
15976	16.656	1.3	0.	1.1584e-003
15977	16.656	1.4	5.e-002	6.6288e-006
15978	16.954	1.4	0.	2.4584e-003
15979	16.855	1.3	0.	1.3044e-003
15980	16.855	1.4	5.e-002	7.5439e-006
15981	17.152	1.4	0.	2.643e-003
15982	17.053	1.3	0.	1.4543e-003
15983	17.053	1.4	5.e-002	6.3991e-006
15984	17.351	1.4	0.	2.8382e-003
15985	17.252	1.3	0.	1.6129e-003
15986	17.252	1.4	5.e-002	7.5122e-006
15987	17.549	1.4	0.	3.0545e-003
15988	17.45	1.3	0.	1.779e-003
15989	17.45	1.4	5.e-002	7.8298e-006
15990	17.748	1.4	0.	3.292e-003
15991	17.648	1.3	0.	1.9749e-003
15992	17.648	1.4	5.e-002	7.1724e-006
15993	17.946	1.4	0.	3.545e-003
15994	17.847	1.3	0.	2.1826e-003
15995	17.847	1.4	5.e-002	7.8572e-006
15996	18.145	1.4	0.	3.8164e-003
15997	18.045	1.3	0.	2.4056e-003
15998	18.045	1.4	5.e-002	7.7969e-006
15999	18.343	1.4	0.	4.1195e-003
16000	18.244	1.3	0.	2.6444e-003
16001	18.244	1.4	5.e-002	7.222e-006
16002	18.542	1.4	0.	4.4499e-003
16003	18.442	1.3	0.	2.9223e-003
16004	18.442	1.4	5.e-002	8.895e-006
16005	18.74	1.4	0.	4.7985e-003
16006	18.641	1.3	0.	3.213e-003
16007	18.641	1.4	5.e-002	8.0487e-006
16008	18.939	1.4	0.	5.1855e-003
16009	18.839	1.3	0.	3.5238e-003
16010	18.839	1.4	5.e-002	1.2031e-005
16011	19.137	1.4	0.	5.6175e-003
16012	19.038	1.3	0.	3.8808e-003
16013	19.038	1.4	5.e-002	1.4121e-005
16014	19.336	1.4	0.	6.0932e-003
16015	19.236	1.3	0.	4.2738e-003
16016	19.236	1.4	5.e-002	1.4372e-005
16017	19.534	1.4	0.	6.6195e-003
16018	19.435	1.3	0.	4.7088e-003
16019	19.435	1.4	5.e-002	1.2045e-005
16020	19.733	1.4	0.	7.2122e-003
16021	19.633	1.3	0.	5.1957e-003
16022	19.633	1.4	5.e-002	1.3592e-005
16023	19.931	1.4	0.	7.8817e-003
16024	19.832	1.3	0.	5.7558e-003
16025	19.832	1.4	5.e-002	1.5835e-005
16026	20.13	1.4	0.	8.6349e-003
16027	20.03	1.3	0.	6.3854e-003
16028	20.03	1.4	5.e-002	1.2734e-005
16029	20.328	1.4	0.	9.4894e-003
16030	20.229	1.3	0.	7.1019e-003
16031	20.229	1.4	5.e-002	1.386e-005
16032	20.527	1.4	0.	1.047e-002
16033	20.427	1.3	0.	7.9218e-003
16034	20.427	1.4	5.e-002	1.7077e-005
16035	20.725	1.4	0.	1.1602e-002
16036	20.626	1.3	0.	8.8776e-003
16037	20.626	1.4	5.e-002	1.9126e-005
16038	20.923	1.4	0.	1.291e-002
16039	20.824	1.3	0.	9.9847e-003
16040	20.824	1.4	5.e-002	1.8401e-005
16041	21.122	1.4	0.	1.4446e-002
16042	21.023	1.3	0.	1.1278e-002
16043	21.023	1.4	5.e-002	1.6447e-005
16044	21.32	1.4	0.	1.6268e-002
16045	21.221	1.3	0.	1.2823e-002
16046	21.221	1.4	5.e-002	1.8363e-005
16047	21.519	1.4	0.	1.8449e-002
16048	21.42	1.3	0.	1.4673e-002
16049	21.42	1.4	5.e-002	1.3825e-005
16050	21.717	1.4	0.	2.1092e-002
16051	21.618	1.3	0.	1.6917e-002
16052	21.618	1.4	5.e-002	1.4445e-005
16053	21.916	1.4	0.	2.4342e-002
16054	21.817	1.3	0.	1.9671e-002
16055	21.817	1.4	5.e-002	1.4363e-005
16056	22.114	1.4	0.	2.8402e-002
16057	22.015	1.3	0.	2.3113e-002
16058	22.015	1.4	5.e-002	1.8403e-005
16059	22.313	1.4	0.	3.3584e-002
16060	22.214	1.3	0.	2.7473e-002
16061	22.214	1.4	5.e-002	1.8551e-005
16062	22.511	1.4	0.	4.0279e-002
16063	22.412	1.3	0.	3.3153e-002
16064	22.412	1.4	5.e-002	1.3934e-005
16065	22.71	1.4	0.	4.9508e-002
16066	22.611	1.3	0.	4.0547e-002
16067	22.611	1.4	5.e-002	1.3045e-005
16068	22.908	1.4	0.	6.1469e-002
16069	22.809	1.3	0.	5.1345e-002
16070	22.809	1.4	5.e-002	1.4308e-005
16071	23.107	1.4	0.	8.2919e-002
16072	23.008	1.3	0.	6.4362e-002
16073	23.008	1.4	5.e-002	1.8666e-005
16074	23.305	1.4	0.	0.10186
16075	23.206	1.3	0.	9.4561e-002
16076	23.206	1.4	5.e-002	1.0877e-005
16077	23.504	1.4	0.	0.20055
16078	23.405	1.3	0.	0.10416
16079	23.405	1.4	5.e-002	1.0658e-005
16080	23.702	1.4	0.	0.1541
16081	23.603	1.3	0.	0.2994
16082	23.603	1.4	5.e-002	1.1342e-005
16083	23.802	1.3	0.	6.5278e-002
16084	23.802	1.4	5.e-002	1.7442e-005
16085	23.901	1.4	0.	0.28126
16086	2.4644	1.2	0.	-5.1743
16087	2.3652	1.1	0.	-12.477
16088	2.3652	1.2	5.e-002	-5.1355e-005
16089	2.2659	1.2	0.	4.9391
16090	2.6629	1.2	0.	-1.0811
16091	2.5636	1.1	0.	0.90681
16092	2.5636	1.2	5.e-002	-1.6903e-004
16093	2.8614	1.2	0.	-2.9039
16094	2.7621	1.1	0.	-3.1108
16095	2.7621	1.2	5.e-002	-2.397e-004
16096	3.0598	1.2	0.	-2.6549
16097	2.9606	1.1	0.	-2.27
16098	2.9606	1.2	5.e-002	-2.4683e-004
16099	3.2583	1.2	0.	-2.8139
16100	3.1591	1.1	0.	-2.3795
16101	3.1591	1.2	5.e-002	-2.6053e-004
16102	3.4568	1.2	0.	-3.1772
16103	3.3576	1.1	0.	-2.3807
16104	3.3576	1.2	5.e-002	-2.8411e-004
16105	3.6553	1.2	0.	-4.0809
16106	3.5561	1.1	0.	-2.5567
16107	3.5561	1.2	5.e-002	-2.7314e-004
16108	3.8538	1.2	0.	-6.9304
16109	3.7545	1.1	0.	-3.017
16110	3.7545	1.2	5.e-002	-2.7266e-004
16111	4.0523	1.2	0.	-19.053
16112	3.953	1.1	0.	-4.3879
16113	3.953	1.2	5.e-002	-2.6254e-004
16114	4.2508	1.2	0.	-40.356
16115	4.1515	1.1	0.	-10.28
16116	4.1515	1.2	5.e-002	-2.5008e-004
16117	4.4492	1.2	0.	-58.539
16118	4.35	1.1	0.	-26.564
16119	4.35	1.2	5.e-002	-1.7208e-004
16120	4.6477	1.2	0.	-72.057
16121	4.5485	1.1	0.	-43.263
16122	4.5485	1.2	5.e-002	-2.0627e-004
16123	4.8462	1.2	0.	-81.567
16124	4.747	1.1	0.	-56.353
16125	4.747	1.2	5.e-002	-1.2526e-004
16126	5.0447	1.2	0.	-87.79
16127	4.9455	1.1	0.	-65.929
16128	4.9455	1.2	5.e-002	-1.0076e-004
16129	5.2432	1.2	0.	-91.34
16130	5.1439	1.1	0.	-72.489
16131	5.1439	1.2	5.e-002	-1.1071e-004
16132	5.4417	1.2	0.	-92.73
16133	5.3424	1.1	0.	-76.534
16134	5.3424	1.2	5.e-002	-1.0605e-005
16135	5.6402	1.2	0.	-92.395
16136	5.5409	1.1	0.	-78.513
16137	5.5409	1.2	5.e-002	-4.738e-005
16138	5.8386	1.2	0.	-90.703
16139	5.7394	1.1	0.	-78.823
16140	5.7394	1.2	5.e-002	-3.6196e-005
16141	6.0371	1.2	0.	-87.968
16142	5.9379	1.1	0.	-77.808
16143	5.9379	1.2	5.e-002	-2.9701e-005
16144	6.2356	1.2	0.	-84.454
16145	6.1364	1.1	0.	-75.766
16146	6.1364	1.2	5.e-002	-1.6057e-005
16147	6.4341	1.2	0.	-80.381
16148	6.3348	1.1	0.	-72.948
16149	6.3348	1.2	5.e-002	-1.4044e-005
16150	6.6326	1.2	0.	-75.934
16151	6.5333	1.1	0.	-69.566
16152	6.5333	1.2	5.e-002	-1.6331e-005
16153	6.8311	1.2	0.	-71.259
16154	6.7318	1.1	0.	-65.796
16155	6.7318	1.2	5.e-002	-1.0614e-005
16156	7.0295	1.2	0.	-66.478
16157	6.9303	1.1	0.	-61.781
16158	6.9303	1.2	5.e-002	-6.3279e-006
16159	7.228	1.2	0.	-61.684
16160	7.1288	1.1	0.	-57.637
16161	7.1288	1.2	5.e-002	-7.0195e-006
16162	7.4265	1.2	0.	-56.949
16163	7.3273	1.1	0.	-53.453
16164	7.3273	1.2	5.e-002	-8.9565e-006
16165	7.625	1.2	0.	-52.33
16166	7.5258	1.1	0.	-49.302
16167	7.5258	1.2	5.e-002	-4.9381e-006
16168	7.8235	1.2	0.	-47.867
16169	7.7242	1.1	0.	-45.236
16170	7.7242	1.2	5.e-002	-5.3987e-006
16171	8.022	1.2	0.	-43.588
16172	7.9227	1.1	0.	-41.295
16173	7.9227	1.2	5.e-002	-3.8297e-006
16174	8.2205	1.2	0.	-39.512
16175	8.1212	1.1	0.	-37.508
16176	8.1212	1.2	5.e-002	-4.0604e-006
16177	8.4189	1.2	0.	-35.649
16178	8.3197	1.1	0.	-33.893
16179	8.3197	1.2	5.e-002	-3.1672e-006
16180	8.6174	1.2	0.	-32.006
16181	8.5182	1.1	0.	-30.462
16182	8.5182	1.2	5.e-002	-2.4012e-006
16183	8.8159	1.2	0.	-28.581
16184	8.7167	1.1	0.	-27.22
16185	8.7167	1.2	5.e-002	-1.4422e-006
16186	9.0144	1.2	0.	-25.372
16187	8.9152	1.1	0.	-24.169
16188	8.9152	1.2	5.e-002	-9.5001e-007
16189	9.2129	1.2	0.	-22.372
16190	9.1136	1.1	0.	-21.308
16191	9.1136	1.2	5.e-002	-7.472e-007
16192	9.4114	1.2	0.	-19.575
16193	9.3121	1.1	0.	-18.63
16194	9.3121	1.2	5.e-002	-3.3327e-007
16195	9.6098	1.2	0.	-16.97
16196	9.5106	1.1	0.	-16.13
16197	9.5106	1.2	5.e-002	-5.5641e-007
16198	9.8083	1.2	0.	-14.548
16199	9.7091	1.1	0.	-13.801
16200	9.7091	1.2	5.e-002	-3.4155e-007
16201	10.007	1.2	0.	-12.299
16202	9.9076	1.1	0.	-11.633
16203	9.9076	1.2	5.e-002	-2.0839e-007
16204	10.205	1.2	0.	-10.212
16205	10.106	1.1	0.	-9.6171
16206	10.106	1.2	5.e-002	-1.3115e-007
16207	10.404	1.2	0.	-8.2755
16208	10.305	1.1	0.	-7.7448
16209	10.305	1.2	5.e-002	3.4128e-007
16210	10.602	1.2	0.	-6.4806
16211	10.503	1.1	0.	-6.007
16212	10.503	1.2	5.e-002	3.8887e-008
16213	10.801	1.2	0.	-4.8169
16214	10.702	1.1	0.	-4.3943
16215	10.702	1.2	5.e-002	-8.8569e-008
16216	10.999	1.2	0.	-3.2751
16217	10.9	1.1	0.	-2.8987
16218	10.9	1.2	5.e-002	-2.3329e-007
16219	11.198	1.2	0.	-1.8478
16220	11.098	1.1	0.	-1.514
16221	11.098	1.2	5.e-002	9.9756e-009
16222	11.396	1.2	0.	-0.5444
16223	11.297	1.1	0.	-0.27844
16224	11.297	1.2	5.e-002	1.0842e-007
16225	11.595	1.2	0.	-2.467e-002
16226	11.495	1.1	0.	-1.7818e-002
16227	11.495	1.2	5.e-002	9.1742e-008
16228	11.793	1.2	0.	-8.9504e-003
16229	11.694	1.1	0.	-8.0241e-003
16230	11.694	1.2	5.e-002	8.4534e-007
16231	11.992	1.2	0.	-5.2511e-003
16232	11.892	1.1	0.	-5.1522e-003
16233	11.892	1.2	5.e-002	1.6917e-006
16234	12.19	1.2	0.	-3.6674e-003
16235	12.091	1.1	0.	-3.8485e-003
16236	12.091	1.2	5.e-002	1.6088e-006
16237	12.389	1.2	0.	-2.8047e-003
16238	12.289	1.1	0.	-3.1512e-003
16239	12.289	1.2	5.e-002	2.7557e-006
16240	12.587	1.2	0.	-2.2608e-003
16241	12.488	1.1	0.	-2.6972e-003
16242	12.488	1.2	5.e-002	2.9436e-006
16243	12.786	1.2	0.	-1.9001e-003
16244	12.686	1.1	0.	-2.3999e-003
16245	12.686	1.2	5.e-002	4.7212e-006
16246	12.984	1.2	0.	-1.6505e-003
16247	12.885	1.1	0.	-2.1997e-003
16248	12.885	1.2	5.e-002	3.8634e-006
16249	13.183	1.2	0.	-1.4562e-003
16250	13.083	1.1	0.	-2.0631e-003
16251	13.083	1.2	5.e-002	3.672e-006
16252	13.381	1.2	0.	-1.2938e-003
16253	13.282	1.1	0.	-1.9345e-003
16254	13.282	1.2	5.e-002	3.4031e-006
16255	13.58	1.2	0.	-1.1665e-003
16256	13.48	1.1	0.	-1.8394e-003
16257	13.48	1.2	5.e-002	3.3532e-006
16258	13.778	1.2	0.	-1.0653e-003
16259	13.679	1.1	0.	-1.7669e-003
16260	13.679	1.2	5.e-002	3.4086e-006
16261	13.977	1.2	0.	-9.6678e-004
16262	13.877	1.1	0.	-1.713e-003
16263	13.877	1.2	5.e-002	3.3727e-006
16264	14.175	1.2	0.	-8.7482e-004
16265	14.076	1.1	0.	-1.6385e-003
16266	14.076	1.2	5.e-002	3.2498e-006
16267	14.373	1.2	0.	-8.1131e-004
16268	14.274	1.1	0.	-1.5925e-003
16269	14.274	1.2	5.e-002	3.5064e-006
16270	14.572	1.2	0.	-7.4825e-004
16271	14.473	1.1	0.	-1.571e-003
16272	14.473	1.2	5.e-002	3.8933e-006
16273	14.77	1.2	0.	-6.7658e-004
16274	14.671	1.1	0.	-1.5233e-003
16275	14.671	1.2	5.e-002	3.0325e-006
16276	14.969	1.2	0.	-6.1044e-004
16277	14.87	1.1	0.	-1.4823e-003
16278	14.87	1.2	5.e-002	4.4539e-006
16279	15.167	1.2	0.	-5.4942e-004
16280	15.068	1.1	0.	-1.4459e-003
16281	15.068	1.2	5.e-002	4.5342e-006
16282	15.366	1.2	0.	-4.794e-004
16283	15.267	1.1	0.	-1.4149e-003
16284	15.267	1.2	5.e-002	3.6447e-006
16285	15.564	1.2	0.	-3.979e-004
16286	15.465	1.1	0.	-1.359e-003
16287	15.465	1.2	5.e-002	5.3304e-006
16288	15.763	1.2	0.	-3.1915e-004
16289	15.664	1.1	0.	-1.3072e-003
16290	15.664	1.2	5.e-002	6.0889e-006
16291	15.961	1.2	0.	-2.4058e-004
16292	15.862	1.1	0.	-1.2575e-003
16293	15.862	1.2	5.e-002	5.9684e-006
16294	16.16	1.2	0.	-1.4814e-004
16295	16.061	1.1	0.	-1.2087e-003
16296	16.061	1.2	5.e-002	6.8163e-006
16297	16.358	1.2	0.	-5.0236e-005
16298	16.259	1.1	0.	-1.1334e-003
16299	16.259	1.2	5.e-002	8.2172e-006
16300	16.557	1.2	0.	3.6924e-005
16301	16.458	1.1	0.	-1.0716e-003
16302	16.458	1.2	5.e-002	6.895e-006
16303	16.755	1.2	0.	1.3523e-004
16304	16.656	1.1	0.	-1.0225e-003
16305	16.656	1.2	5.e-002	6.4684e-006
16306	16.954	1.2	0.	2.4929e-004
16307	16.855	1.1	0.	-9.4386e-004
16308	16.855	1.2	5.e-002	7.9215e-006
16309	17.152	1.2	0.	3.6861e-004
16310	17.053	1.1	0.	-8.6519e-004
16311	17.053	1.2	5.e-002	6.8541e-006
16312	17.351	1.2	0.	4.9336e-004
16313	17.252	1.1	0.	-7.8184e-004
16314	17.252	1.2	5.e-002	8.1782e-006
16315	17.549	1.2	0.	6.3393e-004
16316	17.45	1.1	0.	-6.9506e-004
16317	17.45	1.2	5.e-002	6.9542e-006
16318	17.748	1.2	0.	7.9446e-004
16319	17.648	1.1	0.	-5.8227e-004
16320	17.648	1.2	5.e-002	7.244e-006
16321	17.946	1.2	0.	9.6605e-004
16322	17.847	1.1	0.	-4.6311e-004
16323	17.847	1.2	5.e-002	7.607e-006
16324	18.145	1.2	0.	1.1498e-003
16325	18.045	1.1	0.	-3.3481e-004
16326	18.045	1.2	5.e-002	7.985e-006
16327	18.343	1.2	0.	1.3563e-003
16328	18.244	1.1	0.	-1.9551e-004
16329	18.244	1.2	5.e-002	7.1454e-006
16330	18.542	1.2	0.	1.5867e-003
16331	18.442	1.1	0.	-2.8815e-005
16332	18.442	1.2	5.e-002	8.5334e-006
16333	18.74	1.2	0.	1.8311e-003
16334	18.641	1.1	0.	1.4767e-004
16335	18.641	1.2	5.e-002	8.2992e-006
16336	18.939	1.2	0.	2.1026e-003
16337	18.839	1.1	0.	3.3295e-004
16338	18.839	1.2	5.e-002	1.2398e-005
16339	19.137	1.2	0.	2.4103e-003
16340	19.038	1.1	0.	5.5718e-004
16341	19.038	1.2	5.e-002	1.5271e-005
16342	19.336	1.2	0.	2.7511e-003
16343	19.236	1.1	0.	8.0621e-004
16344	19.236	1.2	5.e-002	1.4252e-005
16345	19.534	1.2	0.	3.1341e-003
16346	19.435	1.1	0.	1.086e-003
16347	19.435	1.2	5.e-002	1.1019e-005
16348	19.733	1.2	0.	3.5744e-003
16349	19.633	1.1	0.	1.4084e-003
16350	19.633	1.2	5.e-002	1.2993e-005
16351	19.931	1.2	0.	4.0789e-003
16352	19.832	1.1	0.	1.7865e-003
16353	19.832	1.2	5.e-002	1.4348e-005
16354	20.13	1.2	0.	4.6542e-003
16355	20.03	1.1	0.	2.2221e-003
16356	20.03	1.2	5.e-002	1.1795e-005
16357	20.328	1.2	0.	5.3162e-003
16358	20.229	1.1	0.	2.7255e-003
16359	20.229	1.2	5.e-002	1.3579e-005
16360	20.527	1.2	0.	6.0883e-003
16361	20.427	1.1	0.	3.3153e-003
16362	20.427	1.2	5.e-002	1.609e-005
16363	20.725	1.2	0.	6.9941e-003
16364	20.626	1.1	0.	4.0223e-003
16365	20.626	1.2	5.e-002	1.9795e-005
16366	20.923	1.2	0.	8.0573e-003
16367	20.824	1.1	0.	4.8577e-003
16368	20.824	1.2	5.e-002	1.7852e-005
16369	21.122	1.2	0.	9.3249e-003
16370	21.023	1.1	0.	5.8529e-003
16371	21.023	1.2	5.e-002	1.6479e-005
16372	21.32	1.2	0.	1.0856e-002
16373	21.221	1.1	0.	7.0721e-003
16374	21.221	1.2	5.e-002	1.8481e-005
16375	21.519	1.2	0.	1.2719e-002
16376	21.42	1.1	0.	8.5642e-003
16377	21.42	1.2	5.e-002	1.4759e-005
16378	21.717	1.2	0.	1.5013e-002
16379	21.618	1.1	0.	1.0414e-002
16380	21.618	1.2	5.e-002	1.337e-005
16381	21.916	1.2	0.	1.7882e-002
16382	21.817	1.1	0.	1.2734e-002
16383	21.817	1.2	5.e-002	1.411e-005
16384	22.114	1.2	0.	2.1521e-002
16385	22.015	1.1	0.	1.5699e-002
16386	22.015	1.2	5.e-002	1.8772e-005
16387	22.313	1.2	0.	2.6237e-002
16388	22.214	1.1	0.	1.9522e-002
16389	22.214	1.2	5.e-002	1.6321e-005
16390	22.511	1.2	0.	3.241e-002
16391	22.412	1.1	0.	2.4605e-002
16392	22.412	1.2	5.e-002	1.2203e-005
16393	22.71	1.2	0.	4.1041e-002
16394	22.611	1.1	0.	3.1323e-002
16395	22.611	1.2	5.e-002	1.1735e-005
16396	22.908	1.2	0.	5.2307e-002
16397	22.809	1.1	0.	4.1334e-002
16398	22.809	1.2	5.e-002	1.5081e-005
16399	23.107	1.2	0.	7.2873e-002
16400	23.008	1.1	0.	5.3432e-002
16401	23.008	1.2	5.e-002	1.5978e-005
16402	23.305	1.2	0.	9.0749e-002
16403	23.206	1.1	0.	8.2359e-002
16404	23.206	1.2	5.e-002	7.3379e-006
16405	23.504	1.2	0.	0.18707
16406	23.405	1.1	0.	9.0601e-002
16407	23.405	1.2	5.e-002	9.0871e-006
16408	23.702	1.2	0.	0.13562
16409	23.603	1.1	0.	0.28137
16410	23.603	1.2	5.e-002	7.4008e-006
16411	23.802	1.1	0.	3.7475e-002
16412	23.802	1.2	5.e-002	1.5312e-005
16413	23.901	1.2	0.	0.27374
16414	2.4644	1.	0.	-6.8596
16415	2.3652	0.9	0.	-12.671
16416	2.3652	1.	5.e-002	-5.4402e-005
16417	2.2659	1.	0.	-2.0543
16418	2.6629	1.	0.	-1.1729
16419	2.5636	0.9	0.	0.20936
16420	2.5636	1.	5.e-002	-1.01e-004
16421	2.8614	1.	0.	-2.468
16422	2.7621	0.9	0.	-2.8372
16423	2.7621	1.	5.e-002	-1.3397e-004
16424	3.0598	1.	0.	-1.97
16425	2.9606	0.9	0.	-1.803
16426	2.9606	1.	5.e-002	-1.5556e-004
16427	3.2583	1.	0.	-1.952
16428	3.1591	0.9	0.	-1.7787
16429	3.1591	1.	5.e-002	-1.6011e-004
16430	3.4568	1.	0.	-1.8619
16431	3.3576	0.9	0.	-1.5516
16432	3.3576	1.	5.e-002	-1.5738e-004
16433	3.6553	1.	0.	-1.8731
16434	3.5561	0.9	0.	-1.4335
16435	3.5561	1.	5.e-002	-1.839e-004
16436	3.8538	1.	0.	-2.0188
16437	3.7545	0.9	0.	-1.3677
16438	3.7545	1.	5.e-002	-1.5508e-004
16439	4.0523	1.	0.	-2.5016
16440	3.953	0.9	0.	-1.399
16441	3.953	1.	5.e-002	-1.0552e-004
16442	4.2508	1.	0.	-4.2912
16443	4.1515	0.9	0.	-1.6143
16444	4.1515	1.	5.e-002	-2.5057e-004
16445	4.4492	1.	0.	-12.901
16446	4.35	0.9	0.	-2.4194
16447	4.35	1.	5.e-002	-2.5165e-004
16448	4.6477	1.	0.	-27.844
16449	4.5485	0.9	0.	-6.8936
16450	4.5485	1.	5.e-002	-2.41e-004
16451	4.8462	1.	0.	-40.785
16452	4.747	0.9	0.	-19.376
16453	4.747	1.	5.e-002	-9.5877e-005
16454	5.0447	1.	0.	-50.638
16455	4.9455	0.9	0.	-31.378
16456	4.9455	1.	5.e-002	-7.0132e-005
16457	5.2432	1.	0.	-57.673
16458	5.1439	0.9	0.	-40.672
16459	5.1439	1.	5.e-002	-5.0203e-005
16460	5.4417	1.	0.	-62.3
16461	5.3424	0.9	0.	-47.39
16462	5.3424	1.	5.e-002	-8.7595e-005
16463	5.6402	1.	0.	-64.923
16464	5.5409	0.9	0.	-51.887
16465	5.5409	1.	5.e-002	-6.7319e-006
16466	5.8386	1.	0.	-65.911
16467	5.7394	0.9	0.	-54.529
16468	5.7394	1.	5.e-002	-1.8462e-005
16469	6.0371	1.	0.	-65.591
16470	5.9379	0.9	0.	-55.658
16471	5.9379	1.	5.e-002	-1.5772e-005
16472	6.2356	1.	0.	-64.246
16473	6.1364	0.9	0.	-55.576
16474	6.1364	1.	5.e-002	-2.885e-005
16475	6.4341	1.	0.	-62.119
16476	6.3348	0.9	0.	-54.545
16477	6.3348	1.	5.e-002	-1.1998e-005
16478	6.6326	1.	0.	-59.416
16479	6.5333	0.9	0.	-52.79
16480	6.5333	1.	5.e-002	-1.3631e-005
16481	6.8311	1.	0.	-56.306
16482	6.7318	0.9	0.	-50.501
16483	6.7318	1.	5.e-002	-5.4353e-006
16484	7.0295	1.	0.	-52.928
16485	6.9303	0.9	0.	-47.831
16486	6.9303	1.	5.e-002	-8.4398e-006
16487	7.228	1.	0.	-49.395
16488	7.1288	0.9	0.	-44.91
16489	7.1288	1.	5.e-002	-7.3054e-006
16490	7.4265	1.	0.	-45.793
16491	7.3273	0.9	0.	-41.84
16492	7.3273	1.	5.e-002	-7.3271e-006
16493	7.625	1.	0.	-42.195
16494	7.5258	0.9	0.	-38.701
16495	7.5258	1.	5.e-002	-6.9682e-006
16496	7.8235	1.	0.	-38.651
16497	7.7242	0.9	0.	-35.556
16498	7.7242	1.	5.e-002	-4.4983e-006
16499	8.022	1.	0.	-35.201
16500	7.9227	0.9	0.	-32.454
16501	7.9227	1.	5.e-002	-3.704e-006
16502	8.2205	1.	0.	-31.874
16503	8.1212	0.9	0.	-29.43
16504	8.1212	1.	5.e-002	-3.0654e-006
16505	8.4189	1.	0.	-28.69
16506	8.3197	0.9	0.	-26.511
16507	8.3197	1.	5.e-002	-2.6969e-006
16508	8.6174	1.	0.	-25.66
16509	8.5182	0.9	0.	-23.713
16510	8.5182	1.	5.e-002	-2.041e-006
16511	8.8159	1.	0.	-22.792
16512	8.7167	0.9	0.	-21.05
16513	8.7167	1.	5.e-002	-9.8132e-007
16514	9.0144	1.	0.	-20.087
16515	8.9152	0.9	0.	-18.526
16516	8.9152	1.	5.e-002	-5.6618e-007
16517	9.2129	1.	0.	-17.547
16518	9.1136	0.9	0.	-16.146
16519	9.1136	1.	5.e-002	-7.3058e-007
16520	9.4114	1.	0.	-15.166
16521	9.3121	0.9	0.	-13.907
16522	9.3121	1.	5.e-002	-2.0899e-007
16523	9.6098	1.	0.	-12.941
16524	9.5106	0.9	0.	-11.808
16525	9.5106	1.	5.e-002	-1.2299e-007
16526	9.8083	1.	0.	-10.864
16527	9.7091	0.9	0.	-9.844
16528	9.7091	1.	5.e-002	-7.7132e-007
16529	10.007	1.	0.	-8.9289
16530	9.9076	0.9	0.	-8.0099
16531	9.9076	1.	5.e-002	-3.6937e-007
16532	10.205	1.	0.	-7.128
16533	10.106	0.9	0.	-6.2996
16534	10.106	1.	5.e-002	-1.4017e-007
16535	10.404	1.	0.	-5.4534
16536	10.305	0.9	0.	-4.7063
16537	10.305	1.	5.e-002	2.604e-007
16538	10.602	1.	0.	-3.8972
16539	10.503	0.9	0.	-3.2238
16540	10.503	1.	5.e-002	-7.2677e-007
16541	10.801	1.	0.	-2.4523
16542	10.702	0.9	0.	-1.846
16543	10.702	1.	5.e-002	-2.4187e-007
16544	10.999	1.	0.	-1.1155
16545	10.9	0.9	0.	-0.57905
16546	10.9	1.	5.e-002	-2.0148e-007
16547	11.198	1.	0.	-7.687e-002
16548	11.098	0.9	0.	-2.2636e-002
16549	11.098	1.	5.e-002	-4.968e-007
16550	11.396	1.	0.	-1.2606e-002
16551	11.297	0.9	0.	-8.4074e-003
16552	11.297	1.	5.e-002	-3.7414e-007
16553	11.595	1.	0.	-6.8141e-003
16554	11.495	0.9	0.	-5.4246e-003
16555	11.495	1.	5.e-002	-8.7714e-007
16556	11.793	1.	0.	-4.8051e-003
16557	11.694	0.9	0.	-4.256e-003
16558	11.694	1.	5.e-002	-1.8494e-008
16559	11.992	1.	0.	-3.8308e-003
16560	11.892	0.9	0.	-3.656e-003
16561	11.892	1.	5.e-002	1.3922e-006
16562	12.19	1.	0.	-3.3086e-003
16563	12.091	0.9	0.	-3.3535e-003
16564	12.091	1.	5.e-002	1.499e-006
16565	12.389	1.	0.	-2.9943e-003
16566	12.289	0.9	0.	-3.2179e-003
16567	12.289	1.	5.e-002	2.3339e-006
16568	12.587	1.	0.	-2.7832e-003
16569	12.488	0.9	0.	-3.126e-003
16570	12.488	1.	5.e-002	2.576e-006
16571	12.786	1.	0.	-2.6499e-003
16572	12.686	0.9	0.	-3.0884e-003
16573	12.686	1.	5.e-002	4.7536e-006
16574	12.984	1.	0.	-2.5684e-003
16575	12.885	0.9	0.	-3.0865e-003
16576	12.885	1.	5.e-002	4.2747e-006
16577	13.183	1.	0.	-2.5039e-003
16578	13.083	0.9	0.	-3.1097e-003
16579	13.083	1.	5.e-002	3.804e-006
16580	13.381	1.	0.	-2.4487e-003
16581	13.282	0.9	0.	-3.1149e-003
16582	13.282	1.	5.e-002	3.0939e-006
16583	13.58	1.	0.	-2.4141e-003
16584	13.48	0.9	0.	-3.1356e-003
16585	13.48	1.	5.e-002	2.9351e-006
16586	13.778	1.	0.	-2.3943e-003
16587	13.679	0.9	0.	-3.166e-003
16588	13.679	1.	5.e-002	2.7827e-006
16589	13.977	1.	0.	-2.3694e-003
16590	13.877	0.9	0.	-3.2057e-003
16591	13.877	1.	5.e-002	2.957e-006
16592	14.175	1.	0.	-2.3455e-003
16593	14.076	0.9	0.	-3.2177e-003
16594	14.076	1.	5.e-002	2.5845e-006
16595	14.373	1.	0.	-2.3458e-003
16596	14.274	0.9	0.	-3.2528e-003
16597	14.274	1.	5.e-002	3.0236e-006
16598	14.572	1.	0.	-2.3438e-003
16599	14.473	0.9	0.	-3.3087e-003
16600	14.473	1.	5.e-002	2.6452e-006
16601	14.77	1.	0.	-2.3307e-003
16602	14.671	0.9	0.	-3.3361e-003
16603	14.671	1.	5.e-002	8.0159e-007
16604	14.969	1.	0.	-2.3232e-003
16605	14.87	0.9	0.	-3.3686e-003
16606	14.87	1.	5.e-002	1.522e-006
16607	15.167	1.	0.	-2.3205e-003
16608	15.068	0.9	0.	-3.4055e-003
16609	15.068	1.	5.e-002	2.7861e-006
16610	15.366	1.	0.	-2.3072e-003
16611	15.267	0.9	0.	-3.4459e-003
16612	15.267	1.	5.e-002	3.7321e-006
16613	15.564	1.	0.	-2.2847e-003
16614	15.465	0.9	0.	-3.4615e-003
16615	15.465	1.	5.e-002	4.9116e-006
16616	15.763	1.	0.	-2.2656e-003
16617	15.664	0.9	0.	-3.4838e-003
16618	15.664	1.	5.e-002	5.8644e-006
16619	15.961	1.	0.	-2.2493e-003
16620	15.862	0.9	0.	-3.5078e-003
16621	15.862	1.	5.e-002	7.0662e-006
16622	16.16	1.	0.	-2.2214e-003
16623	16.061	0.9	0.	-3.5372e-003
16624	16.061	1.	5.e-002	6.3266e-006
16625	16.358	1.	0.	-2.1862e-003
16626	16.259	0.9	0.	-3.5428e-003
16627	16.259	1.	5.e-002	6.8038e-006
16628	16.557	1.	0.	-2.1666e-003
16629	16.458	0.9	0.	-3.5644e-003
16630	16.458	1.	5.e-002	5.9054e-006
16631	16.755	1.	0.	-2.1416e-003
16632	16.656	0.9	0.	-3.6024e-003
16633	16.656	1.	5.e-002	4.4008e-006
16634	16.954	1.	0.	-2.1031e-003
16635	16.855	0.9	0.	-3.6162e-003
16636	16.855	1.	5.e-002	5.6052e-006
16637	17.152	1.	0.	-2.0655e-003
16638	17.053	0.9	0.	-3.6352e-003
16639	17.053	1.	5.e-002	7.8716e-006
16640	17.351	1.	0.	-2.0256e-003
16641	17.252	0.9	0.	-3.6564e-003
16642	17.252	1.	5.e-002	9.7351e-006
16643	17.549	1.	0.	-1.9726e-003
16644	17.45	0.9	0.	-3.6779e-003
16645	17.45	1.	5.e-002	8.5235e-006
16646	17.748	1.	0.	-1.9076e-003
16647	17.648	0.9	0.	-3.6817e-003
16648	17.648	1.	5.e-002	7.9266e-006
16649	17.946	1.	0.	-1.8389e-003
16650	17.847	0.9	0.	-3.6875e-003
16651	17.847	1.	5.e-002	8.6194e-006
16652	18.145	1.	0.	-1.7629e-003
16653	18.045	0.9	0.	-3.6946e-003
16654	18.045	1.	5.e-002	8.2287e-006
16655	18.343	1.	0.	-1.672e-003
16656	18.244	0.9	0.	-3.7006e-003
16657	18.244	1.	5.e-002	8.8447e-006
16658	18.542	1.	0.	-1.5686e-003
16659	18.442	0.9	0.	-3.6868e-003
16660	18.442	1.	5.e-002	9.6224e-006
16661	18.74	1.	0.	-1.4618e-003
16662	18.641	0.9	0.	-3.6784e-003
16663	18.641	1.	5.e-002	7.2491e-006
16664	18.939	1.	0.	-1.3353e-003
16665	18.839	0.9	0.	-3.6759e-003
16666	18.839	1.	5.e-002	9.5001e-006
16667	19.137	1.	0.	-1.1827e-003
16668	19.038	0.9	0.	-3.6452e-003
16669	19.038	1.	5.e-002	1.1484e-005
16670	19.336	1.	0.	-1.0092e-003
16671	19.236	0.9	0.	-3.6067e-003
16672	19.236	1.	5.e-002	1.1802e-005
16673	19.534	1.	0.	-8.0605e-004
16674	19.435	0.9	0.	-3.5556e-003
16675	19.435	1.	5.e-002	1.0291e-005
16676	19.733	1.	0.	-5.6377e-004
16677	19.633	0.9	0.	-3.4843e-003
16678	19.633	1.	5.e-002	1.2341e-005
16679	19.931	1.	0.	-2.7487e-004
16680	19.832	0.9	0.	-3.3764e-003
16681	19.832	1.	5.e-002	1.4107e-005
16682	20.13	1.	0.	6.5938e-005
16683	20.03	0.9	0.	-3.2376e-003
16684	20.03	1.	5.e-002	1.213e-005
16685	20.328	1.	0.	4.7112e-004
16686	20.229	0.9	0.	-3.0598e-003
16687	20.229	1.	5.e-002	1.1572e-005
16688	20.527	1.	0.	9.662e-004
16689	20.427	0.9	0.	-2.8255e-003
16690	20.427	1.	5.e-002	1.4791e-005
16691	20.725	1.	0.	1.5688e-003
16692	20.626	0.9	0.	-2.5083e-003
16693	20.626	1.	5.e-002	1.9076e-005
16694	20.923	1.	0.	2.2969e-003
16695	20.824	0.9	0.	-2.1037e-003
16696	20.824	1.	5.e-002	1.8224e-005
16697	21.122	1.	0.	3.198e-003
16698	21.023	0.9	0.	-1.5851e-003
16699	21.023	1.	5.e-002	1.7417e-005
16700	21.32	1.	0.	4.3241e-003
16701	21.221	0.9	0.	-8.9014e-004
16702	21.221	1.	5.e-002	2.0396e-005
16703	21.519	1.	0.	5.7379e-003
16704	21.42	0.9	0.	1.6944e-005
16705	21.42	1.	5.e-002	1.5945e-005
16706	21.717	1.	0.	7.5355e-003
16707	21.618	0.9	0.	1.2143e-003
16708	21.618	1.	5.e-002	1.5593e-005
16709	21.916	1.	0.	9.8532e-003
16710	21.817	0.9	0.	2.8072e-003
16711	21.817	1.	5.e-002	1.3694e-005
16712	22.114	1.	0.	1.2876e-002
16713	22.015	0.9	0.	4.9515e-003
16714	22.015	1.	5.e-002	1.6566e-005
16715	22.313	1.	0.	1.69e-002
16716	22.214	0.9	0.	7.8487e-003
16717	22.214	1.	5.e-002	1.1239e-005
16718	22.511	1.	0.	2.2292e-002
16719	22.412	0.9	0.	1.188e-002
16720	22.412	1.	5.e-002	6.6881e-006
16721	22.71	1.	0.	3.0029e-002
16722	22.611	0.9	0.	1.7391e-002
16723	22.611	1.	5.e-002	1.2036e-005
16724	22.908	1.	0.	4.0261e-002
16725	22.809	0.9	0.	2.5988e-002
16726	22.809	1.	5.e-002	1.5661e-005
16727	23.107	1.	0.	5.9519e-002
16728	23.008	0.9	0.	3.6409e-002
16729	23.008	1.	5.e-002	1.3757e-005
16730	23.305	1.	0.	7.5902e-002
16731	23.206	0.9	0.	6.3118e-002
16732	23.206	1.	5.e-002	7.5837e-006
16733	23.504	1.	0.	0.1691
16734	23.405	0.9	0.	6.8943e-002
16735	23.405	1.	5.e-002	6.5166e-006
16736	23.702	1.	0.	0.11153
16737	23.603	0.9	0.	0.25266
16738	23.603	1.	5.e-002	6.2832e-006
16739	23.802	0.9	0.	-4.212e-003
16740	23.802	1.	5.e-002	1.3925e-005
16741	23.901	1.	0.	0.26461
16742	2.4644	0.8	0.	-6.348
16743	2.3652	0.7	0.	-12.004
16744	2.3652	0.8	5.e-002	-2.0668e-014
16745	2.2659	0.8	0.	0.67719
16746	2.6629	0.8	0.	-1.5969
16747	2.5636	0.7	0.	-1.0036
16748	2.5636	0.8	5.e-002	-5.72e-005
16749	2.8614	0.8	0.	-2.2097
16750	2.7621	0.7	0.	-2.8131
16751	2.7621	0.8	5.e-002	-7.7955e-005
16752	3.0598	0.8	0.	-1.6104
16753	2.9606	0.7	0.	-1.5875
16754	2.9606	0.8	5.e-002	-9.4255e-005
16755	3.2583	0.8	0.	-1.3827
16756	3.1591	0.7	0.	-1.2863
16757	3.1591	0.8	5.e-002	-9.8043e-005
16758	3.4568	0.8	0.	-1.1609
16759	3.3576	0.7	0.	-0.96572
16760	3.3576	0.8	5.e-002	-1.0017e-004
16761	3.6553	0.8	0.	-1.0201
16762	3.5561	0.7	0.	-0.78821
16763	3.5561	0.8	5.e-002	-9.5249e-005
16764	3.8538	0.8	0.	-0.93051
16765	3.7545	0.7	0.	-0.66466
16766	3.7545	0.8	5.e-002	-1.1452e-004
16767	4.0523	0.8	0.	-0.90365
16768	3.953	0.7	0.	-0.5933
16769	3.953	0.8	5.e-002	-1.3027e-004
16770	4.2508	0.8	0.	-0.96829
16771	4.1515	0.7	0.	-0.56722
16772	4.1515	0.8	5.e-002	-1.4502e-004
16773	4.4492	0.8	0.	-1.2493
16774	4.35	0.7	0.	-0.60074
16775	4.35	0.8	5.e-002	-1.7056e-004
16776	4.6477	0.8	0.	-2.5812
16777	4.5485	0.7	0.	-0.75936
16778	4.5485	0.8	5.e-002	-1.3203e-004
16779	4.8462	0.8	0.	-10.398
16780	4.747	0.7	0.	-1.4652
16781	4.747	0.8	5.e-002	-2.3976e-004
16782	5.0447	0.8	0.	-21.459
16783	4.9455	0.7	0.	-6.9039
16784	4.9455	0.8	5.e-002	-1.3753e-004
16785	5.2432	0.8	0.	-30.385
16786	5.1439	0.7	0.	-16.546
16787	5.1439	0.8	5.e-002	-1.283e-004
16788	5.4417	0.8	0.	-36.96
16789	5.3424	0.7	0.	-24.401
16790	5.3424	0.8	5.e-002	-5.8068e-005
16791	5.6402	0.8	0.	-41.473
16792	5.5409	0.7	0.	-30.166
16793	5.5409	0.8	5.e-002	-5.683e-005
16794	5.8386	0.8	0.	-44.257
16795	5.7394	0.7	0.	-34.107
16796	5.7394	0.8	5.e-002	-4.0093e-005
16797	6.0371	0.8	0.	-45.625
16798	5.9379	0.7	0.	-36.525
16799	5.9379	0.8	5.e-002	-4.3687e-006
16800	6.2356	0.8	0.	-45.858
16801	6.1364	0.7	0.	-37.704
16802	6.1364	0.8	5.e-002	-1.7325e-005
16803	6.4341	0.8	0.	-45.201
16804	6.3348	0.7	0.	-37.893
16805	6.3348	0.8	5.e-002	-5.6025e-006
16806	6.6326	0.8	0.	-43.86
16807	6.5333	0.7	0.	-37.309
16808	6.5333	0.8	5.e-002	-1.255e-005
16809	6.8311	0.8	0.	-42.012
16810	6.7318	0.7	0.	-36.135
16811	6.7318	0.8	5.e-002	-1.1814e-005
16812	7.0295	0.8	0.	-39.8
16813	6.9303	0.7	0.	-34.523
16814	6.9303	0.8	5.e-002	-9.1254e-006
16815	7.228	0.8	0.	-37.342
16816	7.1288	0.7	0.	-32.6
16817	7.1288	0.8	5.e-002	-6.9834e-006
16818	7.4265	0.8	0.	-34.733
16819	7.3273	0.7	0.	-30.467
16820	7.3273	0.8	5.e-002	-8.5429e-006
16821	7.625	0.8	0.	-32.047
16822	7.5258	0.7	0.	-28.206
16823	7.5258	0.8	5.e-002	-6.2641e-006
16824	7.8235	0.8	0.	-29.344
16825	7.7242	0.7	0.	-25.882
16826	7.7242	0.8	5.e-002	-5.1906e-006
16827	8.022	0.8	0.	-26.667
16828	7.9227	0.7	0.	-23.543
16829	7.9227	0.8	5.e-002	-4.7687e-006
16830	8.2205	0.8	0.	-24.05
16831	8.1212	0.7	0.	-21.229
16832	8.1212	0.8	5.e-002	-2.6449e-006
16833	8.4189	0.8	0.	-21.517
16834	8.3197	0.7	0.	-18.968
16835	8.3197	0.8	5.e-002	-2.1372e-006
16836	8.6174	0.8	0.	-19.086
16837	8.5182	0.7	0.	-16.779
16838	8.5182	0.8	5.e-002	-5.8267e-007
16839	8.8159	0.8	0.	-16.766
16840	8.7167	0.7	0.	-14.678
16841	8.7167	0.8	5.e-002	-4.6935e-007
16842	9.0144	0.8	0.	-14.566
16843	8.9152	0.7	0.	-12.674
16844	8.9152	0.8	5.e-002	-4.8031e-007
16845	9.2129	0.8	0.	-12.486
16846	9.1136	0.7	0.	-10.772
16847	9.1136	0.8	5.e-002	-1.8406e-007
16848	9.4114	0.8	0.	-10.528
16849	9.3121	0.7	0.	-8.9738
16850	9.3121	0.8	5.e-002	-1.2423e-006
16851	9.6098	0.8	0.	-8.6902
16852	9.5106	0.7	0.	-7.2799
16853	9.5106	0.8	5.e-002	-6.9364e-007
16854	9.8083	0.8	0.	-6.9682
16855	9.7091	0.7	0.	-5.6885
16856	9.7091	0.8	5.e-002	-5.9535e-007
16857	10.007	0.8	0.	-5.3582
16858	9.9076	0.7	0.	-4.1967
16859	9.9076	0.8	5.e-002	1.151e-007
16860	10.205	0.8	0.	-3.8549
16861	10.106	0.7	0.	-2.8008
16862	10.106	0.8	5.e-002	3.9029e-007
16863	10.404	0.8	0.	-2.4534
16864	10.305	0.7	0.	-1.4972
16865	10.305	0.8	5.e-002	9.1647e-007
16866	10.602	0.8	0.	-1.1505
16867	10.503	0.7	0.	-0.29912
16868	10.503	0.8	5.e-002	8.0324e-007
16869	10.801	0.8	0.	-7.7382e-002
16870	10.702	0.7	0.	-9.0473e-003
16871	10.702	0.8	5.e-002	-1.567e-007
16872	10.999	0.8	0.	-9.5719e-003
16873	10.9	0.7	0.	-4.369e-003
16874	10.9	0.8	5.e-002	7.9307e-008
16875	11.198	0.8	0.	-5.3012e-003
16876	11.098	0.7	0.	-3.3089e-003
16877	11.098	0.8	5.e-002	5.2227e-007
16878	11.396	0.8	0.	-4.0212e-003
16879	11.297	0.7	0.	-2.9888e-003
16880	11.297	0.8	5.e-002	-5.9418e-008
16881	11.595	0.8	0.	-3.521e-003
16882	11.495	0.7	0.	-2.9311e-003
16883	11.495	0.8	5.e-002	-1.3227e-006
16884	11.793	0.8	0.	-3.3079e-003
16885	11.694	0.7	0.	-2.9911e-003
16886	11.694	0.8	5.e-002	-1.1401e-006
16887	11.992	0.8	0.	-3.2326e-003
16888	11.892	0.7	0.	-3.0656e-003
16889	11.892	0.8	5.e-002	8.5514e-007
16890	12.19	0.8	0.	-3.2593e-003
16891	12.091	0.7	0.	-3.194e-003
16892	12.091	0.8	5.e-002	1.5427e-006
16893	12.389	0.8	0.	-3.3223e-003
16894	12.289	0.7	0.	-3.3604e-003
16895	12.289	0.8	5.e-002	3.6071e-006
16896	12.587	0.8	0.	-3.3945e-003
16897	12.488	0.7	0.	-3.4948e-003
16898	12.488	0.8	5.e-002	4.5592e-006
16899	12.786	0.8	0.	-3.4856e-003
16900	12.686	0.7	0.	-3.6372e-003
16901	12.686	0.8	5.e-002	6.0968e-006
16902	12.984	0.8	0.	-3.589e-003
16903	12.885	0.7	0.	-3.781e-003
16904	12.885	0.8	5.e-002	5.7155e-006
16905	13.183	0.8	0.	-3.6844e-003
16906	13.083	0.7	0.	-3.9272e-003
16907	13.083	0.8	5.e-002	5.319e-006
16908	13.381	0.8	0.	-3.7687e-003
16909	13.282	0.7	0.	-4.0395e-003
16910	13.282	0.8	5.e-002	3.8538e-006
16911	13.58	0.8	0.	-3.8581e-003
16912	13.48	0.7	0.	-4.1546e-003
16913	13.48	0.8	5.e-002	2.9965e-006
16914	13.778	0.8	0.	-3.9519e-003
16915	13.679	0.7	0.	-4.2716e-003
16916	13.679	0.8	5.e-002	2.4125e-006
16917	13.977	0.8	0.	-4.0322e-003
16918	13.877	0.7	0.	-4.3899e-003
16919	13.877	0.8	5.e-002	2.7383e-006
16920	14.175	0.8	0.	-4.1069e-003
16921	14.076	0.7	0.	-4.4758e-003
16922	14.076	0.8	5.e-002	2.6738e-006
16923	14.373	0.8	0.	-4.2012e-003
16924	14.274	0.7	0.	-4.5781e-003
16925	14.274	0.8	5.e-002	2.7261e-006
16926	14.572	0.8	0.	-4.2902e-003
16927	14.473	0.7	0.	-4.6995e-003
16928	14.473	0.8	5.e-002	2.0476e-006
16929	14.77	0.8	0.	-4.3668e-003
16930	14.671	0.7	0.	-4.7923e-003
16931	14.671	0.8	5.e-002	-2.0201e-007
16932	14.969	0.8	0.	-4.4472e-003
16933	14.87	0.7	0.	-4.887e-003
16934	14.87	0.8	5.e-002	-7.058e-007
16935	15.167	0.8	0.	-4.5306e-003
16936	15.068	0.7	0.	-4.985e-003
16937	15.068	0.8	5.e-002	2.0706e-006
16938	15.366	0.8	0.	-4.6033e-003
16939	15.267	0.7	0.	-5.0869e-003
16940	15.267	0.8	5.e-002	4.5079e-006
16941	15.564	0.8	0.	-4.6673e-003
16942	15.465	0.7	0.	-5.165e-003
16943	15.465	0.8	5.e-002	5.7648e-006
16944	15.763	0.8	0.	-4.7362e-003
16945	15.664	0.7	0.	-5.2518e-003
16946	15.664	0.8	5.e-002	5.622e-006
16947	15.961	0.8	0.	-4.8096e-003
16948	15.862	0.7	0.	-5.3412e-003
16949	15.862	0.8	5.e-002	8.5577e-006
16950	16.16	0.8	0.	-4.8764e-003
16951	16.061	0.7	0.	-5.4372e-003
16952	16.061	0.8	5.e-002	8.6714e-006
16953	16.358	0.8	0.	-4.9429e-003
16954	16.259	0.7	0.	-5.5165e-003
16955	16.259	0.8	5.e-002	7.6233e-006
16956	16.557	0.8	0.	-5.0264e-003
16957	16.458	0.7	0.	-5.6119e-003
16958	16.458	0.8	5.e-002	4.79e-006
16959	16.755	0.8	0.	-5.1079e-003
16960	16.656	0.7	0.	-5.7283e-003
16961	16.656	0.8	5.e-002	3.0653e-006
16962	16.954	0.8	0.	-5.1842e-003
16963	16.855	0.7	0.	-5.8244e-003
16964	16.855	0.8	5.e-002	5.6596e-006
16965	17.152	0.8	0.	-5.2675e-003
16966	17.053	0.7	0.	-5.9334e-003
16967	17.053	0.8	5.e-002	7.6024e-006
16968	17.351	0.8	0.	-5.356e-003
16969	17.252	0.7	0.	-6.0481e-003
16970	17.252	0.8	5.e-002	1.1222e-005
16971	17.549	0.8	0.	-5.441e-003
16972	17.45	0.7	0.	-6.1708e-003
16973	17.45	0.8	5.e-002	1.111e-005
16974	17.748	0.8	0.	-5.5228e-003
16975	17.648	0.7	0.	-6.2831e-003
16976	17.648	0.8	5.e-002	7.8545e-006
16977	17.946	0.8	0.	-5.6125e-003
16978	17.847	0.7	0.	-6.4047e-003
16979	17.847	0.8	5.e-002	8.8509e-006
16980	18.145	0.8	0.	-5.7106e-003
16981	18.045	0.7	0.	-6.5381e-003
16982	18.045	0.8	5.e-002	9.6836e-006
16983	18.343	0.8	0.	-5.8037e-003
16984	18.244	0.7	0.	-6.6839e-003
16985	18.244	0.8	5.e-002	1.0025e-005
16986	18.542	0.8	0.	-5.896e-003
16987	18.442	0.7	0.	-6.8172e-003
16988	18.442	0.8	5.e-002	1.1213e-005
16989	18.74	0.8	0.	-6.0045e-003
16990	18.641	0.7	0.	-6.9722e-003
16991	18.641	0.8	5.e-002	7.9572e-006
16992	18.939	0.8	0.	-6.1119e-003
16993	18.839	0.7	0.	-7.1479e-003
16994	18.839	0.8	5.e-002	7.6424e-006
16995	19.137	0.8	0.	-6.2112e-003
16996	19.038	0.7	0.	-7.311e-003
16997	19.038	0.8	5.e-002	6.8079e-006
16998	19.336	0.8	0.	-6.313e-003
16999	19.236	0.7	0.	-7.4832e-003
17000	19.236	0.8	5.e-002	7.4028e-006
17001	19.534	0.8	0.	-6.414e-003
17002	19.435	0.7	0.	-7.6636e-003
17003	19.435	0.8	5.e-002	8.8787e-006
17004	19.733	0.8	0.	-6.5001e-003
17005	19.633	0.7	0.	-7.8516e-003
17006	19.633	0.8	5.e-002	1.2178e-005
17007	19.931	0.8	0.	-6.5685e-003
17008	19.832	0.7	0.	-8.0261e-003
17009	19.832	0.8	5.e-002	1.7333e-005
17010	20.13	0.8	0.	-6.6226e-003
17011	20.03	0.7	0.	-8.1991e-003
17012	20.03	0.8	5.e-002	1.3939e-005
17013	20.328	0.8	0.	-6.6499e-003
17014	20.229	0.7	0.	-8.3702e-003
17015	20.229	0.8	5.e-002	1.2956e-005
17016	20.527	0.8	0.	-6.6329e-003
17017	20.427	0.7	0.	-8.5226e-003
17018	20.427	0.8	5.e-002	1.5201e-005
17019	20.725	0.8	0.	-6.5595e-003
17020	20.626	0.7	0.	-8.6369e-003
17021	20.626	0.8	5.e-002	1.7182e-005
17022	20.923	0.8	0.	-6.4178e-003
17023	20.824	0.7	0.	-8.7144e-003
17024	20.824	0.8	5.e-002	1.8658e-005
17025	21.122	0.8	0.	-6.1679e-003
17026	21.023	0.7	0.	-8.7398e-003
17027	21.023	0.8	5.e-002	2.1098e-005
17028	21.32	0.8	0.	-5.7663e-003
17029	21.221	0.7	0.	-8.6594e-003
17030	21.221	0.8	5.e-002	2.4482e-005
17031	21.519	0.8	0.	-5.1647e-003
17032	21.42	0.7	0.	-8.4473e-003
17033	21.42	0.8	5.e-002	1.9786e-005
17034	21.717	0.8	0.	-4.2801e-003
17035	21.618	0.7	0.	-8.044e-003
17036	21.618	0.8	5.e-002	2.1586e-005
17037	21.916	0.8	0.	-2.9942e-003
17038	21.817	0.7	0.	-7.3629e-003
17039	21.817	0.8	5.e-002	1.8016e-005
17040	22.114	0.8	0.	-1.1448e-003
17041	22.015	0.7	0.	-6.267e-003
17042	22.015	0.8	5.e-002	1.3941e-005
17043	22.313	0.8	0.	1.5391e-003
17044	22.214	0.7	0.	-4.5878e-003
17045	22.214	0.8	5.e-002	5.3566e-006
17046	22.511	0.8	0.	5.3904e-003
17047	22.412	0.7	0.	-1.977e-003
17048	22.412	0.8	5.e-002	6.2684e-006
17049	22.71	0.8	0.	1.1328e-002
17050	22.611	0.7	0.	1.8672e-003
17051	22.611	0.8	5.e-002	1.713e-005
17052	22.908	0.8	0.	1.9425e-002
17053	22.809	0.7	0.	8.4495e-003
17054	22.809	0.8	5.e-002	1.7186e-005
17055	23.107	0.8	0.	3.6036e-002
17056	23.008	0.7	0.	1.648e-002
17057	23.008	0.8	5.e-002	1.6856e-005
17058	23.305	0.8	0.	4.9304e-002
17059	23.206	0.7	0.	3.9978e-002
17060	23.206	0.8	5.e-002	1.0697e-005
17061	23.504	0.8	0.	0.13652
17062	23.405	0.7	0.	4.1255e-002
17063	23.405	0.8	5.e-002	1.3642e-005
17064	23.702	0.8	0.	6.8767e-002
17065	23.603	0.7	0.	0.21734
17066	23.603	0.8	5.e-002	1.2491e-005
17067	23.802	0.7	0.	-5.3823e-002
17068	23.802	0.8	5.e-002	1.5178e-005
17069	23.901	0.8	0.	0.24082
17070	2.4644	0.6	0.	-7.9385
17071	2.3652	0.5	0.	-13.53
17072	2.3652	0.6	5.e-002	-1.9717e-006
17073	2.2659	0.6	0.	0.34703
17074	2.6629	0.6	0.	-2.544
17075	2.5636	0.5	0.	-2.7098
17076	2.5636	0.6	5.e-002	-3.5266e-005
17077	2.8614	0.6	0.	-2.2479
17078	2.7621	0.5	0.	-3.1712
17079	2.7621	0.6	5.e-002	-4.7397e-005
17080	3.0598	0.6	0.	-1.2483
17081	2.9606	0.5	0.	-1.3869
17082	2.9606	0.6	5.e-002	-4.715e-005
17083	3.2583	0.6	0.	-0.86066
17084	3.1591	0.5	0.	-0.91301
17085	3.1591	0.6	5.e-002	-5.5351e-005
17086	3.4568	0.6	0.	-0.60755
17087	3.3576	0.5	0.	-0.6013
17088	3.3576	0.6	5.e-002	-5.3899e-005
17089	3.6553	0.6	0.	-0.46947
17090	3.5561	0.5	0.	-0.46253
17091	3.5561	0.6	5.e-002	-5.9725e-005
17092	3.8538	0.6	0.	-0.38406
17093	3.7545	0.5	0.	-0.37234
17094	3.7545	0.6	5.e-002	-5.5573e-005
17095	4.0523	0.6	0.	-0.33615
17096	3.953	0.5	0.	-0.31307
17097	3.953	0.6	5.e-002	-5.4248e-005
17098	4.2508	0.6	0.	-0.31734
17099	4.1515	0.5	0.	-0.2716
17100	4.1515	0.6	5.e-002	-7.0114e-005
17101	4.4492	0.6	0.	-0.33125
17102	4.35	0.5	0.	-0.24686
17103	4.35	0.6	5.e-002	-9.2054e-005
17104	4.6477	0.6	0.	-0.40276
17105	4.5485	0.5	0.	-0.2429
17106	4.5485	0.6	5.e-002	-1.3743e-004
17107	4.8462	0.6	0.	-0.66561
17108	4.747	0.5	0.	-0.27738
17109	4.747	0.6	5.e-002	-2.3948e-004
17110	5.0447	0.6	0.	-2.8063
17111	4.9455	0.5	0.	-0.43893
17112	4.9455	0.6	5.e-002	-2.157e-004
17113	5.2432	0.6	0.	-10.591
17114	5.1439	0.5	0.	-1.991
17115	5.1439	0.6	5.e-002	-5.2374e-005
17116	5.4417	0.6	0.	-17.595
17117	5.3424	0.5	0.	-8.3374
17118	5.3424	0.6	5.e-002	-2.7022e-005
17119	5.6402	0.6	0.	-22.781
17120	5.5409	0.5	0.	-13.955
17121	5.5409	0.6	5.e-002	-1.6954e-005
17122	5.8386	0.6	0.	-26.355
17123	5.7394	0.5	0.	-18.048
17124	5.7394	0.6	5.e-002	-2.0689e-005
17125	6.0371	0.6	0.	-28.585
17126	5.9379	0.5	0.	-20.814
17127	5.9379	0.6	5.e-002	-1.734e-005
17128	6.2356	0.6	0.	-29.721
17129	6.1364	0.5	0.	-22.483
17130	6.1364	0.6	5.e-002	-1.4674e-005
17131	6.4341	0.6	0.	-29.984
17132	6.3348	0.5	0.	-23.266
17133	6.3348	0.6	5.e-002	-1.247e-005
17134	6.6326	0.6	0.	-29.567
17135	6.5333	0.5	0.	-23.348
17136	6.5333	0.6	5.e-002	-1.3523e-005
17137	6.8311	0.6	0.	-28.63
17138	6.7318	0.5	0.	-22.887
17139	6.7318	0.6	5.e-002	-8.9236e-006
17140	7.0295	0.6	0.	-27.308
17141	6.9303	0.5	0.	-22.014
17142	6.9303	0.6	5.e-002	-3.047e-006
17143	7.228	0.6	0.	-25.71
17144	7.1288	0.5	0.	-20.837
17145	7.1288	0.6	5.e-002	-6.6895e-006
17146	7.4265	0.6	0.	-23.925
17147	7.3273	0.5	0.	-19.446
17148	7.3273	0.6	5.e-002	-4.3399e-006
17149	7.625	0.6	0.	-22.025
17150	7.5258	0.5	0.	-17.912
17151	7.5258	0.6	5.e-002	-5.4358e-006
17152	7.8235	0.6	0.	-20.065
17153	7.7242	0.5	0.	-16.292
17154	7.7242	0.6	5.e-002	-5.5131e-006
17155	8.022	0.6	0.	-18.089
17156	7.9227	0.5	0.	-14.63
17157	7.9227	0.6	5.e-002	-2.9363e-006
17158	8.2205	0.6	0.	-16.129
17159	8.1212	0.5	0.	-12.961
17160	8.1212	0.6	5.e-002	-2.8419e-006
17161	8.4189	0.6	0.	-14.211
17162	8.3197	0.5	0.	-11.31
17163	8.3197	0.6	5.e-002	-2.4087e-006
17164	8.6174	0.6	0.	-12.353
17165	8.5182	0.5	0.	-9.6969
17166	8.5182	0.6	5.e-002	-1.0783e-006
17167	8.8159	0.6	0.	-10.567
17168	8.7167	0.5	0.	-8.1359
17169	8.7167	0.6	5.e-002	1.1584e-006
17170	9.0144	0.6	0.	-8.8604
17171	8.9152	0.5	0.	-6.6362
17172	8.9152	0.6	5.e-002	5.4614e-007
17173	9.2129	0.6	0.	-7.2387
17174	9.1136	0.5	0.	-5.2041
17175	9.1136	0.6	5.e-002	-4.8455e-007
17176	9.4114	0.6	0.	-5.704
17177	9.3121	0.5	0.	-3.8429
17178	9.3121	0.6	5.e-002	-1.528e-006
17179	9.6098	0.6	0.	-4.2562
17180	9.5106	0.5	0.	-2.5539
17181	9.5106	0.6	5.e-002	-8.4276e-007
17182	9.8083	0.6	0.	-2.8943
17183	9.7091	0.5	0.	-1.3371
17184	9.7091	0.6	5.e-002	3.0982e-007
17185	10.007	0.6	0.	-1.616
17186	9.9076	0.5	0.	-0.19153
17187	9.9076	0.6	5.e-002	9.4768e-008
17188	10.205	0.6	0.	-0.42301
17189	10.106	0.5	0.	5.5754e-003
17190	10.106	0.6	5.e-002	3.6808e-007
17191	10.404	0.6	0.	-4.681e-003
17192	10.305	0.5	0.	4.3944e-003
17193	10.305	0.6	5.e-002	1.7346e-006
17194	10.602	0.6	0.	-2.1203e-003
17195	10.503	0.5	0.	3.2454e-003
17196	10.503	0.6	5.e-002	2.0299e-006
17197	10.801	0.6	0.	-1.8508e-003
17198	10.702	0.5	0.	2.1712e-003
17199	10.702	0.6	5.e-002	-4.3036e-007
17200	10.999	0.6	0.	-1.9414e-003
17201	10.9	0.5	0.	1.1646e-003
17202	10.9	0.6	5.e-002	1.3402e-007
17203	11.198	0.6	0.	-2.1284e-003
17204	11.098	0.5	0.	2.6962e-004
17205	11.098	0.6	5.e-002	1.5616e-006
17206	11.396	0.6	0.	-2.3602e-003
17207	11.297	0.5	0.	-5.6561e-004
17208	11.297	0.6	5.e-002	-1.3807e-007
17209	11.595	0.6	0.	-2.6085e-003
17210	11.495	0.5	0.	-1.3449e-003
17211	11.495	0.6	5.e-002	-1.8539e-006
17212	11.793	0.6	0.	-2.8389e-003
17213	11.694	0.5	0.	-2.0733e-003
17214	11.694	0.6	5.e-002	-1.8326e-006
17215	11.992	0.6	0.	-3.0569e-003
17216	11.892	0.5	0.	-2.7116e-003
17217	11.892	0.6	5.e-002	7.1963e-007
17218	12.19	0.6	0.	-3.2922e-003
17219	12.091	0.5	0.	-3.3302e-003
17220	12.091	0.6	5.e-002	1.4244e-006
17221	12.389	0.6	0.	-3.5118e-003
17222	12.289	0.5	0.	-3.9314e-003
17223	12.289	0.6	5.e-002	2.9758e-006
17224	12.587	0.6	0.	-3.7063e-003
17225	12.488	0.5	0.	-4.4572e-003
17226	12.488	0.6	5.e-002	6.0953e-006
17227	12.786	0.6	0.	-3.8962e-003
17228	12.686	0.5	0.	-4.9553e-003
17229	12.686	0.6	5.e-002	7.8388e-006
17230	12.984	0.6	0.	-4.0806e-003
17231	12.885	0.5	0.	-5.4244e-003
17232	12.885	0.6	5.e-002	5.049e-006
17233	13.183	0.6	0.	-4.2435e-003
17234	13.083	0.5	0.	-5.8708e-003
17235	13.083	0.6	5.e-002	4.9683e-006
17236	13.381	0.6	0.	-4.3873e-003
17237	13.282	0.5	0.	-6.2641e-003
17238	13.282	0.6	5.e-002	4.6189e-006
17239	13.58	0.6	0.	-4.5314e-003
17240	13.48	0.5	0.	-6.6407e-003
17241	13.48	0.6	5.e-002	3.7741e-006
17242	13.778	0.6	0.	-4.675e-003
17243	13.679	0.5	0.	-7.0042e-003
17244	13.679	0.6	5.e-002	1.1384e-006
17245	13.977	0.6	0.	-4.8012e-003
17246	13.877	0.5	0.	-7.357e-003
17247	13.877	0.6	5.e-002	2.0184e-006
17248	14.175	0.6	0.	-4.9171e-003
17249	14.076	0.5	0.	-7.6653e-003
17250	14.076	0.6	5.e-002	2.8607e-006
17251	14.373	0.6	0.	-5.0492e-003
17252	14.274	0.5	0.	-7.9822e-003
17253	14.274	0.6	5.e-002	2.7585e-006
17254	14.572	0.6	0.	-5.1771e-003
17255	14.473	0.5	0.	-8.3109e-003
17256	14.473	0.6	5.e-002	2.7371e-006
17257	14.77	0.6	0.	-5.2907e-003
17258	14.671	0.5	0.	-8.6063e-003
17259	14.671	0.6	5.e-002	-9.3991e-007
17260	14.969	0.6	0.	-5.4057e-003
17261	14.87	0.5	0.	-8.8996e-003
17262	14.87	0.6	5.e-002	-1.5774e-006
17263	15.167	0.6	0.	-5.525e-003
17264	15.068	0.5	0.	-9.1942e-003
17265	15.068	0.6	5.e-002	1.8841e-006
17266	15.366	0.6	0.	-5.6352e-003
17267	15.267	0.5	0.	-9.4933e-003
17268	15.267	0.6	5.e-002	4.0988e-006
17269	15.564	0.6	0.	-5.7391e-003
17270	15.465	0.5	0.	-9.7705e-003
17271	15.465	0.6	5.e-002	5.0804e-006
17272	15.763	0.6	0.	-5.8495e-003
17273	15.664	0.5	0.	-1.0059e-002
17274	15.664	0.6	5.e-002	6.112e-006
17275	15.961	0.6	0.	-5.9648e-003
17276	15.862	0.5	0.	-1.0355e-002
17277	15.862	0.6	5.e-002	7.0557e-006
17278	16.16	0.6	0.	-6.0767e-003
17279	16.061	0.5	0.	-1.0664e-002
17280	16.061	0.6	5.e-002	8.9232e-006
17281	16.358	0.6	0.	-6.1886e-003
17282	16.259	0.5	0.	-1.0963e-002
17283	16.259	0.6	5.e-002	7.6033e-006
17284	16.557	0.6	0.	-6.3209e-003
17285	16.458	0.5	0.	-1.1288e-002
17286	16.458	0.6	5.e-002	3.7993e-006
17287	16.755	0.6	0.	-6.4563e-003
17288	16.656	0.5	0.	-1.1647e-002
17289	16.656	0.6	5.e-002	2.2128e-006
17290	16.954	0.6	0.	-6.5899e-003
17291	16.855	0.5	0.	-1.1999e-002
17292	16.855	0.6	5.e-002	5.485e-006
17293	17.152	0.6	0.	-6.7356e-003
17294	17.053	0.5	0.	-1.2379e-002
17295	17.053	0.6	5.e-002	7.3266e-006
17296	17.351	0.6	0.	-6.8904e-003
17297	17.252	0.5	0.	-1.2783e-002
17298	17.252	0.6	5.e-002	1.2033e-005
17299	17.549	0.6	0.	-7.047e-003
17300	17.45	0.5	0.	-1.3214e-002
17301	17.45	0.6	5.e-002	1.1778e-005
17302	17.748	0.6	0.	-7.2066e-003
17303	17.648	0.5	0.	-1.3662e-002
17304	17.648	0.6	5.e-002	5.3937e-006
17305	17.946	0.6	0.	-7.3803e-003
17306	17.847	0.5	0.	-1.4141e-002
17307	17.847	0.6	5.e-002	5.0963e-006
17308	18.145	0.6	0.	-7.5709e-003
17309	18.045	0.5	0.	-1.4661e-002
17310	18.045	0.6	5.e-002	9.4179e-006
17311	18.343	0.6	0.	-7.7676e-003
17312	18.244	0.5	0.	-1.5227e-002
17313	18.244	0.6	5.e-002	1.0282e-005
17314	18.542	0.6	0.	-7.9759e-003
17315	18.442	0.5	0.	-1.5817e-002
17316	18.442	0.6	5.e-002	1.0304e-005
17317	18.74	0.6	0.	-8.2121e-003
17318	18.641	0.5	0.	-1.647e-002
17319	18.641	0.6	5.e-002	7.6011e-006
17320	18.939	0.6	0.	-8.4596e-003
17321	18.839	0.5	0.	-1.7187e-002
17322	18.839	0.6	5.e-002	7.9512e-006
17323	19.137	0.6	0.	-8.7139e-003
17324	19.038	0.5	0.	-1.7944e-002
17325	19.038	0.6	5.e-002	3.606e-006
17326	19.336	0.6	0.	-8.9859e-003
17327	19.236	0.5	0.	-1.8767e-002
17328	19.236	0.6	5.e-002	4.0364e-006
17329	19.534	0.6	0.	-9.2777e-003
17330	19.435	0.5	0.	-1.9657e-002
17331	19.435	0.6	5.e-002	7.1681e-006
17332	19.733	0.6	0.	-9.5824e-003
17333	19.633	0.5	0.	-2.063e-002
17334	19.633	0.6	5.e-002	1.4084e-005
17335	19.931	0.6	0.	-9.8942e-003
17336	19.832	0.5	0.	-2.1669e-002
17337	19.832	0.6	5.e-002	1.632e-005
17338	20.13	0.6	0.	-1.0222e-002
17339	20.03	0.5	0.	-2.2797e-002
17340	20.03	0.6	5.e-002	1.2137e-005
17341	20.328	0.6	0.	-1.0563e-002
17342	20.229	0.5	0.	-2.4021e-002
17343	20.229	0.6	5.e-002	1.3246e-005
17344	20.527	0.6	0.	-1.0898e-002
17345	20.427	0.5	0.	-2.5346e-002
17346	20.427	0.6	5.e-002	1.4787e-005
17347	20.725	0.6	0.	-1.1225e-002
17348	20.626	0.5	0.	-2.6765e-002
17349	20.626	0.6	5.e-002	1.8295e-005
17350	20.923	0.6	0.	-1.1542e-002
17351	20.824	0.5	0.	-2.8301e-002
17352	20.824	0.6	5.e-002	1.7549e-005
17353	21.122	0.6	0.	-1.1824e-002
17354	21.023	0.5	0.	-2.9955e-002
17355	21.023	0.6	5.e-002	2.2873e-005
17356	21.32	0.6	0.	-1.2037e-002
17357	21.221	0.5	0.	-3.1715e-002
17358	21.221	0.6	5.e-002	2.4239e-005
17359	21.519	0.6	0.	-1.215e-002
17360	21.42	0.5	0.	-3.3584e-002
17361	21.42	0.6	5.e-002	2.1896e-005
17362	21.717	0.6	0.	-1.2107e-002
17363	21.618	0.5	0.	-3.5548e-002
17364	21.618	0.6	5.e-002	2.5251e-005
17365	21.916	0.6	0.	-1.181e-002
17366	21.817	0.5	0.	-3.7585e-002
17367	21.817	0.6	5.e-002	2.3098e-005
17368	22.114	0.6	0.	-1.1132e-002
17369	22.015	0.5	0.	-3.9629e-002
17370	22.015	0.6	5.e-002	1.2084e-005
17371	22.313	0.6	0.	-9.8471e-003
17372	22.214	0.5	0.	-4.161e-002
17373	22.214	0.6	5.e-002	6.655e-007
17374	22.511	0.6	0.	-7.6746e-003
17375	22.412	0.5	0.	-4.332e-002
17376	22.412	0.6	5.e-002	7.9628e-006
17377	22.71	0.6	0.	-3.7898e-003
17378	22.611	0.5	0.	-4.4632e-002
17379	22.611	0.6	5.e-002	1.9621e-005
17380	22.908	0.6	0.	1.8218e-003
17381	22.809	0.5	0.	-4.4351e-002
17382	22.809	0.6	5.e-002	2.3931e-005
17383	23.107	0.6	0.	1.5227e-002
17384	23.008	0.5	0.	-4.399e-002
17385	23.008	0.6	5.e-002	2.2486e-005
17386	23.305	0.6	0.	2.3648e-002
17387	23.206	0.5	0.	-3.1129e-002
17388	23.206	0.6	5.e-002	1.3813e-005
17389	23.504	0.6	0.	0.10492
17390	23.405	0.5	0.	-4.1294e-002
17391	23.405	0.6	5.e-002	1.9712e-005
17392	23.702	0.6	0.	2.9634e-002
17393	23.603	0.5	0.	0.10261
17394	23.603	0.6	5.e-002	1.583e-005
17395	23.802	0.5	0.	-0.21194
17396	23.802	0.6	5.e-002	5.0244e-006
17397	23.901	0.6	0.	0.23368
17398	2.4644	0.4	0.	-11.207
17399	2.3652	0.3	0.	-22.055
17400	2.3652	0.4	5.e-002	1.8876e-005
17401	2.2659	0.4	0.	2.4768
17402	2.6629	0.4	0.	-3.9075
17403	2.5636	0.3	0.	-6.1897
17404	2.5636	0.4	5.e-002	-8.5366e-006
17405	2.8614	0.4	0.	-2.264
17406	2.7621	0.3	0.	-3.4721
17407	2.7621	0.4	5.e-002	-2.7441e-005
17408	3.0598	0.4	0.	-0.97527
17409	2.9606	0.3	0.	-0.8131
17410	2.9606	0.4	5.e-002	-2.4142e-005
17411	3.2583	0.4	0.	-0.62534
17412	3.1591	0.3	0.	-0.19279
17413	3.1591	0.4	5.e-002	-2.1691e-005
17414	3.4568	0.4	0.	-0.46188
17415	3.3576	0.3	0.	5.0553e-002
17416	3.3576	0.4	5.e-002	-1.6487e-005
17417	3.6553	0.4	0.	-0.38958
17418	3.5561	0.3	0.	7.5772e-002
17419	3.5561	0.4	5.e-002	-1.1976e-005
17420	3.8538	0.4	0.	-0.33517
17421	3.7545	0.3	0.	5.8233e-002
17422	3.7545	0.4	5.e-002	-9.8339e-006
17423	4.0523	0.4	0.	-0.28764
17424	3.953	0.3	0.	3.1733e-002
17425	3.953	0.4	5.e-002	-7.9717e-006
17426	4.2508	0.4	0.	-0.2445
17427	4.1515	0.3	0.	1.1495e-002
17428	4.1515	0.4	5.e-002	-1.0199e-005
17429	4.4492	0.4	0.	-0.20859
17430	4.35	0.3	0.	-2.3484e-003
17431	4.35	0.4	5.e-002	-1.4875e-005
17432	4.6477	0.4	0.	-0.18437
17433	4.5485	0.3	0.	-1.2606e-002
17434	4.5485	0.4	5.e-002	-3.5752e-005
17435	4.8462	0.4	0.	-0.18123
17436	4.747	0.3	0.	-2.3927e-002
17437	4.747	0.4	5.e-002	-6.0427e-005
17438	5.0447	0.4	0.	-0.23358
17439	4.9455	0.3	0.	-4.4322e-002
17440	4.9455	0.4	5.e-002	-2.4537e-004
17441	5.2432	0.4	0.	-0.68916
17442	5.1439	0.3	0.	-0.1001
17443	5.1439	0.4	5.e-002	-7.9362e-005
17444	5.4417	0.4	0.	-4.7209
17445	5.3424	0.3	0.	-0.46508
17446	5.3424	0.4	5.e-002	-4.6989e-005
17447	5.6402	0.4	0.	-9.2107
17448	5.5409	0.3	0.	-3.3584
17449	5.5409	0.4	5.e-002	-2.8165e-005
17450	5.8386	0.4	0.	-12.491
17451	5.7394	0.3	0.	-6.3715
17452	5.7394	0.4	5.e-002	-1.303e-005
17453	6.0371	0.4	0.	-14.694
17454	5.9379	0.3	0.	-8.4992
17455	5.9379	0.4	5.e-002	-1.5641e-005
17456	6.2356	0.4	0.	-16.011
17457	6.1364	0.3	0.	-9.8552
17458	6.1364	0.4	5.e-002	-6.6243e-006
17459	6.4341	0.4	0.	-16.613
17460	6.3348	0.3	0.	-10.581
17461	6.3348	0.4	5.e-002	-6.1925e-006
17462	6.6326	0.4	0.	-16.651
17463	6.5333	0.3	0.	-10.803
17464	6.5333	0.4	5.e-002	-1.001e-005
17465	6.8311	0.4	0.	-16.254
17466	6.7318	0.3	0.	-10.632
17467	6.7318	0.4	5.e-002	-8.599e-006
17468	7.0295	0.4	0.	-15.527
17469	6.9303	0.3	0.	-10.158
17470	6.9303	0.4	5.e-002	-4.2524e-006
17471	7.228	0.4	0.	-14.557
17472	7.1288	0.3	0.	-9.4584
17473	7.1288	0.4	5.e-002	-6.0566e-006
17474	7.4265	0.4	0.	-13.417
17475	7.3273	0.3	0.	-8.5945
17476	7.3273	0.4	5.e-002	-5.2811e-006
17477	7.625	0.4	0.	-12.162
17478	7.5258	0.3	0.	-7.6172
17479	7.5258	0.4	5.e-002	-5.394e-006
17480	7.8235	0.4	0.	-10.84
17481	7.7242	0.3	0.	-6.5669
17482	7.7242	0.4	5.e-002	-2.3181e-006
17483	8.022	0.4	0.	-9.4838
17484	7.9227	0.3	0.	-5.4758
17485	7.9227	0.4	5.e-002	-3.9962e-006
17486	8.2205	0.4	0.	-8.1222
17487	8.1212	0.3	0.	-4.3691
17488	8.1212	0.4	5.e-002	-2.5527e-006
17489	8.4189	0.4	0.	-6.7757
17490	8.3197	0.3	0.	-3.2668
17491	8.3197	0.4	5.e-002	-1.464e-006
17492	8.6174	0.4	0.	-5.4596
17493	8.5182	0.3	0.	-2.1864
17494	8.5182	0.4	5.e-002	-7.5055e-007
17495	8.8159	0.4	0.	-4.1849
17496	8.7167	0.3	0.	-1.1507
17497	8.7167	0.4	5.e-002	-1.8775e-007
17498	9.0144	0.4	0.	-2.9592
17499	8.9152	0.3	0.	-0.28831
17500	8.9152	0.4	5.e-002	7.9098e-007
17501	9.2129	0.4	0.	-1.7876
17502	9.1136	0.3	0.	-5.3367e-002
17503	9.1136	0.4	5.e-002	1.2647e-007
17504	9.4114	0.4	0.	-0.67477
17505	9.3121	0.3	0.	-2.0854e-002
17506	9.3121	0.4	5.e-002	-1.3774e-007
17507	9.6098	0.4	0.	7.914e-003
17508	9.5106	0.3	0.	-1.0665e-002
17509	9.5106	0.4	5.e-002	-7.9961e-007
17510	9.8083	0.4	0.	1.2126e-002
17511	9.7091	0.3	0.	-6.2331e-003
17512	9.7091	0.4	5.e-002	5.5742e-007
17513	10.007	0.4	0.	1.0904e-002
17514	9.9076	0.3	0.	-4.0591e-003
17515	9.9076	0.4	5.e-002	8.6734e-007
17516	10.205	0.4	0.	9.2343e-003
17517	10.106	0.3	0.	-2.962e-003
17518	10.106	0.4	5.e-002	1.1883e-006
17519	10.404	0.4	0.	7.5282e-003
17520	10.305	0.3	0.	-2.4264e-003
17521	10.305	0.4	5.e-002	1.3014e-006
17522	10.602	0.4	0.	5.8771e-003
17523	10.503	0.3	0.	-2.2258e-003
17524	10.503	0.4	5.e-002	1.5251e-007
17525	10.801	0.4	0.	4.3095e-003
17526	10.702	0.3	0.	-2.2215e-003
17527	10.702	0.4	5.e-002	2.2448e-007
17528	10.999	0.4	0.	2.8531e-003
17529	10.9	0.3	0.	-2.3441e-003
17530	10.9	0.4	5.e-002	7.4146e-007
17531	11.198	0.4	0.	1.5088e-003
17532	11.098	0.3	0.	-2.502e-003
17533	11.098	0.4	5.e-002	2.0152e-006
17534	11.396	0.4	0.	2.5047e-004
17535	11.297	0.3	0.	-2.7105e-003
17536	11.297	0.4	5.e-002	2.1844e-006
17537	11.595	0.4	0.	-9.2572e-004
17538	11.495	0.3	0.	-2.949e-003
17539	11.495	0.4	5.e-002	8.4984e-007
17540	11.793	0.4	0.	-2.004e-003
17541	11.694	0.3	0.	-3.2051e-003
17542	11.694	0.4	5.e-002	2.4628e-007
17543	11.992	0.4	0.	-3.0011e-003
17544	11.892	0.3	0.	-3.4286e-003
17545	11.892	0.4	5.e-002	1.2298e-006
17546	12.19	0.4	0.	-3.9547e-003
17547	12.091	0.3	0.	-3.6765e-003
17548	12.091	0.4	5.e-002	1.1073e-006
17549	12.389	0.4	0.	-4.839e-003
17550	12.289	0.3	0.	-3.9457e-003
17551	12.289	0.4	5.e-002	2.4311e-006
17552	12.587	0.4	0.	-5.6506e-003
17553	12.488	0.3	0.	-4.1712e-003
17554	12.488	0.4	5.e-002	3.697e-006
17555	12.786	0.4	0.	-6.4142e-003
17556	12.686	0.3	0.	-4.3958e-003
17557	12.686	0.4	5.e-002	5.3342e-006
17558	12.984	0.4	0.	-7.1345e-003
17559	12.885	0.3	0.	-4.617e-003
17560	12.885	0.4	5.e-002	4.6092e-006
17561	13.183	0.4	0.	-7.8027e-003
17562	13.083	0.3	0.	-4.8359e-003
17563	13.083	0.4	5.e-002	4.1963e-006
17564	13.381	0.4	0.	-8.4217e-003
17565	13.282	0.3	0.	-5.0197e-003
17566	13.282	0.4	5.e-002	3.5269e-006
17567	13.58	0.4	0.	-9.0119e-003
17568	13.48	0.3	0.	-5.2013e-003
17569	13.48	0.4	5.e-002	4.3087e-006
17570	13.778	0.4	0.	-9.5797e-003
17571	13.679	0.3	0.	-5.3794e-003
17572	13.679	0.4	5.e-002	3.2733e-006
17573	13.977	0.4	0.	-1.011e-002
17574	13.877	0.3	0.	-5.5594e-003
17575	13.877	0.4	5.e-002	3.1285e-006
17576	14.175	0.4	0.	-1.0616e-002
17577	14.076	0.3	0.	-5.7048e-003
17578	14.076	0.4	5.e-002	3.6263e-006
17579	14.373	0.4	0.	-1.1127e-002
17580	14.274	0.3	0.	-5.8704e-003
17581	14.274	0.4	5.e-002	4.9002e-006
17582	14.572	0.4	0.	-1.162e-002
17583	14.473	0.3	0.	-6.0519e-003
17584	14.473	0.4	5.e-002	3.1516e-006
17585	14.77	0.4	0.	-1.2093e-002
17586	14.671	0.3	0.	-6.2046e-003
17587	14.671	0.4	5.e-002	7.9917e-007
17588	14.969	0.4	0.	-1.2563e-002
17589	14.87	0.3	0.	-6.3628e-003
17590	14.87	0.4	5.e-002	3.8449e-006
17591	15.167	0.4	0.	-1.3035e-002
17592	15.068	0.3	0.	-6.5256e-003
17593	15.068	0.4	5.e-002	5.5492e-006
17594	15.366	0.4	0.	-1.3499e-002
17595	15.267	0.3	0.	-6.6947e-003
17596	15.267	0.4	5.e-002	3.3224e-006
17597	15.564	0.4	0.	-1.3959e-002
17598	15.465	0.3	0.	-6.8452e-003
17599	15.465	0.4	5.e-002	3.1539e-006
17600	15.763	0.4	0.	-1.4431e-002
17601	15.664	0.3	0.	-7.0043e-003
17602	15.664	0.4	5.e-002	4.0333e-006
17603	15.961	0.4	0.	-1.4919e-002
17604	15.862	0.3	0.	-7.1742e-003
17605	15.862	0.4	5.e-002	3.4601e-006
17606	16.16	0.4	0.	-1.5413e-002
17607	16.061	0.3	0.	-7.3566e-003
17608	16.061	0.4	5.e-002	6.2429e-006
17609	16.358	0.4	0.	-1.5924e-002
17610	16.259	0.3	0.	-7.525e-003
17611	16.259	0.4	5.e-002	6.4388e-006
17612	16.557	0.4	0.	-1.6474e-002
17613	16.458	0.3	0.	-7.7244e-003
17614	16.458	0.4	5.e-002	5.0591e-006
17615	16.755	0.4	0.	-1.7048e-002
17616	16.656	0.3	0.	-7.9496e-003
17617	16.656	0.4	5.e-002	3.8273e-006
17618	16.954	0.4	0.	-1.7646e-002
17619	16.855	0.3	0.	-8.1699e-003
17620	16.855	0.4	5.e-002	6.9335e-006
17621	17.152	0.4	0.	-1.8283e-002
17622	17.053	0.3	0.	-8.4115e-003
17623	17.053	0.4	5.e-002	7.6824e-006
17624	17.351	0.4	0.	-1.8962e-002
17625	17.252	0.3	0.	-8.6732e-003
17626	17.252	0.4	5.e-002	9.5028e-006
17627	17.549	0.4	0.	-1.9684e-002
17628	17.45	0.3	0.	-8.9643e-003
17629	17.45	0.4	5.e-002	7.7177e-006
17630	17.748	0.4	0.	-2.0451e-002
17631	17.648	0.3	0.	-9.2691e-003
17632	17.648	0.4	5.e-002	4.5446e-006
17633	17.946	0.4	0.	-2.1277e-002
17634	17.847	0.3	0.	-9.6011e-003
17635	17.847	0.4	5.e-002	6.6282e-006
17636	18.145	0.4	0.	-2.2173e-002
17637	18.045	0.3	0.	-9.9716e-003
17638	18.045	0.4	5.e-002	9.0457e-006
17639	18.343	0.4	0.	-2.3135e-002
17640	18.244	0.3	0.	-1.0384e-002
17641	18.244	0.4	5.e-002	5.8508e-006
17642	18.542	0.4	0.	-2.4173e-002
17643	18.442	0.3	0.	-1.0824e-002
17644	18.442	0.4	5.e-002	7.5951e-006
17645	18.74	0.4	0.	-2.5311e-002
17646	18.641	0.3	0.	-1.1323e-002
17647	18.641	0.4	5.e-002	6.8655e-006
17648	18.939	0.4	0.	-2.6544e-002
17649	18.839	0.3	0.	-1.1889e-002
17650	18.839	0.4	5.e-002	6.8415e-006
17651	19.137	0.4	0.	-2.7877e-002
17652	19.038	0.3	0.	-1.2504e-002
17653	19.038	0.4	5.e-002	7.8084e-006
17654	19.336	0.4	0.	-2.9329e-002
17655	19.236	0.3	0.	-1.3197e-002
17656	19.236	0.4	5.e-002	8.4994e-006
17657	19.534	0.4	0.	-3.0914e-002
17658	19.435	0.3	0.	-1.3972e-002
17659	19.435	0.4	5.e-002	4.1032e-006
17660	19.733	0.4	0.	-3.2639e-002
17661	19.633	0.3	0.	-1.484e-002
17662	19.633	0.4	5.e-002	6.9792e-006
17663	19.931	0.4	0.	-3.4517e-002
17664	19.832	0.3	0.	-1.5806e-002
17665	19.832	0.4	5.e-002	1.0932e-005
17666	20.13	0.4	0.	-3.657e-002
17667	20.03	0.3	0.	-1.69e-002
17668	20.03	0.4	5.e-002	7.0165e-006
17669	20.328	0.4	0.	-3.8815e-002
17670	20.229	0.3	0.	-1.8131e-002
17671	20.229	0.4	5.e-002	9.994e-006
17672	20.527	0.4	0.	-4.1268e-002
17673	20.427	0.3	0.	-1.9527e-002
17674	20.427	0.4	5.e-002	1.4288e-005
17675	20.725	0.4	0.	-4.3952e-002
17676	20.626	0.3	0.	-2.1105e-002
17677	20.626	0.4	5.e-002	1.7827e-005
17678	20.923	0.4	0.	-4.6896e-002
17679	20.824	0.3	0.	-2.2908e-002
17680	20.824	0.4	5.e-002	1.6623e-005
17681	21.122	0.4	0.	-5.012e-002
17682	21.023	0.3	0.	-2.4964e-002
17683	21.023	0.4	5.e-002	1.6333e-005
17684	21.32	0.4	0.	-5.3652e-002
17685	21.221	0.3	0.	-2.7309e-002
17686	21.221	0.4	5.e-002	1.7574e-005
17687	21.519	0.4	0.	-5.752e-002
17688	21.42	0.3	0.	-3.0002e-002
17689	21.42	0.4	5.e-002	1.5631e-005
17690	21.717	0.4	0.	-6.1757e-002
17691	21.618	0.3	0.	-3.3097e-002
17692	21.618	0.4	5.e-002	1.5617e-005
17693	21.916	0.4	0.	-6.6387e-002
17694	21.817	0.3	0.	-3.668e-002
17695	21.817	0.4	5.e-002	1.4767e-005
17696	22.114	0.4	0.	-7.1426e-002
17697	22.015	0.3	0.	-4.082e-002
17698	22.015	0.4	5.e-002	8.7733e-006
17699	22.313	0.4	0.	-7.6858e-002
17700	22.214	0.3	0.	-4.5643e-002
17701	22.214	0.4	5.e-002	8.4403e-006
17702	22.511	0.4	0.	-8.2687e-002
17703	22.412	0.3	0.	-5.1231e-002
17704	22.412	0.4	5.e-002	1.512e-005
17705	22.71	0.4	0.	-8.8518e-002
17706	22.611	0.3	0.	-5.7843e-002
17707	22.611	0.4	5.e-002	1.8717e-005
17708	22.908	0.4	0.	-9.4869e-002
17709	22.809	0.3	0.	-6.503e-002
17710	22.809	0.4	5.e-002	1.9104e-005
17711	23.107	0.4	0.	-9.7281e-002
17712	23.008	0.3	0.	-7.4899e-002
17713	23.008	0.4	5.e-002	1.6434e-005
17714	23.305	0.4	0.	-0.1071
17715	23.206	0.3	0.	-7.8719e-002
17716	23.206	0.4	5.e-002	1.0461e-005
17717	23.504	0.4	0.	-6.443e-002
17718	23.405	0.3	0.	-0.10653
17719	23.405	0.4	5.e-002	2.6805e-005
17720	23.702	0.4	0.	-0.20383
17721	23.603	0.3	0.	-2.9996e-002
17722	23.603	0.4	5.e-002	6.7221e-006
17723	23.802	0.3	0.	-0.41105
17724	23.802	0.4	5.e-002	-1.8762e-006
17725	23.901	0.4	0.	2.1828e-002
17726	2.4644	0.2	0.	-21.694
17727	2.3652	0.2	5.e-002	1.6035e-006
17728	2.3652	0.1	0.	-21.647
17729	2.2659	0.2	0.	-1.6049
17730	2.6629	0.2	0.	-5.2531
17731	2.5636	0.2	5.e-002	1.2638e-006
17732	2.5636	0.1	0.	-1.1611
17733	2.8614	0.2	0.	-1.6027
17734	2.7621	0.2	5.e-002	-5.0518e-006
17735	2.7621	0.1	0.	-0.74641
17736	3.0598	0.2	0.	0.1545
17737	2.9606	0.2	5.e-002	-4.1451e-006
17738	2.9606	0.1	0.	0.36401
17739	3.2583	0.2	0.	0.54868
17740	3.1591	0.2	5.e-002	-3.5774e-006
17741	3.1591	0.1	0.	0.36917
17742	3.4568	0.2	0.	0.59219
17743	3.3576	0.2	5.e-002	7.5383e-008
17744	3.3576	0.1	0.	0.40724
17745	3.6553	0.2	0.	0.49348
17746	3.5561	0.2	5.e-002	3.1336e-006
17747	3.5561	0.1	0.	0.36449
17748	3.8538	0.2	0.	0.37745
17749	3.7545	0.2	5.e-002	5.5372e-006
17750	3.7545	0.1	0.	0.32086
17751	4.0523	0.2	0.	0.27653
17752	3.953	0.2	5.e-002	6.4273e-006
17753	3.953	0.1	0.	0.27469
17754	4.2508	0.2	0.	0.19954
17755	4.1515	0.2	5.e-002	5.9684e-006
17756	4.1515	0.1	0.	0.23338
17757	4.4492	0.2	0.	0.14336
17758	4.35	0.2	5.e-002	5.949e-006
17759	4.35	0.1	0.	0.19763
17760	4.6477	0.2	0.	0.10218
17761	4.5485	0.2	5.e-002	3.4864e-006
17762	4.5485	0.1	0.	0.16784
17763	4.8462	0.2	0.	6.9659e-002
17764	4.747	0.2	5.e-002	2.4302e-006
17765	4.747	0.1	0.	0.14356
17766	5.0447	0.2	0.	3.8662e-002
17767	4.9455	0.2	5.e-002	2.2112e-006
17768	4.9455	0.1	0.	0.12417
17769	5.2432	0.2	0.	-3.5236e-003
17770	5.1439	0.2	5.e-002	-4.6716e-006
17771	5.1439	0.1	0.	0.10896
17772	5.4417	0.2	0.	-0.10886
17773	5.3424	0.2	5.e-002	-1.0949e-004
17774	5.3424	0.1	0.	9.7214e-002
17775	5.6402	0.2	0.	-0.8005
17776	5.5409	0.2	5.e-002	-1.7384e-004
17777	5.5409	0.1	0.	8.7891e-002
17778	5.8386	0.2	0.	-2.4309
17779	5.7394	0.2	5.e-002	-7.7615e-005
17780	5.7394	0.1	0.	-0.20237
17781	6.0371	0.2	0.	-3.6786
17782	5.9379	0.2	5.e-002	-5.4674e-005
17783	5.9379	0.1	0.	-1.0744
17784	6.2356	0.2	0.	-4.4348
17785	6.1364	0.2	5.e-002	-2.2035e-005
17786	6.1364	0.1	0.	-1.6173
17787	6.4341	0.2	0.	-4.7781
17788	6.3348	0.2	5.e-002	-3.1118e-005
17789	6.3348	0.1	0.	-1.8925
17790	6.6326	0.2	0.	-4.7908
17791	6.5333	0.2	5.e-002	-3.6831e-005
17792	6.5333	0.1	0.	-1.9546
17793	6.8311	0.2	0.	-4.5454
17794	6.7318	0.2	5.e-002	-3.7022e-005
17795	6.7318	0.1	0.	-1.8509
17796	7.0295	0.2	0.	-4.1038
17797	6.9303	0.2	5.e-002	-2.5135e-005
17798	6.9303	0.1	0.	-1.6221
17799	7.228	0.2	0.	-3.5182
17800	7.1288	0.2	5.e-002	-3.4518e-005
17801	7.1288	0.1	0.	-1.3048
17802	7.4265	0.2	0.	-2.8333
17803	7.3273	0.2	5.e-002	-1.6405e-005
17804	7.3273	0.1	0.	-0.93693
17805	7.625	0.2	0.	-2.0907
17806	7.5258	0.2	5.e-002	-2.6896e-005
17807	7.5258	0.1	0.	-0.57227
17808	7.8235	0.2	0.	-1.3406
17809	7.7242	0.2	5.e-002	-2.335e-005
17810	7.7242	0.1	0.	-0.29903
17811	8.022	0.2	0.	-0.68428
17812	7.9227	0.2	5.e-002	-2.6032e-005
17813	7.9227	0.1	0.	-0.16065
17814	8.2205	0.2	0.	-0.30009
17815	8.1212	0.2	5.e-002	-2.2131e-005
17816	8.1212	0.1	0.	-9.8963e-002
17817	8.4189	0.2	0.	-0.15487
17818	8.3197	0.2	5.e-002	-2.0241e-005
17819	8.3197	0.1	0.	-6.7849e-002
17820	8.6174	0.2	0.	-9.609e-002
17821	8.5182	0.2	5.e-002	-1.3438e-005
17822	8.5182	0.1	0.	-4.9852e-002
17823	8.8159	0.2	0.	-6.6595e-002
17824	8.7167	0.2	5.e-002	-2.3665e-005
17825	8.7167	0.1	0.	-3.8345e-002
17826	9.0144	0.2	0.	-4.9376e-002
17827	8.9152	0.2	5.e-002	-1.93e-005
17828	8.9152	0.1	0.	-3.0457e-002
17829	9.2129	0.2	0.	-3.8268e-002
17830	9.1136	0.2	5.e-002	-1.7671e-005
17831	9.1136	0.1	0.	-2.4761e-002
17832	9.4114	0.2	0.	-3.0592e-002
17833	9.3121	0.2	5.e-002	-1.6035e-005
17834	9.3121	0.1	0.	-2.0486e-002
17835	9.6098	0.2	0.	-2.5012e-002
17836	9.5106	0.2	5.e-002	-1.4479e-005
17837	9.5106	0.1	0.	-1.7185e-002
17838	9.8083	0.2	0.	-2.0796e-002
17839	9.7091	0.2	5.e-002	-9.6108e-006
17840	9.7091	0.1	0.	-1.4563e-002
17841	10.007	0.2	0.	-1.7522e-002
17842	9.9076	0.2	5.e-002	-9.2002e-006
17843	9.9076	0.1	0.	-1.2455e-002
17844	10.205	0.2	0.	-1.4909e-002
17845	10.106	0.2	5.e-002	-7.0216e-006
17846	10.106	0.1	0.	-1.0735e-002
17847	10.404	0.2	0.	-1.2781e-002
17848	10.305	0.2	5.e-002	-4.1611e-006
17849	10.305	0.1	0.	-9.2957e-003
17850	10.602	0.2	0.	-1.1026e-002
17851	10.503	0.2	5.e-002	-4.7436e-006
17852	10.503	0.1	0.	-8.0972e-003
17853	10.801	0.2	0.	-9.5573e-003
17854	10.702	0.2	5.e-002	-1.2675e-006
17855	10.702	0.1	0.	-7.0818e-003
17856	10.999	0.2	0.	-8.2974e-003
17857	10.9	0.2	5.e-002	-1.5432e-006
17858	10.9	0.1	0.	-6.2252e-003
17859	11.198	0.2	0.	-7.2016e-003
17860	11.098	0.2	5.e-002	7.2706e-007
17861	11.098	0.1	0.	-5.4538e-003
17862	11.396	0.2	0.	-6.2566e-003
17863	11.297	0.2	5.e-002	1.844e-006
17864	11.297	0.1	0.	-4.7924e-003
17865	11.595	0.2	0.	-5.436e-003
17866	11.495	0.2	5.e-002	2.3971e-006
17867	11.495	0.1	0.	-4.2182e-003
17868	11.793	0.2	0.	-4.6988e-003
17869	11.694	0.2	5.e-002	1.8471e-006
17870	11.694	0.1	0.	-3.723e-003
17871	11.992	0.2	0.	-4.0387e-003
17872	11.892	0.2	5.e-002	1.988e-006
17873	11.892	0.1	0.	-3.2516e-003
17874	12.19	0.2	0.	-3.4736e-003
17875	12.091	0.2	5.e-002	1.881e-006
17876	12.091	0.1	0.	-2.8551e-003
17877	12.389	0.2	0.	-2.9622e-003
17878	12.289	0.2	5.e-002	3.5146e-006
17879	12.289	0.1	0.	-2.5268e-003
17880	12.587	0.2	0.	-2.4856e-003
17881	12.488	0.2	5.e-002	2.6755e-006
17882	12.488	0.1	0.	-2.2004e-003
17883	12.786	0.2	0.	-2.0595e-003
17884	12.686	0.2	5.e-002	4.0441e-006
17885	12.686	0.1	0.	-1.9094e-003
17886	12.984	0.2	0.	-1.6774e-003
17887	12.885	0.2	5.e-002	2.1178e-006
17888	12.885	0.1	0.	-1.6559e-003
17889	13.183	0.2	0.	-1.3159e-003
17890	13.083	0.2	5.e-002	1.9596e-006
17891	13.083	0.1	0.	-1.4299e-003
17892	13.381	0.2	0.	-9.716e-004
17893	13.282	0.2	5.e-002	2.5667e-006
17894	13.282	0.1	0.	-1.1928e-003
17895	13.58	0.2	0.	-6.552e-004
17896	13.48	0.2	5.e-002	1.7906e-006
17897	13.48	0.1	0.	-9.8045e-004
17898	13.778	0.2	0.	-3.6366e-004
17899	13.679	0.2	5.e-002	1.4327e-006
17900	13.679	0.1	0.	-7.8633e-004
17901	13.977	0.2	0.	-8.0046e-005
17902	13.877	0.2	5.e-002	2.4565e-006
17903	13.877	0.1	0.	-6.1062e-004
17904	14.175	0.2	0.	1.9004e-004
17905	14.076	0.2	5.e-002	1.4217e-007
17906	14.076	0.1	0.	-4.1662e-004
17907	14.373	0.2	0.	4.2622e-004
17908	14.274	0.2	5.e-002	7.2823e-007
17909	14.274	0.1	0.	-2.5328e-004
17910	14.572	0.2	0.	6.5621e-004
17911	14.473	0.2	5.e-002	-1.5732e-006
17912	14.473	0.1	0.	-1.1611e-004
17913	14.77	0.2	0.	8.874e-004
17914	14.671	0.2	5.e-002	-3.9304e-006
17915	14.671	0.1	0.	4.5302e-005
17916	14.969	0.2	0.	1.1057e-003
17917	14.87	0.2	5.e-002	2.0553e-006
17918	14.87	0.1	0.	1.9542e-004
17919	15.167	0.2	0.	1.3146e-003
17920	15.068	0.2	5.e-002	-1.7211e-006
17921	15.068	0.1	0.	3.4186e-004
17922	15.366	0.2	0.	1.5281e-003
17923	15.267	0.2	5.e-002	-4.4821e-006
17924	15.267	0.1	0.	4.7994e-004
17925	15.564	0.2	0.	1.748e-003
17926	15.465	0.2	5.e-002	-5.3839e-007
17927	15.465	0.1	0.	6.4273e-004
17928	15.763	0.2	0.	1.9624e-003
17929	15.664	0.2	5.e-002	-6.4088e-006
17930	15.664	0.1	0.	8.0082e-004
17931	15.961	0.2	0.	2.1713e-003
17932	15.862	0.2	5.e-002	-5.8641e-006
17933	15.862	0.1	0.	9.6031e-004
17934	16.16	0.2	0.	2.3908e-003
17935	16.061	0.2	5.e-002	-5.1497e-006
17936	16.061	0.1	0.	1.1189e-003
17937	16.358	0.2	0.	2.6128e-003
17938	16.259	0.2	5.e-002	-3.9396e-006
17939	16.259	0.1	0.	1.3058e-003
17940	16.557	0.2	0.	2.8215e-003
17941	16.458	0.2	5.e-002	-4.4262e-006
17942	16.458	0.1	0.	1.4829e-003
17943	16.755	0.2	0.	3.0384e-003
17944	16.656	0.2	5.e-002	-9.8979e-007
17945	16.656	0.1	0.	1.6529e-003
17946	16.954	0.2	0.	3.267e-003
17947	16.855	0.2	5.e-002	4.6638e-007
17948	16.855	0.1	0.	1.8577e-003
17949	17.152	0.2	0.	3.5002e-003
17950	17.053	0.2	5.e-002	-3.9044e-006
17951	17.053	0.1	0.	2.0672e-003
17952	17.351	0.2	0.	3.7336e-003
17953	17.252	0.2	5.e-002	-5.4907e-006
17954	17.252	0.1	0.	2.2922e-003
17955	17.549	0.2	0.	3.9739e-003
17956	17.45	0.2	5.e-002	-5.1103e-006
17957	17.45	0.1	0.	2.5257e-003
17958	17.748	0.2	0.	4.2273e-003
17959	17.648	0.2	5.e-002	-4.2321e-006
17960	17.648	0.1	0.	2.7996e-003
17961	17.946	0.2	0.	4.4833e-003
17962	17.847	0.2	5.e-002	1.1987e-006
17963	17.847	0.1	0.	3.0787e-003
17964	18.145	0.2	0.	4.7411e-003
17965	18.045	0.2	5.e-002	5.5094e-007
17966	18.045	0.1	0.	3.3876e-003
17967	18.343	0.2	0.	5.0073e-003
17968	18.244	0.2	5.e-002	-4.5969e-006
17969	18.244	0.1	0.	3.7223e-003
17970	18.542	0.2	0.	5.2768e-003
17971	18.442	0.2	5.e-002	-5.1188e-006
17972	18.442	0.1	0.	4.0956e-003
17973	18.74	0.2	0.	5.5362e-003
17974	18.641	0.2	5.e-002	-8.6774e-006
17975	18.641	0.1	0.	4.497e-003
17976	18.939	0.2	0.	5.7905e-003
17977	18.839	0.2	5.e-002	-3.5163e-006
17978	18.839	0.1	0.	4.9243e-003
17979	19.137	0.2	0.	6.0374e-003
17980	19.038	0.2	5.e-002	3.1552e-006
17981	19.038	0.1	0.	5.4095e-003
17982	19.336	0.2	0.	6.2654e-003
17983	19.236	0.2	5.e-002	5.6912e-006
17984	19.236	0.1	0.	5.94e-003
17985	19.534	0.2	0.	6.4732e-003
17986	19.435	0.2	5.e-002	2.231e-006
17987	19.435	0.1	0.	6.5221e-003
17988	19.733	0.2	0.	6.6552e-003
17989	19.633	0.2	5.e-002	3.521e-006
17990	19.633	0.1	0.	7.1725e-003
17991	19.931	0.2	0.	6.7942e-003
17992	19.832	0.2	5.e-002	4.2689e-006
17993	19.832	0.1	0.	7.9046e-003
17994	20.13	0.2	0.	6.8737e-003
17995	20.03	0.2	5.e-002	9.1656e-007
17996	20.03	0.1	0.	8.7163e-003
17997	20.328	0.2	0.	6.8766e-003
17998	20.229	0.2	5.e-002	9.7503e-006
17999	20.229	0.1	0.	9.6282e-003
18000	20.527	0.2	0.	6.78e-003
18001	20.427	0.2	5.e-002	7.2036e-006
18002	20.427	0.1	0.	1.0654e-002
18003	20.725	0.2	0.	6.5496e-003
18004	20.626	0.2	5.e-002	1.3572e-005
18005	20.626	0.1	0.	1.1823e-002
18006	20.923	0.2	0.	6.147e-003
18007	20.824	0.2	5.e-002	1.4636e-005
18008	20.824	0.1	0.	1.315e-002
18009	21.122	0.2	0.	5.5323e-003
18010	21.023	0.2	5.e-002	1.3379e-005
18011	21.023	0.1	0.	1.4663e-002
18012	21.32	0.2	0.	4.6425e-003
18013	21.221	0.2	5.e-002	1.1162e-005
18014	21.221	0.1	0.	1.643e-002
18015	21.519	0.2	0.	3.3975e-003
18016	21.42	0.2	5.e-002	1.0418e-005
18017	21.42	0.1	0.	1.8489e-002
18018	21.717	0.2	0.	1.6901e-003
18019	21.618	0.2	5.e-002	8.3489e-006
18020	21.618	0.1	0.	2.0923e-002
18021	21.916	0.2	0.	-6.123e-004
18022	21.817	0.2	5.e-002	1.5873e-006
18023	21.817	0.1	0.	2.3839e-002
18024	22.114	0.2	0.	-3.6961e-003
18025	22.015	0.2	5.e-002	8.0194e-006
18026	22.015	0.1	0.	2.7397e-002
18027	22.313	0.2	0.	-7.8117e-003
18028	22.214	0.2	5.e-002	1.1864e-005
18029	22.214	0.1	0.	3.1801e-002
18030	22.511	0.2	0.	-1.3352e-002
18031	22.412	0.2	5.e-002	1.6502e-005
18032	22.412	0.1	0.	3.7413e-002
18033	22.71	0.2	0.	-2.0648e-002
18034	22.611	0.2	5.e-002	1.9698e-005
18035	22.611	0.1	0.	4.4664e-002
18036	22.908	0.2	0.	-3.1116e-002
18037	22.809	0.2	5.e-002	1.2091e-005
18038	22.809	0.1	0.	5.4876e-002
18039	23.107	0.2	0.	-4.3261e-002
18040	23.008	0.2	5.e-002	9.5347e-006
18041	23.008	0.1	0.	6.7995e-002
18042	23.305	0.2	0.	-6.8712e-002
18043	23.206	0.2	5.e-002	1.4853e-005
18044	23.206	0.1	0.	9.3827e-002
18045	23.504	0.2	0.	-7.432e-002
18046	23.405	0.2	5.e-002	1.9436e-005
18047	23.405	0.1	0.	0.11169
18048	23.702	0.2	0.	-0.28063
18049	23.603	0.2	5.e-002	3.0421e-006
18050	23.603	0.1	0.	0.23446
18051	23.802	0.2	5.e-002	4.285e-006
18052	23.802	0.1	0.	-1.2125e-002
18053	23.901	0.2	0.	-6.1612e-002
18054	23.702	0.2	0.1	0.28063
18055	23.802	0.3	0.1	0.41105
18056	23.901	0.2	0.1	6.1614e-002
18057	23.802	0.1	0.1	1.2124e-002
18058	23.504	0.2	0.1	7.432e-002
18059	23.603	0.3	0.1	2.9999e-002
18060	23.603	0.1	0.1	-0.23446
18061	23.305	0.2	0.1	6.8713e-002
18062	23.405	0.3	0.1	0.10653
18063	23.405	0.1	0.1	-0.11169
18064	23.107	0.2	0.1	4.326e-002
18065	23.206	0.3	0.1	7.872e-002
18066	23.206	0.1	0.1	-9.3824e-002
18067	22.908	0.2	0.1	3.1114e-002
18068	23.008	0.3	0.1	7.4898e-002
18069	23.008	0.1	0.1	-6.7995e-002
18070	22.71	0.2	0.1	2.0647e-002
18071	22.809	0.3	0.1	6.5032e-002
18072	22.809	0.1	0.1	-5.4874e-002
18073	22.511	0.2	0.1	1.3352e-002
18074	22.611	0.3	0.1	5.7842e-002
18075	22.611	0.1	0.1	-4.4665e-002
18076	22.313	0.2	0.1	7.8119e-003
18077	22.412	0.3	0.1	5.1231e-002
18078	22.412	0.1	0.1	-3.741e-002
18079	22.114	0.2	0.1	3.6972e-003
18080	22.214	0.3	0.1	4.5643e-002
18081	22.214	0.1	0.1	-3.1802e-002
18082	21.916	0.2	0.1	6.115e-004
18083	22.015	0.3	0.1	4.0821e-002
18084	22.015	0.1	0.1	-2.7393e-002
18085	21.717	0.2	0.1	-1.6926e-003
18086	21.817	0.3	0.1	3.6679e-002
18087	21.817	0.1	0.1	-2.384e-002
18088	21.519	0.2	0.1	-3.3986e-003
18089	21.618	0.3	0.1	3.3098e-002
18090	21.618	0.1	0.1	-2.0924e-002
18091	21.32	0.2	0.1	-4.6433e-003
18092	21.42	0.3	0.1	3.0001e-002
18093	21.42	0.1	0.1	-1.8488e-002
18094	21.122	0.2	0.1	-5.5325e-003
18095	21.221	0.3	0.1	2.731e-002
18096	21.221	0.1	0.1	-1.6429e-002
18097	20.923	0.2	0.1	-6.1467e-003
18098	21.023	0.3	0.1	2.4965e-002
18099	21.023	0.1	0.1	-1.4663e-002
18100	20.725	0.2	0.1	-6.5486e-003
18101	20.824	0.3	0.1	2.2909e-002
18102	20.824	0.1	0.1	-1.3147e-002
18103	20.527	0.2	0.1	-6.7802e-003
18104	20.626	0.3	0.1	2.1106e-002
18105	20.626	0.1	0.1	-1.1822e-002
18106	20.328	0.2	0.1	-6.8777e-003
18107	20.427	0.3	0.1	1.9527e-002
18108	20.427	0.1	0.1	-1.0653e-002
18109	20.13	0.2	0.1	-6.8733e-003
18110	20.229	0.3	0.1	1.8131e-002
18111	20.229	0.1	0.1	-9.6282e-003
18112	19.931	0.2	0.1	-6.7934e-003
18113	20.03	0.3	0.1	1.69e-002
18114	20.03	0.1	0.1	-8.7164e-003
18115	19.733	0.2	0.1	-6.6552e-003
18116	19.832	0.3	0.1	1.5807e-002
18117	19.832	0.1	0.1	-7.9021e-003
18118	19.534	0.2	0.1	-6.4748e-003
18119	19.633	0.3	0.1	1.4841e-002
18120	19.633	0.1	0.1	-7.1726e-003
18121	19.336	0.2	0.1	-6.2667e-003
18122	19.435	0.3	0.1	1.3971e-002
18123	19.435	0.1	0.1	-6.5238e-003
18124	19.137	0.2	0.1	-6.0364e-003
18125	19.236	0.3	0.1	1.3198e-002
18126	19.236	0.1	0.1	-5.9386e-003
18127	18.939	0.2	0.1	-5.7898e-003
18128	19.038	0.3	0.1	1.2506e-002
18129	19.038	0.1	0.1	-5.4081e-003
18130	18.74	0.2	0.1	-5.5364e-003
18131	18.839	0.3	0.1	1.1889e-002
18132	18.839	0.1	0.1	-4.9241e-003
18133	18.542	0.2	0.1	-5.277e-003
18134	18.641	0.3	0.1	1.1323e-002
18135	18.641	0.1	0.1	-4.4964e-003
18136	18.343	0.2	0.1	-5.0076e-003
18137	18.442	0.3	0.1	1.0824e-002
18138	18.442	0.1	0.1	-4.096e-003
18139	18.145	0.2	0.1	-4.7415e-003
18140	18.244	0.3	0.1	1.0384e-002
18141	18.244	0.1	0.1	-3.7225e-003
18142	17.946	0.2	0.1	-4.4841e-003
18143	18.045	0.3	0.1	9.9715e-003
18144	18.045	0.1	0.1	-3.3856e-003
18145	17.748	0.2	0.1	-4.2282e-003
18146	17.847	0.3	0.1	9.601e-003
18147	17.847	0.1	0.1	-3.0796e-003
18148	17.549	0.2	0.1	-3.9745e-003
18149	17.648	0.3	0.1	9.2685e-003
18150	17.648	0.1	0.1	-2.7987e-003
18151	17.351	0.2	0.1	-3.7339e-003
18152	17.45	0.3	0.1	8.9653e-003
18153	17.45	0.1	0.1	-2.5251e-003
18154	17.152	0.2	0.1	-3.5011e-003
18155	17.252	0.3	0.1	8.6726e-003
18156	17.252	0.1	0.1	-2.2925e-003
18157	16.954	0.2	0.1	-3.2673e-003
18158	17.053	0.3	0.1	8.4108e-003
18159	17.053	0.1	0.1	-2.0675e-003
18160	16.755	0.2	0.1	-3.0381e-003
18161	16.855	0.3	0.1	8.1701e-003
18162	16.855	0.1	0.1	-1.8565e-003
18163	16.557	0.2	0.1	-2.8219e-003
18164	16.656	0.3	0.1	7.9493e-003
18165	16.656	0.1	0.1	-1.6533e-003
18166	16.358	0.2	0.1	-2.6125e-003
18167	16.458	0.3	0.1	7.7247e-003
18168	16.458	0.1	0.1	-1.4814e-003
18169	16.16	0.2	0.1	-2.3908e-003
18170	16.259	0.3	0.1	7.526e-003
18171	16.259	0.1	0.1	-1.3045e-003
18172	15.961	0.2	0.1	-2.1719e-003
18173	16.061	0.3	0.1	7.3562e-003
18174	16.061	0.1	0.1	-1.1184e-003
18175	15.763	0.2	0.1	-1.963e-003
18176	15.862	0.3	0.1	7.1745e-003
18177	15.862	0.1	0.1	-9.6058e-004
18178	15.564	0.2	0.1	-1.7486e-003
18179	15.664	0.3	0.1	7.0037e-003
18180	15.664	0.1	0.1	-8.0149e-004
18181	15.366	0.2	0.1	-1.5279e-003
18182	15.465	0.3	0.1	6.8449e-003
18183	15.465	0.1	0.1	-6.4257e-004
18184	15.167	0.2	0.1	-1.3147e-003
18185	15.267	0.3	0.1	6.6953e-003
18186	15.267	0.1	0.1	-4.7993e-004
18187	14.969	0.2	0.1	-1.1059e-003
18188	15.068	0.3	0.1	6.5255e-003
18189	15.068	0.1	0.1	-3.4087e-004
18190	14.77	0.2	0.1	-8.8738e-004
18191	14.87	0.3	0.1	6.3625e-003
18192	14.87	0.1	0.1	-1.9465e-004
18193	14.572	0.2	0.1	-6.56e-004
18194	14.671	0.3	0.1	6.2042e-003
18195	14.671	0.1	0.1	-4.5272e-005
18196	14.373	0.2	0.1	-4.2583e-004
18197	14.473	0.3	0.1	6.0526e-003
18198	14.473	0.1	0.1	1.1689e-004
18199	14.175	0.2	0.1	-1.9026e-004
18200	14.274	0.3	0.1	5.8705e-003
18201	14.274	0.1	0.1	2.5357e-004
18202	13.977	0.2	0.1	8.0155e-005
18203	14.076	0.3	0.1	5.7052e-003
18204	14.076	0.1	0.1	4.1799e-004
18205	13.778	0.2	0.1	3.6407e-004
18206	13.877	0.3	0.1	5.5594e-003
18207	13.877	0.1	0.1	6.107e-004
18208	13.58	0.2	0.1	6.5467e-004
18209	13.679	0.3	0.1	5.3798e-003
18210	13.679	0.1	0.1	7.8723e-004
18211	13.381	0.2	0.1	9.7107e-004
18212	13.48	0.3	0.1	5.2008e-003
18213	13.48	0.1	0.1	9.8071e-004
18214	13.183	0.2	0.1	1.3161e-003
18215	13.282	0.3	0.1	5.0198e-003
18216	13.282	0.1	0.1	1.1925e-003
18217	12.984	0.2	0.1	1.6771e-003
18218	13.083	0.3	0.1	4.8362e-003
18219	13.083	0.1	0.1	1.4306e-003
18220	12.786	0.2	0.1	2.059e-003
18221	12.885	0.3	0.1	4.617e-003
18222	12.885	0.1	0.1	1.656e-003
18223	12.587	0.2	0.1	2.4852e-003
18224	12.686	0.3	0.1	4.3959e-003
18225	12.686	0.1	0.1	1.9096e-003
18226	12.389	0.2	0.1	2.9621e-003
18227	12.488	0.3	0.1	4.1711e-003
18228	12.488	0.1	0.1	2.2002e-003
18229	12.19	0.2	0.1	3.4736e-003
18230	12.289	0.3	0.1	3.9457e-003
18231	12.289	0.1	0.1	2.5275e-003
18232	11.992	0.2	0.1	4.0386e-003
18233	12.091	0.3	0.1	3.6764e-003
18234	12.091	0.1	0.1	2.8547e-003
18235	11.793	0.2	0.1	4.6989e-003
18236	11.892	0.3	0.1	3.4288e-003
18237	11.892	0.1	0.1	3.2521e-003
18238	11.595	0.2	0.1	5.4358e-003
18239	11.694	0.3	0.1	3.2052e-003
18240	11.694	0.1	0.1	3.7229e-003
18241	11.396	0.2	0.1	6.2567e-003
18242	11.495	0.3	0.1	2.9488e-003
18243	11.495	0.1	0.1	4.2186e-003
18244	11.198	0.2	0.1	7.2016e-003
18245	11.297	0.3	0.1	2.7109e-003
18246	11.297	0.1	0.1	4.7926e-003
18247	10.999	0.2	0.1	8.297e-003
18248	11.098	0.3	0.1	2.5018e-003
18249	11.098	0.1	0.1	5.454e-003
18250	10.801	0.2	0.1	9.5571e-003
18251	10.9	0.3	0.1	2.3439e-003
18252	10.9	0.1	0.1	6.2254e-003
18253	10.602	0.2	0.1	1.1025e-002
18254	10.702	0.3	0.1	2.2219e-003
18255	10.702	0.1	0.1	7.0818e-003
18256	10.404	0.2	0.1	1.2781e-002
18257	10.503	0.3	0.1	2.2257e-003
18258	10.503	0.1	0.1	8.097e-003
18259	10.205	0.2	0.1	1.4909e-002
18260	10.305	0.3	0.1	2.4261e-003
18261	10.305	0.1	0.1	9.2959e-003
18262	10.007	0.2	0.1	1.7522e-002
18263	10.106	0.3	0.1	2.962e-003
18264	10.106	0.1	0.1	1.0734e-002
18265	9.8083	0.2	0.1	2.0796e-002
18266	9.9076	0.3	0.1	4.0588e-003
18267	9.9076	0.1	0.1	1.2455e-002
18268	9.6098	0.2	0.1	2.5012e-002
18269	9.7091	0.3	0.1	6.2334e-003
18270	9.7091	0.1	0.1	1.4563e-002
18271	9.4114	0.2	0.1	3.0592e-002
18272	9.5106	0.3	0.1	1.0665e-002
18273	9.5106	0.1	0.1	1.7185e-002
18274	9.2129	0.2	0.1	3.8267e-002
18275	9.3121	0.3	0.1	2.0854e-002
18276	9.3121	0.1	0.1	2.0486e-002
18277	9.0144	0.2	0.1	4.9375e-002
18278	9.1136	0.3	0.1	5.3367e-002
18279	9.1136	0.1	0.1	2.4761e-002
18280	8.8159	0.2	0.1	6.6595e-002
18281	8.9152	0.3	0.1	0.28831
18282	8.9152	0.1	0.1	3.0457e-002
18283	8.6174	0.2	0.1	9.609e-002
18284	8.7167	0.3	0.1	1.1507
18285	8.7167	0.1	0.1	3.8346e-002
18286	8.4189	0.2	0.1	0.15487
18287	8.5182	0.3	0.1	2.1864
18288	8.5182	0.1	0.1	4.9852e-002
18289	8.2205	0.2	0.1	0.30009
18290	8.3197	0.3	0.1	3.2668
18291	8.3197	0.1	0.1	6.785e-002
18292	8.022	0.2	0.1	0.68428
18293	8.1212	0.3	0.1	4.3691
18294	8.1212	0.1	0.1	9.8964e-002
18295	7.8235	0.2	0.1	1.3406
18296	7.9227	0.3	0.1	5.4758
18297	7.9227	0.1	0.1	0.16065
18298	7.625	0.2	0.1	2.0907
18299	7.7242	0.3	0.1	6.5669
18300	7.7242	0.1	0.1	0.29904
18301	7.4265	0.2	0.1	2.8333
18302	7.5258	0.3	0.1	7.6172
18303	7.5258	0.1	0.1	0.57227
18304	7.228	0.2	0.1	3.5182
18305	7.3273	0.3	0.1	8.5945
18306	7.3273	0.1	0.1	0.93693
18307	7.0295	0.2	0.1	4.1038
18308	7.1288	0.3	0.1	9.4584
18309	7.1288	0.1	0.1	1.3048
18310	6.8311	0.2	0.1	4.5454
18311	6.9303	0.3	0.1	10.158
18312	6.9303	0.1	0.1	1.6221
18313	6.6326	0.2	0.1	4.7908
18314	6.7318	0.3	0.1	10.632
18315	6.7318	0.1	0.1	1.8509
18316	6.4341	0.2	0.1	4.7781
18317	6.5333	0.3	0.1	10.804
18318	6.5333	0.1	0.1	1.9546
18319	6.2356	0.2	0.1	4.4348
18320	6.3348	0.3	0.1	10.581
18321	6.3348	0.1	0.1	1.8925
18322	6.0371	0.2	0.1	3.6786
18323	6.1364	0.3	0.1	9.8552
18324	6.1364	0.1	0.1	1.6173
18325	5.8386	0.2	0.1	2.4309
18326	5.9379	0.3	0.1	8.4992
18327	5.9379	0.1	0.1	1.0744
18328	5.6402	0.2	0.1	0.8005
18329	5.7394	0.3	0.1	6.3715
18330	5.7394	0.1	0.1	0.20238
18331	5.4417	0.2	0.1	0.10886
18332	5.5409	0.3	0.1	3.3584
18333	5.5409	0.1	0.1	-8.7891e-002
18334	5.2432	0.2	0.1	3.5236e-003
18335	5.3424	0.3	0.1	0.46509
18336	5.3424	0.1	0.1	-9.7214e-002
18337	5.0447	0.2	0.1	-3.8663e-002
18338	5.1439	0.3	0.1	0.1001
18339	5.1439	0.1	0.1	-0.10896
18340	4.8462	0.2	0.1	-6.9659e-002
18341	4.9455	0.3	0.1	4.4322e-002
18342	4.9455	0.1	0.1	-0.12417
18343	4.6477	0.2	0.1	-0.10218
18344	4.747	0.3	0.1	2.3927e-002
18345	4.747	0.1	0.1	-0.14356
18346	4.4492	0.2	0.1	-0.14336
18347	4.5485	0.3	0.1	1.2606e-002
18348	4.5485	0.1	0.1	-0.16784
18349	4.2508	0.2	0.1	-0.19954
18350	4.35	0.3	0.1	2.3483e-003
18351	4.35	0.1	0.1	-0.19763
18352	4.0523	0.2	0.1	-0.27653
18353	4.1515	0.3	0.1	-1.1495e-002
18354	4.1515	0.1	0.1	-0.23338
18355	3.8538	0.2	0.1	-0.37745
18356	3.953	0.3	0.1	-3.1733e-002
18357	3.953	0.1	0.1	-0.27469
18358	3.6553	0.2	0.1	-0.49348
18359	3.7545	0.3	0.1	-5.8233e-002
18360	3.7545	0.1	0.1	-0.32086
18361	3.4568	0.2	0.1	-0.59219
18362	3.5561	0.3	0.1	-7.5772e-002
18363	3.5561	0.1	0.1	-0.36449
18364	3.2583	0.2	0.1	-0.54868
18365	3.3576	0.3	0.1	-5.0553e-002
18366	3.3576	0.1	0.1	-0.40724
18367	3.0598	0.2	0.1	-0.1545
18368	3.1591	0.3	0.1	0.19279
18369	3.1591	0.1	0.1	-0.36917
18370	2.8614	0.2	0.1	1.6027
18371	2.9606	0.3	0.1	0.8131
18372	2.9606	0.1	0.1	-0.36401
18373	2.6629	0.2	0.1	5.2531
18374	2.7621	0.3	0.1	3.4721
18375	2.7621	0.1	0.1	0.74641
18376	2.4644	0.2	0.1	21.694
18377	2.5636	0.3	0.1	6.1897
18378	2.5636	0.1	0.1	1.1611
18379	2.3652	0.3	0.1	22.055
18380	2.2659	0.2	0.1	1.6049
18381	2.3652	0.1	0.1	21.647
18382	23.702	0.4	0.1	0.20383
18383	23.802	0.5	0.1	0.21194
18384	23.901	0.4	0.1	-2.1828e-002
18385	23.504	0.4	0.1	6.4432e-002
18386	23.603	0.5	0.1	-0.10261
18387	23.305	0.4	0.1	0.1071
18388	23.405	0.5	0.1	4.1293e-002
18389	23.107	0.4	0.1	9.7282e-002
18390	23.206	0.5	0.1	3.113e-002
18391	22.908	0.4	0.1	9.4872e-002
18392	23.008	0.5	0.1	4.3991e-002
18393	22.71	0.4	0.1	8.852e-002
18394	22.809	0.5	0.1	4.4355e-002
18395	22.511	0.4	0.1	8.2687e-002
18396	22.611	0.5	0.1	4.4632e-002
18397	22.313	0.4	0.1	7.6857e-002
18398	22.412	0.5	0.1	4.3319e-002
18399	22.114	0.4	0.1	7.1425e-002
18400	22.214	0.5	0.1	4.161e-002
18401	21.916	0.4	0.1	6.6386e-002
18402	22.015	0.5	0.1	3.9629e-002
18403	21.717	0.4	0.1	6.1758e-002
18404	21.817	0.5	0.1	3.7586e-002
18405	21.519	0.4	0.1	5.7521e-002
18406	21.618	0.5	0.1	3.555e-002
18407	21.32	0.4	0.1	5.3652e-002
18408	21.42	0.5	0.1	3.3585e-002
18409	21.122	0.4	0.1	5.0122e-002
18410	21.221	0.5	0.1	3.1715e-002
18411	20.923	0.4	0.1	4.6897e-002
18412	21.023	0.5	0.1	2.9956e-002
18413	20.725	0.4	0.1	4.3953e-002
18414	20.824	0.5	0.1	2.8301e-002
18415	20.527	0.4	0.1	4.1269e-002
18416	20.626	0.5	0.1	2.6766e-002
18417	20.328	0.4	0.1	3.8816e-002
18418	20.427	0.5	0.1	2.5347e-002
18419	20.13	0.4	0.1	3.657e-002
18420	20.229	0.5	0.1	2.4021e-002
18421	19.931	0.4	0.1	3.4518e-002
18422	20.03	0.5	0.1	2.2796e-002
18423	19.733	0.4	0.1	3.2641e-002
18424	19.832	0.5	0.1	2.1669e-002
18425	19.534	0.4	0.1	3.0916e-002
18426	19.633	0.5	0.1	2.0631e-002
18427	19.336	0.4	0.1	2.9331e-002
18428	19.435	0.5	0.1	1.9658e-002
18429	19.137	0.4	0.1	2.7878e-002
18430	19.236	0.5	0.1	1.8766e-002
18431	18.939	0.4	0.1	2.6544e-002
18432	19.038	0.5	0.1	1.7944e-002
18433	18.74	0.4	0.1	2.5311e-002
18434	18.839	0.5	0.1	1.7187e-002
18435	18.542	0.4	0.1	2.4173e-002
18436	18.641	0.5	0.1	1.647e-002
18437	18.343	0.4	0.1	2.3136e-002
18438	18.442	0.5	0.1	1.5817e-002
18439	18.145	0.4	0.1	2.2173e-002
18440	18.244	0.5	0.1	1.5228e-002
18441	17.946	0.4	0.1	2.1277e-002
18442	18.045	0.5	0.1	1.466e-002
18443	17.748	0.4	0.1	2.0451e-002
18444	17.847	0.5	0.1	1.4141e-002
18445	17.549	0.4	0.1	1.9685e-002
18446	17.648	0.5	0.1	1.3661e-002
18447	17.351	0.4	0.1	1.8963e-002
18448	17.45	0.5	0.1	1.3215e-002
18449	17.152	0.4	0.1	1.8282e-002
18450	17.252	0.5	0.1	1.2784e-002
18451	16.954	0.4	0.1	1.7645e-002
18452	17.053	0.5	0.1	1.2378e-002
18453	16.755	0.4	0.1	1.7048e-002
18454	16.855	0.5	0.1	1.2e-002
18455	16.557	0.4	0.1	1.6474e-002
18456	16.656	0.5	0.1	1.1647e-002
18457	16.358	0.4	0.1	1.5925e-002
18458	16.458	0.5	0.1	1.1289e-002
18459	16.16	0.4	0.1	1.5414e-002
18460	16.259	0.5	0.1	1.0963e-002
18461	15.961	0.4	0.1	1.492e-002
18462	16.061	0.5	0.1	1.0664e-002
18463	15.763	0.4	0.1	1.4431e-002
18464	15.862	0.5	0.1	1.0355e-002
18465	15.564	0.4	0.1	1.3959e-002
18466	15.664	0.5	0.1	1.0058e-002
18467	15.366	0.4	0.1	1.35e-002
18468	15.465	0.5	0.1	9.7709e-003
18469	15.167	0.4	0.1	1.3036e-002
18470	15.267	0.5	0.1	9.493e-003
18471	14.969	0.4	0.1	1.2563e-002
18472	15.068	0.5	0.1	9.1946e-003
18473	14.77	0.4	0.1	1.2092e-002
18474	14.87	0.5	0.1	8.899e-003
18475	14.572	0.4	0.1	1.162e-002
18476	14.671	0.5	0.1	8.6062e-003
18477	14.373	0.4	0.1	1.1127e-002
18478	14.473	0.5	0.1	8.3117e-003
18479	14.175	0.4	0.1	1.0617e-002
18480	14.274	0.5	0.1	7.982e-003
18481	13.977	0.4	0.1	1.0111e-002
18482	14.076	0.5	0.1	7.6656e-003
18483	13.778	0.4	0.1	9.5796e-003
18484	13.877	0.5	0.1	7.3574e-003
18485	13.58	0.4	0.1	9.0122e-003
18486	13.679	0.5	0.1	7.0037e-003
18487	13.381	0.4	0.1	8.4218e-003
18488	13.48	0.5	0.1	6.641e-003
18489	13.183	0.4	0.1	7.8029e-003
18490	13.282	0.5	0.1	6.264e-003
18491	12.984	0.4	0.1	7.135e-003
18492	13.083	0.5	0.1	5.8709e-003
18493	12.786	0.4	0.1	6.4149e-003
18494	12.885	0.5	0.1	5.4243e-003
18495	12.587	0.4	0.1	5.6511e-003
18496	12.686	0.5	0.1	4.9564e-003
18497	12.389	0.4	0.1	4.839e-003
18498	12.488	0.5	0.1	4.4572e-003
18499	12.19	0.4	0.1	3.9547e-003
18500	12.289	0.5	0.1	3.9314e-003
18501	11.992	0.4	0.1	3.0014e-003
18502	12.091	0.5	0.1	3.3301e-003
18503	11.793	0.4	0.1	2.0042e-003
18504	11.892	0.5	0.1	2.712e-003
18505	11.595	0.4	0.1	9.2561e-004
18506	11.694	0.5	0.1	2.073e-003
18507	11.396	0.4	0.1	-2.5053e-004
18508	11.495	0.5	0.1	1.3447e-003
18509	11.198	0.4	0.1	-1.5087e-003
18510	11.297	0.5	0.1	5.6561e-004
18511	10.999	0.4	0.1	-2.8533e-003
18512	11.098	0.5	0.1	-2.6935e-004
18513	10.801	0.4	0.1	-4.3093e-003
18514	10.9	0.5	0.1	-1.1648e-003
18515	10.602	0.4	0.1	-5.8767e-003
18516	10.702	0.5	0.1	-2.1712e-003
18517	10.404	0.4	0.1	-7.528e-003
18518	10.503	0.5	0.1	-3.2454e-003
18519	10.205	0.4	0.1	-9.2343e-003
18520	10.305	0.5	0.1	-4.3944e-003
18521	10.007	0.4	0.1	-1.0904e-002
18522	10.106	0.5	0.1	-5.5754e-003
18523	9.8083	0.4	0.1	-1.2125e-002
18524	9.9076	0.5	0.1	0.19153
18525	9.6098	0.4	0.1	-7.9137e-003
18526	9.7091	0.5	0.1	1.3371
18527	9.4114	0.4	0.1	0.67477
18528	9.5106	0.5	0.1	2.5539
18529	9.2129	0.4	0.1	1.7876
18530	9.3121	0.5	0.1	3.8429
18531	9.0144	0.4	0.1	2.9592
18532	9.1136	0.5	0.1	5.2041
18533	8.8159	0.4	0.1	4.1849
18534	8.9152	0.5	0.1	6.6363
18535	8.6174	0.4	0.1	5.4596
18536	8.7167	0.5	0.1	8.1359
18537	8.4189	0.4	0.1	6.7757
18538	8.5182	0.5	0.1	9.6969
18539	8.2205	0.4	0.1	8.1222
18540	8.3197	0.5	0.1	11.31
18541	8.022	0.4	0.1	9.4838
18542	8.1212	0.5	0.1	12.961
18543	7.8235	0.4	0.1	10.84
18544	7.9227	0.5	0.1	14.63
18545	7.625	0.4	0.1	12.162
18546	7.7242	0.5	0.1	16.292
18547	7.4265	0.4	0.1	13.417
18548	7.5258	0.5	0.1	17.912
18549	7.228	0.4	0.1	14.557
18550	7.3273	0.5	0.1	19.446
18551	7.0295	0.4	0.1	15.527
18552	7.1288	0.5	0.1	20.837
18553	6.8311	0.4	0.1	16.254
18554	6.9303	0.5	0.1	22.014
18555	6.6326	0.4	0.1	16.651
18556	6.7318	0.5	0.1	22.887
18557	6.4341	0.4	0.1	16.613
18558	6.5333	0.5	0.1	23.348
18559	6.2356	0.4	0.1	16.011
18560	6.3348	0.5	0.1	23.266
18561	6.0371	0.4	0.1	14.694
18562	6.1364	0.5	0.1	22.483
18563	5.8386	0.4	0.1	12.491
18564	5.9379	0.5	0.1	20.814
18565	5.6402	0.4	0.1	9.2107
18566	5.7394	0.5	0.1	18.048
18567	5.4417	0.4	0.1	4.7209
18568	5.5409	0.5	0.1	13.955
18569	5.2432	0.4	0.1	0.68916
18570	5.3424	0.5	0.1	8.3374
18571	5.0447	0.4	0.1	0.23358
18572	5.1439	0.5	0.1	1.991
18573	4.8462	0.4	0.1	0.18123
18574	4.9455	0.5	0.1	0.43893
18575	4.6477	0.4	0.1	0.18437
18576	4.747	0.5	0.1	0.27738
18577	4.4492	0.4	0.1	0.20859
18578	4.5485	0.5	0.1	0.2429
18579	4.2508	0.4	0.1	0.2445
18580	4.35	0.5	0.1	0.24686
18581	4.0523	0.4	0.1	0.28764
18582	4.1515	0.5	0.1	0.2716
18583	3.8538	0.4	0.1	0.33517
18584	3.953	0.5	0.1	0.31307
18585	3.6553	0.4	0.1	0.38958
18586	3.7545	0.5	0.1	0.37234
18587	3.4568	0.4	0.1	0.46188
18588	3.5561	0.5	0.1	0.46253
18589	3.2583	0.4	0.1	0.62534
18590	3.3576	0.5	0.1	0.6013
18591	3.0598	0.4	0.1	0.97527
18592	3.1591	0.5	0.1	0.91301
18593	2.8614	0.4	0.1	2.264
18594	2.9606	0.5	0.1	1.3869
18595	2.6629	0.4	0.1	3.9075
18596	2.7621	0.5	0.1	3.1712
18597	2.4644	0.4	0.1	11.207
18598	2.5636	0.5	0.1	2.7098
18599	2.3652	0.5	0.1	13.53
18600	2.2659	0.4	0.1	-2.4768
18601	23.702	0.6	0.1	-2.9632e-002
18602	23.802	0.7	0.1	5.3825e-002
18603	23.901	0.6	0.1	-0.23368
18604	23.504	0.6	0.1	-0.10492
18605	23.603	0.7	0.1	-0.21734
18606	23.305	0.6	0.1	-2.3647e-002
18607	23.405	0.7	0.1	-4.1256e-002
18608	23.107	0.6	0.1	-1.5226e-002
18609	23.206	0.7	0.1	-3.9977e-002
18610	22.908	0.6	0.1	-1.8195e-003
18611	23.008	0.7	0.1	-1.6479e-002
18612	22.71	0.6	0.1	3.7923e-003
18613	22.809	0.7	0.1	-8.4485e-003
18614	22.511	0.6	0.1	7.6743e-003
18615	22.611	0.7	0.1	-1.8669e-003
18616	22.313	0.6	0.1	9.8462e-003
18617	22.412	0.7	0.1	1.9765e-003
18618	22.114	0.6	0.1	1.1132e-002
18619	22.214	0.7	0.1	4.5876e-003
18620	21.916	0.6	0.1	1.1811e-002
18621	22.015	0.7	0.1	6.2668e-003
18622	21.717	0.6	0.1	1.2107e-002
18623	21.817	0.7	0.1	7.3634e-003
18624	21.519	0.6	0.1	1.2152e-002
18625	21.618	0.7	0.1	8.0444e-003
18626	21.32	0.6	0.1	1.2038e-002
18627	21.42	0.7	0.1	8.4478e-003
18628	21.122	0.6	0.1	1.1824e-002
18629	21.221	0.7	0.1	8.6594e-003
18630	20.923	0.6	0.1	1.1542e-002
18631	21.023	0.7	0.1	8.7396e-003
18632	20.725	0.6	0.1	1.1225e-002
18633	20.824	0.7	0.1	8.715e-003
18634	20.527	0.6	0.1	1.0898e-002
18635	20.626	0.7	0.1	8.6369e-003
18636	20.328	0.6	0.1	1.0562e-002
18637	20.427	0.7	0.1	8.5226e-003
18638	20.13	0.6	0.1	1.0221e-002
18639	20.229	0.7	0.1	8.3691e-003
18640	19.931	0.6	0.1	9.8936e-003
18641	20.03	0.7	0.1	8.1994e-003
18642	19.733	0.6	0.1	9.5831e-003
18643	19.832	0.7	0.1	8.0275e-003
18644	19.534	0.6	0.1	9.2785e-003
18645	19.633	0.7	0.1	7.851e-003
18646	19.336	0.6	0.1	8.9847e-003
18647	19.435	0.7	0.1	7.6633e-003
18648	19.137	0.6	0.1	8.7124e-003
18649	19.236	0.7	0.1	7.4826e-003
18650	18.939	0.6	0.1	8.4592e-003
18651	19.038	0.7	0.1	7.3115e-003
18652	18.74	0.6	0.1	8.2117e-003
18653	18.839	0.7	0.1	7.1474e-003
18654	18.542	0.6	0.1	7.9748e-003
18655	18.641	0.7	0.1	6.9719e-003
18656	18.343	0.6	0.1	7.7677e-003
18657	18.442	0.7	0.1	6.8165e-003
18658	18.145	0.6	0.1	7.5711e-003
18659	18.244	0.7	0.1	6.6839e-003
18660	17.946	0.6	0.1	7.3793e-003
18661	18.045	0.7	0.1	6.5379e-003
18662	17.748	0.6	0.1	7.2054e-003
18663	17.847	0.7	0.1	6.4048e-003
18664	17.549	0.6	0.1	7.0461e-003
18665	17.648	0.7	0.1	6.2821e-003
18666	17.351	0.6	0.1	6.891e-003
18667	17.45	0.7	0.1	6.1711e-003
18668	17.152	0.6	0.1	6.7358e-003
18669	17.252	0.7	0.1	6.0487e-003
18670	16.954	0.6	0.1	6.5899e-003
18671	17.053	0.7	0.1	5.9325e-003
18672	16.755	0.6	0.1	6.4569e-003
18673	16.855	0.7	0.1	5.8247e-003
18674	16.557	0.6	0.1	6.3212e-003
18675	16.656	0.7	0.1	5.7284e-003
18676	16.358	0.6	0.1	6.189e-003
18677	16.458	0.7	0.1	5.6121e-003
18678	16.16	0.6	0.1	6.0768e-003
18679	16.259	0.7	0.1	5.5171e-003
18680	15.961	0.6	0.1	5.9648e-003
18681	16.061	0.7	0.1	5.4378e-003
18682	15.763	0.6	0.1	5.8492e-003
18683	15.862	0.7	0.1	5.3411e-003
18684	15.564	0.6	0.1	5.7393e-003
18685	15.664	0.7	0.1	5.2512e-003
18686	15.366	0.6	0.1	5.6351e-003
18687	15.465	0.7	0.1	5.1656e-003
18688	15.167	0.6	0.1	5.5245e-003
18689	15.267	0.7	0.1	5.0862e-003
18690	14.969	0.6	0.1	5.4058e-003
18691	15.068	0.7	0.1	4.9849e-003
18692	14.77	0.6	0.1	5.2908e-003
18693	14.87	0.7	0.1	4.8873e-003
18694	14.572	0.6	0.1	5.1778e-003
18695	14.671	0.7	0.1	4.7924e-003
18696	14.373	0.6	0.1	5.0494e-003
18697	14.473	0.7	0.1	4.7007e-003
18698	14.175	0.6	0.1	4.9165e-003
18699	14.274	0.7	0.1	4.5775e-003
18700	13.977	0.6	0.1	4.8017e-003
18701	14.076	0.7	0.1	4.4751e-003
18702	13.778	0.6	0.1	4.6751e-003
18703	13.877	0.7	0.1	4.3904e-003
18704	13.58	0.6	0.1	4.5309e-003
18705	13.679	0.7	0.1	4.2708e-003
18706	13.381	0.6	0.1	4.3873e-003
18707	13.48	0.7	0.1	4.1544e-003
18708	13.183	0.6	0.1	4.2431e-003
18709	13.282	0.7	0.1	4.0396e-003
18710	12.984	0.6	0.1	4.08e-003
18711	13.083	0.7	0.1	3.9273e-003
18712	12.786	0.6	0.1	3.8964e-003
18713	12.885	0.7	0.1	3.7809e-003
18714	12.587	0.6	0.1	3.7068e-003
18715	12.686	0.7	0.1	3.6378e-003
18716	12.389	0.6	0.1	3.5117e-003
18717	12.488	0.7	0.1	3.4948e-003
18718	12.19	0.6	0.1	3.2921e-003
18719	12.289	0.7	0.1	3.3607e-003
18720	11.992	0.6	0.1	3.0569e-003
18721	12.091	0.7	0.1	3.194e-003
18722	11.793	0.6	0.1	2.8388e-003
18723	11.892	0.7	0.1	3.0656e-003
18724	11.595	0.6	0.1	2.6081e-003
18725	11.694	0.7	0.1	2.9907e-003
18726	11.396	0.6	0.1	2.36e-003
18727	11.495	0.7	0.1	2.9311e-003
18728	11.198	0.6	0.1	2.1286e-003
18729	11.297	0.7	0.1	2.9887e-003
18730	10.999	0.6	0.1	1.9417e-003
18731	11.098	0.7	0.1	3.3087e-003
18732	10.801	0.6	0.1	1.8506e-003
18733	10.9	0.7	0.1	4.3692e-003
18734	10.602	0.6	0.1	2.12e-003
18735	10.702	0.7	0.1	9.0469e-003
18736	10.404	0.6	0.1	4.681e-003
18737	10.503	0.7	0.1	0.29912
18738	10.205	0.6	0.1	0.42301
18739	10.305	0.7	0.1	1.4972
18740	10.007	0.6	0.1	1.616
18741	10.106	0.7	0.1	2.8008
18742	9.8083	0.6	0.1	2.8943
18743	9.9076	0.7	0.1	4.1967
18744	9.6098	0.6	0.1	4.2562
18745	9.7091	0.7	0.1	5.6885
18746	9.4114	0.6	0.1	5.704
18747	9.5106	0.7	0.1	7.2799
18748	9.2129	0.6	0.1	7.2387
18749	9.3121	0.7	0.1	8.9738
18750	9.0144	0.6	0.1	8.8604
18751	9.1136	0.7	0.1	10.772
18752	8.8159	0.6	0.1	10.567
18753	8.9152	0.7	0.1	12.674
18754	8.6174	0.6	0.1	12.353
18755	8.7167	0.7	0.1	14.678
18756	8.4189	0.6	0.1	14.211
18757	8.5182	0.7	0.1	16.779
18758	8.2205	0.6	0.1	16.129
18759	8.3197	0.7	0.1	18.968
18760	8.022	0.6	0.1	18.089
18761	8.1212	0.7	0.1	21.229
18762	7.8235	0.6	0.1	20.065
18763	7.9227	0.7	0.1	23.543
18764	7.625	0.6	0.1	22.025
18765	7.7242	0.7	0.1	25.882
18766	7.4265	0.6	0.1	23.925
18767	7.5258	0.7	0.1	28.206
18768	7.228	0.6	0.1	25.71
18769	7.3273	0.7	0.1	30.467
18770	7.0295	0.6	0.1	27.308
18771	7.1288	0.7	0.1	32.6
18772	6.8311	0.6	0.1	28.63
18773	6.9303	0.7	0.1	34.523
18774	6.6326	0.6	0.1	29.567
18775	6.7318	0.7	0.1	36.135
18776	6.4341	0.6	0.1	29.984
18777	6.5333	0.7	0.1	37.309
18778	6.2356	0.6	0.1	29.721
18779	6.3348	0.7	0.1	37.893
18780	6.0371	0.6	0.1	28.585
18781	6.1364	0.7	0.1	37.704
18782	5.8386	0.6	0.1	26.356
18783	5.9379	0.7	0.1	36.525
18784	5.6402	0.6	0.1	22.781
18785	5.7394	0.7	0.1	34.107
18786	5.4417	0.6	0.1	17.595
18787	5.5409	0.7	0.1	30.166
18788	5.2432	0.6	0.1	10.591
18789	5.3424	0.7	0.1	24.401
18790	5.0447	0.6	0.1	2.8063
18791	5.1439	0.7	0.1	16.546
18792	4.8462	0.6	0.1	0.66561
18793	4.9455	0.7	0.1	6.904
18794	4.6477	0.6	0.1	0.40276
18795	4.747	0.7	0.1	1.4652
18796	4.4492	0.6	0.1	0.33125
18797	4.5485	0.7	0.1	0.75936
18798	4.2508	0.6	0.1	0.31734
18799	4.35	0.7	0.1	0.60074
18800	4.0523	0.6	0.1	0.33615
18801	4.1515	0.7	0.1	0.56722
18802	3.8538	0.6	0.1	0.38406
18803	3.953	0.7	0.1	0.5933
18804	3.6553	0.6	0.1	0.46947
18805	3.7545	0.7	0.1	0.66466
18806	3.4568	0.6	0.1	0.60755
18807	3.5561	0.7	0.1	0.78821
18808	3.2583	0.6	0.1	0.86066
18809	3.3576	0.7	0.1	0.96572
18810	3.0598	0.6	0.1	1.2483
18811	3.1591	0.7	0.1	1.2863
18812	2.8614	0.6	0.1	2.2479
18813	2.9606	0.7	0.1	1.5875
18814	2.6629	0.6	0.1	2.544
18815	2.7621	0.7	0.1	2.8131
18816	2.4644	0.6	0.1	7.9385
18817	2.5636	0.7	0.1	1.0036
18818	2.3652	0.7	0.1	12.004
18819	2.2659	0.6	0.1	-0.34703
18820	23.702	0.8	0.1	-6.8766e-002
18821	23.802	0.9	0.1	4.2131e-003
18822	23.901	0.8	0.1	-0.24081
18823	23.504	0.8	0.1	-0.13652
18824	23.603	0.9	0.1	-0.25266
18825	23.305	0.8	0.1	-4.9304e-002
18826	23.405	0.9	0.1	-6.8943e-002
18827	23.107	0.8	0.1	-3.6035e-002
18828	23.206	0.9	0.1	-6.3117e-002
18829	22.908	0.8	0.1	-1.9426e-002
18830	23.008	0.9	0.1	-3.6409e-002
18831	22.71	0.8	0.1	-1.133e-002
18832	22.809	0.9	0.1	-2.5989e-002
18833	22.511	0.8	0.1	-5.3904e-003
18834	22.611	0.9	0.1	-1.7391e-002
18835	22.313	0.8	0.1	-1.5389e-003
18836	22.412	0.9	0.1	-1.188e-002
18837	22.114	0.8	0.1	1.1443e-003
18838	22.214	0.9	0.1	-7.8479e-003
18839	21.916	0.8	0.1	2.9941e-003
18840	22.015	0.9	0.1	-4.9514e-003
18841	21.717	0.8	0.1	4.2802e-003
18842	21.817	0.9	0.1	-2.808e-003
18843	21.519	0.8	0.1	5.1638e-003
18844	21.618	0.9	0.1	-1.2149e-003
18845	21.32	0.8	0.1	5.7658e-003
18846	21.42	0.9	0.1	-1.7556e-005
18847	21.122	0.8	0.1	6.1679e-003
18848	21.221	0.9	0.1	8.9015e-004
18849	20.923	0.8	0.1	6.418e-003
18850	21.023	0.9	0.1	1.5846e-003
18851	20.725	0.8	0.1	6.5601e-003
18852	20.824	0.9	0.1	2.1034e-003
18853	20.527	0.8	0.1	6.633e-003
18854	20.626	0.9	0.1	2.5088e-003
18855	20.328	0.8	0.1	6.6497e-003
18856	20.427	0.9	0.1	2.8245e-003
18857	20.13	0.8	0.1	6.6231e-003
18858	20.229	0.9	0.1	3.0588e-003
18859	19.931	0.8	0.1	6.5707e-003
18860	20.03	0.9	0.1	3.2378e-003
18861	19.733	0.8	0.1	6.5002e-003
18862	19.832	0.9	0.1	3.377e-003
18863	19.534	0.8	0.1	6.4122e-003
18864	19.633	0.9	0.1	3.4831e-003
18865	19.336	0.8	0.1	6.3133e-003
18866	19.435	0.9	0.1	3.5543e-003
18867	19.137	0.8	0.1	6.2126e-003
18868	19.236	0.9	0.1	3.6072e-003
18869	18.939	0.8	0.1	6.1123e-003
18870	19.038	0.9	0.1	3.6466e-003
18871	18.74	0.8	0.1	6.0042e-003
18872	18.839	0.9	0.1	3.6755e-003
18873	18.542	0.8	0.1	5.8961e-003
18874	18.641	0.9	0.1	3.678e-003
18875	18.343	0.8	0.1	5.8029e-003
18876	18.442	0.9	0.1	3.6863e-003
18877	18.145	0.8	0.1	5.7101e-003
18878	18.244	0.9	0.1	3.6999e-003
18879	17.946	0.8	0.1	5.6133e-003
18880	18.045	0.9	0.1	3.6945e-003
18881	17.748	0.8	0.1	5.523e-003
18882	17.847	0.9	0.1	3.6883e-003
18883	17.549	0.8	0.1	5.4412e-003
18884	17.648	0.9	0.1	3.6808e-003
18885	17.351	0.8	0.1	5.3563e-003
18886	17.45	0.9	0.1	3.6784e-003
18887	17.152	0.8	0.1	5.267e-003
18888	17.252	0.9	0.1	3.656e-003
18889	16.954	0.8	0.1	5.1836e-003
18890	17.053	0.9	0.1	3.6348e-003
18891	16.755	0.8	0.1	5.1077e-003
18892	16.855	0.9	0.1	3.6157e-003
18893	16.557	0.8	0.1	5.0264e-003
18894	16.656	0.9	0.1	3.6019e-003
18895	16.358	0.8	0.1	4.9434e-003
18896	16.458	0.9	0.1	3.5645e-003
18897	16.16	0.8	0.1	4.8776e-003
18898	16.259	0.9	0.1	3.5434e-003
18899	15.961	0.8	0.1	4.8101e-003
18900	16.061	0.9	0.1	3.5366e-003
18901	15.763	0.8	0.1	4.7359e-003
18902	15.862	0.9	0.1	3.5084e-003
18903	15.564	0.8	0.1	4.6671e-003
18904	15.664	0.9	0.1	3.4831e-003
18905	15.366	0.8	0.1	4.6033e-003
18906	15.465	0.9	0.1	3.4618e-003
18907	15.167	0.8	0.1	4.5303e-003
18908	15.267	0.9	0.1	3.4454e-003
18909	14.969	0.8	0.1	4.4473e-003
18910	15.068	0.9	0.1	3.4054e-003
18911	14.77	0.8	0.1	4.3671e-003
18912	14.87	0.9	0.1	3.3693e-003
18913	14.572	0.8	0.1	4.2907e-003
18914	14.671	0.9	0.1	3.336e-003
18915	14.373	0.8	0.1	4.2016e-003
18916	14.473	0.9	0.1	3.3092e-003
18917	14.175	0.8	0.1	4.1063e-003
18918	14.274	0.9	0.1	3.2525e-003
18919	13.977	0.8	0.1	4.0315e-003
18920	14.076	0.9	0.1	3.2173e-003
18921	13.778	0.8	0.1	3.9516e-003
18922	13.877	0.9	0.1	3.2054e-003
18923	13.58	0.8	0.1	3.8578e-003
18924	13.679	0.9	0.1	3.1659e-003
18925	13.381	0.8	0.1	3.7685e-003
18926	13.48	0.9	0.1	3.1351e-003
18927	13.183	0.8	0.1	3.6849e-003
18928	13.282	0.9	0.1	3.1154e-003
18929	12.984	0.8	0.1	3.5897e-003
18930	13.083	0.9	0.1	3.1096e-003
18931	12.786	0.8	0.1	3.4859e-003
18932	12.885	0.9	0.1	3.0867e-003
18933	12.587	0.8	0.1	3.3945e-003
18934	12.686	0.9	0.1	3.0885e-003
18935	12.389	0.8	0.1	3.3226e-003
18936	12.488	0.9	0.1	3.1255e-003
18937	12.19	0.8	0.1	3.2597e-003
18938	12.289	0.9	0.1	3.2179e-003
18939	11.992	0.8	0.1	3.2325e-003
18940	12.091	0.9	0.1	3.3538e-003
18941	11.793	0.8	0.1	3.3075e-003
18942	11.892	0.9	0.1	3.656e-003
18943	11.595	0.8	0.1	3.521e-003
18944	11.694	0.9	0.1	4.2557e-003
18945	11.396	0.8	0.1	4.0211e-003
18946	11.495	0.9	0.1	5.4246e-003
18947	11.198	0.8	0.1	5.3006e-003
18948	11.297	0.9	0.1	8.4076e-003
18949	10.999	0.8	0.1	9.5715e-003
18950	11.098	0.9	0.1	2.2636e-002
18951	10.801	0.8	0.1	7.7382e-002
18952	10.9	0.9	0.1	0.57905
18953	10.602	0.8	0.1	1.1505
18954	10.702	0.9	0.1	1.846
18955	10.404	0.8	0.1	2.4534
18956	10.503	0.9	0.1	3.2238
18957	10.205	0.8	0.1	3.8549
18958	10.305	0.9	0.1	4.7063
18959	10.007	0.8	0.1	5.3582
18960	10.106	0.9	0.1	6.2996
18961	9.8083	0.8	0.1	6.9682
18962	9.9076	0.9	0.1	8.0099
18963	9.6098	0.8	0.1	8.6902
18964	9.7091	0.9	0.1	9.844
18965	9.4114	0.8	0.1	10.528
18966	9.5106	0.9	0.1	11.808
18967	9.2129	0.8	0.1	12.486
18968	9.3121	0.9	0.1	13.907
18969	9.0144	0.8	0.1	14.566
18970	9.1136	0.9	0.1	16.146
18971	8.8159	0.8	0.1	16.766
18972	8.9152	0.9	0.1	18.526
18973	8.6174	0.8	0.1	19.086
18974	8.7167	0.9	0.1	21.05
18975	8.4189	0.8	0.1	21.517
18976	8.5182	0.9	0.1	23.713
18977	8.2205	0.8	0.1	24.05
18978	8.3197	0.9	0.1	26.511
18979	8.022	0.8	0.1	26.667
18980	8.1212	0.9	0.1	29.43
18981	7.8235	0.8	0.1	29.344
18982	7.9227	0.9	0.1	32.454
18983	7.625	0.8	0.1	32.047
18984	7.7242	0.9	0.1	35.556
18985	7.4265	0.8	0.1	34.733
18986	7.5258	0.9	0.1	38.701
18987	7.228	0.8	0.1	37.342
18988	7.3273	0.9	0.1	41.84
18989	7.0295	0.8	0.1	39.8
18990	7.1288	0.9	0.1	44.91
18991	6.8311	0.8	0.1	42.012
18992	6.9303	0.9	0.1	47.831
18993	6.6326	0.8	0.1	43.86
18994	6.7318	0.9	0.1	50.501
18995	6.4341	0.8	0.1	45.201
18996	6.5333	0.9	0.1	52.79
18997	6.2356	0.8	0.1	45.858
18998	6.3348	0.9	0.1	54.545
18999	6.0371	0.8	0.1	45.625
19000	6.1364	0.9	0.1	55.576
19001	5.8386	0.8	0.1	44.257
19002	5.9379	0.9	0.1	55.658
19003	5.6402	0.8	0.1	41.473
19004	5.7394	0.9	0.1	54.529
19005	5.4417	0.8	0.1	36.96
19006	5.5409	0.9	0.1	51.887
19007	5.2432	0.8	0.1	30.385
19008	5.3424	0.9	0.1	47.39
19009	5.0447	0.8	0.1	21.459
19010	5.1439	0.9	0.1	40.672
19011	4.8462	0.8	0.1	10.398
19012	4.9455	0.9	0.1	31.378
19013	4.6477	0.8	0.1	2.5812
19014	4.747	0.9	0.1	19.376
19015	4.4492	0.8	0.1	1.2493
19016	4.5485	0.9	0.1	6.8936
19017	4.2508	0.8	0.1	0.96829
19018	4.35	0.9	0.1	2.4195
19019	4.0523	0.8	0.1	0.90365
19020	4.1515	0.9	0.1	1.6143
19021	3.8538	0.8	0.1	0.93051
19022	3.953	0.9	0.1	1.399
19023	3.6553	0.8	0.1	1.0201
19024	3.7545	0.9	0.1	1.3677
19025	3.4568	0.8	0.1	1.1609
19026	3.5561	0.9	0.1	1.4335
19027	3.2583	0.8	0.1	1.3827
19028	3.3576	0.9	0.1	1.5516
19029	3.0598	0.8	0.1	1.6104
19030	3.1591	0.9	0.1	1.7787
19031	2.8614	0.8	0.1	2.2097
19032	2.9606	0.9	0.1	1.803
19033	2.6629	0.8	0.1	1.5969
19034	2.7621	0.9	0.1	2.8372
19035	2.4644	0.8	0.1	6.348
19036	2.5636	0.9	0.1	-0.20936
19037	2.3652	0.9	0.1	12.671
19038	2.2659	0.8	0.1	-0.67719
19039	23.702	1.	0.1	-0.11153
19040	23.802	1.1	0.1	-3.7474e-002
19041	23.901	1.	0.1	-0.26461
19042	23.504	1.	0.1	-0.1691
19043	23.603	1.1	0.1	-0.28137
19044	23.305	1.	0.1	-7.5901e-002
19045	23.405	1.1	0.1	-9.06e-002
19046	23.107	1.	0.1	-5.952e-002
19047	23.206	1.1	0.1	-8.2358e-002
19048	22.908	1.	0.1	-4.0262e-002
19049	23.008	1.1	0.1	-5.3432e-002
19050	22.71	1.	0.1	-3.0029e-002
19051	22.809	1.1	0.1	-4.1334e-002
19052	22.511	1.	0.1	-2.2292e-002
19053	22.611	1.1	0.1	-3.1324e-002
19054	22.313	1.	0.1	-1.69e-002
19055	22.412	1.1	0.1	-2.4606e-002
19056	22.114	1.	0.1	-1.2875e-002
19057	22.214	1.1	0.1	-1.9521e-002
19058	21.916	1.	0.1	-9.8536e-003
19059	22.015	1.1	0.1	-1.5698e-002
19060	21.717	1.	0.1	-7.5369e-003
19061	21.817	1.1	0.1	-1.2735e-002
19062	21.519	1.	0.1	-5.7382e-003
19063	21.618	1.1	0.1	-1.0415e-002
19064	21.32	1.	0.1	-4.3242e-003
19065	21.42	1.1	0.1	-8.5643e-003
19066	21.122	1.	0.1	-3.1984e-003
19067	21.221	1.1	0.1	-7.0719e-003
19068	20.923	1.	0.1	-2.298e-003
19069	21.023	1.1	0.1	-5.8534e-003
19070	20.725	1.	0.1	-1.5691e-003
19071	20.824	1.1	0.1	-4.8572e-003
19072	20.527	1.	0.1	-9.6676e-004
19073	20.626	1.1	0.1	-4.0216e-003
19074	20.328	1.	0.1	-4.7292e-004
19075	20.427	1.1	0.1	-3.3163e-003
19076	20.13	1.	0.1	-6.7316e-005
19077	20.229	1.1	0.1	-2.7269e-003
19078	19.931	1.	0.1	2.7337e-004
19079	20.03	1.1	0.1	-2.2231e-003
19080	19.733	1.	0.1	5.6307e-004
19081	19.832	1.1	0.1	-1.788e-003
19082	19.534	1.	0.1	8.0533e-004
19083	19.633	1.1	0.1	-1.4081e-003
19084	19.336	1.	0.1	1.008e-003
19085	19.435	1.1	0.1	-1.088e-003
19086	19.137	1.	0.1	1.183e-003
19087	19.236	1.1	0.1	-8.055e-004
19088	18.939	1.	0.1	1.3359e-003
19089	19.038	1.1	0.1	-5.5577e-004
19090	18.74	1.	0.1	1.4613e-003
19091	18.839	1.1	0.1	-3.3201e-004
19092	18.542	1.	0.1	1.5677e-003
19093	18.641	1.1	0.1	-1.4806e-004
19094	18.343	1.	0.1	1.6716e-003
19095	18.442	1.1	0.1	2.8447e-005
19096	18.145	1.	0.1	1.7627e-003
19097	18.244	1.1	0.1	1.9552e-004
19098	17.946	1.	0.1	1.8389e-003
19099	18.045	1.1	0.1	3.3436e-004
19100	17.748	1.	0.1	1.9073e-003
19101	17.847	1.1	0.1	4.6328e-004
19102	17.549	1.	0.1	1.972e-003
19103	17.648	1.1	0.1	5.8151e-004
19104	17.351	1.	0.1	2.0255e-003
19105	17.45	1.1	0.1	6.9544e-004
19106	17.152	1.	0.1	2.0652e-003
19107	17.252	1.1	0.1	7.8208e-004
19108	16.954	1.	0.1	2.1028e-003
19109	17.053	1.1	0.1	8.6521e-004
19110	16.755	1.	0.1	2.1407e-003
19111	16.855	1.1	0.1	9.445e-004
19112	16.557	1.	0.1	2.1662e-003
19113	16.656	1.1	0.1	1.022e-003
19114	16.358	1.	0.1	2.1864e-003
19115	16.458	1.1	0.1	1.0714e-003
19116	16.16	1.	0.1	2.2203e-003
19117	16.259	1.1	0.1	1.1344e-003
19118	15.961	1.	0.1	2.2489e-003
19119	16.061	1.1	0.1	1.2082e-003
19120	15.763	1.	0.1	2.2658e-003
19121	15.862	1.1	0.1	1.2579e-003
19122	15.564	1.	0.1	2.2844e-003
19123	15.664	1.1	0.1	1.3067e-003
19124	15.366	1.	0.1	2.307e-003
19125	15.465	1.1	0.1	1.3592e-003
19126	15.167	1.	0.1	2.3202e-003
19127	15.267	1.1	0.1	1.414e-003
19128	14.969	1.	0.1	2.3235e-003
19129	15.068	1.1	0.1	1.4458e-003
19130	14.77	1.	0.1	2.3309e-003
19131	14.87	1.1	0.1	1.4827e-003
19132	14.572	1.	0.1	2.3436e-003
19133	14.671	1.1	0.1	1.5227e-003
19134	14.373	1.	0.1	2.3457e-003
19135	14.473	1.1	0.1	1.5712e-003
19136	14.175	1.	0.1	2.3454e-003
19137	14.274	1.1	0.1	1.5923e-003
19138	13.977	1.	0.1	2.3695e-003
19139	14.076	1.1	0.1	1.6389e-003
19140	13.778	1.	0.1	2.3942e-003
19141	13.877	1.1	0.1	1.713e-003
19142	13.58	1.	0.1	2.4139e-003
19143	13.679	1.1	0.1	1.7669e-003
19144	13.381	1.	0.1	2.449e-003
19145	13.48	1.1	0.1	1.8384e-003
19146	13.183	1.	0.1	2.5039e-003
19147	13.282	1.1	0.1	1.9352e-003
19148	12.984	1.	0.1	2.568e-003
19149	13.083	1.1	0.1	2.0628e-003
19150	12.786	1.	0.1	2.65e-003
19151	12.885	1.1	0.1	2.1998e-003
19152	12.587	1.	0.1	2.7828e-003
19153	12.686	1.1	0.1	2.4003e-003
19154	12.389	1.	0.1	2.9935e-003
19155	12.488	1.1	0.1	2.6963e-003
19156	12.19	1.	0.1	3.3085e-003
19157	12.289	1.1	0.1	3.1517e-003
19158	11.992	1.	0.1	3.831e-003
19159	12.091	1.1	0.1	3.8482e-003
19160	11.793	1.	0.1	4.8051e-003
19161	11.892	1.1	0.1	5.1523e-003
19162	11.595	1.	0.1	6.8138e-003
19163	11.694	1.1	0.1	8.024e-003
19164	11.396	1.	0.1	1.2606e-002
19165	11.495	1.1	0.1	1.7818e-002
19166	11.198	1.	0.1	7.687e-002
19167	11.297	1.1	0.1	0.27844
19168	10.999	1.	0.1	1.1155
19169	11.098	1.1	0.1	1.514
19170	10.801	1.	0.1	2.4523
19171	10.9	1.1	0.1	2.8987
19172	10.602	1.	0.1	3.8972
19173	10.702	1.1	0.1	4.3942
19174	10.404	1.	0.1	5.4534
19175	10.503	1.1	0.1	6.007
19176	10.205	1.	0.1	7.128
19177	10.305	1.1	0.1	7.7448
19178	10.007	1.	0.1	8.9289
19179	10.106	1.1	0.1	9.6171
19180	9.8083	1.	0.1	10.864
19181	9.9076	1.1	0.1	11.633
19182	9.6098	1.	0.1	12.941
19183	9.7091	1.1	0.1	13.801
19184	9.4114	1.	0.1	15.166
19185	9.5106	1.1	0.1	16.13
19186	9.2129	1.	0.1	17.547
19187	9.3121	1.1	0.1	18.63
19188	9.0144	1.	0.1	20.087
19189	9.1136	1.1	0.1	21.308
19190	8.8159	1.	0.1	22.792
19191	8.9152	1.1	0.1	24.17
19192	8.6174	1.	0.1	25.66
19193	8.7167	1.1	0.1	27.22
19194	8.4189	1.	0.1	28.69
19195	8.5182	1.1	0.1	30.462
19196	8.2205	1.	0.1	31.874
19197	8.3197	1.1	0.1	33.893
19198	8.022	1.	0.1	35.201
19199	8.1212	1.1	0.1	37.508
19200	7.8235	1.	0.1	38.651
19201	7.9227	1.1	0.1	41.295
19202	7.625	1.	0.1	42.195
19203	7.7242	1.1	0.1	45.236
19204	7.4265	1.	0.1	45.793
19205	7.5258	1.1	0.1	49.302
19206	7.228	1.	0.1	49.395
19207	7.3273	1.1	0.1	53.453
19208	7.0295	1.	0.1	52.928
19209	7.1288	1.1	0.1	57.637
19210	6.8311	1.	0.1	56.306
19211	6.9303	1.1	0.1	61.781
19212	6.6326	1.	0.1	59.416
19213	6.7318	1.1	0.1	65.796
19214	6.4341	1.	0.1	62.119
19215	6.5333	1.1	0.1	69.566
19216	6.2356	1.	0.1	64.246
19217	6.3348	1.1	0.1	72.948
19218	6.0371	1.	0.1	65.591
19219	6.1364	1.1	0.1	75.766
19220	5.8386	1.	0.1	65.911
19221	5.9379	1.1	0.1	77.808
19222	5.6402	1.	0.1	64.923
19223	5.7394	1.1	0.1	78.823
19224	5.4417	1.	0.1	62.3
19225	5.5409	1.1	0.1	78.513
19226	5.2432	1.	0.1	57.673
19227	5.3424	1.1	0.1	76.534
19228	5.0447	1.	0.1	50.638
19229	5.1439	1.1	0.1	72.489
19230	4.8462	1.	0.1	40.785
19231	4.9455	1.1	0.1	65.929
19232	4.6477	1.	0.1	27.844
19233	4.747	1.1	0.1	56.353
19234	4.4492	1.	0.1	12.901
19235	4.5485	1.1	0.1	43.263
19236	4.2508	1.	0.1	4.2912
19237	4.35	1.1	0.1	26.564
19238	4.0523	1.	0.1	2.5016
19239	4.1515	1.1	0.1	10.281
19240	3.8538	1.	0.1	2.0188
19241	3.953	1.1	0.1	4.3879
19242	3.6553	1.	0.1	1.8731
19243	3.7545	1.1	0.1	3.017
19244	3.4568	1.	0.1	1.8619
19245	3.5561	1.1	0.1	2.5567
19246	3.2583	1.	0.1	1.952
19247	3.3576	1.1	0.1	2.3807
19248	3.0598	1.	0.1	1.97
19249	3.1591	1.1	0.1	2.3795
19250	2.8614	1.	0.1	2.468
19251	2.9606	1.1	0.1	2.27
19252	2.6629	1.	0.1	1.1729
19253	2.7621	1.1	0.1	3.1108
19254	2.4644	1.	0.1	6.8596
19255	2.5636	1.1	0.1	-0.90681
19256	2.3652	1.1	0.1	12.477
19257	2.2659	1.	0.1	2.0543
19258	23.702	1.2	0.1	-0.13562
19259	23.802	1.3	0.1	-6.5278e-002
19260	23.901	1.2	0.1	-0.27374
19261	23.504	1.2	0.1	-0.18707
19262	23.603	1.3	0.1	-0.2994
19263	23.305	1.2	0.1	-9.0748e-002
19264	23.405	1.3	0.1	-0.10416
19265	23.107	1.2	0.1	-7.2873e-002
19266	23.206	1.3	0.1	-9.4561e-002
19267	22.908	1.2	0.1	-5.2306e-002
19268	23.008	1.3	0.1	-6.4361e-002
19269	22.71	1.2	0.1	-4.1041e-002
19270	22.809	1.3	0.1	-5.1344e-002
19271	22.511	1.2	0.1	-3.241e-002
19272	22.611	1.3	0.1	-4.0548e-002
19273	22.313	1.2	0.1	-2.6236e-002
19274	22.412	1.3	0.1	-3.3153e-002
19275	22.114	1.2	0.1	-2.1521e-002
19276	22.214	1.3	0.1	-2.7472e-002
19277	21.916	1.2	0.1	-1.7882e-002
19278	22.015	1.3	0.1	-2.3115e-002
19279	21.717	1.2	0.1	-1.5014e-002
19280	21.817	1.3	0.1	-1.9671e-002
19281	21.519	1.2	0.1	-1.272e-002
19282	21.618	1.3	0.1	-1.6918e-002
19283	21.32	1.2	0.1	-1.0856e-002
19284	21.42	1.3	0.1	-1.4673e-002
19285	21.122	1.2	0.1	-9.3247e-003
19286	21.221	1.3	0.1	-1.2823e-002
19287	20.923	1.2	0.1	-8.0563e-003
19288	21.023	1.3	0.1	-1.1279e-002
19289	20.725	1.2	0.1	-6.9926e-003
19290	20.824	1.3	0.1	-9.9832e-003
19291	20.527	1.2	0.1	-6.0881e-003
19292	20.626	1.3	0.1	-8.8765e-003
19293	20.328	1.2	0.1	-5.3168e-003
19294	20.427	1.3	0.1	-7.9215e-003
19295	20.13	1.2	0.1	-4.6552e-003
19296	20.229	1.3	0.1	-7.1028e-003
19297	19.931	1.2	0.1	-4.0799e-003
19298	20.03	1.3	0.1	-6.3857e-003
19299	19.733	1.2	0.1	-3.5748e-003
19300	19.832	1.3	0.1	-5.756e-003
19301	19.534	1.2	0.1	-3.1352e-003
19302	19.633	1.3	0.1	-5.1956e-003
19303	19.336	1.2	0.1	-2.7513e-003
19304	19.435	1.3	0.1	-4.7107e-003
19305	19.137	1.2	0.1	-2.4085e-003
19306	19.236	1.3	0.1	-4.273e-003
19307	18.939	1.2	0.1	-2.1008e-003
19308	19.038	1.3	0.1	-3.8801e-003
19309	18.74	1.2	0.1	-1.8301e-003
19310	18.839	1.3	0.1	-3.523e-003
19311	18.542	1.2	0.1	-1.5865e-003
19312	18.641	1.3	0.1	-3.2136e-003
19313	18.343	1.2	0.1	-1.3564e-003
19314	18.442	1.3	0.1	-2.922e-003
19315	18.145	1.2	0.1	-1.1501e-003
19316	18.244	1.3	0.1	-2.6455e-003
19317	17.946	1.2	0.1	-9.6635e-004
19318	18.045	1.3	0.1	-2.4058e-003
19319	17.748	1.2	0.1	-7.9472e-004
19320	17.847	1.3	0.1	-2.1829e-003
19321	17.549	1.2	0.1	-6.3371e-004
19322	17.648	1.3	0.1	-1.9747e-003
19323	17.351	1.2	0.1	-4.9263e-004
19324	17.45	1.3	0.1	-1.7777e-003
19325	17.152	1.2	0.1	-3.6802e-004
19326	17.252	1.3	0.1	-1.6123e-003
19327	16.954	1.2	0.1	-2.4833e-004
19328	17.053	1.3	0.1	-1.4545e-003
19329	16.755	1.2	0.1	-1.3418e-004
19330	16.855	1.3	0.1	-1.3037e-003
19331	16.557	1.2	0.1	-3.7155e-005
19332	16.656	1.3	0.1	-1.1584e-003
19333	16.358	1.2	0.1	5.0896e-005
19334	16.458	1.3	0.1	-1.0445e-003
19335	16.16	1.2	0.1	1.4981e-004
19336	16.259	1.3	0.1	-9.2054e-004
19337	15.961	1.2	0.1	2.4081e-004
19338	16.061	1.3	0.1	-7.8848e-004
19339	15.763	1.2	0.1	3.187e-004
19340	15.862	1.3	0.1	-6.8202e-004
19341	15.564	1.2	0.1	3.9781e-004
19342	15.664	1.3	0.1	-5.7724e-004
19343	15.366	1.2	0.1	4.7897e-004
19344	15.465	1.3	0.1	-4.6957e-004
19345	15.167	1.2	0.1	5.4881e-004
19346	15.267	1.3	0.1	-3.6243e-004
19347	14.969	1.2	0.1	6.1044e-004
19348	15.068	1.3	0.1	-2.7758e-004
19349	14.77	1.2	0.1	6.7627e-004
19350	14.87	1.3	0.1	-1.8801e-004
19351	14.572	1.2	0.1	7.4803e-004
19352	14.671	1.3	0.1	-9.4229e-005
19353	14.373	1.2	0.1	8.1141e-004
19354	14.473	1.3	0.1	8.5692e-006
19355	14.175	1.2	0.1	8.7512e-004
19356	14.274	1.3	0.1	8.6442e-005
19357	13.977	1.2	0.1	9.6718e-004
19358	14.076	1.3	0.1	1.928e-004
19359	13.778	1.2	0.1	1.0654e-003
19360	13.877	1.3	0.1	3.319e-004
19361	13.58	1.2	0.1	1.1657e-003
19362	13.679	1.3	0.1	4.5626e-004
19363	13.381	1.2	0.1	1.2931e-003
19364	13.48	1.3	0.1	6.0808e-004
19365	13.183	1.2	0.1	1.4565e-003
19366	13.282	1.3	0.1	7.9811e-004
19367	12.984	1.2	0.1	1.6509e-003
19368	13.083	1.3	0.1	1.0398e-003
19369	12.786	1.2	0.1	1.9006e-003
19370	12.885	1.3	0.1	1.3231e-003
19371	12.587	1.2	0.1	2.2608e-003
19372	12.686	1.3	0.1	1.7252e-003
19373	12.389	1.2	0.1	2.8051e-003
19374	12.488	1.3	0.1	2.3245e-003
19375	12.19	1.2	0.1	3.6676e-003
19376	12.289	1.3	0.1	3.2958e-003
19377	11.992	1.2	0.1	5.2505e-003
19378	12.091	1.3	0.1	5.0445e-003
19379	11.793	1.2	0.1	8.9503e-003
19380	11.892	1.3	0.1	9.2981e-003
19381	11.595	1.2	0.1	2.467e-002
19382	11.694	1.3	0.1	3.0771e-002
19383	11.396	1.2	0.1	0.5444
19384	11.495	1.3	0.1	0.71208
19385	11.198	1.2	0.1	1.8478
19386	11.297	1.3	0.1	2.0471
19387	10.999	1.2	0.1	3.2751
19388	11.098	1.3	0.1	3.5017
19389	10.801	1.2	0.1	4.8169
19390	10.9	1.3	0.1	5.0738
19391	10.602	1.2	0.1	6.4806
19392	10.702	1.3	0.1	6.7715
19393	10.404	1.2	0.1	8.2755
19394	10.503	1.3	0.1	8.6051
19395	10.205	1.2	0.1	10.212
19396	10.305	1.3	0.1	10.585
19397	10.007	1.2	0.1	12.299
19398	10.106	1.3	0.1	12.723
19399	9.8083	1.2	0.1	14.548
19400	9.9076	1.3	0.1	15.031
19401	9.6098	1.2	0.1	16.97
19402	9.7091	1.3	0.1	17.521
19403	9.4114	1.2	0.1	19.575
19404	9.5106	1.3	0.1	20.205
19405	9.2129	1.2	0.1	22.372
19406	9.3121	1.3	0.1	23.095
19407	9.0144	1.2	0.1	25.372
19408	9.1136	1.3	0.1	26.204
19409	8.8159	1.2	0.1	28.581
19410	8.9152	1.3	0.1	29.541
19411	8.6174	1.2	0.1	32.006
19412	8.7167	1.3	0.1	33.119
19413	8.4189	1.2	0.1	35.649
19414	8.5182	1.3	0.1	36.944
19415	8.2205	1.2	0.1	39.512
19416	8.3197	1.3	0.1	41.022
19417	8.022	1.2	0.1	43.588
19418	8.1212	1.3	0.1	45.356
19419	7.8235	1.2	0.1	47.867
19420	7.9227	1.3	0.1	49.944
19421	7.625	1.2	0.1	52.33
19422	7.7242	1.3	0.1	54.778
19423	7.4265	1.2	0.1	56.949
19424	7.5258	1.3	0.1	59.842
19425	7.228	1.2	0.1	61.684
19426	7.3273	1.3	0.1	65.11
19427	7.0295	1.2	0.1	66.478
19428	7.1288	1.3	0.1	70.545
19429	6.8311	1.2	0.1	71.259
19430	6.9303	1.3	0.1	76.096
19431	6.6326	1.2	0.1	75.934
19432	6.7318	1.3	0.1	81.692
19433	6.4341	1.2	0.1	80.381
19434	6.5333	1.3	0.1	87.242
19435	6.2356	1.2	0.1	84.454
19436	6.3348	1.3	0.1	92.629
19437	6.0371	1.2	0.1	87.968
19438	6.1364	1.3	0.1	97.708
19439	5.8386	1.2	0.1	90.703
19440	5.9379	1.3	0.1	102.3
19441	5.6402	1.2	0.1	92.395
19442	5.7394	1.3	0.1	106.17
19443	5.4417	1.2	0.1	92.73
19444	5.5409	1.3	0.1	109.07
19445	5.2432	1.2	0.1	91.34
19446	5.3424	1.3	0.1	110.67
19447	5.0447	1.2	0.1	87.79
19448	5.1439	1.3	0.1	110.58
19449	4.8462	1.2	0.1	81.567
19450	4.9455	1.3	0.1	108.32
19451	4.6477	1.2	0.1	72.058
19452	4.747	1.3	0.1	103.31
19453	4.4492	1.2	0.1	58.539
19454	4.5485	1.3	0.1	94.799
19455	4.2508	1.2	0.1	40.356
19456	4.35	1.3	0.1	81.776
19457	4.0523	1.2	0.1	19.053
19458	4.1515	1.3	0.1	62.949
19459	3.8538	1.2	0.1	6.9304
19460	3.953	1.3	0.1	37.41
19461	3.6553	1.2	0.1	4.0809
19462	3.7545	1.3	0.1	13.197
19463	3.4568	1.2	0.1	3.1772
19464	3.5561	1.3	0.1	5.8301
19465	3.2583	1.2	0.1	2.8139
19466	3.3576	1.3	0.1	3.9935
19467	3.0598	1.2	0.1	2.6549
19468	3.1591	1.3	0.1	3.4146
19469	2.8614	1.2	0.1	2.9039
19470	2.9606	1.3	0.1	3.1952
19471	2.6629	1.2	0.1	1.0811
19472	2.7621	1.3	0.1	3.3116
19473	2.4644	1.2	0.1	5.1743
19474	2.5636	1.3	0.1	-0.79486
19475	2.3652	1.3	0.1	23.109
19476	2.2659	1.2	0.1	-4.9391
19477	23.702	1.4	0.1	-0.1541
19478	23.802	1.5	0.1	-8.6735e-002
19479	23.901	1.4	0.1	-0.28126
19480	23.504	1.4	0.1	-0.20055
19481	23.603	1.5	0.1	-0.31274
19482	23.305	1.4	0.1	-0.10186
19483	23.405	1.5	0.1	-0.11411
19484	23.107	1.4	0.1	-8.2918e-002
19485	23.206	1.5	0.1	-0.10352
19486	22.908	1.4	0.1	-6.1468e-002
19487	23.008	1.5	0.1	-7.2444e-002
19488	22.71	1.4	0.1	-4.9508e-002
19489	22.809	1.5	0.1	-5.881e-002
19490	22.511	1.4	0.1	-4.028e-002
19491	22.611	1.5	0.1	-4.7493e-002
19492	22.313	1.4	0.1	-3.3585e-002
19493	22.412	1.5	0.1	-3.9655e-002
19494	22.114	1.4	0.1	-2.8403e-002
19495	22.214	1.5	0.1	-3.358e-002
19496	21.916	1.4	0.1	-2.4343e-002
19497	22.015	1.5	0.1	-2.887e-002
19498	21.717	1.4	0.1	-2.1092e-002
19499	21.817	1.5	0.1	-2.5105e-002
19500	21.519	1.4	0.1	-1.8449e-002
19501	21.618	1.5	0.1	-2.2057e-002
19502	21.32	1.4	0.1	-1.6268e-002
19503	21.42	1.5	0.1	-1.9543e-002
19504	21.122	1.4	0.1	-1.4446e-002
19505	21.221	1.5	0.1	-1.7446e-002
19506	20.923	1.4	0.1	-1.291e-002
19507	21.023	1.5	0.1	-1.5673e-002
19508	20.725	1.4	0.1	-1.1601e-002
19509	20.824	1.5	0.1	-1.4169e-002
19510	20.527	1.4	0.1	-1.0469e-002
19511	20.626	1.5	0.1	-1.2868e-002
19512	20.328	1.4	0.1	-9.4894e-003
19513	20.427	1.5	0.1	-1.1732e-002
19514	20.13	1.4	0.1	-8.635e-003
19515	20.229	1.5	0.1	-1.0747e-002
19516	19.931	1.4	0.1	-7.8811e-003
19517	20.03	1.5	0.1	-9.8763e-003
19518	19.733	1.4	0.1	-7.2118e-003
19519	19.832	1.5	0.1	-9.1028e-003
19520	19.534	1.4	0.1	-6.6202e-003
19521	19.633	1.5	0.1	-8.4102e-003
19522	19.336	1.4	0.1	-6.0941e-003
19523	19.435	1.5	0.1	-7.7996e-003
19524	19.137	1.4	0.1	-5.6177e-003
19525	19.236	1.5	0.1	-7.2471e-003
19526	18.939	1.4	0.1	-5.1857e-003
19527	19.038	1.5	0.1	-6.7465e-003
19528	18.74	1.4	0.1	-4.7993e-003
19529	18.839	1.5	0.1	-6.2875e-003
19530	18.542	1.4	0.1	-4.4504e-003
19531	18.641	1.5	0.1	-5.884e-003
19532	18.343	1.4	0.1	-4.1203e-003
19533	18.442	1.5	0.1	-5.5048e-003
19534	18.145	1.4	0.1	-3.8175e-003
19535	18.244	1.5	0.1	-5.1443e-003
19536	17.946	1.4	0.1	-3.5452e-003
19537	18.045	1.5	0.1	-4.8264e-003
19538	17.748	1.4	0.1	-3.2919e-003
19539	17.847	1.5	0.1	-4.5301e-003
19540	17.549	1.4	0.1	-3.0532e-003
19541	17.648	1.5	0.1	-4.253e-003
19542	17.351	1.4	0.1	-2.837e-003
19543	17.45	1.5	0.1	-3.9905e-003
19544	17.152	1.4	0.1	-2.6433e-003
19545	17.252	1.5	0.1	-3.7611e-003
19546	16.954	1.4	0.1	-2.4588e-003
19547	17.053	1.5	0.1	-3.5457e-003
19548	16.755	1.4	0.1	-2.2811e-003
19549	16.855	1.5	0.1	-3.3394e-003
19550	16.557	1.4	0.1	-2.123e-003
19551	16.656	1.5	0.1	-3.1403e-003
19552	16.358	1.4	0.1	-1.977e-003
19553	16.458	1.5	0.1	-2.9752e-003
19554	16.16	1.4	0.1	-1.8235e-003
19555	16.259	1.5	0.1	-2.8022e-003
19556	15.961	1.4	0.1	-1.6796e-003
19557	16.061	1.5	0.1	-2.6233e-003
19558	15.763	1.4	0.1	-1.5497e-003
19559	15.862	1.5	0.1	-2.4721e-003
19560	15.564	1.4	0.1	-1.4198e-003
19561	15.664	1.5	0.1	-2.3226e-003
19562	15.366	1.4	0.1	-1.2896e-003
19563	15.465	1.5	0.1	-2.1731e-003
19564	15.167	1.4	0.1	-1.171e-003
19565	15.267	1.5	0.1	-2.0228e-003
19566	14.969	1.4	0.1	-1.0618e-003
19567	15.068	1.5	0.1	-1.8964e-003
19568	14.77	1.4	0.1	-9.4812e-004
19569	14.87	1.5	0.1	-1.7666e-003
19570	14.572	1.4	0.1	-8.2734e-004
19571	14.671	1.5	0.1	-1.631e-003
19572	14.373	1.4	0.1	-7.144e-004
19573	14.473	1.5	0.1	-1.4865e-003
19574	14.175	1.4	0.1	-5.9865e-004
19575	14.274	1.5	0.1	-1.3655e-003
19576	13.977	1.4	0.1	-4.5058e-004
19577	14.076	1.5	0.1	-1.2136e-003
19578	13.778	1.4	0.1	-2.9138e-004
19579	13.877	1.5	0.1	-1.0259e-003
19580	13.58	1.4	0.1	-1.2248e-004
19581	13.679	1.5	0.1	-8.4796e-004
19582	13.381	1.4	0.1	8.3747e-005
19583	13.48	1.5	0.1	-6.3323e-004
19584	13.183	1.4	0.1	3.4229e-004
19585	13.282	1.5	0.1	-3.6958e-004
19586	12.984	1.4	0.1	6.6082e-004
19587	13.083	1.5	0.1	-3.1701e-005
19588	12.786	1.4	0.1	1.0814e-003
19589	12.885	1.5	0.1	3.8566e-004
19590	12.587	1.4	0.1	1.7038e-003
19591	12.686	1.5	0.1	9.9606e-004
19592	12.389	1.4	0.1	2.7081e-003
19593	12.488	1.5	0.1	1.9691e-003
19594	12.19	1.4	0.1	4.5536e-003
19595	12.289	1.5	0.1	3.7685e-003
19596	11.992	1.4	0.1	9.1111e-003
19597	12.091	1.5	0.1	8.1401e-003
19598	11.793	1.4	0.1	3.5943e-002
19599	11.892	1.5	0.1	3.4415e-002
19600	11.595	1.4	0.1	0.8357
19601	11.694	1.5	0.1	0.85117
19602	11.396	1.4	0.1	2.1967
19603	11.495	1.5	0.1	2.2227
19604	11.198	1.4	0.1	3.6765
19605	11.297	1.5	0.1	3.7135
19606	10.999	1.4	0.1	5.2761
19607	11.098	1.5	0.1	5.3254
19608	10.801	1.4	0.1	7.0047
19609	10.9	1.5	0.1	7.0684
19610	10.602	1.4	0.1	8.873
19611	10.702	1.5	0.1	8.9533
19612	10.404	1.4	0.1	10.892
19613	10.503	1.5	0.1	10.993
19614	10.205	1.4	0.1	13.075
19615	10.305	1.5	0.1	13.199
19616	10.007	1.4	0.1	15.435
19617	10.106	1.5	0.1	15.587
19618	9.8083	1.4	0.1	17.984
19619	9.9076	1.5	0.1	18.17
19620	9.6098	1.4	0.1	20.736
19621	9.7091	1.5	0.1	20.965
19622	9.4114	1.4	0.1	23.707
19623	9.5106	1.5	0.1	23.986
19624	9.2129	1.4	0.1	26.908
19625	9.3121	1.5	0.1	27.25
19626	9.0144	1.4	0.1	30.356
19627	9.1136	1.5	0.1	30.773
19628	8.8159	1.4	0.1	34.063
19629	8.9152	1.5	0.1	34.573
19630	8.6174	1.4	0.1	38.041
19631	8.7167	1.5	0.1	38.665
19632	8.4189	1.4	0.1	42.302
19633	8.5182	1.5	0.1	43.066
19634	8.2205	1.4	0.1	46.853
19635	8.3197	1.5	0.1	47.789
19636	8.022	1.4	0.1	51.7
19637	8.1212	1.5	0.1	52.848
19638	7.8235	1.4	0.1	56.843
19639	7.9227	1.5	0.1	58.251
19640	7.625	1.4	0.1	62.278
19641	7.7242	1.5	0.1	64.005
19642	7.4265	1.4	0.1	67.991
19643	7.5258	1.5	0.1	70.11
19644	7.228	1.4	0.1	73.961
19645	7.3273	1.5	0.1	76.559
19646	7.0295	1.4	0.1	80.153
19647	7.1288	1.5	0.1	83.337
19648	6.8311	1.4	0.1	86.518
19649	6.9303	1.5	0.1	90.417
19650	6.6326	1.4	0.1	92.99
19651	6.7318	1.5	0.1	97.758
19652	6.4341	1.4	0.1	99.479
19653	6.5333	1.5	0.1	105.3
19654	6.2356	1.4	0.1	105.87
19655	6.3348	1.5	0.1	112.97
19656	6.0371	1.4	0.1	112.02
19657	6.1364	1.5	0.1	120.66
19658	5.8386	1.4	0.1	117.75
19659	5.9379	1.5	0.1	128.23
19660	5.6402	1.4	0.1	122.84
19661	5.7394	1.5	0.1	135.51
19662	5.4417	1.4	0.1	127.
19663	5.5409	1.5	0.1	142.28
19664	5.2432	1.4	0.1	129.89
19665	5.3424	1.5	0.1	148.27
19666	5.0447	1.4	0.1	131.11
19667	5.1439	1.5	0.1	153.12
19668	4.8462	1.4	0.1	130.1
19669	4.9455	1.5	0.1	156.39
19670	4.6477	1.4	0.1	126.17
19671	4.747	1.5	0.1	157.47
19672	4.4492	1.4	0.1	118.34
19673	4.5485	1.5	0.1	155.54
19674	4.2508	1.4	0.1	105.21
19675	4.35	1.5	0.1	149.41
19676	4.0523	1.4	0.1	84.773
19677	4.1515	1.5	0.1	137.28
19678	3.8538	1.4	0.1	54.586
19679	3.953	1.5	0.1	116.37
19680	3.6553	1.4	0.1	19.716
19681	3.7545	1.5	0.1	82.598
19682	3.4568	1.4	0.1	7.1267
19683	3.5561	1.5	0.1	34.967
19684	3.2583	1.4	0.1	4.6012
19685	3.3576	1.5	0.1	9.5535
19686	3.0598	1.4	0.1	3.8921
19687	3.1591	1.5	0.1	5.7911
19688	2.8614	1.4	0.1	3.5389
19689	2.9606	1.5	0.1	3.3845
19690	2.6629	1.4	0.1	1.4304
19691	2.7621	1.5	0.1	9.6723
19692	2.4644	1.4	0.1	17.525
19693	2.5636	1.5	0.1	-5.4326
19694	2.3652	1.5	0.1	6.1187
19695	2.2659	1.4	0.1	27.148
19696	23.702	1.6	0.1	-0.16755
19697	23.802	1.7	0.1	-0.10315
19698	23.901	1.6	0.1	-0.28614
19699	23.504	1.6	0.1	-0.21012
19700	23.603	1.7	0.1	-0.32252
19701	23.305	1.6	0.1	-0.1097
19702	23.405	1.7	0.1	-0.1213
19703	23.107	1.6	0.1	-9.0035e-002
19704	23.206	1.7	0.1	-0.11
19705	22.908	1.6	0.1	-6.7998e-002
19706	23.008	1.7	0.1	-7.8315e-002
19707	22.71	1.6	0.1	-5.5592e-002
19708	22.809	1.7	0.1	-6.4262e-002
19709	22.511	1.6	0.1	-4.5986e-002
19710	22.611	1.7	0.1	-5.2599e-002
19711	22.313	1.6	0.1	-3.8963e-002
19712	22.412	1.7	0.1	-4.4471e-002
19713	22.114	1.6	0.1	-3.3488e-002
19714	22.214	1.7	0.1	-3.8141e-002
19715	21.916	1.6	0.1	-2.9162e-002
19716	22.015	1.7	0.1	-3.3202e-002
19717	21.717	1.6	0.1	-2.5667e-002
19718	21.817	1.7	0.1	-2.9228e-002
19719	21.519	1.6	0.1	-2.2799e-002
19720	21.618	1.7	0.1	-2.5987e-002
19721	21.32	1.6	0.1	-2.041e-002
19722	21.42	1.7	0.1	-2.3297e-002
19723	21.122	1.6	0.1	-1.8396e-002
19724	21.221	1.7	0.1	-2.1034e-002
19725	20.923	1.6	0.1	-1.6682e-002
19726	21.023	1.7	0.1	-1.9108e-002
19727	20.725	1.6	0.1	-1.5209e-002
19728	20.824	1.7	0.1	-1.7461e-002
19729	20.527	1.6	0.1	-1.3923e-002
19730	20.626	1.7	0.1	-1.6026e-002
19731	20.328	1.6	0.1	-1.28e-002
19732	20.427	1.7	0.1	-1.4766e-002
19733	20.13	1.6	0.1	-1.1814e-002
19734	20.229	1.7	0.1	-1.3666e-002
19735	19.931	1.6	0.1	-1.0938e-002
19736	20.03	1.7	0.1	-1.2689e-002
19737	19.733	1.6	0.1	-1.0154e-002
19738	19.832	1.7	0.1	-1.1814e-002
19739	19.534	1.6	0.1	-9.453e-003
19740	19.633	1.7	0.1	-1.1027e-002
19741	19.336	1.6	0.1	-8.8259e-003
19742	19.435	1.7	0.1	-1.0329e-002
19743	19.137	1.6	0.1	-8.2581e-003
19744	19.236	1.7	0.1	-9.6934e-003
19745	18.939	1.6	0.1	-7.7388e-003
19746	19.038	1.7	0.1	-9.1164e-003
19747	18.74	1.6	0.1	-7.2703e-003
19748	18.839	1.7	0.1	-8.585e-003
19749	18.542	1.6	0.1	-6.8433e-003
19750	18.641	1.7	0.1	-8.1133e-003
19751	18.343	1.6	0.1	-6.44e-003
19752	18.442	1.7	0.1	-7.6692e-003
19753	18.145	1.6	0.1	-6.0702e-003
19754	18.244	1.7	0.1	-7.2485e-003
19755	17.946	1.6	0.1	-5.7337e-003
19756	18.045	1.7	0.1	-6.8742e-003
19757	17.748	1.6	0.1	-5.4187e-003
19758	17.847	1.7	0.1	-6.5239e-003
19759	17.549	1.6	0.1	-5.1224e-003
19760	17.648	1.7	0.1	-6.1954e-003
19761	17.351	1.6	0.1	-4.851e-003
19762	17.45	1.7	0.1	-5.8843e-003
19763	17.152	1.6	0.1	-4.6041e-003
19764	17.252	1.7	0.1	-5.6098e-003
19765	16.954	1.6	0.1	-4.3707e-003
19766	17.053	1.7	0.1	-5.3497e-003
19767	16.755	1.6	0.1	-4.1467e-003
19768	16.855	1.7	0.1	-5.1024e-003
19769	16.557	1.6	0.1	-3.944e-003
19770	16.656	1.7	0.1	-4.864e-003
19771	16.358	1.6	0.1	-3.7552e-003
19772	16.458	1.7	0.1	-4.6608e-003
19773	16.16	1.6	0.1	-3.5601e-003
19774	16.259	1.7	0.1	-4.4519e-003
19775	15.961	1.6	0.1	-3.3771e-003
19776	16.061	1.7	0.1	-4.2378e-003
19777	15.763	1.6	0.1	-3.2094e-003
19778	15.862	1.7	0.1	-4.0534e-003
19779	15.564	1.6	0.1	-3.0433e-003
19780	15.664	1.7	0.1	-3.8711e-003
19781	15.366	1.6	0.1	-2.8769e-003
19782	15.465	1.7	0.1	-3.6912e-003
19783	15.167	1.6	0.1	-2.7221e-003
19784	15.267	1.7	0.1	-3.5103e-003
19785	14.969	1.6	0.1	-2.5785e-003
19786	15.068	1.7	0.1	-3.3551e-003
19787	14.77	1.6	0.1	-2.4304e-003
19788	14.87	1.7	0.1	-3.1962e-003
19789	14.572	1.6	0.1	-2.275e-003
19790	14.671	1.7	0.1	-3.0326e-003
19791	14.373	1.6	0.1	-2.1267e-003
19792	14.473	1.7	0.1	-2.8598e-003
19793	14.175	1.6	0.1	-1.9744e-003
19794	14.274	1.7	0.1	-2.7102e-003
19795	13.977	1.6	0.1	-1.7886e-003
19796	14.076	1.7	0.1	-2.5289e-003
19797	13.778	1.6	0.1	-1.5889e-003
19798	13.877	1.7	0.1	-2.3111e-003
19799	13.58	1.6	0.1	-1.3734e-003
19800	13.679	1.7	0.1	-2.0997e-003
19801	13.381	1.6	0.1	-1.1119e-003
19802	13.48	1.7	0.1	-1.8468e-003
19803	13.183	1.6	0.1	-7.831e-004
19804	13.282	1.7	0.1	-1.5354e-003
19805	12.984	1.6	0.1	-3.6658e-004
19806	13.083	1.7	0.1	-1.1315e-003
19807	12.786	1.6	0.1	2.0941e-004
19808	12.885	1.7	0.1	-6.0976e-004
19809	12.587	1.6	0.1	1.1164e-003
19810	12.686	1.7	0.1	1.9666e-004
19811	12.389	1.6	0.1	2.7714e-003
19812	12.488	1.7	0.1	1.6272e-003
19813	12.19	1.6	0.1	6.7597e-003
19814	12.289	1.7	0.1	4.95e-003
19815	11.992	1.6	0.1	2.9882e-002
19816	12.091	1.7	0.1	2.1402e-002
19817	11.793	1.6	0.1	0.83192
19818	11.892	1.7	0.1	0.71516
19819	11.595	1.6	0.1	2.2132
19820	11.694	1.7	0.1	2.0923
19821	11.396	1.6	0.1	3.7143
19822	11.495	1.7	0.1	3.5905
19823	11.198	1.6	0.1	5.3378
19824	11.297	1.7	0.1	5.2112
19825	10.999	1.6	0.1	7.0937
19826	11.098	1.7	0.1	6.9643
19827	10.801	1.6	0.1	8.9936
19828	10.9	1.7	0.1	8.8623
19829	10.602	1.6	0.1	11.05
19830	10.702	1.7	0.1	10.918
19831	10.404	1.6	0.1	13.278
19832	10.503	1.7	0.1	13.145
19833	10.205	1.6	0.1	15.69
19834	10.305	1.7	0.1	15.559
19835	10.007	1.6	0.1	18.302
19836	10.106	1.7	0.1	18.176
19837	9.8083	1.6	0.1	21.132
19838	9.9076	1.7	0.1	21.014
19839	9.6098	1.6	0.1	24.195
19840	9.7091	1.7	0.1	24.091
19841	9.4114	1.6	0.1	27.511
19842	9.5106	1.7	0.1	27.425
19843	9.2129	1.6	0.1	31.097
19844	9.3121	1.7	0.1	31.039
19845	9.0144	1.6	0.1	34.974
19846	9.1136	1.7	0.1	34.953
19847	8.8159	1.6	0.1	39.16
19848	8.9152	1.7	0.1	39.191
19849	8.6174	1.6	0.1	43.676
19850	8.7167	1.7	0.1	43.775
19851	8.4189	1.6	0.1	48.54
19852	8.5182	1.7	0.1	48.729
19853	8.2205	1.6	0.1	53.772
19854	8.3197	1.7	0.1	54.077
19855	8.022	1.6	0.1	59.388
19856	8.1212	1.7	0.1	59.843
19857	7.8235	1.6	0.1	65.403
19858	7.9227	1.7	0.1	66.05
19859	7.625	1.6	0.1	71.828
19860	7.7242	1.7	0.1	72.719
19861	7.4265	1.6	0.1	78.669
19862	7.5258	1.7	0.1	79.869
19863	7.228	1.6	0.1	85.927
19864	7.3273	1.7	0.1	87.516
19865	7.0295	1.6	0.1	93.594
19866	7.1288	1.7	0.1	95.669
19867	6.8311	1.6	0.1	101.65
19868	6.9303	1.7	0.1	104.33
19869	6.6326	1.6	0.1	110.06
19870	6.7318	1.7	0.1	113.5
19871	6.4341	1.6	0.1	118.79
19872	6.5333	1.7	0.1	123.14
19873	6.2356	1.6	0.1	127.75
19874	6.3348	1.7	0.1	133.24
19875	6.0371	1.6	0.1	136.85
19876	6.1364	1.7	0.1	143.73
19877	5.8386	1.6	0.1	145.97
19878	5.9379	1.7	0.1	154.54
19879	5.6402	1.6	0.1	154.94
19880	5.7394	1.7	0.1	165.55
19881	5.4417	1.6	0.1	163.54
19882	5.5409	1.7	0.1	176.61
19883	5.2432	1.6	0.1	171.48
19884	5.3424	1.7	0.1	187.51
19885	5.0447	1.6	0.1	178.4
19886	5.1439	1.7	0.1	197.96
19887	4.8462	1.6	0.1	183.78
19888	4.9455	1.7	0.1	207.56
19889	4.6477	1.6	0.1	186.92
19890	4.747	1.7	0.1	215.78
19891	4.4492	1.6	0.1	186.81
19892	4.5485	1.7	0.1	221.8
19893	4.2508	1.6	0.1	181.91
19894	4.35	1.7	0.1	224.44
19895	4.0523	1.6	0.1	169.79
19896	4.1515	1.7	0.1	221.85
19897	3.8538	1.6	0.1	146.59
19898	3.953	1.7	0.1	211.1
19899	3.6553	1.6	0.1	106.3
19900	3.7545	1.7	0.1	187.4
19901	3.4568	1.6	0.1	44.836
19902	3.5561	1.7	0.1	143.05
19903	3.2583	1.6	0.1	10.936
19904	3.3576	1.7	0.1	68.947
19905	3.0598	1.6	0.1	5.2292
19906	3.1591	1.7	0.1	14.222
19907	2.8614	1.6	0.1	9.4002
19908	2.9606	1.7	0.1	5.7137
19909	2.6629	1.6	0.1	2.7739
19910	2.7621	1.7	0.1	13.129
19911	2.4644	1.6	0.1	-16.684
19912	2.5636	1.7	0.1	-13.376
19913	2.3652	1.7	0.1	88.465
19914	2.2659	1.6	0.1	-86.014
19915	23.702	1.8	0.1	-0.17784
19916	23.802	1.9	0.1	-0.11596
19917	23.901	1.8	0.1	-0.28973
19918	23.504	1.8	0.1	-0.21729
19919	23.603	1.9	0.1	-0.32988
19920	23.305	1.8	0.1	-0.11553
19921	23.405	1.9	0.1	-0.12667
19922	23.107	1.8	0.1	-9.5328e-002
19923	23.206	1.9	0.1	-0.11482
19924	22.908	1.8	0.1	-7.2866e-002
19925	23.008	1.9	0.1	-8.2686e-002
19926	22.71	1.8	0.1	-6.0146e-002
19927	22.809	1.9	0.1	-6.8331e-002
19928	22.511	1.8	0.1	-5.0281e-002
19929	22.611	1.9	0.1	-5.6424e-002
19930	22.313	1.8	0.1	-4.3037e-002
19931	22.412	1.9	0.1	-4.8097e-002
19932	22.114	1.8	0.1	-3.7364e-002
19933	22.214	1.9	0.1	-4.1595e-002
19934	21.916	1.8	0.1	-3.286e-002
19935	22.015	1.9	0.1	-3.65e-002
19936	21.717	1.8	0.1	-2.9201e-002
19937	21.817	1.9	0.1	-3.2387e-002
19938	21.519	1.8	0.1	-2.6182e-002
19939	21.618	1.9	0.1	-2.9016e-002
19940	21.32	1.8	0.1	-2.3653e-002
19941	21.42	1.9	0.1	-2.6206e-002
19942	21.122	1.8	0.1	-2.1506e-002
19943	21.221	1.9	0.1	-2.3831e-002
19944	20.923	1.8	0.1	-1.967e-002
19945	21.023	1.9	0.1	-2.1799e-002
19946	20.725	1.8	0.1	-1.8081e-002
19947	20.824	1.9	0.1	-2.0054e-002
19948	20.527	1.8	0.1	-1.6688e-002
19949	20.626	1.9	0.1	-1.8527e-002
19950	20.328	1.8	0.1	-1.5466e-002
19951	20.427	1.9	0.1	-1.7181e-002
19952	20.13	1.8	0.1	-1.4386e-002
19953	20.229	1.9	0.1	-1.6e-002
19954	19.931	1.8	0.1	-1.3422e-002
19955	20.03	1.9	0.1	-1.4946e-002
19956	19.733	1.8	0.1	-1.2554e-002
19957	19.832	1.9	0.1	-1.4e-002
19958	19.534	1.8	0.1	-1.1779e-002
19959	19.633	1.9	0.1	-1.3146e-002
19960	19.336	1.8	0.1	-1.108e-002
19961	19.435	1.9	0.1	-1.2387e-002
19962	19.137	1.8	0.1	-1.0442e-002
19963	19.236	1.9	0.1	-1.1692e-002
19964	18.939	1.8	0.1	-9.8599e-003
19965	19.038	1.9	0.1	-1.1059e-002
19966	18.74	1.8	0.1	-9.3314e-003
19967	18.839	1.9	0.1	-1.0476e-002
19968	18.542	1.8	0.1	-8.848e-003
19969	18.641	1.9	0.1	-9.9552e-003
19970	18.343	1.8	0.1	-8.3916e-003
19971	18.442	1.9	0.1	-9.4649e-003
19972	18.145	1.8	0.1	-7.9712e-003
19973	18.244	1.9	0.1	-8.9997e-003
19974	17.946	1.8	0.1	-7.5873e-003
19975	18.045	1.9	0.1	-8.5847e-003
19976	17.748	1.8	0.1	-7.2277e-003
19977	17.847	1.9	0.1	-8.1954e-003
19978	17.549	1.8	0.1	-6.8882e-003
19979	17.648	1.9	0.1	-7.8295e-003
19980	17.351	1.8	0.1	-6.5775e-003
19981	17.45	1.9	0.1	-7.4829e-003
19982	17.152	1.8	0.1	-6.2932e-003
19983	17.252	1.9	0.1	-7.1757e-003
19984	16.954	1.8	0.1	-6.0225e-003
19985	17.053	1.9	0.1	-6.8838e-003
19986	16.755	1.8	0.1	-5.7638e-003
19987	16.855	1.9	0.1	-6.6061e-003
19988	16.557	1.8	0.1	-5.5279e-003
19989	16.656	1.9	0.1	-6.3391e-003
19990	16.358	1.8	0.1	-5.3073e-003
19991	16.458	1.9	0.1	-6.1082e-003
19992	16.16	1.8	0.1	-5.0822e-003
19993	16.259	1.9	0.1	-5.8737e-003
19994	15.961	1.8	0.1	-4.8694e-003
19995	16.061	1.9	0.1	-5.6345e-003
19996	15.763	1.8	0.1	-4.6731e-003
19997	15.862	1.9	0.1	-5.4257e-003
19998	15.564	1.8	0.1	-4.4796e-003
19999	15.664	1.9	0.1	-5.2209e-003
20000	15.366	1.8	0.1	-4.2881e-003
20001	15.465	1.9	0.1	-5.0186e-003
20002	15.167	1.8	0.1	-4.1096e-003
20003	15.267	1.9	0.1	-4.818e-003
20004	14.969	1.8	0.1	-3.942e-003
20005	15.068	1.9	0.1	-4.6429e-003
20006	14.77	1.8	0.1	-3.7707e-003
20007	14.87	1.9	0.1	-4.4654e-003
20008	14.572	1.8	0.1	-3.5932e-003
20009	14.671	1.9	0.1	-4.2841e-003
20010	14.373	1.8	0.1	-3.423e-003
20011	14.473	1.9	0.1	-4.0957e-003
20012	14.175	1.8	0.1	-3.2491e-003
20013	14.274	1.9	0.1	-3.9302e-003
20014	13.977	1.8	0.1	-3.0414e-003
20015	14.076	1.9	0.1	-3.7344e-003
20016	13.778	1.8	0.1	-2.8187e-003
20017	13.877	1.9	0.1	-3.5029e-003
20018	13.58	1.8	0.1	-2.5789e-003
20019	13.679	1.9	0.1	-3.278e-003
20020	13.381	1.8	0.1	-2.2887e-003
20021	13.48	1.9	0.1	-3.0107e-003
20022	13.183	1.8	0.1	-1.9206e-003
20023	13.282	1.9	0.1	-2.6816e-003
20024	12.984	1.8	0.1	-1.4415e-003
20025	13.083	1.9	0.1	-2.2492e-003
20026	12.786	1.8	0.1	-7.4582e-004
20027	12.885	1.9	0.1	-1.6695e-003
20028	12.587	1.8	0.1	4.5384e-004
20029	12.686	1.9	0.1	-7.0859e-004
20030	12.389	1.8	0.1	3.1059e-003
20031	12.488	1.9	0.1	1.2752e-003
20032	12.19	1.8	0.1	1.4395e-002
20033	12.289	1.9	0.1	8.2653e-003
20034	11.992	1.8	0.1	0.57505
20035	12.091	1.9	0.1	0.35479
20036	11.793	1.8	0.1	1.9478
20037	11.892	1.9	0.1	1.7049
20038	11.595	1.8	0.1	3.444
20039	11.694	1.9	0.1	3.1868
20040	11.396	1.8	0.1	5.0624
20041	11.495	1.9	0.1	4.7897
20042	11.198	1.8	0.1	6.8134
20043	11.297	1.9	0.1	6.5241
20044	10.999	1.8	0.1	8.7094
20045	11.098	1.9	0.1	8.4021
20046	10.801	1.8	0.1	10.763
20047	10.9	1.9	0.1	10.437
20048	10.602	1.8	0.1	12.99
20049	10.702	1.9	0.1	12.644
20050	10.404	1.8	0.1	15.405
20051	10.503	1.9	0.1	15.039
20052	10.205	1.8	0.1	18.025
20053	10.305	1.9	0.1	17.639
20054	10.007	1.8	0.1	20.868
20055	10.106	1.9	0.1	20.461
20056	9.8083	1.8	0.1	23.954
20057	9.9076	1.9	0.1	23.528
20058	9.6098	1.8	0.1	27.303
20059	9.7091	1.9	0.1	26.859
20060	9.4114	1.8	0.1	30.936
20061	9.5106	1.9	0.1	30.478
20062	9.2129	1.8	0.1	34.879
20063	9.3121	1.9	0.1	34.41
20064	9.0144	1.8	0.1	39.155
20065	9.1136	1.9	0.1	38.681
20066	8.8159	1.8	0.1	43.791
20067	8.9152	1.9	0.1	43.321
20068	8.6174	1.8	0.1	48.814
20069	8.7167	1.9	0.1	48.359
20070	8.4189	1.8	0.1	54.252
20071	8.5182	1.9	0.1	53.828
20072	8.2205	1.8	0.1	60.136
20073	8.3197	1.9	0.1	59.761
20074	8.022	1.8	0.1	66.494
20075	8.1212	1.9	0.1	66.194
20076	7.8235	1.8	0.1	73.356
20077	7.9227	1.9	0.1	73.163
20078	7.625	1.8	0.1	80.752
20079	7.7242	1.9	0.1	80.708
20080	7.4265	1.8	0.1	88.709
20081	7.5258	1.9	0.1	88.865
20082	7.228	1.8	0.1	97.251
20083	7.3273	1.9	0.1	97.673
20084	7.0295	1.8	0.1	106.4
20085	7.1288	1.9	0.1	107.17
20086	6.8311	1.8	0.1	116.17
20087	6.9303	1.9	0.1	117.39
20088	6.6326	1.8	0.1	126.57
20089	6.7318	1.9	0.1	128.36
20090	6.4341	1.8	0.1	137.6
20091	6.5333	1.9	0.1	140.11
20092	6.2356	1.8	0.1	149.22
20093	6.3348	1.9	0.1	152.65
20094	6.0371	1.8	0.1	161.42
20095	6.1364	1.9	0.1	165.98
20096	5.8386	1.8	0.1	174.12
20097	5.9379	1.9	0.1	180.09
20098	5.6402	1.8	0.1	187.22
20099	5.7394	1.9	0.1	194.92
20100	5.4417	1.8	0.1	200.58
20101	5.5409	1.9	0.1	210.4
20102	5.2432	1.8	0.1	213.98
20103	5.3424	1.9	0.1	226.39
20104	5.0447	1.8	0.1	227.13
20105	5.1439	1.9	0.1	242.69
20106	4.8462	1.8	0.1	239.58
20107	4.9455	1.9	0.1	258.98
20108	4.6477	1.8	0.1	250.72
20109	4.747	1.9	0.1	274.8
20110	4.4492	1.8	0.1	259.58
20111	4.5485	1.9	0.1	289.43
20112	4.2508	1.8	0.1	264.7
20113	4.35	1.9	0.1	301.78
20114	4.0523	1.8	0.1	263.81
20115	4.1515	1.9	0.1	310.18
20116	3.8538	1.8	0.1	253.16
20117	3.953	1.9	0.1	311.96
20118	3.6553	1.8	0.1	226.63
20119	3.7545	1.9	0.1	302.83
20120	3.4568	1.8	0.1	174.14
20121	3.5561	1.9	0.1	275.77
20122	3.2583	1.8	0.1	82.838
20123	3.3576	1.9	0.1	219.2
20124	3.0598	1.8	0.1	14.989
20125	3.1591	1.9	0.1	116.66
20126	2.8614	1.8	0.1	9.4507
20127	2.9606	1.9	0.1	16.823
20128	2.6629	1.8	0.1	-1.7991
20129	2.7621	1.9	0.1	18.912
20130	2.4644	1.8	0.1	92.261
20131	2.5636	1.9	0.1	-56.598
20132	2.3652	1.9	0.1	506.09
20133	2.2659	1.8	0.1	434.27
20134	23.702	2.	0.1	-0.18566
20135	23.802	2.1	0.1	-0.12586
20136	23.901	2.	0.1	-0.29232
20137	23.504	2.	0.1	-0.22264
20138	23.603	2.1	0.1	-0.33541
20139	23.305	2.	0.1	-0.11986
20140	23.405	2.1	0.1	-0.13065
20141	23.107	2.	0.1	-9.9251e-002
20142	23.206	2.1	0.1	-0.1184
20143	22.908	2.	0.1	-7.6478e-002
20144	23.008	2.1	0.1	-8.5924e-002
20145	22.71	2.	0.1	-6.3534e-002
20146	22.809	2.1	0.1	-7.1351e-002
20147	22.511	2.	0.1	-5.3485e-002
20148	22.611	2.1	0.1	-5.9269e-002
20149	22.313	2.	0.1	-4.6089e-002
20150	22.412	2.1	0.1	-5.0802e-002
20151	22.114	2.	0.1	-4.0284e-002
20152	22.214	2.1	0.1	-4.4181e-002
20153	21.916	2.	0.1	-3.5661e-002
20154	22.015	2.1	0.1	-3.8982e-002
20155	21.717	2.	0.1	-3.1892e-002
20156	21.817	2.1	0.1	-3.4775e-002
20157	21.519	2.	0.1	-2.8772e-002
20158	21.618	2.1	0.1	-3.1316e-002
20159	21.32	2.	0.1	-2.6148e-002
20160	21.42	2.1	0.1	-2.8425e-002
20161	21.122	2.	0.1	-2.3912e-002
20162	21.221	2.1	0.1	-2.5975e-002
20163	20.923	2.	0.1	-2.1991e-002
20164	21.023	2.1	0.1	-2.3871e-002
20165	20.725	2.	0.1	-2.0325e-002
20166	20.824	2.1	0.1	-2.2059e-002
20167	20.527	2.	0.1	-1.8859e-002
20168	20.626	2.1	0.1	-2.047e-002
20169	20.328	2.	0.1	-1.7567e-002
20170	20.427	2.1	0.1	-1.9064e-002
20171	20.13	2.	0.1	-1.6421e-002
20172	20.229	2.1	0.1	-1.7827e-002
20173	19.931	2.	0.1	-1.5395e-002
20174	20.03	2.1	0.1	-1.6719e-002
20175	19.733	2.	0.1	-1.4471e-002
20176	19.832	2.1	0.1	-1.5723e-002
20177	19.534	2.	0.1	-1.3641e-002
20178	19.633	2.1	0.1	-1.4824e-002
20179	19.336	2.	0.1	-1.2891e-002
20180	19.435	2.1	0.1	-1.4019e-002
20181	19.137	2.	0.1	-1.2206e-002
20182	19.236	2.1	0.1	-1.3285e-002
20183	18.939	2.	0.1	-1.1578e-002
20184	19.038	2.1	0.1	-1.2611e-002
20185	18.74	2.	0.1	-1.1008e-002
20186	18.839	2.1	0.1	-1.1992e-002
20187	18.542	2.	0.1	-1.0485e-002
20188	18.641	2.1	0.1	-1.1437e-002
20189	18.343	2.	0.1	-9.9897e-003
20190	18.442	2.1	0.1	-1.0914e-002
20191	18.145	2.	0.1	-9.5338e-003
20192	18.244	2.1	0.1	-1.0418e-002
20193	17.946	2.	0.1	-9.1168e-003
20194	18.045	2.1	0.1	-9.9736e-003
20195	17.748	2.	0.1	-8.7246e-003
20196	17.847	2.1	0.1	-9.5564e-003
20197	17.549	2.	0.1	-8.3547e-003
20198	17.648	2.1	0.1	-9.1648e-003
20199	17.351	2.	0.1	-8.0146e-003
20200	17.45	2.1	0.1	-8.7943e-003
20201	17.152	2.	0.1	-7.7024e-003
20202	17.252	2.1	0.1	-8.4622e-003
20203	16.954	2.	0.1	-7.4061e-003
20204	17.053	2.1	0.1	-8.148e-003
20205	16.755	2.	0.1	-7.1226e-003
20206	16.855	2.1	0.1	-7.8488e-003
20207	16.557	2.	0.1	-6.8631e-003
20208	16.656	2.1	0.1	-7.5621e-003
20209	16.358	2.	0.1	-6.6205e-003
20210	16.458	2.1	0.1	-7.312e-003
20211	16.16	2.	0.1	-6.3741e-003
20212	16.259	2.1	0.1	-7.059e-003
20213	15.961	2.	0.1	-6.1411e-003
20214	16.061	2.1	0.1	-6.8023e-003
20215	15.763	2.	0.1	-5.926e-003
20216	15.862	2.1	0.1	-6.578e-003
20217	15.564	2.	0.1	-5.7145e-003
20218	15.664	2.1	0.1	-6.3585e-003
20219	15.366	2.	0.1	-5.5054e-003
20220	15.465	2.1	0.1	-6.1424e-003
20221	15.167	2.	0.1	-5.3105e-003
20222	15.267	2.1	0.1	-5.928e-003
20223	14.969	2.	0.1	-5.128e-003
20224	15.068	2.1	0.1	-5.7413e-003
20225	14.77	2.	0.1	-4.9431e-003
20226	14.87	2.1	0.1	-5.5538e-003
20227	14.572	2.	0.1	-4.7538e-003
20228	14.671	2.1	0.1	-5.3641e-003
20229	14.373	2.	0.1	-4.5733e-003
20230	14.473	2.1	0.1	-5.1672e-003
20231	14.175	2.	0.1	-4.3899e-003
20232	14.274	2.1	0.1	-4.9978e-003
20233	13.977	2.	0.1	-4.1751e-003
20234	14.076	2.1	0.1	-4.7993e-003
20235	13.778	2.	0.1	-3.9476e-003
20236	13.877	2.1	0.1	-4.568e-003
20237	13.58	2.	0.1	-3.704e-003
20238	13.679	2.1	0.1	-4.3469e-003
20239	13.381	2.	0.1	-3.4108e-003
20240	13.48	2.1	0.1	-4.0875e-003
20241	13.183	2.	0.1	-3.0388e-003
20242	13.282	2.1	0.1	-3.7707e-003
20243	12.984	2.	0.1	-2.5455e-003
20244	13.083	2.1	0.1	-3.3527e-003
20245	12.786	2.	0.1	-1.7913e-003
20246	12.885	2.1	0.1	-2.7775e-003
20247	12.587	2.	0.1	-3.3309e-004
20248	12.686	2.1	0.1	-1.7462e-003
20249	12.389	2.	0.1	4.04e-003
20250	12.488	2.1	0.1	8.7212e-004
20251	12.19	2.	0.1	0.14459
20252	12.289	2.1	0.1	2.6939e-002
20253	11.992	2.	0.1	1.4481
20254	12.091	2.1	0.1	1.1066
20255	11.793	2.	0.1	2.9176
20256	11.892	2.1	0.1	2.5521
20257	11.595	2.	0.1	4.5071
20258	11.694	2.1	0.1	4.1161
20259	11.396	2.	0.1	6.2267
20260	11.495	2.1	0.1	5.8077
20261	11.198	2.	0.1	8.0888
20262	11.297	2.1	0.1	7.6393
20263	10.999	2.	0.1	10.107
20264	11.098	2.1	0.1	9.6241
20265	10.801	2.	0.1	12.296
20266	10.9	2.1	0.1	11.777
20267	10.602	2.	0.1	14.671
20268	10.702	2.1	0.1	14.114
20269	10.404	2.	0.1	17.251
20270	10.503	2.1	0.1	16.653
20271	10.205	2.	0.1	20.054
20272	10.305	2.1	0.1	19.413
20273	10.007	2.	0.1	23.101
20274	10.106	2.1	0.1	22.414
20275	9.8083	2.	0.1	26.414
20276	9.9076	2.1	0.1	25.678
20277	9.6098	2.	0.1	30.016
20278	9.7091	2.1	0.1	29.231
20279	9.4114	2.	0.1	33.934
20280	9.5106	2.1	0.1	33.099
20281	9.2129	2.	0.1	38.196
20282	9.3121	2.1	0.1	37.31
20283	9.0144	2.	0.1	42.833
20284	9.1136	2.1	0.1	41.897
20285	8.8159	2.	0.1	47.876
20286	8.9152	2.1	0.1	46.892
20287	8.6174	2.	0.1	53.36
20288	8.7167	2.1	0.1	52.334
20289	8.4189	2.	0.1	59.325
20290	8.5182	2.1	0.1	58.263
20291	8.2205	2.	0.1	65.808
20292	8.3197	2.1	0.1	64.721
20293	8.022	2.	0.1	72.854
20294	8.1212	2.1	0.1	71.756
20295	7.8235	2.	0.1	80.506
20296	7.9227	2.1	0.1	79.417
20297	7.625	2.	0.1	88.813
20298	7.7242	2.1	0.1	87.76
20299	7.4265	2.	0.1	97.823
20300	7.5258	2.1	0.1	96.841
20301	7.228	2.	0.1	107.59
20302	7.3273	2.1	0.1	106.72
20303	7.0295	2.	0.1	118.15
20304	7.1288	2.1	0.1	117.46
20305	6.8311	2.	0.1	129.57
20306	6.9303	2.1	0.1	129.14
20307	6.6326	2.	0.1	141.9
20308	6.7318	2.1	0.1	141.8
20309	6.4341	2.	0.1	155.16
20310	6.5333	2.1	0.1	155.53
20311	6.2356	2.	0.1	169.4
20312	6.3348	2.1	0.1	170.38
20313	6.0371	2.	0.1	184.64
20314	6.1364	2.1	0.1	186.41
20315	5.8386	2.	0.1	200.88
20316	5.9379	2.1	0.1	203.67
20317	5.6402	2.	0.1	218.09
20318	5.7394	2.1	0.1	222.17
20319	5.4417	2.	0.1	236.21
20320	5.5409	2.1	0.1	241.91
20321	5.2432	2.	0.1	255.1
20322	5.3424	2.1	0.1	262.83
20323	5.0447	2.	0.1	274.55
20324	5.1439	2.1	0.1	284.81
20325	4.8462	2.	0.1	294.21
20326	4.9455	2.1	0.1	307.63
20327	4.6477	2.	0.1	313.56
20328	4.747	2.1	0.1	330.9
20329	4.4492	2.	0.1	331.75
20330	4.5485	2.1	0.1	354.02
20331	4.2508	2.	0.1	347.51
20332	4.35	2.1	0.1	376.01
20333	4.0523	2.	0.1	358.82
20334	4.1515	2.1	0.1	395.38
20335	3.8538	2.	0.1	362.54
20336	3.953	2.1	0.1	409.81
20337	3.6553	2.	0.1	353.61
20338	3.7545	2.1	0.1	415.64
20339	3.4568	2.	0.1	323.81
20340	3.5561	2.1	0.1	407.21
20341	3.2583	2.	0.1	259.93
20342	3.3576	2.1	0.1	375.39
20343	3.0598	2.	0.1	140.87
20344	3.1591	2.1	0.1	306.28
20345	2.8614	2.	0.1	26.884
20346	2.9606	2.1	0.1	175.02
20347	2.6629	2.	0.1	-35.731
20348	2.7621	2.1	0.1	33.812
20349	2.4644	2.	0.1	358.99
20350	2.5636	2.1	0.1	-72.1
20351	2.3652	2.1	0.1	341.41
20352	2.2659	2.	0.1	626.97
20353	23.702	2.2	0.1	-0.19158
20354	23.802	2.3	0.1	-0.13335
20355	23.901	2.2	0.1	-0.29421
20356	23.504	2.2	0.1	-0.22662
20357	23.603	2.3	0.1	-0.33949
20358	23.305	2.2	0.1	-0.12306
20359	23.405	2.3	0.1	-0.13357
20360	23.107	2.2	0.1	-0.10215
20361	23.206	2.3	0.1	-0.12101
20362	22.908	2.2	0.1	-7.9146e-002
20363	23.008	2.3	0.1	-8.8289e-002
20364	22.71	2.2	0.1	-6.6039e-002
20365	22.809	2.3	0.1	-7.3557e-002
20366	22.511	2.2	0.1	-5.5861e-002
20367	22.611	2.3	0.1	-6.135e-002
20368	22.313	2.2	0.1	-4.8357e-002
20369	22.412	2.3	0.1	-5.2785e-002
20370	22.114	2.2	0.1	-4.2461e-002
20371	22.214	2.3	0.1	-4.6081e-002
20372	21.916	2.2	0.1	-3.7757e-002
20373	22.015	2.3	0.1	-4.0812e-002
20374	21.717	2.2	0.1	-3.3915e-002
20375	21.817	2.3	0.1	-3.6541e-002
20376	21.519	2.2	0.1	-3.0725e-002
20377	21.618	2.3	0.1	-3.3024e-002
20378	21.32	2.2	0.1	-2.8037e-002
20379	21.42	2.3	0.1	-3.0079e-002
20380	21.122	2.2	0.1	-2.5742e-002
20381	21.221	2.3	0.1	-2.7577e-002
20382	20.923	2.2	0.1	-2.3765e-002
20383	21.023	2.3	0.1	-2.5426e-002
20384	20.725	2.2	0.1	-2.2045e-002
20385	20.824	2.3	0.1	-2.3568e-002
20386	20.527	2.2	0.1	-2.0529e-002
20387	20.626	2.3	0.1	-2.1936e-002
20388	20.328	2.2	0.1	-1.9188e-002
20389	20.427	2.3	0.1	-2.049e-002
20390	20.13	2.2	0.1	-1.7998e-002
20391	20.229	2.3	0.1	-1.9214e-002
20392	19.931	2.2	0.1	-1.6929e-002
20393	20.03	2.3	0.1	-1.8071e-002
20394	19.733	2.2	0.1	-1.5964e-002
20395	19.832	2.3	0.1	-1.7042e-002
20396	19.534	2.2	0.1	-1.5096e-002
20397	19.633	2.3	0.1	-1.6109e-002
20398	19.336	2.2	0.1	-1.4312e-002
20399	19.435	2.3	0.1	-1.5274e-002
20400	19.137	2.2	0.1	-1.3594e-002
20401	19.236	2.3	0.1	-1.4511e-002
20402	18.939	2.2	0.1	-1.2934e-002
20403	19.038	2.3	0.1	-1.3811e-002
20404	18.74	2.2	0.1	-1.2334e-002
20405	18.839	2.3	0.1	-1.3167e-002
20406	18.542	2.2	0.1	-1.1782e-002
20407	18.641	2.3	0.1	-1.2587e-002
20408	18.343	2.2	0.1	-1.1261e-002
20409	18.442	2.3	0.1	-1.2042e-002
20410	18.145	2.2	0.1	-1.078e-002
20411	18.244	2.3	0.1	-1.1526e-002
20412	17.946	2.2	0.1	-1.0339e-002
20413	18.045	2.3	0.1	-1.1061e-002
20414	17.748	2.2	0.1	-9.9247e-003
20415	17.847	2.3	0.1	-1.0624e-002
20416	17.549	2.2	0.1	-9.5349e-003
20417	17.648	2.3	0.1	-1.0215e-002
20418	17.351	2.2	0.1	-9.1747e-003
20419	17.45	2.3	0.1	-9.8269e-003
20420	17.152	2.2	0.1	-8.8428e-003
20421	17.252	2.3	0.1	-9.4789e-003
20422	16.954	2.2	0.1	-8.5279e-003
20423	17.053	2.3	0.1	-9.1494e-003
20424	16.755	2.2	0.1	-8.2275e-003
20425	16.855	2.3	0.1	-8.8357e-003
20426	16.557	2.2	0.1	-7.952e-003
20427	16.656	2.3	0.1	-8.5355e-003
20428	16.358	2.2	0.1	-7.6933e-003
20429	16.458	2.3	0.1	-8.2723e-003
20430	16.16	2.2	0.1	-7.4317e-003
20431	16.259	2.3	0.1	-8.0076e-003
20432	15.961	2.2	0.1	-7.1854e-003
20433	16.061	2.3	0.1	-7.7392e-003
20434	15.763	2.2	0.1	-6.9585e-003
20435	15.862	2.3	0.1	-7.5049e-003
20436	15.564	2.2	0.1	-6.736e-003
20437	15.664	2.3	0.1	-7.2757e-003
20438	15.366	2.2	0.1	-6.5163e-003
20439	15.465	2.3	0.1	-7.0517e-003
20440	15.167	2.2	0.1	-6.3119e-003
20441	15.267	2.3	0.1	-6.83e-003
20442	14.969	2.2	0.1	-6.122e-003
20443	15.068	2.3	0.1	-6.6371e-003
20444	14.77	2.2	0.1	-5.9316e-003
20445	14.87	2.3	0.1	-6.4454e-003
20446	14.572	2.2	0.1	-5.7365e-003
20447	14.671	2.3	0.1	-6.2528e-003
20448	14.373	2.2	0.1	-5.553e-003
20449	14.473	2.3	0.1	-6.0552e-003
20450	14.175	2.2	0.1	-5.3715e-003
20451	14.274	2.3	0.1	-5.8879e-003
20452	13.977	2.2	0.1	-5.1601e-003
20453	14.076	2.3	0.1	-5.6955e-003
20454	13.778	2.2	0.1	-4.9401e-003
20455	13.877	2.3	0.1	-5.4739e-003
20456	13.58	2.2	0.1	-4.7105e-003
20457	13.679	2.3	0.1	-5.269e-003
20458	13.381	2.2	0.1	-4.4391e-003
20459	13.48	2.3	0.1	-5.0348e-003
20460	13.183	2.2	0.1	-4.0975e-003
20461	13.282	2.3	0.1	-4.7543e-003
20462	12.984	2.2	0.1	-3.6429e-003
20463	13.083	2.3	0.1	-4.3891e-003
20464	12.786	2.2	0.1	-2.9176e-003
20465	12.885	2.3	0.1	-3.8874e-003
20466	12.587	2.2	0.1	-1.314e-003
20467	12.686	2.3	0.1	-2.9214e-003
20468	12.389	2.2	0.1	6.9451e-003
20469	12.488	2.3	0.1	3.2859e-004
20470	12.19	2.2	0.1	0.7594
20471	12.289	2.3	0.1	0.34518
20472	11.992	2.2	0.1	2.1832
20473	12.091	2.3	0.1	1.7323
20474	11.793	2.2	0.1	3.7247
20475	11.892	2.3	0.1	3.2404
20476	11.595	2.2	0.1	5.3915
20477	11.694	2.3	0.1	4.8707
20478	11.396	2.2	0.1	7.1958
20479	11.495	2.3	0.1	6.6345
20480	11.198	2.2	0.1	9.1508
20481	11.297	2.3	0.1	8.5454
20482	10.999	2.2	0.1	11.271
20483	11.098	2.3	0.1	10.618
20484	10.801	2.2	0.1	13.574
20485	10.9	2.3	0.1	12.867
20486	10.602	2.2	0.1	16.075
20487	10.702	2.3	0.1	15.312
20488	10.404	2.2	0.1	18.794
20489	10.503	2.3	0.1	17.969
20490	10.205	2.2	0.1	21.752
20491	10.305	2.3	0.1	20.861
20492	10.007	2.2	0.1	24.972
20493	10.106	2.3	0.1	24.008
20494	9.8083	2.2	0.1	28.478
20495	9.9076	2.3	0.1	27.437
20496	9.6098	2.2	0.1	32.297
20497	9.7091	2.3	0.1	31.174
20498	9.4114	2.2	0.1	36.458
20499	9.5106	2.3	0.1	35.249
20500	9.2129	2.2	0.1	40.995
20501	9.3121	2.3	0.1	39.693
20502	9.0144	2.2	0.1	45.942
20503	9.1136	2.3	0.1	44.543
20504	8.8159	2.2	0.1	51.338
20505	8.9152	2.3	0.1	49.838
20506	8.6174	2.2	0.1	57.224
20507	8.7167	2.3	0.1	55.621
20508	8.4189	2.2	0.1	63.648
20509	8.5182	2.3	0.1	61.939
20510	8.2205	2.2	0.1	70.658
20511	8.3197	2.3	0.1	68.843
20512	8.022	2.2	0.1	78.311
20513	8.1212	2.3	0.1	76.392
20514	7.8235	2.2	0.1	86.664
20515	7.9227	2.3	0.1	84.648
20516	7.625	2.2	0.1	95.782
20517	7.7242	2.3	0.1	93.678
20518	7.4265	2.2	0.1	105.73
20519	7.5258	2.3	0.1	103.56
20520	7.228	2.2	0.1	116.6
20521	7.3273	2.3	0.1	114.37
20522	7.0295	2.2	0.1	128.44
20523	7.1288	2.3	0.1	126.2
20524	6.8311	2.2	0.1	141.36
20525	6.9303	2.3	0.1	139.14
20526	6.6326	2.2	0.1	155.44
20527	6.7318	2.3	0.1	153.29
20528	6.4341	2.2	0.1	170.75
20529	6.5333	2.3	0.1	168.77
20530	6.2356	2.2	0.1	187.39
20531	6.3348	2.3	0.1	185.66
20532	6.0371	2.2	0.1	205.44
20533	6.1364	2.3	0.1	204.09
20534	5.8386	2.2	0.1	224.95
20535	5.9379	2.3	0.1	224.15
20536	5.6402	2.2	0.1	245.98
20537	5.7394	2.3	0.1	245.92
20538	5.4417	2.2	0.1	268.53
20539	5.5409	2.3	0.1	269.47
20540	5.2432	2.2	0.1	292.55
20541	5.3424	2.3	0.1	294.82
20542	5.0447	2.2	0.1	317.9
20543	5.1439	2.3	0.1	321.92
20544	4.8462	2.2	0.1	344.34
20545	4.9455	2.3	0.1	350.61
20546	4.6477	2.2	0.1	371.4
20547	4.747	2.3	0.1	380.59
20548	4.4492	2.2	0.1	398.36
20549	4.5485	2.3	0.1	411.31
20550	4.2508	2.2	0.1	424.05
20551	4.35	2.3	0.1	441.88
20552	4.0523	2.2	0.1	446.7
20553	4.1515	2.3	0.1	470.87
20554	3.8538	2.2	0.1	463.52
20555	3.953	2.3	0.1	496.08
20556	3.6553	2.2	0.1	470.32
20557	3.7545	2.3	0.1	514.13
20558	3.4568	2.2	0.1	460.57
20559	3.5561	2.3	0.1	519.9
20560	3.2583	2.2	0.1	424.56
20561	3.3576	2.3	0.1	505.54
20562	3.0598	2.2	0.1	345.98
20563	3.1591	2.3	0.1	459.58
20564	2.8614	2.2	0.1	204.22
20565	2.9606	2.3	0.1	362.9
20566	2.6629	2.2	0.1	-8.7132
20567	2.7621	2.3	0.1	191.2
20568	2.4644	2.2	0.1	-32.089
20569	2.5636	2.3	0.1	-14.846
20570	2.3652	2.3	0.1	4.5262
20571	2.2659	2.2	0.1	-111.66
20572	23.702	2.4	0.1	-0.1959
20573	23.802	2.5	0.1	-0.13874
20574	23.901	2.4	0.1	-0.29555
20575	23.504	2.4	0.1	-0.22949
20576	23.603	2.5	0.1	-0.34237
20577	23.305	2.4	0.1	-0.12536
20578	23.405	2.5	0.1	-0.13562
20579	23.107	2.4	0.1	-0.10423
20580	23.206	2.5	0.1	-0.12284
20581	22.908	2.4	0.1	-8.1061e-002
20582	23.008	2.5	0.1	-8.9946e-002
20583	22.71	2.4	0.1	-6.7838e-002
20584	22.809	2.5	0.1	-7.5101e-002
20585	22.511	2.4	0.1	-5.7568e-002
20586	22.611	2.5	0.1	-6.2809e-002
20587	22.313	2.4	0.1	-4.9991e-002
20588	22.412	2.5	0.1	-5.4175e-002
20589	22.114	2.4	0.1	-4.4033e-002
20590	22.214	2.5	0.1	-4.7415e-002
20591	21.916	2.4	0.1	-3.9274e-002
20592	22.015	2.5	0.1	-4.21e-002
20593	21.717	2.4	0.1	-3.5383e-002
20594	21.817	2.5	0.1	-3.7786e-002
20595	21.519	2.4	0.1	-3.215e-002
20596	21.618	2.5	0.1	-3.4233e-002
20597	21.32	2.4	0.1	-2.9419e-002
20598	21.42	2.5	0.1	-3.1253e-002
20599	21.122	2.4	0.1	-2.7083e-002
20600	21.221	2.5	0.1	-2.8717e-002
20601	20.923	2.4	0.1	-2.5068e-002
20602	21.023	2.5	0.1	-2.6536e-002
20603	20.725	2.4	0.1	-2.3313e-002
20604	20.824	2.5	0.1	-2.4648e-002
20605	20.527	2.4	0.1	-2.1762e-002
20606	20.626	2.5	0.1	-2.2988e-002
20607	20.328	2.4	0.1	-2.0389e-002
20608	20.427	2.5	0.1	-2.1514e-002
20609	20.13	2.4	0.1	-1.9169e-002
20610	20.229	2.5	0.1	-2.0213e-002
20611	19.931	2.4	0.1	-1.8073e-002
20612	20.03	2.5	0.1	-1.9046e-002
20613	19.733	2.4	0.1	-1.7081e-002
20614	19.832	2.5	0.1	-1.7996e-002
20615	19.534	2.4	0.1	-1.6187e-002
20616	19.633	2.5	0.1	-1.7041e-002
20617	19.336	2.4	0.1	-1.5378e-002
20618	19.435	2.5	0.1	-1.6186e-002
20619	19.137	2.4	0.1	-1.4637e-002
20620	19.236	2.5	0.1	-1.5403e-002
20621	18.939	2.4	0.1	-1.3956e-002
20622	19.038	2.5	0.1	-1.4686e-002
20623	18.74	2.4	0.1	-1.3336e-002
20624	18.839	2.5	0.1	-1.4024e-002
20625	18.542	2.4	0.1	-1.2766e-002
20626	18.641	2.5	0.1	-1.343e-002
20627	18.343	2.4	0.1	-1.2228e-002
20628	18.442	2.5	0.1	-1.287e-002
20629	18.145	2.4	0.1	-1.173e-002
20630	18.244	2.5	0.1	-1.2339e-002
20631	17.946	2.4	0.1	-1.1273e-002
20632	18.045	2.5	0.1	-1.1862e-002
20633	17.748	2.4	0.1	-1.0843e-002
20634	17.847	2.5	0.1	-1.1413e-002
20635	17.549	2.4	0.1	-1.0437e-002
20636	17.648	2.5	0.1	-1.0991e-002
20637	17.351	2.4	0.1	-1.0064e-002
20638	17.45	2.5	0.1	-1.0591e-002
20639	17.152	2.4	0.1	-9.7199e-003
20640	17.252	2.5	0.1	-1.0234e-002
20641	16.954	2.4	0.1	-9.3933e-003
20642	17.053	2.5	0.1	-9.8939e-003
20643	16.755	2.4	0.1	-9.0813e-003
20644	16.855	2.5	0.1	-9.5715e-003
20645	16.557	2.4	0.1	-8.7948e-003
20646	16.656	2.5	0.1	-9.2617e-003
20647	16.358	2.4	0.1	-8.5272e-003
20648	16.458	2.5	0.1	-8.9905e-003
20649	16.16	2.4	0.1	-8.257e-003
20650	16.259	2.5	0.1	-8.7188e-003
20651	15.961	2.4	0.1	-8.0018e-003
20652	16.061	2.5	0.1	-8.444e-003
20653	15.763	2.4	0.1	-7.7666e-003
20654	15.862	2.5	0.1	-8.2027e-003
20655	15.564	2.4	0.1	-7.5371e-003
20656	15.664	2.5	0.1	-7.9682e-003
20657	15.366	2.4	0.1	-7.3122e-003
20658	15.465	2.5	0.1	-7.7397e-003
20659	15.167	2.4	0.1	-7.1032e-003
20660	15.267	2.5	0.1	-7.5143e-003
20661	14.969	2.4	0.1	-6.9096e-003
20662	15.068	2.5	0.1	-7.3191e-003
20663	14.77	2.4	0.1	-6.7169e-003
20664	14.87	2.5	0.1	-7.1264e-003
20665	14.572	2.4	0.1	-6.5232e-003
20666	14.671	2.5	0.1	-6.9343e-003
20667	14.373	2.4	0.1	-6.3431e-003
20668	14.473	2.5	0.1	-6.741e-003
20669	14.175	2.4	0.1	-6.1666e-003
20670	14.274	2.5	0.1	-6.5779e-003
20671	13.977	2.4	0.1	-5.9661e-003
20672	14.076	2.5	0.1	-6.3954e-003
20673	13.778	2.4	0.1	-5.7626e-003
20674	13.877	2.5	0.1	-6.1884e-003
20675	13.58	2.4	0.1	-5.5577e-003
20676	13.679	2.5	0.1	-6.0056e-003
20677	13.381	2.4	0.1	-5.3224e-003
20678	13.48	2.5	0.1	-5.8039e-003
20679	13.183	2.4	0.1	-5.0348e-003
20680	13.282	2.5	0.1	-5.5717e-003
20681	12.984	2.4	0.1	-4.6641e-003
20682	13.083	2.5	0.1	-5.2843e-003
20683	12.786	2.4	0.1	-4.0681e-003
20684	12.885	2.5	0.1	-4.9112e-003
20685	12.587	2.4	0.1	-2.5545e-003
20686	12.686	2.5	0.1	-4.1699e-003
20687	12.389	2.4	0.1	2.8682e-002
20688	12.488	2.5	0.1	-5.7029e-004
20689	12.19	2.4	0.1	1.2846
20690	12.289	2.5	0.1	0.76939
20691	11.992	2.4	0.1	2.7631
20692	12.091	2.5	0.1	2.2082
20693	11.793	2.4	0.1	4.3607
20694	11.892	2.5	0.1	3.7626
20695	11.595	2.4	0.1	6.0886
20696	11.694	2.5	0.1	5.4431
20697	11.396	2.4	0.1	7.9598
20698	11.495	2.5	0.1	7.2619
20699	11.198	2.4	0.1	9.9887
20700	11.297	2.5	0.1	9.2334
20701	10.999	2.4	0.1	12.191
20702	11.098	2.5	0.1	11.372
20703	10.801	2.4	0.1	14.583
20704	10.9	2.5	0.1	13.696
20705	10.602	2.4	0.1	17.184
20706	10.702	2.5	0.1	16.222
20707	10.404	2.4	0.1	20.015
20708	10.503	2.5	0.1	18.971
20709	10.205	2.4	0.1	23.097
20710	10.305	2.5	0.1	21.963
20711	10.007	2.4	0.1	26.455
20712	10.106	2.5	0.1	25.224
20713	9.8083	2.4	0.1	30.116
20714	9.9076	2.5	0.1	28.78
20715	9.6098	2.4	0.1	34.109
20716	9.7091	2.5	0.1	32.659
20717	9.4114	2.4	0.1	38.468
20718	9.5106	2.5	0.1	36.893
20719	9.2129	2.4	0.1	43.226
20720	9.3121	2.5	0.1	41.518
20721	9.0144	2.4	0.1	48.426
20722	9.1136	2.5	0.1	46.573
20723	8.8159	2.4	0.1	54.109
20724	8.9152	2.5	0.1	52.102
20725	8.6174	2.4	0.1	60.324
20726	8.7167	2.5	0.1	58.151
20727	8.4189	2.4	0.1	67.124
20728	8.5182	2.5	0.1	64.774
20729	8.2205	2.4	0.1	74.568
20730	8.3197	2.5	0.1	72.03
20731	8.022	2.4	0.1	82.721
20732	8.1212	2.5	0.1	79.984
20733	7.8235	2.4	0.1	91.655
20734	7.9227	2.5	0.1	88.709
20735	7.625	2.4	0.1	101.45
20736	7.7242	2.5	0.1	98.285
20737	7.4265	2.4	0.1	112.19
20738	7.5258	2.5	0.1	108.8
20739	7.228	2.4	0.1	123.97
20740	7.3273	2.5	0.1	120.35
20741	7.0295	2.4	0.1	136.89
20742	7.1288	2.5	0.1	133.05
20743	6.8311	2.4	0.1	151.07
20744	6.9303	2.5	0.1	147.02
20745	6.6326	2.4	0.1	166.63
20746	6.7318	2.5	0.1	162.37
20747	6.4341	2.4	0.1	183.68
20748	6.5333	2.5	0.1	179.25
20749	6.2356	2.4	0.1	202.36
20750	6.3348	2.5	0.1	197.8
20751	6.0371	2.4	0.1	222.8
20752	6.1364	2.5	0.1	218.17
20753	5.8386	2.4	0.1	245.12
20754	5.9379	2.5	0.1	240.5
20755	5.6402	2.4	0.1	269.42
20756	5.7394	2.5	0.1	264.94
20757	5.4417	2.4	0.1	295.77
20758	5.5409	2.5	0.1	291.61
20759	5.2432	2.4	0.1	324.2
20760	5.3424	2.5	0.1	320.57
20761	5.0447	2.4	0.1	354.63
20762	5.1439	2.5	0.1	351.84
20763	4.8462	2.4	0.1	386.87
20764	4.9455	2.5	0.1	385.32
20765	4.6477	2.4	0.1	420.52
20766	4.747	2.5	0.1	420.75
20767	4.4492	2.4	0.1	454.88
20768	4.5485	2.5	0.1	457.6
20769	4.2508	2.4	0.1	488.8
20770	4.35	2.5	0.1	494.96
20771	4.0523	2.4	0.1	520.45
20772	4.1515	2.5	0.1	531.34
20773	3.8538	2.4	0.1	547.03
20774	3.953	2.5	0.1	564.36
20775	3.6553	2.4	0.1	564.25
20776	3.7545	2.5	0.1	590.36
20777	3.4568	2.4	0.1	565.62
20778	3.5561	2.5	0.1	603.71
20779	3.2583	2.4	0.1	541.37
20780	3.3576	2.5	0.1	595.91
20781	3.0598	2.4	0.1	476.63
20782	3.1591	2.5	0.1	554.27
20783	2.8614	2.4	0.1	347.83
20784	2.9606	2.5	0.1	460.16
20785	2.6629	2.4	0.1	118.
20786	2.7621	2.5	0.1	286.61
20787	2.4644	2.4	0.1	21.458
20788	2.5636	2.5	0.1	28.084
20789	2.3652	2.5	0.1	8.4092
20790	2.2659	2.4	0.1	33.68
20791	23.702	2.6	0.1	-0.19886
20792	23.802	2.7	0.1	-0.14223
20793	23.901	2.6	0.1	-0.29644
20794	23.504	2.6	0.1	-0.23144
20795	23.603	2.7	0.1	-0.34421
20796	23.305	2.6	0.1	-0.12692
20797	23.405	2.7	0.1	-0.13692
20798	23.107	2.6	0.1	-0.10563
20799	23.206	2.7	0.1	-0.12401
20800	22.908	2.6	0.1	-8.2352e-002
20801	23.008	2.7	0.1	-9.0997e-002
20802	22.71	2.6	0.1	-6.9051e-002
20803	22.809	2.7	0.1	-7.6083e-002
20804	22.511	2.6	0.1	-5.872e-002
20805	22.611	2.7	0.1	-6.3736e-002
20806	22.313	2.6	0.1	-5.1094e-002
20807	22.412	2.7	0.1	-5.5059e-002
20808	22.114	2.6	0.1	-4.5095e-002
20809	22.214	2.7	0.1	-4.8265e-002
20810	21.916	2.6	0.1	-4.0302e-002
20811	22.015	2.7	0.1	-4.292e-002
20812	21.717	2.6	0.1	-3.638e-002
20813	21.817	2.7	0.1	-3.8582e-002
20814	21.519	2.6	0.1	-3.3118e-002
20815	21.618	2.7	0.1	-3.5006e-002
20816	21.32	2.6	0.1	-3.0361e-002
20817	21.42	2.7	0.1	-3.2003e-002
20818	21.122	2.6	0.1	-2.8001e-002
20819	21.221	2.7	0.1	-2.945e-002
20820	20.923	2.6	0.1	-2.5963e-002
20821	21.023	2.7	0.1	-2.7249e-002
20822	20.725	2.6	0.1	-2.4184e-002
20823	20.824	2.7	0.1	-2.5344e-002
20824	20.527	2.6	0.1	-2.2611e-002
20825	20.626	2.7	0.1	-2.3666e-002
20826	20.328	2.6	0.1	-2.1219e-002
20827	20.427	2.7	0.1	-2.2177e-002
20828	20.13	2.6	0.1	-1.9979e-002
20829	20.229	2.7	0.1	-2.0861e-002
20830	19.931	2.6	0.1	-1.8864e-002
20831	20.03	2.7	0.1	-1.9679e-002
20832	19.733	2.6	0.1	-1.7855e-002
20833	19.832	2.7	0.1	-1.8614e-002
20834	19.534	2.6	0.1	-1.6945e-002
20835	19.633	2.7	0.1	-1.7647e-002
20836	19.336	2.6	0.1	-1.612e-002
20837	19.435	2.7	0.1	-1.6781e-002
20838	19.137	2.6	0.1	-1.5365e-002
20839	19.236	2.7	0.1	-1.5985e-002
20840	18.939	2.6	0.1	-1.467e-002
20841	19.038	2.7	0.1	-1.5258e-002
20842	18.74	2.6	0.1	-1.4037e-002
20843	18.839	2.7	0.1	-1.4586e-002
20844	18.542	2.6	0.1	-1.3455e-002
20845	18.641	2.7	0.1	-1.3982e-002
20846	18.343	2.6	0.1	-1.2904e-002
20847	18.442	2.7	0.1	-1.3413e-002
20848	18.145	2.6	0.1	-1.2396e-002
20849	18.244	2.7	0.1	-1.2873e-002
20850	17.946	2.6	0.1	-1.1929e-002
20851	18.045	2.7	0.1	-1.2388e-002
20852	17.748	2.6	0.1	-1.149e-002
20853	17.847	2.7	0.1	-1.1932e-002
20854	17.549	2.6	0.1	-1.1076e-002
20855	17.648	2.7	0.1	-1.1503e-002
20856	17.351	2.6	0.1	-1.0694e-002
20857	17.45	2.7	0.1	-1.1097e-002
20858	17.152	2.6	0.1	-1.0342e-002
20859	17.252	2.7	0.1	-1.0734e-002
20860	16.954	2.6	0.1	-1.0007e-002
20861	17.053	2.7	0.1	-1.0387e-002
20862	16.755	2.6	0.1	-9.6885e-003
20863	16.855	2.7	0.1	-1.0059e-002
20864	16.557	2.6	0.1	-9.3952e-003
20865	16.656	2.7	0.1	-9.7442e-003
20866	16.358	2.6	0.1	-9.121e-003
20867	16.458	2.7	0.1	-9.4689e-003
20868	16.16	2.6	0.1	-8.8456e-003
20869	16.259	2.7	0.1	-9.1918e-003
20870	15.961	2.6	0.1	-8.5857e-003
20871	16.061	2.7	0.1	-8.9138e-003
20872	15.763	2.6	0.1	-8.3461e-003
20873	15.862	2.7	0.1	-8.6689e-003
20874	15.564	2.6	0.1	-8.1133e-003
20875	15.664	2.7	0.1	-8.4316e-003
20876	15.366	2.6	0.1	-7.8851e-003
20877	15.465	2.7	0.1	-8.2007e-003
20878	15.167	2.6	0.1	-7.6742e-003
20879	15.267	2.7	0.1	-7.9743e-003
20880	14.969	2.6	0.1	-7.4805e-003
20881	15.068	2.7	0.1	-7.7785e-003
20882	14.77	2.6	0.1	-7.289e-003
20883	14.87	2.7	0.1	-7.5864e-003
20884	14.572	2.6	0.1	-7.0979e-003
20885	14.671	2.7	0.1	-7.3965e-003
20886	14.373	2.6	0.1	-6.922e-003
20887	14.473	2.7	0.1	-7.2065e-003
20888	14.175	2.6	0.1	-6.7533e-003
20889	14.274	2.7	0.1	-7.0504e-003
20890	13.977	2.6	0.1	-6.5648e-003
20891	14.076	2.7	0.1	-6.8762e-003
20892	13.778	2.6	0.1	-6.3793e-003
20893	13.877	2.7	0.1	-6.6831e-003
20894	13.58	2.6	0.1	-6.201e-003
20895	13.679	2.7	0.1	-6.52e-003
20896	13.381	2.6	0.1	-6.0053e-003
20897	13.48	2.7	0.1	-6.348e-003
20898	13.183	2.6	0.1	-5.7811e-003
20899	13.282	2.7	0.1	-6.1619e-003
20900	12.984	2.6	0.1	-5.5171e-003
20901	13.083	2.7	0.1	-5.9514e-003
20902	12.786	2.6	0.1	-5.1203e-003
20903	12.885	2.7	0.1	-5.7195e-003
20904	12.587	2.6	0.1	-4.0306e-003
20905	12.686	2.7	0.1	-5.3022e-003
20906	12.389	2.6	0.1	0.26424
20907	12.488	2.7	0.1	-2.3277e-003
20908	12.19	2.6	0.1	1.6653
20909	12.289	2.7	0.1	1.0595
20910	11.992	2.6	0.1	3.1814
20911	12.091	2.7	0.1	2.5281
20912	11.793	2.6	0.1	4.8194
20913	11.892	2.7	0.1	4.1136
20914	11.595	2.6	0.1	6.5915
20915	11.694	2.7	0.1	5.8278
20916	11.396	2.6	0.1	8.5113
20917	11.495	2.7	0.1	7.6837
20918	11.198	2.6	0.1	10.594
20919	11.297	2.7	0.1	9.6961
20920	10.999	2.6	0.1	12.855
20921	11.098	2.7	0.1	11.88
20922	10.801	2.6	0.1	15.313
20923	10.9	2.7	0.1	14.254
20924	10.602	2.6	0.1	17.987
20925	10.702	2.7	0.1	16.835
20926	10.404	2.6	0.1	20.898
20927	10.503	2.7	0.1	19.645
20928	10.205	2.6	0.1	24.071
20929	10.305	2.7	0.1	22.707
20930	10.007	2.6	0.1	27.53
20931	10.106	2.7	0.1	26.044
20932	9.8083	2.6	0.1	31.304
20933	9.9076	2.7	0.1	29.686
20934	9.6098	2.6	0.1	35.426
20935	9.7091	2.7	0.1	33.661
20936	9.4114	2.6	0.1	39.928
20937	9.5106	2.7	0.1	38.005
20938	9.2129	2.6	0.1	44.851
20939	9.3121	2.7	0.1	42.754
20940	9.0144	2.6	0.1	50.236
20941	9.1136	2.7	0.1	47.949
20942	8.8159	2.6	0.1	56.131
20943	8.9152	2.7	0.1	53.637
20944	8.6174	2.6	0.1	62.59
20945	8.7167	2.7	0.1	59.869
20946	8.4189	2.6	0.1	69.67
20947	8.5182	2.7	0.1	66.703
20948	8.2205	2.6	0.1	77.437
20949	8.3197	2.7	0.1	74.201
20950	8.022	2.6	0.1	85.964
20951	8.1212	2.7	0.1	82.435
20952	7.8235	2.6	0.1	95.333
20953	7.9227	2.7	0.1	91.485
20954	7.625	2.6	0.1	105.63
20955	7.7242	2.7	0.1	101.44
20956	7.4265	2.6	0.1	116.96
20957	7.5258	2.7	0.1	112.4
20958	7.228	2.6	0.1	129.44
20959	7.3273	2.7	0.1	124.47
20960	7.0295	2.6	0.1	143.18
20961	7.1288	2.7	0.1	137.77
20962	6.8311	2.6	0.1	158.31
20963	6.9303	2.7	0.1	152.45
20964	6.6326	2.6	0.1	174.99
20965	6.7318	2.7	0.1	168.64
20966	6.4341	2.6	0.1	193.37
20967	6.5333	2.7	0.1	186.51
20968	6.2356	2.6	0.1	213.61
20969	6.3348	2.7	0.1	206.22
20970	6.0371	2.6	0.1	235.87
20971	6.1364	2.7	0.1	227.96
20972	5.8386	2.6	0.1	260.33
20973	5.9379	2.7	0.1	251.9
20974	5.6402	2.6	0.1	287.14
20975	5.7394	2.7	0.1	278.23
20976	5.4417	2.6	0.1	316.41
20977	5.5409	2.7	0.1	307.09
20978	5.2432	2.6	0.1	348.22
20979	5.3424	2.7	0.1	338.6
20980	5.0447	2.6	0.1	382.54
20981	5.1439	2.7	0.1	372.82
20982	4.8462	2.6	0.1	419.21
20983	4.9455	2.7	0.1	409.68
20984	4.6477	2.6	0.1	457.84
20985	4.747	2.7	0.1	448.93
20986	4.4492	2.6	0.1	497.71
20987	4.5485	2.7	0.1	490.03
20988	4.2508	2.6	0.1	537.55
20989	4.35	2.7	0.1	532.01
20990	4.0523	2.6	0.1	575.31
20991	4.1515	2.7	0.1	573.22
20992	3.8538	2.6	0.1	607.75
20993	3.953	2.7	0.1	610.96
20994	3.6553	2.6	0.1	629.81
20995	3.7545	2.7	0.1	640.98
20996	3.4568	2.6	0.1	633.72
20997	3.5561	2.7	0.1	656.68
20998	3.2583	2.6	0.1	607.76
20999	3.3576	2.7	0.1	647.99
21000	3.0598	2.6	0.1	534.69
21001	3.1591	2.7	0.1	600.19
21002	2.8614	2.6	0.1	390.51
21003	2.9606	2.7	0.1	493.3
21004	2.6629	2.6	0.1	154.51
21005	2.7621	2.7	0.1	304.99
21006	2.4644	2.6	0.1	-0.59869
21007	2.5636	2.7	0.1	36.405
21008	2.3652	2.7	0.1	-1.5886
21009	2.2659	2.6	0.1	-5.6754
21010	23.702	2.8	0.1	-0.20059
21011	23.802	2.9	0.1	-0.14395
21012	23.901	2.8	0.1	-0.29695
21013	23.504	2.8	0.1	-0.23257
21014	23.603	2.9	0.1	-0.34511
21015	23.305	2.8	0.1	-0.12781
21016	23.405	2.9	0.1	-0.13756
21017	23.107	2.8	0.1	-0.10644
21018	23.206	2.9	0.1	-0.12458
21019	22.908	2.8	0.1	-8.3098e-002
21020	23.008	2.9	0.1	-9.1508e-002
21021	22.71	2.8	0.1	-6.9751e-002
21022	22.809	2.9	0.1	-7.656e-002
21023	22.511	2.8	0.1	-5.9386e-002
21024	22.611	2.9	0.1	-6.4185e-002
21025	22.313	2.8	0.1	-5.1732e-002
21026	22.412	2.9	0.1	-5.5489e-002
21027	22.114	2.8	0.1	-4.571e-002
21028	22.214	2.9	0.1	-4.8679e-002
21029	21.916	2.8	0.1	-4.0897e-002
21030	22.015	2.9	0.1	-4.332e-002
21031	21.717	2.8	0.1	-3.6958e-002
21032	21.817	2.9	0.1	-3.8969e-002
21033	21.519	2.8	0.1	-3.368e-002
21034	21.618	2.9	0.1	-3.5383e-002
21035	21.32	2.8	0.1	-3.0908e-002
21036	21.42	2.9	0.1	-3.237e-002
21037	21.122	2.8	0.1	-2.8535e-002
21038	21.221	2.9	0.1	-2.9807e-002
21039	20.923	2.8	0.1	-2.6483e-002
21040	21.023	2.9	0.1	-2.7598e-002
21041	20.725	2.8	0.1	-2.4692e-002
21042	20.824	2.9	0.1	-2.5685e-002
21043	20.527	2.8	0.1	-2.3108e-002
21044	20.626	2.9	0.1	-2.3999e-002
21045	20.328	2.8	0.1	-2.1704e-002
21046	20.427	2.9	0.1	-2.2502e-002
21047	20.13	2.8	0.1	-2.0453e-002
21048	20.229	2.9	0.1	-2.1179e-002
21049	19.931	2.8	0.1	-1.9327e-002
21050	20.03	2.9	0.1	-1.999e-002
21051	19.733	2.8	0.1	-1.8309e-002
21052	19.832	2.9	0.1	-1.8919e-002
21053	19.534	2.8	0.1	-1.7391e-002
21054	19.633	2.9	0.1	-1.7945e-002
21055	19.336	2.8	0.1	-1.6558e-002
21056	19.435	2.9	0.1	-1.7074e-002
21057	19.137	2.8	0.1	-1.5794e-002
21058	19.236	2.9	0.1	-1.6274e-002
21059	18.939	2.8	0.1	-1.5092e-002
21060	19.038	2.9	0.1	-1.554e-002
21061	18.74	2.8	0.1	-1.4451e-002
21062	18.839	2.9	0.1	-1.4864e-002
21063	18.542	2.8	0.1	-1.3862e-002
21064	18.641	2.9	0.1	-1.4255e-002
21065	18.343	2.8	0.1	-1.3306e-002
21066	18.442	2.9	0.1	-1.3682e-002
21067	18.145	2.8	0.1	-1.2792e-002
21068	18.244	2.9	0.1	-1.3139e-002
21069	17.946	2.8	0.1	-1.2319e-002
21070	18.045	2.9	0.1	-1.2649e-002
21071	17.748	2.8	0.1	-1.1875e-002
21072	17.847	2.9	0.1	-1.219e-002
21073	17.549	2.8	0.1	-1.1455e-002
21074	17.648	2.9	0.1	-1.1758e-002
21075	17.351	2.8	0.1	-1.1069e-002
21076	17.45	2.9	0.1	-1.1348e-002
21077	17.152	2.8	0.1	-1.0712e-002
21078	17.252	2.9	0.1	-1.0981e-002
21079	16.954	2.8	0.1	-1.0373e-002
21080	17.053	2.9	0.1	-1.0633e-002
21081	16.755	2.8	0.1	-1.0051e-002
21082	16.855	2.9	0.1	-1.0302e-002
21083	16.557	2.8	0.1	-9.7549e-003
21084	16.656	2.9	0.1	-9.985e-003
21085	16.358	2.8	0.1	-9.4775e-003
21086	16.458	2.9	0.1	-9.7077e-003
21087	16.16	2.8	0.1	-9.1986e-003
21088	16.259	2.9	0.1	-9.4281e-003
21089	15.961	2.8	0.1	-8.9363e-003
21090	16.061	2.9	0.1	-9.1489e-003
21091	15.763	2.8	0.1	-8.6944e-003
21092	15.862	2.9	0.1	-8.9025e-003
21093	15.564	2.8	0.1	-8.4595e-003
21094	15.664	2.9	0.1	-8.6638e-003
21095	15.366	2.8	0.1	-8.2309e-003
21096	15.465	2.9	0.1	-8.432e-003
21097	15.167	2.8	0.1	-8.0198e-003
21098	15.267	2.9	0.1	-8.2049e-003
21099	14.969	2.8	0.1	-7.8259e-003
21100	15.068	2.9	0.1	-8.0097e-003
21101	14.77	2.8	0.1	-7.6355e-003
21102	14.87	2.9	0.1	-7.8186e-003
21103	14.572	2.8	0.1	-7.4467e-003
21104	14.671	2.9	0.1	-7.6296e-003
21105	14.373	2.8	0.1	-7.2761e-003
21106	14.473	2.9	0.1	-7.442e-003
21107	14.175	2.8	0.1	-7.114e-003
21108	14.274	2.9	0.1	-7.2901e-003
21109	13.977	2.8	0.1	-6.9344e-003
21110	14.076	2.9	0.1	-7.1206e-003
21111	13.778	2.8	0.1	-6.7624e-003
21112	13.877	2.9	0.1	-6.9364e-003
21113	13.58	2.8	0.1	-6.6039e-003
21114	13.679	2.9	0.1	-6.7848e-003
21115	13.381	2.8	0.1	-6.4393e-003
21116	13.48	2.9	0.1	-6.6306e-003
21117	13.183	2.8	0.1	-6.2648e-003
21118	13.282	2.9	0.1	-6.4728e-003
21119	12.984	2.8	0.1	-6.0889e-003
21120	13.083	2.9	0.1	-6.3092e-003
21121	12.786	2.8	0.1	-5.8824e-003
21122	12.885	2.9	0.1	-6.1713e-003
21123	12.587	2.8	0.1	-5.4226e-003
21124	12.686	2.9	0.1	-6.0047e-003
21125	12.389	2.8	0.1	0.46906
21126	12.488	2.9	0.1	-5.2339e-003
21127	12.19	2.8	0.1	1.8954
21128	12.289	2.9	0.1	1.2056
21129	11.992	2.8	0.1	3.434
21130	12.091	2.9	0.1	2.6888
21131	11.793	2.8	0.1	5.0964
21132	11.892	2.9	0.1	4.2898
21133	11.595	2.8	0.1	6.8952
21134	11.694	2.9	0.1	6.0211
21135	11.396	2.8	0.1	8.8444
21136	11.495	2.9	0.1	7.8957
21137	11.198	2.8	0.1	10.959
21138	11.297	2.9	0.1	9.9286
21139	10.999	2.8	0.1	13.256
21140	11.098	2.9	0.1	12.136
21141	10.801	2.8	0.1	15.754
21142	10.9	2.9	0.1	14.534
21143	10.602	2.8	0.1	18.472
21144	10.702	2.9	0.1	17.144
21145	10.404	2.8	0.1	21.433
21146	10.503	2.9	0.1	19.985
21147	10.205	2.8	0.1	24.661
21148	10.305	2.9	0.1	23.081
21149	10.007	2.8	0.1	28.181
21150	10.106	2.9	0.1	26.457
21151	9.8083	2.8	0.1	32.025
21152	9.9076	2.9	0.1	30.142
21153	9.6098	2.8	0.1	36.224
21154	9.7091	2.9	0.1	34.167
21155	9.4114	2.8	0.1	40.815
21156	9.5106	2.9	0.1	38.566
21157	9.2129	2.8	0.1	45.838
21158	9.3121	2.9	0.1	43.377
21159	9.0144	2.8	0.1	51.337
21160	9.1136	2.9	0.1	48.644
21161	8.8159	2.8	0.1	57.363
21162	8.9152	2.9	0.1	54.413
21163	8.6174	2.8	0.1	63.971
21164	8.7167	2.9	0.1	60.738
21165	8.4189	2.8	0.1	71.224
21166	8.5182	2.9	0.1	67.679
21167	8.2205	2.8	0.1	79.19
21168	8.3197	2.9	0.1	75.3
21169	8.022	2.8	0.1	87.949
21170	8.1212	2.9	0.1	83.678
21171	7.8235	2.8	0.1	97.586
21172	7.9227	2.9	0.1	92.894
21173	7.625	2.8	0.1	108.2
21174	7.7242	2.9	0.1	103.04
21175	7.4265	2.8	0.1	119.9
21176	7.5258	2.9	0.1	114.23
21177	7.228	2.8	0.1	132.8
21178	7.3273	2.9	0.1	126.56
21179	7.0295	2.8	0.1	147.05
21180	7.1288	2.9	0.1	140.18
21181	6.8311	2.8	0.1	162.78
21182	6.9303	2.9	0.1	155.22
21183	6.6326	2.8	0.1	180.16
21184	6.7318	2.9	0.1	171.85
21185	6.4341	2.8	0.1	199.37
21186	6.5333	2.9	0.1	190.23
21187	6.2356	2.8	0.1	220.58
21188	6.3348	2.9	0.1	210.54
21189	6.0371	2.8	0.1	243.99
21190	6.1364	2.9	0.1	232.98
21191	5.8386	2.8	0.1	269.8
21192	5.9379	2.9	0.1	257.76
21193	5.6402	2.8	0.1	298.18
21194	5.7394	2.9	0.1	285.05
21195	5.4417	2.8	0.1	329.28
21196	5.5409	2.9	0.1	315.05
21197	5.2432	2.8	0.1	363.21
21198	5.3424	2.9	0.1	347.89
21199	5.0447	2.8	0.1	399.97
21200	5.1439	2.9	0.1	383.63
21201	4.8462	2.8	0.1	439.41
21202	4.9455	2.9	0.1	422.23
21203	4.6477	2.8	0.1	481.13
21204	4.747	2.9	0.1	463.44
21205	4.4492	2.8	0.1	524.34
21206	4.5485	2.9	0.1	506.71
21207	4.2508	2.8	0.1	567.67
21208	4.35	2.9	0.1	551.01
21209	4.0523	2.8	0.1	608.8
21210	4.1515	2.9	0.1	594.55
21211	3.8538	2.8	0.1	643.99
21212	3.953	2.9	0.1	634.41
21213	3.6553	2.8	0.1	667.35
21214	3.7545	2.9	0.1	665.89
21215	3.4568	2.8	0.1	669.78
21216	3.5561	2.9	0.1	681.67
21217	3.2583	2.8	0.1	637.88
21218	3.3576	2.9	0.1	670.59
21219	3.0598	2.8	0.1	553.62
21220	3.1591	2.9	0.1	616.76
21221	2.8614	2.8	0.1	398.23
21222	2.9606	2.9	0.1	500.45
21223	2.6629	2.8	0.1	167.42
21224	2.7621	2.9	0.1	305.58
21225	2.4644	2.8	0.1	2.362
21226	2.5636	2.9	0.1	43.22
21227	2.3652	2.9	0.1	0.31995
21228	2.2659	2.8	0.1	3.3924
21229	23.702	3.	0.1	-0.20116
21230	23.802	3.1	0.1	-0.14395
21231	23.901	3.	0.1	-0.29712
21232	23.504	3.	0.1	-0.23294
21233	23.603	3.1	0.1	-0.34511
21234	23.305	3.	0.1	-0.12811
21235	23.405	3.1	0.1	-0.13756
21236	23.107	3.	0.1	-0.10671
21237	23.206	3.1	0.1	-0.12458
21238	22.908	3.	0.1	-8.3341e-002
21239	23.008	3.1	0.1	-9.1508e-002
21240	22.71	3.	0.1	-6.998e-002
21241	22.809	3.1	0.1	-7.656e-002
21242	22.511	3.	0.1	-5.9603e-002
21243	22.611	3.1	0.1	-6.4185e-002
21244	22.313	3.	0.1	-5.1941e-002
21245	22.412	3.1	0.1	-5.5489e-002
21246	22.114	3.	0.1	-4.5912e-002
21247	22.214	3.1	0.1	-4.8678e-002
21248	21.916	3.	0.1	-4.1093e-002
21249	22.015	3.1	0.1	-4.332e-002
21250	21.717	3.	0.1	-3.7148e-002
21251	21.817	3.1	0.1	-3.8969e-002
21252	21.519	3.	0.1	-3.3865e-002
21253	21.618	3.1	0.1	-3.5383e-002
21254	21.32	3.	0.1	-3.1088e-002
21255	21.42	3.1	0.1	-3.2371e-002
21256	21.122	3.	0.1	-2.871e-002
21257	21.221	3.1	0.1	-2.9806e-002
21258	20.923	3.	0.1	-2.6656e-002
21259	21.023	3.1	0.1	-2.7597e-002
21260	20.725	3.	0.1	-2.486e-002
21261	20.824	3.1	0.1	-2.5685e-002
21262	20.527	3.	0.1	-2.3272e-002
21263	20.626	3.1	0.1	-2.3998e-002
21264	20.328	3.	0.1	-2.1864e-002
21265	20.427	3.1	0.1	-2.2502e-002
21266	20.13	3.	0.1	-2.0609e-002
21267	20.229	3.1	0.1	-2.1178e-002
21268	19.931	3.	0.1	-1.9481e-002
21269	20.03	3.1	0.1	-1.999e-002
21270	19.733	3.	0.1	-1.846e-002
21271	19.832	3.1	0.1	-1.8919e-002
21272	19.534	3.	0.1	-1.7537e-002
21273	19.633	3.1	0.1	-1.7946e-002
21274	19.336	3.	0.1	-1.6703e-002
21275	19.435	3.1	0.1	-1.7073e-002
21276	19.137	3.	0.1	-1.5936e-002
21277	19.236	3.1	0.1	-1.6274e-002
21278	18.939	3.	0.1	-1.5231e-002
21279	19.038	3.1	0.1	-1.5541e-002
21280	18.74	3.	0.1	-1.4588e-002
21281	18.839	3.1	0.1	-1.4863e-002
21282	18.542	3.	0.1	-1.3998e-002
21283	18.641	3.1	0.1	-1.4255e-002
21284	18.343	3.	0.1	-1.3439e-002
21285	18.442	3.1	0.1	-1.3682e-002
21286	18.145	3.	0.1	-1.2923e-002
21287	18.244	3.1	0.1	-1.3139e-002
21288	17.946	3.	0.1	-1.2448e-002
21289	18.045	3.1	0.1	-1.2649e-002
21290	17.748	3.	0.1	-1.2003e-002
21291	17.847	3.1	0.1	-1.2189e-002
21292	17.549	3.	0.1	-1.1582e-002
21293	17.648	3.1	0.1	-1.1758e-002
21294	17.351	3.	0.1	-1.1193e-002
21295	17.45	3.1	0.1	-1.1348e-002
21296	17.152	3.	0.1	-1.0836e-002
21297	17.252	3.1	0.1	-1.0981e-002
21298	16.954	3.	0.1	-1.0496e-002
21299	17.053	3.1	0.1	-1.0633e-002
21300	16.755	3.	0.1	-1.0171e-002
21301	16.855	3.1	0.1	-1.0302e-002
21302	16.557	3.	0.1	-9.8743e-003
21303	16.656	3.1	0.1	-9.9849e-003
21304	16.358	3.	0.1	-9.5956e-003
21305	16.458	3.1	0.1	-9.7073e-003
21306	16.16	3.	0.1	-9.3164e-003
21307	16.259	3.1	0.1	-9.4284e-003
21308	15.961	3.	0.1	-9.0536e-003
21309	16.061	3.1	0.1	-9.1485e-003
21310	15.763	3.	0.1	-8.8109e-003
21311	15.862	3.1	0.1	-8.9019e-003
21312	15.564	3.	0.1	-8.5757e-003
21313	15.664	3.1	0.1	-8.6641e-003
21314	15.366	3.	0.1	-8.3458e-003
21315	15.465	3.1	0.1	-8.4319e-003
21316	15.167	3.	0.1	-8.1347e-003
21317	15.267	3.1	0.1	-8.2048e-003
21318	14.969	3.	0.1	-7.9423e-003
21319	15.068	3.1	0.1	-8.0096e-003
21320	14.77	3.	0.1	-7.7524e-003
21321	14.87	3.1	0.1	-7.8184e-003
21322	14.572	3.	0.1	-7.5642e-003
21323	14.671	3.1	0.1	-7.6293e-003
21324	14.373	3.	0.1	-7.3947e-003
21325	14.473	3.1	0.1	-7.4424e-003
21326	14.175	3.	0.1	-7.2343e-003
21327	14.274	3.1	0.1	-7.2894e-003
21328	13.977	3.	0.1	-7.0586e-003
21329	14.076	3.1	0.1	-7.1209e-003
21330	13.778	3.	0.1	-6.8924e-003
21331	13.877	3.1	0.1	-6.9366e-003
21332	13.58	3.	0.1	-6.7415e-003
21333	13.679	3.1	0.1	-6.7846e-003
21334	13.381	3.	0.1	-6.5886e-003
21335	13.48	3.1	0.1	-6.6303e-003
21336	13.183	3.	0.1	-6.433e-003
21337	13.282	3.1	0.1	-6.4728e-003
21338	12.984	3.	0.1	-6.2921e-003
21339	13.083	3.1	0.1	-6.3091e-003
21340	12.786	3.	0.1	-6.1647e-003
21341	12.885	3.1	0.1	-6.1713e-003
21342	12.587	3.	0.1	-6.0338e-003
21343	12.686	3.1	0.1	-6.0047e-003
21344	12.389	3.	0.1	0.53851
21345	12.488	3.1	0.1	-5.2338e-003
21346	12.19	3.	0.1	1.9723
21347	12.289	3.1	0.1	1.2056
21348	11.992	3.	0.1	3.5185
21349	12.091	3.1	0.1	2.6888
21350	11.793	3.	0.1	5.189
21351	11.892	3.1	0.1	4.2898
21352	11.595	3.	0.1	6.9968
21353	11.694	3.1	0.1	6.0211
21354	11.396	3.	0.1	8.9558
21355	11.495	3.1	0.1	7.8957
21356	11.198	3.	0.1	11.082
21357	11.297	3.1	0.1	9.9286
21358	10.999	3.	0.1	13.391
21359	11.098	3.1	0.1	12.136
21360	10.801	3.	0.1	15.902
21361	10.9	3.1	0.1	14.534
21362	10.602	3.	0.1	18.635
21363	10.702	3.1	0.1	17.144
21364	10.404	3.	0.1	21.612
21365	10.503	3.1	0.1	19.985
21366	10.205	3.	0.1	24.858
21367	10.305	3.1	0.1	23.081
21368	10.007	3.	0.1	28.4
21369	10.106	3.1	0.1	26.457
21370	9.8083	3.	0.1	32.266
21371	9.9076	3.1	0.1	30.142
21372	9.6098	3.	0.1	36.492
21373	9.7091	3.1	0.1	34.167
21374	9.4114	3.	0.1	41.112
21375	9.5106	3.1	0.1	38.566
21376	9.2129	3.	0.1	46.169
21377	9.3121	3.1	0.1	43.377
21378	9.0144	3.	0.1	51.707
21379	9.1136	3.1	0.1	48.644
21380	8.8159	3.	0.1	57.777
21381	8.9152	3.1	0.1	54.413
21382	8.6174	3.	0.1	64.435
21383	8.7167	3.1	0.1	60.738
21384	8.4189	3.	0.1	71.746
21385	8.5182	3.1	0.1	67.679
21386	8.2205	3.	0.1	79.78
21387	8.3197	3.1	0.1	75.3
21388	8.022	3.	0.1	88.616
21389	8.1212	3.1	0.1	83.678
21390	7.8235	3.	0.1	98.345
21391	7.9227	3.1	0.1	92.894
21392	7.625	3.	0.1	109.07
21393	7.7242	3.1	0.1	103.04
21394	7.4265	3.	0.1	120.89
21395	7.5258	3.1	0.1	114.23
21396	7.228	3.	0.1	133.94
21397	7.3273	3.1	0.1	126.56
21398	7.0295	3.	0.1	148.36
21399	7.1288	3.1	0.1	140.18
21400	6.8311	3.	0.1	164.29
21401	6.9303	3.1	0.1	155.22
21402	6.6326	3.	0.1	181.91
21403	6.7318	3.1	0.1	171.85
21404	6.4341	3.	0.1	201.4
21405	6.5333	3.1	0.1	190.23
21406	6.2356	3.	0.1	222.94
21407	6.3348	3.1	0.1	210.54
21408	6.0371	3.	0.1	246.75
21409	6.1364	3.1	0.1	232.98
21410	5.8386	3.	0.1	273.01
21411	5.9379	3.1	0.1	257.76
21412	5.6402	3.	0.1	301.92
21413	5.7394	3.1	0.1	285.05
21414	5.4417	3.	0.1	333.65
21415	5.5409	3.1	0.1	315.05
21416	5.2432	3.	0.1	368.31
21417	5.3424	3.1	0.1	347.89
21418	5.0447	3.	0.1	405.9
21419	5.1439	3.1	0.1	383.63
21420	4.8462	3.	0.1	446.27
21421	4.9455	3.1	0.1	422.23
21422	4.6477	3.	0.1	489.03
21423	4.747	3.1	0.1	463.44
21424	4.4492	3.	0.1	533.37
21425	4.5485	3.1	0.1	506.71
21426	4.2508	3.	0.1	577.84
21427	4.35	3.1	0.1	551.
21428	4.0523	3.	0.1	620.02
21429	4.1515	3.1	0.1	594.55
21430	3.8538	3.	0.1	655.97
21431	3.953	3.1	0.1	634.41
21432	3.6553	3.	0.1	679.43
21433	3.7545	3.1	0.1	665.89
21434	3.4568	3.	0.1	680.79
21435	3.5561	3.1	0.1	681.67
21436	3.2583	3.	0.1	646.11
21437	3.3576	3.1	0.1	670.59
21438	3.0598	3.	0.1	557.54
21439	3.1591	3.1	0.1	616.76
21440	2.8614	3.	0.1	398.41
21441	2.9606	3.1	0.1	500.45
21442	2.6629	3.	0.1	169.77
21443	2.7621	3.1	0.1	305.58
21444	2.4644	3.	0.1	-1.1396
21445	2.5636	3.1	0.1	43.22
21446	2.3652	3.1	0.1	0.31995
21447	2.2659	3.	0.1	-0.47153
21448	23.702	3.2	0.1	-0.20059
21449	23.802	3.3	0.1	-0.14223
21450	23.901	3.2	0.1	-0.29695
21451	23.504	3.2	0.1	-0.23257
21452	23.603	3.3	0.1	-0.34421
21453	23.305	3.2	0.1	-0.12781
21454	23.405	3.3	0.1	-0.13692
21455	23.107	3.2	0.1	-0.10645
21456	23.206	3.3	0.1	-0.12401
21457	22.908	3.2	0.1	-8.3098e-002
21458	23.008	3.3	0.1	-9.0997e-002
21459	22.71	3.2	0.1	-6.9751e-002
21460	22.809	3.3	0.1	-7.6083e-002
21461	22.511	3.2	0.1	-5.9386e-002
21462	22.611	3.3	0.1	-6.3735e-002
21463	22.313	3.2	0.1	-5.1732e-002
21464	22.412	3.3	0.1	-5.5059e-002
21465	22.114	3.2	0.1	-4.571e-002
21466	22.214	3.3	0.1	-4.8264e-002
21467	21.916	3.2	0.1	-4.0897e-002
21468	22.015	3.3	0.1	-4.292e-002
21469	21.717	3.2	0.1	-3.6958e-002
21470	21.817	3.3	0.1	-3.8581e-002
21471	21.519	3.2	0.1	-3.368e-002
21472	21.618	3.3	0.1	-3.5006e-002
21473	21.32	3.2	0.1	-3.0908e-002
21474	21.42	3.3	0.1	-3.2004e-002
21475	21.122	3.2	0.1	-2.8534e-002
21476	21.221	3.3	0.1	-2.9449e-002
21477	20.923	3.2	0.1	-2.6483e-002
21478	21.023	3.3	0.1	-2.7248e-002
21479	20.725	3.2	0.1	-2.4692e-002
21480	20.824	3.3	0.1	-2.5344e-002
21481	20.527	3.2	0.1	-2.3107e-002
21482	20.626	3.3	0.1	-2.3666e-002
21483	20.328	3.2	0.1	-2.1704e-002
21484	20.427	3.3	0.1	-2.2176e-002
21485	20.13	3.2	0.1	-2.0453e-002
21486	20.229	3.3	0.1	-2.0861e-002
21487	19.931	3.2	0.1	-1.9328e-002
21488	20.03	3.3	0.1	-1.9679e-002
21489	19.733	3.2	0.1	-1.831e-002
21490	19.832	3.3	0.1	-1.8614e-002
21491	19.534	3.2	0.1	-1.7391e-002
21492	19.633	3.3	0.1	-1.7648e-002
21493	19.336	3.2	0.1	-1.6558e-002
21494	19.435	3.3	0.1	-1.678e-002
21495	19.137	3.2	0.1	-1.5794e-002
21496	19.236	3.3	0.1	-1.5987e-002
21497	18.939	3.2	0.1	-1.5092e-002
21498	19.038	3.3	0.1	-1.5258e-002
21499	18.74	3.2	0.1	-1.4451e-002
21500	18.839	3.3	0.1	-1.4586e-002
21501	18.542	3.2	0.1	-1.3863e-002
21502	18.641	3.3	0.1	-1.3982e-002
21503	18.343	3.2	0.1	-1.3307e-002
21504	18.442	3.3	0.1	-1.3413e-002
21505	18.145	3.2	0.1	-1.2791e-002
21506	18.244	3.3	0.1	-1.2874e-002
21507	17.946	3.2	0.1	-1.2318e-002
21508	18.045	3.3	0.1	-1.2387e-002
21509	17.748	3.2	0.1	-1.1874e-002
21510	17.847	3.3	0.1	-1.1932e-002
21511	17.549	3.2	0.1	-1.1455e-002
21512	17.648	3.3	0.1	-1.1503e-002
21513	17.351	3.2	0.1	-1.1069e-002
21514	17.45	3.3	0.1	-1.1097e-002
21515	17.152	3.2	0.1	-1.0712e-002
21516	17.252	3.3	0.1	-1.0733e-002
21517	16.954	3.2	0.1	-1.0374e-002
21518	17.053	3.3	0.1	-1.0387e-002
21519	16.755	3.2	0.1	-1.0051e-002
21520	16.855	3.3	0.1	-1.0059e-002
21521	16.557	3.2	0.1	-9.7544e-003
21522	16.656	3.3	0.1	-9.7444e-003
21523	16.358	3.2	0.1	-9.4773e-003
21524	16.458	3.3	0.1	-9.4685e-003
21525	16.16	3.2	0.1	-9.1984e-003
21526	16.259	3.3	0.1	-9.1919e-003
21527	15.961	3.2	0.1	-8.9353e-003
21528	16.061	3.3	0.1	-8.9132e-003
21529	15.763	3.2	0.1	-8.6941e-003
21530	15.862	3.3	0.1	-8.6683e-003
21531	15.564	3.2	0.1	-8.4597e-003
21532	15.664	3.3	0.1	-8.4318e-003
21533	15.366	3.2	0.1	-8.2307e-003
21534	15.465	3.3	0.1	-8.2004e-003
21535	15.167	3.2	0.1	-8.0195e-003
21536	15.267	3.3	0.1	-7.9738e-003
21537	14.969	3.2	0.1	-7.8255e-003
21538	15.068	3.3	0.1	-7.7782e-003
21539	14.77	3.2	0.1	-7.635e-003
21540	14.87	3.3	0.1	-7.5864e-003
21541	14.572	3.2	0.1	-7.4468e-003
21542	14.671	3.3	0.1	-7.3961e-003
21543	14.373	3.2	0.1	-7.2758e-003
21544	14.473	3.3	0.1	-7.2063e-003
21545	14.175	3.2	0.1	-7.1136e-003
21546	14.274	3.3	0.1	-7.0502e-003
21547	13.977	3.2	0.1	-6.9348e-003
21548	14.076	3.3	0.1	-6.8762e-003
21549	13.778	3.2	0.1	-6.7624e-003
21550	13.877	3.3	0.1	-6.6836e-003
21551	13.58	3.2	0.1	-6.6034e-003
21552	13.679	3.3	0.1	-6.5194e-003
21553	13.381	3.2	0.1	-6.439e-003
21554	13.48	3.3	0.1	-6.3476e-003
21555	13.183	3.2	0.1	-6.2648e-003
21556	13.282	3.3	0.1	-6.1622e-003
21557	12.984	3.2	0.1	-6.0887e-003
21558	13.083	3.3	0.1	-5.9512e-003
21559	12.786	3.2	0.1	-5.8824e-003
21560	12.885	3.3	0.1	-5.7193e-003
21561	12.587	3.2	0.1	-5.4225e-003
21562	12.686	3.3	0.1	-5.3019e-003
21563	12.389	3.2	0.1	0.46906
21564	12.488	3.3	0.1	-2.3274e-003
21565	12.19	3.2	0.1	1.8954
21566	12.289	3.3	0.1	1.0595
21567	11.992	3.2	0.1	3.434
21568	12.091	3.3	0.1	2.5281
21569	11.793	3.2	0.1	5.0964
21570	11.892	3.3	0.1	4.1136
21571	11.595	3.2	0.1	6.8952
21572	11.694	3.3	0.1	5.8278
21573	11.396	3.2	0.1	8.8444
21574	11.495	3.3	0.1	7.6837
21575	11.198	3.2	0.1	10.959
21576	11.297	3.3	0.1	9.6961
21577	10.999	3.2	0.1	13.256
21578	11.098	3.3	0.1	11.88
21579	10.801	3.2	0.1	15.754
21580	10.9	3.3	0.1	14.254
21581	10.602	3.2	0.1	18.472
21582	10.702	3.3	0.1	16.835
21583	10.404	3.2	0.1	21.433
21584	10.503	3.3	0.1	19.645
21585	10.205	3.2	0.1	24.661
21586	10.305	3.3	0.1	22.707
21587	10.007	3.2	0.1	28.181
21588	10.106	3.3	0.1	26.044
21589	9.8083	3.2	0.1	32.025
21590	9.9076	3.3	0.1	29.686
21591	9.6098	3.2	0.1	36.224
21592	9.7091	3.3	0.1	33.661
21593	9.4114	3.2	0.1	40.815
21594	9.5106	3.3	0.1	38.005
21595	9.2129	3.2	0.1	45.838
21596	9.3121	3.3	0.1	42.754
21597	9.0144	3.2	0.1	51.337
21598	9.1136	3.3	0.1	47.949
21599	8.8159	3.2	0.1	57.363
21600	8.9152	3.3	0.1	53.637
21601	8.6174	3.2	0.1	63.971
21602	8.7167	3.3	0.1	59.869
21603	8.4189	3.2	0.1	71.224
21604	8.5182	3.3	0.1	66.703
21605	8.2205	3.2	0.1	79.19
21606	8.3197	3.3	0.1	74.201
21607	8.022	3.2	0.1	87.949
21608	8.1212	3.3	0.1	82.435
21609	7.8235	3.2	0.1	97.586
21610	7.9227	3.3	0.1	91.485
21611	7.625	3.2	0.1	108.2
21612	7.7242	3.3	0.1	101.44
21613	7.4265	3.2	0.1	119.9
21614	7.5258	3.3	0.1	112.4
21615	7.228	3.2	0.1	132.8
21616	7.3273	3.3	0.1	124.47
21617	7.0295	3.2	0.1	147.05
21618	7.1288	3.3	0.1	137.77
21619	6.8311	3.2	0.1	162.78
21620	6.9303	3.3	0.1	152.45
21621	6.6326	3.2	0.1	180.16
21622	6.7318	3.3	0.1	168.64
21623	6.4341	3.2	0.1	199.37
21624	6.5333	3.3	0.1	186.51
21625	6.2356	3.2	0.1	220.58
21626	6.3348	3.3	0.1	206.22
21627	6.0371	3.2	0.1	243.99
21628	6.1364	3.3	0.1	227.96
21629	5.8386	3.2	0.1	269.8
21630	5.9379	3.3	0.1	251.9
21631	5.6402	3.2	0.1	298.18
21632	5.7394	3.3	0.1	278.23
21633	5.4417	3.2	0.1	329.28
21634	5.5409	3.3	0.1	307.09
21635	5.2432	3.2	0.1	363.21
21636	5.3424	3.3	0.1	338.6
21637	5.0447	3.2	0.1	399.97
21638	5.1439	3.3	0.1	372.82
21639	4.8462	3.2	0.1	439.41
21640	4.9455	3.3	0.1	409.68
21641	4.6477	3.2	0.1	481.13
21642	4.747	3.3	0.1	448.93
21643	4.4492	3.2	0.1	524.34
21644	4.5485	3.3	0.1	490.03
21645	4.2508	3.2	0.1	567.67
21646	4.35	3.3	0.1	532.01
21647	4.0523	3.2	0.1	608.8
21648	4.1515	3.3	0.1	573.21
21649	3.8538	3.2	0.1	643.99
21650	3.953	3.3	0.1	610.96
21651	3.6553	3.2	0.1	667.35
21652	3.7545	3.3	0.1	640.98
21653	3.4568	3.2	0.1	669.78
21654	3.5561	3.3	0.1	656.67
21655	3.2583	3.2	0.1	637.88
21656	3.3576	3.3	0.1	647.99
21657	3.0598	3.2	0.1	553.62
21658	3.1591	3.3	0.1	600.19
21659	2.8614	3.2	0.1	398.23
21660	2.9606	3.3	0.1	493.3
21661	2.6629	3.2	0.1	167.42
21662	2.7621	3.3	0.1	304.99
21663	2.4644	3.2	0.1	2.362
21664	2.5636	3.3	0.1	36.406
21665	2.3652	3.3	0.1	-1.5886
21666	2.2659	3.2	0.1	3.3924
21667	23.702	3.4	0.1	-0.19886
21668	23.802	3.5	0.1	-0.13874
21669	23.901	3.4	0.1	-0.29644
21670	23.504	3.4	0.1	-0.23144
21671	23.603	3.5	0.1	-0.34237
21672	23.305	3.4	0.1	-0.12692
21673	23.405	3.5	0.1	-0.13562
21674	23.107	3.4	0.1	-0.10563
21675	23.206	3.5	0.1	-0.12284
21676	22.908	3.4	0.1	-8.2352e-002
21677	23.008	3.5	0.1	-8.9944e-002
21678	22.71	3.4	0.1	-6.9051e-002
21679	22.809	3.5	0.1	-7.5102e-002
21680	22.511	3.4	0.1	-5.872e-002
21681	22.611	3.5	0.1	-6.2808e-002
21682	22.313	3.4	0.1	-5.1094e-002
21683	22.412	3.5	0.1	-5.4175e-002
21684	22.114	3.4	0.1	-4.5095e-002
21685	22.214	3.5	0.1	-4.7415e-002
21686	21.916	3.4	0.1	-4.0302e-002
21687	22.015	3.5	0.1	-4.21e-002
21688	21.717	3.4	0.1	-3.638e-002
21689	21.817	3.5	0.1	-3.7786e-002
21690	21.519	3.4	0.1	-3.3118e-002
21691	21.618	3.5	0.1	-3.4233e-002
21692	21.32	3.4	0.1	-3.0361e-002
21693	21.42	3.5	0.1	-3.1252e-002
21694	21.122	3.4	0.1	-2.8e-002
21695	21.221	3.5	0.1	-2.8718e-002
21696	20.923	3.4	0.1	-2.5962e-002
21697	21.023	3.5	0.1	-2.6534e-002
21698	20.725	3.4	0.1	-2.4183e-002
21699	20.824	3.5	0.1	-2.4648e-002
21700	20.527	3.4	0.1	-2.2611e-002
21701	20.626	3.5	0.1	-2.2987e-002
21702	20.328	3.4	0.1	-2.1218e-002
21703	20.427	3.5	0.1	-2.1515e-002
21704	20.13	3.4	0.1	-1.9979e-002
21705	20.229	3.5	0.1	-2.0213e-002
21706	19.931	3.4	0.1	-1.8864e-002
21707	20.03	3.5	0.1	-1.9047e-002
21708	19.733	3.4	0.1	-1.7855e-002
21709	19.832	3.5	0.1	-1.7995e-002
21710	19.534	3.4	0.1	-1.6945e-002
21711	19.633	3.5	0.1	-1.7042e-002
21712	19.336	3.4	0.1	-1.6121e-002
21713	19.435	3.5	0.1	-1.6186e-002
21714	19.137	3.4	0.1	-1.5366e-002
21715	19.236	3.5	0.1	-1.5405e-002
21716	18.939	3.4	0.1	-1.467e-002
21717	19.038	3.5	0.1	-1.4686e-002
21718	18.74	3.4	0.1	-1.4037e-002
21719	18.839	3.5	0.1	-1.4025e-002
21720	18.542	3.4	0.1	-1.3455e-002
21721	18.641	3.5	0.1	-1.343e-002
21722	18.343	3.4	0.1	-1.2905e-002
21723	18.442	3.5	0.1	-1.287e-002
21724	18.145	3.4	0.1	-1.2397e-002
21725	18.244	3.5	0.1	-1.234e-002
21726	17.946	3.4	0.1	-1.1929e-002
21727	18.045	3.5	0.1	-1.1861e-002
21728	17.748	3.4	0.1	-1.149e-002
21729	17.847	3.5	0.1	-1.1412e-002
21730	17.549	3.4	0.1	-1.1076e-002
21731	17.648	3.5	0.1	-1.0991e-002
21732	17.351	3.4	0.1	-1.0694e-002
21733	17.45	3.5	0.1	-1.0592e-002
21734	17.152	3.4	0.1	-1.0342e-002
21735	17.252	3.5	0.1	-1.0234e-002
21736	16.954	3.4	0.1	-1.0007e-002
21737	17.053	3.5	0.1	-9.8938e-003
21738	16.755	3.4	0.1	-9.6884e-003
21739	16.855	3.5	0.1	-9.5708e-003
21740	16.557	3.4	0.1	-9.3955e-003
21741	16.656	3.5	0.1	-9.262e-003
21742	16.358	3.4	0.1	-9.1209e-003
21743	16.458	3.5	0.1	-8.9904e-003
21744	16.16	3.4	0.1	-8.8454e-003
21745	16.259	3.5	0.1	-8.7187e-003
21746	15.961	3.4	0.1	-8.5855e-003
21747	16.061	3.5	0.1	-8.4431e-003
21748	15.763	3.4	0.1	-8.3459e-003
21749	15.862	3.5	0.1	-8.2026e-003
21750	15.564	3.4	0.1	-8.1129e-003
21751	15.664	3.5	0.1	-7.9683e-003
21752	15.366	3.4	0.1	-7.8844e-003
21753	15.465	3.5	0.1	-7.7391e-003
21754	15.167	3.4	0.1	-7.6738e-003
21755	15.267	3.5	0.1	-7.5138e-003
21756	14.969	3.4	0.1	-7.4806e-003
21757	15.068	3.5	0.1	-7.3191e-003
21758	14.77	3.4	0.1	-7.2891e-003
21759	14.87	3.5	0.1	-7.1264e-003
21760	14.572	3.4	0.1	-7.0971e-003
21761	14.671	3.5	0.1	-6.9341e-003
21762	14.373	3.4	0.1	-6.9219e-003
21763	14.473	3.5	0.1	-6.74e-003
21764	14.175	3.4	0.1	-6.7535e-003
21765	14.274	3.5	0.1	-6.5786e-003
21766	13.977	3.4	0.1	-6.5648e-003
21767	14.076	3.5	0.1	-6.3951e-003
21768	13.778	3.4	0.1	-6.3792e-003
21769	13.877	3.5	0.1	-6.1885e-003
21770	13.58	3.4	0.1	-6.2005e-003
21771	13.679	3.5	0.1	-6.0054e-003
21772	13.381	3.4	0.1	-6.0055e-003
21773	13.48	3.5	0.1	-5.8036e-003
21774	13.183	3.4	0.1	-5.7813e-003
21775	13.282	3.5	0.1	-5.5718e-003
21776	12.984	3.4	0.1	-5.5168e-003
21777	13.083	3.5	0.1	-5.2844e-003
21778	12.786	3.4	0.1	-5.1199e-003
21779	12.885	3.5	0.1	-4.9113e-003
21780	12.587	3.4	0.1	-4.0302e-003
21781	12.686	3.5	0.1	-4.1697e-003
21782	12.389	3.4	0.1	0.26425
21783	12.488	3.5	0.1	-5.7054e-004
21784	12.19	3.4	0.1	1.6653
21785	12.289	3.5	0.1	0.7694
21786	11.992	3.4	0.1	3.1814
21787	12.091	3.5	0.1	2.2082
21788	11.793	3.4	0.1	4.8194
21789	11.892	3.5	0.1	3.7626
21790	11.595	3.4	0.1	6.5915
21791	11.694	3.5	0.1	5.4431
21792	11.396	3.4	0.1	8.5113
21793	11.495	3.5	0.1	7.2619
21794	11.198	3.4	0.1	10.594
21795	11.297	3.5	0.1	9.2334
21796	10.999	3.4	0.1	12.855
21797	11.098	3.5	0.1	11.372
21798	10.801	3.4	0.1	15.313
21799	10.9	3.5	0.1	13.696
21800	10.602	3.4	0.1	17.987
21801	10.702	3.5	0.1	16.222
21802	10.404	3.4	0.1	20.898
21803	10.503	3.5	0.1	18.971
21804	10.205	3.4	0.1	24.071
21805	10.305	3.5	0.1	21.963
21806	10.007	3.4	0.1	27.53
21807	10.106	3.5	0.1	25.224
21808	9.8083	3.4	0.1	31.304
21809	9.9076	3.5	0.1	28.78
21810	9.6098	3.4	0.1	35.426
21811	9.7091	3.5	0.1	32.659
21812	9.4114	3.4	0.1	39.928
21813	9.5106	3.5	0.1	36.893
21814	9.2129	3.4	0.1	44.851
21815	9.3121	3.5	0.1	41.518
21816	9.0144	3.4	0.1	50.236
21817	9.1136	3.5	0.1	46.573
21818	8.8159	3.4	0.1	56.131
21819	8.9152	3.5	0.1	52.102
21820	8.6174	3.4	0.1	62.59
21821	8.7167	3.5	0.1	58.151
21822	8.4189	3.4	0.1	69.67
21823	8.5182	3.5	0.1	64.774
21824	8.2205	3.4	0.1	77.437
21825	8.3197	3.5	0.1	72.03
21826	8.022	3.4	0.1	85.964
21827	8.1212	3.5	0.1	79.984
21828	7.8235	3.4	0.1	95.333
21829	7.9227	3.5	0.1	88.709
21830	7.625	3.4	0.1	105.63
21831	7.7242	3.5	0.1	98.285
21832	7.4265	3.4	0.1	116.96
21833	7.5258	3.5	0.1	108.8
21834	7.228	3.4	0.1	129.44
21835	7.3273	3.5	0.1	120.35
21836	7.0295	3.4	0.1	143.18
21837	7.1288	3.5	0.1	133.05
21838	6.8311	3.4	0.1	158.31
21839	6.9303	3.5	0.1	147.02
21840	6.6326	3.4	0.1	174.99
21841	6.7318	3.5	0.1	162.37
21842	6.4341	3.4	0.1	193.37
21843	6.5333	3.5	0.1	179.25
21844	6.2356	3.4	0.1	213.61
21845	6.3348	3.5	0.1	197.8
21846	6.0371	3.4	0.1	235.87
21847	6.1364	3.5	0.1	218.17
21848	5.8386	3.4	0.1	260.33
21849	5.9379	3.5	0.1	240.5
21850	5.6402	3.4	0.1	287.14
21851	5.7394	3.5	0.1	264.94
21852	5.4417	3.4	0.1	316.41
21853	5.5409	3.5	0.1	291.61
21854	5.2432	3.4	0.1	348.22
21855	5.3424	3.5	0.1	320.57
21856	5.0447	3.4	0.1	382.54
21857	5.1439	3.5	0.1	351.84
21858	4.8462	3.4	0.1	419.21
21859	4.9455	3.5	0.1	385.32
21860	4.6477	3.4	0.1	457.84
21861	4.747	3.5	0.1	420.75
21862	4.4492	3.4	0.1	497.71
21863	4.5485	3.5	0.1	457.6
21864	4.2508	3.4	0.1	537.55
21865	4.35	3.5	0.1	494.96
21866	4.0523	3.4	0.1	575.31
21867	4.1515	3.5	0.1	531.34
21868	3.8538	3.4	0.1	607.75
21869	3.953	3.5	0.1	564.36
21870	3.6553	3.4	0.1	629.81
21871	3.7545	3.5	0.1	590.36
21872	3.4568	3.4	0.1	633.72
21873	3.5561	3.5	0.1	603.71
21874	3.2583	3.4	0.1	607.76
21875	3.3576	3.5	0.1	595.91
21876	3.0598	3.4	0.1	534.69
21877	3.1591	3.5	0.1	554.27
21878	2.8614	3.4	0.1	390.51
21879	2.9606	3.5	0.1	460.16
21880	2.6629	3.4	0.1	154.51
21881	2.7621	3.5	0.1	286.61
21882	2.4644	3.4	0.1	-0.59868
21883	2.5636	3.5	0.1	28.084
21884	2.3652	3.5	0.1	8.4092
21885	2.2659	3.4	0.1	-5.6754
21886	23.702	3.6	0.1	-0.1959
21887	23.802	3.7	0.1	-0.13335
21888	23.901	3.6	0.1	-0.29554
21889	23.504	3.6	0.1	-0.22949
21890	23.603	3.7	0.1	-0.33949
21891	23.305	3.6	0.1	-0.12536
21892	23.405	3.7	0.1	-0.13357
21893	23.107	3.6	0.1	-0.10423
21894	23.206	3.7	0.1	-0.12101
21895	22.908	3.6	0.1	-8.1061e-002
21896	23.008	3.7	0.1	-8.8289e-002
21897	22.71	3.6	0.1	-6.7838e-002
21898	22.809	3.7	0.1	-7.3557e-002
21899	22.511	3.6	0.1	-5.7568e-002
21900	22.611	3.7	0.1	-6.1351e-002
21901	22.313	3.6	0.1	-4.9992e-002
21902	22.412	3.7	0.1	-5.2785e-002
21903	22.114	3.6	0.1	-4.4033e-002
21904	22.214	3.7	0.1	-4.6081e-002
21905	21.916	3.6	0.1	-3.9274e-002
21906	22.015	3.7	0.1	-4.0811e-002
21907	21.717	3.6	0.1	-3.5383e-002
21908	21.817	3.7	0.1	-3.654e-002
21909	21.519	3.6	0.1	-3.215e-002
21910	21.618	3.7	0.1	-3.3025e-002
21911	21.32	3.6	0.1	-2.9419e-002
21912	21.42	3.7	0.1	-3.0079e-002
21913	21.122	3.6	0.1	-2.7083e-002
21914	21.221	3.7	0.1	-2.7578e-002
21915	20.923	3.6	0.1	-2.5068e-002
21916	21.023	3.7	0.1	-2.5425e-002
21917	20.725	3.6	0.1	-2.3313e-002
21918	20.824	3.7	0.1	-2.3569e-002
21919	20.527	3.6	0.1	-2.1763e-002
21920	20.626	3.7	0.1	-2.1935e-002
21921	20.328	3.6	0.1	-2.039e-002
21922	20.427	3.7	0.1	-2.049e-002
21923	20.13	3.6	0.1	-1.9169e-002
21924	20.229	3.7	0.1	-1.9213e-002
21925	19.931	3.6	0.1	-1.8073e-002
21926	20.03	3.7	0.1	-1.8071e-002
21927	19.733	3.6	0.1	-1.7081e-002
21928	19.832	3.7	0.1	-1.7041e-002
21929	19.534	3.6	0.1	-1.6188e-002
21930	19.633	3.7	0.1	-1.611e-002
21931	19.336	3.6	0.1	-1.5379e-002
21932	19.435	3.7	0.1	-1.5274e-002
21933	19.137	3.6	0.1	-1.4638e-002
21934	19.236	3.7	0.1	-1.4511e-002
21935	18.939	3.6	0.1	-1.3957e-002
21936	19.038	3.7	0.1	-1.3811e-002
21937	18.74	3.6	0.1	-1.3336e-002
21938	18.839	3.7	0.1	-1.3166e-002
21939	18.542	3.6	0.1	-1.2766e-002
21940	18.641	3.7	0.1	-1.2587e-002
21941	18.343	3.6	0.1	-1.2228e-002
21942	18.442	3.7	0.1	-1.2042e-002
21943	18.145	3.6	0.1	-1.173e-002
21944	18.244	3.7	0.1	-1.1526e-002
21945	17.946	3.6	0.1	-1.1272e-002
21946	18.045	3.7	0.1	-1.106e-002
21947	17.748	3.6	0.1	-1.0842e-002
21948	17.847	3.7	0.1	-1.0624e-002
21949	17.549	3.6	0.1	-1.0438e-002
21950	17.648	3.7	0.1	-1.0214e-002
21951	17.351	3.6	0.1	-1.0064e-002
21952	17.45	3.7	0.1	-9.8262e-003
21953	17.152	3.6	0.1	-9.7198e-003
21954	17.252	3.7	0.1	-9.4793e-003
21955	16.954	3.6	0.1	-9.3927e-003
21956	17.053	3.7	0.1	-9.149e-003
21957	16.755	3.6	0.1	-9.0811e-003
21958	16.855	3.7	0.1	-8.8358e-003
21959	16.557	3.6	0.1	-8.7948e-003
21960	16.656	3.7	0.1	-8.5348e-003
21961	16.358	3.6	0.1	-8.527e-003
21962	16.458	3.7	0.1	-8.2721e-003
21963	16.16	3.6	0.1	-8.2563e-003
21964	16.259	3.7	0.1	-8.0076e-003
21965	15.961	3.6	0.1	-8.0011e-003
21966	16.061	3.7	0.1	-7.7391e-003
21967	15.763	3.6	0.1	-7.7667e-003
21968	15.862	3.7	0.1	-7.5047e-003
21969	15.564	3.6	0.1	-7.537e-003
21970	15.664	3.7	0.1	-7.2759e-003
21971	15.366	3.6	0.1	-7.3118e-003
21972	15.465	3.7	0.1	-7.0512e-003
21973	15.167	3.6	0.1	-7.1031e-003
21974	15.267	3.7	0.1	-6.8299e-003
21975	14.969	3.6	0.1	-6.9095e-003
21976	15.068	3.7	0.1	-6.6373e-003
21977	14.77	3.6	0.1	-6.7166e-003
21978	14.87	3.7	0.1	-6.4452e-003
21979	14.572	3.6	0.1	-6.5227e-003
21980	14.671	3.7	0.1	-6.2528e-003
21981	14.373	3.6	0.1	-6.3429e-003
21982	14.473	3.7	0.1	-6.0555e-003
21983	14.175	3.6	0.1	-6.1669e-003
21984	14.274	3.7	0.1	-5.8879e-003
21985	13.977	3.6	0.1	-5.966e-003
21986	14.076	3.7	0.1	-5.6955e-003
21987	13.778	3.6	0.1	-5.7626e-003
21988	13.877	3.7	0.1	-5.4735e-003
21989	13.58	3.6	0.1	-5.5576e-003
21990	13.679	3.7	0.1	-5.2694e-003
21991	13.381	3.6	0.1	-5.322e-003
21992	13.48	3.7	0.1	-5.0349e-003
21993	13.183	3.6	0.1	-5.0348e-003
21994	13.282	3.7	0.1	-4.7539e-003
21995	12.984	3.6	0.1	-4.6645e-003
21996	13.083	3.7	0.1	-4.3891e-003
21997	12.786	3.6	0.1	-4.0683e-003
21998	12.885	3.7	0.1	-3.887e-003
21999	12.587	3.6	0.1	-2.5549e-003
22000	12.686	3.7	0.1	-2.9215e-003
22001	12.389	3.6	0.1	2.8682e-002
22002	12.488	3.7	0.1	3.2869e-004
22003	12.19	3.6	0.1	1.2846
22004	12.289	3.7	0.1	0.34518
22005	11.992	3.6	0.1	2.7631
22006	12.091	3.7	0.1	1.7324
22007	11.793	3.6	0.1	4.3607
22008	11.892	3.7	0.1	3.2404
22009	11.595	3.6	0.1	6.0886
22010	11.694	3.7	0.1	4.8707
22011	11.396	3.6	0.1	7.9598
22012	11.495	3.7	0.1	6.6345
22013	11.198	3.6	0.1	9.9887
22014	11.297	3.7	0.1	8.5454
22015	10.999	3.6	0.1	12.191
22016	11.098	3.7	0.1	10.618
22017	10.801	3.6	0.1	14.583
22018	10.9	3.7	0.1	12.867
22019	10.602	3.6	0.1	17.184
22020	10.702	3.7	0.1	15.312
22021	10.404	3.6	0.1	20.015
22022	10.503	3.7	0.1	17.969
22023	10.205	3.6	0.1	23.097
22024	10.305	3.7	0.1	20.861
22025	10.007	3.6	0.1	26.455
22026	10.106	3.7	0.1	24.008
22027	9.8083	3.6	0.1	30.116
22028	9.9076	3.7	0.1	27.437
22029	9.6098	3.6	0.1	34.109
22030	9.7091	3.7	0.1	31.174
22031	9.4114	3.6	0.1	38.468
22032	9.5106	3.7	0.1	35.249
22033	9.2129	3.6	0.1	43.226
22034	9.3121	3.7	0.1	39.693
22035	9.0144	3.6	0.1	48.426
22036	9.1136	3.7	0.1	44.543
22037	8.8159	3.6	0.1	54.109
22038	8.9152	3.7	0.1	49.838
22039	8.6174	3.6	0.1	60.324
22040	8.7167	3.7	0.1	55.621
22041	8.4189	3.6	0.1	67.124
22042	8.5182	3.7	0.1	61.939
22043	8.2205	3.6	0.1	74.568
22044	8.3197	3.7	0.1	68.843
22045	8.022	3.6	0.1	82.721
22046	8.1212	3.7	0.1	76.392
22047	7.8235	3.6	0.1	91.655
22048	7.9227	3.7	0.1	84.648
22049	7.625	3.6	0.1	101.45
22050	7.7242	3.7	0.1	93.678
22051	7.4265	3.6	0.1	112.19
22052	7.5258	3.7	0.1	103.56
22053	7.228	3.6	0.1	123.97
22054	7.3273	3.7	0.1	114.37
22055	7.0295	3.6	0.1	136.89
22056	7.1288	3.7	0.1	126.2
22057	6.8311	3.6	0.1	151.07
22058	6.9303	3.7	0.1	139.14
22059	6.6326	3.6	0.1	166.63
22060	6.7318	3.7	0.1	153.29
22061	6.4341	3.6	0.1	183.68
22062	6.5333	3.7	0.1	168.77
22063	6.2356	3.6	0.1	202.36
22064	6.3348	3.7	0.1	185.66
22065	6.0371	3.6	0.1	222.8
22066	6.1364	3.7	0.1	204.09
22067	5.8386	3.6	0.1	245.12
22068	5.9379	3.7	0.1	224.15
22069	5.6402	3.6	0.1	269.42
22070	5.7394	3.7	0.1	245.92
22071	5.4417	3.6	0.1	295.77
22072	5.5409	3.7	0.1	269.47
22073	5.2432	3.6	0.1	324.2
22074	5.3424	3.7	0.1	294.82
22075	5.0447	3.6	0.1	354.63
22076	5.1439	3.7	0.1	321.92
22077	4.8462	3.6	0.1	386.87
22078	4.9455	3.7	0.1	350.61
22079	4.6477	3.6	0.1	420.52
22080	4.747	3.7	0.1	380.59
22081	4.4492	3.6	0.1	454.88
22082	4.5485	3.7	0.1	411.31
22083	4.2508	3.6	0.1	488.8
22084	4.35	3.7	0.1	441.88
22085	4.0523	3.6	0.1	520.45
22086	4.1515	3.7	0.1	470.87
22087	3.8538	3.6	0.1	547.03
22088	3.953	3.7	0.1	496.08
22089	3.6553	3.6	0.1	564.24
22090	3.7545	3.7	0.1	514.13
22091	3.4568	3.6	0.1	565.62
22092	3.5561	3.7	0.1	519.9
22093	3.2583	3.6	0.1	541.37
22094	3.3576	3.7	0.1	505.54
22095	3.0598	3.6	0.1	476.63
22096	3.1591	3.7	0.1	459.58
22097	2.8614	3.6	0.1	347.83
22098	2.9606	3.7	0.1	362.9
22099	2.6629	3.6	0.1	118.
22100	2.7621	3.7	0.1	191.2
22101	2.4644	3.6	0.1	21.458
22102	2.5636	3.7	0.1	-14.846
22103	2.3652	3.7	0.1	4.5262
22104	2.2659	3.6	0.1	33.68
22105	23.702	3.8	0.1	-0.19158
22106	23.802	3.9	0.1	-0.12586
22107	23.901	3.8	0.1	-0.29421
22108	23.504	3.8	0.1	-0.22662
22109	23.603	3.9	0.1	-0.33541
22110	23.305	3.8	0.1	-0.12306
22111	23.405	3.9	0.1	-0.13065
22112	23.107	3.8	0.1	-0.10215
22113	23.206	3.9	0.1	-0.1184
22114	22.908	3.8	0.1	-7.9145e-002
22115	23.008	3.9	0.1	-8.5922e-002
22116	22.71	3.8	0.1	-6.6039e-002
22117	22.809	3.9	0.1	-7.1351e-002
22118	22.511	3.8	0.1	-5.5861e-002
22119	22.611	3.9	0.1	-5.927e-002
22120	22.313	3.8	0.1	-4.8358e-002
22121	22.412	3.9	0.1	-5.0802e-002
22122	22.114	3.8	0.1	-4.2461e-002
22123	22.214	3.9	0.1	-4.418e-002
22124	21.916	3.8	0.1	-3.7757e-002
22125	22.015	3.9	0.1	-3.8982e-002
22126	21.717	3.8	0.1	-3.3914e-002
22127	21.817	3.9	0.1	-3.4775e-002
22128	21.519	3.8	0.1	-3.0726e-002
22129	21.618	3.9	0.1	-3.1317e-002
22130	21.32	3.8	0.1	-2.8038e-002
22131	21.42	3.9	0.1	-2.8426e-002
22132	21.122	3.8	0.1	-2.5742e-002
22133	21.221	3.9	0.1	-2.5974e-002
22134	20.923	3.8	0.1	-2.3765e-002
22135	21.023	3.9	0.1	-2.3872e-002
22136	20.725	3.8	0.1	-2.2045e-002
22137	20.824	3.9	0.1	-2.2059e-002
22138	20.527	3.8	0.1	-2.0528e-002
22139	20.626	3.9	0.1	-2.0469e-002
22140	20.328	3.8	0.1	-1.9188e-002
22141	20.427	3.9	0.1	-1.9064e-002
22142	20.13	3.8	0.1	-1.7997e-002
22143	20.229	3.9	0.1	-1.7826e-002
22144	19.931	3.8	0.1	-1.6928e-002
22145	20.03	3.9	0.1	-1.6719e-002
22146	19.733	3.8	0.1	-1.5965e-002
22147	19.832	3.9	0.1	-1.5724e-002
22148	19.534	3.8	0.1	-1.5096e-002
22149	19.633	3.9	0.1	-1.4824e-002
22150	19.336	3.8	0.1	-1.4311e-002
22151	19.435	3.9	0.1	-1.4019e-002
22152	19.137	3.8	0.1	-1.3594e-002
22153	19.236	3.9	0.1	-1.3284e-002
22154	18.939	3.8	0.1	-1.2934e-002
22155	19.038	3.9	0.1	-1.2612e-002
22156	18.74	3.8	0.1	-1.2333e-002
22157	18.839	3.9	0.1	-1.1991e-002
22158	18.542	3.8	0.1	-1.1782e-002
22159	18.641	3.9	0.1	-1.1436e-002
22160	18.343	3.8	0.1	-1.1261e-002
22161	18.442	3.9	0.1	-1.0913e-002
22162	18.145	3.8	0.1	-1.078e-002
22163	18.244	3.9	0.1	-1.0419e-002
22164	17.946	3.8	0.1	-1.0339e-002
22165	18.045	3.9	0.1	-9.9735e-003
22166	17.748	3.8	0.1	-9.9248e-003
22167	17.847	3.9	0.1	-9.5559e-003
22168	17.549	3.8	0.1	-9.5338e-003
22169	17.648	3.9	0.1	-9.1646e-003
22170	17.351	3.8	0.1	-9.1739e-003
22171	17.45	3.9	0.1	-8.7927e-003
22172	17.152	3.8	0.1	-8.843e-003
22173	17.252	3.9	0.1	-8.4621e-003
22174	16.954	3.8	0.1	-8.5282e-003
22175	17.053	3.9	0.1	-8.1477e-003
22176	16.755	3.8	0.1	-8.2272e-003
22177	16.855	3.9	0.1	-7.8491e-003
22178	16.557	3.8	0.1	-7.9513e-003
22179	16.656	3.9	0.1	-7.5612e-003
22180	16.358	3.8	0.1	-7.6932e-003
22181	16.458	3.9	0.1	-7.3116e-003
22182	16.16	3.8	0.1	-7.4323e-003
22183	16.259	3.9	0.1	-7.0589e-003
22184	15.961	3.8	0.1	-7.186e-003
22185	16.061	3.9	0.1	-6.802e-003
22186	15.763	3.8	0.1	-6.9584e-003
22187	15.862	3.9	0.1	-6.5778e-003
22188	15.564	3.8	0.1	-6.7357e-003
22189	15.664	3.9	0.1	-6.3583e-003
22190	15.366	3.8	0.1	-6.516e-003
22191	15.465	3.9	0.1	-6.1421e-003
22192	15.167	3.8	0.1	-6.312e-003
22193	15.267	3.9	0.1	-5.9281e-003
22194	14.969	3.8	0.1	-6.1221e-003
22195	15.068	3.9	0.1	-5.7411e-003
22196	14.77	3.8	0.1	-5.9318e-003
22197	14.87	3.9	0.1	-5.5534e-003
22198	14.572	3.8	0.1	-5.7372e-003
22199	14.671	3.9	0.1	-5.3644e-003
22200	14.373	3.8	0.1	-5.5535e-003
22201	14.473	3.9	0.1	-5.1672e-003
22202	14.175	3.8	0.1	-5.3713e-003
22203	14.274	3.9	0.1	-4.9974e-003
22204	13.977	3.8	0.1	-5.1599e-003
22205	14.076	3.9	0.1	-4.7994e-003
22206	13.778	3.8	0.1	-4.9401e-003
22207	13.877	3.9	0.1	-4.5676e-003
22208	13.58	3.8	0.1	-4.7111e-003
22209	13.679	3.9	0.1	-4.3465e-003
22210	13.381	3.8	0.1	-4.4393e-003
22211	13.48	3.9	0.1	-4.0878e-003
22212	13.183	3.8	0.1	-4.0972e-003
22213	13.282	3.9	0.1	-3.7704e-003
22214	12.984	3.8	0.1	-3.6422e-003
22215	13.083	3.9	0.1	-3.3526e-003
22216	12.786	3.8	0.1	-2.9171e-003
22217	12.885	3.9	0.1	-2.777e-003
22218	12.587	3.8	0.1	-1.3137e-003
22219	12.686	3.9	0.1	-1.7464e-003
22220	12.389	3.8	0.1	6.9455e-003
22221	12.488	3.9	0.1	8.7274e-004
22222	12.19	3.8	0.1	0.7594
22223	12.289	3.9	0.1	2.6939e-002
22224	11.992	3.8	0.1	2.1832
22225	12.091	3.9	0.1	1.1066
22226	11.793	3.8	0.1	3.7247
22227	11.892	3.9	0.1	2.5521
22228	11.595	3.8	0.1	5.3915
22229	11.694	3.9	0.1	4.1161
22230	11.396	3.8	0.1	7.1958
22231	11.495	3.9	0.1	5.8077
22232	11.198	3.8	0.1	9.1508
22233	11.297	3.9	0.1	7.6393
22234	10.999	3.8	0.1	11.271
22235	11.098	3.9	0.1	9.6241
22236	10.801	3.8	0.1	13.574
22237	10.9	3.9	0.1	11.777
22238	10.602	3.8	0.1	16.075
22239	10.702	3.9	0.1	14.114
22240	10.404	3.8	0.1	18.794
22241	10.503	3.9	0.1	16.653
22242	10.205	3.8	0.1	21.752
22243	10.305	3.9	0.1	19.413
22244	10.007	3.8	0.1	24.972
22245	10.106	3.9	0.1	22.414
22246	9.8083	3.8	0.1	28.478
22247	9.9076	3.9	0.1	25.678
22248	9.6098	3.8	0.1	32.297
22249	9.7091	3.9	0.1	29.231
22250	9.4114	3.8	0.1	36.458
22251	9.5106	3.9	0.1	33.099
22252	9.2129	3.8	0.1	40.995
22253	9.3121	3.9	0.1	37.31
22254	9.0144	3.8	0.1	45.942
22255	9.1136	3.9	0.1	41.897
22256	8.8159	3.8	0.1	51.338
22257	8.9152	3.9	0.1	46.892
22258	8.6174	3.8	0.1	57.224
22259	8.7167	3.9	0.1	52.334
22260	8.4189	3.8	0.1	63.648
22261	8.5182	3.9	0.1	58.263
22262	8.2205	3.8	0.1	70.658
22263	8.3197	3.9	0.1	64.721
22264	8.022	3.8	0.1	78.311
22265	8.1212	3.9	0.1	71.756
22266	7.8235	3.8	0.1	86.664
22267	7.9227	3.9	0.1	79.417
22268	7.625	3.8	0.1	95.782
22269	7.7242	3.9	0.1	87.76
22270	7.4265	3.8	0.1	105.73
22271	7.5258	3.9	0.1	96.841
22272	7.228	3.8	0.1	116.6
22273	7.3273	3.9	0.1	106.72
22274	7.0295	3.8	0.1	128.44
22275	7.1288	3.9	0.1	117.46
22276	6.8311	3.8	0.1	141.36
22277	6.9303	3.9	0.1	129.14
22278	6.6326	3.8	0.1	155.43
22279	6.7318	3.9	0.1	141.8
22280	6.4341	3.8	0.1	170.75
22281	6.5333	3.9	0.1	155.53
22282	6.2356	3.8	0.1	187.39
22283	6.3348	3.9	0.1	170.38
22284	6.0371	3.8	0.1	205.44
22285	6.1364	3.9	0.1	186.41
22286	5.8386	3.8	0.1	224.95
22287	5.9379	3.9	0.1	203.67
22288	5.6402	3.8	0.1	245.98
22289	5.7394	3.9	0.1	222.17
22290	5.4417	3.8	0.1	268.53
22291	5.5409	3.9	0.1	241.91
22292	5.2432	3.8	0.1	292.55
22293	5.3424	3.9	0.1	262.83
22294	5.0447	3.8	0.1	317.9
22295	5.1439	3.9	0.1	284.81
22296	4.8462	3.8	0.1	344.34
22297	4.9455	3.9	0.1	307.63
22298	4.6477	3.8	0.1	371.4
22299	4.747	3.9	0.1	330.9
22300	4.4492	3.8	0.1	398.36
22301	4.5485	3.9	0.1	354.02
22302	4.2508	3.8	0.1	424.05
22303	4.35	3.9	0.1	376.01
22304	4.0523	3.8	0.1	446.7
22305	4.1515	3.9	0.1	395.38
22306	3.8538	3.8	0.1	463.52
22307	3.953	3.9	0.1	409.8
22308	3.6553	3.8	0.1	470.32
22309	3.7545	3.9	0.1	415.64
22310	3.4568	3.8	0.1	460.57
22311	3.5561	3.9	0.1	407.21
22312	3.2583	3.8	0.1	424.56
22313	3.3576	3.9	0.1	375.39
22314	3.0598	3.8	0.1	345.98
22315	3.1591	3.9	0.1	306.28
22316	2.8614	3.8	0.1	204.21
22317	2.9606	3.9	0.1	175.02
22318	2.6629	3.8	0.1	-8.7132
22319	2.7621	3.9	0.1	33.812
22320	2.4644	3.8	0.1	-32.089
22321	2.5636	3.9	0.1	-72.1
22322	2.3652	3.9	0.1	341.41
22323	2.2659	3.8	0.1	-111.66
22324	23.702	4.	0.1	-0.18566
22325	23.802	4.1	0.1	-0.11596
22326	23.901	4.	0.1	-0.29232
22327	23.504	4.	0.1	-0.22264
22328	23.603	4.1	0.1	-0.32988
22329	23.305	4.	0.1	-0.11986
22330	23.405	4.1	0.1	-0.12666
22331	23.107	4.	0.1	-9.925e-002
22332	23.206	4.1	0.1	-0.11482
22333	22.908	4.	0.1	-7.6477e-002
22334	23.008	4.1	0.1	-8.2684e-002
22335	22.71	4.	0.1	-6.3535e-002
22336	22.809	4.1	0.1	-6.8332e-002
22337	22.511	4.	0.1	-5.3487e-002
22338	22.611	4.1	0.1	-5.6426e-002
22339	22.313	4.	0.1	-4.6088e-002
22340	22.412	4.1	0.1	-4.8096e-002
22341	22.114	4.	0.1	-4.0283e-002
22342	22.214	4.1	0.1	-4.1595e-002
22343	21.916	4.	0.1	-3.566e-002
22344	22.015	4.1	0.1	-3.65e-002
22345	21.717	4.	0.1	-3.1892e-002
22346	21.817	4.1	0.1	-3.2388e-002
22347	21.519	4.	0.1	-2.8772e-002
22348	21.618	4.1	0.1	-2.9017e-002
22349	21.32	4.	0.1	-2.6147e-002
22350	21.42	4.1	0.1	-2.6207e-002
22351	21.122	4.	0.1	-2.3912e-002
22352	21.221	4.1	0.1	-2.3831e-002
22353	20.923	4.	0.1	-2.1992e-002
22354	21.023	4.1	0.1	-2.18e-002
22355	20.725	4.	0.1	-2.0325e-002
22356	20.824	4.1	0.1	-2.0053e-002
22357	20.527	4.	0.1	-1.886e-002
22358	20.626	4.1	0.1	-1.8528e-002
22359	20.328	4.	0.1	-1.7566e-002
22360	20.427	4.1	0.1	-1.7181e-002
22361	20.13	4.	0.1	-1.6421e-002
22362	20.229	4.1	0.1	-1.6e-002
22363	19.931	4.	0.1	-1.5396e-002
22364	20.03	4.1	0.1	-1.4947e-002
22365	19.733	4.	0.1	-1.4471e-002
22366	19.832	4.1	0.1	-1.4001e-002
22367	19.534	4.	0.1	-1.3641e-002
22368	19.633	4.1	0.1	-1.3147e-002
22369	19.336	4.	0.1	-1.2891e-002
22370	19.435	4.1	0.1	-1.2386e-002
22371	19.137	4.	0.1	-1.2207e-002
22372	19.236	4.1	0.1	-1.1692e-002
22373	18.939	4.	0.1	-1.1578e-002
22374	19.038	4.1	0.1	-1.1059e-002
22375	18.74	4.	0.1	-1.1007e-002
22376	18.839	4.1	0.1	-1.0475e-002
22377	18.542	4.	0.1	-1.0484e-002
22378	18.641	4.1	0.1	-9.955e-003
22379	18.343	4.	0.1	-9.9902e-003
22380	18.442	4.1	0.1	-9.4645e-003
22381	18.145	4.	0.1	-9.5341e-003
22382	18.244	4.1	0.1	-9.0002e-003
22383	17.946	4.	0.1	-9.1158e-003
22384	18.045	4.1	0.1	-8.5845e-003
22385	17.748	4.	0.1	-8.7237e-003
22386	17.847	4.1	0.1	-8.1945e-003
22387	17.549	4.	0.1	-8.354e-003
22388	17.648	4.1	0.1	-7.8292e-003
22389	17.351	4.	0.1	-8.0138e-003
22390	17.45	4.1	0.1	-7.4825e-003
22391	17.152	4.	0.1	-7.7019e-003
22392	17.252	4.1	0.1	-7.1755e-003
22393	16.954	4.	0.1	-7.4057e-003
22394	17.053	4.1	0.1	-6.8832e-003
22395	16.755	4.	0.1	-7.1222e-003
22396	16.855	4.1	0.1	-6.6056e-003
22397	16.557	4.	0.1	-6.8625e-003
22398	16.656	4.1	0.1	-6.3388e-003
22399	16.358	4.	0.1	-6.6201e-003
22400	16.458	4.1	0.1	-6.1083e-003
22401	16.16	4.	0.1	-6.3732e-003
22402	16.259	4.1	0.1	-5.8733e-003
22403	15.961	4.	0.1	-6.1401e-003
22404	16.061	4.1	0.1	-5.6335e-003
22405	15.763	4.	0.1	-5.9257e-003
22406	15.862	4.1	0.1	-5.4253e-003
22407	15.564	4.	0.1	-5.7143e-003
22408	15.664	4.1	0.1	-5.2205e-003
22409	15.366	4.	0.1	-5.5054e-003
22410	15.465	4.1	0.1	-5.0195e-003
22411	15.167	4.	0.1	-5.3102e-003
22412	15.267	4.1	0.1	-4.8177e-003
22413	14.969	4.	0.1	-5.1272e-003
22414	15.068	4.1	0.1	-4.6426e-003
22415	14.77	4.	0.1	-4.9428e-003
22416	14.87	4.1	0.1	-4.4653e-003
22417	14.572	4.	0.1	-4.7533e-003
22418	14.671	4.1	0.1	-4.284e-003
22419	14.373	4.	0.1	-4.5724e-003
22420	14.473	4.1	0.1	-4.095e-003
22421	14.175	4.	0.1	-4.3897e-003
22422	14.274	4.1	0.1	-3.9298e-003
22423	13.977	4.	0.1	-4.175e-003
22424	14.076	4.1	0.1	-3.7344e-003
22425	13.778	4.	0.1	-3.9469e-003
22426	13.877	4.1	0.1	-3.5026e-003
22427	13.58	4.	0.1	-3.7033e-003
22428	13.679	4.1	0.1	-3.2779e-003
22429	13.381	4.	0.1	-3.4106e-003
22430	13.48	4.1	0.1	-3.0103e-003
22431	13.183	4.	0.1	-3.0386e-003
22432	13.282	4.1	0.1	-2.6814e-003
22433	12.984	4.	0.1	-2.5456e-003
22434	13.083	4.1	0.1	-2.2488e-003
22435	12.786	4.	0.1	-1.7915e-003
22436	12.885	4.1	0.1	-1.6692e-003
22437	12.587	4.	0.1	-3.3299e-004
22438	12.686	4.1	0.1	-7.0857e-004
22439	12.389	4.	0.1	4.0404e-003
22440	12.488	4.1	0.1	1.2757e-003
22441	12.19	4.	0.1	0.1446
22442	12.289	4.1	0.1	8.2657e-003
22443	11.992	4.	0.1	1.4481
22444	12.091	4.1	0.1	0.3548
22445	11.793	4.	0.1	2.9176
22446	11.892	4.1	0.1	1.7049
22447	11.595	4.	0.1	4.5071
22448	11.694	4.1	0.1	3.1868
22449	11.396	4.	0.1	6.2267
22450	11.495	4.1	0.1	4.7897
22451	11.198	4.	0.1	8.0888
22452	11.297	4.1	0.1	6.5241
22453	10.999	4.	0.1	10.107
22454	11.098	4.1	0.1	8.4021
22455	10.801	4.	0.1	12.296
22456	10.9	4.1	0.1	10.437
22457	10.602	4.	0.1	14.671
22458	10.702	4.1	0.1	12.644
22459	10.404	4.	0.1	17.251
22460	10.503	4.1	0.1	15.039
22461	10.205	4.	0.1	20.054
22462	10.305	4.1	0.1	17.639
22463	10.007	4.	0.1	23.101
22464	10.106	4.1	0.1	20.461
22465	9.8083	4.	0.1	26.414
22466	9.9076	4.1	0.1	23.528
22467	9.6098	4.	0.1	30.016
22468	9.7091	4.1	0.1	26.859
22469	9.4114	4.	0.1	33.934
22470	9.5106	4.1	0.1	30.478
22471	9.2129	4.	0.1	38.196
22472	9.3121	4.1	0.1	34.41
22473	9.0144	4.	0.1	42.833
22474	9.1136	4.1	0.1	38.681
22475	8.8159	4.	0.1	47.876
22476	8.9152	4.1	0.1	43.321
22477	8.6174	4.	0.1	53.36
22478	8.7167	4.1	0.1	48.359
22479	8.4189	4.	0.1	59.325
22480	8.5182	4.1	0.1	53.828
22481	8.2205	4.	0.1	65.808
22482	8.3197	4.1	0.1	59.761
22483	8.022	4.	0.1	72.854
22484	8.1212	4.1	0.1	66.194
22485	7.8235	4.	0.1	80.506
22486	7.9227	4.1	0.1	73.163
22487	7.625	4.	0.1	88.813
22488	7.7242	4.1	0.1	80.708
22489	7.4265	4.	0.1	97.823
22490	7.5258	4.1	0.1	88.865
22491	7.228	4.	0.1	107.59
22492	7.3273	4.1	0.1	97.673
22493	7.0295	4.	0.1	118.15
22494	7.1288	4.1	0.1	107.17
22495	6.8311	4.	0.1	129.57
22496	6.9303	4.1	0.1	117.39
22497	6.6326	4.	0.1	141.9
22498	6.7318	4.1	0.1	128.36
22499	6.4341	4.	0.1	155.16
22500	6.5333	4.1	0.1	140.11
22501	6.2356	4.	0.1	169.4
22502	6.3348	4.1	0.1	152.65
22503	6.0371	4.	0.1	184.64
22504	6.1364	4.1	0.1	165.98
22505	5.8386	4.	0.1	200.88
22506	5.9379	4.1	0.1	180.09
22507	5.6402	4.	0.1	218.09
22508	5.7394	4.1	0.1	194.92
22509	5.4417	4.	0.1	236.21
22510	5.5409	4.1	0.1	210.4
22511	5.2432	4.	0.1	255.1
22512	5.3424	4.1	0.1	226.39
22513	5.0447	4.	0.1	274.55
22514	5.1439	4.1	0.1	242.69
22515	4.8462	4.	0.1	294.21
22516	4.9455	4.1	0.1	258.98
22517	4.6477	4.	0.1	313.56
22518	4.747	4.1	0.1	274.8
22519	4.4492	4.	0.1	331.75
22520	4.5485	4.1	0.1	289.43
22521	4.2508	4.	0.1	347.51
22522	4.35	4.1	0.1	301.78
22523	4.0523	4.	0.1	358.82
22524	4.1515	4.1	0.1	310.18
22525	3.8538	4.	0.1	362.54
22526	3.953	4.1	0.1	311.96
22527	3.6553	4.	0.1	353.61
22528	3.7545	4.1	0.1	302.83
22529	3.4568	4.	0.1	323.8
22530	3.5561	4.1	0.1	275.77
22531	3.2583	4.	0.1	259.93
22532	3.3576	4.1	0.1	219.2
22533	3.0598	4.	0.1	140.87
22534	3.1591	4.1	0.1	116.66
22535	2.8614	4.	0.1	26.884
22536	2.9606	4.1	0.1	16.823
22537	2.6629	4.	0.1	-35.731
22538	2.7621	4.1	0.1	18.912
22539	2.4644	4.	0.1	358.99
22540	2.5636	4.1	0.1	-56.598
22541	2.3652	4.1	0.1	506.09
22542	2.2659	4.	0.1	626.97
22543	23.702	4.2	0.1	-0.17784
22544	23.802	4.3	0.1	-0.10315
22545	23.901	4.2	0.1	-0.28973
22546	23.504	4.2	0.1	-0.21729
22547	23.603	4.3	0.1	-0.32252
22548	23.305	4.2	0.1	-0.11553
22549	23.405	4.3	0.1	-0.1213
22550	23.107	4.2	0.1	-9.5327e-002
22551	23.206	4.3	0.1	-0.11
22552	22.908	4.2	0.1	-7.2867e-002
22553	23.008	4.3	0.1	-7.8316e-002
22554	22.71	4.2	0.1	-6.0148e-002
22555	22.809	4.3	0.1	-6.4261e-002
22556	22.511	4.2	0.1	-5.0281e-002
22557	22.611	4.3	0.1	-5.26e-002
22558	22.313	4.2	0.1	-4.3036e-002
22559	22.412	4.3	0.1	-4.447e-002
22560	22.114	4.2	0.1	-3.7365e-002
22561	22.214	4.3	0.1	-3.8142e-002
22562	21.916	4.2	0.1	-3.2861e-002
22563	22.015	4.3	0.1	-3.3202e-002
22564	21.717	4.2	0.1	-2.9202e-002
22565	21.817	4.3	0.1	-2.9229e-002
22566	21.519	4.2	0.1	-2.6183e-002
22567	21.618	4.3	0.1	-2.5988e-002
22568	21.32	4.2	0.1	-2.3654e-002
22569	21.42	4.3	0.1	-2.3298e-002
22570	21.122	4.2	0.1	-2.1506e-002
22571	21.221	4.3	0.1	-2.1034e-002
22572	20.923	4.2	0.1	-1.967e-002
22573	21.023	4.3	0.1	-1.9108e-002
22574	20.725	4.2	0.1	-1.8081e-002
22575	20.824	4.3	0.1	-1.746e-002
22576	20.527	4.2	0.1	-1.6689e-002
22577	20.626	4.3	0.1	-1.6026e-002
22578	20.328	4.2	0.1	-1.5467e-002
22579	20.427	4.3	0.1	-1.4767e-002
22580	20.13	4.2	0.1	-1.4387e-002
22581	20.229	4.3	0.1	-1.3667e-002
22582	19.931	4.2	0.1	-1.3422e-002
22583	20.03	4.3	0.1	-1.2688e-002
22584	19.733	4.2	0.1	-1.2555e-002
22585	19.832	4.3	0.1	-1.1814e-002
22586	19.534	4.2	0.1	-1.1778e-002
22587	19.633	4.3	0.1	-1.1028e-002
22588	19.336	4.2	0.1	-1.1079e-002
22589	19.435	4.3	0.1	-1.0328e-002
22590	19.137	4.2	0.1	-1.0442e-002
22591	19.236	4.3	0.1	-9.6937e-003
22592	18.939	4.2	0.1	-9.8593e-003
22593	19.038	4.3	0.1	-9.1157e-003
22594	18.74	4.2	0.1	-9.3311e-003
22595	18.839	4.3	0.1	-8.585e-003
22596	18.542	4.2	0.1	-8.8477e-003
22597	18.641	4.3	0.1	-8.1131e-003
22598	18.343	4.2	0.1	-8.3912e-003
22599	18.442	4.3	0.1	-7.6688e-003
22600	18.145	4.2	0.1	-7.9712e-003
22601	18.244	4.3	0.1	-7.2485e-003
22602	17.946	4.2	0.1	-7.5872e-003
22603	18.045	4.3	0.1	-6.8738e-003
22604	17.748	4.2	0.1	-7.2273e-003
22605	17.847	4.3	0.1	-6.5233e-003
22606	17.549	4.2	0.1	-6.8882e-003
22607	17.648	4.3	0.1	-6.195e-003
22608	17.351	4.2	0.1	-6.5776e-003
22609	17.45	4.3	0.1	-5.8841e-003
22610	17.152	4.2	0.1	-6.293e-003
22611	17.252	4.3	0.1	-5.6093e-003
22612	16.954	4.2	0.1	-6.0219e-003
22613	17.053	4.3	0.1	-5.3497e-003
22614	16.755	4.2	0.1	-5.7634e-003
22615	16.855	4.3	0.1	-5.1017e-003
22616	16.557	4.2	0.1	-5.5281e-003
22617	16.656	4.3	0.1	-4.8643e-003
22618	16.358	4.2	0.1	-5.3073e-003
22619	16.458	4.3	0.1	-4.6612e-003
22620	16.16	4.2	0.1	-5.0817e-003
22621	16.259	4.3	0.1	-4.4517e-003
22622	15.961	4.2	0.1	-4.869e-003
22623	16.061	4.3	0.1	-4.2376e-003
22624	15.763	4.2	0.1	-4.6726e-003
22625	15.862	4.3	0.1	-4.0529e-003
22626	15.564	4.2	0.1	-4.4804e-003
22627	15.664	4.3	0.1	-3.8707e-003
22628	15.366	4.2	0.1	-4.2887e-003
22629	15.465	4.3	0.1	-3.6916e-003
22630	15.167	4.2	0.1	-4.1092e-003
22631	15.267	4.3	0.1	-3.5097e-003
22632	14.969	4.2	0.1	-3.9423e-003
22633	15.068	4.3	0.1	-3.3551e-003
22634	14.77	4.2	0.1	-3.7708e-003
22635	14.87	4.3	0.1	-3.1959e-003
22636	14.572	4.2	0.1	-3.5928e-003
22637	14.671	4.3	0.1	-3.0322e-003
22638	14.373	4.2	0.1	-3.4228e-003
22639	14.473	4.3	0.1	-2.8595e-003
22640	14.175	4.2	0.1	-3.2488e-003
22641	14.274	4.3	0.1	-2.7101e-003
22642	13.977	4.2	0.1	-3.0412e-003
22643	14.076	4.3	0.1	-2.529e-003
22644	13.778	4.2	0.1	-2.8191e-003
22645	13.877	4.3	0.1	-2.311e-003
22646	13.58	4.2	0.1	-2.5791e-003
22647	13.679	4.3	0.1	-2.0995e-003
22648	13.381	4.2	0.1	-2.2884e-003
22649	13.48	4.3	0.1	-1.8467e-003
22650	13.183	4.2	0.1	-1.9202e-003
22651	13.282	4.3	0.1	-1.5353e-003
22652	12.984	4.2	0.1	-1.4408e-003
22653	13.083	4.3	0.1	-1.1309e-003
22654	12.786	4.2	0.1	-7.4534e-004
22655	12.885	4.3	0.1	-6.0914e-004
22656	12.587	4.2	0.1	4.5427e-004
22657	12.686	4.3	0.1	1.9672e-004
22658	12.389	4.2	0.1	3.1064e-003
22659	12.488	4.3	0.1	1.6275e-003
22660	12.19	4.2	0.1	1.4395e-002
22661	12.289	4.3	0.1	4.9503e-003
22662	11.992	4.2	0.1	0.57505
22663	12.091	4.3	0.1	2.1402e-002
22664	11.793	4.2	0.1	1.9478
22665	11.892	4.3	0.1	0.71516
22666	11.595	4.2	0.1	3.444
22667	11.694	4.3	0.1	2.0923
22668	11.396	4.2	0.1	5.0624
22669	11.495	4.3	0.1	3.5905
22670	11.198	4.2	0.1	6.8134
22671	11.297	4.3	0.1	5.2112
22672	10.999	4.2	0.1	8.7094
22673	11.098	4.3	0.1	6.9644
22674	10.801	4.2	0.1	10.763
22675	10.9	4.3	0.1	8.8623
22676	10.602	4.2	0.1	12.99
22677	10.702	4.3	0.1	10.918
22678	10.404	4.2	0.1	15.405
22679	10.503	4.3	0.1	13.145
22680	10.205	4.2	0.1	18.025
22681	10.305	4.3	0.1	15.559
22682	10.007	4.2	0.1	20.868
22683	10.106	4.3	0.1	18.176
22684	9.8083	4.2	0.1	23.954
22685	9.9076	4.3	0.1	21.014
22686	9.6098	4.2	0.1	27.303
22687	9.7091	4.3	0.1	24.091
22688	9.4114	4.2	0.1	30.936
22689	9.5106	4.3	0.1	27.425
22690	9.2129	4.2	0.1	34.879
22691	9.3121	4.3	0.1	31.039
22692	9.0144	4.2	0.1	39.155
22693	9.1136	4.3	0.1	34.953
22694	8.8159	4.2	0.1	43.791
22695	8.9152	4.3	0.1	39.191
22696	8.6174	4.2	0.1	48.814
22697	8.7167	4.3	0.1	43.775
22698	8.4189	4.2	0.1	54.252
22699	8.5182	4.3	0.1	48.729
22700	8.2205	4.2	0.1	60.136
22701	8.3197	4.3	0.1	54.077
22702	8.022	4.2	0.1	66.494
22703	8.1212	4.3	0.1	59.843
22704	7.8235	4.2	0.1	73.356
22705	7.9227	4.3	0.1	66.05
22706	7.625	4.2	0.1	80.752
22707	7.7242	4.3	0.1	72.719
22708	7.4265	4.2	0.1	88.708
22709	7.5258	4.3	0.1	79.869
22710	7.228	4.2	0.1	97.251
22711	7.3273	4.3	0.1	87.516
22712	7.0295	4.2	0.1	106.4
22713	7.1288	4.3	0.1	95.669
22714	6.8311	4.2	0.1	116.17
22715	6.9303	4.3	0.1	104.33
22716	6.6326	4.2	0.1	126.57
22717	6.7318	4.3	0.1	113.5
22718	6.4341	4.2	0.1	137.6
22719	6.5333	4.3	0.1	123.14
22720	6.2356	4.2	0.1	149.22
22721	6.3348	4.3	0.1	133.24
22722	6.0371	4.2	0.1	161.42
22723	6.1364	4.3	0.1	143.73
22724	5.8386	4.2	0.1	174.12
22725	5.9379	4.3	0.1	154.54
22726	5.6402	4.2	0.1	187.22
22727	5.7394	4.3	0.1	165.55
22728	5.4417	4.2	0.1	200.58
22729	5.5409	4.3	0.1	176.61
22730	5.2432	4.2	0.1	213.98
22731	5.3424	4.3	0.1	187.51
22732	5.0447	4.2	0.1	227.13
22733	5.1439	4.3	0.1	197.96
22734	4.8462	4.2	0.1	239.58
22735	4.9455	4.3	0.1	207.56
22736	4.6477	4.2	0.1	250.72
22737	4.747	4.3	0.1	215.78
22738	4.4492	4.2	0.1	259.57
22739	4.5485	4.3	0.1	221.8
22740	4.2508	4.2	0.1	264.7
22741	4.35	4.3	0.1	224.44
22742	4.0523	4.2	0.1	263.8
22743	4.1515	4.3	0.1	221.85
22744	3.8538	4.2	0.1	253.16
22745	3.953	4.3	0.1	211.1
22746	3.6553	4.2	0.1	226.63
22747	3.7545	4.3	0.1	187.4
22748	3.4568	4.2	0.1	174.13
22749	3.5561	4.3	0.1	143.05
22750	3.2583	4.2	0.1	82.838
22751	3.3576	4.3	0.1	68.947
22752	3.0598	4.2	0.1	14.989
22753	3.1591	4.3	0.1	14.222
22754	2.8614	4.2	0.1	9.4507
22755	2.9606	4.3	0.1	5.7137
22756	2.6629	4.2	0.1	-1.7991
22757	2.7621	4.3	0.1	13.129
22758	2.4644	4.2	0.1	92.261
22759	2.5636	4.3	0.1	-13.376
22760	2.3652	4.3	0.1	88.465
22761	2.2659	4.2	0.1	434.27
22762	23.702	4.4	0.1	-0.16755
22763	23.802	4.5	0.1	-8.6735e-002
22764	23.901	4.4	0.1	-0.28614
22765	23.504	4.4	0.1	-0.21012
22766	23.603	4.5	0.1	-0.31274
22767	23.305	4.4	0.1	-0.1097
22768	23.405	4.5	0.1	-0.11411
22769	23.107	4.4	0.1	-9.0035e-002
22770	23.206	4.5	0.1	-0.10351
22771	22.908	4.4	0.1	-6.7998e-002
22772	23.008	4.5	0.1	-7.2445e-002
22773	22.71	4.4	0.1	-5.5591e-002
22774	22.809	4.5	0.1	-5.8809e-002
22775	22.511	4.4	0.1	-4.5986e-002
22776	22.611	4.5	0.1	-4.7493e-002
22777	22.313	4.4	0.1	-3.8963e-002
22778	22.412	4.5	0.1	-3.9654e-002
22779	22.114	4.4	0.1	-3.3488e-002
22780	22.214	4.5	0.1	-3.358e-002
22781	21.916	4.4	0.1	-2.9162e-002
22782	22.015	4.5	0.1	-2.8869e-002
22783	21.717	4.4	0.1	-2.5667e-002
22784	21.817	4.5	0.1	-2.5106e-002
22785	21.519	4.4	0.1	-2.2799e-002
22786	21.618	4.5	0.1	-2.2056e-002
22787	21.32	4.4	0.1	-2.0411e-002
22788	21.42	4.5	0.1	-1.9544e-002
22789	21.122	4.4	0.1	-1.8397e-002
22790	21.221	4.5	0.1	-1.7446e-002
22791	20.923	4.4	0.1	-1.6682e-002
22792	21.023	4.5	0.1	-1.5673e-002
22793	20.725	4.4	0.1	-1.5208e-002
22794	20.824	4.5	0.1	-1.4169e-002
22795	20.527	4.4	0.1	-1.3923e-002
22796	20.626	4.5	0.1	-1.2867e-002
22797	20.328	4.4	0.1	-1.28e-002
22798	20.427	4.5	0.1	-1.1731e-002
22799	20.13	4.4	0.1	-1.1814e-002
22800	20.229	4.5	0.1	-1.0747e-002
22801	19.931	4.4	0.1	-1.0938e-002
22802	20.03	4.5	0.1	-9.8763e-003
22803	19.733	4.4	0.1	-1.0154e-002
22804	19.832	4.5	0.1	-9.1024e-003
22805	19.534	4.4	0.1	-9.4537e-003
22806	19.633	4.5	0.1	-8.4108e-003
22807	19.336	4.4	0.1	-8.8268e-003
22808	19.435	4.5	0.1	-7.7991e-003
22809	19.137	4.4	0.1	-8.2579e-003
22810	19.236	4.5	0.1	-7.2478e-003
22811	18.939	4.4	0.1	-7.7387e-003
22812	19.038	4.5	0.1	-6.7456e-003
22813	18.74	4.4	0.1	-7.2703e-003
22814	18.839	4.5	0.1	-6.2878e-003
22815	18.542	4.4	0.1	-6.8431e-003
22816	18.641	4.5	0.1	-5.8833e-003
22817	18.343	4.4	0.1	-6.44e-003
22818	18.442	4.5	0.1	-5.5048e-003
22819	18.145	4.4	0.1	-6.0697e-003
22820	18.244	4.5	0.1	-5.1439e-003
22821	17.946	4.4	0.1	-5.7329e-003
22822	18.045	4.5	0.1	-4.8265e-003
22823	17.748	4.4	0.1	-5.418e-003
22824	17.847	4.5	0.1	-4.5303e-003
22825	17.549	4.4	0.1	-5.1218e-003
22826	17.648	4.5	0.1	-4.2515e-003
22827	17.351	4.4	0.1	-4.8503e-003
22828	17.45	4.5	0.1	-3.9903e-003
22829	17.152	4.4	0.1	-4.6039e-003
22830	17.252	4.5	0.1	-3.7604e-003
22831	16.954	4.4	0.1	-4.3707e-003
22832	17.053	4.5	0.1	-3.5453e-003
22833	16.755	4.4	0.1	-4.1468e-003
22834	16.855	4.5	0.1	-3.339e-003
22835	16.557	4.4	0.1	-3.9444e-003
22836	16.656	4.5	0.1	-3.1408e-003
22837	16.358	4.4	0.1	-3.7554e-003
22838	16.458	4.5	0.1	-2.9752e-003
22839	16.16	4.4	0.1	-3.5601e-003
22840	16.259	4.5	0.1	-2.8027e-003
22841	15.961	4.4	0.1	-3.3768e-003
22842	16.061	4.5	0.1	-2.6221e-003
22843	15.763	4.4	0.1	-3.209e-003
22844	15.862	4.5	0.1	-2.4722e-003
22845	15.564	4.4	0.1	-3.0425e-003
22846	15.664	4.5	0.1	-2.3224e-003
22847	15.366	4.4	0.1	-2.876e-003
22848	15.465	4.5	0.1	-2.1735e-003
22849	15.167	4.4	0.1	-2.7218e-003
22850	15.267	4.5	0.1	-2.0224e-003
22851	14.969	4.4	0.1	-2.5779e-003
22852	15.068	4.5	0.1	-1.8965e-003
22853	14.77	4.4	0.1	-2.4296e-003
22854	14.87	4.5	0.1	-1.7659e-003
22855	14.572	4.4	0.1	-2.2747e-003
22856	14.671	4.5	0.1	-1.6309e-003
22857	14.373	4.4	0.1	-2.1267e-003
22858	14.473	4.5	0.1	-1.4861e-003
22859	14.175	4.4	0.1	-1.9747e-003
22860	14.274	4.5	0.1	-1.3657e-003
22861	13.977	4.4	0.1	-1.7887e-003
22862	14.076	4.5	0.1	-1.2131e-003
22863	13.778	4.4	0.1	-1.5882e-003
22864	13.877	4.5	0.1	-1.0258e-003
22865	13.58	4.4	0.1	-1.373e-003
22866	13.679	4.5	0.1	-8.4683e-004
22867	13.381	4.4	0.1	-1.112e-003
22868	13.48	4.5	0.1	-6.3367e-004
22869	13.183	4.4	0.1	-7.8269e-004
22870	13.282	4.5	0.1	-3.6896e-004
22871	12.984	4.4	0.1	-3.6608e-004
22872	13.083	4.5	0.1	-3.0742e-005
22873	12.786	4.4	0.1	2.0962e-004
22874	12.885	4.5	0.1	3.8587e-004
22875	12.587	4.4	0.1	1.1164e-003
22876	12.686	4.5	0.1	9.9637e-004
22877	12.389	4.4	0.1	2.7716e-003
22878	12.488	4.5	0.1	1.9696e-003
22879	12.19	4.4	0.1	6.7599e-003
22880	12.289	4.5	0.1	3.7686e-003
22881	11.992	4.4	0.1	2.9882e-002
22882	12.091	4.5	0.1	8.1402e-003
22883	11.793	4.4	0.1	0.83192
22884	11.892	4.5	0.1	3.4416e-002
22885	11.595	4.4	0.1	2.2132
22886	11.694	4.5	0.1	0.85117
22887	11.396	4.4	0.1	3.7143
22888	11.495	4.5	0.1	2.2227
22889	11.198	4.4	0.1	5.3378
22890	11.297	4.5	0.1	3.7135
22891	10.999	4.4	0.1	7.0937
22892	11.098	4.5	0.1	5.3254
22893	10.801	4.4	0.1	8.9936
22894	10.9	4.5	0.1	7.0684
22895	10.602	4.4	0.1	11.05
22896	10.702	4.5	0.1	8.9533
22897	10.404	4.4	0.1	13.278
22898	10.503	4.5	0.1	10.993
22899	10.205	4.4	0.1	15.69
22900	10.305	4.5	0.1	13.199
22901	10.007	4.4	0.1	18.302
22902	10.106	4.5	0.1	15.587
22903	9.8083	4.4	0.1	21.132
22904	9.9076	4.5	0.1	18.17
22905	9.6098	4.4	0.1	24.195
22906	9.7091	4.5	0.1	20.965
22907	9.4114	4.4	0.1	27.511
22908	9.5106	4.5	0.1	23.986
22909	9.2129	4.4	0.1	31.097
22910	9.3121	4.5	0.1	27.25
22911	9.0144	4.4	0.1	34.974
22912	9.1136	4.5	0.1	30.773
22913	8.8159	4.4	0.1	39.16
22914	8.9152	4.5	0.1	34.573
22915	8.6174	4.4	0.1	43.676
22916	8.7167	4.5	0.1	38.665
22917	8.4189	4.4	0.1	48.54
22918	8.5182	4.5	0.1	43.066
22919	8.2205	4.4	0.1	53.772
22920	8.3197	4.5	0.1	47.789
22921	8.022	4.4	0.1	59.388
22922	8.1212	4.5	0.1	52.848
22923	7.8235	4.4	0.1	65.403
22924	7.9227	4.5	0.1	58.251
22925	7.625	4.4	0.1	71.828
22926	7.7242	4.5	0.1	64.005
22927	7.4265	4.4	0.1	78.669
22928	7.5258	4.5	0.1	70.11
22929	7.228	4.4	0.1	85.927
22930	7.3273	4.5	0.1	76.559
22931	7.0295	4.4	0.1	93.594
22932	7.1288	4.5	0.1	83.337
22933	6.8311	4.4	0.1	101.65
22934	6.9303	4.5	0.1	90.417
22935	6.6326	4.4	0.1	110.06
22936	6.7318	4.5	0.1	97.758
22937	6.4341	4.4	0.1	118.79
22938	6.5333	4.5	0.1	105.3
22939	6.2356	4.4	0.1	127.75
22940	6.3348	4.5	0.1	112.97
22941	6.0371	4.4	0.1	136.85
22942	6.1364	4.5	0.1	120.66
22943	5.8386	4.4	0.1	145.97
22944	5.9379	4.5	0.1	128.23
22945	5.6402	4.4	0.1	154.94
22946	5.7394	4.5	0.1	135.51
22947	5.4417	4.4	0.1	163.54
22948	5.5409	4.5	0.1	142.28
22949	5.2432	4.4	0.1	171.48
22950	5.3424	4.5	0.1	148.27
22951	5.0447	4.4	0.1	178.4
22952	5.1439	4.5	0.1	153.12
22953	4.8462	4.4	0.1	183.78
22954	4.9455	4.5	0.1	156.39
22955	4.6477	4.4	0.1	186.92
22956	4.747	4.5	0.1	157.47
22957	4.4492	4.4	0.1	186.81
22958	4.5485	4.5	0.1	155.54
22959	4.2508	4.4	0.1	181.9
22960	4.35	4.5	0.1	149.41
22961	4.0523	4.4	0.1	169.79
22962	4.1515	4.5	0.1	137.28
22963	3.8538	4.4	0.1	146.59
22964	3.953	4.5	0.1	116.37
22965	3.6553	4.4	0.1	106.3
22966	3.7545	4.5	0.1	82.598
22967	3.4568	4.4	0.1	44.835
22968	3.5561	4.5	0.1	34.967
22969	3.2583	4.4	0.1	10.936
22970	3.3576	4.5	0.1	9.5535
22971	3.0598	4.4	0.1	5.2292
22972	3.1591	4.5	0.1	5.7911
22973	2.8614	4.4	0.1	9.4002
22974	2.9606	4.5	0.1	3.3845
22975	2.6629	4.4	0.1	2.7739
22976	2.7621	4.5	0.1	9.6723
22977	2.4644	4.4	0.1	-16.685
22978	2.5636	4.5	0.1	-5.4326
22979	2.3652	4.5	0.1	6.1187
22980	2.2659	4.4	0.1	-86.014
22981	23.702	4.6	0.1	-0.15409
22982	23.802	4.7	0.1	-6.5276e-002
22983	23.901	4.6	0.1	-0.28126
22984	23.504	4.6	0.1	-0.20055
22985	23.603	4.7	0.1	-0.2994
22986	23.305	4.6	0.1	-0.10186
22987	23.405	4.7	0.1	-0.10416
22988	23.107	4.6	0.1	-8.2915e-002
22989	23.206	4.7	0.1	-9.456e-002
22990	22.908	4.6	0.1	-6.1467e-002
22991	23.008	4.7	0.1	-6.436e-002
22992	22.71	4.6	0.1	-4.9508e-002
22993	22.809	4.7	0.1	-5.1344e-002
22994	22.511	4.6	0.1	-4.0279e-002
22995	22.611	4.7	0.1	-4.0547e-002
22996	22.313	4.6	0.1	-3.3584e-002
22997	22.412	4.7	0.1	-3.3153e-002
22998	22.114	4.6	0.1	-2.8403e-002
22999	22.214	4.7	0.1	-2.7472e-002
23000	21.916	4.6	0.1	-2.4343e-002
23001	22.015	4.7	0.1	-2.3114e-002
23002	21.717	4.6	0.1	-2.1092e-002
23003	21.817	4.7	0.1	-1.9671e-002
23004	21.519	4.6	0.1	-1.8449e-002
23005	21.618	4.7	0.1	-1.6915e-002
23006	21.32	4.6	0.1	-1.6268e-002
23007	21.42	4.7	0.1	-1.4673e-002
23008	21.122	4.6	0.1	-1.4444e-002
23009	21.221	4.7	0.1	-1.2823e-002
23010	20.923	4.6	0.1	-1.2908e-002
23011	21.023	4.7	0.1	-1.1276e-002
23012	20.725	4.6	0.1	-1.1601e-002
23013	20.824	4.7	0.1	-9.9843e-003
23014	20.527	4.6	0.1	-1.0468e-002
23015	20.626	4.7	0.1	-8.877e-003
23016	20.328	4.6	0.1	-9.488e-003
23017	20.427	4.7	0.1	-7.9202e-003
23018	20.13	4.6	0.1	-8.6353e-003
23019	20.229	4.7	0.1	-7.102e-003
23020	19.931	4.6	0.1	-7.8812e-003
23021	20.03	4.7	0.1	-6.3865e-003
23022	19.733	4.6	0.1	-7.2118e-003
23023	19.832	4.7	0.1	-5.7554e-003
23024	19.534	4.6	0.1	-6.6195e-003
23025	19.633	4.7	0.1	-5.1971e-003
23026	19.336	4.6	0.1	-6.0933e-003
23027	19.435	4.7	0.1	-4.7085e-003
23028	19.137	4.6	0.1	-5.6176e-003
23029	19.236	4.7	0.1	-4.2732e-003
23030	18.939	4.6	0.1	-5.1851e-003
23031	19.038	4.7	0.1	-3.8787e-003
23032	18.74	4.6	0.1	-4.7988e-003
23033	18.839	4.7	0.1	-3.5224e-003
23034	18.542	4.6	0.1	-4.4499e-003
23035	18.641	4.7	0.1	-3.2128e-003
23036	18.343	4.6	0.1	-4.1199e-003
23037	18.442	4.7	0.1	-2.9225e-003
23038	18.145	4.6	0.1	-3.8176e-003
23039	18.244	4.7	0.1	-2.6447e-003
23040	17.946	4.6	0.1	-3.5464e-003
23041	18.045	4.7	0.1	-2.4058e-003
23042	17.748	4.6	0.1	-3.2913e-003
23043	17.847	4.7	0.1	-2.1832e-003
23044	17.549	4.6	0.1	-3.0521e-003
23045	17.648	4.7	0.1	-1.9739e-003
23046	17.351	4.6	0.1	-2.8369e-003
23047	17.45	4.7	0.1	-1.7774e-003
23048	17.152	4.6	0.1	-2.6424e-003
23049	17.252	4.7	0.1	-1.6116e-003
23050	16.954	4.6	0.1	-2.458e-003
23051	17.053	4.7	0.1	-1.4535e-003
23052	16.755	4.6	0.1	-2.281e-003
23053	16.855	4.7	0.1	-1.3037e-003
23054	16.557	4.6	0.1	-2.123e-003
23055	16.656	4.7	0.1	-1.1587e-003
23056	16.358	4.6	0.1	-1.9773e-003
23057	16.458	4.7	0.1	-1.0442e-003
23058	16.16	4.6	0.1	-1.8228e-003
23059	16.259	4.7	0.1	-9.2078e-004
23060	15.961	4.6	0.1	-1.6788e-003
23061	16.061	4.7	0.1	-7.8732e-004
23062	15.763	4.6	0.1	-1.55e-003
23063	15.862	4.7	0.1	-6.8241e-004
23064	15.564	4.6	0.1	-1.4208e-003
23065	15.664	4.7	0.1	-5.7612e-004
23066	15.366	4.6	0.1	-1.2905e-003
23067	15.465	4.7	0.1	-4.7018e-004
23068	15.167	4.6	0.1	-1.171e-003
23069	15.267	4.7	0.1	-3.6186e-004
23070	14.969	4.6	0.1	-1.0618e-003
23071	15.068	4.7	0.1	-2.7681e-004
23072	14.77	4.6	0.1	-9.4811e-004
23073	14.87	4.7	0.1	-1.8774e-004
23074	14.572	4.6	0.1	-8.2705e-004
23075	14.671	4.7	0.1	-9.4137e-005
23076	14.373	4.6	0.1	-7.1418e-004
23077	14.473	4.7	0.1	9.1316e-006
23078	14.175	4.6	0.1	-5.9811e-004
23079	14.274	4.7	0.1	8.6365e-005
23080	13.977	4.6	0.1	-4.4987e-004
23081	14.076	4.7	0.1	1.9315e-004
23082	13.778	4.6	0.1	-2.9086e-004
23083	13.877	4.7	0.1	3.3194e-004
23084	13.58	4.6	0.1	-1.2221e-004
23085	13.679	4.7	0.1	4.5665e-004
23086	13.381	4.6	0.1	8.4029e-005
23087	13.48	4.7	0.1	6.0866e-004
23088	13.183	4.6	0.1	3.4347e-004
23089	13.282	4.7	0.1	7.9826e-004
23090	12.984	4.6	0.1	6.6148e-004
23091	13.083	4.7	0.1	1.0404e-003
23092	12.786	4.6	0.1	1.0817e-003
23093	12.885	4.7	0.1	1.3234e-003
23094	12.587	4.6	0.1	1.7046e-003
23095	12.686	4.7	0.1	1.7255e-003
23096	12.389	4.6	0.1	2.7085e-003
23097	12.488	4.7	0.1	2.3249e-003
23098	12.19	4.6	0.1	4.5537e-003
23099	12.289	4.7	0.1	3.2957e-003
23100	11.992	4.6	0.1	9.1118e-003
23101	12.091	4.7	0.1	5.045e-003
23102	11.793	4.6	0.1	3.5944e-002
23103	11.892	4.7	0.1	9.2989e-003
23104	11.595	4.6	0.1	0.8357
23105	11.694	4.7	0.1	3.0771e-002
23106	11.396	4.6	0.1	2.1967
23107	11.495	4.7	0.1	0.71208
23108	11.198	4.6	0.1	3.6765
23109	11.297	4.7	0.1	2.0471
23110	10.999	4.6	0.1	5.2761
23111	11.098	4.7	0.1	3.5017
23112	10.801	4.6	0.1	7.0047
23113	10.9	4.7	0.1	5.0738
23114	10.602	4.6	0.1	8.873
23115	10.702	4.7	0.1	6.7715
23116	10.404	4.6	0.1	10.892
23117	10.503	4.7	0.1	8.6051
23118	10.205	4.6	0.1	13.075
23119	10.305	4.7	0.1	10.585
23120	10.007	4.6	0.1	15.435
23121	10.106	4.7	0.1	12.723
23122	9.8083	4.6	0.1	17.984
23123	9.9076	4.7	0.1	15.031
23124	9.6098	4.6	0.1	20.736
23125	9.7091	4.7	0.1	17.521
23126	9.4114	4.6	0.1	23.707
23127	9.5106	4.7	0.1	20.205
23128	9.2129	4.6	0.1	26.908
23129	9.3121	4.7	0.1	23.095
23130	9.0144	4.6	0.1	30.356
23131	9.1136	4.7	0.1	26.204
23132	8.8159	4.6	0.1	34.063
23133	8.9152	4.7	0.1	29.541
23134	8.6174	4.6	0.1	38.041
23135	8.7167	4.7	0.1	33.119
23136	8.4189	4.6	0.1	42.302
23137	8.5182	4.7	0.1	36.944
23138	8.2205	4.6	0.1	46.853
23139	8.3197	4.7	0.1	41.022
23140	8.022	4.6	0.1	51.7
23141	8.1212	4.7	0.1	45.356
23142	7.8235	4.6	0.1	56.843
23143	7.9227	4.7	0.1	49.944
23144	7.625	4.6	0.1	62.278
23145	7.7242	4.7	0.1	54.778
23146	7.4265	4.6	0.1	67.991
23147	7.5258	4.7	0.1	59.842
23148	7.228	4.6	0.1	73.961
23149	7.3273	4.7	0.1	65.11
23150	7.0295	4.6	0.1	80.153
23151	7.1288	4.7	0.1	70.545
23152	6.8311	4.6	0.1	86.518
23153	6.9303	4.7	0.1	76.095
23154	6.6326	4.6	0.1	92.99
23155	6.7318	4.7	0.1	81.691
23156	6.4341	4.6	0.1	99.479
23157	6.5333	4.7	0.1	87.242
23158	6.2356	4.6	0.1	105.87
23159	6.3348	4.7	0.1	92.629
23160	6.0371	4.6	0.1	112.02
23161	6.1364	4.7	0.1	97.708
23162	5.8386	4.6	0.1	117.75
23163	5.9379	4.7	0.1	102.3
23164	5.6402	4.6	0.1	122.84
23165	5.7394	4.7	0.1	106.17
23166	5.4417	4.6	0.1	127.
23167	5.5409	4.7	0.1	109.07
23168	5.2432	4.6	0.1	129.89
23169	5.3424	4.7	0.1	110.67
23170	5.0447	4.6	0.1	131.11
23171	5.1439	4.7	0.1	110.58
23172	4.8462	4.6	0.1	130.1
23173	4.9455	4.7	0.1	108.32
23174	4.6477	4.6	0.1	126.17
23175	4.747	4.7	0.1	103.31
23176	4.4492	4.6	0.1	118.34
23177	4.5485	4.7	0.1	94.798
23178	4.2508	4.6	0.1	105.21
23179	4.35	4.7	0.1	81.776
23180	4.0523	4.6	0.1	84.773
23181	4.1515	4.7	0.1	62.949
23182	3.8538	4.6	0.1	54.585
23183	3.953	4.7	0.1	37.41
23184	3.6553	4.6	0.1	19.716
23185	3.7545	4.7	0.1	13.197
23186	3.4568	4.6	0.1	7.1267
23187	3.5561	4.7	0.1	5.8301
23188	3.2583	4.6	0.1	4.6012
23189	3.3576	4.7	0.1	3.9935
23190	3.0598	4.6	0.1	3.892
23191	3.1591	4.7	0.1	3.4146
23192	2.8614	4.6	0.1	3.5389
23193	2.9606	4.7	0.1	3.1952
23194	2.6629	4.6	0.1	1.4304
23195	2.7621	4.7	0.1	3.3116
23196	2.4644	4.6	0.1	17.525
23197	2.5636	4.7	0.1	-0.79485
23198	2.3652	4.7	0.1	23.109
23199	2.2659	4.6	0.1	27.147
23200	23.702	4.8	0.1	-0.13562
23201	23.802	4.9	0.1	-3.7473e-002
23202	23.901	4.8	0.1	-0.27374
23203	23.504	4.8	0.1	-0.18707
23204	23.603	4.9	0.1	-0.28137
23205	23.305	4.8	0.1	-9.0748e-002
23206	23.405	4.9	0.1	-9.0598e-002
23207	23.107	4.8	0.1	-7.2874e-002
23208	23.206	4.9	0.1	-8.2358e-002
23209	22.908	4.8	0.1	-5.2307e-002
23210	23.008	4.9	0.1	-5.3433e-002
23211	22.71	4.8	0.1	-4.1041e-002
23212	22.809	4.9	0.1	-4.1334e-002
23213	22.511	4.8	0.1	-3.2409e-002
23214	22.611	4.9	0.1	-3.1324e-002
23215	22.313	4.8	0.1	-2.6237e-002
23216	22.412	4.9	0.1	-2.4605e-002
23217	22.114	4.8	0.1	-2.1521e-002
23218	22.214	4.9	0.1	-1.9521e-002
23219	21.916	4.8	0.1	-1.7882e-002
23220	22.015	4.9	0.1	-1.5697e-002
23221	21.717	4.8	0.1	-1.5012e-002
23222	21.817	4.9	0.1	-1.2734e-002
23223	21.519	4.8	0.1	-1.2718e-002
23224	21.618	4.9	0.1	-1.0412e-002
23225	21.32	4.8	0.1	-1.0856e-002
23226	21.42	4.9	0.1	-8.5631e-003
23227	21.122	4.8	0.1	-9.3244e-003
23228	21.221	4.9	0.1	-7.07e-003
23229	20.923	4.8	0.1	-8.0562e-003
23230	21.023	4.9	0.1	-5.8509e-003
23231	20.725	4.8	0.1	-6.994e-003
23232	20.824	4.9	0.1	-4.8548e-003
23233	20.527	4.8	0.1	-6.0883e-003
23234	20.626	4.9	0.1	-4.0208e-003
23235	20.328	4.8	0.1	-5.3161e-003
23236	20.427	4.9	0.1	-3.3148e-003
23237	20.13	4.8	0.1	-4.655e-003
23238	20.229	4.9	0.1	-2.7248e-003
23239	19.931	4.8	0.1	-4.08e-003
23240	20.03	4.9	0.1	-2.2215e-003
23241	19.733	4.8	0.1	-3.5756e-003
23242	19.832	4.9	0.1	-1.7851e-003
23243	19.534	4.8	0.1	-3.1352e-003
23244	19.633	4.9	0.1	-1.4065e-003
23245	19.336	4.8	0.1	-2.7501e-003
23246	19.435	4.9	0.1	-1.0858e-003
23247	19.137	4.8	0.1	-2.4074e-003
23248	19.236	4.9	0.1	-8.0412e-004
23249	18.939	4.8	0.1	-2.0994e-003
23250	19.038	4.9	0.1	-5.5435e-004
23251	18.74	4.8	0.1	-1.8292e-003
23252	18.839	4.9	0.1	-3.3065e-004
23253	18.542	4.8	0.1	-1.5867e-003
23254	18.641	4.9	0.1	-1.4584e-004
23255	18.343	4.8	0.1	-1.3565e-003
23256	18.442	4.9	0.1	2.984e-005
23257	18.145	4.8	0.1	-1.1493e-003
23258	18.244	4.9	0.1	1.9839e-004
23259	17.946	4.8	0.1	-9.6548e-004
23260	18.045	4.9	0.1	3.3651e-004
23261	17.748	4.8	0.1	-7.9469e-004
23262	17.847	4.9	0.1	4.6389e-004
23263	17.549	4.8	0.1	-6.3368e-004
23264	17.648	4.9	0.1	5.8342e-004
23265	17.351	4.8	0.1	-4.9179e-004
23266	17.45	4.9	0.1	6.972e-004
23267	17.152	4.8	0.1	-3.6721e-004
23268	17.252	4.9	0.1	7.8369e-004
23269	16.954	4.8	0.1	-2.482e-004
23270	17.053	4.9	0.1	8.6675e-004
23271	16.755	4.8	0.1	-1.3459e-004
23272	16.855	4.9	0.1	9.4546e-004
23273	16.557	4.8	0.1	-3.7068e-005
23274	16.656	4.9	0.1	1.0243e-003
23275	16.358	4.8	0.1	5.1273e-005
23276	16.458	4.9	0.1	1.0739e-003
23277	16.16	4.8	0.1	1.4998e-004
23278	16.259	4.9	0.1	1.1361e-003
23279	15.961	4.8	0.1	2.4077e-004
23280	16.061	4.9	0.1	1.2095e-003
23281	15.763	4.8	0.1	3.1972e-004
23282	15.862	4.9	0.1	1.2582e-003
23283	15.564	4.8	0.1	3.9929e-004
23284	15.664	4.9	0.1	1.309e-003
23285	15.366	4.8	0.1	4.7978e-004
23286	15.465	4.9	0.1	1.3611e-003
23287	15.167	4.8	0.1	5.5013e-004
23288	15.267	4.9	0.1	1.4159e-003
23289	14.969	4.8	0.1	6.1143e-004
23290	15.068	4.9	0.1	1.4484e-003
23291	14.77	4.8	0.1	6.7663e-004
23292	14.87	4.9	0.1	1.4839e-003
23293	14.572	4.8	0.1	7.484e-004
23294	14.671	4.9	0.1	1.5242e-003
23295	14.373	4.8	0.1	8.1168e-004
23296	14.473	4.9	0.1	1.5732e-003
23297	14.175	4.8	0.1	8.7485e-004
23298	14.274	4.9	0.1	1.5931e-003
23299	13.977	4.8	0.1	9.6686e-004
23300	14.076	4.9	0.1	1.6402e-003
23301	13.778	4.8	0.1	1.0653e-003
23302	13.877	4.9	0.1	1.7143e-003
23303	13.58	4.8	0.1	1.1664e-003
23304	13.679	4.9	0.1	1.7681e-003
23305	13.381	4.8	0.1	1.2936e-003
23306	13.48	4.9	0.1	1.8407e-003
23307	13.183	4.8	0.1	1.4561e-003
23308	13.282	4.9	0.1	1.9364e-003
23309	12.984	4.8	0.1	1.6511e-003
23310	13.083	4.9	0.1	2.0639e-003
23311	12.786	4.8	0.1	1.9009e-003
23312	12.885	4.9	0.1	2.2009e-003
23313	12.587	4.8	0.1	2.2607e-003
23314	12.686	4.9	0.1	2.4017e-003
23315	12.389	4.8	0.1	2.8049e-003
23316	12.488	4.9	0.1	2.6972e-003
23317	12.19	4.8	0.1	3.6679e-003
23318	12.289	4.9	0.1	3.1531e-003
23319	11.992	4.8	0.1	5.2511e-003
23320	12.091	4.9	0.1	3.8495e-003
23321	11.793	4.8	0.1	8.9509e-003
23322	11.892	4.9	0.1	5.1529e-003
23323	11.595	4.8	0.1	2.467e-002
23324	11.694	4.9	0.1	8.0252e-003
23325	11.396	4.8	0.1	0.54441
23326	11.495	4.9	0.1	1.782e-002
23327	11.198	4.8	0.1	1.8478
23328	11.297	4.9	0.1	0.27845
23329	10.999	4.8	0.1	3.2751
23330	11.098	4.9	0.1	1.514
23331	10.801	4.8	0.1	4.8169
23332	10.9	4.9	0.1	2.8987
23333	10.602	4.8	0.1	6.4806
23334	10.702	4.9	0.1	4.3943
23335	10.404	4.8	0.1	8.2755
23336	10.503	4.9	0.1	6.007
23337	10.205	4.8	0.1	10.212
23338	10.305	4.9	0.1	7.7449
23339	10.007	4.8	0.1	12.299
23340	10.106	4.9	0.1	9.6171
23341	9.8083	4.8	0.1	14.548
23342	9.9076	4.9	0.1	11.633
23343	9.6098	4.8	0.1	16.97
23344	9.7091	4.9	0.1	13.801
23345	9.4114	4.8	0.1	19.575
23346	9.5106	4.9	0.1	16.13
23347	9.2129	4.8	0.1	22.372
23348	9.3121	4.9	0.1	18.63
23349	9.0144	4.8	0.1	25.372
23350	9.1136	4.9	0.1	21.308
23351	8.8159	4.8	0.1	28.581
23352	8.9152	4.9	0.1	24.17
23353	8.6174	4.8	0.1	32.006
23354	8.7167	4.9	0.1	27.22
23355	8.4189	4.8	0.1	35.649
23356	8.5182	4.9	0.1	30.462
23357	8.2205	4.8	0.1	39.512
23358	8.3197	4.9	0.1	33.893
23359	8.022	4.8	0.1	43.588
23360	8.1212	4.9	0.1	37.508
23361	7.8235	4.8	0.1	47.867
23362	7.9227	4.9	0.1	41.295
23363	7.625	4.8	0.1	52.33
23364	7.7242	4.9	0.1	45.236
23365	7.4265	4.8	0.1	56.949
23366	7.5258	4.9	0.1	49.302
23367	7.228	4.8	0.1	61.684
23368	7.3273	4.9	0.1	53.453
23369	7.0295	4.8	0.1	66.478
23370	7.1288	4.9	0.1	57.637
23371	6.8311	4.8	0.1	71.259
23372	6.9303	4.9	0.1	61.781
23373	6.6326	4.8	0.1	75.934
23374	6.7318	4.9	0.1	65.796
23375	6.4341	4.8	0.1	80.381
23376	6.5333	4.9	0.1	69.566
23377	6.2356	4.8	0.1	84.454
23378	6.3348	4.9	0.1	72.948
23379	6.0371	4.8	0.1	87.968
23380	6.1364	4.9	0.1	75.766
23381	5.8386	4.8	0.1	90.703
23382	5.9379	4.9	0.1	77.808
23383	5.6402	4.8	0.1	92.395
23384	5.7394	4.9	0.1	78.823
23385	5.4417	4.8	0.1	92.73
23386	5.5409	4.9	0.1	78.513
23387	5.2432	4.8	0.1	91.34
23388	5.3424	4.9	0.1	76.534
23389	5.0447	4.8	0.1	87.79
23390	5.1439	4.9	0.1	72.489
23391	4.8462	4.8	0.1	81.567
23392	4.9455	4.9	0.1	65.929
23393	4.6477	4.8	0.1	72.057
23394	4.747	4.9	0.1	56.353
23395	4.4492	4.8	0.1	58.539
23396	4.5485	4.9	0.1	43.262
23397	4.2508	4.8	0.1	40.356
23398	4.35	4.9	0.1	26.564
23399	4.0523	4.8	0.1	19.052
23400	4.1515	4.9	0.1	10.28
23401	3.8538	4.8	0.1	6.9304
23402	3.953	4.9	0.1	4.3879
23403	3.6553	4.8	0.1	4.0809
23404	3.7545	4.9	0.1	3.017
23405	3.4568	4.8	0.1	3.1772
23406	3.5561	4.9	0.1	2.5567
23407	3.2583	4.8	0.1	2.8139
23408	3.3576	4.9	0.1	2.3807
23409	3.0598	4.8	0.1	2.6549
23410	3.1591	4.9	0.1	2.3795
23411	2.8614	4.8	0.1	2.9039
23412	2.9606	4.9	0.1	2.27
23413	2.6629	4.8	0.1	1.0811
23414	2.7621	4.9	0.1	3.1108
23415	2.4644	4.8	0.1	5.1743
23416	2.5636	4.9	0.1	-0.90681
23417	2.3652	4.9	0.1	12.477
23418	2.2659	4.8	0.1	-4.9391
23419	23.702	5.	0.1	-0.11152
23420	23.802	5.1	0.1	4.2148e-003
23421	23.901	5.	0.1	-0.26461
23422	23.504	5.	0.1	-0.1691
23423	23.603	5.1	0.1	-0.25266
23424	23.305	5.	0.1	-7.59e-002
23425	23.405	5.1	0.1	-6.8941e-002
23426	23.107	5.	0.1	-5.9519e-002
23427	23.206	5.1	0.1	-6.3115e-002
23428	22.908	5.	0.1	-4.0262e-002
23429	23.008	5.1	0.1	-3.6407e-002
23430	22.71	5.	0.1	-3.0029e-002
23431	22.809	5.1	0.1	-2.5987e-002
23432	22.511	5.	0.1	-2.2292e-002
23433	22.611	5.1	0.1	-1.739e-002
23434	22.313	5.	0.1	-1.6898e-002
23435	22.412	5.1	0.1	-1.1878e-002
23436	22.114	5.	0.1	-1.2874e-002
23437	22.214	5.1	0.1	-7.8463e-003
23438	21.916	5.	0.1	-9.8518e-003
23439	22.015	5.1	0.1	-4.9478e-003
23440	21.717	5.	0.1	-7.5344e-003
23441	21.817	5.1	0.1	-2.8051e-003
23442	21.519	5.	0.1	-5.736e-003
23443	21.618	5.1	0.1	-1.213e-003
23444	21.32	5.	0.1	-4.3207e-003
23445	21.42	5.1	0.1	-1.4475e-005
23446	21.122	5.	0.1	-3.1943e-003
23447	21.221	5.1	0.1	8.9377e-004
23448	20.923	5.	0.1	-2.2931e-003
23449	21.023	5.1	0.1	1.5873e-003
23450	20.725	5.	0.1	-1.5645e-003
23451	20.824	5.1	0.1	2.1079e-003
23452	20.527	5.	0.1	-9.6408e-004
23453	20.626	5.1	0.1	2.5124e-003
23454	20.328	5.	0.1	-4.7002e-004
23455	20.427	5.1	0.1	2.8282e-003
23456	20.13	5.	0.1	-6.3852e-005
23457	20.229	5.1	0.1	3.0614e-003
23458	19.931	5.	0.1	2.7801e-004
23459	20.03	5.1	0.1	3.2408e-003
23460	19.733	5.	0.1	5.6837e-004
23461	19.832	5.1	0.1	3.3805e-003
23462	19.534	5.	0.1	8.0915e-004
23463	19.633	5.1	0.1	3.4874e-003
23464	19.336	5.	0.1	1.0104e-003
23465	19.435	5.1	0.1	3.557e-003
23466	19.137	5.	0.1	1.1847e-003
23467	19.236	5.1	0.1	3.6097e-003
23468	18.939	5.	0.1	1.3373e-003
23469	19.038	5.1	0.1	3.6476e-003
23470	18.74	5.	0.1	1.4639e-003
23471	18.839	5.1	0.1	3.6774e-003
23472	18.542	5.	0.1	1.5715e-003
23473	18.641	5.1	0.1	3.6818e-003
23474	18.343	5.	0.1	1.676e-003
23475	18.442	5.1	0.1	3.6894e-003
23476	18.145	5.	0.1	1.7669e-003
23477	18.244	5.1	0.1	3.7025e-003
23478	17.946	5.	0.1	1.8408e-003
23479	18.045	5.1	0.1	3.6967e-003
23480	17.748	5.	0.1	1.9098e-003
23481	17.847	5.1	0.1	3.6899e-003
23482	17.549	5.	0.1	1.9756e-003
23483	17.648	5.1	0.1	3.6847e-003
23484	17.351	5.	0.1	2.028e-003
23485	17.45	5.1	0.1	3.6805e-003
23486	17.152	5.	0.1	2.0675e-003
23487	17.252	5.1	0.1	3.6579e-003
23488	16.954	5.	0.1	2.1052e-003
23489	17.053	5.1	0.1	3.6368e-003
23490	16.755	5.	0.1	2.1444e-003
23491	16.855	5.1	0.1	3.6189e-003
23492	16.557	5.	0.1	2.1709e-003
23493	16.656	5.1	0.1	3.6054e-003
23494	16.358	5.	0.1	2.1902e-003
23495	16.458	5.1	0.1	3.5677e-003
23496	16.16	5.	0.1	2.2231e-003
23497	16.259	5.1	0.1	3.5455e-003
23498	15.961	5.	0.1	2.2506e-003
23499	16.061	5.1	0.1	3.5393e-003
23500	15.763	5.	0.1	2.2675e-003
23501	15.862	5.1	0.1	3.5103e-003
23502	15.564	5.	0.1	2.2872e-003
23503	15.664	5.1	0.1	3.4852e-003
23504	15.366	5.	0.1	2.3099e-003
23505	15.465	5.1	0.1	3.4642e-003
23506	15.167	5.	0.1	2.3232e-003
23507	15.267	5.1	0.1	3.4474e-003
23508	14.969	5.	0.1	2.3263e-003
23509	15.068	5.1	0.1	3.4076e-003
23510	14.77	5.	0.1	2.3332e-003
23511	14.87	5.1	0.1	3.3709e-003
23512	14.572	5.	0.1	2.3468e-003
23513	14.671	5.1	0.1	3.3389e-003
23514	14.373	5.	0.1	2.3483e-003
23515	14.473	5.1	0.1	3.3124e-003
23516	14.175	5.	0.1	2.3478e-003
23517	14.274	5.1	0.1	3.255e-003
23518	13.977	5.	0.1	2.3723e-003
23519	14.076	5.1	0.1	3.2207e-003
23520	13.778	5.	0.1	2.3969e-003
23521	13.877	5.1	0.1	3.2084e-003
23522	13.58	5.	0.1	2.4168e-003
23523	13.679	5.1	0.1	3.1688e-003
23524	13.381	5.	0.1	2.4521e-003
23525	13.48	5.1	0.1	3.138e-003
23526	13.183	5.	0.1	2.5067e-003
23527	13.282	5.1	0.1	3.1178e-003
23528	12.984	5.	0.1	2.5698e-003
23529	13.083	5.1	0.1	3.1116e-003
23530	12.786	5.	0.1	2.6522e-003
23531	12.885	5.1	0.1	3.0886e-003
23532	12.587	5.	0.1	2.7852e-003
23533	12.686	5.1	0.1	3.0911e-003
23534	12.389	5.	0.1	2.9958e-003
23535	12.488	5.1	0.1	3.1274e-003
23536	12.19	5.	0.1	3.3109e-003
23537	12.289	5.1	0.1	3.2204e-003
23538	11.992	5.	0.1	3.8324e-003
23539	12.091	5.1	0.1	3.3555e-003
23540	11.793	5.	0.1	4.8064e-003
23541	11.892	5.1	0.1	3.6579e-003
23542	11.595	5.	0.1	6.8163e-003
23543	11.694	5.1	0.1	4.2574e-003
23544	11.396	5.	0.1	1.2609e-002
23545	11.495	5.1	0.1	5.4271e-003
23546	11.198	5.	0.1	7.6874e-002
23547	11.297	5.1	0.1	8.4099e-003
23548	10.999	5.	0.1	1.1155
23549	11.098	5.1	0.1	2.2639e-002
23550	10.801	5.	0.1	2.4523
23551	10.9	5.1	0.1	0.57907
23552	10.602	5.	0.1	3.8972
23553	10.702	5.1	0.1	1.846
23554	10.404	5.	0.1	5.4534
23555	10.503	5.1	0.1	3.2238
23556	10.205	5.	0.1	7.1281
23557	10.305	5.1	0.1	4.7063
23558	10.007	5.	0.1	8.929
23559	10.106	5.1	0.1	6.2996
23560	9.8083	5.	0.1	10.864
23561	9.9076	5.1	0.1	8.0099
23562	9.6098	5.	0.1	12.941
23563	9.7091	5.1	0.1	9.844
23564	9.4114	5.	0.1	15.166
23565	9.5106	5.1	0.1	11.808
23566	9.2129	5.	0.1	17.547
23567	9.3121	5.1	0.1	13.907
23568	9.0144	5.	0.1	20.087
23569	9.1136	5.1	0.1	16.146
23570	8.8159	5.	0.1	22.792
23571	8.9152	5.1	0.1	18.526
23572	8.6174	5.	0.1	25.66
23573	8.7167	5.1	0.1	21.05
23574	8.4189	5.	0.1	28.69
23575	8.5182	5.1	0.1	23.713
23576	8.2205	5.	0.1	31.874
23577	8.3197	5.1	0.1	26.511
23578	8.022	5.	0.1	35.201
23579	8.1212	5.1	0.1	29.43
23580	7.8235	5.	0.1	38.651
23581	7.9227	5.1	0.1	32.454
23582	7.625	5.	0.1	42.195
23583	7.7242	5.1	0.1	35.556
23584	7.4265	5.	0.1	45.793
23585	7.5258	5.1	0.1	38.701
23586	7.228	5.	0.1	49.394
23587	7.3273	5.1	0.1	41.84
23588	7.0295	5.	0.1	52.928
23589	7.1288	5.1	0.1	44.91
23590	6.8311	5.	0.1	56.306
23591	6.9303	5.1	0.1	47.831
23592	6.6326	5.	0.1	59.416
23593	6.7318	5.1	0.1	50.501
23594	6.4341	5.	0.1	62.119
23595	6.5333	5.1	0.1	52.79
23596	6.2356	5.	0.1	64.245
23597	6.3348	5.1	0.1	54.545
23598	6.0371	5.	0.1	65.59
23599	6.1364	5.1	0.1	55.576
23600	5.8386	5.	0.1	65.911
23601	5.9379	5.1	0.1	55.658
23602	5.6402	5.	0.1	64.923
23603	5.7394	5.1	0.1	54.529
23604	5.4417	5.	0.1	62.3
23605	5.5409	5.1	0.1	51.887
23606	5.2432	5.	0.1	57.673
23607	5.3424	5.1	0.1	47.39
23608	5.0447	5.	0.1	50.638
23609	5.1439	5.1	0.1	40.672
23610	4.8462	5.	0.1	40.785
23611	4.9455	5.1	0.1	31.378
23612	4.6477	5.	0.1	27.843
23613	4.747	5.1	0.1	19.375
23614	4.4492	5.	0.1	12.901
23615	4.5485	5.1	0.1	6.8935
23616	4.2508	5.	0.1	4.2912
23617	4.35	5.1	0.1	2.4194
23618	4.0523	5.	0.1	2.5016
23619	4.1515	5.1	0.1	1.6143
23620	3.8538	5.	0.1	2.0188
23621	3.953	5.1	0.1	1.399
23622	3.6553	5.	0.1	1.8731
23623	3.7545	5.1	0.1	1.3677
23624	3.4568	5.	0.1	1.8619
23625	3.5561	5.1	0.1	1.4335
23626	3.2583	5.	0.1	1.952
23627	3.3576	5.1	0.1	1.5516
23628	3.0598	5.	0.1	1.97
23629	3.1591	5.1	0.1	1.7787
23630	2.8614	5.	0.1	2.468
23631	2.9606	5.1	0.1	1.803
23632	2.6629	5.	0.1	1.1729
23633	2.7621	5.1	0.1	2.8372
23634	2.4644	5.	0.1	6.8596
23635	2.5636	5.1	0.1	-0.20936
23636	2.3652	5.1	0.1	12.671
23637	2.2659	5.	0.1	2.0543
23638	23.702	5.2	0.1	-6.8763e-002
23639	23.802	5.3	0.1	5.3825e-002
23640	23.901	5.2	0.1	-0.24081
23641	23.504	5.2	0.1	-0.13652
23642	23.603	5.3	0.1	-0.21734
23643	23.305	5.2	0.1	-4.9301e-002
23644	23.405	5.3	0.1	-4.1256e-002
23645	23.107	5.2	0.1	-3.6032e-002
23646	23.206	5.3	0.1	-3.9978e-002
23647	22.908	5.2	0.1	-1.9423e-002
23648	23.008	5.3	0.1	-1.6479e-002
23649	22.71	5.2	0.1	-1.1326e-002
23650	22.809	5.3	0.1	-8.4486e-003
23651	22.511	5.2	0.1	-5.3874e-003
23652	22.611	5.3	0.1	-1.8649e-003
23653	22.313	5.2	0.1	-1.5368e-003
23654	22.412	5.3	0.1	1.9777e-003
23655	22.114	5.2	0.1	1.1488e-003
23656	22.214	5.3	0.1	4.5874e-003
23657	21.916	5.2	0.1	2.9987e-003
23658	22.015	5.3	0.1	6.2678e-003
23659	21.717	5.2	0.1	4.2824e-003
23660	21.817	5.3	0.1	7.362e-003
23661	21.519	5.2	0.1	5.1665e-003
23662	21.618	5.3	0.1	8.044e-003
23663	21.32	5.2	0.1	5.769e-003
23664	21.42	5.3	0.1	8.4486e-003
23665	21.122	5.2	0.1	6.1701e-003
23666	21.221	5.3	0.1	8.6591e-003
23667	20.923	5.2	0.1	6.4203e-003
23668	21.023	5.3	0.1	8.739e-003
23669	20.725	5.2	0.1	6.5635e-003
23670	20.824	5.3	0.1	8.7162e-003
23671	20.527	5.2	0.1	6.6377e-003
23672	20.626	5.3	0.1	8.6376e-003
23673	20.328	5.2	0.1	6.653e-003
23674	20.427	5.3	0.1	8.5214e-003
23675	20.13	5.2	0.1	6.6252e-003
23676	20.229	5.3	0.1	8.3678e-003
23677	19.931	5.2	0.1	6.5725e-003
23678	20.03	5.3	0.1	8.2012e-003
23679	19.733	5.2	0.1	6.5026e-003
23680	19.832	5.3	0.1	8.0268e-003
23681	19.534	5.2	0.1	6.4154e-003
23682	19.633	5.3	0.1	7.8508e-003
23683	19.336	5.2	0.1	6.3163e-003
23684	19.435	5.3	0.1	7.6644e-003
23685	19.137	5.2	0.1	6.2145e-003
23686	19.236	5.3	0.1	7.4835e-003
23687	18.939	5.2	0.1	6.1137e-003
23688	19.038	5.3	0.1	7.3095e-003
23689	18.74	5.2	0.1	6.0072e-003
23690	18.839	5.3	0.1	7.1454e-003
23691	18.542	5.2	0.1	5.8992e-003
23692	18.641	5.3	0.1	6.9726e-003
23693	18.343	5.2	0.1	5.8042e-003
23694	18.442	5.3	0.1	6.8179e-003
23695	18.145	5.2	0.1	5.7107e-003
23696	18.244	5.3	0.1	6.6826e-003
23697	17.946	5.2	0.1	5.6152e-003
23698	18.045	5.3	0.1	6.5385e-003
23699	17.748	5.2	0.1	5.5261e-003
23700	17.847	5.3	0.1	6.406e-003
23701	17.549	5.2	0.1	5.4436e-003
23702	17.648	5.3	0.1	6.283e-003
23703	17.351	5.2	0.1	5.3578e-003
23704	17.45	5.3	0.1	6.1704e-003
23705	17.152	5.2	0.1	5.2686e-003
23706	17.252	5.3	0.1	6.0465e-003
23707	16.954	5.2	0.1	5.1865e-003
23708	17.053	5.3	0.1	5.9314e-003
23709	16.755	5.2	0.1	5.1108e-003
23710	16.855	5.3	0.1	5.8253e-003
23711	16.557	5.2	0.1	5.0284e-003
23712	16.656	5.3	0.1	5.728e-003
23713	16.358	5.2	0.1	4.9449e-003
23714	16.458	5.3	0.1	5.6128e-003
23715	16.16	5.2	0.1	4.8795e-003
23716	16.259	5.3	0.1	5.5156e-003
23717	15.961	5.2	0.1	4.813e-003
23718	16.061	5.3	0.1	5.4389e-003
23719	15.763	5.2	0.1	4.7383e-003
23720	15.862	5.3	0.1	5.3421e-003
23721	15.564	5.2	0.1	4.6688e-003
23722	15.664	5.3	0.1	5.2515e-003
23723	15.366	5.2	0.1	4.6048e-003
23724	15.465	5.3	0.1	5.1664e-003
23725	15.167	5.2	0.1	4.5315e-003
23726	15.267	5.3	0.1	5.0869e-003
23727	14.969	5.2	0.1	4.4484e-003
23728	15.068	5.3	0.1	4.9849e-003
23729	14.77	5.2	0.1	4.3693e-003
23730	14.87	5.3	0.1	4.8867e-003
23731	14.572	5.2	0.1	4.2937e-003
23732	14.671	5.3	0.1	4.7916e-003
23733	14.373	5.2	0.1	4.2046e-003
23734	14.473	5.3	0.1	4.7009e-003
23735	14.175	5.2	0.1	4.1099e-003
23736	14.274	5.3	0.1	4.5789e-003
23737	13.977	5.2	0.1	4.035e-003
23738	14.076	5.3	0.1	4.4748e-003
23739	13.778	5.2	0.1	3.9548e-003
23740	13.877	5.3	0.1	4.3896e-003
23741	13.58	5.2	0.1	3.8607e-003
23742	13.679	5.3	0.1	4.2721e-003
23743	13.381	5.2	0.1	3.7708e-003
23744	13.48	5.3	0.1	4.1555e-003
23745	13.183	5.2	0.1	3.6866e-003
23746	13.282	5.3	0.1	4.0408e-003
23747	12.984	5.2	0.1	3.5917e-003
23748	13.083	5.3	0.1	3.928e-003
23749	12.786	5.2	0.1	3.4881e-003
23750	12.885	5.3	0.1	3.7815e-003
23751	12.587	5.2	0.1	3.3966e-003
23752	12.686	5.3	0.1	3.6376e-003
23753	12.389	5.2	0.1	3.3246e-003
23754	12.488	5.3	0.1	3.4957e-003
23755	12.19	5.2	0.1	3.2615e-003
23756	12.289	5.3	0.1	3.362e-003
23757	11.992	5.2	0.1	3.2348e-003
23758	12.091	5.3	0.1	3.1952e-003
23759	11.793	5.2	0.1	3.3098e-003
23760	11.892	5.3	0.1	3.0677e-003
23761	11.595	5.2	0.1	3.5227e-003
23762	11.694	5.3	0.1	2.9915e-003
23763	11.396	5.2	0.1	4.0232e-003
23764	11.495	5.3	0.1	2.9317e-003
23765	11.198	5.2	0.1	5.3034e-003
23766	11.297	5.3	0.1	2.9897e-003
23767	10.999	5.2	0.1	9.5741e-003
23768	11.098	5.3	0.1	3.3096e-003
23769	10.801	5.2	0.1	7.7389e-002
23770	10.9	5.3	0.1	4.3696e-003
23771	10.602	5.2	0.1	1.1505
23772	10.702	5.3	0.1	9.0486e-003
23773	10.404	5.2	0.1	2.4534
23774	10.503	5.3	0.1	0.29914
23775	10.205	5.2	0.1	3.8549
23776	10.305	5.3	0.1	1.4972
23777	10.007	5.2	0.1	5.3582
23778	10.106	5.3	0.1	2.8008
23779	9.8083	5.2	0.1	6.9682
23780	9.9076	5.3	0.1	4.1967
23781	9.6098	5.2	0.1	8.6902
23782	9.7091	5.3	0.1	5.6886
23783	9.4114	5.2	0.1	10.528
23784	9.5106	5.3	0.1	7.2799
23785	9.2129	5.2	0.1	12.486
23786	9.3121	5.3	0.1	8.9738
23787	9.0144	5.2	0.1	14.566
23788	9.1136	5.3	0.1	10.772
23789	8.8159	5.2	0.1	16.767
23790	8.9152	5.3	0.1	12.674
23791	8.6174	5.2	0.1	19.086
23792	8.7167	5.3	0.1	14.678
23793	8.4189	5.2	0.1	21.517
23794	8.5182	5.3	0.1	16.779
23795	8.2205	5.2	0.1	24.05
23796	8.3197	5.3	0.1	18.968
23797	8.022	5.2	0.1	26.667
23798	8.1212	5.3	0.1	21.229
23799	7.8235	5.2	0.1	29.344
23800	7.9227	5.3	0.1	23.543
23801	7.625	5.2	0.1	32.047
23802	7.7242	5.3	0.1	25.882
23803	7.4265	5.2	0.1	34.733
23804	7.5258	5.3	0.1	28.206
23805	7.228	5.2	0.1	37.342
23806	7.3273	5.3	0.1	30.467
23807	7.0295	5.2	0.1	39.8
23808	7.1288	5.3	0.1	32.6
23809	6.8311	5.2	0.1	42.012
23810	6.9303	5.3	0.1	34.523
23811	6.6326	5.2	0.1	43.86
23812	6.7318	5.3	0.1	36.135
23813	6.4341	5.2	0.1	45.201
23814	6.5333	5.3	0.1	37.309
23815	6.2356	5.2	0.1	45.858
23816	6.3348	5.3	0.1	37.893
23817	6.0371	5.2	0.1	45.625
23818	6.1364	5.3	0.1	37.704
23819	5.8386	5.2	0.1	44.257
23820	5.9379	5.3	0.1	36.525
23821	5.6402	5.2	0.1	41.473
23822	5.7394	5.3	0.1	34.107
23823	5.4417	5.2	0.1	36.96
23824	5.5409	5.3	0.1	30.166
23825	5.2432	5.2	0.1	30.385
23826	5.3424	5.3	0.1	24.4
23827	5.0447	5.2	0.1	21.459
23828	5.1439	5.3	0.1	16.546
23829	4.8462	5.2	0.1	10.398
23830	4.9455	5.3	0.1	6.9039
23831	4.6477	5.2	0.1	2.5812
23832	4.747	5.3	0.1	1.4652
23833	4.4492	5.2	0.1	1.2493
23834	4.5485	5.3	0.1	0.75936
23835	4.2508	5.2	0.1	0.96829
23836	4.35	5.3	0.1	0.60074
23837	4.0523	5.2	0.1	0.90365
23838	4.1515	5.3	0.1	0.56722
23839	3.8538	5.2	0.1	0.93051
23840	3.953	5.3	0.1	0.5933
23841	3.6553	5.2	0.1	1.0201
23842	3.7545	5.3	0.1	0.66466
23843	3.4568	5.2	0.1	1.1609
23844	3.5561	5.3	0.1	0.78821
23845	3.2583	5.2	0.1	1.3827
23846	3.3576	5.3	0.1	0.96572
23847	3.0598	5.2	0.1	1.6104
23848	3.1591	5.3	0.1	1.2863
23849	2.8614	5.2	0.1	2.2097
23850	2.9606	5.3	0.1	1.5875
23851	2.6629	5.2	0.1	1.5969
23852	2.7621	5.3	0.1	2.8131
23853	2.4644	5.2	0.1	6.348
23854	2.5636	5.3	0.1	1.0036
23855	2.3652	5.3	0.1	12.004
23856	2.2659	5.2	0.1	-0.67718
23857	23.702	5.4	0.1	-2.9634e-002
23858	23.802	5.5	0.1	0.21194
23859	23.901	5.4	0.1	-0.23368
23860	23.504	5.4	0.1	-0.10492
23861	23.603	5.5	0.1	-0.10261
23862	23.305	5.4	0.1	-2.3651e-002
23863	23.405	5.5	0.1	4.1289e-002
23864	23.107	5.4	0.1	-1.5229e-002
23865	23.206	5.5	0.1	3.1126e-002
23866	22.908	5.4	0.1	-1.8223e-003
23867	23.008	5.5	0.1	4.399e-002
23868	22.71	5.4	0.1	3.7904e-003
23869	22.809	5.5	0.1	4.4351e-002
23870	22.511	5.4	0.1	7.6746e-003
23871	22.611	5.5	0.1	4.4632e-002
23872	22.313	5.4	0.1	9.8452e-003
23873	22.412	5.5	0.1	4.3318e-002
23874	22.114	5.4	0.1	1.1128e-002
23875	22.214	5.5	0.1	4.1606e-002
23876	21.916	5.4	0.1	1.1806e-002
23877	22.015	5.5	0.1	3.9625e-002
23878	21.717	5.4	0.1	1.2103e-002
23879	21.817	5.5	0.1	3.7581e-002
23880	21.519	5.4	0.1	1.215e-002
23881	21.618	5.5	0.1	3.5547e-002
23882	21.32	5.4	0.1	1.2036e-002
23883	21.42	5.5	0.1	3.3582e-002
23884	21.122	5.4	0.1	1.1821e-002
23885	21.221	5.5	0.1	3.1713e-002
23886	20.923	5.4	0.1	1.1541e-002
23887	21.023	5.5	0.1	2.9953e-002
23888	20.725	5.4	0.1	1.1224e-002
23889	20.824	5.5	0.1	2.8299e-002
23890	20.527	5.4	0.1	1.0893e-002
23891	20.626	5.5	0.1	2.6762e-002
23892	20.328	5.4	0.1	1.0556e-002
23893	20.427	5.5	0.1	2.5343e-002
23894	20.13	5.4	0.1	1.0219e-002
23895	20.229	5.5	0.1	2.4018e-002
23896	19.931	5.4	0.1	9.8928e-003
23897	20.03	5.5	0.1	2.2795e-002
23898	19.733	5.4	0.1	9.5797e-003
23899	19.832	5.5	0.1	2.1668e-002
23900	19.534	5.4	0.1	9.2763e-003
23901	19.633	5.5	0.1	2.0628e-002
23902	19.336	5.4	0.1	8.9838e-003
23903	19.435	5.5	0.1	1.9658e-002
23904	19.137	5.4	0.1	8.7095e-003
23905	19.236	5.5	0.1	1.8764e-002
23906	18.939	5.4	0.1	8.4538e-003
23907	19.038	5.5	0.1	1.7941e-002
23908	18.74	5.4	0.1	8.2073e-003
23909	18.839	5.5	0.1	1.7183e-002
23910	18.542	5.4	0.1	7.9738e-003
23911	18.641	5.5	0.1	1.6467e-002
23912	18.343	5.4	0.1	7.7666e-003
23913	18.442	5.5	0.1	1.5816e-002
23914	18.145	5.4	0.1	7.5699e-003
23915	18.244	5.5	0.1	1.5225e-002
23916	17.946	5.4	0.1	7.3792e-003
23917	18.045	5.5	0.1	1.4661e-002
23918	17.748	5.4	0.1	7.2044e-003
23919	17.847	5.5	0.1	1.414e-002
23920	17.549	5.4	0.1	7.0439e-003
23921	17.648	5.5	0.1	1.3658e-002
23922	17.351	5.4	0.1	6.8866e-003
23923	17.45	5.5	0.1	1.3213e-002
23924	17.152	5.4	0.1	6.7309e-003
23925	17.252	5.5	0.1	1.278e-002
23926	16.954	5.4	0.1	6.5866e-003
23927	17.053	5.5	0.1	1.2375e-002
23928	16.755	5.4	0.1	6.454e-003
23929	16.855	5.5	0.1	1.1998e-002
23930	16.557	5.4	0.1	6.3196e-003
23931	16.656	5.5	0.1	1.1645e-002
23932	16.358	5.4	0.1	6.1866e-003
23933	16.458	5.5	0.1	1.1288e-002
23934	16.16	5.4	0.1	6.0743e-003
23935	16.259	5.5	0.1	1.0961e-002
23936	15.961	5.4	0.1	5.9639e-003
23937	16.061	5.5	0.1	1.0663e-002
23938	15.763	5.4	0.1	5.848e-003
23939	15.862	5.5	0.1	1.0354e-002
23940	15.564	5.4	0.1	5.7387e-003
23941	15.664	5.5	0.1	1.0057e-002
23942	15.366	5.4	0.1	5.6352e-003
23943	15.465	5.5	0.1	9.7706e-003
23944	15.167	5.4	0.1	5.524e-003
23945	15.267	5.5	0.1	9.4924e-003
23946	14.969	5.4	0.1	5.4041e-003
23947	15.068	5.5	0.1	9.1935e-003
23948	14.77	5.4	0.1	5.2871e-003
23949	14.87	5.5	0.1	8.8972e-003
23950	14.572	5.4	0.1	5.1743e-003
23951	14.671	5.5	0.1	8.6035e-003
23952	14.373	5.4	0.1	5.048e-003
23953	14.473	5.5	0.1	8.3107e-003
23954	14.175	5.4	0.1	4.914e-003
23955	14.274	5.5	0.1	7.9809e-003
23956	13.977	5.4	0.1	4.7971e-003
23957	14.076	5.5	0.1	7.6631e-003
23958	13.778	5.4	0.1	4.6725e-003
23959	13.877	5.5	0.1	7.3548e-003
23960	13.58	5.4	0.1	4.5304e-003
23961	13.679	5.5	0.1	7.0034e-003
23962	13.381	5.4	0.1	4.3874e-003
23963	13.48	5.5	0.1	6.6404e-003
23964	13.183	5.4	0.1	4.2433e-003
23965	13.282	5.5	0.1	6.2641e-003
23966	12.984	5.4	0.1	4.0792e-003
23967	13.083	5.5	0.1	5.8712e-003
23968	12.786	5.4	0.1	3.8945e-003
23969	12.885	5.5	0.1	5.4238e-003
23970	12.587	5.4	0.1	3.7055e-003
23971	12.686	5.5	0.1	4.9537e-003
23972	12.389	5.4	0.1	3.5119e-003
23973	12.488	5.5	0.1	4.4567e-003
23974	12.19	5.4	0.1	3.2928e-003
23975	12.289	5.5	0.1	3.9317e-003
23976	11.992	5.4	0.1	3.058e-003
23977	12.091	5.5	0.1	3.3302e-003
23978	11.793	5.4	0.1	2.8395e-003
23979	11.892	5.5	0.1	2.7125e-003
23980	11.595	5.4	0.1	2.6079e-003
23981	11.694	5.5	0.1	2.073e-003
23982	11.396	5.4	0.1	2.3596e-003
23983	11.495	5.5	0.1	1.3443e-003
23984	11.198	5.4	0.1	2.1278e-003
23985	11.297	5.5	0.1	5.6522e-004
23986	10.999	5.4	0.1	1.9405e-003
23987	11.098	5.5	0.1	-2.6989e-004
23988	10.801	5.4	0.1	1.8507e-003
23989	10.9	5.5	0.1	-1.1653e-003
23990	10.602	5.4	0.1	2.121e-003
23991	10.702	5.5	0.1	-2.1706e-003
23992	10.404	5.4	0.1	4.6813e-003
23993	10.503	5.5	0.1	-3.2453e-003
23994	10.205	5.4	0.1	0.42304
23995	10.305	5.5	0.1	-4.3946e-003
23996	10.007	5.4	0.1	1.616
23997	10.106	5.5	0.1	-5.575e-003
23998	9.8083	5.4	0.1	2.8943
23999	9.9076	5.5	0.1	0.19156
24000	9.6098	5.4	0.1	4.2563
24001	9.7091	5.5	0.1	1.3372
24002	9.4114	5.4	0.1	5.704
24003	9.5106	5.5	0.1	2.554
24004	9.2129	5.4	0.1	7.2388
24005	9.3121	5.5	0.1	3.8429
24006	9.0144	5.4	0.1	8.8604
24007	9.1136	5.5	0.1	5.2041
24008	8.8159	5.4	0.1	10.567
24009	8.9152	5.5	0.1	6.6363
24010	8.6174	5.4	0.1	12.353
24011	8.7167	5.5	0.1	8.1359
24012	8.4189	5.4	0.1	14.211
24013	8.5182	5.5	0.1	9.6969
24014	8.2205	5.4	0.1	16.129
24015	8.3197	5.5	0.1	11.31
24016	8.022	5.4	0.1	18.089
24017	8.1212	5.5	0.1	12.961
24018	7.8235	5.4	0.1	20.065
24019	7.9227	5.5	0.1	14.63
24020	7.625	5.4	0.1	22.025
24021	7.7242	5.5	0.1	16.292
24022	7.4265	5.4	0.1	23.925
24023	7.5258	5.5	0.1	17.912
24024	7.228	5.4	0.1	25.71
24025	7.3273	5.5	0.1	19.446
24026	7.0295	5.4	0.1	27.308
24027	7.1288	5.5	0.1	20.837
24028	6.8311	5.4	0.1	28.63
24029	6.9303	5.5	0.1	22.014
24030	6.6326	5.4	0.1	29.567
24031	6.7318	5.5	0.1	22.887
24032	6.4341	5.4	0.1	29.984
24033	6.5333	5.5	0.1	23.348
24034	6.2356	5.4	0.1	29.721
24035	6.3348	5.5	0.1	23.266
24036	6.0371	5.4	0.1	28.585
24037	6.1364	5.5	0.1	22.483
24038	5.8386	5.4	0.1	26.355
24039	5.9379	5.5	0.1	20.814
24040	5.6402	5.4	0.1	22.781
24041	5.7394	5.5	0.1	18.048
24042	5.4417	5.4	0.1	17.595
24043	5.5409	5.5	0.1	13.955
24044	5.2432	5.4	0.1	10.591
24045	5.3424	5.5	0.1	8.3374
24046	5.0447	5.4	0.1	2.8063
24047	5.1439	5.5	0.1	1.9909
24048	4.8462	5.4	0.1	0.66561
24049	4.9455	5.5	0.1	0.43893
24050	4.6477	5.4	0.1	0.40276
24051	4.747	5.5	0.1	0.27738
24052	4.4492	5.4	0.1	0.33125
24053	4.5485	5.5	0.1	0.2429
24054	4.2508	5.4	0.1	0.31734
24055	4.35	5.5	0.1	0.24686
24056	4.0523	5.4	0.1	0.33615
24057	4.1515	5.5	0.1	0.2716
24058	3.8538	5.4	0.1	0.38406
24059	3.953	5.5	0.1	0.31307
24060	3.6553	5.4	0.1	0.46947
24061	3.7545	5.5	0.1	0.37234
24062	3.4568	5.4	0.1	0.60755
24063	3.5561	5.5	0.1	0.46253
24064	3.2583	5.4	0.1	0.86066
24065	3.3576	5.5	0.1	0.6013
24066	3.0598	5.4	0.1	1.2483
24067	3.1591	5.5	0.1	0.91301
24068	2.8614	5.4	0.1	2.2479
24069	2.9606	5.5	0.1	1.3869
24070	2.6629	5.4	0.1	2.544
24071	2.7621	5.5	0.1	3.1712
24072	2.4644	5.4	0.1	7.9385
24073	2.5636	5.5	0.1	2.7098
24074	2.3652	5.5	0.1	13.53
24075	2.2659	5.4	0.1	-0.34703
24076	23.702	5.6	0.1	0.20383
24077	23.802	5.7	0.1	0.41105
24078	23.901	5.6	0.1	-2.1832e-002
24079	23.504	5.6	0.1	6.4427e-002
24080	23.603	5.7	0.1	2.9996e-002
24081	23.305	5.6	0.1	0.1071
24082	23.405	5.7	0.1	0.10653
24083	23.107	5.6	0.1	9.728e-002
24084	23.206	5.7	0.1	7.8719e-002
24085	22.908	5.6	0.1	9.4869e-002
24086	23.008	5.7	0.1	7.49e-002
24087	22.71	5.6	0.1	8.8517e-002
24088	22.809	5.7	0.1	6.503e-002
24089	22.511	5.6	0.1	8.2685e-002
24090	22.611	5.7	0.1	5.7842e-002
24091	22.313	5.6	0.1	7.6853e-002
24092	22.412	5.7	0.1	5.1228e-002
24093	22.114	5.6	0.1	7.1421e-002
24094	22.214	5.7	0.1	4.5641e-002
24095	21.916	5.6	0.1	6.6383e-002
24096	22.015	5.7	0.1	4.082e-002
24097	21.717	5.6	0.1	6.1755e-002
24098	21.817	5.7	0.1	3.6679e-002
24099	21.519	5.6	0.1	5.7518e-002
24100	21.618	5.7	0.1	3.3099e-002
24101	21.32	5.6	0.1	5.3649e-002
24102	21.42	5.7	0.1	2.9999e-002
24103	21.122	5.6	0.1	5.0119e-002
24104	21.221	5.7	0.1	2.7308e-002
24105	20.923	5.6	0.1	4.6894e-002
24106	21.023	5.7	0.1	2.4964e-002
24107	20.725	5.6	0.1	4.3949e-002
24108	20.824	5.7	0.1	2.2906e-002
24109	20.527	5.6	0.1	4.1266e-002
24110	20.626	5.7	0.1	2.1106e-002
24111	20.328	5.6	0.1	3.8814e-002
24112	20.427	5.7	0.1	1.953e-002
24113	20.13	5.6	0.1	3.6568e-002
24114	20.229	5.7	0.1	1.813e-002
24115	19.931	5.6	0.1	3.4515e-002
24116	20.03	5.7	0.1	1.6897e-002
24117	19.733	5.6	0.1	3.2638e-002
24118	19.832	5.7	0.1	1.5806e-002
24119	19.534	5.6	0.1	3.0914e-002
24120	19.633	5.7	0.1	1.484e-002
24121	19.336	5.6	0.1	2.9329e-002
24122	19.435	5.7	0.1	1.397e-002
24123	19.137	5.6	0.1	2.7876e-002
24124	19.236	5.7	0.1	1.3196e-002
24125	18.939	5.6	0.1	2.6542e-002
24126	19.038	5.7	0.1	1.2506e-002
24127	18.74	5.6	0.1	2.5309e-002
24128	18.839	5.7	0.1	1.189e-002
24129	18.542	5.6	0.1	2.4171e-002
24130	18.641	5.7	0.1	1.1323e-002
24131	18.343	5.6	0.1	2.3132e-002
24132	18.442	5.7	0.1	1.0823e-002
24133	18.145	5.6	0.1	2.2172e-002
24134	18.244	5.7	0.1	1.0383e-002
24135	17.946	5.6	0.1	2.1276e-002
24136	18.045	5.7	0.1	9.9711e-003
24137	17.748	5.6	0.1	2.0448e-002
24138	17.847	5.7	0.1	9.6003e-003
24139	17.549	5.6	0.1	1.9683e-002
24140	17.648	5.7	0.1	9.267e-003
24141	17.351	5.6	0.1	1.8962e-002
24142	17.45	5.7	0.1	8.9665e-003
24143	17.152	5.6	0.1	1.828e-002
24144	17.252	5.7	0.1	8.6754e-003
24145	16.954	5.6	0.1	1.7644e-002
24146	17.053	5.7	0.1	8.4104e-003
24147	16.755	5.6	0.1	1.7047e-002
24148	16.855	5.7	0.1	8.1692e-003
24149	16.557	5.6	0.1	1.6473e-002
24150	16.656	5.7	0.1	7.9496e-003
24151	16.358	5.6	0.1	1.5923e-002
24152	16.458	5.7	0.1	7.7233e-003
24153	16.16	5.6	0.1	1.5413e-002
24154	16.259	5.7	0.1	7.5264e-003
24155	15.961	5.6	0.1	1.4918e-002
24156	16.061	5.7	0.1	7.3563e-003
24157	15.763	5.6	0.1	1.443e-002
24158	15.862	5.7	0.1	7.1739e-003
24159	15.564	5.6	0.1	1.3958e-002
24160	15.664	5.7	0.1	7.0036e-003
24161	15.366	5.6	0.1	1.3499e-002
24162	15.465	5.7	0.1	6.8441e-003
24163	15.167	5.6	0.1	1.3035e-002
24164	15.267	5.7	0.1	6.6941e-003
24165	14.969	5.6	0.1	1.2562e-002
24166	15.068	5.7	0.1	6.5255e-003
24167	14.77	5.6	0.1	1.2091e-002
24168	14.87	5.7	0.1	6.3625e-003
24169	14.572	5.6	0.1	1.162e-002
24170	14.671	5.7	0.1	6.2055e-003
24171	14.373	5.6	0.1	1.1127e-002
24172	14.473	5.7	0.1	6.0534e-003
24173	14.175	5.6	0.1	1.0616e-002
24174	14.274	5.7	0.1	5.8705e-003
24175	13.977	5.6	0.1	1.011e-002
24176	14.076	5.7	0.1	5.7072e-003
24177	13.778	5.6	0.1	9.5793e-003
24178	13.877	5.7	0.1	5.5604e-003
24179	13.58	5.6	0.1	9.0118e-003
24180	13.679	5.7	0.1	5.3802e-003
24181	13.381	5.6	0.1	8.4212e-003
24182	13.48	5.7	0.1	5.2e-003
24183	13.183	5.6	0.1	7.8032e-003
24184	13.282	5.7	0.1	5.0192e-003
24185	12.984	5.6	0.1	7.1356e-003
24186	13.083	5.7	0.1	4.8368e-003
24187	12.786	5.6	0.1	6.4136e-003
24188	12.885	5.7	0.1	4.6178e-003
24189	12.587	5.6	0.1	5.6493e-003
24190	12.686	5.7	0.1	4.3962e-003
24191	12.389	5.6	0.1	4.8387e-003
24192	12.488	5.7	0.1	4.1709e-003
24193	12.19	5.6	0.1	3.9544e-003
24194	12.289	5.7	0.1	3.9455e-003
24195	11.992	5.6	0.1	3.0009e-003
24196	12.091	5.7	0.1	3.676e-003
24197	11.793	5.6	0.1	2.0041e-003
24198	11.892	5.7	0.1	3.4285e-003
24199	11.595	5.6	0.1	9.255e-004
24200	11.694	5.7	0.1	3.2052e-003
24201	11.396	5.6	0.1	-2.508e-004
24202	11.495	5.7	0.1	2.949e-003
24203	11.198	5.6	0.1	-1.5088e-003
24204	11.297	5.7	0.1	2.7106e-003
24205	10.999	5.6	0.1	-2.8531e-003
24206	11.098	5.7	0.1	2.5031e-003
24207	10.801	5.6	0.1	-4.3095e-003
24208	10.9	5.7	0.1	2.3447e-003
24209	10.602	5.6	0.1	-5.877e-003
24210	10.702	5.7	0.1	2.2222e-003
24211	10.404	5.6	0.1	-7.5281e-003
24212	10.503	5.7	0.1	2.2258e-003
24213	10.205	5.6	0.1	-9.234e-003
24214	10.305	5.7	0.1	2.4271e-003
24215	10.007	5.6	0.1	-1.0904e-002
24216	10.106	5.7	0.1	2.9619e-003
24217	9.8083	5.6	0.1	-1.2125e-002
24218	9.9076	5.7	0.1	4.0594e-003
24219	9.6098	5.6	0.1	-7.9126e-003
24220	9.7091	5.7	0.1	6.2336e-003
24221	9.4114	5.6	0.1	0.6748
24222	9.5106	5.7	0.1	1.0665e-002
24223	9.2129	5.6	0.1	1.7877
24224	9.3121	5.7	0.1	2.0855e-002
24225	9.0144	5.6	0.1	2.9593
24226	9.1136	5.7	0.1	5.3369e-002
24227	8.8159	5.6	0.1	4.1849
24228	8.9152	5.7	0.1	0.28833
24229	8.6174	5.6	0.1	5.4596
24230	8.7167	5.7	0.1	1.1507
24231	8.4189	5.6	0.1	6.7757
24232	8.5182	5.7	0.1	2.1864
24233	8.2205	5.6	0.1	8.1222
24234	8.3197	5.7	0.1	3.2669
24235	8.022	5.6	0.1	9.4838
24236	8.1212	5.7	0.1	4.3691
24237	7.8235	5.6	0.1	10.84
24238	7.9227	5.7	0.1	5.4758
24239	7.625	5.6	0.1	12.162
24240	7.7242	5.7	0.1	6.567
24241	7.4265	5.6	0.1	13.417
24242	7.5258	5.7	0.1	7.6172
24243	7.228	5.6	0.1	14.557
24244	7.3273	5.7	0.1	8.5945
24245	7.0295	5.6	0.1	15.527
24246	7.1288	5.7	0.1	9.4584
24247	6.8311	5.6	0.1	16.254
24248	6.9303	5.7	0.1	10.158
24249	6.6326	5.6	0.1	16.651
24250	6.7318	5.7	0.1	10.632
24251	6.4341	5.6	0.1	16.613
24252	6.5333	5.7	0.1	10.804
24253	6.2356	5.6	0.1	16.011
24254	6.3348	5.7	0.1	10.581
24255	6.0371	5.6	0.1	14.694
24256	6.1364	5.7	0.1	9.8552
24257	5.8386	5.6	0.1	12.491
24258	5.9379	5.7	0.1	8.4992
24259	5.6402	5.6	0.1	9.2107
24260	5.7394	5.7	0.1	6.3716
24261	5.4417	5.6	0.1	4.7209
24262	5.5409	5.7	0.1	3.3584
24263	5.2432	5.6	0.1	0.68916
24264	5.3424	5.7	0.1	0.46508
24265	5.0447	5.6	0.1	0.23358
24266	5.1439	5.7	0.1	0.1001
24267	4.8462	5.6	0.1	0.18123
24268	4.9455	5.7	0.1	4.4323e-002
24269	4.6477	5.6	0.1	0.18437
24270	4.747	5.7	0.1	2.3929e-002
24271	4.4492	5.6	0.1	0.20859
24272	4.5485	5.7	0.1	1.2607e-002
24273	4.2508	5.6	0.1	0.2445
24274	4.35	5.7	0.1	2.3496e-003
24275	4.0523	5.6	0.1	0.28764
24276	4.1515	5.7	0.1	-1.1494e-002
24277	3.8538	5.6	0.1	0.33517
24278	3.953	5.7	0.1	-3.1732e-002
24279	3.6553	5.6	0.1	0.38958
24280	3.7545	5.7	0.1	-5.8232e-002
24281	3.4568	5.6	0.1	0.46188
24282	3.5561	5.7	0.1	-7.577e-002
24283	3.2583	5.6	0.1	0.62534
24284	3.3576	5.7	0.1	-5.0553e-002
24285	3.0598	5.6	0.1	0.97527
24286	3.1591	5.7	0.1	0.19279
24287	2.8614	5.6	0.1	2.264
24288	2.9606	5.7	0.1	0.81309
24289	2.6629	5.6	0.1	3.9075
24290	2.7621	5.7	0.1	3.4721
24291	2.4644	5.6	0.1	11.207
24292	2.5636	5.7	0.1	6.1897
24293	2.3652	5.7	0.1	22.055
24294	2.2659	5.6	0.1	-2.4768
24295	23.702	5.8	0.1	0.28063
24296	23.802	5.9	0.1	1.2126e-002
24297	23.901	5.8	0.1	6.1615e-002
24298	23.504	5.8	0.1	7.4321e-002
24299	23.603	5.9	0.1	-0.23446
24300	23.305	5.8	0.1	6.8715e-002
24301	23.405	5.9	0.1	-0.11169
24302	23.107	5.8	0.1	4.3263e-002
24303	23.206	5.9	0.1	-9.3826e-002
24304	22.908	5.8	0.1	3.1117e-002
24305	23.008	5.9	0.1	-6.7996e-002
24306	22.71	5.8	0.1	2.0648e-002
24307	22.809	5.9	0.1	-5.4876e-002
24308	22.511	5.8	0.1	1.3351e-002
24309	22.611	5.9	0.1	-4.4665e-002
24310	22.313	5.8	0.1	7.8113e-003
24311	22.412	5.9	0.1	-3.7413e-002
24312	22.114	5.8	0.1	3.6987e-003
24313	22.214	5.9	0.1	-3.1797e-002
24314	21.916	5.8	0.1	6.1418e-004
24315	22.015	5.9	0.1	-2.7393e-002
24316	21.717	5.8	0.1	-1.6884e-003
24317	21.817	5.9	0.1	-2.3838e-002
24318	21.519	5.8	0.1	-3.3971e-003
24319	21.618	5.9	0.1	-2.0924e-002
24320	21.32	5.8	0.1	-4.6442e-003
24321	21.42	5.9	0.1	-1.8489e-002
24322	21.122	5.8	0.1	-5.5328e-003
24323	21.221	5.9	0.1	-1.6429e-002
24324	20.923	5.8	0.1	-6.1479e-003
24325	21.023	5.9	0.1	-1.4663e-002
24326	20.725	5.8	0.1	-6.5482e-003
24327	20.824	5.9	0.1	-1.3148e-002
24328	20.527	5.8	0.1	-6.7753e-003
24329	20.626	5.9	0.1	-1.1821e-002
24330	20.328	5.8	0.1	-6.8746e-003
24331	20.427	5.9	0.1	-1.0652e-002
24332	20.13	5.8	0.1	-6.8745e-003
24333	20.229	5.9	0.1	-9.6282e-003
24334	19.931	5.8	0.1	-6.7946e-003
24335	20.03	5.9	0.1	-8.7165e-003
24336	19.733	5.8	0.1	-6.6552e-003
24337	19.832	5.9	0.1	-7.904e-003
24338	19.534	5.8	0.1	-6.4752e-003
24339	19.633	5.9	0.1	-7.1715e-003
24340	19.336	5.8	0.1	-6.2675e-003
24341	19.435	5.9	0.1	-6.5248e-003
24342	19.137	5.8	0.1	-6.0354e-003
24343	19.236	5.9	0.1	-5.9386e-003
24344	18.939	5.8	0.1	-5.7861e-003
24345	19.038	5.9	0.1	-5.4071e-003
24346	18.74	5.8	0.1	-5.533e-003
24347	18.839	5.9	0.1	-4.9232e-003
24348	18.542	5.8	0.1	-5.2763e-003
24349	18.641	5.9	0.1	-4.4962e-003
24350	18.343	5.8	0.1	-5.0077e-003
24351	18.442	5.9	0.1	-4.0965e-003
24352	18.145	5.8	0.1	-4.742e-003
24353	18.244	5.9	0.1	-3.7196e-003
24354	17.946	5.8	0.1	-4.4846e-003
24355	18.045	5.9	0.1	-3.3898e-003
24356	17.748	5.8	0.1	-4.2275e-003
24357	17.847	5.9	0.1	-3.081e-003
24358	17.549	5.8	0.1	-3.9722e-003
24359	17.648	5.9	0.1	-2.7943e-003
24360	17.351	5.8	0.1	-3.7286e-003
24361	17.45	5.9	0.1	-2.5244e-003
24362	17.152	5.8	0.1	-3.497e-003
24363	17.252	5.9	0.1	-2.2899e-003
24364	16.954	5.8	0.1	-3.2673e-003
24365	17.053	5.9	0.1	-2.0669e-003
24366	16.755	5.8	0.1	-3.0382e-003
24367	16.855	5.9	0.1	-1.8568e-003
24368	16.557	5.8	0.1	-2.8219e-003
24369	16.656	5.9	0.1	-1.6527e-003
24370	16.358	5.8	0.1	-2.6122e-003
24371	16.458	5.9	0.1	-1.4816e-003
24372	16.16	5.8	0.1	-2.3892e-003
24373	16.259	5.9	0.1	-1.3043e-003
24374	15.961	5.8	0.1	-2.1708e-003
24375	16.061	5.9	0.1	-1.1183e-003
24376	15.763	5.8	0.1	-1.962e-003
24377	15.862	5.9	0.1	-9.5963e-004
24378	15.564	5.8	0.1	-1.7487e-003
24379	15.664	5.9	0.1	-8.0116e-004
24380	15.366	5.8	0.1	-1.5291e-003
24381	15.465	5.9	0.1	-6.4285e-004
24382	15.167	5.8	0.1	-1.3148e-003
24383	15.267	5.9	0.1	-4.7963e-004
24384	14.969	5.8	0.1	-1.1048e-003
24385	15.068	5.9	0.1	-3.3985e-004
24386	14.77	5.8	0.1	-8.853e-004
24387	14.87	5.9	0.1	-1.9404e-004
24388	14.572	5.8	0.1	-6.5367e-004
24389	14.671	5.9	0.1	-4.3686e-005
24390	14.373	5.8	0.1	-4.2426e-004
24391	14.473	5.9	0.1	1.1744e-004
24392	14.175	5.8	0.1	-1.8724e-004
24393	14.274	5.9	0.1	2.5401e-004
24394	13.977	5.8	0.1	8.3606e-005
24395	14.076	5.9	0.1	4.1934e-004
24396	13.778	5.8	0.1	3.6575e-004
24397	13.877	5.9	0.1	6.1168e-004
24398	13.58	5.8	0.1	6.5466e-004
24399	13.679	5.9	0.1	7.8727e-004
24400	13.381	5.8	0.1	9.7012e-004
24401	13.48	5.9	0.1	9.8099e-004
24402	13.183	5.8	0.1	1.3157e-003
24403	13.282	5.9	0.1	1.1928e-003
24404	12.984	5.8	0.1	1.6778e-003
24405	13.083	5.9	0.1	1.4292e-003
24406	12.786	5.8	0.1	2.0613e-003
24407	12.885	5.9	0.1	1.6561e-003
24408	12.587	5.8	0.1	2.4871e-003
24409	12.686	5.9	0.1	1.9135e-003
24410	12.389	5.8	0.1	2.9621e-003
24411	12.488	5.9	0.1	2.2007e-003
24412	12.19	5.8	0.1	3.4733e-003
24413	12.289	5.9	0.1	2.5277e-003
24414	11.992	5.8	0.1	4.0382e-003
24415	12.091	5.9	0.1	2.8554e-003
24416	11.793	5.8	0.1	4.6987e-003
24417	11.892	5.9	0.1	3.2517e-003
24418	11.595	5.8	0.1	5.4362e-003
24419	11.694	5.9	0.1	3.724e-003
24420	11.396	5.8	0.1	6.2569e-003
24421	11.495	5.9	0.1	4.2188e-003
24422	11.198	5.8	0.1	7.2027e-003
24423	11.297	5.9	0.1	4.7932e-003
24424	10.999	5.8	0.1	8.299e-003
24425	11.098	5.9	0.1	5.4552e-003
24426	10.801	5.8	0.1	9.5584e-003
24427	10.9	5.9	0.1	6.2263e-003
24428	10.602	5.8	0.1	1.1026e-002
24429	10.702	5.9	0.1	7.0827e-003
24430	10.404	5.8	0.1	1.2782e-002
24431	10.503	5.9	0.1	8.0978e-003
24432	10.205	5.8	0.1	1.4909e-002
24433	10.305	5.9	0.1	9.297e-003
24434	10.007	5.8	0.1	1.7522e-002
24435	10.106	5.9	0.1	1.0735e-002
24436	9.8083	5.8	0.1	2.0796e-002
24437	9.9076	5.9	0.1	1.2456e-002
24438	9.6098	5.8	0.1	2.5012e-002
24439	9.7091	5.9	0.1	1.4563e-002
24440	9.4114	5.8	0.1	3.0593e-002
24441	9.5106	5.9	0.1	1.7186e-002
24442	9.2129	5.8	0.1	3.8268e-002
24443	9.3121	5.9	0.1	2.0487e-002
24444	9.0144	5.8	0.1	4.9376e-002
24445	9.1136	5.9	0.1	2.4762e-002
24446	8.8159	5.8	0.1	6.6597e-002
24447	8.9152	5.9	0.1	3.0458e-002
24448	8.6174	5.8	0.1	9.6093e-002
24449	8.7167	5.9	0.1	3.8347e-002
24450	8.4189	5.8	0.1	0.15487
24451	8.5182	5.9	0.1	4.9854e-002
24452	8.2205	5.8	0.1	0.3001
24453	8.3197	5.9	0.1	6.7852e-002
24454	8.022	5.8	0.1	0.6843
24455	8.1212	5.9	0.1	9.8966e-002
24456	7.8235	5.8	0.1	1.3407
24457	7.9227	5.9	0.1	0.16065
24458	7.625	5.8	0.1	2.0908
24459	7.7242	5.9	0.1	0.29904
24460	7.4265	5.8	0.1	2.8333
24461	7.5258	5.9	0.1	0.57229
24462	7.228	5.8	0.1	3.5182
24463	7.3273	5.9	0.1	0.93695
24464	7.0295	5.8	0.1	4.1038
24465	7.1288	5.9	0.1	1.3048
24466	6.8311	5.8	0.1	4.5454
24467	6.9303	5.9	0.1	1.6221
24468	6.6326	5.8	0.1	4.7908
24469	6.7318	5.9	0.1	1.8509
24470	6.4341	5.8	0.1	4.7781
24471	6.5333	5.9	0.1	1.9546
24472	6.2356	5.8	0.1	4.4348
24473	6.3348	5.9	0.1	1.8925
24474	6.0371	5.8	0.1	3.6786
24475	6.1364	5.9	0.1	1.6174
24476	5.8386	5.8	0.1	2.4309
24477	5.9379	5.9	0.1	1.0744
24478	5.6402	5.8	0.1	0.80051
24479	5.7394	5.9	0.1	0.20238
24480	5.4417	5.8	0.1	0.10886
24481	5.5409	5.9	0.1	-8.789e-002
24482	5.2432	5.8	0.1	3.5247e-003
24483	5.3424	5.9	0.1	-9.7213e-002
24484	5.0447	5.8	0.1	-3.8661e-002
24485	5.1439	5.9	0.1	-0.10896
24486	4.8462	5.8	0.1	-6.9658e-002
24487	4.9455	5.9	0.1	-0.12417
24488	4.6477	5.8	0.1	-0.10218
24489	4.747	5.9	0.1	-0.14356
24490	4.4492	5.8	0.1	-0.14336
24491	4.5485	5.9	0.1	-0.16784
24492	4.2508	5.8	0.1	-0.19954
24493	4.35	5.9	0.1	-0.19763
24494	4.0523	5.8	0.1	-0.27653
24495	4.1515	5.9	0.1	-0.23338
24496	3.8538	5.8	0.1	-0.37745
24497	3.953	5.9	0.1	-0.27469
24498	3.6553	5.8	0.1	-0.49348
24499	3.7545	5.9	0.1	-0.32086
24500	3.4568	5.8	0.1	-0.59219
24501	3.5561	5.9	0.1	-0.36448
24502	3.2583	5.8	0.1	-0.54868
24503	3.3576	5.9	0.1	-0.40724
24504	3.0598	5.8	0.1	-0.1545
24505	3.1591	5.9	0.1	-0.36917
24506	2.8614	5.8	0.1	1.6027
24507	2.9606	5.9	0.1	-0.36401
24508	2.6629	5.8	0.1	5.2531
24509	2.7621	5.9	0.1	0.74641
24510	2.4644	5.8	0.1	21.694
24511	2.5636	5.9	0.1	1.1611
24512	2.2659	5.8	0.1	1.6049
24513	2.3652	5.9	0.1	21.647
24514	1.8	5.7	0.1	45.083
24515	1.7	5.8	0.1	48.558
24516	1.9	5.8	0.1	14.504
24517	1.8	5.9	0.1	34.843
24518	1.8	5.5	0.1	26.278
24519	1.7	5.6	0.1	35.654
24520	1.9	5.6	0.1	-3.3124
24521	1.8	5.3	0.1	21.237
24522	1.7	5.4	0.1	23.458
24523	1.9	5.4	0.1	-0.63798
24524	1.8	5.1	0.1	20.221
24525	1.7	5.2	0.1	17.227
24526	1.9	5.2	0.1	-1.0991
24527	1.8	4.9	0.1	19.725
24528	1.7	5.	0.1	15.73
24529	1.9	5.	0.1	1.6039
24530	1.8	4.7	0.1	29.875
24531	1.7	4.8	0.1	13.449
24532	1.9	4.8	0.1	-4.6209
24533	1.8	4.5	0.1	15.403
24534	1.7	4.6	0.1	25.063
24535	1.9	4.6	0.1	25.331
24536	1.8	4.3	0.1	106.14
24537	1.7	4.4	0.1	-6.2499
24538	1.9	4.4	0.1	-78.495
24539	1.8	4.1	0.1	516.48
24540	1.7	4.2	0.1	110.98
24541	1.9	4.2	0.1	414.68
24542	1.8	3.9	0.1	339.83
24543	1.7	4.	0.1	372.4
24544	1.9	4.	0.1	804.31
24545	1.8	3.7	0.1	121.82
24546	1.7	3.8	0.1	268.92
24547	1.9	3.8	0.1	-13.655
24548	1.8	3.5	0.1	84.853
24549	1.7	3.6	0.1	344.76
24550	1.9	3.6	0.1	40.678
24551	1.8	3.3	0.1	174.11
24552	1.7	3.4	0.1	441.65
24553	1.9	3.4	0.1	2.3911
24554	1.8	3.1	0.1	226.66
24555	1.7	3.2	0.1	489.69
24556	1.9	3.2	0.1	13.715
24557	1.8	2.9	0.1	226.66
24558	1.7	3.	0.1	506.7
24559	1.9	3.	0.1	38.77
24560	1.8	2.7	0.1	174.11
24561	1.7	2.8	0.1	489.69
24562	1.9	2.8	0.1	13.715
24563	1.8	2.5	0.1	84.853
24564	1.7	2.6	0.1	441.65
24565	1.9	2.6	0.1	2.3911
24566	1.8	2.3	0.1	121.82
24567	1.7	2.4	0.1	344.76
24568	1.9	2.4	0.1	40.678
24569	1.8	2.1	0.1	339.83
24570	1.7	2.2	0.1	268.92
24571	1.9	2.2	0.1	-13.655
24572	1.8	1.9	0.1	516.48
24573	1.7	2.	0.1	372.4
24574	1.9	2.	0.1	804.31
24575	1.8	1.7	0.1	106.14
24576	1.7	1.8	0.1	110.98
24577	1.9	1.8	0.1	414.68
24578	1.8	1.5	0.1	15.403
24579	1.7	1.6	0.1	-6.2499
24580	1.9	1.6	0.1	-78.495
24581	1.8	1.3	0.1	29.875
24582	1.7	1.4	0.1	25.063
24583	1.9	1.4	0.1	25.331
24584	1.8	1.1	0.1	19.725
24585	1.7	1.2	0.1	13.449
24586	1.9	1.2	0.1	-4.6209
24587	1.8	0.9	0.1	20.221
24588	1.7	1.	0.1	15.73
24589	1.9	1.	0.1	1.6039
24590	1.8	0.7	0.1	21.237
24591	1.7	0.8	0.1	17.227
24592	1.9	0.8	0.1	-1.0991
24593	1.8	0.5	0.1	26.278
24594	1.7	0.6	0.1	23.458
24595	1.9	0.6	0.1	-0.63798
24596	1.8	0.3	0.1	45.083
24597	1.7	0.4	0.1	35.654
24598	1.9	0.4	0.1	-3.3124
24599	1.7	0.2	0.1	48.558
24600	1.9	0.2	0.1	14.504
24601	1.8	0.1	0.1	34.843
24602	1.6	5.7	0.1	35.139
24603	1.5	5.8	0.1	24.002
24604	1.6	5.9	0.1	2.6
24605	1.6	5.5	0.1	29.211
24606	1.5	5.6	0.1	42.281
24607	1.6	5.3	0.1	18.104
24608	1.5	5.4	0.1	38.987
24609	1.6	5.1	0.1	11.654
24610	1.5	5.2	0.1	26.9
24611	1.6	4.9	0.1	8.3372
24612	1.5	5.	0.1	19.456
24613	1.6	4.7	0.1	7.7531
24614	1.5	4.8	0.1	15.665
24615	1.6	4.5	0.1	2.8021
24616	1.5	4.6	0.1	16.034
24617	1.6	4.3	0.1	0.11555
24618	1.5	4.4	0.1	20.28
24619	1.6	4.1	0.1	-26.991
24620	1.5	4.2	0.1	68.317
24621	1.6	3.9	0.1	372.59
24622	1.5	4.	0.1	510.97
24623	1.6	3.7	0.1	704.34
24624	1.5	3.8	0.1	915.82
24625	1.6	3.5	0.1	769.31
24626	1.5	3.6	0.1	1032.6
24627	1.6	3.3	0.1	777.48
24628	1.5	3.4	0.1	1042.1
24629	1.6	3.1	0.1	785.48
24630	1.5	3.2	0.1	1046.3
24631	1.6	2.9	0.1	785.48
24632	1.5	3.	0.1	1046.5
24633	1.6	2.7	0.1	777.48
24634	1.5	2.8	0.1	1046.3
24635	1.6	2.5	0.1	769.31
24636	1.5	2.6	0.1	1042.1
24637	1.6	2.3	0.1	704.33
24638	1.5	2.4	0.1	1032.6
24639	1.6	2.1	0.1	372.59
24640	1.5	2.2	0.1	915.82
24641	1.6	1.9	0.1	-26.991
24642	1.5	2.	0.1	510.97
24643	1.6	1.7	0.1	0.11555
24644	1.5	1.8	0.1	68.317
24645	1.6	1.5	0.1	2.8021
24646	1.5	1.6	0.1	20.28
24647	1.6	1.3	0.1	7.7531
24648	1.5	1.4	0.1	16.034
24649	1.6	1.1	0.1	8.3372
24650	1.5	1.2	0.1	15.665
24651	1.6	0.9	0.1	11.654
24652	1.5	1.	0.1	19.456
24653	1.6	0.7	0.1	18.104
24654	1.5	0.8	0.1	26.9
24655	1.6	0.5	0.1	29.211
24656	1.5	0.6	0.1	38.987
24657	1.6	0.3	0.1	35.139
24658	1.5	0.4	0.1	42.281
24659	1.5	0.2	0.1	24.002
24660	1.6	0.1	0.1	2.6
24661	1.4	5.7	0.1	28.014
24662	1.3	5.8	0.1	15.595
24663	1.4	5.9	0.1	0.78859
24664	1.4	5.5	0.1	53.791
24665	1.3	5.6	0.1	47.713
24666	1.4	5.3	0.1	62.354
24667	1.3	5.4	0.1	107.67
24668	1.4	5.1	0.1	56.608
24669	1.3	5.2	0.1	154.23
24670	1.4	4.9	0.1	51.507
24671	1.3	5.	0.1	189.96
24672	1.4	4.7	0.1	57.356
24673	1.3	4.8	0.1	234.8
24674	1.4	4.5	0.1	114.13
24675	1.3	4.6	0.1	321.14
24676	1.4	4.3	0.1	333.6
24677	1.3	4.4	0.1	505.19
24678	1.4	4.1	0.1	709.13
24679	1.3	4.2	0.1	815.98
24680	1.4	3.9	0.1	1072.
24681	1.3	4.	0.1	1169.6
24682	1.4	3.7	0.1	1278.8
24683	1.3	3.8	0.1	1426.9
24684	1.4	3.5	0.1	1336.3
24685	1.3	3.6	0.1	1531.4
24686	1.4	3.3	0.1	1334.4
24687	1.3	3.4	0.1	1547.9
24688	1.4	3.1	0.1	1327.3
24689	1.3	3.2	0.1	1543.2
24690	1.4	2.9	0.1	1327.3
24691	1.3	3.	0.1	1539.8
24692	1.4	2.7	0.1	1334.4
24693	1.3	2.8	0.1	1543.2
24694	1.4	2.5	0.1	1336.3
24695	1.3	2.6	0.1	1547.9
24696	1.4	2.3	0.1	1278.8
24697	1.3	2.4	0.1	1531.4
24698	1.4	2.1	0.1	1072.
24699	1.3	2.2	0.1	1426.9
24700	1.4	1.9	0.1	709.13
24701	1.3	2.	0.1	1169.6
24702	1.4	1.7	0.1	333.6
24703	1.3	1.8	0.1	815.98
24704	1.4	1.5	0.1	114.13
24705	1.3	1.6	0.1	505.19
24706	1.4	1.3	0.1	57.356
24707	1.3	1.4	0.1	321.14
24708	1.4	1.1	0.1	51.507
24709	1.3	1.2	0.1	234.8
24710	1.4	0.9	0.1	56.608
24711	1.3	1.	0.1	189.96
24712	1.4	0.7	0.1	62.354
24713	1.3	0.8	0.1	154.23
24714	1.4	0.5	0.1	53.791
24715	1.3	0.6	0.1	107.67
24716	1.4	0.3	0.1	28.014
24717	1.3	0.4	0.1	47.713
24718	1.3	0.2	0.1	15.595
24719	1.4	0.1	0.1	0.78859
24720	1.2	5.7	0.1	22.312
24721	1.1	5.8	0.1	10.865
24722	1.2	5.9	0.1	-0.80723
24723	1.2	5.5	0.1	97.715
24724	1.1	5.6	0.1	62.325
24725	1.2	5.3	0.1	207.4
24726	1.1	5.4	0.1	219.02
24727	1.2	5.1	0.1	310.03
24728	1.1	5.2	0.1	378.72
24729	1.2	4.9	0.1	415.14
24730	1.1	5.	0.1	529.32
24731	1.2	4.7	0.1	545.26
24732	1.1	4.8	0.1	682.18
24733	1.2	4.5	0.1	728.8
24734	1.1	4.6	0.1	858.36
24735	1.2	4.3	0.1	981.92
24736	1.1	4.4	0.1	1078.8
24737	1.2	4.1	0.1	1272.8
24738	1.1	4.2	0.1	1341.9
24739	1.2	3.9	0.1	1528.1
24740	1.1	4.	0.1	1599.2
24741	1.2	3.7	0.1	1690.8
24742	1.1	3.8	0.1	1791.3
24743	1.2	3.5	0.1	1759.6
24744	1.1	3.6	0.1	1893.5
24745	1.2	3.3	0.1	1774.
24746	1.1	3.4	0.1	1928.6
24747	1.2	3.1	0.1	1772.5
24748	1.1	3.2	0.1	1934.4
24749	1.2	2.9	0.1	1772.5
24750	1.1	3.	0.1	1934.1
24751	1.2	2.7	0.1	1774.
24752	1.1	2.8	0.1	1934.4
24753	1.2	2.5	0.1	1759.6
24754	1.1	2.6	0.1	1928.6
24755	1.2	2.3	0.1	1690.8
24756	1.1	2.4	0.1	1893.5
24757	1.2	2.1	0.1	1528.1
24758	1.1	2.2	0.1	1791.3
24759	1.2	1.9	0.1	1272.8
24760	1.1	2.	0.1	1599.2
24761	1.2	1.7	0.1	981.92
24762	1.1	1.8	0.1	1341.9
24763	1.2	1.5	0.1	728.8
24764	1.1	1.6	0.1	1078.8
24765	1.2	1.3	0.1	545.26
24766	1.1	1.4	0.1	858.36
24767	1.2	1.1	0.1	415.14
24768	1.1	1.2	0.1	682.18
24769	1.2	0.9	0.1	310.03
24770	1.1	1.	0.1	529.32
24771	1.2	0.7	0.1	207.4
24772	1.1	0.8	0.1	378.72
24773	1.2	0.5	0.1	97.715
24774	1.1	0.6	0.1	219.02
24775	1.2	0.3	0.1	22.312
24776	1.1	0.4	0.1	62.325
24777	1.1	0.2	0.1	10.865
24778	1.2	0.1	0.1	-0.80723
24779	1.	5.7	0.1	20.942
24780	0.9	5.8	0.1	11.292
24781	1.	5.9	0.1	-1.9037
24782	1.	5.5	0.1	173.28
24783	0.9	5.6	0.1	109.61
24784	1.	5.3	0.1	382.31
24785	0.9	5.4	0.1	363.1
24786	1.	5.1	0.1	584.98
24787	0.9	5.2	0.1	613.9
24788	1.	4.9	0.1	780.26
24789	0.9	5.	0.1	844.39
24790	1.	4.7	0.1	978.92
24791	0.9	4.8	0.1	1058.9
24792	1.	4.5	0.1	1194.4
24793	0.9	4.6	0.1	1270.5
24794	1.	4.3	0.1	1428.6
24795	0.9	4.4	0.1	1489.9
24796	1.	4.1	0.1	1662.1
24797	0.9	4.2	0.1	1712.
24798	1.	3.9	0.1	1860.6
24799	0.9	4.	0.1	1914.6
24800	1.	3.7	0.1	1997.
24801	0.9	3.8	0.1	2069.9
24802	1.	3.5	0.1	2070.
24803	0.9	3.6	0.1	2166.
24804	1.	3.3	0.1	2099.2
24805	0.9	3.4	0.1	2213.
24806	1.	3.1	0.1	2107.3
24807	0.9	3.2	0.1	2230.6
24808	1.	2.9	0.1	2107.3
24809	0.9	3.	0.1	2234.6
24810	1.	2.7	0.1	2099.2
24811	0.9	2.8	0.1	2230.6
24812	1.	2.5	0.1	2070.
24813	0.9	2.6	0.1	2213.
24814	1.	2.3	0.1	1997.
24815	0.9	2.4	0.1	2166.
24816	1.	2.1	0.1	1860.6
24817	0.9	2.2	0.1	2069.9
24818	1.	1.9	0.1	1662.1
24819	0.9	2.	0.1	1914.6
24820	1.	1.7	0.1	1428.6
24821	0.9	1.8	0.1	1712.
24822	1.	1.5	0.1	1194.4
24823	0.9	1.6	0.1	1489.9
24824	1.	1.3	0.1	978.92
24825	0.9	1.4	0.1	1270.5
24826	1.	1.1	0.1	780.26
24827	0.9	1.2	0.1	1058.9
24828	1.	0.9	0.1	584.98
24829	0.9	1.	0.1	844.39
24830	1.	0.7	0.1	382.31
24831	0.9	0.8	0.1	613.9
24832	1.	0.5	0.1	173.28
24833	0.9	0.6	0.1	363.1
24834	1.	0.3	0.1	20.942
24835	0.9	0.4	0.1	109.61
24836	0.9	0.2	0.1	11.292
24837	1.	0.1	0.1	-1.9037
24838	0.8	5.7	0.1	36.392
24839	0.7	5.8	0.1	4.9143
24840	0.8	5.9	0.1	0.25386
24841	0.8	5.5	0.1	292.46
24842	0.7	5.6	0.1	196.08
24843	0.8	5.3	0.1	588.88
24844	0.7	5.4	0.1	545.68
24845	0.8	5.1	0.1	864.15
24846	0.7	5.2	0.1	864.93
24847	0.8	4.9	0.1	1111.4
24848	0.7	5.	0.1	1138.2
24849	0.8	4.7	0.1	1338.3
24850	0.7	4.8	0.1	1373.9
24851	0.8	4.5	0.1	1554.8
24852	0.7	4.6	0.1	1586.7
24853	0.8	4.3	0.1	1764.2
24854	0.7	4.4	0.1	1786.6
24855	0.8	4.1	0.1	1957.9
24856	0.7	4.2	0.1	1973.7
24857	0.8	3.9	0.1	2120.1
24858	0.7	4.	0.1	2138.2
24859	0.8	3.7	0.1	2238.4
24860	0.7	3.8	0.1	2267.7
24861	0.8	3.5	0.1	2311.8
24862	0.7	3.6	0.1	2356.3
24863	0.8	3.3	0.1	2349.6
24864	0.7	3.4	0.1	2408.1
24865	0.8	3.1	0.1	2364.5
24866	0.7	3.2	0.1	2433.1
24867	0.8	2.9	0.1	2364.5
24868	0.7	3.	0.1	2440.3
24869	0.8	2.7	0.1	2349.6
24870	0.7	2.8	0.1	2433.1
24871	0.8	2.5	0.1	2311.8
24872	0.7	2.6	0.1	2408.1
24873	0.8	2.3	0.1	2238.4
24874	0.7	2.4	0.1	2356.3
24875	0.8	2.1	0.1	2120.1
24876	0.7	2.2	0.1	2267.7
24877	0.8	1.9	0.1	1957.9
24878	0.7	2.	0.1	2138.2
24879	0.8	1.7	0.1	1764.2
24880	0.7	1.8	0.1	1973.7
24881	0.8	1.5	0.1	1554.8
24882	0.7	1.6	0.1	1786.6
24883	0.8	1.3	0.1	1338.3
24884	0.7	1.4	0.1	1586.7
24885	0.8	1.1	0.1	1111.4
24886	0.7	1.2	0.1	1373.9
24887	0.8	0.9	0.1	864.15
24888	0.7	1.	0.1	1138.2
24889	0.8	0.7	0.1	588.89
24890	0.7	0.8	0.1	864.93
24891	0.8	0.5	0.1	292.46
24892	0.7	0.6	0.1	545.68
24893	0.8	0.3	0.1	36.392
24894	0.7	0.4	0.1	196.08
24895	0.7	0.2	0.1	4.9143
24896	0.8	0.1	0.1	0.25386
24897	0.6	5.7	0.1	58.029
24898	0.5	5.8	0.1	35.197
24899	0.6	5.9	0.1	-10.103
24900	0.6	5.5	0.1	446.02
24901	0.5	5.6	0.1	385.91
24902	0.6	5.3	0.1	817.45
24903	0.5	5.4	0.1	840.25
24904	0.6	5.1	0.1	1131.6
24905	0.5	5.2	0.1	1198.2
24906	0.6	4.9	0.1	1391.
24907	0.5	5.	0.1	1477.
24908	0.6	4.7	0.1	1611.9
24909	0.5	4.8	0.1	1703.1
24910	0.6	4.5	0.1	1808.6
24911	0.5	4.6	0.1	1897.7
24912	0.6	4.3	0.1	1987.7
24913	0.5	4.4	0.1	2072.3
24914	0.6	4.1	0.1	2147.5
24915	0.5	4.2	0.1	2230.
24916	0.6	3.9	0.1	2281.4
24917	0.5	4.	0.1	2367.4
24918	0.6	3.7	0.1	2383.5
24919	0.5	3.8	0.1	2478.9
24920	0.6	3.5	0.1	2452.9
24921	0.5	3.6	0.1	2561.1
24922	0.6	3.3	0.1	2493.8
24923	0.5	3.4	0.1	2615.1
24924	0.6	3.1	0.1	2512.1
24925	0.5	3.2	0.1	2644.8
24926	0.6	2.9	0.1	2512.1
24927	0.5	3.	0.1	2654.1
24928	0.6	2.7	0.1	2493.8
24929	0.5	2.8	0.1	2644.8
24930	0.6	2.5	0.1	2452.9
24931	0.5	2.6	0.1	2615.1
24932	0.6	2.3	0.1	2383.5
24933	0.5	2.4	0.1	2561.1
24934	0.6	2.1	0.1	2281.4
24935	0.5	2.2	0.1	2478.9
24936	0.6	1.9	0.1	2147.5
24937	0.5	2.	0.1	2367.4
24938	0.6	1.7	0.1	1987.7
24939	0.5	1.8	0.1	2230.
24940	0.6	1.5	0.1	1808.6
24941	0.5	1.6	0.1	2072.3
24942	0.6	1.3	0.1	1611.9
24943	0.5	1.4	0.1	1897.7
24944	0.6	1.1	0.1	1391.
24945	0.5	1.2	0.1	1703.1
24946	0.6	0.9	0.1	1131.6
24947	0.5	1.	0.1	1477.
24948	0.6	0.7	0.1	817.45
24949	0.5	0.8	0.1	1198.2
24950	0.6	0.5	0.1	446.02
24951	0.5	0.6	0.1	840.25
24952	0.6	0.3	0.1	58.029
24953	0.5	0.4	0.1	385.91
24954	0.5	0.2	0.1	35.197
24955	0.6	0.1	0.1	-10.103
24956	0.4	5.7	0.1	221.44
24957	0.3	5.8	0.1	-16.777
24958	0.4	5.9	0.1	21.529
24959	0.4	5.5	0.1	778.66
24960	0.3	5.6	0.1	622.2
24961	0.4	5.3	0.1	1217.4
24962	0.3	5.4	0.1	1082.5
24963	0.4	5.1	0.1	1536.4
24964	0.3	5.2	0.1	1390.8
24965	0.4	4.9	0.1	1780.2
24966	0.3	5.	0.1	1615.7
24967	0.4	4.7	0.1	1979.9
24968	0.3	4.8	0.1	1795.6
24969	0.4	4.5	0.1	2153.3
24970	0.3	4.6	0.1	1949.5
24971	0.4	4.3	0.1	2307.9
24972	0.3	4.4	0.1	2086.4
24973	0.4	4.1	0.1	2444.7
24974	0.3	4.2	0.1	2209.3
24975	0.4	3.9	0.1	2561.2
24976	0.3	4.	0.1	2317.
24977	0.4	3.7	0.1	2654.4
24978	0.3	3.8	0.1	2407.1
24979	0.4	3.5	0.1	2722.7
24980	0.3	3.6	0.1	2477.4
24981	0.4	3.3	0.1	2766.8
24982	0.3	3.4	0.1	2527.
24983	0.4	3.1	0.1	2788.2
24984	0.3	3.2	0.1	2556.2
24985	0.4	2.9	0.1	2788.2
24986	0.3	3.	0.1	2565.9
24987	0.4	2.7	0.1	2766.8
24988	0.3	2.8	0.1	2556.2
24989	0.4	2.5	0.1	2722.7
24990	0.3	2.6	0.1	2527.
24991	0.4	2.3	0.1	2654.4
24992	0.3	2.4	0.1	2477.4
24993	0.4	2.1	0.1	2561.2
24994	0.3	2.2	0.1	2407.1
24995	0.4	1.9	0.1	2444.7
24996	0.3	2.	0.1	2317.
24997	0.4	1.7	0.1	2307.9
24998	0.3	1.8	0.1	2209.3
24999	0.4	1.5	0.1	2153.3
25000	0.3	1.6	0.1	2086.4
25001	0.4	1.3	0.1	1979.9
25002	0.3	1.4	0.1	1949.5
25003	0.4	1.1	0.1	1780.2
25004	0.3	1.2	0.1	1795.6
25005	0.4	0.9	0.1	1536.4
25006	0.3	1.	0.1	1615.7
25007	0.4	0.7	0.1	1217.4
25008	0.3	0.8	0.1	1390.8
25009	0.4	0.5	0.1	778.66
25010	0.3	0.6	0.1	1082.5
25011	0.4	0.3	0.1	221.44
25012	0.3	0.4	0.1	622.2
25013	0.3	0.2	0.1	-16.777
25014	0.4	0.1	0.1	21.529
25015	0.2	5.7	0.1	350.94
25016	0.1	5.8	0.1	537.77
25017	0.2	5.9	0.1	-89.942
25018	0.2	5.5	0.1	917.63
25019	0.1	5.6	0.1	1402.5
25020	0.2	5.3	0.1	1238.7
25021	0.1	5.4	0.1	1843.2
25022	0.2	5.1	0.1	1453.2
25023	0.1	5.2	0.1	2132.5
25024	0.2	4.9	0.1	1616.7
25025	0.1	5.	0.1	2352.4
25026	0.2	4.7	0.1	1753.2
25027	0.1	4.8	0.1	2535.4
25028	0.2	4.5	0.1	1873.
25029	0.1	4.6	0.1	2694.7
25030	0.2	4.3	0.1	1980.2
25031	0.1	4.4	0.1	2836.6
25032	0.2	4.1	0.1	2075.8
25033	0.1	4.2	0.1	2963.7
25034	0.2	3.9	0.1	2158.7
25035	0.1	4.	0.1	3076.9
25036	0.2	3.7	0.1	2227.4
25037	0.1	3.8	0.1	3175.4
25038	0.2	3.5	0.1	2280.3
25039	0.1	3.6	0.1	3257.3
25040	0.2	3.3	0.1	2316.2
25041	0.1	3.4	0.1	3319.4
25042	0.2	3.1	0.1	2334.3
25043	0.1	3.2	0.1	3358.5
25044	0.2	2.9	0.1	2334.3
25045	0.1	3.	0.1	3371.9
25046	0.2	2.7	0.1	2316.2
25047	0.1	2.8	0.1	3358.5
25048	0.2	2.5	0.1	2280.3
25049	0.1	2.6	0.1	3319.4
25050	0.2	2.3	0.1	2227.4
25051	0.1	2.4	0.1	3257.3
25052	0.2	2.1	0.1	2158.7
25053	0.1	2.2	0.1	3175.4
25054	0.2	1.9	0.1	2075.8
25055	0.1	2.	0.1	3076.9
25056	0.2	1.7	0.1	1980.2
25057	0.1	1.8	0.1	2963.7
25058	0.2	1.5	0.1	1873.
25059	0.1	1.6	0.1	2836.6
25060	0.2	1.3	0.1	1753.2
25061	0.1	1.4	0.1	2694.7
25062	0.2	1.1	0.1	1616.7
25063	0.1	1.2	0.1	2535.4
25064	0.2	0.9	0.1	1453.2
25065	0.1	1.	0.1	2352.4
25066	0.2	0.7	0.1	1238.7
25067	0.1	0.8	0.1	2132.5
25068	0.2	0.5	0.1	917.63
25069	0.1	0.6	0.1	1843.2
25070	0.2	0.3	0.1	350.94
25071	0.1	0.4	0.1	1402.5
25072	0.1	0.2	0.1	537.77
25073	0.2	0.1	0.1	-89.942
25074	2.1667	3.7	0.1	-80.929
25075	2.0833	3.8	0.1	-172.78
25076	2.1667	3.9	0.1	681.41
25077	2.1667	3.5	0.1	20.037
25078	2.0833	3.6	0.1	43.533
25079	2.1667	3.3	0.1	-0.43104
25080	2.0833	3.4	0.1	-3.8066
25081	2.1667	3.1	0.1	2.3508
25082	2.0833	3.2	0.1	3.857
25083	2.1667	2.9	0.1	2.3508
25084	2.0833	3.	0.1	1.0651
25085	2.1667	2.7	0.1	-0.43103
25086	2.0833	2.8	0.1	3.857
25087	2.1667	2.5	0.1	20.037
25088	2.0833	2.6	0.1	-3.8066
25089	2.1667	2.3	0.1	-80.929
25090	2.0833	2.4	0.1	43.533
25091	2.0833	2.2	0.1	-172.78
25092	2.1667	2.1	0.1	681.41
25093	2.	3.7	0.1	-48.551
25094	2.	3.9	0.1	985.34
25095	2.	3.5	0.1	19.104
25096	2.	3.3	0.1	0.48358
25097	2.	3.1	0.1	2.3277
25098	2.	2.9	0.1	2.3277
25099	2.	2.7	0.1	0.48358
25100	2.	2.5	0.1	19.104
25101	2.	2.3	0.1	-48.551
25102	2.	2.1	0.1	985.34
25103	2.1667	0.3	0.1	-15.428
25104	2.1667	0.1	0.1	2.9313
25105	2.1667	0.2	5.e-002	1.4509e-006
25106	2.1667	0.5	0.1	-18.148
25107	2.1667	0.4	5.e-002	-3.9625e-006
25108	2.1667	0.7	0.1	-19.705
25109	2.1667	0.6	5.e-002	3.6953e-007
25110	2.1667	0.9	0.1	-22.055
25111	2.1667	0.8	5.e-002	3.7442e-007
25112	2.1667	1.1	0.1	-29.059
25113	2.1667	1.	5.e-002	2.063e-007
25114	2.1667	1.3	0.1	-31.089
25115	2.1667	1.2	5.e-002	2.8382e-007
25116	2.1667	1.5	0.1	-82.198
25117	2.1667	1.4	5.e-002	4.022e-005
25118	2.1667	1.7	0.1	-15.272
25119	2.1667	1.6	5.e-002	-8.1641e-005
25120	2.1667	1.9	0.1	1591.2
25121	2.1667	1.8	5.e-002	5.5176e-004
25122	2.0833	2.	0.1	3202.5
25123	2.1667	2.	5.e-002	-3.9911e-003
25124	2.	1.9	0.1	1888.7
25125	2.	2.	5.e-002	-4.0573e-003
25126	2.	1.7	0.1	-21.487
25127	2.	1.8	5.e-002	5.661e-004
25128	2.	1.5	0.1	-81.096
25129	2.	1.6	5.e-002	-5.9489e-005
25130	2.	1.3	0.1	-32.694
25131	2.	1.4	5.e-002	4.2103e-005
25132	2.	1.1	0.1	-29.888
25133	2.	1.2	5.e-002	7.1932e-007
25134	2.	0.9	0.1	-23.043
25135	2.	1.	5.e-002	7.7834e-007
25136	2.	0.7	0.1	-20.607
25137	2.	0.8	5.e-002	9.4717e-007
25138	2.	0.5	0.1	-19.458
25139	2.	0.6	5.e-002	7.1328e-007
25140	2.	0.3	0.1	-15.424
25141	2.	0.4	5.e-002	7.5285e-007
25142	2.	0.1	0.1	21.503
25143	2.	0.2	5.e-002	-4.71e-006
25144	2.1667	5.7	0.1	-15.428
25145	2.1667	5.9	0.1	2.9313
25146	2.1667	5.8	5.e-002	-7.2545e-007
25147	2.1667	5.5	0.1	-18.148
25148	2.1667	5.6	5.e-002	3.5905e-006
25149	2.1667	5.3	0.1	-19.705
25150	2.1667	5.4	5.e-002	-5.5429e-007
25151	2.1667	5.1	0.1	-22.055
25152	2.1667	5.2	5.e-002	-6.2404e-007
25153	2.1667	4.9	0.1	-29.059
25154	2.1667	5.	5.e-002	4.3824e-006
25155	2.1667	4.7	0.1	-31.089
25156	2.1667	4.8	5.e-002	4.318e-006
25157	2.1667	4.5	0.1	-82.198
25158	2.1667	4.6	5.e-002	-4.8031e-005
25159	2.1667	4.3	0.1	-15.272
25160	2.1667	4.4	5.e-002	6.6967e-005
25161	2.1667	4.1	0.1	1591.2
25162	2.1667	4.2	5.e-002	-6.2101e-004
25163	2.0833	4.	0.1	3202.5
25164	2.1667	4.	5.e-002	4.266e-003
25165	2.	4.1	0.1	1888.7
25166	2.	4.	5.e-002	4.996e-003
25167	2.	4.3	0.1	-21.487
25168	2.	4.2	5.e-002	-5.9873e-004
25169	2.	4.5	0.1	-81.096
25170	2.	4.4	5.e-002	7.9126e-005
25171	2.	4.7	0.1	-32.694
25172	2.	4.6	5.e-002	-4.8236e-005
25173	2.	4.9	0.1	-29.888
25174	2.	4.8	5.e-002	-7.1932e-007
25175	2.	5.1	0.1	-23.043
25176	2.	5.	5.e-002	-1.1675e-006
25177	2.	5.3	0.1	-20.607
25178	2.	5.2	5.e-002	-9.4717e-007
25179	2.	5.5	0.1	-19.458
25180	2.	5.4	5.e-002	-1.0699e-006
25181	2.	5.7	0.1	-15.424
25182	2.	5.6	5.e-002	3.2281e-006
25183	2.	5.9	0.1	21.503
25184	2.	5.8	5.e-002	-3.2235e-014
25185	2.2659	6.	0.1	34.408
25186	2.1667	6.	5.e-002	4.6529e-006
25187	2.4644	6.	0.1	2.072
25188	2.3652	6.	5.e-002	-7.991e-015
25189	2.6629	6.	0.1	-1.5492
25190	2.5636	6.	5.e-002	-3.4269e-007
25191	2.8614	6.	0.1	0.12978
25192	2.7621	6.	5.e-002	-1.9069e-006
25193	3.0598	6.	0.1	0.62974
25194	2.9606	6.	5.e-002	-1.4299e-006
25195	3.2583	6.	0.1	1.0865
25196	3.1591	6.	5.e-002	-1.5276e-006
25197	3.4568	6.	0.1	1.2421
25198	3.3576	6.	5.e-002	-1.82e-014
25199	3.6553	6.	0.1	1.2399
25200	3.5561	6.	5.e-002	-1.6708e-014
25201	3.8538	6.	0.1	1.1267
25202	3.7545	6.	5.e-002	4.3021e-007
25203	4.0523	6.	0.1	0.95898
25204	3.953	6.	5.e-002	1.3545e-006
25205	4.2508	6.	0.1	0.77137
25206	4.1515	6.	5.e-002	1.6319e-006
25207	4.4492	6.	0.1	0.58679
25208	4.35	6.	5.e-002	1.5096e-006
25209	4.6477	6.	0.1	0.41792
25210	4.5485	6.	5.e-002	1.3837e-006
25211	4.8462	6.	0.1	0.27089
25212	4.747	6.	5.e-002	1.3284e-006
25213	5.0447	6.	0.1	0.14753
25214	4.9455	6.	5.e-002	1.2257e-006
25215	5.2432	6.	0.1	4.7205e-002
25216	5.1439	6.	5.e-002	1.2361e-006
25217	5.4417	6.	0.1	-3.2116e-002
25218	5.3424	6.	5.e-002	1.1418e-006
25219	5.6402	6.	0.1	-9.3047e-002
25220	5.5409	6.	5.e-002	1.0431e-006
25221	5.8386	6.	0.1	-0.13831
25222	5.7394	6.	5.e-002	2.4476e-006
25223	6.0371	6.	0.1	-0.17042
25224	5.9379	6.	5.e-002	1.4412e-006
25225	6.2356	6.	0.1	-0.19163
25226	6.1364	6.	5.e-002	2.5326e-008
25227	6.4341	6.	0.1	-0.20397
25228	6.3348	6.	5.e-002	1.3669e-006
25229	6.6326	6.	0.1	-0.20928
25230	6.5333	6.	5.e-002	1.3936e-006
25231	6.8311	6.	0.1	-0.20922
25232	6.7318	6.	5.e-002	1.1298e-006
25233	7.0295	6.	0.1	-0.20516
25234	6.9303	6.	5.e-002	1.4036e-006
25235	7.228	6.	0.1	-0.19819
25236	7.1288	6.	5.e-002	1.5696e-006
25237	7.4265	6.	0.1	-0.18917
25238	7.3273	6.	5.e-002	1.3615e-006
25239	7.625	6.	0.1	-0.17878
25240	7.5258	6.	5.e-002	1.5358e-006
25241	7.8235	6.	0.1	-0.16755
25242	7.7242	6.	5.e-002	1.6538e-006
25243	8.022	6.	0.1	-0.15586
25244	7.9227	6.	5.e-002	1.7654e-006
25245	8.2205	6.	0.1	-0.14404
25246	8.1212	6.	5.e-002	1.8593e-006
25247	8.4189	6.	0.1	-0.13231
25248	8.3197	6.	5.e-002	1.8573e-006
25249	8.6174	6.	0.1	-0.12083
25250	8.5182	6.	5.e-002	1.6558e-006
25251	8.8159	6.	0.1	-0.10974
25252	8.7167	6.	5.e-002	2.0751e-006
25253	9.0144	6.	0.1	-9.9108e-002
25254	8.9152	6.	5.e-002	2.0766e-006
25255	9.2129	6.	0.1	-8.8992e-002
25256	9.1136	6.	5.e-002	2.0454e-006
25257	9.4114	6.	0.1	-7.9422e-002
25258	9.3121	6.	5.e-002	2.0174e-006
25259	9.6098	6.	0.1	-7.0414e-002
25260	9.5106	6.	5.e-002	2.1488e-006
25261	9.8083	6.	0.1	-6.1964e-002
25262	9.7091	6.	5.e-002	2.3865e-006
25263	10.007	6.	0.1	-5.4055e-002
25264	9.9076	6.	5.e-002	2.5049e-006
25265	10.205	6.	0.1	-4.6679e-002
25266	10.106	6.	5.e-002	2.4447e-006
25267	10.404	6.	0.1	-3.9811e-002
25268	10.305	6.	5.e-002	2.5574e-006
25269	10.602	6.	0.1	-3.3423e-002
25270	10.503	6.	5.e-002	2.504e-006
25271	10.801	6.	0.1	-2.7486e-002
25272	10.702	6.	5.e-002	2.7422e-006
25273	10.999	6.	0.1	-2.1987e-002
25274	10.9	6.	5.e-002	2.6824e-006
25275	11.198	6.	0.1	-1.69e-002
25276	11.098	6.	5.e-002	2.4439e-006
25277	11.396	6.	0.1	-1.2178e-002
25278	11.297	6.	5.e-002	7.3888e-006
25279	11.595	6.	0.1	-7.7946e-003
25280	11.495	6.	5.e-002	3.2171e-006
25281	11.793	6.	0.1	-3.7391e-003
25282	11.694	6.	5.e-002	-1.1931e-006
25283	11.992	6.	0.1	2.0191e-005
25284	11.892	6.	5.e-002	4.3516e-006
25285	12.19	6.	0.1	3.5353e-003
25286	12.091	6.	5.e-002	2.861e-006
25287	12.389	6.	0.1	6.8022e-003
25288	12.289	6.	5.e-002	3.4571e-006
25289	12.587	6.	0.1	9.836e-003
25290	12.488	6.	5.e-002	3.5763e-006
25291	12.786	6.	0.1	1.2674e-002
25292	12.686	6.	5.e-002	3.6942e-006
25293	12.984	6.	0.1	1.5336e-002
25294	12.885	6.	5.e-002	3.8726e-006
25295	13.183	6.	0.1	1.7825e-002
25296	13.083	6.	5.e-002	3.5763e-006
25297	13.381	6.	0.1	2.0161e-002
25298	13.282	6.	5.e-002	4.7064e-006
25299	13.58	6.	0.1	2.2375e-002
25300	13.48	6.	5.e-002	3.3976e-006
25301	13.778	6.	0.1	2.4481e-002
25302	13.679	6.	5.e-002	4.1098e-006
25303	13.977	6.	0.1	2.6482e-002
25304	13.877	6.	5.e-002	4.1129e-006
25305	14.175	6.	0.1	2.8398e-002
25306	14.076	6.	5.e-002	4.4705e-006
25307	14.373	6.	0.1	3.0266e-002
25308	14.274	6.	5.e-002	4.6532e-006
25309	14.572	6.	0.1	3.2076e-002
25310	14.473	6.	5.e-002	4.0533e-006
25311	14.77	6.	0.1	3.3837e-002
25312	14.671	6.	5.e-002	4.7089e-006
25313	14.969	6.	0.1	3.5575e-002
25314	14.87	6.	5.e-002	4.7686e-006
25315	15.167	6.	0.1	3.7302e-002
25316	15.068	6.	5.e-002	4.8879e-006
25317	15.366	6.	0.1	3.902e-002
25318	15.267	6.	5.e-002	5.484e-006
25319	15.564	6.	0.1	4.0742e-002
25320	15.465	6.	5.e-002	4.0479e-006
25321	15.763	6.	0.1	4.2492e-002
25322	15.664	6.	5.e-002	6.2588e-006
25323	15.961	6.	0.1	4.4283e-002
25324	15.862	6.	5.e-002	4.4051e-006
25325	16.16	6.	0.1	4.6118e-002
25326	16.061	6.	5.e-002	5.6565e-006
25327	16.358	6.	0.1	4.8014e-002
25328	16.259	6.	5.e-002	5.5965e-006
25329	16.557	6.	0.1	5.0003e-002
25330	16.458	6.	5.e-002	5.2456e-006
25331	16.755	6.	0.1	5.2081e-002
25332	16.656	6.	5.e-002	6.259e-006
25333	16.954	6.	0.1	5.4261e-002
25334	16.855	6.	5.e-002	5.6629e-006
25335	17.152	6.	0.1	5.6568e-002
25336	17.053	6.	5.e-002	5.663e-006
25337	17.351	6.	0.1	5.902e-002
25338	17.252	6.	5.e-002	5.8928e-006
25339	17.549	6.	0.1	6.1626e-002
25340	17.45	6.	5.e-002	6.4289e-006
25341	17.748	6.	0.1	6.4407e-002
25342	17.648	6.	5.e-002	6.6168e-006
25343	17.946	6.	0.1	6.7389e-002
25344	17.847	6.	5.e-002	6.1995e-006
25345	18.145	6.	0.1	7.0597e-002
25346	18.045	6.	5.e-002	5.2352e-006
25347	18.343	6.	0.1	7.4046e-002
25348	18.244	6.	5.e-002	1.5867e-005
25349	18.542	6.	0.1	7.7762e-002
25350	18.442	6.	5.e-002	6.9987e-006
25351	18.74	6.	0.1	8.1788e-002
25352	18.641	6.	5.e-002	-2.9795e-006
25353	18.939	6.	0.1	8.6142e-002
25354	18.839	6.	5.e-002	7.7952e-006
25355	19.137	6.	0.1	9.0855e-002
25356	19.038	6.	5.e-002	7.258e-006
25357	19.336	6.	0.1	9.5966e-002
25358	19.236	6.	5.e-002	6.8557e-006
25359	19.534	6.	0.1	0.10152
25360	19.435	6.	5.e-002	7.7925e-006
25361	19.733	6.	0.1	0.10755
25362	19.633	6.	5.e-002	8.5662e-006
25363	19.931	6.	0.1	0.1141
25364	19.832	6.	5.e-002	6.1005e-006
25365	20.13	6.	0.1	0.12124
25366	20.03	6.	5.e-002	6.4595e-006
25367	20.328	6.	0.1	0.12902
25368	20.229	6.	5.e-002	7.2271e-006
25369	20.527	6.	0.1	0.13751
25370	20.427	6.	5.e-002	9.6581e-006
25371	20.725	6.	0.1	0.14679
25372	20.626	6.	5.e-002	7.8648e-006
25373	20.923	6.	0.1	0.15696
25374	20.824	6.	5.e-002	7.8105e-006
25375	21.122	6.	0.1	0.16812
25376	21.023	6.	5.e-002	8.8838e-006
25377	21.32	6.	0.1	0.18039
25378	21.221	6.	5.e-002	8.5374e-006
25379	21.519	6.	0.1	0.19393
25380	21.42	6.	5.e-002	6.7562e-006
25381	21.717	6.	0.1	0.20894
25382	21.618	6.	5.e-002	8.9147e-006
25383	21.916	6.	0.1	0.22564
25384	21.817	6.	5.e-002	9.2423e-006
25385	22.114	6.	0.1	0.24435
25386	22.015	6.	5.e-002	7.3943e-006
25387	22.313	6.	0.1	0.26549
25388	22.214	6.	5.e-002	7.2122e-006
25389	22.511	6.	0.1	0.28962
25390	22.412	6.	5.e-002	9.3161e-006
25391	22.71	6.	0.1	0.31741
25392	22.611	6.	5.e-002	8.87e-006
25393	22.908	6.	0.1	0.35048
25394	22.809	6.	5.e-002	9.5516e-006
25395	23.107	6.	0.1	0.38848
25396	23.008	6.	5.e-002	7.0737e-006
25397	23.305	6.	0.1	0.44445
25398	23.206	6.	5.e-002	9.8405e-006
25399	23.504	6.	0.1	0.49451
25400	23.405	6.	5.e-002	9.495e-006
25401	23.702	6.	0.1	0.70069
25402	23.603	6.	5.e-002	7.9057e-006
25403	23.901	6.	0.1	0.46353
25404	23.802	6.	5.e-002	5.7881e-006
25405	24.	5.9	0.1	-2.309
25406	24.	6.	5.e-002	4.6879e-005
25407	24.	5.7	0.1	-2.0077
25408	24.	5.8	5.e-002	2.4622e-005
25409	24.	5.5	0.1	-2.0527
25410	24.	5.6	5.e-002	1.4291e-005
25411	24.	5.3	0.1	-2.1686
25412	24.	5.4	5.e-002	1.3211e-005
25413	24.	5.1	0.1	-2.1997
25414	24.	5.2	5.e-002	1.2934e-005
25415	24.	4.9	0.1	-2.2273
25416	24.	5.	5.e-002	1.1369e-005
25417	24.	4.7	0.1	-2.245
25418	24.	4.8	5.e-002	1.0786e-005
25419	24.	4.5	0.1	-2.2588
25420	24.	4.6	5.e-002	5.3397e-006
25421	24.	4.3	0.1	-2.2692
25422	24.	4.4	5.e-002	4.718e-006
25423	24.	4.1	0.1	-2.2772
25424	24.	4.2	5.e-002	9.9585e-007
25425	24.	3.9	0.1	-2.2833
25426	24.	4.	5.e-002	3.3856e-006
25427	24.	3.7	0.1	-2.2879
25428	24.	3.8	5.e-002	7.1738e-006
25429	24.	3.5	0.1	-2.2911
25430	24.	3.6	5.e-002	1.0755e-005
25431	24.	3.3	0.1	-2.2932
25432	24.	3.4	5.e-002	1.1044e-005
25433	24.	3.1	0.1	-2.2942
25434	24.	3.2	5.e-002	7.5754e-006
25435	24.	2.9	0.1	-2.2942
25436	24.	3.	5.e-002	7.6294e-006
25437	24.	2.7	0.1	-2.2932
25438	24.	2.8	5.e-002	1.1401e-005
25439	24.	2.5	0.1	-2.2911
25440	24.	2.6	5.e-002	1.145e-005
25441	24.	2.3	0.1	-2.2879
25442	24.	2.4	5.e-002	1.1351e-005
25443	24.	2.1	0.1	-2.2833
25444	24.	2.2	5.e-002	1.4543e-005
25445	24.	1.9	0.1	-2.2772
25446	24.	2.	5.e-002	1.4304e-005
25447	24.	1.7	0.1	-2.2692
25448	24.	1.8	5.e-002	1.3555e-005
25449	24.	1.5	0.1	-2.2588
25450	24.	1.6	5.e-002	1.3324e-005
25451	24.	1.3	0.1	-2.245
25452	24.	1.4	5.e-002	1.2807e-005
25453	24.	1.1	0.1	-2.2273
25454	24.	1.2	5.e-002	1.2209e-005
25455	24.	0.9	0.1	-2.1997
25456	24.	1.	5.e-002	1.3193e-005
25457	24.	0.7	0.1	-2.1686
25458	24.	0.8	5.e-002	8.7567e-006
25459	24.	0.5	0.1	-2.0526
25460	24.	0.6	5.e-002	-1.1876e-007
25461	24.	0.3	0.1	-2.0077
25462	24.	0.4	5.e-002	1.4246e-007
25463	24.	0.1	0.1	-2.309
25464	24.	0.2	5.e-002	1.4934e-005
25465	2.6226e-015	0.3	0.1	1607.8
25466	8.7419e-016	0.1	0.1	354.45
25467	1.772e-015	0.2	5.e-002	-2.8533e-005
25468	4.371e-015	0.5	0.1	2325.2
25469	3.5441e-015	0.4	5.e-002	-1.9118e-004
25470	6.1193e-015	0.7	0.1	2736.3
25471	5.3161e-015	0.6	5.e-002	-1.7404e-004
25472	7.8677e-015	0.9	0.1	3033.1
25473	7.0881e-015	0.8	5.e-002	-1.2387e-004
25474	9.6161e-015	1.1	0.1	3273.4
25475	8.8602e-015	1.	5.e-002	-2.0029e-004
25476	1.1364e-014	1.3	0.1	3479.6
25477	1.0632e-014	1.2	5.e-002	-2.012e-004
25478	1.3113e-014	1.5	0.1	3661.2
25479	1.2404e-014	1.4	5.e-002	-2.5367e-004
25480	1.4861e-014	1.7	0.1	3823.1
25481	1.4176e-014	1.6	5.e-002	-3.4693e-004
25482	1.661e-014	1.9	0.1	3967.8
25483	1.5948e-014	1.8	5.e-002	-3.6011e-004
25484	1.8358e-014	2.1	0.1	4096.3
25485	1.772e-014	2.	5.e-002	-2.9576e-004
25486	2.0106e-014	2.3	0.1	4207.7
25487	1.9492e-014	2.2	5.e-002	-1.1843e-004
25488	2.1855e-014	2.5	0.1	4298.3
25489	2.1264e-014	2.4	5.e-002	-1.1378e-004
25490	2.3603e-014	2.7	0.1	4362.9
25491	2.3036e-014	2.6	5.e-002	-1.9885e-004
25492	2.5352e-014	2.9	0.1	4396.4
25493	2.4809e-014	2.8	5.e-002	-3.7996e-005
25494	2.71e-014	3.1	0.1	4396.4
25495	2.6581e-014	3.	5.e-002	5.7939e-011
25496	2.8848e-014	3.3	0.1	4362.9
25497	2.8353e-014	3.2	5.e-002	3.803e-005
25498	3.0597e-014	3.5	0.1	4298.3
25499	3.0125e-014	3.4	5.e-002	1.8461e-004
25500	3.2345e-014	3.7	0.1	4207.7
25501	3.1897e-014	3.6	5.e-002	3.2511e-004
25502	3.4093e-014	3.9	0.1	4096.3
25503	3.3669e-014	3.8	5.e-002	3.3411e-004
25504	3.5842e-014	4.1	0.1	3967.8
25505	3.5441e-014	4.	5.e-002	3.4421e-004
25506	3.759e-014	4.3	0.1	3823.1
25507	3.7213e-014	4.2	5.e-002	6.1556e-004
25508	3.9339e-014	4.5	0.1	3661.2
25509	3.8985e-014	4.4	5.e-002	4.3188e-004
25510	4.1087e-014	4.7	0.1	3479.6
25511	4.0757e-014	4.6	5.e-002	3.6473e-004
25512	4.2835e-014	4.9	0.1	3273.4
25513	4.2529e-014	4.8	5.e-002	2.4811e-004
25514	4.4584e-014	5.1	0.1	3033.1
25515	4.4301e-014	5.	5.e-002	2.2716e-004
25516	4.6332e-014	5.3	0.1	2736.3
25517	4.6073e-014	5.2	5.e-002	2.3083e-004
25518	4.8081e-014	5.5	0.1	2325.2
25519	4.7845e-014	5.4	5.e-002	2.0299e-004
25520	4.9829e-014	5.7	0.1	1607.8
25521	4.9617e-014	5.6	5.e-002	2.3549e-004
25522	5.1577e-014	5.9	0.1	354.45
25523	5.1389e-014	5.8	5.e-002	1.5425e-005
25524	0.1	6.	0.1	-152.41
25525	5.2451e-014	6.	5.e-002	2.2211e-004
25526	0.3	6.	0.1	19.53
25527	0.2	6.	5.e-002	-2.6703e-005
25528	0.5	6.	0.1	-9.4124
25529	0.4	6.	5.e-002	3.2266e-008
25530	0.7	6.	0.1	-5.5568
25531	0.6	6.	5.e-002	-4.795e-006
25532	0.9	6.	0.1	-4.5179
25533	0.8	6.	5.e-002	-8.2035e-014
25534	1.1	6.	0.1	-4.6957
25535	1.	6.	5.e-002	-7.108e-014
25536	1.3	6.	0.1	-4.6919
25537	1.2	6.	5.e-002	-1.1043e-007
25538	1.5	6.	0.1	-6.4139
25539	1.4	6.	5.e-002	-2.6696e-007
25540	1.7	6.	0.1	-1.5075
25541	1.6	6.	5.e-002	-5.1397e-007
25542	1.9	6.	0.1	45.783
25543	1.8	6.	5.e-002	2.0278e-006
25544	2.	6.	5.e-002	3.2428e-006
25545	23.901	0.	0.1	0.46352
25546	24.	0.	5.e-002	2.9645e-005
25547	23.702	0.	0.1	0.7007
25548	23.802	0.	5.e-002	2.1098e-006
25549	23.504	0.	0.1	0.49452
25550	23.603	0.	5.e-002	1.0063e-005
25551	23.305	0.	0.1	0.44446
25552	23.405	0.	5.e-002	9.8764e-006
25553	23.107	0.	0.1	0.38848
25554	23.206	0.	5.e-002	7.0976e-006
25555	22.908	0.	0.1	0.35049
25556	23.008	0.	5.e-002	1.0448e-005
25557	22.71	0.	0.1	0.31742
25558	22.809	0.	5.e-002	8.1902e-006
25559	22.511	0.	0.1	0.28962
25560	22.611	0.	5.e-002	9.8752e-006
25561	22.313	0.	0.1	0.26548
25562	22.412	0.	5.e-002	7.5712e-006
25563	22.114	0.	0.1	0.24435
25564	22.214	0.	5.e-002	8.0212e-006
25565	21.916	0.	0.1	0.22564
25566	22.015	0.	5.e-002	8.1462e-006
25567	21.717	0.	0.1	0.20894
25568	21.817	0.	5.e-002	7.9114e-006
25569	21.519	0.	0.1	0.19394
25570	21.618	0.	5.e-002	8.2994e-006
25571	21.32	0.	0.1	0.18039
25572	21.42	0.	5.e-002	7.6716e-006
25573	21.122	0.	0.1	0.16812
25574	21.221	0.	5.e-002	7.9043e-006
25575	20.923	0.	0.1	0.15697
25576	21.023	0.	5.e-002	7.3904e-006
25577	20.725	0.	0.1	0.1468
25578	20.824	0.	5.e-002	8.1362e-006
25579	20.527	0.	0.1	0.13752
25580	20.626	0.	5.e-002	8.9133e-006
25581	20.328	0.	0.1	0.12902
25582	20.427	0.	5.e-002	8.3545e-006
25583	20.13	0.	0.1	0.12124
25584	20.229	0.	5.e-002	6.4143e-006
25585	19.931	0.	0.1	0.1141
25586	20.03	0.	5.e-002	6.1391e-006
25587	19.733	0.	0.1	0.10755
25588	19.832	0.	5.e-002	8.8809e-006
25589	19.534	0.	0.1	0.10152
25590	19.633	0.	5.e-002	7.5932e-006
25591	19.336	0.	0.1	9.5967e-002
25592	19.435	0.	5.e-002	6.3174e-006
25593	19.137	0.	0.1	9.0856e-002
25594	19.236	0.	5.e-002	8.046e-006
25595	18.939	0.	0.1	8.6146e-002
25596	19.038	0.	5.e-002	6.5414e-006
25597	18.74	0.	0.1	8.1792e-002
25598	18.839	0.	5.e-002	6.8131e-006
25599	18.542	0.	0.1	7.7764e-002
25600	18.641	0.	5.e-002	5.6021e-006
25601	18.343	0.	0.1	7.4045e-002
25602	18.442	0.	5.e-002	7.2118e-006
25603	18.145	0.	0.1	7.0599e-002
25604	18.244	0.	5.e-002	5.8407e-006
25605	17.946	0.	0.1	6.7393e-002
25606	18.045	0.	5.e-002	9.3574e-006
25607	17.748	0.	0.1	6.4406e-002
25608	17.847	0.	5.e-002	-5.2953e-006
25609	17.549	0.	0.1	6.1626e-002
25610	17.648	0.	5.e-002	1.646e-005
25611	17.351	0.	0.1	5.9023e-002
25612	17.45	0.	5.e-002	5.0658e-006
25613	17.152	0.	0.1	5.657e-002
25614	17.252	0.	5.e-002	6.7946e-006
25615	16.954	0.	0.1	5.4261e-002
25616	17.053	0.	5.e-002	4.3589e-006
25617	16.755	0.	0.1	5.2081e-002
25618	16.855	0.	5.e-002	6.2582e-006
25619	16.557	0.	0.1	5.0003e-002
25620	16.656	0.	5.e-002	5.1928e-006
25621	16.358	0.	0.1	4.8015e-002
25622	16.458	0.	5.e-002	4.8944e-006
25623	16.16	0.	0.1	4.612e-002
25624	16.259	0.	5.e-002	6.2649e-006
25625	15.961	0.	0.1	4.4285e-002
25626	16.061	0.	5.e-002	6.7287e-006
25627	15.763	0.	0.1	4.2495e-002
25628	15.862	0.	5.e-002	4.5296e-006
25629	15.564	0.	0.1	4.0743e-002
25630	15.664	0.	5.e-002	5.6026e-006
25631	15.366	0.	0.1	3.9021e-002
25632	15.465	0.	5.e-002	5.3101e-006
25633	15.167	0.	0.1	3.7302e-002
25634	15.267	0.	5.e-002	4.6489e-006
25635	14.969	0.	0.1	3.5575e-002
25636	15.068	0.	5.e-002	4.8328e-006
25637	14.77	0.	0.1	3.3838e-002
25638	14.87	0.	5.e-002	4.0529e-006
25639	14.572	0.	0.1	3.2078e-002
25640	14.671	0.	5.e-002	3.6357e-006
25641	14.373	0.	0.1	3.0267e-002
25642	14.473	0.	5.e-002	5.4877e-006
25643	14.175	0.	0.1	2.84e-002
25644	14.274	0.	5.e-002	4.2357e-006
25645	13.977	0.	0.1	2.6484e-002
25646	14.076	0.	5.e-002	5.2451e-006
25647	13.778	0.	0.1	2.4482e-002
25648	13.877	0.	5.e-002	3.755e-006
25649	13.58	0.	0.1	2.2375e-002
25650	13.679	0.	5.e-002	3.6389e-006
25651	13.381	0.	0.1	2.0161e-002
25652	13.48	0.	5.e-002	4.473e-006
25653	13.183	0.	0.1	1.7827e-002
25654	13.282	0.	5.e-002	3.9935e-006
25655	12.984	0.	0.1	1.5337e-002
25656	13.083	0.	5.e-002	4.6491e-006
25657	12.786	0.	0.1	1.2673e-002
25658	12.885	0.	5.e-002	-2.5017e-006
25659	12.587	0.	0.1	9.8358e-003
25660	12.686	0.	5.e-002	1.037e-005
25661	12.389	0.	0.1	6.8029e-003
25662	12.488	0.	5.e-002	2.5621e-006
25663	12.19	0.	0.1	3.5352e-003
25664	12.289	0.	5.e-002	3.8147e-006
25665	11.992	0.	0.1	2.0322e-005
25666	12.091	0.	5.e-002	2.9206e-006
25667	11.793	0.	0.1	-3.7392e-003
25668	11.892	0.	5.e-002	3.8743e-006
25669	11.595	0.	0.1	-7.7951e-003
25670	11.694	0.	5.e-002	2.9206e-006
25671	11.396	0.	0.1	-1.2179e-002
25672	11.495	0.	5.e-002	2.563e-006
25673	11.198	0.	0.1	-1.69e-002
25674	11.297	0.	5.e-002	2.9824e-006
25675	10.999	0.	0.1	-2.1987e-002
25676	11.098	0.	5.e-002	2.5033e-006
25677	10.801	0.	0.1	-2.7486e-002
25678	10.9	0.	5.e-002	3.1029e-006
25679	10.602	0.	0.1	-3.3423e-002
25680	10.702	0.	5.e-002	2.4435e-006
25681	10.404	0.	0.1	-3.9811e-002
25682	10.503	0.	5.e-002	3.2182e-006
25683	10.205	0.	0.1	-4.6679e-002
25684	10.305	0.	5.e-002	3.0455e-006
25685	10.007	0.	0.1	-5.4056e-002
25686	10.106	0.	5.e-002	2.3314e-006
25687	9.8083	0.	0.1	-6.1964e-002
25688	9.9076	0.	5.e-002	2.5621e-006
25689	9.6098	0.	0.1	-7.0414e-002
25690	9.7091	0.	5.e-002	2.443e-006
25691	9.4114	0.	0.1	-7.9422e-002
25692	9.5106	0.	5.e-002	2.3225e-006
25693	9.2129	0.	0.1	-8.8993e-002
25694	9.3121	0.	5.e-002	2.1432e-006
25695	9.0144	0.	0.1	-9.9108e-002
25696	9.1136	0.	5.e-002	2.0985e-006
25697	8.8159	0.	0.1	-0.10974
25698	8.9152	0.	5.e-002	1.9472e-006
25699	8.6174	0.	0.1	-0.12083
25700	8.7167	0.	5.e-002	2.302e-006
25701	8.4189	0.	0.1	-0.13231
25702	8.5182	0.	5.e-002	1.8012e-006
25703	8.2205	0.	0.1	-0.14404
25704	8.3197	0.	5.e-002	1.5802e-006
25705	8.022	0.	0.1	-0.15586
25706	8.1212	0.	5.e-002	1.6619e-006
25707	7.8235	0.	0.1	-0.16755
25708	7.9227	0.	5.e-002	1.5981e-006
25709	7.625	0.	0.1	-0.17878
25710	7.7242	0.	5.e-002	1.6837e-006
25711	7.4265	0.	0.1	-0.18917
25712	7.5258	0.	5.e-002	1.4746e-006
25713	7.228	0.	0.1	-0.19819
25714	7.3273	0.	5.e-002	1.353e-006
25715	7.0295	0.	0.1	-0.20516
25716	7.1288	0.	5.e-002	1.4449e-006
25717	6.8311	0.	0.1	-0.20922
25718	6.9303	0.	5.e-002	1.2658e-006
25719	6.6326	0.	0.1	-0.20928
25720	6.7318	0.	5.e-002	1.1094e-006
25721	6.4341	0.	0.1	-0.20397
25722	6.5333	0.	5.e-002	9.9032e-007
25723	6.2356	0.	0.1	-0.19164
25724	6.3348	0.	5.e-002	1.3498e-006
25725	6.0371	0.	0.1	-0.17042
25726	6.1364	0.	5.e-002	-8.5129e-007
25727	5.8386	0.	0.1	-0.13831
25728	5.9379	0.	5.e-002	2.3986e-006
25729	5.6402	0.	0.1	-9.3049e-002
25730	5.7394	0.	5.e-002	5.1738e-007
25731	5.4417	0.	0.1	-3.2118e-002
25732	5.5409	0.	5.e-002	6.8545e-007
25733	5.2432	0.	0.1	4.7203e-002
25734	5.3424	0.	5.e-002	-6.218e-009
25735	5.0447	0.	0.1	0.14753
25736	5.1439	0.	5.e-002	4.1744e-007
25737	4.8462	0.	0.1	0.27089
25738	4.9455	0.	5.e-002	-9.3691e-008
25739	4.6477	0.	0.1	0.41792
25740	4.747	0.	5.e-002	-1.9687e-007
25741	4.4492	0.	0.1	0.58679
25742	4.5485	0.	5.e-002	-3.4204e-007
25743	4.2508	0.	0.1	0.77137
25744	4.35	0.	5.e-002	-2.5667e-007
25745	4.0523	0.	0.1	0.95897
25746	4.1515	0.	5.e-002	-8.8205e-007
25747	3.8538	0.	0.1	1.1267
25748	3.953	0.	5.e-002	-4.3817e-007
25749	3.6553	0.	0.1	1.2399
25750	3.7545	0.	5.e-002	-4.3021e-007
25751	3.4568	0.	0.1	1.2421
25752	3.5561	0.	5.e-002	-2.0339e-007
25753	3.2583	0.	0.1	1.0865
25754	3.3576	0.	5.e-002	-1.6395e-007
25755	3.0598	0.	0.1	0.62974
25756	3.1591	0.	5.e-002	1.4282e-006
25757	2.8614	0.	0.1	0.12978
25758	2.9606	0.	5.e-002	1.4549e-006
25759	2.6629	0.	0.1	-1.5492
25760	2.7621	0.	5.e-002	1.7863e-006
25761	2.4644	0.	0.1	2.072
25762	2.5636	0.	5.e-002	4.8173e-007
25763	2.2659	0.	0.1	34.408
25764	2.3652	0.	5.e-002	4.2117e-006
25765	2.1667	0.	5.e-002	-1.8276e-006
25766	1.9	3.5728e-030	0.1	45.783
25767	2.	3.7609e-030	5.e-002	-3.3312e-006
25768	1.7	3.1967e-030	0.1	-1.5075
25769	1.8	0.	5.e-002	-1.4659e-014
25770	1.5	2.8207e-030	0.1	-6.4139
25771	1.6	0.	5.e-002	-3.927e-006
25772	1.3	2.4446e-030	0.1	-4.6919
25773	1.4	0.	5.e-002	-4.8524e-014
25774	1.1	2.0685e-030	0.1	-4.6957
25775	1.2	0.	5.e-002	1.1043e-007
25776	0.9	1.6924e-030	0.1	-4.5179
25777	1.	0.	5.e-002	1.2456e-007
25778	0.7	1.3163e-030	0.1	-5.5568
25779	0.8	0.	5.e-002	-8.2035e-014
25780	0.5	9.4022e-031	0.1	-9.4124
25781	0.6	0.	5.e-002	-9.437e-014
25782	0.3	5.6413e-031	0.1	19.53
25783	0.4	0.	5.e-002	-3.2267e-008
25784	0.1	1.8804e-031	0.1	-152.41
25785	0.2	0.	5.e-002	2.2909e-005
25786	0.	0.	5.e-002	-1.7706e-004
25787	0.3	5.6413e-031	0.	-19.53
25788	0.1	1.8804e-031	0.	152.41
25789	0.5	9.4022e-031	0.	9.4124
25790	0.7	1.3163e-030	0.	5.5568
25791	0.9	1.6924e-030	0.	4.5179
25792	1.1	2.0685e-030	0.	4.6957
25793	1.3	2.4446e-030	0.	4.6919
25794	1.5	2.8207e-030	0.	6.4139
25795	1.7	3.1967e-030	0.	1.5075
25796	1.9	3.5728e-030	0.	-45.783
25797	2.	0.1	0.	-21.503
25798	8.7419e-016	0.1	0.	-354.45
25799	2.4644	0.	0.	-2.072
25800	2.2659	0.	0.	-34.408
25801	2.6629	0.	0.	1.5492
25802	2.8614	0.	0.	-0.12978
25803	3.0598	0.	0.	-0.62974
25804	3.2583	0.	0.	-1.0865
25805	3.4568	0.	0.	-1.2421
25806	3.6553	0.	0.	-1.2399
25807	3.8538	0.	0.	-1.1267
25808	4.0523	0.	0.	-0.95897
25809	4.2508	0.	0.	-0.77137
25810	4.4492	0.	0.	-0.58679
25811	4.6477	0.	0.	-0.41792
25812	4.8462	0.	0.	-0.27089
25813	5.0447	0.	0.	-0.14753
25814	5.2432	0.	0.	-4.7203e-002
25815	5.4417	0.	0.	3.2118e-002
25816	5.6402	0.	0.	9.3049e-002
25817	5.8386	0.	0.	0.13831
25818	6.0371	0.	0.	0.17042
25819	6.2356	0.	0.	0.19164
25820	6.4341	0.	0.	0.20397
25821	6.6326	0.	0.	0.20928
25822	6.8311	0.	0.	0.20922
25823	7.0295	0.	0.	0.20516
25824	7.228	0.	0.	0.19819
25825	7.4265	0.	0.	0.18917
25826	7.625	0.	0.	0.17878
25827	7.8235	0.	0.	0.16755
25828	8.022	0.	0.	0.15586
25829	8.2205	0.	0.	0.14404
25830	8.4189	0.	0.	0.13231
25831	8.6174	0.	0.	0.12083
25832	8.8159	0.	0.	0.10974
25833	9.0144	0.	0.	9.9109e-002
25834	9.2129	0.	0.	8.8993e-002
25835	9.4114	0.	0.	7.9422e-002
25836	9.6098	0.	0.	7.0414e-002
25837	9.8083	0.	0.	6.1965e-002
25838	10.007	0.	0.	5.4056e-002
25839	10.205	0.	0.	4.6679e-002
25840	10.404	0.	0.	3.9812e-002
25841	10.602	0.	0.	3.3423e-002
25842	10.801	0.	0.	2.7486e-002
25843	10.999	0.	0.	2.1987e-002
25844	11.198	0.	0.	1.69e-002
25845	11.396	0.	0.	1.2178e-002
25846	11.595	0.	0.	7.7949e-003
25847	11.793	0.	0.	3.7395e-003
25848	11.992	0.	0.	-1.9603e-005
25849	12.19	0.	0.	-3.5344e-003
25850	12.389	0.	0.	-6.8019e-003
25851	12.587	0.	0.	-9.8343e-003
25852	12.786	0.	0.	-1.2673e-002
25853	12.984	0.	0.	-1.5337e-002
25854	13.183	0.	0.	-1.7826e-002
25855	13.381	0.	0.	-2.0161e-002
25856	13.58	0.	0.	-2.2375e-002
25857	13.778	0.	0.	-2.4482e-002
25858	13.977	0.	0.	-2.6483e-002
25859	14.175	0.	0.	-2.8399e-002
25860	14.373	0.	0.	-3.0267e-002
25861	14.572	0.	0.	-3.2077e-002
25862	14.77	0.	0.	-3.3838e-002
25863	14.969	0.	0.	-3.5575e-002
25864	15.167	0.	0.	-3.7302e-002
25865	15.366	0.	0.	-3.902e-002
25866	15.564	0.	0.	-4.0742e-002
25867	15.763	0.	0.	-4.2493e-002
25868	15.961	0.	0.	-4.4284e-002
25869	16.16	0.	0.	-4.6118e-002
25870	16.358	0.	0.	-4.8015e-002
25871	16.557	0.	0.	-5.0003e-002
25872	16.755	0.	0.	-5.2082e-002
25873	16.954	0.	0.	-5.4262e-002
25874	17.152	0.	0.	-5.657e-002
25875	17.351	0.	0.	-5.9023e-002
25876	17.549	0.	0.	-6.1624e-002
25877	17.748	0.	0.	-6.4405e-002
25878	17.946	0.	0.	-6.7393e-002
25879	18.145	0.	0.	-7.0597e-002
25880	18.343	0.	0.	-7.4044e-002
25881	18.542	0.	0.	-7.7764e-002
25882	18.74	0.	0.	-8.1791e-002
25883	18.939	0.	0.	-8.6146e-002
25884	19.137	0.	0.	-9.0856e-002
25885	19.336	0.	0.	-9.5966e-002
25886	19.534	0.	0.	-0.10152
25887	19.733	0.	0.	-0.10754
25888	19.931	0.	0.	-0.1141
25889	20.13	0.	0.	-0.12124
25890	20.328	0.	0.	-0.12902
25891	20.527	0.	0.	-0.13752
25892	20.725	0.	0.	-0.1468
25893	20.923	0.	0.	-0.15696
25894	21.122	0.	0.	-0.16812
25895	21.32	0.	0.	-0.18039
25896	21.519	0.	0.	-0.19394
25897	21.717	0.	0.	-0.20894
25898	21.916	0.	0.	-0.22564
25899	22.114	0.	0.	-0.24435
25900	22.313	0.	0.	-0.26548
25901	22.511	0.	0.	-0.28962
25902	22.71	0.	0.	-0.31742
25903	22.908	0.	0.	-0.35049
25904	23.107	0.	0.	-0.38848
25905	23.305	0.	0.	-0.44446
25906	23.504	0.	0.	-0.49452
25907	23.702	0.	0.	-0.7007
25908	23.901	0.	0.	-0.46352
25909	2.1667	0.1	0.	-2.9313
25910	24.	0.1	0.	2.309
25911	1.7	6.	0.	1.5075
25912	1.9	6.	0.	-45.783
25913	1.5	6.	0.	6.4139
25914	1.3	6.	0.	4.6919
25915	1.1	6.	0.	4.6957
25916	0.9	6.	0.	4.5179
25917	0.7	6.	0.	5.5568
25918	0.5	6.	0.	9.4124
25919	0.3	6.	0.	-19.53
25920	0.1	6.	0.	152.41
25921	2.	5.9	0.	-21.503
25922	5.1577e-014	5.9	0.	-354.45
25923	4.9829e-014	5.7	0.	-1607.8
25924	4.8081e-014	5.5	0.	-2325.2
25925	4.6332e-014	5.3	0.	-2736.3
25926	4.4584e-014	5.1	0.	-3033.1
25927	4.2835e-014	4.9	0.	-3273.4
25928	4.1087e-014	4.7	0.	-3479.6
25929	3.9339e-014	4.5	0.	-3661.2
25930	3.759e-014	4.3	0.	-3823.1
25931	3.5842e-014	4.1	0.	-3967.8
25932	3.4093e-014	3.9	0.	-4096.3
25933	3.2345e-014	3.7	0.	-4207.7
25934	3.0597e-014	3.5	0.	-4298.3
25935	2.8848e-014	3.3	0.	-4362.9
25936	2.71e-014	3.1	0.	-4396.4
25937	2.5352e-014	2.9	0.	-4396.4
25938	2.3603e-014	2.7	0.	-4362.9
25939	2.1855e-014	2.5	0.	-4298.3
25940	2.0106e-014	2.3	0.	-4207.7
25941	1.8358e-014	2.1	0.	-4096.3
25942	1.661e-014	1.9	0.	-3967.8
25943	1.4861e-014	1.7	0.	-3823.1
25944	1.3113e-014	1.5	0.	-3661.2
25945	1.1364e-014	1.3	0.	-3479.6
25946	9.6161e-015	1.1	0.	-3273.4
25947	7.8677e-015	0.9	0.	-3033.1
25948	6.1193e-015	0.7	0.	-2736.3
25949	4.371e-015	0.5	0.	-2325.2
25950	2.6226e-015	0.3	0.	-1607.8
25951	24.	0.3	0.	2.0077
25952	24.	0.5	0.	2.0526
25953	24.	0.7	0.	2.1686
25954	24.	0.9	0.	2.1997
25955	24.	1.1	0.	2.2273
25956	24.	1.3	0.	2.2451
25957	24.	1.5	0.	2.2588
25958	24.	1.7	0.	2.2692
25959	24.	1.9	0.	2.2772
25960	24.	2.1	0.	2.2833
25961	24.	2.3	0.	2.2879
25962	24.	2.5	0.	2.2911
25963	24.	2.7	0.	2.2932
25964	24.	2.9	0.	2.2942
25965	24.	3.1	0.	2.2942
25966	24.	3.3	0.	2.2932
25967	24.	3.5	0.	2.2911
25968	24.	3.7	0.	2.2879
25969	24.	3.9	0.	2.2833
25970	24.	4.1	0.	2.2772
25971	24.	4.3	0.	2.2692
25972	24.	4.5	0.	2.2588
25973	24.	4.7	0.	2.2451
25974	24.	4.9	0.	2.2273
25975	24.	5.1	0.	2.1997
25976	24.	5.3	0.	2.1686
25977	24.	5.5	0.	2.0527
25978	24.	5.7	0.	2.0077
25979	24.	5.9	0.	2.309
25980	23.901	6.	0.	-0.46352
25981	23.702	6.	0.	-0.70069
25982	23.504	6.	0.	-0.49451
25983	23.305	6.	0.	-0.44445
25984	23.107	6.	0.	-0.38848
25985	22.908	6.	0.	-0.35048
25986	22.71	6.	0.	-0.31741
25987	22.511	6.	0.	-0.28962
25988	22.313	6.	0.	-0.26548
25989	22.114	6.	0.	-0.24435
25990	21.916	6.	0.	-0.22564
25991	21.717	6.	0.	-0.20893
25992	21.519	6.	0.	-0.19393
25993	21.32	6.	0.	-0.18039
25994	21.122	6.	0.	-0.16812
25995	20.923	6.	0.	-0.15696
25996	20.725	6.	0.	-0.14679
25997	20.527	6.	0.	-0.13751
25998	20.328	6.	0.	-0.12902
25999	20.13	6.	0.	-0.12124
26000	19.931	6.	0.	-0.1141
26001	19.733	6.	0.	-0.10754
26002	19.534	6.	0.	-0.10151
26003	19.336	6.	0.	-9.5964e-002
26004	19.137	6.	0.	-9.0853e-002
26005	18.939	6.	0.	-8.6142e-002
26006	18.74	6.	0.	-8.1787e-002
26007	18.542	6.	0.	-7.7761e-002
26008	18.343	6.	0.	-7.4042e-002
26009	18.145	6.	0.	-7.0595e-002
26010	17.946	6.	0.	-6.7388e-002
26011	17.748	6.	0.	-6.4405e-002
26012	17.549	6.	0.	-6.1625e-002
26013	17.351	6.	0.	-5.9019e-002
26014	17.152	6.	0.	-5.6568e-002
26015	16.954	6.	0.	-5.426e-002
26016	16.755	6.	0.	-5.2079e-002
26017	16.557	6.	0.	-5.0001e-002
26018	16.358	6.	0.	-4.8014e-002
26019	16.16	6.	0.	-4.6117e-002
26020	15.961	6.	0.	-4.4283e-002
26021	15.763	6.	0.	-4.2492e-002
26022	15.564	6.	0.	-4.0741e-002
26023	15.366	6.	0.	-3.9019e-002
26024	15.167	6.	0.	-3.7301e-002
26025	14.969	6.	0.	-3.5573e-002
26026	14.77	6.	0.	-3.3836e-002
26027	14.572	6.	0.	-3.2076e-002
26028	14.373	6.	0.	-3.0265e-002
26029	14.175	6.	0.	-2.8397e-002
26030	13.977	6.	0.	-2.6481e-002
26031	13.778	6.	0.	-2.448e-002
26032	13.58	6.	0.	-2.2374e-002
26033	13.381	6.	0.	-2.0161e-002
26034	13.183	6.	0.	-1.7825e-002
26035	12.984	6.	0.	-1.5335e-002
26036	12.786	6.	0.	-1.2673e-002
26037	12.587	6.	0.	-9.8355e-003
26038	12.389	6.	0.	-6.802e-003
26039	12.19	6.	0.	-3.5347e-003
26040	11.992	6.	0.	-1.9406e-005
26041	11.793	6.	0.	3.7396e-003
26042	11.595	6.	0.	7.795e-003
26043	11.396	6.	0.	1.2179e-002
26044	11.198	6.	0.	1.6901e-002
26045	10.999	6.	0.	2.1988e-002
26046	10.801	6.	0.	2.7486e-002
26047	10.602	6.	0.	3.3423e-002
26048	10.404	6.	0.	3.9811e-002
26049	10.205	6.	0.	4.6679e-002
26050	10.007	6.	0.	5.4056e-002
26051	9.8083	6.	0.	6.1965e-002
26052	9.6098	6.	0.	7.0414e-002
26053	9.4114	6.	0.	7.9422e-002
26054	9.2129	6.	0.	8.8992e-002
26055	9.0144	6.	0.	9.9108e-002
26056	8.8159	6.	0.	0.10974
26057	8.6174	6.	0.	0.12083
26058	8.4189	6.	0.	0.13231
26059	8.2205	6.	0.	0.14404
26060	8.022	6.	0.	0.15586
26061	7.8235	6.	0.	0.16755
26062	7.625	6.	0.	0.17878
26063	7.4265	6.	0.	0.18917
26064	7.228	6.	0.	0.19819
26065	7.0295	6.	0.	0.20516
26066	6.8311	6.	0.	0.20922
26067	6.6326	6.	0.	0.20928
26068	6.4341	6.	0.	0.20397
26069	6.2356	6.	0.	0.19163
26070	6.0371	6.	0.	0.17042
26071	5.8386	6.	0.	0.13831
26072	5.6402	6.	0.	9.3048e-002
26073	5.4417	6.	0.	3.2117e-002
26074	5.2432	6.	0.	-4.7205e-002
26075	5.0447	6.	0.	-0.14753
26076	4.8462	6.	0.	-0.27089
26077	4.6477	6.	0.	-0.41792
26078	4.4492	6.	0.	-0.58679
26079	4.2508	6.	0.	-0.77137
26080	4.0523	6.	0.	-0.95897
26081	3.8538	6.	0.	-1.1267
26082	3.6553	6.	0.	-1.2399
26083	3.4568	6.	0.	-1.2421
26084	3.2583	6.	0.	-1.0865
26085	3.0598	6.	0.	-0.62974
26086	2.8614	6.	0.	-0.12978
26087	2.6629	6.	0.	1.5492
26088	2.4644	6.	0.	-2.072
26089	2.2659	6.	0.	-34.408
26090	2.1667	5.9	0.	-2.9313
26091	2.	4.3	0.	21.487
26092	2.	4.1	0.	-1888.7
26093	2.	4.5	0.	81.096
26094	2.	4.7	0.	32.694
26095	2.	4.9	0.	29.888
26096	2.	5.1	0.	23.043
26097	2.	5.3	0.	20.607
26098	2.	5.5	0.	19.458
26099	2.	5.7	0.	15.424
26100	2.0833	4.	0.	-3202.5
26101	2.1667	5.7	0.	15.428
26102	2.1667	5.5	0.	18.148
26103	2.1667	5.3	0.	19.705
26104	2.1667	5.1	0.	22.055
26105	2.1667	4.9	0.	29.059
26106	2.1667	4.7	0.	31.089
26107	2.1667	4.5	0.	82.198
26108	2.1667	4.3	0.	15.272
26109	2.1667	4.1	0.	-1591.2
26110	2.	1.7	0.	21.487
26111	2.	1.9	0.	-1888.7
26112	2.	1.5	0.	81.096
26113	2.	1.3	0.	32.694
26114	2.	1.1	0.	29.888
26115	2.	0.9	0.	23.043
26116	2.	0.7	0.	20.607
26117	2.	0.5	0.	19.458
26118	2.	0.3	0.	15.424
26119	2.0833	2.	0.	-3202.5
26120	2.1667	0.3	0.	15.428
26121	2.1667	0.5	0.	18.148
26122	2.1667	0.7	0.	19.705
26123	2.1667	0.9	0.	22.055
26124	2.1667	1.1	0.	29.059
26125	2.1667	1.3	0.	31.089
26126	2.1667	1.5	0.	82.198
26127	2.1667	1.7	0.	15.272
26128	2.1667	1.9	0.	-1591.2
