Node Number	X Location (in)	Y Location (in)	Z Location (in)	Minimum Principal Stress (psi)
1	22.8	2.1818	0.	-927.72
2	22.8	2.3636	0.	-680.74
3	22.8	2.5455	0.	-587.87
4	22.8	2.7273	0.	-540.46
5	22.8	2.9091	0.	-520.34
6	22.8	3.0909	0.	-520.34
7	22.8	3.2727	0.	-540.46
8	22.8	3.4545	0.	-587.87
9	22.8	3.6364	0.	-680.74
10	22.8	3.8182	0.	-927.72
11	23.139	2.	0.	-773.2
12	23.311	2.	0.	-523.47
13	23.483	2.	0.	-404.45
14	23.656	2.	0.	-331.69
15	23.828	2.	0.	-294.19
16	23.828	4.	0.	-294.19
17	23.656	4.	0.	-331.69
18	23.483	4.	0.	-404.45
19	23.311	4.	0.	-523.47
20	23.139	4.	0.	-773.2
21	22.616	5.8182	0.	-67.433
22	22.616	5.6364	0.	-89.272
23	22.616	5.4545	0.	-114.05
24	22.616	5.2727	0.	-139.92
25	22.616	5.0909	0.	-167.34
26	22.616	4.9091	0.	-197.51
27	22.616	4.7273	0.	-232.39
28	22.616	4.5455	0.	-277.8
29	22.616	4.3636	0.	-340.14
30	22.616	4.1818	0.	-478.19
31	22.616	4.	0.	-680.95
32	22.616	3.8182	0.	-664.9
33	22.616	3.6364	0.	-614.78
34	22.616	3.4545	0.	-572.
35	22.616	3.2727	0.	-546.87
36	22.616	3.0909	0.	-534.81
37	22.616	2.9091	0.	-534.81
38	22.616	2.7273	0.	-546.87
39	22.616	2.5455	0.	-572.
40	22.616	2.3636	0.	-614.78
41	22.616	2.1818	0.	-664.9
42	22.616	2.	0.	-680.95
43	22.616	1.8182	0.	-478.19
44	22.616	1.6364	0.	-340.14
45	22.616	1.4545	0.	-277.8
46	22.616	1.2727	0.	-232.39
47	22.616	1.0909	0.	-197.51
48	22.616	0.90909	0.	-167.34
49	22.616	0.72727	0.	-139.92
50	22.616	0.54545	0.	-114.05
51	22.616	0.36364	0.	-89.271
52	22.616	0.18182	0.	-67.433
53	22.432	5.8182	0.	-120.85
54	22.432	5.6364	0.	-134.6
55	22.432	5.4545	0.	-153.88
56	22.432	5.2727	0.	-176.9
57	22.432	5.0909	0.	-203.26
58	22.432	4.9091	0.	-233.75
59	22.432	4.7273	0.	-270.52
60	22.432	4.5455	0.	-316.76
61	22.432	4.3636	0.	-381.11
62	22.432	4.1818	0.	-457.45
63	22.432	4.	0.	-524.92
64	22.432	3.8182	0.	-558.
65	22.432	3.6364	0.	-559.35
66	22.432	3.4545	0.	-550.45
67	22.432	3.2727	0.	-542.48
68	22.432	3.0909	0.	-537.87
69	22.432	2.9091	0.	-537.87
70	22.432	2.7273	0.	-542.48
71	22.432	2.5455	0.	-550.45
72	22.432	2.3636	0.	-559.35
73	22.432	2.1818	0.	-558.
74	22.432	2.	0.	-524.92
75	22.432	1.8182	0.	-457.45
76	22.432	1.6364	0.	-381.11
77	22.432	1.4545	0.	-316.76
78	22.432	1.2727	0.	-270.52
79	22.432	1.0909	0.	-233.75
80	22.432	0.90909	0.	-203.26
81	22.432	0.72727	0.	-176.9
82	22.432	0.54545	0.	-153.88
83	22.432	0.36364	0.	-134.6
84	22.432	0.18182	0.	-120.85
85	22.248	5.8182	0.	-180.16
86	22.248	5.6364	0.	-191.65
87	22.248	5.4545	0.	-207.98
88	22.248	5.2727	0.	-228.89
89	22.248	5.0909	0.	-254.12
90	22.248	4.9091	0.	-284.09
91	22.248	4.7273	0.	-319.76
92	22.248	4.5455	0.	-362.53
93	22.248	4.3636	0.	-411.59
94	22.248	4.1818	0.	-461.99
95	22.248	4.	0.	-502.65
96	22.248	3.8182	0.	-525.85
97	22.248	3.6364	0.	-536.28
98	22.248	3.4545	0.	-539.29
99	22.248	3.2727	0.	-539.37
100	22.248	3.0909	0.	-538.96
101	22.248	2.9091	0.	-538.96
102	22.248	2.7273	0.	-539.37
103	22.248	2.5455	0.	-539.29
104	22.248	2.3636	0.	-536.28
105	22.248	2.1818	0.	-525.85
106	22.248	2.	0.	-502.65
107	22.248	1.8182	0.	-461.99
108	22.248	1.6364	0.	-411.59
109	22.248	1.4545	0.	-362.53
110	22.248	1.2727	0.	-319.76
111	22.248	1.0909	0.	-284.09
112	22.248	0.90909	0.	-254.12
113	22.248	0.72727	0.	-228.89
114	22.248	0.54545	0.	-207.98
115	22.248	0.36364	0.	-191.65
116	22.248	0.18182	0.	-180.16
117	22.065	5.8182	0.	-240.68
118	22.065	5.6364	0.	-251.25
119	22.065	5.4545	0.	-265.83
120	22.065	5.2727	0.	-284.76
121	22.065	5.0909	0.	-307.99
122	22.065	4.9091	0.	-335.56
123	22.065	4.7273	0.	-367.5
124	22.065	4.5455	0.	-403.31
125	22.065	4.3636	0.	-441.13
126	22.065	4.1818	0.	-476.57
127	22.065	4.	0.	-504.86
128	22.065	3.8182	0.	-523.6
129	22.065	3.6364	0.	-534.27
130	22.065	3.4545	0.	-539.96
131	22.065	3.2727	0.	-542.81
132	22.065	3.0909	0.	-543.97
133	22.065	2.9091	0.	-543.97
134	22.065	2.7273	0.	-542.81
135	22.065	2.5455	0.	-539.96
136	22.065	2.3636	0.	-534.27
137	22.065	2.1818	0.	-523.6
138	22.065	2.	0.	-504.86
139	22.065	1.8182	0.	-476.57
140	22.065	1.6364	0.	-441.13
141	22.065	1.4545	0.	-403.31
142	22.065	1.2727	0.	-367.5
143	22.065	1.0909	0.	-335.56
144	22.065	0.90909	0.	-307.99
145	22.065	0.72727	0.	-284.76
146	22.065	0.54545	0.	-265.83
147	22.065	0.36364	0.	-251.25
148	22.065	0.18182	0.	-240.68
149	21.881	5.8182	0.	-301.
150	21.881	5.6364	0.	-310.85
151	21.881	5.4545	0.	-324.09
152	21.881	5.2727	0.	-341.13
153	21.881	5.0909	0.	-361.9
154	21.881	4.9091	0.	-386.16
155	21.881	4.7273	0.	-413.43
156	21.881	4.5455	0.	-442.63
157	21.881	4.3636	0.	-471.77
158	21.881	4.1818	0.	-498.17
159	21.881	4.	0.	-519.39
160	21.881	3.8182	0.	-534.44
161	21.881	3.6364	0.	-544.12
162	21.881	3.4545	0.	-549.98
163	21.881	3.2727	0.	-553.32
164	21.881	3.0909	0.	-554.85
165	21.881	2.9091	0.	-554.85
166	21.881	2.7273	0.	-553.32
167	21.881	2.5455	0.	-549.98
168	21.881	2.3636	0.	-544.12
169	21.881	2.1818	0.	-534.44
170	21.881	2.	0.	-519.39
171	21.881	1.8182	0.	-498.17
172	21.881	1.6364	0.	-471.77
173	21.881	1.4545	0.	-442.63
174	21.881	1.2727	0.	-413.43
175	21.881	1.0909	0.	-386.16
176	21.881	0.90909	0.	-361.9
177	21.881	0.72727	0.	-341.13
178	21.881	0.54545	0.	-324.09
179	21.881	0.36364	0.	-310.85
180	21.881	0.18182	0.	-301.
181	21.697	5.8182	0.	-360.21
182	21.697	5.6364	0.	-369.23
183	21.697	5.4545	0.	-381.21
184	21.697	5.2727	0.	-396.35
185	21.697	5.0909	0.	-414.49
186	21.697	4.9091	0.	-435.26
187	21.697	4.7273	0.	-457.97
188	21.697	4.5455	0.	-481.49
189	21.697	4.3636	0.	-504.26
190	21.697	4.1818	0.	-524.56
191	21.697	4.	0.	-541.04
192	21.697	3.8182	0.	-553.2
193	21.697	3.6364	0.	-561.5
194	21.697	3.4545	0.	-566.82
195	21.697	3.2727	0.	-569.97
196	21.697	3.0909	0.	-571.44
197	21.697	2.9091	0.	-571.44
198	21.697	2.7273	0.	-569.97
199	21.697	2.5455	0.	-566.82
200	21.697	2.3636	0.	-561.5
201	21.697	2.1818	0.	-553.2
202	21.697	2.	0.	-541.04
203	21.697	1.8182	0.	-524.56
204	21.697	1.6364	0.	-504.26
205	21.697	1.4545	0.	-481.49
206	21.697	1.2727	0.	-457.97
207	21.697	1.0909	0.	-435.26
208	21.697	0.90909	0.	-414.49
209	21.697	0.72727	0.	-396.35
210	21.697	0.54545	0.	-381.21
211	21.697	0.36364	0.	-369.23
212	21.697	0.18182	0.	-360.21
213	21.513	5.8182	0.	-417.78
214	21.513	5.6364	0.	-425.83
215	21.513	5.4545	0.	-436.51
216	21.513	5.2727	0.	-449.77
217	21.513	5.0909	0.	-465.36
218	21.513	4.9091	0.	-482.84
219	21.513	4.7273	0.	-501.51
220	21.513	4.5455	0.	-520.41
221	21.513	4.3636	0.	-538.38
222	21.513	4.1818	0.	-554.29
223	21.513	4.	0.	-567.32
224	21.513	3.8182	0.	-577.2
225	21.513	3.6364	0.	-584.19
226	21.513	3.4545	0.	-588.8
227	21.513	3.2727	0.	-591.57
228	21.513	3.0909	0.	-592.87
229	21.513	2.9091	0.	-592.87
230	21.513	2.7273	0.	-591.57
231	21.513	2.5455	0.	-588.8
232	21.513	2.3636	0.	-584.19
233	21.513	2.1818	0.	-577.2
234	21.513	2.	0.	-567.32
235	21.513	1.8182	0.	-554.29
236	21.513	1.6364	0.	-538.38
237	21.513	1.4545	0.	-520.41
238	21.513	1.2727	0.	-501.51
239	21.513	1.0909	0.	-482.84
240	21.513	0.90909	0.	-465.36
241	21.513	0.72727	0.	-449.77
242	21.513	0.54545	0.	-436.51
243	21.513	0.36364	0.	-425.83
244	21.513	0.18182	0.	-417.78
245	21.329	5.8182	0.	-473.49
246	21.329	5.6364	0.	-480.46
247	21.329	5.4545	0.	-489.84
248	21.329	5.2727	0.	-501.3
249	21.329	5.0909	0.	-514.53
250	21.329	4.9091	0.	-529.08
251	21.329	4.7273	0.	-544.35
252	21.329	4.5455	0.	-559.56
253	21.329	4.3636	0.	-573.85
254	21.329	4.1818	0.	-586.47
255	21.329	4.	0.	-596.9
256	21.329	3.8182	0.	-604.95
257	21.329	3.6364	0.	-610.78
258	21.329	3.4545	0.	-614.71
259	21.329	3.2727	0.	-617.1
260	21.329	3.0909	0.	-618.23
261	21.329	2.9091	0.	-618.23
262	21.329	2.7273	0.	-617.1
263	21.329	2.5455	0.	-614.71
264	21.329	2.3636	0.	-610.78
265	21.329	2.1818	0.	-604.95
266	21.329	2.	0.	-596.9
267	21.329	1.8182	0.	-586.47
268	21.329	1.6364	0.	-573.85
269	21.329	1.4545	0.	-559.56
270	21.329	1.2727	0.	-544.35
271	21.329	1.0909	0.	-529.08
272	21.329	0.90909	0.	-514.53
273	21.329	0.72727	0.	-501.3
274	21.329	0.54545	0.	-489.84
275	21.329	0.36364	0.	-480.46
276	21.329	0.18182	0.	-473.49
277	21.145	5.8182	0.	-527.3
278	21.145	5.6364	0.	-533.17
279	21.145	5.4545	0.	-541.29
280	21.145	5.2727	0.	-551.07
281	21.145	5.0909	0.	-562.19
282	21.145	4.9091	0.	-574.24
283	21.145	4.7273	0.	-586.7
284	21.145	4.5455	0.	-598.96
285	21.145	4.3636	0.	-610.41
286	21.145	4.1818	0.	-620.51
287	21.145	4.	0.	-628.91
288	21.145	3.8182	0.	-635.5
289	21.145	3.6364	0.	-640.35
290	21.145	3.4545	0.	-643.68
291	21.145	3.2727	0.	-645.73
292	21.145	3.0909	0.	-646.7
293	21.145	2.9091	0.	-646.7
294	21.145	2.7273	0.	-645.73
295	21.145	2.5455	0.	-643.68
296	21.145	2.3636	0.	-640.35
297	21.145	2.1818	0.	-635.5
298	21.145	2.	0.	-628.91
299	21.145	1.8182	0.	-620.51
300	21.145	1.6364	0.	-610.41
301	21.145	1.4545	0.	-598.96
302	21.145	1.2727	0.	-586.7
303	21.145	1.0909	0.	-574.24
304	21.145	0.90909	0.	-562.19
305	21.145	0.72727	0.	-551.07
306	21.145	0.54545	0.	-541.29
307	21.145	0.36364	0.	-533.17
308	21.145	0.18182	0.	-527.3
309	20.961	5.8182	0.	-579.32
310	20.961	5.6364	0.	-584.12
311	20.961	5.4545	0.	-591.05
312	20.961	5.2727	0.	-599.33
313	20.961	5.0909	0.	-608.61
314	20.961	4.9091	0.	-618.55
315	20.961	4.7273	0.	-628.72
316	20.961	4.5455	0.	-638.63
317	20.961	4.3636	0.	-647.85
318	20.961	4.1818	0.	-655.99
319	20.961	4.	0.	-662.81
320	20.961	3.8182	0.	-668.21
321	20.961	3.6364	0.	-672.24
322	20.961	3.4545	0.	-675.05
323	20.961	3.2727	0.	-676.81
324	20.961	3.0909	0.	-677.65
325	20.961	2.9091	0.	-677.65
326	20.961	2.7273	0.	-676.81
327	20.961	2.5455	0.	-675.05
328	20.961	2.3636	0.	-672.24
329	20.961	2.1818	0.	-668.21
330	20.961	2.	0.	-662.81
331	20.961	1.8182	0.	-655.99
332	20.961	1.6364	0.	-647.85
333	20.961	1.4545	0.	-638.63
334	20.961	1.2727	0.	-628.72
335	20.961	1.0909	0.	-618.55
336	20.961	0.90909	0.	-608.61
337	20.961	0.72727	0.	-599.33
338	20.961	0.54545	0.	-591.04
339	20.961	0.36364	0.	-584.12
340	20.961	0.18182	0.	-579.32
341	20.777	5.8182	0.	-629.72
342	20.777	5.6364	0.	-633.51
343	20.777	5.4545	0.	-639.36
344	20.777	5.2727	0.	-646.31
345	20.777	5.0909	0.	-654.03
346	20.777	4.9091	0.	-662.22
347	20.777	4.7273	0.	-670.51
348	20.777	4.5455	0.	-678.56
349	20.777	4.3636	0.	-686.01
350	20.777	4.1818	0.	-692.61
351	20.777	4.	0.	-698.17
352	20.777	3.8182	0.	-702.61
353	20.777	3.6364	0.	-705.98
354	20.777	3.4545	0.	-708.35
355	20.777	3.2727	0.	-709.85
356	20.777	3.0909	0.	-710.57
357	20.777	2.9091	0.	-710.57
358	20.777	2.7273	0.	-709.85
359	20.777	2.5455	0.	-708.35
360	20.777	2.3636	0.	-705.98
361	20.777	2.1818	0.	-702.61
362	20.777	2.	0.	-698.17
363	20.777	1.8182	0.	-692.61
364	20.777	1.6364	0.	-686.01
365	20.777	1.4545	0.	-678.56
366	20.777	1.2727	0.	-670.51
367	20.777	1.0909	0.	-662.22
368	20.777	0.90909	0.	-654.03
369	20.777	0.72727	0.	-646.31
370	20.777	0.54545	0.	-639.36
371	20.777	0.36364	0.	-633.51
372	20.777	0.18182	0.	-629.72
373	20.594	5.8182	0.	-678.73
374	20.594	5.6364	0.	-681.59
375	20.594	5.4545	0.	-686.47
376	20.594	5.2727	0.	-692.27
377	20.594	5.0909	0.	-698.67
378	20.594	4.9091	0.	-705.4
379	20.594	4.7273	0.	-712.17
380	20.594	4.5455	0.	-718.72
381	20.594	4.3636	0.	-724.78
382	20.594	4.1818	0.	-730.15
383	20.594	4.	0.	-734.7
384	20.594	3.8182	0.	-738.37
385	20.594	3.6364	0.	-741.18
386	20.594	3.4545	0.	-743.18
387	20.594	3.2727	0.	-744.46
388	20.594	3.0909	0.	-745.08
389	20.594	2.9091	0.	-745.08
390	20.594	2.7273	0.	-744.46
391	20.594	2.5455	0.	-743.18
392	20.594	2.3636	0.	-741.18
393	20.594	2.1818	0.	-738.37
394	20.594	2.	0.	-734.7
395	20.594	1.8182	0.	-730.15
396	20.594	1.6364	0.	-724.78
397	20.594	1.4545	0.	-718.72
398	20.594	1.2727	0.	-712.17
399	20.594	1.0909	0.	-705.4
400	20.594	0.90909	0.	-698.67
401	20.594	0.72727	0.	-692.27
402	20.594	0.54545	0.	-686.47
403	20.594	0.36364	0.	-681.59
404	20.594	0.18182	0.	-678.73
405	20.41	5.8182	0.	-726.55
406	20.41	5.6364	0.	-728.58
407	20.41	5.4545	0.	-732.62
408	20.41	5.2727	0.	-737.42
409	20.41	5.0909	0.	-742.7
410	20.41	4.9091	0.	-748.23
411	20.41	4.7273	0.	-753.77
412	20.41	4.5455	0.	-759.12
413	20.41	4.3636	0.	-764.06
414	20.41	4.1818	0.	-768.45
415	20.41	4.	0.	-772.19
416	20.41	3.8182	0.	-775.23
417	20.41	3.6364	0.	-777.58
418	20.41	3.4545	0.	-779.27
419	20.41	3.2727	0.	-780.35
420	20.41	3.0909	0.	-780.88
421	20.41	2.9091	0.	-780.88
422	20.41	2.7273	0.	-780.35
423	20.41	2.5455	0.	-779.27
424	20.41	2.3636	0.	-777.58
425	20.41	2.1818	0.	-775.23
426	20.41	2.	0.	-772.19
427	20.41	1.8182	0.	-768.45
428	20.41	1.6364	0.	-764.06
429	20.41	1.4545	0.	-759.12
430	20.41	1.2727	0.	-753.77
431	20.41	1.0909	0.	-748.23
432	20.41	0.90909	0.	-742.7
433	20.41	0.72727	0.	-737.42
434	20.41	0.54545	0.	-732.62
435	20.41	0.36364	0.	-728.58
436	20.41	0.18182	0.	-726.55
437	20.226	5.8182	0.	-773.39
438	20.226	5.6364	0.	-774.68
439	20.226	5.4545	0.	-777.98
440	20.226	5.2727	0.	-781.94
441	20.226	5.0909	0.	-786.29
442	20.226	4.9091	0.	-790.82
443	20.226	4.7273	0.	-795.36
444	20.226	4.5455	0.	-799.73
445	20.226	4.3636	0.	-803.77
446	20.226	4.1818	0.	-807.38
447	20.226	4.	0.	-810.46
448	20.226	3.8182	0.	-812.98
449	20.226	3.6364	0.	-814.95
450	20.226	3.4545	0.	-816.38
451	20.226	3.2727	0.	-817.3
452	20.226	3.0909	0.	-817.75
453	20.226	2.9091	0.	-817.75
454	20.226	2.7273	0.	-817.3
455	20.226	2.5455	0.	-816.38
456	20.226	2.3636	0.	-814.95
457	20.226	2.1818	0.	-812.98
458	20.226	2.	0.	-810.46
459	20.226	1.8182	0.	-807.38
460	20.226	1.6364	0.	-803.77
461	20.226	1.4545	0.	-799.73
462	20.226	1.2727	0.	-795.36
463	20.226	1.0909	0.	-790.82
464	20.226	0.90909	0.	-786.29
465	20.226	0.72727	0.	-781.94
466	20.226	0.54545	0.	-777.98
467	20.226	0.36364	0.	-774.67
468	20.226	0.18182	0.	-773.38
469	20.042	5.8182	0.	-819.42
470	20.042	5.6364	0.	-820.07
471	20.042	5.4545	0.	-822.74
472	20.042	5.2727	0.	-825.98
473	20.042	5.0909	0.	-829.54
474	20.042	4.9091	0.	-833.26
475	20.042	4.7273	0.	-836.98
476	20.042	4.5455	0.	-840.55
477	20.042	4.3636	0.	-843.87
478	20.042	4.1818	0.	-846.84
479	20.042	4.	0.	-849.38
480	20.042	3.8182	0.	-851.48
481	20.042	3.6364	0.	-853.13
482	20.042	3.4545	0.	-854.34
483	20.042	3.2727	0.	-855.12
484	20.042	3.0909	0.	-855.51
485	20.042	2.9091	0.	-855.51
486	20.042	2.7273	0.	-855.12
487	20.042	2.5455	0.	-854.34
488	20.042	2.3636	0.	-853.13
489	20.042	2.1818	0.	-851.48
490	20.042	2.	0.	-849.38
491	20.042	1.8182	0.	-846.84
492	20.042	1.6364	0.	-843.87
493	20.042	1.4545	0.	-840.55
494	20.042	1.2727	0.	-836.98
495	20.042	1.0909	0.	-833.26
496	20.042	0.90909	0.	-829.54
497	20.042	0.72727	0.	-825.98
498	20.042	0.54545	0.	-822.74
499	20.042	0.36364	0.	-820.07
500	20.042	0.18182	0.	-819.42
501	19.858	5.8182	0.	-864.81
502	19.858	5.6364	0.	-864.91
503	19.858	5.4545	0.	-867.03
504	19.858	5.2727	0.	-869.67
505	19.858	5.0909	0.	-872.58
506	19.858	4.9091	0.	-875.61
507	19.858	4.7273	0.	-878.65
508	19.858	4.5455	0.	-881.59
509	19.858	4.3636	0.	-884.31
510	19.858	4.1818	0.	-886.75
511	19.858	4.	0.	-888.86
512	19.858	3.8182	0.	-890.61
513	19.858	3.6364	0.	-891.99
514	19.858	3.4545	0.	-893.01
515	19.858	3.2727	0.	-893.68
516	19.858	3.0909	0.	-894.
517	19.858	2.9091	0.	-894.
518	19.858	2.7273	0.	-893.68
519	19.858	2.5455	0.	-893.01
520	19.858	2.3636	0.	-891.99
521	19.858	2.1818	0.	-890.61
522	19.858	2.	0.	-888.86
523	19.858	1.8182	0.	-886.75
524	19.858	1.6364	0.	-884.31
525	19.858	1.4545	0.	-881.59
526	19.858	1.2727	0.	-878.65
527	19.858	1.0909	0.	-875.61
528	19.858	0.90909	0.	-872.58
529	19.858	0.72727	0.	-869.67
530	19.858	0.54545	0.	-867.03
531	19.858	0.36364	0.	-864.91
532	19.858	0.18182	0.	-864.81
533	19.674	5.8182	0.	-909.71
534	19.674	5.6364	0.	-909.32
535	19.674	5.4545	0.	-910.98
536	19.674	5.2727	0.	-913.1
537	19.674	5.0909	0.	-915.46
538	19.674	4.9091	0.	-917.93
539	19.674	4.7273	0.	-920.42
540	19.674	4.5455	0.	-922.82
541	19.674	4.3636	0.	-925.06
542	19.674	4.1818	0.	-927.07
543	19.674	4.	0.	-928.82
544	19.674	3.8182	0.	-930.28
545	19.674	3.6364	0.	-931.44
546	19.674	3.4545	0.	-932.29
547	19.674	3.2727	0.	-932.86
548	19.674	3.0909	0.	-933.14
549	19.674	2.9091	0.	-933.14
550	19.674	2.7273	0.	-932.86
551	19.674	2.5455	0.	-932.29
552	19.674	2.3636	0.	-931.44
553	19.674	2.1818	0.	-930.28
554	19.674	2.	0.	-928.82
555	19.674	1.8182	0.	-927.07
556	19.674	1.6364	0.	-925.06
557	19.674	1.4545	0.	-922.82
558	19.674	1.2727	0.	-920.42
559	19.674	1.0909	0.	-917.93
560	19.674	0.90909	0.	-915.46
561	19.674	0.72727	0.	-913.1
562	19.674	0.54545	0.	-910.98
563	19.674	0.36364	0.	-909.32
564	19.674	0.18182	0.	-909.71
565	19.49	5.8182	0.	-954.22
566	19.49	5.6364	0.	-953.42
567	19.49	5.4545	0.	-954.68
568	19.49	5.2727	0.	-956.37
569	19.49	5.0909	0.	-958.26
570	19.49	4.9091	0.	-960.26
571	19.49	4.7273	0.	-962.29
572	19.49	4.5455	0.	-964.25
573	19.49	4.3636	0.	-966.09
574	19.49	4.1818	0.	-967.75
575	19.49	4.	0.	-969.2
576	19.49	3.8182	0.	-970.41
577	19.49	3.6364	0.	-971.38
578	19.49	3.4545	0.	-972.1
579	19.49	3.2727	0.	-972.58
580	19.49	3.0909	0.	-972.81
581	19.49	2.9091	0.	-972.81
582	19.49	2.7273	0.	-972.58
583	19.49	2.5455	0.	-972.1
584	19.49	2.3636	0.	-971.38
585	19.49	2.1818	0.	-970.41
586	19.49	2.	0.	-969.2
587	19.49	1.8182	0.	-967.75
588	19.49	1.6364	0.	-966.09
589	19.49	1.4545	0.	-964.25
590	19.49	1.2727	0.	-962.29
591	19.49	1.0909	0.	-960.26
592	19.49	0.90909	0.	-958.26
593	19.49	0.72727	0.	-956.37
594	19.49	0.54545	0.	-954.68
595	19.49	0.36364	0.	-953.42
596	19.49	0.18182	0.	-954.22
597	19.306	5.8182	0.	-998.44
598	19.306	5.6364	0.	-997.29
599	19.306	5.4545	0.	-998.21
600	19.306	5.2727	0.	-999.53
601	19.306	5.0909	0.	-1001.
602	19.306	4.9091	0.	-1002.6
603	19.306	4.7273	0.	-1004.3
604	19.306	4.5455	0.	-1005.9
605	19.306	4.3636	0.	-1007.4
606	19.306	4.1818	0.	-1008.7
607	19.306	4.	0.	-1009.9
608	19.306	3.8182	0.	-1011.
609	19.306	3.6364	0.	-1011.8
610	19.306	3.4545	0.	-1012.4
611	19.306	3.2727	0.	-1012.8
612	19.306	3.0909	0.	-1013.
613	19.306	2.9091	0.	-1013.
614	19.306	2.7273	0.	-1012.8
615	19.306	2.5455	0.	-1012.4
616	19.306	2.3636	0.	-1011.8
617	19.306	2.1818	0.	-1011.
618	19.306	2.	0.	-1009.9
619	19.306	1.8182	0.	-1008.7
620	19.306	1.6364	0.	-1007.4
621	19.306	1.4545	0.	-1005.9
622	19.306	1.2727	0.	-1004.3
623	19.306	1.0909	0.	-1002.6
624	19.306	0.90909	0.	-1001.
625	19.306	0.72727	0.	-999.53
626	19.306	0.54545	0.	-998.21
627	19.306	0.36364	0.	-997.29
628	19.306	0.18182	0.	-998.44
629	19.123	5.8182	0.	-1042.5
630	19.123	5.6364	0.	-1041.
631	19.123	5.4545	0.	-1041.6
632	19.123	5.2727	0.	-1042.6
633	19.123	5.0909	0.	-1043.8
634	19.123	4.9091	0.	-1045.1
635	19.123	4.7273	0.	-1046.4
636	19.123	4.5455	0.	-1047.7
637	19.123	4.3636	0.	-1048.9
638	19.123	4.1818	0.	-1050.
639	19.123	4.	0.	-1051.
640	19.123	3.8182	0.	-1051.9
641	19.123	3.6364	0.	-1052.5
642	19.123	3.4545	0.	-1053.
643	19.123	3.2727	0.	-1053.4
644	19.123	3.0909	0.	-1053.5
645	19.123	2.9091	0.	-1053.5
646	19.123	2.7273	0.	-1053.4
647	19.123	2.5455	0.	-1053.
648	19.123	2.3636	0.	-1052.5
649	19.123	2.1818	0.	-1051.9
650	19.123	2.	0.	-1051.
651	19.123	1.8182	0.	-1050.
652	19.123	1.6364	0.	-1048.9
653	19.123	1.4545	0.	-1047.7
654	19.123	1.2727	0.	-1046.4
655	19.123	1.0909	0.	-1045.1
656	19.123	0.90909	0.	-1043.8
657	19.123	0.72727	0.	-1042.6
658	19.123	0.54545	0.	-1041.6
659	19.123	0.36364	0.	-1041.
660	19.123	0.18182	0.	-1042.5
661	18.939	5.8182	0.	-1086.3
662	18.939	5.6364	0.	-1084.6
663	18.939	5.4545	0.	-1085.
664	18.939	5.2727	0.	-1085.7
665	18.939	5.0909	0.	-1086.6
666	18.939	4.9091	0.	-1087.6
667	18.939	4.7273	0.	-1088.7
668	18.939	4.5455	0.	-1089.7
669	18.939	4.3636	0.	-1090.7
670	18.939	4.1818	0.	-1091.6
671	18.939	4.	0.	-1092.4
672	18.939	3.8182	0.	-1093.1
673	18.939	3.6364	0.	-1093.7
674	18.939	3.4545	0.	-1094.1
675	18.939	3.2727	0.	-1094.4
676	18.939	3.0909	0.	-1094.5
677	18.939	2.9091	0.	-1094.5
678	18.939	2.7273	0.	-1094.4
679	18.939	2.5455	0.	-1094.1
680	18.939	2.3636	0.	-1093.7
681	18.939	2.1818	0.	-1093.1
682	18.939	2.	0.	-1092.4
683	18.939	1.8182	0.	-1091.6
684	18.939	1.6364	0.	-1090.7
685	18.939	1.4545	0.	-1089.7
686	18.939	1.2727	0.	-1088.7
687	18.939	1.0909	0.	-1087.6
688	18.939	0.90909	0.	-1086.6
689	18.939	0.72727	0.	-1085.7
690	18.939	0.54545	0.	-1085.
691	18.939	0.36364	0.	-1084.6
692	18.939	0.18182	0.	-1086.3
693	18.755	5.8182	0.	-1130.1
694	18.755	5.6364	0.	-1128.2
695	18.755	5.4545	0.	-1128.4
696	18.755	5.2727	0.	-1128.9
697	18.755	5.0909	0.	-1129.5
698	18.755	4.9091	0.	-1130.3
699	18.755	4.7273	0.	-1131.1
700	18.755	4.5455	0.	-1131.9
701	18.755	4.3636	0.	-1132.7
702	18.755	4.1818	0.	-1133.4
703	18.755	4.	0.	-1134.1
704	18.755	3.8182	0.	-1134.7
705	18.755	3.6364	0.	-1135.1
706	18.755	3.4545	0.	-1135.5
707	18.755	3.2727	0.	-1135.7
708	18.755	3.0909	0.	-1135.8
709	18.755	2.9091	0.	-1135.8
710	18.755	2.7273	0.	-1135.7
711	18.755	2.5455	0.	-1135.5
712	18.755	2.3636	0.	-1135.1
713	18.755	2.1818	0.	-1134.7
714	18.755	2.	0.	-1134.1
715	18.755	1.8182	0.	-1133.4
716	18.755	1.6364	0.	-1132.7
717	18.755	1.4545	0.	-1131.9
718	18.755	1.2727	0.	-1131.1
719	18.755	1.0909	0.	-1130.3
720	18.755	0.90909	0.	-1129.5
721	18.755	0.72727	0.	-1128.9
722	18.755	0.54545	0.	-1128.4
723	18.755	0.36364	0.	-1128.2
724	18.755	0.18182	0.	-1130.1
725	18.571	5.8182	0.	-1173.9
726	18.571	5.6364	0.	-1171.8
727	18.571	5.4545	0.	-1171.8
728	18.571	5.2727	0.	-1172.1
729	18.571	5.0909	0.	-1172.5
730	18.571	4.9091	0.	-1173.1
731	18.571	4.7273	0.	-1173.7
732	18.571	4.5455	0.	-1174.3
733	18.571	4.3636	0.	-1174.9
734	18.571	4.1818	0.	-1175.5
735	18.571	4.	0.	-1176.
736	18.571	3.8182	0.	-1176.5
737	18.571	3.6364	0.	-1176.9
738	18.571	3.4545	0.	-1177.1
739	18.571	3.2727	0.	-1177.3
740	18.571	3.0909	0.	-1177.4
741	18.571	2.9091	0.	-1177.4
742	18.571	2.7273	0.	-1177.3
743	18.571	2.5455	0.	-1177.1
744	18.571	2.3636	0.	-1176.9
745	18.571	2.1818	0.	-1176.5
746	18.571	2.	0.	-1176.
747	18.571	1.8182	0.	-1175.5
748	18.571	1.6364	0.	-1174.9
749	18.571	1.4545	0.	-1174.3
750	18.571	1.2727	0.	-1173.7
751	18.571	1.0909	0.	-1173.1
752	18.571	0.90909	0.	-1172.5
753	18.571	0.72727	0.	-1172.1
754	18.571	0.54545	0.	-1171.8
755	18.571	0.36364	0.	-1171.8
756	18.571	0.18182	0.	-1173.9
757	18.387	5.8182	0.	-1217.6
758	18.387	5.6364	0.	-1215.4
759	18.387	5.4545	0.	-1215.2
760	18.387	5.2727	0.	-1215.3
761	18.387	5.0909	0.	-1215.6
762	18.387	4.9091	0.	-1216.
763	18.387	4.7273	0.	-1216.4
764	18.387	4.5455	0.	-1216.9
765	18.387	4.3636	0.	-1217.4
766	18.387	4.1818	0.	-1217.8
767	18.387	4.	0.	-1218.2
768	18.387	3.8182	0.	-1218.6
769	18.387	3.6364	0.	-1218.9
770	18.387	3.4545	0.	-1219.1
771	18.387	3.2727	0.	-1219.3
772	18.387	3.0909	0.	-1219.4
773	18.387	2.9091	0.	-1219.4
774	18.387	2.7273	0.	-1219.3
775	18.387	2.5455	0.	-1219.1
776	18.387	2.3636	0.	-1218.9
777	18.387	2.1818	0.	-1218.6
778	18.387	2.	0.	-1218.2
779	18.387	1.8182	0.	-1217.8
780	18.387	1.6364	0.	-1217.4
781	18.387	1.4545	0.	-1216.9
782	18.387	1.2727	0.	-1216.4
783	18.387	1.0909	0.	-1216.
784	18.387	0.90909	0.	-1215.6
785	18.387	0.72727	0.	-1215.3
786	18.387	0.54545	0.	-1215.2
787	18.387	0.36364	0.	-1215.4
788	18.387	0.18182	0.	-1217.6
789	18.203	5.8182	0.	-1261.4
790	18.203	5.6364	0.	-1259.
791	18.203	5.4545	0.	-1258.7
792	18.203	5.2727	0.	-1258.7
793	18.203	5.0909	0.	-1258.8
794	18.203	4.9091	0.	-1259.1
795	18.203	4.7273	0.	-1259.4
796	18.203	4.5455	0.	-1259.7
797	18.203	4.3636	0.	-1260.
798	18.203	4.1818	0.	-1260.4
799	18.203	4.	0.	-1260.7
800	18.203	3.8182	0.	-1261.
801	18.203	3.6364	0.	-1261.2
802	18.203	3.4545	0.	-1261.4
803	18.203	3.2727	0.	-1261.5
804	18.203	3.0909	0.	-1261.6
805	18.203	2.9091	0.	-1261.6
806	18.203	2.7273	0.	-1261.5
807	18.203	2.5455	0.	-1261.4
808	18.203	2.3636	0.	-1261.2
809	18.203	2.1818	0.	-1261.
810	18.203	2.	0.	-1260.7
811	18.203	1.8182	0.	-1260.4
812	18.203	1.6364	0.	-1260.
813	18.203	1.4545	0.	-1259.7
814	18.203	1.2727	0.	-1259.4
815	18.203	1.0909	0.	-1259.1
816	18.203	0.90909	0.	-1258.8
817	18.203	0.72727	0.	-1258.7
818	18.203	0.54545	0.	-1258.7
819	18.203	0.36364	0.	-1259.
820	18.203	0.18182	0.	-1261.4
821	18.019	5.8182	0.	-1305.3
822	18.019	5.6364	0.	-1302.8
823	18.019	5.4545	0.	-1302.3
824	18.019	5.2727	0.	-1302.2
825	18.019	5.0909	0.	-1302.2
826	18.019	4.9091	0.	-1302.3
827	18.019	4.7273	0.	-1302.5
828	18.019	4.5455	0.	-1302.7
829	18.019	4.3636	0.	-1302.9
830	18.019	4.1818	0.	-1303.1
831	18.019	4.	0.	-1303.4
832	18.019	3.8182	0.	-1303.6
833	18.019	3.6364	0.	-1303.7
834	18.019	3.4545	0.	-1303.9
835	18.019	3.2727	0.	-1304.
836	18.019	3.0909	0.	-1304.
837	18.019	2.9091	0.	-1304.
838	18.019	2.7273	0.	-1304.
839	18.019	2.5455	0.	-1303.9
840	18.019	2.3636	0.	-1303.7
841	18.019	2.1818	0.	-1303.6
842	18.019	2.	0.	-1303.4
843	18.019	1.8182	0.	-1303.1
844	18.019	1.6364	0.	-1302.9
845	18.019	1.4545	0.	-1302.7
846	18.019	1.2727	0.	-1302.5
847	18.019	1.0909	0.	-1302.3
848	18.019	0.90909	0.	-1302.2
849	18.019	0.72727	0.	-1302.2
850	18.019	0.54545	0.	-1302.3
851	18.019	0.36364	0.	-1302.8
852	18.019	0.18182	0.	-1305.3
853	17.835	5.8182	0.	-1349.2
854	17.835	5.6364	0.	-1346.6
855	17.835	5.4545	0.	-1346.1
856	17.835	5.2727	0.	-1345.8
857	17.835	5.0909	0.	-1345.7
858	17.835	4.9091	0.	-1345.7
859	17.835	4.7273	0.	-1345.7
860	17.835	4.5455	0.	-1345.8
861	17.835	4.3636	0.	-1346.
862	17.835	4.1818	0.	-1346.1
863	17.835	4.	0.	-1346.3
864	17.835	3.8182	0.	-1346.4
865	17.835	3.6364	0.	-1346.5
866	17.835	3.4545	0.	-1346.6
867	17.835	3.2727	0.	-1346.7
868	17.835	3.0909	0.	-1346.7
869	17.835	2.9091	0.	-1346.7
870	17.835	2.7273	0.	-1346.7
871	17.835	2.5455	0.	-1346.6
872	17.835	2.3636	0.	-1346.5
873	17.835	2.1818	0.	-1346.4
874	17.835	2.	0.	-1346.3
875	17.835	1.8182	0.	-1346.1
876	17.835	1.6364	0.	-1346.
877	17.835	1.4545	0.	-1345.8
878	17.835	1.2727	0.	-1345.7
879	17.835	1.0909	0.	-1345.7
880	17.835	0.90909	0.	-1345.7
881	17.835	0.72727	0.	-1345.8
882	17.835	0.54545	0.	-1346.1
883	17.835	0.36364	0.	-1346.6
884	17.835	0.18182	0.	-1349.2
885	17.652	5.8182	0.	-1393.2
886	17.652	5.6364	0.	-1390.5
887	17.652	5.4545	0.	-1389.9
888	17.652	5.2727	0.	-1389.6
889	17.652	5.0909	0.	-1389.3
890	17.652	4.9091	0.	-1389.2
891	17.652	4.7273	0.	-1389.2
892	17.652	4.5455	0.	-1389.2
893	17.652	4.3636	0.	-1389.3
894	17.652	4.1818	0.	-1389.3
895	17.652	4.	0.	-1389.4
896	17.652	3.8182	0.	-1389.5
897	17.652	3.6364	0.	-1389.6
898	17.652	3.4545	0.	-1389.6
899	17.652	3.2727	0.	-1389.7
900	17.652	3.0909	0.	-1389.7
901	17.652	2.9091	0.	-1389.7
902	17.652	2.7273	0.	-1389.7
903	17.652	2.5455	0.	-1389.6
904	17.652	2.3636	0.	-1389.6
905	17.652	2.1818	0.	-1389.5
906	17.652	2.	0.	-1389.4
907	17.652	1.8182	0.	-1389.3
908	17.652	1.6364	0.	-1389.3
909	17.652	1.4545	0.	-1389.2
910	17.652	1.2727	0.	-1389.2
911	17.652	1.0909	0.	-1389.2
912	17.652	0.90909	0.	-1389.3
913	17.652	0.72727	0.	-1389.6
914	17.652	0.54545	0.	-1389.9
915	17.652	0.36364	0.	-1390.5
916	17.652	0.18182	0.	-1393.2
917	17.468	5.8182	0.	-1437.3
918	17.468	5.6364	0.	-1434.6
919	17.468	5.4545	0.	-1433.9
920	17.468	5.2727	0.	-1433.5
921	17.468	5.0909	0.	-1433.2
922	17.468	4.9091	0.	-1432.9
923	17.468	4.7273	0.	-1432.8
924	17.468	4.5455	0.	-1432.8
925	17.468	4.3636	0.	-1432.7
926	17.468	4.1818	0.	-1432.7
927	17.468	4.	0.	-1432.8
928	17.468	3.8182	0.	-1432.8
929	17.468	3.6364	0.	-1432.8
930	17.468	3.4545	0.	-1432.9
931	17.468	3.2727	0.	-1432.9
932	17.468	3.0909	0.	-1432.9
933	17.468	2.9091	0.	-1432.9
934	17.468	2.7273	0.	-1432.9
935	17.468	2.5455	0.	-1432.9
936	17.468	2.3636	0.	-1432.8
937	17.468	2.1818	0.	-1432.8
938	17.468	2.	0.	-1432.8
939	17.468	1.8182	0.	-1432.7
940	17.468	1.6364	0.	-1432.7
941	17.468	1.4545	0.	-1432.8
942	17.468	1.2727	0.	-1432.8
943	17.468	1.0909	0.	-1432.9
944	17.468	0.90909	0.	-1433.2
945	17.468	0.72727	0.	-1433.5
946	17.468	0.54545	0.	-1433.9
947	17.468	0.36364	0.	-1434.6
948	17.468	0.18182	0.	-1437.3
949	17.284	5.8182	0.	-1481.6
950	17.284	5.6364	0.	-1478.8
951	17.284	5.4545	0.	-1478.
952	17.284	5.2727	0.	-1477.5
953	17.284	5.0909	0.	-1477.1
954	17.284	4.9091	0.	-1476.8
955	17.284	4.7273	0.	-1476.6
956	17.284	4.5455	0.	-1476.5
957	17.284	4.3636	0.	-1476.4
958	17.284	4.1818	0.	-1476.4
959	17.284	4.	0.	-1476.3
960	17.284	3.8182	0.	-1476.3
961	17.284	3.6364	0.	-1476.3
962	17.284	3.4545	0.	-1476.3
963	17.284	3.2727	0.	-1476.4
964	17.284	3.0909	0.	-1476.4
965	17.284	2.9091	0.	-1476.4
966	17.284	2.7273	0.	-1476.4
967	17.284	2.5455	0.	-1476.3
968	17.284	2.3636	0.	-1476.3
969	17.284	2.1818	0.	-1476.3
970	17.284	2.	0.	-1476.3
971	17.284	1.8182	0.	-1476.4
972	17.284	1.6364	0.	-1476.4
973	17.284	1.4545	0.	-1476.5
974	17.284	1.2727	0.	-1476.6
975	17.284	1.0909	0.	-1476.8
976	17.284	0.90909	0.	-1477.1
977	17.284	0.72727	0.	-1477.5
978	17.284	0.54545	0.	-1478.
979	17.284	0.36364	0.	-1478.8
980	17.284	0.18182	0.	-1481.6
981	17.1	5.8182	0.	-1526.
982	17.1	5.6364	0.	-1523.1
983	17.1	5.4545	0.	-1522.3
984	17.1	5.2727	0.	-1521.7
985	17.1	5.0909	0.	-1521.3
986	17.1	4.9091	0.	-1520.9
987	17.1	4.7273	0.	-1520.7
988	17.1	4.5455	0.	-1520.5
989	17.1	4.3636	0.	-1520.3
990	17.1	4.1818	0.	-1520.2
991	17.1	4.	0.	-1520.1
992	17.1	3.8182	0.	-1520.1
993	17.1	3.6364	0.	-1520.1
994	17.1	3.4545	0.	-1520.
995	17.1	3.2727	0.	-1520.
996	17.1	3.0909	0.	-1520.
997	17.1	2.9091	0.	-1520.
998	17.1	2.7273	0.	-1520.
999	17.1	2.5455	0.	-1520.
1000	17.1	2.3636	0.	-1520.1
1001	17.1	2.1818	0.	-1520.1
1002	17.1	2.	0.	-1520.1
1003	17.1	1.8182	0.	-1520.2
1004	17.1	1.6364	0.	-1520.3
1005	17.1	1.4545	0.	-1520.5
1006	17.1	1.2727	0.	-1520.7
1007	17.1	1.0909	0.	-1520.9
1008	17.1	0.90909	0.	-1521.3
1009	17.1	0.72727	0.	-1521.7
1010	17.1	0.54545	0.	-1522.3
1011	17.1	0.36364	0.	-1523.1
1012	17.1	0.18182	0.	-1526.
1013	16.916	5.8182	0.	-1570.5
1014	16.916	5.6364	0.	-1567.6
1015	16.916	5.4545	0.	-1566.7
1016	16.916	5.2727	0.	-1566.1
1017	16.916	5.0909	0.	-1565.6
1018	16.916	4.9091	0.	-1565.2
1019	16.916	4.7273	0.	-1564.9
1020	16.916	4.5455	0.	-1564.6
1021	16.916	4.3636	0.	-1564.4
1022	16.916	4.1818	0.	-1564.2
1023	16.916	4.	0.	-1564.1
1024	16.916	3.8182	0.	-1564.
1025	16.916	3.6364	0.	-1564.
1026	16.916	3.4545	0.	-1563.9
1027	16.916	3.2727	0.	-1563.9
1028	16.916	3.0909	0.	-1563.9
1029	16.916	2.9091	0.	-1563.9
1030	16.916	2.7273	0.	-1563.9
1031	16.916	2.5455	0.	-1563.9
1032	16.916	2.3636	0.	-1564.
1033	16.916	2.1818	0.	-1564.
1034	16.916	2.	0.	-1564.1
1035	16.916	1.8182	0.	-1564.2
1036	16.916	1.6364	0.	-1564.4
1037	16.916	1.4545	0.	-1564.6
1038	16.916	1.2727	0.	-1564.9
1039	16.916	1.0909	0.	-1565.2
1040	16.916	0.90909	0.	-1565.6
1041	16.916	0.72727	0.	-1566.1
1042	16.916	0.54545	0.	-1566.7
1043	16.916	0.36364	0.	-1567.6
1044	16.916	0.18182	0.	-1570.5
1045	16.732	5.8182	0.	-1615.2
1046	16.732	5.6364	0.	-1612.2
1047	16.732	5.4545	0.	-1611.3
1048	16.732	5.2727	0.	-1610.6
1049	16.732	5.0909	0.	-1610.1
1050	16.732	4.9091	0.	-1609.6
1051	16.732	4.7273	0.	-1609.2
1052	16.732	4.5455	0.	-1608.9
1053	16.732	4.3636	0.	-1608.7
1054	16.732	4.1818	0.	-1608.5
1055	16.732	4.	0.	-1608.3
1056	16.732	3.8182	0.	-1608.2
1057	16.732	3.6364	0.	-1608.1
1058	16.732	3.4545	0.	-1608.1
1059	16.732	3.2727	0.	-1608.
1060	16.732	3.0909	0.	-1608.
1061	16.732	2.9091	0.	-1608.
1062	16.732	2.7273	0.	-1608.
1063	16.732	2.5455	0.	-1608.1
1064	16.732	2.3636	0.	-1608.1
1065	16.732	2.1818	0.	-1608.2
1066	16.732	2.	0.	-1608.3
1067	16.732	1.8182	0.	-1608.5
1068	16.732	1.6364	0.	-1608.7
1069	16.732	1.4545	0.	-1608.9
1070	16.732	1.2727	0.	-1609.2
1071	16.732	1.0909	0.	-1609.6
1072	16.732	0.90909	0.	-1610.1
1073	16.732	0.72727	0.	-1610.6
1074	16.732	0.54545	0.	-1611.3
1075	16.732	0.36364	0.	-1612.2
1076	16.732	0.18182	0.	-1615.2
1077	16.548	5.8182	0.	-1660.
1078	16.548	5.6364	0.	-1657.
1079	16.548	5.4545	0.	-1656.1
1080	16.548	5.2727	0.	-1655.4
1081	16.548	5.0909	0.	-1654.8
1082	16.548	4.9091	0.	-1654.2
1083	16.548	4.7273	0.	-1653.8
1084	16.548	4.5455	0.	-1653.5
1085	16.548	4.3636	0.	-1653.2
1086	16.548	4.1818	0.	-1652.9
1087	16.548	4.	0.	-1652.8
1088	16.548	3.8182	0.	-1652.6
1089	16.548	3.6364	0.	-1652.5
1090	16.548	3.4545	0.	-1652.4
1091	16.548	3.2727	0.	-1652.4
1092	16.548	3.0909	0.	-1652.3
1093	16.548	2.9091	0.	-1652.3
1094	16.548	2.7273	0.	-1652.4
1095	16.548	2.5455	0.	-1652.4
1096	16.548	2.3636	0.	-1652.5
1097	16.548	2.1818	0.	-1652.6
1098	16.548	2.	0.	-1652.8
1099	16.548	1.8182	0.	-1652.9
1100	16.548	1.6364	0.	-1653.2
1101	16.548	1.4545	0.	-1653.5
1102	16.548	1.2727	0.	-1653.8
1103	16.548	1.0909	0.	-1654.2
1104	16.548	0.90909	0.	-1654.8
1105	16.548	0.72727	0.	-1655.4
1106	16.548	0.54545	0.	-1656.1
1107	16.548	0.36364	0.	-1657.
1108	16.548	0.18182	0.	-1660.
1109	16.365	5.8182	0.	-1705.
1110	16.365	5.6364	0.	-1702.
1111	16.365	5.4545	0.	-1701.
1112	16.365	5.2727	0.	-1700.3
1113	16.365	5.0909	0.	-1699.6
1114	16.365	4.9091	0.	-1699.1
1115	16.365	4.7273	0.	-1698.6
1116	16.365	4.5455	0.	-1698.2
1117	16.365	4.3636	0.	-1697.9
1118	16.365	4.1818	0.	-1697.6
1119	16.365	4.	0.	-1697.4
1120	16.365	3.8182	0.	-1697.2
1121	16.365	3.6364	0.	-1697.1
1122	16.365	3.4545	0.	-1697.
1123	16.365	3.2727	0.	-1696.9
1124	16.365	3.0909	0.	-1696.9
1125	16.365	2.9091	0.	-1696.9
1126	16.365	2.7273	0.	-1696.9
1127	16.365	2.5455	0.	-1697.
1128	16.365	2.3636	0.	-1697.1
1129	16.365	2.1818	0.	-1697.2
1130	16.365	2.	0.	-1697.4
1131	16.365	1.8182	0.	-1697.6
1132	16.365	1.6364	0.	-1697.9
1133	16.365	1.4545	0.	-1698.2
1134	16.365	1.2727	0.	-1698.6
1135	16.365	1.0909	0.	-1699.1
1136	16.365	0.90909	0.	-1699.6
1137	16.365	0.72727	0.	-1700.3
1138	16.365	0.54545	0.	-1701.
1139	16.365	0.36364	0.	-1702.
1140	16.365	0.18182	0.	-1705.
1141	16.181	5.8182	0.	-1750.1
1142	16.181	5.6364	0.	-1747.2
1143	16.181	5.4545	0.	-1746.1
1144	16.181	5.2727	0.	-1745.3
1145	16.181	5.0909	0.	-1744.6
1146	16.181	4.9091	0.	-1744.
1147	16.181	4.7273	0.	-1743.5
1148	16.181	4.5455	0.	-1743.1
1149	16.181	4.3636	0.	-1742.7
1150	16.181	4.1818	0.	-1742.4
1151	16.181	4.	0.	-1742.2
1152	16.181	3.8182	0.	-1742.
1153	16.181	3.6364	0.	-1741.9
1154	16.181	3.4545	0.	-1741.7
1155	16.181	3.2727	0.	-1741.7
1156	16.181	3.0909	0.	-1741.6
1157	16.181	2.9091	0.	-1741.6
1158	16.181	2.7273	0.	-1741.7
1159	16.181	2.5455	0.	-1741.7
1160	16.181	2.3636	0.	-1741.9
1161	16.181	2.1818	0.	-1742.
1162	16.181	2.	0.	-1742.2
1163	16.181	1.8182	0.	-1742.4
1164	16.181	1.6364	0.	-1742.7
1165	16.181	1.4545	0.	-1743.1
1166	16.181	1.2727	0.	-1743.5
1167	16.181	1.0909	0.	-1744.
1168	16.181	0.90909	0.	-1744.6
1169	16.181	0.72727	0.	-1745.3
1170	16.181	0.54545	0.	-1746.1
1171	16.181	0.36364	0.	-1747.2
1172	16.181	0.18182	0.	-1750.1
1173	15.997	5.8182	0.	-1795.5
1174	15.997	5.6364	0.	-1792.5
1175	15.997	5.4545	0.	-1791.4
1176	15.997	5.2727	0.	-1790.6
1177	15.997	5.0909	0.	-1789.9
1178	15.997	4.9091	0.	-1789.2
1179	15.997	4.7273	0.	-1788.7
1180	15.997	4.5455	0.	-1788.2
1181	15.997	4.3636	0.	-1787.8
1182	15.997	4.1818	0.	-1787.5
1183	15.997	4.	0.	-1787.2
1184	15.997	3.8182	0.	-1787.
1185	15.997	3.6364	0.	-1786.8
1186	15.997	3.4545	0.	-1786.7
1187	15.997	3.2727	0.	-1786.6
1188	15.997	3.0909	0.	-1786.6
1189	15.997	2.9091	0.	-1786.6
1190	15.997	2.7273	0.	-1786.6
1191	15.997	2.5455	0.	-1786.7
1192	15.997	2.3636	0.	-1786.8
1193	15.997	2.1818	0.	-1787.
1194	15.997	2.	0.	-1787.2
1195	15.997	1.8182	0.	-1787.5
1196	15.997	1.6364	0.	-1787.8
1197	15.997	1.4545	0.	-1788.2
1198	15.997	1.2727	0.	-1788.7
1199	15.997	1.0909	0.	-1789.2
1200	15.997	0.90909	0.	-1789.9
1201	15.997	0.72727	0.	-1790.6
1202	15.997	0.54545	0.	-1791.4
1203	15.997	0.36364	0.	-1792.5
1204	15.997	0.18182	0.	-1795.5
1205	15.813	5.8182	0.	-1841.
1206	15.813	5.6364	0.	-1838.
1207	15.813	5.4545	0.	-1836.9
1208	15.813	5.2727	0.	-1836.
1209	15.813	5.0909	0.	-1835.3
1210	15.813	4.9091	0.	-1834.6
1211	15.813	4.7273	0.	-1834.
1212	15.813	4.5455	0.	-1833.5
1213	15.813	4.3636	0.	-1833.1
1214	15.813	4.1818	0.	-1832.8
1215	15.813	4.	0.	-1832.5
1216	15.813	3.8182	0.	-1832.2
1217	15.813	3.6364	0.	-1832.
1218	15.813	3.4545	0.	-1831.9
1219	15.813	3.2727	0.	-1831.8
1220	15.813	3.0909	0.	-1831.8
1221	15.813	2.9091	0.	-1831.8
1222	15.813	2.7273	0.	-1831.8
1223	15.813	2.5455	0.	-1831.9
1224	15.813	2.3636	0.	-1832.
1225	15.813	2.1818	0.	-1832.2
1226	15.813	2.	0.	-1832.5
1227	15.813	1.8182	0.	-1832.8
1228	15.813	1.6364	0.	-1833.1
1229	15.813	1.4545	0.	-1833.5
1230	15.813	1.2727	0.	-1834.
1231	15.813	1.0909	0.	-1834.6
1232	15.813	0.90909	0.	-1835.3
1233	15.813	0.72727	0.	-1836.
1234	15.813	0.54545	0.	-1836.9
1235	15.813	0.36364	0.	-1838.
1236	15.813	0.18182	0.	-1841.
1237	15.629	5.8182	0.	-1886.6
1238	15.629	5.6364	0.	-1883.6
1239	15.629	5.4545	0.	-1882.5
1240	15.629	5.2727	0.	-1881.6
1241	15.629	5.0909	0.	-1880.9
1242	15.629	4.9091	0.	-1880.2
1243	15.629	4.7273	0.	-1879.6
1244	15.629	4.5455	0.	-1879.1
1245	15.629	4.3636	0.	-1878.6
1246	15.629	4.1818	0.	-1878.2
1247	15.629	4.	0.	-1877.9
1248	15.629	3.8182	0.	-1877.6
1249	15.629	3.6364	0.	-1877.4
1250	15.629	3.4545	0.	-1877.3
1251	15.629	3.2727	0.	-1877.2
1252	15.629	3.0909	0.	-1877.1
1253	15.629	2.9091	0.	-1877.1
1254	15.629	2.7273	0.	-1877.2
1255	15.629	2.5455	0.	-1877.3
1256	15.629	2.3636	0.	-1877.4
1257	15.629	2.1818	0.	-1877.6
1258	15.629	2.	0.	-1877.9
1259	15.629	1.8182	0.	-1878.2
1260	15.629	1.6364	0.	-1878.6
1261	15.629	1.4545	0.	-1879.1
1262	15.629	1.2727	0.	-1879.6
1263	15.629	1.0909	0.	-1880.2
1264	15.629	0.90909	0.	-1880.9
1265	15.629	0.72727	0.	-1881.6
1266	15.629	0.54545	0.	-1882.5
1267	15.629	0.36364	0.	-1883.6
1268	15.629	0.18182	0.	-1886.6
1269	15.445	5.8182	0.	-1932.5
1270	15.445	5.6364	0.	-1929.5
1271	15.445	5.4545	0.	-1928.4
1272	15.445	5.2727	0.	-1927.5
1273	15.445	5.0909	0.	-1926.7
1274	15.445	4.9091	0.	-1925.9
1275	15.445	4.7273	0.	-1925.3
1276	15.445	4.5455	0.	-1924.8
1277	15.445	4.3636	0.	-1924.3
1278	15.445	4.1818	0.	-1923.9
1279	15.445	4.	0.	-1923.5
1280	15.445	3.8182	0.	-1923.3
1281	15.445	3.6364	0.	-1923.1
1282	15.445	3.4545	0.	-1922.9
1283	15.445	3.2727	0.	-1922.8
1284	15.445	3.0909	0.	-1922.7
1285	15.445	2.9091	0.	-1922.7
1286	15.445	2.7273	0.	-1922.8
1287	15.445	2.5455	0.	-1922.9
1288	15.445	2.3636	0.	-1923.1
1289	15.445	2.1818	0.	-1923.3
1290	15.445	2.	0.	-1923.5
1291	15.445	1.8182	0.	-1923.9
1292	15.445	1.6364	0.	-1924.3
1293	15.445	1.4545	0.	-1924.8
1294	15.445	1.2727	0.	-1925.3
1295	15.445	1.0909	0.	-1925.9
1296	15.445	0.90909	0.	-1926.7
1297	15.445	0.72727	0.	-1927.5
1298	15.445	0.54545	0.	-1928.4
1299	15.445	0.36364	0.	-1929.5
1300	15.445	0.18182	0.	-1932.5
1301	15.261	5.8182	0.	-1978.6
1302	15.261	5.6364	0.	-1975.5
1303	15.261	5.4545	0.	-1974.4
1304	15.261	5.2727	0.	-1973.5
1305	15.261	5.0909	0.	-1972.6
1306	15.261	4.9091	0.	-1971.9
1307	15.261	4.7273	0.	-1971.2
1308	15.261	4.5455	0.	-1970.7
1309	15.261	4.3636	0.	-1970.2
1310	15.261	4.1818	0.	-1969.7
1311	15.261	4.	0.	-1969.4
1312	15.261	3.8182	0.	-1969.1
1313	15.261	3.6364	0.	-1968.9
1314	15.261	3.4545	0.	-1968.7
1315	15.261	3.2727	0.	-1968.6
1316	15.261	3.0909	0.	-1968.5
1317	15.261	2.9091	0.	-1968.5
1318	15.261	2.7273	0.	-1968.6
1319	15.261	2.5455	0.	-1968.7
1320	15.261	2.3636	0.	-1968.9
1321	15.261	2.1818	0.	-1969.1
1322	15.261	2.	0.	-1969.4
1323	15.261	1.8182	0.	-1969.7
1324	15.261	1.6364	0.	-1970.2
1325	15.261	1.4545	0.	-1970.7
1326	15.261	1.2727	0.	-1971.2
1327	15.261	1.0909	0.	-1971.9
1328	15.261	0.90909	0.	-1972.6
1329	15.261	0.72727	0.	-1973.5
1330	15.261	0.54545	0.	-1974.4
1331	15.261	0.36364	0.	-1975.5
1332	15.261	0.18182	0.	-1978.6
1333	15.077	5.8182	0.	-2024.8
1334	15.077	5.6364	0.	-2021.8
1335	15.077	5.4545	0.	-2020.6
1336	15.077	5.2727	0.	-2019.7
1337	15.077	5.0909	0.	-2018.8
1338	15.077	4.9091	0.	-2018.
1339	15.077	4.7273	0.	-2017.4
1340	15.077	4.5455	0.	-2016.8
1341	15.077	4.3636	0.	-2016.2
1342	15.077	4.1818	0.	-2015.8
1343	15.077	4.	0.	-2015.4
1344	15.077	3.8182	0.	-2015.1
1345	15.077	3.6364	0.	-2014.9
1346	15.077	3.4545	0.	-2014.7
1347	15.077	3.2727	0.	-2014.6
1348	15.077	3.0909	0.	-2014.5
1349	15.077	2.9091	0.	-2014.5
1350	15.077	2.7273	0.	-2014.6
1351	15.077	2.5455	0.	-2014.7
1352	15.077	2.3636	0.	-2014.9
1353	15.077	2.1818	0.	-2015.1
1354	15.077	2.	0.	-2015.4
1355	15.077	1.8182	0.	-2015.8
1356	15.077	1.6364	0.	-2016.2
1357	15.077	1.4545	0.	-2016.8
1358	15.077	1.2727	0.	-2017.4
1359	15.077	1.0909	0.	-2018.
1360	15.077	0.90909	0.	-2018.8
1361	15.077	0.72727	0.	-2019.7
1362	15.077	0.54545	0.	-2020.6
1363	15.077	0.36364	0.	-2021.8
1364	15.077	0.18182	0.	-2024.8
1365	14.894	5.8182	0.	-2071.2
1366	14.894	5.6364	0.	-2068.2
1367	14.894	5.4545	0.	-2067.
1368	14.894	5.2727	0.	-2066.
1369	14.894	5.0909	0.	-2065.2
1370	14.894	4.9091	0.	-2064.4
1371	14.894	4.7273	0.	-2063.7
1372	14.894	4.5455	0.	-2063.1
1373	14.894	4.3636	0.	-2062.5
1374	14.894	4.1818	0.	-2062.1
1375	14.894	4.	0.	-2061.7
1376	14.894	3.8182	0.	-2061.3
1377	14.894	3.6364	0.	-2061.1
1378	14.894	3.4545	0.	-2060.9
1379	14.894	3.2727	0.	-2060.8
1380	14.894	3.0909	0.	-2060.7
1381	14.894	2.9091	0.	-2060.7
1382	14.894	2.7273	0.	-2060.8
1383	14.894	2.5455	0.	-2060.9
1384	14.894	2.3636	0.	-2061.1
1385	14.894	2.1818	0.	-2061.3
1386	14.894	2.	0.	-2061.7
1387	14.894	1.8182	0.	-2062.1
1388	14.894	1.6364	0.	-2062.5
1389	14.894	1.4545	0.	-2063.1
1390	14.894	1.2727	0.	-2063.7
1391	14.894	1.0909	0.	-2064.4
1392	14.894	0.90909	0.	-2065.2
1393	14.894	0.72727	0.	-2066.
1394	14.894	0.54545	0.	-2067.
1395	14.894	0.36364	0.	-2068.2
1396	14.894	0.18182	0.	-2071.2
1397	14.71	5.8182	0.	-2117.8
1398	14.71	5.6364	0.	-2114.8
1399	14.71	5.4545	0.	-2113.6
1400	14.71	5.2727	0.	-2112.6
1401	14.71	5.0909	0.	-2111.7
1402	14.71	4.9091	0.	-2110.9
1403	14.71	4.7273	0.	-2110.2
1404	14.71	4.5455	0.	-2109.5
1405	14.71	4.3636	0.	-2109.
1406	14.71	4.1818	0.	-2108.5
1407	14.71	4.	0.	-2108.1
1408	14.71	3.8182	0.	-2107.8
1409	14.71	3.6364	0.	-2107.5
1410	14.71	3.4545	0.	-2107.3
1411	14.71	3.2727	0.	-2107.2
1412	14.71	3.0909	0.	-2107.1
1413	14.71	2.9091	0.	-2107.1
1414	14.71	2.7273	0.	-2107.2
1415	14.71	2.5455	0.	-2107.3
1416	14.71	2.3636	0.	-2107.5
1417	14.71	2.1818	0.	-2107.8
1418	14.71	2.	0.	-2108.1
1419	14.71	1.8182	0.	-2108.5
1420	14.71	1.6364	0.	-2109.
1421	14.71	1.4545	0.	-2109.5
1422	14.71	1.2727	0.	-2110.2
1423	14.71	1.0909	0.	-2110.9
1424	14.71	0.90909	0.	-2111.7
1425	14.71	0.72727	0.	-2112.6
1426	14.71	0.54545	0.	-2113.6
1427	14.71	0.36364	0.	-2114.8
1428	14.71	0.18182	0.	-2117.8
1429	14.526	5.8182	0.	-2164.6
1430	14.526	5.6364	0.	-2161.6
1431	14.526	5.4545	0.	-2160.4
1432	14.526	5.2727	0.	-2159.4
1433	14.526	5.0909	0.	-2158.5
1434	14.526	4.9091	0.	-2157.6
1435	14.526	4.7273	0.	-2156.9
1436	14.526	4.5455	0.	-2156.2
1437	14.526	4.3636	0.	-2155.7
1438	14.526	4.1818	0.	-2155.2
1439	14.526	4.	0.	-2154.7
1440	14.526	3.8182	0.	-2154.4
1441	14.526	3.6364	0.	-2154.1
1442	14.526	3.4545	0.	-2153.9
1443	14.526	3.2727	0.	-2153.8
1444	14.526	3.0909	0.	-2153.7
1445	14.526	2.9091	0.	-2153.7
1446	14.526	2.7273	0.	-2153.8
1447	14.526	2.5455	0.	-2153.9
1448	14.526	2.3636	0.	-2154.1
1449	14.526	2.1818	0.	-2154.4
1450	14.526	2.	0.	-2154.7
1451	14.526	1.8182	0.	-2155.2
1452	14.526	1.6364	0.	-2155.7
1453	14.526	1.4545	0.	-2156.2
1454	14.526	1.2727	0.	-2156.9
1455	14.526	1.0909	0.	-2157.6
1456	14.526	0.90909	0.	-2158.5
1457	14.526	0.72727	0.	-2159.4
1458	14.526	0.54545	0.	-2160.4
1459	14.526	0.36364	0.	-2161.6
1460	14.526	0.18182	0.	-2164.6
1461	14.342	5.8182	0.	-2211.6
1462	14.342	5.6364	0.	-2208.6
1463	14.342	5.4545	0.	-2207.4
1464	14.342	5.2727	0.	-2206.3
1465	14.342	5.0909	0.	-2205.4
1466	14.342	4.9091	0.	-2204.6
1467	14.342	4.7273	0.	-2203.8
1468	14.342	4.5455	0.	-2203.1
1469	14.342	4.3636	0.	-2202.5
1470	14.342	4.1818	0.	-2202.
1471	14.342	4.	0.	-2201.6
1472	14.342	3.8182	0.	-2201.2
1473	14.342	3.6364	0.	-2200.9
1474	14.342	3.4545	0.	-2200.7
1475	14.342	3.2727	0.	-2200.6
1476	14.342	3.0909	0.	-2200.5
1477	14.342	2.9091	0.	-2200.5
1478	14.342	2.7273	0.	-2200.6
1479	14.342	2.5455	0.	-2200.7
1480	14.342	2.3636	0.	-2200.9
1481	14.342	2.1818	0.	-2201.2
1482	14.342	2.	0.	-2201.6
1483	14.342	1.8182	0.	-2202.
1484	14.342	1.6364	0.	-2202.5
1485	14.342	1.4545	0.	-2203.1
1486	14.342	1.2727	0.	-2203.8
1487	14.342	1.0909	0.	-2204.6
1488	14.342	0.90909	0.	-2205.4
1489	14.342	0.72727	0.	-2206.3
1490	14.342	0.54545	0.	-2207.4
1491	14.342	0.36364	0.	-2208.6
1492	14.342	0.18182	0.	-2211.6
1493	14.158	5.8182	0.	-2258.8
1494	14.158	5.6364	0.	-2255.8
1495	14.158	5.4545	0.	-2254.6
1496	14.158	5.2727	0.	-2253.5
1497	14.158	5.0909	0.	-2252.5
1498	14.158	4.9091	0.	-2251.7
1499	14.158	4.7273	0.	-2250.9
1500	14.158	4.5455	0.	-2250.2
1501	14.158	4.3636	0.	-2249.6
1502	14.158	4.1818	0.	-2249.1
1503	14.158	4.	0.	-2248.6
1504	14.158	3.8182	0.	-2248.2
1505	14.158	3.6364	0.	-2247.9
1506	14.158	3.4545	0.	-2247.7
1507	14.158	3.2727	0.	-2247.6
1508	14.158	3.0909	0.	-2247.5
1509	14.158	2.9091	0.	-2247.5
1510	14.158	2.7273	0.	-2247.6
1511	14.158	2.5455	0.	-2247.7
1512	14.158	2.3636	0.	-2247.9
1513	14.158	2.1818	0.	-2248.2
1514	14.158	2.	0.	-2248.6
1515	14.158	1.8182	0.	-2249.1
1516	14.158	1.6364	0.	-2249.6
1517	14.158	1.4545	0.	-2250.2
1518	14.158	1.2727	0.	-2250.9
1519	14.158	1.0909	0.	-2251.7
1520	14.158	0.90909	0.	-2252.5
1521	14.158	0.72727	0.	-2253.5
1522	14.158	0.54545	0.	-2254.6
1523	14.158	0.36364	0.	-2255.8
1524	14.158	0.18182	0.	-2258.8
1525	13.974	5.8182	0.	-2306.2
1526	13.974	5.6364	0.	-2303.2
1527	13.974	5.4545	0.	-2301.9
1528	13.974	5.2727	0.	-2300.8
1529	13.974	5.0909	0.	-2299.9
1530	13.974	4.9091	0.	-2299.
1531	13.974	4.7273	0.	-2298.2
1532	13.974	4.5455	0.	-2297.5
1533	13.974	4.3636	0.	-2296.8
1534	13.974	4.1818	0.	-2296.3
1535	13.974	4.	0.	-2295.8
1536	13.974	3.8182	0.	-2295.4
1537	13.974	3.6364	0.	-2295.1
1538	13.974	3.4545	0.	-2294.9
1539	13.974	3.2727	0.	-2294.8
1540	13.974	3.0909	0.	-2294.7
1541	13.974	2.9091	0.	-2294.7
1542	13.974	2.7273	0.	-2294.8
1543	13.974	2.5455	0.	-2294.9
1544	13.974	2.3636	0.	-2295.1
1545	13.974	2.1818	0.	-2295.4
1546	13.974	2.	0.	-2295.8
1547	13.974	1.8182	0.	-2296.3
1548	13.974	1.6364	0.	-2296.8
1549	13.974	1.4545	0.	-2297.5
1550	13.974	1.2727	0.	-2298.2
1551	13.974	1.0909	0.	-2299.
1552	13.974	0.90909	0.	-2299.9
1553	13.974	0.72727	0.	-2300.8
1554	13.974	0.54545	0.	-2301.9
1555	13.974	0.36364	0.	-2303.2
1556	13.974	0.18182	0.	-2306.2
1557	13.79	5.8182	0.	-2353.7
1558	13.79	5.6364	0.	-2350.8
1559	13.79	5.4545	0.	-2349.5
1560	13.79	5.2727	0.	-2348.4
1561	13.79	5.0909	0.	-2347.4
1562	13.79	4.9091	0.	-2346.5
1563	13.79	4.7273	0.	-2345.7
1564	13.79	4.5455	0.	-2344.9
1565	13.79	4.3636	0.	-2344.3
1566	13.79	4.1818	0.	-2343.7
1567	13.79	4.	0.	-2343.3
1568	13.79	3.8182	0.	-2342.9
1569	13.79	3.6364	0.	-2342.5
1570	13.79	3.4545	0.	-2342.3
1571	13.79	3.2727	0.	-2342.1
1572	13.79	3.0909	0.	-2342.1
1573	13.79	2.9091	0.	-2342.1
1574	13.79	2.7273	0.	-2342.1
1575	13.79	2.5455	0.	-2342.3
1576	13.79	2.3636	0.	-2342.5
1577	13.79	2.1818	0.	-2342.9
1578	13.79	2.	0.	-2343.3
1579	13.79	1.8182	0.	-2343.7
1580	13.79	1.6364	0.	-2344.3
1581	13.79	1.4545	0.	-2344.9
1582	13.79	1.2727	0.	-2345.7
1583	13.79	1.0909	0.	-2346.5
1584	13.79	0.90909	0.	-2347.4
1585	13.79	0.72727	0.	-2348.4
1586	13.79	0.54545	0.	-2349.5
1587	13.79	0.36364	0.	-2350.8
1588	13.79	0.18182	0.	-2353.7
1589	13.606	5.8182	0.	-2401.5
1590	13.606	5.6364	0.	-2398.6
1591	13.606	5.4545	0.	-2397.3
1592	13.606	5.2727	0.	-2396.1
1593	13.606	5.0909	0.	-2395.1
1594	13.606	4.9091	0.	-2394.2
1595	13.606	4.7273	0.	-2393.4
1596	13.606	4.5455	0.	-2392.6
1597	13.606	4.3636	0.	-2391.9
1598	13.606	4.1818	0.	-2391.4
1599	13.606	4.	0.	-2390.9
1600	13.606	3.8182	0.	-2390.5
1601	13.606	3.6364	0.	-2390.1
1602	13.606	3.4545	0.	-2389.9
1603	13.606	3.2727	0.	-2389.7
1604	13.606	3.0909	0.	-2389.6
1605	13.606	2.9091	0.	-2389.6
1606	13.606	2.7273	0.	-2389.7
1607	13.606	2.5455	0.	-2389.9
1608	13.606	2.3636	0.	-2390.1
1609	13.606	2.1818	0.	-2390.5
1610	13.606	2.	0.	-2390.9
1611	13.606	1.8182	0.	-2391.4
1612	13.606	1.6364	0.	-2391.9
1613	13.606	1.4545	0.	-2392.6
1614	13.606	1.2727	0.	-2393.4
1615	13.606	1.0909	0.	-2394.2
1616	13.606	0.90909	0.	-2395.1
1617	13.606	0.72727	0.	-2396.1
1618	13.606	0.54545	0.	-2397.3
1619	13.606	0.36364	0.	-2398.6
1620	13.606	0.18182	0.	-2401.5
1621	13.423	5.8182	0.	-2449.5
1622	13.423	5.6364	0.	-2446.5
1623	13.423	5.4545	0.	-2445.2
1624	13.423	5.2727	0.	-2444.1
1625	13.423	5.0909	0.	-2443.1
1626	13.423	4.9091	0.	-2442.1
1627	13.423	4.7273	0.	-2441.2
1628	13.423	4.5455	0.	-2440.5
1629	13.423	4.3636	0.	-2439.8
1630	13.423	4.1818	0.	-2439.2
1631	13.423	4.	0.	-2438.7
1632	13.423	3.8182	0.	-2438.3
1633	13.423	3.6364	0.	-2437.9
1634	13.423	3.4545	0.	-2437.7
1635	13.423	3.2727	0.	-2437.5
1636	13.423	3.0909	0.	-2437.4
1637	13.423	2.9091	0.	-2437.4
1638	13.423	2.7273	0.	-2437.5
1639	13.423	2.5455	0.	-2437.7
1640	13.423	2.3636	0.	-2437.9
1641	13.423	2.1818	0.	-2438.3
1642	13.423	2.	0.	-2438.7
1643	13.423	1.8182	0.	-2439.2
1644	13.423	1.6364	0.	-2439.8
1645	13.423	1.4545	0.	-2440.5
1646	13.423	1.2727	0.	-2441.2
1647	13.423	1.0909	0.	-2442.1
1648	13.423	0.90909	0.	-2443.1
1649	13.423	0.72727	0.	-2444.1
1650	13.423	0.54545	0.	-2445.2
1651	13.423	0.36364	0.	-2446.5
1652	13.423	0.18182	0.	-2449.5
1653	13.239	5.8182	0.	-2497.7
1654	13.239	5.6364	0.	-2494.7
1655	13.239	5.4545	0.	-2493.4
1656	13.239	5.2727	0.	-2492.2
1657	13.239	5.0909	0.	-2491.2
1658	13.239	4.9091	0.	-2490.2
1659	13.239	4.7273	0.	-2489.3
1660	13.239	4.5455	0.	-2488.5
1661	13.239	4.3636	0.	-2487.8
1662	13.239	4.1818	0.	-2487.2
1663	13.239	4.	0.	-2486.7
1664	13.239	3.8182	0.	-2486.3
1665	13.239	3.6364	0.	-2485.9
1666	13.239	3.4545	0.	-2485.6
1667	13.239	3.2727	0.	-2485.5
1668	13.239	3.0909	0.	-2485.4
1669	13.239	2.9091	0.	-2485.4
1670	13.239	2.7273	0.	-2485.5
1671	13.239	2.5455	0.	-2485.6
1672	13.239	2.3636	0.	-2485.9
1673	13.239	2.1818	0.	-2486.3
1674	13.239	2.	0.	-2486.7
1675	13.239	1.8182	0.	-2487.2
1676	13.239	1.6364	0.	-2487.8
1677	13.239	1.4545	0.	-2488.5
1678	13.239	1.2727	0.	-2489.3
1679	13.239	1.0909	0.	-2490.2
1680	13.239	0.90909	0.	-2491.2
1681	13.239	0.72727	0.	-2492.2
1682	13.239	0.54545	0.	-2493.4
1683	13.239	0.36364	0.	-2494.7
1684	13.239	0.18182	0.	-2497.7
1685	13.055	5.8182	0.	-2546.1
1686	13.055	5.6364	0.	-2543.1
1687	13.055	5.4545	0.	-2541.8
1688	13.055	5.2727	0.	-2540.6
1689	13.055	5.0909	0.	-2539.5
1690	13.055	4.9091	0.	-2538.5
1691	13.055	4.7273	0.	-2537.6
1692	13.055	4.5455	0.	-2536.8
1693	13.055	4.3636	0.	-2536.1
1694	13.055	4.1818	0.	-2535.4
1695	13.055	4.	0.	-2534.9
1696	13.055	3.8182	0.	-2534.4
1697	13.055	3.6364	0.	-2534.1
1698	13.055	3.4545	0.	-2533.8
1699	13.055	3.2727	0.	-2533.6
1700	13.055	3.0909	0.	-2533.5
1701	13.055	2.9091	0.	-2533.5
1702	13.055	2.7273	0.	-2533.6
1703	13.055	2.5455	0.	-2533.8
1704	13.055	2.3636	0.	-2534.1
1705	13.055	2.1818	0.	-2534.4
1706	13.055	2.	0.	-2534.9
1707	13.055	1.8182	0.	-2535.4
1708	13.055	1.6364	0.	-2536.1
1709	13.055	1.4545	0.	-2536.8
1710	13.055	1.2727	0.	-2537.6
1711	13.055	1.0909	0.	-2538.5
1712	13.055	0.90909	0.	-2539.5
1713	13.055	0.72727	0.	-2540.6
1714	13.055	0.54545	0.	-2541.8
1715	13.055	0.36364	0.	-2543.1
1716	13.055	0.18182	0.	-2546.1
1717	12.871	5.8182	0.	-2594.7
1718	12.871	5.6364	0.	-2591.7
1719	12.871	5.4545	0.	-2590.3
1720	12.871	5.2727	0.	-2589.1
1721	12.871	5.0909	0.	-2588.
1722	12.871	4.9091	0.	-2587.
1723	12.871	4.7273	0.	-2586.1
1724	12.871	4.5455	0.	-2585.2
1725	12.871	4.3636	0.	-2584.5
1726	12.871	4.1818	0.	-2583.8
1727	12.871	4.	0.	-2583.3
1728	12.871	3.8182	0.	-2582.8
1729	12.871	3.6364	0.	-2582.4
1730	12.871	3.4545	0.	-2582.2
1731	12.871	3.2727	0.	-2582.
1732	12.871	3.0909	0.	-2581.9
1733	12.871	2.9091	0.	-2581.9
1734	12.871	2.7273	0.	-2582.
1735	12.871	2.5455	0.	-2582.2
1736	12.871	2.3636	0.	-2582.4
1737	12.871	2.1818	0.	-2582.8
1738	12.871	2.	0.	-2583.3
1739	12.871	1.8182	0.	-2583.8
1740	12.871	1.6364	0.	-2584.5
1741	12.871	1.4545	0.	-2585.2
1742	12.871	1.2727	0.	-2586.1
1743	12.871	1.0909	0.	-2587.
1744	12.871	0.90909	0.	-2588.
1745	12.871	0.72727	0.	-2589.1
1746	12.871	0.54545	0.	-2590.3
1747	12.871	0.36364	0.	-2591.7
1748	12.871	0.18182	0.	-2594.7
1749	12.687	5.8182	0.	-2643.5
1750	12.687	5.6364	0.	-2640.5
1751	12.687	5.4545	0.	-2639.1
1752	12.687	5.2727	0.	-2637.9
1753	12.687	5.0909	0.	-2636.7
1754	12.687	4.9091	0.	-2635.7
1755	12.687	4.7273	0.	-2634.7
1756	12.687	4.5455	0.	-2633.9
1757	12.687	4.3636	0.	-2633.1
1758	12.687	4.1818	0.	-2632.4
1759	12.687	4.	0.	-2631.9
1760	12.687	3.8182	0.	-2631.4
1761	12.687	3.6364	0.	-2631.
1762	12.687	3.4545	0.	-2630.7
1763	12.687	3.2727	0.	-2630.5
1764	12.687	3.0909	0.	-2630.4
1765	12.687	2.9091	0.	-2630.4
1766	12.687	2.7273	0.	-2630.5
1767	12.687	2.5455	0.	-2630.7
1768	12.687	2.3636	0.	-2631.
1769	12.687	2.1818	0.	-2631.4
1770	12.687	2.	0.	-2631.9
1771	12.687	1.8182	0.	-2632.4
1772	12.687	1.6364	0.	-2633.1
1773	12.687	1.4545	0.	-2633.9
1774	12.687	1.2727	0.	-2634.7
1775	12.687	1.0909	0.	-2635.7
1776	12.687	0.90909	0.	-2636.7
1777	12.687	0.72727	0.	-2637.9
1778	12.687	0.54545	0.	-2639.1
1779	12.687	0.36364	0.	-2640.5
1780	12.687	0.18182	0.	-2643.5
1781	12.503	5.8182	0.	-2692.5
1782	12.503	5.6364	0.	-2689.5
1783	12.503	5.4545	0.	-2688.1
1784	12.503	5.2727	0.	-2686.8
1785	12.503	5.0909	0.	-2685.7
1786	12.503	4.9091	0.	-2684.6
1787	12.503	4.7273	0.	-2683.6
1788	12.503	4.5455	0.	-2682.7
1789	12.503	4.3636	0.	-2681.9
1790	12.503	4.1818	0.	-2681.2
1791	12.503	4.	0.	-2680.6
1792	12.503	3.8182	0.	-2680.2
1793	12.503	3.6364	0.	-2679.8
1794	12.503	3.4545	0.	-2679.5
1795	12.503	3.2727	0.	-2679.3
1796	12.503	3.0909	0.	-2679.2
1797	12.503	2.9091	0.	-2679.2
1798	12.503	2.7273	0.	-2679.3
1799	12.503	2.5455	0.	-2679.5
1800	12.503	2.3636	0.	-2679.8
1801	12.503	2.1818	0.	-2680.2
1802	12.503	2.	0.	-2680.6
1803	12.503	1.8182	0.	-2681.2
1804	12.503	1.6364	0.	-2681.9
1805	12.503	1.4545	0.	-2682.7
1806	12.503	1.2727	0.	-2683.6
1807	12.503	1.0909	0.	-2684.6
1808	12.503	0.90909	0.	-2685.7
1809	12.503	0.72727	0.	-2686.8
1810	12.503	0.54545	0.	-2688.1
1811	12.503	0.36364	0.	-2689.5
1812	12.503	0.18182	0.	-2692.5
1813	12.319	5.8182	0.	-2741.7
1814	12.319	5.6364	0.	-2738.7
1815	12.319	5.4545	0.	-2737.3
1816	12.319	5.2727	0.	-2736.
1817	12.319	5.0909	0.	-2734.8
1818	12.319	4.9091	0.	-2733.7
1819	12.319	4.7273	0.	-2732.7
1820	12.319	4.5455	0.	-2731.8
1821	12.319	4.3636	0.	-2730.9
1822	12.319	4.1818	0.	-2730.2
1823	12.319	4.	0.	-2729.6
1824	12.319	3.8182	0.	-2729.1
1825	12.319	3.6364	0.	-2728.7
1826	12.319	3.4545	0.	-2728.4
1827	12.319	3.2727	0.	-2728.2
1828	12.319	3.0909	0.	-2728.1
1829	12.319	2.9091	0.	-2728.1
1830	12.319	2.7273	0.	-2728.2
1831	12.319	2.5455	0.	-2728.4
1832	12.319	2.3636	0.	-2728.7
1833	12.319	2.1818	0.	-2729.1
1834	12.319	2.	0.	-2729.6
1835	12.319	1.8182	0.	-2730.2
1836	12.319	1.6364	0.	-2730.9
1837	12.319	1.4545	0.	-2731.8
1838	12.319	1.2727	0.	-2732.7
1839	12.319	1.0909	0.	-2733.7
1840	12.319	0.90909	0.	-2734.8
1841	12.319	0.72727	0.	-2736.
1842	12.319	0.54545	0.	-2737.3
1843	12.319	0.36364	0.	-2738.7
1844	12.319	0.18182	0.	-2741.7
1845	12.135	5.8182	0.	-2791.1
1846	12.135	5.6364	0.	-2788.1
1847	12.135	5.4545	0.	-2786.7
1848	12.135	5.2727	0.	-2785.3
1849	12.135	5.0909	0.	-2784.1
1850	12.135	4.9091	0.	-2783.
1851	12.135	4.7273	0.	-2781.9
1852	12.135	4.5455	0.	-2781.
1853	12.135	4.3636	0.	-2780.1
1854	12.135	4.1818	0.	-2779.4
1855	12.135	4.	0.	-2778.8
1856	12.135	3.8182	0.	-2778.2
1857	12.135	3.6364	0.	-2777.8
1858	12.135	3.4545	0.	-2777.5
1859	12.135	3.2727	0.	-2777.3
1860	12.135	3.0909	0.	-2777.2
1861	12.135	2.9091	0.	-2777.2
1862	12.135	2.7273	0.	-2777.3
1863	12.135	2.5455	0.	-2777.5
1864	12.135	2.3636	0.	-2777.8
1865	12.135	2.1818	0.	-2778.2
1866	12.135	2.	0.	-2778.8
1867	12.135	1.8182	0.	-2779.4
1868	12.135	1.6364	0.	-2780.1
1869	12.135	1.4545	0.	-2781.
1870	12.135	1.2727	0.	-2781.9
1871	12.135	1.0909	0.	-2783.
1872	12.135	0.90909	0.	-2784.1
1873	12.135	0.72727	0.	-2785.3
1874	12.135	0.54545	0.	-2786.7
1875	12.135	0.36364	0.	-2788.1
1876	12.135	0.18182	0.	-2791.1
1877	11.952	5.8182	0.	-2840.8
1878	11.952	5.6364	0.	-2837.8
1879	11.952	5.4545	0.	-2836.2
1880	11.952	5.2727	0.	-2834.9
1881	11.952	5.0909	0.	-2833.6
1882	11.952	4.9091	0.	-2832.5
1883	11.952	4.7273	0.	-2831.4
1884	11.952	4.5455	0.	-2830.4
1885	11.952	4.3636	0.	-2829.5
1886	11.952	4.1818	0.	-2828.8
1887	11.952	4.	0.	-2828.1
1888	11.952	3.8182	0.	-2827.6
1889	11.952	3.6364	0.	-2827.1
1890	11.952	3.4545	0.	-2826.8
1891	11.952	3.2727	0.	-2826.6
1892	11.952	3.0909	0.	-2826.4
1893	11.952	2.9091	0.	-2826.4
1894	11.952	2.7273	0.	-2826.6
1895	11.952	2.5455	0.	-2826.8
1896	11.952	2.3636	0.	-2827.1
1897	11.952	2.1818	0.	-2827.6
1898	11.952	2.	0.	-2828.1
1899	11.952	1.8182	0.	-2828.8
1900	11.952	1.6364	0.	-2829.5
1901	11.952	1.4545	0.	-2830.4
1902	11.952	1.2727	0.	-2831.4
1903	11.952	1.0909	0.	-2832.5
1904	11.952	0.90909	0.	-2833.6
1905	11.952	0.72727	0.	-2834.9
1906	11.952	0.54545	0.	-2836.2
1907	11.952	0.36364	0.	-2837.8
1908	11.952	0.18182	0.	-2840.8
1909	11.768	5.8182	0.	-2890.6
1910	11.768	5.6364	0.	-2887.6
1911	11.768	5.4545	0.	-2886.1
1912	11.768	5.2727	0.	-2884.7
1913	11.768	5.0909	0.	-2883.4
1914	11.768	4.9091	0.	-2882.1
1915	11.768	4.7273	0.	-2881.
1916	11.768	4.5455	0.	-2880.
1917	11.768	4.3636	0.	-2879.1
1918	11.768	4.1818	0.	-2878.3
1919	11.768	4.	0.	-2877.6
1920	11.768	3.8182	0.	-2877.1
1921	11.768	3.6364	0.	-2876.6
1922	11.768	3.4545	0.	-2876.3
1923	11.768	3.2727	0.	-2876.
1924	11.768	3.0909	0.	-2875.9
1925	11.768	2.9091	0.	-2875.9
1926	11.768	2.7273	0.	-2876.
1927	11.768	2.5455	0.	-2876.3
1928	11.768	2.3636	0.	-2876.6
1929	11.768	2.1818	0.	-2877.1
1930	11.768	2.	0.	-2877.6
1931	11.768	1.8182	0.	-2878.3
1932	11.768	1.6364	0.	-2879.1
1933	11.768	1.4545	0.	-2880.
1934	11.768	1.2727	0.	-2881.
1935	11.768	1.0909	0.	-2882.1
1936	11.768	0.90909	0.	-2883.4
1937	11.768	0.72727	0.	-2884.7
1938	11.768	0.54545	0.	-2886.1
1939	11.768	0.36364	0.	-2887.6
1940	11.768	0.18182	0.	-2890.6
1941	11.584	5.8182	0.	-2940.7
1942	11.584	5.6364	0.	-2937.7
1943	11.584	5.4545	0.	-2936.1
1944	11.584	5.2727	0.	-2934.6
1945	11.584	5.0909	0.	-2933.3
1946	11.584	4.9091	0.	-2932.
1947	11.584	4.7273	0.	-2930.9
1948	11.584	4.5455	0.	-2929.8
1949	11.584	4.3636	0.	-2928.9
1950	11.584	4.1818	0.	-2928.1
1951	11.584	4.	0.	-2927.4
1952	11.584	3.8182	0.	-2926.8
1953	11.584	3.6364	0.	-2926.3
1954	11.584	3.4545	0.	-2925.9
1955	11.584	3.2727	0.	-2925.7
1956	11.584	3.0909	0.	-2925.6
1957	11.584	2.9091	0.	-2925.6
1958	11.584	2.7273	0.	-2925.7
1959	11.584	2.5455	0.	-2925.9
1960	11.584	2.3636	0.	-2926.3
1961	11.584	2.1818	0.	-2926.8
1962	11.584	2.	0.	-2927.4
1963	11.584	1.8182	0.	-2928.1
1964	11.584	1.6364	0.	-2928.9
1965	11.584	1.4545	0.	-2929.8
1966	11.584	1.2727	0.	-2930.9
1967	11.584	1.0909	0.	-2932.
1968	11.584	0.90909	0.	-2933.3
1969	11.584	0.72727	0.	-2934.6
1970	11.584	0.54545	0.	-2936.1
1971	11.584	0.36364	0.	-2937.7
1972	11.584	0.18182	0.	-2940.7
1973	11.4	5.8182	0.	-2991.
1974	11.4	5.6364	0.	-2987.9
1975	11.4	5.4545	0.	-2986.3
1976	11.4	5.2727	0.	-2984.8
1977	11.4	5.0909	0.	-2983.4
1978	11.4	4.9091	0.	-2982.1
1979	11.4	4.7273	0.	-2980.9
1980	11.4	4.5455	0.	-2979.8
1981	11.4	4.3636	0.	-2978.9
1982	11.4	4.1818	0.	-2978.
1983	11.4	4.	0.	-2977.3
1984	11.4	3.8182	0.	-2976.6
1985	11.4	3.6364	0.	-2976.1
1986	11.4	3.4545	0.	-2975.8
1987	11.4	3.2727	0.	-2975.5
1988	11.4	3.0909	0.	-2975.4
1989	11.4	2.9091	0.	-2975.4
1990	11.4	2.7273	0.	-2975.5
1991	11.4	2.5455	0.	-2975.8
1992	11.4	2.3636	0.	-2976.1
1993	11.4	2.1818	0.	-2976.6
1994	11.4	2.	0.	-2977.3
1995	11.4	1.8182	0.	-2978.
1996	11.4	1.6364	0.	-2978.9
1997	11.4	1.4545	0.	-2979.8
1998	11.4	1.2727	0.	-2980.9
1999	11.4	1.0909	0.	-2982.1
2000	11.4	0.90909	0.	-2983.4
2001	11.4	0.72727	0.	-2984.8
2002	11.4	0.54545	0.	-2986.3
2003	11.4	0.36364	0.	-2987.9
2004	11.4	0.18182	0.	-2991.
2005	11.216	5.8182	0.	-3041.5
2006	11.216	5.6364	0.	-3038.4
2007	11.216	5.4545	0.	-3036.7
2008	11.216	5.2727	0.	-3035.2
2009	11.216	5.0909	0.	-3033.7
2010	11.216	4.9091	0.	-3032.4
2011	11.216	4.7273	0.	-3031.2
2012	11.216	4.5455	0.	-3030.
2013	11.216	4.3636	0.	-3029.
2014	11.216	4.1818	0.	-3028.1
2015	11.216	4.	0.	-3027.4
2016	11.216	3.8182	0.	-3026.7
2017	11.216	3.6364	0.	-3026.2
2018	11.216	3.4545	0.	-3025.8
2019	11.216	3.2727	0.	-3025.5
2020	11.216	3.0909	0.	-3025.4
2021	11.216	2.9091	0.	-3025.4
2022	11.216	2.7273	0.	-3025.5
2023	11.216	2.5455	0.	-3025.8
2024	11.216	2.3636	0.	-3026.2
2025	11.216	2.1818	0.	-3026.7
2026	11.216	2.	0.	-3027.4
2027	11.216	1.8182	0.	-3028.1
2028	11.216	1.6364	0.	-3029.
2029	11.216	1.4545	0.	-3030.
2030	11.216	1.2727	0.	-3031.2
2031	11.216	1.0909	0.	-3032.4
2032	11.216	0.90909	0.	-3033.7
2033	11.216	0.72727	0.	-3035.2
2034	11.216	0.54545	0.	-3036.7
2035	11.216	0.36364	0.	-3038.4
2036	11.216	0.18182	0.	-3041.5
2037	11.032	5.8182	0.	-3092.2
2038	11.032	5.6364	0.	-3089.1
2039	11.032	5.4545	0.	-3087.4
2040	11.032	5.2727	0.	-3085.8
2041	11.032	5.0909	0.	-3084.3
2042	11.032	4.9091	0.	-3082.9
2043	11.032	4.7273	0.	-3081.6
2044	11.032	4.5455	0.	-3080.4
2045	11.032	4.3636	0.	-3079.4
2046	11.032	4.1818	0.	-3078.4
2047	11.032	4.	0.	-3077.6
2048	11.032	3.8182	0.	-3076.9
2049	11.032	3.6364	0.	-3076.4
2050	11.032	3.4545	0.	-3076.
2051	11.032	3.2727	0.	-3075.7
2052	11.032	3.0909	0.	-3075.6
2053	11.032	2.9091	0.	-3075.6
2054	11.032	2.7273	0.	-3075.7
2055	11.032	2.5455	0.	-3076.
2056	11.032	2.3636	0.	-3076.4
2057	11.032	2.1818	0.	-3076.9
2058	11.032	2.	0.	-3077.6
2059	11.032	1.8182	0.	-3078.4
2060	11.032	1.6364	0.	-3079.4
2061	11.032	1.4545	0.	-3080.4
2062	11.032	1.2727	0.	-3081.6
2063	11.032	1.0909	0.	-3082.9
2064	11.032	0.90909	0.	-3084.3
2065	11.032	0.72727	0.	-3085.8
2066	11.032	0.54545	0.	-3087.4
2067	11.032	0.36364	0.	-3089.1
2068	11.032	0.18182	0.	-3092.2
2069	10.848	5.8182	0.	-3143.2
2070	10.848	5.6364	0.	-3140.1
2071	10.848	5.4545	0.	-3138.2
2072	10.848	5.2727	0.	-3136.6
2073	10.848	5.0909	0.	-3135.
2074	10.848	4.9091	0.	-3133.6
2075	10.848	4.7273	0.	-3132.2
2076	10.848	4.5455	0.	-3131.
2077	10.848	4.3636	0.	-3129.9
2078	10.848	4.1818	0.	-3128.9
2079	10.848	4.	0.	-3128.1
2080	10.848	3.8182	0.	-3127.4
2081	10.848	3.6364	0.	-3126.8
2082	10.848	3.4545	0.	-3126.4
2083	10.848	3.2727	0.	-3126.1
2084	10.848	3.0909	0.	-3125.9
2085	10.848	2.9091	0.	-3125.9
2086	10.848	2.7273	0.	-3126.1
2087	10.848	2.5455	0.	-3126.4
2088	10.848	2.3636	0.	-3126.8
2089	10.848	2.1818	0.	-3127.4
2090	10.848	2.	0.	-3128.1
2091	10.848	1.8182	0.	-3128.9
2092	10.848	1.6364	0.	-3129.9
2093	10.848	1.4545	0.	-3131.
2094	10.848	1.2727	0.	-3132.2
2095	10.848	1.0909	0.	-3133.6
2096	10.848	0.90909	0.	-3135.
2097	10.848	0.72727	0.	-3136.6
2098	10.848	0.54545	0.	-3138.2
2099	10.848	0.36364	0.	-3140.1
2100	10.848	0.18182	0.	-3143.2
2101	10.665	5.8182	0.	-3194.4
2102	10.665	5.6364	0.	-3191.2
2103	10.665	5.4545	0.	-3189.3
2104	10.665	5.2727	0.	-3187.6
2105	10.665	5.0909	0.	-3186.
2106	10.665	4.9091	0.	-3184.5
2107	10.665	4.7273	0.	-3183.1
2108	10.665	4.5455	0.	-3181.8
2109	10.665	4.3636	0.	-3180.6
2110	10.665	4.1818	0.	-3179.6
2111	10.665	4.	0.	-3178.7
2112	10.665	3.8182	0.	-3178.
2113	10.665	3.6364	0.	-3177.4
2114	10.665	3.4545	0.	-3176.9
2115	10.665	3.2727	0.	-3176.6
2116	10.665	3.0909	0.	-3176.4
2117	10.665	2.9091	0.	-3176.4
2118	10.665	2.7273	0.	-3176.6
2119	10.665	2.5455	0.	-3176.9
2120	10.665	2.3636	0.	-3177.4
2121	10.665	2.1818	0.	-3178.
2122	10.665	2.	0.	-3178.7
2123	10.665	1.8182	0.	-3179.6
2124	10.665	1.6364	0.	-3180.6
2125	10.665	1.4545	0.	-3181.8
2126	10.665	1.2727	0.	-3183.1
2127	10.665	1.0909	0.	-3184.5
2128	10.665	0.90909	0.	-3186.
2129	10.665	0.72727	0.	-3187.6
2130	10.665	0.54545	0.	-3189.3
2131	10.665	0.36364	0.	-3191.2
2132	10.665	0.18182	0.	-3194.4
2133	10.481	5.8182	0.	-3245.8
2134	10.481	5.6364	0.	-3242.6
2135	10.481	5.4545	0.	-3240.6
2136	10.481	5.2727	0.	-3238.8
2137	10.481	5.0909	0.	-3237.1
2138	10.481	4.9091	0.	-3235.6
2139	10.481	4.7273	0.	-3234.1
2140	10.481	4.5455	0.	-3232.7
2141	10.481	4.3636	0.	-3231.5
2142	10.481	4.1818	0.	-3230.4
2143	10.481	4.	0.	-3229.5
2144	10.481	3.8182	0.	-3228.7
2145	10.481	3.6364	0.	-3228.1
2146	10.481	3.4545	0.	-3227.6
2147	10.481	3.2727	0.	-3227.3
2148	10.481	3.0909	0.	-3227.1
2149	10.481	2.9091	0.	-3227.1
2150	10.481	2.7273	0.	-3227.3
2151	10.481	2.5455	0.	-3227.6
2152	10.481	2.3636	0.	-3228.1
2153	10.481	2.1818	0.	-3228.7
2154	10.481	2.	0.	-3229.5
2155	10.481	1.8182	0.	-3230.4
2156	10.481	1.6364	0.	-3231.5
2157	10.481	1.4545	0.	-3232.7
2158	10.481	1.2727	0.	-3234.1
2159	10.481	1.0909	0.	-3235.6
2160	10.481	0.90909	0.	-3237.1
2161	10.481	0.72727	0.	-3238.8
2162	10.481	0.54545	0.	-3240.6
2163	10.481	0.36364	0.	-3242.6
2164	10.481	0.18182	0.	-3245.8
2165	10.297	5.8182	0.	-3297.5
2166	10.297	5.6364	0.	-3294.2
2167	10.297	5.4545	0.	-3292.2
2168	10.297	5.2727	0.	-3290.3
2169	10.297	5.0909	0.	-3288.5
2170	10.297	4.9091	0.	-3286.8
2171	10.297	4.7273	0.	-3285.3
2172	10.297	4.5455	0.	-3283.9
2173	10.297	4.3636	0.	-3282.6
2174	10.297	4.1818	0.	-3281.5
2175	10.297	4.	0.	-3280.5
2176	10.297	3.8182	0.	-3279.7
2177	10.297	3.6364	0.	-3279.
2178	10.297	3.4545	0.	-3278.5
2179	10.297	3.2727	0.	-3278.2
2180	10.297	3.0909	0.	-3278.
2181	10.297	2.9091	0.	-3278.
2182	10.297	2.7273	0.	-3278.2
2183	10.297	2.5455	0.	-3278.5
2184	10.297	2.3636	0.	-3279.
2185	10.297	2.1818	0.	-3279.7
2186	10.297	2.	0.	-3280.5
2187	10.297	1.8182	0.	-3281.5
2188	10.297	1.6364	0.	-3282.6
2189	10.297	1.4545	0.	-3283.9
2190	10.297	1.2727	0.	-3285.3
2191	10.297	1.0909	0.	-3286.8
2192	10.297	0.90909	0.	-3288.5
2193	10.297	0.72727	0.	-3290.3
2194	10.297	0.54545	0.	-3292.2
2195	10.297	0.36364	0.	-3294.2
2196	10.297	0.18182	0.	-3297.5
2197	10.113	5.8182	0.	-3349.4
2198	10.113	5.6364	0.	-3346.
2199	10.113	5.4545	0.	-3343.9
2200	10.113	5.2727	0.	-3342.
2201	10.113	5.0909	0.	-3340.1
2202	10.113	4.9091	0.	-3338.3
2203	10.113	4.7273	0.	-3336.7
2204	10.113	4.5455	0.	-3335.2
2205	10.113	4.3636	0.	-3333.9
2206	10.113	4.1818	0.	-3332.7
2207	10.113	4.	0.	-3331.7
2208	10.113	3.8182	0.	-3330.8
2209	10.113	3.6364	0.	-3330.1
2210	10.113	3.4545	0.	-3329.5
2211	10.113	3.2727	0.	-3329.2
2212	10.113	3.0909	0.	-3329.
2213	10.113	2.9091	0.	-3329.
2214	10.113	2.7273	0.	-3329.2
2215	10.113	2.5455	0.	-3329.5
2216	10.113	2.3636	0.	-3330.1
2217	10.113	2.1818	0.	-3330.8
2218	10.113	2.	0.	-3331.7
2219	10.113	1.8182	0.	-3332.7
2220	10.113	1.6364	0.	-3333.9
2221	10.113	1.4545	0.	-3335.2
2222	10.113	1.2727	0.	-3336.7
2223	10.113	1.0909	0.	-3338.3
2224	10.113	0.90909	0.	-3340.1
2225	10.113	0.72727	0.	-3342.
2226	10.113	0.54545	0.	-3343.9
2227	10.113	0.36364	0.	-3346.
2228	10.113	0.18182	0.	-3349.4
2229	9.929	5.8182	0.	-3401.5
2230	9.929	5.6364	0.	-3398.1
2231	9.929	5.4545	0.	-3395.9
2232	9.929	5.2727	0.	-3393.8
2233	9.929	5.0909	0.	-3391.9
2234	9.929	4.9091	0.	-3390.
2235	9.929	4.7273	0.	-3388.3
2236	9.929	4.5455	0.	-3386.8
2237	9.929	4.3636	0.	-3385.3
2238	9.929	4.1818	0.	-3384.1
2239	9.929	4.	0.	-3383.
2240	9.929	3.8182	0.	-3382.1
2241	9.929	3.6364	0.	-3381.3
2242	9.929	3.4545	0.	-3380.8
2243	9.929	3.2727	0.	-3380.4
2244	9.929	3.0909	0.	-3380.2
2245	9.929	2.9091	0.	-3380.2
2246	9.929	2.7273	0.	-3380.4
2247	9.929	2.5455	0.	-3380.8
2248	9.929	2.3636	0.	-3381.3
2249	9.929	2.1818	0.	-3382.1
2250	9.929	2.	0.	-3383.
2251	9.929	1.8182	0.	-3384.1
2252	9.929	1.6364	0.	-3385.3
2253	9.929	1.4545	0.	-3386.8
2254	9.929	1.2727	0.	-3388.3
2255	9.929	1.0909	0.	-3390.
2256	9.929	0.90909	0.	-3391.9
2257	9.929	0.72727	0.	-3393.8
2258	9.929	0.54545	0.	-3395.9
2259	9.929	0.36364	0.	-3398.1
2260	9.929	0.18182	0.	-3401.5
2261	9.7452	5.8182	0.	-3453.9
2262	9.7452	5.6364	0.	-3450.4
2263	9.7452	5.4545	0.	-3448.1
2264	9.7452	5.2727	0.	-3445.9
2265	9.7452	5.0909	0.	-3443.9
2266	9.7452	4.9091	0.	-3441.9
2267	9.7452	4.7273	0.	-3440.1
2268	9.7452	4.5455	0.	-3438.5
2269	9.7452	4.3636	0.	-3437.
2270	9.7452	4.1818	0.	-3435.7
2271	9.7452	4.	0.	-3434.5
2272	9.7452	3.8182	0.	-3433.5
2273	9.7452	3.6364	0.	-3432.7
2274	9.7452	3.4545	0.	-3432.1
2275	9.7452	3.2727	0.	-3431.7
2276	9.7452	3.0909	0.	-3431.5
2277	9.7452	2.9091	0.	-3431.5
2278	9.7452	2.7273	0.	-3431.7
2279	9.7452	2.5455	0.	-3432.1
2280	9.7452	2.3636	0.	-3432.7
2281	9.7452	2.1818	0.	-3433.5
2282	9.7452	2.	0.	-3434.5
2283	9.7452	1.8182	0.	-3435.7
2284	9.7452	1.6364	0.	-3437.
2285	9.7452	1.4545	0.	-3438.5
2286	9.7452	1.2727	0.	-3440.1
2287	9.7452	1.0909	0.	-3441.9
2288	9.7452	0.90909	0.	-3443.9
2289	9.7452	0.72727	0.	-3445.9
2290	9.7452	0.54545	0.	-3448.1
2291	9.7452	0.36364	0.	-3450.4
2292	9.7452	0.18182	0.	-3453.9
2293	9.5613	5.8182	0.	-3506.5
2294	9.5613	5.6364	0.	-3503.
2295	9.5613	5.4545	0.	-3500.6
2296	9.5613	5.2727	0.	-3498.3
2297	9.5613	5.0909	0.	-3496.1
2298	9.5613	4.9091	0.	-3494.1
2299	9.5613	4.7273	0.	-3492.2
2300	9.5613	4.5455	0.	-3490.4
2301	9.5613	4.3636	0.	-3488.8
2302	9.5613	4.1818	0.	-3487.4
2303	9.5613	4.	0.	-3486.2
2304	9.5613	3.8182	0.	-3485.1
2305	9.5613	3.6364	0.	-3484.3
2306	9.5613	3.4545	0.	-3483.7
2307	9.5613	3.2727	0.	-3483.2
2308	9.5613	3.0909	0.	-3483.
2309	9.5613	2.9091	0.	-3483.
2310	9.5613	2.7273	0.	-3483.2
2311	9.5613	2.5455	0.	-3483.7
2312	9.5613	2.3636	0.	-3484.3
2313	9.5613	2.1818	0.	-3485.1
2314	9.5613	2.	0.	-3486.2
2315	9.5613	1.8182	0.	-3487.4
2316	9.5613	1.6364	0.	-3488.8
2317	9.5613	1.4545	0.	-3490.4
2318	9.5613	1.2727	0.	-3492.2
2319	9.5613	1.0909	0.	-3494.1
2320	9.5613	0.90909	0.	-3496.1
2321	9.5613	0.72727	0.	-3498.3
2322	9.5613	0.54545	0.	-3500.6
2323	9.5613	0.36364	0.	-3503.
2324	9.5613	0.18182	0.	-3506.5
2325	9.3774	5.8182	0.	-3559.4
2326	9.3774	5.6364	0.	-3555.8
2327	9.3774	5.4545	0.	-3553.2
2328	9.3774	5.2727	0.	-3550.8
2329	9.3774	5.0909	0.	-3548.5
2330	9.3774	4.9091	0.	-3546.4
2331	9.3774	4.7273	0.	-3544.4
2332	9.3774	4.5455	0.	-3542.5
2333	9.3774	4.3636	0.	-3540.8
2334	9.3774	4.1818	0.	-3539.3
2335	9.3774	4.	0.	-3538.
2336	9.3774	3.8182	0.	-3536.9
2337	9.3774	3.6364	0.	-3536.
2338	9.3774	3.4545	0.	-3535.3
2339	9.3774	3.2727	0.	-3534.9
2340	9.3774	3.0909	0.	-3534.7
2341	9.3774	2.9091	0.	-3534.7
2342	9.3774	2.7273	0.	-3534.9
2343	9.3774	2.5455	0.	-3535.3
2344	9.3774	2.3636	0.	-3536.
2345	9.3774	2.1818	0.	-3536.9
2346	9.3774	2.	0.	-3538.
2347	9.3774	1.8182	0.	-3539.3
2348	9.3774	1.6364	0.	-3540.8
2349	9.3774	1.4545	0.	-3542.5
2350	9.3774	1.2727	0.	-3544.4
2351	9.3774	1.0909	0.	-3546.4
2352	9.3774	0.90909	0.	-3548.5
2353	9.3774	0.72727	0.	-3550.8
2354	9.3774	0.54545	0.	-3553.2
2355	9.3774	0.36364	0.	-3555.8
2356	9.3774	0.18182	0.	-3559.4
2357	9.1935	5.8182	0.	-3612.6
2358	9.1935	5.6364	0.	-3608.9
2359	9.1935	5.4545	0.	-3606.2
2360	9.1935	5.2727	0.	-3603.6
2361	9.1935	5.0909	0.	-3601.2
2362	9.1935	4.9091	0.	-3598.9
2363	9.1935	4.7273	0.	-3596.8
2364	9.1935	4.5455	0.	-3594.8
2365	9.1935	4.3636	0.	-3593.
2366	9.1935	4.1818	0.	-3591.4
2367	9.1935	4.	0.	-3590.
2368	9.1935	3.8182	0.	-3588.8
2369	9.1935	3.6364	0.	-3587.9
2370	9.1935	3.4545	0.	-3587.2
2371	9.1935	3.2727	0.	-3586.7
2372	9.1935	3.0909	0.	-3586.4
2373	9.1935	2.9091	0.	-3586.4
2374	9.1935	2.7273	0.	-3586.7
2375	9.1935	2.5455	0.	-3587.2
2376	9.1935	2.3636	0.	-3587.9
2377	9.1935	2.1818	0.	-3588.8
2378	9.1935	2.	0.	-3590.
2379	9.1935	1.8182	0.	-3591.4
2380	9.1935	1.6364	0.	-3593.
2381	9.1935	1.4545	0.	-3594.8
2382	9.1935	1.2727	0.	-3596.8
2383	9.1935	1.0909	0.	-3598.9
2384	9.1935	0.90909	0.	-3601.2
2385	9.1935	0.72727	0.	-3603.6
2386	9.1935	0.54545	0.	-3606.2
2387	9.1935	0.36364	0.	-3608.9
2388	9.1935	0.18182	0.	-3612.6
2389	9.0097	5.8182	0.	-3666.
2390	9.0097	5.6364	0.	-3662.2
2391	9.0097	5.4545	0.	-3659.3
2392	9.0097	5.2727	0.	-3656.6
2393	9.0097	5.0909	0.	-3654.
2394	9.0097	4.9091	0.	-3651.6
2395	9.0097	4.7273	0.	-3649.3
2396	9.0097	4.5455	0.	-3647.3
2397	9.0097	4.3636	0.	-3645.4
2398	9.0097	4.1818	0.	-3643.7
2399	9.0097	4.	0.	-3642.2
2400	9.0097	3.8182	0.	-3640.9
2401	9.0097	3.6364	0.	-3639.9
2402	9.0097	3.4545	0.	-3639.1
2403	9.0097	3.2727	0.	-3638.6
2404	9.0097	3.0909	0.	-3638.4
2405	9.0097	2.9091	0.	-3638.4
2406	9.0097	2.7273	0.	-3638.6
2407	9.0097	2.5455	0.	-3639.1
2408	9.0097	2.3636	0.	-3639.9
2409	9.0097	2.1818	0.	-3640.9
2410	9.0097	2.	0.	-3642.2
2411	9.0097	1.8182	0.	-3643.7
2412	9.0097	1.6364	0.	-3645.4
2413	9.0097	1.4545	0.	-3647.3
2414	9.0097	1.2727	0.	-3649.3
2415	9.0097	1.0909	0.	-3651.6
2416	9.0097	0.90909	0.	-3654.
2417	9.0097	0.72727	0.	-3656.6
2418	9.0097	0.54545	0.	-3659.3
2419	9.0097	0.36364	0.	-3662.2
2420	9.0097	0.18182	0.	-3666.
2421	8.8258	5.8182	0.	-3719.7
2422	8.8258	5.6364	0.	-3715.7
2423	8.8258	5.4545	0.	-3712.7
2424	8.8258	5.2727	0.	-3709.9
2425	8.8258	5.0909	0.	-3707.1
2426	8.8258	4.9091	0.	-3704.6
2427	8.8258	4.7273	0.	-3702.1
2428	8.8258	4.5455	0.	-3699.9
2429	8.8258	4.3636	0.	-3697.9
2430	8.8258	4.1818	0.	-3696.1
2431	8.8258	4.	0.	-3694.5
2432	8.8258	3.8182	0.	-3693.2
2433	8.8258	3.6364	0.	-3692.1
2434	8.8258	3.4545	0.	-3691.3
2435	8.8258	3.2727	0.	-3690.7
2436	8.8258	3.0909	0.	-3690.4
2437	8.8258	2.9091	0.	-3690.4
2438	8.8258	2.7273	0.	-3690.7
2439	8.8258	2.5455	0.	-3691.3
2440	8.8258	2.3636	0.	-3692.1
2441	8.8258	2.1818	0.	-3693.2
2442	8.8258	2.	0.	-3694.5
2443	8.8258	1.8182	0.	-3696.1
2444	8.8258	1.6364	0.	-3697.9
2445	8.8258	1.4545	0.	-3699.9
2446	8.8258	1.2727	0.	-3702.1
2447	8.8258	1.0909	0.	-3704.6
2448	8.8258	0.90909	0.	-3707.1
2449	8.8258	0.72727	0.	-3709.9
2450	8.8258	0.54545	0.	-3712.7
2451	8.8258	0.36364	0.	-3715.7
2452	8.8258	0.18182	0.	-3719.7
2453	8.6419	5.8182	0.	-3773.7
2454	8.6419	5.6364	0.	-3769.6
2455	8.6419	5.4545	0.	-3766.4
2456	8.6419	5.2727	0.	-3763.4
2457	8.6419	5.0909	0.	-3760.5
2458	8.6419	4.9091	0.	-3757.7
2459	8.6419	4.7273	0.	-3755.1
2460	8.6419	4.5455	0.	-3752.8
2461	8.6419	4.3636	0.	-3750.6
2462	8.6419	4.1818	0.	-3748.7
2463	8.6419	4.	0.	-3747.
2464	8.6419	3.8182	0.	-3745.5
2465	8.6419	3.6364	0.	-3744.4
2466	8.6419	3.4545	0.	-3743.5
2467	8.6419	3.2727	0.	-3742.9
2468	8.6419	3.0909	0.	-3742.6
2469	8.6419	2.9091	0.	-3742.6
2470	8.6419	2.7273	0.	-3742.9
2471	8.6419	2.5455	0.	-3743.5
2472	8.6419	2.3636	0.	-3744.4
2473	8.6419	2.1818	0.	-3745.5
2474	8.6419	2.	0.	-3747.
2475	8.6419	1.8182	0.	-3748.7
2476	8.6419	1.6364	0.	-3750.6
2477	8.6419	1.4545	0.	-3752.8
2478	8.6419	1.2727	0.	-3755.1
2479	8.6419	1.0909	0.	-3757.7
2480	8.6419	0.90909	0.	-3760.5
2481	8.6419	0.72727	0.	-3763.4
2482	8.6419	0.54545	0.	-3766.4
2483	8.6419	0.36364	0.	-3769.6
2484	8.6419	0.18182	0.	-3773.7
2485	8.4581	5.8182	0.	-3828.
2486	8.4581	5.6364	0.	-3823.7
2487	8.4581	5.4545	0.	-3820.3
2488	8.4581	5.2727	0.	-3817.1
2489	8.4581	5.0909	0.	-3814.
2490	8.4581	4.9091	0.	-3811.1
2491	8.4581	4.7273	0.	-3808.3
2492	8.4581	4.5455	0.	-3805.8
2493	8.4581	4.3636	0.	-3803.5
2494	8.4581	4.1818	0.	-3801.4
2495	8.4581	4.	0.	-3799.6
2496	8.4581	3.8182	0.	-3798.1
2497	8.4581	3.6364	0.	-3796.8
2498	8.4581	3.4545	0.	-3795.9
2499	8.4581	3.2727	0.	-3795.3
2500	8.4581	3.0909	0.	-3794.9
2501	8.4581	2.9091	0.	-3794.9
2502	8.4581	2.7273	0.	-3795.3
2503	8.4581	2.5455	0.	-3795.9
2504	8.4581	2.3636	0.	-3796.8
2505	8.4581	2.1818	0.	-3798.1
2506	8.4581	2.	0.	-3799.6
2507	8.4581	1.8182	0.	-3801.4
2508	8.4581	1.6364	0.	-3803.5
2509	8.4581	1.4545	0.	-3805.8
2510	8.4581	1.2727	0.	-3808.3
2511	8.4581	1.0909	0.	-3811.1
2512	8.4581	0.90909	0.	-3814.
2513	8.4581	0.72727	0.	-3817.1
2514	8.4581	0.54545	0.	-3820.3
2515	8.4581	0.36364	0.	-3823.7
2516	8.4581	0.18182	0.	-3828.
2517	8.2742	5.8182	0.	-3882.5
2518	8.2742	5.6364	0.	-3878.1
2519	8.2742	5.4545	0.	-3874.5
2520	8.2742	5.2727	0.	-3871.1
2521	8.2742	5.0909	0.	-3867.8
2522	8.2742	4.9091	0.	-3864.7
2523	8.2742	4.7273	0.	-3861.7
2524	8.2742	4.5455	0.	-3859.
2525	8.2742	4.3636	0.	-3856.5
2526	8.2742	4.1818	0.	-3854.3
2527	8.2742	4.	0.	-3852.4
2528	8.2742	3.8182	0.	-3850.7
2529	8.2742	3.6364	0.	-3849.4
2530	8.2742	3.4545	0.	-3848.4
2531	8.2742	3.2727	0.	-3847.7
2532	8.2742	3.0909	0.	-3847.4
2533	8.2742	2.9091	0.	-3847.4
2534	8.2742	2.7273	0.	-3847.7
2535	8.2742	2.5455	0.	-3848.4
2536	8.2742	2.3636	0.	-3849.4
2537	8.2742	2.1818	0.	-3850.7
2538	8.2742	2.	0.	-3852.4
2539	8.2742	1.8182	0.	-3854.3
2540	8.2742	1.6364	0.	-3856.5
2541	8.2742	1.4545	0.	-3859.
2542	8.2742	1.2727	0.	-3861.7
2543	8.2742	1.0909	0.	-3864.7
2544	8.2742	0.90909	0.	-3867.8
2545	8.2742	0.72727	0.	-3871.1
2546	8.2742	0.54545	0.	-3874.5
2547	8.2742	0.36364	0.	-3878.1
2548	8.2742	0.18182	0.	-3882.5
2549	8.0903	5.8182	0.	-3937.4
2550	8.0903	5.6364	0.	-3932.8
2551	8.0903	5.4545	0.	-3929.
2552	8.0903	5.2727	0.	-3925.3
2553	8.0903	5.0909	0.	-3921.8
2554	8.0903	4.9091	0.	-3918.5
2555	8.0903	4.7273	0.	-3915.3
2556	8.0903	4.5455	0.	-3912.4
2557	8.0903	4.3636	0.	-3909.8
2558	8.0903	4.1818	0.	-3907.4
2559	8.0903	4.	0.	-3905.3
2560	8.0903	3.8182	0.	-3903.5
2561	8.0903	3.6364	0.	-3902.1
2562	8.0903	3.4545	0.	-3901.
2563	8.0903	3.2727	0.	-3900.3
2564	8.0903	3.0909	0.	-3899.9
2565	8.0903	2.9091	0.	-3899.9
2566	8.0903	2.7273	0.	-3900.3
2567	8.0903	2.5455	0.	-3901.
2568	8.0903	2.3636	0.	-3902.1
2569	8.0903	2.1818	0.	-3903.5
2570	8.0903	2.	0.	-3905.3
2571	8.0903	1.8182	0.	-3907.4
2572	8.0903	1.6364	0.	-3909.8
2573	8.0903	1.4545	0.	-3912.4
2574	8.0903	1.2727	0.	-3915.3
2575	8.0903	1.0909	0.	-3918.5
2576	8.0903	0.90909	0.	-3921.8
2577	8.0903	0.72727	0.	-3925.3
2578	8.0903	0.54545	0.	-3929.
2579	8.0903	0.36364	0.	-3932.8
2580	8.0903	0.18182	0.	-3937.4
2581	7.9065	5.8182	0.	-3992.6
2582	7.9065	5.6364	0.	-3987.8
2583	7.9065	5.4545	0.	-3983.7
2584	7.9065	5.2727	0.	-3979.8
2585	7.9065	5.0909	0.	-3976.1
2586	7.9065	4.9091	0.	-3972.5
2587	7.9065	4.7273	0.	-3969.1
2588	7.9065	4.5455	0.	-3966.
2589	7.9065	4.3636	0.	-3963.1
2590	7.9065	4.1818	0.	-3960.6
2591	7.9065	4.	0.	-3958.4
2592	7.9065	3.8182	0.	-3956.5
2593	7.9065	3.6364	0.	-3954.9
2594	7.9065	3.4545	0.	-3953.8
2595	7.9065	3.2727	0.	-3953.
2596	7.9065	3.0909	0.	-3952.6
2597	7.9065	2.9091	0.	-3952.6
2598	7.9065	2.7273	0.	-3953.
2599	7.9065	2.5455	0.	-3953.8
2600	7.9065	2.3636	0.	-3954.9
2601	7.9065	2.1818	0.	-3956.5
2602	7.9065	2.	0.	-3958.4
2603	7.9065	1.8182	0.	-3960.6
2604	7.9065	1.6364	0.	-3963.1
2605	7.9065	1.4545	0.	-3966.
2606	7.9065	1.2727	0.	-3969.1
2607	7.9065	1.0909	0.	-3972.5
2608	7.9065	0.90909	0.	-3976.1
2609	7.9065	0.72727	0.	-3979.8
2610	7.9065	0.54545	0.	-3983.7
2611	7.9065	0.36364	0.	-3987.8
2612	7.9065	0.18182	0.	-3992.6
2613	7.7226	5.8182	0.	-4048.2
2614	7.7226	5.6364	0.	-4043.1
2615	7.7226	5.4545	0.	-4038.8
2616	7.7226	5.2727	0.	-4034.6
2617	7.7226	5.0909	0.	-4030.5
2618	7.7226	4.9091	0.	-4026.7
2619	7.7226	4.7273	0.	-4023.1
2620	7.7226	4.5455	0.	-4019.8
2621	7.7226	4.3636	0.	-4016.7
2622	7.7226	4.1818	0.	-4014.
2623	7.7226	4.	0.	-4011.6
2624	7.7226	3.8182	0.	-4009.5
2625	7.7226	3.6364	0.	-4007.9
2626	7.7226	3.4545	0.	-4006.6
2627	7.7226	3.2727	0.	-4005.8
2628	7.7226	3.0909	0.	-4005.4
2629	7.7226	2.9091	0.	-4005.4
2630	7.7226	2.7273	0.	-4005.8
2631	7.7226	2.5455	0.	-4006.6
2632	7.7226	2.3636	0.	-4007.9
2633	7.7226	2.1818	0.	-4009.5
2634	7.7226	2.	0.	-4011.6
2635	7.7226	1.8182	0.	-4014.
2636	7.7226	1.6364	0.	-4016.7
2637	7.7226	1.4545	0.	-4019.8
2638	7.7226	1.2727	0.	-4023.1
2639	7.7226	1.0909	0.	-4026.7
2640	7.7226	0.90909	0.	-4030.5
2641	7.7226	0.72727	0.	-4034.6
2642	7.7226	0.54545	0.	-4038.8
2643	7.7226	0.36364	0.	-4043.1
2644	7.7226	0.18182	0.	-4048.2
2645	7.5387	5.8182	0.	-4104.
2646	7.5387	5.6364	0.	-4098.7
2647	7.5387	5.4545	0.	-4094.1
2648	7.5387	5.2727	0.	-4089.6
2649	7.5387	5.0909	0.	-4085.3
2650	7.5387	4.9091	0.	-4081.2
2651	7.5387	4.7273	0.	-4077.3
2652	7.5387	4.5455	0.	-4073.7
2653	7.5387	4.3636	0.	-4070.4
2654	7.5387	4.1818	0.	-4067.5
2655	7.5387	4.	0.	-4064.9
2656	7.5387	3.8182	0.	-4062.7
2657	7.5387	3.6364	0.	-4060.9
2658	7.5387	3.4545	0.	-4059.6
2659	7.5387	3.2727	0.	-4058.7
2660	7.5387	3.0909	0.	-4058.2
2661	7.5387	2.9091	0.	-4058.2
2662	7.5387	2.7273	0.	-4058.7
2663	7.5387	2.5455	0.	-4059.6
2664	7.5387	2.3636	0.	-4060.9
2665	7.5387	2.1818	0.	-4062.7
2666	7.5387	2.	0.	-4064.9
2667	7.5387	1.8182	0.	-4067.5
2668	7.5387	1.6364	0.	-4070.4
2669	7.5387	1.4545	0.	-4073.7
2670	7.5387	1.2727	0.	-4077.3
2671	7.5387	1.0909	0.	-4081.2
2672	7.5387	0.90909	0.	-4085.3
2673	7.5387	0.72727	0.	-4089.6
2674	7.5387	0.54545	0.	-4094.1
2675	7.5387	0.36364	0.	-4098.7
2676	7.5387	0.18182	0.	-4104.
2677	7.3548	5.8182	0.	-4160.3
2678	7.3548	5.6364	0.	-4154.7
2679	7.3548	5.4545	0.	-4149.7
2680	7.3548	5.2727	0.	-4144.9
2681	7.3548	5.0909	0.	-4140.3
2682	7.3548	4.9091	0.	-4135.9
2683	7.3548	4.7273	0.	-4131.7
2684	7.3548	4.5455	0.	-4127.9
2685	7.3548	4.3636	0.	-4124.3
2686	7.3548	4.1818	0.	-4121.2
2687	7.3548	4.	0.	-4118.4
2688	7.3548	3.8182	0.	-4116.
2689	7.3548	3.6364	0.	-4114.1
2690	7.3548	3.4545	0.	-4112.6
2691	7.3548	3.2727	0.	-4111.7
2692	7.3548	3.0909	0.	-4111.2
2693	7.3548	2.9091	0.	-4111.2
2694	7.3548	2.7273	0.	-4111.7
2695	7.3548	2.5455	0.	-4112.6
2696	7.3548	2.3636	0.	-4114.1
2697	7.3548	2.1818	0.	-4116.
2698	7.3548	2.	0.	-4118.4
2699	7.3548	1.8182	0.	-4121.2
2700	7.3548	1.6364	0.	-4124.3
2701	7.3548	1.4545	0.	-4127.9
2702	7.3548	1.2727	0.	-4131.7
2703	7.3548	1.0909	0.	-4135.9
2704	7.3548	0.90909	0.	-4140.3
2705	7.3548	0.72727	0.	-4144.9
2706	7.3548	0.54545	0.	-4149.7
2707	7.3548	0.36364	0.	-4154.7
2708	7.3548	0.18182	0.	-4160.3
2709	7.171	5.8182	0.	-4216.9
2710	7.171	5.6364	0.	-4211.
2711	7.171	5.4545	0.	-4205.7
2712	7.171	5.2727	0.	-4200.5
2713	7.171	5.0909	0.	-4195.6
2714	7.171	4.9091	0.	-4190.8
2715	7.171	4.7273	0.	-4186.4
2716	7.171	4.5455	0.	-4182.2
2717	7.171	4.3636	0.	-4178.4
2718	7.171	4.1818	0.	-4175.
2719	7.171	4.	0.	-4172.
2720	7.171	3.8182	0.	-4169.4
2721	7.171	3.6364	0.	-4167.3
2722	7.171	3.4545	0.	-4165.8
2723	7.171	3.2727	0.	-4164.7
2724	7.171	3.0909	0.	-4164.2
2725	7.171	2.9091	0.	-4164.2
2726	7.171	2.7273	0.	-4164.7
2727	7.171	2.5455	0.	-4165.8
2728	7.171	2.3636	0.	-4167.3
2729	7.171	2.1818	0.	-4169.4
2730	7.171	2.	0.	-4172.
2731	7.171	1.8182	0.	-4175.
2732	7.171	1.6364	0.	-4178.4
2733	7.171	1.4545	0.	-4182.2
2734	7.171	1.2727	0.	-4186.4
2735	7.171	1.0909	0.	-4190.8
2736	7.171	0.90909	0.	-4195.6
2737	7.171	0.72727	0.	-4200.5
2738	7.171	0.54545	0.	-4205.7
2739	7.171	0.36364	0.	-4211.
2740	7.171	0.18182	0.	-4216.9
2741	6.9871	5.8182	0.	-4273.9
2742	6.9871	5.6364	0.	-4267.6
2743	6.9871	5.4545	0.	-4262.
2744	6.9871	5.2727	0.	-4256.4
2745	6.9871	5.0909	0.	-4251.1
2746	6.9871	4.9091	0.	-4246.
2747	6.9871	4.7273	0.	-4241.2
2748	6.9871	4.5455	0.	-4236.7
2749	6.9871	4.3636	0.	-4232.6
2750	6.9871	4.1818	0.	-4228.9
2751	6.9871	4.	0.	-4225.7
2752	6.9871	3.8182	0.	-4222.9
2753	6.9871	3.6364	0.	-4220.7
2754	6.9871	3.4545	0.	-4219.
2755	6.9871	3.2727	0.	-4217.8
2756	6.9871	3.0909	0.	-4217.3
2757	6.9871	2.9091	0.	-4217.3
2758	6.9871	2.7273	0.	-4217.8
2759	6.9871	2.5455	0.	-4219.
2760	6.9871	2.3636	0.	-4220.7
2761	6.9871	2.1818	0.	-4222.9
2762	6.9871	2.	0.	-4225.7
2763	6.9871	1.8182	0.	-4228.9
2764	6.9871	1.6364	0.	-4232.6
2765	6.9871	1.4545	0.	-4236.7
2766	6.9871	1.2727	0.	-4241.2
2767	6.9871	1.0909	0.	-4246.
2768	6.9871	0.90909	0.	-4251.1
2769	6.9871	0.72727	0.	-4256.4
2770	6.9871	0.54545	0.	-4262.
2771	6.9871	0.36364	0.	-4267.6
2772	6.9871	0.18182	0.	-4273.9
2773	6.8032	5.8182	0.	-4331.3
2774	6.8032	5.6364	0.	-4324.7
2775	6.8032	5.4545	0.	-4318.6
2776	6.8032	5.2727	0.	-4312.7
2777	6.8032	5.0909	0.	-4306.9
2778	6.8032	4.9091	0.	-4301.4
2779	6.8032	4.7273	0.	-4296.2
2780	6.8032	4.5455	0.	-4291.4
2781	6.8032	4.3636	0.	-4287.
2782	6.8032	4.1818	0.	-4283.
2783	6.8032	4.	0.	-4279.5
2784	6.8032	3.8182	0.	-4276.5
2785	6.8032	3.6364	0.	-4274.1
2786	6.8032	3.4545	0.	-4272.3
2787	6.8032	3.2727	0.	-4271.
2788	6.8032	3.0909	0.	-4270.4
2789	6.8032	2.9091	0.	-4270.4
2790	6.8032	2.7273	0.	-4271.
2791	6.8032	2.5455	0.	-4272.3
2792	6.8032	2.3636	0.	-4274.1
2793	6.8032	2.1818	0.	-4276.5
2794	6.8032	2.	0.	-4279.5
2795	6.8032	1.8182	0.	-4283.
2796	6.8032	1.6364	0.	-4287.
2797	6.8032	1.4545	0.	-4291.4
2798	6.8032	1.2727	0.	-4296.2
2799	6.8032	1.0909	0.	-4301.4
2800	6.8032	0.90909	0.	-4306.9
2801	6.8032	0.72727	0.	-4312.7
2802	6.8032	0.54545	0.	-4318.6
2803	6.8032	0.36364	0.	-4324.7
2804	6.8032	0.18182	0.	-4331.3
2805	6.6194	5.8182	0.	-4389.1
2806	6.6194	5.6364	0.	-4382.1
2807	6.6194	5.4545	0.	-4375.6
2808	6.6194	5.2727	0.	-4369.2
2809	6.6194	5.0909	0.	-4363.
2810	6.6194	4.9091	0.	-4357.1
2811	6.6194	4.7273	0.	-4351.5
2812	6.6194	4.5455	0.	-4346.3
2813	6.6194	4.3636	0.	-4341.5
2814	6.6194	4.1818	0.	-4337.2
2815	6.6194	4.	0.	-4333.5
2816	6.6194	3.8182	0.	-4330.2
2817	6.6194	3.6364	0.	-4327.6
2818	6.6194	3.4545	0.	-4325.6
2819	6.6194	3.2727	0.	-4324.3
2820	6.6194	3.0909	0.	-4323.6
2821	6.6194	2.9091	0.	-4323.6
2822	6.6194	2.7273	0.	-4324.3
2823	6.6194	2.5455	0.	-4325.6
2824	6.6194	2.3636	0.	-4327.6
2825	6.6194	2.1818	0.	-4330.2
2826	6.6194	2.	0.	-4333.5
2827	6.6194	1.8182	0.	-4337.2
2828	6.6194	1.6364	0.	-4341.5
2829	6.6194	1.4545	0.	-4346.3
2830	6.6194	1.2727	0.	-4351.5
2831	6.6194	1.0909	0.	-4357.1
2832	6.6194	0.90909	0.	-4363.
2833	6.6194	0.72727	0.	-4369.2
2834	6.6194	0.54545	0.	-4375.6
2835	6.6194	0.36364	0.	-4382.1
2836	6.6194	0.18182	0.	-4389.1
2837	6.4355	5.8182	0.	-4447.4
2838	6.4355	5.6364	0.	-4439.9
2839	6.4355	5.4545	0.	-4432.9
2840	6.4355	5.2727	0.	-4426.
2841	6.4355	5.0909	0.	-4419.4
2842	6.4355	4.9091	0.	-4413.
2843	6.4355	4.7273	0.	-4407.
2844	6.4355	4.5455	0.	-4401.4
2845	6.4355	4.3636	0.	-4396.2
2846	6.4355	4.1818	0.	-4391.6
2847	6.4355	4.	0.	-4387.5
2848	6.4355	3.8182	0.	-4384.
2849	6.4355	3.6364	0.	-4381.2
2850	6.4355	3.4545	0.	-4379.1
2851	6.4355	3.2727	0.	-4377.6
2852	6.4355	3.0909	0.	-4376.9
2853	6.4355	2.9091	0.	-4376.9
2854	6.4355	2.7273	0.	-4377.6
2855	6.4355	2.5455	0.	-4379.1
2856	6.4355	2.3636	0.	-4381.2
2857	6.4355	2.1818	0.	-4384.
2858	6.4355	2.	0.	-4387.5
2859	6.4355	1.8182	0.	-4391.6
2860	6.4355	1.6364	0.	-4396.2
2861	6.4355	1.4545	0.	-4401.4
2862	6.4355	1.2727	0.	-4407.
2863	6.4355	1.0909	0.	-4413.
2864	6.4355	0.90909	0.	-4419.4
2865	6.4355	0.72727	0.	-4426.
2866	6.4355	0.54545	0.	-4432.9
2867	6.4355	0.36364	0.	-4439.9
2868	6.4355	0.18182	0.	-4447.4
2869	6.2516	5.8182	0.	-4506.1
2870	6.2516	5.6364	0.	-4498.2
2871	6.2516	5.4545	0.	-4490.6
2872	6.2516	5.2727	0.	-4483.3
2873	6.2516	5.0909	0.	-4476.1
2874	6.2516	4.9091	0.	-4469.2
2875	6.2516	4.7273	0.	-4462.8
2876	6.2516	4.5455	0.	-4456.7
2877	6.2516	4.3636	0.	-4451.1
2878	6.2516	4.1818	0.	-4446.1
2879	6.2516	4.	0.	-4441.7
2880	6.2516	3.8182	0.	-4437.9
2881	6.2516	3.6364	0.	-4434.9
2882	6.2516	3.4545	0.	-4432.5
2883	6.2516	3.2727	0.	-4431.
2884	6.2516	3.0909	0.	-4430.2
2885	6.2516	2.9091	0.	-4430.2
2886	6.2516	2.7273	0.	-4431.
2887	6.2516	2.5455	0.	-4432.5
2888	6.2516	2.3636	0.	-4434.9
2889	6.2516	2.1818	0.	-4437.9
2890	6.2516	2.	0.	-4441.7
2891	6.2516	1.8182	0.	-4446.1
2892	6.2516	1.6364	0.	-4451.1
2893	6.2516	1.4545	0.	-4456.7
2894	6.2516	1.2727	0.	-4462.8
2895	6.2516	1.0909	0.	-4469.2
2896	6.2516	0.90909	0.	-4476.1
2897	6.2516	0.72727	0.	-4483.3
2898	6.2516	0.54545	0.	-4490.6
2899	6.2516	0.36364	0.	-4498.2
2900	6.2516	0.18182	0.	-4506.1
2901	6.0677	5.8182	0.	-4565.3
2902	6.0677	5.6364	0.	-4556.8
2903	6.0677	5.4545	0.	-4548.8
2904	6.0677	5.2727	0.	-4540.8
2905	6.0677	5.0909	0.	-4533.1
2906	6.0677	4.9091	0.	-4525.7
2907	6.0677	4.7273	0.	-4518.7
2908	6.0677	4.5455	0.	-4512.2
2909	6.0677	4.3636	0.	-4506.2
2910	6.0677	4.1818	0.	-4500.7
2911	6.0677	4.	0.	-4496.
2912	6.0677	3.8182	0.	-4491.9
2913	6.0677	3.6364	0.	-4488.6
2914	6.0677	3.4545	0.	-4486.1
2915	6.0677	3.2727	0.	-4484.4
2916	6.0677	3.0909	0.	-4483.5
2917	6.0677	2.9091	0.	-4483.5
2918	6.0677	2.7273	0.	-4484.4
2919	6.0677	2.5455	0.	-4486.1
2920	6.0677	2.3636	0.	-4488.6
2921	6.0677	2.1818	0.	-4491.9
2922	6.0677	2.	0.	-4496.
2923	6.0677	1.8182	0.	-4500.7
2924	6.0677	1.6364	0.	-4506.2
2925	6.0677	1.4545	0.	-4512.2
2926	6.0677	1.2727	0.	-4518.7
2927	6.0677	1.0909	0.	-4525.7
2928	6.0677	0.90909	0.	-4533.1
2929	6.0677	0.72727	0.	-4540.8
2930	6.0677	0.54545	0.	-4548.8
2931	6.0677	0.36364	0.	-4556.8
2932	6.0677	0.18182	0.	-4565.3
2933	5.8839	5.8182	0.	-4625.
2934	5.8839	5.6364	0.	-4616.
2935	5.8839	5.4545	0.	-4607.3
2936	5.8839	5.2727	0.	-4598.8
2937	5.8839	5.0909	0.	-4590.5
2938	5.8839	4.9091	0.	-4582.5
2939	5.8839	4.7273	0.	-4574.9
2940	5.8839	4.5455	0.	-4567.9
2941	5.8839	4.3636	0.	-4561.4
2942	5.8839	4.1818	0.	-4555.5
2943	5.8839	4.	0.	-4550.4
2944	5.8839	3.8182	0.	-4546.
2945	5.8839	3.6364	0.	-4542.4
2946	5.8839	3.4545	0.	-4539.7
2947	5.8839	3.2727	0.	-4537.8
2948	5.8839	3.0909	0.	-4536.9
2949	5.8839	2.9091	0.	-4536.9
2950	5.8839	2.7273	0.	-4537.8
2951	5.8839	2.5455	0.	-4539.7
2952	5.8839	2.3636	0.	-4542.4
2953	5.8839	2.1818	0.	-4546.
2954	5.8839	2.	0.	-4550.4
2955	5.8839	1.8182	0.	-4555.5
2956	5.8839	1.6364	0.	-4561.4
2957	5.8839	1.4545	0.	-4567.9
2958	5.8839	1.2727	0.	-4574.9
2959	5.8839	1.0909	0.	-4582.5
2960	5.8839	0.90909	0.	-4590.5
2961	5.8839	0.72727	0.	-4598.8
2962	5.8839	0.54545	0.	-4607.3
2963	5.8839	0.36364	0.	-4616.
2964	5.8839	0.18182	0.	-4625.
2965	5.7	5.8182	0.	-4685.3
2966	5.7	5.6364	0.	-4675.6
2967	5.7	5.4545	0.	-4666.3
2968	5.7	5.2727	0.	-4657.1
2969	5.7	5.0909	0.	-4648.1
2970	5.7	4.9091	0.	-4639.6
2971	5.7	4.7273	0.	-4631.4
2972	5.7	4.5455	0.	-4623.8
2973	5.7	4.3636	0.	-4616.8
2974	5.7	4.1818	0.	-4610.4
2975	5.7	4.	0.	-4604.9
2976	5.7	3.8182	0.	-4600.1
2977	5.7	3.6364	0.	-4596.2
2978	5.7	3.4545	0.	-4593.3
2979	5.7	3.2727	0.	-4591.3
2980	5.7	3.0909	0.	-4590.3
2981	5.7	2.9091	0.	-4590.3
2982	5.7	2.7273	0.	-4591.3
2983	5.7	2.5455	0.	-4593.3
2984	5.7	2.3636	0.	-4596.2
2985	5.7	2.1818	0.	-4600.1
2986	5.7	2.	0.	-4604.9
2987	5.7	1.8182	0.	-4610.4
2988	5.7	1.6364	0.	-4616.8
2989	5.7	1.4545	0.	-4623.8
2990	5.7	1.2727	0.	-4631.4
2991	5.7	1.0909	0.	-4639.6
2992	5.7	0.90909	0.	-4648.1
2993	5.7	0.72727	0.	-4657.1
2994	5.7	0.54545	0.	-4666.3
2995	5.7	0.36364	0.	-4675.6
2996	5.7	0.18182	0.	-4685.3
2997	5.5161	5.8182	0.	-4746.1
2998	5.5161	5.6364	0.	-4735.8
2999	5.5161	5.4545	0.	-4725.7
3000	5.5161	5.2727	0.	-4715.8
3001	5.5161	5.0909	0.	-4706.2
3002	5.5161	4.9091	0.	-4696.9
3003	5.5161	4.7273	0.	-4688.1
3004	5.5161	4.5455	0.	-4679.9
3005	5.5161	4.3636	0.	-4672.3
3006	5.5161	4.1818	0.	-4665.5
3007	5.5161	4.	0.	-4659.5
3008	5.5161	3.8182	0.	-4654.3
3009	5.5161	3.6364	0.	-4650.1
3010	5.5161	3.4545	0.	-4647.
3011	5.5161	3.2727	0.	-4644.8
3012	5.5161	3.0909	0.	-4643.7
3013	5.5161	2.9091	0.	-4643.7
3014	5.5161	2.7273	0.	-4644.8
3015	5.5161	2.5455	0.	-4647.
3016	5.5161	2.3636	0.	-4650.1
3017	5.5161	2.1818	0.	-4654.3
3018	5.5161	2.	0.	-4659.5
3019	5.5161	1.8182	0.	-4665.5
3020	5.5161	1.6364	0.	-4672.3
3021	5.5161	1.4545	0.	-4679.9
3022	5.5161	1.2727	0.	-4688.1
3023	5.5161	1.0909	0.	-4696.9
3024	5.5161	0.90909	0.	-4706.2
3025	5.5161	0.72727	0.	-4715.8
3026	5.5161	0.54545	0.	-4725.7
3027	5.5161	0.36364	0.	-4735.8
3028	5.5161	0.18182	0.	-4746.1
3029	5.3323	5.8182	0.	-4807.6
3030	5.3323	5.6364	0.	-4796.4
3031	5.3323	5.4545	0.	-4785.6
3032	5.3323	5.2727	0.	-4774.9
3033	5.3323	5.0909	0.	-4764.6
3034	5.3323	4.9091	0.	-4754.6
3035	5.3323	4.7273	0.	-4745.1
3036	5.3323	4.5455	0.	-4736.2
3037	5.3323	4.3636	0.	-4728.1
3038	5.3323	4.1818	0.	-4720.7
3039	5.3323	4.	0.	-4714.2
3040	5.3323	3.8182	0.	-4708.6
3041	5.3323	3.6364	0.	-4704.1
3042	5.3323	3.4545	0.	-4700.7
3043	5.3323	3.2727	0.	-4698.4
3044	5.3323	3.0909	0.	-4697.2
3045	5.3323	2.9091	0.	-4697.2
3046	5.3323	2.7273	0.	-4698.4
3047	5.3323	2.5455	0.	-4700.7
3048	5.3323	2.3636	0.	-4704.1
3049	5.3323	2.1818	0.	-4708.6
3050	5.3323	2.	0.	-4714.2
3051	5.3323	1.8182	0.	-4720.7
3052	5.3323	1.6364	0.	-4728.1
3053	5.3323	1.4545	0.	-4736.2
3054	5.3323	1.2727	0.	-4745.1
3055	5.3323	1.0909	0.	-4754.6
3056	5.3323	0.90909	0.	-4764.6
3057	5.3323	0.72727	0.	-4774.9
3058	5.3323	0.54545	0.	-4785.6
3059	5.3323	0.36364	0.	-4796.4
3060	5.3323	0.18182	0.	-4807.6
3061	5.1484	5.8182	0.	-4869.6
3062	5.1484	5.6364	0.	-4857.6
3063	5.1484	5.4545	0.	-4846.
3064	5.1484	5.2727	0.	-4834.5
3065	5.1484	5.0909	0.	-4823.3
3066	5.1484	4.9091	0.	-4812.6
3067	5.1484	4.7273	0.	-4802.4
3068	5.1484	4.5455	0.	-4792.8
3069	5.1484	4.3636	0.	-4784.
3070	5.1484	4.1818	0.	-4776.1
3071	5.1484	4.	0.	-4769.
3072	5.1484	3.8182	0.	-4763.1
3073	5.1484	3.6364	0.	-4758.2
3074	5.1484	3.4545	0.	-4754.5
3075	5.1484	3.2727	0.	-4752.
3076	5.1484	3.0909	0.	-4750.7
3077	5.1484	2.9091	0.	-4750.7
3078	5.1484	2.7273	0.	-4752.
3079	5.1484	2.5455	0.	-4754.5
3080	5.1484	2.3636	0.	-4758.2
3081	5.1484	2.1818	0.	-4763.1
3082	5.1484	2.	0.	-4769.
3083	5.1484	1.8182	0.	-4776.1
3084	5.1484	1.6364	0.	-4784.
3085	5.1484	1.4545	0.	-4792.8
3086	5.1484	1.2727	0.	-4802.4
3087	5.1484	1.0909	0.	-4812.6
3088	5.1484	0.90909	0.	-4823.3
3089	5.1484	0.72727	0.	-4834.5
3090	5.1484	0.54545	0.	-4846.
3091	5.1484	0.36364	0.	-4857.6
3092	5.1484	0.18182	0.	-4869.6
3093	4.9645	5.8182	0.	-4932.3
3094	4.9645	5.6364	0.	-4919.3
3095	4.9645	5.4545	0.	-4906.8
3096	4.9645	5.2727	0.	-4894.5
3097	4.9645	5.0909	0.	-4882.5
3098	4.9645	4.9091	0.	-4870.9
3099	4.9645	4.7273	0.	-4859.9
3100	4.9645	4.5455	0.	-4849.7
3101	4.9645	4.3636	0.	-4840.2
3102	4.9645	4.1818	0.	-4831.6
3103	4.9645	4.	0.	-4824.1
3104	4.9645	3.8182	0.	-4817.6
3105	4.9645	3.6364	0.	-4812.4
3106	4.9645	3.4545	0.	-4808.4
3107	4.9645	3.2727	0.	-4805.7
3108	4.9645	3.0909	0.	-4804.3
3109	4.9645	2.9091	0.	-4804.3
3110	4.9645	2.7273	0.	-4805.7
3111	4.9645	2.5455	0.	-4808.4
3112	4.9645	2.3636	0.	-4812.4
3113	4.9645	2.1818	0.	-4817.6
3114	4.9645	2.	0.	-4824.1
3115	4.9645	1.8182	0.	-4831.6
3116	4.9645	1.6364	0.	-4840.2
3117	4.9645	1.4545	0.	-4849.7
3118	4.9645	1.2727	0.	-4859.9
3119	4.9645	1.0909	0.	-4870.9
3120	4.9645	0.90909	0.	-4882.5
3121	4.9645	0.72727	0.	-4894.5
3122	4.9645	0.54545	0.	-4906.8
3123	4.9645	0.36364	0.	-4919.3
3124	4.9645	0.18182	0.	-4932.3
3125	4.7806	5.8182	0.	-4995.6
3126	4.7806	5.6364	0.	-4981.6
3127	4.7806	5.4545	0.	-4968.2
3128	4.7806	5.2727	0.	-4954.9
3129	4.7806	5.0909	0.	-4942.
3130	4.7806	4.9091	0.	-4929.6
3131	4.7806	4.7273	0.	-4917.8
3132	4.7806	4.5455	0.	-4906.7
3133	4.7806	4.3636	0.	-4896.5
3134	4.7806	4.1818	0.	-4887.3
3135	4.7806	4.	0.	-4879.2
3136	4.7806	3.8182	0.	-4872.3
3137	4.7806	3.6364	0.	-4866.7
3138	4.7806	3.4545	0.	-4862.4
3139	4.7806	3.2727	0.	-4859.5
3140	4.7806	3.0909	0.	-4858.
3141	4.7806	2.9091	0.	-4858.
3142	4.7806	2.7273	0.	-4859.5
3143	4.7806	2.5455	0.	-4862.4
3144	4.7806	2.3636	0.	-4866.7
3145	4.7806	2.1818	0.	-4872.3
3146	4.7806	2.	0.	-4879.2
3147	4.7806	1.8182	0.	-4887.3
3148	4.7806	1.6364	0.	-4896.5
3149	4.7806	1.4545	0.	-4906.7
3150	4.7806	1.2727	0.	-4917.8
3151	4.7806	1.0909	0.	-4929.6
3152	4.7806	0.90909	0.	-4942.
3153	4.7806	0.72727	0.	-4954.9
3154	4.7806	0.54545	0.	-4968.2
3155	4.7806	0.36364	0.	-4981.6
3156	4.7806	0.18182	0.	-4995.6
3157	4.5968	5.8182	0.	-5059.5
3158	4.5968	5.6364	0.	-5044.5
3159	4.5968	5.4545	0.	-5030.1
3160	4.5968	5.2727	0.	-5015.8
3161	4.5968	5.0909	0.	-5002.
3162	4.5968	4.9091	0.	-4988.6
3163	4.5968	4.7273	0.	-4976.
3164	4.5968	4.5455	0.	-4964.1
3165	4.5968	4.3636	0.	-4953.1
3166	4.5968	4.1818	0.	-4943.3
3167	4.5968	4.	0.	-4934.6
3168	4.5968	3.8182	0.	-4927.2
3169	4.5968	3.6364	0.	-4921.1
3170	4.5968	3.4545	0.	-4916.5
3171	4.5968	3.2727	0.	-4913.4
3172	4.5968	3.0909	0.	-4911.9
3173	4.5968	2.9091	0.	-4911.9
3174	4.5968	2.7273	0.	-4913.4
3175	4.5968	2.5455	0.	-4916.5
3176	4.5968	2.3636	0.	-4921.1
3177	4.5968	2.1818	0.	-4927.2
3178	4.5968	2.	0.	-4934.6
3179	4.5968	1.8182	0.	-4943.3
3180	4.5968	1.6364	0.	-4953.1
3181	4.5968	1.4545	0.	-4964.1
3182	4.5968	1.2727	0.	-4976.
3183	4.5968	1.0909	0.	-4988.6
3184	4.5968	0.90909	0.	-5002.
3185	4.5968	0.72727	0.	-5015.8
3186	4.5968	0.54545	0.	-5030.1
3187	4.5968	0.36364	0.	-5044.5
3188	4.5968	0.18182	0.	-5059.5
3189	4.4129	5.8182	0.	-5124.1
3190	4.4129	5.6364	0.	-5107.9
3191	4.4129	5.4545	0.	-5092.4
3192	4.4129	5.2727	0.	-5077.2
3193	4.4129	5.0909	0.	-5062.3
3194	4.4129	4.9091	0.	-5048.
3195	4.4129	4.7273	0.	-5034.4
3196	4.4129	4.5455	0.	-5021.7
3197	4.4129	4.3636	0.	-5010.
3198	4.4129	4.1818	0.	-4999.5
3199	4.4129	4.	0.	-4990.2
3200	4.4129	3.8182	0.	-4982.3
3201	4.4129	3.6364	0.	-4975.8
3202	4.4129	3.4545	0.	-4970.9
3203	4.4129	3.2727	0.	-4967.6
3204	4.4129	3.0909	0.	-4965.9
3205	4.4129	2.9091	0.	-4965.9
3206	4.4129	2.7273	0.	-4967.6
3207	4.4129	2.5455	0.	-4970.9
3208	4.4129	2.3636	0.	-4975.8
3209	4.4129	2.1818	0.	-4982.3
3210	4.4129	2.	0.	-4990.2
3211	4.4129	1.8182	0.	-4999.5
3212	4.4129	1.6364	0.	-5010.
3213	4.4129	1.4545	0.	-5021.7
3214	4.4129	1.2727	0.	-5034.4
3215	4.4129	1.0909	0.	-5048.
3216	4.4129	0.90909	0.	-5062.3
3217	4.4129	0.72727	0.	-5077.2
3218	4.4129	0.54545	0.	-5092.4
3219	4.4129	0.36364	0.	-5107.9
3220	4.4129	0.18182	0.	-5124.1
3221	4.229	5.8182	0.	-5189.4
3222	4.229	5.6364	0.	-5171.9
3223	4.229	5.4545	0.	-5155.3
3224	4.229	5.2727	0.	-5138.9
3225	4.229	5.0909	0.	-5123.
3226	4.229	4.9091	0.	-5107.7
3227	4.229	4.7273	0.	-5093.2
3228	4.229	4.5455	0.	-5079.6
3229	4.229	4.3636	0.	-5067.2
3230	4.229	4.1818	0.	-5055.9
3231	4.229	4.	0.	-5046.
3232	4.229	3.8182	0.	-5037.6
3233	4.229	3.6364	0.	-5030.8
3234	4.229	3.4545	0.	-5025.6
3235	4.229	3.2727	0.	-5022.1
3236	4.229	3.0909	0.	-5020.3
3237	4.229	2.9091	0.	-5020.3
3238	4.229	2.7273	0.	-5022.1
3239	4.229	2.5455	0.	-5025.6
3240	4.229	2.3636	0.	-5030.8
3241	4.229	2.1818	0.	-5037.6
3242	4.229	2.	0.	-5046.
3243	4.229	1.8182	0.	-5055.9
3244	4.229	1.6364	0.	-5067.2
3245	4.229	1.4545	0.	-5079.6
3246	4.229	1.2727	0.	-5093.2
3247	4.229	1.0909	0.	-5107.7
3248	4.229	0.90909	0.	-5123.
3249	4.229	0.72727	0.	-5138.9
3250	4.229	0.54545	0.	-5155.3
3251	4.229	0.36364	0.	-5171.9
3252	4.229	0.18182	0.	-5189.4
3253	4.0452	5.8182	0.	-5255.3
3254	4.0452	5.6364	0.	-5236.4
3255	4.0452	5.4545	0.	-5218.6
3256	4.0452	5.2727	0.	-5201.1
3257	4.0452	5.0909	0.	-5184.1
3258	4.0452	4.9091	0.	-5167.8
3259	4.0452	4.7273	0.	-5152.3
3260	4.0452	4.5455	0.	-5137.9
3261	4.0452	4.3636	0.	-5124.6
3262	4.0452	4.1818	0.	-5112.7
3263	4.0452	4.	0.	-5102.2
3264	4.0452	3.8182	0.	-5093.3
3265	4.0452	3.6364	0.	-5086.1
3266	4.0452	3.4545	0.	-5080.6
3267	4.0452	3.2727	0.	-5076.9
3268	4.0452	3.0909	0.	-5075.1
3269	4.0452	2.9091	0.	-5075.1
3270	4.0452	2.7273	0.	-5076.9
3271	4.0452	2.5455	0.	-5080.6
3272	4.0452	2.3636	0.	-5086.1
3273	4.0452	2.1818	0.	-5093.3
3274	4.0452	2.	0.	-5102.2
3275	4.0452	1.8182	0.	-5112.7
3276	4.0452	1.6364	0.	-5124.6
3277	4.0452	1.4545	0.	-5137.9
3278	4.0452	1.2727	0.	-5152.3
3279	4.0452	1.0909	0.	-5167.8
3280	4.0452	0.90909	0.	-5184.1
3281	4.0452	0.72727	0.	-5201.1
3282	4.0452	0.54545	0.	-5218.6
3283	4.0452	0.36364	0.	-5236.4
3284	4.0452	0.18182	0.	-5255.3
3285	3.8613	5.8182	0.	-5321.8
3286	3.8613	5.6364	0.	-5301.3
3287	3.8613	5.4545	0.	-5282.3
3288	3.8613	5.2727	0.	-5263.6
3289	3.8613	5.0909	0.	-5245.5
3290	3.8613	4.9091	0.	-5228.1
3291	3.8613	4.7273	0.	-5211.7
3292	3.8613	4.5455	0.	-5196.4
3293	3.8613	4.3636	0.	-5182.4
3294	3.8613	4.1818	0.	-5169.9
3295	3.8613	4.	0.	-5158.9
3296	3.8613	3.8182	0.	-5149.5
3297	3.8613	3.6364	0.	-5142.
3298	3.8613	3.4545	0.	-5136.2
3299	3.8613	3.2727	0.	-5132.4
3300	3.8613	3.0909	0.	-5130.4
3301	3.8613	2.9091	0.	-5130.4
3302	3.8613	2.7273	0.	-5132.4
3303	3.8613	2.5455	0.	-5136.2
3304	3.8613	2.3636	0.	-5142.
3305	3.8613	2.1818	0.	-5149.5
3306	3.8613	2.	0.	-5158.9
3307	3.8613	1.8182	0.	-5169.9
3308	3.8613	1.6364	0.	-5182.4
3309	3.8613	1.4545	0.	-5196.4
3310	3.8613	1.2727	0.	-5211.7
3311	3.8613	1.0909	0.	-5228.1
3312	3.8613	0.90909	0.	-5245.5
3313	3.8613	0.72727	0.	-5263.6
3314	3.8613	0.54545	0.	-5282.3
3315	3.8613	0.36364	0.	-5301.4
3316	3.8613	0.18182	0.	-5321.8
3317	3.6774	5.8182	0.	-5388.8
3318	3.6774	5.6364	0.	-5366.7
3319	3.6774	5.4545	0.	-5346.3
3320	3.6774	5.2727	0.	-5326.4
3321	3.6774	5.0909	0.	-5307.1
3322	3.6774	4.9091	0.	-5288.8
3323	3.6774	4.7273	0.	-5271.4
3324	3.6774	4.5455	0.	-5255.3
3325	3.6774	4.3636	0.	-5240.6
3326	3.6774	4.1818	0.	-5227.5
3327	3.6774	4.	0.	-5216.
3328	3.6774	3.8182	0.	-5206.3
3329	3.6774	3.6364	0.	-5198.4
3330	3.6774	3.4545	0.	-5192.5
3331	3.6774	3.2727	0.	-5188.5
3332	3.6774	3.0909	0.	-5186.5
3333	3.6774	2.9091	0.	-5186.5
3334	3.6774	2.7273	0.	-5188.5
3335	3.6774	2.5455	0.	-5192.5
3336	3.6774	2.3636	0.	-5198.4
3337	3.6774	2.1818	0.	-5206.3
3338	3.6774	2.	0.	-5216.
3339	3.6774	1.8182	0.	-5227.5
3340	3.6774	1.6364	0.	-5240.6
3341	3.6774	1.4545	0.	-5255.3
3342	3.6774	1.2727	0.	-5271.4
3343	3.6774	1.0909	0.	-5288.8
3344	3.6774	0.90909	0.	-5307.1
3345	3.6774	0.72727	0.	-5326.4
3346	3.6774	0.54545	0.	-5346.3
3347	3.6774	0.36364	0.	-5366.7
3348	3.6774	0.18182	0.	-5388.8
3349	3.4935	5.8182	0.	-5456.2
3350	3.4935	5.6364	0.	-5432.2
3351	3.4935	5.4545	0.	-5410.5
3352	3.4935	5.2727	0.	-5389.3
3353	3.4935	5.0909	0.	-5369.
3354	3.4935	4.9091	0.	-5349.6
3355	3.4935	4.7273	0.	-5331.4
3356	3.4935	4.5455	0.	-5314.6
3357	3.4935	4.3636	0.	-5299.3
3358	3.4935	4.1818	0.	-5285.6
3359	3.4935	4.	0.	-5273.8
3360	3.4935	3.8182	0.	-5263.8
3361	3.4935	3.6364	0.	-5255.8
3362	3.4935	3.4545	0.	-5249.7
3363	3.4935	3.2727	0.	-5245.7
3364	3.4935	3.0909	0.	-5243.6
3365	3.4935	2.9091	0.	-5243.6
3366	3.4935	2.7273	0.	-5245.7
3367	3.4935	2.5455	0.	-5249.7
3368	3.4935	2.3636	0.	-5255.8
3369	3.4935	2.1818	0.	-5263.8
3370	3.4935	2.	0.	-5273.8
3371	3.4935	1.8182	0.	-5285.6
3372	3.4935	1.6364	0.	-5299.3
3373	3.4935	1.4545	0.	-5314.6
3374	3.4935	1.2727	0.	-5331.4
3375	3.4935	1.0909	0.	-5349.6
3376	3.4935	0.90909	0.	-5369.
3377	3.4935	0.72727	0.	-5389.3
3378	3.4935	0.54545	0.	-5410.5
3379	3.4935	0.36364	0.	-5432.2
3380	3.4935	0.18182	0.	-5456.2
3381	3.3097	5.8182	0.	-5523.8
3382	3.3097	5.6364	0.	-5497.8
3383	3.3097	5.4545	0.	-5474.7
3384	3.3097	5.2727	0.	-5452.3
3385	3.3097	5.0909	0.	-5430.8
3386	3.3097	4.9091	0.	-5410.5
3387	3.3097	4.7273	0.	-5391.6
3388	3.3097	4.5455	0.	-5374.1
3389	3.3097	4.3636	0.	-5358.4
3390	3.3097	4.1818	0.	-5344.5
3391	3.3097	4.	0.	-5332.4
3392	3.3097	3.8182	0.	-5322.3
3393	3.3097	3.6364	0.	-5314.3
3394	3.3097	3.4545	0.	-5308.2
3395	3.3097	3.2727	0.	-5304.1
3396	3.3097	3.0909	0.	-5302.1
3397	3.3097	2.9091	0.	-5302.1
3398	3.3097	2.7273	0.	-5304.1
3399	3.3097	2.5455	0.	-5308.2
3400	3.3097	2.3636	0.	-5314.3
3401	3.3097	2.1818	0.	-5322.3
3402	3.3097	2.	0.	-5332.4
3403	3.3097	1.8182	0.	-5344.5
3404	3.3097	1.6364	0.	-5358.4
3405	3.3097	1.4545	0.	-5374.1
3406	3.3097	1.2727	0.	-5391.6
3407	3.3097	1.0909	0.	-5410.5
3408	3.3097	0.90909	0.	-5430.8
3409	3.3097	0.72727	0.	-5452.3
3410	3.3097	0.54545	0.	-5474.7
3411	3.3097	0.36364	0.	-5497.8
3412	3.3097	0.18182	0.	-5523.8
3413	3.1258	5.8182	0.	-5591.3
3414	3.1258	5.6364	0.	-5563.2
3415	3.1258	5.4545	0.	-5538.7
3416	3.1258	5.2727	0.	-5515.
3417	3.1258	5.0909	0.	-5492.6
3418	3.1258	4.9091	0.	-5471.4
3419	3.1258	4.7273	0.	-5451.9
3420	3.1258	4.5455	0.	-5434.
3421	3.1258	4.3636	0.	-5418.1
3422	3.1258	4.1818	0.	-5404.
3423	3.1258	4.	0.	-5392.
3424	3.1258	3.8182	0.	-5382.1
3425	3.1258	3.6364	0.	-5374.2
3426	3.1258	3.4545	0.	-5368.2
3427	3.1258	3.2727	0.	-5364.3
3428	3.1258	3.0909	0.	-5362.4
3429	3.1258	2.9091	0.	-5362.4
3430	3.1258	2.7273	0.	-5364.3
3431	3.1258	2.5455	0.	-5368.2
3432	3.1258	2.3636	0.	-5374.2
3433	3.1258	2.1818	0.	-5382.1
3434	3.1258	2.	0.	-5392.
3435	3.1258	1.8182	0.	-5404.
3436	3.1258	1.6364	0.	-5418.1
3437	3.1258	1.4545	0.	-5434.
3438	3.1258	1.2727	0.	-5451.9
3439	3.1258	1.0909	0.	-5471.4
3440	3.1258	0.90909	0.	-5492.6
3441	3.1258	0.72727	0.	-5515.
3442	3.1258	0.54545	0.	-5538.7
3443	3.1258	0.36364	0.	-5563.2
3444	3.1258	0.18182	0.	-5591.3
3445	2.9419	5.8182	0.	-5658.5
3446	2.9419	5.6364	0.	-5628.1
3447	2.9419	5.4545	0.	-5602.1
3448	2.9419	5.2727	0.	-5577.3
3449	2.9419	5.0909	0.	-5553.9
3450	2.9419	4.9091	0.	-5532.1
3451	2.9419	4.7273	0.	-5512.2
3452	2.9419	4.5455	0.	-5494.2
3453	2.9419	4.3636	0.	-5478.3
3454	2.9419	4.1818	0.	-5464.6
3455	2.9419	4.	0.	-5453.
3456	2.9419	3.8182	0.	-5443.4
3457	2.9419	3.6364	0.	-5435.9
3458	2.9419	3.4545	0.	-5430.4
3459	2.9419	3.2727	0.	-5426.7
3460	2.9419	3.0909	0.	-5424.9
3461	2.9419	2.9091	0.	-5424.9
3462	2.9419	2.7273	0.	-5426.7
3463	2.9419	2.5455	0.	-5430.4
3464	2.9419	2.3636	0.	-5435.9
3465	2.9419	2.1818	0.	-5443.4
3466	2.9419	2.	0.	-5453.
3467	2.9419	1.8182	0.	-5464.6
3468	2.9419	1.6364	0.	-5478.3
3469	2.9419	1.4545	0.	-5494.2
3470	2.9419	1.2727	0.	-5512.2
3471	2.9419	1.0909	0.	-5532.1
3472	2.9419	0.90909	0.	-5553.9
3473	2.9419	0.72727	0.	-5577.3
3474	2.9419	0.54545	0.	-5602.1
3475	2.9419	0.36364	0.	-5628.1
3476	2.9419	0.18182	0.	-5658.5
3477	2.7581	5.8182	0.	-5724.8
3478	2.7581	5.6364	0.	-5691.9
3479	2.7581	5.4545	0.	-5664.5
3480	2.7581	5.2727	0.	-5638.6
3481	2.7581	5.0909	0.	-5614.5
3482	2.7581	4.9091	0.	-5592.4
3483	2.7581	4.7273	0.	-5572.4
3484	2.7581	4.5455	0.	-5554.7
3485	2.7581	4.3636	0.	-5539.3
3486	2.7581	4.1818	0.	-5526.3
3487	2.7581	4.	0.	-5515.5
3488	2.7581	3.8182	0.	-5506.8
3489	2.7581	3.6364	0.	-5500.
3490	2.7581	3.4545	0.	-5495.2
3491	2.7581	3.2727	0.	-5492.
3492	2.7581	3.0909	0.	-5490.4
3493	2.7581	2.9091	0.	-5490.4
3494	2.7581	2.7273	0.	-5492.
3495	2.7581	2.5455	0.	-5495.2
3496	2.7581	2.3636	0.	-5500.
3497	2.7581	2.1818	0.	-5506.8
3498	2.7581	2.	0.	-5515.5
3499	2.7581	1.8182	0.	-5526.3
3500	2.7581	1.6364	0.	-5539.3
3501	2.7581	1.4545	0.	-5554.7
3502	2.7581	1.2727	0.	-5572.4
3503	2.7581	1.0909	0.	-5592.4
3504	2.7581	0.90909	0.	-5614.5
3505	2.7581	0.72727	0.	-5638.6
3506	2.7581	0.54545	0.	-5664.5
3507	2.7581	0.36364	0.	-5691.9
3508	2.7581	0.18182	0.	-5724.8
3509	2.5742	5.8182	0.	-5789.6
3510	2.5742	5.6364	0.	-5754.
3511	2.5742	5.4545	0.	-5725.3
3512	2.5742	5.2727	0.	-5698.5
3513	2.5742	5.0909	0.	-5674.
3514	2.5742	4.9091	0.	-5651.9
3515	2.5742	4.7273	0.	-5632.3
3516	2.5742	4.5455	0.	-5615.4
3517	2.5742	4.3636	0.	-5601.2
3518	2.5742	4.1818	0.	-5589.4
3519	2.5742	4.	0.	-5580.
3520	2.5742	3.8182	0.	-5572.7
3521	2.5742	3.6364	0.	-5567.2
3522	2.5742	3.4545	0.	-5563.3
3523	2.5742	3.2727	0.	-5560.8
3524	2.5742	3.0909	0.	-5559.6
3525	2.5742	2.9091	0.	-5559.6
3526	2.5742	2.7273	0.	-5560.8
3527	2.5742	2.5455	0.	-5563.3
3528	2.5742	2.3636	0.	-5567.2
3529	2.5742	2.1818	0.	-5572.7
3530	2.5742	2.	0.	-5580.
3531	2.5742	1.8182	0.	-5589.4
3532	2.5742	1.6364	0.	-5601.2
3533	2.5742	1.4545	0.	-5615.4
3534	2.5742	1.2727	0.	-5632.3
3535	2.5742	1.0909	0.	-5651.9
3536	2.5742	0.90909	0.	-5674.
3537	2.5742	0.72727	0.	-5698.5
3538	2.5742	0.54545	0.	-5725.3
3539	2.5742	0.36364	0.	-5754.
3540	2.5742	0.18182	0.	-5789.6
3541	2.3903	5.8182	0.	-5852.1
3542	2.3903	5.6364	0.	-5813.6
3543	2.3903	5.4545	0.	-5783.6
3544	2.3903	5.2727	0.	-5756.2
3545	2.3903	5.0909	0.	-5731.7
3546	2.3903	4.9091	0.	-5710.1
3547	2.3903	4.7273	0.	-5691.7
3548	2.3903	4.5455	0.	-5676.4
3549	2.3903	4.3636	0.	-5664.
3550	2.3903	4.1818	0.	-5654.4
3551	2.3903	4.	0.	-5647.1
3552	2.3903	3.8182	0.	-5641.8
3553	2.3903	3.6364	0.	-5638.2
3554	2.3903	3.4545	0.	-5635.7
3555	2.3903	3.2727	0.	-5634.3
3556	2.3903	3.0909	0.	-5633.6
3557	2.3903	2.9091	0.	-5633.6
3558	2.3903	2.7273	0.	-5634.3
3559	2.3903	2.5455	0.	-5635.7
3560	2.3903	2.3636	0.	-5638.2
3561	2.3903	2.1818	0.	-5641.8
3562	2.3903	2.	0.	-5647.1
3563	2.3903	1.8182	0.	-5654.4
3564	2.3903	1.6364	0.	-5664.
3565	2.3903	1.4545	0.	-5676.4
3566	2.3903	1.2727	0.	-5691.7
3567	2.3903	1.0909	0.	-5710.1
3568	2.3903	0.90909	0.	-5731.7
3569	2.3903	0.72727	0.	-5756.2
3570	2.3903	0.54545	0.	-5783.6
3571	2.3903	0.36364	0.	-5813.6
3572	2.3903	0.18182	0.	-5852.1
3573	2.2065	5.8182	0.	-5911.1
3574	2.2065	5.6364	0.	-5869.5
3575	2.2065	5.4545	0.	-5838.4
3576	2.2065	5.2727	0.	-5810.8
3577	2.2065	5.0909	0.	-5786.8
3578	2.2065	4.9091	0.	-5766.6
3579	2.2065	4.7273	0.	-5750.3
3580	2.2065	4.5455	0.	-5737.5
3581	2.2065	4.3636	0.	-5728.2
3582	2.2065	4.1818	0.	-5721.7
3583	2.2065	4.	0.	-5717.5
3584	2.2065	3.8182	0.	-5715.1
3585	2.2065	3.6364	0.	-5714.
3586	2.2065	3.4545	0.	-5713.6
3587	2.2065	3.2727	0.	-5713.5
3588	2.2065	3.0909	0.	-5713.6
3589	2.2065	2.9091	0.	-5713.6
3590	2.2065	2.7273	0.	-5713.5
3591	2.2065	2.5455	0.	-5713.6
3592	2.2065	2.3636	0.	-5714.
3593	2.2065	2.1818	0.	-5715.1
3594	2.2065	2.	0.	-5717.5
3595	2.2065	1.8182	0.	-5721.7
3596	2.2065	1.6364	0.	-5728.2
3597	2.2065	1.4545	0.	-5737.5
3598	2.2065	1.2727	0.	-5750.3
3599	2.2065	1.0909	0.	-5766.6
3600	2.2065	0.90909	0.	-5786.8
3601	2.2065	0.72727	0.	-5810.8
3602	2.2065	0.54545	0.	-5838.4
3603	2.2065	0.36364	0.	-5869.5
3604	2.2065	0.18182	0.	-5911.1
3605	2.0226	5.8182	0.	-5965.
3606	2.0226	5.6364	0.	-5920.
3607	2.0226	5.4545	0.	-5888.2
3608	2.0226	5.2727	0.	-5861.
3609	2.0226	5.0909	0.	-5838.5
3610	2.0226	4.9091	0.	-5820.8
3611	2.0226	4.7273	0.	-5807.7
3612	2.0226	4.5455	0.	-5798.9
3613	2.0226	4.3636	0.	-5793.9
3614	2.0226	4.1818	0.	-5791.9
3615	2.0226	4.	0.	-5792.
3616	2.0226	3.8182	0.	-5793.6
3617	2.0226	3.6364	0.	-5795.8
3618	2.0226	3.4545	0.	-5798.
3619	2.0226	3.2727	0.	-5799.8
3620	2.0226	3.0909	0.	-5800.8
3621	2.0226	2.9091	0.	-5800.8
3622	2.0226	2.7273	0.	-5799.8
3623	2.0226	2.5455	0.	-5798.
3624	2.0226	2.3636	0.	-5795.8
3625	2.0226	2.1818	0.	-5793.6
3626	2.0226	2.	0.	-5792.
3627	2.0226	1.8182	0.	-5791.9
3628	2.0226	1.6364	0.	-5793.9
3629	2.0226	1.4545	0.	-5798.9
3630	2.0226	1.2727	0.	-5807.7
3631	2.0226	1.0909	0.	-5820.8
3632	2.0226	0.90909	0.	-5838.5
3633	2.0226	0.72727	0.	-5861.
3634	2.0226	0.54545	0.	-5888.2
3635	2.0226	0.36364	0.	-5920.
3636	2.0226	0.18182	0.	-5965.
3637	1.8387	5.8182	0.	-6011.5
3638	1.8387	5.6364	0.	-5963.1
3639	1.8387	5.4545	0.	-5931.
3640	1.8387	5.2727	0.	-5905.2
3641	1.8387	5.0909	0.	-5885.4
3642	1.8387	4.9091	0.	-5871.7
3643	1.8387	4.7273	0.	-5863.7
3644	1.8387	4.5455	0.	-5860.8
3645	1.8387	4.3636	0.	-5861.9
3646	1.8387	4.1818	0.	-5866.
3647	1.8387	4.	0.	-5871.9
3648	1.8387	3.8182	0.	-5878.6
3649	1.8387	3.6364	0.	-5885.2
3650	1.8387	3.4545	0.	-5890.8
3651	1.8387	3.2727	0.	-5894.8
3652	1.8387	3.0909	0.	-5897.
3653	1.8387	2.9091	0.	-5897.
3654	1.8387	2.7273	0.	-5894.8
3655	1.8387	2.5455	0.	-5890.8
3656	1.8387	2.3636	0.	-5885.2
3657	1.8387	2.1818	0.	-5878.6
3658	1.8387	2.	0.	-5871.9
3659	1.8387	1.8182	0.	-5866.
3660	1.8387	1.6364	0.	-5861.9
3661	1.8387	1.4545	0.	-5860.8
3662	1.8387	1.2727	0.	-5863.7
3663	1.8387	1.0909	0.	-5871.7
3664	1.8387	0.90909	0.	-5885.4
3665	1.8387	0.72727	0.	-5905.2
3666	1.8387	0.54545	0.	-5931.
3667	1.8387	0.36364	0.	-5963.1
3668	1.8387	0.18182	0.	-6011.5
3669	1.6548	5.8182	0.	-6047.6
3670	1.6548	5.6364	0.	-5995.6
3671	1.6548	5.4545	0.	-5964.2
3672	1.6548	5.2727	0.	-5941.1
3673	1.6548	5.0909	0.	-5926.
3674	1.6548	4.9091	0.	-5918.6
3675	1.6548	4.7273	0.	-5918.2
3676	1.6548	4.5455	0.	-5923.5
3677	1.6548	4.3636	0.	-5933.1
3678	1.6548	4.1818	0.	-5945.3
3679	1.6548	4.	0.	-5958.8
3680	1.6548	3.8182	0.	-5972.
3681	1.6548	3.6364	0.	-5983.9
3682	1.6548	3.4545	0.	-5993.6
3683	1.6548	3.2727	0.	-6000.4
3684	1.6548	3.0909	0.	-6003.9
3685	1.6548	2.9091	0.	-6003.9
3686	1.6548	2.7273	0.	-6000.4
3687	1.6548	2.5455	0.	-5993.6
3688	1.6548	2.3636	0.	-5983.9
3689	1.6548	2.1818	0.	-5972.
3690	1.6548	2.	0.	-5958.8
3691	1.6548	1.8182	0.	-5945.3
3692	1.6548	1.6364	0.	-5933.1
3693	1.6548	1.4545	0.	-5923.5
3694	1.6548	1.2727	0.	-5918.2
3695	1.6548	1.0909	0.	-5918.6
3696	1.6548	0.90909	0.	-5926.
3697	1.6548	0.72727	0.	-5941.1
3698	1.6548	0.54545	0.	-5964.2
3699	1.6548	0.36364	0.	-5995.6
3700	1.6548	0.18182	0.	-6047.6
3701	1.471	5.8182	0.	-6068.9
3702	1.471	5.6364	0.	-6013.5
3703	1.471	5.4545	0.	-5984.2
3704	1.471	5.2727	0.	-5966.
3705	1.471	5.0909	0.	-5958.5
3706	1.471	4.9091	0.	-5960.8
3707	1.471	4.7273	0.	-5971.3
3708	1.471	4.5455	0.	-5988.2
3709	1.471	4.3636	0.	-6009.1
3710	1.471	4.1818	0.	-6031.9
3711	1.471	4.	0.	-6054.7
3712	1.471	3.8182	0.	-6075.9
3713	1.471	3.6364	0.	-6094.2
3714	1.471	3.4545	0.	-6108.6
3715	1.471	3.2727	0.	-6118.6
3716	1.471	3.0909	0.	-6123.7
3717	1.471	2.9091	0.	-6123.7
3718	1.471	2.7273	0.	-6118.6
3719	1.471	2.5455	0.	-6108.6
3720	1.471	2.3636	0.	-6094.2
3721	1.471	2.1818	0.	-6075.9
3722	1.471	2.	0.	-6054.7
3723	1.471	1.8182	0.	-6031.9
3724	1.471	1.6364	0.	-6009.1
3725	1.471	1.4545	0.	-5988.2
3726	1.471	1.2727	0.	-5971.3
3727	1.471	1.0909	0.	-5960.8
3728	1.471	0.90909	0.	-5958.5
3729	1.471	0.72727	0.	-5966.
3730	1.471	0.54545	0.	-5984.2
3731	1.471	0.36364	0.	-6013.5
3732	1.471	0.18182	0.	-6068.9
3733	1.2871	5.8182	0.	-6068.7
3734	1.2871	5.6364	0.	-6010.5
3735	1.2871	5.4545	0.	-5985.8
3736	1.2871	5.2727	0.	-5976.4
3737	1.2871	5.0909	0.	-5981.
3738	1.2871	4.9091	0.	-5997.8
3739	1.2871	4.7273	0.	-6024.1
3740	1.2871	4.5455	0.	-6056.7
3741	1.2871	4.3636	0.	-6092.3
3742	1.2871	4.1818	0.	-6128.3
3743	1.2871	4.	0.	-6162.4
3744	1.2871	3.8182	0.	-6192.8
3745	1.2871	3.6364	0.	-6218.3
3746	1.2871	3.4545	0.	-6238.1
3747	1.2871	3.2727	0.	-6251.5
3748	1.2871	3.0909	0.	-6258.3
3749	1.2871	2.9091	0.	-6258.3
3750	1.2871	2.7273	0.	-6251.5
3751	1.2871	2.5455	0.	-6238.1
3752	1.2871	2.3636	0.	-6218.3
3753	1.2871	2.1818	0.	-6192.8
3754	1.2871	2.	0.	-6162.4
3755	1.2871	1.8182	0.	-6128.3
3756	1.2871	1.6364	0.	-6092.3
3757	1.2871	1.4545	0.	-6056.7
3758	1.2871	1.2727	0.	-6024.1
3759	1.2871	1.0909	0.	-5997.8
3760	1.2871	0.90909	0.	-5981.
3761	1.2871	0.72727	0.	-5976.4
3762	1.2871	0.54545	0.	-5985.8
3763	1.2871	0.36364	0.	-6010.5
3764	1.2871	0.18182	0.	-6068.7
3765	1.1032	5.8182	0.	-6037.2
3766	1.1032	5.6364	0.	-5978.1
3767	1.1032	5.4545	0.	-5962.4
3768	1.1032	5.2727	0.	-5968.1
3769	1.1032	5.0909	0.	-5992.1
3770	1.1032	4.9091	0.	-6030.8
3771	1.1032	4.7273	0.	-6079.3
3772	1.1032	4.5455	0.	-6132.8
3773	1.1032	4.3636	0.	-6186.9
3774	1.1032	4.1818	0.	-6238.7
3775	1.1032	4.	0.	-6285.6
3776	1.1032	3.8182	0.	-6326.2
3777	1.1032	3.6364	0.	-6359.4
3778	1.1032	3.4545	0.	-6384.7
3779	1.1032	3.2727	0.	-6401.7
3780	1.1032	3.0909	0.	-6410.3
3781	1.1032	2.9091	0.	-6410.3
3782	1.1032	2.7273	0.	-6401.7
3783	1.1032	2.5455	0.	-6384.7
3784	1.1032	2.3636	0.	-6359.4
3785	1.1032	2.1818	0.	-6326.2
3786	1.1032	2.	0.	-6285.6
3787	1.1032	1.8182	0.	-6238.7
3788	1.1032	1.6364	0.	-6186.9
3789	1.1032	1.4545	0.	-6132.8
3790	1.1032	1.2727	0.	-6079.3
3791	1.1032	1.0909	0.	-6030.8
3792	1.1032	0.90909	0.	-5992.2
3793	1.1032	0.72727	0.	-5968.1
3794	1.1032	0.54545	0.	-5962.4
3795	1.1032	0.36364	0.	-5978.1
3796	1.1032	0.18182	0.	-6037.2
3797	0.91935	5.8182	0.	-5958.1
3798	0.91935	5.6364	0.	-5901.8
3799	0.91935	5.4545	0.	-5903.8
3800	0.91935	5.2727	0.	-5935.7
3801	0.91935	5.0909	0.	-5991.2
3802	0.91935	4.9091	0.	-6062.4
3803	0.91935	4.7273	0.	-6141.3
3804	0.91935	4.5455	0.	-6221.4
3805	0.91935	4.3636	0.	-6297.6
3806	0.91935	4.1818	0.	-6366.9
3807	0.91935	4.	0.	-6427.5
3808	0.91935	3.8182	0.	-6478.5
3809	0.91935	3.6364	0.	-6519.3
3810	0.91935	3.4545	0.	-6549.8
3811	0.91935	3.2727	0.	-6570.1
3812	0.91935	3.0909	0.	-6580.3
3813	0.91935	2.9091	0.	-6580.3
3814	0.91935	2.7273	0.	-6570.1
3815	0.91935	2.5455	0.	-6549.8
3816	0.91935	2.3636	0.	-6519.3
3817	0.91935	2.1818	0.	-6478.5
3818	0.91935	2.	0.	-6427.5
3819	0.91935	1.8182	0.	-6366.9
3820	0.91935	1.6364	0.	-6297.6
3821	0.91935	1.4545	0.	-6221.4
3822	0.91935	1.2727	0.	-6141.3
3823	0.91935	1.0909	0.	-6062.4
3824	0.91935	0.90909	0.	-5991.2
3825	0.91935	0.72727	0.	-5935.7
3826	0.91935	0.54545	0.	-5903.8
3827	0.91935	0.36364	0.	-5901.8
3828	0.91935	0.18182	0.	-5958.1
3829	0.73548	5.8182	0.	-5805.7
3830	0.73548	5.6364	0.	-5763.3
3831	0.73548	5.4545	0.	-5801.4
3832	0.73548	5.2727	0.	-5880.8
3833	0.73548	5.0909	0.	-5987.2
3834	0.73548	4.9091	0.	-6105.6
3835	0.73548	4.7273	0.	-6224.5
3836	0.73548	4.5455	0.	-6336.2
3837	0.73548	4.3636	0.	-6436.6
3838	0.73548	4.1818	0.	-6523.9
3839	0.73548	4.	0.	-6597.6
3840	0.73548	3.8182	0.	-6657.9
3841	0.73548	3.6364	0.	-6705.2
3842	0.73548	3.4545	0.	-6740.2
3843	0.73548	3.2727	0.	-6763.2
3844	0.73548	3.0909	0.	-6774.6
3845	0.73548	2.9091	0.	-6774.6
3846	0.73548	2.7273	0.	-6763.2
3847	0.73548	2.5455	0.	-6740.2
3848	0.73548	2.3636	0.	-6705.2
3849	0.73548	2.1818	0.	-6657.9
3850	0.73548	2.	0.	-6597.6
3851	0.73548	1.8182	0.	-6523.9
3852	0.73548	1.6364	0.	-6436.6
3853	0.73548	1.4545	0.	-6336.2
3854	0.73548	1.2727	0.	-6224.5
3855	0.73548	1.0909	0.	-6105.6
3856	0.73548	0.90909	0.	-5987.2
3857	0.73548	0.72727	0.	-5880.8
3858	0.73548	0.54545	0.	-5801.4
3859	0.73548	0.36364	0.	-5763.3
3860	0.73548	0.18182	0.	-5805.7
3861	0.55161	5.8182	0.	-5521.8
3862	0.55161	5.6364	0.	-5517.2
3863	0.55161	5.4545	0.	-5629.7
3864	0.55161	5.2727	0.	-5795.6
3865	0.55161	5.0909	0.	-5981.4
3866	0.55161	4.9091	0.	-6163.3
3867	0.55161	4.7273	0.	-6329.
3868	0.55161	4.5455	0.	-6473.6
3869	0.55161	4.3636	0.	-6596.7
3870	0.55161	4.1818	0.	-6699.3
3871	0.55161	4.	0.	-6783.2
3872	0.55161	3.8182	0.	-6850.2
3873	0.55161	3.6364	0.	-6901.9
3874	0.55161	3.4545	0.	-6939.6
3875	0.55161	3.2727	0.	-6964.2
3876	0.55161	3.0909	0.	-6976.3
3877	0.55161	2.9091	0.	-6976.3
3878	0.55161	2.7273	0.	-6964.2
3879	0.55161	2.5455	0.	-6939.6
3880	0.55161	2.3636	0.	-6901.9
3881	0.55161	2.1818	0.	-6850.2
3882	0.55161	2.	0.	-6783.2
3883	0.55161	1.8182	0.	-6699.3
3884	0.55161	1.6364	0.	-6596.7
3885	0.55161	1.4545	0.	-6473.6
3886	0.55161	1.2727	0.	-6329.
3887	0.55161	1.0909	0.	-6163.3
3888	0.55161	0.90909	0.	-5981.4
3889	0.55161	0.72727	0.	-5795.6
3890	0.55161	0.54545	0.	-5629.7
3891	0.55161	0.36364	0.	-5517.2
3892	0.55161	0.18182	0.	-5521.8
3893	0.36774	5.8182	0.	-5026.
3894	0.36774	5.6364	0.	-5156.9
3895	0.36774	5.4545	0.	-5451.1
3896	0.36774	5.2727	0.	-5777.8
3897	0.36774	5.0909	0.	-6077.6
3898	0.36774	4.9091	0.	-6333.1
3899	0.36774	4.7273	0.	-6544.4
3900	0.36774	4.5455	0.	-6716.7
3901	0.36774	4.3636	0.	-6856.3
3902	0.36774	4.1818	0.	-6968.6
3903	0.36774	4.	0.	-7058.
3904	0.36774	3.8182	0.	-7128.1
3905	0.36774	3.6364	0.	-7181.3
3906	0.36774	3.4545	0.	-7219.7
3907	0.36774	3.2727	0.	-7244.6
3908	0.36774	3.0909	0.	-7256.8
3909	0.36774	2.9091	0.	-7256.8
3910	0.36774	2.7273	0.	-7244.6
3911	0.36774	2.5455	0.	-7219.7
3912	0.36774	2.3636	0.	-7181.3
3913	0.36774	2.1818	0.	-7128.1
3914	0.36774	2.	0.	-7058.
3915	0.36774	1.8182	0.	-6968.6
3916	0.36774	1.6364	0.	-6856.3
3917	0.36774	1.4545	0.	-6716.7
3918	0.36774	1.2727	0.	-6544.4
3919	0.36774	1.0909	0.	-6333.1
3920	0.36774	0.90909	0.	-6077.6
3921	0.36774	0.72727	0.	-5777.8
3922	0.36774	0.54545	0.	-5451.1
3923	0.36774	0.36364	0.	-5156.9
3924	0.36774	0.18182	0.	-5026.
3925	0.18387	5.8182	0.	-3886.7
3926	0.18387	5.6364	0.	-4486.1
3927	0.18387	5.4545	0.	-5179.4
3928	0.18387	5.2727	0.	-5709.6
3929	0.18387	5.0909	0.	-6108.
3930	0.18387	4.9091	0.	-6408.
3931	0.18387	4.7273	0.	-6637.7
3932	0.18387	4.5455	0.	-6815.7
3933	0.18387	4.3636	0.	-6954.9
3934	0.18387	4.1818	0.	-7064.1
3935	0.18387	4.	0.	-7149.5
3936	0.18387	3.8182	0.	-7215.4
3937	0.18387	3.6364	0.	-7265.
3938	0.18387	3.4545	0.	-7300.5
3939	0.18387	3.2727	0.	-7323.4
3940	0.18387	3.0909	0.	-7334.7
3941	0.18387	2.9091	0.	-7334.7
3942	0.18387	2.7273	0.	-7323.4
3943	0.18387	2.5455	0.	-7300.5
3944	0.18387	2.3636	0.	-7265.
3945	0.18387	2.1818	0.	-7215.4
3946	0.18387	2.	0.	-7149.5
3947	0.18387	1.8182	0.	-7064.1
3948	0.18387	1.6364	0.	-6954.9
3949	0.18387	1.4545	0.	-6815.7
3950	0.18387	1.2727	0.	-6637.7
3951	0.18387	1.0909	0.	-6408.
3952	0.18387	0.90909	0.	-6108.
3953	0.18387	0.72727	0.	-5709.6
3954	0.18387	0.54545	0.	-5179.4
3955	0.18387	0.36364	0.	-4486.1
3956	0.18387	0.18182	0.	-3886.7
3957	22.967	2.1818	0.	-1001.7
3958	22.967	2.3636	0.	-689.09
3959	22.967	2.5455	0.	-568.91
3960	22.967	2.7273	0.	-511.83
3961	22.967	2.9091	0.	-487.43
3962	22.967	3.0909	0.	-487.43
3963	22.967	3.2727	0.	-511.83
3964	22.967	3.4545	0.	-568.91
3965	22.967	3.6364	0.	-689.09
3966	22.967	3.8182	0.	-1001.7
3967	23.139	2.1818	0.	-754.99
3968	23.139	2.3636	0.	-607.63
3969	23.139	2.5455	0.	-508.95
3970	23.139	2.7273	0.	-456.06
3971	23.139	2.9091	0.	-432.24
3972	23.139	3.0909	0.	-432.24
3973	23.139	3.2727	0.	-456.06
3974	23.139	3.4545	0.	-508.95
3975	23.139	3.6364	0.	-607.63
3976	23.139	3.8182	0.	-754.99
3977	23.311	2.1818	0.	-536.92
3978	23.311	2.3636	0.	-481.39
3979	23.311	2.5455	0.	-421.22
3980	23.311	2.7273	0.	-378.86
3981	23.311	2.9091	0.	-358.07
3982	23.311	3.0909	0.	-358.07
3983	23.311	3.2727	0.	-378.86
3984	23.311	3.4545	0.	-421.22
3985	23.311	3.6364	0.	-481.39
3986	23.311	3.8182	0.	-536.92
3987	23.483	2.1818	0.	-406.86
3988	23.483	2.3636	0.	-374.57
3989	23.483	2.5455	0.	-330.15
3990	23.483	2.7273	0.	-293.26
3991	23.483	2.9091	0.	-272.75
3992	23.483	3.0909	0.	-272.75
3993	23.483	3.2727	0.	-293.26
3994	23.483	3.4545	0.	-330.15
3995	23.483	3.6364	0.	-374.57
3996	23.483	3.8182	0.	-406.86
3997	23.656	2.1818	0.	-326.38
3998	23.656	2.3636	0.	-297.1
3999	23.656	2.5455	0.	-255.05
4000	23.656	2.7273	0.	-213.27
4001	23.656	2.9091	0.	-184.
4002	23.656	3.0909	0.	-184.
4003	23.656	3.2727	0.	-213.27
4004	23.656	3.4545	0.	-255.05
4005	23.656	3.6364	0.	-297.1
4006	23.656	3.8182	0.	-326.38
4007	23.828	2.1818	0.	-284.43
4008	23.828	2.3636	0.	-254.64
4009	23.828	2.5455	0.	-212.05
4010	23.828	2.7273	0.	-165.26
4011	23.828	2.9091	0.	-121.7
4012	23.828	3.0909	0.	-121.7
4013	23.828	3.2727	0.	-165.26
4014	23.828	3.4545	0.	-212.05
4015	23.828	3.6364	0.	-254.64
4016	23.828	3.8182	0.	-284.43
4017	23.828	4.1818	0.	-282.32
4018	23.656	4.1818	0.	-310.85
4019	23.483	4.1818	0.	-364.39
4020	23.311	4.1818	0.	-443.84
4021	23.139	4.1818	0.	-589.35
4022	23.828	4.3636	0.	-253.63
4023	23.656	4.3636	0.	-272.22
4024	23.483	4.3636	0.	-305.49
4025	23.311	4.3636	0.	-346.67
4026	23.139	4.3636	0.	-394.97
4027	23.828	4.5455	0.	-215.86
4028	23.656	4.5455	0.	-226.96
4029	23.483	4.5455	0.	-246.82
4030	23.311	4.5455	0.	-269.07
4031	23.139	4.5455	0.	-292.31
4032	23.828	4.7273	0.	-175.7
4033	23.656	4.7273	0.	-182.37
4034	23.483	4.7273	0.	-194.83
4035	23.311	4.7273	0.	-207.58
4036	23.139	4.7273	0.	-220.07
4037	23.828	4.9091	0.	-137.33
4038	23.656	4.9091	0.	-141.71
4039	23.483	4.9091	0.	-150.16
4040	23.311	4.9091	0.	-158.
4041	23.139	4.9091	0.	-165.35
4042	23.828	5.0909	0.	-103.02
4043	23.656	5.0909	0.	-106.33
4044	23.483	5.0909	0.	-112.45
4045	23.311	5.0909	0.	-117.55
4046	23.139	5.0909	0.	-122.17
4047	23.828	5.2727	0.	-73.964
4048	23.656	5.2727	0.	-76.912
4049	23.483	5.2727	0.	-81.484
4050	23.311	5.2727	0.	-84.781
4051	23.139	5.2727	0.	-87.687
4052	23.828	5.4545	0.	-50.822
4053	23.656	5.4545	0.	-53.893
4054	23.483	5.4545	0.	-57.222
4055	23.311	5.4545	0.	-58.899
4056	23.139	5.4545	0.	-60.271
4057	23.828	5.6364	0.	-33.98
4058	23.656	5.6364	0.	-37.686
4059	23.483	5.6364	0.	-39.928
4060	23.311	5.6364	0.	-39.595
4061	23.139	5.6364	0.	-38.712
4062	23.828	5.8182	0.	-24.032
4063	23.656	5.8182	0.	-29.323
4064	23.483	5.8182	0.	-30.873
4065	23.311	5.8182	0.	-28.114
4066	23.139	5.8182	0.	-22.758
4067	23.139	1.8182	0.	-589.35
4068	23.311	1.8182	0.	-443.84
4069	23.483	1.8182	0.	-364.39
4070	23.656	1.8182	0.	-310.85
4071	23.828	1.8182	0.	-282.32
4072	23.139	1.6364	0.	-394.97
4073	23.311	1.6364	0.	-346.67
4074	23.483	1.6364	0.	-305.49
4075	23.656	1.6364	0.	-272.22
4076	23.828	1.6364	0.	-253.63
4077	23.139	1.4545	0.	-292.31
4078	23.311	1.4545	0.	-269.07
4079	23.483	1.4545	0.	-246.82
4080	23.656	1.4545	0.	-226.96
4081	23.828	1.4545	0.	-215.86
4082	23.139	1.2727	0.	-220.07
4083	23.311	1.2727	0.	-207.58
4084	23.483	1.2727	0.	-194.83
4085	23.656	1.2727	0.	-182.37
4086	23.828	1.2727	0.	-175.7
4087	23.139	1.0909	0.	-165.35
4088	23.311	1.0909	0.	-158.
4089	23.483	1.0909	0.	-150.16
4090	23.656	1.0909	0.	-141.71
4091	23.828	1.0909	0.	-137.33
4092	23.139	0.90909	0.	-122.17
4093	23.311	0.90909	0.	-117.55
4094	23.483	0.90909	0.	-112.45
4095	23.656	0.90909	0.	-106.33
4096	23.828	0.90909	0.	-103.02
4097	23.139	0.72727	0.	-87.687
4098	23.311	0.72727	0.	-84.781
4099	23.483	0.72727	0.	-81.484
4100	23.656	0.72727	0.	-76.912
4101	23.828	0.72727	0.	-73.964
4102	23.139	0.54545	0.	-60.271
4103	23.311	0.54545	0.	-58.899
4104	23.483	0.54545	0.	-57.222
4105	23.656	0.54545	0.	-53.893
4106	23.828	0.54545	0.	-50.823
4107	23.139	0.36364	0.	-38.712
4108	23.311	0.36364	0.	-39.595
4109	23.483	0.36364	0.	-39.928
4110	23.656	0.36364	0.	-37.686
4111	23.828	0.36364	0.	-33.98
4112	23.139	0.18182	0.	-22.758
4113	23.311	0.18182	0.	-28.114
4114	23.483	0.18182	0.	-30.873
4115	23.656	0.18182	0.	-29.323
4116	23.828	0.18182	0.	-24.032
4117	23.828	0.18182	0.1	-20.459
4118	23.656	0.18182	0.1	-14.115
4119	23.483	0.18182	0.1	-9.5192
4120	23.311	0.18182	0.1	-5.4935
4121	23.139	0.18182	0.1	-3.5451
4122	23.828	0.36364	0.1	-27.238
4123	23.656	0.36364	0.1	-14.701
4124	23.483	0.36364	0.1	-7.2607
4125	23.311	0.36364	0.1	-3.1128
4126	23.139	0.36364	0.1	-3.2306
4127	23.828	0.54545	0.1	-31.154
4128	23.656	0.54545	0.1	-15.625
4129	23.483	0.54545	0.1	-6.8464
4130	23.311	0.54545	0.1	-2.8257
4131	23.139	0.54545	0.1	-3.9012
4132	23.828	0.72727	0.1	-33.081
4133	23.656	0.72727	0.1	-15.765
4134	23.483	0.72727	0.1	-6.3653
4135	23.311	0.72727	0.1	-2.6239
4136	23.139	0.72727	0.1	-4.5797
4137	23.828	0.90909	0.1	-33.8
4138	23.656	0.90909	0.1	-14.974
4139	23.483	0.90909	0.1	-5.0531
4140	23.311	0.90909	0.1	-1.9607
4141	23.139	0.90909	0.1	-5.0307
4142	23.828	1.0909	0.1	-33.702
4143	23.656	1.0909	0.1	-13.132
4144	23.483	1.0909	0.1	-2.4471
4145	23.311	1.0909	0.1	-1.0762
4146	23.139	1.0909	0.1	-5.1333
4147	23.828	1.2727	0.1	-33.171
4148	23.656	1.2727	0.1	-10.233
4149	23.483	1.2727	0.1	-0.24461
4150	23.311	1.2727	0.1	-0.57567
4151	23.139	1.2727	0.1	-4.9543
4152	23.828	1.4545	0.1	-32.7
4153	23.656	1.4545	0.1	-6.6903
4154	23.483	1.4545	0.1	-4.7204e-004
4155	23.311	1.4545	0.1	-0.40571
4156	23.139	1.4545	0.1	-4.2373
4157	23.828	1.6364	0.1	-32.673
4158	23.656	1.6364	0.1	-4.0012
4159	23.483	1.6364	0.1	-2.304e-002
4160	23.311	1.6364	0.1	5.253e-003
4161	23.139	1.6364	0.1	-4.7553
4162	23.828	1.8182	0.1	-32.635
4163	23.656	1.8182	0.1	-3.691
4164	23.483	1.8182	0.1	-0.24041
4165	23.311	1.8182	0.1	-0.60091
4166	23.139	1.8182	0.1	1.0261
4167	23.139	5.8182	0.1	-3.5451
4168	23.311	5.8182	0.1	-5.4935
4169	23.483	5.8182	0.1	-9.5192
4170	23.656	5.8182	0.1	-14.115
4171	23.828	5.8182	0.1	-20.459
4172	23.139	5.6364	0.1	-3.2306
4173	23.311	5.6364	0.1	-3.1128
4174	23.483	5.6364	0.1	-7.2607
4175	23.656	5.6364	0.1	-14.701
4176	23.828	5.6364	0.1	-27.238
4177	23.139	5.4545	0.1	-3.9012
4178	23.311	5.4545	0.1	-2.8258
4179	23.483	5.4545	0.1	-6.8464
4180	23.656	5.4545	0.1	-15.625
4181	23.828	5.4545	0.1	-31.154
4182	23.139	5.2727	0.1	-4.5797
4183	23.311	5.2727	0.1	-2.624
4184	23.483	5.2727	0.1	-6.3654
4185	23.656	5.2727	0.1	-15.765
4186	23.828	5.2727	0.1	-33.081
4187	23.139	5.0909	0.1	-5.0308
4188	23.311	5.0909	0.1	-1.9607
4189	23.483	5.0909	0.1	-5.0532
4190	23.656	5.0909	0.1	-14.974
4191	23.828	5.0909	0.1	-33.8
4192	23.139	4.9091	0.1	-5.1333
4193	23.311	4.9091	0.1	-1.0762
4194	23.483	4.9091	0.1	-2.4472
4195	23.656	4.9091	0.1	-13.132
4196	23.828	4.9091	0.1	-33.702
4197	23.139	4.7273	0.1	-4.9543
4198	23.311	4.7273	0.1	-0.57567
4199	23.483	4.7273	0.1	-0.24462
4200	23.656	4.7273	0.1	-10.233
4201	23.828	4.7273	0.1	-33.171
4202	23.139	4.5455	0.1	-4.2373
4203	23.311	4.5455	0.1	-0.40571
4204	23.483	4.5455	0.1	-4.729e-004
4205	23.656	4.5455	0.1	-6.6904
4206	23.828	4.5455	0.1	-32.7
4207	23.139	4.3636	0.1	-4.7553
4208	23.311	4.3636	0.1	5.2521e-003
4209	23.483	4.3636	0.1	-2.304e-002
4210	23.656	4.3636	0.1	-4.0012
4211	23.828	4.3636	0.1	-32.673
4212	23.139	4.1818	0.1	1.0261
4213	23.311	4.1818	0.1	-0.60091
4214	23.483	4.1818	0.1	-0.24041
4215	23.656	4.1818	0.1	-3.691
4216	23.828	4.1818	0.1	-32.635
4217	23.828	3.8182	0.1	-24.598
4218	23.828	3.6364	0.1	-13.82
4219	23.828	3.4545	0.1	-4.6691
4220	23.828	3.2727	0.1	-1.5952
4221	23.828	3.0909	0.1	-0.71469
4222	23.828	2.9091	0.1	-0.71469
4223	23.828	2.7273	0.1	-1.5952
4224	23.828	2.5455	0.1	-4.6691
4225	23.828	2.3636	0.1	-13.82
4226	23.828	2.1818	0.1	-24.598
4227	23.656	3.8182	0.1	-3.8882
4228	23.656	3.6364	0.1	-2.7042
4229	23.656	3.4545	0.1	-1.6779
4230	23.656	3.2727	0.1	-0.96976
4231	23.656	3.0909	0.1	-0.6616
4232	23.656	2.9091	0.1	-0.6616
4233	23.656	2.7273	0.1	-0.96976
4234	23.656	2.5455	0.1	-1.6779
4235	23.656	2.3636	0.1	-2.7042
4236	23.656	2.1818	0.1	-3.8882
4237	23.483	3.8182	0.1	-2.9255
4238	23.483	3.6364	0.1	-3.2836
4239	23.483	3.4545	0.1	-1.4953
4240	23.483	3.2727	0.1	-0.6404
4241	23.483	3.0909	0.1	-0.23735
4242	23.483	2.9091	0.1	-0.23735
4243	23.483	2.7273	0.1	-0.6404
4244	23.483	2.5455	0.1	-1.4953
4245	23.483	2.3636	0.1	-3.2836
4246	23.483	2.1818	0.1	-2.9255
4247	23.311	3.8182	0.1	-9.5953
4248	23.311	3.6364	0.1	-7.4375
4249	23.311	3.4545	0.1	-3.5406
4250	23.311	3.2727	0.1	-1.0174
4251	23.311	3.0909	0.1	-0.16063
4252	23.311	2.9091	0.1	-0.16063
4253	23.311	2.7273	0.1	-1.0174
4254	23.311	2.5455	0.1	-3.5406
4255	23.311	2.3636	0.1	-7.4375
4256	23.311	2.1818	0.1	-9.5953
4257	23.139	3.8182	0.1	-42.92
4258	23.139	3.6364	0.1	-39.557
4259	23.139	3.4545	0.1	-28.778
4260	23.139	3.2727	0.1	-22.27
4261	23.139	3.0909	0.1	-19.182
4262	23.139	2.9091	0.1	-19.182
4263	23.139	2.7273	0.1	-22.27
4264	23.139	2.5455	0.1	-28.778
4265	23.139	2.3636	0.1	-39.557
4266	23.139	2.1818	0.1	-42.92
4267	22.967	3.8182	0.1	-157.71
4268	22.967	3.6364	0.1	-104.16
4269	22.967	3.4545	0.1	-77.652
4270	22.967	3.2727	0.1	-65.179
4271	22.967	3.0909	0.1	-59.565
4272	22.967	2.9091	0.1	-59.565
4273	22.967	2.7273	0.1	-65.179
4274	22.967	2.5455	0.1	-77.652
4275	22.967	2.3636	0.1	-104.16
4276	22.967	2.1818	0.1	-157.71
4277	0.18387	0.18182	0.1	-314.29
4278	0.18387	0.36364	0.1	-610.4
4279	0.18387	0.54545	0.1	-743.11
4280	0.18387	0.72727	0.1	-828.55
4281	0.18387	0.90909	0.1	-883.34
4282	0.18387	1.0909	0.1	-922.91
4283	0.18387	1.2727	0.1	-951.96
4284	0.18387	1.4545	0.1	-974.01
4285	0.18387	1.6364	0.1	-990.96
4286	0.18387	1.8182	0.1	-1004.1
4287	0.18387	2.	0.1	-1014.3
4288	0.18387	2.1818	0.1	-1022.1
4289	0.18387	2.3636	0.1	-1027.9
4290	0.18387	2.5455	0.1	-1032.1
4291	0.18387	2.7273	0.1	-1034.8
4292	0.18387	2.9091	0.1	-1036.1
4293	0.18387	3.0909	0.1	-1036.1
4294	0.18387	3.2727	0.1	-1034.8
4295	0.18387	3.4545	0.1	-1032.1
4296	0.18387	3.6364	0.1	-1027.9
4297	0.18387	3.8182	0.1	-1022.1
4298	0.18387	4.	0.1	-1014.3
4299	0.18387	4.1818	0.1	-1004.1
4300	0.18387	4.3636	0.1	-990.96
4301	0.18387	4.5455	0.1	-974.01
4302	0.18387	4.7273	0.1	-951.96
4303	0.18387	4.9091	0.1	-922.91
4304	0.18387	5.0909	0.1	-883.34
4305	0.18387	5.2727	0.1	-828.54
4306	0.18387	5.4545	0.1	-743.11
4307	0.18387	5.6364	0.1	-610.4
4308	0.18387	5.8182	0.1	-314.29
4309	0.36774	0.18182	0.1	-92.165
4310	0.36774	0.36364	0.1	137.93
4311	0.36774	0.54545	0.1	183.76
4312	0.36774	0.72727	0.1	206.91
4313	0.36774	0.90909	0.1	221.8
4314	0.36774	1.0909	0.1	232.26
4315	0.36774	1.2727	0.1	239.9
4316	0.36774	1.4545	0.1	245.65
4317	0.36774	1.6364	0.1	250.07
4318	0.36774	1.8182	0.1	253.48
4319	0.36774	2.	0.1	256.12
4320	0.36774	2.1818	0.1	258.13
4321	0.36774	2.3636	0.1	259.64
4322	0.36774	2.5455	0.1	260.72
4323	0.36774	2.7273	0.1	261.41
4324	0.36774	2.9091	0.1	261.75
4325	0.36774	3.0909	0.1	261.75
4326	0.36774	3.2727	0.1	261.41
4327	0.36774	3.4545	0.1	260.72
4328	0.36774	3.6364	0.1	259.64
4329	0.36774	3.8182	0.1	258.13
4330	0.36774	4.	0.1	256.12
4331	0.36774	4.1818	0.1	253.48
4332	0.36774	4.3636	0.1	250.07
4333	0.36774	4.5455	0.1	245.65
4334	0.36774	4.7273	0.1	239.9
4335	0.36774	4.9091	0.1	232.26
4336	0.36774	5.0909	0.1	221.8
4337	0.36774	5.2727	0.1	206.91
4338	0.36774	5.4545	0.1	183.76
4339	0.36774	5.6364	0.1	137.93
4340	0.36774	5.8182	0.1	-92.165
4341	0.55161	0.18182	0.1	-103.63
4342	0.55161	0.36364	0.1	-40.511
4343	0.55161	0.54545	0.1	-49.223
4344	0.55161	0.72727	0.1	-53.869
4345	0.55161	0.90909	0.1	-57.105
4346	0.55161	1.0909	0.1	-59.491
4347	0.55161	1.2727	0.1	-61.268
4348	0.55161	1.4545	0.1	-62.619
4349	0.55161	1.6364	0.1	-63.661
4350	0.55161	1.8182	0.1	-64.468
4351	0.55161	2.	0.1	-65.093
4352	0.55161	2.1818	0.1	-65.573
4353	0.55161	2.3636	0.1	-65.932
4354	0.55161	2.5455	0.1	-66.188
4355	0.55161	2.7273	0.1	-66.353
4356	0.55161	2.9091	0.1	-66.433
4357	0.55161	3.0909	0.1	-66.433
4358	0.55161	3.2727	0.1	-66.353
4359	0.55161	3.4545	0.1	-66.188
4360	0.55161	3.6364	0.1	-65.932
4361	0.55161	3.8182	0.1	-65.573
4362	0.55161	4.	0.1	-65.093
4363	0.55161	4.1818	0.1	-64.468
4364	0.55161	4.3636	0.1	-63.661
4365	0.55161	4.5455	0.1	-62.619
4366	0.55161	4.7273	0.1	-61.268
4367	0.55161	4.9091	0.1	-59.491
4368	0.55161	5.0909	0.1	-57.105
4369	0.55161	5.2727	0.1	-53.869
4370	0.55161	5.4545	0.1	-49.223
4371	0.55161	5.6364	0.1	-40.511
4372	0.55161	5.8182	0.1	-103.63
4373	0.73548	0.18182	0.1	-71.872
4374	0.73548	0.36364	0.1	5.738
4375	0.73548	0.54545	0.1	10.623
4376	0.73548	0.72727	0.1	12.428
4377	0.73548	0.90909	0.1	13.672
4378	0.73548	1.0909	0.1	14.463
4379	0.73548	1.2727	0.1	15.026
4380	0.73548	1.4545	0.1	15.438
4381	0.73548	1.6364	0.1	15.752
4382	0.73548	1.8182	0.1	15.994
4383	0.73548	2.	0.1	16.181
4384	0.73548	2.1818	0.1	16.324
4385	0.73548	2.3636	0.1	16.432
4386	0.73548	2.5455	0.1	16.508
4387	0.73548	2.7273	0.1	16.558
4388	0.73548	2.9091	0.1	16.582
4389	0.73548	3.0909	0.1	16.582
4390	0.73548	3.2727	0.1	16.558
4391	0.73548	3.4545	0.1	16.508
4392	0.73548	3.6364	0.1	16.432
4393	0.73548	3.8182	0.1	16.324
4394	0.73548	4.	0.1	16.181
4395	0.73548	4.1818	0.1	15.994
4396	0.73548	4.3636	0.1	15.752
4397	0.73548	4.5455	0.1	15.438
4398	0.73548	4.7273	0.1	15.026
4399	0.73548	4.9091	0.1	14.463
4400	0.73548	5.0909	0.1	13.672
4401	0.73548	5.2727	0.1	12.428
4402	0.73548	5.4545	0.1	10.623
4403	0.73548	5.6364	0.1	5.738
4404	0.73548	5.8182	0.1	-71.872
4405	0.91935	0.18182	0.1	-52.719
4406	0.91935	0.36364	0.1	-4.9291
4407	0.91935	0.54545	0.1	-3.96
4408	0.91935	0.72727	0.1	-4.0194
4409	0.91935	0.90909	0.1	-4.0154
4410	0.91935	1.0909	0.1	-4.0763
4411	0.91935	1.2727	0.1	-4.1377
4412	0.91935	1.4545	0.1	-4.1967
4413	0.91935	1.6364	0.1	-4.2462
4414	0.91935	1.8182	0.1	-4.2861
4415	0.91935	2.	0.1	-4.3172
4416	0.91935	2.1818	0.1	-4.3408
4417	0.91935	2.3636	0.1	-4.3582
4418	0.91935	2.5455	0.1	-4.3705
4419	0.91935	2.7273	0.1	-4.3782
4420	0.91935	2.9091	0.1	-4.382
4421	0.91935	3.0909	0.1	-4.382
4422	0.91935	3.2727	0.1	-4.3782
4423	0.91935	3.4545	0.1	-4.3705
4424	0.91935	3.6364	0.1	-4.3582
4425	0.91935	3.8182	0.1	-4.3408
4426	0.91935	4.	0.1	-4.3172
4427	0.91935	4.1818	0.1	-4.2861
4428	0.91935	4.3636	0.1	-4.2462
4429	0.91935	4.5455	0.1	-4.1967
4430	0.91935	4.7273	0.1	-4.1377
4431	0.91935	4.9091	0.1	-4.0763
4432	0.91935	5.0909	0.1	-4.0154
4433	0.91935	5.2727	0.1	-4.0194
4434	0.91935	5.4545	0.1	-3.96
4435	0.91935	5.6364	0.1	-4.9291
4436	0.91935	5.8182	0.1	-52.719
4437	1.1032	0.18182	0.1	-35.141
4438	1.1032	0.36364	0.1	-1.6944
4439	1.1032	0.54545	0.1	-4.0292e-002
4440	1.1032	0.72727	0.1	0.30038
4441	1.1032	0.90909	0.1	0.57017
4442	1.1032	1.0909	0.1	0.7072
4443	1.1032	1.2727	0.1	0.79313
4444	1.1032	1.4545	0.1	0.8443
4445	1.1032	1.6364	0.1	0.87756
4446	1.1032	1.8182	0.1	0.90029
4447	1.1032	2.	0.1	0.91678
4448	1.1032	2.1818	0.1	0.92909
4449	1.1032	2.3636	0.1	0.93828
4450	1.1032	2.5455	0.1	0.94488
4451	1.1032	2.7273	0.1	0.94918
4452	1.1032	2.9091	0.1	0.9513
4453	1.1032	3.0909	0.1	0.9513
4454	1.1032	3.2727	0.1	0.94918
4455	1.1032	3.4545	0.1	0.94488
4456	1.1032	3.6364	0.1	0.93828
4457	1.1032	3.8182	0.1	0.92909
4458	1.1032	4.	0.1	0.91678
4459	1.1032	4.1818	0.1	0.90029
4460	1.1032	4.3636	0.1	0.87756
4461	1.1032	4.5455	0.1	0.8443
4462	1.1032	4.7273	0.1	0.79313
4463	1.1032	4.9091	0.1	0.7072
4464	1.1032	5.0909	0.1	0.57017
4465	1.1032	5.2727	0.1	0.30038
4466	1.1032	5.4545	0.1	-4.0293e-002
4467	1.1032	5.6364	0.1	-1.6944
4468	1.1032	5.8182	0.1	-35.141
4469	1.2871	0.18182	0.1	-22.987
4470	1.2871	0.36364	0.1	-2.084
4471	1.2871	0.54545	0.1	-0.86442
4472	1.2871	0.72727	0.1	-0.68825
4473	1.2871	0.90909	0.1	-0.51956
4474	1.2871	1.0909	0.1	-0.44323
4475	1.2871	1.2727	0.1	-0.39804
4476	1.2871	1.4545	0.1	-0.37676
4477	1.2871	1.6364	0.1	-0.36712
4478	1.2871	1.8182	0.1	-0.3637
4479	1.2871	2.	0.1	-0.36302
4480	1.2871	2.1818	0.1	-0.36342
4481	1.2871	2.3636	0.1	-0.36409
4482	1.2871	2.5455	0.1	-0.36469
4483	1.2871	2.7273	0.1	-0.3651
4484	1.2871	2.9091	0.1	-0.36531
4485	1.2871	3.0909	0.1	-0.36531
4486	1.2871	3.2727	0.1	-0.3651
4487	1.2871	3.4545	0.1	-0.36469
4488	1.2871	3.6364	0.1	-0.36409
4489	1.2871	3.8182	0.1	-0.36342
4490	1.2871	4.	0.1	-0.36302
4491	1.2871	4.1818	0.1	-0.3637
4492	1.2871	4.3636	0.1	-0.36712
4493	1.2871	4.5455	0.1	-0.37676
4494	1.2871	4.7273	0.1	-0.39804
4495	1.2871	4.9091	0.1	-0.44323
4496	1.2871	5.0909	0.1	-0.51956
4497	1.2871	5.2727	0.1	-0.68825
4498	1.2871	5.4545	0.1	-0.86442
4499	1.2871	5.6364	0.1	-2.084
4500	1.2871	5.8182	0.1	-22.988
4501	1.471	0.18182	0.1	-14.758
4502	1.471	0.36364	0.1	-1.6521
4503	1.471	0.54545	0.1	-0.53735
4504	1.471	0.72727	0.1	-0.3657
4505	1.471	0.90909	0.1	-0.19905
4506	1.471	1.0909	0.1	-0.11583
4507	1.471	1.2727	0.1	-6.1973e-002
4508	1.471	1.4545	0.1	-3.2188e-002
4509	1.471	1.6364	0.1	-1.5801e-002
4510	1.471	1.8182	0.1	-7.5506e-003
4511	1.471	2.	0.1	-3.7091e-003
4512	1.471	2.1818	0.1	-2.1703e-003
4513	1.471	2.3636	0.1	-1.7224e-003
4514	1.471	2.5455	0.1	-1.723e-003
4515	1.471	2.7273	0.1	-1.8445e-003
4516	1.471	2.9091	0.1	-1.9347e-003
4517	1.471	3.0909	0.1	-1.9346e-003
4518	1.471	3.2727	0.1	-1.8446e-003
4519	1.471	3.4545	0.1	-1.723e-003
4520	1.471	3.6364	0.1	-1.7223e-003
4521	1.471	3.8182	0.1	-2.1701e-003
4522	1.471	4.	0.1	-3.7089e-003
4523	1.471	4.1818	0.1	-7.5506e-003
4524	1.471	4.3636	0.1	-1.5801e-002
4525	1.471	4.5455	0.1	-3.2188e-002
4526	1.471	4.7273	0.1	-6.1973e-002
4527	1.471	4.9091	0.1	-0.11583
4528	1.471	5.0909	0.1	-0.19905
4529	1.471	5.2727	0.1	-0.3657
4530	1.471	5.4545	0.1	-0.53735
4531	1.471	5.6364	0.1	-1.6521
4532	1.471	5.8182	0.1	-14.758
4533	1.6548	0.18182	0.1	-9.7432
4534	1.6548	0.36364	0.1	-1.4869
4535	1.6548	0.54545	0.1	-0.52449
4536	1.6548	0.72727	0.1	-0.38909
4537	1.6548	0.90909	0.1	-0.24647
4538	1.6548	1.0909	0.1	-0.17372
4539	1.6548	1.2727	0.1	-0.12426
4540	1.6548	1.4545	0.1	-9.5518e-002
4541	1.6548	1.6364	0.1	-7.9016e-002
4542	1.6548	1.8182	0.1	-7.0482e-002
4543	1.6548	2.	0.1	-6.6585e-002
4544	1.6548	2.1818	0.1	-6.5257e-002
4545	1.6548	2.3636	0.1	-6.5188e-002
4546	1.6548	2.5455	0.1	-6.5605e-002
4547	1.6548	2.7273	0.1	-6.6069e-002
4548	1.6548	2.9091	0.1	-6.6349e-002
4549	1.6548	3.0909	0.1	-6.6349e-002
4550	1.6548	3.2727	0.1	-6.6068e-002
4551	1.6548	3.4545	0.1	-6.5605e-002
4552	1.6548	3.6364	0.1	-6.5188e-002
4553	1.6548	3.8182	0.1	-6.5257e-002
4554	1.6548	4.	0.1	-6.6585e-002
4555	1.6548	4.1818	0.1	-7.0482e-002
4556	1.6548	4.3636	0.1	-7.9016e-002
4557	1.6548	4.5455	0.1	-9.5518e-002
4558	1.6548	4.7273	0.1	-0.12426
4559	1.6548	4.9091	0.1	-0.17372
4560	1.6548	5.0909	0.1	-0.24647
4561	1.6548	5.2727	0.1	-0.38909
4562	1.6548	5.4545	0.1	-0.52449
4563	1.6548	5.6364	0.1	-1.4869
4564	1.6548	5.8182	0.1	-9.7433
4565	1.8387	0.18182	0.1	-6.6977
4566	1.8387	0.36364	0.1	-1.3005
4567	1.8387	0.54545	0.1	-0.44868
4568	1.8387	0.72727	0.1	-0.33408
4569	1.8387	0.90909	0.1	-0.20681
4570	1.8387	1.0909	0.1	-0.14015
4571	1.8387	1.2727	0.1	-9.2697e-002
4572	1.8387	1.4545	0.1	-6.3337e-002
4573	1.8387	1.6364	0.1	-4.5181e-002
4574	1.8387	1.8182	0.1	-3.4813e-002
4575	1.8387	2.	0.1	-2.9338e-002
4576	1.8387	2.1818	0.1	-2.6829e-002
4577	1.8387	2.3636	0.1	-2.5962e-002
4578	1.8387	2.5455	0.1	-2.5886e-002
4579	1.8387	2.7273	0.1	-2.6077e-002
4580	1.8387	2.9091	0.1	-2.6239e-002
4581	1.8387	3.0909	0.1	-2.6239e-002
4582	1.8387	3.2727	0.1	-2.6077e-002
4583	1.8387	3.4545	0.1	-2.5886e-002
4584	1.8387	3.6364	0.1	-2.5962e-002
4585	1.8387	3.8182	0.1	-2.6829e-002
4586	1.8387	4.	0.1	-2.9338e-002
4587	1.8387	4.1818	0.1	-3.4812e-002
4588	1.8387	4.3636	0.1	-4.5181e-002
4589	1.8387	4.5455	0.1	-6.3336e-002
4590	1.8387	4.7273	0.1	-9.2696e-002
4591	1.8387	4.9091	0.1	-0.14015
4592	1.8387	5.0909	0.1	-0.20681
4593	1.8387	5.2727	0.1	-0.33408
4594	1.8387	5.4545	0.1	-0.44869
4595	1.8387	5.6364	0.1	-1.3005
4596	1.8387	5.8182	0.1	-6.6977
4597	2.0226	0.18182	0.1	-4.8099
4598	2.0226	0.36364	0.1	-1.155
4599	2.0226	0.54545	0.1	-0.40067
4600	2.0226	0.72727	0.1	-0.30509
4601	2.0226	0.90909	0.1	-0.19255
4602	2.0226	1.0909	0.1	-0.13276
4603	2.0226	1.2727	0.1	-8.8601e-002
4604	2.0226	1.4545	0.1	-5.993e-002
4605	2.0226	1.6364	0.1	-4.1132e-002
4606	2.0226	1.8182	0.1	-2.9549e-002
4607	2.0226	2.	0.1	-2.278e-002
4608	2.0226	2.1818	0.1	-1.9138e-002
4609	2.0226	2.3636	0.1	-1.7391e-002
4610	2.0226	2.5455	0.1	-1.6696e-002
4611	2.0226	2.7273	0.1	-1.6501e-002
4612	2.0226	2.9091	0.1	-1.6479e-002
4613	2.0226	3.0909	0.1	-1.6479e-002
4614	2.0226	3.2727	0.1	-1.6501e-002
4615	2.0226	3.4545	0.1	-1.6696e-002
4616	2.0226	3.6364	0.1	-1.7391e-002
4617	2.0226	3.8182	0.1	-1.9138e-002
4618	2.0226	4.	0.1	-2.278e-002
4619	2.0226	4.1818	0.1	-2.9549e-002
4620	2.0226	4.3636	0.1	-4.1131e-002
4621	2.0226	4.5455	0.1	-5.9929e-002
4622	2.0226	4.7273	0.1	-8.86e-002
4623	2.0226	4.9091	0.1	-0.13276
4624	2.0226	5.0909	0.1	-0.19255
4625	2.0226	5.2727	0.1	-0.30509
4626	2.0226	5.4545	0.1	-0.40067
4627	2.0226	5.6364	0.1	-1.155
4628	2.0226	5.8182	0.1	-4.8099
4629	2.2065	0.18182	0.1	-3.582
4630	2.2065	0.36364	0.1	-1.0277
4631	2.2065	0.54545	0.1	-0.35503
4632	2.2065	0.72727	0.1	-0.27441
4633	2.2065	0.90909	0.1	-0.17422
4634	2.2065	1.0909	0.1	-0.12049
4635	2.2065	1.2727	0.1	-7.9609e-002
4636	2.2065	1.4545	0.1	-5.2007e-002
4637	2.2065	1.6364	0.1	-3.3001e-002
4638	2.2065	1.8182	0.1	-2.053e-002
4639	2.2065	2.	0.1	-1.2633e-002
4640	2.2065	2.1818	0.1	-7.8884e-003
4641	2.2065	2.3636	0.1	-5.2034e-003
4642	2.2065	2.5455	0.1	-3.7961e-003
4643	2.2065	2.7273	0.1	-3.1295e-003
4644	2.2065	2.9091	0.1	-2.8744e-003
4645	2.2065	3.0909	0.1	-2.8745e-003
4646	2.2065	3.2727	0.1	-3.1296e-003
4647	2.2065	3.4545	0.1	-3.796e-003
4648	2.2065	3.6364	0.1	-5.2034e-003
4649	2.2065	3.8182	0.1	-7.8883e-003
4650	2.2065	4.	0.1	-1.2633e-002
4651	2.2065	4.1818	0.1	-2.0529e-002
4652	2.2065	4.3636	0.1	-3.3e-002
4653	2.2065	4.5455	0.1	-5.2007e-002
4654	2.2065	4.7273	0.1	-7.9609e-002
4655	2.2065	4.9091	0.1	-0.12049
4656	2.2065	5.0909	0.1	-0.17422
4657	2.2065	5.2727	0.1	-0.27441
4658	2.2065	5.4545	0.1	-0.35503
4659	2.2065	5.6364	0.1	-1.0277
4660	2.2065	5.8182	0.1	-3.582
4661	2.3903	0.18182	0.1	-2.7476
4662	2.3903	0.36364	0.1	-0.91884
4663	2.3903	0.54545	0.1	-0.31642
4664	2.3903	0.72727	0.1	-0.24822
4665	2.3903	0.90909	0.1	-0.1588
4666	2.3903	1.0909	0.1	-0.1106
4667	2.3903	1.2727	0.1	-7.3042e-002
4668	2.3903	1.4545	0.1	-4.6885e-002
4669	2.3903	1.6364	0.1	-2.8152e-002
4670	2.3903	1.8182	0.1	-1.5236e-002
4671	2.3903	2.	0.1	-6.5506e-003
4672	2.3903	2.1818	0.1	-9.2321e-004
4673	2.3903	2.3636	0.1	2.5762e-003
4674	2.3903	2.5455	0.1	4.64e-003
4675	2.3903	2.7273	0.1	5.7595e-003
4676	2.3903	2.9091	0.1	6.2443e-003
4677	2.3903	3.0909	0.1	6.2443e-003
4678	2.3903	3.2727	0.1	5.7595e-003
4679	2.3903	3.4545	0.1	4.6401e-003
4680	2.3903	3.6364	0.1	2.5763e-003
4681	2.3903	3.8182	0.1	-9.2313e-004
4682	2.3903	4.	0.1	-6.5503e-003
4683	2.3903	4.1818	0.1	-1.5236e-002
4684	2.3903	4.3636	0.1	-2.8151e-002
4685	2.3903	4.5455	0.1	-4.6885e-002
4686	2.3903	4.7273	0.1	-7.3042e-002
4687	2.3903	4.9091	0.1	-0.1106
4688	2.3903	5.0909	0.1	-0.1588
4689	2.3903	5.2727	0.1	-0.24822
4690	2.3903	5.4545	0.1	-0.31642
4691	2.3903	5.6364	0.1	-0.91884
4692	2.3903	5.8182	0.1	-2.7476
4693	2.5742	0.18182	0.1	-2.1576
4694	2.5742	0.36364	0.1	-0.82413
4695	2.5742	0.54545	0.1	-0.2824
4696	2.5742	0.72727	0.1	-0.22441
4697	2.5742	0.90909	0.1	-0.14431
4698	2.5742	1.0909	0.1	-0.10103
4699	2.5742	1.2727	0.1	-6.6643e-002
4700	2.5742	1.4545	0.1	-4.2103e-002
4701	2.5742	1.6364	0.1	-2.3964e-002
4702	2.5742	1.8182	0.1	-1.096e-002
4703	2.5742	2.	0.1	-1.8012e-003
4704	2.5742	2.1818	0.1	4.4616e-003
4705	2.5742	2.3636	0.1	8.6033e-003
4706	2.5742	2.5455	0.1	1.1214e-002
4707	2.5742	2.7273	0.1	1.2725e-002
4708	2.5742	2.9091	0.1	1.3413e-002
4709	2.5742	3.0909	0.1	1.3413e-002
4710	2.5742	3.2727	0.1	1.2725e-002
4711	2.5742	3.4545	0.1	1.1214e-002
4712	2.5742	3.6364	0.1	8.6033e-003
4713	2.5742	3.8182	0.1	4.4619e-003
4714	2.5742	4.	0.1	-1.801e-003
4715	2.5742	4.1818	0.1	-1.0959e-002
4716	2.5742	4.3636	0.1	-2.3964e-002
4717	2.5742	4.5455	0.1	-4.2103e-002
4718	2.5742	4.7273	0.1	-6.6642e-002
4719	2.5742	4.9091	0.1	-0.10103
4720	2.5742	5.0909	0.1	-0.14431
4721	2.5742	5.2727	0.1	-0.22441
4722	2.5742	5.4545	0.1	-0.2824
4723	2.5742	5.6364	0.1	-0.82413
4724	2.5742	5.8182	0.1	-2.1576
4725	2.7581	0.18182	0.1	-1.7266
4726	2.7581	0.36364	0.1	-0.74142
4727	2.7581	0.54545	0.1	-0.2526
4728	2.7581	0.72727	0.1	-0.2031
4729	2.7581	0.90909	0.1	-0.13114
4730	2.7581	1.0909	0.1	-9.2222e-002
4731	2.7581	1.2727	0.1	-6.0819e-002
4732	2.7581	1.4545	0.1	-3.7968e-002
4733	2.7581	1.6364	0.1	-2.0645e-002
4734	2.7581	1.8182	0.1	-7.8352e-003
4735	2.7581	2.	0.1	1.5131e-003
4736	2.7581	2.1818	0.1	8.1667e-003
4737	2.7581	2.3636	0.1	1.2759e-002
4738	2.7581	2.5455	0.1	1.5781e-002
4739	2.7581	2.7273	0.1	1.7598e-002
4740	2.7581	2.9091	0.1	1.8447e-002
4741	2.7581	3.0909	0.1	1.8447e-002
4742	2.7581	3.2727	0.1	1.7598e-002
4743	2.7581	3.4545	0.1	1.5781e-002
4744	2.7581	3.6364	0.1	1.2759e-002
4745	2.7581	3.8182	0.1	8.1669e-003
4746	2.7581	4.	0.1	1.5133e-003
4747	2.7581	4.1818	0.1	-7.8349e-003
4748	2.7581	4.3636	0.1	-2.0645e-002
4749	2.7581	4.5455	0.1	-3.7968e-002
4750	2.7581	4.7273	0.1	-6.0818e-002
4751	2.7581	4.9091	0.1	-9.2221e-002
4752	2.7581	5.0909	0.1	-0.13114
4753	2.7581	5.2727	0.1	-0.2031
4754	2.7581	5.4545	0.1	-0.2526
4755	2.7581	5.6364	0.1	-0.74142
4756	2.7581	5.8182	0.1	-1.7266
4757	2.9419	0.18182	0.1	-1.4033
4758	2.9419	0.36364	0.1	-0.6687
4759	2.9419	0.54545	0.1	-0.22633
4760	2.9419	0.72727	0.1	-0.18392
4761	2.9419	0.90909	0.1	-0.11908
4762	2.9419	1.0909	0.1	-8.404e-002
4763	2.9419	1.2727	0.1	-5.5392e-002
4764	2.9419	1.4545	0.1	-3.4225e-002
4765	2.9419	1.6364	0.1	-1.7851e-002
4766	2.9419	1.8182	0.1	-5.4417e-003
4767	2.9419	2.	0.1	3.8691e-003
4768	2.9419	2.1818	0.1	1.07e-002
4769	2.9419	2.3636	0.1	1.5563e-002
4770	2.9419	2.5455	0.1	1.886e-002
4771	2.9419	2.7273	0.1	2.0893e-002
4772	2.9419	2.9091	0.1	2.186e-002
4773	2.9419	3.0909	0.1	2.186e-002
4774	2.9419	3.2727	0.1	2.0893e-002
4775	2.9419	3.4545	0.1	1.8861e-002
4776	2.9419	3.6364	0.1	1.5564e-002
4777	2.9419	3.8182	0.1	1.07e-002
4778	2.9419	4.	0.1	3.8695e-003
4779	2.9419	4.1818	0.1	-5.4414e-003
4780	2.9419	4.3636	0.1	-1.785e-002
4781	2.9419	4.5455	0.1	-3.4225e-002
4782	2.9419	4.7273	0.1	-5.5391e-002
4783	2.9419	4.9091	0.1	-8.4039e-002
4784	2.9419	5.0909	0.1	-0.11908
4785	2.9419	5.2727	0.1	-0.18392
4786	2.9419	5.4545	0.1	-0.22633
4787	2.9419	5.6364	0.1	-0.6687
4788	2.9419	5.8182	0.1	-1.4033
4789	3.1258	0.18182	0.1	-1.1553
4790	3.1258	0.36364	0.1	-0.60443
4791	3.1258	0.54545	0.1	-0.20311
4792	3.1258	0.72727	0.1	-0.16666
4793	3.1258	0.90909	0.1	-0.1081
4794	3.1258	1.0909	0.1	-7.6499e-002
4795	3.1258	1.2727	0.1	-5.038e-002
4796	3.1258	1.4545	0.1	-3.0847e-002
4797	3.1258	1.6364	0.1	-1.5489e-002
4798	3.1258	1.8182	0.1	-3.6221e-003
4799	3.1258	2.	0.1	5.4784e-003
4800	3.1258	2.1818	0.1	1.2312e-002
4801	3.1258	2.3636	0.1	1.7292e-002
4802	3.1258	2.5455	0.1	2.0742e-002
4803	3.1258	2.7273	0.1	2.2907e-002
4804	3.1258	2.9091	0.1	2.3949e-002
4805	3.1258	3.0909	0.1	2.3949e-002
4806	3.1258	3.2727	0.1	2.2907e-002
4807	3.1258	3.4545	0.1	2.0742e-002
4808	3.1258	3.6364	0.1	1.7292e-002
4809	3.1258	3.8182	0.1	1.2312e-002
4810	3.1258	4.	0.1	5.4787e-003
4811	3.1258	4.1818	0.1	-3.6218e-003
4812	3.1258	4.3636	0.1	-1.5489e-002
4813	3.1258	4.5455	0.1	-3.0846e-002
4814	3.1258	4.7273	0.1	-5.0379e-002
4815	3.1258	4.9091	0.1	-7.6498e-002
4816	3.1258	5.0909	0.1	-0.1081
4817	3.1258	5.2727	0.1	-0.16666
4818	3.1258	5.4545	0.1	-0.20311
4819	3.1258	5.6364	0.1	-0.60443
4820	3.1258	5.8182	0.1	-1.1553
4821	3.3097	0.18182	0.1	-0.96159
4822	3.3097	0.36364	0.1	-0.54737
4823	3.3097	0.54545	0.1	-0.18255
4824	3.3097	0.72727	0.1	-0.15111
4825	3.3097	0.90909	0.1	-9.8128e-002
4826	3.3097	1.0909	0.1	-6.9581e-002
4827	3.3097	1.2727	0.1	-4.5773e-002
4828	3.3097	1.4545	0.1	-2.7796e-002
4829	3.3097	1.6364	0.1	-1.3478e-002
4830	3.3097	1.8182	0.1	-2.2421e-003
4831	3.3097	2.	0.1	6.524e-003
4832	3.3097	2.1818	0.1	1.3227e-002
4833	3.3097	2.3636	0.1	1.8199e-002
4834	3.3097	2.5455	0.1	2.1699e-002
4835	3.3097	2.7273	0.1	2.3924e-002
4836	3.3097	2.9091	0.1	2.5004e-002
4837	3.3097	3.0909	0.1	2.5004e-002
4838	3.3097	3.2727	0.1	2.3924e-002
4839	3.3097	3.4545	0.1	2.1699e-002
4840	3.3097	3.6364	0.1	1.8199e-002
4841	3.3097	3.8182	0.1	1.3227e-002
4842	3.3097	4.	0.1	6.5244e-003
4843	3.3097	4.1818	0.1	-2.2415e-003
4844	3.3097	4.3636	0.1	-1.3478e-002
4845	3.3097	4.5455	0.1	-2.7796e-002
4846	3.3097	4.7273	0.1	-4.5772e-002
4847	3.3097	4.9091	0.1	-6.958e-002
4848	3.3097	5.0909	0.1	-9.8127e-002
4849	3.3097	5.2727	0.1	-0.15111
4850	3.3097	5.4545	0.1	-0.18255
4851	3.3097	5.6364	0.1	-0.54736
4852	3.3097	5.8182	0.1	-0.96159
4853	3.4935	0.18182	0.1	-0.80797
4854	3.4935	0.36364	0.1	-0.49647
4855	3.4935	0.54545	0.1	-0.16428
4856	3.4935	0.72727	0.1	-0.1371
4857	3.4935	0.90909	0.1	-8.907e-002
4858	3.4935	1.0909	0.1	-6.3251e-002
4859	3.4935	1.2727	0.1	-4.1551e-002
4860	3.4935	1.4545	0.1	-2.5041e-002
4861	3.4935	1.6364	0.1	-1.1753e-002
4862	3.4935	1.8182	0.1	-1.1968e-003
4863	3.4935	2.	0.1	7.1513e-003
4864	3.4935	2.1818	0.1	1.3625e-002
4865	3.4935	2.3636	0.1	1.8494e-002
4866	3.4935	2.5455	0.1	2.1963e-002
4867	3.4935	2.7273	0.1	2.419e-002
4868	3.4935	2.9091	0.1	2.5278e-002
4869	3.4935	3.0909	0.1	2.5278e-002
4870	3.4935	3.2727	0.1	2.419e-002
4871	3.4935	3.4545	0.1	2.1963e-002
4872	3.4935	3.6364	0.1	1.8494e-002
4873	3.4935	3.8182	0.1	1.3625e-002
4874	3.4935	4.	0.1	7.1516e-003
4875	3.4935	4.1818	0.1	-1.1964e-003
4876	3.4935	4.3636	0.1	-1.1753e-002
4877	3.4935	4.5455	0.1	-2.504e-002
4878	3.4935	4.7273	0.1	-4.155e-002
4879	3.4935	4.9091	0.1	-6.3251e-002
4880	3.4935	5.0909	0.1	-8.9069e-002
4881	3.4935	5.2727	0.1	-0.1371
4882	3.4935	5.4545	0.1	-0.16428
4883	3.4935	5.6364	0.1	-0.49647
4884	3.4935	5.8182	0.1	-0.80797
4885	3.6774	0.18182	0.1	-0.68458
4886	3.6774	0.36364	0.1	-0.45092
4887	3.6774	0.54545	0.1	-0.14801
4888	3.6774	0.72727	0.1	-0.12446
4889	3.6774	0.90909	0.1	-8.0859e-002
4890	3.6774	1.0909	0.1	-5.748e-002
4891	3.6774	1.2727	0.1	-3.7699e-002
4892	3.6774	1.4545	0.1	-2.256e-002
4893	3.6774	1.6364	0.1	-1.0273e-002
4894	3.6774	1.8182	0.1	-4.1656e-004
4895	3.6774	2.	0.1	7.4622e-003
4896	3.6774	2.1818	0.1	1.364e-002
4897	3.6774	2.3636	0.1	1.8336e-002
4898	3.6774	2.5455	0.1	2.1713e-002
4899	3.6774	2.7273	0.1	2.3898e-002
4900	3.6774	2.9091	0.1	2.497e-002
4901	3.6774	3.0909	0.1	2.497e-002
4902	3.6774	3.2727	0.1	2.3898e-002
4903	3.6774	3.4545	0.1	2.1714e-002
4904	3.6774	3.6364	0.1	1.8336e-002
4905	3.6774	3.8182	0.1	1.364e-002
4906	3.6774	4.	0.1	7.4625e-003
4907	3.6774	4.1818	0.1	-4.161e-004
4908	3.6774	4.3636	0.1	-1.0273e-002
4909	3.6774	4.5455	0.1	-2.2559e-002
4910	3.6774	4.7273	0.1	-3.7699e-002
4911	3.6774	4.9091	0.1	-5.748e-002
4912	3.6774	5.0909	0.1	-8.0858e-002
4913	3.6774	5.2727	0.1	-0.12446
4914	3.6774	5.4545	0.1	-0.14801
4915	3.6774	5.6364	0.1	-0.45092
4916	3.6774	5.8182	0.1	-0.68458
4917	3.8613	0.18182	0.1	-0.58439
4918	3.8613	0.36364	0.1	-0.41003
4919	3.8613	0.54545	0.1	-0.1335
4920	3.8613	0.72727	0.1	-0.11305
4921	3.8613	0.90909	0.1	-7.3429e-002
4922	3.8613	1.0909	0.1	-5.224e-002
4923	3.8613	1.2727	0.1	-3.4209e-002
4924	3.8613	1.4545	0.1	-2.0342e-002
4925	3.8613	1.6364	0.1	-9.0141e-003
4926	3.8613	1.8182	0.1	1.4422e-004
4927	3.8613	2.	0.1	7.527e-003
4928	3.8613	2.1818	0.1	1.3367e-002
4929	3.8613	2.3636	0.1	1.7842e-002
4930	3.8613	2.5455	0.1	2.1085e-002
4931	3.8613	2.7273	0.1	2.3195e-002
4932	3.8613	2.9091	0.1	2.4234e-002
4933	3.8613	3.0909	0.1	2.4234e-002
4934	3.8613	3.2727	0.1	2.3195e-002
4935	3.8613	3.4545	0.1	2.1085e-002
4936	3.8613	3.6364	0.1	1.7843e-002
4937	3.8613	3.8182	0.1	1.3367e-002
4938	3.8613	4.	0.1	7.5274e-003
4939	3.8613	4.1818	0.1	1.4465e-004
4940	3.8613	4.3636	0.1	-9.0136e-003
4941	3.8613	4.5455	0.1	-2.0342e-002
4942	3.8613	4.7273	0.1	-3.4208e-002
4943	3.8613	4.9091	0.1	-5.224e-002
4944	3.8613	5.0909	0.1	-7.3428e-002
4945	3.8613	5.2727	0.1	-0.11305
4946	3.8613	5.4545	0.1	-0.1335
4947	3.8613	5.6364	0.1	-0.41003
4948	3.8613	5.8182	0.1	-0.58439
4949	4.0452	0.18182	0.1	-0.5023
4950	4.0452	0.36364	0.1	-0.37321
4951	4.0452	0.54545	0.1	-0.12054
4952	4.0452	0.72727	0.1	-0.10275
4953	4.0452	0.90909	0.1	-6.6712e-002
4954	4.0452	1.0909	0.1	-4.7494e-002
4955	4.0452	1.2727	0.1	-3.1057e-002
4956	4.0452	1.4545	0.1	-1.8369e-002
4957	4.0452	1.6364	0.1	-7.9487e-003
4958	4.0452	1.8182	0.1	5.2729e-004
4959	4.0452	2.	0.1	7.4059e-003
4960	4.0452	2.1818	0.1	1.2884e-002
4961	4.0452	2.3636	0.1	1.711e-002
4962	4.0452	2.5455	0.1	2.019e-002
4963	4.0452	2.7273	0.1	2.2202e-002
4964	4.0452	2.9091	0.1	2.3196e-002
4965	4.0452	3.0909	0.1	2.3196e-002
4966	4.0452	3.2727	0.1	2.2202e-002
4967	4.0452	3.4545	0.1	2.019e-002
4968	4.0452	3.6364	0.1	1.711e-002
4969	4.0452	3.8182	0.1	1.2885e-002
4970	4.0452	4.	0.1	7.4063e-003
4971	4.0452	4.1818	0.1	5.2773e-004
4972	4.0452	4.3636	0.1	-7.9483e-003
4973	4.0452	4.5455	0.1	-1.8369e-002
4974	4.0452	4.7273	0.1	-3.1056e-002
4975	4.0452	4.9091	0.1	-4.7493e-002
4976	4.0452	5.0909	0.1	-6.6711e-002
4977	4.0452	5.2727	0.1	-0.10274
4978	4.0452	5.4545	0.1	-0.12054
4979	4.0452	5.6364	0.1	-0.37321
4980	4.0452	5.8182	0.1	-0.5023
4981	4.229	0.18182	0.1	-0.43451
4982	4.229	0.36364	0.1	-0.33998
4983	4.229	0.54545	0.1	-0.10893
4984	4.229	0.72727	0.1	-9.3428e-002
4985	4.229	0.90909	0.1	-6.0633e-002
4986	4.229	1.0909	0.1	-4.3193e-002
4987	4.229	1.2727	0.1	-2.821e-002
4988	4.229	1.4545	0.1	-1.6611e-002
4989	4.229	1.6364	0.1	-7.0439e-003
4990	4.229	1.8182	0.1	7.7558e-004
4991	4.229	2.	0.1	7.155e-003
4992	4.229	2.1818	0.1	1.2263e-002
4993	4.229	2.3636	0.1	1.6224e-002
4994	4.229	2.5455	0.1	1.9122e-002
4995	4.229	2.7273	0.1	2.1023e-002
4996	4.229	2.9091	0.1	2.1964e-002
4997	4.229	3.0909	0.1	2.1964e-002
4998	4.229	3.2727	0.1	2.1023e-002
4999	4.229	3.4545	0.1	1.9122e-002
5000	4.229	3.6364	0.1	1.6224e-002
5001	4.229	3.8182	0.1	1.2264e-002
5002	4.229	4.	0.1	7.1554e-003
5003	4.229	4.1818	0.1	7.7607e-004
5004	4.229	4.3636	0.1	-7.0434e-003
5005	4.229	4.5455	0.1	-1.6611e-002
5006	4.229	4.7273	0.1	-2.8209e-002
5007	4.229	4.9091	0.1	-4.3193e-002
5008	4.229	5.0909	0.1	-6.0632e-002
5009	4.229	5.2727	0.1	-9.3427e-002
5010	4.229	5.4545	0.1	-0.10893
5011	4.229	5.6364	0.1	-0.33997
5012	4.229	5.8182	0.1	-0.43451
5013	4.4129	0.18182	0.1	-0.37814
5014	4.4129	0.36364	0.1	-0.30991
5015	4.4129	0.54545	0.1	-9.8511e-002
5016	4.4129	0.72727	0.1	-8.4993e-002
5017	4.4129	0.90909	0.1	-5.5133e-002
5018	4.4129	1.0909	0.1	-3.93e-002
5019	4.4129	1.2727	0.1	-2.5644e-002
5020	4.4129	1.4545	0.1	-1.5049e-002
5021	4.4129	1.6364	0.1	-6.279e-003
5022	4.4129	1.8182	0.1	9.1603e-004
5023	4.4129	2.	0.1	6.8104e-003
5024	4.4129	2.1818	0.1	1.155e-002
5025	4.4129	2.3636	0.1	1.5239e-002
5026	4.4129	2.5455	0.1	1.7949e-002
5027	4.4129	2.7273	0.1	1.973e-002
5028	4.4129	2.9091	0.1	2.0614e-002
5029	4.4129	3.0909	0.1	2.0614e-002
5030	4.4129	3.2727	0.1	1.973e-002
5031	4.4129	3.4545	0.1	1.7949e-002
5032	4.4129	3.6364	0.1	1.524e-002
5033	4.4129	3.8182	0.1	1.155e-002
5034	4.4129	4.	0.1	6.8107e-003
5035	4.4129	4.1818	0.1	9.1661e-004
5036	4.4129	4.3636	0.1	-6.2785e-003
5037	4.4129	4.5455	0.1	-1.5048e-002
5038	4.4129	4.7273	0.1	-2.5643e-002
5039	4.4129	4.9091	0.1	-3.93e-002
5040	4.4129	5.0909	0.1	-5.5131e-002
5041	4.4129	5.2727	0.1	-8.4993e-002
5042	4.4129	5.4545	0.1	-9.8511e-002
5043	4.4129	5.6364	0.1	-0.3099
5044	4.4129	5.8182	0.1	-0.37814
5045	4.5968	0.18182	0.1	-0.33102
5046	4.5968	0.36364	0.1	-0.28266
5047	4.5968	0.54545	0.1	-8.9158e-002
5048	4.5968	0.72727	0.1	-7.7358e-002
5049	4.5968	0.90909	0.1	-5.0161e-002
5050	4.5968	1.0909	0.1	-3.5786e-002
5051	4.5968	1.2727	0.1	-2.3342e-002
5052	4.5968	1.4545	0.1	-1.367e-002
5053	4.5968	1.6364	0.1	-5.6424e-003
5054	4.5968	1.8182	0.1	9.6348e-004
5055	4.5968	2.	0.1	6.3927e-003
5056	4.5968	2.1818	0.1	1.0773e-002
5057	4.5968	2.3636	0.1	1.4193e-002
5058	4.5968	2.5455	0.1	1.6712e-002
5059	4.5968	2.7273	0.1	1.8371e-002
5060	4.5968	2.9091	0.1	1.9195e-002
5061	4.5968	3.0909	0.1	1.9195e-002
5062	4.5968	3.2727	0.1	1.8371e-002
5063	4.5968	3.4545	0.1	1.6712e-002
5064	4.5968	3.6364	0.1	1.4193e-002
5065	4.5968	3.8182	0.1	1.0773e-002
5066	4.5968	4.	0.1	6.3932e-003
5067	4.5968	4.1818	0.1	9.6394e-004
5068	4.5968	4.3636	0.1	-5.6419e-003
5069	4.5968	4.5455	0.1	-1.3669e-002
5070	4.5968	4.7273	0.1	-2.3341e-002
5071	4.5968	4.9091	0.1	-3.5786e-002
5072	4.5968	5.0909	0.1	-5.016e-002
5073	4.5968	5.2727	0.1	-7.7358e-002
5074	4.5968	5.4545	0.1	-8.9158e-002
5075	4.5968	5.6364	0.1	-0.28265
5076	4.5968	5.8182	0.1	-0.33102
5077	4.7806	0.18182	0.1	-0.29144
5078	4.7806	0.36364	0.1	-0.25792
5079	4.7806	0.54545	0.1	-8.0747e-002
5080	4.7806	0.72727	0.1	-7.0443e-002
5081	4.7806	0.90909	0.1	-4.5669e-002
5082	4.7806	1.0909	0.1	-3.2616e-002
5083	4.7806	1.2727	0.1	-2.128e-002
5084	4.7806	1.4545	0.1	-1.2457e-002
5085	4.7806	1.6364	0.1	-5.1175e-003
5086	4.7806	1.8182	0.1	9.3609e-004
5087	4.7806	2.	0.1	5.9242e-003
5088	4.7806	2.1818	0.1	9.9593e-003
5089	4.7806	2.3636	0.1	1.3117e-002
5090	4.7806	2.5455	0.1	1.5448e-002
5091	4.7806	2.7273	0.1	1.6986e-002
5092	4.7806	2.9091	0.1	1.775e-002
5093	4.7806	3.0909	0.1	1.775e-002
5094	4.7806	3.2727	0.1	1.6986e-002
5095	4.7806	3.4545	0.1	1.5448e-002
5096	4.7806	3.6364	0.1	1.3118e-002
5097	4.7806	3.8182	0.1	9.9596e-003
5098	4.7806	4.	0.1	5.9247e-003
5099	4.7806	4.1818	0.1	9.3661e-004
5100	4.7806	4.3636	0.1	-5.117e-003
5101	4.7806	4.5455	0.1	-1.2456e-002
5102	4.7806	4.7273	0.1	-2.1279e-002
5103	4.7806	4.9091	0.1	-3.2616e-002
5104	4.7806	5.0909	0.1	-4.5668e-002
5105	4.7806	5.2727	0.1	-7.0442e-002
5106	4.7806	5.4545	0.1	-8.0747e-002
5107	4.7806	5.6364	0.1	-0.25792
5108	4.7806	5.8182	0.1	-0.29144
5109	4.9645	0.18182	0.1	-0.25807
5110	4.9645	0.36364	0.1	-0.23543
5111	4.9645	0.54545	0.1	-7.3164e-002
5112	4.9645	0.72727	0.1	-6.4165e-002
5113	4.9645	0.90909	0.1	-4.1598e-002
5114	4.9645	1.0909	0.1	-2.9749e-002
5115	4.9645	1.2727	0.1	-1.9426e-002
5116	4.9645	1.4545	0.1	-1.1383e-002
5117	4.9645	1.6364	0.1	-4.6803e-003
5118	4.9645	1.8182	0.1	8.5852e-004
5119	4.9645	2.	0.1	5.4315e-003
5120	4.9645	2.1818	0.1	9.1383e-003
5121	4.9645	2.3636	0.1	1.2045e-002
5122	4.9645	2.5455	0.1	1.4193e-002
5123	4.9645	2.7273	0.1	1.5613e-002
5124	4.9645	2.9091	0.1	1.6319e-002
5125	4.9645	3.0909	0.1	1.6319e-002
5126	4.9645	3.2727	0.1	1.5613e-002
5127	4.9645	3.4545	0.1	1.4193e-002
5128	4.9645	3.6364	0.1	1.2045e-002
5129	4.9645	3.8182	0.1	9.1387e-003
5130	4.9645	4.	0.1	5.432e-003
5131	4.9645	4.1818	0.1	8.5907e-004
5132	4.9645	4.3636	0.1	-4.6797e-003
5133	4.9645	4.5455	0.1	-1.1382e-002
5134	4.9645	4.7273	0.1	-1.9425e-002
5135	4.9645	4.9091	0.1	-2.9748e-002
5136	4.9645	5.0909	0.1	-4.1597e-002
5137	4.9645	5.2727	0.1	-6.4164e-002
5138	4.9645	5.4545	0.1	-7.3164e-002
5139	4.9645	5.6364	0.1	-0.23543
5140	4.9645	5.8182	0.1	-0.25807
5141	5.1484	0.18182	0.1	-0.22985
5142	5.1484	0.36364	0.1	-0.21495
5143	5.1484	0.54545	0.1	-6.6318e-002
5144	5.1484	0.72727	0.1	-5.846e-002
5145	5.1484	0.90909	0.1	-3.7908e-002
5146	5.1484	1.0909	0.1	-2.7154e-002
5147	5.1484	1.2727	0.1	-1.7758e-002
5148	5.1484	1.4545	0.1	-1.0433e-002
5149	5.1484	1.6364	0.1	-4.3177e-003
5150	5.1484	1.8182	0.1	7.4257e-004
5151	5.1484	2.	0.1	4.9272e-003
5152	5.1484	2.1818	0.1	8.3248e-003
5153	5.1484	2.3636	0.1	1.0993e-002
5154	5.1484	2.5455	0.1	1.2967e-002
5155	5.1484	2.7273	0.1	1.4273e-002
5156	5.1484	2.9091	0.1	1.4924e-002
5157	5.1484	3.0909	0.1	1.4924e-002
5158	5.1484	3.2727	0.1	1.4273e-002
5159	5.1484	3.4545	0.1	1.2967e-002
5160	5.1484	3.6364	0.1	1.0993e-002
5161	5.1484	3.8182	0.1	8.325e-003
5162	5.1484	4.	0.1	4.9277e-003
5163	5.1484	4.1818	0.1	7.4294e-004
5164	5.1484	4.3636	0.1	-4.3172e-003
5165	5.1484	4.5455	0.1	-1.0432e-002
5166	5.1484	4.7273	0.1	-1.7758e-002
5167	5.1484	4.9091	0.1	-2.7153e-002
5168	5.1484	5.0909	0.1	-3.7907e-002
5169	5.1484	5.2727	0.1	-5.8459e-002
5170	5.1484	5.4545	0.1	-6.6318e-002
5171	5.1484	5.6364	0.1	-0.21495
5172	5.1484	5.8182	0.1	-0.22985
5173	5.3323	0.18182	0.1	-0.20595
5174	5.3323	0.36364	0.1	-0.19628
5175	5.3323	0.54545	0.1	-6.0135e-002
5176	5.3323	0.72727	0.1	-5.3279e-002
5177	5.3323	0.90909	0.1	-3.4568e-002
5178	5.3323	1.0909	0.1	-2.4813e-002
5179	5.3323	1.2727	0.1	-1.6266e-002
5180	5.3323	1.4545	0.1	-9.5988e-003
5181	5.3323	1.6364	0.1	-4.0259e-003
5182	5.3323	1.8182	0.1	5.912e-004
5183	5.3323	2.	0.1	4.4144e-003
5184	5.3323	2.1818	0.1	7.5221e-003
5185	5.3323	2.3636	0.1	9.9658e-003
5186	5.3323	2.5455	0.1	1.1775e-002
5187	5.3323	2.7273	0.1	1.2974e-002
5188	5.3323	2.9091	0.1	1.3571e-002
5189	5.3323	3.0909	0.1	1.3571e-002
5190	5.3323	3.2727	0.1	1.2974e-002
5191	5.3323	3.4545	0.1	1.1776e-002
5192	5.3323	3.6364	0.1	9.966e-003
5193	5.3323	3.8182	0.1	7.5225e-003
5194	5.3323	4.	0.1	4.4147e-003
5195	5.3323	4.1818	0.1	5.9173e-004
5196	5.3323	4.3636	0.1	-4.0255e-003
5197	5.3323	4.5455	0.1	-9.5981e-003
5198	5.3323	4.7273	0.1	-1.6265e-002
5199	5.3323	4.9091	0.1	-2.4812e-002
5200	5.3323	5.0909	0.1	-3.4567e-002
5201	5.3323	5.2727	0.1	-5.3279e-002
5202	5.3323	5.4545	0.1	-6.0135e-002
5203	5.3323	5.6364	0.1	-0.19628
5204	5.3323	5.8182	0.1	-0.20595
5205	5.5161	0.18182	0.1	-0.1857
5206	5.5161	0.36364	0.1	-0.17926
5207	5.5161	0.54545	0.1	-5.4545e-002
5208	5.5161	0.72727	0.1	-4.8571e-002
5209	5.5161	0.90909	0.1	-3.1543e-002
5210	5.5161	1.0909	0.1	-2.2699e-002
5211	5.5161	1.2727	0.1	-1.4931e-002
5212	5.5161	1.4545	0.1	-8.8679e-003
5213	5.5161	1.6364	0.1	-3.7943e-003
5214	5.5161	1.8182	0.1	4.1297e-004
5215	5.5161	2.	0.1	3.9006e-003
5216	5.5161	2.1818	0.1	6.7387e-003
5217	5.5161	2.3636	0.1	8.9721e-003
5218	5.5161	2.5455	0.1	1.0627e-002
5219	5.5161	2.7273	0.1	1.1724e-002
5220	5.5161	2.9091	0.1	1.2271e-002
5221	5.5161	3.0909	0.1	1.2271e-002
5222	5.5161	3.2727	0.1	1.1724e-002
5223	5.5161	3.4545	0.1	1.0628e-002
5224	5.5161	3.6364	0.1	8.9724e-003
5225	5.5161	3.8182	0.1	6.739e-003
5226	5.5161	4.	0.1	3.9011e-003
5227	5.5161	4.1818	0.1	4.1355e-004
5228	5.5161	4.3636	0.1	-3.7938e-003
5229	5.5161	4.5455	0.1	-8.8673e-003
5230	5.5161	4.7273	0.1	-1.493e-002
5231	5.5161	4.9091	0.1	-2.2699e-002
5232	5.5161	5.0909	0.1	-3.1542e-002
5233	5.5161	5.2727	0.1	-4.857e-002
5234	5.5161	5.4545	0.1	-5.4545e-002
5235	5.5161	5.6364	0.1	-0.17926
5236	5.5161	5.8182	0.1	-0.1857
5237	5.7	0.18182	0.1	-0.16856
5238	5.7	0.36364	0.1	-0.16371
5239	5.7	0.54545	0.1	-4.9479e-002
5240	5.7	0.72727	0.1	-4.4282e-002
5241	5.7	0.90909	0.1	-2.8795e-002
5242	5.7	1.0909	0.1	-2.0785e-002
5243	5.7	1.2727	0.1	-1.373e-002
5244	5.7	1.4545	0.1	-8.222e-003
5245	5.7	1.6364	0.1	-3.6079e-003
5246	5.7	1.8182	0.1	2.2162e-004
5247	5.7	2.	0.1	3.3988e-003
5248	5.7	2.1818	0.1	5.9863e-003
5249	5.7	2.3636	0.1	8.0241e-003
5250	5.7	2.5455	0.1	9.5352e-003
5251	5.7	2.7273	0.1	1.0537e-002
5252	5.7	2.9091	0.1	1.1037e-002
5253	5.7	3.0909	0.1	1.1037e-002
5254	5.7	3.2727	0.1	1.0537e-002
5255	5.7	3.4545	0.1	9.5355e-003
5256	5.7	3.6364	0.1	8.0243e-003
5257	5.7	3.8182	0.1	5.9867e-003
5258	5.7	4.	0.1	3.3991e-003
5259	5.7	4.1818	0.1	2.2215e-004
5260	5.7	4.3636	0.1	-3.6075e-003
5261	5.7	4.5455	0.1	-8.2214e-003
5262	5.7	4.7273	0.1	-1.373e-002
5263	5.7	4.9091	0.1	-2.0784e-002
5264	5.7	5.0909	0.1	-2.8794e-002
5265	5.7	5.2727	0.1	-4.4282e-002
5266	5.7	5.4545	0.1	-4.9478e-002
5267	5.7	5.6364	0.1	-0.16371
5268	5.7	5.8182	0.1	-0.16855
5269	5.8839	0.18182	0.1	-0.15409
5270	5.8839	0.36364	0.1	-0.1495
5271	5.8839	0.54545	0.1	-4.4881e-002
5272	5.8839	0.72727	0.1	-4.0373e-002
5273	5.8839	0.90909	0.1	-2.6297e-002
5274	5.8839	1.0909	0.1	-1.9049e-002
5275	5.8839	1.2727	0.1	-1.2649e-002
5276	5.8839	1.4545	0.1	-7.6502e-003
5277	5.8839	1.6364	0.1	-3.4589e-003
5278	5.8839	1.8182	0.1	2.2343e-005
5279	5.8839	2.	0.1	2.9126e-003
5280	5.8839	2.1818	0.1	5.2684e-003
5281	5.8839	2.3636	0.1	7.1247e-003
5282	5.8839	2.5455	0.1	8.502e-003
5283	5.8839	2.7273	0.1	9.4155e-003
5284	5.8839	2.9091	0.1	9.871e-003
5285	5.8839	3.0909	0.1	9.871e-003
5286	5.8839	3.2727	0.1	9.4156e-003
5287	5.8839	3.4545	0.1	8.5021e-003
5288	5.8839	3.6364	0.1	7.125e-003
5289	5.8839	3.8182	0.1	5.2687e-003
5290	5.8839	4.	0.1	2.913e-003
5291	5.8839	4.1818	0.1	2.2866e-005
5292	5.8839	4.3636	0.1	-3.4584e-003
5293	5.8839	4.5455	0.1	-7.6496e-003
5294	5.8839	4.7273	0.1	-1.2648e-002
5295	5.8839	4.9091	0.1	-1.9049e-002
5296	5.8839	5.0909	0.1	-2.6296e-002
5297	5.8839	5.2727	0.1	-4.0372e-002
5298	5.8839	5.4545	0.1	-4.4881e-002
5299	5.8839	5.6364	0.1	-0.1495
5300	5.8839	5.8182	0.1	-0.15409
5301	6.0677	0.18182	0.1	-0.14198
5302	6.0677	0.36364	0.1	-0.1365
5303	6.0677	0.54545	0.1	-4.0704e-002
5304	6.0677	0.72727	0.1	-3.6806e-002
5305	6.0677	0.90909	0.1	-2.4024e-002
5306	6.0677	1.0909	0.1	-1.7474e-002
5307	6.0677	1.2727	0.1	-1.1674e-002
5308	6.0677	1.4545	0.1	-7.1439e-003
5309	6.0677	1.6364	0.1	-3.341e-003
5310	6.0677	1.8182	0.1	-1.8039e-004
5311	6.0677	2.	0.1	2.4453e-003
5312	6.0677	2.1818	0.1	4.5871e-003
5313	6.0677	2.3636	0.1	6.2755e-003
5314	6.0677	2.5455	0.1	7.5285e-003
5315	6.0677	2.7273	0.1	8.3601e-003
5316	6.0677	2.9091	0.1	8.775e-003
5317	6.0677	3.0909	0.1	8.775e-003
5318	6.0677	3.2727	0.1	8.3602e-003
5319	6.0677	3.4545	0.1	7.5287e-003
5320	6.0677	3.6364	0.1	6.2757e-003
5321	6.0677	3.8182	0.1	4.5873e-003
5322	6.0677	4.	0.1	2.4456e-003
5323	6.0677	4.1818	0.1	-1.8002e-004
5324	6.0677	4.3636	0.1	-3.3404e-003
5325	6.0677	4.5455	0.1	-7.1431e-003
5326	6.0677	4.7273	0.1	-1.1674e-002
5327	6.0677	4.9091	0.1	-1.7474e-002
5328	6.0677	5.0909	0.1	-2.4023e-002
5329	6.0677	5.2727	0.1	-3.6805e-002
5330	6.0677	5.4545	0.1	-4.0704e-002
5331	6.0677	5.6364	0.1	-0.13649
5332	6.0677	5.8182	0.1	-0.14198
5333	6.2516	0.18182	0.1	-0.13197
5334	6.2516	0.36364	0.1	-0.1246
5335	6.2516	0.54545	0.1	-3.6911e-002
5336	6.2516	0.72727	0.1	-3.3554e-002
5337	6.2516	0.90909	0.1	-2.1961e-002
5338	6.2516	1.0909	0.1	-1.605e-002
5339	6.2516	1.2727	0.1	-1.0801e-002
5340	6.2516	1.4545	0.1	-6.7005e-003
5341	6.2516	1.6364	0.1	-3.255e-003
5342	6.2516	1.8182	0.1	-3.8954e-004
5343	6.2516	2.	0.1	1.9928e-003
5344	6.2516	2.1818	0.1	3.9368e-003
5345	6.2516	2.3636	0.1	5.4704e-003
5346	6.2516	2.5455	0.1	6.6089e-003
5347	6.2516	2.7273	0.1	7.3648e-003
5348	6.2516	2.9091	0.1	7.7418e-003
5349	6.2516	3.0909	0.1	7.7419e-003
5350	6.2516	3.2727	0.1	7.3647e-003
5351	6.2516	3.4545	0.1	6.6091e-003
5352	6.2516	3.6364	0.1	5.4709e-003
5353	6.2516	3.8182	0.1	3.9373e-003
5354	6.2516	4.	0.1	1.9931e-003
5355	6.2516	4.1818	0.1	-3.8902e-004
5356	6.2516	4.3636	0.1	-3.2544e-003
5357	6.2516	4.5455	0.1	-6.6998e-003
5358	6.2516	4.7273	0.1	-1.0801e-002
5359	6.2516	4.9091	0.1	-1.6049e-002
5360	6.2516	5.0909	0.1	-2.1959e-002
5361	6.2516	5.2727	0.1	-3.3553e-002
5362	6.2516	5.4545	0.1	-3.6911e-002
5363	6.2516	5.6364	0.1	-0.1246
5364	6.2516	5.8182	0.1	-0.13196
5365	6.4355	0.18182	0.1	-0.12387
5366	6.4355	0.36364	0.1	-0.11371
5367	6.4355	0.54545	0.1	-3.3463e-002
5368	6.4355	0.72727	0.1	-3.0589e-002
5369	6.4355	0.90909	0.1	-2.0086e-002
5370	6.4355	1.0909	0.1	-1.4762e-002
5371	6.4355	1.2727	0.1	-1.0019e-002
5372	6.4355	1.4545	0.1	-6.3129e-003
5373	6.4355	1.6364	0.1	-3.1959e-003
5374	6.4355	1.8182	0.1	-6.0183e-004
5375	6.4355	2.	0.1	1.5562e-003
5376	6.4355	2.1818	0.1	3.3186e-003
5377	6.4355	2.3636	0.1	4.7092e-003
5378	6.4355	2.5455	0.1	5.742e-003
5379	6.4355	2.7273	0.1	6.4279e-003
5380	6.4355	2.9091	0.1	6.7703e-003
5381	6.4355	3.0909	0.1	6.7703e-003
5382	6.4355	3.2727	0.1	6.428e-003
5383	6.4355	3.4545	0.1	5.7422e-003
5384	6.4355	3.6364	0.1	4.7096e-003
5385	6.4355	3.8182	0.1	3.3189e-003
5386	6.4355	4.	0.1	1.5566e-003
5387	6.4355	4.1818	0.1	-6.0143e-004
5388	6.4355	4.3636	0.1	-3.1953e-003
5389	6.4355	4.5455	0.1	-6.3123e-003
5390	6.4355	4.7273	0.1	-1.0018e-002
5391	6.4355	4.9091	0.1	-1.4761e-002
5392	6.4355	5.0909	0.1	-2.0085e-002
5393	6.4355	5.2727	0.1	-3.0589e-002
5394	6.4355	5.4545	0.1	-3.3463e-002
5395	6.4355	5.6364	0.1	-0.11371
5396	6.4355	5.8182	0.1	-0.12387
5397	6.6194	0.18182	0.1	-0.11758
5398	6.6194	0.36364	0.1	-0.10373
5399	6.6194	0.54545	0.1	-3.032e-002
5400	6.6194	0.72727	0.1	-2.7878e-002
5401	6.6194	0.90909	0.1	-1.8376e-002
5402	6.6194	1.0909	0.1	-1.3589e-002
5403	6.6194	1.2727	0.1	-9.3115e-003
5404	6.6194	1.4545	0.1	-5.968e-003
5405	6.6194	1.6364	0.1	-3.1529e-003
5406	6.6194	1.8182	0.1	-8.0851e-004
5407	6.6194	2.	0.1	1.1436e-003
5408	6.6194	2.1818	0.1	2.7385e-003
5409	6.6194	2.3636	0.1	3.9977e-003
5410	6.6194	2.5455	0.1	4.9333e-003
5411	6.6194	2.7273	0.1	5.5545e-003
5412	6.6194	2.9091	0.1	5.8651e-003
5413	6.6194	3.0909	0.1	5.8647e-003
5414	6.6194	3.2727	0.1	5.5548e-003
5415	6.6194	3.4545	0.1	4.9333e-003
5416	6.6194	3.6364	0.1	3.9981e-003
5417	6.6194	3.8182	0.1	2.7388e-003
5418	6.6194	4.	0.1	1.1441e-003
5419	6.6194	4.1818	0.1	-8.0781e-004
5420	6.6194	4.3636	0.1	-3.1522e-003
5421	6.6194	4.5455	0.1	-5.9675e-003
5422	6.6194	4.7273	0.1	-9.3109e-003
5423	6.6194	4.9091	0.1	-1.3588e-002
5424	6.6194	5.0909	0.1	-1.8375e-002
5425	6.6194	5.2727	0.1	-2.7877e-002
5426	6.6194	5.4545	0.1	-3.032e-002
5427	6.6194	5.6364	0.1	-0.10373
5428	6.6194	5.8182	0.1	-0.11758
5429	6.8032	0.18182	0.1	-0.11308
5430	6.8032	0.36364	0.1	-9.4578e-002
5431	6.8032	0.54545	0.1	-2.7451e-002
5432	6.8032	0.72727	0.1	-2.5395e-002
5433	6.8032	0.90909	0.1	-1.6814e-002
5434	6.8032	1.0909	0.1	-1.252e-002
5435	6.8032	1.2727	0.1	-8.6704e-003
5436	6.8032	1.4545	0.1	-5.6602e-003
5437	6.8032	1.6364	0.1	-3.1224e-003
5438	6.8032	1.8182	0.1	-1.0072e-003
5439	6.8032	2.	0.1	7.5513e-004
5440	6.8032	2.1818	0.1	2.1962e-003
5441	6.8032	2.3636	0.1	3.3344e-003
5442	6.8032	2.5455	0.1	4.1801e-003
5443	6.8032	2.7273	0.1	4.7424e-003
5444	6.8032	2.9091	0.1	5.0229e-003
5445	6.8032	3.0909	0.1	5.0233e-003
5446	6.8032	3.2727	0.1	4.7424e-003
5447	6.8032	3.4545	0.1	4.1804e-003
5448	6.8032	3.6364	0.1	3.3348e-003
5449	6.8032	3.8182	0.1	2.1964e-003
5450	6.8032	4.	0.1	7.5548e-004
5451	6.8032	4.1818	0.1	-1.0068e-003
5452	6.8032	4.3636	0.1	-3.1218e-003
5453	6.8032	4.5455	0.1	-5.6598e-003
5454	6.8032	4.7273	0.1	-8.6696e-003
5455	6.8032	4.9091	0.1	-1.252e-002
5456	6.8032	5.0909	0.1	-1.6813e-002
5457	6.8032	5.2727	0.1	-2.5394e-002
5458	6.8032	5.4545	0.1	-2.745e-002
5459	6.8032	5.6364	0.1	-9.4576e-002
5460	6.8032	5.8182	0.1	-0.11308
5461	6.9871	0.18182	0.1	-0.11048
5462	6.9871	0.36364	0.1	-8.619e-002
5463	6.9871	0.54545	0.1	-2.4837e-002
5464	6.9871	0.72727	0.1	-2.3129e-002
5465	6.9871	0.90909	0.1	-1.5394e-002
5466	6.9871	1.0909	0.1	-1.1553e-002
5467	6.9871	1.2727	0.1	-8.0963e-003
5468	6.9871	1.4545	0.1	-5.3926e-003
5469	6.9871	1.6364	0.1	-3.1098e-003
5470	6.9871	1.8182	0.1	-1.2053e-003
5471	6.9871	2.	0.1	3.8279e-004
5472	6.9871	2.1818	0.1	1.6825e-003
5473	6.9871	2.3636	0.1	2.7096e-003
5474	6.9871	2.5455	0.1	3.4731e-003
5475	6.9871	2.7273	0.1	3.9806e-003
5476	6.9871	2.9091	0.1	4.2342e-003
5477	6.9871	3.0909	0.1	4.2342e-003
5478	6.9871	3.2727	0.1	3.9807e-003
5479	6.9871	3.4545	0.1	3.4732e-003
5480	6.9871	3.6364	0.1	2.7098e-003
5481	6.9871	3.8182	0.1	1.6829e-003
5482	6.9871	4.	0.1	3.832e-004
5483	6.9871	4.1818	0.1	-1.2047e-003
5484	6.9871	4.3636	0.1	-3.109e-003
5485	6.9871	4.5455	0.1	-5.3919e-003
5486	6.9871	4.7273	0.1	-8.0955e-003
5487	6.9871	4.9091	0.1	-1.1553e-002
5488	6.9871	5.0909	0.1	-1.5393e-002
5489	6.9871	5.2727	0.1	-2.3128e-002
5490	6.9871	5.4545	0.1	-2.4837e-002
5491	6.9871	5.6364	0.1	-8.6188e-002
5492	6.9871	5.8182	0.1	-0.11047
5493	7.171	0.18182	0.1	-0.11003
5494	7.171	0.36364	0.1	-7.85e-002
5495	7.171	0.54545	0.1	-2.2455e-002
5496	7.171	0.72727	0.1	-2.1059e-002
5497	7.171	0.90909	0.1	-1.4103e-002
5498	7.171	1.0909	0.1	-1.0679e-002
5499	7.171	1.2727	0.1	-7.5826e-003
5500	7.171	1.4545	0.1	-5.1604e-003
5501	7.171	1.6364	0.1	-3.112e-003
5502	7.171	1.8182	0.1	-1.4012e-003
5503	7.171	2.	0.1	2.6626e-005
5504	7.171	2.1818	0.1	1.1965e-003
5505	7.171	2.3636	0.1	2.1214e-003
5506	7.171	2.5455	0.1	2.8091e-003
5507	7.171	2.7273	0.1	3.2667e-003
5508	7.171	2.9091	0.1	3.4953e-003
5509	7.171	3.0909	0.1	3.4953e-003
5510	7.171	3.2727	0.1	3.2667e-003
5511	7.171	3.4545	0.1	2.8091e-003
5512	7.171	3.6364	0.1	2.1216e-003
5513	7.171	3.8182	0.1	1.1968e-003
5514	7.171	4.	0.1	2.7213e-005
5515	7.171	4.1818	0.1	-1.4007e-003
5516	7.171	4.3636	0.1	-3.1113e-003
5517	7.171	4.5455	0.1	-5.1598e-003
5518	7.171	4.7273	0.1	-7.5821e-003
5519	7.171	4.9091	0.1	-1.0678e-002
5520	7.171	5.0909	0.1	-1.4101e-002
5521	7.171	5.2727	0.1	-2.1058e-002
5522	7.171	5.4545	0.1	-2.2455e-002
5523	7.171	5.6364	0.1	-7.8498e-002
5524	7.171	5.8182	0.1	-0.11003
5525	7.3548	0.18182	0.1	-0.11231
5526	7.3548	0.36364	0.1	-7.1441e-002
5527	7.3548	0.54545	0.1	-2.0275e-002
5528	7.3548	0.72727	0.1	-1.9163e-002
5529	7.3548	0.90909	0.1	-1.2923e-002
5530	7.3548	1.0909	0.1	-9.8813e-003
5531	7.3548	1.2727	0.1	-7.1176e-003
5532	7.3548	1.4545	0.1	-4.954e-003
5533	7.3548	1.6364	0.1	-3.1207e-003
5534	7.3548	1.8182	0.1	-1.5881e-003
5535	7.3548	2.	0.1	-3.0724e-004
5536	7.3548	2.1818	0.1	7.4313e-004
5537	7.3548	2.3636	0.1	1.5743e-003
5538	7.3548	2.5455	0.1	2.1927e-003
5539	7.3548	2.7273	0.1	2.6041e-003
5540	7.3548	2.9091	0.1	2.8099e-003
5541	7.3548	3.0909	0.1	2.81e-003
5542	7.3548	3.2727	0.1	2.6041e-003
5543	7.3548	3.4545	0.1	2.1928e-003
5544	7.3548	3.6364	0.1	1.5749e-003
5545	7.3548	3.8182	0.1	7.4354e-004
5546	7.3548	4.	0.1	-3.0671e-004
5547	7.3548	4.1818	0.1	-1.5874e-003
5548	7.3548	4.3636	0.1	-3.1201e-003
5549	7.3548	4.5455	0.1	-4.9534e-003
5550	7.3548	4.7273	0.1	-7.1164e-003
5551	7.3548	4.9091	0.1	-9.8805e-003
5552	7.3548	5.0909	0.1	-1.2922e-002
5553	7.3548	5.2727	0.1	-1.9162e-002
5554	7.3548	5.4545	0.1	-2.0275e-002
5555	7.3548	5.6364	0.1	-7.1439e-002
5556	7.3548	5.8182	0.1	-0.11231
5557	7.5387	0.18182	0.1	-0.1184
5558	7.5387	0.36364	0.1	-6.496e-002
5559	7.5387	0.54545	0.1	-1.8279e-002
5560	7.5387	0.72727	0.1	-1.7424e-002
5561	7.5387	0.90909	0.1	-1.1845e-002
5562	7.5387	1.0909	0.1	-9.1539e-003
5563	7.5387	1.2727	0.1	-6.6954e-003
5564	7.5387	1.4545	0.1	-4.7699e-003
5565	7.5387	1.6364	0.1	-3.1345e-003
5566	7.5387	1.8182	0.1	-1.7651e-003
5567	7.5387	2.	0.1	-6.1927e-004
5568	7.5387	2.1818	0.1	3.2149e-004
5569	7.5387	2.3636	0.1	1.0664e-003
5570	7.5387	2.5455	0.1	1.6207e-003
5571	7.5387	2.7273	0.1	1.9902e-003
5572	7.5387	2.9091	0.1	2.1747e-003
5573	7.5387	3.0909	0.1	2.1749e-003
5574	7.5387	3.2727	0.1	1.9901e-003
5575	7.5387	3.4545	0.1	1.621e-003
5576	7.5387	3.6364	0.1	1.0668e-003
5577	7.5387	3.8182	0.1	3.2184e-004
5578	7.5387	4.	0.1	-6.1881e-004
5579	7.5387	4.1818	0.1	-1.7646e-003
5580	7.5387	4.3636	0.1	-3.1338e-003
5581	7.5387	4.5455	0.1	-4.7693e-003
5582	7.5387	4.7273	0.1	-6.6947e-003
5583	7.5387	4.9091	0.1	-9.1534e-003
5584	7.5387	5.0909	0.1	-1.1843e-002
5585	7.5387	5.2727	0.1	-1.7423e-002
5586	7.5387	5.4545	0.1	-1.8279e-002
5587	7.5387	5.6364	0.1	-6.4959e-002
5588	7.5387	5.8182	0.1	-0.1184
5589	7.7226	0.18182	0.1	-0.13065
5590	7.7226	0.36364	0.1	-5.9017e-002
5591	7.7226	0.54545	0.1	-1.6458e-002
5592	7.7226	0.72727	0.1	-1.5836e-002
5593	7.7226	0.90909	0.1	-1.0865e-002
5594	7.7226	1.0909	0.1	-8.4979e-003
5595	7.7226	1.2727	0.1	-6.3202e-003
5596	7.7226	1.4545	0.1	-4.613e-003
5597	7.7226	1.6364	0.1	-3.1593e-003
5598	7.7226	1.8182	0.1	-1.9402e-003
5599	7.7226	2.	0.1	-9.1848e-004
5600	7.7226	2.1818	0.1	-7.8212e-005
5601	7.7226	2.3636	0.1	5.8768e-004
5602	7.7226	2.5455	0.1	1.0836e-003
5603	7.7226	2.7273	0.1	1.4142e-003
5604	7.7226	2.9091	0.1	1.5795e-003
5605	7.7226	3.0909	0.1	1.5795e-003
5606	7.7226	3.2727	0.1	1.4142e-003
5607	7.7226	3.4545	0.1	1.0837e-003
5608	7.7226	3.6364	0.1	5.8786e-004
5609	7.7226	3.8182	0.1	-7.7802e-005
5610	7.7226	4.	0.1	-9.1789e-004
5611	7.7226	4.1818	0.1	-1.9398e-003
5612	7.7226	4.3636	0.1	-3.1589e-003
5613	7.7226	4.5455	0.1	-4.6124e-003
5614	7.7226	4.7273	0.1	-6.3195e-003
5615	7.7226	4.9091	0.1	-8.4972e-003
5616	7.7226	5.0909	0.1	-1.0864e-002
5617	7.7226	5.2727	0.1	-1.5835e-002
5618	7.7226	5.4545	0.1	-1.6457e-002
5619	7.7226	5.6364	0.1	-5.9016e-002
5620	7.7226	5.8182	0.1	-0.13065
5621	7.9065	0.18182	0.1	-0.15447
5622	7.9065	0.36364	0.1	-5.3568e-002
5623	7.9065	0.54545	0.1	-1.4794e-002
5624	7.9065	0.72727	0.1	-1.4387e-002
5625	7.9065	0.90909	0.1	-9.977e-003
5626	7.9065	1.0909	0.1	-7.9071e-003
5627	7.9065	1.2727	0.1	-5.9873e-003
5628	7.9065	1.4545	0.1	-4.4811e-003
5629	7.9065	1.6364	0.1	-3.1941e-003
5630	7.9065	1.8182	0.1	-2.1127e-003
5631	7.9065	2.	0.1	-1.2046e-003
5632	7.9065	2.1818	0.1	-4.5687e-004
5633	7.9065	2.3636	0.1	1.3684e-004
5634	7.9065	2.5455	0.1	5.7837e-004
5635	7.9065	2.7273	0.1	8.7359e-004
5636	7.9065	2.9091	0.1	1.0217e-003
5637	7.9065	3.0909	0.1	1.0213e-003
5638	7.9065	3.2727	0.1	8.7377e-004
5639	7.9065	3.4545	0.1	5.7866e-004
5640	7.9065	3.6364	0.1	1.3707e-004
5641	7.9065	3.8182	0.1	-4.5664e-004
5642	7.9065	4.	0.1	-1.2042e-003
5643	7.9065	4.1818	0.1	-2.1123e-003
5644	7.9065	4.3636	0.1	-3.1934e-003
5645	7.9065	4.5455	0.1	-4.4804e-003
5646	7.9065	4.7273	0.1	-5.9868e-003
5647	7.9065	4.9091	0.1	-7.9064e-003
5648	7.9065	5.0909	0.1	-9.9758e-003
5649	7.9065	5.2727	0.1	-1.4386e-002
5650	7.9065	5.4545	0.1	-1.4794e-002
5651	7.9065	5.6364	0.1	-5.3567e-002
5652	7.9065	5.8182	0.1	-0.15447
5653	8.0903	0.18182	0.1	-0.20515
5654	8.0903	0.36364	0.1	-4.857e-002
5655	8.0903	0.54545	0.1	-1.3269e-002
5656	8.0903	0.72727	0.1	-1.306e-002
5657	8.0903	0.90909	0.1	-9.1675e-003
5658	8.0903	1.0909	0.1	-7.3707e-003
5659	8.0903	1.2727	0.1	-5.6882e-003
5660	8.0903	1.4545	0.1	-4.3659e-003
5661	8.0903	1.6364	0.1	-3.2322e-003
5662	8.0903	1.8182	0.1	-2.2771e-003
5663	8.0903	2.	0.1	-1.4732e-003
5664	8.0903	2.1818	0.1	-8.1017e-004
5665	8.0903	2.3636	0.1	-2.8306e-004
5666	8.0903	2.5455	0.1	1.0996e-004
5667	8.0903	2.7273	0.1	3.7215e-004
5668	8.0903	2.9091	0.1	5.038e-004
5669	8.0903	3.0909	0.1	5.0368e-004
5670	8.0903	3.2727	0.1	3.7233e-004
5671	8.0903	3.4545	0.1	1.1007e-004
5672	8.0903	3.6364	0.1	-2.8246e-004
5673	8.0903	3.8182	0.1	-8.0969e-004
5674	8.0903	4.	0.1	-1.4729e-003
5675	8.0903	4.1818	0.1	-2.2765e-003
5676	8.0903	4.3636	0.1	-3.2314e-003
5677	8.0903	4.5455	0.1	-4.3649e-003
5678	8.0903	4.7273	0.1	-5.6875e-003
5679	8.0903	4.9091	0.1	-7.3699e-003
5680	8.0903	5.0909	0.1	-9.166e-003
5681	8.0903	5.2727	0.1	-1.3059e-002
5682	8.0903	5.4545	0.1	-1.3269e-002
5683	8.0903	5.6364	0.1	-4.8568e-002
5684	8.0903	5.8182	0.1	-0.20515
5685	8.2742	0.18182	0.1	-0.3381
5686	8.2742	0.36364	0.1	-4.3987e-002
5687	8.2742	0.54545	0.1	-1.1871e-002
5688	8.2742	0.72727	0.1	-1.1845e-002
5689	8.2742	0.90909	0.1	-8.4291e-003
5690	8.2742	1.0909	0.1	-6.8838e-003
5691	8.2742	1.2727	0.1	-5.4188e-003
5692	8.2742	1.4545	0.1	-4.2653e-003
5693	8.2742	1.6364	0.1	-3.2717e-003
5694	8.2742	1.8182	0.1	-2.4323e-003
5695	8.2742	2.	0.1	-1.7242e-003
5696	8.2742	2.1818	0.1	-1.1387e-003
5697	8.2742	2.3636	0.1	-6.7215e-004
5698	8.2742	2.5455	0.1	-3.2479e-004
5699	8.2742	2.7273	0.1	-9.2025e-005
5700	8.2742	2.9091	0.1	2.4467e-005
5701	8.2742	3.0909	0.1	2.4765e-005
5702	8.2742	3.2727	0.1	-9.2027e-005
5703	8.2742	3.4545	0.1	-3.2479e-004
5704	8.2742	3.6364	0.1	-6.7209e-004
5705	8.2742	3.8182	0.1	-1.1383e-003
5706	8.2742	4.	0.1	-1.7238e-003
5707	8.2742	4.1818	0.1	-2.4317e-003
5708	8.2742	4.3636	0.1	-3.2712e-003
5709	8.2742	4.5455	0.1	-4.2646e-003
5710	8.2742	4.7273	0.1	-5.418e-003
5711	8.2742	4.9091	0.1	-6.8829e-003
5712	8.2742	5.0909	0.1	-8.4278e-003
5713	8.2742	5.2727	0.1	-1.1844e-002
5714	8.2742	5.4545	0.1	-1.187e-002
5715	8.2742	5.6364	0.1	-4.3986e-002
5716	8.2742	5.8182	0.1	-0.33808
5717	8.4581	0.18182	0.1	-0.74052
5718	8.4581	0.36364	0.1	-3.9802e-002
5719	8.4581	0.54545	0.1	-1.0595e-002
5720	8.4581	0.72727	0.1	-1.0742e-002
5721	8.4581	0.90909	0.1	-7.7667e-003
5722	8.4581	1.0909	0.1	-6.4514e-003
5723	8.4581	1.2727	0.1	-5.186e-003
5724	8.4581	1.4545	0.1	-4.1869e-003
5725	8.4581	1.6364	0.1	-3.3216e-003
5726	8.4581	1.8182	0.1	-2.5882e-003
5727	8.4581	2.	0.1	-1.9676e-003
5728	8.4581	2.1818	0.1	-1.4526e-003
5729	8.4581	2.3636	0.1	-1.0422e-003
5730	8.4581	2.5455	0.1	-7.3585e-004
5731	8.4581	2.7273	0.1	-5.3041e-004
5732	8.4581	2.9091	0.1	-4.2743e-004
5733	8.4581	3.0909	0.1	-4.2731e-004
5734	8.4581	3.2727	0.1	-5.3065e-004
5735	8.4581	3.4545	0.1	-7.3561e-004
5736	8.4581	3.6364	0.1	-1.0419e-003
5737	8.4581	3.8182	0.1	-1.4523e-003
5738	8.4581	4.	0.1	-1.9672e-003
5739	8.4581	4.1818	0.1	-2.5881e-003
5740	8.4581	4.3636	0.1	-3.3214e-003
5741	8.4581	4.5455	0.1	-4.1863e-003
5742	8.4581	4.7273	0.1	-5.1852e-003
5743	8.4581	4.9091	0.1	-6.4508e-003
5744	8.4581	5.0909	0.1	-7.7651e-003
5745	8.4581	5.2727	0.1	-1.0741e-002
5746	8.4581	5.4545	0.1	-1.0595e-002
5747	8.4581	5.6364	0.1	-3.9801e-002
5748	8.4581	5.8182	0.1	-0.74047
5749	8.6419	0.18182	0.1	-1.4902
5750	8.6419	0.36364	0.1	-3.5991e-002
5751	8.6419	0.54545	0.1	-9.4284e-003
5752	8.6419	0.72727	0.1	-9.7379e-003
5753	8.6419	0.90909	0.1	-7.1695e-003
5754	8.6419	1.0909	0.1	-6.0653e-003
5755	8.6419	1.2727	0.1	-4.9821e-003
5756	8.6419	1.4545	0.1	-4.1244e-003
5757	8.6419	1.6364	0.1	-3.3764e-003
5758	8.6419	1.8182	0.1	-2.7397e-003
5759	8.6419	2.	0.1	-2.1986e-003
5760	8.6419	2.1818	0.1	-1.7486e-003
5761	8.6419	2.3636	0.1	-1.3891e-003
5762	8.6419	2.5455	0.1	-1.12e-003
5763	8.6419	2.7273	0.1	-9.3983e-004
5764	8.6419	2.9091	0.1	-8.4903e-004
5765	8.6419	3.0909	0.1	-8.4897e-004
5766	8.6419	3.2727	0.1	-9.396e-004
5767	8.6419	3.4545	0.1	-1.1202e-003
5768	8.6419	3.6364	0.1	-1.3887e-003
5769	8.6419	3.8182	0.1	-1.7483e-003
5770	8.6419	4.	0.1	-2.1982e-003
5771	8.6419	4.1818	0.1	-2.7391e-003
5772	8.6419	4.3636	0.1	-3.3756e-003
5773	8.6419	4.5455	0.1	-4.1239e-003
5774	8.6419	4.7273	0.1	-4.9817e-003
5775	8.6419	4.9091	0.1	-6.0646e-003
5776	8.6419	5.0909	0.1	-7.1677e-003
5777	8.6419	5.2727	0.1	-9.7369e-003
5778	8.6419	5.4545	0.1	-9.4282e-003
5779	8.6419	5.6364	0.1	-3.599e-002
5780	8.6419	5.8182	0.1	-1.4902
5781	8.8258	0.18182	0.1	-2.3421
5782	8.8258	0.36364	0.1	-3.2547e-002
5783	8.8258	0.54545	0.1	-8.3632e-003
5784	8.8258	0.72727	0.1	-8.8284e-003
5785	8.8258	0.90909	0.1	-6.6345e-003
5786	8.8258	1.0909	0.1	-5.7238e-003
5787	8.8258	1.2727	0.1	-4.8069e-003
5788	8.8258	1.4545	0.1	-4.0778e-003
5789	8.8258	1.6364	0.1	-3.4362e-003
5790	8.8258	1.8182	0.1	-2.8872e-003
5791	8.8258	2.	0.1	-2.4188e-003
5792	8.8258	2.1818	0.1	-2.0278e-003
5793	8.8258	2.3636	0.1	-1.7146e-003
5794	8.8258	2.5455	0.1	-1.4801e-003
5795	8.8258	2.7273	0.1	-1.3225e-003
5796	8.8258	2.9091	0.1	-1.243e-003
5797	8.8258	3.0909	0.1	-1.2431e-003
5798	8.8258	3.2727	0.1	-1.3224e-003
5799	8.8258	3.4545	0.1	-1.4799e-003
5800	8.8258	3.6364	0.1	-1.7142e-003
5801	8.8258	3.8182	0.1	-2.0274e-003
5802	8.8258	4.	0.1	-2.4184e-003
5803	8.8258	4.1818	0.1	-2.8871e-003
5804	8.8258	4.3636	0.1	-3.4355e-003
5805	8.8258	4.5455	0.1	-4.0768e-003
5806	8.8258	4.7273	0.1	-4.8064e-003
5807	8.8258	4.9091	0.1	-5.7231e-003
5808	8.8258	5.0909	0.1	-6.6332e-003
5809	8.8258	5.2727	0.1	-8.8274e-003
5810	8.8258	5.4545	0.1	-8.3629e-003
5811	8.8258	5.6364	0.1	-3.2546e-002
5812	8.8258	5.8182	0.1	-2.342
5813	9.0097	0.18182	0.1	-3.1857
5814	9.0097	0.36364	0.1	-2.95e-002
5815	9.0097	0.54545	0.1	-7.3982e-003
5816	9.0097	0.72727	0.1	-8.0144e-003
5817	9.0097	0.90909	0.1	-6.1659e-003
5818	9.0097	1.0909	0.1	-5.4303e-003
5819	9.0097	1.2727	0.1	-4.6646e-003
5820	9.0097	1.4545	0.1	-4.0514e-003
5821	9.0097	1.6364	0.1	-3.5066e-003
5822	9.0097	1.8182	0.1	-3.0374e-003
5823	9.0097	2.	0.1	-2.6347e-003
5824	9.0097	2.1818	0.1	-2.2972e-003
5825	9.0097	2.3636	0.1	-2.0258e-003
5826	9.0097	2.5455	0.1	-1.8225e-003
5827	9.0097	2.7273	0.1	-1.6854e-003
5828	9.0097	2.9091	0.1	-1.6164e-003
5829	9.0097	3.0909	0.1	-1.6164e-003
5830	9.0097	3.2727	0.1	-1.6855e-003
5831	9.0097	3.4545	0.1	-1.8223e-003
5832	9.0097	3.6364	0.1	-2.0257e-003
5833	9.0097	3.8182	0.1	-2.2968e-003
5834	9.0097	4.	0.1	-2.6345e-003
5835	9.0097	4.1818	0.1	-3.0368e-003
5836	9.0097	4.3636	0.1	-3.5063e-003
5837	9.0097	4.5455	0.1	-4.0508e-003
5838	9.0097	4.7273	0.1	-4.6638e-003
5839	9.0097	4.9091	0.1	-5.4298e-003
5840	9.0097	5.0909	0.1	-6.1644e-003
5841	9.0097	5.2727	0.1	-8.0135e-003
5842	9.0097	5.4545	0.1	-7.3976e-003
5843	9.0097	5.6364	0.1	-2.9499e-002
5844	9.0097	5.8182	0.1	-3.1857
5845	9.1935	0.18182	0.1	-3.996
5846	9.1935	0.36364	0.1	-2.6942e-002
5847	9.1935	0.54545	0.1	-6.5216e-003
5848	9.1935	0.72727	0.1	-7.2867e-003
5849	9.1935	0.90909	0.1	-5.7546e-003
5850	9.1935	1.0909	0.1	-5.1774e-003
5851	9.1935	1.2727	0.1	-4.547e-003
5852	9.1935	1.4545	0.1	-4.0383e-003
5853	9.1935	1.6364	0.1	-3.5807e-003
5854	9.1935	1.8182	0.1	-3.1829e-003
5855	9.1935	2.	0.1	-2.8397e-003
5856	9.1935	2.1818	0.1	-2.5505e-003
5857	9.1935	2.3636	0.1	-2.317e-003
5858	9.1935	2.5455	0.1	-2.1419e-003
5859	9.1935	2.7273	0.1	-2.0236e-003
5860	9.1935	2.9091	0.1	-1.9638e-003
5861	9.1935	3.0909	0.1	-1.9638e-003
5862	9.1935	3.2727	0.1	-2.0234e-003
5863	9.1935	3.4545	0.1	-2.1419e-003
5864	9.1935	3.6364	0.1	-2.3165e-003
5865	9.1935	3.8182	0.1	-2.5499e-003
5866	9.1935	4.	0.1	-2.8398e-003
5867	9.1935	4.1818	0.1	-3.1826e-003
5868	9.1935	4.3636	0.1	-3.5798e-003
5869	9.1935	4.5455	0.1	-4.038e-003
5870	9.1935	4.7273	0.1	-4.5468e-003
5871	9.1935	4.9091	0.1	-5.1768e-003
5872	9.1935	5.0909	0.1	-5.7534e-003
5873	9.1935	5.2727	0.1	-7.2855e-003
5874	9.1935	5.4545	0.1	-6.5212e-003
5875	9.1935	5.6364	0.1	-2.6941e-002
5876	9.1935	5.8182	0.1	-3.9959
5877	9.3774	0.18182	0.1	-4.7669
5878	9.3774	0.36364	0.1	-2.5301e-002
5879	9.3774	0.54545	0.1	-5.7333e-003
5880	9.3774	0.72727	0.1	-6.6462e-003
5881	9.3774	0.90909	0.1	-5.402e-003
5882	9.3774	1.0909	0.1	-4.965e-003
5883	9.3774	1.2727	0.1	-4.4558e-003
5884	9.3774	1.4545	0.1	-4.0394e-003
5885	9.3774	1.6364	0.1	-3.6587e-003
5886	9.3774	1.8182	0.1	-3.3252e-003
5887	9.3774	2.	0.1	-3.035e-003
5888	9.3774	2.1818	0.1	-2.7885e-003
5889	9.3774	2.3636	0.1	-2.5898e-003
5890	9.3774	2.5455	0.1	-2.4398e-003
5891	9.3774	2.7273	0.1	-2.3382e-003
5892	9.3774	2.9091	0.1	-2.2867e-003
5893	9.3774	3.0909	0.1	-2.2867e-003
5894	9.3774	3.2727	0.1	-2.3383e-003
5895	9.3774	3.4545	0.1	-2.4394e-003
5896	9.3774	3.6364	0.1	-2.5893e-003
5897	9.3774	3.8182	0.1	-2.7883e-003
5898	9.3774	4.	0.1	-3.0346e-003
5899	9.3774	4.1818	0.1	-3.3247e-003
5900	9.3774	4.3636	0.1	-3.6583e-003
5901	9.3774	4.5455	0.1	-4.0387e-003
5902	9.3774	4.7273	0.1	-4.4549e-003
5903	9.3774	4.9091	0.1	-4.9644e-003
5904	9.3774	5.0909	0.1	-5.4006e-003
5905	9.3774	5.2727	0.1	-6.6451e-003
5906	9.3774	5.4545	0.1	-5.7331e-003
5907	9.3774	5.6364	0.1	-2.53e-002
5908	9.3774	5.8182	0.1	-4.7669
5909	9.5613	0.18182	0.1	-5.4981
5910	9.5613	0.36364	0.1	-2.828e-002
5911	9.5613	0.54545	0.1	-5.0503e-003
5912	9.5613	0.72727	0.1	-6.1088e-003
5913	9.5613	0.90909	0.1	-5.122e-003
5914	9.5613	1.0909	0.1	-4.8057e-003
5915	9.5613	1.2727	0.1	-4.4012e-003
5916	9.5613	1.4545	0.1	-4.0659e-003
5917	9.5613	1.6364	0.1	-3.7527e-003
5918	9.5613	1.8182	0.1	-3.4747e-003
5919	9.5613	2.	0.1	-3.2319e-003
5920	9.5613	2.1818	0.1	-3.024e-003
5921	9.5613	2.3636	0.1	-2.8547e-003
5922	9.5613	2.5455	0.1	-2.7275e-003
5923	9.5613	2.7273	0.1	-2.641e-003
5924	9.5613	2.9091	0.1	-2.5966e-003
5925	9.5613	3.0909	0.1	-2.5969e-003
5926	9.5613	3.2727	0.1	-2.6409e-003
5927	9.5613	3.4545	0.1	-2.7274e-003
5928	9.5613	3.6364	0.1	-2.8549e-003
5929	9.5613	3.8182	0.1	-3.0236e-003
5930	9.5613	4.	0.1	-3.2313e-003
5931	9.5613	4.1818	0.1	-3.4747e-003
5932	9.5613	4.3636	0.1	-3.752e-003
5933	9.5613	4.5455	0.1	-4.0651e-003
5934	9.5613	4.7273	0.1	-4.4007e-003
5935	9.5613	4.9091	0.1	-4.8052e-003
5936	9.5613	5.0909	0.1	-5.1204e-003
5937	9.5613	5.2727	0.1	-6.1076e-003
5938	9.5613	5.4545	0.1	-5.0495e-003
5939	9.5613	5.6364	0.1	-2.8279e-002
5940	9.5613	5.8182	0.1	-5.498
5941	9.7452	0.18182	0.1	-6.1905
5942	9.7452	0.36364	0.1	-0.50908
5943	9.7452	0.54545	0.1	-4.4785e-003
5944	9.7452	0.72727	0.1	-5.6729e-003
5945	9.7452	0.90909	0.1	-4.9059e-003
5946	9.7452	1.0909	0.1	-4.6882e-003
5947	9.7452	1.2727	0.1	-4.3711e-003
5948	9.7452	1.4545	0.1	-4.1031e-003
5949	9.7452	1.6364	0.1	-3.8475e-003
5950	9.7452	1.8182	0.1	-3.6186e-003
5951	9.7452	2.	0.1	-3.4156e-003
5952	9.7452	2.1818	0.1	-3.2409e-003
5953	9.7452	2.3636	0.1	-3.0985e-003
5954	9.7452	2.5455	0.1	-2.9912e-003
5955	9.7452	2.7273	0.1	-2.9171e-003
5956	9.7452	2.9091	0.1	-2.8801e-003
5957	9.7452	3.0909	0.1	-2.8801e-003
5958	9.7452	3.2727	0.1	-2.9173e-003
5959	9.7452	3.4545	0.1	-2.9907e-003
5960	9.7452	3.6364	0.1	-3.0982e-003
5961	9.7452	3.8182	0.1	-3.2407e-003
5962	9.7452	4.	0.1	-3.4152e-003
5963	9.7452	4.1818	0.1	-3.6183e-003
5964	9.7452	4.3636	0.1	-3.8473e-003
5965	9.7452	4.5455	0.1	-4.1026e-003
5966	9.7452	4.7273	0.1	-4.3704e-003
5967	9.7452	4.9091	0.1	-4.6876e-003
5968	9.7452	5.0909	0.1	-4.9046e-003
5969	9.7452	5.2727	0.1	-5.6718e-003
5970	9.7452	5.4545	0.1	-4.4786e-003
5971	9.7452	5.6364	0.1	-0.50902
5972	9.7452	5.8182	0.1	-6.1904
5973	9.929	0.18182	0.1	-6.846
5974	9.929	0.36364	0.1	-1.4891
5975	9.929	0.54545	0.1	-4.1075e-003
5976	9.929	0.72727	0.1	-5.3797e-003
5977	9.929	0.90909	0.1	-4.7795e-003
5978	9.929	1.0909	0.1	-4.6306e-003
5979	9.929	1.2727	0.1	-4.3804e-003
5980	9.929	1.4545	0.1	-4.1659e-003
5981	9.929	1.6364	0.1	-3.9568e-003
5982	9.929	1.8182	0.1	-3.7675e-003
5983	9.929	2.	0.1	-3.5989e-003
5984	9.929	2.1818	0.1	-3.4525e-003
5985	9.929	2.3636	0.1	-3.3324e-003
5986	9.929	2.5455	0.1	-3.242e-003
5987	9.929	2.7273	0.1	-3.1795e-003
5988	9.929	2.9091	0.1	-3.1483e-003
5989	9.929	3.0909	0.1	-3.1477e-003
5990	9.929	3.2727	0.1	-3.1796e-003
5991	9.929	3.4545	0.1	-3.2415e-003
5992	9.929	3.6364	0.1	-3.332e-003
5993	9.929	3.8182	0.1	-3.4527e-003
5994	9.929	4.	0.1	-3.5984e-003
5995	9.929	4.1818	0.1	-3.767e-003
5996	9.929	4.3636	0.1	-3.9559e-003
5997	9.929	4.5455	0.1	-4.1658e-003
5998	9.929	4.7273	0.1	-4.3796e-003
5999	9.929	4.9091	0.1	-4.6301e-003
6000	9.929	5.0909	0.1	-4.778e-003
6001	9.929	5.2727	0.1	-5.3785e-003
6002	9.929	5.4545	0.1	-4.1068e-003
6003	9.929	5.6364	0.1	-1.4891
6004	9.929	5.8182	0.1	-6.846
6005	10.113	0.18182	0.1	-7.467
6006	10.113	0.36364	0.1	-2.4122
6007	10.113	0.54545	0.1	-4.3209e-003
6008	10.113	0.72727	0.1	-5.3387e-003
6009	10.113	0.90909	0.1	-4.8096e-003
6010	10.113	1.0909	0.1	-4.6872e-003
6011	10.113	1.2727	0.1	-4.4777e-003
6012	10.113	1.4545	0.1	-4.2988e-003
6013	10.113	1.6364	0.1	-4.1236e-003
6014	10.113	1.8182	0.1	-3.9651e-003
6015	10.113	2.	0.1	-3.8229e-003
6016	10.113	2.1818	0.1	-3.6994e-003
6017	10.113	2.3636	0.1	-3.5981e-003
6018	10.113	2.5455	0.1	-3.5217e-003
6019	10.113	2.7273	0.1	-3.4689e-003
6020	10.113	2.9091	0.1	-3.4421e-003
6021	10.113	3.0909	0.1	-3.4418e-003
6022	10.113	3.2727	0.1	-3.4692e-003
6023	10.113	3.4545	0.1	-3.5215e-003
6024	10.113	3.6364	0.1	-3.5978e-003
6025	10.113	3.8182	0.1	-3.6995e-003
6026	10.113	4.	0.1	-3.823e-003
6027	10.113	4.1818	0.1	-3.9645e-003
6028	10.113	4.3636	0.1	-4.1235e-003
6029	10.113	4.5455	0.1	-4.2981e-003
6030	10.113	4.7273	0.1	-4.4769e-003
6031	10.113	4.9091	0.1	-4.6864e-003
6032	10.113	5.0909	0.1	-4.8082e-003
6033	10.113	5.2727	0.1	-5.3373e-003
6034	10.113	5.4545	0.1	-4.3202e-003
6035	10.113	5.6364	0.1	-2.4121
6036	10.113	5.8182	0.1	-7.4669
6037	10.297	0.18182	0.1	-8.0554
6038	10.297	0.36364	0.1	-3.2782
6039	10.297	0.54545	0.1	-1.1459e-002
6040	10.297	0.72727	0.1	-5.6657e-003
6041	10.297	0.90909	0.1	-4.993e-003
6042	10.297	1.0909	0.1	-4.8247e-003
6043	10.297	1.2727	0.1	-4.6187e-003
6044	10.297	1.4545	0.1	-4.4539e-003
6045	10.297	1.6364	0.1	-4.2973e-003
6046	10.297	1.8182	0.1	-4.1581e-003
6047	10.297	2.	0.1	-4.0352e-003
6048	10.297	2.1818	0.1	-3.9289e-003
6049	10.297	2.3636	0.1	-3.8419e-003
6050	10.297	2.5455	0.1	-3.7759e-003
6051	10.297	2.7273	0.1	-3.7307e-003
6052	10.297	2.9091	0.1	-3.7074e-003
6053	10.297	3.0909	0.1	-3.7075e-003
6054	10.297	3.2727	0.1	-3.7308e-003
6055	10.297	3.4545	0.1	-3.7759e-003
6056	10.297	3.6364	0.1	-3.8414e-003
6057	10.297	3.8182	0.1	-3.9284e-003
6058	10.297	4.	0.1	-4.0348e-003
6059	10.297	4.1818	0.1	-4.1578e-003
6060	10.297	4.3636	0.1	-4.2967e-003
6061	10.297	4.5455	0.1	-4.4528e-003
6062	10.297	4.7273	0.1	-4.6181e-003
6063	10.297	4.9091	0.1	-4.8244e-003
6064	10.297	5.0909	0.1	-4.9914e-003
6065	10.297	5.2727	0.1	-5.6648e-003
6066	10.297	5.4545	0.1	-1.1456e-002
6067	10.297	5.6364	0.1	-3.2781
6068	10.297	5.8182	0.1	-8.0553
6069	10.481	0.18182	0.1	-8.6134
6070	10.481	0.36364	0.1	-4.0909
6071	10.481	0.54545	0.1	-0.84704
6072	10.481	0.72727	0.1	-6.8741e-003
6073	10.481	0.90909	0.1	-5.389e-003
6074	10.481	1.0909	0.1	-5.0355e-003
6075	10.481	1.2727	0.1	-4.7738e-003
6076	10.481	1.4545	0.1	-4.5904e-003
6077	10.481	1.6364	0.1	-4.4332e-003
6078	10.481	1.8182	0.1	-4.3011e-003
6079	10.481	2.	0.1	-4.1872e-003
6080	10.481	2.1818	0.1	-4.0907e-003
6081	10.481	2.3636	0.1	-4.0121e-003
6082	10.481	2.5455	0.1	-3.9547e-003
6083	10.481	2.7273	0.1	-3.9147e-003
6084	10.481	2.9091	0.1	-3.894e-003
6085	10.481	3.0909	0.1	-3.8943e-003
6086	10.481	3.2727	0.1	-3.9145e-003
6087	10.481	3.4545	0.1	-3.9547e-003
6088	10.481	3.6364	0.1	-4.0123e-003
6089	10.481	3.8182	0.1	-4.0906e-003
6090	10.481	4.	0.1	-4.1868e-003
6091	10.481	4.1818	0.1	-4.3001e-003
6092	10.481	4.3636	0.1	-4.4328e-003
6093	10.481	4.5455	0.1	-4.5899e-003
6094	10.481	4.7273	0.1	-4.7737e-003
6095	10.481	4.9091	0.1	-5.0344e-003
6096	10.481	5.0909	0.1	-5.3872e-003
6097	10.481	5.2727	0.1	-6.8726e-003
6098	10.481	5.4545	0.1	-0.84699
6099	10.481	5.6364	0.1	-4.0908
6100	10.481	5.8182	0.1	-8.6133
6101	10.665	0.18182	0.1	-9.1431
6102	10.665	0.36364	0.1	-4.8544
6103	10.665	0.54545	0.1	-1.863
6104	10.665	0.72727	0.1	-1.2398e-002
6105	10.665	0.90909	0.1	-6.3611e-003
6106	10.665	1.0909	0.1	-5.4908e-003
6107	10.665	1.2727	0.1	-5.068e-003
6108	10.665	1.4545	0.1	-4.8171e-003
6109	10.665	1.6364	0.1	-4.6304e-003
6110	10.665	1.8182	0.1	-4.487e-003
6111	10.665	2.	0.1	-4.3704e-003
6112	10.665	2.1818	0.1	-4.2755e-003
6113	10.665	2.3636	0.1	-4.2006e-003
6114	10.665	2.5455	0.1	-4.1464e-003
6115	10.665	2.7273	0.1	-4.1088e-003
6116	10.665	2.9091	0.1	-4.0901e-003
6117	10.665	3.0909	0.1	-4.0903e-003
6118	10.665	3.2727	0.1	-4.1091e-003
6119	10.665	3.4545	0.1	-4.1459e-003
6120	10.665	3.6364	0.1	-4.2002e-003
6121	10.665	3.8182	0.1	-4.2752e-003
6122	10.665	4.	0.1	-4.3699e-003
6123	10.665	4.1818	0.1	-4.4866e-003
6124	10.665	4.3636	0.1	-4.6306e-003
6125	10.665	4.5455	0.1	-4.8164e-003
6126	10.665	4.7273	0.1	-5.0673e-003
6127	10.665	4.9091	0.1	-5.4901e-003
6128	10.665	5.0909	0.1	-6.3601e-003
6129	10.665	5.2727	0.1	-1.2396e-002
6130	10.665	5.4545	0.1	-1.863
6131	10.665	5.6364	0.1	-4.8543
6132	10.665	5.8182	0.1	-9.143
6133	10.848	0.18182	0.1	-9.6469
6134	10.848	0.36364	0.1	-5.5727
6135	10.848	0.54545	0.1	-2.8156
6136	10.848	0.72727	0.1	-0.27188
6137	10.848	0.90909	0.1	-8.8876e-003
6138	10.848	1.0909	0.1	-6.4487e-003
6139	10.848	1.2727	0.1	-5.641e-003
6140	10.848	1.4545	0.1	-5.2355e-003
6141	10.848	1.6364	0.1	-4.976e-003
6142	10.848	1.8182	0.1	-4.7941e-003
6143	10.848	2.	0.1	-4.6593e-003
6144	10.848	2.1818	0.1	-4.5548e-003
6145	10.848	2.3636	0.1	-4.4758e-003
6146	10.848	2.5455	0.1	-4.4195e-003
6147	10.848	2.7273	0.1	-4.3822e-003
6148	10.848	2.9091	0.1	-4.3633e-003
6149	10.848	3.0909	0.1	-4.3631e-003
6150	10.848	3.2727	0.1	-4.3818e-003
6151	10.848	3.4545	0.1	-4.4196e-003
6152	10.848	3.6364	0.1	-4.4757e-003
6153	10.848	3.8182	0.1	-4.5542e-003
6154	10.848	4.	0.1	-4.6586e-003
6155	10.848	4.1818	0.1	-4.7942e-003
6156	10.848	4.3636	0.1	-4.9755e-003
6157	10.848	4.5455	0.1	-5.2342e-003
6158	10.848	4.7273	0.1	-5.6409e-003
6159	10.848	4.9091	0.1	-6.4476e-003
6160	10.848	5.0909	0.1	-8.8865e-003
6161	10.848	5.2727	0.1	-0.27184
6162	10.848	5.4545	0.1	-2.8156
6163	10.848	5.6364	0.1	-5.5727
6164	10.848	5.8182	0.1	-9.6468
6165	11.032	0.18182	0.1	-10.126
6166	11.032	0.36364	0.1	-6.2491
6167	11.032	0.54545	0.1	-3.7089
6168	11.032	0.72727	0.1	-1.3462
6169	11.032	0.90909	0.1	-1.8487e-002
6170	11.032	1.0909	0.1	-8.3176e-003
6171	11.032	1.2727	0.1	-6.5313e-003
6172	11.032	1.4545	0.1	-5.7943e-003
6173	11.032	1.6364	0.1	-5.3845e-003
6174	11.032	1.8182	0.1	-5.1253e-003
6175	11.032	2.	0.1	-4.9463e-003
6176	11.032	2.1818	0.1	-4.8174e-003
6177	11.032	2.3636	0.1	-4.7243e-003
6178	11.032	2.5455	0.1	-4.6597e-003
6179	11.032	2.7273	0.1	-4.6177e-003
6180	11.032	2.9091	0.1	-4.597e-003
6181	11.032	3.0909	0.1	-4.5968e-003
6182	11.032	3.2727	0.1	-4.6174e-003
6183	11.032	3.4545	0.1	-4.6593e-003
6184	11.032	3.6364	0.1	-4.724e-003
6185	11.032	3.8182	0.1	-4.8171e-003
6186	11.032	4.	0.1	-4.946e-003
6187	11.032	4.1818	0.1	-5.1251e-003
6188	11.032	4.3636	0.1	-5.3843e-003
6189	11.032	4.5455	0.1	-5.7934e-003
6190	11.032	4.7273	0.1	-6.5311e-003
6191	11.032	4.9091	0.1	-8.3173e-003
6192	11.032	5.0909	0.1	-1.8484e-002
6193	11.032	5.2727	0.1	-1.3462
6194	11.032	5.4545	0.1	-3.7088
6195	11.032	5.6364	0.1	-6.2491
6196	11.032	5.8182	0.1	-10.126
6197	11.216	0.18182	0.1	-10.583
6198	11.216	0.36364	0.1	-6.8871
6199	11.216	0.54545	0.1	-4.5476
6200	11.216	0.72727	0.1	-2.377
6201	11.216	0.90909	0.1	-0.35194
6202	11.216	1.0909	0.1	-1.3224e-002
6203	11.216	1.2727	0.1	-8.1036e-003
6204	11.216	1.4545	0.1	-6.595e-003
6205	11.216	1.6364	0.1	-5.8803e-003
6206	11.216	1.8182	0.1	-5.4705e-003
6207	11.216	2.	0.1	-5.2083e-003
6208	11.216	2.1818	0.1	-5.0309e-003
6209	11.216	2.3636	0.1	-4.9082e-003
6210	11.216	2.5455	0.1	-4.8266e-003
6211	11.216	2.7273	0.1	-4.7749e-003
6212	11.216	2.9091	0.1	-4.7494e-003
6213	11.216	3.0909	0.1	-4.7495e-003
6214	11.216	3.2727	0.1	-4.7745e-003
6215	11.216	3.4545	0.1	-4.8266e-003
6216	11.216	3.6364	0.1	-4.9079e-003
6217	11.216	3.8182	0.1	-5.0306e-003
6218	11.216	4.	0.1	-5.2083e-003
6219	11.216	4.1818	0.1	-5.4695e-003
6220	11.216	4.3636	0.1	-5.8803e-003
6221	11.216	4.5455	0.1	-6.5941e-003
6222	11.216	4.7273	0.1	-8.1025e-003
6223	11.216	4.9091	0.1	-1.3223e-002
6224	11.216	5.0909	0.1	-0.3519
6225	11.216	5.2727	0.1	-2.3769
6226	11.216	5.4545	0.1	-4.5476
6227	11.216	5.6364	0.1	-6.887
6228	11.216	5.8182	0.1	-10.583
6229	11.4	0.18182	0.1	-11.02
6230	11.4	0.36364	0.1	-7.4897
6231	11.4	0.54545	0.1	-5.3363
6232	11.4	0.72727	0.1	-3.3455
6233	11.4	0.90909	0.1	-1.4612
6234	11.4	1.0909	0.1	-5.0059e-002
6235	11.4	1.2727	0.1	-1.1944e-002
6236	11.4	1.4545	0.1	-8.1034e-003
6237	11.4	1.6364	0.1	-6.6968e-003
6238	11.4	1.8182	0.1	-5.9859e-003
6239	11.4	2.	0.1	-5.5684e-003
6240	11.4	2.1818	0.1	-5.3019e-003
6241	11.4	2.3636	0.1	-5.1268e-003
6242	11.4	2.5455	0.1	-5.013e-003
6243	11.4	2.7273	0.1	-4.9432e-003
6244	11.4	2.9091	0.1	-4.9096e-003
6245	11.4	3.0909	0.1	-4.9095e-003
6246	11.4	3.2727	0.1	-4.943e-003
6247	11.4	3.4545	0.1	-5.0127e-003
6248	11.4	3.6364	0.1	-5.1262e-003
6249	11.4	3.8182	0.1	-5.302e-003
6250	11.4	4.	0.1	-5.5675e-003
6251	11.4	4.1818	0.1	-5.9856e-003
6252	11.4	4.3636	0.1	-6.6957e-003
6253	11.4	4.5455	0.1	-8.1031e-003
6254	11.4	4.7273	0.1	-1.1944e-002
6255	11.4	4.9091	0.1	-5.0054e-002
6256	11.4	5.0909	0.1	-1.4611
6257	11.4	5.2727	0.1	-3.3455
6258	11.4	5.4545	0.1	-5.3363
6259	11.4	5.6364	0.1	-7.4896
6260	11.4	5.8182	0.1	-11.02
6261	11.584	0.18182	0.1	-11.438
6262	11.584	0.36364	0.1	-8.0603
6263	11.584	0.54545	0.1	-6.0795
6264	11.584	0.72727	0.1	-4.2561
6265	11.584	0.90909	0.1	-2.529
6266	11.584	1.0909	0.1	-0.9135
6267	11.584	1.2727	0.1	-3.1135e-002
6268	11.584	1.4545	0.1	-1.1781e-002
6269	11.584	1.6364	0.1	-8.2976e-003
6270	11.584	1.8182	0.1	-6.8942e-003
6271	11.584	2.	0.1	-6.1607e-003
6272	11.584	2.1818	0.1	-5.7271e-003
6273	11.584	2.3636	0.1	-5.4565e-003
6274	11.584	2.5455	0.1	-5.2865e-003
6275	11.584	2.7273	0.1	-5.185e-003
6276	11.584	2.9091	0.1	-5.1368e-003
6277	11.584	3.0909	0.1	-5.1366e-003
6278	11.584	3.2727	0.1	-5.1851e-003
6279	11.584	3.4545	0.1	-5.2862e-003
6280	11.584	3.6364	0.1	-5.4561e-003
6281	11.584	3.8182	0.1	-5.7273e-003
6282	11.584	4.	0.1	-6.1606e-003
6283	11.584	4.1818	0.1	-6.8931e-003
6284	11.584	4.3636	0.1	-8.2972e-003
6285	11.584	4.5455	0.1	-1.1781e-002
6286	11.584	4.7273	0.1	-3.1132e-002
6287	11.584	4.9091	0.1	-0.91347
6288	11.584	5.0909	0.1	-2.5289
6289	11.584	5.2727	0.1	-4.2561
6290	11.584	5.4545	0.1	-6.0795
6291	11.584	5.6364	0.1	-8.0602
6292	11.584	5.8182	0.1	-11.437
6293	11.768	0.18182	0.1	-11.838
6294	11.768	0.36364	0.1	-8.6013
6295	11.768	0.54545	0.1	-6.781
6296	11.768	0.72727	0.1	-5.1134
6297	11.768	0.90909	0.1	-3.5348
6298	11.768	1.0909	0.1	-2.052
6299	11.768	1.2727	0.1	-0.68613
6300	11.768	1.4545	0.1	-3.0298e-002
6301	11.768	1.6364	0.1	-1.2307e-002
6302	11.768	1.8182	0.1	-8.6389e-003
6303	11.768	2.	0.1	-7.1274e-003
6304	11.768	2.1818	0.1	-6.3375e-003
6305	11.768	2.3636	0.1	-5.8787e-003
6306	11.768	2.5455	0.1	-5.6045e-003
6307	11.768	2.7273	0.1	-5.4453e-003
6308	11.768	2.9091	0.1	-5.372e-003
6309	11.768	3.0909	0.1	-5.3724e-003
6310	11.768	3.2727	0.1	-5.4452e-003
6311	11.768	3.4545	0.1	-5.6039e-003
6312	11.768	3.6364	0.1	-5.8785e-003
6313	11.768	3.8182	0.1	-6.337e-003
6314	11.768	4.	0.1	-7.1271e-003
6315	11.768	4.1818	0.1	-8.6385e-003
6316	11.768	4.3636	0.1	-1.2306e-002
6317	11.768	4.5455	0.1	-3.0296e-002
6318	11.768	4.7273	0.1	-0.6861
6319	11.768	4.9091	0.1	-2.0519
6320	11.768	5.0909	0.1	-3.5347
6321	11.768	5.2727	0.1	-5.1134
6322	11.768	5.4545	0.1	-6.7809
6323	11.768	5.6364	0.1	-8.6012
6324	11.768	5.8182	0.1	-11.838
6325	11.952	0.18182	0.1	-12.222
6326	11.952	0.36364	0.1	-9.1154
6327	11.952	0.54545	0.1	-7.4444
6328	11.952	0.72727	0.1	-5.9221
6329	11.952	0.90909	0.1	-4.4824
6330	11.952	1.0909	0.1	-3.13
6331	11.952	1.2727	0.1	-1.8741
6332	11.952	1.4545	0.1	-0.73055
6333	11.952	1.6364	0.1	-4.317e-002
6334	11.952	1.8182	0.1	-1.3878e-002
6335	11.952	2.	0.1	-9.1619e-003
6336	11.952	2.1818	0.1	-7.3428e-003
6337	11.952	2.3636	0.1	-6.4341e-003
6338	11.952	2.5455	0.1	-5.9336e-003
6339	11.952	2.7273	0.1	-5.6592e-003
6340	11.952	2.9091	0.1	-5.5363e-003
6341	11.952	3.0909	0.1	-5.5356e-003
6342	11.952	3.2727	0.1	-5.6591e-003
6343	11.952	3.4545	0.1	-5.9336e-003
6344	11.952	3.6364	0.1	-6.4337e-003
6345	11.952	3.8182	0.1	-7.3425e-003
6346	11.952	4.	0.1	-9.1608e-003
6347	11.952	4.1818	0.1	-1.3877e-002
6348	11.952	4.3636	0.1	-4.3166e-002
6349	11.952	4.5455	0.1	-0.73053
6350	11.952	4.7273	0.1	-1.874
6351	11.952	4.9091	0.1	-3.1299
6352	11.952	5.0909	0.1	-4.4824
6353	11.952	5.2727	0.1	-5.9221
6354	11.952	5.4545	0.1	-7.4443
6355	11.952	5.6364	0.1	-9.1154
6356	11.952	5.8182	0.1	-12.222
6357	12.135	0.18182	0.1	-12.592
6358	12.135	0.36364	0.1	-9.6051
6359	12.135	0.54545	0.1	-8.0732
6360	12.135	0.72727	0.1	-6.6866
6361	12.135	0.90909	0.1	-5.3769
6362	12.135	1.0909	0.1	-4.1474
6363	12.135	1.2727	0.1	-3.0053
6364	12.135	1.4545	0.1	-1.958
6365	12.135	1.6364	0.1	-1.0142
6366	12.135	1.8182	0.1	-0.21394
6367	12.135	2.	0.1	-2.041e-002
6368	12.135	2.1818	0.1	-1.0506e-002
6369	12.135	2.3636	0.1	-7.7151e-003
6370	12.135	2.5455	0.1	-6.509e-003
6371	12.135	2.7273	0.1	-5.9247e-003
6372	12.135	2.9091	0.1	-5.6788e-003
6373	12.135	3.0909	0.1	-5.6788e-003
6374	12.135	3.2727	0.1	-5.9249e-003
6375	12.135	3.4545	0.1	-6.5087e-003
6376	12.135	3.6364	0.1	-7.7151e-003
6377	12.135	3.8182	0.1	-1.0506e-002
6378	12.135	4.	0.1	-2.041e-002
6379	12.135	4.1818	0.1	-0.21393
6380	12.135	4.3636	0.1	-1.0141
6381	12.135	4.5455	0.1	-1.9579
6382	12.135	4.7273	0.1	-3.0053
6383	12.135	4.9091	0.1	-4.1474
6384	12.135	5.0909	0.1	-5.3769
6385	12.135	5.2727	0.1	-6.6866
6386	12.135	5.4545	0.1	-8.0731
6387	12.135	5.6364	0.1	-9.605
6388	12.135	5.8182	0.1	-12.592
6389	12.319	0.18182	0.1	-12.949
6390	12.319	0.36364	0.1	-10.073
6391	12.319	0.54545	0.1	-8.6711
6392	12.319	0.72727	0.1	-7.4115
6393	12.319	0.90909	0.1	-6.2237
6394	12.319	1.0909	0.1	-5.1097
6395	12.319	1.2727	0.1	-4.0755
6396	12.319	1.4545	0.1	-3.1272
6397	12.319	1.6364	0.1	-2.2702
6398	12.319	1.8182	0.1	-1.5098
6399	12.319	2.	0.1	-0.85128
6400	12.319	2.1818	0.1	-0.305
6401	12.319	2.3636	0.1	-2.6745e-002
6402	12.319	2.5455	0.1	-9.8284e-003
6403	12.319	2.7273	0.1	-6.8465e-003
6404	12.319	2.9091	0.1	-5.9478e-003
6405	12.319	3.0909	0.1	-5.948e-003
6406	12.319	3.2727	0.1	-6.8465e-003
6407	12.319	3.4545	0.1	-9.8281e-003
6408	12.319	3.6364	0.1	-2.6744e-002
6409	12.319	3.8182	0.1	-0.30499
6410	12.319	4.	0.1	-0.85126
6411	12.319	4.1818	0.1	-1.5098
6412	12.319	4.3636	0.1	-2.2702
6413	12.319	4.5455	0.1	-3.1272
6414	12.319	4.7273	0.1	-4.0755
6415	12.319	4.9091	0.1	-5.1096
6416	12.319	5.0909	0.1	-6.2236
6417	12.319	5.2727	0.1	-7.4114
6418	12.319	5.4545	0.1	-8.671
6419	12.319	5.6364	0.1	-10.073
6420	12.319	5.8182	0.1	-12.949
6421	12.503	0.18182	0.1	-13.295
6422	12.503	0.36364	0.1	-10.521
6423	12.503	0.54545	0.1	-9.2409
6424	12.503	0.72727	0.1	-8.1005
6425	12.503	0.90909	0.1	-7.0272
6426	12.503	1.0909	0.1	-6.0219
6427	12.503	1.2727	0.1	-5.0896
6428	12.503	1.4545	0.1	-4.2355
6429	12.503	1.6364	0.1	-3.464
6430	12.503	1.8182	0.1	-2.7794
6431	12.503	2.	0.1	-2.1853
6432	12.503	2.1818	0.1	-1.6849
6433	12.503	2.3636	0.1	-1.2808
6434	12.503	2.5455	0.1	-0.97541
6435	12.503	2.7273	0.1	-0.77032
6436	12.503	2.9091	0.1	-0.6672
6437	12.503	3.0909	0.1	-0.66719
6438	12.503	3.2727	0.1	-0.77031
6439	12.503	3.4545	0.1	-0.9754
6440	12.503	3.6364	0.1	-1.2808
6441	12.503	3.8182	0.1	-1.6849
6442	12.503	4.	0.1	-2.1853
6443	12.503	4.1818	0.1	-2.7794
6444	12.503	4.3636	0.1	-3.464
6445	12.503	4.5455	0.1	-4.2355
6446	12.503	4.7273	0.1	-5.0896
6447	12.503	4.9091	0.1	-6.0218
6448	12.503	5.0909	0.1	-7.0272
6449	12.503	5.2727	0.1	-8.1005
6450	12.503	5.4545	0.1	-9.2409
6451	12.503	5.6364	0.1	-10.521
6452	12.503	5.8182	0.1	-13.295
6453	12.687	0.18182	0.1	-13.629
6454	12.687	0.36364	0.1	-10.951
6455	12.687	0.54545	0.1	-9.7857
6456	12.687	0.72727	0.1	-8.7575
6457	12.687	0.90909	0.1	-7.7921
6458	12.687	1.0909	0.1	-6.8894
6459	12.687	1.2727	0.1	-6.0534
6460	12.687	1.4545	0.1	-5.2884
6461	12.687	1.6364	0.1	-4.5982
6462	12.687	1.8182	0.1	-3.9862
6463	12.687	2.	0.1	-3.4556
6464	12.687	2.1818	0.1	-3.009
6465	12.687	2.3636	0.1	-2.6487
6466	12.687	2.5455	0.1	-2.3768
6467	12.687	2.7273	0.1	-2.1946
6468	12.687	2.9091	0.1	-2.1032
6469	12.687	3.0909	0.1	-2.1032
6470	12.687	3.2727	0.1	-2.1946
6471	12.687	3.4545	0.1	-2.3768
6472	12.687	3.6364	0.1	-2.6487
6473	12.687	3.8182	0.1	-3.009
6474	12.687	4.	0.1	-3.4555
6475	12.687	4.1818	0.1	-3.9862
6476	12.687	4.3636	0.1	-4.5981
6477	12.687	4.5455	0.1	-5.2884
6478	12.687	4.7273	0.1	-6.0534
6479	12.687	4.9091	0.1	-6.8893
6480	12.687	5.0909	0.1	-7.7921
6481	12.687	5.2727	0.1	-8.7575
6482	12.687	5.4545	0.1	-9.7856
6483	12.687	5.6364	0.1	-10.951
6484	12.687	5.8182	0.1	-13.629
6485	12.871	0.18182	0.1	-13.954
6486	12.871	0.36364	0.1	-11.365
6487	12.871	0.54545	0.1	-10.308
6488	12.871	0.72727	0.1	-9.386
6489	12.871	0.90909	0.1	-8.5228
6490	12.871	1.0909	0.1	-7.7172
6491	12.871	1.2727	0.1	-6.9724
6492	12.871	1.4545	0.1	-6.292
6493	12.871	1.6364	0.1	-5.679
6494	12.871	1.8182	0.1	-5.1361
6495	12.871	2.	0.1	-4.6659
6496	12.871	2.1818	0.1	-4.2705
6497	12.871	2.3636	0.1	-3.9519
6498	12.871	2.5455	0.1	-3.7116
6499	12.871	2.7273	0.1	-3.5507
6500	12.871	2.9091	0.1	-3.4701
6501	12.871	3.0909	0.1	-3.4701
6502	12.871	3.2727	0.1	-3.5507
6503	12.871	3.4545	0.1	-3.7116
6504	12.871	3.6364	0.1	-3.9519
6505	12.871	3.8182	0.1	-4.2705
6506	12.871	4.	0.1	-4.6659
6507	12.871	4.1818	0.1	-5.1361
6508	12.871	4.3636	0.1	-5.6789
6509	12.871	4.5455	0.1	-6.292
6510	12.871	4.7273	0.1	-6.9724
6511	12.871	4.9091	0.1	-7.7171
6512	12.871	5.0909	0.1	-8.5227
6513	12.871	5.2727	0.1	-9.386
6514	12.871	5.4545	0.1	-10.308
6515	12.871	5.6364	0.1	-11.365
6516	12.871	5.8182	0.1	-13.954
6517	13.055	0.18182	0.1	-14.27
6518	13.055	0.36364	0.1	-11.765
6519	13.055	0.54545	0.1	-10.811
6520	13.055	0.72727	0.1	-9.9895
6521	13.055	0.90909	0.1	-9.2233
6522	13.055	1.0909	0.1	-8.5101
6523	13.055	1.2727	0.1	-7.8523
6524	13.055	1.4545	0.1	-7.2524
6525	13.055	1.6364	0.1	-6.7129
6526	13.055	1.8182	0.1	-6.2359
6527	13.055	2.	0.1	-5.8233
6528	13.055	2.1818	0.1	-5.4768
6529	13.055	2.3636	0.1	-5.1979
6530	13.055	2.5455	0.1	-4.9876
6531	13.055	2.7273	0.1	-4.847
6532	13.055	2.9091	0.1	-4.7765
6533	13.055	3.0909	0.1	-4.7765
6534	13.055	3.2727	0.1	-4.847
6535	13.055	3.4545	0.1	-4.9876
6536	13.055	3.6364	0.1	-5.1979
6537	13.055	3.8182	0.1	-5.4768
6538	13.055	4.	0.1	-5.8233
6539	13.055	4.1818	0.1	-6.2359
6540	13.055	4.3636	0.1	-6.7129
6541	13.055	4.5455	0.1	-7.2524
6542	13.055	4.7273	0.1	-7.8522
6543	13.055	4.9091	0.1	-8.5101
6544	13.055	5.0909	0.1	-9.2233
6545	13.055	5.2727	0.1	-9.9894
6546	13.055	5.4545	0.1	-10.811
6547	13.055	5.6364	0.1	-11.764
6548	13.055	5.8182	0.1	-14.27
6549	13.239	0.18182	0.1	-14.579
6550	13.239	0.36364	0.1	-12.152
6551	13.239	0.54545	0.1	-11.296
6552	13.239	0.72727	0.1	-10.571
6553	13.239	0.90909	0.1	-9.8979
6554	13.239	1.0909	0.1	-9.273
6555	13.239	1.2727	0.1	-8.6982
6556	13.239	1.4545	0.1	-8.1755
6557	13.239	1.6364	0.1	-7.7064
6558	13.239	1.8182	0.1	-7.2925
6559	13.239	2.	0.1	-6.9352
6560	13.239	2.1818	0.1	-6.6355
6561	13.239	2.3636	0.1	-6.3945
6562	13.239	2.5455	0.1	-6.2131
6563	13.239	2.7273	0.1	-6.0918
6564	13.239	2.9091	0.1	-6.031
6565	13.239	3.0909	0.1	-6.031
6566	13.239	3.2727	0.1	-6.0918
6567	13.239	3.4545	0.1	-6.2131
6568	13.239	3.6364	0.1	-6.3945
6569	13.239	3.8182	0.1	-6.6355
6570	13.239	4.	0.1	-6.9351
6571	13.239	4.1818	0.1	-7.2925
6572	13.239	4.3636	0.1	-7.7064
6573	13.239	4.5455	0.1	-8.1755
6574	13.239	4.7273	0.1	-8.6982
6575	13.239	4.9091	0.1	-9.2729
6576	13.239	5.0909	0.1	-9.8978
6577	13.239	5.2727	0.1	-10.571
6578	13.239	5.4545	0.1	-11.296
6579	13.239	5.6364	0.1	-12.152
6580	13.239	5.8182	0.1	-14.579
6581	13.423	0.18182	0.1	-14.882
6582	13.423	0.36364	0.1	-12.529
6583	13.423	0.54545	0.1	-11.767
6584	13.423	0.72727	0.1	-11.134
6585	13.423	0.90909	0.1	-10.55
6586	13.423	1.0909	0.1	-10.01
6587	13.423	1.2727	0.1	-9.5153
6588	13.423	1.4545	0.1	-9.0668
6589	13.423	1.6364	0.1	-8.6655
6590	13.423	1.8182	0.1	-8.3124
6591	13.423	2.	0.1	-8.0082
6592	13.423	2.1818	0.1	-7.7537
6593	13.423	2.3636	0.1	-7.5493
6594	13.423	2.5455	0.1	-7.3956
6595	13.423	2.7273	0.1	-7.2929
6596	13.423	2.9091	0.1	-7.2415
6597	13.423	3.0909	0.1	-7.2415
6598	13.423	3.2727	0.1	-7.2929
6599	13.423	3.4545	0.1	-7.3956
6600	13.423	3.6364	0.1	-7.5493
6601	13.423	3.8182	0.1	-7.7536
6602	13.423	4.	0.1	-8.0082
6603	13.423	4.1818	0.1	-8.3124
6604	13.423	4.3636	0.1	-8.6655
6605	13.423	4.5455	0.1	-9.0667
6606	13.423	4.7273	0.1	-9.5152
6607	13.423	4.9091	0.1	-10.01
6608	13.423	5.0909	0.1	-10.55
6609	13.423	5.2727	0.1	-11.134
6610	13.423	5.4545	0.1	-11.767
6611	13.423	5.6364	0.1	-12.529
6612	13.423	5.8182	0.1	-14.881
6613	13.606	0.18182	0.1	-15.178
6614	13.606	0.36364	0.1	-12.897
6615	13.606	0.54545	0.1	-12.225
6616	13.606	0.72727	0.1	-11.682
6617	13.606	0.90909	0.1	-11.183
6618	13.606	1.0909	0.1	-10.726
6619	13.606	1.2727	0.1	-10.308
6620	13.606	1.4545	0.1	-9.9316
6621	13.606	1.6364	0.1	-9.596
6622	13.606	1.8182	0.1	-9.3018
6623	13.606	2.	0.1	-9.0492
6624	13.606	2.1818	0.1	-8.8383
6625	13.606	2.3636	0.1	-8.6694
6626	13.606	2.5455	0.1	-8.5427
6627	13.606	2.7273	0.1	-8.4581
6628	13.606	2.9091	0.1	-8.4157
6629	13.606	3.0909	0.1	-8.4157
6630	13.606	3.2727	0.1	-8.458
6631	13.606	3.4545	0.1	-8.5426
6632	13.606	3.6364	0.1	-8.6694
6633	13.606	3.8182	0.1	-8.8383
6634	13.606	4.	0.1	-9.0492
6635	13.606	4.1818	0.1	-9.3018
6636	13.606	4.3636	0.1	-9.596
6637	13.606	4.5455	0.1	-9.9315
6638	13.606	4.7273	0.1	-10.308
6639	13.606	4.9091	0.1	-10.726
6640	13.606	5.0909	0.1	-11.183
6641	13.606	5.2727	0.1	-11.682
6642	13.606	5.4545	0.1	-12.225
6643	13.606	5.6364	0.1	-12.897
6644	13.606	5.8182	0.1	-15.178
6645	13.79	0.18182	0.1	-15.469
6646	13.79	0.36364	0.1	-13.257
6647	13.79	0.54545	0.1	-12.673
6648	13.79	0.72727	0.1	-12.216
6649	13.79	0.90909	0.1	-11.802
6650	13.79	1.0909	0.1	-11.424
6651	13.79	1.2727	0.1	-11.082
6652	13.79	1.4545	0.1	-10.775
6653	13.79	1.6364	0.1	-10.504
6654	13.79	1.8182	0.1	-10.267
6655	13.79	2.	0.1	-10.065
6656	13.79	2.1818	0.1	-9.8964
6657	13.79	2.3636	0.1	-9.7621
6658	13.79	2.5455	0.1	-9.6616
6659	13.79	2.7273	0.1	-9.5946
6660	13.79	2.9091	0.1	-9.5612
6661	13.79	3.0909	0.1	-9.5612
6662	13.79	3.2727	0.1	-9.5946
6663	13.79	3.4545	0.1	-9.6616
6664	13.79	3.6364	0.1	-9.7621
6665	13.79	3.8182	0.1	-9.8964
6666	13.79	4.	0.1	-10.065
6667	13.79	4.1818	0.1	-10.267
6668	13.79	4.3636	0.1	-10.504
6669	13.79	4.5455	0.1	-10.775
6670	13.79	4.7273	0.1	-11.082
6671	13.79	4.9091	0.1	-11.424
6672	13.79	5.0909	0.1	-11.802
6673	13.79	5.2727	0.1	-12.216
6674	13.79	5.4545	0.1	-12.673
6675	13.79	5.6364	0.1	-13.257
6676	13.79	5.8182	0.1	-15.469
6677	13.974	0.18182	0.1	-15.756
6678	13.974	0.36364	0.1	-13.611
6679	13.974	0.54545	0.1	-13.113
6680	13.974	0.72727	0.1	-12.741
6681	13.974	0.90909	0.1	-12.408
6682	13.974	1.0909	0.1	-12.109
6683	13.974	1.2727	0.1	-11.84
6684	13.974	1.4545	0.1	-11.603
6685	13.974	1.6364	0.1	-11.394
6686	13.974	1.8182	0.1	-11.214
6687	13.974	2.	0.1	-11.061
6688	13.974	2.1818	0.1	-10.935
6689	13.974	2.3636	0.1	-10.834
6690	13.974	2.5455	0.1	-10.76
6691	13.974	2.7273	0.1	-10.71
6692	13.974	2.9091	0.1	-10.685
6693	13.974	3.0909	0.1	-10.685
6694	13.974	3.2727	0.1	-10.71
6695	13.974	3.4545	0.1	-10.76
6696	13.974	3.6364	0.1	-10.834
6697	13.974	3.8182	0.1	-10.935
6698	13.974	4.	0.1	-11.061
6699	13.974	4.1818	0.1	-11.214
6700	13.974	4.3636	0.1	-11.394
6701	13.974	4.5455	0.1	-11.603
6702	13.974	4.7273	0.1	-11.84
6703	13.974	4.9091	0.1	-12.108
6704	13.974	5.0909	0.1	-12.408
6705	13.974	5.2727	0.1	-12.74
6706	13.974	5.4545	0.1	-13.113
6707	13.974	5.6364	0.1	-13.611
6708	13.974	5.8182	0.1	-15.756
6709	14.158	0.18182	0.1	-16.039
6710	14.158	0.36364	0.1	-13.96
6711	14.158	0.54545	0.1	-13.546
6712	14.158	0.72727	0.1	-13.258
6713	14.158	0.90909	0.1	-13.006
6714	14.158	1.0909	0.1	-12.784
6715	14.158	1.2727	0.1	-12.589
6716	14.158	1.4545	0.1	-12.419
6717	14.158	1.6364	0.1	-12.273
6718	14.158	1.8182	0.1	-12.148
6719	14.158	2.	0.1	-12.044
6720	14.158	2.1818	0.1	-11.96
6721	14.158	2.3636	0.1	-11.893
6722	14.158	2.5455	0.1	-11.844
6723	14.158	2.7273	0.1	-11.811
6724	14.158	2.9091	0.1	-11.795
6725	14.158	3.0909	0.1	-11.795
6726	14.158	3.2727	0.1	-11.811
6727	14.158	3.4545	0.1	-11.844
6728	14.158	3.6364	0.1	-11.893
6729	14.158	3.8182	0.1	-11.96
6730	14.158	4.	0.1	-12.044
6731	14.158	4.1818	0.1	-12.148
6732	14.158	4.3636	0.1	-12.273
6733	14.158	4.5455	0.1	-12.419
6734	14.158	4.7273	0.1	-12.589
6735	14.158	4.9091	0.1	-12.784
6736	14.158	5.0909	0.1	-13.006
6737	14.158	5.2727	0.1	-13.258
6738	14.158	5.4545	0.1	-13.546
6739	14.158	5.6364	0.1	-13.96
6740	14.158	5.8182	0.1	-16.039
6741	14.342	0.18182	0.1	-16.32
6742	14.342	0.36364	0.1	-14.306
6743	14.342	0.54545	0.1	-13.976
6744	14.342	0.72727	0.1	-13.77
6745	14.342	0.90909	0.1	-13.599
6746	14.342	1.0909	0.1	-13.454
6747	14.342	1.2727	0.1	-13.332
6748	14.342	1.4545	0.1	-13.23
6749	14.342	1.6364	0.1	-13.145
6750	14.342	1.8182	0.1	-13.076
6751	14.342	2.	0.1	-13.021
6752	14.342	2.1818	0.1	-12.978
6753	14.342	2.3636	0.1	-12.945
6754	14.342	2.5455	0.1	-12.921
6755	14.342	2.7273	0.1	-12.906
6756	14.342	2.9091	0.1	-12.898
6757	14.342	3.0909	0.1	-12.898
6758	14.342	3.2727	0.1	-12.906
6759	14.342	3.4545	0.1	-12.921
6760	14.342	3.6364	0.1	-12.945
6761	14.342	3.8182	0.1	-12.978
6762	14.342	4.	0.1	-13.021
6763	14.342	4.1818	0.1	-13.076
6764	14.342	4.3636	0.1	-13.145
6765	14.342	4.5455	0.1	-13.23
6766	14.342	4.7273	0.1	-13.332
6767	14.342	4.9091	0.1	-13.454
6768	14.342	5.0909	0.1	-13.599
6769	14.342	5.2727	0.1	-13.77
6770	14.342	5.4545	0.1	-13.976
6771	14.342	5.6364	0.1	-14.306
6772	14.342	5.8182	0.1	-16.32
6773	14.526	0.18182	0.1	-16.597
6774	14.526	0.36364	0.1	-14.649
6775	14.526	0.54545	0.1	-14.403
6776	14.526	0.72727	0.1	-14.28
6777	14.526	0.90909	0.1	-14.19
6778	14.526	1.0909	0.1	-14.122
6779	14.526	1.2727	0.1	-14.073
6780	14.526	1.4545	0.1	-14.039
6781	14.526	1.6364	0.1	-14.017
6782	14.526	1.8182	0.1	-14.004
6783	14.526	2.	0.1	-13.997
6784	14.526	2.1818	0.1	-13.995
6785	14.526	2.3636	0.1	-13.996
6786	14.526	2.5455	0.1	-13.998
6787	14.526	2.7273	0.1	-14.
6788	14.526	2.9091	0.1	-14.001
6789	14.526	3.0909	0.1	-14.001
6790	14.526	3.2727	0.1	-14.
6791	14.526	3.4545	0.1	-13.998
6792	14.526	3.6364	0.1	-13.996
6793	14.526	3.8182	0.1	-13.995
6794	14.526	4.	0.1	-13.997
6795	14.526	4.1818	0.1	-14.004
6796	14.526	4.3636	0.1	-14.016
6797	14.526	4.5455	0.1	-14.039
6798	14.526	4.7273	0.1	-14.073
6799	14.526	4.9091	0.1	-14.122
6800	14.526	5.0909	0.1	-14.19
6801	14.526	5.2727	0.1	-14.28
6802	14.526	5.4545	0.1	-14.403
6803	14.526	5.6364	0.1	-14.649
6804	14.526	5.8182	0.1	-16.597
6805	14.71	0.18182	0.1	-16.873
6806	14.71	0.36364	0.1	-14.991
6807	14.71	0.54545	0.1	-14.829
6808	14.71	0.72727	0.1	-14.79
6809	14.71	0.90909	0.1	-14.782
6810	14.71	1.0909	0.1	-14.792
6811	14.71	1.2727	0.1	-14.817
6812	14.71	1.4545	0.1	-14.851
6813	14.71	1.6364	0.1	-14.892
6814	14.71	1.8182	0.1	-14.936
6815	14.71	2.	0.1	-14.979
6816	14.71	2.1818	0.1	-15.019
6817	14.71	2.3636	0.1	-15.054
6818	14.71	2.5455	0.1	-15.081
6819	14.71	2.7273	0.1	-15.101
6820	14.71	2.9091	0.1	-15.11
6821	14.71	3.0909	0.1	-15.11
6822	14.71	3.2727	0.1	-15.101
6823	14.71	3.4545	0.1	-15.081
6824	14.71	3.6364	0.1	-15.054
6825	14.71	3.8182	0.1	-15.019
6826	14.71	4.	0.1	-14.979
6827	14.71	4.1818	0.1	-14.936
6828	14.71	4.3636	0.1	-14.892
6829	14.71	4.5455	0.1	-14.851
6830	14.71	4.7273	0.1	-14.816
6831	14.71	4.9091	0.1	-14.792
6832	14.71	5.0909	0.1	-14.782
6833	14.71	5.2727	0.1	-14.79
6834	14.71	5.4545	0.1	-14.829
6835	14.71	5.6364	0.1	-14.991
6836	14.71	5.8182	0.1	-16.873
6837	14.894	0.18182	0.1	-17.147
6838	14.894	0.36364	0.1	-15.333
6839	14.894	0.54545	0.1	-15.258
6840	14.894	0.72727	0.1	-15.304
6841	14.894	0.90909	0.1	-15.378
6842	14.894	1.0909	0.1	-15.468
6843	14.894	1.2727	0.1	-15.568
6844	14.894	1.4545	0.1	-15.673
6845	14.894	1.6364	0.1	-15.778
6846	14.894	1.8182	0.1	-15.879
6847	14.894	2.	0.1	-15.972
6848	14.894	2.1818	0.1	-16.055
6849	14.894	2.3636	0.1	-16.125
6850	14.894	2.5455	0.1	-16.178
6851	14.894	2.7273	0.1	-16.215
6852	14.894	2.9091	0.1	-16.234
6853	14.894	3.0909	0.1	-16.234
6854	14.894	3.2727	0.1	-16.215
6855	14.894	3.4545	0.1	-16.178
6856	14.894	3.6364	0.1	-16.125
6857	14.894	3.8182	0.1	-16.055
6858	14.894	4.	0.1	-15.972
6859	14.894	4.1818	0.1	-15.879
6860	14.894	4.3636	0.1	-15.778
6861	14.894	4.5455	0.1	-15.673
6862	14.894	4.7273	0.1	-15.568
6863	14.894	4.9091	0.1	-15.468
6864	14.894	5.0909	0.1	-15.378
6865	14.894	5.2727	0.1	-15.304
6866	14.894	5.4545	0.1	-15.258
6867	14.894	5.6364	0.1	-15.333
6868	14.894	5.8182	0.1	-17.147
6869	15.077	0.18182	0.1	-17.421
6870	15.077	0.36364	0.1	-15.677
6871	15.077	0.54545	0.1	-15.689
6872	15.077	0.72727	0.1	-15.823
6873	15.077	0.90909	0.1	-15.982
6874	15.077	1.0909	0.1	-16.154
6875	15.077	1.2727	0.1	-16.331
6876	15.077	1.4545	0.1	-16.507
6877	15.077	1.6364	0.1	-16.678
6878	15.077	1.8182	0.1	-16.838
6879	15.077	2.	0.1	-16.983
6880	15.077	2.1818	0.1	-17.11
6881	15.077	2.3636	0.1	-17.215
6882	15.077	2.5455	0.1	-17.296
6883	15.077	2.7273	0.1	-17.351
6884	15.077	2.9091	0.1	-17.379
6885	15.077	3.0909	0.1	-17.379
6886	15.077	3.2727	0.1	-17.351
6887	15.077	3.4545	0.1	-17.296
6888	15.077	3.6364	0.1	-17.215
6889	15.077	3.8182	0.1	-17.11
6890	15.077	4.	0.1	-16.983
6891	15.077	4.1818	0.1	-16.838
6892	15.077	4.3636	0.1	-16.678
6893	15.077	4.5455	0.1	-16.507
6894	15.077	4.7273	0.1	-16.331
6895	15.077	4.9091	0.1	-16.154
6896	15.077	5.0909	0.1	-15.982
6897	15.077	5.2727	0.1	-15.823
6898	15.077	5.4545	0.1	-15.689
6899	15.077	5.6364	0.1	-15.677
6900	15.077	5.8182	0.1	-17.42
6901	15.261	0.18182	0.1	-17.693
6902	15.261	0.36364	0.1	-16.023
6903	15.261	0.54545	0.1	-16.126
6904	15.261	0.72727	0.1	-16.351
6905	15.261	0.90909	0.1	-16.598
6906	15.261	1.0909	0.1	-16.853
6907	15.261	1.2727	0.1	-17.11
6908	15.261	1.4545	0.1	-17.361
6909	15.261	1.6364	0.1	-17.599
6910	15.261	1.8182	0.1	-17.82
6911	15.261	2.	0.1	-18.019
6912	15.261	2.1818	0.1	-18.191
6913	15.261	2.3636	0.1	-18.332
6914	15.261	2.5455	0.1	-18.441
6915	15.261	2.7273	0.1	-18.514
6916	15.261	2.9091	0.1	-18.551
6917	15.261	3.0909	0.1	-18.551
6918	15.261	3.2727	0.1	-18.514
6919	15.261	3.4545	0.1	-18.441
6920	15.261	3.6364	0.1	-18.332
6921	15.261	3.8182	0.1	-18.191
6922	15.261	4.	0.1	-18.019
6923	15.261	4.1818	0.1	-17.82
6924	15.261	4.3636	0.1	-17.599
6925	15.261	4.5455	0.1	-17.361
6926	15.261	4.7273	0.1	-17.11
6927	15.261	4.9091	0.1	-16.853
6928	15.261	5.0909	0.1	-16.598
6929	15.261	5.2727	0.1	-16.351
6930	15.261	5.4545	0.1	-16.126
6931	15.261	5.6364	0.1	-16.023
6932	15.261	5.8182	0.1	-17.693
6933	15.445	0.18182	0.1	-17.964
6934	15.445	0.36364	0.1	-16.372
6935	15.445	0.54545	0.1	-16.57
6936	15.445	0.72727	0.1	-16.889
6937	15.445	0.90909	0.1	-17.227
6938	15.445	1.0909	0.1	-17.571
6939	15.445	1.2727	0.1	-17.91
6940	15.445	1.4545	0.1	-18.238
6941	15.445	1.6364	0.1	-18.547
6942	15.445	1.8182	0.1	-18.831
6943	15.445	2.	0.1	-19.085
6944	15.445	2.1818	0.1	-19.303
6945	15.445	2.3636	0.1	-19.483
6946	15.445	2.5455	0.1	-19.62
6947	15.445	2.7273	0.1	-19.713
6948	15.445	2.9091	0.1	-19.76
6949	15.445	3.0909	0.1	-19.76
6950	15.445	3.2727	0.1	-19.713
6951	15.445	3.4545	0.1	-19.62
6952	15.445	3.6364	0.1	-19.483
6953	15.445	3.8182	0.1	-19.303
6954	15.445	4.	0.1	-19.085
6955	15.445	4.1818	0.1	-18.831
6956	15.445	4.3636	0.1	-18.547
6957	15.445	4.5455	0.1	-18.238
6958	15.445	4.7273	0.1	-17.91
6959	15.445	4.9091	0.1	-17.57
6960	15.445	5.0909	0.1	-17.227
6961	15.445	5.2727	0.1	-16.889
6962	15.445	5.4545	0.1	-16.57
6963	15.445	5.6364	0.1	-16.372
6964	15.445	5.8182	0.1	-17.964
6965	15.629	0.18182	0.1	-18.236
6966	15.629	0.36364	0.1	-16.726
6967	15.629	0.54545	0.1	-17.024
6968	15.629	0.72727	0.1	-17.441
6969	15.629	0.90909	0.1	-17.875
6970	15.629	1.0909	0.1	-18.31
6971	15.629	1.2727	0.1	-18.736
6972	15.629	1.4545	0.1	-19.144
6973	15.629	1.6364	0.1	-19.527
6974	15.629	1.8182	0.1	-19.877
6975	15.629	2.	0.1	-20.188
6976	15.629	2.1818	0.1	-20.456
6977	15.629	2.3636	0.1	-20.675
6978	15.629	2.5455	0.1	-20.842
6979	15.629	2.7273	0.1	-20.955
6980	15.629	2.9091	0.1	-21.012
6981	15.629	3.0909	0.1	-21.012
6982	15.629	3.2727	0.1	-20.955
6983	15.629	3.4545	0.1	-20.842
6984	15.629	3.6364	0.1	-20.675
6985	15.629	3.8182	0.1	-20.456
6986	15.629	4.	0.1	-20.188
6987	15.629	4.1818	0.1	-19.877
6988	15.629	4.3636	0.1	-19.527
6989	15.629	4.5455	0.1	-19.144
6990	15.629	4.7273	0.1	-18.736
6991	15.629	4.9091	0.1	-18.31
6992	15.629	5.0909	0.1	-17.875
6993	15.629	5.2727	0.1	-17.441
6994	15.629	5.4545	0.1	-17.024
6995	15.629	5.6364	0.1	-16.726
6996	15.629	5.8182	0.1	-18.236
6997	15.813	0.18182	0.1	-18.507
6998	15.813	0.36364	0.1	-17.086
6999	15.813	0.54545	0.1	-17.488
7000	15.813	0.72727	0.1	-18.009
7001	15.813	0.90909	0.1	-18.544
7002	15.813	1.0909	0.1	-19.075
7003	15.813	1.2727	0.1	-19.592
7004	15.813	1.4545	0.1	-20.085
7005	15.813	1.6364	0.1	-20.545
7006	15.813	1.8182	0.1	-20.964
7007	15.813	2.	0.1	-21.336
7008	15.813	2.1818	0.1	-21.654
7009	15.813	2.3636	0.1	-21.915
7010	15.813	2.5455	0.1	-22.113
7011	15.813	2.7273	0.1	-22.247
7012	15.813	2.9091	0.1	-22.314
7013	15.813	3.0909	0.1	-22.314
7014	15.813	3.2727	0.1	-22.247
7015	15.813	3.4545	0.1	-22.113
7016	15.813	3.6364	0.1	-21.914
7017	15.813	3.8182	0.1	-21.654
7018	15.813	4.	0.1	-21.336
7019	15.813	4.1818	0.1	-20.964
7020	15.813	4.3636	0.1	-20.545
7021	15.813	4.5455	0.1	-20.085
7022	15.813	4.7273	0.1	-19.592
7023	15.813	4.9091	0.1	-19.075
7024	15.813	5.0909	0.1	-18.544
7025	15.813	5.2727	0.1	-18.009
7026	15.813	5.4545	0.1	-17.488
7027	15.813	5.6364	0.1	-17.086
7028	15.813	5.8182	0.1	-18.507
7029	15.997	0.18182	0.1	-18.778
7030	15.997	0.36364	0.1	-17.453
7031	15.997	0.54545	0.1	-17.966
7032	15.997	0.72727	0.1	-18.597
7033	15.997	0.90909	0.1	-19.238
7034	15.997	1.0909	0.1	-19.872
7035	15.997	1.2727	0.1	-20.485
7036	15.997	1.4545	0.1	-21.067
7037	15.997	1.6364	0.1	-21.608
7038	15.997	1.8182	0.1	-22.1
7039	15.997	2.	0.1	-22.535
7040	15.997	2.1818	0.1	-22.907
7041	15.997	2.3636	0.1	-23.21
7042	15.997	2.5455	0.1	-23.442
7043	15.997	2.7273	0.1	-23.597
7044	15.997	2.9091	0.1	-23.676
7045	15.997	3.0909	0.1	-23.676
7046	15.997	3.2727	0.1	-23.597
7047	15.997	3.4545	0.1	-23.442
7048	15.997	3.6364	0.1	-23.21
7049	15.997	3.8182	0.1	-22.907
7050	15.997	4.	0.1	-22.535
7051	15.997	4.1818	0.1	-22.1
7052	15.997	4.3636	0.1	-21.608
7053	15.997	4.5455	0.1	-21.067
7054	15.997	4.7273	0.1	-20.485
7055	15.997	4.9091	0.1	-19.872
7056	15.997	5.0909	0.1	-19.238
7057	15.997	5.2727	0.1	-18.597
7058	15.997	5.4545	0.1	-17.966
7059	15.997	5.6364	0.1	-17.453
7060	15.997	5.8182	0.1	-18.778
7061	16.181	0.18182	0.1	-19.049
7062	16.181	0.36364	0.1	-17.828
7063	16.181	0.54545	0.1	-18.46
7064	16.181	0.72727	0.1	-19.207
7065	16.181	0.90909	0.1	-19.962
7066	16.181	1.0909	0.1	-20.704
7067	16.181	1.2727	0.1	-21.419
7068	16.181	1.4545	0.1	-22.095
7069	16.181	1.6364	0.1	-22.723
7070	16.181	1.8182	0.1	-23.291
7071	16.181	2.	0.1	-23.793
7072	16.181	2.1818	0.1	-24.221
7073	16.181	2.3636	0.1	-24.57
7074	16.181	2.5455	0.1	-24.836
7075	16.181	2.7273	0.1	-25.015
7076	16.181	2.9091	0.1	-25.104
7077	16.181	3.0909	0.1	-25.104
7078	16.181	3.2727	0.1	-25.015
7079	16.181	3.4545	0.1	-24.836
7080	16.181	3.6364	0.1	-24.57
7081	16.181	3.8182	0.1	-24.221
7082	16.181	4.	0.1	-23.793
7083	16.181	4.1818	0.1	-23.291
7084	16.181	4.3636	0.1	-22.723
7085	16.181	4.5455	0.1	-22.095
7086	16.181	4.7273	0.1	-21.419
7087	16.181	4.9091	0.1	-20.704
7088	16.181	5.0909	0.1	-19.962
7089	16.181	5.2727	0.1	-19.207
7090	16.181	5.4545	0.1	-18.459
7091	16.181	5.6364	0.1	-17.828
7092	16.181	5.8182	0.1	-19.048
7093	16.365	0.18182	0.1	-19.319
7094	16.365	0.36364	0.1	-18.212
7095	16.365	0.54545	0.1	-18.97
7096	16.365	0.72727	0.1	-19.843
7097	16.365	0.90909	0.1	-20.719
7098	16.365	1.0909	0.1	-21.576
7099	16.365	1.2727	0.1	-22.4
7100	16.365	1.4545	0.1	-23.177
7101	16.365	1.6364	0.1	-23.896
7102	16.365	1.8182	0.1	-24.546
7103	16.365	2.	0.1	-25.118
7104	16.365	2.1818	0.1	-25.606
7105	16.365	2.3636	0.1	-26.003
7106	16.365	2.5455	0.1	-26.304
7107	16.365	2.7273	0.1	-26.507
7108	16.365	2.9091	0.1	-26.609
7109	16.365	3.0909	0.1	-26.609
7110	16.365	3.2727	0.1	-26.507
7111	16.365	3.4545	0.1	-26.304
7112	16.365	3.6364	0.1	-26.003
7113	16.365	3.8182	0.1	-25.606
7114	16.365	4.	0.1	-25.118
7115	16.365	4.1818	0.1	-24.546
7116	16.365	4.3636	0.1	-23.896
7117	16.365	4.5455	0.1	-23.177
7118	16.365	4.7273	0.1	-22.4
7119	16.365	4.9091	0.1	-21.576
7120	16.365	5.0909	0.1	-20.719
7121	16.365	5.2727	0.1	-19.843
7122	16.365	5.4545	0.1	-18.97
7123	16.365	5.6364	0.1	-18.212
7124	16.365	5.8182	0.1	-19.319
7125	16.548	0.18182	0.1	-19.589
7126	16.548	0.36364	0.1	-18.607
7127	16.548	0.54545	0.1	-19.502
7128	16.548	0.72727	0.1	-20.508
7129	16.548	0.90909	0.1	-21.514
7130	16.548	1.0909	0.1	-22.496
7131	16.548	1.2727	0.1	-23.435
7132	16.548	1.4545	0.1	-24.32
7133	16.548	1.6364	0.1	-25.135
7134	16.548	1.8182	0.1	-25.871
7135	16.548	2.	0.1	-26.518
7136	16.548	2.1818	0.1	-27.069
7137	16.548	2.3636	0.1	-27.516
7138	16.548	2.5455	0.1	-27.856
7139	16.548	2.7273	0.1	-28.084
7140	16.548	2.9091	0.1	-28.199
7141	16.548	3.0909	0.1	-28.199
7142	16.548	3.2727	0.1	-28.084
7143	16.548	3.4545	0.1	-27.856
7144	16.548	3.6364	0.1	-27.516
7145	16.548	3.8182	0.1	-27.069
7146	16.548	4.	0.1	-26.518
7147	16.548	4.1818	0.1	-25.871
7148	16.548	4.3636	0.1	-25.135
7149	16.548	4.5455	0.1	-24.32
7150	16.548	4.7273	0.1	-23.435
7151	16.548	4.9091	0.1	-22.495
7152	16.548	5.0909	0.1	-21.514
7153	16.548	5.2727	0.1	-20.508
7154	16.548	5.4545	0.1	-19.502
7155	16.548	5.6364	0.1	-18.607
7156	16.548	5.8182	0.1	-19.589
7157	16.732	0.18182	0.1	-19.858
7158	16.732	0.36364	0.1	-19.013
7159	16.732	0.54545	0.1	-20.055
7160	16.732	0.72727	0.1	-21.207
7161	16.732	0.90909	0.1	-22.353
7162	16.732	1.0909	0.1	-23.467
7163	16.732	1.2727	0.1	-24.531
7164	16.732	1.4545	0.1	-25.53
7165	16.732	1.6364	0.1	-26.449
7166	16.732	1.8182	0.1	-27.276
7167	16.732	2.	0.1	-28.003
7168	16.732	2.1818	0.1	-28.619
7169	16.732	2.3636	0.1	-29.12
7170	16.732	2.5455	0.1	-29.5
7171	16.732	2.7273	0.1	-29.755
7172	16.732	2.9091	0.1	-29.883
7173	16.732	3.0909	0.1	-29.883
7174	16.732	3.2727	0.1	-29.755
7175	16.732	3.4545	0.1	-29.5
7176	16.732	3.6364	0.1	-29.12
7177	16.732	3.8182	0.1	-28.619
7178	16.732	4.	0.1	-28.003
7179	16.732	4.1818	0.1	-27.276
7180	16.732	4.3636	0.1	-26.449
7181	16.732	4.5455	0.1	-25.53
7182	16.732	4.7273	0.1	-24.531
7183	16.732	4.9091	0.1	-23.467
7184	16.732	5.0909	0.1	-22.353
7185	16.732	5.2727	0.1	-21.207
7186	16.732	5.4545	0.1	-20.055
7187	16.732	5.6364	0.1	-19.013
7188	16.732	5.8182	0.1	-19.858
7189	16.916	0.18182	0.1	-20.126
7190	16.916	0.36364	0.1	-19.432
7191	16.916	0.54545	0.1	-20.635
7192	16.916	0.72727	0.1	-21.943
7193	16.916	0.90909	0.1	-23.24
7194	16.916	1.0909	0.1	-24.497
7195	16.916	1.2727	0.1	-25.695
7196	16.916	1.4545	0.1	-26.816
7197	16.916	1.6364	0.1	-27.845
7198	16.916	1.8182	0.1	-28.77
7199	16.916	2.	0.1	-29.58
7200	16.916	2.1818	0.1	-30.267
7201	16.916	2.3636	0.1	-30.824
7202	16.916	2.5455	0.1	-31.246
7203	16.916	2.7273	0.1	-31.529
7204	16.916	2.9091	0.1	-31.672
7205	16.916	3.0909	0.1	-31.672
7206	16.916	3.2727	0.1	-31.529
7207	16.916	3.4545	0.1	-31.246
7208	16.916	3.6364	0.1	-30.824
7209	16.916	3.8182	0.1	-30.267
7210	16.916	4.	0.1	-29.58
7211	16.916	4.1818	0.1	-28.77
7212	16.916	4.3636	0.1	-27.845
7213	16.916	4.5455	0.1	-26.815
7214	16.916	4.7273	0.1	-25.695
7215	16.916	4.9091	0.1	-24.497
7216	16.916	5.0909	0.1	-23.24
7217	16.916	5.2727	0.1	-21.943
7218	16.916	5.4545	0.1	-20.635
7219	16.916	5.6364	0.1	-19.432
7220	16.916	5.8182	0.1	-20.126
7221	17.1	0.18182	0.1	-20.393
7222	17.1	0.36364	0.1	-19.866
7223	17.1	0.54545	0.1	-21.243
7224	17.1	0.72727	0.1	-22.721
7225	17.1	0.90909	0.1	-24.181
7226	17.1	1.0909	0.1	-25.593
7227	17.1	1.2727	0.1	-26.934
7228	17.1	1.4545	0.1	-28.186
7229	17.1	1.6364	0.1	-29.333
7230	17.1	1.8182	0.1	-30.362
7231	17.1	2.	0.1	-31.261
7232	17.1	2.1818	0.1	-32.023
7233	17.1	2.3636	0.1	-32.639
7234	17.1	2.5455	0.1	-33.105
7235	17.1	2.7273	0.1	-33.418
7236	17.1	2.9091	0.1	-33.575
7237	17.1	3.0909	0.1	-33.575
7238	17.1	3.2727	0.1	-33.418
7239	17.1	3.4545	0.1	-33.105
7240	17.1	3.6364	0.1	-32.639
7241	17.1	3.8182	0.1	-32.023
7242	17.1	4.	0.1	-31.261
7243	17.1	4.1818	0.1	-30.362
7244	17.1	4.3636	0.1	-29.333
7245	17.1	4.5455	0.1	-28.186
7246	17.1	4.7273	0.1	-26.934
7247	17.1	4.9091	0.1	-25.592
7248	17.1	5.0909	0.1	-24.181
7249	17.1	5.2727	0.1	-22.721
7250	17.1	5.4545	0.1	-21.242
7251	17.1	5.6364	0.1	-19.866
7252	17.1	5.8182	0.1	-20.393
7253	17.284	0.18182	0.1	-20.657
7254	17.284	0.36364	0.1	-20.316
7255	17.284	0.54545	0.1	-21.882
7256	17.284	0.72727	0.1	-23.546
7257	17.284	0.90909	0.1	-25.183
7258	17.284	1.0909	0.1	-26.762
7259	17.284	1.2727	0.1	-28.258
7260	17.284	1.4545	0.1	-29.651
7261	17.284	1.6364	0.1	-30.924
7262	17.284	1.8182	0.1	-32.063
7263	17.284	2.	0.1	-33.057
7264	17.284	2.1818	0.1	-33.897
7265	17.284	2.3636	0.1	-34.575
7266	17.284	2.5455	0.1	-35.088
7267	17.284	2.7273	0.1	-35.431
7268	17.284	2.9091	0.1	-35.604
7269	17.284	3.0909	0.1	-35.604
7270	17.284	3.2727	0.1	-35.431
7271	17.284	3.4545	0.1	-35.088
7272	17.284	3.6364	0.1	-34.575
7273	17.284	3.8182	0.1	-33.897
7274	17.284	4.	0.1	-33.057
7275	17.284	4.1818	0.1	-32.063
7276	17.284	4.3636	0.1	-30.924
7277	17.284	4.5455	0.1	-29.651
7278	17.284	4.7273	0.1	-28.258
7279	17.284	4.9091	0.1	-26.762
7280	17.284	5.0909	0.1	-25.183
7281	17.284	5.2727	0.1	-23.546
7282	17.284	5.4545	0.1	-21.882
7283	17.284	5.6364	0.1	-20.315
7284	17.284	5.8182	0.1	-20.657
7285	17.468	0.18182	0.1	-20.918
7286	17.468	0.36364	0.1	-20.783
7287	17.468	0.54545	0.1	-22.558
7288	17.468	0.72727	0.1	-24.423
7289	17.468	0.90909	0.1	-26.253
7290	17.468	1.0909	0.1	-28.013
7291	17.468	1.2727	0.1	-29.676
7292	17.468	1.4545	0.1	-31.22
7293	17.468	1.6364	0.1	-32.628
7294	17.468	1.8182	0.1	-33.884
7295	17.468	2.	0.1	-34.978
7296	17.468	2.1818	0.1	-35.9
7297	17.468	2.3636	0.1	-36.644
7298	17.468	2.5455	0.1	-37.206
7299	17.468	2.7273	0.1	-37.581
7300	17.468	2.9091	0.1	-37.77
7301	17.468	3.0909	0.1	-37.77
7302	17.468	3.2727	0.1	-37.581
7303	17.468	3.4545	0.1	-37.206
7304	17.468	3.6364	0.1	-36.644
7305	17.468	3.8182	0.1	-35.9
7306	17.468	4.	0.1	-34.978
7307	17.468	4.1818	0.1	-33.884
7308	17.468	4.3636	0.1	-32.628
7309	17.468	4.5455	0.1	-31.22
7310	17.468	4.7273	0.1	-29.676
7311	17.468	4.9091	0.1	-28.013
7312	17.468	5.0909	0.1	-26.253
7313	17.468	5.2727	0.1	-24.423
7314	17.468	5.4545	0.1	-22.558
7315	17.468	5.6364	0.1	-20.783
7316	17.468	5.8182	0.1	-20.918
7317	17.652	0.18182	0.1	-21.175
7318	17.652	0.36364	0.1	-21.27
7319	17.652	0.54545	0.1	-23.273
7320	17.652	0.72727	0.1	-25.359
7321	17.652	0.90909	0.1	-27.4
7322	17.652	1.0909	0.1	-29.355
7323	17.652	1.2727	0.1	-31.198
7324	17.652	1.4545	0.1	-32.905
7325	17.652	1.6364	0.1	-34.457
7326	17.652	1.8182	0.1	-35.838
7327	17.652	2.	0.1	-37.038
7328	17.652	2.1818	0.1	-38.046
7329	17.652	2.3636	0.1	-38.859
7330	17.652	2.5455	0.1	-39.47
7331	17.652	2.7273	0.1	-39.879
7332	17.652	2.9091	0.1	-40.084
7333	17.652	3.0909	0.1	-40.084
7334	17.652	3.2727	0.1	-39.879
7335	17.652	3.4545	0.1	-39.47
7336	17.652	3.6364	0.1	-38.859
7337	17.652	3.8182	0.1	-38.046
7338	17.652	4.	0.1	-37.038
7339	17.652	4.1818	0.1	-35.838
7340	17.652	4.3636	0.1	-34.457
7341	17.652	4.5455	0.1	-32.905
7342	17.652	4.7273	0.1	-31.198
7343	17.652	4.9091	0.1	-29.355
7344	17.652	5.0909	0.1	-27.4
7345	17.652	5.2727	0.1	-25.359
7346	17.652	5.4545	0.1	-23.273
7347	17.652	5.6364	0.1	-21.27
7348	17.652	5.8182	0.1	-21.175
7349	17.835	0.18182	0.1	-21.426
7350	17.835	0.36364	0.1	-21.778
7351	17.835	0.54545	0.1	-24.033
7352	17.835	0.72727	0.1	-26.361
7353	17.835	0.90909	0.1	-28.631
7354	17.835	1.0909	0.1	-30.8
7355	17.835	1.2727	0.1	-32.838
7356	17.835	1.4545	0.1	-34.72
7357	17.835	1.6364	0.1	-36.425
7358	17.835	1.8182	0.1	-37.938
7359	17.835	2.	0.1	-39.249
7360	17.835	2.1818	0.1	-40.348
7361	17.835	2.3636	0.1	-41.231
7362	17.835	2.5455	0.1	-41.895
7363	17.835	2.7273	0.1	-42.338
7364	17.835	2.9091	0.1	-42.56
7365	17.835	3.0909	0.1	-42.56
7366	17.835	3.2727	0.1	-42.338
7367	17.835	3.4545	0.1	-41.895
7368	17.835	3.6364	0.1	-41.231
7369	17.835	3.8182	0.1	-40.348
7370	17.835	4.	0.1	-39.249
7371	17.835	4.1818	0.1	-37.938
7372	17.835	4.3636	0.1	-36.425
7373	17.835	4.5455	0.1	-34.72
7374	17.835	4.7273	0.1	-32.838
7375	17.835	4.9091	0.1	-30.8
7376	17.835	5.0909	0.1	-28.631
7377	17.835	5.2727	0.1	-26.361
7378	17.835	5.4545	0.1	-24.033
7379	17.835	5.6364	0.1	-21.778
7380	17.835	5.8182	0.1	-21.426
7381	18.019	0.18182	0.1	-21.671
7382	18.019	0.36364	0.1	-22.311
7383	18.019	0.54545	0.1	-24.843
7384	18.019	0.72727	0.1	-27.437
7385	18.019	0.90909	0.1	-29.957
7386	18.019	1.0909	0.1	-32.358
7387	18.019	1.2727	0.1	-34.607
7388	18.019	1.4545	0.1	-36.677
7389	18.019	1.6364	0.1	-38.546
7390	18.019	1.8182	0.1	-40.2
7391	18.019	2.	0.1	-41.626
7392	18.019	2.1818	0.1	-42.82
7393	18.019	2.3636	0.1	-43.776
7394	18.019	2.5455	0.1	-44.493
7395	18.019	2.7273	0.1	-44.971
7396	18.019	2.9091	0.1	-45.21
7397	18.019	3.0909	0.1	-45.21
7398	18.019	3.2727	0.1	-44.971
7399	18.019	3.4545	0.1	-44.493
7400	18.019	3.6364	0.1	-43.776
7401	18.019	3.8182	0.1	-42.82
7402	18.019	4.	0.1	-41.626
7403	18.019	4.1818	0.1	-40.199
7404	18.019	4.3636	0.1	-38.546
7405	18.019	4.5455	0.1	-36.677
7406	18.019	4.7273	0.1	-34.607
7407	18.019	4.9091	0.1	-32.358
7408	18.019	5.0909	0.1	-29.957
7409	18.019	5.2727	0.1	-27.437
7410	18.019	5.4545	0.1	-24.843
7411	18.019	5.6364	0.1	-22.31
7412	18.019	5.8182	0.1	-21.671
7413	18.203	0.18182	0.1	-21.907
7414	18.203	0.36364	0.1	-22.869
7415	18.203	0.54545	0.1	-25.709
7416	18.203	0.72727	0.1	-28.595
7417	18.203	0.90909	0.1	-31.39
7418	18.203	1.0909	0.1	-34.044
7419	18.203	1.2727	0.1	-36.521
7420	18.203	1.4545	0.1	-38.793
7421	18.203	1.6364	0.1	-40.837
7422	18.203	1.8182	0.1	-42.638
7423	18.203	2.	0.1	-44.186
7424	18.203	2.1818	0.1	-45.477
7425	18.203	2.3636	0.1	-46.508
7426	18.203	2.5455	0.1	-47.279
7427	18.203	2.7273	0.1	-47.791
7428	18.203	2.9091	0.1	-48.047
7429	18.203	3.0909	0.1	-48.047
7430	18.203	3.2727	0.1	-47.791
7431	18.203	3.4545	0.1	-47.279
7432	18.203	3.6364	0.1	-46.507
7433	18.203	3.8182	0.1	-45.477
7434	18.203	4.	0.1	-44.186
7435	18.203	4.1818	0.1	-42.638
7436	18.203	4.3636	0.1	-40.837
7437	18.203	4.5455	0.1	-38.793
7438	18.203	4.7273	0.1	-36.521
7439	18.203	4.9091	0.1	-34.044
7440	18.203	5.0909	0.1	-31.39
7441	18.203	5.2727	0.1	-28.595
7442	18.203	5.4545	0.1	-25.708
7443	18.203	5.6364	0.1	-22.869
7444	18.203	5.8182	0.1	-21.907
7445	18.387	0.18182	0.1	-22.133
7446	18.387	0.36364	0.1	-23.457
7447	18.387	0.54545	0.1	-26.636
7448	18.387	0.72727	0.1	-29.846
7449	18.387	0.90909	0.1	-32.943
7450	18.387	1.0909	0.1	-35.873
7451	18.387	1.2727	0.1	-38.597
7452	18.387	1.4545	0.1	-41.085
7453	18.387	1.6364	0.1	-43.315
7454	18.387	1.8182	0.1	-45.271
7455	18.387	2.	0.1	-46.946
7456	18.387	2.1818	0.1	-48.336
7457	18.387	2.3636	0.1	-49.442
7458	18.387	2.5455	0.1	-50.267
7459	18.387	2.7273	0.1	-50.814
7460	18.387	2.9091	0.1	-51.086
7461	18.387	3.0909	0.1	-51.086
7462	18.387	3.2727	0.1	-50.814
7463	18.387	3.4545	0.1	-50.267
7464	18.387	3.6364	0.1	-49.442
7465	18.387	3.8182	0.1	-48.336
7466	18.387	4.	0.1	-46.946
7467	18.387	4.1818	0.1	-45.271
7468	18.387	4.3636	0.1	-43.315
7469	18.387	4.5455	0.1	-41.085
7470	18.387	4.7273	0.1	-38.597
7471	18.387	4.9091	0.1	-35.873
7472	18.387	5.0909	0.1	-32.943
7473	18.387	5.2727	0.1	-29.846
7474	18.387	5.4545	0.1	-26.636
7475	18.387	5.6364	0.1	-23.457
7476	18.387	5.8182	0.1	-22.133
7477	18.571	0.18182	0.1	-22.347
7478	18.571	0.36364	0.1	-24.078
7479	18.571	0.54545	0.1	-27.634
7480	18.571	0.72727	0.1	-31.2
7481	18.571	0.90909	0.1	-34.629
7482	18.571	1.0909	0.1	-37.861
7483	18.571	1.2727	0.1	-40.854
7484	18.571	1.4545	0.1	-43.575
7485	18.571	1.6364	0.1	-46.001
7486	18.571	1.8182	0.1	-48.12
7487	18.571	2.	0.1	-49.924
7488	18.571	2.1818	0.1	-51.415
7489	18.571	2.3636	0.1	-52.596
7490	18.571	2.5455	0.1	-53.473
7491	18.571	2.7273	0.1	-54.053
7492	18.571	2.9091	0.1	-54.341
7493	18.571	3.0909	0.1	-54.341
7494	18.571	3.2727	0.1	-54.053
7495	18.571	3.4545	0.1	-53.473
7496	18.571	3.6364	0.1	-52.596
7497	18.571	3.8182	0.1	-51.415
7498	18.571	4.	0.1	-49.924
7499	18.571	4.1818	0.1	-48.12
7500	18.571	4.3636	0.1	-46.001
7501	18.571	4.5455	0.1	-43.575
7502	18.571	4.7273	0.1	-40.854
7503	18.571	4.9091	0.1	-37.861
7504	18.571	5.0909	0.1	-34.629
7505	18.571	5.2727	0.1	-31.2
7506	18.571	5.4545	0.1	-27.634
7507	18.571	5.6364	0.1	-24.078
7508	18.571	5.8182	0.1	-22.347
7509	18.755	0.18182	0.1	-22.546
7510	18.755	0.36364	0.1	-24.734
7511	18.755	0.54545	0.1	-28.711
7512	18.755	0.72727	0.1	-32.673
7513	18.755	0.90909	0.1	-36.467
7514	18.755	1.0909	0.1	-40.029
7515	18.755	1.2727	0.1	-43.313
7516	18.755	1.4545	0.1	-46.284
7517	18.755	1.6364	0.1	-48.919
7518	18.755	1.8182	0.1	-51.207
7519	18.755	2.	0.1	-53.144
7520	18.755	2.1818	0.1	-54.734
7521	18.755	2.3636	0.1	-55.987
7522	18.755	2.5455	0.1	-56.913
7523	18.755	2.7273	0.1	-57.523
7524	18.755	2.9091	0.1	-57.826
7525	18.755	3.0909	0.1	-57.826
7526	18.755	3.2727	0.1	-57.523
7527	18.755	3.4545	0.1	-56.913
7528	18.755	3.6364	0.1	-55.987
7529	18.755	3.8182	0.1	-54.734
7530	18.755	4.	0.1	-53.144
7531	18.755	4.1818	0.1	-51.207
7532	18.755	4.3636	0.1	-48.919
7533	18.755	4.5455	0.1	-46.284
7534	18.755	4.7273	0.1	-43.313
7535	18.755	4.9091	0.1	-40.029
7536	18.755	5.0909	0.1	-36.467
7537	18.755	5.2727	0.1	-32.672
7538	18.755	5.4545	0.1	-28.711
7539	18.755	5.6364	0.1	-24.734
7540	18.755	5.8182	0.1	-22.546
7541	18.939	0.18182	0.1	-22.726
7542	18.939	0.36364	0.1	-25.431
7543	18.939	0.54545	0.1	-29.877
7544	18.939	0.72727	0.1	-34.277
7545	18.939	0.90909	0.1	-38.475
7546	18.939	1.0909	0.1	-42.399
7547	18.939	1.2727	0.1	-45.999
7548	18.939	1.4545	0.1	-49.239
7549	18.939	1.6364	0.1	-52.095
7550	18.939	1.8182	0.1	-54.557
7551	18.939	2.	0.1	-56.628
7552	18.939	2.1818	0.1	-58.316
7553	18.939	2.3636	0.1	-59.636
7554	18.939	2.5455	0.1	-60.605
7555	18.939	2.7273	0.1	-61.241
7556	18.939	2.9091	0.1	-61.555
7557	18.939	3.0909	0.1	-61.555
7558	18.939	3.2727	0.1	-61.241
7559	18.939	3.4545	0.1	-60.605
7560	18.939	3.6364	0.1	-59.636
7561	18.939	3.8182	0.1	-58.316
7562	18.939	4.	0.1	-56.628
7563	18.939	4.1818	0.1	-54.557
7564	18.939	4.3636	0.1	-52.094
7565	18.939	4.5455	0.1	-49.239
7566	18.939	4.7273	0.1	-45.999
7567	18.939	4.9091	0.1	-42.399
7568	18.939	5.0909	0.1	-38.475
7569	18.939	5.2727	0.1	-34.277
7570	18.939	5.4545	0.1	-29.877
7571	18.939	5.6364	0.1	-25.431
7572	18.939	5.8182	0.1	-22.726
7573	19.123	0.18182	0.1	-22.886
7574	19.123	0.36364	0.1	-26.173
7575	19.123	0.54545	0.1	-31.142
7576	19.123	0.72727	0.1	-36.029
7577	19.123	0.90909	0.1	-40.674
7578	19.123	1.0909	0.1	-44.997
7579	19.123	1.2727	0.1	-48.942
7580	19.123	1.4545	0.1	-52.47
7581	19.123	1.6364	0.1	-55.559
7582	19.123	1.8182	0.1	-58.201
7583	19.123	2.	0.1	-60.404
7584	19.123	2.1818	0.1	-62.183
7585	19.123	2.3636	0.1	-63.562
7586	19.123	2.5455	0.1	-64.567
7587	19.123	2.7273	0.1	-65.221
7588	19.123	2.9091	0.1	-65.543
7589	19.123	3.0909	0.1	-65.543
7590	19.123	3.2727	0.1	-65.221
7591	19.123	3.4545	0.1	-64.567
7592	19.123	3.6364	0.1	-63.562
7593	19.123	3.8182	0.1	-62.183
7594	19.123	4.	0.1	-60.404
7595	19.123	4.1818	0.1	-58.201
7596	19.123	4.3636	0.1	-55.559
7597	19.123	4.5455	0.1	-52.47
7598	19.123	4.7273	0.1	-48.942
7599	19.123	4.9091	0.1	-44.997
7600	19.123	5.0909	0.1	-40.674
7601	19.123	5.2727	0.1	-36.029
7602	19.123	5.4545	0.1	-31.141
7603	19.123	5.6364	0.1	-26.173
7604	19.123	5.8182	0.1	-22.886
7605	19.306	0.18182	0.1	-23.02
7606	19.306	0.36364	0.1	-26.964
7607	19.306	0.54545	0.1	-32.518
7608	19.306	0.72727	0.1	-37.949
7609	19.306	0.90909	0.1	-43.09
7610	19.306	1.0909	0.1	-47.852
7611	19.306	1.2727	0.1	-52.174
7612	19.306	1.4545	0.1	-56.013
7613	19.306	1.6364	0.1	-59.347
7614	19.306	1.8182	0.1	-62.172
7615	19.306	2.	0.1	-64.503
7616	19.306	2.1818	0.1	-66.363
7617	19.306	2.3636	0.1	-67.789
7618	19.306	2.5455	0.1	-68.817
7619	19.306	2.7273	0.1	-69.48
7620	19.306	2.9091	0.1	-69.804
7621	19.306	3.0909	0.1	-69.804
7622	19.306	3.2727	0.1	-69.48
7623	19.306	3.4545	0.1	-68.816
7624	19.306	3.6364	0.1	-67.789
7625	19.306	3.8182	0.1	-66.363
7626	19.306	4.	0.1	-64.503
7627	19.306	4.1818	0.1	-62.172
7628	19.306	4.3636	0.1	-59.347
7629	19.306	4.5455	0.1	-56.013
7630	19.306	4.7273	0.1	-52.174
7631	19.306	4.9091	0.1	-47.852
7632	19.306	5.0909	0.1	-43.09
7633	19.306	5.2727	0.1	-37.949
7634	19.306	5.4545	0.1	-32.518
7635	19.306	5.6364	0.1	-26.964
7636	19.306	5.8182	0.1	-23.02
7637	19.49	0.18182	0.1	-23.124
7638	19.49	0.36364	0.1	-27.81
7639	19.49	0.54545	0.1	-34.018
7640	19.49	0.72727	0.1	-40.057
7641	19.49	0.90909	0.1	-45.75
7642	19.49	1.0909	0.1	-50.999
7643	19.49	1.2727	0.1	-55.734
7644	19.49	1.4545	0.1	-59.909
7645	19.49	1.6364	0.1	-63.501
7646	19.49	1.8182	0.1	-66.512
7647	19.49	2.	0.1	-68.961
7648	19.49	2.1818	0.1	-70.888
7649	19.49	2.3636	0.1	-72.342
7650	19.49	2.5455	0.1	-73.373
7651	19.49	2.7273	0.1	-74.031
7652	19.49	2.9091	0.1	-74.349
7653	19.49	3.0909	0.1	-74.349
7654	19.49	3.2727	0.1	-74.031
7655	19.49	3.4545	0.1	-73.373
7656	19.49	3.6364	0.1	-72.342
7657	19.49	3.8182	0.1	-70.888
7658	19.49	4.	0.1	-68.961
7659	19.49	4.1818	0.1	-66.512
7660	19.49	4.3636	0.1	-63.501
7661	19.49	4.5455	0.1	-59.909
7662	19.49	4.7273	0.1	-55.734
7663	19.49	4.9091	0.1	-50.999
7664	19.49	5.0909	0.1	-45.75
7665	19.49	5.2727	0.1	-40.057
7666	19.49	5.4545	0.1	-34.018
7667	19.49	5.6364	0.1	-27.81
7668	19.49	5.8182	0.1	-23.124
7669	19.674	0.18182	0.1	-23.193
7670	19.674	0.36364	0.1	-28.715
7671	19.674	0.54545	0.1	-35.657
7672	19.674	0.72727	0.1	-42.375
7673	19.674	0.90909	0.1	-48.686
7674	19.674	1.0909	0.1	-54.477
7675	19.674	1.2727	0.1	-59.668
7676	19.674	1.4545	0.1	-64.209
7677	19.674	1.6364	0.1	-68.073
7678	19.674	1.8182	0.1	-71.267
7679	19.674	2.	0.1	-73.822
7680	19.674	2.1818	0.1	-75.793
7681	19.674	2.3636	0.1	-77.248
7682	19.674	2.5455	0.1	-78.257
7683	19.674	2.7273	0.1	-78.888
7684	19.674	2.9091	0.1	-79.19
7685	19.674	3.0909	0.1	-79.19
7686	19.674	3.2727	0.1	-78.888
7687	19.674	3.4545	0.1	-78.257
7688	19.674	3.6364	0.1	-77.248
7689	19.674	3.8182	0.1	-75.793
7690	19.674	4.	0.1	-73.822
7691	19.674	4.1818	0.1	-71.267
7692	19.674	4.3636	0.1	-68.073
7693	19.674	4.5455	0.1	-64.209
7694	19.674	4.7273	0.1	-59.668
7695	19.674	4.9091	0.1	-54.476
7696	19.674	5.0909	0.1	-48.686
7697	19.674	5.2727	0.1	-42.375
7698	19.674	5.4545	0.1	-35.657
7699	19.674	5.6364	0.1	-28.715
7700	19.674	5.8182	0.1	-23.193
7701	19.858	0.18182	0.1	-23.221
7702	19.858	0.36364	0.1	-29.683
7703	19.858	0.54545	0.1	-37.447
7704	19.858	0.72727	0.1	-44.928
7705	19.858	0.90909	0.1	-51.931
7706	19.858	1.0909	0.1	-58.33
7707	19.858	1.2727	0.1	-64.031
7708	19.858	1.4545	0.1	-68.971
7709	19.858	1.6364	0.1	-73.123
7710	19.858	1.8182	0.1	-76.497
7711	19.858	2.	0.1	-79.138
7712	19.858	2.1818	0.1	-81.121
7713	19.858	2.3636	0.1	-82.537
7714	19.858	2.5455	0.1	-83.488
7715	19.858	2.7273	0.1	-84.063
7716	19.858	2.9091	0.1	-84.331
7717	19.858	3.0909	0.1	-84.331
7718	19.858	3.2727	0.1	-84.063
7719	19.858	3.4545	0.1	-83.488
7720	19.858	3.6364	0.1	-82.537
7721	19.858	3.8182	0.1	-81.121
7722	19.858	4.	0.1	-79.138
7723	19.858	4.1818	0.1	-76.497
7724	19.858	4.3636	0.1	-73.123
7725	19.858	4.5455	0.1	-68.971
7726	19.858	4.7273	0.1	-64.03
7727	19.858	4.9091	0.1	-58.33
7728	19.858	5.0909	0.1	-51.931
7729	19.858	5.2727	0.1	-44.928
7730	19.858	5.4545	0.1	-37.447
7731	19.858	5.6364	0.1	-29.682
7732	19.858	5.8182	0.1	-23.22
7733	20.042	0.18182	0.1	-23.2
7734	20.042	0.36364	0.1	-30.716
7735	20.042	0.54545	0.1	-39.401
7736	20.042	0.72727	0.1	-47.739
7737	20.042	0.90909	0.1	-55.525
7738	20.042	1.0909	0.1	-62.611
7739	20.042	1.2727	0.1	-68.885
7740	20.042	1.4545	0.1	-74.269
7741	20.042	1.6364	0.1	-78.728
7742	20.042	1.8182	0.1	-82.276
7743	20.042	2.	0.1	-84.974
7744	20.042	2.1818	0.1	-86.921
7745	20.042	2.3636	0.1	-88.246
7746	20.042	2.5455	0.1	-89.084
7747	20.042	2.7273	0.1	-89.563
7748	20.042	2.9091	0.1	-89.776
7749	20.042	3.0909	0.1	-89.776
7750	20.042	3.2727	0.1	-89.563
7751	20.042	3.4545	0.1	-89.084
7752	20.042	3.6364	0.1	-88.246
7753	20.042	3.8182	0.1	-86.921
7754	20.042	4.	0.1	-84.974
7755	20.042	4.1818	0.1	-82.276
7756	20.042	4.3636	0.1	-78.728
7757	20.042	4.5455	0.1	-74.269
7758	20.042	4.7273	0.1	-68.885
7759	20.042	4.9091	0.1	-62.611
7760	20.042	5.0909	0.1	-55.525
7761	20.042	5.2727	0.1	-47.739
7762	20.042	5.4545	0.1	-39.401
7763	20.042	5.6364	0.1	-30.716
7764	20.042	5.8182	0.1	-23.2
7765	20.226	0.18182	0.1	-23.124
7766	20.226	0.36364	0.1	-31.815
7767	20.226	0.54545	0.1	-41.529
7768	20.226	0.72727	0.1	-50.833
7769	20.226	0.90909	0.1	-59.509
7770	20.226	1.0909	0.1	-67.381
7771	20.226	1.2727	0.1	-74.31
7772	20.226	1.4545	0.1	-80.194
7773	20.226	1.6364	0.1	-84.985
7774	20.226	1.8182	0.1	-88.697
7775	20.226	2.	0.1	-91.409
7776	20.226	2.1818	0.1	-93.256
7777	20.226	2.3636	0.1	-94.413
7778	20.226	2.5455	0.1	-95.067
7779	20.226	2.7273	0.1	-95.39
7780	20.226	2.9091	0.1	-95.517
7781	20.226	3.0909	0.1	-95.517
7782	20.226	3.2727	0.1	-95.39
7783	20.226	3.4545	0.1	-95.067
7784	20.226	3.6364	0.1	-94.413
7785	20.226	3.8182	0.1	-93.256
7786	20.226	4.	0.1	-91.409
7787	20.226	4.1818	0.1	-88.697
7788	20.226	4.3636	0.1	-84.985
7789	20.226	4.5455	0.1	-80.194
7790	20.226	4.7273	0.1	-74.31
7791	20.226	4.9091	0.1	-67.381
7792	20.226	5.0909	0.1	-59.509
7793	20.226	5.2727	0.1	-50.833
7794	20.226	5.4545	0.1	-41.529
7795	20.226	5.6364	0.1	-31.815
7796	20.226	5.8182	0.1	-23.124
7797	20.41	0.18182	0.1	-22.981
7798	20.41	0.36364	0.1	-32.974
7799	20.41	0.54545	0.1	-43.835
7800	20.41	0.72727	0.1	-54.231
7801	20.41	0.90909	0.1	-63.926
7802	20.41	1.0909	0.1	-72.71
7803	20.41	1.2727	0.1	-80.402
7804	20.41	1.4545	0.1	-86.862
7805	20.41	1.6364	0.1	-92.019
7806	20.41	1.8182	0.1	-95.881
7807	20.41	2.	0.1	-98.55
7808	20.41	2.1818	0.1	-100.21
7809	20.41	2.3636	0.1	-101.09
7810	20.41	2.5455	0.1	-101.45
7811	20.41	2.7273	0.1	-101.54
7812	20.41	2.9091	0.1	-101.53
7813	20.41	3.0909	0.1	-101.53
7814	20.41	3.2727	0.1	-101.54
7815	20.41	3.4545	0.1	-101.45
7816	20.41	3.6364	0.1	-101.09
7817	20.41	3.8182	0.1	-100.21
7818	20.41	4.	0.1	-98.55
7819	20.41	4.1818	0.1	-95.881
7820	20.41	4.3636	0.1	-92.019
7821	20.41	4.5455	0.1	-86.862
7822	20.41	4.7273	0.1	-80.402
7823	20.41	4.9091	0.1	-72.71
7824	20.41	5.0909	0.1	-63.926
7825	20.41	5.2727	0.1	-54.231
7826	20.41	5.4545	0.1	-43.835
7827	20.41	5.6364	0.1	-32.974
7828	20.41	5.8182	0.1	-22.981
7829	20.594	0.18182	0.1	-22.762
7830	20.594	0.36364	0.1	-34.18
7831	20.594	0.54545	0.1	-46.314
7832	20.594	0.72727	0.1	-57.946
7833	20.594	0.90909	0.1	-68.821
7834	20.594	1.0909	0.1	-78.68
7835	20.594	1.2727	0.1	-87.28
7836	20.594	1.4545	0.1	-94.423
7837	20.594	1.6364	0.1	-99.994
7838	20.594	1.8182	0.1	-103.99
7839	20.594	2.	0.1	-106.53
7840	20.594	2.1818	0.1	-107.87
7841	20.594	2.3636	0.1	-108.32
7842	20.594	2.5455	0.1	-108.25
7843	20.594	2.7273	0.1	-107.99
7844	20.594	2.9091	0.1	-107.79
7845	20.594	3.0909	0.1	-107.79
7846	20.594	3.2727	0.1	-107.99
7847	20.594	3.4545	0.1	-108.25
7848	20.594	3.6364	0.1	-108.32
7849	20.594	3.8182	0.1	-107.87
7850	20.594	4.	0.1	-106.53
7851	20.594	4.1818	0.1	-103.99
7852	20.594	4.3636	0.1	-99.994
7853	20.594	4.5455	0.1	-94.423
7854	20.594	4.7273	0.1	-87.28
7855	20.594	4.9091	0.1	-78.68
7856	20.594	5.0909	0.1	-68.821
7857	20.594	5.2727	0.1	-57.946
7858	20.594	5.4545	0.1	-46.314
7859	20.594	5.6364	0.1	-34.18
7860	20.594	5.8182	0.1	-22.762
7861	20.777	0.18182	0.1	-22.454
7862	20.777	0.36364	0.1	-35.409
7863	20.777	0.54545	0.1	-48.947
7864	20.777	0.72727	0.1	-61.984
7865	20.777	0.90909	0.1	-74.24
7866	20.777	1.0909	0.1	-85.388
7867	20.777	1.2727	0.1	-95.096
7868	20.777	1.4545	0.1	-103.08
7869	20.777	1.6364	0.1	-109.14
7870	20.777	1.8182	0.1	-113.24
7871	20.777	2.	0.1	-115.55
7872	20.777	2.1818	0.1	-116.38
7873	20.777	2.3636	0.1	-116.19
7874	20.777	2.5455	0.1	-115.48
7875	20.777	2.7273	0.1	-114.7
7876	20.777	2.9091	0.1	-114.22
7877	20.777	3.0909	0.1	-114.22
7878	20.777	3.2727	0.1	-114.7
7879	20.777	3.4545	0.1	-115.48
7880	20.777	3.6364	0.1	-116.19
7881	20.777	3.8182	0.1	-116.38
7882	20.777	4.	0.1	-115.55
7883	20.777	4.1818	0.1	-113.24
7884	20.777	4.3636	0.1	-109.14
7885	20.777	4.5455	0.1	-103.08
7886	20.777	4.7273	0.1	-95.096
7887	20.777	4.9091	0.1	-85.388
7888	20.777	5.0909	0.1	-74.24
7889	20.777	5.2727	0.1	-61.984
7890	20.777	5.4545	0.1	-48.946
7891	20.777	5.6364	0.1	-35.409
7892	20.777	5.8182	0.1	-22.454
7893	20.961	0.18182	0.1	-22.042
7894	20.961	0.36364	0.1	-36.621
7895	20.961	0.54545	0.1	-51.693
7896	20.961	0.72727	0.1	-66.332
7897	20.961	0.90909	0.1	-80.225
7898	20.961	1.0909	0.1	-92.951
7899	20.961	1.2727	0.1	-104.05
7900	20.961	1.4545	0.1	-113.09
7901	20.961	1.6364	0.1	-119.75
7902	20.961	1.8182	0.1	-123.95
7903	20.961	2.	0.1	-125.86
7904	20.961	2.1818	0.1	-125.92
7905	20.961	2.3636	0.1	-124.77
7906	20.961	2.5455	0.1	-123.12
7907	20.961	2.7273	0.1	-121.61
7908	20.961	2.9091	0.1	-120.73
7909	20.961	3.0909	0.1	-120.73
7910	20.961	3.2727	0.1	-121.61
7911	20.961	3.4545	0.1	-123.12
7912	20.961	3.6364	0.1	-124.77
7913	20.961	3.8182	0.1	-125.92
7914	20.961	4.	0.1	-125.86
7915	20.961	4.1818	0.1	-123.95
7916	20.961	4.3636	0.1	-119.75
7917	20.961	4.5455	0.1	-113.09
7918	20.961	4.7273	0.1	-104.05
7919	20.961	4.9091	0.1	-92.951
7920	20.961	5.0909	0.1	-80.225
7921	20.961	5.2727	0.1	-66.332
7922	20.961	5.4545	0.1	-51.693
7923	20.961	5.6364	0.1	-36.621
7924	20.961	5.8182	0.1	-22.042
7925	21.145	0.18182	0.1	-21.509
7926	21.145	0.36364	0.1	-37.756
7927	21.145	0.54545	0.1	-54.486
7928	21.145	0.72727	0.1	-70.954
7929	21.145	0.90909	0.1	-86.81
7930	21.145	1.0909	0.1	-101.51
7931	21.145	1.2727	0.1	-114.4
7932	21.145	1.4545	0.1	-124.83
7933	21.145	1.6364	0.1	-132.28
7934	21.145	1.8182	0.1	-136.55
7935	21.145	2.	0.1	-137.83
7936	21.145	2.1818	0.1	-136.73
7937	21.145	2.3636	0.1	-134.17
7938	21.145	2.5455	0.1	-131.16
7939	21.145	2.7273	0.1	-128.61
7940	21.145	2.9091	0.1	-127.16
7941	21.145	3.0909	0.1	-127.16
7942	21.145	3.2727	0.1	-128.61
7943	21.145	3.4545	0.1	-131.16
7944	21.145	3.6364	0.1	-134.17
7945	21.145	3.8182	0.1	-136.73
7946	21.145	4.	0.1	-137.83
7947	21.145	4.1818	0.1	-136.55
7948	21.145	4.3636	0.1	-132.28
7949	21.145	4.5455	0.1	-124.83
7950	21.145	4.7273	0.1	-114.4
7951	21.145	4.9091	0.1	-101.51
7952	21.145	5.0909	0.1	-86.81
7953	21.145	5.2727	0.1	-70.954
7954	21.145	5.4545	0.1	-54.486
7955	21.145	5.6364	0.1	-37.756
7956	21.145	5.8182	0.1	-21.509
7957	21.329	0.18182	0.1	-20.836
7958	21.329	0.36364	0.1	-38.725
7959	21.329	0.54545	0.1	-57.222
7960	21.329	0.72727	0.1	-75.786
7961	21.329	0.90909	0.1	-94.025
7962	21.329	1.0909	0.1	-111.23
7963	21.329	1.2727	0.1	-126.5
7964	21.329	1.4545	0.1	-138.83
7965	21.329	1.6364	0.1	-147.37
7966	21.329	1.8182	0.1	-151.69
7967	21.329	2.	0.1	-151.99
7968	21.329	2.1818	0.1	-149.15
7969	21.329	2.3636	0.1	-144.51
7970	21.329	2.5455	0.1	-139.54
7971	21.329	2.7273	0.1	-135.5
7972	21.329	2.9091	0.1	-133.27
7973	21.329	3.0909	0.1	-133.27
7974	21.329	3.2727	0.1	-135.5
7975	21.329	3.4545	0.1	-139.54
7976	21.329	3.6364	0.1	-144.51
7977	21.329	3.8182	0.1	-149.15
7978	21.329	4.	0.1	-151.99
7979	21.329	4.1818	0.1	-151.69
7980	21.329	4.3636	0.1	-147.37
7981	21.329	4.5455	0.1	-138.83
7982	21.329	4.7273	0.1	-126.5
7983	21.329	4.9091	0.1	-111.23
7984	21.329	5.0909	0.1	-94.025
7985	21.329	5.2727	0.1	-75.786
7986	21.329	5.4545	0.1	-57.222
7987	21.329	5.6364	0.1	-38.725
7988	21.329	5.8182	0.1	-20.836
7989	21.513	0.18182	0.1	-20.005
7990	21.513	0.36364	0.1	-39.417
7991	21.513	0.54545	0.1	-59.762
7992	21.513	0.72727	0.1	-80.73
7993	21.513	0.90909	0.1	-101.89
7994	21.513	1.0909	0.1	-122.34
7995	21.513	1.2727	0.1	-140.82
7996	21.513	1.4545	0.1	-155.84
7997	21.513	1.6364	0.1	-165.97
7998	21.513	1.8182	0.1	-170.36
7999	21.513	2.	0.1	-169.16
8000	21.513	2.1818	0.1	-163.65
8001	21.513	2.3636	0.1	-155.91
8002	21.513	2.5455	0.1	-148.12
8003	21.513	2.7273	0.1	-142.03
8004	21.513	2.9091	0.1	-138.75
8005	21.513	3.0909	0.1	-138.75
8006	21.513	3.2727	0.1	-142.03
8007	21.513	3.4545	0.1	-148.12
8008	21.513	3.6364	0.1	-155.91
8009	21.513	3.8182	0.1	-163.65
8010	21.513	4.	0.1	-169.16
8011	21.513	4.1818	0.1	-170.36
8012	21.513	4.3636	0.1	-165.97
8013	21.513	4.5455	0.1	-155.84
8014	21.513	4.7273	0.1	-140.82
8015	21.513	4.9091	0.1	-122.34
8016	21.513	5.0909	0.1	-101.89
8017	21.513	5.2727	0.1	-80.73
8018	21.513	5.4545	0.1	-59.762
8019	21.513	5.6364	0.1	-39.417
8020	21.513	5.8182	0.1	-20.005
8021	21.697	0.18182	0.1	-18.999
8022	21.697	0.36364	0.1	-39.696
8023	21.697	0.54545	0.1	-61.944
8024	21.697	0.72727	0.1	-85.672
8025	21.697	0.90909	0.1	-110.42
8026	21.697	1.0909	0.1	-135.09
8027	21.697	1.2727	0.1	-158.
8028	21.697	1.4545	0.1	-176.95
8029	21.697	1.6364	0.1	-189.57
8030	21.697	1.8182	0.1	-194.13
8031	21.697	2.	0.1	-190.59
8032	21.697	2.1818	0.1	-180.93
8033	21.697	2.3636	0.1	-168.48
8034	21.697	2.5455	0.1	-156.64
8035	21.697	2.7273	0.1	-147.78
8036	21.697	2.9091	0.1	-143.12
8037	21.697	3.0909	0.1	-143.12
8038	21.697	3.2727	0.1	-147.78
8039	21.697	3.4545	0.1	-156.64
8040	21.697	3.6364	0.1	-168.48
8041	21.697	3.8182	0.1	-180.93
8042	21.697	4.	0.1	-190.59
8043	21.697	4.1818	0.1	-194.13
8044	21.697	4.3636	0.1	-189.57
8045	21.697	4.5455	0.1	-176.95
8046	21.697	4.7273	0.1	-158.
8047	21.697	4.9091	0.1	-135.09
8048	21.697	5.0909	0.1	-110.42
8049	21.697	5.2727	0.1	-85.672
8050	21.697	5.4545	0.1	-61.944
8051	21.697	5.6364	0.1	-39.696
8052	21.697	5.8182	0.1	-18.999
8053	21.881	0.18182	0.1	-17.808
8054	21.881	0.36364	0.1	-39.432
8055	21.881	0.54545	0.1	-63.626
8056	21.881	0.72727	0.1	-90.532
8057	21.881	0.90909	0.1	-119.66
8058	21.881	1.0909	0.1	-149.78
8059	21.881	1.2727	0.1	-178.84
8060	21.881	1.4545	0.1	-203.74
8061	21.881	1.6364	0.1	-220.49
8062	21.881	1.8182	0.1	-225.65
8063	21.881	2.	0.1	-218.38
8064	21.881	2.1818	0.1	-201.94
8065	21.881	2.3636	0.1	-182.21
8066	21.881	2.5455	0.1	-164.57
8067	21.881	2.7273	0.1	-152.1
8068	21.881	2.9091	0.1	-145.8
8069	21.881	3.0909	0.1	-145.8
8070	21.881	3.2727	0.1	-152.1
8071	21.881	3.4545	0.1	-164.57
8072	21.881	3.6364	0.1	-182.21
8073	21.881	3.8182	0.1	-201.94
8074	21.881	4.	0.1	-218.38
8075	21.881	4.1818	0.1	-225.65
8076	21.881	4.3636	0.1	-220.49
8077	21.881	4.5455	0.1	-203.74
8078	21.881	4.7273	0.1	-178.84
8079	21.881	4.9091	0.1	-149.78
8080	21.881	5.0909	0.1	-119.66
8081	21.881	5.2727	0.1	-90.532
8082	21.881	5.4545	0.1	-63.626
8083	21.881	5.6364	0.1	-39.432
8084	21.881	5.8182	0.1	-17.808
8085	22.065	0.18182	0.1	-16.444
8086	22.065	0.36364	0.1	-38.562
8087	22.065	0.54545	0.1	-64.822
8088	22.065	0.72727	0.1	-95.413
8089	22.065	0.90909	0.1	-129.79
8090	22.065	1.0909	0.1	-166.76
8091	22.065	1.2727	0.1	-204.2
8092	22.065	1.4545	0.1	-238.31
8093	22.065	1.6364	0.1	-262.74
8094	22.065	1.8182	0.1	-269.64
8095	22.065	2.	0.1	-256.29
8096	22.065	2.1818	0.1	-228.27
8097	22.065	2.3636	0.1	-196.7
8098	22.065	2.5455	0.1	-170.87
8099	22.065	2.7273	0.1	-154.05
8100	22.065	2.9091	0.1	-146.
8101	22.065	3.0909	0.1	-146.
8102	22.065	3.2727	0.1	-154.05
8103	22.065	3.4545	0.1	-170.87
8104	22.065	3.6364	0.1	-196.7
8105	22.065	3.8182	0.1	-228.27
8106	22.065	4.	0.1	-256.29
8107	22.065	4.1818	0.1	-269.64
8108	22.065	4.3636	0.1	-262.74
8109	22.065	4.5455	0.1	-238.31
8110	22.065	4.7273	0.1	-204.2
8111	22.065	4.9091	0.1	-166.76
8112	22.065	5.0909	0.1	-129.79
8113	22.065	5.2727	0.1	-95.413
8114	22.065	5.4545	0.1	-64.822
8115	22.065	5.6364	0.1	-38.562
8116	22.065	5.8182	0.1	-16.444
8117	22.248	0.18182	0.1	-14.928
8118	22.248	0.36364	0.1	-37.246
8119	22.248	0.54545	0.1	-65.985
8120	22.248	0.72727	0.1	-100.89
8121	22.248	0.90909	0.1	-141.26
8122	22.248	1.0909	0.1	-186.31
8123	22.248	1.2727	0.1	-234.58
8124	22.248	1.4545	0.1	-282.9
8125	22.248	1.6364	0.1	-321.96
8126	22.248	1.8182	0.1	-335.63
8127	22.248	2.	0.1	-311.89
8128	22.248	2.1818	0.1	-261.45
8129	22.248	2.3636	0.1	-210.38
8130	22.248	2.5455	0.1	-173.75
8131	22.248	2.7273	0.1	-152.26
8132	22.248	2.9091	0.1	-142.65
8133	22.248	3.0909	0.1	-142.65
8134	22.248	3.2727	0.1	-152.26
8135	22.248	3.4545	0.1	-173.75
8136	22.248	3.6364	0.1	-210.38
8137	22.248	3.8182	0.1	-261.45
8138	22.248	4.	0.1	-311.89
8139	22.248	4.1818	0.1	-335.63
8140	22.248	4.3636	0.1	-321.96
8141	22.248	4.5455	0.1	-282.9
8142	22.248	4.7273	0.1	-234.58
8143	22.248	4.9091	0.1	-186.31
8144	22.248	5.0909	0.1	-141.26
8145	22.248	5.2727	0.1	-100.89
8146	22.248	5.4545	0.1	-65.985
8147	22.248	5.6364	0.1	-37.246
8148	22.248	5.8182	0.1	-14.928
8149	22.432	0.18182	0.1	-13.67
8150	22.432	0.36364	0.1	-36.731
8151	22.432	0.54545	0.1	-69.114
8152	22.432	0.72727	0.1	-108.99
8153	22.432	0.90909	0.1	-155.61
8154	22.432	1.0909	0.1	-209.12
8155	22.432	1.2727	0.1	-270.29
8156	22.432	1.4545	0.1	-337.8
8157	22.432	1.6364	0.1	-408.96
8158	22.432	1.8182	0.1	-448.37
8159	22.432	2.	0.1	-404.88
8160	22.432	2.1818	0.1	-305.82
8161	22.432	2.3636	0.1	-219.64
8162	22.432	2.5455	0.1	-169.78
8163	22.432	2.7273	0.1	-144.75
8164	22.432	2.9091	0.1	-134.22
8165	22.432	3.0909	0.1	-134.22
8166	22.432	3.2727	0.1	-144.75
8167	22.432	3.4545	0.1	-169.78
8168	22.432	3.6364	0.1	-219.64
8169	22.432	3.8182	0.1	-305.82
8170	22.432	4.	0.1	-404.88
8171	22.432	4.1818	0.1	-448.37
8172	22.432	4.3636	0.1	-408.96
8173	22.432	4.5455	0.1	-337.8
8174	22.432	4.7273	0.1	-270.29
8175	22.432	4.9091	0.1	-209.12
8176	22.432	5.0909	0.1	-155.61
8177	22.432	5.2727	0.1	-108.99
8178	22.432	5.4545	0.1	-69.114
8179	22.432	5.6364	0.1	-36.731
8180	22.432	5.8182	0.1	-13.67
8181	22.616	0.18182	0.1	-15.489
8182	22.616	0.36364	0.1	-43.911
8183	22.616	0.54545	0.1	-82.603
8184	22.616	0.72727	0.1	-128.57
8185	22.616	0.90909	0.1	-181.96
8186	22.616	1.0909	0.1	-244.28
8187	22.616	1.2727	0.1	-318.74
8188	22.616	1.4545	0.1	-410.56
8189	22.616	1.6364	0.1	-533.14
8190	22.616	1.8182	0.1	-680.26
8191	22.616	2.	0.1	-601.4
8192	22.616	2.1818	0.1	-362.45
8193	22.616	2.3636	0.1	-212.44
8194	22.616	2.5455	0.1	-154.01
8195	22.616	2.7273	0.1	-128.77
8196	22.616	2.9091	0.1	-118.33
8197	22.616	3.0909	0.1	-118.33
8198	22.616	3.2727	0.1	-128.77
8199	22.616	3.4545	0.1	-154.01
8200	22.616	3.6364	0.1	-212.43
8201	22.616	3.8182	0.1	-362.45
8202	22.616	4.	0.1	-601.4
8203	22.616	4.1818	0.1	-680.26
8204	22.616	4.3636	0.1	-533.14
8205	22.616	4.5455	0.1	-410.56
8206	22.616	4.7273	0.1	-318.74
8207	22.616	4.9091	0.1	-244.28
8208	22.616	5.0909	0.1	-181.96
8209	22.616	5.2727	0.1	-128.57
8210	22.616	5.4545	0.1	-82.603
8211	22.616	5.6364	0.1	-43.911
8212	22.616	5.8182	0.1	-15.489
8213	23.139	4.	0.1	15.158
8214	23.311	4.	0.1	-7.7662
8215	23.483	4.	0.1	-0.71612
8216	23.656	4.	0.1	-4.2259
8217	23.828	4.	0.1	-30.729
8218	23.828	2.	0.1	-30.729
8219	23.656	2.	0.1	-4.2259
8220	23.483	2.	0.1	-0.71612
8221	23.311	2.	0.1	-7.7662
8222	23.139	2.	0.1	15.158
8223	22.8	3.8182	0.1	-370.33
8224	22.8	3.6364	0.1	-169.46
8225	22.8	3.4545	0.1	-121.85
8226	22.8	3.2727	0.1	-100.71
8227	22.8	3.0909	0.1	-92.184
8228	22.8	2.9091	0.1	-92.184
8229	22.8	2.7273	0.1	-100.71
8230	22.8	2.5455	0.1	-121.85
8231	22.8	2.3636	0.1	-169.46
8232	22.8	2.1818	0.1	-370.33
8233	22.967	5.8182	0.1	-0.79669
8234	22.967	5.6364	0.1	-1.114
8235	22.967	5.4545	0.1	-1.4776
8236	22.967	5.2727	0.1	-1.8315
8237	22.967	5.0909	0.1	-2.1898
8238	22.967	4.9091	0.1	-2.6631
8239	22.967	4.7273	0.1	-2.8959
8240	22.967	4.5455	0.1	-5.7463
8241	22.967	4.3636	0.1	-5.6412
8242	22.967	4.1818	0.1	-66.655
8243	22.967	4.	0.1	-132.5
8244	22.8	4.	0.1	-1067.
8245	22.8	4.1818	0.1	-808.22
8246	22.8	4.3636	0.1	-479.33
8247	22.8	4.5455	0.1	-358.54
8248	22.8	4.7273	0.1	-269.13
8249	22.8	4.9091	0.1	-202.09
8250	22.8	5.0909	0.1	-148.55
8251	22.8	5.2727	0.1	-104.34
8252	22.8	5.4545	0.1	-67.497
8253	22.8	5.6364	0.1	-37.209
8254	22.8	5.8182	0.1	-13.503
8255	22.967	0.18182	0.1	-0.79671
8256	22.967	0.36364	0.1	-1.114
8257	22.967	0.54545	0.1	-1.4776
8258	22.967	0.72727	0.1	-1.8315
8259	22.967	0.90909	0.1	-2.1898
8260	22.967	1.0909	0.1	-2.6631
8261	22.967	1.2727	0.1	-2.8959
8262	22.967	1.4545	0.1	-5.7463
8263	22.967	1.6364	0.1	-5.6412
8264	22.967	1.8182	0.1	-66.655
8265	22.967	2.	0.1	-132.5
8266	22.8	2.	0.1	-1067.
8267	22.8	1.8182	0.1	-808.22
8268	22.8	1.6364	0.1	-479.33
8269	22.8	1.4545	0.1	-358.54
8270	22.8	1.2727	0.1	-269.13
8271	22.8	1.0909	0.1	-202.09
8272	22.8	0.90909	0.1	-148.55
8273	22.8	0.72727	0.1	-104.34
8274	22.8	0.54545	0.1	-67.497
8275	22.8	0.36364	0.1	-37.209
8276	22.8	0.18182	0.1	-13.503
8277	22.967	6.	0.1	-0.39428
8278	23.139	6.	0.1	-1.7825
8279	23.311	6.	0.1	-3.9541
8280	23.483	6.	0.1	-6.1044
8281	23.656	6.	0.1	-7.9934
8282	23.828	6.	0.1	-7.9465
8283	24.	6.	0.1	-4.6809
8284	24.	5.8182	0.1	-23.238
8285	24.	5.6364	0.1	-30.781
8286	24.	5.4545	0.1	-31.576
8287	24.	5.2727	0.1	-30.345
8288	24.	5.0909	0.1	-28.735
8289	24.	4.9091	0.1	-27.269
8290	24.	4.7273	0.1	-26.07
8291	24.	4.5455	0.1	-25.199
8292	24.	4.3636	0.1	-24.653
8293	24.	4.1818	0.1	-24.178
8294	24.	4.	0.1	-23.086
8295	24.	3.8182	0.1	-20.399
8296	24.	3.6364	0.1	-15.327
8297	24.	3.4545	0.1	-7.9165
8298	24.	3.2727	0.1	-4.7792
8299	24.	3.0909	0.1	-4.7258
8300	24.	2.9091	0.1	-4.7258
8301	24.	2.7273	0.1	-4.7792
8302	24.	2.5455	0.1	-7.9165
8303	24.	2.3636	0.1	-15.327
8304	24.	2.1818	0.1	-20.399
8305	24.	2.	0.1	-23.086
8306	24.	1.8182	0.1	-24.178
8307	24.	1.6364	0.1	-24.653
8308	24.	1.4545	0.1	-25.199
8309	24.	1.2727	0.1	-26.07
8310	24.	1.0909	0.1	-27.269
8311	24.	0.90909	0.1	-28.735
8312	24.	0.72727	0.1	-30.345
8313	24.	0.54545	0.1	-31.576
8314	24.	0.36364	0.1	-30.781
8315	24.	0.18182	0.1	-23.238
8316	1.5894e-015	0.18182	0.1	1060.9
8317	3.1789e-015	0.36364	0.1	2241.
8318	4.7683e-015	0.54545	0.1	2784.
8319	6.3578e-015	0.72727	0.1	3108.1
8320	7.9472e-015	0.90909	0.1	3323.1
8321	9.5366e-015	1.0909	0.1	3476.2
8322	1.1126e-014	1.2727	0.1	3589.3
8323	1.2716e-014	1.4545	0.1	3675.1
8324	1.4305e-014	1.6364	0.1	3741.1
8325	1.5894e-014	1.8182	0.1	3792.3
8326	1.7484e-014	2.	0.1	3832.
8327	1.9073e-014	2.1818	0.1	3862.4
8328	2.0663e-014	2.3636	0.1	3885.3
8329	2.2252e-014	2.5455	0.1	3901.6
8330	2.3842e-014	2.7273	0.1	3912.2
8331	2.5431e-014	2.9091	0.1	3917.4
8332	2.702e-014	3.0909	0.1	3917.4
8333	2.861e-014	3.2727	0.1	3912.2
8334	3.0199e-014	3.4545	0.1	3901.6
8335	3.1789e-014	3.6364	0.1	3885.3
8336	3.3378e-014	3.8182	0.1	3862.4
8337	3.4968e-014	4.	0.1	3832.
8338	3.6557e-014	4.1818	0.1	3792.3
8339	3.8147e-014	4.3636	0.1	3741.1
8340	3.9736e-014	4.5455	0.1	3675.1
8341	4.1325e-014	4.7273	0.1	3589.3
8342	4.2915e-014	4.9091	0.1	3476.2
8343	4.4504e-014	5.0909	0.1	3323.1
8344	4.6094e-014	5.2727	0.1	3108.1
8345	4.7683e-014	5.4545	0.1	2784.
8346	4.9273e-014	5.6364	0.1	2241.
8347	5.0862e-014	5.8182	0.1	1060.9
8348	24.	0.	0.1	-4.6809
8349	23.828	0.	0.1	-7.9465
8350	23.656	0.	0.1	-7.9934
8351	23.483	0.	0.1	-6.1044
8352	23.311	0.	0.1	-3.9541
8353	23.139	0.	0.1	-1.7825
8354	22.967	0.	0.1	-0.39428
8355	22.8	0.	0.1	-1.1464
8356	22.616	1.0109e-029	0.1	-0.52282
8357	22.432	1.0026e-029	0.1	-0.71631
8358	22.248	9.9442e-030	0.1	-1.2115
8359	22.065	9.862e-030	0.1	-1.8056
8360	21.881	9.7798e-030	0.1	-2.4726
8361	21.697	9.6976e-030	0.1	-3.2079
8362	21.513	9.6155e-030	0.1	-3.9712
8363	21.329	9.5333e-030	0.1	-4.7298
8364	21.145	9.4511e-030	0.1	-5.4557
8365	20.961	9.3689e-030	0.1	-6.1298
8366	20.777	9.2867e-030	0.1	-6.7403
8367	20.594	9.2045e-030	0.1	-7.2815
8368	20.41	9.1224e-030	0.1	-7.7526
8369	20.226	9.0402e-030	0.1	-8.1559
8370	20.042	8.958e-030	0.1	-8.4958
8371	19.858	8.8758e-030	0.1	-8.7776
8372	19.674	8.7936e-030	0.1	-9.007
8373	19.49	8.7114e-030	0.1	-9.19
8374	19.306	8.6293e-030	0.1	-9.332
8375	19.123	8.5471e-030	0.1	-9.4383
8376	18.939	8.4649e-030	0.1	-9.5134
8377	18.755	8.3827e-030	0.1	-9.5616
8378	18.571	8.3005e-030	0.1	-9.5867
8379	18.387	8.2183e-030	0.1	-9.5918
8380	18.203	8.1362e-030	0.1	-9.5798
8381	18.019	8.054e-030	0.1	-9.5531
8382	17.835	7.9718e-030	0.1	-9.5139
8383	17.652	7.8896e-030	0.1	-9.4641
8384	17.468	7.8074e-030	0.1	-9.4053
8385	17.284	7.7252e-030	0.1	-9.3388
8386	17.1	7.6431e-030	0.1	-9.2657
8387	16.916	7.5609e-030	0.1	-9.1873
8388	16.732	7.4787e-030	0.1	-9.1042
8389	16.548	7.3965e-030	0.1	-9.0173
8390	16.365	7.3143e-030	0.1	-8.9271
8391	16.181	7.2321e-030	0.1	-8.8342
8392	15.997	7.15e-030	0.1	-8.7391
8393	15.813	7.0678e-030	0.1	-8.6421
8394	15.629	6.9856e-030	0.1	-8.5434
8395	15.445	6.9034e-030	0.1	-8.4434
8396	15.261	6.8212e-030	0.1	-8.3424
8397	15.077	6.739e-030	0.1	-8.2403
8398	14.894	6.6569e-030	0.1	-8.1373
8399	14.71	6.5747e-030	0.1	-8.0334
8400	14.526	6.4925e-030	0.1	-7.9288
8401	14.342	6.4103e-030	0.1	-7.8234
8402	14.158	6.3281e-030	0.1	-7.7172
8403	13.974	6.2459e-030	0.1	-7.61
8404	13.79	6.1638e-030	0.1	-7.5019
8405	13.606	6.0816e-030	0.1	-7.3928
8406	13.423	5.9994e-030	0.1	-7.2825
8407	13.239	5.9172e-030	0.1	-7.1708
8408	13.055	5.835e-030	0.1	-7.0576
8409	12.871	5.7528e-030	0.1	-6.9429
8410	12.687	5.6707e-030	0.1	-6.8262
8411	12.503	5.5885e-030	0.1	-6.7074
8412	12.319	5.5063e-030	0.1	-6.5862
8413	12.135	5.4241e-030	0.1	-6.4624
8414	11.952	5.3419e-030	0.1	-6.3358
8415	11.768	5.2597e-030	0.1	-6.206
8416	11.584	5.1776e-030	0.1	-6.0726
8417	11.4	5.0954e-030	0.1	-5.9353
8418	11.216	5.0132e-030	0.1	-5.794
8419	11.032	4.931e-030	0.1	-5.6481
8420	10.848	4.8488e-030	0.1	-5.4971
8421	10.665	4.7666e-030	0.1	-5.3408
8422	10.481	4.6845e-030	0.1	-5.1788
8423	10.297	4.6023e-030	0.1	-5.0106
8424	10.113	4.5201e-030	0.1	-4.8356
8425	9.929	4.4379e-030	0.1	-4.6535
8426	9.7452	4.3557e-030	0.1	-4.4639
8427	9.5613	4.2735e-030	0.1	-4.2663
8428	9.3774	4.1914e-030	0.1	-4.0601
8429	9.1935	4.1092e-030	0.1	-3.845
8430	9.0097	4.027e-030	0.1	-3.6204
8431	8.8258	3.9448e-030	0.1	-3.386
8432	8.6419	3.8626e-030	0.1	-3.1414
8433	8.4581	3.7804e-030	0.1	-2.8862
8434	8.2742	3.6983e-030	0.1	-2.6202
8435	8.0903	3.6161e-030	0.1	-2.3432
8436	7.9065	3.5339e-030	0.1	-2.055
8437	7.7226	3.4517e-030	0.1	-1.7558
8438	7.5387	3.3695e-030	0.1	-1.4456
8439	7.3548	3.2873e-030	0.1	-1.1249
8440	7.171	3.2052e-030	0.1	-0.79442
8441	6.9871	3.123e-030	0.1	-0.46203
8442	6.8032	3.0408e-030	0.1	-0.48961
8443	6.6194	2.9586e-030	0.1	-0.53401
8444	6.4355	2.8764e-030	0.1	-0.58213
8445	6.2516	2.7942e-030	0.1	-0.63422
8446	6.0677	2.7121e-030	0.1	-0.69057
8447	5.8839	2.6299e-030	0.1	-0.75153
8448	5.7	2.5477e-030	0.1	-0.81746
8449	5.5161	2.4655e-030	0.1	-0.88878
8450	5.3323	2.3833e-030	0.1	-0.96594
8451	5.1484	2.3011e-030	0.1	-1.0494
8452	4.9645	2.219e-030	0.1	-1.1398
8453	4.7806	2.1368e-030	0.1	-1.2378
8454	4.5968	2.0546e-030	0.1	-1.3441
8455	4.4129	1.9724e-030	0.1	-1.4597
8456	4.229	1.8902e-030	0.1	-1.5858
8457	4.0452	1.808e-030	0.1	-1.7242
8458	3.8613	1.7259e-030	0.1	-1.8776
8459	3.6774	1.6437e-030	0.1	-2.0511
8460	3.4935	1.5615e-030	0.1	-2.2558
8461	3.3097	1.4793e-030	0.1	-2.5234
8462	3.1258	1.3971e-030	0.1	-2.9846
8463	2.9419	1.3149e-030	0.1	-4.126
8464	2.7581	1.2328e-030	0.1	-6.2413
8465	2.5742	1.1506e-030	0.1	-9.1073
8466	2.3903	1.0684e-030	0.1	-12.715
8467	2.2065	9.862e-031	0.1	-17.176
8468	2.0226	9.0402e-031	0.1	-22.659
8469	1.8387	8.2183e-031	0.1	-29.395
8470	1.6548	7.3965e-031	0.1	-37.7
8471	1.471	6.5747e-031	0.1	-48.004
8472	1.2871	5.7528e-031	0.1	-60.981
8473	1.1032	4.931e-031	0.1	-77.533
8474	0.91935	4.1092e-031	0.1	-99.658
8475	0.73548	3.2873e-031	0.1	-129.63
8476	0.55161	2.4655e-031	0.1	-176.15
8477	0.36774	1.6437e-031	0.1	-256.36
8478	0.18387	8.2183e-032	0.1	-442.41
8479	0.	0.	0.1	-1821.1
8480	3.937e-014	6.	0.1	-1821.1
8481	0.18387	6.	0.1	-442.41
8482	0.36774	6.	0.1	-256.36
8483	0.55161	6.	0.1	-176.15
8484	0.73548	6.	0.1	-129.63
8485	0.91935	6.	0.1	-99.658
8486	1.1032	6.	0.1	-77.533
8487	1.2871	6.	0.1	-60.981
8488	1.471	6.	0.1	-48.004
8489	1.6548	6.	0.1	-37.7
8490	1.8387	6.	0.1	-29.395
8491	2.0226	6.	0.1	-22.659
8492	2.2065	6.	0.1	-17.176
8493	2.3903	6.	0.1	-12.715
8494	2.5742	6.	0.1	-9.1074
8495	2.7581	6.	0.1	-6.2413
8496	2.9419	6.	0.1	-4.126
8497	3.1258	6.	0.1	-2.9846
8498	3.3097	6.	0.1	-2.5234
8499	3.4935	6.	0.1	-2.2558
8500	3.6774	6.	0.1	-2.0511
8501	3.8613	6.	0.1	-1.8776
8502	4.0452	6.	0.1	-1.7242
8503	4.229	6.	0.1	-1.5858
8504	4.4129	6.	0.1	-1.4597
8505	4.5968	6.	0.1	-1.3441
8506	4.7806	6.	0.1	-1.2378
8507	4.9645	6.	0.1	-1.1398
8508	5.1484	6.	0.1	-1.0494
8509	5.3323	6.	0.1	-0.96594
8510	5.5161	6.	0.1	-0.88878
8511	5.7	6.	0.1	-0.81746
8512	5.8839	6.	0.1	-0.75153
8513	6.0677	6.	0.1	-0.69057
8514	6.2516	6.	0.1	-0.63422
8515	6.4355	6.	0.1	-0.58213
8516	6.6194	6.	0.1	-0.53401
8517	6.8032	6.	0.1	-0.48961
8518	6.9871	6.	0.1	-0.46202
8519	7.171	6.	0.1	-0.7944
8520	7.3548	6.	0.1	-1.1249
8521	7.5387	6.	0.1	-1.4456
8522	7.7226	6.	0.1	-1.7557
8523	7.9065	6.	0.1	-2.055
8524	8.0903	6.	0.1	-2.3432
8525	8.2742	6.	0.1	-2.6202
8526	8.4581	6.	0.1	-2.8862
8527	8.6419	6.	0.1	-3.1414
8528	8.8258	6.	0.1	-3.386
8529	9.0097	6.	0.1	-3.6204
8530	9.1935	6.	0.1	-3.8449
8531	9.3774	6.	0.1	-4.0601
8532	9.5613	6.	0.1	-4.2662
8533	9.7452	6.	0.1	-4.4639
8534	9.929	6.	0.1	-4.6535
8535	10.113	6.	0.1	-4.8356
8536	10.297	6.	0.1	-5.0105
8537	10.481	6.	0.1	-5.1787
8538	10.665	6.	0.1	-5.3408
8539	10.848	6.	0.1	-5.4971
8540	11.032	6.	0.1	-5.648
8541	11.216	6.	0.1	-5.7939
8542	11.4	6.	0.1	-5.9353
8543	11.584	6.	0.1	-6.0725
8544	11.768	6.	0.1	-6.2059
8545	11.952	6.	0.1	-6.3358
8546	12.135	6.	0.1	-6.4624
8547	12.319	6.	0.1	-6.5862
8548	12.503	6.	0.1	-6.7074
8549	12.687	6.	0.1	-6.8262
8550	12.871	6.	0.1	-6.9428
8551	13.055	6.	0.1	-7.0576
8552	13.239	6.	0.1	-7.1708
8553	13.423	6.	0.1	-7.2825
8554	13.606	6.	0.1	-7.3928
8555	13.79	6.	0.1	-7.5018
8556	13.974	6.	0.1	-7.6099
8557	14.158	6.	0.1	-7.7171
8558	14.342	6.	0.1	-7.8234
8559	14.526	6.	0.1	-7.9288
8560	14.71	6.	0.1	-8.0333
8561	14.894	6.	0.1	-8.1372
8562	15.077	6.	0.1	-8.2402
8563	15.261	6.	0.1	-8.3423
8564	15.445	6.	0.1	-8.4434
8565	15.629	6.	0.1	-8.5434
8566	15.813	6.	0.1	-8.642
8567	15.997	6.	0.1	-8.7391
8568	16.181	6.	0.1	-8.8342
8569	16.365	6.	0.1	-8.927
8570	16.548	6.	0.1	-9.0172
8571	16.732	6.	0.1	-9.1042
8572	16.916	6.	0.1	-9.1872
8573	17.1	6.	0.1	-9.2657
8574	17.284	6.	0.1	-9.3387
8575	17.468	6.	0.1	-9.4053
8576	17.652	6.	0.1	-9.4641
8577	17.835	6.	0.1	-9.5139
8578	18.019	6.	0.1	-9.553
8579	18.203	6.	0.1	-9.5797
8580	18.387	6.	0.1	-9.5917
8581	18.571	6.	0.1	-9.5866
8582	18.755	6.	0.1	-9.5616
8583	18.939	6.	0.1	-9.5134
8584	19.123	6.	0.1	-9.4382
8585	19.306	6.	0.1	-9.332
8586	19.49	6.	0.1	-9.1899
8587	19.674	6.	0.1	-9.007
8588	19.858	6.	0.1	-8.7776
8589	20.042	6.	0.1	-8.4958
8590	20.226	6.	0.1	-8.1559
8591	20.41	6.	0.1	-7.7525
8592	20.594	6.	0.1	-7.2814
8593	20.777	6.	0.1	-6.7402
8594	20.961	6.	0.1	-6.1298
8595	21.145	6.	0.1	-5.4557
8596	21.329	6.	0.1	-4.7298
8597	21.513	6.	0.1	-3.9712
8598	21.697	6.	0.1	-3.2079
8599	21.881	6.	0.1	-2.4726
8600	22.065	6.	0.1	-1.8056
8601	22.248	6.	0.1	-1.2115
8602	22.432	6.	0.1	-0.71631
8603	22.616	6.	0.1	-0.52282
8604	22.8	6.	0.1	-1.1464
8605	22.616	6.	0.	-52.779
8606	22.432	6.	0.	-113.1
8607	22.248	6.	0.	-174.16
8608	22.065	6.	0.	-235.36
8609	21.881	6.	0.	-295.83
8610	21.697	6.	0.	-354.89
8611	21.513	6.	0.	-412.13
8612	21.329	6.	0.	-467.42
8613	21.145	6.	0.	-520.78
8614	20.961	6.	0.	-572.34
8615	20.777	6.	0.	-622.31
8616	20.594	6.	0.	-670.92
8617	20.41	6.	0.	-718.38
8618	20.226	6.	0.	-764.9
8619	20.042	6.	0.	-810.67
8620	19.858	6.	0.	-855.84
8621	19.674	6.	0.	-900.55
8622	19.49	6.	0.	-944.91
8623	19.306	6.	0.	-989.02
8624	19.123	6.	0.	-1033.
8625	18.939	6.	0.	-1076.8
8626	18.755	6.	0.	-1120.5
8627	18.571	6.	0.	-1164.3
8628	18.387	6.	0.	-1208.
8629	18.203	6.	0.	-1251.8
8630	18.019	6.	0.	-1295.7
8631	17.835	6.	0.	-1339.7
8632	17.652	6.	0.	-1383.8
8633	17.468	6.	0.	-1427.9
8634	17.284	6.	0.	-1472.3
8635	17.1	6.	0.	-1516.7
8636	16.916	6.	0.	-1561.3
8637	16.732	6.	0.	-1606.1
8638	16.548	6.	0.	-1651.
8639	16.365	6.	0.	-1696.1
8640	16.181	6.	0.	-1741.4
8641	15.997	6.	0.	-1786.8
8642	15.813	6.	0.	-1832.4
8643	15.629	6.	0.	-1878.2
8644	15.445	6.	0.	-1924.1
8645	15.261	6.	0.	-1970.3
8646	15.077	6.	0.	-2016.6
8647	14.894	6.	0.	-2063.2
8648	14.71	6.	0.	-2109.9
8649	14.526	6.	0.	-2156.8
8650	14.342	6.	0.	-2203.9
8651	14.158	6.	0.	-2251.2
8652	13.974	6.	0.	-2298.7
8653	13.79	6.	0.	-2346.4
8654	13.606	6.	0.	-2394.3
8655	13.423	6.	0.	-2442.4
8656	13.239	6.	0.	-2490.7
8657	13.055	6.	0.	-2539.2
8658	12.871	6.	0.	-2588.
8659	12.687	6.	0.	-2636.9
8660	12.503	6.	0.	-2686.1
8661	12.319	6.	0.	-2735.4
8662	12.135	6.	0.	-2785.
8663	11.952	6.	0.	-2834.8
8664	11.768	6.	0.	-2884.8
8665	11.584	6.	0.	-2935.1
8666	11.4	6.	0.	-2985.5
8667	11.216	6.	0.	-3036.2
8668	11.032	6.	0.	-3087.2
8669	10.848	6.	0.	-3138.3
8670	10.665	6.	0.	-3189.7
8671	10.481	6.	0.	-3241.4
8672	10.297	6.	0.	-3293.3
8673	10.113	6.	0.	-3345.4
8674	9.929	6.	0.	-3397.8
8675	9.7452	6.	0.	-3450.4
8676	9.5613	6.	0.	-3503.4
8677	9.3774	6.	0.	-3556.6
8678	9.1935	6.	0.	-3610.
8679	9.0097	6.	0.	-3663.8
8680	8.8258	6.	0.	-3717.8
8681	8.6419	6.	0.	-3772.2
8682	8.4581	6.	0.	-3826.8
8683	8.2742	6.	0.	-3881.8
8684	8.0903	6.	0.	-3937.1
8685	7.9065	6.	0.	-3992.8
8686	7.7226	6.	0.	-4048.8
8687	7.5387	6.	0.	-4105.1
8688	7.3548	6.	0.	-4161.9
8689	7.171	6.	0.	-4219.
8690	6.9871	6.	0.	-4276.6
8691	6.8032	6.	0.	-4334.5
8692	6.6194	6.	0.	-4393.
8693	6.4355	6.	0.	-4451.8
8694	6.2516	6.	0.	-4511.2
8695	6.0677	6.	0.	-4571.1
8696	5.8839	6.	0.	-4631.4
8697	5.7	6.	0.	-4692.4
8698	5.5161	6.	0.	-4753.8
8699	5.3323	6.	0.	-4815.9
8700	5.1484	6.	0.	-4878.5
8701	4.9645	6.	0.	-4941.7
8702	4.7806	6.	0.	-5005.5
8703	4.5968	6.	0.	-5069.9
8704	4.4129	6.	0.	-5134.8
8705	4.229	6.	0.	-5200.3
8706	4.0452	6.	0.	-5266.2
8707	3.8613	6.	0.	-5332.5
8708	3.6774	6.	0.	-5399.1
8709	3.4935	6.	0.	-5465.8
8710	3.3097	6.	0.	-5532.3
8711	3.1258	6.	0.	-5598.5
8712	2.9419	6.	0.	-5663.7
8713	2.7581	6.	0.	-5727.5
8714	2.5742	6.	0.	-5789.2
8715	2.3903	6.	0.	-5847.7
8716	2.2065	6.	0.	-5901.8
8717	2.0226	6.	0.	-5949.6
8718	1.8387	6.	0.	-5988.7
8719	1.6548	6.	0.	-6015.8
8720	1.471	6.	0.	-6025.9
8721	1.2871	6.	0.	-6012.1
8722	1.1032	6.	0.	-5963.6
8723	0.91935	6.	0.	-5862.8
8724	0.73548	6.	0.	-5680.8
8725	0.55161	6.	0.	-5356.2
8726	0.36774	6.	0.	-4780.3
8727	0.18387	6.	0.	-3567.9
8728	22.8	6.	0.	-4.4811
8729	3.937e-014	6.	0.	-761.63
8730	0.18387	8.2183e-032	0.	-3567.9
8731	0.36774	1.6437e-031	0.	-4780.3
8732	0.55161	2.4655e-031	0.	-5356.2
8733	0.73548	3.2873e-031	0.	-5680.8
8734	0.91935	4.1092e-031	0.	-5862.8
8735	1.1032	4.931e-031	0.	-5963.6
8736	1.2871	5.7528e-031	0.	-6012.1
8737	1.471	6.5747e-031	0.	-6025.9
8738	1.6548	7.3965e-031	0.	-6015.8
8739	1.8387	8.2183e-031	0.	-5988.7
8740	2.0226	9.0402e-031	0.	-5949.6
8741	2.2065	9.862e-031	0.	-5901.8
8742	2.3903	1.0684e-030	0.	-5847.7
8743	2.5742	1.1506e-030	0.	-5789.2
8744	2.7581	1.2328e-030	0.	-5727.5
8745	2.9419	1.3149e-030	0.	-5663.7
8746	3.1258	1.3971e-030	0.	-5598.5
8747	3.3097	1.4793e-030	0.	-5532.4
8748	3.4935	1.5615e-030	0.	-5465.8
8749	3.6774	1.6437e-030	0.	-5399.1
8750	3.8613	1.7259e-030	0.	-5332.5
8751	4.0452	1.808e-030	0.	-5266.2
8752	4.229	1.8902e-030	0.	-5200.3
8753	4.4129	1.9724e-030	0.	-5134.8
8754	4.5968	2.0546e-030	0.	-5069.9
8755	4.7806	2.1368e-030	0.	-5005.5
8756	4.9645	2.219e-030	0.	-4941.7
8757	5.1484	2.3011e-030	0.	-4878.5
8758	5.3323	2.3833e-030	0.	-4815.9
8759	5.5161	2.4655e-030	0.	-4753.8
8760	5.7	2.5477e-030	0.	-4692.4
8761	5.8839	2.6299e-030	0.	-4631.4
8762	6.0677	2.7121e-030	0.	-4571.1
8763	6.2516	2.7942e-030	0.	-4511.2
8764	6.4355	2.8764e-030	0.	-4451.8
8765	6.6194	2.9586e-030	0.	-4393.
8766	6.8032	3.0408e-030	0.	-4334.5
8767	6.9871	3.123e-030	0.	-4276.6
8768	7.171	3.2052e-030	0.	-4219.
8769	7.3548	3.2873e-030	0.	-4161.9
8770	7.5387	3.3695e-030	0.	-4105.1
8771	7.7226	3.4517e-030	0.	-4048.8
8772	7.9065	3.5339e-030	0.	-3992.8
8773	8.0903	3.6161e-030	0.	-3937.1
8774	8.2742	3.6983e-030	0.	-3881.8
8775	8.4581	3.7804e-030	0.	-3826.8
8776	8.6419	3.8626e-030	0.	-3772.2
8777	8.8258	3.9448e-030	0.	-3717.8
8778	9.0097	4.027e-030	0.	-3663.8
8779	9.1935	4.1092e-030	0.	-3610.
8780	9.3774	4.1914e-030	0.	-3556.6
8781	9.5613	4.2735e-030	0.	-3503.4
8782	9.7452	4.3557e-030	0.	-3450.4
8783	9.929	4.4379e-030	0.	-3397.8
8784	10.113	4.5201e-030	0.	-3345.4
8785	10.297	4.6023e-030	0.	-3293.3
8786	10.481	4.6845e-030	0.	-3241.4
8787	10.665	4.7666e-030	0.	-3189.7
8788	10.848	4.8488e-030	0.	-3138.3
8789	11.032	4.931e-030	0.	-3087.2
8790	11.216	5.0132e-030	0.	-3036.2
8791	11.4	5.0954e-030	0.	-2985.5
8792	11.584	5.1776e-030	0.	-2935.1
8793	11.768	5.2597e-030	0.	-2884.8
8794	11.952	5.3419e-030	0.	-2834.8
8795	12.135	5.4241e-030	0.	-2785.
8796	12.319	5.5063e-030	0.	-2735.4
8797	12.503	5.5885e-030	0.	-2686.1
8798	12.687	5.6707e-030	0.	-2636.9
8799	12.871	5.7528e-030	0.	-2588.
8800	13.055	5.835e-030	0.	-2539.2
8801	13.239	5.9172e-030	0.	-2490.7
8802	13.423	5.9994e-030	0.	-2442.4
8803	13.606	6.0816e-030	0.	-2394.3
8804	13.79	6.1638e-030	0.	-2346.4
8805	13.974	6.2459e-030	0.	-2298.7
8806	14.158	6.3281e-030	0.	-2251.2
8807	14.342	6.4103e-030	0.	-2203.9
8808	14.526	6.4925e-030	0.	-2156.8
8809	14.71	6.5747e-030	0.	-2109.9
8810	14.894	6.6569e-030	0.	-2063.2
8811	15.077	6.739e-030	0.	-2016.6
8812	15.261	6.8212e-030	0.	-1970.3
8813	15.445	6.9034e-030	0.	-1924.1
8814	15.629	6.9856e-030	0.	-1878.2
8815	15.813	7.0678e-030	0.	-1832.4
8816	15.997	7.15e-030	0.	-1786.8
8817	16.181	7.2321e-030	0.	-1741.4
8818	16.365	7.3143e-030	0.	-1696.1
8819	16.548	7.3965e-030	0.	-1651.
8820	16.732	7.4787e-030	0.	-1606.1
8821	16.916	7.5609e-030	0.	-1561.3
8822	17.1	7.6431e-030	0.	-1516.7
8823	17.284	7.7252e-030	0.	-1472.3
8824	17.468	7.8074e-030	0.	-1427.9
8825	17.652	7.8896e-030	0.	-1383.8
8826	17.835	7.9718e-030	0.	-1339.7
8827	18.019	8.054e-030	0.	-1295.7
8828	18.203	8.1362e-030	0.	-1251.8
8829	18.387	8.2183e-030	0.	-1208.
8830	18.571	8.3005e-030	0.	-1164.3
8831	18.755	8.3827e-030	0.	-1120.5
8832	18.939	8.4649e-030	0.	-1076.8
8833	19.123	8.5471e-030	0.	-1033.
8834	19.306	8.6293e-030	0.	-989.02
8835	19.49	8.7114e-030	0.	-944.91
8836	19.674	8.7936e-030	0.	-900.55
8837	19.858	8.8758e-030	0.	-855.84
8838	20.042	8.958e-030	0.	-810.67
8839	20.226	9.0402e-030	0.	-764.9
8840	20.41	9.1224e-030	0.	-718.38
8841	20.594	9.2045e-030	0.	-670.92
8842	20.777	9.2867e-030	0.	-622.31
8843	20.961	9.3689e-030	0.	-572.34
8844	21.145	9.4511e-030	0.	-520.78
8845	21.329	9.5333e-030	0.	-467.42
8846	21.513	9.6155e-030	0.	-412.13
8847	21.697	9.6976e-030	0.	-354.89
8848	21.881	9.7798e-030	0.	-295.83
8849	22.065	9.862e-030	0.	-235.35
8850	22.248	9.9442e-030	0.	-174.16
8851	22.432	1.0026e-029	0.	-113.1
8852	22.616	1.0109e-029	0.	-52.779
8853	22.8	0.	0.	-4.4811
8854	0.	0.	0.	-761.63
8855	23.139	0.	0.	-12.099
8856	23.311	0.	0.	-19.579
8857	23.483	0.	0.	-22.542
8858	23.656	0.	0.	-21.366
8859	23.828	0.	0.	-15.977
8860	22.967	0.	0.	-1.479
8861	24.	0.	0.	-4.4898
8862	5.0862e-014	5.8182	0.	-2497.1
8863	4.9273e-014	5.6364	0.	-4635.
8864	4.7683e-014	5.4545	0.	-5684.
8865	4.6094e-014	5.2727	0.	-6329.
8866	4.4504e-014	5.0909	0.	-6759.4
8867	4.2915e-014	4.9091	0.	-7066.7
8868	4.1325e-014	4.7273	0.	-7294.1
8869	3.9736e-014	4.5455	0.	-7466.7
8870	3.8147e-014	4.3636	0.	-7599.5
8871	3.6557e-014	4.1818	0.	-7702.5
8872	3.4968e-014	4.	0.	-7782.4
8873	3.3378e-014	3.8182	0.	-7843.6
8874	3.1789e-014	3.6364	0.	-7889.4
8875	3.0199e-014	3.4545	0.	-7922.1
8876	2.861e-014	3.2727	0.	-7943.1
8877	2.702e-014	3.0909	0.	-7953.4
8878	2.5431e-014	2.9091	0.	-7953.4
8879	2.3842e-014	2.7273	0.	-7943.1
8880	2.2252e-014	2.5455	0.	-7922.1
8881	2.0663e-014	2.3636	0.	-7889.4
8882	1.9073e-014	2.1818	0.	-7843.6
8883	1.7484e-014	2.	0.	-7782.4
8884	1.5894e-014	1.8182	0.	-7702.5
8885	1.4305e-014	1.6364	0.	-7599.5
8886	1.2716e-014	1.4545	0.	-7466.7
8887	1.1126e-014	1.2727	0.	-7294.1
8888	9.5366e-015	1.0909	0.	-7066.7
8889	7.9472e-015	0.90909	0.	-6759.4
8890	6.3578e-015	0.72727	0.	-6329.
8891	4.7683e-015	0.54545	0.	-5684.
8892	3.1789e-015	0.36364	0.	-4635.
8893	1.5894e-015	0.18182	0.	-2497.1
8894	24.	0.18182	0.	-8.6688
8895	24.	0.36364	0.	-16.247
8896	24.	0.54545	0.	-29.028
8897	24.	0.72727	0.	-48.29
8898	24.	0.90909	0.	-74.14
8899	24.	1.0909	0.	-105.77
8900	24.	1.2727	0.	-141.44
8901	24.	1.4545	0.	-178.11
8902	24.	1.6364	0.	-210.93
8903	24.	1.8182	0.	-233.53
8904	24.	2.	0.	-240.07
8905	24.	2.1818	0.	-228.54
8906	24.	2.3636	0.	-202.5
8907	24.	2.5455	0.	-169.71
8908	24.	2.7273	0.	-139.13
8909	24.	2.9091	0.	-119.76
8910	24.	3.0909	0.	-119.76
8911	24.	3.2727	0.	-139.13
8912	24.	3.4545	0.	-169.71
8913	24.	3.6364	0.	-202.5
8914	24.	3.8182	0.	-228.54
8915	24.	4.	0.	-240.07
8916	24.	4.1818	0.	-233.53
8917	24.	4.3636	0.	-210.93
8918	24.	4.5455	0.	-178.11
8919	24.	4.7273	0.	-141.44
8920	24.	4.9091	0.	-105.77
8921	24.	5.0909	0.	-74.14
8922	24.	5.2727	0.	-48.29
8923	24.	5.4545	0.	-29.028
8924	24.	5.6364	0.	-16.247
8925	24.	5.8182	0.	-8.6688
8926	24.	6.	0.	-4.4898
8927	23.828	6.	0.	-15.977
8928	23.656	6.	0.	-21.366
8929	23.483	6.	0.	-22.542
8930	23.311	6.	0.	-19.579
8931	23.139	6.	0.	-12.099
8932	22.967	6.	0.	-1.479
8933	22.8	1.8182	0.	-250.83
8934	22.8	1.6364	0.	-169.88
8935	22.8	1.4545	0.	-142.77
8936	22.8	1.2727	0.	-121.26
8937	22.8	1.0909	0.	-104.93
8938	22.8	0.90909	0.	-90.097
8939	22.8	0.72727	0.	-76.085
8940	22.8	0.54545	0.	-62.019
8941	22.8	0.36364	0.	-47.056
8942	22.8	0.18182	0.	-28.827
8943	22.8	2.	0.	-1280.7
8944	22.967	0.18182	0.	-15.9
8945	22.967	0.36364	0.	-33.762
8946	22.967	0.54545	0.	-55.096
8947	22.967	0.72727	0.	-81.898
8948	22.967	0.90909	0.	-115.65
8949	22.967	1.0909	0.	-158.13
8950	22.967	1.2727	0.	-212.2
8951	22.967	1.4545	0.	-284.52
8952	22.967	1.6364	0.	-385.09
8953	22.967	1.8182	0.	-580.43
8954	22.967	2.	0.	-1701.7
8955	22.8	4.1818	0.	-250.83
8956	22.8	4.3636	0.	-169.88
8957	22.8	4.5455	0.	-142.77
8958	22.8	4.7273	0.	-121.26
8959	22.8	4.9091	0.	-104.93
8960	22.8	5.0909	0.	-90.097
8961	22.8	5.2727	0.	-76.085
8962	22.8	5.4545	0.	-62.019
8963	22.8	5.6364	0.	-47.056
8964	22.8	5.8182	0.	-28.827
8965	22.8	4.	0.	-1280.7
8966	22.967	5.8182	0.	-15.9
8967	22.967	5.6364	0.	-33.762
8968	22.967	5.4545	0.	-55.096
8969	22.967	5.2727	0.	-81.898
8970	22.967	5.0909	0.	-115.65
8971	22.967	4.9091	0.	-158.13
8972	22.967	4.7273	0.	-212.2
8973	22.967	4.5455	0.	-284.52
8974	22.967	4.3636	0.	-385.09
8975	22.967	4.1818	0.	-580.43
8976	22.967	4.	0.	-1701.7
8977	22.8	2.2727	0.	-802.3
8978	22.708	2.1818	0.	-783.23
8979	22.883	2.1818	0.	-948.5
8980	22.8	2.1818	5.e-002	-67.083
8981	22.8	2.0909	0.	-1063.9
8982	22.8	2.4545	0.	-633.87
8983	22.708	2.3636	0.	-645.55
8984	22.883	2.3636	0.	-681.25
8985	22.8	2.3636	5.e-002	-7.0343
8986	22.8	2.6364	0.	-563.8
8987	22.708	2.5455	0.	-579.26
8988	22.883	2.5455	0.	-577.32
8989	22.8	2.5455	5.e-002	-2.0452
8990	22.8	2.8182	0.	-530.05
8991	22.708	2.7273	0.	-543.48
8992	22.883	2.7273	0.	-525.85
8993	22.8	2.7273	5.e-002	-0.45519
8994	22.8	3.	0.	-519.99
8995	22.708	2.9091	0.	-527.56
8996	22.883	2.9091	0.	-503.86
8997	22.8	2.9091	5.e-002	-0.70835
8998	22.8	3.1818	0.	-530.05
8999	22.708	3.0909	0.	-527.56
9000	22.883	3.0909	0.	-503.86
9001	22.8	3.0909	5.e-002	-0.70836
9002	22.8	3.3636	0.	-563.8
9003	22.708	3.2727	0.	-543.48
9004	22.883	3.2727	0.	-525.85
9005	22.8	3.2727	5.e-002	-0.45518
9006	22.8	3.5455	0.	-633.87
9007	22.708	3.4545	0.	-579.26
9008	22.883	3.4545	0.	-577.32
9009	22.8	3.4545	5.e-002	-2.0451
9010	22.8	3.7273	0.	-802.3
9011	22.708	3.6364	0.	-645.55
9012	22.883	3.6364	0.	-681.25
9013	22.8	3.6364	5.e-002	-7.0343
9014	22.708	3.8182	0.	-783.23
9015	22.883	3.8182	0.	-948.5
9016	22.8	3.8182	5.e-002	-67.083
9017	22.8	3.9091	0.	-1063.9
9018	23.225	2.	0.	-648.14
9019	23.139	2.0909	0.	-750.86
9020	23.139	1.9091	0.	-675.4
9021	23.139	2.	5.e-002	-27.421
9022	23.053	2.	0.	-1234.1
9023	23.397	2.	0.	-463.84
9024	23.311	2.0909	0.	-525.43
9025	23.311	1.9091	0.	-481.63
9026	23.311	2.	5.e-002	-11.388
9027	23.569	2.	0.	-367.85
9028	23.483	2.0909	0.	-403.84
9029	23.483	1.9091	0.	-383.52
9030	23.483	2.	5.e-002	-8.4682
9031	23.742	2.	0.	-312.8
9032	23.656	2.0909	0.	-328.42
9033	23.656	1.9091	0.	-320.98
9034	23.656	2.	5.e-002	-6.6795
9035	23.828	2.0909	0.	-289.21
9036	23.828	1.9091	0.	-288.21
9037	23.828	2.	5.e-002	-6.3722
9038	23.914	2.	0.	-262.12
9039	23.742	4.	0.	-312.8
9040	23.828	3.9091	0.	-289.21
9041	23.828	4.0909	0.	-288.21
9042	23.828	4.	5.e-002	-6.3722
9043	23.914	4.	0.	-262.12
9044	23.569	4.	0.	-367.85
9045	23.656	3.9091	0.	-328.42
9046	23.656	4.0909	0.	-320.98
9047	23.656	4.	5.e-002	-6.6795
9048	23.397	4.	0.	-463.84
9049	23.483	3.9091	0.	-403.84
9050	23.483	4.0909	0.	-383.52
9051	23.483	4.	5.e-002	-8.4682
9052	23.225	4.	0.	-648.14
9053	23.311	3.9091	0.	-525.43
9054	23.311	4.0909	0.	-481.63
9055	23.311	4.	5.e-002	-11.388
9056	23.139	3.9091	0.	-750.86
9057	23.139	4.0909	0.	-675.4
9058	23.139	4.	5.e-002	-27.421
9059	23.053	4.	0.	-1234.1
9060	22.616	5.7273	0.	-78.097
9061	22.524	5.8182	0.	-92.664
9062	22.616	5.8182	5.e-002	-6.1285
9063	22.616	5.9091	0.	-58.423
9064	22.708	5.8182	0.	-44.432
9065	22.616	5.5455	0.	-101.63
9066	22.524	5.6364	0.	-109.78
9067	22.616	5.6364	5.e-002	-5.7463
9068	22.708	5.6364	0.	-64.216
9069	22.616	5.3636	0.	-126.98
9070	22.524	5.4545	0.	-131.76
9071	22.616	5.4545	5.e-002	-5.9725
9072	22.708	5.4545	0.	-83.603
9073	22.616	5.1818	0.	-153.62
9074	22.524	5.2727	0.	-156.24
9075	22.616	5.2727	5.e-002	-6.4016
9076	22.708	5.2727	0.	-102.82
9077	22.616	5.	0.	-182.41
9078	22.524	5.0909	0.	-183.1
9079	22.616	5.0909	5.e-002	-7.0565
9080	22.708	5.0909	0.	-122.58
9081	22.616	4.8182	0.	-214.9
9082	22.524	4.9091	0.	-213.26
9083	22.616	4.9091	5.e-002	-8.0209
9084	22.708	4.9091	0.	-143.91
9085	22.616	4.6364	0.	-254.97
9086	22.524	4.7273	0.	-248.68
9087	22.616	4.7273	5.e-002	-9.6424
9088	22.708	4.7273	0.	-168.21
9089	22.616	4.4545	0.	-308.7
9090	22.524	4.5455	0.	-293.74
9091	22.616	4.5455	5.e-002	-11.832
9092	22.708	4.5455	0.	-199.43
9093	22.616	4.2727	0.	-405.74
9094	22.524	4.3636	0.	-354.85
9095	22.616	4.3636	5.e-002	-18.32
9096	22.708	4.3636	0.	-242.84
9097	22.616	4.0909	0.	-567.78
9098	22.524	4.1818	0.	-462.7
9099	22.616	4.1818	5.e-002	-39.234
9100	22.708	4.1818	0.	-323.66
9101	22.616	3.9091	0.	-661.2
9102	22.524	4.	0.	-601.16
9103	22.616	4.	5.e-002	-67.149
9104	22.708	4.	0.	-960.21
9105	22.616	3.7273	0.	-639.61
9106	22.524	3.8182	0.	-610.9
9107	22.616	3.8182	5.e-002	-19.209
9108	22.616	3.5455	0.	-593.38
9109	22.524	3.6364	0.	-586.68
9110	22.616	3.6364	5.e-002	-9.699
9111	22.616	3.3636	0.	-559.37
9112	22.524	3.4545	0.	-561.04
9113	22.616	3.4545	5.e-002	-3.717
9114	22.616	3.1818	0.	-540.74
9115	22.524	3.2727	0.	-544.61
9116	22.616	3.2727	5.e-002	-1.2975
9117	22.616	3.	0.	-534.7
9118	22.524	3.0909	0.	-536.33
9119	22.616	3.0909	5.e-002	-0.33738
9120	22.616	2.8182	0.	-540.74
9121	22.524	2.9091	0.	-536.33
9122	22.616	2.9091	5.e-002	-0.33738
9123	22.616	2.6364	0.	-559.37
9124	22.524	2.7273	0.	-544.61
9125	22.616	2.7273	5.e-002	-1.2975
9126	22.616	2.4545	0.	-593.38
9127	22.524	2.5455	0.	-561.04
9128	22.616	2.5455	5.e-002	-3.7171
9129	22.616	2.2727	0.	-639.61
9130	22.524	2.3636	0.	-586.68
9131	22.616	2.3636	5.e-002	-9.699
9132	22.616	2.0909	0.	-661.19
9133	22.524	2.1818	0.	-610.9
9134	22.616	2.1818	5.e-002	-19.209
9135	22.616	1.9091	0.	-567.78
9136	22.524	2.	0.	-601.16
9137	22.616	2.	5.e-002	-67.149
9138	22.708	2.	0.	-960.21
9139	22.616	1.7273	0.	-405.74
9140	22.524	1.8182	0.	-462.7
9141	22.616	1.8182	5.e-002	-39.234
9142	22.708	1.8182	0.	-323.66
9143	22.616	1.5455	0.	-308.7
9144	22.524	1.6364	0.	-354.85
9145	22.616	1.6364	5.e-002	-18.32
9146	22.708	1.6364	0.	-242.84
9147	22.616	1.3636	0.	-254.97
9148	22.524	1.4545	0.	-293.74
9149	22.616	1.4545	5.e-002	-11.832
9150	22.708	1.4545	0.	-199.43
9151	22.616	1.1818	0.	-214.9
9152	22.524	1.2727	0.	-248.68
9153	22.616	1.2727	5.e-002	-9.6424
9154	22.708	1.2727	0.	-168.21
9155	22.616	1.	0.	-182.41
9156	22.524	1.0909	0.	-213.26
9157	22.616	1.0909	5.e-002	-8.0209
9158	22.708	1.0909	0.	-143.91
9159	22.616	0.81818	0.	-153.62
9160	22.524	0.90909	0.	-183.1
9161	22.616	0.90909	5.e-002	-7.0565
9162	22.708	0.90909	0.	-122.58
9163	22.616	0.63636	0.	-126.98
9164	22.524	0.72727	0.	-156.24
9165	22.616	0.72727	5.e-002	-6.4016
9166	22.708	0.72727	0.	-102.82
9167	22.616	0.45455	0.	-101.63
9168	22.524	0.54545	0.	-131.76
9169	22.616	0.54545	5.e-002	-5.9725
9170	22.708	0.54545	0.	-83.603
9171	22.616	0.27273	0.	-78.097
9172	22.524	0.36364	0.	-109.78
9173	22.616	0.36364	5.e-002	-5.7463
9174	22.708	0.36364	0.	-64.216
9175	22.524	0.18182	0.	-92.663
9176	22.616	0.18182	5.e-002	-6.1285
9177	22.616	9.0909e-002	0.	-58.423
9178	22.708	0.18182	0.	-44.432
9179	22.432	5.7273	0.	-127.36
9180	22.34	5.8182	0.	-150.06
9181	22.432	5.8182	5.e-002	-6.2748
9182	22.432	5.9091	0.	-116.18
9183	22.432	5.5455	0.	-144.06
9184	22.34	5.6364	0.	-162.33
9185	22.432	5.6364	5.e-002	-6.1003
9186	22.432	5.3636	0.	-165.33
9187	22.34	5.4545	0.	-179.86
9188	22.432	5.4545	5.e-002	-6.3569
9189	22.432	5.1818	0.	-190.07
9190	22.34	5.2727	0.	-201.66
9191	22.432	5.2727	5.e-002	-6.8147
9192	22.432	5.	0.	-218.5
9193	22.34	5.0909	0.	-227.35
9194	22.432	5.0909	5.e-002	-7.4852
9195	22.432	4.8182	0.	-252.1
9196	22.34	4.9091	0.	-257.45
9197	22.432	4.9091	5.e-002	-8.4147
9198	22.432	4.6364	0.	-293.49
9199	22.34	4.7273	0.	-293.5
9200	22.432	4.7273	5.e-002	-9.6778
9201	22.432	4.4545	0.	-348.33
9202	22.34	4.5455	0.	-337.82
9203	22.432	4.5455	5.e-002	-11.644
9204	22.432	4.2727	0.	-417.73
9205	22.34	4.3636	0.	-394.67
9206	22.432	4.3636	5.e-002	-11.311
9207	22.432	4.0909	0.	-487.96
9208	22.34	4.1818	0.	-458.6
9209	22.432	4.1818	5.e-002	-12.541
9210	22.432	3.9091	0.	-540.02
9211	22.34	4.	0.	-513.69
9212	22.432	4.	5.e-002	-8.8702
9213	22.432	3.7273	0.	-558.42
9214	22.34	3.8182	0.	-541.9
9215	22.432	3.8182	5.e-002	-10.724
9216	22.432	3.5455	0.	-554.89
9217	22.34	3.6364	0.	-547.76
9218	22.432	3.6364	5.e-002	-6.8743
9219	22.432	3.3636	0.	-546.46
9220	22.34	3.4545	0.	-544.83
9221	22.432	3.4545	5.e-002	-3.6707
9222	22.432	3.1818	0.	-540.15
9223	22.34	3.2727	0.	-540.91
9224	22.432	3.2727	5.e-002	-1.6548
9225	22.432	3.	0.	-537.84
9226	22.34	3.0909	0.	-538.41
9227	22.432	3.0909	5.e-002	-0.60744
9228	22.432	2.8182	0.	-540.15
9229	22.34	2.9091	0.	-538.41
9230	22.432	2.9091	5.e-002	-0.60744
9231	22.432	2.6364	0.	-546.46
9232	22.34	2.7273	0.	-540.91
9233	22.432	2.7273	5.e-002	-1.6548
9234	22.432	2.4545	0.	-554.89
9235	22.34	2.5455	0.	-544.83
9236	22.432	2.5455	5.e-002	-3.6707
9237	22.432	2.2727	0.	-558.42
9238	22.34	2.3636	0.	-547.76
9239	22.432	2.3636	5.e-002	-6.8743
9240	22.432	2.0909	0.	-540.02
9241	22.34	2.1818	0.	-541.9
9242	22.432	2.1818	5.e-002	-10.724
9243	22.432	1.9091	0.	-487.96
9244	22.34	2.	0.	-513.69
9245	22.432	2.	5.e-002	-8.8702
9246	22.432	1.7273	0.	-417.73
9247	22.34	1.8182	0.	-458.6
9248	22.432	1.8182	5.e-002	-12.541
9249	22.432	1.5455	0.	-348.33
9250	22.34	1.6364	0.	-394.67
9251	22.432	1.6364	5.e-002	-11.311
9252	22.432	1.3636	0.	-293.49
9253	22.34	1.4545	0.	-337.82
9254	22.432	1.4545	5.e-002	-11.644
9255	22.432	1.1818	0.	-252.1
9256	22.34	1.2727	0.	-293.5
9257	22.432	1.2727	5.e-002	-9.6778
9258	22.432	1.	0.	-218.5
9259	22.34	1.0909	0.	-257.45
9260	22.432	1.0909	5.e-002	-8.4147
9261	22.432	0.81818	0.	-190.07
9262	22.34	0.90909	0.	-227.35
9263	22.432	0.90909	5.e-002	-7.4852
9264	22.432	0.63636	0.	-165.33
9265	22.34	0.72727	0.	-201.66
9266	22.432	0.72727	5.e-002	-6.8147
9267	22.432	0.45455	0.	-144.06
9268	22.34	0.54545	0.	-179.86
9269	22.432	0.54545	5.e-002	-6.3569
9270	22.432	0.27273	0.	-127.36
9271	22.34	0.36364	0.	-162.33
9272	22.432	0.36364	5.e-002	-6.1003
9273	22.34	0.18182	0.	-150.06
9274	22.432	0.18182	5.e-002	-6.2748
9275	22.432	9.0909e-002	0.	-116.18
9276	22.248	5.7273	0.	-185.62
9277	22.156	5.8182	0.	-210.19
9278	22.248	5.8182	5.e-002	-6.2829
9279	22.248	5.9091	0.	-176.78
9280	22.248	5.5455	0.	-199.61
9281	22.156	5.6364	0.	-221.05
9282	22.248	5.6364	5.e-002	-6.2868
9283	22.248	5.3636	0.	-218.33
9284	22.156	5.4545	0.	-236.31
9285	22.248	5.4545	5.e-002	-6.4948
9286	22.248	5.1818	0.	-241.47
9287	22.156	5.2727	0.	-256.07
9288	22.248	5.2727	5.e-002	-6.8382
9289	22.248	5.	0.	-269.1
9290	22.156	5.0909	0.	-280.19
9291	22.248	5.0909	5.e-002	-7.3044
9292	22.248	4.8182	0.	-301.91
9293	22.156	4.9091	0.	-308.86
9294	22.248	4.9091	5.e-002	-7.8794
9295	22.248	4.6364	0.	-341.03
9296	22.156	4.7273	0.	-342.61
9297	22.248	4.7273	5.e-002	-8.4225
9298	22.248	4.4545	0.	-386.69
9299	22.156	4.5455	0.	-381.94
9300	22.248	4.5455	5.e-002	-8.608
9301	22.248	4.2727	0.	-436.
9302	22.156	4.3636	0.	-425.6
9303	22.248	4.3636	5.e-002	-8.478
9304	22.248	4.0909	0.	-481.45
9305	22.156	4.1818	0.	-468.93
9306	22.248	4.1818	5.e-002	-6.0926
9307	22.248	3.9091	0.	-513.72
9308	22.156	4.	0.	-503.68
9309	22.248	4.	5.e-002	-6.0514
9310	22.248	3.7273	0.	-530.93
9311	22.156	3.8182	0.	-524.72
9312	22.248	3.8182	5.e-002	-6.4267
9313	22.248	3.5455	0.	-537.77
9314	22.156	3.6364	0.	-535.27
9315	22.248	3.6364	5.e-002	-4.6643
9316	22.248	3.3636	0.	-539.33
9317	22.156	3.4545	0.	-539.62
9318	22.248	3.4545	5.e-002	-2.9262
9319	22.248	3.1818	0.	-539.16
9320	22.156	3.2727	0.	-541.09
9321	22.248	3.2727	5.e-002	-1.4867
9322	22.248	3.	0.	-538.95
9323	22.156	3.0909	0.	-541.47
9324	22.248	3.0909	5.e-002	-0.44656
9325	22.248	2.8182	0.	-539.16
9326	22.156	2.9091	0.	-541.47
9327	22.248	2.9091	5.e-002	-0.44656
9328	22.248	2.6364	0.	-539.33
9329	22.156	2.7273	0.	-541.09
9330	22.248	2.7273	5.e-002	-1.4867
9331	22.248	2.4545	0.	-537.77
9332	22.156	2.5455	0.	-539.62
9333	22.248	2.5455	5.e-002	-2.9262
9334	22.248	2.2727	0.	-530.93
9335	22.156	2.3636	0.	-535.27
9336	22.248	2.3636	5.e-002	-4.6643
9337	22.248	2.0909	0.	-513.72
9338	22.156	2.1818	0.	-524.72
9339	22.248	2.1818	5.e-002	-6.4267
9340	22.248	1.9091	0.	-481.45
9341	22.156	2.	0.	-503.68
9342	22.248	2.	5.e-002	-6.0514
9343	22.248	1.7273	0.	-436.
9344	22.156	1.8182	0.	-468.93
9345	22.248	1.8182	5.e-002	-6.0926
9346	22.248	1.5455	0.	-386.69
9347	22.156	1.6364	0.	-425.6
9348	22.248	1.6364	5.e-002	-8.478
9349	22.248	1.3636	0.	-341.03
9350	22.156	1.4545	0.	-381.94
9351	22.248	1.4545	5.e-002	-8.6081
9352	22.248	1.1818	0.	-301.91
9353	22.156	1.2727	0.	-342.61
9354	22.248	1.2727	5.e-002	-8.4225
9355	22.248	1.	0.	-269.1
9356	22.156	1.0909	0.	-308.86
9357	22.248	1.0909	5.e-002	-7.8794
9358	22.248	0.81818	0.	-241.47
9359	22.156	0.90909	0.	-280.19
9360	22.248	0.90909	5.e-002	-7.3045
9361	22.248	0.63636	0.	-218.33
9362	22.156	0.72727	0.	-256.07
9363	22.248	0.72727	5.e-002	-6.8382
9364	22.248	0.45455	0.	-199.61
9365	22.156	0.54545	0.	-236.31
9366	22.248	0.54545	5.e-002	-6.4948
9367	22.248	0.27273	0.	-185.62
9368	22.156	0.36364	0.	-221.05
9369	22.248	0.36364	5.e-002	-6.2869
9370	22.156	0.18182	0.	-210.19
9371	22.248	0.18182	5.e-002	-6.2829
9372	22.248	9.0909e-002	0.	-176.78
9373	22.065	5.7273	0.	-245.73
9374	21.973	5.8182	0.	-270.7
9375	22.065	5.8182	5.e-002	-6.0821
9376	22.065	5.9091	0.	-237.84
9377	22.065	5.5455	0.	-258.37
9378	21.973	5.6364	0.	-280.82
9379	22.065	5.6364	5.e-002	-6.2639
9380	22.065	5.3636	0.	-275.19
9381	21.973	5.4545	0.	-294.61
9382	22.065	5.4545	5.e-002	-6.4104
9383	22.065	5.1818	0.	-296.34
9384	21.973	5.2727	0.	-312.49
9385	22.065	5.2727	5.e-002	-6.6157
9386	22.065	5.	0.	-321.77
9387	21.973	5.0909	0.	-334.4
9388	22.065	5.0909	5.e-002	-6.8609
9389	22.065	4.8182	0.	-351.52
9390	21.973	4.9091	0.	-360.26
9391	22.065	4.9091	5.e-002	-7.0835
9392	22.065	4.6364	0.	-385.34
9393	21.973	4.7273	0.	-389.86
9394	22.065	4.7273	5.e-002	-7.1658
9395	22.065	4.4545	0.	-422.03
9396	21.973	4.5455	0.	-422.44
9397	22.065	4.5455	5.e-002	-6.9241
9398	22.065	4.2727	0.	-458.53
9399	21.973	4.3636	0.	-456.07
9400	22.065	4.3636	5.e-002	-6.0826
9401	22.065	4.0909	0.	-490.38
9402	21.973	4.1818	0.	-487.19
9403	22.065	4.1818	5.e-002	-5.165
9404	22.065	3.9091	0.	-514.02
9405	21.973	4.	0.	-512.07
9406	22.065	4.	5.e-002	-4.663
9407	22.065	3.7273	0.	-528.86
9408	21.973	3.8182	0.	-529.01
9409	22.065	3.8182	5.e-002	-4.2425
9410	22.065	3.5455	0.	-537.1
9411	21.973	3.6364	0.	-539.19
9412	22.065	3.6364	5.e-002	-3.5515
9413	22.065	3.3636	0.	-541.38
9414	21.973	3.4545	0.	-544.97
9415	22.065	3.4545	5.e-002	-2.4961
9416	22.065	3.1818	0.	-543.39
9417	21.973	3.2727	0.	-548.06
9418	22.065	3.2727	5.e-002	-1.5168
9419	22.065	3.	0.	-543.97
9420	21.973	3.0909	0.	-549.41
9421	22.065	3.0909	5.e-002	-0.84231
9422	22.065	2.8182	0.	-543.39
9423	21.973	2.9091	0.	-549.41
9424	22.065	2.9091	5.e-002	-0.84231
9425	22.065	2.6364	0.	-541.38
9426	21.973	2.7273	0.	-548.06
9427	22.065	2.7273	5.e-002	-1.5168
9428	22.065	2.4545	0.	-537.1
9429	21.973	2.5455	0.	-544.97
9430	22.065	2.5455	5.e-002	-2.4961
9431	22.065	2.2727	0.	-528.86
9432	21.973	2.3636	0.	-539.19
9433	22.065	2.3636	5.e-002	-3.5515
9434	22.065	2.0909	0.	-514.02
9435	21.973	2.1818	0.	-529.01
9436	22.065	2.1818	5.e-002	-4.2425
9437	22.065	1.9091	0.	-490.38
9438	21.973	2.	0.	-512.07
9439	22.065	2.	5.e-002	-4.663
9440	22.065	1.7273	0.	-458.53
9441	21.973	1.8182	0.	-487.19
9442	22.065	1.8182	5.e-002	-5.165
9443	22.065	1.5455	0.	-422.03
9444	21.973	1.6364	0.	-456.07
9445	22.065	1.6364	5.e-002	-6.0826
9446	22.065	1.3636	0.	-385.34
9447	21.973	1.4545	0.	-422.43
9448	22.065	1.4545	5.e-002	-6.9241
9449	22.065	1.1818	0.	-351.52
9450	21.973	1.2727	0.	-389.86
9451	22.065	1.2727	5.e-002	-7.1658
9452	22.065	1.	0.	-321.77
9453	21.973	1.0909	0.	-360.26
9454	22.065	1.0909	5.e-002	-7.0835
9455	22.065	0.81818	0.	-296.34
9456	21.973	0.90909	0.	-334.4
9457	22.065	0.90909	5.e-002	-6.8609
9458	22.065	0.63636	0.	-275.19
9459	21.973	0.72727	0.	-312.49
9460	22.065	0.72727	5.e-002	-6.6157
9461	22.065	0.45455	0.	-258.37
9462	21.973	0.54545	0.	-294.61
9463	22.065	0.54545	5.e-002	-6.4105
9464	22.065	0.27273	0.	-245.73
9465	21.973	0.36364	0.	-280.82
9466	22.065	0.36364	5.e-002	-6.2639
9467	21.973	0.18182	0.	-270.7
9468	22.065	0.18182	5.e-002	-6.0821
9469	22.065	9.0909e-002	0.	-237.84
9470	21.881	5.7273	0.	-305.73
9471	21.789	5.8182	0.	-330.52
9472	21.881	5.8182	5.e-002	-5.7427
9473	21.881	5.9091	0.	-298.33
9474	21.881	5.5455	0.	-317.34
9475	21.789	5.6364	0.	-339.9
9476	21.881	5.6364	5.e-002	-6.1295
9477	21.881	5.3636	0.	-332.53
9478	21.789	5.4545	0.	-352.44
9479	21.881	5.4545	5.e-002	-6.2224
9480	21.881	5.1818	0.	-351.48
9481	21.789	5.2727	0.	-368.46
9482	21.881	5.2727	5.e-002	-6.313
9483	21.881	5.	0.	-374.02
9484	21.789	5.0909	0.	-387.86
9485	21.881	5.0909	5.e-002	-6.3913
9486	21.881	4.8182	0.	-399.79
9487	21.789	4.9091	0.	-410.35
9488	21.881	4.9091	5.e-002	-6.4
9489	21.881	4.6364	0.	-428.
9490	21.789	4.7273	0.	-435.35
9491	21.881	4.7273	5.e-002	-6.2598
9492	21.881	4.4545	0.	-457.11
9493	21.789	4.5455	0.	-461.76
9494	21.881	4.5455	5.e-002	-5.883
9495	21.881	4.2727	0.	-484.84
9496	21.789	4.3636	0.	-487.81
9497	21.881	4.3636	5.e-002	-5.2726
9498	21.881	4.0909	0.	-508.65
9499	21.789	4.1818	0.	-511.26
9500	21.881	4.1818	5.e-002	-4.6006
9501	21.881	3.9091	0.	-526.83
9502	21.789	4.	0.	-530.17
9503	21.881	4.	5.e-002	-4.108
9504	21.881	3.7273	0.	-539.25
9505	21.789	3.8182	0.	-543.81
9506	21.881	3.8182	5.e-002	-3.7048
9507	21.881	3.5455	0.	-547.04
9508	21.789	3.6364	0.	-552.81
9509	21.881	3.6364	5.e-002	-3.1528
9510	21.881	3.3636	0.	-551.65
9511	21.789	3.4545	0.	-558.4
9512	21.881	3.4545	5.e-002	-2.4875
9513	21.881	3.1818	0.	-554.08
9514	21.789	3.2727	0.	-561.64
9515	21.881	3.2727	5.e-002	-1.8857
9516	21.881	3.	0.	-554.85
9517	21.789	3.0909	0.	-563.14
9518	21.881	3.0909	5.e-002	-1.5132
9519	21.881	2.8182	0.	-554.08
9520	21.789	2.9091	0.	-563.14
9521	21.881	2.9091	5.e-002	-1.5132
9522	21.881	2.6364	0.	-551.65
9523	21.789	2.7273	0.	-561.64
9524	21.881	2.7273	5.e-002	-1.8857
9525	21.881	2.4545	0.	-547.04
9526	21.789	2.5455	0.	-558.4
9527	21.881	2.5455	5.e-002	-2.4875
9528	21.881	2.2727	0.	-539.25
9529	21.789	2.3636	0.	-552.81
9530	21.881	2.3636	5.e-002	-3.1528
9531	21.881	2.0909	0.	-526.83
9532	21.789	2.1818	0.	-543.81
9533	21.881	2.1818	5.e-002	-3.7048
9534	21.881	1.9091	0.	-508.65
9535	21.789	2.	0.	-530.17
9536	21.881	2.	5.e-002	-4.108
9537	21.881	1.7273	0.	-484.84
9538	21.789	1.8182	0.	-511.26
9539	21.881	1.8182	5.e-002	-4.6006
9540	21.881	1.5455	0.	-457.11
9541	21.789	1.6364	0.	-487.81
9542	21.881	1.6364	5.e-002	-5.2726
9543	21.881	1.3636	0.	-428.
9544	21.789	1.4545	0.	-461.76
9545	21.881	1.4545	5.e-002	-5.883
9546	21.881	1.1818	0.	-399.79
9547	21.789	1.2727	0.	-435.35
9548	21.881	1.2727	5.e-002	-6.2598
9549	21.881	1.	0.	-374.02
9550	21.789	1.0909	0.	-410.35
9551	21.881	1.0909	5.e-002	-6.4001
9552	21.881	0.81818	0.	-351.48
9553	21.789	0.90909	0.	-387.86
9554	21.881	0.90909	5.e-002	-6.3913
9555	21.881	0.63636	0.	-332.53
9556	21.789	0.72727	0.	-368.46
9557	21.881	0.72727	5.e-002	-6.313
9558	21.881	0.45455	0.	-317.34
9559	21.789	0.54545	0.	-352.44
9560	21.881	0.54545	5.e-002	-6.2224
9561	21.881	0.27273	0.	-305.73
9562	21.789	0.36364	0.	-339.9
9563	21.881	0.36364	5.e-002	-6.1295
9564	21.789	0.18182	0.	-330.52
9565	21.881	0.18182	5.e-002	-5.7427
9566	21.881	9.0909e-002	0.	-298.33
9567	21.697	5.7273	0.	-364.55
9568	21.605	5.8182	0.	-388.94
9569	21.697	5.8182	5.e-002	-5.3176
9570	21.697	5.9091	0.	-357.46
9571	21.697	5.5455	0.	-375.11
9572	21.605	5.6364	0.	-397.44
9573	21.697	5.6364	5.e-002	-5.9299
9574	21.697	5.3636	0.	-388.71
9575	21.605	5.4545	0.	-408.73
9576	21.697	5.4545	5.e-002	-5.9852
9577	21.697	5.1818	0.	-405.39
9578	21.605	5.2727	0.	-422.89
9579	21.697	5.2727	5.e-002	-5.9958
9580	21.697	5.	0.	-424.87
9581	21.605	5.0909	0.	-439.72
9582	21.697	5.0909	5.e-002	-5.9705
9583	21.697	4.8182	0.	-446.62
9584	21.605	4.9091	0.	-458.83
9585	21.697	4.9091	5.e-002	-5.8719
9586	21.697	4.6364	0.	-469.72
9587	21.605	4.7273	0.	-479.54
9588	21.697	4.7273	5.e-002	-5.6566
9589	21.697	4.4545	0.	-492.84
9590	21.605	4.5455	0.	-500.78
9591	21.697	4.5455	5.e-002	-5.3014
9592	21.697	4.2727	0.	-514.36
9593	21.605	4.3636	0.	-521.21
9594	21.697	4.3636	5.e-002	-4.8368
9595	21.697	4.0909	0.	-532.75
9596	21.605	4.1818	0.	-539.36
9597	21.697	4.1818	5.e-002	-4.3591
9598	21.697	3.9091	0.	-547.08
9599	21.605	4.	0.	-554.15
9600	21.697	4.	5.e-002	-3.9407
9601	21.697	3.7273	0.	-557.34
9602	21.605	3.8182	0.	-565.2
9603	21.697	3.8182	5.e-002	-3.5567
9604	21.697	3.5455	0.	-564.16
9605	21.605	3.6364	0.	-572.84
9606	21.697	3.6364	5.e-002	-3.1457
9607	21.697	3.3636	0.	-568.39
9608	21.605	3.4545	0.	-577.81
9609	21.697	3.4545	5.e-002	-2.7148
9610	21.697	3.1818	0.	-570.7
9611	21.605	3.2727	0.	-580.77
9612	21.697	3.2727	5.e-002	-2.3423
9613	21.697	3.	0.	-571.43
9614	21.605	3.0909	0.	-582.16
9615	21.697	3.0909	5.e-002	-2.1247
9616	21.697	2.8182	0.	-570.7
9617	21.605	2.9091	0.	-582.16
9618	21.697	2.9091	5.e-002	-2.1247
9619	21.697	2.6364	0.	-568.39
9620	21.605	2.7273	0.	-580.77
9621	21.697	2.7273	5.e-002	-2.3423
9622	21.697	2.4545	0.	-564.16
9623	21.605	2.5455	0.	-577.81
9624	21.697	2.5455	5.e-002	-2.7148
9625	21.697	2.2727	0.	-557.34
9626	21.605	2.3636	0.	-572.84
9627	21.697	2.3636	5.e-002	-3.1457
9628	21.697	2.0909	0.	-547.08
9629	21.605	2.1818	0.	-565.2
9630	21.697	2.1818	5.e-002	-3.5567
9631	21.697	1.9091	0.	-532.75
9632	21.605	2.	0.	-554.15
9633	21.697	2.	5.e-002	-3.9407
9634	21.697	1.7273	0.	-514.36
9635	21.605	1.8182	0.	-539.36
9636	21.697	1.8182	5.e-002	-4.3591
9637	21.697	1.5455	0.	-492.84
9638	21.605	1.6364	0.	-521.21
9639	21.697	1.6364	5.e-002	-4.8368
9640	21.697	1.3636	0.	-469.72
9641	21.605	1.4545	0.	-500.78
9642	21.697	1.4545	5.e-002	-5.3014
9643	21.697	1.1818	0.	-446.62
9644	21.605	1.2727	0.	-479.54
9645	21.697	1.2727	5.e-002	-5.6567
9646	21.697	1.	0.	-424.87
9647	21.605	1.0909	0.	-458.83
9648	21.697	1.0909	5.e-002	-5.8719
9649	21.697	0.81818	0.	-405.39
9650	21.605	0.90909	0.	-439.72
9651	21.697	0.90909	5.e-002	-5.9705
9652	21.697	0.63636	0.	-388.71
9653	21.605	0.72727	0.	-422.89
9654	21.697	0.72727	5.e-002	-5.9958
9655	21.697	0.45455	0.	-375.11
9656	21.605	0.54545	0.	-408.73
9657	21.697	0.54545	5.e-002	-5.9852
9658	21.697	0.27273	0.	-364.55
9659	21.605	0.36364	0.	-397.44
9660	21.697	0.36364	5.e-002	-5.9299
9661	21.605	0.18182	0.	-388.94
9662	21.697	0.18182	5.e-002	-5.3176
9663	21.697	9.0909e-002	0.	-357.46
9664	21.513	5.7273	0.	-421.65
9665	21.421	5.8182	0.	-445.6
9666	21.513	5.8182	5.e-002	-4.8518
9667	21.513	5.9091	0.	-414.81
9668	21.513	5.5455	0.	-431.09
9669	21.421	5.6364	0.	-453.09
9670	21.513	5.6364	5.e-002	-5.7014
9671	21.513	5.3636	0.	-443.09
9672	21.421	5.4545	0.	-463.09
9673	21.513	5.4545	5.e-002	-5.7381
9674	21.513	5.1818	0.	-457.54
9675	21.421	5.2727	0.	-475.43
9676	21.513	5.2727	5.e-002	-5.701
9677	21.513	5.	0.	-474.09
9678	21.421	5.0909	0.	-489.82
9679	21.513	5.0909	5.e-002	-5.6221
9680	21.513	4.8182	0.	-492.18
9681	21.421	4.9091	0.	-505.83
9682	21.513	4.9091	5.e-002	-5.4815
9683	21.513	4.6364	0.	-510.96
9684	21.421	4.7273	0.	-522.81
9685	21.513	4.7273	5.e-002	-5.2613
9686	21.513	4.4545	0.	-529.39
9687	21.421	4.5455	0.	-539.89
9688	21.513	4.5455	5.e-002	-4.9601
9689	21.513	4.2727	0.	-546.32
9690	21.421	4.3636	0.	-556.05
9691	21.513	4.3636	5.e-002	-4.6056
9692	21.513	4.0909	0.	-560.79
9693	21.421	4.1818	0.	-570.34
9694	21.513	4.1818	5.e-002	-4.2441
9695	21.513	3.9091	0.	-572.25
9696	21.421	4.	0.	-582.09
9697	21.513	4.	5.e-002	-3.9084
9698	21.513	3.7273	0.	-580.69
9699	21.421	3.8182	0.	-591.07
9700	21.513	3.8182	5.e-002	-3.5949
9701	21.513	3.5455	0.	-586.49
9702	21.421	3.6364	0.	-597.48
9703	21.513	3.6364	5.e-002	-3.2874
9704	21.513	3.3636	0.	-590.19
9705	21.421	3.4545	0.	-601.75
9706	21.513	3.4545	5.e-002	-2.9946
9707	21.513	3.1818	0.	-592.22
9708	21.421	3.2727	0.	-604.34
9709	21.513	3.2727	5.e-002	-2.7564
9710	21.513	3.	0.	-592.87
9711	21.421	3.0909	0.	-605.55
9712	21.513	3.0909	5.e-002	-2.6215
9713	21.513	2.8182	0.	-592.22
9714	21.421	2.9091	0.	-605.55
9715	21.513	2.9091	5.e-002	-2.6215
9716	21.513	2.6364	0.	-590.19
9717	21.421	2.7273	0.	-604.34
9718	21.513	2.7273	5.e-002	-2.7564
9719	21.513	2.4545	0.	-586.49
9720	21.421	2.5455	0.	-601.75
9721	21.513	2.5455	5.e-002	-2.9946
9722	21.513	2.2727	0.	-580.69
9723	21.421	2.3636	0.	-597.48
9724	21.513	2.3636	5.e-002	-3.2874
9725	21.513	2.0909	0.	-572.25
9726	21.421	2.1818	0.	-591.07
9727	21.513	2.1818	5.e-002	-3.5949
9728	21.513	1.9091	0.	-560.79
9729	21.421	2.	0.	-582.09
9730	21.513	2.	5.e-002	-3.9084
9731	21.513	1.7273	0.	-546.32
9732	21.421	1.8182	0.	-570.34
9733	21.513	1.8182	5.e-002	-4.2441
9734	21.513	1.5455	0.	-529.39
9735	21.421	1.6364	0.	-556.05
9736	21.513	1.6364	5.e-002	-4.6056
9737	21.513	1.3636	0.	-510.96
9738	21.421	1.4545	0.	-539.89
9739	21.513	1.4545	5.e-002	-4.9601
9740	21.513	1.1818	0.	-492.18
9741	21.421	1.2727	0.	-522.81
9742	21.513	1.2727	5.e-002	-5.2613
9743	21.513	1.	0.	-474.09
9744	21.421	1.0909	0.	-505.83
9745	21.513	1.0909	5.e-002	-5.4815
9746	21.513	0.81818	0.	-457.54
9747	21.421	0.90909	0.	-489.82
9748	21.513	0.90909	5.e-002	-5.6221
9749	21.513	0.63636	0.	-443.09
9750	21.421	0.72727	0.	-475.43
9751	21.513	0.72727	5.e-002	-5.701
9752	21.513	0.45455	0.	-431.09
9753	21.421	0.54545	0.	-463.09
9754	21.513	0.54545	5.e-002	-5.7381
9755	21.513	0.27273	0.	-421.65
9756	21.421	0.36364	0.	-453.09
9757	21.513	0.36364	5.e-002	-5.7014
9758	21.421	0.18182	0.	-445.6
9759	21.513	0.18182	5.e-002	-4.8518
9760	21.513	9.0909e-002	0.	-414.81
9761	21.329	5.7273	0.	-476.84
9762	21.237	5.8182	0.	-500.37
9763	21.329	5.8182	5.e-002	-4.3791
9764	21.329	5.9091	0.	-470.21
9765	21.329	5.5455	0.	-485.09
9766	21.237	5.6364	0.	-506.78
9767	21.329	5.6364	5.e-002	-5.4696
9768	21.329	5.3636	0.	-495.53
9769	21.237	5.4545	0.	-515.51
9770	21.329	5.4545	5.e-002	-5.5035
9771	21.329	5.1818	0.	-507.89
9772	21.237	5.2727	0.	-526.12
9773	21.329	5.2727	5.e-002	-5.4434
9774	21.329	5.	0.	-521.8
9775	21.237	5.0909	0.	-538.28
9776	21.329	5.0909	5.e-002	-5.3436
9777	21.329	4.8182	0.	-536.72
9778	21.237	4.9091	0.	-551.59
9779	21.329	4.9091	5.e-002	-5.1968
9780	21.329	4.6364	0.	-551.96
9781	21.237	4.7273	0.	-565.46
9782	21.329	4.7273	5.e-002	-4.9972
9783	21.329	4.4545	0.	-566.7
9784	21.237	4.5455	0.	-579.2
9785	21.329	4.5455	5.e-002	-4.7508
9786	21.329	4.2727	0.	-580.16
9787	21.237	4.3636	0.	-592.09
9788	21.329	4.3636	5.e-002	-4.4763
9789	21.329	4.0909	0.	-591.68
9790	21.237	4.1818	0.	-603.47
9791	21.329	4.1818	5.e-002	-4.1988
9792	21.329	3.9091	0.	-600.92
9793	21.237	4.	0.	-612.89
9794	21.329	4.	5.e-002	-3.9352
9795	21.329	3.7273	0.	-607.86
9796	21.237	3.8182	0.	-620.22
9797	21.329	3.8182	5.e-002	-3.6893
9798	21.329	3.5455	0.	-612.74
9799	21.237	3.6364	0.	-625.56
9800	21.329	3.6364	5.e-002	-3.4597
9801	21.329	3.3636	0.	-615.9
9802	21.237	3.4545	0.	-629.19
9803	21.329	3.4545	5.e-002	-3.255
9804	21.329	3.1818	0.	-617.66
9805	21.237	3.2727	0.	-631.42
9806	21.329	3.2727	5.e-002	-3.0965
9807	21.329	3.	0.	-618.23
9808	21.237	3.0909	0.	-632.47
9809	21.329	3.0909	5.e-002	-3.009
9810	21.329	2.8182	0.	-617.66
9811	21.237	2.9091	0.	-632.47
9812	21.329	2.9091	5.e-002	-3.0089
9813	21.329	2.6364	0.	-615.9
9814	21.237	2.7273	0.	-631.42
9815	21.329	2.7273	5.e-002	-3.0965
9816	21.329	2.4545	0.	-612.74
9817	21.237	2.5455	0.	-629.19
9818	21.329	2.5455	5.e-002	-3.255
9819	21.329	2.2727	0.	-607.86
9820	21.237	2.3636	0.	-625.56
9821	21.329	2.3636	5.e-002	-3.4598
9822	21.329	2.0909	0.	-600.92
9823	21.237	2.1818	0.	-620.22
9824	21.329	2.1818	5.e-002	-3.6893
9825	21.329	1.9091	0.	-591.68
9826	21.237	2.	0.	-612.89
9827	21.329	2.	5.e-002	-3.9353
9828	21.329	1.7273	0.	-580.16
9829	21.237	1.8182	0.	-603.47
9830	21.329	1.8182	5.e-002	-4.1988
9831	21.329	1.5455	0.	-566.7
9832	21.237	1.6364	0.	-592.09
9833	21.329	1.6364	5.e-002	-4.4764
9834	21.329	1.3636	0.	-551.96
9835	21.237	1.4545	0.	-579.2
9836	21.329	1.4545	5.e-002	-4.7508
9837	21.329	1.1818	0.	-536.72
9838	21.237	1.2727	0.	-565.46
9839	21.329	1.2727	5.e-002	-4.9972
9840	21.329	1.	0.	-521.79
9841	21.237	1.0909	0.	-551.59
9842	21.329	1.0909	5.e-002	-5.1968
9843	21.329	0.81818	0.	-507.89
9844	21.237	0.90909	0.	-538.28
9845	21.329	0.90909	5.e-002	-5.3437
9846	21.329	0.63636	0.	-495.53
9847	21.237	0.72727	0.	-526.12
9848	21.329	0.72727	5.e-002	-5.4434
9849	21.329	0.45455	0.	-485.08
9850	21.237	0.54545	0.	-515.51
9851	21.329	0.54545	5.e-002	-5.5035
9852	21.329	0.27273	0.	-476.84
9853	21.237	0.36364	0.	-506.78
9854	21.329	0.36364	5.e-002	-5.4696
9855	21.237	0.18182	0.	-500.37
9856	21.329	0.18182	5.e-002	-4.3791
9857	21.329	9.0909e-002	0.	-470.21
9858	21.145	5.7273	0.	-530.11
9859	21.053	5.8182	0.	-553.29
9860	21.145	5.8182	5.e-002	-3.9225
9861	21.145	5.9091	0.	-523.68
9862	21.145	5.5455	0.	-537.17
9863	21.053	5.6364	0.	-558.62
9864	21.145	5.6364	5.e-002	-5.2502
9865	21.145	5.3636	0.	-546.14
9866	21.053	5.4545	0.	-566.13
9867	21.145	5.4545	5.e-002	-5.2927
9868	21.145	5.1818	0.	-556.61
9869	21.053	5.2727	0.	-575.16
9870	21.145	5.2727	5.e-002	-5.226
9871	21.145	5.	0.	-568.21
9872	21.053	5.0909	0.	-585.36
9873	21.145	5.0909	5.e-002	-5.1243
9874	21.145	4.8182	0.	-580.47
9875	21.053	4.9091	0.	-596.35
9876	21.145	4.9091	5.e-002	-4.9879
9877	21.145	4.6364	0.	-592.83
9878	21.053	4.7273	0.	-607.67
9879	21.145	4.7273	5.e-002	-4.8168
9880	21.145	4.4545	0.	-604.69
9881	21.053	4.5455	0.	-618.76
9882	21.145	4.5455	5.e-002	-4.6177
9883	21.145	4.2727	0.	-615.46
9884	21.053	4.3636	0.	-629.1
9885	21.145	4.3636	5.e-002	-4.4033
9886	21.145	4.0909	0.	-624.71
9887	21.053	4.1818	0.	-638.23
9888	21.145	4.1818	5.e-002	-4.1882
9889	21.145	3.9091	0.	-632.21
9890	21.053	4.	0.	-645.85
9891	21.145	4.	5.e-002	-3.9832
9892	21.145	3.7273	0.	-637.92
9893	21.053	3.8182	0.	-651.85
9894	21.145	3.8182	5.e-002	-3.7933
9895	21.145	3.5455	0.	-642.01
9896	21.053	3.6364	0.	-656.29
9897	21.145	3.6364	5.e-002	-3.6216
9898	21.145	3.3636	0.	-644.7
9899	21.053	3.4545	0.	-659.37
9900	21.145	3.4545	5.e-002	-3.4751
9901	21.145	3.1818	0.	-646.21
9902	21.053	3.2727	0.	-661.27
9903	21.145	3.2727	5.e-002	-3.3658
9904	21.145	3.	0.	-646.7
9905	21.053	3.0909	0.	-662.17
9906	21.145	3.0909	5.e-002	-3.3068
9907	21.145	2.8182	0.	-646.21
9908	21.053	2.9091	0.	-662.17
9909	21.145	2.9091	5.e-002	-3.3068
9910	21.145	2.6364	0.	-644.7
9911	21.053	2.7273	0.	-661.27
9912	21.145	2.7273	5.e-002	-3.3658
9913	21.145	2.4545	0.	-642.01
9914	21.053	2.5455	0.	-659.37
9915	21.145	2.5455	5.e-002	-3.4751
9916	21.145	2.2727	0.	-637.92
9917	21.053	2.3636	0.	-656.29
9918	21.145	2.3636	5.e-002	-3.6216
9919	21.145	2.0909	0.	-632.21
9920	21.053	2.1818	0.	-651.85
9921	21.145	2.1818	5.e-002	-3.7933
9922	21.145	1.9091	0.	-624.71
9923	21.053	2.	0.	-645.85
9924	21.145	2.	5.e-002	-3.9832
9925	21.145	1.7273	0.	-615.46
9926	21.053	1.8182	0.	-638.23
9927	21.145	1.8182	5.e-002	-4.1883
9928	21.145	1.5455	0.	-604.69
9929	21.053	1.6364	0.	-629.1
9930	21.145	1.6364	5.e-002	-4.4033
9931	21.145	1.3636	0.	-592.83
9932	21.053	1.4545	0.	-618.76
9933	21.145	1.4545	5.e-002	-4.6177
9934	21.145	1.1818	0.	-580.47
9935	21.053	1.2727	0.	-607.67
9936	21.145	1.2727	5.e-002	-4.8168
9937	21.145	1.	0.	-568.21
9938	21.053	1.0909	0.	-596.35
9939	21.145	1.0909	5.e-002	-4.9879
9940	21.145	0.81818	0.	-556.61
9941	21.053	0.90909	0.	-585.36
9942	21.145	0.90909	5.e-002	-5.1243
9943	21.145	0.63636	0.	-546.14
9944	21.053	0.72727	0.	-575.16
9945	21.145	0.72727	5.e-002	-5.226
9946	21.145	0.45455	0.	-537.17
9947	21.053	0.54545	0.	-566.13
9948	21.145	0.54545	5.e-002	-5.2928
9949	21.145	0.27273	0.	-530.11
9950	21.053	0.36364	0.	-558.62
9951	21.145	0.36364	5.e-002	-5.2502
9952	21.053	0.18182	0.	-553.29
9953	21.145	0.18182	5.e-002	-3.9225
9954	21.145	9.0909e-002	0.	-523.68
9955	20.961	5.7273	0.	-581.6
9956	20.869	5.8182	0.	-604.51
9957	20.961	5.8182	5.e-002	-3.4959
9958	20.961	5.9091	0.	-575.35
9959	20.961	5.5455	0.	-587.53
9960	20.869	5.6364	0.	-608.8
9961	20.961	5.6364	5.e-002	-5.0518
9962	20.961	5.3636	0.	-595.15
9963	20.869	5.4545	0.	-615.18
9964	20.961	5.4545	5.e-002	-5.1099
9965	20.961	5.1818	0.	-603.95
9966	20.869	5.2727	0.	-622.79
9967	20.961	5.2727	5.e-002	-5.0463
9968	20.961	5.	0.	-613.57
9969	20.869	5.0909	0.	-631.3
9970	20.961	5.0909	5.e-002	-4.9523
9971	20.961	4.8182	0.	-623.63
9972	20.869	4.9091	0.	-640.36
9973	20.961	4.9091	5.e-002	-4.8329
9974	20.961	4.6364	0.	-633.67
9975	20.869	4.7273	0.	-649.59
9976	20.961	4.7273	5.e-002	-4.6903
9977	20.961	4.4545	0.	-643.24
9978	20.869	4.5455	0.	-658.57
9979	20.961	4.5455	5.e-002	-4.5306
9980	20.961	4.2727	0.	-651.92
9981	20.869	4.3636	0.	-666.92
9982	20.961	4.3636	5.e-002	-4.3623
9983	20.961	4.0909	0.	-659.4
9984	20.869	4.1818	0.	-674.29
9985	20.961	4.1818	5.e-002	-4.1949
9986	20.961	3.9091	0.	-665.51
9987	20.869	4.	0.	-680.48
9988	20.961	4.	5.e-002	-4.0358
9989	20.961	3.7273	0.	-670.23
9990	20.869	3.8182	0.	-685.41
9991	20.961	3.8182	5.e-002	-3.8897
9992	20.961	3.5455	0.	-673.65
9993	20.869	3.6364	0.	-689.11
9994	20.961	3.6364	5.e-002	-3.7606
9995	20.961	3.3636	0.	-675.93
9996	20.869	3.4545	0.	-691.7
9997	20.961	3.4545	5.e-002	-3.6538
9998	20.961	3.1818	0.	-677.22
9999	20.869	3.2727	0.	-693.33
10000	20.961	3.2727	5.e-002	-3.5762
10001	20.961	3.	0.	-677.64
10002	20.869	3.0909	0.	-694.11
10003	20.961	3.0909	5.e-002	-3.5351
10004	20.961	2.8182	0.	-677.22
10005	20.869	2.9091	0.	-694.11
10006	20.961	2.9091	5.e-002	-3.5351
10007	20.961	2.6364	0.	-675.93
10008	20.869	2.7273	0.	-693.33
10009	20.961	2.7273	5.e-002	-3.5762
10010	20.961	2.4545	0.	-673.65
10011	20.869	2.5455	0.	-691.7
10012	20.961	2.5455	5.e-002	-3.6538
10013	20.961	2.2727	0.	-670.23
10014	20.869	2.3636	0.	-689.11
10015	20.961	2.3636	5.e-002	-3.7606
10016	20.961	2.0909	0.	-665.51
10017	20.869	2.1818	0.	-685.41
10018	20.961	2.1818	5.e-002	-3.8897
10019	20.961	1.9091	0.	-659.4
10020	20.869	2.	0.	-680.48
10021	20.961	2.	5.e-002	-4.0358
10022	20.961	1.7273	0.	-651.92
10023	20.869	1.8182	0.	-674.29
10024	20.961	1.8182	5.e-002	-4.1949
10025	20.961	1.5455	0.	-643.24
10026	20.869	1.6364	0.	-666.92
10027	20.961	1.6364	5.e-002	-4.3623
10028	20.961	1.3636	0.	-633.67
10029	20.869	1.4545	0.	-658.57
10030	20.961	1.4545	5.e-002	-4.5306
10031	20.961	1.1818	0.	-623.63
10032	20.869	1.2727	0.	-649.59
10033	20.961	1.2727	5.e-002	-4.6904
10034	20.961	1.	0.	-613.57
10035	20.869	1.0909	0.	-640.36
10036	20.961	1.0909	5.e-002	-4.8329
10037	20.961	0.81818	0.	-603.95
10038	20.869	0.90909	0.	-631.3
10039	20.961	0.90909	5.e-002	-4.9523
10040	20.961	0.63636	0.	-595.15
10041	20.869	0.72727	0.	-622.79
10042	20.961	0.72727	5.e-002	-5.0463
10043	20.961	0.45455	0.	-587.53
10044	20.869	0.54545	0.	-615.18
10045	20.961	0.54545	5.e-002	-5.1099
10046	20.961	0.27273	0.	-581.6
10047	20.869	0.36364	0.	-608.8
10048	20.961	0.36364	5.e-002	-5.0518
10049	20.869	0.18182	0.	-604.51
10050	20.961	0.18182	5.e-002	-3.4959
10051	20.961	9.0909e-002	0.	-575.35
10052	20.777	5.7273	0.	-631.51
10053	20.685	5.8182	0.	-654.22
10054	20.777	5.8182	5.e-002	-3.1062
10055	20.777	5.9091	0.	-625.41
10056	20.777	5.5455	0.	-636.39
10057	20.685	5.6364	0.	-657.54
10058	20.777	5.6364	5.e-002	-4.878
10059	20.777	5.3636	0.	-642.81
10060	20.685	5.4545	0.	-662.9
10061	20.777	5.4545	5.e-002	-4.9551
10062	20.777	5.1818	0.	-650.15
10063	20.685	5.2727	0.	-669.28
10064	20.777	5.2727	5.e-002	-4.8994
10065	20.777	5.	0.	-658.11
10066	20.685	5.0909	0.	-676.33
10067	20.777	5.0909	5.e-002	-4.8174
10068	20.777	4.8182	0.	-666.36
10069	20.685	4.9091	0.	-683.79
10070	20.777	4.9091	5.e-002	-4.7166
10071	20.777	4.6364	0.	-674.53
10072	20.685	4.7273	0.	-691.33
10073	20.777	4.7273	5.e-002	-4.5999
10074	20.777	4.4545	0.	-682.28
10075	20.685	4.5455	0.	-698.63
10076	20.777	4.5455	5.e-002	-4.4722
10077	20.777	4.2727	0.	-689.31
10078	20.685	4.3636	0.	-705.39
10079	20.777	4.3636	5.e-002	-4.3399
10080	20.777	4.0909	0.	-695.39
10081	20.685	4.1818	0.	-711.38
10082	20.777	4.1818	5.e-002	-4.2092
10083	20.777	3.9091	0.	-700.39
10084	20.685	4.	0.	-716.43
10085	20.777	4.	5.e-002	-4.0857
10086	20.777	3.7273	0.	-704.29
10087	20.685	3.8182	0.	-720.49
10088	20.777	3.8182	5.e-002	-3.9733
10089	20.777	3.5455	0.	-707.16
10090	20.685	3.6364	0.	-723.58
10091	20.777	3.6364	5.e-002	-3.8755
10092	20.777	3.3636	0.	-709.09
10093	20.685	3.4545	0.	-725.77
10094	20.777	3.4545	5.e-002	-3.7963
10095	20.777	3.1818	0.	-710.2
10096	20.685	3.2727	0.	-727.15
10097	20.777	3.2727	5.e-002	-3.7399
10098	20.777	3.	0.	-710.56
10099	20.685	3.0909	0.	-727.82
10100	20.777	3.0909	5.e-002	-3.7105
10101	20.777	2.8182	0.	-710.2
10102	20.685	2.9091	0.	-727.82
10103	20.777	2.9091	5.e-002	-3.7105
10104	20.777	2.6364	0.	-709.09
10105	20.685	2.7273	0.	-727.15
10106	20.777	2.7273	5.e-002	-3.7399
10107	20.777	2.4545	0.	-707.16
10108	20.685	2.5455	0.	-725.77
10109	20.777	2.5455	5.e-002	-3.7963
10110	20.777	2.2727	0.	-704.29
10111	20.685	2.3636	0.	-723.58
10112	20.777	2.3636	5.e-002	-3.8755
10113	20.777	2.0909	0.	-700.39
10114	20.685	2.1818	0.	-720.49
10115	20.777	2.1818	5.e-002	-3.9733
10116	20.777	1.9091	0.	-695.39
10117	20.685	2.	0.	-716.43
10118	20.777	2.	5.e-002	-4.0857
10119	20.777	1.7273	0.	-689.31
10120	20.685	1.8182	0.	-711.38
10121	20.777	1.8182	5.e-002	-4.2092
10122	20.777	1.5455	0.	-682.28
10123	20.685	1.6364	0.	-705.39
10124	20.777	1.6364	5.e-002	-4.3399
10125	20.777	1.3636	0.	-674.53
10126	20.685	1.4545	0.	-698.63
10127	20.777	1.4545	5.e-002	-4.4722
10128	20.777	1.1818	0.	-666.36
10129	20.685	1.2727	0.	-691.33
10130	20.777	1.2727	5.e-002	-4.5999
10131	20.777	1.	0.	-658.11
10132	20.685	1.0909	0.	-683.79
10133	20.777	1.0909	5.e-002	-4.7166
10134	20.777	0.81818	0.	-650.15
10135	20.685	0.90909	0.	-676.33
10136	20.777	0.90909	5.e-002	-4.8175
10137	20.777	0.63636	0.	-642.81
10138	20.685	0.72727	0.	-669.28
10139	20.777	0.72727	5.e-002	-4.8995
10140	20.777	0.45455	0.	-636.39
10141	20.685	0.54545	0.	-662.9
10142	20.777	0.54545	5.e-002	-4.9551
10143	20.777	0.27273	0.	-631.5
10144	20.685	0.36364	0.	-657.54
10145	20.777	0.36364	5.e-002	-4.878
10146	20.685	0.18182	0.	-654.22
10147	20.777	0.18182	5.e-002	-3.1062
10148	20.777	9.0909e-002	0.	-625.41
10149	20.594	5.7273	0.	-680.05
10150	20.502	5.8182	0.	-702.64
10151	20.594	5.8182	5.e-002	-2.7556
10152	20.594	5.9091	0.	-674.11
10153	20.594	5.5455	0.	-683.99
10154	20.502	5.6364	0.	-705.08
10155	20.594	5.6364	5.e-002	-4.7293
10156	20.594	5.3636	0.	-689.35
10157	20.502	5.4545	0.	-709.54
10158	20.594	5.4545	5.e-002	-4.8263
10159	20.594	5.1818	0.	-695.45
10160	20.502	5.2727	0.	-714.84
10161	20.594	5.2727	5.e-002	-4.7807
10162	20.594	5.	0.	-702.02
10163	20.502	5.0909	0.	-720.68
10164	20.594	5.0909	5.e-002	-4.7117
10165	20.594	4.8182	0.	-708.78
10166	20.502	4.9091	0.	-726.8
10167	20.594	4.9091	5.e-002	-4.6284
10168	20.594	4.6364	0.	-715.44
10169	20.502	4.7273	0.	-732.96
10170	20.594	4.7273	5.e-002	-4.534
10171	20.594	4.4545	0.	-721.75
10172	20.502	4.5455	0.	-738.91
10173	20.594	4.5455	5.e-002	-4.4325
10174	20.594	4.2727	0.	-727.46
10175	20.502	4.3636	0.	-744.41
10176	20.594	4.3636	5.e-002	-4.3283
10177	20.594	4.0909	0.	-732.43
10178	20.502	4.1818	0.	-749.3
10179	20.594	4.1818	5.e-002	-4.2262
10180	20.594	3.9091	0.	-736.54
10181	20.502	4.	0.	-753.44
10182	20.594	4.	5.e-002	-4.1301
10183	20.594	3.7273	0.	-739.77
10184	20.502	3.8182	0.	-756.8
10185	20.594	3.8182	5.e-002	-4.0434
10186	20.594	3.5455	0.	-742.18
10187	20.502	3.6364	0.	-759.38
10188	20.594	3.6364	5.e-002	-3.9689
10189	20.594	3.3636	0.	-743.82
10190	20.502	3.4545	0.	-761.23
10191	20.594	3.4545	5.e-002	-3.9094
10192	20.594	3.1818	0.	-744.76
10193	20.502	3.2727	0.	-762.41
10194	20.594	3.2727	5.e-002	-3.8676
10195	20.594	3.	0.	-745.07
10196	20.502	3.0909	0.	-762.98
10197	20.594	3.0909	5.e-002	-3.846
10198	20.594	2.8182	0.	-744.76
10199	20.502	2.9091	0.	-762.98
10200	20.594	2.9091	5.e-002	-3.846
10201	20.594	2.6364	0.	-743.82
10202	20.502	2.7273	0.	-762.41
10203	20.594	2.7273	5.e-002	-3.8676
10204	20.594	2.4545	0.	-742.18
10205	20.502	2.5455	0.	-761.23
10206	20.594	2.5455	5.e-002	-3.9094
10207	20.594	2.2727	0.	-739.77
10208	20.502	2.3636	0.	-759.38
10209	20.594	2.3636	5.e-002	-3.9689
10210	20.594	2.0909	0.	-736.54
10211	20.502	2.1818	0.	-756.8
10212	20.594	2.1818	5.e-002	-4.0434
10213	20.594	1.9091	0.	-732.43
10214	20.502	2.	0.	-753.44
10215	20.594	2.	5.e-002	-4.1301
10216	20.594	1.7273	0.	-727.46
10217	20.502	1.8182	0.	-749.3
10218	20.594	1.8182	5.e-002	-4.2262
10219	20.594	1.5455	0.	-721.75
10220	20.502	1.6364	0.	-744.41
10221	20.594	1.6364	5.e-002	-4.3283
10222	20.594	1.3636	0.	-715.44
10223	20.502	1.4545	0.	-738.91
10224	20.594	1.4545	5.e-002	-4.4325
10225	20.594	1.1818	0.	-708.78
10226	20.502	1.2727	0.	-732.96
10227	20.594	1.2727	5.e-002	-4.534
10228	20.594	1.	0.	-702.02
10229	20.502	1.0909	0.	-726.8
10230	20.594	1.0909	5.e-002	-4.6284
10231	20.594	0.81818	0.	-695.45
10232	20.502	0.90909	0.	-720.68
10233	20.594	0.90909	5.e-002	-4.7117
10234	20.594	0.63636	0.	-689.35
10235	20.502	0.72727	0.	-714.84
10236	20.594	0.72727	5.e-002	-4.7807
10237	20.594	0.45455	0.	-683.99
10238	20.502	0.54545	0.	-709.54
10239	20.594	0.54545	5.e-002	-4.8263
10240	20.594	0.27273	0.	-680.05
10241	20.502	0.36364	0.	-705.08
10242	20.594	0.36364	5.e-002	-4.7293
10243	20.502	0.18182	0.	-702.64
10244	20.594	0.18182	5.e-002	-2.7556
10245	20.594	9.0909e-002	0.	-674.11
10246	20.41	5.7273	0.	-727.46
10247	20.318	5.8182	0.	-749.97
10248	20.41	5.8182	5.e-002	-2.4436
10249	20.41	5.9091	0.	-721.64
10250	20.41	5.5455	0.	-730.56
10251	20.318	5.6364	0.	-751.62
10252	20.41	5.6364	5.e-002	-4.6043
10253	20.41	5.3636	0.	-734.99
10254	20.318	5.4545	0.	-755.29
10255	20.41	5.4545	5.e-002	-4.7207
10256	20.41	5.1818	0.	-740.04
10257	20.318	5.2727	0.	-759.68
10258	20.41	5.2727	5.e-002	-4.6853
10259	20.41	5.	0.	-745.45
10260	20.318	5.0909	0.	-764.49
10261	20.41	5.0909	5.e-002	-4.6288
10262	20.41	4.8182	0.	-750.99
10263	20.318	4.9091	0.	-769.52
10264	20.41	4.9091	5.e-002	-4.5613
10265	20.41	4.6364	0.	-756.44
10266	20.318	4.7273	0.	-774.56
10267	20.41	4.7273	5.e-002	-4.4856
10268	20.41	4.4545	0.	-761.58
10269	20.318	4.5455	0.	-779.42
10270	20.41	4.5455	5.e-002	-4.4051
10271	20.41	4.2727	0.	-766.25
10272	20.318	4.3636	0.	-783.91
10273	20.41	4.3636	5.e-002	-4.3232
10274	20.41	4.0909	0.	-770.32
10275	20.318	4.1818	0.	-787.91
10276	20.41	4.1818	5.e-002	-4.2433
10277	20.41	3.9091	0.	-773.71
10278	20.318	4.	0.	-791.32
10279	20.41	4.	5.e-002	-4.1685
10280	20.41	3.7273	0.	-776.4
10281	20.318	3.8182	0.	-794.11
10282	20.41	3.8182	5.e-002	-4.1014
10283	20.41	3.5455	0.	-778.42
10284	20.318	3.6364	0.	-796.26
10285	20.41	3.6364	5.e-002	-4.0442
10286	20.41	3.3636	0.	-779.81
10287	20.318	3.4545	0.	-797.82
10288	20.41	3.4545	5.e-002	-3.999
10289	20.41	3.1818	0.	-780.61
10290	20.318	3.2727	0.	-798.83
10291	20.41	3.2727	5.e-002	-3.9676
10292	20.41	3.	0.	-780.88
10293	20.318	3.0909	0.	-799.32
10294	20.41	3.0909	5.e-002	-3.9515
10295	20.41	2.8182	0.	-780.61
10296	20.318	2.9091	0.	-799.32
10297	20.41	2.9091	5.e-002	-3.9515
10298	20.41	2.6364	0.	-779.81
10299	20.318	2.7273	0.	-798.83
10300	20.41	2.7273	5.e-002	-3.9676
10301	20.41	2.4545	0.	-778.42
10302	20.318	2.5455	0.	-797.82
10303	20.41	2.5455	5.e-002	-3.999
10304	20.41	2.2727	0.	-776.4
10305	20.318	2.3636	0.	-796.26
10306	20.41	2.3636	5.e-002	-4.0443
10307	20.41	2.0909	0.	-773.71
10308	20.318	2.1818	0.	-794.11
10309	20.41	2.1818	5.e-002	-4.1014
10310	20.41	1.9091	0.	-770.32
10311	20.318	2.	0.	-791.32
10312	20.41	2.	5.e-002	-4.1685
10313	20.41	1.7273	0.	-766.25
10314	20.318	1.8182	0.	-787.91
10315	20.41	1.8182	5.e-002	-4.2433
10316	20.41	1.5455	0.	-761.58
10317	20.318	1.6364	0.	-783.91
10318	20.41	1.6364	5.e-002	-4.3232
10319	20.41	1.3636	0.	-756.44
10320	20.318	1.4545	0.	-779.42
10321	20.41	1.4545	5.e-002	-4.4051
10322	20.41	1.1818	0.	-750.99
10323	20.318	1.2727	0.	-774.56
10324	20.41	1.2727	5.e-002	-4.4857
10325	20.41	1.	0.	-745.45
10326	20.318	1.0909	0.	-769.52
10327	20.41	1.0909	5.e-002	-4.5613
10328	20.41	0.81818	0.	-740.04
10329	20.318	0.90909	0.	-764.49
10330	20.41	0.90909	5.e-002	-4.6288
10331	20.41	0.63636	0.	-734.99
10332	20.318	0.72727	0.	-759.68
10333	20.41	0.72727	5.e-002	-4.6854
10334	20.41	0.45455	0.	-730.56
10335	20.318	0.54545	0.	-755.29
10336	20.41	0.54545	5.e-002	-4.7208
10337	20.41	0.27273	0.	-727.46
10338	20.318	0.36364	0.	-751.62
10339	20.41	0.36364	5.e-002	-4.6044
10340	20.318	0.18182	0.	-749.97
10341	20.41	0.18182	5.e-002	-2.4436
10342	20.41	9.0909e-002	0.	-721.64
10343	20.226	5.7273	0.	-773.93
10344	20.134	5.8182	0.	-796.4
10345	20.226	5.8182	5.e-002	-2.1676
10346	20.226	5.9091	0.	-768.22
10347	20.226	5.5455	0.	-776.29
10348	20.134	5.6364	0.	-797.37
10349	20.226	5.6364	5.e-002	-4.501
10350	20.226	5.3636	0.	-779.94
10351	20.134	5.4545	0.	-800.36
10352	20.226	5.4545	5.e-002	-4.6354
10353	20.226	5.1818	0.	-784.1
10354	20.134	5.2727	0.	-803.96
10355	20.226	5.2727	5.e-002	-4.6095
10356	20.226	5.	0.	-788.54
10357	20.134	5.0909	0.	-807.91
10358	20.226	5.0909	5.e-002	-4.5642
10359	20.226	4.8182	0.	-793.08
10360	20.134	4.9091	0.	-812.04
10361	20.226	4.9091	5.e-002	-4.5101
10362	20.226	4.6364	0.	-797.54
10363	20.134	4.7273	0.	-816.17
10364	20.226	4.7273	5.e-002	-4.45
10365	20.226	4.4545	0.	-801.74
10366	20.134	4.5455	0.	-820.14
10367	20.226	4.5455	5.e-002	-4.3864
10368	20.226	4.2727	0.	-805.57
10369	20.134	4.3636	0.	-823.82
10370	20.226	4.3636	5.e-002	-4.322
10371	20.226	4.0909	0.	-808.91
10372	20.134	4.1818	0.	-827.11
10373	20.226	4.1818	5.e-002	-4.2595
10374	20.226	3.9091	0.	-811.72
10375	20.134	4.	0.	-829.92
10376	20.226	4.	5.e-002	-4.2012
10377	20.226	3.7273	0.	-813.96
10378	20.134	3.8182	0.	-832.23
10379	20.226	3.8182	5.e-002	-4.1492
10380	20.226	3.5455	0.	-815.66
10381	20.134	3.6364	0.	-834.04
10382	20.226	3.6364	5.e-002	-4.1051
10383	20.226	3.3636	0.	-816.83
10384	20.134	3.4545	0.	-835.36
10385	20.226	3.4545	5.e-002	-4.0704
10386	20.226	3.1818	0.	-817.52
10387	20.134	3.2727	0.	-836.21
10388	20.226	3.2727	5.e-002	-4.0465
10389	20.226	3.	0.	-817.75
10390	20.134	3.0909	0.	-836.63
10391	20.226	3.0909	5.e-002	-4.0343
10392	20.226	2.8182	0.	-817.52
10393	20.134	2.9091	0.	-836.63
10394	20.226	2.9091	5.e-002	-4.0343
10395	20.226	2.6364	0.	-816.83
10396	20.134	2.7273	0.	-836.21
10397	20.226	2.7273	5.e-002	-4.0465
10398	20.226	2.4545	0.	-815.66
10399	20.134	2.5455	0.	-835.36
10400	20.226	2.5455	5.e-002	-4.0704
10401	20.226	2.2727	0.	-813.96
10402	20.134	2.3636	0.	-834.04
10403	20.226	2.3636	5.e-002	-4.1051
10404	20.226	2.0909	0.	-811.72
10405	20.134	2.1818	0.	-832.23
10406	20.226	2.1818	5.e-002	-4.1492
10407	20.226	1.9091	0.	-808.91
10408	20.134	2.	0.	-829.92
10409	20.226	2.	5.e-002	-4.2012
10410	20.226	1.7273	0.	-805.57
10411	20.134	1.8182	0.	-827.11
10412	20.226	1.8182	5.e-002	-4.2595
10413	20.226	1.5455	0.	-801.74
10414	20.134	1.6364	0.	-823.82
10415	20.226	1.6364	5.e-002	-4.322
10416	20.226	1.3636	0.	-797.54
10417	20.134	1.4545	0.	-820.14
10418	20.226	1.4545	5.e-002	-4.3864
10419	20.226	1.1818	0.	-793.08
10420	20.134	1.2727	0.	-816.17
10421	20.226	1.2727	5.e-002	-4.45
10422	20.226	1.	0.	-788.54
10423	20.134	1.0909	0.	-812.04
10424	20.226	1.0909	5.e-002	-4.5101
10425	20.226	0.81818	0.	-784.1
10426	20.134	0.90909	0.	-807.91
10427	20.226	0.90909	5.e-002	-4.5642
10428	20.226	0.63636	0.	-779.94
10429	20.134	0.72727	0.	-803.96
10430	20.226	0.72727	5.e-002	-4.6095
10431	20.226	0.45455	0.	-776.29
10432	20.134	0.54545	0.	-800.36
10433	20.226	0.54545	5.e-002	-4.6354
10434	20.226	0.27273	0.	-773.93
10435	20.134	0.36364	0.	-797.37
10436	20.226	0.36364	5.e-002	-4.501
10437	20.134	0.18182	0.	-796.4
10438	20.226	0.18182	5.e-002	-2.1676
10439	20.226	9.0909e-002	0.	-768.22
10440	20.042	5.7273	0.	-819.65
10441	19.95	5.8182	0.	-842.12
10442	20.042	5.8182	5.e-002	-1.9243
10443	20.042	5.9091	0.	-814.04
10444	20.042	5.5455	0.	-821.37
10445	19.95	5.6364	0.	-842.49
10446	20.042	5.6364	5.e-002	-4.4165
10447	20.042	5.3636	0.	-824.34
10448	19.95	5.4545	0.	-844.88
10449	20.042	5.4545	5.e-002	-4.5673
10450	20.042	5.1818	0.	-827.74
10451	19.95	5.2727	0.	-847.83
10452	20.042	5.2727	5.e-002	-4.5498
10453	20.042	5.	0.	-831.39
10454	19.95	5.0909	0.	-851.06
10455	20.042	5.0909	5.e-002	-4.514
10456	20.042	4.8182	0.	-835.11
10457	19.95	4.9091	0.	-854.43
10458	20.042	4.9091	5.e-002	-4.4712
10459	20.042	4.6364	0.	-838.76
10460	19.95	4.7273	0.	-857.81
10461	20.042	4.7273	5.e-002	-4.4237
10462	20.042	4.4545	0.	-842.2
10463	19.95	4.5455	0.	-861.07
10464	20.042	4.5455	5.e-002	-4.3737
10465	20.042	4.2727	0.	-845.35
10466	19.95	4.3636	0.	-864.09
10467	20.042	4.3636	5.e-002	-4.3233
10468	20.042	4.0909	0.	-848.1
10469	19.95	4.1818	0.	-866.79
10470	20.042	4.1818	5.e-002	-4.2744
10471	20.042	3.9091	0.	-850.43
10472	19.95	4.	0.	-869.12
10473	20.042	4.	5.e-002	-4.2289
10474	20.042	3.7273	0.	-852.3
10475	19.95	3.8182	0.	-871.05
10476	20.042	3.8182	5.e-002	-4.1884
10477	20.042	3.5455	0.	-853.73
10478	19.95	3.6364	0.	-872.56
10479	20.042	3.6364	5.e-002	-4.1543
10480	20.042	3.3636	0.	-854.72
10481	19.95	3.4545	0.	-873.67
10482	20.042	3.4545	5.e-002	-4.1276
10483	20.042	3.1818	0.	-855.31
10484	19.95	3.2727	0.	-874.4
10485	20.042	3.2727	5.e-002	-4.1092
10486	20.042	3.	0.	-855.5
10487	19.95	3.0909	0.	-874.75
10488	20.042	3.0909	5.e-002	-4.0999
10489	20.042	2.8182	0.	-855.31
10490	19.95	2.9091	0.	-874.75
10491	20.042	2.9091	5.e-002	-4.0999
10492	20.042	2.6364	0.	-854.72
10493	19.95	2.7273	0.	-874.4
10494	20.042	2.7273	5.e-002	-4.1092
10495	20.042	2.4545	0.	-853.73
10496	19.95	2.5455	0.	-873.67
10497	20.042	2.5455	5.e-002	-4.1276
10498	20.042	2.2727	0.	-852.3
10499	19.95	2.3636	0.	-872.56
10500	20.042	2.3636	5.e-002	-4.1543
10501	20.042	2.0909	0.	-850.43
10502	19.95	2.1818	0.	-871.05
10503	20.042	2.1818	5.e-002	-4.1884
10504	20.042	1.9091	0.	-848.1
10505	19.95	2.	0.	-869.12
10506	20.042	2.	5.e-002	-4.2289
10507	20.042	1.7273	0.	-845.35
10508	19.95	1.8182	0.	-866.79
10509	20.042	1.8182	5.e-002	-4.2744
10510	20.042	1.5455	0.	-842.2
10511	19.95	1.6364	0.	-864.09
10512	20.042	1.6364	5.e-002	-4.3233
10513	20.042	1.3636	0.	-838.76
10514	19.95	1.4545	0.	-861.07
10515	20.042	1.4545	5.e-002	-4.3737
10516	20.042	1.1818	0.	-835.11
10517	19.95	1.2727	0.	-857.81
10518	20.042	1.2727	5.e-002	-4.4237
10519	20.042	1.	0.	-831.39
10520	19.95	1.0909	0.	-854.43
10521	20.042	1.0909	5.e-002	-4.4712
10522	20.042	0.81818	0.	-827.74
10523	19.95	0.90909	0.	-851.06
10524	20.042	0.90909	5.e-002	-4.514
10525	20.042	0.63636	0.	-824.34
10526	19.95	0.72727	0.	-847.83
10527	20.042	0.72727	5.e-002	-4.5498
10528	20.042	0.45455	0.	-821.37
10529	19.95	0.54545	0.	-844.88
10530	20.042	0.54545	5.e-002	-4.5673
10531	20.042	0.27273	0.	-819.65
10532	19.95	0.36364	0.	-842.49
10533	20.042	0.36364	5.e-002	-4.4165
10534	19.95	0.18182	0.	-842.12
10535	20.042	0.18182	5.e-002	-1.9243
10536	20.042	9.0909e-002	0.	-814.04
10537	19.858	5.7273	0.	-864.77
10538	19.766	5.8182	0.	-887.26
10539	19.858	5.8182	5.e-002	-1.7102
10540	19.858	5.9091	0.	-859.25
10541	19.858	5.5455	0.	-865.94
10542	19.766	5.6364	0.	-887.11
10543	19.858	5.6364	5.e-002	-4.3483
10544	19.858	5.3636	0.	-868.33
10545	19.766	5.4545	0.	-889.01
10546	19.858	5.4545	5.e-002	-4.5137
10547	19.858	5.1818	0.	-871.1
10548	19.766	5.2727	0.	-891.39
10549	19.858	5.2727	5.e-002	-4.5033
10550	19.858	5.	0.	-874.08
10551	19.766	5.0909	0.	-894.02
10552	19.858	5.0909	5.e-002	-4.4756
10553	19.858	4.8182	0.	-877.12
10554	19.766	4.9091	0.	-896.77
10555	19.858	4.9091	5.e-002	-4.442
10556	19.858	4.6364	0.	-880.11
10557	19.766	4.7273	0.	-899.53
10558	19.858	4.7273	5.e-002	-4.4048
10559	19.858	4.4545	0.	-882.94
10560	19.766	4.5455	0.	-902.2
10561	19.858	4.5455	5.e-002	-4.3656
10562	19.858	4.2727	0.	-885.52
10563	19.766	4.3636	0.	-904.68
10564	19.858	4.3636	5.e-002	-4.3262
10565	19.858	4.0909	0.	-887.8
10566	19.766	4.1818	0.	-906.91
10567	19.858	4.1818	5.e-002	-4.288
10568	19.858	3.9091	0.	-889.73
10569	19.766	4.	0.	-908.84
10570	19.858	4.	5.e-002	-4.2525
10571	19.858	3.7273	0.	-891.3
10572	19.766	3.8182	0.	-910.45
10573	19.858	3.8182	5.e-002	-4.221
10574	19.858	3.5455	0.	-892.49
10575	19.766	3.6364	0.	-911.71
10576	19.858	3.6364	5.e-002	-4.1945
10577	19.858	3.3636	0.	-893.33
10578	19.766	3.4545	0.	-912.65
10579	19.858	3.4545	5.e-002	-4.1738
10580	19.858	3.1818	0.	-893.83
10581	19.766	3.2727	0.	-913.27
10582	19.858	3.2727	5.e-002	-4.1597
10583	19.858	3.	0.	-894.
10584	19.766	3.0909	0.	-913.57
10585	19.858	3.0909	5.e-002	-4.1525
10586	19.858	2.8182	0.	-893.83
10587	19.766	2.9091	0.	-913.57
10588	19.858	2.9091	5.e-002	-4.1525
10589	19.858	2.6364	0.	-893.33
10590	19.766	2.7273	0.	-913.27
10591	19.858	2.7273	5.e-002	-4.1597
10592	19.858	2.4545	0.	-892.49
10593	19.766	2.5455	0.	-912.65
10594	19.858	2.5455	5.e-002	-4.1738
10595	19.858	2.2727	0.	-891.3
10596	19.766	2.3636	0.	-911.71
10597	19.858	2.3636	5.e-002	-4.1945
10598	19.858	2.0909	0.	-889.73
10599	19.766	2.1818	0.	-910.45
10600	19.858	2.1818	5.e-002	-4.221
10601	19.858	1.9091	0.	-887.8
10602	19.766	2.	0.	-908.84
10603	19.858	2.	5.e-002	-4.2525
10604	19.858	1.7273	0.	-885.52
10605	19.766	1.8182	0.	-906.91
10606	19.858	1.8182	5.e-002	-4.288
10607	19.858	1.5455	0.	-882.94
10608	19.766	1.6364	0.	-904.68
10609	19.858	1.6364	5.e-002	-4.3262
10610	19.858	1.3636	0.	-880.11
10611	19.766	1.4545	0.	-902.2
10612	19.858	1.4545	5.e-002	-4.3656
10613	19.858	1.1818	0.	-877.12
10614	19.766	1.2727	0.	-899.53
10615	19.858	1.2727	5.e-002	-4.4048
10616	19.858	1.	0.	-874.08
10617	19.766	1.0909	0.	-896.77
10618	19.858	1.0909	5.e-002	-4.442
10619	19.858	0.81818	0.	-871.1
10620	19.766	0.90909	0.	-894.02
10621	19.858	0.90909	5.e-002	-4.4756
10622	19.858	0.63636	0.	-868.33
10623	19.766	0.72727	0.	-891.39
10624	19.858	0.72727	5.e-002	-4.5034
10625	19.858	0.45455	0.	-865.94
10626	19.766	0.54545	0.	-889.01
10627	19.858	0.54545	5.e-002	-4.5137
10628	19.858	0.27273	0.	-864.77
10629	19.766	0.36364	0.	-887.11
10630	19.858	0.36364	5.e-002	-4.3484
10631	19.766	0.18182	0.	-887.26
10632	19.858	0.18182	5.e-002	-1.7102
10633	19.858	9.0909e-002	0.	-859.25
10634	19.674	5.7273	0.	-909.42
10635	19.582	5.8182	0.	-931.96
10636	19.674	5.8182	5.e-002	-1.522
10637	19.674	5.9091	0.	-903.99
10638	19.674	5.5455	0.	-910.12
10639	19.582	5.6364	0.	-931.37
10640	19.674	5.6364	5.e-002	-4.294
10641	19.674	5.3636	0.	-912.02
10642	19.582	5.4545	0.	-932.83
10643	19.674	5.4545	5.e-002	-4.4723
10644	19.674	5.1818	0.	-914.26
10645	19.582	5.2727	0.	-934.73
10646	19.674	5.2727	5.e-002	-4.4679
10647	19.674	5.	0.	-916.68
10648	19.582	5.0909	0.	-936.86
10649	19.674	5.0909	5.e-002	-4.4466
10650	19.674	4.8182	0.	-919.16
10651	19.582	4.9091	0.	-939.1
10652	19.674	4.9091	5.e-002	-4.4206
10653	19.674	4.6364	0.	-921.6
10654	19.582	4.7273	0.	-941.35
10655	19.674	4.7273	5.e-002	-4.3916
10656	19.674	4.4545	0.	-923.93
10657	19.582	4.5455	0.	-943.53
10658	19.674	4.5455	5.e-002	-4.3611
10659	19.674	4.2727	0.	-926.05
10660	19.582	4.3636	0.	-945.57
10661	19.674	4.3636	5.e-002	-4.3303
10662	19.674	4.0909	0.	-927.94
10663	19.582	4.1818	0.	-947.41
10664	19.674	4.1818	5.e-002	-4.3006
10665	19.674	3.9091	0.	-929.54
10666	19.582	4.	0.	-949.01
10667	19.674	4.	5.e-002	-4.2729
10668	19.674	3.7273	0.	-930.85
10669	19.582	3.8182	0.	-950.34
10670	19.674	3.8182	5.e-002	-4.2484
10671	19.674	3.5455	0.	-931.85
10672	19.582	3.6364	0.	-951.41
10673	19.674	3.6364	5.e-002	-4.2278
10674	19.674	3.3636	0.	-932.57
10675	19.582	3.4545	0.	-952.2
10676	19.674	3.4545	5.e-002	-4.2117
10677	19.674	3.1818	0.	-932.99
10678	19.582	3.2727	0.	-952.72
10679	19.674	3.2727	5.e-002	-4.2007
10680	19.674	3.	0.	-933.13
10681	19.582	3.0909	0.	-952.97
10682	19.674	3.0909	5.e-002	-4.1952
10683	19.674	2.8182	0.	-932.99
10684	19.582	2.9091	0.	-952.97
10685	19.674	2.9091	5.e-002	-4.1952
10686	19.674	2.6364	0.	-932.57
10687	19.582	2.7273	0.	-952.72
10688	19.674	2.7273	5.e-002	-4.2008
10689	19.674	2.4545	0.	-931.85
10690	19.582	2.5455	0.	-952.2
10691	19.674	2.5455	5.e-002	-4.2117
10692	19.674	2.2727	0.	-930.85
10693	19.582	2.3636	0.	-951.41
10694	19.674	2.3636	5.e-002	-4.2278
10695	19.674	2.0909	0.	-929.54
10696	19.582	2.1818	0.	-950.34
10697	19.674	2.1818	5.e-002	-4.2484
10698	19.674	1.9091	0.	-927.94
10699	19.582	2.	0.	-949.01
10700	19.674	2.	5.e-002	-4.273
10701	19.674	1.7273	0.	-926.05
10702	19.582	1.8182	0.	-947.41
10703	19.674	1.8182	5.e-002	-4.3006
10704	19.674	1.5455	0.	-923.93
10705	19.582	1.6364	0.	-945.57
10706	19.674	1.6364	5.e-002	-4.3304
10707	19.674	1.3636	0.	-921.6
10708	19.582	1.4545	0.	-943.53
10709	19.674	1.4545	5.e-002	-4.3611
10710	19.674	1.1818	0.	-919.16
10711	19.582	1.2727	0.	-941.35
10712	19.674	1.2727	5.e-002	-4.3916
10713	19.674	1.	0.	-916.68
10714	19.582	1.0909	0.	-939.1
10715	19.674	1.0909	5.e-002	-4.4206
10716	19.674	0.81818	0.	-914.26
10717	19.582	0.90909	0.	-936.86
10718	19.674	0.90909	5.e-002	-4.4467
10719	19.674	0.63636	0.	-912.02
10720	19.582	0.72727	0.	-934.73
10721	19.674	0.72727	5.e-002	-4.4679
10722	19.674	0.45455	0.	-910.12
10723	19.582	0.54545	0.	-932.83
10724	19.674	0.54545	5.e-002	-4.4723
10725	19.674	0.27273	0.	-909.42
10726	19.582	0.36364	0.	-931.37
10727	19.674	0.36364	5.e-002	-4.2941
10728	19.582	0.18182	0.	-931.96
10729	19.674	0.18182	5.e-002	-1.522
10730	19.674	9.0909e-002	0.	-903.99
10731	19.49	5.7273	0.	-953.73
10732	19.398	5.8182	0.	-976.33
10733	19.49	5.8182	5.e-002	-1.3563
10734	19.49	5.9091	0.	-948.38
10735	19.49	5.5455	0.	-954.02
10736	19.398	5.6364	0.	-975.35
10737	19.49	5.6364	5.e-002	-4.2514
10738	19.49	5.3636	0.	-955.5
10739	19.398	5.4545	0.	-976.45
10740	19.49	5.4545	5.e-002	-4.441
10741	19.49	5.1818	0.	-957.29
10742	19.398	5.2727	0.	-977.95
10743	19.49	5.2727	5.e-002	-4.4414
10744	19.49	5.	0.	-959.24
10745	19.398	5.0909	0.	-979.65
10746	19.49	5.0909	5.e-002	-4.4255
10747	19.49	4.8182	0.	-961.26
10748	19.398	4.9091	0.	-981.45
10749	19.49	4.9091	5.e-002	-4.4055
10750	19.49	4.6364	0.	-963.25
10751	19.398	4.7273	0.	-983.28
10752	19.49	4.7273	5.e-002	-4.3831
10753	19.49	4.4545	0.	-965.15
10754	19.398	4.5455	0.	-985.06
10755	19.49	4.5455	5.e-002	-4.3595
10756	19.49	4.2727	0.	-966.91
10757	19.398	4.3636	0.	-986.73
10758	19.49	4.3636	5.e-002	-4.3356
10759	19.49	4.0909	0.	-968.46
10760	19.398	4.1818	0.	-988.25
10761	19.49	4.1818	5.e-002	-4.3124
10762	19.49	3.9091	0.	-969.79
10763	19.398	4.	0.	-989.57
10764	19.49	4.	5.e-002	-4.2909
10765	19.49	3.7273	0.	-970.88
10766	19.398	3.8182	0.	-990.68
10767	19.49	3.8182	5.e-002	-4.2718
10768	19.49	3.5455	0.	-971.73
10769	19.398	3.6364	0.	-991.57
10770	19.49	3.6364	5.e-002	-4.2558
10771	19.49	3.3636	0.	-972.33
10772	19.398	3.4545	0.	-992.23
10773	19.49	3.4545	5.e-002	-4.2433
10774	19.49	3.1818	0.	-972.69
10775	19.398	3.2727	0.	-992.67
10776	19.49	3.2727	5.e-002	-4.2348
10777	19.49	3.	0.	-972.8
10778	19.398	3.0909	0.	-992.89
10779	19.49	3.0909	5.e-002	-4.2304
10780	19.49	2.8182	0.	-972.69
10781	19.398	2.9091	0.	-992.89
10782	19.49	2.9091	5.e-002	-4.2304
10783	19.49	2.6364	0.	-972.33
10784	19.398	2.7273	0.	-992.67
10785	19.49	2.7273	5.e-002	-4.2348
10786	19.49	2.4545	0.	-971.73
10787	19.398	2.5455	0.	-992.23
10788	19.49	2.5455	5.e-002	-4.2433
10789	19.49	2.2727	0.	-970.88
10790	19.398	2.3636	0.	-991.57
10791	19.49	2.3636	5.e-002	-4.2558
10792	19.49	2.0909	0.	-969.79
10793	19.398	2.1818	0.	-990.68
10794	19.49	2.1818	5.e-002	-4.2718
10795	19.49	1.9091	0.	-968.46
10796	19.398	2.	0.	-989.57
10797	19.49	2.	5.e-002	-4.2909
10798	19.49	1.7273	0.	-966.91
10799	19.398	1.8182	0.	-988.25
10800	19.49	1.8182	5.e-002	-4.3124
10801	19.49	1.5455	0.	-965.15
10802	19.398	1.6364	0.	-986.73
10803	19.49	1.6364	5.e-002	-4.3356
10804	19.49	1.3636	0.	-963.25
10805	19.398	1.4545	0.	-985.06
10806	19.49	1.4545	5.e-002	-4.3595
10807	19.49	1.1818	0.	-961.26
10808	19.398	1.2727	0.	-983.28
10809	19.49	1.2727	5.e-002	-4.3831
10810	19.49	1.	0.	-959.24
10811	19.398	1.0909	0.	-981.45
10812	19.49	1.0909	5.e-002	-4.4055
10813	19.49	0.81818	0.	-957.29
10814	19.398	0.90909	0.	-979.64
10815	19.49	0.90909	5.e-002	-4.4256
10816	19.49	0.63636	0.	-955.5
10817	19.398	0.72727	0.	-977.95
10818	19.49	0.72727	5.e-002	-4.4415
10819	19.49	0.45455	0.	-954.02
10820	19.398	0.54545	0.	-976.45
10821	19.49	0.54545	5.e-002	-4.4411
10822	19.49	0.27273	0.	-953.73
10823	19.398	0.36364	0.	-975.35
10824	19.49	0.36364	5.e-002	-4.2514
10825	19.398	0.18182	0.	-976.33
10826	19.49	0.18182	5.e-002	-1.3563
10827	19.49	9.0909e-002	0.	-948.38
10828	19.306	5.7273	0.	-997.77
10829	19.215	5.8182	0.	-1020.4
10830	19.306	5.8182	5.e-002	-1.2102
10831	19.306	5.9091	0.	-992.5
10832	19.306	5.5455	0.	-997.72
10833	19.215	5.6364	0.	-1019.1
10834	19.306	5.6364	5.e-002	-4.2185
10835	19.306	5.3636	0.	-998.84
10836	19.215	5.4545	0.	-1019.9
10837	19.306	5.4545	5.e-002	-4.4181
10838	19.306	5.1818	0.	-1000.3
10839	19.215	5.2727	0.	-1021.1
10840	19.306	5.2727	5.e-002	-4.4225
10841	19.306	5.	0.	-1001.8
10842	19.215	5.0909	0.	-1022.4
10843	19.306	5.0909	5.e-002	-4.4108
10844	19.306	4.8182	0.	-1003.4
10845	19.215	4.9091	0.	-1023.9
10846	19.306	4.9091	5.e-002	-4.3956
10847	19.306	4.6364	0.	-1005.1
10848	19.215	4.7273	0.	-1025.3
10849	19.306	4.7273	5.e-002	-4.3784
10850	19.306	4.4545	0.	-1006.6
10851	19.215	4.5455	0.	-1026.8
10852	19.306	4.5455	5.e-002	-4.3601
10853	19.306	4.2727	0.	-1008.
10854	19.215	4.3636	0.	-1028.1
10855	19.306	4.3636	5.e-002	-4.3417
10856	19.306	4.0909	0.	-1009.3
10857	19.215	4.1818	0.	-1029.4
10858	19.306	4.1818	5.e-002	-4.3237
10859	19.306	3.9091	0.	-1010.4
10860	19.215	4.	0.	-1030.5
10861	19.306	4.	5.e-002	-4.307
10862	19.306	3.7273	0.	-1011.3
10863	19.215	3.8182	0.	-1031.4
10864	19.306	3.8182	5.e-002	-4.2922
10865	19.306	3.5455	0.	-1012.1
10866	19.215	3.6364	0.	-1032.1
10867	19.306	3.6364	5.e-002	-4.2798
10868	19.306	3.3636	0.	-1012.6
10869	19.215	3.4545	0.	-1032.7
10870	19.306	3.4545	5.e-002	-4.2701
10871	19.306	3.1818	0.	-1012.9
10872	19.215	3.2727	0.	-1033.1
10873	19.306	3.2727	5.e-002	-4.2634
10874	19.306	3.	0.	-1013.
10875	19.215	3.0909	0.	-1033.3
10876	19.306	3.0909	5.e-002	-4.2601
10877	19.306	2.8182	0.	-1012.9
10878	19.215	2.9091	0.	-1033.3
10879	19.306	2.9091	5.e-002	-4.2601
10880	19.306	2.6364	0.	-1012.6
10881	19.215	2.7273	0.	-1033.1
10882	19.306	2.7273	5.e-002	-4.2634
10883	19.306	2.4545	0.	-1012.1
10884	19.215	2.5455	0.	-1032.7
10885	19.306	2.5455	5.e-002	-4.2701
10886	19.306	2.2727	0.	-1011.3
10887	19.215	2.3636	0.	-1032.1
10888	19.306	2.3636	5.e-002	-4.2798
10889	19.306	2.0909	0.	-1010.4
10890	19.215	2.1818	0.	-1031.4
10891	19.306	2.1818	5.e-002	-4.2922
10892	19.306	1.9091	0.	-1009.3
10893	19.215	2.	0.	-1030.5
10894	19.306	2.	5.e-002	-4.3071
10895	19.306	1.7273	0.	-1008.
10896	19.215	1.8182	0.	-1029.4
10897	19.306	1.8182	5.e-002	-4.3237
10898	19.306	1.5455	0.	-1006.6
10899	19.215	1.6364	0.	-1028.1
10900	19.306	1.6364	5.e-002	-4.3417
10901	19.306	1.3636	0.	-1005.1
10902	19.215	1.4545	0.	-1026.8
10903	19.306	1.4545	5.e-002	-4.3602
10904	19.306	1.1818	0.	-1003.4
10905	19.215	1.2727	0.	-1025.3
10906	19.306	1.2727	5.e-002	-4.3784
10907	19.306	1.	0.	-1001.8
10908	19.215	1.0909	0.	-1023.9
10909	19.306	1.0909	5.e-002	-4.3956
10910	19.306	0.81818	0.	-1000.3
10911	19.215	0.90909	0.	-1022.4
10912	19.306	0.90909	5.e-002	-4.4108
10913	19.306	0.63636	0.	-998.84
10914	19.215	0.72727	0.	-1021.1
10915	19.306	0.72727	5.e-002	-4.4225
10916	19.306	0.45455	0.	-997.72
10917	19.215	0.54545	0.	-1019.9
10918	19.306	0.54545	5.e-002	-4.4182
10919	19.306	0.27273	0.	-997.77
10920	19.215	0.36364	0.	-1019.1
10921	19.306	0.36364	5.e-002	-4.2185
10922	19.215	0.18182	0.	-1020.4
10923	19.306	0.18182	5.e-002	-1.2102
10924	19.306	9.0909e-002	0.	-992.5
10925	19.123	5.7273	0.	-1041.6
10926	19.031	5.8182	0.	-1064.4
10927	19.123	5.8182	5.e-002	-1.0812
10928	19.123	5.9091	0.	-1036.4
10929	19.123	5.5455	0.	-1041.3
10930	19.031	5.6364	0.	-1062.8
10931	19.123	5.6364	5.e-002	-4.1936
10932	19.123	5.3636	0.	-1042.1
10933	19.031	5.4545	0.	-1063.3
10934	19.123	5.4545	5.e-002	-4.4021
10935	19.123	5.1818	0.	-1043.2
10936	19.031	5.2727	0.	-1064.2
10937	19.123	5.2727	5.e-002	-4.4096
10938	19.123	5.	0.	-1044.4
10939	19.031	5.0909	0.	-1065.2
10940	19.123	5.0909	5.e-002	-4.4012
10941	19.123	4.8182	0.	-1045.7
10942	19.031	4.9091	0.	-1066.4
10943	19.123	4.9091	5.e-002	-4.3898
10944	19.123	4.6364	0.	-1047.
10945	19.031	4.7273	0.	-1067.5
10946	19.123	4.7273	5.e-002	-4.3768
10947	19.123	4.4545	0.	-1048.3
10948	19.031	4.5455	0.	-1068.7
10949	19.123	4.5455	5.e-002	-4.3628
10950	19.123	4.2727	0.	-1049.5
10951	19.031	4.3636	0.	-1069.8
10952	19.123	4.3636	5.e-002	-4.3486
10953	19.123	4.0909	0.	-1050.5
10954	19.031	4.1818	0.	-1070.8
10955	19.123	4.1818	5.e-002	-4.3348
10956	19.123	3.9091	0.	-1051.4
10957	19.031	4.	0.	-1071.7
10958	19.123	4.	5.e-002	-4.3219
10959	19.123	3.7273	0.	-1052.2
10960	19.031	3.8182	0.	-1072.5
10961	19.123	3.8182	5.e-002	-4.3104
10962	19.123	3.5455	0.	-1052.8
10963	19.031	3.6364	0.	-1073.1
10964	19.123	3.6364	5.e-002	-4.3007
10965	19.123	3.3636	0.	-1053.2
10966	19.031	3.4545	0.	-1073.6
10967	19.123	3.4545	5.e-002	-4.2932
10968	19.123	3.1818	0.	-1053.5
10969	19.031	3.2727	0.	-1073.9
10970	19.123	3.2727	5.e-002	-4.288
10971	19.123	3.	0.	-1053.5
10972	19.031	3.0909	0.	-1074.
10973	19.123	3.0909	5.e-002	-4.2854
10974	19.123	2.8182	0.	-1053.5
10975	19.031	2.9091	0.	-1074.
10976	19.123	2.9091	5.e-002	-4.2854
10977	19.123	2.6364	0.	-1053.2
10978	19.031	2.7273	0.	-1073.9
10979	19.123	2.7273	5.e-002	-4.288
10980	19.123	2.4545	0.	-1052.8
10981	19.031	2.5455	0.	-1073.6
10982	19.123	2.5455	5.e-002	-4.2932
10983	19.123	2.2727	0.	-1052.2
10984	19.031	2.3636	0.	-1073.1
10985	19.123	2.3636	5.e-002	-4.3007
10986	19.123	2.0909	0.	-1051.4
10987	19.031	2.1818	0.	-1072.5
10988	19.123	2.1818	5.e-002	-4.3104
10989	19.123	1.9091	0.	-1050.5
10990	19.031	2.	0.	-1071.7
10991	19.123	2.	5.e-002	-4.3219
10992	19.123	1.7273	0.	-1049.5
10993	19.031	1.8182	0.	-1070.8
10994	19.123	1.8182	5.e-002	-4.3348
10995	19.123	1.5455	0.	-1048.3
10996	19.031	1.6364	0.	-1069.8
10997	19.123	1.6364	5.e-002	-4.3486
10998	19.123	1.3636	0.	-1047.
10999	19.031	1.4545	0.	-1068.7
11000	19.123	1.4545	5.e-002	-4.3628
11001	19.123	1.1818	0.	-1045.7
11002	19.031	1.2727	0.	-1067.5
11003	19.123	1.2727	5.e-002	-4.3768
11004	19.123	1.	0.	-1044.4
11005	19.031	1.0909	0.	-1066.4
11006	19.123	1.0909	5.e-002	-4.3898
11007	19.123	0.81818	0.	-1043.2
11008	19.031	0.90909	0.	-1065.2
11009	19.123	0.90909	5.e-002	-4.4013
11010	19.123	0.63636	0.	-1042.1
11011	19.031	0.72727	0.	-1064.2
11012	19.123	0.72727	5.e-002	-4.4096
11013	19.123	0.45455	0.	-1041.3
11014	19.031	0.54545	0.	-1063.3
11015	19.123	0.54545	5.e-002	-4.4021
11016	19.123	0.27273	0.	-1041.6
11017	19.031	0.36364	0.	-1062.8
11018	19.123	0.36364	5.e-002	-4.1937
11019	19.031	0.18182	0.	-1064.4
11020	19.123	0.18182	5.e-002	-1.0813
11021	19.123	9.0909e-002	0.	-1036.4
11022	18.939	5.7273	0.	-1085.4
11023	18.847	5.8182	0.	-1108.2
11024	18.939	5.8182	5.e-002	-0.96714
11025	18.939	5.9091	0.	-1080.3
11026	18.939	5.5455	0.	-1084.8
11027	18.847	5.6364	0.	-1106.4
11028	18.939	5.6364	5.e-002	-4.1755
11029	18.939	5.3636	0.	-1085.4
11030	18.847	5.4545	0.	-1106.7
11031	18.939	5.4545	5.e-002	-4.3918
11032	18.939	5.1818	0.	-1086.2
11033	18.847	5.2727	0.	-1107.3
11034	18.939	5.2727	5.e-002	-4.4018
11035	18.939	5.	0.	-1087.1
11036	18.847	5.0909	0.	-1108.1
11037	18.939	5.0909	5.e-002	-4.3961
11038	18.939	4.8182	0.	-1088.1
11039	18.847	4.9091	0.	-1109.
11040	18.939	4.9091	5.e-002	-4.3876
11041	18.939	4.6364	0.	-1089.2
11042	18.847	4.7273	0.	-1109.9
11043	18.939	4.7273	5.e-002	-4.3778
11044	18.939	4.4545	0.	-1090.2
11045	18.847	4.5455	0.	-1110.8
11046	18.939	4.5455	5.e-002	-4.3672
11047	18.939	4.2727	0.	-1091.1
11048	18.847	4.3636	0.	-1111.7
11049	18.939	4.3636	5.e-002	-4.3564
11050	18.939	4.0909	0.	-1092.
11051	18.847	4.1818	0.	-1112.5
11052	18.939	4.1818	5.e-002	-4.3457
11053	18.939	3.9091	0.	-1092.7
11054	18.847	4.	0.	-1113.3
11055	18.939	4.	5.e-002	-4.3358
11056	18.939	3.7273	0.	-1093.4
11057	18.847	3.8182	0.	-1113.9
11058	18.939	3.8182	5.e-002	-4.327
11059	18.939	3.5455	0.	-1093.9
11060	18.847	3.6364	0.	-1114.4
11061	18.939	3.6364	5.e-002	-4.3195
11062	18.939	3.3636	0.	-1094.2
11063	18.847	3.4545	0.	-1114.8
11064	18.939	3.4545	5.e-002	-4.3137
11065	18.939	3.1818	0.	-1094.4
11066	18.847	3.2727	0.	-1115.
11067	18.939	3.2727	5.e-002	-4.3097
11068	18.939	3.	0.	-1094.5
11069	18.847	3.0909	0.	-1115.2
11070	18.939	3.0909	5.e-002	-4.3077
11071	18.939	2.8182	0.	-1094.4
11072	18.847	2.9091	0.	-1115.2
11073	18.939	2.9091	5.e-002	-4.3077
11074	18.939	2.6364	0.	-1094.2
11075	18.847	2.7273	0.	-1115.
11076	18.939	2.7273	5.e-002	-4.3097
11077	18.939	2.4545	0.	-1093.9
11078	18.847	2.5455	0.	-1114.8
11079	18.939	2.5455	5.e-002	-4.3137
11080	18.939	2.2727	0.	-1093.4
11081	18.847	2.3636	0.	-1114.4
11082	18.939	2.3636	5.e-002	-4.3195
11083	18.939	2.0909	0.	-1092.7
11084	18.847	2.1818	0.	-1113.9
11085	18.939	2.1818	5.e-002	-4.327
11086	18.939	1.9091	0.	-1092.
11087	18.847	2.	0.	-1113.3
11088	18.939	2.	5.e-002	-4.3358
11089	18.939	1.7273	0.	-1091.1
11090	18.847	1.8182	0.	-1112.5
11091	18.939	1.8182	5.e-002	-4.3458
11092	18.939	1.5455	0.	-1090.2
11093	18.847	1.6364	0.	-1111.7
11094	18.939	1.6364	5.e-002	-4.3564
11095	18.939	1.3636	0.	-1089.2
11096	18.847	1.4545	0.	-1110.8
11097	18.939	1.4545	5.e-002	-4.3672
11098	18.939	1.1818	0.	-1088.1
11099	18.847	1.2727	0.	-1109.9
11100	18.939	1.2727	5.e-002	-4.3778
11101	18.939	1.	0.	-1087.1
11102	18.847	1.0909	0.	-1109.
11103	18.939	1.0909	5.e-002	-4.3876
11104	18.939	0.81818	0.	-1086.2
11105	18.847	0.90909	0.	-1108.1
11106	18.939	0.90909	5.e-002	-4.3961
11107	18.939	0.63636	0.	-1085.4
11108	18.847	0.72727	0.	-1107.3
11109	18.939	0.72727	5.e-002	-4.4018
11110	18.939	0.45455	0.	-1084.8
11111	18.847	0.54545	0.	-1106.7
11112	18.939	0.54545	5.e-002	-4.3918
11113	18.939	0.27273	0.	-1085.4
11114	18.847	0.36364	0.	-1106.4
11115	18.939	0.36364	5.e-002	-4.1755
11116	18.847	0.18182	0.	-1108.2
11117	18.939	0.18182	5.e-002	-0.96715
11118	18.939	9.0909e-002	0.	-1080.3
11119	18.755	5.7273	0.	-1129.1
11120	18.663	5.8182	0.	-1152.
11121	18.755	5.8182	5.e-002	-0.86606
11122	18.755	5.9091	0.	-1124.
11123	18.755	5.5455	0.	-1128.3
11124	18.663	5.6364	0.	-1150.
11125	18.755	5.6364	5.e-002	-4.163
11126	18.755	5.3636	0.	-1128.6
11127	18.663	5.4545	0.	-1150.1
11128	18.755	5.4545	5.e-002	-4.3863
11129	18.755	5.1818	0.	-1129.2
11130	18.663	5.2727	0.	-1150.5
11131	18.755	5.2727	5.e-002	-4.3982
11132	18.755	5.	0.	-1129.9
11133	18.663	5.0909	0.	-1151.
11134	18.755	5.0909	5.e-002	-4.3945
11135	18.755	4.8182	0.	-1130.7
11136	18.663	4.9091	0.	-1151.7
11137	18.755	4.9091	5.e-002	-4.3884
11138	18.755	4.6364	0.	-1131.5
11139	18.663	4.7273	0.	-1152.4
11140	18.755	4.7273	5.e-002	-4.3811
11141	18.755	4.4545	0.	-1132.3
11142	18.663	4.5455	0.	-1153.1
11143	18.755	4.5455	5.e-002	-4.3732
11144	18.755	4.2727	0.	-1133.1
11145	18.663	4.3636	0.	-1153.8
11146	18.755	4.3636	5.e-002	-4.365
11147	18.755	4.0909	0.	-1133.8
11148	18.663	4.1818	0.	-1154.5
11149	18.755	4.1818	5.e-002	-4.3569
11150	18.755	3.9091	0.	-1134.4
11151	18.663	4.	0.	-1155.1
11152	18.755	4.	5.e-002	-4.3493
11153	18.755	3.7273	0.	-1134.9
11154	18.663	3.8182	0.	-1155.6
11155	18.755	3.8182	5.e-002	-4.3425
11156	18.755	3.5455	0.	-1135.3
11157	18.663	3.6364	0.	-1156.
11158	18.755	3.6364	5.e-002	-4.3367
11159	18.755	3.3636	0.	-1135.6
11160	18.663	3.4545	0.	-1156.3
11161	18.755	3.4545	5.e-002	-4.3323
11162	18.755	3.1818	0.	-1135.7
11163	18.663	3.2727	0.	-1156.5
11164	18.755	3.2727	5.e-002	-4.3292
11165	18.755	3.	0.	-1135.8
11166	18.663	3.0909	0.	-1156.6
11167	18.755	3.0909	5.e-002	-4.3276
11168	18.755	2.8182	0.	-1135.7
11169	18.663	2.9091	0.	-1156.6
11170	18.755	2.9091	5.e-002	-4.3276
11171	18.755	2.6364	0.	-1135.6
11172	18.663	2.7273	0.	-1156.5
11173	18.755	2.7273	5.e-002	-4.3292
11174	18.755	2.4545	0.	-1135.3
11175	18.663	2.5455	0.	-1156.3
11176	18.755	2.5455	5.e-002	-4.3323
11177	18.755	2.2727	0.	-1134.9
11178	18.663	2.3636	0.	-1156.
11179	18.755	2.3636	5.e-002	-4.3368
11180	18.755	2.0909	0.	-1134.4
11181	18.663	2.1818	0.	-1155.6
11182	18.755	2.1818	5.e-002	-4.3425
11183	18.755	1.9091	0.	-1133.8
11184	18.663	2.	0.	-1155.1
11185	18.755	2.	5.e-002	-4.3493
11186	18.755	1.7273	0.	-1133.1
11187	18.663	1.8182	0.	-1154.5
11188	18.755	1.8182	5.e-002	-4.3569
11189	18.755	1.5455	0.	-1132.3
11190	18.663	1.6364	0.	-1153.8
11191	18.755	1.6364	5.e-002	-4.365
11192	18.755	1.3636	0.	-1131.5
11193	18.663	1.4545	0.	-1153.1
11194	18.755	1.4545	5.e-002	-4.3732
11195	18.755	1.1818	0.	-1130.7
11196	18.663	1.2727	0.	-1152.4
11197	18.755	1.2727	5.e-002	-4.3811
11198	18.755	1.	0.	-1129.9
11199	18.663	1.0909	0.	-1151.7
11200	18.755	1.0909	5.e-002	-4.3884
11201	18.755	0.81818	0.	-1129.2
11202	18.663	0.90909	0.	-1151.
11203	18.755	0.90909	5.e-002	-4.3945
11204	18.755	0.63636	0.	-1128.6
11205	18.663	0.72727	0.	-1150.5
11206	18.755	0.72727	5.e-002	-4.3982
11207	18.755	0.45455	0.	-1128.3
11208	18.663	0.54545	0.	-1150.1
11209	18.755	0.54545	5.e-002	-4.3863
11210	18.755	0.27273	0.	-1129.1
11211	18.663	0.36364	0.	-1150.
11212	18.755	0.36364	5.e-002	-4.163
11213	18.663	0.18182	0.	-1152.
11214	18.755	0.18182	5.e-002	-0.86608
11215	18.755	9.0909e-002	0.	-1124.
11216	18.571	5.7273	0.	-1172.7
11217	18.479	5.8182	0.	-1195.8
11218	18.571	5.8182	5.e-002	-0.77636
11219	18.571	5.9091	0.	-1167.7
11220	18.571	5.5455	0.	-1171.7
11221	18.479	5.6364	0.	-1193.6
11222	18.571	5.6364	5.e-002	-4.155
11223	18.571	5.3636	0.	-1171.9
11224	18.479	5.4545	0.	-1193.5
11225	18.571	5.4545	5.e-002	-4.3846
11226	18.571	5.1818	0.	-1172.3
11227	18.479	5.2727	0.	-1193.7
11228	18.571	5.2727	5.e-002	-4.3981
11229	18.571	5.	0.	-1172.8
11230	18.479	5.0909	0.	-1194.1
11231	18.571	5.0909	5.e-002	-4.396
11232	18.571	4.8182	0.	-1173.4
11233	18.479	4.9091	0.	-1194.5
11234	18.571	4.9091	5.e-002	-4.3917
11235	18.571	4.6364	0.	-1174.
11236	18.479	4.7273	0.	-1195.1
11237	18.571	4.7273	5.e-002	-4.3864
11238	18.571	4.4545	0.	-1174.6
11239	18.479	4.5455	0.	-1195.6
11240	18.571	4.5455	5.e-002	-4.3805
11241	18.571	4.2727	0.	-1175.2
11242	18.479	4.3636	0.	-1196.2
11243	18.571	4.3636	5.e-002	-4.3743
11244	18.571	4.0909	0.	-1175.8
11245	18.479	4.1818	0.	-1196.7
11246	18.571	4.1818	5.e-002	-4.3682
11247	18.571	3.9091	0.	-1176.3
11248	18.479	4.	0.	-1197.1
11249	18.571	4.	5.e-002	-4.3625
11250	18.571	3.7273	0.	-1176.7
11251	18.479	3.8182	0.	-1197.5
11252	18.571	3.8182	5.e-002	-4.3573
11253	18.571	3.5455	0.	-1177.
11254	18.479	3.6364	0.	-1197.9
11255	18.571	3.6364	5.e-002	-4.3529
11256	18.571	3.3636	0.	-1177.2
11257	18.479	3.4545	0.	-1198.1
11258	18.571	3.4545	5.e-002	-4.3495
11259	18.571	3.1818	0.	-1177.4
11260	18.479	3.2727	0.	-1198.3
11261	18.571	3.2727	5.e-002	-4.3471
11262	18.571	3.	0.	-1177.4
11263	18.479	3.0909	0.	-1198.4
11264	18.571	3.0909	5.e-002	-4.3459
11265	18.571	2.8182	0.	-1177.4
11266	18.479	2.9091	0.	-1198.4
11267	18.571	2.9091	5.e-002	-4.3459
11268	18.571	2.6364	0.	-1177.2
11269	18.479	2.7273	0.	-1198.3
11270	18.571	2.7273	5.e-002	-4.3471
11271	18.571	2.4545	0.	-1177.
11272	18.479	2.5455	0.	-1198.1
11273	18.571	2.5455	5.e-002	-4.3495
11274	18.571	2.2727	0.	-1176.7
11275	18.479	2.3636	0.	-1197.9
11276	18.571	2.3636	5.e-002	-4.3529
11277	18.571	2.0909	0.	-1176.3
11278	18.479	2.1818	0.	-1197.5
11279	18.571	2.1818	5.e-002	-4.3573
11280	18.571	1.9091	0.	-1175.8
11281	18.479	2.	0.	-1197.1
11282	18.571	2.	5.e-002	-4.3625
11283	18.571	1.7273	0.	-1175.2
11284	18.479	1.8182	0.	-1196.7
11285	18.571	1.8182	5.e-002	-4.3683
11286	18.571	1.5455	0.	-1174.6
11287	18.479	1.6364	0.	-1196.2
11288	18.571	1.6364	5.e-002	-4.3744
11289	18.571	1.3636	0.	-1174.
11290	18.479	1.4545	0.	-1195.6
11291	18.571	1.4545	5.e-002	-4.3805
11292	18.571	1.1818	0.	-1173.4
11293	18.479	1.2727	0.	-1195.1
11294	18.571	1.2727	5.e-002	-4.3864
11295	18.571	1.	0.	-1172.8
11296	18.479	1.0909	0.	-1194.5
11297	18.571	1.0909	5.e-002	-4.3917
11298	18.571	0.81818	0.	-1172.3
11299	18.479	0.90909	0.	-1194.1
11300	18.571	0.90909	5.e-002	-4.396
11301	18.571	0.63636	0.	-1171.9
11302	18.479	0.72727	0.	-1193.7
11303	18.571	0.72727	5.e-002	-4.3981
11304	18.571	0.45455	0.	-1171.7
11305	18.479	0.54545	0.	-1193.5
11306	18.571	0.54545	5.e-002	-4.3846
11307	18.571	0.27273	0.	-1172.7
11308	18.479	0.36364	0.	-1193.6
11309	18.571	0.36364	5.e-002	-4.155
11310	18.479	0.18182	0.	-1195.8
11311	18.571	0.18182	5.e-002	-0.77637
11312	18.571	9.0909e-002	0.	-1167.7
11313	18.387	5.7273	0.	-1216.4
11314	18.295	5.8182	0.	-1239.5
11315	18.387	5.8182	5.e-002	-0.69662
11316	18.387	5.9091	0.	-1211.5
11317	18.387	5.5455	0.	-1215.3
11318	18.295	5.6364	0.	-1237.2
11319	18.387	5.6364	5.e-002	-4.1509
11320	18.387	5.3636	0.	-1215.2
11321	18.295	5.4545	0.	-1237.
11322	18.387	5.4545	5.e-002	-4.3861
11323	18.387	5.1818	0.	-1215.5
11324	18.295	5.2727	0.	-1237.
11325	18.387	5.2727	5.e-002	-4.4008
11326	18.387	5.	0.	-1215.8
11327	18.295	5.0909	0.	-1237.2
11328	18.387	5.0909	5.e-002	-4.3999
11329	18.387	4.8182	0.	-1216.2
11330	18.295	4.9091	0.	-1237.5
11331	18.387	4.9091	5.e-002	-4.397
11332	18.387	4.6364	0.	-1216.7
11333	18.295	4.7273	0.	-1237.9
11334	18.387	4.7273	5.e-002	-4.3933
11335	18.387	4.4545	0.	-1217.1
11336	18.295	4.5455	0.	-1238.3
11337	18.387	4.5455	5.e-002	-4.389
11338	18.387	4.2727	0.	-1217.6
11339	18.295	4.3636	0.	-1238.7
11340	18.387	4.3636	5.e-002	-4.3844
11341	18.387	4.0909	0.	-1218.
11342	18.295	4.1818	0.	-1239.1
11343	18.387	4.1818	5.e-002	-4.3799
11344	18.387	3.9091	0.	-1218.4
11345	18.295	4.	0.	-1239.5
11346	18.387	4.	5.e-002	-4.3756
11347	18.387	3.7273	0.	-1218.7
11348	18.295	3.8182	0.	-1239.8
11349	18.387	3.8182	5.e-002	-4.3717
11350	18.387	3.5455	0.	-1219.
11351	18.295	3.6364	0.	-1240.
11352	18.387	3.6364	5.e-002	-4.3683
11353	18.387	3.3636	0.	-1219.2
11354	18.295	3.4545	0.	-1240.2
11355	18.387	3.4545	5.e-002	-4.3657
11356	18.387	3.1818	0.	-1219.3
11357	18.295	3.2727	0.	-1240.4
11358	18.387	3.2727	5.e-002	-4.3639
11359	18.387	3.	0.	-1219.3
11360	18.295	3.0909	0.	-1240.5
11361	18.387	3.0909	5.e-002	-4.363
11362	18.387	2.8182	0.	-1219.3
11363	18.295	2.9091	0.	-1240.5
11364	18.387	2.9091	5.e-002	-4.363
11365	18.387	2.6364	0.	-1219.2
11366	18.295	2.7273	0.	-1240.4
11367	18.387	2.7273	5.e-002	-4.3639
11368	18.387	2.4545	0.	-1219.
11369	18.295	2.5455	0.	-1240.2
11370	18.387	2.5455	5.e-002	-4.3657
11371	18.387	2.2727	0.	-1218.7
11372	18.295	2.3636	0.	-1240.
11373	18.387	2.3636	5.e-002	-4.3683
11374	18.387	2.0909	0.	-1218.4
11375	18.295	2.1818	0.	-1239.8
11376	18.387	2.1818	5.e-002	-4.3717
11377	18.387	1.9091	0.	-1218.
11378	18.295	2.	0.	-1239.5
11379	18.387	2.	5.e-002	-4.3756
11380	18.387	1.7273	0.	-1217.6
11381	18.295	1.8182	0.	-1239.1
11382	18.387	1.8182	5.e-002	-4.3799
11383	18.387	1.5455	0.	-1217.1
11384	18.295	1.6364	0.	-1238.7
11385	18.387	1.6364	5.e-002	-4.3844
11386	18.387	1.3636	0.	-1216.7
11387	18.295	1.4545	0.	-1238.3
11388	18.387	1.4545	5.e-002	-4.389
11389	18.387	1.1818	0.	-1216.2
11390	18.295	1.2727	0.	-1237.9
11391	18.387	1.2727	5.e-002	-4.3933
11392	18.387	1.	0.	-1215.8
11393	18.295	1.0909	0.	-1237.5
11394	18.387	1.0909	5.e-002	-4.397
11395	18.387	0.81818	0.	-1215.5
11396	18.295	0.90909	0.	-1237.2
11397	18.387	0.90909	5.e-002	-4.3999
11398	18.387	0.63636	0.	-1215.2
11399	18.295	0.72727	0.	-1237.
11400	18.387	0.72727	5.e-002	-4.4008
11401	18.387	0.45455	0.	-1215.3
11402	18.295	0.54545	0.	-1237.
11403	18.387	0.54545	5.e-002	-4.3861
11404	18.387	0.27273	0.	-1216.4
11405	18.295	0.36364	0.	-1237.2
11406	18.387	0.36364	5.e-002	-4.1509
11407	18.295	0.18182	0.	-1239.5
11408	18.387	0.18182	5.e-002	-0.69663
11409	18.387	9.0909e-002	0.	-1211.5
11410	18.203	5.7273	0.	-1260.1
11411	18.111	5.8182	0.	-1283.3
11412	18.203	5.8182	5.e-002	-0.62573
11413	18.203	5.9091	0.	-1255.3
11414	18.203	5.5455	0.	-1258.8
11415	18.111	5.6364	0.	-1280.9
11416	18.203	5.6364	5.e-002	-4.1499
11417	18.203	5.3636	0.	-1258.7
11418	18.111	5.4545	0.	-1280.5
11419	18.203	5.4545	5.e-002	-4.3902
11420	18.203	5.1818	0.	-1258.7
11421	18.111	5.2727	0.	-1280.4
11422	18.203	5.2727	5.e-002	-4.4059
11423	18.203	5.	0.	-1258.9
11424	18.111	5.0909	0.	-1280.5
11425	18.203	5.0909	5.e-002	-4.406
11426	18.203	4.8182	0.	-1259.2
11427	18.111	4.9091	0.	-1280.7
11428	18.203	4.9091	5.e-002	-4.4041
11429	18.203	4.6364	0.	-1259.5
11430	18.111	4.7273	0.	-1280.9
11431	18.203	4.7273	5.e-002	-4.4016
11432	18.203	4.4545	0.	-1259.8
11433	18.111	4.5455	0.	-1281.2
11434	18.203	4.5455	5.e-002	-4.3985
11435	18.203	4.2727	0.	-1260.2
11436	18.111	4.3636	0.	-1281.5
11437	18.203	4.3636	5.e-002	-4.3952
11438	18.203	4.0909	0.	-1260.5
11439	18.111	4.1818	0.	-1281.8
11440	18.203	4.1818	5.e-002	-4.3919
11441	18.203	3.9091	0.	-1260.8
11442	18.111	4.	0.	-1282.
11443	18.203	4.	5.e-002	-4.3887
11444	18.203	3.7273	0.	-1261.1
11445	18.111	3.8182	0.	-1282.3
11446	18.203	3.8182	5.e-002	-4.3858
11447	18.203	3.5455	0.	-1261.3
11448	18.111	3.6364	0.	-1282.5
11449	18.203	3.6364	5.e-002	-4.3833
11450	18.203	3.3636	0.	-1261.4
11451	18.111	3.4545	0.	-1282.6
11452	18.203	3.4545	5.e-002	-4.3813
11453	18.203	3.1818	0.	-1261.5
11454	18.111	3.2727	0.	-1282.7
11455	18.203	3.2727	5.e-002	-4.38
11456	18.203	3.	0.	-1261.5
11457	18.111	3.0909	0.	-1282.8
11458	18.203	3.0909	5.e-002	-4.3793
11459	18.203	2.8182	0.	-1261.5
11460	18.111	2.9091	0.	-1282.8
11461	18.203	2.9091	5.e-002	-4.3793
11462	18.203	2.6364	0.	-1261.4
11463	18.111	2.7273	0.	-1282.7
11464	18.203	2.7273	5.e-002	-4.38
11465	18.203	2.4545	0.	-1261.3
11466	18.111	2.5455	0.	-1282.6
11467	18.203	2.5455	5.e-002	-4.3813
11468	18.203	2.2727	0.	-1261.1
11469	18.111	2.3636	0.	-1282.5
11470	18.203	2.3636	5.e-002	-4.3833
11471	18.203	2.0909	0.	-1260.8
11472	18.111	2.1818	0.	-1282.3
11473	18.203	2.1818	5.e-002	-4.3858
11474	18.203	1.9091	0.	-1260.5
11475	18.111	2.	0.	-1282.
11476	18.203	2.	5.e-002	-4.3887
11477	18.203	1.7273	0.	-1260.2
11478	18.111	1.8182	0.	-1281.8
11479	18.203	1.8182	5.e-002	-4.3919
11480	18.203	1.5455	0.	-1259.8
11481	18.111	1.6364	0.	-1281.5
11482	18.203	1.6364	5.e-002	-4.3953
11483	18.203	1.3636	0.	-1259.5
11484	18.111	1.4545	0.	-1281.2
11485	18.203	1.4545	5.e-002	-4.3985
11486	18.203	1.1818	0.	-1259.2
11487	18.111	1.2727	0.	-1280.9
11488	18.203	1.2727	5.e-002	-4.4016
11489	18.203	1.	0.	-1258.9
11490	18.111	1.0909	0.	-1280.7
11491	18.203	1.0909	5.e-002	-4.4042
11492	18.203	0.81818	0.	-1258.7
11493	18.111	0.90909	0.	-1280.5
11494	18.203	0.90909	5.e-002	-4.406
11495	18.203	0.63636	0.	-1258.7
11496	18.111	0.72727	0.	-1280.4
11497	18.203	0.72727	5.e-002	-4.406
11498	18.203	0.45455	0.	-1258.8
11499	18.111	0.54545	0.	-1280.5
11500	18.203	0.54545	5.e-002	-4.3902
11501	18.203	0.27273	0.	-1260.1
11502	18.111	0.36364	0.	-1280.9
11503	18.203	0.36364	5.e-002	-4.1499
11504	18.111	0.18182	0.	-1283.3
11505	18.203	0.18182	5.e-002	-0.62574
11506	18.203	9.0909e-002	0.	-1255.3
11507	18.019	5.7273	0.	-1303.9
11508	17.927	5.8182	0.	-1327.2
11509	18.019	5.8182	5.e-002	-0.56271
11510	18.019	5.9091	0.	-1299.1
11511	18.019	5.5455	0.	-1302.5
11512	17.927	5.6364	0.	-1324.7
11513	18.019	5.6364	5.e-002	-4.1516
11514	18.019	5.3636	0.	-1302.2
11515	17.927	5.4545	0.	-1324.2
11516	18.019	5.4545	5.e-002	-4.3966
11517	18.019	5.1818	0.	-1302.2
11518	17.927	5.2727	0.	-1324.
11519	18.019	5.2727	5.e-002	-4.4131
11520	18.019	5.	0.	-1302.2
11521	17.927	5.0909	0.	-1323.9
11522	18.019	5.0909	5.e-002	-4.4138
11523	18.019	4.8182	0.	-1302.4
11524	17.927	4.9091	0.	-1324.
11525	18.019	4.9091	5.e-002	-4.4128
11526	18.019	4.6364	0.	-1302.5
11527	17.927	4.7273	0.	-1324.1
11528	18.019	4.7273	5.e-002	-4.4111
11529	18.019	4.4545	0.	-1302.8
11530	17.927	4.5455	0.	-1324.3
11531	18.019	4.5455	5.e-002	-4.4091
11532	18.019	4.2727	0.	-1303.
11533	17.927	4.3636	0.	-1324.4
11534	18.019	4.3636	5.e-002	-4.4067
11535	18.019	4.0909	0.	-1303.2
11536	17.927	4.1818	0.	-1324.6
11537	18.019	4.1818	5.e-002	-4.4044
11538	18.019	3.9091	0.	-1303.5
11539	17.927	4.	0.	-1324.8
11540	18.019	4.	5.e-002	-4.402
11541	18.019	3.7273	0.	-1303.6
11542	17.927	3.8182	0.	-1325.
11543	18.019	3.8182	5.e-002	-4.3999
11544	18.019	3.5455	0.	-1303.8
11545	17.927	3.6364	0.	-1325.1
11546	18.019	3.6364	5.e-002	-4.398
11547	18.019	3.3636	0.	-1303.9
11548	17.927	3.4545	0.	-1325.3
11549	18.019	3.4545	5.e-002	-4.3966
11550	18.019	3.1818	0.	-1304.
11551	17.927	3.2727	0.	-1325.3
11552	18.019	3.2727	5.e-002	-4.3956
11553	18.019	3.	0.	-1304.
11554	17.927	3.0909	0.	-1325.4
11555	18.019	3.0909	5.e-002	-4.3951
11556	18.019	2.8182	0.	-1304.
11557	17.927	2.9091	0.	-1325.4
11558	18.019	2.9091	5.e-002	-4.3951
11559	18.019	2.6364	0.	-1303.9
11560	17.927	2.7273	0.	-1325.3
11561	18.019	2.7273	5.e-002	-4.3956
11562	18.019	2.4545	0.	-1303.8
11563	17.927	2.5455	0.	-1325.3
11564	18.019	2.5455	5.e-002	-4.3966
11565	18.019	2.2727	0.	-1303.6
11566	17.927	2.3636	0.	-1325.1
11567	18.019	2.3636	5.e-002	-4.3981
11568	18.019	2.0909	0.	-1303.5
11569	17.927	2.1818	0.	-1325.
11570	18.019	2.1818	5.e-002	-4.3999
11571	18.019	1.9091	0.	-1303.2
11572	17.927	2.	0.	-1324.8
11573	18.019	2.	5.e-002	-4.402
11574	18.019	1.7273	0.	-1303.
11575	17.927	1.8182	0.	-1324.6
11576	18.019	1.8182	5.e-002	-4.4044
11577	18.019	1.5455	0.	-1302.8
11578	17.927	1.6364	0.	-1324.4
11579	18.019	1.6364	5.e-002	-4.4068
11580	18.019	1.3636	0.	-1302.5
11581	17.927	1.4545	0.	-1324.3
11582	18.019	1.4545	5.e-002	-4.4091
11583	18.019	1.1818	0.	-1302.4
11584	17.927	1.2727	0.	-1324.1
11585	18.019	1.2727	5.e-002	-4.4112
11586	18.019	1.	0.	-1302.2
11587	17.927	1.0909	0.	-1324.
11588	18.019	1.0909	5.e-002	-4.4128
11589	18.019	0.81818	0.	-1302.2
11590	17.927	0.90909	0.	-1323.9
11591	18.019	0.90909	5.e-002	-4.4138
11592	18.019	0.63636	0.	-1302.2
11593	17.927	0.72727	0.	-1324.
11594	18.019	0.72727	5.e-002	-4.4131
11595	18.019	0.45455	0.	-1302.5
11596	17.927	0.54545	0.	-1324.2
11597	18.019	0.54545	5.e-002	-4.3966
11598	18.019	0.27273	0.	-1303.9
11599	17.927	0.36364	0.	-1324.7
11600	18.019	0.36364	5.e-002	-4.1516
11601	17.927	0.18182	0.	-1327.2
11602	18.019	0.18182	5.e-002	-0.56271
11603	18.019	9.0909e-002	0.	-1299.1
11604	17.835	5.7273	0.	-1347.8
11605	17.744	5.8182	0.	-1371.2
11606	17.835	5.8182	5.e-002	-0.50677
11607	17.835	5.9091	0.	-1343.1
11608	17.835	5.5455	0.	-1346.3
11609	17.744	5.6364	0.	-1368.5
11610	17.835	5.6364	5.e-002	-4.1556
11611	17.835	5.3636	0.	-1345.9
11612	17.744	5.4545	0.	-1368.
11613	17.835	5.4545	5.e-002	-4.4049
11614	17.835	5.1818	0.	-1345.7
11615	17.744	5.2727	0.	-1367.7
11616	17.835	5.2727	5.e-002	-4.422
11617	17.835	5.	0.	-1345.7
11618	17.744	5.0909	0.	-1367.5
11619	17.835	5.0909	5.e-002	-4.4232
11620	17.835	4.8182	0.	-1345.7
11621	17.744	4.9091	0.	-1367.4
11622	17.835	4.9091	5.e-002	-4.4228
11623	17.835	4.6364	0.	-1345.8
11624	17.744	4.7273	0.	-1367.5
11625	17.835	4.7273	5.e-002	-4.4219
11626	17.835	4.4545	0.	-1345.9
11627	17.744	4.5455	0.	-1367.5
11628	17.835	4.5455	5.e-002	-4.4205
11629	17.835	4.2727	0.	-1346.
11630	17.744	4.3636	0.	-1367.6
11631	17.835	4.3636	5.e-002	-4.419
11632	17.835	4.0909	0.	-1346.2
11633	17.744	4.1818	0.	-1367.7
11634	17.835	4.1818	5.e-002	-4.4173
11635	17.835	3.9091	0.	-1346.3
11636	17.744	4.	0.	-1367.8
11637	17.835	4.	5.e-002	-4.4157
11638	17.835	3.7273	0.	-1346.5
11639	17.744	3.8182	0.	-1368.
11640	17.835	3.8182	5.e-002	-4.4141
11641	17.835	3.5455	0.	-1346.6
11642	17.744	3.6364	0.	-1368.1
11643	17.835	3.6364	5.e-002	-4.4128
11644	17.835	3.3636	0.	-1346.7
11645	17.744	3.4545	0.	-1368.1
11646	17.835	3.4545	5.e-002	-4.4117
11647	17.835	3.1818	0.	-1346.7
11648	17.744	3.2727	0.	-1368.2
11649	17.835	3.2727	5.e-002	-4.411
11650	17.835	3.	0.	-1346.7
11651	17.744	3.0909	0.	-1368.2
11652	17.835	3.0909	5.e-002	-4.4106
11653	17.835	2.8182	0.	-1346.7
11654	17.744	2.9091	0.	-1368.2
11655	17.835	2.9091	5.e-002	-4.4106
11656	17.835	2.6364	0.	-1346.7
11657	17.744	2.7273	0.	-1368.2
11658	17.835	2.7273	5.e-002	-4.411
11659	17.835	2.4545	0.	-1346.6
11660	17.744	2.5455	0.	-1368.1
11661	17.835	2.5455	5.e-002	-4.4117
11662	17.835	2.2727	0.	-1346.5
11663	17.744	2.3636	0.	-1368.1
11664	17.835	2.3636	5.e-002	-4.4128
11665	17.835	2.0909	0.	-1346.3
11666	17.744	2.1818	0.	-1368.
11667	17.835	2.1818	5.e-002	-4.4141
11668	17.835	1.9091	0.	-1346.2
11669	17.744	2.	0.	-1367.8
11670	17.835	2.	5.e-002	-4.4157
11671	17.835	1.7273	0.	-1346.
11672	17.744	1.8182	0.	-1367.7
11673	17.835	1.8182	5.e-002	-4.4173
11674	17.835	1.5455	0.	-1345.9
11675	17.744	1.6364	0.	-1367.6
11676	17.835	1.6364	5.e-002	-4.419
11677	17.835	1.3636	0.	-1345.8
11678	17.744	1.4545	0.	-1367.5
11679	17.835	1.4545	5.e-002	-4.4205
11680	17.835	1.1818	0.	-1345.7
11681	17.744	1.2727	0.	-1367.5
11682	17.835	1.2727	5.e-002	-4.4219
11683	17.835	1.	0.	-1345.7
11684	17.744	1.0909	0.	-1367.4
11685	17.835	1.0909	5.e-002	-4.4228
11686	17.835	0.81818	0.	-1345.7
11687	17.744	0.90909	0.	-1367.5
11688	17.835	0.90909	5.e-002	-4.4232
11689	17.835	0.63636	0.	-1345.9
11690	17.744	0.72727	0.	-1367.7
11691	17.835	0.72727	5.e-002	-4.422
11692	17.835	0.45455	0.	-1346.3
11693	17.744	0.54545	0.	-1368.
11694	17.835	0.54545	5.e-002	-4.4049
11695	17.835	0.27273	0.	-1347.8
11696	17.744	0.36364	0.	-1368.5
11697	17.835	0.36364	5.e-002	-4.1556
11698	17.744	0.18182	0.	-1371.2
11699	17.835	0.18182	5.e-002	-0.50678
11700	17.835	9.0909e-002	0.	-1343.1
11701	17.652	5.7273	0.	-1391.8
11702	17.56	5.8182	0.	-1415.3
11703	17.652	5.8182	5.e-002	-0.45717
11704	17.652	5.9091	0.	-1387.1
11705	17.652	5.5455	0.	-1390.2
11706	17.56	5.6364	0.	-1412.5
11707	17.652	5.6364	5.e-002	-4.1614
11708	17.652	5.3636	0.	-1389.7
11709	17.56	5.4545	0.	-1411.9
11710	17.652	5.4545	5.e-002	-4.4147
11711	17.652	5.1818	0.	-1389.4
11712	17.56	5.2727	0.	-1411.5
11713	17.652	5.2727	5.e-002	-4.4322
11714	17.652	5.	0.	-1389.3
11715	17.56	5.0909	0.	-1411.2
11716	17.652	5.0909	5.e-002	-4.4339
11717	17.652	4.8182	0.	-1389.2
11718	17.56	4.9091	0.	-1411.1
11719	17.652	4.9091	5.e-002	-4.4339
11720	17.652	4.6364	0.	-1389.2
11721	17.56	4.7273	0.	-1411.
11722	17.652	4.7273	5.e-002	-4.4335
11723	17.652	4.4545	0.	-1389.2
11724	17.56	4.5455	0.	-1411.
11725	17.652	4.5455	5.e-002	-4.4328
11726	17.652	4.2727	0.	-1389.3
11727	17.56	4.3636	0.	-1411.
11728	17.652	4.3636	5.e-002	-4.4318
11729	17.652	4.0909	0.	-1389.4
11730	17.56	4.1818	0.	-1411.
11731	17.652	4.1818	5.e-002	-4.4307
11732	17.652	3.9091	0.	-1389.4
11733	17.56	4.	0.	-1411.1
11734	17.652	4.	5.e-002	-4.4296
11735	17.652	3.7273	0.	-1389.5
11736	17.56	3.8182	0.	-1411.2
11737	17.652	3.8182	5.e-002	-4.4285
11738	17.652	3.5455	0.	-1389.6
11739	17.56	3.6364	0.	-1411.2
11740	17.652	3.6364	5.e-002	-4.4276
11741	17.652	3.3636	0.	-1389.7
11742	17.56	3.4545	0.	-1411.3
11743	17.652	3.4545	5.e-002	-4.4268
11744	17.652	3.1818	0.	-1389.7
11745	17.56	3.2727	0.	-1411.3
11746	17.652	3.2727	5.e-002	-4.4263
11747	17.652	3.	0.	-1389.7
11748	17.56	3.0909	0.	-1411.3
11749	17.652	3.0909	5.e-002	-4.426
11750	17.652	2.8182	0.	-1389.7
11751	17.56	2.9091	0.	-1411.3
11752	17.652	2.9091	5.e-002	-4.426
11753	17.652	2.6364	0.	-1389.7
11754	17.56	2.7273	0.	-1411.3
11755	17.652	2.7273	5.e-002	-4.4263
11756	17.652	2.4545	0.	-1389.6
11757	17.56	2.5455	0.	-1411.3
11758	17.652	2.5455	5.e-002	-4.4268
11759	17.652	2.2727	0.	-1389.5
11760	17.56	2.3636	0.	-1411.2
11761	17.652	2.3636	5.e-002	-4.4276
11762	17.652	2.0909	0.	-1389.4
11763	17.56	2.1818	0.	-1411.2
11764	17.652	2.1818	5.e-002	-4.4285
11765	17.652	1.9091	0.	-1389.4
11766	17.56	2.	0.	-1411.1
11767	17.652	2.	5.e-002	-4.4296
11768	17.652	1.7273	0.	-1389.3
11769	17.56	1.8182	0.	-1411.
11770	17.652	1.8182	5.e-002	-4.4307
11771	17.652	1.5455	0.	-1389.2
11772	17.56	1.6364	0.	-1411.
11773	17.652	1.6364	5.e-002	-4.4318
11774	17.652	1.3636	0.	-1389.2
11775	17.56	1.4545	0.	-1411.
11776	17.652	1.4545	5.e-002	-4.4328
11777	17.652	1.1818	0.	-1389.2
11778	17.56	1.2727	0.	-1411.
11779	17.652	1.2727	5.e-002	-4.4335
11780	17.652	1.	0.	-1389.3
11781	17.56	1.0909	0.	-1411.1
11782	17.652	1.0909	5.e-002	-4.434
11783	17.652	0.81818	0.	-1389.4
11784	17.56	0.90909	0.	-1411.2
11785	17.652	0.90909	5.e-002	-4.4339
11786	17.652	0.63636	0.	-1389.7
11787	17.56	0.72727	0.	-1411.5
11788	17.652	0.72727	5.e-002	-4.4323
11789	17.652	0.45455	0.	-1390.2
11790	17.56	0.54545	0.	-1411.9
11791	17.652	0.54545	5.e-002	-4.4147
11792	17.652	0.27273	0.	-1391.8
11793	17.56	0.36364	0.	-1412.5
11794	17.652	0.36364	5.e-002	-4.1615
11795	17.56	0.18182	0.	-1415.3
11796	17.652	0.18182	5.e-002	-0.45718
11797	17.652	9.0909e-002	0.	-1387.1
11798	17.468	5.7273	0.	-1435.9
11799	17.376	5.8182	0.	-1459.5
11800	17.468	5.8182	5.e-002	-0.41331
11801	17.468	5.9091	0.	-1431.3
11802	17.468	5.5455	0.	-1434.2
11803	17.376	5.6364	0.	-1456.7
11804	17.468	5.6364	5.e-002	-4.1688
11805	17.468	5.3636	0.	-1433.6
11806	17.376	5.4545	0.	-1455.9
11807	17.468	5.4545	5.e-002	-4.4257
11808	17.468	5.1818	0.	-1433.3
11809	17.376	5.2727	0.	-1455.5
11810	17.468	5.2727	5.e-002	-4.4437
11811	17.468	5.	0.	-1433.
11812	17.376	5.0909	0.	-1455.1
11813	17.468	5.0909	5.e-002	-4.4456
11814	17.468	4.8182	0.	-1432.9
11815	17.376	4.9091	0.	-1454.9
11816	17.468	4.9091	5.e-002	-4.446
11817	17.468	4.6364	0.	-1432.8
11818	17.376	4.7273	0.	-1454.7
11819	17.468	4.7273	5.e-002	-4.446
11820	17.468	4.4545	0.	-1432.7
11821	17.376	4.5455	0.	-1454.6
11822	17.468	4.5455	5.e-002	-4.4457
11823	17.468	4.2727	0.	-1432.7
11824	17.376	4.3636	0.	-1454.6
11825	17.468	4.3636	5.e-002	-4.4451
11826	17.468	4.0909	0.	-1432.7
11827	17.376	4.1818	0.	-1454.6
11828	17.468	4.1818	5.e-002	-4.4445
11829	17.468	3.9091	0.	-1432.8
11830	17.376	4.	0.	-1454.6
11831	17.468	4.	5.e-002	-4.4438
11832	17.468	3.7273	0.	-1432.8
11833	17.376	3.8182	0.	-1454.6
11834	17.468	3.8182	5.e-002	-4.4431
11835	17.468	3.5455	0.	-1432.8
11836	17.376	3.6364	0.	-1454.6
11837	17.468	3.6364	5.e-002	-4.4424
11838	17.468	3.3636	0.	-1432.9
11839	17.376	3.4545	0.	-1454.6
11840	17.468	3.4545	5.e-002	-4.4419
11841	17.468	3.1818	0.	-1432.9
11842	17.376	3.2727	0.	-1454.6
11843	17.468	3.2727	5.e-002	-4.4416
11844	17.468	3.	0.	-1432.9
11845	17.376	3.0909	0.	-1454.6
11846	17.468	3.0909	5.e-002	-4.4414
11847	17.468	2.8182	0.	-1432.9
11848	17.376	2.9091	0.	-1454.6
11849	17.468	2.9091	5.e-002	-4.4414
11850	17.468	2.6364	0.	-1432.9
11851	17.376	2.7273	0.	-1454.6
11852	17.468	2.7273	5.e-002	-4.4416
11853	17.468	2.4545	0.	-1432.8
11854	17.376	2.5455	0.	-1454.6
11855	17.468	2.5455	5.e-002	-4.4419
11856	17.468	2.2727	0.	-1432.8
11857	17.376	2.3636	0.	-1454.6
11858	17.468	2.3636	5.e-002	-4.4424
11859	17.468	2.0909	0.	-1432.8
11860	17.376	2.1818	0.	-1454.6
11861	17.468	2.1818	5.e-002	-4.4431
11862	17.468	1.9091	0.	-1432.7
11863	17.376	2.	0.	-1454.6
11864	17.468	2.	5.e-002	-4.4438
11865	17.468	1.7273	0.	-1432.7
11866	17.376	1.8182	0.	-1454.6
11867	17.468	1.8182	5.e-002	-4.4445
11868	17.468	1.5455	0.	-1432.7
11869	17.376	1.6364	0.	-1454.6
11870	17.468	1.6364	5.e-002	-4.4452
11871	17.468	1.3636	0.	-1432.8
11872	17.376	1.4545	0.	-1454.6
11873	17.468	1.4545	5.e-002	-4.4457
11874	17.468	1.1818	0.	-1432.9
11875	17.376	1.2727	0.	-1454.7
11876	17.468	1.2727	5.e-002	-4.446
11877	17.468	1.	0.	-1433.
11878	17.376	1.0909	0.	-1454.9
11879	17.468	1.0909	5.e-002	-4.446
11880	17.468	0.81818	0.	-1433.3
11881	17.376	0.90909	0.	-1455.1
11882	17.468	0.90909	5.e-002	-4.4456
11883	17.468	0.63636	0.	-1433.6
11884	17.376	0.72727	0.	-1455.5
11885	17.468	0.72727	5.e-002	-4.4437
11886	17.468	0.45455	0.	-1434.2
11887	17.376	0.54545	0.	-1455.9
11888	17.468	0.54545	5.e-002	-4.4257
11889	17.468	0.27273	0.	-1435.9
11890	17.376	0.36364	0.	-1456.7
11891	17.468	0.36364	5.e-002	-4.1688
11892	17.376	0.18182	0.	-1459.5
11893	17.468	0.18182	5.e-002	-0.41331
11894	17.468	9.0909e-002	0.	-1431.3
11895	17.284	5.7273	0.	-1480.1
11896	17.192	5.8182	0.	-1503.8
11897	17.284	5.8182	5.e-002	-0.3747
11898	17.284	5.9091	0.	-1475.5
11899	17.284	5.5455	0.	-1478.4
11900	17.192	5.6364	0.	-1500.9
11901	17.284	5.6364	5.e-002	-4.1776
11902	17.284	5.3636	0.	-1477.7
11903	17.192	5.4545	0.	-1500.1
11904	17.284	5.4545	5.e-002	-4.4379
11905	17.284	5.1818	0.	-1477.3
11906	17.192	5.2727	0.	-1499.6
11907	17.284	5.2727	5.e-002	-4.4562
11908	17.284	5.	0.	-1477.
11909	17.192	5.0909	0.	-1499.2
11910	17.284	5.0909	5.e-002	-4.4583
11911	17.284	4.8182	0.	-1476.7
11912	17.192	4.9091	0.	-1498.9
11913	17.284	4.9091	5.e-002	-4.459
11914	17.284	4.6364	0.	-1476.6
11915	17.192	4.7273	0.	-1498.6
11916	17.284	4.7273	5.e-002	-4.4593
11917	17.284	4.4545	0.	-1476.4
11918	17.192	4.5455	0.	-1498.5
11919	17.284	4.5455	5.e-002	-4.4592
11920	17.284	4.2727	0.	-1476.4
11921	17.192	4.3636	0.	-1498.4
11922	17.284	4.3636	5.e-002	-4.4591
11923	17.284	4.0909	0.	-1476.3
11924	17.192	4.1818	0.	-1498.3
11925	17.284	4.1818	5.e-002	-4.4587
11926	17.284	3.9091	0.	-1476.3
11927	17.192	4.	0.	-1498.2
11928	17.284	4.	5.e-002	-4.4583
11929	17.284	3.7273	0.	-1476.3
11930	17.192	3.8182	0.	-1498.2
11931	17.284	3.8182	5.e-002	-4.4579
11932	17.284	3.5455	0.	-1476.3
11933	17.192	3.6364	0.	-1498.2
11934	17.284	3.6364	5.e-002	-4.4575
11935	17.284	3.3636	0.	-1476.3
11936	17.192	3.4545	0.	-1498.2
11937	17.284	3.4545	5.e-002	-4.4572
11938	17.284	3.1818	0.	-1476.3
11939	17.192	3.2727	0.	-1498.2
11940	17.284	3.2727	5.e-002	-4.457
11941	17.284	3.	0.	-1476.3
11942	17.192	3.0909	0.	-1498.2
11943	17.284	3.0909	5.e-002	-4.4568
11944	17.284	2.8182	0.	-1476.3
11945	17.192	2.9091	0.	-1498.2
11946	17.284	2.9091	5.e-002	-4.4569
11947	17.284	2.6364	0.	-1476.3
11948	17.192	2.7273	0.	-1498.2
11949	17.284	2.7273	5.e-002	-4.457
11950	17.284	2.4545	0.	-1476.3
11951	17.192	2.5455	0.	-1498.2
11952	17.284	2.5455	5.e-002	-4.4572
11953	17.284	2.2727	0.	-1476.3
11954	17.192	2.3636	0.	-1498.2
11955	17.284	2.3636	5.e-002	-4.4575
11956	17.284	2.0909	0.	-1476.3
11957	17.192	2.1818	0.	-1498.2
11958	17.284	2.1818	5.e-002	-4.4579
11959	17.284	1.9091	0.	-1476.3
11960	17.192	2.	0.	-1498.2
11961	17.284	2.	5.e-002	-4.4583
11962	17.284	1.7273	0.	-1476.4
11963	17.192	1.8182	0.	-1498.3
11964	17.284	1.8182	5.e-002	-4.4587
11965	17.284	1.5455	0.	-1476.4
11966	17.192	1.6364	0.	-1498.4
11967	17.284	1.6364	5.e-002	-4.4591
11968	17.284	1.3636	0.	-1476.6
11969	17.192	1.4545	0.	-1498.5
11970	17.284	1.4545	5.e-002	-4.4593
11971	17.284	1.1818	0.	-1476.7
11972	17.192	1.2727	0.	-1498.6
11973	17.284	1.2727	5.e-002	-4.4593
11974	17.284	1.	0.	-1477.
11975	17.192	1.0909	0.	-1498.9
11976	17.284	1.0909	5.e-002	-4.459
11977	17.284	0.81818	0.	-1477.3
11978	17.192	0.90909	0.	-1499.2
11979	17.284	0.90909	5.e-002	-4.4583
11980	17.284	0.63636	0.	-1477.7
11981	17.192	0.72727	0.	-1499.6
11982	17.284	0.72727	5.e-002	-4.4562
11983	17.284	0.45455	0.	-1478.4
11984	17.192	0.54545	0.	-1500.1
11985	17.284	0.54545	5.e-002	-4.4379
11986	17.284	0.27273	0.	-1480.1
11987	17.192	0.36364	0.	-1500.9
11988	17.284	0.36364	5.e-002	-4.1776
11989	17.192	0.18182	0.	-1503.8
11990	17.284	0.18182	5.e-002	-0.37471
11991	17.284	9.0909e-002	0.	-1475.5
11992	17.1	5.7273	0.	-1524.5
11993	17.008	5.8182	0.	-1548.2
11994	17.1	5.8182	5.e-002	-0.34093
11995	17.1	5.9091	0.	-1520.
11996	17.1	5.5455	0.	-1522.7
11997	17.008	5.6364	0.	-1545.3
11998	17.1	5.6364	5.e-002	-4.1876
11999	17.1	5.3636	0.	-1522.
12000	17.008	5.4545	0.	-1544.5
12001	17.1	5.4545	5.e-002	-4.4511
12002	17.1	5.1818	0.	-1521.5
12003	17.008	5.2727	0.	-1543.9
12004	17.1	5.2727	5.e-002	-4.4697
12005	17.1	5.	0.	-1521.1
12006	17.008	5.0909	0.	-1543.4
12007	17.1	5.0909	5.e-002	-4.4719
12008	17.1	4.8182	0.	-1520.8
12009	17.008	4.9091	0.	-1543.
12010	17.1	4.9091	5.e-002	-4.4727
12011	17.1	4.6364	0.	-1520.5
12012	17.008	4.7273	0.	-1542.8
12013	17.1	4.7273	5.e-002	-4.4732
12014	17.1	4.4545	0.	-1520.4
12015	17.008	4.5455	0.	-1542.5
12016	17.1	4.5455	5.e-002	-4.4735
12017	17.1	4.2727	0.	-1520.2
12018	17.008	4.3636	0.	-1542.4
12019	17.1	4.3636	5.e-002	-4.4735
12020	17.1	4.0909	0.	-1520.2
12021	17.008	4.1818	0.	-1542.2
12022	17.1	4.1818	5.e-002	-4.4735
12023	17.1	3.9091	0.	-1520.1
12024	17.008	4.	0.	-1542.1
12025	17.1	4.	5.e-002	-4.4733
12026	17.1	3.7273	0.	-1520.1
12027	17.008	3.8182	0.	-1542.1
12028	17.1	3.8182	5.e-002	-4.4731
12029	17.1	3.5455	0.	-1520.
12030	17.008	3.6364	0.	-1542.
12031	17.1	3.6364	5.e-002	-4.4729
12032	17.1	3.3636	0.	-1520.
12033	17.008	3.4545	0.	-1542.
12034	17.1	3.4545	5.e-002	-4.4727
12035	17.1	3.1818	0.	-1520.
12036	17.008	3.2727	0.	-1542.
12037	17.1	3.2727	5.e-002	-4.4726
12038	17.1	3.	0.	-1520.
12039	17.008	3.0909	0.	-1542.
12040	17.1	3.0909	5.e-002	-4.4725
12041	17.1	2.8182	0.	-1520.
12042	17.008	2.9091	0.	-1542.
12043	17.1	2.9091	5.e-002	-4.4725
12044	17.1	2.6364	0.	-1520.
12045	17.008	2.7273	0.	-1542.
12046	17.1	2.7273	5.e-002	-4.4726
12047	17.1	2.4545	0.	-1520.
12048	17.008	2.5455	0.	-1542.
12049	17.1	2.5455	5.e-002	-4.4727
12050	17.1	2.2727	0.	-1520.1
12051	17.008	2.3636	0.	-1542.
12052	17.1	2.3636	5.e-002	-4.4729
12053	17.1	2.0909	0.	-1520.1
12054	17.008	2.1818	0.	-1542.1
12055	17.1	2.1818	5.e-002	-4.4731
12056	17.1	1.9091	0.	-1520.2
12057	17.008	2.	0.	-1542.1
12058	17.1	2.	5.e-002	-4.4733
12059	17.1	1.7273	0.	-1520.2
12060	17.008	1.8182	0.	-1542.2
12061	17.1	1.8182	5.e-002	-4.4735
12062	17.1	1.5455	0.	-1520.4
12063	17.008	1.6364	0.	-1542.4
12064	17.1	1.6364	5.e-002	-4.4736
12065	17.1	1.3636	0.	-1520.5
12066	17.008	1.4545	0.	-1542.5
12067	17.1	1.4545	5.e-002	-4.4735
12068	17.1	1.1818	0.	-1520.8
12069	17.008	1.2727	0.	-1542.8
12070	17.1	1.2727	5.e-002	-4.4733
12071	17.1	1.	0.	-1521.1
12072	17.008	1.0909	0.	-1543.
12073	17.1	1.0909	5.e-002	-4.4728
12074	17.1	0.81818	0.	-1521.5
12075	17.008	0.90909	0.	-1543.4
12076	17.1	0.90909	5.e-002	-4.4719
12077	17.1	0.63636	0.	-1522.
12078	17.008	0.72727	0.	-1543.9
12079	17.1	0.72727	5.e-002	-4.4697
12080	17.1	0.45455	0.	-1522.7
12081	17.008	0.54545	0.	-1544.5
12082	17.1	0.54545	5.e-002	-4.4511
12083	17.1	0.27273	0.	-1524.5
12084	17.008	0.36364	0.	-1545.3
12085	17.1	0.36364	5.e-002	-4.1876
12086	17.008	0.18182	0.	-1548.2
12087	17.1	0.18182	5.e-002	-0.34093
12088	17.1	9.0909e-002	0.	-1520.
12089	16.916	5.7273	0.	-1569.
12090	16.824	5.8182	0.	-1592.8
12091	16.916	5.8182	5.e-002	-0.31155
12092	16.916	5.9091	0.	-1564.5
12093	16.916	5.5455	0.	-1567.1
12094	16.824	5.6364	0.	-1589.9
12095	16.916	5.6364	5.e-002	-4.1986
12096	16.916	5.3636	0.	-1566.4
12097	16.824	5.4545	0.	-1589.
12098	16.916	5.4545	5.e-002	-4.465
12099	16.916	5.1818	0.	-1565.8
12100	16.824	5.2727	0.	-1588.4
12101	16.916	5.2727	5.e-002	-4.4839
12102	16.916	5.	0.	-1565.4
12103	16.824	5.0909	0.	-1587.8
12104	16.916	5.0909	5.e-002	-4.4862
12105	16.916	4.8182	0.	-1565.
12106	16.824	4.9091	0.	-1587.4
12107	16.916	4.9091	5.e-002	-4.4872
12108	16.916	4.6364	0.	-1564.7
12109	16.824	4.7273	0.	-1587.
12110	16.916	4.7273	5.e-002	-4.4878
12111	16.916	4.4545	0.	-1564.5
12112	16.824	4.5455	0.	-1586.8
12113	16.916	4.5455	5.e-002	-4.4883
12114	16.916	4.2727	0.	-1564.3
12115	16.824	4.3636	0.	-1586.5
12116	16.916	4.3636	5.e-002	-4.4885
12117	16.916	4.0909	0.	-1564.2
12118	16.824	4.1818	0.	-1586.4
12119	16.916	4.1818	5.e-002	-4.4886
12120	16.916	3.9091	0.	-1564.1
12121	16.824	4.	0.	-1586.2
12122	16.916	4.	5.e-002	-4.4887
12123	16.916	3.7273	0.	-1564.
12124	16.824	3.8182	0.	-1586.1
12125	16.916	3.8182	5.e-002	-4.4886
12126	16.916	3.5455	0.	-1564.
12127	16.824	3.6364	0.	-1586.1
12128	16.916	3.6364	5.e-002	-4.4885
12129	16.916	3.3636	0.	-1563.9
12130	16.824	3.4545	0.	-1586.
12131	16.916	3.4545	5.e-002	-4.4885
12132	16.916	3.1818	0.	-1563.9
12133	16.824	3.2727	0.	-1586.
12134	16.916	3.2727	5.e-002	-4.4884
12135	16.916	3.	0.	-1563.9
12136	16.824	3.0909	0.	-1586.
12137	16.916	3.0909	5.e-002	-4.4884
12138	16.916	2.8182	0.	-1563.9
12139	16.824	2.9091	0.	-1586.
12140	16.916	2.9091	5.e-002	-4.4884
12141	16.916	2.6364	0.	-1563.9
12142	16.824	2.7273	0.	-1586.
12143	16.916	2.7273	5.e-002	-4.4884
12144	16.916	2.4545	0.	-1564.
12145	16.824	2.5455	0.	-1586.
12146	16.916	2.5455	5.e-002	-4.4885
12147	16.916	2.2727	0.	-1564.
12148	16.824	2.3636	0.	-1586.1
12149	16.916	2.3636	5.e-002	-4.4886
12150	16.916	2.0909	0.	-1564.1
12151	16.824	2.1818	0.	-1586.1
12152	16.916	2.1818	5.e-002	-4.4886
12153	16.916	1.9091	0.	-1564.2
12154	16.824	2.	0.	-1586.2
12155	16.916	2.	5.e-002	-4.4887
12156	16.916	1.7273	0.	-1564.3
12157	16.824	1.8182	0.	-1586.4
12158	16.916	1.8182	5.e-002	-4.4886
12159	16.916	1.5455	0.	-1564.5
12160	16.824	1.6364	0.	-1586.5
12161	16.916	1.6364	5.e-002	-4.4885
12162	16.916	1.3636	0.	-1564.7
12163	16.824	1.4545	0.	-1586.8
12164	16.916	1.4545	5.e-002	-4.4883
12165	16.916	1.1818	0.	-1565.
12166	16.824	1.2727	0.	-1587.
12167	16.916	1.2727	5.e-002	-4.4879
12168	16.916	1.	0.	-1565.4
12169	16.824	1.0909	0.	-1587.4
12170	16.916	1.0909	5.e-002	-4.4872
12171	16.916	0.81818	0.	-1565.8
12172	16.824	0.90909	0.	-1587.8
12173	16.916	0.90909	5.e-002	-4.4862
12174	16.916	0.63636	0.	-1566.4
12175	16.824	0.72727	0.	-1588.4
12176	16.916	0.72727	5.e-002	-4.4839
12177	16.916	0.45455	0.	-1567.1
12178	16.824	0.54545	0.	-1589.
12179	16.916	0.54545	5.e-002	-4.4651
12180	16.916	0.27273	0.	-1569.
12181	16.824	0.36364	0.	-1589.9
12182	16.916	0.36364	5.e-002	-4.1986
12183	16.824	0.18182	0.	-1592.8
12184	16.916	0.18182	5.e-002	-0.31155
12185	16.916	9.0909e-002	0.	-1564.5
12186	16.732	5.7273	0.	-1613.6
12187	16.64	5.8182	0.	-1637.6
12188	16.732	5.8182	5.e-002	-0.28618
12189	16.732	5.9091	0.	-1609.3
12190	16.732	5.5455	0.	-1611.8
12191	16.64	5.6364	0.	-1634.6
12192	16.732	5.6364	5.e-002	-4.2104
12193	16.732	5.3636	0.	-1611.
12194	16.64	5.4545	0.	-1633.7
12195	16.732	5.4545	5.e-002	-4.4797
12196	16.732	5.1818	0.	-1610.3
12197	16.64	5.2727	0.	-1633.
12198	16.732	5.2727	5.e-002	-4.4987
12199	16.732	5.	0.	-1609.8
12200	16.64	5.0909	0.	-1632.4
12201	16.732	5.0909	5.e-002	-4.5011
12202	16.732	4.8182	0.	-1609.4
12203	16.64	4.9091	0.	-1631.9
12204	16.732	4.9091	5.e-002	-4.5021
12205	16.732	4.6364	0.	-1609.1
12206	16.64	4.7273	0.	-1631.5
12207	16.732	4.7273	5.e-002	-4.5029
12208	16.732	4.4545	0.	-1608.8
12209	16.64	4.5455	0.	-1631.2
12210	16.732	4.5455	5.e-002	-4.5035
12211	16.732	4.2727	0.	-1608.6
12212	16.64	4.3636	0.	-1630.9
12213	16.732	4.3636	5.e-002	-4.5039
12214	16.732	4.0909	0.	-1608.4
12215	16.64	4.1818	0.	-1630.7
12216	16.732	4.1818	5.e-002	-4.5042
12217	16.732	3.9091	0.	-1608.3
12218	16.64	4.	0.	-1630.5
12219	16.732	4.	5.e-002	-4.5043
12220	16.732	3.7273	0.	-1608.2
12221	16.64	3.8182	0.	-1630.4
12222	16.732	3.8182	5.e-002	-4.5044
12223	16.732	3.5455	0.	-1608.1
12224	16.64	3.6364	0.	-1630.3
12225	16.732	3.6364	5.e-002	-4.5045
12226	16.732	3.3636	0.	-1608.
12227	16.64	3.4545	0.	-1630.2
12228	16.732	3.4545	5.e-002	-4.5045
12229	16.732	3.1818	0.	-1608.
12230	16.64	3.2727	0.	-1630.2
12231	16.732	3.2727	5.e-002	-4.5045
12232	16.732	3.	0.	-1608.
12233	16.64	3.0909	0.	-1630.2
12234	16.732	3.0909	5.e-002	-4.5045
12235	16.732	2.8182	0.	-1608.
12236	16.64	2.9091	0.	-1630.2
12237	16.732	2.9091	5.e-002	-4.5045
12238	16.732	2.6364	0.	-1608.
12239	16.64	2.7273	0.	-1630.2
12240	16.732	2.7273	5.e-002	-4.5045
12241	16.732	2.4545	0.	-1608.1
12242	16.64	2.5455	0.	-1630.2
12243	16.732	2.5455	5.e-002	-4.5045
12244	16.732	2.2727	0.	-1608.2
12245	16.64	2.3636	0.	-1630.3
12246	16.732	2.3636	5.e-002	-4.5045
12247	16.732	2.0909	0.	-1608.3
12248	16.64	2.1818	0.	-1630.4
12249	16.732	2.1818	5.e-002	-4.5044
12250	16.732	1.9091	0.	-1608.4
12251	16.64	2.	0.	-1630.5
12252	16.732	2.	5.e-002	-4.5043
12253	16.732	1.7273	0.	-1608.6
12254	16.64	1.8182	0.	-1630.7
12255	16.732	1.8182	5.e-002	-4.5042
12256	16.732	1.5455	0.	-1608.8
12257	16.64	1.6364	0.	-1630.9
12258	16.732	1.6364	5.e-002	-4.5039
12259	16.732	1.3636	0.	-1609.1
12260	16.64	1.4545	0.	-1631.2
12261	16.732	1.4545	5.e-002	-4.5035
12262	16.732	1.1818	0.	-1609.4
12263	16.64	1.2727	0.	-1631.5
12264	16.732	1.2727	5.e-002	-4.5029
12265	16.732	1.	0.	-1609.8
12266	16.64	1.0909	0.	-1631.9
12267	16.732	1.0909	5.e-002	-4.5022
12268	16.732	0.81818	0.	-1610.3
12269	16.64	0.90909	0.	-1632.4
12270	16.732	0.90909	5.e-002	-4.5011
12271	16.732	0.63636	0.	-1611.
12272	16.64	0.72727	0.	-1633.
12273	16.732	0.72727	5.e-002	-4.4987
12274	16.732	0.45455	0.	-1611.8
12275	16.64	0.54545	0.	-1633.7
12276	16.732	0.54545	5.e-002	-4.4797
12277	16.732	0.27273	0.	-1613.6
12278	16.64	0.36364	0.	-1634.6
12279	16.732	0.36364	5.e-002	-4.2105
12280	16.64	0.18182	0.	-1637.6
12281	16.732	0.18182	5.e-002	-0.28618
12282	16.732	9.0909e-002	0.	-1609.3
12283	16.548	5.7273	0.	-1658.4
12284	16.456	5.8182	0.	-1682.5
12285	16.548	5.8182	5.e-002	-0.26448
12286	16.548	5.9091	0.	-1654.2
12287	16.548	5.5455	0.	-1656.5
12288	16.456	5.6364	0.	-1679.5
12289	16.548	5.6364	5.e-002	-4.223
12290	16.548	5.3636	0.	-1655.7
12291	16.456	5.4545	0.	-1678.5
12292	16.548	5.4545	5.e-002	-4.4949
12293	16.548	5.1818	0.	-1655.
12294	16.456	5.2727	0.	-1677.8
12295	16.548	5.2727	5.e-002	-4.5141
12296	16.548	5.	0.	-1654.5
12297	16.456	5.0909	0.	-1677.2
12298	16.548	5.0909	5.e-002	-4.5165
12299	16.548	4.8182	0.	-1654.
12300	16.456	4.9091	0.	-1676.6
12301	16.548	4.9091	5.e-002	-4.5176
12302	16.548	4.6364	0.	-1653.6
12303	16.456	4.7273	0.	-1676.2
12304	16.548	4.7273	5.e-002	-4.5185
12305	16.548	4.4545	0.	-1653.3
12306	16.456	4.5455	0.	-1675.8
12307	16.548	4.5455	5.e-002	-4.5191
12308	16.548	4.2727	0.	-1653.
12309	16.456	4.3636	0.	-1675.5
12310	16.548	4.3636	5.e-002	-4.5197
12311	16.548	4.0909	0.	-1652.8
12312	16.456	4.1818	0.	-1675.3
12313	16.548	4.1818	5.e-002	-4.52
12314	16.548	3.9091	0.	-1652.7
12315	16.456	4.	0.	-1675.1
12316	16.548	4.	5.e-002	-4.5203
12317	16.548	3.7273	0.	-1652.5
12318	16.456	3.8182	0.	-1674.9
12319	16.548	3.8182	5.e-002	-4.5205
12320	16.548	3.5455	0.	-1652.4
12321	16.456	3.6364	0.	-1674.8
12322	16.548	3.6364	5.e-002	-4.5206
12323	16.548	3.3636	0.	-1652.4
12324	16.456	3.4545	0.	-1674.7
12325	16.548	3.4545	5.e-002	-4.5207
12326	16.548	3.1818	0.	-1652.3
12327	16.456	3.2727	0.	-1674.6
12328	16.548	3.2727	5.e-002	-4.5208
12329	16.548	3.	0.	-1652.3
12330	16.456	3.0909	0.	-1674.6
12331	16.548	3.0909	5.e-002	-4.5208
12332	16.548	2.8182	0.	-1652.3
12333	16.456	2.9091	0.	-1674.6
12334	16.548	2.9091	5.e-002	-4.5208
12335	16.548	2.6364	0.	-1652.4
12336	16.456	2.7273	0.	-1674.6
12337	16.548	2.7273	5.e-002	-4.5208
12338	16.548	2.4545	0.	-1652.4
12339	16.456	2.5455	0.	-1674.7
12340	16.548	2.5455	5.e-002	-4.5207
12341	16.548	2.2727	0.	-1652.5
12342	16.456	2.3636	0.	-1674.8
12343	16.548	2.3636	5.e-002	-4.5206
12344	16.548	2.0909	0.	-1652.7
12345	16.456	2.1818	0.	-1674.9
12346	16.548	2.1818	5.e-002	-4.5205
12347	16.548	1.9091	0.	-1652.8
12348	16.456	2.	0.	-1675.1
12349	16.548	2.	5.e-002	-4.5203
12350	16.548	1.7273	0.	-1653.
12351	16.456	1.8182	0.	-1675.3
12352	16.548	1.8182	5.e-002	-4.5201
12353	16.548	1.5455	0.	-1653.3
12354	16.456	1.6364	0.	-1675.5
12355	16.548	1.6364	5.e-002	-4.5197
12356	16.548	1.3636	0.	-1653.6
12357	16.456	1.4545	0.	-1675.8
12358	16.548	1.4545	5.e-002	-4.5192
12359	16.548	1.1818	0.	-1654.
12360	16.456	1.2727	0.	-1676.2
12361	16.548	1.2727	5.e-002	-4.5185
12362	16.548	1.	0.	-1654.5
12363	16.456	1.0909	0.	-1676.6
12364	16.548	1.0909	5.e-002	-4.5177
12365	16.548	0.81818	0.	-1655.
12366	16.456	0.90909	0.	-1677.2
12367	16.548	0.90909	5.e-002	-4.5165
12368	16.548	0.63636	0.	-1655.7
12369	16.456	0.72727	0.	-1677.8
12370	16.548	0.72727	5.e-002	-4.5141
12371	16.548	0.45455	0.	-1656.5
12372	16.456	0.54545	0.	-1678.5
12373	16.548	0.54545	5.e-002	-4.4949
12374	16.548	0.27273	0.	-1658.4
12375	16.456	0.36364	0.	-1679.5
12376	16.548	0.36364	5.e-002	-4.2231
12377	16.456	0.18182	0.	-1682.5
12378	16.548	0.18182	5.e-002	-0.26447
12379	16.548	9.0909e-002	0.	-1654.2
12380	16.365	5.7273	0.	-1703.4
12381	16.273	5.8182	0.	-1727.6
12382	16.365	5.8182	5.e-002	-0.24609
12383	16.365	5.9091	0.	-1699.2
12384	16.365	5.5455	0.	-1701.5
12385	16.273	5.6364	0.	-1724.6
12386	16.365	5.6364	5.e-002	-4.2364
12387	16.365	5.3636	0.	-1700.6
12388	16.273	5.4545	0.	-1723.6
12389	16.365	5.4545	5.e-002	-4.5107
12390	16.365	5.1818	0.	-1699.9
12391	16.273	5.2727	0.	-1722.8
12392	16.365	5.2727	5.e-002	-4.53
12393	16.365	5.	0.	-1699.3
12394	16.273	5.0909	0.	-1722.1
12395	16.365	5.0909	5.e-002	-4.5325
12396	16.365	4.8182	0.	-1698.8
12397	16.273	4.9091	0.	-1721.5
12398	16.365	4.9091	5.e-002	-4.5337
12399	16.365	4.6364	0.	-1698.4
12400	16.273	4.7273	0.	-1721.1
12401	16.365	4.7273	5.e-002	-4.5346
12402	16.365	4.4545	0.	-1698.
12403	16.273	4.5455	0.	-1720.7
12404	16.365	4.5455	5.e-002	-4.5353
12405	16.365	4.2727	0.	-1697.7
12406	16.273	4.3636	0.	-1720.3
12407	16.365	4.3636	5.e-002	-4.5359
12408	16.365	4.0909	0.	-1697.5
12409	16.273	4.1818	0.	-1720.
12410	16.365	4.1818	5.e-002	-4.5363
12411	16.365	3.9091	0.	-1697.3
12412	16.273	4.	0.	-1719.8
12413	16.365	4.	5.e-002	-4.5367
12414	16.365	3.7273	0.	-1697.1
12415	16.273	3.8182	0.	-1719.6
12416	16.365	3.8182	5.e-002	-4.537
12417	16.365	3.5455	0.	-1697.
12418	16.273	3.6364	0.	-1719.5
12419	16.365	3.6364	5.e-002	-4.5372
12420	16.365	3.3636	0.	-1696.9
12421	16.273	3.4545	0.	-1719.4
12422	16.365	3.4545	5.e-002	-4.5373
12423	16.365	3.1818	0.	-1696.9
12424	16.273	3.2727	0.	-1719.3
12425	16.365	3.2727	5.e-002	-4.5374
12426	16.365	3.	0.	-1696.9
12427	16.273	3.0909	0.	-1719.3
12428	16.365	3.0909	5.e-002	-4.5374
12429	16.365	2.8182	0.	-1696.9
12430	16.273	2.9091	0.	-1719.3
12431	16.365	2.9091	5.e-002	-4.5374
12432	16.365	2.6364	0.	-1696.9
12433	16.273	2.7273	0.	-1719.3
12434	16.365	2.7273	5.e-002	-4.5374
12435	16.365	2.4545	0.	-1697.
12436	16.273	2.5455	0.	-1719.4
12437	16.365	2.5455	5.e-002	-4.5373
12438	16.365	2.2727	0.	-1697.1
12439	16.273	2.3636	0.	-1719.5
12440	16.365	2.3636	5.e-002	-4.5372
12441	16.365	2.0909	0.	-1697.3
12442	16.273	2.1818	0.	-1719.6
12443	16.365	2.1818	5.e-002	-4.537
12444	16.365	1.9091	0.	-1697.5
12445	16.273	2.	0.	-1719.8
12446	16.365	2.	5.e-002	-4.5367
12447	16.365	1.7273	0.	-1697.7
12448	16.273	1.8182	0.	-1720.
12449	16.365	1.8182	5.e-002	-4.5364
12450	16.365	1.5455	0.	-1698.
12451	16.273	1.6364	0.	-1720.3
12452	16.365	1.6364	5.e-002	-4.5359
12453	16.365	1.3636	0.	-1698.4
12454	16.273	1.4545	0.	-1720.7
12455	16.365	1.4545	5.e-002	-4.5353
12456	16.365	1.1818	0.	-1698.8
12457	16.273	1.2727	0.	-1721.1
12458	16.365	1.2727	5.e-002	-4.5346
12459	16.365	1.	0.	-1699.3
12460	16.273	1.0909	0.	-1721.5
12461	16.365	1.0909	5.e-002	-4.5337
12462	16.365	0.81818	0.	-1699.9
12463	16.273	0.90909	0.	-1722.1
12464	16.365	0.90909	5.e-002	-4.5325
12465	16.365	0.63636	0.	-1700.6
12466	16.273	0.72727	0.	-1722.8
12467	16.365	0.72727	5.e-002	-4.5301
12468	16.365	0.45455	0.	-1701.5
12469	16.273	0.54545	0.	-1723.6
12470	16.365	0.54545	5.e-002	-4.5108
12471	16.365	0.27273	0.	-1703.4
12472	16.273	0.36364	0.	-1724.6
12473	16.365	0.36364	5.e-002	-4.2364
12474	16.273	0.18182	0.	-1727.6
12475	16.365	0.18182	5.e-002	-0.2461
12476	16.365	9.0909e-002	0.	-1699.2
12477	16.181	5.7273	0.	-1748.6
12478	16.089	5.8182	0.	-1772.8
12479	16.181	5.8182	5.e-002	-0.23065
12480	16.181	5.9091	0.	-1744.4
12481	16.181	5.5455	0.	-1746.6
12482	16.089	5.6364	0.	-1769.8
12483	16.181	5.6364	5.e-002	-4.2504
12484	16.181	5.3636	0.	-1745.7
12485	16.089	5.4545	0.	-1768.8
12486	16.181	5.4545	5.e-002	-4.5271
12487	16.181	5.1818	0.	-1745.
12488	16.089	5.2727	0.	-1768.
12489	16.181	5.2727	5.e-002	-4.5465
12490	16.181	5.	0.	-1744.3
12491	16.089	5.0909	0.	-1767.3
12492	16.181	5.0909	5.e-002	-4.549
12493	16.181	4.8182	0.	-1743.8
12494	16.089	4.9091	0.	-1766.6
12495	16.181	4.9091	5.e-002	-4.5502
12496	16.181	4.6364	0.	-1743.3
12497	16.089	4.7273	0.	-1766.1
12498	16.181	4.7273	5.e-002	-4.5511
12499	16.181	4.4545	0.	-1742.9
12500	16.089	4.5455	0.	-1765.7
12501	16.181	4.5455	5.e-002	-4.5519
12502	16.181	4.2727	0.	-1742.6
12503	16.089	4.3636	0.	-1765.3
12504	16.181	4.3636	5.e-002	-4.5525
12505	16.181	4.0909	0.	-1742.3
12506	16.089	4.1818	0.	-1765.
12507	16.181	4.1818	5.e-002	-4.5531
12508	16.181	3.9091	0.	-1742.1
12509	16.089	4.	0.	-1764.7
12510	16.181	4.	5.e-002	-4.5535
12511	16.181	3.7273	0.	-1741.9
12512	16.089	3.8182	0.	-1764.5
12513	16.181	3.8182	5.e-002	-4.5538
12514	16.181	3.5455	0.	-1741.8
12515	16.089	3.6364	0.	-1764.3
12516	16.181	3.6364	5.e-002	-4.554
12517	16.181	3.3636	0.	-1741.7
12518	16.089	3.4545	0.	-1764.2
12519	16.181	3.4545	5.e-002	-4.5542
12520	16.181	3.1818	0.	-1741.6
12521	16.089	3.2727	0.	-1764.2
12522	16.181	3.2727	5.e-002	-4.5543
12523	16.181	3.	0.	-1741.6
12524	16.089	3.0909	0.	-1764.1
12525	16.181	3.0909	5.e-002	-4.5544
12526	16.181	2.8182	0.	-1741.6
12527	16.089	2.9091	0.	-1764.1
12528	16.181	2.9091	5.e-002	-4.5544
12529	16.181	2.6364	0.	-1741.7
12530	16.089	2.7273	0.	-1764.2
12531	16.181	2.7273	5.e-002	-4.5543
12532	16.181	2.4545	0.	-1741.8
12533	16.089	2.5455	0.	-1764.2
12534	16.181	2.5455	5.e-002	-4.5542
12535	16.181	2.2727	0.	-1741.9
12536	16.089	2.3636	0.	-1764.3
12537	16.181	2.3636	5.e-002	-4.554
12538	16.181	2.0909	0.	-1742.1
12539	16.089	2.1818	0.	-1764.5
12540	16.181	2.1818	5.e-002	-4.5538
12541	16.181	1.9091	0.	-1742.3
12542	16.089	2.	0.	-1764.7
12543	16.181	2.	5.e-002	-4.5535
12544	16.181	1.7273	0.	-1742.6
12545	16.089	1.8182	0.	-1765.
12546	16.181	1.8182	5.e-002	-4.5531
12547	16.181	1.5455	0.	-1742.9
12548	16.089	1.6364	0.	-1765.3
12549	16.181	1.6364	5.e-002	-4.5525
12550	16.181	1.3636	0.	-1743.3
12551	16.089	1.4545	0.	-1765.7
12552	16.181	1.4545	5.e-002	-4.5519
12553	16.181	1.1818	0.	-1743.8
12554	16.089	1.2727	0.	-1766.1
12555	16.181	1.2727	5.e-002	-4.5511
12556	16.181	1.	0.	-1744.3
12557	16.089	1.0909	0.	-1766.6
12558	16.181	1.0909	5.e-002	-4.5502
12559	16.181	0.81818	0.	-1745.
12560	16.089	0.90909	0.	-1767.3
12561	16.181	0.90909	5.e-002	-4.549
12562	16.181	0.63636	0.	-1745.7
12563	16.089	0.72727	0.	-1768.
12564	16.181	0.72727	5.e-002	-4.5465
12565	16.181	0.45455	0.	-1746.6
12566	16.089	0.54545	0.	-1768.8
12567	16.181	0.54545	5.e-002	-4.5271
12568	16.181	0.27273	0.	-1748.6
12569	16.089	0.36364	0.	-1769.8
12570	16.181	0.36364	5.e-002	-4.2504
12571	16.089	0.18182	0.	-1772.8
12572	16.181	0.18182	5.e-002	-0.23065
12573	16.181	9.0909e-002	0.	-1744.4
12574	15.997	5.7273	0.	-1793.9
12575	15.905	5.8182	0.	-1818.2
12576	15.997	5.8182	5.e-002	-0.21775
12577	15.997	5.9091	0.	-1789.8
12578	15.997	5.5455	0.	-1791.9
12579	15.905	5.6364	0.	-1815.2
12580	15.997	5.6364	5.e-002	-4.2648
12581	15.997	5.3636	0.	-1791.
12582	15.905	5.4545	0.	-1814.2
12583	15.997	5.4545	5.e-002	-4.5437
12584	15.997	5.1818	0.	-1790.2
12585	15.905	5.2727	0.	-1813.3
12586	15.997	5.2727	5.e-002	-4.5633
12587	15.997	5.	0.	-1789.5
12588	15.905	5.0909	0.	-1812.6
12589	15.997	5.0909	5.e-002	-4.5658
12590	15.997	4.8182	0.	-1788.9
12591	15.905	4.9091	0.	-1811.9
12592	15.997	4.9091	5.e-002	-4.567
12593	15.997	4.6364	0.	-1788.4
12594	15.905	4.7273	0.	-1811.4
12595	15.997	4.7273	5.e-002	-4.568
12596	15.997	4.4545	0.	-1788.
12597	15.905	4.5455	0.	-1810.9
12598	15.997	4.5455	5.e-002	-4.5688
12599	15.997	4.2727	0.	-1787.7
12600	15.905	4.3636	0.	-1810.5
12601	15.997	4.3636	5.e-002	-4.5695
12602	15.997	4.0909	0.	-1787.4
12603	15.905	4.1818	0.	-1810.1
12604	15.997	4.1818	5.e-002	-4.57
12605	15.997	3.9091	0.	-1787.1
12606	15.905	4.	0.	-1809.9
12607	15.997	4.	5.e-002	-4.5705
12608	15.997	3.7273	0.	-1786.9
12609	15.905	3.8182	0.	-1809.6
12610	15.997	3.8182	5.e-002	-4.5708
12611	15.997	3.5455	0.	-1786.8
12612	15.905	3.6364	0.	-1809.4
12613	15.997	3.6364	5.e-002	-4.5711
12614	15.997	3.3636	0.	-1786.7
12615	15.905	3.4545	0.	-1809.3
12616	15.997	3.4545	5.e-002	-4.5713
12617	15.997	3.1818	0.	-1786.6
12618	15.905	3.2727	0.	-1809.2
12619	15.997	3.2727	5.e-002	-4.5714
12620	15.997	3.	0.	-1786.6
12621	15.905	3.0909	0.	-1809.2
12622	15.997	3.0909	5.e-002	-4.5715
12623	15.997	2.8182	0.	-1786.6
12624	15.905	2.9091	0.	-1809.2
12625	15.997	2.9091	5.e-002	-4.5715
12626	15.997	2.6364	0.	-1786.7
12627	15.905	2.7273	0.	-1809.2
12628	15.997	2.7273	5.e-002	-4.5715
12629	15.997	2.4545	0.	-1786.8
12630	15.905	2.5455	0.	-1809.3
12631	15.997	2.5455	5.e-002	-4.5713
12632	15.997	2.2727	0.	-1786.9
12633	15.905	2.3636	0.	-1809.4
12634	15.997	2.3636	5.e-002	-4.5711
12635	15.997	2.0909	0.	-1787.1
12636	15.905	2.1818	0.	-1809.6
12637	15.997	2.1818	5.e-002	-4.5709
12638	15.997	1.9091	0.	-1787.4
12639	15.905	2.	0.	-1809.9
12640	15.997	2.	5.e-002	-4.5705
12641	15.997	1.7273	0.	-1787.7
12642	15.905	1.8182	0.	-1810.1
12643	15.997	1.8182	5.e-002	-4.57
12644	15.997	1.5455	0.	-1788.
12645	15.905	1.6364	0.	-1810.5
12646	15.997	1.6364	5.e-002	-4.5695
12647	15.997	1.3636	0.	-1788.4
12648	15.905	1.4545	0.	-1810.9
12649	15.997	1.4545	5.e-002	-4.5688
12650	15.997	1.1818	0.	-1788.9
12651	15.905	1.2727	0.	-1811.4
12652	15.997	1.2727	5.e-002	-4.568
12653	15.997	1.	0.	-1789.5
12654	15.905	1.0909	0.	-1811.9
12655	15.997	1.0909	5.e-002	-4.567
12656	15.997	0.81818	0.	-1790.2
12657	15.905	0.90909	0.	-1812.6
12658	15.997	0.90909	5.e-002	-4.5658
12659	15.997	0.63636	0.	-1791.
12660	15.905	0.72727	0.	-1813.3
12661	15.997	0.72727	5.e-002	-4.5633
12662	15.997	0.45455	0.	-1791.9
12663	15.905	0.54545	0.	-1814.2
12664	15.997	0.54545	5.e-002	-4.5438
12665	15.997	0.27273	0.	-1793.9
12666	15.905	0.36364	0.	-1815.2
12667	15.997	0.36364	5.e-002	-4.2649
12668	15.905	0.18182	0.	-1818.2
12669	15.997	0.18182	5.e-002	-0.21775
12670	15.997	9.0909e-002	0.	-1789.8
12671	15.813	5.7273	0.	-1839.4
12672	15.721	5.8182	0.	-1863.8
12673	15.813	5.8182	5.e-002	-0.207
12674	15.813	5.9091	0.	-1835.4
12675	15.813	5.5455	0.	-1837.4
12676	15.721	5.6364	0.	-1860.8
12677	15.813	5.6364	5.e-002	-4.2798
12678	15.813	5.3636	0.	-1836.4
12679	15.721	5.4545	0.	-1859.7
12680	15.813	5.4545	5.e-002	-4.5608
12681	15.813	5.1818	0.	-1835.6
12682	15.721	5.2727	0.	-1858.8
12683	15.813	5.2727	5.e-002	-4.5805
12684	15.813	5.	0.	-1834.9
12685	15.721	5.0909	0.	-1858.1
12686	15.813	5.0909	5.e-002	-4.5829
12687	15.813	4.8182	0.	-1834.3
12688	15.721	4.9091	0.	-1857.4
12689	15.813	4.9091	5.e-002	-4.5842
12690	15.813	4.6364	0.	-1833.8
12691	15.721	4.7273	0.	-1856.8
12692	15.813	4.7273	5.e-002	-4.5851
12693	15.813	4.4545	0.	-1833.3
12694	15.721	4.5455	0.	-1856.3
12695	15.813	4.5455	5.e-002	-4.586
12696	15.813	4.2727	0.	-1832.9
12697	15.721	4.3636	0.	-1855.9
12698	15.813	4.3636	5.e-002	-4.5867
12699	15.813	4.0909	0.	-1832.6
12700	15.721	4.1818	0.	-1855.5
12701	15.813	4.1818	5.e-002	-4.5873
12702	15.813	3.9091	0.	-1832.3
12703	15.721	4.	0.	-1855.2
12704	15.813	4.	5.e-002	-4.5878
12705	15.813	3.7273	0.	-1832.1
12706	15.721	3.8182	0.	-1854.9
12707	15.813	3.8182	5.e-002	-4.5882
12708	15.813	3.5455	0.	-1832.
12709	15.721	3.6364	0.	-1854.7
12710	15.813	3.6364	5.e-002	-4.5885
12711	15.813	3.3636	0.	-1831.8
12712	15.721	3.4545	0.	-1854.6
12713	15.813	3.4545	5.e-002	-4.5887
12714	15.813	3.1818	0.	-1831.8
12715	15.721	3.2727	0.	-1854.5
12716	15.813	3.2727	5.e-002	-4.5889
12717	15.813	3.	0.	-1831.8
12718	15.721	3.0909	0.	-1854.5
12719	15.813	3.0909	5.e-002	-4.5889
12720	15.813	2.8182	0.	-1831.8
12721	15.721	2.9091	0.	-1854.5
12722	15.813	2.9091	5.e-002	-4.5889
12723	15.813	2.6364	0.	-1831.8
12724	15.721	2.7273	0.	-1854.5
12725	15.813	2.7273	5.e-002	-4.5889
12726	15.813	2.4545	0.	-1832.
12727	15.721	2.5455	0.	-1854.6
12728	15.813	2.5455	5.e-002	-4.5887
12729	15.813	2.2727	0.	-1832.1
12730	15.721	2.3636	0.	-1854.7
12731	15.813	2.3636	5.e-002	-4.5885
12732	15.813	2.0909	0.	-1832.3
12733	15.721	2.1818	0.	-1854.9
12734	15.813	2.1818	5.e-002	-4.5882
12735	15.813	1.9091	0.	-1832.6
12736	15.721	2.	0.	-1855.2
12737	15.813	2.	5.e-002	-4.5878
12738	15.813	1.7273	0.	-1832.9
12739	15.721	1.8182	0.	-1855.5
12740	15.813	1.8182	5.e-002	-4.5873
12741	15.813	1.5455	0.	-1833.3
12742	15.721	1.6364	0.	-1855.9
12743	15.813	1.6364	5.e-002	-4.5867
12744	15.813	1.3636	0.	-1833.8
12745	15.721	1.4545	0.	-1856.3
12746	15.813	1.4545	5.e-002	-4.586
12747	15.813	1.1818	0.	-1834.3
12748	15.721	1.2727	0.	-1856.8
12749	15.813	1.2727	5.e-002	-4.5852
12750	15.813	1.	0.	-1834.9
12751	15.721	1.0909	0.	-1857.4
12752	15.813	1.0909	5.e-002	-4.5842
12753	15.813	0.81818	0.	-1835.6
12754	15.721	0.90909	0.	-1858.1
12755	15.813	0.90909	5.e-002	-4.583
12756	15.813	0.63636	0.	-1836.4
12757	15.721	0.72727	0.	-1858.8
12758	15.813	0.72727	5.e-002	-4.5805
12759	15.813	0.45455	0.	-1837.4
12760	15.721	0.54545	0.	-1859.7
12761	15.813	0.54545	5.e-002	-4.5608
12762	15.813	0.27273	0.	-1839.4
12763	15.721	0.36364	0.	-1860.8
12764	15.813	0.36364	5.e-002	-4.2798
12765	15.721	0.18182	0.	-1863.8
12766	15.813	0.18182	5.e-002	-0.207
12767	15.813	9.0909e-002	0.	-1835.4
12768	15.629	5.7273	0.	-1885.1
12769	15.537	5.8182	0.	-1909.6
12770	15.629	5.8182	5.e-002	-0.19801
12771	15.629	5.9091	0.	-1881.1
12772	15.629	5.5455	0.	-1883.1
12773	15.537	5.6364	0.	-1906.6
12774	15.629	5.6364	5.e-002	-4.2952
12775	15.629	5.3636	0.	-1882.1
12776	15.537	5.4545	0.	-1905.5
12777	15.629	5.4545	5.e-002	-4.5782
12778	15.629	5.1818	0.	-1881.2
12779	15.537	5.2727	0.	-1904.6
12780	15.629	5.2727	5.e-002	-4.598
12781	15.629	5.	0.	-1880.5
12782	15.537	5.0909	0.	-1903.8
12783	15.629	5.0909	5.e-002	-4.6005
12784	15.629	4.8182	0.	-1879.9
12785	15.537	4.9091	0.	-1903.1
12786	15.629	4.9091	5.e-002	-4.6017
12787	15.629	4.6364	0.	-1879.3
12788	15.537	4.7273	0.	-1902.4
12789	15.629	4.7273	5.e-002	-4.6027
12790	15.629	4.4545	0.	-1878.8
12791	15.537	4.5455	0.	-1901.9
12792	15.629	4.5455	5.e-002	-4.6035
12793	15.629	4.2727	0.	-1878.4
12794	15.537	4.3636	0.	-1901.4
12795	15.629	4.3636	5.e-002	-4.6043
12796	15.629	4.0909	0.	-1878.
12797	15.537	4.1818	0.	-1901.1
12798	15.629	4.1818	5.e-002	-4.6049
12799	15.629	3.9091	0.	-1877.8
12800	15.537	4.	0.	-1900.7
12801	15.629	4.	5.e-002	-4.6054
12802	15.629	3.7273	0.	-1877.5
12803	15.537	3.8182	0.	-1900.5
12804	15.629	3.8182	5.e-002	-4.6059
12805	15.629	3.5455	0.	-1877.4
12806	15.537	3.6364	0.	-1900.2
12807	15.629	3.6364	5.e-002	-4.6062
12808	15.629	3.3636	0.	-1877.2
12809	15.537	3.4545	0.	-1900.1
12810	15.629	3.4545	5.e-002	-4.6064
12811	15.629	3.1818	0.	-1877.2
12812	15.537	3.2727	0.	-1900.
12813	15.629	3.2727	5.e-002	-4.6066
12814	15.629	3.	0.	-1877.1
12815	15.537	3.0909	0.	-1899.9
12816	15.629	3.0909	5.e-002	-4.6067
12817	15.629	2.8182	0.	-1877.2
12818	15.537	2.9091	0.	-1899.9
12819	15.629	2.9091	5.e-002	-4.6067
12820	15.629	2.6364	0.	-1877.2
12821	15.537	2.7273	0.	-1900.
12822	15.629	2.7273	5.e-002	-4.6066
12823	15.629	2.4545	0.	-1877.4
12824	15.537	2.5455	0.	-1900.1
12825	15.629	2.5455	5.e-002	-4.6064
12826	15.629	2.2727	0.	-1877.5
12827	15.537	2.3636	0.	-1900.2
12828	15.629	2.3636	5.e-002	-4.6062
12829	15.629	2.0909	0.	-1877.8
12830	15.537	2.1818	0.	-1900.5
12831	15.629	2.1818	5.e-002	-4.6059
12832	15.629	1.9091	0.	-1878.
12833	15.537	2.	0.	-1900.7
12834	15.629	2.	5.e-002	-4.6054
12835	15.629	1.7273	0.	-1878.4
12836	15.537	1.8182	0.	-1901.1
12837	15.629	1.8182	5.e-002	-4.6049
12838	15.629	1.5455	0.	-1878.8
12839	15.537	1.6364	0.	-1901.4
12840	15.629	1.6364	5.e-002	-4.6043
12841	15.629	1.3636	0.	-1879.3
12842	15.537	1.4545	0.	-1901.9
12843	15.629	1.4545	5.e-002	-4.6036
12844	15.629	1.1818	0.	-1879.9
12845	15.537	1.2727	0.	-1902.4
12846	15.629	1.2727	5.e-002	-4.6027
12847	15.629	1.	0.	-1880.5
12848	15.537	1.0909	0.	-1903.1
12849	15.629	1.0909	5.e-002	-4.6017
12850	15.629	0.81818	0.	-1881.2
12851	15.537	0.90909	0.	-1903.8
12852	15.629	0.90909	5.e-002	-4.6005
12853	15.629	0.63636	0.	-1882.1
12854	15.537	0.72727	0.	-1904.6
12855	15.629	0.72727	5.e-002	-4.598
12856	15.629	0.45455	0.	-1883.1
12857	15.537	0.54545	0.	-1905.5
12858	15.629	0.54545	5.e-002	-4.5782
12859	15.629	0.27273	0.	-1885.1
12860	15.537	0.36364	0.	-1906.6
12861	15.629	0.36364	5.e-002	-4.2952
12862	15.537	0.18182	0.	-1909.6
12863	15.629	0.18182	5.e-002	-0.19801
12864	15.629	9.0909e-002	0.	-1881.1
12865	15.445	5.7273	0.	-1930.9
12866	15.353	5.8182	0.	-1955.5
12867	15.445	5.8182	5.e-002	-0.19036
12868	15.445	5.9091	0.	-1927.
12869	15.445	5.5455	0.	-1928.9
12870	15.353	5.6364	0.	-1952.5
12871	15.445	5.6364	5.e-002	-4.3111
12872	15.445	5.3636	0.	-1927.9
12873	15.353	5.4545	0.	-1951.4
12874	15.445	5.4545	5.e-002	-4.596
12875	15.445	5.1818	0.	-1927.
12876	15.353	5.2727	0.	-1950.5
12877	15.445	5.2727	5.e-002	-4.6159
12878	15.445	5.	0.	-1926.3
12879	15.353	5.0909	0.	-1949.6
12880	15.445	5.0909	5.e-002	-4.6184
12881	15.445	4.8182	0.	-1925.6
12882	15.353	4.9091	0.	-1948.9
12883	15.445	4.9091	5.e-002	-4.6196
12884	15.445	4.6364	0.	-1925.
12885	15.353	4.7273	0.	-1948.3
12886	15.445	4.7273	5.e-002	-4.6206
12887	15.445	4.4545	0.	-1924.5
12888	15.353	4.5455	0.	-1947.7
12889	15.445	4.5455	5.e-002	-4.6215
12890	15.445	4.2727	0.	-1924.1
12891	15.353	4.3636	0.	-1947.2
12892	15.445	4.3636	5.e-002	-4.6222
12893	15.445	4.0909	0.	-1923.7
12894	15.353	4.1818	0.	-1946.8
12895	15.445	4.1818	5.e-002	-4.6229
12896	15.445	3.9091	0.	-1923.4
12897	15.353	4.	0.	-1946.5
12898	15.445	4.	5.e-002	-4.6234
12899	15.445	3.7273	0.	-1923.1
12900	15.353	3.8182	0.	-1946.2
12901	15.445	3.8182	5.e-002	-4.6239
12902	15.445	3.5455	0.	-1923.
12903	15.353	3.6364	0.	-1946.
12904	15.445	3.6364	5.e-002	-4.6242
12905	15.445	3.3636	0.	-1922.8
12906	15.353	3.4545	0.	-1945.8
12907	15.445	3.4545	5.e-002	-4.6245
12908	15.445	3.1818	0.	-1922.7
12909	15.353	3.2727	0.	-1945.7
12910	15.445	3.2727	5.e-002	-4.6247
12911	15.445	3.	0.	-1922.7
12912	15.353	3.0909	0.	-1945.6
12913	15.445	3.0909	5.e-002	-4.6247
12914	15.445	2.8182	0.	-1922.7
12915	15.353	2.9091	0.	-1945.6
12916	15.445	2.9091	5.e-002	-4.6247
12917	15.445	2.6364	0.	-1922.8
12918	15.353	2.7273	0.	-1945.7
12919	15.445	2.7273	5.e-002	-4.6247
12920	15.445	2.4545	0.	-1923.
12921	15.353	2.5455	0.	-1945.8
12922	15.445	2.5455	5.e-002	-4.6245
12923	15.445	2.2727	0.	-1923.1
12924	15.353	2.3636	0.	-1946.
12925	15.445	2.3636	5.e-002	-4.6242
12926	15.445	2.0909	0.	-1923.4
12927	15.353	2.1818	0.	-1946.2
12928	15.445	2.1818	5.e-002	-4.6239
12929	15.445	1.9091	0.	-1923.7
12930	15.353	2.	0.	-1946.5
12931	15.445	2.	5.e-002	-4.6234
12932	15.445	1.7273	0.	-1924.1
12933	15.353	1.8182	0.	-1946.8
12934	15.445	1.8182	5.e-002	-4.6229
12935	15.445	1.5455	0.	-1924.5
12936	15.353	1.6364	0.	-1947.2
12937	15.445	1.6364	5.e-002	-4.6222
12938	15.445	1.3636	0.	-1925.
12939	15.353	1.4545	0.	-1947.7
12940	15.445	1.4545	5.e-002	-4.6215
12941	15.445	1.1818	0.	-1925.6
12942	15.353	1.2727	0.	-1948.3
12943	15.445	1.2727	5.e-002	-4.6206
12944	15.445	1.	0.	-1926.3
12945	15.353	1.0909	0.	-1948.9
12946	15.445	1.0909	5.e-002	-4.6196
12947	15.445	0.81818	0.	-1927.
12948	15.353	0.90909	0.	-1949.6
12949	15.445	0.90909	5.e-002	-4.6184
12950	15.445	0.63636	0.	-1927.9
12951	15.353	0.72727	0.	-1950.5
12952	15.445	0.72727	5.e-002	-4.6159
12953	15.445	0.45455	0.	-1928.9
12954	15.353	0.54545	0.	-1951.4
12955	15.445	0.54545	5.e-002	-4.596
12956	15.445	0.27273	0.	-1930.9
12957	15.353	0.36364	0.	-1952.5
12958	15.445	0.36364	5.e-002	-4.3111
12959	15.353	0.18182	0.	-1955.5
12960	15.445	0.18182	5.e-002	-0.19036
12961	15.445	9.0909e-002	0.	-1927.
12962	15.261	5.7273	0.	-1977.
12963	15.169	5.8182	0.	-2001.7
12964	15.261	5.8182	5.e-002	-0.18368
12965	15.261	5.9091	0.	-1973.1
12966	15.261	5.5455	0.	-1975.
12967	15.169	5.6364	0.	-1998.7
12968	15.261	5.6364	5.e-002	-4.3274
12969	15.261	5.3636	0.	-1973.9
12970	15.169	5.4545	0.	-1997.5
12971	15.261	5.4545	5.e-002	-4.6141
12972	15.261	5.1818	0.	-1973.
12973	15.169	5.2727	0.	-1996.6
12974	15.261	5.2727	5.e-002	-4.6341
12975	15.261	5.	0.	-1972.2
12976	15.169	5.0909	0.	-1995.7
12977	15.261	5.0909	5.e-002	-4.6366
12978	15.261	4.8182	0.	-1971.5
12979	15.169	4.9091	0.	-1995.
12980	15.261	4.9091	5.e-002	-4.6378
12981	15.261	4.6364	0.	-1970.9
12982	15.169	4.7273	0.	-1994.3
12983	15.261	4.7273	5.e-002	-4.6388
12984	15.261	4.4545	0.	-1970.4
12985	15.169	4.5455	0.	-1993.7
12986	15.261	4.5455	5.e-002	-4.6397
12987	15.261	4.2727	0.	-1969.9
12988	15.169	4.3636	0.	-1993.2
12989	15.261	4.3636	5.e-002	-4.6405
12990	15.261	4.0909	0.	-1969.5
12991	15.169	4.1818	0.	-1992.8
12992	15.261	4.1818	5.e-002	-4.6412
12993	15.261	3.9091	0.	-1969.2
12994	15.169	4.	0.	-1992.4
12995	15.261	4.	5.e-002	-4.6417
12996	15.261	3.7273	0.	-1969.
12997	15.169	3.8182	0.	-1992.1
12998	15.261	3.8182	5.e-002	-4.6422
12999	15.261	3.5455	0.	-1968.8
13000	15.169	3.6364	0.	-1991.9
13001	15.261	3.6364	5.e-002	-4.6425
13002	15.261	3.3636	0.	-1968.6
13003	15.169	3.4545	0.	-1991.7
13004	15.261	3.4545	5.e-002	-4.6428
13005	15.261	3.1818	0.	-1968.5
13006	15.169	3.2727	0.	-1991.6
13007	15.261	3.2727	5.e-002	-4.643
13008	15.261	3.	0.	-1968.5
13009	15.169	3.0909	0.	-1991.5
13010	15.261	3.0909	5.e-002	-4.6431
13011	15.261	2.8182	0.	-1968.5
13012	15.169	2.9091	0.	-1991.5
13013	15.261	2.9091	5.e-002	-4.6431
13014	15.261	2.6364	0.	-1968.6
13015	15.169	2.7273	0.	-1991.6
13016	15.261	2.7273	5.e-002	-4.643
13017	15.261	2.4545	0.	-1968.8
13018	15.169	2.5455	0.	-1991.7
13019	15.261	2.5455	5.e-002	-4.6428
13020	15.261	2.2727	0.	-1969.
13021	15.169	2.3636	0.	-1991.9
13022	15.261	2.3636	5.e-002	-4.6425
13023	15.261	2.0909	0.	-1969.2
13024	15.169	2.1818	0.	-1992.1
13025	15.261	2.1818	5.e-002	-4.6422
13026	15.261	1.9091	0.	-1969.5
13027	15.169	2.	0.	-1992.4
13028	15.261	2.	5.e-002	-4.6417
13029	15.261	1.7273	0.	-1969.9
13030	15.169	1.8182	0.	-1992.8
13031	15.261	1.8182	5.e-002	-4.6412
13032	15.261	1.5455	0.	-1970.4
13033	15.169	1.6364	0.	-1993.2
13034	15.261	1.6364	5.e-002	-4.6405
13035	15.261	1.3636	0.	-1970.9
13036	15.169	1.4545	0.	-1993.7
13037	15.261	1.4545	5.e-002	-4.6397
13038	15.261	1.1818	0.	-1971.5
13039	15.169	1.2727	0.	-1994.3
13040	15.261	1.2727	5.e-002	-4.6388
13041	15.261	1.	0.	-1972.2
13042	15.169	1.0909	0.	-1995.
13043	15.261	1.0909	5.e-002	-4.6378
13044	15.261	0.81818	0.	-1973.
13045	15.169	0.90909	0.	-1995.7
13046	15.261	0.90909	5.e-002	-4.6366
13047	15.261	0.63636	0.	-1973.9
13048	15.169	0.72727	0.	-1996.6
13049	15.261	0.72727	5.e-002	-4.6341
13050	15.261	0.45455	0.	-1975.
13051	15.169	0.54545	0.	-1997.5
13052	15.261	0.54545	5.e-002	-4.6141
13053	15.261	0.27273	0.	-1977.
13054	15.169	0.36364	0.	-1998.7
13055	15.261	0.36364	5.e-002	-4.3274
13056	15.169	0.18182	0.	-2001.7
13057	15.261	0.18182	5.e-002	-0.18369
13058	15.261	9.0909e-002	0.	-1973.1
13059	15.077	5.7273	0.	-2023.2
13060	14.985	5.8182	0.	-2048.
13061	15.077	5.8182	5.e-002	-0.17765
13062	15.077	5.9091	0.	-2019.4
13063	15.077	5.5455	0.	-2021.2
13064	14.985	5.6364	0.	-2045.
13065	15.077	5.6364	5.e-002	-4.344
13066	15.077	5.3636	0.	-2020.1
13067	14.985	5.4545	0.	-2043.8
13068	15.077	5.4545	5.e-002	-4.6324
13069	15.077	5.1818	0.	-2019.2
13070	14.985	5.2727	0.	-2042.8
13071	15.077	5.2727	5.e-002	-4.6525
13072	15.077	5.	0.	-2018.4
13073	14.985	5.0909	0.	-2042.
13074	15.077	5.0909	5.e-002	-4.655
13075	15.077	4.8182	0.	-2017.7
13076	14.985	4.9091	0.	-2041.2
13077	15.077	4.9091	5.e-002	-4.6562
13078	15.077	4.6364	0.	-2017.
13079	14.985	4.7273	0.	-2040.5
13080	15.077	4.7273	5.e-002	-4.6572
13081	15.077	4.4545	0.	-2016.5
13082	14.985	4.5455	0.	-2039.9
13083	15.077	4.5455	5.e-002	-4.6582
13084	15.077	4.2727	0.	-2016.
13085	14.985	4.3636	0.	-2039.4
13086	15.077	4.3636	5.e-002	-4.6589
13087	15.077	4.0909	0.	-2015.6
13088	14.985	4.1818	0.	-2038.9
13089	15.077	4.1818	5.e-002	-4.6596
13090	15.077	3.9091	0.	-2015.3
13091	14.985	4.	0.	-2038.5
13092	15.077	4.	5.e-002	-4.6602
13093	15.077	3.7273	0.	-2015.
13094	14.985	3.8182	0.	-2038.2
13095	15.077	3.8182	5.e-002	-4.6607
13096	15.077	3.5455	0.	-2014.8
13097	14.985	3.6364	0.	-2038.
13098	15.077	3.6364	5.e-002	-4.661
13099	15.077	3.3636	0.	-2014.6
13100	14.985	3.4545	0.	-2037.8
13101	15.077	3.4545	5.e-002	-4.6613
13102	15.077	3.1818	0.	-2014.5
13103	14.985	3.2727	0.	-2037.7
13104	15.077	3.2727	5.e-002	-4.6615
13105	15.077	3.	0.	-2014.5
13106	14.985	3.0909	0.	-2037.6
13107	15.077	3.0909	5.e-002	-4.6616
13108	15.077	2.8182	0.	-2014.5
13109	14.985	2.9091	0.	-2037.6
13110	15.077	2.9091	5.e-002	-4.6616
13111	15.077	2.6364	0.	-2014.6
13112	14.985	2.7273	0.	-2037.7
13113	15.077	2.7273	5.e-002	-4.6615
13114	15.077	2.4545	0.	-2014.8
13115	14.985	2.5455	0.	-2037.8
13116	15.077	2.5455	5.e-002	-4.6613
13117	15.077	2.2727	0.	-2015.
13118	14.985	2.3636	0.	-2038.
13119	15.077	2.3636	5.e-002	-4.6611
13120	15.077	2.0909	0.	-2015.3
13121	14.985	2.1818	0.	-2038.2
13122	15.077	2.1818	5.e-002	-4.6607
13123	15.077	1.9091	0.	-2015.6
13124	14.985	2.	0.	-2038.5
13125	15.077	2.	5.e-002	-4.6602
13126	15.077	1.7273	0.	-2016.
13127	14.985	1.8182	0.	-2038.9
13128	15.077	1.8182	5.e-002	-4.6596
13129	15.077	1.5455	0.	-2016.5
13130	14.985	1.6364	0.	-2039.4
13131	15.077	1.6364	5.e-002	-4.659
13132	15.077	1.3636	0.	-2017.
13133	14.985	1.4545	0.	-2039.9
13134	15.077	1.4545	5.e-002	-4.6582
13135	15.077	1.1818	0.	-2017.7
13136	14.985	1.2727	0.	-2040.5
13137	15.077	1.2727	5.e-002	-4.6573
13138	15.077	1.	0.	-2018.4
13139	14.985	1.0909	0.	-2041.2
13140	15.077	1.0909	5.e-002	-4.6563
13141	15.077	0.81818	0.	-2019.2
13142	14.985	0.90909	0.	-2042.
13143	15.077	0.90909	5.e-002	-4.655
13144	15.077	0.63636	0.	-2020.1
13145	14.985	0.72727	0.	-2042.8
13146	15.077	0.72727	5.e-002	-4.6526
13147	15.077	0.45455	0.	-2021.2
13148	14.985	0.54545	0.	-2043.8
13149	15.077	0.54545	5.e-002	-4.6325
13150	15.077	0.27273	0.	-2023.2
13151	14.985	0.36364	0.	-2045.
13152	15.077	0.36364	5.e-002	-4.344
13153	14.985	0.18182	0.	-2048.
13154	15.077	0.18182	5.e-002	-0.17766
13155	15.077	9.0909e-002	0.	-2019.4
13156	14.894	5.7273	0.	-2069.6
13157	14.802	5.8182	0.	-2094.5
13158	14.894	5.8182	5.e-002	-0.17194
13159	14.894	5.9091	0.	-2065.9
13160	14.894	5.5455	0.	-2067.6
13161	14.802	5.6364	0.	-2091.5
13162	14.894	5.6364	5.e-002	-4.3609
13163	14.894	5.3636	0.	-2066.5
13164	14.802	5.4545	0.	-2090.3
13165	14.894	5.4545	5.e-002	-4.651
13166	14.894	5.1818	0.	-2065.6
13167	14.802	5.2727	0.	-2089.3
13168	14.894	5.2727	5.e-002	-4.6712
13169	14.894	5.	0.	-2064.7
13170	14.802	5.0909	0.	-2088.4
13171	14.894	5.0909	5.e-002	-4.6737
13172	14.894	4.8182	0.	-2064.
13173	14.802	4.9091	0.	-2087.6
13174	14.894	4.9091	5.e-002	-4.6749
13175	14.894	4.6364	0.	-2063.3
13176	14.802	4.7273	0.	-2086.9
13177	14.894	4.7273	5.e-002	-4.6759
13178	14.894	4.4545	0.	-2062.8
13179	14.802	4.5455	0.	-2086.3
13180	14.894	4.5455	5.e-002	-4.6768
13181	14.894	4.2727	0.	-2062.3
13182	14.802	4.3636	0.	-2085.8
13183	14.894	4.3636	5.e-002	-4.6776
13184	14.894	4.0909	0.	-2061.8
13185	14.802	4.1818	0.	-2085.3
13186	14.894	4.1818	5.e-002	-4.6784
13187	14.894	3.9091	0.	-2061.5
13188	14.802	4.	0.	-2084.9
13189	14.894	4.	5.e-002	-4.6789
13190	14.894	3.7273	0.	-2061.2
13191	14.802	3.8182	0.	-2084.6
13192	14.894	3.8182	5.e-002	-4.6794
13193	14.894	3.5455	0.	-2061.
13194	14.802	3.6364	0.	-2084.3
13195	14.894	3.6364	5.e-002	-4.6798
13196	14.894	3.3636	0.	-2060.8
13197	14.802	3.4545	0.	-2084.1
13198	14.894	3.4545	5.e-002	-4.6801
13199	14.894	3.1818	0.	-2060.7
13200	14.802	3.2727	0.	-2084.
13201	14.894	3.2727	5.e-002	-4.6803
13202	14.894	3.	0.	-2060.7
13203	14.802	3.0909	0.	-2083.9
13204	14.894	3.0909	5.e-002	-4.6804
13205	14.894	2.8182	0.	-2060.7
13206	14.802	2.9091	0.	-2083.9
13207	14.894	2.9091	5.e-002	-4.6804
13208	14.894	2.6364	0.	-2060.8
13209	14.802	2.7273	0.	-2084.
13210	14.894	2.7273	5.e-002	-4.6803
13211	14.894	2.4545	0.	-2061.
13212	14.802	2.5455	0.	-2084.1
13213	14.894	2.5455	5.e-002	-4.6801
13214	14.894	2.2727	0.	-2061.2
13215	14.802	2.3636	0.	-2084.3
13216	14.894	2.3636	5.e-002	-4.6798
13217	14.894	2.0909	0.	-2061.5
13218	14.802	2.1818	0.	-2084.6
13219	14.894	2.1818	5.e-002	-4.6794
13220	14.894	1.9091	0.	-2061.8
13221	14.802	2.	0.	-2084.9
13222	14.894	2.	5.e-002	-4.679
13223	14.894	1.7273	0.	-2062.3
13224	14.802	1.8182	0.	-2085.3
13225	14.894	1.8182	5.e-002	-4.6784
13226	14.894	1.5455	0.	-2062.8
13227	14.802	1.6364	0.	-2085.8
13228	14.894	1.6364	5.e-002	-4.6777
13229	14.894	1.3636	0.	-2063.3
13230	14.802	1.4545	0.	-2086.3
13231	14.894	1.4545	5.e-002	-4.6769
13232	14.894	1.1818	0.	-2064.
13233	14.802	1.2727	0.	-2086.9
13234	14.894	1.2727	5.e-002	-4.676
13235	14.894	1.	0.	-2064.7
13236	14.802	1.0909	0.	-2087.6
13237	14.894	1.0909	5.e-002	-4.6749
13238	14.894	0.81818	0.	-2065.6
13239	14.802	0.90909	0.	-2088.4
13240	14.894	0.90909	5.e-002	-4.6737
13241	14.894	0.63636	0.	-2066.5
13242	14.802	0.72727	0.	-2089.3
13243	14.894	0.72727	5.e-002	-4.6712
13244	14.894	0.45455	0.	-2067.6
13245	14.802	0.54545	0.	-2090.3
13246	14.894	0.54545	5.e-002	-4.651
13247	14.894	0.27273	0.	-2069.6
13248	14.802	0.36364	0.	-2091.5
13249	14.894	0.36364	5.e-002	-4.3609
13250	14.802	0.18182	0.	-2094.5
13251	14.894	0.18182	5.e-002	-0.17195
13252	14.894	9.0909e-002	0.	-2065.9
13253	14.71	5.7273	0.	-2116.2
13254	14.618	5.8182	0.	-2141.2
13255	14.71	5.8182	5.e-002	-0.16623
13256	14.71	5.9091	0.	-2112.6
13257	14.71	5.5455	0.	-2114.2
13258	14.618	5.6364	0.	-2138.2
13259	14.71	5.6364	5.e-002	-4.3782
13260	14.71	5.3636	0.	-2113.1
13261	14.618	5.4545	0.	-2137.
13262	14.71	5.4545	5.e-002	-4.6698
13263	14.71	5.1818	0.	-2112.1
13264	14.618	5.2727	0.	-2136.
13265	14.71	5.2727	5.e-002	-4.6902
13266	14.71	5.	0.	-2111.3
13267	14.618	5.0909	0.	-2135.1
13268	14.71	5.0909	5.e-002	-4.6927
13269	14.71	4.8182	0.	-2110.5
13270	14.618	4.9091	0.	-2134.3
13271	14.71	4.9091	5.e-002	-4.6939
13272	14.71	4.6364	0.	-2109.9
13273	14.618	4.7273	0.	-2133.5
13274	14.71	4.7273	5.e-002	-4.6949
13275	14.71	4.4545	0.	-2109.3
13276	14.618	4.5455	0.	-2132.9
13277	14.71	4.5455	5.e-002	-4.6959
13278	14.71	4.2727	0.	-2108.7
13279	14.618	4.3636	0.	-2132.3
13280	14.71	4.3636	5.e-002	-4.6967
13281	14.71	4.0909	0.	-2108.3
13282	14.618	4.1818	0.	-2131.8
13283	14.71	4.1818	5.e-002	-4.6974
13284	14.71	3.9091	0.	-2107.9
13285	14.618	4.	0.	-2131.4
13286	14.71	4.	5.e-002	-4.698
13287	14.71	3.7273	0.	-2107.6
13288	14.618	3.8182	0.	-2131.1
13289	14.71	3.8182	5.e-002	-4.6985
13290	14.71	3.5455	0.	-2107.4
13291	14.618	3.6364	0.	-2130.8
13292	14.71	3.6364	5.e-002	-4.6989
13293	14.71	3.3636	0.	-2107.2
13294	14.618	3.4545	0.	-2130.6
13295	14.71	3.4545	5.e-002	-4.6992
13296	14.71	3.1818	0.	-2107.1
13297	14.618	3.2727	0.	-2130.5
13298	14.71	3.2727	5.e-002	-4.6994
13299	14.71	3.	0.	-2107.1
13300	14.618	3.0909	0.	-2130.4
13301	14.71	3.0909	5.e-002	-4.6995
13302	14.71	2.8182	0.	-2107.1
13303	14.618	2.9091	0.	-2130.4
13304	14.71	2.9091	5.e-002	-4.6995
13305	14.71	2.6364	0.	-2107.2
13306	14.618	2.7273	0.	-2130.5
13307	14.71	2.7273	5.e-002	-4.6994
13308	14.71	2.4545	0.	-2107.4
13309	14.618	2.5455	0.	-2130.6
13310	14.71	2.5455	5.e-002	-4.6992
13311	14.71	2.2727	0.	-2107.6
13312	14.618	2.3636	0.	-2130.8
13313	14.71	2.3636	5.e-002	-4.6989
13314	14.71	2.0909	0.	-2107.9
13315	14.618	2.1818	0.	-2131.1
13316	14.71	2.1818	5.e-002	-4.6985
13317	14.71	1.9091	0.	-2108.3
13318	14.618	2.	0.	-2131.4
13319	14.71	2.	5.e-002	-4.698
13320	14.71	1.7273	0.	-2108.7
13321	14.618	1.8182	0.	-2131.8
13322	14.71	1.8182	5.e-002	-4.6974
13323	14.71	1.5455	0.	-2109.3
13324	14.618	1.6364	0.	-2132.3
13325	14.71	1.6364	5.e-002	-4.6967
13326	14.71	1.3636	0.	-2109.9
13327	14.618	1.4545	0.	-2132.9
13328	14.71	1.4545	5.e-002	-4.6959
13329	14.71	1.1818	0.	-2110.5
13330	14.618	1.2727	0.	-2133.5
13331	14.71	1.2727	5.e-002	-4.695
13332	14.71	1.	0.	-2111.3
13333	14.618	1.0909	0.	-2134.3
13334	14.71	1.0909	5.e-002	-4.6939
13335	14.71	0.81818	0.	-2112.1
13336	14.618	0.90909	0.	-2135.1
13337	14.71	0.90909	5.e-002	-4.6927
13338	14.71	0.63636	0.	-2113.1
13339	14.618	0.72727	0.	-2136.
13340	14.71	0.72727	5.e-002	-4.6902
13341	14.71	0.45455	0.	-2114.2
13342	14.618	0.54545	0.	-2137.
13343	14.71	0.54545	5.e-002	-4.6699
13344	14.71	0.27273	0.	-2116.2
13345	14.618	0.36364	0.	-2138.2
13346	14.71	0.36364	5.e-002	-4.3783
13347	14.618	0.18182	0.	-2141.2
13348	14.71	0.18182	5.e-002	-0.16624
13349	14.71	9.0909e-002	0.	-2112.6
13350	14.526	5.7273	0.	-2163.
13351	14.434	5.8182	0.	-2188.1
13352	14.526	5.8182	5.e-002	-0.16026
13353	14.526	5.9091	0.	-2159.5
13354	14.526	5.5455	0.	-2161.
13355	14.434	5.6364	0.	-2185.1
13356	14.526	5.6364	5.e-002	-4.3959
13357	14.526	5.3636	0.	-2159.9
13358	14.434	5.4545	0.	-2183.9
13359	14.526	5.4545	5.e-002	-4.689
13360	14.526	5.1818	0.	-2158.9
13361	14.434	5.2727	0.	-2182.9
13362	14.526	5.2727	5.e-002	-4.7094
13363	14.526	5.	0.	-2158.
13364	14.434	5.0909	0.	-2181.9
13365	14.526	5.0909	5.e-002	-4.7119
13366	14.526	4.8182	0.	-2157.2
13367	14.434	4.9091	0.	-2181.1
13368	14.526	4.9091	5.e-002	-4.7132
13369	14.526	4.6364	0.	-2156.5
13370	14.434	4.7273	0.	-2180.3
13371	14.526	4.7273	5.e-002	-4.7142
13372	14.526	4.4545	0.	-2155.9
13373	14.434	4.5455	0.	-2179.7
13374	14.526	4.5455	5.e-002	-4.7152
13375	14.526	4.2727	0.	-2155.4
13376	14.434	4.3636	0.	-2179.1
13377	14.526	4.3636	5.e-002	-4.716
13378	14.526	4.0909	0.	-2154.9
13379	14.434	4.1818	0.	-2178.6
13380	14.526	4.1818	5.e-002	-4.7168
13381	14.526	3.9091	0.	-2154.5
13382	14.434	4.	0.	-2178.2
13383	14.526	4.	5.e-002	-4.7174
13384	14.526	3.7273	0.	-2154.2
13385	14.434	3.8182	0.	-2177.8
13386	14.526	3.8182	5.e-002	-4.7179
13387	14.526	3.5455	0.	-2154.
13388	14.434	3.6364	0.	-2177.5
13389	14.526	3.6364	5.e-002	-4.7183
13390	14.526	3.3636	0.	-2153.8
13391	14.434	3.4545	0.	-2177.3
13392	14.526	3.4545	5.e-002	-4.7186
13393	14.526	3.1818	0.	-2153.7
13394	14.434	3.2727	0.	-2177.2
13395	14.526	3.2727	5.e-002	-4.7188
13396	14.526	3.	0.	-2153.7
13397	14.434	3.0909	0.	-2177.1
13398	14.526	3.0909	5.e-002	-4.7189
13399	14.526	2.8182	0.	-2153.7
13400	14.434	2.9091	0.	-2177.1
13401	14.526	2.9091	5.e-002	-4.7189
13402	14.526	2.6364	0.	-2153.8
13403	14.434	2.7273	0.	-2177.2
13404	14.526	2.7273	5.e-002	-4.7188
13405	14.526	2.4545	0.	-2154.
13406	14.434	2.5455	0.	-2177.3
13407	14.526	2.5455	5.e-002	-4.7186
13408	14.526	2.2727	0.	-2154.2
13409	14.434	2.3636	0.	-2177.5
13410	14.526	2.3636	5.e-002	-4.7183
13411	14.526	2.0909	0.	-2154.5
13412	14.434	2.1818	0.	-2177.8
13413	14.526	2.1818	5.e-002	-4.7179
13414	14.526	1.9091	0.	-2154.9
13415	14.434	2.	0.	-2178.2
13416	14.526	2.	5.e-002	-4.7174
13417	14.526	1.7273	0.	-2155.4
13418	14.434	1.8182	0.	-2178.6
13419	14.526	1.8182	5.e-002	-4.7168
13420	14.526	1.5455	0.	-2155.9
13421	14.434	1.6364	0.	-2179.1
13422	14.526	1.6364	5.e-002	-4.7161
13423	14.526	1.3636	0.	-2156.5
13424	14.434	1.4545	0.	-2179.7
13425	14.526	1.4545	5.e-002	-4.7152
13426	14.526	1.1818	0.	-2157.2
13427	14.434	1.2727	0.	-2180.3
13428	14.526	1.2727	5.e-002	-4.7143
13429	14.526	1.	0.	-2158.
13430	14.434	1.0909	0.	-2181.1
13431	14.526	1.0909	5.e-002	-4.7132
13432	14.526	0.81818	0.	-2158.9
13433	14.434	0.90909	0.	-2181.9
13434	14.526	0.90909	5.e-002	-4.7119
13435	14.526	0.63636	0.	-2159.9
13436	14.434	0.72727	0.	-2182.9
13437	14.526	0.72727	5.e-002	-4.7094
13438	14.526	0.45455	0.	-2161.
13439	14.434	0.54545	0.	-2183.9
13440	14.526	0.54545	5.e-002	-4.689
13441	14.526	0.27273	0.	-2163.
13442	14.434	0.36364	0.	-2185.1
13443	14.526	0.36364	5.e-002	-4.3959
13444	14.434	0.18182	0.	-2188.1
13445	14.526	0.18182	5.e-002	-0.16028
13446	14.526	9.0909e-002	0.	-2159.5
13447	14.342	5.7273	0.	-2210.
13448	14.25	5.8182	0.	-2235.2
13449	14.342	5.8182	5.e-002	-0.15389
13450	14.342	5.9091	0.	-2206.5
13451	14.342	5.5455	0.	-2208.
13452	14.25	5.6364	0.	-2232.2
13453	14.342	5.6364	5.e-002	-4.4138
13454	14.342	5.3636	0.	-2206.8
13455	14.25	5.4545	0.	-2231.
13456	14.342	5.4545	5.e-002	-4.7083
13457	14.342	5.1818	0.	-2205.9
13458	14.25	5.2727	0.	-2229.9
13459	14.342	5.2727	5.e-002	-4.7288
13460	14.342	5.	0.	-2205.
13461	14.25	5.0909	0.	-2229.
13462	14.342	5.0909	5.e-002	-4.7314
13463	14.342	4.8182	0.	-2204.2
13464	14.25	4.9091	0.	-2228.1
13465	14.342	4.9091	5.e-002	-4.7326
13466	14.342	4.6364	0.	-2203.4
13467	14.25	4.7273	0.	-2227.3
13468	14.342	4.7273	5.e-002	-4.7337
13469	14.342	4.4545	0.	-2202.8
13470	14.25	4.5455	0.	-2226.7
13471	14.342	4.5455	5.e-002	-4.7347
13472	14.342	4.2727	0.	-2202.3
13473	14.25	4.3636	0.	-2226.1
13474	14.342	4.3636	5.e-002	-4.7355
13475	14.342	4.0909	0.	-2201.8
13476	14.25	4.1818	0.	-2225.5
13477	14.342	4.1818	5.e-002	-4.7363
13478	14.342	3.9091	0.	-2201.4
13479	14.25	4.	0.	-2225.1
13480	14.342	4.	5.e-002	-4.7369
13481	14.342	3.7273	0.	-2201.1
13482	14.25	3.8182	0.	-2224.7
13483	14.342	3.8182	5.e-002	-4.7375
13484	14.342	3.5455	0.	-2200.8
13485	14.25	3.6364	0.	-2224.4
13486	14.342	3.6364	5.e-002	-4.7379
13487	14.342	3.3636	0.	-2200.6
13488	14.25	3.4545	0.	-2224.2
13489	14.342	3.4545	5.e-002	-4.7382
13490	14.342	3.1818	0.	-2200.5
13491	14.25	3.2727	0.	-2224.1
13492	14.342	3.2727	5.e-002	-4.7384
13493	14.342	3.	0.	-2200.5
13494	14.25	3.0909	0.	-2224.
13495	14.342	3.0909	5.e-002	-4.7386
13496	14.342	2.8182	0.	-2200.5
13497	14.25	2.9091	0.	-2224.
13498	14.342	2.9091	5.e-002	-4.7386
13499	14.342	2.6364	0.	-2200.6
13500	14.25	2.7273	0.	-2224.1
13501	14.342	2.7273	5.e-002	-4.7384
13502	14.342	2.4545	0.	-2200.8
13503	14.25	2.5455	0.	-2224.2
13504	14.342	2.5455	5.e-002	-4.7382
13505	14.342	2.2727	0.	-2201.1
13506	14.25	2.3636	0.	-2224.4
13507	14.342	2.3636	5.e-002	-4.7379
13508	14.342	2.0909	0.	-2201.4
13509	14.25	2.1818	0.	-2224.7
13510	14.342	2.1818	5.e-002	-4.7375
13511	14.342	1.9091	0.	-2201.8
13512	14.25	2.	0.	-2225.1
13513	14.342	2.	5.e-002	-4.7369
13514	14.342	1.7273	0.	-2202.3
13515	14.25	1.8182	0.	-2225.5
13516	14.342	1.8182	5.e-002	-4.7363
13517	14.342	1.5455	0.	-2202.8
13518	14.25	1.6364	0.	-2226.1
13519	14.342	1.6364	5.e-002	-4.7356
13520	14.342	1.3636	0.	-2203.4
13521	14.25	1.4545	0.	-2226.7
13522	14.342	1.4545	5.e-002	-4.7347
13523	14.342	1.1818	0.	-2204.2
13524	14.25	1.2727	0.	-2227.3
13525	14.342	1.2727	5.e-002	-4.7337
13526	14.342	1.	0.	-2205.
13527	14.25	1.0909	0.	-2228.1
13528	14.342	1.0909	5.e-002	-4.7327
13529	14.342	0.81818	0.	-2205.9
13530	14.25	0.90909	0.	-2229.
13531	14.342	0.90909	5.e-002	-4.7314
13532	14.342	0.63636	0.	-2206.8
13533	14.25	0.72727	0.	-2229.9
13534	14.342	0.72727	5.e-002	-4.7288
13535	14.342	0.45455	0.	-2208.
13536	14.25	0.54545	0.	-2231.
13537	14.342	0.54545	5.e-002	-4.7083
13538	14.342	0.27273	0.	-2210.
13539	14.25	0.36364	0.	-2232.2
13540	14.342	0.36364	5.e-002	-4.4139
13541	14.25	0.18182	0.	-2235.2
13542	14.342	0.18182	5.e-002	-0.15391
13543	14.342	9.0909e-002	0.	-2206.5
13544	14.158	5.7273	0.	-2257.2
13545	14.066	5.8182	0.	-2282.5
13546	14.158	5.8182	5.e-002	-0.14687
13547	14.158	5.9091	0.	-2253.8
13548	14.158	5.5455	0.	-2255.2
13549	14.066	5.6364	0.	-2279.5
13550	14.158	5.6364	5.e-002	-4.432
13551	14.158	5.3636	0.	-2254.
13552	14.066	5.4545	0.	-2278.2
13553	14.158	5.4545	5.e-002	-4.7278
13554	14.158	5.1818	0.	-2253.
13555	14.066	5.2727	0.	-2277.2
13556	14.158	5.2727	5.e-002	-4.7484
13557	14.158	5.	0.	-2252.1
13558	14.066	5.0909	0.	-2276.2
13559	14.158	5.0909	5.e-002	-4.751
13560	14.158	4.8182	0.	-2251.3
13561	14.066	4.9091	0.	-2275.3
13562	14.158	4.9091	5.e-002	-4.7523
13563	14.158	4.6364	0.	-2250.5
13564	14.066	4.7273	0.	-2274.5
13565	14.158	4.7273	5.e-002	-4.7534
13566	14.158	4.4545	0.	-2249.9
13567	14.066	4.5455	0.	-2273.8
13568	14.158	4.5455	5.e-002	-4.7544
13569	14.158	4.2727	0.	-2249.3
13570	14.066	4.3636	0.	-2273.2
13571	14.158	4.3636	5.e-002	-4.7553
13572	14.158	4.0909	0.	-2248.8
13573	14.066	4.1818	0.	-2272.7
13574	14.158	4.1818	5.e-002	-4.7561
13575	14.158	3.9091	0.	-2248.4
13576	14.066	4.	0.	-2272.2
13577	14.158	4.	5.e-002	-4.7568
13578	14.158	3.7273	0.	-2248.1
13579	14.066	3.8182	0.	-2271.8
13580	14.158	3.8182	5.e-002	-4.7572
13581	14.158	3.5455	0.	-2247.8
13582	14.066	3.6364	0.	-2271.5
13583	14.158	3.6364	5.e-002	-4.7577
13584	14.158	3.3636	0.	-2247.6
13585	14.066	3.4545	0.	-2271.3
13586	14.158	3.4545	5.e-002	-4.7581
13587	14.158	3.1818	0.	-2247.5
13588	14.066	3.2727	0.	-2271.2
13589	14.158	3.2727	5.e-002	-4.7583
13590	14.158	3.	0.	-2247.5
13591	14.066	3.0909	0.	-2271.1
13592	14.158	3.0909	5.e-002	-4.7584
13593	14.158	2.8182	0.	-2247.5
13594	14.066	2.9091	0.	-2271.1
13595	14.158	2.9091	5.e-002	-4.7584
13596	14.158	2.6364	0.	-2247.6
13597	14.066	2.7273	0.	-2271.2
13598	14.158	2.7273	5.e-002	-4.7583
13599	14.158	2.4545	0.	-2247.8
13600	14.066	2.5455	0.	-2271.3
13601	14.158	2.5455	5.e-002	-4.7581
13602	14.158	2.2727	0.	-2248.1
13603	14.066	2.3636	0.	-2271.5
13604	14.158	2.3636	5.e-002	-4.7577
13605	14.158	2.0909	0.	-2248.4
13606	14.066	2.1818	0.	-2271.8
13607	14.158	2.1818	5.e-002	-4.7573
13608	14.158	1.9091	0.	-2248.8
13609	14.066	2.	0.	-2272.2
13610	14.158	2.	5.e-002	-4.7567
13611	14.158	1.7273	0.	-2249.3
13612	14.066	1.8182	0.	-2272.7
13613	14.158	1.8182	5.e-002	-4.7561
13614	14.158	1.5455	0.	-2249.9
13615	14.066	1.6364	0.	-2273.2
13616	14.158	1.6364	5.e-002	-4.7553
13617	14.158	1.3636	0.	-2250.5
13618	14.066	1.4545	0.	-2273.8
13619	14.158	1.4545	5.e-002	-4.7544
13620	14.158	1.1818	0.	-2251.3
13621	14.066	1.2727	0.	-2274.5
13622	14.158	1.2727	5.e-002	-4.7534
13623	14.158	1.	0.	-2252.1
13624	14.066	1.0909	0.	-2275.3
13625	14.158	1.0909	5.e-002	-4.7523
13626	14.158	0.81818	0.	-2253.
13627	14.066	0.90909	0.	-2276.2
13628	14.158	0.90909	5.e-002	-4.751
13629	14.158	0.63636	0.	-2254.
13630	14.066	0.72727	0.	-2277.2
13631	14.158	0.72727	5.e-002	-4.7485
13632	14.158	0.45455	0.	-2255.2
13633	14.066	0.54545	0.	-2278.2
13634	14.158	0.54545	5.e-002	-4.7278
13635	14.158	0.27273	0.	-2257.2
13636	14.066	0.36364	0.	-2279.5
13637	14.158	0.36364	5.e-002	-4.4321
13638	14.066	0.18182	0.	-2282.5
13639	14.158	0.18182	5.e-002	-0.1469
13640	14.158	9.0909e-002	0.	-2253.8
13641	13.974	5.7273	0.	-2304.6
13642	13.882	5.8182	0.	-2330.
13643	13.974	5.8182	5.e-002	-0.13903
13644	13.974	5.9091	0.	-2301.3
13645	13.974	5.5455	0.	-2302.5
13646	13.882	5.6364	0.	-2327.
13647	13.974	5.6364	5.e-002	-4.4506
13648	13.974	5.3636	0.	-2301.4
13649	13.882	5.4545	0.	-2325.7
13650	13.974	5.4545	5.e-002	-4.7475
13651	13.974	5.1818	0.	-2300.3
13652	13.882	5.2727	0.	-2324.6
13653	13.974	5.2727	5.e-002	-4.7682
13654	13.974	5.	0.	-2299.4
13655	13.882	5.0909	0.	-2323.6
13656	13.974	5.0909	5.e-002	-4.7709
13657	13.974	4.8182	0.	-2298.6
13658	13.882	4.9091	0.	-2322.7
13659	13.974	4.9091	5.e-002	-4.7722
13660	13.974	4.6364	0.	-2297.8
13661	13.882	4.7273	0.	-2321.9
13662	13.974	4.7273	5.e-002	-4.7734
13663	13.974	4.4545	0.	-2297.1
13664	13.882	4.5455	0.	-2321.2
13665	13.974	4.5455	5.e-002	-4.7744
13666	13.974	4.2727	0.	-2296.6
13667	13.882	4.3636	0.	-2320.6
13668	13.974	4.3636	5.e-002	-4.7753
13669	13.974	4.0909	0.	-2296.
13670	13.882	4.1818	0.	-2320.
13671	13.974	4.1818	5.e-002	-4.7761
13672	13.974	3.9091	0.	-2295.6
13673	13.882	4.	0.	-2319.5
13674	13.974	4.	5.e-002	-4.7768
13675	13.974	3.7273	0.	-2295.3
13676	13.882	3.8182	0.	-2319.1
13677	13.974	3.8182	5.e-002	-4.7774
13678	13.974	3.5455	0.	-2295.
13679	13.882	3.6364	0.	-2318.8
13680	13.974	3.6364	5.e-002	-4.7778
13681	13.974	3.3636	0.	-2294.8
13682	13.882	3.4545	0.	-2318.6
13683	13.974	3.4545	5.e-002	-4.7782
13684	13.974	3.1818	0.	-2294.7
13685	13.882	3.2727	0.	-2318.4
13686	13.974	3.2727	5.e-002	-4.7784
13687	13.974	3.	0.	-2294.7
13688	13.882	3.0909	0.	-2318.4
13689	13.974	3.0909	5.e-002	-4.7785
13690	13.974	2.8182	0.	-2294.7
13691	13.882	2.9091	0.	-2318.4
13692	13.974	2.9091	5.e-002	-4.7785
13693	13.974	2.6364	0.	-2294.8
13694	13.882	2.7273	0.	-2318.4
13695	13.974	2.7273	5.e-002	-4.7784
13696	13.974	2.4545	0.	-2295.
13697	13.882	2.5455	0.	-2318.6
13698	13.974	2.5455	5.e-002	-4.7782
13699	13.974	2.2727	0.	-2295.3
13700	13.882	2.3636	0.	-2318.8
13701	13.974	2.3636	5.e-002	-4.7778
13702	13.974	2.0909	0.	-2295.6
13703	13.882	2.1818	0.	-2319.1
13704	13.974	2.1818	5.e-002	-4.7774
13705	13.974	1.9091	0.	-2296.
13706	13.882	2.	0.	-2319.5
13707	13.974	2.	5.e-002	-4.7768
13708	13.974	1.7273	0.	-2296.6
13709	13.882	1.8182	0.	-2320.
13710	13.974	1.8182	5.e-002	-4.7761
13711	13.974	1.5455	0.	-2297.1
13712	13.882	1.6364	0.	-2320.6
13713	13.974	1.6364	5.e-002	-4.7754
13714	13.974	1.3636	0.	-2297.8
13715	13.882	1.4545	0.	-2321.2
13716	13.974	1.4545	5.e-002	-4.7744
13717	13.974	1.1818	0.	-2298.6
13718	13.882	1.2727	0.	-2321.9
13719	13.974	1.2727	5.e-002	-4.7734
13720	13.974	1.	0.	-2299.4
13721	13.882	1.0909	0.	-2322.7
13722	13.974	1.0909	5.e-002	-4.7723
13723	13.974	0.81818	0.	-2300.3
13724	13.882	0.90909	0.	-2323.6
13725	13.974	0.90909	5.e-002	-4.7709
13726	13.974	0.63636	0.	-2301.4
13727	13.882	0.72727	0.	-2324.6
13728	13.974	0.72727	5.e-002	-4.7683
13729	13.974	0.45455	0.	-2302.5
13730	13.882	0.54545	0.	-2325.7
13731	13.974	0.54545	5.e-002	-4.7475
13732	13.974	0.27273	0.	-2304.6
13733	13.882	0.36364	0.	-2327.
13734	13.974	0.36364	5.e-002	-4.4506
13735	13.882	0.18182	0.	-2330.
13736	13.974	0.18182	5.e-002	-0.13905
13737	13.974	9.0909e-002	0.	-2301.3
13738	13.79	5.7273	0.	-2352.2
13739	13.698	5.8182	0.	-2377.6
13740	13.79	5.8182	5.e-002	-0.13015
13741	13.79	5.9091	0.	-2348.9
13742	13.79	5.5455	0.	-2350.1
13743	13.698	5.6364	0.	-2374.7
13744	13.79	5.6364	5.e-002	-4.4695
13745	13.79	5.3636	0.	-2348.9
13746	13.698	5.4545	0.	-2373.4
13747	13.79	5.4545	5.e-002	-4.7675
13748	13.79	5.1818	0.	-2347.9
13749	13.698	5.2727	0.	-2372.3
13750	13.79	5.2727	5.e-002	-4.7884
13751	13.79	5.	0.	-2346.9
13752	13.698	5.0909	0.	-2371.3
13753	13.79	5.0909	5.e-002	-4.7911
13754	13.79	4.8182	0.	-2346.1
13755	13.698	4.9091	0.	-2370.3
13756	13.79	4.9091	5.e-002	-4.7925
13757	13.79	4.6364	0.	-2345.3
13758	13.698	4.7273	0.	-2369.5
13759	13.79	4.7273	5.e-002	-4.7937
13760	13.79	4.4545	0.	-2344.6
13761	13.698	4.5455	0.	-2368.8
13762	13.79	4.5455	5.e-002	-4.7947
13763	13.79	4.2727	0.	-2344.
13764	13.698	4.3636	0.	-2368.1
13765	13.79	4.3636	5.e-002	-4.7957
13766	13.79	4.0909	0.	-2343.5
13767	13.698	4.1818	0.	-2367.6
13768	13.79	4.1818	5.e-002	-4.7965
13769	13.79	3.9091	0.	-2343.
13770	13.698	4.	0.	-2367.1
13771	13.79	4.	5.e-002	-4.7972
13772	13.79	3.7273	0.	-2342.7
13773	13.698	3.8182	0.	-2366.7
13774	13.79	3.8182	5.e-002	-4.7978
13775	13.79	3.5455	0.	-2342.4
13776	13.698	3.6364	0.	-2366.3
13777	13.79	3.6364	5.e-002	-4.7983
13778	13.79	3.3636	0.	-2342.2
13779	13.698	3.4545	0.	-2366.1
13780	13.79	3.4545	5.e-002	-4.7986
13781	13.79	3.1818	0.	-2342.1
13782	13.698	3.2727	0.	-2365.9
13783	13.79	3.2727	5.e-002	-4.7989
13784	13.79	3.	0.	-2342.
13785	13.698	3.0909	0.	-2365.8
13786	13.79	3.0909	5.e-002	-4.799
13787	13.79	2.8182	0.	-2342.1
13788	13.698	2.9091	0.	-2365.8
13789	13.79	2.9091	5.e-002	-4.799
13790	13.79	2.6364	0.	-2342.2
13791	13.698	2.7273	0.	-2365.9
13792	13.79	2.7273	5.e-002	-4.7989
13793	13.79	2.4545	0.	-2342.4
13794	13.698	2.5455	0.	-2366.1
13795	13.79	2.5455	5.e-002	-4.7987
13796	13.79	2.2727	0.	-2342.7
13797	13.698	2.3636	0.	-2366.3
13798	13.79	2.3636	5.e-002	-4.7983
13799	13.79	2.0909	0.	-2343.
13800	13.698	2.1818	0.	-2366.7
13801	13.79	2.1818	5.e-002	-4.7978
13802	13.79	1.9091	0.	-2343.5
13803	13.698	2.	0.	-2367.1
13804	13.79	2.	5.e-002	-4.7972
13805	13.79	1.7273	0.	-2344.
13806	13.698	1.8182	0.	-2367.6
13807	13.79	1.8182	5.e-002	-4.7965
13808	13.79	1.5455	0.	-2344.6
13809	13.698	1.6364	0.	-2368.1
13810	13.79	1.6364	5.e-002	-4.7957
13811	13.79	1.3636	0.	-2345.3
13812	13.698	1.4545	0.	-2368.8
13813	13.79	1.4545	5.e-002	-4.7948
13814	13.79	1.1818	0.	-2346.1
13815	13.698	1.2727	0.	-2369.5
13816	13.79	1.2727	5.e-002	-4.7937
13817	13.79	1.	0.	-2346.9
13818	13.698	1.0909	0.	-2370.3
13819	13.79	1.0909	5.e-002	-4.7925
13820	13.79	0.81818	0.	-2347.9
13821	13.698	0.90909	0.	-2371.3
13822	13.79	0.90909	5.e-002	-4.7911
13823	13.79	0.63636	0.	-2348.9
13824	13.698	0.72727	0.	-2372.3
13825	13.79	0.72727	5.e-002	-4.7884
13826	13.79	0.45455	0.	-2350.1
13827	13.698	0.54545	0.	-2373.4
13828	13.79	0.54545	5.e-002	-4.7676
13829	13.79	0.27273	0.	-2352.2
13830	13.698	0.36364	0.	-2374.7
13831	13.79	0.36364	5.e-002	-4.4696
13832	13.698	0.18182	0.	-2377.6
13833	13.79	0.18182	5.e-002	-0.13018
13834	13.79	9.0909e-002	0.	-2348.9
13835	13.606	5.7273	0.	-2400.
13836	13.515	5.8182	0.	-2425.5
13837	13.606	5.8182	5.e-002	-0.12016
13838	13.606	5.9091	0.	-2396.8
13839	13.606	5.5455	0.	-2397.9
13840	13.515	5.6364	0.	-2422.5
13841	13.606	5.6364	5.e-002	-4.4887
13842	13.606	5.3636	0.	-2396.7
13843	13.515	5.4545	0.	-2421.2
13844	13.606	5.4545	5.e-002	-4.7878
13845	13.606	5.1818	0.	-2395.6
13846	13.515	5.2727	0.	-2420.1
13847	13.606	5.2727	5.e-002	-4.8088
13848	13.606	5.	0.	-2394.7
13849	13.515	5.0909	0.	-2419.1
13850	13.606	5.0909	5.e-002	-4.8115
13851	13.606	4.8182	0.	-2393.8
13852	13.515	4.9091	0.	-2418.2
13853	13.606	4.9091	5.e-002	-4.8129
13854	13.606	4.6364	0.	-2393.
13855	13.515	4.7273	0.	-2417.3
13856	13.606	4.7273	5.e-002	-4.8142
13857	13.606	4.4545	0.	-2392.3
13858	13.515	4.5455	0.	-2416.5
13859	13.606	4.5455	5.e-002	-4.8153
13860	13.606	4.2727	0.	-2391.6
13861	13.515	4.3636	0.	-2415.9
13862	13.606	4.3636	5.e-002	-4.8163
13863	13.606	4.0909	0.	-2391.1
13864	13.515	4.1818	0.	-2415.3
13865	13.606	4.1818	5.e-002	-4.8172
13866	13.606	3.9091	0.	-2390.7
13867	13.515	4.	0.	-2414.8
13868	13.606	4.	5.e-002	-4.8179
13869	13.606	3.7273	0.	-2390.3
13870	13.515	3.8182	0.	-2414.4
13871	13.606	3.8182	5.e-002	-4.8185
13872	13.606	3.5455	0.	-2390.
13873	13.515	3.6364	0.	-2414.
13874	13.606	3.6364	5.e-002	-4.819
13875	13.606	3.3636	0.	-2389.8
13876	13.515	3.4545	0.	-2413.8
13877	13.606	3.4545	5.e-002	-4.8193
13878	13.606	3.1818	0.	-2389.7
13879	13.515	3.2727	0.	-2413.6
13880	13.606	3.2727	5.e-002	-4.8196
13881	13.606	3.	0.	-2389.6
13882	13.515	3.0909	0.	-2413.5
13883	13.606	3.0909	5.e-002	-4.8197
13884	13.606	2.8182	0.	-2389.7
13885	13.515	2.9091	0.	-2413.5
13886	13.606	2.9091	5.e-002	-4.8197
13887	13.606	2.6364	0.	-2389.8
13888	13.515	2.7273	0.	-2413.6
13889	13.606	2.7273	5.e-002	-4.8196
13890	13.606	2.4545	0.	-2390.
13891	13.515	2.5455	0.	-2413.8
13892	13.606	2.5455	5.e-002	-4.8193
13893	13.606	2.2727	0.	-2390.3
13894	13.515	2.3636	0.	-2414.
13895	13.606	2.3636	5.e-002	-4.819
13896	13.606	2.0909	0.	-2390.7
13897	13.515	2.1818	0.	-2414.4
13898	13.606	2.1818	5.e-002	-4.8185
13899	13.606	1.9091	0.	-2391.1
13900	13.515	2.	0.	-2414.8
13901	13.606	2.	5.e-002	-4.8179
13902	13.606	1.7273	0.	-2391.6
13903	13.515	1.8182	0.	-2415.3
13904	13.606	1.8182	5.e-002	-4.8172
13905	13.606	1.5455	0.	-2392.3
13906	13.515	1.6364	0.	-2415.9
13907	13.606	1.6364	5.e-002	-4.8163
13908	13.606	1.3636	0.	-2393.
13909	13.515	1.4545	0.	-2416.5
13910	13.606	1.4545	5.e-002	-4.8153
13911	13.606	1.1818	0.	-2393.8
13912	13.515	1.2727	0.	-2417.3
13913	13.606	1.2727	5.e-002	-4.8142
13914	13.606	1.	0.	-2394.7
13915	13.515	1.0909	0.	-2418.2
13916	13.606	1.0909	5.e-002	-4.813
13917	13.606	0.81818	0.	-2395.6
13918	13.515	0.90909	0.	-2419.1
13919	13.606	0.90909	5.e-002	-4.8116
13920	13.606	0.63636	0.	-2396.7
13921	13.515	0.72727	0.	-2420.1
13922	13.606	0.72727	5.e-002	-4.8088
13923	13.606	0.45455	0.	-2397.9
13924	13.515	0.54545	0.	-2421.2
13925	13.606	0.54545	5.e-002	-4.7878
13926	13.606	0.27273	0.	-2400.
13927	13.515	0.36364	0.	-2422.5
13928	13.606	0.36364	5.e-002	-4.4888
13929	13.515	0.18182	0.	-2425.5
13930	13.606	0.18182	5.e-002	-0.12019
13931	13.606	9.0909e-002	0.	-2396.8
13932	13.423	5.7273	0.	-2448.
13933	13.331	5.8182	0.	-2473.6
13934	13.423	5.8182	5.e-002	-0.10895
13935	13.423	5.9091	0.	-2444.8
13936	13.423	5.5455	0.	-2445.9
13937	13.331	5.6364	0.	-2470.6
13938	13.423	5.6364	5.e-002	-4.5081
13939	13.423	5.3636	0.	-2444.6
13940	13.331	5.4545	0.	-2469.3
13941	13.423	5.4545	5.e-002	-4.8082
13942	13.423	5.1818	0.	-2443.6
13943	13.331	5.2727	0.	-2468.2
13944	13.423	5.2727	5.e-002	-4.8293
13945	13.423	5.	0.	-2442.6
13946	13.331	5.0909	0.	-2467.1
13947	13.423	5.0909	5.e-002	-4.8321
13948	13.423	4.8182	0.	-2441.7
13949	13.331	4.9091	0.	-2466.2
13950	13.423	4.9091	5.e-002	-4.8336
13951	13.423	4.6364	0.	-2440.8
13952	13.331	4.7273	0.	-2465.3
13953	13.423	4.7273	5.e-002	-4.8349
13954	13.423	4.4545	0.	-2440.1
13955	13.331	4.5455	0.	-2464.5
13956	13.423	4.5455	5.e-002	-4.836
13957	13.423	4.2727	0.	-2439.5
13958	13.331	4.3636	0.	-2463.8
13959	13.423	4.3636	5.e-002	-4.8371
13960	13.423	4.0909	0.	-2438.9
13961	13.331	4.1818	0.	-2463.2
13962	13.423	4.1818	5.e-002	-4.838
13963	13.423	3.9091	0.	-2438.5
13964	13.331	4.	0.	-2462.7
13965	13.423	4.	5.e-002	-4.8387
13966	13.423	3.7273	0.	-2438.1
13967	13.331	3.8182	0.	-2462.3
13968	13.423	3.8182	5.e-002	-4.8394
13969	13.423	3.5455	0.	-2437.8
13970	13.331	3.6364	0.	-2461.9
13971	13.423	3.6364	5.e-002	-4.8399
13972	13.423	3.3636	0.	-2437.6
13973	13.331	3.4545	0.	-2461.7
13974	13.423	3.4545	5.e-002	-4.8403
13975	13.423	3.1818	0.	-2437.4
13976	13.331	3.2727	0.	-2461.5
13977	13.423	3.2727	5.e-002	-4.8405
13978	13.423	3.	0.	-2437.4
13979	13.331	3.0909	0.	-2461.4
13980	13.423	3.0909	5.e-002	-4.8407
13981	13.423	2.8182	0.	-2437.4
13982	13.331	2.9091	0.	-2461.4
13983	13.423	2.9091	5.e-002	-4.8407
13984	13.423	2.6364	0.	-2437.6
13985	13.331	2.7273	0.	-2461.5
13986	13.423	2.7273	5.e-002	-4.8406
13987	13.423	2.4545	0.	-2437.8
13988	13.331	2.5455	0.	-2461.7
13989	13.423	2.5455	5.e-002	-4.8403
13990	13.423	2.2727	0.	-2438.1
13991	13.331	2.3636	0.	-2461.9
13992	13.423	2.3636	5.e-002	-4.8399
13993	13.423	2.0909	0.	-2438.5
13994	13.331	2.1818	0.	-2462.3
13995	13.423	2.1818	5.e-002	-4.8394
13996	13.423	1.9091	0.	-2438.9
13997	13.331	2.	0.	-2462.7
13998	13.423	2.	5.e-002	-4.8388
13999	13.423	1.7273	0.	-2439.5
14000	13.331	1.8182	0.	-2463.2
14001	13.423	1.8182	5.e-002	-4.838
14002	13.423	1.5455	0.	-2440.1
14003	13.331	1.6364	0.	-2463.8
14004	13.423	1.6364	5.e-002	-4.8371
14005	13.423	1.3636	0.	-2440.8
14006	13.331	1.4545	0.	-2464.5
14007	13.423	1.4545	5.e-002	-4.8361
14008	13.423	1.1818	0.	-2441.7
14009	13.331	1.2727	0.	-2465.3
14010	13.423	1.2727	5.e-002	-4.8349
14011	13.423	1.	0.	-2442.6
14012	13.331	1.0909	0.	-2466.2
14013	13.423	1.0909	5.e-002	-4.8336
14014	13.423	0.81818	0.	-2443.6
14015	13.331	0.90909	0.	-2467.1
14016	13.423	0.90909	5.e-002	-4.8321
14017	13.423	0.63636	0.	-2444.6
14018	13.331	0.72727	0.	-2468.2
14019	13.423	0.72727	5.e-002	-4.8293
14020	13.423	0.45455	0.	-2445.9
14021	13.331	0.54545	0.	-2469.3
14022	13.423	0.54545	5.e-002	-4.8082
14023	13.423	0.27273	0.	-2448.
14024	13.331	0.36364	0.	-2470.6
14025	13.423	0.36364	5.e-002	-4.5082
14026	13.331	0.18182	0.	-2473.6
14027	13.423	0.18182	5.e-002	-0.10898
14028	13.423	9.0909e-002	0.	-2444.8
14029	13.239	5.7273	0.	-2496.2
14030	13.147	5.8182	0.	-2521.9
14031	13.239	5.8182	5.e-002	-9.6336e-002
14032	13.239	5.9091	0.	-2493.1
14033	13.239	5.5455	0.	-2494.
14034	13.147	5.6364	0.	-2518.9
14035	13.239	5.6364	5.e-002	-4.5279
14036	13.239	5.3636	0.	-2492.8
14037	13.147	5.4545	0.	-2517.6
14038	13.239	5.4545	5.e-002	-4.8289
14039	13.239	5.1818	0.	-2491.7
14040	13.147	5.2727	0.	-2516.4
14041	13.239	5.2727	5.e-002	-4.8501
14042	13.239	5.	0.	-2490.7
14043	13.147	5.0909	0.	-2515.3
14044	13.239	5.0909	5.e-002	-4.853
14045	13.239	4.8182	0.	-2489.8
14046	13.147	4.9091	0.	-2514.4
14047	13.239	4.9091	5.e-002	-4.8545
14048	13.239	4.6364	0.	-2488.9
14049	13.147	4.7273	0.	-2513.5
14050	13.239	4.7273	5.e-002	-4.8559
14051	13.239	4.4545	0.	-2488.2
14052	13.147	4.5455	0.	-2512.7
14053	13.239	4.5455	5.e-002	-4.8571
14054	13.239	4.2727	0.	-2487.5
14055	13.147	4.3636	0.	-2512.
14056	13.239	4.3636	5.e-002	-4.8582
14057	13.239	4.0909	0.	-2486.9
14058	13.147	4.1818	0.	-2511.3
14059	13.239	4.1818	5.e-002	-4.8591
14060	13.239	3.9091	0.	-2486.5
14061	13.147	4.	0.	-2510.8
14062	13.239	4.	5.e-002	-4.8599
14063	13.239	3.7273	0.	-2486.1
14064	13.147	3.8182	0.	-2510.3
14065	13.239	3.8182	5.e-002	-4.8606
14066	13.239	3.5455	0.	-2485.8
14067	13.147	3.6364	0.	-2510.
14068	13.239	3.6364	5.e-002	-4.8611
14069	13.239	3.3636	0.	-2485.5
14070	13.147	3.4545	0.	-2509.7
14071	13.239	3.4545	5.e-002	-4.8615
14072	13.239	3.1818	0.	-2485.4
14073	13.147	3.2727	0.	-2509.5
14074	13.239	3.2727	5.e-002	-4.8618
14075	13.239	3.	0.	-2485.4
14076	13.147	3.0909	0.	-2509.5
14077	13.239	3.0909	5.e-002	-4.8619
14078	13.239	2.8182	0.	-2485.4
14079	13.147	2.9091	0.	-2509.5
14080	13.239	2.9091	5.e-002	-4.8619
14081	13.239	2.6364	0.	-2485.5
14082	13.147	2.7273	0.	-2509.5
14083	13.239	2.7273	5.e-002	-4.8618
14084	13.239	2.4545	0.	-2485.8
14085	13.147	2.5455	0.	-2509.7
14086	13.239	2.5455	5.e-002	-4.8615
14087	13.239	2.2727	0.	-2486.1
14088	13.147	2.3636	0.	-2510.
14089	13.239	2.3636	5.e-002	-4.8611
14090	13.239	2.0909	0.	-2486.5
14091	13.147	2.1818	0.	-2510.3
14092	13.239	2.1818	5.e-002	-4.8606
14093	13.239	1.9091	0.	-2486.9
14094	13.147	2.	0.	-2510.8
14095	13.239	2.	5.e-002	-4.8599
14096	13.239	1.7273	0.	-2487.5
14097	13.147	1.8182	0.	-2511.3
14098	13.239	1.8182	5.e-002	-4.8591
14099	13.239	1.5455	0.	-2488.2
14100	13.147	1.6364	0.	-2512.
14101	13.239	1.6364	5.e-002	-4.8582
14102	13.239	1.3636	0.	-2488.9
14103	13.147	1.4545	0.	-2512.7
14104	13.239	1.4545	5.e-002	-4.8571
14105	13.239	1.1818	0.	-2489.8
14106	13.147	1.2727	0.	-2513.5
14107	13.239	1.2727	5.e-002	-4.8559
14108	13.239	1.	0.	-2490.7
14109	13.147	1.0909	0.	-2514.4
14110	13.239	1.0909	5.e-002	-4.8546
14111	13.239	0.81818	0.	-2491.7
14112	13.147	0.90909	0.	-2515.3
14113	13.239	0.90909	5.e-002	-4.853
14114	13.239	0.63636	0.	-2492.8
14115	13.147	0.72727	0.	-2516.4
14116	13.239	0.72727	5.e-002	-4.8501
14117	13.239	0.45455	0.	-2494.
14118	13.147	0.54545	0.	-2517.6
14119	13.239	0.54545	5.e-002	-4.8289
14120	13.239	0.27273	0.	-2496.2
14121	13.147	0.36364	0.	-2518.9
14122	13.239	0.36364	5.e-002	-4.528
14123	13.147	0.18182	0.	-2521.9
14124	13.239	0.18182	5.e-002	-9.6372e-002
14125	13.239	9.0909e-002	0.	-2493.1
14126	13.055	5.7273	0.	-2544.5
14127	12.963	5.8182	0.	-2570.4
14128	13.055	5.8182	5.e-002	-8.216e-002
14129	13.055	5.9091	0.	-2541.6
14130	13.055	5.5455	0.	-2542.4
14131	12.963	5.6364	0.	-2567.4
14132	13.055	5.6364	5.e-002	-4.5481
14133	13.055	5.3636	0.	-2541.2
14134	12.963	5.4545	0.	-2566.
14135	13.055	5.4545	5.e-002	-4.8499
14136	13.055	5.1818	0.	-2540.
14137	12.963	5.2727	0.	-2564.9
14138	13.055	5.2727	5.e-002	-4.8712
14139	13.055	5.	0.	-2539.
14140	12.963	5.0909	0.	-2563.8
14141	13.055	5.0909	5.e-002	-4.8742
14142	13.055	4.8182	0.	-2538.
14143	12.963	4.9091	0.	-2562.8
14144	13.055	4.9091	5.e-002	-4.8758
14145	13.055	4.6364	0.	-2537.2
14146	12.963	4.7273	0.	-2561.8
14147	13.055	4.7273	5.e-002	-4.8772
14148	13.055	4.4545	0.	-2536.4
14149	12.963	4.5455	0.	-2561.
14150	13.055	4.5455	5.e-002	-4.8785
14151	13.055	4.2727	0.	-2535.7
14152	12.963	4.3636	0.	-2560.3
14153	13.055	4.3636	5.e-002	-4.8796
14154	13.055	4.0909	0.	-2535.2
14155	12.963	4.1818	0.	-2559.6
14156	13.055	4.1818	5.e-002	-4.8806
14157	13.055	3.9091	0.	-2534.7
14158	12.963	4.	0.	-2559.1
14159	13.055	4.	5.e-002	-4.8815
14160	13.055	3.7273	0.	-2534.2
14161	12.963	3.8182	0.	-2558.6
14162	13.055	3.8182	5.e-002	-4.8822
14163	13.055	3.5455	0.	-2533.9
14164	12.963	3.6364	0.	-2558.3
14165	13.055	3.6364	5.e-002	-4.8827
14166	13.055	3.3636	0.	-2533.7
14167	12.963	3.4545	0.	-2558.
14168	13.055	3.4545	5.e-002	-4.8831
14169	13.055	3.1818	0.	-2533.6
14170	12.963	3.2727	0.	-2557.8
14171	13.055	3.2727	5.e-002	-4.8834
14172	13.055	3.	0.	-2533.5
14173	12.963	3.0909	0.	-2557.7
14174	13.055	3.0909	5.e-002	-4.8836
14175	13.055	2.8182	0.	-2533.6
14176	12.963	2.9091	0.	-2557.7
14177	13.055	2.9091	5.e-002	-4.8836
14178	13.055	2.6364	0.	-2533.7
14179	12.963	2.7273	0.	-2557.8
14180	13.055	2.7273	5.e-002	-4.8834
14181	13.055	2.4545	0.	-2533.9
14182	12.963	2.5455	0.	-2558.
14183	13.055	2.5455	5.e-002	-4.8832
14184	13.055	2.2727	0.	-2534.2
14185	12.963	2.3636	0.	-2558.3
14186	13.055	2.3636	5.e-002	-4.8827
14187	13.055	2.0909	0.	-2534.7
14188	12.963	2.1818	0.	-2558.6
14189	13.055	2.1818	5.e-002	-4.8822
14190	13.055	1.9091	0.	-2535.2
14191	12.963	2.	0.	-2559.1
14192	13.055	2.	5.e-002	-4.8815
14193	13.055	1.7273	0.	-2535.7
14194	12.963	1.8182	0.	-2559.6
14195	13.055	1.8182	5.e-002	-4.8806
14196	13.055	1.5455	0.	-2536.4
14197	12.963	1.6364	0.	-2560.3
14198	13.055	1.6364	5.e-002	-4.8797
14199	13.055	1.3636	0.	-2537.2
14200	12.963	1.4545	0.	-2561.
14201	13.055	1.4545	5.e-002	-4.8785
14202	13.055	1.1818	0.	-2538.
14203	12.963	1.2727	0.	-2561.8
14204	13.055	1.2727	5.e-002	-4.8773
14205	13.055	1.	0.	-2539.
14206	12.963	1.0909	0.	-2562.8
14207	13.055	1.0909	5.e-002	-4.8759
14208	13.055	0.81818	0.	-2540.
14209	12.963	0.90909	0.	-2563.8
14210	13.055	0.90909	5.e-002	-4.8742
14211	13.055	0.63636	0.	-2541.2
14212	12.963	0.72727	0.	-2564.9
14213	13.055	0.72727	5.e-002	-4.8713
14214	13.055	0.45455	0.	-2542.4
14215	12.963	0.54545	0.	-2566.
14216	13.055	0.54545	5.e-002	-4.8499
14217	13.055	0.27273	0.	-2544.5
14218	12.963	0.36364	0.	-2567.4
14219	13.055	0.36364	5.e-002	-4.5482
14220	12.963	0.18182	0.	-2570.4
14221	13.055	0.18182	5.e-002	-8.2191e-002
14222	13.055	9.0909e-002	0.	-2541.6
14223	12.871	5.7273	0.	-2593.1
14224	12.779	5.8182	0.	-2619.1
14225	12.871	5.8182	5.e-002	-6.6371e-002
14226	12.871	5.9091	0.	-2590.2
14227	12.871	5.5455	0.	-2591.
14228	12.779	5.6364	0.	-2616.1
14229	12.871	5.6364	5.e-002	-4.5687
14230	12.871	5.3636	0.	-2589.7
14231	12.779	5.4545	0.	-2614.7
14232	12.871	5.4545	5.e-002	-4.8711
14233	12.871	5.1818	0.	-2588.6
14234	12.779	5.2727	0.	-2613.5
14235	12.871	5.2727	5.e-002	-4.8926
14236	12.871	5.	0.	-2587.5
14237	12.779	5.0909	0.	-2612.4
14238	12.871	5.0909	5.e-002	-4.8957
14239	12.871	4.8182	0.	-2586.5
14240	12.779	4.9091	0.	-2611.3
14241	12.871	4.9091	5.e-002	-4.8974
14242	12.871	4.6364	0.	-2585.6
14243	12.779	4.7273	0.	-2610.4
14244	12.871	4.7273	5.e-002	-4.8989
14245	12.871	4.4545	0.	-2584.9
14246	12.779	4.5455	0.	-2609.6
14247	12.871	4.5455	5.e-002	-4.9002
14248	12.871	4.2727	0.	-2584.2
14249	12.779	4.3636	0.	-2608.8
14250	12.871	4.3636	5.e-002	-4.9014
14251	12.871	4.0909	0.	-2583.6
14252	12.779	4.1818	0.	-2608.1
14253	12.871	4.1818	5.e-002	-4.9024
14254	12.871	3.9091	0.	-2583.
14255	12.779	4.	0.	-2607.6
14256	12.871	4.	5.e-002	-4.9033
14257	12.871	3.7273	0.	-2582.6
14258	12.779	3.8182	0.	-2607.1
14259	12.871	3.8182	5.e-002	-4.904
14260	12.871	3.5455	0.	-2582.3
14261	12.779	3.6364	0.	-2606.7
14262	12.871	3.6364	5.e-002	-4.9046
14263	12.871	3.3636	0.	-2582.1
14264	12.779	3.4545	0.	-2606.4
14265	12.871	3.4545	5.e-002	-4.9051
14266	12.871	3.1818	0.	-2581.9
14267	12.779	3.2727	0.	-2606.3
14268	12.871	3.2727	5.e-002	-4.9053
14269	12.871	3.	0.	-2581.9
14270	12.779	3.0909	0.	-2606.2
14271	12.871	3.0909	5.e-002	-4.9055
14272	12.871	2.8182	0.	-2581.9
14273	12.779	2.9091	0.	-2606.2
14274	12.871	2.9091	5.e-002	-4.9055
14275	12.871	2.6364	0.	-2582.1
14276	12.779	2.7273	0.	-2606.3
14277	12.871	2.7273	5.e-002	-4.9054
14278	12.871	2.4545	0.	-2582.3
14279	12.779	2.5455	0.	-2606.4
14280	12.871	2.5455	5.e-002	-4.9051
14281	12.871	2.2727	0.	-2582.6
14282	12.779	2.3636	0.	-2606.7
14283	12.871	2.3636	5.e-002	-4.9047
14284	12.871	2.0909	0.	-2583.
14285	12.779	2.1818	0.	-2607.1
14286	12.871	2.1818	5.e-002	-4.9041
14287	12.871	1.9091	0.	-2583.6
14288	12.779	2.	0.	-2607.6
14289	12.871	2.	5.e-002	-4.9033
14290	12.871	1.7273	0.	-2584.2
14291	12.779	1.8182	0.	-2608.1
14292	12.871	1.8182	5.e-002	-4.9024
14293	12.871	1.5455	0.	-2584.9
14294	12.779	1.6364	0.	-2608.8
14295	12.871	1.6364	5.e-002	-4.9014
14296	12.871	1.3636	0.	-2585.6
14297	12.779	1.4545	0.	-2609.6
14298	12.871	1.4545	5.e-002	-4.9002
14299	12.871	1.1818	0.	-2586.5
14300	12.779	1.2727	0.	-2610.4
14301	12.871	1.2727	5.e-002	-4.8989
14302	12.871	1.	0.	-2587.5
14303	12.779	1.0909	0.	-2611.3
14304	12.871	1.0909	5.e-002	-4.8974
14305	12.871	0.81818	0.	-2588.6
14306	12.779	0.90909	0.	-2612.4
14307	12.871	0.90909	5.e-002	-4.8957
14308	12.871	0.63636	0.	-2589.7
14309	12.779	0.72727	0.	-2613.5
14310	12.871	0.72727	5.e-002	-4.8927
14311	12.871	0.45455	0.	-2591.
14312	12.779	0.54545	0.	-2614.7
14313	12.871	0.54545	5.e-002	-4.8712
14314	12.871	0.27273	0.	-2593.1
14315	12.779	0.36364	0.	-2616.1
14316	12.871	0.36364	5.e-002	-4.5687
14317	12.779	0.18182	0.	-2619.1
14318	12.871	0.18182	5.e-002	-6.6409e-002
14319	12.871	9.0909e-002	0.	-2590.2
14320	12.687	5.7273	0.	-2641.9
14321	12.595	5.8182	0.	-2668.
14322	12.687	5.8182	5.e-002	-4.8997e-002
14323	12.687	5.9091	0.	-2639.1
14324	12.687	5.5455	0.	-2639.8
14325	12.595	5.6364	0.	-2665.
14326	12.687	5.6364	5.e-002	-4.5895
14327	12.687	5.3636	0.	-2638.5
14328	12.595	5.4545	0.	-2663.6
14329	12.687	5.4545	5.e-002	-4.8926
14330	12.687	5.1818	0.	-2637.3
14331	12.595	5.2727	0.	-2662.3
14332	12.687	5.2727	5.e-002	-4.9142
14333	12.687	5.	0.	-2636.2
14334	12.595	5.0909	0.	-2661.2
14335	12.687	5.0909	5.e-002	-4.9173
14336	12.687	4.8182	0.	-2635.2
14337	12.595	4.9091	0.	-2660.1
14338	12.687	4.9091	5.e-002	-4.9192
14339	12.687	4.6364	0.	-2634.3
14340	12.595	4.7273	0.	-2659.2
14341	12.687	4.7273	5.e-002	-4.9207
14342	12.687	4.4545	0.	-2633.5
14343	12.595	4.5455	0.	-2658.3
14344	12.687	4.5455	5.e-002	-4.9221
14345	12.687	4.2727	0.	-2632.8
14346	12.595	4.3636	0.	-2657.5
14347	12.687	4.3636	5.e-002	-4.9234
14348	12.687	4.0909	0.	-2632.1
14349	12.595	4.1818	0.	-2656.8
14350	12.687	4.1818	5.e-002	-4.9245
14351	12.687	3.9091	0.	-2631.6
14352	12.595	4.	0.	-2656.3
14353	12.687	4.	5.e-002	-4.9254
14354	12.687	3.7273	0.	-2631.2
14355	12.595	3.8182	0.	-2655.8
14356	12.687	3.8182	5.e-002	-4.9262
14357	12.687	3.5455	0.	-2630.8
14358	12.595	3.6364	0.	-2655.4
14359	12.687	3.6364	5.e-002	-4.9268
14360	12.687	3.3636	0.	-2630.6
14361	12.595	3.4545	0.	-2655.1
14362	12.687	3.4545	5.e-002	-4.9273
14363	12.687	3.1818	0.	-2630.5
14364	12.595	3.2727	0.	-2654.9
14365	12.687	3.2727	5.e-002	-4.9276
14366	12.687	3.	0.	-2630.4
14367	12.595	3.0909	0.	-2654.8
14368	12.687	3.0909	5.e-002	-4.9277
14369	12.687	2.8182	0.	-2630.5
14370	12.595	2.9091	0.	-2654.8
14371	12.687	2.9091	5.e-002	-4.9277
14372	12.687	2.6364	0.	-2630.6
14373	12.595	2.7273	0.	-2654.9
14374	12.687	2.7273	5.e-002	-4.9276
14375	12.687	2.4545	0.	-2630.8
14376	12.595	2.5455	0.	-2655.1
14377	12.687	2.5455	5.e-002	-4.9273
14378	12.687	2.2727	0.	-2631.2
14379	12.595	2.3636	0.	-2655.4
14380	12.687	2.3636	5.e-002	-4.9268
14381	12.687	2.0909	0.	-2631.6
14382	12.595	2.1818	0.	-2655.8
14383	12.687	2.1818	5.e-002	-4.9262
14384	12.687	1.9091	0.	-2632.1
14385	12.595	2.	0.	-2656.3
14386	12.687	2.	5.e-002	-4.9254
14387	12.687	1.7273	0.	-2632.8
14388	12.595	1.8182	0.	-2656.8
14389	12.687	1.8182	5.e-002	-4.9245
14390	12.687	1.5455	0.	-2633.5
14391	12.595	1.6364	0.	-2657.5
14392	12.687	1.6364	5.e-002	-4.9234
14393	12.687	1.3636	0.	-2634.3
14394	12.595	1.4545	0.	-2658.3
14395	12.687	1.4545	5.e-002	-4.9222
14396	12.687	1.1818	0.	-2635.2
14397	12.595	1.2727	0.	-2659.2
14398	12.687	1.2727	5.e-002	-4.9207
14399	12.687	1.	0.	-2636.2
14400	12.595	1.0909	0.	-2660.1
14401	12.687	1.0909	5.e-002	-4.9192
14402	12.687	0.81818	0.	-2637.3
14403	12.595	0.90909	0.	-2661.2
14404	12.687	0.90909	5.e-002	-4.9174
14405	12.687	0.63636	0.	-2638.5
14406	12.595	0.72727	0.	-2662.3
14407	12.687	0.72727	5.e-002	-4.9142
14408	12.687	0.45455	0.	-2639.8
14409	12.595	0.54545	0.	-2663.6
14410	12.687	0.54545	5.e-002	-4.8926
14411	12.687	0.27273	0.	-2641.9
14412	12.595	0.36364	0.	-2665.
14413	12.687	0.36364	5.e-002	-4.5896
14414	12.595	0.18182	0.	-2668.
14415	12.687	0.18182	5.e-002	-4.9024e-002
14416	12.687	9.0909e-002	0.	-2639.1
14417	12.503	5.7273	0.	-2690.9
14418	12.411	5.8182	0.	-2717.1
14419	12.503	5.8182	5.e-002	-3.0255e-002
14420	12.503	5.9091	0.	-2688.2
14421	12.503	5.5455	0.	-2688.8
14422	12.411	5.6364	0.	-2714.1
14423	12.503	5.6364	5.e-002	-4.6107
14424	12.503	5.3636	0.	-2687.4
14425	12.411	5.4545	0.	-2712.7
14426	12.503	5.4545	5.e-002	-4.9143
14427	12.503	5.1818	0.	-2686.2
14428	12.411	5.2727	0.	-2711.4
14429	12.503	5.2727	5.e-002	-4.936
14430	12.503	5.	0.	-2685.1
14431	12.411	5.0909	0.	-2710.2
14432	12.503	5.0909	5.e-002	-4.9393
14433	12.503	4.8182	0.	-2684.1
14434	12.411	4.9091	0.	-2709.1
14435	12.503	4.9091	5.e-002	-4.9412
14436	12.503	4.6364	0.	-2683.2
14437	12.411	4.7273	0.	-2708.1
14438	12.503	4.7273	5.e-002	-4.9429
14439	12.503	4.4545	0.	-2682.3
14440	12.411	4.5455	0.	-2707.2
14441	12.503	4.5455	5.e-002	-4.9443
14442	12.503	4.2727	0.	-2681.6
14443	12.411	4.3636	0.	-2706.4
14444	12.503	4.3636	5.e-002	-4.9457
14445	12.503	4.0909	0.	-2680.9
14446	12.411	4.1818	0.	-2705.7
14447	12.503	4.1818	5.e-002	-4.9468
14448	12.503	3.9091	0.	-2680.4
14449	12.411	4.	0.	-2705.1
14450	12.503	4.	5.e-002	-4.9478
14451	12.503	3.7273	0.	-2679.9
14452	12.411	3.8182	0.	-2704.6
14453	12.503	3.8182	5.e-002	-4.9486
14454	12.503	3.5455	0.	-2679.6
14455	12.411	3.6364	0.	-2704.2
14456	12.503	3.6364	5.e-002	-4.9493
14457	12.503	3.3636	0.	-2679.3
14458	12.411	3.4545	0.	-2703.9
14459	12.503	3.4545	5.e-002	-4.9497
14460	12.503	3.1818	0.	-2679.2
14461	12.411	3.2727	0.	-2703.7
14462	12.503	3.2727	5.e-002	-4.9501
14463	12.503	3.	0.	-2679.1
14464	12.411	3.0909	0.	-2703.6
14465	12.503	3.0909	5.e-002	-4.9502
14466	12.503	2.8182	0.	-2679.2
14467	12.411	2.9091	0.	-2703.6
14468	12.503	2.9091	5.e-002	-4.9502
14469	12.503	2.6364	0.	-2679.3
14470	12.411	2.7273	0.	-2703.7
14471	12.503	2.7273	5.e-002	-4.9501
14472	12.503	2.4545	0.	-2679.6
14473	12.411	2.5455	0.	-2703.9
14474	12.503	2.5455	5.e-002	-4.9497
14475	12.503	2.2727	0.	-2679.9
14476	12.411	2.3636	0.	-2704.2
14477	12.503	2.3636	5.e-002	-4.9493
14478	12.503	2.0909	0.	-2680.4
14479	12.411	2.1818	0.	-2704.6
14480	12.503	2.1818	5.e-002	-4.9486
14481	12.503	1.9091	0.	-2680.9
14482	12.411	2.	0.	-2705.1
14483	12.503	2.	5.e-002	-4.9478
14484	12.503	1.7273	0.	-2681.6
14485	12.411	1.8182	0.	-2705.7
14486	12.503	1.8182	5.e-002	-4.9468
14487	12.503	1.5455	0.	-2682.3
14488	12.411	1.6364	0.	-2706.4
14489	12.503	1.6364	5.e-002	-4.9457
14490	12.503	1.3636	0.	-2683.2
14491	12.411	1.4545	0.	-2707.2
14492	12.503	1.4545	5.e-002	-4.9444
14493	12.503	1.1818	0.	-2684.1
14494	12.411	1.2727	0.	-2708.1
14495	12.503	1.2727	5.e-002	-4.9429
14496	12.503	1.	0.	-2685.1
14497	12.411	1.0909	0.	-2709.1
14498	12.503	1.0909	5.e-002	-4.9412
14499	12.503	0.81818	0.	-2686.2
14500	12.411	0.90909	0.	-2710.2
14501	12.503	0.90909	5.e-002	-4.9393
14502	12.503	0.63636	0.	-2687.4
14503	12.411	0.72727	0.	-2711.4
14504	12.503	0.72727	5.e-002	-4.9361
14505	12.503	0.45455	0.	-2688.8
14506	12.411	0.54545	0.	-2712.7
14507	12.503	0.54545	5.e-002	-4.9143
14508	12.503	0.27273	0.	-2690.9
14509	12.411	0.36364	0.	-2714.1
14510	12.503	0.36364	5.e-002	-4.6108
14511	12.411	0.18182	0.	-2717.1
14512	12.503	0.18182	5.e-002	-3.0273e-002
14513	12.503	9.0909e-002	0.	-2688.2
14514	12.319	5.7273	0.	-2740.2
14515	12.227	5.8182	0.	-2766.4
14516	12.319	5.8182	5.e-002	-1.3314e-002
14517	12.319	5.9091	0.	-2737.5
14518	12.319	5.5455	0.	-2738.
14519	12.227	5.6364	0.	-2763.4
14520	12.319	5.6364	5.e-002	-4.6324
14521	12.319	5.3636	0.	-2736.6
14522	12.227	5.4545	0.	-2762.
14523	12.319	5.4545	5.e-002	-4.9363
14524	12.319	5.1818	0.	-2735.4
14525	12.227	5.2727	0.	-2760.7
14526	12.319	5.2727	5.e-002	-4.9582
14527	12.319	5.	0.	-2734.2
14528	12.227	5.0909	0.	-2759.4
14529	12.319	5.0909	5.e-002	-4.9615
14530	12.319	4.8182	0.	-2733.2
14531	12.227	4.9091	0.	-2758.3
14532	12.319	4.9091	5.e-002	-4.9635
14533	12.319	4.6364	0.	-2732.2
14534	12.227	4.7273	0.	-2757.3
14535	12.319	4.7273	5.e-002	-4.9653
14536	12.319	4.4545	0.	-2731.3
14537	12.227	4.5455	0.	-2756.4
14538	12.319	4.5455	5.e-002	-4.9669
14539	12.319	4.2727	0.	-2730.6
14540	12.227	4.3636	0.	-2755.5
14541	12.319	4.3636	5.e-002	-4.9683
14542	12.319	4.0909	0.	-2729.9
14543	12.227	4.1818	0.	-2754.8
14544	12.319	4.1818	5.e-002	-4.9695
14545	12.319	3.9091	0.	-2729.3
14546	12.227	4.	0.	-2754.2
14547	12.319	4.	5.e-002	-4.9705
14548	12.319	3.7273	0.	-2728.9
14549	12.227	3.8182	0.	-2753.7
14550	12.319	3.8182	5.e-002	-4.9714
14551	12.319	3.5455	0.	-2728.5
14552	12.227	3.6364	0.	-2753.2
14553	12.319	3.6364	5.e-002	-4.9721
14554	12.319	3.3636	0.	-2728.3
14555	12.227	3.4545	0.	-2752.9
14556	12.319	3.4545	5.e-002	-4.9726
14557	12.319	3.1818	0.	-2728.1
14558	12.227	3.2727	0.	-2752.7
14559	12.319	3.2727	5.e-002	-4.973
14560	12.319	3.	0.	-2728.1
14561	12.227	3.0909	0.	-2752.6
14562	12.319	3.0909	5.e-002	-4.9731
14563	12.319	2.8182	0.	-2728.1
14564	12.227	2.9091	0.	-2752.6
14565	12.319	2.9091	5.e-002	-4.9731
14566	12.319	2.6364	0.	-2728.3
14567	12.227	2.7273	0.	-2752.7
14568	12.319	2.7273	5.e-002	-4.973
14569	12.319	2.4545	0.	-2728.5
14570	12.227	2.5455	0.	-2752.9
14571	12.319	2.5455	5.e-002	-4.9726
14572	12.319	2.2727	0.	-2728.9
14573	12.227	2.3636	0.	-2753.2
14574	12.319	2.3636	5.e-002	-4.9721
14575	12.319	2.0909	0.	-2729.3
14576	12.227	2.1818	0.	-2753.7
14577	12.319	2.1818	5.e-002	-4.9714
14578	12.319	1.9091	0.	-2729.9
14579	12.227	2.	0.	-2754.2
14580	12.319	2.	5.e-002	-4.9706
14581	12.319	1.7273	0.	-2730.6
14582	12.227	1.8182	0.	-2754.8
14583	12.319	1.8182	5.e-002	-4.9695
14584	12.319	1.5455	0.	-2731.3
14585	12.227	1.6364	0.	-2755.5
14586	12.319	1.6364	5.e-002	-4.9683
14587	12.319	1.3636	0.	-2732.2
14588	12.227	1.4545	0.	-2756.4
14589	12.319	1.4545	5.e-002	-4.9669
14590	12.319	1.1818	0.	-2733.2
14591	12.227	1.2727	0.	-2757.3
14592	12.319	1.2727	5.e-002	-4.9654
14593	12.319	1.	0.	-2734.2
14594	12.227	1.0909	0.	-2758.3
14595	12.319	1.0909	5.e-002	-4.9636
14596	12.319	0.81818	0.	-2735.4
14597	12.227	0.90909	0.	-2759.4
14598	12.319	0.90909	5.e-002	-4.9616
14599	12.319	0.63636	0.	-2736.6
14600	12.227	0.72727	0.	-2760.7
14601	12.319	0.72727	5.e-002	-4.9582
14602	12.319	0.45455	0.	-2738.
14603	12.227	0.54545	0.	-2762.
14604	12.319	0.54545	5.e-002	-4.9363
14605	12.319	0.27273	0.	-2740.2
14606	12.227	0.36364	0.	-2763.4
14607	12.319	0.36364	5.e-002	-4.6324
14608	12.227	0.18182	0.	-2766.4
14609	12.319	0.18182	5.e-002	-1.3317e-002
14610	12.319	9.0909e-002	0.	-2737.5
14611	12.135	5.7273	0.	-2789.6
14612	12.044	5.8182	0.	-2815.9
14613	12.135	5.8182	5.e-002	-2.184e-002
14614	12.135	5.9091	0.	-2787.1
14615	12.135	5.5455	0.	-2787.4
14616	12.044	5.6364	0.	-2813.
14617	12.135	5.6364	5.e-002	-4.6545
14618	12.135	5.3636	0.	-2786.
14619	12.044	5.4545	0.	-2811.4
14620	12.135	5.4545	5.e-002	-4.9587
14621	12.135	5.1818	0.	-2784.7
14622	12.044	5.2727	0.	-2810.1
14623	12.135	5.2727	5.e-002	-4.9808
14624	12.135	5.	0.	-2783.5
14625	12.044	5.0909	0.	-2808.9
14626	12.135	5.0909	5.e-002	-4.9843
14627	12.135	4.8182	0.	-2782.4
14628	12.044	4.9091	0.	-2807.7
14629	12.135	4.9091	5.e-002	-4.9864
14630	12.135	4.6364	0.	-2781.4
14631	12.044	4.7273	0.	-2806.7
14632	12.135	4.7273	5.e-002	-4.9883
14633	12.135	4.4545	0.	-2780.6
14634	12.044	4.5455	0.	-2805.7
14635	12.135	4.5455	5.e-002	-4.9899
14636	12.135	4.2727	0.	-2779.8
14637	12.044	4.3636	0.	-2804.8
14638	12.135	4.3636	5.e-002	-4.9914
14639	12.135	4.0909	0.	-2779.1
14640	12.044	4.1818	0.	-2804.1
14641	12.135	4.1818	5.e-002	-4.9927
14642	12.135	3.9091	0.	-2778.5
14643	12.044	4.	0.	-2803.4
14644	12.135	4.	5.e-002	-4.9938
14645	12.135	3.7273	0.	-2778.
14646	12.044	3.8182	0.	-2802.9
14647	12.135	3.8182	5.e-002	-4.9947
14648	12.135	3.5455	0.	-2777.6
14649	12.044	3.6364	0.	-2802.5
14650	12.135	3.6364	5.e-002	-4.9954
14651	12.135	3.3636	0.	-2777.4
14652	12.044	3.4545	0.	-2802.1
14653	12.135	3.4545	5.e-002	-4.996
14654	12.135	3.1818	0.	-2777.2
14655	12.044	3.2727	0.	-2801.9
14656	12.135	3.2727	5.e-002	-4.9963
14657	12.135	3.	0.	-2777.2
14658	12.044	3.0909	0.	-2801.8
14659	12.135	3.0909	5.e-002	-4.9965
14660	12.135	2.8182	0.	-2777.2
14661	12.044	2.9091	0.	-2801.8
14662	12.135	2.9091	5.e-002	-4.9965
14663	12.135	2.6364	0.	-2777.4
14664	12.044	2.7273	0.	-2801.9
14665	12.135	2.7273	5.e-002	-4.9963
14666	12.135	2.4545	0.	-2777.6
14667	12.044	2.5455	0.	-2802.1
14668	12.135	2.5455	5.e-002	-4.996
14669	12.135	2.2727	0.	-2778.
14670	12.044	2.3636	0.	-2802.5
14671	12.135	2.3636	5.e-002	-4.9954
14672	12.135	2.0909	0.	-2778.5
14673	12.044	2.1818	0.	-2802.9
14674	12.135	2.1818	5.e-002	-4.9947
14675	12.135	1.9091	0.	-2779.1
14676	12.044	2.	0.	-2803.4
14677	12.135	2.	5.e-002	-4.9938
14678	12.135	1.7273	0.	-2779.8
14679	12.044	1.8182	0.	-2804.1
14680	12.135	1.8182	5.e-002	-4.9927
14681	12.135	1.5455	0.	-2780.6
14682	12.044	1.6364	0.	-2804.8
14683	12.135	1.6364	5.e-002	-4.9914
14684	12.135	1.3636	0.	-2781.4
14685	12.044	1.4545	0.	-2805.7
14686	12.135	1.4545	5.e-002	-4.99
14687	12.135	1.1818	0.	-2782.4
14688	12.044	1.2727	0.	-2806.7
14689	12.135	1.2727	5.e-002	-4.9883
14690	12.135	1.	0.	-2783.5
14691	12.044	1.0909	0.	-2807.7
14692	12.135	1.0909	5.e-002	-4.9865
14693	12.135	0.81818	0.	-2784.7
14694	12.044	0.90909	0.	-2808.9
14695	12.135	0.90909	5.e-002	-4.9843
14696	12.135	0.63636	0.	-2786.
14697	12.044	0.72727	0.	-2810.1
14698	12.135	0.72727	5.e-002	-4.9808
14699	12.135	0.45455	0.	-2787.4
14700	12.044	0.54545	0.	-2811.4
14701	12.135	0.54545	5.e-002	-4.9587
14702	12.135	0.27273	0.	-2789.6
14703	12.044	0.36364	0.	-2813.
14704	12.135	0.36364	5.e-002	-4.6546
14705	12.044	0.18182	0.	-2815.9
14706	12.135	0.18182	5.e-002	-2.1884e-002
14707	12.135	9.0909e-002	0.	-2787.1
14708	11.952	5.7273	0.	-2839.2
14709	11.86	5.8182	0.	-2865.7
14710	11.952	5.8182	5.e-002	-4.6573e-002
14711	11.952	5.9091	0.	-2836.8
14712	11.952	5.5455	0.	-2837.
14713	11.86	5.6364	0.	-2862.7
14714	11.952	5.6364	5.e-002	-4.6771
14715	11.952	5.3636	0.	-2835.6
14716	11.86	5.4545	0.	-2861.1
14717	11.952	5.4545	5.e-002	-4.9814
14718	11.952	5.1818	0.	-2834.2
14719	11.86	5.2727	0.	-2859.8
14720	11.952	5.2727	5.e-002	-5.0036
14721	11.952	5.	0.	-2833.
14722	11.86	5.0909	0.	-2858.5
14723	11.952	5.0909	5.e-002	-5.0073
14724	11.952	4.8182	0.	-2831.9
14725	11.86	4.9091	0.	-2857.3
14726	11.952	4.9091	5.e-002	-5.0096
14727	11.952	4.6364	0.	-2830.9
14728	11.86	4.7273	0.	-2856.2
14729	11.952	4.7273	5.e-002	-5.0115
14730	11.952	4.4545	0.	-2830.
14731	11.86	4.5455	0.	-2855.2
14732	11.952	4.5455	5.e-002	-5.0133
14733	11.952	4.2727	0.	-2829.1
14734	11.86	4.3636	0.	-2854.3
14735	11.952	4.3636	5.e-002	-5.0149
14736	11.952	4.0909	0.	-2828.4
14737	11.86	4.1818	0.	-2853.6
14738	11.952	4.1818	5.e-002	-5.0162
14739	11.952	3.9091	0.	-2827.8
14740	11.86	4.	0.	-2852.9
14741	11.952	4.	5.e-002	-5.0173
14742	11.952	3.7273	0.	-2827.3
14743	11.86	3.8182	0.	-2852.3
14744	11.952	3.8182	5.e-002	-5.0183
14745	11.952	3.5455	0.	-2826.9
14746	11.86	3.6364	0.	-2851.9
14747	11.952	3.6364	5.e-002	-5.0191
14748	11.952	3.3636	0.	-2826.7
14749	11.86	3.4545	0.	-2851.5
14750	11.952	3.4545	5.e-002	-5.0196
14751	11.952	3.1818	0.	-2826.5
14752	11.86	3.2727	0.	-2851.3
14753	11.952	3.2727	5.e-002	-5.0201
14754	11.952	3.	0.	-2826.4
14755	11.86	3.0909	0.	-2851.2
14756	11.952	3.0909	5.e-002	-5.0203
14757	11.952	2.8182	0.	-2826.5
14758	11.86	2.9091	0.	-2851.2
14759	11.952	2.9091	5.e-002	-5.0203
14760	11.952	2.6364	0.	-2826.7
14761	11.86	2.7273	0.	-2851.3
14762	11.952	2.7273	5.e-002	-5.0201
14763	11.952	2.4545	0.	-2826.9
14764	11.86	2.5455	0.	-2851.5
14765	11.952	2.5455	5.e-002	-5.0197
14766	11.952	2.2727	0.	-2827.3
14767	11.86	2.3636	0.	-2851.9
14768	11.952	2.3636	5.e-002	-5.0191
14769	11.952	2.0909	0.	-2827.8
14770	11.86	2.1818	0.	-2852.3
14771	11.952	2.1818	5.e-002	-5.0184
14772	11.952	1.9091	0.	-2828.4
14773	11.86	2.	0.	-2852.9
14774	11.952	2.	5.e-002	-5.0174
14775	11.952	1.7273	0.	-2829.1
14776	11.86	1.8182	0.	-2853.6
14777	11.952	1.8182	5.e-002	-5.0162
14778	11.952	1.5455	0.	-2830.
14779	11.86	1.6364	0.	-2854.3
14780	11.952	1.6364	5.e-002	-5.0149
14781	11.952	1.3636	0.	-2830.9
14782	11.86	1.4545	0.	-2855.2
14783	11.952	1.4545	5.e-002	-5.0133
14784	11.952	1.1818	0.	-2831.9
14785	11.86	1.2727	0.	-2856.2
14786	11.952	1.2727	5.e-002	-5.0116
14787	11.952	1.	0.	-2833.
14788	11.86	1.0909	0.	-2857.3
14789	11.952	1.0909	5.e-002	-5.0096
14790	11.952	0.81818	0.	-2834.2
14791	11.86	0.90909	0.	-2858.5
14792	11.952	0.90909	5.e-002	-5.0074
14793	11.952	0.63636	0.	-2835.6
14794	11.86	0.72727	0.	-2859.8
14795	11.952	0.72727	5.e-002	-5.0037
14796	11.952	0.45455	0.	-2837.
14797	11.86	0.54545	0.	-2861.1
14798	11.952	0.54545	5.e-002	-4.9815
14799	11.952	0.27273	0.	-2839.2
14800	11.86	0.36364	0.	-2862.7
14801	11.952	0.36364	5.e-002	-4.6771
14802	11.86	0.18182	0.	-2865.7
14803	11.952	0.18182	5.e-002	-4.6628e-002
14804	11.952	9.0909e-002	0.	-2836.8
14805	11.768	5.7273	0.	-2889.1
14806	11.676	5.8182	0.	-2915.7
14807	11.768	5.8182	5.e-002	-7.5286e-002
14808	11.768	5.9091	0.	-2886.7
14809	11.768	5.5455	0.	-2886.8
14810	11.676	5.6364	0.	-2912.6
14811	11.768	5.6364	5.e-002	-4.7001
14812	11.768	5.3636	0.	-2885.3
14813	11.676	5.4545	0.	-2911.1
14814	11.768	5.4545	5.e-002	-5.0044
14815	11.768	5.1818	0.	-2884.
14816	11.676	5.2727	0.	-2909.6
14817	11.768	5.2727	5.e-002	-5.0268
14818	11.768	5.	0.	-2882.7
14819	11.676	5.0909	0.	-2908.3
14820	11.768	5.0909	5.e-002	-5.0306
14821	11.768	4.8182	0.	-2881.6
14822	11.676	4.9091	0.	-2907.1
14823	11.768	4.9091	5.e-002	-5.033
14824	11.768	4.6364	0.	-2880.5
14825	11.676	4.7273	0.	-2906.
14826	11.768	4.7273	5.e-002	-5.0351
14827	11.768	4.4545	0.	-2879.6
14828	11.676	4.5455	0.	-2904.9
14829	11.768	4.5455	5.e-002	-5.037
14830	11.768	4.2727	0.	-2878.7
14831	11.676	4.3636	0.	-2904.
14832	11.768	4.3636	5.e-002	-5.0386
14833	11.768	4.0909	0.	-2878.
14834	11.676	4.1818	0.	-2903.2
14835	11.768	4.1818	5.e-002	-5.0401
14836	11.768	3.9091	0.	-2877.3
14837	11.676	4.	0.	-2902.5
14838	11.768	4.	5.e-002	-5.0413
14839	11.768	3.7273	0.	-2876.8
14840	11.676	3.8182	0.	-2901.9
14841	11.768	3.8182	5.e-002	-5.0423
14842	11.768	3.5455	0.	-2876.4
14843	11.676	3.6364	0.	-2901.4
14844	11.768	3.6364	5.e-002	-5.0431
14845	11.768	3.3636	0.	-2876.1
14846	11.676	3.4545	0.	-2901.1
14847	11.768	3.4545	5.e-002	-5.0437
14848	11.768	3.1818	0.	-2876.
14849	11.676	3.2727	0.	-2900.9
14850	11.768	3.2727	5.e-002	-5.0441
14851	11.768	3.	0.	-2875.9
14852	11.676	3.0909	0.	-2900.7
14853	11.768	3.0909	5.e-002	-5.0443
14854	11.768	2.8182	0.	-2876.
14855	11.676	2.9091	0.	-2900.7
14856	11.768	2.9091	5.e-002	-5.0443
14857	11.768	2.6364	0.	-2876.1
14858	11.676	2.7273	0.	-2900.9
14859	11.768	2.7273	5.e-002	-5.0441
14860	11.768	2.4545	0.	-2876.4
14861	11.676	2.5455	0.	-2901.1
14862	11.768	2.5455	5.e-002	-5.0437
14863	11.768	2.2727	0.	-2876.8
14864	11.676	2.3636	0.	-2901.4
14865	11.768	2.3636	5.e-002	-5.0431
14866	11.768	2.0909	0.	-2877.3
14867	11.676	2.1818	0.	-2901.9
14868	11.768	2.1818	5.e-002	-5.0423
14869	11.768	1.9091	0.	-2878.
14870	11.676	2.	0.	-2902.5
14871	11.768	2.	5.e-002	-5.0413
14872	11.768	1.7273	0.	-2878.7
14873	11.676	1.8182	0.	-2903.2
14874	11.768	1.8182	5.e-002	-5.0401
14875	11.768	1.5455	0.	-2879.6
14876	11.676	1.6364	0.	-2904.
14877	11.768	1.6364	5.e-002	-5.0387
14878	11.768	1.3636	0.	-2880.5
14879	11.676	1.4545	0.	-2904.9
14880	11.768	1.4545	5.e-002	-5.037
14881	11.768	1.1818	0.	-2881.6
14882	11.676	1.2727	0.	-2906.
14883	11.768	1.2727	5.e-002	-5.0351
14884	11.768	1.	0.	-2882.7
14885	11.676	1.0909	0.	-2907.1
14886	11.768	1.0909	5.e-002	-5.0331
14887	11.768	0.81818	0.	-2884.
14888	11.676	0.90909	0.	-2908.3
14889	11.768	0.90909	5.e-002	-5.0307
14890	11.768	0.63636	0.	-2885.3
14891	11.676	0.72727	0.	-2909.6
14892	11.768	0.72727	5.e-002	-5.0269
14893	11.768	0.45455	0.	-2886.8
14894	11.676	0.54545	0.	-2911.1
14895	11.768	0.54545	5.e-002	-5.0045
14896	11.768	0.27273	0.	-2889.1
14897	11.676	0.36364	0.	-2912.6
14898	11.768	0.36364	5.e-002	-4.7001
14899	11.676	0.18182	0.	-2915.7
14900	11.768	0.18182	5.e-002	-7.5322e-002
14901	11.768	9.0909e-002	0.	-2886.7
14902	11.584	5.7273	0.	-2939.1
14903	11.492	5.8182	0.	-2965.8
14904	11.584	5.8182	5.e-002	-0.10721
14905	11.584	5.9091	0.	-2936.9
14906	11.584	5.5455	0.	-2936.9
14907	11.492	5.6364	0.	-2962.8
14908	11.584	5.6364	5.e-002	-4.7236
14909	11.584	5.3636	0.	-2935.3
14910	11.492	5.4545	0.	-2961.2
14911	11.584	5.4545	5.e-002	-5.0278
14912	11.584	5.1818	0.	-2933.9
14913	11.492	5.2727	0.	-2959.7
14914	11.584	5.2727	5.e-002	-5.0504
14915	11.584	5.	0.	-2932.6
14916	11.492	5.0909	0.	-2958.3
14917	11.584	5.0909	5.e-002	-5.0544
14918	11.584	4.8182	0.	-2931.4
14919	11.492	4.9091	0.	-2957.1
14920	11.584	4.9091	5.e-002	-5.0569
14921	11.584	4.6364	0.	-2930.4
14922	11.492	4.7273	0.	-2955.9
14923	11.584	4.7273	5.e-002	-5.0591
14924	11.584	4.4545	0.	-2929.4
14925	11.492	4.5455	0.	-2954.8
14926	11.584	4.5455	5.e-002	-5.0611
14927	11.584	4.2727	0.	-2928.5
14928	11.492	4.3636	0.	-2953.9
14929	11.584	4.3636	5.e-002	-5.0629
14930	11.584	4.0909	0.	-2927.7
14931	11.492	4.1818	0.	-2953.
14932	11.584	4.1818	5.e-002	-5.0644
14933	11.584	3.9091	0.	-2927.1
14934	11.492	4.	0.	-2952.3
14935	11.584	4.	5.e-002	-5.0657
14936	11.584	3.7273	0.	-2926.5
14937	11.492	3.8182	0.	-2951.7
14938	11.584	3.8182	5.e-002	-5.0668
14939	11.584	3.5455	0.	-2926.1
14940	11.492	3.6364	0.	-2951.2
14941	11.584	3.6364	5.e-002	-5.0676
14942	11.584	3.3636	0.	-2925.8
14943	11.492	3.4545	0.	-2950.8
14944	11.584	3.4545	5.e-002	-5.0683
14945	11.584	3.1818	0.	-2925.6
14946	11.492	3.2727	0.	-2950.6
14947	11.584	3.2727	5.e-002	-5.0687
14948	11.584	3.	0.	-2925.5
14949	11.492	3.0909	0.	-2950.5
14950	11.584	3.0909	5.e-002	-5.0689
14951	11.584	2.8182	0.	-2925.6
14952	11.492	2.9091	0.	-2950.5
14953	11.584	2.9091	5.e-002	-5.0689
14954	11.584	2.6364	0.	-2925.8
14955	11.492	2.7273	0.	-2950.6
14956	11.584	2.7273	5.e-002	-5.0687
14957	11.584	2.4545	0.	-2926.1
14958	11.492	2.5455	0.	-2950.8
14959	11.584	2.5455	5.e-002	-5.0683
14960	11.584	2.2727	0.	-2926.5
14961	11.492	2.3636	0.	-2951.2
14962	11.584	2.3636	5.e-002	-5.0677
14963	11.584	2.0909	0.	-2927.1
14964	11.492	2.1818	0.	-2951.7
14965	11.584	2.1818	5.e-002	-5.0668
14966	11.584	1.9091	0.	-2927.7
14967	11.492	2.	0.	-2952.3
14968	11.584	2.	5.e-002	-5.0657
14969	11.584	1.7273	0.	-2928.5
14970	11.492	1.8182	0.	-2953.
14971	11.584	1.8182	5.e-002	-5.0644
14972	11.584	1.5455	0.	-2929.4
14973	11.492	1.6364	0.	-2953.9
14974	11.584	1.6364	5.e-002	-5.0629
14975	11.584	1.3636	0.	-2930.4
14976	11.492	1.4545	0.	-2954.8
14977	11.584	1.4545	5.e-002	-5.0612
14978	11.584	1.1818	0.	-2931.4
14979	11.492	1.2727	0.	-2955.9
14980	11.584	1.2727	5.e-002	-5.0592
14981	11.584	1.	0.	-2932.6
14982	11.492	1.0909	0.	-2957.1
14983	11.584	1.0909	5.e-002	-5.057
14984	11.584	0.81818	0.	-2933.9
14985	11.492	0.90909	0.	-2958.3
14986	11.584	0.90909	5.e-002	-5.0544
14987	11.584	0.63636	0.	-2935.3
14988	11.492	0.72727	0.	-2959.7
14989	11.584	0.72727	5.e-002	-5.0505
14990	11.584	0.45455	0.	-2936.9
14991	11.492	0.54545	0.	-2961.2
14992	11.584	0.54545	5.e-002	-5.0279
14993	11.584	0.27273	0.	-2939.1
14994	11.492	0.36364	0.	-2962.8
14995	11.584	0.36364	5.e-002	-4.7236
14996	11.492	0.18182	0.	-2965.8
14997	11.584	0.18182	5.e-002	-0.10723
14998	11.584	9.0909e-002	0.	-2936.9
14999	11.4	5.7273	0.	-2989.4
15000	11.308	5.8182	0.	-3016.2
15001	11.4	5.8182	5.e-002	-0.14244
15002	11.4	5.9091	0.	-2987.3
15003	11.4	5.5455	0.	-2987.1
15004	11.308	5.6364	0.	-3013.2
15005	11.4	5.6364	5.e-002	-4.7478
15006	11.4	5.3636	0.	-2985.5
15007	11.308	5.4545	0.	-3011.5
15008	11.4	5.4545	5.e-002	-5.0518
15009	11.4	5.1818	0.	-2984.1
15010	11.308	5.2727	0.	-3010.
15011	11.4	5.2727	5.e-002	-5.0745
15012	11.4	5.	0.	-2982.8
15013	11.308	5.0909	0.	-3008.6
15014	11.4	5.0909	5.e-002	-5.0787
15015	11.4	4.8182	0.	-2981.5
15016	11.308	4.9091	0.	-3007.3
15017	11.4	4.9091	5.e-002	-5.0814
15018	11.4	4.6364	0.	-2980.4
15019	11.308	4.7273	0.	-3006.
15020	11.4	4.7273	5.e-002	-5.0837
15021	11.4	4.4545	0.	-2979.3
15022	11.308	4.5455	0.	-3004.9
15023	11.4	4.5455	5.e-002	-5.0858
15024	11.4	4.2727	0.	-2978.4
15025	11.308	4.3636	0.	-3003.9
15026	11.4	4.3636	5.e-002	-5.0877
15027	11.4	4.0909	0.	-2977.6
15028	11.308	4.1818	0.	-3003.1
15029	11.4	4.1818	5.e-002	-5.0893
15030	11.4	3.9091	0.	-2976.9
15031	11.308	4.	0.	-3002.3
15032	11.4	4.	5.e-002	-5.0907
15033	11.4	3.7273	0.	-2976.4
15034	11.308	3.8182	0.	-3001.7
15035	11.4	3.8182	5.e-002	-5.0918
15036	11.4	3.5455	0.	-2975.9
15037	11.308	3.6364	0.	-3001.2
15038	11.4	3.6364	5.e-002	-5.0928
15039	11.4	3.3636	0.	-2975.6
15040	11.308	3.4545	0.	-3000.8
15041	11.4	3.4545	5.e-002	-5.0934
15042	11.4	3.1818	0.	-2975.4
15043	11.308	3.2727	0.	-3000.5
15044	11.4	3.2727	5.e-002	-5.0939
15045	11.4	3.	0.	-2975.4
15046	11.308	3.0909	0.	-3000.4
15047	11.4	3.0909	5.e-002	-5.0941
15048	11.4	2.8182	0.	-2975.4
15049	11.308	2.9091	0.	-3000.4
15050	11.4	2.9091	5.e-002	-5.0941
15051	11.4	2.6364	0.	-2975.6
15052	11.308	2.7273	0.	-3000.5
15053	11.4	2.7273	5.e-002	-5.0939
15054	11.4	2.4545	0.	-2975.9
15055	11.308	2.5455	0.	-3000.8
15056	11.4	2.5455	5.e-002	-5.0934
15057	11.4	2.2727	0.	-2976.4
15058	11.308	2.3636	0.	-3001.2
15059	11.4	2.3636	5.e-002	-5.0928
15060	11.4	2.0909	0.	-2976.9
15061	11.308	2.1818	0.	-3001.7
15062	11.4	2.1818	5.e-002	-5.0919
15063	11.4	1.9091	0.	-2977.6
15064	11.308	2.	0.	-3002.3
15065	11.4	2.	5.e-002	-5.0907
15066	11.4	1.7273	0.	-2978.4
15067	11.308	1.8182	0.	-3003.1
15068	11.4	1.8182	5.e-002	-5.0894
15069	11.4	1.5455	0.	-2979.3
15070	11.308	1.6364	0.	-3003.9
15071	11.4	1.6364	5.e-002	-5.0877
15072	11.4	1.3636	0.	-2980.4
15073	11.308	1.4545	0.	-3004.9
15074	11.4	1.4545	5.e-002	-5.0859
15075	11.4	1.1818	0.	-2981.5
15076	11.308	1.2727	0.	-3006.
15077	11.4	1.2727	5.e-002	-5.0838
15078	11.4	1.	0.	-2982.8
15079	11.308	1.0909	0.	-3007.3
15080	11.4	1.0909	5.e-002	-5.0814
15081	11.4	0.81818	0.	-2984.1
15082	11.308	0.90909	0.	-3008.6
15083	11.4	0.90909	5.e-002	-5.0787
15084	11.4	0.63636	0.	-2985.5
15085	11.308	0.72727	0.	-3010.
15086	11.4	0.72727	5.e-002	-5.0746
15087	11.4	0.45455	0.	-2987.1
15088	11.308	0.54545	0.	-3011.5
15089	11.4	0.54545	5.e-002	-5.0518
15090	11.4	0.27273	0.	-2989.4
15091	11.308	0.36364	0.	-3013.2
15092	11.4	0.36364	5.e-002	-4.7478
15093	11.308	0.18182	0.	-3016.2
15094	11.4	0.18182	5.e-002	-0.14247
15095	11.4	9.0909e-002	0.	-2987.3
15096	11.216	5.7273	0.	-3039.9
15097	11.124	5.8182	0.	-3066.9
15098	11.216	5.8182	5.e-002	-0.18109
15099	11.216	5.9091	0.	-3037.9
15100	11.216	5.5455	0.	-3037.6
15101	11.124	5.6364	0.	-3063.8
15102	11.216	5.6364	5.e-002	-4.7726
15103	11.216	5.3636	0.	-3035.9
15104	11.124	5.4545	0.	-3062.1
15105	11.216	5.4545	5.e-002	-5.0762
15106	11.216	5.1818	0.	-3034.5
15107	11.124	5.2727	0.	-3060.5
15108	11.216	5.2727	5.e-002	-5.0991
15109	11.216	5.	0.	-3033.1
15110	11.124	5.0909	0.	-3059.
15111	11.216	5.0909	5.e-002	-5.1035
15112	11.216	4.8182	0.	-3031.8
15113	11.124	4.9091	0.	-3057.6
15114	11.216	4.9091	5.e-002	-5.1063
15115	11.216	4.6364	0.	-3030.6
15116	11.124	4.7273	0.	-3056.4
15117	11.216	4.7273	5.e-002	-5.1088
15118	11.216	4.4545	0.	-3029.5
15119	11.124	4.5455	0.	-3055.2
15120	11.216	4.5455	5.e-002	-5.1111
15121	11.216	4.2727	0.	-3028.6
15122	11.124	4.3636	0.	-3054.2
15123	11.216	4.3636	5.e-002	-5.113
15124	11.216	4.0909	0.	-3027.7
15125	11.124	4.1818	0.	-3053.3
15126	11.216	4.1818	5.e-002	-5.1148
15127	11.216	3.9091	0.	-3027.
15128	11.124	4.	0.	-3052.5
15129	11.216	4.	5.e-002	-5.1162
15130	11.216	3.7273	0.	-3026.4
15131	11.124	3.8182	0.	-3051.8
15132	11.216	3.8182	5.e-002	-5.1174
15133	11.216	3.5455	0.	-3026.
15134	11.124	3.6364	0.	-3051.3
15135	11.216	3.6364	5.e-002	-5.1184
15136	11.216	3.3636	0.	-3025.6
15137	11.124	3.4545	0.	-3050.9
15138	11.216	3.4545	5.e-002	-5.1191
15139	11.216	3.1818	0.	-3025.4
15140	11.124	3.2727	0.	-3050.6
15141	11.216	3.2727	5.e-002	-5.1195
15142	11.216	3.	0.	-3025.4
15143	11.124	3.0909	0.	-3050.5
15144	11.216	3.0909	5.e-002	-5.1198
15145	11.216	2.8182	0.	-3025.4
15146	11.124	2.9091	0.	-3050.5
15147	11.216	2.9091	5.e-002	-5.1198
15148	11.216	2.6364	0.	-3025.6
15149	11.124	2.7273	0.	-3050.6
15150	11.216	2.7273	5.e-002	-5.1195
15151	11.216	2.4545	0.	-3026.
15152	11.124	2.5455	0.	-3050.9
15153	11.216	2.5455	5.e-002	-5.1191
15154	11.216	2.2727	0.	-3026.4
15155	11.124	2.3636	0.	-3051.3
15156	11.216	2.3636	5.e-002	-5.1184
15157	11.216	2.0909	0.	-3027.
15158	11.124	2.1818	0.	-3051.8
15159	11.216	2.1818	5.e-002	-5.1174
15160	11.216	1.9091	0.	-3027.7
15161	11.124	2.	0.	-3052.5
15162	11.216	2.	5.e-002	-5.1162
15163	11.216	1.7273	0.	-3028.6
15164	11.124	1.8182	0.	-3053.3
15165	11.216	1.8182	5.e-002	-5.1148
15166	11.216	1.5455	0.	-3029.5
15167	11.124	1.6364	0.	-3054.2
15168	11.216	1.6364	5.e-002	-5.1131
15169	11.216	1.3636	0.	-3030.6
15170	11.124	1.4545	0.	-3055.2
15171	11.216	1.4545	5.e-002	-5.1111
15172	11.216	1.1818	0.	-3031.8
15173	11.124	1.2727	0.	-3056.4
15174	11.216	1.2727	5.e-002	-5.1089
15175	11.216	1.	0.	-3033.1
15176	11.124	1.0909	0.	-3057.6
15177	11.216	1.0909	5.e-002	-5.1064
15178	11.216	0.81818	0.	-3034.5
15179	11.124	0.90909	0.	-3059.
15180	11.216	0.90909	5.e-002	-5.1035
15181	11.216	0.63636	0.	-3035.9
15182	11.124	0.72727	0.	-3060.5
15183	11.216	0.72727	5.e-002	-5.0992
15184	11.216	0.45455	0.	-3037.6
15185	11.124	0.54545	0.	-3062.1
15186	11.216	0.54545	5.e-002	-5.0763
15187	11.216	0.27273	0.	-3039.9
15188	11.124	0.36364	0.	-3063.8
15189	11.216	0.36364	5.e-002	-4.7727
15190	11.124	0.18182	0.	-3066.9
15191	11.216	0.18182	5.e-002	-0.18113
15192	11.216	9.0909e-002	0.	-3037.9
15193	11.032	5.7273	0.	-3090.6
15194	10.94	5.8182	0.	-3117.7
15195	11.032	5.8182	5.e-002	-0.22328
15196	11.032	5.9091	0.	-3088.8
15197	11.032	5.5455	0.	-3088.2
15198	10.94	5.6364	0.	-3114.6
15199	11.032	5.6364	5.e-002	-4.798
15200	11.032	5.3636	0.	-3086.6
15201	10.94	5.4545	0.	-3112.8
15202	11.032	5.4545	5.e-002	-5.101
15203	11.032	5.1818	0.	-3085.
15204	10.94	5.2727	0.	-3111.2
15205	11.032	5.2727	5.e-002	-5.1241
15206	11.032	5.	0.	-3083.6
15207	10.94	5.0909	0.	-3109.7
15208	11.032	5.0909	5.e-002	-5.1286
15209	11.032	4.8182	0.	-3082.2
15210	10.94	4.9091	0.	-3108.2
15211	11.032	4.9091	5.e-002	-5.1317
15212	11.032	4.6364	0.	-3081.
15213	10.94	4.7273	0.	-3106.9
15214	11.032	4.7273	5.e-002	-5.1343
15215	11.032	4.4545	0.	-3079.9
15216	10.94	4.5455	0.	-3105.7
15217	11.032	4.5455	5.e-002	-5.1367
15218	11.032	4.2727	0.	-3078.9
15219	10.94	4.3636	0.	-3104.6
15220	11.032	4.3636	5.e-002	-5.1388
15221	11.032	4.0909	0.	-3078.
15222	10.94	4.1818	0.	-3103.7
15223	11.032	4.1818	5.e-002	-5.1406
15224	11.032	3.9091	0.	-3077.3
15225	10.94	4.	0.	-3102.8
15226	11.032	4.	5.e-002	-5.1422
15227	11.032	3.7273	0.	-3076.7
15228	10.94	3.8182	0.	-3102.2
15229	11.032	3.8182	5.e-002	-5.1434
15230	11.032	3.5455	0.	-3076.2
15231	10.94	3.6364	0.	-3101.6
15232	11.032	3.6364	5.e-002	-5.1445
15233	11.032	3.3636	0.	-3075.8
15234	10.94	3.4545	0.	-3101.2
15235	11.032	3.4545	5.e-002	-5.1452
15236	11.032	3.1818	0.	-3075.6
15237	10.94	3.2727	0.	-3100.9
15238	11.032	3.2727	5.e-002	-5.1457
15239	11.032	3.	0.	-3075.6
15240	10.94	3.0909	0.	-3100.7
15241	11.032	3.0909	5.e-002	-5.146
15242	11.032	2.8182	0.	-3075.6
15243	10.94	2.9091	0.	-3100.7
15244	11.032	2.9091	5.e-002	-5.146
15245	11.032	2.6364	0.	-3075.8
15246	10.94	2.7273	0.	-3100.9
15247	11.032	2.7273	5.e-002	-5.1457
15248	11.032	2.4545	0.	-3076.2
15249	10.94	2.5455	0.	-3101.2
15250	11.032	2.5455	5.e-002	-5.1452
15251	11.032	2.2727	0.	-3076.7
15252	10.94	2.3636	0.	-3101.6
15253	11.032	2.3636	5.e-002	-5.1445
15254	11.032	2.0909	0.	-3077.3
15255	10.94	2.1818	0.	-3102.2
15256	11.032	2.1818	5.e-002	-5.1434
15257	11.032	1.9091	0.	-3078.
15258	10.94	2.	0.	-3102.8
15259	11.032	2.	5.e-002	-5.1422
15260	11.032	1.7273	0.	-3078.9
15261	10.94	1.8182	0.	-3103.7
15262	11.032	1.8182	5.e-002	-5.1407
15263	11.032	1.5455	0.	-3079.9
15264	10.94	1.6364	0.	-3104.6
15265	11.032	1.6364	5.e-002	-5.1389
15266	11.032	1.3636	0.	-3081.
15267	10.94	1.4545	0.	-3105.7
15268	11.032	1.4545	5.e-002	-5.1368
15269	11.032	1.1818	0.	-3082.2
15270	10.94	1.2727	0.	-3106.9
15271	11.032	1.2727	5.e-002	-5.1344
15272	11.032	1.	0.	-3083.6
15273	10.94	1.0909	0.	-3108.2
15274	11.032	1.0909	5.e-002	-5.1317
15275	11.032	0.81818	0.	-3085.
15276	10.94	0.90909	0.	-3109.7
15277	11.032	0.90909	5.e-002	-5.1287
15278	11.032	0.63636	0.	-3086.6
15279	10.94	0.72727	0.	-3111.2
15280	11.032	0.72727	5.e-002	-5.1242
15281	11.032	0.45455	0.	-3088.2
15282	10.94	0.54545	0.	-3112.8
15283	11.032	0.54545	5.e-002	-5.1011
15284	11.032	0.27273	0.	-3090.6
15285	10.94	0.36364	0.	-3114.6
15286	11.032	0.36364	5.e-002	-4.7981
15287	10.94	0.18182	0.	-3117.7
15288	11.032	0.18182	5.e-002	-0.22331
15289	11.032	9.0909e-002	0.	-3088.8
15290	10.848	5.7273	0.	-3141.6
15291	10.756	5.8182	0.	-3168.8
15292	10.848	5.8182	5.e-002	-0.26934
15293	10.848	5.9091	0.	-3139.9
15294	10.848	5.5455	0.	-3139.1
15295	10.756	5.6364	0.	-3165.6
15296	10.848	5.6364	5.e-002	-4.8241
15297	10.848	5.3636	0.	-3137.4
15298	10.756	5.4545	0.	-3163.8
15299	10.848	5.4545	5.e-002	-5.1263
15300	10.848	5.1818	0.	-3135.8
15301	10.756	5.2727	0.	-3162.1
15302	10.848	5.2727	5.e-002	-5.1496
15303	10.848	5.	0.	-3134.3
15304	10.756	5.0909	0.	-3160.5
15305	10.848	5.0909	5.e-002	-5.1543
15306	10.848	4.8182	0.	-3132.9
15307	10.756	4.9091	0.	-3159.
15308	10.848	4.9091	5.e-002	-5.1576
15309	10.848	4.6364	0.	-3131.6
15310	10.756	4.7273	0.	-3157.6
15311	10.848	4.7273	5.e-002	-5.1605
15312	10.848	4.4545	0.	-3130.4
15313	10.756	4.5455	0.	-3156.4
15314	10.848	4.5455	5.e-002	-5.163
15315	10.848	4.2727	0.	-3129.4
15316	10.756	4.3636	0.	-3155.3
15317	10.848	4.3636	5.e-002	-5.1652
15318	10.848	4.0909	0.	-3128.5
15319	10.756	4.1818	0.	-3154.3
15320	10.848	4.1818	5.e-002	-5.1671
15321	10.848	3.9091	0.	-3127.7
15322	10.756	4.	0.	-3153.4
15323	10.848	4.	5.e-002	-5.1687
15324	10.848	3.7273	0.	-3127.1
15325	10.756	3.8182	0.	-3152.7
15326	10.848	3.8182	5.e-002	-5.17
15327	10.848	3.5455	0.	-3126.6
15328	10.756	3.6364	0.	-3152.1
15329	10.848	3.6364	5.e-002	-5.1711
15330	10.848	3.3636	0.	-3126.2
15331	10.756	3.4545	0.	-3151.6
15332	10.848	3.4545	5.e-002	-5.1719
15333	10.848	3.1818	0.	-3126.
15334	10.756	3.2727	0.	-3151.3
15335	10.848	3.2727	5.e-002	-5.1724
15336	10.848	3.	0.	-3125.9
15337	10.756	3.0909	0.	-3151.2
15338	10.848	3.0909	5.e-002	-5.1727
15339	10.848	2.8182	0.	-3126.
15340	10.756	2.9091	0.	-3151.2
15341	10.848	2.9091	5.e-002	-5.1727
15342	10.848	2.6364	0.	-3126.2
15343	10.756	2.7273	0.	-3151.3
15344	10.848	2.7273	5.e-002	-5.1724
15345	10.848	2.4545	0.	-3126.6
15346	10.756	2.5455	0.	-3151.6
15347	10.848	2.5455	5.e-002	-5.1719
15348	10.848	2.2727	0.	-3127.1
15349	10.756	2.3636	0.	-3152.1
15350	10.848	2.3636	5.e-002	-5.1711
15351	10.848	2.0909	0.	-3127.7
15352	10.756	2.1818	0.	-3152.7
15353	10.848	2.1818	5.e-002	-5.1701
15354	10.848	1.9091	0.	-3128.5
15355	10.756	2.	0.	-3153.4
15356	10.848	2.	5.e-002	-5.1687
15357	10.848	1.7273	0.	-3129.4
15358	10.756	1.8182	0.	-3154.3
15359	10.848	1.8182	5.e-002	-5.1671
15360	10.848	1.5455	0.	-3130.4
15361	10.756	1.6364	0.	-3155.3
15362	10.848	1.6364	5.e-002	-5.1652
15363	10.848	1.3636	0.	-3131.6
15364	10.756	1.4545	0.	-3156.4
15365	10.848	1.4545	5.e-002	-5.163
15366	10.848	1.1818	0.	-3132.9
15367	10.756	1.2727	0.	-3157.6
15368	10.848	1.2727	5.e-002	-5.1605
15369	10.848	1.	0.	-3134.3
15370	10.756	1.0909	0.	-3159.
15371	10.848	1.0909	5.e-002	-5.1576
15372	10.848	0.81818	0.	-3135.8
15373	10.756	0.90909	0.	-3160.5
15374	10.848	0.90909	5.e-002	-5.1544
15375	10.848	0.63636	0.	-3137.4
15376	10.756	0.72727	0.	-3162.1
15377	10.848	0.72727	5.e-002	-5.1497
15378	10.848	0.45455	0.	-3139.1
15379	10.756	0.54545	0.	-3163.8
15380	10.848	0.54545	5.e-002	-5.1264
15381	10.848	0.27273	0.	-3141.6
15382	10.756	0.36364	0.	-3165.6
15383	10.848	0.36364	5.e-002	-4.8241
15384	10.756	0.18182	0.	-3168.8
15385	10.848	0.18182	5.e-002	-0.26937
15386	10.848	9.0909e-002	0.	-3139.9
15387	10.665	5.7273	0.	-3192.8
15388	10.573	5.8182	0.	-3220.1
15389	10.665	5.8182	5.e-002	-0.3197
15390	10.665	5.9091	0.	-3191.2
15391	10.665	5.5455	0.	-3190.3
15392	10.573	5.6364	0.	-3216.9
15393	10.665	5.6364	5.e-002	-4.8511
15394	10.665	5.3636	0.	-3188.5
15395	10.573	5.4545	0.	-3215.
15396	10.665	5.4545	5.e-002	-5.1523
15397	10.665	5.1818	0.	-3186.8
15398	10.573	5.2727	0.	-3213.2
15399	10.665	5.2727	5.e-002	-5.1758
15400	10.665	5.	0.	-3185.2
15401	10.573	5.0909	0.	-3211.6
15402	10.665	5.0909	5.e-002	-5.1808
15403	10.665	4.8182	0.	-3183.8
15404	10.573	4.9091	0.	-3210.
15405	10.665	4.9091	5.e-002	-5.1843
15406	10.665	4.6364	0.	-3182.4
15407	10.573	4.7273	0.	-3208.6
15408	10.665	4.7273	5.e-002	-5.1872
15409	10.665	4.4545	0.	-3181.2
15410	10.573	4.5455	0.	-3207.3
15411	10.665	4.5455	5.e-002	-5.1899
15412	10.665	4.2727	0.	-3180.1
15413	10.573	4.3636	0.	-3206.1
15414	10.665	4.3636	5.e-002	-5.1923
15415	10.665	4.0909	0.	-3179.1
15416	10.573	4.1818	0.	-3205.
15417	10.665	4.1818	5.e-002	-5.1943
15418	10.665	3.9091	0.	-3178.3
15419	10.573	4.	0.	-3204.1
15420	10.665	4.	5.e-002	-5.196
15421	10.665	3.7273	0.	-3177.6
15422	10.573	3.8182	0.	-3203.3
15423	10.665	3.8182	5.e-002	-5.1974
15424	10.665	3.5455	0.	-3177.1
15425	10.573	3.6364	0.	-3202.7
15426	10.665	3.6364	5.e-002	-5.1985
15427	10.665	3.3636	0.	-3176.7
15428	10.573	3.4545	0.	-3202.3
15429	10.665	3.4545	5.e-002	-5.1993
15430	10.665	3.1818	0.	-3176.5
15431	10.573	3.2727	0.	-3201.9
15432	10.665	3.2727	5.e-002	-5.1999
15433	10.665	3.	0.	-3176.4
15434	10.573	3.0909	0.	-3201.8
15435	10.665	3.0909	5.e-002	-5.2002
15436	10.665	2.8182	0.	-3176.5
15437	10.573	2.9091	0.	-3201.8
15438	10.665	2.9091	5.e-002	-5.2002
15439	10.665	2.6364	0.	-3176.7
15440	10.573	2.7273	0.	-3201.9
15441	10.665	2.7273	5.e-002	-5.1999
15442	10.665	2.4545	0.	-3177.1
15443	10.573	2.5455	0.	-3202.3
15444	10.665	2.5455	5.e-002	-5.1993
15445	10.665	2.2727	0.	-3177.6
15446	10.573	2.3636	0.	-3202.7
15447	10.665	2.3636	5.e-002	-5.1985
15448	10.665	2.0909	0.	-3178.3
15449	10.573	2.1818	0.	-3203.3
15450	10.665	2.1818	5.e-002	-5.1974
15451	10.665	1.9091	0.	-3179.1
15452	10.573	2.	0.	-3204.1
15453	10.665	2.	5.e-002	-5.196
15454	10.665	1.7273	0.	-3180.1
15455	10.573	1.8182	0.	-3205.
15456	10.665	1.8182	5.e-002	-5.1943
15457	10.665	1.5455	0.	-3181.2
15458	10.573	1.6364	0.	-3206.1
15459	10.665	1.6364	5.e-002	-5.1923
15460	10.665	1.3636	0.	-3182.4
15461	10.573	1.4545	0.	-3207.3
15462	10.665	1.4545	5.e-002	-5.19
15463	10.665	1.1818	0.	-3183.8
15464	10.573	1.2727	0.	-3208.6
15465	10.665	1.2727	5.e-002	-5.1873
15466	10.665	1.	0.	-3185.2
15467	10.573	1.0909	0.	-3210.
15468	10.665	1.0909	5.e-002	-5.1843
15469	10.665	0.81818	0.	-3186.8
15470	10.573	0.90909	0.	-3211.6
15471	10.665	0.90909	5.e-002	-5.1808
15472	10.665	0.63636	0.	-3188.5
15473	10.573	0.72727	0.	-3213.2
15474	10.665	0.72727	5.e-002	-5.1759
15475	10.665	0.45455	0.	-3190.3
15476	10.573	0.54545	0.	-3215.
15477	10.665	0.54545	5.e-002	-5.1524
15478	10.665	0.27273	0.	-3192.8
15479	10.573	0.36364	0.	-3216.9
15480	10.665	0.36364	5.e-002	-4.8512
15481	10.573	0.18182	0.	-3220.1
15482	10.665	0.18182	5.e-002	-0.31975
15483	10.665	9.0909e-002	0.	-3191.2
15484	10.481	5.7273	0.	-3244.2
15485	10.389	5.8182	0.	-3271.6
15486	10.481	5.8182	5.e-002	-0.37464
15487	10.481	5.9091	0.	-3242.8
15488	10.481	5.5455	0.	-3241.6
15489	10.389	5.6364	0.	-3268.4
15490	10.481	5.6364	5.e-002	-4.879
15491	10.481	5.3636	0.	-3239.7
15492	10.389	5.4545	0.	-3266.4
15493	10.481	5.4545	5.e-002	-5.1791
15494	10.481	5.1818	0.	-3238.
15495	10.389	5.2727	0.	-3264.6
15496	10.481	5.2727	5.e-002	-5.2027
15497	10.481	5.	0.	-3236.3
15498	10.389	5.0909	0.	-3262.8
15499	10.481	5.0909	5.e-002	-5.2079
15500	10.481	4.8182	0.	-3234.8
15501	10.389	4.9091	0.	-3261.2
15502	10.481	4.9091	5.e-002	-5.2116
15503	10.481	4.6364	0.	-3233.4
15504	10.389	4.7273	0.	-3259.7
15505	10.481	4.7273	5.e-002	-5.2148
15506	10.481	4.4545	0.	-3232.1
15507	10.389	4.5455	0.	-3258.3
15508	10.481	4.5455	5.e-002	-5.2176
15509	10.481	4.2727	0.	-3231.
15510	10.389	4.3636	0.	-3257.1
15511	10.481	4.3636	5.e-002	-5.2201
15512	10.481	4.0909	0.	-3230.
15513	10.389	4.1818	0.	-3256.
15514	10.481	4.1818	5.e-002	-5.2223
15515	10.481	3.9091	0.	-3229.1
15516	10.389	4.	0.	-3255.
15517	10.481	4.	5.e-002	-5.224
15518	10.481	3.7273	0.	-3228.4
15519	10.389	3.8182	0.	-3254.2
15520	10.481	3.8182	5.e-002	-5.2255
15521	10.481	3.5455	0.	-3227.8
15522	10.389	3.6364	0.	-3253.5
15523	10.481	3.6364	5.e-002	-5.2266
15524	10.481	3.3636	0.	-3227.4
15525	10.389	3.4545	0.	-3253.1
15526	10.481	3.4545	5.e-002	-5.2275
15527	10.481	3.1818	0.	-3227.2
15528	10.389	3.2727	0.	-3252.7
15529	10.481	3.2727	5.e-002	-5.2281
15530	10.481	3.	0.	-3227.1
15531	10.389	3.0909	0.	-3252.6
15532	10.481	3.0909	5.e-002	-5.2284
15533	10.481	2.8182	0.	-3227.2
15534	10.389	2.9091	0.	-3252.6
15535	10.481	2.9091	5.e-002	-5.2284
15536	10.481	2.6364	0.	-3227.4
15537	10.389	2.7273	0.	-3252.7
15538	10.481	2.7273	5.e-002	-5.2281
15539	10.481	2.4545	0.	-3227.8
15540	10.389	2.5455	0.	-3253.1
15541	10.481	2.5455	5.e-002	-5.2275
15542	10.481	2.2727	0.	-3228.4
15543	10.389	2.3636	0.	-3253.5
15544	10.481	2.3636	5.e-002	-5.2267
15545	10.481	2.0909	0.	-3229.1
15546	10.389	2.1818	0.	-3254.2
15547	10.481	2.1818	5.e-002	-5.2255
15548	10.481	1.9091	0.	-3230.
15549	10.389	2.	0.	-3255.
15550	10.481	2.	5.e-002	-5.2241
15551	10.481	1.7273	0.	-3231.
15552	10.389	1.8182	0.	-3256.
15553	10.481	1.8182	5.e-002	-5.2223
15554	10.481	1.5455	0.	-3232.1
15555	10.389	1.6364	0.	-3257.1
15556	10.481	1.6364	5.e-002	-5.2201
15557	10.481	1.3636	0.	-3233.4
15558	10.389	1.4545	0.	-3258.3
15559	10.481	1.4545	5.e-002	-5.2177
15560	10.481	1.1818	0.	-3234.8
15561	10.389	1.2727	0.	-3259.7
15562	10.481	1.2727	5.e-002	-5.2149
15563	10.481	1.	0.	-3236.3
15564	10.389	1.0909	0.	-3261.2
15565	10.481	1.0909	5.e-002	-5.2116
15566	10.481	0.81818	0.	-3238.
15567	10.389	0.90909	0.	-3262.8
15568	10.481	0.90909	5.e-002	-5.208
15569	10.481	0.63636	0.	-3239.7
15570	10.389	0.72727	0.	-3264.6
15571	10.481	0.72727	5.e-002	-5.2027
15572	10.481	0.45455	0.	-3241.6
15573	10.389	0.54545	0.	-3266.4
15574	10.481	0.54545	5.e-002	-5.1791
15575	10.481	0.27273	0.	-3244.2
15576	10.389	0.36364	0.	-3268.4
15577	10.481	0.36364	5.e-002	-4.879
15578	10.389	0.18182	0.	-3271.6
15579	10.481	0.18182	5.e-002	-0.37467
15580	10.481	9.0909e-002	0.	-3242.8
15581	10.297	5.7273	0.	-3295.8
15582	10.205	5.8182	0.	-3323.4
15583	10.297	5.8182	5.e-002	-0.43438
15584	10.297	5.9091	0.	-3294.6
15585	10.297	5.5455	0.	-3293.2
15586	10.205	5.6364	0.	-3320.1
15587	10.297	5.6364	5.e-002	-4.9077
15588	10.297	5.3636	0.	-3291.2
15589	10.205	5.4545	0.	-3318.
15590	10.297	5.4545	5.e-002	-5.2064
15591	10.297	5.1818	0.	-3289.4
15592	10.205	5.2727	0.	-3316.1
15593	10.297	5.2727	5.e-002	-5.2302
15594	10.297	5.	0.	-3287.7
15595	10.205	5.0909	0.	-3314.3
15596	10.297	5.0909	5.e-002	-5.2357
15597	10.297	4.8182	0.	-3286.1
15598	10.205	4.9091	0.	-3312.6
15599	10.297	4.9091	5.e-002	-5.2396
15600	10.297	4.6364	0.	-3284.6
15601	10.205	4.7273	0.	-3311.
15602	10.297	4.7273	5.e-002	-5.243
15603	10.297	4.4545	0.	-3283.2
15604	10.205	4.5455	0.	-3309.6
15605	10.297	4.5455	5.e-002	-5.246
15606	10.297	4.2727	0.	-3282.
15607	10.205	4.3636	0.	-3308.3
15608	10.297	4.3636	5.e-002	-5.2486
15609	10.297	4.0909	0.	-3281.
15610	10.205	4.1818	0.	-3307.1
15611	10.297	4.1818	5.e-002	-5.2508
15612	10.297	3.9091	0.	-3280.1
15613	10.205	4.	0.	-3306.1
15614	10.297	4.	5.e-002	-5.2527
15615	10.297	3.7273	0.	-3279.3
15616	10.205	3.8182	0.	-3305.2
15617	10.297	3.8182	5.e-002	-5.2543
15618	10.297	3.5455	0.	-3278.7
15619	10.205	3.6364	0.	-3304.5
15620	10.297	3.6364	5.e-002	-5.2555
15621	10.297	3.3636	0.	-3278.3
15622	10.205	3.4545	0.	-3304.
15623	10.297	3.4545	5.e-002	-5.2564
15624	10.297	3.1818	0.	-3278.1
15625	10.205	3.2727	0.	-3303.7
15626	10.297	3.2727	5.e-002	-5.257
15627	10.297	3.	0.	-3278.
15628	10.205	3.0909	0.	-3303.5
15629	10.297	3.0909	5.e-002	-5.2573
15630	10.297	2.8182	0.	-3278.1
15631	10.205	2.9091	0.	-3303.5
15632	10.297	2.9091	5.e-002	-5.2573
15633	10.297	2.6364	0.	-3278.3
15634	10.205	2.7273	0.	-3303.7
15635	10.297	2.7273	5.e-002	-5.257
15636	10.297	2.4545	0.	-3278.7
15637	10.205	2.5455	0.	-3304.
15638	10.297	2.5455	5.e-002	-5.2564
15639	10.297	2.2727	0.	-3279.3
15640	10.205	2.3636	0.	-3304.5
15641	10.297	2.3636	5.e-002	-5.2555
15642	10.297	2.0909	0.	-3280.1
15643	10.205	2.1818	0.	-3305.2
15644	10.297	2.1818	5.e-002	-5.2543
15645	10.297	1.9091	0.	-3281.
15646	10.205	2.	0.	-3306.1
15647	10.297	2.	5.e-002	-5.2527
15648	10.297	1.7273	0.	-3282.
15649	10.205	1.8182	0.	-3307.1
15650	10.297	1.8182	5.e-002	-5.2509
15651	10.297	1.5455	0.	-3283.2
15652	10.205	1.6364	0.	-3308.3
15653	10.297	1.6364	5.e-002	-5.2486
15654	10.297	1.3636	0.	-3284.6
15655	10.205	1.4545	0.	-3309.6
15656	10.297	1.4545	5.e-002	-5.246
15657	10.297	1.1818	0.	-3286.1
15658	10.205	1.2727	0.	-3311.
15659	10.297	1.2727	5.e-002	-5.243
15660	10.297	1.	0.	-3287.7
15661	10.205	1.0909	0.	-3312.6
15662	10.297	1.0909	5.e-002	-5.2396
15663	10.297	0.81818	0.	-3289.4
15664	10.205	0.90909	0.	-3314.3
15665	10.297	0.90909	5.e-002	-5.2357
15666	10.297	0.63636	0.	-3291.2
15667	10.205	0.72727	0.	-3316.1
15668	10.297	0.72727	5.e-002	-5.2303
15669	10.297	0.45455	0.	-3293.2
15670	10.205	0.54545	0.	-3318.
15671	10.297	0.54545	5.e-002	-5.2064
15672	10.297	0.27273	0.	-3295.8
15673	10.205	0.36364	0.	-3320.1
15674	10.297	0.36364	5.e-002	-4.9078
15675	10.205	0.18182	0.	-3323.4
15676	10.297	0.18182	5.e-002	-0.43442
15677	10.297	9.0909e-002	0.	-3294.6
15678	10.113	5.7273	0.	-3347.7
15679	10.021	5.8182	0.	-3375.4
15680	10.113	5.8182	5.e-002	-0.49938
15681	10.113	5.9091	0.	-3346.6
15682	10.113	5.5455	0.	-3345.
15683	10.021	5.6364	0.	-3372.1
15684	10.113	5.6364	5.e-002	-4.9374
15685	10.113	5.3636	0.	-3342.9
15686	10.021	5.4545	0.	-3369.9
15687	10.113	5.4545	5.e-002	-5.2344
15688	10.113	5.1818	0.	-3341.
15689	10.021	5.2727	0.	-3367.9
15690	10.113	5.2727	5.e-002	-5.2584
15691	10.113	5.	0.	-3339.2
15692	10.021	5.0909	0.	-3366.
15693	10.113	5.0909	5.e-002	-5.2642
15694	10.113	4.8182	0.	-3337.5
15695	10.021	4.9091	0.	-3364.2
15696	10.113	4.9091	5.e-002	-5.2683
15697	10.113	4.6364	0.	-3336.
15698	10.021	4.7273	0.	-3362.5
15699	10.113	4.7273	5.e-002	-5.2719
15700	10.113	4.4545	0.	-3334.6
15701	10.021	4.5455	0.	-3361.
15702	10.113	4.5455	5.e-002	-5.2751
15703	10.113	4.2727	0.	-3333.3
15704	10.021	4.3636	0.	-3359.6
15705	10.113	4.3636	5.e-002	-5.2779
15706	10.113	4.0909	0.	-3332.2
15707	10.021	4.1818	0.	-3358.4
15708	10.113	4.1818	5.e-002	-5.2802
15709	10.113	3.9091	0.	-3331.2
15710	10.021	4.	0.	-3357.3
15711	10.113	4.	5.e-002	-5.2822
15712	10.113	3.7273	0.	-3330.4
15713	10.021	3.8182	0.	-3356.4
15714	10.113	3.8182	5.e-002	-5.2838
15715	10.113	3.5455	0.	-3329.8
15716	10.021	3.6364	0.	-3355.7
15717	10.113	3.6364	5.e-002	-5.285
15718	10.113	3.3636	0.	-3329.4
15719	10.021	3.4545	0.	-3355.2
15720	10.113	3.4545	5.e-002	-5.286
15721	10.113	3.1818	0.	-3329.1
15722	10.021	3.2727	0.	-3354.8
15723	10.113	3.2727	5.e-002	-5.2866
15724	10.113	3.	0.	-3329.
15725	10.021	3.0909	0.	-3354.6
15726	10.113	3.0909	5.e-002	-5.2869
15727	10.113	2.8182	0.	-3329.1
15728	10.021	2.9091	0.	-3354.6
15729	10.113	2.9091	5.e-002	-5.2869
15730	10.113	2.6364	0.	-3329.4
15731	10.021	2.7273	0.	-3354.8
15732	10.113	2.7273	5.e-002	-5.2866
15733	10.113	2.4545	0.	-3329.8
15734	10.021	2.5455	0.	-3355.2
15735	10.113	2.5455	5.e-002	-5.286
15736	10.113	2.2727	0.	-3330.4
15737	10.021	2.3636	0.	-3355.7
15738	10.113	2.3636	5.e-002	-5.2851
15739	10.113	2.0909	0.	-3331.2
15740	10.021	2.1818	0.	-3356.4
15741	10.113	2.1818	5.e-002	-5.2838
15742	10.113	1.9091	0.	-3332.2
15743	10.021	2.	0.	-3357.3
15744	10.113	2.	5.e-002	-5.2822
15745	10.113	1.7273	0.	-3333.3
15746	10.021	1.8182	0.	-3358.4
15747	10.113	1.8182	5.e-002	-5.2802
15748	10.113	1.5455	0.	-3334.6
15749	10.021	1.6364	0.	-3359.6
15750	10.113	1.6364	5.e-002	-5.2779
15751	10.113	1.3636	0.	-3336.
15752	10.021	1.4545	0.	-3361.
15753	10.113	1.4545	5.e-002	-5.2752
15754	10.113	1.1818	0.	-3337.5
15755	10.021	1.2727	0.	-3362.5
15756	10.113	1.2727	5.e-002	-5.272
15757	10.113	1.	0.	-3339.2
15758	10.021	1.0909	0.	-3364.2
15759	10.113	1.0909	5.e-002	-5.2684
15760	10.113	0.81818	0.	-3341.
15761	10.021	0.90909	0.	-3366.
15762	10.113	0.90909	5.e-002	-5.2643
15763	10.113	0.63636	0.	-3342.9
15764	10.021	0.72727	0.	-3367.9
15765	10.113	0.72727	5.e-002	-5.2585
15766	10.113	0.45455	0.	-3345.
15767	10.021	0.54545	0.	-3369.9
15768	10.113	0.54545	5.e-002	-5.2345
15769	10.113	0.27273	0.	-3347.7
15770	10.021	0.36364	0.	-3372.1
15771	10.113	0.36364	5.e-002	-4.9375
15772	10.021	0.18182	0.	-3375.4
15773	10.113	0.18182	5.e-002	-0.49942
15774	10.113	9.0909e-002	0.	-3346.6
15775	9.929	5.7273	0.	-3399.8
15776	9.8371	5.8182	0.	-3427.7
15777	9.929	5.8182	5.e-002	-0.57016
15778	9.929	5.9091	0.	-3398.9
15779	9.929	5.5455	0.	-3397.
15780	9.8371	5.6364	0.	-3424.3
15781	9.929	5.6364	5.e-002	-4.9684
15782	9.929	5.3636	0.	-3394.9
15783	9.8371	5.4545	0.	-3422.
15784	9.929	5.4545	5.e-002	-5.2634
15785	9.929	5.1818	0.	-3392.8
15786	9.8371	5.2727	0.	-3419.9
15787	9.929	5.2727	5.e-002	-5.2877
15788	9.929	5.	0.	-3391.
15789	9.8371	5.0909	0.	-3417.9
15790	9.929	5.0909	5.e-002	-5.2937
15791	9.929	4.8182	0.	-3389.2
15792	9.8371	4.9091	0.	-3416.
15793	9.929	4.9091	5.e-002	-5.2981
15794	9.929	4.6364	0.	-3387.5
15795	9.8371	4.7273	0.	-3414.2
15796	9.929	4.7273	5.e-002	-5.3019
15797	9.929	4.4545	0.	-3386.1
15798	9.8371	4.5455	0.	-3412.6
15799	9.929	4.5455	5.e-002	-5.3052
15800	9.929	4.2727	0.	-3384.7
15801	9.8371	4.3636	0.	-3411.2
15802	9.929	4.3636	5.e-002	-5.3081
15803	9.929	4.0909	0.	-3383.5
15804	9.8371	4.1818	0.	-3409.9
15805	9.929	4.1818	5.e-002	-5.3106
15806	9.929	3.9091	0.	-3382.5
15807	9.8371	4.	0.	-3408.7
15808	9.929	4.	5.e-002	-5.3126
15809	9.929	3.7273	0.	-3381.7
15810	9.8371	3.8182	0.	-3407.8
15811	9.929	3.8182	5.e-002	-5.3143
15812	9.929	3.5455	0.	-3381.
15813	9.8371	3.6364	0.	-3407.
15814	9.929	3.6364	5.e-002	-5.3156
15815	9.929	3.3636	0.	-3380.6
15816	9.8371	3.4545	0.	-3406.4
15817	9.929	3.4545	5.e-002	-5.3165
15818	9.929	3.1818	0.	-3380.3
15819	9.8371	3.2727	0.	-3406.1
15820	9.929	3.2727	5.e-002	-5.3172
15821	9.929	3.	0.	-3380.2
15822	9.8371	3.0909	0.	-3405.9
15823	9.929	3.0909	5.e-002	-5.3175
15824	9.929	2.8182	0.	-3380.3
15825	9.8371	2.9091	0.	-3405.9
15826	9.929	2.9091	5.e-002	-5.3175
15827	9.929	2.6364	0.	-3380.6
15828	9.8371	2.7273	0.	-3406.1
15829	9.929	2.7273	5.e-002	-5.3172
15830	9.929	2.4545	0.	-3381.
15831	9.8371	2.5455	0.	-3406.4
15832	9.929	2.5455	5.e-002	-5.3166
15833	9.929	2.2727	0.	-3381.7
15834	9.8371	2.3636	0.	-3407.
15835	9.929	2.3636	5.e-002	-5.3156
15836	9.929	2.0909	0.	-3382.5
15837	9.8371	2.1818	0.	-3407.8
15838	9.929	2.1818	5.e-002	-5.3143
15839	9.929	1.9091	0.	-3383.5
15840	9.8371	2.	0.	-3408.7
15841	9.929	2.	5.e-002	-5.3126
15842	9.929	1.7273	0.	-3384.7
15843	9.8371	1.8182	0.	-3409.9
15844	9.929	1.8182	5.e-002	-5.3106
15845	9.929	1.5455	0.	-3386.1
15846	9.8371	1.6364	0.	-3411.2
15847	9.929	1.6364	5.e-002	-5.3081
15848	9.929	1.3636	0.	-3387.5
15849	9.8371	1.4545	0.	-3412.6
15850	9.929	1.4545	5.e-002	-5.3053
15851	9.929	1.1818	0.	-3389.2
15852	9.8371	1.2727	0.	-3414.2
15853	9.929	1.2727	5.e-002	-5.3019
15854	9.929	1.	0.	-3391.
15855	9.8371	1.0909	0.	-3416.
15856	9.929	1.0909	5.e-002	-5.2981
15857	9.929	0.81818	0.	-3392.8
15858	9.8371	0.90909	0.	-3417.9
15859	9.929	0.90909	5.e-002	-5.2937
15860	9.929	0.63636	0.	-3394.9
15861	9.8371	0.72727	0.	-3419.9
15862	9.929	0.72727	5.e-002	-5.2877
15863	9.929	0.45455	0.	-3397.
15864	9.8371	0.54545	0.	-3422.
15865	9.929	0.54545	5.e-002	-5.2635
15866	9.929	0.27273	0.	-3399.8
15867	9.8371	0.36364	0.	-3424.3
15868	9.929	0.36364	5.e-002	-4.9684
15869	9.8371	0.18182	0.	-3427.7
15870	9.929	0.18182	5.e-002	-0.57023
15871	9.929	9.0909e-002	0.	-3398.9
15872	9.7452	5.7273	0.	-3452.1
15873	9.6532	5.8182	0.	-3480.2
15874	9.7452	5.8182	5.e-002	-0.64714
15875	9.7452	5.9091	0.	-3451.4
15876	9.7452	5.5455	0.	-3449.3
15877	9.6532	5.6364	0.	-3476.7
15878	9.7452	5.6364	5.e-002	-5.0006
15879	9.7452	5.3636	0.	-3447.
15880	9.6532	5.4545	0.	-3474.3
15881	9.7452	5.4545	5.e-002	-5.2934
15882	9.7452	5.1818	0.	-3444.9
15883	9.6532	5.2727	0.	-3472.1
15884	9.7452	5.2727	5.e-002	-5.3178
15885	9.7452	5.	0.	-3442.9
15886	9.6532	5.0909	0.	-3470.
15887	9.7452	5.0909	5.e-002	-5.3242
15888	9.7452	4.8182	0.	-3441.
15889	9.6532	4.9091	0.	-3468.
15890	9.7452	4.9091	5.e-002	-5.3288
15891	9.7452	4.6364	0.	-3439.3
15892	9.6532	4.7273	0.	-3466.1
15893	9.7452	4.7273	5.e-002	-5.3328
15894	9.7452	4.4545	0.	-3437.7
15895	9.6532	4.5455	0.	-3464.4
15896	9.7452	4.5455	5.e-002	-5.3363
15897	9.7452	4.2727	0.	-3436.3
15898	9.6532	4.3636	0.	-3462.9
15899	9.7452	4.3636	5.e-002	-5.3393
15900	9.7452	4.0909	0.	-3435.1
15901	9.6532	4.1818	0.	-3461.5
15902	9.7452	4.1818	5.e-002	-5.3419
15903	9.7452	3.9091	0.	-3434.
15904	9.6532	4.	0.	-3460.3
15905	9.7452	4.	5.e-002	-5.344
15906	9.7452	3.7273	0.	-3433.1
15907	9.6532	3.8182	0.	-3459.3
15908	9.7452	3.8182	5.e-002	-5.3457
15909	9.7452	3.5455	0.	-3432.4
15910	9.6532	3.6364	0.	-3458.5
15911	9.7452	3.6364	5.e-002	-5.3471
15912	9.7452	3.3636	0.	-3431.9
15913	9.6532	3.4545	0.	-3457.9
15914	9.7452	3.4545	5.e-002	-5.3481
15915	9.7452	3.1818	0.	-3431.6
15916	9.6532	3.2727	0.	-3457.5
15917	9.7452	3.2727	5.e-002	-5.3488
15918	9.7452	3.	0.	-3431.5
15919	9.6532	3.0909	0.	-3457.3
15920	9.7452	3.0909	5.e-002	-5.3491
15921	9.7452	2.8182	0.	-3431.6
15922	9.6532	2.9091	0.	-3457.3
15923	9.7452	2.9091	5.e-002	-5.3491
15924	9.7452	2.6364	0.	-3431.9
15925	9.6532	2.7273	0.	-3457.5
15926	9.7452	2.7273	5.e-002	-5.3488
15927	9.7452	2.4545	0.	-3432.4
15928	9.6532	2.5455	0.	-3457.9
15929	9.7452	2.5455	5.e-002	-5.3481
15930	9.7452	2.2727	0.	-3433.1
15931	9.6532	2.3636	0.	-3458.5
15932	9.7452	2.3636	5.e-002	-5.3471
15933	9.7452	2.0909	0.	-3434.
15934	9.6532	2.1818	0.	-3459.3
15935	9.7452	2.1818	5.e-002	-5.3458
15936	9.7452	1.9091	0.	-3435.1
15937	9.6532	2.	0.	-3460.3
15938	9.7452	2.	5.e-002	-5.3441
15939	9.7452	1.7273	0.	-3436.3
15940	9.6532	1.8182	0.	-3461.5
15941	9.7452	1.8182	5.e-002	-5.3419
15942	9.7452	1.5455	0.	-3437.7
15943	9.6532	1.6364	0.	-3462.9
15944	9.7452	1.6364	5.e-002	-5.3394
15945	9.7452	1.3636	0.	-3439.3
15946	9.6532	1.4545	0.	-3464.4
15947	9.7452	1.4545	5.e-002	-5.3364
15948	9.7452	1.1818	0.	-3441.
15949	9.6532	1.2727	0.	-3466.1
15950	9.7452	1.2727	5.e-002	-5.3329
15951	9.7452	1.	0.	-3442.9
15952	9.6532	1.0909	0.	-3468.
15953	9.7452	1.0909	5.e-002	-5.3288
15954	9.7452	0.81818	0.	-3444.9
15955	9.6532	0.90909	0.	-3470.
15956	9.7452	0.90909	5.e-002	-5.3242
15957	9.7452	0.63636	0.	-3447.
15958	9.6532	0.72727	0.	-3472.1
15959	9.7452	0.72727	5.e-002	-5.3179
15960	9.7452	0.45455	0.	-3449.3
15961	9.6532	0.54545	0.	-3474.3
15962	9.7452	0.54545	5.e-002	-5.2935
15963	9.7452	0.27273	0.	-3452.1
15964	9.6532	0.36364	0.	-3476.7
15965	9.7452	0.36364	5.e-002	-5.0006
15966	9.6532	0.18182	0.	-3480.2
15967	9.7452	0.18182	5.e-002	-0.64719
15968	9.7452	9.0909e-002	0.	-3451.4
15969	9.5613	5.7273	0.	-3504.7
15970	9.4694	5.8182	0.	-3533.
15971	9.5613	5.8182	5.e-002	-0.73076
15972	9.5613	5.9091	0.	-3504.2
15973	9.5613	5.5455	0.	-3501.8
15974	9.4694	5.6364	0.	-3529.4
15975	9.5613	5.6364	5.e-002	-5.0342
15976	9.5613	5.3636	0.	-3499.4
15977	9.4694	5.4545	0.	-3526.9
15978	9.5613	5.4545	5.e-002	-5.3244
15979	9.5613	5.1818	0.	-3497.2
15980	9.4694	5.2727	0.	-3524.5
15981	9.5613	5.2727	5.e-002	-5.349
15982	9.5613	5.	0.	-3495.1
15983	9.4694	5.0909	0.	-3522.3
15984	9.5613	5.0909	5.e-002	-5.3556
15985	9.5613	4.8182	0.	-3493.1
15986	9.4694	4.9091	0.	-3520.2
15987	9.5613	4.9091	5.e-002	-5.3605
15988	9.5613	4.6364	0.	-3491.3
15989	9.4694	4.7273	0.	-3518.3
15990	9.5613	4.7273	5.e-002	-5.3648
15991	9.5613	4.4545	0.	-3489.6
15992	9.4694	4.5455	0.	-3516.4
15993	9.5613	4.5455	5.e-002	-5.3685
15994	9.5613	4.2727	0.	-3488.1
15995	9.4694	4.3636	0.	-3514.8
15996	9.5613	4.3636	5.e-002	-5.3716
15997	9.5613	4.0909	0.	-3486.8
15998	9.4694	4.1818	0.	-3513.4
15999	9.5613	4.1818	5.e-002	-5.3743
16000	9.5613	3.9091	0.	-3485.6
16001	9.4694	4.	0.	-3512.1
16002	9.5613	4.	5.e-002	-5.3765
16003	9.5613	3.7273	0.	-3484.7
16004	9.4694	3.8182	0.	-3511.
16005	9.5613	3.8182	5.e-002	-5.3783
16006	9.5613	3.5455	0.	-3484.
16007	9.4694	3.6364	0.	-3510.2
16008	9.5613	3.6364	5.e-002	-5.3796
16009	9.5613	3.3636	0.	-3483.4
16010	9.4694	3.4545	0.	-3509.5
16011	9.5613	3.4545	5.e-002	-5.3807
16012	9.5613	3.1818	0.	-3483.1
16013	9.4694	3.2727	0.	-3509.1
16014	9.5613	3.2727	5.e-002	-5.3814
16015	9.5613	3.	0.	-3483.
16016	9.4694	3.0909	0.	-3508.8
16017	9.5613	3.0909	5.e-002	-5.3817
16018	9.5613	2.8182	0.	-3483.1
16019	9.4694	2.9091	0.	-3508.8
16020	9.5613	2.9091	5.e-002	-5.3817
16021	9.5613	2.6364	0.	-3483.4
16022	9.4694	2.7273	0.	-3509.1
16023	9.5613	2.7273	5.e-002	-5.3814
16024	9.5613	2.4545	0.	-3484.
16025	9.4694	2.5455	0.	-3509.5
16026	9.5613	2.5455	5.e-002	-5.3807
16027	9.5613	2.2727	0.	-3484.7
16028	9.4694	2.3636	0.	-3510.2
16029	9.5613	2.3636	5.e-002	-5.3797
16030	9.5613	2.0909	0.	-3485.6
16031	9.4694	2.1818	0.	-3511.
16032	9.5613	2.1818	5.e-002	-5.3783
16033	9.5613	1.9091	0.	-3486.8
16034	9.4694	2.	0.	-3512.1
16035	9.5613	2.	5.e-002	-5.3765
16036	9.5613	1.7273	0.	-3488.1
16037	9.4694	1.8182	0.	-3513.4
16038	9.5613	1.8182	5.e-002	-5.3743
16039	9.5613	1.5455	0.	-3489.6
16040	9.4694	1.6364	0.	-3514.8
16041	9.5613	1.6364	5.e-002	-5.3717
16042	9.5613	1.3636	0.	-3491.3
16043	9.4694	1.4545	0.	-3516.4
16044	9.5613	1.4545	5.e-002	-5.3685
16045	9.5613	1.1818	0.	-3493.1
16046	9.4694	1.2727	0.	-3518.3
16047	9.5613	1.2727	5.e-002	-5.3648
16048	9.5613	1.	0.	-3495.1
16049	9.4694	1.0909	0.	-3520.2
16050	9.5613	1.0909	5.e-002	-5.3606
16051	9.5613	0.81818	0.	-3497.2
16052	9.4694	0.90909	0.	-3522.3
16053	9.5613	0.90909	5.e-002	-5.3557
16054	9.5613	0.63636	0.	-3499.4
16055	9.4694	0.72727	0.	-3524.5
16056	9.5613	0.72727	5.e-002	-5.3491
16057	9.5613	0.45455	0.	-3501.8
16058	9.4694	0.54545	0.	-3526.9
16059	9.5613	0.54545	5.e-002	-5.3245
16060	9.5613	0.27273	0.	-3504.7
16061	9.4694	0.36364	0.	-3529.4
16062	9.5613	0.36364	5.e-002	-5.0342
16063	9.4694	0.18182	0.	-3533.
16064	9.5613	0.18182	5.e-002	-0.73082
16065	9.5613	9.0909e-002	0.	-3504.2
16066	9.3774	5.7273	0.	-3557.6
16067	9.2855	5.8182	0.	-3586.
16068	9.3774	5.8182	5.e-002	-0.82161
16069	9.3774	5.9091	0.	-3557.3
16070	9.3774	5.5455	0.	-3554.5
16071	9.2855	5.6364	0.	-3582.3
16072	9.3774	5.6364	5.e-002	-5.0692
16073	9.3774	5.3636	0.	-3552.
16074	9.2855	5.4545	0.	-3579.7
16075	9.3774	5.4545	5.e-002	-5.3566
16076	9.3774	5.1818	0.	-3549.7
16077	9.2855	5.2727	0.	-3577.2
16078	9.3774	5.2727	5.e-002	-5.3814
16079	9.3774	5.	0.	-3547.4
16080	9.2855	5.0909	0.	-3574.9
16081	9.3774	5.0909	5.e-002	-5.3883
16082	9.3774	4.8182	0.	-3545.4
16083	9.2855	4.9091	0.	-3572.6
16084	9.3774	4.9091	5.e-002	-5.3935
16085	9.3774	4.6364	0.	-3543.4
16086	9.2855	4.7273	0.	-3570.6
16087	9.3774	4.7273	5.e-002	-5.3979
16088	9.3774	4.4545	0.	-3541.6
16089	9.2855	4.5455	0.	-3568.6
16090	9.3774	4.5455	5.e-002	-5.4018
16091	9.3774	4.2727	0.	-3540.1
16092	9.2855	4.3636	0.	-3566.9
16093	9.3774	4.3636	5.e-002	-5.405
16094	9.3774	4.0909	0.	-3538.7
16095	9.2855	4.1818	0.	-3565.4
16096	9.3774	4.1818	5.e-002	-5.4078
16097	9.3774	3.9091	0.	-3537.4
16098	9.2855	4.	0.	-3564.
16099	9.3774	4.	5.e-002	-5.4101
16100	9.3774	3.7273	0.	-3536.5
16101	9.2855	3.8182	0.	-3562.9
16102	9.3774	3.8182	5.e-002	-5.4119
16103	9.3774	3.5455	0.	-3535.7
16104	9.2855	3.6364	0.	-3561.9
16105	9.3774	3.6364	5.e-002	-5.4133
16106	9.3774	3.3636	0.	-3535.1
16107	9.2855	3.4545	0.	-3561.3
16108	9.3774	3.4545	5.e-002	-5.4144
16109	9.3774	3.1818	0.	-3534.8
16110	9.2855	3.2727	0.	-3560.8
16111	9.3774	3.2727	5.e-002	-5.4151
16112	9.3774	3.	0.	-3534.7
16113	9.2855	3.0909	0.	-3560.5
16114	9.3774	3.0909	5.e-002	-5.4154
16115	9.3774	2.8182	0.	-3534.8
16116	9.2855	2.9091	0.	-3560.5
16117	9.3774	2.9091	5.e-002	-5.4154
16118	9.3774	2.6364	0.	-3535.1
16119	9.2855	2.7273	0.	-3560.8
16120	9.3774	2.7273	5.e-002	-5.4151
16121	9.3774	2.4545	0.	-3535.7
16122	9.2855	2.5455	0.	-3561.3
16123	9.3774	2.5455	5.e-002	-5.4144
16124	9.3774	2.2727	0.	-3536.5
16125	9.2855	2.3636	0.	-3561.9
16126	9.3774	2.3636	5.e-002	-5.4133
16127	9.3774	2.0909	0.	-3537.4
16128	9.2855	2.1818	0.	-3562.9
16129	9.3774	2.1818	5.e-002	-5.412
16130	9.3774	1.9091	0.	-3538.7
16131	9.2855	2.	0.	-3564.
16132	9.3774	2.	5.e-002	-5.4101
16133	9.3774	1.7273	0.	-3540.1
16134	9.2855	1.8182	0.	-3565.4
16135	9.3774	1.8182	5.e-002	-5.4078
16136	9.3774	1.5455	0.	-3541.6
16137	9.2855	1.6364	0.	-3566.9
16138	9.3774	1.6364	5.e-002	-5.4051
16139	9.3774	1.3636	0.	-3543.4
16140	9.2855	1.4545	0.	-3568.6
16141	9.3774	1.4545	5.e-002	-5.4018
16142	9.3774	1.1818	0.	-3545.4
16143	9.2855	1.2727	0.	-3570.6
16144	9.3774	1.2727	5.e-002	-5.398
16145	9.3774	1.	0.	-3547.4
16146	9.2855	1.0909	0.	-3572.6
16147	9.3774	1.0909	5.e-002	-5.3935
16148	9.3774	0.81818	0.	-3549.7
16149	9.2855	0.90909	0.	-3574.9
16150	9.3774	0.90909	5.e-002	-5.3884
16151	9.3774	0.63636	0.	-3552.
16152	9.2855	0.72727	0.	-3577.2
16153	9.3774	0.72727	5.e-002	-5.3815
16154	9.3774	0.45455	0.	-3554.5
16155	9.2855	0.54545	0.	-3579.7
16156	9.3774	0.54545	5.e-002	-5.3567
16157	9.3774	0.27273	0.	-3557.6
16158	9.2855	0.36364	0.	-3582.3
16159	9.3774	0.36364	5.e-002	-5.0693
16160	9.2855	0.18182	0.	-3586.
16161	9.3774	0.18182	5.e-002	-0.82166
16162	9.3774	9.0909e-002	0.	-3557.3
16163	9.1935	5.7273	0.	-3610.7
16164	9.1016	5.8182	0.	-3639.3
16165	9.1935	5.8182	5.e-002	-0.92024
16166	9.1935	5.9091	0.	-3610.7
16167	9.1935	5.5455	0.	-3607.5
16168	9.1016	5.6364	0.	-3635.5
16169	9.1935	5.6364	5.e-002	-5.106
16170	9.1935	5.3636	0.	-3604.9
16171	9.1016	5.4545	0.	-3632.7
16172	9.1935	5.4545	5.e-002	-5.39
16173	9.1935	5.1818	0.	-3602.4
16174	9.1016	5.2727	0.	-3630.1
16175	9.1935	5.2727	5.e-002	-5.415
16176	9.1935	5.	0.	-3600.
16177	9.1016	5.0909	0.	-3627.6
16178	9.1935	5.0909	5.e-002	-5.4222
16179	9.1935	4.8182	0.	-3597.8
16180	9.1016	4.9091	0.	-3625.3
16181	9.1935	4.9091	5.e-002	-5.4277
16182	9.1935	4.6364	0.	-3595.8
16183	9.1016	4.7273	0.	-3623.
16184	9.1935	4.7273	5.e-002	-5.4323
16185	9.1935	4.4545	0.	-3593.9
16186	9.1016	4.5455	0.	-3621.
16187	9.1935	4.5455	5.e-002	-5.4364
16188	9.1935	4.2727	0.	-3592.2
16189	9.1016	4.3636	0.	-3619.2
16190	9.1935	4.3636	5.e-002	-5.4398
16191	9.1935	4.0909	0.	-3590.7
16192	9.1016	4.1818	0.	-3617.5
16193	9.1935	4.1818	5.e-002	-5.4426
16194	9.1935	3.9091	0.	-3589.4
16195	9.1016	4.	0.	-3616.1
16196	9.1935	4.	5.e-002	-5.4449
16197	9.1935	3.7273	0.	-3588.4
16198	9.1016	3.8182	0.	-3614.9
16199	9.1935	3.8182	5.e-002	-5.4468
16200	9.1935	3.5455	0.	-3587.5
16201	9.1016	3.6364	0.	-3613.9
16202	9.1935	3.6364	5.e-002	-5.4482
16203	9.1935	3.3636	0.	-3586.9
16204	9.1016	3.4545	0.	-3613.2
16205	9.1935	3.4545	5.e-002	-5.4493
16206	9.1935	3.1818	0.	-3586.6
16207	9.1016	3.2727	0.	-3612.7
16208	9.1935	3.2727	5.e-002	-5.45
16209	9.1935	3.	0.	-3586.4
16210	9.1016	3.0909	0.	-3612.4
16211	9.1935	3.0909	5.e-002	-5.4503
16212	9.1935	2.8182	0.	-3586.6
16213	9.1016	2.9091	0.	-3612.4
16214	9.1935	2.9091	5.e-002	-5.4503
16215	9.1935	2.6364	0.	-3586.9
16216	9.1016	2.7273	0.	-3612.7
16217	9.1935	2.7273	5.e-002	-5.45
16218	9.1935	2.4545	0.	-3587.5
16219	9.1016	2.5455	0.	-3613.2
16220	9.1935	2.5455	5.e-002	-5.4493
16221	9.1935	2.2727	0.	-3588.4
16222	9.1016	2.3636	0.	-3613.9
16223	9.1935	2.3636	5.e-002	-5.4483
16224	9.1935	2.0909	0.	-3589.4
16225	9.1016	2.1818	0.	-3614.9
16226	9.1935	2.1818	5.e-002	-5.4468
16227	9.1935	1.9091	0.	-3590.7
16228	9.1016	2.	0.	-3616.1
16229	9.1935	2.	5.e-002	-5.445
16230	9.1935	1.7273	0.	-3592.2
16231	9.1016	1.8182	0.	-3617.5
16232	9.1935	1.8182	5.e-002	-5.4426
16233	9.1935	1.5455	0.	-3593.9
16234	9.1016	1.6364	0.	-3619.2
16235	9.1935	1.6364	5.e-002	-5.4398
16236	9.1935	1.3636	0.	-3595.8
16237	9.1016	1.4545	0.	-3621.
16238	9.1935	1.4545	5.e-002	-5.4364
16239	9.1935	1.1818	0.	-3597.8
16240	9.1016	1.2727	0.	-3623.1
16241	9.1935	1.2727	5.e-002	-5.4324
16242	9.1935	1.	0.	-3600.
16243	9.1016	1.0909	0.	-3625.3
16244	9.1935	1.0909	5.e-002	-5.4278
16245	9.1935	0.81818	0.	-3602.4
16246	9.1016	0.90909	0.	-3627.6
16247	9.1935	0.90909	5.e-002	-5.4223
16248	9.1935	0.63636	0.	-3604.9
16249	9.1016	0.72727	0.	-3630.1
16250	9.1935	0.72727	5.e-002	-5.415
16251	9.1935	0.45455	0.	-3607.5
16252	9.1016	0.54545	0.	-3632.7
16253	9.1935	0.54545	5.e-002	-5.3902
16254	9.1935	0.27273	0.	-3610.7
16255	9.1016	0.36364	0.	-3635.5
16256	9.1935	0.36364	5.e-002	-5.1061
16257	9.1016	0.18182	0.	-3639.3
16258	9.1935	0.18182	5.e-002	-0.92031
16259	9.1935	9.0909e-002	0.	-3610.7
16260	9.0097	5.7273	0.	-3664.1
16261	8.9177	5.8182	0.	-3692.9
16262	9.0097	5.8182	5.e-002	-1.0273
16263	9.0097	5.9091	0.	-3664.3
16264	9.0097	5.5455	0.	-3660.7
16265	8.9177	5.6364	0.	-3689.
16266	9.0097	5.6364	5.e-002	-5.1446
16267	9.0097	5.3636	0.	-3658.
16268	8.9177	5.4545	0.	-3686.
16269	9.0097	5.4545	5.e-002	-5.4249
16270	9.0097	5.1818	0.	-3655.3
16271	8.9177	5.2727	0.	-3683.2
16272	9.0097	5.2727	5.e-002	-5.45
16273	9.0097	5.	0.	-3652.8
16274	8.9177	5.0909	0.	-3680.6
16275	9.0097	5.0909	5.e-002	-5.4576
16276	9.0097	4.8182	0.	-3650.5
16277	8.9177	4.9091	0.	-3678.1
16278	9.0097	4.9091	5.e-002	-5.4633
16279	9.0097	4.6364	0.	-3648.3
16280	8.9177	4.7273	0.	-3675.7
16281	9.0097	4.7273	5.e-002	-5.4682
16282	9.0097	4.4545	0.	-3646.3
16283	8.9177	4.5455	0.	-3673.6
16284	9.0097	4.5455	5.e-002	-5.4724
16285	9.0097	4.2727	0.	-3644.5
16286	8.9177	4.3636	0.	-3671.6
16287	9.0097	4.3636	5.e-002	-5.4759
16288	9.0097	4.0909	0.	-3642.9
16289	8.9177	4.1818	0.	-3669.9
16290	9.0097	4.1818	5.e-002	-5.4788
16291	9.0097	3.9091	0.	-3641.5
16292	8.9177	4.	0.	-3668.3
16293	9.0097	4.	5.e-002	-5.4811
16294	9.0097	3.7273	0.	-3640.4
16295	8.9177	3.8182	0.	-3667.
16296	9.0097	3.8182	5.e-002	-5.483
16297	9.0097	3.5455	0.	-3639.5
16298	8.9177	3.6364	0.	-3666.
16299	9.0097	3.6364	5.e-002	-5.4845
16300	9.0097	3.3636	0.	-3638.9
16301	8.9177	3.4545	0.	-3665.2
16302	9.0097	3.4545	5.e-002	-5.4855
16303	9.0097	3.1818	0.	-3638.5
16304	8.9177	3.2727	0.	-3664.7
16305	9.0097	3.2727	5.e-002	-5.4862
16306	9.0097	3.	0.	-3638.4
16307	8.9177	3.0909	0.	-3664.4
16308	9.0097	3.0909	5.e-002	-5.4866
16309	9.0097	2.8182	0.	-3638.5
16310	8.9177	2.9091	0.	-3664.4
16311	9.0097	2.9091	5.e-002	-5.4866
16312	9.0097	2.6364	0.	-3638.9
16313	8.9177	2.7273	0.	-3664.7
16314	9.0097	2.7273	5.e-002	-5.4863
16315	9.0097	2.4545	0.	-3639.5
16316	8.9177	2.5455	0.	-3665.2
16317	9.0097	2.5455	5.e-002	-5.4856
16318	9.0097	2.2727	0.	-3640.4
16319	8.9177	2.3636	0.	-3666.
16320	9.0097	2.3636	5.e-002	-5.4845
16321	9.0097	2.0909	0.	-3641.5
16322	8.9177	2.1818	0.	-3667.
16323	9.0097	2.1818	5.e-002	-5.4831
16324	9.0097	1.9091	0.	-3642.9
16325	8.9177	2.	0.	-3668.3
16326	9.0097	2.	5.e-002	-5.4812
16327	9.0097	1.7273	0.	-3644.5
16328	8.9177	1.8182	0.	-3669.9
16329	9.0097	1.8182	5.e-002	-5.4788
16330	9.0097	1.5455	0.	-3646.3
16331	8.9177	1.6364	0.	-3671.6
16332	9.0097	1.6364	5.e-002	-5.4759
16333	9.0097	1.3636	0.	-3648.3
16334	8.9177	1.4545	0.	-3673.6
16335	9.0097	1.4545	5.e-002	-5.4724
16336	9.0097	1.1818	0.	-3650.5
16337	8.9177	1.2727	0.	-3675.7
16338	9.0097	1.2727	5.e-002	-5.4683
16339	9.0097	1.	0.	-3652.8
16340	8.9177	1.0909	0.	-3678.1
16341	9.0097	1.0909	5.e-002	-5.4634
16342	9.0097	0.81818	0.	-3655.3
16343	8.9177	0.90909	0.	-3680.6
16344	9.0097	0.90909	5.e-002	-5.4577
16345	9.0097	0.63636	0.	-3658.
16346	8.9177	0.72727	0.	-3683.2
16347	9.0097	0.72727	5.e-002	-5.4501
16348	9.0097	0.45455	0.	-3660.7
16349	8.9177	0.54545	0.	-3686.
16350	9.0097	0.54545	5.e-002	-5.425
16351	9.0097	0.27273	0.	-3664.1
16352	8.9177	0.36364	0.	-3689.
16353	9.0097	0.36364	5.e-002	-5.1447
16354	8.9177	0.18182	0.	-3692.9
16355	9.0097	0.18182	5.e-002	-1.0274
16356	9.0097	9.0909e-002	0.	-3664.3
16357	8.8258	5.7273	0.	-3717.7
16358	8.7339	5.8182	0.	-3746.7
16359	8.8258	5.8182	5.e-002	-1.1435
16360	8.8258	5.9091	0.	-3718.2
16361	8.8258	5.5455	0.	-3714.2
16362	8.7339	5.6364	0.	-3742.7
16363	8.8258	5.6364	5.e-002	-5.1852
16364	8.8258	5.3636	0.	-3711.3
16365	8.7339	5.4545	0.	-3739.6
16366	8.8258	5.4545	5.e-002	-5.4614
16367	8.8258	5.1818	0.	-3708.5
16368	8.7339	5.2727	0.	-3736.6
16369	8.8258	5.2727	5.e-002	-5.4866
16370	8.8258	5.	0.	-3705.8
16371	8.7339	5.0909	0.	-3733.8
16372	8.8258	5.0909	5.e-002	-5.4945
16373	8.8258	4.8182	0.	-3703.3
16374	8.7339	4.9091	0.	-3731.1
16375	8.8258	4.9091	5.e-002	-5.5005
16376	8.8258	4.6364	0.	-3701.
16377	8.7339	4.7273	0.	-3728.6
16378	8.8258	4.7273	5.e-002	-5.5056
16379	8.8258	4.4545	0.	-3698.9
16380	8.7339	4.5455	0.	-3726.3
16381	8.8258	4.5455	5.e-002	-5.5099
16382	8.8258	4.2727	0.	-3697.
16383	8.7339	4.3636	0.	-3724.2
16384	8.8258	4.3636	5.e-002	-5.5135
16385	8.8258	4.0909	0.	-3695.3
16386	8.7339	4.1818	0.	-3722.4
16387	8.8258	4.1818	5.e-002	-5.5165
16388	8.8258	3.9091	0.	-3693.8
16389	8.7339	4.	0.	-3720.7
16390	8.8258	4.	5.e-002	-5.5189
16391	8.8258	3.7273	0.	-3692.6
16392	8.7339	3.8182	0.	-3719.3
16393	8.8258	3.8182	5.e-002	-5.5208
16394	8.8258	3.5455	0.	-3691.7
16395	8.7339	3.6364	0.	-3718.2
16396	8.8258	3.6364	5.e-002	-5.5222
16397	8.8258	3.3636	0.	-3691.
16398	8.7339	3.4545	0.	-3717.4
16399	8.8258	3.4545	5.e-002	-5.5232
16400	8.8258	3.1818	0.	-3690.6
16401	8.7339	3.2727	0.	-3716.8
16402	8.8258	3.2727	5.e-002	-5.5239
16403	8.8258	3.	0.	-3690.4
16404	8.7339	3.0909	0.	-3716.5
16405	8.8258	3.0909	5.e-002	-5.5242
16406	8.8258	2.8182	0.	-3690.6
16407	8.7339	2.9091	0.	-3716.5
16408	8.8258	2.9091	5.e-002	-5.5242
16409	8.8258	2.6364	0.	-3691.
16410	8.7339	2.7273	0.	-3716.8
16411	8.8258	2.7273	5.e-002	-5.5239
16412	8.8258	2.4545	0.	-3691.7
16413	8.7339	2.5455	0.	-3717.4
16414	8.8258	2.5455	5.e-002	-5.5232
16415	8.8258	2.2727	0.	-3692.6
16416	8.7339	2.3636	0.	-3718.2
16417	8.8258	2.3636	5.e-002	-5.5222
16418	8.8258	2.0909	0.	-3693.8
16419	8.7339	2.1818	0.	-3719.3
16420	8.8258	2.1818	5.e-002	-5.5208
16421	8.8258	1.9091	0.	-3695.3
16422	8.7339	2.	0.	-3720.7
16423	8.8258	2.	5.e-002	-5.5189
16424	8.8258	1.7273	0.	-3697.
16425	8.7339	1.8182	0.	-3722.4
16426	8.8258	1.8182	5.e-002	-5.5165
16427	8.8258	1.5455	0.	-3698.9
16428	8.7339	1.6364	0.	-3724.2
16429	8.8258	1.6364	5.e-002	-5.5135
16430	8.8258	1.3636	0.	-3701.
16431	8.7339	1.4545	0.	-3726.3
16432	8.8258	1.4545	5.e-002	-5.5099
16433	8.8258	1.1818	0.	-3703.3
16434	8.7339	1.2727	0.	-3728.6
16435	8.8258	1.2727	5.e-002	-5.5056
16436	8.8258	1.	0.	-3705.8
16437	8.7339	1.0909	0.	-3731.1
16438	8.8258	1.0909	5.e-002	-5.5006
16439	8.8258	0.81818	0.	-3708.5
16440	8.7339	0.90909	0.	-3733.8
16441	8.8258	0.90909	5.e-002	-5.4946
16442	8.8258	0.63636	0.	-3711.3
16443	8.7339	0.72727	0.	-3736.6
16444	8.8258	0.72727	5.e-002	-5.4867
16445	8.8258	0.45455	0.	-3714.2
16446	8.7339	0.54545	0.	-3739.6
16447	8.8258	0.54545	5.e-002	-5.4615
16448	8.8258	0.27273	0.	-3717.7
16449	8.7339	0.36364	0.	-3742.7
16450	8.8258	0.36364	5.e-002	-5.1853
16451	8.7339	0.18182	0.	-3746.7
16452	8.8258	0.18182	5.e-002	-1.1435
16453	8.8258	9.0909e-002	0.	-3718.2
16454	8.6419	5.7273	0.	-3771.6
16455	8.55	5.8182	0.	-3800.8
16456	8.6419	5.8182	5.e-002	-1.2695
16457	8.6419	5.9091	0.	-3772.4
16458	8.6419	5.5455	0.	-3768.
16459	8.55	5.6364	0.	-3796.6
16460	8.6419	5.6364	5.e-002	-5.2281
16461	8.6419	5.3636	0.	-3764.9
16462	8.55	5.4545	0.	-3793.4
16463	8.6419	5.4545	5.e-002	-5.4996
16464	8.6419	5.1818	0.	-3761.9
16465	8.55	5.2727	0.	-3790.2
16466	8.6419	5.2727	5.e-002	-5.5249
16467	8.6419	5.	0.	-3759.1
16468	8.55	5.0909	0.	-3787.2
16469	8.6419	5.0909	5.e-002	-5.5332
16470	8.6419	4.8182	0.	-3756.4
16471	8.55	4.9091	0.	-3784.4
16472	8.6419	4.9091	5.e-002	-5.5394
16473	8.6419	4.6364	0.	-3753.9
16474	8.55	4.7273	0.	-3781.7
16475	8.6419	4.7273	5.e-002	-5.5447
16476	8.6419	4.4545	0.	-3751.7
16477	8.55	4.5455	0.	-3779.3
16478	8.6419	4.5455	5.e-002	-5.5491
16479	8.6419	4.2727	0.	-3749.6
16480	8.55	4.3636	0.	-3777.
16481	8.6419	4.3636	5.e-002	-5.5528
16482	8.6419	4.0909	0.	-3747.8
16483	8.55	4.1818	0.	-3775.
16484	8.6419	4.1818	5.e-002	-5.5558
16485	8.6419	3.9091	0.	-3746.3
16486	8.55	4.	0.	-3773.3
16487	8.6419	4.	5.e-002	-5.5582
16488	8.6419	3.7273	0.	-3745.
16489	8.55	3.8182	0.	-3771.8
16490	8.6419	3.8182	5.e-002	-5.5601
16491	8.6419	3.5455	0.	-3743.9
16492	8.55	3.6364	0.	-3770.6
16493	8.6419	3.6364	5.e-002	-5.5615
16494	8.6419	3.3636	0.	-3743.2
16495	8.55	3.4545	0.	-3769.7
16496	8.6419	3.4545	5.e-002	-5.5625
16497	8.6419	3.1818	0.	-3742.8
16498	8.55	3.2727	0.	-3769.1
16499	8.6419	3.2727	5.e-002	-5.5632
16500	8.6419	3.	0.	-3742.6
16501	8.55	3.0909	0.	-3768.8
16502	8.6419	3.0909	5.e-002	-5.5635
16503	8.6419	2.8182	0.	-3742.8
16504	8.55	2.9091	0.	-3768.8
16505	8.6419	2.9091	5.e-002	-5.5635
16506	8.6419	2.6364	0.	-3743.2
16507	8.55	2.7273	0.	-3769.1
16508	8.6419	2.7273	5.e-002	-5.5632
16509	8.6419	2.4545	0.	-3743.9
16510	8.55	2.5455	0.	-3769.7
16511	8.6419	2.5455	5.e-002	-5.5625
16512	8.6419	2.2727	0.	-3745.
16513	8.55	2.3636	0.	-3770.6
16514	8.6419	2.3636	5.e-002	-5.5615
16515	8.6419	2.0909	0.	-3746.3
16516	8.55	2.1818	0.	-3771.8
16517	8.6419	2.1818	5.e-002	-5.5601
16518	8.6419	1.9091	0.	-3747.8
16519	8.55	2.	0.	-3773.3
16520	8.6419	2.	5.e-002	-5.5582
16521	8.6419	1.7273	0.	-3749.6
16522	8.55	1.8182	0.	-3775.
16523	8.6419	1.8182	5.e-002	-5.5558
16524	8.6419	1.5455	0.	-3751.7
16525	8.55	1.6364	0.	-3777.
16526	8.6419	1.6364	5.e-002	-5.5529
16527	8.6419	1.3636	0.	-3753.9
16528	8.55	1.4545	0.	-3779.3
16529	8.6419	1.4545	5.e-002	-5.5492
16530	8.6419	1.1818	0.	-3756.4
16531	8.55	1.2727	0.	-3781.7
16532	8.6419	1.2727	5.e-002	-5.5448
16533	8.6419	1.	0.	-3759.1
16534	8.55	1.0909	0.	-3784.4
16535	8.6419	1.0909	5.e-002	-5.5395
16536	8.6419	0.81818	0.	-3761.9
16537	8.55	0.90909	0.	-3787.2
16538	8.6419	0.90909	5.e-002	-5.5332
16539	8.6419	0.63636	0.	-3764.9
16540	8.55	0.72727	0.	-3790.2
16541	8.6419	0.72727	5.e-002	-5.525
16542	8.6419	0.45455	0.	-3768.
16543	8.55	0.54545	0.	-3793.4
16544	8.6419	0.54545	5.e-002	-5.4997
16545	8.6419	0.27273	0.	-3771.6
16546	8.55	0.36364	0.	-3796.6
16547	8.6419	0.36364	5.e-002	-5.2282
16548	8.55	0.18182	0.	-3800.8
16549	8.6419	0.18182	5.e-002	-1.2696
16550	8.6419	9.0909e-002	0.	-3772.4
16551	8.4581	5.7273	0.	-3825.8
16552	8.3661	5.8182	0.	-3855.3
16553	8.4581	5.8182	5.e-002	-1.4062
16554	8.4581	5.9091	0.	-3826.9
16555	8.4581	5.5455	0.	-3822.
16556	8.3661	5.6364	0.	-3850.9
16557	8.4581	5.6364	5.e-002	-5.2734
16558	8.4581	5.3636	0.	-3818.7
16559	8.3661	5.4545	0.	-3847.4
16560	8.4581	5.4545	5.e-002	-5.5397
16561	8.4581	5.1818	0.	-3815.5
16562	8.3661	5.2727	0.	-3844.1
16563	8.4581	5.2727	5.e-002	-5.5651
16564	8.4581	5.	0.	-3812.5
16565	8.3661	5.0909	0.	-3840.9
16566	8.4581	5.0909	5.e-002	-5.5737
16567	8.4581	4.8182	0.	-3809.7
16568	8.3661	4.9091	0.	-3837.9
16569	8.4581	4.9091	5.e-002	-5.5802
16570	8.4581	4.6364	0.	-3807.1
16571	8.3661	4.7273	0.	-3835.
16572	8.4581	4.7273	5.e-002	-5.5857
16573	8.4581	4.4545	0.	-3804.6
16574	8.3661	4.5455	0.	-3832.4
16575	8.4581	4.5455	5.e-002	-5.5902
16576	8.4581	4.2727	0.	-3802.4
16577	8.3661	4.3636	0.	-3830.
16578	8.4581	4.3636	5.e-002	-5.5939
16579	8.4581	4.0909	0.	-3800.5
16580	8.3661	4.1818	0.	-3827.9
16581	8.4581	4.1818	5.e-002	-5.597
16582	8.4581	3.9091	0.	-3798.8
16583	8.3661	4.	0.	-3826.
16584	8.4581	4.	5.e-002	-5.5993
16585	8.4581	3.7273	0.	-3797.4
16586	8.3661	3.8182	0.	-3824.4
16587	8.4581	3.8182	5.e-002	-5.6011
16588	8.4581	3.5455	0.	-3796.4
16589	8.3661	3.6364	0.	-3823.1
16590	8.4581	3.6364	5.e-002	-5.6025
16591	8.4581	3.3636	0.	-3795.6
16592	8.3661	3.4545	0.	-3822.1
16593	8.4581	3.4545	5.e-002	-5.6035
16594	8.4581	3.1818	0.	-3795.1
16595	8.3661	3.2727	0.	-3821.5
16596	8.4581	3.2727	5.e-002	-5.6041
16597	8.4581	3.	0.	-3794.9
16598	8.3661	3.0909	0.	-3821.2
16599	8.4581	3.0909	5.e-002	-5.6044
16600	8.4581	2.8182	0.	-3795.1
16601	8.3661	2.9091	0.	-3821.2
16602	8.4581	2.9091	5.e-002	-5.6044
16603	8.4581	2.6364	0.	-3795.6
16604	8.3661	2.7273	0.	-3821.5
16605	8.4581	2.7273	5.e-002	-5.6041
16606	8.4581	2.4545	0.	-3796.4
16607	8.3661	2.5455	0.	-3822.1
16608	8.4581	2.5455	5.e-002	-5.6035
16609	8.4581	2.2727	0.	-3797.4
16610	8.3661	2.3636	0.	-3823.1
16611	8.4581	2.3636	5.e-002	-5.6025
16612	8.4581	2.0909	0.	-3798.8
16613	8.3661	2.1818	0.	-3824.4
16614	8.4581	2.1818	5.e-002	-5.6012
16615	8.4581	1.9091	0.	-3800.5
16616	8.3661	2.	0.	-3826.
16617	8.4581	2.	5.e-002	-5.5993
16618	8.4581	1.7273	0.	-3802.4
16619	8.3661	1.8182	0.	-3827.9
16620	8.4581	1.8182	5.e-002	-5.597
16621	8.4581	1.5455	0.	-3804.6
16622	8.3661	1.6364	0.	-3830.
16623	8.4581	1.6364	5.e-002	-5.594
16624	8.4581	1.3636	0.	-3807.1
16625	8.3661	1.4545	0.	-3832.4
16626	8.4581	1.4545	5.e-002	-5.5903
16627	8.4581	1.1818	0.	-3809.7
16628	8.3661	1.2727	0.	-3835.
16629	8.4581	1.2727	5.e-002	-5.5857
16630	8.4581	1.	0.	-3812.5
16631	8.3661	1.0909	0.	-3837.9
16632	8.4581	1.0909	5.e-002	-5.5803
16633	8.4581	0.81818	0.	-3815.5
16634	8.3661	0.90909	0.	-3840.9
16635	8.4581	0.90909	5.e-002	-5.5738
16636	8.4581	0.63636	0.	-3818.7
16637	8.3661	0.72727	0.	-3844.1
16638	8.4581	0.72727	5.e-002	-5.5652
16639	8.4581	0.45455	0.	-3822.
16640	8.3661	0.54545	0.	-3847.4
16641	8.4581	0.54545	5.e-002	-5.5398
16642	8.4581	0.27273	0.	-3825.8
16643	8.3661	0.36364	0.	-3850.9
16644	8.4581	0.36364	5.e-002	-5.2735
16645	8.3661	0.18182	0.	-3855.3
16646	8.4581	0.18182	5.e-002	-1.4063
16647	8.4581	9.0909e-002	0.	-3826.9
16648	8.2742	5.7273	0.	-3880.3
16649	8.1823	5.8182	0.	-3910.
16650	8.2742	5.8182	5.e-002	-1.5544
16651	8.2742	5.9091	0.	-3881.7
16652	8.2742	5.5455	0.	-3876.3
16653	8.1823	5.6364	0.	-3905.5
16654	8.2742	5.6364	5.e-002	-5.3214
16655	8.2742	5.3636	0.	-3872.8
16656	8.1823	5.4545	0.	-3901.8
16657	8.2742	5.4545	5.e-002	-5.582
16658	8.2742	5.1818	0.	-3869.4
16659	8.1823	5.2727	0.	-3898.2
16660	8.2742	5.2727	5.e-002	-5.6075
16661	8.2742	5.	0.	-3866.2
16662	8.1823	5.0909	0.	-3894.8
16663	8.2742	5.0909	5.e-002	-5.6164
16664	8.2742	4.8182	0.	-3863.2
16665	8.1823	4.9091	0.	-3891.6
16666	8.2742	4.9091	5.e-002	-5.6232
16667	8.2742	4.6364	0.	-3860.4
16668	8.1823	4.7273	0.	-3888.5
16669	8.2742	4.7273	5.e-002	-5.6288
16670	8.2742	4.4545	0.	-3857.8
16671	8.1823	4.5455	0.	-3885.7
16672	8.2742	4.5455	5.e-002	-5.6334
16673	8.2742	4.2727	0.	-3855.4
16674	8.1823	4.3636	0.	-3883.1
16675	8.2742	4.3636	5.e-002	-5.6371
16676	8.2742	4.0909	0.	-3853.3
16677	8.1823	4.1818	0.	-3880.8
16678	8.2742	4.1818	5.e-002	-5.64
16679	8.2742	3.9091	0.	-3851.6
16680	8.1823	4.	0.	-3878.8
16681	8.2742	4.	5.e-002	-5.6423
16682	8.2742	3.7273	0.	-3850.1
16683	8.1823	3.8182	0.	-3877.1
16684	8.2742	3.8182	5.e-002	-5.6441
16685	8.2742	3.5455	0.	-3848.9
16686	8.1823	3.6364	0.	-3875.8
16687	8.2742	3.6364	5.e-002	-5.6454
16688	8.2742	3.3636	0.	-3848.1
16689	8.1823	3.4545	0.	-3874.7
16690	8.2742	3.4545	5.e-002	-5.6463
16691	8.2742	3.1818	0.	-3847.5
16692	8.1823	3.2727	0.	-3874.
16693	8.2742	3.2727	5.e-002	-5.6469
16694	8.2742	3.	0.	-3847.4
16695	8.1823	3.0909	0.	-3873.7
16696	8.2742	3.0909	5.e-002	-5.6471
16697	8.2742	2.8182	0.	-3847.5
16698	8.1823	2.9091	0.	-3873.7
16699	8.2742	2.9091	5.e-002	-5.6471
16700	8.2742	2.6364	0.	-3848.1
16701	8.1823	2.7273	0.	-3874.
16702	8.2742	2.7273	5.e-002	-5.6469
16703	8.2742	2.4545	0.	-3848.9
16704	8.1823	2.5455	0.	-3874.7
16705	8.2742	2.5455	5.e-002	-5.6463
16706	8.2742	2.2727	0.	-3850.1
16707	8.1823	2.3636	0.	-3875.8
16708	8.2742	2.3636	5.e-002	-5.6454
16709	8.2742	2.0909	0.	-3851.6
16710	8.1823	2.1818	0.	-3877.1
16711	8.2742	2.1818	5.e-002	-5.6441
16712	8.2742	1.9091	0.	-3853.3
16713	8.1823	2.	0.	-3878.8
16714	8.2742	2.	5.e-002	-5.6424
16715	8.2742	1.7273	0.	-3855.4
16716	8.1823	1.8182	0.	-3880.8
16717	8.2742	1.8182	5.e-002	-5.6401
16718	8.2742	1.5455	0.	-3857.8
16719	8.1823	1.6364	0.	-3883.1
16720	8.2742	1.6364	5.e-002	-5.6371
16721	8.2742	1.3636	0.	-3860.4
16722	8.1823	1.4545	0.	-3885.7
16723	8.2742	1.4545	5.e-002	-5.6334
16724	8.2742	1.1818	0.	-3863.2
16725	8.1823	1.2727	0.	-3888.5
16726	8.2742	1.2727	5.e-002	-5.6288
16727	8.2742	1.	0.	-3866.2
16728	8.1823	1.0909	0.	-3891.6
16729	8.2742	1.0909	5.e-002	-5.6232
16730	8.2742	0.81818	0.	-3869.4
16731	8.1823	0.90909	0.	-3894.8
16732	8.2742	0.90909	5.e-002	-5.6165
16733	8.2742	0.63636	0.	-3872.8
16734	8.1823	0.72727	0.	-3898.2
16735	8.2742	0.72727	5.e-002	-5.6076
16736	8.2742	0.45455	0.	-3876.3
16737	8.1823	0.54545	0.	-3901.8
16738	8.2742	0.54545	5.e-002	-5.5821
16739	8.2742	0.27273	0.	-3880.3
16740	8.1823	0.36364	0.	-3905.5
16741	8.2742	0.36364	5.e-002	-5.3215
16742	8.1823	0.18182	0.	-3910.
16743	8.2742	0.18182	5.e-002	-1.5545
16744	8.2742	9.0909e-002	0.	-3881.7
16745	8.0903	5.7273	0.	-3935.1
16746	7.9984	5.8182	0.	-3965.
16747	8.0903	5.8182	5.e-002	-1.7151
16748	8.0903	5.9091	0.	-3936.8
16749	8.0903	5.5455	0.	-3930.9
16750	7.9984	5.6364	0.	-3960.3
16751	8.0903	5.6364	5.e-002	-5.3725
16752	8.0903	5.3636	0.	-3927.1
16753	7.9984	5.4545	0.	-3956.4
16754	8.0903	5.4545	5.e-002	-5.6267
16755	8.0903	5.1818	0.	-3923.5
16756	7.9984	5.2727	0.	-3952.6
16757	8.0903	5.2727	5.e-002	-5.6522
16758	8.0903	5.	0.	-3920.1
16759	7.9984	5.0909	0.	-3948.9
16760	8.0903	5.0909	5.e-002	-5.6614
16761	8.0903	4.8182	0.	-3916.9
16762	7.9984	4.9091	0.	-3945.5
16763	8.0903	4.9091	5.e-002	-5.6684
16764	8.0903	4.6364	0.	-3913.9
16765	7.9984	4.7273	0.	-3942.2
16766	8.0903	4.7273	5.e-002	-5.6741
16767	8.0903	4.4545	0.	-3911.1
16768	7.9984	4.5455	0.	-3939.2
16769	8.0903	4.5455	5.e-002	-5.6788
16770	8.0903	4.2727	0.	-3908.6
16771	7.9984	4.3636	0.	-3936.4
16772	8.0903	4.3636	5.e-002	-5.6825
16773	8.0903	4.0909	0.	-3906.3
16774	7.9984	4.1818	0.	-3934.
16775	8.0903	4.1818	5.e-002	-5.6854
16776	8.0903	3.9091	0.	-3904.4
16777	7.9984	4.	0.	-3931.8
16778	8.0903	4.	5.e-002	-5.6875
16779	8.0903	3.7273	0.	-3902.8
16780	7.9984	3.8182	0.	-3930.
16781	8.0903	3.8182	5.e-002	-5.6892
16782	8.0903	3.5455	0.	-3901.6
16783	7.9984	3.6364	0.	-3928.5
16784	8.0903	3.6364	5.e-002	-5.6903
16785	8.0903	3.3636	0.	-3900.7
16786	7.9984	3.4545	0.	-3927.4
16787	8.0903	3.4545	5.e-002	-5.6912
16788	8.0903	3.1818	0.	-3900.1
16789	7.9984	3.2727	0.	-3926.6
16790	8.0903	3.2727	5.e-002	-5.6917
16791	8.0903	3.	0.	-3899.9
16792	7.9984	3.0909	0.	-3926.3
16793	8.0903	3.0909	5.e-002	-5.6919
16794	8.0903	2.8182	0.	-3900.1
16795	7.9984	2.9091	0.	-3926.3
16796	8.0903	2.9091	5.e-002	-5.6919
16797	8.0903	2.6364	0.	-3900.7
16798	7.9984	2.7273	0.	-3926.6
16799	8.0903	2.7273	5.e-002	-5.6917
16800	8.0903	2.4545	0.	-3901.6
16801	7.9984	2.5455	0.	-3927.4
16802	8.0903	2.5455	5.e-002	-5.6912
16803	8.0903	2.2727	0.	-3902.8
16804	7.9984	2.3636	0.	-3928.5
16805	8.0903	2.3636	5.e-002	-5.6903
16806	8.0903	2.0909	0.	-3904.4
16807	7.9984	2.1818	0.	-3930.
16808	8.0903	2.1818	5.e-002	-5.6892
16809	8.0903	1.9091	0.	-3906.3
16810	7.9984	2.	0.	-3931.8
16811	8.0903	2.	5.e-002	-5.6876
16812	8.0903	1.7273	0.	-3908.6
16813	7.9984	1.8182	0.	-3934.
16814	8.0903	1.8182	5.e-002	-5.6854
16815	8.0903	1.5455	0.	-3911.1
16816	7.9984	1.6364	0.	-3936.4
16817	8.0903	1.6364	5.e-002	-5.6825
16818	8.0903	1.3636	0.	-3913.9
16819	7.9984	1.4545	0.	-3939.2
16820	8.0903	1.4545	5.e-002	-5.6788
16821	8.0903	1.1818	0.	-3916.9
16822	7.9984	1.2727	0.	-3942.2
16823	8.0903	1.2727	5.e-002	-5.6742
16824	8.0903	1.	0.	-3920.1
16825	7.9984	1.0909	0.	-3945.5
16826	8.0903	1.0909	5.e-002	-5.6685
16827	8.0903	0.81818	0.	-3923.5
16828	7.9984	0.90909	0.	-3948.9
16829	8.0903	0.90909	5.e-002	-5.6615
16830	8.0903	0.63636	0.	-3927.1
16831	7.9984	0.72727	0.	-3952.6
16832	8.0903	0.72727	5.e-002	-5.6523
16833	8.0903	0.45455	0.	-3930.9
16834	7.9984	0.54545	0.	-3956.4
16835	8.0903	0.54545	5.e-002	-5.6268
16836	8.0903	0.27273	0.	-3935.1
16837	7.9984	0.36364	0.	-3960.3
16838	8.0903	0.36364	5.e-002	-5.3726
16839	7.9984	0.18182	0.	-3965.
16840	8.0903	0.18182	5.e-002	-1.7151
16841	8.0903	9.0909e-002	0.	-3936.8
16842	7.9065	5.7273	0.	-3990.2
16843	7.8145	5.8182	0.	-4020.4
16844	7.9065	5.8182	5.e-002	-1.8892
16845	7.9065	5.9091	0.	-3992.3
16846	7.9065	5.5455	0.	-3985.8
16847	7.8145	5.6364	0.	-4015.4
16848	7.9065	5.6364	5.e-002	-5.427
16849	7.9065	5.3636	0.	-3981.8
16850	7.8145	5.4545	0.	-4011.3
16851	7.9065	5.4545	5.e-002	-5.6741
16852	7.9065	5.1818	0.	-3977.9
16853	7.8145	5.2727	0.	-4007.2
16854	7.9065	5.2727	5.e-002	-5.6995
16855	7.9065	5.	0.	-3974.3
16856	7.8145	5.0909	0.	-4003.3
16857	7.9065	5.0909	5.e-002	-5.709
16858	7.9065	4.8182	0.	-3970.8
16859	7.8145	4.9091	0.	-3999.6
16860	7.9065	4.9091	5.e-002	-5.7162
16861	7.9065	4.6364	0.	-3967.5
16862	7.8145	4.7273	0.	-3996.1
16863	7.9065	4.7273	5.e-002	-5.722
16864	7.9065	4.4545	0.	-3964.6
16865	7.8145	4.5455	0.	-3992.9
16866	7.9065	4.5455	5.e-002	-5.7266
16867	7.9065	4.2727	0.	-3961.9
16868	7.8145	4.3636	0.	-3989.9
16869	7.9065	4.3636	5.e-002	-5.7302
16870	7.9065	4.0909	0.	-3959.5
16871	7.8145	4.1818	0.	-3987.3
16872	7.9065	4.1818	5.e-002	-5.733
16873	7.9065	3.9091	0.	-3957.4
16874	7.8145	4.	0.	-3985.
16875	7.9065	4.	5.e-002	-5.7351
16876	7.9065	3.7273	0.	-3955.7
16877	7.8145	3.8182	0.	-3983.
16878	7.9065	3.8182	5.e-002	-5.7365
16879	7.9065	3.5455	0.	-3954.4
16880	7.8145	3.6364	0.	-3981.4
16881	7.9065	3.6364	5.e-002	-5.7375
16882	7.9065	3.3636	0.	-3953.4
16883	7.8145	3.4545	0.	-3980.2
16884	7.9065	3.4545	5.e-002	-5.7382
16885	7.9065	3.1818	0.	-3952.8
16886	7.8145	3.2727	0.	-3979.4
16887	7.9065	3.2727	5.e-002	-5.7386
16888	7.9065	3.	0.	-3952.6
16889	7.8145	3.0909	0.	-3979.
16890	7.9065	3.0909	5.e-002	-5.7388
16891	7.9065	2.8182	0.	-3952.8
16892	7.8145	2.9091	0.	-3979.
16893	7.9065	2.9091	5.e-002	-5.7388
16894	7.9065	2.6364	0.	-3953.4
16895	7.8145	2.7273	0.	-3979.4
16896	7.9065	2.7273	5.e-002	-5.7386
16897	7.9065	2.4545	0.	-3954.4
16898	7.8145	2.5455	0.	-3980.2
16899	7.9065	2.5455	5.e-002	-5.7382
16900	7.9065	2.2727	0.	-3955.7
16901	7.8145	2.3636	0.	-3981.4
16902	7.9065	2.3636	5.e-002	-5.7376
16903	7.9065	2.0909	0.	-3957.4
16904	7.8145	2.1818	0.	-3983.
16905	7.9065	2.1818	5.e-002	-5.7366
16906	7.9065	1.9091	0.	-3959.5
16907	7.8145	2.	0.	-3985.
16908	7.9065	2.	5.e-002	-5.7351
16909	7.9065	1.7273	0.	-3961.9
16910	7.8145	1.8182	0.	-3987.3
16911	7.9065	1.8182	5.e-002	-5.7331
16912	7.9065	1.5455	0.	-3964.6
16913	7.8145	1.6364	0.	-3989.9
16914	7.9065	1.6364	5.e-002	-5.7303
16915	7.9065	1.3636	0.	-3967.5
16916	7.8145	1.4545	0.	-3992.9
16917	7.9065	1.4545	5.e-002	-5.7267
16918	7.9065	1.1818	0.	-3970.8
16919	7.8145	1.2727	0.	-3996.1
16920	7.9065	1.2727	5.e-002	-5.722
16921	7.9065	1.	0.	-3974.3
16922	7.8145	1.0909	0.	-3999.6
16923	7.9065	1.0909	5.e-002	-5.7163
16924	7.9065	0.81818	0.	-3977.9
16925	7.8145	0.90909	0.	-4003.3
16926	7.9065	0.90909	5.e-002	-5.7091
16927	7.9065	0.63636	0.	-3981.8
16928	7.8145	0.72727	0.	-4007.2
16929	7.9065	0.72727	5.e-002	-5.6996
16930	7.9065	0.45455	0.	-3985.8
16931	7.8145	0.54545	0.	-4011.3
16932	7.9065	0.54545	5.e-002	-5.6742
16933	7.9065	0.27273	0.	-3990.2
16934	7.8145	0.36364	0.	-4015.4
16935	7.9065	0.36364	5.e-002	-5.427
16936	7.8145	0.18182	0.	-4020.4
16937	7.9065	0.18182	5.e-002	-1.8892
16938	7.9065	9.0909e-002	0.	-3992.3
16939	7.7226	5.7273	0.	-4045.6
16940	7.6306	5.8182	0.	-4076.1
16941	7.7226	5.8182	5.e-002	-2.0778
16942	7.7226	5.9091	0.	-4048.1
16943	7.7226	5.5455	0.	-4040.9
16944	7.6306	5.6364	0.	-4070.9
16945	7.7226	5.6364	5.e-002	-5.4851
16946	7.7226	5.3636	0.	-4036.7
16947	7.6306	5.4545	0.	-4066.4
16948	7.7226	5.4545	5.e-002	-5.7244
16949	7.7226	5.1818	0.	-4032.6
16950	7.6306	5.2727	0.	-4062.1
16951	7.7226	5.2727	5.e-002	-5.7498
16952	7.7226	5.	0.	-4028.6
16953	7.6306	5.0909	0.	-4057.9
16954	7.7226	5.0909	5.e-002	-5.7596
16955	7.7226	4.8182	0.	-4024.9
16956	7.6306	4.9091	0.	-4053.9
16957	7.7226	4.9091	5.e-002	-5.7669
16958	7.7226	4.6364	0.	-4021.4
16959	7.6306	4.7273	0.	-4050.2
16960	7.7226	4.7273	5.e-002	-5.7727
16961	7.7226	4.4545	0.	-4018.2
16962	7.6306	4.5455	0.	-4046.7
16963	7.7226	4.5455	5.e-002	-5.7772
16964	7.7226	4.2727	0.	-4015.3
16965	7.6306	4.3636	0.	-4043.6
16966	7.7226	4.3636	5.e-002	-5.7807
16967	7.7226	4.0909	0.	-4012.8
16968	7.6306	4.1818	0.	-4040.7
16969	7.7226	4.1818	5.e-002	-5.7833
16970	7.7226	3.9091	0.	-4010.5
16971	7.6306	4.	0.	-4038.2
16972	7.7226	4.	5.e-002	-5.7851
16973	7.7226	3.7273	0.	-4008.7
16974	7.6306	3.8182	0.	-4036.1
16975	7.7226	3.8182	5.e-002	-5.7864
16976	7.7226	3.5455	0.	-4007.3
16977	7.6306	3.6364	0.	-4034.4
16978	7.7226	3.6364	5.e-002	-5.7872
16979	7.7226	3.3636	0.	-4006.2
16980	7.6306	3.4545	0.	-4033.1
16981	7.7226	3.4545	5.e-002	-5.7877
16982	7.7226	3.1818	0.	-4005.6
16983	7.6306	3.2727	0.	-4032.2
16984	7.7226	3.2727	5.e-002	-5.788
16985	7.7226	3.	0.	-4005.4
16986	7.6306	3.0909	0.	-4031.8
16987	7.7226	3.0909	5.e-002	-5.7881
16988	7.7226	2.8182	0.	-4005.6
16989	7.6306	2.9091	0.	-4031.8
16990	7.7226	2.9091	5.e-002	-5.7881
16991	7.7226	2.6364	0.	-4006.2
16992	7.6306	2.7273	0.	-4032.2
16993	7.7226	2.7273	5.e-002	-5.788
16994	7.7226	2.4545	0.	-4007.3
16995	7.6306	2.5455	0.	-4033.1
16996	7.7226	2.5455	5.e-002	-5.7877
16997	7.7226	2.2727	0.	-4008.7
16998	7.6306	2.3636	0.	-4034.4
16999	7.7226	2.3636	5.e-002	-5.7872
17000	7.7226	2.0909	0.	-4010.5
17001	7.6306	2.1818	0.	-4036.1
17002	7.7226	2.1818	5.e-002	-5.7864
17003	7.7226	1.9091	0.	-4012.8
17004	7.6306	2.	0.	-4038.2
17005	7.7226	2.	5.e-002	-5.7852
17006	7.7226	1.7273	0.	-4015.3
17007	7.6306	1.8182	0.	-4040.7
17008	7.7226	1.8182	5.e-002	-5.7833
17009	7.7226	1.5455	0.	-4018.2
17010	7.6306	1.6364	0.	-4043.6
17011	7.7226	1.6364	5.e-002	-5.7808
17012	7.7226	1.3636	0.	-4021.4
17013	7.6306	1.4545	0.	-4046.7
17014	7.7226	1.4545	5.e-002	-5.7773
17015	7.7226	1.1818	0.	-4024.9
17016	7.6306	1.2727	0.	-4050.2
17017	7.7226	1.2727	5.e-002	-5.7728
17018	7.7226	1.	0.	-4028.6
17019	7.6306	1.0909	0.	-4053.9
17020	7.7226	1.0909	5.e-002	-5.7669
17021	7.7226	0.81818	0.	-4032.6
17022	7.6306	0.90909	0.	-4057.9
17023	7.7226	0.90909	5.e-002	-5.7596
17024	7.7226	0.63636	0.	-4036.7
17025	7.6306	0.72727	0.	-4062.1
17026	7.7226	0.72727	5.e-002	-5.7498
17027	7.7226	0.45455	0.	-4040.9
17028	7.6306	0.54545	0.	-4066.4
17029	7.7226	0.54545	5.e-002	-5.7245
17030	7.7226	0.27273	0.	-4045.6
17031	7.6306	0.36364	0.	-4070.9
17032	7.7226	0.36364	5.e-002	-5.4852
17033	7.6306	0.18182	0.	-4076.1
17034	7.7226	0.18182	5.e-002	-2.0778
17035	7.7226	9.0909e-002	0.	-4048.1
17036	7.5387	5.7273	0.	-4101.4
17037	7.4468	5.8182	0.	-4132.1
17038	7.5387	5.8182	5.e-002	-2.2821
17039	7.5387	5.9091	0.	-4104.2
17040	7.5387	5.5455	0.	-4096.4
17041	7.4468	5.6364	0.	-4126.7
17042	7.5387	5.6364	5.e-002	-5.5473
17043	7.5387	5.3636	0.	-4091.8
17044	7.4468	5.4545	0.	-4121.9
17045	7.5387	5.4545	5.e-002	-5.778
17046	7.5387	5.1818	0.	-4087.4
17047	7.4468	5.2727	0.	-4117.3
17048	7.5387	5.2727	5.e-002	-5.8032
17049	7.5387	5.	0.	-4083.2
17050	7.4468	5.0909	0.	-4112.8
17051	7.5387	5.0909	5.e-002	-5.8133
17052	7.5387	4.8182	0.	-4079.2
17053	7.4468	4.9091	0.	-4108.5
17054	7.5387	4.9091	5.e-002	-5.8207
17055	7.5387	4.6364	0.	-4075.5
17056	7.4468	4.7273	0.	-4104.5
17057	7.5387	4.7273	5.e-002	-5.8265
17058	7.5387	4.4545	0.	-4072.1
17059	7.4468	4.5455	0.	-4100.8
17060	7.5387	4.5455	5.e-002	-5.8309
17061	7.5387	4.2727	0.	-4069.
17062	7.4468	4.3636	0.	-4097.4
17063	7.5387	4.3636	5.e-002	-5.8342
17064	7.5387	4.0909	0.	-4066.2
17065	7.4468	4.1818	0.	-4094.3
17066	7.5387	4.1818	5.e-002	-5.8365
17067	7.5387	3.9091	0.	-4063.8
17068	7.4468	4.	0.	-4091.6
17069	7.5387	4.	5.e-002	-5.8381
17070	7.5387	3.7273	0.	-4061.8
17071	7.4468	3.8182	0.	-4089.4
17072	7.5387	3.8182	5.e-002	-5.839
17073	7.5387	3.5455	0.	-4060.3
17074	7.4468	3.6364	0.	-4087.5
17075	7.5387	3.6364	5.e-002	-5.8396
17076	7.5387	3.3636	0.	-4059.1
17077	7.4468	3.4545	0.	-4086.1
17078	7.5387	3.4545	5.e-002	-5.8399
17079	7.5387	3.1818	0.	-4058.4
17080	7.4468	3.2727	0.	-4085.2
17081	7.5387	3.2727	5.e-002	-5.84
17082	7.5387	3.	0.	-4058.2
17083	7.4468	3.0909	0.	-4084.7
17084	7.5387	3.0909	5.e-002	-5.84
17085	7.5387	2.8182	0.	-4058.4
17086	7.4468	2.9091	0.	-4084.7
17087	7.5387	2.9091	5.e-002	-5.8401
17088	7.5387	2.6364	0.	-4059.1
17089	7.4468	2.7273	0.	-4085.2
17090	7.5387	2.7273	5.e-002	-5.84
17091	7.5387	2.4545	0.	-4060.3
17092	7.4468	2.5455	0.	-4086.1
17093	7.5387	2.5455	5.e-002	-5.8399
17094	7.5387	2.2727	0.	-4061.8
17095	7.4468	2.3636	0.	-4087.5
17096	7.5387	2.3636	5.e-002	-5.8396
17097	7.5387	2.0909	0.	-4063.8
17098	7.4468	2.1818	0.	-4089.4
17099	7.5387	2.1818	5.e-002	-5.8391
17100	7.5387	1.9091	0.	-4066.2
17101	7.4468	2.	0.	-4091.6
17102	7.5387	2.	5.e-002	-5.8381
17103	7.5387	1.7273	0.	-4069.
17104	7.4468	1.8182	0.	-4094.3
17105	7.5387	1.8182	5.e-002	-5.8366
17106	7.5387	1.5455	0.	-4072.1
17107	7.4468	1.6364	0.	-4097.4
17108	7.5387	1.6364	5.e-002	-5.8342
17109	7.5387	1.3636	0.	-4075.5
17110	7.4468	1.4545	0.	-4100.8
17111	7.5387	1.4545	5.e-002	-5.831
17112	7.5387	1.1818	0.	-4079.2
17113	7.4468	1.2727	0.	-4104.5
17114	7.5387	1.2727	5.e-002	-5.8265
17115	7.5387	1.	0.	-4083.2
17116	7.4468	1.0909	0.	-4108.5
17117	7.5387	1.0909	5.e-002	-5.8207
17118	7.5387	0.81818	0.	-4087.4
17119	7.4468	0.90909	0.	-4112.8
17120	7.5387	0.90909	5.e-002	-5.8133
17121	7.5387	0.63636	0.	-4091.8
17122	7.4468	0.72727	0.	-4117.3
17123	7.5387	0.72727	5.e-002	-5.8033
17124	7.5387	0.45455	0.	-4096.4
17125	7.4468	0.54545	0.	-4121.9
17126	7.5387	0.54545	5.e-002	-5.7781
17127	7.5387	0.27273	0.	-4101.4
17128	7.4468	0.36364	0.	-4126.7
17129	7.5387	0.36364	5.e-002	-5.5474
17130	7.4468	0.18182	0.	-4132.1
17131	7.5387	0.18182	5.e-002	-2.2822
17132	7.5387	9.0909e-002	0.	-4104.2
17133	7.3548	5.7273	0.	-4157.4
17134	7.2629	5.8182	0.	-4188.6
17135	7.3548	5.8182	5.e-002	-2.5033
17136	7.3548	5.9091	0.	-4160.8
17137	7.3548	5.5455	0.	-4152.2
17138	7.2629	5.6364	0.	-4182.8
17139	7.3548	5.6364	5.e-002	-5.614
17140	7.3548	5.3636	0.	-4147.3
17141	7.2629	5.4545	0.	-4177.7
17142	7.3548	5.4545	5.e-002	-5.8353
17143	7.3548	5.1818	0.	-4142.6
17144	7.2629	5.2727	0.	-4172.7
17145	7.3548	5.2727	5.e-002	-5.8603
17146	7.3548	5.	0.	-4138.1
17147	7.2629	5.0909	0.	-4167.9
17148	7.3548	5.0909	5.e-002	-5.8705
17149	7.3548	4.8182	0.	-4133.8
17150	7.2629	4.9091	0.	-4163.4
17151	7.3548	4.9091	5.e-002	-5.878
17152	7.3548	4.6364	0.	-4129.8
17153	7.2629	4.7273	0.	-4159.
17154	7.3548	4.7273	5.e-002	-5.8837
17155	7.3548	4.4545	0.	-4126.1
17156	7.2629	4.5455	0.	-4155.
17157	7.3548	4.5455	5.e-002	-5.888
17158	7.3548	4.2727	0.	-4122.7
17159	7.2629	4.3636	0.	-4151.4
17160	7.3548	4.3636	5.e-002	-5.8909
17161	7.3548	4.0909	0.	-4119.8
17162	7.2629	4.1818	0.	-4148.1
17163	7.3548	4.1818	5.e-002	-5.8929
17164	7.3548	3.9091	0.	-4117.2
17165	7.2629	4.	0.	-4145.2
17166	7.3548	4.	5.e-002	-5.8941
17167	7.3548	3.7273	0.	-4115.
17168	7.2629	3.8182	0.	-4142.7
17169	7.3548	3.8182	5.e-002	-5.8947
17170	7.3548	3.5455	0.	-4113.4
17171	7.2629	3.6364	0.	-4140.7
17172	7.3548	3.6364	5.e-002	-5.895
17173	7.3548	3.3636	0.	-4112.1
17174	7.2629	3.4545	0.	-4139.2
17175	7.3548	3.4545	5.e-002	-5.895
17176	7.3548	3.1818	0.	-4111.4
17177	7.2629	3.2727	0.	-4138.2
17178	7.3548	3.2727	5.e-002	-5.8949
17179	7.3548	3.	0.	-4111.2
17180	7.2629	3.0909	0.	-4137.7
17181	7.3548	3.0909	5.e-002	-5.8949
17182	7.3548	2.8182	0.	-4111.4
17183	7.2629	2.9091	0.	-4137.7
17184	7.3548	2.9091	5.e-002	-5.8949
17185	7.3548	2.6364	0.	-4112.1
17186	7.2629	2.7273	0.	-4138.2
17187	7.3548	2.7273	5.e-002	-5.8949
17188	7.3548	2.4545	0.	-4113.4
17189	7.2629	2.5455	0.	-4139.2
17190	7.3548	2.5455	5.e-002	-5.895
17191	7.3548	2.2727	0.	-4115.
17192	7.2629	2.3636	0.	-4140.7
17193	7.3548	2.3636	5.e-002	-5.895
17194	7.3548	2.0909	0.	-4117.2
17195	7.2629	2.1818	0.	-4142.7
17196	7.3548	2.1818	5.e-002	-5.8947
17197	7.3548	1.9091	0.	-4119.8
17198	7.2629	2.	0.	-4145.2
17199	7.3548	2.	5.e-002	-5.8941
17200	7.3548	1.7273	0.	-4122.7
17201	7.2629	1.8182	0.	-4148.1
17202	7.3548	1.8182	5.e-002	-5.8929
17203	7.3548	1.5455	0.	-4126.1
17204	7.2629	1.6364	0.	-4151.4
17205	7.3548	1.6364	5.e-002	-5.891
17206	7.3548	1.3636	0.	-4129.8
17207	7.2629	1.4545	0.	-4155.
17208	7.3548	1.4545	5.e-002	-5.888
17209	7.3548	1.1818	0.	-4133.8
17210	7.2629	1.2727	0.	-4159.
17211	7.3548	1.2727	5.e-002	-5.8838
17212	7.3548	1.	0.	-4138.1
17213	7.2629	1.0909	0.	-4163.4
17214	7.3548	1.0909	5.e-002	-5.878
17215	7.3548	0.81818	0.	-4142.6
17216	7.2629	0.90909	0.	-4167.9
17217	7.3548	0.90909	5.e-002	-5.8705
17218	7.3548	0.63636	0.	-4147.3
17219	7.2629	0.72727	0.	-4172.7
17220	7.3548	0.72727	5.e-002	-5.8603
17221	7.3548	0.45455	0.	-4152.2
17222	7.2629	0.54545	0.	-4177.7
17223	7.3548	0.54545	5.e-002	-5.8354
17224	7.3548	0.27273	0.	-4157.5
17225	7.2629	0.36364	0.	-4182.8
17226	7.3548	0.36364	5.e-002	-5.6141
17227	7.2629	0.18182	0.	-4188.6
17228	7.3548	0.18182	5.e-002	-2.5034
17229	7.3548	9.0909e-002	0.	-4160.8
17230	7.171	5.7273	0.	-4213.9
17231	7.079	5.8182	0.	-4245.4
17232	7.171	5.8182	5.e-002	-2.7427
17233	7.171	5.9091	0.	-4217.7
17234	7.171	5.5455	0.	-4208.3
17235	7.079	5.6364	0.	-4239.3
17236	7.171	5.6364	5.e-002	-5.6857
17237	7.171	5.3636	0.	-4203.1
17238	7.079	5.4545	0.	-4233.8
17239	7.171	5.4545	5.e-002	-5.8966
17240	7.171	5.1818	0.	-4198.
17241	7.079	5.2727	0.	-4228.5
17242	7.171	5.2727	5.e-002	-5.9214
17243	7.171	5.	0.	-4193.2
17244	7.079	5.0909	0.	-4223.3
17245	7.171	5.0909	5.e-002	-5.9317
17246	7.171	4.8182	0.	-4188.6
17247	7.079	4.9091	0.	-4218.4
17248	7.171	4.9091	5.e-002	-5.9391
17249	7.171	4.6364	0.	-4184.3
17250	7.079	4.7273	0.	-4213.8
17251	7.171	4.7273	5.e-002	-5.9447
17252	7.171	4.4545	0.	-4180.3
17253	7.079	4.5455	0.	-4209.4
17254	7.171	4.5455	5.e-002	-5.9486
17255	7.171	4.2727	0.	-4176.7
17256	7.079	4.3636	0.	-4205.5
17257	7.171	4.3636	5.e-002	-5.9513
17258	7.171	4.0909	0.	-4173.5
17259	7.079	4.1818	0.	-4201.9
17260	7.171	4.1818	5.e-002	-5.9528
17261	7.171	3.9091	0.	-4170.7
17262	7.079	4.	0.	-4198.8
17263	7.171	4.	5.e-002	-5.9535
17264	7.171	3.7273	0.	-4168.4
17265	7.079	3.8182	0.	-4196.2
17266	7.171	3.8182	5.e-002	-5.9537
17267	7.171	3.5455	0.	-4166.6
17268	7.079	3.6364	0.	-4194.
17269	7.171	3.6364	5.e-002	-5.9536
17270	7.171	3.3636	0.	-4165.2
17271	7.079	3.4545	0.	-4192.4
17272	7.171	3.4545	5.e-002	-5.9533
17273	7.171	3.1818	0.	-4164.4
17274	7.079	3.2727	0.	-4191.3
17275	7.171	3.2727	5.e-002	-5.953
17276	7.171	3.	0.	-4164.2
17277	7.079	3.0909	0.	-4190.7
17278	7.171	3.0909	5.e-002	-5.9528
17279	7.171	2.8182	0.	-4164.4
17280	7.079	2.9091	0.	-4190.7
17281	7.171	2.9091	5.e-002	-5.9528
17282	7.171	2.6364	0.	-4165.2
17283	7.079	2.7273	0.	-4191.3
17284	7.171	2.7273	5.e-002	-5.953
17285	7.171	2.4545	0.	-4166.6
17286	7.079	2.5455	0.	-4192.4
17287	7.171	2.5455	5.e-002	-5.9533
17288	7.171	2.2727	0.	-4168.4
17289	7.079	2.3636	0.	-4194.
17290	7.171	2.3636	5.e-002	-5.9536
17291	7.171	2.0909	0.	-4170.7
17292	7.079	2.1818	0.	-4196.2
17293	7.171	2.1818	5.e-002	-5.9537
17294	7.171	1.9091	0.	-4173.5
17295	7.079	2.	0.	-4198.8
17296	7.171	2.	5.e-002	-5.9536
17297	7.171	1.7273	0.	-4176.7
17298	7.079	1.8182	0.	-4201.9
17299	7.171	1.8182	5.e-002	-5.9528
17300	7.171	1.5455	0.	-4180.3
17301	7.079	1.6364	0.	-4205.5
17302	7.171	1.6364	5.e-002	-5.9513
17303	7.171	1.3636	0.	-4184.3
17304	7.079	1.4545	0.	-4209.4
17305	7.171	1.4545	5.e-002	-5.9487
17306	7.171	1.1818	0.	-4188.6
17307	7.079	1.2727	0.	-4213.8
17308	7.171	1.2727	5.e-002	-5.9448
17309	7.171	1.	0.	-4193.2
17310	7.079	1.0909	0.	-4218.4
17311	7.171	1.0909	5.e-002	-5.9392
17312	7.171	0.81818	0.	-4198.
17313	7.079	0.90909	0.	-4223.3
17314	7.171	0.90909	5.e-002	-5.9317
17315	7.171	0.63636	0.	-4203.1
17316	7.079	0.72727	0.	-4228.5
17317	7.171	0.72727	5.e-002	-5.9214
17318	7.171	0.45455	0.	-4208.3
17319	7.079	0.54545	0.	-4233.8
17320	7.171	0.54545	5.e-002	-5.8968
17321	7.171	0.27273	0.	-4213.9
17322	7.079	0.36364	0.	-4239.3
17323	7.171	0.36364	5.e-002	-5.6857
17324	7.079	0.18182	0.	-4245.4
17325	7.171	0.18182	5.e-002	-2.7428
17326	7.171	9.0909e-002	0.	-4217.7
17327	6.9871	5.7273	0.	-4270.7
17328	6.8952	5.8182	0.	-4302.6
17329	6.9871	5.8182	5.e-002	-3.0019
17330	6.9871	5.9091	0.	-4275.
17331	6.9871	5.5455	0.	-4264.8
17332	6.8952	5.6364	0.	-4296.2
17333	6.9871	5.6364	5.e-002	-5.7628
17334	6.9871	5.3636	0.	-4259.2
17335	6.8952	5.4545	0.	-4290.3
17336	6.9871	5.4545	5.e-002	-5.9625
17337	6.9871	5.1818	0.	-4253.8
17338	6.8952	5.2727	0.	-4284.5
17339	6.9871	5.2727	5.e-002	-5.9867
17340	6.9871	5.	0.	-4248.5
17341	6.8952	5.0909	0.	-4279.
17342	6.9871	5.0909	5.e-002	-5.9971
17343	6.9871	4.8182	0.	-4243.6
17344	6.8952	4.9091	0.	-4273.7
17345	6.9871	4.9091	5.e-002	-6.0046
17346	6.9871	4.6364	0.	-4238.9
17347	6.8952	4.7273	0.	-4268.7
17348	6.9871	4.7273	5.e-002	-6.0099
17349	6.9871	4.4545	0.	-4234.7
17350	6.8952	4.5455	0.	-4264.1
17351	6.9871	4.5455	5.e-002	-6.0135
17352	6.9871	4.2727	0.	-4230.8
17353	6.8952	4.3636	0.	-4259.8
17354	6.9871	4.3636	5.e-002	-6.0156
17355	6.9871	4.0909	0.	-4227.3
17356	6.8952	4.1818	0.	-4256.
17357	6.9871	4.1818	5.e-002	-6.0166
17358	6.9871	3.9091	0.	-4224.3
17359	6.8952	4.	0.	-4252.6
17360	6.9871	4.	5.e-002	-6.0167
17361	6.9871	3.7273	0.	-4221.8
17362	6.8952	3.8182	0.	-4249.7
17363	6.9871	3.8182	5.e-002	-6.0164
17364	6.9871	3.5455	0.	-4219.8
17365	6.8952	3.6364	0.	-4247.4
17366	6.9871	3.6364	5.e-002	-6.0157
17367	6.9871	3.3636	0.	-4218.4
17368	6.8952	3.4545	0.	-4245.6
17369	6.9871	3.4545	5.e-002	-6.0151
17370	6.9871	3.1818	0.	-4217.6
17371	6.8952	3.2727	0.	-4244.4
17372	6.9871	3.2727	5.e-002	-6.0145
17373	6.9871	3.	0.	-4217.3
17374	6.8952	3.0909	0.	-4243.9
17375	6.9871	3.0909	5.e-002	-6.0142
17376	6.9871	2.8182	0.	-4217.6
17377	6.8952	2.9091	0.	-4243.9
17378	6.9871	2.9091	5.e-002	-6.0142
17379	6.9871	2.6364	0.	-4218.4
17380	6.8952	2.7273	0.	-4244.4
17381	6.9871	2.7273	5.e-002	-6.0145
17382	6.9871	2.4545	0.	-4219.8
17383	6.8952	2.5455	0.	-4245.6
17384	6.9871	2.5455	5.e-002	-6.0151
17385	6.9871	2.2727	0.	-4221.8
17386	6.8952	2.3636	0.	-4247.4
17387	6.9871	2.3636	5.e-002	-6.0158
17388	6.9871	2.0909	0.	-4224.3
17389	6.8952	2.1818	0.	-4249.7
17390	6.9871	2.1818	5.e-002	-6.0164
17391	6.9871	1.9091	0.	-4227.3
17392	6.8952	2.	0.	-4252.6
17393	6.9871	2.	5.e-002	-6.0168
17394	6.9871	1.7273	0.	-4230.8
17395	6.8952	1.8182	0.	-4256.
17396	6.9871	1.8182	5.e-002	-6.0166
17397	6.9871	1.5455	0.	-4234.7
17398	6.8952	1.6364	0.	-4259.8
17399	6.9871	1.6364	5.e-002	-6.0157
17400	6.9871	1.3636	0.	-4238.9
17401	6.8952	1.4545	0.	-4264.1
17402	6.9871	1.4545	5.e-002	-6.0135
17403	6.9871	1.1818	0.	-4243.6
17404	6.8952	1.2727	0.	-4268.7
17405	6.9871	1.2727	5.e-002	-6.01
17406	6.9871	1.	0.	-4248.5
17407	6.8952	1.0909	0.	-4273.7
17408	6.9871	1.0909	5.e-002	-6.0047
17409	6.9871	0.81818	0.	-4253.8
17410	6.8952	0.90909	0.	-4279.
17411	6.9871	0.90909	5.e-002	-5.9973
17412	6.9871	0.63636	0.	-4259.2
17413	6.8952	0.72727	0.	-4284.5
17414	6.9871	0.72727	5.e-002	-5.9869
17415	6.9871	0.45455	0.	-4264.8
17416	6.8952	0.54545	0.	-4290.3
17417	6.9871	0.54545	5.e-002	-5.9626
17418	6.9871	0.27273	0.	-4270.7
17419	6.8952	0.36364	0.	-4296.2
17420	6.9871	0.36364	5.e-002	-5.763
17421	6.8952	0.18182	0.	-4302.6
17422	6.9871	0.18182	5.e-002	-3.0021
17423	6.9871	9.0909e-002	0.	-4275.
17424	6.8032	5.7273	0.	-4327.9
17425	6.7113	5.8182	0.	-4360.2
17426	6.8032	5.8182	5.e-002	-3.2824
17427	6.8032	5.9091	0.	-4332.7
17428	6.8032	5.5455	0.	-4321.6
17429	6.7113	5.6364	0.	-4353.4
17430	6.8032	5.6364	5.e-002	-5.8461
17431	6.8032	5.3636	0.	-4315.6
17432	6.7113	5.4545	0.	-4347.1
17433	6.8032	5.4545	5.e-002	-6.0334
17434	6.8032	5.1818	0.	-4309.8
17435	6.7113	5.2727	0.	-4340.9
17436	6.8032	5.2727	5.e-002	-6.0571
17437	6.8032	5.	0.	-4304.2
17438	6.7113	5.0909	0.	-4335.
17439	6.8032	5.0909	5.e-002	-6.0676
17440	6.8032	4.8182	0.	-4298.8
17441	6.7113	4.9091	0.	-4329.3
17442	6.8032	4.9091	5.e-002	-6.0749
17443	6.8032	4.6364	0.	-4293.8
17444	6.7113	4.7273	0.	-4323.9
17445	6.8032	4.7273	5.e-002	-6.0799
17446	6.8032	4.4545	0.	-4289.2
17447	6.7113	4.5455	0.	-4318.9
17448	6.8032	4.5455	5.e-002	-6.0829
17449	6.8032	4.2727	0.	-4285.
17450	6.7113	4.3636	0.	-4314.3
17451	6.8032	4.3636	5.e-002	-6.0844
17452	6.8032	4.0909	0.	-4281.3
17453	6.7113	4.1818	0.	-4310.1
17454	6.8032	4.1818	5.e-002	-6.0847
17455	6.8032	3.9091	0.	-4278.
17456	6.7113	4.	0.	-4306.5
17457	6.8032	4.	5.e-002	-6.0842
17458	6.8032	3.7273	0.	-4275.3
17459	6.7113	3.8182	0.	-4303.4
17460	6.8032	3.8182	5.e-002	-6.0832
17461	6.8032	3.5455	0.	-4273.2
17462	6.7113	3.6364	0.	-4300.9
17463	6.8032	3.6364	5.e-002	-6.082
17464	6.8032	3.3636	0.	-4271.7
17465	6.7113	3.4545	0.	-4299.
17466	6.8032	3.4545	5.e-002	-6.0808
17467	6.8032	3.1818	0.	-4270.7
17468	6.7113	3.2727	0.	-4297.7
17469	6.8032	3.2727	5.e-002	-6.0799
17470	6.8032	3.	0.	-4270.4
17471	6.7113	3.0909	0.	-4297.
17472	6.8032	3.0909	5.e-002	-6.0795
17473	6.8032	2.8182	0.	-4270.7
17474	6.7113	2.9091	0.	-4297.
17475	6.8032	2.9091	5.e-002	-6.0795
17476	6.8032	2.6364	0.	-4271.7
17477	6.7113	2.7273	0.	-4297.7
17478	6.8032	2.7273	5.e-002	-6.0799
17479	6.8032	2.4545	0.	-4273.2
17480	6.7113	2.5455	0.	-4299.
17481	6.8032	2.5455	5.e-002	-6.0808
17482	6.8032	2.2727	0.	-4275.3
17483	6.7113	2.3636	0.	-4300.9
17484	6.8032	2.3636	5.e-002	-6.082
17485	6.8032	2.0909	0.	-4278.
17486	6.7113	2.1818	0.	-4303.4
17487	6.8032	2.1818	5.e-002	-6.0832
17488	6.8032	1.9091	0.	-4281.3
17489	6.7113	2.	0.	-4306.5
17490	6.8032	2.	5.e-002	-6.0842
17491	6.8032	1.7273	0.	-4285.
17492	6.7113	1.8182	0.	-4310.1
17493	6.8032	1.8182	5.e-002	-6.0848
17494	6.8032	1.5455	0.	-4289.2
17495	6.7113	1.6364	0.	-4314.3
17496	6.8032	1.6364	5.e-002	-6.0845
17497	6.8032	1.3636	0.	-4293.8
17498	6.7113	1.4545	0.	-4318.9
17499	6.8032	1.4545	5.e-002	-6.083
17500	6.8032	1.1818	0.	-4298.8
17501	6.7113	1.2727	0.	-4323.9
17502	6.8032	1.2727	5.e-002	-6.0799
17503	6.8032	1.	0.	-4304.2
17504	6.7113	1.0909	0.	-4329.3
17505	6.8032	1.0909	5.e-002	-6.0749
17506	6.8032	0.81818	0.	-4309.8
17507	6.7113	0.90909	0.	-4335.
17508	6.8032	0.90909	5.e-002	-6.0676
17509	6.8032	0.63636	0.	-4315.6
17510	6.7113	0.72727	0.	-4340.9
17511	6.8032	0.72727	5.e-002	-6.0572
17512	6.8032	0.45455	0.	-4321.6
17513	6.7113	0.54545	0.	-4347.1
17514	6.8032	0.54545	5.e-002	-6.0334
17515	6.8032	0.27273	0.	-4327.9
17516	6.7113	0.36364	0.	-4353.4
17517	6.8032	0.36364	5.e-002	-5.8462
17518	6.7113	0.18182	0.	-4360.2
17519	6.8032	0.18182	5.e-002	-3.2824
17520	6.8032	9.0909e-002	0.	-4332.7
17521	6.6194	5.7273	0.	-4385.6
17522	6.5274	5.8182	0.	-4418.2
17523	6.6194	5.8182	5.e-002	-3.5856
17524	6.6194	5.9091	0.	-4390.9
17525	6.6194	5.5455	0.	-4378.8
17526	6.5274	5.6364	0.	-4411.
17527	6.6194	5.6364	5.e-002	-5.936
17528	6.6194	5.3636	0.	-4372.4
17529	6.5274	5.4545	0.	-4404.2
17530	6.6194	5.4545	5.e-002	-6.1097
17531	6.6194	5.1818	0.	-4366.1
17532	6.5274	5.2727	0.	-4397.6
17533	6.6194	5.2727	5.e-002	-6.1329
17534	6.6194	5.	0.	-4360.1
17535	6.5274	5.0909	0.	-4391.2
17536	6.6194	5.0909	5.e-002	-6.1434
17537	6.6194	4.8182	0.	-4354.3
17538	6.5274	4.9091	0.	-4385.1
17539	6.6194	4.9091	5.e-002	-6.1503
17540	6.6194	4.6364	0.	-4348.9
17541	6.5274	4.7273	0.	-4379.3
17542	6.6194	4.7273	5.e-002	-6.1549
17543	6.6194	4.4545	0.	-4343.9
17544	6.5274	4.5455	0.	-4373.9
17545	6.6194	4.5455	5.e-002	-6.1573
17546	6.6194	4.2727	0.	-4339.4
17547	6.5274	4.3636	0.	-4368.9
17548	6.6194	4.3636	5.e-002	-6.1581
17549	6.6194	4.0909	0.	-4335.3
17550	6.5274	4.1818	0.	-4364.4
17551	6.6194	4.1818	5.e-002	-6.1576
17552	6.6194	3.9091	0.	-4331.9
17553	6.5274	4.	0.	-4360.5
17554	6.6194	4.	5.e-002	-6.1563
17555	6.6194	3.7273	0.	-4328.9
17556	6.5274	3.8182	0.	-4357.1
17557	6.6194	3.8182	5.e-002	-6.1545
17558	6.6194	3.5455	0.	-4326.6
17559	6.5274	3.6364	0.	-4354.4
17560	6.6194	3.6364	5.e-002	-6.1526
17561	6.6194	3.3636	0.	-4325.
17562	6.5274	3.4545	0.	-4352.4
17563	6.6194	3.4545	5.e-002	-6.1509
17564	6.6194	3.1818	0.	-4324.
17565	6.5274	3.2727	0.	-4351.
17566	6.6194	3.2727	5.e-002	-6.1496
17567	6.6194	3.	0.	-4323.6
17568	6.5274	3.0909	0.	-4350.3
17569	6.6194	3.0909	5.e-002	-6.149
17570	6.6194	2.8182	0.	-4324.
17571	6.5274	2.9091	0.	-4350.3
17572	6.6194	2.9091	5.e-002	-6.149
17573	6.6194	2.6364	0.	-4325.
17574	6.5274	2.7273	0.	-4351.
17575	6.6194	2.7273	5.e-002	-6.1496
17576	6.6194	2.4545	0.	-4326.6
17577	6.5274	2.5455	0.	-4352.4
17578	6.6194	2.5455	5.e-002	-6.1509
17579	6.6194	2.2727	0.	-4328.9
17580	6.5274	2.3636	0.	-4354.4
17581	6.6194	2.3636	5.e-002	-6.1526
17582	6.6194	2.0909	0.	-4331.9
17583	6.5274	2.1818	0.	-4357.1
17584	6.6194	2.1818	5.e-002	-6.1545
17585	6.6194	1.9091	0.	-4335.3
17586	6.5274	2.	0.	-4360.5
17587	6.6194	2.	5.e-002	-6.1563
17588	6.6194	1.7273	0.	-4339.4
17589	6.5274	1.8182	0.	-4364.4
17590	6.6194	1.8182	5.e-002	-6.1577
17591	6.6194	1.5455	0.	-4343.9
17592	6.5274	1.6364	0.	-4368.9
17593	6.6194	1.6364	5.e-002	-6.1582
17594	6.6194	1.3636	0.	-4348.9
17595	6.5274	1.4545	0.	-4373.9
17596	6.6194	1.4545	5.e-002	-6.1574
17597	6.6194	1.1818	0.	-4354.3
17598	6.5274	1.2727	0.	-4379.3
17599	6.6194	1.2727	5.e-002	-6.155
17600	6.6194	1.	0.	-4360.1
17601	6.5274	1.0909	0.	-4385.1
17602	6.6194	1.0909	5.e-002	-6.1505
17603	6.6194	0.81818	0.	-4366.1
17604	6.5274	0.90909	0.	-4391.2
17605	6.6194	0.90909	5.e-002	-6.1434
17606	6.6194	0.63636	0.	-4372.4
17607	6.5274	0.72727	0.	-4397.6
17608	6.6194	0.72727	5.e-002	-6.133
17609	6.6194	0.45455	0.	-4378.8
17610	6.5274	0.54545	0.	-4404.2
17611	6.6194	0.54545	5.e-002	-6.1099
17612	6.6194	0.27273	0.	-4385.6
17613	6.5274	0.36364	0.	-4411.
17614	6.6194	0.36364	5.e-002	-5.9361
17615	6.5274	0.18182	0.	-4418.2
17616	6.6194	0.18182	5.e-002	-3.5857
17617	6.6194	9.0909e-002	0.	-4390.9
17618	6.4355	5.7273	0.	-4443.6
17619	6.3435	5.8182	0.	-4476.7
17620	6.4355	5.8182	5.e-002	-3.9134
17621	6.4355	5.9091	0.	-4449.5
17622	6.4355	5.5455	0.	-4436.4
17623	6.3435	5.6364	0.	-4469.
17624	6.4355	5.6364	5.e-002	-6.0332
17625	6.4355	5.3636	0.	-4429.5
17626	6.3435	5.4545	0.	-4461.8
17627	6.4355	5.4545	5.e-002	-6.1923
17628	6.4355	5.1818	0.	-4422.7
17629	6.3435	5.2727	0.	-4454.6
17630	6.4355	5.2727	5.e-002	-6.2147
17631	6.4355	5.	0.	-4416.2
17632	6.3435	5.0909	0.	-4447.7
17633	6.4355	5.0909	5.e-002	-6.2251
17634	6.4355	4.8182	0.	-4410.
17635	6.3435	4.9091	0.	-4441.1
17636	6.4355	4.9091	5.e-002	-6.2318
17637	6.4355	4.6364	0.	-4404.2
17638	6.3435	4.7273	0.	-4434.9
17639	6.4355	4.7273	5.e-002	-6.2358
17640	6.4355	4.4545	0.	-4398.8
17641	6.3435	4.5455	0.	-4429.
17642	6.4355	4.5455	5.e-002	-6.2374
17643	6.4355	4.2727	0.	-4393.9
17644	6.3435	4.3636	0.	-4423.7
17645	6.4355	4.3636	5.e-002	-6.2373
17646	6.4355	4.0909	0.	-4389.6
17647	6.3435	4.1818	0.	-4418.8
17648	6.4355	4.1818	5.e-002	-6.2359
17649	6.4355	3.9091	0.	-4385.8
17650	6.3435	4.	0.	-4414.6
17651	6.4355	4.	5.e-002	-6.2335
17652	6.4355	3.7273	0.	-4382.6
17653	6.3435	3.8182	0.	-4411.
17654	6.4355	3.8182	5.e-002	-6.2308
17655	6.4355	3.5455	0.	-4380.1
17656	6.3435	3.6364	0.	-4408.
17657	6.4355	3.6364	5.e-002	-6.2281
17658	6.4355	3.3636	0.	-4378.3
17659	6.3435	3.4545	0.	-4405.8
17660	6.4355	3.4545	5.e-002	-6.2258
17661	6.4355	3.1818	0.	-4377.3
17662	6.3435	3.2727	0.	-4404.3
17663	6.4355	3.2727	5.e-002	-6.224
17664	6.4355	3.	0.	-4376.9
17665	6.3435	3.0909	0.	-4403.5
17666	6.4355	3.0909	5.e-002	-6.2231
17667	6.4355	2.8182	0.	-4377.3
17668	6.3435	2.9091	0.	-4403.5
17669	6.4355	2.9091	5.e-002	-6.2231
17670	6.4355	2.6364	0.	-4378.3
17671	6.3435	2.7273	0.	-4404.3
17672	6.4355	2.7273	5.e-002	-6.224
17673	6.4355	2.4545	0.	-4380.1
17674	6.3435	2.5455	0.	-4405.8
17675	6.4355	2.5455	5.e-002	-6.2258
17676	6.4355	2.2727	0.	-4382.6
17677	6.3435	2.3636	0.	-4408.
17678	6.4355	2.3636	5.e-002	-6.2281
17679	6.4355	2.0909	0.	-4385.8
17680	6.3435	2.1818	0.	-4411.
17681	6.4355	2.1818	5.e-002	-6.2308
17682	6.4355	1.9091	0.	-4389.6
17683	6.3435	2.	0.	-4414.6
17684	6.4355	2.	5.e-002	-6.2336
17685	6.4355	1.7273	0.	-4393.9
17686	6.3435	1.8182	0.	-4418.8
17687	6.4355	1.8182	5.e-002	-6.2359
17688	6.4355	1.5455	0.	-4398.8
17689	6.3435	1.6364	0.	-4423.7
17690	6.4355	1.6364	5.e-002	-6.2373
17691	6.4355	1.3636	0.	-4404.2
17692	6.3435	1.4545	0.	-4429.
17693	6.4355	1.4545	5.e-002	-6.2375
17694	6.4355	1.1818	0.	-4410.
17695	6.3435	1.2727	0.	-4434.9
17696	6.4355	1.2727	5.e-002	-6.2358
17697	6.4355	1.	0.	-4416.2
17698	6.3435	1.0909	0.	-4441.1
17699	6.4355	1.0909	5.e-002	-6.2318
17700	6.4355	0.81818	0.	-4422.7
17701	6.3435	0.90909	0.	-4447.7
17702	6.4355	0.90909	5.e-002	-6.2251
17703	6.4355	0.63636	0.	-4429.5
17704	6.3435	0.72727	0.	-4454.6
17705	6.4355	0.72727	5.e-002	-6.2148
17706	6.4355	0.45455	0.	-4436.4
17707	6.3435	0.54545	0.	-4461.8
17708	6.4355	0.54545	5.e-002	-6.1924
17709	6.4355	0.27273	0.	-4443.6
17710	6.3435	0.36364	0.	-4469.
17711	6.4355	0.36364	5.e-002	-6.0333
17712	6.3435	0.18182	0.	-4476.7
17713	6.4355	0.18182	5.e-002	-3.9135
17714	6.4355	9.0909e-002	0.	-4449.5
17715	6.2516	5.7273	0.	-4502.1
17716	6.1597	5.8182	0.	-4535.7
17717	6.2516	5.8182	5.e-002	-4.2677
17718	6.2516	5.9091	0.	-4508.6
17719	6.2516	5.5455	0.	-4494.4
17720	6.1597	5.6364	0.	-4527.5
17721	6.2516	5.6364	5.e-002	-6.1384
17722	6.2516	5.3636	0.	-4486.9
17723	6.1597	5.4545	0.	-4519.7
17724	6.2516	5.4545	5.e-002	-6.2817
17725	6.2516	5.1818	0.	-4479.7
17726	6.1597	5.2727	0.	-4512.
17727	6.2516	5.2727	5.e-002	-6.3033
17728	6.2516	5.	0.	-4472.7
17729	6.1597	5.0909	0.	-4504.6
17730	6.2516	5.0909	5.e-002	-6.3134
17731	6.2516	4.8182	0.	-4466.
17732	6.1597	4.9091	0.	-4497.5
17733	6.2516	4.9091	5.e-002	-6.3197
17734	6.2516	4.6364	0.	-4459.7
17735	6.1597	4.7273	0.	-4490.7
17736	6.2516	4.7273	5.e-002	-6.323
17737	6.2516	4.4545	0.	-4453.9
17738	6.1597	4.5455	0.	-4484.4
17739	6.2516	4.5455	5.e-002	-6.3237
17740	6.2516	4.2727	0.	-4448.6
17741	6.1597	4.3636	0.	-4478.6
17742	6.2516	4.3636	5.e-002	-6.3226
17743	6.2516	4.0909	0.	-4443.9
17744	6.1597	4.1818	0.	-4473.4
17745	6.2516	4.1818	5.e-002	-6.3199
17746	6.2516	3.9091	0.	-4439.8
17747	6.1597	4.	0.	-4468.8
17748	6.2516	4.	5.e-002	-6.3165
17749	6.2516	3.7273	0.	-4436.4
17750	6.1597	3.8182	0.	-4464.9
17751	6.2516	3.8182	5.e-002	-6.3127
17752	6.2516	3.5455	0.	-4433.7
17753	6.1597	3.6364	0.	-4461.7
17754	6.2516	3.6364	5.e-002	-6.3091
17755	6.2516	3.3636	0.	-4431.8
17756	6.1597	3.4545	0.	-4459.3
17757	6.2516	3.4545	5.e-002	-6.306
17758	6.2516	3.1818	0.	-4430.6
17759	6.1597	3.2727	0.	-4457.7
17760	6.2516	3.2727	5.e-002	-6.3037
17761	6.2516	3.	0.	-4430.2
17762	6.1597	3.0909	0.	-4456.9
17763	6.2516	3.0909	5.e-002	-6.3025
17764	6.2516	2.8182	0.	-4430.6
17765	6.1597	2.9091	0.	-4456.9
17766	6.2516	2.9091	5.e-002	-6.3025
17767	6.2516	2.6364	0.	-4431.8
17768	6.1597	2.7273	0.	-4457.7
17769	6.2516	2.7273	5.e-002	-6.3037
17770	6.2516	2.4545	0.	-4433.7
17771	6.1597	2.5455	0.	-4459.3
17772	6.2516	2.5455	5.e-002	-6.306
17773	6.2516	2.2727	0.	-4436.4
17774	6.1597	2.3636	0.	-4461.7
17775	6.2516	2.3636	5.e-002	-6.3091
17776	6.2516	2.0909	0.	-4439.8
17777	6.1597	2.1818	0.	-4464.9
17778	6.2516	2.1818	5.e-002	-6.3128
17779	6.2516	1.9091	0.	-4443.9
17780	6.1597	2.	0.	-4468.8
17781	6.2516	2.	5.e-002	-6.3165
17782	6.2516	1.7273	0.	-4448.6
17783	6.1597	1.8182	0.	-4473.4
17784	6.2516	1.8182	5.e-002	-6.32
17785	6.2516	1.5455	0.	-4453.9
17786	6.1597	1.6364	0.	-4478.6
17787	6.2516	1.6364	5.e-002	-6.3226
17788	6.2516	1.3636	0.	-4459.7
17789	6.1597	1.4545	0.	-4484.4
17790	6.2516	1.4545	5.e-002	-6.3238
17791	6.2516	1.1818	0.	-4466.
17792	6.1597	1.2727	0.	-4490.7
17793	6.2516	1.2727	5.e-002	-6.323
17794	6.2516	1.	0.	-4472.7
17795	6.1597	1.0909	0.	-4497.5
17796	6.2516	1.0909	5.e-002	-6.3198
17797	6.2516	0.81818	0.	-4479.7
17798	6.1597	0.90909	0.	-4504.6
17799	6.2516	0.90909	5.e-002	-6.3135
17800	6.2516	0.63636	0.	-4486.9
17801	6.1597	0.72727	0.	-4512.
17802	6.2516	0.72727	5.e-002	-6.3033
17803	6.2516	0.45455	0.	-4494.4
17804	6.1597	0.54545	0.	-4519.7
17805	6.2516	0.54545	5.e-002	-6.2818
17806	6.2516	0.27273	0.	-4502.1
17807	6.1597	0.36364	0.	-4527.5
17808	6.2516	0.36364	5.e-002	-6.1385
17809	6.1597	0.18182	0.	-4535.7
17810	6.2516	0.18182	5.e-002	-4.2677
17811	6.2516	9.0909e-002	0.	-4508.6
17812	6.0677	5.7273	0.	-4561.1
17813	5.9758	5.8182	0.	-4595.2
17814	6.0677	5.8182	5.e-002	-4.6502
17815	6.0677	5.9091	0.	-4568.1
17816	6.0677	5.5455	0.	-4552.8
17817	5.9758	5.6364	0.	-4586.4
17818	6.0677	5.6364	5.e-002	-6.2525
17819	6.0677	5.3636	0.	-4544.8
17820	5.9758	5.4545	0.	-4578.
17821	6.0677	5.4545	5.e-002	-6.3786
17822	6.0677	5.1818	0.	-4537.
17823	5.9758	5.2727	0.	-4569.8
17824	6.0677	5.2727	5.e-002	-6.3992
17825	6.0677	5.	0.	-4529.4
17826	5.9758	5.0909	0.	-4561.8
17827	6.0677	5.0909	5.e-002	-6.4091
17828	6.0677	4.8182	0.	-4522.2
17829	5.9758	4.9091	0.	-4554.1
17830	6.0677	4.9091	5.e-002	-6.4149
17831	6.0677	4.6364	0.	-4515.4
17832	5.9758	4.7273	0.	-4546.8
17833	6.0677	4.7273	5.e-002	-6.4173
17834	6.0677	4.4545	0.	-4509.2
17835	5.9758	4.5455	0.	-4540.
17836	6.0677	4.5455	5.e-002	-6.4169
17837	6.0677	4.2727	0.	-4503.4
17838	5.9758	4.3636	0.	-4533.8
17839	6.0677	4.3636	5.e-002	-6.4146
17840	6.0677	4.0909	0.	-4498.4
17841	5.9758	4.1818	0.	-4528.1
17842	6.0677	4.1818	5.e-002	-6.4106
17843	6.0677	3.9091	0.	-4493.9
17844	5.9758	4.	0.	-4523.2
17845	6.0677	4.	5.e-002	-6.4059
17846	6.0677	3.7273	0.	-4490.3
17847	5.9758	3.8182	0.	-4518.9
17848	6.0677	3.8182	5.e-002	-6.4008
17849	6.0677	3.5455	0.	-4487.3
17850	5.9758	3.6364	0.	-4515.5
17851	6.0677	3.6364	5.e-002	-6.3961
17852	6.0677	3.3636	0.	-4485.2
17853	5.9758	3.4545	0.	-4512.9
17854	6.0677	3.4545	5.e-002	-6.3922
17855	6.0677	3.1818	0.	-4484.
17856	5.9758	3.2727	0.	-4511.1
17857	6.0677	3.2727	5.e-002	-6.3893
17858	6.0677	3.	0.	-4483.5
17859	5.9758	3.0909	0.	-4510.2
17860	6.0677	3.0909	5.e-002	-6.3878
17861	6.0677	2.8182	0.	-4484.
17862	5.9758	2.9091	0.	-4510.2
17863	6.0677	2.9091	5.e-002	-6.3878
17864	6.0677	2.6364	0.	-4485.2
17865	5.9758	2.7273	0.	-4511.1
17866	6.0677	2.7273	5.e-002	-6.3893
17867	6.0677	2.4545	0.	-4487.3
17868	5.9758	2.5455	0.	-4512.9
17869	6.0677	2.5455	5.e-002	-6.3922
17870	6.0677	2.2727	0.	-4490.3
17871	5.9758	2.3636	0.	-4515.5
17872	6.0677	2.3636	5.e-002	-6.3962
17873	6.0677	2.0909	0.	-4493.9
17874	5.9758	2.1818	0.	-4518.9
17875	6.0677	2.1818	5.e-002	-6.4009
17876	6.0677	1.9091	0.	-4498.4
17877	5.9758	2.	0.	-4523.2
17878	6.0677	2.	5.e-002	-6.4059
17879	6.0677	1.7273	0.	-4503.4
17880	5.9758	1.8182	0.	-4528.1
17881	6.0677	1.8182	5.e-002	-6.4107
17882	6.0677	1.5455	0.	-4509.2
17883	5.9758	1.6364	0.	-4533.8
17884	6.0677	1.6364	5.e-002	-6.4146
17885	6.0677	1.3636	0.	-4515.4
17886	5.9758	1.4545	0.	-4540.
17887	6.0677	1.4545	5.e-002	-6.417
17888	6.0677	1.1818	0.	-4522.2
17889	5.9758	1.2727	0.	-4546.8
17890	6.0677	1.2727	5.e-002	-6.4174
17891	6.0677	1.	0.	-4529.4
17892	5.9758	1.0909	0.	-4554.1
17893	6.0677	1.0909	5.e-002	-6.4149
17894	6.0677	0.81818	0.	-4537.
17895	5.9758	0.90909	0.	-4561.8
17896	6.0677	0.90909	5.e-002	-6.4092
17897	6.0677	0.63636	0.	-4544.8
17898	5.9758	0.72727	0.	-4569.8
17899	6.0677	0.72727	5.e-002	-6.3993
17900	6.0677	0.45455	0.	-4552.8
17901	5.9758	0.54545	0.	-4578.
17902	6.0677	0.54545	5.e-002	-6.3786
17903	6.0677	0.27273	0.	-4561.1
17904	5.9758	0.36364	0.	-4586.4
17905	6.0677	0.36364	5.e-002	-6.2526
17906	5.9758	0.18182	0.	-4595.2
17907	6.0677	0.18182	5.e-002	-4.6504
17908	6.0677	9.0909e-002	0.	-4568.1
17909	5.8839	5.7273	0.	-4620.5
17910	5.7919	5.8182	0.	-4655.2
17911	5.8839	5.8182	5.e-002	-5.0633
17912	5.8839	5.9091	0.	-4628.2
17913	5.8839	5.5455	0.	-4611.6
17914	5.7919	5.6364	0.	-4645.8
17915	5.8839	5.6364	5.e-002	-6.3761
17916	5.8839	5.3636	0.	-4603.
17917	5.7919	5.4545	0.	-4636.8
17918	5.8839	5.4545	5.e-002	-6.4838
17919	5.8839	5.1818	0.	-4594.6
17920	5.7919	5.2727	0.	-4627.9
17921	5.8839	5.2727	5.e-002	-6.5033
17922	5.8839	5.	0.	-4586.5
17923	5.7919	5.0909	0.	-4619.3
17924	5.8839	5.0909	5.e-002	-6.5129
17925	5.8839	4.8182	0.	-4578.7
17926	5.7919	4.9091	0.	-4611.
17927	5.8839	4.9091	5.e-002	-6.518
17928	5.8839	4.6364	0.	-4571.4
17929	5.7919	4.7273	0.	-4603.2
17930	5.8839	4.7273	5.e-002	-6.5196
17931	5.8839	4.4545	0.	-4564.6
17932	5.7919	4.5455	0.	-4595.8
17933	5.8839	4.5455	5.e-002	-6.518
17934	5.8839	4.2727	0.	-4558.4
17935	5.7919	4.3636	0.	-4589.1
17936	5.8839	4.3636	5.e-002	-6.5142
17937	5.8839	4.0909	0.	-4552.9
17938	5.7919	4.1818	0.	-4583.
17939	5.8839	4.1818	5.e-002	-6.5087
17940	5.8839	3.9091	0.	-4548.2
17941	5.7919	4.	0.	-4577.6
17942	5.8839	4.	5.e-002	-6.5025
17943	5.8839	3.7273	0.	-4544.2
17944	5.7919	3.8182	0.	-4573.
17945	5.8839	3.8182	5.e-002	-6.496
17946	5.8839	3.5455	0.	-4541.
17947	5.7919	3.6364	0.	-4569.3
17948	5.8839	3.6364	5.e-002	-6.49
17949	5.8839	3.3636	0.	-4538.7
17950	5.7919	3.4545	0.	-4566.5
17951	5.8839	3.4545	5.e-002	-6.485
17952	5.8839	3.1818	0.	-4537.4
17953	5.7919	3.2727	0.	-4564.6
17954	5.8839	3.2727	5.e-002	-6.4813
17955	5.8839	3.	0.	-4536.9
17956	5.7919	3.0909	0.	-4563.6
17957	5.8839	3.0909	5.e-002	-6.4795
17958	5.8839	2.8182	0.	-4537.4
17959	5.7919	2.9091	0.	-4563.6
17960	5.8839	2.9091	5.e-002	-6.4795
17961	5.8839	2.6364	0.	-4538.7
17962	5.7919	2.7273	0.	-4564.6
17963	5.8839	2.7273	5.e-002	-6.4814
17964	5.8839	2.4545	0.	-4541.
17965	5.7919	2.5455	0.	-4566.5
17966	5.8839	2.5455	5.e-002	-6.485
17967	5.8839	2.2727	0.	-4544.2
17968	5.7919	2.3636	0.	-4569.3
17969	5.8839	2.3636	5.e-002	-6.49
17970	5.8839	2.0909	0.	-4548.2
17971	5.7919	2.1818	0.	-4573.
17972	5.8839	2.1818	5.e-002	-6.496
17973	5.8839	1.9091	0.	-4552.9
17974	5.7919	2.	0.	-4577.6
17975	5.8839	2.	5.e-002	-6.5025
17976	5.8839	1.7273	0.	-4558.4
17977	5.7919	1.8182	0.	-4583.
17978	5.8839	1.8182	5.e-002	-6.5088
17979	5.8839	1.5455	0.	-4564.6
17980	5.7919	1.6364	0.	-4589.1
17981	5.8839	1.6364	5.e-002	-6.5142
17982	5.8839	1.3636	0.	-4571.4
17983	5.7919	1.4545	0.	-4595.8
17984	5.8839	1.4545	5.e-002	-6.518
17985	5.8839	1.1818	0.	-4578.7
17986	5.7919	1.2727	0.	-4603.2
17987	5.8839	1.2727	5.e-002	-6.5195
17988	5.8839	1.	0.	-4586.5
17989	5.7919	1.0909	0.	-4611.
17990	5.8839	1.0909	5.e-002	-6.5181
17991	5.8839	0.81818	0.	-4594.6
17992	5.7919	0.90909	0.	-4619.3
17993	5.8839	0.90909	5.e-002	-6.513
17994	5.8839	0.63636	0.	-4603.
17995	5.7919	0.72727	0.	-4627.9
17996	5.8839	0.72727	5.e-002	-6.5033
17997	5.8839	0.45455	0.	-4611.6
17998	5.7919	0.54545	0.	-4636.8
17999	5.8839	0.54545	5.e-002	-6.4838
18000	5.8839	0.27273	0.	-4620.5
18001	5.7919	0.36364	0.	-4645.8
18002	5.8839	0.36364	5.e-002	-6.3762
18003	5.7919	0.18182	0.	-4655.2
18004	5.8839	0.18182	5.e-002	-5.0633
18005	5.8839	9.0909e-002	0.	-4628.2
18006	5.7	5.7273	0.	-4680.5
18007	5.6081	5.8182	0.	-4715.7
18008	5.7	5.8182	5.e-002	-5.5088
18009	5.7	5.9091	0.	-4688.8
18010	5.7	5.5455	0.	-4670.9
18011	5.6081	5.6364	0.	-4705.7
18012	5.7	5.6364	5.e-002	-6.5102
18013	5.7	5.3636	0.	-4661.7
18014	5.6081	5.4545	0.	-4696.
18015	5.7	5.4545	5.e-002	-6.5981
18016	5.7	5.1818	0.	-4652.6
18017	5.6081	5.2727	0.	-4686.4
18018	5.7	5.2727	5.e-002	-6.6164
18019	5.7	5.	0.	-4643.8
18020	5.6081	5.0909	0.	-4677.1
18021	5.7	5.0909	5.e-002	-6.6257
18022	5.7	4.8182	0.	-4635.5
18023	5.6081	4.9091	0.	-4668.2
18024	5.7	4.9091	5.e-002	-6.6301
18025	5.7	4.6364	0.	-4627.6
18026	5.6081	4.7273	0.	-4659.8
18027	5.7	4.7273	5.e-002	-6.6305
18028	5.7	4.4545	0.	-4620.3
18029	5.6081	4.5455	0.	-4651.8
18030	5.7	4.5455	5.e-002	-6.6276
18031	5.7	4.2727	0.	-4613.6
18032	5.6081	4.3636	0.	-4644.5
18033	5.7	4.3636	5.e-002	-6.6221
18034	5.7	4.0909	0.	-4607.6
18035	5.6081	4.1818	0.	-4637.9
18036	5.7	4.1818	5.e-002	-6.615
18037	5.7	3.9091	0.	-4602.5
18038	5.6081	4.	0.	-4632.2
18039	5.7	4.	5.e-002	-6.607
18040	5.7	3.7273	0.	-4598.2
18041	5.6081	3.8182	0.	-4627.2
18042	5.7	3.8182	5.e-002	-6.5989
18043	5.7	3.5455	0.	-4594.8
18044	5.6081	3.6364	0.	-4623.2
18045	5.7	3.6364	5.e-002	-6.5915
18046	5.7	3.3636	0.	-4592.3
18047	5.6081	3.4545	0.	-4620.1
18048	5.7	3.4545	5.e-002	-6.5853
18049	5.7	3.1818	0.	-4590.8
18050	5.6081	3.2727	0.	-4618.1
18051	5.7	3.2727	5.e-002	-6.5809
18052	5.7	3.	0.	-4590.3
18053	5.6081	3.0909	0.	-4617.
18054	5.7	3.0909	5.e-002	-6.5786
18055	5.7	2.8182	0.	-4590.8
18056	5.6081	2.9091	0.	-4617.
18057	5.7	2.9091	5.e-002	-6.5786
18058	5.7	2.6364	0.	-4592.3
18059	5.6081	2.7273	0.	-4618.1
18060	5.7	2.7273	5.e-002	-6.5809
18061	5.7	2.4545	0.	-4594.8
18062	5.6081	2.5455	0.	-4620.1
18063	5.7	2.5455	5.e-002	-6.5853
18064	5.7	2.2727	0.	-4598.2
18065	5.6081	2.3636	0.	-4623.2
18066	5.7	2.3636	5.e-002	-6.5915
18067	5.7	2.0909	0.	-4602.5
18068	5.6081	2.1818	0.	-4627.2
18069	5.7	2.1818	5.e-002	-6.599
18070	5.7	1.9091	0.	-4607.6
18071	5.6081	2.	0.	-4632.2
18072	5.7	2.	5.e-002	-6.6071
18073	5.7	1.7273	0.	-4613.6
18074	5.6081	1.8182	0.	-4637.9
18075	5.7	1.8182	5.e-002	-6.6151
18076	5.7	1.5455	0.	-4620.3
18077	5.6081	1.6364	0.	-4644.5
18078	5.7	1.6364	5.e-002	-6.6222
18079	5.7	1.3636	0.	-4627.6
18080	5.6081	1.4545	0.	-4651.8
18081	5.7	1.4545	5.e-002	-6.6276
18082	5.7	1.1818	0.	-4635.5
18083	5.6081	1.2727	0.	-4659.8
18084	5.7	1.2727	5.e-002	-6.6306
18085	5.7	1.	0.	-4643.8
18086	5.6081	1.0909	0.	-4668.2
18087	5.7	1.0909	5.e-002	-6.6302
18088	5.7	0.81818	0.	-4652.6
18089	5.6081	0.90909	0.	-4677.1
18090	5.7	0.90909	5.e-002	-6.6258
18091	5.7	0.63636	0.	-4661.7
18092	5.6081	0.72727	0.	-4686.4
18093	5.7	0.72727	5.e-002	-6.6165
18094	5.7	0.45455	0.	-4670.9
18095	5.6081	0.54545	0.	-4696.
18096	5.7	0.54545	5.e-002	-6.5981
18097	5.7	0.27273	0.	-4680.5
18098	5.6081	0.36364	0.	-4705.7
18099	5.7	0.36364	5.e-002	-6.5103
18100	5.6081	0.18182	0.	-4715.7
18101	5.7	0.18182	5.e-002	-5.5089
18102	5.7	9.0909e-002	0.	-4688.8
18103	5.5161	5.7273	0.	-4740.9
18104	5.4242	5.8182	0.	-4776.8
18105	5.5161	5.8182	5.e-002	-5.9892
18106	5.5161	5.9091	0.	-4750.
18107	5.5161	5.5455	0.	-4730.7
18108	5.4242	5.6364	0.	-4766.1
18109	5.5161	5.6364	5.e-002	-6.6556
18110	5.5161	5.3636	0.	-4720.8
18111	5.4242	5.4545	0.	-4755.6
18112	5.5161	5.4545	5.e-002	-6.7224
18113	5.5161	5.1818	0.	-4711.
18114	5.4242	5.2727	0.	-4745.4
18115	5.5161	5.2727	5.e-002	-6.7395
18116	5.5161	5.	0.	-4701.5
18117	5.4242	5.0909	0.	-4735.4
18118	5.5161	5.0909	5.e-002	-6.7484
18119	5.5161	4.8182	0.	-4692.5
18120	5.4242	4.9091	0.	-4725.7
18121	5.5161	4.9091	5.e-002	-6.7521
18122	5.5161	4.6364	0.	-4684.
18123	5.4242	4.7273	0.	-4716.6
18124	5.5161	4.7273	5.e-002	-6.7513
18125	5.5161	4.4545	0.	-4676.1
18126	5.4242	4.5455	0.	-4708.1
18127	5.5161	4.5455	5.e-002	-6.7469
18128	5.5161	4.2727	0.	-4668.9
18129	5.4242	4.3636	0.	-4700.2
18130	5.5161	4.3636	5.e-002	-6.7395
18131	5.5161	4.0909	0.	-4662.5
18132	5.4242	4.1818	0.	-4693.1
18133	5.5161	4.1818	5.e-002	-6.7306
18134	5.5161	3.9091	0.	-4656.9
18135	5.4242	4.	0.	-4686.8
18136	5.5161	4.	5.e-002	-6.7206
18137	5.5161	3.7273	0.	-4652.2
18138	5.4242	3.8182	0.	-4681.5
18139	5.5161	3.8182	5.e-002	-6.7107
18140	5.5161	3.5455	0.	-4648.5
18141	5.4242	3.6364	0.	-4677.1
18142	5.5161	3.6364	5.e-002	-6.7016
18143	5.5161	3.3636	0.	-4645.9
18144	5.4242	3.4545	0.	-4673.8
18145	5.5161	3.4545	5.e-002	-6.6942
18146	5.5161	3.1818	0.	-4644.3
18147	5.4242	3.2727	0.	-4671.6
18148	5.5161	3.2727	5.e-002	-6.6889
18149	5.5161	3.	0.	-4643.7
18150	5.4242	3.0909	0.	-4670.5
18151	5.5161	3.0909	5.e-002	-6.6861
18152	5.5161	2.8182	0.	-4644.3
18153	5.4242	2.9091	0.	-4670.5
18154	5.5161	2.9091	5.e-002	-6.6861
18155	5.5161	2.6364	0.	-4645.9
18156	5.4242	2.7273	0.	-4671.6
18157	5.5161	2.7273	5.e-002	-6.6889
18158	5.5161	2.4545	0.	-4648.5
18159	5.4242	2.5455	0.	-4673.8
18160	5.5161	2.5455	5.e-002	-6.6942
18161	5.5161	2.2727	0.	-4652.2
18162	5.4242	2.3636	0.	-4677.1
18163	5.5161	2.3636	5.e-002	-6.7017
18164	5.5161	2.0909	0.	-4656.9
18165	5.4242	2.1818	0.	-4681.5
18166	5.5161	2.1818	5.e-002	-6.7107
18167	5.5161	1.9091	0.	-4662.5
18168	5.4242	2.	0.	-4686.8
18169	5.5161	2.	5.e-002	-6.7206
18170	5.5161	1.7273	0.	-4668.9
18171	5.4242	1.8182	0.	-4693.1
18172	5.5161	1.8182	5.e-002	-6.7306
18173	5.5161	1.5455	0.	-4676.1
18174	5.4242	1.6364	0.	-4700.2
18175	5.5161	1.6364	5.e-002	-6.7397
18176	5.5161	1.3636	0.	-4684.
18177	5.4242	1.4545	0.	-4708.1
18178	5.5161	1.4545	5.e-002	-6.7469
18179	5.5161	1.1818	0.	-4692.5
18180	5.4242	1.2727	0.	-4716.6
18181	5.5161	1.2727	5.e-002	-6.7513
18182	5.5161	1.	0.	-4701.5
18183	5.4242	1.0909	0.	-4725.7
18184	5.5161	1.0909	5.e-002	-6.7521
18185	5.5161	0.81818	0.	-4711.
18186	5.4242	0.90909	0.	-4735.4
18187	5.5161	0.90909	5.e-002	-6.7485
18188	5.5161	0.63636	0.	-4720.8
18189	5.4242	0.72727	0.	-4745.4
18190	5.5161	0.72727	5.e-002	-6.7395
18191	5.5161	0.45455	0.	-4730.7
18192	5.4242	0.54545	0.	-4755.6
18193	5.5161	0.54545	5.e-002	-6.7224
18194	5.5161	0.27273	0.	-4740.9
18195	5.4242	0.36364	0.	-4766.1
18196	5.5161	0.36364	5.e-002	-6.6557
18197	5.4242	0.18182	0.	-4776.8
18198	5.5161	0.18182	5.e-002	-5.9892
18199	5.5161	9.0909e-002	0.	-4750.
18200	5.3323	5.7273	0.	-4802.
18201	5.2403	5.8182	0.	-4838.6
18202	5.3323	5.8182	5.e-002	-6.5067
18203	5.3323	5.9091	0.	-4811.7
18204	5.3323	5.5455	0.	-4791.
18205	5.2403	5.6364	0.	-4827.
18206	5.3323	5.6364	5.e-002	-6.8132
18207	5.3323	5.3636	0.	-4780.3
18208	5.2403	5.4545	0.	-4815.8
18209	5.3323	5.4545	5.e-002	-6.8577
18210	5.3323	5.1818	0.	-4769.7
18211	5.2403	5.2727	0.	-4804.7
18212	5.3323	5.2727	5.e-002	-6.8736
18213	5.3323	5.	0.	-4759.6
18214	5.2403	5.0909	0.	-4793.9
18215	5.3323	5.0909	5.e-002	-6.8822
18216	5.3323	4.8182	0.	-4749.9
18217	5.2403	4.9091	0.	-4783.6
18218	5.3323	4.9091	5.e-002	-6.885
18219	5.3323	4.6364	0.	-4740.7
18220	5.2403	4.7273	0.	-4773.7
18221	5.3323	4.7273	5.e-002	-6.8829
18222	5.3323	4.4545	0.	-4732.2
18223	5.2403	4.5455	0.	-4764.5
18224	5.3323	4.5455	5.e-002	-6.8768
18225	5.3323	4.2727	0.	-4724.4
18226	5.2403	4.3636	0.	-4756.
18227	5.3323	4.3636	5.e-002	-6.8676
18228	5.3323	4.0909	0.	-4717.4
18229	5.2403	4.1818	0.	-4748.4
18230	5.3323	4.1818	5.e-002	-6.8564
18231	5.3323	3.9091	0.	-4711.4
18232	5.2403	4.	0.	-4741.6
18233	5.3323	4.	5.e-002	-6.8444
18234	5.3323	3.7273	0.	-4706.4
18235	5.2403	3.8182	0.	-4735.9
18236	5.3323	3.8182	5.e-002	-6.8324
18237	5.3323	3.5455	0.	-4702.4
18238	5.2403	3.6364	0.	-4731.2
18239	5.3323	3.6364	5.e-002	-6.8215
18240	5.3323	3.3636	0.	-4699.5
18241	5.2403	3.4545	0.	-4727.6
18242	5.3323	3.4545	5.e-002	-6.8126
18243	5.3323	3.1818	0.	-4697.8
18244	5.2403	3.2727	0.	-4725.2
18245	5.3323	3.2727	5.e-002	-6.8063
18246	5.3323	3.	0.	-4697.2
18247	5.2403	3.0909	0.	-4724.
18248	5.3323	3.0909	5.e-002	-6.803
18249	5.3323	2.8182	0.	-4697.8
18250	5.2403	2.9091	0.	-4724.
18251	5.3323	2.9091	5.e-002	-6.803
18252	5.3323	2.6364	0.	-4699.5
18253	5.2403	2.7273	0.	-4725.2
18254	5.3323	2.7273	5.e-002	-6.8063
18255	5.3323	2.4545	0.	-4702.4
18256	5.2403	2.5455	0.	-4727.6
18257	5.3323	2.5455	5.e-002	-6.8126
18258	5.3323	2.2727	0.	-4706.4
18259	5.2403	2.3636	0.	-4731.2
18260	5.3323	2.3636	5.e-002	-6.8216
18261	5.3323	2.0909	0.	-4711.4
18262	5.2403	2.1818	0.	-4735.9
18263	5.3323	2.1818	5.e-002	-6.8324
18264	5.3323	1.9091	0.	-4717.4
18265	5.2403	2.	0.	-4741.6
18266	5.3323	2.	5.e-002	-6.8444
18267	5.3323	1.7273	0.	-4724.4
18268	5.2403	1.8182	0.	-4748.4
18269	5.3323	1.8182	5.e-002	-6.8565
18270	5.3323	1.5455	0.	-4732.2
18271	5.2403	1.6364	0.	-4756.
18272	5.3323	1.6364	5.e-002	-6.8677
18273	5.3323	1.3636	0.	-4740.7
18274	5.2403	1.4545	0.	-4764.5
18275	5.3323	1.4545	5.e-002	-6.8768
18276	5.3323	1.1818	0.	-4749.9
18277	5.2403	1.2727	0.	-4773.7
18278	5.3323	1.2727	5.e-002	-6.883
18279	5.3323	1.	0.	-4759.6
18280	5.2403	1.0909	0.	-4783.6
18281	5.3323	1.0909	5.e-002	-6.8851
18282	5.3323	0.81818	0.	-4769.7
18283	5.2403	0.90909	0.	-4793.9
18284	5.3323	0.90909	5.e-002	-6.8823
18285	5.3323	0.63636	0.	-4780.3
18286	5.2403	0.72727	0.	-4804.7
18287	5.3323	0.72727	5.e-002	-6.8736
18288	5.3323	0.45455	0.	-4791.
18289	5.2403	0.54545	0.	-4815.8
18290	5.3323	0.54545	5.e-002	-6.8577
18291	5.3323	0.27273	0.	-4802.
18292	5.2403	0.36364	0.	-4827.
18293	5.3323	0.36364	5.e-002	-6.8133
18294	5.2403	0.18182	0.	-4838.6
18295	5.3323	0.18182	5.e-002	-6.5067
18296	5.3323	9.0909e-002	0.	-4811.7
18297	5.1484	5.7273	0.	-4863.6
18298	5.0565	5.8182	0.	-4900.9
18299	5.1484	5.8182	5.e-002	-7.0637
18300	5.1484	5.9091	0.	-4874.
18301	5.1484	5.5455	0.	-4851.8
18302	5.0565	5.6364	0.	-4888.4
18303	5.1484	5.6364	5.e-002	-6.9842
18304	5.1484	5.3636	0.	-4840.2
18305	5.0565	5.4545	0.	-4876.4
18306	5.1484	5.4545	5.e-002	-7.0049
18307	5.1484	5.1818	0.	-4828.9
18308	5.0565	5.2727	0.	-4864.5
18309	5.1484	5.2727	5.e-002	-7.0197
18310	5.1484	5.	0.	-4818.
18311	5.0565	5.0909	0.	-4852.9
18312	5.1484	5.0909	5.e-002	-7.0281
18313	5.1484	4.8182	0.	-4807.5
18314	5.0565	4.9091	0.	-4841.7
18315	5.1484	4.9091	5.e-002	-7.0301
18316	5.1484	4.6364	0.	-4797.6
18317	5.0565	4.7273	0.	-4831.2
18318	5.1484	4.7273	5.e-002	-7.0267
18319	5.1484	4.4545	0.	-4788.4
18320	5.0565	4.5455	0.	-4821.2
18321	5.1484	4.5455	5.e-002	-7.0188
18322	5.1484	4.2727	0.	-4780.
18323	5.0565	4.3636	0.	-4812.1
18324	5.1484	4.3636	5.e-002	-7.0075
18325	5.1484	4.0909	0.	-4772.6
18326	5.0565	4.1818	0.	-4803.8
18327	5.1484	4.1818	5.e-002	-6.994
18328	5.1484	3.9091	0.	-4766.1
18329	5.0565	4.	0.	-4796.5
18330	5.1484	4.	5.e-002	-6.9796
18331	5.1484	3.7273	0.	-4760.6
18332	5.0565	3.8182	0.	-4790.3
18333	5.1484	3.8182	5.e-002	-6.9654
18334	5.1484	3.5455	0.	-4756.3
18335	5.0565	3.6364	0.	-4785.3
18336	5.1484	3.6364	5.e-002	-6.9525
18337	5.1484	3.3636	0.	-4753.2
18338	5.0565	3.4545	0.	-4781.4
18339	5.1484	3.4545	5.e-002	-6.9419
18340	5.1484	3.1818	0.	-4751.4
18341	5.0565	3.2727	0.	-4778.8
18342	5.1484	3.2727	5.e-002	-6.9345
18343	5.1484	3.	0.	-4750.7
18344	5.0565	3.0909	0.	-4777.5
18345	5.1484	3.0909	5.e-002	-6.9306
18346	5.1484	2.8182	0.	-4751.4
18347	5.0565	2.9091	0.	-4777.5
18348	5.1484	2.9091	5.e-002	-6.9306
18349	5.1484	2.6364	0.	-4753.2
18350	5.0565	2.7273	0.	-4778.8
18351	5.1484	2.7273	5.e-002	-6.9345
18352	5.1484	2.4545	0.	-4756.3
18353	5.0565	2.5455	0.	-4781.4
18354	5.1484	2.5455	5.e-002	-6.942
18355	5.1484	2.2727	0.	-4760.6
18356	5.0565	2.3636	0.	-4785.3
18357	5.1484	2.3636	5.e-002	-6.9525
18358	5.1484	2.0909	0.	-4766.1
18359	5.0565	2.1818	0.	-4790.3
18360	5.1484	2.1818	5.e-002	-6.9654
18361	5.1484	1.9091	0.	-4772.6
18362	5.0565	2.	0.	-4796.5
18363	5.1484	2.	5.e-002	-6.9796
18364	5.1484	1.7273	0.	-4780.
18365	5.0565	1.8182	0.	-4803.8
18366	5.1484	1.8182	5.e-002	-6.9941
18367	5.1484	1.5455	0.	-4788.4
18368	5.0565	1.6364	0.	-4812.1
18369	5.1484	1.6364	5.e-002	-7.0075
18370	5.1484	1.3636	0.	-4797.6
18371	5.0565	1.4545	0.	-4821.2
18372	5.1484	1.4545	5.e-002	-7.0189
18373	5.1484	1.1818	0.	-4807.5
18374	5.0565	1.2727	0.	-4831.2
18375	5.1484	1.2727	5.e-002	-7.0269
18376	5.1484	1.	0.	-4818.
18377	5.0565	1.0909	0.	-4841.8
18378	5.1484	1.0909	5.e-002	-7.0303
18379	5.1484	0.81818	0.	-4828.9
18380	5.0565	0.90909	0.	-4852.9
18381	5.1484	0.90909	5.e-002	-7.0282
18382	5.1484	0.63636	0.	-4840.2
18383	5.0565	0.72727	0.	-4864.5
18384	5.1484	0.72727	5.e-002	-7.0197
18385	5.1484	0.45455	0.	-4851.8
18386	5.0565	0.54545	0.	-4876.4
18387	5.1484	0.54545	5.e-002	-7.005
18388	5.1484	0.27273	0.	-4863.6
18389	5.0565	0.36364	0.	-4888.4
18390	5.1484	0.36364	5.e-002	-6.9843
18391	5.0565	0.18182	0.	-4900.9
18392	5.1484	0.18182	5.e-002	-7.0637
18393	5.1484	9.0909e-002	0.	-4874.
18394	4.9645	5.7273	0.	-4925.8
18395	4.8726	5.8182	0.	-4963.9
18396	4.9645	5.8182	5.e-002	-7.6625
18397	4.9645	5.9091	0.	-4936.9
18398	4.9645	5.5455	0.	-4913.1
18399	4.8726	5.6364	0.	-4950.5
18400	4.9645	5.6364	5.e-002	-7.1693
18401	4.9645	5.3636	0.	-4900.7
18402	4.8726	5.4545	0.	-4937.5
18403	4.9645	5.4545	5.e-002	-7.1653
18404	4.9645	5.1818	0.	-4888.5
18405	4.8726	5.2727	0.	-4924.7
18406	4.9645	5.2727	5.e-002	-7.1791
18407	4.9645	5.	0.	-4876.7
18408	4.8726	5.0909	0.	-4912.2
18409	4.9645	5.0909	5.e-002	-7.1874
18410	4.9645	4.8182	0.	-4865.4
18411	4.8726	4.9091	0.	-4900.3
18412	4.9645	4.9091	5.e-002	-7.1888
18413	4.9645	4.6364	0.	-4854.8
18414	4.8726	4.7273	0.	-4888.9
18415	4.9645	4.7273	5.e-002	-7.1841
18416	4.9645	4.4545	0.	-4844.9
18417	4.8726	4.5455	0.	-4878.2
18418	4.9645	4.5455	5.e-002	-7.1743
18419	4.9645	4.2727	0.	-4835.9
18420	4.8726	4.3636	0.	-4868.3
18421	4.9645	4.3636	5.e-002	-7.1607
18422	4.9645	4.0909	0.	-4827.8
18423	4.8726	4.1818	0.	-4859.5
18424	4.9645	4.1818	5.e-002	-7.1447
18425	4.9645	3.9091	0.	-4820.8
18426	4.8726	4.	0.	-4851.6
18427	4.9645	4.	5.e-002	-7.1278
18428	4.9645	3.7273	0.	-4815.
18429	4.8726	3.8182	0.	-4845.
18430	4.9645	3.8182	5.e-002	-7.1111
18431	4.9645	3.5455	0.	-4810.4
18432	4.8726	3.6364	0.	-4839.5
18433	4.9645	3.6364	5.e-002	-7.0961
18434	4.9645	3.3636	0.	-4807.
18435	4.8726	3.4545	0.	-4835.4
18436	4.9645	3.4545	5.e-002	-7.0838
18437	4.9645	3.1818	0.	-4805.
18438	4.8726	3.2727	0.	-4832.6
18439	4.9645	3.2727	5.e-002	-7.0751
18440	4.9645	3.	0.	-4804.3
18441	4.8726	3.0909	0.	-4831.2
18442	4.9645	3.0909	5.e-002	-7.0706
18443	4.9645	2.8182	0.	-4805.
18444	4.8726	2.9091	0.	-4831.2
18445	4.9645	2.9091	5.e-002	-7.0706
18446	4.9645	2.6364	0.	-4807.
18447	4.8726	2.7273	0.	-4832.6
18448	4.9645	2.7273	5.e-002	-7.0751
18449	4.9645	2.4545	0.	-4810.4
18450	4.8726	2.5455	0.	-4835.4
18451	4.9645	2.5455	5.e-002	-7.0838
18452	4.9645	2.2727	0.	-4815.
18453	4.8726	2.3636	0.	-4839.5
18454	4.9645	2.3636	5.e-002	-7.0961
18455	4.9645	2.0909	0.	-4820.8
18456	4.8726	2.1818	0.	-4845.
18457	4.9645	2.1818	5.e-002	-7.1111
18458	4.9645	1.9091	0.	-4827.8
18459	4.8726	2.	0.	-4851.6
18460	4.9645	2.	5.e-002	-7.1278
18461	4.9645	1.7273	0.	-4835.9
18462	4.8726	1.8182	0.	-4859.5
18463	4.9645	1.8182	5.e-002	-7.1448
18464	4.9645	1.5455	0.	-4844.9
18465	4.8726	1.6364	0.	-4868.3
18466	4.9645	1.6364	5.e-002	-7.1608
18467	4.9645	1.3636	0.	-4854.8
18468	4.8726	1.4545	0.	-4878.2
18469	4.9645	1.4545	5.e-002	-7.1744
18470	4.9645	1.1818	0.	-4865.4
18471	4.8726	1.2727	0.	-4888.9
18472	4.9645	1.2727	5.e-002	-7.1842
18473	4.9645	1.	0.	-4876.7
18474	4.8726	1.0909	0.	-4900.3
18475	4.9645	1.0909	5.e-002	-7.189
18476	4.9645	0.81818	0.	-4888.5
18477	4.8726	0.90909	0.	-4912.2
18478	4.9645	0.90909	5.e-002	-7.1875
18479	4.9645	0.63636	0.	-4900.7
18480	4.8726	0.72727	0.	-4924.7
18481	4.9645	0.72727	5.e-002	-7.1791
18482	4.9645	0.45455	0.	-4913.1
18483	4.8726	0.54545	0.	-4937.5
18484	4.9645	0.54545	5.e-002	-7.1654
18485	4.9645	0.27273	0.	-4925.8
18486	4.8726	0.36364	0.	-4950.5
18487	4.9645	0.36364	5.e-002	-7.1694
18488	4.8726	0.18182	0.	-4963.9
18489	4.9645	0.18182	5.e-002	-7.6626
18490	4.9645	9.0909e-002	0.	-4936.9
18491	4.7806	5.7273	0.	-4988.6
18492	4.6887	5.8182	0.	-5027.5
18493	4.7806	5.8182	5.e-002	-8.3058
18494	4.7806	5.9091	0.	-5000.4
18495	4.7806	5.5455	0.	-4974.9
18496	4.6887	5.6364	0.	-5013.
18497	4.7806	5.6364	5.e-002	-7.3696
18498	4.7806	5.3636	0.	-4961.6
18499	4.6887	5.4545	0.	-4999.1
18500	4.7806	5.4545	5.e-002	-7.3399
18501	4.7806	5.1818	0.	-4948.5
18502	4.6887	5.2727	0.	-4985.4
18503	4.7806	5.2727	5.e-002	-7.353
18504	4.7806	5.	0.	-4935.8
18505	4.6887	5.0909	0.	-4972.
18506	4.7806	5.0909	5.e-002	-7.3617
18507	4.7806	4.8182	0.	-4923.7
18508	4.6887	4.9091	0.	-4959.1
18509	4.7806	4.9091	5.e-002	-7.3625
18510	4.7806	4.6364	0.	-4912.3
18511	4.6887	4.7273	0.	-4946.9
18512	4.7806	4.7273	5.e-002	-7.3566
18513	4.7806	4.4545	0.	-4901.6
18514	4.6887	4.5455	0.	-4935.4
18515	4.7806	4.5455	5.e-002	-7.3449
18516	4.7806	4.2727	0.	-4891.9
18517	4.6887	4.3636	0.	-4924.8
18518	4.7806	4.3636	5.e-002	-7.329
18519	4.7806	4.0909	0.	-4883.3
18520	4.6887	4.1818	0.	-4915.3
18521	4.7806	4.1818	5.e-002	-7.3104
18522	4.7806	3.9091	0.	-4875.8
18523	4.6887	4.	0.	-4906.9
18524	4.7806	4.	5.e-002	-7.2907
18525	4.7806	3.7273	0.	-4869.5
18526	4.6887	3.8182	0.	-4899.7
18527	4.7806	3.8182	5.e-002	-7.2714
18528	4.7806	3.5455	0.	-4864.5
18529	4.6887	3.6364	0.	-4893.9
18530	4.7806	3.6364	5.e-002	-7.2541
18531	4.7806	3.3636	0.	-4860.9
18532	4.6887	3.4545	0.	-4889.4
18533	4.7806	3.4545	5.e-002	-7.2399
18534	4.7806	3.1818	0.	-4858.7
18535	4.6887	3.2727	0.	-4886.5
18536	4.7806	3.2727	5.e-002	-7.2299
18537	4.7806	3.	0.	-4858.
18538	4.6887	3.0909	0.	-4885.
18539	4.7806	3.0909	5.e-002	-7.2247
18540	4.7806	2.8182	0.	-4858.7
18541	4.6887	2.9091	0.	-4885.
18542	4.7806	2.9091	5.e-002	-7.2247
18543	4.7806	2.6364	0.	-4860.9
18544	4.6887	2.7273	0.	-4886.5
18545	4.7806	2.7273	5.e-002	-7.2299
18546	4.7806	2.4545	0.	-4864.5
18547	4.6887	2.5455	0.	-4889.4
18548	4.7806	2.5455	5.e-002	-7.2399
18549	4.7806	2.2727	0.	-4869.5
18550	4.6887	2.3636	0.	-4893.9
18551	4.7806	2.3636	5.e-002	-7.2541
18552	4.7806	2.0909	0.	-4875.8
18553	4.6887	2.1818	0.	-4899.7
18554	4.7806	2.1818	5.e-002	-7.2715
18555	4.7806	1.9091	0.	-4883.3
18556	4.6887	2.	0.	-4906.9
18557	4.7806	2.	5.e-002	-7.2907
18558	4.7806	1.7273	0.	-4891.9
18559	4.6887	1.8182	0.	-4915.3
18560	4.7806	1.8182	5.e-002	-7.3104
18561	4.7806	1.5455	0.	-4901.6
18562	4.6887	1.6364	0.	-4924.8
18563	4.7806	1.6364	5.e-002	-7.3291
18564	4.7806	1.3636	0.	-4912.3
18565	4.6887	1.4545	0.	-4935.4
18566	4.7806	1.4545	5.e-002	-7.345
18567	4.7806	1.1818	0.	-4923.7
18568	4.6887	1.2727	0.	-4946.9
18569	4.7806	1.2727	5.e-002	-7.3566
18570	4.7806	1.	0.	-4935.8
18571	4.6887	1.0909	0.	-4959.1
18572	4.7806	1.0909	5.e-002	-7.3626
18573	4.7806	0.81818	0.	-4948.5
18574	4.6887	0.90909	0.	-4972.
18575	4.7806	0.90909	5.e-002	-7.3617
18576	4.7806	0.63636	0.	-4961.6
18577	4.6887	0.72727	0.	-4985.4
18578	4.7806	0.72727	5.e-002	-7.3531
18579	4.7806	0.45455	0.	-4974.9
18580	4.6887	0.54545	0.	-4999.1
18581	4.7806	0.54545	5.e-002	-7.34
18582	4.7806	0.27273	0.	-4988.6
18583	4.6887	0.36364	0.	-5013.
18584	4.7806	0.36364	5.e-002	-7.3697
18585	4.6887	0.18182	0.	-5027.5
18586	4.7806	0.18182	5.e-002	-8.3059
18587	4.7806	9.0909e-002	0.	-5000.4
18588	4.5968	5.7273	0.	-5052.
18589	4.5048	5.8182	0.	-5091.8
18590	4.5968	5.8182	5.e-002	-8.996
18591	4.5968	5.9091	0.	-5064.6
18592	4.5968	5.5455	0.	-5037.3
18593	4.5048	5.6364	0.	-5076.2
18594	4.5968	5.6364	5.e-002	-7.5862
18595	4.5968	5.3636	0.	-5022.9
18596	4.5048	5.4545	0.	-5061.2
18597	4.5968	5.4545	5.e-002	-7.5301
18598	4.5968	5.1818	0.	-5008.9
18599	4.5048	5.2727	0.	-5046.5
18600	4.5968	5.2727	5.e-002	-7.5429
18601	4.5968	5.	0.	-4995.3
18602	4.5048	5.0909	0.	-5032.1
18603	4.5968	5.0909	5.e-002	-7.5522
18604	4.5968	4.8182	0.	-4982.3
18605	4.5048	4.9091	0.	-5018.3
18606	4.5968	4.9091	5.e-002	-7.5529
18607	4.5968	4.6364	0.	-4970.
18608	4.5048	4.7273	0.	-5005.2
18609	4.5968	4.7273	5.e-002	-7.5459
18610	4.5968	4.4545	0.	-4958.6
18611	4.5048	4.5455	0.	-4992.9
18612	4.5968	4.5455	5.e-002	-7.5325
18613	4.5968	4.2727	0.	-4948.2
18614	4.5048	4.3636	0.	-4981.6
18615	4.5968	4.3636	5.e-002	-7.5142
18616	4.5968	4.0909	0.	-4938.9
18617	4.5048	4.1818	0.	-4971.4
18618	4.5968	4.1818	5.e-002	-7.4929
18619	4.5968	3.9091	0.	-4930.9
18620	4.5048	4.	0.	-4962.4
18621	4.5968	4.	5.e-002	-7.4704
18622	4.5968	3.7273	0.	-4924.1
18623	4.5048	3.8182	0.	-4954.7
18624	4.5968	3.8182	5.e-002	-7.4484
18625	4.5968	3.5455	0.	-4918.8
18626	4.5048	3.6364	0.	-4948.5
18627	4.5968	3.6364	5.e-002	-7.4287
18628	4.5968	3.3636	0.	-4915.
18629	4.5048	3.4545	0.	-4943.7
18630	4.5968	3.4545	5.e-002	-7.4125
18631	4.5968	3.1818	0.	-4912.6
18632	4.5048	3.2727	0.	-4940.5
18633	4.5968	3.2727	5.e-002	-7.4011
18634	4.5968	3.	0.	-4911.9
18635	4.5048	3.0909	0.	-4938.9
18636	4.5968	3.0909	5.e-002	-7.3952
18637	4.5968	2.8182	0.	-4912.6
18638	4.5048	2.9091	0.	-4938.9
18639	4.5968	2.9091	5.e-002	-7.3952
18640	4.5968	2.6364	0.	-4915.
18641	4.5048	2.7273	0.	-4940.5
18642	4.5968	2.7273	5.e-002	-7.4011
18643	4.5968	2.4545	0.	-4918.8
18644	4.5048	2.5455	0.	-4943.7
18645	4.5968	2.5455	5.e-002	-7.4125
18646	4.5968	2.2727	0.	-4924.1
18647	4.5048	2.3636	0.	-4948.5
18648	4.5968	2.3636	5.e-002	-7.4287
18649	4.5968	2.0909	0.	-4930.9
18650	4.5048	2.1818	0.	-4954.7
18651	4.5968	2.1818	5.e-002	-7.4484
18652	4.5968	1.9091	0.	-4938.9
18653	4.5048	2.	0.	-4962.4
18654	4.5968	2.	5.e-002	-7.4704
18655	4.5968	1.7273	0.	-4948.2
18656	4.5048	1.8182	0.	-4971.4
18657	4.5968	1.8182	5.e-002	-7.4929
18658	4.5968	1.5455	0.	-4958.6
18659	4.5048	1.6364	0.	-4981.6
18660	4.5968	1.6364	5.e-002	-7.5143
18661	4.5968	1.3636	0.	-4970.
18662	4.5048	1.4545	0.	-4992.9
18663	4.5968	1.4545	5.e-002	-7.5325
18664	4.5968	1.1818	0.	-4982.3
18665	4.5048	1.2727	0.	-5005.2
18666	4.5968	1.2727	5.e-002	-7.546
18667	4.5968	1.	0.	-4995.3
18668	4.5048	1.0909	0.	-5018.3
18669	4.5968	1.0909	5.e-002	-7.5531
18670	4.5968	0.81818	0.	-5008.9
18671	4.5048	0.90909	0.	-5032.1
18672	4.5968	0.90909	5.e-002	-7.5523
18673	4.5968	0.63636	0.	-5022.9
18674	4.5048	0.72727	0.	-5046.5
18675	4.5968	0.72727	5.e-002	-7.543
18676	4.5968	0.45455	0.	-5037.3
18677	4.5048	0.54545	0.	-5061.2
18678	4.5968	0.54545	5.e-002	-7.5302
18679	4.5968	0.27273	0.	-5052.
18680	4.5048	0.36364	0.	-5076.2
18681	4.5968	0.36364	5.e-002	-7.5863
18682	4.5048	0.18182	0.	-5091.8
18683	4.5968	0.18182	5.e-002	-8.996
18684	4.5968	9.0909e-002	0.	-5064.6
18685	4.4129	5.7273	0.	-5116.
18686	4.321	5.8182	0.	-5156.8
18687	4.4129	5.8182	5.e-002	-9.7352
18688	4.4129	5.9091	0.	-5129.3
18689	4.4129	5.5455	0.	-5100.2
18690	4.321	5.6364	0.	-5139.9
18691	4.4129	5.6364	5.e-002	-7.8199
18692	4.4129	5.3636	0.	-5084.8
18693	4.321	5.4545	0.	-5123.8
18694	4.4129	5.4545	5.e-002	-7.7371
18695	4.4129	5.1818	0.	-5069.7
18696	4.321	5.2727	0.	-5108.
18697	4.4129	5.2727	5.e-002	-7.7504
18698	4.4129	5.	0.	-5055.2
18699	4.321	5.0909	0.	-5092.6
18700	4.4129	5.0909	5.e-002	-7.761
18701	4.4129	4.8182	0.	-5041.2
18702	4.321	4.9091	0.	-5077.8
18703	4.4129	4.9091	5.e-002	-7.762
18704	4.4129	4.6364	0.	-5028.1
18705	4.321	4.7273	0.	-5063.8
18706	4.4129	4.7273	5.e-002	-7.7542
18707	4.4129	4.4545	0.	-5015.9
18708	4.321	4.5455	0.	-5050.7
18709	4.4129	4.5455	5.e-002	-7.7391
18710	4.4129	4.2727	0.	-5004.7
18711	4.321	4.3636	0.	-5038.6
18712	4.4129	4.3636	5.e-002	-7.7186
18713	4.4129	4.0909	0.	-4994.8
18714	4.321	4.1818	0.	-5027.7
18715	4.4129	4.1818	5.e-002	-7.6946
18716	4.4129	3.9091	0.	-4986.2
18717	4.321	4.	0.	-5018.1
18718	4.4129	4.	5.e-002	-7.6693
18719	4.4129	3.7273	0.	-4979.
18720	4.321	3.8182	0.	-5009.9
18721	4.4129	3.8182	5.e-002	-7.6445
18722	4.4129	3.5455	0.	-4973.3
18723	4.321	3.6364	0.	-5003.3
18724	4.4129	3.6364	5.e-002	-7.6222
18725	4.4129	3.3636	0.	-4969.2
18726	4.321	3.4545	0.	-4998.2
18727	4.4129	3.4545	5.e-002	-7.6041
18728	4.4129	3.1818	0.	-4966.8
18729	4.321	3.2727	0.	-4994.8
18730	4.4129	3.2727	5.e-002	-7.5913
18731	4.4129	3.	0.	-4965.9
18732	4.321	3.0909	0.	-4993.1
18733	4.4129	3.0909	5.e-002	-7.5846
18734	4.4129	2.8182	0.	-4966.8
18735	4.321	2.9091	0.	-4993.1
18736	4.4129	2.9091	5.e-002	-7.5846
18737	4.4129	2.6364	0.	-4969.2
18738	4.321	2.7273	0.	-4994.8
18739	4.4129	2.7273	5.e-002	-7.5913
18740	4.4129	2.4545	0.	-4973.3
18741	4.321	2.5455	0.	-4998.2
18742	4.4129	2.5455	5.e-002	-7.6041
18743	4.4129	2.2727	0.	-4979.
18744	4.321	2.3636	0.	-5003.3
18745	4.4129	2.3636	5.e-002	-7.6223
18746	4.4129	2.0909	0.	-4986.2
18747	4.321	2.1818	0.	-5009.9
18748	4.4129	2.1818	5.e-002	-7.6445
18749	4.4129	1.9091	0.	-4994.8
18750	4.321	2.	0.	-5018.1
18751	4.4129	2.	5.e-002	-7.6692
18752	4.4129	1.7273	0.	-5004.7
18753	4.321	1.8182	0.	-5027.7
18754	4.4129	1.8182	5.e-002	-7.6946
18755	4.4129	1.5455	0.	-5015.9
18756	4.321	1.6364	0.	-5038.6
18757	4.4129	1.6364	5.e-002	-7.7187
18758	4.4129	1.3636	0.	-5028.1
18759	4.321	1.4545	0.	-5050.7
18760	4.4129	1.4545	5.e-002	-7.7392
18761	4.4129	1.1818	0.	-5041.2
18762	4.321	1.2727	0.	-5063.8
18763	4.4129	1.2727	5.e-002	-7.7543
18764	4.4129	1.	0.	-5055.2
18765	4.321	1.0909	0.	-5077.8
18766	4.4129	1.0909	5.e-002	-7.7621
18767	4.4129	0.81818	0.	-5069.7
18768	4.321	0.90909	0.	-5092.6
18769	4.4129	0.90909	5.e-002	-7.761
18770	4.4129	0.63636	0.	-5084.8
18771	4.321	0.72727	0.	-5108.
18772	4.4129	0.72727	5.e-002	-7.7504
18773	4.4129	0.45455	0.	-5100.2
18774	4.321	0.54545	0.	-5123.8
18775	4.4129	0.54545	5.e-002	-7.7371
18776	4.4129	0.27273	0.	-5116.
18777	4.321	0.36364	0.	-5139.9
18778	4.4129	0.36364	5.e-002	-7.8201
18779	4.321	0.18182	0.	-5156.8
18780	4.4129	0.18182	5.e-002	-9.7353
18781	4.4129	9.0909e-002	0.	-5129.3
18782	4.229	5.7273	0.	-5180.7
18783	4.1371	5.8182	0.	-5222.3
18784	4.229	5.8182	5.e-002	-10.526
18785	4.229	5.9091	0.	-5194.5
18786	4.229	5.5455	0.	-5163.6
18787	4.1371	5.6364	0.	-5204.1
18788	4.229	5.6364	5.e-002	-8.0719
18789	4.229	5.3636	0.	-5147.1
18790	4.1371	5.4545	0.	-5186.9
18791	4.229	5.4545	5.e-002	-7.9624
18792	4.229	5.1818	0.	-5131.
18793	4.1371	5.2727	0.	-5170.
18794	4.229	5.2727	5.e-002	-7.9771
18795	4.229	5.	0.	-5115.4
18796	4.1371	5.0909	0.	-5153.5
18797	4.229	5.0909	5.e-002	-7.9899
18798	4.229	4.8182	0.	-5100.5
18799	4.1371	4.9091	0.	-5137.7
18800	4.229	4.9091	5.e-002	-7.9919
18801	4.229	4.6364	0.	-5086.4
18802	4.1371	4.7273	0.	-5122.7
18803	4.229	4.7273	5.e-002	-7.9839
18804	4.229	4.4545	0.	-5073.4
18805	4.1371	4.5455	0.	-5108.7
18806	4.229	4.5455	5.e-002	-7.9674
18807	4.229	4.2727	0.	-5061.5
18808	4.1371	4.3636	0.	-5095.9
18809	4.229	4.3636	5.e-002	-7.9447
18810	4.229	4.0909	0.	-5051.
18811	4.1371	4.1818	0.	-5084.3
18812	4.229	4.1818	5.e-002	-7.9182
18813	4.229	3.9091	0.	-5041.8
18814	4.1371	4.	0.	-5074.1
18815	4.229	4.	5.e-002	-7.8899
18816	4.229	3.7273	0.	-5034.2
18817	4.1371	3.8182	0.	-5065.5
18818	4.229	3.8182	5.e-002	-7.8625
18819	4.229	3.5455	0.	-5028.1
18820	4.1371	3.6364	0.	-5058.4
18821	4.229	3.6364	5.e-002	-7.8378
18822	4.229	3.3636	0.	-5023.8
18823	4.1371	3.4545	0.	-5053.1
18824	4.229	3.4545	5.e-002	-7.8177
18825	4.229	3.1818	0.	-5021.2
18826	4.1371	3.2727	0.	-5049.5
18827	4.229	3.2727	5.e-002	-7.8035
18828	4.229	3.	0.	-5020.3
18829	4.1371	3.0909	0.	-5047.7
18830	4.229	3.0909	5.e-002	-7.7962
18831	4.229	2.8182	0.	-5021.2
18832	4.1371	2.9091	0.	-5047.7
18833	4.229	2.9091	5.e-002	-7.7962
18834	4.229	2.6364	0.	-5023.8
18835	4.1371	2.7273	0.	-5049.5
18836	4.229	2.7273	5.e-002	-7.8035
18837	4.229	2.4545	0.	-5028.1
18838	4.1371	2.5455	0.	-5053.1
18839	4.229	2.5455	5.e-002	-7.8177
18840	4.229	2.2727	0.	-5034.2
18841	4.1371	2.3636	0.	-5058.4
18842	4.229	2.3636	5.e-002	-7.8378
18843	4.229	2.0909	0.	-5041.8
18844	4.1371	2.1818	0.	-5065.5
18845	4.229	2.1818	5.e-002	-7.8625
18846	4.229	1.9091	0.	-5051.
18847	4.1371	2.	0.	-5074.1
18848	4.229	2.	5.e-002	-7.89
18849	4.229	1.7273	0.	-5061.5
18850	4.1371	1.8182	0.	-5084.3
18851	4.229	1.8182	5.e-002	-7.9182
18852	4.229	1.5455	0.	-5073.4
18853	4.1371	1.6364	0.	-5095.9
18854	4.229	1.6364	5.e-002	-7.9448
18855	4.229	1.3636	0.	-5086.4
18856	4.1371	1.4545	0.	-5108.7
18857	4.229	1.4545	5.e-002	-7.9674
18858	4.229	1.1818	0.	-5100.5
18859	4.1371	1.2727	0.	-5122.7
18860	4.229	1.2727	5.e-002	-7.9839
18861	4.229	1.	0.	-5115.4
18862	4.1371	1.0909	0.	-5137.7
18863	4.229	1.0909	5.e-002	-7.992
18864	4.229	0.81818	0.	-5131.
18865	4.1371	0.90909	0.	-5153.5
18866	4.229	0.90909	5.e-002	-7.9899
18867	4.229	0.63636	0.	-5147.1
18868	4.1371	0.72727	0.	-5170.
18869	4.229	0.72727	5.e-002	-7.9771
18870	4.229	0.45455	0.	-5163.6
18871	4.1371	0.54545	0.	-5186.9
18872	4.229	0.54545	5.e-002	-7.9624
18873	4.229	0.27273	0.	-5180.7
18874	4.1371	0.36364	0.	-5204.1
18875	4.229	0.36364	5.e-002	-8.072
18876	4.1371	0.18182	0.	-5222.3
18877	4.229	0.18182	5.e-002	-10.526
18878	4.229	9.0909e-002	0.	-5194.5
18879	4.0452	5.7273	0.	-5245.9
18880	3.9532	5.8182	0.	-5288.5
18881	4.0452	5.8182	5.e-002	-11.37
18882	4.0452	5.9091	0.	-5260.3
18883	4.0452	5.5455	0.	-5227.5
18884	3.9532	5.6364	0.	-5268.8
18885	4.0452	5.6364	5.e-002	-8.3432
18886	4.0452	5.3636	0.	-5209.8
18887	3.9532	5.4545	0.	-5250.4
18888	4.0452	5.4545	5.e-002	-8.2076
18889	4.0452	5.1818	0.	-5192.6
18890	3.9532	5.2727	0.	-5232.3
18891	4.0452	5.2727	5.e-002	-8.225
18892	4.0452	5.	0.	-5175.9
18893	3.9532	5.0909	0.	-5214.8
18894	4.0452	5.0909	5.e-002	-8.2412
18895	4.0452	4.8182	0.	-5160.
18896	3.9532	4.9091	0.	-5197.9
18897	4.0452	4.9091	5.e-002	-8.245
18898	4.0452	4.6364	0.	-5145.1
18899	3.9532	4.7273	0.	-5182.
18900	4.0452	4.7273	5.e-002	-8.2373
18901	4.0452	4.4545	0.	-5131.3
18902	3.9532	4.5455	0.	-5167.1
18903	4.0452	4.5455	5.e-002	-8.22
18904	4.0452	4.2727	0.	-5118.7
18905	3.9532	4.3636	0.	-5153.5
18906	4.0452	4.3636	5.e-002	-8.1954
18907	4.0452	4.0909	0.	-5107.5
18908	3.9532	4.1818	0.	-5141.3
18909	4.0452	4.1818	5.e-002	-8.1665
18910	4.0452	3.9091	0.	-5097.8
18911	3.9532	4.	0.	-5130.5
18912	4.0452	4.	5.e-002	-8.1357
18913	4.0452	3.7273	0.	-5089.7
18914	3.9532	3.8182	0.	-5121.4
18915	4.0452	3.8182	5.e-002	-8.1057
18916	4.0452	3.5455	0.	-5083.3
18917	3.9532	3.6364	0.	-5114.
18918	4.0452	3.6364	5.e-002	-8.0788
18919	4.0452	3.3636	0.	-5078.7
18920	3.9532	3.4545	0.	-5108.4
18921	4.0452	3.4545	5.e-002	-8.0568
18922	4.0452	3.1818	0.	-5076.
18923	3.9532	3.2727	0.	-5104.6
18924	4.0452	3.2727	5.e-002	-8.0414
18925	4.0452	3.	0.	-5075.
18926	3.9532	3.0909	0.	-5102.7
18927	4.0452	3.0909	5.e-002	-8.0334
18928	4.0452	2.8182	0.	-5076.
18929	3.9532	2.9091	0.	-5102.7
18930	4.0452	2.9091	5.e-002	-8.0334
18931	4.0452	2.6364	0.	-5078.7
18932	3.9532	2.7273	0.	-5104.6
18933	4.0452	2.7273	5.e-002	-8.0414
18934	4.0452	2.4545	0.	-5083.3
18935	3.9532	2.5455	0.	-5108.4
18936	4.0452	2.5455	5.e-002	-8.0569
18937	4.0452	2.2727	0.	-5089.7
18938	3.9532	2.3636	0.	-5114.
18939	4.0452	2.3636	5.e-002	-8.0788
18940	4.0452	2.0909	0.	-5097.8
18941	3.9532	2.1818	0.	-5121.4
18942	4.0452	2.1818	5.e-002	-8.1058
18943	4.0452	1.9091	0.	-5107.5
18944	3.9532	2.	0.	-5130.5
18945	4.0452	2.	5.e-002	-8.1358
18946	4.0452	1.7273	0.	-5118.7
18947	3.9532	1.8182	0.	-5141.3
18948	4.0452	1.8182	5.e-002	-8.1666
18949	4.0452	1.5455	0.	-5131.3
18950	3.9532	1.6364	0.	-5153.5
18951	4.0452	1.6364	5.e-002	-8.1955
18952	4.0452	1.3636	0.	-5145.1
18953	3.9532	1.4545	0.	-5167.1
18954	4.0452	1.4545	5.e-002	-8.2201
18955	4.0452	1.1818	0.	-5160.
18956	3.9532	1.2727	0.	-5182.
18957	4.0452	1.2727	5.e-002	-8.2374
18958	4.0452	1.	0.	-5175.9
18959	3.9532	1.0909	0.	-5197.9
18960	4.0452	1.0909	5.e-002	-8.2451
18961	4.0452	0.81818	0.	-5192.6
18962	3.9532	0.90909	0.	-5214.8
18963	4.0452	0.90909	5.e-002	-8.2413
18964	4.0452	0.63636	0.	-5209.8
18965	3.9532	0.72727	0.	-5232.3
18966	4.0452	0.72727	5.e-002	-8.2251
18967	4.0452	0.45455	0.	-5227.5
18968	3.9532	0.54545	0.	-5250.4
18969	4.0452	0.54545	5.e-002	-8.2077
18970	4.0452	0.27273	0.	-5245.9
18971	3.9532	0.36364	0.	-5268.8
18972	4.0452	0.36364	5.e-002	-8.3433
18973	3.9532	0.18182	0.	-5288.5
18974	4.0452	0.18182	5.e-002	-11.37
18975	4.0452	9.0909e-002	0.	-5260.3
18976	3.8613	5.7273	0.	-5311.6
18977	3.7694	5.8182	0.	-5355.3
18978	3.8613	5.8182	5.e-002	-12.269
18979	3.8613	5.9091	0.	-5326.5
18980	3.8613	5.5455	0.	-5291.8
18981	3.7694	5.6364	0.	-5334.
18982	3.8613	5.6364	5.e-002	-8.6348
18983	3.8613	5.3636	0.	-5272.9
18984	3.7694	5.4545	0.	-5314.3
18985	3.8613	5.4545	5.e-002	-8.4747
18986	3.8613	5.1818	0.	-5254.5
18987	3.7694	5.2727	0.	-5294.9
18988	3.8613	5.2727	5.e-002	-8.4967
18989	3.8613	5.	0.	-5236.8
18990	3.7694	5.0909	0.	-5276.3
18991	3.8613	5.0909	5.e-002	-8.5177
18992	3.8613	4.8182	0.	-5219.9
18993	3.7694	4.9091	0.	-5258.4
18994	3.8613	4.9091	5.e-002	-8.5245
18995	3.8613	4.6364	0.	-5204.1
18996	3.7694	4.7273	0.	-5241.6
18997	3.8613	4.7273	5.e-002	-8.5179
18998	3.8613	4.4545	0.	-5189.4
18999	3.7694	4.5455	0.	-5225.9
19000	3.8613	4.5455	5.e-002	-8.5002
19001	3.8613	4.2727	0.	-5176.1
19002	3.7694	4.3636	0.	-5211.5
19003	3.8613	4.3636	5.e-002	-8.4744
19004	3.8613	4.0909	0.	-5164.4
19005	3.7694	4.1818	0.	-5198.7
19006	3.8613	4.1818	5.e-002	-8.4434
19007	3.8613	3.9091	0.	-5154.2
19008	3.7694	4.	0.	-5187.4
19009	3.8613	4.	5.e-002	-8.4104
19010	3.8613	3.7273	0.	-5145.7
19011	3.7694	3.8182	0.	-5177.9
19012	3.8613	3.8182	5.e-002	-8.3782
19013	3.8613	3.5455	0.	-5139.
19014	3.7694	3.6364	0.	-5170.2
19015	3.8613	3.6364	5.e-002	-8.3493
19016	3.8613	3.3636	0.	-5134.2
19017	3.7694	3.4545	0.	-5164.4
19018	3.8613	3.4545	5.e-002	-8.3258
19019	3.8613	3.1818	0.	-5131.3
19020	3.7694	3.2727	0.	-5160.4
19021	3.8613	3.2727	5.e-002	-8.3094
19022	3.8613	3.	0.	-5130.4
19023	3.7694	3.0909	0.	-5158.5
19024	3.8613	3.0909	5.e-002	-8.3009
19025	3.8613	2.8182	0.	-5131.3
19026	3.7694	2.9091	0.	-5158.5
19027	3.8613	2.9091	5.e-002	-8.3009
19028	3.8613	2.6364	0.	-5134.2
19029	3.7694	2.7273	0.	-5160.4
19030	3.8613	2.7273	5.e-002	-8.3094
19031	3.8613	2.4545	0.	-5139.
19032	3.7694	2.5455	0.	-5164.4
19033	3.8613	2.5455	5.e-002	-8.3259
19034	3.8613	2.2727	0.	-5145.7
19035	3.7694	2.3636	0.	-5170.2
19036	3.8613	2.3636	5.e-002	-8.3493
19037	3.8613	2.0909	0.	-5154.2
19038	3.7694	2.1818	0.	-5177.9
19039	3.8613	2.1818	5.e-002	-8.3782
19040	3.8613	1.9091	0.	-5164.4
19041	3.7694	2.	0.	-5187.4
19042	3.8613	2.	5.e-002	-8.4104
19043	3.8613	1.7273	0.	-5176.1
19044	3.7694	1.8182	0.	-5198.7
19045	3.8613	1.8182	5.e-002	-8.4434
19046	3.8613	1.5455	0.	-5189.4
19047	3.7694	1.6364	0.	-5211.5
19048	3.8613	1.6364	5.e-002	-8.4744
19049	3.8613	1.3636	0.	-5204.1
19050	3.7694	1.4545	0.	-5225.9
19051	3.8613	1.4545	5.e-002	-8.5002
19052	3.8613	1.1818	0.	-5219.9
19053	3.7694	1.2727	0.	-5241.6
19054	3.8613	1.2727	5.e-002	-8.5179
19055	3.8613	1.	0.	-5236.8
19056	3.7694	1.0909	0.	-5258.4
19057	3.8613	1.0909	5.e-002	-8.5245
19058	3.8613	0.81818	0.	-5254.5
19059	3.7694	0.90909	0.	-5276.3
19060	3.8613	0.90909	5.e-002	-8.5177
19061	3.8613	0.63636	0.	-5272.9
19062	3.7694	0.72727	0.	-5294.9
19063	3.8613	0.72727	5.e-002	-8.4967
19064	3.8613	0.45455	0.	-5291.8
19065	3.7694	0.54545	0.	-5314.3
19066	3.8613	0.54545	5.e-002	-8.4748
19067	3.8613	0.27273	0.	-5311.6
19068	3.7694	0.36364	0.	-5334.
19069	3.8613	0.36364	5.e-002	-8.6349
19070	3.7694	0.18182	0.	-5355.3
19071	3.8613	0.18182	5.e-002	-12.269
19072	3.8613	9.0909e-002	0.	-5326.5
19073	3.6774	5.7273	0.	-5377.7
19074	3.5855	5.8182	0.	-5422.5
19075	3.6774	5.8182	5.e-002	-13.225
19076	3.6774	5.9091	0.	-5393.1
19077	3.6774	5.5455	0.	-5356.5
19078	3.5855	5.6364	0.	-5399.4
19079	3.6774	5.6364	5.e-002	-8.948
19080	3.6774	5.3636	0.	-5336.3
19081	3.5855	5.4545	0.	-5378.4
19082	3.6774	5.4545	5.e-002	-8.7658
19083	3.6774	5.1818	0.	-5316.8
19084	3.5855	5.2727	0.	-5357.8
19085	3.6774	5.2727	5.e-002	-8.7947
19086	3.6774	5.	0.	-5297.9
19087	3.5855	5.0909	0.	-5338.
19088	3.6774	5.0909	5.e-002	-8.8223
19089	3.6774	4.8182	0.	-5280.1
19090	3.5855	4.9091	0.	-5319.1
19091	3.6774	4.9091	5.e-002	-8.8334
19092	3.6774	4.6364	0.	-5263.4
19093	3.5855	4.7273	0.	-5301.4
19094	3.6774	4.7273	5.e-002	-8.829
19095	3.6774	4.4545	0.	-5248.
19096	3.5855	4.5455	0.	-5284.9
19097	3.6774	4.5455	5.e-002	-8.8118
19098	3.6774	4.2727	0.	-5234.1
19099	3.5855	4.3636	0.	-5269.9
19100	3.6774	4.3636	5.e-002	-8.7852
19101	3.6774	4.0909	0.	-5221.7
19102	3.5855	4.1818	0.	-5256.6
19103	3.6774	4.1818	5.e-002	-8.7527
19104	3.6774	3.9091	0.	-5211.1
19105	3.5855	4.	0.	-5244.9
19106	3.6774	4.	5.e-002	-8.718
19107	3.6774	3.7273	0.	-5202.3
19108	3.5855	3.8182	0.	-5235.1
19109	3.6774	3.8182	5.e-002	-8.6843
19110	3.6774	3.5455	0.	-5195.4
19111	3.5855	3.6364	0.	-5227.1
19112	3.6774	3.6364	5.e-002	-8.6541
19113	3.6774	3.3636	0.	-5190.5
19114	3.5855	3.4545	0.	-5221.1
19115	3.6774	3.4545	5.e-002	-8.6297
19116	3.6774	3.1818	0.	-5187.5
19117	3.5855	3.2727	0.	-5217.1
19118	3.6774	3.2727	5.e-002	-8.6125
19119	3.6774	3.	0.	-5186.5
19120	3.5855	3.0909	0.	-5215.1
19121	3.6774	3.0909	5.e-002	-8.6037
19122	3.6774	2.8182	0.	-5187.5
19123	3.5855	2.9091	0.	-5215.1
19124	3.6774	2.9091	5.e-002	-8.6037
19125	3.6774	2.6364	0.	-5190.5
19126	3.5855	2.7273	0.	-5217.1
19127	3.6774	2.7273	5.e-002	-8.6125
19128	3.6774	2.4545	0.	-5195.4
19129	3.5855	2.5455	0.	-5221.1
19130	3.6774	2.5455	5.e-002	-8.6297
19131	3.6774	2.2727	0.	-5202.3
19132	3.5855	2.3636	0.	-5227.1
19133	3.6774	2.3636	5.e-002	-8.6541
19134	3.6774	2.0909	0.	-5211.1
19135	3.5855	2.1818	0.	-5235.1
19136	3.6774	2.1818	5.e-002	-8.6842
19137	3.6774	1.9091	0.	-5221.7
19138	3.5855	2.	0.	-5244.9
19139	3.6774	2.	5.e-002	-8.718
19140	3.6774	1.7273	0.	-5234.1
19141	3.5855	1.8182	0.	-5256.6
19142	3.6774	1.8182	5.e-002	-8.7527
19143	3.6774	1.5455	0.	-5248.
19144	3.5855	1.6364	0.	-5269.9
19145	3.6774	1.6364	5.e-002	-8.7852
19146	3.6774	1.3636	0.	-5263.4
19147	3.5855	1.4545	0.	-5284.9
19148	3.6774	1.4545	5.e-002	-8.8119
19149	3.6774	1.1818	0.	-5280.1
19150	3.5855	1.2727	0.	-5301.4
19151	3.6774	1.2727	5.e-002	-8.8291
19152	3.6774	1.	0.	-5297.9
19153	3.5855	1.0909	0.	-5319.1
19154	3.6774	1.0909	5.e-002	-8.8335
19155	3.6774	0.81818	0.	-5316.8
19156	3.5855	0.90909	0.	-5338.
19157	3.6774	0.90909	5.e-002	-8.8224
19158	3.6774	0.63636	0.	-5336.3
19159	3.5855	0.72727	0.	-5357.8
19160	3.6774	0.72727	5.e-002	-8.7948
19161	3.6774	0.45455	0.	-5356.5
19162	3.5855	0.54545	0.	-5378.4
19163	3.6774	0.54545	5.e-002	-8.7659
19164	3.6774	0.27273	0.	-5377.7
19165	3.5855	0.36364	0.	-5399.4
19166	3.6774	0.36364	5.e-002	-8.948
19167	3.5855	0.18182	0.	-5422.5
19168	3.6774	0.18182	5.e-002	-13.225
19169	3.6774	9.0909e-002	0.	-5393.1
19170	3.4935	5.7273	0.	-5444.2
19171	3.4016	5.8182	0.	-5489.9
19172	3.4935	5.8182	5.e-002	-14.237
19173	3.4935	5.9091	0.	-5459.8
19174	3.4935	5.5455	0.	-5421.4
19175	3.4016	5.6364	0.	-5465.
19176	3.4935	5.6364	5.e-002	-9.2841
19177	3.4935	5.3636	0.	-5399.9
19178	3.4016	5.4545	0.	-5442.5
19179	3.4935	5.4545	5.e-002	-9.0837
19180	3.4935	5.1818	0.	-5379.1
19181	3.4016	5.2727	0.	-5420.8
19182	3.4935	5.2727	5.e-002	-9.1225
19183	3.4935	5.	0.	-5359.3
19184	3.4016	5.0909	0.	-5399.9
19185	3.4935	5.0909	5.e-002	-9.1592
19186	3.4935	4.8182	0.	-5340.5
19187	3.4016	4.9091	0.	-5380.
19188	3.4935	4.9091	5.e-002	-9.1763
19189	3.4935	4.6364	0.	-5323.
19190	3.4016	4.7273	0.	-5361.4
19191	3.4935	4.7273	5.e-002	-9.1751
19192	3.4935	4.4545	0.	-5306.9
19193	3.4016	4.5455	0.	-5344.3
19194	3.4935	4.5455	5.e-002	-9.1592
19195	3.4935	4.2727	0.	-5292.4
19196	3.4016	4.3636	0.	-5328.8
19197	3.4935	4.3636	5.e-002	-9.1325
19198	3.4935	4.0909	0.	-5279.7
19199	3.4016	4.1818	0.	-5315.
19200	3.4935	4.1818	5.e-002	-9.0993
19201	3.4935	3.9091	0.	-5268.8
19202	3.4016	4.	0.	-5303.1
19203	3.4935	4.	5.e-002	-9.0638
19204	3.4935	3.7273	0.	-5259.8
19205	3.4016	3.8182	0.	-5293.1
19206	3.4935	3.8182	5.e-002	-9.0293
19207	3.4935	3.5455	0.	-5252.7
19208	3.4016	3.6364	0.	-5285.
19209	3.4935	3.6364	5.e-002	-8.9987
19210	3.4935	3.3636	0.	-5247.7
19211	3.4016	3.4545	0.	-5279.
19212	3.4935	3.4545	5.e-002	-8.974
19213	3.4935	3.1818	0.	-5244.6
19214	3.4016	3.2727	0.	-5274.9
19215	3.4935	3.2727	5.e-002	-8.9569
19216	3.4935	3.	0.	-5243.6
19217	3.4016	3.0909	0.	-5272.9
19218	3.4935	3.0909	5.e-002	-8.9481
19219	3.4935	2.8182	0.	-5244.6
19220	3.4016	2.9091	0.	-5272.9
19221	3.4935	2.9091	5.e-002	-8.9481
19222	3.4935	2.6364	0.	-5247.7
19223	3.4016	2.7273	0.	-5274.9
19224	3.4935	2.7273	5.e-002	-8.957
19225	3.4935	2.4545	0.	-5252.7
19226	3.4016	2.5455	0.	-5279.
19227	3.4935	2.5455	5.e-002	-8.9741
19228	3.4935	2.2727	0.	-5259.8
19229	3.4016	2.3636	0.	-5285.
19230	3.4935	2.3636	5.e-002	-8.9987
19231	3.4935	2.0909	0.	-5268.8
19232	3.4016	2.1818	0.	-5293.1
19233	3.4935	2.1818	5.e-002	-9.0293
19234	3.4935	1.9091	0.	-5279.7
19235	3.4016	2.	0.	-5303.1
19236	3.4935	2.	5.e-002	-9.0638
19237	3.4935	1.7273	0.	-5292.4
19238	3.4016	1.8182	0.	-5315.
19239	3.4935	1.8182	5.e-002	-9.0994
19240	3.4935	1.5455	0.	-5306.9
19241	3.4016	1.6364	0.	-5328.8
19242	3.4935	1.6364	5.e-002	-9.1325
19243	3.4935	1.3636	0.	-5323.
19244	3.4016	1.4545	0.	-5344.3
19245	3.4935	1.4545	5.e-002	-9.1592
19246	3.4935	1.1818	0.	-5340.5
19247	3.4016	1.2727	0.	-5361.4
19248	3.4935	1.2727	5.e-002	-9.1752
19249	3.4935	1.	0.	-5359.3
19250	3.4016	1.0909	0.	-5380.
19251	3.4935	1.0909	5.e-002	-9.1763
19252	3.4935	0.81818	0.	-5379.1
19253	3.4016	0.90909	0.	-5399.9
19254	3.4935	0.90909	5.e-002	-9.1593
19255	3.4935	0.63636	0.	-5399.9
19256	3.4016	0.72727	0.	-5420.8
19257	3.4935	0.72727	5.e-002	-9.1226
19258	3.4935	0.45455	0.	-5421.4
19259	3.4016	0.54545	0.	-5442.5
19260	3.4935	0.54545	5.e-002	-9.0838
19261	3.4935	0.27273	0.	-5444.2
19262	3.4016	0.36364	0.	-5465.
19263	3.4935	0.36364	5.e-002	-9.2842
19264	3.4016	0.18182	0.	-5489.9
19265	3.4935	0.18182	5.e-002	-14.237
19266	3.4935	9.0909e-002	0.	-5459.8
19267	3.3097	5.7273	0.	-5510.8
19268	3.2177	5.8182	0.	-5557.5
19269	3.3097	5.8182	5.e-002	-15.307
19270	3.3097	5.9091	0.	-5526.6
19271	3.3097	5.5455	0.	-5486.3
19272	3.2177	5.6364	0.	-5530.5
19273	3.3097	5.6364	5.e-002	-9.645
19274	3.3097	5.3636	0.	-5463.5
19275	3.2177	5.4545	0.	-5506.6
19276	3.3097	5.4545	5.e-002	-9.4321
19277	3.3097	5.1818	0.	-5441.6
19278	3.2177	5.2727	0.	-5483.6
19279	3.3097	5.2727	5.e-002	-9.4845
19280	3.3097	5.	0.	-5420.7
19281	3.2177	5.0909	0.	-5461.6
19282	3.3097	5.0909	5.e-002	-9.5329
19283	3.3097	4.8182	0.	-5401.
19284	3.2177	4.9091	0.	-5440.9
19285	3.3097	4.9091	5.e-002	-9.5578
19286	3.3097	4.6364	0.	-5382.8
19287	3.2177	4.7273	0.	-5421.7
19288	3.3097	4.7273	5.e-002	-9.5613
19289	3.3097	4.4545	0.	-5366.2
19290	3.2177	4.5455	0.	-5404.
19291	3.3097	4.5455	5.e-002	-9.5475
19292	3.3097	4.2727	0.	-5351.4
19293	3.2177	4.3636	0.	-5388.2
19294	3.3097	4.3636	5.e-002	-9.5216
19295	3.3097	4.0909	0.	-5338.4
19296	3.2177	4.1818	0.	-5374.2
19297	3.3097	4.1818	5.e-002	-9.4888
19298	3.3097	3.9091	0.	-5327.3
19299	3.2177	4.	0.	-5362.2
19300	3.3097	4.	5.e-002	-9.4535
19301	3.3097	3.7273	0.	-5318.3
19302	3.2177	3.8182	0.	-5352.2
19303	3.3097	3.8182	5.e-002	-9.4195
19304	3.3097	3.5455	0.	-5311.2
19305	3.2177	3.6364	0.	-5344.2
19306	3.3097	3.6364	5.e-002	-9.3897
19307	3.3097	3.3636	0.	-5306.1
19308	3.2177	3.4545	0.	-5338.2
19309	3.3097	3.4545	5.e-002	-9.3661
19310	3.3097	3.1818	0.	-5303.1
19311	3.2177	3.2727	0.	-5334.2
19312	3.3097	3.2727	5.e-002	-9.3497
19313	3.3097	3.	0.	-5302.1
19314	3.2177	3.0909	0.	-5332.2
19315	3.3097	3.0909	5.e-002	-9.3414
19316	3.3097	2.8182	0.	-5303.1
19317	3.2177	2.9091	0.	-5332.2
19318	3.3097	2.9091	5.e-002	-9.3414
19319	3.3097	2.6364	0.	-5306.1
19320	3.2177	2.7273	0.	-5334.2
19321	3.3097	2.7273	5.e-002	-9.3497
19322	3.3097	2.4545	0.	-5311.2
19323	3.2177	2.5455	0.	-5338.2
19324	3.3097	2.5455	5.e-002	-9.3661
19325	3.3097	2.2727	0.	-5318.3
19326	3.2177	2.3636	0.	-5344.2
19327	3.3097	2.3636	5.e-002	-9.3897
19328	3.3097	2.0909	0.	-5327.3
19329	3.2177	2.1818	0.	-5352.2
19330	3.3097	2.1818	5.e-002	-9.4195
19331	3.3097	1.9091	0.	-5338.4
19332	3.2177	2.	0.	-5362.2
19333	3.3097	2.	5.e-002	-9.4535
19334	3.3097	1.7273	0.	-5351.4
19335	3.2177	1.8182	0.	-5374.2
19336	3.3097	1.8182	5.e-002	-9.4888
19337	3.3097	1.5455	0.	-5366.2
19338	3.2177	1.6364	0.	-5388.2
19339	3.3097	1.6364	5.e-002	-9.5216
19340	3.3097	1.3636	0.	-5382.8
19341	3.2177	1.4545	0.	-5404.
19342	3.3097	1.4545	5.e-002	-9.5475
19343	3.3097	1.1818	0.	-5401.
19344	3.2177	1.2727	0.	-5421.7
19345	3.3097	1.2727	5.e-002	-9.5613
19346	3.3097	1.	0.	-5420.7
19347	3.2177	1.0909	0.	-5440.9
19348	3.3097	1.0909	5.e-002	-9.5579
19349	3.3097	0.81818	0.	-5441.6
19350	3.2177	0.90909	0.	-5461.6
19351	3.3097	0.90909	5.e-002	-9.533
19352	3.3097	0.63636	0.	-5463.5
19353	3.2177	0.72727	0.	-5483.6
19354	3.3097	0.72727	5.e-002	-9.4846
19355	3.3097	0.45455	0.	-5486.3
19356	3.2177	0.54545	0.	-5506.6
19357	3.3097	0.54545	5.e-002	-9.4321
19358	3.3097	0.27273	0.	-5510.8
19359	3.2177	0.36364	0.	-5530.5
19360	3.3097	0.36364	5.e-002	-9.6451
19361	3.2177	0.18182	0.	-5557.5
19362	3.3097	0.18182	5.e-002	-15.307
19363	3.3097	9.0909e-002	0.	-5526.6
19364	3.1258	5.7273	0.	-5577.3
19365	3.0339	5.8182	0.	-5624.8
19366	3.1258	5.8182	5.e-002	-16.432
19367	3.1258	5.9091	0.	-5593.
19368	3.1258	5.5455	0.	-5550.9
19369	3.0339	5.6364	0.	-5595.6
19370	3.1258	5.6364	5.e-002	-10.033
19371	3.1258	5.3636	0.	-5526.9
19372	3.0339	5.4545	0.	-5570.3
19373	3.1258	5.4545	5.e-002	-9.8156
19374	3.1258	5.1818	0.	-5503.8
19375	3.0339	5.2727	0.	-5546.1
19376	3.1258	5.2727	5.e-002	-9.8864
19377	3.1258	5.	0.	-5482.
19378	3.0339	5.0909	0.	-5523.2
19379	3.1258	5.0909	5.e-002	-9.9497
19380	3.1258	4.8182	0.	-5461.6
19381	3.0339	4.9091	0.	-5501.7
19382	3.1258	4.9091	5.e-002	-9.9844
19383	3.1258	4.6364	0.	-5442.9
19384	3.0339	4.7273	0.	-5482.
19385	3.1258	4.7273	5.e-002	-9.9935
19386	3.1258	4.4545	0.	-5426.
19387	3.0339	4.5455	0.	-5464.1
19388	3.1258	4.5455	5.e-002	-9.9828
19389	3.1258	4.2727	0.	-5411.
19390	3.0339	4.3636	0.	-5448.2
19391	3.1258	4.3636	5.e-002	-9.9587
19392	3.1258	4.0909	0.	-5398.
19393	3.0339	4.1818	0.	-5434.3
19394	3.1258	4.1818	5.e-002	-9.9273
19395	3.1258	3.9091	0.	-5387.
19396	3.0339	4.	0.	-5422.5
19397	3.1258	4.	5.e-002	-9.8937
19398	3.1258	3.7273	0.	-5378.1
19399	3.0339	3.8182	0.	-5412.7
19400	3.1258	3.8182	5.e-002	-9.862
19401	3.1258	3.5455	0.	-5371.1
19402	3.0339	3.6364	0.	-5405.
19403	3.1258	3.6364	5.e-002	-9.8347
19404	3.1258	3.3636	0.	-5366.2
19405	3.0339	3.4545	0.	-5399.3
19406	3.1258	3.4545	5.e-002	-9.8136
19407	3.1258	3.1818	0.	-5363.3
19408	3.0339	3.2727	0.	-5395.5
19409	3.1258	3.2727	5.e-002	-9.7993
19410	3.1258	3.	0.	-5362.3
19411	3.0339	3.0909	0.	-5393.6
19412	3.1258	3.0909	5.e-002	-9.7922
19413	3.1258	2.8182	0.	-5363.3
19414	3.0339	2.9091	0.	-5393.6
19415	3.1258	2.9091	5.e-002	-9.7922
19416	3.1258	2.6364	0.	-5366.2
19417	3.0339	2.7273	0.	-5395.5
19418	3.1258	2.7273	5.e-002	-9.7993
19419	3.1258	2.4545	0.	-5371.1
19420	3.0339	2.5455	0.	-5399.3
19421	3.1258	2.5455	5.e-002	-9.8137
19422	3.1258	2.2727	0.	-5378.1
19423	3.0339	2.3636	0.	-5405.
19424	3.1258	2.3636	5.e-002	-9.8348
19425	3.1258	2.0909	0.	-5387.
19426	3.0339	2.1818	0.	-5412.7
19427	3.1258	2.1818	5.e-002	-9.862
19428	3.1258	1.9091	0.	-5398.
19429	3.0339	2.	0.	-5422.5
19430	3.1258	2.	5.e-002	-9.8937
19431	3.1258	1.7273	0.	-5411.
19432	3.0339	1.8182	0.	-5434.3
19433	3.1258	1.8182	5.e-002	-9.9273
19434	3.1258	1.5455	0.	-5426.
19435	3.0339	1.6364	0.	-5448.2
19436	3.1258	1.6364	5.e-002	-9.9588
19437	3.1258	1.3636	0.	-5442.9
19438	3.0339	1.4545	0.	-5464.1
19439	3.1258	1.4545	5.e-002	-9.9829
19440	3.1258	1.1818	0.	-5461.6
19441	3.0339	1.2727	0.	-5482.
19442	3.1258	1.2727	5.e-002	-9.9936
19443	3.1258	1.	0.	-5482.
19444	3.0339	1.0909	0.	-5501.7
19445	3.1258	1.0909	5.e-002	-9.9844
19446	3.1258	0.81818	0.	-5503.8
19447	3.0339	0.90909	0.	-5523.2
19448	3.1258	0.90909	5.e-002	-9.9497
19449	3.1258	0.63636	0.	-5526.9
19450	3.0339	0.72727	0.	-5546.1
19451	3.1258	0.72727	5.e-002	-9.8865
19452	3.1258	0.45455	0.	-5550.9
19453	3.0339	0.54545	0.	-5570.3
19454	3.1258	0.54545	5.e-002	-9.8157
19455	3.1258	0.27273	0.	-5577.3
19456	3.0339	0.36364	0.	-5595.6
19457	3.1258	0.36364	5.e-002	-10.033
19458	3.0339	0.18182	0.	-5624.8
19459	3.1258	0.18182	5.e-002	-16.432
19460	3.1258	9.0909e-002	0.	-5593.
19461	2.9419	5.7273	0.	-5643.3
19462	2.85	5.8182	0.	-5691.6
19463	2.9419	5.8182	5.e-002	-17.61
19464	2.9419	5.9091	0.	-5658.7
19465	2.9419	5.5455	0.	-5615.1
19466	2.85	5.6364	0.	-5659.9
19467	2.9419	5.6364	5.e-002	-10.453
19468	2.9419	5.3636	0.	-5589.7
19469	2.85	5.4545	0.	-5633.2
19470	2.9419	5.4545	5.e-002	-10.241
19471	2.9419	5.1818	0.	-5565.6
19472	2.85	5.2727	0.	-5607.9
19473	2.9419	5.2727	5.e-002	-10.336
19474	2.9419	5.	0.	-5543.
19475	2.85	5.0909	0.	-5584.1
19476	2.9419	5.0909	5.e-002	-10.417
19477	2.9419	4.8182	0.	-5522.2
19478	2.85	4.9091	0.	-5562.2
19479	2.9419	4.9091	5.e-002	-10.464
19480	2.9419	4.6364	0.	-5503.2
19481	2.85	4.7273	0.	-5542.3
19482	2.9419	4.7273	5.e-002	-10.48
19483	2.9419	4.4545	0.	-5486.3
19484	2.85	4.5455	0.	-5524.4
19485	2.9419	4.5455	5.e-002	-10.473
19486	2.9419	4.2727	0.	-5471.4
19487	2.85	4.3636	0.	-5508.8
19488	2.9419	4.3636	5.e-002	-10.451
19489	2.9419	4.0909	0.	-5458.7
19490	2.85	4.1818	0.	-5495.4
19491	2.9419	4.1818	5.e-002	-10.422
19492	2.9419	3.9091	0.	-5448.1
19493	2.85	4.	0.	-5484.2
19494	2.9419	4.	5.e-002	-10.392
19495	2.9419	3.7273	0.	-5439.6
19496	2.85	3.8182	0.	-5475.1
19497	2.9419	3.8182	5.e-002	-10.365
19498	2.9419	3.5455	0.	-5433.1
19499	2.85	3.6364	0.	-5468.
19500	2.9419	3.6364	5.e-002	-10.343
19501	2.9419	3.3636	0.	-5428.5
19502	2.85	3.4545	0.	-5462.8
19503	2.9419	3.4545	5.e-002	-10.326
19504	2.9419	3.1818	0.	-5425.7
19505	2.85	3.2727	0.	-5459.3
19506	2.9419	3.2727	5.e-002	-10.315
19507	2.9419	3.	0.	-5424.8
19508	2.85	3.0909	0.	-5457.7
19509	2.9419	3.0909	5.e-002	-10.31
19510	2.9419	2.8182	0.	-5425.7
19511	2.85	2.9091	0.	-5457.7
19512	2.9419	2.9091	5.e-002	-10.31
19513	2.9419	2.6364	0.	-5428.5
19514	2.85	2.7273	0.	-5459.3
19515	2.9419	2.7273	5.e-002	-10.315
19516	2.9419	2.4545	0.	-5433.1
19517	2.85	2.5455	0.	-5462.8
19518	2.9419	2.5455	5.e-002	-10.326
19519	2.9419	2.2727	0.	-5439.6
19520	2.85	2.3636	0.	-5468.
19521	2.9419	2.3636	5.e-002	-10.343
19522	2.9419	2.0909	0.	-5448.1
19523	2.85	2.1818	0.	-5475.1
19524	2.9419	2.1818	5.e-002	-10.365
19525	2.9419	1.9091	0.	-5458.7
19526	2.85	2.	0.	-5484.2
19527	2.9419	2.	5.e-002	-10.392
19528	2.9419	1.7273	0.	-5471.4
19529	2.85	1.8182	0.	-5495.4
19530	2.9419	1.8182	5.e-002	-10.422
19531	2.9419	1.5455	0.	-5486.3
19532	2.85	1.6364	0.	-5508.8
19533	2.9419	1.6364	5.e-002	-10.451
19534	2.9419	1.3636	0.	-5503.2
19535	2.85	1.4545	0.	-5524.4
19536	2.9419	1.4545	5.e-002	-10.473
19537	2.9419	1.1818	0.	-5522.2
19538	2.85	1.2727	0.	-5542.3
19539	2.9419	1.2727	5.e-002	-10.48
19540	2.9419	1.	0.	-5543.
19541	2.85	1.0909	0.	-5562.2
19542	2.9419	1.0909	5.e-002	-10.464
19543	2.9419	0.81818	0.	-5565.6
19544	2.85	0.90909	0.	-5584.1
19545	2.9419	0.90909	5.e-002	-10.418
19546	2.9419	0.63636	0.	-5589.7
19547	2.85	0.72727	0.	-5607.9
19548	2.9419	0.72727	5.e-002	-10.336
19549	2.9419	0.45455	0.	-5615.1
19550	2.85	0.54545	0.	-5633.2
19551	2.9419	0.54545	5.e-002	-10.241
19552	2.9419	0.27273	0.	-5643.3
19553	2.85	0.36364	0.	-5659.9
19554	2.9419	0.36364	5.e-002	-10.453
19555	2.85	0.18182	0.	-5691.6
19556	2.9419	0.18182	5.e-002	-17.611
19557	2.9419	9.0909e-002	0.	-5658.7
19558	2.7581	5.7273	0.	-5708.3
19559	2.6661	5.8182	0.	-5757.1
19560	2.7581	5.8182	5.e-002	-18.837
19561	2.7581	5.9091	0.	-5723.1
19562	2.7581	5.5455	0.	-5678.2
19563	2.6661	5.6364	0.	-5722.9
19564	2.7581	5.6364	5.e-002	-10.909
19565	2.7581	5.3636	0.	-5651.6
19566	2.6661	5.4545	0.	-5694.8
19567	2.7581	5.4545	5.e-002	-10.718
19568	2.7581	5.1818	0.	-5626.6
19569	2.6661	5.2727	0.	-5668.5
19570	2.7581	5.2727	5.e-002	-10.844
19571	2.7581	5.	0.	-5603.5
19572	2.6661	5.0909	0.	-5644.2
19573	2.7581	5.0909	5.e-002	-10.947
19574	2.7581	4.8182	0.	-5582.4
19575	2.6661	4.9091	0.	-5622.1
19576	2.7581	4.9091	5.e-002	-11.006
19577	2.7581	4.6364	0.	-5563.5
19578	2.6661	4.7273	0.	-5602.3
19579	2.7581	4.7273	5.e-002	-11.028
19580	2.7581	4.4545	0.	-5547.
19581	2.6661	4.5455	0.	-5585.
19582	2.7581	4.5455	5.e-002	-11.025
19583	2.7581	4.2727	0.	-5532.8
19584	2.6661	4.3636	0.	-5570.2
19585	2.7581	4.3636	5.e-002	-11.007
19586	2.7581	4.0909	0.	-5520.8
19587	2.6661	4.1818	0.	-5557.8
19588	2.7581	4.1818	5.e-002	-10.983
19589	2.7581	3.9091	0.	-5511.1
19590	2.6661	4.	0.	-5547.7
19591	2.7581	4.	5.e-002	-10.958
19592	2.7581	3.7273	0.	-5503.3
19593	2.6661	3.8182	0.	-5539.7
19594	2.7581	3.8182	5.e-002	-10.938
19595	2.7581	3.5455	0.	-5497.5
19596	2.6661	3.6364	0.	-5533.6
19597	2.7581	3.6364	5.e-002	-10.924
19598	2.7581	3.3636	0.	-5493.5
19599	2.6661	3.4545	0.	-5529.2
19600	2.7581	3.4545	5.e-002	-10.914
19601	2.7581	3.1818	0.	-5491.1
19602	2.6661	3.2727	0.	-5526.4
19603	2.7581	3.2727	5.e-002	-10.909
19604	2.7581	3.	0.	-5490.3
19605	2.6661	3.0909	0.	-5525.
19606	2.7581	3.0909	5.e-002	-10.906
19607	2.7581	2.8182	0.	-5491.1
19608	2.6661	2.9091	0.	-5525.
19609	2.7581	2.9091	5.e-002	-10.906
19610	2.7581	2.6364	0.	-5493.5
19611	2.6661	2.7273	0.	-5526.4
19612	2.7581	2.7273	5.e-002	-10.909
19613	2.7581	2.4545	0.	-5497.5
19614	2.6661	2.5455	0.	-5529.2
19615	2.7581	2.5455	5.e-002	-10.914
19616	2.7581	2.2727	0.	-5503.3
19617	2.6661	2.3636	0.	-5533.6
19618	2.7581	2.3636	5.e-002	-10.924
19619	2.7581	2.0909	0.	-5511.1
19620	2.6661	2.1818	0.	-5539.7
19621	2.7581	2.1818	5.e-002	-10.938
19622	2.7581	1.9091	0.	-5520.8
19623	2.6661	2.	0.	-5547.7
19624	2.7581	2.	5.e-002	-10.959
19625	2.7581	1.7273	0.	-5532.8
19626	2.6661	1.8182	0.	-5557.8
19627	2.7581	1.8182	5.e-002	-10.983
19628	2.7581	1.5455	0.	-5547.
19629	2.6661	1.6364	0.	-5570.2
19630	2.7581	1.6364	5.e-002	-11.007
19631	2.7581	1.3636	0.	-5563.5
19632	2.6661	1.4545	0.	-5585.
19633	2.7581	1.4545	5.e-002	-11.025
19634	2.7581	1.1818	0.	-5582.4
19635	2.6661	1.2727	0.	-5602.3
19636	2.7581	1.2727	5.e-002	-11.028
19637	2.7581	1.	0.	-5603.5
19638	2.6661	1.0909	0.	-5622.1
19639	2.7581	1.0909	5.e-002	-11.006
19640	2.7581	0.81818	0.	-5626.6
19641	2.6661	0.90909	0.	-5644.2
19642	2.7581	0.90909	5.e-002	-10.947
19643	2.7581	0.63636	0.	-5651.6
19644	2.6661	0.72727	0.	-5668.5
19645	2.7581	0.72727	5.e-002	-10.844
19646	2.7581	0.45455	0.	-5678.2
19647	2.6661	0.54545	0.	-5694.8
19648	2.7581	0.54545	5.e-002	-10.718
19649	2.7581	0.27273	0.	-5708.3
19650	2.6661	0.36364	0.	-5722.9
19651	2.7581	0.36364	5.e-002	-10.909
19652	2.6661	0.18182	0.	-5757.1
19653	2.7581	0.18182	5.e-002	-18.837
19654	2.7581	9.0909e-002	0.	-5723.1
19655	2.5742	5.7273	0.	-5771.8
19656	2.4823	5.8182	0.	-5820.8
19657	2.5742	5.8182	5.e-002	-20.105
19658	2.5742	5.9091	0.	-5785.7
19659	2.5742	5.5455	0.	-5739.6
19660	2.4823	5.6364	0.	-5783.7
19661	2.5742	5.6364	5.e-002	-11.412
19662	2.5742	5.3636	0.	-5711.9
19663	2.4823	5.4545	0.	-5754.3
19664	2.5742	5.4545	5.e-002	-11.261
19665	2.5742	5.1818	0.	-5686.2
19666	2.4823	5.2727	0.	-5727.3
19667	2.5742	5.2727	5.e-002	-11.424
19668	2.5742	5.	0.	-5662.9
19669	2.4823	5.0909	0.	-5702.7
19670	2.5742	5.0909	5.e-002	-11.551
19671	2.5742	4.8182	0.	-5642.1
19672	2.4823	4.9091	0.	-5680.9
19673	2.5742	4.9091	5.e-002	-11.623
19674	2.5742	4.6364	0.	-5623.9
19675	2.4823	4.7273	0.	-5662.
19676	2.5742	4.7273	5.e-002	-11.651
19677	2.5742	4.4545	0.	-5608.3
19678	2.4823	4.5455	0.	-5645.9
19679	2.5742	4.5455	5.e-002	-11.651
19680	2.5742	4.2727	0.	-5595.3
19681	2.4823	4.3636	0.	-5632.6
19682	2.5742	4.3636	5.e-002	-11.636
19683	2.5742	4.0909	0.	-5584.7
19684	2.4823	4.1818	0.	-5621.9
19685	2.5742	4.1818	5.e-002	-11.618
19686	2.5742	3.9091	0.	-5576.3
19687	2.4823	4.	0.	-5613.6
19688	2.5742	4.	5.e-002	-11.602
19689	2.5742	3.7273	0.	-5569.8
19690	2.4823	3.8182	0.	-5607.3
19691	2.5742	3.8182	5.e-002	-11.593
19692	2.5742	3.5455	0.	-5565.1
19693	2.4823	3.6364	0.	-5602.7
19694	2.5742	3.6364	5.e-002	-11.589
19695	2.5742	3.3636	0.	-5562.
19696	2.4823	3.4545	0.	-5599.5
19697	2.5742	3.4545	5.e-002	-11.59
19698	2.5742	3.1818	0.	-5560.1
19699	2.4823	3.2727	0.	-5597.6
19700	2.5742	3.2727	5.e-002	-11.592
19701	2.5742	3.	0.	-5559.5
19702	2.4823	3.0909	0.	-5596.6
19703	2.5742	3.0909	5.e-002	-11.594
19704	2.5742	2.8182	0.	-5560.1
19705	2.4823	2.9091	0.	-5596.6
19706	2.5742	2.9091	5.e-002	-11.594
19707	2.5742	2.6364	0.	-5562.
19708	2.4823	2.7273	0.	-5597.6
19709	2.5742	2.7273	5.e-002	-11.592
19710	2.5742	2.4545	0.	-5565.1
19711	2.4823	2.5455	0.	-5599.5
19712	2.5742	2.5455	5.e-002	-11.59
19713	2.5742	2.2727	0.	-5569.8
19714	2.4823	2.3636	0.	-5602.7
19715	2.5742	2.3636	5.e-002	-11.589
19716	2.5742	2.0909	0.	-5576.3
19717	2.4823	2.1818	0.	-5607.3
19718	2.5742	2.1818	5.e-002	-11.593
19719	2.5742	1.9091	0.	-5584.7
19720	2.4823	2.	0.	-5613.6
19721	2.5742	2.	5.e-002	-11.602
19722	2.5742	1.7273	0.	-5595.3
19723	2.4823	1.8182	0.	-5621.9
19724	2.5742	1.8182	5.e-002	-11.618
19725	2.5742	1.5455	0.	-5608.3
19726	2.4823	1.6364	0.	-5632.6
19727	2.5742	1.6364	5.e-002	-11.636
19728	2.5742	1.3636	0.	-5623.9
19729	2.4823	1.4545	0.	-5645.9
19730	2.5742	1.4545	5.e-002	-11.651
19731	2.5742	1.1818	0.	-5642.1
19732	2.4823	1.2727	0.	-5662.
19733	2.5742	1.2727	5.e-002	-11.652
19734	2.5742	1.	0.	-5662.9
19735	2.4823	1.0909	0.	-5680.9
19736	2.5742	1.0909	5.e-002	-11.623
19737	2.5742	0.81818	0.	-5686.2
19738	2.4823	0.90909	0.	-5702.7
19739	2.5742	0.90909	5.e-002	-11.551
19740	2.5742	0.63636	0.	-5711.9
19741	2.4823	0.72727	0.	-5727.3
19742	2.5742	0.72727	5.e-002	-11.424
19743	2.5742	0.45455	0.	-5739.6
19744	2.4823	0.54545	0.	-5754.3
19745	2.5742	0.54545	5.e-002	-11.261
19746	2.5742	0.27273	0.	-5771.8
19747	2.4823	0.36364	0.	-5783.7
19748	2.5742	0.36364	5.e-002	-11.412
19749	2.4823	0.18182	0.	-5820.8
19750	2.5742	0.18182	5.e-002	-20.105
19751	2.5742	9.0909e-002	0.	-5785.7
19752	2.3903	5.7273	0.	-5832.9
19753	2.2984	5.8182	0.	-5881.5
19754	2.3903	5.8182	5.e-002	-21.402
19755	2.3903	5.9091	0.	-5845.3
19756	2.3903	5.5455	0.	-5798.6
19757	2.2984	5.6364	0.	-5841.4
19758	2.3903	5.6364	5.e-002	-11.977
19759	2.3903	5.3636	0.	-5769.9
19760	2.2984	5.4545	0.	-5810.9
19761	2.3903	5.4545	5.e-002	-11.891
19762	2.3903	5.1818	0.	-5743.9
19763	2.2984	5.2727	0.	-5783.4
19764	2.3903	5.2727	5.e-002	-12.098
19765	2.3903	5.	0.	-5720.9
19766	2.2984	5.0909	0.	-5759.2
19767	2.3903	5.0909	5.e-002	-12.251
19768	2.3903	4.8182	0.	-5700.9
19769	2.2984	4.9091	0.	-5738.3
19770	2.3903	4.9091	5.e-002	-12.332
19771	2.3903	4.6364	0.	-5684.
19772	2.2984	4.7273	0.	-5720.9
19773	2.3903	4.7273	5.e-002	-12.363
19774	2.3903	4.4545	0.	-5670.2
19775	2.2984	4.5455	0.	-5706.9
19776	2.3903	4.5455	5.e-002	-12.363
19777	2.3903	4.2727	0.	-5659.1
19778	2.2984	4.3636	0.	-5696.1
19779	2.3903	4.3636	5.e-002	-12.351
19780	2.3903	4.0909	0.	-5650.7
19781	2.2984	4.1818	0.	-5688.
19782	2.3903	4.1818	5.e-002	-12.34
19783	2.3903	3.9091	0.	-5644.4
19784	2.2984	4.	0.	-5682.3
19785	2.3903	4.	5.e-002	-12.337
19786	2.3903	3.7273	0.	-5639.9
19787	2.2984	3.8182	0.	-5678.5
19788	2.3903	3.8182	5.e-002	-12.342
19789	2.3903	3.5455	0.	-5636.8
19790	2.2984	3.6364	0.	-5676.1
19791	2.3903	3.6364	5.e-002	-12.353
19792	2.3903	3.3636	0.	-5634.9
19793	2.2984	3.4545	0.	-5674.6
19794	2.3903	3.4545	5.e-002	-12.367
19795	2.3903	3.1818	0.	-5633.8
19796	2.2984	3.2727	0.	-5673.9
19797	2.3903	3.2727	5.e-002	-12.379
19798	2.3903	3.	0.	-5633.5
19799	2.2984	3.0909	0.	-5673.6
19800	2.3903	3.0909	5.e-002	-12.386
19801	2.3903	2.8182	0.	-5633.8
19802	2.2984	2.9091	0.	-5673.6
19803	2.3903	2.9091	5.e-002	-12.386
19804	2.3903	2.6364	0.	-5634.9
19805	2.2984	2.7273	0.	-5673.9
19806	2.3903	2.7273	5.e-002	-12.379
19807	2.3903	2.4545	0.	-5636.8
19808	2.2984	2.5455	0.	-5674.6
19809	2.3903	2.5455	5.e-002	-12.367
19810	2.3903	2.2727	0.	-5639.9
19811	2.2984	2.3636	0.	-5676.1
19812	2.3903	2.3636	5.e-002	-12.353
19813	2.3903	2.0909	0.	-5644.4
19814	2.2984	2.1818	0.	-5678.5
19815	2.3903	2.1818	5.e-002	-12.342
19816	2.3903	1.9091	0.	-5650.7
19817	2.2984	2.	0.	-5682.3
19818	2.3903	2.	5.e-002	-12.337
19819	2.3903	1.7273	0.	-5659.1
19820	2.2984	1.8182	0.	-5688.
19821	2.3903	1.8182	5.e-002	-12.34
19822	2.3903	1.5455	0.	-5670.2
19823	2.2984	1.6364	0.	-5696.1
19824	2.3903	1.6364	5.e-002	-12.351
19825	2.3903	1.3636	0.	-5684.
19826	2.2984	1.4545	0.	-5706.9
19827	2.3903	1.4545	5.e-002	-12.363
19828	2.3903	1.1818	0.	-5700.9
19829	2.2984	1.2727	0.	-5720.9
19830	2.3903	1.2727	5.e-002	-12.363
19831	2.3903	1.	0.	-5720.9
19832	2.2984	1.0909	0.	-5738.3
19833	2.3903	1.0909	5.e-002	-12.332
19834	2.3903	0.81818	0.	-5743.9
19835	2.2984	0.90909	0.	-5759.2
19836	2.3903	0.90909	5.e-002	-12.251
19837	2.3903	0.63636	0.	-5769.9
19838	2.2984	0.72727	0.	-5783.4
19839	2.3903	0.72727	5.e-002	-12.098
19840	2.3903	0.45455	0.	-5798.6
19841	2.2984	0.54545	0.	-5810.9
19842	2.3903	0.54545	5.e-002	-11.891
19843	2.3903	0.27273	0.	-5832.9
19844	2.2984	0.36364	0.	-5841.4
19845	2.3903	0.36364	5.e-002	-11.977
19846	2.2984	0.18182	0.	-5881.5
19847	2.3903	0.18182	5.e-002	-21.403
19848	2.3903	9.0909e-002	0.	-5845.3
19849	2.2065	5.7273	0.	-5890.3
19850	2.1145	5.8182	0.	-5937.9
19851	2.2065	5.8182	5.e-002	-22.715
19852	2.2065	5.9091	0.	-5900.8
19853	2.2065	5.5455	0.	-5853.9
19854	2.1145	5.6364	0.	-5894.6
19855	2.2065	5.6364	5.e-002	-12.628
19856	2.2065	5.3636	0.	-5824.6
19857	2.1145	5.4545	0.	-5863.2
19858	2.2065	5.4545	5.e-002	-12.638
19859	2.2065	5.1818	0.	-5798.8
19860	2.1145	5.2727	0.	-5835.8
19861	2.2065	5.2727	5.e-002	-12.896
19862	2.2065	5.	0.	-5776.7
19863	2.1145	5.0909	0.	-5812.6
19864	2.2065	5.0909	5.e-002	-13.07
19865	2.2065	4.8182	0.	-5758.4
19866	2.1145	4.9091	0.	-5793.6
19867	2.2065	4.9091	5.e-002	-13.154
19868	2.2065	4.6364	0.	-5743.8
19869	2.1145	4.7273	0.	-5778.9
19870	2.2065	4.7273	5.e-002	-13.18
19871	2.2065	4.4545	0.	-5732.8
19872	2.1145	4.5455	0.	-5768.2
19873	2.2065	4.5455	5.e-002	-13.175
19874	2.2065	4.2727	0.	-5724.8
19875	2.1145	4.3636	0.	-5761.
19876	2.2065	4.3636	5.e-002	-13.165
19877	2.2065	4.0909	0.	-5719.5
19878	2.1145	4.1818	0.	-5756.7
19879	2.2065	4.1818	5.e-002	-13.164
19880	2.2065	3.9091	0.	-5716.2
19881	2.1145	4.	0.	-5754.8
19882	2.2065	4.	5.e-002	-13.175
19883	2.2065	3.7273	0.	-5714.4
19884	2.1145	3.8182	0.	-5754.3
19885	2.2065	3.8182	5.e-002	-13.199
19886	2.2065	3.5455	0.	-5713.6
19887	2.1145	3.6364	0.	-5754.9
19888	2.2065	3.6364	5.e-002	-13.229
19889	2.2065	3.3636	0.	-5713.4
19890	2.1145	3.4545	0.	-5755.8
19891	2.2065	3.4545	5.e-002	-13.259
19892	2.2065	3.1818	0.	-5713.4
19893	2.1145	3.2727	0.	-5756.7
19894	2.2065	3.2727	5.e-002	-13.283
19895	2.2065	3.	0.	-5713.4
19896	2.1145	3.0909	0.	-5757.2
19897	2.2065	3.0909	5.e-002	-13.296
19898	2.2065	2.8182	0.	-5713.4
19899	2.1145	2.9091	0.	-5757.2
19900	2.2065	2.9091	5.e-002	-13.296
19901	2.2065	2.6364	0.	-5713.4
19902	2.1145	2.7273	0.	-5756.7
19903	2.2065	2.7273	5.e-002	-13.283
19904	2.2065	2.4545	0.	-5713.6
19905	2.1145	2.5455	0.	-5755.8
19906	2.2065	2.5455	5.e-002	-13.259
19907	2.2065	2.2727	0.	-5714.4
19908	2.1145	2.3636	0.	-5754.9
19909	2.2065	2.3636	5.e-002	-13.229
19910	2.2065	2.0909	0.	-5716.2
19911	2.1145	2.1818	0.	-5754.3
19912	2.2065	2.1818	5.e-002	-13.199
19913	2.2065	1.9091	0.	-5719.5
19914	2.1145	2.	0.	-5754.8
19915	2.2065	2.	5.e-002	-13.175
19916	2.2065	1.7273	0.	-5724.8
19917	2.1145	1.8182	0.	-5756.7
19918	2.2065	1.8182	5.e-002	-13.164
19919	2.2065	1.5455	0.	-5732.8
19920	2.1145	1.6364	0.	-5761.
19921	2.2065	1.6364	5.e-002	-13.166
19922	2.2065	1.3636	0.	-5743.8
19923	2.1145	1.4545	0.	-5768.2
19924	2.2065	1.4545	5.e-002	-13.175
19925	2.2065	1.1818	0.	-5758.4
19926	2.1145	1.2727	0.	-5778.9
19927	2.2065	1.2727	5.e-002	-13.18
19928	2.2065	1.	0.	-5776.7
19929	2.1145	1.0909	0.	-5793.6
19930	2.2065	1.0909	5.e-002	-13.154
19931	2.2065	0.81818	0.	-5798.8
19932	2.1145	0.90909	0.	-5812.6
19933	2.2065	0.90909	5.e-002	-13.07
19934	2.2065	0.63636	0.	-5824.6
19935	2.1145	0.72727	0.	-5835.8
19936	2.2065	0.72727	5.e-002	-12.896
19937	2.2065	0.45455	0.	-5853.9
19938	2.1145	0.54545	0.	-5863.2
19939	2.2065	0.54545	5.e-002	-12.638
19940	2.2065	0.27273	0.	-5890.3
19941	2.1145	0.36364	0.	-5894.6
19942	2.2065	0.36364	5.e-002	-12.628
19943	2.1145	0.18182	0.	-5937.9
19944	2.2065	0.18182	5.e-002	-22.715
19945	2.2065	9.0909e-002	0.	-5900.8
19946	2.0226	5.7273	0.	-5942.5
19947	1.9306	5.8182	0.	-5988.1
19948	2.0226	5.8182	5.e-002	-24.02
19949	2.0226	5.9091	0.	-5950.5
19950	2.0226	5.5455	0.	-5904.1
19951	1.9306	5.6364	0.	-5941.4
19952	2.0226	5.6364	5.e-002	-13.406
19953	2.0226	5.3636	0.	-5874.6
19954	1.9306	5.4545	0.	-5909.5
19955	2.0226	5.4545	5.e-002	-13.551
19956	2.0226	5.1818	0.	-5849.7
19957	1.9306	5.2727	0.	-5883.
19958	2.0226	5.2727	5.e-002	-13.859
19959	2.0226	5.	0.	-5829.6
19960	1.9306	5.0909	0.	-5861.9
19961	2.0226	5.0909	5.e-002	-14.043
19962	2.0226	4.8182	0.	-5814.2
19963	1.9306	4.9091	0.	-5846.2
19964	2.0226	4.9091	5.e-002	-14.116
19965	2.0226	4.6364	0.	-5803.2
19966	1.9306	4.7273	0.	-5835.7
19967	2.0226	4.7273	5.e-002	-14.123
19968	2.0226	4.4545	0.	-5796.3
19969	1.9306	4.5455	0.	-5829.8
19970	2.0226	4.5455	5.e-002	-14.107
19971	2.0226	4.2727	0.	-5792.8
19972	1.9306	4.3636	0.	-5827.9
19973	2.0226	4.3636	5.e-002	-14.096
19974	2.0226	4.0909	0.	-5791.8
19975	1.9306	4.1818	0.	-5828.9
19976	2.0226	4.1818	5.e-002	-14.105
19977	2.0226	3.9091	0.	-5792.7
19978	1.9306	4.	0.	-5832.
19979	2.0226	4.	5.e-002	-14.136
19980	2.0226	3.7273	0.	-5794.6
19981	1.9306	3.8182	0.	-5836.1
19982	2.0226	3.8182	5.e-002	-14.182
19983	2.0226	3.5455	0.	-5796.8
19984	1.9306	3.6364	0.	-5840.5
19985	2.0226	3.6364	5.e-002	-14.234
19986	2.0226	3.3636	0.	-5798.8
19987	1.9306	3.4545	0.	-5844.4
19988	2.0226	3.4545	5.e-002	-14.283
19989	2.0226	3.1818	0.	-5800.2
19990	1.9306	3.2727	0.	-5847.3
19991	2.0226	3.2727	5.e-002	-14.32
19992	2.0226	3.	0.	-5800.6
19993	1.9306	3.0909	0.	-5848.9
19994	2.0226	3.0909	5.e-002	-14.341
19995	2.0226	2.8182	0.	-5800.2
19996	1.9306	2.9091	0.	-5848.9
19997	2.0226	2.9091	5.e-002	-14.341
19998	2.0226	2.6364	0.	-5798.8
19999	1.9306	2.7273	0.	-5847.3
20000	2.0226	2.7273	5.e-002	-14.32
20001	2.0226	2.4545	0.	-5796.8
20002	1.9306	2.5455	0.	-5844.4
20003	2.0226	2.5455	5.e-002	-14.283
20004	2.0226	2.2727	0.	-5794.6
20005	1.9306	2.3636	0.	-5840.5
20006	2.0226	2.3636	5.e-002	-14.234
20007	2.0226	2.0909	0.	-5792.7
20008	1.9306	2.1818	0.	-5836.1
20009	2.0226	2.1818	5.e-002	-14.182
20010	2.0226	1.9091	0.	-5791.8
20011	1.9306	2.	0.	-5832.
20012	2.0226	2.	5.e-002	-14.136
20013	2.0226	1.7273	0.	-5792.8
20014	1.9306	1.8182	0.	-5828.9
20015	2.0226	1.8182	5.e-002	-14.105
20016	2.0226	1.5455	0.	-5796.3
20017	1.9306	1.6364	0.	-5827.9
20018	2.0226	1.6364	5.e-002	-14.096
20019	2.0226	1.3636	0.	-5803.2
20020	1.9306	1.4545	0.	-5829.8
20021	2.0226	1.4545	5.e-002	-14.107
20022	2.0226	1.1818	0.	-5814.2
20023	1.9306	1.2727	0.	-5835.7
20024	2.0226	1.2727	5.e-002	-14.123
20025	2.0226	1.	0.	-5829.6
20026	1.9306	1.0909	0.	-5846.2
20027	2.0226	1.0909	5.e-002	-14.116
20028	2.0226	0.81818	0.	-5849.7
20029	1.9306	0.90909	0.	-5861.9
20030	2.0226	0.90909	5.e-002	-14.043
20031	2.0226	0.63636	0.	-5874.6
20032	1.9306	0.72727	0.	-5883.
20033	2.0226	0.72727	5.e-002	-13.859
20034	2.0226	0.45455	0.	-5904.1
20035	1.9306	0.54545	0.	-5909.5
20036	2.0226	0.54545	5.e-002	-13.551
20037	2.0226	0.27273	0.	-5942.5
20038	1.9306	0.36364	0.	-5941.4
20039	2.0226	0.36364	5.e-002	-13.406
20040	1.9306	0.18182	0.	-5988.1
20041	2.0226	0.18182	5.e-002	-24.02
20042	2.0226	9.0909e-002	0.	-5950.5
20043	1.8387	5.7273	0.	-5987.3
20044	1.7468	5.8182	0.	-6029.3
20045	1.8387	5.8182	5.e-002	-25.287
20046	1.8387	5.9091	0.	-5991.9
20047	1.8387	5.5455	0.	-5947.
20048	1.7468	5.6364	0.	-5979.2
20049	1.8387	5.6364	5.e-002	-14.378
20050	1.8387	5.3636	0.	-5918.1
20051	1.7468	5.4545	0.	-5947.5
20052	1.8387	5.4545	5.e-002	-14.698
20053	1.8387	5.1818	0.	-5895.3
20054	1.7468	5.2727	0.	-5923.
20055	1.8387	5.2727	5.e-002	-15.047
20056	1.8387	5.	0.	-5878.5
20057	1.7468	5.0909	0.	-5905.6
20058	1.8387	5.0909	5.e-002	-15.217
20059	1.8387	4.8182	0.	-5867.6
20060	1.7468	4.9091	0.	-5895.1
20061	1.8387	4.9091	5.e-002	-15.25
20062	1.8387	4.6364	0.	-5862.1
20063	1.7468	4.7273	0.	-5890.9
20064	1.8387	4.7273	5.e-002	-15.219
20065	1.8387	4.4545	0.	-5861.2
20066	1.7468	4.5455	0.	-5892.1
20067	1.8387	4.5455	5.e-002	-15.179
20068	1.8387	4.2727	0.	-5863.8
20069	1.7468	4.3636	0.	-5897.5
20070	1.8387	4.3636	5.e-002	-15.165
20071	1.8387	4.0909	0.	-5868.8
20072	1.7468	4.1818	0.	-5905.7
20073	1.8387	4.1818	5.e-002	-15.186
20074	1.8387	3.9091	0.	-5875.1
20075	1.7468	4.	0.	-5915.4
20076	1.8387	4.	5.e-002	-15.238
20077	1.8387	3.7273	0.	-5881.8
20078	1.7468	3.8182	0.	-5925.3
20079	1.8387	3.8182	5.e-002	-15.309
20080	1.8387	3.5455	0.	-5887.8
20081	1.7468	3.6364	0.	-5934.6
20082	1.8387	3.6364	5.e-002	-15.385
20083	1.8387	3.3636	0.	-5892.7
20084	1.7468	3.4545	0.	-5942.2
20085	1.8387	3.4545	5.e-002	-15.454
20086	1.8387	3.1818	0.	-5895.8
20087	1.7468	3.2727	0.	-5947.6
20088	1.8387	3.2727	5.e-002	-15.504
20089	1.8387	3.	0.	-5896.8
20090	1.7468	3.0909	0.	-5950.5
20091	1.8387	3.0909	5.e-002	-15.531
20092	1.8387	2.8182	0.	-5895.8
20093	1.7468	2.9091	0.	-5950.5
20094	1.8387	2.9091	5.e-002	-15.531
20095	1.8387	2.6364	0.	-5892.7
20096	1.7468	2.7273	0.	-5947.6
20097	1.8387	2.7273	5.e-002	-15.504
20098	1.8387	2.4545	0.	-5887.8
20099	1.7468	2.5455	0.	-5942.2
20100	1.8387	2.5455	5.e-002	-15.454
20101	1.8387	2.2727	0.	-5881.8
20102	1.7468	2.3636	0.	-5934.6
20103	1.8387	2.3636	5.e-002	-15.385
20104	1.8387	2.0909	0.	-5875.1
20105	1.7468	2.1818	0.	-5925.3
20106	1.8387	2.1818	5.e-002	-15.309
20107	1.8387	1.9091	0.	-5868.8
20108	1.7468	2.	0.	-5915.4
20109	1.8387	2.	5.e-002	-15.238
20110	1.8387	1.7273	0.	-5863.8
20111	1.7468	1.8182	0.	-5905.7
20112	1.8387	1.8182	5.e-002	-15.186
20113	1.8387	1.5455	0.	-5861.2
20114	1.7468	1.6364	0.	-5897.5
20115	1.8387	1.6364	5.e-002	-15.165
20116	1.8387	1.3636	0.	-5862.1
20117	1.7468	1.4545	0.	-5892.1
20118	1.8387	1.4545	5.e-002	-15.179
20119	1.8387	1.1818	0.	-5867.6
20120	1.7468	1.2727	0.	-5890.9
20121	1.8387	1.2727	5.e-002	-15.219
20122	1.8387	1.	0.	-5878.5
20123	1.7468	1.0909	0.	-5895.1
20124	1.8387	1.0909	5.e-002	-15.25
20125	1.8387	0.81818	0.	-5895.3
20126	1.7468	0.90909	0.	-5905.6
20127	1.8387	0.90909	5.e-002	-15.217
20128	1.8387	0.63636	0.	-5918.1
20129	1.7468	0.72727	0.	-5923.
20130	1.8387	0.72727	5.e-002	-15.047
20131	1.8387	0.45455	0.	-5947.
20132	1.7468	0.54545	0.	-5947.5
20133	1.8387	0.54545	5.e-002	-14.698
20134	1.8387	0.27273	0.	-5987.3
20135	1.7468	0.36364	0.	-5979.2
20136	1.8387	0.36364	5.e-002	-14.378
20137	1.7468	0.18182	0.	-6029.4
20138	1.8387	0.18182	5.e-002	-25.287
20139	1.8387	9.0909e-002	0.	-5991.9
20140	1.6548	5.7273	0.	-6021.6
20141	1.5629	5.8182	0.	-6058.
20142	1.6548	5.8182	5.e-002	-26.474
20143	1.6548	5.9091	0.	-6021.8
20144	1.6548	5.5455	0.	-5979.9
20145	1.5629	5.6364	0.	-6004.3
20146	1.6548	5.6364	5.e-002	-15.654
20147	1.6548	5.3636	0.	-5952.7
20148	1.5629	5.4545	0.	-5974.
20149	1.6548	5.4545	5.e-002	-16.187
20150	1.6548	5.1818	0.	-5933.5
20151	1.5629	5.2727	0.	-5953.4
20152	1.6548	5.2727	5.e-002	-16.544
20153	1.6548	5.	0.	-5922.2
20154	1.5629	5.0909	0.	-5942.2
20155	1.6548	5.0909	5.e-002	-16.649
20156	1.6548	4.8182	0.	-5918.3
20157	1.5629	4.9091	0.	-5939.6
20158	1.6548	4.9091	5.e-002	-16.598
20159	1.6548	4.6364	0.	-5920.7
20160	1.5629	4.7273	0.	-5944.7
20161	1.6548	4.7273	5.e-002	-16.498
20162	1.6548	4.4545	0.	-5928.1
20163	1.5629	4.5455	0.	-5955.8
20164	1.6548	4.5455	5.e-002	-16.421
20165	1.6548	4.2727	0.	-5939.1
20166	1.5629	4.3636	0.	-5971.1
20167	1.6548	4.3636	5.e-002	-16.398
20168	1.6548	4.0909	0.	-5951.9
20169	1.5629	4.1818	0.	-5988.6
20170	1.6548	4.1818	5.e-002	-16.432
20171	1.6548	3.9091	0.	-5965.2
20172	1.5629	4.	0.	-6006.7
20173	1.6548	4.	5.e-002	-16.506
20174	1.6548	3.7273	0.	-5977.8
20175	1.5629	3.8182	0.	-6023.9
20176	1.6548	3.8182	5.e-002	-16.602
20177	1.6548	3.5455	0.	-5988.6
20178	1.5629	3.6364	0.	-6039.
20179	1.6548	3.6364	5.e-002	-16.7
20180	1.6548	3.3636	0.	-5996.9
20181	1.5629	3.4545	0.	-6051.1
20182	1.6548	3.4545	5.e-002	-16.785
20183	1.6548	3.1818	0.	-6002.
20184	1.5629	3.2727	0.	-6059.5
20185	1.6548	3.2727	5.e-002	-16.846
20186	1.6548	3.	0.	-6003.8
20187	1.5629	3.0909	0.	-6063.8
20188	1.6548	3.0909	5.e-002	-16.878
20189	1.6548	2.8182	0.	-6002.
20190	1.5629	2.9091	0.	-6063.8
20191	1.6548	2.9091	5.e-002	-16.878
20192	1.6548	2.6364	0.	-5996.9
20193	1.5629	2.7273	0.	-6059.5
20194	1.6548	2.7273	5.e-002	-16.846
20195	1.6548	2.4545	0.	-5988.6
20196	1.5629	2.5455	0.	-6051.1
20197	1.6548	2.5455	5.e-002	-16.785
20198	1.6548	2.2727	0.	-5977.8
20199	1.5629	2.3636	0.	-6039.
20200	1.6548	2.3636	5.e-002	-16.7
20201	1.6548	2.0909	0.	-5965.2
20202	1.5629	2.1818	0.	-6023.9
20203	1.6548	2.1818	5.e-002	-16.602
20204	1.6548	1.9091	0.	-5951.9
20205	1.5629	2.	0.	-6006.7
20206	1.6548	2.	5.e-002	-16.507
20207	1.6548	1.7273	0.	-5939.1
20208	1.5629	1.8182	0.	-5988.6
20209	1.6548	1.8182	5.e-002	-16.432
20210	1.6548	1.5455	0.	-5928.1
20211	1.5629	1.6364	0.	-5971.1
20212	1.6548	1.6364	5.e-002	-16.398
20213	1.6548	1.3636	0.	-5920.7
20214	1.5629	1.4545	0.	-5955.8
20215	1.6548	1.4545	5.e-002	-16.421
20216	1.6548	1.1818	0.	-5918.3
20217	1.5629	1.2727	0.	-5944.7
20218	1.6548	1.2727	5.e-002	-16.498
20219	1.6548	1.	0.	-5922.2
20220	1.5629	1.0909	0.	-5939.6
20221	1.6548	1.0909	5.e-002	-16.598
20222	1.6548	0.81818	0.	-5933.5
20223	1.5629	0.90909	0.	-5942.2
20224	1.6548	0.90909	5.e-002	-16.649
20225	1.6548	0.63636	0.	-5952.7
20226	1.5629	0.72727	0.	-5953.4
20227	1.6548	0.72727	5.e-002	-16.544
20228	1.6548	0.45455	0.	-5979.9
20229	1.5629	0.54545	0.	-5974.
20230	1.6548	0.54545	5.e-002	-16.187
20231	1.6548	0.27273	0.	-6021.6
20232	1.5629	0.36364	0.	-6004.3
20233	1.6548	0.36364	5.e-002	-15.654
20234	1.5629	0.18182	0.	-6058.
20235	1.6548	0.18182	5.e-002	-26.474
20236	1.6548	9.0909e-002	0.	-6021.8
20237	1.471	5.7273	0.	-6041.1
20238	1.379	5.8182	0.	-6068.4
20239	1.471	5.8182	5.e-002	-27.53
20240	1.471	5.9091	0.	-6035.6
20241	1.471	5.5455	0.	-5998.8
20242	1.379	5.6364	0.	-6011.7
20243	1.471	5.6364	5.e-002	-17.417
20244	1.471	5.3636	0.	-5975.1
20245	1.379	5.4545	0.	-5984.8
20246	1.471	5.4545	5.e-002	-18.175
20247	1.471	5.1818	0.	-5962.2
20248	1.379	5.2727	0.	-5971.1
20249	1.471	5.2727	5.e-002	-18.461
20250	1.471	5.	0.	-5959.5
20251	1.379	5.0909	0.	-5969.7
20252	1.471	5.0909	5.e-002	-18.413
20253	1.471	4.8182	0.	-5965.9
20254	1.379	4.9091	0.	-5979.3
20255	1.471	4.9091	5.e-002	-18.209
20256	1.471	4.6364	0.	-5979.6
20257	1.379	4.7273	0.	-5997.7
20258	1.471	4.7273	5.e-002	-17.999
20259	1.471	4.4545	0.	-5998.4
20260	1.379	4.5455	0.	-6022.4
20261	1.471	4.5455	5.e-002	-17.867
20262	1.471	4.2727	0.	-6020.3
20263	1.379	4.3636	0.	-6050.7
20264	1.471	4.3636	5.e-002	-17.832
20265	1.471	4.0909	0.	-6043.1
20266	1.379	4.1818	0.	-6080.1
20267	1.471	4.1818	5.e-002	-17.876
20268	1.471	3.9091	0.	-6065.1
20269	1.379	4.	0.	-6108.5
20270	1.471	4.	5.e-002	-17.97
20271	1.471	3.7273	0.	-6084.8
20272	1.379	3.8182	0.	-6134.3
20273	1.471	3.8182	5.e-002	-18.084
20274	1.471	3.5455	0.	-6101.2
20275	1.379	3.6364	0.	-6156.2
20276	1.471	3.6364	5.e-002	-18.195
20277	1.471	3.3636	0.	-6113.5
20278	1.379	3.4545	0.	-6173.3
20279	1.471	3.4545	5.e-002	-18.288
20280	1.471	3.1818	0.	-6121.
20281	1.379	3.2727	0.	-6185.1
20282	1.471	3.2727	5.e-002	-18.354
20283	1.471	3.	0.	-6123.6
20284	1.379	3.0909	0.	-6191.
20285	1.471	3.0909	5.e-002	-18.388
20286	1.471	2.8182	0.	-6121.
20287	1.379	2.9091	0.	-6191.
20288	1.471	2.9091	5.e-002	-18.388
20289	1.471	2.6364	0.	-6113.5
20290	1.379	2.7273	0.	-6185.1
20291	1.471	2.7273	5.e-002	-18.354
20292	1.471	2.4545	0.	-6101.2
20293	1.379	2.5455	0.	-6173.3
20294	1.471	2.5455	5.e-002	-18.288
20295	1.471	2.2727	0.	-6084.8
20296	1.379	2.3636	0.	-6156.2
20297	1.471	2.3636	5.e-002	-18.195
20298	1.471	2.0909	0.	-6065.1
20299	1.379	2.1818	0.	-6134.3
20300	1.471	2.1818	5.e-002	-18.084
20301	1.471	1.9091	0.	-6043.1
20302	1.379	2.	0.	-6108.5
20303	1.471	2.	5.e-002	-17.97
20304	1.471	1.7273	0.	-6020.3
20305	1.379	1.8182	0.	-6080.1
20306	1.471	1.8182	5.e-002	-17.876
20307	1.471	1.5455	0.	-5998.4
20308	1.379	1.6364	0.	-6050.7
20309	1.471	1.6364	5.e-002	-17.832
20310	1.471	1.3636	0.	-5979.6
20311	1.379	1.4545	0.	-6022.4
20312	1.471	1.4545	5.e-002	-17.867
20313	1.471	1.1818	0.	-5965.9
20314	1.379	1.2727	0.	-5997.7
20315	1.471	1.2727	5.e-002	-17.999
20316	1.471	1.	0.	-5959.5
20317	1.379	1.0909	0.	-5979.3
20318	1.471	1.0909	5.e-002	-18.209
20319	1.471	0.81818	0.	-5962.2
20320	1.379	0.90909	0.	-5969.7
20321	1.471	0.90909	5.e-002	-18.413
20322	1.471	0.63636	0.	-5975.1
20323	1.379	0.72727	0.	-5971.1
20324	1.471	0.72727	5.e-002	-18.461
20325	1.471	0.45455	0.	-5998.8
20326	1.379	0.54545	0.	-5984.8
20327	1.471	0.54545	5.e-002	-18.175
20328	1.471	0.27273	0.	-6041.1
20329	1.379	0.36364	0.	-6011.7
20330	1.471	0.36364	5.e-002	-17.417
20331	1.379	0.18182	0.	-6068.4
20332	1.471	0.18182	5.e-002	-27.53
20333	1.471	9.0909e-002	0.	-6035.6
20334	1.2871	5.7273	0.	-6039.5
20335	1.1952	5.8182	0.	-6052.5
20336	1.2871	5.8182	5.e-002	-28.399
20337	1.2871	5.9091	0.	-6026.2
20338	1.2871	5.5455	0.	-5998.2
20339	1.1952	5.6364	0.	-5994.
20340	1.2871	5.6364	5.e-002	-19.961
20341	1.2871	5.3636	0.	-5981.
20342	1.1952	5.4545	0.	-5973.9
20343	1.2871	5.4545	5.e-002	-20.891
20344	1.2871	5.1818	0.	-5978.6
20345	1.1952	5.2727	0.	-5972.1
20346	1.2871	5.2727	5.e-002	-20.947
20347	1.2871	5.	0.	-5989.2
20348	1.1952	5.0909	0.	-5986.5
20349	1.2871	5.0909	5.e-002	-20.593
20350	1.2871	4.8182	0.	-6010.7
20351	1.1952	4.9091	0.	-6014.3
20352	1.2871	4.9091	5.e-002	-20.134
20353	1.2871	4.6364	0.	-6040.1
20354	1.1952	4.7273	0.	-6051.7
20355	1.2871	4.7273	5.e-002	-19.768
20356	1.2871	4.4545	0.	-6074.3
20357	1.1952	4.5455	0.	-6094.7
20358	1.2871	4.5455	5.e-002	-19.565
20359	1.2871	4.2727	0.	-6110.1
20360	1.1952	4.3636	0.	-6139.6
20361	1.2871	4.3636	5.e-002	-19.511
20362	1.2871	4.0909	0.	-6145.1
20363	1.1952	4.1818	0.	-6183.5
20364	1.2871	4.1818	5.e-002	-19.558
20365	1.2871	3.9091	0.	-6177.4
20366	1.1952	4.	0.	-6224.
20367	1.2871	4.	5.e-002	-19.656
20368	1.2871	3.7273	0.	-6205.4
20369	1.1952	3.8182	0.	-6259.5
20370	1.2871	3.8182	5.e-002	-19.771
20371	1.2871	3.5455	0.	-6228.
20372	1.1952	3.6364	0.	-6288.8
20373	1.2871	3.6364	5.e-002	-19.878
20374	1.2871	3.3636	0.	-6244.7
20375	1.1952	3.4545	0.	-6311.4
20376	1.2871	3.4545	5.e-002	-19.964
20377	1.2871	3.1818	0.	-6254.8
20378	1.1952	3.2727	0.	-6326.6
20379	1.2871	3.2727	5.e-002	-20.024
20380	1.2871	3.	0.	-6258.2
20381	1.1952	3.0909	0.	-6334.3
20382	1.2871	3.0909	5.e-002	-20.054
20383	1.2871	2.8182	0.	-6254.8
20384	1.1952	2.9091	0.	-6334.3
20385	1.2871	2.9091	5.e-002	-20.054
20386	1.2871	2.6364	0.	-6244.7
20387	1.1952	2.7273	0.	-6326.6
20388	1.2871	2.7273	5.e-002	-20.024
20389	1.2871	2.4545	0.	-6228.
20390	1.1952	2.5455	0.	-6311.4
20391	1.2871	2.5455	5.e-002	-19.964
20392	1.2871	2.2727	0.	-6205.4
20393	1.1952	2.3636	0.	-6288.8
20394	1.2871	2.3636	5.e-002	-19.878
20395	1.2871	2.0909	0.	-6177.4
20396	1.1952	2.1818	0.	-6259.5
20397	1.2871	2.1818	5.e-002	-19.771
20398	1.2871	1.9091	0.	-6145.1
20399	1.1952	2.	0.	-6224.
20400	1.2871	2.	5.e-002	-19.656
20401	1.2871	1.7273	0.	-6110.1
20402	1.1952	1.8182	0.	-6183.5
20403	1.2871	1.8182	5.e-002	-19.558
20404	1.2871	1.5455	0.	-6074.3
20405	1.1952	1.6364	0.	-6139.6
20406	1.2871	1.6364	5.e-002	-19.511
20407	1.2871	1.3636	0.	-6040.1
20408	1.1952	1.4545	0.	-6094.7
20409	1.2871	1.4545	5.e-002	-19.565
20410	1.2871	1.1818	0.	-6010.7
20411	1.1952	1.2727	0.	-6051.7
20412	1.2871	1.2727	5.e-002	-19.768
20413	1.2871	1.	0.	-5989.2
20414	1.1952	1.0909	0.	-6014.3
20415	1.2871	1.0909	5.e-002	-20.134
20416	1.2871	0.81818	0.	-5978.6
20417	1.1952	0.90909	0.	-5986.5
20418	1.2871	0.90909	5.e-002	-20.593
20419	1.2871	0.63636	0.	-5981.
20420	1.1952	0.72727	0.	-5972.1
20421	1.2871	0.72727	5.e-002	-20.947
20422	1.2871	0.45455	0.	-5998.2
20423	1.1952	0.54545	0.	-5973.9
20424	1.2871	0.54545	5.e-002	-20.891
20425	1.2871	0.27273	0.	-6039.5
20426	1.1952	0.36364	0.	-5994.
20427	1.2871	0.36364	5.e-002	-19.961
20428	1.1952	0.18182	0.	-6052.5
20429	1.2871	0.18182	5.e-002	-28.399
20430	1.2871	9.0909e-002	0.	-6026.2
20431	1.1032	5.7273	0.	-6007.5
20432	1.0113	5.8182	0.	-5997.1
20433	1.1032	5.8182	5.e-002	-29.094
20434	1.1032	5.9091	0.	-5983.5
20435	1.1032	5.5455	0.	-5970.2
20436	1.0113	5.6364	0.	-5939.6
20437	1.1032	5.6364	5.e-002	-23.78
20438	1.1032	5.3636	0.	-5965.1
20439	1.0113	5.4545	0.	-5932.9
20440	1.1032	5.4545	5.e-002	-24.666
20441	1.1032	5.1818	0.	-5979.9
20442	1.0113	5.2727	0.	-5951.8
20443	1.1032	5.2727	5.e-002	-24.18
20444	1.1032	5.	0.	-6011.2
20445	1.0113	5.0909	0.	-5991.6
20446	1.1032	5.0909	5.e-002	-23.282
20447	1.1032	4.8182	0.	-6054.8
20448	1.0113	4.9091	0.	-6046.6
20449	1.1032	4.9091	5.e-002	-22.445
20450	1.1032	4.6364	0.	-6105.7
20451	1.0113	4.7273	0.	-6110.3
20452	1.1032	4.7273	5.e-002	-21.881
20453	1.1032	4.4545	0.	-6159.6
20454	1.0113	4.5455	0.	-6177.
20455	1.1032	4.5455	5.e-002	-21.597
20456	1.1032	4.2727	0.	-6212.6
20457	1.0113	4.3636	0.	-6242.2
20458	1.1032	4.3636	5.e-002	-21.513
20459	1.1032	4.0909	0.	-6261.9
20460	1.0113	4.1818	0.	-6302.7
20461	1.1032	4.1818	5.e-002	-21.539
20462	1.1032	3.9091	0.	-6305.7
20463	1.0113	4.	0.	-6356.5
20464	1.1032	4.	5.e-002	-21.612
20465	1.1032	3.7273	0.	-6342.6
20466	1.0113	3.8182	0.	-6402.3
20467	1.1032	3.8182	5.e-002	-21.695
20468	1.1032	3.5455	0.	-6371.9
20469	1.0113	3.6364	0.	-6439.3
20470	1.1032	3.6364	5.e-002	-21.768
20471	1.1032	3.3636	0.	-6393.1
20472	1.0113	3.4545	0.	-6467.2
20473	1.1032	3.4545	5.e-002	-21.824
20474	1.1032	3.1818	0.	-6405.9
20475	1.0113	3.2727	0.	-6485.9
20476	1.1032	3.2727	5.e-002	-21.862
20477	1.1032	3.	0.	-6410.2
20478	1.0113	3.0909	0.	-6495.3
20479	1.1032	3.0909	5.e-002	-21.88
20480	1.1032	2.8182	0.	-6405.9
20481	1.0113	2.9091	0.	-6495.3
20482	1.1032	2.9091	5.e-002	-21.88
20483	1.1032	2.6364	0.	-6393.1
20484	1.0113	2.7273	0.	-6485.9
20485	1.1032	2.7273	5.e-002	-21.862
20486	1.1032	2.4545	0.	-6371.9
20487	1.0113	2.5455	0.	-6467.2
20488	1.1032	2.5455	5.e-002	-21.824
20489	1.1032	2.2727	0.	-6342.6
20490	1.0113	2.3636	0.	-6439.3
20491	1.1032	2.3636	5.e-002	-21.768
20492	1.1032	2.0909	0.	-6305.7
20493	1.0113	2.1818	0.	-6402.3
20494	1.1032	2.1818	5.e-002	-21.695
20495	1.1032	1.9091	0.	-6261.9
20496	1.0113	2.	0.	-6356.5
20497	1.1032	2.	5.e-002	-21.612
20498	1.1032	1.7273	0.	-6212.6
20499	1.0113	1.8182	0.	-6302.7
20500	1.1032	1.8182	5.e-002	-21.539
20501	1.1032	1.5455	0.	-6159.6
20502	1.0113	1.6364	0.	-6242.2
20503	1.1032	1.6364	5.e-002	-21.513
20504	1.1032	1.3636	0.	-6105.7
20505	1.0113	1.4545	0.	-6177.
20506	1.1032	1.4545	5.e-002	-21.597
20507	1.1032	1.1818	0.	-6054.8
20508	1.0113	1.2727	0.	-6110.3
20509	1.1032	1.2727	5.e-002	-21.881
20510	1.1032	1.	0.	-6011.2
20511	1.0113	1.0909	0.	-6046.6
20512	1.1032	1.0909	5.e-002	-22.445
20513	1.1032	0.81818	0.	-5979.9
20514	1.0113	0.90909	0.	-5991.6
20515	1.1032	0.90909	5.e-002	-23.282
20516	1.1032	0.63636	0.	-5965.1
20517	1.0113	0.72727	0.	-5951.8
20518	1.1032	0.72727	5.e-002	-24.18
20519	1.1032	0.45455	0.	-5970.2
20520	1.0113	0.54545	0.	-5932.9
20521	1.1032	0.54545	5.e-002	-24.666
20522	1.1032	0.27273	0.	-6007.5
20523	1.0113	0.36364	0.	-5939.6
20524	1.1032	0.36364	5.e-002	-23.78
20525	1.0113	0.18182	0.	-5997.1
20526	1.1032	0.18182	5.e-002	-29.094
20527	1.1032	9.0909e-002	0.	-5983.5
20528	0.91935	5.7273	0.	-5929.7
20529	0.82742	5.8182	0.	-5881.1
20530	0.91935	5.8182	5.e-002	-29.821
20531	0.91935	5.9091	0.	-5890.3
20532	0.91935	5.5455	0.	-5902.7
20533	0.82742	5.6364	0.	-5832.1
20534	0.91935	5.6364	5.e-002	-29.654
20535	0.91935	5.3636	0.	-5919.5
20536	0.82742	5.4545	0.	-5852.4
20537	0.91935	5.4545	5.e-002	-29.951
20538	0.91935	5.1818	0.	-5963.
20539	0.82742	5.2727	0.	-5908.2
20540	0.91935	5.2727	5.e-002	-28.337
20541	0.91935	5.	0.	-6026.3
20542	0.82742	5.0909	0.	-5989.1
20543	0.91935	5.0909	5.e-002	-26.542
20544	0.91935	4.8182	0.	-6101.4
20545	0.82742	4.9091	0.	-6083.9
20546	0.91935	4.9091	5.e-002	-25.201
20547	0.91935	4.6364	0.	-6181.
20548	0.82742	4.7273	0.	-6182.8
20549	0.91935	4.7273	5.e-002	-24.409
20550	0.91935	4.4545	0.	-6259.2
20551	0.82742	4.5455	0.	-6278.6
20552	0.91935	4.5455	5.e-002	-24.022
20553	0.91935	4.2727	0.	-6332.
20554	0.82742	4.3636	0.	-6367.
20555	0.91935	4.3636	5.e-002	-23.864
20556	0.91935	4.0909	0.	-6397.1
20557	0.82742	4.1818	0.	-6445.3
20558	0.91935	4.1818	5.e-002	-23.812
20559	0.91935	3.9091	0.	-6452.9
20560	0.82742	4.	0.	-6512.5
20561	0.91935	4.	5.e-002	-23.799
20562	0.91935	3.7273	0.	-6498.7
20563	0.82742	3.8182	0.	-6568.1
20564	0.91935	3.8182	5.e-002	-23.796
20565	0.91935	3.5455	0.	-6534.4
20566	0.82742	3.6364	0.	-6612.2
20567	0.91935	3.6364	5.e-002	-23.791
20568	0.91935	3.3636	0.	-6559.9
20569	0.82742	3.4545	0.	-6645.
20570	0.91935	3.4545	5.e-002	-23.784
20571	0.91935	3.1818	0.	-6575.1
20572	0.82742	3.2727	0.	-6666.7
20573	0.91935	3.2727	5.e-002	-23.777
20574	0.91935	3.	0.	-6580.2
20575	0.82742	3.0909	0.	-6677.4
20576	0.91935	3.0909	5.e-002	-23.773
20577	0.91935	2.8182	0.	-6575.1
20578	0.82742	2.9091	0.	-6677.4
20579	0.91935	2.9091	5.e-002	-23.773
20580	0.91935	2.6364	0.	-6559.9
20581	0.82742	2.7273	0.	-6666.7
20582	0.91935	2.7273	5.e-002	-23.777
20583	0.91935	2.4545	0.	-6534.4
20584	0.82742	2.5455	0.	-6645.
20585	0.91935	2.5455	5.e-002	-23.784
20586	0.91935	2.2727	0.	-6498.7
20587	0.82742	2.3636	0.	-6612.2
20588	0.91935	2.3636	5.e-002	-23.791
20589	0.91935	2.0909	0.	-6452.9
20590	0.82742	2.1818	0.	-6568.1
20591	0.91935	2.1818	5.e-002	-23.796
20592	0.91935	1.9091	0.	-6397.1
20593	0.82742	2.	0.	-6512.5
20594	0.91935	2.	5.e-002	-23.799
20595	0.91935	1.7273	0.	-6332.
20596	0.82742	1.8182	0.	-6445.3
20597	0.91935	1.8182	5.e-002	-23.812
20598	0.91935	1.5455	0.	-6259.2
20599	0.82742	1.6364	0.	-6367.
20600	0.91935	1.6364	5.e-002	-23.864
20601	0.91935	1.3636	0.	-6181.
20602	0.82742	1.4545	0.	-6278.6
20603	0.91935	1.4545	5.e-002	-24.022
20604	0.91935	1.1818	0.	-6101.4
20605	0.82742	1.2727	0.	-6182.8
20606	0.91935	1.2727	5.e-002	-24.409
20607	0.91935	1.	0.	-6026.3
20608	0.82742	1.0909	0.	-6083.9
20609	0.91935	1.0909	5.e-002	-25.201
20610	0.91935	0.81818	0.	-5963.
20611	0.82742	0.90909	0.	-5989.1
20612	0.91935	0.90909	5.e-002	-26.542
20613	0.91935	0.63636	0.	-5919.5
20614	0.82742	0.72727	0.	-5908.2
20615	0.91935	0.72727	5.e-002	-28.337
20616	0.91935	0.45455	0.	-5902.7
20617	0.82742	0.54545	0.	-5852.4
20618	0.91935	0.54545	5.e-002	-29.951
20619	0.91935	0.27273	0.	-5929.7
20620	0.82742	0.36364	0.	-5832.1
20621	0.91935	0.36364	5.e-002	-29.654
20622	0.82742	0.18182	0.	-5881.1
20623	0.91935	0.18182	5.e-002	-29.821
20624	0.91935	9.0909e-002	0.	-5890.3
20625	0.73548	5.7273	0.	-5784.
20626	0.64355	5.8182	0.	-5662.6
20627	0.73548	5.8182	5.e-002	-32.15
20628	0.73548	5.9091	0.	-5719.3
20629	0.73548	5.5455	0.	-5782.
20630	0.64355	5.6364	0.	-5639.8
20631	0.73548	5.6364	5.e-002	-38.95
20632	0.73548	5.3636	0.	-5840.5
20633	0.64355	5.4545	0.	-5715.5
20634	0.73548	5.4545	5.e-002	-37.273
20635	0.73548	5.1818	0.	-5933.3
20636	0.64355	5.2727	0.	-5838.1
20637	0.73548	5.2727	5.e-002	-33.568
20638	0.73548	5.	0.	-6045.7
20639	0.64355	5.0909	0.	-5984.
20640	0.73548	5.0909	5.e-002	-30.56
20641	0.73548	4.8182	0.	-6164.5
20642	0.64355	4.9091	0.	-6134.1
20643	0.73548	4.9091	5.e-002	-28.705
20644	0.73548	4.6364	0.	-6280.
20645	0.64355	4.7273	0.	-6276.3
20646	0.73548	4.7273	5.e-002	-27.707
20647	0.73548	4.4545	0.	-6386.1
20648	0.64355	4.5455	0.	-6404.6
20649	0.73548	4.5455	5.e-002	-27.179
20650	0.73548	4.2727	0.	-6480.1
20651	0.64355	4.3636	0.	-6516.4
20652	0.73548	4.3636	5.e-002	-26.867
20653	0.73548	4.0909	0.	-6560.6
20654	0.64355	4.1818	0.	-6611.4
20655	0.73548	4.1818	5.e-002	-26.646
20656	0.73548	3.9091	0.	-6627.7
20657	0.64355	4.	0.	-6690.3
20658	0.73548	4.	5.e-002	-26.464
20659	0.73548	3.7273	0.	-6681.5
20660	0.64355	3.8182	0.	-6754.
20661	0.73548	3.8182	5.e-002	-26.307
20662	0.73548	3.5455	0.	-6722.6
20663	0.64355	3.6364	0.	-6803.5
20664	0.73548	3.6364	5.e-002	-26.173
20665	0.73548	3.3636	0.	-6751.6
20666	0.64355	3.4545	0.	-6839.9
20667	0.73548	3.4545	5.e-002	-26.067
20668	0.73548	3.1818	0.	-6768.8
20669	0.64355	3.2727	0.	-6863.7
20670	0.73548	3.2727	5.e-002	-25.993
20671	0.73548	3.	0.	-6774.5
20672	0.64355	3.0909	0.	-6875.5
20673	0.73548	3.0909	5.e-002	-25.955
20674	0.73548	2.8182	0.	-6768.8
20675	0.64355	2.9091	0.	-6875.5
20676	0.73548	2.9091	5.e-002	-25.955
20677	0.73548	2.6364	0.	-6751.6
20678	0.64355	2.7273	0.	-6863.7
20679	0.73548	2.7273	5.e-002	-25.993
20680	0.73548	2.4545	0.	-6722.6
20681	0.64355	2.5455	0.	-6839.9
20682	0.73548	2.5455	5.e-002	-26.067
20683	0.73548	2.2727	0.	-6681.5
20684	0.64355	2.3636	0.	-6803.5
20685	0.73548	2.3636	5.e-002	-26.173
20686	0.73548	2.0909	0.	-6627.7
20687	0.64355	2.1818	0.	-6754.
20688	0.73548	2.1818	5.e-002	-26.307
20689	0.73548	1.9091	0.	-6560.6
20690	0.64355	2.	0.	-6690.3
20691	0.73548	2.	5.e-002	-26.464
20692	0.73548	1.7273	0.	-6480.1
20693	0.64355	1.8182	0.	-6611.4
20694	0.73548	1.8182	5.e-002	-26.646
20695	0.73548	1.5455	0.	-6386.1
20696	0.64355	1.6364	0.	-6516.4
20697	0.73548	1.6364	5.e-002	-26.867
20698	0.73548	1.3636	0.	-6280.
20699	0.64355	1.4545	0.	-6404.6
20700	0.73548	1.4545	5.e-002	-27.179
20701	0.73548	1.1818	0.	-6164.5
20702	0.64355	1.2727	0.	-6276.3
20703	0.73548	1.2727	5.e-002	-27.707
20704	0.73548	1.	0.	-6045.7
20705	0.64355	1.0909	0.	-6134.1
20706	0.73548	1.0909	5.e-002	-28.705
20707	0.73548	0.81818	0.	-5933.3
20708	0.64355	0.90909	0.	-5984.
20709	0.73548	0.90909	5.e-002	-30.56
20710	0.73548	0.63636	0.	-5840.5
20711	0.64355	0.72727	0.	-5838.1
20712	0.73548	0.72727	5.e-002	-33.568
20713	0.73548	0.45455	0.	-5782.
20714	0.64355	0.54545	0.	-5715.5
20715	0.73548	0.54545	5.e-002	-37.273
20716	0.73548	0.27273	0.	-5784.
20717	0.64355	0.36364	0.	-5639.8
20718	0.73548	0.36364	5.e-002	-38.95
20719	0.64355	0.18182	0.	-5662.6
20720	0.73548	0.18182	5.e-002	-32.15
20721	0.73548	9.0909e-002	0.	-5719.3
20722	0.55161	5.7273	0.	-5518.5
20723	0.45968	5.8182	0.	-5271.6
20724	0.55161	5.8182	5.e-002	-40.238
20725	0.55161	5.9091	0.	-5410.8
20726	0.55161	5.5455	0.	-5572.4
20727	0.45968	5.6364	0.	-5336.7
20728	0.55161	5.6364	5.e-002	-53.976
20729	0.55161	5.3636	0.	-5711.3
20730	0.45968	5.4545	0.	-5540.3
20731	0.55161	5.4545	5.e-002	-46.965
20732	0.55161	5.1818	0.	-5887.3
20733	0.45968	5.2727	0.	-5786.
20734	0.55161	5.2727	5.e-002	-39.703
20735	0.55161	5.	0.	-6071.5
20736	0.45968	5.0909	0.	-6028.6
20737	0.55161	5.0909	5.e-002	-35.22
20738	0.55161	4.8182	0.	-6245.6
20739	0.45968	4.9091	0.	-6247.4
20740	0.55161	4.9091	5.e-002	-32.733
20741	0.55161	4.6364	0.	-6400.9
20742	0.45968	4.7273	0.	-6436.
20743	0.55161	4.7273	5.e-002	-31.318
20744	0.55161	4.4545	0.	-6534.9
20745	0.45968	4.5455	0.	-6594.7
20746	0.55161	4.5455	5.e-002	-30.385
20747	0.55161	4.2727	0.	-6647.8
20748	0.45968	4.3636	0.	-6726.1
20749	0.55161	4.3636	5.e-002	-29.674
20750	0.55161	4.0909	0.	-6741.1
20751	0.45968	4.1818	0.	-6833.7
20752	0.55161	4.1818	5.e-002	-29.086
20753	0.55161	3.9091	0.	-6816.6
20754	0.45968	4.	0.	-6920.5
20755	0.55161	4.	5.e-002	-28.588
20756	0.55161	3.7273	0.	-6876.
20757	0.45968	3.8182	0.	-6989.
20758	0.55161	3.8182	5.e-002	-28.171
20759	0.55161	3.5455	0.	-6920.7
20760	0.45968	3.6364	0.	-7041.6
20761	0.55161	3.6364	5.e-002	-27.834
20762	0.55161	3.3636	0.	-6951.9
20763	0.45968	3.4545	0.	-7079.6
20764	0.55161	3.4545	5.e-002	-27.58
20765	0.55161	3.1818	0.	-6970.2
20766	0.45968	3.2727	0.	-7104.4
20767	0.55161	3.2727	5.e-002	-27.409
20768	0.55161	3.	0.	-6976.3
20769	0.45968	3.0909	0.	-7116.6
20770	0.55161	3.0909	5.e-002	-27.324
20771	0.55161	2.8182	0.	-6970.2
20772	0.45968	2.9091	0.	-7116.6
20773	0.55161	2.9091	5.e-002	-27.324
20774	0.55161	2.6364	0.	-6951.9
20775	0.45968	2.7273	0.	-7104.4
20776	0.55161	2.7273	5.e-002	-27.409
20777	0.55161	2.4545	0.	-6920.7
20778	0.45968	2.5455	0.	-7079.6
20779	0.55161	2.5455	5.e-002	-27.58
20780	0.55161	2.2727	0.	-6876.
20781	0.45968	2.3636	0.	-7041.6
20782	0.55161	2.3636	5.e-002	-27.834
20783	0.55161	2.0909	0.	-6816.6
20784	0.45968	2.1818	0.	-6989.
20785	0.55161	2.1818	5.e-002	-28.171
20786	0.55161	1.9091	0.	-6741.1
20787	0.45968	2.	0.	-6920.5
20788	0.55161	2.	5.e-002	-28.588
20789	0.55161	1.7273	0.	-6647.8
20790	0.45968	1.8182	0.	-6833.7
20791	0.55161	1.8182	5.e-002	-29.087
20792	0.55161	1.5455	0.	-6534.9
20793	0.45968	1.6364	0.	-6726.1
20794	0.55161	1.6364	5.e-002	-29.674
20795	0.55161	1.3636	0.	-6400.9
20796	0.45968	1.4545	0.	-6594.7
20797	0.55161	1.4545	5.e-002	-30.385
20798	0.55161	1.1818	0.	-6245.6
20799	0.45968	1.2727	0.	-6436.
20800	0.55161	1.2727	5.e-002	-31.319
20801	0.55161	1.	0.	-6071.5
20802	0.45968	1.0909	0.	-6247.4
20803	0.55161	1.0909	5.e-002	-32.733
20804	0.55161	0.81818	0.	-5887.3
20805	0.45968	0.90909	0.	-6028.6
20806	0.55161	0.90909	5.e-002	-35.22
20807	0.55161	0.63636	0.	-5711.3
20808	0.45968	0.72727	0.	-5786.
20809	0.55161	0.72727	5.e-002	-39.703
20810	0.55161	0.45455	0.	-5572.4
20811	0.45968	0.54545	0.	-5540.3
20812	0.55161	0.54545	5.e-002	-46.965
20813	0.55161	0.27273	0.	-5518.5
20814	0.45968	0.36364	0.	-5336.7
20815	0.55161	0.36364	5.e-002	-53.976
20816	0.45968	0.18182	0.	-5271.6
20817	0.55161	0.18182	5.e-002	-40.238
20818	0.55161	9.0909e-002	0.	-5410.8
20819	0.36774	5.7273	0.	-5088.2
20820	0.27581	5.8182	0.	-4455.3
20821	0.36774	5.8182	5.e-002	-70.353
20822	0.36774	5.9091	0.	-4870.1
20823	0.36774	5.5455	0.	-5300.7
20824	0.27581	5.6364	0.	-4818.6
20825	0.36774	5.6364	5.e-002	-78.102
20826	0.36774	5.3636	0.	-5611.9
20827	0.27581	5.4545	0.	-5309.
20828	0.36774	5.4545	5.e-002	-59.458
20829	0.36774	5.1818	0.	-5926.3
20830	0.27581	5.2727	0.	-5738.5
20831	0.36774	5.2727	5.e-002	-48.925
20832	0.36774	5.	0.	-6204.6
20833	0.27581	5.0909	0.	-6089.3
20834	0.36774	5.0909	5.e-002	-43.51
20835	0.36774	4.8182	0.	-6438.4
20836	0.27581	4.9091	0.	-6368.4
20837	0.36774	4.9091	5.e-002	-40.625
20838	0.36774	4.6364	0.	-6630.3
20839	0.27581	4.7273	0.	-6589.7
20840	0.36774	4.7273	5.e-002	-38.674
20841	0.36774	4.4545	0.	-6786.4
20842	0.27581	4.5455	0.	-6765.4
20843	0.36774	4.5455	5.e-002	-37.162
20844	0.36774	4.2727	0.	-6912.4
20845	0.27581	4.3636	0.	-6905.1
20846	0.36774	4.3636	5.e-002	-35.916
20847	0.36774	4.0909	0.	-7013.3
20848	0.27581	4.1818	0.	-7016.
20849	0.36774	4.1818	5.e-002	-34.874
20850	0.36774	3.9091	0.	-7093.
20851	0.27581	4.	0.	-7103.6
20852	0.36774	4.	5.e-002	-34.009
20853	0.36774	3.7273	0.	-7154.7
20854	0.27581	3.8182	0.	-7171.6
20855	0.36774	3.8182	5.e-002	-33.306
20856	0.36774	3.5455	0.	-7200.5
20857	0.27581	3.6364	0.	-7223.1
20858	0.36774	3.6364	5.e-002	-32.754
20859	0.36774	3.3636	0.	-7232.1
20860	0.27581	3.4545	0.	-7260.1
20861	0.36774	3.4545	5.e-002	-32.346
20862	0.36774	3.1818	0.	-7250.7
20863	0.27581	3.2727	0.	-7284.
20864	0.36774	3.2727	5.e-002	-32.078
20865	0.36774	3.	0.	-7256.8
20866	0.27581	3.0909	0.	-7295.7
20867	0.36774	3.0909	5.e-002	-31.944
20868	0.36774	2.8182	0.	-7250.7
20869	0.27581	2.9091	0.	-7295.7
20870	0.36774	2.9091	5.e-002	-31.944
20871	0.36774	2.6364	0.	-7232.1
20872	0.27581	2.7273	0.	-7284.
20873	0.36774	2.7273	5.e-002	-32.078
20874	0.36774	2.4545	0.	-7200.5
20875	0.27581	2.5455	0.	-7260.1
20876	0.36774	2.5455	5.e-002	-32.346
20877	0.36774	2.2727	0.	-7154.7
20878	0.27581	2.3636	0.	-7223.1
20879	0.36774	2.3636	5.e-002	-32.754
20880	0.36774	2.0909	0.	-7093.
20881	0.27581	2.1818	0.	-7171.6
20882	0.36774	2.1818	5.e-002	-33.306
20883	0.36774	1.9091	0.	-7013.3
20884	0.27581	2.	0.	-7103.6
20885	0.36774	2.	5.e-002	-34.009
20886	0.36774	1.7273	0.	-6912.4
20887	0.27581	1.8182	0.	-7016.
20888	0.36774	1.8182	5.e-002	-34.874
20889	0.36774	1.5455	0.	-6786.4
20890	0.27581	1.6364	0.	-6905.1
20891	0.36774	1.6364	5.e-002	-35.916
20892	0.36774	1.3636	0.	-6630.3
20893	0.27581	1.4545	0.	-6765.4
20894	0.36774	1.4545	5.e-002	-37.162
20895	0.36774	1.1818	0.	-6438.4
20896	0.27581	1.2727	0.	-6589.7
20897	0.36774	1.2727	5.e-002	-38.674
20898	0.36774	1.	0.	-6204.6
20899	0.27581	1.0909	0.	-6368.4
20900	0.36774	1.0909	5.e-002	-40.625
20901	0.36774	0.81818	0.	-5926.3
20902	0.27581	0.90909	0.	-6089.3
20903	0.36774	0.90909	5.e-002	-43.51
20904	0.36774	0.63636	0.	-5611.9
20905	0.27581	0.72727	0.	-5738.5
20906	0.36774	0.72727	5.e-002	-48.925
20907	0.36774	0.45455	0.	-5300.7
20908	0.27581	0.54545	0.	-5309.
20909	0.36774	0.54545	5.e-002	-59.458
20910	0.36774	0.27273	0.	-5088.2
20911	0.27581	0.36364	0.	-4818.6
20912	0.36774	0.36364	5.e-002	-78.102
20913	0.27581	0.18182	0.	-4455.3
20914	0.36774	0.18182	5.e-002	-70.353
20915	0.36774	9.0909e-002	0.	-4870.1
20916	0.18387	5.7273	0.	-4170.6
20917	0.18387	5.8182	5.e-002	-169.89
20918	0.18387	5.9091	0.	-3686.3
20919	9.1935e-002	5.8182	0.	-3190.4
20920	0.18387	5.5455	0.	-4826.7
20921	0.18387	5.6364	5.e-002	-108.25
20922	9.1935e-002	5.6364	0.	-4545.2
20923	0.18387	5.3636	0.	-5442.8
20924	0.18387	5.4545	5.e-002	-73.497
20925	9.1935e-002	5.4545	0.	-5424.4
20926	0.18387	5.1818	0.	-5908.2
20927	0.18387	5.2727	5.e-002	-56.275
20928	9.1935e-002	5.2727	0.	-6015.9
20929	0.18387	5.	0.	-6257.8
20930	0.18387	5.0909	5.e-002	-47.334
20931	9.1935e-002	5.0909	0.	-6432.
20932	0.18387	4.8182	0.	-6522.7
20933	0.18387	4.9091	5.e-002	-41.228
20934	9.1935e-002	4.9091	0.	-6736.4
20935	0.18387	4.6364	0.	-6726.6
20936	0.18387	4.7273	5.e-002	-36.777
20937	9.1935e-002	4.7273	0.	-6965.4
20938	0.18387	4.4545	0.	-6885.3
20939	0.18387	4.5455	5.e-002	-33.379
20940	9.1935e-002	4.5455	0.	-7140.9
20941	0.18387	4.2727	0.	-7009.5
20942	0.18387	4.3636	5.e-002	-30.729
20943	9.1935e-002	4.3636	0.	-7277.1
20944	0.18387	4.0909	0.	-7106.8
20945	0.18387	4.1818	5.e-002	-28.642
20946	9.1935e-002	4.1818	0.	-7383.2
20947	0.18387	3.9091	0.	-7182.5
20948	0.18387	4.	5.e-002	-27.001
20949	9.1935e-002	4.	0.	-7465.9
20950	0.18387	3.7273	0.	-7240.2
20951	0.18387	3.8182	5.e-002	-25.724
20952	9.1935e-002	3.8182	0.	-7529.5
20953	0.18387	3.5455	0.	-7282.8
20954	0.18387	3.6364	5.e-002	-24.757
20955	9.1935e-002	3.6364	0.	-7577.2
20956	0.18387	3.3636	0.	-7312.
20957	0.18387	3.4545	5.e-002	-24.061
20958	9.1935e-002	3.4545	0.	-7611.3
20959	0.18387	3.1818	0.	-7329.
20960	0.18387	3.2727	5.e-002	-23.611
20961	9.1935e-002	3.2727	0.	-7633.3
20962	0.18387	3.	0.	-7334.7
20963	0.18387	3.0909	5.e-002	-23.389
20964	9.1935e-002	3.0909	0.	-7644.
20965	0.18387	2.8182	0.	-7329.
20966	0.18387	2.9091	5.e-002	-23.389
20967	9.1935e-002	2.9091	0.	-7644.
20968	0.18387	2.6364	0.	-7312.
20969	0.18387	2.7273	5.e-002	-23.611
20970	9.1935e-002	2.7273	0.	-7633.3
20971	0.18387	2.4545	0.	-7282.8
20972	0.18387	2.5455	5.e-002	-24.061
20973	9.1935e-002	2.5455	0.	-7611.3
20974	0.18387	2.2727	0.	-7240.2
20975	0.18387	2.3636	5.e-002	-24.757
20976	9.1935e-002	2.3636	0.	-7577.2
20977	0.18387	2.0909	0.	-7182.5
20978	0.18387	2.1818	5.e-002	-25.724
20979	9.1935e-002	2.1818	0.	-7529.5
20980	0.18387	1.9091	0.	-7106.8
20981	0.18387	2.	5.e-002	-27.001
20982	9.1935e-002	2.	0.	-7465.9
20983	0.18387	1.7273	0.	-7009.5
20984	0.18387	1.8182	5.e-002	-28.642
20985	9.1935e-002	1.8182	0.	-7383.2
20986	0.18387	1.5455	0.	-6885.3
20987	0.18387	1.6364	5.e-002	-30.729
20988	9.1935e-002	1.6364	0.	-7277.1
20989	0.18387	1.3636	0.	-6726.6
20990	0.18387	1.4545	5.e-002	-33.379
20991	9.1935e-002	1.4545	0.	-7140.9
20992	0.18387	1.1818	0.	-6522.7
20993	0.18387	1.2727	5.e-002	-36.777
20994	9.1935e-002	1.2727	0.	-6965.4
20995	0.18387	1.	0.	-6257.8
20996	0.18387	1.0909	5.e-002	-41.228
20997	9.1935e-002	1.0909	0.	-6736.4
20998	0.18387	0.81818	0.	-5908.2
20999	0.18387	0.90909	5.e-002	-47.334
21000	9.1935e-002	0.90909	0.	-6432.
21001	0.18387	0.63636	0.	-5442.8
21002	0.18387	0.72727	5.e-002	-56.275
21003	9.1935e-002	0.72727	0.	-6015.9
21004	0.18387	0.45455	0.	-4826.7
21005	0.18387	0.54545	5.e-002	-73.497
21006	9.1935e-002	0.54545	0.	-5424.4
21007	0.18387	0.27273	0.	-4170.6
21008	0.18387	0.36364	5.e-002	-108.25
21009	9.1935e-002	0.36364	0.	-4545.2
21010	0.18387	0.18182	5.e-002	-169.89
21011	0.18387	9.0909e-002	0.	-3686.3
21012	9.1935e-002	0.18182	0.	-3190.4
21013	22.967	2.2727	0.	-838.14
21014	23.053	2.1818	0.	-869.4
21015	22.967	2.1818	5.e-002	-51.113
21016	22.967	2.0909	0.	-1309.7
21017	22.967	2.4545	0.	-627.15
21018	23.053	2.3636	0.	-644.83
21019	22.967	2.3636	5.e-002	-9.8354
21020	22.967	2.6364	0.	-539.34
21021	23.053	2.5455	0.	-537.55
21022	22.967	2.5455	5.e-002	-4.0962
21023	22.967	2.8182	0.	-498.78
21024	23.053	2.7273	0.	-483.54
21025	22.967	2.7273	5.e-002	-2.666
21026	22.967	3.	0.	-486.63
21027	23.053	2.9091	0.	-459.79
21028	22.967	2.9091	5.e-002	-2.364
21029	22.967	3.1818	0.	-498.78
21030	23.053	3.0909	0.	-459.79
21031	22.967	3.0909	5.e-002	-2.364
21032	22.967	3.3636	0.	-539.34
21033	23.053	3.2727	0.	-483.54
21034	22.967	3.2727	5.e-002	-2.666
21035	22.967	3.5455	0.	-627.15
21036	23.053	3.4545	0.	-537.55
21037	22.967	3.4545	5.e-002	-4.0962
21038	22.967	3.7273	0.	-838.14
21039	23.053	3.6364	0.	-644.83
21040	22.967	3.6364	5.e-002	-9.8354
21041	23.053	3.8182	0.	-869.4
21042	22.967	3.8182	5.e-002	-51.113
21043	22.967	3.9091	0.	-1309.7
21044	23.139	2.2727	0.	-672.22
21045	23.225	2.1818	0.	-644.34
21046	23.139	2.1818	5.e-002	-36.229
21047	23.139	2.4545	0.	-555.22
21048	23.225	2.3636	0.	-542.09
21049	23.139	2.3636	5.e-002	-15.239
21050	23.139	2.6364	0.	-480.57
21051	23.225	2.5455	0.	-463.83
21052	23.139	2.5455	5.e-002	-8.2736
21053	23.139	2.8182	0.	-442.62
21054	23.225	2.7273	0.	-416.99
21055	23.139	2.7273	5.e-002	-5.2824
21056	23.139	3.	0.	-430.81
21057	23.225	2.9091	0.	-395.1
21058	23.139	2.9091	5.e-002	-4.366
21059	23.139	3.1818	0.	-442.62
21060	23.225	3.0909	0.	-395.1
21061	23.139	3.0909	5.e-002	-4.366
21062	23.139	3.3636	0.	-480.57
21063	23.225	3.2727	0.	-416.99
21064	23.139	3.2727	5.e-002	-5.2824
21065	23.139	3.5455	0.	-555.22
21066	23.225	3.4545	0.	-463.83
21067	23.139	3.4545	5.e-002	-8.2736
21068	23.139	3.7273	0.	-672.22
21069	23.225	3.6364	0.	-542.09
21070	23.139	3.6364	5.e-002	-15.239
21071	23.225	3.8182	0.	-644.34
21072	23.139	3.8182	5.e-002	-36.229
21073	23.311	2.2727	0.	-504.42
21074	23.397	2.1818	0.	-471.
21075	23.311	2.1818	5.e-002	-16.715
21076	23.311	2.4545	0.	-448.
21077	23.397	2.3636	0.	-426.38
21078	23.311	2.3636	5.e-002	-13.983
21079	23.311	2.6364	0.	-397.6
21080	23.397	2.5455	0.	-374.27
21081	23.311	2.5455	5.e-002	-9.6657
21082	23.311	2.8182	0.	-366.28
21083	23.397	2.7273	0.	-335.36
21084	23.311	2.7273	5.e-002	-7.1314
21085	23.311	3.	0.	-355.95
21086	23.397	2.9091	0.	-315.31
21087	23.311	2.9091	5.e-002	-6.0592
21088	23.311	3.1818	0.	-366.28
21089	23.397	3.0909	0.	-315.31
21090	23.311	3.0909	5.e-002	-6.0592
21091	23.311	3.3636	0.	-397.6
21092	23.397	3.2727	0.	-335.36
21093	23.311	3.2727	5.e-002	-7.1314
21094	23.311	3.5455	0.	-448.
21095	23.397	3.4545	0.	-374.27
21096	23.311	3.4545	5.e-002	-9.6657
21097	23.311	3.7273	0.	-504.42
21098	23.397	3.6364	0.	-426.38
21099	23.311	3.6364	5.e-002	-13.983
21100	23.397	3.8182	0.	-471.
21101	23.311	3.8182	5.e-002	-16.715
21102	23.483	2.2727	0.	-388.43
21103	23.569	2.1818	0.	-365.73
21104	23.483	2.1818	5.e-002	-10.545
21105	23.483	2.4545	0.	-350.04
21106	23.569	2.3636	0.	-334.07
21107	23.483	2.3636	5.e-002	-10.997
21108	23.483	2.6364	0.	-309.3
21109	23.569	2.5455	0.	-290.31
21110	23.483	2.5455	5.e-002	-9.3734
21111	23.483	2.8182	0.	-280.29
21112	23.569	2.7273	0.	-251.35
21113	23.483	2.7273	5.e-002	-8.0228
21114	23.483	3.	0.	-269.83
21115	23.569	2.9091	0.	-227.95
21116	23.483	2.9091	5.e-002	-7.2631
21117	23.483	3.1818	0.	-280.29
21118	23.569	3.0909	0.	-227.95
21119	23.483	3.0909	5.e-002	-7.2631
21120	23.483	3.3636	0.	-309.3
21121	23.569	3.2727	0.	-251.35
21122	23.483	3.2727	5.e-002	-8.0228
21123	23.483	3.5455	0.	-350.04
21124	23.569	3.4545	0.	-290.31
21125	23.483	3.4545	5.e-002	-9.3733
21126	23.483	3.7273	0.	-388.43
21127	23.569	3.6364	0.	-334.07
21128	23.483	3.6364	5.e-002	-10.997
21129	23.569	3.8182	0.	-365.73
21130	23.483	3.8182	5.e-002	-10.545
21131	23.656	2.2727	0.	-310.89
21132	23.742	2.1818	0.	-304.74
21133	23.656	2.1818	5.e-002	-8.1805
21134	23.656	2.4545	0.	-275.06
21135	23.742	2.3636	0.	-274.2
21136	23.656	2.3636	5.e-002	-9.038
21137	23.656	2.6364	0.	-232.75
21138	23.742	2.5455	0.	-230.34
21139	23.656	2.5455	5.e-002	-8.9296
21140	23.656	2.8182	0.	-195.76
21141	23.742	2.7273	0.	-183.59
21142	23.656	2.7273	5.e-002	-8.4078
21143	23.656	3.	0.	-178.97
21144	23.742	2.9091	0.	-142.69
21145	23.656	2.9091	5.e-002	-8.0478
21146	23.656	3.1818	0.	-195.76
21147	23.742	3.0909	0.	-142.69
21148	23.656	3.0909	5.e-002	-8.0478
21149	23.656	3.3636	0.	-232.75
21150	23.742	3.2727	0.	-183.59
21151	23.656	3.2727	5.e-002	-8.4078
21152	23.656	3.5455	0.	-275.06
21153	23.742	3.4545	0.	-230.34
21154	23.656	3.4545	5.e-002	-8.9296
21155	23.656	3.7273	0.	-310.89
21156	23.742	3.6364	0.	-274.2
21157	23.656	3.6364	5.e-002	-9.038
21158	23.742	3.8182	0.	-304.74
21159	23.656	3.8182	5.e-002	-8.1805
21160	23.828	2.2727	0.	-269.41
21161	23.828	2.1818	5.e-002	-8.1986
21162	23.914	2.1818	0.	-250.81
21163	23.828	2.4545	0.	-233.26
21164	23.828	2.3636	5.e-002	-9.3379
21165	23.914	2.3636	0.	-222.45
21166	23.828	2.6364	0.	-188.64
21167	23.828	2.5455	5.e-002	-9.576
21168	23.914	2.5455	0.	-184.67
21169	23.828	2.8182	0.	-143.27
21170	23.828	2.7273	5.e-002	-9.2649
21171	23.914	2.7273	0.	-146.38
21172	23.828	3.	0.	-110.81
21173	23.828	2.9091	5.e-002	-8.9369
21174	23.914	2.9091	0.	-117.81
21175	23.828	3.1818	0.	-143.27
21176	23.828	3.0909	5.e-002	-8.9369
21177	23.914	3.0909	0.	-117.81
21178	23.828	3.3636	0.	-188.64
21179	23.828	3.2727	5.e-002	-9.2649
21180	23.914	3.2727	0.	-146.38
21181	23.828	3.5455	0.	-233.26
21182	23.828	3.4545	5.e-002	-9.576
21183	23.914	3.4545	0.	-184.67
21184	23.828	3.7273	0.	-269.41
21185	23.828	3.6364	5.e-002	-9.3379
21186	23.914	3.6364	0.	-222.45
21187	23.828	3.8182	5.e-002	-8.1986
21188	23.914	3.8182	0.	-250.81
21189	23.742	4.1818	0.	-296.57
21190	23.828	4.2727	0.	-267.97
21191	23.828	4.1818	5.e-002	-4.5756
21192	23.914	4.1818	0.	-253.57
21193	23.569	4.1818	0.	-337.61
21194	23.656	4.2727	0.	-291.48
21195	23.656	4.1818	5.e-002	-5.7926
21196	23.397	4.1818	0.	-404.11
21197	23.483	4.2727	0.	-334.75
21198	23.483	4.1818	5.e-002	-7.3204
21199	23.225	4.1818	0.	-516.5
21200	23.311	4.2727	0.	-394.83
21201	23.311	4.1818	5.e-002	-11.264
21202	23.139	4.2727	0.	-491.48
21203	23.139	4.1818	5.e-002	-24.228
21204	23.053	4.1818	0.	-567.83
21205	23.742	4.3636	0.	-262.88
21206	23.828	4.4545	0.	-234.72
21207	23.828	4.3636	5.e-002	-3.4537
21208	23.914	4.3636	0.	-228.43
21209	23.569	4.3636	0.	-288.85
21210	23.656	4.4545	0.	-249.59
21211	23.656	4.3636	5.e-002	-5.5186
21212	23.397	4.3636	0.	-326.05
21213	23.483	4.4545	0.	-276.15
21214	23.483	4.3636	5.e-002	-6.8624
21215	23.225	4.3636	0.	-370.72
21216	23.311	4.4545	0.	-307.84
21217	23.311	4.3636	5.e-002	-9.4229
21218	23.139	4.4545	0.	-343.58
21219	23.139	4.3636	5.e-002	-15.281
21220	23.053	4.3636	0.	-384.68
21221	23.742	4.5455	0.	-221.31
21222	23.828	4.6364	0.	-195.71
21223	23.828	4.5455	5.e-002	-2.9607
21224	23.914	4.5455	0.	-193.48
21225	23.569	4.5455	0.	-236.85
21226	23.656	4.6364	0.	-204.63
21227	23.656	4.5455	5.e-002	-5.185
21228	23.397	4.5455	0.	-257.89
21229	23.483	4.6364	0.	-220.81
21230	23.483	4.5455	5.e-002	-6.0886
21231	23.225	4.5455	0.	-280.58
21232	23.311	4.6364	0.	-238.32
21233	23.311	4.5455	5.e-002	-7.0725
21234	23.139	4.6364	0.	-256.19
21235	23.139	4.5455	5.e-002	-10.102
21236	23.053	4.5455	0.	-285.1
21237	23.742	4.7273	0.	-178.91
21238	23.828	4.8182	0.	-156.39
21239	23.828	4.7273	5.e-002	-2.6908
21240	23.914	4.7273	0.	-155.34
21241	23.569	4.7273	0.	-188.53
21242	23.656	4.8182	0.	-161.96
21243	23.656	4.7273	5.e-002	-4.6677
21244	23.397	4.7273	0.	-201.11
21245	23.483	4.8182	0.	-172.45
21246	23.483	4.7273	5.e-002	-5.1401
21247	23.225	4.7273	0.	-213.69
21248	23.311	4.8182	0.	-182.78
21249	23.311	4.7273	5.e-002	-5.6691
21250	23.139	4.8182	0.	-192.71
21251	23.139	4.7273	5.e-002	-7.5501
21252	23.053	4.7273	0.	-213.76
21253	23.742	4.9091	0.	-139.38
21254	23.828	5.	0.	-120.
21255	23.828	4.9091	5.e-002	-2.4315
21256	23.914	4.9091	0.	-118.58
21257	23.569	4.9091	0.	-145.84
21258	23.656	5.	0.	-123.9
21259	23.656	4.9091	5.e-002	-4.0633
21260	23.397	4.9091	0.	-153.95
21261	23.483	5.	0.	-131.23
21262	23.483	4.9091	5.e-002	-4.2883
21263	23.225	4.9091	0.	-161.52
21264	23.311	5.	0.	-137.74
21265	23.311	4.9091	5.e-002	-4.557
21266	23.139	5.	0.	-143.74
21267	23.139	4.9091	5.e-002	-5.8535
21268	23.053	4.9091	0.	-159.88
21269	23.742	5.0909	0.	-104.54
21270	23.828	5.1818	0.	-88.279
21271	23.828	5.0909	5.e-002	-2.1547
21272	23.914	5.0909	0.	-85.903
21273	23.569	5.0909	0.	-109.27
21274	23.656	5.1818	0.	-91.455
21275	23.656	5.0909	5.e-002	-3.4141
21276	23.397	5.0909	0.	-114.84
21277	23.483	5.1818	0.	-96.857
21278	23.483	5.0909	5.e-002	-3.5183
21279	23.225	5.0909	0.	-119.69
21280	23.311	5.1818	0.	-101.1
21281	23.311	5.0909	5.e-002	-3.6707
21282	23.139	5.1818	0.	-104.9
21283	23.139	5.0909	5.e-002	-4.6269
21284	23.053	5.0909	0.	-117.38
21285	23.742	5.2727	0.	-75.319
21286	23.828	5.3636	0.	-62.152
21287	23.828	5.2727	5.e-002	-1.8725
21288	23.914	5.2727	0.	-58.785
21289	23.569	5.2727	0.	-79.065
21290	23.656	5.3636	0.	-65.197
21291	23.656	5.2727	5.e-002	-2.7449
21292	23.397	5.2727	0.	-82.953
21293	23.483	5.3636	0.	-69.2
21294	23.483	5.2727	5.e-002	-2.793
21295	23.225	5.2727	0.	-86.044
21296	23.311	5.3636	0.	-71.746
21297	23.311	5.2727	5.e-002	-2.912
21298	23.139	5.3636	0.	-73.939
21299	23.139	5.2727	5.e-002	-3.6528
21300	23.053	5.2727	0.	-83.499
21301	23.742	5.4545	0.	-52.268
21302	23.828	5.5455	0.	-42.178
21303	23.828	5.4545	5.e-002	-1.5973
21304	23.914	5.4545	0.	-37.958
21305	23.569	5.4545	0.	-55.43
21306	23.656	5.5455	0.	-45.589
21307	23.656	5.4545	5.e-002	-2.0515
21308	23.397	5.4545	0.	-57.874
21309	23.483	5.5455	0.	-48.378
21310	23.483	5.4545	5.e-002	-2.1004
21311	23.225	5.4545	0.	-59.365
21312	23.311	5.5455	0.	-49.082
21313	23.311	5.4545	5.e-002	-2.2481
21314	23.139	5.5455	0.	-49.418
21315	23.139	5.4545	5.e-002	-2.8554
21316	23.053	5.4545	0.	-56.574
21317	23.742	5.6364	0.	-35.772
21318	23.828	5.7273	0.	-28.935
21319	23.828	5.6364	5.e-002	-1.3474
21320	23.914	5.6364	0.	-23.558
21321	23.569	5.6364	0.	-38.722
21322	23.656	5.7273	0.	-33.418
21323	23.656	5.6364	5.e-002	-1.327
21324	23.397	5.6364	0.	-39.615
21325	23.483	5.7273	0.	-35.212
21326	23.483	5.6364	5.e-002	-1.4357
21327	23.225	5.6364	0.	-38.897
21328	23.311	5.7273	0.	-33.528
21329	23.311	5.6364	5.e-002	-1.6791
21330	23.139	5.7273	0.	-30.468
21331	23.139	5.6364	5.e-002	-2.2298
21332	23.053	5.6364	0.	-35.261
21333	23.742	5.8182	0.	-26.646
21334	23.828	5.8182	5.e-002	-0.97355
21335	23.914	5.8182	0.	-15.045
21336	23.828	5.9091	0.	-19.472
21337	23.569	5.8182	0.	-30.085
21338	23.656	5.8182	5.e-002	-0.39489
21339	23.656	5.9091	0.	-24.657
21340	23.397	5.8182	0.	-29.462
21341	23.483	5.8182	5.e-002	-0.90305
21342	23.483	5.9091	0.	-25.886
21343	23.225	5.8182	0.	-25.253
21344	23.311	5.8182	5.e-002	-1.3495
21345	23.311	5.9091	0.	-22.915
21346	23.139	5.8182	5.e-002	-1.9306
21347	23.139	5.9091	0.	-16.382
21348	23.053	5.8182	0.	-18.374
21349	23.225	1.8182	0.	-516.5
21350	23.139	1.7273	0.	-491.48
21351	23.139	1.8182	5.e-002	-24.228
21352	23.053	1.8182	0.	-567.83
21353	23.397	1.8182	0.	-404.11
21354	23.311	1.7273	0.	-394.83
21355	23.311	1.8182	5.e-002	-11.264
21356	23.569	1.8182	0.	-337.61
21357	23.483	1.7273	0.	-334.75
21358	23.483	1.8182	5.e-002	-7.3204
21359	23.742	1.8182	0.	-296.57
21360	23.656	1.7273	0.	-291.48
21361	23.656	1.8182	5.e-002	-5.7926
21362	23.828	1.7273	0.	-267.97
21363	23.828	1.8182	5.e-002	-4.5756
21364	23.914	1.8182	0.	-253.57
21365	23.225	1.6364	0.	-370.72
21366	23.139	1.5455	0.	-343.58
21367	23.139	1.6364	5.e-002	-15.281
21368	23.053	1.6364	0.	-384.68
21369	23.397	1.6364	0.	-326.05
21370	23.311	1.5455	0.	-307.84
21371	23.311	1.6364	5.e-002	-9.4229
21372	23.569	1.6364	0.	-288.85
21373	23.483	1.5455	0.	-276.15
21374	23.483	1.6364	5.e-002	-6.8624
21375	23.742	1.6364	0.	-262.88
21376	23.656	1.5455	0.	-249.59
21377	23.656	1.6364	5.e-002	-5.5186
21378	23.828	1.5455	0.	-234.72
21379	23.828	1.6364	5.e-002	-3.4537
21380	23.914	1.6364	0.	-228.43
21381	23.225	1.4545	0.	-280.58
21382	23.139	1.3636	0.	-256.19
21383	23.139	1.4545	5.e-002	-10.102
21384	23.053	1.4545	0.	-285.1
21385	23.397	1.4545	0.	-257.89
21386	23.311	1.3636	0.	-238.32
21387	23.311	1.4545	5.e-002	-7.0725
21388	23.569	1.4545	0.	-236.85
21389	23.483	1.3636	0.	-220.81
21390	23.483	1.4545	5.e-002	-6.0886
21391	23.742	1.4545	0.	-221.31
21392	23.656	1.3636	0.	-204.63
21393	23.656	1.4545	5.e-002	-5.185
21394	23.828	1.3636	0.	-195.71
21395	23.828	1.4545	5.e-002	-2.9607
21396	23.914	1.4545	0.	-193.48
21397	23.225	1.2727	0.	-213.69
21398	23.139	1.1818	0.	-192.71
21399	23.139	1.2727	5.e-002	-7.5502
21400	23.053	1.2727	0.	-213.76
21401	23.397	1.2727	0.	-201.11
21402	23.311	1.1818	0.	-182.78
21403	23.311	1.2727	5.e-002	-5.6691
21404	23.569	1.2727	0.	-188.53
21405	23.483	1.1818	0.	-172.45
21406	23.483	1.2727	5.e-002	-5.1401
21407	23.742	1.2727	0.	-178.91
21408	23.656	1.1818	0.	-161.96
21409	23.656	1.2727	5.e-002	-4.6677
21410	23.828	1.1818	0.	-156.39
21411	23.828	1.2727	5.e-002	-2.6908
21412	23.914	1.2727	0.	-155.34
21413	23.225	1.0909	0.	-161.52
21414	23.139	1.	0.	-143.74
21415	23.139	1.0909	5.e-002	-5.8535
21416	23.053	1.0909	0.	-159.88
21417	23.397	1.0909	0.	-153.95
21418	23.311	1.	0.	-137.74
21419	23.311	1.0909	5.e-002	-4.557
21420	23.569	1.0909	0.	-145.84
21421	23.483	1.	0.	-131.23
21422	23.483	1.0909	5.e-002	-4.2883
21423	23.742	1.0909	0.	-139.38
21424	23.656	1.	0.	-123.9
21425	23.656	1.0909	5.e-002	-4.0633
21426	23.828	1.	0.	-120.
21427	23.828	1.0909	5.e-002	-2.4315
21428	23.914	1.0909	0.	-118.58
21429	23.225	0.90909	0.	-119.69
21430	23.139	0.81818	0.	-104.9
21431	23.139	0.90909	5.e-002	-4.6269
21432	23.053	0.90909	0.	-117.38
21433	23.397	0.90909	0.	-114.84
21434	23.311	0.81818	0.	-101.1
21435	23.311	0.90909	5.e-002	-3.6707
21436	23.569	0.90909	0.	-109.27
21437	23.483	0.81818	0.	-96.857
21438	23.483	0.90909	5.e-002	-3.5183
21439	23.742	0.90909	0.	-104.54
21440	23.656	0.81818	0.	-91.455
21441	23.656	0.90909	5.e-002	-3.4141
21442	23.828	0.81818	0.	-88.279
21443	23.828	0.90909	5.e-002	-2.1547
21444	23.914	0.90909	0.	-85.904
21445	23.225	0.72727	0.	-86.044
21446	23.139	0.63636	0.	-73.939
21447	23.139	0.72727	5.e-002	-3.6528
21448	23.053	0.72727	0.	-83.499
21449	23.397	0.72727	0.	-82.953
21450	23.311	0.63636	0.	-71.746
21451	23.311	0.72727	5.e-002	-2.912
21452	23.569	0.72727	0.	-79.065
21453	23.483	0.63636	0.	-69.2
21454	23.483	0.72727	5.e-002	-2.793
21455	23.742	0.72727	0.	-75.32
21456	23.656	0.63636	0.	-65.197
21457	23.656	0.72727	5.e-002	-2.7449
21458	23.828	0.63636	0.	-62.152
21459	23.828	0.72727	5.e-002	-1.8725
21460	23.914	0.72727	0.	-58.785
21461	23.225	0.54545	0.	-59.366
21462	23.139	0.45455	0.	-49.418
21463	23.139	0.54545	5.e-002	-2.8554
21464	23.053	0.54545	0.	-56.574
21465	23.397	0.54545	0.	-57.874
21466	23.311	0.45455	0.	-49.082
21467	23.311	0.54545	5.e-002	-2.2481
21468	23.569	0.54545	0.	-55.43
21469	23.483	0.45455	0.	-48.378
21470	23.483	0.54545	5.e-002	-2.1004
21471	23.742	0.54545	0.	-52.268
21472	23.656	0.45455	0.	-45.589
21473	23.656	0.54545	5.e-002	-2.0515
21474	23.828	0.45455	0.	-42.178
21475	23.828	0.54545	5.e-002	-1.5973
21476	23.914	0.54545	0.	-37.958
21477	23.225	0.36364	0.	-38.897
21478	23.139	0.27273	0.	-30.468
21479	23.139	0.36364	5.e-002	-2.2298
21480	23.053	0.36364	0.	-35.261
21481	23.397	0.36364	0.	-39.615
21482	23.311	0.27273	0.	-33.528
21483	23.311	0.36364	5.e-002	-1.6791
21484	23.569	0.36364	0.	-38.722
21485	23.483	0.27273	0.	-35.212
21486	23.483	0.36364	5.e-002	-1.4357
21487	23.742	0.36364	0.	-35.772
21488	23.656	0.27273	0.	-33.418
21489	23.656	0.36364	5.e-002	-1.327
21490	23.828	0.27273	0.	-28.935
21491	23.828	0.36364	5.e-002	-1.3474
21492	23.914	0.36364	0.	-23.558
21493	23.225	0.18182	0.	-25.253
21494	23.139	0.18182	5.e-002	-1.9306
21495	23.139	9.0909e-002	0.	-16.382
21496	23.053	0.18182	0.	-18.374
21497	23.397	0.18182	0.	-29.462
21498	23.311	0.18182	5.e-002	-1.3495
21499	23.311	9.0909e-002	0.	-22.915
21500	23.569	0.18182	0.	-30.085
21501	23.483	0.18182	5.e-002	-0.90305
21502	23.483	9.0909e-002	0.	-25.886
21503	23.742	0.18182	0.	-26.646
21504	23.656	0.18182	5.e-002	-0.3949
21505	23.656	9.0909e-002	0.	-24.657
21506	23.828	0.18182	5.e-002	-0.97355
21507	23.828	9.0909e-002	0.	-19.472
21508	23.914	0.18182	0.	-15.045
21509	23.742	0.18182	0.1	-17.239
21510	23.828	0.27273	0.1	-23.781
21511	23.914	0.18182	0.1	-21.138
21512	23.828	9.0909e-002	0.1	-13.601
21513	23.569	0.18182	0.1	-11.79
21514	23.656	0.27273	0.1	-14.327
21515	23.656	9.0909e-002	0.1	-10.322
21516	23.397	0.18182	0.1	-7.4384
21517	23.483	0.27273	0.1	-8.2098
21518	23.483	9.0909e-002	0.1	-6.9725
21519	23.225	0.18182	0.1	-4.3045
21520	23.311	0.27273	0.1	-4.0024
21521	23.311	9.0909e-002	0.1	-3.6876
21522	23.139	0.27273	0.1	-3.1787
21523	23.053	0.18182	0.1	-1.2261
21524	23.139	9.0909e-002	0.1	-1.4232
21525	23.742	0.36364	0.1	-20.899
21526	23.828	0.45455	0.1	-28.973
21527	23.914	0.36364	0.1	-27.896
21528	23.569	0.36364	0.1	-10.879
21529	23.656	0.45455	0.1	-14.962
21530	23.397	0.36364	0.1	-4.9725
21531	23.483	0.45455	0.1	-6.8591
21532	23.225	0.36364	0.1	-2.9608
21533	23.311	0.45455	0.1	-2.8258
21534	23.139	0.45455	0.1	-3.4995
21535	23.053	0.36364	0.1	-1.0921
21536	23.742	0.54545	0.1	-23.288
21537	23.828	0.63636	0.1	-31.877
21538	23.914	0.54545	0.1	-29.822
21539	23.569	0.54545	0.1	-11.086
21540	23.656	0.63636	0.1	-15.49
21541	23.397	0.54545	0.1	-4.5718
21542	23.483	0.63636	0.1	-6.4546
21543	23.225	0.54545	0.1	-3.1873
21544	23.311	0.63636	0.1	-2.6427
21545	23.139	0.63636	0.1	-4.2046
21546	23.053	0.54545	0.1	-1.4497
21547	23.742	0.72727	0.1	-24.292
21548	23.828	0.81818	0.1	-33.227
21549	23.914	0.72727	0.1	-29.791
21550	23.569	0.72727	0.1	-10.903
21551	23.656	0.81818	0.1	-15.201
21552	23.397	0.72727	0.1	-4.2136
21553	23.483	0.81818	0.1	-5.5981
21554	23.225	0.72727	0.1	-3.4455
21555	23.311	0.81818	0.1	-2.2206
21556	23.139	0.81818	0.1	-4.7818
21557	23.053	0.72727	0.1	-1.7586
21558	23.742	0.90909	0.1	-24.239
21559	23.828	1.	0.1	-33.578
21560	23.914	0.90909	0.1	-29.011
21561	23.569	0.90909	0.1	-9.8461
21562	23.656	1.	0.1	-13.928
21563	23.397	0.90909	0.1	-3.1639
21564	23.483	1.	0.1	-3.6501
21565	23.225	0.90909	0.1	-3.3153
21566	23.311	1.	0.1	-1.3844
21567	23.139	1.	0.1	-5.0629
21568	23.053	0.90909	0.1	-1.8671
21569	23.742	1.0909	0.1	-23.269
21570	23.828	1.1818	0.1	-33.31
21571	23.914	1.0909	0.1	-27.934
21572	23.569	1.0909	0.1	-7.5582
21573	23.656	1.1818	0.1	-11.6
21574	23.397	1.0909	0.1	-1.3557
21575	23.483	1.1818	0.1	-0.72372
21576	23.225	1.0909	0.1	-2.6721
21577	23.311	1.1818	0.1	-0.72405
21578	23.139	1.1818	0.1	-5.0108
21579	23.053	1.0909	0.1	-1.6854
21580	23.742	1.2727	0.1	-21.576
21581	23.828	1.3636	0.1	-32.859
21582	23.914	1.2727	0.1	-26.793
21583	23.569	1.2727	0.1	-3.7414
21584	23.656	1.3636	0.1	-8.4037
21585	23.397	1.2727	0.1	-0.40459
21586	23.483	1.3636	0.1	-5.8988e-002
21587	23.225	1.2727	0.1	-1.8478
21588	23.311	1.3636	0.1	-0.453
21589	23.139	1.3636	0.1	-4.4824
21590	23.053	1.2727	0.1	-0.95937
21591	23.742	1.4545	0.1	-19.597
21592	23.828	1.5455	0.1	-32.658
21593	23.914	1.4545	0.1	-25.807
21594	23.569	1.4545	0.1	-9.0184e-002
21595	23.656	1.5455	0.1	-5.1742
21596	23.397	1.4545	0.1	-0.16874
21597	23.483	1.5455	0.1	1.0709e-002
21598	23.225	1.4545	0.1	-1.2817
21599	23.311	1.5455	0.1	-0.15549
21600	23.139	1.5455	0.1	-4.406
21601	23.053	1.4545	0.1	-0.21455
21602	23.742	1.6364	0.1	-18.016
21603	23.828	1.7273	0.1	-32.637
21604	23.914	1.6364	0.1	-25.08
21605	23.569	1.6364	0.1	-0.31087
21606	23.656	1.7273	0.1	-3.636
21607	23.397	1.6364	0.1	4.6289e-002
21608	23.483	1.7273	0.1	-9.0016e-002
21609	23.225	1.6364	0.1	-0.99225
21610	23.311	1.7273	0.1	-0.20462
21611	23.139	1.7273	0.1	-1.3841
21612	23.053	1.6364	0.1	-2.1071
21613	23.742	1.8182	0.1	-16.956
21614	23.828	1.9091	0.1	-31.608
21615	23.914	1.8182	0.1	-24.174
21616	23.569	1.8182	0.1	-0.91644
21617	23.656	1.9091	0.1	-3.7539
21618	23.397	1.8182	0.1	-0.37402
21619	23.483	1.9091	0.1	-0.32891
21620	23.225	1.8182	0.1	1.6873
21621	23.311	1.9091	0.1	-3.8716
21622	23.139	1.9091	0.1	16.036
21623	23.053	1.8182	0.1	-0.25969
21624	23.225	5.8182	0.1	-4.3045
21625	23.139	5.7273	0.1	-3.1787
21626	23.053	5.8182	0.1	-1.2261
21627	23.139	5.9091	0.1	-1.4232
21628	23.397	5.8182	0.1	-7.4384
21629	23.311	5.7273	0.1	-4.0024
21630	23.311	5.9091	0.1	-3.6876
21631	23.569	5.8182	0.1	-11.79
21632	23.483	5.7273	0.1	-8.2098
21633	23.483	5.9091	0.1	-6.9725
21634	23.742	5.8182	0.1	-17.239
21635	23.656	5.7273	0.1	-14.327
21636	23.656	5.9091	0.1	-10.322
21637	23.828	5.7273	0.1	-23.781
21638	23.828	5.9091	0.1	-13.601
21639	23.914	5.8182	0.1	-21.138
21640	23.225	5.6364	0.1	-2.9608
21641	23.139	5.5455	0.1	-3.4995
21642	23.053	5.6364	0.1	-1.0921
21643	23.397	5.6364	0.1	-4.9725
21644	23.311	5.5455	0.1	-2.8258
21645	23.569	5.6364	0.1	-10.879
21646	23.483	5.5455	0.1	-6.8591
21647	23.742	5.6364	0.1	-20.899
21648	23.656	5.5455	0.1	-14.963
21649	23.828	5.5455	0.1	-28.973
21650	23.914	5.6364	0.1	-27.896
21651	23.225	5.4545	0.1	-3.1873
21652	23.139	5.3636	0.1	-4.2046
21653	23.053	5.4545	0.1	-1.4497
21654	23.397	5.4545	0.1	-4.5718
21655	23.311	5.3636	0.1	-2.6428
21656	23.569	5.4545	0.1	-11.086
21657	23.483	5.3636	0.1	-6.4546
21658	23.742	5.4545	0.1	-23.288
21659	23.656	5.3636	0.1	-15.49
21660	23.828	5.3636	0.1	-31.877
21661	23.914	5.4545	0.1	-29.822
21662	23.225	5.2727	0.1	-3.4456
21663	23.139	5.1818	0.1	-4.7818
21664	23.053	5.2727	0.1	-1.7586
21665	23.397	5.2727	0.1	-4.2136
21666	23.311	5.1818	0.1	-2.2207
21667	23.569	5.2727	0.1	-10.903
21668	23.483	5.1818	0.1	-5.5982
21669	23.742	5.2727	0.1	-24.292
21670	23.656	5.1818	0.1	-15.201
21671	23.828	5.1818	0.1	-33.227
21672	23.914	5.2727	0.1	-29.791
21673	23.225	5.0909	0.1	-3.3153
21674	23.139	5.	0.1	-5.0629
21675	23.053	5.0909	0.1	-1.8671
21676	23.397	5.0909	0.1	-3.1639
21677	23.311	5.	0.1	-1.3844
21678	23.569	5.0909	0.1	-9.8462
21679	23.483	5.	0.1	-3.6502
21680	23.742	5.0909	0.1	-24.239
21681	23.656	5.	0.1	-13.928
21682	23.828	5.	0.1	-33.578
21683	23.914	5.0909	0.1	-29.011
21684	23.225	4.9091	0.1	-2.6721
21685	23.139	4.8182	0.1	-5.0108
21686	23.053	4.9091	0.1	-1.6854
21687	23.397	4.9091	0.1	-1.3557
21688	23.311	4.8182	0.1	-0.72405
21689	23.569	4.9091	0.1	-7.5582
21690	23.483	4.8182	0.1	-0.72375
21691	23.742	4.9091	0.1	-23.269
21692	23.656	4.8182	0.1	-11.6
21693	23.828	4.8182	0.1	-33.31
21694	23.914	4.9091	0.1	-27.934
21695	23.225	4.7273	0.1	-1.8478
21696	23.139	4.6364	0.1	-4.4824
21697	23.053	4.7273	0.1	-0.95939
21698	23.397	4.7273	0.1	-0.4046
21699	23.311	4.6364	0.1	-0.453
21700	23.569	4.7273	0.1	-3.7415
21701	23.483	4.6364	0.1	-5.8989e-002
21702	23.742	4.7273	0.1	-21.576
21703	23.656	4.6364	0.1	-8.4038
21704	23.828	4.6364	0.1	-32.859
21705	23.914	4.7273	0.1	-26.793
21706	23.225	4.5455	0.1	-1.2817
21707	23.139	4.4545	0.1	-4.406
21708	23.053	4.5455	0.1	-0.21456
21709	23.397	4.5455	0.1	-0.16874
21710	23.311	4.4545	0.1	-0.15549
21711	23.569	4.5455	0.1	-9.0185e-002
21712	23.483	4.4545	0.1	1.0708e-002
21713	23.742	4.5455	0.1	-19.597
21714	23.656	4.4545	0.1	-5.1742
21715	23.828	4.4545	0.1	-32.658
21716	23.914	4.5455	0.1	-25.807
21717	23.225	4.3636	0.1	-0.99226
21718	23.139	4.2727	0.1	-1.3841
21719	23.053	4.3636	0.1	-2.1071
21720	23.397	4.3636	0.1	4.6289e-002
21721	23.311	4.2727	0.1	-0.20462
21722	23.569	4.3636	0.1	-0.31087
21723	23.483	4.2727	0.1	-9.0016e-002
21724	23.742	4.3636	0.1	-18.016
21725	23.656	4.2727	0.1	-3.636
21726	23.828	4.2727	0.1	-32.637
21727	23.914	4.3636	0.1	-25.08
21728	23.225	4.1818	0.1	1.6873
21729	23.139	4.0909	0.1	16.036
21730	23.053	4.1818	0.1	-0.25972
21731	23.397	4.1818	0.1	-0.37402
21732	23.311	4.0909	0.1	-3.8716
21733	23.569	4.1818	0.1	-0.91644
21734	23.483	4.0909	0.1	-0.32891
21735	23.742	4.1818	0.1	-16.956
21736	23.656	4.0909	0.1	-3.7539
21737	23.828	4.0909	0.1	-31.608
21738	23.914	4.1818	0.1	-24.174
21739	23.828	3.7273	0.1	-18.689
21740	23.742	3.8182	0.1	-10.226
21741	23.828	3.9091	0.1	-27.469
21742	23.914	3.8182	0.1	-16.209
21743	23.828	3.5455	0.1	-7.8483
21744	23.742	3.6364	0.1	-5.0073
21745	23.914	3.6364	0.1	-6.3107
21746	23.828	3.3636	0.1	-2.5583
21747	23.742	3.4545	0.1	-2.2664
21748	23.914	3.4545	0.1	-0.89967
21749	23.828	3.1818	0.1	-0.99867
21750	23.742	3.2727	0.1	-1.0484
21751	23.914	3.2727	0.1	-0.86564
21752	23.828	3.	0.1	-0.62458
21753	23.742	3.0909	0.1	-0.57862
21754	23.914	3.0909	0.1	-0.85281
21755	23.828	2.8182	0.1	-0.99867
21756	23.742	2.9091	0.1	-0.57862
21757	23.914	2.9091	0.1	-0.85281
21758	23.828	2.6364	0.1	-2.5583
21759	23.742	2.7273	0.1	-1.0484
21760	23.914	2.7273	0.1	-0.86564
21761	23.828	2.4545	0.1	-7.8483
21762	23.742	2.5455	0.1	-2.2664
21763	23.914	2.5455	0.1	-0.89967
21764	23.828	2.2727	0.1	-18.689
21765	23.742	2.3636	0.1	-5.0073
21766	23.914	2.3636	0.1	-6.3107
21767	23.742	2.1818	0.1	-10.226
21768	23.828	2.0909	0.1	-27.469
21769	23.914	2.1818	0.1	-16.209
21770	23.656	3.7273	0.1	-3.0604
21771	23.569	3.8182	0.1	-3.2101
21772	23.656	3.9091	0.1	-3.8067
21773	23.656	3.5455	0.1	-2.0333
21774	23.569	3.6364	0.1	-2.8624
21775	23.656	3.3636	0.1	-1.242
21776	23.569	3.4545	0.1	-1.5092
21777	23.656	3.1818	0.1	-0.77242
21778	23.569	3.2727	0.1	-0.76983
21779	23.656	3.	0.1	-0.62878
21780	23.569	3.0909	0.1	-0.43033
21781	23.656	2.8182	0.1	-0.77242
21782	23.569	2.9091	0.1	-0.43033
21783	23.656	2.6364	0.1	-1.242
21784	23.569	2.7273	0.1	-0.76983
21785	23.656	2.4545	0.1	-2.0333
21786	23.569	2.5455	0.1	-1.5092
21787	23.656	2.2727	0.1	-3.0604
21788	23.569	2.3636	0.1	-2.8624
21789	23.569	2.1818	0.1	-3.2101
21790	23.656	2.0909	0.1	-3.8067
21791	23.483	3.7273	0.1	-2.9077
21792	23.397	3.8182	0.1	-5.9211
21793	23.483	3.9091	0.1	-1.6284
21794	23.483	3.5455	0.1	-2.2023
21795	23.397	3.6364	0.1	-4.5639
21796	23.483	3.3636	0.1	-0.9655
21797	23.397	3.4545	0.1	-2.0681
21798	23.483	3.1818	0.1	-0.38748
21799	23.397	3.2727	0.1	-0.70248
21800	23.483	3.	0.1	-0.20036
21801	23.397	3.0909	0.1	-0.18155
21802	23.483	2.8182	0.1	-0.38747
21803	23.397	2.9091	0.1	-0.18155
21804	23.483	2.6364	0.1	-0.9655
21805	23.397	2.7273	0.1	-0.70248
21806	23.483	2.4545	0.1	-2.2023
21807	23.397	2.5455	0.1	-2.0681
21808	23.483	2.2727	0.1	-2.9077
21809	23.397	2.3636	0.1	-4.5639
21810	23.397	2.1818	0.1	-5.9211
21811	23.483	2.0909	0.1	-1.6284
21812	23.311	3.7273	0.1	-7.4407
21813	23.225	3.8182	0.1	-23.429
21814	23.311	3.9091	0.1	-7.4694
21815	23.311	3.5455	0.1	-4.7828
21816	23.225	3.6364	0.1	-17.73
21817	23.311	3.3636	0.1	-1.9162
21818	23.225	3.4545	0.1	-10.037
21819	23.311	3.1818	0.1	-0.45092
21820	23.225	3.2727	0.1	-3.9504
21821	23.311	3.	0.1	-8.429e-002
21822	23.225	3.0909	0.1	-0.62769
21823	23.311	2.8182	0.1	-0.45092
21824	23.225	2.9091	0.1	-0.62769
21825	23.311	2.6364	0.1	-1.9162
21826	23.225	2.7273	0.1	-3.9504
21827	23.311	2.4545	0.1	-4.7828
21828	23.225	2.5455	0.1	-10.037
21829	23.311	2.2727	0.1	-7.4408
21830	23.225	2.3636	0.1	-17.73
21831	23.225	2.1818	0.1	-23.429
21832	23.311	2.0909	0.1	-7.4694
21833	23.139	3.7273	0.1	-33.349
21834	23.053	3.8182	0.1	-86.822
21835	23.139	3.9091	0.1	-5.9376
21836	23.139	3.5455	0.1	-31.326
21837	23.053	3.6364	0.1	-67.154
21838	23.139	3.3636	0.1	-23.609
21839	23.053	3.4545	0.1	-51.381
21840	23.139	3.1818	0.1	-19.17
21841	23.053	3.2727	0.1	-43.203
21842	23.139	3.	0.1	-17.697
21843	23.053	3.0909	0.1	-39.319
21844	23.139	2.8182	0.1	-19.17
21845	23.053	2.9091	0.1	-39.319
21846	23.139	2.6364	0.1	-23.609
21847	23.053	2.7273	0.1	-43.203
21848	23.139	2.4545	0.1	-31.326
21849	23.053	2.5455	0.1	-51.381
21850	23.139	2.2727	0.1	-33.349
21851	23.053	2.3636	0.1	-67.154
21852	23.053	2.1818	0.1	-86.822
21853	23.139	2.0909	0.1	-5.9376
21854	22.967	3.7273	0.1	-123.34
21855	22.883	3.8182	0.1	-239.6
21856	22.967	3.9091	0.1	-84.436
21857	22.967	3.5455	0.1	-89.077
21858	22.883	3.6364	0.1	-132.89
21859	22.967	3.3636	0.1	-70.38
21860	22.883	3.4545	0.1	-98.618
21861	22.967	3.1818	0.1	-61.521
21862	22.883	3.2727	0.1	-82.639
21863	22.967	3.	0.1	-58.764
21864	22.883	3.0909	0.1	-75.845
21865	22.967	2.8182	0.1	-61.521
21866	22.883	2.9091	0.1	-75.845
21867	22.967	2.6364	0.1	-70.38
21868	22.883	2.7273	0.1	-82.639
21869	22.967	2.4545	0.1	-89.077
21870	22.883	2.5455	0.1	-98.618
21871	22.967	2.2727	0.1	-123.34
21872	22.883	2.3636	0.1	-132.89
21873	22.883	2.1818	0.1	-239.6
21874	22.967	2.0909	0.1	-84.436
21875	0.18387	0.27273	0.1	-448.07
21876	0.27581	0.18182	0.1	-164.56
21877	9.1935e-002	0.18182	0.1	399.97
21878	0.18387	9.0909e-002	0.1	-222.97
21879	0.18387	0.45455	0.1	-676.16
21880	0.27581	0.36364	0.1	-235.7
21881	9.1935e-002	0.36364	0.1	831.05
21882	0.18387	0.63636	0.1	-785.7
21883	0.27581	0.54545	0.1	-279.52
21884	9.1935e-002	0.54545	0.1	1028.2
21885	0.18387	0.81818	0.1	-855.91
21886	0.27581	0.72727	0.1	-310.74
21887	9.1935e-002	0.72727	0.1	1144.6
21888	0.18387	1.	0.1	-903.11
21889	0.27581	0.90909	0.1	-330.73
21890	9.1935e-002	0.90909	0.1	1223.2
21891	0.18387	1.1818	0.1	-937.43
21892	0.27581	1.0909	0.1	-345.3
21893	9.1935e-002	1.0909	0.1	1279.
21894	0.18387	1.3636	0.1	-962.98
21895	0.27581	1.2727	0.1	-356.02
21896	9.1935e-002	1.2727	0.1	1320.5
21897	0.18387	1.5455	0.1	-982.49
21898	0.27581	1.4545	0.1	-364.17
21899	9.1935e-002	1.4545	0.1	1351.9
21900	0.18387	1.7273	0.1	-997.53
21901	0.27581	1.6364	0.1	-370.44
21902	9.1935e-002	1.6364	0.1	1376.1
21903	0.18387	1.9091	0.1	-1009.2
21904	0.27581	1.8182	0.1	-375.31
21905	9.1935e-002	1.8182	0.1	1394.9
21906	0.18387	2.0909	0.1	-1018.2
21907	0.27581	2.	0.1	-379.08
21908	9.1935e-002	2.	0.1	1409.5
21909	0.18387	2.2727	0.1	-1025.
21910	0.27581	2.1818	0.1	-381.97
21911	9.1935e-002	2.1818	0.1	1420.6
21912	0.18387	2.4545	0.1	-1030.
21913	0.27581	2.3636	0.1	-384.14
21914	9.1935e-002	2.3636	0.1	1429.
21915	0.18387	2.6364	0.1	-1033.4
21916	0.27581	2.5455	0.1	-385.68
21917	9.1935e-002	2.5455	0.1	1435.
21918	0.18387	2.8182	0.1	-1035.4
21919	0.27581	2.7273	0.1	-386.67
21920	9.1935e-002	2.7273	0.1	1438.8
21921	0.18387	3.	0.1	-1036.1
21922	0.27581	2.9091	0.1	-387.16
21923	9.1935e-002	2.9091	0.1	1440.7
21924	0.18387	3.1818	0.1	-1035.4
21925	0.27581	3.0909	0.1	-387.16
21926	9.1935e-002	3.0909	0.1	1440.7
21927	0.18387	3.3636	0.1	-1033.4
21928	0.27581	3.2727	0.1	-386.67
21929	9.1935e-002	3.2727	0.1	1438.8
21930	0.18387	3.5455	0.1	-1030.
21931	0.27581	3.4545	0.1	-385.68
21932	9.1935e-002	3.4545	0.1	1435.
21933	0.18387	3.7273	0.1	-1025.
21934	0.27581	3.6364	0.1	-384.14
21935	9.1935e-002	3.6364	0.1	1429.
21936	0.18387	3.9091	0.1	-1018.2
21937	0.27581	3.8182	0.1	-381.97
21938	9.1935e-002	3.8182	0.1	1420.6
21939	0.18387	4.0909	0.1	-1009.2
21940	0.27581	4.	0.1	-379.08
21941	9.1935e-002	4.	0.1	1409.5
21942	0.18387	4.2727	0.1	-997.53
21943	0.27581	4.1818	0.1	-375.31
21944	9.1935e-002	4.1818	0.1	1394.9
21945	0.18387	4.4545	0.1	-982.49
21946	0.27581	4.3636	0.1	-370.44
21947	9.1935e-002	4.3636	0.1	1376.1
21948	0.18387	4.6364	0.1	-962.98
21949	0.27581	4.5455	0.1	-364.17
21950	9.1935e-002	4.5455	0.1	1351.9
21951	0.18387	4.8182	0.1	-937.43
21952	0.27581	4.7273	0.1	-356.02
21953	9.1935e-002	4.7273	0.1	1320.5
21954	0.18387	5.	0.1	-903.11
21955	0.27581	4.9091	0.1	-345.3
21956	9.1935e-002	4.9091	0.1	1279.
21957	0.18387	5.1818	0.1	-855.91
21958	0.27581	5.0909	0.1	-330.73
21959	9.1935e-002	5.0909	0.1	1223.2
21960	0.18387	5.3636	0.1	-785.7
21961	0.27581	5.2727	0.1	-310.74
21962	9.1935e-002	5.2727	0.1	1144.6
21963	0.18387	5.5455	0.1	-676.16
21964	0.27581	5.4545	0.1	-279.52
21965	9.1935e-002	5.4545	0.1	1028.2
21966	0.18387	5.7273	0.1	-448.07
21967	0.27581	5.6364	0.1	-235.7
21968	9.1935e-002	5.6364	0.1	831.05
21969	0.27581	5.8182	0.1	-164.56
21970	9.1935e-002	5.8182	0.1	399.97
21971	0.18387	5.9091	0.1	-222.97
21972	0.36774	0.27273	0.1	90.423
21973	0.45968	0.18182	0.1	-95.817
21974	0.36774	9.0909e-002	0.1	-132.22
21975	0.36774	0.45455	0.1	161.66
21976	0.45968	0.36364	0.1	48.832
21977	0.36774	0.63636	0.1	195.49
21978	0.45968	0.54545	0.1	67.288
21979	0.36774	0.81818	0.1	214.41
21980	0.45968	0.72727	0.1	76.526
21981	0.36774	1.	0.1	227.05
21982	0.45968	0.90909	0.1	82.353
21983	0.36774	1.1818	0.1	236.09
21984	0.45968	1.0909	0.1	86.388
21985	0.36774	1.3636	0.1	242.78
21986	0.45968	1.2727	0.1	89.318
21987	0.36774	1.5455	0.1	247.86
21988	0.45968	1.4545	0.1	91.519
21989	0.36774	1.7273	0.1	251.77
21990	0.45968	1.6364	0.1	93.205
21991	0.36774	1.9091	0.1	254.8
21992	0.45968	1.8182	0.1	94.507
21993	0.36774	2.0909	0.1	257.13
21994	0.45968	2.	0.1	95.512
21995	0.36774	2.2727	0.1	258.89
21996	0.45968	2.1818	0.1	96.282
21997	0.36774	2.4545	0.1	260.18
21998	0.45968	2.3636	0.1	96.857
21999	0.36774	2.6364	0.1	261.06
22000	0.45968	2.5455	0.1	97.266
22001	0.36774	2.8182	0.1	261.58
22002	0.45968	2.7273	0.1	97.529
22003	0.36774	3.	0.1	261.75
22004	0.45968	2.9091	0.1	97.658
22005	0.36774	3.1818	0.1	261.58
22006	0.45968	3.0909	0.1	97.658
22007	0.36774	3.3636	0.1	261.06
22008	0.45968	3.2727	0.1	97.529
22009	0.36774	3.5455	0.1	260.18
22010	0.45968	3.4545	0.1	97.266
22011	0.36774	3.7273	0.1	258.89
22012	0.45968	3.6364	0.1	96.857
22013	0.36774	3.9091	0.1	257.13
22014	0.45968	3.8182	0.1	96.282
22015	0.36774	4.0909	0.1	254.8
22016	0.45968	4.	0.1	95.512
22017	0.36774	4.2727	0.1	251.77
22018	0.45968	4.1818	0.1	94.507
22019	0.36774	4.4545	0.1	247.86
22020	0.45968	4.3636	0.1	93.205
22021	0.36774	4.6364	0.1	242.78
22022	0.45968	4.5455	0.1	91.519
22023	0.36774	4.8182	0.1	236.09
22024	0.45968	4.7273	0.1	89.318
22025	0.36774	5.	0.1	227.05
22026	0.45968	4.9091	0.1	86.388
22027	0.36774	5.1818	0.1	214.41
22028	0.45968	5.0909	0.1	82.353
22029	0.36774	5.3636	0.1	195.49
22030	0.45968	5.2727	0.1	76.526
22031	0.36774	5.5455	0.1	161.66
22032	0.45968	5.4545	0.1	67.288
22033	0.36774	5.7273	0.1	90.423
22034	0.45968	5.6364	0.1	48.832
22035	0.45968	5.8182	0.1	-95.817
22036	0.36774	5.9091	0.1	-132.22
22037	0.55161	0.27273	0.1	-33.772
22038	0.64355	0.18182	0.1	-86.886
22039	0.55161	9.0909e-002	0.1	-107.4
22040	0.55161	0.45455	0.1	-44.559
22041	0.64355	0.36364	0.1	-17.384
22042	0.55161	0.63636	0.1	-51.462
22043	0.64355	0.54545	0.1	-19.299
22044	0.55161	0.81818	0.1	-55.454
22045	0.64355	0.72727	0.1	-20.72
22046	0.55161	1.	0.1	-58.283
22047	0.64355	0.90909	0.1	-21.715
22048	0.55161	1.1818	0.1	-60.372
22049	0.64355	1.0909	0.1	-22.513
22050	0.55161	1.3636	0.1	-61.94
22051	0.64355	1.2727	0.1	-23.12
22052	0.55161	1.5455	0.1	-63.138
22053	0.64355	1.4545	0.1	-23.59
22054	0.55161	1.7273	0.1	-64.063
22055	0.64355	1.6364	0.1	-23.954
22056	0.55161	1.9091	0.1	-64.78
22057	0.64355	1.8182	0.1	-24.237
22058	0.55161	2.0909	0.1	-65.333
22059	0.64355	2.	0.1	-24.456
22060	0.55161	2.2727	0.1	-65.752
22061	0.64355	2.1818	0.1	-24.624
22062	0.55161	2.4545	0.1	-66.06
22063	0.64355	2.3636	0.1	-24.75
22064	0.55161	2.6364	0.1	-66.27
22065	0.64355	2.5455	0.1	-24.84
22066	0.55161	2.8182	0.1	-66.393
22067	0.64355	2.7273	0.1	-24.897
22068	0.55161	3.	0.1	-66.433
22069	0.64355	2.9091	0.1	-24.926
22070	0.55161	3.1818	0.1	-66.393
22071	0.64355	3.0909	0.1	-24.926
22072	0.55161	3.3636	0.1	-66.27
22073	0.64355	3.2727	0.1	-24.897
22074	0.55161	3.5455	0.1	-66.06
22075	0.64355	3.4545	0.1	-24.84
22076	0.55161	3.7273	0.1	-65.752
22077	0.64355	3.6364	0.1	-24.75
22078	0.55161	3.9091	0.1	-65.333
22079	0.64355	3.8182	0.1	-24.624
22080	0.55161	4.0909	0.1	-64.78
22081	0.64355	4.	0.1	-24.456
22082	0.55161	4.2727	0.1	-64.063
22083	0.64355	4.1818	0.1	-24.237
22084	0.55161	4.4545	0.1	-63.138
22085	0.64355	4.3636	0.1	-23.954
22086	0.55161	4.6364	0.1	-61.94
22087	0.64355	4.5455	0.1	-23.59
22088	0.55161	4.8182	0.1	-60.372
22089	0.64355	4.7273	0.1	-23.12
22090	0.55161	5.	0.1	-58.283
22091	0.64355	4.9091	0.1	-22.513
22092	0.55161	5.1818	0.1	-55.454
22093	0.64355	5.0909	0.1	-21.715
22094	0.55161	5.3636	0.1	-51.462
22095	0.64355	5.2727	0.1	-20.72
22096	0.55161	5.5455	0.1	-44.559
22097	0.64355	5.4545	0.1	-19.299
22098	0.55161	5.7273	0.1	-33.772
22099	0.64355	5.6364	0.1	-17.384
22100	0.64355	5.8182	0.1	-86.886
22101	0.55161	5.9091	0.1	-107.4
22102	0.73548	0.27273	0.1	-0.39735
22103	0.82742	0.18182	0.1	-61.506
22104	0.73548	9.0909e-002	0.1	-72.742
22105	0.73548	0.45455	0.1	8.4407
22106	0.82742	0.36364	0.1	0.40741
22107	0.73548	0.63636	0.1	11.59
22108	0.82742	0.54545	0.1	3.332
22109	0.73548	0.81818	0.1	13.077
22110	0.82742	0.72727	0.1	4.2046
22111	0.73548	1.	0.1	14.081
22112	0.82742	0.90909	0.1	4.8285
22113	0.73548	1.1818	0.1	14.751
22114	0.82742	1.0909	0.1	5.1935
22115	0.73548	1.3636	0.1	15.236
22116	0.82742	1.2727	0.1	5.4445
22117	0.73548	1.5455	0.1	15.597
22118	0.82742	1.4545	0.1	5.6211
22119	0.73548	1.7273	0.1	15.874
22120	0.82742	1.6364	0.1	5.7532
22121	0.73548	1.9091	0.1	16.088
22122	0.82742	1.8182	0.1	5.8541
22123	0.73548	2.0909	0.1	16.253
22124	0.82742	2.	0.1	5.932
22125	0.73548	2.2727	0.1	16.378
22126	0.82742	2.1818	0.1	5.9919
22127	0.73548	2.4545	0.1	16.47
22128	0.82742	2.3636	0.1	6.0369
22129	0.73548	2.6364	0.1	16.533
22130	0.82742	2.5455	0.1	6.0691
22131	0.73548	2.8182	0.1	16.57
22132	0.82742	2.7273	0.1	6.0898
22133	0.73548	3.	0.1	16.582
22134	0.82742	2.9091	0.1	6.1
22135	0.73548	3.1818	0.1	16.57
22136	0.82742	3.0909	0.1	6.1
22137	0.73548	3.3636	0.1	16.533
22138	0.82742	3.2727	0.1	6.0898
22139	0.73548	3.5455	0.1	16.47
22140	0.82742	3.4545	0.1	6.0691
22141	0.73548	3.7273	0.1	16.378
22142	0.82742	3.6364	0.1	6.0369
22143	0.73548	3.9091	0.1	16.253
22144	0.82742	3.8182	0.1	5.9919
22145	0.73548	4.0909	0.1	16.088
22146	0.82742	4.	0.1	5.932
22147	0.73548	4.2727	0.1	15.874
22148	0.82742	4.1818	0.1	5.8541
22149	0.73548	4.4545	0.1	15.597
22150	0.82742	4.3636	0.1	5.7532
22151	0.73548	4.6364	0.1	15.236
22152	0.82742	4.5455	0.1	5.6211
22153	0.73548	4.8182	0.1	14.751
22154	0.82742	4.7273	0.1	5.4445
22155	0.73548	5.	0.1	14.081
22156	0.82742	4.9091	0.1	5.1935
22157	0.73548	5.1818	0.1	13.077
22158	0.82742	5.0909	0.1	4.8285
22159	0.73548	5.3636	0.1	11.59
22160	0.82742	5.2727	0.1	4.2046
22161	0.73548	5.5455	0.1	8.4407
22162	0.82742	5.4545	0.1	3.332
22163	0.73548	5.7273	0.1	-0.39737
22164	0.82742	5.6364	0.1	0.40741
22165	0.82742	5.8182	0.1	-61.506
22166	0.73548	5.9091	0.1	-72.742
22167	0.91935	0.27273	0.1	-7.0618
22168	1.0113	0.18182	0.1	-43.347
22169	0.91935	9.0909e-002	0.1	-51.508
22170	0.91935	0.45455	0.1	-4.2563
22171	1.0113	0.36364	0.1	-3.3106
22172	0.91935	0.63636	0.1	-3.9437
22173	1.0113	0.54545	0.1	-2.
22174	0.91935	0.81818	0.1	-3.9974
22175	1.0113	0.72727	0.1	-1.8595
22176	0.91935	1.	0.1	-4.0354
22177	1.0113	0.90909	0.1	-1.7226
22178	0.91935	1.1818	0.1	-4.1011
22179	1.0113	1.0909	0.1	-1.6844
22180	0.91935	1.3636	0.1	-4.1637
22181	1.0113	1.2727	0.1	-1.6721
22182	0.91935	1.5455	0.1	-4.2194
22183	1.0113	1.4545	0.1	-1.676
22184	0.91935	1.7273	0.1	-4.2648
22185	1.0113	1.6364	0.1	-1.6841
22186	0.91935	1.9091	0.1	-4.3007
22187	1.0113	1.8182	0.1	-1.6927
22188	0.91935	2.0909	0.1	-4.3283
22189	1.0113	2.	0.1	-1.7
22190	0.91935	2.2727	0.1	-4.349
22191	1.0113	2.1818	0.1	-1.7057
22192	0.91935	2.4545	0.1	-4.364
22193	1.0113	2.3636	0.1	-1.7099
22194	0.91935	2.6364	0.1	-4.374
22195	1.0113	2.5455	0.1	-1.7127
22196	0.91935	2.8182	0.1	-4.3799
22197	1.0113	2.7273	0.1	-1.7145
22198	0.91935	3.	0.1	-4.3818
22199	1.0113	2.9091	0.1	-1.7153
22200	0.91935	3.1818	0.1	-4.3799
22201	1.0113	3.0909	0.1	-1.7153
22202	0.91935	3.3636	0.1	-4.374
22203	1.0113	3.2727	0.1	-1.7145
22204	0.91935	3.5455	0.1	-4.364
22205	1.0113	3.4545	0.1	-1.7127
22206	0.91935	3.7273	0.1	-4.349
22207	1.0113	3.6364	0.1	-1.7099
22208	0.91935	3.9091	0.1	-4.3283
22209	1.0113	3.8182	0.1	-1.7057
22210	0.91935	4.0909	0.1	-4.3007
22211	1.0113	4.	0.1	-1.7
22212	0.91935	4.2727	0.1	-4.2648
22213	1.0113	4.1818	0.1	-1.6927
22214	0.91935	4.4545	0.1	-4.2194
22215	1.0113	4.3636	0.1	-1.6841
22216	0.91935	4.6364	0.1	-4.1637
22217	1.0113	4.5455	0.1	-1.676
22218	0.91935	4.8182	0.1	-4.1011
22219	1.0113	4.7273	0.1	-1.6721
22220	0.91935	5.	0.1	-4.0354
22221	1.0113	4.9091	0.1	-1.6844
22222	0.91935	5.1818	0.1	-3.9974
22223	1.0113	5.0909	0.1	-1.7226
22224	0.91935	5.3636	0.1	-3.9437
22225	1.0113	5.2727	0.1	-1.8595
22226	0.91935	5.5455	0.1	-4.2563
22227	1.0113	5.4545	0.1	-2.
22228	0.91935	5.7273	0.1	-7.0618
22229	1.0113	5.6364	0.1	-3.3106
22230	1.0113	5.8182	0.1	-43.348
22231	0.91935	5.9091	0.1	-51.508
22232	1.1032	0.27273	0.1	-3.9843
22233	1.1952	0.18182	0.1	-28.531
22234	1.1032	9.0909e-002	0.1	-33.798
22235	1.1032	0.45455	0.1	-0.71928
22236	1.1952	0.36364	0.1	-1.8874
22237	1.1032	0.63636	0.1	0.16595
22238	1.1952	0.54545	0.1	-0.45207
22239	1.1032	0.81818	0.1	0.4509
22240	1.1952	0.72727	0.1	-0.19385
22241	1.1032	1.	0.1	0.6471
22242	1.1952	0.90909	0.1	2.5336e-002
22243	1.1032	1.1818	0.1	0.75512
22244	1.1952	1.0909	0.1	0.13202
22245	1.1032	1.3636	0.1	0.82178
22246	1.1952	1.2727	0.1	0.19762
22247	1.1032	1.5455	0.1	0.8629
22248	1.1952	1.4545	0.1	0.23388
22249	1.1032	1.7273	0.1	0.89024
22250	1.1952	1.6364	0.1	0.25534
22251	1.1032	1.9091	0.1	0.90945
22252	1.1952	1.8182	0.1	0.26842
22253	1.1032	2.0909	0.1	0.92359
22254	1.1952	2.	0.1	0.277
22255	1.1032	2.2727	0.1	0.93418
22256	1.1952	2.1818	0.1	0.28294
22257	1.1032	2.4545	0.1	0.94198
22258	1.1952	2.3636	0.1	0.28719
22259	1.1032	2.6364	0.1	0.94737
22260	1.1952	2.5455	0.1	0.29018
22261	1.1032	2.8182	0.1	0.95054
22262	1.1952	2.7273	0.1	0.29211
22263	1.1032	3.	0.1	0.95159
22264	1.1952	2.9091	0.1	0.29306
22265	1.1032	3.1818	0.1	0.95054
22266	1.1952	3.0909	0.1	0.29306
22267	1.1032	3.3636	0.1	0.94737
22268	1.1952	3.2727	0.1	0.29211
22269	1.1032	3.5455	0.1	0.94198
22270	1.1952	3.4545	0.1	0.29018
22271	1.1032	3.7273	0.1	0.93418
22272	1.1952	3.6364	0.1	0.28719
22273	1.1032	3.9091	0.1	0.92359
22274	1.1952	3.8182	0.1	0.28294
22275	1.1032	4.0909	0.1	0.90945
22276	1.1952	4.	0.1	0.277
22277	1.1032	4.2727	0.1	0.89024
22278	1.1952	4.1818	0.1	0.26842
22279	1.1032	4.4545	0.1	0.8629
22280	1.1952	4.3636	0.1	0.25534
22281	1.1032	4.6364	0.1	0.82178
22282	1.1952	4.5455	0.1	0.23388
22283	1.1032	4.8182	0.1	0.75512
22284	1.1952	4.7273	0.1	0.19762
22285	1.1032	5.	0.1	0.6471
22286	1.1952	4.9091	0.1	0.13202
22287	1.1032	5.1818	0.1	0.4509
22288	1.1952	5.0909	0.1	2.5336e-002
22289	1.1032	5.3636	0.1	0.16595
22290	1.1952	5.2727	0.1	-0.19385
22291	1.1032	5.5455	0.1	-0.71928
22292	1.1952	5.4545	0.1	-0.45207
22293	1.1032	5.7273	0.1	-3.9843
22294	1.1952	5.6364	0.1	-1.8874
22295	1.1952	5.8182	0.1	-28.531
22296	1.1032	5.9091	0.1	-33.799
22297	1.2871	0.27273	0.1	-3.6472
22298	1.379	0.18182	0.1	-18.455
22299	1.2871	9.0909e-002	0.1	-20.471
22300	1.2871	0.45455	0.1	-1.3585
22301	1.379	0.36364	0.1	-1.8665
22302	1.2871	0.63636	0.1	-0.74783
22303	1.379	0.54545	0.1	-0.70063
22304	1.2871	0.81818	0.1	-0.59149
22305	1.379	0.72727	0.1	-0.52688
22306	1.2871	1.	0.1	-0.47461
22307	1.379	0.90909	0.1	-0.35927
22308	1.2871	1.1818	0.1	-0.41652
22309	1.379	1.0909	0.1	-0.27951
22310	1.2871	1.3636	0.1	-0.38475
22311	1.379	1.2727	0.1	-0.22997
22312	1.2871	1.5455	0.1	-0.37016
22313	1.379	1.4545	0.1	-0.20441
22314	1.2871	1.7273	0.1	-0.36418
22315	1.379	1.6364	0.1	-0.19139
22316	1.2871	1.9091	0.1	-0.36248
22317	1.379	1.8182	0.1	-0.18554
22318	1.2871	2.0909	0.1	-0.36257
22319	1.379	2.	0.1	-0.18328
22320	1.2871	2.2727	0.1	-0.36325
22321	1.379	2.1818	0.1	-0.18272
22322	1.2871	2.4545	0.1	-0.36398
22323	1.379	2.3636	0.1	-0.18283
22324	1.2871	2.6364	0.1	-0.36454
22325	1.379	2.5455	0.1	-0.18314
22326	1.2871	2.8182	0.1	-0.36489
22327	1.379	2.7273	0.1	-0.18341
22328	1.2871	3.	0.1	-0.365
22329	1.379	2.9091	0.1	-0.18356
22330	1.2871	3.1818	0.1	-0.36489
22331	1.379	3.0909	0.1	-0.18356
22332	1.2871	3.3636	0.1	-0.36454
22333	1.379	3.2727	0.1	-0.18341
22334	1.2871	3.5455	0.1	-0.36398
22335	1.379	3.4545	0.1	-0.18314
22336	1.2871	3.7273	0.1	-0.36325
22337	1.379	3.6364	0.1	-0.18283
22338	1.2871	3.9091	0.1	-0.36257
22339	1.379	3.8182	0.1	-0.18272
22340	1.2871	4.0909	0.1	-0.36248
22341	1.379	4.	0.1	-0.18328
22342	1.2871	4.2727	0.1	-0.36418
22343	1.379	4.1818	0.1	-0.18554
22344	1.2871	4.4545	0.1	-0.37016
22345	1.379	4.3636	0.1	-0.19139
22346	1.2871	4.6364	0.1	-0.38475
22347	1.379	4.5455	0.1	-0.20441
22348	1.2871	4.8182	0.1	-0.41652
22349	1.379	4.7273	0.1	-0.22997
22350	1.2871	5.	0.1	-0.47461
22351	1.379	4.9091	0.1	-0.27951
22352	1.2871	5.1818	0.1	-0.59149
22353	1.379	5.0909	0.1	-0.35927
22354	1.2871	5.3636	0.1	-0.74783
22355	1.379	5.2727	0.1	-0.52688
22356	1.2871	5.5455	0.1	-1.3585
22357	1.379	5.4545	0.1	-0.70063
22358	1.2871	5.7273	0.1	-3.6472
22359	1.379	5.6364	0.1	-1.8665
22360	1.379	5.8182	0.1	-18.455
22361	1.2871	5.9091	0.1	-20.472
22362	1.471	0.27273	0.1	-2.8595
22363	1.5629	0.18182	0.1	-11.971
22364	1.471	9.0909e-002	0.1	-10.273
22365	1.471	0.45455	0.1	-1.0026
22366	1.5629	0.36364	0.1	-1.5681
22367	1.471	0.63636	0.1	-0.42832
22368	1.5629	0.54545	0.1	-0.53067
22369	1.471	0.81818	0.1	-0.27228
22370	1.5629	0.72727	0.1	-0.3773
22371	1.471	1.	0.1	-0.15188
22372	1.5629	0.90909	0.1	-0.22272
22373	1.471	1.1818	0.1	-8.5464e-002
22374	1.5629	1.0909	0.1	-0.14475
22375	1.471	1.3636	0.1	-4.4808e-002
22376	1.5629	1.2727	0.1	-9.309e-002
22377	1.471	1.5455	0.1	-2.2427e-002
22378	1.5629	1.4545	0.1	-6.3819e-002
22379	1.471	1.7273	0.1	-1.0558e-002
22380	1.5629	1.6364	0.1	-4.7364e-002
22381	1.471	1.9091	0.1	-4.8067e-003
22382	1.5629	1.8182	0.1	-3.8964e-002
22383	1.471	2.0909	0.1	-2.3123e-003
22384	1.5629	2.	0.1	-3.509e-002
22385	1.471	2.2727	0.1	-1.4493e-003
22386	1.5629	2.1818	0.1	-3.3654e-002
22387	1.471	2.4545	0.1	-1.3113e-003
22388	1.5629	2.3636	0.1	-3.3396e-002
22389	1.471	2.6364	0.1	-1.426e-003
22390	1.5629	2.5455	0.1	-3.3606e-002
22391	1.471	2.8182	0.1	-1.5613e-003
22392	1.5629	2.7273	0.1	-3.39e-002
22393	1.471	3.	0.1	-1.6157e-003
22394	1.5629	2.9091	0.1	-3.4086e-002
22395	1.471	3.1818	0.1	-1.5613e-003
22396	1.5629	3.0909	0.1	-3.4086e-002
22397	1.471	3.3636	0.1	-1.4261e-003
22398	1.5629	3.2727	0.1	-3.39e-002
22399	1.471	3.5455	0.1	-1.3113e-003
22400	1.5629	3.4545	0.1	-3.3606e-002
22401	1.471	3.7273	0.1	-1.4493e-003
22402	1.5629	3.6364	0.1	-3.3396e-002
22403	1.471	3.9091	0.1	-2.3122e-003
22404	1.5629	3.8182	0.1	-3.3654e-002
22405	1.471	4.0909	0.1	-4.8066e-003
22406	1.5629	4.	0.1	-3.5089e-002
22407	1.471	4.2727	0.1	-1.0558e-002
22408	1.5629	4.1818	0.1	-3.8964e-002
22409	1.471	4.4545	0.1	-2.2427e-002
22410	1.5629	4.3636	0.1	-4.7363e-002
22411	1.471	4.6364	0.1	-4.4808e-002
22412	1.5629	4.5455	0.1	-6.3819e-002
22413	1.471	4.8182	0.1	-8.5464e-002
22414	1.5629	4.7273	0.1	-9.309e-002
22415	1.471	5.	0.1	-0.15188
22416	1.5629	4.9091	0.1	-0.14475
22417	1.471	5.1818	0.1	-0.27228
22418	1.5629	5.0909	0.1	-0.22272
22419	1.471	5.3636	0.1	-0.42832
22420	1.5629	5.2727	0.1	-0.3773
22421	1.471	5.5455	0.1	-1.0026
22422	1.5629	5.4545	0.1	-0.53067
22423	1.471	5.7273	0.1	-2.8595
22424	1.5629	5.6364	0.1	-1.5681
22425	1.5629	5.8182	0.1	-11.971
22426	1.471	5.9091	0.1	-10.273
22427	1.6548	0.27273	0.1	-2.3792
22428	1.7468	0.18182	0.1	-8.0594
22429	1.6548	9.0909e-002	0.1	-3.9575
22430	1.6548	0.45455	0.1	-0.93171
22431	1.7468	0.36364	0.1	-1.3925
22432	1.6548	0.63636	0.1	-0.43762
22433	1.7468	0.54545	0.1	-0.48635
22434	1.6548	0.81818	0.1	-0.30943
22435	1.7468	0.72727	0.1	-0.36149
22436	1.6548	1.	0.1	-0.20548
22437	1.7468	0.90909	0.1	-0.2266
22438	1.6548	1.1818	0.1	-0.1461
22439	1.7468	1.0909	0.1	-0.15691
22440	1.6548	1.3636	0.1	-0.10795
22441	1.7468	1.2727	0.1	-0.10846
22442	1.6548	1.5455	0.1	-8.5897e-002
22443	1.7468	1.4545	0.1	-7.9403e-002
22444	1.6548	1.7273	0.1	-7.3748e-002
22445	1.7468	1.6364	0.1	-6.2068e-002
22446	1.6548	1.9091	0.1	-6.7778e-002
22447	1.7468	1.8182	0.1	-5.2611e-002
22448	1.6548	2.0909	0.1	-6.5332e-002
22449	1.7468	2.	0.1	-4.7921e-002
22450	1.6548	2.2727	0.1	-6.4746e-002
22451	1.7468	2.1818	0.1	-4.5999e-002
22452	1.6548	2.4545	0.1	-6.4996e-002
22453	1.7468	2.3636	0.1	-4.5529e-002
22454	1.6548	2.6364	0.1	-6.5484e-002
22455	1.7468	2.5455	0.1	-4.5699e-002
22456	1.6548	2.8182	0.1	-6.5882e-002
22457	1.7468	2.7273	0.1	-4.6026e-002
22458	1.6548	3.	0.1	-6.6031e-002
22459	1.7468	2.9091	0.1	-4.6247e-002
22460	1.6548	3.1818	0.1	-6.5882e-002
22461	1.7468	3.0909	0.1	-4.6247e-002
22462	1.6548	3.3636	0.1	-6.5484e-002
22463	1.7468	3.2727	0.1	-4.6026e-002
22464	1.6548	3.5455	0.1	-6.4996e-002
22465	1.7468	3.4545	0.1	-4.5699e-002
22466	1.6548	3.7273	0.1	-6.4746e-002
22467	1.7468	3.6364	0.1	-4.5529e-002
22468	1.6548	3.9091	0.1	-6.5332e-002
22469	1.7468	3.8182	0.1	-4.5999e-002
22470	1.6548	4.0909	0.1	-6.7778e-002
22471	1.7468	4.	0.1	-4.792e-002
22472	1.6548	4.2727	0.1	-7.3748e-002
22473	1.7468	4.1818	0.1	-5.2611e-002
22474	1.6548	4.4545	0.1	-8.5897e-002
22475	1.7468	4.3636	0.1	-6.2068e-002
22476	1.6548	4.6364	0.1	-0.10795
22477	1.7468	4.5455	0.1	-7.9403e-002
22478	1.6548	4.8182	0.1	-0.1461
22479	1.7468	4.7273	0.1	-0.10846
22480	1.6548	5.	0.1	-0.20548
22481	1.7468	4.9091	0.1	-0.15691
22482	1.6548	5.1818	0.1	-0.30943
22483	1.7468	5.0909	0.1	-0.2266
22484	1.6548	5.3636	0.1	-0.43762
22485	1.7468	5.2727	0.1	-0.36149
22486	1.6548	5.5455	0.1	-0.93171
22487	1.7468	5.4545	0.1	-0.48635
22488	1.6548	5.7273	0.1	-2.3792
22489	1.7468	5.6364	0.1	-1.3925
22490	1.7468	5.8182	0.1	-8.0594
22491	1.6548	5.9091	0.1	-3.9575
22492	1.8387	0.27273	0.1	-1.9695
22493	1.9306	0.18182	0.1	-5.6647
22494	1.8387	9.0909e-002	0.1	-1.832
22495	1.8387	0.45455	0.1	-0.8145
22496	1.9306	0.36364	0.1	-1.2268
22497	1.8387	0.63636	0.1	-0.37533
22498	1.9306	0.54545	0.1	-0.42446
22499	1.8387	0.81818	0.1	-0.26343
22500	1.9306	0.72727	0.1	-0.3195
22501	1.8387	1.	0.1	-0.1696
22502	1.9306	0.90909	0.1	-0.19964
22503	1.8387	1.1818	0.1	-0.11398
22504	1.9306	1.0909	0.1	-0.13643
22505	1.8387	1.3636	0.1	-7.6354e-002
22506	1.9306	1.2727	0.1	-9.0628e-002
22507	1.8387	1.5455	0.1	-5.3066e-002
22508	1.9306	1.4545	0.1	-6.1614e-002
22509	1.8387	1.7273	0.1	-3.9108e-002
22510	1.9306	1.6364	0.1	-4.3134e-002
22511	1.8387	1.9091	0.1	-3.139e-002
22512	1.9306	1.8182	0.1	-3.2155e-002
22513	1.8387	2.0909	0.1	-2.7539e-002
22514	1.9306	2.	0.1	-2.6029e-002
22515	1.8387	2.2727	0.1	-2.5947e-002
22516	1.9306	2.1818	0.1	-2.295e-002
22517	1.8387	2.4545	0.1	-2.5541e-002
22518	1.9306	2.3636	0.1	-2.1641e-002
22519	1.8387	2.6364	0.1	-2.5641e-002
22520	1.9306	2.5455	0.1	-2.1254e-002
22521	1.8387	2.8182	0.1	-2.5841e-002
22522	1.9306	2.7273	0.1	-2.1251e-002
22523	1.8387	3.	0.1	-2.5929e-002
22524	1.9306	2.9091	0.1	-2.1321e-002
22525	1.8387	3.1818	0.1	-2.5841e-002
22526	1.9306	3.0909	0.1	-2.1321e-002
22527	1.8387	3.3636	0.1	-2.5641e-002
22528	1.9306	3.2727	0.1	-2.1251e-002
22529	1.8387	3.5455	0.1	-2.5541e-002
22530	1.9306	3.4545	0.1	-2.1254e-002
22531	1.8387	3.7273	0.1	-2.5947e-002
22532	1.9306	3.6364	0.1	-2.1641e-002
22533	1.8387	3.9091	0.1	-2.7539e-002
22534	1.9306	3.8182	0.1	-2.295e-002
22535	1.8387	4.0909	0.1	-3.139e-002
22536	1.9306	4.	0.1	-2.6029e-002
22537	1.8387	4.2727	0.1	-3.9108e-002
22538	1.9306	4.1818	0.1	-3.2154e-002
22539	1.8387	4.4545	0.1	-5.3066e-002
22540	1.9306	4.3636	0.1	-4.3134e-002
22541	1.8387	4.6364	0.1	-7.6354e-002
22542	1.9306	4.5455	0.1	-6.1613e-002
22543	1.8387	4.8182	0.1	-0.11398
22544	1.9306	4.7273	0.1	-9.0628e-002
22545	1.8387	5.	0.1	-0.1696
22546	1.9306	4.9091	0.1	-0.13643
22547	1.8387	5.1818	0.1	-0.26343
22548	1.9306	5.0909	0.1	-0.19964
22549	1.8387	5.3636	0.1	-0.37533
22550	1.9306	5.2727	0.1	-0.3195
22551	1.8387	5.5455	0.1	-0.8145
22552	1.9306	5.4545	0.1	-0.42446
22553	1.8387	5.7273	0.1	-1.9695
22554	1.9306	5.6364	0.1	-1.2268
22555	1.9306	5.8182	0.1	-5.6647
22556	1.8387	5.9091	0.1	-1.832
22557	2.0226	0.27273	0.1	-1.6541
22558	2.1145	0.18182	0.1	-4.1457
22559	2.0226	9.0909e-002	0.1	-1.2062
22560	2.0226	0.45455	0.1	-0.72856
22561	2.1145	0.36364	0.1	-1.0906
22562	2.0226	0.63636	0.1	-0.33931
22563	2.1145	0.54545	0.1	-0.37766
22564	2.0226	0.81818	0.1	-0.24287
22565	2.1145	0.72727	0.1	-0.28967
22566	2.0226	1.	0.1	-0.15936
22567	2.1145	0.90909	0.1	-0.18334
22568	2.0226	1.1818	0.1	-0.1086
22569	2.1145	1.0909	0.1	-0.1266
22570	2.0226	1.3636	0.1	-7.2835e-002
22571	2.1145	1.2727	0.1	-8.4085e-002
22572	2.0226	1.5455	0.1	-4.9492e-002
22573	2.1145	1.4545	0.1	-5.5951e-002
22574	2.0226	1.7273	0.1	-3.4555e-002
22575	2.1145	1.6364	0.1	-3.7048e-002
22576	2.0226	1.9091	0.1	-2.5549e-002
22577	2.1145	1.8182	0.1	-2.5019e-002
22578	2.0226	2.0909	0.1	-2.0462e-002
22579	2.1145	2.	0.1	-1.7684e-002
22580	2.0226	2.2727	0.1	-1.7849e-002
22581	2.1145	2.1818	0.1	-1.3488e-002
22582	2.0226	2.4545	0.1	-1.6684e-002
22583	2.1145	2.3636	0.1	-1.127e-002
22584	2.0226	2.6364	0.1	-1.6275e-002
22585	2.1145	2.5455	0.1	-1.0217e-002
22586	2.0226	2.8182	0.1	-1.6187e-002
22587	2.1145	2.7273	0.1	-9.7855e-003
22588	2.0226	3.	0.1	-1.6183e-002
22589	2.1145	2.9091	0.1	-9.6466e-003
22590	2.0226	3.1818	0.1	-1.6187e-002
22591	2.1145	3.0909	0.1	-9.6467e-003
22592	2.0226	3.3636	0.1	-1.6275e-002
22593	2.1145	3.2727	0.1	-9.7855e-003
22594	2.0226	3.5455	0.1	-1.6684e-002
22595	2.1145	3.4545	0.1	-1.0217e-002
22596	2.0226	3.7273	0.1	-1.7849e-002
22597	2.1145	3.6364	0.1	-1.127e-002
22598	2.0226	3.9091	0.1	-2.0462e-002
22599	2.1145	3.8182	0.1	-1.3488e-002
22600	2.0226	4.0909	0.1	-2.5549e-002
22601	2.1145	4.	0.1	-1.7684e-002
22602	2.0226	4.2727	0.1	-3.4555e-002
22603	2.1145	4.1818	0.1	-2.5019e-002
22604	2.0226	4.4545	0.1	-4.9492e-002
22605	2.1145	4.3636	0.1	-3.7048e-002
22606	2.0226	4.6364	0.1	-7.2834e-002
22607	2.1145	4.5455	0.1	-5.5951e-002
22608	2.0226	4.8182	0.1	-0.1086
22609	2.1145	4.7273	0.1	-8.4085e-002
22610	2.0226	5.	0.1	-0.15936
22611	2.1145	4.9091	0.1	-0.1266
22612	2.0226	5.1818	0.1	-0.24287
22613	2.1145	5.0909	0.1	-0.18334
22614	2.0226	5.3636	0.1	-0.33931
22615	2.1145	5.2727	0.1	-0.28967
22616	2.0226	5.5455	0.1	-0.72856
22617	2.1145	5.4545	0.1	-0.37766
22618	2.0226	5.7273	0.1	-1.6541
22619	2.1145	5.6364	0.1	-1.0906
22620	2.1145	5.8182	0.1	-4.1457
22621	2.0226	5.9091	0.1	-1.2062
22622	2.2065	0.27273	0.1	-1.3997
22623	2.2984	0.18182	0.1	-3.1352
22624	2.2065	9.0909e-002	0.1	-0.92732
22625	2.2065	0.45455	0.1	-0.65055
22626	2.2984	0.36364	0.1	-0.97263
22627	2.2065	0.63636	0.1	-0.30314
22628	2.2984	0.54545	0.1	-0.33556
22629	2.2065	0.81818	0.1	-0.21921
22630	2.2984	0.72727	0.1	-0.26124
22631	2.2065	1.	0.1	-0.14452
22632	2.2984	0.90909	0.1	-0.16647
22633	2.2065	1.1818	0.1	-9.8255e-002
22634	2.2984	1.0909	0.1	-0.11552
22635	2.2065	1.3636	0.1	-6.4571e-002
22636	2.2984	1.2727	0.1	-7.6306e-002
22637	2.2065	1.5455	0.1	-4.1598e-002
22638	2.2984	1.4545	0.1	-4.943e-002
22639	2.2065	1.7273	0.1	-2.6072e-002
22640	2.2984	1.6364	0.1	-3.0561e-002
22641	2.2065	1.9091	0.1	-1.6032e-002
22642	2.2984	1.8182	0.1	-1.7867e-002
22643	2.2065	2.0909	0.1	-9.8106e-003
22644	2.2984	2.	0.1	-9.5745e-003
22645	2.2065	2.2727	0.1	-6.1649e-003
22646	2.2984	2.1818	0.1	-4.3866e-003
22647	2.2065	2.4545	0.1	-4.1663e-003
22648	2.2984	2.3636	0.1	-1.2927e-003
22649	2.2065	2.6364	0.1	-3.1604e-003
22650	2.2984	2.5455	0.1	4.4408e-004
22651	2.2065	2.8182	0.1	-2.7171e-003
22652	2.2984	2.7273	0.1	1.338e-003
22653	2.2065	3.	0.1	-2.5953e-003
22654	2.2984	2.9091	0.1	1.7084e-003
22655	2.2065	3.1818	0.1	-2.7172e-003
22656	2.2984	3.0909	0.1	1.7084e-003
22657	2.2065	3.3636	0.1	-3.1604e-003
22658	2.2984	3.2727	0.1	1.338e-003
22659	2.2065	3.5455	0.1	-4.1663e-003
22660	2.2984	3.4545	0.1	4.442e-004
22661	2.2065	3.7273	0.1	-6.1648e-003
22662	2.2984	3.6364	0.1	-1.2927e-003
22663	2.2065	3.9091	0.1	-9.8104e-003
22664	2.2984	3.8182	0.1	-4.3865e-003
22665	2.2065	4.0909	0.1	-1.6032e-002
22666	2.2984	4.	0.1	-9.5742e-003
22667	2.2065	4.2727	0.1	-2.6072e-002
22668	2.2984	4.1818	0.1	-1.7867e-002
22669	2.2065	4.4545	0.1	-4.1597e-002
22670	2.2984	4.3636	0.1	-3.0561e-002
22671	2.2065	4.6364	0.1	-6.457e-002
22672	2.2984	4.5455	0.1	-4.943e-002
22673	2.2065	4.8182	0.1	-9.8255e-002
22674	2.2984	4.7273	0.1	-7.6306e-002
22675	2.2065	5.	0.1	-0.14452
22676	2.2984	4.9091	0.1	-0.11552
22677	2.2065	5.1818	0.1	-0.21921
22678	2.2984	5.0909	0.1	-0.16647
22679	2.2065	5.3636	0.1	-0.30314
22680	2.2984	5.2727	0.1	-0.26124
22681	2.2065	5.5455	0.1	-0.65055
22682	2.2984	5.4545	0.1	-0.33556
22683	2.2065	5.7273	0.1	-1.3997
22684	2.2984	5.6364	0.1	-0.97263
22685	2.2984	5.8182	0.1	-3.1352
22686	2.2065	5.9091	0.1	-0.92732
22687	2.3903	0.27273	0.1	-1.1945
22688	2.4823	0.18182	0.1	-2.4344
22689	2.3903	9.0909e-002	0.1	-0.76595
22690	2.3903	0.45455	0.1	-0.58351
22691	2.4823	0.36364	0.1	-0.87095
22692	2.3903	0.63636	0.1	-0.27237
22693	2.4823	0.54545	0.1	-0.29926
22694	2.3903	0.81818	0.1	-0.19909
22695	2.4823	0.72727	0.1	-0.23625
22696	2.3903	1.	0.1	-0.13225
22697	2.4823	0.90909	0.1	-0.15152
22698	2.3903	1.1818	0.1	-9.0266e-002
22699	2.4823	1.0909	0.1	-0.10579
22700	2.3903	1.3636	0.1	-5.8887e-002
22701	2.4823	1.2727	0.1	-6.9824e-002
22702	2.3903	1.5455	0.1	-3.6726e-002
22703	2.4823	1.4545	0.1	-4.448e-002
22704	2.3903	1.7273	0.1	-2.1082e-002
22705	2.4823	1.6364	0.1	-2.6045e-002
22706	2.3903	1.9091	0.1	-1.0404e-002
22707	2.4823	1.8182	0.1	-1.3085e-002
22708	2.3903	2.0909	0.1	-3.3314e-003
22709	2.4823	2.	0.1	-4.1621e-003
22710	2.3903	2.2727	0.1	1.1732e-003
22711	2.4823	2.1818	0.1	1.7841e-003
22712	2.3903	2.4545	0.1	3.9143e-003
22713	2.4823	2.3636	0.1	5.6057e-003
22714	2.3903	2.6364	0.1	5.4795e-003
22715	2.4823	2.5455	0.1	7.944e-003
22716	2.3903	2.8182	0.1	6.2667e-003
22717	2.4823	2.7273	0.1	9.2599e-003
22718	2.3903	3.	0.1	6.5042e-003
22719	2.4823	2.9091	0.1	9.8465e-003
22720	2.3903	3.1818	0.1	6.2667e-003
22721	2.4823	3.0909	0.1	9.8464e-003
22722	2.3903	3.3636	0.1	5.4796e-003
22723	2.4823	3.2727	0.1	9.2599e-003
22724	2.3903	3.5455	0.1	3.9144e-003
22725	2.4823	3.4545	0.1	7.9441e-003
22726	2.3903	3.7273	0.1	1.1733e-003
22727	2.4823	3.6364	0.1	5.6057e-003
22728	2.3903	3.9091	0.1	-3.3312e-003
22729	2.4823	3.8182	0.1	1.7842e-003
22730	2.3903	4.0909	0.1	-1.0403e-002
22731	2.4823	4.	0.1	-4.1618e-003
22732	2.3903	4.2727	0.1	-2.1082e-002
22733	2.4823	4.1818	0.1	-1.3084e-002
22734	2.3903	4.4545	0.1	-3.6726e-002
22735	2.4823	4.3636	0.1	-2.6045e-002
22736	2.3903	4.6364	0.1	-5.8887e-002
22737	2.4823	4.5455	0.1	-4.4479e-002
22738	2.3903	4.8182	0.1	-9.0265e-002
22739	2.4823	4.7273	0.1	-6.9824e-002
22740	2.3903	5.	0.1	-0.13225
22741	2.4823	4.9091	0.1	-0.10579
22742	2.3903	5.1818	0.1	-0.19909
22743	2.4823	5.0909	0.1	-0.15152
22744	2.3903	5.3636	0.1	-0.27237
22745	2.4823	5.2727	0.1	-0.23625
22746	2.3903	5.5455	0.1	-0.58351
22747	2.4823	5.4545	0.1	-0.29926
22748	2.3903	5.7273	0.1	-1.1945
22749	2.4823	5.6364	0.1	-0.87095
22750	2.4823	5.8182	0.1	-2.4344
22751	2.3903	5.9091	0.1	-0.76595
22752	2.5742	0.27273	0.1	-1.0265
22753	2.6661	0.18182	0.1	-1.9304
22754	2.5742	9.0909e-002	0.1	-0.65724
22755	2.5742	0.45455	0.1	-0.5245
22756	2.6661	0.36364	0.1	-0.78234
22757	2.5742	0.63636	0.1	-0.24479
22758	2.6661	0.54545	0.1	-0.26737
22759	2.5742	0.81818	0.1	-0.18051
22760	2.6661	0.72727	0.1	-0.2137
22761	2.5742	1.	0.1	-0.12053
22762	2.6661	0.90909	0.1	-0.13769
22763	2.5742	1.1818	0.1	-8.2477e-002
22764	2.6661	1.0909	0.1	-9.6601e-002
22765	2.5742	1.3636	0.1	-5.3432e-002
22766	2.6661	1.2727	0.1	-6.3714e-002
22767	2.5742	1.5455	0.1	-3.2338e-002
22768	2.6661	1.4545	0.1	-4.0023e-002
22769	2.5742	1.7273	0.1	-1.6922e-002
22770	2.6661	1.6364	0.1	-2.2293e-002
22771	2.5742	1.9091	0.1	-5.9445e-003
22772	2.6661	1.8182	0.1	-9.3865e-003
22773	2.5742	2.0909	0.1	1.6942e-003
22774	2.6661	2.	0.1	-1.3306e-004
22775	2.5742	2.2727	0.1	6.8463e-003
22776	2.6661	2.1818	0.1	6.3257e-003
22777	2.5742	2.4545	0.1	1.0188e-002
22778	2.6661	2.3636	0.1	1.0693e-002
22779	2.5742	2.6364	0.1	1.2226e-002
22780	2.6661	2.5455	0.1	1.351e-002
22781	2.5742	2.8182	0.1	1.3313e-002
22782	2.6661	2.7273	0.1	1.5175e-002
22783	2.5742	3.	0.1	1.3652e-002
22784	2.6661	2.9091	0.1	1.5943e-002
22785	2.5742	3.1818	0.1	1.3313e-002
22786	2.6661	3.0909	0.1	1.5943e-002
22787	2.5742	3.3636	0.1	1.2226e-002
22788	2.6661	3.2727	0.1	1.5175e-002
22789	2.5742	3.5455	0.1	1.0188e-002
22790	2.6661	3.4545	0.1	1.351e-002
22791	2.5742	3.7273	0.1	6.8464e-003
22792	2.6661	3.6364	0.1	1.0693e-002
22793	2.5742	3.9091	0.1	1.6944e-003
22794	2.6661	3.8182	0.1	6.3259e-003
22795	2.5742	4.0909	0.1	-5.9442e-003
22796	2.6661	4.	0.1	-1.3283e-004
22797	2.5742	4.2727	0.1	-1.6921e-002
22798	2.6661	4.1818	0.1	-9.3862e-003
22799	2.5742	4.4545	0.1	-3.2337e-002
22800	2.6661	4.3636	0.1	-2.2293e-002
22801	2.5742	4.6364	0.1	-5.3431e-002
22802	2.6661	4.5455	0.1	-4.0022e-002
22803	2.5742	4.8182	0.1	-8.2477e-002
22804	2.6661	4.7273	0.1	-6.3714e-002
22805	2.5742	5.	0.1	-0.12053
22806	2.6661	4.9091	0.1	-9.6601e-002
22807	2.5742	5.1818	0.1	-0.18051
22808	2.6661	5.0909	0.1	-0.13769
22809	2.5742	5.3636	0.1	-0.24479
22810	2.6661	5.2727	0.1	-0.2137
22811	2.5742	5.5455	0.1	-0.5245
22812	2.6661	5.4545	0.1	-0.26737
22813	2.5742	5.7273	0.1	-1.0265
22814	2.6661	5.6364	0.1	-0.78234
22815	2.6661	5.8182	0.1	-1.9304
22816	2.5742	5.9091	0.1	-0.65724
22817	2.7581	0.27273	0.1	-0.88784
22818	2.85	0.18182	0.1	-1.5571
22819	2.7581	9.0909e-002	0.1	-0.57705
22820	2.7581	0.45455	0.1	-0.47259
22821	2.85	0.36364	0.1	-0.70471
22822	2.7581	0.63636	0.1	-0.22036
22823	2.85	0.54545	0.1	-0.23936
22824	2.7581	0.81818	0.1	-0.16375
22825	2.85	0.72727	0.1	-0.19346
22826	2.7581	1.	0.1	-0.1098
22827	2.85	0.90909	0.1	-0.12508
22828	2.7581	1.1818	0.1	-7.533e-002
22829	2.85	1.0909	0.1	-8.811e-002
22830	2.7581	1.3636	0.1	-4.8566e-002
22831	2.85	1.2727	0.1	-5.809e-002
22832	2.7581	1.5455	0.1	-2.8693e-002
22833	2.85	1.4545	0.1	-3.6085e-002
22834	2.7581	1.7273	0.1	-1.3762e-002
22835	2.85	1.6364	0.1	-1.9238e-002
22836	2.7581	1.9091	0.1	-2.7732e-003
22837	2.85	1.8182	0.1	-6.6293e-003
22838	2.7581	2.0909	0.1	5.1659e-003
22839	2.85	2.	0.1	2.7e-003
22840	2.7581	2.2727	0.1	1.0746e-002
22841	2.85	2.1818	0.1	9.4424e-003
22842	2.7581	2.4545	0.1	1.4523e-002
22843	2.85	2.3636	0.1	1.417e-002
22844	2.7581	2.6364	0.1	1.6923e-002
22845	2.85	2.5455	0.1	1.733e-002
22846	2.7581	2.8182	0.1	1.8245e-002
22847	2.85	2.7273	0.1	1.9255e-002
22848	2.7581	3.	0.1	1.8666e-002
22849	2.85	2.9091	0.1	2.0164e-002
22850	2.7581	3.1818	0.1	1.8245e-002
22851	2.85	3.0909	0.1	2.0164e-002
22852	2.7581	3.3636	0.1	1.6923e-002
22853	2.85	3.2727	0.1	1.9255e-002
22854	2.7581	3.5455	0.1	1.4523e-002
22855	2.85	3.4545	0.1	1.733e-002
22856	2.7581	3.7273	0.1	1.0746e-002
22857	2.85	3.6364	0.1	1.4171e-002
22858	2.7581	3.9091	0.1	5.1661e-003
22859	2.85	3.8182	0.1	9.4425e-003
22860	2.7581	4.0909	0.1	-2.7729e-003
22861	2.85	4.	0.1	2.7003e-003
22862	2.7581	4.2727	0.1	-1.3762e-002
22863	2.85	4.1818	0.1	-6.6291e-003
22864	2.7581	4.4545	0.1	-2.8693e-002
22865	2.85	4.3636	0.1	-1.9238e-002
22866	2.7581	4.6364	0.1	-4.8566e-002
22867	2.85	4.5455	0.1	-3.6084e-002
22868	2.7581	4.8182	0.1	-7.5329e-002
22869	2.85	4.7273	0.1	-5.809e-002
22870	2.7581	5.	0.1	-0.1098
22871	2.85	4.9091	0.1	-8.811e-002
22872	2.7581	5.1818	0.1	-0.16375
22873	2.85	5.0909	0.1	-0.12508
22874	2.7581	5.3636	0.1	-0.22036
22875	2.85	5.2727	0.1	-0.19346
22876	2.7581	5.5455	0.1	-0.47259
22877	2.85	5.4545	0.1	-0.23936
22878	2.7581	5.7273	0.1	-0.88784
22879	2.85	5.6364	0.1	-0.70471
22880	2.85	5.8182	0.1	-1.5572
22881	2.7581	5.9091	0.1	-0.57705
22882	2.9419	0.27273	0.1	-0.77223
22883	3.0339	0.18182	0.1	-1.2739
22884	2.9419	9.0909e-002	0.1	-0.51422
22885	2.9419	0.45455	0.1	-0.42662
22886	3.0339	0.36364	0.1	-0.63628
22887	2.9419	0.63636	0.1	-0.19857
22888	3.0339	0.54545	0.1	-0.21463
22889	2.9419	0.81818	0.1	-0.14854
22890	3.0339	0.72727	0.1	-0.17524
22891	2.9419	1.	0.1	-9.9908e-002
22892	3.0339	0.90909	0.1	-0.11357
22893	2.9419	1.1818	0.1	-6.8666e-002
22894	3.0339	1.0909	0.1	-8.0251e-002
22895	2.9419	1.3636	0.1	-4.4079e-002
22896	3.0339	1.2727	0.1	-5.2873e-002
22897	2.9419	1.5455	0.1	-2.5496e-002
22898	3.0339	1.4545	0.1	-3.2526e-002
22899	2.9419	1.7273	0.1	-1.1222e-002
22900	3.0339	1.6364	0.1	-1.6661e-002
22901	2.9419	1.9091	0.1	-4.4079e-004
22902	3.0339	1.8182	0.1	-4.5243e-003
22903	2.9419	2.0909	0.1	7.5764e-003
22904	3.0339	2.	0.1	4.681e-003
22905	2.9419	2.2727	0.1	1.3386e-002
22906	3.0339	2.1818	0.1	1.1513e-002
22907	2.9419	2.4545	0.1	1.7441e-002
22908	3.0339	2.3636	0.1	1.6435e-002
22909	2.9419	2.6364	0.1	2.0089e-002
22910	3.0339	2.5455	0.1	1.9808e-002
22911	2.9419	2.8182	0.1	2.1579e-002
22912	3.0339	2.7273	0.1	2.1907e-002
22913	2.9419	3.	0.1	2.206e-002
22914	3.0339	2.9091	0.1	2.2912e-002
22915	2.9419	3.1818	0.1	2.1579e-002
22916	3.0339	3.0909	0.1	2.2912e-002
22917	2.9419	3.3636	0.1	2.0089e-002
22918	3.0339	3.2727	0.1	2.1907e-002
22919	2.9419	3.5455	0.1	1.7441e-002
22920	3.0339	3.4545	0.1	1.9809e-002
22921	2.9419	3.7273	0.1	1.3386e-002
22922	3.0339	3.6364	0.1	1.6435e-002
22923	2.9419	3.9091	0.1	7.5766e-003
22924	3.0339	3.8182	0.1	1.1513e-002
22925	2.9419	4.0909	0.1	-4.4046e-004
22926	3.0339	4.	0.1	4.6813e-003
22927	2.9419	4.2727	0.1	-1.1222e-002
22928	3.0339	4.1818	0.1	-4.524e-003
22929	2.9419	4.4545	0.1	-2.5495e-002
22930	3.0339	4.3636	0.1	-1.6661e-002
22931	2.9419	4.6364	0.1	-4.4078e-002
22932	3.0339	4.5455	0.1	-3.2525e-002
22933	2.9419	4.8182	0.1	-6.8665e-002
22934	3.0339	4.7273	0.1	-5.2872e-002
22935	2.9419	5.	0.1	-9.9907e-002
22936	3.0339	4.9091	0.1	-8.0251e-002
22937	2.9419	5.1818	0.1	-0.14854
22938	3.0339	5.0909	0.1	-0.11357
22939	2.9419	5.3636	0.1	-0.19857
22940	3.0339	5.2727	0.1	-0.17524
22941	2.9419	5.5455	0.1	-0.42662
22942	3.0339	5.4545	0.1	-0.21463
22943	2.9419	5.7273	0.1	-0.77223
22944	3.0339	5.6364	0.1	-0.63628
22945	3.0339	5.8182	0.1	-1.2739
22946	2.9419	5.9091	0.1	-0.51422
22947	3.1258	0.27273	0.1	-0.67506
22948	3.2177	0.18182	0.1	-1.0546
22949	3.1258	9.0909e-002	0.1	-0.46294
22950	3.1258	0.45455	0.1	-0.38579
22951	3.2177	0.36364	0.1	-0.57566
22952	3.1258	0.63636	0.1	-0.17913
22953	3.2177	0.54545	0.1	-0.19275
22954	3.1258	0.81818	0.1	-0.13476
22955	3.2177	0.72727	0.1	-0.15885
22956	3.1258	1.	0.1	-9.0837e-002
22957	3.2177	0.90909	0.1	-0.10309
22958	3.1258	1.1818	0.1	-6.251e-002
22959	3.2177	1.0909	0.1	-7.3024e-002
22960	3.1258	1.3636	0.1	-3.9967e-002
22961	3.2177	1.2727	0.1	-4.8065e-002
22962	3.1258	1.5455	0.1	-2.2687e-002
22963	3.2177	1.4545	0.1	-2.9313e-002
22964	3.1258	1.7273	0.1	-9.1789e-003
22965	3.2177	1.6364	0.1	-1.4476e-002
22966	3.1258	1.9091	0.1	1.2361e-003
22967	3.2177	1.8182	0.1	-2.9258e-003
22968	3.1258	2.0909	0.1	9.1563e-003
22969	3.2177	2.	0.1	6.007e-003
22970	3.1258	2.2727	0.1	1.5031e-002
22971	3.2177	2.1818	0.1	1.2775e-002
22972	3.1258	2.4545	0.1	1.9223e-002
22973	3.2177	2.3636	0.1	1.7751e-002
22974	3.1258	2.6364	0.1	2.2016e-002
22975	3.2177	2.5455	0.1	2.1226e-002
22976	3.1258	2.8182	0.1	2.3611e-002
22977	3.2177	2.7273	0.1	2.3421e-002
22978	3.1258	3.	0.1	2.413e-002
22979	3.2177	2.9091	0.1	2.4482e-002
22980	3.1258	3.1818	0.1	2.3611e-002
22981	3.2177	3.0909	0.1	2.4482e-002
22982	3.1258	3.3636	0.1	2.2016e-002
22983	3.2177	3.2727	0.1	2.3421e-002
22984	3.1258	3.5455	0.1	1.9224e-002
22985	3.2177	3.4545	0.1	2.1226e-002
22986	3.1258	3.7273	0.1	1.5031e-002
22987	3.2177	3.6364	0.1	1.7751e-002
22988	3.1258	3.9091	0.1	9.1566e-003
22989	3.2177	3.8182	0.1	1.2775e-002
22990	3.1258	4.0909	0.1	1.2364e-003
22991	3.2177	4.	0.1	6.0074e-003
22992	3.1258	4.2727	0.1	-9.1786e-003
22993	3.2177	4.1818	0.1	-2.9253e-003
22994	3.1258	4.4545	0.1	-2.2687e-002
22995	3.2177	4.3636	0.1	-1.4476e-002
22996	3.1258	4.6364	0.1	-3.9966e-002
22997	3.2177	4.5455	0.1	-2.9312e-002
22998	3.1258	4.8182	0.1	-6.2509e-002
22999	3.2177	4.7273	0.1	-4.8064e-002
23000	3.1258	5.	0.1	-9.0837e-002
23001	3.2177	4.9091	0.1	-7.3024e-002
23002	3.1258	5.1818	0.1	-0.13476
23003	3.2177	5.0909	0.1	-0.10309
23004	3.1258	5.3636	0.1	-0.17913
23005	3.2177	5.2727	0.1	-0.15885
23006	3.1258	5.5455	0.1	-0.38579
23007	3.2177	5.4545	0.1	-0.19275
23008	3.1258	5.7273	0.1	-0.67506
23009	3.2177	5.6364	0.1	-0.57566
23010	3.2177	5.8182	0.1	-1.0546
23011	3.1258	5.9091	0.1	-0.46294
23012	3.3097	0.27273	0.1	-0.59277
23013	3.4016	0.18182	0.1	-0.88203
23014	3.3097	9.0909e-002	0.1	-0.41986
23015	3.3097	0.45455	0.1	-0.34938
23016	3.4016	0.36364	0.1	-0.52173
23017	3.3097	0.63636	0.1	-0.16175
23018	3.4016	0.54545	0.1	-0.17335
23019	3.3097	0.81818	0.1	-0.1223
23020	3.4016	0.72727	0.1	-0.14407
23021	3.3097	1.	0.1	-8.2553e-002
23022	3.4016	0.90909	0.1	-9.3579e-002
23023	3.3097	1.1818	0.1	-5.685e-002
23024	3.4016	1.0909	0.1	-6.6402e-002
23025	3.3097	1.3636	0.1	-3.621e-002
23026	3.4016	1.2727	0.1	-4.3652e-002
23027	3.3097	1.5455	0.1	-2.021e-002
23028	3.4016	1.4545	0.1	-2.6411e-002
23029	3.3097	1.7273	0.1	-7.5247e-003
23030	3.4016	1.6364	0.1	-1.2609e-002
23031	3.3097	1.9091	0.1	2.4158e-003
23032	3.4016	1.8182	0.1	-1.7142e-003
23033	3.3097	2.0909	0.1	1.0109e-002
23034	3.4016	2.	0.1	6.8424e-003
23035	3.3097	2.2727	0.1	1.5918e-002
23036	3.4016	2.1818	0.1	1.343e-002
23037	3.3097	2.4545	0.1	2.0134e-002
23038	3.4016	2.3636	0.1	1.835e-002
23039	3.3097	2.6364	0.1	2.2984e-002
23040	3.4016	2.5455	0.1	2.1835e-002
23041	3.3097	2.8182	0.1	2.463e-002
23042	3.4016	2.7273	0.1	2.4061e-002
23043	3.3097	3.	0.1	2.5168e-002
23044	3.4016	2.9091	0.1	2.5145e-002
23045	3.3097	3.1818	0.1	2.463e-002
23046	3.4016	3.0909	0.1	2.5145e-002
23047	3.3097	3.3636	0.1	2.2984e-002
23048	3.4016	3.2727	0.1	2.4061e-002
23049	3.3097	3.5455	0.1	2.0135e-002
23050	3.4016	3.4545	0.1	2.1835e-002
23051	3.3097	3.7273	0.1	1.5918e-002
23052	3.4016	3.6364	0.1	1.8351e-002
23053	3.3097	3.9091	0.1	1.0109e-002
23054	3.4016	3.8182	0.1	1.3431e-002
23055	3.3097	4.0909	0.1	2.4163e-003
23056	3.4016	4.	0.1	6.8427e-003
23057	3.3097	4.2727	0.1	-7.5241e-003
23058	3.4016	4.1818	0.1	-1.7137e-003
23059	3.3097	4.4545	0.1	-2.0209e-002
23060	3.4016	4.3636	0.1	-1.2609e-002
23061	3.3097	4.6364	0.1	-3.6209e-002
23062	3.4016	4.5455	0.1	-2.641e-002
23063	3.3097	4.8182	0.1	-5.685e-002
23064	3.4016	4.7273	0.1	-4.3651e-002
23065	3.3097	5.	0.1	-8.2553e-002
23066	3.4016	4.9091	0.1	-6.6402e-002
23067	3.3097	5.1818	0.1	-0.1223
23068	3.4016	5.0909	0.1	-9.3578e-002
23069	3.3097	5.3636	0.1	-0.16175
23070	3.4016	5.2727	0.1	-0.14407
23071	3.3097	5.5455	0.1	-0.34938
23072	3.4016	5.4545	0.1	-0.17335
23073	3.3097	5.7273	0.1	-0.59277
23074	3.4016	5.6364	0.1	-0.52172
23075	3.4016	5.8182	0.1	-0.88203
23076	3.3097	5.9091	0.1	-0.41986
23077	3.4935	0.27273	0.1	-0.5226
23078	3.5855	0.18182	0.1	-0.74424
23079	3.4935	9.0909e-002	0.1	-0.38289
23080	3.4935	0.45455	0.1	-0.31682
23081	3.5855	0.36364	0.1	-0.47354
23082	3.4935	0.63636	0.1	-0.14619
23083	3.5855	0.54545	0.1	-0.15609
23084	3.4935	0.81818	0.1	-0.11102
23085	3.5855	0.72727	0.1	-0.13075
23086	3.4935	1.	0.1	-7.5001e-002
23087	3.5855	0.90909	0.1	-8.4947e-002
23088	3.4935	1.1818	0.1	-5.1664e-002
23089	3.5855	1.0909	0.1	-6.0354e-002
23090	3.4935	1.3636	0.1	-3.2783e-002
23091	3.5855	1.2727	0.1	-3.9616e-002
23092	3.4935	1.5455	0.1	-1.8015e-002
23093	3.5855	1.4545	0.1	-2.3794e-002
23094	3.4935	1.7273	0.1	-6.1754e-003
23095	3.5855	1.6364	0.1	-1.1008e-002
23096	3.4935	1.9091	0.1	3.223e-003
23097	3.5855	1.8182	0.1	-8.0232e-004
23098	3.4935	2.0909	0.1	1.0597e-002
23099	3.5855	2.	0.1	7.3106e-003
23100	3.4935	2.2727	0.1	1.6243e-002
23101	3.5855	2.1818	0.1	1.3636e-002
23102	3.4935	2.4545	0.1	2.0395e-002
23103	3.5855	2.3636	0.1	1.8418e-002
23104	3.4935	2.6364	0.1	2.3232e-002
23105	3.5855	2.5455	0.1	2.1841e-002
23106	3.4935	2.8182	0.1	2.4884e-002
23107	3.5855	2.7273	0.1	2.4047e-002
23108	3.4935	3.	0.1	2.5426e-002
23109	3.5855	2.9091	0.1	2.5127e-002
23110	3.4935	3.1818	0.1	2.4884e-002
23111	3.5855	3.0909	0.1	2.5127e-002
23112	3.4935	3.3636	0.1	2.3232e-002
23113	3.5855	3.2727	0.1	2.4047e-002
23114	3.4935	3.5455	0.1	2.0395e-002
23115	3.5855	3.4545	0.1	2.1841e-002
23116	3.4935	3.7273	0.1	1.6244e-002
23117	3.5855	3.6364	0.1	1.8418e-002
23118	3.4935	3.9091	0.1	1.0598e-002
23119	3.5855	3.8182	0.1	1.3636e-002
23120	3.4935	4.0909	0.1	3.2233e-003
23121	3.5855	4.	0.1	7.3108e-003
23122	3.4935	4.2727	0.1	-6.175e-003
23123	3.5855	4.1818	0.1	-8.0188e-004
23124	3.4935	4.4545	0.1	-1.8015e-002
23125	3.5855	4.3636	0.1	-1.1007e-002
23126	3.4935	4.6364	0.1	-3.2783e-002
23127	3.5855	4.5455	0.1	-2.3793e-002
23128	3.4935	4.8182	0.1	-5.1664e-002
23129	3.5855	4.7273	0.1	-3.9616e-002
23130	3.4935	5.	0.1	-7.5001e-002
23131	3.5855	4.9091	0.1	-6.0353e-002
23132	3.4935	5.1818	0.1	-0.11102
23133	3.5855	5.0909	0.1	-8.4946e-002
23134	3.4935	5.3636	0.1	-0.14619
23135	3.5855	5.2727	0.1	-0.13075
23136	3.4935	5.5455	0.1	-0.31682
23137	3.5855	5.4545	0.1	-0.15609
23138	3.4935	5.7273	0.1	-0.5226
23139	3.5855	5.6364	0.1	-0.47354
23140	3.5855	5.8182	0.1	-0.74424
23141	3.4935	5.9091	0.1	-0.38289
23142	3.6774	0.27273	0.1	-0.4624
23143	3.7694	0.18182	0.1	-0.63295
23144	3.6774	9.0909e-002	0.1	-0.35067
23145	3.6774	0.45455	0.1	-0.2876
23146	3.7694	0.36364	0.1	-0.43034
23147	3.6774	0.63636	0.1	-0.13224
23148	3.7694	0.54545	0.1	-0.14071
23149	3.6774	0.81818	0.1	-0.10081
23150	3.7694	0.72727	0.1	-0.11873
23151	3.6774	1.	0.1	-6.8133e-002
23152	3.7694	0.90909	0.1	-7.7129e-002
23153	3.6774	1.1818	0.1	-4.6931e-002
23154	3.7694	1.0909	0.1	-5.485e-002
23155	3.6774	1.3636	0.1	-2.9672e-002
23156	3.7694	1.2727	0.1	-3.5947e-002
23157	3.6774	1.5455	0.1	-1.6075e-002
23158	3.7694	1.4545	0.1	-2.1445e-002
23159	3.6774	1.7273	0.1	-5.0771e-003
23160	3.7694	1.6364	0.1	-9.6393e-003
23161	3.6774	1.9091	0.1	3.7427e-003
23162	3.7694	1.8182	0.1	-1.3259e-004
23163	3.6774	2.0909	0.1	1.0739e-002
23164	3.7694	2.	0.1	7.4977e-003
23165	3.6774	2.2727	0.1	1.6153e-002
23166	3.7694	2.1818	0.1	1.3506e-002
23167	3.6774	2.4545	0.1	2.0175e-002
23168	3.7694	2.3636	0.1	1.8092e-002
23169	3.6774	2.6364	0.1	2.2946e-002
23170	3.7694	2.5455	0.1	2.1402e-002
23171	3.6774	2.8182	0.1	2.4569e-002
23172	3.7694	2.7273	0.1	2.3549e-002
23173	3.6774	3.	0.1	2.5103e-002
23174	3.7694	2.9091	0.1	2.4604e-002
23175	3.6774	3.1818	0.1	2.4569e-002
23176	3.7694	3.0909	0.1	2.4604e-002
23177	3.6774	3.3636	0.1	2.2946e-002
23178	3.7694	3.2727	0.1	2.3549e-002
23179	3.6774	3.5455	0.1	2.0175e-002
23180	3.7694	3.4545	0.1	2.1402e-002
23181	3.6774	3.7273	0.1	1.6153e-002
23182	3.7694	3.6364	0.1	1.8092e-002
23183	3.6774	3.9091	0.1	1.0739e-002
23184	3.7694	3.8182	0.1	1.3506e-002
23185	3.6774	4.0909	0.1	3.7431e-003
23186	3.7694	4.	0.1	7.498e-003
23187	3.6774	4.2727	0.1	-5.0765e-003
23188	3.7694	4.1818	0.1	-1.3214e-004
23189	3.6774	4.4545	0.1	-1.6075e-002
23190	3.7694	4.3636	0.1	-9.6387e-003
23191	3.6774	4.6364	0.1	-2.9671e-002
23192	3.7694	4.5455	0.1	-2.1445e-002
23193	3.6774	4.8182	0.1	-4.6931e-002
23194	3.7694	4.7273	0.1	-3.5946e-002
23195	3.6774	5.	0.1	-6.8132e-002
23196	3.7694	4.9091	0.1	-5.485e-002
23197	3.6774	5.1818	0.1	-0.10081
23198	3.7694	5.0909	0.1	-7.7128e-002
23199	3.6774	5.3636	0.1	-0.13224
23200	3.7694	5.2727	0.1	-0.11873
23201	3.6774	5.5455	0.1	-0.2876
23202	3.7694	5.4545	0.1	-0.14071
23203	3.6774	5.7273	0.1	-0.4624
23204	3.7694	5.6364	0.1	-0.43034
23205	3.7694	5.8182	0.1	-0.63295
23206	3.6774	5.9091	0.1	-0.35067
23207	3.8613	0.27273	0.1	-0.41047
23208	3.9532	0.18182	0.1	-0.54218
23209	3.8613	9.0909e-002	0.1	-0.32228
23210	3.8613	0.45455	0.1	-0.26133
23211	3.9532	0.36364	0.1	-0.39151
23212	3.8613	0.63636	0.1	-0.11971
23213	3.9532	0.54545	0.1	-0.12698
23214	3.8613	0.81818	0.1	-9.1586e-002
23215	3.9532	0.72727	0.1	-0.10788
23216	3.8613	1.	0.1	-6.1906e-002
23217	3.9532	0.90909	0.1	-7.0058e-002
23218	3.8613	1.1818	0.1	-4.2634e-002
23219	3.9532	1.0909	0.1	-4.9859e-002
23220	3.8613	1.3636	0.1	-2.6865e-002
23221	3.9532	1.2727	0.1	-3.2626e-002
23222	3.8613	1.5455	0.1	-1.4373e-002
23223	3.9532	1.4545	0.1	-1.9351e-002
23224	3.8613	1.7273	0.1	-4.1951e-003
23225	3.9532	1.6364	0.1	-8.4778e-003
23226	3.8613	1.9091	0.1	4.0327e-003
23227	3.9532	1.8182	0.1	3.3869e-004
23228	3.8613	2.0909	0.1	1.0615e-002
23229	3.9532	2.	0.1	7.4689e-003
23230	3.8613	2.2727	0.1	1.5753e-002
23231	3.9532	2.1818	0.1	1.3128e-002
23232	3.8613	2.4545	0.1	1.9599e-002
23233	3.9532	2.3636	0.1	1.7478e-002
23234	3.8613	2.6364	0.1	2.2266e-002
23235	3.9532	2.5455	0.1	2.0639e-002
23236	3.8613	2.8182	0.1	2.3836e-002
23237	3.9532	2.7273	0.1	2.27e-002
23238	3.8613	3.	0.1	2.4354e-002
23239	3.9532	2.9091	0.1	2.3716e-002
23240	3.8613	3.1818	0.1	2.3836e-002
23241	3.9532	3.0909	0.1	2.3716e-002
23242	3.8613	3.3636	0.1	2.2266e-002
23243	3.9532	3.2727	0.1	2.27e-002
23244	3.8613	3.5455	0.1	1.9599e-002
23245	3.9532	3.4545	0.1	2.0639e-002
23246	3.8613	3.7273	0.1	1.5753e-002
23247	3.9532	3.6364	0.1	1.7478e-002
23248	3.8613	3.9091	0.1	1.0615e-002
23249	3.9532	3.8182	0.1	1.3128e-002
23250	3.8613	4.0909	0.1	4.0331e-003
23251	3.9532	4.	0.1	7.4693e-003
23252	3.8613	4.2727	0.1	-4.1946e-003
23253	3.9532	4.1818	0.1	3.3913e-004
23254	3.8613	4.4545	0.1	-1.4372e-002
23255	3.9532	4.3636	0.1	-8.4773e-003
23256	3.8613	4.6364	0.1	-2.6865e-002
23257	3.9532	4.5455	0.1	-1.9351e-002
23258	3.8613	4.8182	0.1	-4.2634e-002
23259	3.9532	4.7273	0.1	-3.2626e-002
23260	3.8613	5.	0.1	-6.1905e-002
23261	3.9532	4.9091	0.1	-4.9858e-002
23262	3.8613	5.1818	0.1	-9.1586e-002
23263	3.9532	5.0909	0.1	-7.0056e-002
23264	3.8613	5.3636	0.1	-0.11971
23265	3.9532	5.2727	0.1	-0.10787
23266	3.8613	5.5455	0.1	-0.26133
23267	3.9532	5.4545	0.1	-0.12698
23268	3.8613	5.7273	0.1	-0.41047
23269	3.9532	5.6364	0.1	-0.39151
23270	3.9532	5.8182	0.1	-0.54218
23271	3.8613	5.9091	0.1	-0.32228
23272	4.0452	0.27273	0.1	-0.36546
23273	4.1371	0.18182	0.1	-0.4675
23274	4.0452	9.0909e-002	0.1	-0.29705
23275	4.0452	0.45455	0.1	-0.23767
23276	4.1371	0.36364	0.1	-0.3565
23277	4.0452	0.63636	0.1	-0.10846
23278	4.1371	0.54545	0.1	-0.1147
23279	4.0452	0.81818	0.1	-8.3249e-002
23280	4.1371	0.72727	0.1	-9.8069e-002
23281	4.0452	1.	0.1	-5.627e-002
23282	4.1371	0.90909	0.1	-6.3662e-002
23283	4.0452	1.1818	0.1	-3.8746e-002
23284	4.1371	1.0909	0.1	-4.5336e-002
23285	4.0452	1.3636	0.1	-2.4345e-002
23286	4.1371	1.2727	0.1	-2.9628e-002
23287	4.0452	1.5455	0.1	-1.2885e-002
23288	4.1371	1.4545	0.1	-1.7486e-002
23289	4.0452	1.7273	0.1	-3.4955e-003
23290	4.1371	1.6364	0.1	-7.4933e-003
23291	4.0452	1.9091	0.1	4.1434e-003
23292	4.1371	1.8182	0.1	6.5384e-004
23293	4.0452	2.0909	0.1	1.0296e-002
23294	4.1371	2.	0.1	7.2825e-003
23295	4.0452	2.2727	0.1	1.5131e-002
23296	4.1371	2.1818	0.1	1.2575e-002
23297	4.0452	2.4545	0.1	1.8771e-002
23298	4.1371	2.3636	0.1	1.6668e-002
23299	4.0452	2.6364	0.1	2.1309e-002
23300	4.1371	2.5455	0.1	1.9657e-002
23301	4.0452	2.8182	0.1	2.2808e-002
23302	4.1371	2.7273	0.1	2.1613e-002
23303	4.0452	3.	0.1	2.3303e-002
23304	4.1371	2.9091	0.1	2.2581e-002
23305	4.0452	3.1818	0.1	2.2808e-002
23306	4.1371	3.0909	0.1	2.2581e-002
23307	4.0452	3.3636	0.1	2.1309e-002
23308	4.1371	3.2727	0.1	2.1613e-002
23309	4.0452	3.5455	0.1	1.8771e-002
23310	4.1371	3.4545	0.1	1.9657e-002
23311	4.0452	3.7273	0.1	1.5131e-002
23312	4.1371	3.6364	0.1	1.6669e-002
23313	4.0452	3.9091	0.1	1.0296e-002
23314	4.1371	3.8182	0.1	1.2576e-002
23315	4.0452	4.0909	0.1	4.1438e-003
23316	4.1371	4.	0.1	7.2828e-003
23317	4.0452	4.2727	0.1	-3.4951e-003
23318	4.1371	4.1818	0.1	6.543e-004
23319	4.0452	4.4545	0.1	-1.2885e-002
23320	4.1371	4.3636	0.1	-7.4928e-003
23321	4.0452	4.6364	0.1	-2.4344e-002
23322	4.1371	4.5455	0.1	-1.7486e-002
23323	4.0452	4.8182	0.1	-3.8745e-002
23324	4.1371	4.7273	0.1	-2.9627e-002
23325	4.0452	5.	0.1	-5.6269e-002
23326	4.1371	4.9091	0.1	-4.5336e-002
23327	4.0452	5.1818	0.1	-8.3248e-002
23328	4.1371	5.0909	0.1	-6.3661e-002
23329	4.0452	5.3636	0.1	-0.10846
23330	4.1371	5.2727	0.1	-9.8068e-002
23331	4.0452	5.5455	0.1	-0.23767
23332	4.1371	5.4545	0.1	-0.1147
23333	4.0452	5.7273	0.1	-0.36546
23334	4.1371	5.6364	0.1	-0.3565
23335	4.1371	5.8182	0.1	-0.4675
23336	4.0452	5.9091	0.1	-0.29705
23337	4.229	0.27273	0.1	-0.32626
23338	4.321	0.18182	0.1	-0.40561
23339	4.229	9.0909e-002	0.1	-0.27448
23340	4.229	0.45455	0.1	-0.21629
23341	4.321	0.36364	0.1	-0.32486
23342	4.229	0.63636	0.1	-9.8331e-002
23343	4.321	0.54545	0.1	-0.10369
23344	4.229	0.81818	0.1	-7.5702e-002
23345	4.321	0.72727	0.1	-8.9195e-002
23346	4.229	1.	0.1	-5.1164e-002
23347	4.321	0.90909	0.1	-5.7874e-002
23348	4.229	1.1818	0.1	-3.5225e-002
23349	4.321	1.0909	0.1	-4.1241e-002
23350	4.229	1.3636	0.1	-2.208e-002
23351	4.321	1.2727	0.1	-2.6923e-002
23352	4.229	1.5455	0.1	-1.1581e-002
23353	4.321	1.4545	0.1	-1.5827e-002
23354	4.229	1.7273	0.1	-2.9408e-003
23355	4.321	1.6364	0.1	-6.6589e-003
23356	4.229	1.9091	0.1	4.1241e-003
23357	4.321	1.8182	0.1	8.4776e-004
23358	4.229	2.0909	0.1	9.8447e-003
23359	4.321	2.	0.1	6.9843e-003
23360	4.229	2.2727	0.1	1.4363e-002
23361	4.321	2.1818	0.1	1.1908e-002
23362	4.229	2.4545	0.1	1.7782e-002
23363	4.321	2.3636	0.1	1.5733e-002
23364	4.229	2.6364	0.1	2.0174e-002
23365	4.321	2.5455	0.1	1.8536e-002
23366	4.229	2.8182	0.1	2.1591e-002
23367	4.321	2.7273	0.1	2.0377e-002
23368	4.229	3.	0.1	2.2061e-002
23369	4.321	2.9091	0.1	2.129e-002
23370	4.229	3.1818	0.1	2.1591e-002
23371	4.321	3.0909	0.1	2.129e-002
23372	4.229	3.3636	0.1	2.0175e-002
23373	4.321	3.2727	0.1	2.0377e-002
23374	4.229	3.5455	0.1	1.7782e-002
23375	4.321	3.4545	0.1	1.8537e-002
23376	4.229	3.7273	0.1	1.4363e-002
23377	4.321	3.6364	0.1	1.5733e-002
23378	4.229	3.9091	0.1	9.8451e-003
23379	4.321	3.8182	0.1	1.1908e-002
23380	4.229	4.0909	0.1	4.1246e-003
23381	4.321	4.	0.1	6.9846e-003
23382	4.229	4.2727	0.1	-2.9404e-003
23383	4.321	4.1818	0.1	8.4829e-004
23384	4.229	4.4545	0.1	-1.1581e-002
23385	4.321	4.3636	0.1	-6.6585e-003
23386	4.229	4.6364	0.1	-2.2079e-002
23387	4.321	4.5455	0.1	-1.5826e-002
23388	4.229	4.8182	0.1	-3.5225e-002
23389	4.321	4.7273	0.1	-2.6922e-002
23390	4.229	5.	0.1	-5.1163e-002
23391	4.321	4.9091	0.1	-4.124e-002
23392	4.229	5.1818	0.1	-7.5701e-002
23393	4.321	5.0909	0.1	-5.7872e-002
23394	4.229	5.3636	0.1	-9.8331e-002
23395	4.321	5.2727	0.1	-8.9195e-002
23396	4.229	5.5455	0.1	-0.21629
23397	4.321	5.4545	0.1	-0.10369
23398	4.229	5.7273	0.1	-0.32626
23399	4.321	5.6364	0.1	-0.32486
23400	4.321	5.8182	0.1	-0.40561
23401	4.229	5.9091	0.1	-0.27448
23402	4.4129	0.27273	0.1	-0.29198
23403	4.5048	0.18182	0.1	-0.35401
23404	4.4129	9.0909e-002	0.1	-0.2542
23405	4.4129	0.45455	0.1	-0.19695
23406	4.5048	0.36364	0.1	-0.29622
23407	4.4129	0.63636	0.1	-8.9199e-002
23408	4.5048	0.54545	0.1	-9.381e-002
23409	4.4129	0.81818	0.1	-6.8868e-002
23410	4.5048	0.72727	0.1	-8.1163e-002
23411	4.4129	1.	0.1	-4.6542e-002
23412	4.5048	0.90909	0.1	-5.2639e-002
23413	4.4129	1.1818	0.1	-3.2043e-002
23414	4.5048	1.0909	0.1	-3.7538e-002
23415	4.4129	1.3636	0.1	-2.0049e-002
23416	4.5048	1.2727	0.1	-2.4489e-002
23417	4.4129	1.5455	0.1	-1.0442e-002
23418	4.5048	1.4545	0.1	-1.4357e-002
23419	4.4129	1.7273	0.1	-2.5076e-003
23420	4.5048	1.6364	0.1	-5.9586e-003
23421	4.4129	1.9091	0.1	4.006e-003
23422	4.5048	1.8182	0.1	9.4135e-004
23423	4.4129	2.0909	0.1	9.3022e-003
23424	4.5048	2.	0.1	6.6028e-003
23425	4.4129	2.2727	0.1	1.3502e-002
23426	4.5048	2.1818	0.1	1.1163e-002
23427	4.4129	2.4545	0.1	1.6692e-002
23428	4.5048	2.3636	0.1	1.4717e-002
23429	4.4129	2.6364	0.1	1.8931e-002
23430	4.5048	2.5455	0.1	1.7331e-002
23431	4.4129	2.8182	0.1	2.026e-002
23432	4.5048	2.7273	0.1	1.9051e-002
23433	4.4129	3.	0.1	2.0701e-002
23434	4.5048	2.9091	0.1	1.9905e-002
23435	4.4129	3.1818	0.1	2.026e-002
23436	4.5048	3.0909	0.1	1.9905e-002
23437	4.4129	3.3636	0.1	1.8931e-002
23438	4.5048	3.2727	0.1	1.9051e-002
23439	4.4129	3.5455	0.1	1.6692e-002
23440	4.5048	3.4545	0.1	1.7331e-002
23441	4.4129	3.7273	0.1	1.3503e-002
23442	4.5048	3.6364	0.1	1.4717e-002
23443	4.4129	3.9091	0.1	9.3024e-003
23444	4.5048	3.8182	0.1	1.1163e-002
23445	4.4129	4.0909	0.1	4.0065e-003
23446	4.5048	4.	0.1	6.6032e-003
23447	4.4129	4.2727	0.1	-2.5071e-003
23448	4.5048	4.1818	0.1	9.4186e-004
23449	4.4129	4.4545	0.1	-1.0442e-002
23450	4.5048	4.3636	0.1	-5.9581e-003
23451	4.4129	4.6364	0.1	-2.0048e-002
23452	4.5048	4.5455	0.1	-1.4356e-002
23453	4.4129	4.8182	0.1	-3.2043e-002
23454	4.5048	4.7273	0.1	-2.4489e-002
23455	4.4129	5.	0.1	-4.6541e-002
23456	4.5048	4.9091	0.1	-3.7537e-002
23457	4.4129	5.1818	0.1	-6.8867e-002
23458	4.5048	5.0909	0.1	-5.2638e-002
23459	4.4129	5.3636	0.1	-8.9199e-002
23460	4.5048	5.2727	0.1	-8.1162e-002
23461	4.4129	5.5455	0.1	-0.19695
23462	4.5048	5.4545	0.1	-9.381e-002
23463	4.4129	5.7273	0.1	-0.29198
23464	4.5048	5.6364	0.1	-0.29621
23465	4.5048	5.8182	0.1	-0.35401
23466	4.4129	5.9091	0.1	-0.2542
23467	4.5968	0.27273	0.1	-0.26191
23468	4.6887	0.18182	0.1	-0.31078
23469	4.5968	9.0909e-002	0.1	-0.23594
23470	4.5968	0.45455	0.1	-0.17942
23471	4.6887	0.36364	0.1	-0.27023
23472	4.5968	0.63636	0.1	-8.0963e-002
23473	4.6887	0.54545	0.1	-8.4932e-002
23474	4.5968	0.81818	0.1	-6.2683e-002
23475	4.6887	0.72727	0.1	-7.389e-002
23476	4.5968	1.	0.1	-4.2366e-002
23477	4.6887	0.90909	0.1	-4.7909e-002
23478	4.5968	1.1818	0.1	-2.9178e-002
23479	4.6887	1.0909	0.1	-3.4197e-002
23480	4.5968	1.3636	0.1	-1.8238e-002
23481	4.6887	1.2727	0.1	-2.2308e-002
23482	4.5968	1.5455	0.1	-9.4568e-003
23483	4.6887	1.4545	0.1	-1.3061e-002
23484	4.5968	1.7273	0.1	-2.183e-003
23485	4.6887	1.6364	0.1	-5.3782e-003
23486	4.5968	1.9091	0.1	3.8066e-003
23487	4.6887	1.8182	0.1	9.5108e-004
23488	4.5968	2.0909	0.1	8.6926e-003
23489	4.6887	2.	0.1	6.1595e-003
23490	4.5968	2.2727	0.1	1.258e-002
23491	4.6887	2.1818	0.1	1.0367e-002
23492	4.5968	2.4545	0.1	1.5541e-002
23493	4.6887	2.3636	0.1	1.3656e-002
23494	4.5968	2.6364	0.1	1.7624e-002
23495	4.6887	2.5455	0.1	1.608e-002
23496	4.5968	2.8182	0.1	1.8863e-002
23497	4.6887	2.7273	0.1	1.7679e-002
23498	4.5968	3.	0.1	1.9274e-002
23499	4.6887	2.9091	0.1	1.8473e-002
23500	4.5968	3.1818	0.1	1.8863e-002
23501	4.6887	3.0909	0.1	1.8473e-002
23502	4.5968	3.3636	0.1	1.7624e-002
23503	4.6887	3.2727	0.1	1.7679e-002
23504	4.5968	3.5455	0.1	1.5541e-002
23505	4.6887	3.4545	0.1	1.608e-002
23506	4.5968	3.7273	0.1	1.258e-002
23507	4.6887	3.6364	0.1	1.3656e-002
23508	4.5968	3.9091	0.1	8.6929e-003
23509	4.6887	3.8182	0.1	1.0367e-002
23510	4.5968	4.0909	0.1	3.8071e-003
23511	4.6887	4.	0.1	6.1599e-003
23512	4.5968	4.2727	0.1	-2.1825e-003
23513	4.6887	4.1818	0.1	9.5157e-004
23514	4.5968	4.4545	0.1	-9.4562e-003
23515	4.6887	4.3636	0.1	-5.3777e-003
23516	4.5968	4.6364	0.1	-1.8237e-002
23517	4.6887	4.5455	0.1	-1.3061e-002
23518	4.5968	4.8182	0.1	-2.9177e-002
23519	4.6887	4.7273	0.1	-2.2307e-002
23520	4.5968	5.	0.1	-4.2365e-002
23521	4.6887	4.9091	0.1	-3.4196e-002
23522	4.5968	5.1818	0.1	-6.2683e-002
23523	4.6887	5.0909	0.1	-4.7907e-002
23524	4.5968	5.3636	0.1	-8.0963e-002
23525	4.6887	5.2727	0.1	-7.3889e-002
23526	4.5968	5.5455	0.1	-0.17942
23527	4.6887	5.4545	0.1	-8.4932e-002
23528	4.5968	5.7273	0.1	-0.26191
23529	4.6887	5.6364	0.1	-0.27023
23530	4.6887	5.8182	0.1	-0.31077
23531	4.5968	5.9091	0.1	-0.23594
23532	4.7806	0.27273	0.1	-0.23545
23533	4.8726	0.18182	0.1	-0.27439
23534	4.7806	9.0909e-002	0.1	-0.21946
23535	4.7806	0.45455	0.1	-0.16353
23536	4.8726	0.36364	0.1	-0.24663
23537	4.7806	0.63636	0.1	-7.3529e-002
23538	4.8726	0.54545	0.1	-7.6938e-002
23539	4.7806	0.81818	0.1	-5.7085e-002
23540	4.8726	0.72727	0.1	-6.7294e-002
23541	4.7806	1.	0.1	-3.8595e-002
23542	4.8726	0.90909	0.1	-4.3628e-002
23543	4.7806	1.1818	0.1	-2.66e-002
23544	4.8726	1.0909	0.1	-3.1179e-002
23545	4.7806	1.3636	0.1	-1.6627e-002
23546	4.8726	1.2727	0.1	-2.035e-002
23547	4.7806	1.5455	0.1	-8.6076e-003
23548	4.8726	1.4545	0.1	-1.1918e-002
23549	4.7806	1.7273	0.1	-1.9497e-003
23550	4.8726	1.6364	0.1	-4.8975e-003
23551	4.7806	1.9091	0.1	3.5459e-003
23552	4.8726	1.8182	0.1	8.9835e-004
23553	4.7806	2.0909	0.1	8.0405e-003
23554	4.8726	2.	0.1	5.6787e-003
23555	4.7806	2.2727	0.1	1.1626e-002
23556	4.8726	2.1818	0.1	9.5494e-003
23557	4.7806	2.4545	0.1	1.4362e-002
23558	4.8726	2.3636	0.1	1.2582e-002
23559	4.7806	2.6364	0.1	1.6291e-002
23560	4.8726	2.5455	0.1	1.4821e-002
23561	4.7806	2.8182	0.1	1.744e-002
23562	4.8726	2.7273	0.1	1.63e-002
23563	4.7806	3.	0.1	1.7821e-002
23564	4.8726	2.9091	0.1	1.7035e-002
23565	4.7806	3.1818	0.1	1.744e-002
23566	4.8726	3.0909	0.1	1.7035e-002
23567	4.7806	3.3636	0.1	1.6291e-002
23568	4.8726	3.2727	0.1	1.63e-002
23569	4.7806	3.5455	0.1	1.4362e-002
23570	4.8726	3.4545	0.1	1.4821e-002
23571	4.7806	3.7273	0.1	1.1626e-002
23572	4.8726	3.6364	0.1	1.2582e-002
23573	4.7806	3.9091	0.1	8.0409e-003
23574	4.8726	3.8182	0.1	9.5498e-003
23575	4.7806	4.0909	0.1	3.5464e-003
23576	4.8726	4.	0.1	5.6792e-003
23577	4.7806	4.2727	0.1	-1.9492e-003
23578	4.8726	4.1818	0.1	8.9889e-004
23579	4.7806	4.4545	0.1	-8.607e-003
23580	4.8726	4.3636	0.1	-4.8969e-003
23581	4.7806	4.6364	0.1	-1.6626e-002
23582	4.8726	4.5455	0.1	-1.1918e-002
23583	4.7806	4.8182	0.1	-2.6599e-002
23584	4.8726	4.7273	0.1	-2.0349e-002
23585	4.7806	5.	0.1	-3.8594e-002
23586	4.8726	4.9091	0.1	-3.1178e-002
23587	4.7806	5.1818	0.1	-5.7084e-002
23588	4.8726	5.0909	0.1	-4.3627e-002
23589	4.7806	5.3636	0.1	-7.3529e-002
23590	4.8726	5.2727	0.1	-6.7294e-002
23591	4.7806	5.5455	0.1	-0.16353
23592	4.8726	5.4545	0.1	-7.6938e-002
23593	4.7806	5.7273	0.1	-0.23544
23594	4.8726	5.6364	0.1	-0.24663
23595	4.8726	5.8182	0.1	-0.27438
23596	4.7806	5.9091	0.1	-0.21945
23597	4.9645	0.27273	0.1	-0.21207
23598	5.0565	0.18182	0.1	-0.24365
23599	4.9645	9.0909e-002	0.1	-0.20457
23600	4.9645	0.45455	0.1	-0.14908
23601	5.0565	0.36364	0.1	-0.22515
23602	4.9645	0.63636	0.1	-6.6802e-002
23603	5.0565	0.54545	0.1	-6.9726e-002
23604	4.9645	0.81818	0.1	-5.2006e-002
23605	5.0565	0.72727	0.1	-6.1305e-002
23606	4.9645	1.	0.1	-3.5179e-002
23607	5.0565	0.90909	0.1	-3.9748e-002
23608	4.9645	1.1818	0.1	-2.4273e-002
23609	5.0565	1.0909	0.1	-2.8448e-002
23610	4.9645	1.3636	0.1	-1.5186e-002
23611	5.0565	1.2727	0.1	-1.859e-002
23612	4.9645	1.5455	0.1	-7.8696e-003
23613	5.0565	1.4545	0.1	-1.0906e-002
23614	4.9645	1.7273	0.1	-1.7838e-003
23615	5.0565	1.6364	0.1	-4.4979e-003
23616	4.9645	1.9091	0.1	3.2493e-003
23617	5.0565	1.8182	0.1	8.014e-004
23618	4.9645	2.0909	0.1	7.3739e-003
23619	5.0565	2.	0.1	5.18e-003
23620	4.9645	2.2727	0.1	1.067e-002
23621	5.0565	2.1818	0.1	8.732e-003
23622	4.9645	2.4545	0.1	1.3191e-002
23623	5.0565	2.3636	0.1	1.1519e-002
23624	4.9645	2.6364	0.1	1.497e-002
23625	5.0565	2.5455	0.1	1.358e-002
23626	4.9645	2.8182	0.1	1.6031e-002
23627	5.0565	2.7273	0.1	1.4943e-002
23628	4.9645	3.	0.1	1.6383e-002
23629	5.0565	2.9091	0.1	1.5622e-002
23630	4.9645	3.1818	0.1	1.6031e-002
23631	5.0565	3.0909	0.1	1.5622e-002
23632	4.9645	3.3636	0.1	1.497e-002
23633	5.0565	3.2727	0.1	1.4943e-002
23634	4.9645	3.5455	0.1	1.3191e-002
23635	5.0565	3.4545	0.1	1.3581e-002
23636	4.9645	3.7273	0.1	1.0671e-002
23637	5.0565	3.6364	0.1	1.152e-002
23638	4.9645	3.9091	0.1	7.3743e-003
23639	5.0565	3.8182	0.1	8.7324e-003
23640	4.9645	4.0909	0.1	3.2498e-003
23641	5.0565	4.	0.1	5.1805e-003
23642	4.9645	4.2727	0.1	-1.7833e-003
23643	5.0565	4.1818	0.1	8.0186e-004
23644	4.9645	4.4545	0.1	-7.869e-003
23645	5.0565	4.3636	0.1	-4.4973e-003
23646	4.9645	4.6364	0.1	-1.5185e-002
23647	5.0565	4.5455	0.1	-1.0906e-002
23648	4.9645	4.8182	0.1	-2.4272e-002
23649	5.0565	4.7273	0.1	-1.8589e-002
23650	4.9645	5.	0.1	-3.5178e-002
23651	5.0565	4.9091	0.1	-2.8447e-002
23652	4.9645	5.1818	0.1	-5.2005e-002
23653	5.0565	5.0909	0.1	-3.9747e-002
23654	4.9645	5.3636	0.1	-6.6801e-002
23655	5.0565	5.2727	0.1	-6.1304e-002
23656	4.9645	5.5455	0.1	-0.14908
23657	5.0565	5.4545	0.1	-6.9726e-002
23658	4.9645	5.7273	0.1	-0.21207
23659	5.0565	5.6364	0.1	-0.22515
23660	5.0565	5.8182	0.1	-0.24365
23661	4.9645	5.9091	0.1	-0.20457
23662	5.1484	0.27273	0.1	-0.19138
23663	5.2403	0.18182	0.1	-0.21764
23664	5.1484	9.0909e-002	0.1	-0.19113
23665	5.1484	0.45455	0.1	-0.13593
23666	5.2403	0.36364	0.1	-0.20558
23667	5.1484	0.63636	0.1	-6.0707e-002
23668	5.2403	0.54545	0.1	-6.3214e-002
23669	5.1484	0.81818	0.1	-4.7393e-002
23670	5.2403	0.72727	0.1	-5.5863e-002
23671	5.1484	1.	0.1	-3.2085e-002
23672	5.2403	0.90909	0.1	-3.6234e-002
23673	5.1484	1.1818	0.1	-2.2172e-002
23674	5.2403	1.0909	0.1	-2.5981e-002
23675	5.1484	1.3636	0.1	-1.3899e-002
23676	5.2403	1.2727	0.1	-1.701e-002
23677	5.1484	1.5455	0.1	-7.2291e-003
23678	5.2403	1.4545	0.1	-1.0014e-002
23679	5.1484	1.7273	0.1	-1.6731e-003
23680	5.2403	1.6364	0.1	-4.1709e-003
23681	5.1484	1.9091	0.1	2.9288e-003
23682	5.2403	1.8182	0.1	6.6758e-004
23683	5.1484	2.0909	0.1	6.7061e-003
23684	5.2403	2.	0.1	4.6713e-003
23685	5.1484	2.2727	0.1	9.7295e-003
23686	5.2403	2.1818	0.1	7.9238e-003
23687	5.1484	2.4545	0.1	1.2044e-002
23688	5.2403	2.3636	0.1	1.048e-002
23689	5.1484	2.6364	0.1	1.368e-002
23690	5.2403	2.5455	0.1	1.2371e-002
23691	5.1484	2.8182	0.1	1.4656e-002
23692	5.2403	2.7273	0.1	1.3624e-002
23693	5.1484	3.	0.1	1.4981e-002
23694	5.2403	2.9091	0.1	1.4247e-002
23695	5.1484	3.1818	0.1	1.4656e-002
23696	5.2403	3.0909	0.1	1.4247e-002
23697	5.1484	3.3636	0.1	1.3681e-002
23698	5.2403	3.2727	0.1	1.3624e-002
23699	5.1484	3.5455	0.1	1.2045e-002
23700	5.2403	3.4545	0.1	1.2372e-002
23701	5.1484	3.7273	0.1	9.7298e-003
23702	5.2403	3.6364	0.1	1.048e-002
23703	5.1484	3.9091	0.1	6.7065e-003
23704	5.2403	3.8182	0.1	7.9241e-003
23705	5.1484	4.0909	0.1	2.9292e-003
23706	5.2403	4.	0.1	4.6717e-003
23707	5.1484	4.2727	0.1	-1.6726e-003
23708	5.2403	4.1818	0.1	6.6803e-004
23709	5.1484	4.4545	0.1	-7.2285e-003
23710	5.2403	4.3636	0.1	-4.1704e-003
23711	5.1484	4.6364	0.1	-1.3898e-002
23712	5.2403	4.5455	0.1	-1.0014e-002
23713	5.1484	4.8182	0.1	-2.2172e-002
23714	5.2403	4.7273	0.1	-1.701e-002
23715	5.1484	5.	0.1	-3.2084e-002
23716	5.2403	4.9091	0.1	-2.598e-002
23717	5.1484	5.1818	0.1	-4.7392e-002
23718	5.2403	5.0909	0.1	-3.6233e-002
23719	5.1484	5.3636	0.1	-6.0707e-002
23720	5.2403	5.2727	0.1	-5.5862e-002
23721	5.1484	5.5455	0.1	-0.13593
23722	5.2403	5.4545	0.1	-6.3214e-002
23723	5.1484	5.7273	0.1	-0.19137
23724	5.2403	5.6364	0.1	-0.20558
23725	5.2403	5.8182	0.1	-0.21764
23726	5.1484	5.9091	0.1	-0.19113
23727	5.3323	0.27273	0.1	-0.17302
23728	5.4242	0.18182	0.1	-0.1956
23729	5.3323	9.0909e-002	0.1	-0.17904
23730	5.3323	0.45455	0.1	-0.12396
23731	5.4242	0.36364	0.1	-0.18774
23732	5.3323	0.63636	0.1	-5.5187e-002
23733	5.4242	0.54545	0.1	-5.733e-002
23734	5.3323	0.81818	0.1	-4.3209e-002
23735	5.4242	0.72727	0.1	-5.0919e-002
23736	5.3323	1.	0.1	-2.9287e-002
23737	5.4242	0.90909	0.1	-3.3052e-002
23738	5.3323	1.1818	0.1	-2.0283e-002
23739	5.4242	1.0909	0.1	-2.3754e-002
23740	5.3323	1.3636	0.1	-1.2755e-002
23741	5.4242	1.2727	0.1	-1.5597e-002
23742	5.3323	1.5455	0.1	-6.6806e-003
23743	5.4242	1.4545	0.1	-9.2323e-003
23744	5.3323	1.7273	0.1	-1.6141e-003
23745	5.4242	1.6364	0.1	-3.9093e-003
23746	5.3323	1.9091	0.1	2.5874e-003
23747	5.4242	1.8182	0.1	5.0265e-004
23748	5.3323	2.0909	0.1	6.0404e-003
23749	5.4242	2.	0.1	4.1579e-003
23750	5.3323	2.2727	0.1	8.8077e-003
23751	5.4242	2.1818	0.1	7.1307e-003
23752	5.3323	2.4545	0.1	1.0929e-002
23753	5.4242	2.3636	0.1	9.4692e-003
23754	5.3323	2.6364	0.1	1.2429e-002
23755	5.4242	2.5455	0.1	1.1202e-002
23756	5.3323	2.8182	0.1	1.3324e-002
23757	5.4242	2.7273	0.1	1.2349e-002
23758	5.3323	3.	0.1	1.3622e-002
23759	5.4242	2.9091	0.1	1.2921e-002
23760	5.3323	3.1818	0.1	1.3324e-002
23761	5.4242	3.0909	0.1	1.2921e-002
23762	5.3323	3.3636	0.1	1.2429e-002
23763	5.4242	3.2727	0.1	1.2349e-002
23764	5.3323	3.5455	0.1	1.0929e-002
23765	5.4242	3.4545	0.1	1.1202e-002
23766	5.3323	3.7273	0.1	8.8079e-003
23767	5.4242	3.6364	0.1	9.4694e-003
23768	5.3323	3.9091	0.1	6.0407e-003
23769	5.4242	3.8182	0.1	7.131e-003
23770	5.3323	4.0909	0.1	2.5879e-003
23771	5.4242	4.	0.1	4.1583e-003
23772	5.3323	4.2727	0.1	-1.6136e-003
23773	5.4242	4.1818	0.1	5.032e-004
23774	5.3323	4.4545	0.1	-6.68e-003
23775	5.4242	4.3636	0.1	-3.9088e-003
23776	5.3323	4.6364	0.1	-1.2754e-002
23777	5.4242	4.5455	0.1	-9.2316e-003
23778	5.3323	4.8182	0.1	-2.0283e-002
23779	5.4242	4.7273	0.1	-1.5596e-002
23780	5.3323	5.	0.1	-2.9286e-002
23781	5.4242	4.9091	0.1	-2.3753e-002
23782	5.3323	5.1818	0.1	-4.3208e-002
23783	5.4242	5.0909	0.1	-3.3051e-002
23784	5.3323	5.3636	0.1	-5.5187e-002
23785	5.4242	5.2727	0.1	-5.0919e-002
23786	5.3323	5.5455	0.1	-0.12395
23787	5.4242	5.4545	0.1	-5.7329e-002
23788	5.3323	5.7273	0.1	-0.17301
23789	5.4242	5.6364	0.1	-0.18774
23790	5.4242	5.8182	0.1	-0.1956
23791	5.3323	5.9091	0.1	-0.17904
23792	5.5161	0.27273	0.1	-0.1567
23793	5.6081	0.18182	0.1	-0.17694
23794	5.5161	9.0909e-002	0.1	-0.1682
23795	5.5161	0.45455	0.1	-0.11304
23796	5.6081	0.36364	0.1	-0.17146
23797	5.5161	0.63636	0.1	-5.0183e-002
23798	5.6081	0.54545	0.1	-5.2003e-002
23799	5.5161	0.81818	0.1	-3.9411e-002
23800	5.6081	0.72727	0.1	-4.6422e-002
23801	5.5161	1.	0.1	-2.6757e-002
23802	5.6081	0.90909	0.1	-3.0166e-002
23803	5.5161	1.1818	0.1	-1.8584e-002
23804	5.6081	1.0909	0.1	-2.174e-002
23805	5.5161	1.3636	0.1	-1.1739e-002
23806	5.6081	1.2727	0.1	-1.4329e-002
23807	5.5161	1.5455	0.1	-6.2123e-003
23808	5.6081	1.4545	0.1	-8.544e-003
23809	5.5161	1.7273	0.1	-1.5976e-003
23810	5.6081	1.6364	0.1	-3.7004e-003
23811	5.5161	1.9091	0.1	2.233e-003
23812	5.6081	1.8182	0.1	3.1776e-004
23813	5.5161	2.0909	0.1	5.3847e-003
23814	5.6081	2.	0.1	3.65e-003
23815	5.5161	2.2727	0.1	7.9128e-003
23816	5.6081	2.1818	0.1	6.3627e-003
23817	5.5161	2.4545	0.1	9.852e-003
23818	5.6081	2.3636	0.1	8.4982e-003
23819	5.5161	2.6364	0.1	1.1225e-002
23820	5.6081	2.5455	0.1	1.0081e-002
23821	5.5161	2.8182	0.1	1.2045e-002
23822	5.6081	2.7273	0.1	1.1131e-002
23823	5.5161	3.	0.1	1.2317e-002
23824	5.6081	2.9091	0.1	1.1654e-002
23825	5.5161	3.1818	0.1	1.2045e-002
23826	5.6081	3.0909	0.1	1.1654e-002
23827	5.5161	3.3636	0.1	1.1225e-002
23828	5.6081	3.2727	0.1	1.1131e-002
23829	5.5161	3.5455	0.1	9.8523e-003
23830	5.6081	3.4545	0.1	1.0082e-002
23831	5.5161	3.7273	0.1	7.9131e-003
23832	5.6081	3.6364	0.1	8.4985e-003
23833	5.5161	3.9091	0.1	5.3851e-003
23834	5.6081	3.8182	0.1	6.3631e-003
23835	5.5161	4.0909	0.1	2.2336e-003
23836	5.6081	4.	0.1	3.6504e-003
23837	5.5161	4.2727	0.1	-1.5971e-003
23838	5.6081	4.1818	0.1	3.1831e-004
23839	5.5161	4.4545	0.1	-6.2117e-003
23840	5.6081	4.3636	0.1	-3.7e-003
23841	5.5161	4.6364	0.1	-1.1739e-002
23842	5.6081	4.5455	0.1	-8.5434e-003
23843	5.5161	4.8182	0.1	-1.8583e-002
23844	5.6081	4.7273	0.1	-1.4329e-002
23845	5.5161	5.	0.1	-2.6756e-002
23846	5.6081	4.9091	0.1	-2.174e-002
23847	5.5161	5.1818	0.1	-3.941e-002
23848	5.6081	5.0909	0.1	-3.0165e-002
23849	5.5161	5.3636	0.1	-5.0182e-002
23850	5.6081	5.2727	0.1	-4.6421e-002
23851	5.5161	5.5455	0.1	-0.11304
23852	5.6081	5.4545	0.1	-5.2002e-002
23853	5.5161	5.7273	0.1	-0.1567
23854	5.6081	5.6364	0.1	-0.17146
23855	5.6081	5.8182	0.1	-0.17693
23856	5.5161	5.9091	0.1	-0.1682
23857	5.7	0.27273	0.1	-0.14216
23858	5.7919	0.18182	0.1	-0.16116
23859	5.7	9.0909e-002	0.1	-0.15854
23860	5.7	0.45455	0.1	-0.10309
23861	5.7919	0.36364	0.1	-0.15658
23862	5.7	0.63636	0.1	-4.5635e-002
23863	5.7919	0.54545	0.1	-4.7172e-002
23864	5.7	0.81818	0.1	-3.5955e-002
23865	5.7919	0.72727	0.1	-4.2323e-002
23866	5.7	1.	0.1	-2.4461e-002
23867	5.7919	0.90909	0.1	-2.7544e-002
23868	5.7	1.1818	0.1	-1.7049e-002
23869	5.7919	1.0909	0.1	-1.9916e-002
23870	5.7	1.3636	0.1	-1.0832e-002
23871	5.7919	1.2727	0.1	-1.3188e-002
23872	5.7	1.5455	0.1	-5.8078e-003
23873	5.7919	1.4545	0.1	-7.9353e-003
23874	5.7	1.7273	0.1	-1.6093e-003
23875	5.7919	1.6364	0.1	-3.5328e-003
23876	5.7	1.9091	0.1	1.8789e-003
23877	5.7919	1.8182	0.1	1.2237e-004
23878	5.7	2.0909	0.1	4.7511e-003
23879	5.7919	2.	0.1	3.156e-003
23880	5.7	2.2727	0.1	7.0568e-003
23881	5.7919	2.1818	0.1	5.6275e-003
23882	5.7	2.4545	0.1	8.8266e-003
23883	5.7919	2.3636	0.1	7.5745e-003
23884	5.7	2.6364	0.1	1.008e-002
23885	5.7919	2.5455	0.1	9.0187e-003
23886	5.7	2.8182	0.1	1.0829e-002
23887	5.7919	2.7273	0.1	9.9763e-003
23888	5.7	3.	0.1	1.1078e-002
23889	5.7919	2.9091	0.1	1.0454e-002
23890	5.7	3.1818	0.1	1.0829e-002
23891	5.7919	3.0909	0.1	1.0454e-002
23892	5.7	3.3636	0.1	1.008e-002
23893	5.7919	3.2727	0.1	9.9764e-003
23894	5.7	3.5455	0.1	8.8269e-003
23895	5.7919	3.4545	0.1	9.0189e-003
23896	5.7	3.7273	0.1	7.0572e-003
23897	5.7919	3.6364	0.1	7.5748e-003
23898	5.7	3.9091	0.1	4.7514e-003
23899	5.7919	3.8182	0.1	5.6279e-003
23900	5.7	4.0909	0.1	1.8793e-003
23901	5.7919	4.	0.1	3.1563e-003
23902	5.7	4.2727	0.1	-1.6088e-003
23903	5.7919	4.1818	0.1	1.2289e-004
23904	5.7	4.4545	0.1	-5.8074e-003
23905	5.7919	4.3636	0.1	-3.5324e-003
23906	5.7	4.6364	0.1	-1.0831e-002
23907	5.7919	4.5455	0.1	-7.9347e-003
23908	5.7	4.8182	0.1	-1.7048e-002
23909	5.7919	4.7273	0.1	-1.3188e-002
23910	5.7	5.	0.1	-2.446e-002
23911	5.7919	4.9091	0.1	-1.9915e-002
23912	5.7	5.1818	0.1	-3.5954e-002
23913	5.7919	5.0909	0.1	-2.7542e-002
23914	5.7	5.3636	0.1	-4.5634e-002
23915	5.7919	5.2727	0.1	-4.2323e-002
23916	5.7	5.5455	0.1	-0.10309
23917	5.7919	5.4545	0.1	-4.7172e-002
23918	5.7	5.7273	0.1	-0.14216
23919	5.7919	5.6364	0.1	-0.15658
23920	5.7919	5.8182	0.1	-0.16115
23921	5.7	5.9091	0.1	-0.15854
23922	5.8839	0.27273	0.1	-0.12919
23923	5.9758	0.18182	0.1	-0.14788
23924	5.8839	9.0909e-002	0.1	-0.15002
23925	5.8839	0.45455	0.1	-9.399e-002
23926	5.9758	0.36364	0.1	-0.14298
23927	5.8839	0.63636	0.1	-4.1498e-002
23928	5.9758	0.54545	0.1	-4.2786e-002
23929	5.8839	0.81818	0.1	-3.2807e-002
23930	5.9758	0.72727	0.1	-3.8586e-002
23931	5.8839	1.	0.1	-2.2376e-002
23932	5.9758	0.90909	0.1	-2.5159e-002
23933	5.8839	1.1818	0.1	-1.5661e-002
23934	5.9758	1.0909	0.1	-1.826e-002
23935	5.8839	1.3636	0.1	-1.0019e-002
23936	5.9758	1.2727	0.1	-1.2161e-002
23937	5.8839	1.5455	0.1	-5.4581e-003
23938	5.9758	1.4545	0.1	-7.3964e-003
23939	5.8839	1.7273	0.1	-1.6428e-003
23940	5.9758	1.6364	0.1	-3.3995e-003
23941	5.8839	1.9091	0.1	1.5293e-003
23942	5.9758	1.8182	0.1	-7.8704e-005
23943	5.8839	2.0909	0.1	4.1432e-003
23944	5.9758	2.	0.1	2.6792e-003
23945	5.8839	2.2727	0.1	6.243e-003
23946	5.9758	2.1818	0.1	4.9279e-003
23947	5.8839	2.4545	0.1	7.8556e-003
23948	5.9758	2.3636	0.1	6.7002e-003
23949	5.8839	2.6364	0.1	8.9984e-003
23950	5.9758	2.5455	0.1	8.0153e-003
23951	5.8839	2.8182	0.1	9.6813e-003
23952	5.9758	2.7273	0.1	8.8879e-003
23953	5.8839	3.	0.1	9.9086e-003
23954	5.9758	2.9091	0.1	9.323e-003
23955	5.8839	3.1818	0.1	9.6814e-003
23956	5.9758	3.0909	0.1	9.323e-003
23957	5.8839	3.3636	0.1	8.9984e-003
23958	5.9758	3.2727	0.1	8.8879e-003
23959	5.8839	3.5455	0.1	7.8558e-003
23960	5.9758	3.4545	0.1	8.0154e-003
23961	5.8839	3.7273	0.1	6.2433e-003
23962	5.9758	3.6364	0.1	6.7004e-003
23963	5.8839	3.9091	0.1	4.1435e-003
23964	5.9758	3.8182	0.1	4.9281e-003
23965	5.8839	4.0909	0.1	1.5298e-003
23966	5.9758	4.	0.1	2.6796e-003
23967	5.8839	4.2727	0.1	-1.6423e-003
23968	5.9758	4.1818	0.1	-7.8255e-005
23969	5.8839	4.4545	0.1	-5.4575e-003
23970	5.9758	4.3636	0.1	-3.3989e-003
23971	5.8839	4.6364	0.1	-1.0019e-002
23972	5.9758	4.5455	0.1	-7.3957e-003
23973	5.8839	4.8182	0.1	-1.566e-002
23974	5.9758	4.7273	0.1	-1.216e-002
23975	5.8839	5.	0.1	-2.2375e-002
23976	5.9758	4.9091	0.1	-1.826e-002
23977	5.8839	5.1818	0.1	-3.2806e-002
23978	5.9758	5.0909	0.1	-2.5157e-002
23979	5.8839	5.3636	0.1	-4.1497e-002
23980	5.9758	5.2727	0.1	-3.8585e-002
23981	5.8839	5.5455	0.1	-9.3989e-002
23982	5.9758	5.4545	0.1	-4.2786e-002
23983	5.8839	5.7273	0.1	-0.12919
23984	5.9758	5.6364	0.1	-0.14298
23985	5.9758	5.8182	0.1	-0.14788
23986	5.8839	5.9091	0.1	-0.15002
23987	6.0677	0.27273	0.1	-0.11761
23988	6.1597	0.18182	0.1	-0.13682
23989	6.0677	9.0909e-002	0.1	-0.14262
23990	6.0677	0.45455	0.1	-8.5673e-002
23991	6.1597	0.36364	0.1	-0.13053
23992	6.0677	0.63636	0.1	-3.773e-002
23993	6.1597	0.54545	0.1	-3.8802e-002
23994	6.0677	0.81818	0.1	-2.9938e-002
23995	6.1597	0.72727	0.1	-3.5177e-002
23996	6.0677	1.	0.1	-2.0481e-002
23997	6.1597	0.90909	0.1	-2.2991e-002
23998	6.0677	1.1818	0.1	-1.4405e-002
23999	6.1597	1.0909	0.1	-1.6761e-002
24000	6.0677	1.3636	0.1	-9.2919e-003
24001	6.1597	1.2727	0.1	-1.1237e-002
24002	6.0677	1.5455	0.1	-5.1556e-003
24003	6.1597	1.4545	0.1	-6.9216e-003
24004	6.0677	1.7273	0.1	-1.6928e-003
24005	6.1597	1.6364	0.1	-3.2976e-003
24006	6.0677	1.9091	0.1	1.188e-003
24007	6.1597	1.8182	0.1	-2.8469e-004
24008	6.0677	2.0909	0.1	3.5635e-003
24009	6.1597	2.	0.1	2.2192e-003
24010	6.0677	2.2727	0.1	5.4731e-003
24011	6.1597	2.1818	0.1	4.2621e-003
24012	6.0677	2.4545	0.1	6.94e-003
24013	6.1597	2.3636	0.1	5.873e-003
24014	6.0677	2.6364	0.1	7.9799e-003
24015	6.1597	2.5455	0.1	7.0687e-003
24016	6.0677	2.8182	0.1	8.6018e-003
24017	6.1597	2.7273	0.1	7.8625e-003
24018	6.0677	3.	0.1	8.8088e-003
24019	6.1597	2.9091	0.1	8.2584e-003
24020	6.0677	3.1818	0.1	8.6018e-003
24021	6.1597	3.0909	0.1	8.2585e-003
24022	6.0677	3.3636	0.1	7.98e-003
24023	6.1597	3.2727	0.1	7.8625e-003
24024	6.0677	3.5455	0.1	6.9402e-003
24025	6.1597	3.4545	0.1	7.0689e-003
24026	6.0677	3.7273	0.1	5.4733e-003
24027	6.1597	3.6364	0.1	5.8734e-003
24028	6.0677	3.9091	0.1	3.5638e-003
24029	6.1597	3.8182	0.1	4.2624e-003
24030	6.0677	4.0909	0.1	1.1884e-003
24031	6.1597	4.	0.1	2.2195e-003
24032	6.0677	4.2727	0.1	-1.6923e-003
24033	6.1597	4.1818	0.1	-2.8424e-004
24034	6.0677	4.4545	0.1	-5.1549e-003
24035	6.1597	4.3636	0.1	-3.297e-003
24036	6.0677	4.6364	0.1	-9.2911e-003
24037	6.1597	4.5455	0.1	-6.9209e-003
24038	6.0677	4.8182	0.1	-1.4404e-002
24039	6.1597	4.7273	0.1	-1.1236e-002
24040	6.0677	5.	0.1	-2.048e-002
24041	6.1597	4.9091	0.1	-1.676e-002
24042	6.0677	5.1818	0.1	-2.9937e-002
24043	6.1597	5.0909	0.1	-2.2989e-002
24044	6.0677	5.3636	0.1	-3.773e-002
24045	6.1597	5.2727	0.1	-3.5176e-002
24046	6.0677	5.5455	0.1	-8.5672e-002
24047	6.1597	5.4545	0.1	-3.8802e-002
24048	6.0677	5.7273	0.1	-0.11761
24049	6.1597	5.6364	0.1	-0.13053
24050	6.1597	5.8182	0.1	-0.13682
24051	6.0677	5.9091	0.1	-0.14261
24052	6.2516	0.27273	0.1	-0.10727
24053	6.3435	0.18182	0.1	-0.12777
24054	6.2516	9.0909e-002	0.1	-0.13636
24055	6.2516	0.45455	0.1	-7.807e-002
24056	6.3435	0.36364	0.1	-0.11914
24057	6.2516	0.63636	0.1	-3.4303e-002
24058	6.3435	0.54545	0.1	-3.5182e-002
24059	6.2516	0.81818	0.1	-2.7326e-002
24060	6.3435	0.72727	0.1	-3.2069e-002
24061	6.2516	1.	0.1	-1.8764e-002
24062	6.3435	0.90909	0.1	-2.1022e-002
24063	6.2516	1.1818	0.1	-1.3273e-002
24064	6.3435	1.0909	0.1	-1.5405e-002
24065	6.2516	1.3636	0.1	-8.6455e-003
24066	6.3435	1.2727	0.1	-1.041e-002
24067	6.2516	1.5455	0.1	-4.8997e-003
24068	6.3435	1.4545	0.1	-6.5062e-003
24069	6.2516	1.7273	0.1	-1.7613e-003
24070	6.3435	1.6364	0.1	-3.2251e-003
24071	6.2516	1.9091	0.1	8.5155e-004
24072	6.3435	1.8182	0.1	-4.9545e-004
24073	6.2516	2.0909	0.1	3.0073e-003
24074	6.3435	2.	0.1	1.7747e-003
24075	6.2516	2.2727	0.1	4.7411e-003
24076	6.3435	2.1818	0.1	3.6278e-003
24077	6.2516	2.4545	0.1	6.0738e-003
24078	6.3435	2.3636	0.1	5.0899e-003
24079	6.2516	2.6364	0.1	7.0188e-003
24080	6.3435	2.5455	0.1	6.1754e-003
24081	6.2516	2.8182	0.1	7.584e-003
24082	6.3435	2.7273	0.1	6.8963e-003
24083	6.2516	3.	0.1	7.7722e-003
24084	6.3435	2.9091	0.1	7.2561e-003
24085	6.2516	3.1818	0.1	7.584e-003
24086	6.3435	3.0909	0.1	7.2561e-003
24087	6.2516	3.3636	0.1	7.0188e-003
24088	6.3435	3.2727	0.1	6.8964e-003
24089	6.2516	3.5455	0.1	6.0741e-003
24090	6.3435	3.4545	0.1	6.1757e-003
24091	6.2516	3.7273	0.1	4.7416e-003
24092	6.3435	3.6364	0.1	5.0903e-003
24093	6.2516	3.9091	0.1	3.0077e-003
24094	6.3435	3.8182	0.1	3.6282e-003
24095	6.2516	4.0909	0.1	8.5197e-004
24096	6.3435	4.	0.1	1.775e-003
24097	6.2516	4.2727	0.1	-1.7607e-003
24098	6.3435	4.1818	0.1	-4.9498e-004
24099	6.2516	4.4545	0.1	-4.899e-003
24100	6.3435	4.3636	0.1	-3.2245e-003
24101	6.2516	4.6364	0.1	-8.6447e-003
24102	6.3435	4.5455	0.1	-6.5055e-003
24103	6.2516	4.8182	0.1	-1.3272e-002
24104	6.3435	4.7273	0.1	-1.0409e-002
24105	6.2516	5.	0.1	-1.8763e-002
24106	6.3435	4.9091	0.1	-1.5404e-002
24107	6.2516	5.1818	0.1	-2.7325e-002
24108	6.3435	5.0909	0.1	-2.102e-002
24109	6.2516	5.3636	0.1	-3.4302e-002
24110	6.3435	5.2727	0.1	-3.2068e-002
24111	6.2516	5.5455	0.1	-7.8069e-002
24112	6.3435	5.4545	0.1	-3.5182e-002
24113	6.2516	5.7273	0.1	-0.10727
24114	6.3435	5.6364	0.1	-0.11914
24115	6.3435	5.8182	0.1	-0.12776
24116	6.2516	5.9091	0.1	-0.13636
24117	6.4355	0.27273	0.1	-9.8042e-002
24118	6.5274	0.18182	0.1	-0.12056
24119	6.4355	9.0909e-002	0.1	-0.13131
24120	6.4355	0.45455	0.1	-7.1115e-002
24121	6.5274	0.36364	0.1	-0.10871
24122	6.4355	0.63636	0.1	-3.1182e-002
24123	6.5274	0.54545	0.1	-3.1887e-002
24124	6.4355	0.81818	0.1	-2.4948e-002
24125	6.5274	0.72727	0.1	-2.9231e-002
24126	6.4355	1.	0.1	-1.7206e-002
24127	6.5274	0.90909	0.1	-1.923e-002
24128	6.4355	1.1818	0.1	-1.2253e-002
24129	6.5274	1.0909	0.1	-1.4174e-002
24130	6.4355	1.3636	0.1	-8.0713e-003
24131	6.5274	1.2727	0.1	-9.6646e-003
24132	6.4355	1.5455	0.1	-4.6844e-003
24133	6.5274	1.4545	0.1	-6.14e-003
24134	6.4355	1.7273	0.1	-1.8442e-003
24135	6.5274	1.6364	0.1	-3.1741e-003
24136	6.4355	1.9091	0.1	5.2198e-004
24137	6.5274	1.8182	0.1	-7.0495e-004
24138	6.4355	2.0909	0.1	2.4755e-003
24139	6.5274	2.	0.1	1.35e-003
24140	6.4355	2.2727	0.1	4.0475e-003
24141	6.5274	2.1818	0.1	3.0286e-003
24142	6.4355	2.4545	0.1	5.2562e-003
24143	6.5274	2.3636	0.1	4.3535e-003
24144	6.4355	2.6364	0.1	6.1136e-003
24145	6.5274	2.5455	0.1	5.3376e-003
24146	6.4355	2.8182	0.1	6.6266e-003
24147	6.5274	2.7273	0.1	5.9912e-003
24148	6.4355	3.	0.1	6.7975e-003
24149	6.5274	2.9091	0.1	6.3177e-003
24150	6.4355	3.1818	0.1	6.6267e-003
24151	6.5274	3.0909	0.1	6.3175e-003
24152	6.4355	3.3636	0.1	6.1137e-003
24153	6.5274	3.2727	0.1	5.9914e-003
24154	6.4355	3.5455	0.1	5.2565e-003
24155	6.5274	3.4545	0.1	5.3378e-003
24156	6.4355	3.7273	0.1	4.0479e-003
24157	6.5274	3.6364	0.1	4.3539e-003
24158	6.4355	3.9091	0.1	2.4759e-003
24159	6.5274	3.8182	0.1	3.029e-003
24160	6.4355	4.0909	0.1	5.2236e-004
24161	6.5274	4.	0.1	1.3505e-003
24162	6.4355	4.2727	0.1	-1.8436e-003
24163	6.5274	4.1818	0.1	-7.044e-004
24164	6.4355	4.4545	0.1	-4.6838e-003
24165	6.5274	4.3636	0.1	-3.1734e-003
24166	6.4355	4.6364	0.1	-8.0706e-003
24167	6.5274	4.5455	0.1	-6.1394e-003
24168	6.4355	4.8182	0.1	-1.2252e-002
24169	6.5274	4.7273	0.1	-9.664e-003
24170	6.4355	5.	0.1	-1.7205e-002
24171	6.5274	4.9091	0.1	-1.4174e-002
24172	6.4355	5.1818	0.1	-2.4947e-002
24173	6.5274	5.0909	0.1	-1.9228e-002
24174	6.4355	5.3636	0.1	-3.1181e-002
24175	6.5274	5.2727	0.1	-2.9231e-002
24176	6.4355	5.5455	0.1	-7.1114e-002
24177	6.5274	5.4545	0.1	-3.1887e-002
24178	6.4355	5.7273	0.1	-9.804e-002
24179	6.5274	5.6364	0.1	-0.10871
24180	6.5274	5.8182	0.1	-0.12056
24181	6.4355	5.9091	0.1	-0.13131
24182	6.6194	0.27273	0.1	-8.9799e-002
24183	6.7113	0.18182	0.1	-0.11514
24184	6.6194	9.0909e-002	0.1	-0.12759
24185	6.6194	0.45455	0.1	-6.4742e-002
24186	6.7113	0.36364	0.1	-9.9145e-002
24187	6.6194	0.63636	0.1	-2.8332e-002
24188	6.7113	0.54545	0.1	-2.8882e-002
24189	6.6194	0.81818	0.1	-2.2775e-002
24190	6.7113	0.72727	0.1	-2.6635e-002
24191	6.6194	1.	0.1	-1.5787e-002
24192	6.7113	0.90909	0.1	-1.7594e-002
24193	6.6194	1.1818	0.1	-1.1327e-002
24194	6.7113	1.0909	0.1	-1.3054e-002
24195	6.6194	1.3636	0.1	-7.5548e-003
24196	6.7113	1.2727	0.1	-8.9903e-003
24197	6.6194	1.5455	0.1	-4.4977e-003
24198	6.7113	1.4545	0.1	-5.8137e-003
24199	6.6194	1.7273	0.1	-1.9317e-003
24200	6.7113	1.6364	0.1	-3.1373e-003
24201	6.6194	1.9091	0.1	2.0761e-004
24202	6.7113	1.8182	0.1	-9.0765e-004
24203	6.6194	2.0909	0.1	1.9752e-003
24204	6.7113	2.	0.1	9.4948e-004
24205	6.6194	2.2727	0.1	3.3982e-003
24206	6.7113	2.1818	0.1	2.4675e-003
24207	6.6194	2.4545	0.1	4.4929e-003
24208	6.7113	2.3636	0.1	3.6661e-003
24209	6.6194	2.6364	0.1	5.2695e-003
24210	6.7113	2.5455	0.1	4.5567e-003
24211	6.6194	2.8182	0.1	5.7344e-003
24212	6.7113	2.7273	0.1	5.1485e-003
24213	6.6194	3.	0.1	5.8893e-003
24214	6.7113	2.9091	0.1	5.444e-003
24215	6.6194	3.1818	0.1	5.7344e-003
24216	6.7113	3.0909	0.1	5.444e-003
24217	6.6194	3.3636	0.1	5.2697e-003
24218	6.7113	3.2727	0.1	5.1486e-003
24219	6.6194	3.5455	0.1	4.4931e-003
24220	6.7113	3.4545	0.1	4.5569e-003
24221	6.6194	3.7273	0.1	3.3986e-003
24222	6.7113	3.6364	0.1	3.6665e-003
24223	6.6194	3.9091	0.1	1.9756e-003
24224	6.7113	3.8182	0.1	2.4677e-003
24225	6.6194	4.0909	0.1	2.0822e-004
24226	6.7113	4.	0.1	9.4992e-004
24227	6.6194	4.2727	0.1	-1.931e-003
24228	6.7113	4.1818	0.1	-9.071e-004
24229	6.6194	4.4545	0.1	-4.4971e-003
24230	6.7113	4.3636	0.1	-3.1367e-003
24231	6.6194	4.6364	0.1	-7.5543e-003
24232	6.7113	4.5455	0.1	-5.8132e-003
24233	6.6194	4.8182	0.1	-1.1326e-002
24234	6.7113	4.7273	0.1	-8.9896e-003
24235	6.6194	5.	0.1	-1.5786e-002
24236	6.7113	4.9091	0.1	-1.3053e-002
24237	6.6194	5.1818	0.1	-2.2774e-002
24238	6.7113	5.0909	0.1	-1.7592e-002
24239	6.6194	5.3636	0.1	-2.8332e-002
24240	6.7113	5.2727	0.1	-2.6634e-002
24241	6.6194	5.5455	0.1	-6.4741e-002
24242	6.7113	5.4545	0.1	-2.8882e-002
24243	6.6194	5.7273	0.1	-8.9798e-002
24244	6.7113	5.6364	0.1	-9.9143e-002
24245	6.7113	5.8182	0.1	-0.11514
24246	6.6194	5.9091	0.1	-0.12759
24247	6.8032	0.27273	0.1	-8.2453e-002
24248	6.8952	0.18182	0.1	-0.11155
24249	6.8032	9.0909e-002	0.1	-0.12543
24250	6.8032	0.45455	0.1	-5.8898e-002
24251	6.8952	0.36364	0.1	-9.0376e-002
24252	6.8032	0.63636	0.1	-2.5726e-002
24253	6.8952	0.54545	0.1	-2.6141e-002
24254	6.8032	0.81818	0.1	-2.0788e-002
24255	6.8952	0.72727	0.1	-2.426e-002
24256	6.8032	1.	0.1	-1.4491e-002
24257	6.8952	0.90909	0.1	-1.6103e-002
24258	6.8032	1.1818	0.1	-1.0485e-002
24259	6.8952	1.0909	0.1	-1.2036e-002
24260	6.8032	1.3636	0.1	-7.0893e-003
24261	6.8952	1.2727	0.1	-8.3828e-003
24262	6.8032	1.5455	0.1	-4.3352e-003
24263	6.8952	1.4545	0.1	-5.526e-003
24264	6.8032	1.7273	0.1	-2.021e-003
24265	6.8952	1.6364	0.1	-3.1158e-003
24266	6.8032	1.9091	0.1	-9.0231e-005
24267	6.8952	1.8182	0.1	-1.106e-003
24268	6.8032	2.0909	0.1	1.5062e-003
24269	6.8952	2.	0.1	5.691e-004
24270	6.8032	2.2727	0.1	2.7922e-003
24271	6.8952	2.1818	0.1	1.9395e-003
24272	6.8032	2.4545	0.1	3.7817e-003
24273	6.8952	2.3636	0.1	3.022e-003
24274	6.8032	2.6364	0.1	4.4842e-003
24275	6.8952	2.5455	0.1	3.8266e-003
24276	6.8032	2.8182	0.1	4.9047e-003
24277	6.8952	2.7273	0.1	4.3615e-003
24278	6.8032	3.	0.1	5.0448e-003
24279	6.8952	2.9091	0.1	4.6286e-003
24280	6.8032	3.1818	0.1	4.9048e-003
24281	6.8952	3.0909	0.1	4.6288e-003
24282	6.8032	3.3636	0.1	4.4843e-003
24283	6.8952	3.2727	0.1	4.3615e-003
24284	6.8032	3.5455	0.1	3.782e-003
24285	6.8952	3.4545	0.1	3.8268e-003
24286	6.8032	3.7273	0.1	2.7925e-003
24287	6.8952	3.6364	0.1	3.0224e-003
24288	6.8032	3.9091	0.1	1.5064e-003
24289	6.8952	3.8182	0.1	1.9397e-003
24290	6.8032	4.0909	0.1	-8.9855e-005
24291	6.8952	4.	0.1	5.6948e-004
24292	6.8032	4.2727	0.1	-2.0205e-003
24293	6.8952	4.1818	0.1	-1.1056e-003
24294	6.8032	4.4545	0.1	-4.3347e-003
24295	6.8952	4.3636	0.1	-3.1151e-003
24296	6.8032	4.6364	0.1	-7.0887e-003
24297	6.8952	4.5455	0.1	-5.5254e-003
24298	6.8032	4.8182	0.1	-1.0484e-002
24299	6.8952	4.7273	0.1	-8.382e-003
24300	6.8032	5.	0.1	-1.4491e-002
24301	6.8952	4.9091	0.1	-1.2035e-002
24302	6.8032	5.1818	0.1	-2.0787e-002
24303	6.8952	5.0909	0.1	-1.6101e-002
24304	6.8032	5.3636	0.1	-2.5726e-002
24305	6.8952	5.2727	0.1	-2.426e-002
24306	6.8032	5.5455	0.1	-5.8897e-002
24307	6.8952	5.4545	0.1	-2.6141e-002
24308	6.8032	5.7273	0.1	-8.2451e-002
24309	6.8952	5.6364	0.1	-9.0375e-002
24310	6.8952	5.8182	0.1	-0.11155
24311	6.8032	5.9091	0.1	-0.12543
24312	6.9871	0.27273	0.1	-7.5934e-002
24313	7.079	0.18182	0.1	-0.10996
24314	6.9871	9.0909e-002	0.1	-0.12525
24315	6.9871	0.45455	0.1	-5.3545e-002
24316	7.079	0.36364	0.1	-8.2338e-002
24317	6.9871	0.63636	0.1	-2.335e-002
24318	7.079	0.54545	0.1	-2.3644e-002
24319	6.9871	0.81818	0.1	-1.8976e-002
24320	7.079	0.72727	0.1	-2.2093e-002
24321	6.9871	1.	0.1	-1.3316e-002
24322	7.079	0.90909	0.1	-1.4747e-002
24323	6.9871	1.1818	0.1	-9.7263e-003
24324	7.079	1.0909	0.1	-1.1115e-002
24325	6.9871	1.3636	0.1	-6.6767e-003
24326	7.079	1.2727	0.1	-7.8389e-003
24327	6.9871	1.5455	0.1	-4.2012e-003
24328	7.079	1.4545	0.1	-5.2761e-003
24329	6.9871	1.7273	0.1	-2.1185e-003
24330	7.079	1.6364	0.1	-3.1106e-003
24331	6.9871	1.9091	0.1	-3.7934e-004
24332	7.079	1.8182	0.1	-1.303e-003
24333	6.9871	2.0909	0.1	1.0598e-003
24334	7.079	2.	0.1	2.0485e-004
24335	6.9871	2.2727	0.1	2.22e-003
24336	7.079	2.1818	0.1	1.4396e-003
24337	6.9871	2.4545	0.1	3.1131e-003
24338	7.079	2.3636	0.1	2.4155e-003
24339	6.9871	2.6364	0.1	3.7472e-003
24340	7.079	2.5455	0.1	3.1411e-003
24341	6.9871	2.8182	0.1	4.127e-003
24342	7.079	2.7273	0.1	3.6237e-003
24343	6.9871	3.	0.1	4.2536e-003
24344	7.079	2.9091	0.1	3.8648e-003
24345	6.9871	3.1818	0.1	4.1271e-003
24346	7.079	3.0909	0.1	3.8648e-003
24347	6.9871	3.3636	0.1	3.7473e-003
24348	7.079	3.2727	0.1	3.6237e-003
24349	6.9871	3.5455	0.1	3.1133e-003
24350	7.079	3.4545	0.1	3.1412e-003
24351	6.9871	3.7273	0.1	2.2203e-003
24352	7.079	3.6364	0.1	2.4158e-003
24353	6.9871	3.9091	0.1	1.0602e-003
24354	7.079	3.8182	0.1	1.4399e-003
24355	6.9871	4.0909	0.1	-3.7888e-004
24356	7.079	4.	0.1	2.0535e-004
24357	6.9871	4.2727	0.1	-2.1179e-003
24358	7.079	4.1818	0.1	-1.3025e-003
24359	6.9871	4.4545	0.1	-4.2005e-003
24360	7.079	4.3636	0.1	-3.1099e-003
24361	6.9871	4.6364	0.1	-6.676e-003
24362	7.079	4.5455	0.1	-5.2754e-003
24363	6.9871	4.8182	0.1	-9.7256e-003
24364	7.079	4.7273	0.1	-7.8382e-003
24365	6.9871	5.	0.1	-1.3315e-002
24366	7.079	4.9091	0.1	-1.1115e-002
24367	6.9871	5.1818	0.1	-1.8975e-002
24368	7.079	5.0909	0.1	-1.4746e-002
24369	6.9871	5.3636	0.1	-2.335e-002
24370	7.079	5.2727	0.1	-2.2092e-002
24371	6.9871	5.5455	0.1	-5.3544e-002
24372	7.079	5.4545	0.1	-2.3643e-002
24373	6.9871	5.7273	0.1	-7.5932e-002
24374	7.079	5.6364	0.1	-8.2336e-002
24375	7.079	5.8182	0.1	-0.10996
24376	6.9871	5.9091	0.1	-0.12525
24377	7.171	0.27273	0.1	-7.0184e-002
24378	7.2629	0.18182	0.1	-0.11076
24379	7.171	9.0909e-002	0.1	-0.1278
24380	7.171	0.45455	0.1	-4.8637e-002
24381	7.2629	0.36364	0.1	-7.4964e-002
24382	7.171	0.63636	0.1	-2.1182e-002
24383	7.2629	0.54545	0.1	-2.1363e-002
24384	7.171	0.81818	0.1	-1.7325e-002
24385	7.2629	0.72727	0.1	-2.011e-002
24386	7.171	1.	0.1	-1.225e-002
24387	7.2629	0.90909	0.1	-1.3512e-002
24388	7.171	1.1818	0.1	-9.0429e-003
24389	7.2629	1.0909	0.1	-1.0279e-002
24390	7.171	1.3636	0.1	-6.3113e-003
24391	7.2629	1.2727	0.1	-7.3495e-003
24392	7.171	1.5455	0.1	-4.0918e-003
24393	7.2629	1.4545	0.1	-5.0568e-003
24394	7.171	1.7273	0.1	-2.222e-003
24395	7.2629	1.6364	0.1	-3.1161e-003
24396	7.171	1.9091	0.1	-6.5898e-004
24397	7.2629	1.8182	0.1	-1.4944e-003
24398	7.171	2.0909	0.1	6.3567e-004
24399	7.2629	2.	0.1	-1.4015e-004
24400	7.171	2.2727	0.1	1.6802e-003
24401	7.2629	2.1818	0.1	9.6992e-004
24402	7.171	2.4545	0.1	2.4846e-003
24403	7.2629	2.3636	0.1	1.8479e-003
24404	7.171	2.6364	0.1	3.056e-003
24405	7.2629	2.5455	0.1	2.501e-003
24406	7.171	2.8182	0.1	3.3984e-003
24407	7.2629	2.7273	0.1	2.9354e-003
24408	7.171	3.	0.1	3.5125e-003
24409	7.2629	2.9091	0.1	3.1526e-003
24410	7.171	3.1818	0.1	3.3984e-003
24411	7.2629	3.0909	0.1	3.1527e-003
24412	7.171	3.3636	0.1	3.056e-003
24413	7.2629	3.2727	0.1	2.9354e-003
24414	7.171	3.5455	0.1	2.4847e-003
24415	7.2629	3.4545	0.1	2.501e-003
24416	7.171	3.7273	0.1	1.6805e-003
24417	7.2629	3.6364	0.1	1.8483e-003
24418	7.171	3.9091	0.1	6.3611e-004
24419	7.2629	3.8182	0.1	9.7027e-004
24420	7.171	4.0909	0.1	-6.5845e-004
24421	7.2629	4.	0.1	-1.396e-004
24422	7.171	4.2727	0.1	-2.2214e-003
24423	7.2629	4.1818	0.1	-1.4938e-003
24424	7.171	4.4545	0.1	-4.0912e-003
24425	7.2629	4.3636	0.1	-3.1154e-003
24426	7.171	4.6364	0.1	-6.3107e-003
24427	7.2629	4.5455	0.1	-5.0562e-003
24428	7.171	4.8182	0.1	-9.0423e-003
24429	7.2629	4.7273	0.1	-7.3487e-003
24430	7.171	5.	0.1	-1.2249e-002
24431	7.2629	4.9091	0.1	-1.0279e-002
24432	7.171	5.1818	0.1	-1.7324e-002
24433	7.2629	5.0909	0.1	-1.3511e-002
24434	7.171	5.3636	0.1	-2.1182e-002
24435	7.2629	5.2727	0.1	-2.0109e-002
24436	7.171	5.5455	0.1	-4.8636e-002
24437	7.2629	5.4545	0.1	-2.1363e-002
24438	7.171	5.7273	0.1	-7.0183e-002
24439	7.2629	5.6364	0.1	-7.4963e-002
24440	7.2629	5.8182	0.1	-0.11075
24441	7.171	5.9091	0.1	-0.12779
24442	7.3548	0.27273	0.1	-6.5158e-002
24443	7.4468	0.18182	0.1	-0.11471
24444	7.3548	9.0909e-002	0.1	-0.1345
24445	7.3548	0.45455	0.1	-4.4131e-002
24446	7.4468	0.36364	0.1	-6.8195e-002
24447	7.3548	0.63636	0.1	-1.9197e-002
24448	7.4468	0.54545	0.1	-1.9275e-002
24449	7.3548	0.81818	0.1	-1.5813e-002
24450	7.4468	0.72727	0.1	-1.8292e-002
24451	7.3548	1.	0.1	-1.1277e-002
24452	7.4468	0.90909	0.1	-1.2383e-002
24453	7.3548	1.1818	0.1	-8.4215e-003
24454	7.4468	1.0909	0.1	-9.5168e-003
24455	7.3548	1.3636	0.1	-5.9824e-003
24456	7.4468	1.2727	0.1	-6.9059e-003
24457	7.3548	1.5455	0.1	-3.9981e-003
24458	7.4468	1.4545	0.1	-4.8615e-003
24459	7.3548	1.7273	0.1	-2.3238e-003
24460	7.4468	1.6364	0.1	-3.1273e-003
24461	7.3548	1.9091	0.1	-9.2261e-004
24462	7.4468	1.8182	0.1	-1.6764e-003
24463	7.3548	2.0909	0.1	2.3926e-004
24464	7.4468	2.	0.1	-4.6309e-004
24465	7.3548	2.2727	0.1	1.1775e-003
24466	7.4468	2.1818	0.1	5.3242e-004
24467	7.3548	2.4545	0.1	1.9006e-003
24468	7.4468	2.3636	0.1	1.3204e-003
24469	7.3548	2.6364	0.1	2.4144e-003
24470	7.4468	2.5455	0.1	1.9067e-003
24471	7.3548	2.8182	0.1	2.7224e-003
24472	7.4468	2.7273	0.1	2.2972e-003
24473	7.3548	3.	0.1	2.8252e-003
24474	7.4468	2.9091	0.1	2.4923e-003
24475	7.3548	3.1818	0.1	2.7225e-003
24476	7.4468	3.0909	0.1	2.4925e-003
24477	7.3548	3.3636	0.1	2.4145e-003
24478	7.4468	3.2727	0.1	2.2972e-003
24479	7.3548	3.5455	0.1	1.9009e-003
24480	7.4468	3.4545	0.1	1.907e-003
24481	7.3548	3.7273	0.1	1.178e-003
24482	7.4468	3.6364	0.1	1.3209e-003
24483	7.3548	3.9091	0.1	2.3973e-004
24484	7.4468	3.8182	0.1	5.328e-004
24485	7.3548	4.0909	0.1	-9.22e-004
24486	7.4468	4.	0.1	-4.6259e-004
24487	7.3548	4.2727	0.1	-2.3231e-003
24488	7.4468	4.1818	0.1	-1.6757e-003
24489	7.3548	4.4545	0.1	-3.9975e-003
24490	7.4468	4.3636	0.1	-3.1267e-003
24491	7.3548	4.6364	0.1	-5.9816e-003
24492	7.4468	4.5455	0.1	-4.8609e-003
24493	7.3548	4.8182	0.1	-8.4206e-003
24494	7.4468	4.7273	0.1	-6.905e-003
24495	7.3548	5.	0.1	-1.1276e-002
24496	7.4468	4.9091	0.1	-9.5162e-003
24497	7.3548	5.1818	0.1	-1.5812e-002
24498	7.4468	5.0909	0.1	-1.2381e-002
24499	7.3548	5.3636	0.1	-1.9197e-002
24500	7.4468	5.2727	0.1	-1.8291e-002
24501	7.3548	5.5455	0.1	-4.413e-002
24502	7.4468	5.4545	0.1	-1.9275e-002
24503	7.3548	5.7273	0.1	-6.5156e-002
24504	7.4468	5.6364	0.1	-6.8193e-002
24505	7.4468	5.8182	0.1	-0.11471
24506	7.3548	5.9091	0.1	-0.1345
24507	7.5387	0.27273	0.1	-6.0837e-002
24508	7.6306	0.18182	0.1	-0.12341
24509	7.5387	9.0909e-002	0.1	-0.1484
24510	7.5387	0.45455	0.1	-3.9989e-002
24511	7.6306	0.36364	0.1	-6.1984e-002
24512	7.5387	0.63636	0.1	-1.7378e-002
24513	7.6306	0.54545	0.1	-1.7367e-002
24514	7.5387	0.81818	0.1	-1.4429e-002
24515	7.6306	0.72727	0.1	-1.6628e-002
24516	7.5387	1.	0.1	-1.0388e-002
24517	7.6306	0.90909	0.1	-1.1354e-002
24518	7.5387	1.1818	0.1	-7.8558e-003
24519	7.6306	1.0909	0.1	-8.8251e-003
24520	7.5387	1.3636	0.1	-5.6856e-003
24521	7.6306	1.2727	0.1	-6.5072e-003
24522	7.5387	1.5455	0.1	-3.9176e-003
24523	7.6306	1.4545	0.1	-4.691e-003
24524	7.5387	1.7273	0.1	-2.4229e-003
24525	7.6306	1.6364	0.1	-3.1465e-003
24526	7.5387	1.9091	0.1	-1.1702e-003
24527	7.6306	1.8182	0.1	-1.8524e-003
24528	7.5387	2.0909	0.1	-1.3013e-004
24529	7.6306	2.	0.1	-7.6869e-004
24530	7.5387	2.2727	0.1	7.1048e-004
24531	7.6306	2.1818	0.1	1.2177e-004
24532	7.5387	2.4545	0.1	1.3586e-003
24533	7.6306	2.3636	0.1	8.2711e-004
24534	7.5387	2.6364	0.1	1.8195e-003
24535	7.6306	2.5455	0.1	1.3522e-003
24536	7.5387	2.8182	0.1	2.096e-003
24537	7.6306	2.7273	0.1	1.7022e-003
24538	7.5387	3.	0.1	2.1882e-003
24539	7.6306	2.9091	0.1	1.8771e-003
24540	7.5387	3.1818	0.1	2.0961e-003
24541	7.6306	3.0909	0.1	1.8772e-003
24542	7.5387	3.3636	0.1	1.8197e-003
24543	7.6306	3.2727	0.1	1.7022e-003
24544	7.5387	3.5455	0.1	1.359e-003
24545	7.6306	3.4545	0.1	1.3524e-003
24546	7.5387	3.7273	0.1	7.1086e-004
24547	7.6306	3.6364	0.1	8.274e-004
24548	7.5387	3.9091	0.1	-1.2972e-004
24549	7.6306	3.8182	0.1	1.2215e-004
24550	7.5387	4.0909	0.1	-1.1697e-003
24551	7.6306	4.	0.1	-7.6817e-004
24552	7.5387	4.2727	0.1	-2.4223e-003
24553	7.6306	4.1818	0.1	-1.8519e-003
24554	7.5387	4.4545	0.1	-3.917e-003
24555	7.6306	4.3636	0.1	-3.146e-003
24556	7.5387	4.6364	0.1	-5.685e-003
24557	7.6306	4.5455	0.1	-4.6904e-003
24558	7.5387	4.8182	0.1	-7.8552e-003
24559	7.6306	4.7273	0.1	-6.5065e-003
24560	7.5387	5.	0.1	-1.0387e-002
24561	7.6306	4.9091	0.1	-8.8245e-003
24562	7.5387	5.1818	0.1	-1.4427e-002
24563	7.6306	5.0909	0.1	-1.1352e-002
24564	7.5387	5.3636	0.1	-1.7377e-002
24565	7.6306	5.2727	0.1	-1.6627e-002
24566	7.5387	5.5455	0.1	-3.9988e-002
24567	7.6306	5.4545	0.1	-1.7367e-002
24568	7.5387	5.7273	0.1	-6.0836e-002
24569	7.6306	5.6364	0.1	-6.1982e-002
24570	7.6306	5.8182	0.1	-0.12341
24571	7.5387	5.9091	0.1	-0.14839
24572	7.7226	0.27273	0.1	-5.7244e-002
24573	7.8145	0.18182	0.1	-0.14031
24574	7.7226	9.0909e-002	0.1	-0.17687
24575	7.7226	0.45455	0.1	-3.6188e-002
24576	7.8145	0.36364	0.1	-5.6288e-002
24577	7.7226	0.63636	0.1	-1.5718e-002
24578	7.8145	0.54545	0.1	-1.5624e-002
24579	7.7226	0.81818	0.1	-1.3168e-002
24580	7.8145	0.72727	0.1	-1.511e-002
24581	7.7226	1.	0.1	-9.5835e-003
24582	7.8145	0.90909	0.1	-1.042e-002
24583	7.7226	1.1818	0.1	-7.3486e-003
24584	7.8145	1.0909	0.1	-8.2017e-003
24585	7.7226	1.3636	0.1	-5.4254e-003
24586	7.8145	1.2727	0.1	-6.1531e-003
24587	7.7226	1.5455	0.1	-3.8559e-003
24588	7.8145	1.4545	0.1	-4.5465e-003
24589	7.7226	1.7273	0.1	-2.5262e-003
24590	7.8145	1.6364	0.1	-3.1763e-003
24591	7.7226	1.9091	0.1	-1.4101e-003
24592	7.8145	1.8182	0.1	-2.0262e-003
24593	7.7226	2.0909	0.1	-4.8191e-004
24594	7.8145	2.	0.1	-1.0613e-003
24595	7.7226	2.2727	0.1	2.6924e-004
24596	7.8145	2.1818	0.1	-2.6739e-004
24597	7.7226	2.4545	0.1	8.4884e-004
24598	7.8145	2.3636	0.1	3.6237e-004
24599	7.7226	2.6364	0.1	1.2613e-003
24600	7.8145	2.5455	0.1	8.3104e-004
24601	7.7226	2.8182	0.1	1.5088e-003
24602	7.8145	2.7273	0.1	1.144e-003
24603	7.7226	3.	0.1	1.5913e-003
24604	7.8145	2.9091	0.1	1.3007e-003
24605	7.7226	3.1818	0.1	1.5088e-003
24606	7.8145	3.0909	0.1	1.3004e-003
24607	7.7226	3.3636	0.1	1.2614e-003
24608	7.8145	3.2727	0.1	1.144e-003
24609	7.7226	3.5455	0.1	8.4901e-004
24610	7.8145	3.4545	0.1	8.3128e-004
24611	7.7226	3.7273	0.1	2.6953e-004
24612	7.8145	3.6364	0.1	3.6257e-004
24613	7.7226	3.9091	0.1	-4.8141e-004
24614	7.8145	3.8182	0.1	-2.6707e-004
24615	7.7226	4.0909	0.1	-1.4095e-003
24616	7.8145	4.	0.1	-1.0608e-003
24617	7.7226	4.2727	0.1	-2.5257e-003
24618	7.8145	4.1818	0.1	-2.0257e-003
24619	7.7226	4.4545	0.1	-3.8554e-003
24620	7.8145	4.3636	0.1	-3.1757e-003
24621	7.7226	4.6364	0.1	-5.4247e-003
24622	7.8145	4.5455	0.1	-4.5459e-003
24623	7.7226	4.8182	0.1	-7.3479e-003
24624	7.8145	4.7273	0.1	-6.1525e-003
24625	7.7226	5.	0.1	-9.5823e-003
24626	7.8145	4.9091	0.1	-8.201e-003
24627	7.7226	5.1818	0.1	-1.3166e-002
24628	7.8145	5.0909	0.1	-1.0419e-002
24629	7.7226	5.3636	0.1	-1.5717e-002
24630	7.8145	5.2727	0.1	-1.5109e-002
24631	7.7226	5.5455	0.1	-3.6188e-002
24632	7.8145	5.4545	0.1	-1.5624e-002
24633	7.7226	5.7273	0.1	-5.7243e-002
24634	7.8145	5.6364	0.1	-5.6286e-002
24635	7.8145	5.8182	0.1	-0.14031
24636	7.7226	5.9091	0.1	-0.17687
24637	7.9065	0.27273	0.1	-5.4441e-002
24638	7.9984	0.18182	0.1	-0.17417
24639	7.9065	9.0909e-002	0.1	-0.24143
24640	7.9065	0.45455	0.1	-3.2699e-002
24641	7.9984	0.36364	0.1	-5.1064e-002
24642	7.9065	0.63636	0.1	-1.4203e-002
24643	7.9984	0.54545	0.1	-1.403e-002
24644	7.9065	0.81818	0.1	-1.202e-002
24645	7.9984	0.72727	0.1	-1.3722e-002
24646	7.9065	1.	0.1	-8.856e-003
24647	7.9984	0.90909	0.1	-9.5711e-003
24648	7.9065	1.1818	0.1	-6.8944e-003
24649	7.9984	1.0909	0.1	-7.638e-003
24650	7.9065	1.3636	0.1	-5.1983e-003
24651	7.9984	1.2727	0.1	-5.837e-003
24652	7.9065	1.5455	0.1	-3.8112e-003
24653	7.9984	1.4545	0.1	-4.4229e-003
24654	7.9065	1.7273	0.1	-2.6329e-003
24655	7.9984	1.6364	0.1	-3.2127e-003
24656	7.9065	1.9091	0.1	-1.6419e-003
24657	7.9984	1.8182	0.1	-2.1946e-003
24658	7.9065	2.0909	0.1	-8.1642e-004
24659	7.9984	2.	0.1	-1.3387e-003
24660	7.9065	2.2727	0.1	-1.4738e-004
24661	7.9984	2.1818	0.1	-6.3334e-004
24662	7.9065	2.4545	0.1	3.6912e-004
24663	7.9984	2.3636	0.1	-7.2982e-005
24664	7.9065	2.6364	0.1	7.3678e-004
24665	7.9984	2.5455	0.1	3.4425e-004
24666	7.9065	2.8182	0.1	9.5806e-004
24667	7.9984	2.7273	0.1	6.2294e-004
24668	7.9065	3.	0.1	1.0318e-003
24669	7.9984	2.9091	0.1	7.6283e-004
24670	7.9065	3.1818	0.1	9.5794e-004
24671	7.9984	3.0909	0.1	7.6256e-004
24672	7.9065	3.3636	0.1	7.3701e-004
24673	7.9984	3.2727	0.1	6.2312e-004
24674	7.9065	3.5455	0.1	3.6938e-004
24675	7.9984	3.4545	0.1	3.4446e-004
24676	7.9065	3.7273	0.1	-1.4715e-004
24677	7.9984	3.6364	0.1	-7.257e-005
24678	7.9065	3.9091	0.1	-8.161e-004
24679	7.9984	3.8182	0.1	-6.3299e-004
24680	7.9065	4.0909	0.1	-1.6414e-003
24681	7.9984	4.	0.1	-1.3383e-003
24682	7.9065	4.2727	0.1	-2.6323e-003
24683	7.9984	4.1818	0.1	-2.1941e-003
24684	7.9065	4.4545	0.1	-3.8105e-003
24685	7.9984	4.3636	0.1	-3.2119e-003
24686	7.9065	4.6364	0.1	-5.1977e-003
24687	7.9984	4.5455	0.1	-4.4221e-003
24688	7.9065	4.8182	0.1	-6.8938e-003
24689	7.9984	4.7273	0.1	-5.8364e-003
24690	7.9065	5.	0.1	-8.8551e-003
24691	7.9984	4.9091	0.1	-7.6373e-003
24692	7.9065	5.1818	0.1	-1.2019e-002
24693	7.9984	5.0909	0.1	-9.5697e-003
24694	7.9065	5.3636	0.1	-1.4202e-002
24695	7.9984	5.2727	0.1	-1.3721e-002
24696	7.9065	5.5455	0.1	-3.2698e-002
24697	7.9984	5.4545	0.1	-1.403e-002
24698	7.9065	5.7273	0.1	-5.4439e-002
24699	7.9984	5.6364	0.1	-5.1062e-002
24700	7.9984	5.8182	0.1	-0.17417
24701	7.9065	5.9091	0.1	-0.24142
24702	8.0903	0.27273	0.1	-5.2569e-002
24703	8.1823	0.18182	0.1	-0.25285
24704	8.0903	9.0909e-002	0.1	-0.40994
24705	8.0903	0.45455	0.1	-2.9488e-002
24706	8.1823	0.36364	0.1	-4.6273e-002
24707	8.0903	0.63636	0.1	-1.2815e-002
24708	8.1823	0.54545	0.1	-1.2569e-002
24709	8.0903	0.81818	0.1	-1.0971e-002
24710	8.1823	0.72727	0.1	-1.2451e-002
24711	8.0903	1.	0.1	-8.1942e-003
24712	8.1823	0.90909	0.1	-8.797e-003
24713	8.0903	1.1818	0.1	-6.4837e-003
24714	8.1823	1.0909	0.1	-7.1262e-003
24715	8.0903	1.3636	0.1	-4.996e-003
24716	8.1823	1.2727	0.1	-5.5526e-003
24717	8.0903	1.5455	0.1	-3.7763e-003
24718	8.1823	1.4545	0.1	-4.3149e-003
24719	8.0903	1.7273	0.1	-2.737e-003
24720	8.1823	1.6364	0.1	-3.2515e-003
24721	8.0903	1.9091	0.1	-1.8607e-003
24722	8.1823	1.8182	0.1	-2.3543e-003
24723	8.0903	2.0909	0.1	-1.1293e-003
24724	8.1823	2.	0.1	-1.5984e-003
24725	8.0903	2.2727	0.1	-5.357e-004
24726	8.1823	2.1818	0.1	-9.7422e-004
24727	8.0903	2.4545	0.1	-7.6593e-005
24728	8.1823	2.3636	0.1	-4.7746e-004
24729	8.0903	2.6364	0.1	2.504e-004
24730	8.1823	2.5455	0.1	-1.0731e-004
24731	8.0903	2.8182	0.1	4.4697e-004
24732	8.1823	2.7273	0.1	1.4014e-004
24733	8.0903	3.	0.1	5.1263e-004
24734	8.1823	2.9091	0.1	2.642e-004
24735	8.0903	3.1818	0.1	4.47e-004
24736	8.1823	3.0909	0.1	2.6429e-004
24737	8.0903	3.3636	0.1	2.5054e-004
24738	8.1823	3.2727	0.1	1.4023e-004
24739	8.0903	3.5455	0.1	-7.6238e-005
24740	8.1823	3.4545	0.1	-1.0725e-004
24741	8.0903	3.7273	0.1	-5.3516e-004
24742	8.1823	3.6364	0.1	-4.7713e-004
24743	8.0903	3.9091	0.1	-1.129e-003
24744	8.1823	3.8182	0.1	-9.738e-004
24745	8.0903	4.0909	0.1	-1.8603e-003
24746	8.1823	4.	0.1	-1.5981e-003
24747	8.0903	4.2727	0.1	-2.7363e-003
24748	8.1823	4.1818	0.1	-2.3537e-003
24749	8.0903	4.4545	0.1	-3.7755e-003
24750	8.1823	4.3636	0.1	-3.2508e-003
24751	8.0903	4.6364	0.1	-4.9952e-003
24752	8.1823	4.5455	0.1	-4.3141e-003
24753	8.0903	4.8182	0.1	-6.483e-003
24754	8.1823	4.7273	0.1	-5.5519e-003
24755	8.0903	5.	0.1	-8.1931e-003
24756	8.1823	4.9091	0.1	-7.1254e-003
24757	8.0903	5.1818	0.1	-1.097e-002
24758	8.1823	5.0909	0.1	-8.7957e-003
24759	8.0903	5.3636	0.1	-1.2814e-002
24760	8.1823	5.2727	0.1	-1.245e-002
24761	8.0903	5.5455	0.1	-2.9488e-002
24762	8.1823	5.4545	0.1	-1.2568e-002
24763	8.0903	5.7273	0.1	-5.2567e-002
24764	8.1823	5.6364	0.1	-4.6271e-002
24765	8.1823	5.8182	0.1	-0.25283
24766	8.0903	5.9091	0.1	-0.40992
24767	8.2742	0.27273	0.1	-5.1944e-002
24768	8.3661	0.18182	0.1	-0.48486
24769	8.2742	9.0909e-002	0.1	-0.78255
24770	8.2742	0.45455	0.1	-2.6532e-002
24771	8.3661	0.36364	0.1	-4.1888e-002
24772	8.2742	0.63636	0.1	-1.1543e-002
24773	8.3661	0.54545	0.1	-1.1231e-002
24774	8.2742	0.81818	0.1	-1.0012e-002
24775	8.3661	0.72727	0.1	-1.1292e-002
24776	8.2742	1.	0.1	-7.5919e-003
24777	8.3661	0.90909	0.1	-8.0964e-003
24778	8.2742	1.1818	0.1	-6.1121e-003
24779	8.3661	1.0909	0.1	-6.6664e-003
24780	8.2742	1.3636	0.1	-4.8156e-003
24781	8.3661	1.2727	0.1	-5.3014e-003
24782	8.2742	1.5455	0.1	-3.7491e-003
24783	8.3661	1.4545	0.1	-4.2254e-003
24784	8.2742	1.7273	0.1	-2.8369e-003
24785	8.3661	1.6364	0.1	-3.2961e-003
24786	8.2742	1.9091	0.1	-2.0659e-003
24787	8.3661	1.8182	0.1	-2.5098e-003
24788	8.2742	2.0909	0.1	-1.4209e-003
24789	8.3661	2.	0.1	-1.8456e-003
24790	8.2742	2.2727	0.1	-8.9606e-004
24791	8.3661	2.1818	0.1	-1.2954e-003
24792	8.2742	2.4545	0.1	-4.8993e-004
24793	8.3661	2.3636	0.1	-8.5703e-004
24794	8.2742	2.6364	0.1	-2.0039e-004
24795	8.3661	2.5455	0.1	-5.302e-004
24796	8.2742	2.8182	0.1	-2.6054e-005
24797	8.3661	2.7273	0.1	-3.1112e-004
24798	8.2742	3.	0.1	3.2248e-005
24799	8.3661	2.9091	0.1	-2.014e-004
24800	8.2742	3.1818	0.1	-2.5906e-005
24801	8.3661	3.0909	0.1	-2.0119e-004
24802	8.2742	3.3636	0.1	-2.0039e-004
24803	8.3661	3.2727	0.1	-3.1124e-004
24804	8.2742	3.5455	0.1	-4.8991e-004
24805	8.3661	3.4545	0.1	-5.3008e-004
24806	8.2742	3.7273	0.1	-8.9586e-004
24807	8.3661	3.6364	0.1	-8.5682e-004
24808	8.2742	3.9091	0.1	-1.4205e-003
24809	8.3661	3.8182	0.1	-1.2951e-003
24810	8.2742	4.0909	0.1	-2.0654e-003
24811	8.3661	4.	0.1	-1.8452e-003
24812	8.2742	4.2727	0.1	-2.8364e-003
24813	8.3661	4.1818	0.1	-2.5095e-003
24814	8.2742	4.4545	0.1	-3.7485e-003
24815	8.3661	4.3636	0.1	-3.2957e-003
24816	8.2742	4.6364	0.1	-4.8148e-003
24817	8.3661	4.5455	0.1	-4.2247e-003
24818	8.2742	4.8182	0.1	-6.1113e-003
24819	8.3661	4.7273	0.1	-5.3006e-003
24820	8.2742	5.	0.1	-7.5907e-003
24821	8.3661	4.9091	0.1	-6.6656e-003
24822	8.2742	5.1818	0.1	-1.0011e-002
24823	8.3661	5.0909	0.1	-8.095e-003
24824	8.2742	5.3636	0.1	-1.1542e-002
24825	8.3661	5.2727	0.1	-1.1291e-002
24826	8.2742	5.5455	0.1	-2.6531e-002
24827	8.3661	5.4545	0.1	-1.1231e-002
24828	8.2742	5.7273	0.1	-5.1943e-002
24829	8.3661	5.6364	0.1	-4.1887e-002
24830	8.3661	5.8182	0.1	-0.48483
24831	8.2742	5.9091	0.1	-0.78252
24832	8.4581	0.27273	0.1	-5.3292e-002
24833	8.55	0.18182	0.1	-1.0807
24834	8.4581	9.0909e-002	0.1	-1.2908
24835	8.4581	0.45455	0.1	-2.3816e-002
24836	8.55	0.36364	0.1	-3.7888e-002
24837	8.4581	0.63636	0.1	-1.0387e-002
24838	8.55	0.54545	0.1	-1.001e-002
24839	8.4581	0.81818	0.1	-9.1464e-003
24840	8.55	0.72727	0.1	-1.0238e-002
24841	8.4581	1.	0.1	-7.054e-003
24842	8.55	0.90909	0.1	-7.4664e-003
24843	8.4581	1.1818	0.1	-5.7856e-003
24844	8.55	1.0909	0.1	-6.2569e-003
24845	8.4581	1.3636	0.1	-4.6641e-003
24846	8.55	1.2727	0.1	-5.0829e-003
24847	8.4581	1.5455	0.1	-3.7379e-003
24848	8.55	1.4545	0.1	-4.1548e-003
24849	8.4581	1.7273	0.1	-2.9422e-003
24850	8.55	1.6364	0.1	-3.3484e-003
24851	8.4581	1.9091	0.1	-2.2675e-003
24852	8.55	1.8182	0.1	-2.6635e-003
24853	8.4581	2.0909	0.1	-1.7012e-003
24854	8.55	2.	0.1	-2.0828e-003
24855	8.4581	2.2727	0.1	-1.2395e-003
24856	8.55	2.1818	0.1	-1.6004e-003
24857	8.4581	2.4545	0.1	-8.8181e-004
24858	8.55	2.3636	0.1	-1.2155e-003
24859	8.4581	2.6364	0.1	-6.2632e-004
24860	8.55	2.5455	0.1	-9.2778e-004
24861	8.4581	2.8182	0.1	-4.7235e-004
24862	8.55	2.7273	0.1	-7.3501e-004
24863	8.4581	3.	0.1	-4.2088e-004
24864	8.55	2.9091	0.1	-6.3814e-004
24865	8.4581	3.1818	0.1	-4.7241e-004
24866	8.55	3.0909	0.1	-6.3805e-004
24867	8.4581	3.3636	0.1	-6.2632e-004
24868	8.55	3.2727	0.1	-7.3501e-004
24869	8.4581	3.5455	0.1	-8.8151e-004
24870	8.55	3.4545	0.1	-9.2776e-004
24871	8.4581	3.7273	0.1	-1.2392e-003
24872	8.55	3.6364	0.1	-1.2151e-003
24873	8.4581	3.9091	0.1	-1.7008e-003
24874	8.55	3.8182	0.1	-1.6e-003
24875	8.4581	4.0909	0.1	-2.2672e-003
24876	8.55	4.	0.1	-2.0824e-003
24877	8.4581	4.2727	0.1	-2.942e-003
24878	8.55	4.1818	0.1	-2.6631e-003
24879	8.4581	4.4545	0.1	-3.7375e-003
24880	8.55	4.3636	0.1	-3.3478e-003
24881	8.4581	4.6364	0.1	-4.6634e-003
24882	8.55	4.5455	0.1	-4.1542e-003
24883	8.4581	4.8182	0.1	-5.7848e-003
24884	8.55	4.7273	0.1	-5.0823e-003
24885	8.4581	5.	0.1	-7.0529e-003
24886	8.55	4.9091	0.1	-6.2563e-003
24887	8.4581	5.1818	0.1	-9.145e-003
24888	8.55	5.0909	0.1	-7.4647e-003
24889	8.4581	5.3636	0.1	-1.0386e-002
24890	8.55	5.2727	0.1	-1.0237e-002
24891	8.4581	5.5455	0.1	-2.3815e-002
24892	8.55	5.4545	0.1	-1.001e-002
24893	8.4581	5.7273	0.1	-5.329e-002
24894	8.55	5.6364	0.1	-3.7887e-002
24895	8.55	5.8182	0.1	-1.0807
24896	8.4581	5.9091	0.1	-1.2908
24897	8.6419	0.27273	0.1	-5.8458e-002
24898	8.7339	0.18182	0.1	-1.9055
24899	8.6419	9.0909e-002	0.1	-1.8264
24900	8.6419	0.45455	0.1	-2.1316e-002
24901	8.7339	0.36364	0.1	-3.4256e-002
24902	8.6419	0.63636	0.1	-9.3329e-003
24903	8.7339	0.54545	0.1	-8.8943e-003
24904	8.6419	0.81818	0.1	-8.3617e-003
24905	8.7339	0.72727	0.1	-9.2809e-003
24906	8.6419	1.	0.1	-6.5712e-003
24907	8.7339	0.90909	0.1	-6.8999e-003
24908	8.6419	1.1818	0.1	-5.4961e-003
24909	8.7339	1.0909	0.1	-5.8928e-003
24910	8.6419	1.3636	0.1	-4.5347e-003
24911	8.7339	1.2727	0.1	-4.8932e-003
24912	8.6419	1.5455	0.1	-3.7369e-003
24913	8.7339	1.4545	0.1	-4.1001e-003
24914	8.6419	1.7273	0.1	-3.0475e-003
24915	8.7339	1.6364	0.1	-3.4055e-003
24916	8.6419	1.9091	0.1	-2.4605e-003
24917	8.7339	1.8182	0.1	-2.8129e-003
24918	8.6419	2.0909	0.1	-1.9662e-003
24919	8.7339	2.	0.1	-2.3083e-003
24920	8.6419	2.2727	0.1	-1.5622e-003
24921	8.7339	2.1818	0.1	-1.8879e-003
24922	8.6419	2.4545	0.1	-1.2485e-003
24923	8.7339	2.3636	0.1	-1.5516e-003
24924	8.6419	2.6364	0.1	-1.0242e-003
24925	8.7339	2.5455	0.1	-1.2999e-003
24926	8.6419	2.8182	0.1	-8.8892e-004
24927	8.7339	2.7273	0.1	-1.1311e-003
24928	8.6419	3.	0.1	-8.4356e-004
24929	8.7339	2.9091	0.1	-1.0459e-003
24930	8.6419	3.1818	0.1	-8.8877e-004
24931	8.7339	3.0909	0.1	-1.0459e-003
24932	8.6419	3.3636	0.1	-1.0242e-003
24933	8.7339	3.2727	0.1	-1.1309e-003
24934	8.6419	3.5455	0.1	-1.2484e-003
24935	8.7339	3.4545	0.1	-1.2999e-003
24936	8.6419	3.7273	0.1	-1.5619e-003
24937	8.7339	3.6364	0.1	-1.5512e-003
24938	8.6419	3.9091	0.1	-1.9658e-003
24939	8.7339	3.8182	0.1	-1.8876e-003
24940	8.6419	4.0909	0.1	-2.46e-003
24941	8.7339	4.	0.1	-2.3079e-003
24942	8.6419	4.2727	0.1	-3.0468e-003
24943	8.7339	4.1818	0.1	-2.8125e-003
24944	8.6419	4.4545	0.1	-3.7362e-003
24945	8.7339	4.3636	0.1	-3.4048e-003
24946	8.6419	4.6364	0.1	-4.5343e-003
24947	8.7339	4.5455	0.1	-4.0993e-003
24948	8.6419	4.8182	0.1	-5.4956e-003
24949	8.7339	4.7273	0.1	-4.8927e-003
24950	8.6419	5.	0.1	-6.57e-003
24951	8.7339	4.9091	0.1	-5.8921e-003
24952	8.6419	5.1818	0.1	-8.3604e-003
24953	8.7339	5.0909	0.1	-6.8984e-003
24954	8.6419	5.3636	0.1	-9.3324e-003
24955	8.7339	5.2727	0.1	-9.2799e-003
24956	8.6419	5.5455	0.1	-2.1315e-002
24957	8.7339	5.4545	0.1	-8.894e-003
24958	8.6419	5.7273	0.1	-5.8456e-002
24959	8.7339	5.6364	0.1	-3.4255e-002
24960	8.7339	5.8182	0.1	-1.9055
24961	8.6419	5.9091	0.1	-1.8263
24962	8.8258	0.27273	0.1	-7.3797e-002
24963	8.9177	0.18182	0.1	-2.7592
24964	8.8258	9.0909e-002	0.1	-2.3519
24965	8.8258	0.45455	0.1	-1.9012e-002
24966	8.9177	0.36364	0.1	-3.1001e-002
24967	8.8258	0.63636	0.1	-8.376e-003
24968	8.9177	0.54545	0.1	-7.8788e-003
24969	8.8258	0.81818	0.1	-7.6545e-003
24970	8.9177	0.72727	0.1	-8.4186e-003
24971	8.8258	1.	0.1	-6.1413e-003
24972	8.9177	0.90909	0.1	-6.3977e-003
24973	8.8258	1.1818	0.1	-5.2429e-003
24974	8.9177	1.0909	0.1	-5.575e-003
24975	8.8258	1.3636	0.1	-4.4274e-003
24976	8.9177	1.2727	0.1	-4.7342e-003
24977	8.8258	1.5455	0.1	-3.746e-003
24978	8.9177	1.4545	0.1	-4.0634e-003
24979	8.8258	1.7273	0.1	-3.1531e-003
24980	8.9177	1.6364	0.1	-3.4705e-003
24981	8.8258	1.9091	0.1	-2.6459e-003
24982	8.9177	1.8182	0.1	-2.9616e-003
24983	8.8258	2.0909	0.1	-2.2172e-003
24984	8.9177	2.	0.1	-2.5263e-003
24985	8.8258	2.2727	0.1	-1.8657e-003
24986	8.9177	2.1818	0.1	-2.1621e-003
24987	8.8258	2.4545	0.1	-1.5923e-003
24988	8.9177	2.3636	0.1	-1.87e-003
24989	8.8258	2.6364	0.1	-1.3966e-003
24990	8.9177	2.5455	0.1	-1.6511e-003
24991	8.8258	2.8182	0.1	-1.2782e-003
24992	8.9177	2.7273	0.1	-1.5038e-003
24993	8.8258	3.	0.1	-1.2385e-003
24994	8.9177	2.9091	0.1	-1.4296e-003
24995	8.8258	3.1818	0.1	-1.2782e-003
24996	8.9177	3.0909	0.1	-1.4296e-003
24997	8.8258	3.3636	0.1	-1.3964e-003
24998	8.9177	3.2727	0.1	-1.5038e-003
24999	8.8258	3.5455	0.1	-1.5921e-003
25000	8.9177	3.4545	0.1	-1.6509e-003
25001	8.8258	3.7273	0.1	-1.8654e-003
25002	8.9177	3.6364	0.1	-1.8697e-003
25003	8.8258	3.9091	0.1	-2.2168e-003
25004	8.9177	3.8182	0.1	-2.1618e-003
25005	8.8258	4.0909	0.1	-2.6456e-003
25006	8.9177	4.	0.1	-2.526e-003
25007	8.8258	4.2727	0.1	-3.1527e-003
25008	8.9177	4.1818	0.1	-2.9613e-003
25009	8.8258	4.4545	0.1	-3.7452e-003
25010	8.9177	4.3636	0.1	-3.47e-003
25011	8.8258	4.6364	0.1	-4.4266e-003
25012	8.9177	4.5455	0.1	-4.0626e-003
25013	8.8258	4.8182	0.1	-5.2424e-003
25014	8.9177	4.7273	0.1	-4.7336e-003
25015	8.8258	5.	0.1	-6.1403e-003
25016	8.9177	4.9091	0.1	-5.5744e-003
25017	8.8258	5.1818	0.1	-7.6534e-003
25018	8.9177	5.0909	0.1	-6.3963e-003
25019	8.8258	5.3636	0.1	-8.3753e-003
25020	8.9177	5.2727	0.1	-8.4176e-003
25021	8.8258	5.5455	0.1	-1.9012e-002
25022	8.9177	5.4545	0.1	-7.8783e-003
25023	8.8258	5.7273	0.1	-7.3793e-002
25024	8.9177	5.6364	0.1	-3.1e-002
25025	8.9177	5.8182	0.1	-2.7591
25026	8.8258	5.9091	0.1	-2.3519
25027	9.0097	0.27273	0.1	-0.13847
25028	9.1016	0.18182	0.1	-3.5879
25029	9.0097	9.0909e-002	0.1	-2.857
25030	9.0097	0.45455	0.1	-1.6895e-002
25031	9.1016	0.36364	0.1	-2.8172e-002
25032	9.0097	0.63636	0.1	-7.5166e-003
25033	9.1016	0.54545	0.1	-6.9573e-003
25034	9.0097	0.81818	0.1	-7.0277e-003
25035	9.1016	0.72727	0.1	-7.6469e-003
25036	9.0097	1.	0.1	-5.7681e-003
25037	9.1016	0.90909	0.1	-5.9571e-003
25038	9.0097	1.1818	0.1	-5.0298e-003
25039	9.1016	1.0909	0.1	-5.3013e-003
25040	9.0097	1.3636	0.1	-4.3462e-003
25041	9.1016	1.2727	0.1	-4.6039e-003
25042	9.0097	1.5455	0.1	-3.7703e-003
25043	9.1016	1.4545	0.1	-4.0434e-003
25044	9.0097	1.7273	0.1	-3.2652e-003
25045	9.1016	1.6364	0.1	-3.5426e-003
25046	9.0097	1.9091	0.1	-2.8304e-003
25047	9.1016	1.8182	0.1	-3.1093e-003
25048	9.0097	2.0909	0.1	-2.4611e-003
25049	9.1016	2.	0.1	-2.7366e-003
25050	9.0097	2.2727	0.1	-2.1571e-003
25051	9.1016	2.1818	0.1	-2.4234e-003
25052	9.0097	2.4545	0.1	-1.9201e-003
25053	9.1016	2.3636	0.1	-2.1711e-003
25054	9.0097	2.6364	0.1	-1.7501e-003
25055	9.1016	2.5455	0.1	-1.982e-003
25056	9.0097	2.8182	0.1	-1.6472e-003
25057	9.1016	2.7273	0.1	-1.8543e-003
25058	9.0097	3.	0.1	-1.6127e-003
25059	9.1016	2.9091	0.1	-1.79e-003
25060	9.0097	3.1818	0.1	-1.6473e-003
25061	9.1016	3.0909	0.1	-1.7899e-003
25062	9.0097	3.3636	0.1	-1.7501e-003
25063	9.1016	3.2727	0.1	-1.8543e-003
25064	9.0097	3.5455	0.1	-1.92e-003
25065	9.1016	3.4545	0.1	-1.9819e-003
25066	9.0097	3.7273	0.1	-2.1569e-003
25067	9.1016	3.6364	0.1	-2.1708e-003
25068	9.0097	3.9091	0.1	-2.4608e-003
25069	9.1016	3.8182	0.1	-2.423e-003
25070	9.0097	4.0909	0.1	-2.83e-003
25071	9.1016	4.	0.1	-2.7366e-003
25072	9.0097	4.2727	0.1	-3.2648e-003
25073	9.1016	4.1818	0.1	-3.1089e-003
25074	9.0097	4.4545	0.1	-3.7699e-003
25075	9.1016	4.3636	0.1	-3.542e-003
25076	9.0097	4.6364	0.1	-4.3455e-003
25077	9.1016	4.5455	0.1	-4.043e-003
25078	9.0097	4.8182	0.1	-5.0292e-003
25079	9.1016	4.7273	0.1	-4.6034e-003
25080	9.0097	5.	0.1	-5.7671e-003
25081	9.1016	4.9091	0.1	-5.3008e-003
25082	9.0097	5.1818	0.1	-7.0265e-003
25083	9.1016	5.0909	0.1	-5.9557e-003
25084	9.0097	5.3636	0.1	-7.5158e-003
25085	9.1016	5.2727	0.1	-7.6458e-003
25086	9.0097	5.5455	0.1	-1.6894e-002
25087	9.1016	5.4545	0.1	-6.9569e-003
25088	9.0097	5.7273	0.1	-0.13846
25089	9.1016	5.6364	0.1	-2.817e-002
25090	9.1016	5.8182	0.1	-3.5878
25091	9.0097	5.9091	0.1	-2.8569
25092	9.1935	0.27273	0.1	-0.61818
25093	9.2855	0.18182	0.1	-4.3792
25094	9.1935	9.0909e-002	0.1	-3.3385
25095	9.1935	0.45455	0.1	-1.4941e-002
25096	9.2855	0.36364	0.1	-2.5962e-002
25097	9.1935	0.63636	0.1	-6.745e-003
25098	9.2855	0.54545	0.1	-6.1237e-003
25099	9.1935	0.81818	0.1	-6.4721e-003
25100	9.2855	0.72727	0.1	-6.9615e-003
25101	9.1935	1.	0.1	-5.4432e-003
25102	9.2855	0.90909	0.1	-5.5743e-003
25103	9.1935	1.1818	0.1	-4.8489e-003
25104	9.2855	1.0909	0.1	-5.0681e-003
25105	9.1935	1.3636	0.1	-4.2838e-003
25106	9.2855	1.2727	0.1	-4.4991e-003
25107	9.1935	1.5455	0.1	-3.803e-003
25108	9.2855	1.4545	0.1	-4.0371e-003
25109	9.1935	1.7273	0.1	-3.3766e-003
25110	9.2855	1.6364	0.1	-3.6184e-003
25111	9.1935	1.9091	0.1	-3.0069e-003
25112	9.2855	1.8182	0.1	-3.2531e-003
25113	9.1935	2.0909	0.1	-2.6913e-003
25114	9.2855	2.	0.1	-2.9367e-003
25115	9.1935	2.2727	0.1	-2.4304e-003
25116	9.2855	2.1818	0.1	-2.669e-003
25117	9.1935	2.4545	0.1	-2.2263e-003
25118	9.2855	2.3636	0.1	-2.4531e-003
25119	9.1935	2.6364	0.1	-2.0798e-003
25120	9.2855	2.5455	0.1	-2.2906e-003
25121	9.1935	2.8182	0.1	-1.9908e-003
25122	9.2855	2.7273	0.1	-2.1807e-003
25123	9.1935	3.	0.1	-1.9609e-003
25124	9.2855	2.9091	0.1	-2.1251e-003
25125	9.1935	3.1818	0.1	-1.9907e-003
25126	9.2855	3.0909	0.1	-2.1251e-003
25127	9.1935	3.3636	0.1	-2.0797e-003
25128	9.2855	3.2727	0.1	-2.1807e-003
25129	9.1935	3.5455	0.1	-2.2261e-003
25130	9.2855	3.4545	0.1	-2.2904e-003
25131	9.1935	3.7273	0.1	-2.4298e-003
25132	9.2855	3.6364	0.1	-2.4526e-003
25133	9.1935	3.9091	0.1	-2.6911e-003
25134	9.2855	3.8182	0.1	-2.6686e-003
25135	9.1935	4.0909	0.1	-3.0069e-003
25136	9.2855	4.	0.1	-2.9365e-003
25137	9.1935	4.2727	0.1	-3.376e-003
25138	9.2855	4.1818	0.1	-3.2527e-003
25139	9.1935	4.4545	0.1	-3.8024e-003
25140	9.2855	4.3636	0.1	-3.6178e-003
25141	9.1935	4.6364	0.1	-4.2835e-003
25142	9.2855	4.5455	0.1	-4.0366e-003
25143	9.1935	4.8182	0.1	-4.8486e-003
25144	9.2855	4.7273	0.1	-4.4985e-003
25145	9.1935	5.	0.1	-5.4423e-003
25146	9.2855	4.9091	0.1	-5.0675e-003
25147	9.1935	5.1818	0.1	-6.4709e-003
25148	9.2855	5.0909	0.1	-5.5729e-003
25149	9.1935	5.3636	0.1	-6.7442e-003
25150	9.2855	5.2727	0.1	-6.9603e-003
25151	9.1935	5.5455	0.1	-1.494e-002
25152	9.2855	5.4545	0.1	-6.1234e-003
25153	9.1935	5.7273	0.1	-0.61812
25154	9.2855	5.6364	0.1	-2.5961e-002
25155	9.2855	5.8182	0.1	-4.3791
25156	9.1935	5.9091	0.1	-3.3385
25157	9.3774	0.27273	0.1	-1.5301
25158	9.4694	0.18182	0.1	-5.1306
25159	9.3774	9.0909e-002	0.1	-3.7962
25160	9.3774	0.45455	0.1	-1.3135e-002
25161	9.4694	0.36364	0.1	-2.5416e-002
25162	9.3774	0.63636	0.1	-6.0629e-003
25163	9.4694	0.54545	0.1	-5.3855e-003
25164	9.3774	0.81818	0.1	-5.989e-003
25165	9.4694	0.72727	0.1	-6.3704e-003
25166	9.3774	1.	0.1	-5.1675e-003
25167	9.4694	0.90909	0.1	-5.2566e-003
25168	9.3774	1.1818	0.1	-4.7011e-003
25169	9.4694	1.0909	0.1	-4.8814e-003
25170	9.3774	1.3636	0.1	-4.2413e-003
25171	9.4694	1.2727	0.1	-4.4256e-003
25172	9.3774	1.5455	0.1	-3.8443e-003
25173	9.4694	1.4545	0.1	-4.0505e-003
25174	9.3774	1.7273	0.1	-3.4882e-003
25175	9.4694	1.6364	0.1	-3.7041e-003
25176	9.3774	1.9091	0.1	-3.1769e-003
25177	9.4694	1.8182	0.1	-3.3988e-003
25178	9.3774	2.0909	0.1	-2.9089e-003
25179	9.4694	2.	0.1	-3.1326e-003
25180	9.3774	2.2727	0.1	-2.6866e-003
25181	9.4694	2.1818	0.1	-2.9057e-003
25182	9.3774	2.4545	0.1	-2.5124e-003
25183	9.4694	2.3636	0.1	-2.7218e-003
25184	9.3774	2.6364	0.1	-2.3867e-003
25185	9.4694	2.5455	0.1	-2.5834e-003
25186	9.3774	2.8182	0.1	-2.3102e-003
25187	9.4694	2.7273	0.1	-2.4894e-003
25188	9.3774	3.	0.1	-2.2845e-003
25189	9.4694	2.9091	0.1	-2.4415e-003
25190	9.3774	3.1818	0.1	-2.3102e-003
25191	9.4694	3.0909	0.1	-2.4416e-003
25192	9.3774	3.3636	0.1	-2.3865e-003
25193	9.4694	3.2727	0.1	-2.4894e-003
25194	9.3774	3.5455	0.1	-2.512e-003
25195	9.4694	3.4545	0.1	-2.5831e-003
25196	9.3774	3.7273	0.1	-2.6863e-003
25197	9.4694	3.6364	0.1	-2.7217e-003
25198	9.3774	3.9091	0.1	-2.9086e-003
25199	9.4694	3.8182	0.1	-2.9054e-003
25200	9.3774	4.0909	0.1	-3.1764e-003
25201	9.4694	4.	0.1	-3.1321e-003
25202	9.3774	4.2727	0.1	-3.4877e-003
25203	9.4694	4.1818	0.1	-3.3985e-003
25204	9.3774	4.4545	0.1	-3.8438e-003
25205	9.4694	4.3636	0.1	-3.7036e-003
25206	9.3774	4.6364	0.1	-4.2405e-003
25207	9.4694	4.5455	0.1	-4.0498e-003
25208	9.3774	4.8182	0.1	-4.7004e-003
25209	9.4694	4.7273	0.1	-4.4249e-003
25210	9.3774	5.	0.1	-5.1665e-003
25211	9.4694	4.9091	0.1	-4.8808e-003
25212	9.3774	5.1818	0.1	-5.9877e-003
25213	9.4694	5.0909	0.1	-5.2551e-003
25214	9.3774	5.3636	0.1	-6.0623e-003
25215	9.4694	5.2727	0.1	-6.3693e-003
25216	9.3774	5.5455	0.1	-1.3135e-002
25217	9.4694	5.4545	0.1	-5.385e-003
25218	9.3774	5.7273	0.1	-1.53
25219	9.4694	5.6364	0.1	-2.5415e-002
25220	9.4694	5.8182	0.1	-5.1305
25221	9.3774	5.9091	0.1	-3.7962
25222	9.5613	0.27273	0.1	-2.4426
25223	9.6532	0.18182	0.1	-5.8426
25224	9.5613	9.0909e-002	0.1	-4.2307
25225	9.5613	0.45455	0.1	-1.1476e-002
25226	9.6532	0.36364	0.1	-6.8995e-002
25227	9.5613	0.63636	0.1	-5.4886e-003
25228	9.6532	0.54545	0.1	-4.7522e-003
25229	9.5613	0.81818	0.1	-5.5932e-003
25230	9.6532	0.72727	0.1	-5.8802e-003
25231	9.5613	1.	0.1	-4.9539e-003
25232	9.6532	0.90909	0.1	-5.0065e-003
25233	9.5613	1.1818	0.1	-4.5976e-003
25234	9.6532	1.0909	0.1	-4.7417e-003
25235	9.5613	1.3636	0.1	-4.2295e-003
25236	9.6532	1.2727	0.1	-4.3824e-003
25237	9.5613	1.5455	0.1	-3.9062e-003
25238	9.6532	1.4545	0.1	-4.0818e-003
25239	9.5613	1.7273	0.1	-3.6111e-003
25240	9.6532	1.6364	0.1	-3.7981e-003
25241	9.5613	1.9091	0.1	-3.3511e-003
25242	9.6532	1.8182	0.1	-3.5453e-003
25243	9.5613	2.0909	0.1	-3.126e-003
25244	9.6532	2.	0.1	-3.3227e-003
25245	9.5613	2.2727	0.1	-2.9375e-003
25246	9.6532	2.1818	0.1	-3.1318e-003
25247	9.5613	2.4545	0.1	-2.7894e-003
25248	9.6532	2.3636	0.1	-2.9762e-003
25249	9.5613	2.6364	0.1	-2.6826e-003
25250	9.6532	2.5455	0.1	-2.8591e-003
25251	9.5613	2.8182	0.1	-2.6172e-003
25252	9.6532	2.7273	0.1	-2.7789e-003
25253	9.5613	3.	0.1	-2.5952e-003
25254	9.6532	2.9091	0.1	-2.7382e-003
25255	9.5613	3.1818	0.1	-2.6173e-003
25256	9.6532	3.0909	0.1	-2.7384e-003
25257	9.5613	3.3636	0.1	-2.6825e-003
25258	9.6532	3.2727	0.1	-2.7789e-003
25259	9.5613	3.5455	0.1	-2.7894e-003
25260	9.6532	3.4545	0.1	-2.8587e-003
25261	9.5613	3.7273	0.1	-2.9374e-003
25262	9.6532	3.6364	0.1	-2.9761e-003
25263	9.5613	3.9091	0.1	-3.1255e-003
25264	9.6532	3.8182	0.1	-3.1315e-003
25265	9.5613	4.0909	0.1	-3.3508e-003
25266	9.6532	4.	0.1	-3.3223e-003
25267	9.5613	4.2727	0.1	-3.6108e-003
25268	9.6532	4.1818	0.1	-3.5451e-003
25269	9.5613	4.4545	0.1	-3.9055e-003
25270	9.6532	4.3636	0.1	-3.7977e-003
25271	9.5613	4.6364	0.1	-4.2289e-003
25272	9.6532	4.5455	0.1	-4.0811e-003
25273	9.5613	4.8182	0.1	-4.5971e-003
25274	9.6532	4.7273	0.1	-4.3818e-003
25275	9.5613	5.	0.1	-4.9528e-003
25276	9.6532	4.9091	0.1	-4.7411e-003
25277	9.5613	5.1818	0.1	-5.5917e-003
25278	9.6532	5.0909	0.1	-5.005e-003
25279	9.5613	5.3636	0.1	-5.4875e-003
25280	9.6532	5.2727	0.1	-5.879e-003
25281	9.5613	5.5455	0.1	-1.1475e-002
25282	9.6532	5.4545	0.1	-4.7518e-003
25283	9.5613	5.7273	0.1	-2.4425
25284	9.6532	5.6364	0.1	-6.8973e-002
25285	9.6532	5.8182	0.1	-5.8425
25286	9.5613	5.9091	0.1	-4.2307
25287	9.7452	0.27273	0.1	-3.3095
25288	9.8371	0.18182	0.1	-6.5167
25289	9.7452	9.0909e-002	0.1	-4.6429
25290	9.7452	0.45455	0.1	-9.9342e-003
25291	9.8371	0.36364	0.1	-0.99626
25292	9.7452	0.63636	0.1	-5.0255e-003
25293	9.8371	0.54545	0.1	-4.2626e-003
25294	9.7452	0.81818	0.1	-5.2789e-003
25295	9.8371	0.72727	0.1	-5.5088e-003
25296	9.7452	1.	0.1	-4.7923e-003
25297	9.8371	0.90909	0.1	-4.832e-003
25298	9.7452	1.1818	0.1	-4.5267e-003
25299	9.8371	1.0909	0.1	-4.6523e-003
25300	9.7452	1.3636	0.1	-4.2349e-003
25301	9.8371	1.2727	0.1	-4.3709e-003
25302	9.7452	1.5455	0.1	-3.9735e-003
25303	9.8371	1.4545	0.1	-4.1311e-003
25304	9.7452	1.7273	0.1	-3.7316e-003
25305	9.8371	1.6364	0.1	-3.8997e-003
25306	9.7452	1.9091	0.1	-3.5158e-003
25307	9.8371	1.8182	0.1	-3.6913e-003
25308	9.7452	2.0909	0.1	-3.327e-003
25309	9.8371	2.	0.1	-3.506e-003
25310	9.7452	2.2727	0.1	-3.1685e-003
25311	9.8371	2.1818	0.1	-3.3459e-003
25312	9.7452	2.4545	0.1	-3.0437e-003
25313	9.8371	2.3636	0.1	-3.2149e-003
25314	9.7452	2.6364	0.1	-2.9531e-003
25315	9.8371	2.5455	0.1	-3.1163e-003
25316	9.7452	2.8182	0.1	-2.8975e-003
25317	9.8371	2.7273	0.1	-3.0481e-003
25318	9.7452	3.	0.1	-2.879e-003
25319	9.8371	2.9091	0.1	-3.014e-003
25320	9.7452	3.1818	0.1	-2.8976e-003
25321	9.8371	3.0909	0.1	-3.0137e-003
25322	9.7452	3.3636	0.1	-2.9529e-003
25323	9.8371	3.2727	0.1	-3.0482e-003
25324	9.7452	3.5455	0.1	-3.0433e-003
25325	9.8371	3.4545	0.1	-3.1157e-003
25326	9.7452	3.7273	0.1	-3.1683e-003
25327	9.8371	3.6364	0.1	-3.2146e-003
25328	9.7452	3.9091	0.1	-3.3267e-003
25329	9.8371	3.8182	0.1	-3.3459e-003
25330	9.7452	4.0909	0.1	-3.5154e-003
25331	9.8371	4.	0.1	-3.5056e-003
25332	9.7452	4.2727	0.1	-3.7313e-003
25333	9.8371	4.1818	0.1	-3.6909e-003
25334	9.7452	4.4545	0.1	-3.9732e-003
25335	9.8371	4.3636	0.1	-3.8992e-003
25336	9.7452	4.6364	0.1	-4.2344e-003
25337	9.8371	4.5455	0.1	-4.1307e-003
25338	9.7452	4.8182	0.1	-4.5261e-003
25339	9.8371	4.7273	0.1	-4.3701e-003
25340	9.7452	5.	0.1	-4.7914e-003
25341	9.8371	4.9091	0.1	-4.6518e-003
25342	9.7452	5.1818	0.1	-5.2777e-003
25343	9.8371	5.0909	0.1	-4.8306e-003
25344	9.7452	5.3636	0.1	-5.025e-003
25345	9.8371	5.2727	0.1	-5.5076e-003
25346	9.7452	5.5455	0.1	-9.9339e-003
25347	9.8371	5.4545	0.1	-4.2623e-003
25348	9.7452	5.7273	0.1	-3.3094
25349	9.8371	5.6364	0.1	-0.99619
25350	9.8371	5.8182	0.1	-6.5166
25351	9.7452	5.9091	0.1	-4.6429
25352	9.929	0.27273	0.1	-4.1273
25353	10.021	0.18182	0.1	-7.1551
25354	9.929	9.0909e-002	0.1	-5.034
25355	9.929	0.45455	0.1	-8.5111e-003
25356	10.021	0.36364	0.1	-1.9494
25357	9.929	0.63636	0.1	-4.7348e-003
25358	10.021	0.54545	0.1	-4.0922e-003
25359	9.929	0.81818	0.1	-5.0779e-003
25360	10.021	0.72727	0.1	-5.3272e-003
25361	9.929	1.	0.1	-4.704e-003
25362	10.021	0.90909	0.1	-4.7782e-003
25363	9.929	1.1818	0.1	-4.5047e-003
25364	10.021	1.0909	0.1	-4.6489e-003
25365	9.929	1.3636	0.1	-4.2724e-003
25366	10.021	1.2727	0.1	-4.4225e-003
25367	9.929	1.5455	0.1	-4.0606e-003
25368	10.021	1.4545	0.1	-4.2279e-003
25369	9.929	1.7273	0.1	-3.8614e-003
25370	10.021	1.6364	0.1	-4.0371e-003
25371	9.929	1.9091	0.1	-3.6825e-003
25372	10.021	1.8182	0.1	-3.8641e-003
25373	9.929	2.0909	0.1	-3.525e-003
25374	10.021	2.	0.1	-3.7094e-003
25375	9.929	2.2727	0.1	-3.3918e-003
25376	10.021	2.1818	0.1	-3.575e-003
25377	9.929	2.4545	0.1	-3.2865e-003
25378	10.021	2.3636	0.1	-3.4646e-003
25379	9.929	2.6364	0.1	-3.2101e-003
25380	10.021	2.5455	0.1	-3.3814e-003
25381	9.929	2.8182	0.1	-3.1632e-003
25382	10.021	2.7273	0.1	-3.3239e-003
25383	9.929	3.	0.1	-3.1473e-003
25384	10.021	2.9091	0.1	-3.295e-003
25385	9.929	3.1818	0.1	-3.163e-003
25386	10.021	3.0909	0.1	-3.2946e-003
25387	9.929	3.3636	0.1	-3.2099e-003
25388	10.021	3.2727	0.1	-3.3241e-003
25389	9.929	3.5455	0.1	-3.2861e-003
25390	10.021	3.4545	0.1	-3.3811e-003
25391	9.929	3.7273	0.1	-3.3917e-003
25392	10.021	3.6364	0.1	-3.4643e-003
25393	9.929	3.9091	0.1	-3.5248e-003
25394	10.021	3.8182	0.1	-3.5751e-003
25395	9.929	4.0909	0.1	-3.682e-003
25396	10.021	4.	0.1	-3.7092e-003
25397	9.929	4.2727	0.1	-3.8608e-003
25398	10.021	4.1818	0.1	-3.8636e-003
25399	9.929	4.4545	0.1	-4.0602e-003
25400	10.021	4.3636	0.1	-4.0366e-003
25401	9.929	4.6364	0.1	-4.272e-003
25402	10.021	4.5455	0.1	-4.2275e-003
25403	9.929	4.8182	0.1	-4.504e-003
25404	10.021	4.7273	0.1	-4.4217e-003
25405	9.929	5.	0.1	-4.703e-003
25406	10.021	4.9091	0.1	-4.6483e-003
25407	9.929	5.1818	0.1	-5.0765e-003
25408	10.021	5.0909	0.1	-4.7767e-003
25409	9.929	5.3636	0.1	-4.7339e-003
25410	10.021	5.2727	0.1	-5.3259e-003
25411	9.929	5.5455	0.1	-8.5103e-003
25412	10.021	5.4545	0.1	-4.0916e-003
25413	9.929	5.7273	0.1	-4.1273
25414	10.021	5.6364	0.1	-1.9493
25415	10.021	5.8182	0.1	-7.155
25416	9.929	5.9091	0.1	-5.0339
25417	10.113	0.27273	0.1	-4.8979
25418	10.205	0.18182	0.1	-7.7599
25419	10.113	9.0909e-002	0.1	-5.4053
25420	10.113	0.45455	0.1	-0.48979
25421	10.205	0.36364	0.1	-2.8441
25422	10.113	0.63636	0.1	-4.7891e-003
25423	10.205	0.54545	0.1	-5.2288e-003
25424	10.113	0.81818	0.1	-5.0718e-003
25425	10.205	0.72727	0.1	-5.4329e-003
25426	10.113	1.	0.1	-4.7481e-003
25427	10.205	0.90909	0.1	-4.8743e-003
25428	10.113	1.1818	0.1	-4.5824e-003
25429	10.205	1.0909	0.1	-4.7412e-003
25430	10.113	1.3636	0.1	-4.3882e-003
25431	10.205	1.2727	0.1	-4.5391e-003
25432	10.113	1.5455	0.1	-4.2111e-003
25433	10.205	1.4545	0.1	-4.3703e-003
25434	10.113	1.7273	0.1	-4.0442e-003
25435	10.205	1.6364	0.1	-4.2064e-003
25436	10.113	1.9091	0.1	-3.8938e-003
25437	10.205	1.8182	0.1	-4.0588e-003
25438	10.113	2.0909	0.1	-3.7609e-003
25439	10.205	2.	0.1	-3.9272e-003
25440	10.113	2.2727	0.1	-3.6484e-003
25441	10.205	2.1818	0.1	-3.8129e-003
25442	10.113	2.4545	0.1	-3.5596e-003
25443	10.205	2.3636	0.1	-3.7192e-003
25444	10.113	2.6364	0.1	-3.4949e-003
25445	10.205	2.5455	0.1	-3.6483e-003
25446	10.113	2.8182	0.1	-3.4551e-003
25447	10.205	2.7273	0.1	-3.5995e-003
25448	10.113	3.	0.1	-3.4416e-003
25449	10.205	2.9091	0.1	-3.5746e-003
25450	10.113	3.1818	0.1	-3.4551e-003
25451	10.205	3.0909	0.1	-3.5745e-003
25452	10.113	3.3636	0.1	-3.495e-003
25453	10.205	3.2727	0.1	-3.5997e-003
25454	10.113	3.5455	0.1	-3.5594e-003
25455	10.205	3.4545	0.1	-3.6482e-003
25456	10.113	3.7273	0.1	-3.6483e-003
25457	10.205	3.6364	0.1	-3.7188e-003
25458	10.113	3.9091	0.1	-3.7609e-003
25459	10.205	3.8182	0.1	-3.8127e-003
25460	10.113	4.0909	0.1	-3.8935e-003
25461	10.205	4.	0.1	-3.927e-003
25462	10.113	4.2727	0.1	-4.0438e-003
25463	10.205	4.1818	0.1	-4.0584e-003
25464	10.113	4.4545	0.1	-4.2107e-003
25465	10.205	4.3636	0.1	-4.206e-003
25466	10.113	4.6364	0.1	-4.3875e-003
25467	10.205	4.5455	0.1	-4.3695e-003
25468	10.113	4.8182	0.1	-4.5816e-003
25469	10.205	4.7273	0.1	-4.5384e-003
25470	10.113	5.	0.1	-4.747e-003
25471	10.205	4.9091	0.1	-4.7407e-003
25472	10.113	5.1818	0.1	-5.0704e-003
25473	10.205	5.0909	0.1	-4.8728e-003
25474	10.113	5.3636	0.1	-4.7881e-003
25475	10.205	5.2727	0.1	-5.4318e-003
25476	10.113	5.5455	0.1	-0.48973
25477	10.205	5.4545	0.1	-5.228e-003
25478	10.113	5.7273	0.1	-4.8979
25479	10.205	5.6364	0.1	-2.844
25480	10.205	5.8182	0.1	-7.7598
25481	10.113	5.9091	0.1	-5.4053
25482	10.297	0.27273	0.1	-5.6239
25483	10.389	0.18182	0.1	-8.3331
25484	10.297	9.0909e-002	0.1	-5.7581
25485	10.297	0.45455	0.1	-1.5049
25486	10.389	0.36364	0.1	-3.6835
25487	10.297	0.63636	0.1	-5.6083e-003
25488	10.389	0.54545	0.1	-0.30724
25489	10.297	0.81818	0.1	-5.2929e-003
25490	10.389	0.72727	0.1	-6.0675e-003
25491	10.297	1.	0.1	-4.9026e-003
25492	10.389	0.90909	0.1	-5.1414e-003
25493	10.297	1.1818	0.1	-4.7201e-003
25494	10.389	1.0909	0.1	-4.9069e-003
25495	10.297	1.3636	0.1	-4.5359e-003
25496	10.389	1.2727	0.1	-4.683e-003
25497	10.297	1.5455	0.1	-4.3755e-003
25498	10.389	1.4545	0.1	-4.5138e-003
25499	10.297	1.7273	0.1	-4.2277e-003
25500	10.389	1.6364	0.1	-4.3598e-003
25501	10.297	1.9091	0.1	-4.0967e-003
25502	10.389	1.8182	0.1	-4.226e-003
25503	10.297	2.0909	0.1	-3.982e-003
25504	10.389	2.	0.1	-4.1088e-003
25505	10.297	2.2727	0.1	-3.8853e-003
25506	10.389	2.1818	0.1	-4.0082e-003
25507	10.297	2.4545	0.1	-3.8088e-003
25508	10.389	2.3636	0.1	-3.926e-003
25509	10.297	2.6364	0.1	-3.7532e-003
25510	10.389	2.5455	0.1	-3.8647e-003
25511	10.297	2.8182	0.1	-3.719e-003
25512	10.389	2.7273	0.1	-3.8224e-003
25513	10.297	3.	0.1	-3.7074e-003
25514	10.389	2.9091	0.1	-3.8005e-003
25515	10.297	3.1818	0.1	-3.719e-003
25516	10.389	3.0909	0.1	-3.8007e-003
25517	10.297	3.3636	0.1	-3.7532e-003
25518	10.389	3.2727	0.1	-3.8223e-003
25519	10.297	3.5455	0.1	-3.8086e-003
25520	10.389	3.4545	0.1	-3.8647e-003
25521	10.297	3.7273	0.1	-3.8849e-003
25522	10.389	3.6364	0.1	-3.9259e-003
25523	10.297	3.9091	0.1	-3.9816e-003
25524	10.389	3.8182	0.1	-4.0079e-003
25525	10.297	4.0909	0.1	-4.0963e-003
25526	10.389	4.	0.1	-4.1084e-003
25527	10.297	4.2727	0.1	-4.2272e-003
25528	10.389	4.1818	0.1	-4.2253e-003
25529	10.297	4.4545	0.1	-4.3747e-003
25530	10.389	4.3636	0.1	-4.3593e-003
25531	10.297	4.6364	0.1	-4.535e-003
25532	10.389	4.5455	0.1	-4.513e-003
25533	10.297	4.8182	0.1	-4.7196e-003
25534	10.389	4.7273	0.1	-4.6825e-003
25535	10.297	5.	0.1	-4.9016e-003
25536	10.389	4.9091	0.1	-4.9062e-003
25537	10.297	5.1818	0.1	-5.2916e-003
25538	10.389	5.0909	0.1	-5.1397e-003
25539	10.297	5.3636	0.1	-5.6075e-003
25540	10.389	5.2727	0.1	-6.0663e-003
25541	10.297	5.5455	0.1	-1.5048
25542	10.389	5.4545	0.1	-0.30719
25543	10.297	5.7273	0.1	-5.6238
25544	10.389	5.6364	0.1	-3.6835
25545	10.389	5.8182	0.1	-8.333
25546	10.297	5.9091	0.1	-5.758
25547	10.481	0.27273	0.1	-6.3083
25548	10.573	0.18182	0.1	-8.877
25549	10.481	9.0909e-002	0.1	-6.0934
25550	10.481	0.45455	0.1	-2.4551
25551	10.573	0.36364	0.1	-4.4717
25552	10.481	0.63636	0.1	-1.0732e-002
25553	10.573	0.54545	0.1	-1.3539
25554	10.481	0.81818	0.1	-5.9081e-003
25555	10.573	0.72727	0.1	-8.452e-003
25556	10.481	1.	0.1	-5.1828e-003
25557	10.573	0.90909	0.1	-5.7666e-003
25558	10.481	1.1818	0.1	-4.8968e-003
25559	10.573	1.0909	0.1	-5.2232e-003
25560	10.481	1.3636	0.1	-4.6794e-003
25561	10.573	1.2727	0.1	-4.9003e-003
25562	10.481	1.5455	0.1	-4.5108e-003
25563	10.573	1.4545	0.1	-4.6916e-003
25564	10.481	1.7273	0.1	-4.3668e-003
25565	10.573	1.6364	0.1	-4.5241e-003
25566	10.481	1.9091	0.1	-4.2441e-003
25567	10.573	1.8182	0.1	-4.3891e-003
25568	10.481	2.0909	0.1	-4.139e-003
25569	10.573	2.	0.1	-4.2756e-003
25570	10.481	2.2727	0.1	-4.0514e-003
25571	10.573	2.1818	0.1	-4.1811e-003
25572	10.481	2.4545	0.1	-3.9834e-003
25573	10.573	2.3636	0.1	-4.1051e-003
25574	10.481	2.6364	0.1	-3.9347e-003
25575	10.573	2.5455	0.1	-4.0498e-003
25576	10.481	2.8182	0.1	-3.9043e-003
25577	10.573	2.7273	0.1	-4.0113e-003
25578	10.481	3.	0.1	-3.8941e-003
25579	10.573	2.9091	0.1	-3.9918e-003
25580	10.481	3.1818	0.1	-3.9044e-003
25581	10.573	3.0909	0.1	-3.9921e-003
25582	10.481	3.3636	0.1	-3.9346e-003
25583	10.573	3.2727	0.1	-4.0114e-003
25584	10.481	3.5455	0.1	-3.9835e-003
25585	10.573	3.4545	0.1	-4.0496e-003
25586	10.481	3.7273	0.1	-4.0514e-003
25587	10.573	3.6364	0.1	-4.105e-003
25588	10.481	3.9091	0.1	-4.1386e-003
25589	10.573	3.8182	0.1	-4.1809e-003
25590	10.481	4.0909	0.1	-4.2433e-003
25591	10.573	4.	0.1	-4.2751e-003
25592	10.481	4.2727	0.1	-4.366e-003
25593	10.573	4.1818	0.1	-4.3884e-003
25594	10.481	4.4545	0.1	-4.5103e-003
25595	10.573	4.3636	0.1	-4.524e-003
25596	10.481	4.6364	0.1	-4.679e-003
25597	10.573	4.5455	0.1	-4.691e-003
25598	10.481	4.8182	0.1	-4.8961e-003
25599	10.573	4.7273	0.1	-4.8999e-003
25600	10.481	5.	0.1	-5.1813e-003
25601	10.573	4.9091	0.1	-5.2222e-003
25602	10.481	5.1818	0.1	-5.9064e-003
25603	10.573	5.0909	0.1	-5.7652e-003
25604	10.481	5.3636	0.1	-1.073e-002
25605	10.573	5.2727	0.1	-8.4506e-003
25606	10.481	5.5455	0.1	-2.455
25607	10.573	5.4545	0.1	-1.3538
25608	10.481	5.7273	0.1	-6.3082
25609	10.573	5.6364	0.1	-4.4716
25610	10.573	5.8182	0.1	-8.877
25611	10.481	5.9091	0.1	-6.0933
25612	10.665	0.27273	0.1	-6.954
25613	10.756	0.18182	0.1	-9.3938
25614	10.665	9.0909e-002	0.1	-6.4126
25615	10.665	0.45455	0.1	-3.3455
25616	10.756	0.36364	0.1	-5.2126
25617	10.665	0.63636	0.1	-0.46057
25618	10.756	0.54545	0.1	-2.3385
25619	10.665	0.81818	0.1	-7.7029e-003
25620	10.756	0.72727	0.1	-2.798e-002
25621	10.665	1.	0.1	-5.819e-003
25622	10.756	0.90909	0.1	-7.3009e-003
25623	10.665	1.1818	0.1	-5.2544e-003
25624	10.756	1.0909	0.1	-5.8907e-003
25625	10.665	1.3636	0.1	-4.9339e-003
25626	10.756	1.2727	0.1	-5.3197e-003
25627	10.665	1.5455	0.1	-4.7202e-003
25628	10.756	1.4545	0.1	-5.0074e-003
25629	10.665	1.7273	0.1	-4.5571e-003
25630	10.756	1.6364	0.1	-4.7919e-003
25631	10.665	1.9091	0.1	-4.428e-003
25632	10.756	1.8182	0.1	-4.6335e-003
25633	10.665	2.0909	0.1	-4.3226e-003
25634	10.756	2.	0.1	-4.5105e-003
25635	10.665	2.2727	0.1	-4.2379e-003
25636	10.756	2.1818	0.1	-4.4125e-003
25637	10.665	2.4545	0.1	-4.1734e-003
25638	10.756	2.3636	0.1	-4.3366e-003
25639	10.665	2.6364	0.1	-4.1275e-003
25640	10.756	2.5455	0.1	-4.282e-003
25641	10.665	2.8182	0.1	-4.0994e-003
25642	10.756	2.7273	0.1	-4.245e-003
25643	10.665	3.	0.1	-4.0902e-003
25644	10.756	2.9091	0.1	-4.2264e-003
25645	10.665	3.1818	0.1	-4.0997e-003
25646	10.756	3.0909	0.1	-4.2264e-003
25647	10.665	3.3636	0.1	-4.1275e-003
25648	10.756	3.2727	0.1	-4.245e-003
25649	10.665	3.5455	0.1	-4.173e-003
25650	10.756	3.4545	0.1	-4.2819e-003
25651	10.665	3.7273	0.1	-4.2376e-003
25652	10.756	3.6364	0.1	-4.3364e-003
25653	10.665	3.9091	0.1	-4.3222e-003
25654	10.756	3.8182	0.1	-4.412e-003
25655	10.665	4.0909	0.1	-4.4275e-003
25656	10.756	4.	0.1	-4.5098e-003
25657	10.665	4.2727	0.1	-4.557e-003
25658	10.756	4.1818	0.1	-4.6334e-003
25659	10.665	4.4545	0.1	-4.72e-003
25660	10.756	4.3636	0.1	-4.7918e-003
25661	10.665	4.6364	0.1	-4.9332e-003
25662	10.756	4.5455	0.1	-5.0064e-003
25663	10.665	4.8182	0.1	-5.2537e-003
25664	10.756	4.7273	0.1	-5.3193e-003
25665	10.665	5.	0.1	-5.8181e-003
25666	10.756	4.9091	0.1	-5.8898e-003
25667	10.665	5.1818	0.1	-7.7017e-003
25668	10.756	5.0909	0.1	-7.2998e-003
25669	10.665	5.3636	0.1	-0.46052
25670	10.756	5.2727	0.1	-2.7976e-002
25671	10.665	5.5455	0.1	-3.3454
25672	10.756	5.4545	0.1	-2.3384
25673	10.665	5.7273	0.1	-6.9539
25674	10.756	5.6364	0.1	-5.2126
25675	10.756	5.8182	0.1	-9.3938
25676	10.665	5.9091	0.1	-6.4125
25677	10.848	0.27273	0.1	-7.5642
25678	10.94	0.18182	0.1	-9.8855
25679	10.848	9.0909e-002	0.1	-6.717
25680	10.848	0.45455	0.1	-4.181
25681	10.94	0.36364	0.1	-5.91
25682	10.848	0.63636	0.1	-1.5177
25683	10.94	0.54545	0.1	-3.2615
25684	10.848	0.81818	0.1	-1.4732e-002
25685	10.94	0.72727	0.1	-0.79857
25686	10.848	1.	0.1	-7.2504e-003
25687	10.94	0.90909	0.1	-1.1688e-002
25688	10.848	1.1818	0.1	-5.9735e-003
25689	10.94	1.0909	0.1	-7.1877e-003
25690	10.848	1.3636	0.1	-5.416e-003
25691	10.94	1.2727	0.1	-6.0199e-003
25692	10.848	1.5455	0.1	-5.0967e-003
25693	10.94	1.4545	0.1	-5.4831e-003
25694	10.848	1.7273	0.1	-4.8808e-003
25695	10.94	1.6364	0.1	-5.1625e-003
25696	10.848	1.9091	0.1	-4.7245e-003
25697	10.94	1.8182	0.1	-4.9492e-003
25698	10.848	2.0909	0.1	-4.6059e-003
25699	10.94	2.	0.1	-4.7965e-003
25700	10.848	2.2727	0.1	-4.5146e-003
25701	10.94	2.1818	0.1	-4.6823e-003
25702	10.848	2.4545	0.1	-4.4473e-003
25703	10.94	2.3636	0.1	-4.5978e-003
25704	10.848	2.6364	0.1	-4.4006e-003
25705	10.94	2.5455	0.1	-4.5384e-003
25706	10.848	2.8182	0.1	-4.3725e-003
25707	10.94	2.7273	0.1	-4.4994e-003
25708	10.848	3.	0.1	-4.363e-003
25709	10.94	2.9091	0.1	-4.4798e-003
25710	10.848	3.1818	0.1	-4.3722e-003
25711	10.94	3.0909	0.1	-4.4796e-003
25712	10.848	3.3636	0.1	-4.4004e-003
25713	10.94	3.2727	0.1	-4.4991e-003
25714	10.848	3.5455	0.1	-4.4473e-003
25715	10.94	3.4545	0.1	-4.5383e-003
25716	10.848	3.7273	0.1	-4.5143e-003
25717	10.94	3.6364	0.1	-4.5976e-003
25718	10.848	3.9091	0.1	-4.6052e-003
25719	10.94	3.8182	0.1	-4.6818e-003
25720	10.848	4.0909	0.1	-4.7242e-003
25721	10.94	4.	0.1	-4.7959e-003
25722	10.848	4.2727	0.1	-4.8806e-003
25723	10.94	4.1818	0.1	-4.9492e-003
25724	10.848	4.4545	0.1	-5.0959e-003
25725	10.94	4.3636	0.1	-5.1622e-003
25726	10.848	4.6364	0.1	-5.4153e-003
25727	10.94	4.5455	0.1	-5.482e-003
25728	10.848	4.8182	0.1	-5.9729e-003
25729	10.94	4.7273	0.1	-6.0197e-003
25730	10.848	5.	0.1	-7.2493e-003
25731	10.94	4.9091	0.1	-7.187e-003
25732	10.848	5.1818	0.1	-1.4731e-002
25733	10.94	5.0909	0.1	-1.1686e-002
25734	10.848	5.3636	0.1	-1.5177
25735	10.94	5.2727	0.1	-0.79852
25736	10.848	5.5455	0.1	-4.1809
25737	10.94	5.4545	0.1	-3.2614
25738	10.848	5.7273	0.1	-7.5641
25739	10.94	5.6364	0.1	-5.91
25740	10.94	5.8182	0.1	-9.8854
25741	10.848	5.9091	0.1	-6.717
25742	11.032	0.27273	0.1	-8.1414
25743	11.124	0.18182	0.1	-10.354
25744	11.032	9.0909e-002	0.1	-7.0075
25745	11.032	0.45455	0.1	-4.9658
25746	11.124	0.36364	0.1	-6.5672
25747	11.032	0.63636	0.1	-2.5148
25748	11.124	0.54545	0.1	-4.1275
25749	11.032	0.81818	0.1	-0.25416
25750	11.124	0.72727	0.1	-1.8605
25751	11.032	1.	0.1	-1.0684e-002
25752	11.124	0.90909	0.1	-4.6351e-002
25753	11.032	1.1818	0.1	-7.2057e-003
25754	11.124	1.0909	0.1	-1.0019e-002
25755	11.032	1.3636	0.1	-6.1072e-003
25756	11.124	1.2727	0.1	-7.1631e-003
25757	11.032	1.5455	0.1	-5.5686e-003
25758	11.124	1.4545	0.1	-6.1338e-003
25759	11.032	1.7273	0.1	-5.2455e-003
25760	11.124	1.6364	0.1	-5.602e-003
25761	11.032	1.9091	0.1	-5.031e-003
25762	11.124	1.8182	0.1	-5.281e-003
25763	11.032	2.0909	0.1	-4.8791e-003
25764	11.124	2.	0.1	-5.0675e-003
25765	11.032	2.2727	0.1	-4.7692e-003
25766	11.124	2.1818	0.1	-4.9184e-003
25767	11.032	2.4545	0.1	-4.6909e-003
25768	11.124	2.3636	0.1	-4.813e-003
25769	11.032	2.6364	0.1	-4.6379e-003
25770	11.124	2.5455	0.1	-4.7415e-003
25771	11.032	2.8182	0.1	-4.6067e-003
25772	11.124	2.7273	0.1	-4.6956e-003
25773	11.032	3.	0.1	-4.5963e-003
25774	11.124	2.9091	0.1	-4.6729e-003
25775	11.032	3.1818	0.1	-4.6064e-003
25776	11.124	3.0909	0.1	-4.6728e-003
25777	11.032	3.3636	0.1	-4.6376e-003
25778	11.124	3.2727	0.1	-4.6952e-003
25779	11.032	3.5455	0.1	-4.6906e-003
25780	11.124	3.4545	0.1	-4.7413e-003
25781	11.032	3.7273	0.1	-4.7689e-003
25782	11.124	3.6364	0.1	-4.8128e-003
25783	11.032	3.9091	0.1	-4.8789e-003
25784	11.124	3.8182	0.1	-4.9182e-003
25785	11.032	4.0909	0.1	-5.0307e-003
25786	11.124	4.	0.1	-5.0673e-003
25787	11.032	4.2727	0.1	-5.2453e-003
25788	11.124	4.1818	0.1	-5.2804e-003
25789	11.032	4.4545	0.1	-5.5681e-003
25790	11.124	4.3636	0.1	-5.6019e-003
25791	11.032	4.6364	0.1	-6.1066e-003
25792	11.124	4.5455	0.1	-6.1329e-003
25793	11.032	4.8182	0.1	-7.2054e-003
25794	11.124	4.7273	0.1	-7.1624e-003
25795	11.032	5.	0.1	-1.0683e-002
25796	11.124	4.9091	0.1	-1.0018e-002
25797	11.032	5.1818	0.1	-0.25413
25798	11.124	5.0909	0.1	-4.6345e-002
25799	11.032	5.3636	0.1	-2.5147
25800	11.124	5.2727	0.1	-1.8604
25801	11.032	5.5455	0.1	-4.9657
25802	11.124	5.4545	0.1	-4.1274
25803	11.032	5.7273	0.1	-8.1413
25804	11.124	5.6364	0.1	-6.5671
25805	11.124	5.8182	0.1	-10.354
25806	11.032	5.9091	0.1	-7.0075
25807	11.216	0.27273	0.1	-8.6882
25808	11.308	0.18182	0.1	-10.801
25809	11.216	9.0909e-002	0.1	-7.2852
25810	11.216	0.45455	0.1	-5.704
25811	11.308	0.36364	0.1	-7.1875
25812	11.216	0.63636	0.1	-3.4503
25813	11.308	0.54545	0.1	-4.9412
25814	11.216	0.81818	0.1	-1.3388
25815	11.308	0.72727	0.1	-2.8605
25816	11.216	1.	0.1	-2.6496e-002
25817	11.308	0.90909	0.1	-0.89577
25818	11.216	1.1818	0.1	-9.7423e-003
25819	11.308	1.0909	0.1	-2.0286e-002
25820	11.216	1.3636	0.1	-7.1975e-003
25821	11.308	1.2727	0.1	-9.5013e-003
25822	11.216	1.5455	0.1	-6.1896e-003
25823	11.308	1.4545	0.1	-7.2068e-003
25824	11.216	1.7273	0.1	-5.6552e-003
25825	11.308	1.6364	0.1	-6.2284e-003
25826	11.216	1.9091	0.1	-5.3294e-003
25827	11.308	1.8182	0.1	-5.6978e-003
25828	11.216	2.0909	0.1	-5.114e-003
25829	11.308	2.	0.1	-5.3718e-003
25830	11.216	2.2727	0.1	-4.9662e-003
25831	11.308	2.1818	0.1	-5.1572e-003
25832	11.216	2.4545	0.1	-4.8651e-003
25833	11.308	2.3636	0.1	-5.0126e-003
25834	11.216	2.6364	0.1	-4.7991e-003
25835	11.308	2.5455	0.1	-4.9173e-003
25836	11.216	2.8182	0.1	-4.7608e-003
25837	11.308	2.7273	0.1	-4.8581e-003
25838	11.216	3.	0.1	-4.7481e-003
25839	11.308	2.9091	0.1	-4.8291e-003
25840	11.216	3.1818	0.1	-4.7606e-003
25841	11.308	3.0909	0.1	-4.8291e-003
25842	11.216	3.3636	0.1	-4.7988e-003
25843	11.308	3.2727	0.1	-4.8577e-003
25844	11.216	3.5455	0.1	-4.8649e-003
25845	11.308	3.4545	0.1	-4.9172e-003
25846	11.216	3.7273	0.1	-4.9659e-003
25847	11.308	3.6364	0.1	-5.0121e-003
25848	11.216	3.9091	0.1	-5.1139e-003
25849	11.308	3.8182	0.1	-5.1571e-003
25850	11.216	4.0909	0.1	-5.3289e-003
25851	11.308	4.	0.1	-5.3713e-003
25852	11.216	4.2727	0.1	-5.6547e-003
25853	11.308	4.1818	0.1	-5.6972e-003
25854	11.216	4.4545	0.1	-6.1892e-003
25855	11.308	4.3636	0.1	-6.2279e-003
25856	11.216	4.6364	0.1	-7.1965e-003
25857	11.308	4.5455	0.1	-7.2062e-003
25858	11.216	4.8182	0.1	-9.7412e-003
25859	11.308	4.7273	0.1	-9.5006e-003
25860	11.216	5.	0.1	-2.6494e-002
25861	11.308	4.9091	0.1	-2.0285e-002
25862	11.216	5.1818	0.1	-1.3388
25863	11.308	5.0909	0.1	-0.89573
25864	11.216	5.3636	0.1	-3.4503
25865	11.308	5.2727	0.1	-2.8605
25866	11.216	5.5455	0.1	-5.7039
25867	11.308	5.4545	0.1	-4.9412
25868	11.216	5.7273	0.1	-8.6881
25869	11.308	5.6364	0.1	-7.1875
25870	11.308	5.8182	0.1	-10.8
25871	11.216	5.9091	0.1	-7.2851
25872	11.4	0.27273	0.1	-9.207
25873	11.492	0.18182	0.1	-11.228
25874	11.4	9.0909e-002	0.1	-7.5511
25875	11.4	0.45455	0.1	-6.3996
25876	11.492	0.36364	0.1	-7.7742
25877	11.4	0.63636	0.1	-4.3291
25878	11.492	0.54545	0.1	-5.7072
25879	11.4	0.81818	0.1	-2.3908
25880	11.492	0.72727	0.1	-3.8002
25881	11.4	1.	0.1	-0.57846
25882	11.492	0.90909	0.1	-1.9939
25883	11.4	1.1818	0.1	-1.8087e-002
25884	11.492	1.0909	0.1	-0.33541
25885	11.4	1.3636	0.1	-9.4729e-003
25886	11.492	1.2727	0.1	-1.6719e-002
25887	11.4	1.5455	0.1	-7.2756e-003
25888	11.492	1.4545	0.1	-9.4542e-003
25889	11.4	1.7273	0.1	-6.2963e-003
25890	11.492	1.6364	0.1	-7.348e-003
25891	11.4	1.9091	0.1	-5.7566e-003
25892	11.492	1.8182	0.1	-6.3759e-003
25893	11.4	2.0909	0.1	-5.4242e-003
25894	11.492	2.	0.1	-5.8327e-003
25895	11.4	2.2727	0.1	-5.2078e-003
25896	11.492	2.1818	0.1	-5.4979e-003
25897	11.4	2.4545	0.1	-5.0656e-003
25898	11.492	2.3636	0.1	-5.2831e-003
25899	11.4	2.6364	0.1	-4.9749e-003
25900	11.492	2.5455	0.1	-5.1457e-003
25901	11.4	2.8182	0.1	-4.9238e-003
25902	11.492	2.7273	0.1	-5.0625e-003
25903	11.4	3.	0.1	-4.9071e-003
25904	11.492	2.9091	0.1	-5.0228e-003
25905	11.4	3.1818	0.1	-4.9236e-003
25906	11.492	3.0909	0.1	-5.0226e-003
25907	11.4	3.3636	0.1	-4.9747e-003
25908	11.492	3.2727	0.1	-5.0625e-003
25909	11.4	3.5455	0.1	-5.0652e-003
25910	11.492	3.4545	0.1	-5.1455e-003
25911	11.4	3.7273	0.1	-5.2076e-003
25912	11.492	3.6364	0.1	-5.2827e-003
25913	11.4	3.9091	0.1	-5.4237e-003
25914	11.492	3.8182	0.1	-5.4981e-003
25915	11.4	4.0909	0.1	-5.7559e-003
25916	11.492	4.	0.1	-5.8322e-003
25917	11.4	4.2727	0.1	-6.2956e-003
25918	11.492	4.1818	0.1	-6.3752e-003
25919	11.4	4.4545	0.1	-7.2749e-003
25920	11.492	4.3636	0.1	-7.3472e-003
25921	11.4	4.6364	0.1	-9.4726e-003
25922	11.492	4.5455	0.1	-9.4536e-003
25923	11.4	4.8182	0.1	-1.8086e-002
25924	11.492	4.7273	0.1	-1.6718e-002
25925	11.4	5.	0.1	-0.57843
25926	11.492	4.9091	0.1	-0.33538
25927	11.4	5.1818	0.1	-2.3907
25928	11.492	5.0909	0.1	-1.9939
25929	11.4	5.3636	0.1	-4.329
25930	11.492	5.2727	0.1	-3.8001
25931	11.4	5.5455	0.1	-6.3995
25932	11.492	5.4545	0.1	-5.7071
25933	11.4	5.7273	0.1	-9.2069
25934	11.492	5.6364	0.1	-7.7741
25935	11.492	5.8182	0.1	-11.228
25936	11.4	5.9091	0.1	-7.551
25937	11.584	0.27273	0.1	-9.7004
25938	11.676	0.18182	0.1	-11.637
25939	11.584	9.0909e-002	0.1	-7.8063
25940	11.584	0.45455	0.1	-7.0563
25941	11.676	0.36364	0.1	-8.33
25942	11.584	0.63636	0.1	-5.1559
25943	11.676	0.54545	0.1	-6.4295
25944	11.584	0.81818	0.1	-3.3807
25945	11.676	0.72727	0.1	-4.6841
25946	11.584	1.	0.1	-1.707
25947	11.676	0.90909	0.1	-3.0312
25948	11.584	1.1818	0.1	-0.21288
25949	11.676	1.0909	0.1	-1.4802
25950	11.584	1.3636	0.1	-1.6438e-002
25951	11.676	1.2727	0.1	-0.14669
25952	11.584	1.5455	0.1	-9.5986e-003
25953	11.676	1.4545	0.1	-1.6298e-002
25954	11.584	1.7273	0.1	-7.4793e-003
25955	11.676	1.6364	0.1	-9.7197e-003
25956	11.584	1.9091	0.1	-6.4818e-003
25957	11.676	1.8182	0.1	-7.5862e-003
25958	11.584	2.0909	0.1	-5.9217e-003
25959	11.676	2.	0.1	-6.5686e-003
25960	11.584	2.2727	0.1	-5.5793e-003
25961	11.676	2.1818	0.1	-5.9968e-003
25962	11.584	2.4545	0.1	-5.3635e-003
25963	11.676	2.3636	0.1	-5.6506e-003
25964	11.584	2.6364	0.1	-5.23e-003
25965	11.676	2.5455	0.1	-5.4379e-003
25966	11.584	2.8182	0.1	-5.1562e-003
25967	11.676	2.7273	0.1	-5.3124e-003
25968	11.584	3.	0.1	-5.1324e-003
25969	11.676	2.9091	0.1	-5.2538e-003
25970	11.584	3.1818	0.1	-5.1562e-003
25971	11.676	3.0909	0.1	-5.2539e-003
25972	11.584	3.3636	0.1	-5.2299e-003
25973	11.676	3.2727	0.1	-5.3124e-003
25974	11.584	3.5455	0.1	-5.3632e-003
25975	11.676	3.4545	0.1	-5.4375e-003
25976	11.584	3.7273	0.1	-5.5792e-003
25977	11.676	3.6364	0.1	-5.6503e-003
25978	11.584	3.9091	0.1	-5.9218e-003
25979	11.676	3.8182	0.1	-5.9966e-003
25980	11.584	4.0909	0.1	-6.4812e-003
25981	11.676	4.	0.1	-6.5683e-003
25982	11.584	4.2727	0.1	-7.4785e-003
25983	11.676	4.1818	0.1	-7.5855e-003
25984	11.584	4.4545	0.1	-9.5979e-003
25985	11.676	4.3636	0.1	-9.7191e-003
25986	11.584	4.6364	0.1	-1.6437e-002
25987	11.676	4.5455	0.1	-1.6297e-002
25988	11.584	4.8182	0.1	-0.21286
25989	11.676	4.7273	0.1	-0.14668
25990	11.584	5.	0.1	-1.707
25991	11.676	4.9091	0.1	-1.4801
25992	11.584	5.1818	0.1	-3.3807
25993	11.676	5.0909	0.1	-3.0312
25994	11.584	5.3636	0.1	-5.1558
25995	11.676	5.2727	0.1	-4.6841
25996	11.584	5.5455	0.1	-7.0562
25997	11.676	5.4545	0.1	-6.4295
25998	11.584	5.7273	0.1	-9.7004
25999	11.676	5.6364	0.1	-8.3299
26000	11.676	5.8182	0.1	-11.637
26001	11.584	5.9091	0.1	-7.8063
26002	11.768	0.27273	0.1	-10.17
26003	11.86	0.18182	0.1	-12.029
26004	11.768	9.0909e-002	0.1	-8.0517
26005	11.768	0.45455	0.1	-7.6774
26006	11.86	0.36364	0.1	-8.8576
26007	11.768	0.63636	0.1	-5.9351
26008	11.86	0.54545	0.1	-7.112
26009	11.768	0.81818	0.1	-4.3123
26010	11.86	0.72727	0.1	-5.5172
26011	11.768	1.	0.1	-2.7815
26012	11.86	0.90909	0.1	-4.008
26013	11.768	1.1818	0.1	-1.3536
26014	11.86	1.0909	0.1	-2.5902
26015	11.768	1.3636	0.1	-0.14235
26016	11.86	1.2727	0.1	-1.2757
26017	11.768	1.5455	0.1	-1.6996e-002
26018	11.86	1.4545	0.1	-0.1584
26019	11.768	1.7273	0.1	-1.0023e-002
26020	11.86	1.6364	0.1	-1.7927e-002
26021	11.768	1.9091	0.1	-7.7581e-003
26022	11.86	1.8182	0.1	-1.0303e-002
26023	11.768	2.0909	0.1	-6.6817e-003
26024	11.86	2.	0.1	-7.8764e-003
26025	11.768	2.2727	0.1	-6.0825e-003
26026	11.86	2.1818	0.1	-6.7371e-003
26027	11.768	2.4545	0.1	-5.7265e-003
26028	11.86	2.3636	0.1	-6.1126e-003
26029	11.768	2.6364	0.1	-5.5145e-003
26030	11.86	2.5455	0.1	-5.7511e-003
26031	11.768	2.8182	0.1	-5.4005e-003
26032	11.86	2.7273	0.1	-5.5464e-003
26033	11.768	3.	0.1	-5.3646e-003
26034	11.86	2.9091	0.1	-5.4532e-003
26035	11.768	3.1818	0.1	-5.4006e-003
26036	11.86	3.0909	0.1	-5.4531e-003
26037	11.768	3.3636	0.1	-5.5142e-003
26038	11.86	3.2727	0.1	-5.5463e-003
26039	11.768	3.5455	0.1	-5.7261e-003
26040	11.86	3.4545	0.1	-5.7508e-003
26041	11.768	3.7273	0.1	-6.0821e-003
26042	11.86	3.6364	0.1	-6.1123e-003
26043	11.768	3.9091	0.1	-6.6813e-003
26044	11.86	3.8182	0.1	-6.7366e-003
26045	11.768	4.0909	0.1	-7.7577e-003
26046	11.86	4.	0.1	-7.8757e-003
26047	11.768	4.2727	0.1	-1.0023e-002
26048	11.86	4.1818	0.1	-1.0303e-002
26049	11.768	4.4545	0.1	-1.6995e-002
26050	11.86	4.3636	0.1	-1.7926e-002
26051	11.768	4.6364	0.1	-0.14234
26052	11.86	4.5455	0.1	-0.15838
26053	11.768	4.8182	0.1	-1.3536
26054	11.86	4.7273	0.1	-1.2757
26055	11.768	5.	0.1	-2.7815
26056	11.86	4.9091	0.1	-2.5902
26057	11.768	5.1818	0.1	-4.3123
26058	11.86	5.0909	0.1	-4.008
26059	11.768	5.3636	0.1	-5.9351
26060	11.86	5.2727	0.1	-5.5171
26061	11.768	5.5455	0.1	-7.6773
26062	11.86	5.4545	0.1	-7.1119
26063	11.768	5.7273	0.1	-10.17
26064	11.86	5.6364	0.1	-8.8575
26065	11.86	5.8182	0.1	-12.029
26066	11.768	5.9091	0.1	-8.0516
26067	11.952	0.27273	0.1	-10.619
26068	12.044	0.18182	0.1	-12.406
26069	11.952	9.0909e-002	0.1	-8.2879
26070	11.952	0.45455	0.1	-8.266
26071	12.044	0.36364	0.1	-9.3595
26072	11.952	0.63636	0.1	-6.671
26073	12.044	0.54545	0.1	-7.7581
26074	11.952	0.81818	0.1	-5.1904
26075	12.044	0.72727	0.1	-6.3038
26076	11.952	1.	0.1	-3.7944
26077	12.044	0.90909	0.1	-4.9291
26078	11.952	1.1818	0.1	-2.4902
26079	12.044	1.0909	0.1	-3.6382
26080	11.952	1.3636	0.1	-1.2883
26081	12.044	1.2727	0.1	-2.4389
26082	11.952	1.5455	0.1	-0.24072
26083	12.044	1.4545	0.1	-1.3406
26084	11.952	1.7273	0.1	-2.0509e-002
26085	12.044	1.6364	0.1	-0.37008
26086	11.952	1.9091	0.1	-1.0891e-002
26087	12.044	1.8182	0.1	-2.5402e-002
26088	11.952	2.0909	0.1	-8.0904e-003
26089	12.044	2.	0.1	-1.1698e-002
26090	11.952	2.2727	0.1	-6.8242e-003
26091	12.044	2.1818	0.1	-8.3199e-003
26092	11.952	2.4545	0.1	-6.1512e-003
26093	12.044	2.3636	0.1	-6.8846e-003
26094	11.952	2.6364	0.1	-5.7763e-003
26095	12.044	2.5455	0.1	-6.1555e-003
26096	11.952	2.8182	0.1	-5.5827e-003
26097	12.044	2.7273	0.1	-5.7728e-003
26098	11.952	3.	0.1	-5.5224e-003
26099	12.044	2.9091	0.1	-5.6053e-003
26100	11.952	3.1818	0.1	-5.5823e-003
26101	12.044	3.0909	0.1	-5.6049e-003
26102	11.952	3.3636	0.1	-5.7762e-003
26103	12.044	3.2727	0.1	-5.7728e-003
26104	11.952	3.5455	0.1	-6.151e-003
26105	12.044	3.4545	0.1	-6.1553e-003
26106	11.952	3.7273	0.1	-6.8239e-003
26107	12.044	3.6364	0.1	-6.8844e-003
26108	11.952	3.9091	0.1	-8.0897e-003
26109	12.044	3.8182	0.1	-8.3196e-003
26110	11.952	4.0909	0.1	-1.0891e-002
26111	12.044	4.	0.1	-1.1697e-002
26112	11.952	4.2727	0.1	-2.0508e-002
26113	12.044	4.1818	0.1	-2.54e-002
26114	11.952	4.4545	0.1	-0.2407
26115	12.044	4.3636	0.1	-0.37006
26116	11.952	4.6364	0.1	-1.2883
26117	12.044	4.5455	0.1	-1.3405
26118	11.952	4.8182	0.1	-2.4902
26119	12.044	4.7273	0.1	-2.4388
26120	11.952	5.	0.1	-3.7944
26121	12.044	4.9091	0.1	-3.6381
26122	11.952	5.1818	0.1	-5.1903
26123	12.044	5.0909	0.1	-4.9291
26124	11.952	5.3636	0.1	-6.671
26125	12.044	5.2727	0.1	-6.3037
26126	11.952	5.5455	0.1	-8.2659
26127	12.044	5.4545	0.1	-7.758
26128	11.952	5.7273	0.1	-10.619
26129	12.044	5.6364	0.1	-9.3594
26130	12.044	5.8182	0.1	-12.406
26131	11.952	5.9091	0.1	-8.2879
26132	12.135	0.27273	0.1	-11.048
26133	12.227	0.18182	0.1	-12.77
26134	12.135	9.0909e-002	0.1	-8.5159
26135	12.135	0.45455	0.1	-8.825
26136	12.227	0.36364	0.1	-9.8382
26137	12.135	0.63636	0.1	-7.3676
26138	12.227	0.54545	0.1	-8.3715
26139	12.135	0.81818	0.1	-6.0197
26140	12.227	0.72727	0.1	-7.0485
26141	12.135	1.	0.1	-4.7503
26142	12.227	0.90909	0.1	-5.7998
26143	12.135	1.1818	0.1	-3.5647
26144	12.227	1.0909	0.1	-4.6281
26145	12.135	1.3636	0.1	-2.47
26146	12.227	1.2727	0.1	-3.5399
26147	12.135	1.5455	0.1	-1.474
26148	12.227	1.4545	0.1	-2.5419
26149	12.135	1.7273	0.1	-0.5896
26150	12.227	1.6364	0.1	-1.6404
26151	12.135	1.9091	0.1	-4.5132e-002
26152	12.227	1.8182	0.1	-0.84293
26153	12.135	2.0909	0.1	-1.3634e-002
26154	12.227	2.	0.1	-0.18349
26155	12.135	2.2727	0.1	-8.802e-003
26156	12.227	2.1818	0.1	-1.896e-002
26157	12.135	2.4545	0.1	-7.0079e-003
26158	12.227	2.3636	0.1	-9.7606e-003
26159	12.135	2.6364	0.1	-6.1665e-003
26160	12.227	2.5455	0.1	-7.2272e-003
26161	12.135	2.8182	0.1	-5.7694e-003
26162	12.227	2.7273	0.1	-6.198e-003
26163	12.135	3.	0.1	-5.6509e-003
26164	12.227	2.9091	0.1	-5.7966e-003
26165	12.135	3.1818	0.1	-5.7695e-003
26166	12.227	3.0909	0.1	-5.7967e-003
26167	12.135	3.3636	0.1	-6.1665e-003
26168	12.227	3.2727	0.1	-6.1981e-003
26169	12.135	3.5455	0.1	-7.0078e-003
26170	12.227	3.4545	0.1	-7.227e-003
26171	12.135	3.7273	0.1	-8.8019e-003
26172	12.227	3.6364	0.1	-9.7606e-003
26173	12.135	3.9091	0.1	-1.3633e-002
26174	12.227	3.8182	0.1	-1.896e-002
26175	12.135	4.0909	0.1	-4.513e-002
26176	12.227	4.	0.1	-0.18347
26177	12.135	4.2727	0.1	-0.58958
26178	12.227	4.1818	0.1	-0.84291
26179	12.135	4.4545	0.1	-1.474
26180	12.227	4.3636	0.1	-1.6404
26181	12.135	4.6364	0.1	-2.47
26182	12.227	4.5455	0.1	-2.5419
26183	12.135	4.8182	0.1	-3.5646
26184	12.227	4.7273	0.1	-3.5399
26185	12.135	5.	0.1	-4.7503
26186	12.227	4.9091	0.1	-4.628
26187	12.135	5.1818	0.1	-6.0197
26188	12.227	5.0909	0.1	-5.7997
26189	12.135	5.3636	0.1	-7.3675
26190	12.227	5.2727	0.1	-7.0484
26191	12.135	5.5455	0.1	-8.825
26192	12.227	5.4545	0.1	-8.3714
26193	12.135	5.7273	0.1	-11.048
26194	12.227	5.6364	0.1	-9.8381
26195	12.227	5.8182	0.1	-12.77
26196	12.135	5.9091	0.1	-8.5159
26197	12.319	0.27273	0.1	-11.46
26198	12.411	0.18182	0.1	-13.121
26199	12.319	9.0909e-002	0.1	-8.7366
26200	12.319	0.45455	0.1	-9.3577
26201	12.411	0.36364	0.1	-10.296
26202	12.319	0.63636	0.1	-8.0288
26203	12.411	0.54545	0.1	-8.9554
26204	12.319	0.81818	0.1	-6.8054
26205	12.411	0.72727	0.1	-7.7554
26206	12.319	1.	0.1	-5.6547
26207	12.411	0.90909	0.1	-6.6249
26208	12.319	1.1818	0.1	-4.5808
26209	12.411	1.0909	0.1	-5.5653
26210	12.319	1.3636	0.1	-3.5897
26211	12.411	1.2727	0.1	-4.5822
26212	12.319	1.5455	0.1	-2.6872
26213	12.411	1.4545	0.1	-3.681
26214	12.319	1.7273	0.1	-1.8786
26215	12.411	1.6364	0.1	-2.8667
26216	12.319	1.9091	0.1	-1.169
26217	12.411	1.8182	0.1	-2.1439
26218	12.319	2.0909	0.1	-0.56476
26219	12.411	2.	0.1	-1.5167
26220	12.319	2.2727	0.1	-0.10202
26221	12.411	2.1818	0.1	-0.98862
26222	12.319	2.4545	0.1	-1.4058e-002
26223	12.411	2.3636	0.1	-0.56288
26224	12.319	2.6364	0.1	-7.9076e-003
26225	12.411	2.5455	0.1	-0.24263
26226	12.319	2.8182	0.1	-6.2583e-003
26227	12.411	2.7273	0.1	-4.0556e-002
26228	12.319	3.	0.1	-5.8533e-003
26229	12.411	2.9091	0.1	-6.8574e-003
26230	12.319	3.1818	0.1	-6.2584e-003
26231	12.411	3.0909	0.1	-6.8573e-003
26232	12.319	3.3636	0.1	-7.9075e-003
26233	12.411	3.2727	0.1	-4.0552e-002
26234	12.319	3.5455	0.1	-1.4058e-002
26235	12.411	3.4545	0.1	-0.24262
26236	12.319	3.7273	0.1	-0.10201
26237	12.411	3.6364	0.1	-0.56287
26238	12.319	3.9091	0.1	-0.56474
26239	12.411	3.8182	0.1	-0.98861
26240	12.319	4.0909	0.1	-1.169
26241	12.411	4.	0.1	-1.5167
26242	12.319	4.2727	0.1	-1.8786
26243	12.411	4.1818	0.1	-2.1439
26244	12.319	4.4545	0.1	-2.6872
26245	12.411	4.3636	0.1	-2.8666
26246	12.319	4.6364	0.1	-3.5897
26247	12.411	4.5455	0.1	-3.6809
26248	12.319	4.8182	0.1	-4.5807
26249	12.411	4.7273	0.1	-4.5822
26250	12.319	5.	0.1	-5.6546
26251	12.411	4.9091	0.1	-5.5653
26252	12.319	5.1818	0.1	-6.8053
26253	12.411	5.0909	0.1	-6.6249
26254	12.319	5.3636	0.1	-8.0287
26255	12.411	5.2727	0.1	-7.7554
26256	12.319	5.5455	0.1	-9.3576
26257	12.411	5.4545	0.1	-8.9553
26258	12.319	5.7273	0.1	-11.46
26259	12.411	5.6364	0.1	-10.296
26260	12.411	5.8182	0.1	-13.121
26261	12.319	5.9091	0.1	-8.7365
26262	12.503	0.27273	0.1	-11.856
26263	12.595	0.18182	0.1	-13.461
26264	12.503	9.0909e-002	0.1	-8.9505
26265	12.503	0.45455	0.1	-9.8663
26266	12.595	0.36364	0.1	-10.735
26267	12.503	0.63636	0.1	-8.658
26268	12.595	0.54545	0.1	-9.5126
26269	12.503	0.81818	0.1	-7.5515
26270	12.595	0.72727	0.1	-8.4285
26271	12.503	1.	0.1	-6.5124
26272	12.595	0.90909	0.1	-7.4092
26273	12.503	1.1818	0.1	-5.5438
26274	12.595	1.0909	0.1	-6.4552
26275	12.503	1.3636	0.1	-4.6508
26276	12.595	1.2727	0.1	-5.5712
26277	12.503	1.5455	0.1	-3.8381
26278	12.595	1.4545	0.1	-4.7616
26279	12.503	1.7273	0.1	-3.1102
26280	12.595	1.6364	0.1	-4.0308
26281	12.503	1.9091	0.1	-2.4709
26282	12.595	1.8182	0.1	-3.3825
26283	12.503	2.0909	0.1	-1.9238
26284	12.595	2.	0.1	-2.8201
26285	12.503	2.2727	0.1	-1.4717
26286	12.595	2.1818	0.1	-2.3466
26287	12.503	2.4545	0.1	-1.117
26288	12.595	2.3636	0.1	-1.9645
26289	12.503	2.6364	0.1	-0.86177
26290	12.595	2.5455	0.1	-1.6758
26291	12.503	2.8182	0.1	-0.70761
26292	12.595	2.7273	0.1	-1.4823
26293	12.503	3.	0.1	-0.65601
26294	12.595	2.9091	0.1	-1.3852
26295	12.503	3.1818	0.1	-0.70761
26296	12.595	3.0909	0.1	-1.3852
26297	12.503	3.3636	0.1	-0.86176
26298	12.595	3.2727	0.1	-1.4823
26299	12.503	3.5455	0.1	-1.117
26300	12.595	3.4545	0.1	-1.6758
26301	12.503	3.7273	0.1	-1.4717
26302	12.595	3.6364	0.1	-1.9644
26303	12.503	3.9091	0.1	-1.9238
26304	12.595	3.8182	0.1	-2.3466
26305	12.503	4.0909	0.1	-2.4709
26306	12.595	4.	0.1	-2.8201
26307	12.503	4.2727	0.1	-3.1102
26308	12.595	4.1818	0.1	-3.3825
26309	12.503	4.4545	0.1	-3.8381
26310	12.595	4.3636	0.1	-4.0308
26311	12.503	4.6364	0.1	-4.6507
26312	12.595	4.5455	0.1	-4.7616
26313	12.503	4.8182	0.1	-5.5437
26314	12.595	4.7273	0.1	-5.5711
26315	12.503	5.	0.1	-6.5123
26316	12.595	4.9091	0.1	-6.4552
26317	12.503	5.1818	0.1	-7.5514
26318	12.595	5.0909	0.1	-7.4091
26319	12.503	5.3636	0.1	-8.658
26320	12.595	5.2727	0.1	-8.4284
26321	12.503	5.5455	0.1	-9.8663
26322	12.595	5.4545	0.1	-9.5126
26323	12.503	5.7273	0.1	-11.856
26324	12.595	5.6364	0.1	-10.735
26325	12.595	5.8182	0.1	-13.461
26326	12.503	5.9091	0.1	-8.9505
26327	12.687	0.27273	0.1	-12.237
26328	12.779	0.18182	0.1	-13.791
26329	12.687	9.0909e-002	0.1	-9.1584
26330	12.687	0.45455	0.1	-10.353
26331	12.779	0.36364	0.1	-11.157
26332	12.687	0.63636	0.1	-9.2587
26333	12.779	0.54545	0.1	-10.046
26334	12.687	0.81818	0.1	-8.2623
26335	12.779	0.72727	0.1	-9.0712
26336	12.687	1.	0.1	-7.3284
26337	12.779	0.90909	0.1	-8.157
26338	12.687	1.1818	0.1	-6.4592
26339	12.779	1.0909	0.1	-7.3028
26340	12.687	1.3636	0.1	-5.6589
26341	12.779	1.2727	0.1	-6.5126
26342	12.687	1.5455	0.1	-4.9314
26343	12.779	1.4545	0.1	-5.7899
26344	12.687	1.7273	0.1	-4.2805
26345	12.779	1.6364	0.1	-5.1383
26346	12.687	1.9091	0.1	-3.7093
26347	12.779	1.8182	0.1	-4.5609
26348	12.687	2.0909	0.1	-3.2208
26349	12.779	2.	0.1	-4.0605
26350	12.687	2.2727	0.1	-2.8174
26351	12.779	2.1818	0.1	-3.6396
26352	12.687	2.4545	0.1	-2.5014
26353	12.779	2.3636	0.1	-3.3002
26354	12.687	2.6364	0.1	-2.2744
26355	12.779	2.5455	0.1	-3.0441
26356	12.687	2.8182	0.1	-2.1376
26357	12.779	2.7273	0.1	-2.8726
26358	12.687	3.	0.1	-2.0919
26359	12.779	2.9091	0.1	-2.7866
26360	12.687	3.1818	0.1	-2.1376
26361	12.779	3.0909	0.1	-2.7866
26362	12.687	3.3636	0.1	-2.2743
26363	12.779	3.2727	0.1	-2.8726
26364	12.687	3.5455	0.1	-2.5014
26365	12.779	3.4545	0.1	-3.0441
26366	12.687	3.7273	0.1	-2.8174
26367	12.779	3.6364	0.1	-3.3002
26368	12.687	3.9091	0.1	-3.2208
26369	12.779	3.8182	0.1	-3.6396
26370	12.687	4.0909	0.1	-3.7093
26371	12.779	4.	0.1	-4.0605
26372	12.687	4.2727	0.1	-4.2804
26373	12.779	4.1818	0.1	-4.5609
26374	12.687	4.4545	0.1	-4.9314
26375	12.779	4.3636	0.1	-5.1383
26376	12.687	4.6364	0.1	-5.6589
26377	12.779	4.5455	0.1	-5.7899
26378	12.687	4.8182	0.1	-6.4592
26379	12.779	4.7273	0.1	-6.5125
26380	12.687	5.	0.1	-7.3284
26381	12.779	4.9091	0.1	-7.3028
26382	12.687	5.1818	0.1	-8.2622
26383	12.779	5.0909	0.1	-8.1569
26384	12.687	5.3636	0.1	-9.2587
26385	12.779	5.2727	0.1	-9.0711
26386	12.687	5.5455	0.1	-10.353
26387	12.779	5.4545	0.1	-10.046
26388	12.687	5.7273	0.1	-12.237
26389	12.779	5.6364	0.1	-11.157
26390	12.779	5.8182	0.1	-13.791
26391	12.687	5.9091	0.1	-9.1583
26392	12.871	0.27273	0.1	-12.606
26393	12.963	0.18182	0.1	-14.111
26394	12.871	9.0909e-002	0.1	-9.3608
26395	12.871	0.45455	0.1	-10.821
26396	12.963	0.36364	0.1	-11.564
26397	12.871	0.63636	0.1	-9.834
26398	12.963	0.54545	0.1	-10.559
26399	12.871	0.81818	0.1	-8.9417
26400	12.963	0.72727	0.1	-9.6872
26401	12.871	1.	0.1	-8.1074
26402	12.963	0.90909	0.1	-8.8726
26403	12.871	1.1818	0.1	-7.3324
26404	12.963	1.0909	0.1	-8.1132
26405	12.871	1.3636	0.1	-6.62
26406	12.963	1.2727	0.1	-7.412
26407	12.871	1.5455	0.1	-5.9734
26408	12.963	1.4545	0.1	-6.7719
26409	12.871	1.7273	0.1	-5.3956
26410	12.963	1.6364	0.1	-6.1957
26411	12.871	1.9091	0.1	-4.8892
26412	12.963	1.8182	0.1	-5.6858
26413	12.871	2.0909	0.1	-4.4565
26414	12.963	2.	0.1	-5.2445
26415	12.871	2.2727	0.1	-4.0996
26416	12.963	2.1818	0.1	-4.8736
26417	12.871	2.4545	0.1	-3.8202
26418	12.963	2.3636	0.1	-4.5748
26419	12.871	2.6364	0.1	-3.6196
26420	12.963	2.5455	0.1	-4.3496
26421	12.871	2.8182	0.1	-3.4989
26422	12.963	2.7273	0.1	-4.1988
26423	12.871	3.	0.1	-3.4586
26424	12.963	2.9091	0.1	-4.1233
26425	12.871	3.1818	0.1	-3.4989
26426	12.963	3.0909	0.1	-4.1233
26427	12.871	3.3636	0.1	-3.6196
26428	12.963	3.2727	0.1	-4.1988
26429	12.871	3.5455	0.1	-3.8202
26430	12.963	3.4545	0.1	-4.3496
26431	12.871	3.7273	0.1	-4.0996
26432	12.963	3.6364	0.1	-4.5748
26433	12.871	3.9091	0.1	-4.4565
26434	12.963	3.8182	0.1	-4.8736
26435	12.871	4.0909	0.1	-4.8891
26436	12.963	4.	0.1	-5.2444
26437	12.871	4.2727	0.1	-5.3956
26438	12.963	4.1818	0.1	-5.6858
26439	12.871	4.4545	0.1	-5.9734
26440	12.963	4.3636	0.1	-6.1957
26441	12.871	4.6364	0.1	-6.62
26442	12.963	4.5455	0.1	-6.7719
26443	12.871	4.8182	0.1	-7.3324
26444	12.963	4.7273	0.1	-7.412
26445	12.871	5.	0.1	-8.1074
26446	12.963	4.9091	0.1	-8.1132
26447	12.871	5.1818	0.1	-8.9416
26448	12.963	5.0909	0.1	-8.8725
26449	12.871	5.3636	0.1	-9.8339
26450	12.963	5.2727	0.1	-9.6871
26451	12.871	5.5455	0.1	-10.821
26452	12.963	5.4545	0.1	-10.559
26453	12.871	5.7273	0.1	-12.606
26454	12.963	5.6364	0.1	-11.564
26455	12.963	5.8182	0.1	-14.111
26456	12.871	5.9091	0.1	-9.3607
26457	13.055	0.27273	0.1	-12.964
26458	13.147	0.18182	0.1	-14.424
26459	13.055	9.0909e-002	0.1	-9.5583
26460	13.055	0.45455	0.1	-11.273
26461	13.147	0.36364	0.1	-11.958
26462	13.055	0.63636	0.1	-10.387
26463	13.147	0.54545	0.1	-11.053
26464	13.055	0.81818	0.1	-9.5935
26465	13.147	0.72727	0.1	-10.28
26466	13.055	1.	0.1	-8.854
26467	13.147	0.90909	0.1	-9.5601
26468	13.055	1.1818	0.1	-8.1686
26469	13.147	1.0909	0.1	-8.8911
26470	13.055	1.3636	0.1	-7.5399
26471	13.147	1.2727	0.1	-8.2749
26472	13.055	1.5455	0.1	-6.9704
26473	13.147	1.4545	0.1	-7.7137
26474	13.055	1.7273	0.1	-6.4623
26475	13.147	1.6364	0.1	-7.2094
26476	13.055	1.9091	0.1	-6.0176
26477	13.147	1.8182	0.1	-6.764
26478	13.055	2.0909	0.1	-5.6382
26479	13.147	2.	0.1	-6.3791
26480	13.055	2.2727	0.1	-5.3255
26481	13.147	2.1818	0.1	-6.0561
26482	13.055	2.4545	0.1	-5.081
26483	13.147	2.3636	0.1	-5.7962
26484	13.055	2.6364	0.1	-4.9056
26485	13.147	2.5455	0.1	-5.6003
26486	13.055	2.8182	0.1	-4.8
26487	13.147	2.7273	0.1	-5.4694
26488	13.055	3.	0.1	-4.7648
26489	13.147	2.9091	0.1	-5.4037
26490	13.055	3.1818	0.1	-4.8
26491	13.147	3.0909	0.1	-5.4037
26492	13.055	3.3636	0.1	-4.9056
26493	13.147	3.2727	0.1	-5.4694
26494	13.055	3.5455	0.1	-5.081
26495	13.147	3.4545	0.1	-5.6003
26496	13.055	3.7273	0.1	-5.3255
26497	13.147	3.6364	0.1	-5.7961
26498	13.055	3.9091	0.1	-5.6381
26499	13.147	3.8182	0.1	-6.0561
26500	13.055	4.0909	0.1	-6.0176
26501	13.147	4.	0.1	-6.3791
26502	13.055	4.2727	0.1	-6.4622
26503	13.147	4.1818	0.1	-6.764
26504	13.055	4.4545	0.1	-6.9704
26505	13.147	4.3636	0.1	-7.2094
26506	13.055	4.6364	0.1	-7.5399
26507	13.147	4.5455	0.1	-7.7137
26508	13.055	4.8182	0.1	-8.1686
26509	13.147	4.7273	0.1	-8.2749
26510	13.055	5.	0.1	-8.8539
26511	13.147	4.9091	0.1	-8.8911
26512	13.055	5.1818	0.1	-9.5934
26513	13.147	5.0909	0.1	-9.5601
26514	13.055	5.3636	0.1	-10.387
26515	13.147	5.2727	0.1	-10.28
26516	13.055	5.5455	0.1	-11.273
26517	13.147	5.4545	0.1	-11.053
26518	13.055	5.7273	0.1	-12.964
26519	13.147	5.6364	0.1	-11.958
26520	13.147	5.8182	0.1	-14.424
26521	13.055	5.9091	0.1	-9.5583
26522	13.239	0.27273	0.1	-13.311
26523	13.331	0.18182	0.1	-14.729
26524	13.239	9.0909e-002	0.1	-9.7517
26525	13.239	0.45455	0.1	-11.709
26526	13.331	0.36364	0.1	-12.34
26527	13.239	0.63636	0.1	-10.92
26528	13.331	0.54545	0.1	-11.531
26529	13.239	0.81818	0.1	-10.221
26530	13.331	0.72727	0.1	-10.852
26531	13.239	1.	0.1	-9.5725
26532	13.331	0.90909	0.1	-10.223
26533	13.239	1.1818	0.1	-8.9729
26534	13.331	1.0909	0.1	-9.6411
26535	13.239	1.3636	0.1	-8.4243
26536	13.331	1.2727	0.1	-9.1064
26537	13.239	1.5455	0.1	-7.9285
26538	13.331	1.4545	0.1	-8.6209
26539	13.239	1.7273	0.1	-7.4872
26540	13.331	1.6364	0.1	-8.1858
26541	13.239	1.9091	0.1	-7.1016
26542	13.331	1.8182	0.1	-7.8023
26543	13.239	2.0909	0.1	-6.7732
26544	13.331	2.	0.1	-7.4716
26545	13.239	2.2727	0.1	-6.503
26546	13.331	2.1818	0.1	-7.1945
26547	13.239	2.4545	0.1	-6.2918
26548	13.331	2.3636	0.1	-6.9719
26549	13.239	2.6364	0.1	-6.1405
26550	13.331	2.5455	0.1	-6.8043
26551	13.239	2.8182	0.1	-6.0495
26552	13.331	2.7273	0.1	-6.6923
26553	13.239	3.	0.1	-6.0191
26554	13.331	2.9091	0.1	-6.6363
26555	13.239	3.1818	0.1	-6.0495
26556	13.331	3.0909	0.1	-6.6363
26557	13.239	3.3636	0.1	-6.1405
26558	13.331	3.2727	0.1	-6.6923
26559	13.239	3.5455	0.1	-6.2918
26560	13.331	3.4545	0.1	-6.8043
26561	13.239	3.7273	0.1	-6.503
26562	13.331	3.6364	0.1	-6.9718
26563	13.239	3.9091	0.1	-6.7732
26564	13.331	3.8182	0.1	-7.1945
26565	13.239	4.0909	0.1	-7.1016
26566	13.331	4.	0.1	-7.4716
26567	13.239	4.2727	0.1	-7.4871
26568	13.331	4.1818	0.1	-7.8023
26569	13.239	4.4545	0.1	-7.9285
26570	13.331	4.3636	0.1	-8.1857
26571	13.239	4.6364	0.1	-8.4243
26572	13.331	4.5455	0.1	-8.6208
26573	13.239	4.8182	0.1	-8.9728
26574	13.331	4.7273	0.1	-9.1064
26575	13.239	5.	0.1	-9.5725
26576	13.331	4.9091	0.1	-9.6411
26577	13.239	5.1818	0.1	-10.221
26578	13.331	5.0909	0.1	-10.223
26579	13.239	5.3636	0.1	-10.92
26580	13.331	5.2727	0.1	-10.852
26581	13.239	5.5455	0.1	-11.709
26582	13.331	5.4545	0.1	-11.531
26583	13.239	5.7273	0.1	-13.311
26584	13.331	5.6364	0.1	-12.34
26585	13.331	5.8182	0.1	-14.729
26586	13.239	5.9091	0.1	-9.7516
26587	13.423	0.27273	0.1	-13.65
26588	13.515	0.18182	0.1	-15.029
26589	13.423	9.0909e-002	0.1	-9.9413
26590	13.423	0.45455	0.1	-12.133
26591	13.515	0.36364	0.1	-12.712
26592	13.423	0.63636	0.1	-11.437
26593	13.515	0.54545	0.1	-11.996
26594	13.423	0.81818	0.1	-10.829
26595	13.515	0.72727	0.1	-11.407
26596	13.423	1.	0.1	-10.267
26597	13.515	0.90909	0.1	-10.866
26598	13.423	1.1818	0.1	-9.7497
26599	13.515	1.0909	0.1	-10.367
26600	13.423	1.3636	0.1	-9.2783
26601	13.515	1.2727	0.1	-9.9114
26602	13.423	1.5455	0.1	-8.8535
26603	13.515	1.4545	0.1	-9.4989
26604	13.423	1.7273	0.1	-8.4765
26605	13.515	1.6364	0.1	-9.1306
26606	13.423	1.9091	0.1	-8.1479
26607	13.515	1.8182	0.1	-8.807
26608	13.423	2.0909	0.1	-7.8686
26609	13.515	2.	0.1	-8.5286
26610	13.423	2.2727	0.1	-7.6392
26611	13.515	2.1818	0.1	-8.2959
26612	13.423	2.4545	0.1	-7.4603
26613	13.515	2.3636	0.1	-8.1093
26614	13.423	2.6364	0.1	-7.3321
26615	13.515	2.5455	0.1	-7.9691
26616	13.423	2.8182	0.1	-7.2551
26617	13.515	2.7273	0.1	-7.8755
26618	13.423	3.	0.1	-7.2294
26619	13.515	2.9091	0.1	-7.8286
26620	13.423	3.1818	0.1	-7.2551
26621	13.515	3.0909	0.1	-7.8286
26622	13.423	3.3636	0.1	-7.3321
26623	13.515	3.2727	0.1	-7.8755
26624	13.423	3.5455	0.1	-7.4603
26625	13.515	3.4545	0.1	-7.9691
26626	13.423	3.7273	0.1	-7.6392
26627	13.515	3.6364	0.1	-8.1093
26628	13.423	3.9091	0.1	-7.8686
26629	13.515	3.8182	0.1	-8.2959
26630	13.423	4.0909	0.1	-8.1479
26631	13.515	4.	0.1	-8.5286
26632	13.423	4.2727	0.1	-8.4764
26633	13.515	4.1818	0.1	-8.8069
26634	13.423	4.4545	0.1	-8.8535
26635	13.515	4.3636	0.1	-9.1305
26636	13.423	4.6364	0.1	-9.2782
26637	13.515	4.5455	0.1	-9.4989
26638	13.423	4.8182	0.1	-9.7497
26639	13.515	4.7273	0.1	-9.9114
26640	13.423	5.	0.1	-10.267
26641	13.515	4.9091	0.1	-10.367
26642	13.423	5.1818	0.1	-10.829
26643	13.515	5.0909	0.1	-10.866
26644	13.423	5.3636	0.1	-11.437
26645	13.515	5.2727	0.1	-11.407
26646	13.423	5.5455	0.1	-12.133
26647	13.515	5.4545	0.1	-11.995
26648	13.423	5.7273	0.1	-13.65
26649	13.515	5.6364	0.1	-12.712
26650	13.515	5.8182	0.1	-15.029
26651	13.423	5.9091	0.1	-9.9412
26652	13.606	0.27273	0.1	-13.982
26653	13.698	0.18182	0.1	-15.322
26654	13.606	9.0909e-002	0.1	-10.128
26655	13.606	0.45455	0.1	-12.546
26656	13.698	0.36364	0.1	-13.076
26657	13.606	0.63636	0.1	-11.94
26658	13.698	0.54545	0.1	-12.449
26659	13.606	0.81818	0.1	-11.419
26660	13.698	0.72727	0.1	-11.948
26661	13.606	1.	0.1	-10.941
26662	13.698	0.90909	0.1	-11.492
26663	13.606	1.1818	0.1	-10.504
26664	13.698	1.0909	0.1	-11.074
26665	13.606	1.3636	0.1	-10.107
26666	13.698	1.2727	0.1	-10.695
26667	13.606	1.5455	0.1	-9.751
26668	13.698	1.4545	0.1	-10.353
26669	13.606	1.7273	0.1	-9.4362
26670	13.698	1.6364	0.1	-10.05
26671	13.606	1.9091	0.1	-9.1629
26672	13.698	1.8182	0.1	-9.7842
26673	13.606	2.0909	0.1	-8.9313
26674	13.698	2.	0.1	-9.5568
26675	13.606	2.2727	0.1	-8.7415
26676	13.698	2.1818	0.1	-9.3673
26677	13.606	2.4545	0.1	-8.5937
26678	13.698	2.3636	0.1	-9.2157
26679	13.606	2.6364	0.1	-8.4881
26680	13.698	2.5455	0.1	-9.1021
26681	13.606	2.8182	0.1	-8.4246
26682	13.698	2.7273	0.1	-9.0263
26683	13.606	3.	0.1	-8.4035
26684	13.698	2.9091	0.1	-8.9884
26685	13.606	3.1818	0.1	-8.4246
26686	13.698	3.0909	0.1	-8.9884
26687	13.606	3.3636	0.1	-8.488
26688	13.698	3.2727	0.1	-9.0263
26689	13.606	3.5455	0.1	-8.5937
26690	13.698	3.4545	0.1	-9.1021
26691	13.606	3.7273	0.1	-8.7415
26692	13.698	3.6364	0.1	-9.2157
26693	13.606	3.9091	0.1	-8.9313
26694	13.698	3.8182	0.1	-9.3673
26695	13.606	4.0909	0.1	-9.1629
26696	13.698	4.	0.1	-9.5568
26697	13.606	4.2727	0.1	-9.4362
26698	13.698	4.1818	0.1	-9.7842
26699	13.606	4.4545	0.1	-9.7509
26700	13.698	4.3636	0.1	-10.05
26701	13.606	4.6364	0.1	-10.107
26702	13.698	4.5455	0.1	-10.353
26703	13.606	4.8182	0.1	-10.504
26704	13.698	4.7273	0.1	-10.695
26705	13.606	5.	0.1	-10.941
26706	13.698	4.9091	0.1	-11.074
26707	13.606	5.1818	0.1	-11.419
26708	13.698	5.0909	0.1	-11.492
26709	13.606	5.3636	0.1	-11.94
26710	13.698	5.2727	0.1	-11.948
26711	13.606	5.5455	0.1	-12.545
26712	13.698	5.4545	0.1	-12.448
26713	13.606	5.7273	0.1	-13.982
26714	13.698	5.6364	0.1	-13.076
26715	13.698	5.8182	0.1	-15.322
26716	13.606	5.9091	0.1	-10.128
26717	13.79	0.27273	0.1	-14.307
26718	13.882	0.18182	0.1	-15.612
26719	13.79	9.0909e-002	0.1	-10.311
26720	13.79	0.45455	0.1	-12.949
26721	13.882	0.36364	0.1	-13.433
26722	13.79	0.63636	0.1	-12.431
26723	13.882	0.54545	0.1	-12.892
26724	13.79	0.81818	0.1	-11.995
26725	13.882	0.72727	0.1	-12.478
26726	13.79	1.	0.1	-11.599
26727	13.882	0.90909	0.1	-12.104
26728	13.79	1.1818	0.1	-11.239
26729	13.882	1.0909	0.1	-11.766
26730	13.79	1.3636	0.1	-10.915
26731	13.882	1.2727	0.1	-11.461
26732	13.79	1.5455	0.1	-10.626
26733	13.882	1.4545	0.1	-11.189
26734	13.79	1.7273	0.1	-10.372
26735	13.882	1.6364	0.1	-10.949
26736	13.79	1.9091	0.1	-10.153
26737	13.882	1.8182	0.1	-10.74
26738	13.79	2.0909	0.1	-9.9678
26739	13.882	2.	0.1	-10.563
26740	13.79	2.2727	0.1	-9.8167
26741	13.882	2.1818	0.1	-10.415
26742	13.79	2.4545	0.1	-9.6993
26743	13.882	2.3636	0.1	-10.298
26744	13.79	2.6364	0.1	-9.6156
26745	13.882	2.5455	0.1	-10.211
26746	13.79	2.8182	0.1	-9.5654
26747	13.882	2.7273	0.1	-10.152
26748	13.79	3.	0.1	-9.5487
26749	13.882	2.9091	0.1	-10.123
26750	13.79	3.1818	0.1	-9.5654
26751	13.882	3.0909	0.1	-10.123
26752	13.79	3.3636	0.1	-9.6156
26753	13.882	3.2727	0.1	-10.152
26754	13.79	3.5455	0.1	-9.6993
26755	13.882	3.4545	0.1	-10.211
26756	13.79	3.7273	0.1	-9.8167
26757	13.882	3.6364	0.1	-10.298
26758	13.79	3.9091	0.1	-9.9678
26759	13.882	3.8182	0.1	-10.415
26760	13.79	4.0909	0.1	-10.153
26761	13.882	4.	0.1	-10.563
26762	13.79	4.2727	0.1	-10.372
26763	13.882	4.1818	0.1	-10.74
26764	13.79	4.4545	0.1	-10.626
26765	13.882	4.3636	0.1	-10.949
26766	13.79	4.6364	0.1	-10.915
26767	13.882	4.5455	0.1	-11.189
26768	13.79	4.8182	0.1	-11.239
26769	13.882	4.7273	0.1	-11.461
26770	13.79	5.	0.1	-11.599
26771	13.882	4.9091	0.1	-11.766
26772	13.79	5.1818	0.1	-11.995
26773	13.882	5.0909	0.1	-12.104
26774	13.79	5.3636	0.1	-12.431
26775	13.882	5.2727	0.1	-12.478
26776	13.79	5.5455	0.1	-12.949
26777	13.882	5.4545	0.1	-12.892
26778	13.79	5.7273	0.1	-14.307
26779	13.882	5.6364	0.1	-13.433
26780	13.882	5.8182	0.1	-15.611
26781	13.79	5.9091	0.1	-10.311
26782	13.974	0.27273	0.1	-14.626
26783	14.066	0.18182	0.1	-15.897
26784	13.974	9.0909e-002	0.1	-10.492
26785	13.974	0.45455	0.1	-13.346
26786	14.066	0.36364	0.1	-13.785
26787	13.974	0.63636	0.1	-12.913
26788	14.066	0.54545	0.1	-13.329
26789	13.974	0.81818	0.1	-12.56
26790	14.066	0.72727	0.1	-12.999
26791	13.974	1.	0.1	-12.245
26792	14.066	0.90909	0.1	-12.707
26793	13.974	1.1818	0.1	-11.961
26794	14.066	1.0909	0.1	-12.446
26795	13.974	1.3636	0.1	-11.708
26796	14.066	1.2727	0.1	-12.214
26797	13.974	1.5455	0.1	-11.485
26798	14.066	1.4545	0.1	-12.011
26799	13.974	1.7273	0.1	-11.291
26800	14.066	1.6364	0.1	-11.833
26801	13.974	1.9091	0.1	-11.124
26802	14.066	1.8182	0.1	-11.681
26803	13.974	2.0909	0.1	-10.985
26804	14.066	2.	0.1	-11.553
26805	13.974	2.2727	0.1	-10.872
26806	14.066	2.1818	0.1	-11.447
26807	13.974	2.4545	0.1	-10.784
26808	14.066	2.3636	0.1	-11.364
26809	13.974	2.6364	0.1	-10.722
26810	14.066	2.5455	0.1	-11.302
26811	13.974	2.8182	0.1	-10.685
26812	14.066	2.7273	0.1	-11.261
26813	13.974	3.	0.1	-10.673
26814	14.066	2.9091	0.1	-11.24
26815	13.974	3.1818	0.1	-10.685
26816	14.066	3.0909	0.1	-11.24
26817	13.974	3.3636	0.1	-10.722
26818	14.066	3.2727	0.1	-11.261
26819	13.974	3.5455	0.1	-10.784
26820	14.066	3.4545	0.1	-11.302
26821	13.974	3.7273	0.1	-10.872
26822	14.066	3.6364	0.1	-11.364
26823	13.974	3.9091	0.1	-10.985
26824	14.066	3.8182	0.1	-11.447
26825	13.974	4.0909	0.1	-11.124
26826	14.066	4.	0.1	-11.553
26827	13.974	4.2727	0.1	-11.291
26828	14.066	4.1818	0.1	-11.681
26829	13.974	4.4545	0.1	-11.485
26830	14.066	4.3636	0.1	-11.833
26831	13.974	4.6364	0.1	-11.708
26832	14.066	4.5455	0.1	-12.011
26833	13.974	4.8182	0.1	-11.961
26834	14.066	4.7273	0.1	-12.214
26835	13.974	5.	0.1	-12.245
26836	14.066	4.9091	0.1	-12.446
26837	13.974	5.1818	0.1	-12.56
26838	14.066	5.0909	0.1	-12.707
26839	13.974	5.3636	0.1	-12.912
26840	14.066	5.2727	0.1	-12.998
26841	13.974	5.5455	0.1	-13.346
26842	14.066	5.4545	0.1	-13.329
26843	13.974	5.7273	0.1	-14.626
26844	14.066	5.6364	0.1	-13.785
26845	14.066	5.8182	0.1	-15.897
26846	13.974	5.9091	0.1	-10.492
26847	14.158	0.27273	0.1	-14.942
26848	14.25	0.18182	0.1	-16.179
26849	14.158	9.0909e-002	0.1	-10.671
26850	14.158	0.45455	0.1	-13.737
26851	14.25	0.36364	0.1	-14.132
26852	14.158	0.63636	0.1	-13.388
26853	14.25	0.54545	0.1	-13.76
26854	14.158	0.81818	0.1	-13.118
26855	14.25	0.72727	0.1	-13.513
26856	14.158	1.	0.1	-12.881
26857	14.25	0.90909	0.1	-13.302
26858	14.158	1.1818	0.1	-12.673
26859	14.25	1.0909	0.1	-13.118
26860	14.158	1.3636	0.1	-12.491
26861	14.25	1.2727	0.1	-12.96
26862	14.158	1.5455	0.1	-12.333
26863	14.25	1.4545	0.1	-12.824
26864	14.158	1.7273	0.1	-12.197
26865	14.25	1.6364	0.1	-12.709
26866	14.158	1.9091	0.1	-12.083
26867	14.25	1.8182	0.1	-12.612
26868	14.158	2.0909	0.1	-11.989
26869	14.25	2.	0.1	-12.533
26870	14.158	2.2727	0.1	-11.913
26871	14.25	2.1818	0.1	-12.469
26872	14.158	2.4545	0.1	-11.856
26873	14.25	2.3636	0.1	-12.419
26874	14.158	2.6364	0.1	-11.815
26875	14.25	2.5455	0.1	-12.382
26876	14.158	2.8182	0.1	-11.791
26877	14.25	2.7273	0.1	-12.359
26878	14.158	3.	0.1	-11.783
26879	14.25	2.9091	0.1	-12.347
26880	14.158	3.1818	0.1	-11.791
26881	14.25	3.0909	0.1	-12.347
26882	14.158	3.3636	0.1	-11.815
26883	14.25	3.2727	0.1	-12.359
26884	14.158	3.5455	0.1	-11.856
26885	14.25	3.4545	0.1	-12.382
26886	14.158	3.7273	0.1	-11.913
26887	14.25	3.6364	0.1	-12.419
26888	14.158	3.9091	0.1	-11.989
26889	14.25	3.8182	0.1	-12.469
26890	14.158	4.0909	0.1	-12.083
26891	14.25	4.	0.1	-12.533
26892	14.158	4.2727	0.1	-12.197
26893	14.25	4.1818	0.1	-12.612
26894	14.158	4.4545	0.1	-12.333
26895	14.25	4.3636	0.1	-12.709
26896	14.158	4.6364	0.1	-12.491
26897	14.25	4.5455	0.1	-12.824
26898	14.158	4.8182	0.1	-12.673
26899	14.25	4.7273	0.1	-12.96
26900	14.158	5.	0.1	-12.881
26901	14.25	4.9091	0.1	-13.118
26902	14.158	5.1818	0.1	-13.118
26903	14.25	5.0909	0.1	-13.302
26904	14.158	5.3636	0.1	-13.388
26905	14.25	5.2727	0.1	-13.513
26906	14.158	5.5455	0.1	-13.737
26907	14.25	5.4545	0.1	-13.76
26908	14.158	5.7273	0.1	-14.942
26909	14.25	5.6364	0.1	-14.132
26910	14.25	5.8182	0.1	-16.178
26911	14.158	5.9091	0.1	-10.671
26912	14.342	0.27273	0.1	-15.254
26913	14.434	0.18182	0.1	-16.458
26914	14.342	9.0909e-002	0.1	-10.848
26915	14.342	0.45455	0.1	-14.124
26916	14.434	0.36364	0.1	-14.477
26917	14.342	0.63636	0.1	-13.858
26918	14.434	0.54545	0.1	-14.188
26919	14.342	0.81818	0.1	-13.67
26920	14.434	0.72727	0.1	-14.024
26921	14.342	1.	0.1	-13.512
26922	14.434	0.90909	0.1	-13.894
26923	14.342	1.1818	0.1	-13.379
26924	14.434	1.0909	0.1	-13.787
26925	14.342	1.3636	0.1	-13.267
26926	14.434	1.2727	0.1	-13.702
26927	14.342	1.5455	0.1	-13.174
26928	14.434	1.4545	0.1	-13.634
26929	14.342	1.7273	0.1	-13.097
26930	14.434	1.6364	0.1	-13.581
26931	14.342	1.9091	0.1	-13.036
26932	14.434	1.8182	0.1	-13.54
26933	14.342	2.0909	0.1	-12.986
26934	14.434	2.	0.1	-13.509
26935	14.342	2.2727	0.1	-12.948
26936	14.434	2.1818	0.1	-13.486
26937	14.342	2.4545	0.1	-12.92
26938	14.434	2.3636	0.1	-13.47
26939	14.342	2.6364	0.1	-12.9
26940	14.434	2.5455	0.1	-13.459
26941	14.342	2.8182	0.1	-12.889
26942	14.434	2.7273	0.1	-13.453
26943	14.342	3.	0.1	-12.885
26944	14.434	2.9091	0.1	-13.449
26945	14.342	3.1818	0.1	-12.889
26946	14.434	3.0909	0.1	-13.449
26947	14.342	3.3636	0.1	-12.9
26948	14.434	3.2727	0.1	-13.453
26949	14.342	3.5455	0.1	-12.92
26950	14.434	3.4545	0.1	-13.459
26951	14.342	3.7273	0.1	-12.948
26952	14.434	3.6364	0.1	-13.47
26953	14.342	3.9091	0.1	-12.986
26954	14.434	3.8182	0.1	-13.486
26955	14.342	4.0909	0.1	-13.036
26956	14.434	4.	0.1	-13.509
26957	14.342	4.2727	0.1	-13.097
26958	14.434	4.1818	0.1	-13.54
26959	14.342	4.4545	0.1	-13.174
26960	14.434	4.3636	0.1	-13.581
26961	14.342	4.6364	0.1	-13.267
26962	14.434	4.5455	0.1	-13.634
26963	14.342	4.8182	0.1	-13.379
26964	14.434	4.7273	0.1	-13.702
26965	14.342	5.	0.1	-13.512
26966	14.434	4.9091	0.1	-13.787
26967	14.342	5.1818	0.1	-13.67
26968	14.434	5.0909	0.1	-13.894
26969	14.342	5.3636	0.1	-13.858
26970	14.434	5.2727	0.1	-14.024
26971	14.342	5.5455	0.1	-14.124
26972	14.434	5.4545	0.1	-14.188
26973	14.342	5.7273	0.1	-15.254
26974	14.434	5.6364	0.1	-14.476
26975	14.434	5.8182	0.1	-16.457
26976	14.342	5.9091	0.1	-10.848
26977	14.526	0.27273	0.1	-15.564
26978	14.618	0.18182	0.1	-16.734
26979	14.526	9.0909e-002	0.1	-11.024
26980	14.526	0.45455	0.1	-14.509
26981	14.618	0.36364	0.1	-14.819
26982	14.526	0.63636	0.1	-14.327
26983	14.618	0.54545	0.1	-14.615
26984	14.526	0.81818	0.1	-14.22
26985	14.618	0.72727	0.1	-14.535
26986	14.526	1.	0.1	-14.141
26987	14.618	0.90909	0.1	-14.485
26988	14.526	1.1818	0.1	-14.083
26989	14.618	1.0909	0.1	-14.456
26990	14.526	1.3636	0.1	-14.042
26991	14.618	1.2727	0.1	-14.444
26992	14.526	1.5455	0.1	-14.014
26993	14.618	1.4545	0.1	-14.445
26994	14.526	1.7273	0.1	-13.996
26995	14.618	1.6364	0.1	-14.454
26996	14.526	1.9091	0.1	-13.987
26997	14.618	1.8182	0.1	-14.469
26998	14.526	2.0909	0.1	-13.983
26999	14.618	2.	0.1	-14.488
27000	14.526	2.2727	0.1	-13.982
27001	14.618	2.1818	0.1	-14.507
27002	14.526	2.4545	0.1	-13.984
27003	14.618	2.3636	0.1	-14.525
27004	14.526	2.6364	0.1	-13.986
27005	14.618	2.5455	0.1	-14.54
27006	14.526	2.8182	0.1	-13.987
27007	14.618	2.7273	0.1	-14.55
27008	14.526	3.	0.1	-13.988
27009	14.618	2.9091	0.1	-14.556
27010	14.526	3.1818	0.1	-13.987
27011	14.618	3.0909	0.1	-14.556
27012	14.526	3.3636	0.1	-13.986
27013	14.618	3.2727	0.1	-14.55
27014	14.526	3.5455	0.1	-13.984
27015	14.618	3.4545	0.1	-14.54
27016	14.526	3.7273	0.1	-13.982
27017	14.618	3.6364	0.1	-14.525
27018	14.526	3.9091	0.1	-13.983
27019	14.618	3.8182	0.1	-14.507
27020	14.526	4.0909	0.1	-13.987
27021	14.618	4.	0.1	-14.488
27022	14.526	4.2727	0.1	-13.996
27023	14.618	4.1818	0.1	-14.469
27024	14.526	4.4545	0.1	-14.014
27025	14.618	4.3636	0.1	-14.454
27026	14.526	4.6364	0.1	-14.042
27027	14.618	4.5455	0.1	-14.445
27028	14.526	4.8182	0.1	-14.083
27029	14.618	4.7273	0.1	-14.444
27030	14.526	5.	0.1	-14.141
27031	14.618	4.9091	0.1	-14.456
27032	14.526	5.1818	0.1	-14.22
27033	14.618	5.0909	0.1	-14.485
27034	14.526	5.3636	0.1	-14.326
27035	14.618	5.2727	0.1	-14.535
27036	14.526	5.5455	0.1	-14.509
27037	14.618	5.4545	0.1	-14.615
27038	14.526	5.7273	0.1	-15.564
27039	14.618	5.6364	0.1	-14.819
27040	14.618	5.8182	0.1	-16.734
27041	14.526	5.9091	0.1	-11.024
27042	14.71	0.27273	0.1	-15.872
27043	14.802	0.18182	0.1	-17.009
27044	14.71	9.0909e-002	0.1	-11.199
27045	14.71	0.45455	0.1	-14.893
27046	14.802	0.36364	0.1	-15.161
27047	14.71	0.63636	0.1	-14.795
27048	14.802	0.54545	0.1	-15.043
27049	14.71	0.81818	0.1	-14.771
27050	14.802	0.72727	0.1	-15.047
27051	14.71	1.	0.1	-14.772
27052	14.802	0.90909	0.1	-15.079
27053	14.71	1.1818	0.1	-14.79
27054	14.802	1.0909	0.1	-15.13
27055	14.71	1.3636	0.1	-14.82
27056	14.802	1.2727	0.1	-15.192
27057	14.71	1.5455	0.1	-14.858
27058	14.802	1.4545	0.1	-15.262
27059	14.71	1.7273	0.1	-14.9
27060	14.802	1.6364	0.1	-15.335
27061	14.71	1.9091	0.1	-14.944
27062	14.802	1.8182	0.1	-15.407
27063	14.71	2.0909	0.1	-14.985
27064	14.802	2.	0.1	-15.475
27065	14.71	2.2727	0.1	-15.023
27066	14.802	2.1818	0.1	-15.537
27067	14.71	2.4545	0.1	-15.054
27068	14.802	2.3636	0.1	-15.589
27069	14.71	2.6364	0.1	-15.078
27070	14.802	2.5455	0.1	-15.63
27071	14.71	2.8182	0.1	-15.092
27072	14.802	2.7273	0.1	-15.658
27073	14.71	3.	0.1	-15.097
27074	14.802	2.9091	0.1	-15.672
27075	14.71	3.1818	0.1	-15.092
27076	14.802	3.0909	0.1	-15.672
27077	14.71	3.3636	0.1	-15.078
27078	14.802	3.2727	0.1	-15.658
27079	14.71	3.5455	0.1	-15.054
27080	14.802	3.4545	0.1	-15.63
27081	14.71	3.7273	0.1	-15.023
27082	14.802	3.6364	0.1	-15.589
27083	14.71	3.9091	0.1	-14.985
27084	14.802	3.8182	0.1	-15.537
27085	14.71	4.0909	0.1	-14.944
27086	14.802	4.	0.1	-15.475
27087	14.71	4.2727	0.1	-14.9
27088	14.802	4.1818	0.1	-15.407
27089	14.71	4.4545	0.1	-14.858
27090	14.802	4.3636	0.1	-15.335
27091	14.71	4.6364	0.1	-14.82
27092	14.802	4.5455	0.1	-15.262
27093	14.71	4.8182	0.1	-14.79
27094	14.802	4.7273	0.1	-15.192
27095	14.71	5.	0.1	-14.772
27096	14.802	4.9091	0.1	-15.13
27097	14.71	5.1818	0.1	-14.771
27098	14.802	5.0909	0.1	-15.079
27099	14.71	5.3636	0.1	-14.795
27100	14.802	5.2727	0.1	-15.047
27101	14.71	5.5455	0.1	-14.893
27102	14.802	5.4545	0.1	-15.043
27103	14.71	5.7273	0.1	-15.872
27104	14.802	5.6364	0.1	-15.161
27105	14.802	5.8182	0.1	-17.009
27106	14.71	5.9091	0.1	-11.199
27107	14.894	0.27273	0.1	-16.18
27108	14.985	0.18182	0.1	-17.283
27109	14.894	9.0909e-002	0.1	-11.373
27110	14.894	0.45455	0.1	-15.278
27111	14.985	0.36364	0.1	-15.504
27112	14.894	0.63636	0.1	-15.266
27113	14.985	0.54545	0.1	-15.473
27114	14.894	0.81818	0.1	-15.326
27115	14.985	0.72727	0.1	-15.563
27116	14.894	1.	0.1	-15.409
27117	14.985	0.90909	0.1	-15.68
27118	14.894	1.1818	0.1	-15.504
27119	14.985	1.0909	0.1	-15.811
27120	14.894	1.3636	0.1	-15.606
27121	14.985	1.2727	0.1	-15.949
27122	14.894	1.5455	0.1	-15.711
27123	14.985	1.4545	0.1	-16.09
27124	14.894	1.7273	0.1	-15.814
27125	14.985	1.6364	0.1	-16.228
27126	14.894	1.9091	0.1	-15.912
27127	14.985	1.8182	0.1	-16.358
27128	14.894	2.0909	0.1	-16.
27129	14.985	2.	0.1	-16.478
27130	14.894	2.2727	0.1	-16.076
27131	14.985	2.1818	0.1	-16.582
27132	14.894	2.4545	0.1	-16.138
27133	14.985	2.3636	0.1	-16.67
27134	14.894	2.6364	0.1	-16.184
27135	14.985	2.5455	0.1	-16.737
27136	14.894	2.8182	0.1	-16.211
27137	14.985	2.7273	0.1	-16.783
27138	14.894	3.	0.1	-16.221
27139	14.985	2.9091	0.1	-16.806
27140	14.894	3.1818	0.1	-16.211
27141	14.985	3.0909	0.1	-16.806
27142	14.894	3.3636	0.1	-16.184
27143	14.985	3.2727	0.1	-16.783
27144	14.894	3.5455	0.1	-16.138
27145	14.985	3.4545	0.1	-16.737
27146	14.894	3.7273	0.1	-16.076
27147	14.985	3.6364	0.1	-16.67
27148	14.894	3.9091	0.1	-16.
27149	14.985	3.8182	0.1	-16.582
27150	14.894	4.0909	0.1	-15.912
27151	14.985	4.	0.1	-16.478
27152	14.894	4.2727	0.1	-15.814
27153	14.985	4.1818	0.1	-16.358
27154	14.894	4.4545	0.1	-15.711
27155	14.985	4.3636	0.1	-16.228
27156	14.894	4.6364	0.1	-15.606
27157	14.985	4.5455	0.1	-16.09
27158	14.894	4.8182	0.1	-15.503
27159	14.985	4.7273	0.1	-15.949
27160	14.894	5.	0.1	-15.408
27161	14.985	4.9091	0.1	-15.81
27162	14.894	5.1818	0.1	-15.326
27163	14.985	5.0909	0.1	-15.68
27164	14.894	5.3636	0.1	-15.266
27165	14.985	5.2727	0.1	-15.563
27166	14.894	5.5455	0.1	-15.278
27167	14.985	5.4545	0.1	-15.473
27168	14.894	5.7273	0.1	-16.18
27169	14.985	5.6364	0.1	-15.504
27170	14.985	5.8182	0.1	-17.283
27171	14.894	5.9091	0.1	-11.373
27172	15.077	0.27273	0.1	-16.487
27173	15.169	0.18182	0.1	-17.556
27174	15.077	9.0909e-002	0.1	-11.546
27175	15.077	0.45455	0.1	-15.666
27176	15.169	0.36364	0.1	-15.849
27177	15.077	0.63636	0.1	-15.741
27178	15.169	0.54545	0.1	-15.907
27179	15.077	0.81818	0.1	-15.888
27180	15.169	0.72727	0.1	-16.086
27181	15.077	1.	0.1	-16.053
27182	15.169	0.90909	0.1	-16.29
27183	15.077	1.1818	0.1	-16.228
27184	15.169	1.0909	0.1	-16.503
27185	15.077	1.3636	0.1	-16.405
27186	15.169	1.2727	0.1	-16.72
27187	15.077	1.5455	0.1	-16.579
27188	15.169	1.4545	0.1	-16.934
27189	15.077	1.7273	0.1	-16.744
27190	15.169	1.6364	0.1	-17.138
27191	15.077	1.9091	0.1	-16.897
27192	15.169	1.8182	0.1	-17.329
27193	15.077	2.0909	0.1	-17.033
27194	15.169	2.	0.1	-17.501
27195	15.077	2.2727	0.1	-17.149
27196	15.169	2.1818	0.1	-17.65
27197	15.077	2.4545	0.1	-17.242
27198	15.169	2.3636	0.1	-17.774
27199	15.077	2.6364	0.1	-17.31
27200	15.169	2.5455	0.1	-17.868
27201	15.077	2.8182	0.1	-17.351
27202	15.169	2.7273	0.1	-17.933
27203	15.077	3.	0.1	-17.365
27204	15.169	2.9091	0.1	-17.965
27205	15.077	3.1818	0.1	-17.351
27206	15.169	3.0909	0.1	-17.965
27207	15.077	3.3636	0.1	-17.31
27208	15.169	3.2727	0.1	-17.933
27209	15.077	3.5455	0.1	-17.242
27210	15.169	3.4545	0.1	-17.868
27211	15.077	3.7273	0.1	-17.149
27212	15.169	3.6364	0.1	-17.774
27213	15.077	3.9091	0.1	-17.033
27214	15.169	3.8182	0.1	-17.65
27215	15.077	4.0909	0.1	-16.897
27216	15.169	4.	0.1	-17.501
27217	15.077	4.2727	0.1	-16.744
27218	15.169	4.1818	0.1	-17.329
27219	15.077	4.4545	0.1	-16.578
27220	15.169	4.3636	0.1	-17.138
27221	15.077	4.6364	0.1	-16.405
27222	15.169	4.5455	0.1	-16.934
27223	15.077	4.8182	0.1	-16.228
27224	15.169	4.7273	0.1	-16.72
27225	15.077	5.	0.1	-16.053
27226	15.169	4.9091	0.1	-16.503
27227	15.077	5.1818	0.1	-15.888
27228	15.169	5.0909	0.1	-16.29
27229	15.077	5.3636	0.1	-15.741
27230	15.169	5.2727	0.1	-16.086
27231	15.077	5.5455	0.1	-15.666
27232	15.169	5.4545	0.1	-15.907
27233	15.077	5.7273	0.1	-16.487
27234	15.169	5.6364	0.1	-15.849
27235	15.169	5.8182	0.1	-17.555
27236	15.077	5.9091	0.1	-11.546
27237	15.261	0.27273	0.1	-16.796
27238	15.353	0.18182	0.1	-17.827
27239	15.261	9.0909e-002	0.1	-11.718
27240	15.261	0.45455	0.1	-16.057
27241	15.353	0.36364	0.1	-16.197
27242	15.261	0.63636	0.1	-16.223
27243	15.353	0.54545	0.1	-16.348
27244	15.261	0.81818	0.1	-16.459
27245	15.353	0.72727	0.1	-16.619
27246	15.261	1.	0.1	-16.71
27247	15.353	0.90909	0.1	-16.912
27248	15.261	1.1818	0.1	-16.967
27249	15.353	1.0909	0.1	-17.212
27250	15.261	1.3636	0.1	-17.221
27251	15.353	1.2727	0.1	-17.51
27252	15.261	1.5455	0.1	-17.466
27253	15.353	1.4545	0.1	-17.799
27254	15.261	1.7273	0.1	-17.696
27255	15.353	1.6364	0.1	-18.073
27256	15.261	1.9091	0.1	-17.906
27257	15.353	1.8182	0.1	-18.326
27258	15.261	2.0909	0.1	-18.091
27259	15.353	2.	0.1	-18.552
27260	15.261	2.2727	0.1	-18.248
27261	15.353	2.1818	0.1	-18.747
27262	15.261	2.4545	0.1	-18.373
27263	15.353	2.3636	0.1	-18.907
27264	15.261	2.6364	0.1	-18.464
27265	15.353	2.5455	0.1	-19.03
27266	15.261	2.8182	0.1	-18.519
27267	15.353	2.7273	0.1	-19.114
27268	15.261	3.	0.1	-18.538
27269	15.353	2.9091	0.1	-19.156
27270	15.261	3.1818	0.1	-18.519
27271	15.353	3.0909	0.1	-19.156
27272	15.261	3.3636	0.1	-18.464
27273	15.353	3.2727	0.1	-19.114
27274	15.261	3.5455	0.1	-18.373
27275	15.353	3.4545	0.1	-19.03
27276	15.261	3.7273	0.1	-18.248
27277	15.353	3.6364	0.1	-18.907
27278	15.261	3.9091	0.1	-18.091
27279	15.353	3.8182	0.1	-18.747
27280	15.261	4.0909	0.1	-17.905
27281	15.353	4.	0.1	-18.552
27282	15.261	4.2727	0.1	-17.696
27283	15.353	4.1818	0.1	-18.325
27284	15.261	4.4545	0.1	-17.466
27285	15.353	4.3636	0.1	-18.073
27286	15.261	4.6364	0.1	-17.221
27287	15.353	4.5455	0.1	-17.799
27288	15.261	4.8182	0.1	-16.967
27289	15.353	4.7273	0.1	-17.51
27290	15.261	5.	0.1	-16.71
27291	15.353	4.9091	0.1	-17.211
27292	15.261	5.1818	0.1	-16.459
27293	15.353	5.0909	0.1	-16.912
27294	15.261	5.3636	0.1	-16.223
27295	15.353	5.2727	0.1	-16.619
27296	15.261	5.5455	0.1	-16.057
27297	15.353	5.4545	0.1	-16.348
27298	15.261	5.7273	0.1	-16.795
27299	15.353	5.6364	0.1	-16.197
27300	15.353	5.8182	0.1	-17.827
27301	15.261	5.9091	0.1	-11.718
27302	15.445	0.27273	0.1	-17.105
27303	15.537	0.18182	0.1	-18.099
27304	15.445	9.0909e-002	0.1	-11.89
27305	15.445	0.45455	0.1	-16.453
27306	15.537	0.36364	0.1	-16.549
27307	15.445	0.63636	0.1	-16.714
27308	15.537	0.54545	0.1	-16.796
27309	15.445	0.81818	0.1	-17.043
27310	15.537	0.72727	0.1	-17.164
27311	15.445	1.	0.1	-17.384
27312	15.537	0.90909	0.1	-17.551
27313	15.445	1.1818	0.1	-17.725
27314	15.537	1.0909	0.1	-17.94
27315	15.445	1.3636	0.1	-18.059
27316	15.537	1.2727	0.1	-18.323
27317	15.445	1.5455	0.1	-18.378
27318	15.537	1.4545	0.1	-18.691
27319	15.445	1.7273	0.1	-18.675
27320	15.537	1.6364	0.1	-19.037
27321	15.445	1.9091	0.1	-18.944
27322	15.537	1.8182	0.1	-19.354
27323	15.445	2.0909	0.1	-19.18
27324	15.537	2.	0.1	-19.636
27325	15.445	2.2727	0.1	-19.379
27326	15.537	2.1818	0.1	-19.879
27327	15.445	2.4545	0.1	-19.538
27328	15.537	2.3636	0.1	-20.079
27329	15.445	2.6364	0.1	-19.653
27330	15.537	2.5455	0.1	-20.231
27331	15.445	2.8182	0.1	-19.723
27332	15.537	2.7273	0.1	-20.334
27333	15.445	3.	0.1	-19.746
27334	15.537	2.9091	0.1	-20.386
27335	15.445	3.1818	0.1	-19.723
27336	15.537	3.0909	0.1	-20.386
27337	15.445	3.3636	0.1	-19.653
27338	15.537	3.2727	0.1	-20.334
27339	15.445	3.5455	0.1	-19.538
27340	15.537	3.4545	0.1	-20.231
27341	15.445	3.7273	0.1	-19.379
27342	15.537	3.6364	0.1	-20.079
27343	15.445	3.9091	0.1	-19.18
27344	15.537	3.8182	0.1	-19.879
27345	15.445	4.0909	0.1	-18.944
27346	15.537	4.	0.1	-19.636
27347	15.445	4.2727	0.1	-18.675
27348	15.537	4.1818	0.1	-19.354
27349	15.445	4.4545	0.1	-18.378
27350	15.537	4.3636	0.1	-19.037
27351	15.445	4.6364	0.1	-18.059
27352	15.537	4.5455	0.1	-18.691
27353	15.445	4.8182	0.1	-17.725
27354	15.537	4.7273	0.1	-18.323
27355	15.445	5.	0.1	-17.384
27356	15.537	4.9091	0.1	-17.94
27357	15.445	5.1818	0.1	-17.042
27358	15.537	5.0909	0.1	-17.55
27359	15.445	5.3636	0.1	-16.714
27360	15.537	5.2727	0.1	-17.164
27361	15.445	5.5455	0.1	-16.453
27362	15.537	5.4545	0.1	-16.796
27363	15.445	5.7273	0.1	-17.105
27364	15.537	5.6364	0.1	-16.548
27365	15.537	5.8182	0.1	-18.099
27366	15.445	5.9091	0.1	-11.89
27367	15.629	0.27273	0.1	-17.417
27368	15.721	0.18182	0.1	-18.37
27369	15.629	9.0909e-002	0.1	-12.062
27370	15.629	0.45455	0.1	-16.857
27371	15.721	0.36364	0.1	-16.906
27372	15.629	0.63636	0.1	-17.216
27373	15.721	0.54545	0.1	-17.255
27374	15.629	0.81818	0.1	-17.642
27375	15.721	0.72727	0.1	-17.724
27376	15.629	1.	0.1	-18.077
27377	15.721	0.90909	0.1	-18.209
27378	15.629	1.1818	0.1	-18.508
27379	15.721	1.0909	0.1	-18.692
27380	15.629	1.3636	0.1	-18.925
27381	15.721	1.2727	0.1	-19.164
27382	15.629	1.5455	0.1	-19.321
27383	15.721	1.4545	0.1	-19.614
27384	15.629	1.7273	0.1	-19.687
27385	15.721	1.6364	0.1	-20.036
27386	15.629	1.9091	0.1	-20.018
27387	15.721	1.8182	0.1	-20.42
27388	15.629	2.0909	0.1	-20.308
27389	15.721	2.	0.1	-20.762
27390	15.629	2.2727	0.1	-20.551
27391	15.721	2.1818	0.1	-21.055
27392	15.629	2.4545	0.1	-20.744
27393	15.721	2.3636	0.1	-21.294
27394	15.629	2.6364	0.1	-20.884
27395	15.721	2.5455	0.1	-21.477
27396	15.629	2.8182	0.1	-20.969
27397	15.721	2.7273	0.1	-21.601
27398	15.629	3.	0.1	-20.998
27399	15.721	2.9091	0.1	-21.663
27400	15.629	3.1818	0.1	-20.969
27401	15.721	3.0909	0.1	-21.663
27402	15.629	3.3636	0.1	-20.884
27403	15.721	3.2727	0.1	-21.601
27404	15.629	3.5455	0.1	-20.744
27405	15.721	3.4545	0.1	-21.477
27406	15.629	3.7273	0.1	-20.551
27407	15.721	3.6364	0.1	-21.294
27408	15.629	3.9091	0.1	-20.308
27409	15.721	3.8182	0.1	-21.055
27410	15.629	4.0909	0.1	-20.018
27411	15.721	4.	0.1	-20.762
27412	15.629	4.2727	0.1	-19.687
27413	15.721	4.1818	0.1	-20.42
27414	15.629	4.4545	0.1	-19.321
27415	15.721	4.3636	0.1	-20.036
27416	15.629	4.6364	0.1	-18.925
27417	15.721	4.5455	0.1	-19.614
27418	15.629	4.8182	0.1	-18.508
27419	15.721	4.7273	0.1	-19.164
27420	15.629	5.	0.1	-18.077
27421	15.721	4.9091	0.1	-18.692
27422	15.629	5.1818	0.1	-17.642
27423	15.721	5.0909	0.1	-18.209
27424	15.629	5.3636	0.1	-17.216
27425	15.721	5.2727	0.1	-17.724
27426	15.629	5.5455	0.1	-16.857
27427	15.721	5.4545	0.1	-17.255
27428	15.629	5.7273	0.1	-17.417
27429	15.721	5.6364	0.1	-16.905
27430	15.721	5.8182	0.1	-18.37
27431	15.629	5.9091	0.1	-12.062
27432	15.813	0.27273	0.1	-17.732
27433	15.905	0.18182	0.1	-18.641
27434	15.813	9.0909e-002	0.1	-12.233
27435	15.813	0.45455	0.1	-17.269
27436	15.905	0.36364	0.1	-17.269
27437	15.813	0.63636	0.1	-17.732
27438	15.905	0.54545	0.1	-17.727
27439	15.813	0.81818	0.1	-18.26
27440	15.905	0.72727	0.1	-18.302
27441	15.813	1.	0.1	-18.794
27442	15.905	0.90909	0.1	-18.891
27443	15.813	1.1818	0.1	-19.319
27444	15.905	1.0909	0.1	-19.473
27445	15.813	1.3636	0.1	-19.824
27446	15.905	1.2727	0.1	-20.038
27447	15.813	1.5455	0.1	-20.3
27448	15.905	1.4545	0.1	-20.576
27449	15.813	1.7273	0.1	-20.74
27450	15.905	1.6364	0.1	-21.077
27451	15.813	1.9091	0.1	-21.136
27452	15.905	1.8182	0.1	-21.532
27453	15.813	2.0909	0.1	-21.481
27454	15.905	2.	0.1	-21.935
27455	15.813	2.2727	0.1	-21.77
27456	15.905	2.1818	0.1	-22.28
27457	15.813	2.4545	0.1	-22.
27458	15.905	2.3636	0.1	-22.562
27459	15.813	2.6364	0.1	-22.166
27460	15.905	2.5455	0.1	-22.777
27461	15.813	2.8182	0.1	-22.267
27462	15.905	2.7273	0.1	-22.922
27463	15.813	3.	0.1	-22.3
27464	15.905	2.9091	0.1	-22.995
27465	15.813	3.1818	0.1	-22.267
27466	15.905	3.0909	0.1	-22.995
27467	15.813	3.3636	0.1	-22.166
27468	15.905	3.2727	0.1	-22.922
27469	15.813	3.5455	0.1	-22.
27470	15.905	3.4545	0.1	-22.777
27471	15.813	3.7273	0.1	-21.77
27472	15.905	3.6364	0.1	-22.562
27473	15.813	3.9091	0.1	-21.481
27474	15.905	3.8182	0.1	-22.28
27475	15.813	4.0909	0.1	-21.136
27476	15.905	4.	0.1	-21.935
27477	15.813	4.2727	0.1	-20.74
27478	15.905	4.1818	0.1	-21.532
27479	15.813	4.4545	0.1	-20.3
27480	15.905	4.3636	0.1	-21.076
27481	15.813	4.6364	0.1	-19.824
27482	15.905	4.5455	0.1	-20.576
27483	15.813	4.8182	0.1	-19.318
27484	15.905	4.7273	0.1	-20.038
27485	15.813	5.	0.1	-18.794
27486	15.905	4.9091	0.1	-19.473
27487	15.813	5.1818	0.1	-18.26
27488	15.905	5.0909	0.1	-18.89
27489	15.813	5.3636	0.1	-17.732
27490	15.905	5.2727	0.1	-18.302
27491	15.813	5.5455	0.1	-17.269
27492	15.905	5.4545	0.1	-17.727
27493	15.813	5.7273	0.1	-17.732
27494	15.905	5.6364	0.1	-17.269
27495	15.905	5.8182	0.1	-18.641
27496	15.813	5.9091	0.1	-12.233
27497	15.997	0.27273	0.1	-18.05
27498	16.089	0.18182	0.1	-18.912
27499	15.997	9.0909e-002	0.1	-12.404
27500	15.997	0.45455	0.1	-17.691
27501	16.089	0.36364	0.1	-17.64
27502	15.997	0.63636	0.1	-18.265
27503	16.089	0.54545	0.1	-18.212
27504	15.997	0.81818	0.1	-18.901
27505	16.089	0.72727	0.1	-18.901
27506	15.997	1.	0.1	-19.539
27507	16.089	0.90909	0.1	-19.599
27508	15.997	1.1818	0.1	-20.163
27509	16.089	1.0909	0.1	-20.287
27510	15.997	1.3636	0.1	-20.761
27511	16.089	1.2727	0.1	-20.952
27512	15.997	1.5455	0.1	-21.323
27513	16.089	1.4545	0.1	-21.581
27514	15.997	1.7273	0.1	-21.839
27515	16.089	1.6364	0.1	-22.165
27516	15.997	1.9091	0.1	-22.303
27517	16.089	1.8182	0.1	-22.696
27518	15.997	2.0909	0.1	-22.707
27519	16.089	2.	0.1	-23.164
27520	15.997	2.2727	0.1	-23.044
27521	16.089	2.1818	0.1	-23.564
27522	15.997	2.4545	0.1	-23.312
27523	16.089	2.3636	0.1	-23.89
27524	15.997	2.6364	0.1	-23.505
27525	16.089	2.5455	0.1	-24.139
27526	15.997	2.8182	0.1	-23.623
27527	16.089	2.7273	0.1	-24.306
27528	15.997	3.	0.1	-23.662
27529	16.089	2.9091	0.1	-24.39
27530	15.997	3.1818	0.1	-23.623
27531	16.089	3.0909	0.1	-24.39
27532	15.997	3.3636	0.1	-23.505
27533	16.089	3.2727	0.1	-24.306
27534	15.997	3.5455	0.1	-23.312
27535	16.089	3.4545	0.1	-24.139
27536	15.997	3.7273	0.1	-23.044
27537	16.089	3.6364	0.1	-23.89
27538	15.997	3.9091	0.1	-22.707
27539	16.089	3.8182	0.1	-23.564
27540	15.997	4.0909	0.1	-22.303
27541	16.089	4.	0.1	-23.164
27542	15.997	4.2727	0.1	-21.839
27543	16.089	4.1818	0.1	-22.696
27544	15.997	4.4545	0.1	-21.323
27545	16.089	4.3636	0.1	-22.165
27546	15.997	4.6364	0.1	-20.761
27547	16.089	4.5455	0.1	-21.581
27548	15.997	4.8182	0.1	-20.163
27549	16.089	4.7273	0.1	-20.952
27550	15.997	5.	0.1	-19.539
27551	16.089	4.9091	0.1	-20.287
27552	15.997	5.1818	0.1	-18.901
27553	16.089	5.0909	0.1	-19.599
27554	15.997	5.3636	0.1	-18.265
27555	16.089	5.2727	0.1	-18.901
27556	15.997	5.5455	0.1	-17.691
27557	16.089	5.4545	0.1	-18.212
27558	15.997	5.7273	0.1	-18.05
27559	16.089	5.6364	0.1	-17.64
27560	16.089	5.8182	0.1	-18.912
27561	15.997	5.9091	0.1	-12.404
27562	16.181	0.27273	0.1	-18.372
27563	16.273	0.18182	0.1	-19.183
27564	16.181	9.0909e-002	0.1	-12.574
27565	16.181	0.45455	0.1	-18.125
27566	16.273	0.36364	0.1	-18.019
27567	16.181	0.63636	0.1	-18.816
27568	16.273	0.54545	0.1	-18.714
27569	16.181	0.81818	0.1	-19.568
27570	16.273	0.72727	0.1	-19.524
27571	16.181	1.	0.1	-20.317
27572	16.273	0.90909	0.1	-20.34
27573	16.181	1.1818	0.1	-21.046
27574	16.273	1.0909	0.1	-21.14
27575	16.181	1.3636	0.1	-21.742
27576	16.273	1.2727	0.1	-21.909
27577	16.181	1.5455	0.1	-22.394
27578	16.273	1.4545	0.1	-22.636
27579	16.181	1.7273	0.1	-22.992
27580	16.273	1.6364	0.1	-23.309
27581	16.181	1.9091	0.1	-23.528
27582	16.273	1.8182	0.1	-23.918
27583	16.181	2.0909	0.1	-23.993
27584	16.273	2.	0.1	-24.455
27585	16.181	2.2727	0.1	-24.382
27586	16.273	2.1818	0.1	-24.913
27587	16.181	2.4545	0.1	-24.689
27588	16.273	2.3636	0.1	-25.286
27589	16.181	2.6364	0.1	-24.911
27590	16.273	2.5455	0.1	-25.57
27591	16.181	2.8182	0.1	-25.046
27592	16.273	2.7273	0.1	-25.761
27593	16.181	3.	0.1	-25.09
27594	16.273	2.9091	0.1	-25.857
27595	16.181	3.1818	0.1	-25.046
27596	16.273	3.0909	0.1	-25.857
27597	16.181	3.3636	0.1	-24.911
27598	16.273	3.2727	0.1	-25.761
27599	16.181	3.5455	0.1	-24.689
27600	16.273	3.4545	0.1	-25.57
27601	16.181	3.7273	0.1	-24.382
27602	16.273	3.6364	0.1	-25.286
27603	16.181	3.9091	0.1	-23.993
27604	16.273	3.8182	0.1	-24.913
27605	16.181	4.0909	0.1	-23.528
27606	16.273	4.	0.1	-24.455
27607	16.181	4.2727	0.1	-22.992
27608	16.273	4.1818	0.1	-23.918
27609	16.181	4.4545	0.1	-22.394
27610	16.273	4.3636	0.1	-23.309
27611	16.181	4.6364	0.1	-21.742
27612	16.273	4.5455	0.1	-22.636
27613	16.181	4.8182	0.1	-21.046
27614	16.273	4.7273	0.1	-21.909
27615	16.181	5.	0.1	-20.317
27616	16.273	4.9091	0.1	-21.14
27617	16.181	5.1818	0.1	-19.568
27618	16.273	5.0909	0.1	-20.34
27619	16.181	5.3636	0.1	-18.816
27620	16.273	5.2727	0.1	-19.524
27621	16.181	5.5455	0.1	-18.125
27622	16.273	5.4545	0.1	-18.714
27623	16.181	5.7273	0.1	-18.372
27624	16.273	5.6364	0.1	-18.019
27625	16.273	5.8182	0.1	-19.182
27626	16.181	5.9091	0.1	-12.574
27627	16.365	0.27273	0.1	-18.699
27628	16.456	0.18182	0.1	-19.453
27629	16.365	9.0909e-002	0.1	-12.743
27630	16.365	0.45455	0.1	-18.572
27631	16.456	0.36364	0.1	-18.409
27632	16.365	0.63636	0.1	-19.389
27633	16.456	0.54545	0.1	-19.235
27634	16.365	0.81818	0.1	-20.264
27635	16.456	0.72727	0.1	-20.175
27636	16.365	1.	0.1	-21.131
27637	16.456	0.90909	0.1	-21.116
27638	16.365	1.1818	0.1	-21.972
27639	16.456	1.0909	0.1	-22.036
27640	16.365	1.3636	0.1	-22.773
27641	16.456	1.2727	0.1	-22.918
27642	16.365	1.5455	0.1	-23.521
27643	16.456	1.4545	0.1	-23.748
27644	16.365	1.7273	0.1	-24.206
27645	16.456	1.6364	0.1	-24.515
27646	16.365	1.9091	0.1	-24.817
27647	16.456	1.8182	0.1	-25.208
27648	16.365	2.0909	0.1	-25.347
27649	16.456	2.	0.1	-25.818
27650	16.365	2.2727	0.1	-25.79
27651	16.456	2.1818	0.1	-26.337
27652	16.365	2.4545	0.1	-26.139
27653	16.456	2.3636	0.1	-26.759
27654	16.365	2.6364	0.1	-26.392
27655	16.456	2.5455	0.1	-27.08
27656	16.365	2.8182	0.1	-26.544
27657	16.456	2.7273	0.1	-27.296
27658	16.365	3.	0.1	-26.595
27659	16.456	2.9091	0.1	-27.404
27660	16.365	3.1818	0.1	-26.544
27661	16.456	3.0909	0.1	-27.404
27662	16.365	3.3636	0.1	-26.392
27663	16.456	3.2727	0.1	-27.296
27664	16.365	3.5455	0.1	-26.139
27665	16.456	3.4545	0.1	-27.08
27666	16.365	3.7273	0.1	-25.79
27667	16.456	3.6364	0.1	-26.759
27668	16.365	3.9091	0.1	-25.347
27669	16.456	3.8182	0.1	-26.337
27670	16.365	4.0909	0.1	-24.817
27671	16.456	4.	0.1	-25.818
27672	16.365	4.2727	0.1	-24.206
27673	16.456	4.1818	0.1	-25.208
27674	16.365	4.4545	0.1	-23.521
27675	16.456	4.3636	0.1	-24.515
27676	16.365	4.6364	0.1	-22.773
27677	16.456	4.5455	0.1	-23.748
27678	16.365	4.8182	0.1	-21.972
27679	16.456	4.7273	0.1	-22.918
27680	16.365	5.	0.1	-21.131
27681	16.456	4.9091	0.1	-22.036
27682	16.365	5.1818	0.1	-20.264
27683	16.456	5.0909	0.1	-21.116
27684	16.365	5.3636	0.1	-19.389
27685	16.456	5.2727	0.1	-20.175
27686	16.365	5.5455	0.1	-18.572
27687	16.456	5.4545	0.1	-19.235
27688	16.365	5.7273	0.1	-18.698
27689	16.456	5.6364	0.1	-18.408
27690	16.456	5.8182	0.1	-19.453
27691	16.365	5.9091	0.1	-12.743
27692	16.548	0.27273	0.1	-19.03
27693	16.64	0.18182	0.1	-19.723
27694	16.548	9.0909e-002	0.1	-12.912
27695	16.548	0.45455	0.1	-19.034
27696	16.64	0.36364	0.1	-18.809
27697	16.548	0.63636	0.1	-19.988
27698	16.64	0.54545	0.1	-19.778
27699	16.548	0.81818	0.1	-20.994
27700	16.64	0.72727	0.1	-20.857
27701	16.548	1.	0.1	-21.989
27702	16.64	0.90909	0.1	-21.933
27703	16.548	1.1818	0.1	-22.95
27704	16.64	1.0909	0.1	-22.981
27705	16.548	1.3636	0.1	-23.862
27706	16.64	1.2727	0.1	-23.983
27707	16.548	1.5455	0.1	-24.712
27708	16.64	1.4545	0.1	-24.924
27709	16.548	1.7273	0.1	-25.488
27710	16.64	1.6364	0.1	-25.792
27711	16.548	1.9091	0.1	-26.18
27712	16.64	1.8182	0.1	-26.574
27713	16.548	2.0909	0.1	-26.779
27714	16.64	2.	0.1	-27.26
27715	16.548	2.2727	0.1	-27.278
27716	16.64	2.1818	0.1	-27.844
27717	16.548	2.4545	0.1	-27.672
27718	16.64	2.3636	0.1	-28.318
27719	16.548	2.6364	0.1	-27.956
27720	16.64	2.5455	0.1	-28.678
27721	16.548	2.8182	0.1	-28.128
27722	16.64	2.7273	0.1	-28.92
27723	16.548	3.	0.1	-28.185
27724	16.64	2.9091	0.1	-29.041
27725	16.548	3.1818	0.1	-28.128
27726	16.64	3.0909	0.1	-29.041
27727	16.548	3.3636	0.1	-27.956
27728	16.64	3.2727	0.1	-28.92
27729	16.548	3.5455	0.1	-27.672
27730	16.64	3.4545	0.1	-28.678
27731	16.548	3.7273	0.1	-27.278
27732	16.64	3.6364	0.1	-28.318
27733	16.548	3.9091	0.1	-26.779
27734	16.64	3.8182	0.1	-27.844
27735	16.548	4.0909	0.1	-26.18
27736	16.64	4.	0.1	-27.26
27737	16.548	4.2727	0.1	-25.488
27738	16.64	4.1818	0.1	-26.574
27739	16.548	4.4545	0.1	-24.712
27740	16.64	4.3636	0.1	-25.792
27741	16.548	4.6364	0.1	-23.862
27742	16.64	4.5455	0.1	-24.924
27743	16.548	4.8182	0.1	-22.949
27744	16.64	4.7273	0.1	-23.983
27745	16.548	5.	0.1	-21.989
27746	16.64	4.9091	0.1	-22.981
27747	16.548	5.1818	0.1	-20.994
27748	16.64	5.0909	0.1	-21.933
27749	16.548	5.3636	0.1	-19.987
27750	16.64	5.2727	0.1	-20.857
27751	16.548	5.5455	0.1	-19.034
27752	16.64	5.4545	0.1	-19.778
27753	16.548	5.7273	0.1	-19.03
27754	16.64	5.6364	0.1	-18.809
27755	16.64	5.8182	0.1	-19.722
27756	16.548	5.9091	0.1	-12.912
27757	16.732	0.27273	0.1	-19.367
27758	16.824	0.18182	0.1	-19.991
27759	16.732	9.0909e-002	0.1	-13.08
27760	16.732	0.45455	0.1	-19.514
27761	16.824	0.36364	0.1	-19.222
27762	16.732	0.63636	0.1	-20.613
27763	16.824	0.54545	0.1	-20.344
27764	16.732	0.81818	0.1	-21.763
27765	16.824	0.72727	0.1	-21.574
27766	16.732	1.	0.1	-22.893
27767	16.824	0.90909	0.1	-22.796
27768	16.732	1.1818	0.1	-23.983
27769	16.824	1.0909	0.1	-23.982
27770	16.732	1.3636	0.1	-25.015
27771	16.824	1.2727	0.1	-25.113
27772	16.732	1.5455	0.1	-25.974
27773	16.824	1.4545	0.1	-26.172
27774	16.732	1.7273	0.1	-26.847
27775	16.824	1.6364	0.1	-27.147
27776	16.732	1.9091	0.1	-27.625
27777	16.824	1.8182	0.1	-28.023
27778	16.732	2.0909	0.1	-28.296
27779	16.824	2.	0.1	-28.791
27780	16.732	2.2727	0.1	-28.855
27781	16.824	2.1818	0.1	-29.443
27782	16.732	2.4545	0.1	-29.296
27783	16.824	2.3636	0.1	-29.972
27784	16.732	2.6364	0.1	-29.613
27785	16.824	2.5455	0.1	-30.373
27786	16.732	2.8182	0.1	-29.805
27787	16.824	2.7273	0.1	-30.642
27788	16.732	3.	0.1	-29.869
27789	16.824	2.9091	0.1	-30.777
27790	16.732	3.1818	0.1	-29.805
27791	16.824	3.0909	0.1	-30.777
27792	16.732	3.3636	0.1	-29.613
27793	16.824	3.2727	0.1	-30.642
27794	16.732	3.5455	0.1	-29.296
27795	16.824	3.4545	0.1	-30.373
27796	16.732	3.7273	0.1	-28.855
27797	16.824	3.6364	0.1	-29.972
27798	16.732	3.9091	0.1	-28.296
27799	16.824	3.8182	0.1	-29.443
27800	16.732	4.0909	0.1	-27.625
27801	16.824	4.	0.1	-28.791
27802	16.732	4.2727	0.1	-26.847
27803	16.824	4.1818	0.1	-28.023
27804	16.732	4.4545	0.1	-25.974
27805	16.824	4.3636	0.1	-27.147
27806	16.732	4.6364	0.1	-25.015
27807	16.824	4.5455	0.1	-26.172
27808	16.732	4.8182	0.1	-23.983
27809	16.824	4.7273	0.1	-25.113
27810	16.732	5.	0.1	-22.893
27811	16.824	4.9091	0.1	-23.982
27812	16.732	5.1818	0.1	-21.763
27813	16.824	5.0909	0.1	-22.796
27814	16.732	5.3636	0.1	-20.613
27815	16.824	5.2727	0.1	-21.574
27816	16.732	5.5455	0.1	-19.514
27817	16.824	5.4545	0.1	-20.344
27818	16.732	5.7273	0.1	-19.367
27819	16.824	5.6364	0.1	-19.222
27820	16.824	5.8182	0.1	-19.991
27821	16.732	5.9091	0.1	-13.079
27822	16.916	0.27273	0.1	-19.71
27823	17.008	0.18182	0.1	-20.258
27824	16.916	9.0909e-002	0.1	-13.245
27825	16.916	0.45455	0.1	-20.013
27826	17.008	0.36364	0.1	-19.648
27827	16.916	0.63636	0.1	-21.271
27828	17.008	0.54545	0.1	-20.938
27829	16.916	0.81818	0.1	-22.574
27830	17.008	0.72727	0.1	-22.331
27831	16.916	1.	0.1	-23.852
27832	17.008	0.90909	0.1	-23.71
27833	16.916	1.1818	0.1	-25.079
27834	17.008	1.0909	0.1	-25.044
27835	16.916	1.3636	0.1	-26.239
27836	17.008	1.2727	0.1	-26.314
27837	16.916	1.5455	0.1	-27.315
27838	17.008	1.4545	0.1	-27.501
27839	16.916	1.7273	0.1	-28.292
27840	17.008	1.6364	0.1	-28.589
27841	16.916	1.9091	0.1	-29.16
27842	17.008	1.8182	0.1	-29.566
27843	16.916	2.0909	0.1	-29.909
27844	17.008	2.	0.1	-30.421
27845	16.916	2.2727	0.1	-30.531
27846	17.008	2.1818	0.1	-31.145
27847	16.916	2.4545	0.1	-31.021
27848	17.008	2.3636	0.1	-31.732
27849	16.916	2.6364	0.1	-31.374
27850	17.008	2.5455	0.1	-32.176
27851	16.916	2.8182	0.1	-31.587
27852	17.008	2.7273	0.1	-32.474
27853	16.916	3.	0.1	-31.658
27854	17.008	2.9091	0.1	-32.623
27855	16.916	3.1818	0.1	-31.587
27856	17.008	3.0909	0.1	-32.623
27857	16.916	3.3636	0.1	-31.374
27858	17.008	3.2727	0.1	-32.474
27859	16.916	3.5455	0.1	-31.021
27860	17.008	3.4545	0.1	-32.176
27861	16.916	3.7273	0.1	-30.531
27862	17.008	3.6364	0.1	-31.732
27863	16.916	3.9091	0.1	-29.909
27864	17.008	3.8182	0.1	-31.145
27865	16.916	4.0909	0.1	-29.16
27866	17.008	4.	0.1	-30.421
27867	16.916	4.2727	0.1	-28.292
27868	17.008	4.1818	0.1	-29.566
27869	16.916	4.4545	0.1	-27.315
27870	17.008	4.3636	0.1	-28.589
27871	16.916	4.6364	0.1	-26.239
27872	17.008	4.5455	0.1	-27.501
27873	16.916	4.8182	0.1	-25.079
27874	17.008	4.7273	0.1	-26.314
27875	16.916	5.	0.1	-23.851
27876	17.008	4.9091	0.1	-25.044
27877	16.916	5.1818	0.1	-22.574
27878	17.008	5.0909	0.1	-23.71
27879	16.916	5.3636	0.1	-21.271
27880	17.008	5.2727	0.1	-22.331
27881	16.916	5.5455	0.1	-20.013
27882	17.008	5.4545	0.1	-20.938
27883	16.916	5.7273	0.1	-19.71
27884	17.008	5.6364	0.1	-19.648
27885	17.008	5.8182	0.1	-20.258
27886	16.916	5.9091	0.1	-13.245
27887	17.1	0.27273	0.1	-20.059
27888	17.192	0.18182	0.1	-20.524
27889	17.1	9.0909e-002	0.1	-13.409
27890	17.1	0.45455	0.1	-20.533
27891	17.192	0.36364	0.1	-20.09
27892	17.1	0.63636	0.1	-21.963
27893	17.192	0.54545	0.1	-21.562
27894	17.1	0.81818	0.1	-23.433
27895	17.192	0.72727	0.1	-23.133
27896	17.1	1.	0.1	-24.87
27897	17.192	0.90909	0.1	-24.682
27898	17.1	1.1818	0.1	-26.247
27899	17.192	1.0909	0.1	-26.177
27900	17.1	1.3636	0.1	-27.544
27901	17.192	1.2727	0.1	-27.595
27902	17.1	1.5455	0.1	-28.744
27903	17.192	1.4545	0.1	-28.918
27904	17.1	1.7273	0.1	-29.833
27905	17.192	1.6364	0.1	-30.128
27906	17.1	1.9091	0.1	-30.797
27907	17.192	1.8182	0.1	-31.213
27908	17.1	2.0909	0.1	-31.628
27909	17.192	2.	0.1	-32.159
27910	17.1	2.2727	0.1	-32.317
27911	17.192	2.1818	0.1	-32.96
27912	17.1	2.4545	0.1	-32.858
27913	17.192	2.3636	0.1	-33.607
27914	17.1	2.6364	0.1	-33.248
27915	17.192	2.5455	0.1	-34.097
27916	17.1	2.8182	0.1	-33.483
27917	17.192	2.7273	0.1	-34.425
27918	17.1	3.	0.1	-33.561
27919	17.192	2.9091	0.1	-34.589
27920	17.1	3.1818	0.1	-33.483
27921	17.192	3.0909	0.1	-34.589
27922	17.1	3.3636	0.1	-33.248
27923	17.192	3.2727	0.1	-34.425
27924	17.1	3.5455	0.1	-32.858
27925	17.192	3.4545	0.1	-34.097
27926	17.1	3.7273	0.1	-32.317
27927	17.192	3.6364	0.1	-33.607
27928	17.1	3.9091	0.1	-31.628
27929	17.192	3.8182	0.1	-32.96
27930	17.1	4.0909	0.1	-30.797
27931	17.192	4.	0.1	-32.159
27932	17.1	4.2727	0.1	-29.833
27933	17.192	4.1818	0.1	-31.212
27934	17.1	4.4545	0.1	-28.744
27935	17.192	4.3636	0.1	-30.128
27936	17.1	4.6364	0.1	-27.544
27937	17.192	4.5455	0.1	-28.918
27938	17.1	4.8182	0.1	-26.247
27939	17.192	4.7273	0.1	-27.595
27940	17.1	5.	0.1	-24.87
27941	17.192	4.9091	0.1	-26.177
27942	17.1	5.1818	0.1	-23.433
27943	17.192	5.0909	0.1	-24.682
27944	17.1	5.3636	0.1	-21.963
27945	17.192	5.2727	0.1	-23.133
27946	17.1	5.5455	0.1	-20.533
27947	17.192	5.4545	0.1	-21.562
27948	17.1	5.7273	0.1	-20.059
27949	17.192	5.6364	0.1	-20.09
27950	17.192	5.8182	0.1	-20.524
27951	17.1	5.9091	0.1	-13.409
27952	17.284	0.27273	0.1	-20.415
27953	17.376	0.18182	0.1	-20.786
27954	17.284	9.0909e-002	0.1	-13.57
27955	17.284	0.45455	0.1	-21.078
27956	17.376	0.36364	0.1	-20.548
27957	17.284	0.63636	0.1	-22.695
27958	17.376	0.54545	0.1	-22.22
27959	17.284	0.81818	0.1	-24.347
27960	17.376	0.72727	0.1	-23.984
27961	17.284	1.	0.1	-25.955
27962	17.376	0.90909	0.1	-25.718
27963	17.284	1.1818	0.1	-27.493
27964	17.376	1.0909	0.1	-27.387
27965	17.284	1.3636	0.1	-28.938
27966	17.376	1.2727	0.1	-28.966
27967	17.284	1.5455	0.1	-30.272
27968	17.376	1.4545	0.1	-30.435
27969	17.284	1.7273	0.1	-31.478
27970	17.376	1.6364	0.1	-31.776
27971	17.284	1.9091	0.1	-32.545
27972	17.376	1.8182	0.1	-32.974
27973	17.284	2.0909	0.1	-33.462
27974	17.376	2.	0.1	-34.018
27975	17.284	2.2727	0.1	-34.222
27976	17.376	2.1818	0.1	-34.898
27977	17.284	2.4545	0.1	-34.817
27978	17.376	2.3636	0.1	-35.61
27979	17.284	2.6364	0.1	-35.246
27980	17.376	2.5455	0.1	-36.147
27981	17.284	2.8182	0.1	-35.504
27982	17.376	2.7273	0.1	-36.506
27983	17.284	3.	0.1	-35.59
27984	17.376	2.9091	0.1	-36.687
27985	17.284	3.1818	0.1	-35.504
27986	17.376	3.0909	0.1	-36.687
27987	17.284	3.3636	0.1	-35.246
27988	17.376	3.2727	0.1	-36.506
27989	17.284	3.5455	0.1	-34.817
27990	17.376	3.4545	0.1	-36.147
27991	17.284	3.7273	0.1	-34.222
27992	17.376	3.6364	0.1	-35.61
27993	17.284	3.9091	0.1	-33.462
27994	17.376	3.8182	0.1	-34.898
27995	17.284	4.0909	0.1	-32.545
27996	17.376	4.	0.1	-34.018
27997	17.284	4.2727	0.1	-31.478
27998	17.376	4.1818	0.1	-32.974
27999	17.284	4.4545	0.1	-30.272
28000	17.376	4.3636	0.1	-31.776
28001	17.284	4.6364	0.1	-28.938
28002	17.376	4.5455	0.1	-30.435
28003	17.284	4.8182	0.1	-27.493
28004	17.376	4.7273	0.1	-28.966
28005	17.284	5.	0.1	-25.955
28006	17.376	4.9091	0.1	-27.387
28007	17.284	5.1818	0.1	-24.347
28008	17.376	5.0909	0.1	-25.718
28009	17.284	5.3636	0.1	-22.695
28010	17.376	5.2727	0.1	-23.984
28011	17.284	5.5455	0.1	-21.077
28012	17.376	5.4545	0.1	-22.22
28013	17.284	5.7273	0.1	-20.415
28014	17.376	5.6364	0.1	-20.548
28015	17.376	5.8182	0.1	-20.786
28016	17.284	5.9091	0.1	-13.57
28017	17.468	0.27273	0.1	-20.778
28018	17.56	0.18182	0.1	-21.045
28019	17.468	9.0909e-002	0.1	-13.727
28020	17.468	0.45455	0.1	-21.649
28021	17.56	0.36364	0.1	-21.026
28022	17.468	0.63636	0.1	-23.472
28023	17.56	0.54545	0.1	-22.915
28024	17.468	0.81818	0.1	-25.32
28025	17.56	0.72727	0.1	-24.891
28026	17.468	1.	0.1	-27.116
28027	17.56	0.90909	0.1	-26.826
28028	17.468	1.1818	0.1	-28.828
28029	17.56	1.0909	0.1	-28.684
28030	17.468	1.3636	0.1	-30.432
28031	17.56	1.2727	0.1	-30.437
28032	17.468	1.5455	0.1	-31.908
28033	17.56	1.4545	0.1	-32.063
28034	17.468	1.7273	0.1	-33.241
28035	17.56	1.6364	0.1	-33.542
28036	17.468	1.9091	0.1	-34.417
28037	17.56	1.8182	0.1	-34.861
28038	17.468	2.0909	0.1	-35.425
28039	17.56	2.	0.1	-36.008
28040	17.468	2.2727	0.1	-36.258
28041	17.56	2.1818	0.1	-36.973
28042	17.468	2.4545	0.1	-36.911
28043	17.56	2.3636	0.1	-37.751
28044	17.468	2.6364	0.1	-37.38
28045	17.56	2.5455	0.1	-38.338
28046	17.468	2.8182	0.1	-37.662
28047	17.56	2.7273	0.1	-38.73
28048	17.468	3.	0.1	-37.756
28049	17.56	2.9091	0.1	-38.927
28050	17.468	3.1818	0.1	-37.662
28051	17.56	3.0909	0.1	-38.927
28052	17.468	3.3636	0.1	-37.38
28053	17.56	3.2727	0.1	-38.73
28054	17.468	3.5455	0.1	-36.911
28055	17.56	3.4545	0.1	-38.338
28056	17.468	3.7273	0.1	-36.258
28057	17.56	3.6364	0.1	-37.751
28058	17.468	3.9091	0.1	-35.425
28059	17.56	3.8182	0.1	-36.973
28060	17.468	4.0909	0.1	-34.417
28061	17.56	4.	0.1	-36.008
28062	17.468	4.2727	0.1	-33.241
28063	17.56	4.1818	0.1	-34.861
28064	17.468	4.4545	0.1	-31.908
28065	17.56	4.3636	0.1	-33.542
28066	17.468	4.6364	0.1	-30.432
28067	17.56	4.5455	0.1	-32.063
28068	17.468	4.8182	0.1	-28.828
28069	17.56	4.7273	0.1	-30.437
28070	17.468	5.	0.1	-27.116
28071	17.56	4.9091	0.1	-28.684
28072	17.468	5.1818	0.1	-25.32
28073	17.56	5.0909	0.1	-26.826
28074	17.468	5.3636	0.1	-23.472
28075	17.56	5.2727	0.1	-24.891
28076	17.468	5.5455	0.1	-21.648
28077	17.56	5.4545	0.1	-22.915
28078	17.468	5.7273	0.1	-20.778
28079	17.56	5.6364	0.1	-21.026
28080	17.56	5.8182	0.1	-21.045
28081	17.468	5.9091	0.1	-13.727
28082	17.652	0.27273	0.1	-21.149
28083	17.744	0.18182	0.1	-21.299
28084	17.652	9.0909e-002	0.1	-13.88
28085	17.652	0.45455	0.1	-22.249
28086	17.744	0.36364	0.1	-21.523
28087	17.652	0.63636	0.1	-24.297
28088	17.744	0.54545	0.1	-23.653
28089	17.652	0.81818	0.1	-26.361
28090	17.744	0.72727	0.1	-25.86
28091	17.652	1.	0.1	-28.36
28092	17.744	0.90909	0.1	-28.015
28093	17.652	1.1818	0.1	-30.26
28094	17.744	1.0909	0.1	-30.077
28095	17.652	1.3636	0.1	-32.036
28096	17.744	1.2727	0.1	-32.018
28097	17.652	1.5455	0.1	-33.666
28098	17.744	1.4545	0.1	-33.812
28099	17.652	1.7273	0.1	-35.133
28100	17.744	1.6364	0.1	-35.441
28101	17.652	1.9091	0.1	-36.423
28102	17.744	1.8182	0.1	-36.888
28103	17.652	2.0909	0.1	-37.528
28104	17.744	2.	0.1	-38.143
28105	17.652	2.2727	0.1	-38.438
28106	17.744	2.1818	0.1	-39.197
28107	17.652	2.4545	0.1	-39.151
28108	17.744	2.3636	0.1	-40.045
28109	17.652	2.6364	0.1	-39.661
28110	17.744	2.5455	0.1	-40.683
28111	17.652	2.8182	0.1	-39.968
28112	17.744	2.7273	0.1	-41.109
28113	17.652	3.	0.1	-40.071
28114	17.744	2.9091	0.1	-41.322
28115	17.652	3.1818	0.1	-39.968
28116	17.744	3.0909	0.1	-41.322
28117	17.652	3.3636	0.1	-39.661
28118	17.744	3.2727	0.1	-41.109
28119	17.652	3.5455	0.1	-39.151
28120	17.744	3.4545	0.1	-40.683
28121	17.652	3.7273	0.1	-38.438
28122	17.744	3.6364	0.1	-40.045
28123	17.652	3.9091	0.1	-37.528
28124	17.744	3.8182	0.1	-39.197
28125	17.652	4.0909	0.1	-36.423
28126	17.744	4.	0.1	-38.143
28127	17.652	4.2727	0.1	-35.133
28128	17.744	4.1818	0.1	-36.888
28129	17.652	4.4545	0.1	-33.666
28130	17.744	4.3636	0.1	-35.441
28131	17.652	4.6364	0.1	-32.036
28132	17.744	4.5455	0.1	-33.812
28133	17.652	4.8182	0.1	-30.26
28134	17.744	4.7273	0.1	-32.018
28135	17.652	5.	0.1	-28.36
28136	17.744	4.9091	0.1	-30.077
28137	17.652	5.1818	0.1	-26.361
28138	17.744	5.0909	0.1	-28.015
28139	17.652	5.3636	0.1	-24.297
28140	17.744	5.2727	0.1	-25.86
28141	17.652	5.5455	0.1	-22.249
28142	17.744	5.4545	0.1	-23.653
28143	17.652	5.7273	0.1	-21.149
28144	17.744	5.6364	0.1	-21.523
28145	17.744	5.8182	0.1	-21.299
28146	17.652	5.9091	0.1	-13.88
28147	17.835	0.27273	0.1	-21.528
28148	17.927	0.18182	0.1	-21.547
28149	17.835	9.0909e-002	0.1	-14.028
28150	17.835	0.45455	0.1	-22.883
28151	17.927	0.36364	0.1	-22.044
28152	17.835	0.63636	0.1	-25.178
28153	17.927	0.54545	0.1	-24.438
28154	17.835	0.81818	0.1	-27.477
28155	17.927	0.72727	0.1	-26.899
28156	17.835	1.	0.1	-29.698
28157	17.927	0.90909	0.1	-29.294
28158	17.835	1.1818	0.1	-31.802
28159	17.927	1.0909	0.1	-31.579
28160	17.835	1.3636	0.1	-33.763
28161	17.927	1.2727	0.1	-33.722
28162	17.835	1.5455	0.1	-35.557
28163	17.927	1.4545	0.1	-35.698
28164	17.835	1.7273	0.1	-37.167
28165	17.927	1.6364	0.1	-37.485
28166	17.835	1.9091	0.1	-38.579
28167	17.927	1.8182	0.1	-39.069
28168	17.835	2.0909	0.1	-39.784
28169	17.927	2.	0.1	-40.438
28170	17.835	2.2727	0.1	-40.776
28171	17.927	2.1818	0.1	-41.584
28172	17.835	2.4545	0.1	-41.549
28173	17.927	2.3636	0.1	-42.503
28174	17.835	2.6364	0.1	-42.103
28175	17.927	2.5455	0.1	-43.194
28176	17.835	2.8182	0.1	-42.436
28177	17.927	2.7273	0.1	-43.655
28178	17.835	3.	0.1	-42.546
28179	17.927	2.9091	0.1	-43.885
28180	17.835	3.1818	0.1	-42.436
28181	17.927	3.0909	0.1	-43.885
28182	17.835	3.3636	0.1	-42.103
28183	17.927	3.2727	0.1	-43.655
28184	17.835	3.5455	0.1	-41.549
28185	17.927	3.4545	0.1	-43.194
28186	17.835	3.7273	0.1	-40.776
28187	17.927	3.6364	0.1	-42.503
28188	17.835	3.9091	0.1	-39.784
28189	17.927	3.8182	0.1	-41.584
28190	17.835	4.0909	0.1	-38.579
28191	17.927	4.	0.1	-40.438
28192	17.835	4.2727	0.1	-37.167
28193	17.927	4.1818	0.1	-39.069
28194	17.835	4.4545	0.1	-35.557
28195	17.927	4.3636	0.1	-37.485
28196	17.835	4.6364	0.1	-33.763
28197	17.927	4.5455	0.1	-35.698
28198	17.835	4.8182	0.1	-31.802
28199	17.927	4.7273	0.1	-33.722
28200	17.835	5.	0.1	-29.698
28201	17.927	4.9091	0.1	-31.579
28202	17.835	5.1818	0.1	-27.477
28203	17.927	5.0909	0.1	-29.294
28204	17.835	5.3636	0.1	-25.177
28205	17.927	5.2727	0.1	-26.899
28206	17.835	5.5455	0.1	-22.883
28207	17.927	5.4545	0.1	-24.438
28208	17.835	5.7273	0.1	-21.528
28209	17.927	5.6364	0.1	-22.044
28210	17.927	5.8182	0.1	-21.547
28211	17.835	5.9091	0.1	-14.028
28212	18.019	0.27273	0.1	-21.915
28213	18.111	0.18182	0.1	-21.788
28214	18.019	9.0909e-002	0.1	-14.169
28215	18.019	0.45455	0.1	-23.553
28216	18.111	0.36364	0.1	-22.589
28217	18.019	0.63636	0.1	-26.12
28218	18.111	0.54545	0.1	-25.275
28219	18.019	0.81818	0.1	-28.678
28220	18.111	0.72727	0.1	-28.016
28221	18.019	1.	0.1	-31.14
28222	18.111	0.90909	0.1	-30.674
28223	18.019	1.1818	0.1	-33.466
28224	18.111	1.0909	0.1	-33.201
28225	18.019	1.3636	0.1	-35.626
28226	18.111	1.2727	0.1	-35.564
28227	18.019	1.5455	0.1	-37.596
28228	18.111	1.4545	0.1	-37.735
28229	18.019	1.7273	0.1	-39.358
28230	18.111	1.6364	0.1	-39.691
28231	18.019	1.9091	0.1	-40.899
28232	18.111	1.8182	0.1	-41.419
28233	18.019	2.0909	0.1	-42.209
28234	18.111	2.	0.1	-42.906
28235	18.019	2.2727	0.1	-43.284
28236	18.111	2.1818	0.1	-44.148
28237	18.019	2.4545	0.1	-44.121
28238	18.111	2.3636	0.1	-45.142
28239	18.019	2.6364	0.1	-44.719
28240	18.111	2.5455	0.1	-45.886
28241	18.019	2.8182	0.1	-45.077
28242	18.111	2.7273	0.1	-46.381
28243	18.019	3.	0.1	-45.197
28244	18.111	2.9091	0.1	-46.629
28245	18.019	3.1818	0.1	-45.077
28246	18.111	3.0909	0.1	-46.629
28247	18.019	3.3636	0.1	-44.719
28248	18.111	3.2727	0.1	-46.381
28249	18.019	3.5455	0.1	-44.121
28250	18.111	3.4545	0.1	-45.886
28251	18.019	3.7273	0.1	-43.284
28252	18.111	3.6364	0.1	-45.142
28253	18.019	3.9091	0.1	-42.209
28254	18.111	3.8182	0.1	-44.148
28255	18.019	4.0909	0.1	-40.899
28256	18.111	4.	0.1	-42.906
28257	18.019	4.2727	0.1	-39.358
28258	18.111	4.1818	0.1	-41.419
28259	18.019	4.4545	0.1	-37.596
28260	18.111	4.3636	0.1	-39.691
28261	18.019	4.6364	0.1	-35.626
28262	18.111	4.5455	0.1	-37.735
28263	18.019	4.8182	0.1	-33.466
28264	18.111	4.7273	0.1	-35.564
28265	18.019	5.	0.1	-31.14
28266	18.111	4.9091	0.1	-33.201
28267	18.019	5.1818	0.1	-28.678
28268	18.111	5.0909	0.1	-30.674
28269	18.019	5.3636	0.1	-26.12
28270	18.111	5.2727	0.1	-28.015
28271	18.019	5.5455	0.1	-23.553
28272	18.111	5.4545	0.1	-25.275
28273	18.019	5.7273	0.1	-21.915
28274	18.111	5.6364	0.1	-22.589
28275	18.111	5.8182	0.1	-21.788
28276	18.019	5.9091	0.1	-14.169
28277	18.203	0.27273	0.1	-22.312
28278	18.295	0.18182	0.1	-22.019
28279	18.203	9.0909e-002	0.1	-14.303
28280	18.203	0.45455	0.1	-24.265
28281	18.295	0.36364	0.1	-23.163
28282	18.203	0.63636	0.1	-27.131
28283	18.295	0.54545	0.1	-26.172
28284	18.203	0.81818	0.1	-29.973
28285	18.295	0.72727	0.1	-29.22
28286	18.203	1.	0.1	-32.699
28287	18.295	0.90909	0.1	-32.166
28288	18.203	1.1818	0.1	-35.266
28289	18.295	1.0909	0.1	-34.959
28290	18.203	1.3636	0.1	-37.641
28291	18.295	1.2727	0.1	-37.559
28292	18.203	1.5455	0.1	-39.799
28293	18.295	1.4545	0.1	-39.939
28294	18.203	1.7273	0.1	-41.722
28295	18.295	1.6364	0.1	-42.076
28296	18.203	1.9091	0.1	-43.398
28297	18.295	1.8182	0.1	-43.954
28298	18.203	2.0909	0.1	-44.818
28299	18.295	2.	0.1	-45.566
28300	18.203	2.2727	0.1	-45.979
28301	18.295	2.1818	0.1	-46.906
28302	18.203	2.4545	0.1	-46.88
28303	18.295	2.3636	0.1	-47.975
28304	18.203	2.6364	0.1	-47.522
28305	18.295	2.5455	0.1	-48.773
28306	18.203	2.8182	0.1	-47.907
28307	18.295	2.7273	0.1	-49.303
28308	18.203	3.	0.1	-48.035
28309	18.295	2.9091	0.1	-49.567
28310	18.203	3.1818	0.1	-47.907
28311	18.295	3.0909	0.1	-49.567
28312	18.203	3.3636	0.1	-47.522
28313	18.295	3.2727	0.1	-49.303
28314	18.203	3.5455	0.1	-46.88
28315	18.295	3.4545	0.1	-48.773
28316	18.203	3.7273	0.1	-45.979
28317	18.295	3.6364	0.1	-47.975
28318	18.203	3.9091	0.1	-44.818
28319	18.295	3.8182	0.1	-46.906
28320	18.203	4.0909	0.1	-43.398
28321	18.295	4.	0.1	-45.566
28322	18.203	4.2727	0.1	-41.722
28323	18.295	4.1818	0.1	-43.954
28324	18.203	4.4545	0.1	-39.799
28325	18.295	4.3636	0.1	-42.076
28326	18.203	4.6364	0.1	-37.641
28327	18.295	4.5455	0.1	-39.939
28328	18.203	4.8182	0.1	-35.266
28329	18.295	4.7273	0.1	-37.559
28330	18.203	5.	0.1	-32.699
28331	18.295	4.9091	0.1	-34.959
28332	18.203	5.1818	0.1	-29.973
28333	18.295	5.0909	0.1	-32.166
28334	18.203	5.3636	0.1	-27.131
28335	18.295	5.2727	0.1	-29.22
28336	18.203	5.5455	0.1	-24.265
28337	18.295	5.4545	0.1	-26.172
28338	18.203	5.7273	0.1	-22.312
28339	18.295	5.6364	0.1	-23.163
28340	18.295	5.8182	0.1	-22.019
28341	18.203	5.9091	0.1	-14.302
28342	18.387	0.27273	0.1	-22.718
28343	18.479	0.18182	0.1	-22.239
28344	18.387	9.0909e-002	0.1	-14.426
28345	18.387	0.45455	0.1	-25.022
28346	18.479	0.36364	0.1	-23.767
28347	18.387	0.63636	0.1	-28.22
28348	18.479	0.54545	0.1	-27.135
28349	18.387	0.81818	0.1	-31.375
28350	18.479	0.72727	0.1	-30.523
28351	18.387	1.	0.1	-34.39
28352	18.479	0.90909	0.1	-33.786
28353	18.387	1.1818	0.1	-37.218
28354	18.479	1.0909	0.1	-36.867
28355	18.387	1.3636	0.1	-39.825
28356	18.479	1.2727	0.1	-39.726
28357	18.387	1.5455	0.1	-42.185
28358	18.479	1.4545	0.1	-42.33
28359	18.387	1.7273	0.1	-44.279
28360	18.479	1.6364	0.1	-44.658
28361	18.387	1.9091	0.1	-46.095
28362	18.479	1.8182	0.1	-46.695
28363	18.387	2.0909	0.1	-47.627
28364	18.479	2.	0.1	-48.435
28365	18.387	2.2727	0.1	-48.876
28366	18.479	2.1818	0.1	-49.875
28367	18.387	2.4545	0.1	-49.841
28368	18.479	2.3636	0.1	-51.019
28369	18.387	2.6364	0.1	-50.528
28370	18.479	2.5455	0.1	-51.87
28371	18.387	2.8182	0.1	-50.938
28372	18.479	2.7273	0.1	-52.433
28373	18.387	3.	0.1	-51.074
28374	18.479	2.9091	0.1	-52.714
28375	18.387	3.1818	0.1	-50.938
28376	18.479	3.0909	0.1	-52.714
28377	18.387	3.3636	0.1	-50.527
28378	18.479	3.2727	0.1	-52.433
28379	18.387	3.5455	0.1	-49.841
28380	18.479	3.4545	0.1	-51.87
28381	18.387	3.7273	0.1	-48.876
28382	18.479	3.6364	0.1	-51.019
28383	18.387	3.9091	0.1	-47.627
28384	18.479	3.8182	0.1	-49.875
28385	18.387	4.0909	0.1	-46.095
28386	18.479	4.	0.1	-48.435
28387	18.387	4.2727	0.1	-44.278
28388	18.479	4.1818	0.1	-46.695
28389	18.387	4.4545	0.1	-42.185
28390	18.479	4.3636	0.1	-44.658
28391	18.387	4.6364	0.1	-39.825
28392	18.479	4.5455	0.1	-42.33
28393	18.387	4.8182	0.1	-37.218
28394	18.479	4.7273	0.1	-39.725
28395	18.387	5.	0.1	-34.39
28396	18.479	4.9091	0.1	-36.867
28397	18.387	5.1818	0.1	-31.375
28398	18.479	5.0909	0.1	-33.786
28399	18.387	5.3636	0.1	-28.22
28400	18.479	5.2727	0.1	-30.523
28401	18.387	5.5455	0.1	-25.022
28402	18.479	5.4545	0.1	-27.135
28403	18.387	5.7273	0.1	-22.718
28404	18.479	5.6364	0.1	-23.767
28405	18.479	5.8182	0.1	-22.239
28406	18.387	5.9091	0.1	-14.426
28407	18.571	0.27273	0.1	-23.134
28408	18.663	0.18182	0.1	-22.446
28409	18.571	9.0909e-002	0.1	-14.538
28410	18.571	0.45455	0.1	-25.831
28411	18.663	0.36364	0.1	-24.406
28412	18.571	0.63636	0.1	-29.396
28413	18.663	0.54545	0.1	-28.173
28414	18.571	0.81818	0.1	-32.895
28415	18.663	0.72727	0.1	-31.936
28416	18.571	1.	0.1	-36.227
28417	18.663	0.90909	0.1	-35.548
28418	18.571	1.1818	0.1	-39.341
28419	18.663	1.0909	0.1	-38.945
28420	18.571	1.3636	0.1	-42.198
28421	18.663	1.2727	0.1	-42.083
28422	18.571	1.5455	0.1	-44.773
28423	18.663	1.4545	0.1	-44.929
28424	18.571	1.7273	0.1	-47.046
28425	18.663	1.6364	0.1	-47.46
28426	18.571	1.9091	0.1	-49.009
28427	18.663	1.8182	0.1	-49.663
28428	18.571	2.0909	0.1	-50.657
28429	18.663	2.	0.1	-51.534
28430	18.571	2.2727	0.1	-51.993
28431	18.663	2.1818	0.1	-53.075
28432	18.571	2.4545	0.1	-53.022
28433	18.663	2.3636	0.1	-54.291
28434	18.571	2.6364	0.1	-53.75
28435	18.663	2.5455	0.1	-55.193
28436	18.571	2.8182	0.1	-54.185
28437	18.663	2.7273	0.1	-55.788
28438	18.571	3.	0.1	-54.329
28439	18.663	2.9091	0.1	-56.083
28440	18.571	3.1818	0.1	-54.185
28441	18.663	3.0909	0.1	-56.083
28442	18.571	3.3636	0.1	-53.75
28443	18.663	3.2727	0.1	-55.788
28444	18.571	3.5455	0.1	-53.022
28445	18.663	3.4545	0.1	-55.193
28446	18.571	3.7273	0.1	-51.993
28447	18.663	3.6364	0.1	-54.291
28448	18.571	3.9091	0.1	-50.657
28449	18.663	3.8182	0.1	-53.075
28450	18.571	4.0909	0.1	-49.009
28451	18.663	4.	0.1	-51.534
28452	18.571	4.2727	0.1	-47.046
28453	18.663	4.1818	0.1	-49.663
28454	18.571	4.4545	0.1	-44.773
28455	18.663	4.3636	0.1	-47.46
28456	18.571	4.6364	0.1	-42.198
28457	18.663	4.5455	0.1	-44.929
28458	18.571	4.8182	0.1	-39.341
28459	18.663	4.7273	0.1	-42.083
28460	18.571	5.	0.1	-36.227
28461	18.663	4.9091	0.1	-38.945
28462	18.571	5.1818	0.1	-32.895
28463	18.663	5.0909	0.1	-35.548
28464	18.571	5.3636	0.1	-29.396
28465	18.663	5.2727	0.1	-31.936
28466	18.571	5.5455	0.1	-25.831
28467	18.663	5.4545	0.1	-28.173
28468	18.571	5.7273	0.1	-23.134
28469	18.663	5.6364	0.1	-24.406
28470	18.663	5.8182	0.1	-22.446
28471	18.571	5.9091	0.1	-14.538
28472	18.755	0.27273	0.1	-23.56
28473	18.847	0.18182	0.1	-22.636
28474	18.755	9.0909e-002	0.1	-14.636
28475	18.755	0.45455	0.1	-26.697
28476	18.847	0.36364	0.1	-25.083
28477	18.755	0.63636	0.1	-30.67
28478	18.847	0.54545	0.1	-29.294
28479	18.755	0.81818	0.1	-34.55
28480	18.847	0.72727	0.1	-33.475
28481	18.755	1.	0.1	-38.23
28482	18.847	0.90909	0.1	-37.471
28483	18.755	1.1818	0.1	-41.654
28484	18.847	1.0909	0.1	-41.214
28485	18.755	1.3636	0.1	-44.783
28486	18.847	1.2727	0.1	-44.656
28487	18.755	1.5455	0.1	-47.587
28488	18.847	1.4545	0.1	-47.761
28489	18.755	1.7273	0.1	-50.049
28490	18.847	1.6364	0.1	-50.507
28491	18.755	1.9091	0.1	-52.162
28492	18.847	1.8182	0.1	-52.882
28493	18.755	2.0909	0.1	-53.926
28494	18.847	2.	0.1	-54.886
28495	18.755	2.2727	0.1	-55.348
28496	18.847	2.1818	0.1	-56.525
28497	18.755	2.4545	0.1	-56.438
28498	18.847	2.3636	0.1	-57.811
28499	18.755	2.6364	0.1	-57.206
28500	18.847	2.5455	0.1	-58.759
28501	18.755	2.8182	0.1	-57.663
28502	18.847	2.7273	0.1	-59.382
28503	18.755	3.	0.1	-57.814
28504	18.847	2.9091	0.1	-59.691
28505	18.755	3.1818	0.1	-57.663
28506	18.847	3.0909	0.1	-59.691
28507	18.755	3.3636	0.1	-57.206
28508	18.847	3.2727	0.1	-59.382
28509	18.755	3.5455	0.1	-56.438
28510	18.847	3.4545	0.1	-58.759
28511	18.755	3.7273	0.1	-55.348
28512	18.847	3.6364	0.1	-57.811
28513	18.755	3.9091	0.1	-53.926
28514	18.847	3.8182	0.1	-56.525
28515	18.755	4.0909	0.1	-52.162
28516	18.847	4.	0.1	-54.886
28517	18.755	4.2727	0.1	-50.049
28518	18.847	4.1818	0.1	-52.882
28519	18.755	4.4545	0.1	-47.587
28520	18.847	4.3636	0.1	-50.507
28521	18.755	4.6364	0.1	-44.783
28522	18.847	4.5455	0.1	-47.761
28523	18.755	4.8182	0.1	-41.654
28524	18.847	4.7273	0.1	-44.656
28525	18.755	5.	0.1	-38.23
28526	18.847	4.9091	0.1	-41.214
28527	18.755	5.1818	0.1	-34.55
28528	18.847	5.0909	0.1	-37.471
28529	18.755	5.3636	0.1	-30.67
28530	18.847	5.2727	0.1	-33.475
28531	18.755	5.5455	0.1	-26.697
28532	18.847	5.4545	0.1	-29.294
28533	18.755	5.7273	0.1	-23.56
28534	18.847	5.6364	0.1	-25.083
28535	18.847	5.8182	0.1	-22.635
28536	18.755	5.9091	0.1	-14.636
28537	18.939	0.27273	0.1	-23.998
28538	19.031	0.18182	0.1	-22.806
28539	18.939	9.0909e-002	0.1	-14.718
28540	18.939	0.45455	0.1	-27.627
28541	19.031	0.36364	0.1	-25.802
28542	18.939	0.63636	0.1	-32.054
28543	19.031	0.54545	0.1	-30.509
28544	18.939	0.81818	0.1	-36.356
28545	19.031	0.72727	0.1	-35.153
28546	18.939	1.	0.1	-40.419
28547	19.031	0.90909	0.1	-39.575
28548	18.939	1.1818	0.1	-44.183
28549	19.031	1.0909	0.1	-43.698
28550	18.939	1.3636	0.1	-47.604
28551	19.031	1.2727	0.1	-47.471
28552	18.939	1.5455	0.1	-50.652
28553	19.031	1.4545	0.1	-50.854
28554	18.939	1.7273	0.1	-53.313
28555	19.031	1.6364	0.1	-53.827
28556	18.939	1.9091	0.1	-55.58
28557	19.031	1.8182	0.1	-56.379
28558	18.939	2.0909	0.1	-57.459
28559	19.031	2.	0.1	-58.516
28560	18.939	2.2727	0.1	-58.964
28561	19.031	2.1818	0.1	-60.249
28562	18.939	2.4545	0.1	-60.109
28563	19.031	2.3636	0.1	-61.599
28564	18.939	2.6364	0.1	-60.912
28565	19.031	2.5455	0.1	-62.586
28566	18.939	2.8182	0.1	-61.387
28567	19.031	2.7273	0.1	-63.231
28568	18.939	3.	0.1	-61.544
28569	19.031	2.9091	0.1	-63.549
28570	18.939	3.1818	0.1	-61.387
28571	19.031	3.0909	0.1	-63.549
28572	18.939	3.3636	0.1	-60.912
28573	19.031	3.2727	0.1	-63.231
28574	18.939	3.5455	0.1	-60.109
28575	19.031	3.4545	0.1	-62.586
28576	18.939	3.7273	0.1	-58.964
28577	19.031	3.6364	0.1	-61.599
28578	18.939	3.9091	0.1	-57.459
28579	19.031	3.8182	0.1	-60.249
28580	18.939	4.0909	0.1	-55.58
28581	19.031	4.	0.1	-58.516
28582	18.939	4.2727	0.1	-53.313
28583	19.031	4.1818	0.1	-56.379
28584	18.939	4.4545	0.1	-50.652
28585	19.031	4.3636	0.1	-53.826
28586	18.939	4.6364	0.1	-47.604
28587	19.031	4.5455	0.1	-50.854
28588	18.939	4.8182	0.1	-44.183
28589	19.031	4.7273	0.1	-47.47
28590	18.939	5.	0.1	-40.419
28591	19.031	4.9091	0.1	-43.698
28592	18.939	5.1818	0.1	-36.356
28593	19.031	5.0909	0.1	-39.574
28594	18.939	5.3636	0.1	-32.054
28595	19.031	5.2727	0.1	-35.153
28596	18.939	5.5455	0.1	-27.627
28597	19.031	5.4545	0.1	-30.509
28598	18.939	5.7273	0.1	-23.998
28599	19.031	5.6364	0.1	-25.802
28600	19.031	5.8182	0.1	-22.806
28601	18.939	5.9091	0.1	-14.718
28602	19.123	0.27273	0.1	-24.447
28603	19.215	0.18182	0.1	-22.952
28604	19.123	9.0909e-002	0.1	-14.78
28605	19.123	0.45455	0.1	-28.629
28606	19.215	0.36364	0.1	-26.569
28607	19.123	0.63636	0.1	-33.563
28608	19.215	0.54545	0.1	-31.83
28609	19.123	0.81818	0.1	-38.332
28610	19.215	0.72727	0.1	-36.989
28611	19.123	1.	0.1	-42.818
28612	19.215	0.90909	0.1	-41.882
28613	19.123	1.1818	0.1	-46.953
28614	19.215	1.0909	0.1	-46.425
28615	19.123	1.3636	0.1	-50.691
28616	19.215	1.2727	0.1	-50.558
28617	19.123	1.5455	0.1	-54.001
28618	19.215	1.4545	0.1	-54.241
28619	19.123	1.7273	0.1	-56.867
28620	19.215	1.6364	0.1	-57.453
28621	19.123	1.9091	0.1	-59.29
28622	19.215	1.8182	0.1	-60.187
28623	19.123	2.0909	0.1	-61.282
28624	19.215	2.	0.1	-62.453
28625	19.123	2.2727	0.1	-62.861
28626	19.215	2.1818	0.1	-64.273
28627	19.123	2.4545	0.1	-64.053
28628	19.215	2.3636	0.1	-65.676
28629	19.123	2.6364	0.1	-64.883
28630	19.215	2.5455	0.1	-66.692
28631	19.123	2.8182	0.1	-65.372
28632	19.215	2.7273	0.1	-67.35
28633	19.123	3.	0.1	-65.533
28634	19.215	2.9091	0.1	-67.674
28635	19.123	3.1818	0.1	-65.372
28636	19.215	3.0909	0.1	-67.674
28637	19.123	3.3636	0.1	-64.883
28638	19.215	3.2727	0.1	-67.35
28639	19.123	3.5455	0.1	-64.053
28640	19.215	3.4545	0.1	-66.692
28641	19.123	3.7273	0.1	-62.861
28642	19.215	3.6364	0.1	-65.676
28643	19.123	3.9091	0.1	-61.282
28644	19.215	3.8182	0.1	-64.273
28645	19.123	4.0909	0.1	-59.29
28646	19.215	4.	0.1	-62.453
28647	19.123	4.2727	0.1	-56.867
28648	19.215	4.1818	0.1	-60.187
28649	19.123	4.4545	0.1	-54.001
28650	19.215	4.3636	0.1	-57.453
28651	19.123	4.6364	0.1	-50.691
28652	19.215	4.5455	0.1	-54.241
28653	19.123	4.8182	0.1	-46.953
28654	19.215	4.7273	0.1	-50.558
28655	19.123	5.	0.1	-42.818
28656	19.215	4.9091	0.1	-46.425
28657	19.123	5.1818	0.1	-38.332
28658	19.215	5.0909	0.1	-41.882
28659	19.123	5.3636	0.1	-33.563
28660	19.215	5.2727	0.1	-36.989
28661	19.123	5.5455	0.1	-28.629
28662	19.215	5.4545	0.1	-31.83
28663	19.123	5.7273	0.1	-24.447
28664	19.215	5.6364	0.1	-26.569
28665	19.215	5.8182	0.1	-22.952
28666	19.123	5.9091	0.1	-14.78
28667	19.306	0.27273	0.1	-24.908
28668	19.398	0.18182	0.1	-23.072
28669	19.306	9.0909e-002	0.1	-14.819
28670	19.306	0.45455	0.1	-29.712
28671	19.398	0.36364	0.1	-27.387
28672	19.306	0.63636	0.1	-35.21
28673	19.398	0.54545	0.1	-33.268
28674	19.306	0.81818	0.1	-40.499
28675	19.398	0.72727	0.1	-39.003
28676	19.306	1.	0.1	-45.453
28677	19.398	0.90909	0.1	-44.42
28678	19.306	1.1818	0.1	-49.997
28679	19.398	1.0909	0.1	-49.425
28680	19.306	1.3636	0.1	-54.079
28681	19.398	1.2727	0.1	-53.954
28682	19.306	1.5455	0.1	-57.667
28683	19.398	1.4545	0.1	-57.961
28684	19.306	1.7273	0.1	-60.748
28685	19.398	1.6364	0.1	-61.424
28686	19.306	1.9091	0.1	-63.326
28687	19.398	1.8182	0.1	-64.342
28688	19.306	2.0909	0.1	-65.422
28689	19.398	2.	0.1	-66.732
28690	19.306	2.2727	0.1	-67.066
28691	19.398	2.1818	0.1	-68.626
28692	19.306	2.4545	0.1	-68.292
28693	19.398	2.3636	0.1	-70.065
28694	19.306	2.6364	0.1	-69.138
28695	19.398	2.5455	0.1	-71.095
28696	19.306	2.8182	0.1	-69.632
28697	19.398	2.7273	0.1	-71.755
28698	19.306	3.	0.1	-69.794
28699	19.398	2.9091	0.1	-72.077
28700	19.306	3.1818	0.1	-69.632
28701	19.398	3.0909	0.1	-72.077
28702	19.306	3.3636	0.1	-69.138
28703	19.398	3.2727	0.1	-71.755
28704	19.306	3.5455	0.1	-68.292
28705	19.398	3.4545	0.1	-71.095
28706	19.306	3.7273	0.1	-67.066
28707	19.398	3.6364	0.1	-70.065
28708	19.306	3.9091	0.1	-65.422
28709	19.398	3.8182	0.1	-68.626
28710	19.306	4.0909	0.1	-63.326
28711	19.398	4.	0.1	-66.732
28712	19.306	4.2727	0.1	-60.748
28713	19.398	4.1818	0.1	-64.342
28714	19.306	4.4545	0.1	-57.667
28715	19.398	4.3636	0.1	-61.424
28716	19.306	4.6364	0.1	-54.079
28717	19.398	4.5455	0.1	-57.961
28718	19.306	4.8182	0.1	-49.997
28719	19.398	4.7273	0.1	-53.954
28720	19.306	5.	0.1	-45.453
28721	19.398	4.9091	0.1	-49.425
28722	19.306	5.1818	0.1	-40.499
28723	19.398	5.0909	0.1	-44.42
28724	19.306	5.3636	0.1	-35.21
28725	19.398	5.2727	0.1	-39.003
28726	19.306	5.5455	0.1	-29.712
28727	19.398	5.4545	0.1	-33.268
28728	19.306	5.7273	0.1	-24.908
28729	19.398	5.6364	0.1	-27.387
28730	19.398	5.8182	0.1	-23.071
28731	19.306	5.9091	0.1	-14.819
28732	19.49	0.27273	0.1	-25.381
28733	19.582	0.18182	0.1	-23.158
28734	19.49	9.0909e-002	0.1	-14.831
28735	19.49	0.45455	0.1	-30.884
28736	19.582	0.36364	0.1	-28.262
28737	19.49	0.63636	0.1	-37.014
28738	19.582	0.54545	0.1	-34.838
28739	19.49	0.81818	0.1	-42.883
28740	19.582	0.72727	0.1	-41.216
28741	19.49	1.	0.1	-48.357
28742	19.582	0.90909	0.1	-47.217
28743	19.49	1.1818	0.1	-53.351
28744	19.582	1.0909	0.1	-52.737
28745	19.49	1.3636	0.1	-57.808
28746	19.582	1.2727	0.1	-57.701
28747	19.49	1.5455	0.1	-61.693
28748	19.582	1.4545	0.1	-62.058
28749	19.49	1.7273	0.1	-64.995
28750	19.582	1.6364	0.1	-65.787
28751	19.49	1.9091	0.1	-67.726
28752	19.582	1.8182	0.1	-68.889
28753	19.49	2.0909	0.1	-69.915
28754	19.582	2.	0.1	-71.392
28755	19.49	2.2727	0.1	-71.605
28756	19.582	2.1818	0.1	-73.341
28757	19.49	2.4545	0.1	-72.848
28758	19.582	2.3636	0.1	-74.795
28759	19.49	2.6364	0.1	-73.692
28760	19.582	2.5455	0.1	-75.815
28761	19.49	2.8182	0.1	-74.18
28762	19.582	2.7273	0.1	-76.459
28763	19.49	3.	0.1	-74.34
28764	19.582	2.9091	0.1	-76.77
28765	19.49	3.1818	0.1	-74.18
28766	19.582	3.0909	0.1	-76.769
28767	19.49	3.3636	0.1	-73.692
28768	19.582	3.2727	0.1	-76.459
28769	19.49	3.5455	0.1	-72.848
28770	19.582	3.4545	0.1	-75.815
28771	19.49	3.7273	0.1	-71.605
28772	19.582	3.6364	0.1	-74.795
28773	19.49	3.9091	0.1	-69.915
28774	19.582	3.8182	0.1	-73.341
28775	19.49	4.0909	0.1	-67.726
28776	19.582	4.	0.1	-71.392
28777	19.49	4.2727	0.1	-64.995
28778	19.582	4.1818	0.1	-68.889
28779	19.49	4.4545	0.1	-61.693
28780	19.582	4.3636	0.1	-65.787
28781	19.49	4.6364	0.1	-57.808
28782	19.582	4.5455	0.1	-62.058
28783	19.49	4.8182	0.1	-53.351
28784	19.582	4.7273	0.1	-57.701
28785	19.49	5.	0.1	-48.357
28786	19.582	4.9091	0.1	-52.737
28787	19.49	5.1818	0.1	-42.883
28788	19.582	5.0909	0.1	-47.217
28789	19.49	5.3636	0.1	-37.014
28790	19.582	5.2727	0.1	-41.216
28791	19.49	5.5455	0.1	-30.884
28792	19.582	5.4545	0.1	-34.837
28793	19.49	5.7273	0.1	-25.381
28794	19.582	5.6364	0.1	-28.262
28795	19.582	5.8182	0.1	-23.158
28796	19.49	5.9091	0.1	-14.831
28797	19.674	0.27273	0.1	-25.866
28798	19.766	0.18182	0.1	-23.207
28799	19.674	9.0909e-002	0.1	-14.812
28800	19.674	0.45455	0.1	-32.154
28801	19.766	0.36364	0.1	-29.198
28802	19.674	0.63636	0.1	-38.992
28803	19.766	0.54545	0.1	-36.552
28804	19.674	0.81818	0.1	-45.51
28805	19.766	0.72727	0.1	-43.651
28806	19.674	1.	0.1	-51.564
28807	19.766	0.90909	0.1	-50.307
28808	19.674	1.1818	0.1	-57.058
28809	19.766	1.0909	0.1	-56.402
28810	19.674	1.3636	0.1	-61.926
28811	19.766	1.2727	0.1	-61.848
28812	19.674	1.5455	0.1	-66.129
28813	19.766	1.4545	0.1	-66.589
28814	19.674	1.7273	0.1	-69.66
28815	19.766	1.6364	0.1	-70.597
28816	19.674	1.9091	0.1	-72.535
28817	19.766	1.8182	0.1	-73.882
28818	19.674	2.0909	0.1	-74.799
28819	19.766	2.	0.1	-76.48
28820	19.674	2.2727	0.1	-76.512
28821	19.766	2.1818	0.1	-78.457
28822	19.674	2.4545	0.1	-77.744
28823	19.766	2.3636	0.1	-79.892
28824	19.674	2.6364	0.1	-78.564
28825	19.766	2.5455	0.1	-80.872
28826	19.674	2.8182	0.1	-79.03
28827	19.766	2.7273	0.1	-81.475
28828	19.674	3.	0.1	-79.181
28829	19.766	2.9091	0.1	-81.761
28830	19.674	3.1818	0.1	-79.03
28831	19.766	3.0909	0.1	-81.761
28832	19.674	3.3636	0.1	-78.564
28833	19.766	3.2727	0.1	-81.475
28834	19.674	3.5455	0.1	-77.744
28835	19.766	3.4545	0.1	-80.872
28836	19.674	3.7273	0.1	-76.512
28837	19.766	3.6364	0.1	-79.892
28838	19.674	3.9091	0.1	-74.799
28839	19.766	3.8182	0.1	-78.457
28840	19.674	4.0909	0.1	-72.535
28841	19.766	4.	0.1	-76.48
28842	19.674	4.2727	0.1	-69.66
28843	19.766	4.1818	0.1	-73.882
28844	19.674	4.4545	0.1	-66.129
28845	19.766	4.3636	0.1	-70.597
28846	19.674	4.6364	0.1	-61.926
28847	19.766	4.5455	0.1	-66.589
28848	19.674	4.8182	0.1	-57.058
28849	19.766	4.7273	0.1	-61.848
28850	19.674	5.	0.1	-51.564
28851	19.766	4.9091	0.1	-56.402
28852	19.674	5.1818	0.1	-45.51
28853	19.766	5.0909	0.1	-50.307
28854	19.674	5.3636	0.1	-38.992
28855	19.766	5.2727	0.1	-43.651
28856	19.674	5.5455	0.1	-32.154
28857	19.766	5.4545	0.1	-36.552
28858	19.674	5.7273	0.1	-25.866
28859	19.766	5.6364	0.1	-29.198
28860	19.766	5.8182	0.1	-23.206
28861	19.674	5.9091	0.1	-14.812
28862	19.858	0.27273	0.1	-26.361
28863	19.95	0.18182	0.1	-23.21
28864	19.858	9.0909e-002	0.1	-14.757
28865	19.858	0.45455	0.1	-33.532
28866	19.95	0.36364	0.1	-30.199
28867	19.858	0.63636	0.1	-41.162
28868	19.95	0.54545	0.1	-38.423
28869	19.858	0.81818	0.1	-48.409
28870	19.95	0.72727	0.1	-46.332
28871	19.858	1.	0.1	-55.114
28872	19.95	0.90909	0.1	-53.726
28873	19.858	1.1818	0.1	-61.166
28874	19.95	1.0909	0.1	-60.469
28875	19.858	1.3636	0.1	-66.489
28876	19.95	1.2727	0.1	-66.456
28877	19.858	1.5455	0.1	-71.037
28878	19.95	1.4545	0.1	-71.618
28879	19.858	1.7273	0.1	-74.801
28880	19.95	1.6364	0.1	-75.924
28881	19.858	1.9091	0.1	-77.809
28882	19.95	1.8182	0.1	-79.386
28883	19.858	2.0909	0.1	-80.121
28884	19.95	2.	0.1	-82.055
28885	19.858	2.2727	0.1	-81.821
28886	19.95	2.1818	0.1	-84.02
28887	19.858	2.4545	0.1	-83.005
28888	19.95	2.3636	0.1	-85.391
28889	19.858	2.6364	0.1	-83.767
28890	19.95	2.5455	0.1	-86.286
28891	19.858	2.8182	0.1	-84.189
28892	19.95	2.7273	0.1	-86.813
28893	19.858	3.	0.1	-84.323
28894	19.95	2.9091	0.1	-87.054
28895	19.858	3.1818	0.1	-84.189
28896	19.95	3.0909	0.1	-87.054
28897	19.858	3.3636	0.1	-83.767
28898	19.95	3.2727	0.1	-86.813
28899	19.858	3.5455	0.1	-83.005
28900	19.95	3.4545	0.1	-86.286
28901	19.858	3.7273	0.1	-81.821
28902	19.95	3.6364	0.1	-85.391
28903	19.858	3.9091	0.1	-80.121
28904	19.95	3.8182	0.1	-84.02
28905	19.858	4.0909	0.1	-77.809
28906	19.95	4.	0.1	-82.055
28907	19.858	4.2727	0.1	-74.801
28908	19.95	4.1818	0.1	-79.386
28909	19.858	4.4545	0.1	-71.037
28910	19.95	4.3636	0.1	-75.924
28911	19.858	4.6364	0.1	-66.489
28912	19.95	4.5455	0.1	-71.618
28913	19.858	4.8182	0.1	-61.166
28914	19.95	4.7273	0.1	-66.456
28915	19.858	5.	0.1	-55.113
28916	19.95	4.9091	0.1	-60.468
28917	19.858	5.1818	0.1	-48.409
28918	19.95	5.0909	0.1	-53.726
28919	19.858	5.3636	0.1	-41.162
28920	19.95	5.2727	0.1	-46.332
28921	19.858	5.5455	0.1	-33.532
28922	19.95	5.4545	0.1	-38.423
28923	19.858	5.7273	0.1	-26.361
28924	19.95	5.6364	0.1	-30.199
28925	19.95	5.8182	0.1	-23.21
28926	19.858	5.9091	0.1	-14.757
28927	20.042	0.27273	0.1	-26.865
28928	20.134	0.18182	0.1	-23.161
28929	20.042	9.0909e-002	0.1	-14.659
28930	20.042	0.45455	0.1	-35.024
28931	20.134	0.36364	0.1	-31.264
28932	20.042	0.63636	0.1	-43.544
28933	20.134	0.54545	0.1	-40.463
28934	20.042	0.81818	0.1	-51.612
28935	20.134	0.72727	0.1	-49.283
28936	20.042	1.	0.1	-59.052
28937	20.134	0.90909	0.1	-57.513
28938	20.042	1.1818	0.1	-65.735
28939	20.134	1.0909	0.1	-64.993
28940	20.042	1.3636	0.1	-71.566
28941	20.134	1.2727	0.1	-71.594
28942	20.042	1.5455	0.1	-76.49
28943	20.134	1.4545	0.1	-77.229
28944	20.042	1.7273	0.1	-80.494
28945	20.134	1.6364	0.1	-81.855
28946	20.042	1.9091	0.1	-83.618
28947	20.134	1.8182	0.1	-85.485
28948	20.042	2.0909	0.1	-85.94
28949	20.134	2.	0.1	-88.19
28950	20.042	2.2727	0.1	-87.576
28951	20.134	2.1818	0.1	-90.088
28952	20.042	2.4545	0.1	-88.658
28953	20.134	2.3636	0.1	-91.329
28954	20.042	2.6364	0.1	-89.317
28955	20.134	2.5455	0.1	-92.075
28956	20.042	2.8182	0.1	-89.662
28957	20.134	2.7273	0.1	-92.477
28958	20.042	3.	0.1	-89.769
28959	20.134	2.9091	0.1	-92.646
28960	20.042	3.1818	0.1	-89.662
28961	20.134	3.0909	0.1	-92.646
28962	20.042	3.3636	0.1	-89.317
28963	20.134	3.2727	0.1	-92.477
28964	20.042	3.5455	0.1	-88.658
28965	20.134	3.4545	0.1	-92.075
28966	20.042	3.7273	0.1	-87.576
28967	20.134	3.6364	0.1	-91.329
28968	20.042	3.9091	0.1	-85.94
28969	20.134	3.8182	0.1	-90.088
28970	20.042	4.0909	0.1	-83.618
28971	20.134	4.	0.1	-88.19
28972	20.042	4.2727	0.1	-80.494
28973	20.134	4.1818	0.1	-85.485
28974	20.042	4.4545	0.1	-76.489
28975	20.134	4.3636	0.1	-81.855
28976	20.042	4.6364	0.1	-71.566
28977	20.134	4.5455	0.1	-77.229
28978	20.042	4.8182	0.1	-65.735
28979	20.134	4.7273	0.1	-71.594
28980	20.042	5.	0.1	-59.052
28981	20.134	4.9091	0.1	-64.993
28982	20.042	5.1818	0.1	-51.611
28983	20.134	5.0909	0.1	-57.513
28984	20.042	5.3636	0.1	-43.544
28985	20.134	5.2727	0.1	-49.283
28986	20.042	5.5455	0.1	-35.024
28987	20.134	5.4545	0.1	-40.463
28988	20.042	5.7273	0.1	-26.865
28989	20.134	5.6364	0.1	-31.264
28990	20.134	5.8182	0.1	-23.161
28991	20.042	5.9091	0.1	-14.659
28992	20.226	0.27273	0.1	-27.373
28993	20.318	0.18182	0.1	-23.051
28994	20.226	9.0909e-002	0.1	-14.512
28995	20.226	0.45455	0.1	-36.635
28996	20.318	0.36364	0.1	-32.392
28997	20.226	0.63636	0.1	-46.154
28998	20.318	0.54545	0.1	-42.678
28999	20.226	0.81818	0.1	-55.15
29000	20.318	0.72727	0.1	-52.527
29001	20.226	1.	0.1	-63.429
29002	20.318	0.90909	0.1	-61.711
29003	20.226	1.1818	0.1	-70.833
29004	20.318	1.0909	0.1	-70.039
29005	20.226	1.3636	0.1	-77.243
29006	20.318	1.2727	0.1	-77.35
29007	20.226	1.5455	0.1	-82.582
29008	20.318	1.4545	0.1	-83.524
29009	20.226	1.7273	0.1	-86.835
29010	20.318	1.6364	0.1	-88.498
29011	20.226	1.9091	0.1	-90.047
29012	20.318	1.8182	0.1	-92.287
29013	20.226	2.0909	0.1	-92.327
29014	20.318	2.	0.1	-94.978
29015	20.226	2.2727	0.1	-93.829
29016	20.318	2.1818	0.1	-96.73
29017	20.226	2.4545	0.1	-94.734
29018	20.318	2.3636	0.1	-97.749
29019	20.226	2.6364	0.1	-95.222
29020	20.318	2.5455	0.1	-98.259
29021	20.226	2.8182	0.1	-95.447
29022	20.318	2.7273	0.1	-98.465
29023	20.226	3.	0.1	-95.51
29024	20.318	2.9091	0.1	-98.525
29025	20.226	3.1818	0.1	-95.447
29026	20.318	3.0909	0.1	-98.525
29027	20.226	3.3636	0.1	-95.222
29028	20.318	3.2727	0.1	-98.465
29029	20.226	3.5455	0.1	-94.734
29030	20.318	3.4545	0.1	-98.259
29031	20.226	3.7273	0.1	-93.829
29032	20.318	3.6364	0.1	-97.749
29033	20.226	3.9091	0.1	-92.327
29034	20.318	3.8182	0.1	-96.73
29035	20.226	4.0909	0.1	-90.047
29036	20.318	4.	0.1	-94.978
29037	20.226	4.2727	0.1	-86.835
29038	20.318	4.1818	0.1	-92.287
29039	20.226	4.4545	0.1	-82.582
29040	20.318	4.3636	0.1	-88.498
29041	20.226	4.6364	0.1	-77.243
29042	20.318	4.5455	0.1	-83.524
29043	20.226	4.8182	0.1	-70.833
29044	20.318	4.7273	0.1	-77.35
29045	20.226	5.	0.1	-63.429
29046	20.318	4.9091	0.1	-70.039
29047	20.226	5.1818	0.1	-55.15
29048	20.318	5.0909	0.1	-61.711
29049	20.226	5.3636	0.1	-46.154
29050	20.318	5.2727	0.1	-52.527
29051	20.226	5.5455	0.1	-36.635
29052	20.318	5.4545	0.1	-42.678
29053	20.226	5.7273	0.1	-27.373
29054	20.318	5.6364	0.1	-32.392
29055	20.318	5.8182	0.1	-23.051
29056	20.226	5.9091	0.1	-14.512
29057	20.41	0.27273	0.1	-27.876
29058	20.502	0.18182	0.1	-22.869
29059	20.41	9.0909e-002	0.1	-14.309
29060	20.41	0.45455	0.1	-38.364
29061	20.502	0.36364	0.1	-33.572
29062	20.41	0.63636	0.1	-49.004
29063	20.502	0.54545	0.1	-45.067
29064	20.41	0.81818	0.1	-59.057
29065	20.502	0.72727	0.1	-56.079
29066	20.41	1.	0.1	-68.303
29067	20.502	0.90909	0.1	-66.363
29068	20.41	1.1818	0.1	-76.545
29069	20.502	1.0909	0.1	-75.685
29070	20.41	1.3636	0.1	-83.624
29071	20.502	1.2727	0.1	-83.831
29072	20.41	1.5455	0.1	-89.435
29073	20.502	1.4545	0.1	-90.635
29074	20.41	1.7273	0.1	-93.945
29075	20.502	1.6364	0.1	-96.001
29076	20.41	1.9091	0.1	-97.211
29077	20.502	1.8182	0.1	-99.932
29078	20.41	2.0909	0.1	-99.374
29079	20.502	2.	0.1	-102.54
29080	20.41	2.2727	0.1	-100.64
29081	20.502	2.1818	0.1	-104.04
29082	20.41	2.4545	0.1	-101.26
29083	20.502	2.3636	0.1	-104.7
29084	20.41	2.6364	0.1	-101.49
29085	20.502	2.5455	0.1	-104.85
29086	20.41	2.8182	0.1	-101.53
29087	20.502	2.7273	0.1	-104.76
29088	20.41	3.	0.1	-101.53
29089	20.502	2.9091	0.1	-104.66
29090	20.41	3.1818	0.1	-101.53
29091	20.502	3.0909	0.1	-104.66
29092	20.41	3.3636	0.1	-101.49
29093	20.502	3.2727	0.1	-104.76
29094	20.41	3.5455	0.1	-101.26
29095	20.502	3.4545	0.1	-104.85
29096	20.41	3.7273	0.1	-100.64
29097	20.502	3.6364	0.1	-104.7
29098	20.41	3.9091	0.1	-99.374
29099	20.502	3.8182	0.1	-104.04
29100	20.41	4.0909	0.1	-97.211
29101	20.502	4.	0.1	-102.54
29102	20.41	4.2727	0.1	-93.945
29103	20.502	4.1818	0.1	-99.932
29104	20.41	4.4545	0.1	-89.435
29105	20.502	4.3636	0.1	-96.001
29106	20.41	4.6364	0.1	-83.624
29107	20.502	4.5455	0.1	-90.635
29108	20.41	4.8182	0.1	-76.545
29109	20.502	4.7273	0.1	-83.831
29110	20.41	5.	0.1	-68.303
29111	20.502	4.9091	0.1	-75.685
29112	20.41	5.1818	0.1	-59.057
29113	20.502	5.0909	0.1	-66.363
29114	20.41	5.3636	0.1	-49.004
29115	20.502	5.2727	0.1	-56.079
29116	20.41	5.5455	0.1	-38.364
29117	20.502	5.4545	0.1	-45.067
29118	20.41	5.7273	0.1	-27.876
29119	20.502	5.6364	0.1	-33.572
29120	20.502	5.8182	0.1	-22.869
29121	20.41	5.9091	0.1	-14.309
29122	20.594	0.27273	0.1	-28.364
29123	20.685	0.18182	0.1	-22.603
29124	20.594	9.0909e-002	0.1	-14.042
29125	20.594	0.45455	0.1	-40.203
29126	20.685	0.36364	0.1	-34.786
29127	20.594	0.63636	0.1	-52.1
29128	20.685	0.54545	0.1	-47.618
29129	20.594	0.81818	0.1	-63.363
29130	20.685	0.72727	0.1	-59.95
29131	20.594	1.	0.1	-73.736
29132	20.685	0.90909	0.1	-71.514
29133	20.594	1.1818	0.1	-82.97
29134	20.685	1.0909	0.1	-82.017
29135	20.594	1.3636	0.1	-90.845
29136	20.685	1.2727	0.1	-91.173
29137	20.594	1.5455	0.1	-97.205
29138	20.685	1.4545	0.1	-98.737
29139	20.594	1.7273	0.1	-101.99
29140	20.685	1.6364	0.1	-104.56
29141	20.594	1.9091	0.1	-105.26
29142	20.685	1.8182	0.1	-108.61
29143	20.594	2.0909	0.1	-107.2
29144	20.685	2.	0.1	-111.04
29145	20.594	2.2727	0.1	-108.09
29146	20.685	2.1818	0.1	-112.12
29147	20.594	2.4545	0.1	-108.28
29148	20.685	2.3636	0.1	-112.26
29149	20.594	2.6364	0.1	-108.12
29150	20.685	2.5455	0.1	-111.86
29151	20.594	2.8182	0.1	-107.89
29152	20.685	2.7273	0.1	-111.35
29153	20.594	3.	0.1	-107.79
29154	20.685	2.9091	0.1	-111.01
29155	20.594	3.1818	0.1	-107.89
29156	20.685	3.0909	0.1	-111.01
29157	20.594	3.3636	0.1	-108.12
29158	20.685	3.2727	0.1	-111.35
29159	20.594	3.5455	0.1	-108.28
29160	20.685	3.4545	0.1	-111.86
29161	20.594	3.7273	0.1	-108.09
29162	20.685	3.6364	0.1	-112.26
29163	20.594	3.9091	0.1	-107.2
29164	20.685	3.8182	0.1	-112.12
29165	20.594	4.0909	0.1	-105.26
29166	20.685	4.	0.1	-111.04
29167	20.594	4.2727	0.1	-101.99
29168	20.685	4.1818	0.1	-108.61
29169	20.594	4.4545	0.1	-97.205
29170	20.685	4.3636	0.1	-104.56
29171	20.594	4.6364	0.1	-90.845
29172	20.685	4.5455	0.1	-98.737
29173	20.594	4.8182	0.1	-82.97
29174	20.685	4.7273	0.1	-91.173
29175	20.594	5.	0.1	-73.736
29176	20.685	4.9091	0.1	-82.017
29177	20.594	5.1818	0.1	-63.363
29178	20.685	5.0909	0.1	-71.514
29179	20.594	5.3636	0.1	-52.1
29180	20.685	5.2727	0.1	-59.95
29181	20.594	5.5455	0.1	-40.203
29182	20.685	5.4545	0.1	-47.618
29183	20.594	5.7273	0.1	-28.364
29184	20.685	5.6364	0.1	-34.786
29185	20.685	5.8182	0.1	-22.603
29186	20.594	5.9091	0.1	-14.041
29187	20.777	0.27273	0.1	-28.817
29188	20.869	0.18182	0.1	-22.239
29189	20.777	9.0909e-002	0.1	-13.701
29190	20.777	0.45455	0.1	-42.13
29191	20.869	0.36364	0.1	-36.001
29192	20.777	0.63636	0.1	-55.433
29193	20.869	0.54545	0.1	-50.3
29194	20.777	0.81818	0.1	-68.091
29195	20.869	0.72727	0.1	-64.133
29196	20.777	1.	0.1	-79.801
29197	20.869	0.90909	0.1	-77.205
29198	20.777	1.1818	0.1	-90.235
29199	20.869	1.0909	0.1	-89.141
29200	20.777	1.3636	0.1	-99.082
29201	20.869	1.2727	0.1	-99.547
29202	20.777	1.5455	0.1	-106.1
29203	20.869	1.4545	0.1	-108.06
29204	20.777	1.7273	0.1	-111.19
29205	20.869	1.6364	0.1	-114.43
29206	20.777	1.9091	0.1	-114.4
29207	20.869	1.8182	0.1	-118.59
29208	20.777	2.0909	0.1	-115.96
29209	20.869	2.	0.1	-120.7
29210	20.777	2.2727	0.1	-116.28
29211	20.869	2.1818	0.1	-121.15
29212	20.777	2.4545	0.1	-115.83
29213	20.869	2.3636	0.1	-120.48
29214	20.777	2.6364	0.1	-115.09
29215	20.869	2.5455	0.1	-119.3
29216	20.777	2.8182	0.1	-114.46
29217	20.869	2.7273	0.1	-118.16
29218	20.777	3.	0.1	-114.22
29219	20.869	2.9091	0.1	-117.48
29220	20.777	3.1818	0.1	-114.46
29221	20.869	3.0909	0.1	-117.48
29222	20.777	3.3636	0.1	-115.09
29223	20.869	3.2727	0.1	-118.16
29224	20.777	3.5455	0.1	-115.83
29225	20.869	3.4545	0.1	-119.3
29226	20.777	3.7273	0.1	-116.28
29227	20.869	3.6364	0.1	-120.48
29228	20.777	3.9091	0.1	-115.96
29229	20.869	3.8182	0.1	-121.15
29230	20.777	4.0909	0.1	-114.4
29231	20.869	4.	0.1	-120.7
29232	20.777	4.2727	0.1	-111.19
29233	20.869	4.1818	0.1	-118.59
29234	20.777	4.4545	0.1	-106.1
29235	20.869	4.3636	0.1	-114.43
29236	20.777	4.6364	0.1	-99.082
29237	20.869	4.5455	0.1	-108.06
29238	20.777	4.8182	0.1	-90.234
29239	20.869	4.7273	0.1	-99.547
29240	20.777	5.	0.1	-79.801
29241	20.869	4.9091	0.1	-89.141
29242	20.777	5.1818	0.1	-68.091
29243	20.869	5.0909	0.1	-77.205
29244	20.777	5.3636	0.1	-55.433
29245	20.869	5.2727	0.1	-64.133
29246	20.777	5.5455	0.1	-42.13
29247	20.869	5.4545	0.1	-50.3
29248	20.777	5.7273	0.1	-28.817
29249	20.869	5.6364	0.1	-36.001
29250	20.869	5.8182	0.1	-22.239
29251	20.777	5.9091	0.1	-13.701
29252	20.961	0.27273	0.1	-29.207
29253	21.053	0.18182	0.1	-21.761
29254	20.961	9.0909e-002	0.1	-13.278
29255	20.961	0.45455	0.1	-44.103
29256	21.053	0.36364	0.1	-37.166
29257	20.961	0.63636	0.1	-58.978
29258	21.053	0.54545	0.1	-53.057
29259	20.961	0.81818	0.1	-73.256
29260	21.053	0.72727	0.1	-68.603
29261	20.961	1.	0.1	-86.575
29262	21.053	0.90909	0.1	-83.472
29263	20.961	1.1818	0.1	-98.494
29264	21.053	1.0909	0.1	-97.183
29265	20.961	1.3636	0.1	-108.57
29266	21.053	1.2727	0.1	-109.18
29267	20.961	1.5455	0.1	-116.42
29268	21.053	1.4545	0.1	-118.92
29269	20.961	1.7273	0.1	-121.85
29270	21.053	1.6364	0.1	-125.99
29271	20.961	1.9091	0.1	-124.9
29272	21.053	1.8182	0.1	-130.23
29273	20.961	2.0909	0.1	-125.89
29274	21.053	2.	0.1	-131.83
29275	20.961	2.2727	0.1	-125.35
29276	21.053	2.1818	0.1	-131.32
29277	20.961	2.4545	0.1	-123.95
29278	21.053	2.3636	0.1	-129.47
29279	20.961	2.6364	0.1	-122.37
29280	21.053	2.5455	0.1	-127.14
29281	20.961	2.8182	0.1	-121.17
29282	21.053	2.7273	0.1	-125.11
29283	20.961	3.	0.1	-120.73
29284	21.053	2.9091	0.1	-123.94
29285	20.961	3.1818	0.1	-121.17
29286	21.053	3.0909	0.1	-123.94
29287	20.961	3.3636	0.1	-122.37
29288	21.053	3.2727	0.1	-125.11
29289	20.961	3.5455	0.1	-123.95
29290	21.053	3.4545	0.1	-127.14
29291	20.961	3.7273	0.1	-125.35
29292	21.053	3.6364	0.1	-129.47
29293	20.961	3.9091	0.1	-125.89
29294	21.053	3.8182	0.1	-131.32
29295	20.961	4.0909	0.1	-124.9
29296	21.053	4.	0.1	-131.83
29297	20.961	4.2727	0.1	-121.85
29298	21.053	4.1818	0.1	-130.23
29299	20.961	4.4545	0.1	-116.42
29300	21.053	4.3636	0.1	-125.99
29301	20.961	4.6364	0.1	-108.57
29302	21.053	4.5455	0.1	-118.92
29303	20.961	4.8182	0.1	-98.494
29304	21.053	4.7273	0.1	-109.18
29305	20.961	5.	0.1	-86.575
29306	21.053	4.9091	0.1	-97.183
29307	20.961	5.1818	0.1	-73.256
29308	21.053	5.0909	0.1	-83.472
29309	20.961	5.3636	0.1	-58.977
29310	21.053	5.2727	0.1	-68.602
29311	20.961	5.5455	0.1	-44.103
29312	21.053	5.4545	0.1	-53.057
29313	20.961	5.7273	0.1	-29.207
29314	21.053	5.6364	0.1	-37.166
29315	21.053	5.8182	0.1	-21.761
29316	20.961	5.9091	0.1	-13.278
29317	21.145	0.27273	0.1	-29.495
29318	21.237	0.18182	0.1	-21.149
29319	21.145	9.0909e-002	0.1	-12.765
29320	21.145	0.45455	0.1	-46.059
29321	21.237	0.36364	0.1	-38.204
29322	21.145	0.63636	0.1	-62.681
29323	21.237	0.54545	0.1	-55.802
29324	21.145	0.81818	0.1	-78.859
29325	21.237	0.72727	0.1	-73.304
29326	21.145	1.	0.1	-94.148
29327	21.237	0.90909	0.1	-90.342
29328	21.145	1.1818	0.1	-107.95
29329	21.237	1.0909	0.1	-106.29
29330	21.145	1.3636	0.1	-119.61
29331	21.237	1.2727	0.1	-120.38
29332	21.145	1.5455	0.1	-128.56
29333	21.237	1.4545	0.1	-131.77
29334	21.145	1.7273	0.1	-134.41
29335	21.237	1.6364	0.1	-139.78
29336	21.145	1.9091	0.1	-137.19
29337	21.237	1.8182	0.1	-144.09
29338	21.145	2.0909	0.1	-137.28
29339	21.237	2.	0.1	-144.9
29340	21.145	2.2727	0.1	-135.45
29341	21.237	2.1818	0.1	-142.93
29342	21.145	2.4545	0.1	-132.67
29343	21.237	2.3636	0.1	-139.34
29344	21.145	2.6364	0.1	-129.88
29345	21.237	2.5455	0.1	-135.35
29346	21.145	2.8182	0.1	-127.88
29347	21.237	2.7273	0.1	-132.05
29348	21.145	3.	0.1	-127.16
29349	21.237	2.9091	0.1	-130.21
29350	21.145	3.1818	0.1	-127.88
29351	21.237	3.0909	0.1	-130.21
29352	21.145	3.3636	0.1	-129.88
29353	21.237	3.2727	0.1	-132.05
29354	21.145	3.5455	0.1	-132.67
29355	21.237	3.4545	0.1	-135.35
29356	21.145	3.7273	0.1	-135.45
29357	21.237	3.6364	0.1	-139.34
29358	21.145	3.9091	0.1	-137.28
29359	21.237	3.8182	0.1	-142.93
29360	21.145	4.0909	0.1	-137.19
29361	21.237	4.	0.1	-144.9
29362	21.145	4.2727	0.1	-134.41
29363	21.237	4.1818	0.1	-144.09
29364	21.145	4.4545	0.1	-128.56
29365	21.237	4.3636	0.1	-139.78
29366	21.145	4.6364	0.1	-119.61
29367	21.237	4.5455	0.1	-131.77
29368	21.145	4.8182	0.1	-107.95
29369	21.237	4.7273	0.1	-120.38
29370	21.145	5.	0.1	-94.148
29371	21.237	4.9091	0.1	-106.29
29372	21.145	5.1818	0.1	-78.859
29373	21.237	5.0909	0.1	-90.342
29374	21.145	5.3636	0.1	-62.681
29375	21.237	5.2727	0.1	-73.304
29376	21.145	5.5455	0.1	-46.059
29377	21.237	5.4545	0.1	-55.802
29378	21.145	5.7273	0.1	-29.495
29379	21.237	5.6364	0.1	-38.204
29380	21.237	5.8182	0.1	-21.149
29381	21.145	5.9091	0.1	-12.765
29382	21.329	0.27273	0.1	-29.628
29383	21.421	0.18182	0.1	-20.385
29384	21.329	9.0909e-002	0.1	-12.151
29385	21.329	0.45455	0.1	-47.901
29386	21.421	0.36364	0.1	-39.014
29387	21.329	0.63636	0.1	-66.459
29388	21.421	0.54545	0.1	-58.41
29389	21.329	0.81818	0.1	-84.881
29390	21.421	0.72727	0.1	-78.151
29391	21.329	1.	0.1	-102.62
29392	21.421	0.90909	0.1	-97.832
29393	21.329	1.1818	0.1	-118.86
29394	21.421	1.0909	0.1	-116.66
29395	21.329	1.3636	0.1	-132.66
29396	21.421	1.2727	0.1	-133.54
29397	21.329	1.5455	0.1	-143.1
29398	21.421	1.4545	0.1	-147.23
29399	21.329	1.7273	0.1	-149.52
29400	21.421	1.6364	0.1	-156.6
29401	21.329	1.9091	0.1	-151.83
29402	21.421	1.8182	0.1	-160.98
29403	21.329	2.0909	0.1	-150.57
29404	21.421	2.	0.1	-160.56
29405	21.329	2.2727	0.1	-146.83
29406	21.421	2.1818	0.1	-156.39
29407	21.329	2.4545	0.1	-142.02
29408	21.421	2.3636	0.1	-150.21
29409	21.329	2.6364	0.1	-137.52
29410	21.421	2.5455	0.1	-143.83
29411	21.329	2.8182	0.1	-134.39
29412	21.421	2.7273	0.1	-138.77
29413	21.329	3.	0.1	-133.27
29414	21.421	2.9091	0.1	-136.01
29415	21.329	3.1818	0.1	-134.39
29416	21.421	3.0909	0.1	-136.01
29417	21.329	3.3636	0.1	-137.52
29418	21.421	3.2727	0.1	-138.77
29419	21.329	3.5455	0.1	-142.02
29420	21.421	3.4545	0.1	-143.83
29421	21.329	3.7273	0.1	-146.83
29422	21.421	3.6364	0.1	-150.21
29423	21.329	3.9091	0.1	-150.57
29424	21.421	3.8182	0.1	-156.39
29425	21.329	4.0909	0.1	-151.83
29426	21.421	4.	0.1	-160.56
29427	21.329	4.2727	0.1	-149.52
29428	21.421	4.1818	0.1	-160.98
29429	21.329	4.4545	0.1	-143.09
29430	21.421	4.3636	0.1	-156.6
29431	21.329	4.6364	0.1	-132.66
29432	21.421	4.5455	0.1	-147.23
29433	21.329	4.8182	0.1	-118.86
29434	21.421	4.7273	0.1	-133.54
29435	21.329	5.	0.1	-102.62
29436	21.421	4.9091	0.1	-116.66
29437	21.329	5.1818	0.1	-84.881
29438	21.421	5.0909	0.1	-97.832
29439	21.329	5.3636	0.1	-66.459
29440	21.421	5.2727	0.1	-78.151
29441	21.329	5.5455	0.1	-47.901
29442	21.421	5.4545	0.1	-58.41
29443	21.329	5.7273	0.1	-29.627
29444	21.421	5.6364	0.1	-39.014
29445	21.421	5.8182	0.1	-20.385
29446	21.329	5.9091	0.1	-12.151
29447	21.513	0.27273	0.1	-29.539
29448	21.605	0.18182	0.1	-19.448
29449	21.513	9.0909e-002	0.1	-11.43
29450	21.513	0.45455	0.1	-49.502
29451	21.605	0.36364	0.1	-39.468
29452	21.513	0.63636	0.1	-70.192
29453	21.605	0.54545	0.1	-60.722
29454	21.513	0.81818	0.1	-91.281
29455	21.605	0.72727	0.1	-83.028
29456	21.513	1.	0.1	-112.11
29457	21.605	0.90909	0.1	-105.95
29458	21.513	1.1818	0.1	-131.58
29459	21.605	1.0909	0.1	-128.5
29460	21.513	1.3636	0.1	-148.33
29461	21.605	1.2727	0.1	-149.21
29462	21.513	1.5455	0.1	-160.89
29463	21.605	1.4545	0.1	-166.23
29464	21.513	1.7273	0.1	-168.14
29465	21.605	1.6364	0.1	-177.65
29466	21.513	1.9091	0.1	-169.74
29467	21.605	1.8182	0.1	-182.18
29468	21.513	2.0909	0.1	-166.39
29469	21.605	2.	0.1	-179.85
29470	21.513	2.2727	0.1	-159.78
29471	21.605	2.1818	0.1	-172.28
29472	21.513	2.4545	0.1	-152.01
29473	21.605	2.3636	0.1	-162.2
29474	21.513	2.6364	0.1	-145.08
29475	21.605	2.5455	0.1	-152.38
29476	21.513	2.8182	0.1	-140.39
29477	21.605	2.7273	0.1	-144.9
29478	21.513	3.	0.1	-138.74
29479	21.605	2.9091	0.1	-140.94
29480	21.513	3.1818	0.1	-140.39
29481	21.605	3.0909	0.1	-140.94
29482	21.513	3.3636	0.1	-145.08
29483	21.605	3.2727	0.1	-144.9
29484	21.513	3.5455	0.1	-152.01
29485	21.605	3.4545	0.1	-152.38
29486	21.513	3.7273	0.1	-159.78
29487	21.605	3.6364	0.1	-162.2
29488	21.513	3.9091	0.1	-166.39
29489	21.605	3.8182	0.1	-172.28
29490	21.513	4.0909	0.1	-169.74
29491	21.605	4.	0.1	-179.85
29492	21.513	4.2727	0.1	-168.14
29493	21.605	4.1818	0.1	-182.18
29494	21.513	4.4545	0.1	-160.89
29495	21.605	4.3636	0.1	-177.65
29496	21.513	4.6364	0.1	-148.33
29497	21.605	4.5455	0.1	-166.23
29498	21.513	4.8182	0.1	-131.58
29499	21.605	4.7273	0.1	-149.21
29500	21.513	5.	0.1	-112.11
29501	21.605	4.9091	0.1	-128.5
29502	21.513	5.1818	0.1	-91.281
29503	21.605	5.0909	0.1	-105.95
29504	21.513	5.3636	0.1	-70.192
29505	21.605	5.2727	0.1	-83.028
29506	21.513	5.5455	0.1	-49.502
29507	21.605	5.4545	0.1	-60.722
29508	21.513	5.7273	0.1	-29.538
29509	21.605	5.6364	0.1	-39.468
29510	21.605	5.8182	0.1	-19.448
29511	21.513	5.9091	0.1	-11.43
29512	21.697	0.27273	0.1	-29.153
29513	21.789	0.18182	0.1	-18.321
29514	21.697	9.0909e-002	0.1	-10.599
29515	21.697	0.45455	0.1	-50.712
29516	21.789	0.36364	0.1	-39.426
29517	21.697	0.63636	0.1	-73.741
29518	21.789	0.54545	0.1	-62.575
29519	21.697	0.81818	0.1	-98.013
29520	21.789	0.72727	0.1	-87.821
29521	21.697	1.	0.1	-122.74
29522	21.789	0.90909	0.1	-114.7
29523	21.697	1.1818	0.1	-146.54
29524	21.789	1.0909	0.1	-142.07
29525	21.697	1.3636	0.1	-167.47
29526	21.789	1.2727	0.1	-168.07
29527	21.697	1.5455	0.1	-183.23
29528	21.789	1.4545	0.1	-190.05
29529	21.697	1.7273	0.1	-191.8
29530	21.789	1.6364	0.1	-204.83
29531	21.697	1.9091	0.1	-192.31
29532	21.789	1.8182	0.1	-209.79
29533	21.697	2.0909	0.1	-185.73
29534	21.789	2.	0.1	-204.45
29535	21.697	2.2727	0.1	-174.69
29536	21.789	2.1818	0.1	-191.43
29537	21.697	2.4545	0.1	-162.56
29538	21.789	2.3636	0.1	-175.34
29539	21.697	2.6364	0.1	-152.21
29540	21.789	2.5455	0.1	-160.6
29541	21.697	2.8182	0.1	-145.45
29542	21.789	2.7273	0.1	-149.94
29543	21.697	3.	0.1	-143.12
29544	21.789	2.9091	0.1	-144.46
29545	21.697	3.1818	0.1	-145.45
29546	21.789	3.0909	0.1	-144.46
29547	21.697	3.3636	0.1	-152.21
29548	21.789	3.2727	0.1	-149.94
29549	21.697	3.5455	0.1	-162.56
29550	21.789	3.4545	0.1	-160.6
29551	21.697	3.7273	0.1	-174.69
29552	21.789	3.6364	0.1	-175.34
29553	21.697	3.9091	0.1	-185.73
29554	21.789	3.8182	0.1	-191.43
29555	21.697	4.0909	0.1	-192.31
29556	21.789	4.	0.1	-204.45
29557	21.697	4.2727	0.1	-191.8
29558	21.789	4.1818	0.1	-209.79
29559	21.697	4.4545	0.1	-183.23
29560	21.789	4.3636	0.1	-204.83
29561	21.697	4.6364	0.1	-167.47
29562	21.789	4.5455	0.1	-190.05
29563	21.697	4.8182	0.1	-146.54
29564	21.789	4.7273	0.1	-168.07
29565	21.697	5.	0.1	-122.74
29566	21.789	4.9091	0.1	-142.07
29567	21.697	5.1818	0.1	-98.013
29568	21.789	5.0909	0.1	-114.7
29569	21.697	5.3636	0.1	-73.741
29570	21.789	5.2727	0.1	-87.821
29571	21.697	5.5455	0.1	-50.712
29572	21.789	5.4545	0.1	-62.575
29573	21.697	5.7273	0.1	-29.152
29574	21.789	5.6364	0.1	-39.426
29575	21.789	5.8182	0.1	-18.321
29576	21.697	5.9091	0.1	-10.598
29577	21.881	0.27273	0.1	-28.398
29578	21.973	0.18182	0.1	-16.996
29579	21.881	9.0909e-002	0.1	-9.6557
29580	21.881	0.45455	0.1	-51.393
29581	21.973	0.36364	0.1	-38.773
29582	21.881	0.63636	0.1	-76.996
29583	21.973	0.54545	0.1	-63.88
29584	21.881	0.81818	0.1	-105.06
29585	21.973	0.72727	0.1	-92.515
29586	21.881	1.	0.1	-134.71
29587	21.973	0.90909	0.1	-124.18
29588	21.881	1.1818	0.1	-164.31
29589	21.973	1.0909	0.1	-157.67
29590	21.881	1.3636	0.1	-191.26
29591	21.973	1.2727	0.1	-190.91
29592	21.881	1.5455	0.1	-212.03
29593	21.973	1.4545	0.1	-220.49
29594	21.881	1.7273	0.1	-222.94
29595	21.973	1.6364	0.1	-241.24
29596	21.881	1.9091	0.1	-221.88
29597	21.973	1.8182	0.1	-247.46
29598	21.881	2.0909	0.1	-210.07
29599	21.973	2.	0.1	-237.28
29600	21.881	2.2727	0.1	-192.04
29601	21.973	2.1818	0.1	-215.1
29602	21.881	2.4545	0.1	-173.38
29603	21.973	2.3636	0.1	-189.45
29604	21.881	2.6364	0.1	-158.33
29605	21.973	2.5455	0.1	-167.72
29606	21.881	2.8182	0.1	-148.95
29607	21.973	2.7273	0.1	-153.07
29608	21.881	3.	0.1	-145.8
29609	21.973	2.9091	0.1	-145.9
29610	21.881	3.1818	0.1	-148.95
29611	21.973	3.0909	0.1	-145.9
29612	21.881	3.3636	0.1	-158.33
29613	21.973	3.2727	0.1	-153.07
29614	21.881	3.5455	0.1	-173.38
29615	21.973	3.4545	0.1	-167.72
29616	21.881	3.7273	0.1	-192.04
29617	21.973	3.6364	0.1	-189.45
29618	21.881	3.9091	0.1	-210.07
29619	21.973	3.8182	0.1	-215.1
29620	21.881	4.0909	0.1	-221.88
29621	21.973	4.	0.1	-237.28
29622	21.881	4.2727	0.1	-222.94
29623	21.973	4.1818	0.1	-247.46
29624	21.881	4.4545	0.1	-212.03
29625	21.973	4.3636	0.1	-241.24
29626	21.881	4.6364	0.1	-191.26
29627	21.973	4.5455	0.1	-220.49
29628	21.881	4.8182	0.1	-164.31
29629	21.973	4.7273	0.1	-190.91
29630	21.881	5.	0.1	-134.71
29631	21.973	4.9091	0.1	-157.67
29632	21.881	5.1818	0.1	-105.06
29633	21.973	5.0909	0.1	-124.18
29634	21.881	5.3636	0.1	-76.996
29635	21.973	5.2727	0.1	-92.515
29636	21.881	5.5455	0.1	-51.393
29637	21.973	5.4545	0.1	-63.88
29638	21.881	5.7273	0.1	-28.398
29639	21.973	5.6364	0.1	-38.773
29640	21.973	5.8182	0.1	-16.996
29641	21.881	5.9091	0.1	-9.6557
29642	22.065	0.27273	0.1	-27.249
29643	22.156	0.18182	0.1	-15.467
29644	22.065	9.0909e-002	0.1	-8.6102
29645	22.065	0.45455	0.1	-51.521
29646	22.156	0.36364	0.1	-37.512
29647	22.065	0.63636	0.1	-80.018
29648	22.156	0.54545	0.1	-64.816
29649	22.065	0.81818	0.1	-112.56
29650	22.156	0.72727	0.1	-97.401
29651	22.065	1.	0.1	-148.27
29652	22.156	0.90909	0.1	-134.65
29653	22.065	1.1818	0.1	-185.47
29654	22.156	1.0909	0.1	-175.57
29655	22.065	1.3636	0.1	-221.19
29656	22.156	1.2727	0.1	-218.38
29657	22.065	1.5455	0.1	-250.34
29658	22.156	1.4545	0.1	-259.63
29659	22.065	1.7273	0.1	-265.87
29660	22.156	1.6364	0.1	-291.59
29661	22.065	1.9091	0.1	-262.63
29662	22.156	1.8182	0.1	-302.28
29663	22.065	2.0909	0.1	-242.07
29664	22.156	2.	0.1	-284.01
29665	22.065	2.2727	0.1	-212.41
29666	22.156	2.1818	0.1	-244.86
29667	22.065	2.4545	0.1	-183.77
29668	22.156	2.3636	0.1	-203.53
29669	22.065	2.6364	0.1	-162.46
29670	22.156	2.5455	0.1	-172.3
29671	22.065	2.8182	0.1	-150.02
29672	22.156	2.7273	0.1	-153.15
29673	22.065	3.	0.1	-145.99
29674	22.156	2.9091	0.1	-144.32
29675	22.065	3.1818	0.1	-150.02
29676	22.156	3.0909	0.1	-144.32
29677	22.065	3.3636	0.1	-162.46
29678	22.156	3.2727	0.1	-153.15
29679	22.065	3.5455	0.1	-183.77
29680	22.156	3.4545	0.1	-172.3
29681	22.065	3.7273	0.1	-212.41
29682	22.156	3.6364	0.1	-203.53
29683	22.065	3.9091	0.1	-242.07
29684	22.156	3.8182	0.1	-244.86
29685	22.065	4.0909	0.1	-262.63
29686	22.156	4.	0.1	-284.01
29687	22.065	4.2727	0.1	-265.87
29688	22.156	4.1818	0.1	-302.28
29689	22.065	4.4545	0.1	-250.34
29690	22.156	4.3636	0.1	-291.59
29691	22.065	4.6364	0.1	-221.19
29692	22.156	4.5455	0.1	-259.63
29693	22.065	4.8182	0.1	-185.47
29694	22.156	4.7273	0.1	-218.38
29695	22.065	5.	0.1	-148.27
29696	22.156	4.9091	0.1	-175.57
29697	22.065	5.1818	0.1	-112.56
29698	22.156	5.0909	0.1	-134.65
29699	22.065	5.3636	0.1	-80.018
29700	22.156	5.2727	0.1	-97.401
29701	22.065	5.5455	0.1	-51.521
29702	22.156	5.4545	0.1	-64.816
29703	22.065	5.7273	0.1	-27.249
29704	22.156	5.6364	0.1	-37.512
29705	22.156	5.8182	0.1	-15.467
29706	22.065	5.9091	0.1	-8.6102
29707	22.248	0.27273	0.1	-25.79
29708	22.34	0.18182	0.1	-13.85
29709	22.248	9.0909e-002	0.1	-7.4508
29710	22.248	0.45455	0.1	-51.412
29711	22.34	0.36364	0.1	-36.184
29712	22.248	0.63636	0.1	-83.333
29713	22.34	0.54545	0.1	-66.473
29714	22.248	0.81818	0.1	-121.04
29715	22.34	0.72727	0.1	-103.7
29716	22.248	1.	0.1	-163.78
29717	22.34	0.90909	0.1	-147.09
29718	22.248	1.1818	0.1	-210.43
29719	22.34	1.0909	0.1	-196.25
29720	22.248	1.3636	0.1	-258.62
29721	22.34	1.2727	0.1	-250.8
29722	22.248	1.5455	0.1	-302.06
29723	22.34	1.4545	0.1	-308.54
29724	22.248	1.7273	0.1	-328.01
29725	22.34	1.6364	0.1	-363.79
29726	22.248	1.9091	0.1	-322.88
29727	22.34	1.8182	0.1	-390.87
29728	22.248	2.0909	0.1	-286.14
29729	22.34	2.	0.1	-358.29
29730	22.248	2.2727	0.1	-235.78
29731	22.34	2.1818	0.1	-283.62
29732	22.248	2.4545	0.1	-192.05
29733	22.34	2.3636	0.1	-214.95
29734	22.248	2.6364	0.1	-163.
29735	22.34	2.5455	0.1	-171.73
29736	22.248	2.8182	0.1	-147.44
29737	22.34	2.7273	0.1	-148.49
29738	22.248	3.	0.1	-142.64
29739	22.34	2.9091	0.1	-138.43
29740	22.248	3.1818	0.1	-147.44
29741	22.34	3.0909	0.1	-138.43
29742	22.248	3.3636	0.1	-163.
29743	22.34	3.2727	0.1	-148.49
29744	22.248	3.5455	0.1	-192.05
29745	22.34	3.4545	0.1	-171.73
29746	22.248	3.7273	0.1	-235.78
29747	22.34	3.6364	0.1	-214.95
29748	22.248	3.9091	0.1	-286.14
29749	22.34	3.8182	0.1	-283.62
29750	22.248	4.0909	0.1	-322.88
29751	22.34	4.	0.1	-358.29
29752	22.248	4.2727	0.1	-328.01
29753	22.34	4.1818	0.1	-390.87
29754	22.248	4.4545	0.1	-302.06
29755	22.34	4.3636	0.1	-363.79
29756	22.248	4.6364	0.1	-258.62
29757	22.34	4.5455	0.1	-308.54
29758	22.248	4.8182	0.1	-210.43
29759	22.34	4.7273	0.1	-250.8
29760	22.248	5.	0.1	-163.78
29761	22.34	4.9091	0.1	-196.25
29762	22.248	5.1818	0.1	-121.04
29763	22.34	5.0909	0.1	-147.09
29764	22.248	5.3636	0.1	-83.333
29765	22.34	5.2727	0.1	-103.7
29766	22.248	5.5455	0.1	-51.412
29767	22.34	5.4545	0.1	-66.473
29768	22.248	5.7273	0.1	-25.79
29769	22.34	5.6364	0.1	-36.184
29770	22.34	5.8182	0.1	-13.85
29771	22.248	5.9091	0.1	-7.4508
29772	22.432	0.27273	0.1	-24.843
29773	22.524	0.18182	0.1	-12.976
29774	22.432	9.0909e-002	0.1	-6.3116
29775	22.432	0.45455	0.1	-52.738
29776	22.524	0.36364	0.1	-38.111
29777	22.432	0.63636	0.1	-88.987
29778	22.524	0.54545	0.1	-73.615
29779	22.432	0.81818	0.1	-132.29
29780	22.524	0.72727	0.1	-116.58
29781	22.432	1.	0.1	-182.37
29782	22.524	0.90909	0.1	-166.56
29783	22.432	1.1818	0.1	-239.68
29784	22.524	1.0909	0.1	-224.3
29785	22.432	1.3636	0.1	-303.9
29786	22.524	1.2727	0.1	-291.7
29787	22.432	1.5455	0.1	-372.78
29788	22.524	1.4545	0.1	-370.6
29789	22.432	1.7273	0.1	-427.1
29790	22.524	1.6364	0.1	-465.24
29791	22.432	1.9091	0.1	-423.44
29792	22.524	1.8182	0.1	-559.55
29793	22.432	2.0909	0.1	-353.9
29794	22.524	2.	0.1	-501.03
29795	22.432	2.2727	0.1	-262.48
29796	22.524	2.1818	0.1	-333.6
29797	22.432	2.4545	0.1	-194.7
29798	22.524	2.3636	0.1	-215.66
29799	22.432	2.6364	0.1	-157.25
29800	22.524	2.5455	0.1	-161.71
29801	22.432	2.8182	0.1	-139.46
29802	22.524	2.7273	0.1	-136.7
29803	22.432	3.	0.1	-134.18
29804	22.524	2.9091	0.1	-126.26
29805	22.432	3.1818	0.1	-139.46
29806	22.524	3.0909	0.1	-126.26
29807	22.432	3.3636	0.1	-157.25
29808	22.524	3.2727	0.1	-136.7
29809	22.432	3.5455	0.1	-194.7
29810	22.524	3.4545	0.1	-161.71
29811	22.432	3.7273	0.1	-262.48
29812	22.524	3.6364	0.1	-215.66
29813	22.432	3.9091	0.1	-353.9
29814	22.524	3.8182	0.1	-333.6
29815	22.432	4.0909	0.1	-423.44
29816	22.524	4.	0.1	-501.03
29817	22.432	4.2727	0.1	-427.1
29818	22.524	4.1818	0.1	-559.55
29819	22.432	4.4545	0.1	-372.78
29820	22.524	4.3636	0.1	-465.24
29821	22.432	4.6364	0.1	-303.9
29822	22.524	4.5455	0.1	-370.6
29823	22.432	4.8182	0.1	-239.68
29824	22.524	4.7273	0.1	-291.7
29825	22.432	5.	0.1	-182.37
29826	22.524	4.9091	0.1	-224.3
29827	22.432	5.1818	0.1	-132.29
29828	22.524	5.0909	0.1	-166.56
29829	22.432	5.3636	0.1	-88.987
29830	22.524	5.2727	0.1	-116.58
29831	22.432	5.5455	0.1	-52.738
29832	22.524	5.4545	0.1	-73.615
29833	22.432	5.7273	0.1	-24.843
29834	22.524	5.6364	0.1	-38.111
29835	22.524	5.8182	0.1	-12.976
29836	22.432	5.9091	0.1	-6.3116
29837	22.616	0.27273	0.1	-29.389
29838	22.708	0.18182	0.1	-11.101
29839	22.616	9.0909e-002	0.1	-6.3389
29840	22.616	0.45455	0.1	-63.217
29841	22.708	0.36364	0.1	-37.26
29842	22.616	0.63636	0.1	-105.58
29843	22.708	0.54545	0.1	-71.346
29844	22.616	0.81818	0.1	-155.26
29845	22.708	0.72727	0.1	-112.06
29846	22.616	1.	0.1	-213.1
29847	22.708	0.90909	0.1	-159.98
29848	22.616	1.1818	0.1	-281.46
29849	22.708	1.0909	0.1	-216.89
29850	22.616	1.3636	0.1	-364.52
29851	22.708	1.2727	0.1	-286.39
29852	22.616	1.5455	0.1	-471.59
29853	22.708	1.4545	0.1	-375.95
29854	22.616	1.7273	0.1	-603.39
29855	22.708	1.6364	0.1	-494.14
29856	22.616	1.9091	0.1	-629.74
29857	22.708	1.8182	0.1	-726.55
29858	22.616	2.0909	0.1	-470.09
29859	22.708	2.	0.1	-803.73
29860	22.616	2.2727	0.1	-287.23
29861	22.708	2.1818	0.1	-352.4
29862	22.616	2.4545	0.1	-183.2
29863	22.708	2.3636	0.1	-188.7
29864	22.616	2.6364	0.1	-141.32
29865	22.708	2.5455	0.1	-137.25
29866	22.616	2.8182	0.1	-123.45
29867	22.708	2.7273	0.1	-114.55
29868	22.616	3.	0.1	-118.22
29869	22.708	2.9091	0.1	-105.24
29870	22.616	3.1818	0.1	-123.45
29871	22.708	3.0909	0.1	-105.24
29872	22.616	3.3636	0.1	-141.32
29873	22.708	3.2727	0.1	-114.55
29874	22.616	3.5455	0.1	-183.2
29875	22.708	3.4545	0.1	-137.25
29876	22.616	3.7273	0.1	-287.23
29877	22.708	3.6364	0.1	-188.7
29878	22.616	3.9091	0.1	-470.09
29879	22.708	3.8182	0.1	-352.4
29880	22.616	4.0909	0.1	-629.74
29881	22.708	4.	0.1	-803.73
29882	22.616	4.2727	0.1	-603.39
29883	22.708	4.1818	0.1	-726.55
29884	22.616	4.4545	0.1	-471.59
29885	22.708	4.3636	0.1	-494.14
29886	22.616	4.6364	0.1	-364.52
29887	22.708	4.5455	0.1	-375.95
29888	22.616	4.8182	0.1	-281.46
29889	22.708	4.7273	0.1	-286.39
29890	22.616	5.	0.1	-213.1
29891	22.708	4.9091	0.1	-216.89
29892	22.616	5.1818	0.1	-155.26
29893	22.708	5.0909	0.1	-159.98
29894	22.616	5.3636	0.1	-105.58
29895	22.708	5.2727	0.1	-112.06
29896	22.616	5.5455	0.1	-63.217
29897	22.708	5.4545	0.1	-71.346
29898	22.616	5.7273	0.1	-29.389
29899	22.708	5.6364	0.1	-37.26
29900	22.708	5.8182	0.1	-11.101
29901	22.616	5.9091	0.1	-6.3389
29902	23.225	4.	0.1	5.4144
29903	23.053	4.	0.1	-58.212
29904	23.397	4.	0.1	-4.2107
29905	23.569	4.	0.1	-1.9716
29906	23.742	4.	0.1	-14.927
29907	23.914	4.	0.1	-21.78
29908	23.742	2.	0.1	-14.927
29909	23.914	2.	0.1	-21.78
29910	23.569	2.	0.1	-1.9716
29911	23.397	2.	0.1	-4.2107
29912	23.225	2.	0.1	5.4144
29913	23.053	2.	0.1	-58.212
29914	22.8	3.7273	0.1	-267.24
29915	22.8	3.9091	0.1	-684.6
29916	22.8	3.5455	0.1	-145.22
29917	22.8	3.3636	0.1	-110.91
29918	22.8	3.1818	0.1	-96.093
29919	22.8	3.	0.1	-91.83
29920	22.8	2.8182	0.1	-96.093
29921	22.8	2.6364	0.1	-110.91
29922	22.8	2.4545	0.1	-145.22
29923	22.8	2.2727	0.1	-267.24
29924	22.8	2.0909	0.1	-684.6
29925	22.967	5.7273	0.1	-0.9196
29926	22.967	5.9091	0.1	-0.3103
29927	22.967	5.8182	5.e-002	-1.1842
29928	22.967	5.5455	0.1	-1.2848
29929	22.967	5.6364	5.e-002	-2.9209
29930	22.967	5.3636	0.1	-1.6484
29931	22.967	5.4545	5.e-002	-4.4668
29932	22.967	5.1818	0.1	-2.0065
29933	22.967	5.2727	5.e-002	-6.1747
29934	22.967	5.	0.1	-2.4244
29935	22.967	5.0909	5.e-002	-8.204
29936	22.967	4.8182	0.1	-2.7792
29937	22.967	4.9091	5.e-002	-10.813
29938	22.967	4.6364	0.1	-4.3115
29939	22.967	4.7273	5.e-002	-14.413
29940	22.967	4.4545	0.1	-3.1505
29941	22.967	4.5455	5.e-002	-20.118
29942	22.967	4.2727	0.1	-31.05
29943	22.967	4.3636	5.e-002	-28.369
29944	22.967	4.0909	0.1	-64.45
29945	22.967	4.1818	5.e-002	-65.11
29946	22.883	4.	0.1	-285.36
29947	22.967	4.	5.e-002	-194.9
29948	22.8	4.0909	0.1	-857.42
29949	22.8	4.	5.e-002	-307.13
29950	22.8	4.2727	0.1	-642.63
29951	22.8	4.1818	5.e-002	-235.56
29952	22.8	4.4545	0.1	-418.63
29953	22.8	4.3636	5.e-002	-158.11
29954	22.8	4.6364	0.1	-313.73
29955	22.8	4.5455	5.e-002	-120.64
29956	22.8	4.8182	0.1	-235.52
29957	22.8	4.7273	5.e-002	-97.129
29958	22.8	5.	0.1	-175.23
29959	22.8	4.9091	5.e-002	-78.272
29960	22.8	5.1818	0.1	-126.36
29961	22.8	5.0909	5.e-002	-62.348
29962	22.8	5.3636	0.1	-85.827
29963	22.8	5.2727	5.e-002	-48.214
29964	22.8	5.5455	0.1	-52.255
29965	22.8	5.4545	5.e-002	-35.27
29966	22.8	5.7273	0.1	-25.264
29967	22.8	5.6364	5.e-002	-23.131
29968	22.8	5.9091	0.1	-4.9733
29969	22.8	5.8182	5.e-002	-11.23
29970	22.967	0.27273	0.1	-0.91961
29971	22.967	9.0909e-002	0.1	-0.3103
29972	22.967	0.18182	5.e-002	-1.1841
29973	22.967	0.45455	0.1	-1.2848
29974	22.967	0.36364	5.e-002	-2.9208
29975	22.967	0.63636	0.1	-1.6484
29976	22.967	0.54545	5.e-002	-4.4668
29977	22.967	0.81818	0.1	-2.0065
29978	22.967	0.72727	5.e-002	-6.1746
29979	22.967	1.	0.1	-2.4244
29980	22.967	0.90909	5.e-002	-8.204
29981	22.967	1.1818	0.1	-2.7792
29982	22.967	1.0909	5.e-002	-10.813
29983	22.967	1.3636	0.1	-4.3115
29984	22.967	1.2727	5.e-002	-14.413
29985	22.967	1.5455	0.1	-3.1505
29986	22.967	1.4545	5.e-002	-20.118
29987	22.967	1.7273	0.1	-31.05
29988	22.967	1.6364	5.e-002	-28.369
29989	22.967	1.9091	0.1	-64.45
29990	22.967	1.8182	5.e-002	-65.11
29991	22.883	2.	0.1	-285.36
29992	22.967	2.	5.e-002	-194.9
29993	22.8	1.9091	0.1	-857.42
29994	22.8	2.	5.e-002	-307.13
29995	22.8	1.7273	0.1	-642.63
29996	22.8	1.8182	5.e-002	-235.56
29997	22.8	1.5455	0.1	-418.63
29998	22.8	1.6364	5.e-002	-158.11
29999	22.8	1.3636	0.1	-313.73
30000	22.8	1.4545	5.e-002	-120.64
30001	22.8	1.1818	0.1	-235.52
30002	22.8	1.2727	5.e-002	-97.129
30003	22.8	1.	0.1	-175.23
30004	22.8	1.0909	5.e-002	-78.272
30005	22.8	0.81818	0.1	-126.36
30006	22.8	0.90909	5.e-002	-62.348
30007	22.8	0.63636	0.1	-85.827
30008	22.8	0.72727	5.e-002	-48.214
30009	22.8	0.45455	0.1	-52.255
30010	22.8	0.54545	5.e-002	-35.269
30011	22.8	0.27273	0.1	-25.264
30012	22.8	0.36364	5.e-002	-23.131
30013	22.8	9.0909e-002	0.1	-4.9733
30014	22.8	0.18182	5.e-002	-11.23
30015	23.053	6.	0.1	-0.57906
30016	22.967	6.	5.e-002	-0.88612
30017	23.225	6.	0.1	-2.8321
30018	23.139	6.	5.e-002	-2.3555
30019	23.397	6.	0.1	-5.0184
30020	23.311	6.	5.e-002	-4.8256
30021	23.569	6.	0.1	-7.0328
30022	23.483	6.	5.e-002	-6.501
30023	23.742	6.	0.1	-7.958
30024	23.656	6.	5.e-002	-7.2735
30025	23.914	6.	0.1	-6.2315
30026	23.828	6.	5.e-002	-6.3372
30027	24.	5.9091	0.1	-13.134
30028	24.	6.	5.e-002	-3.6113
30029	24.	5.7273	0.1	-26.752
30030	24.	5.8182	5.e-002	-6.0368
30031	24.	5.5455	0.1	-30.813
30032	24.	5.6364	5.e-002	-12.158
30033	24.	5.3636	0.1	-30.563
30034	24.	5.4545	5.e-002	-17.933
30035	24.	5.1818	0.1	-29.201
30036	24.	5.2727	5.e-002	-23.569
30037	24.	5.	0.1	-27.749
30038	24.	5.0909	5.e-002	-29.006
30039	24.	4.8182	0.1	-26.494
30040	24.	4.9091	5.e-002	-34.132
30041	24.	4.6364	0.1	-25.525
30042	24.	4.7273	5.e-002	-38.777
30043	24.	4.4545	0.1	-24.869
30044	24.	4.5455	5.e-002	-42.7
30045	24.	4.2727	0.1	-24.395
30046	24.	4.3636	5.e-002	-45.561
30047	24.	4.0909	0.1	-23.626
30048	24.	4.1818	5.e-002	-46.894
30049	24.	3.9091	0.1	-21.737
30050	24.	4.	5.e-002	-46.118
30051	24.	3.7273	0.1	-17.851
30052	24.	3.8182	5.e-002	-42.729
30053	24.	3.5455	0.1	-11.504
30054	24.	3.6364	5.e-002	-36.615
30055	24.	3.3636	0.1	-5.0988
30056	24.	3.4545	5.e-002	-28.232
30057	24.	3.1818	0.1	-4.7144
30058	24.	3.2727	5.e-002	-18.51
30059	24.	3.	0.1	-4.7151
30060	24.	3.0909	5.e-002	-9.4053
30061	24.	2.8182	0.1	-4.7144
30062	24.	2.9091	5.e-002	-9.4053
30063	24.	2.6364	0.1	-5.0988
30064	24.	2.7273	5.e-002	-18.51
30065	24.	2.4545	0.1	-11.504
30066	24.	2.5455	5.e-002	-28.232
30067	24.	2.2727	0.1	-17.851
30068	24.	2.3636	5.e-002	-36.615
30069	24.	2.0909	0.1	-21.736
30070	24.	2.1818	5.e-002	-42.729
30071	24.	1.9091	0.1	-23.626
30072	24.	2.	5.e-002	-46.118
30073	24.	1.7273	0.1	-24.395
30074	24.	1.8182	5.e-002	-46.894
30075	24.	1.5455	0.1	-24.869
30076	24.	1.6364	5.e-002	-45.561
30077	24.	1.3636	0.1	-25.525
30078	24.	1.4545	5.e-002	-42.7
30079	24.	1.1818	0.1	-26.494
30080	24.	1.2727	5.e-002	-38.777
30081	24.	1.	0.1	-27.749
30082	24.	1.0909	5.e-002	-34.132
30083	24.	0.81818	0.1	-29.201
30084	24.	0.90909	5.e-002	-29.006
30085	24.	0.63636	0.1	-30.563
30086	24.	0.72727	5.e-002	-23.569
30087	24.	0.45455	0.1	-30.813
30088	24.	0.54545	5.e-002	-17.933
30089	24.	0.27273	0.1	-26.752
30090	24.	0.36364	5.e-002	-12.158
30091	24.	9.0909e-002	0.1	-13.134
30092	24.	0.18182	5.e-002	-6.0368
30093	2.3842e-015	0.27273	0.1	1663.6
30094	7.9472e-016	9.0909e-002	0.1	-144.01
30095	1.6109e-015	0.18182	5.e-002	-95.433
30096	3.9736e-015	0.45455	0.1	2513.
30097	3.2219e-015	0.36364	5.e-002	-49.674
30098	5.563e-015	0.63636	0.1	2946.1
30099	4.8328e-015	0.54545	5.e-002	-44.912
30100	7.1525e-015	0.81818	0.1	3215.6
30101	6.4438e-015	0.72727	5.e-002	-39.501
30102	8.7419e-015	1.	0.1	3399.6
30103	8.0547e-015	0.90909	5.e-002	-33.612
30104	1.0331e-014	1.1818	0.1	3532.7
30105	9.6657e-015	1.0909	5.e-002	-28.544
30106	1.1921e-014	1.3636	0.1	3632.2
30107	1.1277e-014	1.2727	5.e-002	-24.433
30108	1.351e-014	1.5455	0.1	3708.1
30109	1.2888e-014	1.4545	5.e-002	-21.094
30110	1.51e-014	1.7273	0.1	3766.7
30111	1.4498e-014	1.6364	5.e-002	-18.389
30112	1.6689e-014	1.9091	0.1	3812.1
30113	1.6109e-014	1.8182	5.e-002	-16.209
30114	1.8279e-014	2.0909	0.1	3847.2
30115	1.772e-014	2.	5.e-002	-14.465
30116	1.9868e-014	2.2727	0.1	3873.9
30117	1.9331e-014	2.1818	5.e-002	-13.093
30118	2.1457e-014	2.4545	0.1	3893.4
30119	2.0942e-014	2.3636	5.e-002	-12.046
30120	2.3047e-014	2.6364	0.1	3906.9
30121	2.2553e-014	2.5455	5.e-002	-11.288
30122	2.4636e-014	2.8182	0.1	3914.8
30123	2.4164e-014	2.7273	5.e-002	-10.795
30124	2.6226e-014	3.	0.1	3917.4
30125	2.5775e-014	2.9091	5.e-002	-10.553
30126	2.7815e-014	3.1818	0.1	3914.8
30127	2.7386e-014	3.0909	5.e-002	-10.553
30128	2.9405e-014	3.3636	0.1	3906.9
30129	2.8997e-014	3.2727	5.e-002	-10.795
30130	3.0994e-014	3.5455	0.1	3893.4
30131	3.0608e-014	3.4545	5.e-002	-11.288
30132	3.2583e-014	3.7273	0.1	3873.9
30133	3.2219e-014	3.6364	5.e-002	-12.046
30134	3.4173e-014	3.9091	0.1	3847.2
30135	3.383e-014	3.8182	5.e-002	-13.093
30136	3.5762e-014	4.0909	0.1	3812.1
30137	3.5441e-014	4.	5.e-002	-14.465
30138	3.7352e-014	4.2727	0.1	3766.7
30139	3.7052e-014	4.1818	5.e-002	-16.208
30140	3.8941e-014	4.4545	0.1	3708.1
30141	3.8663e-014	4.3636	5.e-002	-18.389
30142	4.0531e-014	4.6364	0.1	3632.2
30143	4.0274e-014	4.5455	5.e-002	-21.094
30144	4.212e-014	4.8182	0.1	3532.7
30145	4.1885e-014	4.7273	5.e-002	-24.433
30146	4.371e-014	5.	0.1	3399.6
30147	4.3495e-014	4.9091	5.e-002	-28.543
30148	4.5299e-014	5.1818	0.1	3215.6
30149	4.5106e-014	5.0909	5.e-002	-33.612
30150	4.6888e-014	5.3636	0.1	2946.1
30151	4.6717e-014	5.2727	5.e-002	-39.501
30152	4.8478e-014	5.5455	0.1	2513.
30153	4.8328e-014	5.4545	5.e-002	-44.912
30154	5.0067e-014	5.7273	0.1	1663.6
30155	4.9939e-014	5.6364	5.e-002	-49.674
30156	5.1657e-014	5.9091	0.1	-144.02
30157	5.155e-014	5.8182	5.e-002	-95.433
30158	23.914	0.	0.1	-6.2315
30159	24.	0.	5.e-002	-3.6113
30160	23.742	0.	0.1	-7.958
30161	23.828	0.	5.e-002	-6.3372
30162	23.569	0.	0.1	-7.0328
30163	23.656	0.	5.e-002	-7.2735
30164	23.397	0.	0.1	-5.0184
30165	23.483	0.	5.e-002	-6.501
30166	23.225	0.	0.1	-2.8321
30167	23.311	0.	5.e-002	-4.8256
30168	23.053	0.	0.1	-0.57906
30169	23.139	0.	5.e-002	-2.3555
30170	22.967	0.	5.e-002	-0.88613
30171	22.708	1.015e-029	0.1	-5.8053e-002
30172	22.8	1.0191e-029	5.e-002	-2.6292
30173	22.524	1.0067e-029	0.1	-0.40701
30174	22.616	0.	5.e-002	-2.1405
30175	22.34	9.9853e-030	0.1	-0.92701
30176	22.432	0.	5.e-002	-2.7385
30177	22.156	9.9031e-030	0.1	-1.4838
30178	22.248	0.	5.e-002	-5.1402
30179	21.973	9.8209e-030	0.1	-2.1213
30180	22.065	0.	5.e-002	-8.3013
30181	21.789	9.7387e-030	0.1	-2.8274
30182	21.881	0.	5.e-002	-11.945
30183	21.605	9.6566e-030	0.1	-3.5805
30184	21.697	0.	5.e-002	-15.814
30185	21.421	9.5744e-030	0.1	-4.3444
30186	21.513	0.	5.e-002	-19.733
30187	21.237	9.4922e-030	0.1	-5.0888
30188	21.329	0.	5.e-002	-23.575
30189	21.053	9.41e-030	0.1	-5.7904
30190	21.145	0.	5.e-002	-27.256
30191	20.869	9.3278e-030	0.1	-6.4337
30192	20.961	0.	5.e-002	-30.727
30193	20.685	9.2456e-030	0.1	-7.0102
30194	20.777	0.	5.e-002	-33.965
30195	20.502	9.1635e-030	0.1	-7.5167
30196	20.594	0.	5.e-002	-36.961
30197	20.318	9.0813e-030	0.1	-7.9542
30198	20.41	0.	5.e-002	-39.722
30199	20.134	8.9991e-030	0.1	-8.3259
30200	20.226	0.	5.e-002	-42.258
30201	19.95	8.9169e-030	0.1	-8.6367
30202	20.042	0.	5.e-002	-44.586
30203	19.766	8.8347e-030	0.1	-8.8922
30204	19.858	0.	5.e-002	-46.723
30205	19.582	8.7525e-030	0.1	-9.0983
30206	19.674	0.	5.e-002	-48.686
30207	19.398	8.6704e-030	0.1	-9.2607
30208	19.49	0.	5.e-002	-50.492
30209	19.215	8.5882e-030	0.1	-9.3848
30210	19.306	0.	5.e-002	-52.156
30211	19.031	8.506e-030	0.1	-9.4754
30212	19.123	0.	5.e-002	-53.693
30213	18.847	8.4238e-030	0.1	-9.537
30214	18.939	0.	5.e-002	-55.116
30215	18.663	8.3416e-030	0.1	-9.5736
30216	18.755	0.	5.e-002	-56.437
30217	18.479	8.2594e-030	0.1	-9.5886
30218	18.571	0.	5.e-002	-57.665
30219	18.295	8.1773e-030	0.1	-9.5851
30220	18.387	0.	5.e-002	-58.809
30221	18.111	8.0951e-030	0.1	-9.5658
30222	18.203	0.	5.e-002	-59.878
30223	17.927	8.0129e-030	0.1	-9.5328
30224	18.019	0.	5.e-002	-60.879
30225	17.744	7.9307e-030	0.1	-9.4883
30226	17.835	0.	5.e-002	-61.817
30227	17.56	7.8485e-030	0.1	-9.434
30228	17.652	0.	5.e-002	-62.699
30229	17.376	7.7663e-030	0.1	-9.3713
30230	17.468	0.	5.e-002	-63.53
30231	17.192	7.6842e-030	0.1	-9.3015
30232	17.284	0.	5.e-002	-64.312
30233	17.008	7.602e-030	0.1	-9.2258
30234	17.1	0.	5.e-002	-65.052
30235	16.824	7.5198e-030	0.1	-9.1451
30236	16.916	0.	5.e-002	-65.751
30237	16.64	7.4376e-030	0.1	-9.0601
30238	16.732	0.	5.e-002	-66.412
30239	16.456	7.3554e-030	0.1	-8.9715
30240	16.548	0.	5.e-002	-67.04
30241	16.273	7.2732e-030	0.1	-8.88
30242	16.365	0.	5.e-002	-67.635
30243	16.089	7.1911e-030	0.1	-8.786
30244	16.181	0.	5.e-002	-68.199
30245	15.905	7.1089e-030	0.1	-8.6899
30246	15.997	0.	5.e-002	-68.735
30247	15.721	7.0267e-030	0.1	-8.5921
30248	15.813	0.	5.e-002	-69.245
30249	15.537	6.9445e-030	0.1	-8.4928
30250	15.629	0.	5.e-002	-69.729
30251	15.353	6.8623e-030	0.1	-8.3923
30252	15.445	0.	5.e-002	-70.189
30253	15.169	6.7801e-030	0.1	-8.2907
30254	15.261	0.	5.e-002	-70.625
30255	14.985	6.698e-030	0.1	-8.1882
30256	15.077	0.	5.e-002	-71.039
30257	14.802	6.6158e-030	0.1	-8.0848
30258	14.894	0.	5.e-002	-71.432
30259	14.618	6.5336e-030	0.1	-7.9805
30260	14.71	0.	5.e-002	-71.803
30261	14.434	6.4514e-030	0.1	-7.8755
30262	14.526	0.	5.e-002	-72.153
30263	14.25	6.3692e-030	0.1	-7.7697
30264	14.342	0.	5.e-002	-72.483
30265	14.066	6.287e-030	0.1	-7.663
30266	14.158	0.	5.e-002	-72.792
30267	13.882	6.2049e-030	0.1	-7.5554
30268	13.974	0.	5.e-002	-73.08
30269	13.698	6.1227e-030	0.1	-7.4468
30270	13.79	0.	5.e-002	-73.348
30271	13.515	6.0405e-030	0.1	-7.3371
30272	13.606	0.	5.e-002	-73.595
30273	13.331	5.9583e-030	0.1	-7.2261
30274	13.423	0.	5.e-002	-73.82
30275	13.147	5.8761e-030	0.1	-7.1137
30276	13.239	0.	5.e-002	-74.023
30277	12.963	5.7939e-030	0.1	-6.9998
30278	13.055	0.	5.e-002	-74.204
30279	12.779	5.7117e-030	0.1	-6.884
30280	12.871	0.	5.e-002	-74.36
30281	12.595	5.6296e-030	0.1	-6.7663
30282	12.687	0.	5.e-002	-74.492
30283	12.411	5.5474e-030	0.1	-6.6463
30284	12.503	0.	5.e-002	-74.598
30285	12.227	5.4652e-030	0.1	-6.5238
30286	12.319	0.	5.e-002	-74.677
30287	12.044	5.383e-030	0.1	-6.3986
30288	12.135	0.	5.e-002	-74.727
30289	11.86	5.3008e-030	0.1	-6.2704
30290	11.952	0.	5.e-002	-74.746
30291	11.676	5.2186e-030	0.1	-6.1388
30292	11.768	0.	5.e-002	-74.733
30293	11.492	5.1365e-030	0.1	-6.0034
30294	11.584	0.	5.e-002	-74.685
30295	11.308	5.0543e-030	0.1	-5.8641
30296	11.4	0.	5.e-002	-74.601
30297	11.124	4.9721e-030	0.1	-5.7205
30298	11.216	0.	5.e-002	-74.477
30299	10.94	4.8899e-030	0.1	-5.5721
30300	11.032	0.	5.e-002	-74.31
30301	10.756	4.8077e-030	0.1	-5.4184
30302	10.848	0.	5.e-002	-74.098
30303	10.573	4.7255e-030	0.1	-5.2592
30304	10.665	0.	5.e-002	-73.837
30305	10.389	4.6434e-030	0.1	-5.0941
30306	10.481	0.	5.e-002	-73.524
30307	10.205	4.5612e-030	0.1	-4.9225
30308	10.297	0.	5.e-002	-73.154
30309	10.021	4.479e-030	0.1	-4.7439
30310	10.113	0.	5.e-002	-72.723
30311	9.8371	4.3968e-030	0.1	-4.558
30312	9.929	0.	5.e-002	-72.226
30313	9.6532	4.3146e-030	0.1	-4.3644
30314	9.7452	0.	5.e-002	-71.658
30315	9.4694	4.2324e-030	0.1	-4.1624
30316	9.5613	0.	5.e-002	-71.014
30317	9.2855	4.1503e-030	0.1	-3.9517
30318	9.3774	0.	5.e-002	-70.286
30319	9.1016	4.0681e-030	0.1	-3.7318
30320	9.1935	0.	5.e-002	-69.469
30321	8.9177	3.9859e-030	0.1	-3.5023
30322	9.0097	0.	5.e-002	-68.555
30323	8.7339	3.9037e-030	0.1	-3.2627
30324	8.8258	0.	5.e-002	-67.536
30325	8.55	3.8215e-030	0.1	-3.0127
30326	8.6419	0.	5.e-002	-66.405
30327	8.3661	3.7393e-030	0.1	-2.752
30328	8.4581	0.	5.e-002	-65.151
30329	8.1823	3.6572e-030	0.1	-2.4804
30330	8.2742	0.	5.e-002	-63.764
30331	7.9984	3.575e-030	0.1	-2.1977
30332	8.0903	0.	5.e-002	-62.235
30333	7.8145	3.4928e-030	0.1	-1.9038
30334	7.9065	0.	5.e-002	-60.55
30335	7.6306	3.4106e-030	0.1	-1.599
30336	7.7226	0.	5.e-002	-58.698
30337	7.4468	3.3284e-030	0.1	-1.2834
30338	7.5387	0.	5.e-002	-56.665
30339	7.2629	3.2462e-030	0.1	-0.95756
30340	7.3548	0.	5.e-002	-54.436
30341	7.079	3.1641e-030	0.1	-0.62256
30342	7.171	0.	5.e-002	-51.995
30343	6.8952	3.0819e-030	0.1	-0.4693
30344	6.9871	0.	5.e-002	-49.324
30345	6.7113	2.9997e-030	0.1	-0.51178
30346	6.8032	0.	5.e-002	-46.406
30347	6.5274	2.9175e-030	0.1	-0.55806
30348	6.6194	0.	5.e-002	-43.221
30349	6.3435	2.8353e-030	0.1	-0.60817
30350	6.4355	0.	5.e-002	-39.746
30351	6.1597	2.7531e-030	0.1	-0.66238
30352	6.2516	0.	5.e-002	-35.959
30353	5.9758	2.671e-030	0.1	-0.72104
30354	6.0677	0.	5.e-002	-31.835
30355	5.7919	2.5888e-030	0.1	-0.78448
30356	5.8839	0.	5.e-002	-27.348
30357	5.6081	2.5066e-030	0.1	-0.8531
30358	5.7	0.	5.e-002	-22.471
30359	5.4242	2.4244e-030	0.1	-0.92733
30360	5.5161	0.	5.e-002	-17.178
30361	5.2403	2.3422e-030	0.1	-1.0076
30362	5.3323	0.	5.e-002	-11.456
30363	5.0565	2.26e-030	0.1	-1.0946
30364	5.1484	0.	5.e-002	-5.3822
30365	4.8726	2.1779e-030	0.1	-1.1888
30366	4.9645	0.	5.e-002	-2.6802
30367	4.6887	2.0957e-030	0.1	-1.2908
30368	4.7806	0.	5.e-002	-9.4139
30369	4.5048	2.0135e-030	0.1	-1.4017
30370	4.5968	0.	5.e-002	-17.337
30371	4.321	1.9313e-030	0.1	-1.5225
30372	4.4129	0.	5.e-002	-25.993
30373	4.1371	1.8491e-030	0.1	-1.6546
30374	4.229	0.	5.e-002	-35.395
30375	3.9532	1.7669e-030	0.1	-1.8002
30376	4.0452	0.	5.e-002	-45.59
30377	3.7694	1.6848e-030	0.1	-1.9631
30378	3.8613	0.	5.e-002	-56.637
30379	3.5855	1.6026e-030	0.1	-2.1504
30380	3.6774	0.	5.e-002	-68.602
30381	3.4016	1.5204e-030	0.1	-2.3804
30382	3.4935	0.	5.e-002	-81.56
30383	3.2177	1.4382e-030	0.1	-2.7159
30384	3.3097	0.	5.e-002	-95.591
30385	3.0339	1.356e-030	0.1	-3.439
30386	3.1258	0.	5.e-002	-110.79
30387	2.85	1.2738e-030	0.1	-5.1022
30388	2.9419	0.	5.e-002	-127.25
30389	2.6661	1.1917e-030	0.1	-7.6163
30390	2.7581	0.	5.e-002	-145.09
30391	2.4823	1.1095e-030	0.1	-10.853
30392	2.5742	0.	5.e-002	-164.45
30393	2.2984	1.0273e-030	0.1	-14.88
30394	2.3903	0.	5.e-002	-185.48
30395	2.1145	9.4511e-031	0.1	-19.84
30396	2.2065	0.	5.e-002	-208.36
30397	1.9306	8.6293e-031	0.1	-25.935
30398	2.0226	0.	5.e-002	-233.3
30399	1.7468	7.8074e-031	0.1	-33.435
30400	1.8387	0.	5.e-002	-260.6
30401	1.5629	6.9856e-031	0.1	-42.71
30402	1.6548	0.	5.e-002	-290.57
30403	1.379	6.1638e-031	0.1	-54.308
30404	1.471	0.	5.e-002	-323.69
30405	1.1952	5.3419e-031	0.1	-69.006
30406	1.2871	0.	5.e-002	-360.55
30407	1.0113	4.5201e-031	0.1	-88.231
30408	1.1032	0.	5.e-002	-402.04
30409	0.82742	3.6983e-031	0.1	-114.06
30410	0.91935	0.	5.e-002	-449.39
30411	0.64355	2.8764e-031	0.1	-151.82
30412	0.73548	0.	5.e-002	-505.1
30413	0.45968	2.0546e-031	0.1	-213.4
30414	0.55161	0.	5.e-002	-572.58
30415	0.27581	1.2328e-031	0.1	-335.15
30416	0.36774	0.	5.e-002	-663.61
30417	9.1935e-002	4.1092e-032	0.1	-898.86
30418	0.18387	0.	5.e-002	-844.49
30419	0.	0.	5.e-002	-1118.4
30420	9.1935e-002	6.	0.1	-898.86
30421	5.2451e-014	6.	5.e-002	-1118.4
30422	0.27581	6.	0.1	-335.15
30423	0.18387	6.	5.e-002	-844.49
30424	0.45968	6.	0.1	-213.4
30425	0.36774	6.	5.e-002	-663.61
30426	0.64355	6.	0.1	-151.82
30427	0.55161	6.	5.e-002	-572.58
30428	0.82742	6.	0.1	-114.06
30429	0.73548	6.	5.e-002	-505.1
30430	1.0113	6.	0.1	-88.231
30431	0.91935	6.	5.e-002	-449.39
30432	1.1952	6.	0.1	-69.006
30433	1.1032	6.	5.e-002	-402.04
30434	1.379	6.	0.1	-54.308
30435	1.2871	6.	5.e-002	-360.55
30436	1.5629	6.	0.1	-42.71
30437	1.471	6.	5.e-002	-323.69
30438	1.7468	6.	0.1	-33.435
30439	1.6548	6.	5.e-002	-290.57
30440	1.9306	6.	0.1	-25.935
30441	1.8387	6.	5.e-002	-260.6
30442	2.1145	6.	0.1	-19.84
30443	2.0226	6.	5.e-002	-233.3
30444	2.2984	6.	0.1	-14.88
30445	2.2065	6.	5.e-002	-208.36
30446	2.4823	6.	0.1	-10.853
30447	2.3903	6.	5.e-002	-185.48
30448	2.6661	6.	0.1	-7.6163
30449	2.5742	6.	5.e-002	-164.45
30450	2.85	6.	0.1	-5.1022
30451	2.7581	6.	5.e-002	-145.09
30452	3.0339	6.	0.1	-3.439
30453	2.9419	6.	5.e-002	-127.25
30454	3.2177	6.	0.1	-2.7159
30455	3.1258	6.	5.e-002	-110.79
30456	3.4016	6.	0.1	-2.3804
30457	3.3097	6.	5.e-002	-95.591
30458	3.5855	6.	0.1	-2.1504
30459	3.4935	6.	5.e-002	-81.56
30460	3.7694	6.	0.1	-1.9631
30461	3.6774	6.	5.e-002	-68.602
30462	3.9532	6.	0.1	-1.8002
30463	3.8613	6.	5.e-002	-56.637
30464	4.1371	6.	0.1	-1.6546
30465	4.0452	6.	5.e-002	-45.59
30466	4.321	6.	0.1	-1.5225
30467	4.229	6.	5.e-002	-35.395
30468	4.5048	6.	0.1	-1.4017
30469	4.4129	6.	5.e-002	-25.993
30470	4.6887	6.	0.1	-1.2908
30471	4.5968	6.	5.e-002	-17.337
30472	4.8726	6.	0.1	-1.1887
30473	4.7806	6.	5.e-002	-9.4139
30474	5.0565	6.	0.1	-1.0946
30475	4.9645	6.	5.e-002	-2.6803
30476	5.2403	6.	0.1	-1.0076
30477	5.1484	6.	5.e-002	-5.3819
30478	5.4242	6.	0.1	-0.92733
30479	5.3323	6.	5.e-002	-11.455
30480	5.6081	6.	0.1	-0.8531
30481	5.5161	6.	5.e-002	-17.178
30482	5.7919	6.	0.1	-0.78448
30483	5.7	6.	5.e-002	-22.47
30484	5.9758	6.	0.1	-0.72104
30485	5.8839	6.	5.e-002	-27.347
30486	6.1597	6.	0.1	-0.66238
30487	6.0677	6.	5.e-002	-31.834
30488	6.3435	6.	0.1	-0.60817
30489	6.2516	6.	5.e-002	-35.959
30490	6.5274	6.	0.1	-0.55806
30491	6.4355	6.	5.e-002	-39.746
30492	6.7113	6.	0.1	-0.51178
30493	6.6194	6.	5.e-002	-43.221
30494	6.8952	6.	0.1	-0.4693
30495	6.8032	6.	5.e-002	-46.406
30496	7.079	6.	0.1	-0.62254
30497	6.9871	6.	5.e-002	-49.324
30498	7.2629	6.	0.1	-0.95754
30499	7.171	6.	5.e-002	-51.994
30500	7.4468	6.	0.1	-1.2833
30501	7.3548	6.	5.e-002	-54.435
30502	7.6306	6.	0.1	-1.5989
30503	7.5387	6.	5.e-002	-56.665
30504	7.8145	6.	0.1	-1.9038
30505	7.7226	6.	5.e-002	-58.698
30506	7.9984	6.	0.1	-2.1977
30507	7.9065	6.	5.e-002	-60.55
30508	8.1823	6.	0.1	-2.4804
30509	8.0903	6.	5.e-002	-62.234
30510	8.3661	6.	0.1	-2.752
30511	8.2742	6.	5.e-002	-63.764
30512	8.55	6.	0.1	-3.0127
30513	8.4581	6.	5.e-002	-65.15
30514	8.7339	6.	0.1	-3.2627
30515	8.6419	6.	5.e-002	-66.404
30516	8.9177	6.	0.1	-3.5022
30517	8.8258	6.	5.e-002	-67.536
30518	9.1016	6.	0.1	-3.7318
30519	9.0097	6.	5.e-002	-68.555
30520	9.2855	6.	0.1	-3.9517
30521	9.1935	6.	5.e-002	-69.469
30522	9.4694	6.	0.1	-4.1624
30523	9.3774	6.	5.e-002	-70.286
30524	9.6532	6.	0.1	-4.3643
30525	9.5613	6.	5.e-002	-71.013
30526	9.8371	6.	0.1	-4.558
30527	9.7452	6.	5.e-002	-71.658
30528	10.021	6.	0.1	-4.7439
30529	9.929	6.	5.e-002	-72.226
30530	10.205	6.	0.1	-4.9224
30531	10.113	6.	5.e-002	-72.723
30532	10.389	6.	0.1	-5.094
30533	10.297	6.	5.e-002	-73.154
30534	10.573	6.	0.1	-5.2592
30535	10.481	6.	5.e-002	-73.524
30536	10.756	6.	0.1	-5.4184
30537	10.665	6.	5.e-002	-73.837
30538	10.94	6.	0.1	-5.572
30539	10.848	6.	5.e-002	-74.098
30540	11.124	6.	0.1	-5.7205
30541	11.032	6.	5.e-002	-74.31
30542	11.308	6.	0.1	-5.8641
30543	11.216	6.	5.e-002	-74.477
30544	11.492	6.	0.1	-6.0034
30545	11.4	6.	5.e-002	-74.601
30546	11.676	6.	0.1	-6.1387
30547	11.584	6.	5.e-002	-74.685
30548	11.86	6.	0.1	-6.2704
30549	11.768	6.	5.e-002	-74.733
30550	12.044	6.	0.1	-6.3986
30551	11.952	6.	5.e-002	-74.746
30552	12.227	6.	0.1	-6.5238
30553	12.135	6.	5.e-002	-74.727
30554	12.411	6.	0.1	-6.6463
30555	12.319	6.	5.e-002	-74.677
30556	12.595	6.	0.1	-6.7663
30557	12.503	6.	5.e-002	-74.598
30558	12.779	6.	0.1	-6.884
30559	12.687	6.	5.e-002	-74.492
30560	12.963	6.	0.1	-6.9997
30561	12.871	6.	5.e-002	-74.36
30562	13.147	6.	0.1	-7.1137
30563	13.055	6.	5.e-002	-74.203
30564	13.331	6.	0.1	-7.2261
30565	13.239	6.	5.e-002	-74.023
30566	13.515	6.	0.1	-7.3371
30567	13.423	6.	5.e-002	-73.82
30568	13.698	6.	0.1	-7.4468
30569	13.606	6.	5.e-002	-73.595
30570	13.882	6.	0.1	-7.5554
30571	13.79	6.	5.e-002	-73.348
30572	14.066	6.	0.1	-7.663
30573	13.974	6.	5.e-002	-73.08
30574	14.25	6.	0.1	-7.7697
30575	14.158	6.	5.e-002	-72.791
30576	14.434	6.	0.1	-7.8755
30577	14.342	6.	5.e-002	-72.482
30578	14.618	6.	0.1	-7.9805
30579	14.526	6.	5.e-002	-72.153
30580	14.802	6.	0.1	-8.0847
30581	14.71	6.	5.e-002	-71.802
30582	14.985	6.	0.1	-8.1881
30583	14.894	6.	5.e-002	-71.431
30584	15.169	6.	0.1	-8.2907
30585	15.077	6.	5.e-002	-71.039
30586	15.353	6.	0.1	-8.3922
30587	15.261	6.	5.e-002	-70.625
30588	15.537	6.	0.1	-8.4928
30589	15.445	6.	5.e-002	-70.189
30590	15.721	6.	0.1	-8.5921
30591	15.629	6.	5.e-002	-69.729
30592	15.905	6.	0.1	-8.6899
30593	15.813	6.	5.e-002	-69.245
30594	16.089	6.	0.1	-8.7859
30595	15.997	6.	5.e-002	-68.735
30596	16.273	6.	0.1	-8.8799
30597	16.181	6.	5.e-002	-68.199
30598	16.456	6.	0.1	-8.9714
30599	16.365	6.	5.e-002	-67.634
30600	16.64	6.	0.1	-9.06
30601	16.548	6.	5.e-002	-67.039
30602	16.824	6.	0.1	-9.145
30603	16.732	6.	5.e-002	-66.412
30604	17.008	6.	0.1	-9.2258
30605	16.916	6.	5.e-002	-65.751
30606	17.192	6.	0.1	-9.3015
30607	17.1	6.	5.e-002	-65.052
30608	17.376	6.	0.1	-9.3713
30609	17.284	6.	5.e-002	-64.312
30610	17.56	6.	0.1	-9.434
30611	17.468	6.	5.e-002	-63.529
30612	17.744	6.	0.1	-9.4883
30613	17.652	6.	5.e-002	-62.699
30614	17.927	6.	0.1	-9.5328
30615	17.835	6.	5.e-002	-61.817
30616	18.111	6.	0.1	-9.5657
30617	18.019	6.	5.e-002	-60.879
30618	18.295	6.	0.1	-9.5851
30619	18.203	6.	5.e-002	-59.878
30620	18.479	6.	0.1	-9.5886
30621	18.387	6.	5.e-002	-58.809
30622	18.663	6.	0.1	-9.5736
30623	18.571	6.	5.e-002	-57.664
30624	18.847	6.	0.1	-9.537
30625	18.755	6.	5.e-002	-56.436
30626	19.031	6.	0.1	-9.4754
30627	18.939	6.	5.e-002	-55.116
30628	19.215	6.	0.1	-9.3848
30629	19.123	6.	5.e-002	-53.693
30630	19.398	6.	0.1	-9.2607
30631	19.306	6.	5.e-002	-52.156
30632	19.582	6.	0.1	-9.0983
30633	19.49	6.	5.e-002	-50.491
30634	19.766	6.	0.1	-8.8922
30635	19.674	6.	5.e-002	-48.686
30636	19.95	6.	0.1	-8.6366
30637	19.858	6.	5.e-002	-46.723
30638	20.134	6.	0.1	-8.3258
30639	20.042	6.	5.e-002	-44.586
30640	20.318	6.	0.1	-7.9541
30641	20.226	6.	5.e-002	-42.258
30642	20.502	6.	0.1	-7.5167
30643	20.41	6.	5.e-002	-39.722
30644	20.685	6.	0.1	-7.0102
30645	20.594	6.	5.e-002	-36.961
30646	20.869	6.	0.1	-6.4337
30647	20.777	6.	5.e-002	-33.965
30648	21.053	6.	0.1	-5.7904
30649	20.961	6.	5.e-002	-30.727
30650	21.237	6.	0.1	-5.0888
30651	21.145	6.	5.e-002	-27.256
30652	21.421	6.	0.1	-4.3444
30653	21.329	6.	5.e-002	-23.575
30654	21.605	6.	0.1	-3.5805
30655	21.513	6.	5.e-002	-19.733
30656	21.789	6.	0.1	-2.8274
30657	21.697	6.	5.e-002	-15.814
30658	21.973	6.	0.1	-2.1213
30659	21.881	6.	5.e-002	-11.945
30660	22.156	6.	0.1	-1.4838
30661	22.065	6.	5.e-002	-8.3013
30662	22.34	6.	0.1	-0.92701
30663	22.248	6.	5.e-002	-5.1402
30664	22.524	6.	0.1	-0.40701
30665	22.432	6.	5.e-002	-2.7385
30666	22.708	6.	0.1	-5.8052e-002
30667	22.616	6.	5.e-002	-2.1405
30668	22.8	6.	5.e-002	-2.6292
30669	22.524	6.	0.	-82.828
30670	22.708	6.	0.	-27.945
30671	22.34	6.	0.	-143.58
30672	22.156	6.	0.	-204.73
30673	21.973	6.	0.	-265.57
30674	21.789	6.	0.	-325.34
30675	21.605	6.	0.	-383.5
30676	21.421	6.	0.	-439.77
30677	21.237	6.	0.	-494.1
30678	21.053	6.	0.	-546.56
30679	20.869	6.	0.	-597.32
30680	20.685	6.	0.	-646.61
30681	20.502	6.	0.	-694.65
30682	20.318	6.	0.	-741.64
30683	20.134	6.	0.	-787.79
30684	19.95	6.	0.	-833.26
30685	19.766	6.	0.	-878.2
30686	19.582	6.	0.	-922.73
30687	19.398	6.	0.	-966.97
30688	19.215	6.	0.	-1011.
30689	19.031	6.	0.	-1054.9
30690	18.847	6.	0.	-1098.7
30691	18.663	6.	0.	-1142.4
30692	18.479	6.	0.	-1186.2
30693	18.295	6.	0.	-1229.9
30694	18.111	6.	0.	-1273.8
30695	17.927	6.	0.	-1317.7
30696	17.744	6.	0.	-1361.7
30697	17.56	6.	0.	-1405.9
30698	17.376	6.	0.	-1450.1
30699	17.192	6.	0.	-1494.5
30700	17.008	6.	0.	-1539.
30701	16.824	6.	0.	-1583.7
30702	16.64	6.	0.	-1628.6
30703	16.456	6.	0.	-1673.6
30704	16.273	6.	0.	-1718.7
30705	16.089	6.	0.	-1764.1
30706	15.905	6.	0.	-1809.6
30707	15.721	6.	0.	-1855.3
30708	15.537	6.	0.	-1901.2
30709	15.353	6.	0.	-1947.2
30710	15.169	6.	0.	-1993.5
30711	14.985	6.	0.	-2039.9
30712	14.802	6.	0.	-2086.5
30713	14.618	6.	0.	-2133.3
30714	14.434	6.	0.	-2180.3
30715	14.25	6.	0.	-2227.5
30716	14.066	6.	0.	-2274.9
30717	13.882	6.	0.	-2322.6
30718	13.698	6.	0.	-2370.4
30719	13.515	6.	0.	-2418.4
30720	13.331	6.	0.	-2466.6
30721	13.147	6.	0.	-2515.
30722	12.963	6.	0.	-2563.6
30723	12.779	6.	0.	-2612.4
30724	12.595	6.	0.	-2661.5
30725	12.411	6.	0.	-2710.7
30726	12.227	6.	0.	-2760.2
30727	12.044	6.	0.	-2809.9
30728	11.86	6.	0.	-2859.8
30729	11.676	6.	0.	-2909.9
30730	11.492	6.	0.	-2960.3
30731	11.308	6.	0.	-3010.9
30732	11.124	6.	0.	-3061.7
30733	10.94	6.	0.	-3112.7
30734	10.756	6.	0.	-3164.
30735	10.573	6.	0.	-3215.5
30736	10.389	6.	0.	-3267.3
30737	10.205	6.	0.	-3319.3
30738	10.021	6.	0.	-3371.6
30739	9.8371	6.	0.	-3424.1
30740	9.6532	6.	0.	-3476.9
30741	9.4694	6.	0.	-3530.
30742	9.2855	6.	0.	-3583.3
30743	9.1016	6.	0.	-3636.9
30744	8.9177	6.	0.	-3690.8
30745	8.7339	6.	0.	-3745.
30746	8.55	6.	0.	-3799.5
30747	8.3661	6.	0.	-3854.3
30748	8.1823	6.	0.	-3909.5
30749	7.9984	6.	0.	-3964.9
30750	7.8145	6.	0.	-4020.8
30751	7.6306	6.	0.	-4077.
30752	7.4468	6.	0.	-4133.5
30753	7.2629	6.	0.	-4190.5
30754	7.079	6.	0.	-4247.8
30755	6.8952	6.	0.	-4305.6
30756	6.7113	6.	0.	-4363.8
30757	6.5274	6.	0.	-4422.4
30758	6.3435	6.	0.	-4481.5
30759	6.1597	6.	0.	-4541.1
30760	5.9758	6.	0.	-4601.3
30761	5.7919	6.	0.	-4661.9
30762	5.6081	6.	0.	-4723.1
30763	5.4242	6.	0.	-4784.8
30764	5.2403	6.	0.	-4847.2
30765	5.0565	6.	0.	-4910.1
30766	4.8726	6.	0.	-4973.6
30767	4.6887	6.	0.	-5037.7
30768	4.5048	6.	0.	-5102.3
30769	4.321	6.	0.	-5167.5
30770	4.1371	6.	0.	-5233.2
30771	3.9532	6.	0.	-5299.4
30772	3.7694	6.	0.	-5365.8
30773	3.5855	6.	0.	-5432.4
30774	3.4016	6.	0.	-5499.
30775	3.2177	6.	0.	-5565.4
30776	3.0339	6.	0.	-5631.
30777	2.85	6.	0.	-5695.6
30778	2.6661	6.	0.	-5758.3
30779	2.4823	6.	0.	-5818.4
30780	2.2984	6.	0.	-5874.7
30781	2.1145	6.	0.	-5925.6
30782	1.9306	6.	0.	-5969.
30783	1.7468	6.	0.	-6002.1
30784	1.5629	6.	0.	-6020.7
30785	1.379	6.	0.	-6018.8
30786	1.1952	6.	0.	-5987.6
30787	1.0113	6.	0.	-5912.8
30788	0.82742	6.	0.	-5771.2
30789	0.64355	6.	0.	-5517.4
30790	0.45968	6.	0.	-5065.4
30791	0.27581	6.	0.	-4158.4
30792	9.1935e-002	6.	0.	-1946.6
30793	22.8	5.9091	0.	-16.041
30794	5.1657e-014	5.9091	0.	-1435.9
30795	0.27581	1.2328e-031	0.	-4158.4
30796	9.1935e-002	4.1092e-032	0.	-1946.6
30797	0.45968	2.0546e-031	0.	-5065.4
30798	0.64355	2.8764e-031	0.	-5517.4
30799	0.82742	3.6983e-031	0.	-5771.2
30800	1.0113	4.5201e-031	0.	-5912.8
30801	1.1952	5.3419e-031	0.	-5987.6
30802	1.379	6.1638e-031	0.	-6018.8
30803	1.5629	6.9856e-031	0.	-6020.7
30804	1.7468	7.8074e-031	0.	-6002.1
30805	1.9306	8.6293e-031	0.	-5969.
30806	2.1145	9.4511e-031	0.	-5925.6
30807	2.2984	1.0273e-030	0.	-5874.7
30808	2.4823	1.1095e-030	0.	-5818.4
30809	2.6661	1.1917e-030	0.	-5758.3
30810	2.85	1.2738e-030	0.	-5695.6
30811	3.0339	1.356e-030	0.	-5631.
30812	3.2177	1.4382e-030	0.	-5565.4
30813	3.4016	1.5204e-030	0.	-5499.
30814	3.5855	1.6026e-030	0.	-5432.4
30815	3.7694	1.6848e-030	0.	-5365.8
30816	3.9532	1.7669e-030	0.	-5299.4
30817	4.1371	1.8491e-030	0.	-5233.2
30818	4.321	1.9313e-030	0.	-5167.5
30819	4.5048	2.0135e-030	0.	-5102.3
30820	4.6887	2.0957e-030	0.	-5037.7
30821	4.8726	2.1779e-030	0.	-4973.6
30822	5.0565	2.26e-030	0.	-4910.1
30823	5.2403	2.3422e-030	0.	-4847.2
30824	5.4242	2.4244e-030	0.	-4784.8
30825	5.6081	2.5066e-030	0.	-4723.1
30826	5.7919	2.5888e-030	0.	-4661.9
30827	5.9758	2.671e-030	0.	-4601.3
30828	6.1597	2.7531e-030	0.	-4541.1
30829	6.3435	2.8353e-030	0.	-4481.5
30830	6.5274	2.9175e-030	0.	-4422.4
30831	6.7113	2.9997e-030	0.	-4363.8
30832	6.8952	3.0819e-030	0.	-4305.6
30833	7.079	3.1641e-030	0.	-4247.8
30834	7.2629	3.2462e-030	0.	-4190.5
30835	7.4468	3.3284e-030	0.	-4133.5
30836	7.6306	3.4106e-030	0.	-4077.
30837	7.8145	3.4928e-030	0.	-4020.8
30838	7.9984	3.575e-030	0.	-3964.9
30839	8.1823	3.6572e-030	0.	-3909.5
30840	8.3661	3.7393e-030	0.	-3854.3
30841	8.55	3.8215e-030	0.	-3799.5
30842	8.7339	3.9037e-030	0.	-3745.
30843	8.9177	3.9859e-030	0.	-3690.8
30844	9.1016	4.0681e-030	0.	-3636.9
30845	9.2855	4.1503e-030	0.	-3583.3
30846	9.4694	4.2324e-030	0.	-3530.
30847	9.6532	4.3146e-030	0.	-3476.9
30848	9.8371	4.3968e-030	0.	-3424.1
30849	10.021	4.479e-030	0.	-3371.6
30850	10.205	4.5612e-030	0.	-3319.3
30851	10.389	4.6434e-030	0.	-3267.3
30852	10.573	4.7255e-030	0.	-3215.5
30853	10.756	4.8077e-030	0.	-3164.
30854	10.94	4.8899e-030	0.	-3112.7
30855	11.124	4.9721e-030	0.	-3061.7
30856	11.308	5.0543e-030	0.	-3010.9
30857	11.492	5.1365e-030	0.	-2960.3
30858	11.676	5.2186e-030	0.	-2909.9
30859	11.86	5.3008e-030	0.	-2859.8
30860	12.044	5.383e-030	0.	-2809.9
30861	12.227	5.4652e-030	0.	-2760.2
30862	12.411	5.5474e-030	0.	-2710.7
30863	12.595	5.6296e-030	0.	-2661.5
30864	12.779	5.7117e-030	0.	-2612.4
30865	12.963	5.7939e-030	0.	-2563.6
30866	13.147	5.8761e-030	0.	-2515.
30867	13.331	5.9583e-030	0.	-2466.6
30868	13.515	6.0405e-030	0.	-2418.4
30869	13.698	6.1227e-030	0.	-2370.4
30870	13.882	6.2049e-030	0.	-2322.6
30871	14.066	6.287e-030	0.	-2274.9
30872	14.25	6.3692e-030	0.	-2227.5
30873	14.434	6.4514e-030	0.	-2180.3
30874	14.618	6.5336e-030	0.	-2133.3
30875	14.802	6.6158e-030	0.	-2086.5
30876	14.985	6.698e-030	0.	-2039.9
30877	15.169	6.7801e-030	0.	-1993.5
30878	15.353	6.8623e-030	0.	-1947.2
30879	15.537	6.9445e-030	0.	-1901.2
30880	15.721	7.0267e-030	0.	-1855.3
30881	15.905	7.1089e-030	0.	-1809.6
30882	16.089	7.1911e-030	0.	-1764.1
30883	16.273	7.2732e-030	0.	-1718.7
30884	16.456	7.3554e-030	0.	-1673.6
30885	16.64	7.4376e-030	0.	-1628.6
30886	16.824	7.5198e-030	0.	-1583.7
30887	17.008	7.602e-030	0.	-1539.
30888	17.192	7.6842e-030	0.	-1494.5
30889	17.376	7.7663e-030	0.	-1450.1
30890	17.56	7.8485e-030	0.	-1405.9
30891	17.744	7.9307e-030	0.	-1361.7
30892	17.927	8.0129e-030	0.	-1317.7
30893	18.111	8.0951e-030	0.	-1273.8
30894	18.295	8.1773e-030	0.	-1229.9
30895	18.479	8.2594e-030	0.	-1186.2
30896	18.663	8.3416e-030	0.	-1142.4
30897	18.847	8.4238e-030	0.	-1098.7
30898	19.031	8.506e-030	0.	-1054.9
30899	19.215	8.5882e-030	0.	-1011.
30900	19.398	8.6704e-030	0.	-966.97
30901	19.582	8.7525e-030	0.	-922.73
30902	19.766	8.8347e-030	0.	-878.2
30903	19.95	8.9169e-030	0.	-833.26
30904	20.134	8.9991e-030	0.	-787.79
30905	20.318	9.0813e-030	0.	-741.64
30906	20.502	9.1635e-030	0.	-694.65
30907	20.685	9.2456e-030	0.	-646.61
30908	20.869	9.3278e-030	0.	-597.32
30909	21.053	9.41e-030	0.	-546.56
30910	21.237	9.4922e-030	0.	-494.1
30911	21.421	9.5744e-030	0.	-439.77
30912	21.605	9.6566e-030	0.	-383.5
30913	21.789	9.7387e-030	0.	-325.34
30914	21.973	9.8209e-030	0.	-265.57
30915	22.156	9.9031e-030	0.	-204.73
30916	22.34	9.9853e-030	0.	-143.58
30917	22.524	1.0067e-029	0.	-82.828
30918	22.708	1.015e-029	0.	-27.945
30919	22.8	9.0909e-002	0.	-16.041
30920	7.9472e-016	9.0909e-002	0.	-1435.9
30921	23.225	0.	0.	-15.833
30922	23.053	0.	0.	-6.4432
30923	23.397	0.	0.	-21.052
30924	23.569	0.	0.	-21.938
30925	23.742	0.	0.	-18.659
30926	23.914	0.	0.	-9.6544
30927	22.967	9.0909e-002	0.	-8.3554
30928	24.	9.0909e-002	0.	-6.2407
30929	5.0067e-014	5.7273	0.	-3540.8
30930	4.8478e-014	5.5455	0.	-5159.
30931	4.6888e-014	5.3636	0.	-6006.5
30932	4.5299e-014	5.1818	0.	-6544.2
30933	4.371e-014	5.	0.	-6913.
30934	4.212e-014	4.8182	0.	-7180.4
30935	4.0531e-014	4.6364	0.	-7380.4
30936	3.8941e-014	4.4545	0.	-7533.1
30937	3.7352e-014	4.2727	0.	-7651.
30938	3.5762e-014	4.0909	0.	-7742.4
30939	3.4173e-014	3.9091	0.	-7813.
30940	3.2583e-014	3.7273	0.	-7866.5
30941	3.0994e-014	3.5455	0.	-7905.8
30942	2.9405e-014	3.3636	0.	-7932.6
30943	2.7815e-014	3.1818	0.	-7948.3
30944	2.6226e-014	3.	0.	-7953.4
30945	2.4636e-014	2.8182	0.	-7948.3
30946	2.3047e-014	2.6364	0.	-7932.6
30947	2.1457e-014	2.4545	0.	-7905.8
30948	1.9868e-014	2.2727	0.	-7866.5
30949	1.8279e-014	2.0909	0.	-7813.
30950	1.6689e-014	1.9091	0.	-7742.4
30951	1.51e-014	1.7273	0.	-7651.
30952	1.351e-014	1.5455	0.	-7533.1
30953	1.1921e-014	1.3636	0.	-7380.4
30954	1.0331e-014	1.1818	0.	-7180.4
30955	8.7419e-015	1.	0.	-6913.
30956	7.1525e-015	0.81818	0.	-6544.2
30957	5.563e-015	0.63636	0.	-6006.5
30958	3.9736e-015	0.45455	0.	-5159.
30959	2.3842e-015	0.27273	0.	-3540.8
30960	24.	0.27273	0.	-12.209
30961	24.	0.45455	0.	-22.272
30962	24.	0.63636	0.	-38.262
30963	24.	0.81818	0.	-60.876
30964	24.	1.	0.	-89.703
30965	24.	1.1818	0.	-123.43
30966	24.	1.3636	0.	-159.67
30967	24.	1.5455	0.	-194.46
30968	24.	1.7273	0.	-222.21
30969	24.	1.9091	0.	-236.8
30970	24.	2.0909	0.	-234.31
30971	24.	2.2727	0.	-215.52
30972	24.	2.4545	0.	-186.08
30973	24.	2.6364	0.	-154.25
30974	24.	2.8182	0.	-128.79
30975	24.	3.	0.	-118.63
30976	24.	3.1818	0.	-128.79
30977	24.	3.3636	0.	-154.25
30978	24.	3.5455	0.	-186.08
30979	24.	3.7273	0.	-215.52
30980	24.	3.9091	0.	-234.31
30981	24.	4.0909	0.	-236.8
30982	24.	4.2727	0.	-222.21
30983	24.	4.4545	0.	-194.46
30984	24.	4.6364	0.	-159.67
30985	24.	4.8182	0.	-123.43
30986	24.	5.	0.	-89.703
30987	24.	5.1818	0.	-60.876
30988	24.	5.3636	0.	-38.261
30989	24.	5.5455	0.	-22.272
30990	24.	5.7273	0.	-12.209
30991	24.	5.9091	0.	-6.2407
30992	23.914	6.	0.	-9.6543
30993	23.742	6.	0.	-18.659
30994	23.569	6.	0.	-21.938
30995	23.397	6.	0.	-21.052
30996	23.225	6.	0.	-15.833
30997	23.053	6.	0.	-6.4432
30998	22.967	5.9091	0.	-8.3554
30999	22.8	1.7273	0.	-208.14
31000	22.8	1.9091	0.	-648.62
31001	22.8	1.5455	0.	-156.09
31002	22.8	1.3636	0.	-131.9
31003	22.8	1.1818	0.	-113.01
31004	22.8	1.	0.	-97.432
31005	22.8	0.81818	0.	-83.008
31006	22.8	0.63636	0.	-68.962
31007	22.8	0.45455	0.	-54.44
31008	22.8	0.27273	0.	-37.863
31009	22.883	2.	0.	-1197.4
31010	22.967	0.27273	0.	-24.812
31011	22.967	0.45455	0.	-44.421
31012	22.967	0.63636	0.	-68.491
31013	22.967	0.81818	0.	-98.772
31014	22.967	1.	0.	-136.89
31015	22.967	1.1818	0.	-185.16
31016	22.967	1.3636	0.	-248.36
31017	22.967	1.5455	0.	-334.8
31018	22.967	1.7273	0.	-482.52
31019	22.967	1.9091	0.	-1055.1
31020	22.8	4.2727	0.	-208.14
31021	22.8	4.0909	0.	-648.62
31022	22.8	4.4545	0.	-156.09
31023	22.8	4.6364	0.	-131.9
31024	22.8	4.8182	0.	-113.01
31025	22.8	5.	0.	-97.432
31026	22.8	5.1818	0.	-83.008
31027	22.8	5.3636	0.	-68.962
31028	22.8	5.5455	0.	-54.44
31029	22.8	5.7273	0.	-37.863
31030	22.883	4.	0.	-1197.4
31031	22.967	5.7273	0.	-24.812
31032	22.967	5.5455	0.	-44.421
31033	22.967	5.3636	0.	-68.491
31034	22.967	5.1818	0.	-98.771
31035	22.967	5.	0.	-136.89
31036	22.967	4.8182	0.	-185.16
31037	22.967	4.6364	0.	-248.36
31038	22.967	4.4545	0.	-334.8
31039	22.967	4.2727	0.	-482.52
31040	22.967	4.0909	0.	-1055.1
