Node Numbers,X Locations (inches),Y Locations (inches),Z Locations (inches),Equivalent Elastic Strains (in/in),Equivalent Stress (psi),Max Principal Elastic Strain (in/in),Max Principal Stress (psi),Middle Principal Elastic Strain (in/in),Middle Principal Stress (psi),Min Principal Elastic Strain (in/in),Min Principal Stress (psi),Total Deformation (in)
1,19.6,2.1818,0,0.00036166,3614.1,0.00016363,573.53,9.4589e-05,54.786,-0.00034816,-3271.9,1.6501
2,19.6,2.3636,0,0.00028185,2816.6,0.00012599,398.51,7.1851e-05,-8.2737,-0.000273,-2599.4,1.6504
3,19.6,2.5455,0,0.00024871,2485.4,0.00010933,332.88,6.5042e-05,0.12315,-0.00024137,-2302.1,1.6506
4,19.6,2.7273,0,0.00023158,2314.2,0.00010102,299.63,6.1016e-05,-0.93434,-0.00022503,-2150.1,1.6508
5,19.6,2.9091,0,0.0002243,2241.4,9.7421e-05,285.18,5.9397e-05,-0.51407,-0.00021808,-2085.4,1.6508
6,19.6,3.0909,0,0.0002243,2241.4,9.7421e-05,285.18,5.9397e-05,-0.51407,-0.00021808,-2085.4,1.6508
7,19.6,3.2727,0,0.00023158,2314.2,0.00010102,299.63,6.1016e-05,-0.93434,-0.00022503,-2150.1,1.6508
8,19.6,3.4545,0,0.00024871,2485.4,0.00010933,332.88,6.5042e-05,0.12315,-0.00024137,-2302.1,1.6506
9,19.6,3.6364,0,0.00028185,2816.6,0.00012599,398.51,7.1851e-05,-8.2737,-0.000273,-2599.4,1.6504
10,19.6,3.8182,0,0.00036166,3614.1,0.00016363,573.53,9.4589e-05,54.786,-0.00034816,-3271.9,1.6501
11,19.767,2.1818,0,0.00034925,3490.1,0.00014365,340.68,9.7337e-05,-7.2951,-0.00034227,-3310.3,1.6731
12,19.767,2.3636,0,0.0002776,2774.1,0.00011887,326.62,7.4122e-05,-9.6059,-0.00027068,-2600.3,1.6733
13,19.767,2.5455,0,0.00024378,2436.1,0.00010388,285.7,6.5927e-05,0.56747,-0.00023765,-2280.4,1.6735
14,19.767,2.7273,0,0.00022658,2264.2,9.644e-05,263.35,6.1264e-05,-0.94918,-0.00022095,-2121.4,1.6737
15,19.767,2.9091,0,0.00021922,2190.7,9.3118e-05,252.73,5.9426e-05,-0.41286,-0.00021383,-2053.5,1.6737
16,19.767,3.0909,0,0.00021922,2190.7,9.3118e-05,252.73,5.9426e-05,-0.41286,-0.00021383,-2053.5,1.6737
17,19.767,3.2727,0,0.00022658,2264.2,9.644e-05,263.35,6.1264e-05,-0.94918,-0.00022095,-2121.4,1.6737
18,19.767,3.4545,0,0.00024378,2436.1,0.00010388,285.7,6.5927e-05,0.56747,-0.00023765,-2280.4,1.6735
19,19.767,3.6364,0,0.0002776,2774.1,0.00011887,326.62,7.4122e-05,-9.6059,-0.00027068,-2600.3,1.6733
20,19.767,3.8182,0,0.00034925,3490.1,0.00014365,340.68,9.7337e-05,-7.2951,-0.00034227,-3310.3,1.6731
21,19.415,5.8182,0,2.1564e-05,215.49,1.025e-05,36.292,4.8947e-06,-3.9492,-2.073e-05,-196.48,1.6189
22,19.415,5.6364,0,3.193e-05,319.08,1.775e-05,89.182,5.6466e-06,-1.7563,-2.9455e-05,-265.5,1.6195
23,19.415,5.4545,0,4.5228e-05,451.97,2.8108e-05,166.43,5.7726e-06,-1.3922,-4.0019e-05,-345.45,1.6201
24,19.415,5.2727,0,6.0359e-05,603.18,4.0138e-05,258.41,5.5761e-06,-1.2679,-5.1633e-05,-431.11,1.6207
25,19.415,5.0909,0,7.7584e-05,775.3,5.3934e-05,365.16,5.1683e-06,-1.2439,-6.4597e-05,-525.44,1.6213
26,19.415,4.9091,0,9.7652e-05,975.85,7.0009e-05,489.81,4.5955e-06,-1.6777,-7.9569e-05,-634.06,1.6219
27,19.415,4.7273,0,0.00012194,1218.5,8.9292e-05,639.23,4.0904e-06,-0.94513,-9.7726e-05,-765.96,1.6225
28,19.415,4.5455,0,0.00015306,1529.6,0.00011357,821.91,3.4598e-06,-5.4346,-0.00012134,-943.15,1.6231
29,19.415,4.3636,0,0.00019638,1962.4,0.00014629,1069.7,4.7726e-06,6.3977,-0.00015511,-1194.9,1.6236
30,19.415,4.1818,0,0.00026028,2601,0.00018606,1285.3,1.117e-05,-28.689,-0.00021267,-1710.5,1.6241
31,19.415,4,0,0.00030013,2999.2,0.00018456,1008.8,3.2012e-05,-137.42,-0.0002684,-2394.6,1.6245
32,19.415,3.8182,0,0.00027327,2730.8,0.00013349,538.22,6.2869e-05,7.6083,-0.00026009,-2419,1.6249
33,19.415,3.6364,0,0.00025257,2524,0.00011554,391.82,6.2785e-05,-4.5536,-0.00024364,-2306.9,1.6252
34,19.415,3.4545,0,0.00023464,2344.7,0.00010406,326.22,6.0817e-05,1.2737,-0.00022737,-2164,1.6254
35,19.415,3.2727,0,0.00022441,2242.6,9.8553e-05,298.59,5.8694e-05,-0.89606,-0.00021784,-2078.7,1.6255
36,19.415,3.0909,0,0.00021958,2194.3,9.5913e-05,286.08,5.7806e-05,-0.24078,-0.00021331,-2037.3,1.6256
37,19.415,2.9091,0,0.00021958,2194.3,9.5913e-05,286.08,5.7806e-05,-0.24078,-0.00021331,-2037.3,1.6256
38,19.415,2.7273,0,0.00022441,2242.6,9.8553e-05,298.59,5.8694e-05,-0.89606,-0.00021784,-2078.7,1.6255
39,19.415,2.5455,0,0.00023464,2344.7,0.00010406,326.22,6.0817e-05,1.2737,-0.00022737,-2164,1.6254
40,19.415,2.3636,0,0.00025257,2524,0.00011554,391.82,6.2785e-05,-4.5536,-0.00024364,-2306.9,1.6252
41,19.415,2.1818,0,0.00027327,2730.8,0.00013349,538.21,6.2869e-05,7.6083,-0.00026009,-2419,1.6249
42,19.415,2,0,0.00030013,2999.2,0.00018456,1008.8,3.2012e-05,-137.42,-0.0002684,-2394.6,1.6245
43,19.415,1.8182,0,0.00026028,2601,0.00018606,1285.3,1.117e-05,-28.689,-0.00021267,-1710.5,1.6241
44,19.415,1.6364,0,0.00019638,1962.4,0.00014629,1069.7,4.7726e-06,6.3977,-0.00015511,-1194.9,1.6236
45,19.415,1.4545,0,0.00015306,1529.6,0.00011357,821.91,3.4599e-06,-5.4346,-0.00012134,-943.15,1.6231
46,19.415,1.2727,0,0.00012194,1218.5,8.9292e-05,639.23,4.0904e-06,-0.94514,-9.7726e-05,-765.96,1.6225
47,19.415,1.0909,0,9.7652e-05,975.85,7.0009e-05,489.81,4.5955e-06,-1.6777,-7.9569e-05,-634.06,1.6219
48,19.415,0.90909,0,7.7584e-05,775.3,5.3934e-05,365.16,5.1683e-06,-1.2439,-6.4597e-05,-525.44,1.6213
49,19.415,0.72727,0,6.0359e-05,603.18,4.0138e-05,258.41,5.5761e-06,-1.2679,-5.1633e-05,-431.11,1.6207
50,19.415,0.54545,0,4.5228e-05,451.97,2.8108e-05,166.43,5.7726e-06,-1.3922,-4.0019e-05,-345.45,1.6201
51,19.415,0.36364,0,3.193e-05,319.08,1.775e-05,89.182,5.6466e-06,-1.7563,-2.9455e-05,-265.5,1.6195
52,19.415,0.18182,0,2.1564e-05,215.49,1.025e-05,36.292,4.8947e-06,-3.9492,-2.073e-05,-196.48,1.6189
53,19.23,5.8182,0,3.4089e-05,340.65,1.3515e-05,27.469,9.8644e-06,0.036838,-3.3538e-05,-326.07,1.5943
54,19.23,5.6364,0,4.0174e-05,401.46,1.8318e-05,62.147,1.0083e-05,0.27559,-3.8753e-05,-366.66,1.5949
55,19.23,5.4545,0,4.9889e-05,498.55,2.6101e-05,119.86,1.02e-05,0.39211,-4.6757e-05,-427.56,1.5955
56,19.23,5.2727,0,6.2227e-05,621.84,3.5905e-05,193.26,1.025e-05,0.49617,-5.6647e-05,-502.14,1.5961
57,19.23,5.0909,0,7.692e-05,768.67,4.7409e-05,279.28,1.0311e-05,0.54536,-6.8269e-05,-589.87,1.5967
58,19.23,4.9091,0,9.4178e-05,941.13,6.0624e-05,376.99,1.0536e-05,0.64841,-8.1926e-05,-694.08,1.5972
59,19.23,4.7273,0,0.00011466,1145.8,7.5802e-05,486.34,1.1155e-05,0.6098,-9.8367e-05,-822.29,1.5977
60,19.23,4.5455,0,0.00013875,1386.5,9.2565e-05,600.05,1.2785e-05,0.61846,-0.00011844,-985.33,1.5983
61,19.23,4.3636,0,0.00016738,1672.7,0.0001102,704.32,1.6749e-05,2.1451,-0.00014391,-1205,1.5987
62,19.23,4.1818,0,0.00019456,1944.3,0.00012144,728.99,2.5094e-05,5.1135,-0.00017168,-1473.4,1.5992
63,19.23,4,0,0.00020856,2084.1,0.00011519,587.86,3.906e-05,15.882,-0.00019231,-1722.5,1.5995
64,19.23,3.8182,0,0.00021499,2148.4,0.00010479,421.95,4.9755e-05,8.4205,-0.00020466,-1903.1,1.5998
65,19.23,3.6364,0,0.00021509,2149.4,9.7766e-05,327.26,5.4031e-05,-1.3461,-0.00020765,-1967.5,1.6001
66,19.23,3.4545,0,0.0002126,2124.6,9.3717e-05,287.86,5.5437e-05,0.24192,-0.00020624,-1965.9,1.6003
67,19.23,3.2727,0,0.00020961,2094.6,9.1185e-05,268.53,5.5433e-05,-0.095234,-0.00020374,-1947.4,1.6004
68,19.23,3.0909,0,0.00020785,2077,8.9966e-05,260.64,5.5265e-05,-0.094048,-0.00020218,-1934.5,1.6004
69,19.23,2.9091,0,0.00020785,2077,8.9966e-05,260.64,5.5265e-05,-0.094048,-0.00020218,-1934.5,1.6004
70,19.23,2.7273,0,0.00020961,2094.6,9.1185e-05,268.53,5.5433e-05,-0.095233,-0.00020374,-1947.4,1.6004
71,19.23,2.5455,0,0.0002126,2124.6,9.3717e-05,287.86,5.5437e-05,0.24192,-0.00020624,-1965.9,1.6003
72,19.23,2.3636,0,0.00021509,2149.4,9.7766e-05,327.26,5.4031e-05,-1.3461,-0.00020765,-1967.5,1.6001
73,19.23,2.1818,0,0.00021499,2148.4,0.00010479,421.95,4.9755e-05,8.4205,-0.00020466,-1903.1,1.5998
74,19.23,2,0,0.00020856,2084.1,0.00011519,587.86,3.906e-05,15.882,-0.00019231,-1722.5,1.5995
75,19.23,1.8182,0,0.00019456,1944.3,0.00012144,728.99,2.5094e-05,5.1135,-0.00017168,-1473.4,1.5992
76,19.23,1.6364,0,0.00016738,1672.7,0.0001102,704.32,1.6749e-05,2.1451,-0.00014391,-1205,1.5987
77,19.23,1.4545,0,0.00013875,1386.5,9.2565e-05,600.05,1.2785e-05,0.61847,-0.00011844,-985.33,1.5983
78,19.23,1.2727,0,0.00011466,1145.8,7.5802e-05,486.34,1.1155e-05,0.6098,-9.8367e-05,-822.29,1.5977
79,19.23,1.0909,0,9.4178e-05,941.13,6.0624e-05,376.99,1.0536e-05,0.64841,-8.1926e-05,-694.08,1.5972
80,19.23,0.90909,0,7.692e-05,768.67,4.7409e-05,279.28,1.0311e-05,0.54536,-6.8269e-05,-589.87,1.5967
81,19.23,0.72727,0,6.2227e-05,621.84,3.5905e-05,193.26,1.025e-05,0.49617,-5.6647e-05,-502.14,1.5961
82,19.23,0.54545,0,4.9889e-05,498.55,2.6101e-05,119.86,1.02e-05,0.39211,-4.6757e-05,-427.56,1.5955
83,19.23,0.36364,0,4.0174e-05,401.46,1.8318e-05,62.147,1.0083e-05,0.27559,-3.8753e-05,-366.66,1.5949
84,19.23,0.18182,0,3.4089e-05,340.65,1.3515e-05,27.469,9.8644e-06,0.036832,-3.3538e-05,-326.07,1.5943
85,19.045,5.8182,0,4.7823e-05,477.9,1.8075e-05,27.817,1.4403e-05,0.22648,-4.7287e-05,-463.28,1.5698
86,19.045,5.6364,0,5.2782e-05,527.46,2.2328e-05,59.791,1.4376e-05,0.0428,-5.151e-05,-495,1.5704
87,19.045,5.4545,0,6.051e-05,604.69,2.8623e-05,106.39,1.447e-05,0.045105,-5.7994e-05,-544.42,1.5709
88,19.045,5.2727,0,7.0744e-05,706.95,3.6681e-05,165.38,1.4669e-05,-0.0016518,-6.6464e-05,-609.6,1.5715
89,19.045,5.0909,0,8.3271e-05,832.13,4.6211e-05,234.06,1.5054e-05,-0.041096,-7.678e-05,-690.05,1.572
90,19.045,4.9091,0,9.7997e-05,979.3,5.6965e-05,309.41,1.5764e-05,-0.15246,-8.8992e-05,-787.25,1.5726
91,19.045,4.7273,0,0.00011483,1147.5,6.8555e-05,386.57,1.708e-05,-0.19873,-0.00010326,-904.38,1.573
92,19.045,4.5455,0,0.00013348,1333.9,8.0236e-05,456.71,1.9432e-05,-0.15339,-0.00011971,-1045.6,1.5735
93,19.045,4.3636,0,0.00015215,1520.5,8.9901e-05,498.71,2.3243e-05,-2.1335,-0.00013738,-1209,1.5739
94,19.045,4.1818,0,0.00016813,1680.1,9.4394e-05,486.45,2.9535e-05,-0.86951,-0.00015448,-1383.5,1.5743
95,19.045,4,0,0.0001791,1789.8,9.2968e-05,418.47,3.6903e-05,-2.7822,-0.00016827,-1544.4,1.5747
96,19.045,3.8182,0,0.00018572,1856,8.8509e-05,333.45,4.3822e-05,-2.3112,-0.0001778,-1667.5,1.5749
97,19.045,3.6364,0,0.00019042,1902.9,8.5267e-05,274.96,4.8822e-05,1.1288,-0.00018424,-1750,1.5751
98,19.045,3.4545,0,0.00019286,1927.3,8.3754e-05,245.36,5.111e-05,0.085753,-0.00018751,-1792.8,1.5753
99,19.045,3.2727,0,0.00019378,1936.5,8.2938e-05,231.45,5.2148e-05,0.10537,-0.0001888,-1810.3,1.5754
100,19.045,3.0909,0,0.000194,1938.7,8.2574e-05,226,5.2502e-05,0.051059,-0.00018916,-1815.7,1.5755
101,19.045,2.9091,0,0.000194,1938.7,8.2574e-05,226,5.2502e-05,0.051059,-0.00018916,-1815.7,1.5755
102,19.045,2.7273,0,0.00019378,1936.5,8.2938e-05,231.45,5.2148e-05,0.10537,-0.0001888,-1810.3,1.5754
103,19.045,2.5455,0,0.00019286,1927.3,8.3754e-05,245.36,5.111e-05,0.085753,-0.00018751,-1792.8,1.5753
104,19.045,2.3636,0,0.00019042,1902.9,8.5267e-05,274.96,4.8822e-05,1.1288,-0.00018424,-1750,1.5751
105,19.045,2.1818,0,0.00018572,1856,8.8509e-05,333.45,4.3822e-05,-2.3112,-0.0001778,-1667.5,1.5749
106,19.045,2,0,0.0001791,1789.8,9.2967e-05,418.47,3.6903e-05,-2.7822,-0.00016827,-1544.4,1.5747
107,19.045,1.8182,0,0.00016813,1680.1,9.4394e-05,486.45,2.9535e-05,-0.86951,-0.00015448,-1383.5,1.5743
108,19.045,1.6364,0,0.00015215,1520.5,8.9901e-05,498.71,2.3243e-05,-2.1335,-0.00013738,-1209,1.5739
109,19.045,1.4545,0,0.00013348,1333.9,8.0236e-05,456.71,1.9432e-05,-0.15339,-0.00011971,-1045.6,1.5735
110,19.045,1.2727,0,0.00011483,1147.5,6.8555e-05,386.57,1.708e-05,-0.19873,-0.00010326,-904.38,1.573
111,19.045,1.0909,0,9.7997e-05,979.3,5.6965e-05,309.41,1.5764e-05,-0.15246,-8.8992e-05,-787.25,1.5726
112,19.045,0.90909,0,8.3271e-05,832.13,4.6211e-05,234.06,1.5054e-05,-0.041095,-7.678e-05,-690.05,1.572
113,19.045,0.72727,0,7.0744e-05,706.95,3.6681e-05,165.38,1.4669e-05,-0.001652,-6.6464e-05,-609.6,1.5715
114,19.045,0.54545,0,6.051e-05,604.69,2.8623e-05,106.39,1.447e-05,0.045105,-5.7994e-05,-544.42,1.5709
115,19.045,0.36364,0,5.2782e-05,527.46,2.2328e-05,59.791,1.4376e-05,0.042799,-5.151e-05,-495,1.5704
116,19.045,0.18182,0,4.7823e-05,477.9,1.8075e-05,27.817,1.4403e-05,0.22648,-4.7287e-05,-463.28,1.5698
117,18.86,5.8182,0,6.1061e-05,610.19,2.2507e-05,28.616,1.8747e-05,0.35944,-6.0519e-05,-595.21,1.5453
118,18.86,5.6364,0,6.5643e-05,655.98,2.6671e-05,60.848,1.8589e-05,0.12734,-6.4394e-05,-623.38,1.5458
119,18.86,5.4545,0,7.2203e-05,721.54,3.208e-05,100.95,1.8663e-05,0.13764,-6.9953e-05,-665.69,1.5464
120,18.86,5.2727,0,8.0768e-05,807.12,3.8738e-05,148.75,1.8951e-05,0.080446,-7.7202e-05,-722.37,1.5469
121,18.86,5.0909,0,9.1227e-05,911.64,4.6459e-05,202.47,1.9517e-05,0.038453,-8.608e-05,-793.37,1.5474
122,18.86,4.9091,0,0.00010336,1032.9,5.4916e-05,258.73,2.0482e-05,0.0001099,-9.6502e-05,-878.97,1.5479
123,18.86,4.7273,0,0.0001168,1167.2,6.3585e-05,312.18,2.2026e-05,-0.078915,-0.00010831,-979.4,1.5484
124,18.86,4.5455,0,0.00013083,1307.4,7.1599e-05,354.55,2.4391e-05,-0.15468,-0.00012114,-1093.6,1.5488
125,18.86,4.3636,0,0.00014427,1441.7,7.766e-05,374.42,2.7871e-05,0.32405,-0.0001342,-1217.4,1.5492
126,18.86,4.1818,0,0.00015551,1554,8.0504e-05,361.92,3.2336e-05,0.011288,-0.00014615,-1341.1,1.5496
127,18.86,4,0,0.00016403,1639.1,8.0231e-05,322.13,3.7432e-05,0.56364,-0.00015615,-1454,1.5499
128,18.86,3.8182,0,0.00017025,1701.4,7.8429e-05,273.25,4.218e-05,0.88335,-0.00016395,-1547.9,1.5501
129,18.86,3.6364,0,0.0001749,1747.8,7.685e-05,233.67,4.576e-05,0.069938,-0.00016975,-1619.2,1.5503
130,18.86,3.4545,0,0.00017832,1781.9,7.6072e-05,209.94,4.8151e-05,0.14727,-0.00017381,-1667.6,1.5505
131,18.86,3.2727,0,0.00018045,1803.2,7.5824e-05,198.11,4.9475e-05,0.13706,-0.00017626,-1695.9,1.5506
132,18.86,3.0909,0,0.00018143,1813,7.5767e-05,193.36,5.0048e-05,0.11061,-0.00017736,-1708.6,1.5506
133,18.86,2.9091,0,0.00018143,1813,7.5767e-05,193.36,5.0048e-05,0.1106,-0.00017736,-1708.6,1.5506
134,18.86,2.7273,0,0.00018045,1803.2,7.5824e-05,198.11,4.9475e-05,0.13706,-0.00017626,-1695.9,1.5506
135,18.86,2.5455,0,0.00017832,1781.9,7.6072e-05,209.94,4.8151e-05,0.14727,-0.00017381,-1667.6,1.5505
136,18.86,2.3636,0,0.0001749,1747.8,7.685e-05,233.67,4.576e-05,0.069939,-0.00016975,-1619.2,1.5503
137,18.86,2.1818,0,0.00017025,1701.4,7.8429e-05,273.25,4.218e-05,0.88335,-0.00016395,-1547.9,1.5501
138,18.86,2,0,0.00016403,1639.1,8.0231e-05,322.13,3.7432e-05,0.56365,-0.00015615,-1454,1.5499
139,18.86,1.8182,0,0.00015551,1554,8.0504e-05,361.92,3.2336e-05,0.011288,-0.00014615,-1341.1,1.5496
140,18.86,1.6364,0,0.00014427,1441.7,7.766e-05,374.42,2.7871e-05,0.32405,-0.0001342,-1217.4,1.5492
141,18.86,1.4545,0,0.00013083,1307.4,7.1599e-05,354.55,2.4391e-05,-0.15468,-0.00012114,-1093.6,1.5488
142,18.86,1.2727,0,0.0001168,1167.2,6.3585e-05,312.18,2.2026e-05,-0.078916,-0.00010831,-979.4,1.5484
143,18.86,1.0909,0,0.00010336,1032.9,5.4916e-05,258.73,2.0482e-05,0.00010956,-9.6502e-05,-878.97,1.5479
144,18.86,0.90909,0,9.1227e-05,911.64,4.6459e-05,202.47,1.9517e-05,0.038456,-8.608e-05,-793.37,1.5474
145,18.86,0.72727,0,8.0768e-05,807.12,3.8738e-05,148.75,1.8951e-05,0.080447,-7.7202e-05,-722.37,1.5469
146,18.86,0.54545,0,7.2203e-05,721.54,3.208e-05,100.95,1.8663e-05,0.13764,-6.9953e-05,-665.69,1.5464
147,18.86,0.36364,0,6.5643e-05,655.98,2.6671e-05,60.848,1.8589e-05,0.12734,-6.4394e-05,-623.38,1.5458
148,18.86,0.18182,0,6.1061e-05,610.19,2.2507e-05,28.616,1.8747e-05,0.35944,-6.0519e-05,-595.21,1.5453
149,18.675,5.8182,0,7.3463e-05,734.13,2.662e-05,28.752,2.2824e-05,0.22555,-7.2929e-05,-719.22,1.5208
150,18.675,5.6364,0,7.7804e-05,777.51,3.0724e-05,61.161,2.259e-05,0.047032,-7.6583e-05,-745.1,1.5213
151,18.675,5.4545,0,8.3546e-05,834.88,3.5521e-05,96.872,2.264e-05,0.093999,-8.1474e-05,-782.18,1.5219
152,18.675,5.2727,0,9.078e-05,907.17,4.109e-05,136.3,2.2954e-05,0.040321,-8.7689e-05,-831.29,1.5224
153,18.675,5.0909,0,9.9428e-05,993.59,4.7307e-05,178.26,2.3583e-05,0.005865,-9.5188e-05,-892.39,1.5229
154,18.675,4.9091,0,0.00010925,1091.7,5.3875e-05,219.91,2.4604e-05,-0.029923,-0.00010383,-965.04,1.5234
155,18.675,4.7273,0,0.00011982,1197.3,6.0317e-05,256.87,2.6123e-05,-0.048526,-0.00011336,-1048.1,1.5238
156,18.675,4.5455,0,0.00013049,1304,6.5972e-05,283.35,2.8251e-05,-0.074576,-0.00012334,-1139.1,1.5242
157,18.675,4.3636,0,0.00014043,1403.3,7.009e-05,293.28,3.1034e-05,-0.16468,-0.00013312,-1233.6,1.5246
158,18.675,4.1818,0,0.00014892,1488.2,7.2201e-05,283.98,3.4395e-05,-0.077767,-0.00014204,-1325.8,1.5249
159,18.675,4,0,0.00015567,1555.6,7.2482e-05,258.99,3.7992e-05,-0.15047,-0.00014964,-1409.9,1.5252
160,18.675,3.8182,0,0.00016093,1608.2,7.1762e-05,227.97,4.1399e-05,-0.17259,-0.00015584,-1482.1,1.5254
161,18.675,3.6364,0,0.00016509,1649.8,7.0946e-05,200.73,4.4238e-05,0.051314,-0.00016075,-1540.2,1.5256
162,18.675,3.4545,0,0.00016827,1681.5,7.048e-05,181.92,4.6282e-05,0.10472,-0.00016443,-1583.1,1.5258
163,18.675,3.2727,0,0.00017043,1703.1,7.0335e-05,171.28,4.7553e-05,0.10338,-0.00016687,-1611,1.5259
164,18.675,3.0909,0,0.00017152,1714,7.0323e-05,166.7,4.8152e-05,0.11224,-0.00016807,-1624.5,1.5259
165,18.675,2.9091,0,0.00017152,1714,7.0323e-05,166.7,4.8152e-05,0.11224,-0.00016807,-1624.5,1.5259
166,18.675,2.7273,0,0.00017043,1703.1,7.0335e-05,171.28,4.7553e-05,0.10338,-0.00016687,-1611,1.5259
167,18.675,2.5455,0,0.00016827,1681.5,7.048e-05,181.92,4.6282e-05,0.10472,-0.00016443,-1583.1,1.5258
168,18.675,2.3636,0,0.00016509,1649.8,7.0946e-05,200.73,4.4238e-05,0.051315,-0.00016075,-1540.2,1.5256
169,18.675,2.1818,0,0.00016093,1608.2,7.1762e-05,227.96,4.1399e-05,-0.17259,-0.00015584,-1482.1,1.5254
170,18.675,2,0,0.00015567,1555.6,7.2482e-05,258.99,3.7992e-05,-0.15047,-0.00014964,-1409.9,1.5252
171,18.675,1.8182,0,0.00014892,1488.2,7.2201e-05,283.98,3.4395e-05,-0.077767,-0.00014204,-1325.8,1.5249
172,18.675,1.6364,0,0.00014043,1403.3,7.009e-05,293.28,3.1034e-05,-0.16468,-0.00013312,-1233.6,1.5246
173,18.675,1.4545,0,0.00013049,1304,6.5972e-05,283.35,2.8251e-05,-0.074575,-0.00012334,-1139.1,1.5242
174,18.675,1.2727,0,0.00011982,1197.3,6.0317e-05,256.87,2.6123e-05,-0.048525,-0.00011336,-1048.1,1.5238
175,18.675,1.0909,0,0.00010925,1091.7,5.3875e-05,219.9,2.4604e-05,-0.029922,-0.00010383,-965.04,1.5234
176,18.675,0.90909,0,9.9428e-05,993.59,4.7307e-05,178.26,2.3583e-05,0.0058642,-9.5188e-05,-892.39,1.5229
177,18.675,0.72727,0,9.078e-05,907.17,4.109e-05,136.3,2.2955e-05,0.040323,-8.7689e-05,-831.29,1.5224
178,18.675,0.54545,0,8.3546e-05,834.88,3.5521e-05,96.871,2.264e-05,0.094002,-8.1474e-05,-782.18,1.5219
179,18.675,0.36364,0,7.7804e-05,777.51,3.0724e-05,61.161,2.259e-05,0.04703,-7.6583e-05,-745.1,1.5213
180,18.675,0.18182,0,7.3463e-05,734.13,2.662e-05,28.752,2.2824e-05,0.22555,-7.2929e-05,-719.22,1.5208
181,18.491,5.8182,0,8.4923e-05,848.64,3.0379e-05,28.379,2.6615e-05,0.099749,-8.4403e-05,-834.05,1.4964
182,18.491,5.6364,0,8.8992e-05,889.31,3.4343e-05,60.149,2.6337e-05,-0.0061646,-8.7816e-05,-857.71,1.4969
183,18.491,5.4545,0,9.4052e-05,939.87,3.8638e-05,92.352,2.6356e-05,0.075656,-9.2139e-05,-890.25,1.4975
184,18.491,5.2727,0,0.00010018,1001.1,4.3345e-05,125.44,2.6654e-05,0.035238,-9.7455e-05,-932.47,1.498
185,18.491,5.0909,0,0.0001073,1072.3,4.8371e-05,158.61,2.7263e-05,0.016609,-0.00010372,-984.14,1.4985
186,18.491,4.9091,0,0.00011519,1151.1,5.3479e-05,189.74,2.8225e-05,-0.003002,-0.00011079,-1044.5,1.4989
187,18.491,4.7273,0,0.00012348,1234,5.8307e-05,215.74,2.9592e-05,-0.016433,-0.00011839,-1111.9,1.4993
188,18.491,4.5455,0,0.00013168,1315.9,6.2412e-05,233.01,3.1398e-05,-0.016267,-0.00012616,-1183.9,1.4997
189,18.491,4.3636,0,0.00013926,1391.7,6.5382e-05,238.56,3.3631e-05,-0.00097784,-0.00013366,-1257,1.5001
190,18.491,4.1818,0,0.00014581,1457.1,6.702e-05,231.68,3.6183e-05,-0.013865,-0.00014048,-1327.4,1.5004
191,18.491,4,0,0.00015119,1510.9,6.7485e-05,215.09,3.8859e-05,0.0076247,-0.00014638,-1391.8,1.5006
192,18.491,3.8182,0,0.00015551,1554,6.7242e-05,194.19,4.1401e-05,0.031485,-0.00015129,-1447.8,1.5009
193,18.491,3.6364,0,0.00015895,1588.4,6.6801e-05,174.56,4.3572e-05,0.023417,-0.00015526,-1493.9,1.501
194,18.491,3.4545,0,0.00016162,1615,6.6477e-05,159.67,4.5232e-05,0.048173,-0.00015831,-1529.3,1.5012
195,18.491,3.2727,0,0.00016346,1633.4,6.6329e-05,150.36,4.6328e-05,0.079179,-0.00016038,-1553,1.5012
196,18.491,3.0909,0,0.0001644,1642.9,6.629e-05,146.04,4.6866e-05,0.090859,-0.00016143,-1565,1.5013
197,18.491,2.9091,0,0.0001644,1642.9,6.629e-05,146.03,4.6866e-05,0.090859,-0.00016143,-1565,1.5013
198,18.491,2.7273,0,0.00016346,1633.4,6.6329e-05,150.36,4.6328e-05,0.079178,-0.00016038,-1553,1.5012
199,18.491,2.5455,0,0.00016162,1615,6.6477e-05,159.67,4.5232e-05,0.048173,-0.00015831,-1529.3,1.5012
200,18.491,2.3636,0,0.00015895,1588.4,6.6801e-05,174.56,4.3572e-05,0.023419,-0.00015526,-1493.9,1.501
201,18.491,2.1818,0,0.00015551,1554,6.7242e-05,194.19,4.1401e-05,0.031484,-0.00015129,-1447.8,1.5009
202,18.491,2,0,0.00015119,1510.9,6.7485e-05,215.09,3.8859e-05,0.0076253,-0.00014638,-1391.8,1.5006
203,18.491,1.8182,0,0.00014581,1457.1,6.702e-05,231.68,3.6183e-05,-0.013864,-0.00014048,-1327.4,1.5004
204,18.491,1.6364,0,0.00013926,1391.7,6.5382e-05,238.56,3.3631e-05,-0.00097795,-0.00013366,-1257,1.5001
205,18.491,1.4545,0,0.00013168,1315.9,6.2412e-05,233.01,3.1398e-05,-0.016268,-0.00012616,-1183.9,1.4997
206,18.491,1.2727,0,0.00012348,1234,5.8307e-05,215.74,2.9592e-05,-0.016432,-0.00011839,-1111.9,1.4993
207,18.491,1.0909,0,0.00011519,1151.1,5.3479e-05,189.74,2.8225e-05,-0.0030007,-0.00011079,-1044.5,1.4989
208,18.491,0.90909,0,0.0001073,1072.3,4.8371e-05,158.61,2.7263e-05,0.016609,-0.00010372,-984.14,1.4985
209,18.491,0.72727,0,0.00010018,1001.1,4.3344e-05,125.44,2.6654e-05,0.03524,-9.7455e-05,-932.47,1.498
210,18.491,0.54545,0,9.4052e-05,939.87,3.8638e-05,92.352,2.6356e-05,0.075655,-9.2139e-05,-890.25,1.4975
211,18.491,0.36364,0,8.8992e-05,889.31,3.4343e-05,60.149,2.6337e-05,-0.0061638,-8.7816e-05,-857.71,1.4969
212,18.491,0.18182,0,8.4923e-05,848.64,3.0379e-05,28.379,2.6615e-05,0.099749,-8.4403e-05,-834.05,1.4964
213,18.306,5.8182,0,9.5423e-05,953.57,3.3791e-05,27.657,3.0109e-05,-0.0039335,-9.4922e-05,-939.44,1.472
214,18.306,5.6364,0,9.9163e-05,990.94,3.7529e-05,57.978,2.9806e-05,-0.049587,-9.805e-05,-960.7,1.4725
215,18.306,5.4545,0,0.0001036,1035.3,4.1371e-05,87.064,2.9791e-05,0.055411,-0.00010185,-989.03,1.4731
216,18.306,5.2727,0,0.00010879,1087.2,4.5378e-05,115.23,3.0045e-05,0.028277,-0.00010637,-1025,1.4736
217,18.306,5.0909,0,0.00011465,1145.7,4.9475e-05,141.93,3.0587e-05,0.020134,-0.00011157,-1068.1,1.4741
218,18.306,4.9091,0,0.00012098,1209,5.3488e-05,165.7,3.1435e-05,0.0093503,-0.00011731,-1117.6,1.4745
219,18.306,4.7273,0,0.00012751,1274.2,5.7163e-05,184.53,3.2605e-05,0.0031216,-0.00012336,-1171.9,1.4749
220,18.306,4.5455,0,0.00013387,1337.8,6.0222e-05,196.31,3.4094e-05,-0.0024502,-0.00012944,-1228.8,1.4753
221,18.306,4.3636,0,0.00013973,1396.3,6.2437e-05,199.63,3.5866e-05,-0.010027,-0.00013526,-1285.8,1.4756
222,18.306,4.1818,0,0.00014484,1447.4,6.3728e-05,194.54,3.7834e-05,-0.014479,-0.00014054,-1340.3,1.4759
223,18.306,4,0,0.00014911,1490.1,6.4215e-05,182.95,3.9863e-05,-0.022639,-0.00014515,-1390.1,1.4762
224,18.306,3.8182,0,0.00015259,1524.8,6.4175e-05,168.16,4.1793e-05,-0.018692,-0.00014903,-1433.8,1.4764
225,18.306,3.6364,0,0.00015537,1552.6,6.3921e-05,153.65,4.3473e-05,0.0068564,-0.00015218,-1470.1,1.4765
226,18.306,3.4545,0,0.0001575,1573.9,6.3671e-05,141.89,4.4791e-05,0.034222,-0.00015461,-1498.2,1.4767
227,18.306,3.2727,0,0.00015897,1588.6,6.3515e-05,134,4.5688e-05,0.055635,-0.00015627,-1517.3,1.4767
228,18.306,3.0909,0,0.00015973,1596.2,6.3448e-05,130.13,4.6138e-05,0.068299,-0.00015711,-1527.1,1.4768
229,18.306,2.9091,0,0.00015973,1596.2,6.3448e-05,130.13,4.6138e-05,0.068299,-0.00015711,-1527.1,1.4768
230,18.306,2.7273,0,0.00015897,1588.6,6.3515e-05,134,4.5688e-05,0.055636,-0.00015627,-1517.3,1.4767
231,18.306,2.5455,0,0.0001575,1573.9,6.3671e-05,141.89,4.4791e-05,0.034221,-0.00015461,-1498.2,1.4767
232,18.306,2.3636,0,0.00015537,1552.6,6.3921e-05,153.65,4.3473e-05,0.0068568,-0.00015218,-1470.1,1.4765
233,18.306,2.1818,0,0.00015259,1524.8,6.4175e-05,168.16,4.1793e-05,-0.018692,-0.00014903,-1433.8,1.4764
234,18.306,2,0,0.00014911,1490.1,6.4215e-05,182.95,3.9863e-05,-0.022639,-0.00014515,-1390.1,1.4762
235,18.306,1.8182,0,0.00014484,1447.4,6.3728e-05,194.54,3.7834e-05,-0.014479,-0.00014054,-1340.3,1.4759
236,18.306,1.6364,0,0.00013973,1396.3,6.2437e-05,199.63,3.5866e-05,-0.010025,-0.00013526,-1285.8,1.4756
237,18.306,1.4545,0,0.00013387,1337.8,6.0222e-05,196.31,3.4094e-05,-0.0024505,-0.00012944,-1228.8,1.4753
238,18.306,1.2727,0,0.00012751,1274.2,5.7163e-05,184.53,3.2605e-05,0.0031221,-0.00012336,-1171.9,1.4749
239,18.306,1.0909,0,0.00012098,1209,5.3488e-05,165.7,3.1435e-05,0.0093519,-0.00011731,-1117.6,1.4745
240,18.306,0.90909,0,0.00011465,1145.7,4.9475e-05,141.93,3.0587e-05,0.020136,-0.00011157,-1068.1,1.4741
241,18.306,0.72727,0,0.00010879,1087.2,4.5378e-05,115.23,3.0045e-05,0.028276,-0.00010637,-1025,1.4736
242,18.306,0.54545,0,0.0001036,1035.3,4.1371e-05,87.064,2.9791e-05,0.055412,-0.00010185,-989.03,1.4731
243,18.306,0.36364,0,9.9163e-05,990.94,3.7529e-05,57.978,2.9806e-05,-0.049588,-9.805e-05,-960.7,1.4725
244,18.306,0.18182,0,9.5423e-05,953.57,3.3791e-05,27.657,3.0109e-05,-0.0039328,-9.4922e-05,-939.44,1.472
245,18.121,5.8182,0,0.00010501,1049.4,3.6883e-05,26.744,3.3315e-05,-0.069268,-0.00010453,-1035.8,1.4477
246,18.121,5.6364,0,0.00010838,1083,4.0331e-05,55.017,3.2999e-05,-0.075612,-0.00010734,-1054.5,1.4482
247,18.121,5.4545,0,0.00011225,1121.7,4.3754e-05,81.215,3.2951e-05,0.041769,-0.00011065,-1078.9,1.4488
248,18.121,5.2727,0,0.00011663,1165.5,4.7182e-05,105.47,3.3149e-05,0.025287,-0.00011448,-1109.2,1.4493
249,18.121,5.0909,0,0.00012145,1213.7,5.0556e-05,127.39,3.3605e-05,0.024643,-0.00011878,-1144.9,1.4497
250,18.121,4.9091,0,0.00012654,1264.6,5.3752e-05,146.04,3.4318e-05,0.018829,-0.00012343,-1185.2,1.4502
251,18.121,4.7273,0,0.0001317,1316.1,5.6602e-05,160.16,3.5287e-05,0.015093,-0.00012824,-1228.7,1.4506
252,18.121,4.5455,0,0.00013668,1365.8,5.8934e-05,168.62,3.6494e-05,0.011263,-0.00013303,-1273.7,1.4509
253,18.121,4.3636,0,0.00014125,1411.5,6.0626e-05,170.78,3.7897e-05,0.0066734,-0.00013757,-1318.4,1.4513
254,18.121,4.1818,0,0.00014526,1451.6,6.1648e-05,166.97,3.9427e-05,0.00046374,-0.0001417,-1360.9,1.4515
255,18.121,4,0,0.00014864,1485.4,6.2091e-05,158.57,4.0987e-05,-0.0025169,-0.00014531,-1399.7,1.4518
256,18.121,3.8182,0,0.00015141,1513.1,6.2133e-05,147.75,4.2469e-05,-1.4395e-05,-0.00014836,-1433.8,1.452
257,18.121,3.6364,0,0.00015362,1535.2,6.1973e-05,136.79,4.3769e-05,0.0089111,-0.00015084,-1462.2,1.4522
258,18.121,3.4545,0,0.0001553,1551.9,6.1773e-05,127.52,4.4805e-05,0.024658,-0.00015274,-1484.2,1.4523
259,18.121,3.2727,0,0.00015644,1563.4,6.1619e-05,121.01,4.552e-05,0.040798,-0.00015403,-1499.3,1.4524
260,18.121,3.0909,0,0.00015703,1569.2,6.1541e-05,117.69,4.5884e-05,0.050494,-0.00015469,-1507,1.4524
261,18.121,2.9091,0,0.00015703,1569.2,6.1541e-05,117.69,4.5884e-05,0.050494,-0.00015469,-1507,1.4524
262,18.121,2.7273,0,0.00015644,1563.4,6.1619e-05,121.01,4.552e-05,0.040798,-0.00015403,-1499.3,1.4524
263,18.121,2.5455,0,0.0001553,1551.9,6.1773e-05,127.52,4.4805e-05,0.024659,-0.00015274,-1484.2,1.4523
264,18.121,2.3636,0,0.00015362,1535.2,6.1973e-05,136.79,4.3769e-05,0.0089113,-0.00015084,-1462.2,1.4522
265,18.121,2.1818,0,0.00015141,1513.1,6.2133e-05,147.75,4.2469e-05,-1.4222e-05,-0.00014836,-1433.8,1.452
266,18.121,2,0,0.00014864,1485.4,6.2091e-05,158.57,4.0987e-05,-0.0025151,-0.00014531,-1399.7,1.4518
267,18.121,1.8182,0,0.00014526,1451.6,6.1648e-05,166.97,3.9427e-05,0.00046362,-0.0001417,-1360.9,1.4515
268,18.121,1.6364,0,0.00014125,1411.5,6.0626e-05,170.78,3.7897e-05,0.006674,-0.00013757,-1318.4,1.4513
269,18.121,1.4545,0,0.00013668,1365.8,5.8934e-05,168.62,3.6494e-05,0.011262,-0.00013303,-1273.7,1.4509
270,18.121,1.2727,0,0.0001317,1316.1,5.6602e-05,160.16,3.5287e-05,0.015095,-0.00012824,-1228.7,1.4506
271,18.121,1.0909,0,0.00012654,1264.6,5.3752e-05,146.04,3.4318e-05,0.018829,-0.00012343,-1185.2,1.4502
272,18.121,0.90909,0,0.00012145,1213.7,5.0556e-05,127.39,3.3605e-05,0.024642,-0.00011878,-1144.9,1.4497
273,18.121,0.72727,0,0.00011663,1165.5,4.7182e-05,105.46,3.3149e-05,0.025289,-0.00011448,-1109.2,1.4493
274,18.121,0.54545,0,0.00011225,1121.7,4.3754e-05,81.215,3.2951e-05,0.041771,-0.00011065,-1078.9,1.4488
275,18.121,0.36364,0,0.00010838,1083,4.0331e-05,55.017,3.2999e-05,-0.075613,-0.00010734,-1054.5,1.4482
276,18.121,0.18182,0,0.00010501,1049.4,3.6883e-05,26.744,3.3315e-05,-0.069268,-0.00010453,-1035.8,1.4477
277,17.936,5.8182,0,0.00011377,1136.9,3.9694e-05,25.757,3.6252e-05,-0.10322,-0.00011331,-1123.9,1.4234
278,17.936,5.6364,0,0.00011675,1166.7,4.2817e-05,51.623,3.5935e-05,-0.089657,-0.00011579,-1140.1,1.424
279,17.936,5.4545,0,0.0001201,1200.2,4.585e-05,75.12,3.5857e-05,0.031295,-0.00011865,-1160.8,1.4245
280,17.936,5.2727,0,0.00012379,1237.1,4.8795e-05,96.175,3.5997e-05,0.022548,-0.00012188,-1186.2,1.425
281,17.936,5.0909,0,0.00012776,1276.7,5.1602e-05,114.53,3.6362e-05,0.026546,-0.00012542,-1215.6,1.4255
282,17.936,4.9091,0,0.00013187,1317.8,5.4185e-05,129.58,3.6943e-05,0.023786,-0.00012919,-1248.2,1.4259
283,17.936,4.7273,0,0.00013597,1358.8,5.6436e-05,140.59,3.7728e-05,0.021266,-0.00013303,-1283,1.4263
284,17.936,4.5455,0,0.00013989,1397.9,5.8253e-05,146.99,3.8693e-05,0.017432,-0.00013681,-1318.6,1.4267
285,17.936,4.3636,0,0.00014348,1433.8,5.957e-05,148.56,3.98e-05,0.01236,-0.00014037,-1353.7,1.427
286,17.936,4.1818,0,0.00014664,1465.3,6.0385e-05,145.72,4.0993e-05,0.0069343,-0.00014361,-1387,1.4273
287,17.936,4,0,0.00014931,1492.1,6.0766e-05,139.5,4.22e-05,0.0030193,-0.00014644,-1417.4,1.4275
288,17.936,3.8182,0,0.0001515,1514,6.0834e-05,131.4,4.3346e-05,0.0036833,-0.00014884,-1444,1.4277
289,17.936,3.6364,0,0.00015324,1531.4,6.0727e-05,123.02,4.4355e-05,0.010325,-0.00015078,-1466.1,1.4279
290,17.936,3.4545,0,0.00015455,1544.5,6.0563e-05,115.72,4.5164e-05,0.020772,-0.00015226,-1483.3,1.428
291,17.936,3.2727,0,0.00015543,1553.3,6.0423e-05,110.45,4.5728e-05,0.031303,-0.00015326,-1495.1,1.4281
292,17.936,3.0909,0,0.00015588,1557.7,6.0346e-05,107.7,4.6017e-05,0.037888,-0.00015377,-1501.1,1.4281
293,17.936,2.9091,0,0.00015588,1557.7,6.0346e-05,107.7,4.6017e-05,0.037889,-0.00015377,-1501.1,1.4281
294,17.936,2.7273,0,0.00015543,1553.3,6.0423e-05,110.45,4.5728e-05,0.031303,-0.00015326,-1495.1,1.4281
295,17.936,2.5455,0,0.00015455,1544.5,6.0563e-05,115.72,4.5164e-05,0.020772,-0.00015226,-1483.3,1.428
296,17.936,2.3636,0,0.00015324,1531.4,6.0727e-05,123.02,4.4355e-05,0.010325,-0.00015078,-1466.1,1.4279
297,17.936,2.1818,0,0.0001515,1514,6.0834e-05,131.4,4.3346e-05,0.0036838,-0.00014884,-1444,1.4277
298,17.936,2,0,0.00014931,1492.1,6.0766e-05,139.5,4.22e-05,0.0030198,-0.00014644,-1417.4,1.4275
299,17.936,1.8182,0,0.00014664,1465.3,6.0385e-05,145.72,4.0993e-05,0.0069354,-0.00014361,-1387,1.4273
300,17.936,1.6364,0,0.00014348,1433.8,5.957e-05,148.56,3.98e-05,0.012359,-0.00014037,-1353.7,1.427
301,17.936,1.4545,0,0.00013989,1397.9,5.8253e-05,146.99,3.8693e-05,0.017431,-0.00013681,-1318.6,1.4267
302,17.936,1.2727,0,0.00013597,1358.8,5.6436e-05,140.59,3.7728e-05,0.021265,-0.00013303,-1283,1.4263
303,17.936,1.0909,0,0.00013187,1317.8,5.4185e-05,129.58,3.6943e-05,0.023786,-0.00012919,-1248.2,1.4259
304,17.936,0.90909,0,0.00012776,1276.7,5.1602e-05,114.53,3.6362e-05,0.026547,-0.00012542,-1215.6,1.4255
305,17.936,0.72727,0,0.00012379,1237.1,4.8795e-05,96.175,3.5997e-05,0.022548,-0.00012188,-1186.2,1.425
306,17.936,0.54545,0,0.0001201,1200.2,4.585e-05,75.12,3.5857e-05,0.031297,-0.00011865,-1160.8,1.4245
307,17.936,0.36364,0,0.00011675,1166.7,4.2817e-05,51.623,3.5935e-05,-0.089657,-0.00011579,-1140.1,1.424
308,17.936,0.18182,0,0.00011377,1136.9,3.9694e-05,25.757,3.6252e-05,-0.10323,-0.00011331,-1123.9,1.4234
309,17.751,5.8182,0,0.0001218,1217.1,4.2263e-05,24.776,3.895e-05,-0.11429,-0.00012136,-1204.6,1.3993
310,17.751,5.6364,0,0.0001244,1243.1,4.505e-05,48.08,3.8638e-05,-0.095049,-0.00012351,-1218.4,1.3999
311,17.751,5.4545,0,0.00012728,1271.9,4.7724e-05,69.062,3.8536e-05,0.023356,-0.00012596,-1235.9,1.4004
312,17.751,5.2727,0,0.00013038,1302.9,5.0261e-05,87.459,3.8624e-05,0.019995,-0.00012868,-1257,1.4009
313,17.751,5.0909,0,0.00013365,1335.6,5.2619e-05,103.08,3.8903e-05,0.026773,-0.0001316,-1281.1,1.4013
314,17.751,4.9091,0,0.00013698,1368.9,5.4738e-05,115.56,3.9362e-05,0.025975,-0.00013465,-1307.4,1.4018
315,17.751,4.7273,0,0.00014026,1401.7,5.6549e-05,124.48,3.9986e-05,0.024473,-0.00013773,-1335.3,1.4022
316,17.751,4.5455,0,0.00014337,1432.7,5.7993e-05,129.58,4.075e-05,0.021327,-0.00014072,-1363.5,1.4025
317,17.751,4.3636,0,0.0001462,1461,5.9038e-05,130.89,4.162e-05,0.017169,-0.00014354,-1391.2,1.4028
318,17.751,4.1818,0,0.00014869,1485.9,5.9693e-05,128.82,4.255e-05,0.012739,-0.00014608,-1417.3,1.4031
319,17.751,4,0,0.0001508,1507,6.0014e-05,124.18,4.3488e-05,0.0096416,-0.00014831,-1441.1,1.4033
320,17.751,3.8182,0,0.00015253,1524.3,6.0086e-05,118.05,4.4377e-05,0.0093884,-0.00015018,-1461.8,1.4035
321,17.751,3.6364,0,0.0001539,1538,6.0012e-05,111.6,4.516e-05,0.012677,-0.0001517,-1479.1,1.4037
322,17.751,3.4545,0,0.00015492,1548.1,5.988e-05,105.88,4.5791e-05,0.018756,-0.00015285,-1492.5,1.4038
323,17.751,3.2727,0,0.0001556,1554.9,5.9759e-05,101.66,4.6232e-05,0.025265,-0.00015362,-1501.6,1.4039
324,17.751,3.0909,0,0.00015594,1558.3,5.9689e-05,99.44,4.6459e-05,0.029423,-0.00015401,-1506.2,1.4039
325,17.751,2.9091,0,0.00015594,1558.3,5.9689e-05,99.44,4.6459e-05,0.029422,-0.00015401,-1506.2,1.4039
326,17.751,2.7273,0,0.0001556,1554.9,5.9759e-05,101.66,4.6232e-05,0.025265,-0.00015362,-1501.6,1.4039
327,17.751,2.5455,0,0.00015492,1548.1,5.988e-05,105.88,4.5791e-05,0.018757,-0.00015285,-1492.5,1.4038
328,17.751,2.3636,0,0.0001539,1538,6.0012e-05,111.6,4.516e-05,0.012677,-0.0001517,-1479.1,1.4037
329,17.751,2.1818,0,0.00015253,1524.3,6.0086e-05,118.05,4.4377e-05,0.009388,-0.00015018,-1461.8,1.4035
330,17.751,2,0,0.0001508,1507,6.0014e-05,124.18,4.3488e-05,0.0096405,-0.00014831,-1441.1,1.4033
331,17.751,1.8182,0,0.00014869,1485.9,5.9693e-05,128.82,4.255e-05,0.01274,-0.00014608,-1417.3,1.4031
332,17.751,1.6364,0,0.0001462,1461,5.9038e-05,130.89,4.162e-05,0.017169,-0.00014354,-1391.2,1.4028
333,17.751,1.4545,0,0.00014337,1432.7,5.7993e-05,129.58,4.075e-05,0.021327,-0.00014072,-1363.5,1.4025
334,17.751,1.2727,0,0.00014026,1401.7,5.6549e-05,124.48,3.9986e-05,0.024473,-0.00013773,-1335.3,1.4022
335,17.751,1.0909,0,0.00013698,1368.9,5.4738e-05,115.56,3.9362e-05,0.025976,-0.00013465,-1307.4,1.4018
336,17.751,0.90909,0,0.00013365,1335.6,5.2619e-05,103.08,3.8903e-05,0.026775,-0.0001316,-1281.1,1.4013
337,17.751,0.72727,0,0.00013038,1302.9,5.0261e-05,87.458,3.8624e-05,0.019998,-0.00012868,-1257,1.4009
338,17.751,0.54545,0,0.00012728,1271.9,4.7724e-05,69.062,3.8536e-05,0.023357,-0.00012596,-1235.9,1.4004
339,17.751,0.36364,0,0.0001244,1243.1,4.505e-05,48.08,3.8638e-05,-0.095048,-0.00012351,-1218.4,1.3999
340,17.751,0.18182,0,0.0001218,1217.1,4.2263e-05,24.776,3.895e-05,-0.11429,-0.00012136,-1204.6,1.3993
341,17.566,5.8182,0,0.0001292,1291.1,4.4629e-05,23.846,4.1441e-05,-0.11109,-0.00012878,-1279.1,1.3752
342,17.566,5.6364,0,0.00013144,1313.5,4.7085e-05,44.585,4.1139e-05,-0.094946,-0.00013062,-1290.6,1.3758
343,17.566,5.4545,0,0.0001339,1338.1,4.9434e-05,63.248,4.1019e-05,0.017064,-0.00013271,-1305.3,1.3763
344,17.566,5.2727,0,0.00013651,1364.2,5.1625e-05,79.395,4.1061e-05,0.01733,-0.00013499,-1322.7,1.3768
345,17.566,5.0909,0,0.00013921,1391.2,5.3623e-05,92.879,4.1265e-05,0.025676,-0.0001374,-1342.4,1.3773
346,17.566,4.9091,0,0.00014192,1418.2,5.5385e-05,103.46,4.1618e-05,0.026238,-0.00013988,-1363.7,1.3777
347,17.566,4.7273,0,0.00014456,1444.6,5.6867e-05,110.94,4.2106e-05,0.025553,-0.00014235,-1385.9,1.3781
348,17.566,4.5455,0,0.00014703,1469.3,5.8036e-05,115.22,4.2704e-05,0.02311,-0.00014473,-1408.3,1.3784
349,17.566,4.3636,0,0.00014928,1491.8,5.888e-05,116.46,4.3383e-05,0.019725,-0.00014696,-1430.1,1.3788
350,17.566,4.1818,0,0.00015125,1511.5,5.9415e-05,115.03,4.4108e-05,0.016131,-0.00014897,-1450.7,1.379
351,17.566,4,0,0.00015292,1528.1,5.9685e-05,111.58,4.4837e-05,0.01341,-0.00015072,-1469.3,1.3793
352,17.566,3.8182,0,0.00015428,1541.8,5.9757e-05,106.93,4.5526e-05,0.012616,-0.00015219,-1485.5,1.3795
353,17.566,3.6364,0,0.00015536,1552.5,5.9705e-05,101.98,4.6135e-05,0.014199,-0.00015337,-1499,1.3796
354,17.566,3.4545,0,0.00015615,1560.4,5.9601e-05,97.512,4.6625e-05,0.017586,-0.00015426,-1509.4,1.3797
355,17.566,3.2727,0,0.00015667,1565.7,5.9501e-05,94.18,4.6969e-05,0.021355,-0.00015486,-1516.4,1.3798
356,17.566,3.0909,0,0.00015694,1568.3,5.9442e-05,92.409,4.7146e-05,0.023813,-0.00015516,-1520,1.3799
357,17.566,2.9091,0,0.00015694,1568.3,5.9442e-05,92.409,4.7146e-05,0.023813,-0.00015516,-1520,1.3799
358,17.566,2.7273,0,0.00015667,1565.7,5.9501e-05,94.18,4.6969e-05,0.021355,-0.00015486,-1516.4,1.3798
359,17.566,2.5455,0,0.00015615,1560.4,5.9601e-05,97.512,4.6625e-05,0.017586,-0.00015426,-1509.4,1.3797
360,17.566,2.3636,0,0.00015536,1552.5,5.9705e-05,101.98,4.6135e-05,0.014198,-0.00015337,-1499,1.3796
361,17.566,2.1818,0,0.00015428,1541.8,5.9757e-05,106.93,4.5526e-05,0.012617,-0.00015219,-1485.5,1.3795
362,17.566,2,0,0.00015292,1528.1,5.9685e-05,111.58,4.4837e-05,0.013412,-0.00015072,-1469.3,1.3793
363,17.566,1.8182,0,0.00015125,1511.5,5.9415e-05,115.03,4.4108e-05,0.01613,-0.00014897,-1450.7,1.379
364,17.566,1.6364,0,0.00014928,1491.8,5.888e-05,116.46,4.3383e-05,0.019727,-0.00014696,-1430.1,1.3788
365,17.566,1.4545,0,0.00014703,1469.3,5.8036e-05,115.22,4.2704e-05,0.02311,-0.00014473,-1408.3,1.3784
366,17.566,1.2727,0,0.00014456,1444.6,5.6867e-05,110.93,4.2106e-05,0.025554,-0.00014235,-1385.9,1.3781
367,17.566,1.0909,0,0.00014192,1418.2,5.5384e-05,103.46,4.1618e-05,0.026238,-0.00013988,-1363.7,1.3777
368,17.566,0.90909,0,0.00013921,1391.2,5.3623e-05,92.879,4.1265e-05,0.025677,-0.0001374,-1342.4,1.3773
369,17.566,0.72727,0,0.00013651,1364.2,5.1625e-05,79.395,4.1061e-05,0.017332,-0.00013499,-1322.7,1.3768
370,17.566,0.54545,0,0.0001339,1338.1,4.9434e-05,63.248,4.1019e-05,0.017065,-0.00013271,-1305.3,1.3763
371,17.566,0.36364,0,0.00013144,1313.5,4.7085e-05,44.585,4.1139e-05,-0.094947,-0.00013062,-1290.6,1.3758
372,17.566,0.18182,0,0.0001292,1291.1,4.4629e-05,23.846,4.1441e-05,-0.11109,-0.00012878,-1279.1,1.3752
373,17.381,5.8182,0,0.00013608,1359.8,4.6827e-05,22.991,4.3754e-05,-0.10018,-0.00013567,-1348.3,1.3512
374,17.381,5.6364,0,0.00013798,1378.8,4.8971e-05,41.266,4.3466e-05,-0.091497,-0.00013723,-1357.8,1.3518
375,17.381,5.4545,0,0.00014008,1399.8,5.1026e-05,57.81,4.3334e-05,0.012013,-0.00013901,-1370,1.3523
376,17.381,5.2727,0,0.00014227,1421.7,5.2922e-05,72.027,4.3338e-05,0.014641,-0.00014091,-1384.4,1.3528
377,17.381,5.0909,0,0.00014451,1444.1,5.4627e-05,83.788,4.3479e-05,0.023778,-0.0001429,-1400.3,1.3533
378,17.381,4.9091,0,0.00014672,1466.2,5.6109e-05,92.938,4.3743e-05,0.025315,-0.00014492,-1417.5,1.3537
379,17.381,4.7273,0,0.00014885,1487.5,5.7341e-05,99.386,4.4117e-05,0.025345,-0.00014691,-1435.3,1.3541
380,17.381,4.5455,0,0.00015083,1507.3,5.8306e-05,103.15,4.458e-05,0.02361,-0.00014881,-1453.1,1.3545
381,17.381,4.3636,0,0.00015263,1525.2,5.9001e-05,104.41,4.5108e-05,0.020997,-0.00015058,-1470.3,1.3548
382,17.381,4.1818,0,0.00015419,1540.8,5.9445e-05,103.52,4.567e-05,0.018126,-0.00015217,-1486.4,1.3551
383,17.381,4,0,0.00015551,1554,5.9676e-05,101.01,4.6235e-05,0.015804,-0.00015355,-1501.1,1.3553
384,17.381,3.8182,0,0.00015659,1564.8,5.9746e-05,97.518,4.677e-05,0.014702,-0.0001547,-1513.8,1.3555
385,17.381,3.6364,0,0.00015743,1573.2,5.9714e-05,93.728,4.7241e-05,0.015117,-0.00015563,-1524.3,1.3557
386,17.381,3.4545,0,0.00015805,1579.4,5.9635e-05,90.272,4.7622e-05,0.016748,-0.00015632,-1532.3,1.3558
387,17.381,3.2727,0,0.00015846,1583.5,5.9555e-05,87.668,4.789e-05,0.018748,-0.00015678,-1537.8,1.3558
388,17.381,3.0909,0,0.00015866,1585.5,5.9507e-05,86.275,4.8027e-05,0.020093,-0.00015701,-1540.6,1.3559
389,17.381,2.9091,0,0.00015866,1585.5,5.9507e-05,86.275,4.8027e-05,0.020095,-0.00015701,-1540.6,1.3559
390,17.381,2.7273,0,0.00015846,1583.5,5.9555e-05,87.668,4.789e-05,0.018747,-0.00015678,-1537.8,1.3558
391,17.381,2.5455,0,0.00015805,1579.4,5.9635e-05,90.272,4.7622e-05,0.016748,-0.00015632,-1532.3,1.3558
392,17.381,2.3636,0,0.00015743,1573.2,5.9714e-05,93.728,4.7241e-05,0.015118,-0.00015563,-1524.3,1.3557
393,17.381,2.1818,0,0.00015659,1564.8,5.9746e-05,97.518,4.677e-05,0.014703,-0.0001547,-1513.8,1.3555
394,17.381,2,0,0.00015551,1554,5.9676e-05,101.01,4.6235e-05,0.015804,-0.00015355,-1501.1,1.3553
395,17.381,1.8182,0,0.00015419,1540.8,5.9445e-05,103.52,4.567e-05,0.018126,-0.00015217,-1486.4,1.3551
396,17.381,1.6364,0,0.00015263,1525.2,5.9001e-05,104.41,4.5108e-05,0.020998,-0.00015058,-1470.3,1.3548
397,17.381,1.4545,0,0.00015083,1507.3,5.8306e-05,103.15,4.458e-05,0.023611,-0.00014881,-1453.1,1.3545
398,17.381,1.2727,0,0.00014885,1487.5,5.7341e-05,99.386,4.4117e-05,0.025345,-0.00014691,-1435.3,1.3541
399,17.381,1.0909,0,0.00014672,1466.2,5.6109e-05,92.938,4.3743e-05,0.025316,-0.00014492,-1417.5,1.3537
400,17.381,0.90909,0,0.00014451,1444.1,5.4627e-05,83.788,4.3479e-05,0.023777,-0.0001429,-1400.3,1.3533
401,17.381,0.72727,0,0.00014227,1421.7,5.2922e-05,72.027,4.3338e-05,0.014644,-0.00014091,-1384.4,1.3528
402,17.381,0.54545,0,0.00014008,1399.8,5.1026e-05,57.81,4.3334e-05,0.012017,-0.00013901,-1370,1.3523
403,17.381,0.36364,0,0.00013798,1378.8,4.8971e-05,41.266,4.3466e-05,-0.091499,-0.00013723,-1357.8,1.3518
404,17.381,0.18182,0,0.00013608,1359.8,4.6827e-05,22.991,4.3754e-05,-0.10018,-0.00013567,-1348.3,1.3512
405,17.196,5.8182,0,0.00014252,1424.2,4.8888e-05,22.219,4.5919e-05,-0.08607,-0.00014213,-1413,1.3273
406,17.196,5.6364,0,0.00014412,1440.2,5.0742e-05,38.193,4.5648e-05,-0.086215,-0.00014343,-1420.8,1.3279
407,17.196,5.4545,0,0.0001459,1458,5.2537e-05,52.819,4.5508e-05,0.0079123,-0.00014493,-1430.9,1.3285
408,17.196,5.2727,0,0.00014774,1476.4,5.4181e-05,65.364,4.5483e-05,0.012009,-0.00014652,-1442.6,1.329
409,17.196,5.0909,0,0.0001496,1494.9,5.5644e-05,75.704,4.5571e-05,0.02143,-0.00014817,-1455.6,1.3294
410,17.196,4.9091,0,0.00015141,1513.1,5.6904e-05,83.735,4.5763e-05,0.023668,-0.00014981,-1469.5,1.3299
411,17.196,4.7273,0,0.00015314,1530.4,5.7943e-05,89.426,4.6044e-05,0.024287,-0.00015142,-1483.7,1.3302
412,17.196,4.5455,0,0.00015474,1546.3,5.8752e-05,92.845,4.6398e-05,0.023189,-0.00015295,-1497.8,1.3306
413,17.196,4.3636,0,0.00015617,1560.7,5.9336e-05,94.182,4.6804e-05,0.021232,-0.00015436,-1511.4,1.3309
414,17.196,4.1818,0,0.00015742,1573.1,5.9713e-05,93.752,4.7237e-05,0.018952,-0.00015562,-1524.1,1.3312
415,17.196,4,0,0.00015847,1583.6,5.9915e-05,91.991,4.7674e-05,0.016955,-0.00015671,-1535.6,1.3314
416,17.196,3.8182,0,0.00015932,1592.1,5.9985e-05,89.411,4.8087e-05,0.015719,-0.00015761,-1545.5,1.3316
417,17.196,3.6364,0,0.00015999,1598.8,5.9969e-05,86.547,4.8452e-05,0.01546,-0.00015834,-1553.7,1.3318
418,17.196,3.4545,0,0.00016047,1603.6,5.9912e-05,83.901,4.8747e-05,0.016025,-0.00015888,-1560,1.3319
419,17.196,3.2727,0,0.00016079,1606.8,5.9851e-05,81.89,4.8955e-05,0.016928,-0.00015924,-1564.3,1.332
420,17.196,3.0909,0,0.00016095,1608.4,5.9814e-05,80.809,4.9061e-05,0.01758,-0.00015942,-1566.4,1.332
421,17.196,2.9091,0,0.00016095,1608.4,5.9814e-05,80.809,4.9061e-05,0.017581,-0.00015942,-1566.4,1.332
422,17.196,2.7273,0,0.00016079,1606.8,5.9851e-05,81.89,4.8955e-05,0.016928,-0.00015924,-1564.3,1.332
423,17.196,2.5455,0,0.00016047,1603.6,5.9912e-05,83.901,4.8747e-05,0.016024,-0.00015888,-1560,1.3319
424,17.196,2.3636,0,0.00015999,1598.8,5.9969e-05,86.546,4.8452e-05,0.015461,-0.00015834,-1553.7,1.3318
425,17.196,2.1818,0,0.00015932,1592.1,5.9985e-05,89.411,4.8087e-05,0.01572,-0.00015761,-1545.5,1.3316
426,17.196,2,0,0.00015847,1583.6,5.9915e-05,91.991,4.7674e-05,0.016955,-0.00015671,-1535.6,1.3314
427,17.196,1.8182,0,0.00015742,1573.1,5.9713e-05,93.752,4.7237e-05,0.018953,-0.00015562,-1524.1,1.3312
428,17.196,1.6364,0,0.00015617,1560.7,5.9336e-05,94.181,4.6804e-05,0.021232,-0.00015436,-1511.4,1.3309
429,17.196,1.4545,0,0.00015474,1546.3,5.8752e-05,92.845,4.6398e-05,0.023188,-0.00015295,-1497.8,1.3306
430,17.196,1.2727,0,0.00015314,1530.4,5.7943e-05,89.426,4.6044e-05,0.024287,-0.00015142,-1483.7,1.3302
431,17.196,1.0909,0,0.00015141,1513.1,5.6904e-05,83.734,4.5763e-05,0.023669,-0.00014981,-1469.5,1.3299
432,17.196,0.90909,0,0.0001496,1494.9,5.5644e-05,75.704,4.5571e-05,0.021431,-0.00014817,-1455.6,1.3294
433,17.196,0.72727,0,0.00014774,1476.4,5.4181e-05,65.364,4.5483e-05,0.01201,-0.00014652,-1442.6,1.329
434,17.196,0.54545,0,0.0001459,1458,5.2537e-05,52.819,4.5508e-05,0.0079143,-0.00014493,-1430.9,1.3285
435,17.196,0.36364,0,0.00014412,1440.2,5.0742e-05,38.193,4.5648e-05,-0.086215,-0.00014343,-1420.8,1.3279
436,17.196,0.18182,0,0.00014252,1424.2,4.8888e-05,22.219,4.5919e-05,-0.086071,-0.00014213,-1413,1.3273
437,17.011,5.8182,0,0.0001486,1485,5.0837e-05,21.529,4.7962e-05,-0.071538,-0.00014822,-1474.1,1.3035
438,17.011,5.6364,0,0.00014994,1498.3,5.243e-05,35.397,4.7708e-05,-0.08008,-0.0001493,-1480.3,1.3041
439,17.011,5.4545,0,0.00015144,1513.4,5.3993e-05,48.301,4.7566e-05,0.004565,-0.00015057,-1488.7,1.3047
440,17.011,5.2727,0,0.00015299,1528.9,5.542e-05,59.386,4.7518e-05,0.0095049,-0.00015189,-1498.3,1.3052
441,17.011,5.0909,0,0.00015453,1544.3,5.6683e-05,68.531,4.7565e-05,0.018887,-0.00015325,-1508.8,1.3057
442,17.011,4.9091,0,0.00015603,1559.2,5.7764e-05,75.658,4.7697e-05,0.021615,-0.0001546,-1520,1.3061
443,17.011,4.7273,0,0.00015744,1573.3,5.865e-05,80.767,4.7904e-05,0.022708,-0.00015591,-1531.3,1.3065
444,17.011,4.5455,0,0.00015873,1586.2,5.934e-05,83.946,4.817e-05,0.022156,-0.00015714,-1542.6,1.3068
445,17.011,4.3636,0,0.00015989,1597.8,5.9839e-05,85.376,4.8479e-05,0.020756,-0.00015826,-1553.4,1.3072
446,17.011,4.1818,0,0.00016089,1607.7,6.0166e-05,85.334,4.8811e-05,0.018971,-0.00015926,-1563.4,1.3074
447,17.011,4,0,0.00016172,1616.1,6.0348e-05,84.18,4.9146e-05,0.017272,-0.00016013,-1572.4,1.3077
448,17.011,3.8182,0,0.0001624,1622.9,6.0419e-05,82.328,4.9464e-05,0.016019,-0.00016084,-1580.2,1.3079
449,17.011,3.6364,0,0.00016293,1628.2,6.0418e-05,80.204,4.9746e-05,0.015389,-0.00016142,-1586.6,1.308
450,17.011,3.4545,0,0.00016331,1632,6.038e-05,78.21,4.9973e-05,0.015329,-0.00016184,-1591.5,1.3082
451,17.011,3.2727,0,0.00016356,1634.5,6.0337e-05,76.68,5.0133e-05,0.01558,-0.00016212,-1594.8,1.3082
452,17.011,3.0909,0,0.00016368,1635.7,6.0309e-05,75.852,5.0216e-05,0.015818,-0.00016226,-1596.4,1.3083
453,17.011,2.9091,0,0.00016368,1635.7,6.0309e-05,75.852,5.0216e-05,0.015819,-0.00016226,-1596.4,1.3083
454,17.011,2.7273,0,0.00016356,1634.5,6.0337e-05,76.68,5.0133e-05,0.015581,-0.00016212,-1594.8,1.3082
455,17.011,2.5455,0,0.00016331,1632,6.038e-05,78.21,4.9973e-05,0.015328,-0.00016184,-1591.5,1.3082
456,17.011,2.3636,0,0.00016293,1628.2,6.0418e-05,80.204,4.9746e-05,0.01539,-0.00016142,-1586.6,1.308
457,17.011,2.1818,0,0.0001624,1622.9,6.0419e-05,82.328,4.9464e-05,0.016018,-0.00016084,-1580.2,1.3079
458,17.011,2,0,0.00016172,1616.1,6.0348e-05,84.18,4.9146e-05,0.017274,-0.00016013,-1572.4,1.3077
459,17.011,1.8182,0,0.00016089,1607.7,6.0166e-05,85.334,4.8811e-05,0.018971,-0.00015926,-1563.4,1.3074
460,17.011,1.6364,0,0.00015989,1597.8,5.9839e-05,85.376,4.8479e-05,0.020757,-0.00015826,-1553.4,1.3072
461,17.011,1.4545,0,0.00015873,1586.2,5.934e-05,83.946,4.817e-05,0.022156,-0.00015714,-1542.6,1.3068
462,17.011,1.2727,0,0.00015744,1573.3,5.865e-05,80.767,4.7904e-05,0.022709,-0.00015591,-1531.3,1.3065
463,17.011,1.0909,0,0.00015603,1559.2,5.7764e-05,75.657,4.7697e-05,0.021616,-0.0001546,-1520,1.3061
464,17.011,0.90909,0,0.00015453,1544.3,5.6683e-05,68.531,4.7565e-05,0.018888,-0.00015325,-1508.8,1.3057
465,17.011,0.72727,0,0.00015299,1528.9,5.542e-05,59.386,4.7518e-05,0.0095054,-0.00015189,-1498.3,1.3052
466,17.011,0.54545,0,0.00015144,1513.4,5.3993e-05,48.301,4.7566e-05,0.0045664,-0.00015057,-1488.7,1.3047
467,17.011,0.36364,0,0.00014994,1498.3,5.243e-05,35.397,4.7708e-05,-0.080081,-0.0001493,-1480.3,1.3041
468,17.011,0.18182,0,0.0001486,1485,5.0837e-05,21.529,4.7962e-05,-0.071539,-0.00014822,-1474.1,1.3035
469,16.826,5.8182,0,0.00015439,1542.9,5.2697e-05,20.914,4.9906e-05,-0.058052,-0.00015403,-1532.3,1.2799
470,16.826,5.6364,0,0.00015549,1553.9,5.4056e-05,32.885,4.967e-05,-0.073682,-0.00015491,-1537.2,1.2804
471,16.826,5.4545,0,0.00015677,1566.6,5.5416e-05,44.25,4.9527e-05,0.001874,-0.00015597,-1544,1.281
472,16.826,5.2727,0,0.00015807,1579.6,5.6656e-05,54.056,4.9463e-05,0.0072245,-0.00015708,-1551.9,1.2815
473,16.826,5.0909,0,0.00015935,1592.4,5.7751e-05,62.178,4.9478e-05,0.01636,-0.0001582,-1560.4,1.282
474,16.826,4.9091,0,0.00016059,1604.8,5.8685e-05,68.553,4.9563e-05,0.019416,-0.00015931,-1569.4,1.2824
475,16.826,4.7273,0,0.00016174,1616.3,5.9449e-05,73.195,4.971e-05,0.020876,-0.00016037,-1578.5,1.2828
476,16.826,4.5455,0,0.0001628,1626.8,6.0044e-05,76.193,4.9906e-05,0.020777,-0.00016137,-1587.4,1.2832
477,16.826,4.3636,0,0.00016373,1636.2,6.0478e-05,77.713,5.0138e-05,0.019843,-0.00016227,-1595.9,1.2835
478,16.826,4.1818,0,0.00016454,1644.2,6.0767e-05,77.992,5.039e-05,0.018473,-0.00016307,-1603.8,1.2838
479,16.826,4,0,0.00016521,1651,6.0935e-05,77.33,5.0645e-05,0.017052,-0.00016376,-1610.9,1.284
480,16.826,3.8182,0,0.00016575,1656.4,6.101e-05,76.061,5.0888e-05,0.015864,-0.00016433,-1617,1.2842
481,16.826,3.6364,0,0.00016617,1660.6,6.1022e-05,74.531,5.1104e-05,0.015071,-0.00016478,-1622,1.2844
482,16.826,3.4545,0,0.00016647,1663.6,6.1001e-05,73.06,5.1279e-05,0.014677,-0.00016511,-1625.9,1.2845
483,16.826,3.2727,0,0.00016667,1665.6,6.0972e-05,71.917,5.1402e-05,0.014565,-0.00016533,-1628.4,1.2846
484,16.826,3.0909,0,0.00016677,1666.5,6.0952e-05,71.295,5.1465e-05,0.014568,-0.00016544,-1629.7,1.2846
485,16.826,2.9091,0,0.00016677,1666.5,6.0952e-05,71.295,5.1465e-05,0.014569,-0.00016544,-1629.7,1.2846
486,16.826,2.7273,0,0.00016667,1665.6,6.0972e-05,71.917,5.1402e-05,0.014565,-0.00016533,-1628.4,1.2846
487,16.826,2.5455,0,0.00016647,1663.6,6.1001e-05,73.06,5.1279e-05,0.014677,-0.00016511,-1625.9,1.2845
488,16.826,2.3636,0,0.00016617,1660.6,6.1022e-05,74.531,5.1104e-05,0.015071,-0.00016478,-1622,1.2844
489,16.826,2.1818,0,0.00016575,1656.4,6.101e-05,76.061,5.0888e-05,0.015864,-0.00016433,-1617,1.2842
490,16.826,2,0,0.00016521,1651,6.0935e-05,77.33,5.0645e-05,0.017052,-0.00016376,-1610.9,1.284
491,16.826,1.8182,0,0.00016454,1644.2,6.0767e-05,77.992,5.039e-05,0.018472,-0.00016307,-1603.8,1.2838
492,16.826,1.6364,0,0.00016373,1636.2,6.0478e-05,77.713,5.0138e-05,0.019844,-0.00016227,-1595.9,1.2835
493,16.826,1.4545,0,0.0001628,1626.8,6.0044e-05,76.193,4.9906e-05,0.020777,-0.00016137,-1587.4,1.2832
494,16.826,1.2727,0,0.00016174,1616.3,5.9449e-05,73.195,4.971e-05,0.020877,-0.00016037,-1578.5,1.2828
495,16.826,1.0909,0,0.00016059,1604.8,5.8685e-05,68.553,4.9563e-05,0.019417,-0.00015931,-1569.4,1.2824
496,16.826,0.90909,0,0.00015935,1592.4,5.7751e-05,62.178,4.9478e-05,0.016362,-0.0001582,-1560.4,1.282
497,16.826,0.72727,0,0.00015807,1579.6,5.6656e-05,54.056,4.9463e-05,0.0072264,-0.00015708,-1551.9,1.2815
498,16.826,0.54545,0,0.00015677,1566.6,5.5416e-05,44.25,4.9527e-05,0.0018761,-0.00015597,-1544,1.281
499,16.826,0.36364,0,0.00015549,1553.9,5.4056e-05,32.885,4.967e-05,-0.073682,-0.00015491,-1537.2,1.2804
500,16.826,0.18182,0,0.00015439,1542.9,5.2697e-05,20.914,4.9906e-05,-0.058053,-0.00015403,-1532.3,1.2799
501,16.642,5.8182,0,0.00015995,1598.4,5.4486e-05,20.365,5.1769e-05,-0.046299,-0.0001596,-1588.2,1.2563
502,16.642,5.6364,0,0.00016085,1607.4,5.5638e-05,30.644,5.155e-05,-0.067399,-0.00016031,-1591.9,1.2569
503,16.642,5.4545,0,0.00016193,1618.2,5.682e-05,40.643,5.141e-05,-0.00027646,-0.0001612,-1597.5,1.2574
504,16.642,5.2727,0,0.00016302,1629.1,5.7899e-05,49.323,5.1335e-05,0.0051931,-0.00016212,-1603.8,1.2579
505,16.642,5.0909,0,0.00016409,1639.8,5.8851e-05,56.558,5.1325e-05,0.013951,-0.00016305,-1610.7,1.2584
506,16.642,4.9091,0,0.00016511,1650,5.9662e-05,62.292,5.1374e-05,0.017207,-0.00016396,-1617.9,1.2589
507,16.642,4.7273,0,0.00016606,1659.5,6.0327e-05,66.543,5.1473e-05,0.018943,-0.00016483,-1625.2,1.2593
508,16.642,4.5455,0,0.00016693,1668.1,6.0847e-05,69.392,5.1614e-05,0.019209,-0.00016564,-1632.3,1.2596
509,16.642,4.3636,0,0.00016769,1675.7,6.123e-05,70.985,5.1785e-05,0.018664,-0.00016637,-1639.1,1.26
510,16.642,4.1818,0,0.00016834,1682.2,6.149e-05,71.525,5.1973e-05,0.01765,-0.00016701,-1645.3,1.2602
511,16.642,4,0,0.00016888,1687.7,6.1647e-05,71.257,5.2166e-05,0.016492,-0.00016756,-1650.9,1.2605
512,16.642,3.8182,0,0.00016932,1692,6.1725e-05,70.456,5.235e-05,0.015423,-0.00016801,-1655.7,1.2607
513,16.642,3.6364,0,0.00016965,1695.4,6.1749e-05,69.401,5.2514e-05,0.014595,-0.00016837,-1659.6,1.2609
514,16.642,3.4545,0,0.0001699,1697.8,6.1743e-05,68.349,5.2648e-05,0.014051,-0.00016863,-1662.6,1.261
515,16.642,3.2727,0,0.00017005,1699.4,6.1726e-05,67.517,5.2742e-05,0.013759,-0.00016881,-1664.6,1.2611
516,16.642,3.0909,0,0.00017013,1700.1,6.1713e-05,67.061,5.279e-05,0.013641,-0.00016889,-1665.6,1.2611
517,16.642,2.9091,0,0.00017013,1700.1,6.1713e-05,67.061,5.279e-05,0.013641,-0.00016889,-1665.6,1.2611
518,16.642,2.7273,0,0.00017005,1699.4,6.1726e-05,67.517,5.2742e-05,0.013759,-0.00016881,-1664.6,1.2611
519,16.642,2.5455,0,0.0001699,1697.8,6.1743e-05,68.349,5.2648e-05,0.014053,-0.00016863,-1662.6,1.261
520,16.642,2.3636,0,0.00016965,1695.4,6.1749e-05,69.401,5.2514e-05,0.014595,-0.00016837,-1659.6,1.2609
521,16.642,2.1818,0,0.00016932,1692,6.1725e-05,70.456,5.235e-05,0.015424,-0.00016801,-1655.7,1.2607
522,16.642,2,0,0.00016888,1687.7,6.1647e-05,71.257,5.2166e-05,0.016492,-0.00016756,-1650.9,1.2605
523,16.642,1.8182,0,0.00016834,1682.2,6.149e-05,71.524,5.1973e-05,0.017651,-0.00016701,-1645.3,1.2602
524,16.642,1.6364,0,0.00016769,1675.7,6.123e-05,70.985,5.1785e-05,0.018665,-0.00016637,-1639.1,1.26
525,16.642,1.4545,0,0.00016693,1668.1,6.0847e-05,69.392,5.1614e-05,0.01921,-0.00016564,-1632.3,1.2596
526,16.642,1.2727,0,0.00016606,1659.5,6.0327e-05,66.543,5.1473e-05,0.018943,-0.00016483,-1625.2,1.2593
527,16.642,1.0909,0,0.00016511,1650,5.9662e-05,62.292,5.1374e-05,0.017207,-0.00016396,-1617.9,1.2589
528,16.642,0.90909,0,0.00016409,1639.8,5.8851e-05,56.558,5.1325e-05,0.013952,-0.00016305,-1610.7,1.2584
529,16.642,0.72727,0,0.00016302,1629.1,5.7899e-05,49.323,5.1335e-05,0.0051932,-0.00016212,-1603.8,1.2579
530,16.642,0.54545,0,0.00016193,1618.2,5.682e-05,40.643,5.141e-05,-0.00027737,-0.0001612,-1597.5,1.2574
531,16.642,0.36364,0,0.00016085,1607.4,5.5638e-05,30.644,5.155e-05,-0.0674,-0.00016031,-1591.9,1.2569
532,16.642,0.18182,0,0.00015995,1598.4,5.4486e-05,20.365,5.1769e-05,-0.046297,-0.0001596,-1588.2,1.2563
533,16.457,5.8182,0,0.00016533,1652.1,5.6218e-05,19.874,5.3568e-05,-0.036461,-0.00016498,-1642.1,1.2328
534,16.457,5.6364,0,0.00016605,1659.4,5.7188e-05,28.656,5.3366e-05,-0.06146,-0.00016555,-1644.9,1.2334
535,16.457,5.4545,0,0.00016696,1668.4,5.8214e-05,37.446,5.323e-05,-0.0019887,-0.00016629,-1649.4,1.234
536,16.457,5.2727,0,0.00016787,1677.6,5.9154e-05,45.133,5.3148e-05,0.0034062,-0.00016706,-1654.5,1.2345
537,16.457,5.0909,0,0.00016877,1686.5,5.9984e-05,51.59,5.3119e-05,0.011712,-0.00016783,-1660.1,1.235
538,16.457,4.9091,0,0.00016962,1695,6.0693e-05,56.767,5.314e-05,0.015071,-0.00016858,-1665.9,1.2354
539,16.457,4.7273,0,0.0001704,1702.9,6.1276e-05,60.677,5.3203e-05,0.017007,-0.00016929,-1671.7,1.2358
540,16.457,4.5455,0,0.00017111,1710,6.1735e-05,63.392,5.33e-05,0.017569,-0.00016995,-1677.4,1.2362
541,16.457,4.3636,0,0.00017174,1716.2,6.2076e-05,65.036,5.3423e-05,0.017345,-0.00017054,-1682.7,1.2365
542,16.457,4.1818,0,0.00017227,1721.5,6.2313e-05,65.779,5.3561e-05,0.016639,-0.00017106,-1687.7,1.2368
543,16.457,4,0,0.00017271,1725.9,6.2463e-05,65.825,5.3704e-05,0.015723,-0.0001715,-1692,1.2371
544,16.457,3.8182,0,0.00017306,1729.4,6.2544e-05,65.396,5.3842e-05,0.014808,-0.00017186,-1695.8,1.2373
545,16.457,3.6364,0,0.00017333,1732.1,6.2577e-05,64.719,5.3966e-05,0.014026,-0.00017214,-1698.9,1.2374
546,16.457,3.4545,0,0.00017353,1734.1,6.2583e-05,64.001,5.4067e-05,0.013448,-0.00017235,-1701.2,1.2376
547,16.457,3.2727,0,0.00017366,1735.4,6.2576e-05,63.418,5.4138e-05,0.013084,-0.00017249,-1702.8,1.2377
548,16.457,3.0909,0,0.00017372,1736,6.257e-05,63.093,5.4174e-05,0.01291,-0.00017256,-1703.6,1.2377
549,16.457,2.9091,0,0.00017372,1736,6.257e-05,63.093,5.4174e-05,0.012911,-0.00017256,-1703.6,1.2377
550,16.457,2.7273,0,0.00017366,1735.4,6.2576e-05,63.418,5.4138e-05,0.013082,-0.00017249,-1702.8,1.2377
551,16.457,2.5455,0,0.00017353,1734.1,6.2583e-05,64.001,5.4067e-05,0.013448,-0.00017235,-1701.2,1.2376
552,16.457,2.3636,0,0.00017333,1732.1,6.2577e-05,64.719,5.3966e-05,0.014026,-0.00017214,-1698.9,1.2374
553,16.457,2.1818,0,0.00017306,1729.4,6.2544e-05,65.396,5.3842e-05,0.014808,-0.00017186,-1695.8,1.2373
554,16.457,2,0,0.00017271,1725.9,6.2463e-05,65.824,5.3704e-05,0.015726,-0.0001715,-1692,1.2371
555,16.457,1.8182,0,0.00017227,1721.5,6.2313e-05,65.779,5.3561e-05,0.016639,-0.00017106,-1687.7,1.2368
556,16.457,1.6364,0,0.00017174,1716.2,6.2076e-05,65.036,5.3423e-05,0.017348,-0.00017054,-1682.7,1.2365
557,16.457,1.4545,0,0.00017111,1710,6.1734e-05,63.392,5.33e-05,0.017569,-0.00016995,-1677.4,1.2362
558,16.457,1.2727,0,0.0001704,1702.9,6.1276e-05,60.677,5.3203e-05,0.017007,-0.00016929,-1671.7,1.2358
559,16.457,1.0909,0,0.00016962,1695,6.0693e-05,56.767,5.314e-05,0.015073,-0.00016858,-1665.9,1.2354
560,16.457,0.90909,0,0.00016877,1686.5,5.9984e-05,51.59,5.3119e-05,0.011715,-0.00016783,-1660.1,1.235
561,16.457,0.72727,0,0.00016787,1677.6,5.9154e-05,45.133,5.3148e-05,0.0034088,-0.00016706,-1654.5,1.2345
562,16.457,0.54545,0,0.00016696,1668.4,5.8214e-05,37.446,5.323e-05,-0.0019896,-0.00016629,-1649.4,1.234
563,16.457,0.36364,0,0.00016605,1659.4,5.7188e-05,28.656,5.3366e-05,-0.06146,-0.00016555,-1644.9,1.2334
564,16.457,0.18182,0,0.00016533,1652.1,5.6218e-05,19.874,5.3568e-05,-0.036461,-0.00016498,-1642.1,1.2328
565,16.272,5.8182,0,0.00017056,1704.4,5.7905e-05,19.43,5.5316e-05,-0.028447,-0.00017022,-1694.6,1.2094
566,16.272,5.6364,0,0.00017113,1710.1,5.8717e-05,26.895,5.513e-05,-0.055956,-0.00017065,-1696.5,1.21
567,16.272,5.4545,0,0.00017189,1717.7,5.9607e-05,34.618,5.4999e-05,-0.0033192,-0.00017127,-1700.1,1.2106
568,16.272,5.2727,0,0.00017266,1725.4,6.0426e-05,41.428,5.4913e-05,0.0018747,-0.00017192,-1704.3,1.2111
569,16.272,5.0909,0,0.00017341,1732.9,6.1152e-05,47.199,5.4871e-05,0.0096929,-0.00017256,-1708.8,1.2116
570,16.272,4.9091,0,0.00017412,1739.9,6.1773e-05,51.881,5.487e-05,0.013083,-0.00017317,-1713.4,1.2121
571,16.272,4.7273,0,0.00017477,1746.5,6.2287e-05,55.486,5.4904e-05,0.015152,-0.00017376,-1718.1,1.2125
572,16.272,4.5455,0,0.00017535,1752.3,6.2694e-05,58.071,5.4968e-05,0.015949,-0.00017429,-1722.6,1.2129
573,16.272,4.3636,0,0.00017587,1757.5,6.3002e-05,59.742,5.5053e-05,0.015994,-0.00017477,-1726.8,1.2132
574,16.272,4.1818,0,0.0001763,1761.8,6.322e-05,60.638,5.5152e-05,0.015552,-0.00017519,-1730.7,1.2135
575,16.272,4,0,0.00017666,1765.4,6.3363e-05,60.927,5.5256e-05,0.014866,-0.00017555,-1734.2,1.2138
576,16.272,3.8182,0,0.00017695,1768.3,6.3447e-05,60.791,5.5358e-05,0.014113,-0.00017584,-1737.1,1.214
577,16.272,3.6364,0,0.00017717,1770.5,6.3489e-05,60.412,5.545e-05,0.013424,-0.00017607,-1739.5,1.2141
578,16.272,3.4545,0,0.00017733,1772.1,6.3504e-05,59.96,5.5525e-05,0.012878,-0.00017624,-1741.3,1.2143
579,16.272,3.2727,0,0.00017743,1773.1,6.3506e-05,59.573,5.5579e-05,0.012508,-0.00017635,-1742.6,1.2144
580,16.272,3.0909,0,0.00017748,1773.6,6.3504e-05,59.354,5.5606e-05,0.012324,-0.0001764,-1743.2,1.2144
581,16.272,2.9091,0,0.00017748,1773.6,6.3504e-05,59.354,5.5606e-05,0.012323,-0.0001764,-1743.2,1.2144
582,16.272,2.7273,0,0.00017743,1773.1,6.3506e-05,59.573,5.5579e-05,0.012509,-0.00017635,-1742.6,1.2144
583,16.272,2.5455,0,0.00017733,1772.1,6.3504e-05,59.96,5.5525e-05,0.012878,-0.00017624,-1741.3,1.2143
584,16.272,2.3636,0,0.00017717,1770.5,6.3489e-05,60.412,5.545e-05,0.013425,-0.00017607,-1739.5,1.2141
585,16.272,2.1818,0,0.00017695,1768.3,6.3447e-05,60.791,5.5358e-05,0.014113,-0.00017584,-1737.1,1.214
586,16.272,2,0,0.00017666,1765.4,6.3363e-05,60.927,5.5256e-05,0.014866,-0.00017555,-1734.2,1.2138
587,16.272,1.8182,0,0.0001763,1761.8,6.322e-05,60.638,5.5152e-05,0.015553,-0.00017519,-1730.7,1.2135
588,16.272,1.6364,0,0.00017587,1757.5,6.3002e-05,59.742,5.5053e-05,0.015994,-0.00017477,-1726.8,1.2132
589,16.272,1.4545,0,0.00017535,1752.3,6.2694e-05,58.071,5.4968e-05,0.015949,-0.00017429,-1722.6,1.2129
590,16.272,1.2727,0,0.00017477,1746.5,6.2287e-05,55.486,5.4904e-05,0.015153,-0.00017376,-1718.1,1.2125
591,16.272,1.0909,0,0.00017412,1739.9,6.1773e-05,51.881,5.487e-05,0.013082,-0.00017317,-1713.4,1.2121
592,16.272,0.90909,0,0.00017341,1732.9,6.1152e-05,47.199,5.4871e-05,0.0096934,-0.00017256,-1708.8,1.2116
593,16.272,0.72727,0,0.00017266,1725.4,6.0426e-05,41.428,5.4913e-05,0.0018767,-0.00017192,-1704.3,1.2111
594,16.272,0.54545,0,0.00017189,1717.7,5.9607e-05,34.618,5.4999e-05,-0.0033193,-0.00017127,-1700.1,1.2106
595,16.272,0.36364,0,0.00017113,1710.1,5.8717e-05,26.895,5.513e-05,-0.055957,-0.00017065,-1696.5,1.21
596,16.272,0.18182,0,0.00017056,1704.4,5.7905e-05,19.43,5.5316e-05,-0.028446,-0.00017022,-1694.6,1.2094
597,16.087,5.8182,0,0.00017567,1755.5,5.9559e-05,19.027,5.7023e-05,-0.022036,-0.00017534,-1745.9,1.1862
598,16.087,5.6364,0,0.00017611,1759.9,6.0232e-05,25.338,5.6853e-05,-0.050932,-0.00017567,-1747.1,1.1868
599,16.087,5.4545,0,0.00017675,1766.3,6.1004e-05,32.12,5.6728e-05,-0.0043392,-0.00017618,-1750,1.1874
600,16.087,5.2727,0,0.00017739,1772.7,6.1718e-05,38.153,5.664e-05,0.00058214,-0.00017671,-1753.3,1.1879
601,16.087,5.0909,0,0.00017802,1779,6.2353e-05,43.313,5.6589e-05,0.0079012,-0.00017725,-1756.9,1.1884
602,16.087,4.9091,0,0.00017861,1784.9,6.2899e-05,47.552,5.6572e-05,0.011268,-0.00017776,-1760.6,1.1889
603,16.087,4.7273,0,0.00017916,1790.3,6.3354e-05,50.876,5.6584e-05,0.013423,-0.00017824,-1764.3,1.1893
604,16.087,4.5455,0,0.00017964,1795.2,6.3718e-05,53.332,5.6622e-05,0.014401,-0.00017867,-1767.9,1.1897
605,16.087,4.3636,0,0.00018007,1799.4,6.3996e-05,55.005,5.6678e-05,0.014669,-0.00017907,-1771.3,1.19
606,16.087,4.1818,0,0.00018043,1803,6.4198e-05,56.009,5.6746e-05,0.014458,-0.00017941,-1774.3,1.1903
607,16.087,4,0,0.00018072,1806,6.4335e-05,56.482,5.682e-05,0.01398,-0.0001797,-1777.1,1.1906
608,16.087,3.8182,0,0.00018096,1808.3,6.4421e-05,56.572,5.6894e-05,0.013394,-0.00017993,-1779.4,1.1908
609,16.087,3.6364,0,0.00018114,1810.2,6.4469e-05,56.427,5.6961e-05,0.012819,-0.00018011,-1781.3,1.191
610,16.087,3.4545,0,0.00018127,1811.5,6.4492e-05,56.182,5.7016e-05,0.012341,-0.00018025,-1782.7,1.1911
611,16.087,3.2727,0,0.00018135,1812.3,6.45e-05,55.951,5.7055e-05,0.012003,-0.00018034,-1783.7,1.1912
612,16.087,3.0909,0,0.0001814,1812.7,6.4502e-05,55.814,5.7076e-05,0.01183,-0.00018038,-1784.1,1.1912
613,16.087,2.9091,0,0.0001814,1812.7,6.4502e-05,55.814,5.7076e-05,0.011829,-0.00018038,-1784.1,1.1912
614,16.087,2.7273,0,0.00018135,1812.3,6.45e-05,55.951,5.7055e-05,0.012003,-0.00018034,-1783.7,1.1912
615,16.087,2.5455,0,0.00018127,1811.5,6.4492e-05,56.182,5.7016e-05,0.012341,-0.00018025,-1782.7,1.1911
616,16.087,2.3636,0,0.00018114,1810.2,6.4469e-05,56.427,5.6961e-05,0.01282,-0.00018011,-1781.3,1.191
617,16.087,2.1818,0,0.00018096,1808.3,6.4421e-05,56.572,5.6894e-05,0.013393,-0.00017993,-1779.4,1.1908
618,16.087,2,0,0.00018072,1806,6.4335e-05,56.482,5.682e-05,0.013979,-0.0001797,-1777.1,1.1906
619,16.087,1.8182,0,0.00018043,1803,6.4198e-05,56.009,5.6746e-05,0.014458,-0.00017941,-1774.3,1.1903
620,16.087,1.6364,0,0.00018007,1799.4,6.3996e-05,55.005,5.6678e-05,0.014669,-0.00017907,-1771.3,1.19
621,16.087,1.4545,0,0.00017964,1795.2,6.3718e-05,53.332,5.6622e-05,0.014403,-0.00017867,-1767.9,1.1897
622,16.087,1.2727,0,0.00017916,1790.3,6.3354e-05,50.876,5.6584e-05,0.013424,-0.00017824,-1764.3,1.1893
623,16.087,1.0909,0,0.00017861,1784.9,6.2899e-05,47.552,5.6572e-05,0.011269,-0.00017776,-1760.6,1.1889
624,16.087,0.90909,0,0.00017802,1779,6.2353e-05,43.313,5.6589e-05,0.007903,-0.00017725,-1756.9,1.1884
625,16.087,0.72727,0,0.00017739,1772.7,6.1718e-05,38.153,5.664e-05,0.00058326,-0.00017671,-1753.3,1.1879
626,16.087,0.54545,0,0.00017675,1766.3,6.1004e-05,32.12,5.6728e-05,-0.0043395,-0.00017618,-1750,1.1874
627,16.087,0.36364,0,0.00017611,1759.9,6.0232e-05,25.338,5.6853e-05,-0.050933,-0.00017567,-1747.1,1.1868
628,16.087,0.18182,0,0.00017567,1755.5,5.9559e-05,19.027,5.7023e-05,-0.022035,-0.00017534,-1745.9,1.1862
629,15.902,5.8182,0,0.00018069,1805.7,6.1185e-05,18.656,5.87e-05,-0.016979,-0.00018037,-1796.3,1.163
630,15.902,5.6364,0,0.00018102,1809,6.1738e-05,23.957,5.8543e-05,-0.046388,-0.00018061,-1796.9,1.1637
631,15.902,5.4545,0,0.00018156,1814.3,6.2407e-05,29.91,5.8426e-05,-0.0051,-0.00018103,-1799.2,1.1643
632,15.902,5.2727,0,0.0001821,1819.7,6.303e-05,35.255,5.8338e-05,-0.00049117,-0.00018147,-1801.8,1.1648
633,15.902,5.0909,0,0.00018262,1825,6.3586e-05,39.869,5.8281e-05,0.0063368,-0.00018191,-1804.7,1.1653
634,15.902,4.9091,0,0.00018312,1829.9,6.4067e-05,43.707,5.8252e-05,0.009643,-0.00018233,-1807.7,1.1658
635,15.902,4.7273,0,0.00018357,1834.4,6.4471e-05,46.768,5.8248e-05,0.011843,-0.00018273,-1810.6,1.1662
636,15.902,4.5455,0,0.00018397,1838.5,6.4797e-05,49.091,5.8265e-05,0.012965,-0.00018309,-1813.4,1.1666
637,15.902,4.3636,0,0.00018433,1842,6.505e-05,50.743,5.8298e-05,0.013414,-0.00018341,-1816.1,1.167
638,15.902,4.1818,0,0.00018462,1845,6.5237e-05,51.817,5.8343e-05,0.013399,-0.00018369,-1818.5,1.1673
639,15.902,4,0,0.00018487,1847.4,6.5369e-05,52.425,5.8393e-05,0.013108,-0.00018392,-1820.7,1.1675
640,15.902,3.8182,0,0.00018507,1849.4,6.5455e-05,52.686,5.8445e-05,0.012682,-0.00018411,-1822.5,1.1677
641,15.902,3.6364,0,0.00018522,1850.9,6.5507e-05,52.719,5.8492e-05,0.012233,-0.00018426,-1824,1.1679
642,15.902,3.4545,0,0.00018532,1852,6.5536e-05,52.635,5.8532e-05,0.011838,-0.00018437,-1825.1,1.168
643,15.902,3.2727,0,0.00018539,1852.6,6.5549e-05,52.524,5.856e-05,0.01155,-0.00018444,-1825.8,1.1681
644,15.902,3.0909,0,0.00018543,1853,6.5555e-05,52.451,5.8575e-05,0.011399,-0.00018448,-1826.2,1.1682
645,15.902,2.9091,0,0.00018543,1853,6.5555e-05,52.451,5.8575e-05,0.011399,-0.00018448,-1826.2,1.1682
646,15.902,2.7273,0,0.00018539,1852.6,6.5549e-05,52.524,5.856e-05,0.01155,-0.00018444,-1825.8,1.1681
647,15.902,2.5455,0,0.00018532,1852,6.5536e-05,52.635,5.8532e-05,0.011838,-0.00018437,-1825.1,1.168
648,15.902,2.3636,0,0.00018522,1850.9,6.5507e-05,52.719,5.8492e-05,0.012233,-0.00018426,-1824,1.1679
649,15.902,2.1818,0,0.00018507,1849.4,6.5455e-05,52.686,5.8445e-05,0.012683,-0.00018411,-1822.5,1.1677
650,15.902,2,0,0.00018487,1847.4,6.5369e-05,52.425,5.8393e-05,0.013109,-0.00018392,-1820.7,1.1675
651,15.902,1.8182,0,0.00018462,1845,6.5237e-05,51.817,5.8343e-05,0.013399,-0.00018369,-1818.5,1.1673
652,15.902,1.6364,0,0.00018433,1842,6.505e-05,50.743,5.8298e-05,0.013412,-0.00018341,-1816.1,1.167
653,15.902,1.4545,0,0.00018397,1838.5,6.4797e-05,49.091,5.8265e-05,0.012964,-0.00018309,-1813.4,1.1666
654,15.902,1.2727,0,0.00018357,1834.4,6.4471e-05,46.768,5.8248e-05,0.011843,-0.00018273,-1810.6,1.1662
655,15.902,1.0909,0,0.00018312,1829.9,6.4067e-05,43.706,5.8252e-05,0.0096425,-0.00018233,-1807.7,1.1658
656,15.902,0.90909,0,0.00018262,1825,6.3586e-05,39.869,5.8281e-05,0.0063381,-0.00018191,-1804.7,1.1653
657,15.902,0.72727,0,0.0001821,1819.7,6.303e-05,35.255,5.8338e-05,-0.00048888,-0.00018147,-1801.8,1.1648
658,15.902,0.54545,0,0.00018156,1814.3,6.2407e-05,29.91,5.8426e-05,-0.0051009,-0.00018103,-1799.2,1.1643
659,15.902,0.36364,0,0.00018102,1809,6.1738e-05,23.957,5.8543e-05,-0.04639,-0.00018061,-1796.9,1.1637
660,15.902,0.18182,0,0.00018069,1805.7,6.1185e-05,18.656,5.87e-05,-0.016981,-0.00018037,-1796.3,1.163
661,15.717,5.8182,0,0.00018565,1855.2,6.2792e-05,18.311,6.0353e-05,-0.013026,-0.00018533,-1846,1.14
662,15.717,5.6364,0,0.00018589,1857.6,6.324e-05,22.73,6.0209e-05,-0.042304,-0.00018549,-1846.1,1.1407
663,15.717,5.4545,0,0.00018633,1862,6.3819e-05,27.952,6.0098e-05,-0.0056512,-0.00018584,-1847.9,1.1413
664,15.717,5.2727,0,0.00018678,1866.5,6.4362e-05,32.685,6.0012e-05,-0.0013677,-0.0001862,-1850,1.1418
665,15.717,5.0909,0,0.00018722,1870.9,6.4849e-05,36.808,5.9951e-05,0.0049879,-0.00018657,-1852.2,1.1424
666,15.717,4.9091,0,0.00018763,1875,6.5274e-05,40.28,5.9914e-05,0.0082052,-0.00018692,-1854.6,1.1428
667,15.717,4.7273,0,0.00018801,1878.8,6.5632e-05,43.094,5.9898e-05,0.010423,-0.00018724,-1856.9,1.1433
668,15.717,4.5455,0,0.00018835,1882.2,6.5924e-05,45.28,5.99e-05,0.011649,-0.00018754,-1859.1,1.1437
669,15.717,4.3636,0,0.00018864,1885.1,6.6155e-05,46.891,5.9916e-05,0.012249,-0.0001878,-1861.2,1.144
670,15.717,4.1818,0,0.00018889,1887.6,6.6329e-05,48.002,5.9942e-05,0.012405,-0.00018803,-1863.1,1.1443
671,15.717,4,0,0.00018909,1889.6,6.6454e-05,48.701,5.9974e-05,0.012279,-0.00018822,-1864.8,1.1446
672,15.717,3.8182,0,0.00018926,1891.3,6.654e-05,49.087,6.0009e-05,0.012002,-0.00018837,-1866.2,1.1448
673,15.717,3.6364,0,0.00018938,1892.5,6.6595e-05,49.254,6.0041e-05,0.011674,-0.0001885,-1867.4,1.145
674,15.717,3.4545,0,0.00018947,1893.4,6.6628e-05,49.291,6.0069e-05,0.011371,-0.00018858,-1868.3,1.1451
675,15.717,3.2727,0,0.00018953,1894,6.6645e-05,49.273,6.0089e-05,0.011139,-0.00018864,-1868.9,1.1452
676,15.717,3.0909,0,0.00018956,1894.3,6.6652e-05,49.249,6.0099e-05,0.011016,-0.00018867,-1869.1,1.1452
677,15.717,2.9091,0,0.00018956,1894.3,6.6652e-05,49.249,6.0099e-05,0.011016,-0.00018867,-1869.1,1.1452
678,15.717,2.7273,0,0.00018953,1894,6.6645e-05,49.272,6.0089e-05,0.01114,-0.00018864,-1868.9,1.1452
679,15.717,2.5455,0,0.00018947,1893.4,6.6628e-05,49.291,6.0069e-05,0.011368,-0.00018858,-1868.3,1.1451
680,15.717,2.3636,0,0.00018938,1892.5,6.6595e-05,49.254,6.0041e-05,0.011674,-0.0001885,-1867.4,1.145
681,15.717,2.1818,0,0.00018926,1891.3,6.654e-05,49.087,6.0009e-05,0.012003,-0.00018837,-1866.2,1.1448
682,15.717,2,0,0.00018909,1889.6,6.6454e-05,48.701,5.9974e-05,0.01228,-0.00018822,-1864.8,1.1446
683,15.717,1.8182,0,0.00018889,1887.6,6.6329e-05,48.002,5.9942e-05,0.012404,-0.00018803,-1863.1,1.1443
684,15.717,1.6364,0,0.00018864,1885.1,6.6155e-05,46.891,5.9916e-05,0.012252,-0.0001878,-1861.2,1.144
685,15.717,1.4545,0,0.00018835,1882.2,6.5924e-05,45.28,5.99e-05,0.011649,-0.00018754,-1859.1,1.1437
686,15.717,1.2727,0,0.00018801,1878.8,6.5632e-05,43.094,5.9898e-05,0.010424,-0.00018724,-1856.9,1.1433
687,15.717,1.0909,0,0.00018763,1875,6.5274e-05,40.279,5.9914e-05,0.0082078,-0.00018692,-1854.6,1.1428
688,15.717,0.90909,0,0.00018722,1870.9,6.4849e-05,36.808,5.9951e-05,0.0049896,-0.00018657,-1852.2,1.1424
689,15.717,0.72727,0,0.00018678,1866.5,6.4362e-05,32.685,6.0012e-05,-0.0013657,-0.0001862,-1850,1.1418
690,15.717,0.54545,0,0.00018633,1862,6.3819e-05,27.952,6.0098e-05,-0.00565,-0.00018584,-1847.9,1.1413
691,15.717,0.36364,0,0.00018589,1857.6,6.324e-05,22.73,6.0209e-05,-0.042303,-0.00018549,-1846.1,1.1407
692,15.717,0.18182,0,0.00018565,1855.2,6.2792e-05,18.311,6.0353e-05,-0.013027,-0.00018533,-1846,1.14
693,15.532,5.8182,0,0.00019055,1904.2,6.4384e-05,17.988,6.1988e-05,-0.0099598,-0.00019024,-1895.2,1.1171
694,15.532,5.6364,0,0.00019071,1905.8,6.4741e-05,21.636,6.1856e-05,-0.038635,-0.00019033,-1894.9,1.1178
695,15.532,5.4545,0,0.00019108,1909.4,6.5241e-05,26.211,6.1752e-05,-0.0060279,-0.00019062,-1896.2,1.1184
696,15.532,5.2727,0,0.00019145,1913.2,6.5714e-05,30.399,6.1668e-05,-0.0020682,-0.00019092,-1897.8,1.119
697,15.532,5.0909,0,0.00019182,1916.9,6.6141e-05,34.08,6.1605e-05,0.0038378,-0.00019122,-1899.6,1.1195
698,15.532,4.9091,0,0.00019216,1920.3,6.6515e-05,37.214,6.1563e-05,0.0069533,-0.0001915,-1901.4,1.12
699,15.532,4.7273,0,0.00019248,1923.5,6.6833e-05,39.795,6.1538e-05,0.0091615,-0.00019177,-1903.3,1.1204
700,15.532,4.5455,0,0.00019276,1926.3,6.7096e-05,41.84,6.1528e-05,0.010467,-0.00019202,-1905,1.1208
701,15.532,4.3636,0,0.00019301,1928.7,6.7305e-05,43.393,6.1531e-05,0.011187,-0.00019223,-1906.7,1.1212
702,15.532,4.1818,0,0.00019321,1930.8,6.7466e-05,44.511,6.1544e-05,0.011484,-0.00019242,-1908.2,1.1215
703,15.532,4,0,0.00019338,1932.5,6.7585e-05,45.268,6.1562e-05,0.011505,-0.00019257,-1909.5,1.1218
704,15.532,3.8182,0,0.00019352,1933.9,6.7669e-05,45.739,6.1583e-05,0.011363,-0.0001927,-1910.6,1.122
705,15.532,3.6364,0,0.00019362,1934.9,6.7726e-05,46.003,6.1604e-05,0.011148,-0.0001928,-1911.5,1.1222
706,15.532,3.4545,0,0.0001937,1935.6,6.7761e-05,46.131,6.1623e-05,0.01093,-0.00019287,-1912.2,1.1223
707,15.532,3.2727,0,0.00019375,1936.1,6.7781e-05,46.181,6.1636e-05,0.010759,-0.00019292,-1912.6,1.1224
708,15.532,3.0909,0,0.00019377,1936.4,6.779e-05,46.195,6.1643e-05,0.010666,-0.00019294,-1912.8,1.1225
709,15.532,2.9091,0,0.00019377,1936.4,6.779e-05,46.195,6.1643e-05,0.010666,-0.00019294,-1912.8,1.1225
710,15.532,2.7273,0,0.00019375,1936.1,6.7781e-05,46.181,6.1636e-05,0.01076,-0.00019292,-1912.6,1.1224
711,15.532,2.5455,0,0.0001937,1935.6,6.7761e-05,46.131,6.1623e-05,0.010931,-0.00019287,-1912.2,1.1223
712,15.532,2.3636,0,0.00019362,1934.9,6.7726e-05,46.003,6.1604e-05,0.011149,-0.0001928,-1911.5,1.1222
713,15.532,2.1818,0,0.00019352,1933.9,6.7669e-05,45.739,6.1583e-05,0.011363,-0.0001927,-1910.6,1.122
714,15.532,2,0,0.00019338,1932.5,6.7585e-05,45.268,6.1562e-05,0.011505,-0.00019257,-1909.5,1.1218
715,15.532,1.8182,0,0.00019321,1930.8,6.7466e-05,44.511,6.1544e-05,0.011485,-0.00019242,-1908.2,1.1215
716,15.532,1.6364,0,0.00019301,1928.7,6.7305e-05,43.393,6.1531e-05,0.011187,-0.00019223,-1906.7,1.1212
717,15.532,1.4545,0,0.00019276,1926.3,6.7096e-05,41.84,6.1528e-05,0.010467,-0.00019202,-1905,1.1208
718,15.532,1.2727,0,0.00019248,1923.5,6.6833e-05,39.795,6.1538e-05,0.0091618,-0.00019177,-1903.3,1.1204
719,15.532,1.0909,0,0.00019216,1920.3,6.6515e-05,37.214,6.1563e-05,0.0069525,-0.0001915,-1901.4,1.12
720,15.532,0.90909,0,0.00019182,1916.9,6.6141e-05,34.08,6.1605e-05,0.0038384,-0.00019122,-1899.6,1.1195
721,15.532,0.72727,0,0.00019145,1913.2,6.5714e-05,30.398,6.1668e-05,-0.0020672,-0.00019092,-1897.8,1.119
722,15.532,0.54545,0,0.00019108,1909.4,6.5241e-05,26.211,6.1752e-05,-0.0060275,-0.00019062,-1896.2,1.1184
723,15.532,0.36364,0,0.00019071,1905.8,6.4741e-05,21.636,6.1856e-05,-0.038636,-0.00019033,-1894.9,1.1178
724,15.532,0.18182,0,0.00019055,1904.2,6.4384e-05,17.988,6.1988e-05,-0.0099612,-0.00019024,-1895.2,1.1171
725,15.347,5.8182,0,0.00019542,1952.9,6.5965e-05,17.681,6.361e-05,-0.0075933,-0.00019511,-1944,1.0944
726,15.347,5.6364,0,0.00019551,1953.7,6.6242e-05,20.653,6.3489e-05,-0.035349,-0.00019515,-1943.3,1.095
727,15.347,5.4545,0,0.00019581,1956.7,6.6674e-05,24.657,6.3391e-05,-0.0062651,-0.00019538,-1944.3,1.0957
728,15.347,5.2727,0,0.00019612,1959.9,6.7085e-05,28.357,6.331e-05,-0.0026203,-0.00019562,-1945.5,1.0962
729,15.347,5.0909,0,0.00019643,1962.9,6.7458e-05,31.638,6.3247e-05,0.002867,-0.00019587,-1946.9,1.0968
730,15.347,4.9091,0,0.00019671,1965.8,6.7787e-05,34.462,6.3201e-05,0.0058669,-0.0001961,-1948.3,1.0973
731,15.347,4.7273,0,0.00019698,1968.4,6.807e-05,36.818,6.317e-05,0.0080522,-0.00019632,-1949.7,1.0977
732,15.347,4.5455,0,0.00019721,1970.7,6.8305e-05,38.72,6.3153e-05,0.0094136,-0.00019652,-1951.1,1.0981
733,15.347,4.3636,0,0.00019741,1972.8,6.8495e-05,40.2,6.3146e-05,0.01023,-0.0001967,-1952.4,1.0985
734,15.347,4.1818,0,0.00019759,1974.5,6.8644e-05,41.303,6.3148e-05,0.010646,-0.00019685,-1953.5,1.0988
735,15.347,4,0,0.00019773,1975.9,6.8756e-05,42.087,6.3156e-05,0.010792,-0.00019698,-1954.6,1.0991
736,15.347,3.8182,0,0.00019784,1977.1,6.8837e-05,42.613,6.3167e-05,0.01077,-0.00019708,-1955.4,1.0993
737,15.347,3.6364,0,0.00019793,1977.9,6.8893e-05,42.944,6.3179e-05,0.010658,-0.00019717,-1956.1,1.0995
738,15.347,3.4545,0,0.00019799,1978.6,6.893e-05,43.136,6.319e-05,0.010522,-0.00019722,-1956.6,1.0996
739,15.347,3.2727,0,0.00019803,1979,6.8951e-05,43.235,6.3199e-05,0.010405,-0.00019726,-1957,1.0997
740,15.347,3.0909,0,0.00019805,1979.2,6.8961e-05,43.276,6.3203e-05,0.010339,-0.00019728,-1957.2,1.0998
741,15.347,2.9091,0,0.00019805,1979.2,6.8961e-05,43.276,6.3203e-05,0.010339,-0.00019728,-1957.2,1.0998
742,15.347,2.7273,0,0.00019803,1979,6.8951e-05,43.235,6.3199e-05,0.010405,-0.00019726,-1957,1.0997
743,15.347,2.5455,0,0.00019799,1978.6,6.893e-05,43.135,6.319e-05,0.010522,-0.00019722,-1956.6,1.0996
744,15.347,2.3636,0,0.00019793,1977.9,6.8893e-05,42.944,6.3179e-05,0.010658,-0.00019717,-1956.1,1.0995
745,15.347,2.1818,0,0.00019784,1977.1,6.8837e-05,42.613,6.3167e-05,0.010769,-0.00019708,-1955.4,1.0993
746,15.347,2,0,0.00019773,1975.9,6.8756e-05,42.087,6.3156e-05,0.010793,-0.00019698,-1954.6,1.0991
747,15.347,1.8182,0,0.00019759,1974.5,6.8644e-05,41.303,6.3148e-05,0.010646,-0.00019685,-1953.5,1.0988
748,15.347,1.6364,0,0.00019741,1972.8,6.8495e-05,40.199,6.3146e-05,0.01023,-0.0001967,-1952.4,1.0985
749,15.347,1.4545,0,0.00019721,1970.7,6.8305e-05,38.72,6.3153e-05,0.0094133,-0.00019652,-1951.1,1.0981
750,15.347,1.2727,0,0.00019698,1968.4,6.807e-05,36.818,6.317e-05,0.0080522,-0.00019632,-1949.7,1.0977
751,15.347,1.0909,0,0.00019671,1965.8,6.7787e-05,34.461,6.3201e-05,0.0058678,-0.0001961,-1948.3,1.0973
752,15.347,0.90909,0,0.00019643,1962.9,6.7458e-05,31.638,6.3247e-05,0.0028685,-0.00019587,-1946.9,1.0968
753,15.347,0.72727,0,0.00019612,1959.9,6.7085e-05,28.357,6.331e-05,-0.0026186,-0.00019562,-1945.5,1.0962
754,15.347,0.54545,0,0.00019581,1956.7,6.6674e-05,24.657,6.3391e-05,-0.006264,-0.00019538,-1944.3,1.0957
755,15.347,0.36364,0,0.00019551,1953.7,6.6242e-05,20.653,6.3489e-05,-0.03535,-0.00019515,-1943.3,1.095
756,15.347,0.18182,0,0.00019542,1952.9,6.5965e-05,17.681,6.361e-05,-0.0075926,-0.00019511,-1944,1.0944
757,15.162,5.8182,0,0.00020026,2001.2,6.7538e-05,17.387,6.5223e-05,-0.0057731,-0.00019996,-1992.5,1.0717
758,15.162,5.6364,0,0.00020029,2001.5,6.7746e-05,19.767,6.5111e-05,-0.032401,-0.00019995,-1991.6,1.0724
759,15.162,5.4545,0,0.00020053,2004,6.8117e-05,23.263,6.502e-05,-0.0063908,-0.00020013,-1992.2,1.0731
760,15.162,5.2727,0,0.00020079,2006.5,6.8474e-05,26.525,6.4943e-05,-0.003041,-0.00020033,-1993.1,1.0737
761,15.162,5.0909,0,0.00020104,2009,6.8799e-05,29.442,6.4881e-05,0.0020538,-0.00020053,-1994.2,1.0742
762,15.162,4.9091,0,0.00020128,2011.4,6.9088e-05,31.977,6.4833e-05,0.0049359,-0.00020072,-1995.2,1.0747
763,15.162,4.7273,0,0.0002015,2013.6,6.9338e-05,34.119,6.4798e-05,0.0070833,-0.0002009,-1996.3,1.0752
764,15.162,4.5455,0,0.00020169,2015.5,6.9548e-05,35.876,6.4775e-05,0.0084804,-0.00020106,-1997.4,1.0756
765,15.162,4.3636,0,0.00020186,2017.2,6.972e-05,37.271,6.4761e-05,0.0093923,-0.0002012,-1998.3,1.076
766,15.162,4.1818,0,0.00020201,2018.7,6.9857e-05,38.34,6.4755e-05,0.0098897,-0.00020133,-1999.2,1.0763
767,15.162,4,0,0.00020213,2019.9,6.9961e-05,39.128,6.4755e-05,0.010142,-0.00020143,-2000,1.0766
768,15.162,3.8182,0,0.00020222,2020.8,7.0039e-05,39.683,6.4759e-05,0.01022,-0.00020152,-2000.7,1.0768
769,15.162,3.6364,0,0.00020229,2021.6,7.0094e-05,40.055,6.4764e-05,0.010201,-0.00020158,-2001.2,1.077
770,15.162,3.4545,0,0.00020235,2022.1,7.0131e-05,40.289,6.477e-05,0.010138,-0.00020163,-2001.6,1.0771
771,15.162,3.2727,0,0.00020238,2022.4,7.0153e-05,40.423,6.4774e-05,0.010072,-0.00020166,-2001.9,1.0772
772,15.162,3.0909,0,0.0002024,2022.6,7.0163e-05,40.482,6.4777e-05,0.010033,-0.00020168,-2002,1.0773
773,15.162,2.9091,0,0.0002024,2022.6,7.0163e-05,40.482,6.4777e-05,0.010032,-0.00020168,-2002,1.0773
774,15.162,2.7273,0,0.00020238,2022.4,7.0153e-05,40.423,6.4774e-05,0.010072,-0.00020166,-2001.9,1.0772
775,15.162,2.5455,0,0.00020235,2022.1,7.0131e-05,40.289,6.477e-05,0.010138,-0.00020163,-2001.6,1.0771
776,15.162,2.3636,0,0.00020229,2021.6,7.0094e-05,40.055,6.4764e-05,0.010201,-0.00020158,-2001.2,1.077
777,15.162,2.1818,0,0.00020222,2020.8,7.0039e-05,39.683,6.4759e-05,0.010221,-0.00020152,-2000.7,1.0768
778,15.162,2,0,0.00020213,2019.9,6.9961e-05,39.128,6.4755e-05,0.010142,-0.00020143,-2000,1.0766
779,15.162,1.8182,0,0.00020201,2018.7,6.9857e-05,38.34,6.4755e-05,0.0098893,-0.00020133,-1999.2,1.0763
780,15.162,1.6364,0,0.00020186,2017.2,6.972e-05,37.271,6.4761e-05,0.0093924,-0.0002012,-1998.3,1.076
781,15.162,1.4545,0,0.00020169,2015.5,6.9548e-05,35.876,6.4775e-05,0.0084803,-0.00020106,-1997.4,1.0756
782,15.162,1.2727,0,0.0002015,2013.6,6.9338e-05,34.119,6.4798e-05,0.0070844,-0.0002009,-1996.3,1.0752
783,15.162,1.0909,0,0.00020128,2011.4,6.9088e-05,31.977,6.4833e-05,0.0049356,-0.00020072,-1995.2,1.0747
784,15.162,0.90909,0,0.00020104,2009,6.8799e-05,29.442,6.4881e-05,0.0020556,-0.00020053,-1994.2,1.0742
785,15.162,0.72727,0,0.00020079,2006.5,6.8474e-05,26.525,6.4943e-05,-0.0030411,-0.00020033,-1993.1,1.0737
786,15.162,0.54545,0,0.00020053,2004,6.8117e-05,23.263,6.502e-05,-0.0063906,-0.00020013,-1992.2,1.0731
787,15.162,0.36364,0,0.00020029,2001.5,6.7746e-05,19.767,6.5111e-05,-0.0324,-0.00019995,-1991.6,1.0724
788,15.162,0.18182,0,0.00020026,2001.2,6.7538e-05,17.387,6.5223e-05,-0.0057737,-0.00019996,-1992.5,1.0717
789,14.977,5.8182,0,0.00020509,2049.5,6.9106e-05,17.103,6.683e-05,-0.0043805,-0.00020479,-2040.9,1.0492
790,14.977,5.6364,0,0.00020506,2049.2,6.9254e-05,18.96,6.6727e-05,-0.029748,-0.00020473,-2039.7,1.0499
791,14.977,5.4545,0,0.00020526,2051.2,6.9571e-05,22.004,6.6642e-05,-0.0064266,-0.00020488,-2040.1,1.0506
792,14.977,5.2727,0,0.00020547,2053.3,6.9879e-05,24.872,6.6569e-05,-0.0033523,-0.00020503,-2040.7,1.0512
793,14.977,5.0909,0,0.00020567,2055.3,7.0162e-05,27.456,6.6508e-05,0.0013806,-0.00020519,-2041.5,1.0518
794,14.977,4.9091,0,0.00020587,2057.3,7.0415e-05,29.723,6.646e-05,0.0041394,-0.00020535,-2042.2,1.0523
795,14.977,4.7273,0,0.00020605,2059.1,7.0635e-05,31.66,6.6422e-05,0.0062416,-0.00020549,-2043.1,1.0527
796,14.977,4.5455,0,0.00020621,2060.7,7.0822e-05,33.271,6.6395e-05,0.0076597,-0.00020562,-2043.8,1.0532
797,14.977,4.3636,0,0.00020635,2062.1,7.0977e-05,34.572,6.6377e-05,0.008612,-0.00020574,-2044.6,1.0535
798,14.977,4.1818,0,0.00020647,2063.3,7.1101e-05,35.591,6.6365e-05,0.009207,-0.00020584,-2045.2,1.0539
799,14.977,4,0,0.00020657,2064.3,7.1198e-05,36.363,6.6359e-05,0.0095497,-0.00020593,-2045.8,1.0542
800,14.977,3.8182,0,0.00020665,2065.1,7.1271e-05,36.926,6.6357e-05,0.0097178,-0.00020599,-2046.3,1.0544
801,14.977,3.6364,0,0.00020671,2065.7,7.1323e-05,37.319,6.6358e-05,0.0097767,-0.00020605,-2046.7,1.0546
802,14.977,3.4545,0,0.00020675,2066.1,7.1359e-05,37.578,6.6359e-05,0.0097776,-0.00020609,-2047,1.0547
803,14.977,3.2727,0,0.00020678,2066.4,7.1381e-05,37.733,6.6361e-05,0.009757,-0.00020611,-2047.2,1.0548
804,14.977,3.0909,0,0.00020679,2066.5,7.1392e-05,37.805,6.6362e-05,0.0097398,-0.00020613,-2047.3,1.0549
805,14.977,2.9091,0,0.00020679,2066.5,7.1392e-05,37.805,6.6362e-05,0.0097407,-0.00020613,-2047.3,1.0549
806,14.977,2.7273,0,0.00020678,2066.4,7.1381e-05,37.733,6.6361e-05,0.0097569,-0.00020611,-2047.2,1.0548
807,14.977,2.5455,0,0.00020675,2066.1,7.1359e-05,37.578,6.6359e-05,0.0097772,-0.00020609,-2047,1.0547
808,14.977,2.3636,0,0.00020671,2065.7,7.1323e-05,37.319,6.6358e-05,0.0097764,-0.00020605,-2046.7,1.0546
809,14.977,2.1818,0,0.00020665,2065.1,7.1271e-05,36.926,6.6357e-05,0.0097179,-0.00020599,-2046.3,1.0544
810,14.977,2,0,0.00020657,2064.3,7.1198e-05,36.363,6.6359e-05,0.00955,-0.00020593,-2045.8,1.0542
811,14.977,1.8182,0,0.00020647,2063.3,7.1101e-05,35.591,6.6365e-05,0.0092073,-0.00020584,-2045.2,1.0539
812,14.977,1.6364,0,0.00020635,2062.1,7.0977e-05,34.572,6.6377e-05,0.0086122,-0.00020574,-2044.6,1.0535
813,14.977,1.4545,0,0.00020621,2060.7,7.0822e-05,33.27,6.6395e-05,0.0076602,-0.00020562,-2043.8,1.0532
814,14.977,1.2727,0,0.00020605,2059.1,7.0635e-05,31.66,6.6422e-05,0.0062431,-0.00020549,-2043.1,1.0527
815,14.977,1.0909,0,0.00020587,2057.3,7.0415e-05,29.723,6.646e-05,0.0041405,-0.00020535,-2042.2,1.0523
816,14.977,0.90909,0,0.00020567,2055.3,7.0162e-05,27.456,6.6508e-05,0.0013819,-0.00020519,-2041.5,1.0518
817,14.977,0.72727,0,0.00020547,2053.3,6.9879e-05,24.872,6.6569e-05,-0.0033508,-0.00020503,-2040.7,1.0512
818,14.977,0.54545,0,0.00020526,2051.2,6.9571e-05,22.004,6.6642e-05,-0.0064265,-0.00020488,-2040.1,1.0506
819,14.977,0.36364,0,0.00020506,2049.2,6.9254e-05,18.96,6.6727e-05,-0.029749,-0.00020473,-2039.7,1.0499
820,14.977,0.18182,0,0.00020509,2049.5,6.9106e-05,17.103,6.683e-05,-0.0043802,-0.00020479,-2040.9,1.0492
821,14.792,5.8182,0,0.0002099,2097.6,7.0672e-05,16.825,6.8432e-05,-0.0033182,-0.00020961,-2089.1,1.0269
822,14.792,5.6364,0,0.00020983,2096.9,7.0767e-05,18.222,6.8338e-05,-0.027354,-0.00020952,-2087.7,1.0276
823,14.792,5.4545,0,0.00020999,2098.4,7.1036e-05,20.859,6.8259e-05,-0.0063925,-0.00020962,-2087.9,1.0283
824,14.792,5.2727,0,0.00021015,2100.1,7.1301e-05,23.37,6.819e-05,-0.0035721,-0.00020975,-2088.3,1.0289
825,14.792,5.0909,0,0.00021032,2101.8,7.1545e-05,25.65,6.8131e-05,0.00082714,-0.00020987,-2088.8,1.0295
826,14.792,4.9091,0,0.00021048,2103.3,7.1765e-05,27.666,6.8083e-05,0.0034647,-0.00020999,-2089.4,1.03
827,14.792,4.7273,0,0.00021062,2104.8,7.1958e-05,29.406,6.8045e-05,0.0055147,-0.00021011,-2089.9,1.0305
828,14.792,4.5455,0,0.00021076,2106.1,7.2123e-05,30.87,6.8016e-05,0.0069411,-0.00021021,-2090.5,1.0309
829,14.792,4.3636,0,0.00021087,2107.3,7.2261e-05,32.071,6.7994e-05,0.0079359,-0.00021031,-2091,1.0313
830,14.792,4.1818,0,0.00021097,2108.2,7.2373e-05,33.028,6.7978e-05,0.0085963,-0.00021039,-2091.5,1.0316
831,14.792,4,0,0.00021105,2109.1,7.2461e-05,33.768,6.7968e-05,0.0090136,-0.00021046,-2092,1.0319
832,14.792,3.8182,0,0.00021112,2109.7,7.2529e-05,34.322,6.7962e-05,0.0092546,-0.00021051,-2092.3,1.0321
833,14.792,3.6364,0,0.00021117,2110.2,7.2579e-05,34.72,6.7959e-05,0.0093819,-0.00021055,-2092.6,1.0323
834,14.792,3.4545,0,0.0002112,2110.6,7.2613e-05,34.989,6.7957e-05,0.009438,-0.00021059,-2092.9,1.0325
835,14.792,3.2727,0,0.00021123,2110.8,7.2634e-05,35.155,6.7957e-05,0.0094561,-0.00021061,-2093,1.0326
836,14.792,3.0909,0,0.00021124,2110.9,7.2645e-05,35.234,6.7957e-05,0.0094593,-0.00021062,-2093.1,1.0326
837,14.792,2.9091,0,0.00021124,2110.9,7.2645e-05,35.234,6.7957e-05,0.0094604,-0.00021062,-2093.1,1.0326
838,14.792,2.7273,0,0.00021123,2110.8,7.2634e-05,35.155,6.7957e-05,0.0094566,-0.00021061,-2093,1.0326
839,14.792,2.5455,0,0.0002112,2110.6,7.2613e-05,34.989,6.7957e-05,0.0094385,-0.00021059,-2092.9,1.0325
840,14.792,2.3636,0,0.00021117,2110.2,7.2579e-05,34.72,6.7959e-05,0.0093818,-0.00021055,-2092.6,1.0323
841,14.792,2.1818,0,0.00021112,2109.7,7.2529e-05,34.322,6.7962e-05,0.0092555,-0.00021051,-2092.3,1.0321
842,14.792,2,0,0.00021105,2109.1,7.2461e-05,33.768,6.7968e-05,0.0090133,-0.00021046,-2092,1.0319
843,14.792,1.8182,0,0.00021097,2108.2,7.2373e-05,33.028,6.7978e-05,0.0085964,-0.00021039,-2091.5,1.0316
844,14.792,1.6364,0,0.00021087,2107.3,7.2261e-05,32.071,6.7994e-05,0.0079361,-0.00021031,-2091,1.0313
845,14.792,1.4545,0,0.00021076,2106.1,7.2123e-05,30.87,6.8016e-05,0.006941,-0.00021021,-2090.5,1.0309
846,14.792,1.2727,0,0.00021062,2104.8,7.1958e-05,29.406,6.8045e-05,0.0055157,-0.00021011,-2089.9,1.0305
847,14.792,1.0909,0,0.00021048,2103.3,7.1765e-05,27.666,6.8083e-05,0.0034653,-0.00020999,-2089.4,1.03
848,14.792,0.90909,0,0.00021032,2101.8,7.1545e-05,25.65,6.8131e-05,0.00082677,-0.00020987,-2088.8,1.0295
849,14.792,0.72727,0,0.00021015,2100.1,7.1301e-05,23.37,6.819e-05,-0.0035702,-0.00020975,-2088.3,1.0289
850,14.792,0.54545,0,0.00020999,2098.4,7.1036e-05,20.859,6.8259e-05,-0.0063913,-0.00020962,-2087.9,1.0283
851,14.792,0.36364,0,0.00020983,2096.9,7.0767e-05,18.221,6.8338e-05,-0.027355,-0.00020952,-2087.7,1.0276
852,14.792,0.18182,0,0.0002099,2097.6,7.0672e-05,16.825,6.8432e-05,-0.0033195,-0.00020961,-2089.1,1.0269
853,14.608,5.8182,0,0.00021471,2145.6,7.2237e-05,16.552,7.0033e-05,-0.0025145,-0.00021443,-2137.3,1.0047
854,14.608,5.6364,0,0.0002146,2144.6,7.2284e-05,17.539,6.9947e-05,-0.025184,-0.0002143,-2135.7,1.0054
855,14.608,5.4545,0,0.00021472,2145.7,7.2511e-05,19.811,6.9873e-05,-0.0063022,-0.00021438,-2135.7,1.0061
856,14.608,5.2727,0,0.00021485,2147,7.2736e-05,21.998,6.9808e-05,-0.003714,-0.00021447,-2135.9,1.0067
857,14.608,5.0909,0,0.00021498,2148.3,7.2946e-05,23.996,6.9752e-05,0.00037441,-0.00021456,-2136.2,1.0073
858,14.608,4.9091,0,0.00021511,2149.6,7.3136e-05,25.777,6.9706e-05,0.0028931,-0.00021466,-2136.6,1.0078
859,14.608,4.7273,0,0.00021523,2150.8,7.3304e-05,27.327,6.9667e-05,0.0048871,-0.00021475,-2137,1.0083
860,14.608,4.5455,0,0.00021533,2151.8,7.3448e-05,28.646,6.9637e-05,0.0063106,-0.00021483,-2137.4,1.0088
861,14.608,4.3636,0,0.00021543,2152.8,7.357e-05,29.741,6.9613e-05,0.0073367,-0.0002149,-2137.7,1.0091
862,14.608,4.1818,0,0.0002155,2153.6,7.367e-05,30.626,6.9595e-05,0.0080483,-0.00021497,-2138.1,1.0095
863,14.608,4,0,0.00021557,2154.2,7.375e-05,31.322,6.9582e-05,0.0085249,-0.00021502,-2138.4,1.0098
864,14.608,3.8182,0,0.00021562,2154.7,7.3811e-05,31.853,6.9573e-05,0.0088303,-0.00021506,-2138.6,1.01
865,14.608,3.6364,0,0.00021566,2155.2,7.3857e-05,32.242,6.9567e-05,0.009013,-0.0002151,-2138.9,1.0102
866,14.608,3.4545,0,0.00021569,2155.5,7.3889e-05,32.511,6.9563e-05,0.0091167,-0.00021512,-2139,1.0104
867,14.608,3.2727,0,0.00021571,2155.6,7.3909e-05,32.679,6.9561e-05,0.0091696,-0.00021514,-2139.1,1.0105
868,14.608,3.0909,0,0.00021572,2155.7,7.3919e-05,32.76,6.956e-05,0.0091906,-0.00021515,-2139.2,1.0105
869,14.608,2.9091,0,0.00021572,2155.7,7.3919e-05,32.76,6.956e-05,0.0091895,-0.00021515,-2139.2,1.0105
870,14.608,2.7273,0,0.00021571,2155.6,7.3909e-05,32.679,6.9561e-05,0.0091692,-0.00021514,-2139.1,1.0105
871,14.608,2.5455,0,0.00021569,2155.5,7.3889e-05,32.511,6.9563e-05,0.0091175,-0.00021512,-2139,1.0104
872,14.608,2.3636,0,0.00021566,2155.2,7.3857e-05,32.242,6.9567e-05,0.0090137,-0.0002151,-2138.9,1.0102
873,14.608,2.1818,0,0.00021562,2154.7,7.3811e-05,31.853,6.9573e-05,0.00883,-0.00021506,-2138.6,1.01
874,14.608,2,0,0.00021557,2154.2,7.3749e-05,31.322,6.9582e-05,0.0085257,-0.00021502,-2138.4,1.0098
875,14.608,1.8182,0,0.0002155,2153.6,7.367e-05,30.626,6.9595e-05,0.0080486,-0.00021497,-2138.1,1.0095
876,14.608,1.6364,0,0.00021543,2152.8,7.357e-05,29.74,6.9613e-05,0.0073375,-0.0002149,-2137.7,1.0091
877,14.608,1.4545,0,0.00021533,2151.8,7.3448e-05,28.646,6.9637e-05,0.0063111,-0.00021483,-2137.4,1.0088
878,14.608,1.2727,0,0.00021523,2150.8,7.3304e-05,27.327,6.9667e-05,0.0048879,-0.00021475,-2137,1.0083
879,14.608,1.0909,0,0.00021511,2149.6,7.3136e-05,25.777,6.9706e-05,0.0028942,-0.00021466,-2136.6,1.0078
880,14.608,0.90909,0,0.00021498,2148.3,7.2946e-05,23.996,6.9752e-05,0.00037542,-0.00021456,-2136.2,1.0073
881,14.608,0.72727,0,0.00021485,2147,7.2736e-05,21.998,6.9808e-05,-0.0037119,-0.00021447,-2135.9,1.0067
882,14.608,0.54545,0,0.00021472,2145.7,7.2511e-05,19.811,6.9873e-05,-0.0063022,-0.00021438,-2135.7,1.0061
883,14.608,0.36364,0,0.0002146,2144.6,7.2284e-05,17.539,6.9947e-05,-0.025183,-0.0002143,-2135.7,1.0054
884,14.608,0.18182,0,0.00021471,2145.6,7.2237e-05,16.552,7.0033e-05,-0.0025143,-0.00021443,-2137.3,1.0047
885,14.423,5.8182,0,0.00021952,2193.7,7.3801e-05,16.281,7.1634e-05,-0.0019115,-0.00021924,-2185.5,0.98262
886,14.423,5.6364,0,0.00021938,2192.3,7.3807e-05,16.902,7.1555e-05,-0.023205,-0.00021909,-2183.8,0.98336
887,14.423,5.4545,0,0.00021946,2193.1,7.3995e-05,18.844,7.1487e-05,-0.0061696,-0.00021914,-2183.6,0.98405
888,14.423,5.2727,0,0.00021956,2194.1,7.4186e-05,20.733,7.1426e-05,-0.0037936,-0.0002192,-2183.7,0.98469
889,14.423,5.0909,0,0.00021966,2195.1,7.4364e-05,22.471,7.1373e-05,9.3099e-06,-0.00021927,-2183.8,0.98528
890,14.423,4.9091,0,0.00021976,2196.1,7.4526e-05,24.03,7.1328e-05,0.0024115,-0.00021934,-2184,0.98582
891,14.423,4.7273,0,0.00021985,2197,7.467e-05,25.398,7.129e-05,0.0043439,-0.00021941,-2184.2,0.98632
892,14.423,4.5455,0,0.00021994,2197.8,7.4795e-05,26.573,7.1259e-05,0.0057602,-0.00021947,-2184.4,0.98676
893,14.423,4.3636,0,0.00022001,2198.6,7.4901e-05,27.557,7.1234e-05,0.0068055,-0.00021953,-2184.7,0.98716
894,14.423,4.1818,0,0.00022007,2199.2,7.4989e-05,28.363,7.1215e-05,0.0075566,-0.00021958,-2184.9,0.98751
895,14.423,4,0,0.00022012,2199.7,7.506e-05,29.005,7.12e-05,0.008082,-0.00021962,-2185.1,0.98781
896,14.423,3.8182,0,0.00022017,2200.1,7.5115e-05,29.502,7.1189e-05,0.0084376,-0.00021965,-2185.2,0.98805
897,14.423,3.6364,0,0.0002202,2200.5,7.5156e-05,29.871,7.1182e-05,0.008669,-0.00021968,-2185.4,0.98825
898,14.423,3.4545,0,0.00022022,2200.7,7.5185e-05,30.131,7.1176e-05,0.0088125,-0.00021969,-2185.5,0.9884
899,14.423,3.2727,0,0.00022024,2200.9,7.5204e-05,30.295,7.1173e-05,0.0088926,-0.00021971,-2185.5,0.9885
900,14.423,3.0909,0,0.00022024,2200.9,7.5213e-05,30.374,7.1172e-05,0.0089287,-0.00021971,-2185.6,0.98855
901,14.423,2.9091,0,0.00022024,2200.9,7.5213e-05,30.374,7.1172e-05,0.0089278,-0.00021971,-2185.6,0.98855
902,14.423,2.7273,0,0.00022024,2200.9,7.5204e-05,30.295,7.1173e-05,0.0088928,-0.00021971,-2185.5,0.9885
903,14.423,2.5455,0,0.00022022,2200.7,7.5185e-05,30.131,7.1176e-05,0.0088127,-0.00021969,-2185.5,0.9884
904,14.423,2.3636,0,0.0002202,2200.5,7.5156e-05,29.871,7.1182e-05,0.0086688,-0.00021968,-2185.4,0.98825
905,14.423,2.1818,0,0.00022017,2200.1,7.5115e-05,29.502,7.1189e-05,0.0084388,-0.00021965,-2185.2,0.98805
906,14.423,2,0,0.00022012,2199.7,7.506e-05,29.005,7.12e-05,0.0080825,-0.00021962,-2185.1,0.98781
907,14.423,1.8182,0,0.00022007,2199.2,7.4989e-05,28.363,7.1215e-05,0.0075564,-0.00021958,-2184.9,0.98751
908,14.423,1.6364,0,0.00022001,2198.6,7.4901e-05,27.557,7.1234e-05,0.0068053,-0.00021953,-2184.7,0.98716
909,14.423,1.4545,0,0.00021994,2197.8,7.4795e-05,26.573,7.1259e-05,0.0057597,-0.00021947,-2184.4,0.98676
910,14.423,1.2727,0,0.00021985,2197,7.467e-05,25.398,7.129e-05,0.0043444,-0.00021941,-2184.2,0.98632
911,14.423,1.0909,0,0.00021976,2196.1,7.4526e-05,24.03,7.1328e-05,0.0024112,-0.00021934,-2184,0.98582
912,14.423,0.90909,0,0.00021966,2195.1,7.4364e-05,22.471,7.1373e-05,1.1504e-05,-0.00021927,-2183.8,0.98528
913,14.423,0.72727,0,0.00021956,2194.1,7.4186e-05,20.733,7.1426e-05,-0.0037922,-0.0002192,-2183.7,0.98469
914,14.423,0.54545,0,0.00021946,2193.1,7.3995e-05,18.844,7.1487e-05,-0.0061687,-0.00021914,-2183.6,0.98405
915,14.423,0.36364,0,0.00021938,2192.3,7.3807e-05,16.902,7.1555e-05,-0.023204,-0.00021909,-2183.8,0.98336
916,14.423,0.18182,0,0.00021952,2193.7,7.3801e-05,16.281,7.1634e-05,-0.0019117,-0.00021924,-2185.5,0.98262
917,14.238,5.8182,0,0.00022434,2241.8,7.5368e-05,16.01,7.3237e-05,-0.0014651,-0.00022406,-2233.8,0.96071
918,14.238,5.6364,0,0.00022416,2240.1,7.5336e-05,16.303,7.3163e-05,-0.021389,-0.00022388,-2231.9,0.96146
919,14.238,5.4545,0,0.00022422,2240.6,7.549e-05,17.943,7.3101e-05,-0.0060023,-0.00022391,-2231.6,0.96216
920,14.238,5.2727,0,0.00022429,2241.3,7.5648e-05,19.558,7.3044e-05,-0.0038193,-0.00022395,-2231.5,0.96281
921,14.238,5.0909,0,0.00022436,2242.1,7.5796e-05,21.054,7.2994e-05,-0.00028426,-0.000224,-2231.5,0.96341
922,14.238,4.9091,0,0.00022444,2242.8,7.5933e-05,22.403,7.2951e-05,0.0020036,-0.00022405,-2231.5,0.96397
923,14.238,4.7273,0,0.0002245,2243.5,7.6055e-05,23.596,7.2915e-05,0.0038753,-0.00022409,-2231.6,0.96447
924,14.238,4.5455,0,0.00022457,2244.1,7.6161e-05,24.627,7.2884e-05,0.0052741,-0.00022414,-2231.7,0.96492
925,14.238,4.3636,0,0.00022462,2244.7,7.6252e-05,25.499,7.2859e-05,0.0063317,-0.00022418,-2231.8,0.96533
926,14.238,4.1818,0,0.00022467,2245.1,7.6328e-05,26.22,7.2839e-05,0.0071132,-0.00022421,-2231.9,0.96568
927,14.238,4,0,0.00022471,2245.5,7.6389e-05,26.8,7.2823e-05,0.0076777,-0.00022424,-2232,0.96598
928,14.238,3.8182,0,0.00022474,2245.9,7.6438e-05,27.254,7.2811e-05,0.0080753,-0.00022427,-2232.1,0.96624
929,14.238,3.6364,0,0.00022477,2246.1,7.6474e-05,27.595,7.2802e-05,0.0083454,-0.00022428,-2232.2,0.96644
930,14.238,3.4545,0,0.00022478,2246.3,7.65e-05,27.838,7.2796e-05,0.0085226,-0.0002243,-2232.2,0.96659
931,14.238,3.2727,0,0.0002248,2246.4,7.6517e-05,27.992,7.2792e-05,0.0086268,-0.00022431,-2232.3,0.96669
932,14.238,3.0909,0,0.0002248,2246.5,7.6525e-05,28.067,7.2791e-05,0.0086742,-0.00022431,-2232.3,0.96674
933,14.238,2.9091,0,0.0002248,2246.5,7.6525e-05,28.067,7.2791e-05,0.0086746,-0.00022431,-2232.3,0.96674
934,14.238,2.7273,0,0.0002248,2246.4,7.6517e-05,27.992,7.2792e-05,0.0086261,-0.00022431,-2232.3,0.96669
935,14.238,2.5455,0,0.00022478,2246.3,7.65e-05,27.838,7.2796e-05,0.0085229,-0.0002243,-2232.2,0.96659
936,14.238,2.3636,0,0.00022477,2246.1,7.6474e-05,27.595,7.2802e-05,0.0083457,-0.00022428,-2232.2,0.96644
937,14.238,2.1818,0,0.00022474,2245.9,7.6438e-05,27.254,7.2811e-05,0.0080751,-0.00022427,-2232.1,0.96624
938,14.238,2,0,0.00022471,2245.5,7.6389e-05,26.8,7.2823e-05,0.0076782,-0.00022424,-2232,0.96598
939,14.238,1.8182,0,0.00022467,2245.1,7.6328e-05,26.22,7.2839e-05,0.0071127,-0.00022421,-2231.9,0.96568
940,14.238,1.6364,0,0.00022462,2244.7,7.6252e-05,25.499,7.2859e-05,0.0063323,-0.00022418,-2231.8,0.96533
941,14.238,1.4545,0,0.00022457,2244.1,7.6161e-05,24.627,7.2884e-05,0.0052745,-0.00022414,-2231.7,0.96492
942,14.238,1.2727,0,0.0002245,2243.5,7.6055e-05,23.596,7.2915e-05,0.0038754,-0.00022409,-2231.6,0.96447
943,14.238,1.0909,0,0.00022444,2242.8,7.5933e-05,22.403,7.2951e-05,0.0020054,-0.00022405,-2231.5,0.96397
944,14.238,0.90909,0,0.00022436,2242.1,7.5796e-05,21.053,7.2994e-05,-0.0002822,-0.000224,-2231.5,0.96341
945,14.238,0.72727,0,0.00022429,2241.3,7.5648e-05,19.558,7.3044e-05,-0.0038168,-0.00022395,-2231.5,0.96281
946,14.238,0.54545,0,0.00022422,2240.6,7.549e-05,17.943,7.3101e-05,-0.006003,-0.00022391,-2231.6,0.96216
947,14.238,0.36364,0,0.00022416,2240.1,7.5336e-05,16.303,7.3163e-05,-0.021387,-0.00022388,-2231.9,0.96146
948,14.238,0.18182,0,0.00022434,2241.8,7.5368e-05,16.01,7.3237e-05,-0.0014653,-0.00022406,-2233.8,0.96071
949,14.053,5.8182,0,0.00022916,2290,7.6936e-05,15.739,7.4841e-05,-0.0011438,-0.00022889,-2282.1,0.93894
950,14.053,5.6364,0,0.00022896,2288,7.6871e-05,15.734,7.4774e-05,-0.019711,-0.00022869,-2280.1,0.93971
951,14.053,5.4545,0,0.00022899,2288.3,7.6992e-05,17.097,7.4716e-05,-0.0058107,-0.00022869,-2279.7,0.94042
952,14.053,5.2727,0,0.00022903,2288.7,7.7121e-05,18.459,7.4664e-05,-0.0038044,-0.00022871,-2279.4,0.94109
953,14.053,5.0909,0,0.00022908,2289.2,7.7243e-05,19.726,7.4617e-05,-0.00051531,-0.00022874,-2279.3,0.9417
954,14.053,4.9091,0,0.00022913,2289.7,7.7355e-05,20.877,7.4577e-05,0.0016609,-0.00022877,-2279.2,0.94226
955,14.053,4.7273,0,0.00022918,2290.2,7.7456e-05,21.899,7.4542e-05,0.0034675,-0.0002288,-2279.2,0.94278
956,14.053,4.5455,0,0.00022922,2290.6,7.7545e-05,22.79,7.4512e-05,0.0048452,-0.00022883,-2279.2,0.94324
957,14.053,4.3636,0,0.00022926,2291,7.7621e-05,23.548,7.4488e-05,0.0059074,-0.00022885,-2279.2,0.94365
958,14.053,4.1818,0,0.0002293,2291.4,7.7684e-05,24.179,7.4467e-05,0.0067106,-0.00022887,-2279.2,0.94401
959,14.053,4,0,0.00022932,2291.7,7.7737e-05,24.691,7.4451e-05,0.0073055,-0.00022889,-2279.2,0.94432
960,14.053,3.8182,0,0.00022935,2291.9,7.7778e-05,25.095,7.4439e-05,0.0077373,-0.00022891,-2279.2,0.94457
961,14.053,3.6364,0,0.00022936,2292.1,7.7809e-05,25.401,7.4429e-05,0.0080408,-0.00022892,-2279.3,0.94478
962,14.053,3.4545,0,0.00022938,2292.2,7.7831e-05,25.62,7.4423e-05,0.0082451,-0.00022893,-2279.3,0.94493
963,14.053,3.2727,0,0.00022939,2292.3,7.7846e-05,25.761,7.4418e-05,0.0083682,-0.00022894,-2279.3,0.94504
964,14.053,3.0909,0,0.00022939,2292.3,7.7853e-05,25.83,7.4416e-05,0.0084271,-0.00022894,-2279.3,0.94509
965,14.053,2.9091,0,0.00022939,2292.3,7.7853e-05,25.83,7.4416e-05,0.0084261,-0.00022894,-2279.3,0.94509
966,14.053,2.7273,0,0.00022939,2292.3,7.7846e-05,25.761,7.4418e-05,0.0083692,-0.00022894,-2279.3,0.94504
967,14.053,2.5455,0,0.00022938,2292.2,7.7831e-05,25.62,7.4423e-05,0.0082448,-0.00022893,-2279.3,0.94493
968,14.053,2.3636,0,0.00022936,2292.1,7.7809e-05,25.401,7.4429e-05,0.0080408,-0.00022892,-2279.3,0.94478
969,14.053,2.1818,0,0.00022935,2291.9,7.7778e-05,25.095,7.4439e-05,0.0077373,-0.00022891,-2279.2,0.94457
970,14.053,2,0,0.00022932,2291.7,7.7737e-05,24.691,7.4451e-05,0.0073062,-0.00022889,-2279.2,0.94432
971,14.053,1.8182,0,0.0002293,2291.4,7.7684e-05,24.179,7.4467e-05,0.00671,-0.00022887,-2279.2,0.94401
972,14.053,1.6364,0,0.00022926,2291,7.7621e-05,23.548,7.4488e-05,0.0059081,-0.00022885,-2279.2,0.94365
973,14.053,1.4545,0,0.00022922,2290.6,7.7545e-05,22.789,7.4512e-05,0.0048461,-0.00022883,-2279.2,0.94324
974,14.053,1.2727,0,0.00022918,2290.2,7.7456e-05,21.899,7.4542e-05,0.0034677,-0.0002288,-2279.2,0.94278
975,14.053,1.0909,0,0.00022913,2289.7,7.7355e-05,20.877,7.4577e-05,0.001661,-0.00022877,-2279.2,0.94226
976,14.053,0.90909,0,0.00022908,2289.2,7.7243e-05,19.726,7.4617e-05,-0.00051471,-0.00022874,-2279.3,0.9417
977,14.053,0.72727,0,0.00022903,2288.7,7.7121e-05,18.459,7.4664e-05,-0.0038022,-0.00022871,-2279.4,0.94109
978,14.053,0.54545,0,0.00022899,2288.3,7.6992e-05,17.097,7.4716e-05,-0.0058098,-0.00022869,-2279.7,0.94042
979,14.053,0.36364,0,0.00022896,2288,7.6871e-05,15.734,7.4774e-05,-0.01971,-0.00022869,-2280.1,0.93971
980,14.053,0.18182,0,0.00022916,2290,7.6936e-05,15.739,7.4841e-05,-0.0011428,-0.00022889,-2282.1,0.93894
981,13.868,5.8182,0,0.00023399,2338.3,7.8507e-05,15.465,7.6449e-05,-0.00091985,-0.00023372,-2330.5,0.91734
982,13.868,5.6364,0,0.00023376,2336,7.8411e-05,15.189,7.6387e-05,-0.018148,-0.0002335,-2328.4,0.91811
983,13.868,5.4545,0,0.00023377,2336.1,7.8504e-05,16.295,7.6334e-05,-0.0055973,-0.00023349,-2327.9,0.91884
984,13.868,5.2727,0,0.00023379,2336.3,7.8605e-05,17.42,7.6286e-05,-0.0037531,-0.00023349,-2327.5,0.91952
985,13.868,5.0909,0,0.00023382,2336.6,7.8702e-05,18.473,7.6243e-05,-0.00069831,-0.0002335,-2327.3,0.92014
986,13.868,4.9091,0,0.00023385,2336.9,7.8791e-05,19.433,7.6205e-05,0.0013701,-0.00023351,-2327.1,0.92071
987,13.868,4.7273,0,0.00023388,2337.1,7.8872e-05,20.291,7.6172e-05,0.0031103,-0.00023352,-2326.9,0.92124
988,13.868,4.5455,0,0.0002339,2337.4,7.8944e-05,21.042,7.6144e-05,0.0044643,-0.00023354,-2326.8,0.92171
989,13.868,4.3636,0,0.00023393,2337.7,7.9005e-05,21.684,7.612e-05,0.0055241,-0.00023355,-2326.7,0.92212
990,13.868,4.1818,0,0.00023395,2337.9,7.9057e-05,22.223,7.61e-05,0.0063426,-0.00023356,-2326.7,0.92249
991,13.868,4,0,0.00023397,2338.1,7.91e-05,22.662,7.6084e-05,0.0069618,-0.00023357,-2326.6,0.9228
992,13.868,3.8182,0,0.00023398,2338.2,7.9133e-05,23.011,7.6072e-05,0.0074199,-0.00023358,-2326.6,0.92306
993,13.868,3.6364,0,0.00023399,2338.3,7.9159e-05,23.277,7.6062e-05,0.0077508,-0.00023359,-2326.6,0.92327
994,13.868,3.4545,0,0.000234,2338.4,7.9178e-05,23.468,7.6055e-05,0.0079774,-0.00023359,-2326.6,0.92343
995,13.868,3.2727,0,0.000234,2338.4,7.9189e-05,23.591,7.6051e-05,0.0081188,-0.00023359,-2326.5,0.92354
996,13.868,3.0909,0,0.00023401,2338.5,7.9195e-05,23.651,7.6049e-05,0.0081861,-0.0002336,-2326.5,0.92359
997,13.868,2.9091,0,0.00023401,2338.5,7.9195e-05,23.651,7.6049e-05,0.0081853,-0.0002336,-2326.5,0.92359
998,13.868,2.7273,0,0.000234,2338.4,7.9189e-05,23.591,7.6051e-05,0.0081187,-0.00023359,-2326.5,0.92354
999,13.868,2.5455,0,0.000234,2338.4,7.9178e-05,23.468,7.6055e-05,0.0079782,-0.00023359,-2326.6,0.92343
1000,13.868,2.3636,0,0.00023399,2338.3,7.9159e-05,23.277,7.6062e-05,0.0077522,-0.00023359,-2326.6,0.92327
1001,13.868,2.1818,0,0.00023398,2338.2,7.9133e-05,23.011,7.6072e-05,0.0074207,-0.00023358,-2326.6,0.92306
1002,13.868,2,0,0.00023397,2338.1,7.91e-05,22.662,7.6084e-05,0.0069619,-0.00023357,-2326.6,0.9228
1003,13.868,1.8182,0,0.00023395,2337.9,7.9057e-05,22.223,7.61e-05,0.0063419,-0.00023356,-2326.7,0.92249
1004,13.868,1.6364,0,0.00023393,2337.7,7.9005e-05,21.684,7.612e-05,0.0055254,-0.00023355,-2326.7,0.92212
1005,13.868,1.4545,0,0.0002339,2337.4,7.8944e-05,21.042,7.6144e-05,0.0044637,-0.00023354,-2326.8,0.92171
1006,13.868,1.2727,0,0.00023388,2337.1,7.8872e-05,20.291,7.6172e-05,0.0031114,-0.00023352,-2326.9,0.92124
1007,13.868,1.0909,0,0.00023385,2336.9,7.8791e-05,19.433,7.6205e-05,0.0013708,-0.00023351,-2327.1,0.92071
1008,13.868,0.90909,0,0.00023382,2336.6,7.8702e-05,18.473,7.6243e-05,-0.00069792,-0.0002335,-2327.3,0.92014
1009,13.868,0.72727,0,0.00023379,2336.3,7.8605e-05,17.42,7.6286e-05,-0.0037514,-0.00023349,-2327.5,0.91952
1010,13.868,0.54545,0,0.00023377,2336.1,7.8504e-05,16.295,7.6334e-05,-0.0055963,-0.00023349,-2327.9,0.91884
1011,13.868,0.36364,0,0.00023376,2336,7.8411e-05,15.189,7.6387e-05,-0.018148,-0.0002335,-2328.4,0.91811
1012,13.868,0.18182,0,0.00023399,2338.3,7.8507e-05,15.465,7.6449e-05,-0.0009196,-0.00023372,-2330.5,0.91734
1013,13.683,5.8182,0,0.00023883,2386.6,8.0081e-05,15.188,7.806e-05,-0.00077548,-0.00023857,-2379,0.89589
1014,13.683,5.6364,0,0.00023858,2384.2,7.9958e-05,14.662,7.8004e-05,-0.016682,-0.00023833,-2376.8,0.89668
1015,13.683,5.4545,0,0.00023857,2384,8.0023e-05,15.528,7.7956e-05,-0.0053679,-0.0002383,-2376.2,0.89742
1016,13.683,5.2727,0,0.00023857,2384,8.0099e-05,16.43,7.7912e-05,-0.0036749,-0.00023828,-2375.8,0.89811
1017,13.683,5.0909,0,0.00023857,2384.1,8.0172e-05,17.279,7.7872e-05,-0.00084054,-0.00023828,-2375.4,0.89874
1018,13.683,4.9091,0,0.00023858,2384.2,8.024e-05,18.057,7.7837e-05,0.0011218,-0.00023827,-2375.1,0.89933
1019,13.683,4.7273,0,0.0002386,2384.3,8.0302e-05,18.755,7.7806e-05,0.0027967,-0.00023827,-2374.9,0.89986
1020,13.683,4.5455,0,0.00023861,2384.4,8.0357e-05,19.367,7.778e-05,0.0041199,-0.00023827,-2374.7,0.90033
1021,13.683,4.3636,0,0.00023862,2384.5,8.0404e-05,19.894,7.7757e-05,0.0051759,-0.00023827,-2374.5,0.90076
1022,13.683,4.1818,0,0.00023863,2384.6,8.0444e-05,20.337,7.7738e-05,0.0060027,-0.00023828,-2374.4,0.90113
1023,13.683,4,0,0.00023864,2384.7,8.0477e-05,20.699,7.7723e-05,0.0066407,-0.00023828,-2374.3,0.90145
1024,13.683,3.8182,0,0.00023864,2384.8,8.0503e-05,20.988,7.771e-05,0.0071221,-0.00023828,-2374.2,0.90172
1025,13.683,3.6364,0,0.00023865,2384.8,8.0523e-05,21.209,7.7701e-05,0.0074746,-0.00023828,-2374.1,0.90193
1026,13.683,3.4545,0,0.00023865,2384.8,8.0537e-05,21.368,7.7694e-05,0.0077218,-0.00023828,-2374.1,0.90209
1027,13.683,3.2727,0,0.00023865,2384.9,8.0546e-05,21.471,7.769e-05,0.0078752,-0.00023828,-2374.1,0.9022
1028,13.683,3.0909,0,0.00023865,2384.9,8.0551e-05,21.522,7.7687e-05,0.0079501,-0.00023828,-2374,0.90225
1029,13.683,2.9091,0,0.00023865,2384.9,8.0551e-05,21.522,7.7687e-05,0.0079495,-0.00023828,-2374,0.90225
1030,13.683,2.7273,0,0.00023865,2384.9,8.0546e-05,21.471,7.769e-05,0.0078755,-0.00023828,-2374.1,0.9022
1031,13.683,2.5455,0,0.00023865,2384.8,8.0537e-05,21.368,7.7694e-05,0.0077207,-0.00023828,-2374.1,0.90209
1032,13.683,2.3636,0,0.00023865,2384.8,8.0523e-05,21.209,7.7701e-05,0.0074742,-0.00023828,-2374.1,0.90193
1033,13.683,2.1818,0,0.00023864,2384.8,8.0503e-05,20.988,7.771e-05,0.0071224,-0.00023828,-2374.2,0.90172
1034,13.683,2,0,0.00023864,2384.7,8.0477e-05,20.699,7.7723e-05,0.0066401,-0.00023828,-2374.3,0.90145
1035,13.683,1.8182,0,0.00023863,2384.6,8.0444e-05,20.336,7.7738e-05,0.0060025,-0.00023828,-2374.4,0.90113
1036,13.683,1.6364,0,0.00023862,2384.5,8.0404e-05,19.894,7.7757e-05,0.0051764,-0.00023827,-2374.5,0.90076
1037,13.683,1.4545,0,0.00023861,2384.4,8.0357e-05,19.367,7.778e-05,0.0041206,-0.00023827,-2374.7,0.90033
1038,13.683,1.2727,0,0.0002386,2384.3,8.0302e-05,18.754,7.7806e-05,0.002797,-0.00023827,-2374.9,0.89986
1039,13.683,1.0909,0,0.00023858,2384.2,8.024e-05,18.057,7.7837e-05,0.0011221,-0.00023827,-2375.1,0.89933
1040,13.683,0.90909,0,0.00023857,2384.1,8.0172e-05,17.279,7.7872e-05,-0.00083969,-0.00023828,-2375.4,0.89874
1041,13.683,0.72727,0,0.00023857,2384,8.0099e-05,16.43,7.7912e-05,-0.0036723,-0.00023828,-2375.8,0.89811
1042,13.683,0.54545,0,0.00023857,2384,8.0023e-05,15.528,7.7956e-05,-0.0053679,-0.0002383,-2376.2,0.89742
1043,13.683,0.36364,0,0.00023858,2384.2,7.9958e-05,14.662,7.8004e-05,-0.016681,-0.00023833,-2376.8,0.89668
1044,13.683,0.18182,0,0.00023883,2386.6,8.0081e-05,15.188,7.806e-05,-0.00077481,-0.00023857,-2379,0.89589
1045,13.498,5.8182,0,0.00024368,2435.1,8.166e-05,14.906,7.9676e-05,-0.00069719,-0.00024343,-2427.7,0.8746
1046,13.498,5.6364,0,0.00024342,2432.5,8.151e-05,14.148,7.9625e-05,-0.015293,-0.00024318,-2425.4,0.87541
1047,13.498,5.4545,0,0.00024338,2432.1,8.155e-05,14.788,7.9582e-05,-0.0051257,-0.00024313,-2424.7,0.87616
1048,13.498,5.2727,0,0.00024336,2431.9,8.1602e-05,15.479,7.9541e-05,-0.0035724,-0.0002431,-2424.2,0.87686
1049,13.498,5.0909,0,0.00024335,2431.8,8.1652e-05,16.133,7.9505e-05,-0.00095058,-0.00024307,-2423.7,0.87751
1050,13.498,4.9091,0,0.00024334,2431.7,8.17e-05,16.734,7.9473e-05,0.00090679,-0.00024305,-2423.3,0.8781
1051,13.498,4.7273,0,0.00024334,2431.7,8.1743e-05,17.275,7.9445e-05,0.0025147,-0.00024304,-2423,0.87864
1052,13.498,4.5455,0,0.00024333,2431.7,8.1782e-05,17.751,7.942e-05,0.0038066,-0.00024303,-2422.7,0.87913
1053,13.498,4.3636,0,0.00024333,2431.6,8.1815e-05,18.161,7.9399e-05,0.0048529,-0.00024302,-2422.5,0.87956
1054,13.498,4.1818,0,0.00024333,2431.6,8.1844e-05,18.506,7.9381e-05,0.0056843,-0.00024301,-2422.3,0.87994
1055,13.498,4,0,0.00024333,2431.6,8.1867e-05,18.789,7.9367e-05,0.0063372,-0.000243,-2422.2,0.88026
1056,13.498,3.8182,0,0.00024333,2431.6,8.1885e-05,19.015,7.9355e-05,0.0068362,-0.000243,-2422,0.88053
1057,13.498,3.6364,0,0.00024333,2431.6,8.1899e-05,19.187,7.9346e-05,0.007209,-0.00024299,-2421.9,0.88075
1058,13.498,3.4545,0,0.00024332,2431.6,8.1909e-05,19.311,7.9339e-05,0.0074712,-0.00024299,-2421.9,0.88091
1059,13.498,3.2727,0,0.00024332,2431.6,8.1915e-05,19.392,7.9335e-05,0.0076379,-0.00024299,-2421.8,0.88102
1060,13.498,3.0909,0,0.00024332,2431.6,8.1918e-05,19.431,7.9333e-05,0.0077179,-0.00024299,-2421.8,0.88107
1061,13.498,2.9091,0,0.00024332,2431.6,8.1918e-05,19.431,7.9333e-05,0.007719,-0.00024299,-2421.8,0.88107
1062,13.498,2.7273,0,0.00024332,2431.6,8.1915e-05,19.392,7.9335e-05,0.0076377,-0.00024299,-2421.8,0.88102
1063,13.498,2.5455,0,0.00024332,2431.6,8.1909e-05,19.311,7.9339e-05,0.0074712,-0.00024299,-2421.9,0.88091
1064,13.498,2.3636,0,0.00024333,2431.6,8.1899e-05,19.187,7.9346e-05,0.0072086,-0.00024299,-2421.9,0.88075
1065,13.498,2.1818,0,0.00024333,2431.6,8.1885e-05,19.014,7.9355e-05,0.0068373,-0.000243,-2422,0.88053
1066,13.498,2,0,0.00024333,2431.6,8.1867e-05,18.789,7.9367e-05,0.0063375,-0.000243,-2422.2,0.88026
1067,13.498,1.8182,0,0.00024333,2431.6,8.1844e-05,18.506,7.9381e-05,0.0056848,-0.00024301,-2422.3,0.87994
1068,13.498,1.6364,0,0.00024333,2431.6,8.1815e-05,18.161,7.9399e-05,0.0048526,-0.00024302,-2422.5,0.87956
1069,13.498,1.4545,0,0.00024333,2431.7,8.1782e-05,17.751,7.942e-05,0.003807,-0.00024303,-2422.7,0.87913
1070,13.498,1.2727,0,0.00024334,2431.7,8.1743e-05,17.275,7.9445e-05,0.002515,-0.00024304,-2423,0.87864
1071,13.498,1.0909,0,0.00024334,2431.7,8.17e-05,16.734,7.9473e-05,0.00090803,-0.00024305,-2423.3,0.8781
1072,13.498,0.90909,0,0.00024335,2431.8,8.1652e-05,16.133,7.9505e-05,-0.00094939,-0.00024307,-2423.7,0.87751
1073,13.498,0.72727,0,0.00024336,2431.9,8.1602e-05,15.479,7.9541e-05,-0.0035716,-0.0002431,-2424.2,0.87686
1074,13.498,0.54545,0,0.00024338,2432.1,8.155e-05,14.788,7.9582e-05,-0.0051265,-0.00024313,-2424.7,0.87616
1075,13.498,0.36364,0,0.00024342,2432.5,8.151e-05,14.148,7.9625e-05,-0.015294,-0.00024318,-2425.4,0.87541
1076,13.498,0.18182,0,0.00024368,2435.1,8.166e-05,14.906,7.9676e-05,-0.0006958,-0.00024343,-2427.7,0.8746
1077,13.313,5.8182,0,0.00024855,2483.8,8.3242e-05,14.618,8.1296e-05,-0.00067302,-0.0002483,-2476.4,0.85348
1078,13.313,5.6364,0,0.00024827,2481,8.3069e-05,13.642,8.1251e-05,-0.013968,-0.00024803,-2474.1,0.8543
1079,13.313,5.4545,0,0.00024821,2480.4,8.3085e-05,14.068,8.1212e-05,-0.0048736,-0.00024797,-2473.3,0.85506
1080,13.313,5.2727,0,0.00024818,2480,8.3113e-05,14.556,8.1175e-05,-0.0034526,-0.00024792,-2472.7,0.85578
1081,13.313,5.0909,0,0.00024815,2479.7,8.3142e-05,15.022,8.1143e-05,-0.0010348,-0.00024789,-2472.2,0.85643
1082,13.313,4.9091,0,0.00024812,2479.5,8.317e-05,15.452,8.1114e-05,0.00071792,-0.00024786,-2471.7,0.85704
1083,13.313,4.7273,0,0.0002481,2479.3,8.3196e-05,15.839,8.1088e-05,0.0022559,-0.00024783,-2471.3,0.85759
1084,13.313,4.5455,0,0.00024808,2479.1,8.3218e-05,16.18,8.1065e-05,0.0035145,-0.00024781,-2471,0.85808
1085,13.313,4.3636,0,0.00024807,2479,8.3238e-05,16.473,8.1046e-05,0.0045476,-0.00024779,-2470.7,0.85852
1086,13.313,4.1818,0,0.00024806,2478.9,8.3254e-05,16.718,8.103e-05,0.0053823,-0.00024777,-2470.5,0.85891
1087,13.313,4,0,0.00024805,2478.8,8.3267e-05,16.919,8.1016e-05,0.0060464,-0.00024775,-2470.3,0.85924
1088,13.313,3.8182,0,0.00024804,2478.7,8.3278e-05,17.078,8.1006e-05,0.0065619,-0.00024774,-2470.1,0.85951
1089,13.313,3.6364,0,0.00024803,2478.6,8.3285e-05,17.198,8.0997e-05,0.0069506,-0.00024773,-2469.9,0.85973
1090,13.313,3.4545,0,0.00024802,2478.5,8.329e-05,17.285,8.0991e-05,0.0072281,-0.00024773,-2469.8,0.8599
1091,13.313,3.2727,0,0.00024802,2478.5,8.3294e-05,17.341,8.0987e-05,0.0074057,-0.00024772,-2469.8,0.86001
1092,13.313,3.0909,0,0.00024802,2478.5,8.3295e-05,17.368,8.0985e-05,0.0074917,-0.00024772,-2469.7,0.86006
1093,13.313,2.9091,0,0.00024802,2478.5,8.3295e-05,17.368,8.0985e-05,0.0074921,-0.00024772,-2469.7,0.86006
1094,13.313,2.7273,0,0.00024802,2478.5,8.3294e-05,17.341,8.0987e-05,0.0074048,-0.00024772,-2469.8,0.86001
1095,13.313,2.5455,0,0.00024802,2478.5,8.329e-05,17.285,8.0991e-05,0.0072281,-0.00024773,-2469.8,0.8599
1096,13.313,2.3636,0,0.00024803,2478.6,8.3285e-05,17.198,8.0997e-05,0.0069508,-0.00024773,-2469.9,0.85973
1097,13.313,2.1818,0,0.00024804,2478.7,8.3278e-05,17.077,8.1006e-05,0.0065622,-0.00024774,-2470.1,0.85951
1098,13.313,2,0,0.00024805,2478.8,8.3267e-05,16.919,8.1016e-05,0.0060472,-0.00024775,-2470.3,0.85924
1099,13.313,1.8182,0,0.00024806,2478.9,8.3254e-05,16.718,8.103e-05,0.0053826,-0.00024777,-2470.5,0.85891
1100,13.313,1.6364,0,0.00024807,2479,8.3238e-05,16.472,8.1046e-05,0.0045479,-0.00024779,-2470.7,0.85852
1101,13.313,1.4545,0,0.00024808,2479.1,8.3218e-05,16.18,8.1065e-05,0.0035147,-0.00024781,-2471,0.85808
1102,13.313,1.2727,0,0.0002481,2479.3,8.3196e-05,15.839,8.1088e-05,0.0022568,-0.00024783,-2471.3,0.85759
1103,13.313,1.0909,0,0.00024812,2479.5,8.317e-05,15.452,8.1114e-05,0.00071871,-0.00024786,-2471.7,0.85704
1104,13.313,0.90909,0,0.00024815,2479.7,8.3142e-05,15.022,8.1143e-05,-0.0010331,-0.00024789,-2472.2,0.85643
1105,13.313,0.72727,0,0.00024818,2480,8.3113e-05,14.556,8.1175e-05,-0.0034518,-0.00024792,-2472.7,0.85578
1106,13.313,0.54545,0,0.00024821,2480.4,8.3085e-05,14.068,8.1212e-05,-0.0048721,-0.00024797,-2473.3,0.85506
1107,13.313,0.36364,0,0.00024827,2481,8.3069e-05,13.642,8.1251e-05,-0.013967,-0.00024803,-2474.1,0.8543
1108,13.313,0.18182,0,0.00024855,2483.8,8.3242e-05,14.618,8.1296e-05,-0.00067289,-0.0002483,-2476.4,0.85348
1109,13.128,5.8182,0,0.00025343,2532.6,8.4829e-05,14.323,8.2922e-05,-0.00069614,-0.00025319,-2525.4,0.83252
1110,13.128,5.6364,0,0.00025314,2529.6,8.4633e-05,13.142,8.2882e-05,-0.012691,-0.00025291,-2523,0.83336
1111,13.128,5.4545,0,0.00025306,2528.9,8.4626e-05,13.361,8.2847e-05,-0.0046106,-0.00025283,-2522.2,0.83414
1112,13.128,5.2727,0,0.00025301,2528.3,8.4632e-05,13.654,8.2815e-05,-0.0033176,-0.00025277,-2521.5,0.83486
1113,13.128,5.0909,0,0.00025296,2527.9,8.4641e-05,13.937,8.2786e-05,-0.0010996,-0.00025272,-2520.9,0.83553
1114,13.128,4.9091,0,0.00025292,2527.5,8.4649e-05,14.199,8.2759e-05,0.00054659,-0.00025268,-2520.3,0.83615
1115,13.128,4.7273,0,0.00025289,2527.1,8.4657e-05,14.435,8.2736e-05,0.0020141,-0.00025264,-2519.9,0.83671
1116,13.128,4.5455,0,0.00025286,2526.8,8.4664e-05,14.64,8.2716e-05,0.0032344,-0.0002526,-2519.5,0.83721
1117,13.128,4.3636,0,0.00025283,2526.5,8.467e-05,14.815,8.2699e-05,0.0042534,-0.00025257,-2519.1,0.83766
1118,13.128,4.1818,0,0.00025281,2526.3,8.4675e-05,14.959,8.2684e-05,0.005088,-0.00025255,-2518.8,0.83805
1119,13.128,4,0,0.00025279,2526.1,8.4678e-05,15.075,8.2672e-05,0.0057626,-0.00025253,-2518.5,0.83838
1120,13.128,3.8182,0,0.00025277,2526,8.468e-05,15.165,8.2662e-05,0.0062928,-0.00025251,-2518.3,0.83866
1121,13.128,3.6364,0,0.00025276,2525.8,8.4681e-05,15.232,8.2655e-05,0.0066971,-0.00025249,-2518.2,0.83889
1122,13.128,3.4545,0,0.00025275,2525.7,8.4682e-05,15.279,8.2649e-05,0.006989,-0.00025248,-2518,0.83905
1123,13.128,3.2727,0,0.00025274,2525.7,8.4682e-05,15.309,8.2645e-05,0.0071773,-0.00025248,-2518,0.83917
1124,13.128,3.0909,0,0.00025274,2525.6,8.4682e-05,15.323,8.2644e-05,0.0072692,-0.00025247,-2517.9,0.83922
1125,13.128,2.9091,0,0.00025274,2525.6,8.4682e-05,15.323,8.2644e-05,0.0072697,-0.00025247,-2517.9,0.83922
1126,13.128,2.7273,0,0.00025274,2525.7,8.4682e-05,15.309,8.2645e-05,0.0071776,-0.00025248,-2518,0.83917
1127,13.128,2.5455,0,0.00025275,2525.7,8.4682e-05,15.279,8.2649e-05,0.0069896,-0.00025248,-2518,0.83905
1128,13.128,2.3636,0,0.00025276,2525.8,8.4681e-05,15.232,8.2655e-05,0.0066973,-0.00025249,-2518.2,0.83889
1129,13.128,2.1818,0,0.00025277,2526,8.468e-05,15.165,8.2662e-05,0.0062938,-0.00025251,-2518.3,0.83866
1130,13.128,2,0,0.00025279,2526.1,8.4678e-05,15.075,8.2672e-05,0.0057625,-0.00025253,-2518.5,0.83838
1131,13.128,1.8182,0,0.00025281,2526.3,8.4675e-05,14.959,8.2684e-05,0.0050888,-0.00025255,-2518.8,0.83805
1132,13.128,1.6364,0,0.00025283,2526.5,8.467e-05,14.815,8.2699e-05,0.0042538,-0.00025257,-2519.1,0.83766
1133,13.128,1.4545,0,0.00025286,2526.8,8.4664e-05,14.64,8.2716e-05,0.0032348,-0.0002526,-2519.5,0.83721
1134,13.128,1.2727,0,0.00025289,2527.1,8.4657e-05,14.435,8.2736e-05,0.0020148,-0.00025264,-2519.9,0.83671
1135,13.128,1.0909,0,0.00025292,2527.5,8.4649e-05,14.199,8.2759e-05,0.00054656,-0.00025268,-2520.3,0.83615
1136,13.128,0.90909,0,0.00025296,2527.9,8.4641e-05,13.937,8.2786e-05,-0.0010988,-0.00025272,-2520.9,0.83553
1137,13.128,0.72727,0,0.00025301,2528.3,8.4632e-05,13.653,8.2815e-05,-0.0033158,-0.00025277,-2521.5,0.83486
1138,13.128,0.54545,0,0.00025306,2528.9,8.4626e-05,13.361,8.2847e-05,-0.0046105,-0.00025283,-2522.2,0.83414
1139,13.128,0.36364,0,0.00025314,2529.6,8.4633e-05,13.142,8.2882e-05,-0.01269,-0.00025291,-2523,0.83336
1140,13.128,0.18182,0,0.00025343,2532.6,8.4829e-05,14.323,8.2922e-05,-0.00069562,-0.00025319,-2525.4,0.83252
1141,12.943,5.8182,0,0.00025833,2581.5,8.642e-05,14.02,8.4554e-05,-0.00076289,-0.00025809,-2574.5,0.81174
1142,12.943,5.6364,0,0.00025802,2578.4,8.6203e-05,12.642,8.4519e-05,-0.011449,-0.0002578,-2572.1,0.81259
1143,12.943,5.4545,0,0.00025793,2577.5,8.6173e-05,12.661,8.4488e-05,-0.0043414,-0.00025771,-2571.1,0.81339
1144,12.943,5.2727,0,0.00025786,2576.8,8.6158e-05,12.763,8.4459e-05,-0.0031732,-0.00025764,-2570.4,0.81412
1145,12.943,5.0909,0,0.00025779,2576.2,8.6147e-05,12.868,8.4434e-05,-0.0011537,-0.00025757,-2569.7,0.8148
1146,12.943,4.9091,0,0.00025774,2575.6,8.6136e-05,12.965,8.4411e-05,0.00038283,-0.00025752,-2569.1,0.81543
1147,12.943,4.7273,0,0.00025769,2575.1,8.6127e-05,13.05,8.4391e-05,0.0017753,-0.00025747,-2568.6,0.816
1148,12.943,4.5455,0,0.00025765,2574.7,8.6119e-05,13.12,8.4373e-05,0.0029568,-0.00025742,-2568.1,0.81651
1149,12.943,4.3636,0,0.00025761,2574.3,8.6111e-05,13.176,8.4358e-05,0.0039576,-0.00025738,-2567.7,0.81696
1150,12.943,4.1818,0,0.00025758,2574,8.6104e-05,13.218,8.4345e-05,0.004794,-0.00025735,-2567.4,0.81736
1151,12.943,4,0,0.00025755,2573.7,8.6097e-05,13.246,8.4334e-05,0.0054778,-0.00025732,-2567.1,0.8177
1152,12.943,3.8182,0,0.00025752,2573.5,8.609e-05,13.265,8.4326e-05,0.0060234,-0.0002573,-2566.8,0.81799
1153,12.943,3.6364,0,0.00025751,2573.3,8.6085e-05,13.275,8.4319e-05,0.0064442,-0.00025728,-2566.6,0.81821
1154,12.943,3.4545,0,0.00025749,2573.1,8.6081e-05,13.281,8.4314e-05,0.0067519,-0.00025726,-2566.5,0.81838
1155,12.943,3.2727,0,0.00025748,2573,8.6078e-05,13.283,8.4311e-05,0.0069506,-0.00025725,-2566.4,0.8185
1156,12.943,3.0909,0,0.00025748,2573,8.6076e-05,13.284,8.4309e-05,0.0070483,-0.00025725,-2566.3,0.81855
1157,12.943,2.9091,0,0.00025748,2573,8.6076e-05,13.284,8.4309e-05,0.0070491,-0.00025725,-2566.3,0.81855
1158,12.943,2.7273,0,0.00025748,2573,8.6078e-05,13.283,8.4311e-05,0.0069504,-0.00025725,-2566.4,0.8185
1159,12.943,2.5455,0,0.00025749,2573.1,8.6081e-05,13.281,8.4314e-05,0.0067511,-0.00025726,-2566.5,0.81838
1160,12.943,2.3636,0,0.00025751,2573.3,8.6085e-05,13.275,8.4319e-05,0.0064447,-0.00025728,-2566.6,0.81821
1161,12.943,2.1818,0,0.00025752,2573.5,8.609e-05,13.265,8.4326e-05,0.0060235,-0.0002573,-2566.8,0.81799
1162,12.943,2,0,0.00025755,2573.7,8.6097e-05,13.246,8.4334e-05,0.0054774,-0.00025732,-2567.1,0.8177
1163,12.943,1.8182,0,0.00025758,2574,8.6104e-05,13.218,8.4345e-05,0.0047946,-0.00025735,-2567.4,0.81736
1164,12.943,1.6364,0,0.00025761,2574.3,8.6111e-05,13.176,8.4358e-05,0.0039588,-0.00025738,-2567.7,0.81696
1165,12.943,1.4545,0,0.00025765,2574.7,8.6119e-05,13.12,8.4373e-05,0.0029571,-0.00025742,-2568.1,0.81651
1166,12.943,1.2727,0,0.00025769,2575.1,8.6127e-05,13.05,8.4391e-05,0.0017765,-0.00025747,-2568.6,0.816
1167,12.943,1.0909,0,0.00025774,2575.6,8.6136e-05,12.965,8.4411e-05,0.00038451,-0.00025752,-2569.1,0.81543
1168,12.943,0.90909,0,0.00025779,2576.2,8.6147e-05,12.868,8.4434e-05,-0.001153,-0.00025757,-2569.7,0.8148
1169,12.943,0.72727,0,0.00025786,2576.8,8.6158e-05,12.763,8.4459e-05,-0.003171,-0.00025764,-2570.4,0.81412
1170,12.943,0.54545,0,0.00025793,2577.5,8.6173e-05,12.661,8.4488e-05,-0.0043412,-0.00025771,-2571.1,0.81339
1171,12.943,0.36364,0,0.00025802,2578.4,8.6203e-05,12.641,8.4519e-05,-0.011449,-0.0002578,-2572.1,0.81259
1172,12.943,0.18182,0,0.00025833,2581.5,8.642e-05,14.02,8.4554e-05,-0.00076304,-0.00025809,-2574.5,0.81174
1173,12.758,5.8182,0,0.00026325,2630.7,8.8016e-05,13.708,8.6192e-05,-0.00086583,-0.00026301,-2623.8,0.79114
1174,12.758,5.6364,0,0.00026292,2627.4,8.7778e-05,12.139,8.6161e-05,-0.010228,-0.00026271,-2621.3,0.792
1175,12.758,5.4545,0,0.00026281,2626.3,8.7727e-05,11.963,8.6134e-05,-0.0040595,-0.00026261,-2620.3,0.79281
1176,12.758,5.2727,0,0.00026273,2625.4,8.7691e-05,11.878,8.611e-05,-0.0030143,-0.00026252,-2619.5,0.79356
1177,12.758,5.0909,0,0.00026265,2624.7,8.766e-05,11.806,8.6088e-05,-0.0011995,-0.00026244,-2618.7,0.79425
1178,12.758,4.9091,0,0.00026258,2624,8.7631e-05,11.739,8.6069e-05,0.00022389,-0.00026238,-2618.1,0.79488
1179,12.758,4.7273,0,0.00026252,2623.3,8.7605e-05,11.674,8.6051e-05,0.0015366,-0.00026231,-2617.5,0.79546
1180,12.758,4.5455,0,0.00026246,2622.8,8.7581e-05,11.609,8.6036e-05,0.002672,-0.00026226,-2617,0.79598
1181,12.758,4.3636,0,0.00026241,2622.3,8.7559e-05,11.544,8.6023e-05,0.0036558,-0.00026221,-2616.5,0.79644
1182,12.758,4.1818,0,0.00026237,2621.9,8.754e-05,11.481,8.6012e-05,0.0044902,-0.00026217,-2616.1,0.79685
1183,12.758,4,0,0.00026233,2621.5,8.7523e-05,11.42,8.6003e-05,0.0051869,-0.00026213,-2615.8,0.7972
1184,12.758,3.8182,0,0.0002623,2621.2,8.7508e-05,11.365,8.5996e-05,0.0057499,-0.0002621,-2615.5,0.79748
1185,12.758,3.6364,0,0.00026228,2620.9,8.7496e-05,11.317,8.599e-05,0.0061908,-0.00026208,-2615.3,0.79772
1186,12.758,3.4545,0,0.00026226,2620.8,8.7486e-05,11.279,8.5986e-05,0.0065159,-0.00026206,-2615.1,0.79789
1187,12.758,3.2727,0,0.00026224,2620.6,8.748e-05,11.252,8.5983e-05,0.0067295,-0.00026205,-2615,0.798
1188,12.758,3.0909,0,0.00026224,2620.6,8.7477e-05,11.239,8.5982e-05,0.0068338,-0.00026204,-2614.9,0.79806
1189,12.758,2.9091,0,0.00026224,2620.6,8.7477e-05,11.239,8.5982e-05,0.0068346,-0.00026204,-2614.9,0.79806
1190,12.758,2.7273,0,0.00026224,2620.6,8.748e-05,11.252,8.5983e-05,0.0067299,-0.00026205,-2615,0.798
1191,12.758,2.5455,0,0.00026226,2620.8,8.7486e-05,11.279,8.5986e-05,0.0065164,-0.00026206,-2615.1,0.79789
1192,12.758,2.3636,0,0.00026228,2620.9,8.7496e-05,11.317,8.599e-05,0.0061908,-0.00026208,-2615.3,0.79772
1193,12.758,2.1818,0,0.0002623,2621.2,8.7508e-05,11.365,8.5996e-05,0.0057503,-0.0002621,-2615.5,0.79748
1194,12.758,2,0,0.00026233,2621.5,8.7523e-05,11.42,8.6003e-05,0.0051869,-0.00026213,-2615.8,0.7972
1195,12.758,1.8182,0,0.00026237,2621.9,8.754e-05,11.481,8.6012e-05,0.0044906,-0.00026217,-2616.1,0.79685
1196,12.758,1.6364,0,0.00026241,2622.3,8.7559e-05,11.544,8.6023e-05,0.0036562,-0.00026221,-2616.5,0.79644
1197,12.758,1.4545,0,0.00026246,2622.8,8.7581e-05,11.609,8.6036e-05,0.0026724,-0.00026226,-2617,0.79598
1198,12.758,1.2727,0,0.00026252,2623.3,8.7605e-05,11.674,8.6051e-05,0.0015369,-0.00026231,-2617.5,0.79546
1199,12.758,1.0909,0,0.00026258,2624,8.7631e-05,11.739,8.6069e-05,0.00022465,-0.00026238,-2618.1,0.79488
1200,12.758,0.90909,0,0.00026265,2624.7,8.766e-05,11.806,8.6088e-05,-0.001197,-0.00026244,-2618.7,0.79425
1201,12.758,0.72727,0,0.00026273,2625.4,8.7691e-05,11.878,8.611e-05,-0.0030136,-0.00026252,-2619.5,0.79356
1202,12.758,0.54545,0,0.00026281,2626.3,8.7727e-05,11.963,8.6134e-05,-0.0040601,-0.00026261,-2620.3,0.79281
1203,12.758,0.36364,0,0.00026292,2627.4,8.7778e-05,12.139,8.6161e-05,-0.010227,-0.00026271,-2621.3,0.792
1204,12.758,0.18182,0,0.00026325,2630.7,8.8016e-05,13.708,8.6192e-05,-0.00086578,-0.00026301,-2623.8,0.79114
1205,12.574,5.8182,0,0.00026818,2680,8.9617e-05,13.386,8.7836e-05,-0.0010208,-0.00026795,-2673.2,0.77071
1206,12.574,5.6364,0,0.00026784,2676.5,8.9359e-05,11.63,8.781e-05,-0.0090319,-0.00026764,-2670.7,0.77159
1207,12.574,5.4545,0,0.00026772,2675.3,8.9287e-05,11.261,8.7787e-05,-0.0037856,-0.00026752,-2669.7,0.77241
1208,12.574,5.2727,0,0.00026761,2674.3,8.923e-05,10.99,8.7767e-05,-0.0028665,-0.00026742,-2668.8,0.77317
1209,12.574,5.0909,0,0.00026752,2673.3,8.9179e-05,10.743,8.7749e-05,-0.001259,-0.00026734,-2668,0.77387
1210,12.574,4.9091,0,0.00026744,2672.5,8.9132e-05,10.512,8.7732e-05,3.7017e-05,-0.00026726,-2667.2,0.77452
1211,12.574,4.7273,0,0.00026736,2671.8,8.9088e-05,10.296,8.7718e-05,0.0012594,-0.00026718,-2666.6,0.77511
1212,12.574,4.5455,0,0.00026729,2671.1,8.9049e-05,10.094,8.7706e-05,0.0023454,-0.00026712,-2666,0.77563
1213,12.574,4.3636,0,0.00026723,2670.5,8.9014e-05,9.9075,8.7695e-05,0.0033078,-0.00026706,-2665.5,0.7761
1214,12.574,4.1818,0,0.00026718,2669.9,8.8982e-05,9.7373,8.7687e-05,0.0041431,-0.00026701,-2665.1,0.77652
1215,12.574,4,0,0.00026713,2669.5,8.8954e-05,9.5853,8.7679e-05,0.0048554,-0.00026697,-2664.7,0.77687
1216,12.574,3.8182,0,0.0002671,2669.1,8.8931e-05,9.4539,8.7673e-05,0.0054424,-0.00026693,-2664.4,0.77716
1217,12.574,3.6364,0,0.00026706,2668.8,8.8912e-05,9.3453,8.7669e-05,0.0059106,-0.0002669,-2664.1,0.7774
1218,12.574,3.4545,0,0.00026704,2668.6,8.8897e-05,9.2617,8.7665e-05,0.0062597,-0.00026688,-2663.9,0.77757
1219,12.574,3.2727,0,0.00026703,2668.4,8.8887e-05,9.2049,8.7663e-05,0.0064918,-0.00026687,-2663.8,0.77769
1220,12.574,3.0909,0,0.00026702,2668.3,8.8882e-05,9.1762,8.7662e-05,0.0066074,-0.00026686,-2663.7,0.77775
1221,12.574,2.9091,0,0.00026702,2668.3,8.8882e-05,9.1762,8.7662e-05,0.0066074,-0.00026686,-2663.7,0.77775
1222,12.574,2.7273,0,0.00026703,2668.4,8.8887e-05,9.2049,8.7663e-05,0.0064918,-0.00026687,-2663.8,0.77769
1223,12.574,2.5455,0,0.00026704,2668.6,8.8897e-05,9.2617,8.7665e-05,0.0062603,-0.00026688,-2663.9,0.77757
1224,12.574,2.3636,0,0.00026706,2668.8,8.8912e-05,9.3453,8.7669e-05,0.0059103,-0.0002669,-2664.1,0.7774
1225,12.574,2.1818,0,0.0002671,2669.1,8.8931e-05,9.4539,8.7673e-05,0.0054428,-0.00026693,-2664.4,0.77716
1226,12.574,2,0,0.00026713,2669.5,8.8954e-05,9.5853,8.7679e-05,0.0048553,-0.00026697,-2664.7,0.77687
1227,12.574,1.8182,0,0.00026718,2669.9,8.8982e-05,9.7372,8.7687e-05,0.0041427,-0.00026701,-2665.1,0.77652
1228,12.574,1.6364,0,0.00026723,2670.5,8.9014e-05,9.9075,8.7695e-05,0.0033077,-0.00026706,-2665.5,0.7761
1229,12.574,1.4545,0,0.00026729,2671.1,8.9049e-05,10.094,8.7706e-05,0.0023464,-0.00026712,-2666,0.77563
1230,12.574,1.2727,0,0.00026736,2671.8,8.9088e-05,10.296,8.7718e-05,0.0012604,-0.00026718,-2666.6,0.77511
1231,12.574,1.0909,0,0.00026744,2672.5,8.9132e-05,10.512,8.7732e-05,3.775e-05,-0.00026726,-2667.2,0.77452
1232,12.574,0.90909,0,0.00026752,2673.3,8.9179e-05,10.743,8.7749e-05,-0.0012578,-0.00026734,-2668,0.77387
1233,12.574,0.72727,0,0.00026761,2674.3,8.923e-05,10.99,8.7767e-05,-0.0028651,-0.00026742,-2668.8,0.77317
1234,12.574,0.54545,0,0.00026772,2675.3,8.9287e-05,11.261,8.7787e-05,-0.0037848,-0.00026752,-2669.7,0.77241
1235,12.574,0.36364,0,0.00026784,2676.5,8.9359e-05,11.63,8.781e-05,-0.0090318,-0.00026764,-2670.7,0.77159
1236,12.574,0.18182,0,0.00026818,2680,8.9617e-05,13.386,8.7836e-05,-0.0010207,-0.00026795,-2673.2,0.77071
1237,12.389,5.8182,0,0.00027313,2729.4,9.1223e-05,13.053,8.9486e-05,-0.001208,-0.00027291,-2722.9,0.75046
1238,12.389,5.6364,0,0.00027278,2725.9,9.0945e-05,11.112,8.9465e-05,-0.007832,-0.00027259,-2720.3,0.75136
1239,12.389,5.4545,0,0.00027264,2724.5,9.0851e-05,10.55,8.9447e-05,-0.0034946,-0.00027246,-2719.2,0.75219
1240,12.389,5.2727,0,0.00027252,2723.3,9.0774e-05,10.094,8.943e-05,-0.0027083,-0.00027235,-2718.2,0.75297
1241,12.389,5.0909,0,0.00027241,2722.2,9.0703e-05,9.671,8.9416e-05,-0.001324,-0.00027224,-2717.4,0.75368
1242,12.389,4.9091,0,0.00027231,2721.2,9.0638e-05,9.2752,8.9403e-05,-0.00017075,-0.00027215,-2716.6,0.75434
1243,12.389,4.7273,0,0.00027222,2720.3,9.0577e-05,8.9066,8.9392e-05,0.00094578,-0.00027207,-2715.9,0.75493
1244,12.389,4.5455,0,0.00027214,2719.5,9.0522e-05,8.566,8.9383e-05,0.0019698,-0.000272,-2715.3,0.75547
1245,12.389,4.3636,0,0.00027207,2718.8,9.0473e-05,8.2549,8.9375e-05,0.0029025,-0.00027193,-2714.7,0.75595
1246,12.389,4.1818,0,0.00027201,2718.2,9.0429e-05,7.9751,8.9368e-05,0.0037398,-0.00027187,-2714.2,0.75637
1247,12.389,4,0,0.00027195,2717.7,9.039e-05,7.729,8.9362e-05,0.004474,-0.00027182,-2713.8,0.75672
1248,12.389,3.8182,0,0.00027191,2717.2,9.0358e-05,7.5191,8.9358e-05,0.0050973,-0.00027178,-2713.5,0.75702
1249,12.389,3.6364,0,0.00027187,2716.9,9.0332e-05,7.3476,8.9355e-05,0.005607,-0.00027175,-2713.2,0.75726
1250,12.389,3.4545,0,0.00027185,2716.6,9.0312e-05,7.2169,8.9352e-05,0.0059954,-0.00027172,-2713,0.75744
1251,12.389,3.2727,0,0.00027183,2716.4,9.0298e-05,7.1287,8.935e-05,0.0062567,-0.00027171,-2712.8,0.75756
1252,12.389,3.0909,0,0.00027182,2716.3,9.0292e-05,7.0843,8.935e-05,0.006388,-0.0002717,-2712.8,0.75762
1253,12.389,2.9091,0,0.00027182,2716.3,9.0292e-05,7.0842,8.935e-05,0.0063882,-0.0002717,-2712.8,0.75762
1254,12.389,2.7273,0,0.00027183,2716.4,9.0298e-05,7.1287,8.935e-05,0.0062562,-0.00027171,-2712.8,0.75756
1255,12.389,2.5455,0,0.00027185,2716.6,9.0312e-05,7.2169,8.9352e-05,0.0059957,-0.00027172,-2713,0.75744
1256,12.389,2.3636,0,0.00027187,2716.9,9.0332e-05,7.3476,8.9355e-05,0.0056069,-0.00027175,-2713.2,0.75726
1257,12.389,2.1818,0,0.00027191,2717.2,9.0358e-05,7.519,8.9358e-05,0.0050983,-0.00027178,-2713.5,0.75702
1258,12.389,2,0,0.00027195,2717.7,9.039e-05,7.729,8.9362e-05,0.0044738,-0.00027182,-2713.8,0.75672
1259,12.389,1.8182,0,0.00027201,2718.2,9.0429e-05,7.9751,8.9368e-05,0.00374,-0.00027187,-2714.2,0.75637
1260,12.389,1.6364,0,0.00027207,2718.8,9.0473e-05,8.2548,8.9375e-05,0.0029032,-0.00027193,-2714.7,0.75595
1261,12.389,1.4545,0,0.00027214,2719.5,9.0522e-05,8.5659,8.9383e-05,0.0019696,-0.000272,-2715.3,0.75547
1262,12.389,1.2727,0,0.00027222,2720.3,9.0577e-05,8.9065,8.9392e-05,0.00094626,-0.00027207,-2715.9,0.75493
1263,12.389,1.0909,0,0.00027231,2721.2,9.0638e-05,9.2751,8.9403e-05,-0.00017043,-0.00027215,-2716.6,0.75434
1264,12.389,0.90909,0,0.00027241,2722.2,9.0703e-05,9.6709,8.9416e-05,-0.0013219,-0.00027224,-2717.4,0.75368
1265,12.389,0.72727,0,0.00027252,2723.3,9.0774e-05,10.094,8.943e-05,-0.0027072,-0.00027235,-2718.2,0.75297
1266,12.389,0.54545,0,0.00027264,2724.5,9.0851e-05,10.55,8.9447e-05,-0.0034953,-0.00027246,-2719.2,0.75219
1267,12.389,0.36364,0,0.00027278,2725.9,9.0945e-05,11.112,8.9465e-05,-0.0078314,-0.00027259,-2720.3,0.75136
1268,12.389,0.18182,0,0.00027313,2729.4,9.1223e-05,13.053,8.9486e-05,-0.0012075,-0.00027291,-2722.9,0.75046
1269,12.204,5.8182,0,0.0002781,2779.1,9.2834e-05,12.707,9.1143e-05,-0.0014078,-0.00027788,-2772.7,0.7304
1270,12.204,5.6364,0,0.00027773,2775.4,9.2536e-05,10.582,9.1127e-05,-0.0065938,-0.00027755,-2770.1,0.73131
1271,12.204,5.4545,0,0.00027758,2773.8,9.2421e-05,9.8266,9.1113e-05,-0.0031652,-0.00027741,-2768.9,0.73216
1272,12.204,5.2727,0,0.00027744,2772.5,9.2323e-05,9.1834,9.1101e-05,-0.0025233,-0.00027729,-2767.9,0.73295
1273,12.204,5.0909,0,0.00027732,2771.3,9.2232e-05,8.5823,9.109e-05,-0.0013858,-0.00027717,-2767,0.73367
1274,12.204,4.9091,0,0.00027721,2770.2,9.2148e-05,8.0194,9.1081e-05,-0.00040483,-0.00027707,-2766.1,0.73434
1275,12.204,4.7273,0,0.0002771,2769.1,9.2071e-05,7.4958,9.1073e-05,0.00057623,-0.00027698,-2765.4,0.73495
1276,12.204,4.5455,0,0.00027701,2768.2,9.2e-05,7.0136,9.1066e-05,0.0015097,-0.00027689,-2764.7,0.73549
1277,12.204,4.3636,0,0.00027693,2767.4,9.1936e-05,6.5751,9.1061e-05,0.0023993,-0.00027682,-2764.1,0.73598
1278,12.204,4.1818,0,0.00027686,2766.7,9.1879e-05,6.1829,9.1057e-05,0.0032334,-0.00027675,-2763.6,0.7364
1279,12.204,4,0,0.00027679,2766,9.183e-05,5.8397,9.1053e-05,0.0039985,-0.00027669,-2763.1,0.73677
1280,12.204,3.8182,0,0.00027674,2765.5,9.1788e-05,5.5485,9.105e-05,0.0046798,-0.00027665,-2762.7,0.73707
1281,12.204,3.6364,0,0.0002767,2765.1,9.1754e-05,5.3118,9.1048e-05,0.0052591,-0.00027661,-2762.4,0.73731
1282,12.204,3.4545,0,0.00027667,2764.8,9.1729e-05,5.1321,9.1047e-05,0.0057175,-0.00027658,-2762.2,0.73749
1283,12.204,3.2727,0,0.00027665,2764.6,9.1712e-05,5.0111,9.1046e-05,0.0060349,-0.00027656,-2762.1,0.73761
1284,12.204,3.0909,0,0.00027664,2764.5,9.1703e-05,4.9503,9.1045e-05,0.0061979,-0.00027655,-2762,0.73767
1285,12.204,2.9091,0,0.00027664,2764.5,9.1703e-05,4.9503,9.1045e-05,0.0061977,-0.00027655,-2762,0.73767
1286,12.204,2.7273,0,0.00027665,2764.6,9.1712e-05,5.0111,9.1046e-05,0.0060358,-0.00027656,-2762.1,0.73761
1287,12.204,2.5455,0,0.00027667,2764.8,9.1729e-05,5.1321,9.1047e-05,0.0057178,-0.00027658,-2762.2,0.73749
1288,12.204,2.3636,0,0.0002767,2765.1,9.1754e-05,5.3118,9.1048e-05,0.0052596,-0.00027661,-2762.4,0.73731
1289,12.204,2.1818,0,0.00027674,2765.5,9.1788e-05,5.5485,9.105e-05,0.0046801,-0.00027665,-2762.7,0.73707
1290,12.204,2,0,0.00027679,2766,9.183e-05,5.8397,9.1053e-05,0.0039994,-0.00027669,-2763.1,0.73677
1291,12.204,1.8182,0,0.00027686,2766.7,9.1879e-05,6.1828,9.1057e-05,0.003233,-0.00027675,-2763.6,0.7364
1292,12.204,1.6364,0,0.00027693,2767.4,9.1936e-05,6.575,9.1061e-05,0.0023996,-0.00027682,-2764.1,0.73598
1293,12.204,1.4545,0,0.00027701,2768.2,9.2e-05,7.0136,9.1066e-05,0.0015104,-0.00027689,-2764.7,0.73549
1294,12.204,1.2727,0,0.0002771,2769.1,9.2071e-05,7.4958,9.1073e-05,0.00057648,-0.00027698,-2765.4,0.73495
1295,12.204,1.0909,0,0.00027721,2770.2,9.2148e-05,8.0193,9.1081e-05,-0.00040381,-0.00027707,-2766.1,0.73434
1296,12.204,0.90909,0,0.00027732,2771.3,9.2232e-05,8.5822,9.109e-05,-0.0013846,-0.00027717,-2767,0.73367
1297,12.204,0.72727,0,0.00027744,2772.5,9.2323e-05,9.1834,9.1101e-05,-0.002522,-0.00027729,-2767.9,0.73295
1298,12.204,0.54545,0,0.00027758,2773.8,9.2421e-05,9.8265,9.1113e-05,-0.0031654,-0.00027741,-2768.9,0.73216
1299,12.204,0.36364,0,0.00027773,2775.4,9.2536e-05,10.582,9.1127e-05,-0.0065919,-0.00027755,-2770.1,0.73131
1300,12.204,0.18182,0,0.0002781,2779.1,9.2834e-05,12.707,9.1143e-05,-0.0014075,-0.00027788,-2772.7,0.7304
1301,12.019,5.8182,0,0.00028309,2828.9,9.4451e-05,12.348,9.2807e-05,-0.0016821,-0.00028288,-2822.7,0.71053
1302,12.019,5.6364,0,0.00028271,2825.1,9.4132e-05,10.037,9.2795e-05,-0.0053683,-0.00028254,-2820.1,0.71146
1303,12.019,5.4545,0,0.00028254,2823.4,9.3995e-05,9.0844,9.2786e-05,-0.0028563,-0.00028238,-2818.8,0.71232
1304,12.019,5.2727,0,0.00028239,2821.9,9.3876e-05,8.2513,9.2778e-05,-0.002377,-0.00028224,-2817.8,0.71312
1305,12.019,5.0909,0,0.00028225,2820.5,9.3766e-05,7.4691,9.2771e-05,-0.0015262,-0.00028212,-2816.8,0.71386
1306,12.019,4.9091,0,0.00028212,2819.3,9.3662e-05,6.7358,9.2766e-05,-0.00077085,-0.00028201,-2815.9,0.71453
1307,12.019,4.7273,0,0.000282,2818.1,9.3567e-05,6.0538,9.2761e-05,8.7322e-06,-0.0002819,-2815.1,0.71515
1308,12.019,4.5455,0,0.0002819,2817,9.348e-05,5.4264,9.2758e-05,0.00078817,-0.00028181,-2814.3,0.7157
1309,12.019,4.3636,0,0.00028181,2816.1,9.3401e-05,4.8569,9.2755e-05,0.0015752,-0.00028172,-2813.7,0.7162
1310,12.019,4.1818,0,0.00028172,2815.3,9.3332e-05,4.3487,9.2753e-05,0.0023691,-0.00028165,-2813.1,0.71663
1311,12.019,4,0,0.00028165,2814.6,9.3271e-05,3.9051,9.2752e-05,0.0031611,-0.00028158,-2812.6,0.717
1312,12.019,3.8182,0,0.00028159,2814,9.322e-05,3.5296,9.2751e-05,0.0039324,-0.00028153,-2812.2,0.7173
1313,12.019,3.6364,0,0.00028154,2813.5,9.3179e-05,3.2251,9.275e-05,0.0046487,-0.00028149,-2811.9,0.71755
1314,12.019,3.4545,0,0.00028151,2813.1,9.3147e-05,2.9943,9.275e-05,0.0052672,-0.00028146,-2811.6,0.71773
1315,12.019,3.2727,0,0.00028148,2812.9,9.3126e-05,2.8391,9.2749e-05,0.0057246,-0.00028143,-2811.5,0.71786
1316,12.019,3.0909,0,0.00028147,2812.8,9.3116e-05,2.7612,9.2749e-05,0.0059702,-0.00028142,-2811.4,0.71792
1317,12.019,2.9091,0,0.00028147,2812.8,9.3116e-05,2.7612,9.2749e-05,0.0059704,-0.00028142,-2811.4,0.71792
1318,12.019,2.7273,0,0.00028148,2812.9,9.3126e-05,2.8391,9.2749e-05,0.0057247,-0.00028143,-2811.5,0.71786
1319,12.019,2.5455,0,0.00028151,2813.1,9.3147e-05,2.9942,9.275e-05,0.0052668,-0.00028146,-2811.6,0.71773
1320,12.019,2.3636,0,0.00028154,2813.5,9.3179e-05,3.2251,9.275e-05,0.0046493,-0.00028149,-2811.9,0.71755
1321,12.019,2.1818,0,0.00028159,2814,9.322e-05,3.5296,9.2751e-05,0.0039321,-0.00028153,-2812.2,0.7173
1322,12.019,2,0,0.00028165,2814.6,9.3271e-05,3.9051,9.2752e-05,0.0031617,-0.00028158,-2812.6,0.717
1323,12.019,1.8182,0,0.00028172,2815.3,9.3332e-05,4.3486,9.2753e-05,0.0023696,-0.00028165,-2813.1,0.71663
1324,12.019,1.6364,0,0.00028181,2816.1,9.3401e-05,4.8569,9.2755e-05,0.0015755,-0.00028172,-2813.7,0.7162
1325,12.019,1.4545,0,0.0002819,2817,9.348e-05,5.4264,9.2758e-05,0.00078823,-0.00028181,-2814.3,0.7157
1326,12.019,1.2727,0,0.000282,2818.1,9.3567e-05,6.0538,9.2761e-05,9.2079e-06,-0.0002819,-2815.1,0.71515
1327,12.019,1.0909,0,0.00028212,2819.3,9.3662e-05,6.7357,9.2766e-05,-0.00077008,-0.00028201,-2815.9,0.71453
1328,12.019,0.90909,0,0.00028225,2820.5,9.3766e-05,7.4691,9.2771e-05,-0.0015251,-0.00028212,-2816.8,0.71386
1329,12.019,0.72727,0,0.00028239,2821.9,9.3876e-05,8.2513,9.2778e-05,-0.0023759,-0.00028224,-2817.8,0.71312
1330,12.019,0.54545,0,0.00028254,2823.4,9.3995e-05,9.0843,9.2786e-05,-0.0028572,-0.00028238,-2818.8,0.71232
1331,12.019,0.36364,0,0.00028271,2825.1,9.4132e-05,10.037,9.2795e-05,-0.005368,-0.00028254,-2820.1,0.71146
1332,12.019,0.18182,0,0.00028309,2828.9,9.4451e-05,12.348,9.2807e-05,-0.0016804,-0.00028288,-2822.7,0.71053
1333,11.834,5.8182,0,0.0002881,2879,9.6072e-05,11.974,9.4478e-05,-0.0020167,-0.00028789,-2873,0.69085
1334,11.834,5.6364,0,0.0002877,2875,9.5733e-05,9.473,9.4471e-05,-0.0041246,-0.00028754,-2870.3,0.69179
1335,11.834,5.4545,0,0.00028751,2873.1,9.5574e-05,8.3195,9.4466e-05,-0.0025462,-0.00028737,-2869,0.69267
1336,11.834,5.2727,0,0.00028735,2871.5,9.5434e-05,7.292,9.4463e-05,-0.0022599,-0.00028722,-2867.8,0.69348
1337,11.834,5.0909,0,0.00028719,2870,9.5302e-05,6.3242,9.446e-05,-0.001763,-0.00028709,-2866.8,0.69423
1338,11.834,4.9091,0,0.00028705,2868.5,9.518e-05,5.4159,9.4459e-05,-0.0013441,-0.00028696,-2865.8,0.69492
1339,11.834,4.7273,0,0.00028692,2867.2,9.5066e-05,4.5711,9.4458e-05,-0.00092342,-0.00028684,-2865,0.69554
1340,11.834,4.5455,0,0.0002868,2866.1,9.4962e-05,3.7942,9.4457e-05,-0.00051202,-0.00028674,-2864.2,0.69611
1341,11.834,4.3636,0,0.0002867,2865,9.4869e-05,3.0895,9.4457e-05,-8.8922e-05,-0.00028665,-2863.5,0.69661
1342,11.834,4.1818,0,0.00028661,2864.1,9.4785e-05,2.4614,9.4458e-05,0.0003661,-0.00028656,-2862.8,0.69704
1343,11.834,4,0,0.00028653,2863.3,9.4713e-05,1.914,9.4459e-05,0.00088877,-0.00028649,-2862.3,0.69742
1344,11.834,3.8182,0,0.00028646,2862.6,9.4652e-05,1.451,9.4459e-05,0.0015254,-0.00028643,-2861.9,0.69773
1345,11.834,3.6364,0,0.0002864,2862.1,9.4603e-05,1.0759,9.446e-05,0.0023493,-0.00028639,-2861.5,0.69798
1346,11.834,3.4545,0,0.00028636,2861.7,9.4566e-05,0.79143,9.4461e-05,0.0034188,-0.00028635,-2861.3,0.69817
1347,11.834,3.2727,0,0.00028634,2861.4,9.4541e-05,0.59993,9.4461e-05,0.0046614,-0.00028633,-2861.1,0.69829
1348,11.834,3.0909,0,0.00028632,2861.2,9.4528e-05,0.50344,9.4462e-05,0.0056292,-0.00028631,-2861,0.69836
1349,11.834,2.9091,0,0.00028632,2861.2,9.4528e-05,0.50344,9.4462e-05,0.005629,-0.00028631,-2861,0.69836
1350,11.834,2.7273,0,0.00028634,2861.4,9.4541e-05,0.59992,9.4461e-05,0.0046623,-0.00028633,-2861.1,0.69829
1351,11.834,2.5455,0,0.00028636,2861.7,9.4566e-05,0.79141,9.4461e-05,0.0034194,-0.00028635,-2861.3,0.69817
1352,11.834,2.3636,0,0.0002864,2862.1,9.4603e-05,1.0759,9.446e-05,0.0023492,-0.00028639,-2861.5,0.69798
1353,11.834,2.1818,0,0.00028646,2862.6,9.4652e-05,1.451,9.4459e-05,0.0015259,-0.00028643,-2861.9,0.69773
1354,11.834,2,0,0.00028653,2863.3,9.4713e-05,1.914,9.4459e-05,0.00088848,-0.00028649,-2862.3,0.69742
1355,11.834,1.8182,0,0.00028661,2864.1,9.4785e-05,2.4614,9.4458e-05,0.00036687,-0.00028656,-2862.8,0.69704
1356,11.834,1.6364,0,0.0002867,2865,9.4869e-05,3.0895,9.4457e-05,-8.921e-05,-0.00028665,-2863.5,0.69661
1357,11.834,1.4545,0,0.0002868,2866.1,9.4962e-05,3.7941,9.4457e-05,-0.00051101,-0.00028674,-2864.2,0.69611
1358,11.834,1.2727,0,0.00028692,2867.2,9.5066e-05,4.5711,9.4458e-05,-0.00092287,-0.00028684,-2865,0.69554
1359,11.834,1.0909,0,0.00028705,2868.5,9.518e-05,5.4158,9.4459e-05,-0.0013433,-0.00028696,-2865.8,0.69492
1360,11.834,0.90909,0,0.00028719,2870,9.5302e-05,6.3241,9.446e-05,-0.0017621,-0.00028709,-2866.8,0.69423
1361,11.834,0.72727,0,0.00028735,2871.5,9.5434e-05,7.2919,9.4463e-05,-0.0022591,-0.00028722,-2867.8,0.69348
1362,11.834,0.54545,0,0.00028751,2873.1,9.5574e-05,8.3195,9.4466e-05,-0.0025465,-0.00028737,-2869,0.69267
1363,11.834,0.36364,0,0.0002877,2875,9.5733e-05,9.4729,9.4471e-05,-0.004125,-0.00028754,-2870.3,0.69179
1364,11.834,0.18182,0,0.0002881,2879,9.6072e-05,11.974,9.4478e-05,-0.0020152,-0.00028789,-2873,0.69085
1365,11.649,5.8182,0,0.00029312,2929.2,9.7698e-05,11.583,9.6156e-05,-0.0023975,-0.00029292,-2923.4,0.67137
1366,11.649,5.6364,0,0.00029271,2925.1,9.7338e-05,8.8878,9.6155e-05,-0.0028318,-0.00029256,-2920.7,0.67232
1367,11.649,5.4545,0,0.00029251,2923.1,9.7157e-05,7.5272,9.6155e-05,-0.0022117,-0.00029238,-2919.3,0.67321
1368,11.649,5.2727,0,0.00029233,2921.2,9.6994e-05,6.2993,9.6155e-05,-0.0021679,-0.00029222,-2918.1,0.67404
1369,11.649,5.0909,0,0.00029216,2919.6,9.6841e-05,5.1401,9.6157e-05,-0.002154,-0.00029207,-2917,0.6748
1370,11.649,4.9091,0,0.000292,2918,9.6699e-05,4.0512,9.6159e-05,-0.0023349,-0.00029193,-2916,0.6755
1371,11.649,4.7273,0,0.00029186,2916.6,9.6567e-05,3.0384,9.6162e-05,-0.0027962,-0.0002918,-2915,0.67613
1372,11.649,4.5455,0,0.00029173,2915.2,9.6446e-05,2.1075,9.6165e-05,-0.0038251,-0.00029169,-2914.2,0.6767
1373,11.649,4.3636,0,0.00029161,2914.1,9.6337e-05,1.2651,9.6167e-05,-0.0063353,-0.00029159,-2913.4,0.67721
1374,11.649,4.1818,0,0.0002915,2913,9.6241e-05,0.52186,9.6169e-05,-0.015769,-0.0002915,-2912.8,0.67766
1375,11.649,4,0,0.00029141,2912.1,9.618e-05,0.044398,9.6148e-05,-0.19376,-0.00029142,-2912.2,0.67804
1376,11.649,3.8182,0,0.00029134,2911.4,9.6179e-05,0.012638,9.6082e-05,-0.71571,-0.00029135,-2911.7,0.67835
1377,11.649,3.6364,0,0.00029128,2910.8,9.618e-05,0.0081819,9.6025e-05,-1.1593,-0.0002913,-2911.4,0.67861
1378,11.649,3.4545,0,0.00029123,2910.3,9.6182e-05,0.0065911,9.5982e-05,-1.4967,-0.00029126,-2911.1,0.6788
1379,11.649,3.2727,0,0.0002912,2910,9.6183e-05,0.0058837,9.5953e-05,-1.7235,-0.00029123,-2910.9,0.67893
1380,11.649,3.0909,0,0.00029119,2909.9,9.6183e-05,0.0055979,9.5938e-05,-1.8374,-0.00029122,-2910.8,0.67899
1381,11.649,2.9091,0,0.00029119,2909.9,9.6183e-05,0.0055977,9.5938e-05,-1.8374,-0.00029122,-2910.8,0.67899
1382,11.649,2.7273,0,0.0002912,2910,9.6183e-05,0.0058838,9.5953e-05,-1.7235,-0.00029123,-2910.9,0.67893
1383,11.649,2.5455,0,0.00029123,2910.3,9.6182e-05,0.0065914,9.5982e-05,-1.4967,-0.00029126,-2911.1,0.6788
1384,11.649,2.3636,0,0.00029128,2910.8,9.618e-05,0.0081824,9.6025e-05,-1.1593,-0.0002913,-2911.4,0.67861
1385,11.649,2.1818,0,0.00029134,2911.4,9.6179e-05,0.012639,9.6082e-05,-0.71574,-0.00029135,-2911.7,0.67835
1386,11.649,2,0,0.00029141,2912.1,9.618e-05,0.044394,9.6148e-05,-0.19379,-0.00029142,-2912.2,0.67804
1387,11.649,1.8182,0,0.0002915,2913,9.6241e-05,0.52182,9.6169e-05,-0.01577,-0.0002915,-2912.8,0.67766
1388,11.649,1.6364,0,0.00029161,2914.1,9.6337e-05,1.2651,9.6167e-05,-0.0063348,-0.00029159,-2913.4,0.67721
1389,11.649,1.4545,0,0.00029173,2915.2,9.6446e-05,2.1075,9.6165e-05,-0.0038257,-0.00029169,-2914.2,0.6767
1390,11.649,1.2727,0,0.00029186,2916.6,9.6567e-05,3.0383,9.6162e-05,-0.0027957,-0.0002918,-2915,0.67613
1391,11.649,1.0909,0,0.000292,2918,9.6699e-05,4.0512,9.6159e-05,-0.0023343,-0.00029193,-2916,0.6755
1392,11.649,0.90909,0,0.00029216,2919.6,9.6841e-05,5.14,9.6157e-05,-0.002153,-0.00029207,-2917,0.6748
1393,11.649,0.72727,0,0.00029233,2921.2,9.6994e-05,6.2992,9.6155e-05,-0.002167,-0.00029222,-2918.1,0.67404
1394,11.649,0.54545,0,0.00029251,2923.1,9.7157e-05,7.5272,9.6155e-05,-0.0022117,-0.00029238,-2919.3,0.67321
1395,11.649,0.36364,0,0.00029271,2925.1,9.7338e-05,8.8878,9.6155e-05,-0.0028313,-0.00029256,-2920.7,0.67232
1396,11.649,0.18182,0,0.00029312,2929.2,9.7698e-05,11.583,9.6156e-05,-0.0023967,-0.00029292,-2923.4,0.67137
1397,11.464,5.8182,0,0.00029817,2979.6,9.9329e-05,11.175,9.7841e-05,-0.002855,-0.00029798,-2974,0.65209
1398,11.464,5.6364,0,0.00029775,2975.4,9.8947e-05,8.2782,9.7846e-05,-0.0014984,-0.0002976,-2971.3,0.65306
1399,11.464,5.4545,0,0.00029752,2973.2,9.8743e-05,6.7027,9.785e-05,-0.0018723,-0.00029741,-2969.8,0.65396
1400,11.464,5.2727,0,0.00029732,2971.2,9.8557e-05,5.2669,9.7856e-05,-0.0021574,-0.00029723,-2968.6,0.6548
1401,11.464,5.0909,0,0.00029714,2969.3,9.8383e-05,3.9092,9.7862e-05,-0.0029096,-0.00029707,-2967.4,0.65557
1402,11.464,4.9091,0,0.00029697,2967.6,9.8219e-05,2.6336,9.7868e-05,-0.0045302,-0.00029692,-2966.3,0.65628
1403,11.464,4.7273,0,0.00029681,2966,9.8068e-05,1.4489,9.7874e-05,-0.0089326,-0.00029678,-2965.3,0.65692
1404,11.464,4.5455,0,0.00029666,2964.6,9.7933e-05,0.38334,9.7877e-05,-0.037162,-0.00029666,-2964.4,0.6575
1405,11.464,4.3636,0,0.00029653,2963.3,9.7891e-05,0.023478,9.7799e-05,-0.66902,-0.00029654,-2963.6,0.65802
1406,11.464,4.1818,0,0.00029642,2962.1,9.7895e-05,0.011176,9.7689e-05,-1.54,-0.00029644,-2962.9,0.65847
1407,11.464,4,0,0.00029632,2961.1,9.79e-05,0.0080937,9.7592e-05,-2.3059,-0.00029636,-2962.3,0.65885
1408,11.464,3.8182,0,0.00029624,2960.3,9.7905e-05,0.0067645,9.7511e-05,-2.954,-0.00029629,-2961.8,0.65918
1409,11.464,3.6364,0,0.00029617,2959.6,9.7909e-05,0.0060677,9.7445e-05,-3.4785,-0.00029623,-2961.4,0.65943
1410,11.464,3.4545,0,0.00029612,2959.1,9.7911e-05,0.005675,9.7395e-05,-3.8755,-0.00029618,-2961.1,0.65963
1411,11.464,3.2727,0,0.00029608,2958.8,9.7913e-05,0.0054563,9.7361e-05,-4.1419,-0.00029615,-2960.9,0.65976
1412,11.464,3.0909,0,0.00029607,2958.6,9.7914e-05,0.0053576,9.7345e-05,-4.2755,-0.00029614,-2960.8,0.65982
1413,11.464,2.9091,0,0.00029607,2958.6,9.7914e-05,0.0053577,9.7345e-05,-4.2755,-0.00029614,-2960.8,0.65982
1414,11.464,2.7273,0,0.00029608,2958.8,9.7913e-05,0.0054567,9.7361e-05,-4.1419,-0.00029615,-2960.9,0.65976
1415,11.464,2.5455,0,0.00029612,2959.1,9.7911e-05,0.0056748,9.7395e-05,-3.8755,-0.00029618,-2961.1,0.65963
1416,11.464,2.3636,0,0.00029617,2959.6,9.7909e-05,0.0060675,9.7445e-05,-3.4786,-0.00029623,-2961.4,0.65943
1417,11.464,2.1818,0,0.00029624,2960.3,9.7905e-05,0.0067644,9.7511e-05,-2.954,-0.00029629,-2961.8,0.65918
1418,11.464,2,0,0.00029632,2961.1,9.79e-05,0.0080941,9.7592e-05,-2.3059,-0.00029636,-2962.3,0.65885
1419,11.464,1.8182,0,0.00029642,2962.1,9.7895e-05,0.011176,9.7689e-05,-1.54,-0.00029644,-2962.9,0.65847
1420,11.464,1.6364,0,0.00029653,2963.3,9.7891e-05,0.023476,9.7799e-05,-0.66906,-0.00029654,-2963.6,0.65802
1421,11.464,1.4545,0,0.00029666,2964.6,9.7933e-05,0.3833,9.7877e-05,-0.037166,-0.00029666,-2964.4,0.6575
1422,11.464,1.2727,0,0.00029681,2966,9.8068e-05,1.4488,9.7874e-05,-0.0089331,-0.00029678,-2965.3,0.65692
1423,11.464,1.0909,0,0.00029697,2967.6,9.8219e-05,2.6335,9.7868e-05,-0.0045299,-0.00029692,-2966.3,0.65628
1424,11.464,0.90909,0,0.00029714,2969.3,9.8383e-05,3.9092,9.7862e-05,-0.0029084,-0.00029707,-2967.4,0.65557
1425,11.464,0.72727,0,0.00029732,2971.2,9.8557e-05,5.2668,9.7856e-05,-0.0021564,-0.00029723,-2968.6,0.6548
1426,11.464,0.54545,0,0.00029752,2973.2,9.8743e-05,6.7027,9.785e-05,-0.0018726,-0.00029741,-2969.8,0.65396
1427,11.464,0.36364,0,0.00029775,2975.4,9.8947e-05,8.2781,9.7846e-05,-0.001499,-0.0002976,-2971.3,0.65306
1428,11.464,0.18182,0,0.00029817,2979.6,9.9329e-05,11.175,9.7842e-05,-0.0028545,-0.00029798,-2974,0.65209
1429,11.279,5.8182,0,0.00030324,3030.3,0.00010097,10.747,9.9535e-05,-0.0034003,-0.00030305,-3024.9,0.63301
1430,11.279,5.6364,0,0.0003028,3025.9,0.00010056,7.6408,9.9544e-05,-0.00011371,-0.00030267,-3022.1,0.63399
1431,11.279,5.4545,0,0.00030256,3023.5,0.00010033,5.8412,9.9554e-05,-0.0015271,-0.00030246,-3020.6,0.63491
1432,11.279,5.2727,0,0.00030234,3021.3,0.00010012,4.1886,9.9565e-05,-0.0023065,-0.00030227,-3019.2,0.63576
1433,11.279,5.0909,0,0.00030214,3019.3,9.9925e-05,2.6245,9.9575e-05,-0.0046178,-0.00030209,-3018,0.63654
1434,11.279,4.9091,0,0.00030195,3017.4,9.9741e-05,1.1586,9.9585e-05,-0.012738,-0.00030193,-3016.8,0.63726
1435,11.279,4.7273,0,0.00030178,3015.7,9.9605e-05,0.06117,9.9559e-05,-0.28822,-0.00030178,-3015.8,0.63792
1436,11.279,4.5455,0,0.00030162,3014.1,9.9609e-05,0.013668,9.9407e-05,-1.504,-0.00030164,-3014.8,0.6385
1437,11.279,4.3636,0,0.00030147,3012.7,9.9618e-05,0.0088514,9.9265e-05,-2.6447,-0.00030152,-3014,0.63903
1438,11.279,4.1818,0,0.00030135,3011.4,9.9627e-05,0.0071223,9.9138e-05,-3.6632,-0.00030141,-3013.2,0.63948
1439,11.279,4,0,0.00030124,3010.3,9.9634e-05,0.0062667,9.9028e-05,-4.5505,-0.00030132,-3012.6,0.63988
1440,11.279,3.8182,0,0.00030115,3009.4,9.9641e-05,0.0057765,9.8935e-05,-5.3,-0.00030124,-3012,0.6402
1441,11.279,3.6364,0,0.00030107,3008.6,9.9647e-05,0.0054778,9.886e-05,-5.9062,-0.00030117,-3011.6,0.64046
1442,11.279,3.4545,0,0.00030102,3008.1,9.9651e-05,0.0052916,9.8803e-05,-6.3648,-0.00030112,-3011.3,0.64066
1443,11.279,3.2727,0,0.00030098,3007.7,9.9654e-05,0.0051827,9.8765e-05,-6.6724,-0.00030109,-3011,0.64079
1444,11.279,3.0909,0,0.00030096,3007.5,9.9655e-05,0.0051312,9.8746e-05,-6.8268,-0.00030108,-3010.9,0.64085
1445,11.279,2.9091,0,0.00030096,3007.5,9.9655e-05,0.0051315,9.8746e-05,-6.8268,-0.00030108,-3010.9,0.64085
1446,11.279,2.7273,0,0.00030098,3007.7,9.9654e-05,0.0051824,9.8765e-05,-6.6724,-0.00030109,-3011,0.64079
1447,11.279,2.5455,0,0.00030102,3008.1,9.9651e-05,0.0052923,9.8803e-05,-6.3648,-0.00030112,-3011.3,0.64066
1448,11.279,2.3636,0,0.00030107,3008.6,9.9647e-05,0.0054777,9.886e-05,-5.9062,-0.00030117,-3011.6,0.64046
1449,11.279,2.1818,0,0.00030115,3009.4,9.9641e-05,0.0057778,9.8935e-05,-5.3,-0.00030124,-3012,0.6402
1450,11.279,2,0,0.00030124,3010.3,9.9634e-05,0.006267,9.9028e-05,-4.5505,-0.00030132,-3012.6,0.63988
1451,11.279,1.8182,0,0.00030135,3011.4,9.9627e-05,0.0071223,9.9138e-05,-3.6632,-0.00030141,-3013.2,0.63948
1452,11.279,1.6364,0,0.00030147,3012.7,9.9618e-05,0.008852,9.9265e-05,-2.6447,-0.00030152,-3014,0.63903
1453,11.279,1.4545,0,0.00030162,3014.1,9.9609e-05,0.013669,9.9407e-05,-1.504,-0.00030164,-3014.8,0.6385
1454,11.279,1.2727,0,0.00030178,3015.7,9.9605e-05,0.061164,9.9559e-05,-0.28826,-0.00030178,-3015.8,0.63792
1455,11.279,1.0909,0,0.00030195,3017.4,9.9741e-05,1.1585,9.9585e-05,-0.01274,-0.00030193,-3016.8,0.63726
1456,11.279,0.90909,0,0.00030214,3019.3,9.9925e-05,2.6244,9.9575e-05,-0.0046165,-0.00030209,-3018,0.63654
1457,11.279,0.72727,0,0.00030234,3021.3,0.00010012,4.1885,9.9565e-05,-0.0023058,-0.00030227,-3019.2,0.63576
1458,11.279,0.54545,0,0.00030256,3023.5,0.00010033,5.8411,9.9554e-05,-0.0015265,-0.00030246,-3020.6,0.63491
1459,11.279,0.36364,0,0.0003028,3025.9,0.00010056,7.6407,9.9544e-05,-0.00011262,-0.00030267,-3022.1,0.63399
1460,11.279,0.18182,0,0.00030324,3030.3,0.00010097,10.747,9.9535e-05,-0.0033999,-0.00030305,-3024.9,0.63301
1461,11.094,5.8182,0,0.00030832,3081.1,0.00010261,10.299,0.00010124,-0.0040561,-0.00030815,-3075.9,0.61413
1462,11.094,5.6364,0,0.00030787,3076.6,0.00010218,6.9722,0.00010125,0.0013294,-0.00030775,-3073.1,0.61513
1463,11.094,5.4545,0,0.00030761,3074,0.00010192,4.9376,0.00010127,-0.0011839,-0.00030753,-3071.5,0.61606
1464,11.094,5.2727,0,0.00030737,3071.6,0.00010169,3.058,0.00010128,-0.0028341,-0.00030732,-3070.1,0.61692
1465,11.094,5.0909,0,0.00030715,3069.4,0.00010147,1.2809,0.0001013,-0.010473,-0.00030713,-3068.8,0.61772
1466,11.094,4.9091,0,0.00030695,3067.4,0.00010132,0.040096,0.00010125,-0.45021,-0.00030696,-3067.6,0.61845
1467,11.094,4.7273,0,0.00030676,3065.5,0.00010133,0.011397,0.00010106,-1.9875,-0.00030679,-3066.5,0.61911
1468,11.094,4.5455,0,0.00030658,3063.7,0.00010134,0.0079035,0.00010089,-3.4254,-0.00030664,-3065.4,0.61971
1469,11.094,4.3636,0,0.00030643,3062.2,0.00010136,0.0065906,0.00010073,-4.7315,-0.00030651,-3064.5,0.62024
1470,11.094,4.1818,0,0.00030629,3060.8,0.00010137,0.0059216,0.00010058,-5.8953,-0.00030639,-3063.7,0.6207
1471,11.094,4,0,0.00030617,3059.6,0.00010138,0.0055278,0.00010046,-6.9087,-0.00030629,-3063,0.6211
1472,11.094,3.8182,0,0.00030607,3058.6,0.00010139,0.0052755,0.00010035,-7.7644,-0.0003062,-3062.5,0.62143
1473,11.094,3.6364,0,0.00030599,3057.8,0.0001014,0.00511,0.00010027,-8.4565,-0.00030613,-3062,0.6217
1474,11.094,3.4545,0,0.00030593,3057.2,0.0001014,0.0050013,0.0001002,-8.98,-0.00030608,-3061.6,0.6219
1475,11.094,3.2727,0,0.00030589,3056.7,0.0001014,0.0049352,0.00010016,-9.3311,-0.00030604,-3061.4,0.62203
1476,11.094,3.0909,0,0.00030587,3056.5,0.00010141,0.0049027,0.00010014,-9.5073,-0.00030603,-3061.3,0.62209
1477,11.094,2.9091,0,0.00030587,3056.5,0.00010141,0.0049033,0.00010014,-9.5073,-0.00030603,-3061.3,0.62209
1478,11.094,2.7273,0,0.00030589,3056.7,0.0001014,0.0049352,0.00010016,-9.3311,-0.00030604,-3061.4,0.62203
1479,11.094,2.5455,0,0.00030593,3057.2,0.0001014,0.0050014,0.0001002,-8.98,-0.00030608,-3061.6,0.6219
1480,11.094,2.3636,0,0.00030599,3057.8,0.0001014,0.0051095,0.00010027,-8.4565,-0.00030613,-3062,0.6217
1481,11.094,2.1818,0,0.00030607,3058.6,0.00010139,0.0052757,0.00010035,-7.7645,-0.0003062,-3062.5,0.62143
1482,11.094,2,0,0.00030617,3059.6,0.00010138,0.0055277,0.00010046,-6.9087,-0.00030629,-3063,0.6211
1483,11.094,1.8182,0,0.00030629,3060.8,0.00010137,0.0059222,0.00010058,-5.8953,-0.00030639,-3063.7,0.6207
1484,11.094,1.6364,0,0.00030643,3062.2,0.00010136,0.0065902,0.00010073,-4.7315,-0.00030651,-3064.5,0.62024
1485,11.094,1.4545,0,0.00030658,3063.7,0.00010134,0.0079034,0.00010089,-3.4255,-0.00030664,-3065.4,0.61971
1486,11.094,1.2727,0,0.00030676,3065.5,0.00010133,0.011397,0.00010106,-1.9876,-0.00030679,-3066.5,0.61911
1487,11.094,1.0909,0,0.00030695,3067.4,0.00010132,0.040092,0.00010125,-0.45026,-0.00030696,-3067.6,0.61845
1488,11.094,0.90909,0,0.00030715,3069.4,0.00010147,1.2808,0.0001013,-0.010472,-0.00030713,-3068.8,0.61772
1489,11.094,0.72727,0,0.00030737,3071.6,0.00010169,3.0579,0.00010128,-0.0028336,-0.00030732,-3070.1,0.61692
1490,11.094,0.54545,0,0.00030761,3074,0.00010192,4.9376,0.00010127,-0.0011841,-0.00030753,-3071.5,0.61606
1491,11.094,0.36364,0,0.00030787,3076.6,0.00010218,6.9721,0.00010125,0.0013301,-0.00030775,-3073.1,0.61513
1492,11.094,0.18182,0,0.00030832,3081.1,0.00010261,10.299,0.00010124,-0.0040557,-0.00030815,-3075.9,0.61413
1493,10.909,5.8182,0,0.00031343,3132.1,0.00010425,9.8278,0.00010294,-0.0048515,-0.00031326,-3127.2,0.59547
1494,10.909,5.6364,0,0.00031296,3127.4,0.0001038,6.269,0.00010297,0.0028383,-0.00031285,-3124.3,0.59648
1495,10.909,5.4545,0,0.00031268,3124.6,0.00010352,3.9868,0.00010299,-0.00086114,-0.00031261,-3122.7,0.59742
1496,10.909,5.2727,0,0.00031243,3122.1,0.00010326,1.869,0.00010301,-0.0045601,-0.00031239,-3121.2,0.5983
1497,10.909,5.0909,0,0.00031219,3119.7,0.00010304,0.069841,0.000103,-0.22022,-0.00031219,-3119.8,0.59911
1498,10.909,4.9091,0,0.00031196,3117.5,0.00010305,0.010643,0.00010278,-2.0593,-0.000312,-3118.5,0.59985
1499,10.909,4.7273,0,0.00031176,3115.4,0.00010307,0.0073461,0.00010256,-3.8258,-0.00031182,-3117.3,0.60052
1500,10.909,4.5455,0,0.00031157,3113.5,0.00010309,0.0062095,0.00010236,-5.4541,-0.00031166,-3116.2,0.60113
1501,10.909,4.3636,0,0.0003114,3111.8,0.0001031,0.0056376,0.00010218,-6.9318,-0.00031151,-3115.3,0.60166
1502,10.909,4.1818,0,0.00031125,3110.3,0.00010312,0.0052985,0.00010202,-8.2484,-0.00031139,-3114.4,0.60213
1503,10.909,4,0,0.00031111,3109,0.00010313,0.0050756,0.00010188,-9.3948,-0.00031127,-3113.7,0.60254
1504,10.909,3.8182,0,0.000311,3107.9,0.00010314,0.0049219,0.00010176,-10.363,-0.00031118,-3113.1,0.60287
1505,10.909,3.6364,0,0.00031092,3107,0.00010315,0.0048137,0.00010167,-11.146,-0.0003111,-3112.6,0.60314
1506,10.909,3.4545,0,0.00031085,3106.3,0.00010316,0.0047406,0.0001016,-11.738,-0.00031105,-3112.2,0.60334
1507,10.909,3.2727,0,0.0003108,3105.9,0.00010317,0.0046939,0.00010155,-12.135,-0.00031101,-3111.9,0.60348
1508,10.909,3.0909,0,0.00031078,3105.7,0.00010317,0.004671,0.00010153,-12.334,-0.00031099,-3111.8,0.60354
1509,10.909,2.9091,0,0.00031078,3105.7,0.00010317,0.0046714,0.00010153,-12.334,-0.00031099,-3111.8,0.60354
1510,10.909,2.7273,0,0.0003108,3105.9,0.00010317,0.0046938,0.00010155,-12.135,-0.00031101,-3111.9,0.60348
1511,10.909,2.5455,0,0.00031085,3106.3,0.00010316,0.004741,0.0001016,-11.738,-0.00031105,-3112.2,0.60334
1512,10.909,2.3636,0,0.00031092,3107,0.00010315,0.004814,0.00010167,-11.146,-0.0003111,-3112.6,0.60314
1513,10.909,2.1818,0,0.000311,3107.9,0.00010314,0.0049218,0.00010176,-10.363,-0.00031118,-3113.1,0.60287
1514,10.909,2,0,0.00031111,3109,0.00010313,0.0050765,0.00010188,-9.3948,-0.00031127,-3113.7,0.60254
1515,10.909,1.8182,0,0.00031125,3110.3,0.00010312,0.0052986,0.00010202,-8.2485,-0.00031139,-3114.4,0.60213
1516,10.909,1.6364,0,0.0003114,3111.8,0.0001031,0.0056387,0.00010218,-6.9319,-0.00031151,-3115.3,0.60166
1517,10.909,1.4545,0,0.00031157,3113.5,0.00010309,0.0062104,0.00010236,-5.4542,-0.00031166,-3116.2,0.60113
1518,10.909,1.2727,0,0.00031176,3115.4,0.00010307,0.0073472,0.00010256,-3.8258,-0.00031182,-3117.3,0.60052
1519,10.909,1.0909,0,0.00031196,3117.5,0.00010305,0.010644,0.00010278,-2.0594,-0.000312,-3118.5,0.59985
1520,10.909,0.90909,0,0.00031219,3119.7,0.00010304,0.069828,0.000103,-0.22026,-0.00031219,-3119.8,0.59911
1521,10.909,0.72727,0,0.00031243,3122.1,0.00010326,1.869,0.00010301,-0.0045589,-0.00031239,-3121.2,0.5983
1522,10.909,0.54545,0,0.00031268,3124.6,0.00010352,3.9867,0.00010299,-0.00086096,-0.00031261,-3122.7,0.59742
1523,10.909,0.36364,0,0.00031296,3127.4,0.0001038,6.2689,0.00010297,0.0028392,-0.00031285,-3124.3,0.59648
1524,10.909,0.18182,0,0.00031343,3132.1,0.00010425,9.8277,0.00010294,-0.0048499,-0.00031326,-3127.2,0.59547
1525,10.725,5.8182,0,0.00031856,3183.4,0.0001059,9.3323,0.00010466,-0.0058243,-0.0003184,-3178.7,0.57702
1526,10.725,5.6364,0,0.00031807,3178.5,0.00010542,5.5275,0.00010469,0.0044155,-0.00031798,-3175.7,0.57804
1527,10.725,5.4545,0,0.00031777,3175.5,0.00010511,2.9833,0.00010472,-0.00060684,-0.00031772,-3174,0.579
1528,10.725,5.2727,0,0.0003175,3172.8,0.00010483,0.62221,0.00010474,-0.015095,-0.00031749,-3172.5,0.57989
1529,10.725,5.0909,0,0.00031724,3170.2,0.00010477,0.010925,0.00010455,-1.6622,-0.00031726,-3171,0.58071
1530,10.725,4.9091,0,0.00031699,3167.8,0.0001048,0.0069943,0.00010429,-3.7871,-0.00031706,-3169.6,0.58146
1531,10.725,4.7273,0,0.00031677,3165.5,0.00010482,0.0059073,0.00010405,-5.7716,-0.00031687,-3168.4,0.58214
1532,10.725,4.5455,0,0.00031656,3163.5,0.00010484,0.0053988,0.00010383,-7.5998,-0.00031669,-3167.2,0.58276
1533,10.725,4.3636,0,0.00031638,3161.6,0.00010486,0.0050941,0.00010363,-9.2589,-0.00031653,-3166.2,0.5833
1534,10.725,4.1818,0,0.00031621,3160,0.00010488,0.0048889,0.00010345,-10.737,-0.00031639,-3165.3,0.58378
1535,10.725,4,0,0.00031607,3158.5,0.0001049,0.0047416,0.0001033,-12.025,-0.00031627,-3164.5,0.58419
1536,10.725,3.8182,0,0.00031595,3157.3,0.00010491,0.0046306,0.00010317,-13.112,-0.00031617,-3163.9,0.58453
1537,10.725,3.6364,0,0.00031585,3156.4,0.00010492,0.0045479,0.00010306,-13.991,-0.00031609,-3163.3,0.5848
1538,10.725,3.4545,0,0.00031578,3155.6,0.00010493,0.0044902,0.00010298,-14.656,-0.00031603,-3162.9,0.585
1539,10.725,3.2727,0,0.00031573,3155.1,0.00010494,0.0044521,0.00010293,-15.102,-0.00031599,-3162.7,0.58514
1540,10.725,3.0909,0,0.00031571,3154.9,0.00010494,0.0044325,0.0001029,-15.326,-0.00031596,-3162.5,0.58521
1541,10.725,2.9091,0,0.00031571,3154.9,0.00010494,0.0044325,0.0001029,-15.326,-0.00031596,-3162.5,0.58521
1542,10.725,2.7273,0,0.00031573,3155.1,0.00010494,0.0044521,0.00010293,-15.102,-0.00031599,-3162.7,0.58514
1543,10.725,2.5455,0,0.00031578,3155.6,0.00010493,0.0044905,0.00010298,-14.656,-0.00031603,-3162.9,0.585
1544,10.725,2.3636,0,0.00031585,3156.4,0.00010492,0.0045488,0.00010306,-13.991,-0.00031609,-3163.3,0.5848
1545,10.725,2.1818,0,0.00031595,3157.3,0.00010491,0.0046312,0.00010317,-13.112,-0.00031617,-3163.9,0.58453
1546,10.725,2,0,0.00031607,3158.5,0.0001049,0.0047419,0.0001033,-12.025,-0.00031627,-3164.5,0.58419
1547,10.725,1.8182,0,0.00031621,3160,0.00010488,0.0048895,0.00010345,-10.737,-0.00031639,-3165.3,0.58378
1548,10.725,1.6364,0,0.00031638,3161.6,0.00010486,0.0050937,0.00010363,-9.2589,-0.00031653,-3166.2,0.5833
1549,10.725,1.4545,0,0.00031656,3163.5,0.00010484,0.0053995,0.00010383,-7.5998,-0.00031669,-3167.2,0.58276
1550,10.725,1.2727,0,0.00031677,3165.5,0.00010482,0.0059074,0.00010405,-5.7716,-0.00031687,-3168.4,0.58214
1551,10.725,1.0909,0,0.00031699,3167.8,0.0001048,0.0069953,0.00010429,-3.7872,-0.00031706,-3169.6,0.58146
1552,10.725,0.90909,0,0.00031724,3170.2,0.00010477,0.010927,0.00010455,-1.6622,-0.00031726,-3171,0.58071
1553,10.725,0.72727,0,0.0003175,3172.8,0.00010483,0.62216,0.00010474,-0.015096,-0.00031749,-3172.5,0.57989
1554,10.725,0.54545,0,0.00031777,3175.5,0.00010511,2.9833,0.00010472,-0.00060781,-0.00031772,-3174,0.579
1555,10.725,0.36364,0,0.00031807,3178.5,0.00010542,5.5274,0.00010469,0.0044164,-0.00031798,-3175.7,0.57804
1556,10.725,0.18182,0,0.00031856,3183.4,0.0001059,9.3323,0.00010466,-0.0058233,-0.0003184,-3178.7,0.57702
1557,10.54,5.8182,0,0.00032371,3234.8,0.00010756,8.8106,0.00010639,-0.0070311,-0.00032356,-3230.4,0.55878
1558,10.54,5.6364,0,0.0003232,3229.8,0.00010705,4.7438,0.00010642,0.0060599,-0.00032312,-3227.4,0.55982
1559,10.54,5.4545,0,0.00032288,3226.6,0.00010671,1.9217,0.00010645,-0.00059577,-0.00032285,-3225.6,0.56079
1560,10.54,5.2727,0,0.00032258,3223.6,0.00010649,0.015517,0.00010639,-0.73993,-0.00032259,-3224,0.56169
1561,10.54,5.0909,0,0.0003223,3220.8,0.00010652,0.0067481,0.00010609,-3.2482,-0.00032236,-3222.4,0.56253
1562,10.54,4.9091,0,0.00032204,3218.2,0.00010655,0.0056783,0.0001058,-5.6209,-0.00032213,-3221,0.56329
1563,10.54,4.7273,0,0.0003218,3215.7,0.00010658,0.005199,0.00010554,-7.8353,-0.00032193,-3219.6,0.56398
1564,10.54,4.5455,0,0.00032157,3213.5,0.00010661,0.0049254,0.00010529,-9.8755,-0.00032174,-3218.4,0.5646
1565,10.54,4.3636,0,0.00032137,3211.5,0.00010663,0.0047301,0.00010507,-11.727,-0.00032157,-3217.3,0.56515
1566,10.54,4.1818,0,0.00032119,3209.7,0.00010666,0.0045829,0.00010487,-13.378,-0.00032142,-3216.4,0.56564
1567,10.54,4,0,0.00032104,3208.2,0.00010668,0.004465,0.0001047,-14.815,-0.00032129,-3215.5,0.56605
1568,10.54,3.8182,0,0.00032091,3206.8,0.00010669,0.0043709,0.00010456,-16.029,-0.00032118,-3214.8,0.5664
1569,10.54,3.6364,0,0.0003208,3205.8,0.00010671,0.0042967,0.00010444,-17.011,-0.00032109,-3214.3,0.56667
1570,10.54,3.4545,0,0.00032072,3205,0.00010672,0.0042431,0.00010435,-17.754,-0.00032102,-3213.8,0.56688
1571,10.54,3.2727,0,0.00032067,3204.5,0.00010672,0.0042047,0.00010429,-18.252,-0.00032097,-3213.5,0.56702
1572,10.54,3.0909,0,0.00032064,3204.2,0.00010673,0.0041873,0.00010426,-18.502,-0.00032095,-3213.4,0.56708
1573,10.54,2.9091,0,0.00032064,3204.2,0.00010673,0.004188,0.00010426,-18.502,-0.00032095,-3213.4,0.56708
1574,10.54,2.7273,0,0.00032067,3204.5,0.00010672,0.0042054,0.00010429,-18.252,-0.00032097,-3213.5,0.56702
1575,10.54,2.5455,0,0.00032072,3205,0.00010672,0.004243,0.00010435,-17.754,-0.00032102,-3213.8,0.56688
1576,10.54,2.3636,0,0.0003208,3205.8,0.00010671,0.0042967,0.00010444,-17.011,-0.00032109,-3214.3,0.56667
1577,10.54,2.1818,0,0.00032091,3206.8,0.00010669,0.0043705,0.00010456,-16.029,-0.00032118,-3214.8,0.5664
1578,10.54,2,0,0.00032104,3208.2,0.00010668,0.0044659,0.0001047,-14.815,-0.00032129,-3215.5,0.56605
1579,10.54,1.8182,0,0.00032119,3209.7,0.00010666,0.0045829,0.00010487,-13.378,-0.00032142,-3216.4,0.56564
1580,10.54,1.6364,0,0.00032137,3211.5,0.00010663,0.0047309,0.00010507,-11.727,-0.00032157,-3217.3,0.56515
1581,10.54,1.4545,0,0.00032157,3213.5,0.00010661,0.0049258,0.00010529,-9.8756,-0.00032174,-3218.4,0.5646
1582,10.54,1.2727,0,0.0003218,3215.7,0.00010658,0.0052002,0.00010554,-7.8353,-0.00032193,-3219.6,0.56398
1583,10.54,1.0909,0,0.00032204,3218.2,0.00010655,0.005678,0.0001058,-5.621,-0.00032213,-3221,0.56329
1584,10.54,0.90909,0,0.0003223,3220.8,0.00010652,0.0067497,0.00010609,-3.2483,-0.00032236,-3222.4,0.56253
1585,10.54,0.72727,0,0.00032258,3223.6,0.00010649,0.015517,0.00010639,-0.73998,-0.00032259,-3224,0.56169
1586,10.54,0.54545,0,0.00032288,3226.6,0.00010671,1.9216,0.00010645,-0.00059475,-0.00032285,-3225.6,0.56079
1587,10.54,0.36364,0,0.0003232,3229.8,0.00010705,4.7437,0.00010642,0.0060606,-0.00032312,-3227.4,0.55982
1588,10.54,0.18182,0,0.00032371,3234.8,0.00010756,8.8106,0.00010639,-0.0070304,-0.00032356,-3230.4,0.55878
1589,10.355,5.8182,0,0.00032888,3286.5,0.00010922,8.2605,0.00010812,-0.0085478,-0.00032874,-3282.4,0.54077
1590,10.355,5.6364,0,0.00032835,3281.3,0.00010868,3.9139,0.00010816,0.0077566,-0.00032829,-3279.3,0.54182
1591,10.355,5.4545,0,0.00032801,3277.8,0.00010831,0.79707,0.0001082,-0.0020417,-0.00032799,-3277.4,0.54281
1592,10.355,5.2727,0,0.00032769,3274.6,0.00010824,0.0070087,0.00010796,-2.145,-0.00032772,-3275.7,0.54372
1593,10.355,5.0909,0,0.00032738,3271.6,0.00010828,0.0054422,0.00010762,-4.9361,-0.00032747,-3274,0.54456
1594,10.355,4.9091,0,0.0003271,3268.7,0.00010832,0.0050671,0.00010731,-7.5705,-0.00032723,-3272.5,0.54533
1595,10.355,4.7273,0,0.00032684,3266.1,0.00010835,0.0048025,0.00010702,-10.029,-0.00032701,-3271.1,0.54604
1596,10.355,4.5455,0,0.00032659,3263.7,0.00010838,0.0046187,0.00010675,-12.296,-0.0003268,-3269.8,0.54667
1597,10.355,4.3636,0,0.00032638,3261.5,0.00010841,0.0044637,0.0001065,-14.353,-0.00032662,-3268.7,0.54723
1598,10.355,4.1818,0,0.00032618,3259.6,0.00010844,0.004333,0.00010629,-16.187,-0.00032645,-3267.6,0.54772
1599,10.355,4,0,0.00032601,3257.9,0.00010846,0.0042218,0.0001061,-17.784,-0.00032631,-3266.7,0.54813
1600,10.355,3.8182,0,0.00032587,3256.5,0.00010848,0.0041265,0.00010594,-19.133,-0.00032619,-3266,0.54848
1601,10.355,3.6364,0,0.00032576,3255.3,0.0001085,0.0040501,0.00010581,-20.225,-0.0003261,-3265.4,0.54876
1602,10.355,3.4545,0,0.00032567,3254.4,0.00010851,0.0039921,0.00010571,-21.05,-0.00032602,-3264.9,0.54897
1603,10.355,3.2727,0,0.00032561,3253.9,0.00010852,0.0039528,0.00010564,-21.604,-0.00032597,-3264.6,0.54911
1604,10.355,3.0909,0,0.00032558,3253.6,0.00010852,0.0039329,0.00010561,-21.882,-0.00032595,-3264.5,0.54918
1605,10.355,2.9091,0,0.00032558,3253.6,0.00010852,0.0039327,0.00010561,-21.882,-0.00032595,-3264.5,0.54918
1606,10.355,2.7273,0,0.00032561,3253.9,0.00010852,0.0039535,0.00010564,-21.604,-0.00032597,-3264.6,0.54911
1607,10.355,2.5455,0,0.00032567,3254.4,0.00010851,0.0039925,0.00010571,-21.05,-0.00032602,-3264.9,0.54897
1608,10.355,2.3636,0,0.00032576,3255.3,0.0001085,0.00405,0.00010581,-20.225,-0.0003261,-3265.4,0.54876
1609,10.355,2.1818,0,0.00032587,3256.5,0.00010848,0.004127,0.00010594,-19.133,-0.00032619,-3266,0.54848
1610,10.355,2,0,0.00032601,3257.9,0.00010846,0.0042214,0.0001061,-17.784,-0.00032631,-3266.7,0.54813
1611,10.355,1.8182,0,0.00032618,3259.6,0.00010844,0.0043336,0.00010629,-16.187,-0.00032645,-3267.6,0.54772
1612,10.355,1.6364,0,0.00032638,3261.5,0.00010841,0.0044644,0.0001065,-14.353,-0.00032662,-3268.7,0.54723
1613,10.355,1.4545,0,0.00032659,3263.7,0.00010838,0.0046195,0.00010675,-12.296,-0.0003268,-3269.8,0.54667
1614,10.355,1.2727,0,0.00032684,3266.1,0.00010835,0.0048032,0.00010702,-10.03,-0.00032701,-3271.1,0.54604
1615,10.355,1.0909,0,0.0003271,3268.7,0.00010832,0.0050678,0.00010731,-7.5706,-0.00032723,-3272.5,0.54533
1616,10.355,0.90909,0,0.00032738,3271.6,0.00010828,0.0054435,0.00010762,-4.9361,-0.00032747,-3274,0.54456
1617,10.355,0.72727,0,0.00032769,3274.6,0.00010824,0.0070104,0.00010796,-2.1451,-0.00032772,-3275.7,0.54372
1618,10.355,0.54545,0,0.00032801,3277.8,0.00010831,0.79702,0.0001082,-0.0020423,-0.00032799,-3277.4,0.54281
1619,10.355,0.36364,0,0.00032835,3281.3,0.00010868,3.9139,0.00010816,0.0077579,-0.00032829,-3279.3,0.54182
1620,10.355,0.18182,0,0.00032888,3286.5,0.00010922,8.2605,0.00010812,-0.0085471,-0.00032874,-3282.4,0.54077
1621,10.17,5.8182,0,0.00033407,3338.4,0.00011089,7.6801,0.00010986,-0.010485,-0.00033394,-3334.6,0.52298
1622,10.17,5.6364,0,0.00033352,3332.9,0.00011032,3.0336,0.00010991,0.0094588,-0.00033347,-3331.4,0.52405
1623,10.17,5.4545,0,0.00033315,3329.2,0.00010996,0.0085398,0.00010991,-0.41039,-0.00033316,-3329.4,0.52505
1624,10.17,5.2727,0,0.00033281,3325.8,0.00011001,0.0055784,0.00010952,-3.6476,-0.00033287,-3327.6,0.52597
1625,10.17,5.0909,0,0.00033248,3322.5,0.00011005,0.0049335,0.00010916,-6.734,-0.00033259,-3325.9,0.52682
1626,10.17,4.9091,0,0.00033217,3319.4,0.0001101,0.0047732,0.00010881,-9.6475,-0.00033234,-3324.3,0.52761
1627,10.17,4.7273,0,0.00033189,3316.6,0.00011014,0.0045721,0.00010849,-12.368,-0.0003321,-3322.8,0.52832
1628,10.17,4.5455,0,0.00033163,3314,0.00011017,0.0044096,0.00010819,-14.875,-0.00033188,-3321.4,0.52895
1629,10.17,4.3636,0,0.00033139,3311.6,0.00011021,0.004256,0.00010792,-17.152,-0.00033168,-3320.2,0.52952
1630,10.17,4.1818,0,0.00033118,3309.5,0.00011024,0.0041187,0.00010768,-19.182,-0.0003315,-3319.1,0.53002
1631,10.17,4,0,0.000331,3307.7,0.00011027,0.003996,0.00010748,-20.951,-0.00033135,-3318.1,0.53044
1632,10.17,3.8182,0,0.00033084,3306.1,0.00011029,0.00389,0.0001073,-22.445,-0.00033122,-3317.3,0.5308
1633,10.17,3.6364,0,0.00033072,3304.9,0.00011031,0.0038028,0.00010716,-23.653,-0.00033111,-3316.7,0.53108
1634,10.17,3.4545,0,0.00033062,3304,0.00011032,0.0037371,0.00010705,-24.567,-0.00033103,-3316.2,0.53129
1635,10.17,3.2727,0,0.00033056,3303.3,0.00011033,0.003692,0.00010698,-25.181,-0.00033098,-3315.8,0.53143
1636,10.17,3.0909,0,0.00033053,3303,0.00011034,0.0036687,0.00010694,-25.488,-0.00033096,-3315.7,0.5315
1637,10.17,2.9091,0,0.00033053,3303,0.00011034,0.0036684,0.00010694,-25.488,-0.00033096,-3315.7,0.5315
1638,10.17,2.7273,0,0.00033056,3303.3,0.00011033,0.0036919,0.00010698,-25.181,-0.00033098,-3315.8,0.53143
1639,10.17,2.5455,0,0.00033062,3304,0.00011032,0.0037375,0.00010705,-24.567,-0.00033103,-3316.2,0.53129
1640,10.17,2.3636,0,0.00033072,3304.9,0.00011031,0.0038027,0.00010716,-23.653,-0.00033111,-3316.7,0.53108
1641,10.17,2.1818,0,0.00033084,3306.1,0.00011029,0.0038904,0.0001073,-22.445,-0.00033122,-3317.3,0.5308
1642,10.17,2,0,0.000331,3307.7,0.00011027,0.0039962,0.00010748,-20.951,-0.00033135,-3318.1,0.53044
1643,10.17,1.8182,0,0.00033118,3309.5,0.00011024,0.004119,0.00010768,-19.182,-0.0003315,-3319.1,0.53002
1644,10.17,1.6364,0,0.00033139,3311.6,0.00011021,0.0042563,0.00010792,-17.152,-0.00033168,-3320.2,0.52952
1645,10.17,1.4545,0,0.00033163,3314,0.00011017,0.0044105,0.00010819,-14.875,-0.00033188,-3321.4,0.52895
1646,10.17,1.2727,0,0.00033189,3316.6,0.00011014,0.0045725,0.00010849,-12.368,-0.0003321,-3322.8,0.52832
1647,10.17,1.0909,0,0.00033217,3319.4,0.0001101,0.0047732,0.00010881,-9.6476,-0.00033234,-3324.3,0.52761
1648,10.17,0.90909,0,0.00033248,3322.5,0.00011005,0.0049353,0.00010916,-6.7341,-0.00033259,-3325.9,0.52682
1649,10.17,0.72727,0,0.00033281,3325.8,0.00011001,0.0055795,0.00010952,-3.6477,-0.00033287,-3327.6,0.52597
1650,10.17,0.54545,0,0.00033315,3329.2,0.00010996,0.0085399,0.00010991,-0.41044,-0.00033316,-3329.4,0.52505
1651,10.17,0.36364,0,0.00033352,3332.9,0.00011032,3.0336,0.00010991,0.0094599,-0.00033347,-3331.4,0.52405
1652,10.17,0.18182,0,0.00033407,3338.4,0.00011089,7.68,0.00010986,-0.010484,-0.00033394,-3334.6,0.52298
1653,9.9849,5.8182,0,0.00033929,3390.5,0.00011256,7.067,0.00011161,-0.013009,-0.00033917,-3387,0.50542
1654,9.9849,5.6364,0,0.00033872,3384.8,0.00011195,2.0985,0.00011167,0.010996,-0.00033868,-3383.8,0.5065
1655,9.9849,5.4545,0,0.00033832,3380.8,0.00011173,0.0042043,0.0001115,-1.6805,-0.00033835,-3381.7,0.50751
1656,9.9849,5.2727,0,0.00033795,3377.1,0.00011178,0.0052897,0.00011108,-5.2507,-0.00033803,-3379.7,0.50845
1657,9.9849,5.0909,0,0.00033759,3373.6,0.00011183,0.0047706,0.00011068,-8.6525,-0.00033774,-3377.9,0.50931
1658,9.9849,4.9091,0,0.00033726,3370.3,0.00011188,0.0046516,0.0001103,-11.865,-0.00033746,-3376.2,0.5101
1659,9.9849,4.7273,0,0.00033695,3367.2,0.00011193,0.0044423,0.00010995,-14.865,-0.0003372,-3374.6,0.51082
1660,9.9849,4.5455,0,0.00033667,3364.4,0.00011197,0.0042628,0.00010963,-17.631,-0.00033697,-3373.2,0.51147
1661,9.9849,4.3636,0,0.00033641,3361.8,0.00011201,0.0040859,0.00010933,-20.143,-0.00033675,-3371.8,0.51204
1662,9.9849,4.1818,0,0.00033619,3359.5,0.00011205,0.003925,0.00010907,-22.383,-0.00033656,-3370.7,0.51255
1663,9.9849,4,0,0.00033599,3357.6,0.00011208,0.0037811,0.00010884,-24.335,-0.0003364,-3369.7,0.51298
1664,9.9849,3.8182,0,0.00033582,3355.9,0.00011211,0.0036551,0.00010865,-25.984,-0.00033626,-3368.8,0.51333
1665,9.9849,3.6364,0,0.00033569,3354.5,0.00011213,0.0035522,0.00010849,-27.318,-0.00033614,-3368.1,0.51362
1666,9.9849,3.4545,0,0.00033558,3353.5,0.00011214,0.0034742,0.00010837,-28.328,-0.00033606,-3367.6,0.51384
1667,9.9849,3.2727,0,0.00033552,3352.8,0.00011215,0.0034204,0.00010829,-29.005,-0.000336,-3367.2,0.51398
1668,9.9849,3.0909,0,0.00033548,3352.5,0.00011216,0.0033926,0.00010825,-29.345,-0.00033597,-3367.1,0.51405
1669,9.9849,2.9091,0,0.00033548,3352.5,0.00011216,0.0033931,0.00010825,-29.345,-0.00033597,-3367.1,0.51405
1670,9.9849,2.7273,0,0.00033552,3352.8,0.00011215,0.0034201,0.00010829,-29.005,-0.000336,-3367.2,0.51398
1671,9.9849,2.5455,0,0.00033558,3353.5,0.00011214,0.003474,0.00010837,-28.328,-0.00033606,-3367.6,0.51384
1672,9.9849,2.3636,0,0.00033569,3354.5,0.00011213,0.0035526,0.00010849,-27.318,-0.00033614,-3368.1,0.51362
1673,9.9849,2.1818,0,0.00033582,3355.9,0.00011211,0.0036561,0.00010865,-25.984,-0.00033626,-3368.8,0.51333
1674,9.9849,2,0,0.00033599,3357.6,0.00011208,0.0037816,0.00010884,-24.335,-0.0003364,-3369.7,0.51298
1675,9.9849,1.8182,0,0.00033619,3359.5,0.00011205,0.0039259,0.00010907,-22.383,-0.00033656,-3370.7,0.51255
1676,9.9849,1.6364,0,0.00033641,3361.8,0.00011201,0.0040865,0.00010933,-20.143,-0.00033675,-3371.8,0.51204
1677,9.9849,1.4545,0,0.00033667,3364.4,0.00011197,0.0042631,0.00010963,-17.631,-0.00033697,-3373.2,0.51147
1678,9.9849,1.2727,0,0.00033695,3367.2,0.00011193,0.0044432,0.00010995,-14.865,-0.0003372,-3374.6,0.51082
1679,9.9849,1.0909,0,0.00033726,3370.3,0.00011188,0.0046517,0.0001103,-11.865,-0.00033746,-3376.2,0.5101
1680,9.9849,0.90909,0,0.00033759,3373.6,0.00011183,0.004773,0.00011068,-8.6525,-0.00033774,-3377.9,0.50931
1681,9.9849,0.72727,0,0.00033795,3377.1,0.00011178,0.0052902,0.00011108,-5.2507,-0.00033803,-3379.7,0.50845
1682,9.9849,0.54545,0,0.00033832,3380.8,0.00011173,0.0042048,0.0001115,-1.6805,-0.00033835,-3381.7,0.50751
1683,9.9849,0.36364,0,0.00033872,3384.8,0.00011195,2.0984,0.00011167,0.010997,-0.00033868,-3383.8,0.5065
1684,9.9849,0.18182,0,0.00033929,3390.5,0.00011256,7.067,0.00011161,-0.013008,-0.00033917,-3387,0.50542
1685,9.8,5.8182,0,0.00034453,3442.9,0.00011423,6.4192,0.00011337,-0.016373,-0.00034442,-3439.7,0.48808
1686,9.8,5.6364,0,0.00034393,3436.9,0.00011359,1.1046,0.00011344,0.011491,-0.00034391,-3436.3,0.48918
1687,9.8,5.4545,0,0.0003435,3432.6,0.00011351,0.0041672,0.0001131,-3.0395,-0.00034355,-3434.2,0.49021
1688,9.8,5.2727,0,0.0003431,3428.6,0.00011357,0.0054208,0.00011264,-6.9628,-0.00034322,-3432.1,0.49115
1689,9.8,5.0909,0,0.00034272,3424.8,0.00011363,0.0048017,0.0001122,-10.703,-0.0003429,-3430.2,0.49203
1690,9.8,4.9091,0,0.00034236,3421.3,0.00011368,0.0046442,0.00011179,-14.236,-0.0003426,-3428.4,0.49283
1691,9.8,4.7273,0,0.00034203,3417.9,0.00011374,0.0043845,0.0001114,-17.536,-0.00034232,-3426.7,0.49356
1692,9.8,4.5455,0,0.00034172,3414.9,0.00011379,0.0041618,0.00011105,-20.579,-0.00034207,-3425.1,0.49421
1693,9.8,4.3636,0,0.00034145,3412.1,0.00011383,0.0039449,0.00011072,-23.344,-0.00034184,-3423.7,0.4948
1694,9.8,4.1818,0,0.0003412,3409.6,0.00011387,0.0037483,0.00011044,-25.81,-0.00034163,-3422.5,0.4953
1695,9.8,4,0,0.00034098,3407.5,0.00011391,0.0035733,0.00011019,-27.959,-0.00034145,-3421.4,0.49574
1696,9.8,3.8182,0,0.0003408,3405.7,0.00011394,0.0034217,0.00010997,-29.775,-0.0003413,-3420.5,0.4961
1697,9.8,3.6364,0,0.00034066,3404.2,0.00011396,0.0032971,0.0001098,-31.244,-0.00034118,-3419.7,0.49639
1698,9.8,3.4545,0,0.00034055,3403.1,0.00011398,0.0032027,0.00010967,-32.356,-0.00034109,-3419.2,0.49661
1699,9.8,3.2727,0,0.00034047,3402.4,0.00011399,0.0031384,0.00010959,-33.102,-0.00034102,-3418.8,0.49675
1700,9.8,3.0909,0,0.00034044,3402,0.000114,0.0031054,0.00010954,-33.476,-0.00034099,-3418.6,0.49683
1701,9.8,2.9091,0,0.00034044,3402,0.000114,0.0031054,0.00010954,-33.476,-0.00034099,-3418.6,0.49683
1702,9.8,2.7273,0,0.00034047,3402.4,0.00011399,0.0031382,0.00010959,-33.102,-0.00034102,-3418.8,0.49675
1703,9.8,2.5455,0,0.00034055,3403.1,0.00011398,0.0032032,0.00010967,-32.356,-0.00034109,-3419.2,0.49661
1704,9.8,2.3636,0,0.00034066,3404.2,0.00011396,0.0032971,0.0001098,-31.244,-0.00034118,-3419.7,0.49639
1705,9.8,2.1818,0,0.0003408,3405.7,0.00011394,0.0034223,0.00010997,-29.775,-0.0003413,-3420.5,0.4961
1706,9.8,2,0,0.00034098,3407.5,0.00011391,0.0035738,0.00011019,-27.959,-0.00034145,-3421.4,0.49574
1707,9.8,1.8182,0,0.0003412,3409.6,0.00011387,0.0037488,0.00011044,-25.811,-0.00034163,-3422.5,0.4953
1708,9.8,1.6364,0,0.00034145,3412.1,0.00011383,0.0039453,0.00011072,-23.344,-0.00034184,-3423.7,0.4948
1709,9.8,1.4545,0,0.00034172,3414.9,0.00011379,0.0041622,0.00011105,-20.579,-0.00034207,-3425.1,0.49421
1710,9.8,1.2727,0,0.00034203,3417.9,0.00011374,0.004385,0.0001114,-17.536,-0.00034232,-3426.7,0.49356
1711,9.8,1.0909,0,0.00034236,3421.3,0.00011368,0.0046444,0.00011179,-14.236,-0.0003426,-3428.4,0.49283
1712,9.8,0.90909,0,0.00034272,3424.8,0.00011363,0.004803,0.0001122,-10.703,-0.0003429,-3430.2,0.49203
1713,9.8,0.72727,0,0.0003431,3428.6,0.00011357,0.0054218,0.00011264,-6.9629,-0.00034322,-3432.1,0.49115
1714,9.8,0.54545,0,0.0003435,3432.6,0.00011351,0.0041677,0.0001131,-3.0396,-0.00034355,-3434.2,0.49021
1715,9.8,0.36364,0,0.00034393,3436.9,0.00011359,1.1046,0.00011344,0.011492,-0.00034391,-3436.3,0.48918
1716,9.8,0.18182,0,0.00034453,3442.9,0.00011423,6.4192,0.00011337,-0.016372,-0.00034442,-3439.7,0.48808
1717,9.6151,5.8182,0,0.00034979,3495.4,0.00011591,5.7344,0.00011514,-0.020992,-0.00034969,-3492.6,0.47099
1718,9.6151,5.6364,0,0.00034916,3489.2,0.00011523,0.094216,0.00011522,-0.036403,-0.00034916,-3489.2,0.4721
1719,9.6151,5.4545,0,0.0003487,3484.6,0.00011529,0.004615,0.0001147,-4.4913,-0.00034878,-3486.9,0.47314
1720,9.6151,5.2727,0,0.00034827,3480.3,0.00011537,0.0057716,0.00011419,-8.7938,-0.00034842,-3484.7,0.4741
1721,9.6151,5.0909,0,0.00034786,3476.2,0.00011543,0.0049567,0.00011372,-12.897,-0.00034808,-3482.6,0.47498
1722,9.6151,4.9091,0,0.00034748,3472.4,0.0001155,0.0047157,0.00011326,-16.775,-0.00034776,-3480.7,0.47579
1723,9.6151,4.7273,0,0.00034712,3468.8,0.00011556,0.0043781,0.00011284,-20.398,-0.00034746,-3478.9,0.47653
1724,9.6151,4.5455,0,0.00034679,3465.5,0.00011561,0.0040931,0.00011245,-23.74,-0.00034718,-3477.3,0.47719
1725,9.6151,4.3636,0,0.00034649,3462.5,0.00011566,0.0038225,0.0001121,-26.777,-0.00034693,-3475.8,0.47778
1726,9.6151,4.1818,0,0.00034622,3459.8,0.00011571,0.003581,0.00011179,-29.486,-0.00034671,-3474.4,0.4783
1727,9.6151,4,0,0.00034599,3457.5,0.00011575,0.003367,0.00011151,-31.846,-0.00034652,-3473.3,0.47874
1728,9.6151,3.8182,0,0.00034579,3455.5,0.00011578,0.0031832,0.00011128,-33.842,-0.00034635,-3472.3,0.4791
1729,9.6151,3.6364,0,0.00034563,3453.9,0.00011581,0.0030328,0.00011109,-35.456,-0.00034622,-3471.5,0.4794
1730,9.6151,3.4545,0,0.00034551,3452.7,0.00011583,0.0029199,0.00011095,-36.678,-0.00034612,-3470.9,0.47962
1731,9.6151,3.2727,0,0.00034543,3451.9,0.00011585,0.0028428,0.00011085,-37.497,-0.00034605,-3470.5,0.47976
1732,9.6151,3.0909,0,0.00034539,3451.5,0.00011585,0.002803,0.00011081,-37.909,-0.00034602,-3470.3,0.47984
1733,9.6151,2.9091,0,0.00034539,3451.5,0.00011585,0.0028028,0.00011081,-37.909,-0.00034602,-3470.3,0.47984
1734,9.6151,2.7273,0,0.00034543,3451.9,0.00011585,0.0028423,0.00011085,-37.497,-0.00034605,-3470.5,0.47976
1735,9.6151,2.5455,0,0.00034551,3452.7,0.00011583,0.0029198,0.00011095,-36.678,-0.00034612,-3470.9,0.47962
1736,9.6151,2.3636,0,0.00034563,3453.9,0.00011581,0.0030334,0.00011109,-35.456,-0.00034622,-3471.5,0.4794
1737,9.6151,2.1818,0,0.00034579,3455.5,0.00011578,0.0031832,0.00011128,-33.842,-0.00034635,-3472.3,0.4791
1738,9.6151,2,0,0.00034599,3457.5,0.00011575,0.0033675,0.00011151,-31.846,-0.00034652,-3473.3,0.47874
1739,9.6151,1.8182,0,0.00034622,3459.8,0.00011571,0.0035812,0.00011179,-29.486,-0.00034671,-3474.4,0.4783
1740,9.6151,1.6364,0,0.00034649,3462.5,0.00011566,0.0038234,0.0001121,-26.777,-0.00034693,-3475.8,0.47778
1741,9.6151,1.4545,0,0.00034679,3465.5,0.00011561,0.0040931,0.00011245,-23.74,-0.00034718,-3477.3,0.47719
1742,9.6151,1.2727,0,0.00034712,3468.8,0.00011556,0.0043788,0.00011284,-20.398,-0.00034746,-3478.9,0.47653
1743,9.6151,1.0909,0,0.00034748,3472.4,0.0001155,0.0047167,0.00011326,-16.775,-0.00034776,-3480.7,0.47579
1744,9.6151,0.90909,0,0.00034786,3476.2,0.00011543,0.0049585,0.00011372,-12.897,-0.00034808,-3482.6,0.47498
1745,9.6151,0.72727,0,0.00034827,3480.3,0.00011537,0.0057726,0.00011419,-8.7939,-0.00034842,-3484.7,0.4741
1746,9.6151,0.54545,0,0.0003487,3484.6,0.00011529,0.0046156,0.0001147,-4.4914,-0.00034878,-3486.9,0.47314
1747,9.6151,0.36364,0,0.00034916,3489.2,0.00011523,0.094199,0.00011522,-0.03641,-0.00034916,-3489.2,0.4721
1748,9.6151,0.18182,0,0.00034979,3495.4,0.00011591,5.7344,0.00011514,-0.020992,-0.00034969,-3492.6,0.47099
1749,9.4302,5.8182,0,0.00035507,3548.2,0.00011759,5.0107,0.00011692,-0.027581,-0.00035498,-3545.8,0.45413
1750,9.4302,5.6364,0,0.00035442,3541.7,0.00011701,0.02416,0.00011686,-1.0949,-0.00035443,-3542.2,0.45525
1751,9.4302,5.4545,0,0.00035392,3536.8,0.00011709,0.0052482,0.00011629,-6.0437,-0.00035403,-3539.8,0.4563
1752,9.4302,5.2727,0,0.00035346,3532.1,0.00011717,0.0062631,0.00011574,-10.754,-0.00035364,-3537.5,0.45728
1753,9.4302,5.0909,0,0.00035302,3527.7,0.00011725,0.0051994,0.00011522,-15.249,-0.00035327,-3535.3,0.45817
1754,9.4302,4.9091,0,0.0003526,3523.6,0.00011732,0.0048455,0.00011473,-19.497,-0.00035293,-3533.3,0.45899
1755,9.4302,4.7273,0,0.00035221,3519.7,0.00011739,0.0044076,0.00011427,-23.468,-0.00035261,-3531.4,0.45974
1756,9.4302,4.5455,0,0.00035185,3516.1,0.00011745,0.0040457,0.00011384,-27.132,-0.00035231,-3529.6,0.46041
1757,9.4302,4.3636,0,0.00035153,3512.9,0.00011751,0.0037102,0.00011346,-30.461,-0.00035204,-3528,0.461
1758,9.4302,4.1818,0,0.00035124,3510,0.00011756,0.0034135,0.00011311,-33.432,-0.0003518,-3526.6,0.46152
1759,9.4302,4,0,0.00035099,3507.5,0.00011761,0.003154,0.00011281,-36.021,-0.00035159,-3525.4,0.46197
1760,9.4302,3.8182,0,0.00035078,3505.4,0.00011764,0.0029327,0.00011256,-38.21,-0.00035141,-3524.3,0.46234
1761,9.4302,3.6364,0,0.00035061,3503.7,0.00011768,0.002753,0.00011235,-39.981,-0.00035127,-3523.5,0.46264
1762,9.4302,3.4545,0,0.00035048,3502.4,0.0001177,0.0026178,0.0001122,-41.321,-0.00035116,-3522.8,0.46286
1763,9.4302,3.2727,0,0.00035039,3501.5,0.00011771,0.0025258,0.00011209,-42.221,-0.00035109,-3522.4,0.46301
1764,9.4302,3.0909,0,0.00035035,3501.1,0.00011772,0.002479,0.00011204,-42.672,-0.00035105,-3522.2,0.46308
1765,9.4302,2.9091,0,0.00035035,3501.1,0.00011772,0.002479,0.00011204,-42.672,-0.00035105,-3522.2,0.46308
1766,9.4302,2.7273,0,0.00035039,3501.5,0.00011771,0.0025258,0.00011209,-42.221,-0.00035109,-3522.4,0.46301
1767,9.4302,2.5455,0,0.00035048,3502.4,0.0001177,0.0026177,0.0001122,-41.321,-0.00035116,-3522.8,0.46286
1768,9.4302,2.3636,0,0.00035061,3503.7,0.00011768,0.0027532,0.00011235,-39.981,-0.00035127,-3523.5,0.46264
1769,9.4302,2.1818,0,0.00035078,3505.4,0.00011764,0.002933,0.00011256,-38.21,-0.00035141,-3524.3,0.46234
1770,9.4302,2,0,0.00035099,3507.5,0.00011761,0.0031541,0.00011281,-36.021,-0.00035159,-3525.4,0.46197
1771,9.4302,1.8182,0,0.00035124,3510,0.00011756,0.0034138,0.00011311,-33.432,-0.0003518,-3526.6,0.46152
1772,9.4302,1.6364,0,0.00035153,3512.9,0.00011751,0.0037106,0.00011346,-30.461,-0.00035204,-3528,0.461
1773,9.4302,1.4545,0,0.00035185,3516.1,0.00011745,0.0040466,0.00011384,-27.132,-0.00035231,-3529.6,0.46041
1774,9.4302,1.2727,0,0.00035221,3519.7,0.00011739,0.0044081,0.00011427,-23.468,-0.00035261,-3531.4,0.45974
1775,9.4302,1.0909,0,0.0003526,3523.6,0.00011732,0.0048461,0.00011473,-19.497,-0.00035293,-3533.3,0.45899
1776,9.4302,0.90909,0,0.00035302,3527.7,0.00011725,0.005201,0.00011522,-15.249,-0.00035327,-3535.3,0.45817
1777,9.4302,0.72727,0,0.00035346,3532.1,0.00011717,0.0062636,0.00011574,-10.754,-0.00035364,-3537.5,0.45728
1778,9.4302,0.54545,0,0.00035392,3536.8,0.00011709,0.0052487,0.00011629,-6.0438,-0.00035403,-3539.8,0.4563
1779,9.4302,0.36364,0,0.00035442,3541.7,0.00011701,0.024161,0.00011686,-1.0949,-0.00035443,-3542.2,0.45525
1780,9.4302,0.18182,0,0.00035507,3548.2,0.00011759,5.0106,0.00011692,-0.02758,-0.00035498,-3545.8,0.45413
1781,9.2453,5.8182,0,0.00036038,3601.3,0.00011928,4.2464,0.00011871,-0.037442,-0.00036031,-3599.2,0.43751
1782,9.2453,5.6364,0,0.00035969,3594.4,0.00011881,0.025113,0.0001185,-2.3004,-0.00035973,-3595.6,0.43865
1783,9.2453,5.4545,0,0.00035916,3589.1,0.00011891,0.0060092,0.00011788,-7.7051,-0.00035929,-3593,0.43971
1784,9.2453,5.2727,0,0.00035866,3584.1,0.00011899,0.0068713,0.00011728,-12.856,-0.00035888,-3590.5,0.4407
1785,9.2453,5.0909,0,0.00035818,3579.4,0.00011908,0.0055235,0.00011671,-17.772,-0.00035848,-3588.2,0.4416
1786,9.2453,4.9091,0,0.00035774,3574.9,0.00011916,0.0050335,0.00011618,-22.42,-0.00035811,-3586,0.44243
1787,9.2453,4.7273,0,0.00035732,3570.7,0.00011924,0.0044779,0.00011568,-26.766,-0.00035776,-3584,0.44319
1788,9.2453,4.5455,0,0.00035693,3566.8,0.00011931,0.0040251,0.00011521,-30.776,-0.00035744,-3582.1,0.44387
1789,9.2453,4.3636,0,0.00035658,3563.3,0.00011937,0.0036141,0.00011479,-34.422,-0.00035715,-3580.4,0.44447
1790,9.2453,4.1818,0,0.00035627,3560.2,0.00011943,0.0032546,0.00011442,-37.675,-0.00035689,-3578.9,0.44499
1791,9.2453,4,0,0.000356,3557.5,0.00011948,0.0029429,0.00011409,-40.511,-0.00035667,-3577.6,0.44544
1792,9.2453,3.8182,0,0.00035577,3555.2,0.00011952,0.0026789,0.00011381,-42.908,-0.00035648,-3576.5,0.44582
1793,9.2453,3.6364,0,0.00035558,3553.4,0.00011956,0.0024657,0.00011359,-44.848,-0.00035632,-3575.6,0.44612
1794,9.2453,3.4545,0,0.00035544,3552,0.00011958,0.0023052,0.00011342,-46.317,-0.00035621,-3574.9,0.44634
1795,9.2453,3.2727,0,0.00035535,3551,0.0001196,0.0021963,0.0001133,-47.302,-0.00035613,-3574.4,0.44649
1796,9.2453,3.0909,0,0.0003553,3550.5,0.00011961,0.0021417,0.00011325,-47.797,-0.00035609,-3574.2,0.44657
1797,9.2453,2.9091,0,0.0003553,3550.5,0.00011961,0.0021417,0.00011325,-47.797,-0.00035609,-3574.2,0.44657
1798,9.2453,2.7273,0,0.00035535,3551,0.0001196,0.0021966,0.0001133,-47.302,-0.00035613,-3574.4,0.44649
1799,9.2453,2.5455,0,0.00035544,3552,0.00011958,0.0023052,0.00011342,-46.317,-0.00035621,-3574.9,0.44634
1800,9.2453,2.3636,0,0.00035558,3553.4,0.00011956,0.0024657,0.00011359,-44.848,-0.00035632,-3575.6,0.44612
1801,9.2453,2.1818,0,0.00035577,3555.2,0.00011952,0.0026792,0.00011381,-42.908,-0.00035648,-3576.5,0.44582
1802,9.2453,2,0,0.000356,3557.5,0.00011948,0.0029438,0.00011409,-40.511,-0.00035667,-3577.6,0.44544
1803,9.2453,1.8182,0,0.00035627,3560.2,0.00011943,0.0032551,0.00011442,-37.675,-0.00035689,-3578.9,0.44499
1804,9.2453,1.6364,0,0.00035658,3563.3,0.00011937,0.0036143,0.00011479,-34.422,-0.00035715,-3580.4,0.44447
1805,9.2453,1.4545,0,0.00035693,3566.8,0.00011931,0.0040256,0.00011521,-30.776,-0.00035744,-3582.1,0.44387
1806,9.2453,1.2727,0,0.00035732,3570.7,0.00011924,0.0044786,0.00011568,-26.766,-0.00035776,-3584,0.44319
1807,9.2453,1.0909,0,0.00035774,3574.9,0.00011916,0.0050339,0.00011618,-22.42,-0.00035811,-3586,0.44243
1808,9.2453,0.90909,0,0.00035818,3579.4,0.00011908,0.0055251,0.00011671,-17.772,-0.00035848,-3588.2,0.4416
1809,9.2453,0.72727,0,0.00035866,3584.1,0.00011899,0.0068726,0.00011728,-12.856,-0.00035888,-3590.5,0.4407
1810,9.2453,0.54545,0,0.00035916,3589.1,0.00011891,0.0060095,0.00011788,-7.7052,-0.00035929,-3593,0.43971
1811,9.2453,0.36364,0,0.00035969,3594.4,0.00011881,0.025114,0.0001185,-2.3004,-0.00035973,-3595.6,0.43865
1812,9.2453,0.18182,0,0.00036038,3601.3,0.00011928,4.2464,0.00011871,-0.037441,-0.00036031,-3599.2,0.43751
1813,9.0604,5.8182,0,0.00036571,3654.6,0.00012097,3.4415,0.00012051,-0.053282,-0.00036565,-3652.9,0.42114
1814,9.0604,5.6364,0,0.00036499,3647.4,0.00012063,0.027595,0.00012014,-3.5894,-0.00036505,-3649.1,0.42229
1815,9.0604,5.4545,0,0.00036442,3641.7,0.00012073,0.0068761,0.00011947,-9.4847,-0.00036458,-3646.4,0.42337
1816,9.0604,5.2727,0,0.00036388,3636.3,0.00012083,0.0075851,0.00011882,-15.11,-0.00036413,-3643.8,0.42436
1817,9.0604,5.0909,0,0.00036337,3631.2,0.00012092,0.0059215,0.0001182,-20.482,-0.00036371,-3641.4,0.42528
1818,9.0604,4.9091,0,0.00036288,3626.3,0.00012102,0.0052755,0.00011761,-25.561,-0.00036331,-3639,0.42612
1819,9.0604,4.7273,0,0.00036243,3621.8,0.0001211,0.0045854,0.00011707,-30.312,-0.00036294,-3636.9,0.42688
1820,9.0604,4.5455,0,0.00036201,3617.6,0.00012118,0.0040306,0.00011656,-34.697,-0.00036259,-3634.8,0.42757
1821,9.0604,4.3636,0,0.00036163,3613.8,0.00012125,0.0035328,0.0001161,-38.683,-0.00036228,-3633,0.42818
1822,9.0604,4.1818,0,0.0003613,3610.5,0.00012131,0.0031025,0.00011569,-42.242,-0.000362,-3631.4,0.42871
1823,9.0604,4,0,0.000361,3607.5,0.00012137,0.0027321,0.00011533,-45.344,-0.00036175,-3630,0.42916
1824,9.0604,3.8182,0,0.00036075,3605.1,0.00012142,0.0024205,0.00011503,-47.967,-0.00036155,-3628.8,0.42954
1825,9.0604,3.6364,0,0.00036055,3603,0.00012146,0.0021693,0.00011479,-50.09,-0.00036138,-3627.8,0.42984
1826,9.0604,3.4545,0,0.0003604,3601.5,0.00012148,0.0019811,0.0001146,-51.697,-0.00036125,-3627.1,0.43007
1827,9.0604,3.2727,0,0.0003603,3600.5,0.0001215,0.0018539,0.00011448,-52.775,-0.00036117,-3626.6,0.43022
1828,9.0604,3.0909,0,0.00036025,3600,0.00012151,0.0017897,0.00011442,-53.316,-0.00036113,-3626.4,0.4303
1829,9.0604,2.9091,0,0.00036025,3600,0.00012151,0.00179,0.00011442,-53.316,-0.00036113,-3626.4,0.4303
1830,9.0604,2.7273,0,0.0003603,3600.5,0.0001215,0.001854,0.00011448,-52.775,-0.00036117,-3626.6,0.43022
1831,9.0604,2.5455,0,0.0003604,3601.5,0.00012148,0.0019812,0.0001146,-51.697,-0.00036125,-3627.1,0.43007
1832,9.0604,2.3636,0,0.00036055,3603,0.00012146,0.0021695,0.00011479,-50.09,-0.00036138,-3627.8,0.42984
1833,9.0604,2.1818,0,0.00036075,3605.1,0.00012142,0.0024208,0.00011503,-47.967,-0.00036155,-3628.8,0.42954
1834,9.0604,2,0,0.000361,3607.5,0.00012137,0.0027326,0.00011533,-45.344,-0.00036175,-3630,0.42916
1835,9.0604,1.8182,0,0.0003613,3610.5,0.00012131,0.0031031,0.00011569,-42.242,-0.000362,-3631.4,0.42871
1836,9.0604,1.6364,0,0.00036163,3613.8,0.00012125,0.0035338,0.0001161,-38.683,-0.00036228,-3633,0.42818
1837,9.0604,1.4545,0,0.00036201,3617.6,0.00012118,0.0040308,0.00011656,-34.697,-0.00036259,-3634.8,0.42757
1838,9.0604,1.2727,0,0.00036243,3621.8,0.0001211,0.0045863,0.00011707,-30.312,-0.00036294,-3636.9,0.42688
1839,9.0604,1.0909,0,0.00036288,3626.3,0.00012102,0.0052761,0.00011761,-25.561,-0.00036331,-3639,0.42612
1840,9.0604,0.90909,0,0.00036337,3631.2,0.00012092,0.0059228,0.0001182,-20.482,-0.00036371,-3641.4,0.42528
1841,9.0604,0.72727,0,0.00036388,3636.3,0.00012083,0.0075866,0.00011882,-15.11,-0.00036413,-3643.8,0.42436
1842,9.0604,0.54545,0,0.00036442,3641.7,0.00012073,0.0068766,0.00011947,-9.4847,-0.00036458,-3646.4,0.42337
1843,9.0604,0.36364,0,0.00036499,3647.4,0.00012063,0.027596,0.00012014,-3.5895,-0.00036505,-3649.1,0.42229
1844,9.0604,0.18182,0,0.00036571,3654.6,0.00012097,3.4415,0.00012051,-0.05328,-0.00036565,-3652.9,0.42114
1845,8.8755,5.8182,0,0.00037107,3708.1,0.00012267,2.5993,0.00012232,-0.081597,-0.00037102,-3706.8,0.40502
1846,8.8755,5.6364,0,0.00037031,3700.5,0.00012245,0.030642,0.00012178,-4.9675,-0.00037039,-3703,0.40618
1847,8.8755,5.4545,0,0.0003697,3694.4,0.00012256,0.007832,0.00012105,-11.392,-0.00036989,-3700.1,0.40727
1848,8.8755,5.2727,0,0.00036911,3688.6,0.00012268,0.008385,0.00012034,-17.53,-0.00036941,-3697.3,0.40828
1849,8.8755,5.0909,0,0.00036856,3683.1,0.00012278,0.0063757,0.00011967,-23.393,-0.00036895,-3694.7,0.40921
1850,8.8755,4.9091,0,0.00036804,3677.8,0.00012288,0.0055553,0.00011903,-28.939,-0.00036852,-3692.2,0.41005
1851,8.8755,4.7273,0,0.00036755,3673,0.00012298,0.0047161,0.00011844,-34.127,-0.00036812,-3689.9,0.41082
1852,8.8755,4.5455,0,0.0003671,3668.5,0.00012307,0.0040454,0.00011789,-38.917,-0.00036775,-3687.8,0.41152
1853,8.8755,4.3636,0,0.00036669,3664.4,0.00012314,0.0034528,0.00011739,-43.273,-0.00036741,-3685.8,0.41213
1854,8.8755,4.1818,0,0.00036632,3660.7,0.00012322,0.0029432,0.00011694,-47.161,-0.0003671,-3684.1,0.41267
1855,8.8755,4,0,0.00036601,3657.5,0.00012328,0.0025071,0.00011655,-50.551,-0.00036684,-3682.6,0.41313
1856,8.8755,3.8182,0,0.00036574,3654.9,0.00012333,0.0021423,0.00011622,-53.418,-0.00036662,-3681.3,0.41351
1857,8.8755,3.6364,0,0.00036552,3652.7,0.00012337,0.0018498,0.00011595,-55.739,-0.00036644,-3680.2,0.41382
1858,8.8755,3.4545,0,0.00036536,3651,0.0001234,0.0016303,0.00011575,-57.496,-0.0003663,-3679.5,0.41405
1859,8.8755,3.2727,0,0.00036525,3649.9,0.00012343,0.0014827,0.00011562,-58.675,-0.00036621,-3678.9,0.4142
1860,8.8755,3.0909,0,0.00036519,3649.4,0.00012344,0.0014085,0.00011555,-59.267,-0.00036616,-3678.7,0.41428
1861,8.8755,2.9091,0,0.00036519,3649.4,0.00012344,0.0014083,0.00011555,-59.267,-0.00036616,-3678.7,0.41428
1862,8.8755,2.7273,0,0.00036525,3649.9,0.00012343,0.0014827,0.00011562,-58.675,-0.00036621,-3678.9,0.4142
1863,8.8755,2.5455,0,0.00036536,3651,0.0001234,0.0016307,0.00011575,-57.496,-0.0003663,-3679.5,0.41405
1864,8.8755,2.3636,0,0.00036552,3652.7,0.00012337,0.00185,0.00011595,-55.739,-0.00036644,-3680.2,0.41382
1865,8.8755,2.1818,0,0.00036574,3654.9,0.00012333,0.0021426,0.00011622,-53.418,-0.00036662,-3681.3,0.41351
1866,8.8755,2,0,0.00036601,3657.5,0.00012328,0.0025078,0.00011655,-50.551,-0.00036684,-3682.6,0.41313
1867,8.8755,1.8182,0,0.00036632,3660.7,0.00012322,0.0029436,0.00011694,-47.161,-0.0003671,-3684.1,0.41267
1868,8.8755,1.6364,0,0.00036669,3664.4,0.00012315,0.0034527,0.00011739,-43.273,-0.00036741,-3685.8,0.41213
1869,8.8755,1.4545,0,0.0003671,3668.5,0.00012307,0.0040463,0.00011789,-38.917,-0.00036775,-3687.8,0.41152
1870,8.8755,1.2727,0,0.00036755,3673,0.00012298,0.0047171,0.00011844,-34.127,-0.00036812,-3689.9,0.41082
1871,8.8755,1.0909,0,0.00036804,3677.8,0.00012288,0.0055562,0.00011903,-28.939,-0.00036852,-3692.2,0.41005
1872,8.8755,0.90909,0,0.00036856,3683.1,0.00012278,0.0063771,0.00011967,-23.393,-0.00036895,-3694.7,0.40921
1873,8.8755,0.72727,0,0.00036911,3688.6,0.00012268,0.0083858,0.00012034,-17.53,-0.00036941,-3697.3,0.40828
1874,8.8755,0.54545,0,0.0003697,3694.4,0.00012256,0.007832,0.00012105,-11.392,-0.00036989,-3700.1,0.40727
1875,8.8755,0.36364,0,0.00037031,3700.5,0.00012245,0.030643,0.00012178,-4.9675,-0.00037039,-3703,0.40618
1876,8.8755,0.18182,0,0.00037107,3708.1,0.00012267,2.5993,0.00012232,-0.081597,-0.00037102,-3706.8,0.40502
1877,8.6906,5.8182,0,0.00037645,3761.9,0.00012438,1.7359,0.00012413,-0.14171,-0.00037642,-3761.1,0.38915
1878,8.6906,5.6364,0,0.00037565,3753.9,0.00012429,0.034093,0.00012342,-6.4412,-0.00037576,-3757.1,0.39033
1879,8.6906,5.4545,0,0.00037499,3747.3,0.00012441,0.0088843,0.00012262,-13.438,-0.00037522,-3754,0.39143
1880,8.6906,5.2727,0,0.00037436,3741.1,0.00012454,0.0092781,0.00012186,-20.13,-0.0003747,-3751.1,0.39244
1881,8.6906,5.0909,0,0.00037377,3735.1,0.00012465,0.0068932,0.00012112,-26.524,-0.00037421,-3748.3,0.39338
1882,8.6906,4.9091,0,0.0003732,3729.4,0.00012477,0.0058819,0.00012043,-32.575,-0.00037375,-3745.6,0.39424
1883,8.6906,4.7273,0,0.00037267,3724.2,0.00012487,0.0048768,0.00011978,-38.236,-0.00037331,-3743.1,0.39502
1884,8.6906,4.5455,0,0.00037219,3719.3,0.00012497,0.0040789,0.00011918,-43.464,-0.00037291,-3740.8,0.39572
1885,8.6906,4.3636,0,0.00037175,3714.9,0.00012506,0.0033799,0.00011864,-48.218,-0.00037254,-3738.8,0.39634
1886,8.6906,4.1818,0,0.00037135,3711,0.00012514,0.002783,0.00011815,-52.464,-0.00037222,-3736.9,0.39688
1887,8.6906,4,0,0.00037101,3707.5,0.0001252,0.0022751,0.00011773,-56.167,-0.00037193,-3735.3,0.39734
1888,8.6906,3.8182,0,0.00037072,3704.6,0.00012526,0.0018514,0.00011737,-59.298,-0.00037169,-3733.9,0.39773
1889,8.6906,3.6364,0,0.00037048,3702.3,0.00012531,0.0015127,0.00011708,-61.833,-0.00037149,-3732.8,0.39804
1890,8.6906,3.4545,0,0.0003703,3700.5,0.00012534,0.0012592,0.00011686,-63.752,-0.00037135,-3731.9,0.39827
1891,8.6906,3.2727,0,0.00037018,3699.3,0.00012537,0.0010894,0.00011671,-65.04,-0.00037125,-3731.4,0.39843
1892,8.6906,3.0909,0,0.00037012,3698.7,0.00012538,0.0010032,0.00011664,-65.687,-0.0003712,-3731.1,0.3985
1893,8.6906,2.9091,0,0.00037012,3698.7,0.00012538,0.0010036,0.00011664,-65.687,-0.0003712,-3731.1,0.3985
1894,8.6906,2.7273,0,0.00037018,3699.3,0.00012537,0.001089,0.00011671,-65.04,-0.00037125,-3731.4,0.39843
1895,8.6906,2.5455,0,0.0003703,3700.5,0.00012534,0.0012595,0.00011686,-63.752,-0.00037135,-3731.9,0.39827
1896,8.6906,2.3636,0,0.00037048,3702.3,0.00012531,0.0015131,0.00011708,-61.833,-0.00037149,-3732.8,0.39804
1897,8.6906,2.1818,0,0.00037072,3704.6,0.00012526,0.001852,0.00011737,-59.298,-0.00037169,-3733.9,0.39773
1898,8.6906,2,0,0.00037101,3707.5,0.0001252,0.0022754,0.00011773,-56.167,-0.00037193,-3735.3,0.39734
1899,8.6906,1.8182,0,0.00037135,3710.9,0.00012514,0.0027835,0.00011815,-52.464,-0.00037222,-3736.9,0.39688
1900,8.6906,1.6364,0,0.00037175,3714.9,0.00012506,0.0033804,0.00011864,-48.219,-0.00037254,-3738.8,0.39634
1901,8.6906,1.4545,0,0.00037219,3719.3,0.00012497,0.0040792,0.00011918,-43.464,-0.00037291,-3740.8,0.39572
1902,8.6906,1.2727,0,0.00037267,3724.2,0.00012487,0.0048777,0.00011978,-38.236,-0.00037331,-3743.1,0.39502
1903,8.6906,1.0909,0,0.0003732,3729.4,0.00012477,0.0058825,0.00012043,-32.575,-0.00037375,-3745.6,0.39424
1904,8.6906,0.90909,0,0.00037377,3735.1,0.00012465,0.0068951,0.00012112,-26.524,-0.00037421,-3748.3,0.39338
1905,8.6906,0.72727,0,0.00037436,3741.1,0.00012454,0.0092791,0.00012186,-20.13,-0.0003747,-3751.1,0.39244
1906,8.6906,0.54545,0,0.00037499,3747.3,0.00012441,0.0088847,0.00012262,-13.438,-0.00037522,-3754,0.39143
1907,8.6906,0.36364,0,0.00037565,3753.9,0.00012429,0.034094,0.00012342,-6.4412,-0.00037576,-3757.1,0.39033
1908,8.6906,0.18182,0,0.00037645,3761.9,0.00012438,1.7359,0.00012413,-0.14171,-0.00037642,-3761.1,0.38915
1909,8.5057,5.8182,0,0.00038186,3815.9,0.00012611,0.92427,0.00012594,-0.3096,-0.00038185,-3815.6,0.37354
1910,8.5057,5.6364,0,0.00038101,3807.5,0.00012613,0.037916,0.00012506,-8.0176,-0.00038115,-3811.5,0.37473
1911,8.5057,5.4545,0,0.0003803,3800.4,0.00012627,0.010044,0.00012419,-15.632,-0.00038057,-3808.2,0.37584
1912,8.5057,5.2727,0,0.00037963,3793.7,0.00012641,0.010272,0.00012336,-22.923,-0.00038001,-3805.1,0.37687
1913,8.5057,5.0909,0,0.00037898,3787.2,0.00012654,0.0074815,0.00012256,-29.893,-0.00037948,-3802.1,0.37781
1914,8.5057,4.9091,0,0.00037837,3781.1,0.00012667,0.0062591,0.00012181,-36.489,-0.00037898,-3799.2,0.37868
1915,8.5057,4.7273,0,0.0003778,3775.4,0.00012678,0.0050729,0.0001211,-42.662,-0.00037851,-3796.6,0.37947
1916,8.5057,4.5455,0,0.00037728,3770.2,0.00012689,0.0041343,0.00012045,-48.365,-0.00037808,-3794.1,0.38017
1917,8.5057,4.3636,0,0.0003768,3765.4,0.00012699,0.0033191,0.00011986,-53.552,-0.00037768,-3791.9,0.3808
1918,8.5057,4.1818,0,0.00037637,3761.1,0.00012707,0.0026262,0.00011933,-58.184,-0.00037733,-3789.9,0.38135
1919,8.5057,4,0,0.000376,3757.4,0.00012715,0.0020389,0.00011887,-62.225,-0.00037702,-3788.2,0.38182
1920,8.5057,3.8182,0,0.00037569,3754.3,0.00012721,0.0015509,0.00011848,-65.643,-0.00037676,-3786.7,0.38221
1921,8.5057,3.6364,0,0.00037543,3751.7,0.00012727,0.0011617,0.00011816,-68.411,-0.00037655,-3785.5,0.38252
1922,8.5057,3.4545,0,0.00037524,3749.8,0.00012731,0.00087083,0.00011792,-70.506,-0.00037639,-3784.6,0.38275
1923,8.5057,3.2727,0,0.00037511,3748.5,0.00012733,0.00067568,0.00011776,-71.912,-0.00037628,-3784,0.38291
1924,8.5057,3.0909,0,0.00037505,3747.9,0.00012735,0.00057804,0.00011768,-72.618,-0.00037623,-3783.7,0.38298
1925,8.5057,2.9091,0,0.00037505,3747.9,0.00012735,0.00057798,0.00011768,-72.618,-0.00037623,-3783.7,0.38298
1926,8.5057,2.7273,0,0.00037511,3748.5,0.00012733,0.00067573,0.00011776,-71.912,-0.00037628,-3784,0.38291
1927,8.5057,2.5455,0,0.00037524,3749.8,0.00012731,0.00087089,0.00011792,-70.506,-0.00037639,-3784.6,0.38275
1928,8.5057,2.3636,0,0.00037543,3751.7,0.00012727,0.0011619,0.00011816,-68.411,-0.00037655,-3785.5,0.38252
1929,8.5057,2.1818,0,0.00037569,3754.3,0.00012721,0.0015512,0.00011848,-65.643,-0.00037676,-3786.7,0.38221
1930,8.5057,2,0,0.000376,3757.4,0.00012715,0.0020393,0.00011887,-62.225,-0.00037702,-3788.2,0.38182
1931,8.5057,1.8182,0,0.00037637,3761.1,0.00012707,0.0026269,0.00011933,-58.184,-0.00037733,-3789.9,0.38135
1932,8.5057,1.6364,0,0.0003768,3765.4,0.00012699,0.0033196,0.00011986,-53.552,-0.00037768,-3791.9,0.3808
1933,8.5057,1.4545,0,0.00037728,3770.2,0.00012689,0.0041351,0.00012045,-48.365,-0.00037808,-3794.1,0.38017
1934,8.5057,1.2727,0,0.0003778,3775.4,0.00012678,0.0050735,0.0001211,-42.662,-0.00037851,-3796.6,0.37947
1935,8.5057,1.0909,0,0.00037837,3781.1,0.00012667,0.0062598,0.00012181,-36.489,-0.00037898,-3799.2,0.37868
1936,8.5057,0.90909,0,0.00037898,3787.2,0.00012654,0.0074829,0.00012256,-29.893,-0.00037948,-3802.1,0.37781
1937,8.5057,0.72727,0,0.00037963,3793.7,0.00012641,0.010273,0.00012336,-22.924,-0.00038001,-3805.1,0.37687
1938,8.5057,0.54545,0,0.0003803,3800.4,0.00012627,0.010044,0.00012419,-15.632,-0.00038057,-3808.2,0.37584
1939,8.5057,0.36364,0,0.00038101,3807.5,0.00012613,0.037917,0.00012506,-8.0176,-0.00038115,-3811.5,0.37473
1940,8.5057,0.18182,0,0.00038186,3815.9,0.00012611,0.92425,0.00012594,-0.3096,-0.00038185,-3815.6,0.37354
1941,8.3208,5.8182,0,0.00038729,3870.2,0.00012788,0.40335,0.00012772,-0.82768,-0.0003873,-3870.5,0.35818
1942,8.3208,5.6364,0,0.0003864,3861.3,0.000128,0.042104,0.0001267,-9.7041,-0.00038656,-3866.1,0.35939
1943,8.3208,5.4545,0,0.00038563,3853.7,0.00012815,0.01131,0.00012575,-17.988,-0.00038594,-3862.6,0.36051
1944,8.3208,5.2727,0,0.00038491,3846.4,0.0001283,0.011364,0.00012485,-25.927,-0.00038534,-3859.3,0.36155
1945,8.3208,5.0909,0,0.00038421,3839.5,0.00012845,0.0081331,0.00012398,-33.519,-0.00038477,-3856.1,0.36251
1946,8.3208,4.9091,0,0.00038355,3832.9,0.00012858,0.0066815,0.00012317,-40.707,-0.00038423,-3853.1,0.36338
1947,8.3208,4.7273,0,0.00038294,3826.7,0.00012871,0.0052964,0.0001224,-47.434,-0.00038372,-3850.2,0.36417
1948,8.3208,4.5455,0,0.00038237,3821.1,0.00012883,0.0042043,0.00012169,-53.65,-0.00038325,-3847.6,0.36489
1949,8.3208,4.3636,0,0.00038185,3815.9,0.00012894,0.0032615,0.00012104,-59.307,-0.00038283,-3845.2,0.36552
1950,8.3208,4.1818,0,0.00038139,3811.3,0.00012903,0.0024632,0.00012047,-64.359,-0.00038245,-3843.1,0.36607
1951,8.3208,4,0,0.00038099,3807.3,0.00012912,0.0017892,0.00011997,-68.767,-0.00038211,-3841.2,0.36654
1952,8.3208,3.8182,0,0.00038065,3803.9,0.00012919,0.0012306,0.00011954,-72.495,-0.00038183,-3839.6,0.36694
1953,8.3208,3.6364,0,0.00038037,3801.1,0.00012925,0.00078615,0.00011919,-75.515,-0.0003816,-3838.3,0.36725
1954,8.3208,3.4545,0,0.00038017,3799,0.00012929,0.00045405,0.00011893,-77.801,-0.00038143,-3837.3,0.36749
1955,8.3208,3.2727,0,0.00038003,3797.6,0.00012932,0.00023214,0.00011876,-79.336,-0.00038131,-3836.7,0.36764
1956,8.3208,3.0909,0,0.00037996,3796.9,0.00012933,0.00012029,0.00011867,-80.106,-0.00038125,-3836.4,0.36772
1957,8.3208,2.9091,0,0.00037996,3796.9,0.00012933,0.00012083,0.00011867,-80.106,-0.00038125,-3836.4,0.36772
1958,8.3208,2.7273,0,0.00038003,3797.6,0.00012932,0.00023196,0.00011876,-79.336,-0.00038131,-3836.7,0.36764
1959,8.3208,2.5455,0,0.00038017,3799,0.00012929,0.00045435,0.00011893,-77.801,-0.00038143,-3837.3,0.36749
1960,8.3208,2.3636,0,0.00038037,3801.1,0.00012925,0.00078627,0.00011919,-75.515,-0.0003816,-3838.3,0.36725
1961,8.3208,2.1818,0,0.00038065,3803.9,0.00012919,0.0012311,0.00011954,-72.495,-0.00038183,-3839.6,0.36694
1962,8.3208,2,0,0.00038099,3807.3,0.00012912,0.0017897,0.00011997,-68.767,-0.00038211,-3841.2,0.36654
1963,8.3208,1.8182,0,0.00038139,3811.3,0.00012903,0.0024639,0.00012047,-64.359,-0.00038245,-3843.1,0.36607
1964,8.3208,1.6364,0,0.00038185,3815.9,0.00012894,0.003262,0.00012104,-59.307,-0.00038283,-3845.2,0.36552
1965,8.3208,1.4545,0,0.00038237,3821.1,0.00012883,0.0042054,0.00012169,-53.65,-0.00038325,-3847.6,0.36489
1966,8.3208,1.2727,0,0.00038294,3826.7,0.00012871,0.0052973,0.0001224,-47.434,-0.00038372,-3850.2,0.36417
1967,8.3208,1.0909,0,0.00038355,3832.9,0.00012858,0.0066821,0.00012317,-40.707,-0.00038423,-3853.1,0.36338
1968,8.3208,0.90909,0,0.00038421,3839.5,0.00012845,0.0081346,0.00012398,-33.519,-0.00038477,-3856.1,0.36251
1969,8.3208,0.72727,0,0.00038491,3846.4,0.0001283,0.011364,0.00012485,-25.927,-0.00038534,-3859.3,0.36155
1970,8.3208,0.54545,0,0.00038563,3853.7,0.00012815,0.011311,0.00012575,-17.988,-0.00038594,-3862.6,0.36051
1971,8.3208,0.36364,0,0.0003864,3861.3,0.000128,0.042105,0.0001267,-9.7041,-0.00038656,-3866.1,0.35939
1972,8.3208,0.18182,0,0.00038729,3870.2,0.00012788,0.40335,0.00012772,-0.82769,-0.0003873,-3870.5,0.35818
1973,8.1358,5.8182,0,0.00039275,3924.8,0.00012971,0.2233,0.00012945,-1.7493,-0.00039278,-3925.6,0.3431
1974,8.1358,5.6364,0,0.00039181,3915.4,0.00012987,0.046675,0.00012833,-11.509,-0.000392,-3921.1,0.34431
1975,8.1358,5.4545,0,0.00039099,3907.2,0.00013004,0.012691,0.00012731,-20.516,-0.00039133,-3917.4,0.34545
1976,8.1358,5.2727,0,0.0003902,3899.3,0.00013021,0.012561,0.00012633,-29.158,-0.00039069,-3913.8,0.3465
1977,8.1358,5.0909,0,0.00038945,3891.8,0.00013037,0.0088538,0.00012539,-37.424,-0.00039007,-3910.4,0.34746
1978,8.1358,4.9091,0,0.00038874,3884.7,0.00013052,0.007152,0.0001245,-45.251,-0.00038949,-3907.1,0.34834
1979,8.1358,4.7273,0,0.00038807,3878.1,0.00013066,0.0055508,0.00012366,-52.58,-0.00038894,-3904.1,0.34914
1980,8.1358,4.5455,0,0.00038746,3871.9,0.00013079,0.004291,0.00012289,-59.354,-0.00038843,-3901.3,0.34986
1981,8.1358,4.3636,0,0.0003869,3866.3,0.00013091,0.0032084,0.00012219,-65.519,-0.00038797,-3898.7,0.3505
1982,8.1358,4.1818,0,0.0003864,3861.4,0.00013101,0.0022953,0.00012156,-71.026,-0.00038756,-3896.4,0.35106
1983,8.1358,4,0,0.00038597,3857,0.00013111,0.0015259,0.00012101,-75.832,-0.0003872,-3894.4,0.35153
1984,8.1358,3.8182,0,0.0003856,3853.3,0.00013118,0.00089054,0.00012055,-79.898,-0.0003869,-3892.7,0.35193
1985,8.1358,3.6364,0,0.0003853,3850.3,0.00013125,0.00038546,0.00012018,-83.192,-0.00038665,-3891.3,0.35225
1986,8.1358,3.4545,0,0.00038507,3848.1,0.0001313,8.3826e-06,0.00011989,-85.686,-0.00038646,-3890.2,0.35248
1987,8.1358,3.2727,0,0.00038492,3846.6,0.00013133,-0.00024344,0.0001197,-87.36,-0.00038634,-3889.5,0.35264
1988,8.1358,3.0909,0,0.00038485,3845.8,0.00013134,-0.00036935,0.0001196,-88.2,-0.00038627,-3889.2,0.35272
1989,8.1358,2.9091,0,0.00038485,3845.8,0.00013134,-0.00036947,0.0001196,-88.2,-0.00038627,-3889.2,0.35272
1990,8.1358,2.7273,0,0.00038492,3846.6,0.00013133,-0.00024291,0.0001197,-87.36,-0.00038634,-3889.5,0.35264
1991,8.1358,2.5455,0,0.00038507,3848.1,0.0001313,8.8006e-06,0.00011989,-85.686,-0.00038646,-3890.2,0.35248
1992,8.1358,2.3636,0,0.0003853,3850.3,0.00013125,0.00038534,0.00012018,-83.192,-0.00038665,-3891.3,0.35225
1993,8.1358,2.1818,0,0.0003856,3853.3,0.00013118,0.00089066,0.00012055,-79.898,-0.0003869,-3892.7,0.35193
1994,8.1358,2,0,0.00038597,3857,0.00013111,0.0015264,0.00012101,-75.832,-0.0003872,-3894.4,0.35153
1995,8.1358,1.8182,0,0.0003864,3861.4,0.00013101,0.0022958,0.00012156,-71.026,-0.00038756,-3896.4,0.35106
1996,8.1358,1.6364,0,0.0003869,3866.3,0.00013091,0.0032088,0.00012219,-65.519,-0.00038797,-3898.7,0.3505
1997,8.1358,1.4545,0,0.00038746,3871.9,0.00013079,0.0042916,0.00012289,-59.354,-0.00038843,-3901.3,0.34986
1998,8.1358,1.2727,0,0.00038807,3878.1,0.00013066,0.0055517,0.00012366,-52.58,-0.00038894,-3904.1,0.34914
1999,8.1358,1.0909,0,0.00038874,3884.7,0.00013052,0.0071528,0.0001245,-45.251,-0.00038949,-3907.1,0.34834
2000,8.1358,0.90909,0,0.00038945,3891.8,0.00013037,0.0088546,0.00012539,-37.424,-0.00039007,-3910.4,0.34746
2001,8.1358,0.72727,0,0.0003902,3899.3,0.00013021,0.012561,0.00012633,-29.158,-0.00039069,-3913.8,0.3465
2002,8.1358,0.54545,0,0.00039099,3907.2,0.00013004,0.012692,0.00012731,-20.517,-0.00039133,-3917.4,0.34545
2003,8.1358,0.36364,0,0.00039181,3915.4,0.00012987,0.046676,0.00012833,-11.509,-0.000392,-3921.1,0.34431
2004,8.1358,0.18182,0,0.00039275,3924.8,0.00012971,0.2233,0.00012945,-1.7494,-0.00039278,-3925.6,0.3431
2005,7.9509,5.8182,0,0.00039825,3979.7,0.00013158,0.16059,0.00013117,-2.8544,-0.00039829,-3981.1,0.32828
2006,7.9509,5.6364,0,0.00039724,3969.7,0.00013176,0.051654,0.00012996,-13.44,-0.00039747,-3976.3,0.32951
2007,7.9509,5.4545,0,0.00039635,3960.8,0.00013195,0.014196,0.00012885,-23.231,-0.00039674,-3972.4,0.33065
2008,7.9509,5.2727,0,0.00039551,3952.3,0.00013213,0.013867,0.00012779,-32.633,-0.00039605,-3968.5,0.33171
2009,7.9509,5.0909,0,0.0003947,3944.2,0.00013231,0.0096447,0.00012677,-41.629,-0.00039539,-3964.9,0.33268
2010,7.9509,4.9091,0,0.00039393,3936.6,0.00013247,0.0076713,0.0001258,-50.15,-0.00039476,-3961.4,0.33357
2011,7.9509,4.7273,0,0.00039321,3929.4,0.00013263,0.0058343,0.00012489,-58.131,-0.00039417,-3958.1,0.33438
2012,7.9509,4.5455,0,0.00039255,3922.8,0.00013277,0.0043911,0.00012405,-65.509,-0.00039362,-3955.1,0.3351
2013,7.9509,4.3636,0,0.00039194,3916.7,0.0001329,0.0031566,0.00012329,-72.226,-0.00039312,-3952.3,0.33575
2014,7.9509,4.1818,0,0.0003914,3911.3,0.00013302,0.0021181,0.00012261,-78.228,-0.00039267,-3949.9,0.33631
2015,7.9509,4,0,0.00039093,3906.6,0.00013312,0.0012451,0.00012201,-83.467,-0.00039228,-3947.7,0.33679
2016,7.9509,3.8182,0,0.00039053,3902.6,0.00013321,0.00052545,0.00012151,-87.9,-0.00039195,-3945.8,0.33719
2017,7.9509,3.6364,0,0.00039021,3899.4,0.00013327,-4.5664e-05,0.0001211,-91.491,-0.00039169,-3944.4,0.33751
2018,7.9509,3.4545,0,0.00038997,3897,0.00013333,-0.00047151,0.00012079,-94.21,-0.00039148,-3943.2,0.33775
2019,7.9509,3.2727,0,0.0003898,3895.3,0.00013336,-0.00075547,0.00012058,-96.036,-0.00039135,-3942.5,0.3379
2020,7.9509,3.0909,0,0.00038972,3894.5,0.00013338,-0.00089791,0.00012048,-96.953,-0.00039128,-3942.1,0.33798
2021,7.9509,2.9091,0,0.00038972,3894.5,0.00013338,-0.00089767,0.00012048,-96.953,-0.00039128,-3942.1,0.33798
2022,7.9509,2.7273,0,0.0003898,3895.3,0.00013336,-0.00075535,0.00012058,-96.036,-0.00039135,-3942.5,0.3379
2023,7.9509,2.5455,0,0.00038997,3897,0.00013333,-0.00047127,0.00012079,-94.21,-0.00039148,-3943.2,0.33775
2024,7.9509,2.3636,0,0.00039021,3899.4,0.00013327,-4.5604e-05,0.0001211,-91.491,-0.00039169,-3944.4,0.33751
2025,7.9509,2.1818,0,0.00039053,3902.6,0.00013321,0.00052568,0.00012151,-87.9,-0.00039195,-3945.8,0.33719
2026,7.9509,2,0,0.00039093,3906.6,0.00013312,0.0012455,0.00012201,-83.467,-0.00039228,-3947.7,0.33679
2027,7.9509,1.8182,0,0.0003914,3911.3,0.00013302,0.0021182,0.00012261,-78.228,-0.00039267,-3949.9,0.33631
2028,7.9509,1.6364,0,0.00039194,3916.7,0.0001329,0.0031572,0.00012329,-72.226,-0.00039312,-3952.3,0.33575
2029,7.9509,1.4545,0,0.00039255,3922.8,0.00013277,0.0043919,0.00012405,-65.51,-0.00039362,-3955.1,0.3351
2030,7.9509,1.2727,0,0.00039321,3929.4,0.00013263,0.0058348,0.00012489,-58.131,-0.00039417,-3958.1,0.33438
2031,7.9509,1.0909,0,0.00039393,3936.6,0.00013247,0.007672,0.0001258,-50.15,-0.00039476,-3961.4,0.33357
2032,7.9509,0.90909,0,0.0003947,3944.2,0.00013231,0.0096462,0.00012677,-41.629,-0.00039539,-3964.9,0.33268
2033,7.9509,0.72727,0,0.00039551,3952.3,0.00013213,0.013868,0.00012779,-32.633,-0.00039605,-3968.5,0.33171
2034,7.9509,0.54545,0,0.00039635,3960.8,0.00013195,0.014196,0.00012885,-23.231,-0.00039674,-3972.4,0.33065
2035,7.9509,0.36364,0,0.00039724,3969.7,0.00013176,0.051655,0.00012996,-13.44,-0.00039747,-3976.3,0.32951
2036,7.9509,0.18182,0,0.00039825,3979.7,0.00013158,0.16059,0.00013117,-2.8544,-0.00039829,-3981.1,0.32828
2037,7.766,5.8182,0,0.00040377,4034.9,0.00013346,0.13275,0.0001329,-4.0636,-0.00040383,-4036.8,0.31373
2038,7.766,5.6364,0,0.0004027,4024.2,0.00013366,0.057082,0.00013159,-15.506,-0.00040296,-4031.9,0.31497
2039,7.766,5.4545,0,0.00040174,4014.7,0.00013387,0.015845,0.00013039,-26.146,-0.00040218,-4027.7,0.31612
2040,7.766,5.2727,0,0.00040083,4005.5,0.00013407,0.015301,0.00012923,-36.371,-0.00040143,-4023.6,0.31719
2041,7.766,5.0909,0,0.00039995,3996.8,0.00013427,0.010521,0.00012812,-46.159,-0.00040072,-4019.6,0.31817
2042,7.766,4.9091,0,0.00039912,3988.5,0.00013445,0.008252,0.00012707,-55.433,-0.00040004,-4015.9,0.31907
2043,7.766,4.7273,0,0.00039835,3980.7,0.00013462,0.0061586,0.00012608,-64.121,-0.0003994,-4012.4,0.31988
2044,7.766,4.5455,0,0.00039763,3973.5,0.00013478,0.004516,0.00012517,-72.155,-0.00039881,-4009.1,0.32061
2045,7.766,4.3636,0,0.00039698,3967,0.00013492,0.0031156,0.00012434,-79.472,-0.00039827,-4006.1,0.32126
2046,7.766,4.1818,0,0.00039639,3961.2,0.00013505,0.00194,0.0001236,-86.011,-0.00039778,-4003.5,0.32183
2047,7.766,4,0,0.00039588,3956.1,0.00013516,0.00095386,0.00012295,-91.719,-0.00039736,-4001.1,0.32231
2048,7.766,3.8182,0,0.00039545,3951.8,0.00013525,0.00014309,0.0001224,-96.551,-0.000397,-3999.2,0.32271
2049,7.766,3.6364,0,0.0003951,3948.3,0.00013533,-0.00050049,0.00012196,-100.47,-0.00039671,-3997.6,0.32303
2050,7.766,3.4545,0,0.00039484,3945.6,0.00013539,-0.00097936,0.00012162,-103.43,-0.00039649,-3996.3,0.32327
2051,7.766,3.2727,0,0.00039466,3943.9,0.00013542,-0.0012988,0.00012139,-105.42,-0.00039635,-3995.5,0.32343
2052,7.766,3.0909,0,0.00039457,3943,0.00013544,-0.0014587,0.00012128,-106.42,-0.00039627,-3995.1,0.32352
2053,7.766,2.9091,0,0.00039457,3943,0.00013544,-0.0014586,0.00012128,-106.42,-0.00039627,-3995.1,0.32352
2054,7.766,2.7273,0,0.00039466,3943.9,0.00013542,-0.0012988,0.00012139,-105.42,-0.00039635,-3995.5,0.32343
2055,7.766,2.5455,0,0.00039484,3945.6,0.00013539,-0.000979,0.00012162,-103.43,-0.00039649,-3996.3,0.32327
2056,7.766,2.3636,0,0.0003951,3948.3,0.00013533,-0.00050008,0.00012196,-100.47,-0.00039671,-3997.6,0.32303
2057,7.766,2.1818,0,0.00039545,3951.8,0.00013525,0.00014333,0.0001224,-96.551,-0.000397,-3999.2,0.32271
2058,7.766,2,0,0.00039588,3956.1,0.00013516,0.00095458,0.00012295,-91.719,-0.00039736,-4001.1,0.32231
2059,7.766,1.8182,0,0.00039639,3961.2,0.00013505,0.0019407,0.0001236,-86.011,-0.00039778,-4003.5,0.32183
2060,7.766,1.6364,0,0.00039698,3967,0.00013492,0.0031162,0.00012434,-79.472,-0.00039827,-4006.1,0.32126
2061,7.766,1.4545,0,0.00039763,3973.5,0.00013478,0.0045164,0.00012517,-72.155,-0.00039881,-4009.1,0.32061
2062,7.766,1.2727,0,0.00039835,3980.7,0.00013462,0.0061593,0.00012608,-64.121,-0.0003994,-4012.4,0.31988
2063,7.766,1.0909,0,0.00039912,3988.5,0.00013445,0.0082527,0.00012707,-55.433,-0.00040004,-4015.9,0.31907
2064,7.766,0.90909,0,0.00039995,3996.8,0.00013427,0.010522,0.00012812,-46.159,-0.00040072,-4019.6,0.31817
2065,7.766,0.72727,0,0.00040083,4005.5,0.00013407,0.015302,0.00012923,-36.371,-0.00040143,-4023.6,0.31719
2066,7.766,0.54545,0,0.00040174,4014.7,0.00013387,0.015845,0.00013039,-26.146,-0.00040218,-4027.7,0.31612
2067,7.766,0.36364,0,0.0004027,4024.2,0.00013366,0.057083,0.00013159,-15.506,-0.00040296,-4031.9,0.31497
2068,7.766,0.18182,0,0.00040377,4034.9,0.00013346,0.13275,0.0001329,-4.0636,-0.00040383,-4036.8,0.31373
2069,7.5811,5.8182,0,0.00040932,4090.4,0.00013535,0.1188,0.00013462,-5.3591,-0.00040941,-4093,0.29946
2070,7.5811,5.6364,0,0.00040818,4079,0.00013558,0.062999,0.00013321,-17.716,-0.00040848,-4087.8,0.30071
2071,7.5811,5.4545,0,0.00040715,4068.7,0.00013581,0.017653,0.00013191,-29.276,-0.00040764,-4083.2,0.30187
2072,7.5811,5.2727,0,0.00040616,4058.8,0.00013603,0.016876,0.00013065,-40.393,-0.00040683,-4078.9,0.30295
2073,7.5811,5.0909,0,0.00040522,4049.4,0.00013624,0.011491,0.00012945,-51.038,-0.00040606,-4074.6,0.30394
2074,7.5811,4.9091,0,0.00040432,4040.4,0.00013644,0.0089002,0.00012831,-61.129,-0.00040533,-4070.6,0.30484
2075,7.5811,4.7273,0,0.00040348,4032,0.00013663,0.0065276,0.00012724,-70.585,-0.00040464,-4066.9,0.30566
2076,7.5811,4.5455,0,0.0004027,4024.3,0.0001368,0.0046683,0.00012624,-79.332,-0.000404,-4063.3,0.3064
2077,7.5811,4.3636,0,0.000402,4017.2,0.00013696,0.0030871,0.00012534,-87.299,-0.00040341,-4060.1,0.30705
2078,7.5811,4.1818,0,0.00040137,4010.9,0.0001371,0.0017621,0.00012453,-94.422,-0.00040289,-4057.3,0.30762
2079,7.5811,4,0,0.00040081,4005.4,0.00013722,0.00065353,0.00012383,-100.64,-0.00040243,-4054.7,0.3081
2080,7.5811,3.8182,0,0.00040035,4000.7,0.00013733,-0.00025808,0.00012323,-105.91,-0.00040204,-4052.6,0.30851
2081,7.5811,3.6364,0,0.00039997,3996.9,0.00013741,-0.00097956,0.00012275,-110.17,-0.00040173,-4050.9,0.30883
2082,7.5811,3.4545,0,0.00039968,3994.1,0.00013747,-0.0015169,0.00012238,-113.41,-0.00040149,-4049.6,0.30907
2083,7.5811,3.2727,0,0.00039949,3992.1,0.00013751,-0.0018749,0.00012213,-115.58,-0.00040133,-4048.7,0.30924
2084,7.5811,3.0909,0,0.00039939,3991.2,0.00013754,-0.002054,0.00012201,-116.67,-0.00040125,-4048.2,0.30932
2085,7.5811,2.9091,0,0.00039939,3991.2,0.00013754,-0.0020538,0.00012201,-116.67,-0.00040125,-4048.2,0.30932
2086,7.5811,2.7273,0,0.00039949,3992.1,0.00013751,-0.0018746,0.00012213,-115.58,-0.00040133,-4048.7,0.30924
2087,7.5811,2.5455,0,0.00039968,3994.1,0.00013747,-0.0015169,0.00012238,-113.41,-0.00040149,-4049.6,0.30907
2088,7.5811,2.3636,0,0.00039997,3996.9,0.00013741,-0.00097938,0.00012275,-110.17,-0.00040173,-4050.9,0.30883
2089,7.5811,2.1818,0,0.00040035,4000.7,0.00013733,-0.00025712,0.00012323,-105.91,-0.00040204,-4052.6,0.30851
2090,7.5811,2,0,0.00040081,4005.4,0.00013722,0.00065365,0.00012383,-100.64,-0.00040243,-4054.7,0.3081
2091,7.5811,1.8182,0,0.00040137,4010.9,0.0001371,0.0017629,0.00012453,-94.422,-0.00040289,-4057.3,0.30762
2092,7.5811,1.6364,0,0.000402,4017.2,0.00013696,0.0030877,0.00012534,-87.299,-0.00040341,-4060.1,0.30705
2093,7.5811,1.4545,0,0.0004027,4024.3,0.0001368,0.004669,0.00012624,-79.332,-0.000404,-4063.3,0.3064
2094,7.5811,1.2727,0,0.00040348,4032,0.00013663,0.0065281,0.00012724,-70.585,-0.00040464,-4066.9,0.30566
2095,7.5811,1.0909,0,0.00040432,4040.4,0.00013644,0.0089011,0.00012831,-61.129,-0.00040533,-4070.6,0.30484
2096,7.5811,0.90909,0,0.00040522,4049.4,0.00013624,0.011492,0.00012945,-51.038,-0.00040606,-4074.6,0.30394
2097,7.5811,0.72727,0,0.00040616,4058.8,0.00013603,0.016877,0.00013065,-40.393,-0.00040683,-4078.9,0.30295
2098,7.5811,0.54545,0,0.00040715,4068.7,0.00013581,0.017653,0.00013191,-29.276,-0.00040764,-4083.2,0.30187
2099,7.5811,0.36364,0,0.00040818,4079,0.00013558,0.063001,0.00013321,-17.716,-0.00040848,-4087.8,0.30071
2100,7.5811,0.18182,0,0.00040932,4090.4,0.00013535,0.1188,0.00013462,-5.3591,-0.00040941,-4093,0.29946
2101,7.3962,5.8182,0,0.0004149,4146.2,0.00013726,0.11182,0.00013635,-6.737,-0.00041501,-4149.5,0.28547
2102,7.3962,5.6364,0,0.00041369,4134,0.00013752,0.069433,0.00013483,-20.079,-0.00041402,-4144,0.28673
2103,7.3962,5.4545,0,0.00041258,4122.9,0.00013777,0.01962,0.00013342,-32.635,-0.00041312,-4139.1,0.2879
2104,7.3962,5.2727,0,0.00041151,4112.3,0.00013801,0.018588,0.00013205,-44.719,-0.00041225,-4134.4,0.28898
2105,7.3962,5.0909,0,0.00041049,4102.1,0.00013824,0.012546,0.00013075,-56.295,-0.00041142,-4129.9,0.28998
2106,7.3962,4.9091,0,0.00040952,4092.4,0.00013846,0.0096064,0.00012951,-67.271,-0.00041062,-4125.6,0.29089
2107,7.3962,4.7273,0,0.00040861,4083.3,0.00013867,0.0069307,0.00012834,-77.561,-0.00040988,-4121.5,0.29172
2108,7.3962,4.5455,0,0.00040777,4074.9,0.00013886,0.0048347,0.00012727,-87.083,-0.00040918,-4117.8,0.29246
2109,7.3962,4.3636,0,0.00040701,4067.3,0.00013903,0.0030572,0.00012628,-95.758,-0.00040855,-4114.3,0.29311
2110,7.3962,4.1818,0,0.00040632,4060.4,0.00013918,0.0015704,0.0001254,-103.52,-0.00040798,-4111.2,0.29368
2111,7.3962,4,0,0.00040573,4054.5,0.00013932,0.00032693,0.00012464,-110.29,-0.00040749,-4108.5,0.29417
2112,7.3962,3.8182,0,0.00040522,4049.4,0.00013943,-0.00069277,0.00012399,-116.03,-0.00040707,-4106.2,0.29458
2113,7.3962,3.6364,0,0.00040481,4045.3,0.00013952,-0.0015001,0.00012346,-120.68,-0.00040673,-4104.3,0.29491
2114,7.3962,3.4545,0,0.0004045,4042.2,0.00013959,-0.0021008,0.00012306,-124.2,-0.00040647,-4102.9,0.29515
2115,7.3962,3.2727,0,0.00040429,4040.1,0.00013964,-0.0025009,0.00012279,-126.57,-0.0004063,-4101.9,0.29531
2116,7.3962,3.0909,0,0.00040419,4039.1,0.00013966,-0.002701,0.00012266,-127.76,-0.00040621,-4101.4,0.29539
2117,7.3962,2.9091,0,0.00040419,4039.1,0.00013966,-0.0027008,0.00012266,-127.76,-0.00040621,-4101.4,0.29539
2118,7.3962,2.7273,0,0.00040429,4040.1,0.00013964,-0.002501,0.00012279,-126.57,-0.0004063,-4101.9,0.29531
2119,7.3962,2.5455,0,0.0004045,4042.2,0.00013959,-0.0021008,0.00012306,-124.2,-0.00040647,-4102.9,0.29515
2120,7.3962,2.3636,0,0.00040481,4045.3,0.00013952,-0.0015002,0.00012346,-120.68,-0.00040673,-4104.3,0.29491
2121,7.3962,2.1818,0,0.00040522,4049.4,0.00013943,-0.00069265,0.00012399,-116.03,-0.00040707,-4106.2,0.29458
2122,7.3962,2,0,0.00040573,4054.5,0.00013932,0.00032753,0.00012464,-110.29,-0.00040749,-4108.5,0.29417
2123,7.3962,1.8182,0,0.00040632,4060.4,0.00013918,0.001571,0.0001254,-103.52,-0.00040798,-4111.2,0.29368
2124,7.3962,1.6364,0,0.00040701,4067.3,0.00013903,0.0030578,0.00012628,-95.758,-0.00040855,-4114.3,0.29311
2125,7.3962,1.4545,0,0.00040777,4074.9,0.00013886,0.0048355,0.00012727,-87.083,-0.00040918,-4117.8,0.29246
2126,7.3962,1.2727,0,0.00040861,4083.3,0.00013867,0.0069313,0.00012834,-77.561,-0.00040988,-4121.5,0.29172
2127,7.3962,1.0909,0,0.00040952,4092.4,0.00013846,0.0096073,0.00012951,-67.271,-0.00041062,-4125.6,0.29089
2128,7.3962,0.90909,0,0.00041049,4102.1,0.00013824,0.012547,0.00013075,-56.295,-0.00041142,-4129.9,0.28998
2129,7.3962,0.72727,0,0.00041151,4112.3,0.00013801,0.018589,0.00013205,-44.719,-0.00041225,-4134.4,0.28898
2130,7.3962,0.54545,0,0.00041258,4122.9,0.00013777,0.01962,0.00013342,-32.635,-0.00041312,-4139.1,0.2879
2131,7.3962,0.36364,0,0.00041369,4134,0.00013752,0.069434,0.00013483,-20.079,-0.00041402,-4144,0.28673
2132,7.3962,0.18182,0,0.0004149,4146.2,0.00013726,0.11182,0.00013635,-6.737,-0.00041501,-4149.5,0.28547
2133,7.2113,5.8182,0,0.00042052,4202.3,0.00013919,0.10902,0.00013808,-8.1972,-0.00042066,-4206.3,0.27176
2134,7.2113,5.6364,0,0.00041922,4189.3,0.00013947,0.076441,0.00013645,-22.605,-0.0004196,-4200.5,0.27303
2135,7.2113,5.4545,0,0.00041802,4177.4,0.00013974,0.021773,0.00013491,-36.24,-0.00041863,-4195.3,0.27421
2136,7.2113,5.2727,0,0.00041687,4165.8,0.00014001,0.02046,0.00013343,-49.373,-0.00041769,-4190.3,0.2753
2137,7.2113,5.0909,0,0.00041577,4154.8,0.00014026,0.013706,0.00013201,-61.958,-0.00041679,-4185.4,0.2763
2138,7.2113,4.9091,0,0.00041472,4144.3,0.0001405,0.010386,0.00013067,-73.896,-0.00041593,-4180.8,0.27722
2139,7.2113,4.7273,0,0.00041374,4134.5,0.00014073,0.0073802,0.0001294,-85.091,-0.00041512,-4176.4,0.27805
2140,7.2113,4.5455,0,0.00041283,4125.4,0.00014094,0.0050274,0.00012823,-95.454,-0.00041437,-4172.3,0.27879
2141,7.2113,4.3636,0,0.000412,4117.2,0.00014112,0.0030363,0.00012716,-104.9,-0.00041369,-4168.6,0.27945
2142,7.2113,4.1818,0,0.00041126,4109.8,0.00014129,0.0013724,0.00012621,-113.35,-0.00041307,-4165.3,0.28003
2143,7.2113,4,0,0.00041061,4103.3,0.00014144,-1.6935e-05,0.00012537,-120.73,-0.00041253,-4162.3,0.28052
2144,7.2113,3.8182,0,0.00041007,4097.8,0.00014156,-0.0011553,0.00012466,-126.98,-0.00041208,-4159.8,0.28093
2145,7.2113,3.6364,0,0.00040962,4093.4,0.00014166,-0.0020564,0.00012409,-132.05,-0.00041171,-4157.8,0.28126
2146,7.2113,3.4545,0,0.00040929,4090,0.00014174,-0.002726,0.00012365,-135.89,-0.00041143,-4156.3,0.2815
2147,7.2113,3.2727,0,0.00040906,4087.8,0.00014179,-0.0031715,0.00012336,-138.47,-0.00041124,-4155.2,0.28167
2148,7.2113,3.0909,0,0.00040895,4086.6,0.00014182,-0.003394,0.00012321,-139.76,-0.00041114,-4154.7,0.28175
2149,7.2113,2.9091,0,0.00040895,4086.6,0.00014182,-0.003394,0.00012321,-139.76,-0.00041114,-4154.7,0.28175
2150,7.2113,2.7273,0,0.00040906,4087.8,0.00014179,-0.0031712,0.00012336,-138.47,-0.00041124,-4155.2,0.28167
2151,7.2113,2.5455,0,0.00040929,4090,0.00014174,-0.0027255,0.00012365,-135.89,-0.00041143,-4156.3,0.2815
2152,7.2113,2.3636,0,0.00040962,4093.4,0.00014166,-0.0020561,0.00012409,-132.05,-0.00041171,-4157.8,0.28126
2153,7.2113,2.1818,0,0.00041007,4097.8,0.00014156,-0.0011552,0.00012466,-126.98,-0.00041208,-4159.8,0.28093
2154,7.2113,2,0,0.00041061,4103.3,0.00014144,-1.6457e-05,0.00012537,-120.73,-0.00041253,-4162.3,0.28052
2155,7.2113,1.8182,0,0.00041126,4109.8,0.00014129,0.0013729,0.00012621,-113.35,-0.00041307,-4165.3,0.28003
2156,7.2113,1.6364,0,0.000412,4117.2,0.00014112,0.0030367,0.00012716,-104.9,-0.00041369,-4168.6,0.27945
2157,7.2113,1.4545,0,0.00041283,4125.4,0.00014094,0.005028,0.00012823,-95.454,-0.00041437,-4172.3,0.27879
2158,7.2113,1.2727,0,0.00041374,4134.5,0.00014073,0.0073813,0.0001294,-85.091,-0.00041512,-4176.4,0.27805
2159,7.2113,1.0909,0,0.00041472,4144.3,0.0001405,0.010387,0.00013067,-73.896,-0.00041593,-4180.8,0.27722
2160,7.2113,0.90909,0,0.00041577,4154.8,0.00014026,0.013707,0.00013201,-61.958,-0.00041679,-4185.4,0.2763
2161,7.2113,0.72727,0,0.00041687,4165.8,0.00014001,0.02046,0.00013343,-49.373,-0.00041769,-4190.3,0.2753
2162,7.2113,0.54545,0,0.00041802,4177.4,0.00013974,0.021773,0.00013491,-36.24,-0.00041863,-4195.3,0.27421
2163,7.2113,0.36364,0,0.00041922,4189.3,0.00013947,0.076443,0.00013645,-22.605,-0.0004196,-4200.5,0.27303
2164,7.2113,0.18182,0,0.00042052,4202.3,0.00013919,0.10902,0.00013808,-8.1972,-0.00042066,-4206.3,0.27176
2165,7.0264,5.8182,0,0.00042617,4258.8,0.00014113,0.10912,0.00013982,-9.7407,-0.00042633,-4263.6,0.25834
2166,7.0264,5.6364,0,0.00042478,4244.9,0.00014144,0.084083,0.00013806,-25.304,-0.00042521,-4257.4,0.25962
2167,7.0264,5.4545,0,0.00042349,4232,0.00014174,0.024135,0.00013639,-40.108,-0.00042416,-4251.9,0.2608
2168,7.0264,5.2727,0,0.00042225,4219.5,0.00014203,0.022512,0.00013479,-54.377,-0.00042314,-4246.5,0.2619
2169,7.0264,5.0909,0,0.00042105,4207.6,0.00014231,0.014984,0.00013325,-68.058,-0.00042217,-4241.2,0.26291
2170,7.0264,4.9091,0,0.00041992,4196.3,0.00014257,0.011252,0.00013178,-81.04,-0.00042124,-4236.2,0.26383
2171,7.0264,4.7273,0,0.00041886,4185.7,0.00014282,0.007887,0.00013041,-93.219,-0.00042037,-4231.5,0.26467
2172,7.0264,4.5455,0,0.00041787,4175.9,0.00014304,0.0052545,0.00012913,-104.5,-0.00041955,-4227.1,0.26542
2173,7.0264,4.3636,0,0.00041698,4166.9,0.00014325,0.0030305,0.00012797,-114.78,-0.00041881,-4223.1,0.26608
2174,7.0264,4.1818,0,0.00041618,4158.9,0.00014343,0.0011744,0.00012693,-123.98,-0.00041815,-4219.5,0.26666
2175,7.0264,4,0,0.00041548,4151.9,0.00014359,-0.0003741,0.00012602,-132.02,-0.00041756,-4216.3,0.26715
2176,7.0264,3.8182,0,0.00041488,4146,0.00014373,-0.0016418,0.00012525,-138.83,-0.00041707,-4213.6,0.26756
2177,7.0264,3.6364,0,0.0004144,4141.1,0.00014384,-0.0026437,0.00012463,-144.36,-0.00041667,-4211.4,0.26789
2178,7.0264,3.4545,0,0.00041404,4137.5,0.00014392,-0.0033888,0.00012415,-148.54,-0.00041636,-4209.8,0.26814
2179,7.0264,3.2727,0,0.00041379,4135.1,0.00014398,-0.0038841,0.00012384,-151.35,-0.00041616,-4208.7,0.2683
2180,7.0264,3.0909,0,0.00041367,4133.8,0.00014401,-0.0041319,0.00012368,-152.77,-0.00041606,-4208.1,0.26838
2181,7.0264,2.9091,0,0.00041367,4133.8,0.00014401,-0.0041318,0.00012368,-152.77,-0.00041606,-4208.1,0.26838
2182,7.0264,2.7273,0,0.00041379,4135.1,0.00014398,-0.0038839,0.00012384,-151.35,-0.00041616,-4208.7,0.2683
2183,7.0264,2.5455,0,0.00041404,4137.5,0.00014392,-0.0033886,0.00012415,-148.54,-0.00041636,-4209.8,0.26814
2184,7.0264,2.3636,0,0.0004144,4141.1,0.00014384,-0.0026438,0.00012463,-144.36,-0.00041667,-4211.4,0.26789
2185,7.0264,2.1818,0,0.00041488,4146,0.00014373,-0.0016413,0.00012525,-138.83,-0.00041707,-4213.6,0.26756
2186,7.0264,2,0,0.00041548,4151.9,0.00014359,-0.00037404,0.00012602,-132.02,-0.00041756,-4216.3,0.26715
2187,7.0264,1.8182,0,0.00041618,4158.9,0.00014343,0.0011747,0.00012693,-123.98,-0.00041815,-4219.5,0.26666
2188,7.0264,1.6364,0,0.00041698,4166.9,0.00014325,0.003031,0.00012797,-114.78,-0.00041881,-4223.1,0.26608
2189,7.0264,1.4545,0,0.00041787,4175.9,0.00014304,0.0052555,0.00012913,-104.5,-0.00041955,-4227.1,0.26542
2190,7.0264,1.2727,0,0.00041886,4185.7,0.00014282,0.0078877,0.00013041,-93.219,-0.00042037,-4231.5,0.26467
2191,7.0264,1.0909,0,0.00041992,4196.3,0.00014257,0.011252,0.00013178,-81.04,-0.00042124,-4236.2,0.26383
2192,7.0264,0.90909,0,0.00042105,4207.6,0.00014231,0.014986,0.00013325,-68.058,-0.00042217,-4241.2,0.26291
2193,7.0264,0.72727,0,0.00042225,4219.5,0.00014203,0.022513,0.00013479,-54.377,-0.00042314,-4246.5,0.2619
2194,7.0264,0.54545,0,0.00042349,4232,0.00014174,0.024136,0.00013639,-40.108,-0.00042416,-4251.9,0.2608
2195,7.0264,0.36364,0,0.00042478,4244.9,0.00014144,0.084085,0.00013806,-25.304,-0.00042521,-4257.4,0.25962
2196,7.0264,0.18182,0,0.00042617,4258.8,0.00014113,0.10912,0.00013982,-9.7407,-0.00042633,-4263.6,0.25834
2197,6.8415,5.8182,0,0.00043186,4315.6,0.00014309,0.11145,0.00014156,-11.369,-0.00043205,-4321.2,0.24521
2198,6.8415,5.6364,0,0.00043037,4300.8,0.00014342,0.092409,0.00013966,-28.185,-0.00043084,-4314.7,0.24649
2199,6.8415,5.4545,0,0.00042898,4286.8,0.00014375,0.026719,0.00013786,-44.257,-0.00042971,-4308.8,0.24769
2200,6.8415,5.2727,0,0.00042763,4273.4,0.00014407,0.024752,0.00013611,-59.758,-0.00042862,-4302.9,0.2488
2201,6.8415,5.0909,0,0.00042634,4260.5,0.00014438,0.016384,0.00013444,-74.627,-0.00042756,-4297.3,0.24981
2202,6.8415,4.9091,0,0.00042512,4248.3,0.00014466,0.012201,0.00013285,-88.743,-0.00042656,-4291.9,0.25074
2203,6.8415,4.7273,0,0.00042397,4236.8,0.00014493,0.0084469,0.00013136,-101.99,-0.00042561,-4286.8,0.25157
2204,6.8415,4.5455,0,0.00042291,4226.1,0.00014518,0.00551,0.00012997,-114.26,-0.00042473,-4282.1,0.25233
2205,6.8415,4.3636,0,0.00042193,4216.4,0.00014541,0.003033,0.00012871,-125.46,-0.00042393,-4277.8,0.25299
2206,6.8415,4.1818,0,0.00042107,4207.8,0.00014561,0.000967,0.00012758,-135.48,-0.00042321,-4273.9,0.25357
2207,6.8415,4,0,0.00042031,4200.2,0.00014578,-0.00075446,0.00012659,-144.24,-0.00042257,-4270.4,0.25407
2208,6.8415,3.8182,0,0.00041966,4193.7,0.00014593,-0.0021626,0.00012575,-151.66,-0.00042204,-4267.5,0.25448
2209,6.8415,3.6364,0,0.00041914,4188.5,0.00014605,-0.0032754,0.00012507,-157.68,-0.0004216,-4265.1,0.25481
2210,6.8415,3.4545,0,0.00041875,4184.6,0.00014614,-0.0041022,0.00012455,-162.24,-0.00042127,-4263.3,0.25505
2211,6.8415,3.2727,0,0.00041848,4181.9,0.00014621,-0.0046517,0.00012421,-165.31,-0.00042105,-4262.1,0.25522
2212,6.8415,3.0909,0,0.00041835,4180.6,0.00014624,-0.0049259,0.00012403,-166.85,-0.00042094,-4261.5,0.2553
2213,6.8415,2.9091,0,0.00041835,4180.6,0.00014624,-0.0049259,0.00012403,-166.85,-0.00042094,-4261.5,0.2553
2214,6.8415,2.7273,0,0.00041848,4181.9,0.00014621,-0.0046517,0.00012421,-165.31,-0.00042105,-4262.1,0.25522
2215,6.8415,2.5455,0,0.00041875,4184.6,0.00014614,-0.0041018,0.00012455,-162.24,-0.00042127,-4263.3,0.25505
2216,6.8415,2.3636,0,0.00041914,4188.5,0.00014605,-0.0032751,0.00012507,-157.68,-0.0004216,-4265.1,0.25481
2217,6.8415,2.1818,0,0.00041966,4193.7,0.00014593,-0.0021622,0.00012575,-151.66,-0.00042204,-4267.5,0.25448
2218,6.8415,2,0,0.00042031,4200.2,0.00014578,-0.00075404,0.00012659,-144.24,-0.00042257,-4270.4,0.25407
2219,6.8415,1.8182,0,0.00042107,4207.8,0.00014561,0.00096771,0.00012758,-135.48,-0.00042321,-4273.9,0.25357
2220,6.8415,1.6364,0,0.00042193,4216.4,0.00014541,0.0030334,0.00012871,-125.46,-0.00042393,-4277.8,0.25299
2221,6.8415,1.4545,0,0.00042291,4226.1,0.00014518,0.0055108,0.00012997,-114.26,-0.00042473,-4282.1,0.25233
2222,6.8415,1.2727,0,0.00042397,4236.8,0.00014493,0.0084477,0.00013136,-101.99,-0.00042561,-4286.8,0.25157
2223,6.8415,1.0909,0,0.00042512,4248.3,0.00014466,0.012202,0.00013285,-88.743,-0.00042656,-4291.9,0.25074
2224,6.8415,0.90909,0,0.00042634,4260.5,0.00014438,0.016386,0.00013444,-74.627,-0.00042756,-4297.3,0.24981
2225,6.8415,0.72727,0,0.00042763,4273.4,0.00014407,0.024753,0.00013611,-59.758,-0.00042862,-4302.9,0.2488
2226,6.8415,0.54545,0,0.00042898,4286.8,0.00014375,0.02672,0.00013786,-44.257,-0.00042971,-4308.8,0.24769
2227,6.8415,0.36364,0,0.00043037,4300.8,0.00014342,0.09241,0.00013966,-28.185,-0.00043084,-4314.7,0.24649
2228,6.8415,0.18182,0,0.00043186,4315.6,0.00014309,0.11145,0.00014156,-11.369,-0.00043205,-4321.2,0.24521
2229,6.6566,5.8182,0,0.00043758,4372.8,0.00014506,0.1157,0.0001433,-13.082,-0.0004378,-4379.3,0.23237
2230,6.6566,5.6364,0,0.00043599,4356.9,0.00014543,0.10148,0.00014126,-31.259,-0.00043651,-4372.4,0.23367
2231,6.6566,5.4545,0,0.00043449,4341.9,0.00014579,0.029551,0.0001393,-48.704,-0.00043529,-4366,0.23487
2232,6.6566,5.2727,0,0.00043303,4327.3,0.00014614,0.027201,0.00013741,-65.541,-0.00043411,-4359.7,0.23598
2233,6.6566,5.0909,0,0.00043164,4313.4,0.00014647,0.017918,0.00013559,-81.7,-0.00043297,-4353.7,0.237
2234,6.6566,4.9091,0,0.00043031,4300.2,0.00014678,0.013246,0.00013387,-97.047,-0.00043188,-4347.9,0.23793
2235,6.6566,4.7273,0,0.00042907,4287.7,0.00014708,0.0090672,0.00013224,-111.46,-0.00043086,-4342.4,0.23877
2236,6.6566,4.5455,0,0.00042792,4276.2,0.00014735,0.0057994,0.00013074,-124.81,-0.0004299,-4337.3,0.23952
2237,6.6566,4.3636,0,0.00042687,4265.7,0.0001476,0.0030461,0.00012936,-137,-0.00042903,-4332.6,0.24019
2238,6.6566,4.1818,0,0.00042593,4256.3,0.00014782,0.00075276,0.00012813,-147.92,-0.00042825,-4328.4,0.24077
2239,6.6566,4,0,0.0004251,4248.1,0.00014801,-0.0011572,0.00012706,-157.46,-0.00042756,-4324.7,0.24127
2240,6.6566,3.8182,0,0.00042441,4241.2,0.00014817,-0.0027184,0.00012614,-165.55,-0.00042698,-4321.5,0.24168
2241,6.6566,3.6364,0,0.00042384,4235.5,0.00014831,-0.003951,0.0001254,-172.11,-0.00042651,-4318.9,0.24201
2242,6.6566,3.4545,0,0.00042341,4231.2,0.00014841,-0.004867,0.00012484,-177.08,-0.00042615,-4317,0.24226
2243,6.6566,3.2727,0,0.00042313,4228.3,0.00014847,-0.0054756,0.00012446,-180.43,-0.00042591,-4315.7,0.24243
2244,6.6566,3.0909,0,0.00042298,4226.9,0.00014851,-0.0057796,0.00012427,-182.11,-0.00042579,-4315,0.24251
2245,6.6566,2.9091,0,0.00042298,4226.9,0.00014851,-0.0057796,0.00012427,-182.11,-0.00042579,-4315,0.24251
2246,6.6566,2.7273,0,0.00042313,4228.3,0.00014847,-0.0054755,0.00012446,-180.43,-0.00042591,-4315.7,0.24243
2247,6.6566,2.5455,0,0.00042341,4231.2,0.00014841,-0.0048669,0.00012484,-177.08,-0.00042615,-4317,0.24226
2248,6.6566,2.3636,0,0.00042384,4235.5,0.00014831,-0.0039511,0.0001254,-172.11,-0.00042651,-4318.9,0.24201
2249,6.6566,2.1818,0,0.00042441,4241.2,0.00014817,-0.0027179,0.00012614,-165.55,-0.00042698,-4321.5,0.24168
2250,6.6566,2,0,0.0004251,4248.1,0.00014801,-0.0011568,0.00012706,-157.46,-0.00042756,-4324.7,0.24127
2251,6.6566,1.8182,0,0.00042593,4256.3,0.00014782,0.00075342,0.00012813,-147.92,-0.00042825,-4328.4,0.24077
2252,6.6566,1.6364,0,0.00042687,4265.7,0.0001476,0.0030471,0.00012936,-137,-0.00042903,-4332.6,0.24019
2253,6.6566,1.4545,0,0.00042792,4276.2,0.00014735,0.0057999,0.00013074,-124.81,-0.0004299,-4337.3,0.23952
2254,6.6566,1.2727,0,0.00042907,4287.7,0.00014708,0.0090682,0.00013224,-111.46,-0.00043086,-4342.4,0.23877
2255,6.6566,1.0909,0,0.00043031,4300.2,0.00014678,0.013247,0.00013387,-97.047,-0.00043188,-4347.9,0.23793
2256,6.6566,0.90909,0,0.00043164,4313.4,0.00014647,0.01792,0.00013559,-81.7,-0.00043297,-4353.7,0.237
2257,6.6566,0.72727,0,0.00043303,4327.3,0.00014614,0.027202,0.00013741,-65.541,-0.00043411,-4359.7,0.23598
2258,6.6566,0.54545,0,0.00043449,4341.9,0.00014579,0.029551,0.0001393,-48.704,-0.00043529,-4366,0.23487
2259,6.6566,0.36364,0,0.00043599,4356.9,0.00014543,0.10149,0.00014126,-31.259,-0.00043651,-4372.4,0.23367
2260,6.6566,0.18182,0,0.00043758,4372.8,0.00014506,0.1157,0.0001433,-13.083,-0.0004378,-4379.3,0.23237
2261,6.4717,5.8182,0,0.00044335,4430.5,0.00014705,0.12176,0.00014506,-14.882,-0.0004436,-4437.8,0.21984
2262,6.4717,5.6364,0,0.00044164,4413.4,0.00014746,0.11138,0.00014285,-34.536,-0.00044222,-4430.5,0.22114
2263,6.4717,5.4545,0,0.00044002,4397.1,0.00014785,0.032652,0.00014073,-53.469,-0.0004409,-4423.6,0.22235
2264,6.4717,5.2727,0,0.00043845,4381.4,0.00014823,0.029875,0.00013868,-71.755,-0.00043962,-4416.9,0.22346
2265,6.4717,5.0909,0,0.00043694,4366.4,0.00014859,0.019599,0.0001367,-89.314,-0.00043839,-4410.3,0.22449
2266,6.4717,4.9091,0,0.00043551,4352,0.00014894,0.014393,0.00013483,-106,-0.00043721,-4404.1,0.22542
2267,6.4717,4.7273,0,0.00043416,4338.6,0.00014926,0.0097518,0.00013306,-121.68,-0.0004361,-4398.2,0.22626
2268,6.4717,4.5455,0,0.00043291,4326.1,0.00014956,0.0061236,0.00013143,-136.21,-0.00043507,-4392.6,0.22702
2269,6.4717,4.3636,0,0.00043177,4314.8,0.00014983,0.0030705,0.00012993,-149.48,-0.00043412,-4387.6,0.22769
2270,6.4717,4.1818,0,0.00043076,4304.6,0.00015007,0.00052906,0.00012859,-161.36,-0.00043327,-4383,0.22827
2271,6.4717,4,0,0.00042987,4295.7,0.00015028,-0.0015859,0.00012742,-171.76,-0.00043253,-4379,0.22877
2272,6.4717,3.8182,0,0.00042911,4288.1,0.00015046,-0.0033137,0.00012642,-180.58,-0.0004319,-4375.6,0.22918
2273,6.4717,3.6364,0,0.0004285,4282,0.0001506,-0.0046774,0.00012562,-187.73,-0.00043138,-4372.8,0.22951
2274,6.4717,3.4545,0,0.00042803,4277.4,0.00015071,-0.0056902,0.000125,-193.16,-0.00043099,-4370.7,0.22976
2275,6.4717,3.2727,0,0.00042772,4274.3,0.00015078,-0.0063627,0.00012459,-196.8,-0.00043073,-4369.3,0.22992
2276,6.4717,3.0909,0,0.00042757,4272.7,0.00015082,-0.0066985,0.00012439,-198.63,-0.0004306,-4368.6,0.23001
2277,6.4717,2.9091,0,0.00042757,4272.7,0.00015082,-0.0066984,0.00012439,-198.63,-0.0004306,-4368.6,0.23001
2278,6.4717,2.7273,0,0.00042772,4274.3,0.00015078,-0.0063627,0.00012459,-196.8,-0.00043073,-4369.3,0.22992
2279,6.4717,2.5455,0,0.00042803,4277.4,0.00015071,-0.0056899,0.000125,-193.16,-0.00043099,-4370.7,0.22976
2280,6.4717,2.3636,0,0.0004285,4282,0.0001506,-0.0046769,0.00012562,-187.73,-0.00043138,-4372.8,0.22951
2281,6.4717,2.1818,0,0.00042911,4288.1,0.00015046,-0.0033133,0.00012642,-180.58,-0.0004319,-4375.6,0.22918
2282,6.4717,2,0,0.00042987,4295.7,0.00015028,-0.0015852,0.00012742,-171.76,-0.00043253,-4379,0.22877
2283,6.4717,1.8182,0,0.00043076,4304.6,0.00015007,0.00052953,0.00012859,-161.36,-0.00043327,-4383,0.22827
2284,6.4717,1.6364,0,0.00043177,4314.8,0.00014983,0.0030713,0.00012993,-149.48,-0.00043412,-4387.6,0.22769
2285,6.4717,1.4545,0,0.00043291,4326.1,0.00014956,0.0061244,0.00013143,-136.21,-0.00043507,-4392.6,0.22702
2286,6.4717,1.2727,0,0.00043416,4338.6,0.00014926,0.0097526,0.00013306,-121.68,-0.0004361,-4398.2,0.22626
2287,6.4717,1.0909,0,0.00043551,4352,0.00014894,0.014393,0.00013483,-106,-0.00043721,-4404.1,0.22542
2288,6.4717,0.90909,0,0.00043694,4366.4,0.00014859,0.019601,0.0001367,-89.314,-0.00043839,-4410.3,0.22449
2289,6.4717,0.72727,0,0.00043845,4381.4,0.00014823,0.029876,0.00013868,-71.755,-0.00043962,-4416.9,0.22346
2290,6.4717,0.54545,0,0.00044002,4397.1,0.00014785,0.032652,0.00014073,-53.469,-0.0004409,-4423.6,0.22235
2291,6.4717,0.36364,0,0.00044164,4413.4,0.00014746,0.11138,0.00014285,-34.536,-0.00044222,-4430.5,0.22114
2292,6.4717,0.18182,0,0.00044335,4430.5,0.00014705,0.12176,0.00014506,-14.882,-0.0004436,-4437.8,0.21984
2293,6.2868,5.8182,0,0.00044916,4488.5,0.00014906,0.12962,0.00014681,-16.767,-0.00044944,-4496.8,0.2076
2294,6.2868,5.6364,0,0.00044732,4470.2,0.00014951,0.12219,0.00014443,-38.026,-0.00044796,-4489,0.20891
2295,6.2868,5.4545,0,0.00044557,4452.6,0.00014993,0.036064,0.00014213,-58.57,-0.00044654,-4481.6,0.21013
2296,6.2868,5.2727,0,0.00044387,4435.6,0.00015035,0.03281,0.00013991,-78.428,-0.00044515,-4474.3,0.21124
2297,6.2868,5.0909,0,0.00044224,4419.4,0.00015074,0.021451,0.00013776,-97.507,-0.00044382,-4467.3,0.21227
2298,6.2868,4.9091,0,0.00044069,4403.9,0.00015112,0.015663,0.00013573,-115.65,-0.00044254,-4460.5,0.21321
2299,6.2868,4.7273,0,0.00043923,4389.3,0.00015147,0.010519,0.00013381,-132.7,-0.00044134,-4454.2,0.21405
2300,6.2868,4.5455,0,0.00043788,4375.8,0.0001518,0.0064981,0.00013203,-148.52,-0.00044022,-4448.2,0.21481
2301,6.2868,4.3636,0,0.00043665,4363.5,0.00015209,0.0031187,0.0001304,-162.96,-0.0004392,-4442.7,0.21548
2302,6.2868,4.1818,0,0.00043555,4352.5,0.00015236,0.00030714,0.00012894,-175.91,-0.00043828,-4437.8,0.21606
2303,6.2868,4,0,0.00043458,4342.8,0.00015259,-0.0020308,0.00012767,-187.24,-0.00043747,-4433.4,0.21656
2304,6.2868,3.8182,0,0.00043377,4334.7,0.00015278,-0.0039396,0.00012658,-196.85,-0.00043678,-4429.7,0.21697
2305,6.2868,3.6364,0,0.0004331,4328,0.00015294,-0.0054453,0.0001257,-204.65,-0.00043622,-4426.7,0.21731
2306,6.2868,3.4545,0,0.0004326,4323,0.00015306,-0.0065636,0.00012504,-210.57,-0.0004358,-4424.5,0.21755
2307,6.2868,3.2727,0,0.00043226,4319.6,0.00015314,-0.007306,0.00012459,-214.54,-0.00043551,-4422.9,0.21772
2308,6.2868,3.0909,0,0.00043209,4317.9,0.00015318,-0.0076763,0.00012436,-216.54,-0.00043537,-4422.1,0.2178
2309,6.2868,2.9091,0,0.00043209,4317.9,0.00015318,-0.0076765,0.00012436,-216.54,-0.00043537,-4422.1,0.2178
2310,6.2868,2.7273,0,0.00043226,4319.6,0.00015314,-0.0073057,0.00012459,-214.54,-0.00043551,-4422.9,0.21772
2311,6.2868,2.5455,0,0.0004326,4323,0.00015306,-0.0065634,0.00012504,-210.57,-0.0004358,-4424.5,0.21755
2312,6.2868,2.3636,0,0.0004331,4328,0.00015294,-0.0054452,0.0001257,-204.65,-0.00043622,-4426.7,0.21731
2313,6.2868,2.1818,0,0.00043377,4334.7,0.00015278,-0.0039392,0.00012658,-196.85,-0.00043678,-4429.7,0.21697
2314,6.2868,2,0,0.00043458,4342.8,0.00015259,-0.0020305,0.00012767,-187.24,-0.00043747,-4433.4,0.21656
2315,6.2868,1.8182,0,0.00043555,4352.5,0.00015236,0.00030779,0.00012894,-175.91,-0.00043828,-4437.8,0.21606
2316,6.2868,1.6364,0,0.00043665,4363.5,0.00015209,0.0031195,0.0001304,-162.96,-0.0004392,-4442.7,0.21548
2317,6.2868,1.4545,0,0.00043788,4375.8,0.0001518,0.0064983,0.00013203,-148.52,-0.00044022,-4448.2,0.21481
2318,6.2868,1.2727,0,0.00043923,4389.3,0.00015147,0.01052,0.00013381,-132.7,-0.00044134,-4454.2,0.21405
2319,6.2868,1.0909,0,0.00044069,4403.9,0.00015112,0.015664,0.00013573,-115.65,-0.00044254,-4460.5,0.21321
2320,6.2868,0.90909,0,0.00044224,4419.4,0.00015074,0.021453,0.00013776,-97.507,-0.00044382,-4467.3,0.21227
2321,6.2868,0.72727,0,0.00044387,4435.6,0.00015035,0.03281,0.00013991,-78.428,-0.00044515,-4474.3,0.21124
2322,6.2868,0.54545,0,0.00044557,4452.6,0.00014993,0.036065,0.00014213,-58.57,-0.00044654,-4481.6,0.21013
2323,6.2868,0.36364,0,0.00044732,4470.2,0.00014951,0.12219,0.00014443,-38.026,-0.00044796,-4489,0.20891
2324,6.2868,0.18182,0,0.00044916,4488.5,0.00014906,0.12962,0.00014681,-16.767,-0.00044944,-4496.8,0.2076
2325,6.1019,5.8182,0,0.00045501,4547,0.00015109,0.1394,0.00014858,-18.736,-0.00045533,-4556.3,0.19568
2326,6.1019,5.6364,0,0.00045304,4527.3,0.00015158,0.134,0.000146,-41.737,-0.00045373,-4547.9,0.19699
2327,6.1019,5.4545,0,0.00045114,4508.3,0.00015204,0.039822,0.00014351,-64.029,-0.0004522,-4540,0.19821
2328,6.1019,5.2727,0,0.00044931,4490,0.00015249,0.036031,0.0001411,-85.591,-0.0004507,-4532.1,0.19933
2329,6.1019,5.0909,0,0.00044755,4472.4,0.00015293,0.023494,0.00013877,-106.32,-0.00044926,-4524.6,0.20036
2330,6.1019,4.9091,0,0.00044587,4455.6,0.00015334,0.017071,0.00013656,-126.04,-0.00044788,-4517.3,0.2013
2331,6.1019,4.7273,0,0.00044429,4439.9,0.00015372,0.011379,0.00013448,-144.59,-0.00044658,-4510.4,0.20214
2332,6.1019,4.5455,0,0.00044283,4425.3,0.00015408,0.0069305,0.00013254,-161.81,-0.00044536,-4504,0.2029
2333,6.1019,4.3636,0,0.0004415,4411.9,0.0001544,0.0031958,0.00013077,-177.54,-0.00044425,-4498,0.20357
2334,6.1019,4.1818,0,0.0004403,4400,0.00015469,9.0482e-05,0.00012918,-191.64,-0.00044325,-4492.7,0.20415
2335,6.1019,4,0,0.00043926,4389.6,0.00015494,-0.0024902,0.00012779,-203.99,-0.00044237,-4488,0.20465
2336,6.1019,3.8182,0,0.00043837,4380.7,0.00015516,-0.0045956,0.00012661,-214.47,-0.00044163,-4484,0.20507
2337,6.1019,3.6364,0,0.00043765,4373.5,0.00015533,-0.0062558,0.00012565,-222.98,-0.00044102,-4480.7,0.2054
2338,6.1019,3.4545,0,0.00043711,4368.1,0.00015546,-0.0074883,0.00012493,-229.43,-0.00044056,-4478.3,0.20564
2339,6.1019,3.2727,0,0.00043674,4364.4,0.00015555,-0.0083061,0.00012444,-233.77,-0.00044025,-4476.6,0.20581
2340,6.1019,3.0909,0,0.00043656,4362.6,0.00015559,-0.008714,0.00012419,-235.95,-0.00044009,-4475.8,0.20589
2341,6.1019,2.9091,0,0.00043656,4362.6,0.00015559,-0.008714,0.00012419,-235.95,-0.00044009,-4475.8,0.20589
2342,6.1019,2.7273,0,0.00043674,4364.4,0.00015555,-0.0083062,0.00012444,-233.77,-0.00044025,-4476.6,0.20581
2343,6.1019,2.5455,0,0.00043711,4368.1,0.00015546,-0.0074879,0.00012493,-229.43,-0.00044056,-4478.3,0.20564
2344,6.1019,2.3636,0,0.00043765,4373.5,0.00015533,-0.0062557,0.00012565,-222.98,-0.00044102,-4480.7,0.2054
2345,6.1019,2.1818,0,0.00043837,4380.7,0.00015516,-0.0045953,0.00012661,-214.47,-0.00044163,-4484,0.20507
2346,6.1019,2,0,0.00043926,4389.6,0.00015494,-0.0024897,0.00012779,-203.99,-0.00044237,-4488,0.20465
2347,6.1019,1.8182,0,0.0004403,4400,0.00015469,9.0992e-05,0.00012918,-191.64,-0.00044325,-4492.7,0.20415
2348,6.1019,1.6364,0,0.0004415,4411.9,0.0001544,0.0031963,0.00013077,-177.54,-0.00044425,-4498,0.20357
2349,6.1019,1.4545,0,0.00044283,4425.3,0.00015408,0.0069313,0.00013254,-161.81,-0.00044536,-4504,0.2029
2350,6.1019,1.2727,0,0.00044429,4439.9,0.00015372,0.011379,0.00013448,-144.59,-0.00044658,-4510.4,0.20214
2351,6.1019,1.0909,0,0.00044587,4455.6,0.00015334,0.017071,0.00013656,-126.04,-0.00044788,-4517.3,0.2013
2352,6.1019,0.90909,0,0.00044755,4472.4,0.00015293,0.023495,0.00013877,-106.32,-0.00044926,-4524.6,0.20036
2353,6.1019,0.72727,0,0.00044931,4490,0.00015249,0.036032,0.0001411,-85.591,-0.0004507,-4532.1,0.19933
2354,6.1019,0.54545,0,0.00045114,4508.3,0.00015204,0.039822,0.00014351,-64.029,-0.0004522,-4540,0.19821
2355,6.1019,0.36364,0,0.00045304,4527.3,0.00015158,0.134,0.000146,-41.737,-0.00045373,-4547.9,0.19699
2356,6.1019,0.18182,0,0.00045501,4547,0.00015109,0.1394,0.00014858,-18.736,-0.00045533,-4556.3,0.19568
2357,5.917,5.8182,0,0.00046092,4606,0.00015314,0.15123,0.00015036,-20.787,-0.00046126,-4616.3,0.18406
2358,5.917,5.6364,0,0.00045879,4584.7,0.00015367,0.14689,0.00014757,-45.68,-0.00045955,-4607.3,0.18538
2359,5.917,5.4545,0,0.00045674,4564.3,0.00015418,0.043947,0.00014487,-69.864,-0.00045789,-4598.8,0.1866
2360,5.917,5.2727,0,0.00045476,4544.4,0.00015467,0.039553,0.00014225,-93.275,-0.00045627,-4590.3,0.18773
2361,5.917,5.0909,0,0.00045285,4525.4,0.00015514,0.025731,0.00013973,-115.8,-0.00045471,-4582.2,0.18876
2362,5.917,4.9091,0,0.00045104,4507.3,0.00015559,0.018614,0.00013732,-137.24,-0.00045322,-4574.3,0.18969
2363,5.917,4.7273,0,0.00044934,4490.3,0.00015601,0.012325,0.00013506,-157.41,-0.00045181,-4566.9,0.19054
2364,5.917,4.5455,0,0.00044775,4474.5,0.0001564,0.0074114,0.00013295,-176.15,-0.00045049,-4559.9,0.1913
2365,5.917,4.3636,0,0.00044631,4460,0.00015675,0.0032897,0.00013103,-193.29,-0.00044928,-4553.5,0.19197
2366,5.917,4.1818,0,0.00044502,4447.1,0.00015707,-0.00013489,0.0001293,-208.65,-0.0004482,-4547.8,0.19255
2367,5.917,4,0,0.00044388,4435.8,0.00015735,-0.002979,0.00012778,-222.12,-0.00044725,-4542.7,0.19305
2368,5.917,3.8182,0,0.00044293,4426.2,0.00015758,-0.0052979,0.0001265,-233.54,-0.00044644,-4538.3,0.19346
2369,5.917,3.6364,0,0.00044215,4418.4,0.00015777,-0.0071258,0.00012545,-242.82,-0.00044578,-4534.8,0.19379
2370,5.917,3.4545,0,0.00044156,4412.5,0.00015791,-0.0084821,0.00012466,-249.86,-0.00044528,-4532.1,0.19404
2371,5.917,3.2727,0,0.00044116,4408.5,0.00015801,-0.0093817,0.00012413,-254.59,-0.00044494,-4530.3,0.1942
2372,5.917,3.0909,0,0.00044096,4406.6,0.00015806,-0.0098304,0.00012386,-256.97,-0.00044477,-4529.4,0.19428
2373,5.917,2.9091,0,0.00044096,4406.6,0.00015806,-0.0098305,0.00012386,-256.97,-0.00044477,-4529.4,0.19428
2374,5.917,2.7273,0,0.00044116,4408.5,0.00015801,-0.0093815,0.00012413,-254.59,-0.00044494,-4530.3,0.1942
2375,5.917,2.5455,0,0.00044156,4412.5,0.00015791,-0.0084819,0.00012466,-249.86,-0.00044528,-4532.1,0.19404
2376,5.917,2.3636,0,0.00044215,4418.4,0.00015777,-0.0071255,0.00012545,-242.82,-0.00044578,-4534.8,0.19379
2377,5.917,2.1818,0,0.00044293,4426.2,0.00015758,-0.0052976,0.0001265,-233.54,-0.00044644,-4538.3,0.19346
2378,5.917,2,0,0.00044388,4435.8,0.00015735,-0.0029787,0.00012778,-222.12,-0.00044725,-4542.7,0.19305
2379,5.917,1.8182,0,0.00044502,4447.1,0.00015707,-0.00013417,0.0001293,-208.65,-0.0004482,-4547.8,0.19255
2380,5.917,1.6364,0,0.00044631,4460,0.00015675,0.0032904,0.00013103,-193.29,-0.00044928,-4553.5,0.19197
2381,5.917,1.4545,0,0.00044775,4474.5,0.0001564,0.0074122,0.00013295,-176.15,-0.00045049,-4559.9,0.1913
2382,5.917,1.2727,0,0.00044934,4490.3,0.00015601,0.012326,0.00013506,-157.41,-0.00045181,-4566.9,0.19054
2383,5.917,1.0909,0,0.00045104,4507.3,0.00015559,0.018614,0.00013732,-137.24,-0.00045322,-4574.3,0.18969
2384,5.917,0.90909,0,0.00045285,4525.4,0.00015514,0.025732,0.00013973,-115.8,-0.00045471,-4582.2,0.18876
2385,5.917,0.72727,0,0.00045476,4544.4,0.00015467,0.039554,0.00014225,-93.275,-0.00045627,-4590.3,0.18773
2386,5.917,0.54545,0,0.00045674,4564.3,0.00015418,0.043947,0.00014487,-69.864,-0.00045789,-4598.8,0.1866
2387,5.917,0.36364,0,0.00045879,4584.7,0.00015367,0.14689,0.00014757,-45.68,-0.00045955,-4607.3,0.18538
2388,5.917,0.18182,0,0.00046092,4606,0.00015314,0.15124,0.00015036,-20.787,-0.00046126,-4616.3,0.18406
2389,5.7321,5.8182,0,0.00046687,4665.5,0.00015521,0.16539,0.00015214,-22.913,-0.00046725,-4676.8,0.17277
2390,5.7321,5.6364,0,0.00046458,4642.6,0.00015579,0.16099,0.00014913,-49.863,-0.0004654,-4667.2,0.17409
2391,5.7321,5.4545,0,0.00046236,4620.5,0.00015634,0.048492,0.0001462,-76.097,-0.00046361,-4658,0.17531
2392,5.7321,5.2727,0,0.00046022,4599,0.00015688,0.043419,0.00014336,-101.51,-0.00046186,-4648.9,0.17643
2393,5.7321,5.0909,0,0.00045816,4578.4,0.00015739,0.028194,0.00014062,-125.98,-0.00046017,-4640.1,0.17746
2394,5.7321,4.9091,0,0.0004562,4558.9,0.00015788,0.020319,0.00013801,-149.29,-0.00045856,-4631.7,0.1784
2395,5.7321,4.7273,0,0.00045436,4540.4,0.00015834,0.01338,0.00013555,-171.24,-0.00045703,-4623.6,0.17925
2396,5.7321,4.5455,0,0.00045265,4523.3,0.00015877,0.0079593,0.00013326,-191.64,-0.0004556,-4616.1,0.18
2397,5.7321,4.3636,0,0.00045108,4507.7,0.00015915,0.0034167,0.00013116,-210.3,-0.00045429,-4609.2,0.18067
2398,5.7321,4.1818,0,0.00044968,4493.7,0.0001595,-0.00035546,0.00012928,-227.05,-0.00045311,-4602.9,0.18125
2399,5.7321,4,0,0.00044846,4481.5,0.0001598,-0.0034855,0.00012763,-241.73,-0.00045208,-4597.5,0.18175
2400,5.7321,3.8182,0,0.00044742,4471.1,0.00016006,-0.0060362,0.00012623,-254.19,-0.0004512,-4592.8,0.18216
2401,5.7321,3.6364,0,0.00044658,4462.7,0.00016027,-0.0080451,0.00012509,-264.31,-0.00045048,-4589,0.18249
2402,5.7321,3.4545,0,0.00044594,4456.3,0.00016043,-0.0095352,0.00012423,-271.99,-0.00044994,-4586.1,0.18273
2403,5.7321,3.2727,0,0.00044551,4452,0.00016053,-0.010523,0.00012364,-277.16,-0.00044957,-4584.1,0.1829
2404,5.7321,3.0909,0,0.00044529,4449.8,0.00016058,-0.011016,0.00012335,-279.76,-0.00044939,-4583.1,0.18298
2405,5.7321,2.9091,0,0.00044529,4449.8,0.00016058,-0.011016,0.00012335,-279.76,-0.00044939,-4583.1,0.18298
2406,5.7321,2.7273,0,0.00044551,4452,0.00016053,-0.010523,0.00012364,-277.16,-0.00044957,-4584.1,0.1829
2407,5.7321,2.5455,0,0.00044594,4456.3,0.00016043,-0.0095352,0.00012423,-271.99,-0.00044994,-4586.1,0.18273
2408,5.7321,2.3636,0,0.00044658,4462.7,0.00016027,-0.0080448,0.00012509,-264.31,-0.00045048,-4589,0.18249
2409,5.7321,2.1818,0,0.00044742,4471.1,0.00016006,-0.0060356,0.00012623,-254.19,-0.0004512,-4592.8,0.18216
2410,5.7321,2,0,0.00044846,4481.5,0.0001598,-0.0034851,0.00012763,-241.73,-0.00045208,-4597.5,0.18175
2411,5.7321,1.8182,0,0.00044968,4493.7,0.0001595,-0.00035474,0.00012928,-227.05,-0.00045311,-4602.9,0.18125
2412,5.7321,1.6364,0,0.00045108,4507.7,0.00015915,0.0034172,0.00013116,-210.3,-0.00045429,-4609.2,0.18067
2413,5.7321,1.4545,0,0.00045265,4523.3,0.00015877,0.00796,0.00013326,-191.64,-0.0004556,-4616.1,0.18
2414,5.7321,1.2727,0,0.00045436,4540.4,0.00015834,0.013381,0.00013555,-171.24,-0.00045703,-4623.6,0.17925
2415,5.7321,1.0909,0,0.0004562,4558.9,0.00015788,0.02032,0.00013801,-149.29,-0.00045856,-4631.7,0.1784
2416,5.7321,0.90909,0,0.00045816,4578.4,0.00015739,0.028195,0.00014062,-125.98,-0.00046017,-4640.1,0.17746
2417,5.7321,0.72727,0,0.00046022,4599,0.00015688,0.043419,0.00014336,-101.51,-0.00046186,-4648.9,0.17643
2418,5.7321,0.54545,0,0.00046236,4620.5,0.00015634,0.048492,0.0001462,-76.097,-0.00046361,-4658,0.17531
2419,5.7321,0.36364,0,0.00046458,4642.6,0.00015579,0.16099,0.00014913,-49.863,-0.0004654,-4667.2,0.17409
2420,5.7321,0.18182,0,0.00046687,4665.5,0.00015521,0.16539,0.00015214,-22.913,-0.00046725,-4676.8,0.17277
2421,5.5472,5.8182,0,0.00047287,4725.5,0.00015731,0.1822,0.00015394,-25.11,-0.00047329,-4737.9,0.16179
2422,5.5472,5.6364,0,0.0004704,4700.8,0.00015793,0.17643,0.00015068,-54.293,-0.0004713,-4727.6,0.16311
2423,5.5472,5.4545,0,0.00046801,4676.9,0.00015853,0.053512,0.00014751,-82.749,-0.00046936,-4717.7,0.16433
2424,5.5472,5.2727,0,0.0004657,4653.8,0.00015912,0.04767,0.00014443,-110.34,-0.00046747,-4707.9,0.16545
2425,5.5472,5.0909,0,0.00046347,4631.5,0.00015968,0.030915,0.00014145,-136.92,-0.00046565,-4698.4,0.16648
2426,5.5472,4.9091,0,0.00046135,4610.3,0.00016021,0.022211,0.00013862,-162.26,-0.0004639,-4689.3,0.16742
2427,5.5472,4.7273,0,0.00045936,4590.4,0.00016072,0.014562,0.00013594,-186.15,-0.00046224,-4680.6,0.16826
2428,5.5472,4.5455,0,0.0004575,4571.9,0.00016118,0.0085888,0.00013345,-208.36,-0.00046069,-4672.5,0.16902
2429,5.5472,4.3636,0,0.00045581,4555,0.0001616,0.0035881,0.00013117,-228.69,-0.00045927,-4665,0.16968
2430,5.5472,4.1818,0,0.0004543,4539.9,0.00016198,-0.00056083,0.00012912,-246.94,-0.000458,-4658.3,0.17026
2431,5.5472,4,0,0.00045297,4526.6,0.00016232,-0.0040013,0.00012732,-262.94,-0.00045687,-4652.3,0.17076
2432,5.5472,3.8182,0,0.00045185,4515.4,0.0001626,-0.0068022,0.00012579,-276.54,-0.00045592,-4647.3,0.17117
2433,5.5472,3.6364,0,0.00045094,4506.2,0.00016283,-0.0090071,0.00012455,-287.58,-0.00045514,-4643.2,0.17149
2434,5.5472,3.4545,0,0.00045024,4499.3,0.000163,-0.010642,0.00012361,-295.97,-0.00045455,-4640,0.17174
2435,5.5472,3.2727,0,0.00044978,4494.7,0.00016312,-0.011725,0.00012297,-301.61,-0.00045415,-4637.9,0.1719
2436,5.5472,3.0909,0,0.00044955,4492.3,0.00016317,-0.012265,0.00012266,-304.45,-0.00045395,-4636.8,0.17198
2437,5.5472,2.9091,0,0.00044955,4492.3,0.00016317,-0.012265,0.00012266,-304.45,-0.00045395,-4636.8,0.17198
2438,5.5472,2.7273,0,0.00044978,4494.7,0.00016312,-0.011725,0.00012297,-301.61,-0.00045415,-4637.9,0.1719
2439,5.5472,2.5455,0,0.00045024,4499.3,0.000163,-0.010641,0.00012361,-295.97,-0.00045455,-4640,0.17174
2440,5.5472,2.3636,0,0.00045094,4506.2,0.00016283,-0.0090069,0.00012455,-287.58,-0.00045514,-4643.2,0.17149
2441,5.5472,2.1818,0,0.00045185,4515.4,0.0001626,-0.0068018,0.00012579,-276.54,-0.00045592,-4647.3,0.17117
2442,5.5472,2,0,0.00045297,4526.6,0.00016232,-0.0040011,0.00012732,-262.94,-0.00045687,-4652.3,0.17076
2443,5.5472,1.8182,0,0.0004543,4539.9,0.00016198,-0.00056047,0.00012912,-246.94,-0.000458,-4658.3,0.17026
2444,5.5472,1.6364,0,0.00045581,4555,0.0001616,0.0035888,0.00013117,-228.69,-0.00045927,-4665,0.16968
2445,5.5472,1.4545,0,0.0004575,4571.9,0.00016118,0.0085895,0.00013345,-208.36,-0.00046069,-4672.5,0.16902
2446,5.5472,1.2727,0,0.00045936,4590.4,0.00016072,0.014563,0.00013594,-186.15,-0.00046224,-4680.6,0.16826
2447,5.5472,1.0909,0,0.00046135,4610.3,0.00016021,0.022212,0.00013862,-162.26,-0.0004639,-4689.3,0.16742
2448,5.5472,0.90909,0,0.00046347,4631.5,0.00015968,0.030916,0.00014145,-136.92,-0.00046565,-4698.4,0.16648
2449,5.5472,0.72727,0,0.0004657,4653.8,0.00015912,0.047671,0.00014443,-110.34,-0.00046747,-4707.9,0.16545
2450,5.5472,0.54545,0,0.00046801,4676.9,0.00015853,0.053513,0.00014751,-82.749,-0.00046936,-4717.7,0.16433
2451,5.5472,0.36364,0,0.0004704,4700.8,0.00015793,0.17643,0.00015068,-54.293,-0.0004713,-4727.6,0.16311
2452,5.5472,0.18182,0,0.00047287,4725.5,0.00015731,0.1822,0.00015394,-25.11,-0.00047329,-4737.9,0.16179
2453,5.3623,5.8182,0,0.00047893,4786,0.00015942,0.20207,0.00015575,-27.368,-0.00047939,-4799.5,0.15113
2454,5.3623,5.6364,0,0.00047627,4759.4,0.0001601,0.19334,0.00015222,-58.977,-0.00047724,-4788.5,0.15245
2455,5.3623,5.4545,0,0.00047369,4733.6,0.00016075,0.059053,0.00014879,-89.84,-0.00047515,-4777.9,0.15367
2456,5.3623,5.2727,0,0.00047118,4708.6,0.00016139,0.052339,0.00014544,-119.79,-0.00047311,-4767.3,0.1548
2457,5.3623,5.0909,0,0.00046878,4684.5,0.00016201,0.033911,0.00014221,-148.67,-0.00047113,-4757.1,0.15582
2458,5.3623,4.9091,0,0.00046649,4661.6,0.00016259,0.024301,0.00013913,-176.22,-0.00046923,-4747.2,0.15676
2459,5.3623,4.7273,0,0.00046433,4640.1,0.00016314,0.015876,0.00013622,-202.21,-0.00046744,-4737.9,0.1576
2460,5.3623,4.5455,0,0.00046233,4620.1,0.00016365,0.009301,0.00013351,-226.39,-0.00046576,-4729.1,0.15835
2461,5.3623,4.3636,0,0.0004605,4601.8,0.00016411,0.003802,0.00013103,-248.54,-0.00046422,-4721.1,0.15901
2462,5.3623,4.1818,0,0.00045886,4585.5,0.00016453,-0.00075645,0.0001288,-268.44,-0.00046284,-4713.8,0.15959
2463,5.3623,4,0,0.00045743,4571.1,0.00016489,-0.0045326,0.00012684,-285.9,-0.00046162,-4707.4,0.16008
2464,5.3623,3.8182,0,0.00045621,4559,0.0001652,-0.0076037,0.00012518,-300.73,-0.00046058,-4701.9,0.16048
2465,5.3623,3.6364,0,0.00045522,4549.1,0.00016545,-0.010019,0.00012382,-312.79,-0.00045974,-4697.4,0.16081
2466,5.3623,3.4545,0,0.00045448,4541.6,0.00016564,-0.011808,0.00012279,-321.94,-0.0004591,-4694,0.16105
2467,5.3623,3.2727,0,0.00045397,4536.6,0.00016577,-0.012994,0.0001221,-328.1,-0.00045866,-4691.7,0.16121
2468,5.3623,3.0909,0,0.00045372,4534.1,0.00016583,-0.013584,0.00012175,-331.2,-0.00045845,-4690.6,0.16129
2469,5.3623,2.9091,0,0.00045372,4534.1,0.00016583,-0.013584,0.00012175,-331.2,-0.00045845,-4690.6,0.16129
2470,5.3623,2.7273,0,0.00045397,4536.6,0.00016577,-0.012994,0.0001221,-328.1,-0.00045866,-4691.7,0.16121
2471,5.3623,2.5455,0,0.00045448,4541.6,0.00016564,-0.011808,0.00012279,-321.94,-0.0004591,-4694,0.16105
2472,5.3623,2.3636,0,0.00045522,4549.1,0.00016545,-0.010019,0.00012382,-312.79,-0.00045974,-4697.4,0.16081
2473,5.3623,2.1818,0,0.00045621,4559,0.0001652,-0.0076034,0.00012518,-300.73,-0.00046058,-4701.9,0.16048
2474,5.3623,2,0,0.00045743,4571.1,0.00016489,-0.0045321,0.00012684,-285.9,-0.00046162,-4707.4,0.16008
2475,5.3623,1.8182,0,0.00045886,4585.5,0.00016453,-0.00075575,0.0001288,-268.44,-0.00046284,-4713.8,0.15959
2476,5.3623,1.6364,0,0.0004605,4601.8,0.00016411,0.0038026,0.00013103,-248.54,-0.00046422,-4721.1,0.15901
2477,5.3623,1.4545,0,0.00046233,4620.1,0.00016365,0.0093017,0.00013351,-226.39,-0.00046576,-4729.1,0.15835
2478,5.3623,1.2727,0,0.00046433,4640.1,0.00016314,0.015877,0.00013622,-202.21,-0.00046744,-4737.9,0.1576
2479,5.3623,1.0909,0,0.00046649,4661.6,0.00016259,0.024301,0.00013913,-176.22,-0.00046923,-4747.2,0.15676
2480,5.3623,0.90909,0,0.00046878,4684.5,0.00016201,0.033912,0.00014221,-148.67,-0.00047113,-4757.1,0.15582
2481,5.3623,0.72727,0,0.00047118,4708.6,0.00016139,0.052339,0.00014544,-119.79,-0.00047311,-4767.3,0.1548
2482,5.3623,0.54545,0,0.00047369,4733.6,0.00016075,0.059053,0.00014879,-89.84,-0.00047515,-4777.9,0.15367
2483,5.3623,0.36364,0,0.00047627,4759.4,0.0001601,0.19334,0.00015222,-58.977,-0.00047724,-4788.5,0.15245
2484,5.3623,0.18182,0,0.00047893,4786,0.00015942,0.20207,0.00015575,-27.368,-0.00047939,-4799.5,0.15113
2485,5.1774,5.8182,0,0.00048505,4847.2,0.00016155,0.22554,0.00015757,-29.675,-0.00048555,-4861.8,0.1408
2486,5.1774,5.6364,0,0.00048218,4818.4,0.00016229,0.21187,0.00015376,-63.92,-0.00048323,-4850,0.14212
2487,5.1774,5.4545,0,0.00047939,4790.6,0.000163,0.065178,0.00015003,-97.39,-0.00048097,-4838.5,0.14334
2488,5.1774,5.2727,0,0.00047669,4763.6,0.0001637,0.057472,0.00014641,-129.9,-0.00047876,-4827.2,0.14446
2489,5.1774,5.0909,0,0.00047408,4737.6,0.00016437,0.037215,0.0001429,-161.28,-0.00047662,-4816.1,0.14549
2490,5.1774,4.9091,0,0.00047161,4712.8,0.00016501,0.026611,0.00013955,-191.24,-0.00047457,-4805.5,0.14641
2491,5.1774,4.7273,0,0.00046928,4689.5,0.00016561,0.017341,0.00013639,-219.52,-0.00047263,-4795.4,0.14725
2492,5.1774,4.5455,0,0.00046712,4667.9,0.00016617,0.010109,0.00013344,-245.85,-0.00047081,-4786,0.148
2493,5.1774,4.3636,0,0.00046514,4648.2,0.00016668,0.0040683,0.00013074,-269.99,-0.00046914,-4777.3,0.14866
2494,5.1774,4.1818,0,0.00046337,4630.5,0.00016713,-0.0009333,0.00012831,-291.69,-0.00046764,-4769.4,0.14923
2495,5.1774,4,0,0.00046182,4615,0.00016753,-0.0050719,0.00012618,-310.73,-0.00046632,-4762.5,0.14972
2496,5.1774,3.8182,0,0.0004605,4601.9,0.00016787,-0.0084336,0.00012436,-326.91,-0.00046519,-4756.6,0.15012
2497,5.1774,3.6364,0,0.00045944,4591.2,0.00016815,-0.011075,0.00012289,-340.08,-0.00046428,-4751.8,0.15044
2498,5.1774,3.4545,0,0.00045863,4583.1,0.00016836,-0.01303,0.00012177,-350.07,-0.00046358,-4748.1,0.15068
2499,5.1774,3.2727,0,0.00045808,4577.7,0.0001685,-0.014324,0.00012101,-356.8,-0.00046311,-4745.6,0.15084
2500,5.1774,3.0909,0,0.00045781,4575,0.00016857,-0.014968,0.00012063,-360.18,-0.00046287,-4744.4,0.15092
2501,5.1774,2.9091,0,0.00045781,4575,0.00016857,-0.014968,0.00012063,-360.18,-0.00046287,-4744.4,0.15092
2502,5.1774,2.7273,0,0.00045808,4577.7,0.0001685,-0.014323,0.00012101,-356.8,-0.00046311,-4745.6,0.15084
2503,5.1774,2.5455,0,0.00045863,4583.1,0.00016836,-0.013029,0.00012177,-350.07,-0.00046358,-4748.1,0.15068
2504,5.1774,2.3636,0,0.00045944,4591.2,0.00016815,-0.011075,0.00012289,-340.08,-0.00046428,-4751.8,0.15044
2505,5.1774,2.1818,0,0.0004605,4601.9,0.00016787,-0.0084332,0.00012436,-326.91,-0.00046519,-4756.6,0.15012
2506,5.1774,2,0,0.00046182,4615,0.00016753,-0.0050713,0.00012618,-310.73,-0.00046632,-4762.5,0.14972
2507,5.1774,1.8182,0,0.00046337,4630.5,0.00016713,-0.00093279,0.00012831,-291.69,-0.00046764,-4769.4,0.14923
2508,5.1774,1.6364,0,0.00046514,4648.2,0.00016668,0.0040688,0.00013074,-269.99,-0.00046914,-4777.3,0.14866
2509,5.1774,1.4545,0,0.00046712,4667.9,0.00016617,0.010109,0.00013344,-245.85,-0.00047081,-4786,0.148
2510,5.1774,1.2727,0,0.00046928,4689.5,0.00016561,0.017342,0.00013639,-219.52,-0.00047263,-4795.4,0.14725
2511,5.1774,1.0909,0,0.00047161,4712.8,0.00016501,0.026612,0.00013955,-191.24,-0.00047457,-4805.5,0.14641
2512,5.1774,0.90909,0,0.00047408,4737.6,0.00016437,0.037217,0.0001429,-161.28,-0.00047662,-4816.1,0.14549
2513,5.1774,0.72727,0,0.00047669,4763.6,0.0001637,0.057473,0.00014641,-129.9,-0.00047876,-4827.2,0.14446
2514,5.1774,0.54545,0,0.00047939,4790.6,0.000163,0.065178,0.00015003,-97.39,-0.00048097,-4838.5,0.14334
2515,5.1774,0.36364,0,0.00048218,4818.4,0.00016229,0.21187,0.00015376,-63.92,-0.00048323,-4850,0.14212
2516,5.1774,0.18182,0,0.00048505,4847.2,0.00016155,0.22554,0.00015757,-29.675,-0.00048555,-4861.8,0.1408
2517,4.9925,5.8182,0,0.00049123,4909,0.00016371,0.25325,0.00015942,-32.017,-0.00049177,-4924.8,0.13081
2518,4.9925,5.6364,0,0.00048813,4877.9,0.00016451,0.23221,0.00015528,-69.126,-0.00048926,-4912,0.13213
2519,4.9925,5.4545,0,0.00048512,4847.8,0.00016529,0.071955,0.00015125,-105.42,-0.00048682,-4899.6,0.13334
2520,4.9925,5.2727,0,0.0004822,4818.6,0.00016605,0.063119,0.00014731,-140.71,-0.00048444,-4887.4,0.13446
2521,4.9925,5.0909,0,0.00047939,4790.6,0.00016678,0.040859,0.00014351,-174.8,-0.00048212,-4875.6,0.13547
2522,4.9925,4.9091,0,0.00047671,4763.8,0.00016748,0.029164,0.00013987,-207.38,-0.0004799,-4864.1,0.1364
2523,4.9925,4.7273,0,0.0004742,4738.7,0.00016814,0.01897,0.00013644,-238.16,-0.0004778,-4853.3,0.13723
2524,4.9925,4.5455,0,0.00047186,4715.4,0.00016875,0.011022,0.00013323,-266.84,-0.00047583,-4843.1,0.13797
2525,4.9925,4.3636,0,0.00046973,4694,0.0001693,0.0043936,0.00013029,-293.15,-0.00047403,-4833.7,0.13862
2526,4.9925,4.1818,0,0.00046781,4674.9,0.00016981,-0.0010875,0.00012764,-316.81,-0.0004724,-4825.3,0.13919
2527,4.9925,4,0,0.00046614,4658.2,0.00017024,-0.0056158,0.00012532,-337.58,-0.00047096,-4817.8,0.13967
2528,4.9925,3.8182,0,0.00046472,4644,0.00017062,-0.0092886,0.00012334,-355.25,-0.00046974,-4811.4,0.14007
2529,4.9925,3.6364,0,0.00046357,4632.5,0.00017092,-0.01217,0.00012173,-369.62,-0.00046875,-4806.2,0.14039
2530,4.9925,3.4545,0,0.0004627,4623.8,0.00017115,-0.014301,0.00012051,-380.54,-0.00046799,-4802.3,0.14063
2531,4.9925,3.2727,0,0.00046211,4617.9,0.0001713,-0.015709,0.00011968,-387.88,-0.00046748,-4799.6,0.14078
2532,4.9925,3.0909,0,0.00046182,4615,0.00017138,-0.01641,0.00011927,-391.58,-0.00046723,-4798.3,0.14086
2533,4.9925,2.9091,0,0.00046182,4615,0.00017138,-0.01641,0.00011927,-391.58,-0.00046723,-4798.3,0.14086
2534,4.9925,2.7273,0,0.00046211,4617.9,0.0001713,-0.015709,0.00011968,-387.88,-0.00046748,-4799.6,0.14078
2535,4.9925,2.5455,0,0.0004627,4623.8,0.00017115,-0.014301,0.00012051,-380.54,-0.00046799,-4802.3,0.14063
2536,4.9925,2.3636,0,0.00046357,4632.5,0.00017092,-0.01217,0.00012173,-369.62,-0.00046875,-4806.2,0.14039
2537,4.9925,2.1818,0,0.00046472,4644,0.00017062,-0.0092883,0.00012334,-355.25,-0.00046974,-4811.4,0.14007
2538,4.9925,2,0,0.00046614,4658.2,0.00017024,-0.0056154,0.00012532,-337.58,-0.00047096,-4817.8,0.13967
2539,4.9925,1.8182,0,0.00046781,4674.9,0.00016981,-0.0010869,0.00012764,-316.81,-0.0004724,-4825.3,0.13919
2540,4.9925,1.6364,0,0.00046973,4694,0.0001693,0.0043943,0.00013029,-293.15,-0.00047403,-4833.7,0.13862
2541,4.9925,1.4545,0,0.00047186,4715.4,0.00016875,0.011023,0.00013323,-266.84,-0.00047583,-4843.1,0.13797
2542,4.9925,1.2727,0,0.0004742,4738.7,0.00016814,0.018971,0.00013644,-238.16,-0.0004778,-4853.3,0.13723
2543,4.9925,1.0909,0,0.00047671,4763.8,0.00016748,0.029165,0.00013987,-207.38,-0.0004799,-4864.1,0.1364
2544,4.9925,0.90909,0,0.00047939,4790.6,0.00016678,0.040861,0.00014351,-174.8,-0.00048212,-4875.6,0.13547
2545,4.9925,0.72727,0,0.0004822,4818.6,0.00016605,0.06312,0.00014731,-140.71,-0.00048444,-4887.4,0.13446
2546,4.9925,0.54545,0,0.00048512,4847.8,0.00016529,0.071955,0.00015125,-105.42,-0.00048682,-4899.6,0.13334
2547,4.9925,0.36364,0,0.00048813,4877.9,0.00016451,0.23221,0.00015528,-69.126,-0.00048926,-4912,0.13213
2548,4.9925,0.18182,0,0.00049123,4909,0.00016371,0.25325,0.00015942,-32.017,-0.00049177,-4924.8,0.13081
2549,4.8075,5.8182,0,0.00049748,4971.4,0.00016589,0.28604,0.00016128,-34.375,-0.00049805,-4988.3,0.12115
2550,4.8075,5.6364,0,0.00049412,4937.8,0.00016676,0.25456,0.0001568,-74.595,-0.00049534,-4974.6,0.12246
2551,4.8075,5.4545,0,0.00049087,4905.3,0.00016761,0.079476,0.00015243,-113.95,-0.00049271,-4961.3,0.12367
2552,4.8075,5.2727,0,0.00048772,4873.8,0.00016844,0.069349,0.00014816,-152.25,-0.00049013,-4948.1,0.12478
2553,4.8075,5.0909,0,0.00048469,4843.5,0.00016924,0.044893,0.00014404,-189.29,-0.00048763,-4935.4,0.12579
2554,4.8075,4.9091,0,0.0004818,4814.7,0.00017,0.032,0.00014009,-224.73,-0.00048523,-4923.1,0.12671
2555,4.8075,4.7273,0,0.00047908,4787.5,0.00017072,0.020795,0.00013635,-258.23,-0.00048295,-4911.4,0.12753
2556,4.8075,4.5455,0,0.00047656,4762.3,0.00017139,0.012067,0.00013286,-289.48,-0.00048083,-4900.5,0.12827
2557,4.8075,4.3636,0,0.00047426,4739.3,0.000172,0.0048007,0.00012966,-318.15,-0.00047887,-4890.4,0.12891
2558,4.8075,4.1818,0,0.0004722,4718.7,0.00017255,-0.0011973,0.00012677,-343.96,-0.00047711,-4881.3,0.12947
2559,4.8075,4,0,0.00047039,4700.7,0.00017303,-0.0061433,0.00012424,-366.62,-0.00047555,-4873.2,0.12995
2560,4.8075,3.8182,0,0.00046886,4685.4,0.00017344,-0.010147,0.00012208,-385.91,-0.00047423,-4866.4,0.13034
2561,4.8075,3.6364,0,0.00046762,4673,0.00017378,-0.013283,0.00012033,-401.6,-0.00047315,-4860.8,0.13066
2562,4.8075,3.4545,0,0.00046668,4663.6,0.00017403,-0.015598,0.000119,-413.52,-0.00047234,-4856.6,0.13089
2563,4.8075,3.2727,0,0.00046605,4657.3,0.0001742,-0.017126,0.0001181,-421.54,-0.00047178,-4853.7,0.13105
2564,4.8075,3.0909,0,0.00046573,4654.1,0.00017429,-0.017886,0.00011765,-425.58,-0.00047151,-4852.3,0.13113
2565,4.8075,2.9091,0,0.00046573,4654.1,0.00017429,-0.017886,0.00011765,-425.58,-0.00047151,-4852.3,0.13113
2566,4.8075,2.7273,0,0.00046605,4657.3,0.0001742,-0.017126,0.0001181,-421.54,-0.00047178,-4853.7,0.13105
2567,4.8075,2.5455,0,0.00046668,4663.6,0.00017403,-0.015598,0.000119,-413.52,-0.00047234,-4856.6,0.13089
2568,4.8075,2.3636,0,0.00046762,4673,0.00017378,-0.013283,0.00012033,-401.6,-0.00047315,-4860.8,0.13066
2569,4.8075,2.1818,0,0.00046886,4685.4,0.00017344,-0.010147,0.00012208,-385.91,-0.00047423,-4866.4,0.13034
2570,4.8075,2,0,0.00047039,4700.7,0.00017303,-0.0061429,0.00012424,-366.62,-0.00047555,-4873.2,0.12995
2571,4.8075,1.8182,0,0.0004722,4718.7,0.00017255,-0.0011966,0.00012677,-343.96,-0.00047711,-4881.3,0.12947
2572,4.8075,1.6364,0,0.00047426,4739.3,0.000172,0.0048012,0.00012966,-318.15,-0.00047887,-4890.4,0.12891
2573,4.8075,1.4545,0,0.00047656,4762.3,0.00017139,0.012068,0.00013286,-289.48,-0.00048083,-4900.5,0.12827
2574,4.8075,1.2727,0,0.00047908,4787.5,0.00017072,0.020796,0.00013635,-258.23,-0.00048295,-4911.4,0.12753
2575,4.8075,1.0909,0,0.0004818,4814.7,0.00017,0.032001,0.00014009,-224.73,-0.00048523,-4923.1,0.12671
2576,4.8075,0.90909,0,0.00048469,4843.5,0.00016924,0.044895,0.00014404,-189.29,-0.00048763,-4935.4,0.12579
2577,4.8075,0.72727,0,0.00048772,4873.8,0.00016844,0.06935,0.00014816,-152.25,-0.00049013,-4948.1,0.12478
2578,4.8075,0.54545,0,0.00049087,4905.3,0.00016761,0.079476,0.00015243,-113.95,-0.00049271,-4961.3,0.12367
2579,4.8075,0.36364,0,0.00049412,4937.8,0.00016676,0.25456,0.0001568,-74.595,-0.00049534,-4974.6,0.12246
2580,4.8075,0.18182,0,0.00049748,4971.4,0.00016589,0.28604,0.00016128,-34.375,-0.00049805,-4988.3,0.12115
2581,4.6226,5.8182,0,0.00050379,5034.5,0.0001681,0.32496,0.00016316,-36.726,-0.0005044,-5052.6,0.11183
2582,4.6226,5.6364,0,0.00050016,4998.2,0.00016904,0.27916,0.00015831,-80.327,-0.00050148,-5037.7,0.11314
2583,4.6226,5.4545,0,0.00049665,4963.1,0.00016996,0.087835,0.00015358,-123,-0.00049863,-5023.4,0.11434
2584,4.6226,5.2727,0,0.00049325,4929.1,0.00017086,0.076227,0.00014895,-164.57,-0.00049585,-5009.3,0.11544
2585,4.6226,5.0909,0,0.00048998,4896.4,0.00017174,0.04936,0.00014447,-204.82,-0.00049314,-4995.6,0.11644
2586,4.6226,4.9091,0,0.00048687,4865.3,0.00017257,0.035149,0.00014018,-243.37,-0.00049055,-4982.4,0.11735
2587,4.6226,4.7273,0,0.00048394,4836,0.00017336,0.022837,0.00013611,-279.84,-0.00048809,-4969.9,0.11817
2588,4.6226,4.5455,0,0.00048122,4808.9,0.0001741,0.01326,0.00013232,-313.88,-0.00048579,-4958.1,0.11889
2589,4.6226,4.3636,0,0.00047874,4784,0.00017477,0.005303,0.00012883,-345.14,-0.00048367,-4947.3,0.11953
2590,4.6226,4.1818,0,0.00047651,4761.8,0.00017538,-0.0012505,0.0001257,-373.29,-0.00048176,-4937.5,0.12008
2591,4.6226,4,0,0.00047457,4742.4,0.00017591,-0.0066417,0.00012294,-398.02,-0.00048008,-4928.9,0.12055
2592,4.6226,3.8182,0,0.00047292,4726,0.00017636,-0.010995,0.00012059,-419.07,-0.00047865,-4921.5,0.12094
2593,4.6226,3.6364,0,0.00047159,4712.6,0.00017673,-0.014397,0.00011868,-436.2,-0.00047749,-4915.6,0.12125
2594,4.6226,3.4545,0,0.00047057,4702.5,0.00017701,-0.016903,0.00011722,-449.22,-0.0004766,-4911,0.12148
2595,4.6226,3.2727,0,0.0004699,4695.7,0.0001772,-0.018555,0.00011624,-457.99,-0.00047601,-4907.9,0.12163
2596,4.6226,3.0909,0,0.00046955,4692.3,0.00017729,-0.019376,0.00011575,-462.39,-0.00047571,-4906.4,0.12171
2597,4.6226,2.9091,0,0.00046955,4692.3,0.00017729,-0.019376,0.00011575,-462.39,-0.00047571,-4906.4,0.12171
2598,4.6226,2.7273,0,0.0004699,4695.7,0.0001772,-0.018555,0.00011624,-457.99,-0.00047601,-4907.9,0.12163
2599,4.6226,2.5455,0,0.00047057,4702.5,0.00017701,-0.016903,0.00011722,-449.22,-0.0004766,-4911,0.12148
2600,4.6226,2.3636,0,0.00047159,4712.6,0.00017673,-0.014396,0.00011868,-436.2,-0.00047749,-4915.6,0.12125
2601,4.6226,2.1818,0,0.00047292,4726,0.00017636,-0.010995,0.00012059,-419.07,-0.00047865,-4921.5,0.12094
2602,4.6226,2,0,0.00047457,4742.4,0.00017591,-0.0066412,0.00012294,-398.02,-0.00048008,-4928.9,0.12055
2603,4.6226,1.8182,0,0.00047651,4761.8,0.00017538,-0.00125,0.0001257,-373.29,-0.00048176,-4937.5,0.12008
2604,4.6226,1.6364,0,0.00047874,4784,0.00017477,0.0053035,0.00012883,-345.14,-0.00048367,-4947.3,0.11953
2605,4.6226,1.4545,0,0.00048122,4808.9,0.0001741,0.01326,0.00013232,-313.88,-0.00048579,-4958.1,0.11889
2606,4.6226,1.2727,0,0.00048394,4836,0.00017336,0.022838,0.00013611,-279.84,-0.00048809,-4969.9,0.11817
2607,4.6226,1.0909,0,0.00048687,4865.3,0.00017257,0.035149,0.00014018,-243.37,-0.00049055,-4982.4,0.11735
2608,4.6226,0.90909,0,0.00048998,4896.4,0.00017174,0.049362,0.00014447,-204.82,-0.00049314,-4995.6,0.11644
2609,4.6226,0.72727,0,0.00049325,4929.1,0.00017086,0.076228,0.00014895,-164.57,-0.00049585,-5009.3,0.11544
2610,4.6226,0.54545,0,0.00049665,4963.1,0.00016996,0.087835,0.00015358,-123,-0.00049863,-5023.4,0.11434
2611,4.6226,0.36364,0,0.00050016,4998.2,0.00016904,0.27916,0.00015831,-80.327,-0.00050148,-5037.7,0.11314
2612,4.6226,0.18182,0,0.00050379,5034.5,0.0001681,0.32496,0.00016316,-36.726,-0.0005044,-5052.6,0.11183
2613,4.4377,5.8182,0,0.00051018,5098.3,0.00017032,0.3713,0.00016507,-39.042,-0.00051082,-5117.5,0.10285
2614,4.4377,5.6364,0,0.00050625,5059,0.00017134,0.30626,0.00015982,-86.319,-0.00050765,-5101.4,0.10415
2615,4.4377,5.4545,0,0.00050246,5021.2,0.00017234,0.097125,0.00015469,-132.58,-0.00050458,-5086.1,0.10535
2616,4.4377,5.2727,0,0.0004988,4984.5,0.00017333,0.083816,0.00014967,-177.72,-0.00050158,-5070.9,0.10644
2617,4.4377,5.0909,0,0.00049527,4949.2,0.00017429,0.054297,0.00014481,-221.46,-0.00049866,-5056.2,0.10743
2618,4.4377,4.9091,0,0.00049191,4915.7,0.0001752,0.038632,0.00014015,-263.39,-0.00049586,-5042.1,0.10833
2619,4.4377,4.7273,0,0.00048875,4884.1,0.00017607,0.025109,0.00013573,-303.1,-0.0004932,-5028.6,0.10913
2620,4.4377,4.5455,0,0.00048582,4854.9,0.00017688,0.014606,0.0001316,-340.19,-0.00049071,-5016,0.10985
2621,4.4377,4.3636,0,0.00048315,4828.2,0.00017762,0.0059039,0.00012781,-374.27,-0.00048843,-5004.4,0.11048
2622,4.4377,4.1818,0,0.00048076,4804.3,0.00017829,-0.0012439,0.00012439,-404.98,-0.00048637,-4994,0.11102
2623,4.4377,4,0,0.00047867,4783.4,0.00017887,-0.0071057,0.00012138,-431.97,-0.00048455,-4984.7,0.11148
2624,4.4377,3.8182,0,0.0004769,4765.7,0.00017937,-0.011824,0.00011883,-454.94,-0.00048301,-4976.9,0.11187
2625,4.4377,3.6364,0,0.00047547,4751.4,0.00017978,-0.015501,0.00011674,-473.64,-0.00048175,-4970.5,0.11217
2626,4.4377,3.4545,0,0.00047438,4740.6,0.00018009,-0.018203,0.00011516,-487.86,-0.0004808,-4965.6,0.1124
2627,4.4377,3.2727,0,0.00047366,4733.3,0.0001803,-0.01998,0.00011409,-497.43,-0.00048015,-4962.4,0.11255
2628,4.4377,3.0909,0,0.00047329,4729.6,0.0001804,-0.020862,0.00011356,-502.24,-0.00047983,-4960.7,0.11262
2629,4.4377,2.9091,0,0.00047329,4729.6,0.0001804,-0.020862,0.00011356,-502.24,-0.00047983,-4960.7,0.11262
2630,4.4377,2.7273,0,0.00047366,4733.3,0.0001803,-0.01998,0.00011409,-497.43,-0.00048015,-4962.4,0.11255
2631,4.4377,2.5455,0,0.00047438,4740.6,0.00018009,-0.018202,0.00011516,-487.86,-0.0004808,-4965.6,0.1124
2632,4.4377,2.3636,0,0.00047547,4751.4,0.00017978,-0.0155,0.00011674,-473.64,-0.00048175,-4970.5,0.11217
2633,4.4377,2.1818,0,0.0004769,4765.7,0.00017937,-0.011824,0.00011883,-454.94,-0.00048301,-4976.9,0.11187
2634,4.4377,2,0,0.00047867,4783.4,0.00017887,-0.0071053,0.00012138,-431.97,-0.00048455,-4984.7,0.11148
2635,4.4377,1.8182,0,0.00048076,4804.3,0.00017829,-0.0012434,0.00012439,-404.98,-0.00048637,-4994,0.11102
2636,4.4377,1.6364,0,0.00048315,4828.2,0.00017762,0.0059044,0.00012781,-374.27,-0.00048843,-5004.4,0.11048
2637,4.4377,1.4545,0,0.00048582,4854.9,0.00017688,0.014607,0.0001316,-340.19,-0.00049071,-5016,0.10985
2638,4.4377,1.2727,0,0.00048875,4884.1,0.00017607,0.02511,0.00013573,-303.1,-0.0004932,-5028.6,0.10913
2639,4.4377,1.0909,0,0.00049191,4915.7,0.0001752,0.038633,0.00014015,-263.39,-0.00049586,-5042.1,0.10833
2640,4.4377,0.90909,0,0.00049527,4949.2,0.00017429,0.054298,0.00014481,-221.46,-0.00049866,-5056.2,0.10743
2641,4.4377,0.72727,0,0.0004988,4984.5,0.00017333,0.083816,0.00014967,-177.72,-0.00050158,-5070.9,0.10644
2642,4.4377,0.54545,0,0.00050246,5021.2,0.00017234,0.097125,0.00015469,-132.58,-0.00050458,-5086.1,0.10535
2643,4.4377,0.36364,0,0.00050625,5059,0.00017134,0.30626,0.00015982,-86.319,-0.00050765,-5101.4,0.10415
2644,4.4377,0.18182,0,0.00051018,5098.3,0.00017032,0.37131,0.00016507,-39.041,-0.00051082,-5117.5,0.10285
2645,4.2528,5.8182,0,0.00051663,5162.7,0.00017256,0.42675,0.00016701,-41.289,-0.00051731,-5183,0.094229
2646,4.2528,5.6364,0,0.00051238,5120.2,0.00017368,0.33617,0.00016131,-92.564,-0.00051388,-5165.7,0.095517
2647,4.2528,5.4545,0,0.00050829,5079.4,0.00017477,0.10747,0.00015576,-142.73,-0.00051057,-5149.2,0.096699
2648,4.2528,5.2727,0,0.00050434,5039.9,0.00017585,0.0922,0.00015032,-191.72,-0.00050733,-5133,0.097779
2649,4.2528,5.0909,0,0.00050054,5001.9,0.00017689,0.059759,0.00014504,-239.27,-0.00050418,-5117.2,0.098759
2650,4.2528,4.9091,0,0.00049692,4965.8,0.0001779,0.04249,0.00013997,-284.89,-0.00050115,-5102.1,0.099644
2651,4.2528,4.7273,0,0.00049352,4931.8,0.00017885,0.02764,0.00013517,-328.14,-0.00049829,-5087.7,0.10044
2652,4.2528,4.5455,0,0.00049038,4900.4,0.00017974,0.016129,0.00013068,-368.56,-0.0004956,-5074.2,0.10114
2653,4.2528,4.3636,0,0.0004875,4871.7,0.00018056,0.0066237,0.00012656,-405.72,-0.00049314,-5061.9,0.10176
2654,4.2528,4.1818,0,0.00048494,4846,0.00018129,-0.0011559,0.00012284,-439.21,-0.00049091,-5050.7,0.10229
2655,4.2528,4,0,0.0004827,4823.7,0.00018194,-0.0075109,0.00011957,-468.66,-0.00048896,-5040.9,0.10275
2656,4.2528,3.8182,0,0.0004808,4804.7,0.00018249,-0.012606,0.00011678,-493.73,-0.0004873,-5032.5,0.10312
2657,4.2528,3.6364,0,0.00047927,4789.4,0.00018294,-0.01656,0.00011452,-514.13,-0.00048594,-5025.7,0.10342
2658,4.2528,3.4545,0,0.00047811,4777.8,0.00018328,-0.019458,0.00011279,-529.65,-0.00048491,-5020.6,0.10364
2659,4.2528,3.2727,0,0.00047733,4770,0.00018351,-0.021358,0.00011163,-540.09,-0.00048422,-5017.1,0.10379
2660,4.2528,3.0909,0,0.00047694,4766.1,0.00018363,-0.0223,0.00011105,-545.34,-0.00048387,-5015.3,0.10386
2661,4.2528,2.9091,0,0.00047694,4766.1,0.00018363,-0.0223,0.00011105,-545.34,-0.00048387,-5015.3,0.10386
2662,4.2528,2.7273,0,0.00047733,4770,0.00018351,-0.021358,0.00011163,-540.09,-0.00048422,-5017.1,0.10379
2663,4.2528,2.5455,0,0.00047811,4777.8,0.00018328,-0.019457,0.00011279,-529.65,-0.00048491,-5020.6,0.10364
2664,4.2528,2.3636,0,0.00047927,4789.4,0.00018294,-0.01656,0.00011452,-514.13,-0.00048594,-5025.7,0.10342
2665,4.2528,2.1818,0,0.0004808,4804.7,0.00018249,-0.012605,0.00011678,-493.73,-0.0004873,-5032.5,0.10312
2666,4.2528,2,0,0.0004827,4823.7,0.00018194,-0.0075105,0.00011957,-468.66,-0.00048896,-5040.9,0.10275
2667,4.2528,1.8182,0,0.00048494,4846,0.00018129,-0.0011554,0.00012284,-439.21,-0.00049091,-5050.7,0.10229
2668,4.2528,1.6364,0,0.0004875,4871.7,0.00018056,0.006624,0.00012656,-405.72,-0.00049314,-5061.9,0.10176
2669,4.2528,1.4545,0,0.00049038,4900.4,0.00017974,0.01613,0.00013068,-368.56,-0.0004956,-5074.2,0.10114
2670,4.2528,1.2727,0,0.00049352,4931.8,0.00017885,0.02764,0.00013517,-328.14,-0.00049829,-5087.7,0.10044
2671,4.2528,1.0909,0,0.00049692,4965.8,0.0001779,0.042491,0.00013997,-284.89,-0.00050115,-5102.1,0.099644
2672,4.2528,0.90909,0,0.00050054,5001.9,0.00017689,0.059761,0.00014504,-239.27,-0.00050418,-5117.2,0.098759
2673,4.2528,0.72727,0,0.00050434,5039.9,0.00017585,0.092201,0.00015032,-191.72,-0.00050733,-5133,0.097779
2674,4.2528,0.54545,0,0.00050829,5079.4,0.00017477,0.10747,0.00015576,-142.73,-0.00051057,-5149.2,0.096699
2675,4.2528,0.36364,0,0.00051238,5120.2,0.00017368,0.33617,0.00016131,-92.564,-0.00051388,-5165.7,0.095517
2676,4.2528,0.18182,0,0.00051663,5162.7,0.00017256,0.42675,0.00016701,-41.289,-0.00051731,-5183,0.094229
2677,4.0679,5.8182,0,0.00052315,5227.9,0.00017483,0.49346,0.00016898,-43.43,-0.00052387,-5249.3,0.085957
2678,4.0679,5.6364,0,0.00051854,5181.9,0.00017603,0.36924,0.0001628,-99.054,-0.00052015,-5230.5,0.087233
2679,4.0679,5.4545,0,0.00051414,5137.9,0.00017722,0.11902,0.00015678,-153.45,-0.00051658,-5212.8,0.088401
2680,4.0679,5.2727,0,0.00050989,5095.3,0.0001784,0.10147,0.00015089,-206.65,-0.00051308,-5195.5,0.089466
2681,4.0679,5.0909,0,0.00050579,5054.4,0.00017955,0.065803,0.00014516,-258.33,-0.00050969,-5178.6,0.090432
2682,4.0679,4.9091,0,0.0005019,5015.6,0.00018065,0.046758,0.00013966,-307.98,-0.00050643,-5162.4,0.091302
2683,4.0679,4.7273,0,0.00049825,4979.1,0.0001817,0.030451,0.00013444,-355.09,-0.00050334,-5147.1,0.092081
2684,4.0679,4.5455,0,0.00049487,4945.3,0.00018268,0.017847,0.00012956,-399.14,-0.00050045,-5132.8,0.092771
2685,4.0679,4.3636,0,0.00049179,4914.5,0.00018358,0.0074792,0.00012507,-439.66,-0.00049779,-5119.6,0.093377
2686,4.0679,4.1818,0,0.00048905,4887.1,0.0001844,-0.000967,0.00012102,-476.18,-0.0004954,-5107.8,0.093899
2687,4.0679,4,0,0.00048665,4863.2,0.00018511,-0.0078317,0.00011746,-508.3,-0.0004933,-5097.4,0.094343
2688,4.0679,3.8182,0,0.00048463,4843,0.00018572,-0.013307,0.00011444,-535.65,-0.00049151,-5088.5,0.094708
2689,4.0679,3.6364,0,0.00048299,4826.6,0.00018622,-0.017537,0.00011197,-557.91,-0.00049006,-5081.3,0.094998
2690,4.0679,3.4545,0,0.00048176,4814.3,0.0001866,-0.020622,0.0001101,-574.83,-0.00048895,-5075.9,0.095215
2691,4.0679,3.2727,0,0.00048093,4806,0.00018685,-0.02264,0.00010884,-586.21,-0.00048821,-5072.2,0.095358
2692,4.0679,3.0909,0,0.00048051,4801.8,0.00018698,-0.023638,0.0001082,-591.94,-0.00048784,-5070.4,0.09543
2693,4.0679,2.9091,0,0.00048051,4801.8,0.00018698,-0.023638,0.0001082,-591.94,-0.00048784,-5070.4,0.09543
2694,4.0679,2.7273,0,0.00048093,4806,0.00018685,-0.02264,0.00010884,-586.21,-0.00048821,-5072.2,0.095358
2695,4.0679,2.5455,0,0.00048176,4814.3,0.0001866,-0.020622,0.0001101,-574.83,-0.00048895,-5075.9,0.095215
2696,4.0679,2.3636,0,0.00048299,4826.6,0.00018622,-0.017537,0.00011197,-557.91,-0.00049006,-5081.3,0.094998
2697,4.0679,2.1818,0,0.00048463,4843,0.00018572,-0.013307,0.00011444,-535.65,-0.00049151,-5088.5,0.094708
2698,4.0679,2,0,0.00048665,4863.2,0.00018511,-0.0078315,0.00011746,-508.3,-0.0004933,-5097.4,0.094343
2699,4.0679,1.8182,0,0.00048905,4887.1,0.0001844,-0.00096633,0.00012102,-476.18,-0.0004954,-5107.8,0.093899
2700,4.0679,1.6364,0,0.00049179,4914.5,0.00018358,0.0074796,0.00012507,-439.66,-0.0004978,-5119.6,0.093377
2701,4.0679,1.4545,0,0.00049487,4945.3,0.00018268,0.017847,0.00012956,-399.14,-0.00050045,-5132.8,0.092771
2702,4.0679,1.2727,0,0.00049825,4979.1,0.0001817,0.030452,0.00013444,-355.09,-0.00050334,-5147.1,0.092081
2703,4.0679,1.0909,0,0.0005019,5015.6,0.00018065,0.046759,0.00013966,-307.98,-0.00050643,-5162.4,0.091302
2704,4.0679,0.90909,0,0.00050579,5054.4,0.00017955,0.065805,0.00014516,-258.33,-0.00050969,-5178.6,0.090432
2705,4.0679,0.72727,0,0.00050989,5095.3,0.0001784,0.10147,0.00015089,-206.65,-0.00051308,-5195.5,0.089466
2706,4.0679,0.54545,0,0.00051414,5137.9,0.00017722,0.11902,0.00015678,-153.45,-0.00051658,-5212.8,0.088401
2707,4.0679,0.36364,0,0.00051854,5181.9,0.00017603,0.36924,0.0001628,-99.054,-0.00052015,-5230.5,0.087233
2708,4.0679,0.18182,0,0.00052315,5227.9,0.00017483,0.49346,0.00016898,-43.43,-0.00052387,-5249.3,0.085957
2709,3.883,5.8182,0,0.00052974,5293.8,0.00017711,0.57426,0.00017099,-45.417,-0.00053049,-5316.1,0.078043
2710,3.883,5.6364,0,0.00052475,5243.9,0.00017841,0.4059,0.00016428,-105.78,-0.00052646,-5295.8,0.079303
2711,3.883,5.4545,0,0.00052001,5196.5,0.00017971,0.13193,0.00015776,-164.77,-0.00052261,-5276.9,0.080455
2712,3.883,5.2727,0,0.00051542,5150.7,0.000181,0.11174,0.00015137,-222.55,-0.00051885,-5258.3,0.081504
2713,3.883,5.0909,0,0.00051102,5106.7,0.00018226,0.072503,0.00014515,-278.75,-0.00051519,-5240.3,0.082453
2714,3.883,4.9091,0,0.00050684,5064.9,0.00018348,0.051487,0.00013918,-332.8,-0.00051168,-5223.1,0.083307
2715,3.883,4.7273,0,0.00050293,5025.8,0.00018463,0.033581,0.0001335,-384.11,-0.00050836,-5206.8,0.084069
2716,3.883,4.5455,0,0.00049931,4989.6,0.00018571,0.019789,0.0001282,-432.12,-0.00050525,-5191.6,0.084744
2717,3.883,4.3636,0,0.00049602,4956.7,0.00018671,0.008502,0.00012332,-476.29,-0.0005024,-5177.7,0.085335
2718,3.883,4.1818,0,0.00049309,4927.4,0.00018761,-0.00063976,0.00011892,-516.12,-0.00049983,-5165.2,0.085845
2719,3.883,4,0,0.00049053,4902,0.00018841,-0.0080228,0.00011506,-551.13,-0.00049758,-5154.2,0.086276
2720,3.883,3.8182,0,0.00048838,4880.5,0.00018908,-0.013873,0.00011177,-580.94,-0.00049567,-5145,0.086632
2721,3.883,3.6364,0,0.00048665,4863.1,0.00018964,-0.018365,0.00010909,-605.2,-0.00049411,-5137.4,0.086914
2722,3.883,3.4545,0,0.00048534,4850,0.00019005,-0.021624,0.00010706,-623.64,-0.00049293,-5131.7,0.087124
2723,3.883,3.2727,0,0.00048446,4841.3,0.00019034,-0.023746,0.00010569,-636.04,-0.00049213,-5127.9,0.087263
2724,3.883,3.0909,0,0.00048402,4836.9,0.00019048,-0.024792,0.000105,-642.28,-0.00049174,-5125.9,0.087333
2725,3.883,2.9091,0,0.00048402,4836.9,0.00019048,-0.024792,0.000105,-642.28,-0.00049174,-5125.9,0.087333
2726,3.883,2.7273,0,0.00048446,4841.3,0.00019034,-0.023746,0.00010569,-636.04,-0.00049213,-5127.9,0.087263
2727,3.883,2.5455,0,0.00048534,4850,0.00019005,-0.021623,0.00010706,-623.64,-0.00049293,-5131.7,0.087124
2728,3.883,2.3636,0,0.00048665,4863.1,0.00018964,-0.018364,0.00010909,-605.2,-0.00049411,-5137.4,0.086914
2729,3.883,2.1818,0,0.00048838,4880.5,0.00018908,-0.013873,0.00011177,-580.94,-0.00049567,-5145,0.086632
2730,3.883,2,0,0.00049053,4902,0.00018841,-0.0080223,0.00011506,-551.13,-0.00049758,-5154.2,0.086276
2731,3.883,1.8182,0,0.00049309,4927.4,0.00018761,-0.00063916,0.00011892,-516.12,-0.00049983,-5165.2,0.085845
2732,3.883,1.6364,0,0.00049602,4956.7,0.00018671,0.0085027,0.00012332,-476.29,-0.0005024,-5177.7,0.085335
2733,3.883,1.4545,0,0.00049931,4989.6,0.00018571,0.01979,0.0001282,-432.12,-0.00050525,-5191.6,0.084744
2734,3.883,1.2727,0,0.00050293,5025.8,0.00018463,0.033582,0.0001335,-384.11,-0.00050836,-5206.8,0.084069
2735,3.883,1.0909,0,0.00050684,5064.9,0.00018348,0.051488,0.00013918,-332.8,-0.00051168,-5223.1,0.083307
2736,3.883,0.90909,0,0.00051102,5106.7,0.00018226,0.072504,0.00014515,-278.75,-0.00051519,-5240.3,0.082453
2737,3.883,0.72727,0,0.00051542,5150.7,0.000181,0.11174,0.00015137,-222.55,-0.00051885,-5258.3,0.081504
2738,3.883,0.54545,0,0.00052001,5196.5,0.00017971,0.13193,0.00015776,-164.77,-0.00052261,-5276.9,0.080455
2739,3.883,0.36364,0,0.00052475,5243.9,0.00017841,0.40591,0.00016428,-105.78,-0.00052646,-5295.8,0.079303
2740,3.883,0.18182,0,0.00052974,5293.8,0.00017711,0.57427,0.00017099,-45.417,-0.00053049,-5316.1,0.078043
2741,3.6981,5.8182,0,0.0005364,5360.3,0.0001794,0.67289,0.00017303,-47.197,-0.00053717,-5383.4,0.070491
2742,3.6981,5.6364,0,0.00053098,5306.2,0.00018082,0.44664,0.00016575,-112.72,-0.0005328,-5361.4,0.071733
2743,3.6981,5.4545,0,0.00052588,5255.1,0.00018223,0.14639,0.00015869,-176.72,-0.00052866,-5341.2,0.072866
2744,3.6981,5.2727,0,0.00052095,5205.9,0.00018365,0.12313,0.00015176,-239.48,-0.0005246,-5321.4,0.073895
2745,3.6981,5.0909,0,0.00051622,5158.6,0.00018503,0.079918,0.00014501,-300.62,-0.00052067,-5302.3,0.074825
2746,3.6981,4.9091,0,0.00051173,5113.8,0.00018637,0.056711,0.00013852,-359.47,-0.0005169,-5284,0.07566
2747,3.6981,4.7273,0,0.00050754,5071.9,0.00018764,0.037049,0.00013236,-415.37,-0.00051333,-5266.8,0.076404
2748,3.6981,4.5455,0,0.00050368,5033.3,0.00018884,0.02197,0.00012659,-467.7,-0.00051,-5250.8,0.077062
2749,3.6981,4.3636,0,0.00050017,4998.3,0.00018995,0.009709,0.00012129,-515.85,-0.00050694,-5236.2,0.077636
2750,3.6981,4.1818,0,0.00049706,4967.1,0.00019095,-0.00014856,0.00011652,-559.25,-0.0005042,-5223.1,0.078131
2751,3.6981,4,0,0.00049435,4940.1,0.00019183,-0.0080457,0.00011232,-597.4,-0.0005018,-5211.6,0.07855
2752,3.6981,3.8182,0,0.00049208,4917.4,0.00019258,-0.014252,0.00010875,-629.86,-0.00049976,-5202,0.078894
2753,3.6981,3.6364,0,0.00049025,4899.1,0.00019319,-0.018979,0.00010585,-656.27,-0.0004981,-5194.1,0.079167
2754,3.6981,3.4545,0,0.00048886,4885.3,0.00019366,-0.022385,0.00010365,-676.33,-0.00049684,-5188.2,0.07937
2755,3.6981,3.2727,0,0.00048794,4876,0.00019398,-0.02459,0.00010217,-689.82,-0.000496,-5184.2,0.079505
2756,3.6981,3.0909,0,0.00048748,4871.4,0.00019413,-0.025674,0.00010142,-696.61,-0.00049558,-5182.2,0.079572
2757,3.6981,2.9091,0,0.00048748,4871.4,0.00019413,-0.025674,0.00010142,-696.61,-0.00049558,-5182.2,0.079572
2758,3.6981,2.7273,0,0.00048794,4876,0.00019398,-0.02459,0.00010217,-689.82,-0.000496,-5184.2,0.079505
2759,3.6981,2.5455,0,0.00048886,4885.3,0.00019366,-0.022384,0.00010365,-676.33,-0.00049684,-5188.2,0.07937
2760,3.6981,2.3636,0,0.00049025,4899.1,0.00019319,-0.018978,0.00010585,-656.27,-0.0004981,-5194.1,0.079167
2761,3.6981,2.1818,0,0.00049208,4917.4,0.00019258,-0.014252,0.00010875,-629.86,-0.00049976,-5202,0.078894
2762,3.6981,2,0,0.00049435,4940.1,0.00019183,-0.0080454,0.00011232,-597.4,-0.0005018,-5211.6,0.07855
2763,3.6981,1.8182,0,0.00049706,4967.1,0.00019095,-0.00014808,0.00011652,-559.25,-0.0005042,-5223.1,0.078131
2764,3.6981,1.6364,0,0.00050017,4998.3,0.00018995,0.0097097,0.00012129,-515.85,-0.00050694,-5236.2,0.077636
2765,3.6981,1.4545,0,0.00050368,5033.3,0.00018884,0.021971,0.00012659,-467.7,-0.00051,-5250.8,0.077062
2766,3.6981,1.2727,0,0.00050754,5071.9,0.00018764,0.037049,0.00013236,-415.37,-0.00051333,-5266.8,0.076404
2767,3.6981,1.0909,0,0.00051173,5113.8,0.00018637,0.056712,0.00013852,-359.47,-0.0005169,-5284,0.07566
2768,3.6981,0.90909,0,0.00051622,5158.6,0.00018503,0.07992,0.00014501,-300.62,-0.00052067,-5302.3,0.074825
2769,3.6981,0.72727,0,0.00052095,5205.9,0.00018365,0.12313,0.00015176,-239.48,-0.0005246,-5321.4,0.073895
2770,3.6981,0.54545,0,0.00052588,5255.1,0.00018223,0.14639,0.00015869,-176.72,-0.00052866,-5341.2,0.072866
2771,3.6981,0.36364,0,0.00053098,5306.2,0.00018082,0.44664,0.00016575,-112.72,-0.0005328,-5361.4,0.071733
2772,3.6981,0.18182,0,0.0005364,5360.3,0.0001794,0.67289,0.00017303,-47.197,-0.00053717,-5383.4,0.070491
2773,3.5132,5.8182,0,0.00054311,5427.3,0.0001817,0.79437,0.00017511,-48.708,-0.0005439,-5451.1,0.063305
2774,3.5132,5.6364,0,0.00053724,5368.6,0.00018323,0.49202,0.00016721,-119.87,-0.00053916,-5427.3,0.064526
2775,3.5132,5.4545,0,0.00053174,5313.7,0.00018478,0.1626,0.00015956,-189.32,-0.0005347,-5405.7,0.065638
2776,3.5132,5.2727,0,0.00052644,5260.7,0.00018634,0.13574,0.00015204,-257.53,-0.00053034,-5384.7,0.066645
2777,3.5132,5.0909,0,0.00052136,5210,0.00018786,0.08811,0.00014472,-324.06,-0.00052612,-5364.5,0.067553
2778,3.5132,4.9091,0,0.00051657,5162.1,0.00018934,0.062458,0.00013767,-388.16,-0.00052207,-5345.2,0.068366
2779,3.5132,4.7273,0,0.00051209,5117.4,0.00019075,0.040864,0.00013097,-449.09,-0.00051825,-5327.1,0.069089
2780,3.5132,4.5455,0,0.00050797,5076.2,0.00019208,0.024398,0.00012471,-506.12,-0.00051469,-5310.3,0.069727
2781,3.5132,4.3636,0,0.00050426,5039.1,0.0001933,0.011115,0.00011896,-558.57,-0.00051143,-5295.1,0.070284
2782,3.5132,4.1818,0,0.00050096,5006.1,0.00019442,0.00053453,0.00011378,-605.84,-0.00050851,-5281.5,0.070762
2783,3.5132,4,0,0.00049811,4977.7,0.0001954,-0.0078549,0.00010924,-647.36,-0.00050595,-5269.7,0.071166
2784,3.5132,3.8182,0,0.00049572,4953.8,0.00019623,-0.014378,0.00010538,-682.66,-0.00050379,-5259.7,0.071498
2785,3.5132,3.6364,0,0.0004938,4934.6,0.00019692,-0.019297,0.00010224,-711.36,-0.00050204,-5251.7,0.071761
2786,3.5132,3.4545,0,0.00049236,4920.2,0.00019743,-0.022809,9.9861e-05,-733.15,-0.00050072,-5245.6,0.071956
2787,3.5132,3.2727,0,0.0004914,4910.6,0.00019778,-0.025068,9.8261e-05,-747.81,-0.00049983,-5241.6,0.072086
2788,3.5132,3.0909,0,0.00049091,4905.8,0.00019796,-0.026172,9.7457e-05,-755.17,-0.00049938,-5239.6,0.07215
2789,3.5132,2.9091,0,0.00049091,4905.8,0.00019796,-0.026172,9.7457e-05,-755.17,-0.00049938,-5239.6,0.07215
2790,3.5132,2.7273,0,0.0004914,4910.6,0.00019778,-0.025068,9.8261e-05,-747.81,-0.00049983,-5241.6,0.072086
2791,3.5132,2.5455,0,0.00049236,4920.2,0.00019743,-0.022809,9.9861e-05,-733.15,-0.00050072,-5245.6,0.071956
2792,3.5132,2.3636,0,0.0004938,4934.6,0.00019692,-0.019296,0.00010224,-711.36,-0.00050204,-5251.7,0.071761
2793,3.5132,2.1818,0,0.00049572,4953.8,0.00019623,-0.014378,0.00010538,-682.66,-0.00050379,-5259.7,0.071498
2794,3.5132,2,0,0.00049811,4977.7,0.0001954,-0.0078546,0.00010924,-647.36,-0.00050595,-5269.7,0.071166
2795,3.5132,1.8182,0,0.00050096,5006.1,0.00019442,0.00053489,0.00011378,-605.84,-0.00050851,-5281.5,0.070762
2796,3.5132,1.6364,0,0.00050426,5039.1,0.0001933,0.011115,0.00011896,-558.57,-0.00051143,-5295.1,0.070284
2797,3.5132,1.4545,0,0.00050797,5076.2,0.00019208,0.024398,0.00012471,-506.12,-0.00051469,-5310.3,0.069727
2798,3.5132,1.2727,0,0.00051209,5117.4,0.00019075,0.040864,0.00013097,-449.09,-0.00051825,-5327.1,0.069089
2799,3.5132,1.0909,0,0.00051657,5162.1,0.00018934,0.062458,0.00013767,-388.16,-0.00052207,-5345.2,0.068366
2800,3.5132,0.90909,0,0.00052136,5210,0.00018786,0.088111,0.00014472,-324.06,-0.00052612,-5364.5,0.067553
2801,3.5132,0.72727,0,0.00052644,5260.7,0.00018634,0.13574,0.00015204,-257.53,-0.00053034,-5384.7,0.066645
2802,3.5132,0.54545,0,0.00053174,5313.7,0.00018478,0.1626,0.00015956,-189.32,-0.0005347,-5405.7,0.065638
2803,3.5132,0.36364,0,0.00053724,5368.6,0.00018323,0.49203,0.00016721,-119.87,-0.00053916,-5427.3,0.064526
2804,3.5132,0.18182,0,0.00054311,5427.3,0.0001817,0.79437,0.00017511,-48.708,-0.0005439,-5451.1,0.063305
2805,3.3283,5.8182,0,0.00054986,5494.8,0.000184,0.94561,0.00017723,-49.88,-0.00055067,-5519.1,0.05649
2806,3.3283,5.6364,0,0.00054349,5431.1,0.00018566,0.54276,0.00016866,-127.2,-0.00054553,-5493.3,0.057687
2807,3.3283,5.4545,0,0.00053757,5372,0.00018735,0.18085,0.00016036,-202.61,-0.00054073,-5470.3,0.058774
2808,3.3283,5.2727,0,0.00053188,5315.1,0.00018906,0.14976,0.00015221,-276.79,-0.00053604,-5448,0.059756
2809,3.3283,5.0909,0,0.00052645,5260.8,0.00019075,0.097172,0.00014425,-349.24,-0.00053151,-5426.7,0.060639
2810,3.3283,4.9091,0,0.00052132,5209.6,0.00019238,0.068783,0.0001366,-419.08,-0.00052718,-5406.5,0.061428
2811,3.3283,4.7273,0,0.00051656,5162,0.00019395,0.045065,0.00012933,-485.49,-0.0005231,-5387.6,0.062128
2812,3.3283,4.5455,0,0.00051219,5118.4,0.00019543,0.027109,0.00012254,-547.63,-0.00051931,-5370.2,0.062744
2813,3.3283,4.3636,0,0.00050827,5079.2,0.00019679,0.012768,0.0001163,-604.75,-0.00051585,-5354.5,0.06328
2814,3.3283,4.1818,0,0.00050481,5044.6,0.00019803,0.0014787,0.0001107,-656.17,-0.00051276,-5340.6,0.06374
2815,3.3283,4,0,0.00050183,5014.8,0.00019912,-0.0073575,0.00010579,-701.3,-0.00051006,-5328.5,0.064128
2816,3.3283,3.8182,0,0.00049934,4989.9,0.00020005,-0.014136,0.00010162,-739.63,-0.00050779,-5318.5,0.064446
2817,3.3283,3.6364,0,0.00049734,4970,0.00020081,-0.01918,9.8235e-05,-770.75,-0.00050595,-5310.4,0.064698
2818,3.3283,3.4545,0,0.00049585,4955.1,0.00020139,-0.022741,9.5672e-05,-794.36,-0.00050456,-5304.3,0.064885
2819,3.3283,3.2727,0,0.00049486,4945.1,0.00020178,-0.02501,9.3951e-05,-810.23,-0.00050363,-5300.2,0.065008
2820,3.3283,3.0909,0,0.00049436,4940.2,0.00020198,-0.026112,9.3086e-05,-818.2,-0.00050317,-5298.2,0.06507
2821,3.3283,2.9091,0,0.00049436,4940.2,0.00020198,-0.026112,9.3086e-05,-818.2,-0.00050317,-5298.2,0.06507
2822,3.3283,2.7273,0,0.00049486,4945.1,0.00020178,-0.025009,9.3951e-05,-810.23,-0.00050363,-5300.2,0.065008
2823,3.3283,2.5455,0,0.00049585,4955.1,0.00020139,-0.022741,9.5672e-05,-794.36,-0.00050456,-5304.3,0.064885
2824,3.3283,2.3636,0,0.00049734,4970,0.00020081,-0.01918,9.8235e-05,-770.75,-0.00050595,-5310.4,0.064698
2825,3.3283,2.1818,0,0.00049934,4989.9,0.00020005,-0.014136,0.00010162,-739.63,-0.00050779,-5318.5,0.064446
2826,3.3283,2,0,0.00050183,5014.8,0.00019912,-0.0073572,0.00010579,-701.3,-0.00051006,-5328.5,0.064128
2827,3.3283,1.8182,0,0.00050481,5044.6,0.00019803,0.0014791,0.0001107,-656.17,-0.00051276,-5340.6,0.06374
2828,3.3283,1.6364,0,0.00050827,5079.2,0.00019679,0.012769,0.0001163,-604.75,-0.00051585,-5354.5,0.06328
2829,3.3283,1.4545,0,0.00051219,5118.4,0.00019543,0.02711,0.00012254,-547.63,-0.00051931,-5370.2,0.062744
2830,3.3283,1.2727,0,0.00051656,5162,0.00019395,0.045066,0.00012933,-485.49,-0.0005231,-5387.6,0.062128
2831,3.3283,1.0909,0,0.00052132,5209.6,0.00019238,0.068784,0.0001366,-419.08,-0.00052718,-5406.5,0.061428
2832,3.3283,0.90909,0,0.00052645,5260.8,0.00019075,0.097173,0.00014425,-349.24,-0.00053151,-5426.7,0.060639
2833,3.3283,0.72727,0,0.00053188,5315.1,0.00018906,0.14976,0.00015221,-276.79,-0.00053604,-5448,0.059756
2834,3.3283,0.54545,0,0.00053757,5372,0.00018735,0.18085,0.00016036,-202.61,-0.00054073,-5470.3,0.058774
2835,3.3283,0.36364,0,0.00054349,5431.1,0.00018566,0.54277,0.00016866,-127.2,-0.00054553,-5493.3,0.057687
2836,3.3283,0.18182,0,0.00054986,5494.8,0.000184,0.94561,0.00017723,-49.88,-0.00055067,-5519.1,0.05649
2837,3.1434,5.8182,0,0.00055663,5562.4,0.00018628,1.1363,0.00017939,-50.635,-0.00055745,-5587,0.05005
2838,3.1434,5.6364,0,0.00054971,5493.3,0.00018809,0.5997,0.00017008,-134.7,-0.00055187,-5559.1,0.051219
2839,3.1434,5.4545,0,0.00054335,5429.7,0.00018995,0.20142,0.00016109,-216.64,-0.0005467,-5534.7,0.052278
2840,3.1434,5.2727,0,0.00053725,5368.8,0.00019183,0.16533,0.00015223,-297.38,-0.00054168,-5511.2,0.053231
2841,3.1434,5.0909,0,0.00053144,5310.7,0.00019369,0.10718,0.00014359,-376.33,-0.00053683,-5488.8,0.054086
2842,3.1434,4.9091,0,0.00052598,5256.2,0.00019551,0.07572,0.00013528,-452.47,-0.00053221,-5467.7,0.054848
2843,3.1434,4.7273,0,0.00052093,5205.7,0.00019725,0.049666,0.00012739,-524.85,-0.00052787,-5448.2,0.055523
2844,3.1434,4.5455,0,0.00051633,5159.7,0.0001989,0.030122,0.00012003,-592.55,-0.00052385,-5430.4,0.056114
2845,3.1434,4.3636,0,0.00051221,5118.6,0.00020042,0.014706,0.00011328,-654.7,-0.0005202,-5414.4,0.056628
2846,3.1434,4.1818,0,0.0005086,5082.5,0.0002018,0.0027491,0.00010723,-710.57,-0.00051695,-5400.4,0.057068
2847,3.1434,4,0,0.00050551,5051.6,0.00020302,-0.0064565,0.00010194,-759.52,-0.00051413,-5388.4,0.057438
2848,3.1434,3.8182,0,0.00050295,5026,0.00020406,-0.013397,9.7451e-05,-801.04,-0.00051176,-5378.4,0.057741
2849,3.1434,3.6364,0,0.0005009,5005.6,0.00020491,-0.018476,9.382e-05,-834.7,-0.00050985,-5370.4,0.05798
2850,3.1434,3.4545,0,0.00049938,4990.3,0.00020556,-0.022006,9.1072e-05,-860.2,-0.00050841,-5364.5,0.058158
2851,3.1434,3.2727,0,0.00049836,4980.2,0.00020599,-0.024228,8.9229e-05,-877.32,-0.00050745,-5360.6,0.058275
2852,3.1434,3.0909,0,0.00049786,4975.1,0.00020621,-0.0253,8.8304e-05,-885.91,-0.00050697,-5358.6,0.058334
2853,3.1434,2.9091,0,0.00049786,4975.1,0.00020621,-0.0253,8.8304e-05,-885.91,-0.00050697,-5358.6,0.058334
2854,3.1434,2.7273,0,0.00049836,4980.2,0.00020599,-0.024228,8.9229e-05,-877.32,-0.00050745,-5360.6,0.058275
2855,3.1434,2.5455,0,0.00049938,4990.3,0.00020556,-0.022006,9.1072e-05,-860.2,-0.00050841,-5364.5,0.058158
2856,3.1434,2.3636,0,0.0005009,5005.6,0.00020491,-0.018476,9.382e-05,-834.7,-0.00050985,-5370.4,0.05798
2857,3.1434,2.1818,0,0.00050295,5026,0.00020406,-0.013397,9.7451e-05,-801.04,-0.00051176,-5378.4,0.057741
2858,3.1434,2,0,0.00050551,5051.6,0.00020302,-0.0064562,0.00010194,-759.52,-0.00051413,-5388.4,0.057438
2859,3.1434,1.8182,0,0.0005086,5082.5,0.0002018,0.0027495,0.00010723,-710.57,-0.00051695,-5400.4,0.057068
2860,3.1434,1.6364,0,0.00051221,5118.6,0.00020042,0.014706,0.00011328,-654.7,-0.0005202,-5414.4,0.056628
2861,3.1434,1.4545,0,0.00051633,5159.7,0.0001989,0.030122,0.00012003,-592.54,-0.00052385,-5430.4,0.056114
2862,3.1434,1.2727,0,0.00052093,5205.7,0.00019725,0.049667,0.00012739,-524.85,-0.00052787,-5448.2,0.055523
2863,3.1434,1.0909,0,0.00052598,5256.2,0.00019551,0.07572,0.00013528,-452.47,-0.00053221,-5467.7,0.054848
2864,3.1434,0.90909,0,0.00053144,5310.7,0.00019369,0.10718,0.00014359,-376.33,-0.00053683,-5488.8,0.054086
2865,3.1434,0.72727,0,0.00053725,5368.8,0.00019183,0.16533,0.00015223,-297.38,-0.00054168,-5511.2,0.053231
2866,3.1434,0.54545,0,0.00054335,5429.7,0.00018995,0.20142,0.00016109,-216.64,-0.0005467,-5534.7,0.052278
2867,3.1434,0.36364,0,0.00054971,5493.3,0.00018809,0.5997,0.00017008,-134.7,-0.00055187,-5559.1,0.051219
2868,3.1434,0.18182,0,0.00055663,5562.4,0.00018628,1.1363,0.00017939,-50.635,-0.00055745,-5587,0.05005
2869,2.9585,5.8182,0,0.00056339,5630,0.00018855,1.3804,0.00018159,-50.885,-0.00056422,-5654.6,0.04399
2870,2.9585,5.6364,0,0.00055588,5554.9,0.0001905,0.66384,0.00017146,-142.37,-0.00055815,-5624.4,0.045127
2871,2.9585,5.4545,0,0.00054904,5486.6,0.00019255,0.22465,0.00016171,-231.49,-0.0005526,-5598.5,0.046154
2872,2.9585,5.2727,0,0.0005425,5421.3,0.00019463,0.18263,0.00015209,-319.47,-0.00054722,-5573.8,0.047076
2873,2.9585,5.0909,0,0.0005363,5359.3,0.0001967,0.1182,0.00014271,-405.57,-0.00054205,-5550.5,0.047899
2874,2.9585,4.9091,0,0.00053051,5301.4,0.00019872,0.083279,0.00013368,-488.63,-0.00053713,-5528.8,0.048631
2875,2.9585,4.7273,0,0.00052518,5248.2,0.00020067,0.054663,0.00012512,-567.54,-0.00053253,-5508.9,0.049277
2876,2.9585,4.5455,0,0.00052036,5200,0.0002025,0.033443,0.00011715,-641.24,-0.00052829,-5490.9,0.049841
2877,2.9585,4.3636,0,0.00051608,5157.3,0.00020421,0.016965,0.00010987,-708.8,-0.00052447,-5475,0.05033
2878,2.9585,4.1818,0,0.00051236,5120,0.00020575,0.0044211,0.00010335,-769.39,-0.00052109,-5461.2,0.050748
2879,2.9585,4,0,0.00050919,5088.4,0.00020711,-0.0050365,9.7665e-05,-822.36,-0.00051817,-5449.5,0.051099
2880,2.9585,3.8182,0,0.00050658,5062.3,0.00020828,-0.01201,9.2863e-05,-867.19,-0.00051573,-5439.9,0.051385
2881,2.9585,3.6364,0,0.00050452,5041.7,0.00020922,-0.017001,8.8984e-05,-903.46,-0.00051378,-5432.4,0.051611
2882,2.9585,3.4545,0,0.00050299,5026.4,0.00020995,-0.020401,8.6054e-05,-930.89,-0.00051231,-5426.8,0.051778
2883,2.9585,3.2727,0,0.00050197,5016.3,0.00021043,-0.022506,8.4093e-05,-949.28,-0.00051133,-5423.1,0.051889
2884,2.9585,3.0909,0,0.00050147,5011.2,0.00021067,-0.023509,8.3109e-05,-958.5,-0.00051085,-5421.3,0.051944
2885,2.9585,2.9091,0,0.00050147,5011.2,0.00021067,-0.023509,8.3109e-05,-958.5,-0.00051085,-5421.3,0.051944
2886,2.9585,2.7273,0,0.00050197,5016.3,0.00021043,-0.022506,8.4093e-05,-949.28,-0.00051133,-5423.1,0.051889
2887,2.9585,2.5455,0,0.00050299,5026.4,0.00020995,-0.020401,8.6054e-05,-930.89,-0.00051231,-5426.8,0.051778
2888,2.9585,2.3636,0,0.00050452,5041.7,0.00020922,-0.017001,8.8984e-05,-903.46,-0.00051378,-5432.4,0.051611
2889,2.9585,2.1818,0,0.00050658,5062.3,0.00020828,-0.01201,9.2863e-05,-867.19,-0.00051573,-5439.9,0.051385
2890,2.9585,2,0,0.00050919,5088.4,0.00020711,-0.0050362,9.7665e-05,-822.36,-0.00051817,-5449.5,0.051099
2891,2.9585,1.8182,0,0.00051236,5120,0.00020575,0.0044215,0.00010335,-769.39,-0.00052109,-5461.2,0.050748
2892,2.9585,1.6364,0,0.00051608,5157.3,0.00020421,0.016965,0.00010987,-708.8,-0.00052447,-5475,0.05033
2893,2.9585,1.4545,0,0.00052036,5200,0.0002025,0.033443,0.00011715,-641.24,-0.00052829,-5490.9,0.049841
2894,2.9585,1.2727,0,0.00052518,5248.2,0.00020067,0.054663,0.00012512,-567.54,-0.00053253,-5508.9,0.049277
2895,2.9585,1.0909,0,0.00053051,5301.4,0.00019872,0.083279,0.00013368,-488.63,-0.00053713,-5528.8,0.048631
2896,2.9585,0.90909,0,0.0005363,5359.3,0.0001967,0.1182,0.00014271,-405.57,-0.00054205,-5550.5,0.047899
2897,2.9585,0.72727,0,0.0005425,5421.3,0.00019463,0.18264,0.00015209,-319.47,-0.00054722,-5573.8,0.047076
2898,2.9585,0.54545,0,0.00054904,5486.6,0.00019255,0.22465,0.00016171,-231.49,-0.0005526,-5598.5,0.046154
2899,2.9585,0.36364,0,0.00055588,5554.9,0.0001905,0.66385,0.00017146,-142.37,-0.00055815,-5624.4,0.045127
2900,2.9585,0.18182,0,0.00056339,5630,0.00018855,1.3804,0.00018159,-50.885,-0.00056422,-5654.6,0.04399
2901,2.7736,5.8182,0,0.00057011,5697.2,0.00019078,1.6986,0.00018382,-50.535,-0.00057092,-5721.4,0.038312
2902,2.7736,5.6364,0,0.00056194,5615.5,0.00019289,0.73646,0.0001728,-150.2,-0.00056433,-5688.7,0.039414
2903,2.7736,5.4545,0,0.00055459,5542,0.00019515,0.25097,0.0001622,-247.27,-0.00055837,-5661.4,0.040405
2904,2.7736,5.2727,0,0.0005476,5472.2,0.00019746,0.20189,0.00015175,-343.26,-0.00055262,-5635.6,0.041292
2905,2.7736,5.0909,0,0.000541,5406.3,0.00019976,0.13032,0.00014155,-437.27,-0.00054711,-5611.6,0.042081
2906,2.7736,4.9091,0,0.00053488,5345.1,0.00020202,0.09149,0.00013174,-527.95,-0.0005419,-5589.4,0.042779
2907,2.7736,4.7273,0,0.00052929,5289.3,0.0002042,0.060072,0.00012248,-613.98,-0.00053706,-5569.4,0.043393
2908,2.7736,4.5455,0,0.00052429,5239.2,0.00020626,0.037114,0.00011387,-694.17,-0.00053263,-5551.7,0.043928
2909,2.7736,4.3636,0,0.00051988,5195.2,0.00020817,0.019631,0.00010602,-767.47,-0.00052867,-5536.3,0.04439
2910,2.7736,4.1818,0,0.00051609,5157.3,0.0002099,0.0066319,9.9028e-05,-833.03,-0.00052519,-5523.1,0.044783
2911,2.7736,4,0,0.0005129,5125.4,0.00021142,-0.0029112,9.2951e-05,-890.17,-0.00052221,-5512.2,0.045113
2912,2.7736,3.8182,0,0.00051029,5099.4,0.00021273,-0.0097482,8.7837e-05,-938.37,-0.00051973,-5503.4,0.045381
2913,2.7736,3.6364,0,0.00050825,5079,0.00021378,-0.014499,8.372e-05,-977.27,-0.00051777,-5496.6,0.045593
2914,2.7736,3.4545,0,0.00050674,5063.9,0.00021459,-0.017647,8.0619e-05,-1006.6,-0.0005163,-5491.7,0.045749
2915,2.7736,3.2727,0,0.00050575,5054,0.00021513,-0.01955,7.8546e-05,-1026.3,-0.00051533,-5488.4,0.045852
2916,2.7736,3.0909,0,0.00050526,5049.1,0.0002154,-0.020443,7.7509e-05,-1036.1,-0.00051485,-5486.8,0.045904
2917,2.7736,2.9091,0,0.00050526,5049.1,0.0002154,-0.020443,7.7509e-05,-1036.1,-0.00051485,-5486.8,0.045904
2918,2.7736,2.7273,0,0.00050575,5054,0.00021513,-0.01955,7.8546e-05,-1026.3,-0.00051533,-5488.4,0.045852
2919,2.7736,2.5455,0,0.00050674,5063.9,0.00021459,-0.017647,8.0619e-05,-1006.6,-0.0005163,-5491.7,0.045749
2920,2.7736,2.3636,0,0.00050825,5079,0.00021378,-0.014499,8.372e-05,-977.27,-0.00051777,-5496.6,0.045593
2921,2.7736,2.1818,0,0.00051029,5099.4,0.00021273,-0.009748,8.7837e-05,-938.37,-0.00051973,-5503.4,0.045381
2922,2.7736,2,0,0.0005129,5125.4,0.00021142,-0.0029109,9.2951e-05,-890.17,-0.00052221,-5512.2,0.045113
2923,2.7736,1.8182,0,0.00051609,5157.3,0.0002099,0.0066323,9.9028e-05,-833.03,-0.00052519,-5523.1,0.044783
2924,2.7736,1.6364,0,0.00051988,5195.2,0.00020817,0.019631,0.00010602,-767.47,-0.00052867,-5536.3,0.04439
2925,2.7736,1.4545,0,0.00052429,5239.2,0.00020626,0.037115,0.00011387,-694.17,-0.00053263,-5551.7,0.043928
2926,2.7736,1.2727,0,0.00052929,5289.3,0.0002042,0.060073,0.00012248,-613.98,-0.00053706,-5569.4,0.043393
2927,2.7736,1.0909,0,0.00053488,5345.1,0.00020202,0.091491,0.00013174,-527.95,-0.0005419,-5589.4,0.042779
2928,2.7736,0.90909,0,0.000541,5406.3,0.00019976,0.13032,0.00014155,-437.27,-0.00054711,-5611.6,0.042081
2929,2.7736,0.72727,0,0.0005476,5472.2,0.00019746,0.20189,0.00015175,-343.26,-0.00055262,-5635.6,0.041292
2930,2.7736,0.54545,0,0.00055459,5542,0.00019515,0.25097,0.0001622,-247.27,-0.00055837,-5661.4,0.040405
2931,2.7736,0.36364,0,0.00056194,5615.5,0.00019289,0.73646,0.0001728,-150.2,-0.00056433,-5688.7,0.039414
2932,2.7736,0.18182,0,0.00057011,5697.2,0.00019078,1.6986,0.00018382,-50.535,-0.00057092,-5721.4,0.038312
2933,2.5887,5.8182,0,0.00057672,5763.3,0.00019294,2.1225,0.00018607,-49.485,-0.00057751,-5786.8,0.033022
2934,2.5887,5.6364,0,0.00056782,5674.3,0.00019523,0.81909,0.00017407,-158.2,-0.00057033,-5751.3,0.034084
2935,2.5887,5.4545,0,0.00055993,5595.4,0.00019773,0.28086,0.00016254,-264.13,-0.00056395,-5722.7,0.035035
2936,2.5887,5.2727,0,0.00055247,5520.8,0.00020031,0.22331,0.00015116,-369.04,-0.00055781,-5696,0.035882
2937,2.5887,5.0909,0,0.00054547,5451,0.00020288,0.14358,0.00014006,-471.85,-0.00055196,-5671.5,0.036633
2938,2.5887,4.9091,0,0.00053904,5386.7,0.00020542,0.10033,0.00012942,-570.92,-0.00054647,-5649.3,0.037295
2939,2.5887,4.7273,0,0.00053323,5328.6,0.00020787,0.065871,0.00011939,-664.72,-0.00054141,-5629.7,0.037874
2940,2.5887,4.5455,0,0.00052808,5277.2,0.00021018,0.041152,0.00011011,-751.87,-0.00053684,-5612.8,0.038377
2941,2.5887,4.3636,0,0.00052361,5232.5,0.00021233,0.022782,0.00010169,-831.24,-0.00053278,-5598.4,0.038809
2942,2.5887,4.1818,0,0.00051982,5194.6,0.00021427,0.0095249,9.4225e-05,-901.95,-0.00052925,-5586.5,0.039177
2943,2.5887,4,0,0.00051667,5163.1,0.00021598,0.00011811,8.7769e-05,-963.31,-0.00052627,-5576.9,0.039483
2944,2.5887,3.8182,0,0.00051413,5137.8,0.00021743,-0.0063703,8.2363e-05,-1014.9,-0.00052382,-5569.5,0.039732
2945,2.5887,3.6364,0,0.00051216,5118.1,0.00021862,-0.010702,7.8028e-05,-1056.3,-0.00052189,-5563.9,0.039928
2946,2.5887,3.4545,0,0.00051073,5103.8,0.00021952,-0.01346,7.4775e-05,-1087.5,-0.00052046,-5559.9,0.040073
2947,2.5887,3.2727,0,0.00050979,5094.4,0.00022012,-0.015071,7.2606e-05,-1108.4,-0.00051952,-5557.4,0.040168
2948,2.5887,3.0909,0,0.00050933,5089.8,0.00022042,-0.015808,7.1522e-05,-1118.8,-0.00051905,-5556.1,0.040215
2949,2.5887,2.9091,0,0.00050933,5089.8,0.00022042,-0.015808,7.1522e-05,-1118.8,-0.00051905,-5556.1,0.040215
2950,2.5887,2.7273,0,0.00050979,5094.4,0.00022012,-0.01507,7.2606e-05,-1108.4,-0.00051952,-5557.4,0.040168
2951,2.5887,2.5455,0,0.00051073,5103.8,0.00021952,-0.01346,7.4775e-05,-1087.5,-0.00052046,-5559.9,0.040073
2952,2.5887,2.3636,0,0.00051216,5118.1,0.00021862,-0.010702,7.8028e-05,-1056.3,-0.00052189,-5563.9,0.039928
2953,2.5887,2.1818,0,0.00051413,5137.8,0.00021743,-0.0063701,8.2363e-05,-1014.9,-0.00052382,-5569.5,0.039732
2954,2.5887,2,0,0.00051667,5163.1,0.00021598,0.0001184,8.7769e-05,-963.31,-0.00052627,-5576.9,0.039483
2955,2.5887,1.8182,0,0.00051982,5194.6,0.00021427,0.0095253,9.4225e-05,-901.95,-0.00052925,-5586.5,0.039177
2956,2.5887,1.6364,0,0.00052361,5232.5,0.00021233,0.022783,0.00010169,-831.24,-0.00053278,-5598.4,0.038809
2957,2.5887,1.4545,0,0.00052808,5277.2,0.00021018,0.041153,0.00011011,-751.87,-0.00053684,-5612.8,0.038377
2958,2.5887,1.2727,0,0.00053323,5328.6,0.00020787,0.065871,0.00011939,-664.72,-0.00054141,-5629.7,0.037874
2959,2.5887,1.0909,0,0.00053904,5386.7,0.00020542,0.10033,0.00012942,-570.92,-0.00054647,-5649.3,0.037295
2960,2.5887,0.90909,0,0.00054547,5451,0.00020288,0.14358,0.00014006,-471.85,-0.00055196,-5671.5,0.036633
2961,2.5887,0.72727,0,0.00055247,5520.8,0.00020031,0.22331,0.00015116,-369.04,-0.00055781,-5696,0.035882
2962,2.5887,0.54545,0,0.00055993,5595.4,0.00019773,0.28086,0.00016254,-264.13,-0.00056395,-5722.7,0.035035
2963,2.5887,0.36364,0,0.00056782,5674.3,0.00019523,0.81909,0.00017407,-158.2,-0.00057033,-5751.3,0.034084
2964,2.5887,0.18182,0,0.00057672,5763.3,0.00019294,2.1226,0.00018607,-49.485,-0.00057751,-5786.8,0.033022
2965,2.4038,5.8182,0,0.00058316,5827.5,0.00019502,2.7026,0.00018832,-47.634,-0.0005839,-5849.8,0.028122
2966,2.4038,5.6364,0,0.00057345,5730.6,0.0001975,0.91378,0.00017523,-166.41,-0.00057609,-5811.5,0.02914
2967,2.4038,5.4545,0,0.00056498,5645.9,0.00020028,0.31504,0.00016267,-282.28,-0.00056924,-5781.6,0.030047
2968,2.4038,5.2727,0,0.00055702,5566.4,0.00020316,0.24728,0.00015026,-397.23,-0.00056271,-5754.2,0.030851
2969,2.4038,5.0909,0,0.00054964,5492.6,0.00020606,0.15819,0.00013818,-509.86,-0.00055653,-5729.6,0.03156
2970,2.4038,4.9091,0,0.00054292,5425.5,0.00020892,0.10995,0.00012663,-618.2,-0.00055079,-5708,0.032181
2971,2.4038,4.7273,0,0.00053694,5365.7,0.00021168,0.072227,0.00011579,-720.43,-0.00054555,-5689.5,0.032723
2972,2.4038,4.5455,0,0.00053173,5313.6,0.00021429,0.045799,0.00010581,-815.01,-0.00054088,-5674,0.033191
2973,2.4038,4.3636,0,0.00052729,5269.2,0.00021671,0.02675,9.6825e-05,-900.71,-0.0005368,-5661.5,0.033591
2974,2.4038,4.1818,0,0.00052358,5232.2,0.00021889,0.013509,8.8903e-05,-976.63,-0.00053331,-5651.7,0.03393
2975,2.4038,4,0,0.00052056,5202,0.0002208,0.0045191,8.2098e-05,-1042.2,-0.0005304,-5644.2,0.034212
2976,2.4038,3.8182,0,0.00051817,5178.2,0.00022243,-0.0013742,7.6435e-05,-1097,-0.00052804,-5638.8,0.034441
2977,2.4038,3.6364,0,0.00051635,5160,0.00022375,-0.0050911,7.1918e-05,-1140.8,-0.00052621,-5634.9,0.03462
2978,2.4038,3.4545,0,0.00051504,5146.9,0.00022476,-0.0073189,6.8543e-05,-1173.7,-0.00052487,-5632.4,0.034752
2979,2.4038,3.2727,0,0.0005142,5138.4,0.00022543,-0.0085473,6.6301e-05,-1195.6,-0.00052399,-5630.8,0.034839
2980,2.4038,3.0909,0,0.00051378,5134.3,0.00022577,-0.0090865,6.5183e-05,-1206.6,-0.00052356,-5630.1,0.034882
2981,2.4038,2.9091,0,0.00051378,5134.3,0.00022577,-0.0090864,6.5183e-05,-1206.6,-0.00052356,-5630.1,0.034882
2982,2.4038,2.7273,0,0.0005142,5138.4,0.00022543,-0.0085472,6.6301e-05,-1195.6,-0.00052399,-5630.8,0.034839
2983,2.4038,2.5455,0,0.00051504,5146.9,0.00022476,-0.0073188,6.8543e-05,-1173.7,-0.00052487,-5632.4,0.034752
2984,2.4038,2.3636,0,0.00051635,5160,0.00022375,-0.0050911,7.1918e-05,-1140.8,-0.00052621,-5634.9,0.03462
2985,2.4038,2.1818,0,0.00051817,5178.2,0.00022243,-0.001374,7.6435e-05,-1097,-0.00052804,-5638.8,0.034441
2986,2.4038,2,0,0.00052056,5202,0.0002208,0.0045194,8.2098e-05,-1042.2,-0.0005304,-5644.2,0.034212
2987,2.4038,1.8182,0,0.00052358,5232.2,0.00021889,0.01351,8.8903e-05,-976.63,-0.00053331,-5651.7,0.03393
2988,2.4038,1.6364,0,0.00052729,5269.2,0.00021671,0.02675,9.6825e-05,-900.71,-0.0005368,-5661.5,0.033591
2989,2.4038,1.4545,0,0.00053173,5313.6,0.00021429,0.0458,0.00010581,-815.01,-0.00054088,-5674,0.033191
2990,2.4038,1.2727,0,0.00053694,5365.7,0.00021168,0.072227,0.00011579,-720.43,-0.00054555,-5689.5,0.032723
2991,2.4038,1.0909,0,0.00054292,5425.5,0.00020892,0.10995,0.00012663,-618.2,-0.00055079,-5708,0.032181
2992,2.4038,0.90909,0,0.00054964,5492.6,0.00020606,0.15819,0.00013818,-509.86,-0.00055653,-5729.6,0.03156
2993,2.4038,0.72727,0,0.00055702,5566.4,0.00020316,0.24728,0.00015026,-397.23,-0.00056271,-5754.2,0.030851
2994,2.4038,0.54545,0,0.00056498,5645.9,0.00020028,0.31504,0.00016267,-282.28,-0.00056924,-5781.6,0.030047
2995,2.4038,0.36364,0,0.00057345,5730.6,0.0001975,0.91378,0.00017523,-166.41,-0.00057609,-5811.5,0.02914
2996,2.4038,0.18182,0,0.00058316,5827.5,0.00019502,2.7026,0.00018832,-47.634,-0.0005839,-5849.8,0.028122
2997,2.2189,5.8182,0,0.0005893,5888.9,0.00019698,3.5225,0.00019054,-44.891,-0.00058999,-5909.4,0.023617
2998,2.2189,5.6364,0,0.0005787,5783,0.00019966,1.0227,0.00017624,-174.92,-0.00058146,-5868,0.024586
2999,2.2189,5.4545,0,0.00056961,5692.1,0.00020276,0.35388,0.00016251,-302.06,-0.00057414,-5837,0.025444
3000,2.2189,5.2727,0,0.00056115,5607.6,0.00020601,0.2737,0.00014897,-428.38,-0.0005672,-5809.4,0.0262
3001,2.2189,5.0909,0,0.00055339,5530.1,0.0002093,0.17376,0.0001358,-552.04,-0.00056071,-5785.3,0.026863
3002,2.2189,4.9091,0,0.00054645,5460.7,0.00021253,0.11988,0.00012326,-670.63,-0.00055476,-5765,0.02744
3003,2.2189,4.7273,0,0.00054039,5400.1,0.00021566,0.078718,0.00011157,-782,-0.00054942,-5748.4,0.027941
3004,2.2189,4.5455,0,0.00053522,5348.5,0.00021861,0.050729,0.0001009,-884.41,-0.00054474,-5735.5,0.028371
3005,2.2189,4.3636,0,0.00053091,5305.5,0.00022134,0.031307,9.1359e-05,-976.57,-0.00054074,-5725.9,0.028738
3006,2.2189,4.1818,0,0.00052742,5270.5,0.00022379,0.018435,8.3024e-05,-1057.6,-0.00053738,-5719.1,0.029046
3007,2.2189,4,0,0.00052465,5242.8,0.00022594,0.010181,7.5923e-05,-1127.1,-0.00053465,-5714.7,0.029302
3008,2.2189,3.8182,0,0.00052251,5221.5,0.00022776,0.0051365,7.0059e-05,-1184.9,-0.00053248,-5712.1,0.029509
3009,2.2189,3.6364,0,0.00052092,5205.6,0.00022923,0.0022164,6.5414e-05,-1230.9,-0.00053083,-5710.8,0.029671
3010,2.2189,3.4545,0,0.00051981,5194.5,0.00023035,0.00063722,6.1962e-05,-1265.2,-0.00052964,-5710.2,0.02979
3011,2.2189,3.2727,0,0.0005191,5187.4,0.00023109,-0.00014089,5.9678e-05,-1287.9,-0.00052887,-5710.1,0.029868
3012,2.2189,3.0909,0,0.00051876,5184,0.00023147,-0.00045069,5.8542e-05,-1299.3,-0.00052849,-5710,0.029907
3013,2.2189,2.9091,0,0.00051876,5184,0.00023147,-0.00045063,5.8542e-05,-1299.3,-0.00052849,-5710,0.029907
3014,2.2189,2.7273,0,0.0005191,5187.4,0.00023109,-0.00014071,5.9678e-05,-1287.9,-0.00052887,-5710.1,0.029868
3015,2.2189,2.5455,0,0.00051981,5194.5,0.00023035,0.00063735,6.1962e-05,-1265.2,-0.00052964,-5710.2,0.02979
3016,2.2189,2.3636,0,0.00052092,5205.6,0.00022923,0.0022166,6.5414e-05,-1230.9,-0.00053083,-5710.8,0.029671
3017,2.2189,2.1818,0,0.00052251,5221.5,0.00022776,0.0051366,7.0059e-05,-1184.9,-0.00053248,-5712.1,0.029509
3018,2.2189,2,0,0.00052465,5242.8,0.00022594,0.010181,7.5923e-05,-1127.1,-0.00053465,-5714.7,0.029302
3019,2.2189,1.8182,0,0.00052742,5270.5,0.00022379,0.018435,8.3024e-05,-1057.6,-0.00053738,-5719.1,0.029046
3020,2.2189,1.6364,0,0.00053091,5305.5,0.00022134,0.031307,9.1359e-05,-976.57,-0.00054074,-5725.9,0.028738
3021,2.2189,1.4545,0,0.00053522,5348.5,0.00021861,0.050729,0.0001009,-884.41,-0.00054474,-5735.5,0.028371
3022,2.2189,1.2727,0,0.00054039,5400.1,0.00021566,0.078718,0.00011157,-782,-0.00054942,-5748.4,0.027941
3023,2.2189,1.0909,0,0.00054645,5460.7,0.00021253,0.11988,0.00012326,-670.63,-0.00055476,-5765,0.02744
3024,2.2189,0.90909,0,0.00055339,5530.1,0.0002093,0.17376,0.0001358,-552.04,-0.00056071,-5785.3,0.026863
3025,2.2189,0.72727,0,0.00056115,5607.6,0.00020601,0.2737,0.00014897,-428.38,-0.0005672,-5809.4,0.0262
3026,2.2189,0.54545,0,0.00056961,5692.1,0.00020276,0.35388,0.00016251,-302.06,-0.00057414,-5837,0.025444
3027,2.2189,0.36364,0,0.0005787,5783,0.00019966,1.0227,0.00017624,-174.92,-0.00058146,-5868,0.024586
3028,2.2189,0.18182,0,0.0005893,5888.9,0.00019698,3.5225,0.00019054,-44.891,-0.00058999,-5909.4,0.023617
3029,2.034,5.8182,0,0.000595,5945.9,0.00019878,4.728,0.00019267,-41.204,-0.00059561,-5964,0.019509
3030,2.034,5.6364,0,0.00058341,5830.1,0.00020166,1.1502,0.00017703,-183.86,-0.0005863,-5919.2,0.020424
3031,2.034,5.4545,0,0.00057365,5732.5,0.00020516,0.39985,0.00016199,-323.96,-0.00057846,-5887.4,0.021228
3032,2.034,5.2727,0,0.00056469,5643,0.00020885,0.30466,0.00014715,-463.29,-0.00057113,-5860.2,0.021932
3033,2.034,5.0909,0,0.00055661,5562.2,0.00021259,0.19225,0.00013278,-599.43,-0.00056437,-5837.5,0.022544
3034,2.034,4.9091,0,0.00054952,5491.5,0.00021628,0.13216,0.00011919,-729.36,-0.00055828,-5819.6,0.023074
3035,2.034,4.7273,0,0.0005435,5431.2,0.00021984,0.087547,0.00010662,-850.55,-0.00055294,-5806.3,0.023531
3036,2.034,4.5455,0,0.00053852,5381.5,0.00022318,0.058347,9.5266e-05,-961.06,-0.00054839,-5797.2,0.023921
3037,2.034,4.3636,0,0.00053452,5341.5,0.00022626,0.039024,8.5226e-05,-1059.6,-0.0005446,-5791.9,0.024251
3038,2.034,4.1818,0,0.00053139,5310.3,0.00022902,0.026967,7.655e-05,-1145.6,-0.00054152,-5789.5,0.024528
3039,2.034,4,0,0.00052902,5286.5,0.00023143,0.019799,6.9237e-05,-1218.6,-0.0005391,-5789.4,0.024757
3040,2.034,3.8182,0,0.00052726,5269,0.00023346,0.015842,6.3255e-05,-1278.8,-0.00053724,-5790.7,0.024941
3041,2.034,3.6364,0,0.00052601,5256.5,0.00023509,0.013859,5.8556e-05,-1326.4,-0.00053586,-5792.7,0.025084
3042,2.034,3.4545,0,0.00052517,5248.1,0.00023633,0.012999,5.5088e-05,-1361.8,-0.0005349,-5794.7,0.02519
3043,2.034,3.2727,0,0.00052465,5242.9,0.00023715,0.012701,5.2804e-05,-1385.1,-0.0005343,-5796.4,0.025259
3044,2.034,3.0909,0,0.0005244,5240.4,0.00023757,0.012629,5.1671e-05,-1396.7,-0.000534,-5797.3,0.025293
3045,2.034,2.9091,0,0.0005244,5240.4,0.00023757,0.012629,5.1671e-05,-1396.7,-0.000534,-5797.3,0.025293
3046,2.034,2.7273,0,0.00052465,5242.9,0.00023715,0.012701,5.2804e-05,-1385.1,-0.0005343,-5796.4,0.025259
3047,2.034,2.5455,0,0.00052517,5248.1,0.00023633,0.012999,5.5088e-05,-1361.8,-0.0005349,-5794.7,0.02519
3048,2.034,2.3636,0,0.00052601,5256.5,0.00023509,0.013859,5.8556e-05,-1326.4,-0.00053586,-5792.7,0.025084
3049,2.034,2.1818,0,0.00052726,5269,0.00023346,0.015842,6.3255e-05,-1278.8,-0.00053724,-5790.7,0.024941
3050,2.034,2,0,0.00052902,5286.5,0.00023143,0.0198,6.9237e-05,-1218.6,-0.0005391,-5789.4,0.024757
3051,2.034,1.8182,0,0.00053139,5310.3,0.00022902,0.026967,7.655e-05,-1145.6,-0.00054152,-5789.5,0.024528
3052,2.034,1.6364,0,0.00053452,5341.5,0.00022626,0.039024,8.5226e-05,-1059.6,-0.0005446,-5791.9,0.024251
3053,2.034,1.4545,0,0.00053852,5381.5,0.00022318,0.058347,9.5266e-05,-961.06,-0.00054839,-5797.2,0.023921
3054,2.034,1.2727,0,0.0005435,5431.2,0.00021984,0.087547,0.00010662,-850.55,-0.00055294,-5806.3,0.023531
3055,2.034,1.0909,0,0.00054952,5491.5,0.00021628,0.13216,0.00011919,-729.36,-0.00055828,-5819.6,0.023074
3056,2.034,0.90909,0,0.00055661,5562.2,0.00021259,0.19225,0.00013278,-599.43,-0.00056437,-5837.5,0.022544
3057,2.034,0.72727,0,0.00056469,5643,0.00020885,0.30466,0.00014715,-463.29,-0.00057113,-5860.2,0.021932
3058,2.034,0.54545,0,0.00057365,5732.5,0.00020516,0.39985,0.00016199,-323.96,-0.00057846,-5887.4,0.021228
3059,2.034,0.36364,0,0.00058341,5830.1,0.00020166,1.1502,0.00017703,-183.86,-0.0005863,-5919.2,0.020424
3060,2.034,0.18182,0,0.000595,5945.9,0.00019878,4.7281,0.00019267,-41.204,-0.00059561,-5964,0.019509
3061,1.8491,5.8182,0,0.00060005,5996.4,0.00020038,6.5806,0.00019463,-36.605,-0.00060055,-6011.3,0.015801
3062,1.8491,5.6364,0,0.00058734,5869.3,0.00020343,1.2959,0.00017751,-193.49,-0.00059037,-5963,0.016656
3063,1.8491,5.4545,0,0.00057688,5764.8,0.00020742,0.44833,0.00016095,-348.7,-0.00058201,-5931,0.017401
3064,1.8491,5.2727,0,0.00056743,5670.4,0.00021165,0.33399,0.00014464,-503.12,-0.0005743,-5905,0.018048
3065,1.8491,5.0909,0,0.0005591,5587.2,0.00021594,0.20666,0.00012894,-653.44,-0.00056734,-5885,0.018606
3066,1.8491,4.9091,0,0.00055202,5516.4,0.00022017,0.13946,0.00011423,-795.9,-0.00056123,-5871,0.019085
3067,1.8491,4.7273,0,0.00054622,5458.4,0.00022424,0.091354,0.00010079,-927.49,-0.00055605,-5862.7,0.019494
3068,1.8491,4.5455,0,0.00054164,5412.7,0.00022805,0.061299,8.88e-05,-1046.2,-0.0005518,-5859.4,0.019842
3069,1.8491,4.3636,0,0.00053816,5377.9,0.00023152,0.042511,7.8354e-05,-1150.8,-0.00054841,-5860.1,0.020134
3070,1.8491,4.1818,0,0.0005356,5352.3,0.00023462,0.031613,6.9453e-05,-1241,-0.00054581,-5863.8,0.020378
3071,1.8491,4,0,0.0005338,5334.3,0.00023731,0.025728,6.2049e-05,-1316.8,-0.00054386,-5869.4,0.020578
3072,1.8491,3.8182,0,0.00053258,5322.1,0.00023957,0.022917,5.6063e-05,-1378.8,-0.00054245,-5875.8,0.020739
3073,1.8491,3.6364,0,0.00053178,5314.2,0.00024138,0.02184,5.1408e-05,-1427.4,-0.00054148,-5882.1,0.020864
3074,1.8491,3.4545,0,0.0005313,5309.3,0.00024274,0.021627,4.8e-05,-1463.2,-0.00054083,-5887.5,0.020955
3075,1.8491,3.2727,0,0.00053102,5306.6,0.00024365,0.021736,4.5769e-05,-1486.8,-0.00054045,-5891.4,0.021015
3076,1.8491,3.0909,0,0.0005309,5305.4,0.0002441,0.021861,4.4667e-05,-1498.5,-0.00054027,-5893.4,0.021044
3077,1.8491,2.9091,0,0.0005309,5305.4,0.0002441,0.021861,4.4667e-05,-1498.5,-0.00054027,-5893.4,0.021044
3078,1.8491,2.7273,0,0.00053102,5306.6,0.00024365,0.021737,4.5769e-05,-1486.8,-0.00054045,-5891.4,0.021015
3079,1.8491,2.5455,0,0.0005313,5309.3,0.00024274,0.021627,4.8e-05,-1463.2,-0.00054083,-5887.5,0.020955
3080,1.8491,2.3636,0,0.00053178,5314.2,0.00024138,0.02184,5.1408e-05,-1427.4,-0.00054148,-5882.1,0.020864
3081,1.8491,2.1818,0,0.00053258,5322.1,0.00023957,0.022917,5.6063e-05,-1378.8,-0.00054245,-5875.8,0.020739
3082,1.8491,2,0,0.0005338,5334.3,0.00023731,0.025728,6.2049e-05,-1316.8,-0.00054386,-5869.4,0.020578
3083,1.8491,1.8182,0,0.0005356,5352.3,0.00023462,0.031614,6.9453e-05,-1241,-0.00054581,-5863.8,0.020378
3084,1.8491,1.6364,0,0.00053816,5377.9,0.00023152,0.042511,7.8354e-05,-1150.8,-0.00054841,-5860.1,0.020134
3085,1.8491,1.4545,0,0.00054164,5412.7,0.00022805,0.061299,8.88e-05,-1046.2,-0.0005518,-5859.4,0.019842
3086,1.8491,1.2727,0,0.00054622,5458.4,0.00022424,0.091354,0.00010079,-927.49,-0.00055605,-5862.7,0.019494
3087,1.8491,1.0909,0,0.00055202,5516.4,0.00022017,0.13947,0.00011423,-795.9,-0.00056123,-5871,0.019085
3088,1.8491,0.90909,0,0.0005591,5587.2,0.00021594,0.20666,0.00012894,-653.44,-0.00056734,-5885,0.018606
3089,1.8491,0.72727,0,0.00056743,5670.4,0.00021165,0.33399,0.00014464,-503.12,-0.0005743,-5905,0.018048
3090,1.8491,0.54545,0,0.00057688,5764.8,0.00020742,0.44833,0.00016095,-348.7,-0.00058201,-5931,0.017401
3091,1.8491,0.36364,0,0.00058734,5869.3,0.00020343,1.2959,0.00017751,-193.49,-0.00059037,-5963,0.016656
3092,1.8491,0.18182,0,0.00060005,5996.4,0.00020038,6.5806,0.00019463,-36.605,-0.00060055,-6011.3,0.015801
3093,1.6642,5.8182,0,0.00060416,6037.5,0.00020172,9.5702,0.00019628,-31.302,-0.00060452,-6048.2,0.012495
3094,1.6642,5.6364,0,0.00059018,5897.7,0.00020491,1.4829,0.00017753,-204.21,-0.00059336,-5996.4,0.013283
3095,1.6642,5.4545,0,0.00057898,5785.8,0.00020949,0.52473,0.0001592,-377.4,-0.00058446,-5964.9,0.013964
3096,1.6642,5.2727,0,0.00056909,5687,0.00021439,0.38936,0.0001412,-549.54,-0.00057644,-5941.6,0.014549
3097,1.6642,5.0909,0,0.00056066,5602.8,0.00021937,0.24637,0.00012403,-716.08,-0.00056939,-5926.2,0.015049
3098,1.6642,4.9091,0,0.0005538,5534.2,0.00022426,0.17275,0.00010815,-872.25,-0.00056345,-5918.4,0.015473
3099,1.6642,4.7273,0,0.0005485,5481.2,0.00022893,0.12237,9.388e-05,-1014.6,-0.00055866,-5917.6,0.015833
3100,1.6642,4.5455,0,0.00054461,5442.4,0.00023327,0.092763,8.1379e-05,-1141.1,-0.00055497,-5922.4,0.016136
3101,1.6642,4.3636,0,0.00054192,5415.5,0.00023719,0.075545,7.0682e-05,-1251,-0.00055225,-5931.5,0.016389
3102,1.6642,4.1818,0,0.00054019,5398.2,0.00024067,0.066473,6.1725e-05,-1344.4,-0.00055035,-5943.3,0.016599
3103,1.6642,4,0,0.00053917,5388,0.00024366,0.0622,5.4394e-05,-1422,-0.00054909,-5956.3,0.01677
3104,1.6642,3.8182,0,0.00053865,5382.7,0.00024615,0.060628,4.8552e-05,-1484.6,-0.00054831,-5969.2,0.016907
3105,1.6642,3.6364,0,0.00053843,5380.6,0.00024814,0.060411,4.4063e-05,-1533.3,-0.00054786,-5980.8,0.017012
3106,1.6642,3.4545,0,0.0005384,5380.2,0.00024963,0.060746,4.0807e-05,-1569,-0.00054763,-5990.3,0.01709
3107,1.6642,3.2727,0,0.00053843,5380.5,0.00025063,0.061168,3.869e-05,-1592.3,-0.00054753,-5997,0.01714
3108,1.6642,3.0909,0,0.00053846,5380.9,0.00025112,0.061431,3.7648e-05,-1603.9,-0.00054749,-6000.4,0.017165
3109,1.6642,2.9091,0,0.00053846,5380.9,0.00025112,0.061431,3.7648e-05,-1603.9,-0.00054749,-6000.4,0.017165
3110,1.6642,2.7273,0,0.00053843,5380.5,0.00025063,0.061168,3.869e-05,-1592.3,-0.00054753,-5997,0.01714
3111,1.6642,2.5455,0,0.0005384,5380.2,0.00024963,0.060746,4.0807e-05,-1569,-0.00054763,-5990.3,0.01709
3112,1.6642,2.3636,0,0.00053843,5380.6,0.00024814,0.060411,4.4063e-05,-1533.3,-0.00054786,-5980.8,0.017012
3113,1.6642,2.1818,0,0.00053865,5382.7,0.00024615,0.060628,4.8552e-05,-1484.6,-0.00054831,-5969.2,0.016907
3114,1.6642,2,0,0.00053917,5388,0.00024366,0.0622,5.4394e-05,-1422,-0.00054909,-5956.3,0.01677
3115,1.6642,1.8182,0,0.00054019,5398.2,0.00024067,0.066473,6.1725e-05,-1344.4,-0.00055035,-5943.3,0.016599
3116,1.6642,1.6364,0,0.00054192,5415.5,0.00023719,0.075545,7.0682e-05,-1251,-0.00055225,-5931.5,0.016389
3117,1.6642,1.4545,0,0.00054461,5442.4,0.00023327,0.092763,8.1379e-05,-1141.1,-0.00055497,-5922.4,0.016136
3118,1.6642,1.2727,0,0.0005485,5481.2,0.00022893,0.12237,9.388e-05,-1014.6,-0.00055866,-5917.6,0.015833
3119,1.6642,1.0909,0,0.0005538,5534.2,0.00022426,0.17276,0.00010815,-872.25,-0.00056345,-5918.4,0.015473
3120,1.6642,0.90909,0,0.00056066,5602.8,0.00021937,0.24637,0.00012403,-716.08,-0.00056939,-5926.2,0.015049
3121,1.6642,0.72727,0,0.00056909,5687,0.00021439,0.38937,0.0001412,-549.54,-0.00057644,-5941.6,0.014549
3122,1.6642,0.54545,0,0.00057898,5785.8,0.00020949,0.52473,0.0001592,-377.4,-0.00058446,-5964.9,0.013964
3123,1.6642,0.36364,0,0.00059018,5897.7,0.00020491,1.4829,0.00017753,-204.21,-0.00059336,-5996.4,0.013283
3124,1.6642,0.18182,0,0.00060416,6037.5,0.00020172,9.5702,0.00019628,-31.302,-0.00060452,-6048.2,0.012495
3125,1.4792,5.8182,0,0.0006069,6064.8,0.00020277,14.503,0.0001974,-25.835,-0.00060709,-6070.4,0.0095907
3126,1.4792,5.6364,0,0.00059147,5910.6,0.00020596,1.6491,0.00017689,-216.79,-0.00059483,-6015.2,0.010307
3127,1.4792,5.4545,0,0.00057951,5791.1,0.00021132,0.5384,0.00015644,-411.81,-0.0005854,-5985.7,0.010918
3128,1.4792,5.2727,0,0.00056931,5689.1,0.00021707,0.36636,0.00013649,-605.09,-0.00057717,-5967.3,0.011436
3129,1.4792,5.0909,0,0.00056102,5606.3,0.00022291,0.19882,0.00011772,-790.17,-0.00057026,-5959.3,0.011873
3130,1.4792,4.9091,0,0.00055473,5543.5,0.0002286,0.11431,0.00010067,-961.07,-0.00056479,-5961.1,0.012241
3131,1.4792,4.7273,0,0.00055032,5499.4,0.00023398,0.059226,8.5696e-05,-1114.1,-0.00056073,-5971.1,0.012548
3132,1.4792,4.5455,0,0.00054751,5471.3,0.00023892,0.028434,7.2884e-05,-1247.5,-0.00055795,-5987.3,0.012805
3133,1.4792,4.3636,0,0.00054597,5455.9,0.00024334,0.011321,6.2172e-05,-1361.2,-0.00055623,-6007.7,0.013018
3134,1.4792,4.1818,0,0.00054535,5449.8,0.00024722,0.0026025,5.3396e-05,-1456.3,-0.00055532,-6030,0.013193
3135,1.4792,4,0,0.00054535,5449.7,0.00025052,-0.0015045,4.6352e-05,-1534.1,-0.00055499,-6052.3,0.013335
3136,1.4792,3.8182,0,0.00054569,5453.1,0.00025326,-0.0031682,4.0832e-05,-1596.1,-0.00055502,-6073.1,0.013448
3137,1.4792,3.6364,0,0.00054619,5458.1,0.00025543,-0.0036552,3.6648e-05,-1643.8,-0.00055525,-6091.1,0.013535
3138,1.4792,3.4545,0,0.00054668,5463,0.00025704,-0.0036501,3.3647e-05,-1678.5,-0.00055553,-6105.3,0.013599
3139,1.4792,3.2727,0,0.00054706,5466.9,0.00025812,-0.0035103,3.1711e-05,-1701.1,-0.00055576,-6115.2,0.01364
3140,1.4792,3.0909,0,0.00054727,5468.9,0.00025865,-0.0034067,3.0762e-05,-1712.3,-0.0005559,-6120.2,0.01366
3141,1.4792,2.9091,0,0.00054727,5468.9,0.00025865,-0.0034068,3.0762e-05,-1712.3,-0.0005559,-6120.2,0.01366
3142,1.4792,2.7273,0,0.00054706,5466.9,0.00025812,-0.0035103,3.1711e-05,-1701.1,-0.00055576,-6115.2,0.01364
3143,1.4792,2.5455,0,0.00054668,5463,0.00025704,-0.0036501,3.3647e-05,-1678.5,-0.00055553,-6105.3,0.013599
3144,1.4792,2.3636,0,0.00054619,5458.1,0.00025543,-0.003655,3.6648e-05,-1643.8,-0.00055525,-6091.1,0.013535
3145,1.4792,2.1818,0,0.00054569,5453.1,0.00025326,-0.0031681,4.0832e-05,-1596.1,-0.00055502,-6073.1,0.013448
3146,1.4792,2,0,0.00054535,5449.7,0.00025052,-0.0015043,4.6352e-05,-1534.1,-0.00055499,-6052.3,0.013335
3147,1.4792,1.8182,0,0.00054535,5449.8,0.00024722,0.0026026,5.3396e-05,-1456.3,-0.00055532,-6030,0.013193
3148,1.4792,1.6364,0,0.00054597,5455.9,0.00024334,0.011321,6.2172e-05,-1361.2,-0.00055623,-6007.7,0.013018
3149,1.4792,1.4545,0,0.00054751,5471.3,0.00023892,0.028434,7.2884e-05,-1247.5,-0.00055795,-5987.3,0.012805
3150,1.4792,1.2727,0,0.00055032,5499.4,0.00023398,0.059227,8.5696e-05,-1114.1,-0.00056073,-5971.1,0.012548
3151,1.4792,1.0909,0,0.00055473,5543.5,0.0002286,0.11431,0.00010067,-961.07,-0.00056479,-5961.1,0.012241
3152,1.4792,0.90909,0,0.00056102,5606.3,0.00022291,0.19882,0.00011772,-790.17,-0.00057026,-5959.3,0.011873
3153,1.4792,0.72727,0,0.00056931,5689.1,0.00021707,0.36636,0.00013649,-605.09,-0.00057717,-5967.3,0.011436
3154,1.4792,0.54545,0,0.00057951,5791.1,0.00021132,0.5384,0.00015644,-411.81,-0.0005854,-5985.7,0.010918
3155,1.4792,0.36364,0,0.00059147,5910.6,0.00020596,1.6491,0.00017689,-216.79,-0.00059483,-6015.2,0.010307
3156,1.4792,0.18182,0,0.0006069,6064.8,0.00020277,14.503,0.0001974,-25.835,-0.00060709,-6070.4,0.0095907
3157,1.2943,5.8182,0,0.00060764,6072.3,0.00020345,22.635,0.00019765,-20.918,-0.0006076,-6071.3,0.0070888
3158,1.2943,5.6364,0,0.00059056,5901.6,0.00020645,2.0823,0.00017525,-232.35,-0.00059413,-6013.2,0.0077262
3159,1.2943,5.4545,0,0.00057788,5774.8,0.00021285,0.86623,0.00015223,-454.6,-0.00058425,-5988.2,0.0082611
3160,1.2943,5.2727,0,0.0005676,5672.1,0.00021973,0.68889,0.00013002,-673.37,-0.00057603,-5978.3,0.0087076
3161,1.2943,5.0909,0,0.00055989,5595.1,0.00022665,0.51852,0.00010953,-879.44,-0.00056963,-5982.4,0.0090789
3162,1.2943,4.9091,0,0.00055472,5543.4,0.00023332,0.44035,9.1445e-05,-1065.5,-0.00056509,-5998.5,0.0093867
3163,1.2943,4.7273,0,0.00055177,5513.9,0.00023953,0.39367,7.6025e-05,-1228.1,-0.00056228,-6024.1,0.0096414
3164,1.2943,4.5455,0,0.00055056,5501.8,0.00024515,0.37135,6.3235e-05,-1366.4,-0.0005609,-6056,0.0098516
3165,1.2943,4.3636,0,0.00055059,5502.1,0.00025011,0.36112,5.2849e-05,-1481.8,-0.0005606,-6091,0.010024
3166,1.2943,4.1818,0,0.00055141,5510.3,0.0002544,0.35743,4.4561e-05,-1576.3,-0.00056102,-6126.4,0.010165
3167,1.2943,4,0,0.00055265,5522.7,0.00025802,0.35669,3.806e-05,-1652.4,-0.00056187,-6160,0.010279
3168,1.2943,3.8182,0,0.00055403,5536.5,0.00026099,0.35716,3.3063e-05,-1712.2,-0.0005629,-6190.1,0.010368
3169,1.2943,3.6364,0,0.00055534,5549.6,0.00026333,0.35794,2.9334e-05,-1757.8,-0.00056393,-6215.3,0.010437
3170,1.2943,3.4545,0,0.00055643,5560.4,0.00026506,0.35867,2.669e-05,-1790.7,-0.0005648,-6234.9,0.010487
3171,1.2943,3.2727,0,0.0005572,5568.2,0.00026621,0.35918,2.4999e-05,-1812,-0.00056543,-6248.2,0.01052
3172,1.2943,3.0909,0,0.0005576,5572.2,0.00026677,0.35944,2.4174e-05,-1822.4,-0.00056576,-6255,0.010536
3173,1.2943,2.9091,0,0.0005576,5572.2,0.00026677,0.35944,2.4174e-05,-1822.4,-0.00056576,-6255,0.010536
3174,1.2943,2.7273,0,0.0005572,5568.2,0.00026621,0.35918,2.4999e-05,-1812,-0.00056543,-6248.2,0.01052
3175,1.2943,2.5455,0,0.00055643,5560.4,0.00026506,0.35867,2.669e-05,-1790.7,-0.0005648,-6234.9,0.010487
3176,1.2943,2.3636,0,0.00055534,5549.6,0.00026333,0.35794,2.9334e-05,-1757.8,-0.00056393,-6215.3,0.010437
3177,1.2943,2.1818,0,0.00055403,5536.5,0.00026099,0.35716,3.3063e-05,-1712.2,-0.0005629,-6190.1,0.010368
3178,1.2943,2,0,0.00055265,5522.7,0.00025802,0.35669,3.806e-05,-1652.4,-0.00056187,-6160,0.010279
3179,1.2943,1.8182,0,0.00055141,5510.3,0.0002544,0.35743,4.4561e-05,-1576.3,-0.00056102,-6126.4,0.010165
3180,1.2943,1.6364,0,0.00055059,5502.1,0.00025011,0.36112,5.2849e-05,-1481.8,-0.0005606,-6091,0.010024
3181,1.2943,1.4545,0,0.00055056,5501.8,0.00024515,0.37135,6.3235e-05,-1366.4,-0.0005609,-6056,0.0098516
3182,1.2943,1.2727,0,0.00055177,5513.9,0.00023953,0.39367,7.6025e-05,-1228.1,-0.00056228,-6024.1,0.0096414
3183,1.2943,1.0909,0,0.00055472,5543.4,0.00023332,0.44035,9.1445e-05,-1065.5,-0.00056509,-5998.5,0.0093867
3184,1.2943,0.90909,0,0.00055989,5595.1,0.00022665,0.51852,0.00010953,-879.44,-0.00056963,-5982.4,0.0090789
3185,1.2943,0.72727,0,0.0005676,5672.1,0.00021973,0.68889,0.00013002,-673.37,-0.00057603,-5978.3,0.0087076
3186,1.2943,0.54545,0,0.00057788,5774.8,0.00021285,0.86623,0.00015223,-454.6,-0.00058425,-5988.2,0.0082611
3187,1.2943,0.36364,0,0.00059056,5901.6,0.00020645,2.0823,0.00017525,-232.35,-0.00059413,-6013.2,0.0077262
3188,1.2943,0.18182,0,0.00060764,6072.3,0.00020345,22.635,0.00019765,-20.918,-0.0006076,-6071.3,0.0070888
3189,1.1094,5.8182,0,0.00060539,6049.7,0.00020355,34.709,0.00019658,-17.622,-0.00060508,-6041,0.0049865
3190,1.1094,5.6364,0,0.00058641,5860,0.00020608,1.6951,0.0001721,-253.58,-0.00059027,-5981.8,0.0055377
3191,1.1094,5.4545,0,0.00057314,5727.4,0.00021388,0.043067,0.00014587,-510.93,-0.00058011,-5965.7,0.0059911
3192,1.1094,5.2727,0,0.00056327,5628.9,0.00022226,-0.30013,0.00012105,-760.72,-0.00057235,-5970.7,0.006362
3193,1.1094,5.0909,0,0.0005569,5565.1,0.00023057,-0.57265,9.8899e-05,-989.9,-0.00056711,-5994,0.0066647
3194,1.1094,4.9091,0,0.00055369,5533.1,0.00023843,-0.71206,8.0095e-05,-1190.3,-0.00056427,-6031.8,0.0069115
3195,1.1094,4.7273,0,0.00055298,5526,0.00024559,-0.79953,6.4715e-05,-1359.8,-0.00056344,-6079.5,0.0071128
3196,1.1094,4.5455,0,0.000554,5536.2,0.00025194,-0.85149,5.2453e-05,-1499.7,-0.00056408,-6132.1,0.0072769
3197,1.1094,4.3636,0,0.00055607,5556.9,0.00025746,-0.88499,4.2846e-05,-1613.4,-0.00056569,-6185.7,0.0074103
3198,1.1094,4.1818,0,0.00055865,5582.6,0.00026216,-0.90762,3.5416e-05,-1704.5,-0.0005678,-6236.8,0.0075182
3199,1.1094,4,0,0.00056133,5609.5,0.00026607,-0.92383,2.9737e-05,-1776.6,-0.00057007,-6283.3,0.0076046
3200,1.1094,3.8182,0,0.00056386,5634.7,0.00026925,-0.9358,2.5464e-05,-1832.6,-0.00057225,-6323.6,0.0076726
3201,1.1094,3.6364,0,0.00056604,5656.5,0.00027173,-0.94467,2.2329e-05,-1874.9,-0.00057415,-6356.6,0.0077245
3202,1.1094,3.4545,0,0.00056775,5673.6,0.00027356,-0.95101,2.0134e-05,-1905.1,-0.00057567,-6381.7,0.007762
3203,1.1094,3.2727,0,0.00056893,5685.4,0.00027476,-0.95512,1.8743e-05,-1924.6,-0.00057672,-6398.6,0.0077864
3204,1.1094,3.0909,0,0.00056953,5691.4,0.00027535,-0.95715,1.8068e-05,-1934.1,-0.00057725,-6407.1,0.0077984
3205,1.1094,2.9091,0,0.00056953,5691.4,0.00027535,-0.95715,1.8068e-05,-1934.1,-0.00057725,-6407.1,0.0077984
3206,1.1094,2.7273,0,0.00056893,5685.4,0.00027476,-0.95512,1.8743e-05,-1924.6,-0.00057672,-6398.6,0.0077864
3207,1.1094,2.5455,0,0.00056775,5673.6,0.00027356,-0.95101,2.0134e-05,-1905.1,-0.00057567,-6381.7,0.007762
3208,1.1094,2.3636,0,0.00056604,5656.5,0.00027173,-0.94467,2.2329e-05,-1874.9,-0.00057415,-6356.6,0.0077245
3209,1.1094,2.1818,0,0.00056386,5634.7,0.00026925,-0.9358,2.5464e-05,-1832.6,-0.00057225,-6323.6,0.0076726
3210,1.1094,2,0,0.00056133,5609.5,0.00026607,-0.92383,2.9737e-05,-1776.6,-0.00057007,-6283.3,0.0076046
3211,1.1094,1.8182,0,0.00055865,5582.6,0.00026216,-0.90762,3.5416e-05,-1704.5,-0.0005678,-6236.8,0.0075182
3212,1.1094,1.6364,0,0.00055607,5556.9,0.00025746,-0.88499,4.2846e-05,-1613.4,-0.00056569,-6185.7,0.0074103
3213,1.1094,1.4545,0,0.000554,5536.2,0.00025194,-0.85149,5.2453e-05,-1499.7,-0.00056408,-6132.1,0.0072769
3214,1.1094,1.2727,0,0.00055298,5526,0.00024559,-0.79953,6.4715e-05,-1359.8,-0.00056344,-6079.5,0.0071128
3215,1.1094,1.0909,0,0.00055369,5533.1,0.00023843,-0.71206,8.0095e-05,-1190.3,-0.00056427,-6031.8,0.0069115
3216,1.1094,0.90909,0,0.0005569,5565.1,0.00023057,-0.57265,9.8899e-05,-989.9,-0.00056711,-5994,0.0066647
3217,1.1094,0.72727,0,0.00056327,5628.9,0.00022226,-0.30013,0.00012105,-760.72,-0.00057235,-5970.7,0.006362
3218,1.1094,0.54545,0,0.00057314,5727.4,0.00021388,0.043066,0.00014587,-510.93,-0.00058011,-5965.7,0.0059911
3219,1.1094,0.36364,0,0.00058641,5860,0.00020608,1.6951,0.0001721,-253.58,-0.00059027,-5981.8,0.0055377
3220,1.1094,0.18182,0,0.00060539,6049.7,0.00020355,34.709,0.00019658,-17.622,-0.00060508,-6041,0.0049865
3221,0.92453,5.8182,0,0.00059865,5982.4,0.00020262,52.259,0.00019375,-14.383,-0.00059798,-5963.1,0.0032786
3222,0.92453,5.6364,0,0.00057769,5772.9,0.0002049,4.9315,0.00016654,-283.27,-0.00058188,-5906.7,0.0037365
3223,0.92453,5.4545,0,0.00056437,5639.9,0.00021487,3.9624,0.00013626,-586.71,-0.00057196,-5908,0.0041031
3224,0.92453,5.2727,0,0.00055602,5556.4,0.00022537,4.017,0.00010858,-873.48,-0.00056559,-5938.9,0.0043953
3225,0.92453,5.0909,0,0.00055236,5519.8,0.00023549,4.0091,8.5121e-05,-1125.8,-0.0005627,-5993.3,0.0046282
3226,0.92453,4.9091,0,0.00055244,5520.6,0.00024478,4.0674,6.6325e-05,-1336.8,-0.00056275,-6063.4,0.0048144
3227,0.92453,4.7273,0,0.00055502,5546.4,0.00025301,4.1278,5.1783e-05,-1507.8,-0.00056491,-6141.5,0.0049637
3228,0.92453,4.5455,0,0.00055901,5586.2,0.00026014,4.1867,4.0754e-05,-1644.2,-0.00056834,-6220.7,0.0050837
3229,0.92453,4.3636,0,0.00056356,5631.8,0.0002662,4.2367,3.2473e-05,-1751.9,-0.00057236,-6296.3,0.0051803
3230,0.92453,4.1818,0,0.00056814,5677.5,0.00027127,4.2773,2.6289e-05,-1836.4,-0.00057646,-6365.2,0.0052577
3231,0.92453,4,0,0.0005724,5720,0.00027543,4.309,2.1696e-05,-1902.2,-0.00058032,-6425.5,0.0053192
3232,0.92453,3.8182,0,0.00057611,5757.1,0.00027878,4.3333,1.8317e-05,-1952.6,-0.00058372,-6476.1,0.0053674
3233,0.92453,3.6364,0,0.00057916,5787.6,0.00028136,4.3513,1.5881e-05,-1990.4,-0.00058654,-6516.7,0.0054039
3234,0.92453,3.4545,0,0.00058148,5810.8,0.00028326,4.364,1.4197e-05,-2017.3,-0.0005887,-6547.2,0.0054303
3235,0.92453,3.2727,0,0.00058304,5826.4,0.0002845,4.372,1.3139e-05,-2034.5,-0.00059015,-6567.4,0.0054474
3236,0.92453,3.0909,0,0.00058382,5834.2,0.00028511,4.3759,1.2628e-05,-2042.9,-0.00059089,-6577.5,0.0054558
3237,0.92453,2.9091,0,0.00058382,5834.2,0.00028511,4.3759,1.2628e-05,-2042.9,-0.00059089,-6577.5,0.0054558
3238,0.92453,2.7273,0,0.00058304,5826.4,0.0002845,4.372,1.3139e-05,-2034.5,-0.00059015,-6567.4,0.0054474
3239,0.92453,2.5455,0,0.00058148,5810.8,0.00028326,4.364,1.4197e-05,-2017.3,-0.0005887,-6547.2,0.0054303
3240,0.92453,2.3636,0,0.00057916,5787.6,0.00028136,4.3513,1.5881e-05,-1990.4,-0.00058654,-6516.7,0.0054039
3241,0.92453,2.1818,0,0.00057611,5757.1,0.00027878,4.3333,1.8317e-05,-1952.6,-0.00058372,-6476.1,0.0053674
3242,0.92453,2,0,0.0005724,5720,0.00027543,4.309,2.1696e-05,-1902.2,-0.00058032,-6425.5,0.0053192
3243,0.92453,1.8182,0,0.00056814,5677.5,0.00027127,4.2773,2.6289e-05,-1836.4,-0.00057646,-6365.2,0.0052577
3244,0.92453,1.6364,0,0.00056356,5631.8,0.0002662,4.2367,3.2473e-05,-1751.9,-0.00057236,-6296.3,0.0051803
3245,0.92453,1.4545,0,0.00055901,5586.2,0.00026014,4.1867,4.0754e-05,-1644.2,-0.00056834,-6220.7,0.0050837
3246,0.92453,1.2727,0,0.00055502,5546.4,0.00025301,4.1278,5.1783e-05,-1507.8,-0.00056491,-6141.5,0.0049637
3247,0.92453,1.0909,0,0.00055244,5520.6,0.00024478,4.0674,6.6325e-05,-1336.8,-0.00056275,-6063.4,0.0048144
3248,0.92453,0.90909,0,0.00055236,5519.8,0.00023549,4.0091,8.5121e-05,-1125.8,-0.0005627,-5993.3,0.0046282
3249,0.92453,0.72727,0,0.00055602,5556.4,0.00022537,4.017,0.00010858,-873.48,-0.00056559,-5938.9,0.0043953
3250,0.92453,0.54545,0,0.00056437,5639.9,0.00021487,3.9624,0.00013626,-586.71,-0.00057196,-5908,0.0041031
3251,0.92453,0.36364,0,0.00057769,5772.9,0.0002049,4.9315,0.00016654,-283.27,-0.00058188,-5906.7,0.0037365
3252,0.92453,0.18182,0,0.00059865,5982.4,0.00020262,52.259,0.00019375,-14.383,-0.00059798,-5963.1,0.0032786
3253,0.73962,5.8182,0,0.00058432,5839.2,0.00019969,71.46,0.00018773,-18.395,-0.00058337,-5812.2,0.0019561
3254,0.73962,5.6364,0,0.00056093,5605.4,0.00020106,-5.7308,0.00015702,-336.6,-0.00056602,-5769.2,0.0023138
3255,0.73962,5.4545,0,0.00054854,5481.6,0.00021394,-10.627,0.00012158,-704.6,-0.0005574,-5806.2,0.0025897
3256,0.73962,5.2727,0,0.00054373,5433.6,0.00022721,-12.44,9.126e-05,-1034,-0.00055428,-5884.3,0.002802
3257,0.73962,5.0909,0,0.00054497,5445.9,0.00023951,-13.688,6.7635e-05,-1305.1,-0.00055579,-5989.3,0.0029663
3258,0.73962,4.9091,0,0.00055005,5496.7,0.00025034,-14.48,5.0201e-05,-1518.3,-0.00056046,-6106.6,0.0030946
3259,0.73962,4.7273,0,0.00055701,5566.3,0.00025961,-15.043,3.7658e-05,-1682.7,-0.00056682,-6224.5,0.0031956
3260,0.73962,4.5455,0,0.00056452,5641.3,0.00026741,-15.454,2.8698e-05,-1809,-0.00057374,-6335.5,0.0032755
3261,0.73962,4.3636,0,0.0005718,5714,0.00027389,-15.767,2.2286e-05,-1906.2,-0.00058052,-6435.5,0.0033391
3262,0.73962,4.1818,0,0.00057841,5780.1,0.00027921,-16.007,1.7674e-05,-1981.1,-0.00058674,-6522.4,0.0033897
3263,0.73962,4,0,0.00058415,5837.4,0.00028351,-16.193,1.4348e-05,-2038.6,-0.00059219,-6595.9,0.0034296
3264,0.73962,3.8182,0,0.00058893,5885.2,0.00028693,-16.336,1.1954e-05,-2082.4,-0.00059675,-6656,0.0034606
3265,0.73962,3.6364,0,0.00059273,5923.2,0.00028956,-16.442,1.0257e-05,-2115,-0.0006004,-6703.2,0.0034841
3266,0.73962,3.4545,0,0.00059556,5951.5,0.00029146,-16.519,9.0978e-06,-2138.1,-0.00060312,-6738.1,0.003501
3267,0.73962,3.2727,0,0.00059744,5970.2,0.00029271,-16.567,8.3755e-06,-2152.9,-0.00060493,-6761.1,0.0035119
3268,0.73962,3.0909,0,0.00059837,5979.6,0.00029332,-16.591,8.0287e-06,-2160.2,-0.00060583,-6772.5,0.0035173
3269,0.73962,2.9091,0,0.00059837,5979.6,0.00029332,-16.591,8.0287e-06,-2160.2,-0.00060583,-6772.5,0.0035173
3270,0.73962,2.7273,0,0.00059744,5970.2,0.00029271,-16.567,8.3755e-06,-2152.9,-0.00060493,-6761.1,0.0035119
3271,0.73962,2.5455,0,0.00059556,5951.5,0.00029146,-16.519,9.0978e-06,-2138.1,-0.00060312,-6738.1,0.003501
3272,0.73962,2.3636,0,0.00059273,5923.2,0.00028956,-16.442,1.0257e-05,-2115,-0.0006004,-6703.2,0.0034841
3273,0.73962,2.1818,0,0.00058893,5885.2,0.00028693,-16.336,1.1954e-05,-2082.4,-0.00059675,-6656,0.0034606
3274,0.73962,2,0,0.00058415,5837.4,0.00028351,-16.193,1.4348e-05,-2038.6,-0.00059219,-6595.9,0.0034296
3275,0.73962,1.8182,0,0.00057841,5780.1,0.00027921,-16.007,1.7674e-05,-1981.1,-0.00058674,-6522.4,0.0033897
3276,0.73962,1.6364,0,0.0005718,5714,0.00027389,-15.767,2.2286e-05,-1906.2,-0.00058052,-6435.5,0.0033391
3277,0.73962,1.4545,0,0.00056452,5641.3,0.00026741,-15.454,2.8698e-05,-1809,-0.00057374,-6335.5,0.0032755
3278,0.73962,1.2727,0,0.00055701,5566.3,0.00025961,-15.043,3.7658e-05,-1682.7,-0.00056682,-6224.5,0.0031956
3279,0.73962,1.0909,0,0.00055005,5496.7,0.00025034,-14.48,5.0201e-05,-1518.3,-0.00056046,-6106.6,0.0030946
3280,0.73962,0.90909,0,0.00054497,5445.9,0.00023951,-13.688,6.7635e-05,-1305.1,-0.00055579,-5989.3,0.0029663
3281,0.73962,0.72727,0,0.00054373,5433.6,0.00022721,-12.44,9.126e-05,-1034,-0.00055428,-5884.3,0.002802
3282,0.73962,0.54545,0,0.00054854,5481.6,0.00021394,-10.627,0.00012158,-704.6,-0.0005574,-5806.2,0.0025897
3283,0.73962,0.36364,0,0.00056093,5605.4,0.00020106,-5.7308,0.00015702,-336.6,-0.00056602,-5769.2,0.0023138
3284,0.73962,0.18182,0,0.00058432,5839.2,0.00019969,71.46,0.00018773,-18.395,-0.00058337,-5812.2,0.0019561
3285,0.55472,5.8182,0,0.00055856,5581.7,0.00019297,103.38,0.00017912,-0.66465,-0.00055674,-5529.6,0.0010037
3286,0.55472,5.6364,0,0.00053569,5353.2,0.00020003,40.514,0.00014,-410.5,-0.00054056,-5523.9,0.001256
3287,0.55472,5.4545,0,0.00052928,5289.1,0.00021931,49.226,9.8655e-05,-857.3,-0.00053716,-5634.6,0.00144
3288,0.55472,5.2727,0,0.00053346,5331,0.00023716,53.869,6.7628e-05,-1219.9,-0.00054175,-5798.6,0.001575
3289,0.55472,5.0909,0,0.00054377,5433.9,0.00025253,57.102,4.6476e-05,-1491.1,-0.00055135,-5982.9,0.0016757
3290,0.55472,4.9091,0,0.0005563,5559.2,0.00026528,59.492,3.2547e-05,-1689.2,-0.00056298,-6163.7,0.0017523
3291,0.55472,4.7273,0,0.00056882,5684.3,0.00027571,61.273,2.3378e-05,-1834.6,-0.00057474,-6328.7,0.0018114
3292,0.55472,4.5455,0,0.00058029,5798.9,0.00028418,62.629,1.725e-05,-1943,-0.00058564,-6472.9,0.0018575
3293,0.55472,4.3636,0,0.00059032,5899.2,0.00029105,63.673,1.3074e-05,-2024.9,-0.00059525,-6595.6,0.0018938
3294,0.55472,4.1818,0,0.00059883,5984.2,0.00029657,64.483,1.0179e-05,-2087.4,-0.00060347,-6698.1,0.0019224
3295,0.55472,4,0,0.00060587,6054.5,0.00030098,65.111,8.1455e-06,-2135.1,-0.0006103,-6781.9,0.0019448
3296,0.55472,3.8182,0,0.00061154,6111.2,0.00030444,65.592,6.7114e-06,-2171.4,-0.00061582,-6848.9,0.0019622
3297,0.55472,3.6364,0,0.00061593,6155.1,0.00030707,65.952,5.7092e-06,-2198.4,-0.00062011,-6900.6,0.0019752
3298,0.55472,3.4545,0,0.00061915,6187.2,0.00030897,66.209,5.032e-06,-2217.5,-0.00062326,-6938.2,0.0019846
3299,0.55472,3.2727,0,0.00062125,6208.2,0.00031021,66.374,4.6129e-06,-2229.7,-0.00062532,-6962.8,0.0019907
3300,0.55472,3.0909,0,0.00062229,6218.6,0.00031081,66.455,4.4124e-06,-2235.7,-0.00062634,-6974.9,0.0019936
3301,0.55472,2.9091,0,0.00062229,6218.6,0.00031081,66.455,4.4124e-06,-2235.7,-0.00062634,-6974.9,0.0019936
3302,0.55472,2.7273,0,0.00062125,6208.2,0.00031021,66.374,4.6129e-06,-2229.7,-0.00062532,-6962.8,0.0019907
3303,0.55472,2.5455,0,0.00061915,6187.2,0.00030897,66.209,5.032e-06,-2217.5,-0.00062326,-6938.2,0.0019846
3304,0.55472,2.3636,0,0.00061593,6155.1,0.00030707,65.952,5.7092e-06,-2198.4,-0.00062011,-6900.6,0.0019752
3305,0.55472,2.1818,0,0.00061154,6111.2,0.00030444,65.592,6.7114e-06,-2171.4,-0.00061582,-6848.9,0.0019622
3306,0.55472,2,0,0.00060587,6054.5,0.00030098,65.111,8.1455e-06,-2135.1,-0.0006103,-6781.9,0.0019448
3307,0.55472,1.8182,0,0.00059883,5984.2,0.00029657,64.483,1.0179e-05,-2087.4,-0.00060347,-6698.1,0.0019224
3308,0.55472,1.6364,0,0.00059032,5899.1,0.00029105,63.673,1.3074e-05,-2024.9,-0.00059525,-6595.6,0.0018938
3309,0.55472,1.4545,0,0.00058029,5798.9,0.00028418,62.629,1.725e-05,-1943,-0.00058564,-6472.9,0.0018575
3310,0.55472,1.2727,0,0.00056882,5684.3,0.00027571,61.273,2.3378e-05,-1834.6,-0.00057474,-6328.7,0.0018114
3311,0.55472,1.0909,0,0.0005563,5559.2,0.00026528,59.492,3.2547e-05,-1689.2,-0.00056298,-6163.7,0.0017523
3312,0.55472,0.90909,0,0.00054377,5433.9,0.00025253,57.102,4.6476e-05,-1491.1,-0.00055135,-5982.9,0.0016757
3313,0.55472,0.72727,0,0.00053346,5331,0.00023716,53.869,6.7628e-05,-1219.9,-0.00054175,-5798.6,0.001575
3314,0.55472,0.54545,0,0.00052928,5289.1,0.00021931,49.226,9.8655e-05,-857.3,-0.00053716,-5634.6,0.00144
3315,0.55472,0.36364,0,0.00053569,5353.2,0.00020003,40.514,0.00014,-410.5,-0.00054056,-5523.9,0.001256
3316,0.55472,0.18182,0,0.00055856,5581.7,0.00019297,103.38,0.00017912,-0.66463,-0.00055674,-5529.6,0.0010037
3317,0.36981,5.8182,0,0.00050465,5043,0.00017822,92.415,0.00015508,-81.467,-0.00050424,-5035.3,0.00039596
3318,0.36981,5.6364,0,0.00047906,4787.3,0.00017842,-138,0.00010929,-657.43,-0.00049047,-5163.8,0.00054133
3319,0.36981,5.4545,0,0.00048421,4838.7,0.0002019,-183.92,6.4563e-05,-1215.8,-0.00049969,-5455.4,0.00063867
3320,0.36981,5.2727,0,0.000503,5026.6,0.00022263,-207.08,3.8689e-05,-1589.1,-0.00051909,-5780.1,0.00070566
3321,0.36981,5.0909,0,0.00052429,5239.3,0.0002392,-221.97,2.4201e-05,-1837.4,-0.00054028,-6078.7,0.00075356
3322,0.36981,4.9091,0,0.00054393,5435.5,0.00025219,-232.43,1.5932e-05,-2007.6,-0.00055983,-6333.6,0.00078897
3323,0.36981,4.7273,0,0.00056079,5604,0.00026241,-240.07,1.0976e-05,-2129.2,-0.00057666,-6544.5,0.00081579
3324,0.36981,4.5455,0,0.00057483,5744.4,0.00027048,-245.82,7.8694e-06,-2219,-0.00059074,-6716.7,0.00083645
3325,0.36981,4.3636,0,0.00058635,5859.5,0.00027689,-250.23,5.8436e-06,-2286.7,-0.00060232,-6856.3,0.00085254
3326,0.36981,4.1818,0,0.0005957,5952.9,0.00028197,-253.64,4.4814e-06,-2338.5,-0.00061174,-6968.6,0.00086512
3327,0.36981,4,0,0.00060319,6027.7,0.00028597,-256.28,3.5456e-06,-2378.3,-0.00061929,-7058,0.00087494
3328,0.36981,3.8182,0,0.00060907,6086.5,0.00028908,-258.3,2.896e-06,-2408.6,-0.00062524,-7128.1,0.0008825
3329,0.36981,3.6364,0,0.00061356,6131.4,0.00029143,-259.81,2.4471e-06,-2431.1,-0.00062977,-7181.4,0.00088819
3330,0.36981,3.4545,0,0.0006168,6163.8,0.00029312,-260.89,2.1462e-06,-2447.2,-0.00063305,-7219.8,0.00089226
3331,0.36981,3.2727,0,0.00061891,6184.8,0.00029422,-261.58,1.9609e-06,-2457.5,-0.00063518,-7244.7,0.00089488
3332,0.36981,3.0909,0,0.00061994,6195.1,0.00029475,-261.91,1.8726e-06,-2462.5,-0.00063623,-7256.9,0.00089616
3333,0.36981,2.9091,0,0.00061994,6195.1,0.00029475,-261.91,1.8726e-06,-2462.5,-0.00063623,-7256.9,0.00089616
3334,0.36981,2.7273,0,0.00061891,6184.8,0.00029422,-261.58,1.9609e-06,-2457.5,-0.00063518,-7244.7,0.00089488
3335,0.36981,2.5455,0,0.0006168,6163.8,0.00029312,-260.89,2.1462e-06,-2447.2,-0.00063305,-7219.8,0.00089226
3336,0.36981,2.3636,0,0.00061356,6131.4,0.00029143,-259.81,2.4471e-06,-2431.1,-0.00062977,-7181.4,0.00088819
3337,0.36981,2.1818,0,0.00060907,6086.5,0.00028908,-258.3,2.896e-06,-2408.6,-0.00062524,-7128.1,0.0008825
3338,0.36981,2,0,0.00060319,6027.7,0.00028597,-256.28,3.5456e-06,-2378.3,-0.00061929,-7058,0.00087494
3339,0.36981,1.8182,0,0.0005957,5952.9,0.00028197,-253.64,4.4814e-06,-2338.5,-0.00061174,-6968.6,0.00086512
3340,0.36981,1.6364,0,0.00058635,5859.5,0.00027689,-250.23,5.8436e-06,-2286.7,-0.00060232,-6856.3,0.00085254
3341,0.36981,1.4545,0,0.00057483,5744.4,0.00027048,-245.82,7.8694e-06,-2219,-0.00059074,-6716.7,0.00083645
3342,0.36981,1.2727,0,0.00056079,5604,0.00026241,-240.07,1.0976e-05,-2129.2,-0.00057666,-6544.5,0.00081579
3343,0.36981,1.0909,0,0.00054393,5435.5,0.00025219,-232.43,1.5932e-05,-2007.6,-0.00055983,-6333.6,0.00078897
3344,0.36981,0.90909,0,0.00052429,5239.3,0.0002392,-221.97,2.4201e-05,-1837.4,-0.00054028,-6078.7,0.00075356
3345,0.36981,0.72727,0,0.000503,5026.6,0.00022263,-207.08,3.8689e-05,-1589.1,-0.00051909,-5780.1,0.00070566
3346,0.36981,0.54545,0,0.00048421,4838.7,0.0002019,-183.92,6.4563e-05,-1215.8,-0.00049969,-5455.4,0.00063867
3347,0.36981,0.36364,0,0.00047906,4787.3,0.00017842,-138,0.00010929,-657.43,-0.00049047,-5163.8,0.00054133
3348,0.36981,0.18182,0,0.00050465,5043,0.00017822,92.416,0.00015508,-81.467,-0.00050424,-5035.3,0.00039596
3349,0.18491,5.8182,0,0.00040653,4062.5,0.00016001,314.41,0.00011849,2.4667,-0.00040024,-3895.1,8.9368e-05
3350,0.18491,5.6364,0,0.00045596,4556.5,0.00023637,610.56,4.6172e-05,-818.53,-0.00044236,-4489.1,0.00014044
3351,0.18491,5.4545,0,0.00052232,5219.6,0.00028691,743.57,2.0913e-05,-1255,-0.00050147,-5180,0.00017019
3352,0.18491,5.2727,0,0.0005743,5739.1,0.0003212,829.12,1.0551e-05,-1505,-0.000549,-5709.2,0.00018905
3353,0.18491,5.0909,0,0.00061329,6128.6,0.00034504,883.99,6.1272e-06,-1662.5,-0.00058545,-6107.3,0.00020202
3354,0.18491,4.9091,0,0.0006427,6422.5,0.0003625,923.61,3.8602e-06,-1771,-0.00061319,-6407.3,0.00021138
3355,0.18491,4.7273,0,0.00066519,6647.3,0.00037559,952.7,2.6009e-06,-1849.8,-0.00063453,-6637,0.00021838
3356,0.18491,4.5455,0,0.00068263,6821.6,0.00038564,974.78,1.8401e-06,-1908.9,-0.00065113,-6815.1,0.00022371
3357,0.18491,4.3636,0,0.00069626,6957.8,0.00039343,991.75,1.3562e-06,-1954.1,-0.00066414,-6954.4,0.00022783
3358,0.18491,4.1818,0,0.00070695,7064.6,0.00039951,1004.9,1.0355e-06,-1989,-0.00067436,-7063.7,0.00023104
3359,0.18491,4,0,0.0007153,7148.1,0.00040424,1015.1,8.1729e-07,-2016.1,-0.00068235,-7149.1,0.00023353
3360,0.18491,3.8182,0,0.00072175,7212.5,0.00040788,1022.9,6.6673e-07,-2036.8,-0.00068853,-7215.1,0.00023544
3361,0.18491,3.6364,0,0.0007266,7261,0.00041062,1028.8,5.6312e-07,-2052.2,-0.00069318,-7264.7,0.00023688
3362,0.18491,3.4545,0,0.00073007,7295.7,0.00041257,1032.9,4.9384e-07,-2063.3,-0.0006965,-7300.3,0.0002379
3363,0.18491,3.2727,0,0.00073231,7318.1,0.00041383,1035.6,4.5125e-07,-2070.4,-0.00069865,-7323.2,0.00023856
3364,0.18491,3.0909,0,0.00073341,7329,0.00041445,1036.9,4.3095e-07,-2073.9,-0.0006997,-7334.4,0.00023888
3365,0.18491,2.9091,0,0.00073341,7329,0.00041445,1036.9,4.3095e-07,-2073.9,-0.0006997,-7334.4,0.00023888
3366,0.18491,2.7273,0,0.00073231,7318.1,0.00041383,1035.6,4.5125e-07,-2070.4,-0.00069865,-7323.2,0.00023856
3367,0.18491,2.5455,0,0.00073007,7295.7,0.00041257,1032.9,4.9384e-07,-2063.3,-0.0006965,-7300.3,0.0002379
3368,0.18491,2.3636,0,0.0007266,7261,0.00041062,1028.8,5.6312e-07,-2052.2,-0.00069318,-7264.7,0.00023688
3369,0.18491,2.1818,0,0.00072175,7212.5,0.00040788,1022.9,6.6673e-07,-2036.8,-0.00068853,-7215.1,0.00023544
3370,0.18491,2,0,0.0007153,7148.1,0.00040424,1015.1,8.1729e-07,-2016.1,-0.00068235,-7149.1,0.00023353
3371,0.18491,1.8182,0,0.00070695,7064.6,0.00039951,1004.9,1.0355e-06,-1989,-0.00067436,-7063.7,0.00023104
3372,0.18491,1.6364,0,0.00069626,6957.8,0.00039343,991.75,1.3562e-06,-1954.1,-0.00066414,-6954.4,0.00022783
3373,0.18491,1.4545,0,0.00068263,6821.6,0.00038564,974.78,1.8401e-06,-1908.9,-0.00065113,-6815.1,0.00022371
3374,0.18491,1.2727,0,0.00066519,6647.3,0.00037559,952.7,2.6009e-06,-1849.8,-0.00063453,-6637,0.00021838
3375,0.18491,1.0909,0,0.0006427,6422.5,0.0003625,923.61,3.8602e-06,-1771,-0.00061319,-6407.3,0.00021138
3376,0.18491,0.90909,0,0.00061329,6128.6,0.00034504,883.99,6.1272e-06,-1662.5,-0.00058545,-6107.3,0.00020202
3377,0.18491,0.72727,0,0.0005743,5739.1,0.0003212,829.12,1.0551e-05,-1505,-0.000549,-5709.2,0.00018905
3378,0.18491,0.54545,0,0.00052232,5219.6,0.00028691,743.57,2.0913e-05,-1255,-0.00050147,-5180,0.00017019
3379,0.18491,0.36364,0,0.00045596,4556.5,0.00023637,610.56,4.6172e-05,-818.53,-0.00044236,-4489.1,0.00014044
3380,0.18491,0.18182,0,0.00040653,4062.5,0.00016001,314.41,0.00011849,2.4669,-0.00040024,-3895.1,8.9368e-05
3381,19.951,0.18182,0,1.4281e-05,142.71,6.6499e-06,20.923,3.2004e-06,-4.9943,-1.3833e-05,-132.97,1.6963
3382,19.951,0.36364,0,2.0838e-05,208.23,9.9832e-06,36.673,4.7385e-06,-2.7343,-1.9979e-05,-188.45,1.6964
3383,19.951,0.54545,0,2.9195e-05,291.75,1.4912e-05,64.172,6.0912e-06,-2.1075,-2.7568e-05,-255.01,1.6966
3384,19.951,0.72727,0,3.8738e-05,387.11,2.0676e-05,97.124,7.4952e-06,-1.911,-3.6156e-05,-329.89,1.6968
3385,19.951,0.90909,0,4.9858e-05,498.24,2.7389e-05,135.41,9.1049e-06,-1.9761,-4.6146e-05,-417.11,1.697
3386,19.951,1.0909,0,6.3292e-05,632.49,3.5427e-05,180.52,1.1071e-05,-2.4755,-5.8244e-05,-523.29,1.6972
3387,19.951,1.2727,0,8.032e-05,802.65,4.5442e-05,235.8,1.3724e-05,-2.5138,-7.3651e-05,-659.01,1.6974
3388,19.951,1.4545,0,0.00010303,1029.6,5.8382e-05,302.06,1.7362e-05,-6.1521,-9.4475e-05,-846.45,1.6976
3389,19.951,1.6364,0,0.00013684,1367.5,7.7206e-05,400.92,2.3762e-05,-0.6356,-0.00012554,-1122.4,1.6979
3390,19.951,1.8182,0,0.00018836,1882.3,9.6658e-05,405.19,3.7469e-05,-39.531,-0.00017815,-1659.6,1.6981
3391,19.951,2,0,0.00023894,2387.8,0.00010209,213.11,5.756e-05,-121.51,-0.00023562,-2324.3,1.6984
3392,19.951,2.1818,0,0.00024917,2490,9.5123e-05,140.43,7.2935e-05,-26.281,-0.00024681,-2428.7,1.6986
3393,19.951,2.3636,0,0.00023685,2366.9,9.3731e-05,185.56,6.8347e-05,-5.1696,-0.0002332,-2270.9,1.6988
3394,19.951,2.5455,0,0.00021901,2188.6,8.7555e-05,185.69,6.2952e-05,0.83698,-0.00021525,-2089.5,1.699
3395,19.951,2.7273,0,0.00020853,2083.9,8.4147e-05,185.59,5.9364e-05,-0.62081,-0.00020476,-1985.1,1.6991
3396,19.951,2.9091,0,0.00020357,2034.3,8.2359e-05,184.18,5.7852e-05,0.036814,-0.00019981,-1935.9,1.6991
3397,19.951,3.0909,0,0.00020357,2034.3,8.2359e-05,184.18,5.7852e-05,0.036815,-0.00019981,-1935.9,1.6991
3398,19.951,3.2727,0,0.00020853,2083.9,8.4147e-05,185.59,5.9364e-05,-0.62081,-0.00020476,-1985.1,1.6991
3399,19.951,3.4545,0,0.00021901,2188.6,8.7555e-05,185.69,6.2952e-05,0.83698,-0.00021525,-2089.5,1.699
3400,19.951,3.6364,0,0.00023685,2366.9,9.3731e-05,185.56,6.8347e-05,-5.1696,-0.0002332,-2270.9,1.6988
3401,19.951,3.8182,0,0.00024917,2490,9.5123e-05,140.43,7.2935e-05,-26.281,-0.00024681,-2428.7,1.6986
3402,19.951,4,0,0.00023894,2387.8,0.00010209,213.1,5.756e-05,-121.51,-0.00023562,-2324.3,1.6984
3403,19.951,4.1818,0,0.00018836,1882.3,9.6658e-05,405.19,3.7469e-05,-39.531,-0.00017815,-1659.6,1.6981
3404,19.951,4.3636,0,0.00013684,1367.5,7.7206e-05,400.92,2.3762e-05,-0.63561,-0.00012554,-1122.4,1.6979
3405,19.951,4.5455,0,0.00010303,1029.6,5.8382e-05,302.06,1.7362e-05,-6.1521,-9.4475e-05,-846.45,1.6976
3406,19.951,4.7273,0,8.032e-05,802.65,4.5442e-05,235.8,1.3724e-05,-2.5138,-7.3651e-05,-659.01,1.6974
3407,19.951,4.9091,0,6.3292e-05,632.49,3.5427e-05,180.52,1.1071e-05,-2.4755,-5.8244e-05,-523.29,1.6972
3408,19.951,5.0909,0,4.9858e-05,498.24,2.7389e-05,135.41,9.1049e-06,-1.9761,-4.6146e-05,-417.11,1.697
3409,19.951,5.2727,0,3.8738e-05,387.11,2.0676e-05,97.124,7.4952e-06,-1.9111,-3.6156e-05,-329.89,1.6968
3410,19.951,5.4545,0,2.9195e-05,291.75,1.4912e-05,64.172,6.0912e-06,-2.1075,-2.7568e-05,-255.01,1.6966
3411,19.951,5.6364,0,2.0838e-05,208.23,9.9832e-06,36.673,4.7385e-06,-2.7343,-1.9979e-05,-188.45,1.6964
3412,19.951,5.8182,0,1.4281e-05,142.71,6.6499e-06,20.923,3.2004e-06,-4.9943,-1.3833e-05,-132.97,1.6963
3413,20.135,0.18182,0,2.0733e-05,207.18,8.2861e-06,16.291,5.8403e-06,-2.0855,-2.043e-05,-199.47,1.7223
3414,20.135,0.36364,0,2.3913e-05,238.97,9.3937e-06,16.905,6.8518e-06,-2.1945,-2.3606e-05,-231.04,1.7225
3415,20.135,0.54545,0,2.974e-05,297.19,1.2303e-05,29.36,8.1926e-06,-1.5244,-2.9146e-05,-282.07,1.7227
3416,20.135,0.72727,0,3.7253e-05,372.27,1.6258e-05,47.748,9.7574e-06,-1.0915,-3.6218e-05,-346.53,1.7228
3417,20.135,0.90909,0,4.6348e-05,463.16,2.0994e-05,69.217,1.1654e-05,-0.96072,-4.4786e-05,-425.03,1.723
3418,20.135,1.0909,0,5.7311e-05,572.71,2.6468e-05,92.108,1.4082e-05,-0.95112,-5.519e-05,-521.43,1.7232
3419,20.135,1.2727,0,7.0734e-05,706.85,3.2738e-05,114.58,1.7333e-05,-1.1659,-6.8089e-05,-643,1.7234
3420,20.135,1.4545,0,8.7236e-05,871.76,3.9459e-05,129.59,2.1971e-05,-1.806,-8.4316e-05,-800.41,1.7235
3421,20.135,1.6364,0,0.00010757,1074.9,4.5701e-05,123.15,2.9059e-05,-1.8939,-0.00010496,-1008.8,1.7237
3422,20.135,1.8182,0,0.00013266,1325.7,5.1038e-05,86.197,3.9213e-05,-2.6527,-0.00013102,-1281.7,1.7239
3423,20.135,2,0,0.00015623,1561.2,5.3292e-05,19.328,5.0383e-05,-2.5243,-0.00015593,-1552.7,1.7241
3424,20.135,2.1818,0,0.00017741,1772.9,6.0524e-05,17.011,5.6747e-05,-11.368,-0.0001773,-1769.9,1.7243
3425,20.135,2.3636,0,0.00018511,1849.9,6.5227e-05,45.411,5.8208e-05,-7.3238,-0.00018441,-1830.3,1.7244
3426,20.135,2.5455,0,0.0001851,1849.7,6.756e-05,77.496,5.7131e-05,-0.86583,-0.00018367,-1810.2,1.7246
3427,20.135,2.7273,0,0.00018251,1823.9,6.7941e-05,92.92,5.5558e-05,-0.12206,-0.00018076,-1775.7,1.7246
3428,20.135,2.9091,0,0.00018082,1807,6.7932e-05,99.709,5.467e-05,0.063461,-0.00017892,-1755,1.7247
3429,20.135,3.0909,0,0.00018082,1807,6.7932e-05,99.709,5.467e-05,0.06346,-0.00017892,-1755,1.7247
3430,20.135,3.2727,0,0.00018251,1823.9,6.7941e-05,92.92,5.5558e-05,-0.12206,-0.00018076,-1775.7,1.7246
3431,20.135,3.4545,0,0.0001851,1849.7,6.756e-05,77.496,5.7131e-05,-0.86583,-0.00018367,-1810.2,1.7246
3432,20.135,3.6364,0,0.00018511,1849.9,6.5227e-05,45.411,5.8208e-05,-7.3238,-0.00018441,-1830.3,1.7244
3433,20.135,3.8182,0,0.00017741,1772.9,6.0524e-05,17.011,5.6747e-05,-11.368,-0.0001773,-1769.9,1.7243
3434,20.135,4,0,0.00015623,1561.2,5.3292e-05,19.328,5.0383e-05,-2.5245,-0.00015593,-1552.7,1.7241
3435,20.135,4.1818,0,0.00013266,1325.7,5.1038e-05,86.197,3.9213e-05,-2.6527,-0.00013102,-1281.7,1.7239
3436,20.135,4.3636,0,0.00010757,1074.9,4.5701e-05,123.15,2.9059e-05,-1.8939,-0.00010496,-1008.8,1.7237
3437,20.135,4.5455,0,8.7236e-05,871.76,3.9459e-05,129.59,2.1971e-05,-1.806,-8.4316e-05,-800.41,1.7235
3438,20.135,4.7273,0,7.0734e-05,706.85,3.2738e-05,114.58,1.7333e-05,-1.1659,-6.8089e-05,-643,1.7234
3439,20.135,4.9091,0,5.7311e-05,572.71,2.6468e-05,92.107,1.4082e-05,-0.95112,-5.519e-05,-521.43,1.7232
3440,20.135,5.0909,0,4.6348e-05,463.16,2.0994e-05,69.216,1.1654e-05,-0.96072,-4.4786e-05,-425.03,1.723
3441,20.135,5.2727,0,3.7253e-05,372.27,1.6258e-05,47.748,9.7574e-06,-1.0915,-3.6218e-05,-346.53,1.7228
3442,20.135,5.4545,0,2.974e-05,297.19,1.2303e-05,29.36,8.1926e-06,-1.5244,-2.9146e-05,-282.07,1.7227
3443,20.135,5.6364,0,2.3913e-05,238.97,9.3937e-06,16.905,6.8518e-06,-2.1945,-2.3606e-05,-231.04,1.7225
3444,20.135,5.8182,0,2.0733e-05,207.18,8.2861e-06,16.291,5.8403e-06,-2.0855,-2.043e-05,-199.47,1.7223
3445,20.319,0.18182,0,2.7175e-05,271.56,1.0461e-05,17.407,7.9978e-06,-1.1003,-2.685e-05,-262.93,1.7484
3446,20.319,0.36364,0,2.9128e-05,291.08,1.0828e-05,13.678,8.7852e-06,-1.6686,-2.8893e-05,-284.77,1.7486
3447,20.319,0.54545,0,3.3286e-05,332.63,1.2519e-05,17.472,9.9552e-06,-1.7937,-3.2977e-05,-324.37,1.7487
3448,20.319,0.72727,0,3.9121e-05,390.94,1.5064e-05,25.071,1.1507e-05,-1.6566,-3.8654e-05,-378.55,1.7489
3449,20.319,0.90909,0,4.6477e-05,464.45,1.8231e-05,34.074,1.348e-05,-1.6273,-4.5822e-05,-447.2,1.749
3450,20.319,1.0909,0,5.5373e-05,553.35,2.1817e-05,41.852,1.6006e-05,-1.814,-5.4562e-05,-532.04,1.7492
3451,20.319,1.2727,0,6.5916e-05,658.71,2.5565e-05,44.792,1.9304e-05,-2.2546,-6.5066e-05,-636.18,1.7493
3452,20.319,1.4545,0,7.8254e-05,782,2.9132e-05,37.992,2.3644e-05,-3.2426,-7.7581e-05,-763.81,1.7495
3453,20.319,1.6364,0,9.2041e-05,919.78,3.2134e-05,16.079,2.8853e-05,-8.572,-9.1889e-05,-915.77,1.7496
3454,20.319,1.8182,0,0.00010725,1071.8,3.727e-05,1.4971,3.232e-05,-35.696,-0.00010778,-1088.4,1.7498
3455,20.319,2,0,0.00012324,1231.5,4.3647e-05,-3.1127,3.5252e-05,-66.189,-0.0001243,-1265,1.7499
3456,20.319,2.1818,0,0.0001378,1377,4.867e-05,-1.2338,3.9863e-05,-67.406,-0.00013885,-1410.2,1.7501
3457,20.319,2.3636,0,0.00014836,1482.6,5.1273e-05,3.2148,4.5305e-05,-41.627,-0.00014896,-1501.3,1.7502
3458,20.319,2.5455,0,0.0001536,1535,5.1676e-05,3.9091,4.9376e-05,-13.377,-0.00015376,-1539.6,1.7503
3459,20.319,2.7273,0,0.00015565,1555.4,5.2438e-05,12.201,5.0666e-05,-1.1097,-0.00015546,-1549.8,1.7503
3460,20.319,2.9091,0,0.00015622,1561.2,5.3257e-05,20.568,5.0552e-05,0.24431,-0.00015586,-1550.6,1.7504
3461,20.319,3.0909,0,0.00015622,1561.2,5.3257e-05,20.568,5.0552e-05,0.24431,-0.00015586,-1550.6,1.7504
3462,20.319,3.2727,0,0.00015565,1555.4,5.2438e-05,12.201,5.0666e-05,-1.1097,-0.00015546,-1549.8,1.7503
3463,20.319,3.4545,0,0.0001536,1535,5.1676e-05,3.9091,4.9376e-05,-13.377,-0.00015376,-1539.6,1.7503
3464,20.319,3.6364,0,0.00014836,1482.6,5.1273e-05,3.2148,4.5305e-05,-41.627,-0.00014896,-1501.3,1.7502
3465,20.319,3.8182,0,0.0001378,1377,4.867e-05,-1.2338,3.9863e-05,-67.406,-0.00013885,-1410.2,1.7501
3466,20.319,4,0,0.00012324,1231.5,4.3647e-05,-3.1127,3.5252e-05,-66.19,-0.0001243,-1265,1.7499
3467,20.319,4.1818,0,0.00010725,1071.8,3.727e-05,1.4971,3.232e-05,-35.696,-0.00010778,-1088.4,1.7498
3468,20.319,4.3636,0,9.2041e-05,919.78,3.2134e-05,16.079,2.8853e-05,-8.572,-9.1889e-05,-915.77,1.7496
3469,20.319,4.5455,0,7.8254e-05,782,2.9132e-05,37.992,2.3644e-05,-3.2427,-7.7581e-05,-763.81,1.7495
3470,20.319,4.7273,0,6.5916e-05,658.71,2.5565e-05,44.792,1.9304e-05,-2.2546,-6.5066e-05,-636.18,1.7493
3471,20.319,4.9091,0,5.5373e-05,553.35,2.1817e-05,41.852,1.6006e-05,-1.814,-5.4562e-05,-532.04,1.7492
3472,20.319,5.0909,0,4.6477e-05,464.45,1.8231e-05,34.074,1.348e-05,-1.6273,-4.5822e-05,-447.2,1.749
3473,20.319,5.2727,0,3.9121e-05,390.94,1.5064e-05,25.071,1.1507e-05,-1.6566,-3.8654e-05,-378.55,1.7489
3474,20.319,5.4545,0,3.3286e-05,332.63,1.2519e-05,17.472,9.9552e-06,-1.7937,-3.2977e-05,-324.37,1.7487
3475,20.319,5.6364,0,2.9128e-05,291.08,1.0828e-05,13.678,8.7852e-06,-1.6686,-2.8893e-05,-284.77,1.7486
3476,20.319,5.8182,0,2.7175e-05,271.56,1.0461e-05,17.407,7.9978e-06,-1.1003,-2.685e-05,-262.93,1.7484
3477,20.503,0.18182,0,3.2442e-05,324.2,1.2254e-05,18.391,9.7399e-06,-0.49649,-3.2097e-05,-314.84,1.7745
3478,20.503,0.36364,0,3.3874e-05,338.5,1.2361e-05,13.708,1.0415e-05,-0.91033,-3.3632e-05,-331.87,1.7746
3479,20.503,0.54545,0,3.6978e-05,369.53,1.3345e-05,12.9,1.1437e-05,-1.4316,-3.6763e-05,-363.59,1.7748
3480,20.503,0.72727,0,4.1453e-05,414.24,1.4888e-05,13.443,1.2851e-05,-1.8568,-4.1234e-05,-408.23,1.7749
3481,20.503,0.90909,0,4.7206e-05,471.73,1.6838e-05,13.766,1.4692e-05,-2.364,-4.6991e-05,-465.82,1.7751
3482,20.503,1.0909,0,5.417e-05,541.32,1.9047e-05,12.053,1.6988e-05,-3.4162,-5.4006e-05,-536.84,1.7752
3483,20.503,1.2727,0,6.2271e-05,622.28,2.149e-05,7.2439,1.9614e-05,-6.8557,-6.2253e-05,-621.97,1.7753
3484,20.503,1.4545,0,7.1403e-05,713.54,2.4742e-05,2.8842,2.1815e-05,-19.107,-7.1654e-05,-721.4,1.7755
3485,20.503,1.6364,0,8.1435e-05,813.79,2.9109e-05,1.4279,2.3151e-05,-43.342,-8.2056e-05,-833.82,1.7756
3486,20.503,1.8182,0,9.2132e-05,920.69,3.3997e-05,0.59203,2.4201e-05,-73.008,-9.3143e-05,-954.68,1.7757
3487,20.503,2,0,0.00010328,1032.1,3.8742e-05,1.0502,2.6024e-05,-94.503,-0.00010454,-1075.5,1.7758
3488,20.503,2.1818,0,0.00011384,1137.6,4.2397e-05,1.049,2.923e-05,-97.886,-0.00011517,-1182.8,1.7759
3489,20.503,2.3636,0,0.00012249,1224.1,4.4597e-05,0.48998,3.3226e-05,-84.952,-0.0001237,-1264.1,1.776
3490,20.503,2.5455,0,0.0001285,1284.1,4.568e-05,0.72226,3.6831e-05,-65.763,-0.00012948,-1315.3,1.7761
3491,20.503,2.7273,0,0.00013194,1318.5,4.6028e-05,0.57979,3.9336e-05,-49.708,-0.00013271,-1342.4,1.7761
3492,20.503,2.9091,0,0.00013345,1333.6,4.6094e-05,0.41767,4.057e-05,-41.083,-0.0001341,-1353.5,1.7762
3493,20.503,3.0909,0,0.00013345,1333.6,4.6094e-05,0.41767,4.057e-05,-41.083,-0.0001341,-1353.5,1.7762
3494,20.503,3.2727,0,0.00013194,1318.5,4.6028e-05,0.57979,3.9336e-05,-49.708,-0.00013271,-1342.4,1.7761
3495,20.503,3.4545,0,0.0001285,1284.1,4.568e-05,0.72226,3.6831e-05,-65.763,-0.00012948,-1315.3,1.7761
3496,20.503,3.6364,0,0.00012249,1224.1,4.4597e-05,0.48998,3.3226e-05,-84.952,-0.0001237,-1264.1,1.776
3497,20.503,3.8182,0,0.00011384,1137.6,4.2397e-05,1.049,2.923e-05,-97.886,-0.00011517,-1182.8,1.7759
3498,20.503,4,0,0.00010328,1032.1,3.8742e-05,1.0502,2.6024e-05,-94.503,-0.00010454,-1075.5,1.7758
3499,20.503,4.1818,0,9.2132e-05,920.69,3.3997e-05,0.59202,2.4201e-05,-73.008,-9.3143e-05,-954.69,1.7757
3500,20.503,4.3636,0,8.1435e-05,813.79,2.9109e-05,1.4279,2.3151e-05,-43.342,-8.2056e-05,-833.82,1.7756
3501,20.503,4.5455,0,7.1403e-05,713.54,2.4742e-05,2.8842,2.1815e-05,-19.107,-7.1654e-05,-721.4,1.7755
3502,20.503,4.7273,0,6.2271e-05,622.28,2.149e-05,7.2438,1.9614e-05,-6.8558,-6.2253e-05,-621.97,1.7753
3503,20.503,4.9091,0,5.417e-05,541.32,1.9047e-05,12.053,1.6988e-05,-3.4162,-5.4006e-05,-536.84,1.7752
3504,20.503,5.0909,0,4.7206e-05,471.73,1.6838e-05,13.766,1.4692e-05,-2.364,-4.6991e-05,-465.82,1.7751
3505,20.503,5.2727,0,4.1453e-05,414.24,1.4888e-05,13.443,1.2851e-05,-1.8568,-4.1234e-05,-408.23,1.7749
3506,20.503,5.4545,0,3.6978e-05,369.53,1.3345e-05,12.9,1.1437e-05,-1.4316,-3.6763e-05,-363.59,1.7748
3507,20.503,5.6364,0,3.3874e-05,338.5,1.2361e-05,13.708,1.0415e-05,-0.91033,-3.3632e-05,-331.87,1.7746
3508,20.503,5.8182,0,3.2442e-05,324.2,1.2254e-05,18.391,9.7399e-06,-0.49649,-3.2097e-05,-314.84,1.7745
3509,20.687,0.18182,0,3.6407e-05,363.81,1.3557e-05,18.462,1.1067e-05,-0.25155,-3.6061e-05,-354.35,1.8006
3510,20.687,0.36364,0,3.7544e-05,375.18,1.3579e-05,14.013,1.1645e-05,-0.5228,-3.7294e-05,-368.23,1.8008
3511,20.687,0.54545,0,3.9937e-05,399.09,1.4129e-05,10.806,1.2552e-05,-1.0451,-3.9757e-05,-394.08,1.8009
3512,20.687,0.72727,0,4.3361e-05,433.31,1.5032e-05,7.4477,1.3763e-05,-2.0869,-4.3262e-05,-430.55,1.801
3513,20.687,0.90909,0,4.7772e-05,477.39,1.6348e-05,4.1699,1.5156e-05,-4.7858,-4.7776e-05,-477.63,1.8011
3514,20.687,1.0909,0,5.3095e-05,530.59,1.8268e-05,2.0805,1.6441e-05,-11.643,-5.3245e-05,-535.24,1.8013
3515,20.687,1.2727,0,5.9228e-05,591.87,2.0826e-05,1.1488,1.7454e-05,-24.187,-5.9579e-05,-602.98,1.8014
3516,20.687,1.4545,0,6.6043e-05,659.98,2.3932e-05,0.66718,1.8154e-05,-42.751,-6.6652e-05,-679.95,1.8015
3517,20.687,1.6364,0,7.341e-05,733.59,2.7455e-05,0.34505,1.8608e-05,-66.122,-7.4303e-05,-764.22,1.8016
3518,20.687,1.8182,0,8.1226e-05,811.7,3.1142e-05,0.20105,1.9174e-05,-89.727,-8.2375e-05,-852.72,1.8017
3519,20.687,2,0,8.9254e-05,891.92,3.4591e-05,0.015427,2.0361e-05,-106.91,-9.059e-05,-940.55,1.8018
3520,20.687,2.1818,0,9.702e-05,969.53,3.7447e-05,0.082772,2.2425e-05,-112.79,-9.8443e-05,-1020.9,1.8018
3521,20.687,2.3636,0,0.00010381,1037.3,3.9499e-05,0.35035,2.5066e-05,-108.09,-0.00010521,-1087,1.8019
3522,20.687,2.5455,0,0.000109,1089.3,4.0747e-05,0.40948,2.7654e-05,-97.97,-0.00011033,-1134.7,1.802
3523,20.687,2.7273,0,0.00011239,1123.1,4.1401e-05,0.40177,2.962e-05,-88.109,-0.00011362,-1164.4,1.802
3524,20.687,2.9091,0,0.00011403,1139.5,4.1667e-05,0.38387,3.0656e-05,-82.351,-0.0001152,-1178.2,1.802
3525,20.687,3.0909,0,0.00011403,1139.5,4.1667e-05,0.38387,3.0656e-05,-82.351,-0.0001152,-1178.2,1.802
3526,20.687,3.2727,0,0.00011239,1123.1,4.1401e-05,0.40178,2.962e-05,-88.109,-0.00011362,-1164.4,1.802
3527,20.687,3.4545,0,0.000109,1089.3,4.0747e-05,0.40948,2.7654e-05,-97.971,-0.00011033,-1134.7,1.802
3528,20.687,3.6364,0,0.00010381,1037.3,3.9499e-05,0.35035,2.5066e-05,-108.09,-0.00010521,-1087,1.8019
3529,20.687,3.8182,0,9.702e-05,969.53,3.7447e-05,0.082773,2.2425e-05,-112.79,-9.8443e-05,-1020.9,1.8018
3530,20.687,4,0,8.9254e-05,891.92,3.4591e-05,0.015425,2.0361e-05,-106.91,-9.059e-05,-940.55,1.8018
3531,20.687,4.1818,0,8.1226e-05,811.7,3.1142e-05,0.20104,1.9174e-05,-89.727,-8.2375e-05,-852.72,1.8017
3532,20.687,4.3636,0,7.341e-05,733.59,2.7455e-05,0.34505,1.8608e-05,-66.122,-7.4303e-05,-764.22,1.8016
3533,20.687,4.5455,0,6.6043e-05,659.98,2.3932e-05,0.66718,1.8154e-05,-42.751,-6.6652e-05,-679.95,1.8015
3534,20.687,4.7273,0,5.9228e-05,591.87,2.0826e-05,1.1488,1.7454e-05,-24.187,-5.9579e-05,-602.98,1.8014
3535,20.687,4.9091,0,5.3095e-05,530.59,1.8268e-05,2.0805,1.6441e-05,-11.643,-5.3245e-05,-535.24,1.8013
3536,20.687,5.0909,0,4.7772e-05,477.39,1.6348e-05,4.1699,1.5156e-05,-4.7858,-4.7776e-05,-477.63,1.8011
3537,20.687,5.2727,0,4.3361e-05,433.31,1.5032e-05,7.4477,1.3763e-05,-2.0869,-4.3262e-05,-430.55,1.801
3538,20.687,5.4545,0,3.9937e-05,399.09,1.4129e-05,10.806,1.2552e-05,-1.0451,-3.9757e-05,-394.08,1.8009
3539,20.687,5.6364,0,3.7544e-05,375.18,1.3579e-05,14.013,1.1645e-05,-0.5228,-3.7294e-05,-368.23,1.8008
3540,20.687,5.8182,0,3.6407e-05,363.81,1.3557e-05,18.462,1.1067e-05,-0.25155,-3.6061e-05,-354.35,1.8006
3541,20.871,0.18182,0,3.9119e-05,390.92,1.4398e-05,17.866,1.2004e-05,-0.12441,-3.8786e-05,-381.74,1.8268
3542,20.871,0.36364,0,4.0037e-05,400.09,1.4385e-05,13.931,1.249e-05,-0.30891,-3.9786e-05,-393.09,1.8269
3543,20.871,0.54545,0,4.19e-05,418.72,1.4661e-05,9.5927,1.3289e-05,-0.71377,-4.174e-05,-414.18,1.827
3544,20.871,0.72727,0,4.4515e-05,444.85,1.5164e-05,4.3769,1.4287e-05,-2.2097,-4.4475e-05,-443.73,1.8271
3545,20.871,0.90909,0,4.7859e-05,478.26,1.633e-05,1.492,1.5019e-05,-8.3564,-4.7968e-05,-481.62,1.8272
3546,20.871,1.0909,0,5.1874e-05,518.39,1.8144e-05,0.76749,1.5432e-05,-19.61,-5.2165e-05,-527.51,1.8274
3547,20.871,1.2727,0,5.6476e-05,564.37,2.0376e-05,0.49049,1.5675e-05,-34.834,-5.6977e-05,-580.71,1.8274
3548,20.871,1.4545,0,6.1565e-05,615.23,2.2944e-05,0.34155,1.5758e-05,-53.647,-6.2294e-05,-640.1,1.8275
3549,20.871,1.6364,0,6.705e-05,670.04,2.5737e-05,0.24749,1.5781e-05,-74.556,-6.8e-05,-704.06,1.8276
3550,20.871,1.8182,0,7.2833e-05,727.83,2.8577e-05,0.18455,1.5979e-05,-94.471,-7.3974e-05,-770.34,1.8277
3551,20.871,2,0,7.875e-05,786.96,3.1241e-05,0.19174,1.6633e-05,-109.57,-8.0034e-05,-835.88,1.8278
3552,20.871,2.1818,0,8.4492e-05,844.34,3.3508e-05,0.21365,1.7865e-05,-117.32,-8.5868e-05,-896.73,1.8278
3553,20.871,2.3636,0,8.9633e-05,895.72,3.5249e-05,0.2332,1.9515e-05,-117.98,-9.1049e-05,-948.72,1.8279
3554,20.871,2.5455,0,9.3765e-05,937,3.6448e-05,0.2834,2.1214e-05,-114.18,-9.5176e-05,-988.69,1.8279
3555,20.871,2.7273,0,9.6607e-05,965.4,3.7169e-05,0.31654,2.2573e-05,-109.35,-9.7993e-05,-1015.2,1.828
3556,20.871,2.9091,0,9.8042e-05,979.74,3.7499e-05,0.32475,2.3317e-05,-106.23,-9.9407e-05,-1028.3,1.828
3557,20.871,3.0909,0,9.8042e-05,979.74,3.7499e-05,0.32474,2.3317e-05,-106.23,-9.9407e-05,-1028.3,1.828
3558,20.871,3.2727,0,9.6607e-05,965.4,3.7169e-05,0.31654,2.2573e-05,-109.35,-9.7993e-05,-1015.2,1.828
3559,20.871,3.4545,0,9.3765e-05,937,3.6448e-05,0.2834,2.1214e-05,-114.18,-9.5176e-05,-988.69,1.8279
3560,20.871,3.6364,0,8.9634e-05,895.72,3.5249e-05,0.2332,1.9515e-05,-117.98,-9.1049e-05,-948.72,1.8279
3561,20.871,3.8182,0,8.4492e-05,844.34,3.3508e-05,0.21365,1.7865e-05,-117.32,-8.5868e-05,-896.73,1.8278
3562,20.871,4,0,7.875e-05,786.96,3.1241e-05,0.19174,1.6633e-05,-109.57,-8.0034e-05,-835.88,1.8278
3563,20.871,4.1818,0,7.2833e-05,727.83,2.8577e-05,0.18455,1.5979e-05,-94.471,-7.3974e-05,-770.34,1.8277
3564,20.871,4.3636,0,6.705e-05,670.04,2.5737e-05,0.24749,1.5781e-05,-74.556,-6.8e-05,-704.06,1.8276
3565,20.871,4.5455,0,6.1565e-05,615.23,2.2944e-05,0.34155,1.5758e-05,-53.647,-6.2294e-05,-640.1,1.8275
3566,20.871,4.7273,0,5.6476e-05,564.37,2.0376e-05,0.49049,1.5675e-05,-34.834,-5.6977e-05,-580.71,1.8274
3567,20.871,4.9091,0,5.1874e-05,518.39,1.8144e-05,0.76749,1.5432e-05,-19.61,-5.2165e-05,-527.51,1.8274
3568,20.871,5.0909,0,4.7859e-05,478.26,1.633e-05,1.492,1.5019e-05,-8.3565,-4.7968e-05,-481.62,1.8272
3569,20.871,5.2727,0,4.4515e-05,444.85,1.5164e-05,4.3769,1.4287e-05,-2.2097,-4.4475e-05,-443.73,1.8271
3570,20.871,5.4545,0,4.19e-05,418.72,1.4661e-05,9.5926,1.3289e-05,-0.71377,-4.174e-05,-414.18,1.827
3571,20.871,5.6364,0,4.0037e-05,400.09,1.4385e-05,13.931,1.249e-05,-0.3089,-3.9786e-05,-393.09,1.8269
3572,20.871,5.8182,0,3.9119e-05,390.92,1.4398e-05,17.866,1.2004e-05,-0.12441,-3.8786e-05,-381.74,1.8268
3573,21.055,0.18182,0,4.0691e-05,406.63,1.4833e-05,16.885,1.2578e-05,-0.063054,-4.0378e-05,-397.95,1.8529
3574,21.055,0.36364,0,4.1418e-05,413.89,1.4794e-05,13.435,1.2981e-05,-0.19149,-4.1175e-05,-407.1,1.853
3575,21.055,0.54545,0,4.2865e-05,428.35,1.4894e-05,8.7016,1.3672e-05,-0.47667,-4.2718e-05,-424.17,1.8532
3576,21.055,0.72727,0,4.4852e-05,448.21,1.5141e-05,2.7831,1.4481e-05,-2.1772,-4.484e-05,-447.89,1.8533
3577,21.055,0.90909,0,4.7366e-05,473.34,1.6207e-05,0.76593,1.4721e-05,-10.401,-4.752e-05,-478.06,1.8534
3578,21.055,1.0909,0,5.037e-05,503.35,1.7785e-05,0.42402,1.4662e-05,-23.042,-5.0713e-05,-514.25,1.8535
3579,21.055,1.2727,0,5.3803e-05,537.66,1.9657e-05,0.29284,1.4479e-05,-38.613,-5.4349e-05,-555.76,1.8536
3580,21.055,1.4545,0,5.7597e-05,575.58,2.1752e-05,0.21784,1.4211e-05,-56.439,-5.8344e-05,-601.59,1.8536
3581,21.055,1.6364,0,6.1684e-05,616.41,2.3978e-05,0.16708,1.3954e-05,-75.152,-6.2613e-05,-650.45,1.8537
3582,21.055,1.8182,0,6.5981e-05,659.36,2.6211e-05,0.13503,1.3866e-05,-92.615,-6.7063e-05,-700.69,1.8538
3583,21.055,2,0,7.0361e-05,703.13,2.8305e-05,0.12054,1.4111e-05,-106.52,-7.1562e-05,-750.24,1.8538
3584,21.055,2.1818,0,7.4617e-05,745.66,3.0129e-05,0.13878,1.4752e-05,-115.39,-7.5903e-05,-796.54,1.8539
3585,21.055,2.3636,0,7.847e-05,784.16,3.1591e-05,0.18221,1.5695e-05,-119.25,-7.981e-05,-836.84,1.8539
3586,21.055,2.5455,0,8.1627e-05,815.71,3.2657e-05,0.22241,1.6722e-05,-119.51,-8.2994e-05,-868.73,1.854
3587,21.055,2.7273,0,8.3852e-05,837.94,3.3337e-05,0.25097,1.7577e-05,-118.17,-8.5228e-05,-890.6,1.854
3588,21.055,2.9091,0,8.4998e-05,849.39,3.3666e-05,0.26552,1.8059e-05,-117,-8.6374e-05,-901.67,1.854
3589,21.055,3.0909,0,8.4998e-05,849.39,3.3666e-05,0.26552,1.8059e-05,-117,-8.6374e-05,-901.67,1.854
3590,21.055,3.2727,0,8.3852e-05,837.94,3.3337e-05,0.25096,1.7577e-05,-118.17,-8.5228e-05,-890.6,1.854
3591,21.055,3.4545,0,8.1627e-05,815.71,3.2657e-05,0.22241,1.6722e-05,-119.51,-8.2994e-05,-868.73,1.854
3592,21.055,3.6364,0,7.847e-05,784.16,3.1591e-05,0.18221,1.5695e-05,-119.25,-7.981e-05,-836.84,1.8539
3593,21.055,3.8182,0,7.4617e-05,745.66,3.0129e-05,0.13878,1.4752e-05,-115.39,-7.5903e-05,-796.54,1.8539
3594,21.055,4,0,7.0361e-05,703.13,2.8305e-05,0.12054,1.4111e-05,-106.52,-7.1562e-05,-750.24,1.8538
3595,21.055,4.1818,0,6.5981e-05,659.36,2.6211e-05,0.13503,1.3866e-05,-92.615,-6.7063e-05,-700.69,1.8538
3596,21.055,4.3636,0,6.1684e-05,616.41,2.3978e-05,0.16708,1.3954e-05,-75.152,-6.2613e-05,-650.45,1.8537
3597,21.055,4.5455,0,5.7597e-05,575.58,2.1752e-05,0.21783,1.4211e-05,-56.44,-5.8344e-05,-601.59,1.8536
3598,21.055,4.7273,0,5.3803e-05,537.66,1.9657e-05,0.29284,1.4479e-05,-38.613,-5.4349e-05,-555.76,1.8536
3599,21.055,4.9091,0,5.037e-05,503.35,1.7785e-05,0.42402,1.4662e-05,-23.042,-5.0713e-05,-514.25,1.8535
3600,21.055,5.0909,0,4.7366e-05,473.34,1.6207e-05,0.76593,1.4721e-05,-10.401,-4.752e-05,-478.06,1.8534
3601,21.055,5.2727,0,4.4852e-05,448.21,1.5141e-05,2.7831,1.4481e-05,-2.1772,-4.484e-05,-447.89,1.8533
3602,21.055,5.4545,0,4.2865e-05,428.35,1.4894e-05,8.7015,1.3672e-05,-0.47667,-4.2718e-05,-424.17,1.8532
3603,21.055,5.6364,0,4.1418e-05,413.89,1.4794e-05,13.435,1.2981e-05,-0.19149,-4.1175e-05,-407.1,1.853
3604,21.055,5.8182,0,4.0691e-05,406.63,1.4833e-05,16.885,1.2578e-05,-0.063053,-4.0378e-05,-397.95,1.8529
3605,21.239,0.18182,0,4.1264e-05,412.36,1.4929e-05,15.77,1.2826e-05,-0.031159,-4.0974e-05,-404.26,1.8791
3606,21.239,0.36364,0,4.1817e-05,417.89,1.4863e-05,12.708,1.3155e-05,-0.11977,-4.1589e-05,-411.44,1.8792
3607,21.239,0.54545,0,4.2931e-05,429.01,1.4849e-05,8.0054,1.3743e-05,-0.30758,-4.2794e-05,-425.1,1.8793
3608,21.239,0.72727,0,4.4431e-05,444,1.4921e-05,1.9579,1.4403e-05,-1.9356,-4.4429e-05,-443.98,1.8794
3609,21.239,0.90909,0,4.6309e-05,462.77,1.5852e-05,0.48148,1.4355e-05,-10.768,-4.6474e-05,-467.81,1.8795
3610,21.239,1.0909,0,4.8541e-05,485.08,1.7184e-05,0.2817,1.4039e-05,-23.349,-4.889e-05,-496.18,1.8796
3611,21.239,1.2727,0,5.109e-05,510.55,1.8734e-05,0.20619,1.3621e-05,-38.207,-5.1628e-05,-528.46,1.8797
3612,21.239,1.4545,0,5.3908e-05,538.71,2.0438e-05,0.16404,1.3152e-05,-54.583,-5.4625e-05,-563.83,1.8798
3613,21.239,1.6364,0,5.6945e-05,569.06,2.2225e-05,0.13684,1.2714e-05,-71.324,-5.7819e-05,-601.28,1.8798
3614,21.239,1.8182,0,6.0134e-05,600.93,2.4003e-05,0.12138,1.2419e-05,-86.921,-6.1136e-05,-639.58,1.8799
3615,21.239,2,0,6.3375e-05,633.32,2.5675e-05,0.1202,1.2366e-05,-99.881,-6.4477e-05,-677.25,1.8799
3616,21.239,2.1818,0,6.6521e-05,664.75,2.715e-05,0.13175,1.2593e-05,-109.24,-6.7698e-05,-712.52,1.88
3617,21.239,2.3636,0,6.9377e-05,693.29,2.8361e-05,0.15315,1.3048e-05,-114.9,-7.0609e-05,-743.47,1.88
3618,21.239,2.5455,0,7.1737e-05,716.88,2.9273e-05,0.17974,1.3598e-05,-117.6,-7.3005e-05,-768.29,1.88
3619,21.239,2.7273,0,7.3419e-05,733.68,2.9874e-05,0.20222,1.4081e-05,-118.46,-7.4707e-05,-785.58,1.8801
3620,21.239,2.9091,0,7.4293e-05,742.41,3.0172e-05,0.2145,1.4361e-05,-118.58,-7.5589e-05,-794.43,1.8801
3621,21.239,3.0909,0,7.4293e-05,742.41,3.0172e-05,0.2145,1.4361e-05,-118.58,-7.5589e-05,-794.43,1.8801
3622,21.239,3.2727,0,7.3419e-05,733.68,2.9874e-05,0.20222,1.4081e-05,-118.46,-7.4707e-05,-785.58,1.8801
3623,21.239,3.4545,0,7.1737e-05,716.88,2.9273e-05,0.17974,1.3598e-05,-117.6,-7.3005e-05,-768.29,1.88
3624,21.239,3.6364,0,6.9377e-05,693.29,2.8361e-05,0.15316,1.3048e-05,-114.9,-7.0609e-05,-743.47,1.88
3625,21.239,3.8182,0,6.6521e-05,664.75,2.715e-05,0.13175,1.2593e-05,-109.24,-6.7698e-05,-712.52,1.88
3626,21.239,4,0,6.3375e-05,633.32,2.5675e-05,0.1202,1.2366e-05,-99.881,-6.4477e-05,-677.25,1.8799
3627,21.239,4.1818,0,6.0134e-05,600.93,2.4003e-05,0.12138,1.2419e-05,-86.921,-6.1136e-05,-639.58,1.8799
3628,21.239,4.3636,0,5.6945e-05,569.06,2.2225e-05,0.13684,1.2714e-05,-71.324,-5.7819e-05,-601.28,1.8798
3629,21.239,4.5455,0,5.3908e-05,538.71,2.0438e-05,0.16404,1.3152e-05,-54.583,-5.4625e-05,-563.83,1.8798
3630,21.239,4.7273,0,5.109e-05,510.55,1.8734e-05,0.20619,1.3621e-05,-38.207,-5.1628e-05,-528.46,1.8797
3631,21.239,4.9091,0,4.8541e-05,485.08,1.7184e-05,0.2817,1.4039e-05,-23.349,-4.889e-05,-496.18,1.8796
3632,21.239,5.0909,0,4.6309e-05,462.77,1.5852e-05,0.48148,1.4355e-05,-10.768,-4.6474e-05,-467.81,1.8795
3633,21.239,5.2727,0,4.4431e-05,444,1.4921e-05,1.9579,1.4403e-05,-1.9356,-4.4429e-05,-443.98,1.8794
3634,21.239,5.4545,0,4.2931e-05,429.01,1.4849e-05,8.0054,1.3743e-05,-0.30758,-4.2794e-05,-425.1,1.8793
3635,21.239,5.6364,0,4.1817e-05,417.89,1.4863e-05,12.708,1.3155e-05,-0.11977,-4.1589e-05,-411.44,1.8792
3636,21.239,5.8182,0,4.1264e-05,412.36,1.4929e-05,15.77,1.2826e-05,-0.031157,-4.0974e-05,-404.26,1.8791
3637,21.423,0.18182,0,4.0986e-05,409.58,1.4748e-05,14.702,1.2789e-05,-0.014634,-4.0716e-05,-402.04,1.9053
3638,21.423,0.36364,0,4.1385e-05,413.57,1.4655e-05,11.947,1.3055e-05,-0.073489,-4.117e-05,-407.5,1.9054
3639,21.423,0.54545,0,4.2231e-05,422.02,1.4573e-05,7.5288,1.3546e-05,-0.18664,-4.21e-05,-418.29,1.9055
3640,21.423,0.72727,0,4.3355e-05,433.25,1.4512e-05,1.5846,1.4105e-05,-1.477,-4.3352e-05,-433.19,1.9056
3641,21.423,0.90909,0,4.4749e-05,447.18,1.5286e-05,0.34148,1.3916e-05,-9.9495,-4.4904e-05,-451.9,1.9057
3642,21.423,1.0909,0,4.6399e-05,463.67,1.6393e-05,0.20812,1.3473e-05,-21.727,-4.6726e-05,-474.04,1.9058
3643,21.423,1.2727,0,4.8281e-05,482.48,1.7665e-05,0.15959,1.2938e-05,-35.353,-4.8781e-05,-499.09,1.9059
3644,21.423,1.4545,0,5.0363e-05,503.28,1.905e-05,0.13321,1.2365e-05,-50.098,-5.1024e-05,-526.38,1.9059
3645,21.423,1.6364,0,5.2606e-05,525.7,2.049e-05,0.11678,1.1821e-05,-65.019,-5.3407e-05,-555.12,1.906
3646,21.423,1.8182,0,5.4959e-05,549.21,2.1918e-05,0.10796,1.1388e-05,-79.01,-5.5872e-05,-584.37,1.906
3647,21.423,2,0,5.7345e-05,573.05,2.3262e-05,0.10735,1.1132e-05,-91.034,-5.8345e-05,-613.05,1.9061
3648,21.423,2.1818,0,5.9655e-05,596.14,2.4458e-05,0.11598,1.1081e-05,-100.4,-6.0722e-05,-639.89,1.9061
3649,21.423,2.3636,0,6.1753e-05,617.11,2.5455e-05,0.13189,1.1206e-05,-106.92,-6.2869e-05,-663.5,1.9062
3650,21.423,2.5455,0,6.3492e-05,634.48,2.6218e-05,0.15011,1.1432e-05,-110.95,-6.4642e-05,-682.54,1.9062
3651,21.423,2.7273,0,6.4736e-05,646.91,2.6732e-05,0.16568,1.1657e-05,-113.1,-6.5908e-05,-695.9,1.9062
3652,21.423,2.9091,0,6.5384e-05,653.39,2.6989e-05,0.17456,1.1796e-05,-113.98,-6.6567e-05,-702.77,1.9062
3653,21.423,3.0909,0,6.5384e-05,653.39,2.6989e-05,0.17456,1.1796e-05,-113.98,-6.6567e-05,-702.77,1.9062
3654,21.423,3.2727,0,6.4736e-05,646.91,2.6732e-05,0.16568,1.1657e-05,-113.1,-6.5908e-05,-695.9,1.9062
3655,21.423,3.4545,0,6.3492e-05,634.48,2.6218e-05,0.15011,1.1432e-05,-110.95,-6.4642e-05,-682.54,1.9062
3656,21.423,3.6364,0,6.1753e-05,617.11,2.5455e-05,0.13189,1.1206e-05,-106.92,-6.2869e-05,-663.5,1.9062
3657,21.423,3.8182,0,5.9655e-05,596.14,2.4458e-05,0.11598,1.1081e-05,-100.4,-6.0722e-05,-639.89,1.9061
3658,21.423,4,0,5.7345e-05,573.05,2.3262e-05,0.10735,1.1132e-05,-91.034,-5.8345e-05,-613.05,1.9061
3659,21.423,4.1818,0,5.4959e-05,549.21,2.1918e-05,0.10796,1.1388e-05,-79.01,-5.5872e-05,-584.37,1.906
3660,21.423,4.3636,0,5.2606e-05,525.7,2.049e-05,0.11678,1.1821e-05,-65.019,-5.3407e-05,-555.12,1.906
3661,21.423,4.5455,0,5.0363e-05,503.28,1.905e-05,0.13321,1.2365e-05,-50.098,-5.1024e-05,-526.38,1.9059
3662,21.423,4.7273,0,4.8281e-05,482.48,1.7665e-05,0.15959,1.2938e-05,-35.353,-4.8781e-05,-499.09,1.9059
3663,21.423,4.9091,0,4.6399e-05,463.67,1.6393e-05,0.20812,1.3473e-05,-21.727,-4.6726e-05,-474.04,1.9058
3664,21.423,5.0909,0,4.4749e-05,447.18,1.5286e-05,0.34148,1.3916e-05,-9.9495,-4.4904e-05,-451.9,1.9057
3665,21.423,5.2727,0,4.3355e-05,433.25,1.4512e-05,1.5846,1.4105e-05,-1.477,-4.3352e-05,-433.19,1.9056
3666,21.423,5.4545,0,4.2231e-05,422.02,1.4573e-05,7.5288,1.3546e-05,-0.18664,-4.21e-05,-418.29,1.9055
3667,21.423,5.6364,0,4.1385e-05,413.57,1.4655e-05,11.947,1.3055e-05,-0.073489,-4.117e-05,-407.5,1.9054
3668,21.423,5.8182,0,4.0986e-05,409.58,1.4748e-05,14.702,1.2789e-05,-0.014634,-4.0716e-05,-402.04,1.9053
3669,21.607,0.18182,0,3.9998e-05,399.7,1.4346e-05,13.795,1.2509e-05,-0.0059084,-3.9745e-05,-392.63,1.9316
3670,21.607,0.36364,0,4.0264e-05,402.37,1.4231e-05,11.313,1.2719e-05,-0.042503,-4.0061e-05,-396.61,1.9317
3671,21.607,0.54545,0,4.0899e-05,408.71,1.4113e-05,7.3386,1.3123e-05,-0.10055,-4.0771e-05,-405.04,1.9318
3672,21.607,0.72727,0,4.1736e-05,417.08,1.395e-05,1.6021,1.362e-05,-0.87465,-4.1724e-05,-416.71,1.9319
3673,21.607,0.90909,0,4.2767e-05,427.37,1.4544e-05,0.26713,1.3404e-05,-8.3019,-4.2897e-05,-431.32,1.9319
3674,21.607,1.0909,0,4.398e-05,439.49,1.5453e-05,0.16622,1.2916e-05,-18.9,-4.4267e-05,-448.55,1.932
3675,21.607,1.2727,0,4.536e-05,453.29,1.6492e-05,0.13251,1.2341e-05,-31.057,-4.5806e-05,-467.95,1.9321
3676,21.607,1.4545,0,4.6886e-05,468.54,1.7616e-05,0.11507,1.1728e-05,-44.121,-4.7478e-05,-488.97,1.9321
3677,21.607,1.6364,0,4.853e-05,484.96,1.8779e-05,0.10483,1.1136e-05,-57.323,-4.9247e-05,-511.02,1.9322
3678,21.607,1.8182,0,5.0251e-05,502.16,1.9929e-05,0.09995,1.0623e-05,-69.823,-5.107e-05,-533.36,1.9322
3679,21.607,2,0,5.1992e-05,519.56,2.1014e-05,0.10054,1.024e-05,-80.851,-5.289e-05,-555.18,1.9323
3680,21.607,2.1818,0,5.3673e-05,536.36,2.1984e-05,0.10648,1.001e-05,-89.861,-5.4631e-05,-575.55,1.9323
3681,21.607,2.3636,0,5.5198e-05,551.6,2.28e-05,0.11661,9.9234e-06,-96.636,-5.6199e-05,-593.46,1.9323
3682,21.607,2.5455,0,5.6461e-05,564.22,2.3433e-05,0.12847,9.9364e-06,-101.28,-5.7494e-05,-607.92,1.9324
3683,21.607,2.7273,0,5.7366e-05,573.27,2.3862e-05,0.13882,9.9913e-06,-104.08,-5.8419e-05,-618.09,1.9324
3684,21.607,2.9091,0,5.7839e-05,577.99,2.4079e-05,0.14479,1.0035e-05,-105.38,-5.8901e-05,-623.33,1.9324
3685,21.607,3.0909,0,5.7839e-05,577.99,2.4079e-05,0.14479,1.0035e-05,-105.38,-5.8901e-05,-623.33,1.9324
3686,21.607,3.2727,0,5.7366e-05,573.27,2.3862e-05,0.13882,9.9913e-06,-104.08,-5.8419e-05,-618.09,1.9324
3687,21.607,3.4545,0,5.6461e-05,564.22,2.3433e-05,0.12847,9.9364e-06,-101.28,-5.7494e-05,-607.92,1.9324
3688,21.607,3.6364,0,5.5198e-05,551.6,2.28e-05,0.1166,9.9234e-06,-96.636,-5.6199e-05,-593.46,1.9323
3689,21.607,3.8182,0,5.3673e-05,536.36,2.1984e-05,0.10648,1.001e-05,-89.861,-5.4631e-05,-575.55,1.9323
3690,21.607,4,0,5.1992e-05,519.56,2.1014e-05,0.10054,1.024e-05,-80.851,-5.289e-05,-555.18,1.9323
3691,21.607,4.1818,0,5.0251e-05,502.16,1.9929e-05,0.099952,1.0623e-05,-69.823,-5.107e-05,-533.36,1.9322
3692,21.607,4.3636,0,4.853e-05,484.96,1.8779e-05,0.10483,1.1136e-05,-57.323,-4.9247e-05,-511.02,1.9322
3693,21.607,4.5455,0,4.6886e-05,468.54,1.7616e-05,0.11507,1.1728e-05,-44.121,-4.7478e-05,-488.97,1.9321
3694,21.607,4.7273,0,4.536e-05,453.29,1.6492e-05,0.13251,1.2341e-05,-31.057,-4.5806e-05,-467.95,1.9321
3695,21.607,4.9091,0,4.398e-05,439.49,1.5453e-05,0.16623,1.2916e-05,-18.9,-4.4267e-05,-448.55,1.932
3696,21.607,5.0909,0,4.2767e-05,427.37,1.4544e-05,0.26713,1.3404e-05,-8.3019,-4.2897e-05,-431.32,1.9319
3697,21.607,5.2727,0,4.1736e-05,417.08,1.395e-05,1.6021,1.362e-05,-0.87465,-4.1724e-05,-416.71,1.9319
3698,21.607,5.4545,0,4.0899e-05,408.71,1.4113e-05,7.3386,1.3123e-05,-0.10055,-4.0771e-05,-405.04,1.9318
3699,21.607,5.6364,0,4.0264e-05,402.37,1.4231e-05,11.313,1.2719e-05,-0.042501,-4.0061e-05,-396.61,1.9317
3700,21.607,5.8182,0,3.9998e-05,399.7,1.4346e-05,13.795,1.2509e-05,-0.0059113,-3.9745e-05,-392.63,1.9316
3701,21.791,0.18182,0,3.8427e-05,384,1.3771e-05,13.116,1.2025e-05,-0.0015737,-3.8187e-05,-377.28,1.9578
3702,21.791,0.36364,0,3.8585e-05,385.58,1.3642e-05,10.916,1.2187e-05,-0.022082,-3.8388e-05,-380.02,1.9579
3703,21.791,0.54545,0,3.9057e-05,390.3,1.3516e-05,7.4995,1.2512e-05,-0.041978,-3.8925e-05,-386.52,1.958
3704,21.791,0.72727,0,3.968e-05,396.52,1.3295e-05,2.1874,1.2956e-05,-0.35751,-3.9648e-05,-395.6,1.9581
3705,21.791,0.90909,0,4.0439e-05,404.11,1.3662e-05,0.23451,1.2828e-05,-6.0302,-4.0534e-05,-406.98,1.9582
3706,21.791,1.0909,0,4.1328e-05,412.99,1.4399e-05,0.14245,1.2348e-05,-15.269,-4.1563e-05,-420.34,1.9583
3707,21.791,1.2727,0,4.2334e-05,423.04,1.5242e-05,0.11647,1.1782e-05,-25.875,-4.2712e-05,-435.32,1.9583
3708,21.791,1.4545,0,4.3442e-05,434.12,1.6151e-05,0.10405,1.1176e-05,-37.274,-4.3954e-05,-451.5,1.9584
3709,21.791,1.6364,0,4.4633e-05,446.03,1.709e-05,0.09719,1.0577e-05,-48.841,-4.5261e-05,-468.38,1.9584
3710,21.791,1.8182,0,4.5877e-05,458.45,1.8017e-05,0.094129,1.0031e-05,-59.914,-4.6599e-05,-485.41,1.9585
3711,21.791,2,0,4.7131e-05,470.99,1.8894e-05,0.094669,9.5797e-06,-69.888,-4.7927e-05,-501.97,1.9585
3712,21.791,2.1818,0,4.834e-05,483.06,1.9681e-05,0.098672,9.2456e-06,-78.309,-4.919e-05,-517.37,1.9585
3713,21.791,2.3636,0,4.9433e-05,493.99,2.0347e-05,0.1053,9.0288e-06,-84.931,-5.0324e-05,-530.89,1.9586
3714,21.791,2.5455,0,5.0338e-05,503.04,2.0865e-05,0.11294,8.9096e-06,-89.718,-5.1257e-05,-541.79,1.9586
3715,21.791,2.7273,0,5.0987e-05,509.51,2.122e-05,0.11958,8.8565e-06,-92.776,-5.1923e-05,-549.45,1.9586
3716,21.791,2.9091,0,5.1325e-05,512.89,2.14e-05,0.12343,8.8391e-06,-94.253,-5.227e-05,-553.41,1.9586
3717,21.791,3.0909,0,5.1325e-05,512.89,2.14e-05,0.12343,8.8391e-06,-94.253,-5.227e-05,-553.41,1.9586
3718,21.791,3.2727,0,5.0987e-05,509.51,2.122e-05,0.11958,8.8565e-06,-92.776,-5.1923e-05,-549.45,1.9586
3719,21.791,3.4545,0,5.0338e-05,503.04,2.0865e-05,0.11294,8.9096e-06,-89.718,-5.1257e-05,-541.79,1.9586
3720,21.791,3.6364,0,4.9433e-05,493.99,2.0347e-05,0.1053,9.0288e-06,-84.931,-5.0324e-05,-530.89,1.9586
3721,21.791,3.8182,0,4.834e-05,483.06,1.9681e-05,0.098671,9.2456e-06,-78.309,-4.919e-05,-517.37,1.9585
3722,21.791,4,0,4.7131e-05,470.99,1.8894e-05,0.094669,9.5797e-06,-69.888,-4.7927e-05,-501.97,1.9585
3723,21.791,4.1818,0,4.5877e-05,458.45,1.8017e-05,0.094126,1.0031e-05,-59.914,-4.6599e-05,-485.41,1.9585
3724,21.791,4.3636,0,4.4633e-05,446.03,1.709e-05,0.097192,1.0577e-05,-48.841,-4.5261e-05,-468.38,1.9584
3725,21.791,4.5455,0,4.3442e-05,434.12,1.6151e-05,0.10405,1.1176e-05,-37.274,-4.3954e-05,-451.5,1.9584
3726,21.791,4.7273,0,4.2334e-05,423.04,1.5242e-05,0.11647,1.1782e-05,-25.875,-4.2712e-05,-435.32,1.9583
3727,21.791,4.9091,0,4.1328e-05,412.99,1.4399e-05,0.14245,1.2348e-05,-15.269,-4.1563e-05,-420.34,1.9583
3728,21.791,5.0909,0,4.0439e-05,404.11,1.3662e-05,0.23451,1.2828e-05,-6.0302,-4.0534e-05,-406.98,1.9582
3729,21.791,5.2727,0,3.968e-05,396.52,1.3295e-05,2.1874,1.2956e-05,-0.3575,-3.9648e-05,-395.6,1.9581
3730,21.791,5.4545,0,3.9057e-05,390.3,1.3516e-05,7.4995,1.2512e-05,-0.041974,-3.8925e-05,-386.52,1.958
3731,21.791,5.6364,0,3.8585e-05,385.58,1.3642e-05,10.916,1.2187e-05,-0.022082,-3.8388e-05,-380.02,1.9579
3732,21.791,5.8182,0,3.8427e-05,384,1.3771e-05,13.116,1.2025e-05,-0.0015773,-3.8187e-05,-377.28,1.9578
3733,21.975,0.18182,0,3.6384e-05,363.59,1.3062e-05,12.693,1.1373e-05,-4.238e-05,-3.6152e-05,-357.08,1.9841
3734,21.975,0.36364,0,3.6459e-05,364.33,1.2932e-05,10.826,1.149e-05,-0.0095924,-3.6263e-05,-358.81,1.9842
3735,21.975,0.54545,0,3.6812e-05,367.86,1.2819e-05,8.0601,1.1746e-05,-0.0052778,-3.6668e-05,-363.77,1.9843
3736,21.975,0.72727,0,3.7277e-05,372.52,1.2599e-05,3.5056,1.2119e-05,-0.10295,-3.7218e-05,-370.8,1.9844
3737,21.975,0.90909,0,3.784e-05,378.13,1.267e-05,0.25873,1.2201e-05,-3.26,-3.7889e-05,-379.62,1.9845
3738,21.975,1.0909,0,3.849e-05,384.63,1.3256e-05,0.1326,1.1768e-05,-11.046,-3.8663e-05,-389.96,1.9845
3739,21.975,1.2727,0,3.9218e-05,391.91,1.3934e-05,0.10836,1.1244e-05,-20.097,-3.9519e-05,-401.52,1.9846
3740,21.975,1.4545,0,4.0015e-05,399.88,1.4666e-05,0.098251,1.0675e-05,-29.888,-4.0438e-05,-413.93,1.9846
3741,21.975,1.6364,0,4.0867e-05,408.38,1.5422e-05,0.093047,1.0099e-05,-39.9,-4.1397e-05,-426.82,1.9847
3742,21.975,1.8182,0,4.1751e-05,417.23,1.6169e-05,0.09077,9.5556e-06,-49.6,-4.2371e-05,-439.76,1.9847
3743,21.975,2,0,4.264e-05,426.11,1.6876e-05,0.090983,9.0793e-06,-58.491,-4.333e-05,-452.28,1.9848
3744,21.975,2.1818,0,4.3494e-05,434.64,1.7513e-05,0.093422,8.6929e-06,-66.178,-4.4237e-05,-463.87,1.9848
3745,21.975,2.3636,0,4.4264e-05,442.34,1.8054e-05,0.097506,8.4046e-06,-72.403,-4.5046e-05,-474.01,1.9848
3746,21.975,2.5455,0,4.4901e-05,448.7,1.8477e-05,0.10224,8.209e-06,-77.049,-4.5709e-05,-482.17,1.9848
3747,21.975,2.7273,0,4.5356e-05,453.25,1.8768e-05,0.10636,8.0919e-06,-80.107,-4.6181e-05,-487.9,1.9848
3748,21.975,2.9091,0,4.5594e-05,455.63,1.8915e-05,0.10876,8.0382e-06,-81.618,-4.6427e-05,-490.85,1.9848
3749,21.975,3.0909,0,4.5594e-05,455.63,1.8915e-05,0.10876,8.0382e-06,-81.618,-4.6427e-05,-490.85,1.9848
3750,21.975,3.2727,0,4.5356e-05,453.25,1.8768e-05,0.10637,8.0919e-06,-80.107,-4.6181e-05,-487.9,1.9848
3751,21.975,3.4545,0,4.4901e-05,448.7,1.8477e-05,0.10224,8.209e-06,-77.049,-4.5709e-05,-482.17,1.9848
3752,21.975,3.6364,0,4.4264e-05,442.34,1.8054e-05,0.097509,8.4046e-06,-72.403,-4.5046e-05,-474.01,1.9848
3753,21.975,3.8182,0,4.3494e-05,434.64,1.7513e-05,0.093422,8.6929e-06,-66.178,-4.4237e-05,-463.87,1.9848
3754,21.975,4,0,4.264e-05,426.11,1.6876e-05,0.090983,9.0793e-06,-58.491,-4.333e-05,-452.28,1.9848
3755,21.975,4.1818,0,4.1751e-05,417.23,1.6169e-05,0.090769,9.5555e-06,-49.6,-4.2371e-05,-439.76,1.9847
3756,21.975,4.3636,0,4.0867e-05,408.38,1.5422e-05,0.093047,1.0099e-05,-39.9,-4.1397e-05,-426.82,1.9847
3757,21.975,4.5455,0,4.0015e-05,399.88,1.4666e-05,0.098251,1.0675e-05,-29.888,-4.0438e-05,-413.93,1.9846
3758,21.975,4.7273,0,3.9218e-05,391.91,1.3934e-05,0.10836,1.1244e-05,-20.097,-3.9519e-05,-401.52,1.9846
3759,21.975,4.9091,0,3.849e-05,384.63,1.3256e-05,0.1326,1.1768e-05,-11.046,-3.8663e-05,-389.96,1.9845
3760,21.975,5.0909,0,3.784e-05,378.13,1.267e-05,0.25873,1.2201e-05,-3.26,-3.7889e-05,-379.62,1.9845
3761,21.975,5.2727,0,3.7277e-05,372.52,1.2599e-05,3.5056,1.2119e-05,-0.10294,-3.7218e-05,-370.8,1.9844
3762,21.975,5.4545,0,3.6812e-05,367.86,1.2819e-05,8.0601,1.1746e-05,-0.0052748,-3.6668e-05,-363.77,1.9843
3763,21.975,5.6364,0,3.6459e-05,364.33,1.2932e-05,10.826,1.149e-05,-0.0095908,-3.6263e-05,-358.81,1.9842
3764,21.975,5.8182,0,3.6384e-05,363.59,1.3062e-05,12.693,1.1373e-05,-4.3767e-05,-3.6152e-05,-357.08,1.9841
3765,22.159,0.18182,0,3.3965e-05,339.41,1.225e-05,12.532,1.0582e-05,-0.00063706,-3.3734e-05,-332.97,2.0104
3766,22.159,0.36364,0,3.398e-05,339.57,1.2135e-05,11.079,1.066e-05,-0.0031702,-3.3778e-05,-333.89,2.0105
3767,22.159,0.54545,0,3.4251e-05,342.27,1.2056e-05,9.0533,1.0853e-05,0.015538,-3.4088e-05,-337.65,2.0106
3768,22.159,0.72727,0,3.4608e-05,345.84,1.1877e-05,5.4635,1.1148e-05,-0.01034,-3.4512e-05,-343.08,2.0107
3769,22.159,0.90909,0,3.5031e-05,350.07,1.1653e-05,0.81059,1.1478e-05,-0.50566,-3.5026e-05,-349.92,2.0108
3770,22.159,1.0909,0,3.551e-05,354.85,1.2043e-05,0.14304,1.118e-05,-6.3357,-3.5611e-05,-357.9,2.0108
3771,22.159,1.2727,0,3.6036e-05,360.11,1.2581e-05,0.10828,1.0721e-05,-13.865,-3.625e-05,-366.79,2.0109
3772,22.159,1.4545,0,3.6603e-05,365.77,1.3166e-05,0.0973,1.0209e-05,-22.123,-3.6927e-05,-376.28,2.0109
3773,22.159,1.6364,0,3.7201e-05,371.75,1.3772e-05,0.092208,9.6774e-06,-30.67,-3.7625e-05,-386.08,2.011
3774,22.159,1.8182,0,3.7817e-05,377.9,1.4371e-05,0.089843,9.161e-06,-39.059,-3.8327e-05,-395.87,2.011
3775,22.159,2,0,3.8432e-05,384.05,1.494e-05,0.089422,8.6902e-06,-46.871,-3.9011e-05,-405.28,2.011
3776,22.159,2.1818,0,3.902e-05,389.93,1.5454e-05,0.090573,8.2882e-06,-53.752,-3.9652e-05,-413.96,2.0111
3777,22.159,2.3636,0,3.9549e-05,395.22,1.5892e-05,0.09285,7.9683e-06,-59.441,-4.0221e-05,-421.51,2.0111
3778,22.159,2.5455,0,3.9986e-05,399.58,1.6235e-05,0.095592,7.7344e-06,-63.778,-4.0684e-05,-427.57,2.0111
3779,22.159,2.7273,0,4.0298e-05,402.7,1.6472e-05,0.098024,7.5834e-06,-66.686,-4.1013e-05,-431.82,2.0111
3780,22.159,2.9091,0,4.0461e-05,404.33,1.6592e-05,0.099444,7.5099e-06,-68.142,-4.1184e-05,-434.01,2.0111
3781,22.159,3.0909,0,4.0461e-05,404.33,1.6592e-05,0.099446,7.5099e-06,-68.142,-4.1184e-05,-434.01,2.0111
3782,22.159,3.2727,0,4.0298e-05,402.7,1.6472e-05,0.098023,7.5834e-06,-66.686,-4.1013e-05,-431.82,2.0111
3783,22.159,3.4545,0,3.9986e-05,399.58,1.6235e-05,0.095592,7.7344e-06,-63.778,-4.0684e-05,-427.57,2.0111
3784,22.159,3.6364,0,3.9549e-05,395.22,1.5892e-05,0.092849,7.9683e-06,-59.441,-4.0221e-05,-421.51,2.0111
3785,22.159,3.8182,0,3.902e-05,389.93,1.5454e-05,0.090574,8.2882e-06,-53.752,-3.9652e-05,-413.96,2.0111
3786,22.159,4,0,3.8432e-05,384.05,1.494e-05,0.089421,8.6902e-06,-46.871,-3.9011e-05,-405.28,2.011
3787,22.159,4.1818,0,3.7817e-05,377.9,1.4371e-05,0.089847,9.161e-06,-39.059,-3.8327e-05,-395.87,2.011
3788,22.159,4.3636,0,3.7201e-05,371.75,1.3772e-05,0.092206,9.6774e-06,-30.67,-3.7625e-05,-386.08,2.011
3789,22.159,4.5455,0,3.6603e-05,365.77,1.3166e-05,0.097301,1.0209e-05,-22.123,-3.6927e-05,-376.28,2.0109
3790,22.159,4.7273,0,3.6036e-05,360.11,1.2581e-05,0.10828,1.0721e-05,-13.865,-3.625e-05,-366.79,2.0109
3791,22.159,4.9091,0,3.551e-05,354.85,1.2043e-05,0.14304,1.118e-05,-6.3357,-3.5611e-05,-357.9,2.0108
3792,22.159,5.0909,0,3.5031e-05,350.07,1.1653e-05,0.81061,1.1478e-05,-0.50566,-3.5026e-05,-349.92,2.0108
3793,22.159,5.2727,0,3.4608e-05,345.84,1.1877e-05,5.4635,1.1148e-05,-0.010342,-3.4512e-05,-343.08,2.0107
3794,22.159,5.4545,0,3.4251e-05,342.27,1.2056e-05,9.0533,1.0853e-05,0.015535,-3.4088e-05,-337.65,2.0106
3795,22.159,5.6364,0,3.398e-05,339.57,1.2135e-05,11.079,1.066e-05,-0.0031672,-3.3778e-05,-333.89,2.0105
3796,22.159,5.8182,0,3.3965e-05,339.41,1.225e-05,12.532,1.0582e-05,-0.00063447,-3.3734e-05,-332.97,2.0104
3797,22.343,0.18182,0,3.1248e-05,312.26,1.1361e-05,12.626,9.6798e-06,-0.0030998,-3.1014e-05,-305.76,2.0368
3798,22.343,0.36364,0,3.1228e-05,312.06,1.1277e-05,11.697,9.7203e-06,-0.0011337,-3.1012e-05,-306.05,2.0369
3799,22.343,0.54545,0,3.145e-05,314.28,1.125e-05,10.503,9.8561e-06,0.026491,-3.1258e-05,-308.89,2.0369
3800,22.343,0.72727,0,3.1739e-05,317.17,1.1137e-05,7.9772,1.0078e-05,0.023791,-3.1595e-05,-313.09,2.037
3801,22.343,0.90909,0,3.2069e-05,320.47,1.0928e-05,4.1299,1.0377e-05,-0.010517,-3.1997e-05,-318.39,2.0371
3802,22.343,1.0909,0,3.2429e-05,324.06,1.0793e-05,0.32158,1.0575e-05,-1.3157,-3.2445e-05,-324.56,2.0371
3803,22.343,1.2727,0,3.281e-05,327.87,1.1194e-05,0.12515,1.0214e-05,-7.2416,-3.2925e-05,-331.37,2.0372
3804,22.343,1.4545,0,3.3208e-05,331.85,1.1656e-05,0.10345,9.7719e-06,-14.051,-3.3422e-05,-338.6,2.0373
3805,22.343,1.6364,0,3.3618e-05,335.95,1.2137e-05,0.095668,9.2988e-06,-21.227,-3.3927e-05,-346.01,2.0373
3806,22.343,1.8182,0,3.4034e-05,340.11,1.2615e-05,0.092046,8.8255e-06,-28.383,-3.4426e-05,-353.36,2.0373
3807,22.343,2,0,3.4445e-05,344.21,1.3071e-05,0.090533,8.3804e-06,-35.151,-3.4906e-05,-360.38,2.0374
3808,22.343,2.1818,0,3.4835e-05,348.11,1.3483e-05,0.090435,7.9869e-06,-41.208,-3.535e-05,-366.83,2.0374
3809,22.343,2.3636,0,3.5185e-05,351.61,1.3836e-05,0.091276,7.6619e-06,-46.298,-3.574e-05,-372.41,2.0374
3810,22.343,2.5455,0,3.5473e-05,354.48,1.4113e-05,0.092578,7.4148e-06,-50.239,-3.6057e-05,-376.87,2.0374
3811,22.343,2.7273,0,3.5679e-05,356.54,1.4305e-05,0.093827,7.2498e-06,-52.915,-3.628e-05,-379.98,2.0374
3812,22.343,2.9091,0,3.5786e-05,357.61,1.4402e-05,0.094582,7.1675e-06,-54.266,-3.6396e-05,-381.58,2.0374
3813,22.343,3.0909,0,3.5786e-05,357.61,1.4402e-05,0.094581,7.1675e-06,-54.266,-3.6396e-05,-381.58,2.0374
3814,22.343,3.2727,0,3.5679e-05,356.54,1.4305e-05,0.093827,7.2498e-06,-52.915,-3.628e-05,-379.98,2.0374
3815,22.343,3.4545,0,3.5473e-05,354.48,1.4113e-05,0.092579,7.4148e-06,-50.239,-3.6057e-05,-376.87,2.0374
3816,22.343,3.6364,0,3.5185e-05,351.61,1.3836e-05,0.091276,7.6619e-06,-46.298,-3.574e-05,-372.41,2.0374
3817,22.343,3.8182,0,3.4835e-05,348.11,1.3483e-05,0.090433,7.9869e-06,-41.208,-3.535e-05,-366.83,2.0374
3818,22.343,4,0,3.4445e-05,344.21,1.3071e-05,0.090535,8.3804e-06,-35.151,-3.4906e-05,-360.38,2.0374
3819,22.343,4.1818,0,3.4034e-05,340.11,1.2615e-05,0.092044,8.8255e-06,-28.383,-3.4426e-05,-353.36,2.0373
3820,22.343,4.3636,0,3.3618e-05,335.95,1.2137e-05,0.095669,9.2988e-06,-21.227,-3.3927e-05,-346.01,2.0373
3821,22.343,4.5455,0,3.3208e-05,331.85,1.1656e-05,0.10345,9.7719e-06,-14.051,-3.3422e-05,-338.6,2.0373
3822,22.343,4.7273,0,3.281e-05,327.87,1.1194e-05,0.12515,1.0214e-05,-7.2416,-3.2925e-05,-331.37,2.0372
3823,22.343,4.9091,0,3.2429e-05,324.06,1.0793e-05,0.32159,1.0575e-05,-1.3157,-3.2445e-05,-324.56,2.0371
3824,22.343,5.0909,0,3.2069e-05,320.47,1.0928e-05,4.13,1.0377e-05,-0.01052,-3.1997e-05,-318.39,2.0371
3825,22.343,5.2727,0,3.1739e-05,317.17,1.1137e-05,7.9772,1.0078e-05,0.023788,-3.1595e-05,-313.09,2.037
3826,22.343,5.4545,0,3.145e-05,314.28,1.125e-05,10.503,9.8561e-06,0.026494,-3.1258e-05,-308.89,2.0369
3827,22.343,5.6364,0,3.1228e-05,312.06,1.1277e-05,11.697,9.7203e-06,-0.0011346,-3.1012e-05,-306.05,2.0369
3828,22.343,5.8182,0,3.1248e-05,312.26,1.1361e-05,12.626,9.6798e-06,-0.0030966,-3.1014e-05,-305.76,2.0368
3829,22.528,0.18182,0,2.8299e-05,282.79,1.0414e-05,12.958,8.6887e-06,-0.0073716,-2.8056e-05,-276.09,2.0631
3830,22.528,0.36364,0,2.8267e-05,282.48,1.0382e-05,12.69,8.6925e-06,-0.00189,-2.803e-05,-275.92,2.0632
3831,22.528,0.54545,0,2.8471e-05,284.51,1.0426e-05,12.433,8.7756e-06,0.032611,-2.8239e-05,-278.08,2.0633
3832,22.528,0.72727,0,2.8726e-05,287.06,1.0395e-05,11.039,8.9307e-06,0.03865,-2.8521e-05,-281.36,2.0634
3833,22.528,0.90909,0,2.9001e-05,289.81,1.027e-05,8.4276,9.153e-06,0.037389,-2.8848e-05,-285.49,2.0634
3834,22.528,1.0909,0,2.9282e-05,292.62,1.0053e-05,4.6801,9.4313e-06,0.010721,-2.92e-05,-290.25,2.0635
3835,22.528,1.2727,0,2.9562e-05,295.42,9.8302e-06,0.53523,9.6783e-06,-0.60666,-2.9563e-05,-295.45,2.0635
3836,22.528,1.4545,0,2.9838e-05,298.18,1.0139e-05,0.13551,9.3619e-06,-5.7044,-2.9929e-05,-300.92,2.0636
3837,22.528,1.6364,0,3.0111e-05,300.9,1.0515e-05,0.10852,8.9561e-06,-11.603,-3.0289e-05,-306.48,2.0636
3838,22.528,1.8182,0,3.0378e-05,303.57,1.0893e-05,0.099561,8.5352e-06,-17.615,-3.0637e-05,-311.94,2.0637
3839,22.528,2,0,3.0637e-05,306.16,1.1255e-05,0.095503,8.1279e-06,-23.399,-3.0966e-05,-317.13,2.0637
3840,22.528,2.1818,0,3.088e-05,308.58,1.1584e-05,0.093663,7.758e-06,-28.657,-3.1265e-05,-321.86,2.0637
3841,22.528,2.3636,0,3.1096e-05,310.75,1.1867e-05,0.093063,7.4442e-06,-33.136,-3.1525e-05,-325.93,2.0637
3842,22.528,2.5455,0,3.1274e-05,312.52,1.209e-05,0.093142,7.2e-06,-36.647,-3.1733e-05,-329.18,2.0638
3843,22.528,2.7273,0,3.1401e-05,313.79,1.2244e-05,0.093469,7.0336e-06,-39.055,-3.188e-05,-331.43,2.0638
3844,22.528,2.9091,0,3.1467e-05,314.45,1.2323e-05,0.093722,6.9495e-06,-40.278,-3.1955e-05,-332.59,2.0638
3845,22.528,3.0909,0,3.1467e-05,314.45,1.2323e-05,0.09372,6.9495e-06,-40.278,-3.1955e-05,-332.59,2.0638
3846,22.528,3.2727,0,3.1401e-05,313.79,1.2244e-05,0.093469,7.0336e-06,-39.055,-3.188e-05,-331.43,2.0638
3847,22.528,3.4545,0,3.1274e-05,312.52,1.209e-05,0.09314,7.2e-06,-36.647,-3.1733e-05,-329.18,2.0638
3848,22.528,3.6364,0,3.1096e-05,310.75,1.1867e-05,0.093062,7.4442e-06,-33.136,-3.1525e-05,-325.93,2.0637
3849,22.528,3.8182,0,3.088e-05,308.58,1.1584e-05,0.093663,7.758e-06,-28.657,-3.1265e-05,-321.86,2.0637
3850,22.528,4,0,3.0637e-05,306.16,1.1255e-05,0.095503,8.1279e-06,-23.399,-3.0966e-05,-317.13,2.0637
3851,22.528,4.1818,0,3.0378e-05,303.57,1.0893e-05,0.09956,8.5352e-06,-17.615,-3.0637e-05,-311.94,2.0637
3852,22.528,4.3636,0,3.0111e-05,300.9,1.0515e-05,0.10851,8.9561e-06,-11.603,-3.0289e-05,-306.48,2.0636
3853,22.528,4.5455,0,2.9838e-05,298.18,1.0139e-05,0.1355,9.3619e-06,-5.7044,-2.9929e-05,-300.92,2.0636
3854,22.528,4.7273,0,2.9562e-05,295.42,9.8302e-06,0.53523,9.6783e-06,-0.60664,-2.9563e-05,-295.45,2.0635
3855,22.528,4.9091,0,2.9282e-05,292.62,1.0053e-05,4.6802,9.4313e-06,0.010719,-2.92e-05,-290.25,2.0635
3856,22.528,5.0909,0,2.9001e-05,289.81,1.027e-05,8.4276,9.153e-06,0.03739,-2.8848e-05,-285.49,2.0634
3857,22.528,5.2727,0,2.8726e-05,287.06,1.0395e-05,11.039,8.9307e-06,0.03865,-2.8521e-05,-281.36,2.0634
3858,22.528,5.4545,0,2.8471e-05,284.51,1.0426e-05,12.433,8.7756e-06,0.032614,-2.8239e-05,-278.08,2.0633
3859,22.528,5.6364,0,2.8267e-05,282.48,1.0382e-05,12.69,8.6925e-06,-0.0018876,-2.803e-05,-275.92,2.0632
3860,22.528,5.8182,0,2.8299e-05,282.79,1.0414e-05,12.958,8.6887e-06,-0.0073761,-2.8056e-05,-276.09,2.0631
3861,22.712,0.18182,0,2.517e-05,251.53,9.4269e-06,13.511,7.6269e-06,-0.013676,-2.4914e-05,-244.51,2.0895
3862,22.712,0.36364,0,2.5154e-05,251.36,9.467e-06,14.072,7.5935e-06,-0.0041298,-2.4885e-05,-244.03,2.0896
3863,22.712,0.54545,0,2.5368e-05,253.5,9.6017e-06,14.877,7.6267e-06,0.037355,-2.5081e-05,-245.72,2.0897
3864,22.712,0.72727,0,2.5618e-05,256.01,9.6681e-06,14.681,7.7205e-06,0.047807,-2.5337e-05,-248.33,2.0897
3865,22.712,0.90909,0,2.587e-05,258.52,9.6397e-06,13.331,7.8727e-06,0.054411,-2.5616e-05,-251.57,2.0898
3866,22.712,1.0909,0,2.6104e-05,260.86,9.5121e-06,10.844,8.0761e-06,0.053542,-2.5902e-05,-255.24,2.0899
3867,22.712,1.2727,0,2.6315e-05,262.97,9.2943e-06,7.3595,8.3205e-06,0.042761,-2.6182e-05,-259.19,2.0899
3868,22.712,1.4545,0,2.6505e-05,264.86,9.0087e-06,3.1357,8.5898e-06,-0.012101,-2.645e-05,-263.29,2.0899
3869,22.712,1.6364,0,2.6676e-05,266.58,8.9161e-06,0.23235,8.6331e-06,-1.894,-2.6704e-05,-267.4,2.09
3870,22.712,1.8182,0,2.6833e-05,268.15,9.1991e-06,0.12685,8.2801e-06,-6.7779,-2.694e-05,-271.4,2.09
3871,22.712,2,0,2.6978e-05,269.6,9.4828e-06,0.10909,7.9175e-06,-11.652,-2.7155e-05,-275.18,2.0901
3872,22.712,2.1818,0,2.7111e-05,270.92,9.7436e-06,0.10229,7.5792e-06,-16.16,-2.7348e-05,-278.59,2.0901
3873,22.712,2.3636,0,2.7228e-05,272.09,9.9684e-06,0.099117,7.2862e-06,-20.054,-2.7511e-05,-281.51,2.0901
3874,22.712,2.5455,0,2.7324e-05,273.05,1.0147e-05,0.0976,7.0541e-06,-23.139,-2.7641e-05,-283.83,2.0901
3875,22.712,2.7273,0,2.7392e-05,273.73,1.027e-05,0.09693,6.8937e-06,-25.272,-2.7732e-05,-285.43,2.0901
3876,22.712,2.9091,0,2.7428e-05,274.09,1.0333e-05,0.096688,6.812e-06,-26.361,-2.7778e-05,-286.26,2.0901
3877,22.712,3.0909,0,2.7428e-05,274.09,1.0333e-05,0.096687,6.812e-06,-26.361,-2.7778e-05,-286.26,2.0901
3878,22.712,3.2727,0,2.7392e-05,273.73,1.027e-05,0.096928,6.8937e-06,-25.272,-2.7732e-05,-285.43,2.0901
3879,22.712,3.4545,0,2.7324e-05,273.05,1.0147e-05,0.097602,7.054e-06,-23.139,-2.7641e-05,-283.83,2.0901
3880,22.712,3.6364,0,2.7228e-05,272.09,9.9684e-06,0.099116,7.2862e-06,-20.054,-2.7511e-05,-281.51,2.0901
3881,22.712,3.8182,0,2.7111e-05,270.92,9.7436e-06,0.10229,7.5792e-06,-16.16,-2.7348e-05,-278.59,2.0901
3882,22.712,4,0,2.6978e-05,269.6,9.4828e-06,0.10909,7.9175e-06,-11.652,-2.7155e-05,-275.18,2.0901
3883,22.712,4.1818,0,2.6833e-05,268.15,9.1991e-06,0.12685,8.2801e-06,-6.778,-2.694e-05,-271.4,2.09
3884,22.712,4.3636,0,2.6676e-05,266.58,8.9161e-06,0.23235,8.6331e-06,-1.894,-2.6704e-05,-267.4,2.09
3885,22.712,4.5455,0,2.6505e-05,264.86,9.0087e-06,3.1357,8.5897e-06,-0.012099,-2.645e-05,-263.29,2.0899
3886,22.712,4.7273,0,2.6315e-05,262.97,9.2943e-06,7.3596,8.3205e-06,0.04276,-2.6182e-05,-259.19,2.0899
3887,22.712,4.9091,0,2.6104e-05,260.86,9.5121e-06,10.844,8.0761e-06,0.053541,-2.5902e-05,-255.24,2.0899
3888,22.712,5.0909,0,2.587e-05,258.52,9.6397e-06,13.331,7.8727e-06,0.054409,-2.5616e-05,-251.57,2.0898
3889,22.712,5.2727,0,2.5618e-05,256.01,9.6681e-06,14.682,7.7205e-06,0.047804,-2.5336e-05,-248.33,2.0897
3890,22.712,5.4545,0,2.5368e-05,253.5,9.6018e-06,14.877,7.6267e-06,0.037358,-2.5081e-05,-245.72,2.0897
3891,22.712,5.6364,0,2.5154e-05,251.36,9.467e-06,14.072,7.5935e-06,-0.004126,-2.4885e-05,-244.03,2.0896
3892,22.712,5.8182,0,2.517e-05,251.53,9.4269e-06,13.511,7.6269e-06,-0.013675,-2.4914e-05,-244.51,2.0895
3893,22.896,0.18182,0,2.1908e-05,218.93,8.4111e-06,14.265,6.5096e-06,-0.021777,-2.1631e-05,-211.46,2.1159
3894,22.896,0.36364,0,2.1934e-05,219.18,8.5502e-06,15.87,6.4372e-06,-0.0059212,-2.1621e-05,-210.82,2.116
3895,22.896,0.54545,0,2.2187e-05,221.72,8.7969e-06,17.892,6.4215e-06,0.043939,-2.1828e-05,-212.21,2.116
3896,22.896,0.72727,0,2.2462e-05,224.46,8.975e-06,18.97,6.4578e-06,0.057515,-2.2078e-05,-214.35,2.1161
3897,22.896,0.90909,0,2.2714e-05,226.98,9.0505e-06,18.881,6.5466e-06,0.067637,-2.2333e-05,-216.92,2.1162
3898,22.896,1.0909,0,2.2925e-05,229.09,9.0163e-06,17.609,6.6823e-06,0.07184,-2.2574e-05,-219.75,2.1162
3899,22.896,1.2727,0,2.3092e-05,230.76,8.8806e-06,15.274,6.8574e-06,0.072782,-2.2793e-05,-222.71,2.1163
3900,22.896,1.4545,0,2.322e-05,232.04,8.6616e-06,12.091,7.0618e-06,0.070381,-2.2989e-05,-225.72,2.1163
3901,22.896,1.6364,0,2.3316e-05,233,8.3831e-06,8.3226,7.2838e-06,0.062888,-2.3163e-05,-228.7,2.1164
3902,22.896,1.8182,0,2.3391e-05,233.75,8.0729e-06,4.2689,7.5099e-06,0.038493,-2.3315e-05,-231.57,2.1164
3903,22.896,2,0,2.3451e-05,234.35,7.8031e-06,0.56177,7.6817e-06,-0.34977,-2.3447e-05,-234.24,2.1164
3904,22.896,2.1818,0,2.3501e-05,234.85,7.9534e-06,0.14165,7.432e-06,-3.7761,-2.356e-05,-236.64,2.1164
3905,22.896,2.3636,0,2.3543e-05,235.27,8.1287e-06,0.11682,7.1661e-06,-7.1156,-2.3654e-05,-238.68,2.1165
3906,22.896,2.5455,0,2.3577e-05,235.61,8.2698e-06,0.10914,6.9511e-06,-9.799,-2.3726e-05,-240.3,2.1165
3907,22.896,2.7273,0,2.3601e-05,235.85,8.3681e-06,0.10595,6.8009e-06,-11.67,-2.3776e-05,-241.41,2.1165
3908,22.896,2.9091,0,2.3614e-05,235.98,8.4185e-06,0.10471,6.7237e-06,-12.629,-2.3801e-05,-241.98,2.1165
3909,22.896,3.0909,0,2.3614e-05,235.98,8.4185e-06,0.10471,6.7237e-06,-12.629,-2.3801e-05,-241.98,2.1165
3910,22.896,3.2727,0,2.3601e-05,235.85,8.3681e-06,0.10595,6.8009e-06,-11.67,-2.3776e-05,-241.41,2.1165
3911,22.896,3.4545,0,2.3577e-05,235.61,8.2698e-06,0.10914,6.9511e-06,-9.7991,-2.3726e-05,-240.3,2.1165
3912,22.896,3.6364,0,2.3543e-05,235.27,8.1287e-06,0.11682,7.1661e-06,-7.1156,-2.3654e-05,-238.68,2.1165
3913,22.896,3.8182,0,2.3501e-05,234.85,7.9534e-06,0.14165,7.432e-06,-3.7761,-2.356e-05,-236.64,2.1164
3914,22.896,4,0,2.3451e-05,234.35,7.8031e-06,0.56178,7.6817e-06,-0.34977,-2.3447e-05,-234.24,2.1164
3915,22.896,4.1818,0,2.3391e-05,233.75,8.0729e-06,4.2689,7.5099e-06,0.038491,-2.3315e-05,-231.57,2.1164
3916,22.896,4.3636,0,2.3316e-05,233,8.3831e-06,8.3227,7.2838e-06,0.062888,-2.3163e-05,-228.7,2.1164
3917,22.896,4.5455,0,2.322e-05,232.04,8.6616e-06,12.091,7.0618e-06,0.070378,-2.2989e-05,-225.72,2.1163
3918,22.896,4.7273,0,2.3092e-05,230.76,8.8806e-06,15.275,6.8574e-06,0.07278,-2.2793e-05,-222.71,2.1163
3919,22.896,4.9091,0,2.2925e-05,229.09,9.0163e-06,17.609,6.6823e-06,0.071838,-2.2574e-05,-219.75,2.1162
3920,22.896,5.0909,0,2.2714e-05,226.98,9.0505e-06,18.881,6.5466e-06,0.067635,-2.2333e-05,-216.92,2.1162
3921,22.896,5.2727,0,2.2462e-05,224.46,8.975e-06,18.97,6.4578e-06,0.057515,-2.2078e-05,-214.35,2.1161
3922,22.896,5.4545,0,2.2187e-05,221.72,8.7969e-06,17.892,6.4215e-06,0.043937,-2.1828e-05,-212.21,2.116
3923,22.896,5.6364,0,2.1934e-05,219.18,8.5502e-06,15.87,6.4372e-06,-0.0059214,-2.1621e-05,-210.82,2.116
3924,22.896,5.8182,0,2.1908e-05,218.93,8.4111e-06,14.265,6.5096e-06,-0.021776,-2.1631e-05,-211.46,2.1159
3925,23.08,0.18182,0,1.8548e-05,185.35,7.3775e-06,15.206,5.3492e-06,-0.033725,-1.8243e-05,-177.29,2.1423
3926,23.08,0.36364,0,1.8651e-05,186.38,7.649e-06,18.138,5.2339e-06,-0.0077605,-1.8276e-05,-176.65,2.1424
3927,23.08,0.54545,0,1.8977e-05,189.64,8.0321e-06,21.572,5.168e-06,0.052542,-1.8518e-05,-177.91,2.1424
3928,23.08,0.72727,0,1.9301e-05,192.88,8.3348e-06,24.005,5.1491e-06,0.06885,-1.878e-05,-179.72,2.1425
3929,23.08,0.90909,0,1.9573e-05,195.6,8.5176e-06,25.16,5.1798e-06,0.081395,-1.9023e-05,-181.77,2.1426
3930,23.08,1.0909,0,1.9779e-05,197.65,8.5741e-06,25.02,5.2559e-06,0.087701,-1.9233e-05,-183.91,2.1426
3931,23.08,1.2727,0,1.9918e-05,199.04,8.5156e-06,23.72,5.3709e-06,0.091411,-1.9408e-05,-186.08,2.1427
3932,23.08,1.4545,0,2.0002e-05,199.88,8.3626e-06,21.484,5.5158e-06,0.093347,-1.9549e-05,-188.23,2.1427
3933,23.08,1.6364,0,2.0042e-05,200.29,8.1403e-06,18.575,5.6806e-06,0.094348,-1.9661e-05,-190.31,2.1428
3934,23.08,1.8182,0,2.0054e-05,200.4,7.8753e-06,15.276,5.8548e-06,0.094873,-1.9749e-05,-192.28,2.1428
3935,23.08,2,0,2.0048e-05,200.35,7.594e-06,11.864,6.0277e-06,0.095256,-1.9819e-05,-194.11,2.1428
3936,23.08,2.1818,0,2.0035e-05,200.21,7.3204e-06,8.5944,6.1893e-06,0.095751,-1.9873e-05,-195.73,2.1428
3937,23.08,2.3636,0,2.002e-05,200.06,7.0755e-06,5.6943,6.3305e-06,0.096655,-1.9915e-05,-197.1,2.1429
3938,23.08,2.5455,0,2.0006e-05,199.93,6.8765e-06,3.3503,6.4437e-06,0.098555,-1.9946e-05,-198.18,2.1429
3939,23.08,2.7273,0,1.9997e-05,199.83,6.7362e-06,1.704,6.5231e-06,0.10313,-1.9966e-05,-198.93,2.1429
3940,23.08,2.9091,0,1.9993e-05,199.79,6.6628e-06,0.84875,6.5649e-06,0.11328,-1.9976e-05,-199.31,2.1429
3941,23.08,3.0909,0,1.9993e-05,199.79,6.6628e-06,0.84875,6.5649e-06,0.11328,-1.9976e-05,-199.31,2.1429
3942,23.08,3.2727,0,1.9997e-05,199.83,6.7362e-06,1.704,6.5231e-06,0.10313,-1.9966e-05,-198.93,2.1429
3943,23.08,3.4545,0,2.0006e-05,199.93,6.8765e-06,3.3503,6.4437e-06,0.098555,-1.9946e-05,-198.18,2.1429
3944,23.08,3.6364,0,2.002e-05,200.06,7.0755e-06,5.6943,6.3305e-06,0.096656,-1.9915e-05,-197.1,2.1429
3945,23.08,3.8182,0,2.0035e-05,200.21,7.3204e-06,8.5944,6.1893e-06,0.09575,-1.9873e-05,-195.73,2.1428
3946,23.08,4,0,2.0048e-05,200.35,7.594e-06,11.864,6.0277e-06,0.095254,-1.9819e-05,-194.11,2.1428
3947,23.08,4.1818,0,2.0054e-05,200.4,7.8753e-06,15.276,5.8548e-06,0.094874,-1.9749e-05,-192.28,2.1428
3948,23.08,4.3636,0,2.0042e-05,200.29,8.1403e-06,18.575,5.6806e-06,0.094348,-1.9661e-05,-190.31,2.1428
3949,23.08,4.5455,0,2.0002e-05,199.88,8.3626e-06,21.484,5.5158e-06,0.093345,-1.9549e-05,-188.23,2.1427
3950,23.08,4.7273,0,1.9918e-05,199.04,8.5156e-06,23.72,5.3709e-06,0.09141,-1.9408e-05,-186.08,2.1427
3951,23.08,4.9091,0,1.9779e-05,197.65,8.5741e-06,25.02,5.2559e-06,0.087703,-1.9233e-05,-183.91,2.1426
3952,23.08,5.0909,0,1.9573e-05,195.6,8.5176e-06,25.16,5.1798e-06,0.081395,-1.9023e-05,-181.77,2.1426
3953,23.08,5.2727,0,1.9301e-05,192.88,8.3348e-06,24.005,5.1491e-06,0.068847,-1.878e-05,-179.72,2.1425
3954,23.08,5.4545,0,1.8977e-05,189.64,8.0321e-06,21.573,5.168e-06,0.052547,-1.8518e-05,-177.91,2.1424
3955,23.08,5.6364,0,1.8651e-05,186.38,7.649e-06,18.138,5.2339e-06,-0.0077594,-1.8276e-05,-176.65,2.1424
3956,23.08,5.8182,0,1.8548e-05,185.35,7.3775e-06,15.206,5.3492e-06,-0.033728,-1.8243e-05,-177.29,2.1423
3957,23.264,0.18182,0,1.5125e-05,151.14,6.3362e-06,16.335,4.1564e-06,-0.043277,-1.4781e-05,-142.33,2.1687
3958,23.264,0.36364,0,1.5355e-05,153.44,6.7856e-06,20.995,3.9914e-06,0.0012957,-1.4889e-05,-141.86,2.1688
3959,23.264,0.54545,0,1.5791e-05,157.8,7.3331e-06,26.082,3.872e-06,0.076144,-1.5184e-05,-143.1,2.1689
3960,23.264,0.72727,0,1.6187e-05,161.76,7.7698e-06,29.934,3.7985e-06,0.09524,-1.5469e-05,-144.67,2.1689
3961,23.264,0.90909,0,1.6496e-05,164.84,8.0569e-06,32.279,3.7755e-06,0.11,-1.5707e-05,-146.28,2.169
3962,23.264,1.0909,0,1.6706e-05,166.95,8.1958e-06,33.152,3.7992e-06,0.11777,-1.5893e-05,-147.84,2.169
3963,23.264,1.2727,0,1.6829e-05,168.17,8.2042e-06,32.74,3.8631e-06,0.12286,-1.6031e-05,-149.35,2.1691
3964,23.264,1.4545,0,1.6879e-05,168.68,8.1073e-06,31.297,3.9587e-06,0.12623,-1.6127e-05,-150.79,2.1691
3965,23.264,1.6364,0,1.6877e-05,168.65,7.9326e-06,29.102,4.0766e-06,0.12879,-1.6192e-05,-152.16,2.1692
3966,23.264,1.8182,0,1.6838e-05,168.27,7.7083e-06,26.44,4.2068e-06,0.13104,-1.6231e-05,-153.43,2.1692
3967,23.264,2,0,1.6781e-05,167.69,7.4611e-06,23.586,4.3397e-06,0.13333,-1.6254e-05,-154.6,2.1692
3968,23.264,2.1818,0,1.6716e-05,167.05,7.2152e-06,20.791,4.4662e-06,0.13584,-1.6264e-05,-155.62,2.1692
3969,23.264,2.3636,0,1.6655e-05,166.44,6.9919e-06,18.275,4.5781e-06,0.13862,-1.6268e-05,-156.49,2.1693
3970,23.264,2.5455,0,1.6605e-05,165.93,6.8087e-06,16.222,4.6685e-06,0.14147,-1.6268e-05,-157.17,2.1693
3971,23.264,2.7273,0,1.6569e-05,165.58,6.679e-06,14.773,4.732e-06,0.14394,-1.6267e-05,-157.63,2.1693
3972,23.264,2.9091,0,1.6551e-05,165.39,6.6119e-06,14.025,4.7647e-06,0.14541,-1.6266e-05,-157.87,2.1693
3973,23.264,3.0909,0,1.6551e-05,165.39,6.6119e-06,14.025,4.7647e-06,0.14541,-1.6266e-05,-157.87,2.1693
3974,23.264,3.2727,0,1.6569e-05,165.58,6.679e-06,14.773,4.732e-06,0.14394,-1.6267e-05,-157.63,2.1693
3975,23.264,3.4545,0,1.6605e-05,165.93,6.8087e-06,16.222,4.6685e-06,0.14147,-1.6268e-05,-157.17,2.1693
3976,23.264,3.6364,0,1.6655e-05,166.44,6.9919e-06,18.275,4.5781e-06,0.13862,-1.6268e-05,-156.49,2.1693
3977,23.264,3.8182,0,1.6716e-05,167.05,7.2152e-06,20.791,4.4662e-06,0.13585,-1.6264e-05,-155.62,2.1692
3978,23.264,4,0,1.6781e-05,167.69,7.4611e-06,23.586,4.3397e-06,0.13333,-1.6254e-05,-154.6,2.1692
3979,23.264,4.1818,0,1.6838e-05,168.27,7.7083e-06,26.44,4.2068e-06,0.13104,-1.6231e-05,-153.43,2.1692
3980,23.264,4.3636,0,1.6877e-05,168.65,7.9326e-06,29.102,4.0766e-06,0.12879,-1.6192e-05,-152.16,2.1692
3981,23.264,4.5455,0,1.6879e-05,168.68,8.1073e-06,31.297,3.9587e-06,0.12623,-1.6127e-05,-150.79,2.1691
3982,23.264,4.7273,0,1.6829e-05,168.17,8.2042e-06,32.74,3.8631e-06,0.12286,-1.6031e-05,-149.35,2.1691
3983,23.264,4.9091,0,1.6706e-05,166.95,8.1958e-06,33.152,3.7992e-06,0.11777,-1.5893e-05,-147.84,2.169
3984,23.264,5.0909,0,1.6496e-05,164.84,8.0569e-06,32.279,3.7755e-06,0.11,-1.5707e-05,-146.28,2.169
3985,23.264,5.2727,0,1.6187e-05,161.76,7.7698e-06,29.934,3.7985e-06,0.095238,-1.5469e-05,-144.67,2.1689
3986,23.264,5.4545,0,1.5791e-05,157.8,7.3331e-06,26.082,3.872e-06,0.076147,-1.5184e-05,-143.1,2.1689
3987,23.264,5.6364,0,1.5355e-05,153.44,6.7856e-06,20.995,3.9914e-06,0.0012935,-1.4889e-05,-141.86,2.1688
3988,23.264,5.8182,0,1.5125e-05,151.14,6.3362e-06,16.335,4.1564e-06,-0.04328,-1.4781e-05,-142.33,2.1687
3989,23.448,0.18182,0,1.1676e-05,116.68,5.3003e-06,17.679,2.9374e-06,-0.075745,-1.1274e-05,-106.86,2.1951
3990,23.448,0.36364,0,1.2108e-05,121,5.9941e-06,24.666,2.7106e-06,-0.0051396,-1.1498e-05,-106.76,2.1952
3991,23.448,0.54545,0,1.2699e-05,126.91,6.7341e-06,31.667,2.5307e-06,0.084172,-1.1861e-05,-108.05,2.1953
3992,23.448,0.72727,0,1.3189e-05,131.8,7.3042e-06,36.937,2.4025e-06,0.10741,-1.2167e-05,-109.36,2.1953
3993,23.448,0.90909,0,1.3543e-05,135.33,7.6837e-06,40.348,2.3303e-06,0.12448,-1.2398e-05,-110.54,2.1954
3994,23.448,1.0909,0,1.3765e-05,137.56,7.8898e-06,42.066,2.3089e-06,0.1335,-1.2559e-05,-111.58,2.1954
3995,23.448,1.2727,0,1.3878e-05,138.68,7.9504e-06,42.364,2.3308e-06,0.13974,-1.2664e-05,-112.52,2.1955
3996,23.448,1.4545,0,1.3903e-05,138.93,7.8964e-06,41.54,2.387e-06,0.14403,-1.2723e-05,-113.39,2.1955
3997,23.448,1.6364,0,1.3865e-05,138.55,7.7582e-06,39.896,2.4679e-06,0.14735,-1.2749e-05,-114.18,2.1956
3998,23.448,1.8182,0,1.3785e-05,137.75,7.5651e-06,37.726,2.564e-06,0.15014,-1.275e-05,-114.92,2.1956
3999,23.448,2,0,1.3683e-05,136.74,7.3443e-06,35.303,2.6661e-06,0.1527,-1.2736e-05,-115.58,2.1956
4000,23.448,2.1818,0,1.3576e-05,135.66,7.1205e-06,32.875,2.7657e-06,0.15513,-1.2714e-05,-116.16,2.1957
4001,23.448,2.3636,0,1.3476e-05,134.67,6.9147e-06,30.659,2.8552e-06,0.15744,-1.269e-05,-116.64,2.1957
4002,23.448,2.5455,0,1.3394e-05,133.84,6.7446e-06,28.835,2.9282e-06,0.15949,-1.2668e-05,-117.02,2.1957
4003,23.448,2.7273,0,1.3335e-05,133.26,6.6236e-06,27.54,2.9797e-06,0.16107,-1.2651e-05,-117.28,2.1957
4004,23.448,2.9091,0,1.3305e-05,132.96,6.5608e-06,26.869,3.0063e-06,0.16193,-1.2642e-05,-117.42,2.1957
4005,23.448,3.0909,0,1.3305e-05,132.96,6.5608e-06,26.869,3.0063e-06,0.16193,-1.2642e-05,-117.42,2.1957
4006,23.448,3.2727,0,1.3335e-05,133.26,6.6236e-06,27.54,2.9797e-06,0.16107,-1.2651e-05,-117.28,2.1957
4007,23.448,3.4545,0,1.3394e-05,133.84,6.7446e-06,28.835,2.9282e-06,0.15949,-1.2668e-05,-117.02,2.1957
4008,23.448,3.6364,0,1.3476e-05,134.67,6.9147e-06,30.659,2.8552e-06,0.15744,-1.269e-05,-116.64,2.1957
4009,23.448,3.8182,0,1.3576e-05,135.66,7.1205e-06,32.875,2.7657e-06,0.15513,-1.2714e-05,-116.16,2.1957
4010,23.448,4,0,1.3683e-05,136.74,7.3443e-06,35.303,2.6661e-06,0.1527,-1.2736e-05,-115.58,2.1956
4011,23.448,4.1818,0,1.3785e-05,137.75,7.5651e-06,37.726,2.564e-06,0.15014,-1.275e-05,-114.92,2.1956
4012,23.448,4.3636,0,1.3865e-05,138.55,7.7582e-06,39.896,2.4679e-06,0.14735,-1.2749e-05,-114.18,2.1956
4013,23.448,4.5455,0,1.3903e-05,138.93,7.8964e-06,41.54,2.387e-06,0.14403,-1.2723e-05,-113.39,2.1955
4014,23.448,4.7273,0,1.3878e-05,138.68,7.9504e-06,42.364,2.3308e-06,0.13974,-1.2664e-05,-112.52,2.1955
4015,23.448,4.9091,0,1.3765e-05,137.56,7.8898e-06,42.066,2.3089e-06,0.1335,-1.2559e-05,-111.58,2.1954
4016,23.448,5.0909,0,1.3543e-05,135.33,7.6837e-06,40.348,2.3303e-06,0.12448,-1.2398e-05,-110.54,2.1954
4017,23.448,5.2727,0,1.3189e-05,131.8,7.3042e-06,36.937,2.4025e-06,0.10741,-1.2167e-05,-109.36,2.1953
4018,23.448,5.4545,0,1.2699e-05,126.91,6.7341e-06,31.667,2.5307e-06,0.084174,-1.1861e-05,-108.05,2.1953
4019,23.448,5.6364,0,1.2108e-05,121,5.9941e-06,24.666,2.7106e-06,-0.0051366,-1.1498e-05,-106.76,2.1952
4020,23.448,5.8182,0,1.1676e-05,116.68,5.3003e-06,17.679,2.9374e-06,-0.075744,-1.1274e-05,-106.86,2.1951
4021,23.632,0.18182,0,8.2676e-06,82.619,4.2951e-06,19.419,1.7065e-06,-0.030829,-7.7642e-06,-71.19,2.2216
4022,23.632,0.36364,0,9.0419e-06,90.357,5.3384e-06,29.716,1.3991e-06,0.11811,-8.1629e-06,-71.727,2.2216
4023,23.632,0.54545,0,9.8332e-06,98.264,6.2797e-06,38.774,1.1523e-06,0.24883,-8.5852e-06,-72.915,2.2217
4024,23.632,0.72727,0,1.0426e-05,104.19,6.9616e-06,45.291,9.7036e-07,0.27508,-8.894e-06,-73.842,2.2218
4025,23.632,0.90909,0,1.0829e-05,108.21,7.4087e-06,49.537,8.553e-07,0.29737,-9.1045e-06,-74.536,2.2218
4026,23.632,1.0909,0,1.1068e-05,110.6,7.6607e-06,51.878,7.9742e-07,0.30924,-9.2373e-06,-75.088,2.2219
4027,23.632,1.2727,0,1.1175e-05,111.67,7.756e-06,52.68,7.8702e-07,0.31766,-9.3103e-06,-75.55,2.2219
4028,23.632,1.4545,0,1.118e-05,111.72,7.7301e-06,52.29,8.1383e-07,0.32355,-9.338e-06,-75.953,2.222
4029,23.632,1.6364,0,1.1112e-05,111.04,7.6157e-06,51.029,8.6782e-07,0.32802,-9.3327e-06,-76.315,2.222
4030,23.632,1.8182,0,1.0996e-05,109.88,7.4432e-06,49.199,9.3939e-07,0.33157,-9.305e-06,-76.641,2.222
4031,23.632,2,0,1.0855e-05,108.47,7.2401e-06,47.074,1.0195e-06,0.33453,-9.2642e-06,-76.933,2.2221
4032,23.632,2.1818,0,1.0708e-05,107.01,7.031e-06,44.9,1.1e-06,0.33708,-9.2181e-06,-77.189,2.2221
4033,23.632,2.3636,0,1.0573e-05,105.65,6.837e-06,42.892,1.1736e-06,0.33924,-9.1733e-06,-77.403,2.2221
4034,23.632,2.5455,0,1.0461e-05,104.53,6.6758e-06,41.226,1.2343e-06,0.341,-9.1352e-06,-77.571,2.2221
4035,23.632,2.7273,0,1.0381e-05,103.74,6.5608e-06,40.039,1.2775e-06,0.34225,-9.1075e-06,-77.687,2.2221
4036,23.632,2.9091,0,1.034e-05,103.33,6.501e-06,39.422,1.2999e-06,0.34291,-9.0931e-06,-77.746,2.2221
4037,23.632,3.0909,0,1.034e-05,103.33,6.501e-06,39.422,1.2999e-06,0.34291,-9.0931e-06,-77.746,2.2221
4038,23.632,3.2727,0,1.0381e-05,103.74,6.5608e-06,40.039,1.2775e-06,0.34225,-9.1075e-06,-77.687,2.2221
4039,23.632,3.4545,0,1.0461e-05,104.53,6.6758e-06,41.226,1.2343e-06,0.341,-9.1352e-06,-77.571,2.2221
4040,23.632,3.6364,0,1.0573e-05,105.65,6.8371e-06,42.892,1.1736e-06,0.33924,-9.1733e-06,-77.403,2.2221
4041,23.632,3.8182,0,1.0708e-05,107.01,7.031e-06,44.9,1.1e-06,0.33708,-9.2181e-06,-77.189,2.2221
4042,23.632,4,0,1.0855e-05,108.47,7.2401e-06,47.074,1.0195e-06,0.33453,-9.2642e-06,-76.933,2.2221
4043,23.632,4.1818,0,1.0996e-05,109.88,7.4432e-06,49.199,9.3939e-07,0.33157,-9.305e-06,-76.641,2.222
4044,23.632,4.3636,0,1.1112e-05,111.04,7.6157e-06,51.029,8.6782e-07,0.32802,-9.3327e-06,-76.315,2.222
4045,23.632,4.5455,0,1.118e-05,111.72,7.7301e-06,52.29,8.1383e-07,0.32355,-9.338e-06,-75.953,2.222
4046,23.632,4.7273,0,1.1175e-05,111.67,7.756e-06,52.68,7.8702e-07,0.31767,-9.3103e-06,-75.55,2.2219
4047,23.632,4.9091,0,1.1068e-05,110.6,7.6607e-06,51.878,7.9742e-07,0.30924,-9.2373e-06,-75.088,2.2219
4048,23.632,5.0909,0,1.0829e-05,108.21,7.4087e-06,49.537,8.5529e-07,0.29737,-9.1045e-06,-74.536,2.2218
4049,23.632,5.2727,0,1.0426e-05,104.19,6.9616e-06,45.291,9.7036e-07,0.27508,-8.894e-06,-73.842,2.2218
4050,23.632,5.4545,0,9.8332e-06,98.264,6.2797e-06,38.774,1.1523e-06,0.24883,-8.5852e-06,-72.915,2.2217
4051,23.632,5.6364,0,9.0419e-06,90.357,5.3384e-06,29.716,1.3991e-06,0.11811,-8.1629e-06,-71.727,2.2216
4052,23.632,5.8182,0,8.2676e-06,82.619,4.2951e-06,19.419,1.7065e-06,-0.030831,-7.7642e-06,-71.19,2.2216
4053,23.816,0.18182,0,5.1516e-06,51.48,3.4694e-06,22.522,4.2163e-07,-0.37799,-4.3773e-06,-36.435,2.248
4054,23.816,0.36364,0,6.4462e-06,64.417,4.9439e-06,37.045,-1.9859e-09,-0.11666,-4.9558e-06,-37.338,2.2481
4055,23.816,0.54545,0,7.4357e-06,74.305,6.0244e-06,47.722,-3.1687e-07,0.075635,-5.3707e-06,-37.897,2.2481
4056,23.816,0.72727,0,8.125e-06,81.194,6.766e-06,55.035,-5.4355e-07,0.11373,-5.6468e-06,-38.231,2.2482
4057,23.816,0.90909,0,8.5736e-06,85.677,7.2444e-06,59.766,-6.9019e-07,0.14849,-5.8227e-06,-38.415,2.2483
4058,23.816,1.0909,0,8.8306e-06,88.245,7.5163e-06,62.451,-7.7301e-07,0.1685,-5.9237e-06,-38.532,2.2483
4059,23.816,1.2727,0,8.9364e-06,89.303,7.6262e-06,63.528,-8.0446e-07,0.18335,-5.9677e-06,-38.611,2.2484
4060,23.816,1.4545,0,8.9264e-06,89.202,7.612e-06,63.37,-7.962e-07,0.19409,-5.9689e-06,-38.671,2.2484
4061,23.816,1.6364,0,8.8324e-06,88.263,7.5076e-06,62.313,-7.5887e-07,0.20226,-5.9392e-06,-38.72,2.2484
4062,23.816,1.8182,0,8.6833e-06,86.773,7.3436e-06,60.662,-7.023e-07,0.20854,-5.8891e-06,-38.763,2.2485
4063,23.816,2,0,8.5051e-06,84.992,7.1477e-06,58.693,-6.3551e-07,0.21344,-5.8281e-06,-38.802,2.2485
4064,23.816,2.1818,0,8.3208e-06,83.151,6.9444e-06,56.652,-5.6657e-07,0.21725,-5.7643e-06,-38.837,2.2485
4065,23.816,2.3636,0,8.1498e-06,81.442,6.7551e-06,54.751,-5.0253e-07,0.22015,-5.7046e-06,-38.866,2.2485
4066,23.816,2.5455,0,8.0078e-06,80.023,6.5972e-06,53.166,-4.492e-07,0.22227,-5.6548e-06,-38.89,2.2485
4067,23.816,2.7273,0,7.9066e-06,79.011,6.4844e-06,52.033,-4.1109e-07,0.22366,-5.6191e-06,-38.907,2.2486
4068,23.816,2.9091,0,7.854e-06,78.486,6.4256e-06,51.444,-3.9126e-07,0.22435,-5.6005e-06,-38.916,2.2486
4069,23.816,3.0909,0,7.854e-06,78.486,6.4256e-06,51.444,-3.9126e-07,0.22435,-5.6005e-06,-38.916,2.2486
4070,23.816,3.2727,0,7.9066e-06,79.011,6.4844e-06,52.033,-4.1109e-07,0.22366,-5.6191e-06,-38.907,2.2486
4071,23.816,3.4545,0,8.0078e-06,80.023,6.5972e-06,53.166,-4.492e-07,0.22227,-5.6548e-06,-38.89,2.2485
4072,23.816,3.6364,0,8.1498e-06,81.442,6.7551e-06,54.751,-5.0253e-07,0.22015,-5.7046e-06,-38.866,2.2485
4073,23.816,3.8182,0,8.3208e-06,83.151,6.9444e-06,56.652,-5.6657e-07,0.21725,-5.7643e-06,-38.837,2.2485
4074,23.816,4,0,8.5051e-06,84.992,7.1477e-06,58.693,-6.3551e-07,0.21344,-5.8281e-06,-38.802,2.2485
4075,23.816,4.1818,0,8.6833e-06,86.773,7.3436e-06,60.662,-7.023e-07,0.20854,-5.8891e-06,-38.763,2.2485
4076,23.816,4.3636,0,8.8324e-06,88.263,7.5076e-06,62.313,-7.5887e-07,0.20226,-5.9392e-06,-38.72,2.2484
4077,23.816,4.5455,0,8.9264e-06,89.203,7.612e-06,63.37,-7.962e-07,0.19409,-5.9689e-06,-38.671,2.2484
4078,23.816,4.7273,0,8.9364e-06,89.303,7.6262e-06,63.528,-8.0446e-07,0.18335,-5.9677e-06,-38.611,2.2484
4079,23.816,4.9091,0,8.8306e-06,88.245,7.5163e-06,62.451,-7.7302e-07,0.16849,-5.9237e-06,-38.532,2.2483
4080,23.816,5.0909,0,8.5736e-06,85.677,7.2444e-06,59.766,-6.9019e-07,0.14849,-5.8227e-06,-38.415,2.2483
4081,23.816,5.2727,0,8.125e-06,81.194,6.766e-06,55.035,-5.4355e-07,0.11373,-5.6469e-06,-38.23,2.2482
4082,23.816,5.4545,0,7.4357e-06,74.305,6.0244e-06,47.722,-3.1687e-07,0.075633,-5.3707e-06,-37.897,2.2481
4083,23.816,5.6364,0,6.4462e-06,64.417,4.9439e-06,37.045,-1.9868e-09,-0.11666,-4.9558e-06,-37.338,2.2481
4084,23.816,5.8182,0,5.1516e-06,51.48,3.4694e-06,22.522,4.2163e-07,-0.37799,-4.3773e-06,-36.435,2.248
4085,23.816,5.8182,0.1,5.1516e-06,51.48,4.3773e-06,36.435,-4.2163e-07,0.37799,-3.4694e-06,-22.522,2.248
4086,23.816,5.6364,0.1,6.4462e-06,64.417,4.9558e-06,37.338,1.9855e-09,0.11666,-4.9439e-06,-37.045,2.2481
4087,23.816,5.4545,0.1,7.4357e-06,74.305,5.3707e-06,37.897,3.1687e-07,-0.075631,-6.0244e-06,-47.722,2.2481
4088,23.816,5.2727,0.1,8.125e-06,81.194,5.6469e-06,38.231,5.4355e-07,-0.11372,-6.766e-06,-55.035,2.2482
4089,23.816,5.0909,0.1,8.5736e-06,85.677,5.8227e-06,38.416,6.9019e-07,-0.14849,-7.2444e-06,-59.766,2.2483
4090,23.816,4.9091,0.1,8.8306e-06,88.245,5.9237e-06,38.532,7.7302e-07,-0.16849,-7.5163e-06,-62.451,2.2483
4091,23.816,4.7273,0.1,8.9364e-06,89.303,5.9677e-06,38.611,8.0446e-07,-0.18334,-7.6262e-06,-63.528,2.2484
4092,23.816,4.5455,0.1,8.9264e-06,89.203,5.9689e-06,38.671,7.962e-07,-0.19409,-7.612e-06,-63.37,2.2484
4093,23.816,4.3636,0.1,8.8324e-06,88.263,5.9392e-06,38.72,7.5887e-07,-0.20226,-7.5076e-06,-62.313,2.2484
4094,23.816,4.1818,0.1,8.6833e-06,86.773,5.8891e-06,38.763,7.023e-07,-0.20854,-7.3436e-06,-60.662,2.2485
4095,23.816,4,0.1,8.5051e-06,84.992,5.8281e-06,38.802,6.3551e-07,-0.21344,-7.1477e-06,-58.693,2.2485
4096,23.816,3.8182,0.1,8.3208e-06,83.151,5.7643e-06,38.837,5.6657e-07,-0.21725,-6.9444e-06,-56.652,2.2485
4097,23.816,3.6364,0.1,8.1498e-06,81.442,5.7046e-06,38.866,5.0253e-07,-0.22015,-6.7551e-06,-54.751,2.2485
4098,23.816,3.4545,0.1,8.0078e-06,80.023,5.6548e-06,38.89,4.492e-07,-0.22227,-6.5972e-06,-53.166,2.2485
4099,23.816,3.2727,0.1,7.9066e-06,79.011,5.6191e-06,38.907,4.1108e-07,-0.22366,-6.4844e-06,-52.033,2.2486
4100,23.816,3.0909,0.1,7.854e-06,78.486,5.6005e-06,38.916,3.9125e-07,-0.22435,-6.4256e-06,-51.444,2.2486
4101,23.816,2.9091,0.1,7.854e-06,78.486,5.6005e-06,38.916,3.9125e-07,-0.22435,-6.4256e-06,-51.444,2.2486
4102,23.816,2.7273,0.1,7.9066e-06,79.011,5.6191e-06,38.907,4.1108e-07,-0.22366,-6.4844e-06,-52.033,2.2486
4103,23.816,2.5455,0.1,8.0078e-06,80.023,5.6548e-06,38.89,4.492e-07,-0.22227,-6.5972e-06,-53.166,2.2485
4104,23.816,2.3636,0.1,8.1498e-06,81.442,5.7046e-06,38.866,5.0252e-07,-0.22015,-6.7551e-06,-54.751,2.2485
4105,23.816,2.1818,0.1,8.3208e-06,83.151,5.7643e-06,38.837,5.6657e-07,-0.21725,-6.9444e-06,-56.652,2.2485
4106,23.816,2,0.1,8.5051e-06,84.992,5.8281e-06,38.802,6.355e-07,-0.21344,-7.1477e-06,-58.693,2.2485
4107,23.816,1.8182,0.1,8.6832e-06,86.773,5.8891e-06,38.763,7.023e-07,-0.20854,-7.3436e-06,-60.662,2.2485
4108,23.816,1.6364,0.1,8.8324e-06,88.263,5.9392e-06,38.72,7.5887e-07,-0.20226,-7.5076e-06,-62.313,2.2484
4109,23.816,1.4545,0.1,8.9264e-06,89.202,5.9689e-06,38.671,7.962e-07,-0.19409,-7.612e-06,-63.37,2.2484
4110,23.816,1.2727,0.1,8.9364e-06,89.303,5.9677e-06,38.611,8.0446e-07,-0.18335,-7.6262e-06,-63.528,2.2484
4111,23.816,1.0909,0.1,8.8306e-06,88.245,5.9237e-06,38.532,7.7301e-07,-0.1685,-7.5163e-06,-62.451,2.2483
4112,23.816,0.90909,0.1,8.5736e-06,85.677,5.8227e-06,38.416,6.9019e-07,-0.14849,-7.2444e-06,-59.766,2.2483
4113,23.816,0.72727,0.1,8.125e-06,81.194,5.6469e-06,38.231,5.4354e-07,-0.11373,-6.766e-06,-55.035,2.2482
4114,23.816,0.54545,0.1,7.4357e-06,74.305,5.3707e-06,37.897,3.1687e-07,-0.075633,-6.0244e-06,-47.722,2.2481
4115,23.816,0.36364,0.1,6.4462e-06,64.417,4.9558e-06,37.338,1.9845e-09,0.11666,-4.9439e-06,-37.045,2.2481
4116,23.816,0.18182,0.1,5.1516e-06,51.48,4.3773e-06,36.435,-4.2163e-07,0.37799,-3.4694e-06,-22.522,2.248
4117,23.632,5.8182,0.1,8.2676e-06,82.619,7.7642e-06,71.19,-1.7065e-06,0.03083,-4.2951e-06,-19.419,2.2216
4118,23.632,5.6364,0.1,9.0419e-06,90.357,8.1629e-06,71.727,-1.3991e-06,-0.11811,-5.3384e-06,-29.716,2.2216
4119,23.632,5.4545,0.1,9.8332e-06,98.264,8.5852e-06,72.915,-1.1523e-06,-0.24883,-6.2797e-06,-38.774,2.2217
4120,23.632,5.2727,0.1,1.0426e-05,104.19,8.894e-06,73.842,-9.7036e-07,-0.27508,-6.9616e-06,-45.291,2.2218
4121,23.632,5.0909,0.1,1.0829e-05,108.21,9.1045e-06,74.536,-8.553e-07,-0.29737,-7.4087e-06,-49.537,2.2218
4122,23.632,4.9091,0.1,1.1068e-05,110.6,9.2373e-06,75.088,-7.9742e-07,-0.30924,-7.6607e-06,-51.878,2.2219
4123,23.632,4.7273,0.1,1.1175e-05,111.67,9.3103e-06,75.55,-7.8702e-07,-0.31767,-7.756e-06,-52.68,2.2219
4124,23.632,4.5455,0.1,1.118e-05,111.72,9.338e-06,75.953,-8.1383e-07,-0.32355,-7.7301e-06,-52.29,2.222
4125,23.632,4.3636,0.1,1.1112e-05,111.04,9.3327e-06,76.315,-8.6782e-07,-0.32802,-7.6157e-06,-51.029,2.222
4126,23.632,4.1818,0.1,1.0996e-05,109.88,9.305e-06,76.641,-9.3939e-07,-0.33157,-7.4432e-06,-49.199,2.222
4127,23.632,4,0.1,1.0855e-05,108.47,9.2642e-06,76.933,-1.0195e-06,-0.33453,-7.2401e-06,-47.074,2.2221
4128,23.632,3.8182,0.1,1.0708e-05,107.01,9.2181e-06,77.189,-1.1e-06,-0.33708,-7.031e-06,-44.9,2.2221
4129,23.632,3.6364,0.1,1.0573e-05,105.65,9.1733e-06,77.403,-1.1736e-06,-0.33924,-6.837e-06,-42.892,2.2221
4130,23.632,3.4545,0.1,1.0461e-05,104.53,9.1352e-06,77.571,-1.2343e-06,-0.341,-6.6758e-06,-41.226,2.2221
4131,23.632,3.2727,0.1,1.0381e-05,103.74,9.1075e-06,77.687,-1.2775e-06,-0.34225,-6.5608e-06,-40.039,2.2221
4132,23.632,3.0909,0.1,1.034e-05,103.33,9.0931e-06,77.746,-1.2999e-06,-0.34291,-6.501e-06,-39.422,2.2221
4133,23.632,2.9091,0.1,1.034e-05,103.33,9.0931e-06,77.746,-1.2999e-06,-0.34291,-6.501e-06,-39.422,2.2221
4134,23.632,2.7273,0.1,1.0381e-05,103.74,9.1075e-06,77.687,-1.2775e-06,-0.34225,-6.5608e-06,-40.039,2.2221
4135,23.632,2.5455,0.1,1.0461e-05,104.53,9.1352e-06,77.571,-1.2343e-06,-0.341,-6.6758e-06,-41.226,2.2221
4136,23.632,2.3636,0.1,1.0573e-05,105.65,9.1733e-06,77.403,-1.1736e-06,-0.33924,-6.837e-06,-42.892,2.2221
4137,23.632,2.1818,0.1,1.0708e-05,107.01,9.2181e-06,77.189,-1.1e-06,-0.33708,-7.031e-06,-44.9,2.2221
4138,23.632,2,0.1,1.0855e-05,108.47,9.2642e-06,76.933,-1.0195e-06,-0.33454,-7.2401e-06,-47.074,2.2221
4139,23.632,1.8182,0.1,1.0996e-05,109.88,9.305e-06,76.641,-9.3939e-07,-0.33157,-7.4432e-06,-49.199,2.222
4140,23.632,1.6364,0.1,1.1112e-05,111.04,9.3327e-06,76.315,-8.6783e-07,-0.32802,-7.6157e-06,-51.029,2.222
4141,23.632,1.4545,0.1,1.118e-05,111.72,9.338e-06,75.953,-8.1383e-07,-0.32355,-7.7301e-06,-52.289,2.222
4142,23.632,1.2727,0.1,1.1175e-05,111.67,9.3103e-06,75.55,-7.8703e-07,-0.31767,-7.756e-06,-52.68,2.2219
4143,23.632,1.0909,0.1,1.1068e-05,110.6,9.2373e-06,75.088,-7.9742e-07,-0.30924,-7.6607e-06,-51.878,2.2219
4144,23.632,0.90909,0.1,1.0829e-05,108.21,9.1045e-06,74.536,-8.553e-07,-0.29737,-7.4087e-06,-49.537,2.2218
4145,23.632,0.72727,0.1,1.0426e-05,104.19,8.894e-06,73.842,-9.7036e-07,-0.27508,-6.9616e-06,-45.291,2.2218
4146,23.632,0.54545,0.1,9.8332e-06,98.264,8.5852e-06,72.915,-1.1523e-06,-0.24883,-6.2797e-06,-38.774,2.2217
4147,23.632,0.36364,0.1,9.0419e-06,90.357,8.1629e-06,71.727,-1.3991e-06,-0.11811,-5.3384e-06,-29.716,2.2216
4148,23.632,0.18182,0.1,8.2676e-06,82.619,7.7642e-06,71.19,-1.7065e-06,0.03083,-4.2951e-06,-19.419,2.2216
4149,23.448,5.8182,0.1,1.1676e-05,116.68,1.1274e-05,106.86,-2.9374e-06,0.075743,-5.3003e-06,-17.679,2.1951
4150,23.448,5.6364,0.1,1.2108e-05,121,1.1498e-05,106.76,-2.7106e-06,0.005138,-5.9941e-06,-24.666,2.1952
4151,23.448,5.4545,0.1,1.2699e-05,126.91,1.1861e-05,108.05,-2.5307e-06,-0.084175,-6.7341e-06,-31.667,2.1953
4152,23.448,5.2727,0.1,1.3189e-05,131.8,1.2167e-05,109.36,-2.4025e-06,-0.10741,-7.3042e-06,-36.937,2.1953
4153,23.448,5.0909,0.1,1.3543e-05,135.33,1.2398e-05,110.54,-2.3303e-06,-0.12448,-7.6837e-06,-40.348,2.1954
4154,23.448,4.9091,0.1,1.3765e-05,137.56,1.2559e-05,111.58,-2.3089e-06,-0.1335,-7.8898e-06,-42.066,2.1954
4155,23.448,4.7273,0.1,1.3878e-05,138.68,1.2664e-05,112.52,-2.3308e-06,-0.13974,-7.9504e-06,-42.364,2.1955
4156,23.448,4.5455,0.1,1.3903e-05,138.93,1.2723e-05,113.39,-2.387e-06,-0.14403,-7.8964e-06,-41.54,2.1955
4157,23.448,4.3636,0.1,1.3865e-05,138.55,1.2749e-05,114.18,-2.4679e-06,-0.14735,-7.7582e-06,-39.896,2.1956
4158,23.448,4.1818,0.1,1.3785e-05,137.75,1.275e-05,114.92,-2.564e-06,-0.15015,-7.5651e-06,-37.726,2.1956
4159,23.448,4,0.1,1.3683e-05,136.74,1.2736e-05,115.58,-2.6661e-06,-0.1527,-7.3443e-06,-35.303,2.1956
4160,23.448,3.8182,0.1,1.3576e-05,135.66,1.2714e-05,116.16,-2.7657e-06,-0.15513,-7.1205e-06,-32.875,2.1957
4161,23.448,3.6364,0.1,1.3476e-05,134.67,1.269e-05,116.64,-2.8552e-06,-0.15744,-6.9147e-06,-30.659,2.1957
4162,23.448,3.4545,0.1,1.3394e-05,133.84,1.2668e-05,117.02,-2.9282e-06,-0.15949,-6.7446e-06,-28.835,2.1957
4163,23.448,3.2727,0.1,1.3335e-05,133.26,1.2651e-05,117.28,-2.9797e-06,-0.16107,-6.6236e-06,-27.54,2.1957
4164,23.448,3.0909,0.1,1.3305e-05,132.96,1.2642e-05,117.42,-3.0063e-06,-0.16193,-6.5608e-06,-26.869,2.1957
4165,23.448,2.9091,0.1,1.3305e-05,132.96,1.2642e-05,117.42,-3.0063e-06,-0.16193,-6.5608e-06,-26.869,2.1957
4166,23.448,2.7273,0.1,1.3335e-05,133.26,1.2651e-05,117.28,-2.9797e-06,-0.16107,-6.6236e-06,-27.54,2.1957
4167,23.448,2.5455,0.1,1.3394e-05,133.84,1.2668e-05,117.02,-2.9282e-06,-0.15949,-6.7446e-06,-28.835,2.1957
4168,23.448,2.3636,0.1,1.3476e-05,134.67,1.269e-05,116.64,-2.8552e-06,-0.15744,-6.9147e-06,-30.659,2.1957
4169,23.448,2.1818,0.1,1.3576e-05,135.66,1.2714e-05,116.16,-2.7657e-06,-0.15513,-7.1205e-06,-32.875,2.1957
4170,23.448,2,0.1,1.3683e-05,136.74,1.2736e-05,115.58,-2.6661e-06,-0.1527,-7.3443e-06,-35.303,2.1956
4171,23.448,1.8182,0.1,1.3785e-05,137.75,1.275e-05,114.92,-2.564e-06,-0.15014,-7.5651e-06,-37.726,2.1956
4172,23.448,1.6364,0.1,1.3865e-05,138.55,1.2749e-05,114.18,-2.4679e-06,-0.14735,-7.7582e-06,-39.896,2.1956
4173,23.448,1.4545,0.1,1.3903e-05,138.93,1.2723e-05,113.39,-2.387e-06,-0.14403,-7.8964e-06,-41.54,2.1955
4174,23.448,1.2727,0.1,1.3878e-05,138.68,1.2664e-05,112.52,-2.3308e-06,-0.13974,-7.9504e-06,-42.364,2.1955
4175,23.448,1.0909,0.1,1.3765e-05,137.56,1.2559e-05,111.58,-2.3089e-06,-0.1335,-7.8898e-06,-42.066,2.1954
4176,23.448,0.90909,0.1,1.3543e-05,135.33,1.2398e-05,110.54,-2.3303e-06,-0.12448,-7.6836e-06,-40.348,2.1954
4177,23.448,0.72727,0.1,1.3189e-05,131.8,1.2167e-05,109.36,-2.4025e-06,-0.10741,-7.3042e-06,-36.937,2.1953
4178,23.448,0.54545,0.1,1.2699e-05,126.91,1.1861e-05,108.05,-2.5307e-06,-0.084174,-6.7341e-06,-31.667,2.1953
4179,23.448,0.36364,0.1,1.2108e-05,121,1.1498e-05,106.76,-2.7106e-06,0.0051396,-5.9941e-06,-24.666,2.1952
4180,23.448,0.18182,0.1,1.1676e-05,116.68,1.1274e-05,106.86,-2.9374e-06,0.075743,-5.3003e-06,-17.679,2.1951
4181,23.264,5.8182,0.1,1.5125e-05,151.14,1.4781e-05,142.33,-4.1564e-06,0.043279,-6.3362e-06,-16.335,2.1687
4182,23.264,5.6364,0.1,1.5355e-05,153.44,1.4889e-05,141.86,-3.9914e-06,-0.0012936,-6.7856e-06,-20.995,2.1688
4183,23.264,5.4545,0.1,1.5791e-05,157.8,1.5184e-05,143.1,-3.872e-06,-0.076147,-7.3331e-06,-26.082,2.1689
4184,23.264,5.2727,0.1,1.6187e-05,161.76,1.5469e-05,144.67,-3.7985e-06,-0.095238,-7.7698e-06,-29.934,2.1689
4185,23.264,5.0909,0.1,1.6496e-05,164.84,1.5707e-05,146.28,-3.7755e-06,-0.11,-8.0569e-06,-32.279,2.169
4186,23.264,4.9091,0.1,1.6706e-05,166.95,1.5893e-05,147.84,-3.7992e-06,-0.11776,-8.1958e-06,-33.152,2.169
4187,23.264,4.7273,0.1,1.6829e-05,168.17,1.6031e-05,149.35,-3.8631e-06,-0.12286,-8.2042e-06,-32.74,2.1691
4188,23.264,4.5455,0.1,1.6879e-05,168.68,1.6127e-05,150.79,-3.9587e-06,-0.12623,-8.1073e-06,-31.297,2.1691
4189,23.264,4.3636,0.1,1.6877e-05,168.65,1.6192e-05,152.16,-4.0766e-06,-0.12879,-7.9326e-06,-29.102,2.1692
4190,23.264,4.1818,0.1,1.6838e-05,168.27,1.6231e-05,153.43,-4.2068e-06,-0.13104,-7.7083e-06,-26.44,2.1692
4191,23.264,4,0.1,1.6781e-05,167.69,1.6254e-05,154.6,-4.3397e-06,-0.13333,-7.4611e-06,-23.586,2.1692
4192,23.264,3.8182,0.1,1.6716e-05,167.05,1.6264e-05,155.62,-4.4662e-06,-0.13585,-7.2152e-06,-20.791,2.1692
4193,23.264,3.6364,0.1,1.6655e-05,166.44,1.6268e-05,156.49,-4.5781e-06,-0.13862,-6.9919e-06,-18.275,2.1693
4194,23.264,3.4545,0.1,1.6605e-05,165.93,1.6268e-05,157.17,-4.6685e-06,-0.14147,-6.8087e-06,-16.222,2.1693
4195,23.264,3.2727,0.1,1.6569e-05,165.58,1.6267e-05,157.63,-4.732e-06,-0.14394,-6.679e-06,-14.773,2.1693
4196,23.264,3.0909,0.1,1.6551e-05,165.39,1.6266e-05,157.87,-4.7647e-06,-0.14541,-6.6119e-06,-14.025,2.1693
4197,23.264,2.9091,0.1,1.6551e-05,165.39,1.6266e-05,157.87,-4.7647e-06,-0.14541,-6.6119e-06,-14.025,2.1693
4198,23.264,2.7273,0.1,1.6569e-05,165.58,1.6267e-05,157.63,-4.732e-06,-0.14394,-6.679e-06,-14.773,2.1693
4199,23.264,2.5455,0.1,1.6605e-05,165.93,1.6268e-05,157.17,-4.6685e-06,-0.14147,-6.8087e-06,-16.222,2.1693
4200,23.264,2.3636,0.1,1.6655e-05,166.44,1.6268e-05,156.49,-4.5781e-06,-0.13862,-6.9919e-06,-18.275,2.1693
4201,23.264,2.1818,0.1,1.6716e-05,167.05,1.6264e-05,155.62,-4.4662e-06,-0.13585,-7.2152e-06,-20.791,2.1692
4202,23.264,2,0.1,1.6781e-05,167.69,1.6254e-05,154.6,-4.3397e-06,-0.13333,-7.4611e-06,-23.586,2.1692
4203,23.264,1.8182,0.1,1.6838e-05,168.27,1.6231e-05,153.43,-4.2068e-06,-0.13104,-7.7083e-06,-26.44,2.1692
4204,23.264,1.6364,0.1,1.6877e-05,168.65,1.6192e-05,152.16,-4.0766e-06,-0.12879,-7.9326e-06,-29.102,2.1692
4205,23.264,1.4545,0.1,1.6879e-05,168.68,1.6127e-05,150.79,-3.9587e-06,-0.12623,-8.1073e-06,-31.297,2.1691
4206,23.264,1.2727,0.1,1.6829e-05,168.17,1.6031e-05,149.35,-3.8631e-06,-0.12286,-8.2042e-06,-32.74,2.1691
4207,23.264,1.0909,0.1,1.6706e-05,166.95,1.5893e-05,147.84,-3.7992e-06,-0.11777,-8.1958e-06,-33.152,2.169
4208,23.264,0.90909,0.1,1.6496e-05,164.84,1.5707e-05,146.28,-3.7755e-06,-0.11,-8.0569e-06,-32.279,2.169
4209,23.264,0.72727,0.1,1.6187e-05,161.76,1.5469e-05,144.67,-3.7985e-06,-0.095239,-7.7698e-06,-29.934,2.1689
4210,23.264,0.54545,0.1,1.5791e-05,157.8,1.5184e-05,143.1,-3.872e-06,-0.076144,-7.3331e-06,-26.082,2.1689
4211,23.264,0.36364,0.1,1.5355e-05,153.44,1.4889e-05,141.86,-3.9914e-06,-0.0012933,-6.7856e-06,-20.995,2.1688
4212,23.264,0.18182,0.1,1.5125e-05,151.14,1.4781e-05,142.33,-4.1564e-06,0.043274,-6.3362e-06,-16.335,2.1687
4213,23.08,5.8182,0.1,1.8548e-05,185.35,1.8243e-05,177.29,-5.3492e-06,0.033729,-7.3775e-06,-15.206,2.1423
4214,23.08,5.6364,0.1,1.8651e-05,186.38,1.8276e-05,176.65,-5.2339e-06,0.0077624,-7.649e-06,-18.138,2.1424
4215,23.08,5.4545,0.1,1.8977e-05,189.64,1.8518e-05,177.91,-5.168e-06,-0.052547,-8.0321e-06,-21.572,2.1424
4216,23.08,5.2727,0.1,1.9301e-05,192.88,1.878e-05,179.72,-5.1491e-06,-0.068846,-8.3348e-06,-24.005,2.1425
4217,23.08,5.0909,0.1,1.9573e-05,195.6,1.9023e-05,181.77,-5.1798e-06,-0.081396,-8.5176e-06,-25.16,2.1426
4218,23.08,4.9091,0.1,1.9779e-05,197.65,1.9233e-05,183.91,-5.2559e-06,-0.087703,-8.5741e-06,-25.02,2.1426
4219,23.08,4.7273,0.1,1.9918e-05,199.04,1.9408e-05,186.08,-5.3709e-06,-0.091409,-8.5156e-06,-23.72,2.1427
4220,23.08,4.5455,0.1,2.0002e-05,199.88,1.9549e-05,188.23,-5.5158e-06,-0.093346,-8.3626e-06,-21.484,2.1427
4221,23.08,4.3636,0.1,2.0042e-05,200.29,1.9661e-05,190.31,-5.6806e-06,-0.094348,-8.1403e-06,-18.575,2.1428
4222,23.08,4.1818,0.1,2.0054e-05,200.4,1.9749e-05,192.28,-5.8548e-06,-0.094873,-7.8753e-06,-15.276,2.1428
4223,23.08,4,0.1,2.0048e-05,200.35,1.9819e-05,194.11,-6.0277e-06,-0.095255,-7.594e-06,-11.864,2.1428
4224,23.08,3.8182,0.1,2.0035e-05,200.21,1.9873e-05,195.73,-6.1893e-06,-0.095749,-7.3204e-06,-8.5944,2.1428
4225,23.08,3.6364,0.1,2.002e-05,200.06,1.9915e-05,197.1,-6.3305e-06,-0.096655,-7.0755e-06,-5.6943,2.1429
4226,23.08,3.4545,0.1,2.0006e-05,199.93,1.9946e-05,198.18,-6.4437e-06,-0.098555,-6.8765e-06,-3.3503,2.1429
4227,23.08,3.2727,0.1,1.9997e-05,199.83,1.9966e-05,198.93,-6.5231e-06,-0.10313,-6.7362e-06,-1.7039,2.1429
4228,23.08,3.0909,0.1,1.9993e-05,199.79,1.9976e-05,199.31,-6.5649e-06,-0.11328,-6.6628e-06,-0.84872,2.1429
4229,23.08,2.9091,0.1,1.9993e-05,199.79,1.9976e-05,199.31,-6.5649e-06,-0.11328,-6.6628e-06,-0.84872,2.1429
4230,23.08,2.7273,0.1,1.9997e-05,199.83,1.9966e-05,198.93,-6.5231e-06,-0.10313,-6.7362e-06,-1.7039,2.1429
4231,23.08,2.5455,0.1,2.0006e-05,199.93,1.9946e-05,198.18,-6.4437e-06,-0.098554,-6.8765e-06,-3.3503,2.1429
4232,23.08,2.3636,0.1,2.002e-05,200.06,1.9915e-05,197.1,-6.3305e-06,-0.096654,-7.0755e-06,-5.6943,2.1429
4233,23.08,2.1818,0.1,2.0035e-05,200.21,1.9873e-05,195.73,-6.1893e-06,-0.095749,-7.3204e-06,-8.5944,2.1428
4234,23.08,2,0.1,2.0048e-05,200.35,1.9819e-05,194.11,-6.0277e-06,-0.095254,-7.594e-06,-11.864,2.1428
4235,23.08,1.8182,0.1,2.0054e-05,200.4,1.9749e-05,192.28,-5.8548e-06,-0.094874,-7.8753e-06,-15.276,2.1428
4236,23.08,1.6364,0.1,2.0042e-05,200.29,1.9661e-05,190.31,-5.6806e-06,-0.09435,-8.1403e-06,-18.575,2.1428
4237,23.08,1.4545,0.1,2.0002e-05,199.88,1.9549e-05,188.23,-5.5158e-06,-0.093347,-8.3626e-06,-21.484,2.1427
4238,23.08,1.2727,0.1,1.9918e-05,199.04,1.9408e-05,186.08,-5.3709e-06,-0.09141,-8.5156e-06,-23.72,2.1427
4239,23.08,1.0909,0.1,1.9779e-05,197.65,1.9233e-05,183.91,-5.2559e-06,-0.087701,-8.5741e-06,-25.019,2.1426
4240,23.08,0.90909,0.1,1.9573e-05,195.6,1.9023e-05,181.77,-5.1798e-06,-0.081397,-8.5175e-06,-25.16,2.1426
4241,23.08,0.72727,0.1,1.9301e-05,192.88,1.878e-05,179.72,-5.1491e-06,-0.068847,-8.3348e-06,-24.005,2.1425
4242,23.08,0.54545,0.1,1.8977e-05,189.64,1.8518e-05,177.91,-5.168e-06,-0.052541,-8.0321e-06,-21.572,2.1424
4243,23.08,0.36364,0.1,1.8651e-05,186.38,1.8276e-05,176.65,-5.2339e-06,0.007761,-7.649e-06,-18.138,2.1424
4244,23.08,0.18182,0.1,1.8548e-05,185.35,1.8243e-05,177.29,-5.3492e-06,0.033724,-7.3775e-06,-15.206,2.1423
4245,22.896,5.8182,0.1,2.1908e-05,218.93,2.1631e-05,211.46,-6.5096e-06,0.021776,-8.4111e-06,-14.265,2.1159
4246,22.896,5.6364,0.1,2.1934e-05,219.18,2.1621e-05,210.82,-6.4372e-06,0.0059214,-8.5502e-06,-15.87,2.116
4247,22.896,5.4545,0.1,2.2187e-05,221.72,2.1828e-05,212.21,-6.4215e-06,-0.043937,-8.7969e-06,-17.892,2.116
4248,22.896,5.2727,0.1,2.2462e-05,224.46,2.2078e-05,214.35,-6.4578e-06,-0.057515,-8.975e-06,-18.97,2.1161
4249,22.896,5.0909,0.1,2.2714e-05,226.98,2.2333e-05,216.92,-6.5466e-06,-0.067633,-9.0505e-06,-18.881,2.1162
4250,22.896,4.9091,0.1,2.2925e-05,229.09,2.2574e-05,219.75,-6.6823e-06,-0.071838,-9.0163e-06,-17.609,2.1162
4251,22.896,4.7273,0.1,2.3092e-05,230.76,2.2793e-05,222.71,-6.8574e-06,-0.072779,-8.8806e-06,-15.274,2.1163
4252,22.896,4.5455,0.1,2.322e-05,232.04,2.2989e-05,225.72,-7.0618e-06,-0.070378,-8.6616e-06,-12.091,2.1163
4253,22.896,4.3636,0.1,2.3316e-05,233,2.3163e-05,228.7,-7.2838e-06,-0.062886,-8.3831e-06,-8.3226,2.1164
4254,22.896,4.1818,0.1,2.3391e-05,233.75,2.3315e-05,231.57,-7.5099e-06,-0.038492,-8.0729e-06,-4.2689,2.1164
4255,22.896,4,0.1,2.3451e-05,234.35,2.3447e-05,234.24,-7.6817e-06,0.34978,-7.803e-06,-0.56176,2.1164
4256,22.896,3.8182,0.1,2.3501e-05,234.85,2.356e-05,236.64,-7.432e-06,3.7761,-7.9534e-06,-0.14165,2.1164
4257,22.896,3.6364,0.1,2.3543e-05,235.27,2.3654e-05,238.68,-7.1661e-06,7.1156,-8.1287e-06,-0.11682,2.1165
4258,22.896,3.4545,0.1,2.3577e-05,235.61,2.3726e-05,240.3,-6.9511e-06,9.7991,-8.2698e-06,-0.10914,2.1165
4259,22.896,3.2727,0.1,2.3601e-05,235.85,2.3776e-05,241.41,-6.8009e-06,11.67,-8.3681e-06,-0.10595,2.1165
4260,22.896,3.0909,0.1,2.3614e-05,235.98,2.3801e-05,241.98,-6.7237e-06,12.629,-8.4185e-06,-0.10471,2.1165
4261,22.896,2.9091,0.1,2.3614e-05,235.98,2.3801e-05,241.98,-6.7237e-06,12.629,-8.4185e-06,-0.10471,2.1165
4262,22.896,2.7273,0.1,2.3601e-05,235.85,2.3776e-05,241.41,-6.8009e-06,11.67,-8.3681e-06,-0.10595,2.1165
4263,22.896,2.5455,0.1,2.3577e-05,235.61,2.3726e-05,240.3,-6.9511e-06,9.7991,-8.2698e-06,-0.10914,2.1165
4264,22.896,2.3636,0.1,2.3543e-05,235.27,2.3654e-05,238.68,-7.1661e-06,7.1156,-8.1287e-06,-0.11682,2.1165
4265,22.896,2.1818,0.1,2.3501e-05,234.85,2.356e-05,236.64,-7.432e-06,3.7761,-7.9534e-06,-0.14165,2.1164
4266,22.896,2,0.1,2.3451e-05,234.35,2.3447e-05,234.24,-7.6817e-06,0.34978,-7.8031e-06,-0.56176,2.1164
4267,22.896,1.8182,0.1,2.3391e-05,233.75,2.3315e-05,231.57,-7.5099e-06,-0.038491,-8.0729e-06,-4.2689,2.1164
4268,22.896,1.6364,0.1,2.3316e-05,233,2.3163e-05,228.7,-7.2838e-06,-0.062887,-8.3831e-06,-8.3226,2.1164
4269,22.896,1.4545,0.1,2.322e-05,232.04,2.2989e-05,225.72,-7.0618e-06,-0.070379,-8.6616e-06,-12.091,2.1163
4270,22.896,1.2727,0.1,2.3092e-05,230.76,2.2793e-05,222.71,-6.8574e-06,-0.072781,-8.8806e-06,-15.274,2.1163
4271,22.896,1.0909,0.1,2.2925e-05,229.09,2.2574e-05,219.75,-6.6823e-06,-0.071839,-9.0163e-06,-17.609,2.1162
4272,22.896,0.90909,0.1,2.2714e-05,226.98,2.2333e-05,216.92,-6.5466e-06,-0.067635,-9.0505e-06,-18.881,2.1162
4273,22.896,0.72727,0.1,2.2462e-05,224.46,2.2078e-05,214.35,-6.4578e-06,-0.057515,-8.9749e-06,-18.97,2.1161
4274,22.896,0.54545,0.1,2.2187e-05,221.72,2.1828e-05,212.21,-6.4215e-06,-0.043938,-8.7969e-06,-17.892,2.116
4275,22.896,0.36364,0.1,2.1934e-05,219.18,2.1621e-05,210.82,-6.4372e-06,0.005924,-8.5502e-06,-15.87,2.116
4276,22.896,0.18182,0.1,2.1908e-05,218.93,2.1631e-05,211.46,-6.5096e-06,0.021778,-8.4111e-06,-14.265,2.1159
4277,22.712,5.8182,0.1,2.517e-05,251.53,2.4914e-05,244.51,-7.6269e-06,0.013677,-9.4269e-06,-13.511,2.0895
4278,22.712,5.6364,0.1,2.5154e-05,251.36,2.4885e-05,244.03,-7.5935e-06,0.0041267,-9.467e-06,-14.072,2.0896
4279,22.712,5.4545,0.1,2.5368e-05,253.5,2.5081e-05,245.72,-7.6267e-06,-0.037358,-9.6017e-06,-14.877,2.0897
4280,22.712,5.2727,0.1,2.5618e-05,256.01,2.5336e-05,248.33,-7.7205e-06,-0.047802,-9.6681e-06,-14.682,2.0897
4281,22.712,5.0909,0.1,2.587e-05,258.52,2.5616e-05,251.57,-7.8727e-06,-0.054409,-9.6397e-06,-13.331,2.0898
4282,22.712,4.9091,0.1,2.6104e-05,260.86,2.5902e-05,255.24,-8.0761e-06,-0.053542,-9.5121e-06,-10.844,2.0899
4283,22.712,4.7273,0.1,2.6315e-05,262.97,2.6182e-05,259.19,-8.3205e-06,-0.042761,-9.2943e-06,-7.3595,2.0899
4284,22.712,4.5455,0.1,2.6505e-05,264.86,2.645e-05,263.29,-8.5898e-06,0.012096,-9.0087e-06,-3.1357,2.0899
4285,22.712,4.3636,0.1,2.6676e-05,266.58,2.6704e-05,267.4,-8.6331e-06,1.8941,-8.9161e-06,-0.23235,2.09
4286,22.712,4.1818,0.1,2.6833e-05,268.15,2.694e-05,271.4,-8.2801e-06,6.778,-9.1991e-06,-0.12685,2.09
4287,22.712,4,0.1,2.6978e-05,269.6,2.7155e-05,275.18,-7.9175e-06,11.652,-9.4828e-06,-0.10909,2.0901
4288,22.712,3.8182,0.1,2.7111e-05,270.92,2.7348e-05,278.59,-7.5792e-06,16.16,-9.7436e-06,-0.10229,2.0901
4289,22.712,3.6364,0.1,2.7228e-05,272.09,2.7511e-05,281.51,-7.2862e-06,20.054,-9.9684e-06,-0.099115,2.0901
4290,22.712,3.4545,0.1,2.7324e-05,273.05,2.7641e-05,283.83,-7.054e-06,23.139,-1.0147e-05,-0.097601,2.0901
4291,22.712,3.2727,0.1,2.7392e-05,273.73,2.7732e-05,285.43,-6.8937e-06,25.272,-1.027e-05,-0.096928,2.0901
4292,22.712,3.0909,0.1,2.7428e-05,274.09,2.7778e-05,286.26,-6.812e-06,26.361,-1.0333e-05,-0.096687,2.0901
4293,22.712,2.9091,0.1,2.7428e-05,274.09,2.7778e-05,286.26,-6.812e-06,26.361,-1.0333e-05,-0.096687,2.0901
4294,22.712,2.7273,0.1,2.7392e-05,273.73,2.7732e-05,285.43,-6.8937e-06,25.272,-1.027e-05,-0.09693,2.0901
4295,22.712,2.5455,0.1,2.7324e-05,273.05,2.7641e-05,283.83,-7.054e-06,23.139,-1.0147e-05,-0.0976,2.0901
4296,22.712,2.3636,0.1,2.7228e-05,272.09,2.7511e-05,281.51,-7.2862e-06,20.054,-9.9684e-06,-0.099116,2.0901
4297,22.712,2.1818,0.1,2.7111e-05,270.92,2.7348e-05,278.59,-7.5792e-06,16.16,-9.7436e-06,-0.10229,2.0901
4298,22.712,2,0.1,2.6978e-05,269.6,2.7155e-05,275.18,-7.9175e-06,11.652,-9.4828e-06,-0.10909,2.0901
4299,22.712,1.8182,0.1,2.6833e-05,268.15,2.694e-05,271.4,-8.2801e-06,6.778,-9.1991e-06,-0.12685,2.09
4300,22.712,1.6364,0.1,2.6676e-05,266.58,2.6704e-05,267.4,-8.6331e-06,1.8941,-8.9161e-06,-0.23235,2.09
4301,22.712,1.4545,0.1,2.6505e-05,264.86,2.645e-05,263.29,-8.5898e-06,0.012103,-9.0087e-06,-3.1356,2.0899
4302,22.712,1.2727,0.1,2.6315e-05,262.97,2.6182e-05,259.19,-8.3205e-06,-0.042761,-9.2943e-06,-7.3595,2.0899
4303,22.712,1.0909,0.1,2.6104e-05,260.86,2.5902e-05,255.24,-8.0761e-06,-0.053542,-9.5121e-06,-10.844,2.0899
4304,22.712,0.90909,0.1,2.587e-05,258.52,2.5616e-05,251.57,-7.8727e-06,-0.05441,-9.6397e-06,-13.331,2.0898
4305,22.712,0.72727,0.1,2.5618e-05,256.01,2.5337e-05,248.33,-7.7205e-06,-0.047805,-9.6681e-06,-14.681,2.0897
4306,22.712,0.54545,0.1,2.5368e-05,253.5,2.5081e-05,245.72,-7.6268e-06,-0.037356,-9.6017e-06,-14.877,2.0897
4307,22.712,0.36364,0.1,2.5154e-05,251.36,2.4885e-05,244.03,-7.5935e-06,0.0041283,-9.467e-06,-14.072,2.0896
4308,22.712,0.18182,0.1,2.517e-05,251.53,2.4914e-05,244.51,-7.6269e-06,0.013677,-9.4269e-06,-13.511,2.0895
4309,22.528,5.8182,0.1,2.8299e-05,282.79,2.8056e-05,276.09,-8.6887e-06,0.0073738,-1.0414e-05,-12.958,2.0631
4310,22.528,5.6364,0.1,2.8267e-05,282.48,2.803e-05,275.92,-8.6925e-06,0.0018867,-1.0382e-05,-12.69,2.0632
4311,22.528,5.4545,0.1,2.8471e-05,284.51,2.8239e-05,278.08,-8.7756e-06,-0.032616,-1.0426e-05,-12.433,2.0633
4312,22.528,5.2727,0.1,2.8726e-05,287.06,2.8521e-05,281.36,-8.9307e-06,-0.038652,-1.0395e-05,-11.039,2.0634
4313,22.528,5.0909,0.1,2.9001e-05,289.81,2.8848e-05,285.49,-9.153e-06,-0.037392,-1.027e-05,-8.4276,2.0634
4314,22.528,4.9091,0.1,2.9282e-05,292.62,2.92e-05,290.25,-9.4313e-06,-0.01072,-1.0053e-05,-4.6801,2.0635
4315,22.528,4.7273,0.1,2.9562e-05,295.42,2.9563e-05,295.45,-9.6783e-06,0.60666,-9.8302e-06,-0.53523,2.0635
4316,22.528,4.5455,0.1,2.9838e-05,298.18,2.9929e-05,300.92,-9.3619e-06,5.7044,-1.0139e-05,-0.13551,2.0636
4317,22.528,4.3636,0.1,3.0111e-05,300.9,3.0289e-05,306.48,-8.9561e-06,11.603,-1.0515e-05,-0.10852,2.0636
4318,22.528,4.1818,0.1,3.0378e-05,303.57,3.0637e-05,311.94,-8.5352e-06,17.615,-1.0893e-05,-0.099561,2.0637
4319,22.528,4,0.1,3.0637e-05,306.16,3.0966e-05,317.13,-8.1279e-06,23.399,-1.1255e-05,-0.095506,2.0637
4320,22.528,3.8182,0.1,3.088e-05,308.58,3.1265e-05,321.86,-7.758e-06,28.657,-1.1584e-05,-0.093663,2.0637
4321,22.528,3.6364,0.1,3.1096e-05,310.75,3.1525e-05,325.93,-7.4442e-06,33.136,-1.1867e-05,-0.093065,2.0637
4322,22.528,3.4545,0.1,3.1274e-05,312.52,3.1733e-05,329.18,-7.2e-06,36.647,-1.209e-05,-0.093143,2.0638
4323,22.528,3.2727,0.1,3.1401e-05,313.79,3.188e-05,331.43,-7.0336e-06,39.055,-1.2244e-05,-0.093468,2.0638
4324,22.528,3.0909,0.1,3.1467e-05,314.45,3.1955e-05,332.59,-6.9495e-06,40.278,-1.2323e-05,-0.093722,2.0638
4325,22.528,2.9091,0.1,3.1467e-05,314.45,3.1955e-05,332.59,-6.9495e-06,40.278,-1.2323e-05,-0.093721,2.0638
4326,22.528,2.7273,0.1,3.1401e-05,313.79,3.188e-05,331.43,-7.0336e-06,39.055,-1.2244e-05,-0.093469,2.0638
4327,22.528,2.5455,0.1,3.1274e-05,312.52,3.1733e-05,329.18,-7.2e-06,36.647,-1.209e-05,-0.093143,2.0638
4328,22.528,2.3636,0.1,3.1096e-05,310.75,3.1525e-05,325.93,-7.4442e-06,33.136,-1.1867e-05,-0.093064,2.0637
4329,22.528,2.1818,0.1,3.088e-05,308.58,3.1265e-05,321.86,-7.758e-06,28.657,-1.1584e-05,-0.093663,2.0637
4330,22.528,2,0.1,3.0637e-05,306.16,3.0966e-05,317.13,-8.1279e-06,23.399,-1.1255e-05,-0.095504,2.0637
4331,22.528,1.8182,0.1,3.0378e-05,303.57,3.0637e-05,311.94,-8.5352e-06,17.615,-1.0893e-05,-0.099562,2.0637
4332,22.528,1.6364,0.1,3.0111e-05,300.9,3.0289e-05,306.48,-8.9561e-06,11.603,-1.0515e-05,-0.10851,2.0636
4333,22.528,1.4545,0.1,2.9838e-05,298.18,2.9929e-05,300.92,-9.3619e-06,5.7044,-1.0139e-05,-0.1355,2.0636
4334,22.528,1.2727,0.1,2.9562e-05,295.42,2.9563e-05,295.45,-9.6783e-06,0.60666,-9.8302e-06,-0.53521,2.0635
4335,22.528,1.0909,0.1,2.9282e-05,292.62,2.92e-05,290.25,-9.4313e-06,-0.010723,-1.0053e-05,-4.6801,2.0635
4336,22.528,0.90909,0.1,2.9001e-05,289.81,2.8848e-05,285.49,-9.153e-06,-0.037391,-1.027e-05,-8.4276,2.0634
4337,22.528,0.72727,0.1,2.8726e-05,287.06,2.8521e-05,281.36,-8.9307e-06,-0.038652,-1.0395e-05,-11.039,2.0634
4338,22.528,0.54545,0.1,2.8471e-05,284.51,2.8239e-05,278.08,-8.7756e-06,-0.032613,-1.0426e-05,-12.433,2.0633
4339,22.528,0.36364,0.1,2.8267e-05,282.48,2.803e-05,275.92,-8.6925e-06,0.0018884,-1.0382e-05,-12.69,2.0632
4340,22.528,0.18182,0.1,2.8299e-05,282.79,2.8056e-05,276.09,-8.6887e-06,0.0073718,-1.0414e-05,-12.958,2.0631
4341,22.343,5.8182,0.1,3.1248e-05,312.26,3.1014e-05,305.76,-9.6798e-06,0.0030976,-1.1361e-05,-12.626,2.0368
4342,22.343,5.6364,0.1,3.1228e-05,312.06,3.1012e-05,306.05,-9.7203e-06,0.0011341,-1.1277e-05,-11.697,2.0369
4343,22.343,5.4545,0.1,3.145e-05,314.28,3.1258e-05,308.89,-9.8561e-06,-0.026491,-1.125e-05,-10.503,2.0369
4344,22.343,5.2727,0.1,3.1739e-05,317.17,3.1595e-05,313.09,-1.0078e-05,-0.023789,-1.1137e-05,-7.9772,2.037
4345,22.343,5.0909,0.1,3.2069e-05,320.47,3.1997e-05,318.39,-1.0377e-05,0.010519,-1.0928e-05,-4.13,2.0371
4346,22.343,4.9091,0.1,3.2429e-05,324.06,3.2445e-05,324.56,-1.0575e-05,1.3157,-1.0793e-05,-0.32158,2.0371
4347,22.343,4.7273,0.1,3.281e-05,327.87,3.2925e-05,331.37,-1.0214e-05,7.2416,-1.1194e-05,-0.12515,2.0372
4348,22.343,4.5455,0.1,3.3208e-05,331.85,3.3422e-05,338.6,-9.7719e-06,14.051,-1.1656e-05,-0.10345,2.0373
4349,22.343,4.3636,0.1,3.3618e-05,335.95,3.3927e-05,346.01,-9.2988e-06,21.227,-1.2137e-05,-0.095669,2.0373
4350,22.343,4.1818,0.1,3.4034e-05,340.11,3.4426e-05,353.36,-8.8255e-06,28.383,-1.2615e-05,-0.092046,2.0373
4351,22.343,4,0.1,3.4445e-05,344.21,3.4906e-05,360.38,-8.3804e-06,35.151,-1.3071e-05,-0.090534,2.0374
4352,22.343,3.8182,0.1,3.4835e-05,348.11,3.535e-05,366.83,-7.9869e-06,41.208,-1.3483e-05,-0.090433,2.0374
4353,22.343,3.6364,0.1,3.5185e-05,351.61,3.574e-05,372.41,-7.6619e-06,46.298,-1.3836e-05,-0.091276,2.0374
4354,22.343,3.4545,0.1,3.5473e-05,354.48,3.6057e-05,376.87,-7.4148e-06,50.239,-1.4113e-05,-0.09258,2.0374
4355,22.343,3.2727,0.1,3.5679e-05,356.54,3.628e-05,379.98,-7.2498e-06,52.915,-1.4305e-05,-0.093826,2.0374
4356,22.343,3.0909,0.1,3.5786e-05,357.61,3.6396e-05,381.58,-7.1675e-06,54.266,-1.4402e-05,-0.094581,2.0374
4357,22.343,2.9091,0.1,3.5786e-05,357.61,3.6396e-05,381.58,-7.1675e-06,54.266,-1.4402e-05,-0.094581,2.0374
4358,22.343,2.7273,0.1,3.5679e-05,356.54,3.628e-05,379.98,-7.2498e-06,52.915,-1.4305e-05,-0.093828,2.0374
4359,22.343,2.5455,0.1,3.5473e-05,354.48,3.6057e-05,376.87,-7.4148e-06,50.239,-1.4113e-05,-0.092579,2.0374
4360,22.343,2.3636,0.1,3.5185e-05,351.61,3.574e-05,372.41,-7.6619e-06,46.298,-1.3836e-05,-0.091275,2.0374
4361,22.343,2.1818,0.1,3.4835e-05,348.11,3.535e-05,366.83,-7.9869e-06,41.208,-1.3483e-05,-0.090434,2.0374
4362,22.343,2,0.1,3.4445e-05,344.21,3.4906e-05,360.38,-8.3804e-06,35.151,-1.3071e-05,-0.090534,2.0374
4363,22.343,1.8182,0.1,3.4034e-05,340.11,3.4426e-05,353.36,-8.8255e-06,28.383,-1.2615e-05,-0.092045,2.0373
4364,22.343,1.6364,0.1,3.3618e-05,335.95,3.3927e-05,346.01,-9.2988e-06,21.227,-1.2137e-05,-0.095669,2.0373
4365,22.343,1.4545,0.1,3.3208e-05,331.85,3.3422e-05,338.6,-9.7719e-06,14.051,-1.1656e-05,-0.10345,2.0373
4366,22.343,1.2727,0.1,3.281e-05,327.87,3.2925e-05,331.37,-1.0214e-05,7.2417,-1.1194e-05,-0.12515,2.0372
4367,22.343,1.0909,0.1,3.2429e-05,324.06,3.2445e-05,324.56,-1.0575e-05,1.3157,-1.0793e-05,-0.32158,2.0371
4368,22.343,0.90909,0.1,3.2069e-05,320.47,3.1997e-05,318.39,-1.0377e-05,0.010518,-1.0928e-05,-4.1299,2.0371
4369,22.343,0.72727,0.1,3.1739e-05,317.17,3.1595e-05,313.09,-1.0078e-05,-0.023791,-1.1137e-05,-7.9772,2.037
4370,22.343,0.54545,0.1,3.145e-05,314.28,3.1258e-05,308.89,-9.8561e-06,-0.026491,-1.125e-05,-10.503,2.0369
4371,22.343,0.36364,0.1,3.1228e-05,312.06,3.1012e-05,306.05,-9.7203e-06,0.0011355,-1.1277e-05,-11.697,2.0369
4372,22.343,0.18182,0.1,3.1248e-05,312.26,3.1014e-05,305.76,-9.6798e-06,0.003097,-1.1361e-05,-12.626,2.0368
4373,22.159,5.8182,0.1,3.3965e-05,339.41,3.3734e-05,332.97,-1.0582e-05,0.00063468,-1.225e-05,-12.532,2.0104
4374,22.159,5.6364,0.1,3.398e-05,339.57,3.3778e-05,333.89,-1.066e-05,0.0031678,-1.2135e-05,-11.079,2.0105
4375,22.159,5.4545,0.1,3.4251e-05,342.27,3.4088e-05,337.65,-1.0853e-05,-0.015535,-1.2056e-05,-9.0533,2.0106
4376,22.159,5.2727,0.1,3.4608e-05,345.84,3.4512e-05,343.08,-1.1148e-05,0.010344,-1.1877e-05,-5.4635,2.0107
4377,22.159,5.0909,0.1,3.5031e-05,350.07,3.5026e-05,349.92,-1.1478e-05,0.50566,-1.1653e-05,-0.8106,2.0108
4378,22.159,4.9091,0.1,3.551e-05,354.85,3.5611e-05,357.9,-1.118e-05,6.3357,-1.2043e-05,-0.14304,2.0108
4379,22.159,4.7273,0.1,3.6036e-05,360.11,3.625e-05,366.79,-1.0721e-05,13.865,-1.2581e-05,-0.10828,2.0109
4380,22.159,4.5455,0.1,3.6603e-05,365.77,3.6927e-05,376.28,-1.0209e-05,22.123,-1.3166e-05,-0.097302,2.0109
4381,22.159,4.3636,0.1,3.7201e-05,371.75,3.7625e-05,386.08,-9.6774e-06,30.67,-1.3772e-05,-0.092206,2.011
4382,22.159,4.1818,0.1,3.7817e-05,377.9,3.8327e-05,395.87,-9.161e-06,39.059,-1.4371e-05,-0.089846,2.011
4383,22.159,4,0.1,3.8432e-05,384.05,3.9011e-05,405.28,-8.6902e-06,46.871,-1.494e-05,-0.089421,2.011
4384,22.159,3.8182,0.1,3.902e-05,389.93,3.9652e-05,413.96,-8.2882e-06,53.752,-1.5454e-05,-0.090573,2.0111
4385,22.159,3.6364,0.1,3.9549e-05,395.22,4.0221e-05,421.51,-7.9683e-06,59.441,-1.5892e-05,-0.092849,2.0111
4386,22.159,3.4545,0.1,3.9986e-05,399.58,4.0684e-05,427.57,-7.7344e-06,63.778,-1.6235e-05,-0.095593,2.0111
4387,22.159,3.2727,0.1,4.0298e-05,402.7,4.1013e-05,431.82,-7.5834e-06,66.686,-1.6472e-05,-0.098023,2.0111
4388,22.159,3.0909,0.1,4.0461e-05,404.33,4.1184e-05,434.01,-7.5099e-06,68.142,-1.6592e-05,-0.099445,2.0111
4389,22.159,2.9091,0.1,4.0461e-05,404.33,4.1184e-05,434.01,-7.5099e-06,68.142,-1.6592e-05,-0.099445,2.0111
4390,22.159,2.7273,0.1,4.0298e-05,402.7,4.1013e-05,431.82,-7.5834e-06,66.686,-1.6472e-05,-0.098024,2.0111
4391,22.159,2.5455,0.1,3.9986e-05,399.58,4.0684e-05,427.57,-7.7344e-06,63.778,-1.6235e-05,-0.095592,2.0111
4392,22.159,2.3636,0.1,3.9549e-05,395.22,4.0221e-05,421.51,-7.9683e-06,59.441,-1.5892e-05,-0.092849,2.0111
4393,22.159,2.1818,0.1,3.902e-05,389.93,3.9652e-05,413.96,-8.2882e-06,53.752,-1.5454e-05,-0.090572,2.0111
4394,22.159,2,0.1,3.8432e-05,384.05,3.9011e-05,405.28,-8.6902e-06,46.871,-1.494e-05,-0.089421,2.011
4395,22.159,1.8182,0.1,3.7817e-05,377.9,3.8327e-05,395.87,-9.161e-06,39.059,-1.4371e-05,-0.089845,2.011
4396,22.159,1.6364,0.1,3.7201e-05,371.75,3.7625e-05,386.08,-9.6774e-06,30.67,-1.3772e-05,-0.092205,2.011
4397,22.159,1.4545,0.1,3.6603e-05,365.77,3.6927e-05,376.28,-1.0209e-05,22.123,-1.3166e-05,-0.097301,2.0109
4398,22.159,1.2727,0.1,3.6036e-05,360.11,3.625e-05,366.79,-1.0721e-05,13.865,-1.2581e-05,-0.10828,2.0109
4399,22.159,1.0909,0.1,3.551e-05,354.85,3.5611e-05,357.9,-1.118e-05,6.3357,-1.2043e-05,-0.14304,2.0108
4400,22.159,0.90909,0.1,3.5031e-05,350.07,3.5026e-05,349.92,-1.1478e-05,0.50567,-1.1653e-05,-0.81058,2.0108
4401,22.159,0.72727,0.1,3.4608e-05,345.84,3.4512e-05,343.08,-1.1148e-05,0.010341,-1.1877e-05,-5.4635,2.0107
4402,22.159,0.54545,0.1,3.4251e-05,342.27,3.4088e-05,337.65,-1.0853e-05,-0.015536,-1.2056e-05,-9.0533,2.0106
4403,22.159,0.36364,0.1,3.398e-05,339.57,3.3778e-05,333.89,-1.066e-05,0.00317,-1.2135e-05,-11.079,2.0105
4404,22.159,0.18182,0.1,3.3965e-05,339.41,3.3734e-05,332.97,-1.0582e-05,0.00063767,-1.225e-05,-12.532,2.0104
4405,21.975,5.8182,0.1,3.6384e-05,363.59,3.6152e-05,357.08,-1.1373e-05,4.4504e-05,-1.3062e-05,-12.693,1.9841
4406,21.975,5.6364,0.1,3.6459e-05,364.33,3.6263e-05,358.81,-1.149e-05,0.0095913,-1.2932e-05,-10.826,1.9842
4407,21.975,5.4545,0.1,3.6812e-05,367.86,3.6668e-05,363.77,-1.1746e-05,0.0052761,-1.2819e-05,-8.0601,1.9843
4408,21.975,5.2727,0.1,3.7277e-05,372.52,3.7218e-05,370.8,-1.2119e-05,0.10295,-1.2599e-05,-3.5056,1.9844
4409,21.975,5.0909,0.1,3.784e-05,378.13,3.7889e-05,379.62,-1.2201e-05,3.26,-1.267e-05,-0.25873,1.9845
4410,21.975,4.9091,0.1,3.849e-05,384.63,3.8663e-05,389.96,-1.1768e-05,11.046,-1.3256e-05,-0.1326,1.9845
4411,21.975,4.7273,0.1,3.9218e-05,391.91,3.9519e-05,401.52,-1.1244e-05,20.097,-1.3934e-05,-0.10836,1.9846
4412,21.975,4.5455,0.1,4.0015e-05,399.88,4.0438e-05,413.93,-1.0675e-05,29.888,-1.4666e-05,-0.098251,1.9846
4413,21.975,4.3636,0.1,4.0867e-05,408.38,4.1397e-05,426.82,-1.0099e-05,39.9,-1.5422e-05,-0.093047,1.9847
4414,21.975,4.1818,0.1,4.1751e-05,417.23,4.2371e-05,439.76,-9.5555e-06,49.6,-1.6169e-05,-0.090768,1.9847
4415,21.975,4,0.1,4.264e-05,426.11,4.333e-05,452.28,-9.0793e-06,58.491,-1.6876e-05,-0.090982,1.9848
4416,21.975,3.8182,0.1,4.3494e-05,434.64,4.4237e-05,463.87,-8.6929e-06,66.178,-1.7513e-05,-0.093421,1.9848
4417,21.975,3.6364,0.1,4.4264e-05,442.34,4.5046e-05,474.01,-8.4046e-06,72.403,-1.8054e-05,-0.097508,1.9848
4418,21.975,3.4545,0.1,4.4901e-05,448.7,4.5709e-05,482.17,-8.209e-06,77.049,-1.8477e-05,-0.10224,1.9848
4419,21.975,3.2727,0.1,4.5356e-05,453.25,4.6181e-05,487.9,-8.0919e-06,80.107,-1.8768e-05,-0.10636,1.9848
4420,21.975,3.0909,0.1,4.5594e-05,455.63,4.6427e-05,490.85,-8.0382e-06,81.618,-1.8915e-05,-0.10876,1.9848
4421,21.975,2.9091,0.1,4.5594e-05,455.63,4.6427e-05,490.85,-8.0382e-06,81.618,-1.8915e-05,-0.10876,1.9848
4422,21.975,2.7273,0.1,4.5356e-05,453.25,4.6181e-05,487.9,-8.0919e-06,80.107,-1.8768e-05,-0.10636,1.9848
4423,21.975,2.5455,0.1,4.4901e-05,448.7,4.5709e-05,482.17,-8.209e-06,77.049,-1.8477e-05,-0.10224,1.9848
4424,21.975,2.3636,0.1,4.4264e-05,442.34,4.5046e-05,474.01,-8.4046e-06,72.403,-1.8054e-05,-0.097507,1.9848
4425,21.975,2.1818,0.1,4.3494e-05,434.64,4.4237e-05,463.87,-8.6929e-06,66.178,-1.7513e-05,-0.093422,1.9848
4426,21.975,2,0.1,4.264e-05,426.11,4.333e-05,452.28,-9.0793e-06,58.491,-1.6876e-05,-0.090983,1.9848
4427,21.975,1.8182,0.1,4.1751e-05,417.23,4.2371e-05,439.76,-9.5555e-06,49.6,-1.6169e-05,-0.090769,1.9847
4428,21.975,1.6364,0.1,4.0867e-05,408.38,4.1397e-05,426.82,-1.0099e-05,39.9,-1.5422e-05,-0.093047,1.9847
4429,21.975,1.4545,0.1,4.0015e-05,399.88,4.0438e-05,413.93,-1.0675e-05,29.888,-1.4666e-05,-0.098252,1.9846
4430,21.975,1.2727,0.1,3.9218e-05,391.91,3.9519e-05,401.52,-1.1244e-05,20.097,-1.3934e-05,-0.10836,1.9846
4431,21.975,1.0909,0.1,3.849e-05,384.63,3.8663e-05,389.96,-1.1768e-05,11.046,-1.3256e-05,-0.1326,1.9845
4432,21.975,0.90909,0.1,3.784e-05,378.13,3.7889e-05,379.62,-1.2201e-05,3.26,-1.267e-05,-0.25873,1.9845
4433,21.975,0.72727,0.1,3.7277e-05,372.52,3.7218e-05,370.8,-1.2119e-05,0.10294,-1.2599e-05,-3.5056,1.9844
4434,21.975,0.54545,0.1,3.6812e-05,367.86,3.6668e-05,363.77,-1.1746e-05,0.0052762,-1.2819e-05,-8.0601,1.9843
4435,21.975,0.36364,0.1,3.6459e-05,364.33,3.6263e-05,358.81,-1.149e-05,0.0095933,-1.2932e-05,-10.826,1.9842
4436,21.975,0.18182,0.1,3.6384e-05,363.59,3.6152e-05,357.08,-1.1373e-05,4.4313e-05,-1.3062e-05,-12.693,1.9841
4437,21.791,5.8182,0.1,3.8427e-05,384,3.8187e-05,377.28,-1.2025e-05,0.0015764,-1.3771e-05,-13.116,1.9578
4438,21.791,5.6364,0.1,3.8585e-05,385.58,3.8388e-05,380.02,-1.2187e-05,0.022082,-1.3642e-05,-10.916,1.9579
4439,21.791,5.4545,0.1,3.9057e-05,390.3,3.8925e-05,386.52,-1.2512e-05,0.041973,-1.3516e-05,-7.4995,1.958
4440,21.791,5.2727,0.1,3.968e-05,396.52,3.9648e-05,395.6,-1.2956e-05,0.35751,-1.3295e-05,-2.1874,1.9581
4441,21.791,5.0909,0.1,4.0439e-05,404.11,4.0534e-05,406.98,-1.2828e-05,6.0302,-1.3662e-05,-0.23451,1.9582
4442,21.791,4.9091,0.1,4.1328e-05,412.99,4.1563e-05,420.34,-1.2348e-05,15.269,-1.4399e-05,-0.14245,1.9583
4443,21.791,4.7273,0.1,4.2334e-05,423.04,4.2712e-05,435.32,-1.1782e-05,25.875,-1.5242e-05,-0.11647,1.9583
4444,21.791,4.5455,0.1,4.3442e-05,434.12,4.3954e-05,451.5,-1.1176e-05,37.274,-1.6151e-05,-0.10405,1.9584
4445,21.791,4.3636,0.1,4.4633e-05,446.03,4.5261e-05,468.38,-1.0577e-05,48.841,-1.709e-05,-0.09719,1.9584
4446,21.791,4.1818,0.1,4.5877e-05,458.45,4.6599e-05,485.41,-1.0031e-05,59.914,-1.8017e-05,-0.094128,1.9585
4447,21.791,4,0.1,4.7131e-05,470.99,4.7927e-05,501.97,-9.5797e-06,69.888,-1.8894e-05,-0.094669,1.9585
4448,21.791,3.8182,0.1,4.834e-05,483.06,4.919e-05,517.37,-9.2456e-06,78.309,-1.9681e-05,-0.098672,1.9585
4449,21.791,3.6364,0.1,4.9433e-05,493.99,5.0324e-05,530.89,-9.0288e-06,84.931,-2.0347e-05,-0.1053,1.9586
4450,21.791,3.4545,0.1,5.0338e-05,503.04,5.1257e-05,541.79,-8.9096e-06,89.718,-2.0865e-05,-0.11294,1.9586
4451,21.791,3.2727,0.1,5.0987e-05,509.51,5.1923e-05,549.45,-8.8565e-06,92.776,-2.122e-05,-0.11958,1.9586
4452,21.791,3.0909,0.1,5.1325e-05,512.89,5.227e-05,553.41,-8.8391e-06,94.253,-2.14e-05,-0.12343,1.9586
4453,21.791,2.9091,0.1,5.1325e-05,512.89,5.227e-05,553.41,-8.8391e-06,94.253,-2.14e-05,-0.12343,1.9586
4454,21.791,2.7273,0.1,5.0987e-05,509.51,5.1923e-05,549.45,-8.8565e-06,92.776,-2.122e-05,-0.11958,1.9586
4455,21.791,2.5455,0.1,5.0338e-05,503.04,5.1257e-05,541.79,-8.9096e-06,89.718,-2.0865e-05,-0.11294,1.9586
4456,21.791,2.3636,0.1,4.9433e-05,493.99,5.0324e-05,530.89,-9.0288e-06,84.931,-2.0347e-05,-0.1053,1.9586
4457,21.791,2.1818,0.1,4.834e-05,483.06,4.919e-05,517.37,-9.2456e-06,78.309,-1.9681e-05,-0.098671,1.9585
4458,21.791,2,0.1,4.7131e-05,470.99,4.7927e-05,501.97,-9.5797e-06,69.888,-1.8894e-05,-0.094669,1.9585
4459,21.791,1.8182,0.1,4.5877e-05,458.45,4.6599e-05,485.41,-1.0031e-05,59.914,-1.8017e-05,-0.094128,1.9585
4460,21.791,1.6364,0.1,4.4633e-05,446.03,4.5261e-05,468.38,-1.0577e-05,48.841,-1.709e-05,-0.09719,1.9584
4461,21.791,1.4545,0.1,4.3442e-05,434.12,4.3954e-05,451.5,-1.1176e-05,37.274,-1.6151e-05,-0.10405,1.9584
4462,21.791,1.2727,0.1,4.2334e-05,423.04,4.2712e-05,435.32,-1.1782e-05,25.875,-1.5242e-05,-0.11647,1.9583
4463,21.791,1.0909,0.1,4.1328e-05,412.99,4.1563e-05,420.34,-1.2348e-05,15.269,-1.4399e-05,-0.14245,1.9583
4464,21.791,0.90909,0.1,4.0439e-05,404.11,4.0534e-05,406.98,-1.2828e-05,6.0302,-1.3662e-05,-0.23451,1.9582
4465,21.791,0.72727,0.1,3.968e-05,396.52,3.9648e-05,395.6,-1.2956e-05,0.35751,-1.3295e-05,-2.1874,1.9581
4466,21.791,0.54545,0.1,3.9057e-05,390.3,3.8925e-05,386.52,-1.2512e-05,0.041976,-1.3516e-05,-7.4995,1.958
4467,21.791,0.36364,0.1,3.8585e-05,385.58,3.8388e-05,380.02,-1.2187e-05,0.022082,-1.3642e-05,-10.916,1.9579
4468,21.791,0.18182,0.1,3.8427e-05,384,3.8187e-05,377.28,-1.2025e-05,0.0015738,-1.3771e-05,-13.116,1.9578
4469,21.607,5.8182,0.1,3.9998e-05,399.7,3.9745e-05,392.63,-1.2509e-05,0.0059101,-1.4346e-05,-13.795,1.9316
4470,21.607,5.6364,0.1,4.0264e-05,402.37,4.0061e-05,396.61,-1.2719e-05,0.042501,-1.4231e-05,-11.313,1.9317
4471,21.607,5.4545,0.1,4.0899e-05,408.71,4.0771e-05,405.04,-1.3123e-05,0.10055,-1.4113e-05,-7.3386,1.9318
4472,21.607,5.2727,0.1,4.1736e-05,417.08,4.1724e-05,416.71,-1.362e-05,0.87465,-1.395e-05,-1.6021,1.9319
4473,21.607,5.0909,0.1,4.2767e-05,427.37,4.2897e-05,431.32,-1.3404e-05,8.3019,-1.4544e-05,-0.26713,1.9319
4474,21.607,4.9091,0.1,4.398e-05,439.49,4.4267e-05,448.55,-1.2916e-05,18.9,-1.5453e-05,-0.16623,1.932
4475,21.607,4.7273,0.1,4.536e-05,453.29,4.5806e-05,467.95,-1.2341e-05,31.057,-1.6492e-05,-0.13251,1.9321
4476,21.607,4.5455,0.1,4.6886e-05,468.54,4.7478e-05,488.97,-1.1728e-05,44.121,-1.7616e-05,-0.11507,1.9321
4477,21.607,4.3636,0.1,4.853e-05,484.96,4.9247e-05,511.02,-1.1136e-05,57.323,-1.8779e-05,-0.10483,1.9322
4478,21.607,4.1818,0.1,5.0251e-05,502.16,5.107e-05,533.36,-1.0623e-05,69.823,-1.9929e-05,-0.099952,1.9322
4479,21.607,4,0.1,5.1992e-05,519.56,5.289e-05,555.18,-1.024e-05,80.851,-2.1014e-05,-0.10054,1.9323
4480,21.607,3.8182,0.1,5.3673e-05,536.36,5.4631e-05,575.55,-1.001e-05,89.861,-2.1984e-05,-0.10649,1.9323
4481,21.607,3.6364,0.1,5.5198e-05,551.6,5.6199e-05,593.46,-9.9234e-06,96.636,-2.28e-05,-0.1166,1.9323
4482,21.607,3.4545,0.1,5.6461e-05,564.22,5.7494e-05,607.92,-9.9364e-06,101.28,-2.3433e-05,-0.12847,1.9324
4483,21.607,3.2727,0.1,5.7366e-05,573.27,5.8419e-05,618.09,-9.9913e-06,104.08,-2.3862e-05,-0.13882,1.9324
4484,21.607,3.0909,0.1,5.7839e-05,577.99,5.8901e-05,623.33,-1.0035e-05,105.38,-2.4079e-05,-0.14478,1.9324
4485,21.607,2.9091,0.1,5.7839e-05,577.99,5.8901e-05,623.33,-1.0035e-05,105.38,-2.4079e-05,-0.14479,1.9324
4486,21.607,2.7273,0.1,5.7366e-05,573.27,5.8419e-05,618.09,-9.9913e-06,104.08,-2.3862e-05,-0.13882,1.9324
4487,21.607,2.5455,0.1,5.6461e-05,564.22,5.7494e-05,607.92,-9.9364e-06,101.28,-2.3433e-05,-0.12847,1.9324
4488,21.607,2.3636,0.1,5.5198e-05,551.6,5.6199e-05,593.46,-9.9234e-06,96.636,-2.28e-05,-0.1166,1.9323
4489,21.607,2.1818,0.1,5.3673e-05,536.36,5.4631e-05,575.55,-1.001e-05,89.861,-2.1984e-05,-0.10649,1.9323
4490,21.607,2,0.1,5.1992e-05,519.56,5.289e-05,555.18,-1.024e-05,80.851,-2.1014e-05,-0.10054,1.9323
4491,21.607,1.8182,0.1,5.0251e-05,502.16,5.107e-05,533.36,-1.0623e-05,69.823,-1.9929e-05,-0.09995,1.9322
4492,21.607,1.6364,0.1,4.853e-05,484.96,4.9247e-05,511.02,-1.1136e-05,57.323,-1.8779e-05,-0.10483,1.9322
4493,21.607,1.4545,0.1,4.6886e-05,468.54,4.7478e-05,488.97,-1.1728e-05,44.121,-1.7616e-05,-0.11507,1.9321
4494,21.607,1.2727,0.1,4.536e-05,453.29,4.5806e-05,467.95,-1.2341e-05,31.057,-1.6492e-05,-0.13251,1.9321
4495,21.607,1.0909,0.1,4.398e-05,439.49,4.4267e-05,448.55,-1.2916e-05,18.9,-1.5453e-05,-0.16622,1.932
4496,21.607,0.90909,0.1,4.2767e-05,427.37,4.2897e-05,431.32,-1.3404e-05,8.3019,-1.4544e-05,-0.26713,1.9319
4497,21.607,0.72727,0.1,4.1736e-05,417.08,4.1724e-05,416.71,-1.362e-05,0.87465,-1.395e-05,-1.6021,1.9319
4498,21.607,0.54545,0.1,4.0899e-05,408.71,4.0771e-05,405.04,-1.3123e-05,0.10055,-1.4113e-05,-7.3386,1.9318
4499,21.607,0.36364,0.1,4.0264e-05,402.37,4.0061e-05,396.61,-1.2719e-05,0.042503,-1.4231e-05,-11.313,1.9317
4500,21.607,0.18182,0.1,3.9998e-05,399.7,3.9745e-05,392.63,-1.2509e-05,0.0059095,-1.4346e-05,-13.795,1.9316
4501,21.423,5.8182,0.1,4.0986e-05,409.58,4.0716e-05,402.04,-1.2789e-05,0.014633,-1.4748e-05,-14.702,1.9053
4502,21.423,5.6364,0.1,4.1385e-05,413.57,4.117e-05,407.5,-1.3055e-05,0.073488,-1.4655e-05,-11.947,1.9054
4503,21.423,5.4545,0.1,4.2231e-05,422.02,4.21e-05,418.29,-1.3546e-05,0.18664,-1.4573e-05,-7.5288,1.9055
4504,21.423,5.2727,0.1,4.3355e-05,433.25,4.3352e-05,433.19,-1.4105e-05,1.477,-1.4512e-05,-1.5846,1.9056
4505,21.423,5.0909,0.1,4.4749e-05,447.18,4.4904e-05,451.9,-1.3916e-05,9.9495,-1.5286e-05,-0.34148,1.9057
4506,21.423,4.9091,0.1,4.6399e-05,463.67,4.6726e-05,474.04,-1.3473e-05,21.727,-1.6393e-05,-0.20812,1.9058
4507,21.423,4.7273,0.1,4.8281e-05,482.48,4.8781e-05,499.09,-1.2938e-05,35.353,-1.7665e-05,-0.15959,1.9059
4508,21.423,4.5455,0.1,5.0363e-05,503.28,5.1024e-05,526.38,-1.2365e-05,50.098,-1.905e-05,-0.13321,1.9059
4509,21.423,4.3636,0.1,5.2606e-05,525.7,5.3407e-05,555.12,-1.1821e-05,65.019,-2.049e-05,-0.11678,1.906
4510,21.423,4.1818,0.1,5.4959e-05,549.21,5.5872e-05,584.37,-1.1388e-05,79.01,-2.1918e-05,-0.10796,1.906
4511,21.423,4,0.1,5.7345e-05,573.05,5.8345e-05,613.05,-1.1132e-05,91.034,-2.3262e-05,-0.10735,1.9061
4512,21.423,3.8182,0.1,5.9655e-05,596.14,6.0722e-05,639.89,-1.1081e-05,100.4,-2.4458e-05,-0.11598,1.9061
4513,21.423,3.6364,0.1,6.1753e-05,617.11,6.2869e-05,663.5,-1.1206e-05,106.92,-2.5455e-05,-0.13189,1.9062
4514,21.423,3.4545,0.1,6.3492e-05,634.48,6.4642e-05,682.54,-1.1432e-05,110.95,-2.6218e-05,-0.15011,1.9062
4515,21.423,3.2727,0.1,6.4736e-05,646.91,6.5908e-05,695.9,-1.1657e-05,113.1,-2.6732e-05,-0.16568,1.9062
4516,21.423,3.0909,0.1,6.5384e-05,653.39,6.6567e-05,702.77,-1.1796e-05,113.98,-2.6989e-05,-0.17456,1.9062
4517,21.423,2.9091,0.1,6.5384e-05,653.39,6.6567e-05,702.77,-1.1796e-05,113.98,-2.6989e-05,-0.17456,1.9062
4518,21.423,2.7273,0.1,6.4736e-05,646.91,6.5908e-05,695.9,-1.1657e-05,113.1,-2.6732e-05,-0.16568,1.9062
4519,21.423,2.5455,0.1,6.3492e-05,634.48,6.4642e-05,682.54,-1.1432e-05,110.95,-2.6218e-05,-0.15011,1.9062
4520,21.423,2.3636,0.1,6.1753e-05,617.11,6.2869e-05,663.5,-1.1206e-05,106.92,-2.5455e-05,-0.13189,1.9062
4521,21.423,2.1818,0.1,5.9655e-05,596.14,6.0722e-05,639.89,-1.1081e-05,100.4,-2.4458e-05,-0.11598,1.9061
4522,21.423,2,0.1,5.7345e-05,573.05,5.8345e-05,613.05,-1.1132e-05,91.034,-2.3262e-05,-0.10735,1.9061
4523,21.423,1.8182,0.1,5.4959e-05,549.21,5.5872e-05,584.37,-1.1388e-05,79.01,-2.1918e-05,-0.10796,1.906
4524,21.423,1.6364,0.1,5.2606e-05,525.7,5.3407e-05,555.12,-1.1821e-05,65.019,-2.049e-05,-0.11678,1.906
4525,21.423,1.4545,0.1,5.0363e-05,503.28,5.1024e-05,526.38,-1.2365e-05,50.098,-1.905e-05,-0.13321,1.9059
4526,21.423,1.2727,0.1,4.8281e-05,482.48,4.8781e-05,499.09,-1.2938e-05,35.353,-1.7665e-05,-0.15959,1.9059
4527,21.423,1.0909,0.1,4.6399e-05,463.67,4.6726e-05,474.04,-1.3473e-05,21.727,-1.6393e-05,-0.20812,1.9058
4528,21.423,0.90909,0.1,4.4749e-05,447.18,4.4904e-05,451.9,-1.3916e-05,9.9495,-1.5286e-05,-0.34148,1.9057
4529,21.423,0.72727,0.1,4.3355e-05,433.25,4.3352e-05,433.19,-1.4105e-05,1.477,-1.4512e-05,-1.5846,1.9056
4530,21.423,0.54545,0.1,4.2231e-05,422.02,4.21e-05,418.29,-1.3546e-05,0.18664,-1.4573e-05,-7.5288,1.9055
4531,21.423,0.36364,0.1,4.1385e-05,413.57,4.117e-05,407.5,-1.3055e-05,0.073491,-1.4655e-05,-11.947,1.9054
4532,21.423,0.18182,0.1,4.0986e-05,409.58,4.0716e-05,402.04,-1.2789e-05,0.014634,-1.4748e-05,-14.702,1.9053
4533,21.239,5.8182,0.1,4.1264e-05,412.36,4.0974e-05,404.26,-1.2826e-05,0.031156,-1.4929e-05,-15.77,1.8791
4534,21.239,5.6364,0.1,4.1817e-05,417.89,4.1589e-05,411.44,-1.3155e-05,0.11977,-1.4863e-05,-12.708,1.8792
4535,21.239,5.4545,0.1,4.2931e-05,429.01,4.2794e-05,425.1,-1.3743e-05,0.30758,-1.4849e-05,-8.0054,1.8793
4536,21.239,5.2727,0.1,4.4431e-05,444,4.4429e-05,443.98,-1.4403e-05,1.9356,-1.4921e-05,-1.9579,1.8794
4537,21.239,5.0909,0.1,4.6309e-05,462.77,4.6474e-05,467.81,-1.4355e-05,10.768,-1.5852e-05,-0.48148,1.8795
4538,21.239,4.9091,0.1,4.8541e-05,485.08,4.889e-05,496.18,-1.4039e-05,23.349,-1.7184e-05,-0.2817,1.8796
4539,21.239,4.7273,0.1,5.109e-05,510.55,5.1628e-05,528.46,-1.3621e-05,38.207,-1.8734e-05,-0.20618,1.8797
4540,21.239,4.5455,0.1,5.3908e-05,538.71,5.4625e-05,563.83,-1.3152e-05,54.583,-2.0438e-05,-0.16404,1.8798
4541,21.239,4.3636,0.1,5.6945e-05,569.06,5.7819e-05,601.28,-1.2714e-05,71.324,-2.2225e-05,-0.13684,1.8798
4542,21.239,4.1818,0.1,6.0134e-05,600.93,6.1136e-05,639.58,-1.2419e-05,86.921,-2.4003e-05,-0.12138,1.8799
4543,21.239,4,0.1,6.3375e-05,633.32,6.4477e-05,677.25,-1.2366e-05,99.881,-2.5675e-05,-0.1202,1.8799
4544,21.239,3.8182,0.1,6.6521e-05,664.75,6.7698e-05,712.52,-1.2593e-05,109.24,-2.715e-05,-0.13175,1.88
4545,21.239,3.6364,0.1,6.9377e-05,693.29,7.0609e-05,743.47,-1.3048e-05,114.9,-2.8361e-05,-0.15315,1.88
4546,21.239,3.4545,0.1,7.1737e-05,716.88,7.3005e-05,768.29,-1.3598e-05,117.6,-2.9273e-05,-0.17974,1.88
4547,21.239,3.2727,0.1,7.3419e-05,733.68,7.4707e-05,785.58,-1.4081e-05,118.46,-2.9874e-05,-0.20222,1.8801
4548,21.239,3.0909,0.1,7.4293e-05,742.41,7.5589e-05,794.43,-1.4361e-05,118.58,-3.0172e-05,-0.2145,1.8801
4549,21.239,2.9091,0.1,7.4293e-05,742.41,7.5589e-05,794.43,-1.4361e-05,118.58,-3.0172e-05,-0.2145,1.8801
4550,21.239,2.7273,0.1,7.3419e-05,733.68,7.4707e-05,785.58,-1.4081e-05,118.46,-2.9874e-05,-0.20222,1.8801
4551,21.239,2.5455,0.1,7.1737e-05,716.88,7.3005e-05,768.29,-1.3598e-05,117.6,-2.9273e-05,-0.17974,1.88
4552,21.239,2.3636,0.1,6.9377e-05,693.29,7.0609e-05,743.47,-1.3048e-05,114.9,-2.8361e-05,-0.15316,1.88
4553,21.239,2.1818,0.1,6.6521e-05,664.75,6.7698e-05,712.52,-1.2593e-05,109.24,-2.715e-05,-0.13175,1.88
4554,21.239,2,0.1,6.3375e-05,633.32,6.4477e-05,677.25,-1.2366e-05,99.881,-2.5675e-05,-0.1202,1.8799
4555,21.239,1.8182,0.1,6.0134e-05,600.93,6.1136e-05,639.58,-1.2419e-05,86.921,-2.4003e-05,-0.12138,1.8799
4556,21.239,1.6364,0.1,5.6945e-05,569.06,5.7819e-05,601.28,-1.2714e-05,71.324,-2.2225e-05,-0.13684,1.8798
4557,21.239,1.4545,0.1,5.3908e-05,538.71,5.4625e-05,563.83,-1.3152e-05,54.583,-2.0438e-05,-0.16404,1.8798
4558,21.239,1.2727,0.1,5.109e-05,510.55,5.1628e-05,528.46,-1.3621e-05,38.207,-1.8734e-05,-0.20619,1.8797
4559,21.239,1.0909,0.1,4.8541e-05,485.08,4.889e-05,496.18,-1.4039e-05,23.349,-1.7184e-05,-0.2817,1.8796
4560,21.239,0.90909,0.1,4.6309e-05,462.77,4.6474e-05,467.81,-1.4355e-05,10.768,-1.5852e-05,-0.48148,1.8795
4561,21.239,0.72727,0.1,4.4431e-05,444,4.4429e-05,443.98,-1.4403e-05,1.9356,-1.4921e-05,-1.9579,1.8794
4562,21.239,0.54545,0.1,4.2931e-05,429.01,4.2794e-05,425.1,-1.3743e-05,0.30758,-1.4849e-05,-8.0054,1.8793
4563,21.239,0.36364,0.1,4.1817e-05,417.89,4.1589e-05,411.44,-1.3155e-05,0.11977,-1.4863e-05,-12.708,1.8792
4564,21.239,0.18182,0.1,4.1264e-05,412.36,4.0974e-05,404.26,-1.2826e-05,0.031158,-1.4929e-05,-15.77,1.8791
4565,21.055,5.8182,0.1,4.0691e-05,406.63,4.0378e-05,397.95,-1.2578e-05,0.063053,-1.4833e-05,-16.885,1.8529
4566,21.055,5.6364,0.1,4.1418e-05,413.89,4.1175e-05,407.1,-1.2981e-05,0.19149,-1.4794e-05,-13.435,1.853
4567,21.055,5.4545,0.1,4.2865e-05,428.35,4.2718e-05,424.17,-1.3672e-05,0.47667,-1.4894e-05,-8.7015,1.8532
4568,21.055,5.2727,0.1,4.4852e-05,448.21,4.484e-05,447.89,-1.4481e-05,2.1772,-1.5141e-05,-2.7831,1.8533
4569,21.055,5.0909,0.1,4.7366e-05,473.34,4.752e-05,478.06,-1.4721e-05,10.401,-1.6207e-05,-0.76593,1.8534
4570,21.055,4.9091,0.1,5.037e-05,503.35,5.0713e-05,514.25,-1.4662e-05,23.042,-1.7785e-05,-0.42402,1.8535
4571,21.055,4.7273,0.1,5.3803e-05,537.66,5.4349e-05,555.76,-1.4479e-05,38.613,-1.9657e-05,-0.29284,1.8536
4572,21.055,4.5455,0.1,5.7597e-05,575.58,5.8344e-05,601.59,-1.4211e-05,56.44,-2.1752e-05,-0.21783,1.8536
4573,21.055,4.3636,0.1,6.1684e-05,616.41,6.2613e-05,650.45,-1.3954e-05,75.152,-2.3978e-05,-0.16708,1.8537
4574,21.055,4.1818,0.1,6.5981e-05,659.36,6.7063e-05,700.69,-1.3866e-05,92.615,-2.6211e-05,-0.13504,1.8538
4575,21.055,4,0.1,7.0361e-05,703.13,7.1562e-05,750.24,-1.4111e-05,106.52,-2.8305e-05,-0.12054,1.8538
4576,21.055,3.8182,0.1,7.4617e-05,745.66,7.5903e-05,796.54,-1.4752e-05,115.39,-3.0129e-05,-0.13878,1.8539
4577,21.055,3.6364,0.1,7.847e-05,784.16,7.981e-05,836.84,-1.5695e-05,119.25,-3.1591e-05,-0.18221,1.8539
4578,21.055,3.4545,0.1,8.1627e-05,815.71,8.2994e-05,868.73,-1.6722e-05,119.51,-3.2657e-05,-0.22241,1.854
4579,21.055,3.2727,0.1,8.3852e-05,837.94,8.5228e-05,890.6,-1.7577e-05,118.17,-3.3337e-05,-0.25097,1.854
4580,21.055,3.0909,0.1,8.4998e-05,849.39,8.6374e-05,901.67,-1.8059e-05,117,-3.3666e-05,-0.26552,1.854
4581,21.055,2.9091,0.1,8.4998e-05,849.39,8.6374e-05,901.67,-1.8059e-05,117,-3.3666e-05,-0.26552,1.854
4582,21.055,2.7273,0.1,8.3852e-05,837.94,8.5228e-05,890.6,-1.7577e-05,118.17,-3.3337e-05,-0.25097,1.854
4583,21.055,2.5455,0.1,8.1627e-05,815.71,8.2994e-05,868.73,-1.6722e-05,119.51,-3.2657e-05,-0.22241,1.854
4584,21.055,2.3636,0.1,7.847e-05,784.16,7.981e-05,836.84,-1.5695e-05,119.25,-3.1591e-05,-0.18221,1.8539
4585,21.055,2.1818,0.1,7.4617e-05,745.66,7.5903e-05,796.54,-1.4752e-05,115.39,-3.0129e-05,-0.13878,1.8539
4586,21.055,2,0.1,7.0361e-05,703.13,7.1562e-05,750.24,-1.4111e-05,106.52,-2.8305e-05,-0.12054,1.8538
4587,21.055,1.8182,0.1,6.5981e-05,659.36,6.7063e-05,700.69,-1.3866e-05,92.615,-2.6211e-05,-0.13503,1.8538
4588,21.055,1.6364,0.1,6.1684e-05,616.41,6.2613e-05,650.45,-1.3954e-05,75.152,-2.3978e-05,-0.16708,1.8537
4589,21.055,1.4545,0.1,5.7597e-05,575.58,5.8344e-05,601.59,-1.4211e-05,56.439,-2.1752e-05,-0.21784,1.8536
4590,21.055,1.2727,0.1,5.3803e-05,537.66,5.4349e-05,555.76,-1.4479e-05,38.613,-1.9657e-05,-0.29284,1.8536
4591,21.055,1.0909,0.1,5.037e-05,503.35,5.0713e-05,514.25,-1.4662e-05,23.042,-1.7785e-05,-0.42402,1.8535
4592,21.055,0.90909,0.1,4.7366e-05,473.34,4.752e-05,478.06,-1.4721e-05,10.401,-1.6207e-05,-0.76593,1.8534
4593,21.055,0.72727,0.1,4.4852e-05,448.21,4.484e-05,447.89,-1.4481e-05,2.1772,-1.5141e-05,-2.7831,1.8533
4594,21.055,0.54545,0.1,4.2865e-05,428.35,4.2718e-05,424.17,-1.3672e-05,0.47667,-1.4894e-05,-8.7015,1.8532
4595,21.055,0.36364,0.1,4.1418e-05,413.89,4.1175e-05,407.1,-1.2981e-05,0.19149,-1.4794e-05,-13.435,1.853
4596,21.055,0.18182,0.1,4.0691e-05,406.63,4.0378e-05,397.95,-1.2578e-05,0.063054,-1.4833e-05,-16.885,1.8529
4597,20.871,5.8182,0.1,3.9119e-05,390.92,3.8786e-05,381.74,-1.2004e-05,0.12441,-1.4398e-05,-17.866,1.8268
4598,20.871,5.6364,0.1,4.0037e-05,400.09,3.9786e-05,393.09,-1.249e-05,0.30891,-1.4385e-05,-13.931,1.8269
4599,20.871,5.4545,0.1,4.19e-05,418.72,4.174e-05,414.18,-1.3289e-05,0.71377,-1.4661e-05,-9.5926,1.827
4600,20.871,5.2727,0.1,4.4515e-05,444.85,4.4475e-05,443.73,-1.4287e-05,2.2097,-1.5164e-05,-4.3769,1.8271
4601,20.871,5.0909,0.1,4.7859e-05,478.26,4.7968e-05,481.62,-1.5019e-05,8.3565,-1.633e-05,-1.492,1.8272
4602,20.871,4.9091,0.1,5.1874e-05,518.39,5.2165e-05,527.51,-1.5432e-05,19.61,-1.8144e-05,-0.76749,1.8274
4603,20.871,4.7273,0.1,5.6476e-05,564.37,5.6977e-05,580.71,-1.5675e-05,34.834,-2.0376e-05,-0.49049,1.8274
4604,20.871,4.5455,0.1,6.1565e-05,615.23,6.2294e-05,640.1,-1.5758e-05,53.647,-2.2944e-05,-0.34155,1.8275
4605,20.871,4.3636,0.1,6.705e-05,670.04,6.8e-05,704.06,-1.5781e-05,74.556,-2.5737e-05,-0.24749,1.8276
4606,20.871,4.1818,0.1,7.2833e-05,727.83,7.3974e-05,770.34,-1.5979e-05,94.471,-2.8577e-05,-0.18455,1.8277
4607,20.871,4,0.1,7.875e-05,786.96,8.0034e-05,835.88,-1.6633e-05,109.57,-3.1241e-05,-0.19174,1.8278
4608,20.871,3.8182,0.1,8.4492e-05,844.34,8.5868e-05,896.73,-1.7865e-05,117.32,-3.3508e-05,-0.21365,1.8278
4609,20.871,3.6364,0.1,8.9633e-05,895.72,9.1049e-05,948.72,-1.9515e-05,117.98,-3.5249e-05,-0.2332,1.8279
4610,20.871,3.4545,0.1,9.3765e-05,937,9.5176e-05,988.69,-2.1214e-05,114.18,-3.6448e-05,-0.2834,1.8279
4611,20.871,3.2727,0.1,9.6607e-05,965.4,9.7993e-05,1015.2,-2.2573e-05,109.35,-3.7169e-05,-0.31654,1.828
4612,20.871,3.0909,0.1,9.8042e-05,979.74,9.9407e-05,1028.3,-2.3317e-05,106.23,-3.7499e-05,-0.32474,1.828
4613,20.871,2.9091,0.1,9.8042e-05,979.74,9.9407e-05,1028.3,-2.3317e-05,106.23,-3.7499e-05,-0.32474,1.828
4614,20.871,2.7273,0.1,9.6607e-05,965.4,9.7993e-05,1015.2,-2.2573e-05,109.35,-3.7169e-05,-0.31654,1.828
4615,20.871,2.5455,0.1,9.3765e-05,937,9.5176e-05,988.69,-2.1214e-05,114.18,-3.6448e-05,-0.2834,1.8279
4616,20.871,2.3636,0.1,8.9633e-05,895.72,9.1049e-05,948.72,-1.9515e-05,117.98,-3.5249e-05,-0.2332,1.8279
4617,20.871,2.1818,0.1,8.4492e-05,844.34,8.5868e-05,896.73,-1.7865e-05,117.32,-3.3508e-05,-0.21365,1.8278
4618,20.871,2,0.1,7.875e-05,786.96,8.0034e-05,835.88,-1.6633e-05,109.57,-3.1241e-05,-0.19174,1.8278
4619,20.871,1.8182,0.1,7.2833e-05,727.83,7.3974e-05,770.34,-1.5979e-05,94.471,-2.8577e-05,-0.18455,1.8277
4620,20.871,1.6364,0.1,6.705e-05,670.04,6.8e-05,704.06,-1.5781e-05,74.556,-2.5737e-05,-0.24749,1.8276
4621,20.871,1.4545,0.1,6.1565e-05,615.23,6.2294e-05,640.1,-1.5758e-05,53.647,-2.2944e-05,-0.34155,1.8275
4622,20.871,1.2727,0.1,5.6476e-05,564.37,5.6977e-05,580.71,-1.5675e-05,34.834,-2.0376e-05,-0.49049,1.8274
4623,20.871,1.0909,0.1,5.1874e-05,518.39,5.2165e-05,527.51,-1.5432e-05,19.61,-1.8144e-05,-0.76749,1.8274
4624,20.871,0.90909,0.1,4.7859e-05,478.26,4.7968e-05,481.62,-1.5019e-05,8.3565,-1.633e-05,-1.492,1.8272
4625,20.871,0.72727,0.1,4.4515e-05,444.85,4.4475e-05,443.73,-1.4287e-05,2.2097,-1.5164e-05,-4.3769,1.8271
4626,20.871,0.54545,0.1,4.19e-05,418.72,4.174e-05,414.18,-1.3289e-05,0.71377,-1.4661e-05,-9.5926,1.827
4627,20.871,0.36364,0.1,4.0037e-05,400.09,3.9786e-05,393.09,-1.249e-05,0.3089,-1.4385e-05,-13.931,1.8269
4628,20.871,0.18182,0.1,3.9119e-05,390.92,3.8786e-05,381.74,-1.2004e-05,0.12441,-1.4398e-05,-17.866,1.8268
4629,20.687,5.8182,0.1,3.6407e-05,363.81,3.6061e-05,354.35,-1.1067e-05,0.25155,-1.3557e-05,-18.462,1.8006
4630,20.687,5.6364,0.1,3.7544e-05,375.18,3.7294e-05,368.23,-1.1645e-05,0.5228,-1.3579e-05,-14.012,1.8008
4631,20.687,5.4545,0.1,3.9937e-05,399.09,3.9757e-05,394.08,-1.2552e-05,1.0451,-1.4129e-05,-10.806,1.8009
4632,20.687,5.2727,0.1,4.3361e-05,433.31,4.3262e-05,430.55,-1.3763e-05,2.087,-1.5032e-05,-7.4477,1.801
4633,20.687,5.0909,0.1,4.7772e-05,477.39,4.7776e-05,477.63,-1.5156e-05,4.7858,-1.6348e-05,-4.1699,1.8011
4634,20.687,4.9091,0.1,5.3095e-05,530.59,5.3245e-05,535.24,-1.6441e-05,11.643,-1.8268e-05,-2.0805,1.8013
4635,20.687,4.7273,0.1,5.9228e-05,591.87,5.9579e-05,602.98,-1.7454e-05,24.187,-2.0826e-05,-1.1488,1.8014
4636,20.687,4.5455,0.1,6.6043e-05,659.98,6.6652e-05,679.95,-1.8154e-05,42.751,-2.3932e-05,-0.66718,1.8015
4637,20.687,4.3636,0.1,7.341e-05,733.59,7.4303e-05,764.22,-1.8608e-05,66.122,-2.7455e-05,-0.34505,1.8016
4638,20.687,4.1818,0.1,8.1226e-05,811.7,8.2375e-05,852.72,-1.9174e-05,89.727,-3.1142e-05,-0.20105,1.8017
4639,20.687,4,0.1,8.9254e-05,891.92,9.059e-05,940.55,-2.0361e-05,106.91,-3.4591e-05,-0.015426,1.8018
4640,20.687,3.8182,0.1,9.702e-05,969.53,9.8443e-05,1020.9,-2.2425e-05,112.79,-3.7447e-05,-0.082772,1.8018
4641,20.687,3.6364,0.1,0.00010381,1037.3,0.00010521,1087,-2.5066e-05,108.09,-3.9499e-05,-0.35035,1.8019
4642,20.687,3.4545,0.1,0.000109,1089.3,0.00011033,1134.7,-2.7654e-05,97.971,-4.0747e-05,-0.40948,1.802
4643,20.687,3.2727,0.1,0.00011239,1123.1,0.00011362,1164.4,-2.962e-05,88.109,-4.1401e-05,-0.40178,1.802
4644,20.687,3.0909,0.1,0.00011403,1139.5,0.0001152,1178.2,-3.0656e-05,82.351,-4.1667e-05,-0.38387,1.802
4645,20.687,2.9091,0.1,0.00011403,1139.5,0.0001152,1178.2,-3.0656e-05,82.351,-4.1667e-05,-0.38387,1.802
4646,20.687,2.7273,0.1,0.00011239,1123.1,0.00011362,1164.4,-2.962e-05,88.109,-4.1401e-05,-0.40178,1.802
4647,20.687,2.5455,0.1,0.000109,1089.3,0.00011033,1134.7,-2.7654e-05,97.97,-4.0747e-05,-0.40948,1.802
4648,20.687,2.3636,0.1,0.00010381,1037.3,0.00010521,1087,-2.5066e-05,108.09,-3.9499e-05,-0.35035,1.8019
4649,20.687,2.1818,0.1,9.702e-05,969.53,9.8443e-05,1020.9,-2.2425e-05,112.79,-3.7447e-05,-0.082773,1.8018
4650,20.687,2,0.1,8.9254e-05,891.92,9.059e-05,940.55,-2.0361e-05,106.91,-3.4591e-05,-0.015426,1.8018
4651,20.687,1.8182,0.1,8.1226e-05,811.7,8.2375e-05,852.72,-1.9174e-05,89.727,-3.1142e-05,-0.20104,1.8017
4652,20.687,1.6364,0.1,7.341e-05,733.59,7.4303e-05,764.22,-1.8608e-05,66.122,-2.7455e-05,-0.34505,1.8016
4653,20.687,1.4545,0.1,6.6043e-05,659.98,6.6652e-05,679.95,-1.8154e-05,42.751,-2.3932e-05,-0.66718,1.8015
4654,20.687,1.2727,0.1,5.9228e-05,591.87,5.9579e-05,602.98,-1.7454e-05,24.187,-2.0826e-05,-1.1488,1.8014
4655,20.687,1.0909,0.1,5.3095e-05,530.59,5.3245e-05,535.24,-1.6441e-05,11.643,-1.8268e-05,-2.0805,1.8013
4656,20.687,0.90909,0.1,4.7772e-05,477.39,4.7776e-05,477.63,-1.5156e-05,4.7858,-1.6348e-05,-4.1699,1.8011
4657,20.687,0.72727,0.1,4.3361e-05,433.31,4.3262e-05,430.55,-1.3763e-05,2.0869,-1.5032e-05,-7.4477,1.801
4658,20.687,0.54545,0.1,3.9937e-05,399.09,3.9757e-05,394.08,-1.2552e-05,1.0451,-1.4129e-05,-10.806,1.8009
4659,20.687,0.36364,0.1,3.7544e-05,375.18,3.7294e-05,368.23,-1.1645e-05,0.5228,-1.3579e-05,-14.013,1.8008
4660,20.687,0.18182,0.1,3.6407e-05,363.81,3.6061e-05,354.35,-1.1067e-05,0.25155,-1.3557e-05,-18.462,1.8006
4661,20.503,5.8182,0.1,3.2442e-05,324.2,3.2097e-05,314.84,-9.7399e-06,0.49649,-1.2254e-05,-18.391,1.7745
4662,20.503,5.6364,0.1,3.3874e-05,338.5,3.3632e-05,331.87,-1.0415e-05,0.91033,-1.2361e-05,-13.708,1.7746
4663,20.503,5.4545,0.1,3.6978e-05,369.53,3.6763e-05,363.59,-1.1437e-05,1.4316,-1.3345e-05,-12.9,1.7748
4664,20.503,5.2727,0.1,4.1453e-05,414.24,4.1234e-05,408.23,-1.2851e-05,1.8568,-1.4888e-05,-13.443,1.7749
4665,20.503,5.0909,0.1,4.7206e-05,471.73,4.6991e-05,465.82,-1.4692e-05,2.364,-1.6838e-05,-13.766,1.7751
4666,20.503,4.9091,0.1,5.417e-05,541.32,5.4006e-05,536.84,-1.6988e-05,3.4162,-1.9047e-05,-12.053,1.7752
4667,20.503,4.7273,0.1,6.2271e-05,622.28,6.2253e-05,621.97,-1.9614e-05,6.8558,-2.149e-05,-7.2438,1.7753
4668,20.503,4.5455,0.1,7.1403e-05,713.54,7.1654e-05,721.4,-2.1815e-05,19.107,-2.4742e-05,-2.8842,1.7755
4669,20.503,4.3636,0.1,8.1435e-05,813.79,8.2056e-05,833.82,-2.3151e-05,43.342,-2.9109e-05,-1.4279,1.7756
4670,20.503,4.1818,0.1,9.2132e-05,920.69,9.3143e-05,954.68,-2.4201e-05,73.008,-3.3997e-05,-0.59202,1.7757
4671,20.503,4,0.1,0.00010328,1032.1,0.00010454,1075.5,-2.6024e-05,94.504,-3.8742e-05,-1.0502,1.7758
4672,20.503,3.8182,0.1,0.00011384,1137.6,0.00011517,1182.8,-2.923e-05,97.886,-4.2397e-05,-1.049,1.7759
4673,20.503,3.6364,0.1,0.00012249,1224.1,0.0001237,1264.1,-3.3226e-05,84.952,-4.4597e-05,-0.48998,1.776
4674,20.503,3.4545,0.1,0.0001285,1284.1,0.00012948,1315.3,-3.6831e-05,65.763,-4.568e-05,-0.72226,1.7761
4675,20.503,3.2727,0.1,0.00013194,1318.5,0.00013271,1342.4,-3.9336e-05,49.708,-4.6028e-05,-0.57979,1.7761
4676,20.503,3.0909,0.1,0.00013345,1333.6,0.0001341,1353.5,-4.057e-05,41.083,-4.6094e-05,-0.41767,1.7762
4677,20.503,2.9091,0.1,0.00013345,1333.6,0.0001341,1353.5,-4.057e-05,41.083,-4.6094e-05,-0.41767,1.7762
4678,20.503,2.7273,0.1,0.00013194,1318.5,0.00013271,1342.4,-3.9336e-05,49.708,-4.6028e-05,-0.57979,1.7761
4679,20.503,2.5455,0.1,0.0001285,1284.1,0.00012948,1315.3,-3.6831e-05,65.763,-4.568e-05,-0.72225,1.7761
4680,20.503,2.3636,0.1,0.00012249,1224.1,0.0001237,1264.1,-3.3226e-05,84.952,-4.4597e-05,-0.48998,1.776
4681,20.503,2.1818,0.1,0.00011384,1137.6,0.00011517,1182.8,-2.923e-05,97.886,-4.2397e-05,-1.049,1.7759
4682,20.503,2,0.1,0.00010328,1032.1,0.00010454,1075.5,-2.6024e-05,94.503,-3.8742e-05,-1.0502,1.7758
4683,20.503,1.8182,0.1,9.2132e-05,920.69,9.3143e-05,954.68,-2.4201e-05,73.008,-3.3997e-05,-0.59203,1.7757
4684,20.503,1.6364,0.1,8.1435e-05,813.79,8.2056e-05,833.82,-2.3151e-05,43.342,-2.9109e-05,-1.4279,1.7756
4685,20.503,1.4545,0.1,7.1403e-05,713.54,7.1654e-05,721.4,-2.1815e-05,19.107,-2.4742e-05,-2.8842,1.7755
4686,20.503,1.2727,0.1,6.2271e-05,622.28,6.2253e-05,621.97,-1.9614e-05,6.8557,-2.149e-05,-7.2439,1.7753
4687,20.503,1.0909,0.1,5.417e-05,541.32,5.4006e-05,536.84,-1.6988e-05,3.4162,-1.9047e-05,-12.053,1.7752
4688,20.503,0.90909,0.1,4.7206e-05,471.73,4.6991e-05,465.82,-1.4692e-05,2.364,-1.6838e-05,-13.766,1.7751
4689,20.503,0.72727,0.1,4.1453e-05,414.24,4.1234e-05,408.23,-1.2851e-05,1.8568,-1.4888e-05,-13.443,1.7749
4690,20.503,0.54545,0.1,3.6978e-05,369.53,3.6763e-05,363.59,-1.1437e-05,1.4316,-1.3345e-05,-12.9,1.7748
4691,20.503,0.36364,0.1,3.3874e-05,338.5,3.3632e-05,331.87,-1.0415e-05,0.91033,-1.2361e-05,-13.708,1.7746
4692,20.503,0.18182,0.1,3.2442e-05,324.2,3.2097e-05,314.84,-9.7399e-06,0.49649,-1.2254e-05,-18.391,1.7745
4693,20.319,5.8182,0.1,2.7175e-05,271.56,2.685e-05,262.93,-7.9978e-06,1.1003,-1.0461e-05,-17.407,1.7484
4694,20.319,5.6364,0.1,2.9128e-05,291.08,2.8893e-05,284.77,-8.7852e-06,1.6686,-1.0828e-05,-13.678,1.7486
4695,20.319,5.4545,0.1,3.3286e-05,332.63,3.2977e-05,324.37,-9.9552e-06,1.7937,-1.2519e-05,-17.472,1.7487
4696,20.319,5.2727,0.1,3.9121e-05,390.94,3.8654e-05,378.55,-1.1507e-05,1.6566,-1.5064e-05,-25.071,1.7489
4697,20.319,5.0909,0.1,4.6477e-05,464.45,4.5822e-05,447.2,-1.348e-05,1.6273,-1.8231e-05,-34.074,1.749
4698,20.319,4.9091,0.1,5.5373e-05,553.35,5.4562e-05,532.04,-1.6006e-05,1.814,-2.1817e-05,-41.852,1.7492
4699,20.319,4.7273,0.1,6.5916e-05,658.71,6.5066e-05,636.18,-1.9304e-05,2.2546,-2.5565e-05,-44.792,1.7493
4700,20.319,4.5455,0.1,7.8254e-05,782,7.7581e-05,763.81,-2.3644e-05,3.2427,-2.9132e-05,-37.992,1.7495
4701,20.319,4.3636,0.1,9.2041e-05,919.78,9.1889e-05,915.77,-2.8853e-05,8.572,-3.2134e-05,-16.079,1.7496
4702,20.319,4.1818,0.1,0.00010725,1071.8,0.00010778,1088.4,-3.232e-05,35.696,-3.727e-05,-1.4971,1.7498
4703,20.319,4,0.1,0.00012324,1231.5,0.0001243,1265,-3.5252e-05,66.19,-4.3647e-05,3.1127,1.7499
4704,20.319,3.8182,0.1,0.0001378,1377,0.00013885,1410.2,-3.9863e-05,67.406,-4.867e-05,1.2338,1.7501
4705,20.319,3.6364,0.1,0.00014836,1482.6,0.00014896,1501.3,-4.5305e-05,41.627,-5.1273e-05,-3.2148,1.7502
4706,20.319,3.4545,0.1,0.0001536,1535,0.00015376,1539.6,-4.9376e-05,13.377,-5.1676e-05,-3.9091,1.7503
4707,20.319,3.2727,0.1,0.00015565,1555.4,0.00015546,1549.8,-5.0666e-05,1.1097,-5.2438e-05,-12.201,1.7503
4708,20.319,3.0909,0.1,0.00015622,1561.2,0.00015586,1550.6,-5.0552e-05,-0.24431,-5.3257e-05,-20.569,1.7504
4709,20.319,2.9091,0.1,0.00015622,1561.2,0.00015586,1550.6,-5.0552e-05,-0.24431,-5.3257e-05,-20.568,1.7504
4710,20.319,2.7273,0.1,0.00015565,1555.4,0.00015546,1549.8,-5.0666e-05,1.1097,-5.2438e-05,-12.201,1.7503
4711,20.319,2.5455,0.1,0.0001536,1535,0.00015376,1539.6,-4.9376e-05,13.377,-5.1676e-05,-3.9091,1.7503
4712,20.319,2.3636,0.1,0.00014836,1482.6,0.00014896,1501.3,-4.5305e-05,41.627,-5.1273e-05,-3.2148,1.7502
4713,20.319,2.1818,0.1,0.0001378,1377,0.00013885,1410.2,-3.9863e-05,67.406,-4.867e-05,1.2338,1.7501
4714,20.319,2,0.1,0.00012324,1231.5,0.0001243,1265,-3.5252e-05,66.19,-4.3647e-05,3.1127,1.7499
4715,20.319,1.8182,0.1,0.00010725,1071.8,0.00010778,1088.4,-3.232e-05,35.696,-3.727e-05,-1.4971,1.7498
4716,20.319,1.6364,0.1,9.2041e-05,919.78,9.1889e-05,915.77,-2.8853e-05,8.572,-3.2134e-05,-16.079,1.7496
4717,20.319,1.4545,0.1,7.8254e-05,782,7.7581e-05,763.81,-2.3644e-05,3.2426,-2.9132e-05,-37.992,1.7495
4718,20.319,1.2727,0.1,6.5916e-05,658.71,6.5066e-05,636.18,-1.9304e-05,2.2546,-2.5565e-05,-44.792,1.7493
4719,20.319,1.0909,0.1,5.5373e-05,553.35,5.4562e-05,532.04,-1.6006e-05,1.814,-2.1817e-05,-41.852,1.7492
4720,20.319,0.90909,0.1,4.6477e-05,464.45,4.5822e-05,447.2,-1.348e-05,1.6273,-1.8231e-05,-34.074,1.749
4721,20.319,0.72727,0.1,3.9121e-05,390.94,3.8654e-05,378.55,-1.1507e-05,1.6566,-1.5064e-05,-25.071,1.7489
4722,20.319,0.54545,0.1,3.3286e-05,332.63,3.2977e-05,324.37,-9.9552e-06,1.7937,-1.2519e-05,-17.472,1.7487
4723,20.319,0.36364,0.1,2.9128e-05,291.08,2.8893e-05,284.77,-8.7852e-06,1.6686,-1.0828e-05,-13.678,1.7486
4724,20.319,0.18182,0.1,2.7175e-05,271.56,2.685e-05,262.93,-7.9978e-06,1.1003,-1.0461e-05,-17.407,1.7484
4725,20.135,5.8182,0.1,2.0733e-05,207.18,2.043e-05,199.47,-5.8403e-06,2.0855,-8.2861e-06,-16.291,1.7223
4726,20.135,5.6364,0.1,2.3913e-05,238.97,2.3606e-05,231.04,-6.8518e-06,2.1945,-9.3937e-06,-16.904,1.7225
4727,20.135,5.4545,0.1,2.974e-05,297.19,2.9146e-05,282.07,-8.1926e-06,1.5244,-1.2303e-05,-29.36,1.7227
4728,20.135,5.2727,0.1,3.7253e-05,372.27,3.6218e-05,346.53,-9.7574e-06,1.0915,-1.6258e-05,-47.748,1.7228
4729,20.135,5.0909,0.1,4.6348e-05,463.16,4.4786e-05,425.03,-1.1654e-05,0.96072,-2.0994e-05,-69.216,1.723
4730,20.135,4.9091,0.1,5.7311e-05,572.71,5.519e-05,521.43,-1.4082e-05,0.95112,-2.6468e-05,-92.107,1.7232
4731,20.135,4.7273,0.1,7.0734e-05,706.85,6.8089e-05,643,-1.7333e-05,1.1659,-3.2738e-05,-114.58,1.7234
4732,20.135,4.5455,0.1,8.7236e-05,871.76,8.4316e-05,800.41,-2.1971e-05,1.806,-3.9459e-05,-129.59,1.7235
4733,20.135,4.3636,0.1,0.00010757,1074.9,0.00010496,1008.8,-2.9059e-05,1.8939,-4.5701e-05,-123.15,1.7237
4734,20.135,4.1818,0.1,0.00013266,1325.7,0.00013102,1281.7,-3.9213e-05,2.6527,-5.1038e-05,-86.197,1.7239
4735,20.135,4,0.1,0.00015623,1561.2,0.00015593,1552.7,-5.0383e-05,2.5245,-5.3292e-05,-19.328,1.7241
4736,20.135,3.8182,0.1,0.00017741,1772.9,0.0001773,1769.9,-5.6747e-05,11.368,-6.0524e-05,-17.011,1.7243
4737,20.135,3.6364,0.1,0.00018511,1849.9,0.00018441,1830.3,-5.8208e-05,7.3238,-6.5227e-05,-45.411,1.7244
4738,20.135,3.4545,0.1,0.0001851,1849.7,0.00018367,1810.2,-5.7131e-05,0.86583,-6.756e-05,-77.496,1.7246
4739,20.135,3.2727,0.1,0.00018251,1823.9,0.00018076,1775.7,-5.5558e-05,0.12206,-6.7941e-05,-92.92,1.7246
4740,20.135,3.0909,0.1,0.00018082,1807,0.00017892,1755,-5.467e-05,-0.063461,-6.7932e-05,-99.709,1.7247
4741,20.135,2.9091,0.1,0.00018082,1807,0.00017892,1755,-5.467e-05,-0.063462,-6.7932e-05,-99.709,1.7247
4742,20.135,2.7273,0.1,0.00018251,1823.9,0.00018076,1775.7,-5.5558e-05,0.12206,-6.7941e-05,-92.92,1.7246
4743,20.135,2.5455,0.1,0.0001851,1849.7,0.00018367,1810.2,-5.7131e-05,0.86582,-6.756e-05,-77.496,1.7246
4744,20.135,2.3636,0.1,0.00018511,1849.9,0.00018441,1830.3,-5.8208e-05,7.3238,-6.5227e-05,-45.411,1.7244
4745,20.135,2.1818,0.1,0.00017741,1772.9,0.0001773,1769.9,-5.6747e-05,11.368,-6.0524e-05,-17.011,1.7243
4746,20.135,2,0.1,0.00015623,1561.2,0.00015593,1552.7,-5.0383e-05,2.5243,-5.3292e-05,-19.328,1.7241
4747,20.135,1.8182,0.1,0.00013266,1325.7,0.00013102,1281.7,-3.9213e-05,2.6527,-5.1038e-05,-86.197,1.7239
4748,20.135,1.6364,0.1,0.00010757,1074.9,0.00010496,1008.8,-2.9059e-05,1.8939,-4.5701e-05,-123.15,1.7237
4749,20.135,1.4545,0.1,8.7236e-05,871.76,8.4316e-05,800.41,-2.1971e-05,1.806,-3.9459e-05,-129.59,1.7235
4750,20.135,1.2727,0.1,7.0734e-05,706.85,6.8089e-05,643,-1.7333e-05,1.1659,-3.2738e-05,-114.58,1.7234
4751,20.135,1.0909,0.1,5.7311e-05,572.71,5.519e-05,521.43,-1.4082e-05,0.95112,-2.6468e-05,-92.108,1.7232
4752,20.135,0.90909,0.1,4.6348e-05,463.16,4.4786e-05,425.03,-1.1654e-05,0.96072,-2.0994e-05,-69.216,1.723
4753,20.135,0.72727,0.1,3.7253e-05,372.27,3.6218e-05,346.53,-9.7574e-06,1.0915,-1.6258e-05,-47.748,1.7228
4754,20.135,0.54545,0.1,2.974e-05,297.19,2.9146e-05,282.07,-8.1926e-06,1.5244,-1.2303e-05,-29.36,1.7227
4755,20.135,0.36364,0.1,2.3913e-05,238.97,2.3606e-05,231.04,-6.8518e-06,2.1945,-9.3937e-06,-16.904,1.7225
4756,20.135,0.18182,0.1,2.0733e-05,207.18,2.043e-05,199.47,-5.8403e-06,2.0855,-8.2861e-06,-16.291,1.7223
4757,19.951,5.8182,0.1,1.4281e-05,142.71,1.3833e-05,132.97,-3.2004e-06,4.9943,-6.6499e-06,-20.923,1.6963
4758,19.951,5.6364,0.1,2.0838e-05,208.23,1.9979e-05,188.45,-4.7385e-06,2.7343,-9.9832e-06,-36.673,1.6964
4759,19.951,5.4545,0.1,2.9195e-05,291.75,2.7568e-05,255.01,-6.0912e-06,2.1075,-1.4912e-05,-64.172,1.6966
4760,19.951,5.2727,0.1,3.8738e-05,387.11,3.6156e-05,329.89,-7.4952e-06,1.9111,-2.0676e-05,-97.124,1.6968
4761,19.951,5.0909,0.1,4.9858e-05,498.24,4.6146e-05,417.11,-9.1049e-06,1.9761,-2.7389e-05,-135.41,1.697
4762,19.951,4.9091,0.1,6.3292e-05,632.49,5.8244e-05,523.29,-1.1071e-05,2.4755,-3.5427e-05,-180.52,1.6972
4763,19.951,4.7273,0.1,8.032e-05,802.65,7.3651e-05,659.01,-1.3724e-05,2.5138,-4.5442e-05,-235.8,1.6974
4764,19.951,4.5455,0.1,0.00010303,1029.6,9.4475e-05,846.45,-1.7362e-05,6.1521,-5.8382e-05,-302.06,1.6976
4765,19.951,4.3636,0.1,0.00013684,1367.5,0.00012554,1122.4,-2.3762e-05,0.63561,-7.7206e-05,-400.92,1.6979
4766,19.951,4.1818,0.1,0.00018836,1882.3,0.00017815,1659.6,-3.7469e-05,39.531,-9.6658e-05,-405.19,1.6981
4767,19.951,4,0.1,0.00023894,2387.8,0.00023562,2324.3,-5.756e-05,121.51,-0.00010209,-213.1,1.6984
4768,19.951,3.8182,0.1,0.00024917,2490,0.00024681,2428.7,-7.2935e-05,26.281,-9.5123e-05,-140.43,1.6986
4769,19.951,3.6364,0.1,0.00023685,2366.9,0.0002332,2270.9,-6.8347e-05,5.1696,-9.3731e-05,-185.56,1.6988
4770,19.951,3.4545,0.1,0.00021901,2188.6,0.00021525,2089.5,-6.2952e-05,-0.83698,-8.7555e-05,-185.69,1.699
4771,19.951,3.2727,0.1,0.00020853,2083.9,0.00020476,1985.1,-5.9364e-05,0.62081,-8.4147e-05,-185.59,1.6991
4772,19.951,3.0909,0.1,0.00020357,2034.3,0.00019981,1935.9,-5.7852e-05,-0.036814,-8.2359e-05,-184.18,1.6991
4773,19.951,2.9091,0.1,0.00020357,2034.3,0.00019981,1935.9,-5.7852e-05,-0.036814,-8.2359e-05,-184.18,1.6991
4774,19.951,2.7273,0.1,0.00020853,2083.9,0.00020476,1985.1,-5.9364e-05,0.62081,-8.4147e-05,-185.59,1.6991
4775,19.951,2.5455,0.1,0.00021901,2188.6,0.00021525,2089.5,-6.2952e-05,-0.83698,-8.7555e-05,-185.69,1.699
4776,19.951,2.3636,0.1,0.00023685,2366.9,0.0002332,2270.9,-6.8347e-05,5.1696,-9.3731e-05,-185.56,1.6988
4777,19.951,2.1818,0.1,0.00024917,2490,0.00024681,2428.7,-7.2935e-05,26.281,-9.5123e-05,-140.43,1.6986
4778,19.951,2,0.1,0.00023894,2387.8,0.00023562,2324.3,-5.756e-05,121.51,-0.00010209,-213.11,1.6984
4779,19.951,1.8182,0.1,0.00018836,1882.3,0.00017815,1659.6,-3.7469e-05,39.531,-9.6658e-05,-405.19,1.6981
4780,19.951,1.6364,0.1,0.00013684,1367.5,0.00012554,1122.4,-2.3762e-05,0.6356,-7.7206e-05,-400.92,1.6979
4781,19.951,1.4545,0.1,0.00010303,1029.6,9.4475e-05,846.45,-1.7362e-05,6.1521,-5.8382e-05,-302.06,1.6976
4782,19.951,1.2727,0.1,8.032e-05,802.65,7.3651e-05,659.01,-1.3724e-05,2.5138,-4.5442e-05,-235.8,1.6974
4783,19.951,1.0909,0.1,6.3292e-05,632.49,5.8244e-05,523.29,-1.1071e-05,2.4755,-3.5427e-05,-180.52,1.6972
4784,19.951,0.90909,0.1,4.9858e-05,498.24,4.6146e-05,417.11,-9.1049e-06,1.9761,-2.7389e-05,-135.41,1.697
4785,19.951,0.72727,0.1,3.8738e-05,387.11,3.6156e-05,329.89,-7.4952e-06,1.911,-2.0676e-05,-97.124,1.6968
4786,19.951,0.54545,0.1,2.9195e-05,291.75,2.7568e-05,255.01,-6.0912e-06,2.1075,-1.4912e-05,-64.172,1.6966
4787,19.951,0.36364,0.1,2.0838e-05,208.23,1.9979e-05,188.45,-4.7385e-06,2.7343,-9.9832e-06,-36.673,1.6964
4788,19.951,0.18182,0.1,1.4281e-05,142.71,1.3833e-05,132.97,-3.2004e-06,4.9943,-6.6499e-06,-20.923,1.6963
4789,0.18491,0.18182,0.1,0.00040653,4062.5,0.00040024,3895.1,-0.00011849,-2.4669,-0.00016001,-314.41,8.9368e-05
4790,0.18491,0.36364,0.1,0.00045596,4556.5,0.00044236,4489.1,-4.6172e-05,818.53,-0.00023637,-610.56,0.00014044
4791,0.18491,0.54545,0.1,0.00052232,5219.6,0.00050147,5180,-2.0913e-05,1255,-0.00028691,-743.57,0.00017019
4792,0.18491,0.72727,0.1,0.0005743,5739.1,0.000549,5709.2,-1.0551e-05,1505,-0.0003212,-829.12,0.00018905
4793,0.18491,0.90909,0.1,0.00061329,6128.6,0.00058545,6107.3,-6.1272e-06,1662.5,-0.00034504,-883.99,0.00020202
4794,0.18491,1.0909,0.1,0.0006427,6422.5,0.00061319,6407.3,-3.8602e-06,1771,-0.0003625,-923.61,0.00021138
4795,0.18491,1.2727,0.1,0.00066519,6647.3,0.00063453,6637,-2.6009e-06,1849.8,-0.00037559,-952.7,0.00021838
4796,0.18491,1.4545,0.1,0.00068263,6821.6,0.00065113,6815.1,-1.8401e-06,1908.9,-0.00038564,-974.78,0.00022371
4797,0.18491,1.6364,0.1,0.00069626,6957.8,0.00066414,6954.4,-1.3562e-06,1954.1,-0.00039343,-991.75,0.00022783
4798,0.18491,1.8182,0.1,0.00070695,7064.6,0.00067436,7063.7,-1.0355e-06,1989,-0.00039951,-1004.9,0.00023104
4799,0.18491,2,0.1,0.0007153,7148.1,0.00068235,7149.1,-8.1729e-07,2016.1,-0.00040424,-1015.1,0.00023353
4800,0.18491,2.1818,0.1,0.00072175,7212.5,0.00068853,7215.1,-6.6673e-07,2036.8,-0.00040788,-1022.9,0.00023544
4801,0.18491,2.3636,0.1,0.0007266,7261,0.00069318,7264.7,-5.6312e-07,2052.2,-0.00041062,-1028.8,0.00023688
4802,0.18491,2.5455,0.1,0.00073007,7295.7,0.0006965,7300.3,-4.9384e-07,2063.3,-0.00041257,-1032.9,0.0002379
4803,0.18491,2.7273,0.1,0.00073231,7318.1,0.00069865,7323.2,-4.5125e-07,2070.4,-0.00041383,-1035.6,0.00023856
4804,0.18491,2.9091,0.1,0.00073341,7329,0.0006997,7334.4,-4.3095e-07,2073.9,-0.00041445,-1036.9,0.00023888
4805,0.18491,3.0909,0.1,0.00073341,7329,0.0006997,7334.4,-4.3095e-07,2073.9,-0.00041445,-1036.9,0.00023888
4806,0.18491,3.2727,0.1,0.00073231,7318.1,0.00069865,7323.2,-4.5125e-07,2070.4,-0.00041383,-1035.6,0.00023856
4807,0.18491,3.4545,0.1,0.00073007,7295.7,0.0006965,7300.3,-4.9384e-07,2063.3,-0.00041257,-1032.9,0.0002379
4808,0.18491,3.6364,0.1,0.0007266,7261,0.00069318,7264.7,-5.6312e-07,2052.2,-0.00041062,-1028.8,0.00023688
4809,0.18491,3.8182,0.1,0.00072175,7212.5,0.00068853,7215.1,-6.6673e-07,2036.8,-0.00040788,-1022.9,0.00023544
4810,0.18491,4,0.1,0.0007153,7148.1,0.00068235,7149.1,-8.1729e-07,2016.1,-0.00040424,-1015.1,0.00023353
4811,0.18491,4.1818,0.1,0.00070695,7064.6,0.00067436,7063.7,-1.0355e-06,1989,-0.00039951,-1004.9,0.00023104
4812,0.18491,4.3636,0.1,0.00069626,6957.8,0.00066414,6954.4,-1.3562e-06,1954.1,-0.00039343,-991.75,0.00022783
4813,0.18491,4.5455,0.1,0.00068263,6821.6,0.00065113,6815.1,-1.8401e-06,1908.9,-0.00038564,-974.78,0.00022371
4814,0.18491,4.7273,0.1,0.00066519,6647.3,0.00063453,6637,-2.6009e-06,1849.8,-0.00037559,-952.7,0.00021838
4815,0.18491,4.9091,0.1,0.0006427,6422.5,0.00061319,6407.3,-3.8602e-06,1771,-0.0003625,-923.61,0.00021138
4816,0.18491,5.0909,0.1,0.00061329,6128.6,0.00058545,6107.3,-6.1272e-06,1662.5,-0.00034504,-883.99,0.00020202
4817,0.18491,5.2727,0.1,0.0005743,5739.1,0.000549,5709.2,-1.0551e-05,1505,-0.0003212,-829.12,0.00018905
4818,0.18491,5.4545,0.1,0.00052232,5219.6,0.00050147,5180,-2.0913e-05,1255,-0.00028691,-743.57,0.00017019
4819,0.18491,5.6364,0.1,0.00045596,4556.5,0.00044236,4489.1,-4.6172e-05,818.53,-0.00023637,-610.56,0.00014044
4820,0.18491,5.8182,0.1,0.00040653,4062.5,0.00040024,3895.1,-0.00011849,-2.4667,-0.00016001,-314.41,8.9368e-05
4821,0.36981,0.18182,0.1,0.00050465,5043,0.00050424,5035.3,-0.00015508,81.467,-0.00017822,-92.416,0.00039596
4822,0.36981,0.36364,0.1,0.00047906,4787.3,0.00049047,5163.8,-0.00010929,657.43,-0.00017842,138,0.00054133
4823,0.36981,0.54545,0.1,0.00048421,4838.7,0.00049969,5455.4,-6.4563e-05,1215.8,-0.0002019,183.92,0.00063867
4824,0.36981,0.72727,0.1,0.000503,5026.6,0.00051909,5780.1,-3.8689e-05,1589.1,-0.00022263,207.08,0.00070566
4825,0.36981,0.90909,0.1,0.00052429,5239.3,0.00054028,6078.7,-2.4201e-05,1837.4,-0.0002392,221.97,0.00075356
4826,0.36981,1.0909,0.1,0.00054393,5435.5,0.00055983,6333.6,-1.5932e-05,2007.6,-0.00025219,232.43,0.00078897
4827,0.36981,1.2727,0.1,0.00056079,5604,0.00057666,6544.5,-1.0976e-05,2129.2,-0.00026241,240.07,0.00081579
4828,0.36981,1.4545,0.1,0.00057483,5744.4,0.00059074,6716.7,-7.8694e-06,2219,-0.00027048,245.82,0.00083645
4829,0.36981,1.6364,0.1,0.00058635,5859.5,0.00060232,6856.3,-5.8436e-06,2286.7,-0.00027689,250.23,0.00085254
4830,0.36981,1.8182,0.1,0.0005957,5952.9,0.00061174,6968.6,-4.4814e-06,2338.5,-0.00028197,253.64,0.00086512
4831,0.36981,2,0.1,0.00060319,6027.7,0.00061929,7058,-3.5456e-06,2378.3,-0.00028597,256.28,0.00087494
4832,0.36981,2.1818,0.1,0.00060907,6086.5,0.00062524,7128.1,-2.896e-06,2408.6,-0.00028908,258.3,0.0008825
4833,0.36981,2.3636,0.1,0.00061356,6131.4,0.00062977,7181.4,-2.4471e-06,2431.1,-0.00029143,259.81,0.00088819
4834,0.36981,2.5455,0.1,0.0006168,6163.8,0.00063305,7219.8,-2.1462e-06,2447.2,-0.00029312,260.89,0.00089226
4835,0.36981,2.7273,0.1,0.00061891,6184.8,0.00063518,7244.7,-1.9609e-06,2457.5,-0.00029422,261.58,0.00089488
4836,0.36981,2.9091,0.1,0.00061994,6195.1,0.00063623,7256.9,-1.8726e-06,2462.5,-0.00029475,261.91,0.00089616
4837,0.36981,3.0909,0.1,0.00061994,6195.1,0.00063623,7256.9,-1.8726e-06,2462.5,-0.00029475,261.91,0.00089616
4838,0.36981,3.2727,0.1,0.00061891,6184.8,0.00063518,7244.7,-1.9609e-06,2457.5,-0.00029422,261.58,0.00089488
4839,0.36981,3.4545,0.1,0.0006168,6163.8,0.00063305,7219.8,-2.1462e-06,2447.2,-0.00029312,260.89,0.00089226
4840,0.36981,3.6364,0.1,0.00061356,6131.4,0.00062977,7181.4,-2.4471e-06,2431.1,-0.00029143,259.81,0.00088819
4841,0.36981,3.8182,0.1,0.00060907,6086.5,0.00062524,7128.1,-2.896e-06,2408.6,-0.00028908,258.3,0.0008825
4842,0.36981,4,0.1,0.00060319,6027.7,0.00061929,7058,-3.5456e-06,2378.3,-0.00028597,256.28,0.00087494
4843,0.36981,4.1818,0.1,0.0005957,5952.9,0.00061174,6968.6,-4.4814e-06,2338.5,-0.00028197,253.64,0.00086512
4844,0.36981,4.3636,0.1,0.00058635,5859.5,0.00060232,6856.3,-5.8436e-06,2286.7,-0.00027689,250.23,0.00085254
4845,0.36981,4.5455,0.1,0.00057483,5744.4,0.00059074,6716.7,-7.8694e-06,2219,-0.00027048,245.82,0.00083645
4846,0.36981,4.7273,0.1,0.00056079,5604,0.00057666,6544.5,-1.0976e-05,2129.2,-0.00026241,240.07,0.00081579
4847,0.36981,4.9091,0.1,0.00054393,5435.5,0.00055983,6333.6,-1.5932e-05,2007.6,-0.00025219,232.43,0.00078897
4848,0.36981,5.0909,0.1,0.00052429,5239.3,0.00054028,6078.7,-2.4201e-05,1837.4,-0.0002392,221.97,0.00075356
4849,0.36981,5.2727,0.1,0.000503,5026.6,0.00051909,5780.1,-3.8689e-05,1589.1,-0.00022263,207.08,0.00070566
4850,0.36981,5.4545,0.1,0.00048421,4838.7,0.00049969,5455.4,-6.4563e-05,1215.8,-0.0002019,183.92,0.00063867
4851,0.36981,5.6364,0.1,0.00047906,4787.3,0.00049047,5163.8,-0.00010929,657.43,-0.00017842,138,0.00054133
4852,0.36981,5.8182,0.1,0.00050465,5043,0.00050424,5035.3,-0.00015508,81.467,-0.00017822,-92.415,0.00039596
4853,0.55472,0.18182,0.1,0.00055856,5581.7,0.00055674,5529.6,-0.00017912,0.66463,-0.00019297,-103.38,0.0010037
4854,0.55472,0.36364,0.1,0.00053569,5353.2,0.00054056,5523.9,-0.00014,410.5,-0.00020003,-40.514,0.001256
4855,0.55472,0.54545,0.1,0.00052928,5289.1,0.00053716,5634.6,-9.8655e-05,857.3,-0.00021931,-49.226,0.00144
4856,0.55472,0.72727,0.1,0.00053346,5331,0.00054175,5798.6,-6.7628e-05,1219.9,-0.00023716,-53.869,0.001575
4857,0.55472,0.90909,0.1,0.00054377,5433.9,0.00055135,5982.9,-4.6476e-05,1491.1,-0.00025253,-57.102,0.0016757
4858,0.55472,1.0909,0.1,0.0005563,5559.2,0.00056298,6163.7,-3.2547e-05,1689.2,-0.00026528,-59.492,0.0017523
4859,0.55472,1.2727,0.1,0.00056882,5684.3,0.00057474,6328.7,-2.3378e-05,1834.6,-0.00027571,-61.273,0.0018114
4860,0.55472,1.4545,0.1,0.00058029,5798.9,0.00058564,6472.9,-1.725e-05,1943,-0.00028418,-62.629,0.0018575
4861,0.55472,1.6364,0.1,0.00059032,5899.1,0.00059525,6595.6,-1.3074e-05,2024.9,-0.00029105,-63.673,0.0018938
4862,0.55472,1.8182,0.1,0.00059883,5984.2,0.00060347,6698.1,-1.0179e-05,2087.4,-0.00029657,-64.483,0.0019224
4863,0.55472,2,0.1,0.00060587,6054.5,0.0006103,6781.9,-8.1455e-06,2135.1,-0.00030098,-65.111,0.0019448
4864,0.55472,2.1818,0.1,0.00061154,6111.2,0.00061582,6848.9,-6.7114e-06,2171.4,-0.00030444,-65.592,0.0019622
4865,0.55472,2.3636,0.1,0.00061593,6155.1,0.00062011,6900.6,-5.7092e-06,2198.4,-0.00030707,-65.952,0.0019752
4866,0.55472,2.5455,0.1,0.00061915,6187.2,0.00062326,6938.2,-5.032e-06,2217.5,-0.00030897,-66.209,0.0019846
4867,0.55472,2.7273,0.1,0.00062125,6208.2,0.00062532,6962.8,-4.6129e-06,2229.7,-0.00031021,-66.374,0.0019907
4868,0.55472,2.9091,0.1,0.00062229,6218.6,0.00062634,6974.9,-4.4124e-06,2235.7,-0.00031081,-66.455,0.0019936
4869,0.55472,3.0909,0.1,0.00062229,6218.6,0.00062634,6974.9,-4.4124e-06,2235.7,-0.00031081,-66.455,0.0019936
4870,0.55472,3.2727,0.1,0.00062125,6208.2,0.00062532,6962.8,-4.6129e-06,2229.7,-0.00031021,-66.374,0.0019907
4871,0.55472,3.4545,0.1,0.00061915,6187.2,0.00062326,6938.2,-5.032e-06,2217.5,-0.00030897,-66.209,0.0019846
4872,0.55472,3.6364,0.1,0.00061593,6155.1,0.00062011,6900.6,-5.7092e-06,2198.4,-0.00030707,-65.952,0.0019752
4873,0.55472,3.8182,0.1,0.00061154,6111.2,0.00061582,6848.9,-6.7114e-06,2171.4,-0.00030444,-65.592,0.0019622
4874,0.55472,4,0.1,0.00060587,6054.5,0.0006103,6781.9,-8.1455e-06,2135.1,-0.00030098,-65.111,0.0019448
4875,0.55472,4.1818,0.1,0.00059883,5984.2,0.00060347,6698.1,-1.0179e-05,2087.4,-0.00029657,-64.483,0.0019224
4876,0.55472,4.3636,0.1,0.00059032,5899.1,0.00059525,6595.6,-1.3074e-05,2024.9,-0.00029105,-63.673,0.0018938
4877,0.55472,4.5455,0.1,0.00058029,5798.9,0.00058564,6472.9,-1.725e-05,1943,-0.00028418,-62.629,0.0018575
4878,0.55472,4.7273,0.1,0.00056882,5684.3,0.00057474,6328.7,-2.3378e-05,1834.6,-0.00027571,-61.273,0.0018114
4879,0.55472,4.9091,0.1,0.0005563,5559.2,0.00056298,6163.7,-3.2547e-05,1689.2,-0.00026528,-59.492,0.0017523
4880,0.55472,5.0909,0.1,0.00054377,5433.9,0.00055135,5982.9,-4.6476e-05,1491.1,-0.00025253,-57.102,0.0016757
4881,0.55472,5.2727,0.1,0.00053346,5331,0.00054175,5798.6,-6.7628e-05,1219.9,-0.00023716,-53.869,0.001575
4882,0.55472,5.4545,0.1,0.00052928,5289.1,0.00053716,5634.6,-9.8655e-05,857.3,-0.00021931,-49.226,0.00144
4883,0.55472,5.6364,0.1,0.00053569,5353.2,0.00054056,5523.9,-0.00014,410.5,-0.00020003,-40.514,0.001256
4884,0.55472,5.8182,0.1,0.00055856,5581.7,0.00055674,5529.6,-0.00017912,0.66465,-0.00019297,-103.38,0.0010037
4885,0.73962,0.18182,0.1,0.00058432,5839.2,0.00058337,5812.2,-0.00018773,18.395,-0.00019969,-71.46,0.0019561
4886,0.73962,0.36364,0.1,0.00056093,5605.4,0.00056602,5769.2,-0.00015702,336.6,-0.00020106,5.7308,0.0023138
4887,0.73962,0.54545,0.1,0.00054854,5481.6,0.0005574,5806.2,-0.00012158,704.6,-0.00021394,10.627,0.0025897
4888,0.73962,0.72727,0.1,0.00054373,5433.6,0.00055428,5884.3,-9.126e-05,1034,-0.00022721,12.44,0.002802
4889,0.73962,0.90909,0.1,0.00054497,5445.9,0.00055579,5989.3,-6.7635e-05,1305.1,-0.00023951,13.688,0.0029663
4890,0.73962,1.0909,0.1,0.00055005,5496.7,0.00056046,6106.6,-5.0201e-05,1518.3,-0.00025034,14.48,0.0030946
4891,0.73962,1.2727,0.1,0.00055701,5566.3,0.00056682,6224.5,-3.7658e-05,1682.7,-0.00025961,15.043,0.0031956
4892,0.73962,1.4545,0.1,0.00056452,5641.3,0.00057374,6335.5,-2.8698e-05,1809,-0.00026741,15.454,0.0032755
4893,0.73962,1.6364,0.1,0.0005718,5714,0.00058052,6435.5,-2.2286e-05,1906.2,-0.00027389,15.767,0.0033391
4894,0.73962,1.8182,0.1,0.00057841,5780.1,0.00058674,6522.4,-1.7674e-05,1981.1,-0.00027921,16.007,0.0033897
4895,0.73962,2,0.1,0.00058415,5837.4,0.00059219,6595.9,-1.4348e-05,2038.6,-0.00028351,16.193,0.0034296
4896,0.73962,2.1818,0.1,0.00058893,5885.2,0.00059675,6656,-1.1954e-05,2082.4,-0.00028693,16.336,0.0034606
4897,0.73962,2.3636,0.1,0.00059273,5923.2,0.0006004,6703.2,-1.0257e-05,2115,-0.00028956,16.442,0.0034841
4898,0.73962,2.5455,0.1,0.00059556,5951.5,0.00060312,6738.1,-9.0978e-06,2138.1,-0.00029146,16.519,0.003501
4899,0.73962,2.7273,0.1,0.00059744,5970.2,0.00060493,6761.1,-8.3755e-06,2152.9,-0.00029271,16.567,0.0035119
4900,0.73962,2.9091,0.1,0.00059837,5979.6,0.00060583,6772.5,-8.0287e-06,2160.2,-0.00029332,16.591,0.0035173
4901,0.73962,3.0909,0.1,0.00059837,5979.6,0.00060583,6772.5,-8.0287e-06,2160.2,-0.00029332,16.591,0.0035173
4902,0.73962,3.2727,0.1,0.00059744,5970.2,0.00060493,6761.1,-8.3755e-06,2152.9,-0.00029271,16.567,0.0035119
4903,0.73962,3.4545,0.1,0.00059556,5951.5,0.00060312,6738.1,-9.0978e-06,2138.1,-0.00029146,16.519,0.003501
4904,0.73962,3.6364,0.1,0.00059273,5923.2,0.0006004,6703.2,-1.0257e-05,2115,-0.00028956,16.442,0.0034841
4905,0.73962,3.8182,0.1,0.00058893,5885.2,0.00059675,6656,-1.1954e-05,2082.4,-0.00028693,16.336,0.0034606
4906,0.73962,4,0.1,0.00058415,5837.4,0.00059219,6595.9,-1.4348e-05,2038.6,-0.00028351,16.193,0.0034296
4907,0.73962,4.1818,0.1,0.00057841,5780.1,0.00058674,6522.4,-1.7674e-05,1981.1,-0.00027921,16.007,0.0033897
4908,0.73962,4.3636,0.1,0.0005718,5714,0.00058052,6435.5,-2.2286e-05,1906.2,-0.00027389,15.767,0.0033391
4909,0.73962,4.5455,0.1,0.00056452,5641.3,0.00057374,6335.5,-2.8698e-05,1809,-0.00026741,15.454,0.0032755
4910,0.73962,4.7273,0.1,0.00055701,5566.3,0.00056682,6224.5,-3.7658e-05,1682.7,-0.00025961,15.043,0.0031956
4911,0.73962,4.9091,0.1,0.00055005,5496.7,0.00056046,6106.6,-5.0201e-05,1518.3,-0.00025034,14.48,0.0030946
4912,0.73962,5.0909,0.1,0.00054497,5445.9,0.00055579,5989.3,-6.7635e-05,1305.1,-0.00023951,13.688,0.0029663
4913,0.73962,5.2727,0.1,0.00054373,5433.6,0.00055428,5884.3,-9.126e-05,1034,-0.00022721,12.44,0.002802
4914,0.73962,5.4545,0.1,0.00054854,5481.6,0.0005574,5806.2,-0.00012158,704.6,-0.00021394,10.627,0.0025897
4915,0.73962,5.6364,0.1,0.00056093,5605.4,0.00056602,5769.2,-0.00015702,336.6,-0.00020106,5.7308,0.0023138
4916,0.73962,5.8182,0.1,0.00058432,5839.2,0.00058337,5812.2,-0.00018773,18.395,-0.00019969,-71.46,0.0019561
4917,0.92453,0.18182,0.1,0.00059865,5982.4,0.00059798,5963.1,-0.00019375,14.383,-0.00020262,-52.259,0.0032786
4918,0.92453,0.36364,0.1,0.00057769,5772.9,0.00058188,5906.7,-0.00016654,283.27,-0.0002049,-4.9315,0.0037365
4919,0.92453,0.54545,0.1,0.00056437,5639.9,0.00057196,5908,-0.00013626,586.71,-0.00021487,-3.9624,0.0041031
4920,0.92453,0.72727,0.1,0.00055602,5556.4,0.00056559,5938.9,-0.00010858,873.48,-0.00022537,-4.017,0.0043953
4921,0.92453,0.90909,0.1,0.00055236,5519.8,0.0005627,5993.3,-8.5121e-05,1125.8,-0.00023549,-4.0091,0.0046282
4922,0.92453,1.0909,0.1,0.00055244,5520.6,0.00056275,6063.4,-6.6325e-05,1336.8,-0.00024478,-4.0674,0.0048144
4923,0.92453,1.2727,0.1,0.00055502,5546.4,0.00056491,6141.5,-5.1783e-05,1507.8,-0.00025301,-4.1278,0.0049637
4924,0.92453,1.4545,0.1,0.00055901,5586.2,0.00056834,6220.7,-4.0754e-05,1644.2,-0.00026014,-4.1867,0.0050837
4925,0.92453,1.6364,0.1,0.00056356,5631.8,0.00057236,6296.3,-3.2473e-05,1751.9,-0.0002662,-4.2367,0.0051803
4926,0.92453,1.8182,0.1,0.00056814,5677.5,0.00057646,6365.2,-2.6289e-05,1836.4,-0.00027127,-4.2773,0.0052577
4927,0.92453,2,0.1,0.0005724,5720,0.00058032,6425.5,-2.1696e-05,1902.2,-0.00027543,-4.309,0.0053192
4928,0.92453,2.1818,0.1,0.00057611,5757.1,0.00058372,6476.1,-1.8317e-05,1952.6,-0.00027878,-4.3333,0.0053674
4929,0.92453,2.3636,0.1,0.00057916,5787.6,0.00058654,6516.7,-1.5881e-05,1990.4,-0.00028136,-4.3513,0.0054039
4930,0.92453,2.5455,0.1,0.00058148,5810.8,0.0005887,6547.2,-1.4197e-05,2017.3,-0.00028326,-4.364,0.0054303
4931,0.92453,2.7273,0.1,0.00058304,5826.4,0.00059015,6567.4,-1.3139e-05,2034.5,-0.0002845,-4.372,0.0054474
4932,0.92453,2.9091,0.1,0.00058382,5834.2,0.00059089,6577.5,-1.2628e-05,2042.9,-0.00028511,-4.3759,0.0054558
4933,0.92453,3.0909,0.1,0.00058382,5834.2,0.00059089,6577.5,-1.2628e-05,2042.9,-0.00028511,-4.3759,0.0054558
4934,0.92453,3.2727,0.1,0.00058304,5826.4,0.00059015,6567.4,-1.3139e-05,2034.5,-0.0002845,-4.372,0.0054474
4935,0.92453,3.4545,0.1,0.00058148,5810.8,0.0005887,6547.2,-1.4197e-05,2017.3,-0.00028326,-4.364,0.0054303
4936,0.92453,3.6364,0.1,0.00057916,5787.6,0.00058654,6516.7,-1.5881e-05,1990.4,-0.00028136,-4.3513,0.0054039
4937,0.92453,3.8182,0.1,0.00057611,5757.1,0.00058372,6476.1,-1.8317e-05,1952.6,-0.00027878,-4.3333,0.0053674
4938,0.92453,4,0.1,0.0005724,5720,0.00058032,6425.5,-2.1696e-05,1902.2,-0.00027543,-4.309,0.0053192
4939,0.92453,4.1818,0.1,0.00056814,5677.5,0.00057646,6365.2,-2.6289e-05,1836.4,-0.00027127,-4.2773,0.0052577
4940,0.92453,4.3636,0.1,0.00056356,5631.8,0.00057236,6296.3,-3.2473e-05,1751.9,-0.0002662,-4.2367,0.0051803
4941,0.92453,4.5455,0.1,0.00055901,5586.2,0.00056834,6220.7,-4.0754e-05,1644.2,-0.00026014,-4.1867,0.0050837
4942,0.92453,4.7273,0.1,0.00055502,5546.4,0.00056491,6141.5,-5.1783e-05,1507.8,-0.00025301,-4.1278,0.0049637
4943,0.92453,4.9091,0.1,0.00055244,5520.6,0.00056275,6063.4,-6.6325e-05,1336.8,-0.00024478,-4.0674,0.0048144
4944,0.92453,5.0909,0.1,0.00055236,5519.8,0.0005627,5993.3,-8.5121e-05,1125.8,-0.00023549,-4.0091,0.0046282
4945,0.92453,5.2727,0.1,0.00055602,5556.4,0.00056559,5938.9,-0.00010858,873.48,-0.00022537,-4.017,0.0043953
4946,0.92453,5.4545,0.1,0.00056437,5639.9,0.00057196,5908,-0.00013626,586.71,-0.00021487,-3.9624,0.0041031
4947,0.92453,5.6364,0.1,0.00057769,5772.9,0.00058188,5906.7,-0.00016654,283.27,-0.0002049,-4.9315,0.0037365
4948,0.92453,5.8182,0.1,0.00059865,5982.4,0.00059798,5963.1,-0.00019375,14.383,-0.00020262,-52.259,0.0032786
4949,1.1094,0.18182,0.1,0.00060539,6049.7,0.00060508,6041,-0.00019658,17.622,-0.00020355,-34.709,0.0049865
4950,1.1094,0.36364,0.1,0.00058641,5860,0.00059027,5981.8,-0.0001721,253.58,-0.00020608,-1.6951,0.0055377
4951,1.1094,0.54545,0.1,0.00057314,5727.4,0.00058011,5965.7,-0.00014587,510.93,-0.00021388,-0.043066,0.0059911
4952,1.1094,0.72727,0.1,0.00056327,5628.9,0.00057235,5970.7,-0.00012105,760.72,-0.00022226,0.30013,0.006362
4953,1.1094,0.90909,0.1,0.0005569,5565.1,0.00056711,5994,-9.8899e-05,989.9,-0.00023057,0.57265,0.0066647
4954,1.1094,1.0909,0.1,0.00055369,5533.1,0.00056427,6031.8,-8.0095e-05,1190.3,-0.00023843,0.71206,0.0069115
4955,1.1094,1.2727,0.1,0.00055298,5526,0.00056344,6079.5,-6.4715e-05,1359.8,-0.00024559,0.79953,0.0071128
4956,1.1094,1.4545,0.1,0.000554,5536.2,0.00056408,6132.1,-5.2453e-05,1499.7,-0.00025194,0.85149,0.0072769
4957,1.1094,1.6364,0.1,0.00055607,5556.9,0.00056569,6185.7,-4.2846e-05,1613.4,-0.00025746,0.88499,0.0074103
4958,1.1094,1.8182,0.1,0.00055865,5582.6,0.0005678,6236.8,-3.5416e-05,1704.5,-0.00026216,0.90762,0.0075182
4959,1.1094,2,0.1,0.00056133,5609.5,0.00057007,6283.3,-2.9737e-05,1776.6,-0.00026607,0.92383,0.0076046
4960,1.1094,2.1818,0.1,0.00056386,5634.7,0.00057225,6323.6,-2.5464e-05,1832.6,-0.00026925,0.9358,0.0076726
4961,1.1094,2.3636,0.1,0.00056604,5656.5,0.00057415,6356.6,-2.2329e-05,1874.9,-0.00027173,0.94467,0.0077245
4962,1.1094,2.5455,0.1,0.00056775,5673.6,0.00057567,6381.7,-2.0134e-05,1905.1,-0.00027356,0.95101,0.007762
4963,1.1094,2.7273,0.1,0.00056893,5685.4,0.00057672,6398.6,-1.8743e-05,1924.6,-0.00027476,0.95512,0.0077864
4964,1.1094,2.9091,0.1,0.00056953,5691.4,0.00057725,6407.1,-1.8068e-05,1934.1,-0.00027535,0.95715,0.0077984
4965,1.1094,3.0909,0.1,0.00056953,5691.4,0.00057725,6407.1,-1.8068e-05,1934.1,-0.00027535,0.95715,0.0077984
4966,1.1094,3.2727,0.1,0.00056893,5685.4,0.00057672,6398.6,-1.8743e-05,1924.6,-0.00027476,0.95512,0.0077864
4967,1.1094,3.4545,0.1,0.00056775,5673.6,0.00057567,6381.7,-2.0134e-05,1905.1,-0.00027356,0.95101,0.007762
4968,1.1094,3.6364,0.1,0.00056604,5656.5,0.00057415,6356.6,-2.2329e-05,1874.9,-0.00027173,0.94467,0.0077245
4969,1.1094,3.8182,0.1,0.00056386,5634.7,0.00057225,6323.6,-2.5464e-05,1832.6,-0.00026925,0.9358,0.0076726
4970,1.1094,4,0.1,0.00056133,5609.5,0.00057007,6283.3,-2.9737e-05,1776.6,-0.00026607,0.92383,0.0076046
4971,1.1094,4.1818,0.1,0.00055865,5582.6,0.0005678,6236.8,-3.5416e-05,1704.5,-0.00026216,0.90762,0.0075182
4972,1.1094,4.3636,0.1,0.00055607,5556.9,0.00056569,6185.7,-4.2846e-05,1613.4,-0.00025746,0.88499,0.0074103
4973,1.1094,4.5455,0.1,0.000554,5536.2,0.00056408,6132.1,-5.2453e-05,1499.7,-0.00025194,0.85149,0.0072769
4974,1.1094,4.7273,0.1,0.00055298,5526,0.00056344,6079.5,-6.4715e-05,1359.8,-0.00024559,0.79953,0.0071128
4975,1.1094,4.9091,0.1,0.00055369,5533.1,0.00056427,6031.8,-8.0095e-05,1190.3,-0.00023843,0.71206,0.0069115
4976,1.1094,5.0909,0.1,0.0005569,5565.1,0.00056711,5994,-9.8899e-05,989.9,-0.00023057,0.57265,0.0066647
4977,1.1094,5.2727,0.1,0.00056327,5628.9,0.00057235,5970.7,-0.00012105,760.72,-0.00022226,0.30013,0.006362
4978,1.1094,5.4545,0.1,0.00057314,5727.4,0.00058011,5965.7,-0.00014587,510.93,-0.00021388,-0.043067,0.0059911
4979,1.1094,5.6364,0.1,0.00058641,5860,0.00059027,5981.8,-0.0001721,253.58,-0.00020608,-1.6951,0.0055377
4980,1.1094,5.8182,0.1,0.00060539,6049.7,0.00060508,6041,-0.00019658,17.622,-0.00020355,-34.709,0.0049865
4981,1.2943,0.18182,0.1,0.00060764,6072.3,0.0006076,6071.3,-0.00019765,20.918,-0.00020345,-22.635,0.0070888
4982,1.2943,0.36364,0.1,0.00059056,5901.6,0.00059413,6013.2,-0.00017525,232.35,-0.00020645,-2.0823,0.0077262
4983,1.2943,0.54545,0.1,0.00057788,5774.8,0.00058425,5988.2,-0.00015223,454.6,-0.00021285,-0.86623,0.0082611
4984,1.2943,0.72727,0.1,0.0005676,5672.1,0.00057603,5978.3,-0.00013002,673.37,-0.00021973,-0.68889,0.0087076
4985,1.2943,0.90909,0.1,0.00055989,5595.1,0.00056963,5982.4,-0.00010953,879.44,-0.00022665,-0.51852,0.0090789
4986,1.2943,1.0909,0.1,0.00055472,5543.4,0.00056509,5998.5,-9.1445e-05,1065.5,-0.00023332,-0.44035,0.0093867
4987,1.2943,1.2727,0.1,0.00055177,5513.9,0.00056228,6024.1,-7.6025e-05,1228.1,-0.00023953,-0.39367,0.0096414
4988,1.2943,1.4545,0.1,0.00055056,5501.8,0.0005609,6056,-6.3235e-05,1366.4,-0.00024515,-0.37135,0.0098516
4989,1.2943,1.6364,0.1,0.00055059,5502.1,0.0005606,6091,-5.2849e-05,1481.8,-0.00025011,-0.36112,0.010024
4990,1.2943,1.8182,0.1,0.00055141,5510.3,0.00056102,6126.4,-4.4561e-05,1576.3,-0.0002544,-0.35743,0.010165
4991,1.2943,2,0.1,0.00055265,5522.7,0.00056187,6160,-3.806e-05,1652.4,-0.00025802,-0.35669,0.010279
4992,1.2943,2.1818,0.1,0.00055403,5536.5,0.0005629,6190.1,-3.3063e-05,1712.2,-0.00026099,-0.35716,0.010368
4993,1.2943,2.3636,0.1,0.00055534,5549.6,0.00056393,6215.3,-2.9334e-05,1757.8,-0.00026333,-0.35794,0.010437
4994,1.2943,2.5455,0.1,0.00055643,5560.4,0.0005648,6234.9,-2.669e-05,1790.7,-0.00026506,-0.35867,0.010487
4995,1.2943,2.7273,0.1,0.0005572,5568.2,0.00056543,6248.2,-2.4999e-05,1812,-0.00026621,-0.35918,0.01052
4996,1.2943,2.9091,0.1,0.0005576,5572.2,0.00056576,6255,-2.4174e-05,1822.4,-0.00026677,-0.35944,0.010536
4997,1.2943,3.0909,0.1,0.0005576,5572.2,0.00056576,6255,-2.4174e-05,1822.4,-0.00026677,-0.35944,0.010536
4998,1.2943,3.2727,0.1,0.0005572,5568.2,0.00056543,6248.2,-2.4999e-05,1812,-0.00026621,-0.35918,0.01052
4999,1.2943,3.4545,0.1,0.00055643,5560.4,0.0005648,6234.9,-2.669e-05,1790.7,-0.00026506,-0.35867,0.010487
5000,1.2943,3.6364,0.1,0.00055534,5549.6,0.00056393,6215.3,-2.9334e-05,1757.8,-0.00026333,-0.35794,0.010437
5001,1.2943,3.8182,0.1,0.00055403,5536.5,0.0005629,6190.1,-3.3063e-05,1712.2,-0.00026099,-0.35716,0.010368
5002,1.2943,4,0.1,0.00055265,5522.7,0.00056187,6160,-3.806e-05,1652.4,-0.00025802,-0.35669,0.010279
5003,1.2943,4.1818,0.1,0.00055141,5510.3,0.00056102,6126.4,-4.4561e-05,1576.3,-0.0002544,-0.35743,0.010165
5004,1.2943,4.3636,0.1,0.00055059,5502.1,0.0005606,6091,-5.2849e-05,1481.8,-0.00025011,-0.36112,0.010024
5005,1.2943,4.5455,0.1,0.00055056,5501.8,0.0005609,6056,-6.3235e-05,1366.4,-0.00024515,-0.37135,0.0098516
5006,1.2943,4.7273,0.1,0.00055177,5513.9,0.00056228,6024.1,-7.6025e-05,1228.1,-0.00023953,-0.39367,0.0096414
5007,1.2943,4.9091,0.1,0.00055472,5543.4,0.00056509,5998.5,-9.1445e-05,1065.5,-0.00023332,-0.44035,0.0093867
5008,1.2943,5.0909,0.1,0.00055989,5595.1,0.00056963,5982.4,-0.00010953,879.44,-0.00022665,-0.51852,0.0090789
5009,1.2943,5.2727,0.1,0.0005676,5672.1,0.00057603,5978.3,-0.00013002,673.37,-0.00021973,-0.68889,0.0087076
5010,1.2943,5.4545,0.1,0.00057788,5774.8,0.00058425,5988.2,-0.00015223,454.6,-0.00021285,-0.86623,0.0082611
5011,1.2943,5.6364,0.1,0.00059056,5901.6,0.00059413,6013.2,-0.00017525,232.35,-0.00020645,-2.0823,0.0077262
5012,1.2943,5.8182,0.1,0.00060764,6072.3,0.0006076,6071.3,-0.00019765,20.918,-0.00020345,-22.635,0.0070888
5013,1.4792,0.18182,0.1,0.0006069,6064.8,0.00060709,6070.4,-0.0001974,25.835,-0.00020277,-14.503,0.0095907
5014,1.4792,0.36364,0.1,0.00059147,5910.6,0.00059483,6015.2,-0.00017689,216.79,-0.00020596,-1.6491,0.010307
5015,1.4792,0.54545,0.1,0.00057951,5791.1,0.0005854,5985.7,-0.00015644,411.81,-0.00021132,-0.5384,0.010918
5016,1.4792,0.72727,0.1,0.00056931,5689.1,0.00057717,5967.3,-0.00013649,605.09,-0.00021707,-0.36636,0.011436
5017,1.4792,0.90909,0.1,0.00056102,5606.3,0.00057026,5959.3,-0.00011772,790.17,-0.00022291,-0.19882,0.011873
5018,1.4792,1.0909,0.1,0.00055473,5543.5,0.00056479,5961.1,-0.00010067,961.07,-0.0002286,-0.11431,0.012241
5019,1.4792,1.2727,0.1,0.00055032,5499.4,0.00056073,5971.1,-8.5696e-05,1114.1,-0.00023398,-0.059227,0.012548
5020,1.4792,1.4545,0.1,0.00054751,5471.3,0.00055795,5987.3,-7.2884e-05,1247.5,-0.00023892,-0.028434,0.012805
5021,1.4792,1.6364,0.1,0.00054597,5455.9,0.00055623,6007.7,-6.2172e-05,1361.2,-0.00024334,-0.011321,0.013018
5022,1.4792,1.8182,0.1,0.00054535,5449.8,0.00055532,6030,-5.3396e-05,1456.3,-0.00024722,-0.0026026,0.013193
5023,1.4792,2,0.1,0.00054534,5449.7,0.00055499,6052.3,-4.6352e-05,1534.1,-0.00025052,0.0015043,0.013335
5024,1.4792,2.1818,0.1,0.00054569,5453.1,0.00055502,6073.1,-4.0832e-05,1596.1,-0.00025326,0.0031681,0.013448
5025,1.4792,2.3636,0.1,0.00054619,5458.1,0.00055525,6091.1,-3.6648e-05,1643.8,-0.00025543,0.003655,0.013535
5026,1.4792,2.5455,0.1,0.00054668,5463,0.00055553,6105.3,-3.3647e-05,1678.5,-0.00025704,0.0036501,0.013599
5027,1.4792,2.7273,0.1,0.00054706,5466.9,0.00055576,6115.2,-3.1711e-05,1701.1,-0.00025812,0.0035103,0.01364
5028,1.4792,2.9091,0.1,0.00054727,5468.9,0.0005559,6120.2,-3.0762e-05,1712.3,-0.00025865,0.0034067,0.01366
5029,1.4792,3.0909,0.1,0.00054727,5468.9,0.0005559,6120.2,-3.0762e-05,1712.3,-0.00025865,0.0034067,0.01366
5030,1.4792,3.2727,0.1,0.00054706,5466.9,0.00055576,6115.2,-3.1711e-05,1701.1,-0.00025812,0.0035103,0.01364
5031,1.4792,3.4545,0.1,0.00054668,5463,0.00055553,6105.3,-3.3647e-05,1678.5,-0.00025704,0.0036501,0.013599
5032,1.4792,3.6364,0.1,0.00054619,5458.1,0.00055525,6091.1,-3.6648e-05,1643.8,-0.00025543,0.0036552,0.013535
5033,1.4792,3.8182,0.1,0.00054569,5453.1,0.00055502,6073.1,-4.0832e-05,1596.1,-0.00025326,0.0031682,0.013448
5034,1.4792,4,0.1,0.00054535,5449.7,0.00055499,6052.3,-4.6352e-05,1534.1,-0.00025052,0.0015045,0.013335
5035,1.4792,4.1818,0.1,0.00054535,5449.8,0.00055532,6030,-5.3396e-05,1456.3,-0.00024722,-0.0026025,0.013193
5036,1.4792,4.3636,0.1,0.00054597,5455.9,0.00055623,6007.7,-6.2172e-05,1361.2,-0.00024334,-0.011321,0.013018
5037,1.4792,4.5455,0.1,0.00054751,5471.3,0.00055795,5987.3,-7.2884e-05,1247.5,-0.00023892,-0.028434,0.012805
5038,1.4792,4.7273,0.1,0.00055032,5499.4,0.00056073,5971.1,-8.5696e-05,1114.1,-0.00023398,-0.059226,0.012548
5039,1.4792,4.9091,0.1,0.00055473,5543.5,0.00056479,5961.1,-0.00010067,961.07,-0.0002286,-0.11431,0.012241
5040,1.4792,5.0909,0.1,0.00056102,5606.3,0.00057026,5959.3,-0.00011772,790.17,-0.00022291,-0.19882,0.011873
5041,1.4792,5.2727,0.1,0.00056931,5689.1,0.00057717,5967.3,-0.00013649,605.09,-0.00021707,-0.36636,0.011436
5042,1.4792,5.4545,0.1,0.00057951,5791.1,0.0005854,5985.7,-0.00015644,411.81,-0.00021132,-0.5384,0.010918
5043,1.4792,5.6364,0.1,0.00059147,5910.6,0.00059483,6015.2,-0.00017689,216.79,-0.00020596,-1.6491,0.010307
5044,1.4792,5.8182,0.1,0.0006069,6064.8,0.00060709,6070.4,-0.0001974,25.835,-0.00020277,-14.503,0.0095907
5045,1.6642,0.18182,0.1,0.00060416,6037.5,0.00060452,6048.2,-0.00019628,31.302,-0.00020172,-9.5702,0.012495
5046,1.6642,0.36364,0.1,0.00059018,5897.7,0.00059336,5996.4,-0.00017753,204.21,-0.00020491,-1.4829,0.013283
5047,1.6642,0.54545,0.1,0.00057898,5785.8,0.00058446,5964.9,-0.0001592,377.4,-0.00020949,-0.52473,0.013964
5048,1.6642,0.72727,0.1,0.00056909,5687,0.00057644,5941.6,-0.0001412,549.54,-0.00021439,-0.38937,0.014549
5049,1.6642,0.90909,0.1,0.00056066,5602.8,0.00056939,5926.2,-0.00012403,716.08,-0.00021937,-0.24637,0.015049
5050,1.6642,1.0909,0.1,0.0005538,5534.2,0.00056345,5918.4,-0.00010815,872.25,-0.00022426,-0.17276,0.015473
5051,1.6642,1.2727,0.1,0.0005485,5481.2,0.00055866,5917.6,-9.388e-05,1014.6,-0.00022893,-0.12237,0.015833
5052,1.6642,1.4545,0.1,0.00054461,5442.4,0.00055497,5922.4,-8.1379e-05,1141.1,-0.00023327,-0.092763,0.016136
5053,1.6642,1.6364,0.1,0.00054192,5415.5,0.00055225,5931.5,-7.0682e-05,1251,-0.00023719,-0.075545,0.016389
5054,1.6642,1.8182,0.1,0.00054019,5398.2,0.00055035,5943.3,-6.1725e-05,1344.4,-0.00024067,-0.066473,0.016599
5055,1.6642,2,0.1,0.00053917,5388,0.00054909,5956.3,-5.4394e-05,1422,-0.00024366,-0.0622,0.01677
5056,1.6642,2.1818,0.1,0.00053865,5382.7,0.00054831,5969.2,-4.8552e-05,1484.6,-0.00024615,-0.060628,0.016907
5057,1.6642,2.3636,0.1,0.00053843,5380.6,0.00054786,5980.8,-4.4063e-05,1533.3,-0.00024814,-0.060411,0.017012
5058,1.6642,2.5455,0.1,0.0005384,5380.2,0.00054763,5990.3,-4.0807e-05,1569,-0.00024963,-0.060746,0.01709
5059,1.6642,2.7273,0.1,0.00053843,5380.5,0.00054753,5997,-3.869e-05,1592.3,-0.00025063,-0.061168,0.01714
5060,1.6642,2.9091,0.1,0.00053846,5380.9,0.00054749,6000.4,-3.7648e-05,1603.9,-0.00025112,-0.061431,0.017165
5061,1.6642,3.0909,0.1,0.00053846,5380.9,0.00054749,6000.4,-3.7648e-05,1603.9,-0.00025112,-0.061431,0.017165
5062,1.6642,3.2727,0.1,0.00053843,5380.5,0.00054753,5997,-3.869e-05,1592.3,-0.00025063,-0.061168,0.01714
5063,1.6642,3.4545,0.1,0.0005384,5380.2,0.00054763,5990.3,-4.0807e-05,1569,-0.00024963,-0.060746,0.01709
5064,1.6642,3.6364,0.1,0.00053843,5380.6,0.00054786,5980.8,-4.4063e-05,1533.3,-0.00024814,-0.060411,0.017012
5065,1.6642,3.8182,0.1,0.00053865,5382.7,0.00054831,5969.2,-4.8552e-05,1484.6,-0.00024615,-0.060628,0.016907
5066,1.6642,4,0.1,0.00053917,5388,0.00054909,5956.3,-5.4394e-05,1422,-0.00024366,-0.0622,0.01677
5067,1.6642,4.1818,0.1,0.00054019,5398.2,0.00055035,5943.3,-6.1725e-05,1344.4,-0.00024067,-0.066473,0.016599
5068,1.6642,4.3636,0.1,0.00054192,5415.5,0.00055225,5931.5,-7.0682e-05,1251,-0.00023719,-0.075545,0.016389
5069,1.6642,4.5455,0.1,0.00054461,5442.4,0.00055497,5922.4,-8.1379e-05,1141.1,-0.00023327,-0.092763,0.016136
5070,1.6642,4.7273,0.1,0.0005485,5481.2,0.00055866,5917.6,-9.388e-05,1014.6,-0.00022893,-0.12237,0.015833
5071,1.6642,4.9091,0.1,0.0005538,5534.2,0.00056345,5918.4,-0.00010815,872.25,-0.00022426,-0.17275,0.015473
5072,1.6642,5.0909,0.1,0.00056066,5602.8,0.00056939,5926.2,-0.00012403,716.08,-0.00021937,-0.24637,0.015049
5073,1.6642,5.2727,0.1,0.00056909,5687,0.00057644,5941.6,-0.0001412,549.54,-0.00021439,-0.38936,0.014549
5074,1.6642,5.4545,0.1,0.00057898,5785.8,0.00058446,5964.9,-0.0001592,377.4,-0.00020949,-0.52473,0.013964
5075,1.6642,5.6364,0.1,0.00059018,5897.7,0.00059336,5996.4,-0.00017753,204.21,-0.00020491,-1.4829,0.013283
5076,1.6642,5.8182,0.1,0.00060416,6037.5,0.00060452,6048.2,-0.00019628,31.302,-0.00020172,-9.5702,0.012495
5077,1.8491,0.18182,0.1,0.00060005,5996.4,0.00060055,6011.3,-0.00019463,36.605,-0.00020038,-6.5806,0.015801
5078,1.8491,0.36364,0.1,0.00058734,5869.3,0.00059037,5963,-0.00017751,193.49,-0.00020343,-1.2959,0.016656
5079,1.8491,0.54545,0.1,0.00057688,5764.8,0.00058201,5931,-0.00016095,348.7,-0.00020742,-0.44833,0.017401
5080,1.8491,0.72727,0.1,0.00056743,5670.4,0.0005743,5905,-0.00014464,503.12,-0.00021165,-0.33399,0.018048
5081,1.8491,0.90909,0.1,0.0005591,5587.1,0.00056734,5885,-0.00012894,653.44,-0.00021594,-0.20666,0.018606
5082,1.8491,1.0909,0.1,0.00055202,5516.4,0.00056123,5871,-0.00011423,795.9,-0.00022017,-0.13947,0.019085
5083,1.8491,1.2727,0.1,0.00054622,5458.4,0.00055605,5862.7,-0.00010079,927.49,-0.00022424,-0.091354,0.019494
5084,1.8491,1.4545,0.1,0.00054164,5412.7,0.0005518,5859.4,-8.88e-05,1046.2,-0.00022805,-0.061299,0.019842
5085,1.8491,1.6364,0.1,0.00053816,5377.9,0.00054841,5860.1,-7.8354e-05,1150.8,-0.00023152,-0.042511,0.020134
5086,1.8491,1.8182,0.1,0.0005356,5352.3,0.00054581,5863.8,-6.9453e-05,1241,-0.00023462,-0.031614,0.020378
5087,1.8491,2,0.1,0.0005338,5334.3,0.00054386,5869.4,-6.2049e-05,1316.8,-0.00023731,-0.025728,0.020578
5088,1.8491,2.1818,0.1,0.00053258,5322.1,0.00054245,5875.8,-5.6063e-05,1378.8,-0.00023957,-0.022917,0.020739
5089,1.8491,2.3636,0.1,0.00053178,5314.2,0.00054148,5882.1,-5.1408e-05,1427.4,-0.00024138,-0.02184,0.020864
5090,1.8491,2.5455,0.1,0.0005313,5309.3,0.00054083,5887.5,-4.8e-05,1463.2,-0.00024274,-0.021627,0.020955
5091,1.8491,2.7273,0.1,0.00053102,5306.6,0.00054045,5891.4,-4.5769e-05,1486.8,-0.00024365,-0.021737,0.021015
5092,1.8491,2.9091,0.1,0.0005309,5305.4,0.00054027,5893.4,-4.4667e-05,1498.5,-0.0002441,-0.021861,0.021044
5093,1.8491,3.0909,0.1,0.0005309,5305.4,0.00054027,5893.4,-4.4667e-05,1498.5,-0.0002441,-0.021861,0.021044
5094,1.8491,3.2727,0.1,0.00053102,5306.6,0.00054045,5891.4,-4.5769e-05,1486.8,-0.00024365,-0.021736,0.021015
5095,1.8491,3.4545,0.1,0.0005313,5309.3,0.00054083,5887.5,-4.8e-05,1463.2,-0.00024274,-0.021627,0.020955
5096,1.8491,3.6364,0.1,0.00053178,5314.2,0.00054148,5882.1,-5.1408e-05,1427.4,-0.00024138,-0.02184,0.020864
5097,1.8491,3.8182,0.1,0.00053258,5322.1,0.00054245,5875.8,-5.6063e-05,1378.8,-0.00023957,-0.022917,0.020739
5098,1.8491,4,0.1,0.0005338,5334.3,0.00054386,5869.4,-6.2049e-05,1316.8,-0.00023731,-0.025728,0.020578
5099,1.8491,4.1818,0.1,0.0005356,5352.3,0.00054581,5863.8,-6.9453e-05,1241,-0.00023462,-0.031613,0.020378
5100,1.8491,4.3636,0.1,0.00053816,5377.9,0.00054841,5860.1,-7.8354e-05,1150.8,-0.00023152,-0.042511,0.020134
5101,1.8491,4.5455,0.1,0.00054164,5412.7,0.0005518,5859.4,-8.88e-05,1046.2,-0.00022805,-0.061299,0.019842
5102,1.8491,4.7273,0.1,0.00054622,5458.4,0.00055605,5862.7,-0.00010079,927.49,-0.00022424,-0.091354,0.019494
5103,1.8491,4.9091,0.1,0.00055202,5516.4,0.00056123,5871,-0.00011423,795.9,-0.00022017,-0.13946,0.019085
5104,1.8491,5.0909,0.1,0.0005591,5587.2,0.00056734,5885,-0.00012894,653.44,-0.00021594,-0.20666,0.018606
5105,1.8491,5.2727,0.1,0.00056743,5670.4,0.0005743,5905,-0.00014464,503.12,-0.00021165,-0.33399,0.018048
5106,1.8491,5.4545,0.1,0.00057688,5764.8,0.00058201,5931,-0.00016095,348.7,-0.00020742,-0.44833,0.017401
5107,1.8491,5.6364,0.1,0.00058734,5869.3,0.00059037,5963,-0.00017751,193.49,-0.00020343,-1.2959,0.016656
5108,1.8491,5.8182,0.1,0.00060005,5996.4,0.00060055,6011.3,-0.00019463,36.605,-0.00020038,-6.5806,0.015801
5109,2.034,0.18182,0.1,0.000595,5945.9,0.00059561,5964,-0.00019267,41.204,-0.00019878,-4.7281,0.019509
5110,2.034,0.36364,0.1,0.00058341,5830.1,0.0005863,5919.2,-0.00017703,183.86,-0.00020166,-1.1502,0.020424
5111,2.034,0.54545,0.1,0.00057365,5732.5,0.00057846,5887.4,-0.00016199,323.96,-0.00020516,-0.39985,0.021228
5112,2.034,0.72727,0.1,0.00056469,5643,0.00057113,5860.2,-0.00014715,463.29,-0.00020885,-0.30466,0.021932
5113,2.034,0.90909,0.1,0.00055661,5562.2,0.00056437,5837.5,-0.00013278,599.43,-0.00021259,-0.19225,0.022544
5114,2.034,1.0909,0.1,0.00054952,5491.5,0.00055828,5819.6,-0.00011919,729.36,-0.00021628,-0.13216,0.023074
5115,2.034,1.2727,0.1,0.0005435,5431.2,0.00055294,5806.3,-0.00010662,850.55,-0.00021984,-0.087547,0.023531
5116,2.034,1.4545,0.1,0.00053852,5381.5,0.00054839,5797.2,-9.5266e-05,961.06,-0.00022318,-0.058347,0.023921
5117,2.034,1.6364,0.1,0.00053452,5341.5,0.0005446,5791.9,-8.5226e-05,1059.6,-0.00022626,-0.039024,0.024251
5118,2.034,1.8182,0.1,0.00053139,5310.3,0.00054152,5789.5,-7.655e-05,1145.6,-0.00022902,-0.026967,0.024528
5119,2.034,2,0.1,0.00052902,5286.5,0.0005391,5789.4,-6.9237e-05,1218.6,-0.00023143,-0.0198,0.024757
5120,2.034,2.1818,0.1,0.00052726,5269,0.00053724,5790.7,-6.3255e-05,1278.8,-0.00023346,-0.015842,0.024941
5121,2.034,2.3636,0.1,0.00052601,5256.5,0.00053586,5792.7,-5.8556e-05,1326.4,-0.00023509,-0.013859,0.025084
5122,2.034,2.5455,0.1,0.00052517,5248.1,0.0005349,5794.7,-5.5088e-05,1361.8,-0.00023633,-0.012999,0.02519
5123,2.034,2.7273,0.1,0.00052465,5242.9,0.0005343,5796.4,-5.2804e-05,1385.1,-0.00023715,-0.012701,0.025259
5124,2.034,2.9091,0.1,0.0005244,5240.4,0.000534,5797.3,-5.1671e-05,1396.7,-0.00023757,-0.012629,0.025293
5125,2.034,3.0909,0.1,0.0005244,5240.4,0.000534,5797.3,-5.1671e-05,1396.7,-0.00023757,-0.012629,0.025293
5126,2.034,3.2727,0.1,0.00052465,5242.9,0.0005343,5796.4,-5.2804e-05,1385.1,-0.00023715,-0.012701,0.025259
5127,2.034,3.4545,0.1,0.00052517,5248.1,0.0005349,5794.7,-5.5088e-05,1361.8,-0.00023633,-0.012999,0.02519
5128,2.034,3.6364,0.1,0.00052601,5256.5,0.00053586,5792.7,-5.8556e-05,1326.4,-0.00023509,-0.013859,0.025084
5129,2.034,3.8182,0.1,0.00052726,5269,0.00053724,5790.7,-6.3255e-05,1278.8,-0.00023346,-0.015842,0.024941
5130,2.034,4,0.1,0.00052902,5286.5,0.0005391,5789.4,-6.9237e-05,1218.6,-0.00023143,-0.019799,0.024757
5131,2.034,4.1818,0.1,0.00053139,5310.3,0.00054152,5789.5,-7.655e-05,1145.6,-0.00022902,-0.026967,0.024528
5132,2.034,4.3636,0.1,0.00053452,5341.5,0.0005446,5791.9,-8.5226e-05,1059.6,-0.00022626,-0.039024,0.024251
5133,2.034,4.5455,0.1,0.00053852,5381.5,0.00054839,5797.2,-9.5266e-05,961.06,-0.00022318,-0.058347,0.023921
5134,2.034,4.7273,0.1,0.0005435,5431.2,0.00055294,5806.3,-0.00010662,850.55,-0.00021984,-0.087547,0.023531
5135,2.034,4.9091,0.1,0.00054952,5491.5,0.00055828,5819.6,-0.00011919,729.36,-0.00021628,-0.13216,0.023074
5136,2.034,5.0909,0.1,0.00055661,5562.2,0.00056437,5837.5,-0.00013278,599.43,-0.00021259,-0.19225,0.022544
5137,2.034,5.2727,0.1,0.00056469,5643,0.00057113,5860.2,-0.00014715,463.29,-0.00020885,-0.30466,0.021932
5138,2.034,5.4545,0.1,0.00057365,5732.5,0.00057846,5887.4,-0.00016199,323.96,-0.00020516,-0.39985,0.021228
5139,2.034,5.6364,0.1,0.00058341,5830.1,0.0005863,5919.2,-0.00017703,183.86,-0.00020166,-1.1502,0.020424
5140,2.034,5.8182,0.1,0.000595,5945.9,0.00059561,5964,-0.00019267,41.204,-0.00019878,-4.728,0.019509
5141,2.2189,0.18182,0.1,0.0005893,5888.9,0.00058999,5909.4,-0.00019054,44.891,-0.00019698,-3.5225,0.023617
5142,2.2189,0.36364,0.1,0.0005787,5783,0.00058146,5868,-0.00017624,174.92,-0.00019966,-1.0227,0.024586
5143,2.2189,0.54545,0.1,0.00056961,5692.1,0.00057414,5837,-0.00016251,302.06,-0.00020276,-0.35388,0.025444
5144,2.2189,0.72727,0.1,0.00056115,5607.6,0.0005672,5809.4,-0.00014897,428.38,-0.00020601,-0.2737,0.0262
5145,2.2189,0.90909,0.1,0.00055339,5530.1,0.00056071,5785.3,-0.0001358,552.04,-0.0002093,-0.17376,0.026863
5146,2.2189,1.0909,0.1,0.00054645,5460.7,0.00055476,5765,-0.00012326,670.63,-0.00021253,-0.11988,0.02744
5147,2.2189,1.2727,0.1,0.00054039,5400.1,0.00054942,5748.4,-0.00011157,782,-0.00021566,-0.078718,0.027941
5148,2.2189,1.4545,0.1,0.00053522,5348.5,0.00054474,5735.5,-0.0001009,884.41,-0.00021861,-0.050729,0.028371
5149,2.2189,1.6364,0.1,0.00053091,5305.5,0.00054074,5725.9,-9.1359e-05,976.57,-0.00022134,-0.031307,0.028738
5150,2.2189,1.8182,0.1,0.00052742,5270.5,0.00053738,5719.1,-8.3024e-05,1057.6,-0.00022379,-0.018435,0.029046
5151,2.2189,2,0.1,0.00052465,5242.8,0.00053465,5714.7,-7.5923e-05,1127.1,-0.00022594,-0.010181,0.029302
5152,2.2189,2.1818,0.1,0.00052251,5221.5,0.00053248,5712.1,-7.0059e-05,1184.9,-0.00022776,-0.0051366,0.029509
5153,2.2189,2.3636,0.1,0.00052092,5205.6,0.00053083,5710.8,-6.5414e-05,1230.9,-0.00022923,-0.0022166,0.029671
5154,2.2189,2.5455,0.1,0.00051981,5194.5,0.00052964,5710.2,-6.1962e-05,1265.2,-0.00023035,-0.00063738,0.02979
5155,2.2189,2.7273,0.1,0.0005191,5187.4,0.00052887,5710.1,-5.9678e-05,1287.9,-0.00023109,0.00014071,0.029868
5156,2.2189,2.9091,0.1,0.00051876,5184,0.00052849,5710,-5.8542e-05,1299.3,-0.00023147,0.00045063,0.029907
5157,2.2189,3.0909,0.1,0.00051876,5184,0.00052849,5710,-5.8542e-05,1299.3,-0.00023147,0.00045069,0.029907
5158,2.2189,3.2727,0.1,0.0005191,5187.4,0.00052887,5710.1,-5.9678e-05,1287.9,-0.00023109,0.00014089,0.029868
5159,2.2189,3.4545,0.1,0.00051981,5194.5,0.00052964,5710.2,-6.1962e-05,1265.2,-0.00023035,-0.00063719,0.02979
5160,2.2189,3.6364,0.1,0.00052092,5205.6,0.00053083,5710.8,-6.5414e-05,1230.9,-0.00022923,-0.0022164,0.029671
5161,2.2189,3.8182,0.1,0.00052251,5221.5,0.00053248,5712.1,-7.0059e-05,1184.9,-0.00022776,-0.0051365,0.029509
5162,2.2189,4,0.1,0.00052465,5242.8,0.00053465,5714.7,-7.5923e-05,1127.1,-0.00022594,-0.010181,0.029302
5163,2.2189,4.1818,0.1,0.00052742,5270.5,0.00053738,5719.1,-8.3024e-05,1057.6,-0.00022379,-0.018435,0.029046
5164,2.2189,4.3636,0.1,0.00053091,5305.5,0.00054074,5725.9,-9.1359e-05,976.57,-0.00022134,-0.031307,0.028738
5165,2.2189,4.5455,0.1,0.00053522,5348.5,0.00054474,5735.5,-0.0001009,884.41,-0.00021861,-0.050729,0.028371
5166,2.2189,4.7273,0.1,0.00054039,5400.1,0.00054942,5748.4,-0.00011157,782,-0.00021566,-0.078718,0.027941
5167,2.2189,4.9091,0.1,0.00054645,5460.7,0.00055476,5765,-0.00012326,670.63,-0.00021253,-0.11988,0.02744
5168,2.2189,5.0909,0.1,0.00055339,5530.1,0.00056071,5785.3,-0.0001358,552.04,-0.0002093,-0.17376,0.026863
5169,2.2189,5.2727,0.1,0.00056115,5607.6,0.0005672,5809.4,-0.00014897,428.38,-0.00020601,-0.2737,0.0262
5170,2.2189,5.4545,0.1,0.00056961,5692.1,0.00057414,5837,-0.00016251,302.06,-0.00020276,-0.35388,0.025444
5171,2.2189,5.6364,0.1,0.0005787,5783,0.00058146,5868,-0.00017624,174.92,-0.00019966,-1.0227,0.024586
5172,2.2189,5.8182,0.1,0.0005893,5888.9,0.00058999,5909.4,-0.00019054,44.891,-0.00019698,-3.5225,0.023617
5173,2.4038,0.18182,0.1,0.00058316,5827.5,0.0005839,5849.8,-0.00018832,47.634,-0.00019502,-2.7026,0.028122
5174,2.4038,0.36364,0.1,0.00057345,5730.6,0.00057609,5811.5,-0.00017523,166.41,-0.0001975,-0.91378,0.02914
5175,2.4038,0.54545,0.1,0.00056498,5645.9,0.00056924,5781.6,-0.00016267,282.28,-0.00020028,-0.31504,0.030047
5176,2.4038,0.72727,0.1,0.00055702,5566.4,0.00056271,5754.2,-0.00015026,397.23,-0.00020316,-0.24728,0.030851
5177,2.4038,0.90909,0.1,0.00054964,5492.6,0.00055653,5729.6,-0.00013818,509.86,-0.00020606,-0.15819,0.03156
5178,2.4038,1.0909,0.1,0.00054292,5425.5,0.00055079,5708,-0.00012663,618.2,-0.00020892,-0.10995,0.032181
5179,2.4038,1.2727,0.1,0.00053694,5365.7,0.00054555,5689.5,-0.00011579,720.43,-0.00021168,-0.072227,0.032723
5180,2.4038,1.4545,0.1,0.00053173,5313.6,0.00054088,5674,-0.00010581,815.01,-0.00021429,-0.0458,0.033191
5181,2.4038,1.6364,0.1,0.00052729,5269.2,0.0005368,5661.5,-9.6825e-05,900.71,-0.00021671,-0.02675,0.033591
5182,2.4038,1.8182,0.1,0.00052358,5232.2,0.00053331,5651.7,-8.8903e-05,976.63,-0.00021889,-0.01351,0.03393
5183,2.4038,2,0.1,0.00052056,5202,0.0005304,5644.2,-8.2098e-05,1042.2,-0.0002208,-0.0045194,0.034212
5184,2.4038,2.1818,0.1,0.00051817,5178.2,0.00052804,5638.8,-7.6435e-05,1097,-0.00022243,0.001374,0.034441
5185,2.4038,2.3636,0.1,0.00051635,5160,0.00052621,5634.9,-7.1918e-05,1140.8,-0.00022375,0.0050911,0.03462
5186,2.4038,2.5455,0.1,0.00051504,5146.9,0.00052487,5632.4,-6.8543e-05,1173.7,-0.00022476,0.0073188,0.034752
5187,2.4038,2.7273,0.1,0.0005142,5138.4,0.00052399,5630.8,-6.6301e-05,1195.6,-0.00022543,0.0085473,0.034839
5188,2.4038,2.9091,0.1,0.00051378,5134.3,0.00052356,5630.1,-6.5183e-05,1206.6,-0.00022577,0.0090864,0.034882
5189,2.4038,3.0909,0.1,0.00051378,5134.3,0.00052356,5630.1,-6.5183e-05,1206.6,-0.00022577,0.0090864,0.034882
5190,2.4038,3.2727,0.1,0.0005142,5138.4,0.00052399,5630.8,-6.6301e-05,1195.6,-0.00022543,0.0085473,0.034839
5191,2.4038,3.4545,0.1,0.00051504,5146.9,0.00052487,5632.4,-6.8543e-05,1173.7,-0.00022476,0.0073189,0.034752
5192,2.4038,3.6364,0.1,0.00051635,5160,0.00052621,5634.9,-7.1918e-05,1140.8,-0.00022375,0.0050912,0.03462
5193,2.4038,3.8182,0.1,0.00051817,5178.2,0.00052804,5638.8,-7.6435e-05,1097,-0.00022243,0.0013742,0.034441
5194,2.4038,4,0.1,0.00052056,5202,0.0005304,5644.2,-8.2098e-05,1042.2,-0.0002208,-0.0045191,0.034212
5195,2.4038,4.1818,0.1,0.00052358,5232.2,0.00053331,5651.7,-8.8903e-05,976.63,-0.00021889,-0.013509,0.03393
5196,2.4038,4.3636,0.1,0.00052729,5269.2,0.0005368,5661.5,-9.6825e-05,900.71,-0.00021671,-0.02675,0.033591
5197,2.4038,4.5455,0.1,0.00053173,5313.6,0.00054088,5674,-0.00010581,815.01,-0.00021429,-0.045799,0.033191
5198,2.4038,4.7273,0.1,0.00053694,5365.7,0.00054555,5689.5,-0.00011579,720.43,-0.00021168,-0.072227,0.032723
5199,2.4038,4.9091,0.1,0.00054292,5425.5,0.00055079,5708,-0.00012663,618.2,-0.00020892,-0.10995,0.032181
5200,2.4038,5.0909,0.1,0.00054964,5492.6,0.00055653,5729.6,-0.00013818,509.86,-0.00020606,-0.15819,0.03156
5201,2.4038,5.2727,0.1,0.00055702,5566.4,0.00056271,5754.2,-0.00015026,397.23,-0.00020316,-0.24728,0.030851
5202,2.4038,5.4545,0.1,0.00056498,5645.9,0.00056924,5781.6,-0.00016267,282.28,-0.00020028,-0.31504,0.030047
5203,2.4038,5.6364,0.1,0.00057345,5730.6,0.00057609,5811.5,-0.00017523,166.41,-0.0001975,-0.91378,0.02914
5204,2.4038,5.8182,0.1,0.00058316,5827.5,0.0005839,5849.8,-0.00018832,47.634,-0.00019502,-2.7026,0.028122
5205,2.5887,0.18182,0.1,0.00057672,5763.3,0.00057751,5786.8,-0.00018607,49.485,-0.00019294,-2.1226,0.033022
5206,2.5887,0.36364,0.1,0.00056782,5674.3,0.00057033,5751.3,-0.00017407,158.2,-0.00019523,-0.81909,0.034084
5207,2.5887,0.54545,0.1,0.00055993,5595.4,0.00056395,5722.7,-0.00016254,264.13,-0.00019773,-0.28086,0.035035
5208,2.5887,0.72727,0.1,0.00055247,5520.8,0.00055781,5696,-0.00015116,369.04,-0.00020031,-0.22331,0.035882
5209,2.5887,0.90909,0.1,0.00054547,5451,0.00055196,5671.5,-0.00014006,471.85,-0.00020288,-0.14358,0.036633
5210,2.5887,1.0909,0.1,0.00053904,5386.7,0.00054647,5649.3,-0.00012942,570.92,-0.00020542,-0.10033,0.037295
5211,2.5887,1.2727,0.1,0.00053323,5328.6,0.00054141,5629.7,-0.00011939,664.72,-0.00020787,-0.065871,0.037874
5212,2.5887,1.4545,0.1,0.00052808,5277.2,0.00053684,5612.8,-0.00011011,751.87,-0.00021018,-0.041153,0.038377
5213,2.5887,1.6364,0.1,0.00052361,5232.5,0.00053278,5598.4,-0.00010169,831.24,-0.00021233,-0.022783,0.038809
5214,2.5887,1.8182,0.1,0.00051982,5194.6,0.00052925,5586.5,-9.4225e-05,901.95,-0.00021427,-0.0095253,0.039177
5215,2.5887,2,0.1,0.00051667,5163.1,0.00052627,5576.9,-8.7769e-05,963.31,-0.00021598,-0.0001184,0.039483
5216,2.5887,2.1818,0.1,0.00051413,5137.8,0.00052382,5569.5,-8.2363e-05,1014.9,-0.00021743,0.0063701,0.039732
5217,2.5887,2.3636,0.1,0.00051216,5118.1,0.00052189,5563.9,-7.8028e-05,1056.3,-0.00021862,0.010702,0.039928
5218,2.5887,2.5455,0.1,0.00051073,5103.8,0.00052046,5559.9,-7.4775e-05,1087.5,-0.00021952,0.01346,0.040073
5219,2.5887,2.7273,0.1,0.00050979,5094.4,0.00051952,5557.4,-7.2606e-05,1108.4,-0.00022012,0.01507,0.040168
5220,2.5887,2.9091,0.1,0.00050933,5089.8,0.00051905,5556.1,-7.1522e-05,1118.8,-0.00022042,0.015808,0.040215
5221,2.5887,3.0909,0.1,0.00050933,5089.8,0.00051905,5556.1,-7.1522e-05,1118.8,-0.00022042,0.015808,0.040215
5222,2.5887,3.2727,0.1,0.00050979,5094.4,0.00051952,5557.4,-7.2606e-05,1108.4,-0.00022012,0.015071,0.040168
5223,2.5887,3.4545,0.1,0.00051073,5103.8,0.00052046,5559.9,-7.4775e-05,1087.5,-0.00021952,0.01346,0.040073
5224,2.5887,3.6364,0.1,0.00051216,5118.1,0.00052189,5563.9,-7.8028e-05,1056.3,-0.00021862,0.010702,0.039928
5225,2.5887,3.8182,0.1,0.00051413,5137.8,0.00052382,5569.5,-8.2363e-05,1014.9,-0.00021743,0.0063703,0.039732
5226,2.5887,4,0.1,0.00051667,5163.1,0.00052627,5576.9,-8.7769e-05,963.31,-0.00021598,-0.00011812,0.039483
5227,2.5887,4.1818,0.1,0.00051982,5194.6,0.00052925,5586.5,-9.4225e-05,901.95,-0.00021427,-0.009525,0.039177
5228,2.5887,4.3636,0.1,0.00052361,5232.5,0.00053278,5598.4,-0.00010169,831.24,-0.00021233,-0.022782,0.038809
5229,2.5887,4.5455,0.1,0.00052808,5277.2,0.00053684,5612.8,-0.00011011,751.87,-0.00021018,-0.041152,0.038377
5230,2.5887,4.7273,0.1,0.00053323,5328.6,0.00054141,5629.7,-0.00011939,664.72,-0.00020787,-0.065871,0.037874
5231,2.5887,4.9091,0.1,0.00053904,5386.7,0.00054647,5649.3,-0.00012942,570.92,-0.00020542,-0.10033,0.037295
5232,2.5887,5.0909,0.1,0.00054547,5451,0.00055196,5671.5,-0.00014006,471.85,-0.00020288,-0.14358,0.036633
5233,2.5887,5.2727,0.1,0.00055247,5520.8,0.00055781,5696,-0.00015116,369.04,-0.00020031,-0.22331,0.035882
5234,2.5887,5.4545,0.1,0.00055993,5595.4,0.00056395,5722.7,-0.00016254,264.13,-0.00019773,-0.28086,0.035035
5235,2.5887,5.6364,0.1,0.00056782,5674.3,0.00057033,5751.3,-0.00017407,158.2,-0.00019523,-0.81909,0.034084
5236,2.5887,5.8182,0.1,0.00057672,5763.3,0.00057751,5786.8,-0.00018607,49.485,-0.00019294,-2.1225,0.033022
5237,2.7736,0.18182,0.1,0.00057011,5697.2,0.00057092,5721.4,-0.00018382,50.535,-0.00019078,-1.6986,0.038312
5238,2.7736,0.36364,0.1,0.00056194,5615.5,0.00056433,5688.7,-0.0001728,150.2,-0.00019289,-0.73646,0.039414
5239,2.7736,0.54545,0.1,0.00055459,5542,0.00055837,5661.4,-0.0001622,247.27,-0.00019515,-0.25097,0.040405
5240,2.7736,0.72727,0.1,0.0005476,5472.2,0.00055262,5635.6,-0.00015175,343.26,-0.00019746,-0.20189,0.041292
5241,2.7736,0.90909,0.1,0.000541,5406.3,0.00054711,5611.6,-0.00014155,437.27,-0.00019976,-0.13032,0.042081
5242,2.7736,1.0909,0.1,0.00053488,5345.1,0.0005419,5589.4,-0.00013174,527.95,-0.00020202,-0.091491,0.042779
5243,2.7736,1.2727,0.1,0.00052929,5289.3,0.00053706,5569.4,-0.00012248,613.98,-0.0002042,-0.060073,0.043393
5244,2.7736,1.4545,0.1,0.00052429,5239.2,0.00053263,5551.7,-0.00011387,694.17,-0.00020626,-0.037115,0.043928
5245,2.7736,1.6364,0.1,0.00051988,5195.2,0.00052867,5536.3,-0.00010602,767.47,-0.00020817,-0.019631,0.04439
5246,2.7736,1.8182,0.1,0.00051609,5157.3,0.00052519,5523.1,-9.9028e-05,833.03,-0.0002099,-0.0066323,0.044783
5247,2.7736,2,0.1,0.0005129,5125.4,0.00052221,5512.2,-9.2951e-05,890.17,-0.00021142,0.002911,0.045113
5248,2.7736,2.1818,0.1,0.00051029,5099.4,0.00051973,5503.4,-8.7837e-05,938.37,-0.00021273,0.009748,0.045381
5249,2.7736,2.3636,0.1,0.00050825,5079,0.00051777,5496.6,-8.372e-05,977.27,-0.00021378,0.014499,0.045593
5250,2.7736,2.5455,0.1,0.00050674,5063.9,0.0005163,5491.7,-8.0619e-05,1006.6,-0.00021459,0.017647,0.045749
5251,2.7736,2.7273,0.1,0.00050575,5054,0.00051533,5488.4,-7.8546e-05,1026.3,-0.00021513,0.01955,0.045852
5252,2.7736,2.9091,0.1,0.00050526,5049.1,0.00051485,5486.8,-7.7509e-05,1036.1,-0.0002154,0.020443,0.045904
5253,2.7736,3.0909,0.1,0.00050526,5049.1,0.00051485,5486.8,-7.7509e-05,1036.1,-0.0002154,0.020443,0.045904
5254,2.7736,3.2727,0.1,0.00050575,5054,0.00051533,5488.4,-7.8546e-05,1026.3,-0.00021513,0.01955,0.045852
5255,2.7736,3.4545,0.1,0.00050674,5063.9,0.0005163,5491.7,-8.0619e-05,1006.6,-0.00021459,0.017647,0.045749
5256,2.7736,3.6364,0.1,0.00050825,5079,0.00051777,5496.6,-8.372e-05,977.27,-0.00021378,0.014499,0.045593
5257,2.7736,3.8182,0.1,0.00051029,5099.4,0.00051973,5503.4,-8.7837e-05,938.37,-0.00021273,0.0097482,0.045381
5258,2.7736,4,0.1,0.0005129,5125.4,0.00052221,5512.2,-9.2951e-05,890.17,-0.00021142,0.0029112,0.045113
5259,2.7736,4.1818,0.1,0.00051609,5157.3,0.00052519,5523.1,-9.9028e-05,833.03,-0.0002099,-0.0066321,0.044783
5260,2.7736,4.3636,0.1,0.00051988,5195.2,0.00052867,5536.3,-0.00010602,767.47,-0.00020817,-0.019631,0.04439
5261,2.7736,4.5455,0.1,0.00052429,5239.2,0.00053263,5551.7,-0.00011387,694.17,-0.00020626,-0.037114,0.043928
5262,2.7736,4.7273,0.1,0.00052929,5289.3,0.00053706,5569.4,-0.00012248,613.98,-0.0002042,-0.060072,0.043393
5263,2.7736,4.9091,0.1,0.00053488,5345.1,0.0005419,5589.4,-0.00013174,527.95,-0.00020202,-0.09149,0.042779
5264,2.7736,5.0909,0.1,0.000541,5406.3,0.00054711,5611.6,-0.00014155,437.27,-0.00019976,-0.13032,0.042081
5265,2.7736,5.2727,0.1,0.0005476,5472.2,0.00055262,5635.6,-0.00015175,343.26,-0.00019746,-0.20189,0.041292
5266,2.7736,5.4545,0.1,0.00055459,5542,0.00055837,5661.4,-0.0001622,247.27,-0.00019515,-0.25097,0.040405
5267,2.7736,5.6364,0.1,0.00056194,5615.5,0.00056433,5688.7,-0.0001728,150.2,-0.00019289,-0.73646,0.039414
5268,2.7736,5.8182,0.1,0.00057011,5697.2,0.00057092,5721.4,-0.00018382,50.535,-0.00019078,-1.6986,0.038312
5269,2.9585,0.18182,0.1,0.00056339,5630,0.00056422,5654.6,-0.00018159,50.885,-0.00018855,-1.3804,0.04399
5270,2.9585,0.36364,0.1,0.00055588,5554.9,0.00055815,5624.4,-0.00017146,142.37,-0.0001905,-0.66385,0.045127
5271,2.9585,0.54545,0.1,0.00054904,5486.6,0.0005526,5598.5,-0.00016171,231.49,-0.00019255,-0.22465,0.046154
5272,2.9585,0.72727,0.1,0.0005425,5421.3,0.00054722,5573.8,-0.00015209,319.47,-0.00019463,-0.18263,0.047076
5273,2.9585,0.90909,0.1,0.0005363,5359.3,0.00054205,5550.5,-0.00014271,405.57,-0.0001967,-0.1182,0.047899
5274,2.9585,1.0909,0.1,0.00053051,5301.4,0.00053713,5528.8,-0.00013368,488.63,-0.00019872,-0.083279,0.048631
5275,2.9585,1.2727,0.1,0.00052518,5248.2,0.00053253,5508.9,-0.00012512,567.54,-0.00020067,-0.054663,0.049277
5276,2.9585,1.4545,0.1,0.00052036,5200,0.00052829,5490.9,-0.00011715,641.24,-0.0002025,-0.033443,0.049841
5277,2.9585,1.6364,0.1,0.00051608,5157.3,0.00052447,5475,-0.00010987,708.8,-0.00020421,-0.016965,0.05033
5278,2.9585,1.8182,0.1,0.00051236,5120,0.00052109,5461.2,-0.00010335,769.39,-0.00020575,-0.0044216,0.050748
5279,2.9585,2,0.1,0.00050919,5088.4,0.00051817,5449.5,-9.7665e-05,822.36,-0.00020711,0.0050362,0.051099
5280,2.9585,2.1818,0.1,0.00050658,5062.3,0.00051573,5439.9,-9.2863e-05,867.19,-0.00020828,0.01201,0.051385
5281,2.9585,2.3636,0.1,0.00050452,5041.7,0.00051378,5432.4,-8.8984e-05,903.46,-0.00020922,0.017001,0.051611
5282,2.9585,2.5455,0.1,0.00050299,5026.4,0.00051231,5426.8,-8.6054e-05,930.89,-0.00020995,0.020401,0.051778
5283,2.9585,2.7273,0.1,0.00050197,5016.3,0.00051133,5423.1,-8.4093e-05,949.28,-0.00021043,0.022506,0.051889
5284,2.9585,2.9091,0.1,0.00050147,5011.2,0.00051085,5421.3,-8.3109e-05,958.5,-0.00021067,0.023509,0.051944
5285,2.9585,3.0909,0.1,0.00050147,5011.2,0.00051085,5421.3,-8.3109e-05,958.5,-0.00021067,0.023509,0.051944
5286,2.9585,3.2727,0.1,0.00050197,5016.3,0.00051133,5423.1,-8.4093e-05,949.28,-0.00021043,0.022506,0.051889
5287,2.9585,3.4545,0.1,0.00050299,5026.4,0.00051231,5426.8,-8.6054e-05,930.89,-0.00020995,0.020401,0.051778
5288,2.9585,3.6364,0.1,0.00050452,5041.7,0.00051378,5432.4,-8.8984e-05,903.46,-0.00020922,0.017001,0.051611
5289,2.9585,3.8182,0.1,0.00050658,5062.3,0.00051573,5439.9,-9.2863e-05,867.19,-0.00020828,0.01201,0.051385
5290,2.9585,4,0.1,0.00050919,5088.4,0.00051817,5449.5,-9.7665e-05,822.36,-0.00020711,0.0050365,0.051099
5291,2.9585,4.1818,0.1,0.00051236,5120,0.00052109,5461.2,-0.00010335,769.39,-0.00020575,-0.0044211,0.050748
5292,2.9585,4.3636,0.1,0.00051608,5157.3,0.00052447,5475,-0.00010987,708.8,-0.00020421,-0.016965,0.05033
5293,2.9585,4.5455,0.1,0.00052036,5200,0.00052829,5490.9,-0.00011715,641.24,-0.0002025,-0.033443,0.049841
5294,2.9585,4.7273,0.1,0.00052518,5248.2,0.00053253,5508.9,-0.00012512,567.54,-0.00020067,-0.054663,0.049277
5295,2.9585,4.9091,0.1,0.00053051,5301.4,0.00053713,5528.8,-0.00013368,488.63,-0.00019872,-0.083279,0.048631
5296,2.9585,5.0909,0.1,0.0005363,5359.3,0.00054205,5550.5,-0.00014271,405.57,-0.0001967,-0.1182,0.047899
5297,2.9585,5.2727,0.1,0.0005425,5421.3,0.00054722,5573.8,-0.00015209,319.47,-0.00019463,-0.18263,0.047076
5298,2.9585,5.4545,0.1,0.00054904,5486.6,0.0005526,5598.5,-0.00016171,231.49,-0.00019255,-0.22465,0.046154
5299,2.9585,5.6364,0.1,0.00055588,5554.9,0.00055815,5624.4,-0.00017146,142.37,-0.0001905,-0.66384,0.045127
5300,2.9585,5.8182,0.1,0.00056339,5630,0.00056422,5654.6,-0.00018159,50.885,-0.00018855,-1.3804,0.04399
5301,3.1434,0.18182,0.1,0.00055663,5562.4,0.00055745,5587,-0.00017939,50.635,-0.00018628,-1.1363,0.05005
5302,3.1434,0.36364,0.1,0.00054971,5493.3,0.00055187,5559.1,-0.00017008,134.7,-0.00018809,-0.5997,0.051219
5303,3.1434,0.54545,0.1,0.00054335,5429.7,0.0005467,5534.7,-0.00016109,216.64,-0.00018995,-0.20142,0.052278
5304,3.1434,0.72727,0.1,0.00053725,5368.8,0.00054168,5511.2,-0.00015223,297.38,-0.00019183,-0.16533,0.053231
5305,3.1434,0.90909,0.1,0.00053144,5310.7,0.00053683,5488.8,-0.00014359,376.33,-0.00019369,-0.10718,0.054086
5306,3.1434,1.0909,0.1,0.00052598,5256.2,0.00053221,5467.7,-0.00013528,452.47,-0.00019551,-0.07572,0.054848
5307,3.1434,1.2727,0.1,0.00052093,5205.7,0.00052787,5448.2,-0.00012739,524.85,-0.00019725,-0.049667,0.055523
5308,3.1434,1.4545,0.1,0.00051633,5159.7,0.00052385,5430.4,-0.00012003,592.54,-0.0001989,-0.030122,0.056114
5309,3.1434,1.6364,0.1,0.00051221,5118.6,0.0005202,5414.4,-0.00011328,654.7,-0.00020042,-0.014706,0.056628
5310,3.1434,1.8182,0.1,0.0005086,5082.5,0.00051695,5400.4,-0.00010723,710.57,-0.0002018,-0.0027495,0.057068
5311,3.1434,2,0.1,0.00050551,5051.6,0.00051413,5388.4,-0.00010194,759.52,-0.00020302,0.0064562,0.057438
5312,3.1434,2.1818,0.1,0.00050294,5026,0.00051176,5378.4,-9.7451e-05,801.04,-0.00020406,0.013397,0.057741
5313,3.1434,2.3636,0.1,0.0005009,5005.6,0.00050985,5370.4,-9.382e-05,834.7,-0.00020491,0.018476,0.05798
5314,3.1434,2.5455,0.1,0.00049938,4990.3,0.00050841,5364.5,-9.1072e-05,860.2,-0.00020556,0.022006,0.058158
5315,3.1434,2.7273,0.1,0.00049836,4980.2,0.00050745,5360.6,-8.9229e-05,877.32,-0.00020599,0.024228,0.058275
5316,3.1434,2.9091,0.1,0.00049786,4975.1,0.00050697,5358.6,-8.8304e-05,885.91,-0.00020621,0.0253,0.058334
5317,3.1434,3.0909,0.1,0.00049786,4975.1,0.00050697,5358.6,-8.8304e-05,885.91,-0.00020621,0.0253,0.058334
5318,3.1434,3.2727,0.1,0.00049836,4980.2,0.00050745,5360.6,-8.9229e-05,877.32,-0.00020599,0.024228,0.058275
5319,3.1434,3.4545,0.1,0.00049938,4990.3,0.00050841,5364.5,-9.1072e-05,860.2,-0.00020556,0.022006,0.058158
5320,3.1434,3.6364,0.1,0.0005009,5005.6,0.00050985,5370.4,-9.382e-05,834.7,-0.00020491,0.018476,0.05798
5321,3.1434,3.8182,0.1,0.00050294,5026,0.00051176,5378.4,-9.7451e-05,801.04,-0.00020406,0.013397,0.057741
5322,3.1434,4,0.1,0.00050551,5051.6,0.00051413,5388.4,-0.00010194,759.52,-0.00020302,0.0064565,0.057438
5323,3.1434,4.1818,0.1,0.0005086,5082.5,0.00051695,5400.4,-0.00010723,710.57,-0.0002018,-0.0027491,0.057068
5324,3.1434,4.3636,0.1,0.00051221,5118.6,0.0005202,5414.4,-0.00011328,654.7,-0.00020042,-0.014706,0.056628
5325,3.1434,4.5455,0.1,0.00051633,5159.7,0.00052385,5430.4,-0.00012003,592.55,-0.0001989,-0.030122,0.056114
5326,3.1434,4.7273,0.1,0.00052093,5205.7,0.00052787,5448.2,-0.00012739,524.85,-0.00019725,-0.049666,0.055523
5327,3.1434,4.9091,0.1,0.00052598,5256.2,0.00053221,5467.7,-0.00013528,452.47,-0.00019551,-0.07572,0.054848
5328,3.1434,5.0909,0.1,0.00053144,5310.7,0.00053683,5488.8,-0.00014359,376.33,-0.00019369,-0.10718,0.054086
5329,3.1434,5.2727,0.1,0.00053725,5368.8,0.00054168,5511.2,-0.00015223,297.38,-0.00019183,-0.16533,0.053231
5330,3.1434,5.4545,0.1,0.00054335,5429.7,0.0005467,5534.7,-0.00016109,216.64,-0.00018995,-0.20142,0.052278
5331,3.1434,5.6364,0.1,0.00054971,5493.3,0.00055187,5559.1,-0.00017008,134.7,-0.00018809,-0.5997,0.051219
5332,3.1434,5.8182,0.1,0.00055663,5562.4,0.00055745,5587,-0.00017939,50.635,-0.00018628,-1.1363,0.05005
5333,3.3283,0.18182,0.1,0.00054986,5494.8,0.00055067,5519.1,-0.00017723,49.88,-0.000184,-0.94561,0.05649
5334,3.3283,0.36364,0.1,0.00054349,5431.1,0.00054553,5493.3,-0.00016866,127.2,-0.00018566,-0.54277,0.057687
5335,3.3283,0.54545,0.1,0.00053757,5372,0.00054073,5470.3,-0.00016036,202.61,-0.00018735,-0.18085,0.058774
5336,3.3283,0.72727,0.1,0.00053188,5315.1,0.00053604,5448,-0.00015221,276.79,-0.00018906,-0.14976,0.059756
5337,3.3283,0.90909,0.1,0.00052645,5260.8,0.00053151,5426.7,-0.00014425,349.24,-0.00019075,-0.097173,0.060639
5338,3.3283,1.0909,0.1,0.00052132,5209.6,0.00052718,5406.5,-0.0001366,419.08,-0.00019238,-0.068784,0.061428
5339,3.3283,1.2727,0.1,0.00051656,5162,0.0005231,5387.6,-0.00012933,485.49,-0.00019395,-0.045066,0.062128
5340,3.3283,1.4545,0.1,0.00051219,5118.4,0.00051931,5370.2,-0.00012254,547.63,-0.00019543,-0.02711,0.062744
5341,3.3283,1.6364,0.1,0.00050827,5079.2,0.00051585,5354.5,-0.0001163,604.75,-0.00019679,-0.012769,0.06328
5342,3.3283,1.8182,0.1,0.00050481,5044.6,0.00051276,5340.6,-0.0001107,656.17,-0.00019803,-0.0014791,0.06374
5343,3.3283,2,0.1,0.00050183,5014.8,0.00051006,5328.5,-0.00010579,701.3,-0.00019912,0.0073572,0.064128
5344,3.3283,2.1818,0.1,0.00049934,4989.9,0.00050779,5318.5,-0.00010162,739.63,-0.00020005,0.014136,0.064446
5345,3.3283,2.3636,0.1,0.00049734,4970,0.00050595,5310.4,-9.8235e-05,770.75,-0.00020081,0.01918,0.064698
5346,3.3283,2.5455,0.1,0.00049585,4955.1,0.00050456,5304.3,-9.5672e-05,794.36,-0.00020139,0.022741,0.064885
5347,3.3283,2.7273,0.1,0.00049486,4945.1,0.00050363,5300.2,-9.3951e-05,810.23,-0.00020178,0.025009,0.065008
5348,3.3283,2.9091,0.1,0.00049436,4940.2,0.00050317,5298.2,-9.3086e-05,818.2,-0.00020198,0.026112,0.06507
5349,3.3283,3.0909,0.1,0.00049436,4940.2,0.00050317,5298.2,-9.3086e-05,818.2,-0.00020198,0.026112,0.06507
5350,3.3283,3.2727,0.1,0.00049486,4945.1,0.00050363,5300.2,-9.3951e-05,810.23,-0.00020178,0.025009,0.065008
5351,3.3283,3.4545,0.1,0.00049585,4955.1,0.00050456,5304.3,-9.5672e-05,794.36,-0.00020139,0.022741,0.064885
5352,3.3283,3.6364,0.1,0.00049734,4970,0.00050595,5310.4,-9.8235e-05,770.75,-0.00020081,0.01918,0.064698
5353,3.3283,3.8182,0.1,0.00049934,4989.9,0.00050779,5318.5,-0.00010162,739.63,-0.00020005,0.014136,0.064446
5354,3.3283,4,0.1,0.00050183,5014.8,0.00051006,5328.5,-0.00010579,701.3,-0.00019912,0.0073575,0.064128
5355,3.3283,4.1818,0.1,0.00050481,5044.6,0.00051276,5340.6,-0.0001107,656.17,-0.00019803,-0.0014786,0.06374
5356,3.3283,4.3636,0.1,0.00050827,5079.2,0.00051585,5354.5,-0.0001163,604.75,-0.00019679,-0.012768,0.06328
5357,3.3283,4.5455,0.1,0.00051219,5118.4,0.00051931,5370.2,-0.00012254,547.63,-0.00019543,-0.027109,0.062744
5358,3.3283,4.7273,0.1,0.00051656,5162,0.0005231,5387.6,-0.00012933,485.49,-0.00019395,-0.045065,0.062128
5359,3.3283,4.9091,0.1,0.00052132,5209.6,0.00052718,5406.5,-0.0001366,419.08,-0.00019238,-0.068783,0.061428
5360,3.3283,5.0909,0.1,0.00052645,5260.8,0.00053151,5426.7,-0.00014425,349.24,-0.00019075,-0.097172,0.060639
5361,3.3283,5.2727,0.1,0.00053188,5315.1,0.00053604,5448,-0.00015221,276.79,-0.00018906,-0.14976,0.059756
5362,3.3283,5.4545,0.1,0.00053757,5372,0.00054073,5470.3,-0.00016036,202.61,-0.00018735,-0.18085,0.058774
5363,3.3283,5.6364,0.1,0.00054349,5431.1,0.00054553,5493.3,-0.00016866,127.2,-0.00018566,-0.54276,0.057687
5364,3.3283,5.8182,0.1,0.00054986,5494.8,0.00055067,5519.1,-0.00017723,49.88,-0.000184,-0.94561,0.05649
5365,3.5132,0.18182,0.1,0.00054311,5427.3,0.0005439,5451.1,-0.00017511,48.708,-0.0001817,-0.79437,0.063305
5366,3.5132,0.36364,0.1,0.00053724,5368.6,0.00053916,5427.3,-0.00016721,119.87,-0.00018323,-0.49203,0.064526
5367,3.5132,0.54545,0.1,0.00053174,5313.7,0.0005347,5405.7,-0.00015956,189.32,-0.00018478,-0.1626,0.065638
5368,3.5132,0.72727,0.1,0.00052644,5260.7,0.00053034,5384.7,-0.00015204,257.53,-0.00018634,-0.13574,0.066645
5369,3.5132,0.90909,0.1,0.00052136,5210,0.00052612,5364.5,-0.00014472,324.06,-0.00018786,-0.088111,0.067553
5370,3.5132,1.0909,0.1,0.00051657,5162.1,0.00052207,5345.2,-0.00013767,388.16,-0.00018934,-0.062458,0.068366
5371,3.5132,1.2727,0.1,0.00051209,5117.4,0.00051825,5327.1,-0.00013097,449.09,-0.00019075,-0.040864,0.069089
5372,3.5132,1.4545,0.1,0.00050797,5076.2,0.00051469,5310.3,-0.00012471,506.12,-0.00019208,-0.024398,0.069727
5373,3.5132,1.6364,0.1,0.00050426,5039.1,0.00051143,5295.1,-0.00011896,558.57,-0.0001933,-0.011115,0.070284
5374,3.5132,1.8182,0.1,0.00050096,5006.1,0.00050851,5281.5,-0.00011378,605.84,-0.00019442,-0.00053487,0.070762
5375,3.5132,2,0.1,0.00049811,4977.7,0.00050595,5269.7,-0.00010924,647.36,-0.0001954,0.0078546,0.071166
5376,3.5132,2.1818,0.1,0.00049572,4953.8,0.00050379,5259.7,-0.00010538,682.66,-0.00019623,0.014378,0.071498
5377,3.5132,2.3636,0.1,0.0004938,4934.6,0.00050204,5251.7,-0.00010224,711.36,-0.00019692,0.019296,0.071761
5378,3.5132,2.5455,0.1,0.00049236,4920.2,0.00050072,5245.6,-9.9861e-05,733.15,-0.00019743,0.022809,0.071956
5379,3.5132,2.7273,0.1,0.0004914,4910.6,0.00049983,5241.6,-9.8261e-05,747.81,-0.00019778,0.025068,0.072086
5380,3.5132,2.9091,0.1,0.00049091,4905.8,0.00049938,5239.6,-9.7457e-05,755.17,-0.00019796,0.026172,0.07215
5381,3.5132,3.0909,0.1,0.00049091,4905.8,0.00049938,5239.6,-9.7457e-05,755.17,-0.00019796,0.026172,0.07215
5382,3.5132,3.2727,0.1,0.0004914,4910.6,0.00049983,5241.6,-9.8261e-05,747.81,-0.00019778,0.025068,0.072086
5383,3.5132,3.4545,0.1,0.00049236,4920.2,0.00050072,5245.6,-9.9861e-05,733.15,-0.00019743,0.022809,0.071956
5384,3.5132,3.6364,0.1,0.0004938,4934.6,0.00050204,5251.7,-0.00010224,711.36,-0.00019692,0.019297,0.071761
5385,3.5132,3.8182,0.1,0.00049572,4953.8,0.00050379,5259.7,-0.00010538,682.66,-0.00019623,0.014378,0.071498
5386,3.5132,4,0.1,0.00049811,4977.7,0.00050595,5269.7,-0.00010924,647.36,-0.0001954,0.0078549,0.071166
5387,3.5132,4.1818,0.1,0.00050096,5006.1,0.00050851,5281.5,-0.00011378,605.84,-0.00019442,-0.00053455,0.070762
5388,3.5132,4.3636,0.1,0.00050426,5039.1,0.00051143,5295.1,-0.00011896,558.57,-0.0001933,-0.011115,0.070284
5389,3.5132,4.5455,0.1,0.00050797,5076.2,0.00051469,5310.3,-0.00012471,506.12,-0.00019208,-0.024398,0.069727
5390,3.5132,4.7273,0.1,0.00051209,5117.4,0.00051825,5327.1,-0.00013097,449.09,-0.00019075,-0.040864,0.069089
5391,3.5132,4.9091,0.1,0.00051657,5162.1,0.00052207,5345.2,-0.00013767,388.16,-0.00018934,-0.062458,0.068366
5392,3.5132,5.0909,0.1,0.00052136,5210,0.00052612,5364.5,-0.00014472,324.06,-0.00018786,-0.08811,0.067553
5393,3.5132,5.2727,0.1,0.00052644,5260.7,0.00053034,5384.7,-0.00015204,257.53,-0.00018634,-0.13574,0.066645
5394,3.5132,5.4545,0.1,0.00053174,5313.7,0.0005347,5405.7,-0.00015956,189.32,-0.00018478,-0.1626,0.065638
5395,3.5132,5.6364,0.1,0.00053724,5368.6,0.00053916,5427.3,-0.00016721,119.87,-0.00018323,-0.49202,0.064526
5396,3.5132,5.8182,0.1,0.00054311,5427.3,0.0005439,5451.1,-0.00017511,48.708,-0.0001817,-0.79437,0.063305
5397,3.6981,0.18182,0.1,0.0005364,5360.3,0.00053717,5383.4,-0.00017303,47.197,-0.0001794,-0.67289,0.070491
5398,3.6981,0.36364,0.1,0.00053098,5306.2,0.0005328,5361.4,-0.00016575,112.72,-0.00018082,-0.44664,0.071733
5399,3.6981,0.54545,0.1,0.00052588,5255.1,0.00052866,5341.2,-0.00015869,176.72,-0.00018223,-0.14639,0.072866
5400,3.6981,0.72727,0.1,0.00052095,5205.9,0.0005246,5321.4,-0.00015176,239.48,-0.00018365,-0.12313,0.073895
5401,3.6981,0.90909,0.1,0.00051622,5158.6,0.00052067,5302.3,-0.00014501,300.62,-0.00018503,-0.07992,0.074825
5402,3.6981,1.0909,0.1,0.00051173,5113.8,0.0005169,5284,-0.00013852,359.47,-0.00018637,-0.056712,0.07566
5403,3.6981,1.2727,0.1,0.00050754,5071.9,0.00051333,5266.8,-0.00013236,415.37,-0.00018764,-0.037049,0.076404
5404,3.6981,1.4545,0.1,0.00050368,5033.3,0.00051,5250.8,-0.00012659,467.7,-0.00018884,-0.021971,0.077062
5405,3.6981,1.6364,0.1,0.00050017,4998.3,0.00050694,5236.2,-0.00012129,515.85,-0.00018995,-0.0097097,0.077636
5406,3.6981,1.8182,0.1,0.00049706,4967.1,0.0005042,5223.1,-0.00011652,559.25,-0.00019095,0.00014808,0.078131
5407,3.6981,2,0.1,0.00049435,4940.1,0.0005018,5211.6,-0.00011232,597.4,-0.00019183,0.0080454,0.07855
5408,3.6981,2.1818,0.1,0.00049208,4917.4,0.00049976,5202,-0.00010875,629.86,-0.00019258,0.014252,0.078894
5409,3.6981,2.3636,0.1,0.00049025,4899.1,0.0004981,5194.1,-0.00010585,656.27,-0.00019319,0.018978,0.079167
5410,3.6981,2.5455,0.1,0.00048886,4885.3,0.00049684,5188.2,-0.00010365,676.33,-0.00019366,0.022384,0.07937
5411,3.6981,2.7273,0.1,0.00048794,4876,0.000496,5184.2,-0.00010217,689.82,-0.00019398,0.02459,0.079505
5412,3.6981,2.9091,0.1,0.00048748,4871.4,0.00049558,5182.2,-0.00010142,696.61,-0.00019413,0.025674,0.079572
5413,3.6981,3.0909,0.1,0.00048748,4871.4,0.00049558,5182.2,-0.00010142,696.61,-0.00019413,0.025674,0.079572
5414,3.6981,3.2727,0.1,0.00048794,4876,0.000496,5184.2,-0.00010217,689.82,-0.00019398,0.02459,0.079505
5415,3.6981,3.4545,0.1,0.00048886,4885.3,0.00049684,5188.2,-0.00010365,676.33,-0.00019366,0.022385,0.07937
5416,3.6981,3.6364,0.1,0.00049025,4899.1,0.0004981,5194.1,-0.00010585,656.27,-0.00019319,0.018979,0.079167
5417,3.6981,3.8182,0.1,0.00049208,4917.4,0.00049976,5202,-0.00010875,629.86,-0.00019258,0.014252,0.078894
5418,3.6981,4,0.1,0.00049435,4940.1,0.0005018,5211.6,-0.00011232,597.4,-0.00019183,0.0080457,0.07855
5419,3.6981,4.1818,0.1,0.00049706,4967.1,0.0005042,5223.1,-0.00011652,559.25,-0.00019095,0.00014855,0.078131
5420,3.6981,4.3636,0.1,0.00050017,4998.3,0.00050694,5236.2,-0.00012129,515.85,-0.00018995,-0.0097092,0.077636
5421,3.6981,4.5455,0.1,0.00050368,5033.3,0.00051,5250.8,-0.00012659,467.7,-0.00018884,-0.02197,0.077062
5422,3.6981,4.7273,0.1,0.00050754,5071.9,0.00051333,5266.8,-0.00013236,415.37,-0.00018764,-0.037049,0.076404
5423,3.6981,4.9091,0.1,0.00051173,5113.8,0.0005169,5284,-0.00013852,359.47,-0.00018637,-0.056711,0.07566
5424,3.6981,5.0909,0.1,0.00051622,5158.6,0.00052067,5302.3,-0.00014501,300.62,-0.00018503,-0.079918,0.074825
5425,3.6981,5.2727,0.1,0.00052095,5205.9,0.0005246,5321.4,-0.00015176,239.48,-0.00018365,-0.12313,0.073895
5426,3.6981,5.4545,0.1,0.00052588,5255.1,0.00052866,5341.2,-0.00015869,176.72,-0.00018223,-0.14639,0.072866
5427,3.6981,5.6364,0.1,0.00053098,5306.2,0.0005328,5361.4,-0.00016575,112.72,-0.00018082,-0.44664,0.071733
5428,3.6981,5.8182,0.1,0.0005364,5360.3,0.00053717,5383.4,-0.00017303,47.197,-0.0001794,-0.67289,0.070491
5429,3.883,0.18182,0.1,0.00052974,5293.8,0.00053049,5316.1,-0.00017099,45.417,-0.00017711,-0.57427,0.078043
5430,3.883,0.36364,0.1,0.00052475,5243.9,0.00052646,5295.8,-0.00016428,105.78,-0.00017841,-0.40591,0.079303
5431,3.883,0.54545,0.1,0.00052001,5196.5,0.00052261,5276.9,-0.00015776,164.77,-0.00017971,-0.13193,0.080455
5432,3.883,0.72727,0.1,0.00051542,5150.7,0.00051885,5258.3,-0.00015137,222.55,-0.000181,-0.11174,0.081504
5433,3.883,0.90909,0.1,0.00051102,5106.7,0.00051519,5240.3,-0.00014515,278.75,-0.00018226,-0.072504,0.082453
5434,3.883,1.0909,0.1,0.00050684,5064.9,0.00051168,5223.1,-0.00013918,332.8,-0.00018348,-0.051488,0.083307
5435,3.883,1.2727,0.1,0.00050293,5025.8,0.00050836,5206.8,-0.0001335,384.11,-0.00018463,-0.033582,0.084069
5436,3.883,1.4545,0.1,0.00049931,4989.6,0.00050525,5191.6,-0.0001282,432.12,-0.00018571,-0.01979,0.084744
5437,3.883,1.6364,0.1,0.00049602,4956.7,0.0005024,5177.7,-0.00012332,476.29,-0.00018671,-0.0085027,0.085335
5438,3.883,1.8182,0.1,0.00049309,4927.4,0.00049983,5165.2,-0.00011892,516.12,-0.00018761,0.00063915,0.085845
5439,3.883,2,0.1,0.00049053,4902,0.00049758,5154.2,-0.00011506,551.13,-0.00018841,0.0080223,0.086276
5440,3.883,2.1818,0.1,0.00048838,4880.5,0.00049567,5145,-0.00011177,580.94,-0.00018908,0.013873,0.086632
5441,3.883,2.3636,0.1,0.00048665,4863.1,0.00049411,5137.4,-0.00010909,605.2,-0.00018964,0.018364,0.086914
5442,3.883,2.5455,0.1,0.00048534,4850,0.00049293,5131.7,-0.00010706,623.64,-0.00019005,0.021624,0.087124
5443,3.883,2.7273,0.1,0.00048446,4841.3,0.00049213,5127.9,-0.00010569,636.04,-0.00019034,0.023746,0.087263
5444,3.883,2.9091,0.1,0.00048402,4836.9,0.00049174,5125.9,-0.000105,642.28,-0.00019048,0.024792,0.087333
5445,3.883,3.0909,0.1,0.00048402,4836.9,0.00049174,5125.9,-0.000105,642.28,-0.00019048,0.024792,0.087333
5446,3.883,3.2727,0.1,0.00048446,4841.3,0.00049213,5127.9,-0.00010569,636.04,-0.00019034,0.023746,0.087263
5447,3.883,3.4545,0.1,0.00048534,4850,0.00049293,5131.7,-0.00010706,623.64,-0.00019005,0.021624,0.087124
5448,3.883,3.6364,0.1,0.00048665,4863.1,0.00049411,5137.4,-0.00010909,605.2,-0.00018964,0.018365,0.086914
5449,3.883,3.8182,0.1,0.00048838,4880.5,0.00049567,5145,-0.00011177,580.94,-0.00018908,0.013873,0.086632
5450,3.883,4,0.1,0.00049053,4902,0.00049758,5154.2,-0.00011506,551.13,-0.00018841,0.0080227,0.086276
5451,3.883,4.1818,0.1,0.00049309,4927.4,0.00049983,5165.2,-0.00011892,516.12,-0.00018761,0.00063962,0.085845
5452,3.883,4.3636,0.1,0.00049602,4956.7,0.0005024,5177.7,-0.00012332,476.29,-0.00018671,-0.008502,0.085335
5453,3.883,4.5455,0.1,0.00049931,4989.6,0.00050525,5191.6,-0.0001282,432.12,-0.00018571,-0.019789,0.084744
5454,3.883,4.7273,0.1,0.00050293,5025.8,0.00050836,5206.8,-0.0001335,384.11,-0.00018463,-0.033582,0.084069
5455,3.883,4.9091,0.1,0.00050684,5064.9,0.00051168,5223.1,-0.00013918,332.8,-0.00018348,-0.051487,0.083307
5456,3.883,5.0909,0.1,0.00051102,5106.7,0.00051519,5240.3,-0.00014515,278.75,-0.00018226,-0.072503,0.082453
5457,3.883,5.2727,0.1,0.00051542,5150.7,0.00051885,5258.3,-0.00015137,222.55,-0.000181,-0.11174,0.081504
5458,3.883,5.4545,0.1,0.00052001,5196.5,0.00052261,5276.9,-0.00015776,164.77,-0.00017971,-0.13193,0.080455
5459,3.883,5.6364,0.1,0.00052475,5243.9,0.00052646,5295.8,-0.00016428,105.78,-0.00017841,-0.4059,0.079303
5460,3.883,5.8182,0.1,0.00052974,5293.8,0.00053049,5316.1,-0.00017099,45.417,-0.00017711,-0.57426,0.078043
5461,4.0679,0.18182,0.1,0.00052315,5227.9,0.00052387,5249.3,-0.00016898,43.43,-0.00017483,-0.49346,0.085957
5462,4.0679,0.36364,0.1,0.00051854,5181.9,0.00052015,5230.5,-0.0001628,99.054,-0.00017603,-0.36924,0.087233
5463,4.0679,0.54545,0.1,0.00051414,5137.9,0.00051658,5212.8,-0.00015678,153.45,-0.00017722,-0.11902,0.088401
5464,4.0679,0.72727,0.1,0.00050989,5095.3,0.00051308,5195.5,-0.00015089,206.65,-0.0001784,-0.10147,0.089466
5465,4.0679,0.90909,0.1,0.00050579,5054.4,0.00050969,5178.6,-0.00014516,258.33,-0.00017955,-0.065805,0.090432
5466,4.0679,1.0909,0.1,0.0005019,5015.6,0.00050643,5162.4,-0.00013966,307.98,-0.00018065,-0.046759,0.091302
5467,4.0679,1.2727,0.1,0.00049825,4979.1,0.00050334,5147.1,-0.00013444,355.09,-0.0001817,-0.030452,0.092081
5468,4.0679,1.4545,0.1,0.00049487,4945.3,0.00050045,5132.8,-0.00012956,399.14,-0.00018268,-0.017847,0.092771
5469,4.0679,1.6364,0.1,0.00049179,4914.5,0.00049779,5119.6,-0.00012507,439.66,-0.00018358,-0.0074797,0.093377
5470,4.0679,1.8182,0.1,0.00048905,4887.1,0.0004954,5107.8,-0.00012102,476.18,-0.0001844,0.00096633,0.093899
5471,4.0679,2,0.1,0.00048665,4863.2,0.0004933,5097.4,-0.00011746,508.3,-0.00018511,0.0078314,0.094343
5472,4.0679,2.1818,0.1,0.00048463,4843,0.00049151,5088.5,-0.00011444,535.65,-0.00018572,0.013307,0.094708
5473,4.0679,2.3636,0.1,0.00048299,4826.6,0.00049006,5081.3,-0.00011197,557.91,-0.00018622,0.017537,0.094998
5474,4.0679,2.5455,0.1,0.00048176,4814.3,0.00048895,5075.9,-0.0001101,574.83,-0.0001866,0.020622,0.095215
5475,4.0679,2.7273,0.1,0.00048093,4806,0.00048821,5072.2,-0.00010884,586.21,-0.00018685,0.02264,0.095358
5476,4.0679,2.9091,0.1,0.00048051,4801.8,0.00048784,5070.4,-0.0001082,591.94,-0.00018698,0.023638,0.09543
5477,4.0679,3.0909,0.1,0.00048051,4801.8,0.00048784,5070.4,-0.0001082,591.94,-0.00018698,0.023638,0.09543
5478,4.0679,3.2727,0.1,0.00048093,4806,0.00048821,5072.2,-0.00010884,586.21,-0.00018685,0.02264,0.095358
5479,4.0679,3.4545,0.1,0.00048176,4814.3,0.00048895,5075.9,-0.0001101,574.83,-0.0001866,0.020623,0.095215
5480,4.0679,3.6364,0.1,0.00048299,4826.6,0.00049006,5081.3,-0.00011197,557.91,-0.00018622,0.017537,0.094998
5481,4.0679,3.8182,0.1,0.00048463,4843,0.00049151,5088.5,-0.00011444,535.65,-0.00018572,0.013307,0.094708
5482,4.0679,4,0.1,0.00048665,4863.2,0.0004933,5097.4,-0.00011746,508.3,-0.00018511,0.0078317,0.094343
5483,4.0679,4.1818,0.1,0.00048905,4887.1,0.0004954,5107.8,-0.00012102,476.18,-0.0001844,0.00096696,0.093899
5484,4.0679,4.3636,0.1,0.00049179,4914.5,0.00049779,5119.6,-0.00012507,439.66,-0.00018358,-0.0074791,0.093377
5485,4.0679,4.5455,0.1,0.00049487,4945.3,0.00050045,5132.8,-0.00012956,399.14,-0.00018268,-0.017847,0.092771
5486,4.0679,4.7273,0.1,0.00049825,4979.1,0.00050334,5147.1,-0.00013444,355.09,-0.0001817,-0.030451,0.092081
5487,4.0679,4.9091,0.1,0.0005019,5015.6,0.00050643,5162.4,-0.00013966,307.98,-0.00018065,-0.046758,0.091302
5488,4.0679,5.0909,0.1,0.00050579,5054.4,0.00050969,5178.6,-0.00014516,258.33,-0.00017955,-0.065803,0.090432
5489,4.0679,5.2727,0.1,0.00050989,5095.3,0.00051308,5195.5,-0.00015089,206.65,-0.0001784,-0.10147,0.089466
5490,4.0679,5.4545,0.1,0.00051414,5137.9,0.00051658,5212.8,-0.00015678,153.45,-0.00017722,-0.11902,0.088401
5491,4.0679,5.6364,0.1,0.00051854,5181.9,0.00052015,5230.5,-0.0001628,99.054,-0.00017603,-0.36924,0.087233
5492,4.0679,5.8182,0.1,0.00052315,5227.9,0.00052387,5249.3,-0.00016898,43.43,-0.00017483,-0.49346,0.085957
5493,4.2528,0.18182,0.1,0.00051663,5162.7,0.00051731,5183,-0.00016701,41.289,-0.00017256,-0.42675,0.094229
5494,4.2528,0.36364,0.1,0.00051238,5120.2,0.00051388,5165.7,-0.00016131,92.564,-0.00017368,-0.33617,0.095517
5495,4.2528,0.54545,0.1,0.00050829,5079.4,0.00051057,5149.2,-0.00015576,142.73,-0.00017477,-0.10747,0.096699
5496,4.2528,0.72727,0.1,0.00050434,5039.9,0.00050733,5133,-0.00015032,191.72,-0.00017585,-0.092201,0.097779
5497,4.2528,0.90909,0.1,0.00050054,5001.9,0.00050418,5117.2,-0.00014504,239.27,-0.00017689,-0.059761,0.098759
5498,4.2528,1.0909,0.1,0.00049692,4965.8,0.00050115,5102.1,-0.00013997,284.89,-0.0001779,-0.042491,0.099644
5499,4.2528,1.2727,0.1,0.00049352,4931.8,0.00049829,5087.7,-0.00013517,328.14,-0.00017885,-0.02764,0.10044
5500,4.2528,1.4545,0.1,0.00049038,4900.4,0.0004956,5074.2,-0.00013068,368.56,-0.00017974,-0.01613,0.10114
5501,4.2528,1.6364,0.1,0.0004875,4871.7,0.00049314,5061.9,-0.00012656,405.72,-0.00018056,-0.0066241,0.10176
5502,4.2528,1.8182,0.1,0.00048494,4846,0.00049091,5050.7,-0.00012284,439.21,-0.00018129,0.0011554,0.10229
5503,4.2528,2,0.1,0.0004827,4823.7,0.00048896,5040.9,-0.00011957,468.66,-0.00018194,0.0075105,0.10275
5504,4.2528,2.1818,0.1,0.0004808,4804.7,0.0004873,5032.5,-0.00011678,493.73,-0.00018249,0.012605,0.10312
5505,4.2528,2.3636,0.1,0.00047927,4789.4,0.00048594,5025.7,-0.00011452,514.13,-0.00018294,0.01656,0.10342
5506,4.2528,2.5455,0.1,0.00047811,4777.8,0.00048491,5020.6,-0.00011279,529.65,-0.00018328,0.019457,0.10364
5507,4.2528,2.7273,0.1,0.00047733,4770,0.00048422,5017.1,-0.00011163,540.09,-0.00018351,0.021358,0.10379
5508,4.2528,2.9091,0.1,0.00047694,4766.1,0.00048387,5015.3,-0.00011105,545.34,-0.00018363,0.0223,0.10386
5509,4.2528,3.0909,0.1,0.00047694,4766.1,0.00048387,5015.3,-0.00011105,545.34,-0.00018363,0.0223,0.10386
5510,4.2528,3.2727,0.1,0.00047733,4770,0.00048422,5017.1,-0.00011163,540.09,-0.00018351,0.021358,0.10379
5511,4.2528,3.4545,0.1,0.00047811,4777.8,0.00048491,5020.6,-0.00011279,529.65,-0.00018328,0.019457,0.10364
5512,4.2528,3.6364,0.1,0.00047927,4789.4,0.00048594,5025.7,-0.00011452,514.13,-0.00018294,0.01656,0.10342
5513,4.2528,3.8182,0.1,0.0004808,4804.7,0.0004873,5032.5,-0.00011678,493.73,-0.00018249,0.012606,0.10312
5514,4.2528,4,0.1,0.0004827,4823.7,0.00048896,5040.9,-0.00011957,468.66,-0.00018194,0.0075108,0.10275
5515,4.2528,4.1818,0.1,0.00048494,4846,0.00049091,5050.7,-0.00012284,439.21,-0.00018129,0.001156,0.10229
5516,4.2528,4.3636,0.1,0.0004875,4871.7,0.00049314,5061.9,-0.00012656,405.72,-0.00018056,-0.0066237,0.10176
5517,4.2528,4.5455,0.1,0.00049038,4900.4,0.0004956,5074.2,-0.00013068,368.56,-0.00017974,-0.016129,0.10114
5518,4.2528,4.7273,0.1,0.00049352,4931.8,0.00049829,5087.7,-0.00013517,328.14,-0.00017885,-0.02764,0.10044
5519,4.2528,4.9091,0.1,0.00049692,4965.8,0.00050115,5102.1,-0.00013997,284.89,-0.0001779,-0.04249,0.099644
5520,4.2528,5.0909,0.1,0.00050054,5001.9,0.00050418,5117.2,-0.00014504,239.27,-0.00017689,-0.059759,0.098759
5521,4.2528,5.2727,0.1,0.00050434,5039.9,0.00050733,5133,-0.00015032,191.72,-0.00017585,-0.0922,0.097779
5522,4.2528,5.4545,0.1,0.00050829,5079.4,0.00051057,5149.2,-0.00015576,142.73,-0.00017477,-0.10747,0.096699
5523,4.2528,5.6364,0.1,0.00051238,5120.2,0.00051388,5165.7,-0.00016131,92.564,-0.00017368,-0.33617,0.095517
5524,4.2528,5.8182,0.1,0.00051663,5162.7,0.00051731,5183,-0.00016701,41.289,-0.00017256,-0.42675,0.094229
5525,4.4377,0.18182,0.1,0.00051018,5098.3,0.00051082,5117.5,-0.00016507,39.041,-0.00017032,-0.37131,0.10285
5526,4.4377,0.36364,0.1,0.00050625,5059,0.00050765,5101.4,-0.00015982,86.319,-0.00017134,-0.30626,0.10415
5527,4.4377,0.54545,0.1,0.00050246,5021.2,0.00050458,5086.1,-0.00015469,132.58,-0.00017234,-0.097125,0.10535
5528,4.4377,0.72727,0.1,0.0004988,4984.5,0.00050158,5070.9,-0.00014967,177.72,-0.00017333,-0.083816,0.10644
5529,4.4377,0.90909,0.1,0.00049527,4949.2,0.00049866,5056.2,-0.00014481,221.46,-0.00017429,-0.054298,0.10743
5530,4.4377,1.0909,0.1,0.00049191,4915.7,0.00049586,5042.1,-0.00014015,263.39,-0.0001752,-0.038633,0.10833
5531,4.4377,1.2727,0.1,0.00048875,4884.1,0.0004932,5028.6,-0.00013573,303.1,-0.00017607,-0.02511,0.10913
5532,4.4377,1.4545,0.1,0.00048582,4854.9,0.00049071,5016,-0.0001316,340.19,-0.00017688,-0.014607,0.10985
5533,4.4377,1.6364,0.1,0.00048315,4828.2,0.00048843,5004.4,-0.00012781,374.27,-0.00017762,-0.0059044,0.11048
5534,4.4377,1.8182,0.1,0.00048076,4804.3,0.00048637,4994,-0.00012439,404.98,-0.00017829,0.0012432,0.11102
5535,4.4377,2,0.1,0.00047867,4783.4,0.00048455,4984.7,-0.00012138,431.97,-0.00017887,0.0071053,0.11148
5536,4.4377,2.1818,0.1,0.0004769,4765.7,0.00048301,4976.9,-0.00011883,454.94,-0.00017937,0.011824,0.11187
5537,4.4377,2.3636,0.1,0.00047547,4751.4,0.00048175,4970.5,-0.00011674,473.64,-0.00017978,0.0155,0.11217
5538,4.4377,2.5455,0.1,0.00047438,4740.6,0.0004808,4965.6,-0.00011516,487.86,-0.00018009,0.018202,0.1124
5539,4.4377,2.7273,0.1,0.00047366,4733.3,0.00048015,4962.4,-0.00011409,497.43,-0.0001803,0.01998,0.11255
5540,4.4377,2.9091,0.1,0.00047329,4729.6,0.00047983,4960.7,-0.00011356,502.24,-0.0001804,0.020862,0.11262
5541,4.4377,3.0909,0.1,0.00047329,4729.6,0.00047983,4960.7,-0.00011356,502.24,-0.0001804,0.020862,0.11262
5542,4.4377,3.2727,0.1,0.00047366,4733.3,0.00048015,4962.4,-0.00011409,497.43,-0.0001803,0.01998,0.11255
5543,4.4377,3.4545,0.1,0.00047438,4740.6,0.0004808,4965.6,-0.00011516,487.86,-0.00018009,0.018203,0.1124
5544,4.4377,3.6364,0.1,0.00047547,4751.4,0.00048175,4970.5,-0.00011674,473.64,-0.00017978,0.015501,0.11217
5545,4.4377,3.8182,0.1,0.0004769,4765.7,0.00048301,4976.9,-0.00011883,454.94,-0.00017937,0.011824,0.11187
5546,4.4377,4,0.1,0.00047867,4783.4,0.00048455,4984.7,-0.00012138,431.97,-0.00017887,0.0071057,0.11148
5547,4.4377,4.1818,0.1,0.00048076,4804.3,0.00048637,4994,-0.00012439,404.98,-0.00017829,0.0012438,0.11102
5548,4.4377,4.3636,0.1,0.00048315,4828.2,0.00048843,5004.4,-0.00012781,374.27,-0.00017762,-0.0059039,0.11048
5549,4.4377,4.5455,0.1,0.00048582,4854.9,0.00049071,5016,-0.0001316,340.19,-0.00017688,-0.014606,0.10985
5550,4.4377,4.7273,0.1,0.00048875,4884.1,0.0004932,5028.6,-0.00013573,303.1,-0.00017607,-0.02511,0.10913
5551,4.4377,4.9091,0.1,0.00049191,4915.7,0.00049586,5042.1,-0.00014015,263.39,-0.0001752,-0.038632,0.10833
5552,4.4377,5.0909,0.1,0.00049527,4949.2,0.00049866,5056.2,-0.00014481,221.46,-0.00017429,-0.054297,0.10743
5553,4.4377,5.2727,0.1,0.0004988,4984.5,0.00050158,5070.9,-0.00014967,177.72,-0.00017333,-0.083816,0.10644
5554,4.4377,5.4545,0.1,0.00050246,5021.2,0.00050458,5086.1,-0.00015469,132.58,-0.00017234,-0.097125,0.10535
5555,4.4377,5.6364,0.1,0.00050625,5059,0.00050765,5101.4,-0.00015982,86.319,-0.00017134,-0.30626,0.10415
5556,4.4377,5.8182,0.1,0.00051018,5098.3,0.00051082,5117.5,-0.00016507,39.042,-0.00017032,-0.3713,0.10285
5557,4.6226,0.18182,0.1,0.00050379,5034.5,0.0005044,5052.6,-0.00016316,36.726,-0.0001681,-0.32496,0.11183
5558,4.6226,0.36364,0.1,0.00050016,4998.2,0.00050148,5037.7,-0.00015831,80.327,-0.00016904,-0.27916,0.11314
5559,4.6226,0.54545,0.1,0.00049665,4963.1,0.00049863,5023.4,-0.00015358,123,-0.00016996,-0.087835,0.11434
5560,4.6226,0.72727,0.1,0.00049325,4929.1,0.00049585,5009.3,-0.00014895,164.57,-0.00017086,-0.076228,0.11544
5561,4.6226,0.90909,0.1,0.00048998,4896.4,0.00049314,4995.6,-0.00014447,204.82,-0.00017174,-0.049362,0.11644
5562,4.6226,1.0909,0.1,0.00048687,4865.3,0.00049055,4982.4,-0.00014018,243.37,-0.00017257,-0.035149,0.11735
5563,4.6226,1.2727,0.1,0.00048394,4836,0.00048809,4969.9,-0.00013611,279.84,-0.00017336,-0.022838,0.11817
5564,4.6226,1.4545,0.1,0.00048122,4808.9,0.00048579,4958.1,-0.00013232,313.88,-0.0001741,-0.01326,0.11889
5565,4.6226,1.6364,0.1,0.00047874,4784,0.00048367,4947.3,-0.00012883,345.14,-0.00017477,-0.0053035,0.11953
5566,4.6226,1.8182,0.1,0.00047651,4761.8,0.00048176,4937.5,-0.0001257,373.29,-0.00017538,0.0012501,0.12008
5567,4.6226,2,0.1,0.00047457,4742.4,0.00048008,4928.9,-0.00012294,398.02,-0.00017591,0.0066413,0.12055
5568,4.6226,2.1818,0.1,0.00047292,4726,0.00047865,4921.5,-0.00012059,419.07,-0.00017636,0.010995,0.12094
5569,4.6226,2.3636,0.1,0.00047159,4712.6,0.00047749,4915.6,-0.00011868,436.2,-0.00017673,0.014396,0.12125
5570,4.6226,2.5455,0.1,0.00047057,4702.5,0.0004766,4911,-0.00011722,449.22,-0.00017701,0.016903,0.12148
5571,4.6226,2.7273,0.1,0.0004699,4695.7,0.00047601,4907.9,-0.00011624,457.99,-0.0001772,0.018555,0.12163
5572,4.6226,2.9091,0.1,0.00046955,4692.3,0.00047571,4906.4,-0.00011575,462.39,-0.00017729,0.019376,0.12171
5573,4.6226,3.0909,0.1,0.00046955,4692.3,0.00047571,4906.4,-0.00011575,462.39,-0.00017729,0.019376,0.12171
5574,4.6226,3.2727,0.1,0.0004699,4695.7,0.00047601,4907.9,-0.00011624,457.99,-0.0001772,0.018555,0.12163
5575,4.6226,3.4545,0.1,0.00047057,4702.5,0.0004766,4911,-0.00011722,449.22,-0.00017701,0.016903,0.12148
5576,4.6226,3.6364,0.1,0.00047159,4712.6,0.00047749,4915.6,-0.00011868,436.2,-0.00017673,0.014397,0.12125
5577,4.6226,3.8182,0.1,0.00047292,4726,0.00047865,4921.5,-0.00012059,419.07,-0.00017636,0.010995,0.12094
5578,4.6226,4,0.1,0.00047457,4742.4,0.00048008,4928.9,-0.00012294,398.02,-0.00017591,0.0066418,0.12055
5579,4.6226,4.1818,0.1,0.00047651,4761.8,0.00048176,4937.5,-0.0001257,373.29,-0.00017538,0.0012505,0.12008
5580,4.6226,4.3636,0.1,0.00047874,4784,0.00048367,4947.3,-0.00012883,345.14,-0.00017477,-0.005303,0.11953
5581,4.6226,4.5455,0.1,0.00048122,4808.9,0.00048579,4958.1,-0.00013232,313.88,-0.0001741,-0.013259,0.11889
5582,4.6226,4.7273,0.1,0.00048394,4836,0.00048809,4969.9,-0.00013611,279.84,-0.00017336,-0.022837,0.11817
5583,4.6226,4.9091,0.1,0.00048687,4865.3,0.00049055,4982.4,-0.00014018,243.37,-0.00017257,-0.035149,0.11735
5584,4.6226,5.0909,0.1,0.00048998,4896.4,0.00049314,4995.6,-0.00014447,204.82,-0.00017174,-0.04936,0.11644
5585,4.6226,5.2727,0.1,0.00049325,4929.1,0.00049585,5009.3,-0.00014895,164.57,-0.00017086,-0.076227,0.11544
5586,4.6226,5.4545,0.1,0.00049665,4963.1,0.00049863,5023.4,-0.00015358,123,-0.00016996,-0.087835,0.11434
5587,4.6226,5.6364,0.1,0.00050016,4998.2,0.00050148,5037.7,-0.00015831,80.327,-0.00016904,-0.27916,0.11314
5588,4.6226,5.8182,0.1,0.00050379,5034.5,0.0005044,5052.6,-0.00016316,36.726,-0.0001681,-0.32496,0.11183
5589,4.8075,0.18182,0.1,0.00049748,4971.4,0.00049805,4988.3,-0.00016128,34.375,-0.00016589,-0.28604,0.12115
5590,4.8075,0.36364,0.1,0.00049412,4937.8,0.00049534,4974.6,-0.0001568,74.595,-0.00016676,-0.25456,0.12246
5591,4.8075,0.54545,0.1,0.00049087,4905.3,0.00049271,4961.3,-0.00015243,113.95,-0.00016761,-0.079476,0.12367
5592,4.8075,0.72727,0.1,0.00048772,4873.8,0.00049013,4948.1,-0.00014816,152.25,-0.00016844,-0.06935,0.12478
5593,4.8075,0.90909,0.1,0.00048469,4843.5,0.00048763,4935.4,-0.00014404,189.29,-0.00016924,-0.044894,0.12579
5594,4.8075,1.0909,0.1,0.0004818,4814.7,0.00048523,4923.1,-0.00014009,224.73,-0.00017,-0.032001,0.12671
5595,4.8075,1.2727,0.1,0.00047908,4787.5,0.00048295,4911.4,-0.00013635,258.23,-0.00017072,-0.020795,0.12753
5596,4.8075,1.4545,0.1,0.00047656,4762.3,0.00048083,4900.5,-0.00013286,289.48,-0.00017139,-0.012068,0.12827
5597,4.8075,1.6364,0.1,0.00047426,4739.3,0.00047887,4890.4,-0.00012966,318.15,-0.000172,-0.0048012,0.12891
5598,4.8075,1.8182,0.1,0.0004722,4718.7,0.00047711,4881.3,-0.00012677,343.96,-0.00017255,0.0011967,0.12947
5599,4.8075,2,0.1,0.00047039,4700.7,0.00047555,4873.2,-0.00012424,366.62,-0.00017303,0.0061429,0.12995
5600,4.8075,2.1818,0.1,0.00046886,4685.4,0.00047423,4866.4,-0.00012208,385.91,-0.00017344,0.010147,0.13034
5601,4.8075,2.3636,0.1,0.00046762,4673,0.00047315,4860.8,-0.00012033,401.6,-0.00017378,0.013282,0.13066
5602,4.8075,2.5455,0.1,0.00046668,4663.6,0.00047234,4856.6,-0.000119,413.52,-0.00017403,0.015598,0.13089
5603,4.8075,2.7273,0.1,0.00046605,4657.3,0.00047178,4853.7,-0.0001181,421.54,-0.0001742,0.017126,0.13105
5604,4.8075,2.9091,0.1,0.00046573,4654.1,0.00047151,4852.3,-0.00011765,425.58,-0.00017429,0.017886,0.13113
5605,4.8075,3.0909,0.1,0.00046573,4654.1,0.00047151,4852.3,-0.00011765,425.58,-0.00017429,0.017886,0.13113
5606,4.8075,3.2727,0.1,0.00046605,4657.3,0.00047178,4853.7,-0.0001181,421.54,-0.0001742,0.017126,0.13105
5607,4.8075,3.4545,0.1,0.00046668,4663.6,0.00047234,4856.6,-0.000119,413.52,-0.00017403,0.015598,0.13089
5608,4.8075,3.6364,0.1,0.00046762,4673,0.00047315,4860.8,-0.00012033,401.6,-0.00017378,0.013283,0.13066
5609,4.8075,3.8182,0.1,0.00046886,4685.4,0.00047423,4866.4,-0.00012208,385.91,-0.00017344,0.010147,0.13034
5610,4.8075,4,0.1,0.00047039,4700.7,0.00047555,4873.2,-0.00012424,366.62,-0.00017303,0.0061433,0.12995
5611,4.8075,4.1818,0.1,0.0004722,4718.7,0.00047711,4881.3,-0.00012677,343.96,-0.00017255,0.0011972,0.12947
5612,4.8075,4.3636,0.1,0.00047426,4739.3,0.00047887,4890.4,-0.00012966,318.15,-0.000172,-0.0048007,0.12891
5613,4.8075,4.5455,0.1,0.00047656,4762.3,0.00048083,4900.5,-0.00013286,289.48,-0.00017139,-0.012067,0.12827
5614,4.8075,4.7273,0.1,0.00047908,4787.5,0.00048295,4911.4,-0.00013635,258.23,-0.00017072,-0.020795,0.12753
5615,4.8075,4.9091,0.1,0.0004818,4814.7,0.00048523,4923.1,-0.00014009,224.73,-0.00017,-0.032,0.12671
5616,4.8075,5.0909,0.1,0.00048469,4843.5,0.00048763,4935.4,-0.00014404,189.29,-0.00016924,-0.044893,0.12579
5617,4.8075,5.2727,0.1,0.00048772,4873.8,0.00049013,4948.1,-0.00014816,152.25,-0.00016844,-0.069349,0.12478
5618,4.8075,5.4545,0.1,0.00049087,4905.3,0.00049271,4961.3,-0.00015243,113.95,-0.00016761,-0.079476,0.12367
5619,4.8075,5.6364,0.1,0.00049412,4937.8,0.00049534,4974.6,-0.0001568,74.595,-0.00016676,-0.25456,0.12246
5620,4.8075,5.8182,0.1,0.00049748,4971.4,0.00049805,4988.3,-0.00016128,34.375,-0.00016589,-0.28604,0.12115
5621,4.9925,0.18182,0.1,0.00049123,4908.9,0.00049177,4924.8,-0.00015942,32.017,-0.00016371,-0.25325,0.13081
5622,4.9925,0.36364,0.1,0.00048813,4877.9,0.00048926,4912,-0.00015528,69.126,-0.00016451,-0.23221,0.13213
5623,4.9925,0.54545,0.1,0.00048512,4847.8,0.00048682,4899.6,-0.00015125,105.42,-0.00016529,-0.071955,0.13334
5624,4.9925,0.72727,0.1,0.0004822,4818.6,0.00048444,4887.4,-0.00014731,140.71,-0.00016605,-0.06312,0.13446
5625,4.9925,0.90909,0.1,0.00047939,4790.6,0.00048212,4875.6,-0.00014351,174.8,-0.00016678,-0.040861,0.13547
5626,4.9925,1.0909,0.1,0.00047671,4763.8,0.0004799,4864.1,-0.00013987,207.38,-0.00016748,-0.029165,0.1364
5627,4.9925,1.2727,0.1,0.0004742,4738.7,0.0004778,4853.3,-0.00013644,238.16,-0.00016814,-0.018971,0.13723
5628,4.9925,1.4545,0.1,0.00047186,4715.4,0.00047583,4843.1,-0.00013323,266.84,-0.00016875,-0.011023,0.13797
5629,4.9925,1.6364,0.1,0.00046973,4694,0.00047403,4833.7,-0.00013029,293.15,-0.0001693,-0.0043943,0.13862
5630,4.9925,1.8182,0.1,0.00046781,4674.9,0.0004724,4825.3,-0.00012764,316.81,-0.00016981,0.0010869,0.13919
5631,4.9925,2,0.1,0.00046614,4658.2,0.00047096,4817.8,-0.00012532,337.58,-0.00017024,0.0056154,0.13967
5632,4.9925,2.1818,0.1,0.00046472,4644,0.00046974,4811.4,-0.00012334,355.25,-0.00017062,0.0092882,0.14007
5633,4.9925,2.3636,0.1,0.00046357,4632.5,0.00046875,4806.2,-0.00012173,369.62,-0.00017092,0.01217,0.14039
5634,4.9925,2.5455,0.1,0.0004627,4623.8,0.00046799,4802.3,-0.00012051,380.54,-0.00017115,0.0143,0.14063
5635,4.9925,2.7273,0.1,0.00046211,4617.9,0.00046748,4799.6,-0.00011968,387.88,-0.0001713,0.015709,0.14078
5636,4.9925,2.9091,0.1,0.00046182,4615,0.00046723,4798.3,-0.00011927,391.58,-0.00017138,0.01641,0.14086
5637,4.9925,3.0909,0.1,0.00046182,4615,0.00046723,4798.3,-0.00011927,391.58,-0.00017138,0.01641,0.14086
5638,4.9925,3.2727,0.1,0.00046211,4617.9,0.00046748,4799.6,-0.00011968,387.88,-0.0001713,0.015709,0.14078
5639,4.9925,3.4545,0.1,0.0004627,4623.8,0.00046799,4802.3,-0.00012051,380.54,-0.00017115,0.014301,0.14063
5640,4.9925,3.6364,0.1,0.00046357,4632.5,0.00046875,4806.2,-0.00012173,369.62,-0.00017092,0.01217,0.14039
5641,4.9925,3.8182,0.1,0.00046472,4644,0.00046974,4811.4,-0.00012334,355.25,-0.00017062,0.0092886,0.14007
5642,4.9925,4,0.1,0.00046614,4658.2,0.00047096,4817.8,-0.00012532,337.58,-0.00017024,0.0056158,0.13967
5643,4.9925,4.1818,0.1,0.00046781,4674.9,0.0004724,4825.3,-0.00012764,316.81,-0.00016981,0.0010873,0.13919
5644,4.9925,4.3636,0.1,0.00046973,4694,0.00047403,4833.7,-0.00013029,293.15,-0.0001693,-0.0043936,0.13862
5645,4.9925,4.5455,0.1,0.00047186,4715.4,0.00047583,4843.1,-0.00013323,266.84,-0.00016875,-0.011022,0.13797
5646,4.9925,4.7273,0.1,0.0004742,4738.7,0.0004778,4853.3,-0.00013644,238.16,-0.00016814,-0.01897,0.13723
5647,4.9925,4.9091,0.1,0.00047671,4763.8,0.0004799,4864.1,-0.00013987,207.38,-0.00016748,-0.029164,0.1364
5648,4.9925,5.0909,0.1,0.00047939,4790.6,0.00048212,4875.6,-0.00014351,174.8,-0.00016678,-0.040859,0.13547
5649,4.9925,5.2727,0.1,0.0004822,4818.6,0.00048444,4887.4,-0.00014731,140.71,-0.00016605,-0.063119,0.13446
5650,4.9925,5.4545,0.1,0.00048512,4847.8,0.00048682,4899.6,-0.00015125,105.42,-0.00016529,-0.071955,0.13334
5651,4.9925,5.6364,0.1,0.00048813,4877.9,0.00048926,4912,-0.00015528,69.126,-0.00016451,-0.23221,0.13213
5652,4.9925,5.8182,0.1,0.00049123,4908.9,0.00049177,4924.8,-0.00015942,32.017,-0.00016371,-0.25325,0.13081
5653,5.1774,0.18182,0.1,0.00048505,4847.2,0.00048555,4861.8,-0.00015757,29.675,-0.00016155,-0.22554,0.1408
5654,5.1774,0.36364,0.1,0.00048218,4818.4,0.00048323,4850,-0.00015376,63.92,-0.00016229,-0.21187,0.14212
5655,5.1774,0.54545,0.1,0.00047939,4790.6,0.00048097,4838.5,-0.00015003,97.39,-0.000163,-0.065178,0.14334
5656,5.1774,0.72727,0.1,0.00047669,4763.6,0.00047876,4827.2,-0.00014641,129.9,-0.0001637,-0.057473,0.14446
5657,5.1774,0.90909,0.1,0.00047408,4737.6,0.00047662,4816.1,-0.0001429,161.28,-0.00016437,-0.037217,0.14549
5658,5.1774,1.0909,0.1,0.00047161,4712.8,0.00047457,4805.5,-0.00013955,191.24,-0.00016501,-0.026612,0.14641
5659,5.1774,1.2727,0.1,0.00046928,4689.5,0.00047263,4795.4,-0.00013639,219.52,-0.00016561,-0.017342,0.14725
5660,5.1774,1.4545,0.1,0.00046712,4667.9,0.00047081,4786,-0.00013344,245.85,-0.00016617,-0.010109,0.148
5661,5.1774,1.6364,0.1,0.00046514,4648.2,0.00046914,4777.3,-0.00013074,269.99,-0.00016668,-0.0040688,0.14866
5662,5.1774,1.8182,0.1,0.00046337,4630.5,0.00046764,4769.4,-0.00012831,291.69,-0.00016713,0.00093282,0.14923
5663,5.1774,2,0.1,0.00046182,4615,0.00046632,4762.5,-0.00012618,310.73,-0.00016753,0.0050713,0.14972
5664,5.1774,2.1818,0.1,0.0004605,4601.9,0.00046519,4756.6,-0.00012436,326.91,-0.00016787,0.0084331,0.15012
5665,5.1774,2.3636,0.1,0.00045944,4591.2,0.00046428,4751.8,-0.00012289,340.08,-0.00016815,0.011074,0.15044
5666,5.1774,2.5455,0.1,0.00045863,4583.1,0.00046358,4748.1,-0.00012177,350.07,-0.00016836,0.01303,0.15068
5667,5.1774,2.7273,0.1,0.00045808,4577.7,0.00046311,4745.6,-0.00012101,356.8,-0.0001685,0.014323,0.15084
5668,5.1774,2.9091,0.1,0.00045781,4575,0.00046287,4744.4,-0.00012063,360.18,-0.00016857,0.014968,0.15092
5669,5.1774,3.0909,0.1,0.00045781,4575,0.00046287,4744.4,-0.00012063,360.18,-0.00016857,0.014968,0.15092
5670,5.1774,3.2727,0.1,0.00045808,4577.7,0.00046311,4745.6,-0.00012101,356.8,-0.0001685,0.014323,0.15084
5671,5.1774,3.4545,0.1,0.00045863,4583.1,0.00046358,4748.1,-0.00012177,350.07,-0.00016836,0.01303,0.15068
5672,5.1774,3.6364,0.1,0.00045944,4591.2,0.00046428,4751.8,-0.00012289,340.08,-0.00016815,0.011075,0.15044
5673,5.1774,3.8182,0.1,0.0004605,4601.9,0.00046519,4756.6,-0.00012436,326.91,-0.00016787,0.0084336,0.15012
5674,5.1774,4,0.1,0.00046182,4615,0.00046632,4762.5,-0.00012618,310.73,-0.00016753,0.0050719,0.14972
5675,5.1774,4.1818,0.1,0.00046337,4630.5,0.00046764,4769.4,-0.00012831,291.69,-0.00016713,0.00093333,0.14923
5676,5.1774,4.3636,0.1,0.00046514,4648.2,0.00046914,4777.3,-0.00013074,269.99,-0.00016668,-0.0040684,0.14866
5677,5.1774,4.5455,0.1,0.00046712,4667.9,0.00047081,4786,-0.00013344,245.85,-0.00016617,-0.010109,0.148
5678,5.1774,4.7273,0.1,0.00046928,4689.5,0.00047263,4795.4,-0.00013639,219.52,-0.00016561,-0.017341,0.14725
5679,5.1774,4.9091,0.1,0.00047161,4712.8,0.00047457,4805.5,-0.00013955,191.24,-0.00016501,-0.026611,0.14641
5680,5.1774,5.0909,0.1,0.00047408,4737.6,0.00047662,4816.1,-0.0001429,161.28,-0.00016437,-0.037215,0.14549
5681,5.1774,5.2727,0.1,0.00047669,4763.6,0.00047876,4827.2,-0.00014641,129.9,-0.0001637,-0.057472,0.14446
5682,5.1774,5.4545,0.1,0.00047939,4790.6,0.00048097,4838.5,-0.00015003,97.39,-0.000163,-0.065178,0.14334
5683,5.1774,5.6364,0.1,0.00048218,4818.4,0.00048323,4850,-0.00015376,63.92,-0.00016229,-0.21187,0.14212
5684,5.1774,5.8182,0.1,0.00048505,4847.2,0.00048555,4861.8,-0.00015757,29.675,-0.00016155,-0.22554,0.1408
5685,5.3623,0.18182,0.1,0.00047893,4786,0.00047939,4799.5,-0.00015575,27.368,-0.00015942,-0.20207,0.15113
5686,5.3623,0.36364,0.1,0.00047627,4759.4,0.00047724,4788.5,-0.00015222,58.977,-0.0001601,-0.19334,0.15245
5687,5.3623,0.54545,0.1,0.00047369,4733.6,0.00047515,4777.9,-0.00014879,89.84,-0.00016075,-0.059053,0.15367
5688,5.3623,0.72727,0.1,0.00047118,4708.6,0.00047311,4767.3,-0.00014544,119.79,-0.00016139,-0.05234,0.1548
5689,5.3623,0.90909,0.1,0.00046878,4684.5,0.00047113,4757.1,-0.00014221,148.67,-0.00016201,-0.033912,0.15582
5690,5.3623,1.0909,0.1,0.00046649,4661.6,0.00046923,4747.2,-0.00013913,176.22,-0.00016259,-0.024301,0.15676
5691,5.3623,1.2727,0.1,0.00046433,4640.1,0.00046744,4737.9,-0.00013622,202.21,-0.00016314,-0.015877,0.1576
5692,5.3623,1.4545,0.1,0.00046233,4620.1,0.00046576,4729.1,-0.00013351,226.39,-0.00016365,-0.0093016,0.15835
5693,5.3623,1.6364,0.1,0.0004605,4601.8,0.00046422,4721.1,-0.00013103,248.54,-0.00016411,-0.0038027,0.15901
5694,5.3623,1.8182,0.1,0.00045886,4585.5,0.00046284,4713.8,-0.0001288,268.44,-0.00016453,0.00075575,0.15959
5695,5.3623,2,0.1,0.00045743,4571.1,0.00046162,4707.4,-0.00012684,285.9,-0.00016489,0.0045321,0.16008
5696,5.3623,2.1818,0.1,0.00045621,4559,0.00046058,4701.9,-0.00012518,300.73,-0.0001652,0.0076033,0.16048
5697,5.3623,2.3636,0.1,0.00045522,4549.1,0.00045974,4697.4,-0.00012382,312.79,-0.00016545,0.010019,0.16081
5698,5.3623,2.5455,0.1,0.00045448,4541.6,0.0004591,4694,-0.00012279,321.94,-0.00016564,0.011808,0.16105
5699,5.3623,2.7273,0.1,0.00045397,4536.6,0.00045866,4691.7,-0.0001221,328.1,-0.00016577,0.012994,0.16121
5700,5.3623,2.9091,0.1,0.00045372,4534.1,0.00045845,4690.6,-0.00012175,331.2,-0.00016583,0.013584,0.16129
5701,5.3623,3.0909,0.1,0.00045372,4534.1,0.00045845,4690.6,-0.00012175,331.2,-0.00016583,0.013584,0.16129
5702,5.3623,3.2727,0.1,0.00045397,4536.6,0.00045866,4691.7,-0.0001221,328.1,-0.00016577,0.012994,0.16121
5703,5.3623,3.4545,0.1,0.00045448,4541.6,0.0004591,4694,-0.00012279,321.94,-0.00016564,0.011808,0.16105
5704,5.3623,3.6364,0.1,0.00045522,4549.1,0.00045974,4697.4,-0.00012382,312.79,-0.00016545,0.010019,0.16081
5705,5.3623,3.8182,0.1,0.00045621,4559,0.00046058,4701.9,-0.00012518,300.73,-0.0001652,0.0076035,0.16048
5706,5.3623,4,0.1,0.00045743,4571.1,0.00046162,4707.4,-0.00012684,285.9,-0.00016489,0.0045325,0.16008
5707,5.3623,4.1818,0.1,0.00045886,4585.5,0.00046284,4713.8,-0.0001288,268.44,-0.00016453,0.00075633,0.15959
5708,5.3623,4.3636,0.1,0.0004605,4601.8,0.00046422,4721.1,-0.00013103,248.54,-0.00016411,-0.003802,0.15901
5709,5.3623,4.5455,0.1,0.00046233,4620.1,0.00046576,4729.1,-0.00013351,226.39,-0.00016365,-0.009301,0.15835
5710,5.3623,4.7273,0.1,0.00046433,4640.1,0.00046744,4737.9,-0.00013622,202.21,-0.00016314,-0.015876,0.1576
5711,5.3623,4.9091,0.1,0.00046649,4661.6,0.00046923,4747.2,-0.00013913,176.22,-0.00016259,-0.024301,0.15676
5712,5.3623,5.0909,0.1,0.00046878,4684.5,0.00047113,4757.1,-0.00014221,148.67,-0.00016201,-0.033911,0.15582
5713,5.3623,5.2727,0.1,0.00047118,4708.6,0.00047311,4767.3,-0.00014544,119.79,-0.00016139,-0.052339,0.1548
5714,5.3623,5.4545,0.1,0.00047369,4733.6,0.00047515,4777.9,-0.00014879,89.84,-0.00016075,-0.059053,0.15367
5715,5.3623,5.6364,0.1,0.00047627,4759.4,0.00047724,4788.5,-0.00015222,58.977,-0.0001601,-0.19334,0.15245
5716,5.3623,5.8182,0.1,0.00047893,4786,0.00047939,4799.5,-0.00015575,27.368,-0.00015942,-0.20207,0.15113
5717,5.5472,0.18182,0.1,0.00047287,4725.5,0.00047329,4737.9,-0.00015394,25.11,-0.00015731,-0.1822,0.16179
5718,5.5472,0.36364,0.1,0.0004704,4700.8,0.0004713,4727.6,-0.00015068,54.293,-0.00015793,-0.17643,0.16311
5719,5.5472,0.54545,0.1,0.00046801,4676.9,0.00046936,4717.7,-0.00014751,82.749,-0.00015853,-0.053513,0.16433
5720,5.5472,0.72727,0.1,0.0004657,4653.8,0.00046747,4707.9,-0.00014443,110.34,-0.00015912,-0.047671,0.16545
5721,5.5472,0.90909,0.1,0.00046347,4631.5,0.00046565,4698.4,-0.00014145,136.92,-0.00015968,-0.030916,0.16648
5722,5.5472,1.0909,0.1,0.00046135,4610.3,0.0004639,4689.3,-0.00013862,162.26,-0.00016021,-0.022212,0.16742
5723,5.5472,1.2727,0.1,0.00045936,4590.4,0.00046224,4680.6,-0.00013594,186.15,-0.00016072,-0.014563,0.16826
5724,5.5472,1.4545,0.1,0.0004575,4571.9,0.00046069,4672.5,-0.00013345,208.36,-0.00016118,-0.0085895,0.16902
5725,5.5472,1.6364,0.1,0.00045581,4555,0.00045927,4665,-0.00013117,228.69,-0.0001616,-0.0035887,0.16968
5726,5.5472,1.8182,0.1,0.0004543,4539.9,0.000458,4658.3,-0.00012912,246.94,-0.00016198,0.00056035,0.17026
5727,5.5472,2,0.1,0.00045297,4526.6,0.00045687,4652.3,-0.00012732,262.94,-0.00016232,0.004001,0.17076
5728,5.5472,2.1818,0.1,0.00045185,4515.4,0.00045592,4647.3,-0.00012579,276.54,-0.0001626,0.0068019,0.17117
5729,5.5472,2.3636,0.1,0.00045094,4506.2,0.00045514,4643.2,-0.00012455,287.58,-0.00016283,0.0090069,0.17149
5730,5.5472,2.5455,0.1,0.00045024,4499.3,0.00045455,4640,-0.00012361,295.97,-0.000163,0.010641,0.17174
5731,5.5472,2.7273,0.1,0.00044978,4494.7,0.00045415,4637.9,-0.00012297,301.61,-0.00016312,0.011725,0.1719
5732,5.5472,2.9091,0.1,0.00044955,4492.3,0.00045395,4636.8,-0.00012266,304.45,-0.00016317,0.012265,0.17198
5733,5.5472,3.0909,0.1,0.00044955,4492.3,0.00045395,4636.8,-0.00012266,304.45,-0.00016317,0.012265,0.17198
5734,5.5472,3.2727,0.1,0.00044978,4494.7,0.00045415,4637.9,-0.00012297,301.61,-0.00016312,0.011725,0.1719
5735,5.5472,3.4545,0.1,0.00045024,4499.3,0.00045455,4640,-0.00012361,295.97,-0.000163,0.010642,0.17174
5736,5.5472,3.6364,0.1,0.00045094,4506.2,0.00045514,4643.2,-0.00012455,287.58,-0.00016283,0.0090072,0.17149
5737,5.5472,3.8182,0.1,0.00045185,4515.4,0.00045592,4647.3,-0.00012579,276.54,-0.0001626,0.0068024,0.17117
5738,5.5472,4,0.1,0.00045297,4526.6,0.00045687,4652.3,-0.00012732,262.94,-0.00016232,0.0040013,0.17076
5739,5.5472,4.1818,0.1,0.0004543,4539.9,0.000458,4658.3,-0.00012912,246.94,-0.00016198,0.00056095,0.17026
5740,5.5472,4.3636,0.1,0.00045581,4555,0.00045927,4665,-0.00013117,228.69,-0.0001616,-0.0035881,0.16968
5741,5.5472,4.5455,0.1,0.0004575,4571.9,0.00046069,4672.5,-0.00013345,208.36,-0.00016118,-0.0085888,0.16902
5742,5.5472,4.7273,0.1,0.00045936,4590.4,0.00046224,4680.6,-0.00013594,186.15,-0.00016072,-0.014562,0.16826
5743,5.5472,4.9091,0.1,0.00046135,4610.3,0.0004639,4689.3,-0.00013862,162.26,-0.00016021,-0.022212,0.16742
5744,5.5472,5.0909,0.1,0.00046347,4631.5,0.00046565,4698.4,-0.00014145,136.92,-0.00015968,-0.030915,0.16648
5745,5.5472,5.2727,0.1,0.0004657,4653.8,0.00046747,4707.9,-0.00014443,110.34,-0.00015912,-0.04767,0.16545
5746,5.5472,5.4545,0.1,0.00046801,4676.9,0.00046936,4717.7,-0.00014751,82.749,-0.00015853,-0.053513,0.16433
5747,5.5472,5.6364,0.1,0.0004704,4700.8,0.0004713,4727.6,-0.00015068,54.293,-0.00015793,-0.17643,0.16311
5748,5.5472,5.8182,0.1,0.00047287,4725.5,0.00047329,4737.9,-0.00015394,25.11,-0.00015731,-0.1822,0.16179
5749,5.7321,0.18182,0.1,0.00046687,4665.5,0.00046725,4676.8,-0.00015214,22.913,-0.00015521,-0.16539,0.17277
5750,5.7321,0.36364,0.1,0.00046458,4642.6,0.0004654,4667.2,-0.00014913,49.863,-0.00015579,-0.16099,0.17409
5751,5.7321,0.54545,0.1,0.00046236,4620.5,0.00046361,4658,-0.0001462,76.097,-0.00015634,-0.048492,0.17531
5752,5.7321,0.72727,0.1,0.00046022,4599,0.00046186,4648.9,-0.00014336,101.51,-0.00015688,-0.043419,0.17643
5753,5.7321,0.90909,0.1,0.00045816,4578.4,0.00046017,4640.1,-0.00014062,125.98,-0.00015739,-0.028195,0.17746
5754,5.7321,1.0909,0.1,0.0004562,4558.9,0.00045856,4631.7,-0.00013801,149.29,-0.00015788,-0.02032,0.1784
5755,5.7321,1.2727,0.1,0.00045436,4540.4,0.00045703,4623.6,-0.00013555,171.24,-0.00015834,-0.013381,0.17925
5756,5.7321,1.4545,0.1,0.00045265,4523.3,0.0004556,4616.1,-0.00013326,191.64,-0.00015877,-0.00796,0.18
5757,5.7321,1.6364,0.1,0.00045108,4507.7,0.00045429,4609.2,-0.00013116,210.3,-0.00015915,-0.0034172,0.18067
5758,5.7321,1.8182,0.1,0.00044968,4493.7,0.00045311,4602.9,-0.00012928,227.05,-0.0001595,0.0003548,0.18125
5759,5.7321,2,0.1,0.00044846,4481.5,0.00045208,4597.5,-0.00012763,241.73,-0.0001598,0.0034851,0.18175
5760,5.7321,2.1818,0.1,0.00044742,4471.1,0.0004512,4592.8,-0.00012623,254.19,-0.00016006,0.0060357,0.18216
5761,5.7321,2.3636,0.1,0.00044658,4462.7,0.00045048,4589,-0.00012509,264.31,-0.00016027,0.0080448,0.18249
5762,5.7321,2.5455,0.1,0.00044594,4456.3,0.00044994,4586.1,-0.00012423,271.99,-0.00016043,0.009535,0.18273
5763,5.7321,2.7273,0.1,0.00044551,4452,0.00044957,4584.1,-0.00012364,277.16,-0.00016053,0.010523,0.1829
5764,5.7321,2.9091,0.1,0.00044529,4449.8,0.00044939,4583.1,-0.00012335,279.76,-0.00016058,0.011016,0.18298
5765,5.7321,3.0909,0.1,0.00044529,4449.8,0.00044939,4583.1,-0.00012335,279.76,-0.00016058,0.011016,0.18298
5766,5.7321,3.2727,0.1,0.00044551,4452,0.00044957,4584.1,-0.00012364,277.16,-0.00016053,0.010523,0.1829
5767,5.7321,3.4545,0.1,0.00044594,4456.3,0.00044994,4586.1,-0.00012423,271.99,-0.00016043,0.0095353,0.18273
5768,5.7321,3.6364,0.1,0.00044658,4462.7,0.00045048,4589,-0.00012509,264.31,-0.00016027,0.0080451,0.18249
5769,5.7321,3.8182,0.1,0.00044742,4471.1,0.0004512,4592.8,-0.00012623,254.19,-0.00016006,0.006036,0.18216
5770,5.7321,4,0.1,0.00044846,4481.5,0.00045208,4597.5,-0.00012763,241.73,-0.0001598,0.0034856,0.18175
5771,5.7321,4.1818,0.1,0.00044968,4493.7,0.00045311,4602.9,-0.00012928,227.05,-0.0001595,0.00035519,0.18125
5772,5.7321,4.3636,0.1,0.00045108,4507.7,0.00045429,4609.2,-0.00013116,210.3,-0.00015915,-0.0034166,0.18067
5773,5.7321,4.5455,0.1,0.00045265,4523.3,0.0004556,4616.1,-0.00013326,191.64,-0.00015877,-0.0079593,0.18
5774,5.7321,4.7273,0.1,0.00045436,4540.4,0.00045703,4623.6,-0.00013555,171.24,-0.00015834,-0.01338,0.17925
5775,5.7321,4.9091,0.1,0.0004562,4558.9,0.00045856,4631.7,-0.00013801,149.29,-0.00015788,-0.020319,0.1784
5776,5.7321,5.0909,0.1,0.00045816,4578.4,0.00046017,4640.1,-0.00014062,125.98,-0.00015739,-0.028194,0.17746
5777,5.7321,5.2727,0.1,0.00046022,4599,0.00046186,4648.9,-0.00014336,101.51,-0.00015688,-0.043419,0.17643
5778,5.7321,5.4545,0.1,0.00046236,4620.5,0.00046361,4658,-0.0001462,76.097,-0.00015634,-0.048492,0.17531
5779,5.7321,5.6364,0.1,0.00046458,4642.6,0.0004654,4667.2,-0.00014913,49.863,-0.00015579,-0.16099,0.17409
5780,5.7321,5.8182,0.1,0.00046687,4665.5,0.00046725,4676.8,-0.00015214,22.913,-0.00015521,-0.16539,0.17277
5781,5.917,0.18182,0.1,0.00046092,4606,0.00046126,4616.3,-0.00015036,20.787,-0.00015314,-0.15124,0.18406
5782,5.917,0.36364,0.1,0.00045879,4584.7,0.00045955,4607.3,-0.00014757,45.68,-0.00015367,-0.14689,0.18538
5783,5.917,0.54545,0.1,0.00045674,4564.3,0.00045789,4598.8,-0.00014487,69.864,-0.00015418,-0.043947,0.1866
5784,5.917,0.72727,0.1,0.00045476,4544.4,0.00045627,4590.3,-0.00014225,93.275,-0.00015467,-0.039554,0.18773
5785,5.917,0.90909,0.1,0.00045285,4525.4,0.00045471,4582.2,-0.00013973,115.8,-0.00015514,-0.025732,0.18876
5786,5.917,1.0909,0.1,0.00045104,4507.3,0.00045322,4574.3,-0.00013732,137.24,-0.00015559,-0.018614,0.18969
5787,5.917,1.2727,0.1,0.00044934,4490.3,0.00045181,4566.9,-0.00013506,157.41,-0.00015601,-0.012326,0.19054
5788,5.917,1.4545,0.1,0.00044775,4474.5,0.00045049,4559.9,-0.00013295,176.15,-0.0001564,-0.0074121,0.1913
5789,5.917,1.6364,0.1,0.00044631,4460,0.00044928,4553.5,-0.00013103,193.29,-0.00015675,-0.0032904,0.19197
5790,5.917,1.8182,0.1,0.00044502,4447.1,0.0004482,4547.8,-0.0001293,208.65,-0.00015707,0.00013426,0.19255
5791,5.917,2,0.1,0.00044388,4435.8,0.00044725,4542.7,-0.00012778,222.12,-0.00015735,0.0029786,0.19305
5792,5.917,2.1818,0.1,0.00044293,4426.2,0.00044644,4538.3,-0.0001265,233.54,-0.00015758,0.0052976,0.19346
5793,5.917,2.3636,0.1,0.00044215,4418.4,0.00044578,4534.8,-0.00012545,242.82,-0.00015777,0.0071254,0.19379
5794,5.917,2.5455,0.1,0.00044156,4412.5,0.00044528,4532.1,-0.00012466,249.86,-0.00015791,0.0084817,0.19404
5795,5.917,2.7273,0.1,0.00044116,4408.5,0.00044494,4530.3,-0.00012413,254.59,-0.00015801,0.0093816,0.1942
5796,5.917,2.9091,0.1,0.00044096,4406.6,0.00044477,4529.4,-0.00012386,256.97,-0.00015806,0.0098304,0.19428
5797,5.917,3.0909,0.1,0.00044096,4406.6,0.00044477,4529.4,-0.00012386,256.97,-0.00015806,0.0098305,0.19428
5798,5.917,3.2727,0.1,0.00044116,4408.5,0.00044494,4530.3,-0.00012413,254.59,-0.00015801,0.0093817,0.1942
5799,5.917,3.4545,0.1,0.00044156,4412.5,0.00044528,4532.1,-0.00012466,249.86,-0.00015791,0.0084821,0.19404
5800,5.917,3.6364,0.1,0.00044215,4418.4,0.00044578,4534.8,-0.00012545,242.82,-0.00015777,0.0071258,0.19379
5801,5.917,3.8182,0.1,0.00044293,4426.2,0.00044644,4538.3,-0.0001265,233.54,-0.00015758,0.005298,0.19346
5802,5.917,4,0.1,0.00044388,4435.8,0.00044725,4542.7,-0.00012778,222.12,-0.00015735,0.0029792,0.19305
5803,5.917,4.1818,0.1,0.00044502,4447.1,0.0004482,4547.8,-0.0001293,208.65,-0.00015707,0.00013486,0.19255
5804,5.917,4.3636,0.1,0.00044631,4460,0.00044928,4553.5,-0.00013103,193.29,-0.00015675,-0.0032898,0.19197
5805,5.917,4.5455,0.1,0.00044775,4474.5,0.00045049,4559.9,-0.00013295,176.15,-0.0001564,-0.0074114,0.1913
5806,5.917,4.7273,0.1,0.00044934,4490.3,0.00045181,4566.9,-0.00013506,157.41,-0.00015601,-0.012325,0.19054
5807,5.917,4.9091,0.1,0.00045104,4507.3,0.00045322,4574.3,-0.00013732,137.24,-0.00015559,-0.018614,0.18969
5808,5.917,5.0909,0.1,0.00045285,4525.4,0.00045471,4582.2,-0.00013973,115.8,-0.00015514,-0.02573,0.18876
5809,5.917,5.2727,0.1,0.00045476,4544.4,0.00045627,4590.3,-0.00014225,93.275,-0.00015467,-0.039553,0.18773
5810,5.917,5.4545,0.1,0.00045674,4564.3,0.00045789,4598.8,-0.00014487,69.864,-0.00015418,-0.043947,0.1866
5811,5.917,5.6364,0.1,0.00045879,4584.7,0.00045955,4607.3,-0.00014757,45.68,-0.00015367,-0.14689,0.18538
5812,5.917,5.8182,0.1,0.00046092,4606,0.00046126,4616.3,-0.00015036,20.787,-0.00015314,-0.15123,0.18406
5813,6.1019,0.18182,0.1,0.00045501,4547,0.00045533,4556.3,-0.00014858,18.736,-0.00015109,-0.1394,0.19568
5814,6.1019,0.36364,0.1,0.00045304,4527.3,0.00045373,4547.9,-0.000146,41.737,-0.00015158,-0.134,0.19699
5815,6.1019,0.54545,0.1,0.00045114,4508.3,0.0004522,4540,-0.00014351,64.029,-0.00015204,-0.039822,0.19821
5816,6.1019,0.72727,0.1,0.00044931,4490,0.0004507,4532.1,-0.0001411,85.591,-0.00015249,-0.036032,0.19933
5817,6.1019,0.90909,0.1,0.00044755,4472.4,0.00044926,4524.6,-0.00013877,106.32,-0.00015293,-0.023495,0.20036
5818,6.1019,1.0909,0.1,0.00044587,4455.6,0.00044788,4517.3,-0.00013656,126.04,-0.00015334,-0.017071,0.2013
5819,6.1019,1.2727,0.1,0.00044429,4439.9,0.00044658,4510.4,-0.00013448,144.59,-0.00015372,-0.011379,0.20214
5820,6.1019,1.4545,0.1,0.00044283,4425.3,0.00044536,4504,-0.00013254,161.81,-0.00015408,-0.0069313,0.2029
5821,6.1019,1.6364,0.1,0.0004415,4411.9,0.00044425,4498,-0.00013077,177.54,-0.0001544,-0.0031963,0.20357
5822,6.1019,1.8182,0.1,0.0004403,4400,0.00044325,4492.7,-0.00012918,191.64,-0.00015469,-9.1051e-05,0.20415
5823,6.1019,2,0.1,0.00043926,4389.6,0.00044237,4488,-0.00012779,203.99,-0.00015494,0.0024897,0.20465
5824,6.1019,2.1818,0.1,0.00043837,4380.7,0.00044163,4484,-0.00012661,214.47,-0.00015516,0.0045952,0.20507
5825,6.1019,2.3636,0.1,0.00043765,4373.5,0.00044102,4480.7,-0.00012565,222.98,-0.00015533,0.0062557,0.2054
5826,6.1019,2.5455,0.1,0.00043711,4368.1,0.00044056,4478.3,-0.00012493,229.43,-0.00015546,0.0074882,0.20564
5827,6.1019,2.7273,0.1,0.00043674,4364.4,0.00044025,4476.6,-0.00012444,233.77,-0.00015555,0.008306,0.20581
5828,6.1019,2.9091,0.1,0.00043656,4362.6,0.00044009,4475.8,-0.00012419,235.95,-0.00015559,0.0087142,0.20589
5829,6.1019,3.0909,0.1,0.00043656,4362.6,0.00044009,4475.8,-0.00012419,235.95,-0.00015559,0.0087142,0.20589
5830,6.1019,3.2727,0.1,0.00043674,4364.4,0.00044025,4476.6,-0.00012444,233.77,-0.00015555,0.0083061,0.20581
5831,6.1019,3.4545,0.1,0.00043711,4368.1,0.00044056,4478.3,-0.00012493,229.43,-0.00015546,0.0074882,0.20564
5832,6.1019,3.6364,0.1,0.00043765,4373.5,0.00044102,4480.7,-0.00012565,222.98,-0.00015533,0.006256,0.2054
5833,6.1019,3.8182,0.1,0.00043837,4380.7,0.00044163,4484,-0.00012661,214.47,-0.00015516,0.0045955,0.20507
5834,6.1019,4,0.1,0.00043926,4389.6,0.00044237,4488,-0.00012779,203.99,-0.00015494,0.00249,0.20465
5835,6.1019,4.1818,0.1,0.0004403,4400,0.00044325,4492.7,-0.00012918,191.64,-0.00015469,-9.0512e-05,0.20415
5836,6.1019,4.3636,0.1,0.0004415,4411.9,0.00044425,4498,-0.00013077,177.54,-0.0001544,-0.0031958,0.20357
5837,6.1019,4.5455,0.1,0.00044283,4425.3,0.00044536,4504,-0.00013254,161.81,-0.00015408,-0.0069305,0.2029
5838,6.1019,4.7273,0.1,0.00044429,4439.9,0.00044658,4510.4,-0.00013448,144.59,-0.00015372,-0.011379,0.20214
5839,6.1019,4.9091,0.1,0.00044587,4455.6,0.00044788,4517.3,-0.00013656,126.04,-0.00015334,-0.01707,0.2013
5840,6.1019,5.0909,0.1,0.00044755,4472.4,0.00044926,4524.6,-0.00013877,106.32,-0.00015293,-0.023494,0.20036
5841,6.1019,5.2727,0.1,0.00044931,4490,0.0004507,4532.1,-0.0001411,85.591,-0.00015249,-0.036031,0.19933
5842,6.1019,5.4545,0.1,0.00045114,4508.3,0.0004522,4540,-0.00014351,64.029,-0.00015204,-0.039822,0.19821
5843,6.1019,5.6364,0.1,0.00045304,4527.3,0.00045373,4547.9,-0.000146,41.737,-0.00015158,-0.134,0.19699
5844,6.1019,5.8182,0.1,0.00045501,4547,0.00045533,4556.3,-0.00014858,18.736,-0.00015109,-0.1394,0.19568
5845,6.2868,0.18182,0.1,0.00044916,4488.5,0.00044944,4496.8,-0.00014681,16.767,-0.00014906,-0.12962,0.2076
5846,6.2868,0.36364,0.1,0.00044732,4470.2,0.00044796,4489,-0.00014443,38.026,-0.00014951,-0.12219,0.20891
5847,6.2868,0.54545,0.1,0.00044557,4452.6,0.00044654,4481.6,-0.00014213,58.57,-0.00014993,-0.036064,0.21013
5848,6.2868,0.72727,0.1,0.00044387,4435.6,0.00044515,4474.3,-0.00013991,78.428,-0.00015035,-0.03281,0.21124
5849,6.2868,0.90909,0.1,0.00044224,4419.4,0.00044382,4467.3,-0.00013776,97.507,-0.00015074,-0.021452,0.21227
5850,6.2868,1.0909,0.1,0.00044069,4403.9,0.00044254,4460.5,-0.00013573,115.65,-0.00015112,-0.015663,0.21321
5851,6.2868,1.2727,0.1,0.00043923,4389.3,0.00044134,4454.2,-0.00013381,132.7,-0.00015147,-0.01052,0.21405
5852,6.2868,1.4545,0.1,0.00043788,4375.8,0.00044022,4448.2,-0.00013203,148.52,-0.0001518,-0.0064987,0.21481
5853,6.2868,1.6364,0.1,0.00043665,4363.5,0.0004392,4442.7,-0.0001304,162.96,-0.00015209,-0.0031194,0.21548
5854,6.2868,1.8182,0.1,0.00043555,4352.5,0.00043828,4437.8,-0.00012894,175.91,-0.00015236,-0.00030767,0.21606
5855,6.2868,2,0.1,0.00043458,4342.8,0.00043747,4433.4,-0.00012767,187.24,-0.00015259,0.0020305,0.21656
5856,6.2868,2.1818,0.1,0.00043377,4334.7,0.00043678,4429.7,-0.00012658,196.85,-0.00015278,0.0039392,0.21697
5857,6.2868,2.3636,0.1,0.0004331,4328,0.00043622,4426.7,-0.0001257,204.65,-0.00015294,0.005445,0.21731
5858,6.2868,2.5455,0.1,0.0004326,4323,0.0004358,4424.5,-0.00012504,210.57,-0.00015306,0.0065633,0.21755
5859,6.2868,2.7273,0.1,0.00043226,4319.6,0.00043551,4422.9,-0.00012459,214.54,-0.00015314,0.0073058,0.21772
5860,6.2868,2.9091,0.1,0.00043209,4317.9,0.00043537,4422.1,-0.00012436,216.54,-0.00015318,0.0076763,0.2178
5861,6.2868,3.0909,0.1,0.00043209,4317.9,0.00043537,4422.1,-0.00012436,216.54,-0.00015318,0.0076763,0.2178
5862,6.2868,3.2727,0.1,0.00043226,4319.6,0.00043551,4422.9,-0.00012459,214.54,-0.00015314,0.007306,0.21772
5863,6.2868,3.4545,0.1,0.0004326,4323,0.0004358,4424.5,-0.00012504,210.57,-0.00015306,0.0065635,0.21755
5864,6.2868,3.6364,0.1,0.0004331,4328,0.00043622,4426.7,-0.0001257,204.65,-0.00015294,0.0054455,0.21731
5865,6.2868,3.8182,0.1,0.00043377,4334.7,0.00043678,4429.7,-0.00012658,196.85,-0.00015278,0.0039396,0.21697
5866,6.2868,4,0.1,0.00043458,4342.8,0.00043747,4433.4,-0.00012767,187.24,-0.00015259,0.0020309,0.21656
5867,6.2868,4.1818,0.1,0.00043555,4352.5,0.00043828,4437.8,-0.00012894,175.91,-0.00015236,-0.00030728,0.21606
5868,6.2868,4.3636,0.1,0.00043665,4363.5,0.0004392,4442.7,-0.0001304,162.96,-0.00015209,-0.0031187,0.21548
5869,6.2868,4.5455,0.1,0.00043788,4375.8,0.00044022,4448.2,-0.00013203,148.52,-0.0001518,-0.0064982,0.21481
5870,6.2868,4.7273,0.1,0.00043923,4389.3,0.00044134,4454.2,-0.00013381,132.7,-0.00015147,-0.010519,0.21405
5871,6.2868,4.9091,0.1,0.00044069,4403.9,0.00044254,4460.5,-0.00013573,115.65,-0.00015112,-0.015663,0.21321
5872,6.2868,5.0909,0.1,0.00044224,4419.4,0.00044382,4467.3,-0.00013776,97.507,-0.00015074,-0.021451,0.21227
5873,6.2868,5.2727,0.1,0.00044387,4435.6,0.00044515,4474.3,-0.00013991,78.428,-0.00015035,-0.03281,0.21124
5874,6.2868,5.4545,0.1,0.00044557,4452.6,0.00044654,4481.6,-0.00014213,58.57,-0.00014993,-0.036064,0.21013
5875,6.2868,5.6364,0.1,0.00044732,4470.2,0.00044796,4489,-0.00014443,38.026,-0.00014951,-0.12219,0.20891
5876,6.2868,5.8182,0.1,0.00044916,4488.5,0.00044944,4496.8,-0.00014681,16.767,-0.00014906,-0.12962,0.2076
5877,6.4717,0.18182,0.1,0.00044335,4430.5,0.0004436,4437.8,-0.00014506,14.882,-0.00014705,-0.12176,0.21984
5878,6.4717,0.36364,0.1,0.00044164,4413.4,0.00044222,4430.5,-0.00014285,34.536,-0.00014746,-0.11138,0.22114
5879,6.4717,0.54545,0.1,0.00044002,4397.1,0.0004409,4423.6,-0.00014073,53.469,-0.00014785,-0.032652,0.22235
5880,6.4717,0.72727,0.1,0.00043845,4381.4,0.00043962,4416.9,-0.00013868,71.755,-0.00014823,-0.029876,0.22346
5881,6.4717,0.90909,0.1,0.00043694,4366.4,0.00043839,4410.3,-0.0001367,89.314,-0.00014859,-0.019601,0.22449
5882,6.4717,1.0909,0.1,0.00043551,4352,0.00043721,4404.1,-0.00013483,106,-0.00014894,-0.014393,0.22542
5883,6.4717,1.2727,0.1,0.00043416,4338.6,0.0004361,4398.2,-0.00013306,121.68,-0.00014926,-0.0097528,0.22626
5884,6.4717,1.4545,0.1,0.00043291,4326.1,0.00043507,4392.6,-0.00013143,136.21,-0.00014956,-0.0061243,0.22702
5885,6.4717,1.6364,0.1,0.00043177,4314.8,0.00043412,4387.6,-0.00012993,149.48,-0.00014983,-0.0030713,0.22769
5886,6.4717,1.8182,0.1,0.00043076,4304.6,0.00043327,4383,-0.00012859,161.36,-0.00015007,-0.0005296,0.22827
5887,6.4717,2,0.1,0.00042987,4295.7,0.00043253,4379,-0.00012742,171.76,-0.00015028,0.0015853,0.22877
5888,6.4717,2.1818,0.1,0.00042911,4288.1,0.0004319,4375.6,-0.00012642,180.58,-0.00015046,0.0033134,0.22918
5889,6.4717,2.3636,0.1,0.0004285,4282,0.00043138,4372.8,-0.00012562,187.73,-0.0001506,0.0046771,0.22951
5890,6.4717,2.5455,0.1,0.00042803,4277.4,0.00043099,4370.7,-0.000125,193.16,-0.00015071,0.0056898,0.22976
5891,6.4717,2.7273,0.1,0.00042772,4274.3,0.00043073,4369.3,-0.00012459,196.8,-0.00015078,0.0063627,0.22992
5892,6.4717,2.9091,0.1,0.00042757,4272.7,0.0004306,4368.6,-0.00012439,198.63,-0.00015082,0.0066985,0.23001
5893,6.4717,3.0909,0.1,0.00042757,4272.7,0.0004306,4368.6,-0.00012439,198.63,-0.00015082,0.0066984,0.23001
5894,6.4717,3.2727,0.1,0.00042772,4274.3,0.00043073,4369.3,-0.00012459,196.8,-0.00015078,0.0063628,0.22992
5895,6.4717,3.4545,0.1,0.00042803,4277.4,0.00043099,4370.7,-0.000125,193.16,-0.00015071,0.0056902,0.22976
5896,6.4717,3.6364,0.1,0.0004285,4282,0.00043138,4372.8,-0.00012562,187.73,-0.0001506,0.0046774,0.22951
5897,6.4717,3.8182,0.1,0.00042911,4288.1,0.0004319,4375.6,-0.00012642,180.58,-0.00015046,0.0033137,0.22918
5898,6.4717,4,0.1,0.00042987,4295.7,0.00043253,4379,-0.00012742,171.76,-0.00015028,0.0015859,0.22877
5899,6.4717,4.1818,0.1,0.00043076,4304.6,0.00043327,4383,-0.00012859,161.36,-0.00015007,-0.00052911,0.22827
5900,6.4717,4.3636,0.1,0.00043177,4314.8,0.00043412,4387.6,-0.00012993,149.48,-0.00014983,-0.0030705,0.22769
5901,6.4717,4.5455,0.1,0.00043291,4326.1,0.00043507,4392.6,-0.00013143,136.21,-0.00014956,-0.0061234,0.22702
5902,6.4717,4.7273,0.1,0.00043416,4338.6,0.0004361,4398.2,-0.00013306,121.68,-0.00014926,-0.0097518,0.22626
5903,6.4717,4.9091,0.1,0.00043551,4352,0.00043721,4404.1,-0.00013483,106,-0.00014894,-0.014393,0.22542
5904,6.4717,5.0909,0.1,0.00043694,4366.4,0.00043839,4410.3,-0.0001367,89.314,-0.00014859,-0.019599,0.22449
5905,6.4717,5.2727,0.1,0.00043845,4381.4,0.00043962,4416.9,-0.00013868,71.755,-0.00014823,-0.029875,0.22346
5906,6.4717,5.4545,0.1,0.00044002,4397.1,0.0004409,4423.6,-0.00014073,53.469,-0.00014785,-0.032652,0.22235
5907,6.4717,5.6364,0.1,0.00044164,4413.4,0.00044222,4430.5,-0.00014285,34.536,-0.00014746,-0.11138,0.22114
5908,6.4717,5.8182,0.1,0.00044335,4430.5,0.0004436,4437.8,-0.00014506,14.882,-0.00014705,-0.12176,0.21984
5909,6.6566,0.18182,0.1,0.00043758,4372.8,0.0004378,4379.3,-0.0001433,13.083,-0.00014506,-0.1157,0.23237
5910,6.6566,0.36364,0.1,0.00043599,4356.9,0.00043651,4372.4,-0.00014126,31.259,-0.00014543,-0.10149,0.23367
5911,6.6566,0.54545,0.1,0.00043449,4341.9,0.00043529,4366,-0.0001393,48.704,-0.00014579,-0.029551,0.23487
5912,6.6566,0.72727,0.1,0.00043303,4327.3,0.00043411,4359.7,-0.00013741,65.541,-0.00014614,-0.027202,0.23598
5913,6.6566,0.90909,0.1,0.00043164,4313.4,0.00043297,4353.7,-0.00013559,81.7,-0.00014647,-0.01792,0.237
5914,6.6566,1.0909,0.1,0.00043031,4300.2,0.00043188,4347.9,-0.00013387,97.047,-0.00014678,-0.013247,0.23793
5915,6.6566,1.2727,0.1,0.00042907,4287.7,0.00043086,4342.4,-0.00013224,111.46,-0.00014708,-0.0090679,0.23877
5916,6.6566,1.4545,0.1,0.00042792,4276.2,0.0004299,4337.3,-0.00013074,124.81,-0.00014735,-0.0058002,0.23952
5917,6.6566,1.6364,0.1,0.00042687,4265.7,0.00042903,4332.6,-0.00012936,137,-0.0001476,-0.0030471,0.24019
5918,6.6566,1.8182,0.1,0.00042593,4256.3,0.00042825,4328.4,-0.00012813,147.92,-0.00014782,-0.00075348,0.24077
5919,6.6566,2,0.1,0.0004251,4248.1,0.00042756,4324.7,-0.00012706,157.46,-0.00014801,0.0011567,0.24127
5920,6.6566,2.1818,0.1,0.00042441,4241.2,0.00042698,4321.5,-0.00012614,165.55,-0.00014817,0.0027178,0.24168
5921,6.6566,2.3636,0.1,0.00042384,4235.5,0.00042651,4318.9,-0.0001254,172.11,-0.00014831,0.0039511,0.24201
5922,6.6566,2.5455,0.1,0.00042341,4231.2,0.00042615,4317,-0.00012484,177.08,-0.00014841,0.0048668,0.24226
5923,6.6566,2.7273,0.1,0.00042313,4228.3,0.00042591,4315.7,-0.00012446,180.43,-0.00014847,0.0054755,0.24243
5924,6.6566,2.9091,0.1,0.00042298,4226.9,0.00042579,4315,-0.00012427,182.11,-0.00014851,0.0057795,0.24251
5925,6.6566,3.0909,0.1,0.00042298,4226.9,0.00042579,4315,-0.00012427,182.11,-0.00014851,0.0057794,0.24251
5926,6.6566,3.2727,0.1,0.00042313,4228.3,0.00042591,4315.7,-0.00012446,180.43,-0.00014847,0.0054755,0.24243
5927,6.6566,3.4545,0.1,0.00042341,4231.2,0.00042615,4317,-0.00012484,177.08,-0.00014841,0.0048672,0.24226
5928,6.6566,3.6364,0.1,0.00042384,4235.5,0.00042651,4318.9,-0.0001254,172.11,-0.00014831,0.003951,0.24201
5929,6.6566,3.8182,0.1,0.00042441,4241.2,0.00042698,4321.5,-0.00012614,165.55,-0.00014817,0.0027182,0.24168
5930,6.6566,4,0.1,0.0004251,4248.1,0.00042756,4324.7,-0.00012706,157.46,-0.00014801,0.001157,0.24127
5931,6.6566,4.1818,0.1,0.00042593,4256.3,0.00042825,4328.4,-0.00012813,147.92,-0.00014782,-0.00075288,0.24077
5932,6.6566,4.3636,0.1,0.00042687,4265.7,0.00042903,4332.6,-0.00012936,137,-0.0001476,-0.0030463,0.24019
5933,6.6566,4.5455,0.1,0.00042792,4276.2,0.0004299,4337.3,-0.00013074,124.81,-0.00014735,-0.0057993,0.23952
5934,6.6566,4.7273,0.1,0.00042907,4287.7,0.00043086,4342.4,-0.00013224,111.46,-0.00014708,-0.0090673,0.23877
5935,6.6566,4.9091,0.1,0.00043031,4300.2,0.00043188,4347.9,-0.00013387,97.047,-0.00014678,-0.013246,0.23793
5936,6.6566,5.0909,0.1,0.00043164,4313.4,0.00043297,4353.7,-0.00013559,81.7,-0.00014647,-0.017919,0.237
5937,6.6566,5.2727,0.1,0.00043303,4327.3,0.00043411,4359.7,-0.00013741,65.541,-0.00014614,-0.027201,0.23598
5938,6.6566,5.4545,0.1,0.00043449,4341.9,0.00043529,4366,-0.0001393,48.704,-0.00014579,-0.029551,0.23487
5939,6.6566,5.6364,0.1,0.00043599,4356.9,0.00043651,4372.4,-0.00014126,31.259,-0.00014543,-0.10148,0.23367
5940,6.6566,5.8182,0.1,0.00043758,4372.8,0.0004378,4379.3,-0.0001433,13.082,-0.00014506,-0.1157,0.23237
5941,6.8415,0.18182,0.1,0.00043186,4315.6,0.00043205,4321.2,-0.00014156,11.369,-0.00014309,-0.11145,0.24521
5942,6.8415,0.36364,0.1,0.00043037,4300.8,0.00043084,4314.7,-0.00013966,28.185,-0.00014342,-0.09241,0.24649
5943,6.8415,0.54545,0.1,0.00042898,4286.8,0.00042971,4308.8,-0.00013786,44.257,-0.00014375,-0.02672,0.24769
5944,6.8415,0.72727,0.1,0.00042763,4273.4,0.00042862,4302.9,-0.00013611,59.758,-0.00014407,-0.024753,0.2488
5945,6.8415,0.90909,0.1,0.00042634,4260.5,0.00042756,4297.3,-0.00013444,74.627,-0.00014438,-0.016386,0.24981
5946,6.8415,1.0909,0.1,0.00042512,4248.3,0.00042656,4291.9,-0.00013285,88.743,-0.00014466,-0.012202,0.25074
5947,6.8415,1.2727,0.1,0.00042397,4236.8,0.00042561,4286.8,-0.00013136,101.99,-0.00014493,-0.0084476,0.25157
5948,6.8415,1.4545,0.1,0.00042291,4226.1,0.00042473,4282.1,-0.00012997,114.26,-0.00014518,-0.0055106,0.25233
5949,6.8415,1.6364,0.1,0.00042193,4216.4,0.00042393,4277.8,-0.00012871,125.46,-0.00014541,-0.0030333,0.25299
5950,6.8415,1.8182,0.1,0.00042107,4207.8,0.00042321,4273.9,-0.00012758,135.48,-0.00014561,-0.00096777,0.25357
5951,6.8415,2,0.1,0.00042031,4200.2,0.00042257,4270.4,-0.00012659,144.24,-0.00014578,0.00075392,0.25407
5952,6.8415,2.1818,0.1,0.00041966,4193.7,0.00042204,4267.5,-0.00012575,151.66,-0.00014593,0.0021623,0.25448
5953,6.8415,2.3636,0.1,0.00041914,4188.5,0.0004216,4265.1,-0.00012507,157.68,-0.00014605,0.003275,0.25481
5954,6.8415,2.5455,0.1,0.00041875,4184.6,0.00042127,4263.3,-0.00012455,162.24,-0.00014614,0.0041018,0.25505
5955,6.8415,2.7273,0.1,0.00041848,4181.9,0.00042105,4262.1,-0.00012421,165.31,-0.00014621,0.0046516,0.25522
5956,6.8415,2.9091,0.1,0.00041835,4180.6,0.00042094,4261.5,-0.00012403,166.85,-0.00014624,0.004926,0.2553
5957,6.8415,3.0909,0.1,0.00041835,4180.6,0.00042094,4261.5,-0.00012403,166.85,-0.00014624,0.0049261,0.2553
5958,6.8415,3.2727,0.1,0.00041848,4181.9,0.00042105,4262.1,-0.00012421,165.31,-0.00014621,0.0046517,0.25522
5959,6.8415,3.4545,0.1,0.00041875,4184.6,0.00042127,4263.3,-0.00012455,162.24,-0.00014614,0.0041019,0.25505
5960,6.8415,3.6364,0.1,0.00041914,4188.5,0.0004216,4265.1,-0.00012507,157.68,-0.00014605,0.0032754,0.25481
5961,6.8415,3.8182,0.1,0.00041966,4193.7,0.00042204,4267.5,-0.00012575,151.66,-0.00014593,0.0021627,0.25448
5962,6.8415,4,0.1,0.00042031,4200.2,0.00042257,4270.4,-0.00012659,144.24,-0.00014578,0.0007544,0.25407
5963,6.8415,4.1818,0.1,0.00042107,4207.8,0.00042321,4273.9,-0.00012758,135.48,-0.00014561,-0.00096711,0.25357
5964,6.8415,4.3636,0.1,0.00042193,4216.4,0.00042393,4277.8,-0.00012871,125.46,-0.00014541,-0.0030328,0.25299
5965,6.8415,4.5455,0.1,0.00042291,4226.1,0.00042473,4282.1,-0.00012997,114.26,-0.00014518,-0.00551,0.25233
5966,6.8415,4.7273,0.1,0.00042397,4236.8,0.00042561,4286.8,-0.00013136,101.99,-0.00014493,-0.0084468,0.25157
5967,6.8415,4.9091,0.1,0.00042512,4248.3,0.00042656,4291.9,-0.00013285,88.743,-0.00014466,-0.012201,0.25074
5968,6.8415,5.0909,0.1,0.00042634,4260.5,0.00042756,4297.3,-0.00013444,74.627,-0.00014438,-0.016384,0.24981
5969,6.8415,5.2727,0.1,0.00042763,4273.4,0.00042862,4302.9,-0.00013611,59.758,-0.00014407,-0.024752,0.2488
5970,6.8415,5.4545,0.1,0.00042898,4286.8,0.00042971,4308.8,-0.00013786,44.257,-0.00014375,-0.026719,0.24769
5971,6.8415,5.6364,0.1,0.00043037,4300.8,0.00043084,4314.7,-0.00013966,28.185,-0.00014342,-0.092409,0.24649
5972,6.8415,5.8182,0.1,0.00043186,4315.6,0.00043205,4321.2,-0.00014156,11.369,-0.00014309,-0.11145,0.24521
5973,7.0264,0.18182,0.1,0.00042617,4258.8,0.00042633,4263.6,-0.00013982,9.7407,-0.00014113,-0.10912,0.25834
5974,7.0264,0.36364,0.1,0.00042478,4244.9,0.00042521,4257.4,-0.00013806,25.304,-0.00014144,-0.084085,0.25962
5975,7.0264,0.54545,0.1,0.00042349,4232,0.00042416,4251.9,-0.00013639,40.108,-0.00014174,-0.024136,0.2608
5976,7.0264,0.72727,0.1,0.00042225,4219.5,0.00042314,4246.5,-0.00013479,54.377,-0.00014203,-0.022513,0.2619
5977,7.0264,0.90909,0.1,0.00042105,4207.6,0.00042217,4241.2,-0.00013325,68.058,-0.00014231,-0.014986,0.26291
5978,7.0264,1.0909,0.1,0.00041992,4196.3,0.00042124,4236.2,-0.00013178,81.04,-0.00014257,-0.011252,0.26383
5979,7.0264,1.2727,0.1,0.00041886,4185.7,0.00042037,4231.5,-0.00013041,93.219,-0.00014282,-0.0078876,0.26467
5980,7.0264,1.4545,0.1,0.00041787,4175.9,0.00041955,4227.1,-0.00012913,104.5,-0.00014304,-0.0052554,0.26542
5981,7.0264,1.6364,0.1,0.00041698,4166.9,0.00041881,4223.1,-0.00012797,114.78,-0.00014325,-0.0030312,0.26608
5982,7.0264,1.8182,0.1,0.00041618,4158.9,0.00041815,4219.5,-0.00012693,123.98,-0.00014343,-0.0011749,0.26666
5983,7.0264,2,0.1,0.00041548,4151.9,0.00041756,4216.3,-0.00012602,132.02,-0.00014359,0.00037369,0.26715
5984,7.0264,2.1818,0.1,0.00041488,4146,0.00041707,4213.6,-0.00012525,138.83,-0.00014373,0.0016414,0.26756
5985,7.0264,2.3636,0.1,0.0004144,4141.1,0.00041667,4211.4,-0.00012463,144.36,-0.00014384,0.0026437,0.26789
5986,7.0264,2.5455,0.1,0.00041404,4137.5,0.00041636,4209.8,-0.00012415,148.54,-0.00014392,0.0033886,0.26814
5987,7.0264,2.7273,0.1,0.00041379,4135.1,0.00041616,4208.7,-0.00012384,151.35,-0.00014398,0.003884,0.2683
5988,7.0264,2.9091,0.1,0.00041367,4133.8,0.00041606,4208.1,-0.00012368,152.77,-0.00014401,0.0041318,0.26838
5989,7.0264,3.0909,0.1,0.00041367,4133.8,0.00041606,4208.1,-0.00012368,152.77,-0.00014401,0.0041316,0.26838
5990,7.0264,3.2727,0.1,0.00041379,4135.1,0.00041616,4208.7,-0.00012384,151.35,-0.00014398,0.003884,0.2683
5991,7.0264,3.4545,0.1,0.00041404,4137.5,0.00041636,4209.8,-0.00012415,148.54,-0.00014392,0.0033889,0.26814
5992,7.0264,3.6364,0.1,0.0004144,4141.1,0.00041667,4211.4,-0.00012463,144.36,-0.00014384,0.0026438,0.26789
5993,7.0264,3.8182,0.1,0.00041488,4146,0.00041707,4213.6,-0.00012525,138.83,-0.00014373,0.0016417,0.26756
5994,7.0264,4,0.1,0.00041548,4151.9,0.00041756,4216.3,-0.00012602,132.02,-0.00014359,0.00037404,0.26715
5995,7.0264,4.1818,0.1,0.00041618,4158.9,0.00041815,4219.5,-0.00012693,123.98,-0.00014343,-0.0011743,0.26666
5996,7.0264,4.3636,0.1,0.00041698,4166.9,0.00041881,4223.1,-0.00012797,114.78,-0.00014325,-0.0030305,0.26608
5997,7.0264,4.5455,0.1,0.00041787,4175.9,0.00041955,4227.1,-0.00012913,104.5,-0.00014304,-0.0052545,0.26542
5998,7.0264,4.7273,0.1,0.00041886,4185.7,0.00042037,4231.5,-0.00013041,93.219,-0.00014282,-0.0078871,0.26467
5999,7.0264,4.9091,0.1,0.00041992,4196.3,0.00042124,4236.2,-0.00013178,81.04,-0.00014257,-0.011252,0.26383
6000,7.0264,5.0909,0.1,0.00042105,4207.6,0.00042217,4241.2,-0.00013325,68.058,-0.00014231,-0.014984,0.26291
6001,7.0264,5.2727,0.1,0.00042225,4219.5,0.00042314,4246.5,-0.00013479,54.377,-0.00014203,-0.022512,0.2619
6002,7.0264,5.4545,0.1,0.00042349,4232,0.00042416,4251.9,-0.00013639,40.108,-0.00014174,-0.024135,0.2608
6003,7.0264,5.6364,0.1,0.00042478,4244.9,0.00042521,4257.4,-0.00013806,25.304,-0.00014144,-0.084083,0.25962
6004,7.0264,5.8182,0.1,0.00042617,4258.8,0.00042633,4263.6,-0.00013982,9.7407,-0.00014113,-0.10912,0.25834
6005,7.2113,0.18182,0.1,0.00042052,4202.3,0.00042066,4206.3,-0.00013808,8.1972,-0.00013919,-0.10902,0.27176
6006,7.2113,0.36364,0.1,0.00041922,4189.3,0.0004196,4200.5,-0.00013645,22.605,-0.00013947,-0.076443,0.27303
6007,7.2113,0.54545,0.1,0.00041802,4177.4,0.00041863,4195.3,-0.00013491,36.24,-0.00013974,-0.021773,0.27421
6008,7.2113,0.72727,0.1,0.00041687,4165.8,0.00041769,4190.3,-0.00013343,49.373,-0.00014001,-0.02046,0.2753
6009,7.2113,0.90909,0.1,0.00041577,4154.8,0.00041679,4185.4,-0.00013201,61.958,-0.00014026,-0.013707,0.2763
6010,7.2113,1.0909,0.1,0.00041472,4144.3,0.00041593,4180.8,-0.00013067,73.896,-0.0001405,-0.010387,0.27722
6011,7.2113,1.2727,0.1,0.00041374,4134.5,0.00041512,4176.4,-0.0001294,85.091,-0.00014073,-0.0073811,0.27805
6012,7.2113,1.4545,0.1,0.00041283,4125.4,0.00041437,4172.3,-0.00012823,95.454,-0.00014094,-0.0050282,0.27879
6013,7.2113,1.6364,0.1,0.000412,4117.2,0.00041369,4168.6,-0.00012716,104.9,-0.00014112,-0.0030367,0.27945
6014,7.2113,1.8182,0.1,0.00041126,4109.8,0.00041307,4165.3,-0.00012621,113.35,-0.00014129,-0.0013729,0.28003
6015,7.2113,2,0.1,0.00041061,4103.3,0.00041253,4162.3,-0.00012537,120.73,-0.00014144,1.6277e-05,0.28052
6016,7.2113,2.1818,0.1,0.00041007,4097.8,0.00041208,4159.8,-0.00012466,126.98,-0.00014156,0.0011552,0.28093
6017,7.2113,2.3636,0.1,0.00040962,4093.4,0.00041171,4157.8,-0.00012409,132.05,-0.00014166,0.0020558,0.28126
6018,7.2113,2.5455,0.1,0.00040929,4090,0.00041143,4156.3,-0.00012365,135.89,-0.00014174,0.0027255,0.2815
6019,7.2113,2.7273,0.1,0.00040906,4087.8,0.00041124,4155.2,-0.00012336,138.47,-0.00014179,0.0031713,0.28167
6020,7.2113,2.9091,0.1,0.00040895,4086.6,0.00041114,4154.7,-0.00012321,139.76,-0.00014182,0.003394,0.28175
6021,7.2113,3.0909,0.1,0.00040895,4086.6,0.00041114,4154.7,-0.00012321,139.76,-0.00014182,0.0033942,0.28175
6022,7.2113,3.2727,0.1,0.00040906,4087.8,0.00041124,4155.2,-0.00012336,138.47,-0.00014179,0.0031714,0.28167
6023,7.2113,3.4545,0.1,0.00040929,4090,0.00041143,4156.3,-0.00012365,135.89,-0.00014174,0.0027258,0.2815
6024,7.2113,3.6364,0.1,0.00040962,4093.4,0.00041171,4157.8,-0.00012409,132.05,-0.00014166,0.0020563,0.28126
6025,7.2113,3.8182,0.1,0.00041007,4097.8,0.00041208,4159.8,-0.00012466,126.98,-0.00014156,0.0011555,0.28093
6026,7.2113,4,0.1,0.00041061,4103.3,0.00041253,4162.3,-0.00012537,120.73,-0.00014144,1.6935e-05,0.28052
6027,7.2113,4.1818,0.1,0.00041126,4109.8,0.00041307,4165.3,-0.00012621,113.35,-0.00014129,-0.0013724,0.28003
6028,7.2113,4.3636,0.1,0.000412,4117.2,0.00041369,4168.6,-0.00012716,104.9,-0.00014112,-0.0030361,0.27945
6029,7.2113,4.5455,0.1,0.00041283,4125.4,0.00041437,4172.3,-0.00012823,95.454,-0.00014094,-0.0050274,0.27879
6030,7.2113,4.7273,0.1,0.00041374,4134.5,0.00041512,4176.4,-0.0001294,85.091,-0.00014073,-0.0073802,0.27805
6031,7.2113,4.9091,0.1,0.00041472,4144.3,0.00041593,4180.8,-0.00013067,73.896,-0.0001405,-0.010386,0.27722
6032,7.2113,5.0909,0.1,0.00041577,4154.8,0.00041679,4185.4,-0.00013201,61.958,-0.00014026,-0.013706,0.2763
6033,7.2113,5.2727,0.1,0.00041687,4165.8,0.00041769,4190.3,-0.00013343,49.373,-0.00014001,-0.02046,0.2753
6034,7.2113,5.4545,0.1,0.00041802,4177.4,0.00041863,4195.3,-0.00013491,36.24,-0.00013974,-0.021773,0.27421
6035,7.2113,5.6364,0.1,0.00041922,4189.3,0.0004196,4200.5,-0.00013645,22.605,-0.00013947,-0.076441,0.27303
6036,7.2113,5.8182,0.1,0.00042052,4202.3,0.00042066,4206.3,-0.00013808,8.1972,-0.00013919,-0.10902,0.27176
6037,7.3962,0.18182,0.1,0.0004149,4146.2,0.00041501,4149.5,-0.00013635,6.737,-0.00013726,-0.11182,0.28547
6038,7.3962,0.36364,0.1,0.00041369,4134,0.00041402,4144,-0.00013483,20.079,-0.00013752,-0.069434,0.28673
6039,7.3962,0.54545,0.1,0.00041258,4122.9,0.00041312,4139.1,-0.00013342,32.635,-0.00013777,-0.019621,0.2879
6040,7.3962,0.72727,0.1,0.00041151,4112.3,0.00041225,4134.4,-0.00013205,44.719,-0.00013801,-0.018589,0.28898
6041,7.3962,0.90909,0.1,0.00041049,4102.1,0.00041142,4129.9,-0.00013075,56.295,-0.00013824,-0.012548,0.28998
6042,7.3962,1.0909,0.1,0.00040952,4092.4,0.00041062,4125.6,-0.00012951,67.271,-0.00013846,-0.0096071,0.29089
6043,7.3962,1.2727,0.1,0.00040861,4083.3,0.00040988,4121.5,-0.00012834,77.561,-0.00013867,-0.0069313,0.29172
6044,7.3962,1.4545,0.1,0.00040777,4074.9,0.00040918,4117.8,-0.00012727,87.083,-0.00013886,-0.0048355,0.29246
6045,7.3962,1.6364,0.1,0.00040701,4067.3,0.00040855,4114.3,-0.00012628,95.758,-0.00013903,-0.003058,0.29311
6046,7.3962,1.8182,0.1,0.00040632,4060.4,0.00040798,4111.2,-0.0001254,103.52,-0.00013918,-0.0015709,0.29368
6047,7.3962,2,0.1,0.00040573,4054.5,0.00040749,4108.5,-0.00012464,110.29,-0.00013932,-0.00032747,0.29417
6048,7.3962,2.1818,0.1,0.00040522,4049.4,0.00040707,4106.2,-0.00012399,116.03,-0.00013943,0.00069277,0.29458
6049,7.3962,2.3636,0.1,0.00040481,4045.3,0.00040673,4104.3,-0.00012346,120.68,-0.00013952,0.0015003,0.29491
6050,7.3962,2.5455,0.1,0.0004045,4042.2,0.00040647,4102.9,-0.00012306,124.2,-0.00013959,0.0021008,0.29515
6051,7.3962,2.7273,0.1,0.00040429,4040.1,0.0004063,4101.9,-0.00012279,126.57,-0.00013964,0.0025009,0.29531
6052,7.3962,2.9091,0.1,0.00040419,4039.1,0.00040621,4101.4,-0.00012266,127.76,-0.00013966,0.0027007,0.29539
6053,7.3962,3.0909,0.1,0.00040419,4039.1,0.00040621,4101.4,-0.00012266,127.76,-0.00013966,0.0027009,0.29539
6054,7.3962,3.2727,0.1,0.00040429,4040.1,0.0004063,4101.9,-0.00012279,126.57,-0.00013964,0.0025008,0.29531
6055,7.3962,3.4545,0.1,0.0004045,4042.2,0.00040647,4102.9,-0.00012306,124.2,-0.00013959,0.0021009,0.29515
6056,7.3962,3.6364,0.1,0.00040481,4045.3,0.00040673,4104.3,-0.00012346,120.68,-0.00013952,0.0015005,0.29491
6057,7.3962,3.8182,0.1,0.00040522,4049.4,0.00040707,4106.2,-0.00012399,116.03,-0.00013943,0.00069283,0.29458
6058,7.3962,4,0.1,0.00040573,4054.5,0.00040749,4108.5,-0.00012464,110.29,-0.00013932,-0.00032705,0.29417
6059,7.3962,4.1818,0.1,0.00040632,4060.4,0.00040798,4111.2,-0.0001254,103.52,-0.00013918,-0.0015704,0.29368
6060,7.3962,4.3636,0.1,0.00040701,4067.3,0.00040855,4114.3,-0.00012628,95.758,-0.00013903,-0.0030573,0.29311
6061,7.3962,4.5455,0.1,0.00040777,4074.9,0.00040918,4117.8,-0.00012727,87.083,-0.00013886,-0.0048348,0.29246
6062,7.3962,4.7273,0.1,0.00040861,4083.3,0.00040988,4121.5,-0.00012834,77.561,-0.00013867,-0.0069306,0.29172
6063,7.3962,4.9091,0.1,0.00040952,4092.4,0.00041062,4125.6,-0.00012951,67.271,-0.00013846,-0.0096067,0.29089
6064,7.3962,5.0909,0.1,0.00041049,4102.1,0.00041142,4129.9,-0.00013075,56.295,-0.00013824,-0.012546,0.28998
6065,7.3962,5.2727,0.1,0.00041151,4112.3,0.00041225,4134.4,-0.00013205,44.719,-0.00013801,-0.018588,0.28898
6066,7.3962,5.4545,0.1,0.00041258,4122.9,0.00041312,4139.1,-0.00013342,32.635,-0.00013777,-0.019621,0.2879
6067,7.3962,5.6364,0.1,0.00041369,4134,0.00041402,4144,-0.00013483,20.079,-0.00013752,-0.069433,0.28673
6068,7.3962,5.8182,0.1,0.0004149,4146.2,0.00041501,4149.5,-0.00013635,6.737,-0.00013726,-0.11182,0.28547
6069,7.5811,0.18182,0.1,0.00040932,4090.4,0.00040941,4093,-0.00013462,5.3591,-0.00013535,-0.1188,0.29946
6070,7.5811,0.36364,0.1,0.00040818,4079,0.00040848,4087.8,-0.00013321,17.716,-0.00013558,-0.063,0.30071
6071,7.5811,0.54545,0.1,0.00040715,4068.7,0.00040764,4083.2,-0.00013191,29.276,-0.00013581,-0.017653,0.30187
6072,7.5811,0.72727,0.1,0.00040616,4058.8,0.00040683,4078.9,-0.00013065,40.393,-0.00013603,-0.016877,0.30295
6073,7.5811,0.90909,0.1,0.00040522,4049.4,0.00040606,4074.6,-0.00012945,51.038,-0.00013624,-0.011492,0.30394
6074,7.5811,1.0909,0.1,0.00040432,4040.4,0.00040533,4070.6,-0.00012831,61.129,-0.00013644,-0.0089011,0.30484
6075,7.5811,1.2727,0.1,0.00040348,4032,0.00040464,4066.9,-0.00012724,70.585,-0.00013663,-0.0065284,0.30566
6076,7.5811,1.4545,0.1,0.0004027,4024.3,0.000404,4063.3,-0.00012624,79.332,-0.0001368,-0.0046689,0.3064
6077,7.5811,1.6364,0.1,0.000402,4017.2,0.00040341,4060.1,-0.00012534,87.299,-0.00013696,-0.0030878,0.30705
6078,7.5811,1.8182,0.1,0.00040137,4010.9,0.00040289,4057.3,-0.00012453,94.422,-0.0001371,-0.0017631,0.30762
6079,7.5811,2,0.1,0.00040081,4005.4,0.00040243,4054.7,-0.00012383,100.64,-0.00013722,-0.00065377,0.3081
6080,7.5811,2.1818,0.1,0.00040035,4000.7,0.00040204,4052.6,-0.00012323,105.91,-0.00013733,0.00025736,0.30851
6081,7.5811,2.3636,0.1,0.00039997,3996.9,0.00040173,4050.9,-0.00012275,110.17,-0.00013741,0.00097944,0.30883
6082,7.5811,2.5455,0.1,0.00039968,3994.1,0.00040149,4049.6,-0.00012238,113.41,-0.00013747,0.0015167,0.30907
6083,7.5811,2.7273,0.1,0.00039949,3992.1,0.00040133,4048.7,-0.00012213,115.58,-0.00013751,0.0018749,0.30924
6084,7.5811,2.9091,0.1,0.00039939,3991.2,0.00040125,4048.2,-0.00012201,116.67,-0.00013754,0.0020538,0.30932
6085,7.5811,3.0909,0.1,0.00039939,3991.2,0.00040125,4048.2,-0.00012201,116.67,-0.00013754,0.0020537,0.30932
6086,7.5811,3.2727,0.1,0.00039949,3992.1,0.00040133,4048.7,-0.00012213,115.58,-0.00013751,0.0018748,0.30924
6087,7.5811,3.4545,0.1,0.00039968,3994.1,0.00040149,4049.6,-0.00012238,113.41,-0.00013747,0.0015169,0.30907
6088,7.5811,3.6364,0.1,0.00039997,3996.9,0.00040173,4050.9,-0.00012275,110.17,-0.00013741,0.00097962,0.30883
6089,7.5811,3.8182,0.1,0.00040035,4000.7,0.00040204,4052.6,-0.00012323,105.91,-0.00013733,0.00025796,0.30851
6090,7.5811,4,0.1,0.00040081,4005.4,0.00040243,4054.7,-0.00012383,100.64,-0.00013722,-0.00065347,0.3081
6091,7.5811,4.1818,0.1,0.00040137,4010.9,0.00040289,4057.3,-0.00012453,94.422,-0.0001371,-0.0017623,0.30762
6092,7.5811,4.3636,0.1,0.000402,4017.2,0.00040341,4060.1,-0.00012534,87.299,-0.00013696,-0.0030871,0.30705
6093,7.5811,4.5455,0.1,0.0004027,4024.3,0.000404,4063.3,-0.00012624,79.332,-0.0001368,-0.0046682,0.3064
6094,7.5811,4.7273,0.1,0.00040348,4032,0.00040464,4066.9,-0.00012724,70.585,-0.00013663,-0.0065277,0.30566
6095,7.5811,4.9091,0.1,0.00040432,4040.4,0.00040533,4070.6,-0.00012831,61.129,-0.00013644,-0.0089001,0.30484
6096,7.5811,5.0909,0.1,0.00040522,4049.4,0.00040606,4074.6,-0.00012945,51.038,-0.00013624,-0.011491,0.30394
6097,7.5811,5.2727,0.1,0.00040616,4058.8,0.00040683,4078.9,-0.00013065,40.393,-0.00013603,-0.016876,0.30295
6098,7.5811,5.4545,0.1,0.00040715,4068.7,0.00040764,4083.2,-0.00013191,29.276,-0.00013581,-0.017653,0.30187
6099,7.5811,5.6364,0.1,0.00040818,4079,0.00040848,4087.8,-0.00013321,17.716,-0.00013558,-0.062999,0.30071
6100,7.5811,5.8182,0.1,0.00040932,4090.4,0.00040941,4093,-0.00013462,5.3591,-0.00013535,-0.1188,0.29946
6101,7.766,0.18182,0.1,0.00040377,4034.9,0.00040383,4036.8,-0.0001329,4.0636,-0.00013346,-0.13275,0.31373
6102,7.766,0.36364,0.1,0.0004027,4024.2,0.00040296,4031.9,-0.00013159,15.506,-0.00013366,-0.057083,0.31497
6103,7.766,0.54545,0.1,0.00040174,4014.7,0.00040218,4027.7,-0.00013039,26.146,-0.00013387,-0.015845,0.31612
6104,7.766,0.72727,0.1,0.00040083,4005.5,0.00040143,4023.6,-0.00012923,36.371,-0.00013407,-0.015302,0.31719
6105,7.766,0.90909,0.1,0.00039995,3996.8,0.00040072,4019.6,-0.00012812,46.159,-0.00013427,-0.010522,0.31817
6106,7.766,1.0909,0.1,0.00039912,3988.5,0.00040004,4015.9,-0.00012707,55.433,-0.00013445,-0.0082529,0.31907
6107,7.766,1.2727,0.1,0.00039835,3980.7,0.0003994,4012.4,-0.00012608,64.121,-0.00013462,-0.0061593,0.31988
6108,7.766,1.4545,0.1,0.00039763,3973.5,0.00039881,4009.1,-0.00012517,72.155,-0.00013478,-0.0045169,0.32061
6109,7.766,1.6364,0.1,0.00039698,3967,0.00039827,4006.1,-0.00012434,79.472,-0.00013492,-0.0031162,0.32126
6110,7.766,1.8182,0.1,0.00039639,3961.2,0.00039778,4003.5,-0.0001236,86.011,-0.00013505,-0.0019406,0.32183
6111,7.766,2,0.1,0.00039588,3956.1,0.00039736,4001.1,-0.00012295,91.719,-0.00013516,-0.00095452,0.32231
6112,7.766,2.1818,0.1,0.00039545,3951.8,0.000397,3999.2,-0.0001224,96.551,-0.00013525,-0.00014345,0.32271
6113,7.766,2.3636,0.1,0.0003951,3948.3,0.00039671,3997.6,-0.00012196,100.47,-0.00013533,0.00050007,0.32303
6114,7.766,2.5455,0.1,0.00039484,3945.6,0.00039649,3996.3,-0.00012162,103.43,-0.00013539,0.00097924,0.32327
6115,7.766,2.7273,0.1,0.00039466,3943.9,0.00039635,3995.5,-0.00012139,105.42,-0.00013542,0.0012987,0.32343
6116,7.766,2.9091,0.1,0.00039457,3943,0.00039627,3995.1,-0.00012128,106.42,-0.00013544,0.0014588,0.32352
6117,7.766,3.0909,0.1,0.00039457,3943,0.00039627,3995.1,-0.00012128,106.42,-0.00013544,0.0014587,0.32352
6118,7.766,3.2727,0.1,0.00039466,3943.9,0.00039635,3995.5,-0.00012139,105.42,-0.00013542,0.0012988,0.32343
6119,7.766,3.4545,0.1,0.00039484,3945.6,0.00039649,3996.3,-0.00012162,103.43,-0.00013539,0.00097942,0.32327
6120,7.766,3.6364,0.1,0.0003951,3948.3,0.00039671,3997.6,-0.00012196,100.47,-0.00013533,0.00050049,0.32303
6121,7.766,3.8182,0.1,0.00039545,3951.8,0.000397,3999.2,-0.0001224,96.551,-0.00013525,-0.00014285,0.32271
6122,7.766,4,0.1,0.00039588,3956.1,0.00039736,4001.1,-0.00012295,91.719,-0.00013516,-0.00095422,0.32231
6123,7.766,4.1818,0.1,0.00039639,3961.2,0.00039778,4003.5,-0.0001236,86.011,-0.00013505,-0.0019401,0.32183
6124,7.766,4.3636,0.1,0.00039698,3967,0.00039827,4006.1,-0.00012434,79.472,-0.00013492,-0.0031157,0.32126
6125,7.766,4.5455,0.1,0.00039763,3973.5,0.00039881,4009.1,-0.00012517,72.155,-0.00013478,-0.0045159,0.32061
6126,7.766,4.7273,0.1,0.00039835,3980.7,0.0003994,4012.4,-0.00012608,64.121,-0.00013462,-0.0061586,0.31988
6127,7.766,4.9091,0.1,0.00039912,3988.5,0.00040004,4015.9,-0.00012707,55.433,-0.00013445,-0.0082518,0.31907
6128,7.766,5.0909,0.1,0.00039995,3996.8,0.00040072,4019.6,-0.00012812,46.159,-0.00013427,-0.010521,0.31817
6129,7.766,5.2727,0.1,0.00040083,4005.5,0.00040143,4023.6,-0.00012923,36.371,-0.00013407,-0.015301,0.31719
6130,7.766,5.4545,0.1,0.00040174,4014.7,0.00040218,4027.7,-0.00013039,26.146,-0.00013387,-0.015845,0.31612
6131,7.766,5.6364,0.1,0.0004027,4024.2,0.00040296,4031.9,-0.00013159,15.506,-0.00013366,-0.057082,0.31497
6132,7.766,5.8182,0.1,0.00040377,4034.9,0.00040383,4036.8,-0.0001329,4.0636,-0.00013346,-0.13275,0.31373
6133,7.9509,0.18182,0.1,0.00039825,3979.7,0.00039829,3981.1,-0.00013117,2.8544,-0.00013158,-0.16059,0.32828
6134,7.9509,0.36364,0.1,0.00039724,3969.7,0.00039747,3976.3,-0.00012996,13.44,-0.00013176,-0.051655,0.32951
6135,7.9509,0.54545,0.1,0.00039635,3960.8,0.00039674,3972.4,-0.00012885,23.231,-0.00013195,-0.014196,0.33065
6136,7.9509,0.72727,0.1,0.00039551,3952.3,0.00039605,3968.5,-0.00012779,32.633,-0.00013213,-0.013868,0.33171
6137,7.9509,0.90909,0.1,0.0003947,3944.2,0.00039539,3964.9,-0.00012677,41.629,-0.00013231,-0.009646,0.33268
6138,7.9509,1.0909,0.1,0.00039393,3936.6,0.00039476,3961.4,-0.0001258,50.15,-0.00013247,-0.007672,0.33357
6139,7.9509,1.2727,0.1,0.00039321,3929.4,0.00039417,3958.1,-0.00012489,58.131,-0.00013263,-0.0058351,0.33438
6140,7.9509,1.4545,0.1,0.00039255,3922.8,0.00039362,3955.1,-0.00012405,65.51,-0.00013277,-0.0043918,0.3351
6141,7.9509,1.6364,0.1,0.00039194,3916.7,0.00039312,3952.3,-0.00012329,72.226,-0.0001329,-0.0031573,0.33575
6142,7.9509,1.8182,0.1,0.0003914,3911.3,0.00039267,3949.9,-0.00012261,78.228,-0.00013302,-0.0021183,0.33631
6143,7.9509,2,0.1,0.00039093,3906.6,0.00039228,3947.7,-0.00012201,83.467,-0.00013312,-0.0012455,0.33679
6144,7.9509,2.1818,0.1,0.00039053,3902.6,0.00039195,3945.8,-0.00012151,87.9,-0.00013321,-0.00052557,0.33719
6145,7.9509,2.3636,0.1,0.00039021,3899.4,0.00039169,3944.4,-0.0001211,91.491,-0.00013327,4.5603e-05,0.33751
6146,7.9509,2.5455,0.1,0.00038997,3897,0.00039148,3943.2,-0.00012079,94.21,-0.00013333,0.00047103,0.33775
6147,7.9509,2.7273,0.1,0.0003898,3895.3,0.00039135,3942.5,-0.00012058,96.036,-0.00013336,0.00075553,0.3379
6148,7.9509,2.9091,0.1,0.00038972,3894.5,0.00039128,3942.1,-0.00012048,96.953,-0.00013338,0.00089779,0.33798
6149,7.9509,3.0909,0.1,0.00038972,3894.5,0.00039128,3942.1,-0.00012048,96.953,-0.00013338,0.00089797,0.33798
6150,7.9509,3.2727,0.1,0.0003898,3895.3,0.00039135,3942.5,-0.00012058,96.036,-0.00013336,0.00075553,0.3379
6151,7.9509,3.4545,0.1,0.00038997,3897,0.00039148,3943.2,-0.00012079,94.21,-0.00013333,0.00047151,0.33775
6152,7.9509,3.6364,0.1,0.00039021,3899.4,0.00039169,3944.4,-0.0001211,91.491,-0.00013327,4.5843e-05,0.33751
6153,7.9509,3.8182,0.1,0.00039053,3902.6,0.00039195,3945.8,-0.00012151,87.9,-0.00013321,-0.00052556,0.33719
6154,7.9509,4,0.1,0.00039093,3906.6,0.00039228,3947.7,-0.00012201,83.467,-0.00013312,-0.0012449,0.33679
6155,7.9509,4.1818,0.1,0.0003914,3911.3,0.00039267,3949.9,-0.00012261,78.228,-0.00013302,-0.0021178,0.33631
6156,7.9509,4.3636,0.1,0.00039194,3916.7,0.00039312,3952.3,-0.00012329,72.226,-0.0001329,-0.0031567,0.33575
6157,7.9509,4.5455,0.1,0.00039255,3922.8,0.00039362,3955.1,-0.00012405,65.509,-0.00013277,-0.004391,0.3351
6158,7.9509,4.7273,0.1,0.00039321,3929.4,0.00039417,3958.1,-0.00012489,58.131,-0.00013263,-0.0058343,0.33438
6159,7.9509,4.9091,0.1,0.00039393,3936.6,0.00039476,3961.4,-0.0001258,50.15,-0.00013247,-0.0076713,0.33357
6160,7.9509,5.0909,0.1,0.0003947,3944.2,0.00039539,3964.9,-0.00012677,41.629,-0.00013231,-0.0096446,0.33268
6161,7.9509,5.2727,0.1,0.00039551,3952.3,0.00039605,3968.5,-0.00012779,32.633,-0.00013213,-0.013867,0.33171
6162,7.9509,5.4545,0.1,0.00039635,3960.8,0.00039674,3972.4,-0.00012885,23.231,-0.00013195,-0.014196,0.33065
6163,7.9509,5.6364,0.1,0.00039724,3969.7,0.00039747,3976.3,-0.00012996,13.44,-0.00013176,-0.051654,0.32951
6164,7.9509,5.8182,0.1,0.00039825,3979.7,0.00039829,3981.1,-0.00013117,2.8544,-0.00013158,-0.16059,0.32828
6165,8.1358,0.18182,0.1,0.00039275,3924.8,0.00039278,3925.6,-0.00012945,1.7494,-0.00012971,-0.2233,0.3431
6166,8.1358,0.36364,0.1,0.00039181,3915.4,0.000392,3921.1,-0.00012833,11.509,-0.00012987,-0.046676,0.34431
6167,8.1358,0.54545,0.1,0.00039099,3907.2,0.00039133,3917.4,-0.00012731,20.517,-0.00013004,-0.012692,0.34545
6168,8.1358,0.72727,0.1,0.0003902,3899.3,0.00039069,3913.8,-0.00012633,29.158,-0.00013021,-0.012562,0.3465
6169,8.1358,0.90909,0.1,0.00038945,3891.8,0.00039007,3910.4,-0.00012539,37.424,-0.00013037,-0.0088549,0.34746
6170,8.1358,1.0909,0.1,0.00038874,3884.7,0.00038949,3907.1,-0.0001245,45.251,-0.00013052,-0.0071526,0.34834
6171,8.1358,1.2727,0.1,0.00038807,3878.1,0.00038894,3904.1,-0.00012366,52.58,-0.00013066,-0.0055513,0.34914
6172,8.1358,1.4545,0.1,0.00038746,3871.9,0.00038843,3901.3,-0.00012289,59.354,-0.00013079,-0.0042914,0.34986
6173,8.1358,1.6364,0.1,0.0003869,3866.3,0.00038797,3898.7,-0.00012219,65.519,-0.00013091,-0.0032088,0.3505
6174,8.1358,1.8182,0.1,0.0003864,3861.4,0.00038756,3896.4,-0.00012156,71.026,-0.00013101,-0.0022959,0.35106
6175,8.1358,2,0.1,0.00038597,3857,0.0003872,3894.4,-0.00012101,75.832,-0.00013111,-0.0015264,0.35153
6176,8.1358,2.1818,0.1,0.0003856,3853.3,0.0003869,3892.7,-0.00012055,79.898,-0.00013118,-0.00089108,0.35193
6177,8.1358,2.3636,0.1,0.0003853,3850.3,0.00038665,3891.3,-0.00012018,83.192,-0.00013125,-0.00038552,0.35225
6178,8.1358,2.5455,0.1,0.00038507,3848.1,0.00038646,3890.2,-0.00011989,85.686,-0.0001313,-8.801e-06,0.35248
6179,8.1358,2.7273,0.1,0.00038492,3846.6,0.00038634,3889.5,-0.0001197,87.36,-0.00013133,0.00024315,0.35264
6180,8.1358,2.9091,0.1,0.00038485,3845.8,0.00038627,3889.2,-0.0001196,88.2,-0.00013134,0.00036941,0.35272
6181,8.1358,3.0909,0.1,0.00038485,3845.8,0.00038627,3889.2,-0.0001196,88.2,-0.00013134,0.00036924,0.35272
6182,8.1358,3.2727,0.1,0.00038492,3846.6,0.00038634,3889.5,-0.0001197,87.36,-0.00013133,0.00024321,0.35264
6183,8.1358,3.4545,0.1,0.00038507,3848.1,0.00038646,3890.2,-0.00011989,85.686,-0.0001313,-8.5019e-06,0.35248
6184,8.1358,3.6364,0.1,0.0003853,3850.3,0.00038665,3891.3,-0.00012018,83.192,-0.00013125,-0.00038534,0.35225
6185,8.1358,3.8182,0.1,0.0003856,3853.3,0.0003869,3892.7,-0.00012055,79.898,-0.00013118,-0.00089066,0.35193
6186,8.1358,4,0.1,0.00038597,3857,0.0003872,3894.4,-0.00012101,75.832,-0.00013111,-0.001526,0.35153
6187,8.1358,4.1818,0.1,0.0003864,3861.4,0.00038756,3896.4,-0.00012156,71.026,-0.00013101,-0.0022953,0.35106
6188,8.1358,4.3636,0.1,0.0003869,3866.3,0.00038797,3898.7,-0.00012219,65.519,-0.00013091,-0.0032082,0.3505
6189,8.1358,4.5455,0.1,0.00038746,3871.9,0.00038843,3901.3,-0.00012289,59.354,-0.00013079,-0.0042908,0.34986
6190,8.1358,4.7273,0.1,0.00038807,3878.1,0.00038894,3904.1,-0.00012366,52.58,-0.00013066,-0.005551,0.34914
6191,8.1358,4.9091,0.1,0.00038874,3884.7,0.00038949,3907.1,-0.0001245,45.251,-0.00013052,-0.007152,0.34834
6192,8.1358,5.0909,0.1,0.00038945,3891.8,0.00039007,3910.4,-0.00012539,37.424,-0.00013037,-0.0088537,0.34746
6193,8.1358,5.2727,0.1,0.0003902,3899.3,0.00039069,3913.8,-0.00012633,29.158,-0.00013021,-0.01256,0.3465
6194,8.1358,5.4545,0.1,0.00039099,3907.2,0.00039133,3917.4,-0.00012731,20.516,-0.00013004,-0.012691,0.34545
6195,8.1358,5.6364,0.1,0.00039181,3915.4,0.000392,3921.1,-0.00012833,11.509,-0.00012987,-0.046675,0.34431
6196,8.1358,5.8182,0.1,0.00039275,3924.8,0.00039278,3925.6,-0.00012945,1.7493,-0.00012971,-0.2233,0.3431
6197,8.3208,0.18182,0.1,0.00038729,3870.2,0.0003873,3870.5,-0.00012772,0.82769,-0.00012788,-0.40334,0.35818
6198,8.3208,0.36364,0.1,0.0003864,3861.3,0.00038656,3866.1,-0.0001267,9.7041,-0.000128,-0.042105,0.35939
6199,8.3208,0.54545,0.1,0.00038563,3853.7,0.00038594,3862.6,-0.00012575,17.988,-0.00012815,-0.01131,0.36051
6200,8.3208,0.72727,0.1,0.00038491,3846.4,0.00038534,3859.3,-0.00012485,25.927,-0.0001283,-0.011365,0.36155
6201,8.3208,0.90909,0.1,0.00038421,3839.5,0.00038477,3856.1,-0.00012398,33.519,-0.00012845,-0.0081344,0.36251
6202,8.3208,1.0909,0.1,0.00038355,3832.9,0.00038423,3853.1,-0.00012317,40.707,-0.00012858,-0.0066822,0.36338
6203,8.3208,1.2727,0.1,0.00038294,3826.7,0.00038372,3850.2,-0.0001224,47.434,-0.00012871,-0.0052974,0.36417
6204,8.3208,1.4545,0.1,0.00038237,3821.1,0.00038325,3847.6,-0.00012169,53.65,-0.00012883,-0.0042053,0.36489
6205,8.3208,1.6364,0.1,0.00038185,3815.9,0.00038283,3845.2,-0.00012104,59.307,-0.00012894,-0.0032619,0.36552
6206,8.3208,1.8182,0.1,0.00038139,3811.3,0.00038245,3843.1,-0.00012047,64.359,-0.00012903,-0.0024638,0.36607
6207,8.3208,2,0.1,0.00038099,3807.3,0.00038211,3841.2,-0.00011997,68.767,-0.00012912,-0.0017897,0.36654
6208,8.3208,2.1818,0.1,0.00038065,3803.9,0.00038183,3839.6,-0.00011954,72.495,-0.00012919,-0.0012312,0.36694
6209,8.3208,2.3636,0.1,0.00038037,3801.1,0.0003816,3838.3,-0.00011919,75.515,-0.00012925,-0.00078615,0.36725
6210,8.3208,2.5455,0.1,0.00038017,3799,0.00038143,3837.3,-0.00011893,77.801,-0.00012929,-0.00045435,0.36749
6211,8.3208,2.7273,0.1,0.00038003,3797.6,0.00038131,3836.7,-0.00011876,79.336,-0.00012932,-0.00023202,0.36764
6212,8.3208,2.9091,0.1,0.00037996,3796.9,0.00038125,3836.4,-0.00011867,80.106,-0.00012933,-0.00012053,0.36772
6213,8.3208,3.0909,0.1,0.00037996,3796.9,0.00038125,3836.4,-0.00011867,80.106,-0.00012933,-0.00012065,0.36772
6214,8.3208,3.2727,0.1,0.00038003,3797.6,0.00038131,3836.7,-0.00011876,79.336,-0.00012932,-0.00023214,0.36764
6215,8.3208,3.4545,0.1,0.00038017,3799,0.00038143,3837.3,-0.00011893,77.801,-0.00012929,-0.00045405,0.36749
6216,8.3208,3.6364,0.1,0.00038037,3801.1,0.0003816,3838.3,-0.00011919,75.515,-0.00012925,-0.00078597,0.36725
6217,8.3208,3.8182,0.1,0.00038065,3803.9,0.00038183,3839.6,-0.00011954,72.495,-0.00012919,-0.0012307,0.36694
6218,8.3208,4,0.1,0.00038099,3807.3,0.00038211,3841.2,-0.00011997,68.767,-0.00012912,-0.0017893,0.36654
6219,8.3208,4.1818,0.1,0.00038139,3811.3,0.00038245,3843.1,-0.00012047,64.359,-0.00012903,-0.0024636,0.36607
6220,8.3208,4.3636,0.1,0.00038185,3815.9,0.00038283,3845.2,-0.00012104,59.307,-0.00012894,-0.0032613,0.36552
6221,8.3208,4.5455,0.1,0.00038237,3821.1,0.00038325,3847.6,-0.00012169,53.65,-0.00012883,-0.0042047,0.36489
6222,8.3208,4.7273,0.1,0.00038294,3826.7,0.00038372,3850.2,-0.0001224,47.434,-0.00012871,-0.0052964,0.36417
6223,8.3208,4.9091,0.1,0.00038355,3832.9,0.00038423,3853.1,-0.00012317,40.707,-0.00012858,-0.0066813,0.36338
6224,8.3208,5.0909,0.1,0.00038421,3839.5,0.00038477,3856.1,-0.00012398,33.519,-0.00012845,-0.0081332,0.36251
6225,8.3208,5.2727,0.1,0.00038491,3846.4,0.00038534,3859.3,-0.00012485,25.927,-0.0001283,-0.011364,0.36155
6226,8.3208,5.4545,0.1,0.00038563,3853.7,0.00038594,3862.6,-0.00012575,17.988,-0.00012815,-0.01131,0.36051
6227,8.3208,5.6364,0.1,0.0003864,3861.3,0.00038656,3866.1,-0.0001267,9.7041,-0.000128,-0.042103,0.35939
6228,8.3208,5.8182,0.1,0.00038729,3870.2,0.0003873,3870.5,-0.00012772,0.82768,-0.00012788,-0.40335,0.35818
6229,8.5057,0.18182,0.1,0.00038186,3815.9,0.00038185,3815.6,-0.00012594,0.30961,-0.00012611,-0.92425,0.37354
6230,8.5057,0.36364,0.1,0.00038101,3807.5,0.00038115,3811.5,-0.00012506,8.0176,-0.00012613,-0.037918,0.37473
6231,8.5057,0.54545,0.1,0.0003803,3800.4,0.00038057,3808.2,-0.00012419,15.632,-0.00012627,-0.010044,0.37584
6232,8.5057,0.72727,0.1,0.00037963,3793.7,0.00038001,3805.1,-0.00012336,22.924,-0.00012641,-0.010273,0.37687
6233,8.5057,0.90909,0.1,0.00037898,3787.2,0.00037948,3802.1,-0.00012256,29.893,-0.00012654,-0.0074829,0.37781
6234,8.5057,1.0909,0.1,0.00037837,3781.1,0.00037898,3799.2,-0.00012181,36.489,-0.00012667,-0.0062601,0.37868
6235,8.5057,1.2727,0.1,0.0003778,3775.4,0.00037851,3796.6,-0.0001211,42.662,-0.00012678,-0.0050736,0.37947
6236,8.5057,1.4545,0.1,0.00037728,3770.2,0.00037808,3794.1,-0.00012045,48.365,-0.00012689,-0.0041352,0.38017
6237,8.5057,1.6364,0.1,0.0003768,3765.4,0.00037768,3791.9,-0.00011986,53.552,-0.00012699,-0.0033196,0.3808
6238,8.5057,1.8182,0.1,0.00037637,3761.1,0.00037733,3789.9,-0.00011933,58.184,-0.00012707,-0.0026267,0.38135
6239,8.5057,2,0.1,0.000376,3757.4,0.00037702,3788.2,-0.00011887,62.225,-0.00012715,-0.0020393,0.38182
6240,8.5057,2.1818,0.1,0.00037569,3754.3,0.00037676,3786.7,-0.00011848,65.643,-0.00012721,-0.0015515,0.38221
6241,8.5057,2.3636,0.1,0.00037543,3751.7,0.00037655,3785.5,-0.00011816,68.411,-0.00012727,-0.001162,0.38252
6242,8.5057,2.5455,0.1,0.00037524,3749.8,0.00037639,3784.6,-0.00011792,70.506,-0.00012731,-0.00087089,0.38275
6243,8.5057,2.7273,0.1,0.00037511,3748.5,0.00037628,3784,-0.00011776,71.912,-0.00012733,-0.00067574,0.38291
6244,8.5057,2.9091,0.1,0.00037505,3747.9,0.00037623,3783.7,-0.00011768,72.618,-0.00012735,-0.00057786,0.38298
6245,8.5057,3.0909,0.1,0.00037505,3747.9,0.00037623,3783.7,-0.00011768,72.618,-0.00012735,-0.00057768,0.38298
6246,8.5057,3.2727,0.1,0.00037511,3748.5,0.00037628,3784,-0.00011776,71.912,-0.00012733,-0.00067573,0.38291
6247,8.5057,3.4545,0.1,0.00037524,3749.8,0.00037639,3784.6,-0.00011792,70.506,-0.00012731,-0.00087095,0.38275
6248,8.5057,3.6364,0.1,0.00037543,3751.7,0.00037655,3785.5,-0.00011816,68.411,-0.00012727,-0.0011617,0.38252
6249,8.5057,3.8182,0.1,0.00037569,3754.3,0.00037676,3786.7,-0.00011848,65.643,-0.00012721,-0.0015511,0.38221
6250,8.5057,4,0.1,0.000376,3757.4,0.00037702,3788.2,-0.00011887,62.225,-0.00012715,-0.0020391,0.38182
6251,8.5057,4.1818,0.1,0.00037637,3761.1,0.00037733,3789.9,-0.00011933,58.184,-0.00012707,-0.0026261,0.38135
6252,8.5057,4.3636,0.1,0.0003768,3765.4,0.00037768,3791.9,-0.00011986,53.552,-0.00012699,-0.0033192,0.3808
6253,8.5057,4.5455,0.1,0.00037728,3770.2,0.00037808,3794.1,-0.00012045,48.365,-0.00012689,-0.0041342,0.38017
6254,8.5057,4.7273,0.1,0.0003778,3775.4,0.00037851,3796.6,-0.0001211,42.662,-0.00012678,-0.0050731,0.37947
6255,8.5057,4.9091,0.1,0.00037837,3781.1,0.00037898,3799.2,-0.00012181,36.489,-0.00012667,-0.0062592,0.37868
6256,8.5057,5.0909,0.1,0.00037898,3787.2,0.00037948,3802.1,-0.00012256,29.893,-0.00012654,-0.0074814,0.37781
6257,8.5057,5.2727,0.1,0.00037963,3793.7,0.00038001,3805.1,-0.00012336,22.923,-0.00012641,-0.010272,0.37687
6258,8.5057,5.4545,0.1,0.0003803,3800.4,0.00038057,3808.2,-0.00012419,15.632,-0.00012627,-0.010044,0.37584
6259,8.5057,5.6364,0.1,0.00038101,3807.5,0.00038115,3811.5,-0.00012506,8.0176,-0.00012613,-0.037916,0.37473
6260,8.5057,5.8182,0.1,0.00038186,3815.9,0.00038185,3815.6,-0.00012594,0.3096,-0.00012611,-0.92427,0.37354
6261,8.6906,0.18182,0.1,0.00037645,3761.9,0.00037642,3761.1,-0.00012413,0.14171,-0.00012438,-1.7359,0.38915
6262,8.6906,0.36364,0.1,0.00037565,3753.9,0.00037576,3757.1,-0.00012342,6.4412,-0.00012429,-0.034094,0.39033
6263,8.6906,0.54545,0.1,0.00037499,3747.3,0.00037522,3754,-0.00012262,13.438,-0.00012441,-0.0088846,0.39143
6264,8.6906,0.72727,0.1,0.00037436,3741.1,0.0003747,3751.1,-0.00012186,20.13,-0.00012454,-0.0092791,0.39244
6265,8.6906,0.90909,0.1,0.00037377,3735.1,0.00037421,3748.3,-0.00012112,26.524,-0.00012465,-0.0068951,0.39338
6266,8.6906,1.0909,0.1,0.0003732,3729.4,0.00037375,3745.6,-0.00012043,32.575,-0.00012477,-0.0058824,0.39424
6267,8.6906,1.2727,0.1,0.00037267,3724.2,0.00037331,3743.1,-0.00011978,38.236,-0.00012487,-0.0048778,0.39502
6268,8.6906,1.4545,0.1,0.00037219,3719.3,0.00037291,3740.8,-0.00011918,43.464,-0.00012497,-0.0040796,0.39572
6269,8.6906,1.6364,0.1,0.00037175,3714.9,0.00037254,3738.8,-0.00011864,48.219,-0.00012506,-0.0033804,0.39634
6270,8.6906,1.8182,0.1,0.00037135,3710.9,0.00037222,3736.9,-0.00011815,52.464,-0.00012514,-0.0027837,0.39688
6271,8.6906,2,0.1,0.00037101,3707.5,0.00037193,3735.3,-0.00011773,56.167,-0.0001252,-0.0022754,0.39734
6272,8.6906,2.1818,0.1,0.00037072,3704.6,0.00037169,3733.9,-0.00011737,59.298,-0.00012526,-0.0018518,0.39773
6273,8.6906,2.3636,0.1,0.00037048,3702.3,0.00037149,3732.8,-0.00011708,61.833,-0.00012531,-0.001513,0.39804
6274,8.6906,2.5455,0.1,0.0003703,3700.5,0.00037135,3731.9,-0.00011686,63.752,-0.00012534,-0.0012595,0.39827
6275,8.6906,2.7273,0.1,0.00037018,3699.3,0.00037125,3731.4,-0.00011671,65.04,-0.00012537,-0.0010893,0.39843
6276,8.6906,2.9091,0.1,0.00037012,3698.7,0.0003712,3731.1,-0.00011664,65.687,-0.00012538,-0.0010036,0.3985
6277,8.6906,3.0909,0.1,0.00037012,3698.7,0.0003712,3731.1,-0.00011664,65.687,-0.00012538,-0.0010036,0.3985
6278,8.6906,3.2727,0.1,0.00037018,3699.3,0.00037125,3731.4,-0.00011671,65.04,-0.00012537,-0.0010893,0.39843
6279,8.6906,3.4545,0.1,0.0003703,3700.5,0.00037135,3731.9,-0.00011686,63.752,-0.00012534,-0.0012592,0.39827
6280,8.6906,3.6364,0.1,0.00037048,3702.3,0.00037149,3732.8,-0.00011708,61.833,-0.00012531,-0.0015127,0.39804
6281,8.6906,3.8182,0.1,0.00037072,3704.6,0.00037169,3733.9,-0.00011737,59.298,-0.00012526,-0.0018514,0.39773
6282,8.6906,4,0.1,0.00037101,3707.5,0.00037193,3735.3,-0.00011773,56.167,-0.0001252,-0.002275,0.39734
6283,8.6906,4.1818,0.1,0.00037135,3710.9,0.00037222,3736.9,-0.00011815,52.464,-0.00012514,-0.002783,0.39688
6284,8.6906,4.3636,0.1,0.00037175,3714.9,0.00037254,3738.8,-0.00011864,48.218,-0.00012506,-0.0033799,0.39634
6285,8.6906,4.5455,0.1,0.00037219,3719.3,0.00037291,3740.8,-0.00011918,43.464,-0.00012497,-0.0040788,0.39572
6286,8.6906,4.7273,0.1,0.00037267,3724.2,0.00037331,3743.1,-0.00011978,38.236,-0.00012487,-0.0048768,0.39502
6287,8.6906,4.9091,0.1,0.0003732,3729.4,0.00037375,3745.6,-0.00012043,32.575,-0.00012477,-0.0058816,0.39424
6288,8.6906,5.0909,0.1,0.00037377,3735.1,0.00037421,3748.3,-0.00012112,26.524,-0.00012465,-0.0068936,0.39338
6289,8.6906,5.2727,0.1,0.00037436,3741.1,0.0003747,3751.1,-0.00012186,20.13,-0.00012454,-0.0092779,0.39244
6290,8.6906,5.4545,0.1,0.00037499,3747.3,0.00037522,3754,-0.00012262,13.438,-0.00012441,-0.0088845,0.39143
6291,8.6906,5.6364,0.1,0.00037565,3753.9,0.00037576,3757.1,-0.00012342,6.4412,-0.00012429,-0.034093,0.39033
6292,8.6906,5.8182,0.1,0.00037645,3761.9,0.00037642,3761.1,-0.00012413,0.14171,-0.00012438,-1.7359,0.38915
6293,8.8755,0.18182,0.1,0.00037107,3708.1,0.00037102,3706.8,-0.00012232,0.081597,-0.00012267,-2.5993,0.40502
6294,8.8755,0.36364,0.1,0.00037031,3700.5,0.00037039,3703,-0.00012178,4.9675,-0.00012245,-0.030643,0.40618
6295,8.8755,0.54545,0.1,0.0003697,3694.4,0.00036989,3700.1,-0.00012105,11.392,-0.00012256,-0.0078318,0.40727
6296,8.8755,0.72727,0.1,0.00036911,3688.6,0.00036941,3697.3,-0.00012034,17.53,-0.00012268,-0.0083857,0.40828
6297,8.8755,0.90909,0.1,0.00036856,3683.1,0.00036895,3694.7,-0.00011967,23.393,-0.00012278,-0.0063772,0.40921
6298,8.8755,1.0909,0.1,0.00036804,3677.8,0.00036852,3692.2,-0.00011903,28.939,-0.00012288,-0.0055562,0.41005
6299,8.8755,1.2727,0.1,0.00036755,3673,0.00036812,3689.9,-0.00011844,34.127,-0.00012298,-0.0047167,0.41082
6300,8.8755,1.4545,0.1,0.0003671,3668.5,0.00036775,3687.8,-0.00011789,38.917,-0.00012307,-0.0040463,0.41152
6301,8.8755,1.6364,0.1,0.00036669,3664.4,0.00036741,3685.8,-0.00011739,43.273,-0.00012314,-0.0034531,0.41213
6302,8.8755,1.8182,0.1,0.00036632,3660.7,0.0003671,3684.1,-0.00011694,47.161,-0.00012322,-0.0029436,0.41267
6303,8.8755,2,0.1,0.00036601,3657.5,0.00036684,3682.6,-0.00011655,50.551,-0.00012328,-0.0025077,0.41313
6304,8.8755,2.1818,0.1,0.00036574,3654.9,0.00036662,3681.3,-0.00011622,53.418,-0.00012333,-0.0021429,0.41351
6305,8.8755,2.3636,0.1,0.00036552,3652.7,0.00036644,3680.2,-0.00011595,55.739,-0.00012337,-0.00185,0.41382
6306,8.8755,2.5455,0.1,0.00036536,3651,0.0003663,3679.5,-0.00011575,57.496,-0.0001234,-0.0016303,0.41405
6307,8.8755,2.7273,0.1,0.00036525,3649.9,0.00036621,3678.9,-0.00011562,58.675,-0.00012343,-0.0014828,0.4142
6308,8.8755,2.9091,0.1,0.00036519,3649.4,0.00036616,3678.7,-0.00011555,59.267,-0.00012344,-0.0014086,0.41428
6309,8.8755,3.0909,0.1,0.00036519,3649.4,0.00036616,3678.7,-0.00011555,59.267,-0.00012344,-0.0014083,0.41428
6310,8.8755,3.2727,0.1,0.00036525,3649.9,0.00036621,3678.9,-0.00011562,58.675,-0.00012343,-0.0014827,0.4142
6311,8.8755,3.4545,0.1,0.00036536,3651,0.0003663,3679.5,-0.00011575,57.496,-0.0001234,-0.0016302,0.41405
6312,8.8755,3.6364,0.1,0.00036552,3652.7,0.00036644,3680.2,-0.00011595,55.739,-0.00012337,-0.0018496,0.41382
6313,8.8755,3.8182,0.1,0.00036574,3654.9,0.00036662,3681.3,-0.00011622,53.418,-0.00012333,-0.0021425,0.41351
6314,8.8755,4,0.1,0.00036601,3657.5,0.00036684,3682.6,-0.00011655,50.551,-0.00012328,-0.0025075,0.41313
6315,8.8755,4.1818,0.1,0.00036632,3660.7,0.0003671,3684.1,-0.00011694,47.161,-0.00012322,-0.0029435,0.41267
6316,8.8755,4.3636,0.1,0.00036669,3664.4,0.00036741,3685.8,-0.00011739,43.273,-0.00012314,-0.0034524,0.41213
6317,8.8755,4.5455,0.1,0.0003671,3668.5,0.00036775,3687.8,-0.00011789,38.917,-0.00012307,-0.0040454,0.41152
6318,8.8755,4.7273,0.1,0.00036755,3673,0.00036812,3689.9,-0.00011844,34.127,-0.00012298,-0.0047161,0.41082
6319,8.8755,4.9091,0.1,0.00036804,3677.8,0.00036852,3692.2,-0.00011903,28.939,-0.00012288,-0.0055555,0.41005
6320,8.8755,5.0909,0.1,0.00036856,3683.1,0.00036895,3694.7,-0.00011967,23.393,-0.00012278,-0.0063755,0.40921
6321,8.8755,5.2727,0.1,0.00036911,3688.6,0.00036941,3697.3,-0.00012034,17.53,-0.00012268,-0.0083848,0.40828
6322,8.8755,5.4545,0.1,0.0003697,3694.4,0.00036989,3700.1,-0.00012105,11.392,-0.00012256,-0.0078317,0.40727
6323,8.8755,5.6364,0.1,0.00037031,3700.5,0.00037039,3703,-0.00012178,4.9675,-0.00012245,-0.030642,0.40618
6324,8.8755,5.8182,0.1,0.00037107,3708.1,0.00037102,3706.8,-0.00012232,0.081597,-0.00012267,-2.5993,0.40502
6325,9.0604,0.18182,0.1,0.00036571,3654.6,0.00036565,3652.9,-0.00012051,0.053281,-0.00012097,-3.4415,0.42114
6326,9.0604,0.36364,0.1,0.00036499,3647.4,0.00036505,3649.1,-0.00012014,3.5895,-0.00012063,-0.027596,0.42229
6327,9.0604,0.54545,0.1,0.00036442,3641.7,0.00036458,3646.4,-0.00011947,9.4847,-0.00012073,-0.0068767,0.42337
6328,9.0604,0.72727,0.1,0.00036388,3636.3,0.00036413,3643.8,-0.00011882,15.11,-0.00012083,-0.0075865,0.42436
6329,9.0604,0.90909,0.1,0.00036337,3631.2,0.00036371,3641.4,-0.0001182,20.482,-0.00012092,-0.0059227,0.42528
6330,9.0604,1.0909,0.1,0.00036288,3626.3,0.00036331,3639,-0.00011761,25.561,-0.00012102,-0.0052761,0.42612
6331,9.0604,1.2727,0.1,0.00036243,3621.8,0.00036294,3636.9,-0.00011707,30.312,-0.0001211,-0.0045867,0.42688
6332,9.0604,1.4545,0.1,0.00036201,3617.6,0.00036259,3634.8,-0.00011656,34.697,-0.00012118,-0.0040308,0.42757
6333,9.0604,1.6364,0.1,0.00036163,3613.8,0.00036228,3633,-0.0001161,38.683,-0.00012125,-0.0035337,0.42818
6334,9.0604,1.8182,0.1,0.0003613,3610.5,0.000362,3631.4,-0.00011569,42.242,-0.00012131,-0.0031032,0.42871
6335,9.0604,2,0.1,0.000361,3607.5,0.00036175,3630,-0.00011533,45.344,-0.00012137,-0.0027328,0.42916
6336,9.0604,2.1818,0.1,0.00036075,3605.1,0.00036155,3628.8,-0.00011503,47.967,-0.00012142,-0.0024209,0.42954
6337,9.0604,2.3636,0.1,0.00036055,3603,0.00036138,3627.8,-0.00011479,50.09,-0.00012146,-0.0021698,0.42984
6338,9.0604,2.5455,0.1,0.0003604,3601.5,0.00036125,3627.1,-0.0001146,51.697,-0.00012148,-0.0019815,0.43007
6339,9.0604,2.7273,0.1,0.0003603,3600.5,0.00036117,3626.6,-0.00011448,52.775,-0.0001215,-0.0018541,0.43022
6340,9.0604,2.9091,0.1,0.00036025,3600,0.00036113,3626.4,-0.00011442,53.316,-0.00012151,-0.0017897,0.4303
6341,9.0604,3.0909,0.1,0.00036025,3600,0.00036113,3626.4,-0.00011442,53.316,-0.00012151,-0.0017899,0.4303
6342,9.0604,3.2727,0.1,0.0003603,3600.5,0.00036117,3626.6,-0.00011448,52.775,-0.0001215,-0.001854,0.43022
6343,9.0604,3.4545,0.1,0.0003604,3601.5,0.00036125,3627.1,-0.0001146,51.697,-0.00012148,-0.0019813,0.43007
6344,9.0604,3.6364,0.1,0.00036055,3603,0.00036138,3627.8,-0.00011479,50.09,-0.00012146,-0.0021695,0.42984
6345,9.0604,3.8182,0.1,0.00036075,3605.1,0.00036155,3628.8,-0.00011503,47.967,-0.00012142,-0.0024205,0.42954
6346,9.0604,4,0.1,0.000361,3607.5,0.00036175,3630,-0.00011533,45.344,-0.00012137,-0.0027323,0.42916
6347,9.0604,4.1818,0.1,0.0003613,3610.5,0.000362,3631.4,-0.00011569,42.242,-0.00012131,-0.0031027,0.42871
6348,9.0604,4.3636,0.1,0.00036163,3613.8,0.00036228,3633,-0.0001161,38.683,-0.00012125,-0.0035332,0.42818
6349,9.0604,4.5455,0.1,0.00036201,3617.6,0.00036259,3634.8,-0.00011656,34.697,-0.00012118,-0.0040304,0.42757
6350,9.0604,4.7273,0.1,0.00036243,3621.8,0.00036294,3636.9,-0.00011707,30.312,-0.0001211,-0.0045857,0.42688
6351,9.0604,4.9091,0.1,0.00036288,3626.3,0.00036331,3639,-0.00011761,25.561,-0.00012102,-0.0052751,0.42612
6352,9.0604,5.0909,0.1,0.00036337,3631.2,0.00036371,3641.4,-0.0001182,20.482,-0.00012092,-0.0059214,0.42528
6353,9.0604,5.2727,0.1,0.00036388,3636.3,0.00036413,3643.8,-0.00011882,15.11,-0.00012083,-0.0075854,0.42436
6354,9.0604,5.4545,0.1,0.00036442,3641.7,0.00036458,3646.4,-0.00011947,9.4847,-0.00012073,-0.0068765,0.42337
6355,9.0604,5.6364,0.1,0.00036499,3647.4,0.00036505,3649.1,-0.00012014,3.5894,-0.00012063,-0.027595,0.42229
6356,9.0604,5.8182,0.1,0.00036571,3654.6,0.00036565,3652.9,-0.00012051,0.053282,-0.00012097,-3.4415,0.42114
6357,9.2453,0.18182,0.1,0.00036038,3601.3,0.00036031,3599.2,-0.00011871,0.037441,-0.00011928,-4.2464,0.43751
6358,9.2453,0.36364,0.1,0.00035969,3594.4,0.00035973,3595.6,-0.0001185,2.3004,-0.00011881,-0.025114,0.43865
6359,9.2453,0.54545,0.1,0.00035916,3589.1,0.00035929,3593,-0.00011788,7.7052,-0.00011891,-0.0060097,0.43971
6360,9.2453,0.72727,0.1,0.00035866,3584.1,0.00035888,3590.5,-0.00011728,12.856,-0.00011899,-0.0068727,0.4407
6361,9.2453,0.90909,0.1,0.00035818,3579.4,0.00035848,3588.2,-0.00011671,17.772,-0.00011908,-0.005525,0.4416
6362,9.2453,1.0909,0.1,0.00035774,3574.9,0.00035811,3586,-0.00011618,22.42,-0.00011916,-0.0050341,0.44243
6363,9.2453,1.2727,0.1,0.00035732,3570.7,0.00035776,3584,-0.00011568,26.766,-0.00011924,-0.0044786,0.44319
6364,9.2453,1.4545,0.1,0.00035693,3566.8,0.00035744,3582.1,-0.00011521,30.776,-0.00011931,-0.0040261,0.44387
6365,9.2453,1.6364,0.1,0.00035658,3563.3,0.00035715,3580.4,-0.00011479,34.422,-0.00011937,-0.0036146,0.44447
6366,9.2453,1.8182,0.1,0.00035627,3560.2,0.00035689,3578.9,-0.00011442,37.675,-0.00011943,-0.003255,0.44499
6367,9.2453,2,0.1,0.000356,3557.5,0.00035667,3577.6,-0.00011409,40.511,-0.00011948,-0.0029439,0.44544
6368,9.2453,2.1818,0.1,0.00035577,3555.2,0.00035648,3576.5,-0.00011381,42.908,-0.00011952,-0.0026793,0.44582
6369,9.2453,2.3636,0.1,0.00035558,3553.4,0.00035632,3575.6,-0.00011359,44.848,-0.00011956,-0.0024658,0.44612
6370,9.2453,2.5455,0.1,0.00035544,3552,0.00035621,3574.9,-0.00011342,46.317,-0.00011958,-0.0023056,0.44634
6371,9.2453,2.7273,0.1,0.00035535,3551,0.00035613,3574.4,-0.0001133,47.302,-0.0001196,-0.0021965,0.44649
6372,9.2453,2.9091,0.1,0.0003553,3550.5,0.00035609,3574.2,-0.00011325,47.797,-0.00011961,-0.0021418,0.44657
6373,9.2453,3.0909,0.1,0.0003553,3550.5,0.00035609,3574.2,-0.00011325,47.797,-0.00011961,-0.0021416,0.44657
6374,9.2453,3.2727,0.1,0.00035535,3551,0.00035613,3574.4,-0.0001133,47.302,-0.0001196,-0.0021966,0.44649
6375,9.2453,3.4545,0.1,0.00035544,3552,0.00035621,3574.9,-0.00011342,46.317,-0.00011958,-0.0023051,0.44634
6376,9.2453,3.6364,0.1,0.00035558,3553.4,0.00035632,3575.6,-0.00011359,44.848,-0.00011956,-0.0024655,0.44612
6377,9.2453,3.8182,0.1,0.00035577,3555.2,0.00035648,3576.5,-0.00011381,42.908,-0.00011952,-0.002679,0.44582
6378,9.2453,4,0.1,0.000356,3557.5,0.00035667,3577.6,-0.00011409,40.511,-0.00011948,-0.002943,0.44544
6379,9.2453,4.1818,0.1,0.00035627,3560.2,0.00035689,3578.9,-0.00011442,37.675,-0.00011943,-0.0032546,0.44499
6380,9.2453,4.3636,0.1,0.00035658,3563.3,0.00035715,3580.4,-0.00011479,34.422,-0.00011937,-0.0036142,0.44447
6381,9.2453,4.5455,0.1,0.00035693,3566.8,0.00035744,3582.1,-0.00011521,30.776,-0.00011931,-0.0040251,0.44387
6382,9.2453,4.7273,0.1,0.00035732,3570.7,0.00035776,3584,-0.00011568,26.766,-0.00011924,-0.0044779,0.44319
6383,9.2453,4.9091,0.1,0.00035774,3574.9,0.00035811,3586,-0.00011618,22.42,-0.00011916,-0.0050335,0.44243
6384,9.2453,5.0909,0.1,0.00035818,3579.4,0.00035848,3588.2,-0.00011671,17.772,-0.00011908,-0.0055239,0.4416
6385,9.2453,5.2727,0.1,0.00035866,3584.1,0.00035888,3590.5,-0.00011728,12.856,-0.00011899,-0.0068715,0.4407
6386,9.2453,5.4545,0.1,0.00035916,3589.1,0.00035929,3593,-0.00011788,7.7051,-0.00011891,-0.0060092,0.43971
6387,9.2453,5.6364,0.1,0.00035969,3594.4,0.00035973,3595.6,-0.0001185,2.3004,-0.00011881,-0.025113,0.43865
6388,9.2453,5.8182,0.1,0.00036038,3601.3,0.00036031,3599.2,-0.00011871,0.037442,-0.00011928,-4.2464,0.43751
6389,9.4302,0.18182,0.1,0.00035507,3548.2,0.00035498,3545.8,-0.00011692,0.02758,-0.00011759,-5.0106,0.45413
6390,9.4302,0.36364,0.1,0.00035442,3541.7,0.00035443,3542.2,-0.00011686,1.0949,-0.00011701,-0.024161,0.45525
6391,9.4302,0.54545,0.1,0.00035392,3536.8,0.00035403,3539.8,-0.00011629,6.0438,-0.00011709,-0.0052487,0.4563
6392,9.4302,0.72727,0.1,0.00035346,3532.1,0.00035364,3537.5,-0.00011574,10.754,-0.00011717,-0.0062636,0.45728
6393,9.4302,0.90909,0.1,0.00035302,3527.7,0.00035327,3535.3,-0.00011522,15.249,-0.00011725,-0.0052011,0.45817
6394,9.4302,1.0909,0.1,0.0003526,3523.6,0.00035293,3533.3,-0.00011473,19.497,-0.00011732,-0.0048462,0.45899
6395,9.4302,1.2727,0.1,0.00035221,3519.7,0.00035261,3531.4,-0.00011427,23.468,-0.00011739,-0.0044082,0.45974
6396,9.4302,1.4545,0.1,0.00035185,3516.1,0.00035231,3529.6,-0.00011384,27.132,-0.00011745,-0.0040465,0.46041
6397,9.4302,1.6364,0.1,0.00035153,3512.9,0.00035204,3528,-0.00011346,30.461,-0.00011751,-0.0037108,0.461
6398,9.4302,1.8182,0.1,0.00035124,3510,0.0003518,3526.6,-0.00011311,33.432,-0.00011756,-0.0034141,0.46152
6399,9.4302,2,0.1,0.00035099,3507.5,0.00035159,3525.4,-0.00011281,36.021,-0.00011761,-0.0031543,0.46197
6400,9.4302,2.1818,0.1,0.00035078,3505.4,0.00035141,3524.3,-0.00011256,38.21,-0.00011764,-0.002933,0.46234
6401,9.4302,2.3636,0.1,0.00035061,3503.7,0.00035127,3523.5,-0.00011235,39.981,-0.00011768,-0.0027533,0.46264
6402,9.4302,2.5455,0.1,0.00035048,3502.4,0.00035116,3522.8,-0.0001122,41.321,-0.0001177,-0.0026176,0.46286
6403,9.4302,2.7273,0.1,0.00035039,3501.5,0.00035109,3522.4,-0.00011209,42.221,-0.00011771,-0.0025259,0.46301
6404,9.4302,2.9091,0.1,0.00035035,3501.1,0.00035105,3522.2,-0.00011204,42.672,-0.00011772,-0.002479,0.46308
6405,9.4302,3.0909,0.1,0.00035035,3501.1,0.00035105,3522.2,-0.00011204,42.672,-0.00011772,-0.002479,0.46308
6406,9.4302,3.2727,0.1,0.00035039,3501.5,0.00035109,3522.4,-0.00011209,42.221,-0.00011771,-0.0025255,0.46301
6407,9.4302,3.4545,0.1,0.00035048,3502.4,0.00035116,3522.8,-0.0001122,41.321,-0.0001177,-0.0026177,0.46286
6408,9.4302,3.6364,0.1,0.00035061,3503.7,0.00035127,3523.5,-0.00011235,39.981,-0.00011768,-0.0027532,0.46264
6409,9.4302,3.8182,0.1,0.00035078,3505.4,0.00035141,3524.3,-0.00011256,38.21,-0.00011764,-0.0029328,0.46234
6410,9.4302,4,0.1,0.00035099,3507.5,0.00035159,3525.4,-0.00011281,36.021,-0.00011761,-0.003154,0.46197
6411,9.4302,4.1818,0.1,0.00035124,3510,0.0003518,3526.6,-0.00011311,33.432,-0.00011756,-0.0034135,0.46152
6412,9.4302,4.3636,0.1,0.00035153,3512.9,0.00035204,3528,-0.00011346,30.461,-0.00011751,-0.0037102,0.461
6413,9.4302,4.5455,0.1,0.00035185,3516.1,0.00035231,3529.6,-0.00011384,27.132,-0.00011745,-0.0040459,0.46041
6414,9.4302,4.7273,0.1,0.00035221,3519.7,0.00035261,3531.4,-0.00011427,23.468,-0.00011739,-0.0044077,0.45974
6415,9.4302,4.9091,0.1,0.0003526,3523.6,0.00035293,3533.3,-0.00011473,19.497,-0.00011732,-0.0048453,0.45899
6416,9.4302,5.0909,0.1,0.00035302,3527.7,0.00035327,3535.3,-0.00011522,15.249,-0.00011725,-0.0051996,0.45817
6417,9.4302,5.2727,0.1,0.00035346,3532.1,0.00035364,3537.5,-0.00011574,10.754,-0.00011717,-0.0062627,0.45728
6418,9.4302,5.4545,0.1,0.00035392,3536.8,0.00035403,3539.8,-0.00011629,6.0437,-0.00011709,-0.0052485,0.4563
6419,9.4302,5.6364,0.1,0.00035442,3541.7,0.00035443,3542.2,-0.00011686,1.0949,-0.00011701,-0.02416,0.45525
6420,9.4302,5.8182,0.1,0.00035507,3548.2,0.00035498,3545.8,-0.00011692,0.027581,-0.00011759,-5.0107,0.45413
6421,9.6151,0.18182,0.1,0.00034979,3495.4,0.00034969,3492.6,-0.00011514,0.020992,-0.00011591,-5.7344,0.47099
6422,9.6151,0.36364,0.1,0.00034916,3489.2,0.00034916,3489.2,-0.00011522,0.036411,-0.00011523,-0.094198,0.4721
6423,9.6151,0.54545,0.1,0.0003487,3484.6,0.00034878,3486.9,-0.0001147,4.4914,-0.00011529,-0.0046153,0.47314
6424,9.6151,0.72727,0.1,0.00034827,3480.3,0.00034842,3484.7,-0.00011419,8.7939,-0.00011537,-0.0057725,0.4741
6425,9.6151,0.90909,0.1,0.00034786,3476.2,0.00034808,3482.6,-0.00011372,12.897,-0.00011543,-0.0049586,0.47498
6426,9.6151,1.0909,0.1,0.00034748,3472.4,0.00034776,3480.7,-0.00011326,16.775,-0.0001155,-0.0047167,0.47579
6427,9.6151,1.2727,0.1,0.00034712,3468.8,0.00034746,3478.9,-0.00011284,20.398,-0.00011556,-0.0043787,0.47653
6428,9.6151,1.4545,0.1,0.00034679,3465.5,0.00034718,3477.3,-0.00011245,23.74,-0.00011561,-0.0040936,0.47719
6429,9.6151,1.6364,0.1,0.00034649,3462.5,0.00034693,3475.8,-0.0001121,26.777,-0.00011566,-0.0038233,0.47778
6430,9.6151,1.8182,0.1,0.00034622,3459.8,0.00034671,3474.4,-0.00011179,29.486,-0.00011571,-0.0035815,0.4783
6431,9.6151,2,0.1,0.00034599,3457.5,0.00034652,3473.3,-0.00011151,31.846,-0.00011575,-0.0033676,0.47874
6432,9.6151,2.1818,0.1,0.00034579,3455.5,0.00034635,3472.3,-0.00011128,33.842,-0.00011578,-0.0031833,0.4791
6433,9.6151,2.3636,0.1,0.00034563,3453.9,0.00034622,3471.5,-0.00011109,35.456,-0.00011581,-0.0030333,0.4794
6434,9.6151,2.5455,0.1,0.00034551,3452.7,0.00034612,3470.9,-0.00011095,36.678,-0.00011583,-0.0029197,0.47962
6435,9.6151,2.7273,0.1,0.00034543,3451.9,0.00034605,3470.5,-0.00011085,37.497,-0.00011585,-0.0028425,0.47976
6436,9.6151,2.9091,0.1,0.00034539,3451.5,0.00034602,3470.3,-0.00011081,37.909,-0.00011585,-0.0028031,0.47984
6437,9.6151,3.0909,0.1,0.00034539,3451.5,0.00034602,3470.3,-0.00011081,37.909,-0.00011585,-0.0028031,0.47984
6438,9.6151,3.2727,0.1,0.00034543,3451.9,0.00034605,3470.5,-0.00011085,37.497,-0.00011585,-0.0028425,0.47976
6439,9.6151,3.4545,0.1,0.00034551,3452.7,0.00034612,3470.9,-0.00011095,36.678,-0.00011583,-0.0029199,0.47962
6440,9.6151,3.6364,0.1,0.00034563,3453.9,0.00034622,3471.5,-0.00011109,35.456,-0.00011581,-0.003033,0.4794
6441,9.6151,3.8182,0.1,0.00034579,3455.5,0.00034635,3472.3,-0.00011128,33.842,-0.00011578,-0.0031832,0.4791
6442,9.6151,4,0.1,0.00034599,3457.5,0.00034652,3473.3,-0.00011151,31.846,-0.00011575,-0.0033671,0.47874
6443,9.6151,4.1818,0.1,0.00034622,3459.8,0.00034671,3474.4,-0.00011179,29.486,-0.00011571,-0.0035809,0.4783
6444,9.6151,4.3636,0.1,0.00034649,3462.5,0.00034693,3475.8,-0.0001121,26.777,-0.00011566,-0.0038228,0.47778
6445,9.6151,4.5455,0.1,0.00034679,3465.5,0.00034718,3477.3,-0.00011245,23.74,-0.00011561,-0.0040932,0.47719
6446,9.6151,4.7273,0.1,0.00034712,3468.8,0.00034746,3478.9,-0.00011284,20.398,-0.00011556,-0.004378,0.47653
6447,9.6151,4.9091,0.1,0.00034748,3472.4,0.00034776,3480.7,-0.00011326,16.775,-0.0001155,-0.0047158,0.47579
6448,9.6151,5.0909,0.1,0.00034786,3476.2,0.00034808,3482.6,-0.00011372,12.897,-0.00011543,-0.0049567,0.47498
6449,9.6151,5.2727,0.1,0.00034827,3480.3,0.00034842,3484.7,-0.00011419,8.7939,-0.00011537,-0.0057717,0.4741
6450,9.6151,5.4545,0.1,0.0003487,3484.6,0.00034878,3486.9,-0.0001147,4.4913,-0.00011529,-0.004615,0.47314
6451,9.6151,5.6364,0.1,0.00034916,3489.2,0.00034916,3489.2,-0.00011522,0.036404,-0.00011523,-0.094214,0.4721
6452,9.6151,5.8182,0.1,0.00034979,3495.4,0.00034969,3492.6,-0.00011514,0.020993,-0.00011591,-5.7344,0.47099
6453,9.8,0.18182,0.1,0.00034453,3442.9,0.00034442,3439.7,-0.00011337,0.016372,-0.00011423,-6.4192,0.48808
6454,9.8,0.36364,0.1,0.00034393,3436.9,0.00034391,3436.3,-0.00011344,-0.011492,-0.00011359,-1.1046,0.48918
6455,9.8,0.54545,0.1,0.0003435,3432.6,0.00034355,3434.2,-0.0001131,3.0396,-0.00011351,-0.0041676,0.49021
6456,9.8,0.72727,0.1,0.0003431,3428.6,0.00034322,3432.1,-0.00011264,6.9629,-0.00011357,-0.0054221,0.49115
6457,9.8,0.90909,0.1,0.00034272,3424.8,0.0003429,3430.2,-0.0001122,10.703,-0.00011363,-0.0048032,0.49203
6458,9.8,1.0909,0.1,0.00034236,3421.3,0.0003426,3428.4,-0.00011179,14.236,-0.00011368,-0.0046445,0.49283
6459,9.8,1.2727,0.1,0.00034203,3417.9,0.00034232,3426.7,-0.0001114,17.536,-0.00011374,-0.0043852,0.49356
6460,9.8,1.4545,0.1,0.00034172,3414.9,0.00034207,3425.1,-0.00011105,20.579,-0.00011379,-0.0041625,0.49421
6461,9.8,1.6364,0.1,0.00034145,3412.1,0.00034184,3423.7,-0.00011072,23.344,-0.00011383,-0.0039452,0.4948
6462,9.8,1.8182,0.1,0.0003412,3409.6,0.00034163,3422.5,-0.00011044,25.811,-0.00011387,-0.0037488,0.4953
6463,9.8,2,0.1,0.00034098,3407.5,0.00034145,3421.4,-0.00011019,27.959,-0.00011391,-0.0035737,0.49574
6464,9.8,2.1818,0.1,0.0003408,3405.7,0.0003413,3420.5,-0.00010997,29.775,-0.00011394,-0.0034219,0.4961
6465,9.8,2.3636,0.1,0.00034066,3404.2,0.00034118,3419.7,-0.0001098,31.244,-0.00011396,-0.0032972,0.49639
6466,9.8,2.5455,0.1,0.00034055,3403.1,0.00034109,3419.2,-0.00010967,32.356,-0.00011398,-0.0032032,0.49661
6467,9.8,2.7273,0.1,0.00034047,3402.4,0.00034102,3418.8,-0.00010959,33.102,-0.00011399,-0.0031381,0.49675
6468,9.8,2.9091,0.1,0.00034044,3402,0.00034099,3418.6,-0.00010954,33.476,-0.000114,-0.0031056,0.49683
6469,9.8,3.0909,0.1,0.00034044,3402,0.00034099,3418.6,-0.00010954,33.476,-0.000114,-0.0031053,0.49683
6470,9.8,3.2727,0.1,0.00034047,3402.4,0.00034102,3418.8,-0.00010959,33.102,-0.00011399,-0.0031382,0.49675
6471,9.8,3.4545,0.1,0.00034055,3403.1,0.00034109,3419.2,-0.00010967,32.356,-0.00011398,-0.0032028,0.49661
6472,9.8,3.6364,0.1,0.00034066,3404.2,0.00034118,3419.7,-0.0001098,31.244,-0.00011396,-0.0032968,0.49639
6473,9.8,3.8182,0.1,0.0003408,3405.7,0.0003413,3420.5,-0.00010997,29.775,-0.00011394,-0.0034217,0.4961
6474,9.8,4,0.1,0.00034098,3407.5,0.00034145,3421.4,-0.00011019,27.959,-0.00011391,-0.0035734,0.49574
6475,9.8,4.1818,0.1,0.0003412,3409.6,0.00034163,3422.5,-0.00011044,25.81,-0.00011387,-0.0037485,0.4953
6476,9.8,4.3636,0.1,0.00034145,3412.1,0.00034184,3423.7,-0.00011072,23.344,-0.00011383,-0.0039449,0.4948
6477,9.8,4.5455,0.1,0.00034172,3414.9,0.00034207,3425.1,-0.00011105,20.579,-0.00011379,-0.0041618,0.49421
6478,9.8,4.7273,0.1,0.00034203,3417.9,0.00034232,3426.7,-0.0001114,17.536,-0.00011374,-0.0043848,0.49356
6479,9.8,4.9091,0.1,0.00034236,3421.3,0.0003426,3428.4,-0.00011179,14.236,-0.00011368,-0.0046438,0.49283
6480,9.8,5.0909,0.1,0.00034272,3424.8,0.0003429,3430.2,-0.0001122,10.703,-0.00011363,-0.0048015,0.49203
6481,9.8,5.2727,0.1,0.0003431,3428.6,0.00034322,3432.1,-0.00011264,6.9628,-0.00011357,-0.0054208,0.49115
6482,9.8,5.4545,0.1,0.0003435,3432.6,0.00034355,3434.2,-0.0001131,3.0395,-0.00011351,-0.0041671,0.49021
6483,9.8,5.6364,0.1,0.00034393,3436.9,0.00034391,3436.3,-0.00011344,-0.011491,-0.00011359,-1.1046,0.48918
6484,9.8,5.8182,0.1,0.00034453,3442.9,0.00034442,3439.7,-0.00011337,0.016373,-0.00011423,-6.4192,0.48808
6485,9.9849,0.18182,0.1,0.00033929,3390.5,0.00033917,3387,-0.00011161,0.013008,-0.00011256,-7.067,0.50542
6486,9.9849,0.36364,0.1,0.00033872,3384.8,0.00033868,3383.8,-0.00011167,-0.010997,-0.00011195,-2.0984,0.5065
6487,9.9849,0.54545,0.1,0.00033832,3380.8,0.00033835,3381.7,-0.0001115,1.6805,-0.00011173,-0.0042049,0.50751
6488,9.9849,0.72727,0.1,0.00033795,3377.1,0.00033803,3379.7,-0.00011108,5.2507,-0.00011178,-0.0052904,0.50845
6489,9.9849,0.90909,0.1,0.00033759,3373.6,0.00033774,3377.9,-0.00011068,8.6525,-0.00011183,-0.0047729,0.50931
6490,9.9849,1.0909,0.1,0.00033726,3370.3,0.00033746,3376.2,-0.0001103,11.865,-0.00011188,-0.0046522,0.5101
6491,9.9849,1.2727,0.1,0.00033695,3367.2,0.0003372,3374.6,-0.00010995,14.865,-0.00011193,-0.0044434,0.51082
6492,9.9849,1.4545,0.1,0.00033667,3364.4,0.00033697,3373.2,-0.00010963,17.631,-0.00011197,-0.0042637,0.51147
6493,9.9849,1.6364,0.1,0.00033641,3361.8,0.00033675,3371.8,-0.00010933,20.143,-0.00011201,-0.0040867,0.51204
6494,9.9849,1.8182,0.1,0.00033619,3359.5,0.00033656,3370.7,-0.00010907,22.383,-0.00011205,-0.0039261,0.51255
6495,9.9849,2,0.1,0.00033599,3357.6,0.0003364,3369.7,-0.00010884,24.335,-0.00011208,-0.0037816,0.51298
6496,9.9849,2.1818,0.1,0.00033582,3355.9,0.00033626,3368.8,-0.00010865,25.984,-0.00011211,-0.003656,0.51333
6497,9.9849,2.3636,0.1,0.00033569,3354.5,0.00033614,3368.1,-0.00010849,27.318,-0.00011213,-0.0035528,0.51362
6498,9.9849,2.5455,0.1,0.00033558,3353.5,0.00033606,3367.6,-0.00010837,28.328,-0.00011214,-0.003474,0.51384
6499,9.9849,2.7273,0.1,0.00033552,3352.8,0.000336,3367.2,-0.00010829,29.005,-0.00011215,-0.0034204,0.51398
6500,9.9849,2.9091,0.1,0.00033548,3352.5,0.00033597,3367.1,-0.00010825,29.345,-0.00011216,-0.0033925,0.51405
6501,9.9849,3.0909,0.1,0.00033548,3352.5,0.00033597,3367.1,-0.00010825,29.345,-0.00011216,-0.0033929,0.51405
6502,9.9849,3.2727,0.1,0.00033552,3352.8,0.000336,3367.2,-0.00010829,29.005,-0.00011215,-0.0034204,0.51398
6503,9.9849,3.4545,0.1,0.00033558,3353.5,0.00033606,3367.6,-0.00010837,28.328,-0.00011214,-0.003474,0.51384
6504,9.9849,3.6364,0.1,0.00033569,3354.5,0.00033614,3368.1,-0.00010849,27.318,-0.00011213,-0.0035526,0.51362
6505,9.9849,3.8182,0.1,0.00033582,3355.9,0.00033626,3368.8,-0.00010865,25.984,-0.00011211,-0.0036555,0.51333
6506,9.9849,4,0.1,0.00033599,3357.6,0.0003364,3369.7,-0.00010884,24.335,-0.00011208,-0.0037814,0.51298
6507,9.9849,4.1818,0.1,0.00033619,3359.5,0.00033656,3370.7,-0.00010907,22.383,-0.00011205,-0.0039253,0.51255
6508,9.9849,4.3636,0.1,0.00033641,3361.8,0.00033675,3371.8,-0.00010933,20.143,-0.00011201,-0.0040864,0.51204
6509,9.9849,4.5455,0.1,0.00033667,3364.4,0.00033697,3373.2,-0.00010963,17.631,-0.00011197,-0.0042624,0.51147
6510,9.9849,4.7273,0.1,0.00033695,3367.2,0.0003372,3374.6,-0.00010995,14.865,-0.00011193,-0.0044428,0.51082
6511,9.9849,4.9091,0.1,0.00033726,3370.3,0.00033746,3376.2,-0.0001103,11.865,-0.00011188,-0.0046522,0.5101
6512,9.9849,5.0909,0.1,0.00033759,3373.6,0.00033774,3377.9,-0.00011068,8.6525,-0.00011183,-0.004771,0.50931
6513,9.9849,5.2727,0.1,0.00033795,3377.1,0.00033803,3379.7,-0.00011108,5.2507,-0.00011178,-0.0052897,0.50845
6514,9.9849,5.4545,0.1,0.00033832,3380.8,0.00033835,3381.7,-0.0001115,1.6805,-0.00011173,-0.0042045,0.50751
6515,9.9849,5.6364,0.1,0.00033872,3384.8,0.00033868,3383.8,-0.00011167,-0.010996,-0.00011195,-2.0985,0.5065
6516,9.9849,5.8182,0.1,0.00033929,3390.5,0.00033917,3387,-0.00011161,0.013009,-0.00011256,-7.067,0.50542
6517,10.17,0.18182,0.1,0.00033407,3338.4,0.00033394,3334.6,-0.00010986,0.010484,-0.00011089,-7.68,0.52298
6518,10.17,0.36364,0.1,0.00033352,3332.9,0.00033347,3331.4,-0.00010991,-0.0094598,-0.00011032,-3.0336,0.52405
6519,10.17,0.54545,0.1,0.00033315,3329.2,0.00033316,3329.4,-0.00010991,0.41044,-0.00010996,-0.0085396,0.52505
6520,10.17,0.72727,0.1,0.00033281,3325.8,0.00033287,3327.6,-0.00010952,3.6477,-0.00011001,-0.0055796,0.52597
6521,10.17,0.90909,0.1,0.00033248,3322.5,0.00033259,3325.9,-0.00010916,6.7341,-0.00011005,-0.0049354,0.52682
6522,10.17,1.0909,0.1,0.00033217,3319.4,0.00033234,3324.3,-0.00010881,9.6476,-0.0001101,-0.0047734,0.52761
6523,10.17,1.2727,0.1,0.00033189,3316.6,0.0003321,3322.8,-0.00010849,12.368,-0.00011014,-0.004573,0.52832
6524,10.17,1.4545,0.1,0.00033163,3314,0.00033188,3321.4,-0.00010819,14.875,-0.00011017,-0.0044105,0.52895
6525,10.17,1.6364,0.1,0.00033139,3311.6,0.00033168,3320.2,-0.00010792,17.152,-0.00011021,-0.0042566,0.52952
6526,10.17,1.8182,0.1,0.00033118,3309.5,0.0003315,3319.1,-0.00010768,19.182,-0.00011024,-0.0041191,0.53002
6527,10.17,2,0.1,0.000331,3307.7,0.00033135,3318.1,-0.00010748,20.951,-0.00011027,-0.0039964,0.53044
6528,10.17,2.1818,0.1,0.00033084,3306.1,0.00033122,3317.3,-0.0001073,22.445,-0.00011029,-0.0038904,0.5308
6529,10.17,2.3636,0.1,0.00033072,3304.9,0.00033111,3316.7,-0.00010716,23.653,-0.00011031,-0.003803,0.53108
6530,10.17,2.5455,0.1,0.00033062,3304,0.00033103,3316.2,-0.00010705,24.567,-0.00011032,-0.0037375,0.53129
6531,10.17,2.7273,0.1,0.00033056,3303.3,0.00033098,3315.8,-0.00010698,25.181,-0.00011033,-0.0036921,0.53143
6532,10.17,2.9091,0.1,0.00033053,3303,0.00033096,3315.7,-0.00010694,25.488,-0.00011034,-0.003669,0.5315
6533,10.17,3.0909,0.1,0.00033053,3303,0.00033096,3315.7,-0.00010694,25.488,-0.00011034,-0.0036686,0.5315
6534,10.17,3.2727,0.1,0.00033056,3303.3,0.00033098,3315.8,-0.00010698,25.181,-0.00011033,-0.0036919,0.53143
6535,10.17,3.4545,0.1,0.00033062,3304,0.00033103,3316.2,-0.00010705,24.567,-0.00011032,-0.0037375,0.53129
6536,10.17,3.6364,0.1,0.00033072,3304.9,0.00033111,3316.7,-0.00010716,23.653,-0.00011031,-0.0038031,0.53108
6537,10.17,3.8182,0.1,0.00033084,3306.1,0.00033122,3317.3,-0.0001073,22.445,-0.00011029,-0.0038901,0.5308
6538,10.17,4,0.1,0.000331,3307.7,0.00033135,3318.1,-0.00010748,20.951,-0.00011027,-0.0039964,0.53044
6539,10.17,4.1818,0.1,0.00033118,3309.5,0.0003315,3319.1,-0.00010768,19.182,-0.00011024,-0.0041186,0.53002
6540,10.17,4.3636,0.1,0.00033139,3311.6,0.00033168,3320.2,-0.00010792,17.152,-0.00011021,-0.004256,0.52952
6541,10.17,4.5455,0.1,0.00033163,3314,0.00033188,3321.4,-0.00010819,14.875,-0.00011017,-0.00441,0.52895
6542,10.17,4.7273,0.1,0.00033189,3316.6,0.0003321,3322.8,-0.00010849,12.368,-0.00011014,-0.0045724,0.52832
6543,10.17,4.9091,0.1,0.00033217,3319.4,0.00033234,3324.3,-0.00010881,9.6475,-0.0001101,-0.004773,0.52761
6544,10.17,5.0909,0.1,0.00033248,3322.5,0.00033259,3325.9,-0.00010916,6.734,-0.00011005,-0.0049338,0.52682
6545,10.17,5.2727,0.1,0.00033281,3325.8,0.00033287,3327.6,-0.00010952,3.6476,-0.00011001,-0.0055784,0.52597
6546,10.17,5.4545,0.1,0.00033315,3329.2,0.00033316,3329.4,-0.00010991,0.4104,-0.00010996,-0.0085396,0.52505
6547,10.17,5.6364,0.1,0.00033352,3332.9,0.00033347,3331.4,-0.00010991,-0.0094589,-0.00011032,-3.0336,0.52405
6548,10.17,5.8182,0.1,0.00033407,3338.4,0.00033394,3334.6,-0.00010986,0.010485,-0.00011089,-7.6801,0.52298
6549,10.355,0.18182,0.1,0.00032888,3286.5,0.00032874,3282.4,-0.00010812,0.0085471,-0.00010922,-8.2605,0.54077
6550,10.355,0.36364,0.1,0.00032835,3281.3,0.00032829,3279.3,-0.00010816,-0.0077579,-0.00010868,-3.9139,0.54182
6551,10.355,0.54545,0.1,0.00032801,3277.8,0.00032799,3277.4,-0.0001082,0.0020419,-0.00010831,-0.79702,0.54281
6552,10.355,0.72727,0.1,0.00032769,3274.6,0.00032772,3275.7,-0.00010796,2.1451,-0.00010824,-0.0070102,0.54372
6553,10.355,0.90909,0.1,0.00032738,3271.6,0.00032747,3274,-0.00010762,4.9361,-0.00010828,-0.0054435,0.54456
6554,10.355,1.0909,0.1,0.0003271,3268.7,0.00032723,3272.5,-0.00010731,7.5706,-0.00010832,-0.0050681,0.54533
6555,10.355,1.2727,0.1,0.00032684,3266.1,0.00032701,3271.1,-0.00010702,10.03,-0.00010835,-0.0048033,0.54604
6556,10.355,1.4545,0.1,0.00032659,3263.7,0.0003268,3269.8,-0.00010675,12.296,-0.00010838,-0.0046197,0.54667
6557,10.355,1.6364,0.1,0.00032638,3261.5,0.00032662,3268.7,-0.0001065,14.353,-0.00010841,-0.0044641,0.54723
6558,10.355,1.8182,0.1,0.00032618,3259.6,0.00032645,3267.6,-0.00010629,16.187,-0.00010844,-0.0043336,0.54772
6559,10.355,2,0.1,0.00032601,3257.9,0.00032631,3266.7,-0.0001061,17.784,-0.00010846,-0.0042217,0.54813
6560,10.355,2.1818,0.1,0.00032587,3256.5,0.00032619,3266,-0.00010594,19.133,-0.00010848,-0.004127,0.54848
6561,10.355,2.3636,0.1,0.00032576,3255.3,0.0003261,3265.4,-0.00010581,20.225,-0.0001085,-0.0040501,0.54876
6562,10.355,2.5455,0.1,0.00032567,3254.4,0.00032602,3264.9,-0.00010571,21.05,-0.00010851,-0.0039926,0.54897
6563,10.355,2.7273,0.1,0.00032561,3253.9,0.00032597,3264.6,-0.00010564,21.604,-0.00010852,-0.0039531,0.54911
6564,10.355,2.9091,0.1,0.00032558,3253.6,0.00032595,3264.5,-0.00010561,21.882,-0.00010852,-0.0039331,0.54918
6565,10.355,3.0909,0.1,0.00032558,3253.6,0.00032595,3264.5,-0.00010561,21.882,-0.00010852,-0.0039329,0.54918
6566,10.355,3.2727,0.1,0.00032561,3253.9,0.00032597,3264.6,-0.00010564,21.604,-0.00010852,-0.0039533,0.54911
6567,10.355,3.4545,0.1,0.00032567,3254.4,0.00032602,3264.9,-0.00010571,21.05,-0.00010851,-0.0039924,0.54897
6568,10.355,3.6364,0.1,0.00032576,3255.3,0.0003261,3265.4,-0.00010581,20.225,-0.0001085,-0.0040495,0.54876
6569,10.355,3.8182,0.1,0.00032587,3256.5,0.00032619,3266,-0.00010594,19.133,-0.00010848,-0.0041265,0.54848
6570,10.355,4,0.1,0.00032601,3257.9,0.00032631,3266.7,-0.0001061,17.784,-0.00010846,-0.0042215,0.54813
6571,10.355,4.1818,0.1,0.00032618,3259.6,0.00032645,3267.6,-0.00010629,16.187,-0.00010844,-0.0043333,0.54772
6572,10.355,4.3636,0.1,0.00032638,3261.5,0.00032662,3268.7,-0.0001065,14.353,-0.00010841,-0.0044639,0.54723
6573,10.355,4.5455,0.1,0.00032659,3263.7,0.0003268,3269.8,-0.00010675,12.296,-0.00010838,-0.004619,0.54667
6574,10.355,4.7273,0.1,0.00032684,3266.1,0.00032701,3271.1,-0.00010702,10.029,-0.00010835,-0.0048025,0.54604
6575,10.355,4.9091,0.1,0.0003271,3268.7,0.00032723,3272.5,-0.00010731,7.5705,-0.00010832,-0.0050676,0.54533
6576,10.355,5.0909,0.1,0.00032738,3271.6,0.00032747,3274,-0.00010762,4.9361,-0.00010828,-0.0054419,0.54456
6577,10.355,5.2727,0.1,0.00032769,3274.6,0.00032772,3275.7,-0.00010796,2.145,-0.00010824,-0.0070093,0.54372
6578,10.355,5.4545,0.1,0.00032801,3277.8,0.00032799,3277.4,-0.0001082,0.0020421,-0.00010831,-0.79706,0.54281
6579,10.355,5.6364,0.1,0.00032835,3281.3,0.00032829,3279.3,-0.00010816,-0.0077568,-0.00010868,-3.9139,0.54182
6580,10.355,5.8182,0.1,0.00032888,3286.5,0.00032874,3282.4,-0.00010812,0.0085477,-0.00010922,-8.2605,0.54077
6581,10.54,0.18182,0.1,0.00032371,3234.8,0.00032356,3230.4,-0.00010639,0.0070305,-0.00010756,-8.8106,0.55878
6582,10.54,0.36364,0.1,0.0003232,3229.8,0.00032312,3227.4,-0.00010642,-0.0060608,-0.00010705,-4.7437,0.55982
6583,10.54,0.54545,0.1,0.00032288,3226.6,0.00032285,3225.6,-0.00010645,0.00059508,-0.00010671,-1.9216,0.56079
6584,10.54,0.72727,0.1,0.00032258,3223.6,0.00032259,3224,-0.00010639,0.73999,-0.00010649,-0.015517,0.56169
6585,10.54,0.90909,0.1,0.0003223,3220.8,0.00032236,3222.4,-0.00010609,3.2483,-0.00010652,-0.00675,0.56253
6586,10.54,1.0909,0.1,0.00032204,3218.2,0.00032213,3221,-0.0001058,5.621,-0.00010655,-0.0056778,0.56329
6587,10.54,1.2727,0.1,0.0003218,3215.7,0.00032193,3219.6,-0.00010554,7.8353,-0.00010658,-0.0051999,0.56398
6588,10.54,1.4545,0.1,0.00032157,3213.5,0.00032174,3218.4,-0.00010529,9.8756,-0.00010661,-0.0049256,0.5646
6589,10.54,1.6364,0.1,0.00032137,3211.5,0.00032157,3217.3,-0.00010507,11.727,-0.00010663,-0.0047313,0.56515
6590,10.54,1.8182,0.1,0.00032119,3209.7,0.00032142,3216.4,-0.00010487,13.378,-0.00010666,-0.0045832,0.56564
6591,10.54,2,0.1,0.00032104,3208.2,0.00032129,3215.5,-0.0001047,14.815,-0.00010668,-0.004466,0.56605
6592,10.54,2.1818,0.1,0.00032091,3206.8,0.00032118,3214.8,-0.00010456,16.029,-0.00010669,-0.0043705,0.5664
6593,10.54,2.3636,0.1,0.0003208,3205.8,0.00032109,3214.3,-0.00010444,17.011,-0.00010671,-0.0042968,0.56667
6594,10.54,2.5455,0.1,0.00032072,3205,0.00032102,3213.8,-0.00010435,17.754,-0.00010672,-0.0042427,0.56688
6595,10.54,2.7273,0.1,0.00032067,3204.5,0.00032097,3213.5,-0.00010429,18.252,-0.00010672,-0.0042055,0.56702
6596,10.54,2.9091,0.1,0.00032064,3204.2,0.00032095,3213.4,-0.00010426,18.502,-0.00010673,-0.0041875,0.56708
6597,10.54,3.0909,0.1,0.00032064,3204.2,0.00032095,3213.4,-0.00010426,18.502,-0.00010673,-0.0041872,0.56708
6598,10.54,3.2727,0.1,0.00032067,3204.5,0.00032097,3213.5,-0.00010429,18.252,-0.00010672,-0.0042054,0.56702
6599,10.54,3.4545,0.1,0.00032072,3205,0.00032102,3213.8,-0.00010435,17.754,-0.00010672,-0.0042427,0.56688
6600,10.54,3.6364,0.1,0.0003208,3205.8,0.00032109,3214.3,-0.00010444,17.011,-0.00010671,-0.0042966,0.56667
6601,10.54,3.8182,0.1,0.00032091,3206.8,0.00032118,3214.8,-0.00010456,16.029,-0.00010669,-0.0043707,0.5664
6602,10.54,4,0.1,0.00032104,3208.2,0.00032129,3215.5,-0.0001047,14.815,-0.00010668,-0.0044652,0.56605
6603,10.54,4.1818,0.1,0.00032119,3209.7,0.00032142,3216.4,-0.00010487,13.378,-0.00010666,-0.0045828,0.56564
6604,10.54,4.3636,0.1,0.00032137,3211.5,0.00032157,3217.3,-0.00010507,11.727,-0.00010663,-0.0047299,0.56515
6605,10.54,4.5455,0.1,0.00032157,3213.5,0.00032174,3218.4,-0.00010529,9.8755,-0.00010661,-0.0049253,0.5646
6606,10.54,4.7273,0.1,0.0003218,3215.7,0.00032193,3219.6,-0.00010554,7.8353,-0.00010658,-0.0051991,0.56398
6607,10.54,4.9091,0.1,0.00032204,3218.2,0.00032213,3221,-0.0001058,5.6209,-0.00010655,-0.0056777,0.56329
6608,10.54,5.0909,0.1,0.0003223,3220.8,0.00032236,3222.4,-0.00010609,3.2482,-0.00010652,-0.006748,0.56253
6609,10.54,5.2727,0.1,0.00032258,3223.6,0.00032259,3224,-0.00010639,0.73994,-0.00010649,-0.015517,0.56169
6610,10.54,5.4545,0.1,0.00032288,3226.6,0.00032285,3225.6,-0.00010645,0.00059515,-0.00010671,-1.9217,0.56079
6611,10.54,5.6364,0.1,0.0003232,3229.8,0.00032312,3227.4,-0.00010642,-0.0060594,-0.00010705,-4.7438,0.55982
6612,10.54,5.8182,0.1,0.00032371,3234.8,0.00032356,3230.4,-0.00010639,0.0070308,-0.00010756,-8.8106,0.55878
6613,10.725,0.18182,0.1,0.00031856,3183.4,0.0003184,3178.7,-0.00010466,0.0058235,-0.0001059,-9.3323,0.57702
6614,10.725,0.36364,0.1,0.00031807,3178.5,0.00031798,3175.7,-0.00010469,-0.0044165,-0.00010542,-5.5274,0.57804
6615,10.725,0.54545,0.1,0.00031777,3175.5,0.00031772,3174,-0.00010472,0.00060766,-0.00010511,-2.9833,0.579
6616,10.725,0.72727,0.1,0.0003175,3172.8,0.00031749,3172.5,-0.00010474,0.015096,-0.00010483,-0.62216,0.57989
6617,10.725,0.90909,0.1,0.00031724,3170.2,0.00031726,3171,-0.00010455,1.6622,-0.00010477,-0.010927,0.58071
6618,10.725,1.0909,0.1,0.00031699,3167.8,0.00031706,3169.6,-0.00010429,3.7872,-0.0001048,-0.006995,0.58146
6619,10.725,1.2727,0.1,0.00031677,3165.5,0.00031687,3168.4,-0.00010405,5.7716,-0.00010482,-0.0059078,0.58214
6620,10.725,1.4545,0.1,0.00031656,3163.5,0.00031669,3167.2,-0.00010383,7.5998,-0.00010484,-0.0053994,0.58276
6621,10.725,1.6364,0.1,0.00031638,3161.6,0.00031653,3166.2,-0.00010363,9.2589,-0.00010486,-0.0050943,0.5833
6622,10.725,1.8182,0.1,0.00031621,3160,0.00031639,3165.3,-0.00010345,10.737,-0.00010488,-0.0048895,0.58378
6623,10.725,2,0.1,0.00031607,3158.5,0.00031627,3164.5,-0.0001033,12.025,-0.0001049,-0.0047419,0.58419
6624,10.725,2.1818,0.1,0.00031595,3157.3,0.00031617,3163.9,-0.00010317,13.112,-0.00010491,-0.0046312,0.58453
6625,10.725,2.3636,0.1,0.00031585,3156.4,0.00031609,3163.3,-0.00010306,13.991,-0.00010492,-0.0045485,0.5848
6626,10.725,2.5455,0.1,0.00031578,3155.6,0.00031603,3162.9,-0.00010298,14.656,-0.00010493,-0.0044904,0.585
6627,10.725,2.7273,0.1,0.00031573,3155.1,0.00031599,3162.7,-0.00010293,15.102,-0.00010494,-0.0044521,0.58514
6628,10.725,2.9091,0.1,0.00031571,3154.9,0.00031596,3162.5,-0.0001029,15.326,-0.00010494,-0.0044327,0.58521
6629,10.725,3.0909,0.1,0.00031571,3154.9,0.00031596,3162.5,-0.0001029,15.326,-0.00010494,-0.0044325,0.58521
6630,10.725,3.2727,0.1,0.00031573,3155.1,0.00031599,3162.7,-0.00010293,15.102,-0.00010494,-0.0044523,0.58514
6631,10.725,3.4545,0.1,0.00031578,3155.6,0.00031603,3162.9,-0.00010298,14.656,-0.00010493,-0.0044905,0.585
6632,10.725,3.6364,0.1,0.00031585,3156.4,0.00031609,3163.3,-0.00010306,13.991,-0.00010492,-0.004548,0.5848
6633,10.725,3.8182,0.1,0.00031595,3157.3,0.00031617,3163.9,-0.00010317,13.112,-0.00010491,-0.0046308,0.58453
6634,10.725,4,0.1,0.00031607,3158.5,0.00031627,3164.5,-0.0001033,12.025,-0.0001049,-0.0047414,0.58419
6635,10.725,4.1818,0.1,0.00031621,3160,0.00031639,3165.3,-0.00010345,10.737,-0.00010488,-0.0048889,0.58378
6636,10.725,4.3636,0.1,0.00031638,3161.6,0.00031653,3166.2,-0.00010363,9.2589,-0.00010486,-0.0050937,0.5833
6637,10.725,4.5455,0.1,0.00031656,3163.5,0.00031669,3167.2,-0.00010383,7.5998,-0.00010484,-0.0053988,0.58276
6638,10.725,4.7273,0.1,0.00031677,3165.5,0.00031687,3168.4,-0.00010405,5.7716,-0.00010482,-0.0059076,0.58214
6639,10.725,4.9091,0.1,0.00031699,3167.8,0.00031706,3169.6,-0.00010429,3.7871,-0.0001048,-0.0069944,0.58146
6640,10.725,5.0909,0.1,0.00031724,3170.2,0.00031726,3171,-0.00010455,1.6622,-0.00010477,-0.010925,0.58071
6641,10.725,5.2727,0.1,0.0003175,3172.8,0.00031749,3172.5,-0.00010474,0.015095,-0.00010483,-0.62221,0.57989
6642,10.725,5.4545,0.1,0.00031777,3175.5,0.00031772,3174,-0.00010472,0.00060728,-0.00010511,-2.9833,0.579
6643,10.725,5.6364,0.1,0.00031807,3178.5,0.00031798,3175.7,-0.00010469,-0.0044156,-0.00010542,-5.5274,0.57804
6644,10.725,5.8182,0.1,0.00031856,3183.4,0.0003184,3178.7,-0.00010466,0.0058248,-0.0001059,-9.3323,0.57702
6645,10.909,0.18182,0.1,0.00031343,3132.1,0.00031326,3127.2,-0.00010294,0.00485,-0.00010425,-9.8277,0.59547
6646,10.909,0.36364,0.1,0.00031296,3127.4,0.00031285,3124.3,-0.00010297,-0.0028394,-0.0001038,-6.2689,0.59648
6647,10.909,0.54545,0.1,0.00031268,3124.6,0.00031261,3122.7,-0.00010299,0.00086135,-0.00010352,-3.9867,0.59742
6648,10.909,0.72727,0.1,0.00031243,3122.1,0.00031239,3121.2,-0.00010301,0.0045591,-0.00010326,-1.869,0.5983
6649,10.909,0.90909,0.1,0.00031219,3119.7,0.00031219,3119.8,-0.000103,0.22027,-0.00010304,-0.069829,0.59911
6650,10.909,1.0909,0.1,0.00031196,3117.5,0.000312,3118.5,-0.00010278,2.0594,-0.00010305,-0.010644,0.59985
6651,10.909,1.2727,0.1,0.00031176,3115.4,0.00031182,3117.3,-0.00010256,3.8258,-0.00010307,-0.007347,0.60052
6652,10.909,1.4545,0.1,0.00031157,3113.5,0.00031166,3116.2,-0.00010236,5.4542,-0.00010309,-0.0062101,0.60113
6653,10.909,1.6364,0.1,0.0003114,3111.8,0.00031151,3115.3,-0.00010218,6.9319,-0.0001031,-0.0056385,0.60166
6654,10.909,1.8182,0.1,0.00031125,3110.3,0.00031139,3114.4,-0.00010202,8.2485,-0.00010312,-0.0052985,0.60213
6655,10.909,2,0.1,0.00031111,3109,0.00031127,3113.7,-0.00010188,9.3948,-0.00010313,-0.0050765,0.60254
6656,10.909,2.1818,0.1,0.000311,3107.9,0.00031118,3113.1,-0.00010176,10.363,-0.00010314,-0.0049218,0.60287
6657,10.909,2.3636,0.1,0.00031092,3107,0.0003111,3112.6,-0.00010167,11.146,-0.00010315,-0.0048139,0.60314
6658,10.909,2.5455,0.1,0.00031085,3106.3,0.00031105,3112.2,-0.0001016,11.738,-0.00010316,-0.004741,0.60334
6659,10.909,2.7273,0.1,0.0003108,3105.9,0.00031101,3111.9,-0.00010155,12.135,-0.00010317,-0.0046938,0.60348
6660,10.909,2.9091,0.1,0.00031078,3105.7,0.00031099,3111.8,-0.00010153,12.334,-0.00010317,-0.0046708,0.60354
6661,10.909,3.0909,0.1,0.00031078,3105.7,0.00031099,3111.8,-0.00010153,12.334,-0.00010317,-0.004671,0.60354
6662,10.909,3.2727,0.1,0.0003108,3105.9,0.00031101,3111.9,-0.00010155,12.135,-0.00010317,-0.0046937,0.60348
6663,10.909,3.4545,0.1,0.00031085,3106.3,0.00031105,3112.2,-0.0001016,11.738,-0.00010316,-0.0047403,0.60334
6664,10.909,3.6364,0.1,0.00031092,3107,0.0003111,3112.6,-0.00010167,11.146,-0.00010315,-0.0048136,0.60314
6665,10.909,3.8182,0.1,0.000311,3107.9,0.00031118,3113.1,-0.00010176,10.363,-0.00010314,-0.0049216,0.60287
6666,10.909,4,0.1,0.00031111,3109,0.00031127,3113.7,-0.00010188,9.3948,-0.00010313,-0.0050759,0.60254
6667,10.909,4.1818,0.1,0.00031125,3110.3,0.00031139,3114.4,-0.00010202,8.2484,-0.00010312,-0.0052984,0.60213
6668,10.909,4.3636,0.1,0.0003114,3111.8,0.00031151,3115.3,-0.00010218,6.9318,-0.0001031,-0.0056378,0.60166
6669,10.909,4.5455,0.1,0.00031157,3113.5,0.00031166,3116.2,-0.00010236,5.4541,-0.00010309,-0.0062098,0.60113
6670,10.909,4.7273,0.1,0.00031176,3115.4,0.00031182,3117.3,-0.00010256,3.8258,-0.00010307,-0.0073462,0.60052
6671,10.909,4.9091,0.1,0.00031196,3117.5,0.000312,3118.5,-0.00010278,2.0593,-0.00010305,-0.010643,0.59985
6672,10.909,5.0909,0.1,0.00031219,3119.7,0.00031219,3119.8,-0.000103,0.22022,-0.00010304,-0.06984,0.59911
6673,10.909,5.2727,0.1,0.00031243,3122.1,0.00031239,3121.2,-0.00010301,0.00456,-0.00010326,-1.869,0.5983
6674,10.909,5.4545,0.1,0.00031268,3124.6,0.00031261,3122.7,-0.00010299,0.00086109,-0.00010352,-3.9868,0.59742
6675,10.909,5.6364,0.1,0.00031296,3127.4,0.00031285,3124.3,-0.00010297,-0.0028384,-0.0001038,-6.269,0.59648
6676,10.909,5.8182,0.1,0.00031343,3132.1,0.00031326,3127.2,-0.00010294,0.0048514,-0.00010425,-9.8278,0.59547
6677,11.094,0.18182,0.1,0.00030832,3081.1,0.00030815,3075.9,-0.00010124,0.0040559,-0.00010261,-10.299,0.61413
6678,11.094,0.36364,0.1,0.00030787,3076.6,0.00030775,3073.1,-0.00010125,-0.0013302,-0.00010218,-6.9721,0.61513
6679,11.094,0.54545,0.1,0.00030761,3074,0.00030753,3071.5,-0.00010127,0.0011837,-0.00010192,-4.9376,0.61606
6680,11.094,0.72727,0.1,0.00030737,3071.6,0.00030732,3070.1,-0.00010128,0.002834,-0.00010169,-3.0579,0.61692
6681,11.094,0.90909,0.1,0.00030715,3069.4,0.00030713,3068.8,-0.0001013,0.010472,-0.00010147,-1.2808,0.61772
6682,11.094,1.0909,0.1,0.00030695,3067.4,0.00030696,3067.6,-0.00010125,0.45026,-0.00010132,-0.040092,0.61845
6683,11.094,1.2727,0.1,0.00030676,3065.5,0.00030679,3066.5,-0.00010106,1.9876,-0.00010133,-0.011397,0.61911
6684,11.094,1.4545,0.1,0.00030658,3063.7,0.00030664,3065.4,-0.00010089,3.4255,-0.00010134,-0.0079039,0.61971
6685,11.094,1.6364,0.1,0.00030643,3062.2,0.00030651,3064.5,-0.00010073,4.7315,-0.00010136,-0.0065904,0.62024
6686,11.094,1.8182,0.1,0.00030629,3060.8,0.00030639,3063.7,-0.00010058,5.8953,-0.00010137,-0.0059221,0.6207
6687,11.094,2,0.1,0.00030617,3059.6,0.00030629,3063,-0.00010046,6.9087,-0.00010138,-0.0055278,0.6211
6688,11.094,2.1818,0.1,0.00030607,3058.6,0.0003062,3062.5,-0.00010035,7.7645,-0.00010139,-0.0052757,0.62143
6689,11.094,2.3636,0.1,0.00030599,3057.8,0.00030613,3062,-0.00010027,8.4565,-0.0001014,-0.0051094,0.6217
6690,11.094,2.5455,0.1,0.00030593,3057.2,0.00030608,3061.6,-0.0001002,8.98,-0.0001014,-0.0050012,0.6219
6691,11.094,2.7273,0.1,0.00030589,3056.7,0.00030604,3061.4,-0.00010016,9.3311,-0.0001014,-0.0049349,0.62203
6692,11.094,2.9091,0.1,0.00030587,3056.5,0.00030603,3061.3,-0.00010014,9.5073,-0.00010141,-0.004903,0.62209
6693,11.094,3.0909,0.1,0.00030587,3056.5,0.00030603,3061.3,-0.00010014,9.5073,-0.00010141,-0.004903,0.62209
6694,11.094,3.2727,0.1,0.00030589,3056.7,0.00030604,3061.4,-0.00010016,9.3311,-0.0001014,-0.0049351,0.62203
6695,11.094,3.4545,0.1,0.00030593,3057.2,0.00030608,3061.6,-0.0001002,8.98,-0.0001014,-0.0050011,0.6219
6696,11.094,3.6364,0.1,0.00030599,3057.8,0.00030613,3062,-0.00010027,8.4565,-0.0001014,-0.0051094,0.6217
6697,11.094,3.8182,0.1,0.00030607,3058.6,0.0003062,3062.5,-0.00010035,7.7644,-0.00010139,-0.0052759,0.62143
6698,11.094,4,0.1,0.00030617,3059.6,0.00030629,3063,-0.00010046,6.9087,-0.00010138,-0.0055272,0.6211
6699,11.094,4.1818,0.1,0.00030629,3060.8,0.00030639,3063.7,-0.00010058,5.8953,-0.00010137,-0.0059216,0.6207
6700,11.094,4.3636,0.1,0.00030643,3062.2,0.00030651,3064.5,-0.00010073,4.7315,-0.00010136,-0.0065904,0.62024
6701,11.094,4.5455,0.1,0.00030658,3063.7,0.00030664,3065.4,-0.00010089,3.4254,-0.00010134,-0.0079032,0.61971
6702,11.094,4.7273,0.1,0.00030676,3065.5,0.00030679,3066.5,-0.00010106,1.9875,-0.00010133,-0.011397,0.61911
6703,11.094,4.9091,0.1,0.00030695,3067.4,0.00030696,3067.6,-0.00010125,0.45021,-0.00010132,-0.040095,0.61845
6704,11.094,5.0909,0.1,0.00030715,3069.4,0.00030713,3068.8,-0.0001013,0.010473,-0.00010147,-1.2809,0.61772
6705,11.094,5.2727,0.1,0.00030737,3071.6,0.00030732,3070.1,-0.00010128,0.0028347,-0.00010169,-3.058,0.61692
6706,11.094,5.4545,0.1,0.00030761,3074,0.00030753,3071.5,-0.00010127,0.0011839,-0.00010192,-4.9376,0.61606
6707,11.094,5.6364,0.1,0.00030787,3076.6,0.00030775,3073.1,-0.00010125,-0.0013295,-0.00010218,-6.9722,0.61513
6708,11.094,5.8182,0.1,0.00030832,3081.1,0.00030815,3075.9,-0.00010124,0.0040563,-0.00010261,-10.299,0.61413
6709,11.279,0.18182,0.1,0.00030324,3030.3,0.00030305,3024.9,-9.9535e-05,0.0033997,-0.00010097,-10.747,0.63301
6710,11.279,0.36364,0.1,0.0003028,3025.9,0.00030267,3022.1,-9.9544e-05,0.00011313,-0.00010056,-7.6407,0.63399
6711,11.279,0.54545,0.1,0.00030256,3023.5,0.00030246,3020.6,-9.9554e-05,0.0015263,-0.00010033,-5.8411,0.63491
6712,11.279,0.72727,0.1,0.00030234,3021.3,0.00030227,3019.2,-9.9565e-05,0.0023054,-0.00010012,-4.1885,0.63576
6713,11.279,0.90909,0.1,0.00030214,3019.3,0.00030209,3018,-9.9575e-05,0.0046167,-9.9925e-05,-2.6244,0.63654
6714,11.279,1.0909,0.1,0.00030195,3017.4,0.00030193,3016.8,-9.9585e-05,0.012739,-9.9741e-05,-1.1585,0.63726
6715,11.279,1.2727,0.1,0.00030178,3015.7,0.00030178,3015.8,-9.9559e-05,0.28826,-9.9605e-05,-0.061163,0.63792
6716,11.279,1.4545,0.1,0.00030162,3014.1,0.00030164,3014.8,-9.9407e-05,1.504,-9.9609e-05,-0.013668,0.6385
6717,11.279,1.6364,0.1,0.00030147,3012.7,0.00030152,3014,-9.9265e-05,2.6447,-9.9618e-05,-0.0088519,0.63903
6718,11.279,1.8182,0.1,0.00030135,3011.4,0.00030141,3013.2,-9.9138e-05,3.6632,-9.9627e-05,-0.0071223,0.63948
6719,11.279,2,0.1,0.00030124,3010.3,0.00030132,3012.6,-9.9028e-05,4.5505,-9.9634e-05,-0.0062669,0.63988
6720,11.279,2.1818,0.1,0.00030115,3009.4,0.00030124,3012,-9.8935e-05,5.3,-9.9641e-05,-0.0057777,0.6402
6721,11.279,2.3636,0.1,0.00030107,3008.6,0.00030117,3011.6,-9.886e-05,5.9062,-9.9647e-05,-0.0054778,0.64046
6722,11.279,2.5455,0.1,0.00030102,3008.1,0.00030112,3011.3,-9.8803e-05,6.3648,-9.9651e-05,-0.0052923,0.64066
6723,11.279,2.7273,0.1,0.00030098,3007.7,0.00030109,3011,-9.8765e-05,6.6724,-9.9654e-05,-0.0051827,0.64079
6724,11.279,2.9091,0.1,0.00030096,3007.5,0.00030108,3010.9,-9.8746e-05,6.8268,-9.9655e-05,-0.0051315,0.64085
6725,11.279,3.0909,0.1,0.00030096,3007.5,0.00030108,3010.9,-9.8746e-05,6.8268,-9.9655e-05,-0.0051312,0.64085
6726,11.279,3.2727,0.1,0.00030098,3007.7,0.00030109,3011,-9.8765e-05,6.6724,-9.9654e-05,-0.0051824,0.64079
6727,11.279,3.4545,0.1,0.00030102,3008.1,0.00030112,3011.3,-9.8803e-05,6.3648,-9.9651e-05,-0.0052918,0.64066
6728,11.279,3.6364,0.1,0.00030107,3008.6,0.00030117,3011.6,-9.886e-05,5.9062,-9.9647e-05,-0.0054776,0.64046
6729,11.279,3.8182,0.1,0.00030115,3009.4,0.00030124,3012,-9.8935e-05,5.3,-9.9641e-05,-0.0057765,0.6402
6730,11.279,4,0.1,0.00030124,3010.3,0.00030132,3012.6,-9.9028e-05,4.5505,-9.9634e-05,-0.0062666,0.63988
6731,11.279,4.1818,0.1,0.00030135,3011.4,0.00030141,3013.2,-9.9138e-05,3.6632,-9.9627e-05,-0.0071222,0.63948
6732,11.279,4.3636,0.1,0.00030147,3012.7,0.00030152,3014,-9.9265e-05,2.6447,-9.9618e-05,-0.0088515,0.63903
6733,11.279,4.5455,0.1,0.00030162,3014.1,0.00030164,3014.8,-9.9407e-05,1.504,-9.9609e-05,-0.013668,0.6385
6734,11.279,4.7273,0.1,0.00030178,3015.7,0.00030178,3015.8,-9.9559e-05,0.28822,-9.9605e-05,-0.061171,0.63792
6735,11.279,4.9091,0.1,0.00030195,3017.4,0.00030193,3016.8,-9.9585e-05,0.012739,-9.9741e-05,-1.1586,0.63726
6736,11.279,5.0909,0.1,0.00030214,3019.3,0.00030209,3018,-9.9575e-05,0.004618,-9.9925e-05,-2.6245,0.63654
6737,11.279,5.2727,0.1,0.00030234,3021.3,0.00030227,3019.2,-9.9565e-05,0.0023068,-0.00010012,-4.1886,0.63576
6738,11.279,5.4545,0.1,0.00030256,3023.5,0.00030246,3020.6,-9.9554e-05,0.0015273,-0.00010033,-5.8412,0.63491
6739,11.279,5.6364,0.1,0.0003028,3025.9,0.00030267,3022.1,-9.9544e-05,0.00011376,-0.00010056,-7.6407,0.63399
6740,11.279,5.8182,0.1,0.00030324,3030.3,0.00030305,3024.9,-9.9535e-05,0.0034003,-0.00010097,-10.747,0.63301
6741,11.464,0.18182,0.1,0.00029817,2979.6,0.00029798,2974,-9.7841e-05,0.0028541,-9.9329e-05,-11.175,0.65209
6742,11.464,0.36364,0.1,0.00029775,2975.4,0.0002976,2971.3,-9.7846e-05,0.0014985,-9.8947e-05,-8.2781,0.65306
6743,11.464,0.54545,0.1,0.00029752,2973.2,0.00029741,2969.8,-9.785e-05,0.0018718,-9.8743e-05,-6.7027,0.65396
6744,11.464,0.72727,0.1,0.00029732,2971.2,0.00029723,2968.6,-9.7856e-05,0.0021564,-9.8557e-05,-5.2668,0.6548
6745,11.464,0.90909,0.1,0.00029714,2969.3,0.00029707,2967.4,-9.7862e-05,0.0029083,-9.8383e-05,-3.9092,0.65557
6746,11.464,1.0909,0.1,0.00029697,2967.6,0.00029692,2966.3,-9.7868e-05,0.0045299,-9.8219e-05,-2.6335,0.65628
6747,11.464,1.2727,0.1,0.00029681,2966,0.00029678,2965.3,-9.7874e-05,0.0089329,-9.8068e-05,-1.4488,0.65692
6748,11.464,1.4545,0.1,0.00029666,2964.6,0.00029666,2964.4,-9.7877e-05,0.037166,-9.7933e-05,-0.3833,0.6575
6749,11.464,1.6364,0.1,0.00029653,2963.3,0.00029654,2963.6,-9.7799e-05,0.66906,-9.7891e-05,-0.023477,0.65802
6750,11.464,1.8182,0.1,0.00029642,2962.1,0.00029644,2962.9,-9.7689e-05,1.54,-9.7895e-05,-0.011177,0.65847
6751,11.464,2,0.1,0.00029632,2961.1,0.00029636,2962.3,-9.7592e-05,2.3059,-9.79e-05,-0.0080944,0.65885
6752,11.464,2.1818,0.1,0.00029624,2960.3,0.00029629,2961.8,-9.7511e-05,2.954,-9.7905e-05,-0.0067649,0.65918
6753,11.464,2.3636,0.1,0.00029617,2959.6,0.00029623,2961.4,-9.7445e-05,3.4786,-9.7909e-05,-0.0060678,0.65943
6754,11.464,2.5455,0.1,0.00029612,2959.1,0.00029618,2961.1,-9.7395e-05,3.8755,-9.7911e-05,-0.0056749,0.65963
6755,11.464,2.7273,0.1,0.00029608,2958.8,0.00029615,2960.9,-9.7361e-05,4.1419,-9.7913e-05,-0.0054563,0.65976
6756,11.464,2.9091,0.1,0.00029607,2958.6,0.00029614,2960.8,-9.7345e-05,4.2755,-9.7914e-05,-0.0053578,0.65982
6757,11.464,3.0909,0.1,0.00029607,2958.6,0.00029614,2960.8,-9.7345e-05,4.2755,-9.7914e-05,-0.0053579,0.65982
6758,11.464,3.2727,0.1,0.00029608,2958.8,0.00029615,2960.9,-9.7361e-05,4.1419,-9.7913e-05,-0.0054565,0.65976
6759,11.464,3.4545,0.1,0.00029612,2959.1,0.00029618,2961.1,-9.7395e-05,3.8755,-9.7911e-05,-0.0056747,0.65963
6760,11.464,3.6364,0.1,0.00029617,2959.6,0.00029623,2961.4,-9.7445e-05,3.4785,-9.7909e-05,-0.0060672,0.65943
6761,11.464,3.8182,0.1,0.00029624,2960.3,0.00029629,2961.8,-9.7511e-05,2.954,-9.7905e-05,-0.0067646,0.65918
6762,11.464,4,0.1,0.00029632,2961.1,0.00029636,2962.3,-9.7592e-05,2.3059,-9.79e-05,-0.0080942,0.65885
6763,11.464,4.1818,0.1,0.00029642,2962.1,0.00029644,2962.9,-9.7689e-05,1.54,-9.7895e-05,-0.011176,0.65847
6764,11.464,4.3636,0.1,0.00029653,2963.3,0.00029654,2963.6,-9.7799e-05,0.66902,-9.7891e-05,-0.023477,0.65802
6765,11.464,4.5455,0.1,0.00029666,2964.6,0.00029666,2964.4,-9.7877e-05,0.037162,-9.7933e-05,-0.38334,0.6575
6766,11.464,4.7273,0.1,0.00029681,2966,0.00029678,2965.3,-9.7874e-05,0.0089323,-9.8068e-05,-1.4489,0.65692
6767,11.464,4.9091,0.1,0.00029697,2967.6,0.00029692,2966.3,-9.7868e-05,0.0045301,-9.8219e-05,-2.6336,0.65628
6768,11.464,5.0909,0.1,0.00029714,2969.3,0.00029707,2967.4,-9.7862e-05,0.0029095,-9.8383e-05,-3.9092,0.65557
6769,11.464,5.2727,0.1,0.00029732,2971.2,0.00029723,2968.6,-9.7856e-05,0.0021575,-9.8557e-05,-5.2669,0.6548
6770,11.464,5.4545,0.1,0.00029752,2973.2,0.00029741,2969.8,-9.785e-05,0.0018724,-9.8743e-05,-6.7027,0.65396
6771,11.464,5.6364,0.1,0.00029775,2975.4,0.0002976,2971.3,-9.7846e-05,0.0014988,-9.8947e-05,-8.2782,0.65306
6772,11.464,5.8182,0.1,0.00029817,2979.6,0.00029798,2974,-9.7841e-05,0.0028548,-9.9329e-05,-11.175,0.65209
6773,11.649,0.18182,0.1,0.00029312,2929.2,0.00029292,2923.4,-9.6156e-05,0.0023969,-9.7698e-05,-11.583,0.67137
6774,11.649,0.36364,0.1,0.00029271,2925.1,0.00029256,2920.7,-9.6155e-05,0.002831,-9.7338e-05,-8.8878,0.67232
6775,11.649,0.54545,0.1,0.00029251,2923.1,0.00029238,2919.3,-9.6155e-05,0.0022117,-9.7157e-05,-7.5272,0.67321
6776,11.649,0.72727,0.1,0.00029233,2921.2,0.00029222,2918.1,-9.6155e-05,0.0021666,-9.6994e-05,-6.2992,0.67404
6777,11.649,0.90909,0.1,0.00029216,2919.6,0.00029207,2917,-9.6157e-05,0.0021529,-9.6841e-05,-5.14,0.6748
6778,11.649,1.0909,0.1,0.000292,2918,0.00029193,2916,-9.6159e-05,0.0023344,-9.6699e-05,-4.0512,0.6755
6779,11.649,1.2727,0.1,0.00029186,2916.6,0.0002918,2915,-9.6162e-05,0.0027959,-9.6567e-05,-3.0383,0.67613
6780,11.649,1.4545,0.1,0.00029173,2915.2,0.00029169,2914.2,-9.6165e-05,0.0038252,-9.6446e-05,-2.1075,0.6767
6781,11.649,1.6364,0.1,0.00029161,2914.1,0.00029159,2913.4,-9.6167e-05,0.0063353,-9.6337e-05,-1.2651,0.67721
6782,11.649,1.8182,0.1,0.0002915,2913,0.0002915,2912.8,-9.6169e-05,0.015769,-9.6241e-05,-0.52182,0.67766
6783,11.649,2,0.1,0.00029141,2912.1,0.00029142,2912.2,-9.6148e-05,0.19379,-9.618e-05,-0.044394,0.67804
6784,11.649,2.1818,0.1,0.00029134,2911.4,0.00029135,2911.7,-9.6082e-05,0.71574,-9.6179e-05,-0.012639,0.67835
6785,11.649,2.3636,0.1,0.00029128,2910.8,0.0002913,2911.4,-9.6025e-05,1.1593,-9.618e-05,-0.0081822,0.67861
6786,11.649,2.5455,0.1,0.00029123,2910.3,0.00029126,2911.1,-9.5982e-05,1.4967,-9.6182e-05,-0.0065916,0.6788
6787,11.649,2.7273,0.1,0.0002912,2910,0.00029123,2910.9,-9.5953e-05,1.7235,-9.6183e-05,-0.0058843,0.67893
6788,11.649,2.9091,0.1,0.00029119,2909.9,0.00029122,2910.8,-9.5938e-05,1.8374,-9.6183e-05,-0.0055977,0.67899
6789,11.649,3.0909,0.1,0.00029119,2909.9,0.00029122,2910.8,-9.5938e-05,1.8374,-9.6183e-05,-0.0055976,0.67899
6790,11.649,3.2727,0.1,0.0002912,2910,0.00029123,2910.9,-9.5953e-05,1.7235,-9.6183e-05,-0.0058844,0.67893
6791,11.649,3.4545,0.1,0.00029123,2910.3,0.00029126,2911.1,-9.5982e-05,1.4967,-9.6182e-05,-0.0065912,0.6788
6792,11.649,3.6364,0.1,0.00029128,2910.8,0.0002913,2911.4,-9.6025e-05,1.1593,-9.618e-05,-0.0081823,0.67861
6793,11.649,3.8182,0.1,0.00029134,2911.4,0.00029135,2911.7,-9.6082e-05,0.71571,-9.6179e-05,-0.012639,0.67835
6794,11.649,4,0.1,0.00029141,2912.1,0.00029142,2912.2,-9.6148e-05,0.19376,-9.618e-05,-0.044399,0.67804
6795,11.649,4.1818,0.1,0.0002915,2913,0.0002915,2912.8,-9.6169e-05,0.015769,-9.6241e-05,-0.52186,0.67766
6796,11.649,4.3636,0.1,0.00029161,2914.1,0.00029159,2913.4,-9.6167e-05,0.0063351,-9.6337e-05,-1.2651,0.67721
6797,11.649,4.5455,0.1,0.00029173,2915.2,0.00029169,2914.2,-9.6165e-05,0.0038252,-9.6446e-05,-2.1075,0.6767
6798,11.649,4.7273,0.1,0.00029186,2916.6,0.0002918,2915,-9.6162e-05,0.0027963,-9.6567e-05,-3.0384,0.67613
6799,11.649,4.9091,0.1,0.000292,2918,0.00029193,2916,-9.6159e-05,0.002335,-9.6699e-05,-4.0512,0.6755
6800,11.649,5.0909,0.1,0.00029216,2919.6,0.00029207,2917,-9.6157e-05,0.0021539,-9.6841e-05,-5.1401,0.6748
6801,11.649,5.2727,0.1,0.00029233,2921.2,0.00029222,2918.1,-9.6155e-05,0.0021681,-9.6994e-05,-6.2993,0.67404
6802,11.649,5.4545,0.1,0.00029251,2923.1,0.00029238,2919.3,-9.6155e-05,0.0022116,-9.7157e-05,-7.5272,0.67321
6803,11.649,5.6364,0.1,0.00029271,2925.1,0.00029256,2920.7,-9.6155e-05,0.0028316,-9.7338e-05,-8.8878,0.67232
6804,11.649,5.8182,0.1,0.00029312,2929.2,0.00029292,2923.4,-9.6156e-05,0.0023972,-9.7698e-05,-11.583,0.67137
6805,11.834,0.18182,0.1,0.0002881,2879,0.00028789,2873,-9.4478e-05,0.0020151,-9.6072e-05,-11.974,0.69085
6806,11.834,0.36364,0.1,0.0002877,2875,0.00028754,2870.3,-9.4471e-05,0.0041248,-9.5733e-05,-9.4729,0.69179
6807,11.834,0.54545,0.1,0.00028751,2873.1,0.00028737,2869,-9.4466e-05,0.0025465,-9.5574e-05,-8.3195,0.69267
6808,11.834,0.72727,0.1,0.00028735,2871.5,0.00028722,2867.8,-9.4463e-05,0.0022589,-9.5434e-05,-7.2919,0.69348
6809,11.834,0.90909,0.1,0.00028719,2870,0.00028709,2866.8,-9.446e-05,0.001762,-9.5302e-05,-6.3241,0.69423
6810,11.834,1.0909,0.1,0.00028705,2868.5,0.00028696,2865.8,-9.4459e-05,0.0013433,-9.518e-05,-5.4158,0.69492
6811,11.834,1.2727,0.1,0.00028692,2867.2,0.00028684,2865,-9.4458e-05,0.00092275,-9.5066e-05,-4.5711,0.69554
6812,11.834,1.4545,0.1,0.0002868,2866.1,0.00028674,2864.2,-9.4457e-05,0.00051108,-9.4962e-05,-3.7941,0.69611
6813,11.834,1.6364,0.1,0.0002867,2865,0.00028665,2863.5,-9.4457e-05,8.9274e-05,-9.4869e-05,-3.0895,0.69661
6814,11.834,1.8182,0.1,0.00028661,2864.1,0.00028656,2862.8,-9.4458e-05,-0.00036706,-9.4785e-05,-2.4614,0.69704
6815,11.834,2,0.1,0.00028653,2863.3,0.00028649,2862.3,-9.4459e-05,-0.00088871,-9.4713e-05,-1.914,0.69742
6816,11.834,2.1818,0.1,0.00028646,2862.6,0.00028643,2861.9,-9.4459e-05,-0.0015257,-9.4652e-05,-1.451,0.69773
6817,11.834,2.3636,0.1,0.0002864,2862.1,0.00028639,2861.5,-9.446e-05,-0.002349,-9.4603e-05,-1.0759,0.69798
6818,11.834,2.5455,0.1,0.00028636,2861.7,0.00028635,2861.3,-9.4461e-05,-0.0034186,-9.4566e-05,-0.7914,0.69817
6819,11.834,2.7273,0.1,0.00028634,2861.4,0.00028633,2861.1,-9.4461e-05,-0.0046617,-9.4541e-05,-0.59992,0.69829
6820,11.834,2.9091,0.1,0.00028632,2861.2,0.00028631,2861,-9.4462e-05,-0.0056291,-9.4528e-05,-0.50344,0.69836
6821,11.834,3.0909,0.1,0.00028632,2861.2,0.00028631,2861,-9.4462e-05,-0.005629,-9.4528e-05,-0.50344,0.69836
6822,11.834,3.2727,0.1,0.00028634,2861.4,0.00028633,2861.1,-9.4461e-05,-0.0046615,-9.4541e-05,-0.59993,0.69829
6823,11.834,3.4545,0.1,0.00028636,2861.7,0.00028635,2861.3,-9.4461e-05,-0.0034187,-9.4566e-05,-0.79142,0.69817
6824,11.834,3.6364,0.1,0.0002864,2862.1,0.00028639,2861.5,-9.446e-05,-0.0023488,-9.4603e-05,-1.0759,0.69798
6825,11.834,3.8182,0.1,0.00028646,2862.6,0.00028643,2861.9,-9.4459e-05,-0.0015253,-9.4652e-05,-1.451,0.69773
6826,11.834,4,0.1,0.00028653,2863.3,0.00028649,2862.3,-9.4459e-05,-0.00088806,-9.4713e-05,-1.914,0.69742
6827,11.834,4.1818,0.1,0.00028661,2864.1,0.00028656,2862.8,-9.4458e-05,-0.00036609,-9.4785e-05,-2.4614,0.69704
6828,11.834,4.3636,0.1,0.0002867,2865,0.00028665,2863.5,-9.4457e-05,8.9359e-05,-9.4869e-05,-3.0895,0.69661
6829,11.834,4.5455,0.1,0.0002868,2866.1,0.00028674,2864.2,-9.4457e-05,0.00051219,-9.4962e-05,-3.7942,0.69611
6830,11.834,4.7273,0.1,0.00028692,2867.2,0.00028684,2865,-9.4458e-05,0.0009233,-9.5066e-05,-4.5711,0.69554
6831,11.834,4.9091,0.1,0.00028705,2868.5,0.00028696,2865.8,-9.4459e-05,0.001344,-9.518e-05,-5.4159,0.69492
6832,11.834,5.0909,0.1,0.00028719,2870,0.00028709,2866.8,-9.446e-05,0.0017629,-9.5302e-05,-6.3242,0.69423
6833,11.834,5.2727,0.1,0.00028735,2871.5,0.00028722,2867.8,-9.4463e-05,0.0022601,-9.5434e-05,-7.292,0.69348
6834,11.834,5.4545,0.1,0.00028751,2873.1,0.00028737,2869,-9.4466e-05,0.0025465,-9.5574e-05,-8.3195,0.69267
6835,11.834,5.6364,0.1,0.0002877,2875,0.00028754,2870.3,-9.4471e-05,0.004125,-9.5733e-05,-9.473,0.69179
6836,11.834,5.8182,0.1,0.0002881,2879,0.00028789,2873,-9.4478e-05,0.0020168,-9.6072e-05,-11.974,0.69085
6837,12.019,0.18182,0.1,0.00028309,2828.9,0.00028288,2822.7,-9.2807e-05,0.0016811,-9.4451e-05,-12.348,0.71053
6838,12.019,0.36364,0.1,0.00028271,2825.1,0.00028254,2820.1,-9.2795e-05,0.0053678,-9.4132e-05,-10.037,0.71146
6839,12.019,0.54545,0.1,0.00028254,2823.4,0.00028238,2818.8,-9.2786e-05,0.0028571,-9.3995e-05,-9.0844,0.71232
6840,12.019,0.72727,0.1,0.00028239,2821.9,0.00028224,2817.8,-9.2778e-05,0.0023766,-9.3876e-05,-8.2513,0.71312
6841,12.019,0.90909,0.1,0.00028225,2820.5,0.00028212,2816.8,-9.2771e-05,0.0015247,-9.3766e-05,-7.4691,0.71386
6842,12.019,1.0909,0.1,0.00028212,2819.3,0.00028201,2815.9,-9.2766e-05,0.00077066,-9.3662e-05,-6.7357,0.71453
6843,12.019,1.2727,0.1,0.000282,2818.1,0.0002819,2815.1,-9.2761e-05,-9.0793e-06,-9.3567e-05,-6.0538,0.71515
6844,12.019,1.4545,0.1,0.0002819,2817,0.00028181,2814.3,-9.2758e-05,-0.00078822,-9.348e-05,-5.4264,0.7157
6845,12.019,1.6364,0.1,0.00028181,2816.1,0.00028172,2813.7,-9.2755e-05,-0.0015758,-9.3401e-05,-4.8569,0.7162
6846,12.019,1.8182,0.1,0.00028172,2815.3,0.00028165,2813.1,-9.2753e-05,-0.0023693,-9.3332e-05,-4.3486,0.71663
6847,12.019,2,0.1,0.00028165,2814.6,0.00028158,2812.6,-9.2752e-05,-0.0031615,-9.3271e-05,-3.9051,0.717
6848,12.019,2.1818,0.1,0.00028159,2814,0.00028153,2812.2,-9.2751e-05,-0.003932,-9.322e-05,-3.5296,0.7173
6849,12.019,2.3636,0.1,0.00028154,2813.5,0.00028149,2811.9,-9.275e-05,-0.0046492,-9.3179e-05,-3.2251,0.71755
6850,12.019,2.5455,0.1,0.00028151,2813.1,0.00028146,2811.6,-9.275e-05,-0.0052668,-9.3147e-05,-2.9942,0.71773
6851,12.019,2.7273,0.1,0.00028148,2812.9,0.00028143,2811.5,-9.2749e-05,-0.0057251,-9.3126e-05,-2.8391,0.71786
6852,12.019,2.9091,0.1,0.00028147,2812.8,0.00028142,2811.4,-9.2749e-05,-0.0059701,-9.3116e-05,-2.7612,0.71792
6853,12.019,3.0909,0.1,0.00028147,2812.8,0.00028142,2811.4,-9.2749e-05,-0.0059703,-9.3116e-05,-2.7612,0.71792
6854,12.019,3.2727,0.1,0.00028148,2812.9,0.00028143,2811.5,-9.2749e-05,-0.0057246,-9.3126e-05,-2.8391,0.71786
6855,12.019,3.4545,0.1,0.00028151,2813.1,0.00028146,2811.6,-9.275e-05,-0.0052666,-9.3147e-05,-2.9943,0.71773
6856,12.019,3.6364,0.1,0.00028154,2813.5,0.00028149,2811.9,-9.275e-05,-0.0046496,-9.3179e-05,-3.2251,0.71755
6857,12.019,3.8182,0.1,0.00028159,2814,0.00028153,2812.2,-9.2751e-05,-0.0039317,-9.322e-05,-3.5296,0.7173
6858,12.019,4,0.1,0.00028165,2814.6,0.00028158,2812.6,-9.2752e-05,-0.0031613,-9.3271e-05,-3.9051,0.717
6859,12.019,4.1818,0.1,0.00028172,2815.3,0.00028165,2813.1,-9.2753e-05,-0.002369,-9.3332e-05,-4.3487,0.71663
6860,12.019,4.3636,0.1,0.00028181,2816.1,0.00028172,2813.7,-9.2755e-05,-0.0015752,-9.3401e-05,-4.8569,0.7162
6861,12.019,4.5455,0.1,0.0002819,2817,0.00028181,2814.3,-9.2758e-05,-0.00078752,-9.348e-05,-5.4264,0.7157
6862,12.019,4.7273,0.1,0.000282,2818.1,0.0002819,2815.1,-9.2761e-05,-8.7896e-06,-9.3567e-05,-6.0538,0.71515
6863,12.019,4.9091,0.1,0.00028212,2819.3,0.00028201,2815.9,-9.2766e-05,0.00077093,-9.3662e-05,-6.7358,0.71453
6864,12.019,5.0909,0.1,0.00028225,2820.5,0.00028212,2816.8,-9.2771e-05,0.0015261,-9.3766e-05,-7.4691,0.71386
6865,12.019,5.2727,0.1,0.00028239,2821.9,0.00028224,2817.8,-9.2778e-05,0.0023775,-9.3876e-05,-8.2513,0.71312
6866,12.019,5.4545,0.1,0.00028254,2823.4,0.00028238,2818.8,-9.2786e-05,0.002857,-9.3995e-05,-9.0844,0.71232
6867,12.019,5.6364,0.1,0.00028271,2825.1,0.00028254,2820.1,-9.2795e-05,0.0053682,-9.4132e-05,-10.037,0.71146
6868,12.019,5.8182,0.1,0.00028309,2828.9,0.00028288,2822.7,-9.2807e-05,0.0016826,-9.4451e-05,-12.348,0.71053
6869,12.204,0.18182,0.1,0.0002781,2779.1,0.00027788,2772.7,-9.1143e-05,0.0014069,-9.2834e-05,-12.707,0.7304
6870,12.204,0.36364,0.1,0.00027773,2775.4,0.00027755,2770.1,-9.1127e-05,0.0065921,-9.2536e-05,-10.582,0.73131
6871,12.204,0.54545,0.1,0.00027758,2773.8,0.00027741,2768.9,-9.1113e-05,0.003165,-9.2421e-05,-9.8265,0.73216
6872,12.204,0.72727,0.1,0.00027744,2772.5,0.00027729,2767.9,-9.1101e-05,0.0025213,-9.2323e-05,-9.1834,0.73295
6873,12.204,0.90909,0.1,0.00027732,2771.3,0.00027717,2767,-9.109e-05,0.0013843,-9.2232e-05,-8.5822,0.73367
6874,12.204,1.0909,0.1,0.00027721,2770.2,0.00027707,2766.1,-9.1081e-05,0.00040379,-9.2148e-05,-8.0193,0.73434
6875,12.204,1.2727,0.1,0.0002771,2769.1,0.00027698,2765.4,-9.1073e-05,-0.00057644,-9.2071e-05,-7.4958,0.73495
6876,12.204,1.4545,0.1,0.00027701,2768.2,0.00027689,2764.7,-9.1066e-05,-0.0015106,-9.2e-05,-7.0136,0.73549
6877,12.204,1.6364,0.1,0.00027693,2767.4,0.00027682,2764.1,-9.1061e-05,-0.0023996,-9.1936e-05,-6.575,0.73598
6878,12.204,1.8182,0.1,0.00027686,2766.7,0.00027675,2763.6,-9.1057e-05,-0.0032331,-9.1879e-05,-6.1828,0.7364
6879,12.204,2,0.1,0.00027679,2766,0.00027669,2763.1,-9.1053e-05,-0.0039994,-9.183e-05,-5.8397,0.73677
6880,12.204,2.1818,0.1,0.00027674,2765.5,0.00027665,2762.7,-9.105e-05,-0.00468,-9.1788e-05,-5.5485,0.73707
6881,12.204,2.3636,0.1,0.0002767,2765.1,0.00027661,2762.4,-9.1048e-05,-0.0052594,-9.1754e-05,-5.3118,0.73731
6882,12.204,2.5455,0.1,0.00027667,2764.8,0.00027658,2762.2,-9.1047e-05,-0.0057178,-9.1729e-05,-5.1321,0.73749
6883,12.204,2.7273,0.1,0.00027665,2764.6,0.00027656,2762.1,-9.1046e-05,-0.0060354,-9.1712e-05,-5.0111,0.73761
6884,12.204,2.9091,0.1,0.00027664,2764.5,0.00027655,2762,-9.1045e-05,-0.0061975,-9.1703e-05,-4.9503,0.73767
6885,12.204,3.0909,0.1,0.00027664,2764.5,0.00027655,2762,-9.1045e-05,-0.0061976,-9.1703e-05,-4.9503,0.73767
6886,12.204,3.2727,0.1,0.00027665,2764.6,0.00027656,2762.1,-9.1046e-05,-0.0060352,-9.1712e-05,-5.0111,0.73761
6887,12.204,3.4545,0.1,0.00027667,2764.8,0.00027658,2762.2,-9.1047e-05,-0.0057178,-9.1729e-05,-5.1321,0.73749
6888,12.204,3.6364,0.1,0.0002767,2765.1,0.00027661,2762.4,-9.1048e-05,-0.0052589,-9.1754e-05,-5.3118,0.73731
6889,12.204,3.8182,0.1,0.00027674,2765.5,0.00027665,2762.7,-9.105e-05,-0.00468,-9.1788e-05,-5.5485,0.73707
6890,12.204,4,0.1,0.00027679,2766,0.00027669,2763.1,-9.1053e-05,-0.0039987,-9.183e-05,-5.8397,0.73677
6891,12.204,4.1818,0.1,0.00027686,2766.7,0.00027675,2763.6,-9.1057e-05,-0.0032328,-9.1879e-05,-6.1829,0.7364
6892,12.204,4.3636,0.1,0.00027693,2767.4,0.00027682,2764.1,-9.1061e-05,-0.0023992,-9.1936e-05,-6.5751,0.73598
6893,12.204,4.5455,0.1,0.00027701,2768.2,0.00027689,2764.7,-9.1066e-05,-0.0015102,-9.2e-05,-7.0136,0.73549
6894,12.204,4.7273,0.1,0.0002771,2769.1,0.00027698,2765.4,-9.1073e-05,-0.00057615,-9.2071e-05,-7.4958,0.73495
6895,12.204,4.9091,0.1,0.00027721,2770.2,0.00027707,2766.1,-9.1081e-05,0.0004044,-9.2148e-05,-8.0193,0.73434
6896,12.204,5.0909,0.1,0.00027732,2771.3,0.00027717,2767,-9.109e-05,0.0013859,-9.2232e-05,-8.5823,0.73367
6897,12.204,5.2727,0.1,0.00027744,2772.5,0.00027729,2767.9,-9.1101e-05,0.0025225,-9.2323e-05,-9.1834,0.73295
6898,12.204,5.4545,0.1,0.00027758,2773.8,0.00027741,2768.9,-9.1113e-05,0.003165,-9.2421e-05,-9.8265,0.73216
6899,12.204,5.6364,0.1,0.00027773,2775.4,0.00027755,2770.1,-9.1127e-05,0.0065937,-9.2536e-05,-10.582,0.73131
6900,12.204,5.8182,0.1,0.0002781,2779.1,0.00027788,2772.7,-9.1143e-05,0.0014077,-9.2834e-05,-12.707,0.7304
6901,12.389,0.18182,0.1,0.00027313,2729.4,0.00027291,2722.9,-8.9486e-05,0.0012077,-9.1223e-05,-13.053,0.75046
6902,12.389,0.36364,0.1,0.00027278,2725.9,0.00027259,2720.3,-8.9465e-05,0.0078322,-9.0945e-05,-11.112,0.75136
6903,12.389,0.54545,0.1,0.00027264,2724.5,0.00027246,2719.2,-8.9447e-05,0.0034949,-9.0851e-05,-10.55,0.75219
6904,12.389,0.72727,0.1,0.00027252,2723.3,0.00027235,2718.2,-8.943e-05,0.0027079,-9.0774e-05,-10.094,0.75297
6905,12.389,0.90909,0.1,0.00027241,2722.2,0.00027224,2717.4,-8.9416e-05,0.0013222,-9.0703e-05,-9.6709,0.75368
6906,12.389,1.0909,0.1,0.00027231,2721.2,0.00027215,2716.6,-8.9403e-05,0.00017041,-9.0638e-05,-9.2751,0.75434
6907,12.389,1.2727,0.1,0.00027222,2720.3,0.00027207,2715.9,-8.9392e-05,-0.00094677,-9.0577e-05,-8.9065,0.75493
6908,12.389,1.4545,0.1,0.00027214,2719.5,0.000272,2715.3,-8.9383e-05,-0.0019694,-9.0522e-05,-8.5659,0.75547
6909,12.389,1.6364,0.1,0.00027207,2718.8,0.00027193,2714.7,-8.9375e-05,-0.0029033,-9.0473e-05,-8.2548,0.75595
6910,12.389,1.8182,0.1,0.00027201,2718.2,0.00027187,2714.2,-8.9368e-05,-0.0037404,-9.0429e-05,-7.9751,0.75637
6911,12.389,2,0.1,0.00027195,2717.7,0.00027182,2713.8,-8.9362e-05,-0.0044741,-9.039e-05,-7.729,0.75672
6912,12.389,2.1818,0.1,0.00027191,2717.2,0.00027178,2713.5,-8.9358e-05,-0.0050985,-9.0358e-05,-7.519,0.75702
6913,12.389,2.3636,0.1,0.00027187,2716.9,0.00027175,2713.2,-8.9354e-05,-0.0056067,-9.0332e-05,-7.3476,0.75726
6914,12.389,2.5455,0.1,0.00027185,2716.6,0.00027172,2713,-8.9352e-05,-0.0059952,-9.0312e-05,-7.2169,0.75744
6915,12.389,2.7273,0.1,0.00027183,2716.4,0.00027171,2712.8,-8.935e-05,-0.0062569,-9.0298e-05,-7.1287,0.75756
6916,12.389,2.9091,0.1,0.00027182,2716.3,0.0002717,2712.8,-8.935e-05,-0.0063881,-9.0292e-05,-7.0842,0.75762
6917,12.389,3.0909,0.1,0.00027182,2716.3,0.0002717,2712.8,-8.935e-05,-0.006388,-9.0292e-05,-7.0842,0.75762
6918,12.389,3.2727,0.1,0.00027183,2716.4,0.00027171,2712.8,-8.935e-05,-0.0062568,-9.0298e-05,-7.1287,0.75756
6919,12.389,3.4545,0.1,0.00027185,2716.6,0.00027172,2713,-8.9352e-05,-0.0059953,-9.0312e-05,-7.2169,0.75744
6920,12.389,3.6364,0.1,0.00027187,2716.9,0.00027175,2713.2,-8.9354e-05,-0.0056068,-9.0332e-05,-7.3476,0.75726
6921,12.389,3.8182,0.1,0.00027191,2717.2,0.00027178,2713.5,-8.9358e-05,-0.0050978,-9.0358e-05,-7.5191,0.75702
6922,12.389,4,0.1,0.00027195,2717.7,0.00027182,2713.8,-8.9362e-05,-0.004474,-9.039e-05,-7.729,0.75672
6923,12.389,4.1818,0.1,0.00027201,2718.2,0.00027187,2714.2,-8.9368e-05,-0.00374,-9.0429e-05,-7.9751,0.75637
6924,12.389,4.3636,0.1,0.00027207,2718.8,0.00027193,2714.7,-8.9375e-05,-0.0029028,-9.0473e-05,-8.2549,0.75595
6925,12.389,4.5455,0.1,0.00027214,2719.5,0.000272,2715.3,-8.9383e-05,-0.0019692,-9.0522e-05,-8.566,0.75547
6926,12.389,4.7273,0.1,0.00027222,2720.3,0.00027207,2715.9,-8.9392e-05,-0.00094599,-9.0577e-05,-8.9066,0.75493
6927,12.389,4.9091,0.1,0.00027231,2721.2,0.00027215,2716.6,-8.9403e-05,0.00017086,-9.0638e-05,-9.2752,0.75434
6928,12.389,5.0909,0.1,0.00027241,2722.2,0.00027224,2717.4,-8.9416e-05,0.0013247,-9.0703e-05,-9.671,0.75368
6929,12.389,5.2727,0.1,0.00027252,2723.3,0.00027235,2718.2,-8.943e-05,0.0027084,-9.0774e-05,-10.094,0.75297
6930,12.389,5.4545,0.1,0.00027264,2724.5,0.00027246,2719.2,-8.9447e-05,0.003495,-9.0851e-05,-10.55,0.75219
6931,12.389,5.6364,0.1,0.00027278,2725.9,0.00027259,2720.3,-8.9465e-05,0.0078321,-9.0945e-05,-11.112,0.75136
6932,12.389,5.8182,0.1,0.00027313,2729.4,0.00027291,2722.9,-8.9486e-05,0.001208,-9.1223e-05,-13.053,0.75046
6933,12.574,0.18182,0.1,0.00026818,2680,0.00026795,2673.2,-8.7836e-05,0.0010208,-8.9617e-05,-13.386,0.77071
6934,12.574,0.36364,0.1,0.00026784,2676.5,0.00026764,2670.7,-8.781e-05,0.0090315,-8.9359e-05,-11.63,0.77159
6935,12.574,0.54545,0.1,0.00026772,2675.3,0.00026752,2669.7,-8.7787e-05,0.0037847,-8.9287e-05,-11.261,0.77241
6936,12.574,0.72727,0.1,0.00026761,2674.3,0.00026742,2668.8,-8.7767e-05,0.0028649,-8.923e-05,-10.99,0.77317
6937,12.574,0.90909,0.1,0.00026752,2673.3,0.00026734,2668,-8.7749e-05,0.0012576,-8.9179e-05,-10.743,0.77387
6938,12.574,1.0909,0.1,0.00026744,2672.5,0.00026726,2667.2,-8.7732e-05,-3.7871e-05,-8.9132e-05,-10.512,0.77452
6939,12.574,1.2727,0.1,0.00026736,2671.8,0.00026718,2666.6,-8.7718e-05,-0.0012601,-8.9088e-05,-10.296,0.77511
6940,12.574,1.4545,0.1,0.00026729,2671.1,0.00026712,2666,-8.7706e-05,-0.0023463,-8.9049e-05,-10.094,0.77563
6941,12.574,1.6364,0.1,0.00026723,2670.5,0.00026706,2665.5,-8.7695e-05,-0.0033077,-8.9014e-05,-9.9075,0.7761
6942,12.574,1.8182,0.1,0.00026718,2669.9,0.00026701,2665.1,-8.7687e-05,-0.0041432,-8.8982e-05,-9.7372,0.77652
6943,12.574,2,0.1,0.00026713,2669.5,0.00026697,2664.7,-8.7679e-05,-0.0048543,-8.8954e-05,-9.5853,0.77687
6944,12.574,2.1818,0.1,0.0002671,2669.1,0.00026693,2664.4,-8.7673e-05,-0.0054425,-8.8931e-05,-9.4539,0.77716
6945,12.574,2.3636,0.1,0.00026706,2668.8,0.0002669,2664.1,-8.7669e-05,-0.0059105,-8.8912e-05,-9.3453,0.7774
6946,12.574,2.5455,0.1,0.00026704,2668.6,0.00026688,2663.9,-8.7665e-05,-0.0062602,-8.8897e-05,-9.2617,0.77757
6947,12.574,2.7273,0.1,0.00026703,2668.4,0.00026687,2663.8,-8.7663e-05,-0.0064918,-8.8887e-05,-9.2049,0.77769
6948,12.574,2.9091,0.1,0.00026702,2668.3,0.00026686,2663.7,-8.7662e-05,-0.006607,-8.8882e-05,-9.1762,0.77775
6949,12.574,3.0909,0.1,0.00026702,2668.3,0.00026686,2663.7,-8.7662e-05,-0.0066075,-8.8882e-05,-9.1762,0.77775
6950,12.574,3.2727,0.1,0.00026703,2668.4,0.00026687,2663.8,-8.7663e-05,-0.0064918,-8.8887e-05,-9.2049,0.77769
6951,12.574,3.4545,0.1,0.00026704,2668.6,0.00026688,2663.9,-8.7665e-05,-0.00626,-8.8897e-05,-9.2617,0.77757
6952,12.574,3.6364,0.1,0.00026706,2668.8,0.0002669,2664.1,-8.7669e-05,-0.0059098,-8.8912e-05,-9.3453,0.7774
6953,12.574,3.8182,0.1,0.0002671,2669.1,0.00026693,2664.4,-8.7673e-05,-0.0054419,-8.8931e-05,-9.4539,0.77716
6954,12.574,4,0.1,0.00026713,2669.5,0.00026697,2664.7,-8.7679e-05,-0.0048544,-8.8954e-05,-9.5853,0.77687
6955,12.574,4.1818,0.1,0.00026718,2669.9,0.00026701,2665.1,-8.7687e-05,-0.004143,-8.8982e-05,-9.7373,0.77652
6956,12.574,4.3636,0.1,0.00026723,2670.5,0.00026706,2665.5,-8.7695e-05,-0.0033071,-8.9014e-05,-9.9075,0.7761
6957,12.574,4.5455,0.1,0.00026729,2671.1,0.00026712,2666,-8.7706e-05,-0.0023462,-8.9049e-05,-10.094,0.77563
6958,12.574,4.7273,0.1,0.00026736,2671.8,0.00026718,2666.6,-8.7718e-05,-0.0012595,-8.9088e-05,-10.296,0.77511
6959,12.574,4.9091,0.1,0.00026744,2672.5,0.00026726,2667.2,-8.7732e-05,-3.7212e-05,-8.9132e-05,-10.512,0.77452
6960,12.574,5.0909,0.1,0.00026752,2673.3,0.00026734,2668,-8.7749e-05,0.0012593,-8.9179e-05,-10.743,0.77387
6961,12.574,5.2727,0.1,0.00026761,2674.3,0.00026742,2668.8,-8.7767e-05,0.0028661,-8.923e-05,-10.99,0.77317
6962,12.574,5.4545,0.1,0.00026772,2675.3,0.00026752,2669.7,-8.7787e-05,0.0037856,-8.9287e-05,-11.261,0.77241
6963,12.574,5.6364,0.1,0.00026784,2676.5,0.00026764,2670.7,-8.781e-05,0.0090322,-8.9359e-05,-11.63,0.77159
6964,12.574,5.8182,0.1,0.00026818,2680,0.00026795,2673.2,-8.7836e-05,0.0010212,-8.9617e-05,-13.386,0.77071
6965,12.758,0.18182,0.1,0.00026325,2630.7,0.00026301,2623.8,-8.6192e-05,0.00086563,-8.8016e-05,-13.708,0.79114
6966,12.758,0.36364,0.1,0.00026292,2627.4,0.00026271,2621.3,-8.6161e-05,0.010228,-8.7778e-05,-12.139,0.792
6967,12.758,0.54545,0.1,0.00026281,2626.3,0.00026261,2620.3,-8.6134e-05,0.00406,-8.7727e-05,-11.963,0.79281
6968,12.758,0.72727,0.1,0.00026273,2625.4,0.00026252,2619.5,-8.611e-05,0.0030142,-8.7691e-05,-11.878,0.79356
6969,12.758,0.90909,0.1,0.00026265,2624.7,0.00026244,2618.7,-8.6088e-05,0.0011972,-8.766e-05,-11.806,0.79425
6970,12.758,1.0909,0.1,0.00026258,2624,0.00026238,2618.1,-8.6069e-05,-0.0002242,-8.7631e-05,-11.739,0.79488
6971,12.758,1.2727,0.1,0.00026252,2623.3,0.00026231,2617.5,-8.6051e-05,-0.0015363,-8.7605e-05,-11.674,0.79546
6972,12.758,1.4545,0.1,0.00026246,2622.8,0.00026226,2617,-8.6036e-05,-0.0026728,-8.7581e-05,-11.609,0.79598
6973,12.758,1.6364,0.1,0.00026241,2622.3,0.00026221,2616.5,-8.6023e-05,-0.0036555,-8.7559e-05,-11.544,0.79644
6974,12.758,1.8182,0.1,0.00026237,2621.9,0.00026217,2616.1,-8.6012e-05,-0.0044906,-8.754e-05,-11.481,0.79685
6975,12.758,2,0.1,0.00026233,2621.5,0.00026213,2615.8,-8.6003e-05,-0.0051865,-8.7523e-05,-11.42,0.7972
6976,12.758,2.1818,0.1,0.0002623,2621.2,0.0002621,2615.5,-8.5996e-05,-0.0057501,-8.7508e-05,-11.365,0.79748
6977,12.758,2.3636,0.1,0.00026228,2620.9,0.00026208,2615.3,-8.599e-05,-0.0061908,-8.7496e-05,-11.317,0.79772
6978,12.758,2.5455,0.1,0.00026226,2620.8,0.00026206,2615.1,-8.5986e-05,-0.0065157,-8.7486e-05,-11.279,0.79789
6979,12.758,2.7273,0.1,0.00026224,2620.6,0.00026205,2615,-8.5983e-05,-0.0067288,-8.748e-05,-11.252,0.798
6980,12.758,2.9091,0.1,0.00026224,2620.6,0.00026204,2614.9,-8.5982e-05,-0.0068344,-8.7477e-05,-11.239,0.79806
6981,12.758,3.0909,0.1,0.00026224,2620.6,0.00026204,2614.9,-8.5982e-05,-0.0068341,-8.7477e-05,-11.239,0.79806
6982,12.758,3.2727,0.1,0.00026224,2620.6,0.00026205,2615,-8.5983e-05,-0.0067288,-8.748e-05,-11.252,0.798
6983,12.758,3.4545,0.1,0.00026226,2620.8,0.00026206,2615.1,-8.5986e-05,-0.0065156,-8.7486e-05,-11.279,0.79789
6984,12.758,3.6364,0.1,0.00026228,2620.9,0.00026208,2615.3,-8.599e-05,-0.0061908,-8.7496e-05,-11.317,0.79772
6985,12.758,3.8182,0.1,0.0002623,2621.2,0.0002621,2615.5,-8.5996e-05,-0.0057497,-8.7508e-05,-11.365,0.79748
6986,12.758,4,0.1,0.00026233,2621.5,0.00026213,2615.8,-8.6003e-05,-0.0051864,-8.7523e-05,-11.42,0.7972
6987,12.758,4.1818,0.1,0.00026237,2621.9,0.00026217,2616.1,-8.6012e-05,-0.0044902,-8.754e-05,-11.481,0.79685
6988,12.758,4.3636,0.1,0.00026241,2622.3,0.00026221,2616.5,-8.6023e-05,-0.0036555,-8.7559e-05,-11.544,0.79644
6989,12.758,4.5455,0.1,0.00026246,2622.8,0.00026226,2617,-8.6036e-05,-0.0026716,-8.7581e-05,-11.609,0.79598
6990,12.758,4.7273,0.1,0.00026252,2623.3,0.00026231,2617.5,-8.6051e-05,-0.001536,-8.7605e-05,-11.674,0.79546
6991,12.758,4.9091,0.1,0.00026258,2624,0.00026238,2618.1,-8.6069e-05,-0.00022331,-8.7631e-05,-11.739,0.79488
6992,12.758,5.0909,0.1,0.00026265,2624.7,0.00026244,2618.7,-8.6088e-05,0.0011986,-8.766e-05,-11.806,0.79425
6993,12.758,5.2727,0.1,0.00026273,2625.4,0.00026252,2619.5,-8.611e-05,0.0030152,-8.7691e-05,-11.878,0.79356
6994,12.758,5.4545,0.1,0.00026281,2626.3,0.00026261,2620.3,-8.6134e-05,0.0040602,-8.7727e-05,-11.963,0.79281
6995,12.758,5.6364,0.1,0.00026292,2627.4,0.00026271,2621.3,-8.6161e-05,0.010227,-8.7778e-05,-12.139,0.792
6996,12.758,5.8182,0.1,0.00026325,2630.7,0.00026301,2623.8,-8.6192e-05,0.00086564,-8.8016e-05,-13.708,0.79114
6997,12.943,0.18182,0.1,0.00025833,2581.5,0.00025809,2574.5,-8.4554e-05,0.0007627,-8.642e-05,-14.02,0.81174
6998,12.943,0.36364,0.1,0.00025802,2578.4,0.0002578,2572.1,-8.4519e-05,0.011449,-8.6203e-05,-12.641,0.81259
6999,12.943,0.54545,0.1,0.00025793,2577.5,0.00025771,2571.1,-8.4488e-05,0.0043415,-8.6173e-05,-12.661,0.81339
7000,12.943,0.72727,0.1,0.00025786,2576.8,0.00025764,2570.4,-8.4459e-05,0.0031708,-8.6158e-05,-12.763,0.81412
7001,12.943,0.90909,0.1,0.00025779,2576.2,0.00025757,2569.7,-8.4434e-05,0.0011529,-8.6147e-05,-12.868,0.8148
7002,12.943,1.0909,0.1,0.00025774,2575.6,0.00025752,2569.1,-8.4411e-05,-0.00038408,-8.6136e-05,-12.965,0.81543
7003,12.943,1.2727,0.1,0.00025769,2575.1,0.00025747,2568.6,-8.4391e-05,-0.0017765,-8.6127e-05,-13.05,0.816
7004,12.943,1.4545,0.1,0.00025765,2574.7,0.00025742,2568.1,-8.4373e-05,-0.0029567,-8.6119e-05,-13.12,0.81651
7005,12.943,1.6364,0.1,0.00025761,2574.3,0.00025738,2567.7,-8.4358e-05,-0.0039588,-8.6111e-05,-13.176,0.81696
7006,12.943,1.8182,0.1,0.00025758,2574,0.00025735,2567.4,-8.4345e-05,-0.0047942,-8.6104e-05,-13.218,0.81736
7007,12.943,2,0.1,0.00025755,2573.7,0.00025732,2567.1,-8.4334e-05,-0.0054777,-8.6097e-05,-13.246,0.8177
7008,12.943,2.1818,0.1,0.00025752,2573.5,0.0002573,2566.8,-8.4326e-05,-0.0060229,-8.609e-05,-13.265,0.81799
7009,12.943,2.3636,0.1,0.00025751,2573.3,0.00025728,2566.6,-8.4319e-05,-0.0064441,-8.6085e-05,-13.275,0.81821
7010,12.943,2.5455,0.1,0.00025749,2573.1,0.00025726,2566.5,-8.4314e-05,-0.006751,-8.6081e-05,-13.281,0.81838
7011,12.943,2.7273,0.1,0.00025748,2573,0.00025725,2566.4,-8.4311e-05,-0.0069504,-8.6078e-05,-13.283,0.8185
7012,12.943,2.9091,0.1,0.00025748,2573,0.00025725,2566.3,-8.4309e-05,-0.0070486,-8.6076e-05,-13.284,0.81855
7013,12.943,3.0909,0.1,0.00025748,2573,0.00025725,2566.3,-8.4309e-05,-0.0070481,-8.6076e-05,-13.284,0.81855
7014,12.943,3.2727,0.1,0.00025748,2573,0.00025725,2566.4,-8.4311e-05,-0.0069506,-8.6078e-05,-13.283,0.8185
7015,12.943,3.4545,0.1,0.00025749,2573.1,0.00025726,2566.5,-8.4314e-05,-0.0067514,-8.6081e-05,-13.281,0.81838
7016,12.943,3.6364,0.1,0.00025751,2573.3,0.00025728,2566.6,-8.4319e-05,-0.006444,-8.6085e-05,-13.275,0.81821
7017,12.943,3.8182,0.1,0.00025752,2573.5,0.0002573,2566.8,-8.4326e-05,-0.0060232,-8.609e-05,-13.265,0.81799
7018,12.943,4,0.1,0.00025755,2573.7,0.00025732,2567.1,-8.4334e-05,-0.0054777,-8.6097e-05,-13.246,0.8177
7019,12.943,4.1818,0.1,0.00025758,2574,0.00025735,2567.4,-8.4345e-05,-0.0047934,-8.6104e-05,-13.218,0.81736
7020,12.943,4.3636,0.1,0.00025761,2574.3,0.00025738,2567.7,-8.4358e-05,-0.0039582,-8.6111e-05,-13.176,0.81696
7021,12.943,4.5455,0.1,0.00025765,2574.7,0.00025742,2568.1,-8.4373e-05,-0.0029568,-8.6119e-05,-13.12,0.81651
7022,12.943,4.7273,0.1,0.00025769,2575.1,0.00025747,2568.6,-8.4391e-05,-0.0017757,-8.6127e-05,-13.05,0.816
7023,12.943,4.9091,0.1,0.00025774,2575.6,0.00025752,2569.1,-8.4411e-05,-0.00038283,-8.6136e-05,-12.965,0.81543
7024,12.943,5.0909,0.1,0.00025779,2576.2,0.00025757,2569.7,-8.4434e-05,0.0011536,-8.6147e-05,-12.868,0.8148
7025,12.943,5.2727,0.1,0.00025786,2576.8,0.00025764,2570.4,-8.4459e-05,0.0031727,-8.6158e-05,-12.763,0.81412
7026,12.943,5.4545,0.1,0.00025793,2577.5,0.00025771,2571.1,-8.4488e-05,0.0043419,-8.6173e-05,-12.661,0.81339
7027,12.943,5.6364,0.1,0.00025802,2578.4,0.0002578,2572.1,-8.4519e-05,0.011449,-8.6203e-05,-12.642,0.81259
7028,12.943,5.8182,0.1,0.00025833,2581.5,0.00025809,2574.5,-8.4554e-05,0.00076288,-8.642e-05,-14.02,0.81174
7029,13.128,0.18182,0.1,0.00025343,2532.6,0.00025319,2525.4,-8.2922e-05,0.00069574,-8.4829e-05,-14.323,0.83252
7030,13.128,0.36364,0.1,0.00025314,2529.6,0.00025291,2523,-8.2882e-05,0.01269,-8.4633e-05,-13.142,0.83336
7031,13.128,0.54545,0.1,0.00025306,2528.9,0.00025283,2522.2,-8.2847e-05,0.0046102,-8.4626e-05,-13.361,0.83414
7032,13.128,0.72727,0.1,0.00025301,2528.3,0.00025277,2521.5,-8.2815e-05,0.0033161,-8.4632e-05,-13.653,0.83486
7033,13.128,0.90909,0.1,0.00025296,2527.9,0.00025272,2520.9,-8.2786e-05,0.0010988,-8.4641e-05,-13.937,0.83553
7034,13.128,1.0909,0.1,0.00025292,2527.5,0.00025268,2520.3,-8.2759e-05,-0.00054669,-8.4649e-05,-14.199,0.83615
7035,13.128,1.2727,0.1,0.00025289,2527.1,0.00025264,2519.9,-8.2736e-05,-0.0020141,-8.4657e-05,-14.435,0.83671
7036,13.128,1.4545,0.1,0.00025286,2526.8,0.0002526,2519.5,-8.2716e-05,-0.0032347,-8.4664e-05,-14.64,0.83721
7037,13.128,1.6364,0.1,0.00025283,2526.5,0.00025257,2519.1,-8.2699e-05,-0.0042538,-8.467e-05,-14.815,0.83766
7038,13.128,1.8182,0.1,0.00025281,2526.3,0.00025255,2518.8,-8.2684e-05,-0.0050888,-8.4675e-05,-14.959,0.83805
7039,13.128,2,0.1,0.00025279,2526.1,0.00025253,2518.5,-8.2672e-05,-0.0057628,-8.4678e-05,-15.075,0.83838
7040,13.128,2.1818,0.1,0.00025277,2526,0.00025251,2518.3,-8.2662e-05,-0.0062935,-8.468e-05,-15.165,0.83866
7041,13.128,2.3636,0.1,0.00025276,2525.8,0.00025249,2518.2,-8.2655e-05,-0.0066972,-8.4681e-05,-15.232,0.83889
7042,13.128,2.5455,0.1,0.00025275,2525.7,0.00025248,2518,-8.2649e-05,-0.0069889,-8.4682e-05,-15.279,0.83905
7043,13.128,2.7273,0.1,0.00025274,2525.7,0.00025248,2518,-8.2645e-05,-0.0071773,-8.4682e-05,-15.309,0.83917
7044,13.128,2.9091,0.1,0.00025274,2525.6,0.00025247,2517.9,-8.2644e-05,-0.0072693,-8.4682e-05,-15.323,0.83922
7045,13.128,3.0909,0.1,0.00025274,2525.6,0.00025247,2517.9,-8.2644e-05,-0.0072694,-8.4682e-05,-15.323,0.83922
7046,13.128,3.2727,0.1,0.00025274,2525.7,0.00025248,2518,-8.2645e-05,-0.0071768,-8.4682e-05,-15.309,0.83917
7047,13.128,3.4545,0.1,0.00025275,2525.7,0.00025248,2518,-8.2649e-05,-0.0069889,-8.4682e-05,-15.279,0.83905
7048,13.128,3.6364,0.1,0.00025276,2525.8,0.00025249,2518.2,-8.2655e-05,-0.0066967,-8.4681e-05,-15.232,0.83889
7049,13.128,3.8182,0.1,0.00025277,2526,0.00025251,2518.3,-8.2662e-05,-0.0062927,-8.468e-05,-15.165,0.83866
7050,13.128,4,0.1,0.00025279,2526.1,0.00025253,2518.5,-8.2672e-05,-0.0057627,-8.4678e-05,-15.075,0.83838
7051,13.128,4.1818,0.1,0.00025281,2526.3,0.00025255,2518.8,-8.2684e-05,-0.0050882,-8.4675e-05,-14.959,0.83805
7052,13.128,4.3636,0.1,0.00025283,2526.5,0.00025257,2519.1,-8.2699e-05,-0.0042528,-8.467e-05,-14.815,0.83766
7053,13.128,4.5455,0.1,0.00025286,2526.8,0.0002526,2519.5,-8.2716e-05,-0.0032347,-8.4664e-05,-14.64,0.83721
7054,13.128,4.7273,0.1,0.00025289,2527.1,0.00025264,2519.9,-8.2736e-05,-0.002014,-8.4657e-05,-14.435,0.83671
7055,13.128,4.9091,0.1,0.00025292,2527.5,0.00025268,2520.3,-8.2759e-05,-0.00054691,-8.4649e-05,-14.199,0.83615
7056,13.128,5.0909,0.1,0.00025296,2527.9,0.00025272,2520.9,-8.2786e-05,0.0010996,-8.4641e-05,-13.937,0.83553
7057,13.128,5.2727,0.1,0.00025301,2528.3,0.00025277,2521.5,-8.2815e-05,0.0033181,-8.4632e-05,-13.654,0.83486
7058,13.128,5.4545,0.1,0.00025306,2528.9,0.00025283,2522.2,-8.2847e-05,0.0046112,-8.4626e-05,-13.361,0.83414
7059,13.128,5.6364,0.1,0.00025314,2529.6,0.00025291,2523,-8.2882e-05,0.012691,-8.4633e-05,-13.142,0.83336
7060,13.128,5.8182,0.1,0.00025343,2532.6,0.00025319,2525.4,-8.2922e-05,0.00069642,-8.4829e-05,-14.323,0.83252
7061,13.313,0.18182,0.1,0.00024855,2483.8,0.0002483,2476.4,-8.1296e-05,0.00067269,-8.3242e-05,-14.618,0.85348
7062,13.313,0.36364,0.1,0.00024827,2481,0.00024803,2474.1,-8.1251e-05,0.013968,-8.3069e-05,-13.642,0.8543
7063,13.313,0.54545,0.1,0.00024821,2480.4,0.00024797,2473.3,-8.1212e-05,0.0048725,-8.3085e-05,-14.068,0.85506
7064,13.313,0.72727,0.1,0.00024817,2480,0.00024792,2472.7,-8.1175e-05,0.0034521,-8.3113e-05,-14.556,0.85578
7065,13.313,0.90909,0.1,0.00024815,2479.7,0.00024789,2472.2,-8.1143e-05,0.0010332,-8.3142e-05,-15.022,0.85643
7066,13.313,1.0909,0.1,0.00024812,2479.5,0.00024786,2471.7,-8.1114e-05,-0.00071854,-8.317e-05,-15.452,0.85704
7067,13.313,1.2727,0.1,0.0002481,2479.3,0.00024783,2471.3,-8.1088e-05,-0.0022574,-8.3196e-05,-15.839,0.85759
7068,13.313,1.4545,0.1,0.00024808,2479.1,0.00024781,2471,-8.1065e-05,-0.0035144,-8.3218e-05,-16.18,0.85808
7069,13.313,1.6364,0.1,0.00024807,2479,0.00024779,2470.7,-8.1046e-05,-0.0045479,-8.3238e-05,-16.472,0.85852
7070,13.313,1.8182,0.1,0.00024806,2478.9,0.00024777,2470.5,-8.103e-05,-0.0053825,-8.3254e-05,-16.718,0.85891
7071,13.313,2,0.1,0.00024805,2478.8,0.00024775,2470.3,-8.1016e-05,-0.0060465,-8.3267e-05,-16.919,0.85924
7072,13.313,2.1818,0.1,0.00024804,2478.7,0.00024774,2470.1,-8.1006e-05,-0.0065618,-8.3278e-05,-17.077,0.85951
7073,13.313,2.3636,0.1,0.00024803,2478.6,0.00024773,2469.9,-8.0997e-05,-0.0069507,-8.3285e-05,-17.198,0.85973
7074,13.313,2.5455,0.1,0.00024802,2478.5,0.00024773,2469.8,-8.0991e-05,-0.007228,-8.329e-05,-17.285,0.8599
7075,13.313,2.7273,0.1,0.00024802,2478.5,0.00024772,2469.8,-8.0987e-05,-0.0074057,-8.3294e-05,-17.341,0.86001
7076,13.313,2.9091,0.1,0.00024802,2478.5,0.00024772,2469.7,-8.0985e-05,-0.0074922,-8.3295e-05,-17.368,0.86006
7077,13.313,3.0909,0.1,0.00024802,2478.5,0.00024772,2469.7,-8.0985e-05,-0.0074918,-8.3295e-05,-17.368,0.86006
7078,13.313,3.2727,0.1,0.00024802,2478.5,0.00024772,2469.8,-8.0987e-05,-0.0074056,-8.3294e-05,-17.341,0.86001
7079,13.313,3.4545,0.1,0.00024802,2478.5,0.00024773,2469.8,-8.0991e-05,-0.0072282,-8.329e-05,-17.285,0.8599
7080,13.313,3.6364,0.1,0.00024803,2478.6,0.00024773,2469.9,-8.0997e-05,-0.0069502,-8.3285e-05,-17.198,0.85973
7081,13.313,3.8182,0.1,0.00024804,2478.7,0.00024774,2470.1,-8.1006e-05,-0.0065618,-8.3278e-05,-17.078,0.85951
7082,13.313,4,0.1,0.00024805,2478.8,0.00024775,2470.3,-8.1016e-05,-0.0060466,-8.3267e-05,-16.919,0.85924
7083,13.313,4.1818,0.1,0.00024806,2478.9,0.00024777,2470.5,-8.103e-05,-0.0053822,-8.3254e-05,-16.718,0.85891
7084,13.313,4.3636,0.1,0.00024807,2479,0.00024779,2470.7,-8.1046e-05,-0.0045474,-8.3238e-05,-16.473,0.85852
7085,13.313,4.5455,0.1,0.00024808,2479.1,0.00024781,2471,-8.1065e-05,-0.0035135,-8.3218e-05,-16.18,0.85808
7086,13.313,4.7273,0.1,0.0002481,2479.3,0.00024783,2471.3,-8.1088e-05,-0.0022565,-8.3196e-05,-15.839,0.85759
7087,13.313,4.9091,0.1,0.00024812,2479.5,0.00024786,2471.7,-8.1114e-05,-0.00071794,-8.317e-05,-15.452,0.85704
7088,13.313,5.0909,0.1,0.00024815,2479.7,0.00024789,2472.2,-8.1143e-05,0.0010345,-8.3142e-05,-15.022,0.85643
7089,13.313,5.2727,0.1,0.00024817,2480,0.00024792,2472.7,-8.1175e-05,0.0034525,-8.3113e-05,-14.556,0.85578
7090,13.313,5.4545,0.1,0.00024821,2480.4,0.00024797,2473.3,-8.1212e-05,0.0048734,-8.3085e-05,-14.068,0.85506
7091,13.313,5.6364,0.1,0.00024827,2481,0.00024803,2474.1,-8.1251e-05,0.013968,-8.3069e-05,-13.642,0.8543
7092,13.313,5.8182,0.1,0.00024855,2483.8,0.0002483,2476.4,-8.1296e-05,0.00067271,-8.3242e-05,-14.618,0.85348
7093,13.498,0.18182,0.1,0.00024368,2435.1,0.00024343,2427.7,-7.9676e-05,0.0006953,-8.166e-05,-14.906,0.8746
7094,13.498,0.36364,0.1,0.00024342,2432.5,0.00024318,2425.4,-7.9625e-05,0.015294,-8.151e-05,-14.148,0.87541
7095,13.498,0.54545,0.1,0.00024338,2432.1,0.00024313,2424.7,-7.9582e-05,0.0051261,-8.155e-05,-14.788,0.87616
7096,13.498,0.72727,0.1,0.00024336,2431.9,0.0002431,2424.2,-7.9541e-05,0.0035713,-8.1602e-05,-15.479,0.87686
7097,13.498,0.90909,0.1,0.00024335,2431.8,0.00024307,2423.7,-7.9505e-05,0.00094895,-8.1652e-05,-16.133,0.87751
7098,13.498,1.0909,0.1,0.00024334,2431.7,0.00024305,2423.3,-7.9473e-05,-0.00090757,-8.17e-05,-16.734,0.8781
7099,13.498,1.2727,0.1,0.00024334,2431.7,0.00024304,2423,-7.9445e-05,-0.0025152,-8.1743e-05,-17.275,0.87864
7100,13.498,1.4545,0.1,0.00024333,2431.7,0.00024303,2422.7,-7.942e-05,-0.003807,-8.1782e-05,-17.751,0.87913
7101,13.498,1.6364,0.1,0.00024333,2431.6,0.00024302,2422.5,-7.9399e-05,-0.004853,-8.1815e-05,-18.161,0.87956
7102,13.498,1.8182,0.1,0.00024333,2431.6,0.00024301,2422.3,-7.9381e-05,-0.0056852,-8.1844e-05,-18.506,0.87994
7103,13.498,2,0.1,0.00024333,2431.6,0.000243,2422.2,-7.9367e-05,-0.0063372,-8.1867e-05,-18.789,0.88026
7104,13.498,2.1818,0.1,0.00024333,2431.6,0.000243,2422,-7.9355e-05,-0.0068375,-8.1885e-05,-19.014,0.88053
7105,13.498,2.3636,0.1,0.00024333,2431.6,0.00024299,2421.9,-7.9346e-05,-0.0072092,-8.1899e-05,-19.187,0.88075
7106,13.498,2.5455,0.1,0.00024332,2431.6,0.00024299,2421.9,-7.9339e-05,-0.0074712,-8.1909e-05,-19.311,0.88091
7107,13.498,2.7273,0.1,0.00024332,2431.6,0.00024299,2421.8,-7.9335e-05,-0.007638,-8.1915e-05,-19.392,0.88102
7108,13.498,2.9091,0.1,0.00024332,2431.6,0.00024299,2421.8,-7.9333e-05,-0.0077187,-8.1918e-05,-19.431,0.88107
7109,13.498,3.0909,0.1,0.00024332,2431.6,0.00024299,2421.8,-7.9333e-05,-0.007719,-8.1918e-05,-19.431,0.88107
7110,13.498,3.2727,0.1,0.00024332,2431.6,0.00024299,2421.8,-7.9335e-05,-0.0076382,-8.1915e-05,-19.392,0.88102
7111,13.498,3.4545,0.1,0.00024332,2431.6,0.00024299,2421.9,-7.9339e-05,-0.0074712,-8.1909e-05,-19.311,0.88091
7112,13.498,3.6364,0.1,0.00024333,2431.6,0.00024299,2421.9,-7.9346e-05,-0.0072088,-8.1899e-05,-19.187,0.88075
7113,13.498,3.8182,0.1,0.00024333,2431.6,0.000243,2422,-7.9355e-05,-0.0068366,-8.1885e-05,-19.015,0.88053
7114,13.498,4,0.1,0.00024333,2431.6,0.000243,2422.2,-7.9367e-05,-0.0063373,-8.1867e-05,-18.789,0.88026
7115,13.498,4.1818,0.1,0.00024333,2431.6,0.00024301,2422.3,-7.9381e-05,-0.0056849,-8.1844e-05,-18.506,0.87994
7116,13.498,4.3636,0.1,0.00024333,2431.6,0.00024302,2422.5,-7.9399e-05,-0.0048527,-8.1815e-05,-18.161,0.87956
7117,13.498,4.5455,0.1,0.00024333,2431.7,0.00024303,2422.7,-7.942e-05,-0.0038069,-8.1782e-05,-17.751,0.87913
7118,13.498,4.7273,0.1,0.00024334,2431.7,0.00024304,2423,-7.9445e-05,-0.0025146,-8.1743e-05,-17.275,0.87864
7119,13.498,4.9091,0.1,0.00024334,2431.7,0.00024305,2423.3,-7.9473e-05,-0.00090725,-8.17e-05,-16.734,0.8781
7120,13.498,5.0909,0.1,0.00024335,2431.8,0.00024307,2423.7,-7.9505e-05,0.00094991,-8.1652e-05,-16.133,0.87751
7121,13.498,5.2727,0.1,0.00024336,2431.9,0.0002431,2424.2,-7.9541e-05,0.0035725,-8.1602e-05,-15.479,0.87686
7122,13.498,5.4545,0.1,0.00024338,2432.1,0.00024313,2424.7,-7.9581e-05,0.0051257,-8.155e-05,-14.788,0.87616
7123,13.498,5.6364,0.1,0.00024342,2432.5,0.00024318,2425.4,-7.9625e-05,0.015293,-8.151e-05,-14.148,0.87541
7124,13.498,5.8182,0.1,0.00024368,2435.1,0.00024343,2427.7,-7.9676e-05,0.00069712,-8.166e-05,-14.906,0.8746
7125,13.683,0.18182,0.1,0.00023883,2386.6,0.00023857,2379,-7.806e-05,0.00077424,-8.0081e-05,-15.188,0.89589
7126,13.683,0.36364,0.1,0.00023858,2384.2,0.00023833,2376.8,-7.8004e-05,0.016681,-7.9958e-05,-14.662,0.89668
7127,13.683,0.54545,0.1,0.00023857,2384,0.0002383,2376.2,-7.7956e-05,0.005368,-8.0023e-05,-15.528,0.89742
7128,13.683,0.72727,0.1,0.00023857,2384,0.00023828,2375.8,-7.7912e-05,0.0036724,-8.0099e-05,-16.43,0.89811
7129,13.683,0.90909,0.1,0.00023857,2384.1,0.00023828,2375.4,-7.7872e-05,0.00083927,-8.0172e-05,-17.279,0.89874
7130,13.683,1.0909,0.1,0.00023858,2384.2,0.00023827,2375.1,-7.7837e-05,-0.0011228,-8.024e-05,-18.057,0.89933
7131,13.683,1.2727,0.1,0.0002386,2384.3,0.00023827,2374.9,-7.7806e-05,-0.0027977,-8.0302e-05,-18.754,0.89986
7132,13.683,1.4545,0.1,0.00023861,2384.4,0.00023827,2374.7,-7.778e-05,-0.0041206,-8.0357e-05,-19.367,0.90033
7133,13.683,1.6364,0.1,0.00023862,2384.5,0.00023827,2374.5,-7.7757e-05,-0.005176,-8.0404e-05,-19.894,0.90076
7134,13.683,1.8182,0.1,0.00023863,2384.6,0.00023828,2374.4,-7.7738e-05,-0.0060029,-8.0444e-05,-20.336,0.90113
7135,13.683,2,0.1,0.00023864,2384.7,0.00023828,2374.3,-7.7723e-05,-0.0066408,-8.0477e-05,-20.699,0.90145
7136,13.683,2.1818,0.1,0.00023864,2384.8,0.00023828,2374.2,-7.771e-05,-0.0071223,-8.0503e-05,-20.988,0.90172
7137,13.683,2.3636,0.1,0.00023865,2384.8,0.00023828,2374.1,-7.7701e-05,-0.0074749,-8.0523e-05,-21.209,0.90193
7138,13.683,2.5455,0.1,0.00023865,2384.8,0.00023828,2374.1,-7.7694e-05,-0.0077211,-8.0537e-05,-21.368,0.90209
7139,13.683,2.7273,0.1,0.00023865,2384.9,0.00023828,2374.1,-7.769e-05,-0.0078757,-8.0546e-05,-21.471,0.9022
7140,13.683,2.9091,0.1,0.00023865,2384.9,0.00023828,2374,-7.7687e-05,-0.0079505,-8.0551e-05,-21.522,0.90225
7141,13.683,3.0909,0.1,0.00023865,2384.9,0.00023828,2374,-7.7687e-05,-0.0079497,-8.0551e-05,-21.522,0.90225
7142,13.683,3.2727,0.1,0.00023865,2384.9,0.00023828,2374.1,-7.769e-05,-0.0078755,-8.0546e-05,-21.471,0.9022
7143,13.683,3.4545,0.1,0.00023865,2384.8,0.00023828,2374.1,-7.7694e-05,-0.0077215,-8.0537e-05,-21.368,0.90209
7144,13.683,3.6364,0.1,0.00023865,2384.8,0.00023828,2374.1,-7.7701e-05,-0.0074748,-8.0523e-05,-21.209,0.90193
7145,13.683,3.8182,0.1,0.00023864,2384.8,0.00023828,2374.2,-7.771e-05,-0.0071223,-8.0503e-05,-20.988,0.90172
7146,13.683,4,0.1,0.00023864,2384.7,0.00023828,2374.3,-7.7723e-05,-0.006641,-8.0477e-05,-20.699,0.90145
7147,13.683,4.1818,0.1,0.00023863,2384.6,0.00023828,2374.4,-7.7738e-05,-0.0060028,-8.0444e-05,-20.337,0.90113
7148,13.683,4.3636,0.1,0.00023862,2384.5,0.00023827,2374.5,-7.7757e-05,-0.0051762,-8.0404e-05,-19.894,0.90076
7149,13.683,4.5455,0.1,0.00023861,2384.4,0.00023827,2374.7,-7.778e-05,-0.00412,-8.0357e-05,-19.367,0.90033
7150,13.683,4.7273,0.1,0.0002386,2384.3,0.00023827,2374.9,-7.7806e-05,-0.0027972,-8.0302e-05,-18.755,0.89986
7151,13.683,4.9091,0.1,0.00023858,2384.2,0.00023827,2375.1,-7.7837e-05,-0.0011221,-8.024e-05,-18.057,0.89933
7152,13.683,5.0909,0.1,0.00023857,2384.1,0.00023828,2375.4,-7.7872e-05,0.00084044,-8.0172e-05,-17.279,0.89874
7153,13.683,5.2727,0.1,0.00023857,2384,0.00023828,2375.8,-7.7912e-05,0.0036744,-8.0099e-05,-16.43,0.89811
7154,13.683,5.4545,0.1,0.00023857,2384,0.0002383,2376.2,-7.7956e-05,0.0053673,-8.0023e-05,-15.528,0.89742
7155,13.683,5.6364,0.1,0.00023858,2384.2,0.00023833,2376.8,-7.8004e-05,0.016682,-7.9958e-05,-14.662,0.89668
7156,13.683,5.8182,0.1,0.00023883,2386.6,0.00023857,2379,-7.806e-05,0.00077549,-8.0081e-05,-15.188,0.89589
7157,13.868,0.18182,0.1,0.00023399,2338.3,0.00023372,2330.5,-7.6449e-05,0.00091939,-7.8507e-05,-15.465,0.91734
7158,13.868,0.36364,0.1,0.00023376,2336,0.0002335,2328.4,-7.6387e-05,0.018148,-7.8411e-05,-15.189,0.91811
7159,13.868,0.54545,0.1,0.00023377,2336.1,0.00023349,2327.9,-7.6334e-05,0.0055962,-7.8504e-05,-16.295,0.91884
7160,13.868,0.72727,0.1,0.00023379,2336.3,0.00023349,2327.5,-7.6286e-05,0.0037516,-7.8605e-05,-17.42,0.91952
7161,13.868,0.90909,0.1,0.00023382,2336.6,0.0002335,2327.3,-7.6243e-05,0.00069735,-7.8702e-05,-18.473,0.92014
7162,13.868,1.0909,0.1,0.00023385,2336.9,0.00023351,2327.1,-7.6205e-05,-0.0013706,-7.8791e-05,-19.433,0.92071
7163,13.868,1.2727,0.1,0.00023388,2337.1,0.00023352,2326.9,-7.6172e-05,-0.0031115,-7.8872e-05,-20.291,0.92124
7164,13.868,1.4545,0.1,0.0002339,2337.4,0.00023354,2326.8,-7.6144e-05,-0.0044639,-7.8944e-05,-21.042,0.92171
7165,13.868,1.6364,0.1,0.00023393,2337.7,0.00023355,2326.7,-7.612e-05,-0.0055253,-7.9005e-05,-21.684,0.92212
7166,13.868,1.8182,0.1,0.00023395,2337.9,0.00023356,2326.7,-7.61e-05,-0.0063421,-7.9057e-05,-22.223,0.92249
7167,13.868,2,0.1,0.00023397,2338.1,0.00023357,2326.6,-7.6084e-05,-0.0069621,-7.91e-05,-22.662,0.9228
7168,13.868,2.1818,0.1,0.00023398,2338.2,0.00023358,2326.6,-7.6072e-05,-0.0074214,-7.9133e-05,-23.011,0.92306
7169,13.868,2.3636,0.1,0.00023399,2338.3,0.00023359,2326.6,-7.6062e-05,-0.0077509,-7.9159e-05,-23.277,0.92327
7170,13.868,2.5455,0.1,0.000234,2338.4,0.00023359,2326.6,-7.6055e-05,-0.0079784,-7.9178e-05,-23.468,0.92343
7171,13.868,2.7273,0.1,0.000234,2338.4,0.00023359,2326.5,-7.6051e-05,-0.008119,-7.9189e-05,-23.591,0.92354
7172,13.868,2.9091,0.1,0.00023401,2338.5,0.0002336,2326.5,-7.6049e-05,-0.008186,-7.9195e-05,-23.651,0.92359
7173,13.868,3.0909,0.1,0.00023401,2338.5,0.0002336,2326.5,-7.6049e-05,-0.0081857,-7.9195e-05,-23.651,0.92359
7174,13.868,3.2727,0.1,0.000234,2338.4,0.00023359,2326.5,-7.6051e-05,-0.0081189,-7.9189e-05,-23.591,0.92354
7175,13.868,3.4545,0.1,0.000234,2338.4,0.00023359,2326.6,-7.6055e-05,-0.0079771,-7.9178e-05,-23.468,0.92343
7176,13.868,3.6364,0.1,0.00023399,2338.3,0.00023359,2326.6,-7.6062e-05,-0.0077512,-7.9159e-05,-23.277,0.92327
7177,13.868,3.8182,0.1,0.00023398,2338.2,0.00023358,2326.6,-7.6072e-05,-0.0074204,-7.9133e-05,-23.011,0.92306
7178,13.868,4,0.1,0.00023397,2338.1,0.00023357,2326.6,-7.6084e-05,-0.0069619,-7.91e-05,-22.662,0.9228
7179,13.868,4.1818,0.1,0.00023395,2337.9,0.00023356,2326.7,-7.61e-05,-0.0063427,-7.9057e-05,-22.223,0.92249
7180,13.868,4.3636,0.1,0.00023393,2337.7,0.00023355,2326.7,-7.612e-05,-0.005525,-7.9005e-05,-21.684,0.92212
7181,13.868,4.5455,0.1,0.0002339,2337.4,0.00023354,2326.8,-7.6144e-05,-0.0044638,-7.8944e-05,-21.042,0.92171
7182,13.868,4.7273,0.1,0.00023388,2337.1,0.00023352,2326.9,-7.6172e-05,-0.0031107,-7.8872e-05,-20.291,0.92124
7183,13.868,4.9091,0.1,0.00023385,2336.9,0.00023351,2327.1,-7.6205e-05,-0.0013704,-7.8791e-05,-19.433,0.92071
7184,13.868,5.0909,0.1,0.00023382,2336.6,0.0002335,2327.3,-7.6243e-05,0.00069798,-7.8702e-05,-18.473,0.92014
7185,13.868,5.2727,0.1,0.00023379,2336.3,0.00023349,2327.5,-7.6286e-05,0.0037532,-7.8605e-05,-17.42,0.91952
7186,13.868,5.4545,0.1,0.00023377,2336.1,0.00023349,2327.9,-7.6334e-05,0.0055978,-7.8504e-05,-16.295,0.91884
7187,13.868,5.6364,0.1,0.00023376,2336,0.0002335,2328.4,-7.6387e-05,0.018147,-7.8411e-05,-15.189,0.91811
7188,13.868,5.8182,0.1,0.00023399,2338.3,0.00023372,2330.5,-7.6449e-05,0.00091975,-7.8507e-05,-15.465,0.91734
7189,14.053,0.18182,0.1,0.00022916,2290,0.00022889,2282.1,-7.4841e-05,0.0011423,-7.6936e-05,-15.739,0.93894
7190,14.053,0.36364,0.1,0.00022896,2288,0.00022869,2280.1,-7.4774e-05,0.019711,-7.6871e-05,-15.734,0.93971
7191,14.053,0.54545,0.1,0.00022899,2288.3,0.00022869,2279.7,-7.4716e-05,0.0058096,-7.6992e-05,-17.097,0.94042
7192,14.053,0.72727,0.1,0.00022903,2288.7,0.00022871,2279.4,-7.4664e-05,0.0038022,-7.7121e-05,-18.459,0.94109
7193,14.053,0.90909,0.1,0.00022908,2289.2,0.00022874,2279.3,-7.4617e-05,0.00051535,-7.7243e-05,-19.726,0.9417
7194,14.053,1.0909,0.1,0.00022913,2289.7,0.00022877,2279.2,-7.4577e-05,-0.0016614,-7.7355e-05,-20.877,0.94226
7195,14.053,1.2727,0.1,0.00022918,2290.2,0.0002288,2279.2,-7.4542e-05,-0.0034678,-7.7456e-05,-21.899,0.94278
7196,14.053,1.4545,0.1,0.00022922,2290.6,0.00022883,2279.2,-7.4512e-05,-0.0048457,-7.7545e-05,-22.789,0.94324
7197,14.053,1.6364,0.1,0.00022926,2291,0.00022885,2279.2,-7.4488e-05,-0.0059083,-7.7621e-05,-23.548,0.94365
7198,14.053,1.8182,0.1,0.0002293,2291.4,0.00022887,2279.2,-7.4467e-05,-0.0067102,-7.7684e-05,-24.179,0.94401
7199,14.053,2,0.1,0.00022932,2291.7,0.00022889,2279.2,-7.4451e-05,-0.0073063,-7.7737e-05,-24.691,0.94432
7200,14.053,2.1818,0.1,0.00022935,2291.9,0.00022891,2279.2,-7.4439e-05,-0.0077369,-7.7778e-05,-25.095,0.94457
7201,14.053,2.3636,0.1,0.00022936,2292.1,0.00022892,2279.3,-7.4429e-05,-0.0080411,-7.7809e-05,-25.401,0.94478
7202,14.053,2.5455,0.1,0.00022938,2292.2,0.00022893,2279.3,-7.4423e-05,-0.0082446,-7.7831e-05,-25.62,0.94493
7203,14.053,2.7273,0.1,0.00022939,2292.3,0.00022894,2279.3,-7.4418e-05,-0.0083686,-7.7846e-05,-25.761,0.94504
7204,14.053,2.9091,0.1,0.00022939,2292.3,0.00022894,2279.3,-7.4416e-05,-0.0084268,-7.7853e-05,-25.83,0.94509
7205,14.053,3.0909,0.1,0.00022939,2292.3,0.00022894,2279.3,-7.4416e-05,-0.0084263,-7.7853e-05,-25.83,0.94509
7206,14.053,3.2727,0.1,0.00022939,2292.3,0.00022894,2279.3,-7.4418e-05,-0.008369,-7.7846e-05,-25.761,0.94504
7207,14.053,3.4545,0.1,0.00022938,2292.2,0.00022893,2279.3,-7.4423e-05,-0.0082446,-7.7831e-05,-25.62,0.94493
7208,14.053,3.6364,0.1,0.00022936,2292.1,0.00022892,2279.3,-7.4429e-05,-0.0080409,-7.7809e-05,-25.401,0.94478
7209,14.053,3.8182,0.1,0.00022935,2291.9,0.00022891,2279.2,-7.4439e-05,-0.007737,-7.7778e-05,-25.095,0.94457
7210,14.053,4,0.1,0.00022932,2291.7,0.00022889,2279.2,-7.4451e-05,-0.0073054,-7.7737e-05,-24.691,0.94432
7211,14.053,4.1818,0.1,0.0002293,2291.4,0.00022887,2279.2,-7.4467e-05,-0.0067105,-7.7684e-05,-24.179,0.94401
7212,14.053,4.3636,0.1,0.00022926,2291,0.00022885,2279.2,-7.4488e-05,-0.0059075,-7.7621e-05,-23.548,0.94365
7213,14.053,4.5455,0.1,0.00022922,2290.6,0.00022883,2279.2,-7.4512e-05,-0.0048451,-7.7545e-05,-22.79,0.94324
7214,14.053,4.7273,0.1,0.00022918,2290.2,0.0002288,2279.2,-7.4542e-05,-0.0034677,-7.7456e-05,-21.899,0.94278
7215,14.053,4.9091,0.1,0.00022913,2289.7,0.00022877,2279.2,-7.4577e-05,-0.0016607,-7.7355e-05,-20.877,0.94226
7216,14.053,5.0909,0.1,0.00022908,2289.2,0.00022874,2279.3,-7.4617e-05,0.00051592,-7.7243e-05,-19.726,0.9417
7217,14.053,5.2727,0.1,0.00022903,2288.7,0.00022871,2279.4,-7.4664e-05,0.0038037,-7.7121e-05,-18.459,0.94109
7218,14.053,5.4545,0.1,0.00022899,2288.3,0.00022869,2279.7,-7.4716e-05,0.0058102,-7.6992e-05,-17.097,0.94042
7219,14.053,5.6364,0.1,0.00022896,2288,0.00022869,2280.1,-7.4774e-05,0.019711,-7.6871e-05,-15.734,0.93971
7220,14.053,5.8182,0.1,0.00022916,2290,0.00022889,2282.1,-7.4841e-05,0.001144,-7.6936e-05,-15.739,0.93894
7221,14.238,0.18182,0.1,0.00022434,2241.8,0.00022406,2233.8,-7.3237e-05,0.0014652,-7.5368e-05,-16.01,0.96071
7222,14.238,0.36364,0.1,0.00022416,2240.1,0.00022388,2231.9,-7.3163e-05,0.021388,-7.5336e-05,-16.303,0.96146
7223,14.238,0.54545,0.1,0.00022422,2240.6,0.00022391,2231.6,-7.3101e-05,0.006003,-7.5489e-05,-17.943,0.96216
7224,14.238,0.72727,0.1,0.00022429,2241.3,0.00022395,2231.5,-7.3044e-05,0.0038179,-7.5648e-05,-19.558,0.96281
7225,14.238,0.90909,0.1,0.00022436,2242.1,0.000224,2231.5,-7.2994e-05,0.00028235,-7.5796e-05,-21.053,0.96341
7226,14.238,1.0909,0.1,0.00022444,2242.8,0.00022405,2231.5,-7.2951e-05,-0.002005,-7.5933e-05,-22.403,0.96397
7227,14.238,1.2727,0.1,0.0002245,2243.5,0.00022409,2231.6,-7.2915e-05,-0.0038755,-7.6055e-05,-23.596,0.96447
7228,14.238,1.4545,0.1,0.00022457,2244.1,0.00022414,2231.7,-7.2884e-05,-0.0052745,-7.6161e-05,-24.627,0.96492
7229,14.238,1.6364,0.1,0.00022462,2244.7,0.00022418,2231.8,-7.2859e-05,-0.006332,-7.6252e-05,-25.499,0.96533
7230,14.238,1.8182,0.1,0.00022467,2245.1,0.00022421,2231.9,-7.2839e-05,-0.0071125,-7.6328e-05,-26.22,0.96568
7231,14.238,2,0.1,0.00022471,2245.5,0.00022424,2232,-7.2823e-05,-0.0076778,-7.6389e-05,-26.8,0.96598
7232,14.238,2.1818,0.1,0.00022474,2245.9,0.00022427,2232.1,-7.2811e-05,-0.0080754,-7.6438e-05,-27.254,0.96624
7233,14.238,2.3636,0.1,0.00022477,2246.1,0.00022428,2232.2,-7.2802e-05,-0.0083456,-7.6474e-05,-27.595,0.96644
7234,14.238,2.5455,0.1,0.00022478,2246.3,0.0002243,2232.2,-7.2796e-05,-0.0085227,-7.65e-05,-27.838,0.96659
7235,14.238,2.7273,0.1,0.0002248,2246.4,0.00022431,2232.3,-7.2792e-05,-0.0086262,-7.6517e-05,-27.992,0.96669
7236,14.238,2.9091,0.1,0.0002248,2246.5,0.00022431,2232.3,-7.2791e-05,-0.0086744,-7.6525e-05,-28.067,0.96674
7237,14.238,3.0909,0.1,0.0002248,2246.5,0.00022431,2232.3,-7.2791e-05,-0.0086742,-7.6525e-05,-28.067,0.96674
7238,14.238,3.2727,0.1,0.0002248,2246.4,0.00022431,2232.3,-7.2792e-05,-0.0086264,-7.6517e-05,-27.992,0.96669
7239,14.238,3.4545,0.1,0.00022478,2246.3,0.0002243,2232.2,-7.2796e-05,-0.0085226,-7.65e-05,-27.838,0.96659
7240,14.238,3.6364,0.1,0.00022477,2246.1,0.00022428,2232.2,-7.2802e-05,-0.0083458,-7.6474e-05,-27.595,0.96644
7241,14.238,3.8182,0.1,0.00022474,2245.9,0.00022427,2232.1,-7.2811e-05,-0.0080748,-7.6438e-05,-27.254,0.96624
7242,14.238,4,0.1,0.00022471,2245.5,0.00022424,2232,-7.2823e-05,-0.0076775,-7.6389e-05,-26.8,0.96598
7243,14.238,4.1818,0.1,0.00022467,2245.1,0.00022421,2231.9,-7.2839e-05,-0.007113,-7.6328e-05,-26.22,0.96568
7244,14.238,4.3636,0.1,0.00022462,2244.7,0.00022418,2231.8,-7.2859e-05,-0.0063316,-7.6252e-05,-25.499,0.96533
7245,14.238,4.5455,0.1,0.00022457,2244.1,0.00022414,2231.7,-7.2884e-05,-0.0052736,-7.6161e-05,-24.627,0.96492
7246,14.238,4.7273,0.1,0.0002245,2243.5,0.00022409,2231.6,-7.2915e-05,-0.0038753,-7.6055e-05,-23.596,0.96447
7247,14.238,4.9091,0.1,0.00022444,2242.8,0.00022405,2231.5,-7.2951e-05,-0.0020046,-7.5933e-05,-22.403,0.96397
7248,14.238,5.0909,0.1,0.00022436,2242.1,0.000224,2231.5,-7.2994e-05,0.00028409,-7.5796e-05,-21.054,0.96341
7249,14.238,5.2727,0.1,0.00022429,2241.3,0.00022395,2231.5,-7.3044e-05,0.0038199,-7.5648e-05,-19.558,0.96281
7250,14.238,5.4545,0.1,0.00022422,2240.6,0.00022391,2231.6,-7.3101e-05,0.006003,-7.549e-05,-17.943,0.96216
7251,14.238,5.6364,0.1,0.00022416,2240.1,0.00022388,2231.9,-7.3163e-05,0.021389,-7.5336e-05,-16.303,0.96146
7252,14.238,5.8182,0.1,0.00022434,2241.8,0.00022406,2233.8,-7.3237e-05,0.0014653,-7.5368e-05,-16.01,0.96071
7253,14.423,0.18182,0.1,0.00021952,2193.7,0.00021924,2185.5,-7.1634e-05,0.0019107,-7.3801e-05,-16.281,0.98262
7254,14.423,0.36364,0.1,0.00021938,2192.3,0.00021909,2183.8,-7.1555e-05,0.023205,-7.3807e-05,-16.902,0.98336
7255,14.423,0.54545,0.1,0.00021946,2193.1,0.00021914,2183.6,-7.1487e-05,0.0061686,-7.3995e-05,-18.844,0.98405
7256,14.423,0.72727,0.1,0.00021956,2194.1,0.0002192,2183.7,-7.1426e-05,0.0037922,-7.4186e-05,-20.733,0.98469
7257,14.423,0.90909,0.1,0.00021966,2195.1,0.00021927,2183.8,-7.1373e-05,-1.0987e-05,-7.4364e-05,-22.471,0.98528
7258,14.423,1.0909,0.1,0.00021976,2196.1,0.00021934,2184,-7.1328e-05,-0.0024113,-7.4526e-05,-24.03,0.98582
7259,14.423,1.2727,0.1,0.00021985,2197,0.00021941,2184.2,-7.129e-05,-0.0043445,-7.467e-05,-25.398,0.98632
7260,14.423,1.4545,0.1,0.00021994,2197.8,0.00021947,2184.4,-7.1259e-05,-0.0057596,-7.4795e-05,-26.573,0.98676
7261,14.423,1.6364,0.1,0.00022001,2198.6,0.00021953,2184.7,-7.1234e-05,-0.0068057,-7.4901e-05,-27.557,0.98716
7262,14.423,1.8182,0.1,0.00022007,2199.2,0.00021958,2184.9,-7.1215e-05,-0.0075568,-7.4989e-05,-28.363,0.98751
7263,14.423,2,0.1,0.00022012,2199.7,0.00021962,2185.1,-7.12e-05,-0.0080821,-7.506e-05,-29.005,0.98781
7264,14.423,2.1818,0.1,0.00022017,2200.1,0.00021965,2185.2,-7.1189e-05,-0.0084383,-7.5115e-05,-29.502,0.98805
7265,14.423,2.3636,0.1,0.0002202,2200.5,0.00021968,2185.4,-7.1182e-05,-0.008669,-7.5156e-05,-29.871,0.98825
7266,14.423,2.5455,0.1,0.00022022,2200.7,0.00021969,2185.5,-7.1176e-05,-0.0088124,-7.5185e-05,-30.131,0.9884
7267,14.423,2.7273,0.1,0.00022024,2200.9,0.00021971,2185.5,-7.1173e-05,-0.008893,-7.5204e-05,-30.295,0.9885
7268,14.423,2.9091,0.1,0.00022024,2200.9,0.00021971,2185.6,-7.1172e-05,-0.0089283,-7.5213e-05,-30.374,0.98855
7269,14.423,3.0909,0.1,0.00022024,2200.9,0.00021971,2185.6,-7.1172e-05,-0.0089285,-7.5213e-05,-30.374,0.98855
7270,14.423,3.2727,0.1,0.00022024,2200.9,0.00021971,2185.5,-7.1173e-05,-0.0088926,-7.5204e-05,-30.295,0.9885
7271,14.423,3.4545,0.1,0.00022022,2200.7,0.00021969,2185.5,-7.1176e-05,-0.0088122,-7.5185e-05,-30.131,0.9884
7272,14.423,3.6364,0.1,0.0002202,2200.5,0.00021968,2185.4,-7.1182e-05,-0.0086688,-7.5156e-05,-29.871,0.98825
7273,14.423,3.8182,0.1,0.00022017,2200.1,0.00021965,2185.2,-7.1189e-05,-0.0084378,-7.5115e-05,-29.502,0.98805
7274,14.423,4,0.1,0.00022012,2199.7,0.00021962,2185.1,-7.12e-05,-0.0080816,-7.506e-05,-29.005,0.98781
7275,14.423,4.1818,0.1,0.00022007,2199.2,0.00021958,2184.9,-7.1215e-05,-0.0075565,-7.4989e-05,-28.363,0.98751
7276,14.423,4.3636,0.1,0.00022001,2198.6,0.00021953,2184.7,-7.1234e-05,-0.0068055,-7.4901e-05,-27.557,0.98716
7277,14.423,4.5455,0.1,0.00021994,2197.8,0.00021947,2184.4,-7.1259e-05,-0.0057594,-7.4795e-05,-26.573,0.98676
7278,14.423,4.7273,0.1,0.00021985,2197,0.00021941,2184.2,-7.129e-05,-0.0043442,-7.467e-05,-25.398,0.98632
7279,14.423,4.9091,0.1,0.00021976,2196.1,0.00021934,2184,-7.1328e-05,-0.0024115,-7.4526e-05,-24.03,0.98582
7280,14.423,5.0909,0.1,0.00021966,2195.1,0.00021927,2183.8,-7.1373e-05,-9.4313e-06,-7.4364e-05,-22.471,0.98528
7281,14.423,5.2727,0.1,0.00021956,2194.1,0.0002192,2183.7,-7.1426e-05,0.003793,-7.4186e-05,-20.733,0.98469
7282,14.423,5.4545,0.1,0.00021946,2193.1,0.00021914,2183.6,-7.1487e-05,0.0061699,-7.3995e-05,-18.844,0.98405
7283,14.423,5.6364,0.1,0.00021938,2192.3,0.00021909,2183.8,-7.1555e-05,0.023205,-7.3807e-05,-16.902,0.98336
7284,14.423,5.8182,0.1,0.00021952,2193.7,0.00021924,2185.5,-7.1634e-05,0.0019116,-7.3801e-05,-16.281,0.98262
7285,14.608,0.18182,0.1,0.00021471,2145.6,0.00021443,2137.3,-7.0033e-05,0.0025147,-7.2237e-05,-16.552,1.0047
7286,14.608,0.36364,0.1,0.0002146,2144.6,0.0002143,2135.7,-6.9947e-05,0.025184,-7.2284e-05,-17.539,1.0054
7287,14.608,0.54545,0.1,0.00021472,2145.7,0.00021438,2135.7,-6.9873e-05,0.0063017,-7.2511e-05,-19.811,1.0061
7288,14.608,0.72727,0.1,0.00021485,2147,0.00021447,2135.9,-6.9808e-05,0.0037128,-7.2736e-05,-21.998,1.0067
7289,14.608,0.90909,0.1,0.00021498,2148.3,0.00021456,2136.2,-6.9752e-05,-0.00037547,-7.2946e-05,-23.996,1.0073
7290,14.608,1.0909,0.1,0.00021511,2149.6,0.00021466,2136.6,-6.9706e-05,-0.002894,-7.3136e-05,-25.777,1.0078
7291,14.608,1.2727,0.1,0.00021523,2150.8,0.00021475,2137,-6.9667e-05,-0.004887,-7.3304e-05,-27.327,1.0083
7292,14.608,1.4545,0.1,0.00021533,2151.8,0.00021483,2137.4,-6.9637e-05,-0.006311,-7.3448e-05,-28.646,1.0088
7293,14.608,1.6364,0.1,0.00021543,2152.8,0.0002149,2137.7,-6.9613e-05,-0.0073371,-7.357e-05,-29.74,1.0091
7294,14.608,1.8182,0.1,0.0002155,2153.6,0.00021497,2138.1,-6.9595e-05,-0.0080485,-7.367e-05,-30.626,1.0095
7295,14.608,2,0.1,0.00021557,2154.2,0.00021502,2138.4,-6.9582e-05,-0.0085261,-7.3749e-05,-31.322,1.0098
7296,14.608,2.1818,0.1,0.00021562,2154.7,0.00021506,2138.6,-6.9573e-05,-0.00883,-7.3811e-05,-31.853,1.01
7297,14.608,2.3636,0.1,0.00021566,2155.2,0.0002151,2138.9,-6.9567e-05,-0.0090136,-7.3857e-05,-32.242,1.0102
7298,14.608,2.5455,0.1,0.00021569,2155.5,0.00021512,2139,-6.9563e-05,-0.0091175,-7.3889e-05,-32.511,1.0104
7299,14.608,2.7273,0.1,0.00021571,2155.6,0.00021514,2139.1,-6.9561e-05,-0.0091692,-7.3909e-05,-32.679,1.0105
7300,14.608,2.9091,0.1,0.00021572,2155.7,0.00021515,2139.2,-6.956e-05,-0.0091903,-7.3919e-05,-32.76,1.0105
7301,14.608,3.0909,0.1,0.00021572,2155.7,0.00021515,2139.2,-6.956e-05,-0.0091904,-7.3919e-05,-32.76,1.0105
7302,14.608,3.2727,0.1,0.00021571,2155.6,0.00021514,2139.1,-6.9561e-05,-0.0091692,-7.3909e-05,-32.679,1.0105
7303,14.608,3.4545,0.1,0.00021569,2155.5,0.00021512,2139,-6.9563e-05,-0.009117,-7.3889e-05,-32.511,1.0104
7304,14.608,3.6364,0.1,0.00021566,2155.2,0.0002151,2138.9,-6.9567e-05,-0.0090137,-7.3857e-05,-32.242,1.0102
7305,14.608,3.8182,0.1,0.00021562,2154.7,0.00021506,2138.6,-6.9573e-05,-0.0088299,-7.3811e-05,-31.853,1.01
7306,14.608,4,0.1,0.00021557,2154.2,0.00021502,2138.4,-6.9582e-05,-0.0085256,-7.3749e-05,-31.322,1.0098
7307,14.608,4.1818,0.1,0.0002155,2153.6,0.00021497,2138.1,-6.9595e-05,-0.0080479,-7.367e-05,-30.626,1.0095
7308,14.608,4.3636,0.1,0.00021543,2152.8,0.0002149,2137.7,-6.9613e-05,-0.007337,-7.357e-05,-29.741,1.0091
7309,14.608,4.5455,0.1,0.00021533,2151.8,0.00021483,2137.4,-6.9637e-05,-0.0063112,-7.3448e-05,-28.646,1.0088
7310,14.608,4.7273,0.1,0.00021523,2150.8,0.00021475,2137,-6.9667e-05,-0.0048868,-7.3304e-05,-27.327,1.0083
7311,14.608,4.9091,0.1,0.00021511,2149.6,0.00021466,2136.6,-6.9706e-05,-0.002893,-7.3136e-05,-25.777,1.0078
7312,14.608,5.0909,0.1,0.00021498,2148.3,0.00021456,2136.2,-6.9752e-05,-0.00037456,-7.2946e-05,-23.996,1.0073
7313,14.608,5.2727,0.1,0.00021485,2147,0.00021447,2135.9,-6.9808e-05,0.0037143,-7.2736e-05,-21.998,1.0067
7314,14.608,5.4545,0.1,0.00021472,2145.7,0.00021438,2135.7,-6.9873e-05,0.0063025,-7.2511e-05,-19.811,1.0061
7315,14.608,5.6364,0.1,0.0002146,2144.6,0.0002143,2135.7,-6.9947e-05,0.025183,-7.2284e-05,-17.539,1.0054
7316,14.608,5.8182,0.1,0.00021471,2145.6,0.00021443,2137.3,-7.0033e-05,0.0025148,-7.2237e-05,-16.552,1.0047
7317,14.792,0.18182,0.1,0.0002099,2097.6,0.00020961,2089.1,-6.8432e-05,0.0033184,-7.0672e-05,-16.825,1.0269
7318,14.792,0.36364,0.1,0.00020983,2096.9,0.00020952,2087.7,-6.8338e-05,0.027355,-7.0767e-05,-18.221,1.0276
7319,14.792,0.54545,0.1,0.00020999,2098.4,0.00020962,2087.9,-6.8259e-05,0.0063913,-7.1036e-05,-20.859,1.0283
7320,14.792,0.72727,0.1,0.00021015,2100.1,0.00020975,2088.3,-6.819e-05,0.00357,-7.1301e-05,-23.37,1.0289
7321,14.792,0.90909,0.1,0.00021032,2101.8,0.00020987,2088.8,-6.8131e-05,-0.00082729,-7.1545e-05,-25.65,1.0295
7322,14.792,1.0909,0.1,0.00021048,2103.3,0.00020999,2089.4,-6.8083e-05,-0.0034654,-7.1765e-05,-27.666,1.03
7323,14.792,1.2727,0.1,0.00021062,2104.8,0.00021011,2089.9,-6.8045e-05,-0.0055155,-7.1958e-05,-29.406,1.0305
7324,14.792,1.4545,0.1,0.00021076,2106.1,0.00021021,2090.5,-6.8016e-05,-0.0069417,-7.2123e-05,-30.87,1.0309
7325,14.792,1.6364,0.1,0.00021087,2107.3,0.00021031,2091,-6.7994e-05,-0.007936,-7.2261e-05,-32.071,1.0313
7326,14.792,1.8182,0.1,0.00021097,2108.2,0.00021039,2091.5,-6.7978e-05,-0.0085967,-7.2373e-05,-33.028,1.0316
7327,14.792,2,0.1,0.00021105,2109.1,0.00021046,2092,-6.7968e-05,-0.0090133,-7.2461e-05,-33.768,1.0319
7328,14.792,2.1818,0.1,0.00021112,2109.7,0.00021051,2092.3,-6.7962e-05,-0.0092552,-7.2529e-05,-34.322,1.0321
7329,14.792,2.3636,0.1,0.00021117,2110.2,0.00021055,2092.6,-6.7959e-05,-0.0093818,-7.2578e-05,-34.72,1.0323
7330,14.792,2.5455,0.1,0.0002112,2110.6,0.00021059,2092.9,-6.7957e-05,-0.0094382,-7.2613e-05,-34.989,1.0325
7331,14.792,2.7273,0.1,0.00021123,2110.8,0.00021061,2093,-6.7957e-05,-0.0094564,-7.2634e-05,-35.155,1.0326
7332,14.792,2.9091,0.1,0.00021124,2110.9,0.00021062,2093.1,-6.7957e-05,-0.0094604,-7.2645e-05,-35.234,1.0326
7333,14.792,3.0909,0.1,0.00021124,2110.9,0.00021062,2093.1,-6.7957e-05,-0.0094598,-7.2645e-05,-35.234,1.0326
7334,14.792,3.2727,0.1,0.00021123,2110.8,0.00021061,2093,-6.7957e-05,-0.0094567,-7.2634e-05,-35.155,1.0326
7335,14.792,3.4545,0.1,0.0002112,2110.6,0.00021059,2092.9,-6.7957e-05,-0.009438,-7.2613e-05,-34.989,1.0325
7336,14.792,3.6364,0.1,0.00021117,2110.2,0.00021055,2092.6,-6.7959e-05,-0.0093819,-7.2579e-05,-34.72,1.0323
7337,14.792,3.8182,0.1,0.00021112,2109.7,0.00021051,2092.3,-6.7962e-05,-0.009255,-7.2529e-05,-34.322,1.0321
7338,14.792,4,0.1,0.00021105,2109.1,0.00021046,2092,-6.7968e-05,-0.0090129,-7.2461e-05,-33.768,1.0319
7339,14.792,4.1818,0.1,0.00021097,2108.2,0.00021039,2091.5,-6.7978e-05,-0.0085961,-7.2373e-05,-33.028,1.0316
7340,14.792,4.3636,0.1,0.00021087,2107.3,0.00021031,2091,-6.7994e-05,-0.0079358,-7.2261e-05,-32.071,1.0313
7341,14.792,4.5455,0.1,0.00021076,2106.1,0.00021021,2090.5,-6.8016e-05,-0.0069409,-7.2123e-05,-30.87,1.0309
7342,14.792,4.7273,0.1,0.00021062,2104.8,0.00021011,2089.9,-6.8045e-05,-0.0055149,-7.1958e-05,-29.406,1.0305
7343,14.792,4.9091,0.1,0.00021048,2103.3,0.00020999,2089.4,-6.8083e-05,-0.0034653,-7.1765e-05,-27.666,1.03
7344,14.792,5.0909,0.1,0.00021032,2101.8,0.00020987,2088.8,-6.8131e-05,-0.00082704,-7.1545e-05,-25.65,1.0295
7345,14.792,5.2727,0.1,0.00021015,2100.1,0.00020975,2088.3,-6.819e-05,0.0035709,-7.1301e-05,-23.37,1.0289
7346,14.792,5.4545,0.1,0.00020999,2098.4,0.00020962,2087.9,-6.8259e-05,0.0063925,-7.1036e-05,-20.859,1.0283
7347,14.792,5.6364,0.1,0.00020983,2096.9,0.00020952,2087.7,-6.8338e-05,0.027354,-7.0767e-05,-18.222,1.0276
7348,14.792,5.8182,0.1,0.0002099,2097.6,0.00020961,2089.1,-6.8432e-05,0.0033185,-7.0672e-05,-16.825,1.0269
7349,14.977,0.18182,0.1,0.00020509,2049.5,0.00020479,2040.9,-6.683e-05,0.0043799,-6.9106e-05,-17.103,1.0492
7350,14.977,0.36364,0.1,0.00020506,2049.2,0.00020473,2039.7,-6.6727e-05,0.029748,-6.9254e-05,-18.96,1.0499
7351,14.977,0.54545,0.1,0.00020526,2051.2,0.00020488,2040.1,-6.6642e-05,0.0064258,-6.9571e-05,-22.004,1.0506
7352,14.977,0.72727,0.1,0.00020547,2053.3,0.00020503,2040.7,-6.6569e-05,0.0033507,-6.9879e-05,-24.872,1.0512
7353,14.977,0.90909,0.1,0.00020567,2055.3,0.00020519,2041.5,-6.6508e-05,-0.0013822,-7.0162e-05,-27.456,1.0518
7354,14.977,1.0909,0.1,0.00020587,2057.3,0.00020535,2042.2,-6.646e-05,-0.0041403,-7.0415e-05,-29.723,1.0523
7355,14.977,1.2727,0.1,0.00020605,2059.1,0.00020549,2043.1,-6.6422e-05,-0.0062431,-7.0635e-05,-31.66,1.0527
7356,14.977,1.4545,0.1,0.00020621,2060.7,0.00020562,2043.8,-6.6395e-05,-0.0076607,-7.0822e-05,-33.27,1.0532
7357,14.977,1.6364,0.1,0.00020635,2062.1,0.00020574,2044.6,-6.6377e-05,-0.0086121,-7.0977e-05,-34.572,1.0535
7358,14.977,1.8182,0.1,0.00020647,2063.3,0.00020584,2045.2,-6.6365e-05,-0.0092078,-7.1101e-05,-35.591,1.0539
7359,14.977,2,0.1,0.00020657,2064.3,0.00020593,2045.8,-6.6359e-05,-0.0095505,-7.1198e-05,-36.363,1.0542
7360,14.977,2.1818,0.1,0.00020665,2065.1,0.00020599,2046.3,-6.6357e-05,-0.0097178,-7.1271e-05,-36.926,1.0544
7361,14.977,2.3636,0.1,0.00020671,2065.7,0.00020605,2046.7,-6.6358e-05,-0.0097766,-7.1323e-05,-37.319,1.0546
7362,14.977,2.5455,0.1,0.00020675,2066.1,0.00020609,2047,-6.6359e-05,-0.009778,-7.1359e-05,-37.578,1.0547
7363,14.977,2.7273,0.1,0.00020678,2066.4,0.00020611,2047.2,-6.6361e-05,-0.009757,-7.1381e-05,-37.733,1.0548
7364,14.977,2.9091,0.1,0.00020679,2066.5,0.00020613,2047.3,-6.6362e-05,-0.0097405,-7.1392e-05,-37.805,1.0549
7365,14.977,3.0909,0.1,0.00020679,2066.5,0.00020613,2047.3,-6.6362e-05,-0.0097404,-7.1392e-05,-37.805,1.0549
7366,14.977,3.2727,0.1,0.00020678,2066.4,0.00020611,2047.2,-6.6361e-05,-0.0097572,-7.1381e-05,-37.733,1.0548
7367,14.977,3.4545,0.1,0.00020675,2066.1,0.00020609,2047,-6.6359e-05,-0.0097777,-7.1359e-05,-37.578,1.0547
7368,14.977,3.6364,0.1,0.00020671,2065.7,0.00020605,2046.7,-6.6358e-05,-0.0097761,-7.1323e-05,-37.319,1.0546
7369,14.977,3.8182,0.1,0.00020665,2065.1,0.00020599,2046.3,-6.6357e-05,-0.0097173,-7.1271e-05,-36.926,1.0544
7370,14.977,4,0.1,0.00020657,2064.3,0.00020593,2045.8,-6.6359e-05,-0.0095506,-7.1198e-05,-36.363,1.0542
7371,14.977,4.1818,0.1,0.00020647,2063.3,0.00020584,2045.2,-6.6365e-05,-0.0092076,-7.1101e-05,-35.591,1.0539
7372,14.977,4.3636,0.1,0.00020635,2062.1,0.00020574,2044.6,-6.6377e-05,-0.0086116,-7.0977e-05,-34.572,1.0535
7373,14.977,4.5455,0.1,0.00020621,2060.7,0.00020562,2043.8,-6.6395e-05,-0.0076605,-7.0822e-05,-33.271,1.0532
7374,14.977,4.7273,0.1,0.00020605,2059.1,0.00020549,2043.1,-6.6422e-05,-0.0062427,-7.0635e-05,-31.66,1.0527
7375,14.977,4.9091,0.1,0.00020587,2057.3,0.00020535,2042.2,-6.646e-05,-0.0041403,-7.0415e-05,-29.723,1.0523
7376,14.977,5.0909,0.1,0.00020567,2055.3,0.00020519,2041.5,-6.6508e-05,-0.0013802,-7.0162e-05,-27.456,1.0518
7377,14.977,5.2727,0.1,0.00020547,2053.3,0.00020503,2040.7,-6.6569e-05,0.0033521,-6.9879e-05,-24.872,1.0512
7378,14.977,5.4545,0.1,0.00020526,2051.2,0.00020488,2040.1,-6.6642e-05,0.0064266,-6.9571e-05,-22.004,1.0506
7379,14.977,5.6364,0.1,0.00020506,2049.2,0.00020473,2039.7,-6.6727e-05,0.029748,-6.9254e-05,-18.96,1.0499
7380,14.977,5.8182,0.1,0.00020509,2049.5,0.00020479,2040.9,-6.683e-05,0.0043801,-6.9106e-05,-17.103,1.0492
7381,15.162,0.18182,0.1,0.00020026,2001.2,0.00019996,1992.5,-6.5223e-05,0.0057733,-6.7538e-05,-17.387,1.0717
7382,15.162,0.36364,0.1,0.00020029,2001.5,0.00019995,1991.6,-6.5111e-05,0.032401,-6.7746e-05,-19.767,1.0724
7383,15.162,0.54545,0.1,0.00020053,2004,0.00020013,1992.2,-6.502e-05,0.0063893,-6.8117e-05,-23.263,1.0731
7384,15.162,0.72727,0.1,0.00020079,2006.5,0.00020033,1993.1,-6.4943e-05,0.0030405,-6.8474e-05,-26.525,1.0737
7385,15.162,0.90909,0.1,0.00020104,2009,0.00020053,1994.2,-6.4881e-05,-0.0020552,-6.8799e-05,-29.442,1.0742
7386,15.162,1.0909,0.1,0.00020128,2011.4,0.00020072,1995.2,-6.4833e-05,-0.0049355,-6.9088e-05,-31.977,1.0747
7387,15.162,1.2727,0.1,0.0002015,2013.6,0.0002009,1996.3,-6.4798e-05,-0.0070844,-6.9338e-05,-34.119,1.0752
7388,15.162,1.4545,0.1,0.00020169,2015.5,0.00020106,1997.4,-6.4775e-05,-0.0084804,-6.9548e-05,-35.876,1.0756
7389,15.162,1.6364,0.1,0.00020186,2017.2,0.0002012,1998.3,-6.4761e-05,-0.0093924,-6.972e-05,-37.271,1.076
7390,15.162,1.8182,0.1,0.00020201,2018.7,0.00020133,1999.2,-6.4755e-05,-0.009889,-6.9857e-05,-38.34,1.0763
7391,15.162,2,0.1,0.00020213,2019.9,0.00020143,2000,-6.4755e-05,-0.010142,-6.9961e-05,-39.128,1.0766
7392,15.162,2.1818,0.1,0.00020222,2020.8,0.00020152,2000.7,-6.4759e-05,-0.010221,-7.0039e-05,-39.683,1.0768
7393,15.162,2.3636,0.1,0.00020229,2021.6,0.00020158,2001.2,-6.4764e-05,-0.010201,-7.0094e-05,-40.055,1.077
7394,15.162,2.5455,0.1,0.00020235,2022.1,0.00020163,2001.6,-6.477e-05,-0.010138,-7.0131e-05,-40.289,1.0771
7395,15.162,2.7273,0.1,0.00020238,2022.4,0.00020166,2001.9,-6.4774e-05,-0.010072,-7.0153e-05,-40.423,1.0772
7396,15.162,2.9091,0.1,0.0002024,2022.6,0.00020168,2002,-6.4777e-05,-0.010033,-7.0163e-05,-40.482,1.0773
7397,15.162,3.0909,0.1,0.0002024,2022.6,0.00020168,2002,-6.4777e-05,-0.010033,-7.0163e-05,-40.482,1.0773
7398,15.162,3.2727,0.1,0.00020238,2022.4,0.00020166,2001.9,-6.4774e-05,-0.010072,-7.0153e-05,-40.423,1.0772
7399,15.162,3.4545,0.1,0.00020235,2022.1,0.00020163,2001.6,-6.477e-05,-0.010138,-7.0131e-05,-40.289,1.0771
7400,15.162,3.6364,0.1,0.00020229,2021.6,0.00020158,2001.2,-6.4764e-05,-0.0102,-7.0094e-05,-40.055,1.077
7401,15.162,3.8182,0.1,0.00020222,2020.8,0.00020152,2000.7,-6.4759e-05,-0.010221,-7.0039e-05,-39.683,1.0768
7402,15.162,4,0.1,0.00020213,2019.9,0.00020143,2000,-6.4755e-05,-0.010142,-6.9961e-05,-39.128,1.0766
7403,15.162,4.1818,0.1,0.00020201,2018.7,0.00020133,1999.2,-6.4755e-05,-0.0098892,-6.9857e-05,-38.34,1.0763
7404,15.162,4.3636,0.1,0.00020186,2017.2,0.0002012,1998.3,-6.4761e-05,-0.0093924,-6.972e-05,-37.271,1.076
7405,15.162,4.5455,0.1,0.00020169,2015.5,0.00020106,1997.4,-6.4775e-05,-0.0084796,-6.9548e-05,-35.876,1.0756
7406,15.162,4.7273,0.1,0.0002015,2013.6,0.0002009,1996.3,-6.4798e-05,-0.007084,-6.9338e-05,-34.119,1.0752
7407,15.162,4.9091,0.1,0.00020128,2011.4,0.00020072,1995.2,-6.4833e-05,-0.0049349,-6.9088e-05,-31.977,1.0747
7408,15.162,5.0909,0.1,0.00020104,2009,0.00020053,1994.2,-6.4881e-05,-0.0020543,-6.8799e-05,-29.442,1.0742
7409,15.162,5.2727,0.1,0.00020079,2006.5,0.00020033,1993.1,-6.4943e-05,0.003041,-6.8474e-05,-26.525,1.0737
7410,15.162,5.4545,0.1,0.00020053,2004,0.00020013,1992.2,-6.502e-05,0.0063911,-6.8117e-05,-23.263,1.0731
7411,15.162,5.6364,0.1,0.00020029,2001.5,0.00019995,1991.6,-6.5111e-05,0.032401,-6.7746e-05,-19.767,1.0724
7412,15.162,5.8182,0.1,0.00020026,2001.2,0.00019996,1992.5,-6.5223e-05,0.0057724,-6.7538e-05,-17.387,1.0717
7413,15.347,0.18182,0.1,0.00019542,1952.9,0.00019511,1944,-6.361e-05,0.0075927,-6.5965e-05,-17.681,1.0944
7414,15.347,0.36364,0.1,0.00019551,1953.7,0.00019515,1943.3,-6.3489e-05,0.03535,-6.6242e-05,-20.653,1.095
7415,15.347,0.54545,0.1,0.00019581,1956.7,0.00019538,1944.3,-6.3391e-05,0.0062638,-6.6674e-05,-24.657,1.0957
7416,15.347,0.72727,0.1,0.00019612,1959.9,0.00019562,1945.5,-6.331e-05,0.0026187,-6.7085e-05,-28.357,1.0962
7417,15.347,0.90909,0.1,0.00019643,1962.9,0.00019587,1946.9,-6.3247e-05,-0.0028678,-6.7458e-05,-31.638,1.0968
7418,15.347,1.0909,0.1,0.00019671,1965.8,0.0001961,1948.3,-6.3201e-05,-0.0058679,-6.7787e-05,-34.461,1.0973
7419,15.347,1.2727,0.1,0.00019698,1968.4,0.00019632,1949.7,-6.317e-05,-0.0080526,-6.807e-05,-36.818,1.0977
7420,15.347,1.4545,0.1,0.00019721,1970.7,0.00019652,1951.1,-6.3153e-05,-0.0094132,-6.8305e-05,-38.72,1.0981
7421,15.347,1.6364,0.1,0.00019741,1972.8,0.0001967,1952.4,-6.3146e-05,-0.01023,-6.8495e-05,-40.199,1.0985
7422,15.347,1.8182,0.1,0.00019759,1974.5,0.00019685,1953.5,-6.3148e-05,-0.010646,-6.8644e-05,-41.303,1.0988
7423,15.347,2,0.1,0.00019773,1975.9,0.00019698,1954.6,-6.3156e-05,-0.010794,-6.8756e-05,-42.087,1.0991
7424,15.347,2.1818,0.1,0.00019784,1977.1,0.00019708,1955.4,-6.3167e-05,-0.010769,-6.8837e-05,-42.613,1.0993
7425,15.347,2.3636,0.1,0.00019793,1977.9,0.00019717,1956.1,-6.3179e-05,-0.010658,-6.8893e-05,-42.944,1.0995
7426,15.347,2.5455,0.1,0.00019799,1978.6,0.00019722,1956.6,-6.319e-05,-0.010522,-6.893e-05,-43.135,1.0996
7427,15.347,2.7273,0.1,0.00019803,1979,0.00019726,1957,-6.3199e-05,-0.010405,-6.8951e-05,-43.235,1.0997
7428,15.347,2.9091,0.1,0.00019805,1979.2,0.00019728,1957.2,-6.3203e-05,-0.010339,-6.8961e-05,-43.276,1.0998
7429,15.347,3.0909,0.1,0.00019805,1979.2,0.00019728,1957.2,-6.3203e-05,-0.01034,-6.8961e-05,-43.276,1.0998
7430,15.347,3.2727,0.1,0.00019803,1979,0.00019726,1957,-6.3199e-05,-0.010405,-6.8951e-05,-43.235,1.0997
7431,15.347,3.4545,0.1,0.00019799,1978.6,0.00019722,1956.6,-6.319e-05,-0.010522,-6.893e-05,-43.136,1.0996
7432,15.347,3.6364,0.1,0.00019793,1977.9,0.00019717,1956.1,-6.3179e-05,-0.010658,-6.8893e-05,-42.944,1.0995
7433,15.347,3.8182,0.1,0.00019784,1977.1,0.00019708,1955.4,-6.3167e-05,-0.010769,-6.8837e-05,-42.613,1.0993
7434,15.347,4,0.1,0.00019773,1975.9,0.00019698,1954.6,-6.3156e-05,-0.010793,-6.8756e-05,-42.087,1.0991
7435,15.347,4.1818,0.1,0.00019759,1974.5,0.00019685,1953.5,-6.3148e-05,-0.010646,-6.8644e-05,-41.303,1.0988
7436,15.347,4.3636,0.1,0.00019741,1972.8,0.0001967,1952.4,-6.3146e-05,-0.01023,-6.8495e-05,-40.2,1.0985
7437,15.347,4.5455,0.1,0.00019721,1970.7,0.00019652,1951.1,-6.3153e-05,-0.0094128,-6.8305e-05,-38.72,1.0981
7438,15.347,4.7273,0.1,0.00019698,1968.4,0.00019632,1949.7,-6.317e-05,-0.008053,-6.807e-05,-36.818,1.0977
7439,15.347,4.9091,0.1,0.00019671,1965.8,0.0001961,1948.3,-6.3201e-05,-0.0058671,-6.7787e-05,-34.462,1.0973
7440,15.347,5.0909,0.1,0.00019643,1962.9,0.00019587,1946.9,-6.3247e-05,-0.0028674,-6.7458e-05,-31.638,1.0968
7441,15.347,5.2727,0.1,0.00019612,1959.9,0.00019562,1945.5,-6.331e-05,0.0026199,-6.7085e-05,-28.357,1.0962
7442,15.347,5.4545,0.1,0.00019581,1956.7,0.00019538,1944.3,-6.3391e-05,0.0062647,-6.6674e-05,-24.657,1.0957
7443,15.347,5.6364,0.1,0.00019551,1953.7,0.00019515,1943.3,-6.3489e-05,0.035349,-6.6242e-05,-20.653,1.095
7444,15.347,5.8182,0.1,0.00019542,1952.9,0.00019511,1944,-6.361e-05,0.0075932,-6.5965e-05,-17.681,1.0944
7445,15.532,0.18182,0.1,0.00019055,1904.2,0.00019024,1895.2,-6.1988e-05,0.0099607,-6.4384e-05,-17.988,1.1171
7446,15.532,0.36364,0.1,0.00019071,1905.8,0.00019033,1894.9,-6.1856e-05,0.038637,-6.4741e-05,-21.636,1.1178
7447,15.532,0.54545,0.1,0.00019108,1909.4,0.00019062,1896.2,-6.1752e-05,0.0060259,-6.5241e-05,-26.211,1.1184
7448,15.532,0.72727,0.1,0.00019145,1913.2,0.00019092,1897.8,-6.1668e-05,0.0020671,-6.5714e-05,-30.398,1.119
7449,15.532,0.90909,0.1,0.00019182,1916.9,0.00019122,1899.6,-6.1605e-05,-0.0038386,-6.6141e-05,-34.08,1.1195
7450,15.532,1.0909,0.1,0.00019216,1920.3,0.0001915,1901.4,-6.1563e-05,-0.0069528,-6.6515e-05,-37.214,1.12
7451,15.532,1.2727,0.1,0.00019248,1923.5,0.00019177,1903.3,-6.1538e-05,-0.0091615,-6.6833e-05,-39.795,1.1204
7452,15.532,1.4545,0.1,0.00019276,1926.3,0.00019202,1905,-6.1528e-05,-0.010467,-6.7096e-05,-41.84,1.1208
7453,15.532,1.6364,0.1,0.00019301,1928.7,0.00019223,1906.7,-6.1531e-05,-0.011188,-6.7305e-05,-43.393,1.1212
7454,15.532,1.8182,0.1,0.00019321,1930.8,0.00019242,1908.2,-6.1544e-05,-0.011485,-6.7466e-05,-44.511,1.1215
7455,15.532,2,0.1,0.00019338,1932.5,0.00019257,1909.5,-6.1562e-05,-0.011505,-6.7585e-05,-45.268,1.1218
7456,15.532,2.1818,0.1,0.00019352,1933.9,0.0001927,1910.6,-6.1583e-05,-0.011363,-6.7669e-05,-45.739,1.122
7457,15.532,2.3636,0.1,0.00019362,1934.9,0.0001928,1911.5,-6.1604e-05,-0.011149,-6.7726e-05,-46.003,1.1222
7458,15.532,2.5455,0.1,0.0001937,1935.6,0.00019287,1912.2,-6.1623e-05,-0.010931,-6.7761e-05,-46.131,1.1223
7459,15.532,2.7273,0.1,0.00019375,1936.1,0.00019292,1912.6,-6.1636e-05,-0.01076,-6.7781e-05,-46.181,1.1224
7460,15.532,2.9091,0.1,0.00019377,1936.4,0.00019294,1912.8,-6.1643e-05,-0.010665,-6.779e-05,-46.195,1.1225
7461,15.532,3.0909,0.1,0.00019377,1936.4,0.00019294,1912.8,-6.1643e-05,-0.010665,-6.779e-05,-46.195,1.1225
7462,15.532,3.2727,0.1,0.00019375,1936.1,0.00019292,1912.6,-6.1636e-05,-0.010759,-6.7781e-05,-46.181,1.1224
7463,15.532,3.4545,0.1,0.0001937,1935.6,0.00019287,1912.2,-6.1623e-05,-0.010931,-6.7761e-05,-46.131,1.1223
7464,15.532,3.6364,0.1,0.00019362,1934.9,0.0001928,1911.5,-6.1604e-05,-0.011148,-6.7726e-05,-46.003,1.1222
7465,15.532,3.8182,0.1,0.00019352,1933.9,0.0001927,1910.6,-6.1583e-05,-0.011364,-6.7669e-05,-45.739,1.122
7466,15.532,4,0.1,0.00019338,1932.5,0.00019257,1909.5,-6.1562e-05,-0.011505,-6.7585e-05,-45.268,1.1218
7467,15.532,4.1818,0.1,0.00019321,1930.8,0.00019242,1908.2,-6.1544e-05,-0.011484,-6.7466e-05,-44.511,1.1215
7468,15.532,4.3636,0.1,0.00019301,1928.7,0.00019223,1906.7,-6.1531e-05,-0.011188,-6.7305e-05,-43.393,1.1212
7469,15.532,4.5455,0.1,0.00019276,1926.3,0.00019202,1905,-6.1528e-05,-0.010466,-6.7096e-05,-41.84,1.1208
7470,15.532,4.7273,0.1,0.00019248,1923.5,0.00019177,1903.3,-6.1538e-05,-0.0091611,-6.6833e-05,-39.795,1.1204
7471,15.532,4.9091,0.1,0.00019216,1920.3,0.0001915,1901.4,-6.1563e-05,-0.0069527,-6.6515e-05,-37.214,1.12
7472,15.532,5.0909,0.1,0.00019182,1916.9,0.00019122,1899.6,-6.1605e-05,-0.0038368,-6.6141e-05,-34.08,1.1195
7473,15.532,5.2727,0.1,0.00019145,1913.2,0.00019092,1897.8,-6.1668e-05,0.0020692,-6.5714e-05,-30.399,1.119
7474,15.532,5.4545,0.1,0.00019108,1909.4,0.00019062,1896.2,-6.1752e-05,0.0060273,-6.5241e-05,-26.211,1.1184
7475,15.532,5.6364,0.1,0.00019071,1905.8,0.00019033,1894.9,-6.1856e-05,0.038635,-6.4741e-05,-21.636,1.1178
7476,15.532,5.8182,0.1,0.00019055,1904.2,0.00019024,1895.2,-6.1988e-05,0.0099604,-6.4384e-05,-17.988,1.1171
7477,15.717,0.18182,0.1,0.00018565,1855.2,0.00018533,1846,-6.0353e-05,0.013027,-6.2792e-05,-18.311,1.14
7478,15.717,0.36364,0.1,0.00018589,1857.6,0.00018549,1846.1,-6.0209e-05,0.042303,-6.324e-05,-22.73,1.1407
7479,15.717,0.54545,0.1,0.00018633,1862,0.00018584,1847.9,-6.0098e-05,0.00565,-6.3819e-05,-27.952,1.1413
7480,15.717,0.72727,0.1,0.00018678,1866.5,0.0001862,1850,-6.0012e-05,0.0013662,-6.4362e-05,-32.685,1.1418
7481,15.717,0.90909,0.1,0.00018722,1870.9,0.00018657,1852.2,-5.9951e-05,-0.0049893,-6.4849e-05,-36.808,1.1424
7482,15.717,1.0909,0.1,0.00018763,1875,0.00018692,1854.6,-5.9914e-05,-0.0082079,-6.5274e-05,-40.279,1.1428
7483,15.717,1.2727,0.1,0.00018801,1878.8,0.00018724,1856.9,-5.9898e-05,-0.010423,-6.5632e-05,-43.094,1.1433
7484,15.717,1.4545,0.1,0.00018835,1882.2,0.00018754,1859.1,-5.99e-05,-0.011649,-6.5924e-05,-45.28,1.1437
7485,15.717,1.6364,0.1,0.00018864,1885.1,0.0001878,1861.2,-5.9916e-05,-0.01225,-6.6155e-05,-46.891,1.144
7486,15.717,1.8182,0.1,0.00018889,1887.6,0.00018803,1863.1,-5.9942e-05,-0.012404,-6.6329e-05,-48.002,1.1443
7487,15.717,2,0.1,0.00018909,1889.6,0.00018822,1864.8,-5.9974e-05,-0.01228,-6.6454e-05,-48.701,1.1446
7488,15.717,2.1818,0.1,0.00018926,1891.3,0.00018837,1866.2,-6.0009e-05,-0.012003,-6.654e-05,-49.087,1.1448
7489,15.717,2.3636,0.1,0.00018938,1892.5,0.0001885,1867.4,-6.0041e-05,-0.011674,-6.6595e-05,-49.254,1.145
7490,15.717,2.5455,0.1,0.00018947,1893.4,0.00018858,1868.3,-6.0069e-05,-0.011369,-6.6628e-05,-49.291,1.1451
7491,15.717,2.7273,0.1,0.00018953,1894,0.00018864,1868.9,-6.0089e-05,-0.01114,-6.6645e-05,-49.272,1.1452
7492,15.717,2.9091,0.1,0.00018956,1894.3,0.00018867,1869.1,-6.0099e-05,-0.011016,-6.6652e-05,-49.249,1.1452
7493,15.717,3.0909,0.1,0.00018956,1894.3,0.00018867,1869.1,-6.0099e-05,-0.011016,-6.6652e-05,-49.249,1.1452
7494,15.717,3.2727,0.1,0.00018953,1894,0.00018864,1868.9,-6.0089e-05,-0.011139,-6.6645e-05,-49.272,1.1452
7495,15.717,3.4545,0.1,0.00018947,1893.4,0.00018858,1868.3,-6.0069e-05,-0.01137,-6.6628e-05,-49.291,1.1451
7496,15.717,3.6364,0.1,0.00018938,1892.5,0.0001885,1867.4,-6.0041e-05,-0.011673,-6.6595e-05,-49.254,1.145
7497,15.717,3.8182,0.1,0.00018926,1891.3,0.00018837,1866.2,-6.0009e-05,-0.012003,-6.654e-05,-49.087,1.1448
7498,15.717,4,0.1,0.00018909,1889.6,0.00018822,1864.8,-5.9974e-05,-0.01228,-6.6454e-05,-48.701,1.1446
7499,15.717,4.1818,0.1,0.00018889,1887.6,0.00018803,1863.1,-5.9942e-05,-0.012404,-6.6329e-05,-48.002,1.1443
7500,15.717,4.3636,0.1,0.00018864,1885.1,0.0001878,1861.2,-5.9916e-05,-0.012248,-6.6155e-05,-46.891,1.144
7501,15.717,4.5455,0.1,0.00018835,1882.2,0.00018754,1859.1,-5.99e-05,-0.01165,-6.5924e-05,-45.28,1.1437
7502,15.717,4.7273,0.1,0.00018801,1878.8,0.00018724,1856.9,-5.9898e-05,-0.010423,-6.5632e-05,-43.094,1.1433
7503,15.717,4.9091,0.1,0.00018763,1875,0.00018692,1854.6,-5.9914e-05,-0.0082062,-6.5274e-05,-40.28,1.1428
7504,15.717,5.0909,0.1,0.00018722,1870.9,0.00018657,1852.2,-5.9951e-05,-0.0049884,-6.4849e-05,-36.808,1.1424
7505,15.717,5.2727,0.1,0.00018678,1866.5,0.0001862,1850,-6.0012e-05,0.0013676,-6.4362e-05,-32.685,1.1418
7506,15.717,5.4545,0.1,0.00018633,1862,0.00018584,1847.9,-6.0098e-05,0.0056508,-6.3819e-05,-27.952,1.1413
7507,15.717,5.6364,0.1,0.00018589,1857.6,0.00018549,1846.1,-6.0209e-05,0.042303,-6.324e-05,-22.73,1.1407
7508,15.717,5.8182,0.1,0.00018565,1855.2,0.00018533,1846,-6.0353e-05,0.013026,-6.2792e-05,-18.311,1.14
7509,15.902,0.18182,0.1,0.00018069,1805.7,0.00018037,1796.3,-5.87e-05,0.01698,-6.1185e-05,-18.656,1.163
7510,15.902,0.36364,0.1,0.00018102,1809,0.00018061,1796.9,-5.8543e-05,0.04639,-6.1738e-05,-23.957,1.1637
7511,15.902,0.54545,0.1,0.00018156,1814.3,0.00018103,1799.2,-5.8426e-05,0.0050997,-6.2407e-05,-29.91,1.1643
7512,15.902,0.72727,0.1,0.0001821,1819.7,0.00018147,1801.8,-5.8338e-05,0.00048897,-6.303e-05,-35.255,1.1648
7513,15.902,0.90909,0.1,0.00018262,1825,0.00018191,1804.7,-5.8281e-05,-0.0063388,-6.3586e-05,-39.869,1.1653
7514,15.902,1.0909,0.1,0.00018312,1829.9,0.00018233,1807.7,-5.8252e-05,-0.009643,-6.4067e-05,-43.706,1.1658
7515,15.902,1.2727,0.1,0.00018357,1834.4,0.00018273,1810.6,-5.8248e-05,-0.011844,-6.4471e-05,-46.768,1.1662
7516,15.902,1.4545,0.1,0.00018397,1838.5,0.00018309,1813.4,-5.8265e-05,-0.012964,-6.4797e-05,-49.091,1.1666
7517,15.902,1.6364,0.1,0.00018433,1842,0.00018341,1816.1,-5.8298e-05,-0.013413,-6.505e-05,-50.743,1.167
7518,15.902,1.8182,0.1,0.00018462,1845,0.00018369,1818.5,-5.8343e-05,-0.013399,-6.5237e-05,-51.817,1.1673
7519,15.902,2,0.1,0.00018487,1847.4,0.00018392,1820.7,-5.8393e-05,-0.013109,-6.5369e-05,-52.425,1.1675
7520,15.902,2.1818,0.1,0.00018507,1849.4,0.00018411,1822.5,-5.8445e-05,-0.012683,-6.5455e-05,-52.686,1.1677
7521,15.902,2.3636,0.1,0.00018522,1850.9,0.00018426,1824,-5.8492e-05,-0.012233,-6.5507e-05,-52.719,1.1679
7522,15.902,2.5455,0.1,0.00018532,1852,0.00018437,1825.1,-5.8532e-05,-0.011839,-6.5536e-05,-52.635,1.168
7523,15.902,2.7273,0.1,0.00018539,1852.6,0.00018444,1825.8,-5.856e-05,-0.01155,-6.5549e-05,-52.524,1.1681
7524,15.902,2.9091,0.1,0.00018543,1853,0.00018448,1826.2,-5.8575e-05,-0.011399,-6.5555e-05,-52.451,1.1682
7525,15.902,3.0909,0.1,0.00018543,1853,0.00018448,1826.2,-5.8575e-05,-0.0114,-6.5555e-05,-52.451,1.1682
7526,15.902,3.2727,0.1,0.00018539,1852.6,0.00018444,1825.8,-5.856e-05,-0.011551,-6.5549e-05,-52.524,1.1681
7527,15.902,3.4545,0.1,0.00018532,1852,0.00018437,1825.1,-5.8532e-05,-0.011838,-6.5536e-05,-52.635,1.168
7528,15.902,3.6364,0.1,0.00018522,1850.9,0.00018426,1824,-5.8492e-05,-0.012233,-6.5507e-05,-52.719,1.1679
7529,15.902,3.8182,0.1,0.00018507,1849.4,0.00018411,1822.5,-5.8445e-05,-0.012683,-6.5455e-05,-52.686,1.1677
7530,15.902,4,0.1,0.00018487,1847.4,0.00018392,1820.7,-5.8393e-05,-0.013109,-6.5369e-05,-52.425,1.1675
7531,15.902,4.1818,0.1,0.00018462,1845,0.00018369,1818.5,-5.8343e-05,-0.013399,-6.5237e-05,-51.817,1.1673
7532,15.902,4.3636,0.1,0.00018433,1842,0.00018341,1816.1,-5.8298e-05,-0.013413,-6.505e-05,-50.743,1.167
7533,15.902,4.5455,0.1,0.00018397,1838.5,0.00018309,1813.4,-5.8265e-05,-0.012964,-6.4797e-05,-49.091,1.1666
7534,15.902,4.7273,0.1,0.00018357,1834.4,0.00018273,1810.6,-5.8248e-05,-0.011843,-6.4471e-05,-46.768,1.1662
7535,15.902,4.9091,0.1,0.00018312,1829.9,0.00018233,1807.7,-5.8252e-05,-0.009643,-6.4067e-05,-43.707,1.1658
7536,15.902,5.0909,0.1,0.00018262,1825,0.00018191,1804.7,-5.8281e-05,-0.0063366,-6.3586e-05,-39.869,1.1653
7537,15.902,5.2727,0.1,0.0001821,1819.7,0.00018147,1801.8,-5.8338e-05,0.00049115,-6.303e-05,-35.255,1.1648
7538,15.902,5.4545,0.1,0.00018156,1814.3,0.00018103,1799.2,-5.8426e-05,0.0051001,-6.2407e-05,-29.91,1.1643
7539,15.902,5.6364,0.1,0.00018102,1809,0.00018061,1796.9,-5.8543e-05,0.046389,-6.1738e-05,-23.957,1.1637
7540,15.902,5.8182,0.1,0.00018069,1805.7,0.00018037,1796.3,-5.87e-05,0.016979,-6.1185e-05,-18.656,1.163
7541,16.087,0.18182,0.1,0.00017567,1755.5,0.00017534,1745.9,-5.7023e-05,0.022036,-5.9559e-05,-19.027,1.1862
7542,16.087,0.36364,0.1,0.00017611,1759.9,0.00017567,1747.1,-5.6853e-05,0.050934,-6.0232e-05,-25.338,1.1868
7543,16.087,0.54545,0.1,0.00017675,1766.3,0.00017618,1750,-5.6728e-05,0.0043399,-6.1004e-05,-32.12,1.1874
7544,16.087,0.72727,0.1,0.00017739,1772.7,0.00017671,1753.3,-5.664e-05,-0.00058276,-6.1718e-05,-38.153,1.1879
7545,16.087,0.90909,0.1,0.00017802,1779,0.00017725,1756.9,-5.6589e-05,-0.0079025,-6.2353e-05,-43.313,1.1884
7546,16.087,1.0909,0.1,0.00017861,1784.9,0.00017776,1760.6,-5.6572e-05,-0.011269,-6.2899e-05,-47.552,1.1889
7547,16.087,1.2727,0.1,0.00017916,1790.3,0.00017824,1764.3,-5.6584e-05,-0.013423,-6.3354e-05,-50.876,1.1893
7548,16.087,1.4545,0.1,0.00017964,1795.2,0.00017867,1767.9,-5.6622e-05,-0.014402,-6.3718e-05,-53.332,1.1897
7549,16.087,1.6364,0.1,0.00018007,1799.4,0.00017907,1771.3,-5.6678e-05,-0.014669,-6.3996e-05,-55.005,1.19
7550,16.087,1.8182,0.1,0.00018043,1803,0.00017941,1774.3,-5.6746e-05,-0.014458,-6.4198e-05,-56.009,1.1903
7551,16.087,2,0.1,0.00018072,1806,0.0001797,1777.1,-5.682e-05,-0.01398,-6.4335e-05,-56.482,1.1906
7552,16.087,2.1818,0.1,0.00018096,1808.3,0.00017993,1779.4,-5.6894e-05,-0.013393,-6.4421e-05,-56.572,1.1908
7553,16.087,2.3636,0.1,0.00018114,1810.2,0.00018011,1781.3,-5.6961e-05,-0.01282,-6.4469e-05,-56.427,1.191
7554,16.087,2.5455,0.1,0.00018127,1811.5,0.00018025,1782.7,-5.7016e-05,-0.012341,-6.4492e-05,-56.182,1.1911
7555,16.087,2.7273,0.1,0.00018135,1812.3,0.00018034,1783.7,-5.7055e-05,-0.012002,-6.45e-05,-55.951,1.1912
7556,16.087,2.9091,0.1,0.0001814,1812.7,0.00018038,1784.1,-5.7076e-05,-0.011829,-6.4502e-05,-55.814,1.1912
7557,16.087,3.0909,0.1,0.0001814,1812.7,0.00018038,1784.1,-5.7076e-05,-0.011829,-6.4502e-05,-55.814,1.1912
7558,16.087,3.2727,0.1,0.00018135,1812.3,0.00018034,1783.7,-5.7055e-05,-0.012002,-6.45e-05,-55.951,1.1912
7559,16.087,3.4545,0.1,0.00018127,1811.5,0.00018025,1782.7,-5.7016e-05,-0.012341,-6.4492e-05,-56.182,1.1911
7560,16.087,3.6364,0.1,0.00018114,1810.2,0.00018011,1781.3,-5.6961e-05,-0.01282,-6.4469e-05,-56.427,1.191
7561,16.087,3.8182,0.1,0.00018096,1808.3,0.00017993,1779.4,-5.6894e-05,-0.013393,-6.4421e-05,-56.572,1.1908
7562,16.087,4,0.1,0.00018072,1806,0.0001797,1777.1,-5.682e-05,-0.01398,-6.4335e-05,-56.482,1.1906
7563,16.087,4.1818,0.1,0.00018043,1803,0.00017941,1774.3,-5.6746e-05,-0.014458,-6.4198e-05,-56.009,1.1903
7564,16.087,4.3636,0.1,0.00018007,1799.4,0.00017907,1771.3,-5.6678e-05,-0.014669,-6.3996e-05,-55.005,1.19
7565,16.087,4.5455,0.1,0.00017964,1795.2,0.00017867,1767.9,-5.6622e-05,-0.014401,-6.3718e-05,-53.332,1.1897
7566,16.087,4.7273,0.1,0.00017916,1790.3,0.00017824,1764.3,-5.6584e-05,-0.013423,-6.3354e-05,-50.876,1.1893
7567,16.087,4.9091,0.1,0.00017861,1784.9,0.00017776,1760.6,-5.6572e-05,-0.011268,-6.2899e-05,-47.552,1.1889
7568,16.087,5.0909,0.1,0.00017802,1779,0.00017725,1756.9,-5.6589e-05,-0.0079014,-6.2353e-05,-43.313,1.1884
7569,16.087,5.2727,0.1,0.00017739,1772.7,0.00017671,1753.3,-5.664e-05,-0.00058222,-6.1718e-05,-38.153,1.1879
7570,16.087,5.4545,0.1,0.00017675,1766.3,0.00017618,1750,-5.6728e-05,0.0043393,-6.1004e-05,-32.12,1.1874
7571,16.087,5.6364,0.1,0.00017611,1759.9,0.00017567,1747.1,-5.6853e-05,0.050934,-6.0232e-05,-25.338,1.1868
7572,16.087,5.8182,0.1,0.00017567,1755.5,0.00017534,1745.9,-5.7023e-05,0.022036,-5.9559e-05,-19.027,1.1862
7573,16.272,0.18182,0.1,0.00017056,1704.4,0.00017022,1694.6,-5.5316e-05,0.028446,-5.7905e-05,-19.43,1.2094
7574,16.272,0.36364,0.1,0.00017113,1710.1,0.00017065,1696.5,-5.513e-05,0.055956,-5.8717e-05,-26.895,1.21
7575,16.272,0.54545,0.1,0.00017189,1717.7,0.00017127,1700.1,-5.4999e-05,0.0033188,-5.9607e-05,-34.618,1.2106
7576,16.272,0.72727,0.1,0.00017266,1725.4,0.00017192,1704.3,-5.4913e-05,-0.0018769,-6.0426e-05,-41.428,1.2111
7577,16.272,0.90909,0.1,0.00017341,1732.9,0.00017256,1708.8,-5.4871e-05,-0.0096948,-6.1152e-05,-47.199,1.2116
7578,16.272,1.0909,0.1,0.00017412,1739.9,0.00017317,1713.4,-5.487e-05,-0.013083,-6.1773e-05,-51.881,1.2121
7579,16.272,1.2727,0.1,0.00017477,1746.5,0.00017376,1718.1,-5.4904e-05,-0.015153,-6.2287e-05,-55.486,1.2125
7580,16.272,1.4545,0.1,0.00017535,1752.3,0.00017429,1722.6,-5.4968e-05,-0.015949,-6.2694e-05,-58.071,1.2129
7581,16.272,1.6364,0.1,0.00017587,1757.5,0.00017477,1726.8,-5.5053e-05,-0.015994,-6.3002e-05,-59.742,1.2132
7582,16.272,1.8182,0.1,0.0001763,1761.8,0.00017519,1730.7,-5.5152e-05,-0.015553,-6.322e-05,-60.638,1.2135
7583,16.272,2,0.1,0.00017666,1765.4,0.00017555,1734.2,-5.5256e-05,-0.014866,-6.3363e-05,-60.927,1.2138
7584,16.272,2.1818,0.1,0.00017695,1768.3,0.00017584,1737.1,-5.5358e-05,-0.014114,-6.3447e-05,-60.791,1.214
7585,16.272,2.3636,0.1,0.00017717,1770.5,0.00017607,1739.5,-5.545e-05,-0.013424,-6.3489e-05,-60.412,1.2141
7586,16.272,2.5455,0.1,0.00017733,1772.1,0.00017624,1741.3,-5.5525e-05,-0.012877,-6.3504e-05,-59.96,1.2143
7587,16.272,2.7273,0.1,0.00017743,1773.1,0.00017635,1742.6,-5.5579e-05,-0.012509,-6.3506e-05,-59.573,1.2144
7588,16.272,2.9091,0.1,0.00017748,1773.6,0.0001764,1743.2,-5.5606e-05,-0.012324,-6.3504e-05,-59.354,1.2144
7589,16.272,3.0909,0.1,0.00017748,1773.6,0.0001764,1743.2,-5.5606e-05,-0.012324,-6.3504e-05,-59.354,1.2144
7590,16.272,3.2727,0.1,0.00017743,1773.1,0.00017635,1742.6,-5.5579e-05,-0.012508,-6.3506e-05,-59.573,1.2144
7591,16.272,3.4545,0.1,0.00017733,1772.1,0.00017624,1741.3,-5.5525e-05,-0.012878,-6.3504e-05,-59.96,1.2143
7592,16.272,3.6364,0.1,0.00017717,1770.5,0.00017607,1739.5,-5.545e-05,-0.013424,-6.3489e-05,-60.412,1.2141
7593,16.272,3.8182,0.1,0.00017695,1768.3,0.00017584,1737.1,-5.5358e-05,-0.014114,-6.3447e-05,-60.791,1.214
7594,16.272,4,0.1,0.00017666,1765.4,0.00017555,1734.2,-5.5256e-05,-0.014866,-6.3363e-05,-60.927,1.2138
7595,16.272,4.1818,0.1,0.0001763,1761.8,0.00017519,1730.7,-5.5152e-05,-0.015553,-6.322e-05,-60.638,1.2135
7596,16.272,4.3636,0.1,0.00017587,1757.5,0.00017477,1726.8,-5.5053e-05,-0.015994,-6.3002e-05,-59.742,1.2132
7597,16.272,4.5455,0.1,0.00017535,1752.3,0.00017429,1722.6,-5.4968e-05,-0.015948,-6.2694e-05,-58.071,1.2129
7598,16.272,4.7273,0.1,0.00017477,1746.5,0.00017376,1718.1,-5.4904e-05,-0.015152,-6.2287e-05,-55.486,1.2125
7599,16.272,4.9091,0.1,0.00017412,1739.9,0.00017317,1713.4,-5.487e-05,-0.013082,-6.1773e-05,-51.881,1.2121
7600,16.272,5.0909,0.1,0.00017341,1732.9,0.00017256,1708.8,-5.4871e-05,-0.0096938,-6.1152e-05,-47.199,1.2116
7601,16.272,5.2727,0.1,0.00017266,1725.4,0.00017192,1704.3,-5.4913e-05,-0.0018755,-6.0426e-05,-41.428,1.2111
7602,16.272,5.4545,0.1,0.00017189,1717.7,0.00017127,1700.1,-5.4999e-05,0.0033192,-5.9607e-05,-34.618,1.2106
7603,16.272,5.6364,0.1,0.00017113,1710.1,0.00017065,1696.5,-5.513e-05,0.055956,-5.8717e-05,-26.895,1.21
7604,16.272,5.8182,0.1,0.00017056,1704.4,0.00017022,1694.6,-5.5316e-05,0.028446,-5.7905e-05,-19.43,1.2094
7605,16.457,0.18182,0.1,0.00016533,1652.1,0.00016498,1642.1,-5.3568e-05,0.036461,-5.6218e-05,-19.874,1.2328
7606,16.457,0.36364,0.1,0.00016605,1659.4,0.00016555,1644.9,-5.3366e-05,0.061462,-5.7188e-05,-28.656,1.2334
7607,16.457,0.54545,0.1,0.00016696,1668.4,0.00016629,1649.4,-5.323e-05,0.0019882,-5.8214e-05,-37.446,1.234
7608,16.457,0.72727,0.1,0.00016787,1677.6,0.00016706,1654.5,-5.3148e-05,-0.0034096,-5.9154e-05,-45.133,1.2345
7609,16.457,0.90909,0.1,0.00016877,1686.5,0.00016783,1660.1,-5.3119e-05,-0.011715,-5.9984e-05,-51.59,1.235
7610,16.457,1.0909,0.1,0.00016962,1695,0.00016858,1665.9,-5.314e-05,-0.015073,-6.0693e-05,-56.767,1.2354
7611,16.457,1.2727,0.1,0.0001704,1702.9,0.00016929,1671.7,-5.3203e-05,-0.017007,-6.1276e-05,-60.677,1.2358
7612,16.457,1.4545,0.1,0.00017111,1710,0.00016995,1677.4,-5.33e-05,-0.017569,-6.1734e-05,-63.392,1.2362
7613,16.457,1.6364,0.1,0.00017174,1716.2,0.00017054,1682.7,-5.3423e-05,-0.017347,-6.2076e-05,-65.036,1.2365
7614,16.457,1.8182,0.1,0.00017227,1721.5,0.00017106,1687.7,-5.3561e-05,-0.016639,-6.2313e-05,-65.779,1.2368
7615,16.457,2,0.1,0.00017271,1725.9,0.0001715,1692,-5.3704e-05,-0.015726,-6.2463e-05,-65.824,1.2371
7616,16.457,2.1818,0.1,0.00017306,1729.4,0.00017186,1695.8,-5.3842e-05,-0.014809,-6.2544e-05,-65.396,1.2373
7617,16.457,2.3636,0.1,0.00017333,1732.1,0.00017214,1698.9,-5.3966e-05,-0.014026,-6.2577e-05,-64.719,1.2374
7618,16.457,2.5455,0.1,0.00017353,1734.1,0.00017235,1701.2,-5.4067e-05,-0.013449,-6.2583e-05,-64.001,1.2376
7619,16.457,2.7273,0.1,0.00017366,1735.4,0.00017249,1702.8,-5.4138e-05,-0.013083,-6.2576e-05,-63.418,1.2377
7620,16.457,2.9091,0.1,0.00017372,1736,0.00017256,1703.6,-5.4174e-05,-0.012913,-6.257e-05,-63.093,1.2377
7621,16.457,3.0909,0.1,0.00017372,1736,0.00017256,1703.6,-5.4174e-05,-0.012911,-6.257e-05,-63.093,1.2377
7622,16.457,3.2727,0.1,0.00017366,1735.4,0.00017249,1702.8,-5.4138e-05,-0.013083,-6.2576e-05,-63.418,1.2377
7623,16.457,3.4545,0.1,0.00017353,1734.1,0.00017235,1701.2,-5.4067e-05,-0.013449,-6.2583e-05,-64.001,1.2376
7624,16.457,3.6364,0.1,0.00017333,1732.1,0.00017214,1698.9,-5.3966e-05,-0.014027,-6.2577e-05,-64.719,1.2374
7625,16.457,3.8182,0.1,0.00017306,1729.4,0.00017186,1695.8,-5.3842e-05,-0.014808,-6.2544e-05,-65.396,1.2373
7626,16.457,4,0.1,0.00017271,1725.9,0.0001715,1692,-5.3704e-05,-0.015725,-6.2463e-05,-65.825,1.2371
7627,16.457,4.1818,0.1,0.00017227,1721.5,0.00017106,1687.7,-5.3561e-05,-0.01664,-6.2313e-05,-65.779,1.2368
7628,16.457,4.3636,0.1,0.00017174,1716.2,0.00017054,1682.7,-5.3423e-05,-0.017347,-6.2076e-05,-65.036,1.2365
7629,16.457,4.5455,0.1,0.00017111,1710,0.00016995,1677.4,-5.33e-05,-0.017568,-6.1735e-05,-63.392,1.2362
7630,16.457,4.7273,0.1,0.0001704,1702.9,0.00016929,1671.7,-5.3203e-05,-0.017007,-6.1276e-05,-60.677,1.2358
7631,16.457,4.9091,0.1,0.00016962,1695,0.00016858,1665.9,-5.314e-05,-0.015072,-6.0693e-05,-56.767,1.2354
7632,16.457,5.0909,0.1,0.00016877,1686.5,0.00016783,1660.1,-5.3119e-05,-0.011713,-5.9984e-05,-51.59,1.235
7633,16.457,5.2727,0.1,0.00016787,1677.6,0.00016706,1654.5,-5.3148e-05,-0.0034072,-5.9154e-05,-45.133,1.2345
7634,16.457,5.4545,0.1,0.00016696,1668.4,0.00016629,1649.4,-5.323e-05,0.0019872,-5.8214e-05,-37.446,1.234
7635,16.457,5.6364,0.1,0.00016605,1659.4,0.00016555,1644.9,-5.3366e-05,0.06146,-5.7188e-05,-28.656,1.2334
7636,16.457,5.8182,0.1,0.00016533,1652.1,0.00016498,1642.1,-5.3568e-05,0.036462,-5.6218e-05,-19.874,1.2328
7637,16.642,0.18182,0.1,0.00015995,1598.4,0.0001596,1588.2,-5.1769e-05,0.046296,-5.4486e-05,-20.365,1.2563
7638,16.642,0.36364,0.1,0.00016085,1607.4,0.00016031,1591.9,-5.155e-05,0.067401,-5.5638e-05,-30.644,1.2569
7639,16.642,0.54545,0.1,0.00016193,1618.2,0.0001612,1597.5,-5.141e-05,0.00027799,-5.682e-05,-40.643,1.2574
7640,16.642,0.72727,0.1,0.00016302,1629.1,0.00016212,1603.8,-5.1335e-05,-0.005193,-5.7899e-05,-49.323,1.2579
7641,16.642,0.90909,0.1,0.00016409,1639.8,0.00016305,1610.7,-5.1325e-05,-0.013952,-5.8851e-05,-56.558,1.2584
7642,16.642,1.0909,0.1,0.00016511,1650,0.00016396,1617.9,-5.1374e-05,-0.017206,-5.9662e-05,-62.292,1.2589
7643,16.642,1.2727,0.1,0.00016606,1659.5,0.00016483,1625.2,-5.1473e-05,-0.018943,-6.0327e-05,-66.543,1.2593
7644,16.642,1.4545,0.1,0.00016693,1668.1,0.00016564,1632.3,-5.1614e-05,-0.01921,-6.0847e-05,-69.392,1.2596
7645,16.642,1.6364,0.1,0.00016769,1675.7,0.00016637,1639.1,-5.1785e-05,-0.018665,-6.123e-05,-70.985,1.26
7646,16.642,1.8182,0.1,0.00016834,1682.2,0.00016701,1645.3,-5.1973e-05,-0.01765,-6.149e-05,-71.524,1.2602
7647,16.642,2,0.1,0.00016888,1687.7,0.00016756,1650.9,-5.2166e-05,-0.016491,-6.1647e-05,-71.257,1.2605
7648,16.642,2.1818,0.1,0.00016932,1692,0.00016801,1655.7,-5.235e-05,-0.015424,-6.1725e-05,-70.456,1.2607
7649,16.642,2.3636,0.1,0.00016965,1695.4,0.00016837,1659.6,-5.2514e-05,-0.014594,-6.1749e-05,-69.401,1.2609
7650,16.642,2.5455,0.1,0.0001699,1697.8,0.00016863,1662.6,-5.2648e-05,-0.014052,-6.1743e-05,-68.349,1.261
7651,16.642,2.7273,0.1,0.00017005,1699.4,0.00016881,1664.6,-5.2742e-05,-0.013759,-6.1726e-05,-67.517,1.2611
7652,16.642,2.9091,0.1,0.00017013,1700.1,0.00016889,1665.6,-5.279e-05,-0.01364,-6.1713e-05,-67.06,1.2611
7653,16.642,3.0909,0.1,0.00017013,1700.1,0.00016889,1665.6,-5.279e-05,-0.013641,-6.1713e-05,-67.06,1.2611
7654,16.642,3.2727,0.1,0.00017005,1699.4,0.00016881,1664.6,-5.2742e-05,-0.013759,-6.1726e-05,-67.517,1.2611
7655,16.642,3.4545,0.1,0.0001699,1697.8,0.00016863,1662.6,-5.2648e-05,-0.014052,-6.1743e-05,-68.349,1.261
7656,16.642,3.6364,0.1,0.00016965,1695.4,0.00016837,1659.6,-5.2514e-05,-0.014595,-6.1749e-05,-69.401,1.2609
7657,16.642,3.8182,0.1,0.00016932,1692,0.00016801,1655.7,-5.235e-05,-0.015422,-6.1725e-05,-70.456,1.2607
7658,16.642,4,0.1,0.00016888,1687.7,0.00016756,1650.9,-5.2166e-05,-0.016492,-6.1647e-05,-71.257,1.2605
7659,16.642,4.1818,0.1,0.00016834,1682.2,0.00016701,1645.3,-5.1973e-05,-0.01765,-6.149e-05,-71.525,1.2602
7660,16.642,4.3636,0.1,0.00016769,1675.7,0.00016637,1639.1,-5.1785e-05,-0.018664,-6.123e-05,-70.985,1.26
7661,16.642,4.5455,0.1,0.00016693,1668.1,0.00016564,1632.3,-5.1614e-05,-0.01921,-6.0847e-05,-69.392,1.2596
7662,16.642,4.7273,0.1,0.00016606,1659.5,0.00016483,1625.2,-5.1473e-05,-0.018943,-6.0327e-05,-66.543,1.2593
7663,16.642,4.9091,0.1,0.00016511,1650,0.00016396,1617.9,-5.1374e-05,-0.017206,-5.9662e-05,-62.292,1.2589
7664,16.642,5.0909,0.1,0.00016409,1639.8,0.00016305,1610.7,-5.1325e-05,-0.01395,-5.8851e-05,-56.558,1.2584
7665,16.642,5.2727,0.1,0.00016302,1629.1,0.00016212,1603.8,-5.1335e-05,-0.0051924,-5.7899e-05,-49.323,1.2579
7666,16.642,5.4545,0.1,0.00016193,1618.2,0.0001612,1597.5,-5.141e-05,0.00027707,-5.682e-05,-40.643,1.2574
7667,16.642,5.6364,0.1,0.00016085,1607.4,0.00016031,1591.9,-5.155e-05,0.0674,-5.5638e-05,-30.644,1.2569
7668,16.642,5.8182,0.1,0.00015995,1598.4,0.0001596,1588.2,-5.1769e-05,0.046298,-5.4486e-05,-20.365,1.2563
7669,16.826,0.18182,0.1,0.00015439,1542.9,0.00015403,1532.3,-4.9906e-05,0.058053,-5.2697e-05,-20.914,1.2799
7670,16.826,0.36364,0.1,0.00015549,1553.9,0.00015491,1537.2,-4.967e-05,0.073682,-5.4056e-05,-32.885,1.2804
7671,16.826,0.54545,0.1,0.00015677,1566.6,0.00015597,1544,-4.9527e-05,-0.0018749,-5.5416e-05,-44.25,1.281
7672,16.826,0.72727,0.1,0.00015807,1579.6,0.00015708,1551.9,-4.9463e-05,-0.0072258,-5.6656e-05,-54.056,1.2815
7673,16.826,0.90909,0.1,0.00015935,1592.4,0.0001582,1560.4,-4.9478e-05,-0.016362,-5.7751e-05,-62.178,1.282
7674,16.826,1.0909,0.1,0.00016059,1604.8,0.00015931,1569.4,-4.9563e-05,-0.019417,-5.8685e-05,-68.553,1.2824
7675,16.826,1.2727,0.1,0.00016174,1616.3,0.00016037,1578.5,-4.971e-05,-0.020876,-5.9449e-05,-73.195,1.2828
7676,16.826,1.4545,0.1,0.0001628,1626.8,0.00016137,1587.4,-4.9906e-05,-0.020776,-6.0044e-05,-76.193,1.2832
7677,16.826,1.6364,0.1,0.00016373,1636.2,0.00016227,1595.9,-5.0138e-05,-0.019843,-6.0478e-05,-77.713,1.2835
7678,16.826,1.8182,0.1,0.00016454,1644.2,0.00016307,1603.8,-5.039e-05,-0.018473,-6.0767e-05,-77.992,1.2838
7679,16.826,2,0.1,0.00016521,1651,0.00016376,1610.9,-5.0645e-05,-0.017052,-6.0935e-05,-77.33,1.284
7680,16.826,2.1818,0.1,0.00016575,1656.4,0.00016433,1617,-5.0888e-05,-0.015864,-6.101e-05,-76.061,1.2842
7681,16.826,2.3636,0.1,0.00016617,1660.6,0.00016478,1622,-5.1104e-05,-0.01507,-6.1022e-05,-74.531,1.2844
7682,16.826,2.5455,0.1,0.00016647,1663.6,0.00016511,1625.9,-5.1279e-05,-0.014677,-6.1001e-05,-73.06,1.2845
7683,16.826,2.7273,0.1,0.00016667,1665.6,0.00016533,1628.4,-5.1402e-05,-0.014564,-6.0972e-05,-71.917,1.2846
7684,16.826,2.9091,0.1,0.00016677,1666.5,0.00016544,1629.7,-5.1465e-05,-0.014569,-6.0952e-05,-71.295,1.2846
7685,16.826,3.0909,0.1,0.00016677,1666.5,0.00016544,1629.7,-5.1465e-05,-0.014568,-6.0952e-05,-71.295,1.2846
7686,16.826,3.2727,0.1,0.00016667,1665.6,0.00016533,1628.4,-5.1402e-05,-0.014565,-6.0972e-05,-71.917,1.2846
7687,16.826,3.4545,0.1,0.00016647,1663.6,0.00016511,1625.9,-5.1279e-05,-0.014677,-6.1001e-05,-73.06,1.2845
7688,16.826,3.6364,0.1,0.00016617,1660.6,0.00016478,1622,-5.1104e-05,-0.015069,-6.1022e-05,-74.531,1.2844
7689,16.826,3.8182,0.1,0.00016575,1656.4,0.00016433,1617,-5.0888e-05,-0.015865,-6.101e-05,-76.061,1.2842
7690,16.826,4,0.1,0.00016521,1651,0.00016376,1610.9,-5.0645e-05,-0.017052,-6.0935e-05,-77.33,1.284
7691,16.826,4.1818,0.1,0.00016454,1644.2,0.00016307,1603.8,-5.039e-05,-0.018473,-6.0767e-05,-77.992,1.2838
7692,16.826,4.3636,0.1,0.00016373,1636.2,0.00016227,1595.9,-5.0138e-05,-0.019842,-6.0478e-05,-77.713,1.2835
7693,16.826,4.5455,0.1,0.0001628,1626.8,0.00016137,1587.4,-4.9906e-05,-0.020776,-6.0044e-05,-76.193,1.2832
7694,16.826,4.7273,0.1,0.00016174,1616.3,0.00016037,1578.5,-4.971e-05,-0.020877,-5.9449e-05,-73.195,1.2828
7695,16.826,4.9091,0.1,0.00016059,1604.8,0.00015931,1569.4,-4.9563e-05,-0.019416,-5.8685e-05,-68.553,1.2824
7696,16.826,5.0909,0.1,0.00015935,1592.4,0.0001582,1560.4,-4.9478e-05,-0.01636,-5.7751e-05,-62.178,1.282
7697,16.826,5.2727,0.1,0.00015807,1579.6,0.00015708,1551.9,-4.9463e-05,-0.0072256,-5.6656e-05,-54.056,1.2815
7698,16.826,5.4545,0.1,0.00015677,1566.6,0.00015597,1544,-4.9527e-05,-0.0018736,-5.5416e-05,-44.25,1.281
7699,16.826,5.6364,0.1,0.00015549,1553.9,0.00015491,1537.2,-4.967e-05,0.073681,-5.4056e-05,-32.885,1.2804
7700,16.826,5.8182,0.1,0.00015439,1542.9,0.00015403,1532.3,-4.9906e-05,0.058053,-5.2697e-05,-20.914,1.2799
7701,17.011,0.18182,0.1,0.0001486,1485,0.00014822,1474.1,-4.7962e-05,0.071539,-5.0837e-05,-21.529,1.3035
7702,17.011,0.36364,0.1,0.00014994,1498.3,0.0001493,1480.3,-4.7708e-05,0.080082,-5.243e-05,-35.397,1.3041
7703,17.011,0.54545,0.1,0.00015144,1513.4,0.00015057,1488.7,-4.7566e-05,-0.0045677,-5.3993e-05,-48.301,1.3047
7704,17.011,0.72727,0.1,0.00015299,1528.9,0.00015189,1498.3,-4.7518e-05,-0.0095056,-5.542e-05,-59.386,1.3052
7705,17.011,0.90909,0.1,0.00015453,1544.3,0.00015325,1508.8,-4.7565e-05,-0.018889,-5.6683e-05,-68.531,1.3057
7706,17.011,1.0909,0.1,0.00015603,1559.2,0.0001546,1520,-4.7697e-05,-0.021616,-5.7764e-05,-75.657,1.3061
7707,17.011,1.2727,0.1,0.00015744,1573.3,0.00015591,1531.3,-4.7904e-05,-0.022709,-5.865e-05,-80.767,1.3065
7708,17.011,1.4545,0.1,0.00015873,1586.2,0.00015714,1542.6,-4.817e-05,-0.022156,-5.934e-05,-83.946,1.3068
7709,17.011,1.6364,0.1,0.00015989,1597.8,0.00015826,1553.4,-4.8479e-05,-0.020757,-5.9839e-05,-85.375,1.3072
7710,17.011,1.8182,0.1,0.00016089,1607.7,0.00015926,1563.4,-4.8811e-05,-0.01897,-6.0166e-05,-85.334,1.3074
7711,17.011,2,0.1,0.00016172,1616.1,0.00016013,1572.4,-4.9146e-05,-0.017274,-6.0348e-05,-84.18,1.3077
7712,17.011,2.1818,0.1,0.0001624,1622.9,0.00016084,1580.2,-4.9464e-05,-0.016019,-6.0419e-05,-82.328,1.3079
7713,17.011,2.3636,0.1,0.00016293,1628.2,0.00016142,1586.6,-4.9746e-05,-0.01539,-6.0418e-05,-80.204,1.308
7714,17.011,2.5455,0.1,0.00016331,1632,0.00016184,1591.5,-4.9973e-05,-0.015329,-6.038e-05,-78.21,1.3082
7715,17.011,2.7273,0.1,0.00016356,1634.5,0.00016212,1594.8,-5.0133e-05,-0.015581,-6.0337e-05,-76.68,1.3082
7716,17.011,2.9091,0.1,0.00016368,1635.7,0.00016226,1596.4,-5.0216e-05,-0.015819,-6.0309e-05,-75.852,1.3083
7717,17.011,3.0909,0.1,0.00016368,1635.7,0.00016226,1596.4,-5.0216e-05,-0.015819,-6.0309e-05,-75.852,1.3083
7718,17.011,3.2727,0.1,0.00016356,1634.5,0.00016212,1594.8,-5.0133e-05,-0.015581,-6.0337e-05,-76.68,1.3082
7719,17.011,3.4545,0.1,0.00016331,1632,0.00016184,1591.5,-4.9973e-05,-0.015329,-6.038e-05,-78.21,1.3082
7720,17.011,3.6364,0.1,0.00016293,1628.2,0.00016142,1586.6,-4.9746e-05,-0.015389,-6.0418e-05,-80.204,1.308
7721,17.011,3.8182,0.1,0.0001624,1622.9,0.00016084,1580.2,-4.9464e-05,-0.016019,-6.0419e-05,-82.328,1.3079
7722,17.011,4,0.1,0.00016172,1616.1,0.00016013,1572.4,-4.9146e-05,-0.017272,-6.0348e-05,-84.18,1.3077
7723,17.011,4.1818,0.1,0.00016089,1607.7,0.00015926,1563.4,-4.8811e-05,-0.018971,-6.0166e-05,-85.334,1.3074
7724,17.011,4.3636,0.1,0.00015989,1597.8,0.00015826,1553.4,-4.8479e-05,-0.020757,-5.9839e-05,-85.376,1.3072
7725,17.011,4.5455,0.1,0.00015873,1586.2,0.00015714,1542.6,-4.817e-05,-0.022156,-5.934e-05,-83.946,1.3068
7726,17.011,4.7273,0.1,0.00015744,1573.3,0.00015591,1531.3,-4.7904e-05,-0.022708,-5.865e-05,-80.767,1.3065
7727,17.011,4.9091,0.1,0.00015603,1559.2,0.0001546,1520,-4.7697e-05,-0.021616,-5.7764e-05,-75.658,1.3061
7728,17.011,5.0909,0.1,0.00015453,1544.3,0.00015325,1508.8,-4.7565e-05,-0.018888,-5.6683e-05,-68.531,1.3057
7729,17.011,5.2727,0.1,0.00015299,1528.9,0.00015189,1498.3,-4.7518e-05,-0.0095057,-5.542e-05,-59.386,1.3052
7730,17.011,5.4545,0.1,0.00015144,1513.4,0.00015057,1488.7,-4.7566e-05,-0.0045649,-5.3993e-05,-48.301,1.3047
7731,17.011,5.6364,0.1,0.00014994,1498.3,0.0001493,1480.3,-4.7708e-05,0.080081,-5.243e-05,-35.397,1.3041
7732,17.011,5.8182,0.1,0.0001486,1485,0.00014822,1474.1,-4.7962e-05,0.071538,-5.0837e-05,-21.529,1.3035
7733,17.196,0.18182,0.1,0.00014252,1424.2,0.00014213,1413,-4.5919e-05,0.086071,-4.8888e-05,-22.219,1.3273
7734,17.196,0.36364,0.1,0.00014412,1440.2,0.00014343,1420.8,-4.5648e-05,0.086215,-5.0742e-05,-38.193,1.3279
7735,17.196,0.54545,0.1,0.0001459,1458,0.00014493,1430.9,-4.5508e-05,-0.0079151,-5.2537e-05,-52.819,1.3285
7736,17.196,0.72727,0.1,0.00014774,1476.4,0.00014652,1442.6,-4.5483e-05,-0.012009,-5.4181e-05,-65.364,1.329
7737,17.196,0.90909,0.1,0.0001496,1494.9,0.00014817,1455.6,-4.5571e-05,-0.02143,-5.5644e-05,-75.704,1.3294
7738,17.196,1.0909,0.1,0.00015141,1513.1,0.00014981,1469.5,-4.5763e-05,-0.023668,-5.6904e-05,-83.734,1.3299
7739,17.196,1.2727,0.1,0.00015314,1530.4,0.00015142,1483.7,-4.6044e-05,-0.024287,-5.7943e-05,-89.426,1.3302
7740,17.196,1.4545,0.1,0.00015474,1546.3,0.00015295,1497.8,-4.6398e-05,-0.023189,-5.8752e-05,-92.845,1.3306
7741,17.196,1.6364,0.1,0.00015617,1560.7,0.00015436,1511.4,-4.6804e-05,-0.021233,-5.9336e-05,-94.181,1.3309
7742,17.196,1.8182,0.1,0.00015742,1573.1,0.00015562,1524.1,-4.7237e-05,-0.018952,-5.9713e-05,-93.752,1.3312
7743,17.196,2,0.1,0.00015847,1583.6,0.00015671,1535.6,-4.7674e-05,-0.016955,-5.9915e-05,-91.991,1.3314
7744,17.196,2.1818,0.1,0.00015932,1592.1,0.00015761,1545.5,-4.8087e-05,-0.015719,-5.9985e-05,-89.411,1.3316
7745,17.196,2.3636,0.1,0.00015999,1598.8,0.00015834,1553.7,-4.8452e-05,-0.01546,-5.9969e-05,-86.546,1.3318
7746,17.196,2.5455,0.1,0.00016047,1603.6,0.00015888,1560,-4.8747e-05,-0.016024,-5.9912e-05,-83.901,1.3319
7747,17.196,2.7273,0.1,0.00016079,1606.8,0.00015924,1564.3,-4.8955e-05,-0.016927,-5.9851e-05,-81.89,1.332
7748,17.196,2.9091,0.1,0.00016095,1608.4,0.00015942,1566.4,-4.9061e-05,-0.01758,-5.9814e-05,-80.809,1.332
7749,17.196,3.0909,0.1,0.00016095,1608.4,0.00015942,1566.4,-4.9061e-05,-0.017581,-5.9814e-05,-80.809,1.332
7750,17.196,3.2727,0.1,0.00016079,1606.8,0.00015924,1564.3,-4.8955e-05,-0.016927,-5.9851e-05,-81.89,1.332
7751,17.196,3.4545,0.1,0.00016047,1603.6,0.00015888,1560,-4.8747e-05,-0.016024,-5.9912e-05,-83.901,1.3319
7752,17.196,3.6364,0.1,0.00015999,1598.8,0.00015834,1553.7,-4.8452e-05,-0.01546,-5.9969e-05,-86.547,1.3318
7753,17.196,3.8182,0.1,0.00015932,1592.1,0.00015761,1545.5,-4.8087e-05,-0.015719,-5.9985e-05,-89.411,1.3316
7754,17.196,4,0.1,0.00015847,1583.6,0.00015671,1535.6,-4.7674e-05,-0.016955,-5.9915e-05,-91.991,1.3314
7755,17.196,4.1818,0.1,0.00015742,1573.1,0.00015562,1524.1,-4.7237e-05,-0.018952,-5.9713e-05,-93.752,1.3312
7756,17.196,4.3636,0.1,0.00015617,1560.7,0.00015436,1511.4,-4.6804e-05,-0.021232,-5.9336e-05,-94.182,1.3309
7757,17.196,4.5455,0.1,0.00015474,1546.3,0.00015295,1497.8,-4.6398e-05,-0.023189,-5.8752e-05,-92.845,1.3306
7758,17.196,4.7273,0.1,0.00015314,1530.4,0.00015142,1483.7,-4.6044e-05,-0.024287,-5.7943e-05,-89.426,1.3302
7759,17.196,4.9091,0.1,0.00015141,1513.1,0.00014981,1469.5,-4.5763e-05,-0.023668,-5.6904e-05,-83.735,1.3299
7760,17.196,5.0909,0.1,0.0001496,1494.9,0.00014817,1455.6,-4.5571e-05,-0.021431,-5.5644e-05,-75.704,1.3294
7761,17.196,5.2727,0.1,0.00014774,1476.4,0.00014652,1442.6,-4.5483e-05,-0.012009,-5.4181e-05,-65.364,1.329
7762,17.196,5.4545,0.1,0.0001459,1458,0.00014493,1430.9,-4.5508e-05,-0.0079118,-5.2537e-05,-52.819,1.3285
7763,17.196,5.6364,0.1,0.00014412,1440.2,0.00014343,1420.8,-4.5648e-05,0.086214,-5.0742e-05,-38.193,1.3279
7764,17.196,5.8182,0.1,0.00014252,1424.2,0.00014213,1413,-4.5919e-05,0.08607,-4.8888e-05,-22.219,1.3273
7765,17.381,0.18182,0.1,0.00013608,1359.8,0.00013567,1348.3,-4.3754e-05,0.10018,-4.6827e-05,-22.991,1.3512
7766,17.381,0.36364,0.1,0.00013798,1378.8,0.00013723,1357.8,-4.3466e-05,0.091499,-4.8971e-05,-41.266,1.3518
7767,17.381,0.54545,0.1,0.00014008,1399.8,0.00013901,1370,-4.3334e-05,-0.012017,-5.1026e-05,-57.81,1.3523
7768,17.381,0.72727,0.1,0.00014227,1421.7,0.00014091,1384.4,-4.3338e-05,-0.014645,-5.2922e-05,-72.027,1.3528
7769,17.381,0.90909,0.1,0.00014451,1444.1,0.0001429,1400.3,-4.3479e-05,-0.023778,-5.4627e-05,-83.788,1.3533
7770,17.381,1.0909,0.1,0.00014672,1466.2,0.00014492,1417.5,-4.3743e-05,-0.025317,-5.6109e-05,-92.938,1.3537
7771,17.381,1.2727,0.1,0.00014885,1487.5,0.00014691,1435.3,-4.4117e-05,-0.025344,-5.7341e-05,-99.386,1.3541
7772,17.381,1.4545,0.1,0.00015083,1507.3,0.00014881,1453.1,-4.458e-05,-0.023612,-5.8306e-05,-103.15,1.3545
7773,17.381,1.6364,0.1,0.00015263,1525.2,0.00015058,1470.3,-4.5108e-05,-0.020998,-5.9001e-05,-104.41,1.3548
7774,17.381,1.8182,0.1,0.00015419,1540.8,0.00015217,1486.4,-4.567e-05,-0.018127,-5.9445e-05,-103.52,1.3551
7775,17.381,2,0.1,0.00015551,1554,0.00015355,1501.1,-4.6235e-05,-0.015804,-5.9676e-05,-101.01,1.3553
7776,17.381,2.1818,0.1,0.00015659,1564.8,0.0001547,1513.8,-4.677e-05,-0.014704,-5.9746e-05,-97.518,1.3555
7777,17.381,2.3636,0.1,0.00015743,1573.2,0.00015563,1524.3,-4.7241e-05,-0.015119,-5.9714e-05,-93.728,1.3557
7778,17.381,2.5455,0.1,0.00015805,1579.4,0.00015632,1532.3,-4.7622e-05,-0.016748,-5.9635e-05,-90.272,1.3558
7779,17.381,2.7273,0.1,0.00015846,1583.5,0.00015678,1537.8,-4.789e-05,-0.018748,-5.9555e-05,-87.668,1.3558
7780,17.381,2.9091,0.1,0.00015866,1585.5,0.00015701,1540.6,-4.8027e-05,-0.020094,-5.9507e-05,-86.275,1.3559
7781,17.381,3.0909,0.1,0.00015866,1585.5,0.00015701,1540.6,-4.8027e-05,-0.020095,-5.9507e-05,-86.275,1.3559
7782,17.381,3.2727,0.1,0.00015846,1583.5,0.00015678,1537.8,-4.789e-05,-0.018748,-5.9555e-05,-87.668,1.3558
7783,17.381,3.4545,0.1,0.00015805,1579.4,0.00015632,1532.3,-4.7622e-05,-0.016748,-5.9635e-05,-90.272,1.3558
7784,17.381,3.6364,0.1,0.00015743,1573.2,0.00015563,1524.3,-4.7241e-05,-0.015118,-5.9714e-05,-93.728,1.3557
7785,17.381,3.8182,0.1,0.00015659,1564.8,0.0001547,1513.8,-4.677e-05,-0.014703,-5.9746e-05,-97.518,1.3555
7786,17.381,4,0.1,0.00015551,1554,0.00015355,1501.1,-4.6235e-05,-0.015804,-5.9676e-05,-101.01,1.3553
7787,17.381,4.1818,0.1,0.00015419,1540.8,0.00015217,1486.4,-4.567e-05,-0.018127,-5.9445e-05,-103.52,1.3551
7788,17.381,4.3636,0.1,0.00015263,1525.2,0.00015058,1470.3,-4.5108e-05,-0.020997,-5.9001e-05,-104.41,1.3548
7789,17.381,4.5455,0.1,0.00015083,1507.3,0.00014881,1453.1,-4.458e-05,-0.023611,-5.8306e-05,-103.15,1.3545
7790,17.381,4.7273,0.1,0.00014885,1487.5,0.00014691,1435.3,-4.4117e-05,-0.025345,-5.7341e-05,-99.386,1.3541
7791,17.381,4.9091,0.1,0.00014672,1466.2,0.00014492,1417.5,-4.3743e-05,-0.025316,-5.6109e-05,-92.938,1.3537
7792,17.381,5.0909,0.1,0.00014451,1444.1,0.0001429,1400.3,-4.3479e-05,-0.023779,-5.4627e-05,-83.788,1.3533
7793,17.381,5.2727,0.1,0.00014227,1421.7,0.00014091,1384.4,-4.3338e-05,-0.014642,-5.2922e-05,-72.027,1.3528
7794,17.381,5.4545,0.1,0.00014008,1399.8,0.00013901,1370,-4.3334e-05,-0.012016,-5.1026e-05,-57.81,1.3523
7795,17.381,5.6364,0.1,0.00013798,1378.8,0.00013723,1357.8,-4.3466e-05,0.091498,-4.8971e-05,-41.266,1.3518
7796,17.381,5.8182,0.1,0.00013608,1359.8,0.00013567,1348.3,-4.3754e-05,0.10018,-4.6827e-05,-22.991,1.3512
7797,17.566,0.18182,0.1,0.0001292,1291.1,0.00012878,1279.1,-4.1441e-05,0.11109,-4.4629e-05,-23.846,1.3752
7798,17.566,0.36364,0.1,0.00013144,1313.5,0.00013062,1290.6,-4.1139e-05,0.094947,-4.7085e-05,-44.585,1.3758
7799,17.566,0.54545,0.1,0.0001339,1338.1,0.00013271,1305.3,-4.1019e-05,-0.017065,-4.9434e-05,-63.248,1.3763
7800,17.566,0.72727,0.1,0.00013651,1364.2,0.00013499,1322.7,-4.1061e-05,-0.017332,-5.1625e-05,-79.395,1.3768
7801,17.566,0.90909,0.1,0.00013921,1391.2,0.0001374,1342.4,-4.1265e-05,-0.025677,-5.3623e-05,-92.879,1.3773
7802,17.566,1.0909,0.1,0.00014192,1418.2,0.00013988,1363.7,-4.1618e-05,-0.026239,-5.5384e-05,-103.46,1.3777
7803,17.566,1.2727,0.1,0.00014456,1444.6,0.00014235,1385.9,-4.2106e-05,-0.025554,-5.6867e-05,-110.93,1.3781
7804,17.566,1.4545,0.1,0.00014703,1469.3,0.00014473,1408.3,-4.2704e-05,-0.023109,-5.8036e-05,-115.22,1.3784
7805,17.566,1.6364,0.1,0.00014928,1491.8,0.00014696,1430.1,-4.3383e-05,-0.019726,-5.888e-05,-116.46,1.3788
7806,17.566,1.8182,0.1,0.00015125,1511.5,0.00014897,1450.7,-4.4108e-05,-0.016131,-5.9415e-05,-115.03,1.379
7807,17.566,2,0.1,0.00015292,1528.1,0.00015072,1469.3,-4.4837e-05,-0.013411,-5.9685e-05,-111.58,1.3793
7808,17.566,2.1818,0.1,0.00015428,1541.8,0.00015219,1485.5,-4.5526e-05,-0.012618,-5.9757e-05,-106.93,1.3795
7809,17.566,2.3636,0.1,0.00015536,1552.5,0.00015337,1499,-4.6135e-05,-0.014199,-5.9705e-05,-101.98,1.3796
7810,17.566,2.5455,0.1,0.00015615,1560.4,0.00015426,1509.4,-4.6625e-05,-0.017585,-5.9601e-05,-97.512,1.3797
7811,17.566,2.7273,0.1,0.00015667,1565.7,0.00015486,1516.4,-4.6969e-05,-0.021356,-5.9501e-05,-94.18,1.3798
7812,17.566,2.9091,0.1,0.00015694,1568.3,0.00015516,1520,-4.7146e-05,-0.023813,-5.9442e-05,-92.409,1.3799
7813,17.566,3.0909,0.1,0.00015694,1568.3,0.00015516,1520,-4.7146e-05,-0.023813,-5.9442e-05,-92.409,1.3799
7814,17.566,3.2727,0.1,0.00015667,1565.7,0.00015486,1516.4,-4.6969e-05,-0.021356,-5.9501e-05,-94.18,1.3798
7815,17.566,3.4545,0.1,0.00015615,1560.4,0.00015426,1509.4,-4.6625e-05,-0.017586,-5.9601e-05,-97.512,1.3797
7816,17.566,3.6364,0.1,0.00015536,1552.5,0.00015337,1499,-4.6135e-05,-0.014199,-5.9705e-05,-101.98,1.3796
7817,17.566,3.8182,0.1,0.00015428,1541.8,0.00015219,1485.5,-4.5526e-05,-0.012617,-5.9757e-05,-106.93,1.3795
7818,17.566,4,0.1,0.00015292,1528.1,0.00015072,1469.3,-4.4837e-05,-0.013411,-5.9685e-05,-111.58,1.3793
7819,17.566,4.1818,0.1,0.00015125,1511.5,0.00014897,1450.7,-4.4108e-05,-0.01613,-5.9415e-05,-115.03,1.379
7820,17.566,4.3636,0.1,0.00014928,1491.8,0.00014696,1430.1,-4.3383e-05,-0.019726,-5.888e-05,-116.46,1.3788
7821,17.566,4.5455,0.1,0.00014703,1469.3,0.00014473,1408.3,-4.2704e-05,-0.02311,-5.8036e-05,-115.22,1.3784
7822,17.566,4.7273,0.1,0.00014456,1444.6,0.00014235,1385.9,-4.2106e-05,-0.025554,-5.6867e-05,-110.94,1.3781
7823,17.566,4.9091,0.1,0.00014192,1418.2,0.00013988,1363.7,-4.1618e-05,-0.026238,-5.5384e-05,-103.46,1.3777
7824,17.566,5.0909,0.1,0.00013921,1391.2,0.0001374,1342.4,-4.1265e-05,-0.025675,-5.3623e-05,-92.879,1.3773
7825,17.566,5.2727,0.1,0.00013651,1364.2,0.00013499,1322.7,-4.1061e-05,-0.017331,-5.1625e-05,-79.395,1.3768
7826,17.566,5.4545,0.1,0.0001339,1338.1,0.00013271,1305.3,-4.1019e-05,-0.017064,-4.9434e-05,-63.248,1.3763
7827,17.566,5.6364,0.1,0.00013144,1313.5,0.00013062,1290.6,-4.1139e-05,0.094946,-4.7085e-05,-44.585,1.3758
7828,17.566,5.8182,0.1,0.0001292,1291.1,0.00012878,1279.1,-4.1441e-05,0.11109,-4.4629e-05,-23.846,1.3752
7829,17.751,0.18182,0.1,0.0001218,1217.1,0.00012136,1204.6,-3.895e-05,0.11429,-4.2263e-05,-24.776,1.3993
7830,17.751,0.36364,0.1,0.0001244,1243.1,0.00012351,1218.4,-3.8638e-05,0.095049,-4.505e-05,-48.08,1.3999
7831,17.751,0.54545,0.1,0.00012728,1271.9,0.00012596,1235.9,-3.8536e-05,-0.023357,-4.7724e-05,-69.062,1.4004
7832,17.751,0.72727,0.1,0.00013038,1302.9,0.00012868,1257,-3.8624e-05,-0.019998,-5.0261e-05,-87.458,1.4009
7833,17.751,0.90909,0.1,0.00013365,1335.6,0.0001316,1281.1,-3.8903e-05,-0.026774,-5.2619e-05,-103.08,1.4013
7834,17.751,1.0909,0.1,0.00013698,1368.9,0.00013465,1307.4,-3.9362e-05,-0.025976,-5.4738e-05,-115.56,1.4018
7835,17.751,1.2727,0.1,0.00014026,1401.7,0.00013773,1335.3,-3.9986e-05,-0.024472,-5.6549e-05,-124.48,1.4022
7836,17.751,1.4545,0.1,0.00014337,1432.7,0.00014072,1363.5,-4.075e-05,-0.021327,-5.7993e-05,-129.58,1.4025
7837,17.751,1.6364,0.1,0.0001462,1461,0.00014354,1391.2,-4.162e-05,-0.017169,-5.9038e-05,-130.89,1.4028
7838,17.751,1.8182,0.1,0.00014869,1485.9,0.00014608,1417.3,-4.255e-05,-0.012739,-5.9693e-05,-128.82,1.4031
7839,17.751,2,0.1,0.0001508,1507,0.00014831,1441.1,-4.3488e-05,-0.0096405,-6.0014e-05,-124.18,1.4033
7840,17.751,2.1818,0.1,0.00015253,1524.3,0.00015018,1461.8,-4.4377e-05,-0.009388,-6.0086e-05,-118.05,1.4035
7841,17.751,2.3636,0.1,0.0001539,1538,0.0001517,1479.1,-4.516e-05,-0.012677,-6.0012e-05,-111.6,1.4037
7842,17.751,2.5455,0.1,0.00015492,1548.1,0.00015285,1492.5,-4.5791e-05,-0.018756,-5.988e-05,-105.88,1.4038
7843,17.751,2.7273,0.1,0.0001556,1554.9,0.00015362,1501.6,-4.6232e-05,-0.025264,-5.9759e-05,-101.66,1.4039
7844,17.751,2.9091,0.1,0.00015594,1558.3,0.00015401,1506.2,-4.6459e-05,-0.029422,-5.9689e-05,-99.44,1.4039
7845,17.751,3.0909,0.1,0.00015594,1558.3,0.00015401,1506.2,-4.6459e-05,-0.029423,-5.9689e-05,-99.44,1.4039
7846,17.751,3.2727,0.1,0.0001556,1554.9,0.00015362,1501.6,-4.6232e-05,-0.025265,-5.9759e-05,-101.66,1.4039
7847,17.751,3.4545,0.1,0.00015492,1548.1,0.00015285,1492.5,-4.5791e-05,-0.018755,-5.988e-05,-105.88,1.4038
7848,17.751,3.6364,0.1,0.0001539,1538,0.0001517,1479.1,-4.516e-05,-0.012676,-6.0012e-05,-111.6,1.4037
7849,17.751,3.8182,0.1,0.00015253,1524.3,0.00015018,1461.8,-4.4377e-05,-0.0093881,-6.0086e-05,-118.05,1.4035
7850,17.751,4,0.1,0.0001508,1507,0.00014831,1441.1,-4.3488e-05,-0.0096402,-6.0014e-05,-124.18,1.4033
7851,17.751,4.1818,0.1,0.00014869,1485.9,0.00014608,1417.3,-4.255e-05,-0.012739,-5.9693e-05,-128.82,1.4031
7852,17.751,4.3636,0.1,0.0001462,1461,0.00014354,1391.2,-4.162e-05,-0.01717,-5.9038e-05,-130.89,1.4028
7853,17.751,4.5455,0.1,0.00014337,1432.7,0.00014072,1363.5,-4.075e-05,-0.021327,-5.7993e-05,-129.58,1.4025
7854,17.751,4.7273,0.1,0.00014026,1401.7,0.00013773,1335.3,-3.9986e-05,-0.024472,-5.6549e-05,-124.48,1.4022
7855,17.751,4.9091,0.1,0.00013698,1368.9,0.00013465,1307.4,-3.9362e-05,-0.025975,-5.4738e-05,-115.56,1.4018
7856,17.751,5.0909,0.1,0.00013365,1335.6,0.0001316,1281.1,-3.8903e-05,-0.026773,-5.2619e-05,-103.08,1.4013
7857,17.751,5.2727,0.1,0.00013038,1302.9,0.00012868,1257,-3.8624e-05,-0.019996,-5.0261e-05,-87.459,1.4009
7858,17.751,5.4545,0.1,0.00012728,1271.9,0.00012596,1235.9,-3.8536e-05,-0.023356,-4.7724e-05,-69.062,1.4004
7859,17.751,5.6364,0.1,0.0001244,1243.1,0.00012351,1218.4,-3.8638e-05,0.09505,-4.505e-05,-48.08,1.3999
7860,17.751,5.8182,0.1,0.0001218,1217.1,0.00012136,1204.6,-3.895e-05,0.11429,-4.2263e-05,-24.776,1.3993
7861,17.936,0.18182,0.1,0.00011377,1136.9,0.00011331,1123.9,-3.6252e-05,0.10323,-3.9694e-05,-25.757,1.4234
7862,17.936,0.36364,0.1,0.00011675,1166.7,0.00011579,1140.1,-3.5935e-05,0.089658,-4.2817e-05,-51.623,1.424
7863,17.936,0.54545,0.1,0.0001201,1200.2,0.00011865,1160.8,-3.5857e-05,-0.031297,-4.585e-05,-75.12,1.4245
7864,17.936,0.72727,0.1,0.00012379,1237.1,0.00012188,1186.2,-3.5997e-05,-0.022548,-4.8795e-05,-96.175,1.425
7865,17.936,0.90909,0.1,0.00012776,1276.7,0.00012542,1215.6,-3.6362e-05,-0.026547,-5.1602e-05,-114.53,1.4255
7866,17.936,1.0909,0.1,0.00013187,1317.8,0.00012919,1248.2,-3.6943e-05,-0.023786,-5.4185e-05,-129.58,1.4259
7867,17.936,1.2727,0.1,0.00013597,1358.8,0.00013303,1283,-3.7728e-05,-0.021264,-5.6436e-05,-140.59,1.4263
7868,17.936,1.4545,0.1,0.00013989,1397.9,0.00013681,1318.6,-3.8693e-05,-0.017432,-5.8253e-05,-146.99,1.4267
7869,17.936,1.6364,0.1,0.00014348,1433.8,0.00014037,1353.7,-3.98e-05,-0.01236,-5.957e-05,-148.56,1.427
7870,17.936,1.8182,0.1,0.00014664,1465.3,0.00014361,1387,-4.0993e-05,-0.0069341,-6.0385e-05,-145.72,1.4273
7871,17.936,2,0.1,0.00014931,1492.1,0.00014644,1417.4,-4.22e-05,-0.0030202,-6.0766e-05,-139.5,1.4275
7872,17.936,2.1818,0.1,0.0001515,1514,0.00014884,1444,-4.3346e-05,-0.0036825,-6.0834e-05,-131.4,1.4277
7873,17.936,2.3636,0.1,0.00015324,1531.4,0.00015078,1466.1,-4.4355e-05,-0.010325,-6.0727e-05,-123.02,1.4279
7874,17.936,2.5455,0.1,0.00015455,1544.5,0.00015226,1483.3,-4.5164e-05,-0.020773,-6.0563e-05,-115.72,1.428
7875,17.936,2.7273,0.1,0.00015543,1553.3,0.00015326,1495.1,-4.5728e-05,-0.031302,-6.0423e-05,-110.45,1.4281
7876,17.936,2.9091,0.1,0.00015588,1557.7,0.00015377,1501.1,-4.6017e-05,-0.037889,-6.0346e-05,-107.7,1.4281
7877,17.936,3.0909,0.1,0.00015588,1557.7,0.00015377,1501.1,-4.6017e-05,-0.037888,-6.0346e-05,-107.7,1.4281
7878,17.936,3.2727,0.1,0.00015543,1553.3,0.00015326,1495.1,-4.5728e-05,-0.031303,-6.0423e-05,-110.45,1.4281
7879,17.936,3.4545,0.1,0.00015455,1544.5,0.00015226,1483.3,-4.5164e-05,-0.020773,-6.0563e-05,-115.72,1.428
7880,17.936,3.6364,0.1,0.00015324,1531.4,0.00015078,1466.1,-4.4355e-05,-0.010324,-6.0727e-05,-123.02,1.4279
7881,17.936,3.8182,0.1,0.0001515,1514,0.00014884,1444,-4.3346e-05,-0.0036829,-6.0834e-05,-131.4,1.4277
7882,17.936,4,0.1,0.00014931,1492.1,0.00014644,1417.4,-4.22e-05,-0.0030198,-6.0766e-05,-139.5,1.4275
7883,17.936,4.1818,0.1,0.00014664,1465.3,0.00014361,1387,-4.0993e-05,-0.0069345,-6.0385e-05,-145.72,1.4273
7884,17.936,4.3636,0.1,0.00014348,1433.8,0.00014037,1353.7,-3.98e-05,-0.012359,-5.957e-05,-148.56,1.427
7885,17.936,4.5455,0.1,0.00013989,1397.9,0.00013681,1318.6,-3.8693e-05,-0.017432,-5.8253e-05,-146.99,1.4267
7886,17.936,4.7273,0.1,0.00013597,1358.8,0.00013303,1283,-3.7728e-05,-0.021265,-5.6436e-05,-140.59,1.4263
7887,17.936,4.9091,0.1,0.00013187,1317.8,0.00012919,1248.2,-3.6943e-05,-0.023786,-5.4185e-05,-129.58,1.4259
7888,17.936,5.0909,0.1,0.00012776,1276.7,0.00012542,1215.6,-3.6362e-05,-0.026546,-5.1602e-05,-114.53,1.4255
7889,17.936,5.2727,0.1,0.00012379,1237.1,0.00012188,1186.2,-3.5997e-05,-0.022547,-4.8795e-05,-96.175,1.425
7890,17.936,5.4545,0.1,0.0001201,1200.2,0.00011865,1160.8,-3.5857e-05,-0.031295,-4.585e-05,-75.12,1.4245
7891,17.936,5.6364,0.1,0.00011675,1166.7,0.00011579,1140.1,-3.5935e-05,0.089657,-4.2817e-05,-51.623,1.424
7892,17.936,5.8182,0.1,0.00011377,1136.9,0.00011331,1123.9,-3.6252e-05,0.10323,-3.9694e-05,-25.757,1.4234
7893,18.121,0.18182,0.1,0.00010501,1049.4,0.00010453,1035.8,-3.3315e-05,0.06927,-3.6883e-05,-26.744,1.4477
7894,18.121,0.36364,0.1,0.00010838,1083,0.00010734,1054.5,-3.2999e-05,0.075614,-4.0331e-05,-55.017,1.4482
7895,18.121,0.54545,0.1,0.00011225,1121.7,0.00011065,1078.9,-3.2951e-05,-0.04177,-4.3754e-05,-81.215,1.4488
7896,18.121,0.72727,0.1,0.00011663,1165.5,0.00011448,1109.2,-3.3149e-05,-0.025288,-4.7182e-05,-105.46,1.4493
7897,18.121,0.90909,0.1,0.00012145,1213.7,0.00011878,1144.9,-3.3605e-05,-0.024642,-5.0556e-05,-127.39,1.4497
7898,18.121,1.0909,0.1,0.00012654,1264.6,0.00012343,1185.2,-3.4318e-05,-0.018829,-5.3752e-05,-146.04,1.4502
7899,18.121,1.2727,0.1,0.0001317,1316.1,0.00012824,1228.7,-3.5287e-05,-0.015095,-5.6602e-05,-160.16,1.4506
7900,18.121,1.4545,0.1,0.00013668,1365.8,0.00013303,1273.7,-3.6494e-05,-0.011261,-5.8934e-05,-168.62,1.4509
7901,18.121,1.6364,0.1,0.00014125,1411.5,0.00013757,1318.4,-3.7897e-05,-0.0066736,-6.0626e-05,-170.78,1.4513
7902,18.121,1.8182,0.1,0.00014526,1451.6,0.0001417,1360.9,-3.9427e-05,-0.00046415,-6.1648e-05,-166.97,1.4515
7903,18.121,2,0.1,0.00014864,1485.4,0.00014531,1399.7,-4.0987e-05,0.0025161,-6.2091e-05,-158.57,1.4518
7904,18.121,2.1818,0.1,0.00015141,1513.1,0.00014836,1433.8,-4.2469e-05,1.4023e-05,-6.2133e-05,-147.75,1.452
7905,18.121,2.3636,0.1,0.00015362,1535.2,0.00015084,1462.2,-4.3769e-05,-0.0089114,-6.1973e-05,-136.79,1.4522
7906,18.121,2.5455,0.1,0.0001553,1551.9,0.00015274,1484.2,-4.4805e-05,-0.024658,-6.1773e-05,-127.52,1.4523
7907,18.121,2.7273,0.1,0.00015644,1563.4,0.00015403,1499.3,-4.552e-05,-0.040797,-6.1619e-05,-121.01,1.4524
7908,18.121,2.9091,0.1,0.00015703,1569.2,0.00015469,1507,-4.5884e-05,-0.050493,-6.1541e-05,-117.69,1.4524
7909,18.121,3.0909,0.1,0.00015703,1569.2,0.00015469,1507,-4.5884e-05,-0.050494,-6.1541e-05,-117.69,1.4524
7910,18.121,3.2727,0.1,0.00015644,1563.4,0.00015403,1499.3,-4.552e-05,-0.040797,-6.1619e-05,-121.01,1.4524
7911,18.121,3.4545,0.1,0.0001553,1551.9,0.00015274,1484.2,-4.4805e-05,-0.024659,-6.1773e-05,-127.52,1.4523
7912,18.121,3.6364,0.1,0.00015362,1535.2,0.00015084,1462.2,-4.3769e-05,-0.0089107,-6.1973e-05,-136.79,1.4522
7913,18.121,3.8182,0.1,0.00015141,1513.1,0.00014836,1433.8,-4.2469e-05,1.418e-05,-6.2133e-05,-147.75,1.452
7914,18.121,4,0.1,0.00014864,1485.4,0.00014531,1399.7,-4.0987e-05,0.0025171,-6.2091e-05,-158.57,1.4518
7915,18.121,4.1818,0.1,0.00014526,1451.6,0.0001417,1360.9,-3.9427e-05,-0.00046381,-6.1648e-05,-166.97,1.4515
7916,18.121,4.3636,0.1,0.00014125,1411.5,0.00013757,1318.4,-3.7897e-05,-0.0066731,-6.0626e-05,-170.78,1.4513
7917,18.121,4.5455,0.1,0.00013668,1365.8,0.00013303,1273.7,-3.6494e-05,-0.011261,-5.8934e-05,-168.62,1.4509
7918,18.121,4.7273,0.1,0.0001317,1316.1,0.00012824,1228.7,-3.5287e-05,-0.015094,-5.6602e-05,-160.16,1.4506
7919,18.121,4.9091,0.1,0.00012654,1264.6,0.00012343,1185.2,-3.4318e-05,-0.018829,-5.3752e-05,-146.04,1.4502
7920,18.121,5.0909,0.1,0.00012145,1213.7,0.00011878,1144.9,-3.3605e-05,-0.024642,-5.0556e-05,-127.39,1.4497
7921,18.121,5.2727,0.1,0.00011663,1165.5,0.00011448,1109.2,-3.3149e-05,-0.025287,-4.7182e-05,-105.47,1.4493
7922,18.121,5.4545,0.1,0.00011225,1121.7,0.00011065,1078.9,-3.2951e-05,-0.041768,-4.3754e-05,-81.215,1.4488
7923,18.121,5.6364,0.1,0.00010838,1083,0.00010734,1054.5,-3.2999e-05,0.075613,-4.0331e-05,-55.017,1.4482
7924,18.121,5.8182,0.1,0.00010501,1049.4,0.00010453,1035.8,-3.3315e-05,0.069269,-3.6883e-05,-26.744,1.4477
7925,18.306,0.18182,0.1,9.5423e-05,953.57,9.4922e-05,939.44,-3.0109e-05,0.0039339,-3.3791e-05,-27.657,1.472
7926,18.306,0.36364,0.1,9.9163e-05,990.94,9.805e-05,960.7,-2.9806e-05,0.049588,-3.7529e-05,-57.978,1.4725
7927,18.306,0.54545,0.1,0.0001036,1035.3,0.00010185,989.03,-2.9791e-05,-0.055411,-4.1371e-05,-87.064,1.4731
7928,18.306,0.72727,0.1,0.00010879,1087.2,0.00010637,1025,-3.0045e-05,-0.028276,-4.5378e-05,-115.23,1.4736
7929,18.306,0.90909,0.1,0.00011465,1145.7,0.00011157,1068.1,-3.0587e-05,-0.020135,-4.9475e-05,-141.93,1.4741
7930,18.306,1.0909,0.1,0.00012098,1209,0.00011731,1117.6,-3.1435e-05,-0.0093517,-5.3488e-05,-165.7,1.4745
7931,18.306,1.2727,0.1,0.00012751,1274.2,0.00012336,1171.9,-3.2605e-05,-0.0031219,-5.7163e-05,-184.53,1.4749
7932,18.306,1.4545,0.1,0.00013387,1337.8,0.00012944,1228.8,-3.4094e-05,0.0024498,-6.0222e-05,-196.31,1.4753
7933,18.306,1.6364,0.1,0.00013973,1396.3,0.00013526,1285.8,-3.5866e-05,0.010026,-6.2437e-05,-199.63,1.4756
7934,18.306,1.8182,0.1,0.00014484,1447.4,0.00014054,1340.3,-3.7834e-05,0.01448,-6.3728e-05,-194.54,1.4759
7935,18.306,2,0.1,0.00014911,1490.1,0.00014515,1390.1,-3.9863e-05,0.022639,-6.4215e-05,-182.95,1.4762
7936,18.306,2.1818,0.1,0.00015259,1524.8,0.00014903,1433.8,-4.1793e-05,0.018693,-6.4175e-05,-168.16,1.4764
7937,18.306,2.3636,0.1,0.00015537,1552.6,0.00015218,1470.1,-4.3473e-05,-0.0068567,-6.3921e-05,-153.65,1.4765
7938,18.306,2.5455,0.1,0.0001575,1573.9,0.00015461,1498.2,-4.4791e-05,-0.034222,-6.3671e-05,-141.89,1.4767
7939,18.306,2.7273,0.1,0.00015897,1588.6,0.00015627,1517.3,-4.5688e-05,-0.055636,-6.3515e-05,-134,1.4767
7940,18.306,2.9091,0.1,0.00015973,1596.2,0.00015711,1527.1,-4.6138e-05,-0.068298,-6.3448e-05,-130.13,1.4768
7941,18.306,3.0909,0.1,0.00015973,1596.2,0.00015711,1527.1,-4.6138e-05,-0.068299,-6.3448e-05,-130.13,1.4768
7942,18.306,3.2727,0.1,0.00015897,1588.6,0.00015627,1517.3,-4.5687e-05,-0.055636,-6.3515e-05,-134,1.4767
7943,18.306,3.4545,0.1,0.0001575,1573.9,0.00015461,1498.2,-4.4791e-05,-0.034222,-6.3671e-05,-141.89,1.4767
7944,18.306,3.6364,0.1,0.00015537,1552.6,0.00015218,1470.1,-4.3473e-05,-0.0068558,-6.3921e-05,-153.65,1.4765
7945,18.306,3.8182,0.1,0.00015259,1524.8,0.00014903,1433.8,-4.1793e-05,0.018692,-6.4175e-05,-168.16,1.4764
7946,18.306,4,0.1,0.00014911,1490.1,0.00014515,1390.1,-3.9863e-05,0.022639,-6.4215e-05,-182.95,1.4762
7947,18.306,4.1818,0.1,0.00014484,1447.4,0.00014054,1340.3,-3.7834e-05,0.014479,-6.3728e-05,-194.54,1.4759
7948,18.306,4.3636,0.1,0.00013973,1396.3,0.00013526,1285.8,-3.5866e-05,0.010025,-6.2437e-05,-199.63,1.4756
7949,18.306,4.5455,0.1,0.00013387,1337.8,0.00012944,1228.8,-3.4094e-05,0.0024503,-6.0222e-05,-196.31,1.4753
7950,18.306,4.7273,0.1,0.00012751,1274.2,0.00012336,1171.9,-3.2605e-05,-0.0031223,-5.7163e-05,-184.53,1.4749
7951,18.306,4.9091,0.1,0.00012098,1209,0.00011731,1117.6,-3.1435e-05,-0.0093515,-5.3488e-05,-165.7,1.4745
7952,18.306,5.0909,0.1,0.00011465,1145.7,0.00011157,1068.1,-3.0587e-05,-0.020133,-4.9475e-05,-141.93,1.4741
7953,18.306,5.2727,0.1,0.00010879,1087.2,0.00010637,1025,-3.0045e-05,-0.028276,-4.5378e-05,-115.23,1.4736
7954,18.306,5.4545,0.1,0.0001036,1035.3,0.00010185,989.03,-2.9791e-05,-0.055411,-4.1371e-05,-87.064,1.4731
7955,18.306,5.6364,0.1,9.9163e-05,990.94,9.805e-05,960.7,-2.9806e-05,0.049587,-3.7529e-05,-57.978,1.4725
7956,18.306,5.8182,0.1,9.5423e-05,953.57,9.4922e-05,939.44,-3.0109e-05,0.0039334,-3.3791e-05,-27.657,1.472
7957,18.491,0.18182,0.1,8.4923e-05,848.64,8.4403e-05,834.05,-2.6615e-05,-0.099749,-3.0379e-05,-28.379,1.4964
7958,18.491,0.36364,0.1,8.8992e-05,889.31,8.7816e-05,857.71,-2.6337e-05,0.0061647,-3.4343e-05,-60.149,1.4969
7959,18.491,0.54545,0.1,9.4052e-05,939.87,9.2139e-05,890.25,-2.6356e-05,-0.075655,-3.8638e-05,-92.352,1.4975
7960,18.491,0.72727,0.1,0.00010018,1001.1,9.7455e-05,932.47,-2.6654e-05,-0.035239,-4.3344e-05,-125.44,1.498
7961,18.491,0.90909,0.1,0.0001073,1072.3,0.00010372,984.14,-2.7263e-05,-0.016609,-4.8371e-05,-158.61,1.4985
7962,18.491,1.0909,0.1,0.00011519,1151.1,0.00011079,1044.5,-2.8225e-05,0.0030007,-5.3479e-05,-189.74,1.4989
7963,18.491,1.2727,0.1,0.00012348,1234,0.00011839,1111.9,-2.9592e-05,0.016434,-5.8307e-05,-215.74,1.4993
7964,18.491,1.4545,0.1,0.00013168,1315.9,0.00012616,1183.9,-3.1398e-05,0.016269,-6.2412e-05,-233.01,1.4997
7965,18.491,1.6364,0.1,0.00013926,1391.7,0.00013366,1257,-3.3631e-05,0.00097839,-6.5382e-05,-238.56,1.5001
7966,18.491,1.8182,0.1,0.00014581,1457.1,0.00014048,1327.4,-3.6183e-05,0.013864,-6.702e-05,-231.68,1.5004
7967,18.491,2,0.1,0.00015119,1510.9,0.00014638,1391.8,-3.8859e-05,-0.0076248,-6.7485e-05,-215.09,1.5006
7968,18.491,2.1818,0.1,0.00015551,1554,0.00015129,1447.8,-4.1401e-05,-0.031485,-6.7242e-05,-194.19,1.5009
7969,18.491,2.3636,0.1,0.00015895,1588.4,0.00015526,1493.9,-4.3572e-05,-0.023418,-6.6801e-05,-174.56,1.501
7970,18.491,2.5455,0.1,0.00016162,1615,0.00015831,1529.3,-4.5232e-05,-0.048172,-6.6477e-05,-159.67,1.5012
7971,18.491,2.7273,0.1,0.00016346,1633.4,0.00016038,1553,-4.6328e-05,-0.079179,-6.6329e-05,-150.36,1.5012
7972,18.491,2.9091,0.1,0.0001644,1642.9,0.00016143,1565,-4.6866e-05,-0.090859,-6.629e-05,-146.03,1.5013
7973,18.491,3.0909,0.1,0.0001644,1642.9,0.00016143,1565,-4.6866e-05,-0.090859,-6.629e-05,-146.04,1.5013
7974,18.491,3.2727,0.1,0.00016346,1633.4,0.00016038,1553,-4.6328e-05,-0.079179,-6.6329e-05,-150.36,1.5012
7975,18.491,3.4545,0.1,0.00016162,1615,0.00015831,1529.3,-4.5232e-05,-0.048172,-6.6477e-05,-159.67,1.5012
7976,18.491,3.6364,0.1,0.00015895,1588.4,0.00015526,1493.9,-4.3572e-05,-0.023417,-6.6801e-05,-174.56,1.501
7977,18.491,3.8182,0.1,0.00015551,1554,0.00015129,1447.8,-4.1401e-05,-0.031484,-6.7242e-05,-194.19,1.5009
7978,18.491,4,0.1,0.00015119,1510.9,0.00014638,1391.8,-3.8859e-05,-0.0076253,-6.7485e-05,-215.09,1.5006
7979,18.491,4.1818,0.1,0.00014581,1457.1,0.00014048,1327.4,-3.6183e-05,0.013865,-6.702e-05,-231.68,1.5004
7980,18.491,4.3636,0.1,0.00013926,1391.7,0.00013366,1257,-3.3631e-05,0.00097752,-6.5382e-05,-238.56,1.5001
7981,18.491,4.5455,0.1,0.00013168,1315.9,0.00012616,1183.9,-3.1398e-05,0.016268,-6.2412e-05,-233.01,1.4997
7982,18.491,4.7273,0.1,0.00012348,1234,0.00011839,1111.9,-2.9592e-05,0.016433,-5.8307e-05,-215.74,1.4993
7983,18.491,4.9091,0.1,0.00011519,1151.1,0.00011079,1044.5,-2.8225e-05,0.003002,-5.3479e-05,-189.74,1.4989
7984,18.491,5.0909,0.1,0.0001073,1072.3,0.00010372,984.14,-2.7263e-05,-0.016607,-4.8371e-05,-158.61,1.4985
7985,18.491,5.2727,0.1,0.00010018,1001.1,9.7455e-05,932.47,-2.6654e-05,-0.035238,-4.3345e-05,-125.44,1.498
7986,18.491,5.4545,0.1,9.4052e-05,939.87,9.2139e-05,890.25,-2.6356e-05,-0.075654,-3.8638e-05,-92.352,1.4975
7987,18.491,5.6364,0.1,8.8992e-05,889.31,8.7816e-05,857.71,-2.6337e-05,0.0061646,-3.4343e-05,-60.149,1.4969
7988,18.491,5.8182,0.1,8.4923e-05,848.64,8.4403e-05,834.05,-2.6615e-05,-0.09975,-3.0379e-05,-28.379,1.4964
7989,18.675,0.18182,0.1,7.3463e-05,734.13,7.2929e-05,719.22,-2.2824e-05,-0.22555,-2.662e-05,-28.752,1.5208
7990,18.675,0.36364,0.1,7.7804e-05,777.51,7.6583e-05,745.1,-2.259e-05,-0.047031,-3.0724e-05,-61.161,1.5213
7991,18.675,0.54545,0.1,8.3546e-05,834.88,8.1474e-05,782.18,-2.264e-05,-0.094002,-3.5521e-05,-96.871,1.5219
7992,18.675,0.72727,0.1,9.078e-05,907.17,8.7689e-05,831.29,-2.2955e-05,-0.040323,-4.109e-05,-136.3,1.5224
7993,18.675,0.90909,0.1,9.9428e-05,993.59,9.5188e-05,892.39,-2.3583e-05,-0.005865,-4.7307e-05,-178.26,1.5229
7994,18.675,1.0909,0.1,0.00010925,1091.7,0.00010383,965.04,-2.4604e-05,0.029922,-5.3875e-05,-219.9,1.5234
7995,18.675,1.2727,0.1,0.00011982,1197.3,0.00011336,1048.1,-2.6123e-05,0.048526,-6.0317e-05,-256.87,1.5238
7996,18.675,1.4545,0.1,0.00013049,1304,0.00012334,1139.1,-2.8251e-05,0.074575,-6.5972e-05,-283.35,1.5242
7997,18.675,1.6364,0.1,0.00014043,1403.3,0.00013312,1233.6,-3.1034e-05,0.16468,-7.009e-05,-293.28,1.5246
7998,18.675,1.8182,0.1,0.00014892,1488.2,0.00014204,1325.8,-3.4395e-05,0.077766,-7.2201e-05,-283.98,1.5249
7999,18.675,2,0.1,0.00015567,1555.6,0.00014964,1409.9,-3.7992e-05,0.15046,-7.2482e-05,-258.99,1.5252
8000,18.675,2.1818,0.1,0.00016093,1608.2,0.00015584,1482.1,-4.1399e-05,0.17259,-7.1762e-05,-227.96,1.5254
8001,18.675,2.3636,0.1,0.00016509,1649.8,0.00016075,1540.2,-4.4238e-05,-0.051315,-7.0946e-05,-200.73,1.5256
8002,18.675,2.5455,0.1,0.00016827,1681.5,0.00016443,1583.1,-4.6282e-05,-0.10472,-7.048e-05,-181.92,1.5258
8003,18.675,2.7273,0.1,0.00017043,1703.1,0.00016687,1611,-4.7553e-05,-0.10338,-7.0335e-05,-171.28,1.5259
8004,18.675,2.9091,0.1,0.00017152,1714,0.00016807,1624.5,-4.8152e-05,-0.11224,-7.0323e-05,-166.7,1.5259
8005,18.675,3.0909,0.1,0.00017152,1714,0.00016807,1624.5,-4.8152e-05,-0.11224,-7.0323e-05,-166.7,1.5259
8006,18.675,3.2727,0.1,0.00017043,1703.1,0.00016687,1611,-4.7553e-05,-0.10338,-7.0335e-05,-171.28,1.5259
8007,18.675,3.4545,0.1,0.00016827,1681.5,0.00016443,1583.1,-4.6282e-05,-0.10472,-7.048e-05,-181.92,1.5258
8008,18.675,3.6364,0.1,0.00016509,1649.8,0.00016075,1540.2,-4.4238e-05,-0.051314,-7.0946e-05,-200.73,1.5256
8009,18.675,3.8182,0.1,0.00016093,1608.2,0.00015584,1482.1,-4.1399e-05,0.17259,-7.1762e-05,-227.97,1.5254
8010,18.675,4,0.1,0.00015567,1555.6,0.00014964,1409.9,-3.7992e-05,0.15047,-7.2482e-05,-258.99,1.5252
8011,18.675,4.1818,0.1,0.00014892,1488.2,0.00014204,1325.8,-3.4395e-05,0.077766,-7.2201e-05,-283.98,1.5249
8012,18.675,4.3636,0.1,0.00014043,1403.3,0.00013312,1233.6,-3.1034e-05,0.16468,-7.009e-05,-293.28,1.5246
8013,18.675,4.5455,0.1,0.00013049,1304,0.00012334,1139.1,-2.8251e-05,0.074575,-6.5972e-05,-283.35,1.5242
8014,18.675,4.7273,0.1,0.00011982,1197.3,0.00011336,1048.1,-2.6123e-05,0.048526,-6.0317e-05,-256.87,1.5238
8015,18.675,4.9091,0.1,0.00010925,1091.7,0.00010383,965.04,-2.4604e-05,0.029922,-5.3875e-05,-219.91,1.5234
8016,18.675,5.0909,0.1,9.9428e-05,993.59,9.5188e-05,892.39,-2.3583e-05,-0.0058661,-4.7307e-05,-178.26,1.5229
8017,18.675,5.2727,0.1,9.078e-05,907.17,8.7689e-05,831.29,-2.2954e-05,-0.040321,-4.109e-05,-136.3,1.5224
8018,18.675,5.4545,0.1,8.3546e-05,834.88,8.1474e-05,782.18,-2.264e-05,-0.093999,-3.5521e-05,-96.872,1.5219
8019,18.675,5.6364,0.1,7.7804e-05,777.51,7.6583e-05,745.1,-2.259e-05,-0.047031,-3.0724e-05,-61.161,1.5213
8020,18.675,5.8182,0.1,7.3463e-05,734.13,7.2929e-05,719.22,-2.2824e-05,-0.22555,-2.662e-05,-28.752,1.5208
8021,18.86,0.18182,0.1,6.1061e-05,610.19,6.0519e-05,595.21,-1.8747e-05,-0.35944,-2.2507e-05,-28.616,1.5453
8022,18.86,0.36364,0.1,6.5643e-05,655.98,6.4394e-05,623.38,-1.8589e-05,-0.12734,-2.6671e-05,-60.848,1.5458
8023,18.86,0.54545,0.1,7.2203e-05,721.54,6.9953e-05,665.69,-1.8663e-05,-0.13764,-3.208e-05,-100.95,1.5464
8024,18.86,0.72727,0.1,8.0768e-05,807.12,7.7202e-05,722.37,-1.8951e-05,-0.080448,-3.8738e-05,-148.75,1.5469
8025,18.86,0.90909,0.1,9.1227e-05,911.64,8.608e-05,793.37,-1.9517e-05,-0.038456,-4.6459e-05,-202.47,1.5474
8026,18.86,1.0909,0.1,0.00010336,1032.9,9.6502e-05,878.97,-2.0482e-05,-0.0001107,-5.4916e-05,-258.73,1.5479
8027,18.86,1.2727,0.1,0.0001168,1167.2,0.00010831,979.4,-2.2026e-05,0.078915,-6.3585e-05,-312.18,1.5484
8028,18.86,1.4545,0.1,0.00013083,1307.4,0.00012114,1093.6,-2.4391e-05,0.15468,-7.1599e-05,-354.55,1.5488
8029,18.86,1.6364,0.1,0.00014427,1441.7,0.0001342,1217.4,-2.7871e-05,-0.32405,-7.766e-05,-374.42,1.5492
8030,18.86,1.8182,0.1,0.00015551,1554,0.00014615,1341.1,-3.2336e-05,-0.011288,-8.0504e-05,-361.92,1.5496
8031,18.86,2,0.1,0.00016403,1639.1,0.00015615,1454,-3.7432e-05,-0.56364,-8.0231e-05,-322.13,1.5499
8032,18.86,2.1818,0.1,0.00017025,1701.4,0.00016395,1547.9,-4.218e-05,-0.88335,-7.8429e-05,-273.25,1.5501
8033,18.86,2.3636,0.1,0.0001749,1747.8,0.00016975,1619.2,-4.576e-05,-0.069938,-7.685e-05,-233.67,1.5503
8034,18.86,2.5455,0.1,0.00017832,1781.9,0.00017381,1667.6,-4.8151e-05,-0.14728,-7.6072e-05,-209.94,1.5505
8035,18.86,2.7273,0.1,0.00018045,1803.2,0.00017626,1695.9,-4.9475e-05,-0.13706,-7.5824e-05,-198.11,1.5506
8036,18.86,2.9091,0.1,0.00018143,1813,0.00017736,1708.6,-5.0048e-05,-0.1106,-7.5767e-05,-193.36,1.5506
8037,18.86,3.0909,0.1,0.00018143,1813,0.00017736,1708.6,-5.0048e-05,-0.1106,-7.5767e-05,-193.36,1.5506
8038,18.86,3.2727,0.1,0.00018045,1803.2,0.00017626,1695.9,-4.9475e-05,-0.13706,-7.5824e-05,-198.11,1.5506
8039,18.86,3.4545,0.1,0.00017832,1781.9,0.00017381,1667.6,-4.8151e-05,-0.14727,-7.6072e-05,-209.94,1.5505
8040,18.86,3.6364,0.1,0.0001749,1747.8,0.00016975,1619.2,-4.576e-05,-0.069938,-7.685e-05,-233.67,1.5503
8041,18.86,3.8182,0.1,0.00017025,1701.4,0.00016395,1547.9,-4.218e-05,-0.88335,-7.8429e-05,-273.25,1.5501
8042,18.86,4,0.1,0.00016403,1639.1,0.00015615,1454,-3.7432e-05,-0.56365,-8.0231e-05,-322.13,1.5499
8043,18.86,4.1818,0.1,0.00015551,1554,0.00014615,1341.1,-3.2336e-05,-0.011288,-8.0504e-05,-361.92,1.5496
8044,18.86,4.3636,0.1,0.00014427,1441.7,0.0001342,1217.4,-2.7871e-05,-0.32405,-7.766e-05,-374.42,1.5492
8045,18.86,4.5455,0.1,0.00013083,1307.4,0.00012114,1093.6,-2.4391e-05,0.15468,-7.1599e-05,-354.55,1.5488
8046,18.86,4.7273,0.1,0.0001168,1167.2,0.00010831,979.4,-2.2026e-05,0.078915,-6.3585e-05,-312.18,1.5484
8047,18.86,4.9091,0.1,0.00010336,1032.9,9.6502e-05,878.97,-2.0482e-05,-0.00011004,-5.4916e-05,-258.73,1.5479
8048,18.86,5.0909,0.1,9.1227e-05,911.64,8.608e-05,793.37,-1.9517e-05,-0.038453,-4.6459e-05,-202.47,1.5474
8049,18.86,5.2727,0.1,8.0768e-05,807.12,7.7202e-05,722.37,-1.8951e-05,-0.080446,-3.8738e-05,-148.75,1.5469
8050,18.86,5.4545,0.1,7.2203e-05,721.54,6.9953e-05,665.69,-1.8663e-05,-0.13764,-3.208e-05,-100.95,1.5464
8051,18.86,5.6364,0.1,6.5643e-05,655.98,6.4394e-05,623.38,-1.8589e-05,-0.12734,-2.6671e-05,-60.848,1.5458
8052,18.86,5.8182,0.1,6.1061e-05,610.19,6.0519e-05,595.21,-1.8747e-05,-0.35944,-2.2507e-05,-28.616,1.5453
8053,19.045,0.18182,0.1,4.7823e-05,477.9,4.7287e-05,463.28,-1.4403e-05,-0.22648,-1.8075e-05,-27.817,1.5698
8054,19.045,0.36364,0.1,5.2782e-05,527.46,5.151e-05,495,-1.4376e-05,-0.042799,-2.2328e-05,-59.791,1.5704
8055,19.045,0.54545,0.1,6.051e-05,604.69,5.7994e-05,544.42,-1.447e-05,-0.045105,-2.8623e-05,-106.39,1.5709
8056,19.045,0.72727,0.1,7.0744e-05,706.95,6.6464e-05,609.6,-1.4669e-05,0.0016513,-3.6681e-05,-165.38,1.5715
8057,19.045,0.90909,0.1,8.3271e-05,832.13,7.678e-05,690.05,-1.5054e-05,0.041094,-4.6211e-05,-234.06,1.572
8058,19.045,1.0909,0.1,9.7997e-05,979.3,8.8992e-05,787.25,-1.5764e-05,0.15246,-5.6965e-05,-309.41,1.5726
8059,19.045,1.2727,0.1,0.00011483,1147.5,0.00010326,904.38,-1.708e-05,0.19873,-6.8555e-05,-386.57,1.573
8060,19.045,1.4545,0.1,0.00013348,1333.9,0.00011971,1045.6,-1.9432e-05,0.15339,-8.0236e-05,-456.71,1.5735
8061,19.045,1.6364,0.1,0.00015215,1520.5,0.00013738,1209,-2.3243e-05,2.1335,-8.9901e-05,-498.71,1.5739
8062,19.045,1.8182,0.1,0.00016813,1680.1,0.00015448,1383.5,-2.9535e-05,0.86951,-9.4394e-05,-486.45,1.5743
8063,19.045,2,0.1,0.0001791,1789.8,0.00016827,1544.4,-3.6903e-05,2.7822,-9.2967e-05,-418.47,1.5747
8064,19.045,2.1818,0.1,0.00018572,1856,0.0001778,1667.5,-4.3822e-05,2.3112,-8.8509e-05,-333.45,1.5749
8065,19.045,2.3636,0.1,0.00019042,1902.9,0.00018424,1750,-4.8822e-05,-1.1288,-8.5267e-05,-274.96,1.5751
8066,19.045,2.5455,0.1,0.00019286,1927.3,0.00018751,1792.8,-5.111e-05,-0.085754,-8.3754e-05,-245.36,1.5753
8067,19.045,2.7273,0.1,0.00019378,1936.5,0.0001888,1810.3,-5.2148e-05,-0.10537,-8.2938e-05,-231.45,1.5754
8068,19.045,2.9091,0.1,0.000194,1938.7,0.00018916,1815.7,-5.2502e-05,-0.05106,-8.2574e-05,-226,1.5755
8069,19.045,3.0909,0.1,0.000194,1938.7,0.00018916,1815.7,-5.2502e-05,-0.051059,-8.2574e-05,-226,1.5755
8070,19.045,3.2727,0.1,0.00019378,1936.5,0.0001888,1810.3,-5.2148e-05,-0.10537,-8.2938e-05,-231.45,1.5754
8071,19.045,3.4545,0.1,0.00019286,1927.3,0.00018751,1792.8,-5.111e-05,-0.085753,-8.3754e-05,-245.36,1.5753
8072,19.045,3.6364,0.1,0.00019042,1902.9,0.00018424,1750,-4.8822e-05,-1.1288,-8.5267e-05,-274.96,1.5751
8073,19.045,3.8182,0.1,0.00018572,1856,0.0001778,1667.5,-4.3822e-05,2.3112,-8.8509e-05,-333.45,1.5749
8074,19.045,4,0.1,0.0001791,1789.8,0.00016827,1544.4,-3.6903e-05,2.7822,-9.2968e-05,-418.47,1.5747
8075,19.045,4.1818,0.1,0.00016813,1680.1,0.00015448,1383.5,-2.9535e-05,0.86951,-9.4394e-05,-486.45,1.5743
8076,19.045,4.3636,0.1,0.00015215,1520.5,0.00013738,1209,-2.3243e-05,2.1335,-8.9901e-05,-498.71,1.5739
8077,19.045,4.5455,0.1,0.00013348,1333.9,0.00011971,1045.6,-1.9432e-05,0.15339,-8.0236e-05,-456.71,1.5735
8078,19.045,4.7273,0.1,0.00011483,1147.5,0.00010326,904.38,-1.708e-05,0.19873,-6.8555e-05,-386.57,1.573
8079,19.045,4.9091,0.1,9.7997e-05,979.3,8.8992e-05,787.25,-1.5764e-05,0.15246,-5.6965e-05,-309.41,1.5726
8080,19.045,5.0909,0.1,8.3271e-05,832.13,7.678e-05,690.05,-1.5054e-05,0.041096,-4.6211e-05,-234.06,1.572
8081,19.045,5.2727,0.1,7.0744e-05,706.95,6.6464e-05,609.6,-1.4669e-05,0.0016515,-3.6681e-05,-165.38,1.5715
8082,19.045,5.4545,0.1,6.051e-05,604.69,5.7994e-05,544.42,-1.447e-05,-0.045105,-2.8623e-05,-106.39,1.5709
8083,19.045,5.6364,0.1,5.2782e-05,527.46,5.151e-05,495,-1.4376e-05,-0.042802,-2.2328e-05,-59.791,1.5704
8084,19.045,5.8182,0.1,4.7823e-05,477.9,4.7287e-05,463.28,-1.4403e-05,-0.22648,-1.8075e-05,-27.817,1.5698
8085,19.23,0.18182,0.1,3.4089e-05,340.65,3.3538e-05,326.07,-9.8644e-06,-0.036833,-1.3515e-05,-27.469,1.5943
8086,19.23,0.36364,0.1,4.0174e-05,401.46,3.8753e-05,366.66,-1.0083e-05,-0.27559,-1.8318e-05,-62.147,1.5949
8087,19.23,0.54545,0.1,4.9889e-05,498.55,4.6757e-05,427.56,-1.02e-05,-0.39211,-2.6101e-05,-119.86,1.5955
8088,19.23,0.72727,0.1,6.2227e-05,621.84,5.6647e-05,502.14,-1.025e-05,-0.49617,-3.5905e-05,-193.26,1.5961
8089,19.23,0.90909,0.1,7.692e-05,768.67,6.8269e-05,589.87,-1.0311e-05,-0.54536,-4.7409e-05,-279.28,1.5967
8090,19.23,1.0909,0.1,9.4178e-05,941.13,8.1926e-05,694.08,-1.0536e-05,-0.64841,-6.0624e-05,-376.99,1.5972
8091,19.23,1.2727,0.1,0.00011466,1145.8,9.8367e-05,822.29,-1.1155e-05,-0.6098,-7.5802e-05,-486.34,1.5977
8092,19.23,1.4545,0.1,0.00013875,1386.5,0.00011844,985.33,-1.2785e-05,-0.61846,-9.2565e-05,-600.05,1.5983
8093,19.23,1.6364,0.1,0.00016738,1672.7,0.00014391,1205,-1.6749e-05,-2.1451,-0.0001102,-704.32,1.5987
8094,19.23,1.8182,0.1,0.00019456,1944.3,0.00017168,1473.4,-2.5094e-05,-5.1135,-0.00012144,-728.99,1.5992
8095,19.23,2,0.1,0.00020856,2084.1,0.00019231,1722.5,-3.906e-05,-15.882,-0.00011519,-587.86,1.5995
8096,19.23,2.1818,0.1,0.00021499,2148.4,0.00020466,1903.1,-4.9755e-05,-8.4205,-0.00010479,-421.95,1.5998
8097,19.23,2.3636,0.1,0.00021509,2149.4,0.00020765,1967.5,-5.4031e-05,1.3461,-9.7766e-05,-327.26,1.6001
8098,19.23,2.5455,0.1,0.0002126,2124.6,0.00020624,1965.9,-5.5437e-05,-0.24192,-9.3717e-05,-287.86,1.6003
8099,19.23,2.7273,0.1,0.00020961,2094.6,0.00020374,1947.4,-5.5433e-05,0.095234,-9.1185e-05,-268.53,1.6004
8100,19.23,2.9091,0.1,0.00020785,2077,0.00020218,1934.5,-5.5265e-05,0.094049,-8.9966e-05,-260.64,1.6004
8101,19.23,3.0909,0.1,0.00020785,2077,0.00020218,1934.5,-5.5265e-05,0.094048,-8.9966e-05,-260.64,1.6004
8102,19.23,3.2727,0.1,0.00020961,2094.6,0.00020374,1947.4,-5.5433e-05,0.095233,-9.1185e-05,-268.53,1.6004
8103,19.23,3.4545,0.1,0.0002126,2124.6,0.00020624,1965.9,-5.5437e-05,-0.24192,-9.3717e-05,-287.86,1.6003
8104,19.23,3.6364,0.1,0.00021509,2149.4,0.00020765,1967.5,-5.4031e-05,1.3461,-9.7766e-05,-327.26,1.6001
8105,19.23,3.8182,0.1,0.00021499,2148.4,0.00020466,1903.1,-4.9755e-05,-8.4205,-0.00010479,-421.95,1.5998
8106,19.23,4,0.1,0.00020856,2084.1,0.00019231,1722.5,-3.906e-05,-15.882,-0.00011519,-587.86,1.5995
8107,19.23,4.1818,0.1,0.00019456,1944.3,0.00017168,1473.4,-2.5094e-05,-5.1135,-0.00012144,-728.99,1.5992
8108,19.23,4.3636,0.1,0.00016738,1672.7,0.00014391,1205,-1.6749e-05,-2.1451,-0.0001102,-704.32,1.5987
8109,19.23,4.5455,0.1,0.00013875,1386.5,0.00011844,985.33,-1.2785e-05,-0.61846,-9.2565e-05,-600.05,1.5983
8110,19.23,4.7273,0.1,0.00011466,1145.8,9.8367e-05,822.29,-1.1155e-05,-0.6098,-7.5802e-05,-486.34,1.5977
8111,19.23,4.9091,0.1,9.4178e-05,941.13,8.1926e-05,694.08,-1.0536e-05,-0.64841,-6.0624e-05,-376.99,1.5972
8112,19.23,5.0909,0.1,7.692e-05,768.67,6.8269e-05,589.87,-1.0311e-05,-0.54536,-4.7409e-05,-279.28,1.5967
8113,19.23,5.2727,0.1,6.2227e-05,621.84,5.6647e-05,502.14,-1.025e-05,-0.49618,-3.5905e-05,-193.26,1.5961
8114,19.23,5.4545,0.1,4.9889e-05,498.55,4.6757e-05,427.56,-1.02e-05,-0.39211,-2.6101e-05,-119.86,1.5955
8115,19.23,5.6364,0.1,4.0174e-05,401.46,3.8753e-05,366.66,-1.0083e-05,-0.27559,-1.8318e-05,-62.147,1.5949
8116,19.23,5.8182,0.1,3.4089e-05,340.65,3.3538e-05,326.07,-9.8644e-06,-0.036836,-1.3515e-05,-27.469,1.5943
8117,19.415,0.18182,0.1,2.1564e-05,215.49,2.073e-05,196.48,-4.8947e-06,3.9492,-1.025e-05,-36.292,1.6189
8118,19.415,0.36364,0.1,3.193e-05,319.08,2.9455e-05,265.5,-5.6466e-06,1.7563,-1.775e-05,-89.182,1.6195
8119,19.415,0.54545,0.1,4.5228e-05,451.97,4.0019e-05,345.45,-5.7726e-06,1.3922,-2.8108e-05,-166.43,1.6201
8120,19.415,0.72727,0.1,6.0359e-05,603.18,5.1633e-05,431.11,-5.5761e-06,1.2679,-4.0138e-05,-258.41,1.6207
8121,19.415,0.90909,0.1,7.7584e-05,775.3,6.4597e-05,525.44,-5.1683e-06,1.2439,-5.3934e-05,-365.16,1.6213
8122,19.415,1.0909,0.1,9.7652e-05,975.85,7.9569e-05,634.06,-4.5955e-06,1.6777,-7.0009e-05,-489.81,1.6219
8123,19.415,1.2727,0.1,0.00012194,1218.5,9.7726e-05,765.96,-4.0904e-06,0.94513,-8.9292e-05,-639.23,1.6225
8124,19.415,1.4545,0.1,0.00015306,1529.6,0.00012134,943.15,-3.4599e-06,5.4346,-0.00011357,-821.91,1.6231
8125,19.415,1.6364,0.1,0.00019638,1962.4,0.00015511,1194.9,-4.7726e-06,-6.3977,-0.00014629,-1069.7,1.6236
8126,19.415,1.8182,0.1,0.00026028,2601,0.00021267,1710.5,-1.117e-05,28.689,-0.00018606,-1285.3,1.6241
8127,19.415,2,0.1,0.00030013,2999.2,0.0002684,2394.6,-3.2012e-05,137.42,-0.00018456,-1008.8,1.6245
8128,19.415,2.1818,0.1,0.00027327,2730.8,0.00026009,2419,-6.2869e-05,-7.6083,-0.00013349,-538.21,1.6249
8129,19.415,2.3636,0.1,0.00025257,2524,0.00024364,2306.9,-6.2785e-05,4.5536,-0.00011554,-391.82,1.6252
8130,19.415,2.5455,0.1,0.00023464,2344.7,0.00022737,2164,-6.0817e-05,-1.2737,-0.00010406,-326.22,1.6254
8131,19.415,2.7273,0.1,0.00022441,2242.6,0.00021784,2078.7,-5.8694e-05,0.89606,-9.8553e-05,-298.59,1.6255
8132,19.415,2.9091,0.1,0.00021958,2194.3,0.00021331,2037.3,-5.7806e-05,0.24078,-9.5913e-05,-286.08,1.6256
8133,19.415,3.0909,0.1,0.00021958,2194.3,0.00021331,2037.3,-5.7806e-05,0.24078,-9.5913e-05,-286.08,1.6256
8134,19.415,3.2727,0.1,0.00022441,2242.6,0.00021784,2078.7,-5.8694e-05,0.89606,-9.8553e-05,-298.59,1.6255
8135,19.415,3.4545,0.1,0.00023464,2344.7,0.00022737,2164,-6.0817e-05,-1.2737,-0.00010406,-326.22,1.6254
8136,19.415,3.6364,0.1,0.00025257,2524,0.00024364,2306.9,-6.2785e-05,4.5536,-0.00011554,-391.82,1.6252
8137,19.415,3.8182,0.1,0.00027327,2730.8,0.00026009,2419,-6.2869e-05,-7.6083,-0.00013349,-538.22,1.6249
8138,19.415,4,0.1,0.00030013,2999.2,0.0002684,2394.6,-3.2012e-05,137.42,-0.00018456,-1008.8,1.6245
8139,19.415,4.1818,0.1,0.00026028,2601,0.00021267,1710.5,-1.117e-05,28.689,-0.00018606,-1285.3,1.6241
8140,19.415,4.3636,0.1,0.00019638,1962.4,0.00015511,1194.9,-4.7726e-06,-6.3977,-0.00014629,-1069.7,1.6236
8141,19.415,4.5455,0.1,0.00015306,1529.6,0.00012134,943.15,-3.4598e-06,5.4346,-0.00011357,-821.91,1.6231
8142,19.415,4.7273,0.1,0.00012194,1218.5,9.7726e-05,765.96,-4.0904e-06,0.94513,-8.9292e-05,-639.23,1.6225
8143,19.415,4.9091,0.1,9.7652e-05,975.85,7.9569e-05,634.06,-4.5955e-06,1.6777,-7.0009e-05,-489.81,1.6219
8144,19.415,5.0909,0.1,7.7584e-05,775.3,6.4597e-05,525.44,-5.1683e-06,1.2439,-5.3934e-05,-365.16,1.6213
8145,19.415,5.2727,0.1,6.0359e-05,603.18,5.1633e-05,431.11,-5.5761e-06,1.2679,-4.0138e-05,-258.41,1.6207
8146,19.415,5.4545,0.1,4.5228e-05,451.97,4.0019e-05,345.45,-5.7726e-06,1.3922,-2.8108e-05,-166.43,1.6201
8147,19.415,5.6364,0.1,3.193e-05,319.08,2.9455e-05,265.5,-5.6466e-06,1.7563,-1.775e-05,-89.182,1.6195
8148,19.415,5.8182,0.1,2.1564e-05,215.49,2.073e-05,196.48,-4.8947e-06,3.9492,-1.025e-05,-36.292,1.6189
8149,19.767,3.8182,0.1,0.00034925,3490.1,0.00034227,3310.3,-9.7337e-05,7.2951,-0.00014365,-340.68,1.6731
8150,19.767,3.6364,0.1,0.0002776,2774.1,0.00027068,2600.3,-7.4122e-05,9.6059,-0.00011887,-326.62,1.6733
8151,19.767,3.4545,0.1,0.00024378,2436.1,0.00023765,2280.4,-6.5927e-05,-0.56747,-0.00010388,-285.7,1.6735
8152,19.767,3.2727,0.1,0.00022658,2264.2,0.00022095,2121.4,-6.1264e-05,0.94918,-9.644e-05,-263.35,1.6737
8153,19.767,3.0909,0.1,0.00021922,2190.7,0.00021383,2053.5,-5.9426e-05,0.41286,-9.3118e-05,-252.73,1.6737
8154,19.767,2.9091,0.1,0.00021922,2190.7,0.00021383,2053.5,-5.9426e-05,0.41286,-9.3118e-05,-252.73,1.6737
8155,19.767,2.7273,0.1,0.00022658,2264.2,0.00022095,2121.4,-6.1264e-05,0.94918,-9.644e-05,-263.35,1.6737
8156,19.767,2.5455,0.1,0.00024378,2436.1,0.00023765,2280.4,-6.5927e-05,-0.56747,-0.00010388,-285.7,1.6735
8157,19.767,2.3636,0.1,0.0002776,2774.1,0.00027068,2600.3,-7.4122e-05,9.6059,-0.00011887,-326.62,1.6733
8158,19.767,2.1818,0.1,0.00034925,3490.1,0.00034227,3310.3,-9.7337e-05,7.2951,-0.00014365,-340.68,1.6731
8159,19.6,3.8182,0.1,0.00036166,3614.1,0.00034816,3271.9,-9.4589e-05,-54.786,-0.00016363,-573.53,1.6501
8160,19.6,3.6364,0.1,0.00028185,2816.6,0.000273,2599.4,-7.1851e-05,8.2737,-0.00012599,-398.51,1.6504
8161,19.6,3.4545,0.1,0.00024871,2485.4,0.00024137,2302.1,-6.5042e-05,-0.12315,-0.00010933,-332.88,1.6506
8162,19.6,3.2727,0.1,0.00023158,2314.2,0.00022503,2150.1,-6.1016e-05,0.93434,-0.00010102,-299.63,1.6508
8163,19.6,3.0909,0.1,0.0002243,2241.4,0.00021808,2085.4,-5.9397e-05,0.51407,-9.7421e-05,-285.18,1.6508
8164,19.6,2.9091,0.1,0.0002243,2241.4,0.00021808,2085.4,-5.9397e-05,0.51407,-9.7421e-05,-285.18,1.6508
8165,19.6,2.7273,0.1,0.00023158,2314.2,0.00022503,2150.1,-6.1016e-05,0.93434,-0.00010102,-299.63,1.6508
8166,19.6,2.5455,0.1,0.00024871,2485.4,0.00024137,2302.1,-6.5042e-05,-0.12315,-0.00010933,-332.88,1.6506
8167,19.6,2.3636,0.1,0.00028185,2816.6,0.000273,2599.4,-7.1851e-05,8.2737,-0.00012599,-398.51,1.6504
8168,19.6,2.1818,0.1,0.00036166,3614.1,0.00034816,3271.9,-9.4589e-05,-54.786,-0.00016363,-573.53,1.6501
8169,19.767,5.8182,0.1,8.1104e-06,81.048,7.8434e-06,74.086,-2.2228e-06,-1.5476,-3.5427e-06,-11.465,1.6702
8170,19.767,5.6364,0.1,1.5031e-05,150.2,1.436e-05,133.54,-3.7542e-06,-2.564,-7.0891e-06,-27.621,1.6704
8171,19.767,5.4545,0.1,2.1666e-05,216.51,2.0499e-05,188.69,-4.9636e-06,-2.6287,-1.0782e-05,-46.347,1.6706
8172,19.767,5.2727,0.1,2.8805e-05,287.85,2.7038e-05,246.74,-6.2002e-06,-2.9995,-1.4861e-05,-68.074,1.6708
8173,19.767,5.0909,0.1,3.6961e-05,369.35,3.4464e-05,312.23,-7.5694e-06,-3.5955,-1.9589e-05,-93.904,1.671
8174,19.767,4.9091,0.1,4.6793e-05,467.61,4.3377e-05,390.56,-9.1574e-06,-4.1574,-2.5355e-05,-125.86,1.6712
8175,19.767,4.7273,0.1,5.9334e-05,592.93,5.472e-05,489.56,-1.1273e-05,-6.2885,-3.2693e-05,-167.23,1.6714
8176,19.767,4.5455,0.1,7.7032e-05,769.79,7.0513e-05,626.69,-1.3666e-05,-5.7975,-4.3562e-05,-230.42,1.6717
8177,19.767,4.3636,0.1,9.9555e-05,994.86,9.1867e-05,817.86,-2.0079e-05,-23.257,-5.4289e-05,-280.3,1.672
8178,19.767,4.1818,0.1,0.00017405,1739.3,0.00014987,1261.1,-1.6925e-05,7.8874,-0.00011442,-724.67,1.6723
8179,19.767,4,0.1,0.0004917,4913.6,0.0004859,4850.4,-0.00010419,416.76,-0.0002172,-432.37,1.6727
8180,19.6,4,0.1,0.00055142,5510.4,0.00050816,4613.8,-8.8391e-05,131.61,-0.00031065,-1538.4,1.6497
8181,19.6,4.1818,0.1,0.00023363,2334.7,0.00015797,1042.1,2.0013e-05,5.527,-0.00019785,-1631.4,1.6491
8182,19.6,4.3636,0.1,0.00013631,1362.2,9.9494e-05,695.51,3.0075e-06,-29.456,-0.00010964,-875.84,1.6485
8183,19.6,4.5455,0.1,0.00010646,1063.8,7.8348e-05,560.35,2.7584e-06,-7.5958,-8.499e-05,-666.9,1.6479
8184,19.6,4.7273,0.1,8.3149e-05,830.92,6.2901e-05,461.1,3.0722e-07,-9.2068,-6.4787e-05,-498.3,1.6472
8185,19.6,4.9091,0.1,6.6073e-05,660.27,5.1357e-05,387.38,-1.0561e-06,-6.4323,-5.0095e-05,-374.89,1.6466
8186,19.6,5.0909,0.1,5.2271e-05,522.35,4.1881e-05,325.16,-2.1808e-06,-5.9022,-3.8262e-05,-277,1.646
8187,19.6,5.2727,0.1,4.058e-05,405.52,3.3615e-05,269.41,-2.9311e-06,-5.1855,-2.8375e-05,-196.36,1.6453
8188,19.6,5.4545,0.1,3.027e-05,302.49,2.6019e-05,215.91,-3.3484e-06,-4.7514,-1.9873e-05,-128.91,1.6447
8189,19.6,5.6364,0.1,2.0806e-05,207.91,1.8634e-05,160.67,-3.3683e-06,-4.6454,-1.2433e-05,-72.751,1.6441
8190,19.6,5.8182,0.1,1.1259e-05,112.51,1.0541e-05,95.082,-2.6033e-06,-3.6804,-5.7603e-06,-27.401,1.6435
8191,19.767,0.18182,0.1,8.1104e-06,81.048,7.8434e-06,74.086,-2.2228e-06,-1.5476,-3.5427e-06,-11.465,1.6702
8192,19.767,0.36364,0.1,1.5031e-05,150.2,1.436e-05,133.54,-3.7542e-06,-2.564,-7.0891e-06,-27.621,1.6704
8193,19.767,0.54545,0.1,2.1666e-05,216.51,2.0499e-05,188.69,-4.9636e-06,-2.6287,-1.0782e-05,-46.347,1.6706
8194,19.767,0.72727,0.1,2.8805e-05,287.85,2.7038e-05,246.74,-6.2002e-06,-2.9995,-1.4861e-05,-68.074,1.6708
8195,19.767,0.90909,0.1,3.6961e-05,369.35,3.4464e-05,312.23,-7.5694e-06,-3.5955,-1.9589e-05,-93.904,1.671
8196,19.767,1.0909,0.1,4.6793e-05,467.61,4.3377e-05,390.56,-9.1573e-06,-4.1574,-2.5355e-05,-125.86,1.6712
8197,19.767,1.2727,0.1,5.9334e-05,592.93,5.472e-05,489.56,-1.1273e-05,-6.2885,-3.2693e-05,-167.23,1.6714
8198,19.767,1.4545,0.1,7.7032e-05,769.79,7.0513e-05,626.69,-1.3666e-05,-5.7975,-4.3562e-05,-230.42,1.6717
8199,19.767,1.6364,0.1,9.9555e-05,994.86,9.1867e-05,817.86,-2.0079e-05,-23.257,-5.4289e-05,-280.3,1.672
8200,19.767,1.8182,0.1,0.00017405,1739.3,0.00014987,1261.1,-1.6925e-05,7.8874,-0.00011442,-724.67,1.6723
8201,19.767,2,0.1,0.0004917,4913.6,0.0004859,4850.4,-0.00010419,416.76,-0.0002172,-432.37,1.6727
8202,19.6,2,0.1,0.00055142,5510.4,0.00050816,4613.9,-8.8391e-05,131.61,-0.00031065,-1538.4,1.6497
8203,19.6,1.8182,0.1,0.00023363,2334.7,0.00015797,1042.1,2.0013e-05,5.5269,-0.00019785,-1631.4,1.6491
8204,19.6,1.6364,0.1,0.00013631,1362.2,9.9494e-05,695.51,3.0075e-06,-29.456,-0.00010964,-875.84,1.6485
8205,19.6,1.4545,0.1,0.00010646,1063.8,7.8348e-05,560.35,2.7584e-06,-7.5958,-8.499e-05,-666.9,1.6479
8206,19.6,1.2727,0.1,8.3149e-05,830.92,6.2901e-05,461.1,3.0721e-07,-9.2068,-6.4787e-05,-498.3,1.6472
8207,19.6,1.0909,0.1,6.6073e-05,660.27,5.1357e-05,387.38,-1.0561e-06,-6.4323,-5.0095e-05,-374.89,1.6466
8208,19.6,0.90909,0.1,5.2271e-05,522.35,4.1881e-05,325.16,-2.1808e-06,-5.9022,-3.8262e-05,-277,1.646
8209,19.6,0.72727,0.1,4.058e-05,405.52,3.3615e-05,269.41,-2.9311e-06,-5.1855,-2.8375e-05,-196.36,1.6453
8210,19.6,0.54545,0.1,3.027e-05,302.49,2.6019e-05,215.91,-3.3484e-06,-4.7514,-1.9873e-05,-128.91,1.6447
8211,19.6,0.36364,0.1,2.0806e-05,207.91,1.8634e-05,160.67,-3.3683e-06,-4.6454,-1.2433e-05,-72.751,1.6441
8212,19.6,0.18182,0.1,1.1259e-05,112.51,1.0541e-05,95.082,-2.6033e-06,-3.6804,-5.7603e-06,-27.401,1.6435
8213,19.767,6,0.1,1.0047e-06,10.04,7.6753e-07,9.0881,4.0145e-07,6.3375,-7.1357e-07,-2.0403,1.67
8214,19.951,6,0.1,9.2745e-06,92.681,9.2021e-06,90.72,-2.8143e-06,0.43337,-3.4287e-06,-4.1824,1.6961
8215,20.135,6,0.1,1.7574e-05,175.62,1.7458e-05,172.32,-5.5786e-06,-0.77352,-6.238e-06,-5.7287,1.7222
8216,20.319,6,0.1,2.437e-05,243.54,2.4241e-05,239.87,-7.7301e-06,-0.34928,-8.5949e-06,-6.8474,1.7482
8217,20.503,6,0.1,2.9866e-05,298.45,2.9731e-05,294.61,-9.51e-06,-0.23329,-1.0455e-05,-7.332,1.7743
8218,20.687,6,0.1,3.4065e-05,340.41,3.3932e-05,336.62,-1.0882e-05,-0.094371,-1.185e-05,-7.3654,1.8005
8219,20.871,6,0.1,3.7025e-05,370,3.6898e-05,366.35,-1.1862e-05,-0.014181,-1.2816e-05,-7.1767,1.8266
8220,21.055,6,0.1,3.8843e-05,388.17,3.8722e-05,384.69,-1.2472e-05,0.036604,-1.3394e-05,-6.8916,1.8528
8221,21.239,6,0.1,3.9645e-05,396.18,3.953e-05,392.87,-1.275e-05,0.063288,-1.3636e-05,-6.5961,1.879
8222,21.423,6,0.1,3.9568e-05,395.41,3.9458e-05,392.24,-1.2736e-05,0.07615,-1.359e-05,-6.3392,1.9052
8223,21.607,6,0.1,3.8748e-05,387.21,3.8641e-05,384.14,-1.2474e-05,0.081824,-1.3303e-05,-6.1473,1.9314
8224,21.791,6,0.1,3.7312e-05,372.86,3.7207e-05,369.85,-1.2006e-05,0.085267,-1.282e-05,-6.0318,1.9577
8225,21.975,6,0.1,3.5372e-05,353.48,3.5268e-05,350.48,-1.1367e-05,0.08972,-1.2177e-05,-5.9951,1.984
8226,22.159,6,0.1,3.3026e-05,330.03,3.2921e-05,327.02,-1.059e-05,0.097285,-1.1406e-05,-6.0342,2.0103
8227,22.343,6,0.1,3.0356e-05,303.35,3.0249e-05,300.29,-9.7024e-06,0.1093,-1.0535e-05,-6.1435,2.0367
8228,22.528,6,0.1,2.7431e-05,274.12,2.732e-05,270.97,-8.7271e-06,0.12674,-9.5844e-06,-6.315,2.063
8229,22.712,6,0.1,2.4309e-05,242.92,2.4194e-05,239.66,-7.6832e-06,0.15053,-8.5737e-06,-6.5401,2.0894
8230,22.896,6,0.1,2.1038e-05,210.23,2.0916e-05,206.83,-6.5871e-06,0.18142,-7.5174e-06,-6.8089,2.1158
8231,23.08,6,0.1,1.7657e-05,176.45,1.7528e-05,172.89,-5.4524e-06,0.22208,-6.428e-06,-7.1081,2.1422
8232,23.264,6,0.1,1.4204e-05,141.95,1.4067e-05,138.21,-4.2919e-06,0.27012,-5.3162e-06,-7.4265,2.1686
8233,23.448,6,0.1,1.0715e-05,107.07,1.0567e-05,103.16,-3.1168e-06,0.35127,-4.1904e-06,-7.7155,2.1951
8234,23.632,6,0.1,7.2456e-06,72.406,7.0782e-06,68.206,-1.9457e-06,0.40418,-3.0723e-06,-8.0608,2.2215
8235,23.816,6,0.1,3.8319e-06,38.293,3.6514e-06,34.288,-8.0807e-07,0.78079,-1.9037e-06,-7.4515,2.2479
8236,24,6,0.1,9.5011e-07,9.4946,7.827e-07,5.7892,-1.3714e-07,-1.1222,-6.5815e-07,-5.0368,2.2744
8237,24,5.8182,0.1,3.0686e-06,30.665,1.6543e-06,6.7365,4.5683e-07,-2.2605,-2.8917e-06,-27.42,2.2745
8238,24,5.6364,0.1,4.8164e-06,48.131,2.2611e-06,6.9517,1.0325e-06,-2.2796,-4.67e-06,-45.126,2.2745
8239,24,5.4545,0.1,5.954e-06,59.499,2.6526e-06,7.0173,1.3959e-06,-2.425,-5.8194e-06,-56.638,2.2746
8240,24,5.2727,0.1,6.725e-06,67.203,2.9119e-06,7.0411,1.6498e-06,-2.442,-6.5963e-06,-64.4,2.2746
8241,24,5.0909,0.1,7.2227e-06,72.178,3.0774e-06,7.0293,1.8139e-06,-2.4639,-7.0981e-06,-69.425,2.2747
8242,24,4.9091,0.1,7.51e-06,75.048,3.1715e-06,7.0071,1.9095e-06,-2.4754,-7.3878e-06,-72.331,2.2747
8243,24,4.7273,0.1,7.6324e-06,76.272,3.2102e-06,6.9775,1.9509e-06,-2.4845,-7.5118e-06,-73.584,2.2748
8244,24,4.5455,0.1,7.6289e-06,76.236,3.2067e-06,6.9442,1.9509e-06,-2.4913,-7.5092e-06,-73.571,2.2748
8245,24,4.3636,0.1,7.5334e-06,75.282,3.1724e-06,6.9088,1.9206e-06,-2.4966,-7.4141e-06,-72.634,2.2749
8246,24,4.1818,0.1,7.3767e-06,73.717,3.1177e-06,6.8728,1.8701e-06,-2.5009,-7.2575e-06,-71.082,2.2749
8247,24,4,0.1,7.1867e-06,71.817,3.0519e-06,6.8374,1.8086e-06,-2.5045,-7.0672e-06,-69.194,2.2749
8248,24,3.8182,0.1,6.988e-06,69.831,2.9833e-06,6.8041,1.744e-06,-2.5075,-6.8681e-06,-67.216,2.2749
8249,24,3.6364,0.1,6.802e-06,67.973,2.9193e-06,6.7743,1.6836e-06,-2.5099,-6.6817e-06,-65.363,2.275
8250,24,3.4545,0.1,6.6464e-06,66.418,2.8657e-06,6.7499,1.633e-06,-2.5117,-6.5257e-06,-63.813,2.275
8251,24,3.2727,0.1,6.5349e-06,65.304,2.8273e-06,6.7325,1.5968e-06,-2.513,-6.4138e-06,-62.702,2.275
8252,24,3.0909,0.1,6.4768e-06,64.724,2.8073e-06,6.7234,1.5779e-06,-2.5136,-6.3556e-06,-62.122,2.275
8253,24,2.9091,0.1,6.4768e-06,64.724,2.8073e-06,6.7234,1.5779e-06,-2.5136,-6.3556e-06,-62.122,2.275
8254,24,2.7273,0.1,6.5349e-06,65.304,2.8273e-06,6.7325,1.5968e-06,-2.513,-6.4138e-06,-62.702,2.275
8255,24,2.5455,0.1,6.6464e-06,66.418,2.8657e-06,6.7499,1.633e-06,-2.5117,-6.5257e-06,-63.813,2.275
8256,24,2.3636,0.1,6.802e-06,67.973,2.9193e-06,6.7743,1.6836e-06,-2.5099,-6.6817e-06,-65.363,2.275
8257,24,2.1818,0.1,6.988e-06,69.831,2.9833e-06,6.8041,1.744e-06,-2.5075,-6.8681e-06,-67.216,2.2749
8258,24,2,0.1,7.1867e-06,71.817,3.0519e-06,6.8374,1.8086e-06,-2.5045,-7.0672e-06,-69.194,2.2749
8259,24,1.8182,0.1,7.3767e-06,73.717,3.1177e-06,6.8728,1.8701e-06,-2.5009,-7.2575e-06,-71.082,2.2749
8260,24,1.6364,0.1,7.5334e-06,75.282,3.1724e-06,6.9088,1.9206e-06,-2.4966,-7.4141e-06,-72.634,2.2749
8261,24,1.4545,0.1,7.6289e-06,76.236,3.2067e-06,6.9442,1.9509e-06,-2.4913,-7.5092e-06,-73.571,2.2748
8262,24,1.2727,0.1,7.6324e-06,76.272,3.2102e-06,6.9775,1.9509e-06,-2.4845,-7.5118e-06,-73.584,2.2748
8263,24,1.0909,0.1,7.5099e-06,75.048,3.1715e-06,7.0071,1.9095e-06,-2.4754,-7.3878e-06,-72.331,2.2747
8264,24,0.90909,0.1,7.2227e-06,72.177,3.0774e-06,7.0293,1.8139e-06,-2.4639,-7.0981e-06,-69.425,2.2747
8265,24,0.72727,0.1,6.725e-06,67.203,2.9119e-06,7.0411,1.6498e-06,-2.442,-6.5963e-06,-64.4,2.2746
8266,24,0.54545,0.1,5.954e-06,59.499,2.6526e-06,7.0173,1.3959e-06,-2.425,-5.8194e-06,-56.638,2.2746
8267,24,0.36364,0.1,4.8164e-06,48.131,2.2611e-06,6.9517,1.0325e-06,-2.2796,-4.67e-06,-45.126,2.2745
8268,24,0.18182,0.1,3.0686e-06,30.665,1.6543e-06,6.7365,4.5683e-07,-2.2605,-2.8917e-06,-27.42,2.2745
8269,1.5894e-15,0.18182,0.1,0.00013767,1375.7,0.00017559,2499.6,1.9225e-06,1194.7,-1.5673e-05,1062.5,0
8270,3.1789e-15,0.36364,0.1,0.00023645,2362.8,0.00031378,4637.2,3.7871e-06,2308,-4.9862e-06,2242.1,0
8271,4.7683e-15,0.54545,0.1,0.0002884,2882,0.00038381,5686.8,2.8873e-06,2824.7,-2.3443e-06,2785.3,0
8272,6.3578e-15,0.72727,0.1,0.00032128,3210.5,0.00042748,6332.2,1.7975e-06,3133.8,-1.413e-06,3109.6,0
8273,7.9472e-15,0.90909,0.1,0.00034324,3430,0.00045663,6762.9,1.209e-06,3341,-9.5008e-07,3324.8,0
8274,9.5366e-15,1.0909,0.1,0.00035891,3586.6,0.00047744,7070.4,8.6406e-07,3489.6,-6.7939e-07,3478,0
8275,1.1126e-14,1.2727,0.1,0.00037051,3702.5,0.00049284,7298.1,6.375e-07,3599.9,-5.0409e-07,3591.3,0
8276,1.2716e-14,1.4545,0.1,0.0003793,3790.4,0.00050452,7470.8,4.8224e-07,3683.6,-3.8231e-07,3677.1,0
8277,1.4305e-14,1.6364,0.1,0.00038607,3858,0.00051351,7603.7,3.7053e-07,3748.2,-2.9331e-07,3743.2,0
8278,1.5894e-14,1.8182,0.1,0.00039132,3910.5,0.00052048,7706.9,2.8701e-07,3798.3,-2.256e-07,3794.4,0
8279,1.7484e-14,2,0.1,0.00039538,3951.1,0.00052589,7786.8,2.2243e-07,3837.1,-1.7221e-07,3834.2,0
8280,1.9073e-14,2.1818,0.1,0.0003985,3982.3,0.00053003,7848.1,1.7093e-07,3866.9,-1.2867e-07,3864.7,0
8281,2.0663e-14,2.3636,0.1,0.00040084,4005.6,0.00053313,7893.9,1.2861e-07,3889.2,-9.1969e-08,3887.5,0
8282,2.2252e-14,2.5455,0.1,0.0004025,4022.2,0.00053534,7926.7,9.2839e-08,3905,-6.0027e-08,3903.8,0
8283,2.3842e-14,2.7273,0.1,0.00040357,4032.9,0.00053677,7947.7,6.204e-08,3915.1,-3.1616e-08,3914.4,0
8284,2.5431e-14,2.9091,0.1,0.0004041,4038.2,0.00053746,7958,3.7476e-08,3920,-8.1991e-09,3919.7,0
8285,2.702e-14,3.0909,0.1,0.0004041,4038.2,0.00053746,7958,3.7476e-08,3920,-8.199e-09,3919.7,0
8286,2.861e-14,3.2727,0.1,0.00040357,4032.9,0.00053677,7947.7,6.204e-08,3915.1,-3.1615e-08,3914.4,0
8287,3.0199e-14,3.4545,0.1,0.0004025,4022.2,0.00053534,7926.7,9.2839e-08,3905,-6.0026e-08,3903.8,0
8288,3.1789e-14,3.6364,0.1,0.00040084,4005.6,0.00053313,7893.9,1.2861e-07,3889.2,-9.1969e-08,3887.5,0
8289,3.3378e-14,3.8182,0.1,0.0003985,3982.3,0.00053003,7848.1,1.7093e-07,3866.9,-1.2867e-07,3864.7,0
8290,3.4968e-14,4,0.1,0.00039538,3951.1,0.00052589,7786.8,2.2243e-07,3837.1,-1.7221e-07,3834.2,0
8291,3.6557e-14,4.1818,0.1,0.00039132,3910.5,0.00052048,7706.9,2.8701e-07,3798.3,-2.256e-07,3794.4,0
8292,3.8147e-14,4.3636,0.1,0.00038607,3858,0.00051351,7603.7,3.7053e-07,3748.2,-2.9331e-07,3743.2,0
8293,3.9736e-14,4.5455,0.1,0.0003793,3790.4,0.00050452,7470.8,4.8224e-07,3683.6,-3.8231e-07,3677.1,0
8294,4.1325e-14,4.7273,0.1,0.00037051,3702.5,0.00049284,7298.1,6.375e-07,3599.9,-5.0409e-07,3591.3,0
8295,4.2915e-14,4.9091,0.1,0.00035891,3586.6,0.00047744,7070.4,8.6406e-07,3489.6,-6.7939e-07,3478,0
8296,4.4504e-14,5.0909,0.1,0.00034324,3430,0.00045663,6762.9,1.209e-06,3341,-9.5008e-07,3324.8,0
8297,4.6094e-14,5.2727,0.1,0.00032128,3210.5,0.00042748,6332.2,1.7975e-06,3133.8,-1.413e-06,3109.6,0
8298,4.7683e-14,5.4545,0.1,0.0002884,2882,0.00038381,5686.8,2.8873e-06,2824.7,-2.3443e-06,2785.3,0
8299,4.9273e-14,5.6364,0.1,0.00023645,2362.8,0.00031378,4637.2,3.7871e-06,2308,-4.9862e-06,2242.1,0
8300,5.0862e-14,5.8182,0.1,0.00013767,1375.7,0.00017559,2499.6,1.9225e-06,1194.7,-1.5673e-05,1062.5,0
8301,24,0,0.1,9.5011e-07,9.4946,7.827e-07,5.7892,-1.3714e-07,-1.1222,-6.5815e-07,-5.0368,2.2744
8302,23.816,0,0.1,3.8319e-06,38.293,3.6514e-06,34.288,-8.0808e-07,0.78079,-1.9037e-06,-7.4515,2.2479
8303,23.632,0,0.1,7.2456e-06,72.407,7.0782e-06,68.206,-1.9457e-06,0.40417,-3.0723e-06,-8.0608,2.2215
8304,23.448,0,0.1,1.0715e-05,107.07,1.0567e-05,103.16,-3.1168e-06,0.35128,-4.1904e-06,-7.7155,2.1951
8305,23.264,0,0.1,1.4204e-05,141.95,1.4067e-05,138.21,-4.2919e-06,0.27012,-5.3162e-06,-7.4265,2.1686
8306,23.08,0,0.1,1.7657e-05,176.45,1.7529e-05,172.89,-5.4524e-06,0.22208,-6.428e-06,-7.1081,2.1422
8307,22.896,0,0.1,2.1038e-05,210.23,2.0916e-05,206.83,-6.5871e-06,0.18142,-7.5174e-06,-6.8088,2.1158
8308,22.712,0,0.1,2.4309e-05,242.92,2.4194e-05,239.66,-7.6832e-06,0.15053,-8.5737e-06,-6.5401,2.0894
8309,22.528,0,0.1,2.7431e-05,274.12,2.732e-05,270.97,-8.7271e-06,0.12674,-9.5844e-06,-6.315,2.063
8310,22.343,0,0.1,3.0356e-05,303.35,3.0249e-05,300.29,-9.7025e-06,0.1093,-1.0535e-05,-6.1434,2.0367
8311,22.159,0,0.1,3.3026e-05,330.03,3.2921e-05,327.02,-1.059e-05,0.097286,-1.1406e-05,-6.0342,2.0103
8312,21.975,0,0.1,3.5372e-05,353.48,3.5268e-05,350.48,-1.1367e-05,0.089725,-1.2177e-05,-5.995,1.984
8313,21.791,0,0.1,3.7312e-05,372.86,3.7207e-05,369.85,-1.2006e-05,0.085266,-1.282e-05,-6.0317,1.9577
8314,21.607,0,0.1,3.8748e-05,387.21,3.8641e-05,384.14,-1.2474e-05,0.081824,-1.3303e-05,-6.1472,1.9314
8315,21.423,0,0.1,3.9568e-05,395.41,3.9458e-05,392.24,-1.2736e-05,0.076148,-1.359e-05,-6.3392,1.9052
8316,21.239,0,0.1,3.9645e-05,396.18,3.953e-05,392.87,-1.275e-05,0.063291,-1.3636e-05,-6.5961,1.879
8317,21.055,0,0.1,3.8843e-05,388.17,3.8722e-05,384.69,-1.2472e-05,0.036608,-1.3394e-05,-6.8916,1.8528
8318,20.871,0,0.1,3.7025e-05,370,3.6898e-05,366.35,-1.1862e-05,-0.014178,-1.2816e-05,-7.1767,1.8266
8319,20.687,0,0.1,3.4065e-05,340.41,3.3932e-05,336.62,-1.0882e-05,-0.094369,-1.185e-05,-7.3654,1.8005
8320,20.503,0,0.1,2.9866e-05,298.45,2.9731e-05,294.61,-9.51e-06,-0.23328,-1.0455e-05,-7.332,1.7743
8321,20.319,0,0.1,2.437e-05,243.54,2.4241e-05,239.87,-7.7301e-06,-0.34928,-8.5949e-06,-6.8474,1.7482
8322,20.135,0,0.1,1.7574e-05,175.62,1.7458e-05,172.32,-5.5786e-06,-0.77352,-6.238e-06,-5.7287,1.7222
8323,19.951,0,0.1,9.2745e-06,92.681,9.2021e-06,90.72,-2.8143e-06,0.43337,-3.4287e-06,-4.1824,1.6961
8324,19.767,0,0.1,1.0047e-06,10.04,7.6753e-07,9.0881,4.0145e-07,6.3375,-7.1356e-07,-2.0403,1.67
8325,19.6,0,0.1,1.4759e-06,14.749,1.1603e-06,13.456,5.2991e-07,8.7198,-1.0404e-06,-3.079,1.6429
8326,19.415,-5.7683e-30,0.1,1.472e-05,147.1,1.468e-05,146.01,-4.5947e-06,1.188,-5.188e-06,-3.2703,1.6183
8327,19.23,-5.7134e-30,0.1,2.9952e-05,299.31,2.9894e-05,297.64,-9.7667e-06,-0.35929,-1.0114e-05,-2.972,1.5937
8328,19.045,-5.6585e-30,0.1,4.43e-05,442.7,4.4255e-05,441.37,-1.4448e-05,0.29976,-1.4879e-05,-2.9345,1.5692
8329,18.86,-5.6035e-30,0.1,5.7884e-05,578.44,5.7843e-05,577.25,-1.8919e-05,0.49123,-1.9366e-05,-2.8674,1.5447
8330,18.675,-5.5486e-30,0.1,7.0562e-05,705.13,7.0525e-05,704.08,-2.3086e-05,0.71813,-2.3556e-05,-2.8146,1.5202
8331,18.491,-5.4937e-30,0.1,8.2262e-05,822.05,8.2227e-05,821.03,-2.6934e-05,0.83782,-2.7428e-05,-2.8799,1.4958
8332,18.306,-5.4387e-30,0.1,9.2975e-05,929.11,9.2937e-05,928.02,-3.0455e-05,0.89252,-3.0981e-05,-3.0577,1.4714
8333,18.121,-5.3838e-30,0.1,0.00010275,1026.8,0.00010271,1025.5,-3.3667e-05,0.89138,-3.4229e-05,-3.3315,1.4471
8334,17.936,-5.3289e-30,0.1,0.00011167,1115.9,0.00011162,1114.5,-3.6596e-05,0.85425,-3.7199e-05,-3.6716,1.4229
8335,17.751,-5.2739e-30,0.1,0.00011983,1197.5,0.00011977,1195.8,-3.9277e-05,0.79587,-3.9922e-05,-4.0495,1.3987
8336,17.566,-5.219e-30,0.1,0.00012735,1272.6,0.00012728,1270.7,-4.1744e-05,0.72756,-4.2431e-05,-4.4399,1.3746
8337,17.381,-5.164e-30,0.1,0.00013432,1342.3,0.00013425,1340.2,-4.4031e-05,0.65675,-4.476e-05,-4.8234,1.3506
8338,17.196,-5.1091e-30,0.1,0.00014084,1407.4,0.00014076,1405.1,-4.617e-05,0.58804,-4.6939e-05,-5.186,1.3267
8339,17.011,-5.0542e-30,0.1,0.00014699,1468.9,0.0001469,1466.4,-4.8188e-05,0.52394,-4.8993e-05,-5.5188,1.3029
8340,16.826,-4.9992e-30,0.1,0.00015284,1527.3,0.00015274,1524.6,-5.0109e-05,0.46563,-5.0945e-05,-5.8171,1.2792
8341,16.642,-4.9443e-30,0.1,0.00015844,1583.3,0.00015835,1580.5,-5.1951e-05,0.41347,-5.2815e-05,-6.0788,1.2556
8342,16.457,-4.8894e-30,0.1,0.00016386,1637.5,0.00016376,1634.5,-5.373e-05,0.36733,-5.4618e-05,-6.3043,1.2321
8343,16.272,-4.8344e-30,0.1,0.00016912,1690.1,0.00016902,1687,-5.5461e-05,0.32679,-5.6369e-05,-6.4952,1.2088
8344,16.087,-4.7795e-30,0.1,0.00017427,1741.5,0.00017416,1738.3,-5.7154e-05,0.29133,-5.8078e-05,-6.6539,1.1855
8345,15.902,-4.7246e-30,0.1,0.00017932,1792,0.00017921,1788.7,-5.8818e-05,0.26037,-5.9755e-05,-6.783,1.1623
8346,15.717,-4.6696e-30,0.1,0.0001843,1841.8,0.00018419,1838.4,-6.0459e-05,0.23336,-6.1407e-05,-6.8856,1.1393
8347,15.532,-4.6147e-30,0.1,0.00018923,1891,0.00018912,1887.6,-6.2084e-05,0.20975,-6.3039e-05,-6.9644,1.1164
8348,15.347,-4.5597e-30,0.1,0.00019412,1939.9,0.00019401,1936.5,-6.3697e-05,0.18907,-6.4657e-05,-7.022,1.0936
8349,15.162,-4.5048e-30,0.1,0.00019899,1988.5,0.00019887,1985,-6.5302e-05,0.17089,-6.6264e-05,-7.061,1.071
8350,14.977,-4.4499e-30,0.1,0.00020383,2036.9,0.00020371,2033.5,-6.6901e-05,0.15484,-6.7864e-05,-7.0834,1.0485
8351,14.792,-4.3949e-30,0.1,0.00020867,2085.2,0.00020855,2081.8,-6.8497e-05,0.14059,-6.946e-05,-7.0911,1.0261
8352,14.608,-4.34e-30,0.1,0.0002135,2133.5,0.00021338,2130,-7.0093e-05,0.12785,-7.1053e-05,-7.0859,1.0039
8353,14.423,-4.2851e-30,0.1,0.00021833,2181.8,0.00021821,2178.3,-7.1688e-05,0.11639,-7.2645e-05,-7.0693,0.98184
8354,14.238,-4.2301e-30,0.1,0.00022316,2230.1,0.00022304,2226.6,-7.3286e-05,0.10601,-7.4237e-05,-7.0423,0.95991
8355,14.053,-4.1752e-30,0.1,0.000228,2278.5,0.00022789,2275,-7.4886e-05,0.096505,-7.5831e-05,-7.0062,0.93813
8356,13.868,-4.1202e-30,0.1,0.00023285,2326.9,0.00023274,2323.5,-7.6489e-05,0.087739,-7.7428e-05,-6.9617,0.91651
8357,13.683,-4.0653e-30,0.1,0.00023772,2375.5,0.0002376,2372.1,-7.8097e-05,0.079574,-7.9027e-05,-6.9096,0.89504
8358,13.498,-4.0104e-30,0.1,0.00024259,2424.2,0.00024247,2420.8,-7.9709e-05,0.071896,-8.0631e-05,-6.8507,0.87374
8359,13.313,-3.9554e-30,0.1,0.00024748,2473.1,0.00024736,2469.7,-8.1327e-05,0.064604,-8.2238e-05,-6.7852,0.8526
8360,13.128,-3.9005e-30,0.1,0.00025238,2522.1,0.00025227,2518.8,-8.2949e-05,0.057606,-8.3851e-05,-6.7137,0.83163
8361,12.943,-3.8456e-30,0.1,0.00025731,2571.3,0.00025719,2568,-8.4578e-05,0.050825,-8.5468e-05,-6.6365,0.81084
8362,12.758,-3.7906e-30,0.1,0.00026225,2620.6,0.00026213,2617.4,-8.6212e-05,0.044185,-8.7091e-05,-6.5538,0.79021
8363,12.574,-3.7357e-30,0.1,0.0002672,2670.2,0.00026709,2667,-8.7853e-05,0.037635,-8.8719e-05,-6.4657,0.76977
8364,12.389,-3.6808e-30,0.1,0.00027218,2719.9,0.00027207,2716.7,-8.9501e-05,0.031097,-9.0353e-05,-6.3724,0.74951
8365,12.204,-3.6258e-30,0.1,0.00027717,2769.8,0.00027707,2766.7,-9.1154e-05,0.024497,-9.1993e-05,-6.274,0.72944
8366,12.019,-3.5709e-30,0.1,0.00028219,2819.9,0.00028208,2816.9,-9.2815e-05,0.017825,-9.3639e-05,-6.1703,0.70955
8367,11.834,-3.5159e-30,0.1,0.00028723,2870.3,0.00028712,2867.2,-9.4483e-05,0.011011,-9.5291e-05,-6.0614,0.68985
8368,11.649,-3.461e-30,0.1,0.00029228,2920.8,0.00029218,2917.8,-9.6158e-05,0.0039894,-9.695e-05,-5.9471,0.67036
8369,11.464,-3.4061e-30,0.1,0.00029736,2971.5,0.00029726,2968.6,-9.784e-05,-0.0032821,-9.8615e-05,-5.8273,0.65106
8370,11.279,-3.3511e-30,0.1,0.00030246,3022.5,0.00030236,3019.6,-9.953e-05,-0.010857,-0.00010029,-5.7018,0.63196
8371,11.094,-3.2962e-30,0.1,0.00030758,3073.7,0.00030748,3070.9,-0.00010123,-0.018787,-0.00010197,-5.5703,0.61307
8372,10.909,-3.2413e-30,0.1,0.00031272,3125.1,0.00031263,3122.3,-0.00010293,-0.02713,-0.00010365,-5.4328,0.59439
8373,10.725,-3.1863e-30,0.1,0.00031789,3176.7,0.0003178,3174,-0.00010464,-0.035939,-0.00010534,-5.2887,0.57592
8374,10.54,-3.1314e-30,0.1,0.00032308,3228.6,0.00032299,3226,-0.00010637,-0.045275,-0.00010704,-5.138,0.55767
8375,10.355,-3.0765e-30,0.1,0.00032829,3280.7,0.00032821,3278.2,-0.00010809,-0.0552,-0.00010875,-4.9801,0.53964
8376,10.17,-3.0215e-30,0.1,0.00033353,3333,0.00033345,3330.6,-0.00010983,-0.065779,-0.00011046,-4.8147,0.52184
8377,9.9849,-2.9666e-30,0.1,0.00033879,3385.6,0.00033871,3383.2,-0.00011158,-0.077082,-0.00011219,-4.6416,0.50426
8378,9.8,-2.9116e-30,0.1,0.00034408,3438.4,0.000344,3436.2,-0.00011333,-0.089185,-0.00011392,-4.4602,0.48691
8379,9.6151,-2.8567e-30,0.1,0.0003494,3491.5,0.00034932,3489.4,-0.0001151,-0.10216,-0.00011565,-4.2701,0.4698
8380,9.4302,-2.8018e-30,0.1,0.00035474,3544.9,0.00035466,3542.8,-0.00011687,-0.1161,-0.0001174,-4.071,0.45292
8381,9.2453,-2.7468e-30,0.1,0.0003601,3598.6,0.00036004,3596.6,-0.00011865,-0.13109,-0.00011915,-3.8625,0.43629
8382,9.0604,-2.6919e-30,0.1,0.0003655,3652.5,0.00036543,3650.6,-0.00012045,-0.14723,-0.00012091,-3.644,0.41991
8383,8.8755,-2.637e-30,0.1,0.00037092,3706.7,0.00037086,3704.9,-0.00012225,-0.16462,-0.00012268,-3.4153,0.40377
8384,8.6906,-2.582e-30,0.1,0.00037638,3761.2,0.00037632,3759.5,-0.00012406,-0.18337,-0.00012446,-3.176,0.38789
8385,8.5057,-2.5271e-30,0.1,0.00038186,3816,0.00038181,3814.4,-0.00012589,-0.20361,-0.00012625,-2.9257,0.37226
8386,8.3208,-2.4721e-30,0.1,0.00038738,3871.1,0.00038733,3869.6,-0.00012772,-0.22547,-0.00012805,-2.6642,0.3569
8387,8.1358,-2.4172e-30,0.1,0.00039292,3926.5,0.00039288,3925.2,-0.00012957,-0.24907,-0.00012985,-2.3912,0.3418
8388,7.9509,-2.3623e-30,0.1,0.0003985,3982.3,0.00039846,3981.1,-0.00013142,-0.27457,-0.00013167,-2.1068,0.32696
8389,7.766,-2.3073e-30,0.1,0.00040412,4038.4,0.00040408,4037.3,-0.00013329,-0.30214,-0.0001335,-1.8109,0.3124
8390,7.5811,-2.2524e-30,0.1,0.00040977,4094.9,0.00040974,4094,-0.00013518,-0.33194,-0.00013533,-1.5036,0.29812
8391,7.3962,-2.1975e-30,0.1,0.00041546,4151.7,0.00041543,4151,-0.00013707,-0.36415,-0.00013718,-1.1854,0.28412
8392,7.2113,-2.1425e-30,0.1,0.00042119,4209,0.00042117,4208.4,-0.00013898,-0.39894,-0.00013904,-0.85693,0.2704
8393,7.0264,-2.0876e-30,0.1,0.00042696,4266.6,0.00042694,4266.2,-0.00014091,-0.43582,-0.00014092,-0.51969,0.25697
8394,6.8415,-2.0327e-30,0.1,0.00043277,4324.7,0.00043276,4324.4,-0.0001428,-0.17201,-0.00014285,-0.47792,0.24383
8395,6.6566,-1.9777e-30,0.1,0.00043862,4383.2,0.00043862,4383,-0.00014471,0.18089,-0.0001448,-0.5219,0.23098
8396,6.4717,-1.9228e-30,0.1,0.00044453,4442.2,0.00044453,4442.2,-0.00014662,0.5385,-0.00014677,-0.5696,0.21844
8397,6.2868,-1.8678e-30,0.1,0.00045048,4501.7,0.00045048,4501.8,-0.00014855,0.89805,-0.00014875,-0.62122,0.2062
8398,6.1019,-1.8129e-30,0.1,0.00045648,4561.6,0.00045649,4561.9,-0.0001505,1.2562,-0.00015076,-0.67709,0.19427
8399,5.917,-1.758e-30,0.1,0.00046253,4622.1,0.00046254,4622.5,-0.00015246,1.6088,-0.00015278,-0.73751,0.18265
8400,5.7321,-1.703e-30,0.1,0.00046864,4683.1,0.00046866,4683.7,-0.00015445,1.9508,-0.00015481,-0.80289,0.17135
8401,5.5472,-1.6481e-30,0.1,0.0004748,4744.7,0.00047483,4745.4,-0.00015645,2.276,-0.00015687,-0.87362,0.16036
8402,5.3623,-1.5932e-30,0.1,0.00048102,4806.9,0.00048105,4807.7,-0.00015848,2.577,-0.00015895,-0.95016,0.14971
8403,5.1774,-1.5382e-30,0.1,0.00048731,4869.7,0.00048734,4870.6,-0.00016052,2.8448,-0.00016104,-1.033,0.13938
8404,4.9925,-1.4833e-30,0.1,0.00049365,4933.1,0.00049369,4934.1,-0.00016259,3.0689,-0.00016315,-1.1227,0.12938
8405,4.8075,-1.4284e-30,0.1,0.00050006,4997.2,0.0005001,4998.2,-0.00016469,3.2367,-0.00016528,-1.22,0.11973
8406,4.6226,-1.3734e-30,0.1,0.00050653,5061.8,0.00050657,5062.8,-0.00016681,3.3332,-0.00016743,-1.3255,0.11041
8407,4.4377,-1.3185e-30,0.1,0.00051307,5127.1,0.0005131,5128.1,-0.00016896,3.341,-0.0001696,-1.4402,0.10145
8408,4.2528,-1.2635e-30,0.1,0.00051966,5193,0.00051969,5193.9,-0.00017114,3.2399,-0.00017178,-1.5654,0.092831
8409,4.0679,-1.2086e-30,0.1,0.00052631,5259.5,0.00052633,5260.1,-0.00017335,3.0062,-0.00017397,-1.7028,0.084571
8410,3.883,-1.1537e-30,0.1,0.00053301,5326.4,0.00053302,5326.8,-0.00017558,2.6129,-0.00017618,-1.8549,0.076671
8411,3.6981,-1.0987e-30,0.1,0.00053974,5393.7,0.00053974,5393.7,-0.00017785,2.0302,-0.00017839,-2.0266,0.069136
8412,3.5132,-1.0438e-30,0.1,0.00054651,5461.3,0.00054649,5460.8,-0.00018013,1.2276,-0.00018059,-2.2279,0.06197
8413,3.3283,-9.8886e-31,0.1,0.00055327,5528.9,0.00055323,5527.7,-0.00018244,0.18629,-0.0001828,-2.4876,0.055178
8414,3.1434,-9.3392e-31,0.1,0.00056001,5596.3,0.00055995,5594.3,-0.00018475,-1.0352,-0.000185,-2.9205,0.048765
8415,2.9585,-8.7899e-31,0.1,0.00056669,5663,0.00056659,5660,-0.00018698,-2.0454,-0.00018724,-3.9846,0.042735
8416,2.7736,-8.2405e-31,0.1,0.00057326,5728.6,0.00057311,5724.3,-0.00018909,-2.5617,-0.00018955,-6.0418,0.037092
8417,2.5887,-7.6911e-31,0.1,0.00057964,5792.4,0.00057944,5786.6,-0.00019109,-2.9038,-0.00019188,-8.8685,0.03184
8418,2.4038,-7.1418e-31,0.1,0.00058576,5853.5,0.00058549,5845.7,-0.00019295,-3.2138,-0.00019418,-12.44,0.026984
8419,2.2189,-6.5924e-31,0.1,0.00059147,5910.6,0.00059112,5900.4,-0.00019464,-3.5298,-0.00019642,-16.864,0.022528
8420,2.034,-6.043e-31,0.1,0.00059662,5962.1,0.00059617,5949,-0.0001961,-3.8681,-0.00019856,-22.309,0.018474
8421,1.8491,-5.4937e-31,0.1,0.00060097,6005.6,0.0006004,5988.9,-0.00019724,-4.2391,-0.00020053,-29.006,0.014826
8422,1.6642,-4.9443e-31,0.1,0.0006042,6037.9,0.00060348,6016.8,-0.00019793,-4.6576,-0.00020227,-37.27,0.011586
8423,1.4792,-4.3949e-31,0.1,0.00060586,6054.4,0.00060495,6028,-0.000198,-5.1242,-0.00020365,-47.531,0.0087562
8424,1.2943,-3.8456e-31,0.1,0.00060527,6048.5,0.00060413,6015.3,-0.00019721,-5.7024,-0.0002045,-60.464,0.0063356
8425,1.1094,-3.2962e-31,0.1,0.0006014,6009.9,0.00059995,5967.9,-0.00019516,-6.2631,-0.00020457,-76.967,0.0043227
8426,0.92453,-2.7468e-31,0.1,0.00059262,5922.1,0.00059076,5868.4,-0.00019126,-7.3398,-0.00020346,-99.039,0.0027133
8427,0.73962,-2.1975e-31,0.1,0.00057611,5757.1,0.00057369,5687.9,-0.00018432,-7.5072,-0.00020049,-128.95,0.0014992
8428,0.55472,-1.6481e-31,0.1,0.00054634,5459.6,0.00054299,5364.9,-0.0001724,-10.326,-0.00019438,-175.42,0.00066639
8429,0.36981,-1.0987e-31,0.1,0.00049342,4930.8,0.00048836,4790.5,-0.00015142,-16.5,-0.00018321,-255.36,0.00019317
8430,0.18491,-5.4937e-32,0.1,0.00038017,3799.1,0.00037112,3579.7,-9.8485e-05,51.332,-0.00016412,-441.83,4.9463e-05
8431,0,0,0.1,0.00022466,2245,0.00014836,767.14,-3.9846e-07,-350.54,-0.00019562,-1817.3,0
8432,3.937e-14,6,0.1,0.00022466,2245,0.00014836,767.14,-3.9847e-07,-350.54,-0.00019561,-1817.3,0
8433,0.18491,6,0.1,0.00038017,3799.1,0.00037112,3579.7,-9.8485e-05,51.331,-0.00016412,-441.83,4.9463e-05
8434,0.36981,6,0.1,0.00049342,4930.8,0.00048836,4790.5,-0.00015142,-16.5,-0.00018321,-255.36,0.00019317
8435,0.55472,6,0.1,0.00054634,5459.6,0.00054299,5364.9,-0.0001724,-10.326,-0.00019438,-175.42,0.00066639
8436,0.73962,6,0.1,0.00057611,5757.1,0.00057369,5687.9,-0.00018432,-7.5072,-0.00020049,-128.95,0.0014992
8437,0.92453,6,0.1,0.00059262,5922.1,0.00059076,5868.4,-0.00019126,-7.3398,-0.00020346,-99.039,0.0027133
8438,1.1094,6,0.1,0.0006014,6009.9,0.00059995,5967.9,-0.00019516,-6.2631,-0.00020457,-76.967,0.0043227
8439,1.2943,6,0.1,0.00060527,6048.5,0.00060413,6015.3,-0.00019721,-5.7024,-0.0002045,-60.464,0.0063356
8440,1.4792,6,0.1,0.00060586,6054.4,0.00060495,6028,-0.000198,-5.1242,-0.00020365,-47.531,0.0087562
8441,1.6642,6,0.1,0.0006042,6037.9,0.00060348,6016.8,-0.00019793,-4.6576,-0.00020227,-37.27,0.011586
8442,1.8491,6,0.1,0.00060097,6005.6,0.0006004,5988.9,-0.00019724,-4.2391,-0.00020053,-29.006,0.014826
8443,2.034,6,0.1,0.00059662,5962.1,0.00059617,5949,-0.0001961,-3.8681,-0.00019856,-22.309,0.018474
8444,2.2189,6,0.1,0.00059147,5910.6,0.00059112,5900.4,-0.00019464,-3.5298,-0.00019642,-16.864,0.022528
8445,2.4038,6,0.1,0.00058576,5853.5,0.00058549,5845.7,-0.00019295,-3.2138,-0.00019418,-12.44,0.026984
8446,2.5887,6,0.1,0.00057964,5792.4,0.00057944,5786.6,-0.00019109,-2.9038,-0.00019188,-8.8685,0.03184
8447,2.7736,6,0.1,0.00057326,5728.6,0.00057311,5724.3,-0.00018909,-2.5617,-0.00018955,-6.0418,0.037092
8448,2.9585,6,0.1,0.00056669,5663,0.00056659,5660,-0.00018698,-2.0453,-0.00018724,-3.9846,0.042735
8449,3.1434,6,0.1,0.00056001,5596.3,0.00055995,5594.3,-0.00018475,-1.0352,-0.000185,-2.9205,0.048765
8450,3.3283,6,0.1,0.00055327,5528.9,0.00055323,5527.7,-0.00018244,0.1863,-0.0001828,-2.4876,0.055178
8451,3.5132,6,0.1,0.00054651,5461.3,0.00054649,5460.8,-0.00018013,1.2276,-0.00018059,-2.2279,0.06197
8452,3.6981,6,0.1,0.00053974,5393.7,0.00053974,5393.7,-0.00017785,2.0302,-0.00017839,-2.0266,0.069136
8453,3.883,6,0.1,0.00053301,5326.4,0.00053302,5326.8,-0.00017558,2.6129,-0.00017618,-1.8549,0.076671
8454,4.0679,6,0.1,0.00052631,5259.5,0.00052633,5260.1,-0.00017335,3.0062,-0.00017397,-1.7028,0.084571
8455,4.2528,6,0.1,0.00051966,5193,0.00051969,5193.9,-0.00017114,3.2399,-0.00017178,-1.5654,0.092831
8456,4.4377,6,0.1,0.00051307,5127.1,0.0005131,5128.1,-0.00016896,3.341,-0.0001696,-1.4402,0.10145
8457,4.6226,6,0.1,0.00050653,5061.8,0.00050657,5062.8,-0.00016681,3.3332,-0.00016743,-1.3255,0.11041
8458,4.8075,6,0.1,0.00050006,4997.2,0.0005001,4998.2,-0.00016469,3.2367,-0.00016528,-1.22,0.11973
8459,4.9925,6,0.1,0.00049365,4933.1,0.00049369,4934.1,-0.00016259,3.0689,-0.00016315,-1.1227,0.12938
8460,5.1774,6,0.1,0.00048731,4869.7,0.00048734,4870.6,-0.00016052,2.8448,-0.00016104,-1.033,0.13938
8461,5.3623,6,0.1,0.00048102,4806.9,0.00048105,4807.7,-0.00015848,2.577,-0.00015895,-0.95016,0.14971
8462,5.5472,6,0.1,0.0004748,4744.7,0.00047483,4745.4,-0.00015645,2.276,-0.00015687,-0.87362,0.16036
8463,5.7321,6,0.1,0.00046864,4683.1,0.00046866,4683.7,-0.00015445,1.9508,-0.00015481,-0.80289,0.17135
8464,5.917,6,0.1,0.00046253,4622.1,0.00046254,4622.5,-0.00015246,1.6088,-0.00015278,-0.73751,0.18265
8465,6.1019,6,0.1,0.00045648,4561.6,0.00045649,4561.9,-0.0001505,1.2562,-0.00015076,-0.67709,0.19427
8466,6.2868,6,0.1,0.00045048,4501.7,0.00045048,4501.8,-0.00014855,0.89805,-0.00014875,-0.62122,0.2062
8467,6.4717,6,0.1,0.00044453,4442.2,0.00044453,4442.2,-0.00014662,0.53849,-0.00014677,-0.5696,0.21844
8468,6.6566,6,0.1,0.00043862,4383.2,0.00043862,4383,-0.00014471,0.18088,-0.0001448,-0.5219,0.23098
8469,6.8415,6,0.1,0.00043277,4324.7,0.00043276,4324.4,-0.0001428,-0.17202,-0.00014285,-0.47792,0.24383
8470,7.0264,6,0.1,0.00042696,4266.6,0.00042694,4266.2,-0.00014091,-0.43582,-0.00014092,-0.5197,0.25697
8471,7.2113,6,0.1,0.00042119,4209,0.00042117,4208.4,-0.00013898,-0.39894,-0.00013904,-0.85694,0.2704
8472,7.3962,6,0.1,0.00041546,4151.7,0.00041543,4151,-0.00013707,-0.36415,-0.00013718,-1.1854,0.28412
8473,7.5811,6,0.1,0.00040977,4094.9,0.00040974,4094,-0.00013518,-0.33194,-0.00013533,-1.5036,0.29812
8474,7.766,6,0.1,0.00040412,4038.4,0.00040408,4037.3,-0.00013329,-0.30214,-0.0001335,-1.8109,0.3124
8475,7.9509,6,0.1,0.0003985,3982.3,0.00039846,3981.1,-0.00013142,-0.27457,-0.00013167,-2.1068,0.32696
8476,8.1358,6,0.1,0.00039292,3926.5,0.00039288,3925.2,-0.00012957,-0.24907,-0.00012985,-2.3913,0.3418
8477,8.3208,6,0.1,0.00038738,3871.1,0.00038733,3869.6,-0.00012772,-0.22547,-0.00012805,-2.6642,0.3569
8478,8.5057,6,0.1,0.00038186,3816,0.00038181,3814.4,-0.00012589,-0.20361,-0.00012625,-2.9257,0.37226
8479,8.6906,6,0.1,0.00037638,3761.2,0.00037632,3759.5,-0.00012406,-0.18337,-0.00012446,-3.176,0.38789
8480,8.8755,6,0.1,0.00037092,3706.7,0.00037086,3704.9,-0.00012225,-0.16462,-0.00012268,-3.4153,0.40377
8481,9.0604,6,0.1,0.0003655,3652.5,0.00036543,3650.6,-0.00012045,-0.14723,-0.00012091,-3.644,0.41991
8482,9.2453,6,0.1,0.0003601,3598.6,0.00036004,3596.6,-0.00011865,-0.13109,-0.00011915,-3.8625,0.43629
8483,9.4302,6,0.1,0.00035474,3544.9,0.00035466,3542.8,-0.00011687,-0.1161,-0.0001174,-4.071,0.45292
8484,9.6151,6,0.1,0.0003494,3491.5,0.00034932,3489.4,-0.0001151,-0.10216,-0.00011565,-4.2701,0.4698
8485,9.8,6,0.1,0.00034408,3438.4,0.000344,3436.2,-0.00011333,-0.089184,-0.00011392,-4.4602,0.48691
8486,9.9849,6,0.1,0.00033879,3385.6,0.00033871,3383.2,-0.00011158,-0.077082,-0.00011219,-4.6416,0.50426
8487,10.17,6,0.1,0.00033353,3333,0.00033345,3330.6,-0.00010983,-0.065779,-0.00011046,-4.8148,0.52184
8488,10.355,6,0.1,0.00032829,3280.7,0.00032821,3278.2,-0.00010809,-0.055199,-0.00010875,-4.9801,0.53964
8489,10.54,6,0.1,0.00032308,3228.6,0.00032299,3226,-0.00010637,-0.045274,-0.00010704,-5.138,0.55767
8490,10.725,6,0.1,0.00031789,3176.7,0.0003178,3174,-0.00010464,-0.035938,-0.00010534,-5.2888,0.57592
8491,10.909,6,0.1,0.00031272,3125.1,0.00031263,3122.3,-0.00010293,-0.027129,-0.00010365,-5.4328,0.59439
8492,11.094,6,0.1,0.00030758,3073.7,0.00030748,3070.9,-0.00010123,-0.018787,-0.00010197,-5.5704,0.61307
8493,11.279,6,0.1,0.00030246,3022.5,0.00030236,3019.6,-9.953e-05,-0.010856,-0.00010029,-5.7018,0.63196
8494,11.464,6,0.1,0.00029736,2971.5,0.00029726,2968.6,-9.784e-05,-0.0032812,-9.8615e-05,-5.8273,0.65106
8495,11.649,6,0.1,0.00029228,2920.8,0.00029218,2917.8,-9.6158e-05,0.0039902,-9.695e-05,-5.9471,0.67036
8496,11.834,6,0.1,0.00028723,2870.3,0.00028712,2867.2,-9.4483e-05,0.011012,-9.5291e-05,-6.0614,0.68985
8497,12.019,6,0.1,0.00028219,2819.9,0.00028208,2816.9,-9.2815e-05,0.017825,-9.3639e-05,-6.1703,0.70955
8498,12.204,6,0.1,0.00027717,2769.8,0.00027707,2766.7,-9.1154e-05,0.024496,-9.1993e-05,-6.274,0.72944
8499,12.389,6,0.1,0.00027218,2719.9,0.00027207,2716.7,-8.9501e-05,0.031098,-9.0353e-05,-6.3725,0.74951
8500,12.574,6,0.1,0.0002672,2670.2,0.00026709,2667,-8.7853e-05,0.037635,-8.8719e-05,-6.4658,0.76977
8501,12.758,6,0.1,0.00026225,2620.6,0.00026213,2617.4,-8.6212e-05,0.044186,-8.7091e-05,-6.5538,0.79021
8502,12.943,6,0.1,0.00025731,2571.3,0.00025719,2568,-8.4578e-05,0.050825,-8.5468e-05,-6.6365,0.81084
8503,13.128,6,0.1,0.00025238,2522.1,0.00025227,2518.8,-8.2949e-05,0.057606,-8.3851e-05,-6.7137,0.83163
8504,13.313,6,0.1,0.00024748,2473.1,0.00024736,2469.7,-8.1327e-05,0.064603,-8.2238e-05,-6.7852,0.8526
8505,13.498,6,0.1,0.00024259,2424.2,0.00024247,2420.8,-7.9709e-05,0.071896,-8.0631e-05,-6.8507,0.87374
8506,13.683,6,0.1,0.00023772,2375.5,0.0002376,2372.1,-7.8097e-05,0.079575,-7.9027e-05,-6.9097,0.89504
8507,13.868,6,0.1,0.00023285,2326.9,0.00023274,2323.5,-7.6489e-05,0.087739,-7.7428e-05,-6.9617,0.91651
8508,14.053,6,0.1,0.000228,2278.5,0.00022789,2275,-7.4886e-05,0.096505,-7.5831e-05,-7.0062,0.93813
8509,14.238,6,0.1,0.00022316,2230.1,0.00022304,2226.6,-7.3286e-05,0.10601,-7.4237e-05,-7.0423,0.95991
8510,14.423,6,0.1,0.00021833,2181.8,0.00021821,2178.3,-7.1688e-05,0.11639,-7.2645e-05,-7.0693,0.98184
8511,14.608,6,0.1,0.0002135,2133.5,0.00021338,2130,-7.0093e-05,0.12785,-7.1053e-05,-7.086,1.0039
8512,14.792,6,0.1,0.00020867,2085.2,0.00020855,2081.8,-6.8497e-05,0.14059,-6.946e-05,-7.0912,1.0261
8513,14.977,6,0.1,0.00020383,2036.9,0.00020371,2033.5,-6.6901e-05,0.15484,-6.7864e-05,-7.0834,1.0485
8514,15.162,6,0.1,0.00019899,1988.5,0.00019887,1985,-6.5302e-05,0.17089,-6.6264e-05,-7.061,1.071
8515,15.347,6,0.1,0.00019412,1939.9,0.00019401,1936.5,-6.3697e-05,0.18907,-6.4657e-05,-7.022,1.0936
8516,15.532,6,0.1,0.00018923,1891,0.00018912,1887.6,-6.2084e-05,0.20975,-6.3039e-05,-6.9644,1.1164
8517,15.717,6,0.1,0.0001843,1841.8,0.00018419,1838.4,-6.0459e-05,0.23336,-6.1407e-05,-6.8856,1.1393
8518,15.902,6,0.1,0.00017932,1792,0.00017921,1788.7,-5.8818e-05,0.26037,-5.9755e-05,-6.783,1.1623
8519,16.087,6,0.1,0.00017427,1741.5,0.00017416,1738.3,-5.7154e-05,0.29133,-5.8078e-05,-6.6539,1.1855
8520,16.272,6,0.1,0.00016912,1690.1,0.00016902,1687,-5.5461e-05,0.32679,-5.6369e-05,-6.4952,1.2088
8521,16.457,6,0.1,0.00016386,1637.5,0.00016376,1634.5,-5.373e-05,0.36733,-5.4618e-05,-6.3043,1.2321
8522,16.642,6,0.1,0.00015844,1583.4,0.00015835,1580.5,-5.1951e-05,0.41347,-5.2815e-05,-6.0788,1.2556
8523,16.826,6,0.1,0.00015284,1527.3,0.00015274,1524.6,-5.0109e-05,0.46564,-5.0945e-05,-5.8171,1.2792
8524,17.011,6,0.1,0.00014699,1468.9,0.0001469,1466.4,-4.8188e-05,0.52395,-4.8993e-05,-5.5188,1.3029
8525,17.196,6,0.1,0.00014084,1407.4,0.00014076,1405.1,-4.617e-05,0.58804,-4.6939e-05,-5.186,1.3267
8526,17.381,6,0.1,0.00013432,1342.3,0.00013425,1340.2,-4.4031e-05,0.65676,-4.476e-05,-4.8234,1.3506
8527,17.566,6,0.1,0.00012735,1272.6,0.00012728,1270.7,-4.1744e-05,0.72756,-4.2431e-05,-4.4399,1.3746
8528,17.751,6,0.1,0.00011983,1197.5,0.00011977,1195.8,-3.9277e-05,0.79587,-3.9922e-05,-4.0495,1.3987
8529,17.936,6,0.1,0.00011167,1115.9,0.00011162,1114.5,-3.6596e-05,0.85425,-3.7199e-05,-3.6716,1.4229
8530,18.121,6,0.1,0.00010275,1026.8,0.00010271,1025.5,-3.3667e-05,0.89139,-3.4229e-05,-3.3315,1.4471
8531,18.306,6,0.1,9.2975e-05,929.11,9.2937e-05,928.02,-3.0455e-05,0.89252,-3.0981e-05,-3.0577,1.4714
8532,18.491,6,0.1,8.2262e-05,822.05,8.2227e-05,821.03,-2.6934e-05,0.83782,-2.7428e-05,-2.8799,1.4958
8533,18.675,6,0.1,7.0562e-05,705.13,7.0525e-05,704.08,-2.3086e-05,0.71813,-2.3556e-05,-2.8146,1.5202
8534,18.86,6,0.1,5.7884e-05,578.44,5.7843e-05,577.25,-1.8919e-05,0.49123,-1.9366e-05,-2.8674,1.5447
8535,19.045,6,0.1,4.43e-05,442.7,4.4255e-05,441.37,-1.4448e-05,0.29976,-1.4879e-05,-2.9345,1.5692
8536,19.23,6,0.1,2.9952e-05,299.31,2.9894e-05,297.64,-9.7667e-06,-0.35929,-1.0114e-05,-2.972,1.5937
8537,19.415,6,0.1,1.472e-05,147.1,1.468e-05,146.01,-4.5947e-06,1.188,-5.188e-06,-3.2703,1.6183
8538,19.6,6,0.1,1.4759e-06,14.749,1.1603e-06,13.456,5.299e-07,8.7198,-1.0404e-06,-3.079,1.6429
8539,19.415,6,0,1.472e-05,147.1,5.188e-06,3.2703,4.5947e-06,-1.188,-1.468e-05,-146.01,1.6183
8540,19.23,6,0,2.9952e-05,299.31,1.0114e-05,2.972,9.7667e-06,0.35929,-2.9894e-05,-297.64,1.5937
8541,19.045,6,0,4.43e-05,442.7,1.4879e-05,2.9345,1.4448e-05,-0.29976,-4.4255e-05,-441.37,1.5692
8542,18.86,6,0,5.7884e-05,578.44,1.9366e-05,2.8674,1.8919e-05,-0.49123,-5.7843e-05,-577.25,1.5447
8543,18.675,6,0,7.0562e-05,705.13,2.3556e-05,2.8146,2.3086e-05,-0.71813,-7.0525e-05,-704.08,1.5202
8544,18.491,6,0,8.2262e-05,822.05,2.7428e-05,2.8799,2.6934e-05,-0.83782,-8.2227e-05,-821.03,1.4958
8545,18.306,6,0,9.2975e-05,929.11,3.0981e-05,3.0577,3.0455e-05,-0.89252,-9.2937e-05,-928.02,1.4714
8546,18.121,6,0,0.00010275,1026.8,3.4229e-05,3.3315,3.3667e-05,-0.89138,-0.00010271,-1025.5,1.4471
8547,17.936,6,0,0.00011167,1115.9,3.7199e-05,3.6716,3.6596e-05,-0.85425,-0.00011162,-1114.5,1.4229
8548,17.751,6,0,0.00011983,1197.5,3.9922e-05,4.0495,3.9277e-05,-0.79587,-0.00011977,-1195.8,1.3987
8549,17.566,6,0,0.00012735,1272.6,4.2431e-05,4.4399,4.1744e-05,-0.72756,-0.00012728,-1270.7,1.3746
8550,17.381,6,0,0.00013432,1342.3,4.476e-05,4.8234,4.4031e-05,-0.65675,-0.00013425,-1340.2,1.3506
8551,17.196,6,0,0.00014084,1407.4,4.6939e-05,5.186,4.617e-05,-0.58804,-0.00014076,-1405.1,1.3267
8552,17.011,6,0,0.00014699,1468.9,4.8993e-05,5.5189,4.8188e-05,-0.52394,-0.0001469,-1466.4,1.3029
8553,16.826,6,0,0.00015284,1527.3,5.0945e-05,5.8171,5.0109e-05,-0.46563,-0.00015274,-1524.6,1.2792
8554,16.642,6,0,0.00015844,1583.4,5.2815e-05,6.0788,5.1951e-05,-0.41347,-0.00015835,-1580.5,1.2556
8555,16.457,6,0,0.00016386,1637.5,5.4618e-05,6.3044,5.373e-05,-0.36733,-0.00016376,-1634.5,1.2321
8556,16.272,6,0,0.00016912,1690.1,5.6369e-05,6.4952,5.5461e-05,-0.32679,-0.00016902,-1687,1.2088
8557,16.087,6,0,0.00017427,1741.5,5.8078e-05,6.6539,5.7154e-05,-0.29133,-0.00017416,-1738.3,1.1855
8558,15.902,6,0,0.00017932,1792,5.9755e-05,6.783,5.8818e-05,-0.26037,-0.00017921,-1788.7,1.1623
8559,15.717,6,0,0.0001843,1841.8,6.1407e-05,6.8856,6.0459e-05,-0.23336,-0.00018419,-1838.4,1.1393
8560,15.532,6,0,0.00018923,1891,6.3039e-05,6.9644,6.2084e-05,-0.20975,-0.00018912,-1887.6,1.1164
8561,15.347,6,0,0.00019412,1939.9,6.4657e-05,7.0221,6.3697e-05,-0.18907,-0.00019401,-1936.5,1.0936
8562,15.162,6,0,0.00019899,1988.5,6.6264e-05,7.061,6.5302e-05,-0.17089,-0.00019887,-1985,1.071
8563,14.977,6,0,0.00020383,2036.9,6.7864e-05,7.0834,6.6901e-05,-0.15484,-0.00020371,-2033.5,1.0485
8564,14.792,6,0,0.00020867,2085.2,6.946e-05,7.0912,6.8497e-05,-0.14059,-0.00020855,-2081.8,1.0261
8565,14.608,6,0,0.0002135,2133.5,7.1053e-05,7.086,7.0093e-05,-0.12785,-0.00021338,-2130,1.0039
8566,14.423,6,0,0.00021833,2181.8,7.2645e-05,7.0693,7.1688e-05,-0.11639,-0.00021821,-2178.3,0.98184
8567,14.238,6,0,0.00022316,2230.1,7.4237e-05,7.0423,7.3286e-05,-0.106,-0.00022304,-2226.6,0.95991
8568,14.053,6,0,0.000228,2278.5,7.5831e-05,7.0062,7.4886e-05,-0.096505,-0.00022789,-2275,0.93813
8569,13.868,6,0,0.00023285,2326.9,7.7428e-05,6.9617,7.6489e-05,-0.087738,-0.00023274,-2323.5,0.91651
8570,13.683,6,0,0.00023772,2375.5,7.9027e-05,6.9097,7.8097e-05,-0.079575,-0.0002376,-2372.1,0.89504
8571,13.498,6,0,0.00024259,2424.2,8.0631e-05,6.8507,7.9709e-05,-0.071896,-0.00024247,-2420.8,0.87374
8572,13.313,6,0,0.00024748,2473.1,8.2238e-05,6.7852,8.1327e-05,-0.064603,-0.00024736,-2469.7,0.8526
8573,13.128,6,0,0.00025238,2522.1,8.3851e-05,6.7138,8.2949e-05,-0.057606,-0.00025227,-2518.8,0.83163
8574,12.943,6,0,0.00025731,2571.3,8.5468e-05,6.6365,8.4578e-05,-0.050824,-0.00025719,-2568,0.81084
8575,12.758,6,0,0.00026225,2620.6,8.7091e-05,6.5538,8.6212e-05,-0.044185,-0.00026213,-2617.4,0.79021
8576,12.574,6,0,0.0002672,2670.2,8.8719e-05,6.4658,8.7853e-05,-0.037636,-0.00026709,-2667,0.76977
8577,12.389,6,0,0.00027218,2719.9,9.0353e-05,6.3725,8.9501e-05,-0.031098,-0.00027207,-2716.7,0.74951
8578,12.204,6,0,0.00027717,2769.8,9.1993e-05,6.274,9.1154e-05,-0.024495,-0.00027707,-2766.7,0.72944
8579,12.019,6,0,0.00028219,2819.9,9.3639e-05,6.1703,9.2815e-05,-0.017825,-0.00028208,-2816.9,0.70955
8580,11.834,6,0,0.00028723,2870.3,9.5291e-05,6.0614,9.4483e-05,-0.011012,-0.00028712,-2867.2,0.68985
8581,11.649,6,0,0.00029228,2920.8,9.695e-05,5.9471,9.6158e-05,-0.0039891,-0.00029218,-2917.8,0.67036
8582,11.464,6,0,0.00029736,2971.5,9.8615e-05,5.8273,9.784e-05,0.0032815,-0.00029726,-2968.6,0.65106
8583,11.279,6,0,0.00030246,3022.5,0.00010029,5.7018,9.953e-05,0.010857,-0.00030236,-3019.6,0.63196
8584,11.094,6,0,0.00030758,3073.7,0.00010197,5.5704,0.00010123,0.018787,-0.00030748,-3070.9,0.61307
8585,10.909,6,0,0.00031272,3125.1,0.00010365,5.4328,0.00010293,0.02713,-0.00031263,-3122.3,0.59439
8586,10.725,6,0,0.00031789,3176.7,0.00010534,5.2888,0.00010464,0.035939,-0.0003178,-3174,0.57592
8587,10.54,6,0,0.00032308,3228.6,0.00010704,5.138,0.00010637,0.045274,-0.00032299,-3226,0.55767
8588,10.355,6,0,0.00032829,3280.7,0.00010875,4.9801,0.00010809,0.0552,-0.00032821,-3278.2,0.53964
8589,10.17,6,0,0.00033353,3333,0.00011046,4.8148,0.00010983,0.065779,-0.00033345,-3330.6,0.52184
8590,9.9849,6,0,0.00033879,3385.6,0.00011219,4.6416,0.00011158,0.077082,-0.00033871,-3383.2,0.50426
8591,9.8,6,0,0.00034408,3438.4,0.00011392,4.4602,0.00011333,0.089185,-0.000344,-3436.2,0.48691
8592,9.6151,6,0,0.0003494,3491.5,0.00011565,4.2701,0.0001151,0.10216,-0.00034932,-3489.4,0.4698
8593,9.4302,6,0,0.00035474,3544.9,0.0001174,4.071,0.00011687,0.1161,-0.00035466,-3542.8,0.45292
8594,9.2453,6,0,0.0003601,3598.6,0.00011915,3.8625,0.00011865,0.13109,-0.00036004,-3596.6,0.43629
8595,9.0604,6,0,0.0003655,3652.5,0.00012091,3.644,0.00012045,0.14723,-0.00036543,-3650.6,0.41991
8596,8.8755,6,0,0.00037092,3706.7,0.00012268,3.4153,0.00012225,0.16462,-0.00037086,-3704.9,0.40377
8597,8.6906,6,0,0.00037638,3761.2,0.00012446,3.176,0.00012406,0.18337,-0.00037632,-3759.5,0.38789
8598,8.5057,6,0,0.00038186,3816,0.00012625,2.9257,0.00012589,0.20361,-0.00038181,-3814.4,0.37226
8599,8.3208,6,0,0.00038738,3871.1,0.00012805,2.6642,0.00012772,0.22547,-0.00038733,-3869.6,0.3569
8600,8.1358,6,0,0.00039292,3926.5,0.00012985,2.3913,0.00012957,0.24907,-0.00039288,-3925.2,0.3418
8601,7.9509,6,0,0.0003985,3982.3,0.00013167,2.1068,0.00013142,0.27457,-0.00039846,-3981.1,0.32696
8602,7.766,6,0,0.00040412,4038.4,0.0001335,1.8109,0.00013329,0.30214,-0.00040408,-4037.3,0.3124
8603,7.5811,6,0,0.00040977,4094.9,0.00013533,1.5036,0.00013518,0.33194,-0.00040974,-4094,0.29812
8604,7.3962,6,0,0.00041546,4151.7,0.00013718,1.1855,0.00013707,0.36415,-0.00041543,-4151,0.28412
8605,7.2113,6,0,0.00042119,4209,0.00013904,0.85694,0.00013898,0.39894,-0.00042117,-4208.4,0.2704
8606,7.0264,6,0,0.00042696,4266.6,0.00014092,0.5197,0.00014091,0.43582,-0.00042694,-4266.2,0.25697
8607,6.8415,6,0,0.00043277,4324.7,0.00014285,0.47792,0.0001428,0.17202,-0.00043276,-4324.4,0.24383
8608,6.6566,6,0,0.00043862,4383.2,0.0001448,0.5219,0.00014471,-0.18088,-0.00043862,-4383,0.23098
8609,6.4717,6,0,0.00044453,4442.2,0.00014677,0.5696,0.00014662,-0.53849,-0.00044453,-4442.2,0.21844
8610,6.2868,6,0,0.00045048,4501.7,0.00014875,0.62122,0.00014855,-0.89804,-0.00045048,-4501.8,0.2062
8611,6.1019,6,0,0.00045648,4561.6,0.00015076,0.67709,0.0001505,-1.2562,-0.00045649,-4561.9,0.19427
8612,5.917,6,0,0.00046253,4622.1,0.00015278,0.73751,0.00015246,-1.6088,-0.00046254,-4622.5,0.18265
8613,5.7321,6,0,0.00046864,4683.1,0.00015481,0.80289,0.00015445,-1.9508,-0.00046866,-4683.7,0.17135
8614,5.5472,6,0,0.0004748,4744.7,0.00015687,0.87362,0.00015645,-2.276,-0.00047483,-4745.4,0.16036
8615,5.3623,6,0,0.00048102,4806.9,0.00015895,0.95016,0.00015848,-2.577,-0.00048105,-4807.7,0.14971
8616,5.1774,6,0,0.00048731,4869.7,0.00016104,1.033,0.00016052,-2.8448,-0.00048734,-4870.6,0.13938
8617,4.9925,6,0,0.00049365,4933.1,0.00016315,1.1227,0.00016259,-3.0689,-0.00049369,-4934.1,0.12938
8618,4.8075,6,0,0.00050006,4997.2,0.00016528,1.22,0.00016469,-3.2367,-0.0005001,-4998.2,0.11973
8619,4.6226,6,0,0.00050653,5061.8,0.00016743,1.3255,0.00016681,-3.3332,-0.00050657,-5062.8,0.11041
8620,4.4377,6,0,0.00051307,5127.1,0.0001696,1.4402,0.00016896,-3.341,-0.0005131,-5128.1,0.10145
8621,4.2528,6,0,0.00051966,5193,0.00017178,1.5654,0.00017114,-3.2399,-0.00051969,-5193.9,0.092831
8622,4.0679,6,0,0.00052631,5259.5,0.00017397,1.7028,0.00017335,-3.0062,-0.00052633,-5260.1,0.084571
8623,3.883,6,0,0.00053301,5326.4,0.00017618,1.8549,0.00017558,-2.6129,-0.00053302,-5326.8,0.076671
8624,3.6981,6,0,0.00053974,5393.7,0.00017839,2.0266,0.00017785,-2.0302,-0.00053974,-5393.7,0.069136
8625,3.5132,6,0,0.00054651,5461.3,0.00018059,2.2279,0.00018013,-1.2276,-0.00054649,-5460.8,0.06197
8626,3.3283,6,0,0.00055327,5528.9,0.0001828,2.4876,0.00018244,-0.1863,-0.00055323,-5527.7,0.055178
8627,3.1434,6,0,0.00056001,5596.3,0.000185,2.9205,0.00018475,1.0352,-0.00055995,-5594.3,0.048765
8628,2.9585,6,0,0.00056669,5663,0.00018724,3.9846,0.00018698,2.0453,-0.00056659,-5660,0.042735
8629,2.7736,6,0,0.00057326,5728.6,0.00018955,6.0418,0.00018909,2.5617,-0.00057311,-5724.3,0.037092
8630,2.5887,6,0,0.00057964,5792.4,0.00019188,8.8685,0.00019109,2.9038,-0.00057944,-5786.6,0.03184
8631,2.4038,6,0,0.00058576,5853.5,0.00019418,12.44,0.00019295,3.2138,-0.00058549,-5845.7,0.026984
8632,2.2189,6,0,0.00059147,5910.6,0.00019642,16.864,0.00019464,3.5298,-0.00059112,-5900.4,0.022528
8633,2.034,6,0,0.00059662,5962.1,0.00019856,22.309,0.0001961,3.8681,-0.00059617,-5949,0.018474
8634,1.8491,6,0,0.00060097,6005.6,0.00020053,29.006,0.00019724,4.2391,-0.0006004,-5988.9,0.014826
8635,1.6642,6,0,0.0006042,6037.9,0.00020227,37.27,0.00019793,4.6576,-0.00060348,-6016.8,0.011586
8636,1.4792,6,0,0.00060586,6054.4,0.00020365,47.531,0.000198,5.1242,-0.00060495,-6028,0.0087562
8637,1.2943,6,0,0.00060527,6048.5,0.0002045,60.464,0.00019721,5.7024,-0.00060413,-6015.3,0.0063356
8638,1.1094,6,0,0.0006014,6009.9,0.00020457,76.967,0.00019516,6.2631,-0.00059995,-5967.9,0.0043227
8639,0.92453,6,0,0.00059262,5922.1,0.00020346,99.039,0.00019126,7.3398,-0.00059076,-5868.4,0.0027133
8640,0.73962,6,0,0.00057611,5757.1,0.00020049,128.95,0.00018432,7.5072,-0.00057369,-5687.9,0.0014992
8641,0.55472,6,0,0.00054634,5459.6,0.00019438,175.42,0.0001724,10.326,-0.00054299,-5364.9,0.00066639
8642,0.36981,6,0,0.00049342,4930.8,0.00018321,255.36,0.00015142,16.5,-0.00048836,-4790.5,0.00019317
8643,0.18491,6,0,0.00038017,3799.1,0.00016412,441.83,9.8485e-05,-51.331,-0.00037112,-3579.7,4.9463e-05
8644,19.6,6,0,1.4759e-06,14.749,1.0404e-06,3.079,-5.299e-07,-8.7198,-1.1603e-06,-13.456,1.6429
8645,3.937e-14,6,0,0.00022466,2245,0.00019561,1817.3,3.9847e-07,350.54,-0.00014836,-767.14,0
8646,0.18491,-5.4937e-32,0,0.00038017,3799.1,0.00016412,441.83,9.8485e-05,-51.332,-0.00037112,-3579.7,4.9463e-05
8647,0.36981,-1.0987e-31,0,0.00049342,4930.8,0.00018321,255.36,0.00015142,16.5,-0.00048836,-4790.5,0.00019317
8648,0.55472,-1.6481e-31,0,0.00054634,5459.6,0.00019438,175.42,0.0001724,10.326,-0.00054299,-5364.9,0.00066639
8649,0.73962,-2.1975e-31,0,0.00057611,5757.1,0.00020049,128.95,0.00018432,7.5072,-0.00057369,-5687.9,0.0014992
8650,0.92453,-2.7468e-31,0,0.00059262,5922.1,0.00020346,99.039,0.00019126,7.3398,-0.00059076,-5868.4,0.0027133
8651,1.1094,-3.2962e-31,0,0.0006014,6009.9,0.00020457,76.967,0.00019516,6.2631,-0.00059995,-5967.9,0.0043227
8652,1.2943,-3.8456e-31,0,0.00060527,6048.5,0.0002045,60.464,0.00019721,5.7024,-0.00060413,-6015.3,0.0063356
8653,1.4792,-4.3949e-31,0,0.00060586,6054.4,0.00020365,47.531,0.000198,5.1242,-0.00060495,-6028,0.0087562
8654,1.6642,-4.9443e-31,0,0.0006042,6037.9,0.00020227,37.27,0.00019793,4.6576,-0.00060348,-6016.8,0.011586
8655,1.8491,-5.4937e-31,0,0.00060097,6005.6,0.00020053,29.006,0.00019724,4.2391,-0.0006004,-5988.9,0.014826
8656,2.034,-6.043e-31,0,0.00059662,5962.1,0.00019856,22.309,0.0001961,3.8681,-0.00059617,-5949,0.018474
8657,2.2189,-6.5924e-31,0,0.00059147,5910.6,0.00019642,16.864,0.00019464,3.5298,-0.00059112,-5900.4,0.022528
8658,2.4038,-7.1418e-31,0,0.00058576,5853.5,0.00019418,12.44,0.00019295,3.2138,-0.00058549,-5845.7,0.026984
8659,2.5887,-7.6911e-31,0,0.00057964,5792.4,0.00019188,8.8685,0.00019109,2.9038,-0.00057944,-5786.6,0.03184
8660,2.7736,-8.2405e-31,0,0.00057326,5728.6,0.00018955,6.0418,0.00018909,2.5617,-0.00057311,-5724.3,0.037092
8661,2.9585,-8.7899e-31,0,0.00056669,5663,0.00018724,3.9846,0.00018698,2.0454,-0.00056659,-5660,0.042735
8662,3.1434,-9.3392e-31,0,0.00056001,5596.3,0.000185,2.9205,0.00018475,1.0352,-0.00055995,-5594.3,0.048765
8663,3.3283,-9.8886e-31,0,0.00055327,5528.9,0.0001828,2.4876,0.00018244,-0.18629,-0.00055323,-5527.7,0.055178
8664,3.5132,-1.0438e-30,0,0.00054651,5461.3,0.00018059,2.2279,0.00018013,-1.2276,-0.00054649,-5460.8,0.06197
8665,3.6981,-1.0987e-30,0,0.00053974,5393.7,0.00017839,2.0266,0.00017785,-2.0302,-0.00053974,-5393.7,0.069136
8666,3.883,-1.1537e-30,0,0.00053301,5326.4,0.00017618,1.8549,0.00017558,-2.6129,-0.00053302,-5326.8,0.076671
8667,4.0679,-1.2086e-30,0,0.00052631,5259.5,0.00017397,1.7028,0.00017335,-3.0062,-0.00052633,-5260.1,0.084571
8668,4.2528,-1.2635e-30,0,0.00051966,5193,0.00017178,1.5654,0.00017114,-3.2399,-0.00051969,-5193.9,0.092831
8669,4.4377,-1.3185e-30,0,0.00051307,5127.1,0.0001696,1.4402,0.00016896,-3.341,-0.0005131,-5128.1,0.10145
8670,4.6226,-1.3734e-30,0,0.00050653,5061.8,0.00016743,1.3255,0.00016681,-3.3332,-0.00050657,-5062.8,0.11041
8671,4.8075,-1.4284e-30,0,0.00050006,4997.2,0.00016528,1.22,0.00016469,-3.2367,-0.0005001,-4998.2,0.11973
8672,4.9925,-1.4833e-30,0,0.00049365,4933.1,0.00016315,1.1227,0.00016259,-3.0689,-0.00049369,-4934.1,0.12938
8673,5.1774,-1.5382e-30,0,0.00048731,4869.7,0.00016104,1.033,0.00016052,-2.8448,-0.00048734,-4870.6,0.13938
8674,5.3623,-1.5932e-30,0,0.00048102,4806.9,0.00015895,0.95016,0.00015848,-2.577,-0.00048105,-4807.7,0.14971
8675,5.5472,-1.6481e-30,0,0.0004748,4744.7,0.00015687,0.87362,0.00015645,-2.276,-0.00047483,-4745.4,0.16036
8676,5.7321,-1.703e-30,0,0.00046864,4683.1,0.00015481,0.80289,0.00015445,-1.9508,-0.00046866,-4683.7,0.17135
8677,5.917,-1.758e-30,0,0.00046253,4622.1,0.00015278,0.73751,0.00015246,-1.6088,-0.00046254,-4622.5,0.18265
8678,6.1019,-1.8129e-30,0,0.00045648,4561.6,0.00015076,0.67709,0.0001505,-1.2562,-0.00045649,-4561.9,0.19427
8679,6.2868,-1.8678e-30,0,0.00045048,4501.7,0.00014875,0.62122,0.00014855,-0.89805,-0.00045048,-4501.8,0.2062
8680,6.4717,-1.9228e-30,0,0.00044453,4442.2,0.00014677,0.5696,0.00014662,-0.5385,-0.00044453,-4442.2,0.21844
8681,6.6566,-1.9777e-30,0,0.00043862,4383.2,0.0001448,0.5219,0.00014471,-0.18088,-0.00043862,-4383,0.23098
8682,6.8415,-2.0327e-30,0,0.00043277,4324.7,0.00014285,0.47792,0.0001428,0.17202,-0.00043276,-4324.4,0.24383
8683,7.0264,-2.0876e-30,0,0.00042696,4266.6,0.00014092,0.51969,0.00014091,0.43582,-0.00042694,-4266.2,0.25697
8684,7.2113,-2.1425e-30,0,0.00042119,4209,0.00013904,0.85693,0.00013898,0.39894,-0.00042117,-4208.4,0.2704
8685,7.3962,-2.1975e-30,0,0.00041546,4151.7,0.00013718,1.1854,0.00013707,0.36415,-0.00041543,-4151,0.28412
8686,7.5811,-2.2524e-30,0,0.00040977,4094.9,0.00013533,1.5036,0.00013518,0.33194,-0.00040974,-4094,0.29812
8687,7.766,-2.3073e-30,0,0.00040412,4038.4,0.0001335,1.8109,0.00013329,0.30214,-0.00040408,-4037.3,0.3124
8688,7.9509,-2.3623e-30,0,0.0003985,3982.3,0.00013167,2.1068,0.00013142,0.27457,-0.00039846,-3981.1,0.32696
8689,8.1358,-2.4172e-30,0,0.00039292,3926.5,0.00012985,2.3913,0.00012957,0.24907,-0.00039288,-3925.2,0.3418
8690,8.3208,-2.4721e-30,0,0.00038738,3871.1,0.00012805,2.6642,0.00012772,0.22547,-0.00038733,-3869.6,0.3569
8691,8.5057,-2.5271e-30,0,0.00038186,3816,0.00012625,2.9257,0.00012589,0.20362,-0.00038181,-3814.4,0.37226
8692,8.6906,-2.582e-30,0,0.00037638,3761.2,0.00012446,3.176,0.00012406,0.18337,-0.00037632,-3759.5,0.38789
8693,8.8755,-2.637e-30,0,0.00037092,3706.7,0.00012268,3.4153,0.00012225,0.16462,-0.00037086,-3704.9,0.40377
8694,9.0604,-2.6919e-30,0,0.0003655,3652.5,0.00012091,3.644,0.00012045,0.14723,-0.00036543,-3650.6,0.41991
8695,9.2453,-2.7468e-30,0,0.0003601,3598.6,0.00011915,3.8625,0.00011865,0.13109,-0.00036004,-3596.6,0.43629
8696,9.4302,-2.8018e-30,0,0.00035474,3544.9,0.0001174,4.071,0.00011687,0.1161,-0.00035466,-3542.8,0.45292
8697,9.6151,-2.8567e-30,0,0.0003494,3491.5,0.00011565,4.2701,0.0001151,0.10216,-0.00034932,-3489.4,0.4698
8698,9.8,-2.9116e-30,0,0.00034408,3438.4,0.00011392,4.4602,0.00011333,0.089185,-0.000344,-3436.2,0.48691
8699,9.9849,-2.9666e-30,0,0.00033879,3385.6,0.00011219,4.6416,0.00011158,0.077082,-0.00033871,-3383.2,0.50426
8700,10.17,-3.0215e-30,0,0.00033353,3333,0.00011046,4.8147,0.00010983,0.06578,-0.00033345,-3330.6,0.52184
8701,10.355,-3.0765e-30,0,0.00032829,3280.7,0.00010875,4.9801,0.00010809,0.0552,-0.00032821,-3278.2,0.53964
8702,10.54,-3.1314e-30,0,0.00032308,3228.6,0.00010704,5.138,0.00010637,0.045275,-0.00032299,-3226,0.55767
8703,10.725,-3.1863e-30,0,0.00031789,3176.7,0.00010534,5.2887,0.00010464,0.035939,-0.0003178,-3174,0.57592
8704,10.909,-3.2413e-30,0,0.00031272,3125.1,0.00010365,5.4328,0.00010293,0.02713,-0.00031263,-3122.3,0.59439
8705,11.094,-3.2962e-30,0,0.00030758,3073.7,0.00010197,5.5703,0.00010123,0.018788,-0.00030748,-3070.9,0.61307
8706,11.279,-3.3511e-30,0,0.00030246,3022.5,0.00010029,5.7018,9.953e-05,0.010857,-0.00030236,-3019.6,0.63196
8707,11.464,-3.4061e-30,0,0.00029736,2971.5,9.8615e-05,5.8273,9.784e-05,0.0032825,-0.00029726,-2968.6,0.65106
8708,11.649,-3.461e-30,0,0.00029228,2920.8,9.695e-05,5.9471,9.6158e-05,-0.0039894,-0.00029218,-2917.8,0.67036
8709,11.834,-3.5159e-30,0,0.00028723,2870.3,9.5291e-05,6.0614,9.4483e-05,-0.01101,-0.00028712,-2867.2,0.68985
8710,12.019,-3.5709e-30,0,0.00028219,2819.9,9.3639e-05,6.1703,9.2815e-05,-0.017825,-0.00028208,-2816.9,0.70955
8711,12.204,-3.6258e-30,0,0.00027717,2769.8,9.1993e-05,6.274,9.1154e-05,-0.024497,-0.00027707,-2766.7,0.72944
8712,12.389,-3.6808e-30,0,0.00027218,2719.9,9.0353e-05,6.3724,8.9501e-05,-0.031097,-0.00027207,-2716.7,0.74951
8713,12.574,-3.7357e-30,0,0.0002672,2670.2,8.8719e-05,6.4657,8.7853e-05,-0.037634,-0.00026709,-2667,0.76977
8714,12.758,-3.7906e-30,0,0.00026225,2620.6,8.7091e-05,6.5538,8.6212e-05,-0.044183,-0.00026213,-2617.4,0.79021
8715,12.943,-3.8456e-30,0,0.00025731,2571.3,8.5468e-05,6.6365,8.4578e-05,-0.050824,-0.00025719,-2568,0.81084
8716,13.128,-3.9005e-30,0,0.00025238,2522.1,8.3851e-05,6.7137,8.2949e-05,-0.057605,-0.00025227,-2518.8,0.83163
8717,13.313,-3.9554e-30,0,0.00024748,2473.1,8.2238e-05,6.7852,8.1327e-05,-0.064602,-0.00024736,-2469.7,0.8526
8718,13.498,-4.0104e-30,0,0.00024259,2424.2,8.0631e-05,6.8507,7.9709e-05,-0.071896,-0.00024247,-2420.8,0.87374
8719,13.683,-4.0653e-30,0,0.00023772,2375.5,7.9027e-05,6.9097,7.8097e-05,-0.079574,-0.0002376,-2372.1,0.89504
8720,13.868,-4.1202e-30,0,0.00023285,2326.9,7.7428e-05,6.9617,7.6489e-05,-0.087738,-0.00023274,-2323.5,0.91651
8721,14.053,-4.1752e-30,0,0.000228,2278.5,7.5831e-05,7.0062,7.4886e-05,-0.096503,-0.00022789,-2275,0.93813
8722,14.238,-4.2301e-30,0,0.00022316,2230.1,7.4237e-05,7.0423,7.3286e-05,-0.10601,-0.00022304,-2226.6,0.95991
8723,14.423,-4.2851e-30,0,0.00021833,2181.8,7.2645e-05,7.0693,7.1688e-05,-0.11639,-0.00021821,-2178.3,0.98184
8724,14.608,-4.34e-30,0,0.0002135,2133.5,7.1053e-05,7.086,7.0093e-05,-0.12785,-0.00021338,-2130,1.0039
8725,14.792,-4.3949e-30,0,0.00020867,2085.2,6.946e-05,7.0911,6.8497e-05,-0.14058,-0.00020855,-2081.8,1.0261
8726,14.977,-4.4499e-30,0,0.00020383,2036.9,6.7864e-05,7.0834,6.6901e-05,-0.15484,-0.00020371,-2033.5,1.0485
8727,15.162,-4.5048e-30,0,0.00019899,1988.5,6.6264e-05,7.061,6.5302e-05,-0.17089,-0.00019887,-1985,1.071
8728,15.347,-4.5597e-30,0,0.00019412,1939.9,6.4657e-05,7.022,6.3697e-05,-0.18906,-0.00019401,-1936.5,1.0936
8729,15.532,-4.6147e-30,0,0.00018923,1891,6.3039e-05,6.9644,6.2084e-05,-0.20974,-0.00018912,-1887.6,1.1164
8730,15.717,-4.6696e-30,0,0.0001843,1841.8,6.1407e-05,6.8856,6.0459e-05,-0.23336,-0.00018419,-1838.4,1.1393
8731,15.902,-4.7246e-30,0,0.00017932,1792,5.9755e-05,6.783,5.8818e-05,-0.26037,-0.00017921,-1788.7,1.1623
8732,16.087,-4.7795e-30,0,0.00017427,1741.5,5.8078e-05,6.6539,5.7154e-05,-0.29133,-0.00017416,-1738.3,1.1855
8733,16.272,-4.8344e-30,0,0.00016912,1690.1,5.6369e-05,6.4952,5.5461e-05,-0.32679,-0.00016902,-1687,1.2088
8734,16.457,-4.8894e-30,0,0.00016386,1637.5,5.4618e-05,6.3043,5.373e-05,-0.36733,-0.00016376,-1634.5,1.2321
8735,16.642,-4.9443e-30,0,0.00015844,1583.4,5.2815e-05,6.0788,5.1951e-05,-0.41347,-0.00015835,-1580.5,1.2556
8736,16.826,-4.9992e-30,0,0.00015284,1527.3,5.0945e-05,5.8171,5.0109e-05,-0.46563,-0.00015274,-1524.6,1.2792
8737,17.011,-5.0542e-30,0,0.00014699,1468.9,4.8993e-05,5.5188,4.8188e-05,-0.52394,-0.0001469,-1466.4,1.3029
8738,17.196,-5.1091e-30,0,0.00014084,1407.4,4.6939e-05,5.186,4.617e-05,-0.58803,-0.00014076,-1405.1,1.3267
8739,17.381,-5.164e-30,0,0.00013432,1342.3,4.476e-05,4.8234,4.4031e-05,-0.65675,-0.00013425,-1340.2,1.3506
8740,17.566,-5.219e-30,0,0.00012735,1272.6,4.2431e-05,4.4399,4.1744e-05,-0.72756,-0.00012728,-1270.7,1.3746
8741,17.751,-5.2739e-30,0,0.00011983,1197.5,3.9922e-05,4.0495,3.9277e-05,-0.79587,-0.00011977,-1195.8,1.3987
8742,17.936,-5.3289e-30,0,0.00011167,1115.9,3.7199e-05,3.6716,3.6596e-05,-0.85425,-0.00011162,-1114.5,1.4229
8743,18.121,-5.3838e-30,0,0.00010275,1026.8,3.4229e-05,3.3315,3.3667e-05,-0.89138,-0.00010271,-1025.5,1.4471
8744,18.306,-5.4387e-30,0,9.2975e-05,929.11,3.0981e-05,3.0577,3.0455e-05,-0.89252,-9.2937e-05,-928.02,1.4714
8745,18.491,-5.4937e-30,0,8.2262e-05,822.05,2.7428e-05,2.8799,2.6934e-05,-0.83782,-8.2227e-05,-821.03,1.4958
8746,18.675,-5.5486e-30,0,7.0562e-05,705.13,2.3556e-05,2.8146,2.3086e-05,-0.71813,-7.0525e-05,-704.08,1.5202
8747,18.86,-5.6035e-30,0,5.7884e-05,578.44,1.9366e-05,2.8674,1.8919e-05,-0.49123,-5.7843e-05,-577.25,1.5447
8748,19.045,-5.6585e-30,0,4.43e-05,442.7,1.4879e-05,2.9345,1.4448e-05,-0.29976,-4.4255e-05,-441.37,1.5692
8749,19.23,-5.7134e-30,0,2.9952e-05,299.31,1.0114e-05,2.972,9.7667e-06,0.35929,-2.9894e-05,-297.64,1.5937
8750,19.415,-5.7683e-30,0,1.472e-05,147.1,5.188e-06,3.2703,4.5947e-06,-1.188,-1.468e-05,-146.01,1.6183
8751,19.6,0,0,1.4759e-06,14.749,1.0404e-06,3.079,-5.299e-07,-8.7198,-1.1603e-06,-13.456,1.6429
8752,0,0,0,0.00022466,2245,0.00019561,1817.3,3.9846e-07,350.54,-0.00014836,-767.14,0
8753,19.951,0,0,9.2745e-06,92.681,3.4287e-06,4.1824,2.8143e-06,-0.43338,-9.2021e-06,-90.72,1.6961
8754,20.135,0,0,1.7574e-05,175.62,6.238e-06,5.7287,5.5786e-06,0.77352,-1.7458e-05,-172.32,1.7222
8755,20.319,0,0,2.437e-05,243.54,8.5949e-06,6.8474,7.7301e-06,0.34928,-2.4241e-05,-239.87,1.7482
8756,20.503,0,0,2.9866e-05,298.45,1.0455e-05,7.332,9.51e-06,0.23329,-2.9731e-05,-294.61,1.7743
8757,20.687,0,0,3.4065e-05,340.41,1.185e-05,7.3654,1.0882e-05,0.094372,-3.3932e-05,-336.62,1.8005
8758,20.871,0,0,3.7025e-05,370,1.2816e-05,7.1767,1.1862e-05,0.01418,-3.6898e-05,-366.35,1.8266
8759,21.055,0,0,3.8843e-05,388.17,1.3394e-05,6.8916,1.2472e-05,-0.036605,-3.8722e-05,-384.69,1.8528
8760,21.239,0,0,3.9645e-05,396.18,1.3636e-05,6.5961,1.275e-05,-0.063287,-3.953e-05,-392.87,1.879
8761,21.423,0,0,3.9568e-05,395.41,1.359e-05,6.3392,1.2736e-05,-0.076151,-3.9458e-05,-392.24,1.9052
8762,21.607,0,0,3.8748e-05,387.21,1.3303e-05,6.1473,1.2474e-05,-0.081826,-3.8641e-05,-384.14,1.9314
8763,21.791,0,0,3.7312e-05,372.86,1.282e-05,6.0318,1.2006e-05,-0.085266,-3.7207e-05,-369.85,1.9577
8764,21.975,0,0,3.5372e-05,353.48,1.2177e-05,5.9951,1.1367e-05,-0.089721,-3.5268e-05,-350.48,1.984
8765,22.159,0,0,3.3026e-05,330.03,1.1406e-05,6.0343,1.059e-05,-0.097283,-3.2921e-05,-327.02,2.0103
8766,22.343,0,0,3.0356e-05,303.35,1.0535e-05,6.1434,9.7025e-06,-0.1093,-3.0249e-05,-300.29,2.0367
8767,22.528,0,0,2.7431e-05,274.12,9.5844e-06,6.315,8.7271e-06,-0.12674,-2.732e-05,-270.97,2.063
8768,22.712,0,0,2.4309e-05,242.92,8.5737e-06,6.5401,7.6832e-06,-0.15053,-2.4194e-05,-239.66,2.0894
8769,22.896,0,0,2.1038e-05,210.23,7.5174e-06,6.8089,6.5871e-06,-0.18142,-2.0916e-05,-206.83,2.1158
8770,23.08,0,0,1.7657e-05,176.45,6.428e-06,7.1081,5.4524e-06,-0.22208,-1.7529e-05,-172.89,2.1422
8771,23.264,0,0,1.4204e-05,141.95,5.3162e-06,7.4265,4.2919e-06,-0.27012,-1.4067e-05,-138.21,2.1686
8772,23.448,0,0,1.0715e-05,107.07,4.1904e-06,7.7155,3.1168e-06,-0.35127,-1.0567e-05,-103.16,2.1951
8773,23.632,0,0,7.2456e-06,72.406,3.0723e-06,8.0608,1.9457e-06,-0.40417,-7.0782e-06,-68.206,2.2215
8774,23.816,0,0,3.8319e-06,38.293,1.9037e-06,7.4515,8.0807e-07,-0.78079,-3.6514e-06,-34.288,2.2479
8775,19.767,0,0,1.0047e-06,10.04,7.1357e-07,2.0403,-4.0145e-07,-6.3375,-7.6753e-07,-9.088,1.67
8776,24,0,0,9.5011e-07,9.4945,6.5815e-07,5.0368,1.3714e-07,1.1222,-7.827e-07,-5.7891,2.2744
8777,5.0862e-14,5.8182,0,0.00013767,1375.7,1.5673e-05,-1062.5,-1.9225e-06,-1194.7,-0.00017559,-2499.6,0
8778,4.9273e-14,5.6364,0,0.00023645,2362.8,4.9862e-06,-2242.1,-3.7871e-06,-2308,-0.00031378,-4637.2,0
8779,4.7683e-14,5.4545,0,0.0002884,2882,2.3443e-06,-2785.3,-2.8873e-06,-2824.7,-0.00038381,-5686.8,0
8780,4.6094e-14,5.2727,0,0.00032128,3210.5,1.413e-06,-3109.6,-1.7975e-06,-3133.8,-0.00042748,-6332.2,0
8781,4.4504e-14,5.0909,0,0.00034324,3430,9.5008e-07,-3324.8,-1.209e-06,-3341,-0.00045663,-6762.9,0
8782,4.2915e-14,4.9091,0,0.00035891,3586.6,6.7939e-07,-3478,-8.6406e-07,-3489.6,-0.00047744,-7070.4,0
8783,4.1325e-14,4.7273,0,0.00037051,3702.5,5.0409e-07,-3591.3,-6.375e-07,-3599.9,-0.00049284,-7298.1,0
8784,3.9736e-14,4.5455,0,0.0003793,3790.4,3.8231e-07,-3677.1,-4.8224e-07,-3683.6,-0.00050452,-7470.8,0
8785,3.8147e-14,4.3636,0,0.00038607,3858,2.9331e-07,-3743.2,-3.7053e-07,-3748.2,-0.00051351,-7603.7,0
8786,3.6557e-14,4.1818,0,0.00039132,3910.5,2.256e-07,-3794.4,-2.8701e-07,-3798.3,-0.00052048,-7706.9,0
8787,3.4968e-14,4,0,0.00039538,3951.1,1.7221e-07,-3834.2,-2.2243e-07,-3837.1,-0.00052589,-7786.8,0
8788,3.3378e-14,3.8182,0,0.0003985,3982.3,1.2867e-07,-3864.7,-1.7093e-07,-3866.9,-0.00053003,-7848.1,0
8789,3.1789e-14,3.6364,0,0.00040084,4005.6,9.1969e-08,-3887.5,-1.2861e-07,-3889.2,-0.00053313,-7893.9,0
8790,3.0199e-14,3.4545,0,0.0004025,4022.2,6.0026e-08,-3903.8,-9.2839e-08,-3905,-0.00053534,-7926.7,0
8791,2.861e-14,3.2727,0,0.00040357,4032.9,3.1615e-08,-3914.4,-6.204e-08,-3915.1,-0.00053677,-7947.7,0
8792,2.702e-14,3.0909,0,0.0004041,4038.2,8.199e-09,-3919.7,-3.7476e-08,-3920,-0.00053746,-7958,0
8793,2.5431e-14,2.9091,0,0.0004041,4038.2,8.1991e-09,-3919.7,-3.7476e-08,-3920,-0.00053746,-7958,0
8794,2.3842e-14,2.7273,0,0.00040357,4032.9,3.1616e-08,-3914.4,-6.204e-08,-3915.1,-0.00053677,-7947.7,0
8795,2.2252e-14,2.5455,0,0.0004025,4022.2,6.0027e-08,-3903.8,-9.2839e-08,-3905,-0.00053534,-7926.7,0
8796,2.0663e-14,2.3636,0,0.00040084,4005.6,9.1969e-08,-3887.5,-1.2861e-07,-3889.2,-0.00053313,-7893.9,0
8797,1.9073e-14,2.1818,0,0.0003985,3982.3,1.2867e-07,-3864.7,-1.7093e-07,-3866.9,-0.00053003,-7848.1,0
8798,1.7484e-14,2,0,0.00039538,3951.1,1.7221e-07,-3834.2,-2.2243e-07,-3837.1,-0.00052589,-7786.8,0
8799,1.5894e-14,1.8182,0,0.00039132,3910.5,2.256e-07,-3794.4,-2.8701e-07,-3798.3,-0.00052048,-7706.9,0
8800,1.4305e-14,1.6364,0,0.00038607,3858,2.9332e-07,-3743.2,-3.7053e-07,-3748.2,-0.00051351,-7603.7,0
8801,1.2716e-14,1.4545,0,0.0003793,3790.4,3.8231e-07,-3677.1,-4.8224e-07,-3683.6,-0.00050452,-7470.8,0
8802,1.1126e-14,1.2727,0,0.00037051,3702.5,5.0409e-07,-3591.3,-6.375e-07,-3599.9,-0.00049284,-7298.1,0
8803,9.5366e-15,1.0909,0,0.00035891,3586.6,6.7939e-07,-3478,-8.6406e-07,-3489.6,-0.00047744,-7070.4,0
8804,7.9472e-15,0.90909,0,0.00034324,3430,9.5008e-07,-3324.8,-1.209e-06,-3341,-0.00045663,-6762.9,0
8805,6.3578e-15,0.72727,0,0.00032128,3210.5,1.413e-06,-3109.6,-1.7975e-06,-3133.8,-0.00042748,-6332.2,0
8806,4.7683e-15,0.54545,0,0.0002884,2882,2.3443e-06,-2785.3,-2.8873e-06,-2824.7,-0.00038381,-5686.8,0
8807,3.1789e-15,0.36364,0,0.00023645,2362.8,4.9862e-06,-2242.1,-3.7871e-06,-2308,-0.00031378,-4637.2,0
8808,1.5894e-15,0.18182,0,0.00013767,1375.7,1.5673e-05,-1062.5,-1.9225e-06,-1194.7,-0.00017559,-2499.6,0
8809,24,0.18182,0,3.0686e-06,30.665,2.8917e-06,27.42,-4.5683e-07,2.2605,-1.6543e-06,-6.7365,2.2745
8810,24,0.36364,0,4.8164e-06,48.131,4.67e-06,45.126,-1.0325e-06,2.2796,-2.2611e-06,-6.9517,2.2745
8811,24,0.54545,0,5.954e-06,59.499,5.8194e-06,56.638,-1.3959e-06,2.425,-2.6526e-06,-7.0172,2.2746
8812,24,0.72727,0,6.725e-06,67.203,6.5963e-06,64.4,-1.6498e-06,2.442,-2.9119e-06,-7.041,2.2746
8813,24,0.90909,0,7.2227e-06,72.178,7.0981e-06,69.425,-1.8139e-06,2.4639,-3.0774e-06,-7.0293,2.2747
8814,24,1.0909,0,7.5099e-06,75.048,7.3878e-06,72.331,-1.9095e-06,2.4754,-3.1715e-06,-7.0071,2.2747
8815,24,1.2727,0,7.6324e-06,76.272,7.5118e-06,73.584,-1.9509e-06,2.4845,-3.2102e-06,-6.9774,2.2748
8816,24,1.4545,0,7.6289e-06,76.236,7.5092e-06,73.571,-1.9509e-06,2.4913,-3.2067e-06,-6.9441,2.2748
8817,24,1.6364,0,7.5334e-06,75.282,7.4141e-06,72.634,-1.9206e-06,2.4966,-3.1724e-06,-6.9088,2.2749
8818,24,1.8182,0,7.3767e-06,73.717,7.2575e-06,71.082,-1.8701e-06,2.5009,-3.1177e-06,-6.8728,2.2749
8819,24,2,0,7.1867e-06,71.817,7.0672e-06,69.194,-1.8086e-06,2.5045,-3.0519e-06,-6.8374,2.2749
8820,24,2.1818,0,6.988e-06,69.831,6.8681e-06,67.216,-1.744e-06,2.5075,-2.9833e-06,-6.8041,2.2749
8821,24,2.3636,0,6.802e-06,67.973,6.6817e-06,65.363,-1.6836e-06,2.5099,-2.9193e-06,-6.7743,2.275
8822,24,2.5455,0,6.6464e-06,66.418,6.5257e-06,63.813,-1.633e-06,2.5117,-2.8657e-06,-6.7499,2.275
8823,24,2.7273,0,6.5349e-06,65.304,6.4138e-06,62.702,-1.5968e-06,2.513,-2.8273e-06,-6.7325,2.275
8824,24,2.9091,0,6.4768e-06,64.724,6.3556e-06,62.122,-1.5779e-06,2.5136,-2.8073e-06,-6.7234,2.275
8825,24,3.0909,0,6.4768e-06,64.724,6.3556e-06,62.122,-1.5779e-06,2.5136,-2.8073e-06,-6.7234,2.275
8826,24,3.2727,0,6.5349e-06,65.304,6.4138e-06,62.702,-1.5968e-06,2.513,-2.8273e-06,-6.7325,2.275
8827,24,3.4545,0,6.6464e-06,66.418,6.5257e-06,63.813,-1.633e-06,2.5117,-2.8657e-06,-6.7499,2.275
8828,24,3.6364,0,6.802e-06,67.973,6.6817e-06,65.363,-1.6836e-06,2.5099,-2.9193e-06,-6.7743,2.275
8829,24,3.8182,0,6.988e-06,69.831,6.8681e-06,67.216,-1.744e-06,2.5075,-2.9833e-06,-6.8041,2.2749
8830,24,4,0,7.1867e-06,71.817,7.0672e-06,69.194,-1.8086e-06,2.5045,-3.0519e-06,-6.8374,2.2749
8831,24,4.1818,0,7.3768e-06,73.717,7.2575e-06,71.082,-1.8701e-06,2.5009,-3.1177e-06,-6.8728,2.2749
8832,24,4.3636,0,7.5334e-06,75.282,7.4141e-06,72.634,-1.9206e-06,2.4966,-3.1724e-06,-6.9088,2.2749
8833,24,4.5455,0,7.6289e-06,76.236,7.5092e-06,73.571,-1.9509e-06,2.4913,-3.2067e-06,-6.9441,2.2748
8834,24,4.7273,0,7.6324e-06,76.272,7.5118e-06,73.584,-1.9509e-06,2.4845,-3.2102e-06,-6.9775,2.2748
8835,24,4.9091,0,7.51e-06,75.048,7.3878e-06,72.331,-1.9095e-06,2.4754,-3.1715e-06,-7.0071,2.2747
8836,24,5.0909,0,7.2227e-06,72.178,7.0981e-06,69.425,-1.8139e-06,2.4639,-3.0774e-06,-7.0293,2.2747
8837,24,5.2727,0,6.725e-06,67.203,6.5963e-06,64.4,-1.6498e-06,2.442,-2.9119e-06,-7.0411,2.2746
8838,24,5.4545,0,5.954e-06,59.499,5.8194e-06,56.638,-1.396e-06,2.425,-2.6526e-06,-7.0172,2.2746
8839,24,5.6364,0,4.8164e-06,48.131,4.67e-06,45.126,-1.0325e-06,2.2796,-2.2611e-06,-6.9517,2.2745
8840,24,5.8182,0,3.0686e-06,30.665,2.8917e-06,27.42,-4.5683e-07,2.2605,-1.6543e-06,-6.7365,2.2745
8841,24,6,0,9.5011e-07,9.4945,6.5815e-07,5.0368,1.3714e-07,1.1222,-7.827e-07,-5.7891,2.2744
8842,23.816,6,0,3.8319e-06,38.293,1.9037e-06,7.4516,8.0807e-07,-0.78079,-3.6514e-06,-34.288,2.2479
8843,23.632,6,0,7.2456e-06,72.406,3.0723e-06,8.0608,1.9457e-06,-0.40417,-7.0782e-06,-68.206,2.2215
8844,23.448,6,0,1.0715e-05,107.07,4.1904e-06,7.7155,3.1168e-06,-0.35127,-1.0567e-05,-103.16,2.1951
8845,23.264,6,0,1.4204e-05,141.95,5.3162e-06,7.4265,4.2919e-06,-0.27012,-1.4067e-05,-138.21,2.1686
8846,23.08,6,0,1.7657e-05,176.45,6.428e-06,7.1081,5.4524e-06,-0.22208,-1.7528e-05,-172.89,2.1422
8847,22.896,6,0,2.1038e-05,210.23,7.5174e-06,6.8089,6.5871e-06,-0.18142,-2.0916e-05,-206.83,2.1158
8848,22.712,6,0,2.4309e-05,242.92,8.5737e-06,6.5401,7.6832e-06,-0.15053,-2.4194e-05,-239.66,2.0894
8849,22.528,6,0,2.7431e-05,274.12,9.5844e-06,6.315,8.7271e-06,-0.12674,-2.732e-05,-270.97,2.063
8850,22.343,6,0,3.0356e-05,303.35,1.0535e-05,6.1435,9.7024e-06,-0.10931,-3.0249e-05,-300.29,2.0367
8851,22.159,6,0,3.3026e-05,330.03,1.1406e-05,6.0343,1.059e-05,-0.097284,-3.2921e-05,-327.02,2.0103
8852,21.975,6,0,3.5372e-05,353.48,1.2177e-05,5.9951,1.1367e-05,-0.089721,-3.5268e-05,-350.48,1.984
8853,21.791,6,0,3.7312e-05,372.86,1.282e-05,6.0318,1.2006e-05,-0.085265,-3.7207e-05,-369.85,1.9577
8854,21.607,6,0,3.8748e-05,387.21,1.3303e-05,6.1473,1.2474e-05,-0.081823,-3.8641e-05,-384.14,1.9314
8855,21.423,6,0,3.9568e-05,395.41,1.359e-05,6.3392,1.2736e-05,-0.076147,-3.9458e-05,-392.24,1.9052
8856,21.239,6,0,3.9645e-05,396.18,1.3636e-05,6.5961,1.275e-05,-0.063288,-3.953e-05,-392.87,1.879
8857,21.055,6,0,3.8843e-05,388.17,1.3394e-05,6.8916,1.2472e-05,-0.036603,-3.8722e-05,-384.69,1.8528
8858,20.871,6,0,3.7025e-05,370,1.2816e-05,7.1768,1.1862e-05,0.01418,-3.6898e-05,-366.35,1.8266
8859,20.687,6,0,3.4065e-05,340.41,1.185e-05,7.3654,1.0882e-05,0.094372,-3.3932e-05,-336.62,1.8005
8860,20.503,6,0,2.9866e-05,298.45,1.0455e-05,7.332,9.51e-06,0.23329,-2.9731e-05,-294.61,1.7743
8861,20.319,6,0,2.437e-05,243.54,8.5949e-06,6.8474,7.7301e-06,0.34928,-2.4241e-05,-239.87,1.7482
8862,20.135,6,0,1.7574e-05,175.62,6.238e-06,5.7287,5.5786e-06,0.77352,-1.7458e-05,-172.32,1.7222
8863,19.951,6,0,9.2745e-06,92.681,3.4287e-06,4.1824,2.8143e-06,-0.43337,-9.2021e-06,-90.72,1.6961
8864,19.767,6,0,1.0047e-06,10.04,7.1356e-07,2.0403,-4.0145e-07,-6.3375,-7.6753e-07,-9.088,1.67
8865,19.6,1.8182,0,0.00023363,2334.7,0.00019785,1631.4,-2.0013e-05,-5.5269,-0.00015797,-1042.1,1.6491
8866,19.6,1.6364,0,0.00013631,1362.2,0.00010964,875.84,-3.0075e-06,29.456,-9.9494e-05,-695.51,1.6485
8867,19.6,1.4545,0,0.00010646,1063.8,8.499e-05,666.9,-2.7584e-06,7.5958,-7.8348e-05,-560.35,1.6479
8868,19.6,1.2727,0,8.3149e-05,830.92,6.4787e-05,498.3,-3.0721e-07,9.2068,-6.2901e-05,-461.1,1.6472
8869,19.6,1.0909,0,6.6073e-05,660.27,5.0095e-05,374.89,1.0561e-06,6.4323,-5.1357e-05,-387.38,1.6466
8870,19.6,0.90909,0,5.2271e-05,522.35,3.8262e-05,277,2.1808e-06,5.9022,-4.1881e-05,-325.16,1.646
8871,19.6,0.72727,0,4.058e-05,405.52,2.8375e-05,196.36,2.9311e-06,5.1855,-3.3615e-05,-269.41,1.6453
8872,19.6,0.54545,0,3.027e-05,302.49,1.9873e-05,128.91,3.3484e-06,4.7514,-2.6019e-05,-215.91,1.6447
8873,19.6,0.36364,0,2.0806e-05,207.91,1.2433e-05,72.751,3.3683e-06,4.6454,-1.8634e-05,-160.67,1.6441
8874,19.6,0.18182,0,1.1259e-05,112.51,5.7603e-06,27.401,2.6033e-06,3.6804,-1.0541e-05,-95.082,1.6435
8875,19.6,2,0,0.00055142,5510.4,0.00031065,1538.4,8.8391e-05,-131.61,-0.00050816,-4613.9,1.6497
8876,19.767,0.18182,0,8.1104e-06,81.048,3.5427e-06,11.465,2.2228e-06,1.5476,-7.8434e-06,-74.086,1.6702
8877,19.767,0.36364,0,1.5031e-05,150.2,7.0891e-06,27.621,3.7542e-06,2.564,-1.436e-05,-133.54,1.6704
8878,19.767,0.54545,0,2.1666e-05,216.51,1.0782e-05,46.347,4.9636e-06,2.6287,-2.0499e-05,-188.69,1.6706
8879,19.767,0.72727,0,2.8805e-05,287.85,1.4861e-05,68.074,6.2002e-06,2.9995,-2.7038e-05,-246.74,1.6708
8880,19.767,0.90909,0,3.6961e-05,369.35,1.9589e-05,93.904,7.5694e-06,3.5955,-3.4464e-05,-312.23,1.671
8881,19.767,1.0909,0,4.6793e-05,467.61,2.5355e-05,125.86,9.1573e-06,4.1574,-4.3377e-05,-390.56,1.6712
8882,19.767,1.2727,0,5.9334e-05,592.93,3.2693e-05,167.23,1.1273e-05,6.2885,-5.472e-05,-489.56,1.6714
8883,19.767,1.4545,0,7.7032e-05,769.79,4.3562e-05,230.42,1.3666e-05,5.7975,-7.0513e-05,-626.69,1.6717
8884,19.767,1.6364,0,9.9555e-05,994.86,5.4289e-05,280.3,2.0079e-05,23.257,-9.1867e-05,-817.86,1.672
8885,19.767,1.8182,0,0.00017405,1739.3,0.00011442,724.67,1.6925e-05,-7.8874,-0.00014987,-1261.1,1.6723
8886,19.767,2,0,0.0004917,4913.6,0.0002172,432.37,0.00010419,-416.76,-0.0004859,-4850.4,1.6727
8887,19.6,4.1818,0,0.00023363,2334.7,0.00019785,1631.4,-2.0013e-05,-5.5269,-0.00015797,-1042.1,1.6491
8888,19.6,4.3636,0,0.00013631,1362.2,0.00010964,875.84,-3.0075e-06,29.456,-9.9494e-05,-695.51,1.6485
8889,19.6,4.5455,0,0.00010646,1063.8,8.499e-05,666.9,-2.7584e-06,7.5958,-7.8348e-05,-560.35,1.6479
8890,19.6,4.7273,0,8.3149e-05,830.92,6.4787e-05,498.3,-3.0722e-07,9.2068,-6.2901e-05,-461.1,1.6472
8891,19.6,4.9091,0,6.6073e-05,660.27,5.0095e-05,374.89,1.0561e-06,6.4323,-5.1357e-05,-387.38,1.6466
8892,19.6,5.0909,0,5.2271e-05,522.35,3.8262e-05,277,2.1808e-06,5.9022,-4.1881e-05,-325.16,1.646
8893,19.6,5.2727,0,4.058e-05,405.52,2.8375e-05,196.36,2.9311e-06,5.1855,-3.3615e-05,-269.41,1.6453
8894,19.6,5.4545,0,3.027e-05,302.49,1.9873e-05,128.91,3.3484e-06,4.7514,-2.6019e-05,-215.91,1.6447
8895,19.6,5.6364,0,2.0806e-05,207.91,1.2433e-05,72.751,3.3683e-06,4.6454,-1.8634e-05,-160.67,1.6441
8896,19.6,5.8182,0,1.1259e-05,112.51,5.7603e-06,27.401,2.6033e-06,3.6804,-1.0541e-05,-95.081,1.6435
8897,19.6,4,0,0.00055142,5510.4,0.00031065,1538.4,8.8391e-05,-131.61,-0.00050816,-4613.9,1.6497
8898,19.767,5.8182,0,8.1104e-06,81.048,3.5427e-06,11.465,2.2228e-06,1.5476,-7.8434e-06,-74.086,1.6702
8899,19.767,5.6364,0,1.5031e-05,150.2,7.0891e-06,27.621,3.7542e-06,2.564,-1.436e-05,-133.54,1.6704
8900,19.767,5.4545,0,2.1666e-05,216.51,1.0782e-05,46.347,4.9636e-06,2.6287,-2.0499e-05,-188.69,1.6706
8901,19.767,5.2727,0,2.8805e-05,287.85,1.4861e-05,68.074,6.2002e-06,2.9995,-2.7038e-05,-246.74,1.6708
8902,19.767,5.0909,0,3.6961e-05,369.35,1.9589e-05,93.904,7.5694e-06,3.5955,-3.4464e-05,-312.23,1.671
8903,19.767,4.9091,0,4.6793e-05,467.61,2.5355e-05,125.86,9.1574e-06,4.1574,-4.3377e-05,-390.56,1.6712
8904,19.767,4.7273,0,5.9334e-05,592.93,3.2693e-05,167.23,1.1273e-05,6.2885,-5.472e-05,-489.56,1.6714
8905,19.767,4.5455,0,7.7032e-05,769.79,4.3562e-05,230.42,1.3666e-05,5.7975,-7.0513e-05,-626.69,1.6717
8906,19.767,4.3636,0,9.9555e-05,994.86,5.4289e-05,280.3,2.0079e-05,23.257,-9.1867e-05,-817.86,1.672
8907,19.767,4.1818,0,0.00017405,1739.3,0.00011442,724.67,1.6925e-05,-7.8874,-0.00014987,-1261.1,1.6723
8908,19.767,4,0,0.0004917,4913.6,0.0002172,432.37,0.00010419,-416.76,-0.0004859,-4850.4,1.6727
8909,19.6,2.2727,0,0.00032158,3213.6,0.00014473,485.44,8.3141e-05,22.663,-0.00031043,-2934.4,1.6503
8910,19.683,2.1818,0,0.00035003,3497.9,0.00014821,416.28,9.7002e-05,31.551,-0.00034082,-3258.1,1.6616
8911,19.508,2.1818,0,0.00031337,3131.5,0.00014521,530.68,7.8763e-05,31.453,-0.00030081,-2820.5,1.6375
8912,19.6,2.1818,0.05,2.4523e-05,245.06,1.883e-05,141.48,9.6632e-14,8.2327e-06,-1.883e-05,-141.48,1.6501
8913,19.6,2.0909,0,0.00044413,4438.3,0.00022892,994.16,9.0311e-05,-47.272,-0.00041876,-3872.2,1.6499
8914,19.6,2.4545,0,0.00026528,2650.9,0.00011765,365.65,6.8451e-05,-4.0445,-0.00025718,-2450.7,1.6505
8915,19.683,2.3636,0,0.00027819,2780,0.00012114,352.84,7.3005e-05,-8.7998,-0.00027056,-2590.2,1.6619
8916,19.508,2.3636,0,0.00026629,2661.1,0.00012,389.4,6.7324e-05,-6.3696,-0.00025756,-2447.4,1.6378
8917,19.6,2.3636,0.05,3.4682e-06,34.658,2.6631e-06,20.01,-7.3057e-13,-1.0331e-06,-2.6631e-06,-20.01,1.6504
8918,19.6,2.6364,0,0.00024014,2399.8,0.00010517,316.25,6.3029e-05,-0.40723,-0.0002332,-2226.1,1.6507
8919,19.683,2.5455,0,0.00024584,2456.7,0.00010627,306.78,6.5485e-05,0.35035,-0.00023918,-2288.8,1.6621
8920,19.508,2.5455,0,0.00024137,2412,0.00010644,327.64,6.2929e-05,0.69191,-0.00023411,-2231.2,1.638
8921,19.6,2.5455,0.05,1.6038e-06,16.027,1.2315e-06,9.2532,-5.6044e-13,-7.3042e-06,-1.2315e-06,-9.2532,1.6506
8922,19.6,2.8182,0,0.00022794,2277.8,9.9218e-05,292.39,6.0207e-05,-0.72115,-0.00022155,-2117.8,1.6508
8923,19.683,2.7273,0,0.00022897,2288.1,9.8642e-05,280.84,6.1139e-05,-0.94521,-0.0002229,-2135.1,1.6622
8924,19.508,2.7273,0,0.00022791,2277.6,9.9718e-05,298.6,5.9855e-05,-0.91812,-0.00022137,-2113.9,1.6381
8925,19.6,2.7273,0.05,7.5702e-07,7.565,5.813e-07,4.3676,-7.3326e-13,-7.2304e-06,-5.813e-07,-4.3676,1.6507
8926,19.6,3,0,0.0002243,2241.4,9.7418e-05,285.17,5.9397e-05,-0.51179,-0.00021808,-2085.4,1.6508
8927,19.683,2.9091,0,0.00022175,2215.9,9.5261e-05,268.9,5.9411e-05,-0.46807,-0.00021595,-2069.4,1.6623
8928,19.508,2.9091,0,0.00022193,2217.8,9.666e-05,285.58,5.8601e-05,-0.38081,-0.00021569,-2061.3,1.6382
8929,19.6,2.9091,0.05,3.4543e-07,3.4519,2.6525e-07,1.993,-1.131e-12,-2.1687e-05,-2.6525e-07,-1.993,1.6508
8930,19.6,3.1818,0,0.00022794,2277.8,9.9218e-05,292.39,6.0207e-05,-0.72115,-0.00022155,-2117.8,1.6508
8931,19.683,3.0909,0,0.00022175,2215.9,9.5261e-05,268.9,5.9411e-05,-0.46808,-0.00021595,-2069.4,1.6623
8932,19.508,3.0909,0,0.00022193,2217.8,9.666e-05,285.58,5.8601e-05,-0.38081,-0.00021569,-2061.3,1.6382
8933,19.6,3.0909,0.05,3.4543e-07,3.4519,2.6525e-07,1.993,-5.0014e-13,-1.9986e-05,-2.6525e-07,-1.993,1.6508
8934,19.6,3.3636,0,0.00024014,2399.8,0.00010517,316.25,6.3029e-05,-0.40723,-0.0002332,-2226.1,1.6507
8935,19.683,3.2727,0,0.00022897,2288.1,9.8642e-05,280.84,6.1139e-05,-0.94521,-0.0002229,-2135.1,1.6622
8936,19.508,3.2727,0,0.00022791,2277.6,9.9718e-05,298.6,5.9855e-05,-0.91812,-0.00022137,-2113.9,1.6381
8937,19.6,3.2727,0.05,7.5702e-07,7.565,5.813e-07,4.3676,-9.7292e-13,-2.3893e-05,-5.813e-07,-4.3677,1.6507
8938,19.6,3.5455,0,0.00026528,2650.9,0.00011765,365.65,6.8451e-05,-4.0445,-0.00025718,-2450.7,1.6505
8939,19.683,3.4545,0,0.00024584,2456.7,0.00010627,306.78,6.5485e-05,0.35035,-0.00023918,-2288.8,1.6621
8940,19.508,3.4545,0,0.00024137,2412,0.00010644,327.64,6.2929e-05,0.69191,-0.00023411,-2231.2,1.638
8941,19.6,3.4545,0.05,1.6038e-06,16.027,1.2315e-06,9.2532,-9.9975e-13,-3.3413e-05,-1.2315e-06,-9.2532,1.6506
8942,19.6,3.7273,0,0.00032158,3213.6,0.00014473,485.44,8.3141e-05,22.663,-0.00031043,-2934.4,1.6503
8943,19.683,3.6364,0,0.00027819,2780,0.00012114,352.84,7.3005e-05,-8.7998,-0.00027056,-2590.2,1.6619
8944,19.508,3.6364,0,0.00026629,2661.1,0.00012,389.4,6.7324e-05,-6.3696,-0.00025756,-2447.4,1.6378
8945,19.6,3.6364,0.05,3.4682e-06,34.658,2.6631e-06,20.01,-2.0504e-12,-5.7944e-05,-2.6631e-06,-20.01,1.6504
8946,19.683,3.8182,0,0.00035003,3497.9,0.00014821,416.28,9.7002e-05,31.551,-0.00034082,-3258.1,1.6616
8947,19.508,3.8182,0,0.00031337,3131.5,0.00014521,530.68,7.8763e-05,31.453,-0.00030081,-2820.5,1.6375
8948,19.6,3.8182,0.05,2.4523e-05,245.06,1.883e-05,141.48,-5.9556e-12,-7.9767e-05,-1.883e-05,-141.48,1.6501
8949,19.6,3.9091,0,0.00044413,4438.3,0.00022892,994.16,9.0311e-05,-47.272,-0.00041876,-3872.2,1.6499
8950,19.767,2.2727,0,0.00031248,3122.7,0.00013003,324.41,8.6222e-05,-4.7518,-0.00030574,-2949.8,1.6732
8951,19.859,2.1818,0,0.00029636,2961.6,0.00011692,221.99,8.5206e-05,-16.261,-0.00029214,-2851.5,1.6858
8952,19.767,2.1818,0.05,1.8985e-05,189.71,1.4578e-05,109.53,1.7724e-12,1.3667e-05,-1.4578e-05,-109.53,1.673
8953,19.767,2.0909,0,0.00040955,4092.7,0.0001714,318.71,0.00010085,-211.4,-0.00040514,-4013.2,1.6729
8954,19.767,2.4545,0,0.00026043,2602.5,0.00011114,304.43,7.0041e-05,-4.3993,-0.00025395,-2438.7,1.6734
8955,19.859,2.3636,0,0.00025616,2559.8,0.0001054,249.3,7.1271e-05,-7.1111,-0.00025108,-2429.1,1.6861
8956,19.767,2.3636,0.05,4.1887e-06,41.858,3.2164e-06,24.167,-2.3138e-13,-2.3756e-14,-3.2164e-06,-24.167,1.6733
8957,19.767,2.6364,0,0.00023508,2349.2,0.00010007,273.89,6.3597e-05,-0.1775,-0.00022922,-2200.3,1.6736
8958,19.859,2.5455,0,0.000231,2308.5,9.5392e-05,233.26,6.4455e-05,0.8154,-0.00022614,-2182.6,1.6862
8959,19.767,2.5455,0.05,1.979e-06,19.777,1.5197e-06,11.418,-8.9395e-13,-1.6938e-05,-1.5197e-06,-11.418,1.6735
8960,19.767,2.8182,0,0.00022283,2226.8,9.4721e-05,257.61,6.0346e-05,-0.67263,-0.00021733,-2087.1,1.6737
8961,19.859,2.7273,0,0.00021744,2172.9,9.021e-05,223.84,6.0315e-05,-0.78006,-0.00021277,-2052.7,1.6863
8962,19.767,2.7273,0.05,1.1474e-06,11.466,8.8105e-07,6.6199,-2.2055e-13,-8.2991e-06,-8.8105e-07,-6.6199,1.6736
8963,19.767,3,0,0.00021916,2190.1,9.3068e-05,252.36,5.9427e-05,-0.40686,-0.00021378,-2053.2,1.6737
8964,19.859,2.9091,0,0.00021137,2112.3,8.773e-05,218.39,5.8638e-05,-0.19274,-0.00020681,-1994.7,1.6864
8965,19.767,2.9091,0.05,8.2392e-07,8.2335,6.3267e-07,4.7536,-1.1823e-12,-1.5068e-05,-6.3267e-07,-4.7536,1.6737
8966,19.767,3.1818,0,0.00022283,2226.8,9.4721e-05,257.61,6.0346e-05,-0.67263,-0.00021733,-2087.1,1.6737
8967,19.859,3.0909,0,0.00021137,2112.3,8.773e-05,218.39,5.8638e-05,-0.19274,-0.00020681,-1994.7,1.6864
8968,19.767,3.0909,0.05,8.2392e-07,8.2335,6.3267e-07,4.7536,-9.6581e-13,-1.9662e-05,-6.3267e-07,-4.7536,1.6737
8969,19.767,3.3636,0,0.00023508,2349.2,0.00010007,273.89,6.3597e-05,-0.1775,-0.00022922,-2200.3,1.6736
8970,19.859,3.2727,0,0.00021744,2172.9,9.021e-05,223.84,6.0315e-05,-0.78006,-0.00021277,-2052.7,1.6863
8971,19.767,3.2727,0.05,1.1474e-06,11.466,8.8105e-07,6.6198,-2.8648e-12,-3.7844e-05,-8.8105e-07,-6.6199,1.6736
8972,19.767,3.5455,0,0.00026043,2602.5,0.00011114,304.43,7.0041e-05,-4.3993,-0.00025395,-2438.7,1.6734
8973,19.859,3.4545,0,0.000231,2308.5,9.5392e-05,233.26,6.4455e-05,0.8154,-0.00022614,-2182.6,1.6862
8974,19.767,3.4545,0.05,1.979e-06,19.777,1.5197e-06,11.418,-1.1602e-12,-6.2519e-05,-1.5197e-06,-11.418,1.6735
8975,19.767,3.7273,0,0.00031248,3122.7,0.00013003,324.41,8.6222e-05,-4.7518,-0.00030574,-2949.8,1.6732
8976,19.859,3.6364,0,0.00025616,2559.8,0.0001054,249.3,7.1271e-05,-7.1111,-0.00025108,-2429.1,1.6861
8977,19.767,3.6364,0.05,4.1887e-06,41.858,3.2164e-06,24.167,-6.8331e-12,-5.649e-05,-3.2164e-06,-24.167,1.6733
8978,19.859,3.8182,0,0.00029636,2961.6,0.00011692,221.99,8.5206e-05,-16.261,-0.00029214,-2851.5,1.6858
8979,19.767,3.8182,0.05,1.8985e-05,189.71,1.4578e-05,109.53,-1.8897e-12,-6.7936e-05,-1.4578e-05,-109.53,1.673
8980,19.767,3.9091,0,0.00040955,4092.7,0.0001714,318.71,0.00010085,-211.41,-0.00040514,-4013.2,1.6729
8981,19.415,5.7273,0,2.6571e-05,265.53,1.3844e-05,61.561,5.3146e-06,-2.5229,-2.498e-05,-230.14,1.6192
8982,19.323,5.8182,0,2.719e-05,271.72,1.1372e-05,28.039,7.3791e-06,-1.9594,-2.6622e-05,-257.43,1.6066
8983,19.415,5.8182,0.05,2.8968e-06,28.948,2.2244e-06,16.713,5.5623e-13,7.2079e-06,-2.2244e-06,-16.713,1.6189
8984,19.415,5.9091,0,1.7191e-05,171.8,6.9694e-06,14.147,4.7246e-06,-2.7192,-1.6935e-05,-165.46,1.6186
8985,19.508,5.8182,0,1.4688e-05,146.77,6.4763e-06,20.357,3.8723e-06,0.79191,-1.423e-05,-135.22,1.6312
8986,19.415,5.5455,0,3.8529e-05,385.03,2.2904e-05,127.62,5.7204e-06,-1.4933,-3.4723e-05,-305.37,1.6198
8987,19.323,5.6364,0,3.5042e-05,350.17,1.7262e-05,69.861,7.861e-06,-0.77065,-3.3327e-05,-310.24,1.6072
8988,19.415,5.6364,0.05,2.6328e-06,26.31,2.0217e-06,15.19,8.5151e-13,9.3567e-06,-2.0217e-06,-15.19,1.6195
8989,19.508,5.6364,0,2.4458e-05,244.41,1.3641e-05,70.074,4.4166e-06,0.76189,-2.2504e-05,-201.51,1.6318
8990,19.415,5.3636,0,5.2772e-05,527.36,3.4119e-05,212.39,5.6773e-06,-1.3076,-4.5825e-05,-388.28,1.6204
8991,19.323,5.4545,0,4.6487e-05,464.55,2.6319e-05,137.24,7.9863e-06,-0.50103,-4.2602e-05,-380.6,1.6078
8992,19.415,5.4545,0.05,2.7594e-06,27.575,2.1189e-06,15.92,6.3023e-13,9.4242e-06,-2.1189e-06,-15.92,1.6201
8993,19.508,5.4545,0,3.5569e-05,355.44,2.2395e-05,135.68,4.4037e-06,0.50168,-3.1267e-05,-267.52,1.6324
8994,19.415,5.1818,0,6.8957e-05,689.09,4.7034e-05,311.77,5.3733e-06,-1.2474,-5.8114e-05,-478.27,1.621
8995,19.323,5.2727,0,6.0214e-05,601.72,3.7247e-05,220.02,7.9146e-06,-0.37244,-5.3367e-05,-460.82,1.6084
8996,19.415,5.2727,0.05,3.0269e-06,30.248,2.3243e-06,17.464,4.8842e-13,7.5659e-06,-2.3243e-06,-17.464,1.6207
8997,19.508,5.2727,0,4.7897e-05,478.64,3.2391e-05,213.37,4.0579e-06,0.4886,-4.0563e-05,-334.77,1.633
8998,19.415,5,0,8.7602e-05,875.42,6.1966e-05,427.45,4.8824e-06,-1.4569,-7.2079e-05,-579.71,1.6216
8999,19.323,5.0909,0,7.6123e-05,760.71,4.987e-05,316.2,7.7429e-06,-0.32493,-6.5635e-05,-551.66,1.609
9000,19.415,5.0909,0.05,3.4361e-06,34.338,2.6385e-06,19.825,-6.243e-13,3.8891e-06,-2.6385e-06,-19.825,1.6213
9001,19.508,5.0909,0,6.1854e-05,618.11,4.3874e-05,304.37,3.443e-06,0.58912,-5.0783e-05,-406.85,1.6336
9002,19.415,4.8182,0,0.00010977,1097,7.9638e-05,564.43,4.343e-06,-1.3106,-8.8636e-05,-699.92,1.6222
9003,19.323,4.9091,0,9.4657e-05,945.91,6.4429e-05,426.73,7.5705e-06,-0.47877,-7.9865e-05,-657.43,1.6095
9004,19.415,4.9091,0.05,4.0237e-06,40.209,3.0897e-06,23.215,2.7138e-13,5.3221e-06,-3.0897e-06,-23.215,1.6219
9005,19.508,4.9091,0,7.816e-05,781.06,5.7388e-05,412.34,2.5298e-06,0.15286,-6.2503e-05,-488.48,1.6342
9006,19.415,4.6364,0,0.00013745,1373.5,0.0001014,730.29,3.7751e-06,-3.1898,-0.0001095,-854.27,1.6228
9007,19.323,4.7273,0,0.00011677,1166.9,8.1468e-05,554.68,7.6309e-06,-0.10653,-9.6976e-05,-786.08,1.6101
9008,19.415,4.7273,0.05,4.9513e-06,49.479,3.802e-06,28.567,-5.4082e-15,3.0245e-06,-3.802e-06,-28.567,1.6225
9009,19.508,4.7273,0,9.8033e-05,979.65,7.3781e-05,544.28,1.5687e-06,1.7053,-7.6732e-05,-586.62,1.6349
9010,19.415,4.4545,0,0.00017463,1745.1,0.00012986,945.29,4.1166e-06,0.48455,-0.00013815,-1068.5,1.6233
9011,19.323,4.5455,0,0.0001439,1438,0.00010167,700.46,8.13e-06,-2.3513,-0.0001185,-953.77,1.6106
9012,19.415,4.5455,0.05,6.1183e-06,61.14,4.6981e-06,35.299,-5.2736e-13,-2.5325e-06,-4.6981e-06,-35.299,1.623
9013,19.508,4.5455,0,0.00012413,1240.4,9.5419e-05,715.39,-4.2416e-07,-4.7414,-9.5208e-05,-716.91,1.6355
9014,19.415,4.2727,0,0.00022697,2268.1,0.00016517,1170,7.9407e-06,-11.377,-0.00018286,-1444.9,1.6239
9015,19.323,4.3636,0,0.0001786,1784.8,0.00012594,869.71,1.0779e-05,4.4129,-0.00014722,-1182.8,1.6112
9016,19.415,4.3636,0.05,9.314e-06,93.076,7.152e-06,53.737,-9.1796e-13,-1.3761e-05,-7.152e-06,-53.737,1.6236
9017,19.508,4.3636,0,0.00015879,1586.8,0.00012222,929.64,9.6505e-07,18.547,-0.00012164,-902.67,1.636
9018,19.415,4.0909,0,0.00027574,2755.5,0.00018237,1125,2.1322e-05,-85.072,-0.00023733,-2028.5,1.6243
9019,19.323,4.1818,0,0.00022454,2243.8,0.00015188,993.11,1.8087e-05,-12.127,-0.00019026,-1577.6,1.6116
9020,19.415,4.1818,0.05,1.8174e-05,181.61,1.3955e-05,104.85,-5.0121e-12,-8.7678e-05,-1.3955e-05,-104.85,1.6241
9021,19.508,4.1818,0,0.00022808,2279.2,0.0001824,1386.6,-1.3141e-05,-82.625,-0.00016705,-1239,1.6366
9022,19.415,3.9091,0,0.00028174,2815.5,0.00015562,747.93,4.779e-05,-62.279,-0.00026119,-2383.8,1.6247
9023,19.323,4,0,0.00025294,2527.7,0.00014898,791.64,3.5551e-05,-60.657,-0.00022948,-2052,1.612
9024,19.415,4,0.05,3.2778e-05,327.55,2.5169e-05,189.11,-5.6746e-12,-1.356e-05,-2.5169e-05,-189.11,1.6245
9025,19.508,4,0,0.00041746,4171.7,0.00023566,1183.8,6.7953e-05,-76.277,-0.00038408,-3472.7,1.6371
9026,19.415,3.7273,0,0.00026234,2621.6,0.00012408,461.73,6.2815e-05,1.4355,-0.00025141,-2359.5,1.625
9027,19.323,3.8182,0,0.00024409,2439.2,0.00011909,479.68,5.6342e-05,8.2374,-0.00023235,-2160.9,1.6124
9028,19.415,3.8182,0.05,1.2616e-05,126.07,9.6874e-06,72.788,2.7372e-12,-1.5185e-05,-9.6874e-06,-72.788,1.6249
9029,19.415,3.5455,0,0.00024344,2432.7,0.00010967,358.06,6.1799e-05,-1.655,-0.00023537,-2234.5,1.6253
9030,19.323,3.6364,0,0.00023376,2336,0.00010659,359.1,5.841e-05,-2.9379,-0.00022559,-2136.8,1.6126
9031,19.415,3.6364,0.05,5.5697e-06,55.658,4.2768e-06,32.134,-1.3039e-13,-3.1381e-05,-4.2768e-06,-32.134,1.6252
9032,19.415,3.3636,0,0.00022947,2293.1,0.00010127,312.08,5.9756e-05,0.18883,-0.00022256,-2121,1.6254
9033,19.323,3.4545,0,0.00022357,2234.1,9.8845e-05,306.69,5.8128e-05,0.76766,-0.00021676,-2064.6,1.6128
9034,19.415,3.4545,0.05,2.9633e-06,29.613,2.2755e-06,17.097,-3.0676e-13,-1.8549e-05,-2.2755e-06,-17.097,1.6254
9035,19.415,3.1818,0,0.00022197,2218.2,9.7214e-05,292.19,5.825e-05,-0.56823,-0.00021556,-2057.8,1.6255
9036,19.323,3.2727,0,0.00021699,2168.4,9.4851e-05,283.42,5.7064e-05,-0.49609,-0.00021078,-2012.9,1.6129
9037,19.415,3.2727,0.05,1.6826e-06,16.815,1.2921e-06,9.708,-1.4292e-12,-1.9156e-05,-1.2921e-06,-9.708,1.6255
9038,19.415,3,0,0.00021956,2194.1,9.5899e-05,285.97,5.7806e-05,-0.23975,-0.00021329,-2037.2,1.6256
9039,19.323,3.0909,0,0.00021371,2135.6,9.2938e-05,273.35,5.6535e-05,-0.16846,-0.00020774,-1985.9,1.613
9040,19.415,3.0909,0.05,1.2324e-06,12.316,9.4636e-07,7.1106,1.8174e-13,-1.3914e-05,-9.4637e-07,-7.1106,1.6255
9041,19.415,2.8182,0,0.00022197,2218.2,9.7214e-05,292.19,5.825e-05,-0.56823,-0.00021556,-2057.8,1.6255
9042,19.323,2.9091,0,0.00021371,2135.6,9.2938e-05,273.35,5.6535e-05,-0.16846,-0.00020774,-1985.9,1.613
9043,19.415,2.9091,0.05,1.2324e-06,12.316,9.4636e-07,7.1106,-1.8806e-13,-1.2997e-05,-9.4636e-07,-7.1106,1.6255
9044,19.415,2.6364,0,0.00022947,2293.1,0.00010127,312.08,5.9756e-05,0.18883,-0.00022256,-2121,1.6254
9045,19.323,2.7273,0,0.00021699,2168.4,9.4851e-05,283.42,5.7064e-05,-0.49609,-0.00021078,-2012.9,1.6129
9046,19.415,2.7273,0.05,1.6826e-06,16.815,1.2921e-06,9.708,-4.0067e-13,-1.0041e-05,-1.2921e-06,-9.708,1.6255
9047,19.415,2.4545,0,0.00024344,2432.7,0.00010967,358.06,6.1799e-05,-1.655,-0.00023537,-2234.5,1.6253
9048,19.323,2.5455,0,0.00022357,2234.1,9.8845e-05,306.69,5.8128e-05,0.76766,-0.00021676,-2064.6,1.6128
9049,19.415,2.5455,0.05,2.9633e-06,29.613,2.2755e-06,17.097,-4.2762e-13,-1.0936e-05,-2.2755e-06,-17.097,1.6254
9050,19.415,2.2727,0,0.00026234,2621.6,0.00012408,461.73,6.2815e-05,1.4355,-0.00025141,-2359.5,1.625
9051,19.323,2.3636,0,0.00023376,2336,0.00010659,359.1,5.841e-05,-2.9379,-0.00022559,-2136.8,1.6126
9052,19.415,2.3636,0.05,5.5697e-06,55.658,4.2768e-06,32.134,6.8608e-14,3.8369e-07,-4.2768e-06,-32.134,1.6252
9053,19.415,2.0909,0,0.00028174,2815.5,0.00015562,747.93,4.779e-05,-62.279,-0.00026119,-2383.8,1.6247
9054,19.323,2.1818,0,0.00024409,2439.2,0.00011909,479.68,5.6342e-05,8.2374,-0.00023235,-2160.9,1.6124
9055,19.415,2.1818,0.05,1.2616e-05,126.07,9.6874e-06,72.788,-4.5065e-15,-3.7054e-08,-9.6874e-06,-72.788,1.6249
9056,19.415,1.9091,0,0.00027574,2755.5,0.00018237,1125,2.1322e-05,-85.072,-0.00023733,-2028.5,1.6243
9057,19.323,2,0,0.00025294,2527.7,0.00014898,791.64,3.5551e-05,-60.657,-0.00022948,-2052,1.612
9058,19.415,2,0.05,3.2778e-05,327.55,2.5169e-05,189.11,3.0785e-12,5.5047e-06,-2.5169e-05,-189.11,1.6245
9059,19.508,2,0,0.00041746,4171.7,0.00023566,1183.8,6.7953e-05,-76.277,-0.00038408,-3472.7,1.6371
9060,19.415,1.7273,0,0.00022697,2268.1,0.00016517,1170,7.9407e-06,-11.377,-0.00018286,-1444.9,1.6239
9061,19.323,1.8182,0,0.00022454,2243.8,0.00015188,993.11,1.8087e-05,-12.127,-0.00019026,-1577.6,1.6116
9062,19.415,1.8182,0.05,1.8174e-05,181.61,1.3955e-05,104.85,1.7196e-13,1.4538e-05,-1.3955e-05,-104.85,1.6241
9063,19.508,1.8182,0,0.00022808,2279.2,0.0001824,1386.6,-1.3141e-05,-82.625,-0.00016705,-1239,1.6366
9064,19.415,1.5455,0,0.00017463,1745.1,0.00012986,945.29,4.1166e-06,0.48455,-0.00013815,-1068.5,1.6233
9065,19.323,1.6364,0,0.0001786,1784.8,0.00012594,869.71,1.0779e-05,4.4129,-0.00014722,-1182.8,1.6112
9066,19.415,1.6364,0.05,9.314e-06,93.076,7.152e-06,53.737,8.9256e-14,5.3122e-06,-7.152e-06,-53.737,1.6236
9067,19.508,1.6364,0,0.00015879,1586.8,0.00012222,929.64,9.6507e-07,18.547,-0.00012164,-902.67,1.636
9068,19.415,1.3636,0,0.00013745,1373.5,0.0001014,730.29,3.7751e-06,-3.1898,-0.0001095,-854.27,1.6228
9069,19.323,1.4545,0,0.0001439,1438,0.00010167,700.46,8.13e-06,-2.3513,-0.0001185,-953.77,1.6106
9070,19.415,1.4545,0.05,6.1183e-06,61.14,4.6981e-06,35.299,1.3642e-12,6.0426e-06,-4.6981e-06,-35.299,1.623
9071,19.508,1.4545,0,0.00012413,1240.4,9.5419e-05,715.39,-4.2414e-07,-4.7414,-9.5208e-05,-716.91,1.6355
9072,19.415,1.1818,0,0.00010977,1097,7.9638e-05,564.43,4.343e-06,-1.3106,-8.8636e-05,-699.92,1.6222
9073,19.323,1.2727,0,0.00011677,1166.9,8.1468e-05,554.68,7.6309e-06,-0.10653,-9.6976e-05,-786.08,1.6101
9074,19.415,1.2727,0.05,4.9513e-06,49.479,3.802e-06,28.567,4.5475e-13,8.3742e-06,-3.802e-06,-28.567,1.6225
9075,19.508,1.2727,0,9.8033e-05,979.65,7.3781e-05,544.28,1.5688e-06,1.7053,-7.6732e-05,-586.62,1.6349
9076,19.415,1,0,8.7602e-05,875.42,6.1966e-05,427.45,4.8824e-06,-1.4569,-7.2079e-05,-579.71,1.6216
9077,19.323,1.0909,0,9.4657e-05,945.91,6.4429e-05,426.73,7.5705e-06,-0.47877,-7.9865e-05,-657.43,1.6095
9078,19.415,1.0909,0.05,4.0237e-06,40.209,3.0897e-06,23.215,5.4276e-13,1.0644e-05,-3.0897e-06,-23.215,1.6219
9079,19.508,1.0909,0,7.816e-05,781.06,5.7388e-05,412.34,2.5298e-06,0.15286,-6.2503e-05,-488.48,1.6342
9080,19.415,0.81818,0,6.8957e-05,689.09,4.7034e-05,311.77,5.3733e-06,-1.2474,-5.8114e-05,-478.27,1.621
9081,19.323,0.90909,0,7.6123e-05,760.71,4.987e-05,316.2,7.7429e-06,-0.32493,-6.5635e-05,-551.66,1.609
9082,19.415,0.90909,0.05,3.4361e-06,34.338,2.6385e-06,19.825,4.5475e-13,4.3802e-06,-2.6385e-06,-19.825,1.6213
9083,19.508,0.90909,0,6.1854e-05,618.11,4.3874e-05,304.37,3.443e-06,0.58912,-5.0783e-05,-406.85,1.6336
9084,19.415,0.63636,0,5.2772e-05,527.36,3.4119e-05,212.39,5.6773e-06,-1.3076,-4.5825e-05,-388.28,1.6204
9085,19.323,0.72727,0,6.0214e-05,601.72,3.7247e-05,220.02,7.9146e-06,-0.37244,-5.3367e-05,-460.82,1.6084
9086,19.415,0.72727,0.05,3.0269e-06,30.248,2.3243e-06,17.464,4.7158e-13,7.0455e-06,-2.3243e-06,-17.464,1.6207
9087,19.508,0.72727,0,4.7897e-05,478.64,3.2391e-05,213.37,4.0579e-06,0.48861,-4.0563e-05,-334.77,1.633
9088,19.415,0.45455,0,3.8529e-05,385.03,2.2904e-05,127.62,5.7204e-06,-1.4933,-3.4723e-05,-305.37,1.6198
9089,19.323,0.54545,0,4.6487e-05,464.55,2.6319e-05,137.24,7.9863e-06,-0.50103,-4.2602e-05,-380.6,1.6078
9090,19.415,0.54545,0.05,2.7594e-06,27.575,2.1189e-06,15.92,2.2031e-13,6.4802e-06,-2.1189e-06,-15.92,1.6201
9091,19.508,0.54545,0,3.5569e-05,355.44,2.2395e-05,135.68,4.4037e-06,0.50168,-3.1267e-05,-267.52,1.6324
9092,19.415,0.27273,0,2.6571e-05,265.53,1.3844e-05,61.561,5.3146e-06,-2.5229,-2.498e-05,-230.14,1.6192
9093,19.323,0.36364,0,3.5042e-05,350.17,1.7262e-05,69.861,7.861e-06,-0.77065,-3.3327e-05,-310.24,1.6072
9094,19.415,0.36364,0.05,2.6328e-06,26.31,2.0217e-06,15.19,4.5151e-13,6.8556e-06,-2.0217e-06,-15.19,1.6195
9095,19.508,0.36364,0,2.4458e-05,244.41,1.3641e-05,70.074,4.4166e-06,0.76189,-2.2504e-05,-201.51,1.6318
9096,19.323,0.18182,0,2.719e-05,271.72,1.1372e-05,28.039,7.3791e-06,-1.9594,-2.6622e-05,-257.43,1.6066
9097,19.415,0.18182,0.05,2.8968e-06,28.948,2.2244e-06,16.713,5.2614e-13,6.1753e-06,-2.2244e-06,-16.713,1.6189
9098,19.415,0.090909,0,1.7191e-05,171.8,6.9694e-06,14.147,4.7246e-06,-2.7192,-1.6935e-05,-165.46,1.6186
9099,19.508,0.18182,0,1.4688e-05,146.77,6.4763e-06,20.357,3.8723e-06,0.79191,-1.423e-05,-135.22,1.6312
9100,19.23,5.7273,0,3.6963e-05,369.37,1.5785e-05,43.82,9.9799e-06,0.20152,-3.602e-05,-345.42,1.5946
9101,19.138,5.8182,0,4.0777e-05,407.49,1.5631e-05,26.409,1.2146e-05,0.22645,-4.0261e-05,-393.54,1.582
9102,19.23,5.8182,0.05,2.7491e-06,27.472,2.111e-06,15.861,4.6947e-13,5.6096e-06,-2.111e-06,-15.861,1.5943
9103,19.23,5.9091,0,3.1497e-05,314.76,1.1373e-05,11.902,9.8161e-06,0.20223,-3.1275e-05,-308.54,1.594
9104,19.23,5.5455,0,4.4916e-05,448.85,2.2138e-05,90.471,1.0145e-05,0.35578,-4.2687e-05,-396.6,1.5952
9105,19.138,5.6364,0,4.6111e-05,460.79,2.0017e-05,58.671,1.2234e-05,0.19406,-4.483e-05,-428.56,1.5826
9106,19.23,5.6364,0.05,2.4917e-06,24.9,1.9133e-06,14.376,6.8206e-13,5.4612e-06,-1.9133e-06,-14.376,1.5949
9107,19.23,5.3636,0,5.6002e-05,559.63,3.0979e-05,156.38,1.0226e-05,0.45195,-5.1679e-05,-464.68,1.5958
9108,19.138,5.4545,0,5.467e-05,546.33,2.6946e-05,110,1.2337e-05,0.23288,-5.1961e-05,-482.88,1.5832
9109,19.23,5.4545,0.05,2.5378e-06,25.361,1.9487e-06,14.642,6.9458e-13,7.0722e-06,-1.9487e-06,-14.642,1.5955
9110,19.23,5.1818,0,6.9549e-05,695.01,4.1652e-05,236.24,1.0281e-05,0.52403,-6.2454e-05,-545.97,1.5964
9111,19.138,5.2727,0,6.5848e-05,658.03,3.5812e-05,175.71,1.246e-05,0.25523,-6.1075e-05,-552.26,1.5838
9112,19.23,5.2727,0.05,2.6827e-06,26.808,2.06e-06,15.478,4.5315e-13,1.9007e-06,-2.06e-06,-15.478,1.5961
9113,19.23,5,0,8.5537e-05,854.78,5.4016e-05,328.13,1.0424e-05,0.59836,-7.5097e-05,-641.97,1.5969
9114,19.138,5.0909,0,7.9371e-05,793.17,4.6279e-05,252.68,1.2683e-05,0.25743,-7.1994e-05,-635.97,1.5843
9115,19.23,5.0909,0.05,2.9207e-06,29.187,2.2427e-06,16.851,-4.7572e-22,-3.5743e-15,-2.2427e-06,-16.851,1.5966
9116,19.23,4.8182,0,0.0001044,1043.3,6.8203e-05,431.59,1.0846e-05,0.63009,-9.0137e-05,-758.11,1.5975
9117,19.138,4.9091,0,9.5268e-05,952.03,5.8206e-05,338.78,1.3151e-05,0.25153,-8.4871e-05,-736.25,1.5849
9118,19.23,4.9091,0.05,3.2652e-06,32.629,2.5072e-06,18.838,-2.259e-13,-2.592e-06,-2.5072e-06,-18.838,1.5972
9119,19.23,4.6364,0,0.00012664,1265.6,8.4138e-05,542.85,1.197e-05,0.61416,-0.00010836,-903.47,1.598
9120,19.138,4.7273,0,0.00011381,1137.3,7.1516e-05,431.47,1.4117e-05,0.20488,-0.00010015,-858.36,1.5854
9121,19.23,4.7273,0.05,3.7097e-06,37.071,2.8486e-06,21.403,-6.4113e-13,-8.4212e-06,-2.8486e-06,-21.403,1.5977
9122,19.23,4.4545,0,0.00015282,1527.2,0.0001012,650.8,1.4765e-05,1.3686,-0.00013099,-1093.8,1.5985
9123,19.138,4.5455,0,0.00013505,1349.6,8.5661e-05,522.82,1.6108e-05,0.22409,-0.00011833,-1009.9,1.5859
9124,19.23,4.5455,0.05,4.4953e-06,44.922,3.4518e-06,25.936,-9.1706e-13,-1.1465e-05,-3.4518e-06,-25.936,1.5982
9125,19.23,4.2727,0,0.00018044,1803.2,0.00011543,713.76,2.0929e-05,3.6903,-0.00015742,-1336.4,1.599
9126,19.138,4.3636,0,0.00015877,1586.6,9.9374e-05,596.42,1.9996e-05,0.0049003,-0.00013997,-1201.9,1.5863
9127,19.23,4.3636,0.05,4.1427e-06,41.398,3.1811e-06,23.901,-1.5039e-12,-2.386e-05,-3.1811e-06,-23.901,1.5987
9128,19.23,4.0909,0,0.00020045,2003.1,0.00011759,653.01,3.2073e-05,10.469,-0.00018127,-1592.5,1.5994
9129,19.138,4.1818,0,0.00018056,1804.3,0.00010739,603.76,2.7321e-05,2.1694,-0.00016256,-1424.5,1.5867
9130,19.23,4.1818,0.05,5.625e-06,56.212,4.3193e-06,32.454,-7.2396e-12,-6.9292e-05,-4.3193e-06,-32.454,1.5992
9131,19.23,3.9091,0,0.00021121,2110.6,0.00010965,502.32,4.4406e-05,12.14,-0.00019814,-1810.2,1.5997
9132,19.138,4,0,0.00019363,1935,0.00010394,502.14,3.7979e-05,6.5322,-0.00018015,-1632.4,1.5871
9133,19.23,4,0.05,4.5044e-06,45.013,3.4588e-06,25.988,-1.5053e-12,-3.5169e-05,-3.4588e-06,-25.988,1.5995
9134,19.23,3.7273,0,0.00021473,2145.9,0.00010105,372.92,5.1896e-05,3.5562,-0.00020593,-1933.7,1.6
9135,19.138,3.8182,0,0.0002003,2001.6,9.6614e-05,377.42,4.6782e-05,3.0068,-0.00019118,-1785,1.5874
9136,19.23,3.8182,0.05,6.1642e-06,61.599,4.7333e-06,35.564,-8.6767e-13,-2.2126e-05,-4.7333e-06,-35.565,1.5998
9137,19.23,3.5455,0,0.00021369,2135.4,9.5616e-05,306.62,5.4734e-05,-0.55213,-0.00020682,-1965.8,1.6002
9138,19.138,3.6364,0,0.00020275,2026.1,9.1513e-05,301.08,5.1427e-05,-0.10622,-0.00019594,-1858.7,1.5876
9139,19.23,3.6364,0.05,4.0687e-06,40.659,3.1242e-06,23.474,5.8181e-13,-2.0431e-05,-3.1242e-06,-23.474,1.6001
9140,19.23,3.3636,0,0.00021102,2108.7,9.2378e-05,277.65,5.5434e-05,0.070213,-0.00020492,-1956.1,1.6003
9141,19.138,3.4545,0,0.00020273,2025.9,8.8735e-05,266.61,5.3274e-05,0.16801,-0.00019687,-1879.3,1.5878
9142,19.23,3.4545,0.05,2.9678e-06,29.658,2.2789e-06,17.123,6.7576e-13,-1.7416e-05,-2.2789e-06,-17.123,1.6003
9143,19.23,3.1818,0,0.00020867,2085.2,9.0527e-05,264.22,5.5349e-05,-0.095029,-0.00020291,-1940.6,1.6004
9144,19.138,3.2727,0,0.00020169,2015.5,8.706e-05,249.98,5.3791e-05,0.0066326,-0.00019627,-1878.9,1.5879
9145,19.23,3.2727,0.05,2.0579e-06,20.565,1.5802e-06,11.873,4.6722e-14,-1.4869e-05,-1.5802e-06,-11.873,1.6004
9146,19.23,3,0,0.0002078,2076.5,8.9925e-05,260.33,5.5265e-05,-0.093864,-0.00020214,-1934.1,1.6005
9147,19.138,3.0909,0,0.00020092,2007.8,8.627e-05,243.32,5.3884e-05,-0.021422,-0.00019567,-1875.1,1.5879
9148,19.23,3.0909,0.05,1.6745e-06,16.734,1.2858e-06,9.6613,3.3685e-14,-1.5013e-05,-1.2858e-06,-9.6613,1.6004
9149,19.23,2.8182,0,0.00020867,2085.2,9.0527e-05,264.22,5.5349e-05,-0.095029,-0.00020291,-1940.6,1.6004
9150,19.138,2.9091,0,0.00020092,2007.8,8.627e-05,243.32,5.3884e-05,-0.021422,-0.00019567,-1875.1,1.5879
9151,19.23,2.9091,0.05,1.6745e-06,16.734,1.2858e-06,9.6613,-3.2734e-14,-1.3594e-05,-1.2858e-06,-9.6613,1.6004
9152,19.23,2.6364,0,0.00021102,2108.7,9.2378e-05,277.65,5.5434e-05,0.070213,-0.00020492,-1956.1,1.6003
9153,19.138,2.7273,0,0.00020169,2015.5,8.706e-05,249.98,5.3791e-05,0.0066329,-0.00019627,-1878.9,1.5879
9154,19.23,2.7273,0.05,2.0579e-06,20.565,1.5802e-06,11.873,-3.9341e-14,-4.1043e-06,-1.5802e-06,-11.873,1.6004
9155,19.23,2.4545,0,0.00021369,2135.4,9.5616e-05,306.62,5.4734e-05,-0.55213,-0.00020682,-1965.8,1.6002
9156,19.138,2.5455,0,0.00020273,2025.9,8.8735e-05,266.61,5.3274e-05,0.16801,-0.00019687,-1879.3,1.5878
9157,19.23,2.5455,0.05,2.9678e-06,29.658,2.2789e-06,17.123,1.7313e-13,-2.5197e-06,-2.2789e-06,-17.123,1.6003
9158,19.23,2.2727,0,0.00021473,2145.9,0.00010105,372.92,5.1896e-05,3.5562,-0.00020593,-1933.7,1.6
9159,19.138,2.3636,0,0.00020275,2026.1,9.1513e-05,301.08,5.1427e-05,-0.10622,-0.00019594,-1858.7,1.5876
9160,19.23,2.3636,0.05,4.0687e-06,40.659,3.1242e-06,23.474,1.3659e-12,4.2052e-06,-3.1242e-06,-23.474,1.6001
9161,19.23,2.0909,0,0.00021121,2110.6,0.00010965,502.32,4.4406e-05,12.14,-0.00019814,-1810.2,1.5997
9162,19.138,2.1818,0,0.0002003,2001.6,9.6614e-05,377.42,4.6782e-05,3.0068,-0.00019118,-1785,1.5874
9163,19.23,2.1818,0.05,6.1642e-06,61.599,4.7333e-06,35.564,1.1754e-12,-5.8721e-08,-4.7333e-06,-35.564,1.5998
9164,19.23,1.9091,0,0.00020045,2003.1,0.00011759,653.01,3.2073e-05,10.469,-0.00018127,-1592.5,1.5994
9165,19.138,2,0,0.00019363,1935,0.00010394,502.14,3.7979e-05,6.5322,-0.00018015,-1632.4,1.5871
9166,19.23,2,0.05,4.5044e-06,45.013,3.4588e-06,25.988,7.963e-13,1.002e-05,-3.4588e-06,-25.988,1.5995
9167,19.23,1.7273,0,0.00018044,1803.2,0.00011543,713.76,2.093e-05,3.6903,-0.00015742,-1336.4,1.599
9168,19.138,1.8182,0,0.00018056,1804.3,0.00010739,603.76,2.7321e-05,2.1694,-0.00016256,-1424.5,1.5867
9169,19.23,1.8182,0.05,5.625e-06,56.212,4.3193e-06,32.454,-9.162e-22,-6.6323e-06,-4.3193e-06,-32.454,1.5992
9170,19.23,1.5455,0,0.00015282,1527.2,0.0001012,650.8,1.4765e-05,1.3686,-0.00013099,-1093.8,1.5985
9171,19.138,1.6364,0,0.00015877,1586.6,9.9373e-05,596.42,1.9996e-05,0.0048991,-0.00013997,-1201.9,1.5863
9172,19.23,1.6364,0.05,4.1427e-06,41.398,3.1811e-06,23.901,8.4143e-13,-4.991e-15,-3.1811e-06,-23.901,1.5987
9173,19.23,1.3636,0,0.00012664,1265.6,8.4138e-05,542.85,1.197e-05,0.61416,-0.00010836,-903.47,1.598
9174,19.138,1.4545,0,0.00013505,1349.6,8.5661e-05,522.82,1.6108e-05,0.22409,-0.00011833,-1009.9,1.5859
9175,19.23,1.4545,0.05,4.4953e-06,44.922,3.4518e-06,25.936,4.5475e-13,-1.2251e-14,-3.4518e-06,-25.936,1.5982
9176,19.23,1.1818,0,0.0001044,1043.3,6.8203e-05,431.59,1.0846e-05,0.63009,-9.0137e-05,-758.11,1.5975
9177,19.138,1.2727,0,0.00011381,1137.3,7.1516e-05,431.47,1.4117e-05,0.20488,-0.00010015,-858.36,1.5854
9178,19.23,1.2727,0.05,3.7097e-06,37.071,2.8486e-06,21.403,4.5235e-13,7.5891e-06,-2.8486e-06,-21.403,1.5977
9179,19.23,1,0,8.5537e-05,854.78,5.4016e-05,328.13,1.0424e-05,0.59836,-7.5097e-05,-641.97,1.5969
9180,19.138,1.0909,0,9.5268e-05,952.03,5.8206e-05,338.78,1.3151e-05,0.25153,-8.4871e-05,-736.25,1.5849
9181,19.23,1.0909,0.05,3.2652e-06,32.629,2.5072e-06,18.838,2.259e-13,5.0737e-06,-2.5072e-06,-18.838,1.5972
9182,19.23,0.81818,0,6.9549e-05,695.01,4.1652e-05,236.24,1.0281e-05,0.52403,-6.2454e-05,-545.97,1.5964
9183,19.138,0.90909,0,7.9371e-05,793.17,4.6279e-05,252.68,1.2683e-05,0.25743,-7.1994e-05,-635.97,1.5843
9184,19.23,0.90909,0.05,2.9207e-06,29.187,2.2427e-06,16.851,3.8148e-13,3.0825e-06,-2.2427e-06,-16.851,1.5966
9185,19.23,0.63636,0,5.6002e-05,559.63,3.0979e-05,156.38,1.0226e-05,0.45195,-5.1679e-05,-464.68,1.5958
9186,19.138,0.72727,0,6.5848e-05,658.03,3.5812e-05,175.71,1.246e-05,0.25523,-6.1075e-05,-552.26,1.5838
9187,19.23,0.72727,0.05,2.6827e-06,26.808,2.06e-06,15.478,3.9942e-13,2.4003e-06,-2.06e-06,-15.478,1.5961
9188,19.23,0.45455,0,4.4916e-05,448.85,2.2138e-05,90.471,1.0145e-05,0.35577,-4.2687e-05,-396.6,1.5952
9189,19.138,0.54545,0,5.467e-05,546.33,2.6946e-05,110,1.2337e-05,0.23288,-5.1961e-05,-482.88,1.5832
9190,19.23,0.54545,0.05,2.5378e-06,25.361,1.9487e-06,14.642,4.6739e-13,2.6781e-06,-1.9487e-06,-14.642,1.5955
9191,19.23,0.27273,0,3.6963e-05,369.37,1.5785e-05,43.82,9.9799e-06,0.20152,-3.602e-05,-345.42,1.5946
9192,19.138,0.36364,0,4.6111e-05,460.79,2.0017e-05,58.671,1.2234e-05,0.19406,-4.483e-05,-428.56,1.5826
9193,19.23,0.36364,0.05,2.4917e-06,24.9,1.9133e-06,14.376,4.5916e-13,3.3749e-06,-1.9133e-06,-14.376,1.5949
9194,19.138,0.18182,0,4.0777e-05,407.49,1.5631e-05,26.409,1.2146e-05,0.22645,-4.0261e-05,-393.54,1.582
9195,19.23,0.18182,0.05,2.7491e-06,27.472,2.111e-06,15.861,4.7631e-13,3.5809e-06,-2.111e-06,-15.861,1.5943
9196,19.23,0.090909,0,3.1497e-05,314.76,1.1373e-05,11.902,9.8161e-06,0.20223,-3.1275e-05,-308.54,1.594
9197,19.045,5.7273,0,5.0198e-05,501.64,2.0125e-05,43.23,1.4389e-05,0.13295,-4.9321e-05,-478.56,1.5701
9198,18.953,5.8182,0,5.435e-05,543.13,2.0208e-05,27.595,1.6579e-05,0.32236,-5.3824e-05,-528.66,1.5575
9199,19.045,5.8182,0.05,2.6433e-06,26.415,2.0298e-06,15.251,6.5693e-13,4.8028e-06,-2.0298e-06,-15.251,1.5698
9200,19.045,5.9091,0,4.5741e-05,457.09,1.6199e-05,13.284,1.4434e-05,0.02225,-4.55e-05,-450.3,1.5695
9201,19.045,5.5455,0,5.6547e-05,565.08,2.541e-05,82.598,1.4423e-05,0.044838,-5.4687e-05,-519.22,1.5706
9202,18.953,5.6364,0,5.9038e-05,589.97,2.4352e-05,59.211,1.6484e-05,0.098002,-5.7806e-05,-558.09,1.5581
9203,19.045,5.6364,0.05,2.4256e-06,24.239,1.8626e-06,13.995,9.0372e-13,4.8558e-06,-1.8626e-06,-13.995,1.5703
9204,19.045,5.3636,0,6.5565e-05,655.2,3.2618e-05,135.63,1.4569e-05,0.02246,-6.2195e-05,-576.76,1.5712
9205,18.953,5.4545,0,6.6078e-05,660.32,3.0126e-05,101.97,1.6567e-05,0.097364,-6.3749e-05,-603.37,1.5587
9206,19.045,5.4545,0.05,2.453e-06,24.513,1.8836e-06,14.153,4.7473e-13,4.7479e-06,-1.8836e-06,-14.153,1.5709
9207,19.045,5.1818,0,7.6977e-05,769.24,4.1435e-05,199.64,1.4861e-05,-0.021039,-7.1611e-05,-649.74,1.5718
9208,18.953,5.2727,0,7.5381e-05,753.29,3.7417e-05,154.88,1.681e-05,0.041984,-7.1542e-05,-663.8,1.5592
9209,19.045,5.2727,0.05,2.5411e-06,25.393,1.9513e-06,14.661,2.9492e-13,-1.7906e-06,-1.9513e-06,-14.661,1.5715
9210,19.045,5,0,9.0622e-05,905.6,5.1588e-05,271.74,1.5409e-05,-0.096759,-8.2886e-05,-738.65,1.5723
9211,18.953,5.0909,0,8.6792e-05,867.32,4.5992e-05,215.69,1.7286e-05,-0.00068807,-8.1087e-05,-739.13,1.5597
9212,19.045,5.0909,0.05,2.6717e-06,26.699,2.0516e-06,15.415,6.247e-14,-1.6372e-06,-2.0516e-06,-15.415,1.572
9213,19.045,4.8182,0,0.0001064,1063.3,6.2755e-05,347.95,1.6422e-05,-0.17628,-9.6121e-05,-845.78,1.5728
9214,18.953,4.9091,0,0.00010016,1000.9,5.5557e-05,281.19,1.8123e-05,-0.077233,-9.2363e-05,-830.23,1.5602
9215,19.045,4.9091,0.05,2.8315e-06,28.295,2.1742e-06,16.336,1.262e-13,-5.2758e-06,-2.1742e-06,-16.336,1.5725
9216,19.045,4.6364,0,0.00012412,1240.3,7.4362e-05,421.38,1.8256e-05,-0.17803,-0.00011145,-974.75,1.5733
9217,18.953,4.7273,0,0.00011525,1151.7,6.5662e-05,346.31,1.9552e-05,-0.14092,-0.00010538,-938.83,1.5607
9218,19.045,4.7273,0.05,2.9593e-06,29.572,2.2723e-06,17.074,-4.3356e-13,-1.1177e-05,-2.2723e-06,-17.074,1.573
9219,19.045,4.4545,0,0.00014269,1425.9,8.4971e-05,476.97,2.1338e-05,-1.1449,-0.00012845,-1126.6,1.5737
9220,18.953,4.5455,0,0.00013159,1315,7.5519e-05,402.63,2.1911e-05,-0.15643,-0.00012003,-1066.6,1.5612
9221,19.045,4.5455,0.05,2.9038e-06,29.018,2.2297e-06,16.753,-1.5036e-12,-1.3982e-05,-2.2297e-06,-16.753,1.5735
9222,19.045,4.2727,0,0.00015988,1597.7,9.1963e-05,491.19,2.6387e-05,-1.516,-0.00014575,-1294.9,1.5741
9223,18.953,4.3636,0,0.00014772,1476.2,8.3448e-05,434.07,2.5557e-05,-0.90749,-0.00013546,-1210.7,1.5616
9224,19.045,4.3636,0.05,2.7879e-06,27.86,2.1407e-06,16.085,-3.6487e-12,-3.0019e-05,-2.1407e-06,-16.085,1.5739
9225,19.045,4.0909,0,0.00017333,1732.2,9.3496e-05,451.07,3.3218e-05,-1.8308,-0.00016119,-1462.5,1.5745
9226,18.953,4.1818,0,0.00016151,1614,8.7245e-05,422.65,3.0936e-05,-0.42997,-0.00015011,-1360.8,1.5619
9227,19.045,4.1818,0.05,2.2432e-06,22.417,1.7225e-06,12.942,-6.5863e-12,-6.4999e-05,-1.7225e-06,-12.942,1.5743
9228,19.045,3.9091,0,0.00018219,1820.7,9.0601e-05,374.93,4.0362e-05,-2.547,-0.0001729,-1604.9,1.5748
9229,18.953,4,0,0.00017141,1712.9,8.6495e-05,369.51,3.7167e-05,-1.1163,-0.00016211,-1498.4,1.5623
9230,19.045,4,0.05,2.764e-06,27.621,2.1224e-06,15.947,-4.7939e-12,-4.4813e-05,-2.1224e-06,-15.947,1.5746
9231,19.045,3.7273,0,0.00018794,1878.1,8.6795e-05,303.5,4.6324e-05,-0.57566,-0.00018093,-1708,1.575
9232,18.953,3.8182,0,0.00017792,1778,8.3423e-05,303,4.3e-05,-0.7194,-0.00017082,-1607.3,1.5625
9233,19.045,3.8182,0.05,2.9311e-06,29.291,2.2507e-06,16.911,-2.4921e-12,-2.491e-05,-2.2507e-06,-16.911,1.5749
9234,19.045,3.5455,0,0.00019155,1914.1,8.4436e-05,259.6,4.9967e-05,0.61181,-0.0001858,-1770.9,1.5752
9235,18.953,3.6364,0,0.00018263,1825.1,8.104e-05,254.17,4.7291e-05,0.59473,-0.00017697,-1684.4,1.5627
9236,19.045,3.6364,0.05,2.7346e-06,27.327,2.0998e-06,15.777,5.0422e-13,-1.8935e-05,-2.0998e-06,-15.777,1.5751
9237,19.045,3.3636,0,0.00019325,1931.1,8.3286e-05,237.95,5.1629e-05,0.096409,-0.0001881,-1801.1,1.5754
9238,18.953,3.4545,0,0.00018558,1854.5,7.9907e-05,227.6,4.9631e-05,0.11644,-0.00018066,-1730.2,1.5629
9239,19.045,3.4545,0.05,2.2447e-06,22.431,1.7236e-06,12.951,-3.1756e-13,-1.183e-05,-1.7236e-06,-12.951,1.5753
9240,19.045,3.1818,0,0.00019383,1937,8.2706e-05,228.34,5.2325e-05,0.078242,-0.00018893,-1812.6,1.5755
9241,18.953,3.2727,0,0.00018711,1869.8,7.938e-05,214.77,5.0812e-05,0.12155,-0.00018253,-1753.1,1.563
9242,19.045,3.2727,0.05,1.8724e-06,18.711,1.4378e-06,10.803,-4.4847e-13,-1.1084e-05,-1.4378e-06,-10.803,1.5754
9243,19.045,3,0,0.00019394,1938.1,8.2527e-05,225.64,5.2502e-05,0.051121,-0.00018912,-1815.4,1.5755
9244,18.953,3.0909,0,0.00018771,1875.8,7.9171e-05,209.68,5.1275e-05,0.080773,-0.00018326,-1762.1,1.563
9245,19.045,3.0909,0.05,1.6651e-06,16.64,1.2786e-06,9.607,-1.1208e-13,-8.4604e-06,-1.2786e-06,-9.607,1.5755
9246,19.045,2.8182,0,0.00019383,1937,8.2706e-05,228.34,5.2325e-05,0.078242,-0.00018893,-1812.6,1.5755
9247,18.953,2.9091,0,0.00018771,1875.8,7.9171e-05,209.68,5.1275e-05,0.080772,-0.00018326,-1762.1,1.563
9248,19.045,2.9091,0.05,1.6651e-06,16.64,1.2786e-06,9.607,1.0094e-13,-6.8547e-06,-1.2786e-06,-9.607,1.5755
9249,19.045,2.6364,0,0.00019325,1931.1,8.3286e-05,237.95,5.1629e-05,0.096409,-0.0001881,-1801.1,1.5754
9250,18.953,2.7273,0,0.00018711,1869.8,7.938e-05,214.77,5.0812e-05,0.12155,-0.00018253,-1753.1,1.563
9251,19.045,2.7273,0.05,1.8724e-06,18.711,1.4378e-06,10.803,2.849e-13,-3.0445e-06,-1.4378e-06,-10.803,1.5754
9252,19.045,2.4545,0,0.00019155,1914.1,8.4436e-05,259.6,4.9967e-05,0.61181,-0.0001858,-1770.9,1.5752
9253,18.953,2.5455,0,0.00018558,1854.5,7.9907e-05,227.6,4.9631e-05,0.11644,-0.00018066,-1730.2,1.5629
9254,19.045,2.5455,0.05,2.2447e-06,22.431,1.7236e-06,12.951,1.6741e-12,-3.7473e-06,-1.7236e-06,-12.951,1.5753
9255,19.045,2.2727,0,0.00018794,1878.1,8.6795e-05,303.5,4.6324e-05,-0.57566,-0.00018093,-1708,1.575
9256,18.953,2.3636,0,0.00018263,1825.1,8.104e-05,254.17,4.7291e-05,0.59473,-0.00017697,-1684.4,1.5627
9257,19.045,2.3636,0.05,2.7346e-06,27.327,2.0998e-06,15.777,1.7813e-12,1.1196e-06,-2.0998e-06,-15.777,1.5751
9258,19.045,2.0909,0,0.00018219,1820.7,9.0601e-05,374.93,4.0362e-05,-2.547,-0.0001729,-1604.9,1.5748
9259,18.953,2.1818,0,0.00017792,1778,8.3423e-05,303,4.3e-05,-0.7194,-0.00017082,-1607.3,1.5625
9260,19.045,2.1818,0.05,2.9311e-06,29.291,2.2507e-06,16.911,1.352e-12,8.0368e-06,-2.2507e-06,-16.911,1.5749
9261,19.045,1.9091,0,0.00017333,1732.2,9.3496e-05,451.07,3.3218e-05,-1.8308,-0.00016119,-1462.5,1.5745
9262,18.953,2,0,0.00017141,1712.9,8.6495e-05,369.51,3.7167e-05,-1.1163,-0.00016211,-1498.4,1.5623
9263,19.045,2,0.05,2.764e-06,27.621,2.1224e-06,15.947,5.7809e-13,-6.6801e-06,-2.1224e-06,-15.947,1.5746
9264,19.045,1.7273,0,0.00015988,1597.7,9.1963e-05,491.19,2.6387e-05,-1.516,-0.00014575,-1294.9,1.5741
9265,18.953,1.8182,0,0.00016151,1614,8.7245e-05,422.65,3.0936e-05,-0.42997,-0.00015011,-1360.8,1.5619
9266,19.045,1.8182,0.05,2.2432e-06,22.417,1.7225e-06,12.942,-3.2837e-13,-5.8785e-07,-1.7225e-06,-12.942,1.5743
9267,19.045,1.5455,0,0.00014269,1425.9,8.4971e-05,476.97,2.1338e-05,-1.1449,-0.00012845,-1126.6,1.5737
9268,18.953,1.6364,0,0.00014772,1476.2,8.3448e-05,434.07,2.5557e-05,-0.90749,-0.00013546,-1210.7,1.5616
9269,19.045,1.6364,0.05,2.7879e-06,27.86,2.1407e-06,16.085,-7.2729e-13,-1.3346e-14,-2.1407e-06,-16.085,1.5739
9270,19.045,1.3636,0,0.00012412,1240.3,7.4362e-05,421.38,1.8256e-05,-0.17803,-0.00011145,-974.75,1.5733
9271,18.953,1.4545,0,0.00013159,1315,7.5519e-05,402.63,2.1911e-05,-0.15643,-0.00012003,-1066.6,1.5612
9272,19.045,1.4545,0.05,2.9038e-06,29.018,2.2297e-06,16.753,-8.3354e-22,2.1076e-06,-2.2297e-06,-16.753,1.5735
9273,19.045,1.1818,0,0.0001064,1063.3,6.2755e-05,347.95,1.6422e-05,-0.17628,-9.6121e-05,-845.78,1.5728
9274,18.953,1.2727,0,0.00011525,1151.7,6.5662e-05,346.31,1.9552e-05,-0.14092,-0.00010538,-938.83,1.5607
9275,19.045,1.2727,0.05,2.9593e-06,29.572,2.2723e-06,17.074,-1.2408e-16,-1.0408e-09,-2.2723e-06,-17.074,1.573
9276,19.045,1,0,9.0622e-05,905.6,5.1588e-05,271.74,1.5409e-05,-0.096758,-8.2886e-05,-738.65,1.5723
9277,18.953,1.0909,0,0.00010016,1000.9,5.5557e-05,281.19,1.8123e-05,-0.077232,-9.2363e-05,-830.23,1.5602
9278,19.045,1.0909,0.05,2.8315e-06,28.295,2.1742e-06,16.336,5.4301e-14,-3.4652e-15,-2.1742e-06,-16.336,1.5725
9279,19.045,0.81818,0,7.6977e-05,769.24,4.1435e-05,199.64,1.4861e-05,-0.021039,-7.1611e-05,-649.74,1.5718
9280,18.953,0.90909,0,8.6792e-05,867.32,4.5992e-05,215.68,1.7286e-05,-0.00068569,-8.1087e-05,-739.13,1.5597
9281,19.045,0.90909,0.05,2.6717e-06,26.699,2.0516e-06,15.415,4.4543e-13,1.8943e-06,-2.0516e-06,-15.415,1.572
9282,19.045,0.63636,0,6.5565e-05,655.2,3.2618e-05,135.63,1.4569e-05,0.02246,-6.2195e-05,-576.76,1.5712
9283,18.953,0.72727,0,7.5381e-05,753.29,3.7417e-05,154.88,1.681e-05,0.041985,-7.1542e-05,-663.8,1.5592
9284,19.045,0.72727,0.05,2.5411e-06,25.393,1.9513e-06,14.661,3.7435e-13,2.7712e-06,-1.9513e-06,-14.661,1.5715
9285,19.045,0.45455,0,5.6547e-05,565.08,2.541e-05,82.598,1.4423e-05,0.044837,-5.4687e-05,-519.22,1.5706
9286,18.953,0.54545,0,6.6078e-05,660.32,3.0126e-05,101.97,1.6567e-05,0.097364,-6.3749e-05,-603.37,1.5587
9287,19.045,0.54545,0.05,2.453e-06,24.513,1.8836e-06,14.153,2.264e-13,4.4196e-07,-1.8836e-06,-14.153,1.5709
9288,19.045,0.27273,0,5.0198e-05,501.64,2.0125e-05,43.23,1.4389e-05,0.13295,-4.9321e-05,-478.56,1.5701
9289,18.953,0.36364,0,5.9038e-05,589.97,2.4352e-05,59.211,1.6484e-05,0.098,-5.7806e-05,-558.09,1.5581
9290,19.045,0.36364,0.05,2.4256e-06,24.239,1.8626e-06,13.995,2.2449e-13,-5.6811e-07,-1.8626e-06,-13.995,1.5703
9291,18.953,0.18182,0,5.435e-05,543.13,2.0208e-05,27.595,1.6579e-05,0.32236,-5.3824e-05,-528.66,1.5575
9292,19.045,0.18182,0.05,2.6433e-06,26.415,2.0298e-06,15.251,4.1779e-13,2.718e-06,-2.0298e-06,-15.251,1.5698
9293,19.045,0.090909,0,4.5741e-05,457.09,1.6199e-05,13.284,1.4434e-05,0.02225,-4.55e-05,-450.3,1.5695
9294,18.86,5.7273,0,6.3283e-05,632.39,2.4541e-05,44.37,1.8668e-05,0.24214,-6.2408e-05,-608.93,1.5455
9295,18.768,5.8182,0,6.7205e-05,671.59,2.4514e-05,28.306,2.0786e-05,0.29924,-6.6675e-05,-656.85,1.533
9296,18.86,5.8182,0.05,2.4694e-06,24.677,1.8962e-06,14.247,6.8837e-13,4.7509e-06,-1.8962e-06,-14.247,1.5452
9297,18.86,5.9091,0,5.9281e-05,592.4,2.0752e-05,14.355,1.8858e-05,0.12166,-5.9022e-05,-585.03,1.545
9298,18.86,5.5455,0,6.8854e-05,688.07,2.9329e-05,80.553,1.8626e-05,0.13168,-6.7128e-05,-644.19,1.5461
9299,18.768,5.6364,0,7.1625e-05,715.76,2.8614e-05,60.379,2.059e-05,0.090166,-7.0406e-05,-683.62,1.5336
9300,18.86,5.6364,0.05,2.2867e-06,22.851,1.7559e-06,13.193,6.6356e-13,3.7298e-06,-1.7559e-06,-13.193,1.5458
9301,18.86,5.3636,0,7.6437e-05,763.84,3.5381e-05,124.64,1.8807e-05,0.10844,-7.3549e-05,-693.82,1.5467
9302,18.768,5.4545,0,7.7717e-05,776.63,3.3671e-05,97.941,2.0652e-05,0.11728,-7.5585e-05,-722.97,1.5341
9303,18.86,5.4545,0.05,2.2907e-06,22.891,1.759e-06,13.216,7.6739e-13,4.3378e-06,-1.759e-06,-13.216,1.5464
9304,18.86,5.1818,0,8.5972e-05,859.13,4.2587e-05,175.53,1.9234e-05,0.058926,-8.163e-05,-757.79,1.5472
9305,18.768,5.2727,0,8.5554e-05,854.95,3.9739e-05,141.22,2.0953e-05,0.06074,-8.2271e-05,-775.52,1.5347
9306,18.86,5.2727,0.05,2.3214e-06,23.198,1.7825e-06,13.393,5.7052e-13,-2.6182e-06,-1.7825e-06,-13.393,1.5469
9307,18.86,5,0,9.7287e-05,972.19,5.0687e-05,230.59,2e-05,0.018632,-9.1289e-05,-836.16,1.5477
9308,18.768,5.0909,0,9.5052e-05,949.86,4.6672e-05,188.77,2.155e-05,0.021744,-9.0422e-05,-841.29,1.5352
9309,18.86,5.0909,0.05,2.3563e-06,23.547,1.8093e-06,13.595,4.5411e-14,-3.9507e-06,-1.8093e-06,-13.595,1.5474
9310,18.86,4.8182,0,0.00011008,1100,5.9248e-05,285.44,2.1254e-05,-0.04038,-0.00010241,-929.17,1.5482
9311,18.768,4.9091,0,0.00010599,1059.2,5.416e-05,237.54,2.2543e-05,-0.015787,-9.9931e-05,-920.23,1.5357
9312,18.86,4.9091,0.05,2.3674e-06,23.658,1.8179e-06,13.659,1.1901e-14,-5.6198e-06,-1.8179e-06,-13.659,1.5479
9313,18.86,4.6364,0,0.00012379,1237.1,6.7574e-05,333.23,2.3208e-05,-0.11824,-0.00011471,-1036.4,1.5486
9314,18.768,4.7273,0,0.00011798,1179,6.1709e-05,282.71,2.4074e-05,-0.064731,-0.0001106,-1011.9,1.5361
9315,18.86,4.7273,0.05,2.3081e-06,23.066,1.7724e-06,13.317,-6.9733e-13,-9.184e-06,-1.7724e-06,-13.317,1.5484
9316,18.86,4.4545,0,0.00013749,1373.9,7.4582e-05,364.13,2.6131e-05,0.082531,-0.00012762,-1155.2,1.549
9317,18.768,4.5455,0,0.00013035,1302.6,6.8562e-05,317.27,2.6321e-05,-0.11519,-0.00012202,-1114.7,1.5365
9318,18.86,4.5455,0.05,2.1303e-06,21.289,1.6358e-06,12.291,-1.278e-12,-1.5817e-05,-1.6358e-06,-12.291,1.5488
9319,18.86,4.2727,0,0.00014979,1496.8,7.9009e-05,367.62,3.0103e-05,0.16611,-0.0001401,-1278.7,1.5494
9320,18.768,4.3636,0,0.00014209,1419.9,7.3697e-05,332.52,2.9453e-05,0.079799,-0.00013348,-1224.2,1.5369
9321,18.86,4.3636,0.05,1.8074e-06,18.062,1.3879e-06,10.428,-2.034e-12,-4.7018e-05,-1.3879e-06,-10.428,1.5492
9322,18.86,4.0909,0,0.00015965,1595.4,8.0292e-05,341.46,3.4884e-05,0.28648,-0.00015108,-1397,1.5497
9323,18.768,4.1818,0,0.00015204,1519.4,7.6234e-05,322.06,3.3365e-05,-0.033584,-0.00014398,-1332.5,1.5372
9324,18.86,4.1818,0.05,1.612e-06,16.109,1.2378e-06,9.3007,-4.3924e-12,-3.8845e-05,-1.2378e-06,-9.3007,1.5496
9325,18.86,3.9091,0,0.00016705,1669.3,7.927e-05,297.24,3.9806e-05,0.72272,-0.00015999,-1500.5,1.55
9326,18.768,4,0,0.00015975,1596.4,7.6287e-05,290.04,3.7712e-05,0.20498,-0.00015283,-1431.4,1.5375
9327,18.86,4,0.05,1.6864e-06,16.852,1.2949e-06,9.7297,-6.621e-12,-5.5891e-05,-1.2949e-06,-9.7297,1.5499
9328,18.86,3.7273,0,0.00017251,1723.9,7.7595e-05,253.12,4.397e-05,0.47845,-0.0001668,-1583.2,1.5502
9329,18.768,3.8182,0,0.00016554,1654.3,7.5057e-05,250.32,4.1789e-05,0.35222,-0.00015985,-1514.7,1.5378
9330,18.86,3.8182,0.05,1.7453e-06,17.441,1.3401e-06,10.069,-2.4896e-12,-3.4363e-05,-1.3401e-06,-10.069,1.5501
9331,18.86,3.5455,0,0.00017656,1764.3,7.6421e-05,221.5,4.6956e-05,0.11262,-0.00017174,-1643.1,1.5504
9332,18.768,3.6364,0,0.00016997,1698.5,7.3878e-05,217.04,4.4999e-05,0.05799,-0.00016523,-1579.5,1.538
9333,18.86,3.6364,0.05,1.7151e-06,17.139,1.317e-06,9.895,-1.3106e-12,-2.2589e-05,-1.317e-06,-9.8951,1.5503
9334,18.86,3.3636,0,0.00017933,1792.1,7.591e-05,203.74,4.8814e-05,0.1444,-0.000175,-1681.5,1.5505
9335,18.768,3.4545,0,0.00017328,1731.6,7.3267e-05,195.86,4.7216e-05,0.12476,-0.00016911,-1625.3,1.5381
9336,18.86,3.4545,0.05,1.5937e-06,15.926,1.2237e-06,9.1946,-3.3035e-14,-1.6528e-05,-1.2237e-06,-9.1946,1.5505
9337,18.86,3.1818,0,0.00018089,1807.7,7.5759e-05,195.46,4.9762e-05,0.12485,-0.00017677,-1702,1.5506
9338,18.768,3.2727,0,0.00017543,1753.1,7.3077e-05,184.67,4.8514e-05,0.11971,-0.00017156,-1653.4,1.5382
9339,18.86,3.2727,0.05,1.4688e-06,14.678,1.1279e-06,8.4744,1.8862e-12,-9.728e-06,-1.1279e-06,-8.4745,1.5506
9340,18.86,3,0,0.00018139,1812.6,7.5731e-05,193.08,5.0048e-05,0.11131,-0.00017733,-1708.3,1.5506
9341,18.768,3.0909,0,0.00017647,1763.5,7.3045e-05,180.02,4.91e-05,0.111,-0.00017272,-1666.5,1.5382
9342,18.86,3.0909,0.05,1.391e-06,13.9,1.0681e-06,8.0252,6.8108e-13,-3.7278e-06,-1.0681e-06,-8.0252,1.5506
9343,18.86,2.8182,0,0.00018089,1807.7,7.5759e-05,195.46,4.9762e-05,0.12485,-0.00017677,-1702,1.5506
9344,18.768,2.9091,0,0.00017647,1763.5,7.3045e-05,180.02,4.91e-05,0.111,-0.00017272,-1666.5,1.5382
9345,18.86,2.9091,0.05,1.391e-06,13.9,1.0681e-06,8.0252,1.1159e-12,-2.3483e-06,-1.0681e-06,-8.0252,1.5506
9346,18.86,2.6364,0,0.00017933,1792.1,7.591e-05,203.74,4.8814e-05,0.1444,-0.000175,-1681.5,1.5505
9347,18.768,2.7273,0,0.00017543,1753.1,7.3077e-05,184.67,4.8514e-05,0.11971,-0.00017156,-1653.4,1.5382
9348,18.86,2.7273,0.05,1.4688e-06,14.678,1.1279e-06,8.4744,5.5427e-13,3.3844e-06,-1.1279e-06,-8.4745,1.5506
9349,18.86,2.4545,0,0.00017656,1764.3,7.6421e-05,221.5,4.6956e-05,0.11262,-0.00017174,-1643.1,1.5504
9350,18.768,2.5455,0,0.00017328,1731.6,7.3267e-05,195.86,4.7216e-05,0.12476,-0.00016911,-1625.3,1.5381
9351,18.86,2.5455,0.05,1.5937e-06,15.926,1.2237e-06,9.1946,1.6299e-12,-2.7621e-07,-1.2237e-06,-9.1946,1.5505
9352,18.86,2.2727,0,0.00017251,1723.9,7.7595e-05,253.12,4.397e-05,0.47845,-0.0001668,-1583.2,1.5502
9353,18.768,2.3636,0,0.00016997,1698.5,7.3878e-05,217.04,4.4999e-05,0.05799,-0.00016523,-1579.5,1.538
9354,18.86,2.3636,0.05,1.7151e-06,17.139,1.317e-06,9.895,1.3097e-12,-3.6432e-10,-1.317e-06,-9.8951,1.5503
9355,18.86,2.0909,0,0.00016705,1669.3,7.927e-05,297.24,3.9806e-05,0.72272,-0.00015999,-1500.5,1.55
9356,18.768,2.1818,0,0.00016554,1654.3,7.5057e-05,250.32,4.1789e-05,0.35222,-0.00015985,-1514.7,1.5378
9357,18.86,2.1818,0.05,1.7453e-06,17.441,1.3401e-06,10.069,3.2819e-13,-1.1895e-05,-1.3401e-06,-10.069,1.5501
9358,18.86,1.9091,0,0.00015965,1595.4,8.0291e-05,341.46,3.4884e-05,0.28648,-0.00015108,-1397,1.5497
9359,18.768,2,0,0.00015975,1596.4,7.6287e-05,290.04,3.7712e-05,0.20499,-0.00015283,-1431.4,1.5375
9360,18.86,2,0.05,1.6864e-06,16.852,1.2949e-06,9.7297,1.2203e-13,-1.2932e-05,-1.2949e-06,-9.7297,1.5499
9361,18.86,1.7273,0,0.00014979,1496.8,7.9009e-05,367.62,3.0103e-05,0.16611,-0.0001401,-1278.7,1.5494
9362,18.768,1.8182,0,0.00015204,1519.4,7.6234e-05,322.06,3.3366e-05,-0.033584,-0.00014398,-1332.5,1.5372
9363,18.86,1.8182,0.05,1.612e-06,16.109,1.2378e-06,9.3007,-3.539e-13,-3.6784e-06,-1.2378e-06,-9.3007,1.5496
9364,18.86,1.5455,0,0.00013749,1373.9,7.4582e-05,364.13,2.6131e-05,0.082531,-0.00012762,-1155.2,1.549
9365,18.768,1.6364,0,0.00014209,1419.9,7.3697e-05,332.52,2.9453e-05,0.079798,-0.00013348,-1224.2,1.5369
9366,18.86,1.6364,0.05,1.8074e-06,18.062,1.3879e-06,10.428,-2.9439e-22,-3.5248e-06,-1.3879e-06,-10.428,1.5492
9367,18.86,1.3636,0,0.00012379,1237.1,6.7574e-05,333.23,2.3208e-05,-0.11824,-0.00011471,-1036.4,1.5486
9368,18.768,1.4545,0,0.00013035,1302.6,6.8562e-05,317.27,2.6321e-05,-0.11519,-0.00012202,-1114.7,1.5365
9369,18.86,1.4545,0.05,2.1303e-06,21.289,1.6358e-06,12.291,8.6073e-13,-2.5367e-06,-1.6358e-06,-12.291,1.5488
9370,18.86,1.1818,0,0.00011008,1100,5.9248e-05,285.44,2.1254e-05,-0.04038,-0.00010241,-929.17,1.5482
9371,18.768,1.2727,0,0.00011798,1179,6.1709e-05,282.71,2.4074e-05,-0.064731,-0.0001106,-1011.9,1.5361
9372,18.86,1.2727,0.05,2.3081e-06,23.066,1.7724e-06,13.317,4.4507e-13,-6.4915e-08,-1.7724e-06,-13.317,1.5484
9373,18.86,1,0,9.7287e-05,972.19,5.0687e-05,230.59,2e-05,0.018634,-9.1289e-05,-836.16,1.5477
9374,18.768,1.0909,0,0.00010599,1059.2,5.416e-05,237.54,2.2543e-05,-0.015787,-9.9931e-05,-920.23,1.5357
9375,18.86,1.0909,0.05,2.3674e-06,23.658,1.8179e-06,13.659,4.5434e-13,1.907e-06,-1.8179e-06,-13.659,1.5479
9376,18.86,0.81818,0,8.5972e-05,859.13,4.2587e-05,175.53,1.9234e-05,0.058929,-8.163e-05,-757.79,1.5472
9377,18.768,0.90909,0,9.5052e-05,949.86,4.6672e-05,188.77,2.155e-05,0.021746,-9.0422e-05,-841.29,1.5352
9378,18.86,0.90909,0.05,2.3563e-06,23.547,1.8093e-06,13.595,1.3604e-12,9.5102e-07,-1.8093e-06,-13.595,1.5474
9379,18.86,0.63636,0,7.6437e-05,763.84,3.5381e-05,124.64,1.8807e-05,0.10844,-7.3549e-05,-693.82,1.5467
9380,18.768,0.72727,0,8.5554e-05,854.95,3.9739e-05,141.22,2.0953e-05,0.060742,-8.2271e-05,-775.52,1.5347
9381,18.86,0.72727,0.05,2.3214e-06,23.198,1.7825e-06,13.393,3.8908e-13,2.1268e-06,-1.7825e-06,-13.393,1.5469
9382,18.86,0.45455,0,6.8854e-05,688.07,2.9329e-05,80.553,1.8626e-05,0.13168,-6.7128e-05,-644.19,1.5461
9383,18.768,0.54545,0,7.7717e-05,776.63,3.3671e-05,97.941,2.0652e-05,0.11728,-7.5585e-05,-722.97,1.5341
9384,18.86,0.54545,0.05,2.2907e-06,22.891,1.759e-06,13.216,6.4266e-13,-1.1868e-07,-1.759e-06,-13.216,1.5464
9385,18.86,0.27273,0,6.3283e-05,632.39,2.4541e-05,44.37,1.8668e-05,0.24214,-6.2408e-05,-608.93,1.5455
9386,18.768,0.36364,0,7.1625e-05,715.76,2.8614e-05,60.379,2.059e-05,0.090165,-7.0406e-05,-683.62,1.5336
9387,18.86,0.36364,0.05,2.2867e-06,22.851,1.7559e-06,13.193,4.0222e-13,1.4928e-06,-1.7559e-06,-13.193,1.5458
9388,18.768,0.18182,0,6.7205e-05,671.59,2.4514e-05,28.306,2.0786e-05,0.29924,-6.6675e-05,-656.85,1.533
9389,18.86,0.18182,0.05,2.4694e-06,24.677,1.8962e-06,14.247,3.6398e-13,3.6124e-06,-1.8962e-06,-14.247,1.5452
9390,18.86,0.090909,0,5.9281e-05,592.4,2.0752e-05,14.355,1.8858e-05,0.12166,-5.9022e-05,-585.03,1.545
9391,18.675,5.7273,0,7.5584e-05,755.32,2.8638e-05,44.7,2.2708e-05,0.14625,-7.4723e-05,-731.91,1.5211
9392,18.583,5.8182,0,7.9155e-05,791,2.8467e-05,28.318,2.4719e-05,0.1614,-7.8633e-05,-776.39,1.5086
9393,18.675,5.8182,0.05,2.2512e-06,22.496,1.7286e-06,12.988,7.3398e-13,5.132e-06,-1.7286e-06,-12.988,1.5208
9394,18.675,5.9091,0,7.1905e-05,718.56,2.4959e-05,14.811,2.2998e-05,0.076525,-7.1641e-05,-711,1.5205
9395,18.675,5.5455,0,8.0629e-05,805.73,3.3092e-05,78.787,2.2615e-05,0.071405,-7.8998e-05,-763.41,1.5216
9396,18.583,5.6364,0,8.3337e-05,832.8,3.2482e-05,60.27,2.4464e-05,0.020217,-8.2148e-05,-801.02,1.5091
9397,18.675,5.6364,0.05,2.1169e-06,21.154,1.6255e-06,12.213,7.5252e-13,4.313e-06,-1.6255e-06,-12.213,1.5213
9398,18.675,5.3636,0,8.7129e-05,870.69,3.8285e-05,116.44,2.2797e-05,0.067024,-8.4562e-05,-806.59,1.5222
9399,18.583,5.4545,0,8.8705e-05,886.43,3.7002e-05,94.03,2.4498e-05,0.084605,-8.6729e-05,-835.64,1.5097
9400,18.675,5.4545,0.05,2.0995e-06,20.981,1.6122e-06,12.113,5.635e-13,4.3348e-06,-1.6122e-06,-12.113,1.5219
9401,18.675,5.1818,0,9.5085e-05,950.2,4.419e-05,157.22,2.3269e-05,0.022703,-9.143e-05,-861.78,1.5227
9402,18.583,5.2727,0,9.5349e-05,952.84,4.2113e-05,130.09,2.4804e-05,0.037396,-9.2467e-05,-881.09,1.5102
9403,18.675,5.2727,0.05,2.0864e-06,20.849,1.6021e-06,12.037,5.508e-13,-1.2563e-06,-1.6021e-06,-12.037,1.5224
9404,18.675,5,0,0.00010433,1042.6,5.059e-05,199.07,2.4093e-05,-0.012574,-9.9508e-05,-928.71,1.5232
9405,18.583,5.0909,0,0.0001032,1031.3,4.7712e-05,167.48,2.5423e-05,0.010725,-9.9327e-05,-937.31,1.5107
9406,18.675,5.0909,0.05,2.0574e-06,20.56,1.5799e-06,11.87,5.1173e-13,-6.2889e-06,-1.5799e-06,-11.87,1.5229
9407,18.675,4.8182,0,0.00011453,1144.5,5.7095e-05,238.38,2.5363e-05,-0.039939,-0.0001086,-1006.6,1.5236
9408,18.583,4.9091,0,0.00011203,1119.6,5.3536e-05,203.77,2.6414e-05,-0.016968,-0.00010717,-1003.7,1.5111
9409,18.675,4.9091,0.05,1.9903e-06,19.889,1.5283e-06,11.483,-9.0423e-14,-2.7956e-06,-1.5283e-06,-11.483,1.5234
9410,18.675,4.6364,0,0.00012514,1250.6,6.3136e-05,270.05,2.7187e-05,-0.062409,-0.00011834,-1093.5,1.524
9411,18.583,4.7273,0,0.00012146,1213.7,5.917e-05,235.24,2.7857e-05,-0.032809,-0.00011573,-1078.9,1.5116
9412,18.675,4.7273,0.05,1.8605e-06,18.592,1.4286e-06,10.734,-5.1205e-13,-1.1557e-05,-1.4286e-06,-10.734,1.5238
9413,18.675,4.4545,0,0.00013543,1353.4,6.801e-05,288.16,2.9642e-05,-0.12039,-0.00012821,-1186.2,1.5244
9414,18.583,4.5455,0,0.00013091,1308.2,6.4064e-05,257.22,2.9825e-05,-0.045483,-0.00012462,-1160.5,1.512
9415,18.675,4.5455,0.05,1.653e-06,16.519,1.2693e-06,9.537,-1.4064e-12,-1.0603e-05,-1.2693e-06,-9.537,1.5242
9416,18.675,4.2727,0,0.00014463,1445.3,7.1114e-05,288.4,3.2715e-05,-0.1217,-0.00013755,-1279.4,1.5248
9417,18.583,4.3636,0,0.0001397,1396.1,6.7635e-05,265.16,3.2333e-05,-0.082772,-0.00013329,-1244.5,1.5123
9418,18.675,4.3636,0.05,1.4083e-06,14.073,1.0814e-06,8.125,-2.9073e-12,-3.2578e-05,-1.0814e-06,-8.1251,1.5246
9419,18.675,4.0909,0,0.00015225,1521.4,7.2309e-05,271.24,3.6193e-05,-0.11457,-0.00014581,-1367.6,1.5251
9420,18.583,4.1818,0,0.00014727,1471.7,6.9539e-05,257.3,3.5289e-05,-0.046018,-0.00014119,-1326.1,1.5126
9421,18.675,4.1818,0.05,1.2327e-06,12.318,9.4656e-07,7.1121,-5.4458e-12,-6.0232e-05,-9.4656e-07,-7.1121,1.5249
9422,18.675,3.9091,0,0.00015826,1581.5,7.2094e-05,243.27,3.9695e-05,-0.16195,-0.00015271,-1445.8,1.5253
9423,18.583,4,0,0.00015337,1532.6,6.9938e-05,236.7,3.8426e-05,-0.072112,-0.00014796,-1400.5,1.5129
9424,18.675,4,0.05,1.1766e-06,11.757,9.0345e-07,6.7882,-3.7418e-12,-6.1868e-05,-9.0345e-07,-6.7882,1.5252
9425,18.675,3.7273,0,0.00016298,1628.6,7.1331e-05,214.17,4.2818e-05,-0.059977,-0.00015827,-1511,1.5255
9426,18.583,3.8182,0,0.00015818,1580.7,6.9473e-05,210.86,4.14e-05,-0.071652,-0.00015354,-1464.8,1.5131
9427,18.675,3.8182,0.05,1.1589e-06,11.581,8.8993e-07,6.6866,-5.6531e-12,-4.7351e-05,-8.8993e-07,-6.6866,1.5254
9428,18.675,3.5455,0,0.00016665,1665.4,7.0691e-05,191.16,4.526e-05,0.079985,-0.00016257,-1561.5,1.5257
9429,18.583,3.6364,0,0.000162,1618.9,6.8857e-05,187.52,4.3905e-05,0.036077,-0.00015799,-1516.9,1.5133
9430,18.675,3.6364,0.05,1.1221e-06,11.213,8.6165e-07,6.4741,-2.4205e-12,-3.1955e-05,-8.6165e-07,-6.4741,1.5256
9431,18.675,3.3636,0,0.00016932,1692.1,7.0386e-05,176.44,4.6918e-05,0.10609,-0.00016563,-1596.9,1.5258
9432,18.583,3.4545,0,0.00016493,1648.2,6.847e-05,170.73,4.5757e-05,0.075418,-0.00016136,-1556.1,1.5134
9433,18.675,3.4545,0.05,1.0836e-06,10.829,8.321e-07,6.2521,-7.4135e-13,-1.4729e-05,-8.321e-07,-6.2521,1.5257
9434,18.675,3.1818,0,0.00017095,1708.3,7.0307e-05,168.82,4.7853e-05,0.10938,-0.00016745,-1617.6,1.5259
9435,18.583,3.2727,0,0.00016694,1668.2,6.8329e-05,160.8,4.694e-05,0.0906,-0.00016362,-1582,1.5135
9436,18.675,3.2727,0.05,1.0494e-06,10.487,8.0581e-07,6.0545,4.8458e-13,-7.6838e-06,-8.0581e-07,-6.0546,1.5258
9437,18.675,3,0,0.00017149,1713.7,7.0301e-05,166.53,4.8153e-05,0.1136,-0.00016805,-1624.3,1.5259
9438,18.583,3.0909,0,0.00016796,1678.4,6.8306e-05,156.36,4.7509e-05,0.10101,-0.00016475,-1594.7,1.5136
9439,18.675,3.0909,0.05,1.0294e-06,10.287,7.9045e-07,5.9391,2.3725e-12,-2.581e-06,-7.9046e-07,-5.9392,1.5259
9440,18.675,2.8182,0,0.00017095,1708.3,7.0307e-05,168.82,4.7853e-05,0.10938,-0.00016745,-1617.6,1.5259
9441,18.583,2.9091,0,0.00016796,1678.4,6.8306e-05,156.36,4.7509e-05,0.10101,-0.00016475,-1594.7,1.5136
9442,18.675,2.9091,0.05,1.0294e-06,10.287,7.9045e-07,5.9391,1.1911e-12,2.0829e-06,-7.9046e-07,-5.9392,1.5259
9443,18.675,2.6364,0,0.00016932,1692.1,7.0386e-05,176.44,4.6918e-05,0.10609,-0.00016563,-1596.9,1.5258
9444,18.583,2.7273,0,0.00016694,1668.2,6.8329e-05,160.8,4.694e-05,0.0906,-0.00016362,-1582,1.5135
9445,18.675,2.7273,0.05,1.0494e-06,10.487,8.0581e-07,6.0545,6.98e-13,3.5773e-06,-8.0581e-07,-6.0546,1.5258
9446,18.675,2.4545,0,0.00016665,1665.4,7.0691e-05,191.16,4.526e-05,0.079986,-0.00016257,-1561.5,1.5257
9447,18.583,2.5455,0,0.00016493,1648.2,6.847e-05,170.73,4.5757e-05,0.075419,-0.00016136,-1556.1,1.5134
9448,18.675,2.5455,0.05,1.0836e-06,10.829,8.321e-07,6.2521,1.6992e-12,5.4962e-06,-8.321e-07,-6.2521,1.5257
9449,18.675,2.2727,0,0.00016298,1628.6,7.1331e-05,214.17,4.2818e-05,-0.059976,-0.00015827,-1511,1.5255
9450,18.583,2.3636,0,0.000162,1618.9,6.8857e-05,187.52,4.3905e-05,0.036078,-0.00015799,-1516.9,1.5133
9451,18.675,2.3636,0.05,1.1221e-06,11.213,8.6165e-07,6.4741,5.798e-13,2.1113e-06,-8.6165e-07,-6.4741,1.5256
9452,18.675,2.0909,0,0.00015826,1581.5,7.2094e-05,243.27,3.9695e-05,-0.16195,-0.00015271,-1445.8,1.5253
9453,18.583,2.1818,0,0.00015818,1580.7,6.9473e-05,210.86,4.14e-05,-0.071652,-0.00015354,-1464.8,1.5131
9454,18.675,2.1818,0.05,1.1589e-06,11.581,8.8993e-07,6.6866,-2.5449e-12,-7.3082e-06,-8.8993e-07,-6.6866,1.5254
9455,18.675,1.9091,0,0.00015225,1521.4,7.2309e-05,271.24,3.6193e-05,-0.11457,-0.00014581,-1367.6,1.5251
9456,18.583,2,0,0.00015337,1532.6,6.9938e-05,236.7,3.8426e-05,-0.072112,-0.00014796,-1400.5,1.5129
9457,18.675,2,0.05,1.1766e-06,11.757,9.0345e-07,6.7882,-1.8902e-12,-4.6485e-05,-9.0345e-07,-6.7882,1.5252
9458,18.675,1.7273,0,0.00014463,1445.3,7.1114e-05,288.4,3.2715e-05,-0.1217,-0.00013755,-1279.4,1.5248
9459,18.583,1.8182,0,0.00014727,1471.7,6.9539e-05,257.3,3.5289e-05,-0.046018,-0.00014119,-1326.1,1.5126
9460,18.675,1.8182,0.05,1.2327e-06,12.318,9.4656e-07,7.1121,-3.1192e-12,-1.6462e-05,-9.4656e-07,-7.1121,1.5249
9461,18.675,1.5455,0,0.00013543,1353.4,6.801e-05,288.16,2.9642e-05,-0.12039,-0.00012821,-1186.2,1.5244
9462,18.583,1.6364,0,0.0001397,1396.1,6.7635e-05,265.16,3.2333e-05,-0.082773,-0.00013329,-1244.5,1.5123
9463,18.675,1.6364,0.05,1.4083e-06,14.073,1.0814e-06,8.125,-8.548e-13,-1.4912e-05,-1.0814e-06,-8.1251,1.5246
9464,18.675,1.3636,0,0.00012514,1250.6,6.3136e-05,270.05,2.7187e-05,-0.062409,-0.00011834,-1093.5,1.524
9465,18.583,1.4545,0,0.00013091,1308.2,6.4064e-05,257.22,2.9825e-05,-0.045482,-0.00012462,-1160.5,1.512
9466,18.675,1.4545,0.05,1.653e-06,16.519,1.2693e-06,9.537,4.1964e-14,-3.151e-06,-1.2693e-06,-9.537,1.5242
9467,18.675,1.1818,0,0.00011453,1144.5,5.7095e-05,238.38,2.5363e-05,-0.039938,-0.0001086,-1006.6,1.5236
9468,18.583,1.2727,0,0.00012146,1213.7,5.917e-05,235.24,2.7857e-05,-0.032808,-0.00011573,-1078.9,1.5116
9469,18.675,1.2727,0.05,1.8605e-06,18.592,1.4286e-06,10.734,7.7343e-13,-1.1414e-06,-1.4286e-06,-10.734,1.5238
9470,18.675,1,0,0.00010433,1042.6,5.059e-05,199.07,2.4093e-05,-0.012574,-9.9508e-05,-928.71,1.5232
9471,18.583,1.0909,0,0.00011203,1119.6,5.3536e-05,203.77,2.6414e-05,-0.016967,-0.00010717,-1003.7,1.5111
9472,18.675,1.0909,0.05,1.9903e-06,19.889,1.5283e-06,11.483,4.5331e-13,-8.0363e-09,-1.5283e-06,-11.483,1.5234
9473,18.675,0.81818,0,9.5085e-05,950.2,4.419e-05,157.22,2.3269e-05,0.022704,-9.143e-05,-861.78,1.5227
9474,18.583,0.90909,0,0.0001032,1031.3,4.7712e-05,167.48,2.5423e-05,0.010725,-9.9327e-05,-937.31,1.5107
9475,18.675,0.90909,0.05,2.0574e-06,20.56,1.5799e-06,11.87,4.5384e-13,4.7602e-06,-1.5799e-06,-11.87,1.5229
9476,18.675,0.63636,0,8.7129e-05,870.69,3.8285e-05,116.44,2.2797e-05,0.067026,-8.4562e-05,-806.59,1.5222
9477,18.583,0.72727,0,9.5349e-05,952.83,4.2113e-05,130.09,2.4804e-05,0.037399,-9.2467e-05,-881.09,1.5102
9478,18.675,0.72727,0.05,2.0864e-06,20.849,1.6021e-06,12.037,8.7819e-13,2.5589e-06,-1.6021e-06,-12.037,1.5224
9479,18.675,0.45455,0,8.0629e-05,805.73,3.3092e-05,78.787,2.2615e-05,0.071406,-7.8998e-05,-763.41,1.5216
9480,18.583,0.54545,0,8.8705e-05,886.43,3.7002e-05,94.03,2.4498e-05,0.084606,-8.6729e-05,-835.64,1.5097
9481,18.675,0.54545,0.05,2.0995e-06,20.981,1.6122e-06,12.113,4.1149e-13,3.3343e-06,-1.6122e-06,-12.113,1.5219
9482,18.675,0.27273,0,7.5584e-05,755.32,2.8638e-05,44.7,2.2708e-05,0.14625,-7.4723e-05,-731.91,1.5211
9483,18.583,0.36364,0,8.3337e-05,832.8,3.2482e-05,60.27,2.4464e-05,0.020217,-8.2148e-05,-801.02,1.5091
9484,18.675,0.36364,0.05,2.1169e-06,21.154,1.6255e-06,12.213,3.3441e-13,1.824e-06,-1.6255e-06,-12.213,1.5213
9485,18.583,0.18182,0,7.9155e-05,791,2.8467e-05,28.318,2.4719e-05,0.1614,-7.8633e-05,-776.39,1.5086
9486,18.675,0.18182,0.05,2.2512e-06,22.496,1.7286e-06,12.988,6.3347e-13,2.7364e-06,-1.7286e-06,-12.988,1.5208
9487,18.675,0.090909,0,7.1905e-05,718.56,2.4959e-05,14.811,2.2998e-05,0.076524,-7.1641e-05,-711,1.5205
9488,18.491,5.7273,0,8.692e-05,868.6,3.2335e-05,44.064,2.6479e-05,0.068075,-8.6086e-05,-845.7,1.4966
9489,18.398,5.8182,0,9.0147e-05,900.85,3.2063e-05,27.851,2.8362e-05,0.044464,-8.964e-05,-886.58,1.4842
9490,18.491,5.8182,0.05,2.0116e-06,20.102,1.5446e-06,11.606,9.8124e-13,4.8699e-06,-1.5446e-06,-11.606,1.4963
9491,18.491,5.9091,0,8.3538e-05,834.81,2.8806e-05,14.896,2.6831e-05,0.056682,-8.3274e-05,-827.23,1.4961
9492,18.491,5.5455,0,9.149e-05,914.27,3.647e-05,76.097,2.6347e-05,0.037357,-8.9957e-05,-873.83,1.4972
9493,18.398,5.6364,0,9.4038e-05,939.73,3.5903e-05,58.816,2.8071e-05,-0.028862,-9.29e-05,-908.96,1.4847
9494,18.491,5.6364,0.05,1.9368e-06,19.355,1.4873e-06,11.175,5.9923e-13,4.8862e-06,-1.4873e-06,-11.175,1.4969
9495,18.491,5.3636,0,9.7094e-05,970.27,4.0978e-05,108.8,2.6505e-05,0.056017,-9.4784e-05,-911.26,1.4977
9496,18.398,5.4545,0,9.877e-05,987.02,3.9957e-05,89.349,2.8074e-05,0.064918,-9.6945e-05,-939.28,1.4853
9497,18.491,5.4545,0.05,1.9052e-06,19.039,1.463e-06,10.992,1.4963e-12,6.1224e-06,-1.463e-06,-10.992,1.4974
9498,18.491,5.1818,0,0.00010373,1036.6,4.5851e-05,141.98,2.6958e-05,0.025928,-0.00010058,-958.26,1.4982
9499,18.398,5.2727,0,0.00010441,1043.4,4.4298e-05,119.86,2.8349e-05,0.031282,-0.00010185,-978.24,1.4858
9500,18.491,5.2727,0.05,1.8647e-06,18.634,1.4318e-06,10.758,1.2235e-13,1.6788e-06,-1.4318e-06,-10.758,1.498
9501,18.491,5,0,0.00011124,1111.7,5.0924e-05,174.17,2.7744e-05,0.0065821,-0.00010725,-1014.3,1.4987
9502,18.398,5.0909,0,0.00011088,1108,4.8847e-05,149.7,2.8925e-05,0.017996,-0.00010757,-1025.6,1.4862
9503,18.491,5.0909,0.05,1.8018e-06,18.005,1.3835e-06,10.395,1.8582e-14,1.3014e-07,-1.3835e-06,-10.395,1.4984
9504,18.491,4.8182,0,0.00011934,1192.5,5.5893e-05,202.74,2.8909e-05,-0.010055,-0.00011459,-1078.2,1.4991
9505,18.398,4.9091,0,0.00011798,1179,5.34e-05,177.1,2.983e-05,0.002927,-0.00011396,-1080.4,1.4867
9506,18.491,4.9091,0.05,1.7035e-06,17.023,1.3081e-06,9.8282,3.0461e-13,-7.4279e-06,-1.3081e-06,-9.8282,1.4989
9507,18.491,4.6364,0,0.00012758,1274.9,6.0356e-05,224.35,3.0495e-05,-0.016704,-0.00012227,-1147.9,1.4995
9508,18.398,4.7273,0,0.00012538,1253,5.7653e-05,199.51,3.1098e-05,-0.00674,-0.00012079,-1141.3,1.4871
9509,18.491,4.7273,0.05,1.5596e-06,15.585,1.1976e-06,8.9982,-1.7458e-13,-6.1536e-06,-1.1976e-06,-8.9982,1.4993
9510,18.491,4.4545,0,0.00013546,1353.7,6.3888e-05,235.72,3.2515e-05,-0.0089006,-0.0001299,-1220.4,1.4999
9511,18.398,4.5455,0,0.00013267,1325.8,6.1243e-05,214.1,3.2746e-05,-0.0093032,-0.00012773,-1205.8,1.4875
9512,18.491,4.5455,0.05,1.3742e-06,13.732,1.0552e-06,7.9282,-1.9315e-13,-1.1299e-05,-1.0552e-06,-7.9282,1.4997
9513,18.491,4.2727,0,0.00014252,1424.2,6.6188e-05,235.02,3.4907e-05,-0.0076127,-0.00013706,-1292.1,1.5002
9514,18.398,4.3636,0,0.00013941,1393.2,6.385e-05,218.65,3.4748e-05,-0.0054192,-0.0001344,-1270.9,1.4878
9515,18.491,4.3636,0.05,1.1757e-06,11.749,9.0277e-07,6.7831,-1.5634e-12,-1.6207e-05,-9.0277e-07,-6.7831,1.5001
9516,18.491,4.0909,0,0.00014848,1483.8,6.7238e-05,223.28,3.7521e-05,-0.0033791,-0.00014342,-1359.5,1.5005
9517,18.398,4.1818,0,0.00014527,1451.7,6.533e-05,212.78,3.7009e-05,-0.014191,-0.00014047,-1333.5,1.4881
9518,18.491,4.1818,0.05,1.0108e-06,10.101,7.7618e-07,5.8319,-3.6407e-12,-5.3744e-05,-7.7618e-07,-5.8319,1.5004
9519,18.491,3.9091,0,0.00015333,1532.3,6.735e-05,204.54,4.013e-05,0.01927,-0.00014882,-1419.7,1.5007
9520,18.398,4,0,0.00015011,1500.1,6.582e-05,198.8,3.9361e-05,-0.0077078,-0.00014574,-1390.8,1.4884
9521,18.491,4,0.05,8.9795e-07,8.9733,6.8952e-07,5.1807,-2.2572e-12,-6.172e-05,-6.8951e-07,-5.1807,1.5006
9522,18.491,3.7273,0,0.00015721,1571.1,6.7009e-05,184.28,4.2487e-05,0.027641,-0.00015327,-1470.8,1.5009
9523,18.398,3.8182,0,0.00015402,1539.2,6.5689e-05,181.03,4.1597e-05,0.0059785,-0.00015014,-1440.6,1.4886
9524,18.491,3.8182,0.05,8.1643e-07,8.1587,6.2692e-07,4.7104,-3.4345e-12,-4.3638e-05,-6.2692e-07,-4.7104,1.5008
9525,18.491,3.5455,0,0.00016027,1601.6,6.6628e-05,167.03,4.4402e-05,0.036793,-0.00015677,-1511.5,1.5011
9526,18.398,3.6364,0,0.00015715,1570.4,6.535e-05,164.01,4.3522e-05,0.014541,-0.00015371,-1481.9,1.4888
9527,18.491,3.6364,0.05,7.5114e-07,7.5062,5.7678e-07,4.3337,-3.3138e-12,-3.1297e-05,-5.7678e-07,-4.3337,1.501
9528,18.491,3.3636,0,0.00016252,1624.1,6.6391e-05,154.93,4.578e-05,0.065197,-0.00015933,-1541.1,1.5012
9529,18.398,3.4545,0,0.00015955,1594.4,6.5068e-05,150.74,4.5012e-05,0.040578,-0.00015645,-1513.7,1.4889
9530,18.491,3.4545,0.05,7.0778e-07,7.0729,5.4349e-07,4.0836,-2.2249e-12,-1.3963e-05,-5.4349e-07,-4.0836,1.5011
9531,18.491,3.1818,0,0.00016392,1638,6.6297e-05,148.11,4.6597e-05,0.086626,-0.00016089,-1558.9,1.5013
9532,18.398,3.2727,0,0.00016121,1611,6.492e-05,142.17,4.6008e-05,0.066873,-0.00015832,-1535.2,1.489
9533,18.491,3.2727,0.05,6.8601e-07,6.8553,5.2677e-07,3.9579,-3.6298e-13,-1.0728e-05,-5.2677e-07,-3.958,1.5012
9534,18.491,3,0,0.00016439,1642.7,6.6277e-05,145.94,4.6866e-05,0.092441,-0.00016142,-1564.9,1.5013
9535,18.398,3.0909,0,0.00016206,1619.5,6.4869e-05,138.08,4.6502e-05,0.079115,-0.00015927,-1546,1.489
9536,18.491,3.0909,0.05,6.7809e-07,6.7762,5.2068e-07,3.9122,1.3557e-12,4.3314e-07,-5.2069e-07,-3.9122,1.5013
9537,18.491,2.8182,0,0.00016392,1638,6.6297e-05,148.11,4.6597e-05,0.086626,-0.00016089,-1558.9,1.5013
9538,18.398,2.9091,0,0.00016206,1619.5,6.4869e-05,138.08,4.6502e-05,0.079115,-0.00015927,-1546,1.489
9539,18.491,2.9091,0.05,6.7809e-07,6.7762,5.2068e-07,3.9122,1.2223e-12,4.028e-06,-5.2069e-07,-3.9123,1.5013
9540,18.491,2.6364,0,0.00016252,1624.1,6.6391e-05,154.93,4.578e-05,0.065197,-0.00015933,-1541.1,1.5012
9541,18.398,2.7273,0,0.00016121,1611,6.492e-05,142.17,4.6008e-05,0.066873,-0.00015832,-1535.2,1.489
9542,18.491,2.7273,0.05,6.8601e-07,6.8553,5.2677e-07,3.9579,1.5024e-12,1.8142e-06,-5.2677e-07,-3.958,1.5012
9543,18.491,2.4545,0,0.00016027,1601.6,6.6628e-05,167.03,4.4402e-05,0.036794,-0.00015677,-1511.5,1.5011
9544,18.398,2.5455,0,0.00015955,1594.4,6.5068e-05,150.74,4.5012e-05,0.040578,-0.00015645,-1513.7,1.4889
9545,18.491,2.5455,0.05,7.0778e-07,7.0729,5.4349e-07,4.0835,2.3749e-12,-9.6042e-07,-5.4349e-07,-4.0836,1.5011
9546,18.491,2.2727,0,0.00015721,1571.1,6.7009e-05,184.28,4.2487e-05,0.027642,-0.00015327,-1470.8,1.5009
9547,18.398,2.3636,0,0.00015715,1570.4,6.535e-05,164.01,4.3522e-05,0.014542,-0.00015371,-1481.9,1.4888
9548,18.491,2.3636,0.05,7.5114e-07,7.5062,5.7678e-07,4.3337,-1.7466e-13,-3.8553e-06,-5.7678e-07,-4.3337,1.501
9549,18.491,2.0909,0,0.00015333,1532.3,6.735e-05,204.54,4.013e-05,0.01927,-0.00014882,-1419.7,1.5007
9550,18.398,2.1818,0,0.00015402,1539.2,6.5689e-05,181.03,4.1597e-05,0.0059777,-0.00015014,-1440.6,1.4886
9551,18.491,2.1818,0.05,8.1643e-07,8.1587,6.2692e-07,4.7104,-1.4908e-12,2.0686e-06,-6.2692e-07,-4.7104,1.5008
9552,18.491,1.9091,0,0.00014848,1483.8,6.7238e-05,223.28,3.7521e-05,-0.0033787,-0.00014342,-1359.5,1.5005
9553,18.398,2,0,0.00015011,1500.1,6.582e-05,198.8,3.9361e-05,-0.0077075,-0.00014574,-1390.8,1.4884
9554,18.491,2,0.05,8.9795e-07,8.9733,6.8952e-07,5.1807,-3.3265e-13,-3.8098e-06,-6.8951e-07,-5.1807,1.5006
9555,18.491,1.7273,0,0.00014252,1424.2,6.6188e-05,235.02,3.4907e-05,-0.0076127,-0.00013706,-1292.1,1.5002
9556,18.398,1.8182,0,0.00014527,1451.7,6.533e-05,212.78,3.7009e-05,-0.014191,-0.00014047,-1333.5,1.4881
9557,18.491,1.8182,0.05,1.0108e-06,10.101,7.7618e-07,5.8319,-1.8199e-12,-1.7097e-05,-7.7618e-07,-5.8319,1.5004
9558,18.491,1.5455,0,0.00013546,1353.7,6.3888e-05,235.72,3.2515e-05,-0.0089009,-0.0001299,-1220.4,1.4999
9559,18.398,1.6364,0,0.00013941,1393.2,6.385e-05,218.65,3.4748e-05,-0.0054186,-0.0001344,-1270.9,1.4878
9560,18.491,1.6364,0.05,1.1757e-06,11.749,9.0277e-07,6.7831,-3.6064e-13,-5.7507e-06,-9.0277e-07,-6.7831,1.5001
9561,18.491,1.3636,0,0.00012758,1274.9,6.0356e-05,224.35,3.0495e-05,-0.016704,-0.00012227,-1147.9,1.4995
9562,18.398,1.4545,0,0.00013267,1325.8,6.1243e-05,214.1,3.2746e-05,-0.0093035,-0.00012773,-1205.8,1.4875
9563,18.491,1.4545,0.05,1.3742e-06,13.732,1.0552e-06,7.9282,-8.4555e-14,-1.7034e-06,-1.0552e-06,-7.9282,1.4997
9564,18.491,1.1818,0,0.00011934,1192.5,5.5893e-05,202.74,2.8909e-05,-0.010054,-0.00011459,-1078.2,1.4991
9565,18.398,1.2727,0,0.00012538,1253,5.7652e-05,199.51,3.1098e-05,-0.0067393,-0.00012079,-1141.3,1.4871
9566,18.491,1.2727,0.05,1.5596e-06,15.585,1.1976e-06,8.9982,3.6484e-13,-8.6797e-15,-1.1976e-06,-8.9982,1.4993
9567,18.491,1,0,0.00011124,1111.7,5.0924e-05,174.17,2.7744e-05,0.006583,-0.00010725,-1014.3,1.4987
9568,18.398,1.0909,0,0.00011798,1179,5.34e-05,177.1,2.983e-05,0.0029284,-0.00011396,-1080.4,1.4867
9569,18.491,1.0909,0.05,1.7035e-06,17.023,1.3081e-06,9.8282,4.529e-13,3.7682e-06,-1.3081e-06,-9.8282,1.4989
9570,18.491,0.81818,0,0.00010373,1036.6,4.5851e-05,141.98,2.6958e-05,0.025929,-0.00010058,-958.26,1.4982
9571,18.398,0.90909,0,0.00011088,1108,4.8847e-05,149.7,2.8925e-05,0.017998,-0.00010757,-1025.6,1.4862
9572,18.491,0.90909,0.05,1.8017e-06,18.005,1.3835e-06,10.395,4.5779e-13,5.7475e-06,-1.3835e-06,-10.395,1.4984
9573,18.491,0.63636,0,9.7094e-05,970.27,4.0978e-05,108.8,2.6505e-05,0.056018,-9.4784e-05,-911.26,1.4977
9574,18.398,0.72727,0,0.00010441,1043.4,4.4298e-05,119.86,2.8349e-05,0.031283,-0.00010185,-978.24,1.4858
9575,18.491,0.72727,0.05,1.8647e-06,18.634,1.4318e-06,10.758,1.3028e-12,6.332e-06,-1.4318e-06,-10.758,1.498
9576,18.491,0.45455,0,9.149e-05,914.27,3.647e-05,76.097,2.6347e-05,0.037357,-8.9957e-05,-873.83,1.4972
9577,18.398,0.54545,0,9.877e-05,987.02,3.9956e-05,89.349,2.8074e-05,0.064918,-9.6945e-05,-939.28,1.4853
9578,18.491,0.54545,0.05,1.9052e-06,19.039,1.463e-06,10.992,1.321e-12,6.2456e-06,-1.463e-06,-10.992,1.4974
9579,18.491,0.27273,0,8.692e-05,868.6,3.2335e-05,44.064,2.6479e-05,0.068076,-8.6086e-05,-845.7,1.4966
9580,18.398,0.36364,0,9.4038e-05,939.73,3.5903e-05,58.816,2.8071e-05,-0.028862,-9.29e-05,-908.96,1.4847
9581,18.491,0.36364,0.05,1.9368e-06,19.355,1.4873e-06,11.175,3.8523e-13,5.5718e-06,-1.4873e-06,-11.175,1.4969
9582,18.398,0.18182,0,9.0147e-05,900.85,3.2063e-05,27.851,2.8362e-05,0.044464,-8.964e-05,-886.58,1.4842
9583,18.491,0.18182,0.05,2.0116e-06,20.102,1.5446e-06,11.606,3.1397e-13,3.729e-06,-1.5446e-06,-11.606,1.4963
9584,18.491,0.090909,0,8.3538e-05,834.81,2.8806e-05,14.896,2.6831e-05,0.056681,-8.3274e-05,-827.23,1.4961
9585,18.306,5.7273,0,9.7264e-05,971.96,3.5638e-05,42.651,2.9961e-05,0.0016577,-9.6468e-05,-949.94,1.4723
9586,18.213,5.8182,0,0.0001002,1001.3,3.5322e-05,27.087,3.1711e-05,-0.040045,-9.9711e-05,-987.5,1.4598
9587,18.306,5.8182,0.05,1.7694e-06,17.681,1.3586e-06,10.208,5.9588e-13,5.9442e-06,-1.3586e-06,-10.208,1.472
9588,18.306,5.9091,0,9.4174e-05,941.09,3.2305e-05,14.75,3.0347e-05,0.03549,-9.3914e-05,-933.61,1.4717
9589,18.306,5.5455,0,0.00010136,1012.9,3.9436e-05,72.415,2.9799e-05,0.0066908,-9.9935e-05,-974.76,1.4728
9590,18.213,5.6364,0,0.00010375,1036.7,3.8908e-05,56.336,3.1402e-05,-0.063589,-0.00010267,-1007.5,1.4604
9591,18.306,5.6364,0.05,1.7615e-06,17.602,1.3526e-06,10.163,1.0907e-12,4.9585e-06,-1.3526e-06,-10.163,1.4725
9592,18.306,5.3636,0,0.00010618,1061.1,4.3365e-05,101.08,2.9918e-05,0.042951,-0.0001041,-1006.9,1.4733
9593,18.213,5.4545,0,0.00010789,1078.2,4.2533e-05,83.913,3.1371e-05,0.048009,-0.00010622,-1033.7,1.4609
9594,18.306,5.4545,0.05,1.7238e-06,17.226,1.3237e-06,9.9454,1.09e-12,5.7454e-06,-1.3237e-06,-9.9454,1.4731
9595,18.306,5.1818,0,0.00011171,1116.4,4.7422e-05,128.55,3.0316e-05,0.024554,-0.00010897,-1046.5,1.4738
9596,18.213,5.2727,0,0.00011267,1125.9,4.6241e-05,110.06,3.1597e-05,0.0264,-0.00011039,-1066.8,1.4614
9597,18.306,5.2727,0.05,1.6698e-06,16.686,1.2822e-06,9.6339,1.0423e-12,2.7813e-06,-1.2822e-06,-9.6339,1.4736
9598,18.306,5,0,0.00011781,1177.3,5.148e-05,153.81,3.1011e-05,0.014805,-0.00011444,-1092.9,1.4743
9599,18.213,5.0909,0,0.00011799,1179.1,4.997e-05,134.32,3.2096e-05,0.02215,-0.00011513,-1106.2,1.4619
9600,18.306,5.0909,0.05,1.5939e-06,15.928,1.2239e-06,9.1959,-8.0965e-15,-1.0105e-06,-1.2239e-06,-9.1959,1.474
9601,18.306,4.8182,0,0.00012424,1241.6,5.5325e-05,175.11,3.202e-05,0.0061772,-0.00012033,-1144.7,1.4747
9602,18.213,4.9091,0,0.0001237,1236.1,5.3571e-05,155.5,3.2877e-05,0.013982,-0.00012032,-1151,1.4623
9603,18.306,4.9091,0.05,1.4898e-06,14.887,1.144e-06,8.5953,1.8937e-13,-3.8373e-06,-1.144e-06,-8.5953,1.4745
9604,18.306,4.6364,0,0.00013069,1305.9,5.8691e-05,190.41,3.3349e-05,0.00024105,-0.0001264,-1200.3,1.4751
9605,18.213,4.7273,0,0.00012954,1294.5,5.6834e-05,171.98,3.3946e-05,0.0091164,-0.00012575,-1199.9,1.4627
9606,18.306,4.7273,0.05,1.3554e-06,13.545,1.0408e-06,7.82,-7.4928e-13,-7.3524e-06,-1.0408e-06,-7.8201,1.4749
9607,18.306,4.4545,0,0.00013679,1367,6.1326e-05,197.95,3.498e-05,-0.0063225,-0.00013235,-1257.2,1.4755
9608,18.213,4.5455,0,0.00013521,1351.2,5.9535e-05,182.14,3.5294e-05,0.0044949,-0.00013119,-1250.9,1.4631
9609,18.306,4.5455,0.05,1.1971e-06,11.963,9.1921e-07,6.9066,-8.2421e-13,-9.2066e-06,-9.1922e-07,-6.9066,1.4753
9610,18.306,4.2727,0,0.00014228,1421.8,6.3076e-05,197.04,3.685e-05,-0.012352,-0.00013789,-1313,1.4758
9611,18.213,4.3636,0,0.00014044,1403.4,6.1496e-05,184.94,3.6881e-05,-0.0015657,-0.00013638,-1301.8,1.4634
9612,18.306,4.3636,0.05,1.0319e-06,10.312,7.924e-07,5.9538,-1.6593e-12,-2.2685e-05,-7.9241e-07,-5.9538,1.4756
9613,18.306,4.0909,0,0.00014696,1468.6,6.3965e-05,188.69,3.8849e-05,-0.018733,-0.00014284,-1365.2,1.476
9614,18.213,4.1818,0,0.00014501,1449.1,6.2661e-05,180.55,3.863e-05,-0.0069298,-0.00014109,-1350.4,1.4637
9615,18.306,4.1818,0.05,8.7916e-07,8.7855,6.7508e-07,5.0723,-3.7518e-12,-3.2426e-05,-6.7508e-07,-5.0723,1.4759
9616,18.306,3.9091,0,0.00015084,1507.3,6.4189e-05,175.5,4.0828e-05,-0.020857,-0.00014708,-1411.9,1.4763
9617,18.213,4,0,0.00014885,1487.5,6.3134e-05,170.62,4.0425e-05,-0.012575,-0.00014521,-1394.8,1.464
9618,18.306,4,0.05,7.468e-07,7.4629,5.7345e-07,4.3087,-3.0509e-12,-1.8554e-05,-5.7345e-07,-4.3087,1.4761
9619,18.306,3.7273,0,0.00015397,1538.6,6.4042e-05,160.86,4.2633e-05,-0.0058639,-0.0001506,-1451.9,1.4765
9620,18.213,3.8182,0,0.00015198,1518.8,6.3142e-05,157.86,4.2131e-05,-0.0094629,-0.00014868,-1433.7,1.4642
9621,18.306,3.8182,0.05,6.301e-07,6.2966,4.8384e-07,3.6354,-1.9124e-12,-4.6116e-05,-4.8384e-07,-3.6354,1.4764
9622,18.306,3.5455,0,0.00015643,1563.2,6.379e-05,147.73,4.4132e-05,0.021103,-0.00015339,-1484.1,1.4766
9623,18.213,3.6364,0,0.00015448,1543.8,6.294e-05,145.16,4.3621e-05,0.0076491,-0.0001515,-1466.1,1.4643
9624,18.306,3.6364,0.05,5.276e-07,5.2723,4.0513e-07,3.044,-5.2631e-12,-5.8981e-05,-4.0513e-07,-3.044,1.4765
9625,18.306,3.3636,0,0.00015823,1581.2,6.3587e-05,137.9,4.524e-05,0.045996,-0.00015543,-1507.7,1.4767
9626,18.213,3.4545,0,0.0001564,1562.9,6.2718e-05,134.67,4.4798e-05,0.029121,-0.00015367,-1491.2,1.4645
9627,18.306,3.4545,0.05,4.4744e-07,4.4713,3.4358e-07,2.5815,-1.162e-12,-3.3822e-05,-3.4358e-07,-2.5815,1.4766
9628,18.306,3.1818,0,0.00015934,1592.3,6.3476e-05,132.02,4.5913e-05,0.063324,-0.00015668,-1522.2,1.4768
9629,18.213,3.2727,0,0.00015771,1576,6.2566e-05,127.49,4.5604e-05,0.047875,-0.00015515,-1508.3,1.4645
9630,18.306,3.2727,0.05,3.9764e-07,3.9737,3.0534e-07,2.2942,-1.789e-13,-1.6969e-05,-3.0534e-07,-2.2942,1.4767
9631,18.306,3,0,0.00015972,1596.1,6.3442e-05,130.09,4.6138e-05,0.069739,-0.00015711,-1527,1.4768
9632,18.213,3.0909,0,0.00015838,1582.7,6.2495e-05,123.91,4.6011e-05,0.059063,-0.0001559,-1517,1.4646
9633,18.306,3.0909,0.05,3.7587e-07,3.7561,2.8862e-07,2.1685,2.9864e-12,1.5844e-06,-2.8862e-07,-2.1686,1.4768
9634,18.306,2.8182,0,0.00015934,1592.3,6.3476e-05,132.02,4.5913e-05,0.063324,-0.00015668,-1522.2,1.4768
9635,18.213,2.9091,0,0.00015838,1582.7,6.2495e-05,123.91,4.6011e-05,0.059063,-0.0001559,-1517,1.4646
9636,18.306,2.9091,0.05,3.7587e-07,3.7561,2.8862e-07,2.1686,1.2202e-12,9.164e-06,-2.8862e-07,-2.1686,1.4768
9637,18.306,2.6364,0,0.00015823,1581.2,6.3587e-05,137.9,4.524e-05,0.045995,-0.00015543,-1507.7,1.4767
9638,18.213,2.7273,0,0.00015771,1576,6.2566e-05,127.49,4.5604e-05,0.047876,-0.00015515,-1508.3,1.4645
9639,18.306,2.7273,0.05,3.9764e-07,3.9737,3.0534e-07,2.2942,1.8214e-12,8.3051e-06,-3.0534e-07,-2.2942,1.4767
9640,18.306,2.4545,0,0.00015643,1563.2,6.379e-05,147.73,4.4132e-05,0.021103,-0.00015339,-1484.1,1.4766
9641,18.213,2.5455,0,0.0001564,1562.9,6.2718e-05,134.67,4.4798e-05,0.029121,-0.00015367,-1491.2,1.4645
9642,18.306,2.5455,0.05,4.4744e-07,4.4713,3.4358e-07,2.5815,-8.1121e-13,-1.2582e-05,-3.4358e-07,-2.5815,1.4766
9643,18.306,2.2727,0,0.00015397,1538.6,6.4042e-05,160.86,4.2633e-05,-0.005864,-0.0001506,-1451.9,1.4765
9644,18.213,2.3636,0,0.00015448,1543.8,6.294e-05,145.16,4.3621e-05,0.0076494,-0.0001515,-1466.1,1.4643
9645,18.306,2.3636,0.05,5.276e-07,5.2723,4.0513e-07,3.044,-1.4195e-12,-2.659e-05,-4.0513e-07,-3.044,1.4765
9646,18.306,2.0909,0,0.00015084,1507.3,6.4189e-05,175.5,4.0828e-05,-0.020858,-0.00014708,-1411.9,1.4763
9647,18.213,2.1818,0,0.00015198,1518.8,6.3142e-05,157.86,4.2131e-05,-0.0094631,-0.00014868,-1433.7,1.4642
9648,18.306,2.1818,0.05,6.301e-07,6.2966,4.8384e-07,3.6354,-2.0649e-12,-4.7269e-05,-4.8384e-07,-3.6354,1.4764
9649,18.306,1.9091,0,0.00014696,1468.6,6.3965e-05,188.69,3.8849e-05,-0.018733,-0.00014284,-1365.2,1.476
9650,18.213,2,0,0.00014885,1487.5,6.3134e-05,170.62,4.0425e-05,-0.012575,-0.00014521,-1394.8,1.464
9651,18.306,2,0.05,7.468e-07,7.4629,5.7345e-07,4.3087,-3.2572e-12,-1.6956e-05,-5.7345e-07,-4.3087,1.4761
9652,18.306,1.7273,0,0.00014228,1421.8,6.3076e-05,197.04,3.685e-05,-0.012352,-0.00013789,-1313,1.4758
9653,18.213,1.8182,0,0.00014501,1449.1,6.2661e-05,180.55,3.863e-05,-0.0069301,-0.00014109,-1350.4,1.4637
9654,18.306,1.8182,0.05,8.7916e-07,8.7855,6.7508e-07,5.0723,-2.2739e-13,-1.9074e-05,-6.7508e-07,-5.0723,1.4759
9655,18.306,1.5455,0,0.00013679,1367,6.1326e-05,197.95,3.498e-05,-0.006322,-0.00013235,-1257.2,1.4755
9656,18.213,1.6364,0,0.00014044,1403.4,6.1496e-05,184.94,3.6881e-05,-0.0015647,-0.00013638,-1301.8,1.4634
9657,18.306,1.6364,0.05,1.0319e-06,10.312,7.924e-07,5.9538,-3.9286e-13,-1.0647e-05,-7.924e-07,-5.9538,1.4756
9658,18.306,1.3636,0,0.00013069,1305.9,5.8691e-05,190.41,3.3349e-05,0.00024115,-0.0001264,-1200.3,1.4751
9659,18.213,1.4545,0,0.00013521,1351.2,5.9535e-05,182.14,3.5294e-05,0.0044945,-0.00013119,-1250.9,1.4631
9660,18.306,1.4545,0.05,1.1971e-06,11.963,9.1921e-07,6.9066,-1.372e-13,-5.7547e-07,-9.1922e-07,-6.9066,1.4753
9661,18.306,1.1818,0,0.00012424,1241.6,5.5325e-05,175.11,3.202e-05,0.0061783,-0.00012033,-1144.7,1.4747
9662,18.213,1.2727,0,0.00012954,1294.5,5.6834e-05,171.98,3.3946e-05,0.0091177,-0.00012575,-1199.9,1.4627
9663,18.306,1.2727,0.05,1.3554e-06,13.545,1.0408e-06,7.8201,-3.0713e-14,1.4984e-06,-1.0408e-06,-7.8201,1.4749
9664,18.306,1,0,0.00011781,1177.3,5.148e-05,153.81,3.1011e-05,0.014807,-0.00011444,-1092.9,1.4743
9665,18.213,1.0909,0,0.0001237,1236.1,5.357e-05,155.5,3.2877e-05,0.013983,-0.00012032,-1151,1.4623
9666,18.306,1.0909,0.05,1.4898e-06,14.887,1.144e-06,8.5953,1.2481e-12,1.3484e-06,-1.144e-06,-8.5953,1.4745
9667,18.306,0.81818,0,0.00011171,1116.4,4.7422e-05,128.55,3.0316e-05,0.024555,-0.00010897,-1046.5,1.4738
9668,18.213,0.90909,0,0.00011799,1179.1,4.997e-05,134.32,3.2096e-05,0.022151,-0.00011513,-1106.2,1.4619
9669,18.306,0.90909,0.05,1.5939e-06,15.928,1.2239e-06,9.1959,9.0746e-13,4.7625e-06,-1.2239e-06,-9.1959,1.474
9670,18.306,0.63636,0,0.00010618,1061.1,4.3365e-05,101.08,2.9918e-05,0.042951,-0.0001041,-1006.9,1.4733
9671,18.213,0.72727,0,0.00011267,1125.9,4.6241e-05,110.06,3.1597e-05,0.026401,-0.00011039,-1066.8,1.4614
9672,18.306,0.72727,0.05,1.6698e-06,16.686,1.2822e-06,9.6339,9.4446e-13,8.7678e-06,-1.2822e-06,-9.6339,1.4736
9673,18.306,0.45455,0,0.00010136,1012.9,3.9436e-05,72.415,2.9799e-05,0.0066911,-9.9935e-05,-974.76,1.4728
9674,18.213,0.54545,0,0.00010789,1078.2,4.2532e-05,83.913,3.1371e-05,0.04801,-0.00010622,-1033.7,1.4609
9675,18.306,0.54545,0.05,1.7238e-06,17.226,1.3237e-06,9.9454,1.2812e-12,8.2878e-06,-1.3237e-06,-9.9454,1.4731
9676,18.306,0.27273,0,9.7264e-05,971.96,3.5638e-05,42.651,2.9961e-05,0.0016574,-9.6468e-05,-949.94,1.4723
9677,18.213,0.36364,0,0.00010375,1036.7,3.8908e-05,56.336,3.1402e-05,-0.063589,-0.00010267,-1007.5,1.4604
9678,18.306,0.36364,0.05,1.7615e-06,17.602,1.3526e-06,10.163,3.3655e-13,7.7684e-06,-1.3526e-06,-10.163,1.4725
9679,18.213,0.18182,0,0.0001002,1001.3,3.5322e-05,27.087,3.1711e-05,-0.040045,-9.9711e-05,-987.5,1.4598
9680,18.306,0.18182,0.05,1.7694e-06,17.681,1.3586e-06,10.208,7.9283e-13,6.0948e-06,-1.3586e-06,-10.208,1.472
9681,18.306,0.090909,0,9.4174e-05,941.09,3.2305e-05,14.75,3.0347e-05,0.035491,-9.3914e-05,-933.61,1.4717
9682,18.121,5.7273,0,0.00010667,1066,3.8588e-05,40.738,3.3161e-05,-0.041844,-0.00010592,-1045,1.448
9683,18.028,5.8182,0,0.00010938,1093,3.8278e-05,26.173,3.4783e-05,-0.088969,-0.00010891,-1079.7,1.4356
9684,18.121,5.8182,0.05,1.5378e-06,15.367,1.1808e-06,8.8723,1.0417e-12,7.2162e-06,-1.1808e-06,-8.8724,1.4477
9685,18.121,5.9091,0,0.00010387,1037.9,3.5482e-05,14.483,3.3558e-05,0.021584,-0.00010361,-1030.6,1.4474
9686,18.121,5.5455,0,0.0001103,1102.2,4.2033e-05,68.039,3.2975e-05,-0.012545,-0.00010898,-1066.6,1.4485
9687,18.028,5.6364,0,0.00011255,1124.7,4.156e-05,53.214,3.4467e-05,-0.083428,-0.00011155,-1097.2,1.4361
9688,18.121,5.6364,0.05,1.5997e-06,15.986,1.2284e-06,9.2294,2.9009e-13,6.6764e-06,-1.2284e-06,-9.2294,1.4482
9689,18.121,5.3636,0,0.00011443,1143.5,4.5462e-05,93.292,3.305e-05,0.034948,-0.00011256,-1094,1.449
9690,18.028,5.4545,0,0.00011615,1160.7,4.4783e-05,78.023,3.4404e-05,0.036084,-0.00011463,-1119.7,1.4366
9691,18.121,5.4545,0.05,1.5627e-06,15.616,1.1999e-06,9.0159,1.1039e-12,7.4755e-06,-1.1999e-06,-9.0159,1.4487
9692,18.121,5.1818,0,0.00011904,1189.5,4.8866e-05,116.41,3.3377e-05,0.025533,-0.00011663,-1127.1,1.4495
9693,18.028,5.2727,0,0.00012018,1201,4.7964e-05,100.64,3.4573e-05,0.023648,-0.00011816,-1147.5,1.4371
9694,18.121,5.2727,0.05,1.5051e-06,15.04,1.1557e-06,8.6834,1.0383e-12,3.8431e-06,-1.1557e-06,-8.6834,1.4492
9695,18.121,5,0,0.000124,1239.1,5.2153e-05,136.71,3.3961e-05,0.021981,-0.0001211,-1165.1,1.45
9696,18.028,5.0909,0,0.00012457,1244.8,5.1051e-05,120.75,3.4983e-05,0.025453,-0.00012207,-1180,1.4376
9697,18.121,5.0909,0.05,1.4284e-06,14.274,1.0968e-06,8.2413,1.3512e-12,1.8165e-06,-1.0969e-06,-8.2413,1.4497
9698,18.121,4.8182,0,0.00012912,1290.3,5.5177e-05,153.1,3.4803e-05,0.017061,-0.00012583,-1206.9,1.4504
9699,18.028,4.9091,0,0.00012917,1290.8,5.3939e-05,137.59,3.563e-05,0.021271,-0.00012628,-1216.5,1.438
9700,18.121,4.9091,0.05,1.3307e-06,13.297,1.0218e-06,7.6772,6.3419e-13,-1.5638e-07,-1.0218e-06,-7.6772,1.4502
9701,18.121,4.6364,0,0.00013419,1341,5.7768e-05,164.39,3.5891e-05,0.013212,-0.00013063,-1251.2,1.4508
9702,18.028,4.7273,0,0.0001338,1337.1,5.649e-05,150.16,3.6507e-05,0.018226,-0.00013061,-1255.6,1.4384
9703,18.121,4.7273,0.05,1.2126e-06,12.117,9.3109e-07,6.9959,3.4599e-13,-2.7873e-06,-9.3109e-07,-6.9959,1.4506
9704,18.121,4.4545,0,0.00013896,1388.7,5.9779e-05,169.69,3.7196e-05,0.0089619,-0.0001353,-1296,1.4511
9705,18.028,4.5455,0,0.00013825,1381.5,5.8568e-05,157.61,3.7594e-05,0.014449,-0.00013489,-1296,1.4388
9706,18.121,4.5455,0.05,1.0796e-06,10.789,8.2901e-07,6.2289,-5.6839e-13,-5.788e-06,-8.2901e-07,-6.2289,1.4509
9707,18.121,4.2727,0,0.00014325,1431.5,6.1135e-05,168.86,3.8662e-05,0.003512,-0.00013963,-1339.6,1.4514
9708,18.028,4.3636,0,0.00014234,1422.4,6.0077e-05,159.51,3.8849e-05,0.009642,-0.00013895,-1335.9,1.4391
9709,18.121,4.3636,0.05,9.4088e-07,9.4023,7.2248e-07,5.4284,-9.7015e-13,-1.8042e-05,-7.2248e-07,-5.4285,1.4512
9710,18.121,4.0909,0,0.00014695,1468.4,6.1867e-05,162.75,4.0207e-05,-0.0011473,-0.0001435,-1380.3,1.4517
9711,18.028,4.1818,0,0.00014592,1458.2,6.1001e-05,156.22,4.021e-05,0.0038195,-0.00014264,-1373.8,1.4394
9712,18.121,4.1818,0.05,8.0482e-07,8.0427,6.18e-07,4.6434,-1.3386e-12,-1.2177e-05,-6.18e-07,-4.6434,1.4515
9713,18.121,3.9091,0,0.00015002,1499.2,6.2109e-05,153.14,4.1728e-05,-0.001397,-0.00014683,-1416.7,1.4519
9714,18.028,4,0,0.00014896,1488.6,6.1417e-05,148.95,4.1593e-05,0.00033954,-0.00014586,-1408.5,1.4396
9715,18.121,4,0.05,6.7444e-07,6.7398,5.1789e-07,3.8912,-3.1502e-12,-1.9844e-05,-5.1789e-07,-3.8912,1.4518
9716,18.121,3.7273,0,0.00015251,1524.1,6.205e-05,142.25,4.3119e-05,0.0044637,-0.00014959,-1448,1.4521
9717,18.028,3.8182,0,0.00015145,1513.4,6.1475e-05,139.52,4.2907e-05,0.0018606,-0.00014859,-1438.8,1.4398
9718,18.121,3.8182,0.05,5.4802e-07,5.4764,4.2081e-07,3.1618,-5.5372e-12,-2.5512e-05,-4.2081e-07,-3.1618,1.452
9719,18.121,3.5455,0,0.00015446,1543.5,6.1871e-05,132.13,4.4287e-05,0.017127,-0.00015178,-1473.2,1.4522
9720,18.028,3.6364,0,0.00015343,1533.2,6.1345e-05,129.87,4.4062e-05,0.0095588,-0.0001508,-1464.1,1.44
9721,18.121,3.6364,0.05,4.2464e-07,4.2434,3.2607e-07,2.45,-6.6973e-12,-2.7932e-05,-3.2607e-07,-2.45,1.4521
9722,18.121,3.3636,0,0.00015587,1557.6,6.1694e-05,124.24,4.5162e-05,0.033464,-0.00015338,-1491.8,1.4523
9723,18.028,3.4545,0,0.00015492,1548.2,6.1166e-05,121.6,4.4985e-05,0.022574,-0.00015249,-1483.8,1.4401
9724,18.121,3.4545,0.05,3.08e-07,3.0779,2.3651e-07,1.777,-5.4599e-12,-4.5797e-05,-2.3651e-07,-1.777,1.4523
9725,18.121,3.1818,0,0.00015673,1566.2,6.1578e-05,119.33,4.5702e-05,0.046679,-0.00015436,-1503.1,1.4524
9726,18.028,3.2727,0,0.00015594,1558.3,6.102e-05,115.72,4.5624e-05,0.035856,-0.00015365,-1497.2,1.4402
9727,18.121,3.2727,0.05,2.0593e-07,2.0579,1.5813e-07,1.1881,-1.4847e-12,-4.131e-05,-1.5813e-07,-1.1881,1.4523
9728,18.121,3,0,0.00015702,1569.2,6.1539e-05,117.67,4.5884e-05,0.051634,-0.00015469,-1507,1.4524
9729,18.028,3.0909,0,0.00015645,1563.5,6.0944e-05,112.7,4.595e-05,0.043974,-0.00015423,-1504,1.4402
9730,18.121,3.0909,0.05,1.3513e-07,1.3504,1.0377e-07,0.77964,-8.1469e-14,-8.7449e-06,-1.0376e-07,-0.77966,1.4524
9731,18.121,2.8182,0,0.00015673,1566.2,6.1578e-05,119.33,4.5702e-05,0.046679,-0.00015436,-1503.1,1.4524
9732,18.028,2.9091,0,0.00015645,1563.5,6.0944e-05,112.7,4.595e-05,0.043975,-0.00015423,-1504,1.4402
9733,18.121,2.9091,0.05,1.3513e-07,1.3504,1.0377e-07,0.77963,1.6713e-12,4.2696e-06,-1.0376e-07,-0.77967,1.4524
9734,18.121,2.6364,0,0.00015587,1557.6,6.1694e-05,124.24,4.5162e-05,0.033464,-0.00015338,-1491.8,1.4523
9735,18.028,2.7273,0,0.00015594,1558.3,6.102e-05,115.72,4.5624e-05,0.035856,-0.00015365,-1497.2,1.4402
9736,18.121,2.7273,0.05,2.0593e-07,2.0579,1.5813e-07,1.1881,-3.4453e-12,-4.9856e-06,-1.5813e-07,-1.1881,1.4523
9737,18.121,2.4545,0,0.00015446,1543.5,6.1871e-05,132.13,4.4287e-05,0.017128,-0.00015178,-1473.2,1.4522
9738,18.028,2.5455,0,0.00015492,1548.2,6.1166e-05,121.6,4.4985e-05,0.022575,-0.00015249,-1483.8,1.4401
9739,18.121,2.5455,0.05,3.08e-07,3.0779,2.3651e-07,1.777,1.1779e-14,-3.0427e-05,-2.3651e-07,-1.777,1.4523
9740,18.121,2.2727,0,0.00015251,1524.1,6.205e-05,142.25,4.3119e-05,0.0044638,-0.00014959,-1448,1.4521
9741,18.028,2.3636,0,0.00015343,1533.2,6.1345e-05,129.87,4.4062e-05,0.009559,-0.0001508,-1464.1,1.44
9742,18.121,2.3636,0.05,4.2464e-07,4.2434,3.2607e-07,2.45,-5.8846e-13,-1.8844e-05,-3.2607e-07,-2.4499,1.4521
9743,18.121,2.0909,0,0.00015002,1499.2,6.2109e-05,153.14,4.1728e-05,-0.001396,-0.00014683,-1416.7,1.4519
9744,18.028,2.1818,0,0.00015145,1513.4,6.1475e-05,139.52,4.2907e-05,0.001861,-0.00014859,-1438.8,1.4398
9745,18.121,2.1818,0.05,5.4802e-07,5.4764,4.2081e-07,3.1618,-7.524e-13,-5.4979e-06,-4.2081e-07,-3.1618,1.452
9746,18.121,1.9091,0,0.00014695,1468.4,6.1867e-05,162.75,4.0207e-05,-0.0011465,-0.0001435,-1380.3,1.4517
9747,18.028,2,0,0.00014896,1488.6,6.1417e-05,148.95,4.1593e-05,0.00034072,-0.00014586,-1408.5,1.4396
9748,18.121,2,0.05,6.7444e-07,6.7398,5.1789e-07,3.8912,-2.136e-13,-5.052e-06,-5.1789e-07,-3.8912,1.4518
9749,18.121,1.7273,0,0.00014325,1431.5,6.1135e-05,168.86,3.8662e-05,0.0035123,-0.00013963,-1339.6,1.4514
9750,18.028,1.8182,0,0.00014592,1458.2,6.1001e-05,156.22,4.021e-05,0.00382,-0.00014264,-1373.8,1.4394
9751,18.121,1.8182,0.05,8.0482e-07,8.0427,6.18e-07,4.6434,-6.5436e-13,-6.0959e-06,-6.18e-07,-4.6434,1.4515
9752,18.121,1.5455,0,0.00013896,1388.7,5.9778e-05,169.69,3.7196e-05,0.0089619,-0.0001353,-1296,1.4511
9753,18.028,1.6364,0,0.00014234,1422.4,6.0077e-05,159.51,3.8849e-05,0.009642,-0.00013895,-1335.9,1.4391
9754,18.121,1.6364,0.05,9.4088e-07,9.4023,7.2248e-07,5.4284,1.8865e-13,-2.9654e-06,-7.2248e-07,-5.4284,1.4512
9755,18.121,1.3636,0,0.00013419,1341,5.7768e-05,164.39,3.5891e-05,0.013212,-0.00013063,-1251.2,1.4508
9756,18.028,1.4545,0,0.00013825,1381.5,5.8568e-05,157.61,3.7594e-05,0.014448,-0.00013489,-1296,1.4388
9757,18.121,1.4545,0.05,1.0796e-06,10.789,8.2901e-07,6.2289,-2.5956e-13,7.5186e-07,-8.2901e-07,-6.2289,1.4509
9758,18.121,1.1818,0,0.00012912,1290.3,5.5177e-05,153.1,3.4803e-05,0.017063,-0.00012583,-1206.9,1.4504
9759,18.028,1.2727,0,0.0001338,1337.1,5.649e-05,150.16,3.6507e-05,0.018226,-0.00013061,-1255.6,1.4384
9760,18.121,1.2727,0.05,1.2126e-06,12.117,9.3109e-07,6.9959,8.0121e-13,4.0582e-06,-9.3109e-07,-6.9959,1.4506
9761,18.121,1,0,0.000124,1239.1,5.2153e-05,136.71,3.3961e-05,0.02198,-0.0001211,-1165.1,1.45
9762,18.028,1.0909,0,0.00012917,1290.8,5.3939e-05,137.59,3.5631e-05,0.021271,-0.00012628,-1216.5,1.438
9763,18.121,1.0909,0.05,1.3307e-06,13.297,1.0218e-06,7.6772,8.8513e-13,3.6354e-06,-1.0218e-06,-7.6772,1.4502
9764,18.121,0.81818,0,0.00011904,1189.5,4.8866e-05,116.41,3.3377e-05,0.025533,-0.00011663,-1127.1,1.4495
9765,18.028,0.90909,0,0.00012457,1244.8,5.1051e-05,120.75,3.4983e-05,0.025454,-0.00012207,-1180,1.4376
9766,18.121,0.90909,0.05,1.4284e-06,14.274,1.0968e-06,8.2413,-2.157e-15,7.6198e-06,-1.0968e-06,-8.2413,1.4497
9767,18.121,0.63636,0,0.00011443,1143.5,4.5462e-05,93.292,3.305e-05,0.03495,-0.00011256,-1094,1.449
9768,18.028,0.72727,0,0.00012018,1201,4.7964e-05,100.64,3.4573e-05,0.023649,-0.00011816,-1147.5,1.4371
9769,18.121,0.72727,0.05,1.5051e-06,15.04,1.1557e-06,8.6834,9.2311e-13,8.6645e-06,-1.1557e-06,-8.6834,1.4492
9770,18.121,0.45455,0,0.0001103,1102.2,4.2033e-05,68.039,3.2975e-05,-0.012544,-0.00010898,-1066.6,1.4485
9771,18.028,0.54545,0,0.00011615,1160.7,4.4783e-05,78.023,3.4404e-05,0.036086,-0.00011463,-1119.7,1.4366
9772,18.121,0.54545,0.05,1.5627e-06,15.616,1.1999e-06,9.0159,1.4375e-12,1.1019e-05,-1.1999e-06,-9.0159,1.4487
9773,18.121,0.27273,0,0.00010667,1066,3.8588e-05,40.738,3.3161e-05,-0.041844,-0.00010592,-1045,1.448
9774,18.028,0.36364,0,0.00011255,1124.7,4.156e-05,53.214,3.4467e-05,-0.083428,-0.00011155,-1097.2,1.4361
9775,18.121,0.36364,0.05,1.5997e-06,15.986,1.2284e-06,9.2294,5.1029e-13,9.1288e-06,-1.2284e-06,-9.2294,1.4482
9776,18.028,0.18182,0,0.00010938,1093,3.8278e-05,26.173,3.4783e-05,-0.088969,-0.00010891,-1079.7,1.4356
9777,18.121,0.18182,0.05,1.5378e-06,15.367,1.1808e-06,8.8724,6.8858e-14,7.9392e-06,-1.1808e-06,-8.8723,1.4477
9778,18.121,0.090909,0,0.00010387,1037.9,3.5482e-05,14.483,3.3558e-05,0.021584,-0.00010361,-1030.6,1.4474
9779,17.936,5.7273,0,0.00011524,1151.6,4.1239e-05,38.566,3.6097e-05,-0.067627,-0.00011454,-1131.9,1.4237
9780,17.843,5.8182,0,0.00011778,1176.9,4.0971e-05,25.214,3.7601e-05,-0.11065,-0.00011733,-1164.2,1.4114
9781,17.936,5.8182,0.05,1.3249e-06,13.24,1.0174e-06,7.6441,1.0662e-12,4.5995e-06,-1.0174e-06,-7.6441,1.4234
9782,17.936,5.9091,0,0.0001127,1126.3,3.8373e-05,14.165,3.6489e-05,0.011732,-0.00011246,-1119.1,1.4232
9783,17.936,5.5455,0,0.00011841,1183.3,4.4326e-05,63.313,3.5896e-05,-0.024655,-0.00011721,-1150.4,1.4243
9784,17.843,5.6364,0,0.00012056,1204.8,4.3924e-05,49.782,3.7286e-05,-0.092937,-0.00011964,-1179.2,1.4119
9785,17.936,5.6364,0.05,1.456e-06,14.55,1.118e-06,8.4002,6.0872e-13,5.1526e-06,-1.118e-06,-8.4002,1.424
9786,17.936,5.3636,0,0.00012194,1218.6,4.7318e-05,85.612,3.5927e-05,0.028473,-0.00012026,-1173.5,1.4248
9787,17.843,5.4545,0,0.00012367,1235.9,4.6775e-05,71.999,3.7196e-05,0.027006,-0.00012229,-1198.3,1.4124
9788,17.936,5.4545,0.05,1.4241e-06,14.231,1.0935e-06,8.2164,1.0739e-12,6.0464e-06,-1.0935e-06,-8.2165,1.4245
9789,17.936,5.1818,0,0.00012577,1256.9,5.0196e-05,105.33,3.618e-05,0.025222,-0.00012365,-1200.9,1.4253
9790,17.843,5.2727,0,0.00012707,1269.8,4.9513e-05,91.705,3.7311e-05,0.021092,-0.00012526,-1221.5,1.4129
9791,17.936,5.2727,0.05,1.3688e-06,13.679,1.0511e-06,7.8975,1.1381e-13,2.7351e-06,-1.0511e-06,-7.8975,1.425
9792,17.936,5,0,0.00012981,1297.2,5.2893e-05,122.05,3.6652e-05,0.025503,-0.0001273,-1231.9,1.4257
9793,17.843,5.0909,0,0.00013068,1305.9,5.2094e-05,108.68,3.7633e-05,0.02658,-0.0001285,-1248.2,1.4134
9794,17.936,5.0909,0.05,1.2978e-06,12.969,9.9654e-07,7.4876,9.085e-13,2.8543e-06,-9.9654e-07,-7.4876,1.4255
9795,17.936,4.8182,0,0.00013392,1338.3,5.5311e-05,135.08,3.7335e-05,0.022703,-0.00013111,-1265.6,1.4261
9796,17.843,4.9091,0,0.0001344,1343.1,5.4444e-05,122.43,3.8153e-05,0.02488,-0.0001319,-1277.7,1.4138
9797,17.936,4.9091,0.05,1.2111e-06,12.103,9.2996e-07,6.9874,1.1821e-12,3.3624e-07,-9.2996e-07,-6.9874,1.4259
9798,17.936,4.6364,0,0.00013793,1378.4,5.7345e-05,143.79,3.821e-05,0.019439,-0.00013492,-1300.8,1.4265
9799,17.843,4.7273,0,0.00013809,1380,5.6476e-05,132.41,3.8857e-05,0.022929,-0.00013536,-1309,1.4142
9800,17.936,4.7273,0.05,1.1103e-06,11.096,8.5261e-07,6.4062,4.2793e-13,-3.7832e-06,-8.5261e-07,-6.4062,1.4263
9801,17.936,4.4545,0,0.00014169,1415.9,5.8911e-05,147.77,3.9246e-05,0.014924,-0.00013859,-1336.2,1.4268
9802,17.843,4.5455,0,0.00014161,1415.1,5.8108e-05,138.17,3.9721e-05,0.019481,-0.00013875,-1341,1.4146
9803,17.936,4.5455,0.05,9.9945e-07,9.9876,7.6745e-07,5.7663,9.7218e-13,-7.8613e-07,-7.6745e-07,-5.7663,1.4267
9804,17.936,4.2727,0,0.00014506,1449.6,5.9977e-05,147.13,4.0396e-05,0.0096164,-0.00014199,-1370.4,1.4271
9805,17.843,4.3636,0,0.00014482,1447.2,5.9292e-05,139.63,4.071e-05,0.014889,-0.00014194,-1372.4,1.4149
9806,17.936,4.3636,0.05,8.8345e-07,8.8284,6.7838e-07,5.097,-3.937e-14,-6.7185e-06,-6.7838e-07,-5.0971,1.427
9807,17.936,4.0909,0,0.00014797,1478.7,6.0575e-05,142.6,4.1596e-05,0.0048939,-0.00014503,-1402.2,1.4274
9808,17.843,4.1818,0,0.00014765,1475.5,6.0029e-05,137.19,4.1771e-05,0.0099664,-0.00014484,-1402.1,1.4152
9809,17.936,4.1818,0.05,7.6639e-07,7.6587,5.885e-07,4.4217,3.0913e-13,-3.1508e-06,-5.885e-07,-4.4217,1.4273
9810,17.936,3.9091,0,0.0001504,1503,6.0799e-05,135.44,4.2773e-05,0.0032617,-0.00014764,-1430.7,1.4276
9811,17.843,4,0,0.00015005,1499.4,6.0383e-05,131.78,4.2844e-05,0.0064462,-0.00014737,-1429.2,1.4154
9812,17.936,4,0.05,6.4975e-07,6.493,4.9893e-07,3.7487,-9.1845e-14,-5.1937e-06,-4.9893e-07,-3.7487,1.4275
9813,17.936,3.7273,0,0.00015237,1522.7,6.0779e-05,127.2,4.385e-05,0.0070088,-0.00014981,-1455.1,1.4278
9814,17.843,3.8182,0,0.00015201,1519.1,6.0455e-05,124.69,4.3861e-05,0.0066144,-0.00014951,-1452.9,1.4156
9815,17.936,3.8182,0.05,5.3297e-07,5.326,4.0925e-07,3.075,-2.039e-12,-1.2716e-05,-4.0925e-07,-3.075,1.4277
9816,17.936,3.5455,0,0.0001539,1537.9,6.0644e-05,119.36,4.476e-05,0.015769,-0.00015152,-1474.7,1.4279
9817,17.843,3.6364,0,0.00015357,1534.6,6.0366e-05,117.29,4.4757e-05,0.011521,-0.00015124,-1472.6,1.4158
9818,17.936,3.6364,0.05,4.1578e-07,4.1549,3.1926e-07,2.3988,-1.0053e-12,-2.2521e-05,-3.1926e-07,-2.3988,1.4279
9819,17.936,3.3636,0,0.00015499,1548.9,6.0492e-05,113.08,4.5446e-05,0.026539,-0.00015276,-1489.2,1.428
9820,17.843,3.4545,0,0.00015473,1546.3,6.022e-05,110.79,4.5478e-05,0.019717,-0.00015255,-1487.9,1.4159
9821,17.936,3.4545,0.05,2.997e-07,2.995,2.3013e-07,1.7291,-2.6805e-12,-3.4206e-05,-2.3014e-07,-1.7292,1.428
9822,17.936,3.1818,0,0.00015566,1555.5,6.0384e-05,109.07,4.5872e-05,0.035332,-0.00015351,-1498.1,1.4281
9823,17.843,3.2727,0,0.00015552,1554.1,6.0091e-05,106.05,4.598e-05,0.028182,-0.00015344,-1498.3,1.416
9824,17.936,3.2727,0.05,1.8839e-07,1.8826,1.4466e-07,1.0869,1.1068e-13,-1.1579e-05,-1.4466e-07,-1.0869,1.4281
9825,17.936,3,0,0.00015588,1557.7,6.0345e-05,107.7,4.6017e-05,0.038717,-0.00015377,-1501.1,1.4281
9826,17.843,3.0909,0,0.00015591,1558,6.0018e-05,103.57,4.6238e-05,0.033523,-0.00015389,-1503.6,1.416
9827,17.936,3.0909,0.05,9.4585e-08,0.94519,7.2628e-08,0.54571,4.8971e-13,1.2994e-05,-7.263e-08,-0.54571,1.4281
9828,17.936,2.8182,0,0.00015566,1555.5,6.0384e-05,109.07,4.5872e-05,0.035333,-0.00015351,-1498.1,1.4281
9829,17.843,2.9091,0,0.00015591,1558,6.0018e-05,103.57,4.6238e-05,0.033523,-0.00015389,-1503.6,1.416
9830,17.936,2.9091,0.05,9.4584e-08,0.94519,7.2629e-08,0.54571,-8.2064e-13,-2.2688e-06,-7.2629e-08,-0.5457,1.4281
9831,17.936,2.6364,0,0.00015499,1548.9,6.0492e-05,113.08,4.5446e-05,0.026539,-0.00015276,-1489.2,1.428
9832,17.843,2.7273,0,0.00015552,1554.1,6.0091e-05,106.05,4.598e-05,0.028182,-0.00015344,-1498.3,1.416
9833,17.936,2.7273,0.05,1.8839e-07,1.8826,1.4466e-07,1.0869,-5.4475e-13,-2.588e-05,-1.4466e-07,-1.0869,1.4281
9834,17.936,2.4545,0,0.0001539,1537.9,6.0644e-05,119.36,4.476e-05,0.015769,-0.00015152,-1474.7,1.4279
9835,17.843,2.5455,0,0.00015473,1546.3,6.022e-05,110.79,4.5478e-05,0.019718,-0.00015255,-1487.9,1.4159
9836,17.936,2.5455,0.05,2.997e-07,2.995,2.3014e-07,1.7291,-7.4922e-13,-4.7441e-05,-2.3013e-07,-1.7291,1.428
9837,17.936,2.2727,0,0.00015237,1522.7,6.0779e-05,127.2,4.385e-05,0.0070092,-0.00014981,-1455.1,1.4278
9838,17.843,2.3636,0,0.00015357,1534.6,6.0366e-05,117.29,4.4757e-05,0.011521,-0.00015124,-1472.6,1.4158
9839,17.936,2.3636,0.05,4.1578e-07,4.1549,3.1926e-07,2.3988,-2.663e-12,-1.5194e-05,-3.1926e-07,-2.3988,1.4279
9840,17.936,2.0909,0,0.0001504,1503,6.0799e-05,135.44,4.2773e-05,0.0032623,-0.00014764,-1430.7,1.4276
9841,17.843,2.1818,0,0.00015201,1519.1,6.0455e-05,124.69,4.3861e-05,0.0066144,-0.00014951,-1452.9,1.4156
9842,17.936,2.1818,0.05,5.3297e-07,5.326,4.0925e-07,3.075,-1.0758e-12,-5.6222e-06,-4.0925e-07,-3.075,1.4277
9843,17.936,1.9091,0,0.00014797,1478.7,6.0574e-05,142.6,4.1596e-05,0.0048947,-0.00014503,-1402.2,1.4274
9844,17.843,2,0,0.00015005,1499.4,6.0383e-05,131.78,4.2844e-05,0.0064459,-0.00014737,-1429.2,1.4154
9845,17.936,2,0.05,6.4975e-07,6.493,4.9893e-07,3.7487,-4.0051e-13,-8.3985e-06,-4.9893e-07,-3.7487,1.4275
9846,17.936,1.7273,0,0.00014506,1449.6,5.9977e-05,147.13,4.0396e-05,0.0096167,-0.00014199,-1370.4,1.4271
9847,17.843,1.8182,0,0.00014765,1475.5,6.0029e-05,137.19,4.1771e-05,0.0099676,-0.00014484,-1402.1,1.4152
9848,17.936,1.8182,0.05,7.6639e-07,7.6587,5.885e-07,4.4217,-1.3449e-12,-3.6142e-06,-5.885e-07,-4.4217,1.4273
9849,17.936,1.5455,0,0.00014169,1415.9,5.8911e-05,147.77,3.9246e-05,0.014924,-0.00013859,-1336.2,1.4268
9850,17.843,1.6364,0,0.00014482,1447.2,5.9291e-05,139.63,4.071e-05,0.014888,-0.00014194,-1372.4,1.4149
9851,17.936,1.6364,0.05,8.8345e-07,8.8284,6.7838e-07,5.0971,-4.1212e-13,-5.0992e-06,-6.7838e-07,-5.0971,1.427
9852,17.936,1.3636,0,0.00013793,1378.4,5.7345e-05,143.79,3.821e-05,0.019438,-0.00013492,-1300.8,1.4265
9853,17.843,1.4545,0,0.00014161,1415.1,5.8108e-05,138.17,3.9721e-05,0.01948,-0.00013875,-1341,1.4146
9854,17.936,1.4545,0.05,9.9945e-07,9.9876,7.6745e-07,5.7663,-4.2358e-14,1.2417e-07,-7.6745e-07,-5.7663,1.4267
9855,17.936,1.1818,0,0.00013392,1338.3,5.5311e-05,135.08,3.7335e-05,0.022703,-0.00013111,-1265.6,1.4261
9856,17.843,1.2727,0,0.00013809,1380,5.6476e-05,132.41,3.8857e-05,0.022928,-0.00013536,-1309,1.4142
9857,17.936,1.2727,0.05,1.1103e-06,11.096,8.5261e-07,6.4062,1.1862e-12,3.9852e-06,-8.5261e-07,-6.4062,1.4263
9858,17.936,1,0,0.00012981,1297.2,5.2893e-05,122.05,3.6653e-05,0.025504,-0.0001273,-1231.9,1.4257
9859,17.843,1.0909,0,0.0001344,1343.1,5.4444e-05,122.43,3.8153e-05,0.02488,-0.0001319,-1277.7,1.4138
9860,17.936,1.0909,0.05,1.2111e-06,12.103,9.2996e-07,6.9874,3.7443e-13,6.2208e-06,-9.2997e-07,-6.9874,1.4259
9861,17.936,0.81818,0,0.00012577,1256.9,5.0196e-05,105.33,3.618e-05,0.025223,-0.00012365,-1200.9,1.4253
9862,17.843,0.90909,0,0.00013068,1305.9,5.2094e-05,108.68,3.7633e-05,0.026582,-0.0001285,-1248.2,1.4134
9863,17.936,0.90909,0.05,1.2978e-06,12.969,9.9654e-07,7.4876,9.092e-13,5.7204e-06,-9.9654e-07,-7.4876,1.4255
9864,17.936,0.63636,0,0.00012194,1218.6,4.7318e-05,85.612,3.5927e-05,0.028474,-0.00012026,-1173.5,1.4248
9865,17.843,0.72727,0,0.00012707,1269.8,4.9513e-05,91.704,3.7311e-05,0.021094,-0.00012526,-1221.5,1.4129
9866,17.936,0.72727,0.05,1.3688e-06,13.679,1.0511e-06,7.8975,1.826e-12,8.818e-06,-1.0511e-06,-7.8975,1.425
9867,17.936,0.45455,0,0.00011841,1183.3,4.4326e-05,63.313,3.5896e-05,-0.024655,-0.00011721,-1150.4,1.4243
9868,17.843,0.54545,0,0.00012367,1235.9,4.6775e-05,71.999,3.7196e-05,0.027007,-0.00012229,-1198.3,1.4124
9869,17.936,0.54545,0.05,1.4241e-06,14.231,1.0935e-06,8.2165,1.3754e-12,7.8324e-06,-1.0935e-06,-8.2165,1.4245
9870,17.936,0.27273,0,0.00011524,1151.6,4.1239e-05,38.566,3.6097e-05,-0.067628,-0.00011454,-1131.9,1.4237
9871,17.843,0.36364,0,0.00012056,1204.8,4.3924e-05,49.781,3.7286e-05,-0.092937,-0.00011964,-1179.2,1.4119
9872,17.936,0.36364,0.05,1.456e-06,14.55,1.118e-06,8.4002,9.8864e-13,5.8903e-06,-1.118e-06,-8.4002,1.424
9873,17.843,0.18182,0,0.00011778,1176.9,4.0971e-05,25.214,3.7601e-05,-0.11065,-0.00011733,-1164.2,1.4114
9874,17.936,0.18182,0.05,1.3249e-06,13.24,1.0174e-06,7.6441,9.1577e-13,5.038e-06,-1.0174e-06,-7.6441,1.4234
9875,17.936,0.090909,0,0.0001127,1126.3,3.8373e-05,14.165,3.6489e-05,0.011732,-0.00011246,-1119.1,1.4232
9876,17.751,5.7273,0,0.00012308,1230,4.3642e-05,36.319,3.8797e-05,-0.080061,-0.00012242,-1211.4,1.3996
9877,17.658,5.8182,0,0.00012549,1254.1,4.3441e-05,24.275,4.0195e-05,-0.11389,-0.00012507,-1241.8,1.3872
9878,17.751,5.8182,0.05,1.1346e-06,11.338,8.7121e-07,6.5459,1.7847e-13,3.5736e-06,-8.7121e-07,-6.5459,1.3993
9879,17.751,5.9091,0,0.00012079,1207.1,4.1016e-05,13.838,3.9175e-05,0.0051597,-0.00012055,-1200.1,1.399
9880,17.751,5.5455,0,0.00012583,1257.4,4.6381e-05,58.524,3.8588e-05,-0.031483,-0.00012473,-1227.1,1.4001
9881,17.658,5.6364,0,0.00012791,1278.2,4.6061e-05,46.286,3.9888e-05,-0.09541,-0.00012706,-1254.5,1.3878
9882,17.751,5.6364,0.05,1.3316e-06,13.307,1.0225e-06,7.6827,1.0533e-12,5.4888e-06,-1.0225e-06,-7.6827,1.3998
9883,17.751,5.3636,0,0.00012882,1287.4,4.8989e-05,78.232,3.858e-05,0.023231,-0.00012732,-1246.4,1.4006
9884,17.658,5.4545,0,0.00013058,1304.9,4.8571e-05,66.096,3.9777e-05,0.01999,-0.00012933,-1270.6,1.3883
9885,17.751,5.4545,0.05,1.3074e-06,13.065,1.0039e-06,7.5431,1.491e-12,8.8324e-06,-1.0039e-06,-7.5431,1.4004
9886,17.751,5.1818,0,0.00013202,1319.2,5.1438e-05,95.256,3.8764e-05,0.02409,-0.00013014,-1269,1.4011
9887,17.658,5.2727,0,0.00013344,1333.4,5.0934e-05,83.357,3.9842e-05,0.018547,-0.00013182,-1289.8,1.3888
9888,17.751,5.2727,0.05,1.2576e-06,12.568,9.657e-07,7.2559,1.0131e-12,3.7827e-06,-9.6571e-07,-7.256,1.4009
9889,17.751,5,0,0.00013532,1352.2,5.3678e-05,109.31,3.9133e-05,0.026744,-0.00013313,-1294.3,1.4016
9890,17.658,5.0909,0,0.00013642,1363.3,5.3111e-05,97.905,4.0084e-05,0.026183,-0.00013449,-1311.7,1.3893
9891,17.751,5.0909,0.05,1.1949e-06,11.941,9.1752e-07,6.8939,1.8353e-12,3.9404e-06,-9.1752e-07,-6.8939,1.4013
9892,17.751,4.8182,0,0.00013862,1385.3,5.5644e-05,120.01,3.9674e-05,0.02543,-0.00013619,-1321.4,1.402
9893,17.658,4.9091,0,0.00013944,1393.4,5.5051e-05,109.43,4.049e-05,0.026123,-0.00013725,-1335.5,1.3897
9894,17.751,4.9091,0.05,1.1204e-06,11.196,8.6034e-07,6.4643,7.6422e-13,1.7471e-06,-8.6034e-07,-6.4643,1.4017
9895,17.751,4.6364,0,0.00014182,1417.2,5.7271e-05,127.03,4.0368e-05,0.023011,-0.00013923,-1349.4,1.4023
9896,17.658,4.7273,0,0.0001424,1423,5.6698e-05,117.63,4.1046e-05,0.025074,-0.00014003,-1360.5,1.3901
9897,17.751,4.7273,0.05,1.0359e-06,10.352,7.9544e-07,5.9766,5.2254e-13,-2.1936e-06,-7.9544e-07,-5.9767,1.4021
9898,17.751,4.4545,0,0.00014479,1446.9,5.8515e-05,130.23,4.1185e-05,0.019291,-0.00014213,-1377.3,1.4027
9899,17.658,4.5455,0,0.00014519,1450.9,5.8006e-05,122.33,4.1727e-05,0.022311,-0.00014272,-1385.8,1.3905
9900,17.751,4.5455,0.05,9.4405e-07,9.434,7.2491e-07,5.4467,3.3368e-13,-1.5872e-06,-7.2491e-07,-5.4467,1.4025
9901,17.751,4.2727,0,0.00014745,1473.5,5.9365e-05,129.85,4.2085e-05,0.01494,-0.00014481,-1404.2,1.403
9902,17.658,4.3636,0,0.00014773,1476.3,5.8951e-05,123.62,4.2501e-05,0.01856,-0.00014524,-1410.6,1.3908
9903,17.751,4.3636,0.05,8.4792e-07,8.4733,6.511e-07,4.8921,5.5856e-13,-5.5144e-06,-6.511e-07,-4.8921,1.4028
9904,17.751,4.0909,0,0.00014975,1496.4,5.9853e-05,126.49,4.3019e-05,0.011135,-0.00014719,-1429.2,1.4032
9905,17.658,4.1818,0,0.00014996,1498.6,5.9548e-05,121.88,4.3329e-05,0.014556,-0.00014752,-1433.9,1.3911
9906,17.751,4.1818,0.05,7.4991e-07,7.4939,5.7583e-07,4.3266,-6.8278e-14,-9.9413e-06,-5.7584e-07,-4.3266,1.4031
9907,17.751,3.9091,0,0.00015167,1515.6,6.005e-05,121.11,4.3932e-05,0.0094545,-0.00014924,-1451.4,1.4034
9908,17.658,4,0,0.00015186,1517.5,5.9845e-05,117.84,4.4162e-05,0.011641,-0.00014951,-1455.1,1.3913
9909,17.751,4,0.05,6.5128e-07,6.5083,5.001e-07,3.7576,6.1437e-13,-5.0279e-06,-5.0011e-07,-3.7576,1.4033
9910,17.751,3.7273,0,0.00015322,1531.1,6.0049e-05,114.82,4.4768e-05,0.011035,-0.00015094,-1470.5,1.4036
9911,17.658,3.8182,0,0.00015341,1533,5.9919e-05,112.47,4.4951e-05,0.011093,-0.00015118,-1473.7,1.3915
9912,17.751,3.8182,0.05,5.5278e-07,5.524,4.2447e-07,3.1893,4.7081e-13,-3.7003e-06,-4.2447e-07,-3.1893,1.4035
9913,17.751,3.5455,0,0.00015441,1543,5.9946e-05,108.74,4.5476e-05,0.015861,-0.00015227,-1485.8,1.4038
9914,17.658,3.6364,0,0.00015463,1545.2,5.9857e-05,106.78,4.5647e-05,0.013487,-0.00015253,-1489,1.3916
9915,17.751,3.6364,0.05,4.5595e-07,4.5564,3.5011e-07,2.6306,-8.629e-13,-1.6688e-06,-3.5011e-07,-2.6306,1.4037
9916,17.751,3.3636,0,0.00015526,1551.5,5.9819e-05,103.77,4.6012e-05,0.022346,-0.00015323,-1497,1.4039
9917,17.658,3.4545,0,0.00015553,1554.3,5.974e-05,101.69,4.6208e-05,0.018169,-0.00015355,-1500.9,1.3918
9918,17.751,3.4545,0.05,3.647e-07,3.6445,2.8004e-07,2.1042,-8.644e-14,5.971e-07,-2.8005e-07,-2.1042,1.4038
9919,17.751,3.1818,0,0.00015577,1556.6,5.9724e-05,100.55,4.6345e-05,0.027847,-0.00015382,-1503.9,1.4039
9920,17.658,3.2727,0,0.00015614,1560.3,5.963e-05,97.919,4.6601e-05,0.023261,-0.00015424,-1509,1.3918
9921,17.751,3.2727,0.05,2.8728e-07,2.8708,2.2059e-07,1.6575,1.3046e-12,2.4893e-06,-2.206e-07,-1.6575,1.4039
9922,17.751,3,0,0.00015594,1558.3,5.9689e-05,99.438,4.6459e-05,0.029991,-0.00015401,-1506.2,1.4039
9923,17.658,3.0909,0,0.00015644,1563.3,5.9566e-05,95.924,4.6802e-05,0.026541,-0.00015458,-1513.1,1.3919
9924,17.751,3.0909,0.05,2.3921e-07,2.3904,1.8368e-07,1.3801,2.4744e-12,1.0841e-05,-1.8368e-07,-1.3801,1.4039
9925,17.751,2.8182,0,0.00015577,1556.6,5.9724e-05,100.55,4.6345e-05,0.027846,-0.00015382,-1503.9,1.4039
9926,17.658,2.9091,0,0.00015644,1563.3,5.9566e-05,95.924,4.6802e-05,0.026541,-0.00015458,-1513.1,1.3919
9927,17.751,2.9091,0.05,2.3921e-07,2.3904,1.8368e-07,1.3801,1.4382e-12,6.3747e-06,-1.8368e-07,-1.3801,1.4039
9928,17.751,2.6364,0,0.00015526,1551.5,5.9819e-05,103.77,4.6012e-05,0.022347,-0.00015323,-1497,1.4039
9929,17.658,2.7273,0,0.00015614,1560.3,5.963e-05,97.919,4.6601e-05,0.023261,-0.00015424,-1509,1.3918
9930,17.751,2.7273,0.05,2.8728e-07,2.8708,2.206e-07,1.6575,6.6728e-13,-1.9043e-06,-2.2059e-07,-1.6575,1.4039
9931,17.751,2.4545,0,0.00015441,1543,5.9946e-05,108.74,4.5476e-05,0.015862,-0.00015227,-1485.8,1.4038
9932,17.658,2.5455,0,0.00015553,1554.3,5.974e-05,101.69,4.6208e-05,0.01817,-0.00015355,-1500.9,1.3918
9933,17.751,2.5455,0.05,3.647e-07,3.6445,2.8005e-07,2.1042,-2.0354e-13,-1.0593e-05,-2.8005e-07,-2.1042,1.4038
9934,17.751,2.2727,0,0.00015322,1531.1,6.0049e-05,114.82,4.4768e-05,0.011035,-0.00015094,-1470.5,1.4036
9935,17.658,2.3636,0,0.00015463,1545.2,5.9857e-05,106.78,4.5647e-05,0.013487,-0.00015253,-1489,1.3916
9936,17.751,2.3636,0.05,4.5595e-07,4.5564,3.5011e-07,2.6306,-1.1734e-12,-7.7467e-06,-3.5011e-07,-2.6306,1.4037
9937,17.751,2.0909,0,0.00015167,1515.6,6.005e-05,121.11,4.3932e-05,0.0094538,-0.00014924,-1451.4,1.4034
9938,17.658,2.1818,0,0.00015341,1533,5.9919e-05,112.47,4.4951e-05,0.011093,-0.00015118,-1473.7,1.3915
9939,17.751,2.1818,0.05,5.5278e-07,5.524,4.2447e-07,3.1893,-1.5127e-13,-7.3756e-06,-4.2447e-07,-3.1893,1.4035
9940,17.751,1.9091,0,0.00014975,1496.4,5.9853e-05,126.49,4.3019e-05,0.011135,-0.00014719,-1429.2,1.4032
9941,17.658,2,0,0.00015186,1517.5,5.9845e-05,117.84,4.4162e-05,0.011641,-0.00014951,-1455.1,1.3913
9942,17.751,2,0.05,6.5128e-07,6.5083,5.0011e-07,3.7576,-1.9829e-13,-4.1286e-06,-5.001e-07,-3.7576,1.4033
9943,17.751,1.7273,0,0.00014745,1473.5,5.9365e-05,129.85,4.2085e-05,0.014941,-0.00014481,-1404.2,1.403
9944,17.658,1.8182,0,0.00014996,1498.6,5.9548e-05,121.88,4.3329e-05,0.014556,-0.00014752,-1433.9,1.3911
9945,17.751,1.8182,0.05,7.4991e-07,7.4939,5.7583e-07,4.3266,9.3204e-13,-6.0569e-06,-5.7583e-07,-4.3266,1.4031
9946,17.751,1.5455,0,0.00014479,1446.9,5.8515e-05,130.23,4.1185e-05,0.019291,-0.00014213,-1377.3,1.4027
9947,17.658,1.6364,0,0.00014773,1476.3,5.8951e-05,123.62,4.2501e-05,0.018561,-0.00014524,-1410.6,1.3908
9948,17.751,1.6364,0.05,8.4792e-07,8.4733,6.511e-07,4.8921,1.0206e-12,1.05e-06,-6.511e-07,-4.8921,1.4028
9949,17.751,1.3636,0,0.00014182,1417.2,5.7271e-05,127.03,4.0368e-05,0.023011,-0.00013923,-1349.4,1.4023
9950,17.658,1.4545,0,0.00014519,1450.9,5.8006e-05,122.33,4.1727e-05,0.022311,-0.00014272,-1385.8,1.3905
9951,17.751,1.4545,0.05,9.4405e-07,9.434,7.2491e-07,5.4467,1.2709e-12,-1.233e-07,-7.2492e-07,-5.4467,1.4025
9952,17.751,1.1818,0,0.00013862,1385.3,5.5644e-05,120.01,3.9674e-05,0.025431,-0.00013619,-1321.4,1.402
9953,17.658,1.2727,0,0.0001424,1423,5.6698e-05,117.63,4.1046e-05,0.025074,-0.00014003,-1360.5,1.3901
9954,17.751,1.2727,0.05,1.0359e-06,10.352,7.9544e-07,5.9766,7.1533e-13,4.9777e-06,-7.9544e-07,-5.9767,1.4021
9955,17.751,1,0,0.00013532,1352.2,5.3678e-05,109.31,3.9133e-05,0.026746,-0.00013313,-1294.3,1.4016
9956,17.658,1.0909,0,0.00013944,1393.4,5.5051e-05,109.43,4.049e-05,0.026123,-0.00013725,-1335.5,1.3897
9957,17.751,1.0909,0.05,1.1204e-06,11.196,8.6034e-07,6.4643,3.992e-13,7.1238e-06,-8.6034e-07,-6.4643,1.4017
9958,17.751,0.81818,0,0.00013202,1319.2,5.1438e-05,95.256,3.8764e-05,0.024092,-0.00013014,-1269,1.4011
9959,17.658,0.90909,0,0.00013642,1363.3,5.3111e-05,97.904,4.0084e-05,0.026185,-0.00013449,-1311.7,1.3893
9960,17.751,0.90909,0.05,1.1949e-06,11.941,9.1752e-07,6.8939,1.3669e-12,6.6938e-06,-9.1753e-07,-6.8939,1.4013
9961,17.751,0.63636,0,0.00012882,1287.4,4.8989e-05,78.232,3.858e-05,0.023233,-0.00012732,-1246.4,1.4006
9962,17.658,0.72727,0,0.00013344,1333.4,5.0934e-05,83.357,3.9842e-05,0.01855,-0.00013182,-1289.8,1.3888
9963,17.751,0.72727,0.05,1.2576e-06,12.568,9.6571e-07,7.2559,1.3539e-12,6.5307e-06,-9.6571e-07,-7.256,1.4009
9964,17.751,0.45455,0,0.00012583,1257.4,4.6381e-05,58.524,3.8588e-05,-0.031483,-0.00012473,-1227.1,1.4001
9965,17.658,0.54545,0,0.00013058,1304.9,4.8571e-05,66.096,3.9777e-05,0.019991,-0.00012933,-1270.6,1.3883
9966,17.751,0.54545,0.05,1.3074e-06,13.065,1.0039e-06,7.5431,9.0515e-13,4.4919e-06,-1.0039e-06,-7.5431,1.4004
9967,17.751,0.27273,0,0.00012308,1230,4.3642e-05,36.319,3.8797e-05,-0.080061,-0.00012242,-1211.4,1.3996
9968,17.658,0.36364,0,0.00012791,1278.2,4.6061e-05,46.286,3.9888e-05,-0.09541,-0.00012706,-1254.5,1.3878
9969,17.751,0.36364,0.05,1.3316e-06,13.307,1.0225e-06,7.6827,5.1145e-14,2.6475e-06,-1.0225e-06,-7.6827,1.3998
9970,17.658,0.18182,0,0.00012549,1254.1,4.3441e-05,24.275,4.0195e-05,-0.11389,-0.00012507,-1241.8,1.3872
9971,17.751,0.18182,0.05,1.1346e-06,11.338,8.7121e-07,6.5459,-1.1451e-13,2.3863e-06,-8.7121e-07,-6.5459,1.3993
9972,17.751,0.090909,0,0.00012079,1207.1,4.1016e-05,13.838,3.9175e-05,0.0051592,-0.00012055,-1200.1,1.399
9973,17.566,5.7273,0,0.0001303,1302.1,4.5844e-05,34.119,4.1292e-05,-0.083627,-0.00012969,-1284.8,1.3755
9974,17.474,5.8182,0,0.00013264,1325.4,4.5725e-05,23.395,4.2597e-05,-0.10632,-0.00013222,-1313.6,1.3632
9975,17.566,5.8182,0.05,9.6774e-07,9.6708,7.4311e-07,5.5834,6.5077e-13,6.6834e-06,-7.4311e-07,-5.5834,1.3752
9976,17.566,5.9091,0,0.00012824,1281.5,4.3448e-05,13.525,4.1648e-05,0.0007171,-0.00012801,-1274.7,1.3749
9977,17.566,5.5455,0,0.00013266,1325.7,4.8255e-05,53.878,4.1079e-05,-0.034929,-0.00013166,-1298,1.3761
9978,17.474,5.6364,0,0.0001347,1346.1,4.8024e-05,42.896,4.2303e-05,-0.093506,-0.00013392,-1324.2,1.3638
9979,17.566,5.6364,0.05,1.226e-06,12.252,9.4145e-07,7.0737,1.0856e-12,6.3448e-06,-9.4145e-07,-7.0737,1.3758
9980,17.566,5.3636,0,0.0001352,1351.1,5.0527e-05,71.298,4.104e-05,0.018679,-0.00013385,-1314,1.3766
9981,17.474,5.4545,0,0.00013698,1368.9,5.0225e-05,60.491,4.2176e-05,0.01439,-0.00013585,-1337.6,1.3643
9982,17.566,5.4545,0.05,1.2105e-06,12.097,9.2954e-07,6.9842,1.5011e-12,7.5106e-06,-9.2954e-07,-6.9842,1.3763
9983,17.566,5.1818,0,0.00013786,1377.6,5.2622e-05,86.124,4.1163e-05,0.022191,-0.00013619,-1332.6,1.377
9984,17.474,5.2727,0,0.00013938,1392.9,5.2268e-05,75.667,4.2199e-05,0.015913,-0.00013794,-1353.5,1.3648
9985,17.566,5.2727,0.05,1.1676e-06,11.668,8.9654e-07,6.7363,1.4621e-12,3.6559e-06,-8.9655e-07,-6.7363,1.3768
9986,17.566,5,0,0.00014057,1404.7,5.4503e-05,98.163,4.1442e-05,0.026326,-0.00013864,-1353,1.3775
9987,17.474,5.0909,0,0.00014185,1417.5,5.4119e-05,88.286,4.2372e-05,0.024708,-0.00014014,-1371.3,1.3653
9988,17.566,5.0909,0.05,1.1138e-06,11.131,8.5527e-07,6.4262,9.4254e-13,4.0568e-06,-8.5528e-07,-6.4262,1.3773
9989,17.566,4.8182,0,0.00014324,1431.4,5.6125e-05,107.19,4.1862e-05,0.026105,-0.00014111,-1374.8,1.3779
9990,17.474,4.9091,0,0.00014431,1442.1,5.574e-05,98.151,4.2681e-05,0.0258,-0.00014239,-1390.5,1.3657
9991,17.566,4.9091,0.05,1.0512e-06,10.504,8.0715e-07,6.0646,1.2731e-12,1.2329e-06,-8.0715e-07,-6.0646,1.3777
9992,17.566,4.6364,0,0.0001458,1457,5.7451e-05,113.08,4.2405e-05,0.024446,-0.00014354,-1397.1,1.3783
9993,17.474,4.7273,0,0.0001467,1465.9,5.7098e-05,105.11,4.3111e-05,0.025506,-0.00014462,-1410.5,1.3661
9994,17.566,4.7273,0.05,9.8106e-07,9.8038,7.5333e-07,5.6602,1.5473e-12,-2.0939e-06,-7.5333e-07,-5.6602,1.3781
9995,17.566,4.4545,0,0.00014816,1480.6,5.8458e-05,115.84,4.3043e-05,0.021466,-0.00014585,-1419.2,1.3786
9996,17.474,4.5455,0,0.00014893,1488.2,5.8166e-05,109.15,4.3642e-05,0.023441,-0.00014677,-1430.6,1.3664
9997,17.566,4.5455,0.05,9.0552e-07,9.0489,6.9532e-07,5.2244,1.3473e-12,9.7352e-07,-6.9533e-07,-5.2244,1.3784
9998,17.566,4.2727,0,0.00015027,1501.6,5.9148e-05,115.74,4.3746e-05,0.017926,-0.00014796,-1440.4,1.3789
9999,17.474,4.3636,0,0.00015095,1508.4,5.8936e-05,110.4,4.4245e-05,0.020459,-0.00014876,-1450.2,1.3668
10000,17.566,4.3636,0.05,8.2661e-07,8.2604,6.3474e-07,4.7692,8.4428e-13,-7.7442e-07,-6.3474e-07,-4.7692,1.3787
10001,17.566,4.0909,0,0.00015209,1519.8,5.955e-05,113.3,4.4472e-05,0.014734,-0.00014984,-1460,1.3792
10002,17.474,4.1818,0,0.00015271,1526.1,5.9427e-05,109.25,4.4889e-05,0.017234,-0.00015056,-1468.5,1.367
10003,17.566,4.1818,0.05,7.4611e-07,7.456,5.7292e-07,4.3047,9.9407e-13,-1.9475e-06,-5.7292e-07,-4.3047,1.379
10004,17.566,3.9091,0,0.0001536,1535,5.9721e-05,109.26,4.5181e-05,0.012973,-0.00015145,-1477.4,1.3794
10005,17.474,4,0,0.00015421,1541,5.9678e-05,106.27,4.5536e-05,0.014709,-0.00015213,-1485.2,1.3673
10006,17.566,4,0.05,6.6541e-07,6.6495,5.1095e-07,3.8391,1.346e-12,2.1177e-06,-5.1095e-07,-3.8391,1.3793
10007,17.566,3.7273,0,0.00015482,1547.1,5.9731e-05,104.46,4.583e-05,0.013409,-0.00015278,-1492.3,1.3795
10008,17.474,3.8182,0,0.00015543,1553.3,5.975e-05,102.21,4.6148e-05,0.013744,-0.00015344,-1499.6,1.3675
10009,17.566,3.8182,0.05,5.8601e-07,5.856,4.4998e-07,3.381,1.1946e-12,1.3915e-06,-4.4998e-07,-3.381,1.3794
10010,17.566,3.5455,0,0.00015575,1556.5,5.9653e-05,99.744,4.638e-05,0.015988,-0.00015382,-1504.2,1.3797
10011,17.474,3.6364,0,0.00015639,1562.8,5.9708e-05,97.845,4.6688e-05,0.014712,-0.0001545,-1511.6,1.3676
10012,17.566,3.6364,0.05,5.1034e-07,5.0999,3.9188e-07,2.9444,1.8685e-12,7.8249e-06,-3.9188e-07,-2.9444,1.3796
10013,17.566,3.3636,0,0.00015641,1563,5.9551e-05,95.846,4.6797e-05,0.019691,-0.00015456,-1512.9,1.3798
10014,17.474,3.4545,0,0.0001571,1569.9,5.9617e-05,93.888,4.7124e-05,0.017183,-0.00015529,-1520.8,1.3677
10015,17.566,3.4545,0.05,4.427e-07,4.4239,3.3994e-07,2.5541,1.8039e-12,4.7596e-06,-3.3994e-07,-2.5542,1.3797
10016,17.566,3.1818,0,0.00015681,1567,5.9471e-05,93.294,4.7058e-05,0.022915,-0.00015501,-1518.2,1.3798
10017,17.474,3.2727,0,0.00015757,1574.6,5.9528e-05,90.923,4.7429e-05,0.020031,-0.00015582,-1527.1,1.3678
10018,17.566,3.2727,0.05,3.8975e-07,3.8949,2.9928e-07,2.2487,1.6581e-12,6.4962e-06,-2.9929e-07,-2.2487,1.3798
10019,17.566,3,0,0.00015694,1568.3,5.9442e-05,92.409,4.7146e-05,0.024189,-0.00015516,-1520,1.3799
10020,17.474,3.0909,0,0.0001578,1576.9,5.9475e-05,89.342,4.7587e-05,0.021911,-0.00015609,-1530.3,1.3679
10021,17.566,3.0909,0.05,3.5994e-07,3.5969,2.7638e-07,2.0766,1.9069e-12,9.9617e-06,-2.7639e-07,-2.0767,1.3798
10022,17.566,2.8182,0,0.00015681,1567,5.9471e-05,93.294,4.7058e-05,0.022915,-0.00015501,-1518.2,1.3798
10023,17.474,2.9091,0,0.0001578,1576.9,5.9475e-05,89.342,4.7587e-05,0.021911,-0.00015609,-1530.3,1.3679
10024,17.566,2.9091,0.05,3.5994e-07,3.5969,2.7638e-07,2.0766,2.0655e-12,7.7627e-06,-2.7639e-07,-2.0767,1.3798
10025,17.566,2.6364,0,0.00015641,1563,5.9551e-05,95.846,4.6797e-05,0.019691,-0.00015456,-1512.9,1.3798
10026,17.474,2.7273,0,0.00015757,1574.6,5.9528e-05,90.923,4.7429e-05,0.020031,-0.00015582,-1527.1,1.3678
10027,17.566,2.7273,0.05,3.8975e-07,3.8949,2.9928e-07,2.2487,1.1231e-12,1.7707e-06,-2.9928e-07,-2.2487,1.3798
10028,17.566,2.4545,0,0.00015575,1556.5,5.9653e-05,99.744,4.638e-05,0.015987,-0.00015382,-1504.2,1.3797
10029,17.474,2.5455,0,0.0001571,1569.9,5.9617e-05,93.888,4.7124e-05,0.017183,-0.00015529,-1520.8,1.3677
10030,17.566,2.5455,0.05,4.427e-07,4.4239,3.3994e-07,2.5542,5.1202e-13,-1.8724e-06,-3.3994e-07,-2.5542,1.3797
10031,17.566,2.2727,0,0.00015482,1547.1,5.9731e-05,104.46,4.583e-05,0.013409,-0.00015278,-1492.3,1.3795
10032,17.474,2.3636,0,0.00015639,1562.8,5.9708e-05,97.845,4.6688e-05,0.014713,-0.0001545,-1511.6,1.3676
10033,17.566,2.3636,0.05,5.1034e-07,5.0999,3.9188e-07,2.9444,1.0696e-14,3.1919e-08,-3.9188e-07,-2.9444,1.3796
10034,17.566,2.0909,0,0.0001536,1535,5.9721e-05,109.26,4.5181e-05,0.012974,-0.00015145,-1477.4,1.3794
10035,17.474,2.1818,0,0.00015543,1553.3,5.975e-05,102.21,4.6148e-05,0.013745,-0.00015344,-1499.6,1.3675
10036,17.566,2.1818,0.05,5.8601e-07,5.856,4.4998e-07,3.381,8.0788e-13,1.0821e-07,-4.4998e-07,-3.381,1.3794
10037,17.566,1.9091,0,0.00015209,1519.8,5.955e-05,113.3,4.4472e-05,0.014735,-0.00014984,-1460,1.3792
10038,17.474,2,0,0.00015421,1541,5.9678e-05,106.27,4.5536e-05,0.014709,-0.00015213,-1485.2,1.3673
10039,17.566,2,0.05,6.6541e-07,6.6495,5.1095e-07,3.8391,3.8883e-14,1.0812e-07,-5.1096e-07,-3.8391,1.3793
10040,17.566,1.7273,0,0.00015027,1501.6,5.9147e-05,115.74,4.3746e-05,0.017926,-0.00014796,-1440.4,1.3789
10041,17.474,1.8182,0,0.00015271,1526.1,5.9427e-05,109.25,4.4889e-05,0.017233,-0.00015056,-1468.5,1.367
10042,17.566,1.8182,0.05,7.4611e-07,7.456,5.7292e-07,4.3047,-2.7907e-13,-2.962e-06,-5.7292e-07,-4.3047,1.379
10043,17.566,1.5455,0,0.00014816,1480.6,5.8458e-05,115.84,4.3043e-05,0.021467,-0.00014585,-1419.2,1.3786
10044,17.474,1.6364,0,0.00015095,1508.4,5.8936e-05,110.4,4.4245e-05,0.02046,-0.00014876,-1450.2,1.3668
10045,17.566,1.6364,0.05,8.2661e-07,8.2604,6.3474e-07,4.7692,1.2324e-12,2.5651e-06,-6.3474e-07,-4.7692,1.3787
10046,17.566,1.3636,0,0.0001458,1457,5.7451e-05,113.08,4.2405e-05,0.024446,-0.00014354,-1397.1,1.3783
10047,17.474,1.4545,0,0.00014893,1488.2,5.8165e-05,109.15,4.3642e-05,0.023441,-0.00014677,-1430.6,1.3664
10048,17.566,1.4545,0.05,9.0552e-07,9.0489,6.9532e-07,5.2244,1.462e-12,3.2543e-06,-6.9533e-07,-5.2244,1.3784
10049,17.566,1.1818,0,0.00014324,1431.4,5.6125e-05,107.19,4.1862e-05,0.026105,-0.00014111,-1374.8,1.3779
10050,17.474,1.2727,0,0.0001467,1465.9,5.7098e-05,105.11,4.3111e-05,0.025506,-0.00014462,-1410.5,1.3661
10051,17.566,1.2727,0.05,9.8106e-07,9.8038,7.5333e-07,5.6602,1.6447e-12,5.251e-06,-7.5333e-07,-5.6602,1.3781
10052,17.566,1,0,0.00014057,1404.7,5.4503e-05,98.162,4.1442e-05,0.026326,-0.00013864,-1353,1.3775
10053,17.474,1.0909,0,0.00014431,1442.1,5.574e-05,98.15,4.2681e-05,0.0258,-0.00014239,-1390.5,1.3657
10054,17.566,1.0909,0.05,1.0512e-06,10.504,8.0715e-07,6.0646,1.7689e-12,6.3115e-06,-8.0715e-07,-6.0646,1.3777
10055,17.566,0.81818,0,0.00013786,1377.6,5.2622e-05,86.123,4.1163e-05,0.022193,-0.00013619,-1332.6,1.377
10056,17.474,0.90909,0,0.00014185,1417.5,5.4119e-05,88.286,4.2372e-05,0.024709,-0.00014014,-1371.3,1.3653
10057,17.566,0.90909,0.05,1.1138e-06,11.131,8.5527e-07,6.4262,9.2906e-13,6.8259e-06,-8.5528e-07,-6.4262,1.3773
10058,17.566,0.63636,0,0.0001352,1351.1,5.0527e-05,71.298,4.104e-05,0.01868,-0.00013385,-1314,1.3766
10059,17.474,0.72727,0,0.00013938,1392.9,5.2268e-05,75.667,4.2199e-05,0.015915,-0.00013794,-1353.5,1.3648
10060,17.566,0.72727,0.05,1.1676e-06,11.668,8.9654e-07,6.7363,1.8862e-12,6.4231e-06,-8.9655e-07,-6.7363,1.3768
10061,17.566,0.45455,0,0.00013266,1325.7,4.8255e-05,53.878,4.1079e-05,-0.034929,-0.00013166,-1298,1.3761
10062,17.474,0.54545,0,0.00013698,1368.9,5.0225e-05,60.491,4.2176e-05,0.014392,-0.00013585,-1337.6,1.3643
10063,17.566,0.54545,0.05,1.2105e-06,12.097,9.2954e-07,6.9842,4.9898e-14,5.3035e-06,-9.2954e-07,-6.9842,1.3763
10064,17.566,0.27273,0,0.0001303,1302.1,4.5844e-05,34.119,4.1292e-05,-0.083628,-0.00012969,-1284.8,1.3755
10065,17.474,0.36364,0,0.0001347,1346.1,4.8024e-05,42.895,4.2303e-05,-0.093508,-0.00013392,-1324.2,1.3638
10066,17.566,0.36364,0.05,1.226e-06,12.252,9.4145e-07,7.0737,-1.997e-22,1.7088e-06,-9.4145e-07,-7.0737,1.3758
10067,17.474,0.18182,0,0.00013264,1325.4,4.5725e-05,23.395,4.2597e-05,-0.10632,-0.00013222,-1313.6,1.3632
10068,17.566,0.18182,0.05,9.6774e-07,9.6708,7.4311e-07,5.5834,1.1232e-13,-5.766e-07,-7.4311e-07,-5.5834,1.3752
10069,17.566,0.090909,0,0.00012824,1281.5,4.3448e-05,13.525,4.1648e-05,0.00071748,-0.00012801,-1274.7,1.3749
10070,17.381,5.7273,0,0.00013702,1369.2,4.7887e-05,32.043,4.3612e-05,-0.081666,-0.00013644,-1353,1.3515
10071,17.289,5.8182,0,0.0001393,1392,4.7855e-05,22.589,4.4836e-05,-0.093469,-0.0001389,-1380.6,1.3393
10072,17.381,5.8182,0.05,8.2362e-07,8.2305,6.3243e-07,4.7519,1.3525e-12,3.9045e-06,-6.3244e-07,-4.7519,1.3512
10073,17.381,5.9091,0,0.00013515,1350.6,4.5705e-05,13.238,4.3943e-05,-0.0022767,-0.00013492,-1343.9,1.3509
10074,17.381,5.5455,0,0.00013902,1389.3,4.9994e-05,49.505,4.34e-05,-0.036177,-0.00013811,-1363.9,1.3521
10075,17.289,5.6364,0,0.00014105,1409.5,4.9854e-05,39.71,4.4557e-05,-0.08905,-0.00014033,-1389.3,1.3398
10076,17.381,5.6364,0.05,1.1378e-06,11.37,8.7365e-07,6.5643,1.085e-12,3.3873e-06,-8.7365e-07,-6.5643,1.3518
10077,17.381,5.3636,0,0.00014117,1410.7,5.1972e-05,64.899,4.3336e-05,0.014692,-0.00013995,-1377.2,1.3526
10078,17.289,5.4545,0,0.00014299,1428.9,5.1778e-05,55.291,4.4421e-05,0.0098633,-0.00014196,-1400.4,1.3404
10079,17.381,5.4545,0.05,1.131e-06,11.302,8.6844e-07,6.5251,1.5024e-12,5.995e-06,-8.6845e-07,-6.5252,1.3523
10080,17.381,5.1818,0,0.00014339,1432.9,5.3773e-05,77.895,4.3408e-05,0.019854,-0.0001419,-1392.3,1.3531
10081,17.289,5.2727,0,0.000145,1449,5.3548e-05,68.668,4.441e-05,0.01328,-0.00014371,-1413.5,1.3409
10082,17.381,5.2727,0.05,1.095e-06,10.942,8.4082e-07,6.3176,1.8878e-12,2.4953e-06,-8.4082e-07,-6.3176,1.3528
10083,17.381,5,0,0.00014561,1455.1,5.5367e-05,88.356,4.3611e-05,0.024896,-0.00014391,-1408.9,1.3535
10084,17.289,5.0909,0,0.00014705,1469.5,5.5132e-05,79.717,4.4525e-05,0.022599,-0.00014553,-1428,1.3413
10085,17.381,5.0909,0.05,1.0499e-06,10.492,8.0621e-07,6.0576,4.9675e-13,2.2452e-06,-8.0622e-07,-6.0576,1.3533
10086,17.381,4.8182,0,0.00014778,1476.8,5.6725e-05,96.158,4.393e-05,0.02553,-0.00014591,-1426.4,1.3539
10087,17.289,4.9091,0,0.00014906,1489.6,5.6503e-05,88.307,4.4753e-05,0.024517,-0.00014736,-1443.5,1.3418
10088,17.381,4.9091,0.05,9.9794e-07,9.9725,7.6629e-07,5.7576,1.3167e-12,1.5378e-06,-7.663e-07,-5.7576,1.3537
10089,17.381,4.6364,0,0.00014984,1497.4,5.7823e-05,101.27,4.4349e-05,0.024588,-0.00014786,-1444.2,1.3543
10090,17.289,4.7273,0,0.00015099,1508.9,5.7638e-05,94.378,4.5081e-05,0.024866,-0.00014916,-1459.4,1.3422
10091,17.381,4.7273,0.05,9.4033e-07,9.3968,7.2206e-07,5.4252,1.2119e-12,6.8851e-07,-7.2206e-07,-5.4253,1.3541
10092,17.381,4.4545,0,0.00015173,1516.2,5.8653e-05,103.78,4.4844e-05,0.022353,-0.0001497,-1461.7,1.3546
10093,17.289,4.5455,0,0.00015278,1526.8,5.8526e-05,97.974,4.5489e-05,0.023468,-0.00015088,-1475.4,1.3425
10094,17.381,4.5455,0.05,8.7863e-07,8.7803,6.7468e-07,5.0693,1.0759e-12,3.2871e-06,-6.7468e-07,-5.0693,1.3545
10095,17.381,4.2727,0,0.00015341,1533,5.9223e-05,103.97,4.5389e-05,0.019567,-0.00015137,-1478.4,1.3549
10096,17.289,4.3636,0,0.0001544,1542.9,5.9166e-05,99.276,4.5956e-05,0.021196,-0.00015247,-1490.8,1.3428
10097,17.381,4.3636,0.05,8.1442e-07,8.1386,6.2537e-07,4.6988,9.09e-13,-1.3556e-06,-6.2538e-07,-4.6988,1.3548
10098,17.381,4.0909,0,0.00015485,1547.4,5.9561e-05,102.27,4.5952e-05,0.016943,-0.00015286,-1493.8,1.3552
10099,17.289,4.1818,0,0.0001558,1556.9,5.9577e-05,98.621,4.6454e-05,0.018626,-0.00015389,-1505.3,1.3431
10100,17.381,4.1818,0.05,7.4917e-07,7.4866,5.7527e-07,4.3223,1.4184e-12,-1.0951e-06,-5.7527e-07,-4.3224,1.355
10101,17.381,3.9091,0,0.00015605,1559.4,5.9711e-05,99.264,4.6502e-05,0.015227,-0.00015412,-1507.4,1.3554
10102,17.289,4,0,0.00015699,1568.8,5.9794e-05,96.489,4.6955e-05,0.016464,-0.00015512,-1518.3,1.3434
10103,17.381,4,0.05,6.8433e-07,6.8386,5.2548e-07,3.9482,1.3029e-12,2.2925e-07,-5.2548e-07,-3.9483,1.3553
10104,17.381,3.7273,0,0.00015701,1569,5.973e-05,95.623,4.7006e-05,0.01491,-0.00015516,-1519,1.3556
10105,17.289,3.8182,0,0.00015795,1578.5,5.9865e-05,93.457,4.7428e-05,0.015283,-0.00015616,-1529.6,1.3436
10106,17.381,3.8182,0.05,6.2162e-07,6.2119,4.7732e-07,3.5864,1.5056e-12,-5.0594e-07,-4.7732e-07,-3.5865,1.3555
10107,17.381,3.5455,0,0.00015774,1576.3,5.9674e-05,92,4.7432e-05,0.015993,-0.00015597,-1528.3,1.3557
10108,17.289,3.6364,0,0.00015871,1586,5.9841e-05,90.133,4.7847e-05,0.015338,-0.00015698,-1539,1.3437
10109,17.381,3.6364,0.05,5.6347e-07,5.6308,4.3267e-07,3.2509,1.9191e-12,6.3235e-06,-4.3268e-07,-3.251,1.3556
10110,17.381,3.3636,0,0.00015825,1581.4,5.9595e-05,88.97,4.7756e-05,0.017889,-0.00015655,-1535.1,1.3558
10111,17.289,3.4545,0,0.00015926,1591.5,5.9773e-05,87.084,4.8185e-05,0.016408,-0.0001576,-1546.2,1.3438
10112,17.381,3.4545,0.05,5.134e-07,5.1305,3.9423e-07,2.9621,2.4506e-12,6.0849e-06,-3.9423e-07,-2.9621,1.3558
10113,17.381,3.1818,0,0.00015856,1584.5,5.9531e-05,86.971,4.7959e-05,0.019632,-0.0001569,-1539.2,1.3559
10114,17.289,3.2727,0,0.00015962,1595.1,5.9703e-05,84.779,4.8422e-05,0.017832,-0.00015801,-1551,1.3439
10115,17.381,3.2727,0.05,4.759e-07,4.7557,3.6543e-07,2.7457,2.2964e-12,4.7993e-06,-3.6544e-07,-2.7458,1.3558
10116,17.381,3,0,0.00015866,1585.5,5.9507e-05,86.275,4.8027e-05,0.020334,-0.00015701,-1540.6,1.3559
10117,17.289,3.0909,0,0.0001598,1596.9,5.9661e-05,83.542,4.8544e-05,0.018814,-0.00015822,-1553.5,1.3439
10118,17.381,3.0909,0.05,4.556e-07,4.5529,3.4985e-07,2.6286,2.3308e-12,8.0315e-06,-3.4985e-07,-2.6286,1.3559
10119,17.381,2.8182,0,0.00015856,1584.5,5.9531e-05,86.971,4.7959e-05,0.019633,-0.0001569,-1539.2,1.3559
10120,17.289,2.9091,0,0.0001598,1596.9,5.9661e-05,83.542,4.8544e-05,0.018815,-0.00015822,-1553.5,1.3439
10121,17.381,2.9091,0.05,4.556e-07,4.5529,3.4985e-07,2.6286,2.1696e-12,8.6784e-06,-3.4985e-07,-2.6286,1.3559
10122,17.381,2.6364,0,0.00015825,1581.4,5.9595e-05,88.97,4.7756e-05,0.017889,-0.00015655,-1535.1,1.3558
10123,17.289,2.7273,0,0.00015962,1595.1,5.9703e-05,84.778,4.8422e-05,0.017832,-0.00015801,-1551,1.3439
10124,17.381,2.7273,0.05,4.759e-07,4.7557,3.6544e-07,2.7457,1.486e-12,4.1805e-06,-3.6543e-07,-2.7458,1.3558
10125,17.381,2.4545,0,0.00015774,1576.3,5.9674e-05,92,4.7432e-05,0.015994,-0.00015597,-1528.3,1.3557
10126,17.289,2.5455,0,0.00015926,1591.5,5.9773e-05,87.084,4.8185e-05,0.016407,-0.0001576,-1546.2,1.3438
10127,17.381,2.5455,0.05,5.134e-07,5.1305,3.9423e-07,2.9621,1.1912e-12,-1.1967e-07,-3.9423e-07,-2.9621,1.3558
10128,17.381,2.2727,0,0.00015701,1569,5.973e-05,95.623,4.7006e-05,0.014911,-0.00015516,-1519,1.3556
10129,17.289,2.3636,0,0.00015871,1586,5.9841e-05,90.133,4.7847e-05,0.015339,-0.00015698,-1539,1.3437
10130,17.381,2.3636,0.05,5.6347e-07,5.6308,4.3267e-07,3.2509,9.0501e-13,9.6451e-07,-4.3268e-07,-3.251,1.3556
10131,17.381,2.0909,0,0.00015605,1559.4,5.9711e-05,99.264,4.6502e-05,0.015226,-0.00015412,-1507.4,1.3554
10132,17.289,2.1818,0,0.00015795,1578.5,5.9865e-05,93.457,4.7428e-05,0.015283,-0.00015616,-1529.6,1.3436
10133,17.381,2.1818,0.05,6.2162e-07,6.2119,4.7732e-07,3.5864,7.2225e-13,-4.3144e-06,-4.7732e-07,-3.5864,1.3555
10134,17.381,1.9091,0,0.00015485,1547.4,5.9561e-05,102.27,4.5952e-05,0.016943,-0.00015286,-1493.8,1.3552
10135,17.289,2,0,0.00015699,1568.8,5.9794e-05,96.489,4.6955e-05,0.016464,-0.00015512,-1518.3,1.3434
10136,17.381,2,0.05,6.8433e-07,6.8386,5.2548e-07,3.9482,1.0897e-12,-1.3172e-06,-5.2548e-07,-3.9483,1.3553
10137,17.381,1.7273,0,0.00015341,1533,5.9223e-05,103.97,4.5389e-05,0.019568,-0.00015137,-1478.4,1.3549
10138,17.289,1.8182,0,0.0001558,1556.9,5.9577e-05,98.621,4.6454e-05,0.018626,-0.00015389,-1505.3,1.3431
10139,17.381,1.8182,0.05,7.4917e-07,7.4866,5.7527e-07,4.3224,6.8524e-13,6.8134e-07,-5.7527e-07,-4.3224,1.355
10140,17.381,1.5455,0,0.00015173,1516.2,5.8653e-05,103.78,4.4844e-05,0.022354,-0.0001497,-1461.7,1.3546
10141,17.289,1.6364,0,0.0001544,1542.9,5.9166e-05,99.276,4.5956e-05,0.021196,-0.00015247,-1490.8,1.3428
10142,17.381,1.6364,0.05,8.1442e-07,8.1386,6.2537e-07,4.6988,4.4529e-13,-1.3089e-07,-6.2537e-07,-4.6988,1.3548
10143,17.381,1.3636,0,0.00014984,1497.4,5.7823e-05,101.27,4.4349e-05,0.024589,-0.00014786,-1444.2,1.3543
10144,17.289,1.4545,0,0.00015278,1526.8,5.8526e-05,97.974,4.5489e-05,0.023468,-0.00015088,-1475.4,1.3425
10145,17.381,1.4545,0.05,8.7863e-07,8.7803,6.7468e-07,5.0693,1.5559e-12,2.6663e-06,-6.7468e-07,-5.0693,1.3545
10146,17.381,1.1818,0,0.00014778,1476.8,5.6725e-05,96.158,4.393e-05,0.02553,-0.00014591,-1426.4,1.3539
10147,17.289,1.2727,0,0.00015099,1508.9,5.7638e-05,94.378,4.5081e-05,0.024865,-0.00014916,-1459.4,1.3422
10148,17.381,1.2727,0.05,9.4033e-07,9.3968,7.2206e-07,5.4253,7.7811e-13,4.8922e-06,-7.2206e-07,-5.4253,1.3541
10149,17.381,1,0,0.00014561,1455.1,5.5367e-05,88.355,4.3611e-05,0.024896,-0.00014391,-1408.9,1.3535
10150,17.289,1.0909,0,0.00014906,1489.6,5.6503e-05,88.307,4.4753e-05,0.024518,-0.00014736,-1443.5,1.3418
10151,17.381,1.0909,0.05,9.9794e-07,9.9725,7.6629e-07,5.7576,1.3354e-12,5.4981e-06,-7.6629e-07,-5.7576,1.3537
10152,17.381,0.81818,0,0.00014339,1432.9,5.3773e-05,77.895,4.3408e-05,0.019856,-0.0001419,-1392.3,1.3531
10153,17.289,0.90909,0,0.00014705,1469.5,5.5132e-05,79.717,4.4525e-05,0.022598,-0.00014553,-1428,1.3413
10154,17.381,0.90909,0.05,1.0499e-06,10.492,8.0621e-07,6.0576,4.7417e-13,3.9494e-06,-8.0622e-07,-6.0576,1.3533
10155,17.381,0.63636,0,0.00014117,1410.7,5.1972e-05,64.898,4.3336e-05,0.014696,-0.00013995,-1377.2,1.3526
10156,17.289,0.72727,0,0.000145,1449,5.3548e-05,68.668,4.441e-05,0.013282,-0.00014371,-1413.5,1.3409
10157,17.381,0.72727,0.05,1.095e-06,10.942,8.4082e-07,6.3176,1.3709e-12,4.868e-06,-8.4082e-07,-6.3176,1.3528
10158,17.381,0.45455,0,0.00013902,1389.3,4.9994e-05,49.505,4.34e-05,-0.036176,-0.00013811,-1363.9,1.3521
10159,17.289,0.54545,0,0.00014299,1428.9,5.1778e-05,55.291,4.4421e-05,0.0098662,-0.00014196,-1400.4,1.3404
10160,17.381,0.54545,0.05,1.131e-06,11.302,8.6844e-07,6.5252,8.7655e-13,5.1359e-06,-8.6845e-07,-6.5252,1.3523
10161,17.381,0.27273,0,0.00013702,1369.2,4.7887e-05,32.042,4.3612e-05,-0.081667,-0.00013644,-1353,1.3515
10162,17.289,0.36364,0,0.00014105,1409.5,4.9854e-05,39.71,4.4557e-05,-0.089051,-0.00014033,-1389.3,1.3398
10163,17.381,0.36364,0.05,1.1378e-06,11.37,8.7365e-07,6.5643,9.6108e-13,2.9971e-06,-8.7365e-07,-6.5643,1.3518
10164,17.289,0.18182,0,0.0001393,1392,4.7855e-05,22.589,4.4836e-05,-0.09347,-0.0001389,-1380.6,1.3393
10165,17.381,0.18182,0.05,8.2362e-07,8.2305,6.3243e-07,4.7519,1.2011e-12,2.9387e-06,-6.3243e-07,-4.7519,1.3512
10166,17.381,0.090909,0,0.00013515,1350.6,4.5705e-05,13.238,4.3943e-05,-0.0022775,-0.00013492,-1343.9,1.3509
10167,17.196,5.7273,0,0.00014331,1432.1,4.9805e-05,30.128,4.5785e-05,-0.076601,-0.00014277,-1416.8,1.3276
10168,17.104,5.8182,0,0.00014556,1454.6,4.9861e-05,21.864,4.6941e-05,-0.078937,-0.00014518,-1443.6,1.3154
10169,17.196,5.8182,0.05,7.0035e-07,6.9986,5.3778e-07,4.0407,1.3937e-12,3.0937e-06,-5.3778e-07,-4.0407,1.3273
10170,17.196,5.9091,0,0.00014162,1415.2,4.7817e-05,12.979,4.6089e-05,-0.0043192,-0.00014139,-1408.7,1.327
10171,17.196,5.5455,0,0.00014501,1449.1,5.1636e-05,45.477,4.5578e-05,-0.036065,-0.00014418,-1425.8,1.3282
10172,17.104,5.6364,0,0.00014703,1469.2,5.1585e-05,36.783,4.6678e-05,-0.083278,-0.00014637,-1450.5,1.316
10173,17.196,5.6364,0.05,1.0647e-06,10.64,8.1758e-07,6.143,1.4819e-12,5.4703e-06,-8.1758e-07,-6.143,1.3279
10174,17.196,5.3636,0,0.00014682,1467.2,5.3356e-05,59.073,4.5496e-05,0.011189,-0.00014572,-1436.7,1.3287
10175,17.104,5.4545,0,0.00014867,1485.7,5.3263e-05,50.545,4.6537e-05,0.0061723,-0.00014775,-1459.8,1.3165
10176,17.196,5.4545,0.05,1.0662e-06,10.654,8.1867e-07,6.1512,1.4257e-12,6.0697e-06,-8.1868e-07,-6.1512,1.3284
10177,17.196,5.1818,0,0.00014867,1485.7,5.4911e-05,70.522,4.5527e-05,0.017309,-0.00014734,-1449.1,1.3292
10178,17.104,5.2727,0,0.00015036,1502.6,5.4798e-05,62.358,4.65e-05,0.01073,-0.00014921,-1470.5,1.3171
10179,17.196,5.2727,0.05,1.0368e-06,10.36,7.961e-07,5.9816,9.6949e-13,3.068e-06,-7.9611e-07,-5.9816,1.3289
10180,17.196,5,0,0.0001505,1504,5.6273e-05,79.712,4.5667e-05,0.022871,-0.00014899,-1462.5,1.3296
10181,17.104,5.0909,0,0.00015206,1519.6,5.6161e-05,72.1,4.6568e-05,0.020161,-0.00015071,-1482.2,1.3175
10182,17.196,5.0909,0.05,9.9957e-07,9.9888,7.6754e-07,5.767,1.8604e-12,3.1901e-06,-7.6755e-07,-5.7671,1.3294
10183,17.196,4.8182,0,0.00015228,1521.7,5.7423e-05,86.575,4.5904e-05,0.024162,-0.00015062,-1476.6,1.3301
10184,17.104,4.9091,0,0.00015372,1536.1,5.7332e-05,79.678,4.673e-05,0.022666,-0.00015221,-1494.7,1.318
10185,17.196,4.9091,0.05,9.5691e-07,9.5625,7.3478e-07,5.5209,1.3494e-12,3.7214e-06,-7.3479e-07,-5.5209,1.3298
10186,17.196,4.6364,0,0.00015394,1538.3,5.8347e-05,91.133,4.6221e-05,0.023841,-0.00015219,-1490.7,1.3304
10187,17.104,4.7273,0,0.00015529,1551.8,5.8294e-05,85.08,4.6974e-05,0.02354,-0.00015366,-1507.5,1.3184
10188,17.196,4.7273,0.05,9.0992e-07,9.093,6.9871e-07,5.2498,1.2831e-12,1.2894e-06,-6.9871e-07,-5.2498,1.3302
10189,17.196,4.4545,0,0.00015546,1553.5,5.9043e-05,93.512,4.6601e-05,0.022259,-0.00015365,-1504.6,1.3308
10190,17.104,4.5455,0,0.00015673,1566.2,5.9044e-05,88.381,4.7284e-05,0.022729,-0.00015504,-1520.2,1.3187
10191,17.196,4.5455,0.05,8.5985e-07,8.5926,6.6026e-07,4.9609,1.6778e-12,3.6311e-06,-6.6026e-07,-4.9609,1.3306
10192,17.196,4.2727,0,0.0001568,1566.9,5.9524e-05,93.966,4.7021e-05,0.020103,-0.00015499,-1517.8,1.3311
10193,17.104,4.3636,0,0.00015803,1579.2,5.9586e-05,89.767,4.7641e-05,0.02106,-0.00015631,-1532.4,1.319
10194,17.196,4.3636,0.05,8.0796e-07,8.074,6.2041e-07,4.6615,1.1961e-12,1.517e-06,-6.2041e-07,-4.6616,1.3309
10195,17.196,4.0909,0,0.00015795,1578.4,5.9814e-05,92.871,4.7456e-05,0.017941,-0.00015616,-1529.9,1.3313
10196,17.104,4.1818,0,0.00015915,1590.4,5.9938e-05,89.534,4.8024e-05,0.019031,-0.00015744,-1543.8,1.3193
10197,17.196,4.1818,0.05,7.5554e-07,7.5502,5.8016e-07,4.3591,1.5093e-12,2.6595e-06,-5.8017e-07,-4.3591,1.3312
10198,17.196,3.9091,0,0.0001589,1587.9,5.995e-05,90.7,4.7881e-05,0.01632,-0.00015716,-1540.6,1.3315
10199,17.104,4,0,0.0001601,1599.9,6.013e-05,88.079,4.841e-05,0.017181,-0.00015842,-1554,1.3195
10200,17.196,4,0.05,7.0396e-07,7.0348,5.4056e-07,4.0615,1.5074e-12,2.1786e-06,-5.4056e-07,-4.0615,1.3314
10201,17.196,3.7273,0,0.00015966,1595.5,5.9977e-05,87.978,4.827e-05,0.015589,-0.00015798,-1549.6,1.3317
10202,17.104,3.8182,0,0.00016086,1607.5,6.0202e-05,85.865,4.8776e-05,0.015927,-0.00015923,-1562.9,1.3197
10203,17.196,3.8182,0.05,6.5484e-07,6.5439,5.0284e-07,3.7781,1.6988e-12,4.1523e-06,-5.0284e-07,-3.7782,1.3316
10204,17.196,3.5455,0,0.00016023,1601.2,5.994e-05,85.223,4.86e-05,0.01578,-0.00015861,-1556.9,1.3319
10205,17.104,3.6364,0,0.00016146,1613.5,6.0193e-05,83.373,4.9099e-05,0.015466,-0.00015988,-1570.2,1.3199
10206,17.196,3.6364,0.05,6.1027e-07,6.0985,4.6861e-07,3.5209,2.2219e-12,8.2589e-06,-4.6861e-07,-3.521,1.3318
10207,17.196,3.3636,0,0.00016063,1605.2,5.9881e-05,82.894,4.8851e-05,0.016563,-0.00015906,-1562.2,1.332
10208,17.104,3.4545,0,0.00016189,1617.8,6.0146e-05,81.054,4.936e-05,0.015697,-0.00016036,-1575.7,1.32
10209,17.196,3.4545,0.05,5.7285e-07,5.7246,4.3988e-07,3.3051,2.6548e-12,7.2574e-06,-4.3988e-07,-3.3051,1.3319
10210,17.196,3.1818,0,0.00016087,1607.6,5.9832e-05,81.348,4.9008e-05,0.017385,-0.00015933,-1565.4,1.332
10211,17.104,3.2727,0,0.00016218,1620.6,6.0094e-05,79.285,4.9544e-05,0.016255,-0.00016068,-1579.5,1.3201
10212,17.196,3.2727,0.05,5.4555e-07,5.4517,4.1891e-07,3.1475,1.8439e-12,7.976e-06,-4.1892e-07,-3.1476,1.332
10213,17.196,3,0,0.00016095,1608.4,5.9814e-05,80.808,4.9061e-05,0.017728,-0.00015942,-1566.4,1.332
10214,17.104,3.0909,0,0.00016232,1622,6.0061e-05,78.331,4.9639e-05,0.016688,-0.00016084,-1581.4,1.3201
10215,17.196,3.0909,0.05,5.3106e-07,5.307,4.0779e-07,3.064,2.316e-12,7.9959e-06,-4.0779e-07,-3.064,1.332
10216,17.196,2.8182,0,0.00016087,1607.6,5.9832e-05,81.348,4.9008e-05,0.017385,-0.00015933,-1565.4,1.332
10217,17.104,2.9091,0,0.00016232,1622,6.0061e-05,78.331,4.9639e-05,0.016688,-0.00016084,-1581.4,1.3201
10218,17.196,2.9091,0.05,5.3106e-07,5.307,4.0779e-07,3.064,2.2005e-12,9.032e-06,-4.0779e-07,-3.064,1.332
10219,17.196,2.6364,0,0.00016063,1605.2,5.9881e-05,82.894,4.8851e-05,0.016563,-0.00015906,-1562.2,1.332
10220,17.104,2.7273,0,0.00016218,1620.6,6.0094e-05,79.284,4.9544e-05,0.016255,-0.00016068,-1579.5,1.3201
10221,17.196,2.7273,0.05,5.4555e-07,5.4517,4.1891e-07,3.1475,1.9893e-12,6.6377e-06,-4.1891e-07,-3.1476,1.332
10222,17.196,2.4545,0,0.00016023,1601.2,5.994e-05,85.223,4.86e-05,0.01578,-0.00015861,-1556.9,1.3319
10223,17.104,2.5455,0,0.00016189,1617.8,6.0146e-05,81.054,4.936e-05,0.015696,-0.00016036,-1575.7,1.32
10224,17.196,2.5455,0.05,5.7285e-07,5.7246,4.3988e-07,3.3051,1.4529e-12,4.3458e-06,-4.3988e-07,-3.3051,1.3319
10225,17.196,2.2727,0,0.00015966,1595.5,5.9977e-05,87.977,4.827e-05,0.01559,-0.00015798,-1549.6,1.3317
10226,17.104,2.3636,0,0.00016146,1613.5,6.0193e-05,83.373,4.9099e-05,0.015466,-0.00015988,-1570.2,1.3199
10227,17.196,2.3636,0.05,6.1027e-07,6.0984,4.6861e-07,3.5209,1.3073e-12,3.4182e-06,-4.6861e-07,-3.521,1.3318
10228,17.196,2.0909,0,0.0001589,1587.9,5.995e-05,90.7,4.7881e-05,0.01632,-0.00015716,-1540.6,1.3315
10229,17.104,2.1818,0,0.00016086,1607.5,6.0202e-05,85.865,4.8776e-05,0.015927,-0.00015923,-1562.9,1.3197
10230,17.196,2.1818,0.05,6.5484e-07,6.5439,5.0284e-07,3.7781,1.2662e-12,5.1259e-07,-5.0284e-07,-3.7782,1.3316
10231,17.196,1.9091,0,0.00015795,1578.4,5.9814e-05,92.871,4.7456e-05,0.017942,-0.00015616,-1529.9,1.3313
10232,17.104,2,0,0.0001601,1599.9,6.013e-05,88.079,4.841e-05,0.017182,-0.00015842,-1554,1.3195
10233,17.196,2,0.05,7.0396e-07,7.0348,5.4056e-07,4.0615,7.906e-13,2.9176e-07,-5.4056e-07,-4.0615,1.3314
10234,17.196,1.7273,0,0.0001568,1566.9,5.9524e-05,93.966,4.7021e-05,0.020103,-0.00015499,-1517.8,1.3311
10235,17.104,1.8182,0,0.00015915,1590.4,5.9938e-05,89.534,4.8024e-05,0.019031,-0.00015744,-1543.8,1.3193
10236,17.196,1.8182,0.05,7.5554e-07,7.5502,5.8016e-07,4.3591,1.265e-12,4.013e-06,-5.8017e-07,-4.3591,1.3312
10237,17.196,1.5455,0,0.00015546,1553.5,5.9043e-05,93.511,4.6601e-05,0.022259,-0.00015365,-1504.6,1.3308
10238,17.104,1.6364,0,0.00015803,1579.2,5.9586e-05,89.767,4.7641e-05,0.02106,-0.00015631,-1532.4,1.319
10239,17.196,1.6364,0.05,8.0796e-07,8.074,6.2041e-07,4.6615,1.0602e-12,1.3787e-06,-6.2041e-07,-4.6616,1.3309
10240,17.196,1.3636,0,0.00015394,1538.3,5.8347e-05,91.132,4.6221e-05,0.023841,-0.00015219,-1490.7,1.3304
10241,17.104,1.4545,0,0.00015673,1566.2,5.9044e-05,88.381,4.7284e-05,0.022728,-0.00015504,-1520.2,1.3187
10242,17.196,1.4545,0.05,8.5985e-07,8.5926,6.6026e-07,4.9609,1.613e-12,4.1406e-06,-6.6026e-07,-4.9609,1.3306
10243,17.196,1.1818,0,0.00015228,1521.7,5.7423e-05,86.575,4.5904e-05,0.024162,-0.00015062,-1476.6,1.3301
10244,17.104,1.2727,0,0.00015529,1551.8,5.8294e-05,85.08,4.6974e-05,0.02354,-0.00015366,-1507.5,1.3184
10245,17.196,1.2727,0.05,9.0992e-07,9.093,6.9871e-07,5.2498,1.2702e-12,5.0329e-06,-6.9871e-07,-5.2498,1.3302
10246,17.196,1,0,0.0001505,1504,5.6273e-05,79.712,4.5667e-05,0.022871,-0.00014899,-1462.5,1.3296
10247,17.104,1.0909,0,0.00015372,1536.1,5.7332e-05,79.678,4.673e-05,0.022667,-0.00015221,-1494.7,1.318
10248,17.196,1.0909,0.05,9.5691e-07,9.5625,7.3479e-07,5.5209,1.353e-12,5.6349e-06,-7.3479e-07,-5.5209,1.3298
10249,17.196,0.81818,0,0.00014867,1485.7,5.4911e-05,70.522,4.5527e-05,0.01731,-0.00014734,-1449.1,1.3292
10250,17.104,0.90909,0,0.00015206,1519.6,5.6161e-05,72.1,4.6568e-05,0.020162,-0.00015071,-1482.2,1.3175
10251,17.196,0.90909,0.05,9.9957e-07,9.9888,7.6754e-07,5.767,9.3923e-13,4.0414e-06,-7.6755e-07,-5.767,1.3294
10252,17.196,0.63636,0,0.00014682,1467.2,5.3356e-05,59.073,4.5496e-05,0.011191,-0.00014572,-1436.7,1.3287
10253,17.104,0.72727,0,0.00015036,1502.6,5.4798e-05,62.358,4.65e-05,0.010731,-0.00014921,-1470.5,1.3171
10254,17.196,0.72727,0.05,1.0368e-06,10.36,7.961e-07,5.9816,1.4052e-12,6.1375e-06,-7.9611e-07,-5.9816,1.3289
10255,17.196,0.45455,0,0.00014501,1449.1,5.1636e-05,45.477,4.5578e-05,-0.036064,-0.00014418,-1425.8,1.3282
10256,17.104,0.54545,0,0.00014867,1485.7,5.3263e-05,50.545,4.6537e-05,0.006174,-0.00014775,-1459.8,1.3165
10257,17.196,0.54545,0.05,1.0662e-06,10.654,8.1867e-07,6.1512,9.8318e-13,4.5745e-06,-8.1867e-07,-6.1512,1.3284
10258,17.196,0.27273,0,0.00014331,1432.1,4.9805e-05,30.128,4.5785e-05,-0.076601,-0.00014277,-1416.8,1.3276
10259,17.104,0.36364,0,0.00014703,1469.2,5.1585e-05,36.783,4.6678e-05,-0.083278,-0.00014637,-1450.5,1.316
10260,17.196,0.36364,0.05,1.0647e-06,10.64,8.1758e-07,6.143,4.2001e-13,3.1735e-06,-8.1758e-07,-6.143,1.3279
10261,17.104,0.18182,0,0.00014556,1454.6,4.9861e-05,21.864,4.6941e-05,-0.078938,-0.00014518,-1443.6,1.3154
10262,17.196,0.18182,0.05,7.0035e-07,6.9986,5.3778e-07,4.0407,8.645e-13,1.6171e-06,-5.3778e-07,-4.0407,1.3273
10263,17.196,0.090909,0,0.00014162,1415.2,4.7817e-05,12.979,4.6089e-05,-0.0043193,-0.00014139,-1408.7,1.327
10264,17.011,5.7273,0,0.00014926,1491.5,5.1624e-05,28.392,4.7836e-05,-0.070054,-0.00014876,-1477.2,1.3038
10265,16.919,5.8182,0,0.0001515,1513.9,5.1766e-05,21.215,4.8934e-05,-0.064809,-0.00015113,-1503.2,1.2917
10266,17.011,5.8182,0.05,5.9566e-07,5.9525,4.5739e-07,3.4367,8.5463e-13,2.0802e-06,-4.5739e-07,-3.4367,1.3035
10267,17.011,5.9091,0,0.00014772,1476.2,4.9811e-05,12.746,4.8114e-05,-0.0057312,-0.0001475,-1469.8,1.3032
10268,17.011,5.5455,0,0.00015069,1505.8,5.3208e-05,41.823,4.7637e-05,-0.035139,-0.00014993,-1484.5,1.3044
10269,16.919,5.6364,0,0.00015271,1526.1,5.3242e-05,34.133,4.8689e-05,-0.076968,-0.00015211,-1508.8,1.2923
10270,17.011,5.6364,0.05,1.0049e-06,10.042,7.7164e-07,5.7978,1.423e-12,4.8783e-06,-7.7165e-07,-5.7979,1.3041
10271,17.011,5.3636,0,0.00015222,1521.1,5.4705e-05,53.826,4.7542e-05,0.0081233,-0.00015123,-1493.5,1.3049
10272,16.919,5.4545,0,0.00015411,1540,5.4703e-05,46.266,4.8546e-05,0.0031753,-0.00015327,-1516.3,1.2928
10273,17.011,5.4545,0.05,1.0137e-06,10.13,7.7842e-07,5.8487,1.8747e-12,7.5382e-06,-7.7842e-07,-5.8487,1.3047
10274,17.011,5.1818,0,0.00015376,1536.5,5.605e-05,63.947,4.7541e-05,0.014727,-0.00015257,-1503.6,1.3054
10275,16.919,5.2727,0,0.00015553,1554.2,5.6037e-05,56.71,4.849e-05,0.0083494,-0.00015449,-1525.1,1.2933
10276,17.011,5.2727,0.05,9.9023e-07,9.8954,7.6037e-07,5.7131,9.4829e-13,3.2367e-06,-7.6037e-07,-5.7132,1.3052
10277,17.011,5,0,0.00015528,1551.7,5.7223e-05,72.086,4.7631e-05,0.020543,-0.00015393,-1514.4,1.3059
10278,16.919,5.0909,0,0.00015694,1568.3,5.7216e-05,65.343,4.8521e-05,0.017629,-0.00015573,-1534.6,1.2938
10279,17.011,5.0909,0.05,9.5991e-07,9.5924,7.3709e-07,5.5382,1.4023e-12,2.6015e-06,-7.3709e-07,-5.5382,1.3056
10280,17.011,4.8182,0,0.00015673,1566.2,5.8206e-05,78.207,4.7801e-05,0.02233,-0.00015525,-1525.6,1.3063
10281,16.919,4.9091,0,0.0001583,1582,5.8223e-05,72.094,4.863e-05,0.020538,-0.00015695,-1544.7,1.2942
10282,17.011,4.9091,0.05,9.2521e-07,9.2457,7.1045e-07,5.338,1.3697e-12,3.8558e-06,-7.1045e-07,-5.338,1.3061
10283,17.011,4.6364,0,0.00015808,1579.7,5.8994e-05,82.352,4.8037e-05,0.022527,-0.00015652,-1536.9,1.3067
10284,16.919,4.7273,0,0.00015959,1594.8,5.9048e-05,76.971,4.8807e-05,0.021828,-0.00015814,-1554.9,1.2946
10285,17.011,4.7273,0.05,8.8715e-07,8.8653,6.8122e-07,5.1184,8.7232e-13,6.648e-07,-6.8122e-07,-5.1184,1.3065
10286,17.011,4.4545,0,0.00015931,1592,5.9589e-05,84.658,4.8324e-05,0.021503,-0.0001577,-1548,1.307
10287,16.919,4.5455,0,0.00016076,1606.5,5.9691e-05,80.061,4.9038e-05,0.021512,-0.00015925,-1565,1.295
10288,17.011,4.5455,0.05,8.4673e-07,8.4615,6.5019e-07,4.8852,1.7494e-12,3.2222e-06,-6.5019e-07,-4.8853,1.3068
10289,17.011,4.2727,0,0.00016039,1602.8,6.0002e-05,85.352,4.8645e-05,0.019878,-0.00015876,-1558.4,1.3073
10290,16.919,4.3636,0,0.00016181,1617,6.0158e-05,81.537,4.9308e-05,0.020351,-0.00016027,-1574.6,1.2953
10291,17.011,4.3636,0.05,8.0504e-07,8.0449,6.1817e-07,4.6447,1.7321e-12,1.0406e-06,-6.1817e-07,-4.6447,1.3071
10292,17.011,4.0909,0,0.0001613,1611.9,6.0256e-05,84.755,4.8979e-05,0.018116,-0.0001597,-1567.9,1.3076
10293,16.919,4.1818,0,0.00016271,1626,6.0466e-05,81.658,4.96e-05,0.018776,-0.00016117,-1583.6,1.2956
10294,17.011,4.1818,0.05,7.6319e-07,7.6266,5.8603e-07,4.4032,1.7741e-12,3.3132e-06,-5.8603e-07,-4.4032,1.3074
10295,17.011,3.9091,0,0.00016206,1619.5,6.0383e-05,83.252,4.9305e-05,0.016635,-0.00016049,-1576.3,1.3078
10296,16.919,4,0,0.00016347,1633.5,6.0641e-05,80.751,4.9896e-05,0.017214,-0.00016194,-1591.6,1.2958
10297,17.011,4,0.05,7.2238e-07,7.2188,5.547e-07,4.1678,1.7596e-12,3.2376e-06,-5.547e-07,-4.1678,1.3077
10298,17.011,3.7273,0,0.00016266,1625.5,6.0418e-05,81.264,4.9605e-05,0.015702,-0.00016113,-1583.4,1.308
10299,16.919,3.8182,0,0.00016408,1639.6,6.0714e-05,79.192,5.0176e-05,0.015986,-0.00016259,-1598.6,1.296
10300,17.011,3.8182,0.05,6.8402e-07,6.8355,5.2524e-07,3.9464,1.7197e-12,5.0952e-06,-5.2524e-07,-3.9465,1.3079
10301,17.011,3.5455,0,0.00016312,1630.1,6.0399e-05,79.205,4.986e-05,0.015381,-0.00016163,-1589,1.3081
10302,16.919,3.6364,0,0.00016455,1644.4,6.072e-05,77.366,5.0425e-05,0.015262,-0.0001631,-1604.3,1.2962
10303,17.011,3.6364,0.05,6.4977e-07,6.4932,4.9894e-07,3.7488,1.81e-12,7.5985e-06,-4.9894e-07,-3.7489,1.308
10304,17.011,3.3636,0,0.00016343,1633.2,6.0358e-05,77.442,5.0053e-05,0.015506,-0.00016198,-1593.1,1.3082
10305,16.919,3.4545,0,0.00016489,1647.8,6.069e-05,75.634,5.0626e-05,0.01502,-0.00016347,-1608.7,1.2963
10306,17.011,3.4545,0.05,6.2152e-07,6.2109,4.7725e-07,3.5859,1.8138e-12,8.917e-06,-4.7726e-07,-3.5859,1.3081
10307,17.011,3.1818,0,0.00016362,1635.1,6.0322e-05,76.263,5.0175e-05,0.015777,-0.00016219,-1595.6,1.3083
10308,16.919,3.2727,0,0.00016512,1650,6.0654e-05,74.298,5.0768e-05,0.015076,-0.00016373,-1611.6,1.2964
10309,17.011,3.2727,0.05,6.0125e-07,6.0084,4.6168e-07,3.4689,1.8657e-12,7.0266e-06,-4.6169e-07,-3.469,1.3082
10310,17.011,3,0,0.00016368,1635.7,6.0309e-05,75.85,5.0216e-05,0.015906,-0.00016226,-1596.4,1.3083
10311,16.919,3.0909,0,0.00016523,1651.1,6.0631e-05,73.574,5.0841e-05,0.015188,-0.00016385,-1613.1,1.2964
10312,17.011,3.0909,0.05,5.9063e-07,5.9022,4.5353e-07,3.4076,2.7637e-12,7.8931e-06,-4.5353e-07,-3.4077,1.3083
10313,17.011,2.8182,0,0.00016362,1635.1,6.0322e-05,76.263,5.0175e-05,0.015778,-0.00016219,-1595.6,1.3083
10314,16.919,2.9091,0,0.00016523,1651.1,6.0631e-05,73.574,5.0841e-05,0.015189,-0.00016385,-1613.1,1.2964
10315,17.011,2.9091,0.05,5.9063e-07,5.9022,4.5353e-07,3.4076,2.2267e-12,9.1791e-06,-4.5353e-07,-3.4077,1.3083
10316,17.011,2.6364,0,0.00016343,1633.2,6.0358e-05,77.442,5.0053e-05,0.015506,-0.00016198,-1593.1,1.3082
10317,16.919,2.7273,0,0.00016512,1650,6.0654e-05,74.298,5.0768e-05,0.015076,-0.00016373,-1611.6,1.2964
10318,17.011,2.7273,0.05,6.0125e-07,6.0084,4.6169e-07,3.4689,2.0995e-12,5.409e-06,-4.6169e-07,-3.469,1.3082
10319,17.011,2.4545,0,0.00016312,1630.1,6.0399e-05,79.205,4.986e-05,0.01538,-0.00016163,-1589,1.3081
10320,16.919,2.5455,0,0.00016489,1647.8,6.069e-05,75.634,5.0626e-05,0.01502,-0.00016347,-1608.7,1.2963
10321,17.011,2.5455,0.05,6.2152e-07,6.2109,4.7725e-07,3.5859,1.9376e-12,4.5663e-06,-4.7726e-07,-3.5859,1.3081
10322,17.011,2.2727,0,0.00016266,1625.5,6.0418e-05,81.264,4.9605e-05,0.015702,-0.00016113,-1583.4,1.308
10323,16.919,2.3636,0,0.00016455,1644.4,6.072e-05,77.366,5.0425e-05,0.015263,-0.0001631,-1604.3,1.2962
10324,17.011,2.3636,0.05,6.4977e-07,6.4932,4.9894e-07,3.7488,1.9147e-12,4.8041e-06,-4.9894e-07,-3.7488,1.308
10325,17.011,2.0909,0,0.00016206,1619.5,6.0383e-05,83.252,4.9305e-05,0.016635,-0.00016049,-1576.3,1.3078
10326,16.919,2.1818,0,0.00016408,1639.6,6.0714e-05,79.192,5.0176e-05,0.015986,-0.00016259,-1598.6,1.296
10327,17.011,2.1818,0.05,6.8402e-07,6.8355,5.2524e-07,3.9464,1.3562e-12,3.1867e-06,-5.2524e-07,-3.9465,1.3079
10328,17.011,1.9091,0,0.0001613,1611.9,6.0256e-05,84.755,4.8979e-05,0.018117,-0.0001597,-1567.9,1.3076
10329,16.919,2,0,0.00016347,1633.5,6.0641e-05,80.751,4.9896e-05,0.017215,-0.00016194,-1591.6,1.2958
10330,17.011,2,0.05,7.2238e-07,7.2188,5.547e-07,4.1678,1.4219e-12,2.7253e-06,-5.547e-07,-4.1678,1.3077
10331,17.011,1.7273,0,0.00016039,1602.8,6.0002e-05,85.352,4.8645e-05,0.019878,-0.00015876,-1558.4,1.3073
10332,16.919,1.8182,0,0.00016271,1626,6.0466e-05,81.658,4.96e-05,0.018776,-0.00016117,-1583.6,1.2956
10333,17.011,1.8182,0.05,7.6319e-07,7.6266,5.8603e-07,4.4032,1.4803e-12,4.4772e-06,-5.8604e-07,-4.4032,1.3074
10334,17.011,1.5455,0,0.00015931,1592,5.9589e-05,84.658,4.8324e-05,0.021503,-0.0001577,-1548,1.307
10335,16.919,1.6364,0,0.00016181,1617,6.0158e-05,81.537,4.9308e-05,0.020352,-0.00016027,-1574.6,1.2953
10336,17.011,1.6364,0.05,8.0504e-07,8.0449,6.1817e-07,4.6447,1.5942e-12,4.816e-06,-6.1818e-07,-4.6447,1.3071
10337,17.011,1.3636,0,0.00015808,1579.7,5.8994e-05,82.352,4.8037e-05,0.022528,-0.00015652,-1536.9,1.3067
10338,16.919,1.4545,0,0.00016076,1606.5,5.9691e-05,80.061,4.9038e-05,0.021512,-0.00015925,-1565,1.295
10339,17.011,1.4545,0.05,8.4673e-07,8.4615,6.5019e-07,4.8852,3.1981e-13,4.7177e-06,-6.5019e-07,-4.8853,1.3068
10340,17.011,1.1818,0,0.00015673,1566.2,5.8206e-05,78.206,4.7801e-05,0.022331,-0.00015525,-1525.6,1.3063
10341,16.919,1.2727,0,0.00015959,1594.8,5.9048e-05,76.971,4.8807e-05,0.021828,-0.00015814,-1554.9,1.2946
10342,17.011,1.2727,0.05,8.8715e-07,8.8653,6.8122e-07,5.1184,1.3082e-12,6.2454e-06,-6.8122e-07,-5.1184,1.3065
10343,17.011,1,0,0.00015528,1551.7,5.7223e-05,72.086,4.7631e-05,0.020544,-0.00015393,-1514.4,1.3059
10344,16.919,1.0909,0,0.0001583,1582,5.8223e-05,72.094,4.863e-05,0.020539,-0.00015695,-1544.7,1.2942
10345,17.011,1.0909,0.05,9.2521e-07,9.2457,7.1045e-07,5.338,1.8256e-12,3.8601e-06,-7.1045e-07,-5.338,1.3061
10346,17.011,0.81818,0,0.00015376,1536.5,5.605e-05,63.947,4.7541e-05,0.014728,-0.00015257,-1503.6,1.3054
10347,16.919,0.90909,0,0.00015694,1568.3,5.7216e-05,65.343,4.8521e-05,0.017631,-0.00015573,-1534.6,1.2938
10348,17.011,0.90909,0.05,9.5991e-07,9.5924,7.3709e-07,5.5382,9.6566e-13,4.1393e-06,-7.3709e-07,-5.5382,1.3056
10349,17.011,0.63636,0,0.00015222,1521.1,5.4705e-05,53.826,4.7542e-05,0.0081243,-0.00015123,-1493.5,1.3049
10350,16.919,0.72727,0,0.00015553,1554.2,5.6037e-05,56.71,4.849e-05,0.0083506,-0.00015449,-1525.1,1.2933
10351,17.011,0.72727,0.05,9.9023e-07,9.8954,7.6037e-07,5.7131,9.4829e-13,6.3313e-06,-7.6037e-07,-5.7131,1.3052
10352,17.011,0.45455,0,0.00015069,1505.8,5.3208e-05,41.823,4.7637e-05,-0.035139,-0.00014993,-1484.5,1.3044
10353,16.919,0.54545,0,0.00015411,1540,5.4703e-05,46.266,4.8546e-05,0.0031771,-0.00015327,-1516.3,1.2928
10354,17.011,0.54545,0.05,1.0137e-06,10.13,7.7842e-07,5.8487,1.3686e-12,6.1195e-06,-7.7842e-07,-5.8487,1.3047
10355,17.011,0.27273,0,0.00014926,1491.5,5.1624e-05,28.392,4.7836e-05,-0.070054,-0.00014876,-1477.2,1.3038
10356,16.919,0.36364,0,0.00015271,1526.1,5.3242e-05,34.133,4.8689e-05,-0.076969,-0.00015211,-1508.8,1.2923
10357,17.011,0.36364,0.05,1.0049e-06,10.042,7.7164e-07,5.7978,1.2476e-12,4.8065e-06,-7.7165e-07,-5.7979,1.3041
10358,16.919,0.18182,0,0.0001515,1513.9,5.1766e-05,21.215,4.8934e-05,-0.06481,-0.00015113,-1503.2,1.2917
10359,17.011,0.18182,0.05,5.9566e-07,5.9525,4.5739e-07,3.4367,5.7977e-13,-2.0664e-06,-4.5739e-07,-3.4367,1.3035
10360,17.011,0.090909,0,0.00014772,1476.2,4.9811e-05,12.746,4.8114e-05,-0.0057309,-0.0001475,-1469.8,1.3032
10361,16.826,5.7273,0,0.00015493,1548.3,5.3368e-05,26.832,4.9788e-05,-0.063018,-0.00015446,-1534.7,1.2802
10362,16.734,5.8182,0,0.00015717,1570.6,5.3591e-05,20.636,5.0837e-05,-0.052128,-0.00015681,-1560.3,1.268
10363,16.826,5.8182,0.05,5.0717e-07,5.0682,3.8944e-07,2.9261,1.4989e-13,1.0915e-06,-3.8945e-07,-2.9261,1.2798
10364,16.826,5.9091,0,0.00015353,1534.2,5.1711e-05,12.536,5.0041e-05,-0.0066813,-0.00015331,-1527.9,1.2795
10365,16.826,5.5455,0,0.00015613,1560.2,5.4733e-05,38.543,4.9599e-05,-0.033717,-0.00015544,-1540.6,1.2807
10366,16.734,5.6364,0,0.00015817,1580.6,5.4846e-05,31.759,5.061e-05,-0.070599,-0.00015761,-1564.5,1.2686
10367,16.826,5.6364,0.05,9.563e-07,9.5564,7.3432e-07,5.5174,1.2728e-12,6.1078e-06,-7.3432e-07,-5.5174,1.2804
10368,16.826,5.3636,0,0.00015742,1573.1,5.6034e-05,49.137,4.9495e-05,0.0055022,-0.00015652,-1547.9,1.2813
10369,16.734,5.4545,0,0.00015935,1592.4,5.6117e-05,42.441,5.0469e-05,0.00076932,-0.00015858,-1570.7,1.2692
10370,16.826,5.4545,0.05,9.716e-07,9.7093,7.4606e-07,5.6056,1.7864e-12,7.9808e-06,-7.4607e-07,-5.6056,1.281
10371,16.826,5.1818,0,0.00015871,1586,5.7202e-05,58.105,4.947e-05,0.012265,-0.00015764,-1556.1,1.2817
10372,16.734,5.2727,0,0.00016054,1604.3,5.7277e-05,51.683,5.0399e-05,0.0062006,-0.0001596,-1577.9,1.2697
10373,16.826,5.2727,0.05,9.5318e-07,9.5253,7.3193e-07,5.4994,1.3792e-12,4.7765e-06,-7.3193e-07,-5.4994,1.2815
10374,16.826,5,0,0.00015997,1598.6,5.8217e-05,65.356,4.9521e-05,0.018151,-0.00015876,-1564.9,1.2822
10375,16.734,5.0909,0,0.00016172,1616.1,5.83e-05,59.361,5.0401e-05,0.015163,-0.00016063,-1585.6,1.2702
10376,16.826,5.0909,0.05,9.2872e-07,9.2808,7.1314e-07,5.3583,1.8346e-12,5.3466e-06,-7.1315e-07,-5.3583,1.282
10377,16.826,4.8182,0,0.00016116,1610.5,5.9066e-05,70.867,4.9637e-05,0.020299,-0.00015984,-1573.9,1.2826
10378,16.734,4.9091,0,0.00016285,1627.4,5.9172e-05,65.416,5.0469e-05,0.018331,-0.00016164,-1593.7,1.2706
10379,16.826,4.9091,0.05,9.0072e-07,9.001,6.9164e-07,5.1967,1.8232e-12,3.858e-06,-6.9164e-07,-5.1967,1.2824
10380,16.826,4.6364,0,0.00016227,1621.6,5.9746e-05,74.689,4.9808e-05,0.020914,-0.00016087,-1582.9,1.283
10381,16.734,4.7273,0,0.0001639,1637.9,5.9887e-05,69.863,5.0592e-05,0.019939,-0.0001626,-1601.8,1.271
10382,16.826,4.7273,0.05,8.7006e-07,8.6946,6.681e-07,5.0198,1.355e-12,3.7766e-06,-6.681e-07,-5.0199,1.2828
10383,16.826,4.4545,0,0.00016326,1631.5,6.0261e-05,76.949,5.0022e-05,0.020355,-0.00016182,-1591.7,1.2833
10384,16.734,4.5455,0,0.00016486,1647.5,6.0445e-05,72.788,5.076e-05,0.020029,-0.0001635,-1609.9,1.2714
10385,16.826,4.5455,0.05,8.3762e-07,8.3704,6.4318e-07,4.8326,1.8065e-12,6.5552e-06,-6.4319e-07,-4.8327,1.2832
10386,16.826,4.2727,0,0.00016413,1640.2,6.0622e-05,77.849,5.0264e-05,0.019175,-0.00016267,-1599.9,1.2837
10387,16.734,4.3636,0,0.00016571,1655.9,6.0854e-05,74.345,5.0962e-05,0.019294,-0.00016432,-1617.5,1.2717
10388,16.826,4.3636,0.05,8.0427e-07,8.0372,6.1758e-07,4.6403,1.8258e-12,4.5622e-06,-6.1758e-07,-4.6403,1.2835
10389,16.826,4.0909,0,0.00016487,1647.6,6.0851e-05,77.658,5.0517e-05,0.017762,-0.00016341,-1607.4,1.2839
10390,16.734,4.1818,0,0.00016644,1663.2,6.1128e-05,74.755,5.1181e-05,0.018104,-0.00016504,-1624.6,1.272
10391,16.826,4.1818,0.05,7.7099e-07,7.7046,5.9203e-07,4.4483,1.819e-12,4.8152e-06,-5.9203e-07,-4.4483,1.2838
10392,16.826,3.9091,0,0.00016548,1653.7,6.0972e-05,76.692,5.0767e-05,0.016451,-0.00016404,-1614,1.2841
10393,16.734,4,0,0.00016705,1669.3,6.1291e-05,74.291,5.1406e-05,0.016812,-0.00016566,-1630.9,1.2722
10394,16.826,4,0.05,7.3881e-07,7.383,5.6731e-07,4.2625,1.8183e-12,4.7107e-06,-5.6731e-07,-4.2626,1.284
10395,16.826,3.7273,0,0.00016596,1658.5,6.1015e-05,75.293,5.0996e-05,0.015465,-0.00016455,-1619.5,1.2843
10396,16.734,3.8182,0,0.00016753,1674.2,6.1367e-05,73.257,5.1619e-05,0.015677,-0.00016617,-1636.4,1.2724
10397,16.826,3.8182,0.05,7.0886e-07,7.0837,5.4432e-07,4.0898,1.8268e-12,8.0766e-06,-5.4432e-07,-4.0898,1.2842
10398,16.826,3.5455,0,0.00016632,1662.1,6.1011e-05,73.792,5.1192e-05,0.014885,-0.00016494,-1623.9,1.2845
10399,16.734,3.6364,0,0.00016791,1678,6.1385e-05,71.965,5.1809e-05,0.014858,-0.00016657,-1640.8,1.2726
10400,16.826,3.6364,0.05,6.8245e-07,6.8198,5.2404e-07,3.9374,2.3737e-12,9.989e-06,-5.2404e-07,-3.9374,1.2844
10401,16.826,3.3636,0,0.00016657,1664.6,6.0986e-05,72.485,5.134e-05,0.01465,-0.00016522,-1627.1,1.2846
10402,16.734,3.4545,0,0.00016819,1680.7,6.1372e-05,70.704,5.1963e-05,0.014378,-0.00016687,-1644.2,1.2727
10403,16.826,3.4545,0.05,6.6095e-07,6.6049,5.0753e-07,3.8133,1.9082e-12,9.1075e-06,-5.0753e-07,-3.8134,1.2845
10404,16.826,3.1818,0,0.00016672,1666,6.0961e-05,71.602,5.1434e-05,0.014611,-0.00016539,-1629.1,1.2846
10405,16.734,3.2727,0,0.00016836,1682.5,6.1349e-05,69.717,5.2072e-05,0.014166,-0.00016707,-1646.5,1.2728
10406,16.826,3.2727,0.05,6.4569e-07,6.4524,4.9581e-07,3.7253,2.3442e-12,9.1065e-06,-4.9581e-07,-3.7253,1.2846
10407,16.826,3,0,0.00016677,1666.5,6.0952e-05,71.291,5.1465e-05,0.014619,-0.00016544,-1629.7,1.2846
10408,16.734,3.0909,0,0.00016845,1683.3,6.1333e-05,69.178,5.2128e-05,0.014103,-0.00016717,-1647.7,1.2729
10409,16.826,3.0909,0.05,6.3775e-07,6.3731,4.8971e-07,3.6795,1.8505e-12,8.813e-06,-4.8972e-07,-3.6796,1.2846
10410,16.826,2.8182,0,0.00016672,1666,6.0961e-05,71.602,5.1434e-05,0.014611,-0.00016539,-1629.1,1.2846
10411,16.734,2.9091,0,0.00016845,1683.3,6.1333e-05,69.178,5.2128e-05,0.014103,-0.00016717,-1647.7,1.2729
10412,16.826,2.9091,0.05,6.3775e-07,6.3731,4.8971e-07,3.6795,2.6882e-12,8.2838e-06,-4.8972e-07,-3.6795,1.2846
10413,16.826,2.6364,0,0.00016657,1664.6,6.0986e-05,72.485,5.134e-05,0.01465,-0.00016522,-1627.1,1.2846
10414,16.734,2.7273,0,0.00016836,1682.5,6.1349e-05,69.717,5.2072e-05,0.014166,-0.00016707,-1646.5,1.2728
10415,16.826,2.7273,0.05,6.4569e-07,6.4524,4.9581e-07,3.7253,2.5949e-12,1.0399e-05,-4.9581e-07,-3.7253,1.2846
10416,16.826,2.4545,0,0.00016632,1662.1,6.1011e-05,73.792,5.1192e-05,0.014885,-0.00016494,-1623.9,1.2845
10417,16.734,2.5455,0,0.00016819,1680.7,6.1372e-05,70.704,5.1963e-05,0.014379,-0.00016687,-1644.2,1.2727
10418,16.826,2.5455,0.05,6.6095e-07,6.6049,5.0753e-07,3.8133,1.6197e-12,5.8884e-06,-5.0753e-07,-3.8134,1.2845
10419,16.826,2.2727,0,0.00016596,1658.5,6.1015e-05,75.293,5.0996e-05,0.015465,-0.00016455,-1619.5,1.2843
10420,16.734,2.3636,0,0.00016791,1678,6.1385e-05,71.965,5.1809e-05,0.014857,-0.00016657,-1640.8,1.2726
10421,16.826,2.3636,0.05,6.8245e-07,6.8198,5.2404e-07,3.9374,1.5692e-12,6.4921e-06,-5.2404e-07,-3.9374,1.2844
10422,16.826,2.0909,0,0.00016548,1653.7,6.0972e-05,76.692,5.0767e-05,0.016451,-0.00016404,-1614,1.2841
10423,16.734,2.1818,0,0.00016753,1674.2,6.1367e-05,73.257,5.1619e-05,0.015678,-0.00016617,-1636.4,1.2724
10424,16.826,2.1818,0.05,7.0886e-07,7.0837,5.4432e-07,4.0898,1.4779e-12,5.5031e-06,-5.4432e-07,-4.0898,1.2842
10425,16.826,1.9091,0,0.00016487,1647.6,6.0851e-05,77.657,5.0517e-05,0.017762,-0.00016341,-1607.4,1.2839
10426,16.734,2,0,0.00016705,1669.3,6.1291e-05,74.291,5.1406e-05,0.016812,-0.00016566,-1630.9,1.2722
10427,16.826,2,0.05,7.3881e-07,7.383,5.6731e-07,4.2625,1.5563e-12,5.3239e-06,-5.6731e-07,-4.2626,1.284
10428,16.826,1.7273,0,0.00016413,1640.2,6.0622e-05,77.849,5.0264e-05,0.019175,-0.00016267,-1599.9,1.2837
10429,16.734,1.8182,0,0.00016644,1663.2,6.1128e-05,74.755,5.1181e-05,0.018103,-0.00016504,-1624.6,1.272
10430,16.826,1.8182,0.05,7.7099e-07,7.7046,5.9203e-07,4.4483,1.5598e-12,5.8324e-06,-5.9203e-07,-4.4483,1.2838
10431,16.826,1.5455,0,0.00016326,1631.5,6.0261e-05,76.949,5.0022e-05,0.020355,-0.00016182,-1591.7,1.2833
10432,16.734,1.6364,0,0.00016571,1655.9,6.0854e-05,74.345,5.0962e-05,0.019295,-0.00016432,-1617.5,1.2717
10433,16.826,1.6364,0.05,8.0427e-07,8.0372,6.1758e-07,4.6403,1.1959e-12,5.3468e-06,-6.1758e-07,-4.6403,1.2835
10434,16.826,1.3636,0,0.00016227,1621.6,5.9746e-05,74.689,4.9808e-05,0.020914,-0.00016087,-1582.9,1.283
10435,16.734,1.4545,0,0.00016486,1647.5,6.0445e-05,72.788,5.076e-05,0.02003,-0.0001635,-1609.9,1.2714
10436,16.826,1.4545,0.05,8.3762e-07,8.3704,6.4318e-07,4.8326,1.703e-12,6.892e-06,-6.4319e-07,-4.8326,1.2832
10437,16.826,1.1818,0,0.00016116,1610.5,5.9066e-05,70.867,4.9637e-05,0.020299,-0.00015984,-1573.9,1.2826
10438,16.734,1.2727,0,0.0001639,1637.9,5.9887e-05,69.863,5.0592e-05,0.019939,-0.0001626,-1601.8,1.271
10439,16.826,1.2727,0.05,8.7006e-07,8.6946,6.681e-07,5.0198,1.7844e-12,5.4927e-06,-6.681e-07,-5.0198,1.2828
10440,16.826,1,0,0.00015997,1598.6,5.8217e-05,65.356,4.9521e-05,0.018152,-0.00015876,-1564.9,1.2822
10441,16.734,1.0909,0,0.00016285,1627.4,5.9172e-05,65.416,5.0469e-05,0.018332,-0.00016164,-1593.7,1.2706
10442,16.826,1.0909,0.05,9.0072e-07,9.001,6.9164e-07,5.1967,1.3925e-12,6.8606e-06,-6.9164e-07,-5.1967,1.2824
10443,16.826,0.81818,0,0.00015871,1586,5.7202e-05,58.105,4.947e-05,0.012267,-0.00015764,-1556.1,1.2817
10444,16.734,0.90909,0,0.00016172,1616.1,5.83e-05,59.361,5.0401e-05,0.015164,-0.00016063,-1585.6,1.2702
10445,16.826,0.90909,0.05,9.2872e-07,9.2808,7.1314e-07,5.3583,1.8588e-12,7.0266e-06,-7.1315e-07,-5.3583,1.282
10446,16.826,0.63636,0,0.00015742,1573.1,5.6034e-05,49.137,4.9495e-05,0.0055041,-0.00015652,-1547.9,1.2813
10447,16.734,0.72727,0,0.00016054,1604.3,5.7277e-05,51.683,5.0399e-05,0.0062016,-0.0001596,-1577.9,1.2697
10448,16.826,0.72727,0.05,9.5318e-07,9.5253,7.3193e-07,5.4994,1.4405e-12,8.649e-06,-7.3193e-07,-5.4994,1.2815
10449,16.826,0.45455,0,0.00015613,1560.2,5.4733e-05,38.543,4.9599e-05,-0.033717,-0.00015544,-1540.6,1.2807
10450,16.734,0.54545,0,0.00015935,1592.4,5.6117e-05,42.441,5.0469e-05,0.00076989,-0.00015858,-1570.7,1.2692
10451,16.826,0.54545,0.05,9.716e-07,9.7093,7.4606e-07,5.6056,1.846e-12,6.7928e-06,-7.4606e-07,-5.6057,1.281
10452,16.826,0.27273,0,0.00015493,1548.3,5.3368e-05,26.832,4.9788e-05,-0.063019,-0.00015446,-1534.7,1.2802
10453,16.734,0.36364,0,0.00015817,1580.6,5.4846e-05,31.759,5.061e-05,-0.070599,-0.00015761,-1564.5,1.2686
10454,16.826,0.36364,0.05,9.563e-07,9.5564,7.3432e-07,5.5174,1.3488e-12,6.1002e-06,-7.3432e-07,-5.5174,1.2804
10455,16.734,0.18182,0,0.00015717,1570.6,5.3591e-05,20.636,5.0837e-05,-0.052128,-0.00015681,-1560.3,1.268
10456,16.826,0.18182,0.05,5.0717e-07,5.0682,3.8945e-07,2.9261,1.1816e-12,2.5317e-06,-3.8944e-07,-2.9261,1.2798
10457,16.826,0.090909,0,0.00015353,1534.2,5.1711e-05,12.536,5.0041e-05,-0.0066811,-0.00015331,-1527.9,1.2795
10458,16.642,5.7273,0,0.00016039,1602.8,5.5053e-05,25.441,5.166e-05,-0.056115,-0.00015995,-1590,1.2566
10459,16.549,5.8182,0,0.00016264,1625.3,5.5351e-05,20.117,5.2668e-05,-0.041308,-0.00016229,-1615.2,1.2445
10460,16.642,5.8182,0.05,4.3258e-07,4.3228,3.3217e-07,2.4958,1.5722e-12,-7.2901e-06,-3.3217e-07,-2.4958,1.2562
10461,16.642,5.9091,0,0.0001591,1589.9,5.3534e-05,12.346,5.1889e-05,-0.0073101,-0.00015889,-1583.7,1.256
10462,16.642,5.5455,0,0.00016139,1612.7,5.6226e-05,35.621,5.148e-05,-0.032037,-0.00016075,-1594.7,1.2571
10463,16.549,5.6364,0,0.00016345,1633.4,5.6412e-05,29.647,5.2458e-05,-0.064468,-0.00016293,-1618.4,1.2451
10464,16.642,5.6364,0.05,9.1708e-07,9.1645,7.0421e-07,5.2911,1.3179e-12,4.8556e-06,-7.0421e-07,-5.2911,1.2568
10465,16.642,5.3636,0,0.00016247,1623.6,5.7357e-05,44.967,5.1373e-05,0.0032855,-0.00016166,-1600.6,1.2577
10466,16.549,5.4545,0,0.00016444,1643.3,5.7516e-05,39.041,5.232e-05,-0.0011523,-0.00016374,-1623.4,1.2457
10467,16.642,5.4545,0.05,9.3795e-07,9.3731,7.2023e-07,5.4115,1.7634e-12,7.2795e-06,-7.2023e-07,-5.4116,1.2574
10468,16.642,5.1818,0,0.00016355,1634.4,5.8373e-05,52.929,5.133e-05,0.0099911,-0.00016259,-1607.3,1.2582
10469,16.549,5.2727,0,0.00016545,1653.3,5.8526e-05,47.224,5.2241e-05,0.0042957,-0.00016459,-1629.2,1.2462
10470,16.642,5.2727,0.05,9.2383e-07,9.232,7.0939e-07,5.3301,8.7779e-13,4.225e-06,-7.0939e-07,-5.3301,1.2579
10471,16.642,5,0,0.0001646,1644.9,5.9255e-05,59.416,5.1349e-05,0.015814,-0.00016351,-1614.3,1.2586
10472,16.549,5.0909,0,0.00016643,1663.1,5.9417e-05,54.07,5.2222e-05,0.012839,-0.00016544,-1635.4,1.2467
10473,16.642,5.0909,0.05,9.0428e-07,9.0365,6.9437e-07,5.2172,1.3473e-12,4.8188e-06,-6.9437e-07,-5.2173,1.2584
10474,16.642,4.8182,0,0.00016559,1654.7,5.9994e-05,64.41,5.1424e-05,0.018212,-0.0001644,-1621.6,1.2591
10475,16.549,4.9091,0,0.00016736,1672.5,6.0177e-05,59.526,5.2257e-05,0.016156,-0.00016627,-1641.9,1.2471
10476,16.642,4.9091,0.05,8.8183e-07,8.8122,6.7713e-07,5.0877,1.3667e-12,3.3536e-06,-6.7714e-07,-5.0877,1.2588
10477,16.642,4.6364,0,0.00016649,1663.8,6.0586e-05,67.962,5.1544e-05,0.019156,-0.00016523,-1628.8,1.2595
10478,16.549,4.7273,0,0.00016823,1681.2,6.0801e-05,63.606,5.2338e-05,0.017998,-0.00016706,-1648.5,1.2475
10479,16.642,4.7273,0.05,8.5727e-07,8.5668,6.5828e-07,4.946,1.819e-12,2.8608e-06,-6.5828e-07,-4.9461,1.2593
10480,16.642,4.4545,0,0.00016731,1671.9,6.1038e-05,70.183,5.17e-05,0.01898,-0.000166,-1635.7,1.2598
10481,16.549,4.5455,0,0.00016902,1689,6.1291e-05,66.389,5.2457e-05,0.018418,-0.00016779,-1654.8,1.2479
10482,16.642,4.5455,0.05,8.3133e-07,8.3076,6.3836e-07,4.7964,1.8228e-12,4.8061e-06,-6.3836e-07,-4.7964,1.2596
10483,16.642,4.2727,0,0.00016801,1679,6.1359e-05,71.25,5.1879e-05,0.018176,-0.00016669,-1642.2,1.2601
10484,16.549,4.3636,0,0.00016971,1695.9,6.1653e-05,68.008,5.2604e-05,0.018036,-0.00016845,-1660.9,1.2482
10485,16.642,4.3636,0.05,8.0478e-07,8.0422,6.1797e-07,4.6431,2.7297e-12,3.8344e-06,-6.1797e-07,-4.6432,1.2599
10486,16.642,4.0909,0,0.00016861,1684.9,6.1568e-05,71.386,5.207e-05,0.017075,-0.00016728,-1648.1,1.2604
10487,16.549,4.1818,0,0.0001703,1701.9,6.1901e-05,68.65,5.2767e-05,0.017177,-0.00016903,-1666.5,1.2485
10488,16.642,4.1818,0.05,7.7839e-07,7.7786,5.9771e-07,4.4909,9.2751e-13,3.9105e-06,-5.9771e-07,-4.491,1.2602
10489,16.642,3.9091,0,0.0001691,1689.8,6.1686e-05,70.852,5.2258e-05,0.015954,-0.00016778,-1653.3,1.2606
10490,16.549,4,0,0.0001708,1706.8,6.2055e-05,68.539,5.2935e-05,0.016138,-0.00016953,-1671.5,1.2488
10491,16.642,4,0.05,7.5305e-07,7.5253,5.7825e-07,4.3447,9.4005e-13,3.9998e-06,-5.7825e-07,-4.3448,1.2605
10492,16.642,3.7273,0,0.00016949,1693.7,6.1737e-05,69.924,5.2432e-05,0.015007,-0.00016819,-1657.6,1.2608
10493,16.549,3.8182,0,0.00017119,1710.7,6.2135e-05,67.925,5.3096e-05,0.015141,-0.00016993,-1675.7,1.249
10494,16.642,3.8182,0.05,7.2967e-07,7.2916,5.6029e-07,4.2098,2.7587e-12,6.8984e-06,-5.603e-07,-4.2099,1.2607
10495,16.642,3.5455,0,0.00016978,1696.6,6.1745e-05,68.87,5.2581e-05,0.014328,-0.0001685,-1661.1,1.2609
10496,16.549,3.6364,0,0.00017149,1713.8,6.2163e-05,67.059,5.324e-05,0.014329,-0.00017025,-1679.2,1.2491
10497,16.642,3.6364,0.05,7.0923e-07,7.0874,5.446e-07,4.0919,1.8786e-12,8.175e-06,-5.446e-07,-4.092,1.2608
10498,16.642,3.3636,0,0.00016998,1698.6,6.1733e-05,67.928,5.2695e-05,0.01392,-0.00016872,-1663.6,1.261
10499,16.549,3.4545,0,0.00017171,1716,6.2163e-05,66.175,5.3357e-05,0.01376,-0.00017049,-1681.9,1.2493
10500,16.642,3.4545,0.05,6.9275e-07,6.9227,5.3195e-07,3.9968,9.8205e-13,8.1658e-06,-5.3195e-07,-3.9969,1.261
10501,16.642,3.1818,0,0.00017009,1699.8,6.1719e-05,67.284,5.2766e-05,0.013723,-0.00016885,-1665.1,1.2611
10502,16.549,3.2727,0,0.00017186,1717.4,6.2151e-05,65.467,5.344e-05,0.013425,-0.00017065,-1683.7,1.2493
10503,16.642,3.2727,0.05,6.8115e-07,6.8068,5.2304e-07,3.9299,9.7027e-13,5.2093e-06,-5.2304e-07,-3.9299,1.261
10504,16.642,3,0,0.00017013,1700.1,6.1713e-05,67.055,5.279e-05,0.013668,-0.00016889,-1665.6,1.2611
10505,16.549,3.0909,0,0.00017192,1718.1,6.2142e-05,65.077,5.3482e-05,0.013275,-0.00017073,-1684.6,1.2494
10506,16.642,3.0909,0.05,6.7515e-07,6.7468,5.1843e-07,3.8952,9.3336e-13,7.806e-06,-5.1843e-07,-3.8953,1.2611
10507,16.642,2.8182,0,0.00017009,1699.8,6.1719e-05,67.284,5.2766e-05,0.013723,-0.00016885,-1665.1,1.2611
10508,16.549,2.9091,0,0.00017192,1718.1,6.2142e-05,65.077,5.3482e-05,0.013276,-0.00017073,-1684.6,1.2494
10509,16.642,2.9091,0.05,6.7515e-07,6.7468,5.1843e-07,3.8952,-2.779e-14,8.3695e-06,-5.1843e-07,-3.8953,1.2611
10510,16.642,2.6364,0,0.00016998,1698.6,6.1733e-05,67.928,5.2695e-05,0.013921,-0.00016872,-1663.6,1.261
10511,16.549,2.7273,0,0.00017186,1717.4,6.2151e-05,65.467,5.344e-05,0.013424,-0.00017065,-1683.7,1.2493
10512,16.642,2.7273,0.05,6.8115e-07,6.8068,5.2304e-07,3.9299,8.2027e-13,7.8943e-06,-5.2304e-07,-3.9299,1.261
10513,16.642,2.4545,0,0.00016978,1696.6,6.1745e-05,68.87,5.2581e-05,0.014328,-0.0001685,-1661.1,1.2609
10514,16.549,2.5455,0,0.00017171,1716,6.2163e-05,66.175,5.3357e-05,0.013761,-0.00017049,-1681.9,1.2493
10515,16.642,2.5455,0.05,6.9275e-07,6.9227,5.3194e-07,3.9968,2.5713e-12,6.4882e-06,-5.3195e-07,-3.9969,1.261
10516,16.642,2.2727,0,0.00016949,1693.7,6.1737e-05,69.924,5.2432e-05,0.015007,-0.00016819,-1657.6,1.2608
10517,16.549,2.3636,0,0.00017149,1713.8,6.2163e-05,67.059,5.324e-05,0.014329,-0.00017025,-1679.2,1.2491
10518,16.642,2.3636,0.05,7.0923e-07,7.0874,5.446e-07,4.0919,7.2049e-13,5.2281e-06,-5.446e-07,-4.0919,1.2608
10519,16.642,2.0909,0,0.0001691,1689.8,6.1686e-05,70.852,5.2258e-05,0.015955,-0.00016778,-1653.3,1.2606
10520,16.549,2.1818,0,0.00017119,1710.7,6.2135e-05,67.925,5.3096e-05,0.015141,-0.00016993,-1675.7,1.249
10521,16.642,2.1818,0.05,7.2967e-07,7.2916,5.6029e-07,4.2098,1.5972e-12,5.8534e-06,-5.6029e-07,-4.2099,1.2607
10522,16.642,1.9091,0,0.00016861,1684.9,6.1568e-05,71.386,5.207e-05,0.017075,-0.00016728,-1648.1,1.2604
10523,16.549,2,0,0.0001708,1706.8,6.2055e-05,68.539,5.2935e-05,0.016139,-0.00016953,-1671.5,1.2488
10524,16.642,2,0.05,7.5305e-07,7.5253,5.7825e-07,4.3447,6.9807e-13,4.9999e-06,-5.7825e-07,-4.3448,1.2605
10525,16.642,1.7273,0,0.00016801,1679,6.1359e-05,71.25,5.1879e-05,0.018176,-0.00016669,-1642.2,1.2601
10526,16.549,1.8182,0,0.0001703,1701.9,6.1901e-05,68.65,5.2767e-05,0.017177,-0.00016903,-1666.5,1.2485
10527,16.642,1.8182,0.05,7.7839e-07,7.7786,5.9771e-07,4.4909,7.6445e-13,4.3795e-06,-5.9771e-07,-4.491,1.2602
10528,16.642,1.5455,0,0.00016731,1671.9,6.1038e-05,70.183,5.17e-05,0.018981,-0.000166,-1635.7,1.2598
10529,16.549,1.6364,0,0.00016971,1695.9,6.1653e-05,68.008,5.2604e-05,0.018038,-0.00016845,-1660.9,1.2482
10530,16.642,1.6364,0.05,8.0478e-07,8.0422,6.1797e-07,4.6432,2.6103e-12,5.8281e-06,-6.1797e-07,-4.6432,1.2599
10531,16.642,1.3636,0,0.00016649,1663.8,6.0586e-05,67.961,5.1544e-05,0.019157,-0.00016523,-1628.8,1.2595
10532,16.549,1.4545,0,0.00016902,1689,6.1291e-05,66.389,5.2457e-05,0.018418,-0.00016779,-1654.8,1.2479
10533,16.642,1.4545,0.05,8.3133e-07,8.3076,6.3836e-07,4.7964,1.306e-12,5.2529e-06,-6.3836e-07,-4.7964,1.2596
10534,16.642,1.1818,0,0.00016559,1654.7,5.9994e-05,64.41,5.1424e-05,0.018213,-0.0001644,-1621.6,1.2591
10535,16.549,1.2727,0,0.00016823,1681.2,6.0801e-05,63.606,5.2338e-05,0.017999,-0.00016706,-1648.5,1.2475
10536,16.642,1.2727,0.05,8.5727e-07,8.5668,6.5827e-07,4.946,1.3598e-12,6.6446e-06,-6.5828e-07,-4.9461,1.2593
10537,16.642,1,0,0.0001646,1644.9,5.9255e-05,59.416,5.1349e-05,0.015815,-0.00016351,-1614.3,1.2586
10538,16.549,1.0909,0,0.00016736,1672.5,6.0177e-05,59.526,5.2257e-05,0.016157,-0.00016627,-1641.9,1.2471
10539,16.642,1.0909,0.05,8.8183e-07,8.8122,6.7713e-07,5.0877,1.4096e-12,6.5433e-06,-6.7714e-07,-5.0877,1.2588
10540,16.642,0.81818,0,0.00016355,1634.4,5.8373e-05,52.928,5.133e-05,0.0099916,-0.00016259,-1607.3,1.2582
10541,16.549,0.90909,0,0.00016643,1663.1,5.9417e-05,54.07,5.2222e-05,0.012841,-0.00016544,-1635.4,1.2467
10542,16.642,0.90909,0.05,9.0428e-07,9.0365,6.9437e-07,5.2172,1.9062e-12,7.2738e-06,-6.9437e-07,-5.2173,1.2584
10543,16.642,0.63636,0,0.00016247,1623.6,5.7357e-05,44.967,5.1373e-05,0.0032851,-0.00016166,-1600.6,1.2577
10544,16.549,0.72727,0,0.00016545,1653.3,5.8526e-05,47.224,5.2241e-05,0.0042971,-0.00016459,-1629.2,1.2462
10545,16.642,0.72727,0.05,9.2383e-07,9.232,7.0939e-07,5.3301,1.8413e-12,7.8795e-06,-7.0939e-07,-5.3301,1.2579
10546,16.642,0.45455,0,0.00016139,1612.7,5.6226e-05,35.621,5.148e-05,-0.032037,-0.00016075,-1594.7,1.2571
10547,16.549,0.54545,0,0.00016444,1643.3,5.7516e-05,39.041,5.232e-05,-0.0011532,-0.00016374,-1623.4,1.2457
10548,16.642,0.54545,0.05,9.3795e-07,9.3731,7.2023e-07,5.4115,1.8192e-12,7.2818e-06,-7.2023e-07,-5.4116,1.2574
10549,16.642,0.27273,0,0.00016039,1602.8,5.5053e-05,25.441,5.166e-05,-0.056114,-0.00015995,-1590,1.2566
10550,16.549,0.36364,0,0.00016345,1633.4,5.6412e-05,29.647,5.2458e-05,-0.064469,-0.00016293,-1618.4,1.2451
10551,16.642,0.36364,0.05,9.1708e-07,9.1645,7.0421e-07,5.2911,7.3047e-13,6.2706e-06,-7.0421e-07,-5.2911,1.2568
10552,16.549,0.18182,0,0.00016264,1625.3,5.5351e-05,20.117,5.2668e-05,-0.041307,-0.00016229,-1615.2,1.2445
10553,16.642,0.18182,0.05,4.3258e-07,4.3228,3.3217e-07,2.4958,6.8996e-13,-3.1978e-06,-3.3217e-07,-2.4958,1.2562
10554,16.642,0.090909,0,0.0001591,1589.9,5.3534e-05,12.346,5.1889e-05,-0.0073095,-0.00015889,-1583.7,1.256
10555,16.457,5.7273,0,0.00016568,1655.7,5.6695e-05,24.204,5.3467e-05,-0.049686,-0.00016526,-1643.4,1.2331
10556,16.364,5.8182,0,0.00016794,1678.3,5.7061e-05,19.651,5.4442e-05,-0.032376,-0.0001676,-1668.4,1.2211
10557,16.457,5.8182,0.05,3.698e-07,3.6955,2.8396e-07,2.1336,8.9893e-13,1.2972e-06,-2.8396e-07,-2.1336,1.2328
10558,16.457,5.9091,0,0.00016448,1643.7,5.5296e-05,12.171,5.3675e-05,-0.0077104,-0.00016427,-1637.6,1.2325
10559,16.457,5.5455,0,0.0001665,1663.9,5.7698e-05,33.029,5.3298e-05,-0.030257,-0.00016591,-1647.1,1.2337
10560,16.364,5.6364,0,0.00016859,1684.7,5.7952e-05,27.774,5.4248e-05,-0.058733,-0.0001681,-1670.7,1.2217
10561,16.457,5.6364,0.05,8.8568e-07,8.8507,6.8009e-07,5.1099,1.7198e-12,3.255e-06,-6.8009e-07,-5.11,1.2334
10562,16.457,5.3636,0,0.00016741,1673,5.8682e-05,41.274,5.3189e-05,0.0014223,-0.00016667,-1651.9,1.2342
10563,16.364,5.4545,0,0.00016942,1693.1,5.891e-05,36.03,5.4115e-05,-0.0026673,-0.00016878,-1674.8,1.2223
10564,16.457,5.4545,0.05,9.1128e-07,9.1065,6.9975e-07,5.2576,1.7438e-12,4.9787e-06,-6.9975e-07,-5.2577,1.2339
10565,16.457,5.1818,0,0.00016832,1682,5.9567e-05,48.349,5.3134e-05,0.0079286,-0.00016744,-1657.3,1.2347
10566,16.364,5.2727,0,0.00017027,1701.5,5.979e-05,43.278,5.403e-05,0.002639,-0.00016949,-1679.4,1.2228
10567,16.457,5.2727,0.05,9.0072e-07,9.001,6.9164e-07,5.1967,1.359e-12,2.6411e-06,-6.9164e-07,-5.1967,1.2345
10568,16.457,5,0,0.00016919,1690.7,6.0337e-05,54.169,5.313e-05,0.013602,-0.0001682,-1663,1.2352
10569,16.364,5.0909,0,0.00017109,1709.7,6.0568e-05,49.392,5.3995e-05,0.01071,-0.00017019,-1684.5,1.2233
10570,16.457,5.0909,0.05,8.8521e-07,8.846,6.7973e-07,5.1072,9.1333e-13,2.3191e-06,-6.7973e-07,-5.1073,1.235
10571,16.457,4.8182,0,0.00017001,1698.9,6.0983e-05,58.714,5.3171e-05,0.016163,-0.00016893,-1668.8,1.2356
10572,16.364,4.9091,0,0.00017187,1717.5,6.1233e-05,54.322,5.4005e-05,0.014091,-0.00017088,-1689.7,1.2237
10573,16.457,4.9091,0.05,8.6732e-07,8.6672,6.6599e-07,5.004,1.8181e-12,1.8503e-06,-6.66e-07,-5.0041,1.2354
10574,16.457,4.6364,0,0.00017076,1706.4,6.1504e-05,62.027,5.3251e-05,0.017361,-0.00016962,-1674.5,1.236
10575,16.364,4.7273,0,0.00017259,1724.7,6.1781e-05,58.079,5.4053e-05,0.016098,-0.00017152,-1694.9,1.2242
10576,16.457,4.7273,0.05,8.4775e-07,8.4716,6.5096e-07,4.8911,1.3616e-12,4.9423e-09,-6.5097e-07,-4.8911,1.2358
10577,16.457,4.4545,0,0.00017142,1713.1,6.1904e-05,64.208,5.3361e-05,0.017498,-0.00017024,-1680,1.2364
10578,16.364,4.5455,0,0.00017323,1731.1,6.2214e-05,60.73,5.4134e-05,0.016781,-0.00017212,-1700,1.2245
10579,16.457,4.5455,0.05,8.271e-07,8.2653,6.3511e-07,4.772,1.8193e-12,3.3422e-06,-6.3511e-07,-4.772,1.2362
10580,16.457,4.2727,0,0.000172,1718.8,6.2194e-05,65.402,5.3492e-05,0.017012,-0.0001708,-1685.2,1.2367
10581,16.364,4.3636,0,0.0001738,1736.8,6.2539e-05,62.388,5.4238e-05,0.016694,-0.00017266,-1704.8,1.2249
10582,16.457,4.3636,0.05,8.0602e-07,8.0546,6.1892e-07,4.6503,1.8261e-12,5.359e-07,-6.1892e-07,-4.6504,1.2365
10583,16.457,4.0909,0,0.00017249,1723.7,6.2387e-05,65.796,5.3632e-05,0.016187,-0.00017127,-1689.8,1.237
10584,16.364,4.1818,0,0.00017429,1741.7,6.2767e-05,63.208,5.4356e-05,0.016119,-0.00017312,-1709.2,1.2252
10585,16.457,4.1818,0.05,7.8516e-07,7.8462,6.029e-07,4.53,1.8349e-12,2.0953e-06,-6.0291e-07,-4.53,1.2368
10586,16.457,3.9091,0,0.00017289,1727.7,6.2502e-05,65.605,5.3773e-05,0.015265,-0.00017168,-1693.9,1.2372
10587,16.364,4,0,0.00017469,1745.7,6.2913e-05,63.375,5.448e-05,0.015317,-0.00017352,-1713.1,1.2254
10588,16.457,4,0.05,7.6523e-07,7.647,5.876e-07,4.415,2.7574e-12,2.5914e-06,-5.876e-07,-4.415,1.2371
10589,16.457,3.7273,0,0.0001732,1730.8,6.256e-05,65.051,5.3904e-05,0.014415,-0.000172,-1697.3,1.2374
10590,16.364,3.8182,0,0.00017501,1748.9,6.2995e-05,63.093,5.46e-05,0.014479,-0.00017385,-1716.5,1.2256
10591,16.457,3.8182,0.05,7.4696e-07,7.4644,5.7357e-07,4.3096,9.5201e-13,4.0621e-06,-5.7357e-07,-4.3096,1.2373
10592,16.457,3.5455,0,0.00017343,1733.1,6.2579e-05,64.354,5.4016e-05,0.013738,-0.00017225,-1700,1.2375
10593,16.364,3.6364,0,0.00017525,1751.3,6.3033e-05,62.565,5.4708e-05,0.013738,-0.0001741,-1719.2,1.2258
10594,16.457,3.6364,0.05,7.3111e-07,7.306,5.614e-07,4.2181,1.8585e-12,5.1021e-06,-5.614e-07,-4.2182,1.2374
10595,16.457,3.3636,0,0.00017359,1734.7,6.2579e-05,63.703,5.4102e-05,0.013272,-0.00017242,-1702,1.2376
10596,16.364,3.4545,0,0.00017543,1753.1,6.3043e-05,61.98,5.4796e-05,0.013171,-0.00017429,-1721.3,1.2259
10597,16.457,3.4545,0.05,7.1841e-07,7.1791,5.5165e-07,4.1449,2.7773e-12,5.174e-06,-5.5165e-07,-4.1449,1.2376
10598,16.457,3.1818,0,0.00017369,1735.7,6.2572e-05,63.249,5.4156e-05,0.013008,-0.00017252,-1703.2,1.2377
10599,16.364,3.2727,0,0.00017554,1754.2,6.3041e-05,61.495,5.4858e-05,0.012799,-0.00017442,-1722.7,1.226
10600,16.457,3.2727,0.05,7.0952e-07,7.0903,5.4482e-07,4.0936,9.4794e-13,4.1088e-06,-5.4482e-07,-4.0936,1.2376
10601,16.457,3,0,0.00017372,1736,6.2569e-05,63.087,5.4174e-05,0.012924,-0.00017256,-1703.6,1.2377
10602,16.364,3.0909,0,0.0001756,1754.8,6.3037e-05,61.224,5.489e-05,0.012617,-0.00017448,-1723.4,1.226
10603,16.457,3.0909,0.05,7.0494e-07,7.0445,5.413e-07,4.0671,1.6044e-14,5.841e-06,-5.4131e-07,-4.0672,1.2377
10604,16.457,2.8182,0,0.00017369,1735.7,6.2572e-05,63.249,5.4156e-05,0.013008,-0.00017252,-1703.2,1.2377
10605,16.364,2.9091,0,0.0001756,1754.8,6.3037e-05,61.224,5.489e-05,0.012618,-0.00017448,-1723.4,1.226
10606,16.457,2.9091,0.05,7.0494e-07,7.0445,5.413e-07,4.0671,8.91e-13,6.0587e-06,-5.4131e-07,-4.0672,1.2377
10607,16.457,2.6364,0,0.00017359,1734.7,6.2579e-05,63.703,5.4102e-05,0.013271,-0.00017242,-1702,1.2376
10608,16.364,2.7273,0,0.00017554,1754.2,6.3041e-05,61.495,5.4858e-05,0.012798,-0.00017442,-1722.7,1.226
10609,16.457,2.7273,0.05,7.0952e-07,7.0903,5.4482e-07,4.0936,2.667e-12,5.2673e-06,-5.4482e-07,-4.0936,1.2376
10610,16.457,2.4545,0,0.00017343,1733.1,6.2579e-05,64.354,5.4016e-05,0.013738,-0.00017225,-1700,1.2375
10611,16.364,2.5455,0,0.00017543,1753.1,6.3043e-05,61.98,5.4796e-05,0.013171,-0.00017429,-1721.3,1.2259
10612,16.457,2.5455,0.05,7.1841e-07,7.1791,5.5165e-07,4.1449,2.6321e-12,4.5466e-06,-5.5165e-07,-4.1449,1.2376
10613,16.457,2.2727,0,0.0001732,1730.8,6.256e-05,65.051,5.3904e-05,0.014415,-0.000172,-1697.3,1.2374
10614,16.364,2.3636,0,0.00017525,1751.3,6.3033e-05,62.565,5.4708e-05,0.013739,-0.0001741,-1719.2,1.2258
10615,16.457,2.3636,0.05,7.3111e-07,7.306,5.614e-07,4.2181,2.5933e-12,3.7122e-06,-5.614e-07,-4.2182,1.2374
10616,16.457,2.0909,0,0.00017289,1727.7,6.2502e-05,65.604,5.3773e-05,0.015266,-0.00017168,-1693.9,1.2372
10617,16.364,2.1818,0,0.00017501,1748.9,6.2995e-05,63.093,5.46e-05,0.014479,-0.00017385,-1716.5,1.2256
10618,16.457,2.1818,0.05,7.4696e-07,7.4644,5.7357e-07,4.3096,2.5949e-12,4.6393e-06,-5.7357e-07,-4.3096,1.2373
10619,16.457,1.9091,0,0.00017249,1723.7,6.2387e-05,65.796,5.3632e-05,0.016189,-0.00017127,-1689.8,1.237
10620,16.364,2,0,0.00017469,1745.7,6.2913e-05,63.375,5.448e-05,0.015318,-0.00017352,-1713.1,1.2254
10621,16.457,2,0.05,7.6523e-07,7.647,5.876e-07,4.415,-1.2195e-13,2.9204e-06,-5.876e-07,-4.415,1.2371
10622,16.457,1.7273,0,0.000172,1718.8,6.2194e-05,65.402,5.3492e-05,0.017013,-0.0001708,-1685.2,1.2367
10623,16.364,1.8182,0,0.00017429,1741.7,6.2767e-05,63.208,5.4356e-05,0.01612,-0.00017312,-1709.2,1.2252
10624,16.457,1.8182,0.05,7.8516e-07,7.8462,6.029e-07,4.53,2.6255e-12,4.5521e-06,-6.029e-07,-4.53,1.2368
10625,16.457,1.5455,0,0.00017142,1713.1,6.1904e-05,64.208,5.3361e-05,0.017499,-0.00017024,-1680,1.2364
10626,16.364,1.6364,0,0.0001738,1736.8,6.2539e-05,62.388,5.4238e-05,0.016695,-0.00017266,-1704.8,1.2249
10627,16.457,1.6364,0.05,8.0602e-07,8.0546,6.1892e-07,4.6503,1.7501e-12,3.782e-06,-6.1892e-07,-4.6504,1.2365
10628,16.457,1.3636,0,0.00017076,1706.4,6.1504e-05,62.027,5.3251e-05,0.017361,-0.00016962,-1674.5,1.236
10629,16.364,1.4545,0,0.00017323,1731.1,6.2214e-05,60.73,5.4134e-05,0.016781,-0.00017212,-1700,1.2245
10630,16.457,1.4545,0.05,8.271e-07,8.2653,6.3511e-07,4.772,1.7956e-12,4.1083e-06,-6.3511e-07,-4.772,1.2362
10631,16.457,1.1818,0,0.00017001,1698.9,6.0983e-05,58.713,5.3171e-05,0.016164,-0.00016893,-1668.8,1.2356
10632,16.364,1.2727,0,0.00017259,1724.7,6.1781e-05,58.079,5.4053e-05,0.016099,-0.00017152,-1694.9,1.2242
10633,16.457,1.2727,0.05,8.4775e-07,8.4716,6.5097e-07,4.8911,1.8342e-12,4.4176e-06,-6.5097e-07,-4.8911,1.2358
10634,16.457,1,0,0.00016919,1690.7,6.0337e-05,54.169,5.313e-05,0.013604,-0.0001682,-1663,1.2352
10635,16.364,1.0909,0,0.00017187,1717.5,6.1233e-05,54.322,5.4005e-05,0.014092,-0.00017088,-1689.7,1.2237
10636,16.457,1.0909,0.05,8.6732e-07,8.6672,6.6599e-07,5.004,1.4032e-12,4.1692e-06,-6.66e-07,-5.004,1.2354
10637,16.457,0.81818,0,0.00016832,1682,5.9567e-05,48.349,5.3134e-05,0.0079316,-0.00016744,-1657.3,1.2347
10638,16.364,0.90909,0,0.00017109,1709.7,6.0568e-05,49.392,5.3995e-05,0.010712,-0.00017019,-1684.5,1.2233
10639,16.457,0.90909,0.05,8.8521e-07,8.846,6.7973e-07,5.1072,1.8473e-12,5.6376e-06,-6.7973e-07,-5.1073,1.235
10640,16.457,0.63636,0,0.00016741,1673,5.8682e-05,41.274,5.3189e-05,0.0014231,-0.00016667,-1651.9,1.2342
10641,16.364,0.72727,0,0.00017027,1701.5,5.979e-05,43.278,5.403e-05,0.0026413,-0.00016949,-1679.4,1.2228
10642,16.457,0.72727,0.05,9.0072e-07,9.001,6.9164e-07,5.1967,1.9115e-12,6.9252e-06,-6.9164e-07,-5.1967,1.2345
10643,16.457,0.45455,0,0.0001665,1663.9,5.7698e-05,33.029,5.3298e-05,-0.030257,-0.00016591,-1647.1,1.2337
10644,16.364,0.54545,0,0.00016942,1693.1,5.891e-05,36.03,5.4115e-05,-0.0026677,-0.00016878,-1674.8,1.2223
10645,16.457,0.54545,0.05,9.1128e-07,9.1065,6.9975e-07,5.2576,1.9016e-12,8.002e-06,-6.9975e-07,-5.2577,1.2339
10646,16.457,0.27273,0,0.00016568,1655.7,5.6695e-05,24.204,5.3467e-05,-0.049686,-0.00016526,-1643.4,1.2331
10647,16.364,0.36364,0,0.00016859,1684.7,5.7952e-05,27.774,5.4248e-05,-0.058734,-0.0001681,-1670.7,1.2217
10648,16.457,0.36364,0.05,8.8568e-07,8.8507,6.8009e-07,5.1099,1.3778e-12,6.902e-06,-6.8009e-07,-5.11,1.2334
10649,16.364,0.18182,0,0.00016794,1678.3,5.7061e-05,19.651,5.4442e-05,-0.032376,-0.0001676,-1668.4,1.2211
10650,16.457,0.18182,0.05,3.698e-07,3.6955,2.8396e-07,2.1336,1.2735e-12,-1.8713e-06,-2.8396e-07,-2.1336,1.2328
10651,16.457,0.090909,0,0.00016448,1643.7,5.5296e-05,12.171,5.3675e-05,-0.0077089,-0.00016427,-1637.6,1.2325
10652,16.272,5.7273,0,0.00017083,1707.1,5.8303e-05,23.103,5.5222e-05,-0.043878,-0.00017043,-1695.5,1.2097
10653,16.179,5.8182,0,0.00017311,1729.9,5.8732e-05,19.228,5.617e-05,-0.025168,-0.00017278,-1720.2,1.1978
10654,16.272,5.8182,0.05,3.1698e-07,3.1676,2.434e-07,1.8288,8.0207e-13,5.2962e-07,-2.434e-07,-1.8288,1.2094
10655,16.272,5.9091,0,0.00016972,1696,5.701e-05,12.008,5.5411e-05,-0.0079338,-0.00016951,-1690,1.2091
10656,16.272,5.5455,0,0.0001715,1713.9,5.9159e-05,30.737,5.5065e-05,-0.028453,-0.00017096,-1698.3,1.2103
10657,16.179,5.6364,0,0.00017362,1735,5.9474e-05,26.116,5.5991e-05,-0.053461,-0.00017316,-1721.8,1.1984
10658,16.272,5.6364,0.05,8.6071e-07,8.6012,6.6092e-07,4.9659,1.7043e-12,5.0227e-06,-6.6092e-07,-4.9659,1.21
10659,16.272,5.3636,0,0.00017227,1721.5,6.0015e-05,38.008,5.4956e-05,-0.00010973,-0.00017159,-1702.2,1.2109
10660,16.179,5.4545,0,0.00017432,1742,6.0305e-05,33.368,5.5864e-05,-0.0038382,-0.00017373,-1725.1,1.199
10661,16.272,5.4545,0.05,8.903e-07,8.8969,6.8364e-07,5.1366,1.7984e-12,5.9476e-06,-6.8364e-07,-5.1366,1.2106
10662,16.272,5.1818,0,0.00017303,1729.1,6.0787e-05,44.301,5.4892e-05,0.006109,-0.00017223,-1706.5,1.2114
10663,16.179,5.2727,0,0.00017503,1749.1,6.1072e-05,39.789,5.5777e-05,0.0012283,-0.00017432,-1728.8,1.1995
10664,16.272,5.2727,0.05,8.8265e-07,8.8204,6.7777e-07,5.0924,1.7911e-12,3.1773e-06,-6.7777e-07,-5.0925,1.2111
10665,16.272,5,0,0.00017376,1736.4,6.1461e-05,49.53,5.4871e-05,0.011576,-0.00017286,-1711.1,1.2119
10666,16.179,5.0909,0,0.00017571,1755.9,6.1752e-05,45.254,5.573e-05,0.0088037,-0.0001749,-1732.9,1.2
10667,16.272,5.0909,0.05,8.7045e-07,8.6984,6.6839e-07,5.022,1.3586e-12,3.2021e-06,-6.684e-07,-5.0221,1.2116
10668,16.272,4.8182,0,0.00017444,1743.2,6.2029e-05,53.674,5.4887e-05,0.01423,-0.00017346,-1715.7,1.2123
10669,16.179,4.9091,0,0.00017636,1762.4,6.2336e-05,49.715,5.5721e-05,0.012187,-0.00017546,-1737,1.2005
10670,16.272,4.9091,0.05,8.5627e-07,8.5568,6.5751e-07,4.9403,2.7182e-12,3.7347e-06,-6.5751e-07,-4.9403,1.2121
10671,16.272,4.6364,0,0.00017506,1749.4,6.249e-05,56.771,5.4936e-05,0.015619,-0.00017402,-1720.3,1.2127
10672,16.179,4.7273,0,0.00017696,1768.4,6.282e-05,53.18,5.5744e-05,0.014303,-0.000176,-1741.2,1.2009
10673,16.272,4.7273,0.05,8.4074e-07,8.4016,6.4559e-07,4.8507,1.8171e-12,1.4192e-06,-6.4559e-07,-4.8507,1.2125
10674,16.272,4.4545,0,0.00017561,1754.9,6.2847e-05,58.9,5.501e-05,0.016011,-0.00017453,-1724.7,1.2131
10675,16.179,4.5455,0,0.0001775,1773.7,6.3206e-05,55.701,5.5795e-05,0.015192,-0.00017648,-1745.2,1.2013
10676,16.272,4.5455,0.05,8.2437e-07,8.238,6.3301e-07,4.7562,1.819e-12,3.3377e-06,-6.3302e-07,-4.7563,1.2129
10677,16.272,4.2727,0,0.00017608,1759.6,6.311e-05,60.183,5.5102e-05,0.015793,-0.00017498,-1728.7,1.2134
10678,16.179,4.3636,0,0.00017797,1778.4,6.3499e-05,57.373,5.5865e-05,0.01535,-0.00017692,-1749,1.2016
10679,16.272,4.3636,0.05,8.0769e-07,8.0713,6.202e-07,4.66,1.8282e-12,1.9876e-06,-6.202e-07,-4.66,1.2132
10680,16.272,4.0909,0,0.00017648,1763.6,6.3291e-05,60.776,5.5204e-05,0.015217,-0.00017537,-1732.4,1.2136
10681,16.179,4.1818,0,0.00017836,1782.4,6.3709e-05,58.323,5.5949e-05,0.015023,-0.0001773,-1752.5,1.2019
10682,16.272,4.1818,0.05,7.9123e-07,7.9069,6.0757e-07,4.565,9.2627e-13,2.5251e-06,-6.0757e-07,-4.565,1.2135
10683,16.272,3.9091,0,0.00017681,1766.8,6.3404e-05,60.852,5.5307e-05,0.014491,-0.00017569,-1735.6,1.2139
10684,16.179,4,0,0.00017869,1785.7,6.3849e-05,58.704,5.6038e-05,0.01444,-0.00017762,-1755.6,1.2022
10685,16.272,4,0.05,7.7557e-07,7.7504,5.9554e-07,4.4747,9.351e-13,3.0462e-06,-5.9555e-07,-4.4747,1.2137
10686,16.272,3.7273,0,0.00017706,1769.4,6.3467e-05,60.595,5.5404e-05,0.013768,-0.00017595,-1738.3,1.2141
10687,16.179,3.8182,0,0.00017896,1788.3,6.3934e-05,58.681,5.6126e-05,0.013767,-0.00017788,-1758.3,1.2024
10688,16.272,3.8182,0.05,7.6129e-07,7.6077,5.8458e-07,4.3923,2.759e-12,4.058e-06,-5.8458e-07,-4.3923,1.214
10689,16.272,3.5455,0,0.00017725,1771.3,6.3495e-05,60.179,5.5488e-05,0.013151,-0.00017615,-1740.4,1.2142
10690,16.179,3.6364,0,0.00017916,1790.3,6.3979e-05,58.42,5.6205e-05,0.013131,-0.00017809,-1760.4,1.2025
10691,16.272,3.6364,0.05,7.4897e-07,7.4845,5.7511e-07,4.3212,1.853e-12,5.4932e-06,-5.7512e-07,-4.3212,1.2141
10692,16.272,3.3636,0,0.00017738,1772.6,6.3504e-05,59.76,5.5552e-05,0.012695,-0.00017629,-1742,1.2143
10693,16.179,3.4545,0,0.0001793,1791.8,6.3998e-05,58.071,5.6271e-05,0.012615,-0.00017824,-1762,1.2027
10694,16.272,3.4545,0.05,7.3915e-07,7.3864,5.6757e-07,4.2645,2.7663e-12,5.5235e-06,-5.6758e-07,-4.2646,1.2143
10695,16.272,3.1818,0,0.00017746,1773.4,6.3504e-05,59.457,5.5592e-05,0.01242,-0.00017637,-1742.9,1.2144
10696,16.179,3.2727,0,0.00017939,1792.7,6.4003e-05,57.762,5.6317e-05,0.012258,-0.00017834,-1763.1,1.2028
10697,16.272,3.2727,0.05,7.323e-07,7.318,5.6232e-07,4.225,1.8497e-12,4.9848e-06,-5.6232e-07,-4.2251,1.2143
10698,16.272,3,0,0.00017748,1773.6,6.3503e-05,59.347,5.5606e-05,0.012329,-0.0001764,-1743.2,1.2144
10699,16.179,3.0909,0,0.00017944,1793.2,6.4003e-05,57.584,5.6341e-05,0.012077,-0.00017839,-1763.7,1.2028
10700,16.272,3.0909,0.05,7.2879e-07,7.2828,5.5962e-07,4.2047,2.7399e-12,5.8088e-06,-5.5962e-07,-4.2048,1.2144
10701,16.272,2.8182,0,0.00017746,1773.4,6.3504e-05,59.457,5.5592e-05,0.012421,-0.00017637,-1742.9,1.2144
10702,16.179,2.9091,0,0.00017944,1793.2,6.4003e-05,57.584,5.6341e-05,0.012076,-0.00017839,-1763.7,1.2028
10703,16.272,2.9091,0.05,7.2879e-07,7.2828,5.5962e-07,4.2047,2.7154e-12,7.0558e-06,-5.5962e-07,-4.2048,1.2144
10704,16.272,2.6364,0,0.00017738,1772.6,6.3504e-05,59.76,5.5552e-05,0.012695,-0.00017629,-1742,1.2143
10705,16.179,2.7273,0,0.00017939,1792.7,6.4003e-05,57.762,5.6317e-05,0.012258,-0.00017834,-1763.1,1.2028
10706,16.272,2.7273,0.05,7.323e-07,7.318,5.6232e-07,4.225,8.6952e-13,6.3652e-06,-5.6232e-07,-4.2251,1.2143
10707,16.272,2.4545,0,0.00017725,1771.3,6.3495e-05,60.179,5.5488e-05,0.013151,-0.00017615,-1740.4,1.2142
10708,16.179,2.5455,0,0.0001793,1791.8,6.3998e-05,58.071,5.6271e-05,0.012615,-0.00017824,-1762,1.2027
10709,16.272,2.5455,0.05,7.3915e-07,7.3864,5.6757e-07,4.2645,1.7518e-12,6.1971e-06,-5.6758e-07,-4.2645,1.2143
10710,16.272,2.2727,0,0.00017706,1769.4,6.3467e-05,60.595,5.5404e-05,0.013768,-0.00017595,-1738.3,1.2141
10711,16.179,2.3636,0,0.00017916,1790.3,6.3979e-05,58.419,5.6205e-05,0.013132,-0.00017809,-1760.4,1.2025
10712,16.272,2.3636,0.05,7.4897e-07,7.4845,5.7511e-07,4.3212,1.7328e-12,5.059e-06,-5.7512e-07,-4.3212,1.2141
10713,16.272,2.0909,0,0.00017681,1766.8,6.3404e-05,60.852,5.5307e-05,0.014491,-0.00017569,-1735.6,1.2139
10714,16.179,2.1818,0,0.00017896,1788.3,6.3934e-05,58.681,5.6126e-05,0.013767,-0.00017788,-1758.3,1.2024
10715,16.272,2.1818,0.05,7.6129e-07,7.6077,5.8458e-07,4.3923,1.7227e-12,4.552e-06,-5.8458e-07,-4.3923,1.214
10716,16.272,1.9091,0,0.00017648,1763.6,6.3291e-05,60.776,5.5204e-05,0.015218,-0.00017537,-1732.4,1.2136
10717,16.179,2,0,0.00017869,1785.7,6.3849e-05,58.704,5.6038e-05,0.014439,-0.00017762,-1755.6,1.2022
10718,16.272,2,0.05,7.7557e-07,7.7504,5.9554e-07,4.4747,3.5584e-12,5.0982e-06,-5.9554e-07,-4.4747,1.2137
10719,16.272,1.7273,0,0.00017608,1759.6,6.311e-05,60.183,5.5102e-05,0.015794,-0.00017498,-1728.7,1.2134
10720,16.179,1.8182,0,0.00017836,1782.4,6.3709e-05,58.323,5.5949e-05,0.015023,-0.0001773,-1752.5,1.2019
10721,16.272,1.8182,0.05,7.9123e-07,7.9069,6.0757e-07,4.565,-5.5851e-14,5.7113e-06,-6.0757e-07,-4.565,1.2135
10722,16.272,1.5455,0,0.00017561,1754.9,6.2847e-05,58.899,5.501e-05,0.016011,-0.00017453,-1724.7,1.2131
10723,16.179,1.6364,0,0.00017797,1778.4,6.3499e-05,57.373,5.5865e-05,0.01535,-0.00017692,-1749,1.2016
10724,16.272,1.6364,0.05,8.0769e-07,8.0713,6.202e-07,4.66,2.6955e-12,4.9912e-06,-6.2021e-07,-4.66,1.2132
10725,16.272,1.3636,0,0.00017506,1749.4,6.249e-05,56.77,5.4936e-05,0.015619,-0.00017402,-1720.3,1.2127
10726,16.179,1.4545,0,0.0001775,1773.7,6.3206e-05,55.701,5.5795e-05,0.015193,-0.00017648,-1745.2,1.2013
10727,16.272,1.4545,0.05,8.2437e-07,8.238,6.3301e-07,4.7562,1.8191e-12,5.2463e-06,-6.3302e-07,-4.7563,1.2129
10728,16.272,1.1818,0,0.00017444,1743.2,6.2029e-05,53.674,5.4887e-05,0.014231,-0.00017346,-1715.7,1.2123
10729,16.179,1.2727,0,0.00017696,1768.4,6.282e-05,53.18,5.5744e-05,0.014304,-0.000176,-1741.2,1.2009
10730,16.272,1.2727,0.05,8.4074e-07,8.4016,6.4559e-07,4.8507,2.7519e-12,5.448e-06,-6.4559e-07,-4.8507,1.2125
10731,16.272,1,0,0.00017376,1736.4,6.1461e-05,49.529,5.4871e-05,0.011576,-0.00017286,-1711.1,1.2119
10732,16.179,1.0909,0,0.00017636,1762.4,6.2336e-05,49.715,5.5721e-05,0.012187,-0.00017546,-1737,1.2005
10733,16.272,1.0909,0.05,8.5627e-07,8.5568,6.5751e-07,4.9403,2.773e-12,5.5703e-06,-6.5751e-07,-4.9403,1.2121
10734,16.272,0.81818,0,0.00017303,1729.1,6.0787e-05,44.301,5.4892e-05,0.0061103,-0.00017223,-1706.5,1.2114
10735,16.179,0.90909,0,0.00017571,1755.9,6.1752e-05,45.254,5.573e-05,0.0088049,-0.0001749,-1732.9,1.2
10736,16.272,0.90909,0.05,8.7045e-07,8.6984,6.6839e-07,5.022,1.4017e-12,5.2277e-06,-6.684e-07,-5.0221,1.2116
10737,16.272,0.63636,0,0.00017227,1721.5,6.0015e-05,38.008,5.4956e-05,-0.00010869,-0.00017159,-1702.2,1.2109
10738,16.179,0.72727,0,0.00017503,1749.1,6.1072e-05,39.789,5.5777e-05,0.0012299,-0.00017432,-1728.8,1.1995
10739,16.272,0.72727,0.05,8.8265e-07,8.8204,6.7777e-07,5.0925,1.9299e-12,6.086e-06,-6.7777e-07,-5.0925,1.2111
10740,16.272,0.45455,0,0.0001715,1713.9,5.9159e-05,30.736,5.5065e-05,-0.028454,-0.00017096,-1698.3,1.2103
10741,16.179,0.54545,0,0.00017432,1742,6.0305e-05,33.368,5.5864e-05,-0.0038384,-0.00017373,-1725.1,1.199
10742,16.272,0.54545,0.05,8.903e-07,8.8969,6.8364e-07,5.1366,1.9254e-12,5.4524e-06,-6.8364e-07,-5.1366,1.2106
10743,16.272,0.27273,0,0.00017083,1707.1,5.8303e-05,23.103,5.5222e-05,-0.043878,-0.00017043,-1695.5,1.2097
10744,16.179,0.36364,0,0.00017362,1735,5.9474e-05,26.116,5.5991e-05,-0.053462,-0.00017316,-1721.8,1.1984
10745,16.272,0.36364,0.05,8.6071e-07,8.6012,6.6092e-07,4.9659,1.8641e-12,7.4999e-06,-6.6092e-07,-4.9659,1.21
10746,16.179,0.18182,0,0.00017311,1729.9,5.8732e-05,19.228,5.617e-05,-0.025167,-0.00017278,-1720.2,1.1978
10747,16.272,0.18182,0.05,3.1698e-07,3.1676,2.434e-07,1.8288,1.0153e-12,8.3277e-07,-2.434e-07,-1.8288,1.2094
10748,16.272,0.090909,0,0.00016972,1696,5.701e-05,12.008,5.5411e-05,-0.0079334,-0.00016951,-1690,1.2091
10749,16.087,5.7273,0,0.00017588,1757.6,5.9887e-05,22.124,5.6938e-05,-0.038736,-0.00017549,-1746.4,1.1865
10750,15.994,5.8182,0,0.00017818,1780.6,6.0372e-05,18.841,5.7862e-05,-0.019443,-0.00017785,-1771.1,1.1746
10751,16.087,5.8182,0.05,2.7251e-07,2.7233,2.0926e-07,1.5723,9.429e-13,-4.1364e-06,-2.0926e-07,-1.5723,1.1861
10752,16.087,5.9091,0,0.00017484,1747.2,5.8687e-05,11.855,5.7109e-05,-0.0080221,-0.00017464,-1741.2,1.1858
10753,16.087,5.5455,0,0.00017643,1763,6.0615e-05,28.709,5.6791e-05,-0.026688,-0.00017592,-1748.5,1.1871
10754,15.994,5.6364,0,0.00017857,1784.4,6.0985e-05,24.647,5.7698e-05,-0.048671,-0.00017814,-1772,1.1752
10755,16.087,5.6364,0.05,8.4103e-07,8.4045,6.458e-07,4.8523,1.3364e-12,5.2211e-06,-6.4581e-07,-4.8523,1.1868
10756,16.087,5.3636,0,0.00017707,1769.5,6.1359e-05,35.121,5.6684e-05,-0.0013545,-0.00017645,-1751.7,1.1876
10757,15.994,5.4545,0,0.00017915,1790.3,6.1705e-05,31.014,5.7577e-05,-0.0047258,-0.00017861,-1774.6,1.1758
10758,16.087,5.4545,0.05,8.7396e-07,8.7336,6.7109e-07,5.0423,1.802e-12,5.8484e-06,-6.7109e-07,-5.0424,1.1874
10759,16.087,5.1818,0,0.00017771,1775.8,6.2034e-05,40.72,5.6615e-05,0.0045275,-0.00017698,-1755.1,1.1882
10760,15.994,5.2727,0,0.00017975,1796.2,6.2374e-05,36.703,5.7489e-05,4.6036e-05,-0.00017909,-1777.6,1.1763
10761,16.087,5.2727,0.05,8.6866e-07,8.6806,6.6702e-07,5.0117,8.638e-13,3.2977e-06,-6.6703e-07,-5.0118,1.1879
10762,16.087,5,0,0.00017832,1781.9,6.2625e-05,45.422,5.6581e-05,0.0097528,-0.0001775,-1758.8,1.1887
10763,15.994,5.0909,0,0.00018032,1802,6.2969e-05,41.59,5.7435e-05,0.0071248,-0.00017958,-1780.8,1.1769
10764,16.087,5.0909,0.05,8.5913e-07,8.5854,6.5971e-07,4.9567,1.8186e-12,2.9535e-06,-6.5971e-07,-4.9568,1.1884
10765,16.087,4.8182,0,0.00017888,1787.6,6.3125e-05,49.205,5.6578e-05,0.012449,-0.00017799,-1762.5,1.1891
10766,15.994,4.9091,0,0.00018086,1807.4,6.3483e-05,45.629,5.7412e-05,0.010465,-0.00018005,-1784.1,1.1773
10767,16.087,4.9091,0.05,8.4797e-07,8.4738,6.5113e-07,4.8923,2.7062e-12,2.6288e-06,-6.5113e-07,-4.8924,1.1889
10768,16.087,4.6364,0,0.0001794,1792.7,6.3535e-05,52.095,5.6603e-05,0.013975,-0.00017845,-1766.1,1.1895
10769,15.994,4.7273,0,0.00018136,1812.4,6.3912e-05,48.822,5.7416e-05,0.012645,-0.00018048,-1787.5,1.1778
10770,16.087,4.7273,0.05,8.357e-07,8.3512,6.4171e-07,4.8216,1.8037e-12,1.7881e-06,-6.4172e-07,-4.8216,1.1893
10771,16.087,4.4545,0,0.00017985,1797.3,6.3856e-05,54.16,5.665e-05,0.014573,-0.00017887,-1769.6,1.1899
10772,15.994,4.5455,0,0.00018181,1816.8,6.4257e-05,51.211,5.7443e-05,0.013697,-0.00018088,-1790.7,1.1781
10773,16.087,4.5455,0.05,8.2277e-07,8.222,6.3178e-07,4.747,9.0258e-13,3.7738e-06,-6.3179e-07,-4.747,1.1897
10774,16.087,4.2727,0,0.00018024,1801.2,6.4096e-05,55.499,5.6712e-05,0.014584,-0.00017924,-1772.8,1.1902
10775,15.994,4.3636,0,0.0001822,1820.7,6.4523e-05,52.873,5.7488e-05,0.014055,-0.00018124,-1793.7,1.1785
10776,16.087,4.3636,0.05,8.096e-07,8.0905,6.2167e-07,4.671,3.3939e-15,1.9319e-06,-6.2168e-07,-4.6711,1.19
10777,16.087,4.0909,0,0.00018057,1804.5,6.4266e-05,56.238,5.6783e-05,0.014229,-0.00017955,-1775.7,1.1905
10778,15.994,4.1818,0,0.00018253,1824,6.4718e-05,53.913,5.7544e-05,0.013942,-0.00018155,-1796.4,1.1788
10779,16.087,4.1818,0.05,7.9665e-07,7.961,6.1173e-07,4.5963,3.6524e-12,2.0176e-06,-6.1173e-07,-4.5963,1.1903
10780,16.087,3.9091,0,0.00018084,1807.2,6.4377e-05,56.52,5.6857e-05,0.013691,-0.00017981,-1778.2,1.1907
10781,15.994,4,0,0.0001828,1826.7,6.4852e-05,54.453,5.7607e-05,0.013556,-0.00018181,-1798.9,1.179
10782,16.087,4,0.05,7.8436e-07,7.8382,6.0229e-07,4.5254,9.2932e-13,2.5332e-06,-6.023e-07,-4.5254,1.1906
10783,16.087,3.7273,0,0.00018105,1809.2,6.4444e-05,56.492,5.6927e-05,0.013107,-0.00018002,-1780.3,1.1909
10784,15.994,3.8182,0,0.00018301,1828.9,6.4938e-05,54.629,5.7669e-05,0.013048,-0.00018202,-1800.9,1.1793
10785,16.087,3.8182,0.05,7.732e-07,7.7267,5.9372e-07,4.461,2.7621e-12,4.0238e-06,-5.9372e-07,-4.461,1.1908
10786,16.087,3.5455,0,0.0001812,1810.8,6.4479e-05,56.297,5.6988e-05,0.01258,-0.00018018,-1782,1.191
10787,15.994,3.6364,0,0.00018318,1830.5,6.4988e-05,54.573,5.7726e-05,0.012533,-0.00018219,-1802.6,1.1794
10788,16.087,3.6364,0.05,7.6361e-07,7.6308,5.8635e-07,4.4056,1.8512e-12,5.5253e-06,-5.8636e-07,-4.4057,1.1909
10789,16.087,3.3636,0,0.00018131,1811.9,6.4495e-05,56.059,5.7036e-05,0.012172,-0.00018029,-1783.2,1.1911
10790,15.994,3.4545,0,0.0001833,1831.7,6.5014e-05,54.408,5.7774e-05,0.012093,-0.00018231,-1803.9,1.1796
10791,16.087,3.4545,0.05,7.5599e-07,7.5547,5.8051e-07,4.3617,2.759e-12,5.0001e-06,-5.8051e-07,-4.3617,1.1911
10792,16.087,3.1818,0,0.00018137,1812.5,6.45e-05,55.874,5.7065e-05,0.011917,-0.00018036,-1783.9,1.1912
10793,15.994,3.2727,0,0.00018337,1832.5,6.5025e-05,54.237,5.7808e-05,0.011778,-0.00018239,-1804.7,1.1796
10794,16.087,3.2727,0.05,7.507e-07,7.5018,5.7644e-07,4.3312,2.752e-12,4.9482e-06,-5.7645e-07,-4.3312,1.1912
10795,16.087,3,0,0.00018139,1812.7,6.4501e-05,55.806,5.7076e-05,0.011831,-0.00018038,-1784.1,1.1912
10796,15.994,3.0909,0,0.00018341,1832.8,6.5028e-05,54.132,5.7825e-05,0.011615,-0.00018243,-1805.2,1.1797
10797,16.087,3.0909,0.05,7.4799e-07,7.4747,5.7436e-07,4.3155,9.1832e-13,5.7879e-06,-5.7436e-07,-4.3156,1.1912
10798,16.087,2.8182,0,0.00018137,1812.5,6.45e-05,55.874,5.7065e-05,0.011917,-0.00018036,-1783.9,1.1912
10799,15.994,2.9091,0,0.00018341,1832.8,6.5028e-05,54.132,5.7825e-05,0.011614,-0.00018243,-1805.2,1.1797
10800,16.087,2.9091,0.05,7.4799e-07,7.4747,5.7436e-07,4.3155,8.9995e-13,7.5565e-06,-5.7436e-07,-4.3156,1.1912
10801,16.087,2.6364,0,0.00018131,1811.9,6.4495e-05,56.059,5.7036e-05,0.012173,-0.00018029,-1783.2,1.1911
10802,15.994,2.7273,0,0.00018337,1832.5,6.5025e-05,54.237,5.7808e-05,0.011778,-0.00018239,-1804.7,1.1796
10803,16.087,2.7273,0.05,7.507e-07,7.5018,5.7644e-07,4.3312,2.6985e-12,6.4511e-06,-5.7644e-07,-4.3312,1.1912
10804,16.087,2.4545,0,0.0001812,1810.8,6.4479e-05,56.297,5.6988e-05,0.01258,-0.00018018,-1782,1.191
10805,15.994,2.5455,0,0.0001833,1831.7,6.5014e-05,54.408,5.7774e-05,0.012094,-0.00018231,-1803.9,1.1796
10806,16.087,2.5455,0.05,7.5599e-07,7.5547,5.8051e-07,4.3617,1.7719e-12,6.3243e-06,-5.8051e-07,-4.3617,1.1911
10807,16.087,2.2727,0,0.00018105,1809.2,6.4444e-05,56.492,5.6927e-05,0.013107,-0.00018002,-1780.3,1.1909
10808,15.994,2.3636,0,0.00018318,1830.5,6.4988e-05,54.573,5.7726e-05,0.012533,-0.00018219,-1802.6,1.1794
10809,16.087,2.3636,0.05,7.6361e-07,7.6308,5.8635e-07,4.4056,2.6704e-12,5.779e-06,-5.8636e-07,-4.4057,1.1909
10810,16.087,2.0909,0,0.00018084,1807.2,6.4377e-05,56.52,5.6857e-05,0.01369,-0.00017981,-1778.2,1.1907
10811,15.994,2.1818,0,0.00018301,1828.9,6.4938e-05,54.629,5.7669e-05,0.013048,-0.00018202,-1800.9,1.1793
10812,16.087,2.1818,0.05,7.732e-07,7.7267,5.9372e-07,4.461,1.7631e-12,5.272e-06,-5.9372e-07,-4.461,1.1908
10813,16.087,1.9091,0,0.00018057,1804.5,6.4266e-05,56.238,5.6783e-05,0.014229,-0.00017955,-1775.7,1.1905
10814,15.994,2,0,0.0001828,1826.7,6.4852e-05,54.453,5.7607e-05,0.013556,-0.00018181,-1798.9,1.179
10815,16.087,2,0.05,7.8436e-07,7.8382,6.0229e-07,4.5254,2.6755e-12,4.3961e-06,-6.023e-07,-4.5254,1.1906
10816,16.087,1.7273,0,0.00018024,1801.2,6.4096e-05,55.499,5.6712e-05,0.014584,-0.00017924,-1772.8,1.1902
10817,15.994,1.8182,0,0.00018253,1824,6.4718e-05,53.913,5.7544e-05,0.013942,-0.00018155,-1796.4,1.1788
10818,16.087,1.8182,0.05,7.9665e-07,7.961,6.1173e-07,4.5963,3.6033e-12,5.4598e-06,-6.1173e-07,-4.5963,1.1903
10819,16.087,1.5455,0,0.00017985,1797.3,6.3856e-05,54.16,5.665e-05,0.014574,-0.00017887,-1769.6,1.1899
10820,15.994,1.6364,0,0.0001822,1820.7,6.4523e-05,52.873,5.7488e-05,0.014055,-0.00018124,-1793.7,1.1785
10821,16.087,1.6364,0.05,8.096e-07,8.0905,6.2167e-07,4.671,9.0072e-13,4.7021e-06,-6.2168e-07,-4.671,1.19
10822,16.087,1.3636,0,0.0001794,1792.7,6.3535e-05,52.095,5.6603e-05,0.013977,-0.00017845,-1766.1,1.1895
10823,15.994,1.4545,0,0.00018181,1816.8,6.4257e-05,51.211,5.7443e-05,0.013697,-0.00018088,-1790.7,1.1781
10824,16.087,1.4545,0.05,8.2277e-07,8.222,6.3178e-07,4.747,1.838e-12,5.4042e-06,-6.3179e-07,-4.747,1.1897
10825,16.087,1.1818,0,0.00017888,1787.6,6.3125e-05,49.204,5.6578e-05,0.012449,-0.00017799,-1762.5,1.1891
10826,15.994,1.2727,0,0.00018136,1812.4,6.3912e-05,48.821,5.7416e-05,0.012646,-0.00018048,-1787.5,1.1778
10827,16.087,1.2727,0.05,8.357e-07,8.3512,6.4171e-07,4.8216,1.8737e-12,6.5071e-06,-6.4172e-07,-4.8216,1.1893
10828,16.087,1,0,0.00017832,1781.9,6.2625e-05,45.422,5.6581e-05,0.0097538,-0.0001775,-1758.8,1.1887
10829,15.994,1.0909,0,0.00018086,1807.4,6.3483e-05,45.629,5.7412e-05,0.010465,-0.00018005,-1784.1,1.1773
10830,16.087,1.0909,0.05,8.4797e-07,8.4738,6.5113e-07,4.8923,1.8984e-12,5.8713e-06,-6.5113e-07,-4.8924,1.1889
10831,16.087,0.81818,0,0.00017771,1775.8,6.2034e-05,40.72,5.6615e-05,0.004529,-0.00017698,-1755.1,1.1882
10832,15.994,0.90909,0,0.00018032,1802,6.2969e-05,41.59,5.7435e-05,0.0071264,-0.00017958,-1780.8,1.1769
10833,16.087,0.90909,0.05,8.5913e-07,8.5854,6.5971e-07,4.9568,1.9346e-12,3.9887e-06,-6.5971e-07,-4.9568,1.1884
10834,16.087,0.63636,0,0.00017707,1769.5,6.1359e-05,35.121,5.6684e-05,-0.0013541,-0.00017645,-1751.7,1.1876
10835,15.994,0.72727,0,0.00017975,1796.2,6.2374e-05,36.703,5.7489e-05,4.7745e-05,-0.00017909,-1777.6,1.1763
10836,16.087,0.72727,0.05,8.6866e-07,8.6806,6.6703e-07,5.0117,1.0435e-12,5.8451e-06,-6.6703e-07,-5.0118,1.1879
10837,16.087,0.45455,0,0.00017643,1763,6.0615e-05,28.709,5.6791e-05,-0.026689,-0.00017592,-1748.5,1.1871
10838,15.994,0.54545,0,0.00017915,1790.3,6.1705e-05,31.014,5.7577e-05,-0.0047264,-0.00017861,-1774.6,1.1758
10839,16.087,0.54545,0.05,8.7396e-07,8.7336,6.7109e-07,5.0423,1.898e-12,5.9469e-06,-6.7109e-07,-5.0424,1.1874
10840,16.087,0.27273,0,0.00017588,1757.6,5.9887e-05,22.124,5.6938e-05,-0.038736,-0.00017549,-1746.4,1.1865
10841,15.994,0.36364,0,0.00017857,1784.4,6.0985e-05,24.647,5.7698e-05,-0.048672,-0.00017814,-1772,1.1752
10842,16.087,0.36364,0.05,8.4103e-07,8.4045,6.458e-07,4.8523,1.8428e-12,6.5263e-06,-6.4581e-07,-4.8523,1.1868
10843,15.994,0.18182,0,0.00017818,1780.6,6.0372e-05,18.841,5.7862e-05,-0.019444,-0.00017785,-1771.1,1.1746
10844,16.087,0.18182,0.05,2.7251e-07,2.7233,2.0926e-07,1.5723,5.0486e-13,4.5703e-06,-2.0926e-07,-1.5723,1.1861
10845,16.087,0.090909,0,0.00017484,1747.2,5.8687e-05,11.855,5.7109e-05,-0.0080208,-0.00017464,-1741.2,1.1858
10846,15.902,5.7273,0,0.00018085,1807.2,6.1454e-05,21.249,5.8621e-05,-0.034242,-0.00018048,-1796.5,1.1633
10847,15.809,5.8182,0,0.00018317,1830.4,6.1989e-05,18.483,5.9527e-05,-0.014948,-0.00018285,-1821.1,1.1515
10848,15.902,5.8182,0.05,2.3504e-07,2.3487,1.8048e-07,1.356,5.4582e-14,-1.0802e-05,-1.8048e-07,-1.3561,1.163
10849,15.902,5.9091,0,0.00017987,1797.5,6.0336e-05,11.708,5.8776e-05,-0.0080059,-0.00017967,-1791.6,1.1627
10850,15.902,5.5455,0,0.00018129,1811.6,6.207e-05,26.915,5.8485e-05,-0.024992,-0.00018081,-1798,1.164
10851,15.809,5.6364,0,0.00018345,1833.3,6.2489e-05,23.344,5.9376e-05,-0.044353,-0.00018305,-1821.5,1.1521
10852,15.902,5.6364,0.05,8.2565e-07,8.2508,6.34e-07,4.7636,1.7368e-12,3.303e-06,-6.34e-07,-4.7636,1.1636
10853,15.902,5.3636,0,0.00018183,1817,6.2717e-05,32.568,5.8382e-05,-0.0023485,-0.00018125,-1800.5,1.1645
10854,15.809,5.4545,0,0.00018394,1838.2,6.3113e-05,28.931,5.9262e-05,-0.0053799,-0.00018343,-1823.5,1.1527
10855,15.902,5.4545,0.05,8.6138e-07,8.6079,6.6143e-07,4.9698,2.647e-12,4.9734e-06,-6.6144e-07,-4.9698,1.1642
10856,15.902,5.1818,0,0.00018236,1822.3,6.3306e-05,37.549,5.8309e-05,0.0031738,-0.00018169,-1803.3,1.1651
10857,15.809,5.2727,0,0.00018444,1843.1,6.3696e-05,33.969,5.9175e-05,-0.0009286,-0.00018384,-1825.9,1.1533
10858,15.902,5.2727,0.05,8.5798e-07,8.5739,6.5882e-07,4.9501,8.4895e-13,2.5043e-06,-6.5882e-07,-4.9501,1.1648
10859,15.902,5,0,0.00018287,1827.4,6.3825e-05,41.776,5.8266e-05,0.0081404,-0.00018212,-1806.2,1.1656
10860,15.809,5.0909,0,0.00018492,1847.9,6.4218e-05,38.338,5.9116e-05,0.0056673,-0.00018424,-1828.5,1.1538
10861,15.902,5.0909,0.05,8.5059e-07,8.5001,6.5315e-07,4.9075,8.8412e-13,2.5445e-06,-6.5315e-07,-4.9075,1.1653
10862,15.902,4.8182,0,0.00018334,1832.2,6.4268e-05,45.227,5.825e-05,0.010836,-0.00018253,-1809.1,1.166
10863,15.809,4.9091,0,0.00018538,1852.5,6.467e-05,41.993,5.9083e-05,0.0089319,-0.00018462,-1831.1,1.1543
10864,15.902,4.9091,0.05,8.4184e-07,8.4126,6.4643e-07,4.857,1.7862e-12,1.2964e-06,-6.4643e-07,-4.8571,1.1658
10865,15.902,4.6364,0,0.00018377,1836.4,6.4632e-05,47.921,5.8256e-05,0.012463,-0.00018291,-1812,1.1664
10866,15.809,4.7273,0,0.00018579,1856.6,6.5051e-05,44.931,5.9073e-05,0.011142,-0.00018499,-1833.7,1.1547
10867,15.902,4.7273,0.05,8.322e-07,8.3163,6.3903e-07,4.8014,1.8e-12,-1.4491e-07,-6.3903e-07,-4.8014,1.1662
10868,15.902,4.4545,0,0.00018415,1840.2,6.4922e-05,49.909,5.8281e-05,0.013226,-0.00018325,-1814.8,1.1668
10869,15.809,4.5455,0,0.00018616,1860.3,6.536e-05,47.186,5.9082e-05,0.012318,-0.00018531,-1836.3,1.1551
10870,15.902,4.5455,0.05,8.2203e-07,8.2146,6.3121e-07,4.7427,8.9215e-13,2.7843e-06,-6.3122e-07,-4.7427,1.1666
10871,15.902,4.2727,0,0.00018447,1843.5,6.5142e-05,51.272,5.832e-05,0.013428,-0.00018355,-1817.3,1.1671
10872,15.809,4.3636,0,0.00018648,1863.6,6.5602e-05,48.817,5.9107e-05,0.012842,-0.00018561,-1838.7,1.1555
10873,15.902,4.3636,0.05,8.1167e-07,8.1111,6.2326e-07,4.6829,9.0373e-13,1.3964e-06,-6.2326e-07,-4.683,1.1669
10874,15.902,4.0909,0,0.00018475,1846.2,6.5302e-05,52.113,5.8368e-05,0.013265,-0.0001838,-1819.6,1.1674
10875,15.809,4.1818,0,0.00018676,1866.3,6.5783e-05,49.909,5.9142e-05,0.012912,-0.00018586,-1840.8,1.1558
10876,15.902,4.1818,0.05,8.015e-07,8.0094,6.1545e-07,4.6242,1.8231e-12,5.1103e-07,-6.1545e-07,-4.6243,1.1672
10877,15.902,3.9091,0,0.00018497,1848.4,6.5411e-05,52.547,5.8419e-05,0.012901,-0.00018402,-1821.6,1.1676
10878,15.809,4,0,0.00018698,1868.5,6.5912e-05,50.563,5.9184e-05,0.012702,-0.00018607,-1842.7,1.156
10879,15.902,4,0.05,7.9187e-07,7.9132,6.0806e-07,4.5687,2.7416e-12,1.9982e-06,-6.0806e-07,-4.5687,1.1675
10880,15.902,3.7273,0,0.00018514,1850.1,6.548e-05,52.694,5.8469e-05,0.01246,-0.00018419,-1823.2,1.1678
10881,15.809,3.8182,0,0.00018716,1870.3,6.5998e-05,50.886,5.9227e-05,0.012349,-0.00018624,-1844.4,1.1563
10882,15.902,3.8182,0.05,7.8315e-07,7.8261,6.0136e-07,4.5184,1.8391e-12,2.0525e-06,-6.0136e-07,-4.5184,1.1677
10883,15.902,3.5455,0,0.00018527,1851.4,6.552e-05,52.669,5.8512e-05,0.012036,-0.00018432,-1824.5,1.168
10884,15.809,3.6364,0,0.0001873,1871.7,6.6051e-05,50.986,5.9267e-05,0.011959,-0.00018638,-1845.7,1.1564
10885,15.902,3.6364,0.05,7.7567e-07,7.7514,5.9562e-07,4.4752,1.8405e-12,4.4509e-06,-5.9562e-07,-4.4753,1.1679
10886,15.902,3.3636,0,0.00018536,1852.3,6.5541e-05,52.571,5.8546e-05,0.011694,-0.00018441,-1825.4,1.1681
10887,15.809,3.4545,0,0.0001874,1872.7,6.6082e-05,50.963,5.93e-05,0.011607,-0.00018648,-1846.7,1.1566
10888,15.902,3.4545,0.05,7.6976e-07,7.6923,5.9108e-07,4.4411,9.311e-13,3.9717e-06,-5.9108e-07,-4.4412,1.168
10889,15.902,3.1818,0,0.00018541,1852.8,6.5551e-05,52.479,5.8568e-05,0.011475,-0.00018446,-1826,1.1682
10890,15.809,3.2727,0,0.00018746,1873.3,6.6097e-05,50.898,5.9325e-05,0.011345,-0.00018654,-1847.3,1.1566
10891,15.902,3.2727,0.05,7.6566e-07,7.6513,5.8793e-07,4.4175,1.8337e-12,3.9288e-06,-5.8793e-07,-4.4175,1.1681
10892,15.902,3,0,0.00018543,1853,6.5553e-05,52.443,5.8575e-05,0.011399,-0.00018448,-1826.2,1.1682
10893,15.809,3.0909,0,0.00018749,1873.6,6.6104e-05,50.85,5.9337e-05,0.011208,-0.00018657,-1847.7,1.1567
10894,15.902,3.0909,0.05,7.6356e-07,7.6303,5.8632e-07,4.4054,1.8246e-12,4.3342e-06,-5.8632e-07,-4.4054,1.1682
10895,15.902,2.8182,0,0.00018541,1852.8,6.5551e-05,52.479,5.8568e-05,0.011475,-0.00018446,-1826,1.1682
10896,15.809,2.9091,0,0.00018749,1873.6,6.6104e-05,50.85,5.9337e-05,0.011208,-0.00018657,-1847.7,1.1567
10897,15.902,2.9091,0.05,7.6356e-07,7.6303,5.8632e-07,4.4054,1.8128e-12,5.1991e-06,-5.8632e-07,-4.4054,1.1682
10898,15.902,2.6364,0,0.00018536,1852.3,6.5541e-05,52.571,5.8546e-05,0.011694,-0.00018441,-1825.4,1.1681
10899,15.809,2.7273,0,0.00018746,1873.3,6.6097e-05,50.898,5.9325e-05,0.011346,-0.00018654,-1847.3,1.1566
10900,15.902,2.7273,0.05,7.6566e-07,7.6513,5.8793e-07,4.4175,2.7096e-12,5.5827e-06,-5.8793e-07,-4.4175,1.1681
10901,15.902,2.4545,0,0.00018527,1851.4,6.552e-05,52.669,5.8512e-05,0.012036,-0.00018432,-1824.5,1.168
10902,15.809,2.5455,0,0.0001874,1872.7,6.6082e-05,50.963,5.93e-05,0.011606,-0.00018648,-1846.7,1.1566
10903,15.902,2.5455,0.05,7.6976e-07,7.6923,5.9108e-07,4.4411,1.7919e-12,4.5634e-06,-5.9108e-07,-4.4412,1.168
10904,15.902,2.2727,0,0.00018514,1850.1,6.548e-05,52.694,5.8469e-05,0.01246,-0.00018419,-1823.2,1.1678
10905,15.809,2.3636,0,0.0001873,1871.7,6.6051e-05,50.986,5.9267e-05,0.011959,-0.00018638,-1845.7,1.1564
10906,15.902,2.3636,0.05,7.7567e-07,7.7514,5.9562e-07,4.4752,2.6954e-12,4.9973e-06,-5.9562e-07,-4.4753,1.1679
10907,15.902,2.0909,0,0.00018497,1848.4,6.5411e-05,52.547,5.8419e-05,0.012901,-0.00018402,-1821.6,1.1676
10908,15.809,2.1818,0,0.00018716,1870.3,6.5998e-05,50.886,5.9227e-05,0.01235,-0.00018624,-1844.4,1.1563
10909,15.902,2.1818,0.05,7.8315e-07,7.8261,6.0136e-07,4.5184,2.6949e-12,4.0519e-06,-6.0136e-07,-4.5184,1.1677
10910,15.902,1.9091,0,0.00018475,1846.2,6.5302e-05,52.113,5.8368e-05,0.013266,-0.0001838,-1819.6,1.1674
10911,15.809,2,0,0.00018698,1868.5,6.5912e-05,50.563,5.9184e-05,0.012703,-0.00018607,-1842.7,1.156
10912,15.902,2,0.05,7.9187e-07,7.9132,6.0806e-07,4.5687,-2.3796e-14,4.1094e-06,-6.0806e-07,-4.5687,1.1675
10913,15.902,1.7273,0,0.00018447,1843.5,6.5142e-05,51.272,5.832e-05,0.013427,-0.00018355,-1817.3,1.1671
10914,15.809,1.8182,0,0.00018676,1866.3,6.5783e-05,49.909,5.9142e-05,0.012912,-0.00018586,-1840.8,1.1558
10915,15.902,1.8182,0.05,8.015e-07,8.0094,6.1545e-07,4.6242,3.6282e-12,5.1744e-06,-6.1545e-07,-4.6243,1.1672
10916,15.902,1.5455,0,0.00018415,1840.2,6.4922e-05,49.908,5.8281e-05,0.013225,-0.00018325,-1814.8,1.1668
10917,15.809,1.6364,0,0.00018648,1863.6,6.5602e-05,48.817,5.9107e-05,0.012843,-0.00018561,-1838.7,1.1555
10918,15.902,1.6364,0.05,8.1167e-07,8.1111,6.2326e-07,4.6829,9.1949e-13,3.8982e-06,-6.2326e-07,-4.683,1.1669
10919,15.902,1.3636,0,0.00018377,1836.4,6.4632e-05,47.92,5.8256e-05,0.012463,-0.00018291,-1812,1.1664
10920,15.809,1.4545,0,0.00018616,1860.3,6.536e-05,47.186,5.9082e-05,0.012317,-0.00018531,-1836.3,1.1551
10921,15.902,1.4545,0.05,8.2203e-07,8.2146,6.3121e-07,4.7427,9.4496e-13,5.0434e-06,-6.3122e-07,-4.7427,1.1666
10922,15.902,1.1818,0,0.00018334,1832.2,6.4268e-05,45.227,5.825e-05,0.010836,-0.00018253,-1809.1,1.166
10923,15.809,1.2727,0,0.00018579,1856.6,6.5051e-05,44.931,5.9073e-05,0.011143,-0.00018499,-1833.7,1.1547
10924,15.902,1.2727,0.05,8.322e-07,8.3163,6.3903e-07,4.8014,9.6078e-13,4.22e-06,-6.3903e-07,-4.8014,1.1662
10925,15.902,1,0,0.00018287,1827.4,6.3825e-05,41.776,5.8266e-05,0.0081408,-0.00018212,-1806.2,1.1656
10926,15.809,1.0909,0,0.00018538,1852.5,6.467e-05,41.993,5.9083e-05,0.008933,-0.00018462,-1831.1,1.1543
10927,15.902,1.0909,0.05,8.4184e-07,8.4126,6.4643e-07,4.857,2.7846e-12,4.8575e-06,-6.4643e-07,-4.8571,1.1658
10928,15.902,0.81818,0,0.00018236,1822.3,6.3306e-05,37.549,5.8309e-05,0.0031756,-0.00018169,-1803.3,1.1651
10929,15.809,0.90909,0,0.00018492,1847.9,6.4217e-05,38.338,5.9116e-05,0.0056688,-0.00018424,-1828.5,1.1538
10930,15.902,0.90909,0.05,8.5059e-07,8.5001,6.5315e-07,4.9075,9.9196e-13,2.9763e-06,-6.5315e-07,-4.9075,1.1653
10931,15.902,0.63636,0,0.00018183,1817,6.2717e-05,32.567,5.8382e-05,-0.0023478,-0.00018125,-1800.5,1.1645
10932,15.809,0.72727,0,0.00018444,1843.1,6.3696e-05,33.969,5.9175e-05,-0.00092643,-0.00018384,-1825.9,1.1533
10933,15.902,0.72727,0.05,8.5798e-07,8.5739,6.5882e-07,4.9501,2.7601e-12,4.0229e-06,-6.5882e-07,-4.9501,1.1648
10934,15.902,0.45455,0,0.00018129,1811.6,6.207e-05,26.915,5.8485e-05,-0.024993,-0.00018081,-1798,1.164
10935,15.809,0.54545,0,0.00018394,1838.2,6.3113e-05,28.931,5.9262e-05,-0.0053798,-0.00018343,-1823.5,1.1527
10936,15.902,0.54545,0.05,8.6138e-07,8.6079,6.6144e-07,4.9698,1.0178e-12,5.836e-06,-6.6144e-07,-4.9698,1.1642
10937,15.902,0.27273,0,0.00018085,1807.2,6.1454e-05,21.249,5.8621e-05,-0.034243,-0.00018048,-1796.5,1.1633
10938,15.809,0.36364,0,0.00018345,1833.3,6.2489e-05,23.344,5.9376e-05,-0.044353,-0.00018305,-1821.5,1.1521
10939,15.902,0.36364,0.05,8.2565e-07,8.2508,6.34e-07,4.7636,1.7648e-12,4.8114e-06,-6.34e-07,-4.7636,1.1636
10940,15.809,0.18182,0,0.00018317,1830.4,6.1989e-05,18.483,5.9527e-05,-0.014949,-0.00018285,-1821.1,1.1515
10941,15.902,0.18182,0.05,2.3504e-07,2.3488,1.8048e-07,1.356,-2.2172e-13,-5.5699e-06,-1.8048e-07,-1.3561,1.163
10942,15.902,0.090909,0,0.00017987,1797.5,6.0336e-05,11.707,5.8776e-05,-0.0080063,-0.00017967,-1791.6,1.1627
10943,15.717,5.7273,0,0.00018576,1856.3,6.3009e-05,20.464,6.0281e-05,-0.030345,-0.0001854,-1846,1.1403
10944,15.625,5.8182,0,0.0001881,1879.7,6.3588e-05,18.149,6.1171e-05,-0.011448,-0.00018778,-1870.6,1.1285
10945,15.717,5.8182,0.05,2.034e-07,2.0326,1.5618e-07,1.1735,-5.5853e-13,-5.6141e-06,-1.5618e-07,-1.1735,1.14
10946,15.717,5.9091,0,0.00018484,1847.1,6.1962e-05,11.565,6.0422e-05,-0.0079083,-0.00018464,-1841.3,1.1397
10947,15.717,5.5455,0,0.0001861,1859.8,6.3527e-05,25.323,6.0154e-05,-0.023385,-0.00018566,-1847,1.141
10948,15.625,5.6364,0,0.0001883,1881.7,6.399e-05,22.183,6.1033e-05,-0.040474,-0.00018791,-1870.5,1.1292
10949,15.717,5.6364,0.05,8.1378e-07,8.1322,6.2488e-07,4.6951,1.8e-12,4.1962e-06,-6.2488e-07,-4.6951,1.1406
10950,15.717,5.3636,0,0.00018655,1864.2,6.4089e-05,30.304,6.0055e-05,-0.0031288,-0.00018602,-1848.9,1.1416
10951,15.625,5.4545,0,0.0001887,1885.7,6.453e-05,27.081,6.0925e-05,-0.0058426,-0.00018823,-1872,1.1298
10952,15.717,5.4545,0.05,8.5186e-07,8.5127,6.5412e-07,4.9148,1.7873e-12,5.3472e-06,-6.5412e-07,-4.9148,1.1412
10953,15.717,5.1818,0,0.000187,1868.7,6.4604e-05,34.734,5.9981e-05,0.0020303,-0.00018638,-1851.1,1.1421
10954,15.625,5.2727,0,0.00018912,1889.9,6.5038e-05,31.541,6.084e-05,-0.001717,-0.00018856,-1873.9,1.1304
10955,15.717,5.2727,0.05,8.4996e-07,8.4937,6.5266e-07,4.9038,2.6793e-12,3.0426e-06,-6.5267e-07,-4.9039,1.1418
10956,15.717,5,0,0.00018743,1873,6.506e-05,38.532,5.9932e-05,0.0067314,-0.00018674,-1853.4,1.1426
10957,15.625,5.0909,0,0.00018952,1893.9,6.5495e-05,35.444,6.0778e-05,0.004417,-0.00018889,-1875.9,1.1309
10958,15.717,5.0909,0.05,8.4429e-07,8.4371,6.4831e-07,4.8711,2.6898e-12,3.1479e-06,-6.4832e-07,-4.8712,1.1423
10959,15.717,4.8182,0,0.00018782,1876.9,6.5451e-05,41.676,5.9906e-05,0.0093995,-0.00018708,-1855.7,1.1431
10960,15.625,4.9091,0,0.0001899,1897.7,6.5894e-05,38.747,6.0738e-05,0.0075856,-0.00018921,-1878,1.1314
10961,15.717,4.9091,0.05,8.3748e-07,8.369,6.4308e-07,4.8318,1.7959e-12,1.1777e-06,-6.4308e-07,-4.8318,1.1428
10962,15.717,4.6364,0,0.00018818,1880.5,6.5777e-05,44.178,5.9899e-05,0.011091,-0.00018739,-1858,1.1435
10963,15.625,4.7273,0,0.00019025,1901.1,6.6232e-05,41.444,6.0718e-05,0.0097997,-0.00018951,-1880.1,1.1318
10964,15.717,4.7273,0.05,8.2993e-07,8.2936,6.3728e-07,4.7883,1.7974e-12,1.2006e-06,-6.3729e-07,-4.7883,1.1433
10965,15.717,4.4545,0,0.00018849,1883.6,6.6038e-05,46.076,5.9908e-05,0.011984,-0.00018767,-1860.2,1.1438
10966,15.625,4.5455,0,0.00019055,1904.2,6.651e-05,43.56,6.0714e-05,0.011066,-0.00018978,-1882.1,1.1322
10967,15.717,4.5455,0.05,8.2196e-07,8.2139,6.3116e-07,4.7423,8.8184e-13,2.6727e-06,-6.3116e-07,-4.7423,1.1436
10968,15.717,4.2727,0,0.00018876,1886.3,6.6241e-05,47.437,5.9929e-05,0.012349,-0.00018791,-1862.2,1.1442
10969,15.625,4.3636,0,0.00019082,1906.9,6.673e-05,45.142,6.0724e-05,0.011726,-0.00019002,-1883.9,1.1326
10970,15.717,4.3636,0.05,8.1384e-07,8.1328,6.2492e-07,4.6954,2.7147e-12,1.3411e-06,-6.2493e-07,-4.6955,1.144
10971,15.717,4.0909,0,0.00018899,1888.6,6.6391e-05,48.343,5.9958e-05,0.012355,-0.00018812,-1864,1.1445
10972,15.625,4.1818,0,0.00019105,1909.2,6.6898e-05,46.256,6.0743e-05,0.011952,-0.00019022,-1885.6,1.1329
10973,15.717,4.1818,0.05,8.0587e-07,8.0531,6.1881e-07,4.6494,3.6338e-12,1.8721e-06,-6.1881e-07,-4.6495,1.1443
10974,15.717,3.9091,0,0.00018917,1890.4,6.6496e-05,48.885,5.9992e-05,0.012148,-0.0001883,-1865.5,1.1447
10975,15.625,4,0,0.00019124,1911.1,6.702e-05,46.984,6.0768e-05,0.011898,-0.0001904,-1887.1,1.1332
10976,15.717,4,0.05,7.9834e-07,7.9778,6.1302e-07,4.606,2.7318e-12,2.4102e-06,-6.1302e-07,-4.606,1.1446
10977,15.717,3.7273,0,0.00018932,1891.9,6.6566e-05,49.161,6.0025e-05,0.011842,-0.00018843,-1866.8,1.1449
10978,15.625,3.8182,0,0.00019139,1912.6,6.7105e-05,47.413,6.0796e-05,0.011688,-0.00019054,-1888.4,1.1334
10979,15.717,3.8182,0.05,7.9153e-07,7.9098,6.0779e-07,4.5667,9.1875e-13,2.4563e-06,-6.078e-07,-4.5668,1.1448
10980,15.717,3.5455,0,0.00018943,1892.9,6.661e-05,49.264,6.0055e-05,0.011524,-0.00018854,-1867.8,1.1451
10981,15.625,3.6364,0,0.0001915,1913.7,6.716e-05,47.629,6.0823e-05,0.011415,-0.00019065,-1889.4,1.1336
10982,15.717,3.6364,0.05,7.8571e-07,7.8516,6.0332e-07,4.5331,2.7405e-12,4.8607e-06,-6.0333e-07,-4.5332,1.145
10983,15.717,3.3636,0,0.0001895,1893.7,6.6635e-05,49.273,6.0079e-05,0.011255,-0.00018861,-1868.6,1.1452
10984,15.625,3.4545,0,0.00019158,1914.5,6.7194e-05,47.711,6.0846e-05,0.011152,-0.00019073,-1890.2,1.1337
10985,15.717,3.4545,0.05,7.8111e-07,7.8057,5.9979e-07,4.5066,9.2123e-13,5.3335e-06,-5.9979e-07,-4.5066,1.1451
10986,15.717,3.1818,0,0.00018954,1894.1,6.6648e-05,49.252,6.0094e-05,0.011077,-0.00018866,-1869,1.1452
10987,15.625,3.2727,0,0.00019164,1915.1,6.7213e-05,47.727,6.0862e-05,0.01095,-0.00019078,-1890.7,1.1338
10988,15.717,3.2727,0.05,7.7792e-07,7.7739,5.9735e-07,4.4882,2.7375e-12,4.3591e-06,-5.9735e-07,-4.4883,1.1452
10989,15.717,3,0,0.00018956,1894.2,6.6651e-05,49.24,6.0099e-05,0.011016,-0.00018867,-1869.1,1.1453
10990,15.625,3.0909,0,0.00019166,1915.3,6.7221e-05,47.722,6.0871e-05,0.010841,-0.00019081,-1891,1.1338
10991,15.717,3.0909,0.05,7.763e-07,7.7576,5.961e-07,4.4788,2.7318e-12,5.2704e-06,-5.961e-07,-4.4789,1.1452
10992,15.717,2.8182,0,0.00018954,1894.1,6.6648e-05,49.252,6.0094e-05,0.011078,-0.00018866,-1869,1.1452
10993,15.625,2.9091,0,0.00019166,1915.3,6.7221e-05,47.722,6.0871e-05,0.010841,-0.00019081,-1891,1.1338
10994,15.717,2.9091,0.05,7.763e-07,7.7576,5.961e-07,4.4788,2.7249e-12,7.1254e-06,-5.961e-07,-4.4789,1.1452
10995,15.717,2.6364,0,0.0001895,1893.7,6.6635e-05,49.273,6.0079e-05,0.011255,-0.00018861,-1868.6,1.1452
10996,15.625,2.7273,0,0.00019164,1915.1,6.7213e-05,47.727,6.0862e-05,0.01095,-0.00019078,-1890.7,1.1338
10997,15.717,2.7273,0.05,7.7792e-07,7.7739,5.9735e-07,4.4882,1.8083e-12,6.1184e-06,-5.9735e-07,-4.4883,1.1452
10998,15.717,2.4545,0,0.00018943,1892.9,6.661e-05,49.264,6.0055e-05,0.011523,-0.00018854,-1867.8,1.1451
10999,15.625,2.5455,0,0.00019158,1914.5,6.7194e-05,47.711,6.0846e-05,0.011151,-0.00019073,-1890.2,1.1337
11000,15.717,2.5455,0.05,7.8111e-07,7.8057,5.9979e-07,4.5066,2.7125e-12,5.128e-06,-5.9979e-07,-4.5066,1.1451
11001,15.717,2.2727,0,0.00018932,1891.9,6.6566e-05,49.161,6.0025e-05,0.011842,-0.00018843,-1866.8,1.1449
11002,15.625,2.3636,0,0.0001915,1913.7,6.716e-05,47.629,6.0823e-05,0.011415,-0.00019065,-1889.4,1.1336
11003,15.717,2.3636,0.05,7.8571e-07,7.8516,6.0332e-07,4.5331,8.9345e-13,5.598e-06,-6.0333e-07,-4.5332,1.145
11004,15.717,2.0909,0,0.00018917,1890.4,6.6496e-05,48.885,5.9992e-05,0.012148,-0.0001883,-1865.5,1.1447
11005,15.625,2.1818,0,0.00019139,1912.6,6.7105e-05,47.413,6.0796e-05,0.011688,-0.00019054,-1888.4,1.1334
11006,15.717,2.1818,0.05,7.9153e-07,7.9098,6.0779e-07,4.5667,2.7145e-12,5.6166e-06,-6.078e-07,-4.5668,1.1448
11007,15.717,1.9091,0,0.00018899,1888.6,6.6391e-05,48.343,5.9958e-05,0.012355,-0.00018812,-1864,1.1445
11008,15.625,2,0,0.00019124,1911.1,6.702e-05,46.984,6.0768e-05,0.011899,-0.0001904,-1887.1,1.1332
11009,15.717,2,0.05,7.9834e-07,7.9778,6.1302e-07,4.606,9.0378e-13,5.2046e-06,-6.1302e-07,-4.606,1.1446
11010,15.717,1.7273,0,0.00018876,1886.3,6.6241e-05,47.437,5.9929e-05,0.01235,-0.00018791,-1862.2,1.1442
11011,15.625,1.8182,0,0.00019105,1909.2,6.6898e-05,46.256,6.0743e-05,0.011952,-0.00019022,-1885.6,1.1329
11012,15.717,1.8182,0.05,8.0587e-07,8.0531,6.1881e-07,4.6494,7.1546e-15,5.2987e-06,-6.1881e-07,-4.6495,1.1443
11013,15.717,1.5455,0,0.00018849,1883.6,6.6038e-05,46.076,5.9908e-05,0.011986,-0.00018767,-1860.2,1.1438
11014,15.625,1.6364,0,0.00019082,1906.9,6.673e-05,45.142,6.0724e-05,0.011728,-0.00019002,-1883.9,1.1326
11015,15.717,1.6364,0.05,8.1384e-07,8.1327,6.2493e-07,4.6954,9.2994e-13,5.4219e-06,-6.2493e-07,-4.6955,1.144
11016,15.717,1.3636,0,0.00018818,1880.5,6.5777e-05,44.177,5.9899e-05,0.011092,-0.00018739,-1858,1.1435
11017,15.625,1.4545,0,0.00019055,1904.2,6.651e-05,43.56,6.0714e-05,0.011066,-0.00018978,-1882.1,1.1322
11018,15.717,1.4545,0.05,8.2196e-07,8.2139,6.3116e-07,4.7423,2.7649e-12,5.0683e-06,-6.3116e-07,-4.7423,1.1436
11019,15.717,1.1818,0,0.00018782,1876.9,6.5451e-05,41.676,5.9906e-05,0.0094017,-0.00018708,-1855.7,1.1431
11020,15.625,1.2727,0,0.00019025,1901.1,6.6232e-05,41.444,6.0718e-05,0.0098008,-0.00018951,-1880.1,1.1318
11021,15.717,1.2727,0.05,8.2993e-07,8.2936,6.3728e-07,4.7883,1.8742e-12,5.7026e-06,-6.3729e-07,-4.7883,1.1433
11022,15.717,1,0,0.00018743,1873,6.506e-05,38.532,5.9932e-05,0.0067336,-0.00018674,-1853.4,1.1426
11023,15.625,1.0909,0,0.0001899,1897.7,6.5894e-05,38.747,6.0738e-05,0.0075864,-0.00018921,-1878,1.1314
11024,15.717,1.0909,0.05,8.3748e-07,8.369,6.4308e-07,4.8318,9.7471e-13,4.6869e-06,-6.4308e-07,-4.8319,1.1428
11025,15.717,0.81818,0,0.000187,1868.7,6.4604e-05,34.734,5.9981e-05,0.0020322,-0.00018638,-1851.1,1.1421
11026,15.625,0.90909,0,0.00018952,1893.9,6.5495e-05,35.444,6.0778e-05,0.0044181,-0.00018889,-1875.9,1.1309
11027,15.717,0.90909,0.05,8.4429e-07,8.4371,6.4831e-07,4.8712,1.8967e-12,4.4512e-06,-6.4831e-07,-4.8712,1.1423
11028,15.717,0.63636,0,0.00018655,1864.2,6.4089e-05,30.303,6.0055e-05,-0.0031272,-0.00018602,-1848.9,1.1416
11029,15.625,0.72727,0,0.00018912,1889.9,6.5038e-05,31.541,6.084e-05,-0.0017155,-0.00018856,-1873.9,1.1304
11030,15.717,0.72727,0.05,8.4996e-07,8.4937,6.5266e-07,4.9039,9.6574e-13,4.9669e-06,-6.5267e-07,-4.9039,1.1418
11031,15.717,0.45455,0,0.0001861,1859.8,6.3527e-05,25.323,6.0154e-05,-0.023384,-0.00018566,-1847,1.141
11032,15.625,0.54545,0,0.0001887,1885.7,6.453e-05,27.081,6.0925e-05,-0.0058418,-0.00018823,-1872,1.1298
11033,15.717,0.54545,0.05,8.5186e-07,8.5127,6.5412e-07,4.9148,1.8824e-12,4.4019e-06,-6.5413e-07,-4.9148,1.1412
11034,15.717,0.27273,0,0.00018576,1856.3,6.3009e-05,20.464,6.0281e-05,-0.030346,-0.0001854,-1846,1.1403
11035,15.625,0.36364,0,0.0001883,1881.7,6.399e-05,22.183,6.1033e-05,-0.040474,-0.00018791,-1870.5,1.1292
11036,15.717,0.36364,0.05,8.1378e-07,8.1322,6.2488e-07,4.6951,7.9125e-14,4.2328e-06,-6.2488e-07,-4.6951,1.1406
11037,15.625,0.18182,0,0.0001881,1879.7,6.3588e-05,18.149,6.1171e-05,-0.011449,-0.00018778,-1870.6,1.1285
11038,15.717,0.18182,0.05,2.034e-07,2.0326,1.5618e-07,1.1735,2.6946e-13,-1.5586e-06,-1.5618e-07,-1.1735,1.14
11039,15.717,0.090909,0,0.00018484,1847.1,6.1962e-05,11.565,6.0422e-05,-0.0079081,-0.00018464,-1841.3,1.1397
11040,15.532,5.7273,0,0.00019062,1904.9,6.4555e-05,19.755,6.1922e-05,-0.02698,-0.00019028,-1895,1.1175
11041,15.44,5.8182,0,0.00019299,1928.5,6.5174e-05,17.834,6.2799e-05,-0.00874,-0.00019268,-1919.6,1.1057
11042,15.532,5.8182,0.05,1.7663e-07,1.765,1.3563e-07,1.019,-1.3857e-13,-1.5676e-05,-1.3563e-07,-1.0191,1.1171
11043,15.532,5.9091,0,0.00018975,1896.2,6.3571e-05,11.425,6.205e-05,-0.0077492,-0.00018955,-1890.4,1.1168
11044,15.532,5.5455,0,0.00019089,1907.6,6.4989e-05,23.905,6.1804e-05,-0.021869,-0.00019047,-1895.5,1.1181
11045,15.44,5.6364,0,0.00019311,1929.8,6.5491e-05,21.145,6.2672e-05,-0.036995,-0.00019274,-1919.1,1.1064
11046,15.532,5.6364,0.05,8.0476e-07,8.042,6.1795e-07,4.643,8.596e-13,4.0275e-06,-6.1795e-07,-4.6431,1.1178
11047,15.532,5.3636,0,0.00019126,1911.3,6.5476e-05,28.29,6.171e-05,-0.0037245,-0.00019077,-1897,1.1187
11048,15.44,5.4545,0,0.00019344,1933.1,6.5957e-05,25.434,6.2572e-05,-0.0061487,-0.000193,-1920.3,1.107
11049,15.532,5.4545,0.05,8.4481e-07,8.4422,6.4871e-07,4.8741,1.7914e-12,4.294e-06,-6.4871e-07,-4.8742,1.1184
11050,15.532,5.1818,0,0.00019163,1915,6.5925e-05,32.226,6.1637e-05,0.001078,-0.00019107,-1898.7,1.1192
11051,15.44,5.2727,0,0.00019379,1936.5,6.6399e-05,29.378,6.2489e-05,-0.0023433,-0.00019327,-1921.7,1.1076
11052,15.532,5.2727,0.05,8.441e-07,8.4352,6.4817e-07,4.8701,2.6774e-12,2.4586e-06,-6.4817e-07,-4.8701,1.119
11053,15.532,5,0,0.00019199,1918.6,6.6326e-05,35.635,6.1584e-05,0.0055166,-0.00019136,-1900.5,1.1198
11054,15.44,5.0909,0,0.00019412,1939.9,6.6799e-05,32.859,6.2426e-05,0.0033558,-0.00019354,-1923.3,1.1081
11055,15.532,5.0909,0.05,8.398e-07,8.3922,6.4486e-07,4.8452,2.685e-12,2.6365e-06,-6.4486e-07,-4.8452,1.1195
11056,15.532,4.8182,0,0.00019232,1921.9,6.6672e-05,38.494,6.155e-05,0.0081358,-0.00019164,-1902.3,1.1202
11057,15.44,4.9091,0,0.00019444,1943,6.7151e-05,35.838,6.2382e-05,0.0064152,-0.0001938,-1924.9,1.1086
11058,15.532,4.9091,0.05,8.3452e-07,8.3394,6.408e-07,4.8148,1.7767e-12,1.8556e-06,-6.4081e-07,-4.8148,1.12
11059,15.532,4.6364,0,0.00019262,1924.9,6.6963e-05,40.807,6.1533e-05,0.0098656,-0.00019189,-1904.1,1.1206
11060,15.44,4.7273,0,0.00019473,1945.9,6.7451e-05,38.306,6.2354e-05,0.0086129,-0.00019405,-1926.5,1.1091
11061,15.532,4.7273,0.05,8.2865e-07,8.2808,6.363e-07,4.7809,2.7041e-12,1.2531e-06,-6.363e-07,-4.7809,1.1204
11062,15.532,4.4545,0,0.00019288,1927.5,6.7199e-05,42.607,6.153e-05,0.010861,-0.00019212,-1905.8,1.121
11063,15.44,4.5455,0,0.00019499,1948.5,6.77e-05,40.28,6.2341e-05,0.0099466,-0.00019427,-1928.1,1.1095
11064,15.532,4.5455,0.05,8.2242e-07,8.2186,6.3152e-07,4.745,1.7938e-12,2.1132e-06,-6.3152e-07,-4.745,1.1208
11065,15.532,4.2727,0,0.00019311,1929.7,6.7384e-05,43.942,6.1538e-05,0.011358,-0.00019232,-1907.4,1.1214
11066,15.44,4.3636,0,0.00019521,1950.8,6.79e-05,41.796,6.2339e-05,0.010715,-0.00019447,-1929.5,1.1098
11067,15.532,4.3636,0.05,8.1608e-07,8.1552,6.2665e-07,4.7084,-2.2948e-14,7.9912e-07,-6.2665e-07,-4.7084,1.1212
11068,15.532,4.0909,0,0.0001933,1931.6,6.7525e-05,44.88,6.1553e-05,0.011509,-0.00019249,-1908.8,1.1217
11069,15.44,4.1818,0,0.0001954,1952.7,6.8055e-05,42.907,6.2346e-05,0.011071,-0.00019463,-1930.8,1.1102
11070,15.532,4.1818,0.05,8.0985e-07,8.0929,6.2186e-07,4.6724,1.8065e-12,1.3361e-06,-6.2187e-07,-4.6725,1.1215
11071,15.532,3.9091,0,0.00019345,1933.2,6.7626e-05,45.494,6.1573e-05,0.011442,-0.00019264,-1910,1.1219
11072,15.44,4,0,0.00019556,1954.2,6.8171e-05,43.677,6.2359e-05,0.011153,-0.00019478,-1932,1.1104
11073,15.532,4,0.05,8.0397e-07,8.0342,6.1735e-07,4.6385,9.0428e-13,1.8699e-06,-6.1735e-07,-4.6386,1.1218
11074,15.532,3.7273,0,0.00019357,1934.4,6.7696e-05,45.862,6.1594e-05,0.011261,-0.00019275,-1911,1.1221
11075,15.44,3.8182,0,0.00019568,1955.5,6.8253e-05,44.176,6.2375e-05,0.01107,-0.00019489,-1933,1.1107
11076,15.532,3.8182,0.05,7.9867e-07,7.9812,6.1328e-07,4.6079,9.1025e-13,2.867e-06,-6.1328e-07,-4.608,1.122
11077,15.532,3.5455,0,0.00019366,1935.3,6.7742e-05,46.058,6.1614e-05,0.011042,-0.00019283,-1911.8,1.1223
11078,15.44,3.6364,0,0.00019578,1956.4,6.8309e-05,44.474,6.2392e-05,0.010905,-0.00019498,-1933.8,1.1108
11079,15.532,3.6364,0.05,7.9414e-07,7.9359,6.098e-07,4.5818,2.7328e-12,4.8016e-06,-6.098e-07,-4.5818,1.1222
11080,15.532,3.3636,0,0.00019372,1935.9,6.777e-05,46.147,6.1629e-05,0.010847,-0.00019289,-1912.4,1.1224
11081,15.44,3.4545,0,0.00019585,1957.1,6.8345e-05,44.633,6.2406e-05,0.010727,-0.00019505,-1934.4,1.111
11082,15.532,3.4545,0.05,7.9056e-07,7.9002,6.0705e-07,4.5611,9.152e-13,3.8557e-06,-6.0706e-07,-4.5612,1.1223
11083,15.532,3.1818,0,0.00019376,1936.2,6.7784e-05,46.179,6.164e-05,0.010714,-0.00019293,-1912.7,1.1224
11084,15.44,3.2727,0,0.00019589,1957.5,6.8366e-05,44.708,6.2417e-05,0.010582,-0.00019509,-1934.8,1.1111
11085,15.532,3.2727,0.05,7.8809e-07,7.8755,6.0516e-07,4.5469,2.733e-12,3.8494e-06,-6.0516e-07,-4.5469,1.1224
11086,15.532,3,0,0.00019377,1936.3,6.7789e-05,46.185,6.1643e-05,0.010667,-0.00019294,-1912.8,1.1225
11087,15.44,3.0909,0,0.00019591,1957.8,6.8376e-05,44.735,6.2423e-05,0.010502,-0.00019511,-1935,1.1111
11088,15.532,3.0909,0.05,7.8683e-07,7.8629,6.0419e-07,4.5396,2.7303e-12,5.2585e-06,-6.0419e-07,-4.5396,1.1224
11089,15.532,2.8182,0,0.00019376,1936.2,6.7784e-05,46.179,6.164e-05,0.010714,-0.00019293,-1912.7,1.1224
11090,15.44,2.9091,0,0.00019591,1957.8,6.8376e-05,44.735,6.2423e-05,0.010502,-0.00019511,-1935,1.1111
11091,15.532,2.9091,0.05,7.8683e-07,7.8629,6.0419e-07,4.5396,2.7266e-12,5.7081e-06,-6.0419e-07,-4.5396,1.1224
11092,15.532,2.6364,0,0.00019372,1935.9,6.777e-05,46.147,6.1629e-05,0.010847,-0.00019289,-1912.4,1.1224
11093,15.44,2.7273,0,0.00019589,1957.5,6.8366e-05,44.708,6.2417e-05,0.010583,-0.00019509,-1934.8,1.1111
11094,15.532,2.7273,0.05,7.8809e-07,7.8755,6.0516e-07,4.5469,2.7232e-12,5.6826e-06,-6.0516e-07,-4.5469,1.1224
11095,15.532,2.4545,0,0.00019366,1935.3,6.7742e-05,46.058,6.1614e-05,0.011043,-0.00019283,-1911.8,1.1223
11096,15.44,2.5455,0,0.00019585,1957.1,6.8345e-05,44.633,6.2406e-05,0.010727,-0.00019505,-1934.4,1.111
11097,15.532,2.5455,0.05,7.9056e-07,7.9002,6.0705e-07,4.5611,9.027e-13,5.6706e-06,-6.0706e-07,-4.5612,1.1223
11098,15.532,2.2727,0,0.00019357,1934.4,6.7696e-05,45.862,6.1594e-05,0.011261,-0.00019275,-1911,1.1221
11099,15.44,2.3636,0,0.00019578,1956.4,6.8309e-05,44.474,6.2392e-05,0.010906,-0.00019498,-1933.8,1.1108
11100,15.532,2.3636,0.05,7.9414e-07,7.9359,6.098e-07,4.5818,2.7229e-12,5.678e-06,-6.098e-07,-4.5818,1.1222
11101,15.532,2.0909,0,0.00019345,1933.2,6.7626e-05,45.494,6.1573e-05,0.011443,-0.00019264,-1910,1.1219
11102,15.44,2.1818,0,0.00019568,1955.5,6.8253e-05,44.176,6.2375e-05,0.01107,-0.00019489,-1933,1.1107
11103,15.532,2.1818,0.05,7.9867e-07,7.9812,6.1328e-07,4.6079,2.7274e-12,4.7607e-06,-6.1328e-07,-4.608,1.122
11104,15.532,1.9091,0,0.0001933,1931.6,6.7525e-05,44.88,6.1553e-05,0.011509,-0.00019249,-1908.8,1.1217
11105,15.44,2,0,0.00019556,1954.2,6.8171e-05,43.677,6.2359e-05,0.011154,-0.00019478,-1932,1.1104
11106,15.532,2,0.05,8.0397e-07,8.0342,6.1735e-07,4.6385,1.8263e-12,5.3035e-06,-6.1735e-07,-4.6386,1.1218
11107,15.532,1.7273,0,0.00019311,1929.7,6.7384e-05,43.942,6.1538e-05,0.011358,-0.00019232,-1907.4,1.1214
11108,15.44,1.8182,0,0.0001954,1952.7,6.8055e-05,42.907,6.2346e-05,0.011071,-0.00019463,-1930.8,1.1102
11109,15.532,1.8182,0.05,8.0985e-07,8.0929,6.2187e-07,4.6724,1.8374e-12,5.393e-06,-6.2187e-07,-4.6725,1.1215
11110,15.532,1.5455,0,0.00019288,1927.5,6.7199e-05,42.606,6.153e-05,0.010861,-0.00019212,-1905.8,1.121
11111,15.44,1.6364,0,0.00019521,1950.8,6.79e-05,41.796,6.2339e-05,0.010715,-0.00019447,-1929.5,1.1098
11112,15.532,1.6364,0.05,8.1608e-07,8.1552,6.2665e-07,4.7084,2.7635e-12,5.0167e-06,-6.2665e-07,-4.7084,1.1212
11113,15.532,1.3636,0,0.00019262,1924.9,6.6963e-05,40.807,6.1533e-05,0.0098659,-0.00019189,-1904.1,1.1206
11114,15.44,1.4545,0,0.00019499,1948.5,6.77e-05,40.28,6.2341e-05,0.0099465,-0.00019427,-1928.1,1.1095
11115,15.532,1.4545,0.05,8.2242e-07,8.2186,6.3152e-07,4.745,3.678e-12,5.0727e-06,-6.3152e-07,-4.745,1.1208
11116,15.532,1.1818,0,0.00019232,1921.9,6.6672e-05,38.494,6.155e-05,0.0081355,-0.00019164,-1902.3,1.1202
11117,15.44,1.2727,0,0.00019473,1945.9,6.7451e-05,38.306,6.2354e-05,0.0086131,-0.00019405,-1926.5,1.1091
11118,15.532,1.2727,0.05,8.2865e-07,8.2808,6.363e-07,4.7809,2.7796e-12,5.1618e-06,-6.363e-07,-4.7809,1.1204
11119,15.532,1,0,0.00019199,1918.6,6.6326e-05,35.635,6.1584e-05,0.0055165,-0.00019136,-1900.5,1.1198
11120,15.44,1.0909,0,0.00019444,1943,6.7151e-05,35.838,6.2382e-05,0.0064152,-0.0001938,-1924.9,1.1086
11121,15.532,1.0909,0.05,8.3452e-07,8.3394,6.408e-07,4.8147,1.8674e-12,5.051e-06,-6.4081e-07,-4.8148,1.12
11122,15.532,0.81818,0,0.00019163,1915,6.5925e-05,32.226,6.1637e-05,0.0010787,-0.00019107,-1898.7,1.1192
11123,15.44,0.90909,0,0.00019412,1939.9,6.6799e-05,32.859,6.2426e-05,0.0033568,-0.00019354,-1923.3,1.1081
11124,15.532,0.90909,0.05,8.398e-07,8.3922,6.4486e-07,4.8452,2.7808e-12,4.2084e-06,-6.4486e-07,-4.8452,1.1195
11125,15.532,0.63636,0,0.00019126,1911.3,6.5476e-05,28.29,6.171e-05,-0.0037238,-0.00019077,-1897,1.1187
11126,15.44,0.72727,0,0.00019379,1936.5,6.6399e-05,29.378,6.2489e-05,-0.002342,-0.00019327,-1921.7,1.1076
11127,15.532,0.72727,0.05,8.441e-07,8.4352,6.4817e-07,4.87,9.7808e-13,3.6742e-06,-6.4817e-07,-4.8701,1.119
11128,15.532,0.45455,0,0.00019089,1907.6,6.4988e-05,23.905,6.1804e-05,-0.021869,-0.00019047,-1895.5,1.1181
11129,15.44,0.54545,0,0.00019344,1933.1,6.5957e-05,25.434,6.2572e-05,-0.0061479,-0.000193,-1920.3,1.107
11130,15.532,0.54545,0.05,8.4481e-07,8.4422,6.4871e-07,4.8741,1.8309e-12,1.9656e-06,-6.4871e-07,-4.8741,1.1184
11131,15.532,0.27273,0,0.00019062,1904.9,6.4555e-05,19.755,6.1922e-05,-0.026981,-0.00019028,-1895,1.1175
11132,15.44,0.36364,0,0.00019311,1929.8,6.5491e-05,21.145,6.2672e-05,-0.036996,-0.00019274,-1919.1,1.1064
11133,15.532,0.36364,0.05,8.0476e-07,8.042,6.1795e-07,4.643,1.8539e-12,2.601e-06,-6.1795e-07,-4.6431,1.1178
11134,15.44,0.18182,0,0.00019299,1928.5,6.5174e-05,17.834,6.2799e-05,-0.0087403,-0.00019268,-1919.6,1.1057
11135,15.532,0.18182,0.05,1.7663e-07,1.765,1.3563e-07,1.019,9.111e-13,1.2269e-06,-1.3563e-07,-1.0191,1.1171
11136,15.532,0.090909,0,0.00018975,1896.2,6.3571e-05,11.425,6.205e-05,-0.0077488,-0.00018955,-1890.4,1.1168
11137,15.347,5.7273,0,0.00019546,1953.2,6.6096e-05,19.111,6.3549e-05,-0.024078,-0.00019512,-1943.6,1.0947
11138,15.255,5.8182,0,0.00019784,1977.1,6.6751e-05,17.534,6.4417e-05,-0.0066536,-0.00019754,-1968.2,1.083
11139,15.347,5.8182,0.05,1.5392e-07,1.5381,1.1819e-07,0.88803,4.8524e-15,-1.8623e-05,-1.1819e-07,-0.88807,1.0943
11140,15.347,5.9091,0,0.00019463,1944.9,6.5169e-05,11.287,6.3666e-05,-0.0075432,-0.00019443,-1939.2,1.094
11141,15.347,5.5455,0,0.00019566,1955.2,6.6456e-05,22.638,6.344e-05,-0.020449,-0.00019526,-1943.8,1.0954
11142,15.255,5.6364,0,0.0001979,1977.6,6.6994e-05,20.21,6.43e-05,-0.033876,-0.00019755,-1967.5,1.0837
11143,15.347,5.6364,0.05,7.9803e-07,7.9748,6.1279e-07,4.6043,7.4589e-13,2.5501e-06,-6.1279e-07,-4.6043,1.095
11144,15.347,5.3636,0,0.00019596,1958.3,6.6877e-05,26.493,6.3351e-05,-0.0041722,-0.0001955,-1944.9,1.096
11145,15.255,5.4545,0,0.00019817,1980.3,6.7395e-05,23.96,6.4206e-05,-0.0063295,-0.00019775,-1968.3,1.0843
11146,15.347,5.4545,0.05,8.3975e-07,8.3917,6.4482e-07,4.8449,8.0635e-13,3.3545e-06,-6.4482e-07,-4.845,1.0956
11147,15.347,5.1818,0,0.00019627,1961.4,6.727e-05,29.984,6.3279e-05,0.00029271,-0.00019574,-1946.2,1.0965
11148,15.255,5.2727,0,0.00019846,1983.2,6.7779e-05,27.441,6.4127e-05,-0.0028298,-0.00019798,-1969.3,1.0849
11149,15.347,5.2727,0.05,8.3999e-07,8.3941,6.4501e-07,4.8463,2.6735e-12,1.4732e-06,-6.4501e-07,-4.8464,1.0962
11150,15.347,5,0,0.00019657,1964.3,6.7621e-05,33.038,6.3224e-05,0.0044756,-0.00019598,-1947.6,1.097
11151,15.255,5.0909,0,0.00019874,1986,6.8128e-05,30.54,6.4064e-05,0.0024632,-0.0001982,-1970.5,1.0855
11152,15.347,5.0909,0.05,8.3676e-07,8.3618,6.4253e-07,4.8277,8.7493e-13,1.399e-06,-6.4253e-07,-4.8277,1.0968
11153,15.347,4.8182,0,0.00019684,1967.1,6.7927e-05,35.628,6.3186e-05,0.0070315,-0.00019621,-1949,1.0975
11154,15.255,4.9091,0,0.000199,1988.6,6.8438e-05,33.219,6.4017e-05,0.0054055,-0.00019841,-1971.8,1.086
11155,15.347,4.9091,0.05,8.3271e-07,8.3213,6.3941e-07,4.8043,1.7896e-12,1.4407e-06,-6.3942e-07,-4.8043,1.0973
11156,15.347,4.6364,0,0.00019709,1969.6,6.8186e-05,37.758,6.3162e-05,0.0087814,-0.00019642,-1950.4,1.098
11157,15.255,4.7273,0,0.00019924,1991,6.8704e-05,35.469,6.3984e-05,0.0075726,-0.00019861,-1973,1.0864
11158,15.347,4.7273,0.05,8.2816e-07,8.2759,6.3592e-07,4.7781,8.7338e-13,-1.0397e-07,-6.3593e-07,-4.7781,1.0977
11159,15.347,4.4545,0,0.00019731,1971.7,6.8399e-05,39.45,6.315e-05,0.0098545,-0.00019661,-1951.7,1.0983
11160,15.255,4.5455,0,0.00019945,1993.1,6.8927e-05,37.298,6.3964e-05,0.0089521,-0.00019879,-1974.2,1.0869
11161,15.347,4.5455,0.05,8.2333e-07,8.2276,6.3221e-07,4.7502,2.7015e-12,1.6504e-06,-6.3221e-07,-4.7502,1.0981
11162,15.347,4.2727,0,0.0001975,1973.6,6.8568e-05,40.741,6.3147e-05,0.01046,-0.00019677,-1952.9,1.0987
11163,15.255,4.3636,0,0.00019964,1995,6.9108e-05,38.735,6.3954e-05,0.0098062,-0.00019895,-1975.4,1.0872
11164,15.347,4.3636,0.05,8.1839e-07,8.1783,6.2842e-07,4.7217,1.7912e-12,2.7467e-07,-6.2842e-07,-4.7217,1.0985
11165,15.347,4.0909,0,0.00019766,1975.2,6.8699e-05,41.685,6.3152e-05,0.010734,-0.00019692,-1954,1.099
11166,15.255,4.1818,0,0.0001998,1996.6,6.925e-05,39.822,6.3952e-05,0.010272,-0.00019909,-1976.4,1.0875
11167,15.347,4.1818,0.05,8.1354e-07,8.1298,6.247e-07,4.6937,1.7991e-12,-1.4032e-07,-6.247e-07,-4.6938,1.0988
11168,15.347,3.9091,0,0.00019779,1976.5,6.8795e-05,42.341,6.3162e-05,0.010791,-0.00019703,-1955,1.0992
11169,15.255,4,0,0.00019993,1997.9,6.9359e-05,40.607,6.3956e-05,0.010476,-0.00019921,-1977.3,1.0878
11170,15.347,4,0.05,8.0897e-07,8.0841,6.2119e-07,4.6673,1.8068e-12,3.8922e-07,-6.2119e-07,-4.6674,1.0991
11171,15.347,3.7273,0,0.00019789,1977.5,6.8864e-05,42.769,6.3173e-05,0.01072,-0.00019712,-1955.8,1.0994
11172,15.255,3.8182,0,0.00020003,1998.9,6.9438e-05,41.148,6.3963e-05,0.010498,-0.0001993,-1978.1,1.088
11173,15.347,3.8182,0.05,8.0484e-07,8.0428,6.1802e-07,4.6435,1.8127e-12,1.8546e-06,-6.1802e-07,-4.6436,1.0993
11174,15.347,3.5455,0,0.00019796,1978.2,6.891e-05,43.03,6.3185e-05,0.010594,-0.00019719,-1956.4,1.0996
11175,15.255,3.6364,0,0.00020011,1999.7,6.9494e-05,41.5,6.3972e-05,0.010431,-0.00019937,-1978.7,1.0882
11176,15.347,3.6364,0.05,8.0132e-07,8.0077,6.1531e-07,4.6232,1.8168e-12,3.7978e-06,-6.1532e-07,-4.6232,1.0995
11177,15.347,3.3636,0,0.00019801,1978.8,6.8939e-05,43.176,6.3195e-05,0.010466,-0.00019724,-1956.8,1.0997
11178,15.255,3.4545,0,0.00020017,2000.3,6.953e-05,41.712,6.398e-05,0.010331,-0.00019943,-1979.1,1.0884
11179,15.347,3.4545,0.05,7.9854e-07,7.9799,6.1318e-07,4.6072,2.7286e-12,2.8617e-06,-6.1319e-07,-4.6072,1.0996
11180,15.347,3.1818,0,0.00019804,1979.1,6.8955e-05,43.246,6.3201e-05,0.010374,-0.00019727,-1957.1,1.0998
11181,15.255,3.2727,0,0.00020021,2000.7,6.9552e-05,41.829,6.3986e-05,0.010238,-0.00019946,-1979.4,1.0885
11182,15.347,3.2727,0.05,7.9663e-07,7.9608,6.1171e-07,4.5961,8.9142e-16,2.3908e-06,-6.1171e-07,-4.5962,1.0997
11183,15.347,3,0,0.00019805,1979.2,6.896e-05,43.266,6.3203e-05,0.010341,-0.00019728,-1957.2,1.0998
11184,15.255,3.0909,0,0.00020023,2000.9,6.9562e-05,41.879,6.399e-05,0.010186,-0.00019948,-1979.6,1.0885
11185,15.347,3.0909,0.05,7.9565e-07,7.951,6.1096e-07,4.5905,9.0994e-13,3.818e-06,-6.1096e-07,-4.5905,1.0998
11186,15.347,2.8182,0,0.00019804,1979.1,6.8955e-05,43.246,6.3201e-05,0.010374,-0.00019727,-1957.1,1.0998
11187,15.255,2.9091,0,0.00020023,2000.9,6.9562e-05,41.879,6.399e-05,0.010185,-0.00019948,-1979.6,1.0885
11188,15.347,2.9091,0.05,7.9565e-07,7.951,6.1096e-07,4.5905,9.0903e-13,4.2881e-06,-6.1096e-07,-4.5905,1.0998
11189,15.347,2.6364,0,0.00019801,1978.8,6.8939e-05,43.176,6.3195e-05,0.010466,-0.00019724,-1956.8,1.0997
11190,15.255,2.7273,0,0.00020021,2000.7,6.9552e-05,41.829,6.3986e-05,0.010238,-0.00019946,-1979.4,1.0885
11191,15.347,2.7273,0.05,7.9663e-07,7.9608,6.1171e-07,4.5961,-9.9547e-16,4.7612e-06,-6.1171e-07,-4.5962,1.0997
11192,15.347,2.4545,0,0.00019796,1978.2,6.891e-05,43.03,6.3185e-05,0.010594,-0.00019719,-1956.4,1.0996
11193,15.255,2.5455,0,0.00020017,2000.3,6.953e-05,41.712,6.398e-05,0.010331,-0.00019943,-1979.1,1.0884
11194,15.347,2.5455,0.05,7.9854e-07,7.9799,6.1318e-07,4.6072,1.8189e-12,4.7675e-06,-6.1319e-07,-4.6072,1.0996
11195,15.347,2.2727,0,0.00019789,1977.5,6.8864e-05,42.769,6.3173e-05,0.010719,-0.00019712,-1955.8,1.0994
11196,15.255,2.3636,0,0.00020011,1999.7,6.9494e-05,41.5,6.3972e-05,0.010431,-0.00019937,-1978.7,1.0882
11197,15.347,2.3636,0.05,8.0132e-07,8.0077,6.1531e-07,4.6232,1.822e-12,3.8366e-06,-6.1531e-07,-4.6232,1.0995
11198,15.347,2.0909,0,0.00019779,1976.5,6.8795e-05,42.341,6.3162e-05,0.010791,-0.00019703,-1955,1.0992
11199,15.255,2.1818,0,0.00020003,1998.9,6.9438e-05,41.148,6.3963e-05,0.010497,-0.0001993,-1978.1,1.088
11200,15.347,2.1818,0.05,8.0484e-07,8.0428,6.1802e-07,4.6435,9.1811e-13,3.8803e-06,-6.1802e-07,-4.6436,1.0993
11201,15.347,1.9091,0,0.00019766,1975.2,6.8699e-05,41.685,6.3152e-05,0.010734,-0.00019692,-1954,1.099
11202,15.255,2,0,0.00019993,1997.9,6.9359e-05,40.607,6.3956e-05,0.010476,-0.00019921,-1977.3,1.0878
11203,15.347,2,0.05,8.0897e-07,8.0841,6.2118e-07,4.6673,1.8363e-12,2.978e-06,-6.2119e-07,-4.6674,1.0991
11204,15.347,1.7273,0,0.0001975,1973.6,6.8568e-05,40.741,6.3147e-05,0.01046,-0.00019677,-1952.9,1.0987
11205,15.255,1.8182,0,0.0001998,1996.6,6.925e-05,39.822,6.3952e-05,0.010272,-0.00019909,-1976.4,1.0875
11206,15.347,1.8182,0.05,8.1354e-07,8.1298,6.247e-07,4.6937,1.8466e-12,4.0098e-06,-6.247e-07,-4.6938,1.0988
11207,15.347,1.5455,0,0.00019731,1971.7,6.8399e-05,39.449,6.315e-05,0.0098545,-0.00019661,-1951.7,1.0983
11208,15.255,1.6364,0,0.00019964,1995,6.9108e-05,38.735,6.3954e-05,0.0098066,-0.00019895,-1975.4,1.0872
11209,15.347,1.6364,0.05,8.1839e-07,8.1783,6.2842e-07,4.7217,1.8529e-12,4.6538e-06,-6.2842e-07,-4.7217,1.0985
11210,15.347,1.3636,0,0.00019709,1969.6,6.8186e-05,37.758,6.3162e-05,0.0087812,-0.00019642,-1950.4,1.098
11211,15.255,1.4545,0,0.00019945,1993.1,6.8927e-05,37.298,6.3964e-05,0.0089519,-0.00019879,-1974.2,1.0869
11212,15.347,1.4545,0.05,8.2333e-07,8.2276,6.3221e-07,4.7502,2.7826e-12,4.2716e-06,-6.3221e-07,-4.7502,1.0981
11213,15.347,1.1818,0,0.00019684,1967.1,6.7927e-05,35.628,6.3186e-05,0.0070319,-0.00019621,-1949,1.0975
11214,15.255,1.2727,0,0.00019924,1991,6.8704e-05,35.468,6.3984e-05,0.0075732,-0.00019861,-1973,1.0864
11215,15.347,1.2727,0.05,8.2816e-07,8.2759,6.3592e-07,4.7781,1.8819e-12,4.0206e-06,-6.3593e-07,-4.7781,1.0977
11216,15.347,1,0,0.00019657,1964.3,6.7621e-05,33.038,6.3224e-05,0.0044768,-0.00019598,-1947.6,1.097
11217,15.255,1.0909,0,0.000199,1988.6,6.8438e-05,33.219,6.4017e-05,0.0054058,-0.00019841,-1971.8,1.086
11218,15.347,1.0909,0.05,8.3271e-07,8.3213,6.3941e-07,4.8043,2.7892e-12,4.4468e-06,-6.3941e-07,-4.8043,1.0973
11219,15.347,0.81818,0,0.00019627,1961.4,6.727e-05,29.984,6.3279e-05,0.00029431,-0.00019574,-1946.2,1.0965
11220,15.255,0.90909,0,0.00019873,1986,6.8128e-05,30.54,6.4064e-05,0.0024649,-0.0001982,-1970.5,1.0855
11221,15.347,0.90909,0.05,8.3676e-07,8.3618,6.4253e-07,4.8277,9.539e-13,3.8943e-06,-6.4253e-07,-4.8277,1.0968
11222,15.347,0.63636,0,0.00019596,1958.3,6.6877e-05,26.493,6.3351e-05,-0.0041723,-0.0001955,-1944.9,1.096
11223,15.255,0.72727,0,0.00019846,1983.2,6.7779e-05,27.441,6.4127e-05,-0.002829,-0.00019798,-1969.3,1.0849
11224,15.347,0.72727,0.05,8.3999e-07,8.3941,6.4501e-07,4.8463,1.8784e-12,1.6258e-06,-6.4501e-07,-4.8464,1.0962
11225,15.347,0.45455,0,0.00019566,1955.2,6.6456e-05,22.638,6.344e-05,-0.020449,-0.00019526,-1943.8,1.0954
11226,15.255,0.54545,0,0.00019817,1980.3,6.7395e-05,23.96,6.4206e-05,-0.0063289,-0.00019775,-1968.3,1.0843
11227,15.347,0.54545,0.05,8.3975e-07,8.3917,6.4482e-07,4.8449,9.5307e-13,-2.4745e-07,-6.4482e-07,-4.845,1.0956
11228,15.347,0.27273,0,0.00019546,1953.2,6.6096e-05,19.111,6.3549e-05,-0.024078,-0.00019512,-1943.6,1.0947
11229,15.255,0.36364,0,0.0001979,1977.6,6.6994e-05,20.21,6.43e-05,-0.033877,-0.00019755,-1967.5,1.0837
11230,15.347,0.36364,0.05,7.9803e-07,7.9748,6.1279e-07,4.6043,9.8124e-13,8.97e-07,-6.1279e-07,-4.6043,1.095
11231,15.255,0.18182,0,0.00019784,1977.1,6.6751e-05,17.534,6.4417e-05,-0.0066536,-0.00019754,-1968.2,1.083
11232,15.347,0.18182,0.05,1.5392e-07,1.5382,1.1819e-07,0.88804,-1.2013e-12,-1.5389e-05,-1.1819e-07,-0.88807,1.0943
11233,15.347,0.090909,0,0.00019463,1944.9,6.5169e-05,11.287,6.3666e-05,-0.0075426,-0.00019443,-1939.2,1.094
11234,15.162,5.7273,0,0.00020027,2001.3,6.7635e-05,18.521,6.5167e-05,-0.021573,-0.00019995,-1992,1.0721
11235,15.07,5.8182,0,0.00020268,2025.4,6.8322e-05,17.245,6.6026e-05,-0.0050529,-0.00020238,-2016.7,1.0605
11236,15.162,5.8182,0.05,1.3461e-07,1.3452,1.0337e-07,0.77665,-1.2786e-13,-4.0827e-06,-1.0337e-07,-0.77666,1.0717
11237,15.162,5.9091,0,0.00019948,1993.4,6.6758e-05,11.149,6.5273e-05,-0.0073019,-0.00019928,-1987.8,1.0714
11238,15.162,5.5455,0,0.00020041,2002.7,6.7929e-05,21.497,6.5066e-05,-0.019122,-0.00020004,-1991.9,1.0727
11239,15.07,5.6364,0,0.00020268,2025.4,6.85e-05,19.364,6.5919e-05,-0.031075,-0.00020234,-2015.6,1.0612
11240,15.162,5.6364,0.05,7.9318e-07,7.9263,6.0906e-07,4.5762,8.7363e-13,2.1797e-06,-6.0906e-07,-4.5763,1.0724
11241,15.162,5.3636,0,0.00020066,2005.2,6.8293e-05,24.879,6.4982e-05,-0.0044834,-0.00020023,-1992.7,1.0734
11242,15.07,5.4545,0,0.0002029,2027.6,6.8844e-05,22.633,6.5831e-05,-0.0064098,-0.0002025,-2016.2,1.0618
11243,15.162,5.4545,0.05,8.363e-07,8.3572,6.4218e-07,4.825,2.6824e-12,4.0094e-06,-6.4218e-07,-4.8251,1.073
11244,15.162,5.1818,0,0.00020092,2007.8,6.8635e-05,27.97,6.4912e-05,-0.00034521,-0.00020043,-1993.6,1.0739
11245,15.07,5.2727,0,0.00020313,2029.9,6.9176e-05,25.698,6.5756e-05,-0.0031959,-0.00020268,-2016.9,1.0624
11246,15.162,5.2727,0.05,8.3729e-07,8.3672,6.4294e-07,4.8308,8.3117e-13,1.7597e-06,-6.4294e-07,-4.8308,1.0736
11247,15.162,5,0,0.00020116,2010.2,6.8942e-05,30.697,6.4857e-05,0.0035925,-0.00020062,-1994.7,1.0745
11248,15.07,5.0909,0,0.00020336,2032.2,6.9481e-05,28.449,6.5694e-05,0.0017195,-0.00020286,-2017.8,1.063
11249,15.162,5.0909,0.05,8.3491e-07,8.3433,6.4111e-07,4.817,2.6839e-12,1.8937e-06,-6.4111e-07,-4.8171,1.0742
11250,15.162,4.8182,0,0.00020139,2012.5,6.9212e-05,33.037,6.4816e-05,0.0060757,-0.00020081,-1995.8,1.075
11251,15.07,4.9091,0,0.00020358,2034.3,6.9752e-05,30.85,6.5646e-05,0.004541,-0.00020303,-2018.7,1.0635
11252,15.162,4.9091,0.05,8.3182e-07,8.3125,6.3873e-07,4.7992,8.6488e-13,1.0693e-06,-6.3874e-07,-4.7992,1.0747
11253,15.162,4.6364,0,0.00020159,2014.6,6.9442e-05,34.987,6.4786e-05,0.0078274,-0.00020098,-1996.8,1.0754
11254,15.07,4.7273,0,0.00020377,2036.3,6.9987e-05,32.89,6.561e-05,0.0066663,-0.00020319,-2019.7,1.0639
11255,15.162,4.7273,0.05,8.2833e-07,8.2776,6.3605e-07,4.779,-3.0096e-14,-4.1385e-07,-6.3605e-07,-4.7791,1.0752
11256,15.162,4.4545,0,0.00020178,2016.4,6.9633e-05,36.563,6.4768e-05,0.0089785,-0.00020113,-1997.8,1.0758
11257,15.07,4.5455,0,0.00020395,2038.1,7.0185e-05,34.573,6.5585e-05,0.0080741,-0.00020334,-2020.6,1.0644
11258,15.162,4.5455,0.05,8.2459e-07,8.2403,6.3319e-07,4.7575,2.6826e-12,1.6491e-06,-6.3319e-07,-4.7575,1.0756
11259,15.162,4.2727,0,0.00020193,2018,6.9787e-05,37.795,6.4758e-05,0.0096537,-0.00020126,-1998.8,1.0761
11260,15.07,4.3636,0,0.00020411,2039.7,7.0349e-05,35.921,6.5569e-05,0.0089963,-0.00020347,-2021.5,1.0647
11261,15.162,4.3636,0.05,8.2077e-07,8.2021,6.3025e-07,4.7355,1.7872e-12,1.757e-07,-6.3025e-07,-4.7355,1.0759
11262,15.162,4.0909,0,0.00020207,2019.3,6.9908e-05,38.724,6.4755e-05,0.010031,-0.00020138,-1999.6,1.0764
11263,15.07,4.1818,0,0.00020424,2041,7.0479e-05,36.966,6.556e-05,0.0095516,-0.00020358,-2022.2,1.0651
11264,15.162,4.1818,0.05,8.1701e-07,8.1645,6.2736e-07,4.7138,1.7928e-12,7.4858e-07,-6.2737e-07,-4.7138,1.0763
11265,15.162,3.9091,0,0.00020217,2020.3,6.9999e-05,39.396,6.4757e-05,0.010192,-0.00020147,-2000.3,1.0767
11266,15.07,4,0,0.00020435,2042.1,7.058e-05,37.745,6.5557e-05,0.0098484,-0.00020368,-2022.9,1.0653
11267,15.162,4,0.05,8.1347e-07,8.129,6.2464e-07,4.6933,2.7087e-12,1.2667e-06,-6.2464e-07,-4.6933,1.0765
11268,15.162,3.7273,0,0.00020226,2021.2,7.0065e-05,39.859,6.4761e-05,0.010218,-0.00020155,-2000.9,1.0769
11269,15.07,3.8182,0,0.00020443,2042.9,7.0655e-05,38.305,6.5558e-05,0.0099709,-0.00020376,-2023.5,1.0656
11270,15.162,3.8182,0.05,8.1026e-07,8.097,6.2218e-07,4.6748,8.9656e-13,1.3209e-06,-6.2218e-07,-4.6749,1.0768
11271,15.162,3.5455,0,0.00020232,2021.8,7.0111e-05,40.162,6.4767e-05,0.010175,-0.00020161,-2001.4,1.0771
11272,15.07,3.6364,0,0.0002045,2043.6,7.0709e-05,38.687,6.5561e-05,0.0099899,-0.00020382,-2024,1.0658
11273,15.162,3.6364,0.05,8.0753e-07,8.0697,6.2008e-07,4.659,9.0108e-13,3.2784e-06,-6.2008e-07,-4.6591,1.077
11274,15.162,3.3636,0,0.00020236,2022.2,7.014e-05,40.346,6.4772e-05,0.010109,-0.00020165,-2001.7,1.0772
11275,15.07,3.4545,0,0.00020455,2044.1,7.0745e-05,38.934,6.5564e-05,0.0099579,-0.00020386,-2024.3,1.0659
11276,15.162,3.4545,0.05,8.0538e-07,8.0483,6.1843e-07,4.6466,1.8145e-12,2.8258e-06,-6.1843e-07,-4.6467,1.0771
11277,15.162,3.1818,0,0.00020239,2022.5,7.0157e-05,40.443,6.4775e-05,0.010056,-0.00020167,-2002,1.0772
11278,15.07,3.2727,0,0.00020458,2044.4,7.0767e-05,39.078,6.5568e-05,0.0099144,-0.00020389,-2024.6,1.066
11279,15.162,3.2727,0.05,8.039e-07,8.0334,6.1729e-07,4.6381,1.8168e-12,2.3681e-06,-6.173e-07,-4.6381,1.0772
11280,15.162,3,0,0.0002024,2022.6,7.0162e-05,40.472,6.4777e-05,0.010036,-0.00020168,-2002,1.0773
11281,15.07,3.0909,0,0.0002046,2044.5,7.0778e-05,39.144,6.5569e-05,0.0098858,-0.0002039,-2024.7,1.066
11282,15.162,3.0909,0.05,8.0314e-07,8.0259,6.1671e-07,4.6337,2.7279e-12,4.2869e-06,-6.1671e-07,-4.6338,1.0772
11283,15.162,2.8182,0,0.00020239,2022.5,7.0157e-05,40.443,6.4775e-05,0.010056,-0.00020167,-2002,1.0772
11284,15.07,2.9091,0,0.0002046,2044.5,7.0778e-05,39.144,6.5569e-05,0.009886,-0.0002039,-2024.7,1.066
11285,15.162,2.9091,0.05,8.0314e-07,8.0259,6.1671e-07,4.6337,2.7291e-12,4.7732e-06,-6.1671e-07,-4.6338,1.0772
11286,15.162,2.6364,0,0.00020236,2022.2,7.014e-05,40.346,6.4772e-05,0.010109,-0.00020165,-2001.7,1.0772
11287,15.07,2.7273,0,0.00020458,2044.4,7.0767e-05,39.078,6.5568e-05,0.0099141,-0.00020389,-2024.6,1.066
11288,15.162,2.7273,0.05,8.039e-07,8.0334,6.1729e-07,4.6381,1.8213e-12,4.7861e-06,-6.173e-07,-4.6381,1.0772
11289,15.162,2.4545,0,0.00020232,2021.8,7.0111e-05,40.162,6.4767e-05,0.010175,-0.00020161,-2001.4,1.0771
11290,15.07,2.5455,0,0.00020455,2044.1,7.0745e-05,38.934,6.5564e-05,0.0099579,-0.00020386,-2024.3,1.0659
11291,15.162,2.5455,0.05,8.0538e-07,8.0483,6.1843e-07,4.6466,9.1491e-13,4.3321e-06,-6.1843e-07,-4.6467,1.0771
11292,15.162,2.2727,0,0.00020226,2021.2,7.0065e-05,39.859,6.4761e-05,0.010219,-0.00020155,-2000.9,1.0769
11293,15.07,2.3636,0,0.0002045,2043.6,7.0709e-05,38.687,6.5561e-05,0.0099896,-0.00020382,-2024,1.0658
11294,15.162,2.3636,0.05,8.0753e-07,8.0697,6.2008e-07,4.659,9.1904e-13,3.8874e-06,-6.2008e-07,-4.6591,1.077
11295,15.162,2.0909,0,0.00020217,2020.3,6.9999e-05,39.396,6.4757e-05,0.010192,-0.00020147,-2000.3,1.0767
11296,15.07,2.1818,0,0.00020443,2042.9,7.0655e-05,38.305,6.5558e-05,0.0099713,-0.00020376,-2023.5,1.0656
11297,15.162,2.1818,0.05,8.1026e-07,8.097,6.2218e-07,4.6748,2.7448e-12,4.4144e-06,-6.2218e-07,-4.6749,1.0768
11298,15.162,1.9091,0,0.00020207,2019.3,6.9908e-05,38.724,6.4755e-05,0.010031,-0.00020138,-1999.6,1.0764
11299,15.07,2,0,0.00020435,2042.1,7.058e-05,37.745,6.5557e-05,0.0098484,-0.00020368,-2022.9,1.0653
11300,15.162,2,0.05,8.1347e-07,8.129,6.2464e-07,4.6933,1.843e-12,3.9961e-06,-6.2464e-07,-4.6933,1.0765
11301,15.162,1.7273,0,0.00020193,2018,6.9787e-05,37.795,6.4758e-05,0.0096537,-0.00020126,-1998.8,1.0761
11302,15.07,1.8182,0,0.00020424,2041,7.0479e-05,36.966,6.556e-05,0.0095515,-0.00020358,-2022.2,1.0651
11303,15.162,1.8182,0.05,8.1701e-07,8.1645,6.2736e-07,4.7138,1.8522e-12,4.5653e-06,-6.2737e-07,-4.7138,1.0763
11304,15.162,1.5455,0,0.00020178,2016.4,6.9633e-05,36.563,6.4768e-05,0.0089785,-0.00020113,-1997.8,1.0758
11305,15.07,1.6364,0,0.00020411,2039.7,7.0349e-05,35.921,6.5569e-05,0.0089967,-0.00020347,-2021.5,1.0647
11306,15.162,1.6364,0.05,8.2077e-07,8.2021,6.3025e-07,4.7355,1.8604e-12,4.6033e-06,-6.3025e-07,-4.7355,1.0759
11307,15.162,1.3636,0,0.00020159,2014.6,6.9442e-05,34.987,6.4786e-05,0.007828,-0.00020098,-1996.8,1.0754
11308,15.07,1.4545,0,0.00020395,2038.1,7.0185e-05,34.573,6.5585e-05,0.0080742,-0.00020334,-2020.6,1.0644
11309,15.162,1.4545,0.05,8.2459e-07,8.2403,6.3318e-07,4.7575,9.6297e-13,4.2664e-06,-6.3319e-07,-4.7575,1.0756
11310,15.162,1.1818,0,0.00020139,2012.5,6.9212e-05,33.037,6.4816e-05,0.0060761,-0.00020081,-1995.8,1.075
11311,15.07,1.2727,0,0.00020377,2036.3,6.9987e-05,32.89,6.561e-05,0.0066677,-0.00020319,-2019.7,1.0639
11312,15.162,1.2727,0.05,8.2833e-07,8.2776,6.3605e-07,4.779,2.7928e-12,4.4008e-06,-6.3606e-07,-4.7791,1.0752
11313,15.162,1,0,0.00020116,2010.2,6.8942e-05,30.697,6.4857e-05,0.0035933,-0.00020062,-1994.7,1.0745
11314,15.07,1.0909,0,0.00020358,2034.3,6.9752e-05,30.85,6.5646e-05,0.0045414,-0.00020303,-2018.7,1.0635
11315,15.162,1.0909,0.05,8.3182e-07,8.3125,6.3873e-07,4.7992,2.7946e-12,5.0357e-06,-6.3874e-07,-4.7992,1.0747
11316,15.162,0.81818,0,0.00020092,2007.8,6.8635e-05,27.97,6.4912e-05,-0.00034433,-0.00020043,-1993.6,1.0739
11317,15.07,0.90909,0,0.00020336,2032.2,6.9481e-05,28.449,6.5694e-05,0.0017211,-0.00020286,-2017.8,1.063
11318,15.162,0.90909,0.05,8.3491e-07,8.3433,6.4111e-07,4.817,1.9028e-12,4.2682e-06,-6.4111e-07,-4.8171,1.0742
11319,15.162,0.63636,0,0.00020066,2005.2,6.8293e-05,24.879,6.4982e-05,-0.0044833,-0.00020023,-1992.7,1.0734
11320,15.07,0.72727,0,0.00020313,2029.9,6.9176e-05,25.698,6.5756e-05,-0.0031952,-0.00020268,-2016.9,1.0624
11321,15.162,0.72727,0.05,8.3729e-07,8.3672,6.4294e-07,4.8308,9.1977e-13,2.0281e-06,-6.4294e-07,-4.8308,1.0736
11322,15.162,0.45455,0,0.00020041,2002.7,6.7929e-05,21.497,6.5066e-05,-0.019122,-0.00020004,-1991.9,1.0727
11323,15.07,0.54545,0,0.0002029,2027.6,6.8844e-05,22.633,6.5831e-05,-0.0064097,-0.0002025,-2016.2,1.0618
11324,15.162,0.54545,0.05,8.363e-07,8.3572,6.4217e-07,4.825,6.1122e-14,1.4826e-06,-6.4218e-07,-4.8251,1.073
11325,15.162,0.27273,0,0.00020027,2001.3,6.7635e-05,18.521,6.5167e-05,-0.021573,-0.00019995,-1992,1.0721
11326,15.07,0.36364,0,0.00020268,2025.4,6.85e-05,19.364,6.5919e-05,-0.031075,-0.00020234,-2015.6,1.0612
11327,15.162,0.36364,0.05,7.9318e-07,7.9263,6.0906e-07,4.5762,1.7903e-12,2.6395e-06,-6.0906e-07,-4.5763,1.0724
11328,15.07,0.18182,0,0.00020268,2025.4,6.8322e-05,17.245,6.6026e-05,-0.0050531,-0.00020238,-2016.7,1.0605
11329,15.162,0.18182,0.05,1.3461e-07,1.3452,1.0337e-07,0.77665,-5.5893e-13,-1.2242e-05,-1.0337e-07,-0.77668,1.0717
11330,15.162,0.090909,0,0.00019948,1993.4,6.6758e-05,11.149,6.5273e-05,-0.0073016,-0.00019928,-1987.8,1.0714
11331,14.977,5.7273,0,0.00020507,2049.3,6.9173e-05,17.976,6.6778e-05,-0.019405,-0.00020476,-2040.2,1.0496
11332,14.885,5.8182,0,0.00020749,2073.5,6.9889e-05,16.964,6.7631e-05,-0.00383,-0.0002072,-2065,1.0381
11333,14.977,5.8182,0.05,1.1815e-07,1.1807,9.0725e-08,0.68165,1.3292e-12,-2.117e-05,-9.0725e-08,-0.68169,1.0492
11334,14.977,5.9091,0,0.00020431,2041.7,6.8341e-05,11.011,6.6875e-05,-0.0070351,-0.00020412,-2036.1,1.0489
11335,14.977,5.5455,0,0.00020516,2050.2,6.941e-05,20.465,6.6684e-05,-0.017882,-0.0002048,-2039.9,1.0503
11336,14.885,5.6364,0,0.00020745,2073,7.001e-05,18.591,6.7532e-05,-0.028551,-0.00020713,-2063.7,1.0388
11337,14.977,5.6364,0.05,7.8983e-07,7.8929,6.0649e-07,4.5569,7.9308e-13,2.2266e-06,-6.0649e-07,-4.557,1.0499
11338,14.977,5.3636,0,0.00020536,2052.2,6.9723e-05,23.423,6.6605e-05,-0.0046929,-0.00020495,-2040.4,1.0509
11339,14.885,5.4545,0,0.00020762,2074.8,7.0304e-05,21.432,6.745e-05,-0.0064103,-0.00020725,-2064,1.0394
11340,14.977,5.4545,0.05,8.3416e-07,8.3358,6.4053e-07,4.8127,8.3844e-13,2.809e-06,-6.4053e-07,-4.8127,1.0506
11341,14.977,5.1818,0,0.00020557,2054.3,7.0019e-05,26.151,6.6538e-05,-0.000856,-0.00020511,-2041.1,1.0515
11342,14.885,5.2727,0,0.00020781,2076.7,7.059e-05,24.121,6.7379e-05,-0.0034616,-0.00020739,-2064.5,1.04
11343,14.977,5.2727,0.05,8.3574e-07,8.3516,6.4174e-07,4.8218,-7.5486e-14,5.5446e-07,-6.4175e-07,-4.8218,1.0512
11344,14.977,5,0,0.00020577,2056.3,7.0287e-05,28.577,6.6484e-05,0.0028477,-0.00020527,-2041.8,1.052
11345,14.885,5.0909,0,0.000208,2078.5,7.0854e-05,26.553,6.732e-05,0.0011058,-0.00020753,-2065.1,1.0406
11346,14.977,5.0909,0.05,8.3402e-07,8.3345,6.4042e-07,4.8119,2.6652e-12,4.8334e-07,-6.4043e-07,-4.8119,1.0517
11347,14.977,4.8182,0,0.00020596,2058.2,7.0524e-05,30.68,6.6441e-05,0.0052512,-0.00020542,-2042.6,1.0525
11348,14.885,4.9091,0,0.00020817,2080.3,7.109e-05,28.694,6.7271e-05,0.0038049,-0.00020767,-2065.8,1.0411
11349,14.977,4.9091,0.05,8.3169e-07,8.3112,6.3864e-07,4.7984,2.6794e-12,-3.4229e-07,-6.3864e-07,-4.7985,1.0523
11350,14.977,4.6364,0,0.00020613,2059.9,7.0727e-05,32.454,6.6409e-05,0.0069935,-0.00020556,-2043.4,1.053
11351,14.885,4.7273,0,0.00020834,2081.9,7.1297e-05,30.533,6.7234e-05,0.0058813,-0.0002078,-2066.5,1.0416
11352,14.977,4.7273,0.05,8.2903e-07,8.2846,6.3659e-07,4.7831,3.5953e-12,-1.2905e-06,-6.3659e-07,-4.7831,1.0527
11353,14.977,4.4545,0,0.00020628,2061.4,7.0898e-05,33.91,6.6386e-05,0.0081665,-0.00020568,-2044.2,1.0534
11354,14.885,4.5455,0,0.00020848,2083.4,7.1473e-05,32.07,6.7205e-05,0.0073037,-0.00020792,-2067.2,1.042
11355,14.977,4.5455,0.05,8.2617e-07,8.256,6.3439e-07,4.7666,2.6818e-12,9.3264e-07,-6.344e-07,-4.7666,1.0532
11356,14.977,4.2727,0,0.00020641,2062.7,7.1037e-05,35.071,6.6371e-05,0.0089316,-0.00020579,-2044.9,1.0537
11357,14.885,4.3636,0,0.00020861,2084.7,7.1619e-05,33.321,6.7185e-05,0.0082769,-0.00020802,-2067.8,1.0424
11358,14.977,4.3636,0.05,8.2323e-07,8.2266,6.3214e-07,4.7496,1.7862e-12,-5.2934e-07,-6.3214e-07,-4.7497,1.0535
11359,14.977,4.0909,0,0.00020652,2063.8,7.1148e-05,35.967,6.6362e-05,0.0093944,-0.00020588,-2045.5,1.054
11360,14.885,4.1818,0,0.00020872,2085.8,7.1737e-05,34.309,6.7172e-05,0.0089041,-0.00020811,-2068.4,1.0427
11361,14.977,4.1818,0.05,8.2033e-07,8.1976,6.2991e-07,4.7328,8.7708e-13,-1.2246e-06,-6.2991e-07,-4.7329,1.0539
11362,14.977,3.9091,0,0.00020661,2064.6,7.1233e-05,36.634,6.6358e-05,0.0096456,-0.00020596,-2046.1,1.0543
11363,14.885,4,0,0.00020881,2086.7,7.183e-05,35.066,6.7164e-05,0.0092836,-0.00020819,-2068.9,1.043
11364,14.977,4,0.05,8.1759e-07,8.1702,6.278e-07,4.7171,1.7936e-12,-6.7079e-07,-6.2781e-07,-4.7171,1.0541
11365,14.977,3.7273,0,0.00020668,2065.3,7.1296e-05,37.112,6.6358e-05,0.0097561,-0.00020602,-2046.5,1.0545
11366,14.885,3.8182,0,0.00020888,2087.4,7.19e-05,35.624,6.716e-05,0.0094875,-0.00020825,-2069.3,1.0432
11367,14.977,3.8182,0.05,8.1511e-07,8.1455,6.259e-07,4.7028,8.9148e-13,3.4271e-07,-6.2591e-07,-4.7028,1.0544
11368,14.977,3.5455,0,0.00020673,2065.9,7.134e-05,37.439,6.6358e-05,0.009784,-0.00020607,-2046.9,1.0547
11369,14.885,3.6364,0,0.00020894,2087.9,7.1951e-05,36.019,6.7158e-05,0.00958,-0.0002083,-2069.7,1.0434
11370,14.977,3.6364,0.05,8.13e-07,8.1244,6.2428e-07,4.6906,8.9641e-13,2.7717e-06,-6.2428e-07,-4.6907,1.0546
11371,14.977,3.3636,0,0.00020676,2066.2,7.1369e-05,37.645,6.636e-05,0.0097729,-0.0002061,-2047.1,1.0548
11372,14.885,3.4545,0,0.00020898,2088.3,7.1986e-05,36.284,6.7158e-05,0.0096079,-0.00020834,-2069.9,1.0436
11373,14.977,3.4545,0.05,8.1134e-07,8.1078,6.2301e-07,4.681,3.6301e-12,2.3217e-06,-6.2301e-07,-4.681,1.0547
11374,14.977,3.1818,0,0.00020679,2066.4,7.1385e-05,37.759,6.6361e-05,0.0097533,-0.00020612,-2047.3,1.0548
11375,14.885,3.2727,0,0.000209,2088.6,7.2008e-05,36.444,6.7159e-05,0.0096062,-0.00020836,-2070.1,1.0437
11376,14.977,3.2727,0.05,8.1019e-07,8.0963,6.2213e-07,4.6744,1.8145e-12,9.1888e-07,-6.2213e-07,-4.6745,1.0548
11377,14.977,3,0,0.00020679,2066.5,7.1391e-05,37.795,6.6362e-05,0.0097449,-0.00020612,-2047.3,1.0549
11378,14.885,3.0909,0,0.00020902,2088.7,7.2018e-05,36.519,6.7159e-05,0.009599,-0.00020837,-2070.2,1.0437
11379,14.977,3.0909,0.05,8.0961e-07,8.0905,6.2167e-07,4.671,1.8175e-12,2.8502e-06,-6.2168e-07,-4.6711,1.0548
11380,14.977,2.8182,0,0.00020679,2066.4,7.1385e-05,37.759,6.6361e-05,0.0097536,-0.00020612,-2047.3,1.0548
11381,14.885,2.9091,0,0.00020902,2088.7,7.2018e-05,36.519,6.7159e-05,0.0095999,-0.00020837,-2070.2,1.0437
11382,14.977,2.9091,0.05,8.0961e-07,8.0905,6.2167e-07,4.671,2.73e-12,3.8258e-06,-6.2168e-07,-4.6711,1.0548
11383,14.977,2.6364,0,0.00020676,2066.2,7.1369e-05,37.645,6.636e-05,0.0097726,-0.0002061,-2047.1,1.0548
11384,14.885,2.7273,0,0.000209,2088.6,7.2008e-05,36.444,6.7159e-05,0.0096064,-0.00020836,-2070.1,1.0437
11385,14.977,2.7273,0.05,8.1019e-07,8.0963,6.2213e-07,4.6744,1.8239e-12,2.8974e-06,-6.2213e-07,-4.6745,1.0548
11386,14.977,2.4545,0,0.00020673,2065.9,7.134e-05,37.439,6.6358e-05,0.0097837,-0.00020607,-2046.9,1.0547
11387,14.885,2.5455,0,0.00020898,2088.3,7.1986e-05,36.284,6.7158e-05,0.0096079,-0.00020834,-2069.9,1.0436
11388,14.977,2.5455,0.05,8.1134e-07,8.1078,6.2301e-07,4.681,3.6471e-12,2.9294e-06,-6.2301e-07,-4.681,1.0547
11389,14.977,2.2727,0,0.00020668,2065.3,7.1296e-05,37.112,6.6358e-05,0.0097561,-0.00020602,-2046.5,1.0545
11390,14.885,2.3636,0,0.00020894,2087.9,7.1951e-05,36.019,6.7158e-05,0.0095797,-0.0002083,-2069.7,1.0434
11391,14.977,2.3636,0.05,8.13e-07,8.1244,6.2428e-07,4.6906,2.7439e-12,3.9152e-06,-6.2428e-07,-4.6907,1.0546
11392,14.977,2.0909,0,0.00020661,2064.6,7.1233e-05,36.634,6.6358e-05,0.0096458,-0.00020596,-2046.1,1.0543
11393,14.885,2.1818,0,0.00020888,2087.4,7.19e-05,35.624,6.716e-05,0.009488,-0.00020825,-2069.3,1.0432
11394,14.977,2.1818,0.05,8.1511e-07,8.1455,6.259e-07,4.7028,1.8422e-12,3.0233e-06,-6.2591e-07,-4.7028,1.0544
11395,14.977,1.9091,0,0.00020652,2063.8,7.1148e-05,35.967,6.6362e-05,0.0093948,-0.00020588,-2045.5,1.054
11396,14.885,2,0,0.00020881,2086.7,7.183e-05,35.065,6.7164e-05,0.0092836,-0.00020819,-2068.9,1.043
11397,14.977,2,0.05,8.1759e-07,8.1702,6.278e-07,4.7171,1.8472e-12,3.0807e-06,-6.2781e-07,-4.7171,1.0541
11398,14.977,1.7273,0,0.00020641,2062.7,7.1037e-05,35.071,6.6371e-05,0.0089319,-0.00020579,-2044.9,1.0537
11399,14.885,1.8182,0,0.00020872,2085.8,7.1737e-05,34.309,6.7172e-05,0.0089044,-0.00020812,-2068.4,1.0427
11400,14.977,1.8182,0.05,8.2033e-07,8.1976,6.2991e-07,4.7329,2.7732e-12,3.3859e-06,-6.2991e-07,-4.7329,1.0539
11401,14.977,1.5455,0,0.00020628,2061.4,7.0898e-05,33.91,6.6386e-05,0.0081668,-0.00020568,-2044.2,1.0534
11402,14.885,1.6364,0,0.00020861,2084.7,7.1619e-05,33.321,6.7185e-05,0.0082771,-0.00020802,-2067.8,1.0424
11403,14.977,1.6364,0.05,8.2323e-07,8.2266,6.3213e-07,4.7496,2.7707e-12,3.6941e-06,-6.3214e-07,-4.7497,1.0535
11404,14.977,1.3636,0,0.00020613,2059.9,7.0727e-05,32.454,6.6409e-05,0.0069945,-0.00020556,-2043.4,1.053
11405,14.885,1.4545,0,0.00020848,2083.4,7.1473e-05,32.07,6.7205e-05,0.0073038,-0.00020792,-2067.2,1.042
11406,14.977,1.4545,0.05,8.2617e-07,8.256,6.3439e-07,4.7666,1.8724e-12,3.4897e-06,-6.344e-07,-4.7666,1.0532
11407,14.977,1.1818,0,0.00020596,2058.2,7.0524e-05,30.68,6.6441e-05,0.0052525,-0.00020542,-2042.6,1.0525
11408,14.885,1.2727,0,0.00020834,2081.9,7.1297e-05,30.533,6.7234e-05,0.0058826,-0.0002078,-2066.5,1.0416
11409,14.977,1.2727,0.05,8.2903e-07,8.2846,6.3659e-07,4.7831,9.7548e-13,3.5e-06,-6.3659e-07,-4.7831,1.0527
11410,14.977,1,0,0.00020577,2056.3,7.0287e-05,28.577,6.6484e-05,0.0028489,-0.00020527,-2041.8,1.052
11411,14.885,1.0909,0,0.00020817,2080.3,7.109e-05,28.694,6.7271e-05,0.0038057,-0.00020767,-2065.8,1.0411
11412,14.977,1.0909,0.05,8.3169e-07,8.3112,6.3864e-07,4.7984,3.7006e-12,3.2416e-06,-6.3864e-07,-4.7985,1.0523
11413,14.977,0.81818,0,0.00020557,2054.3,7.0019e-05,26.151,6.6538e-05,-0.00085465,-0.00020511,-2041.1,1.0515
11414,14.885,0.90909,0,0.000208,2078.5,7.0854e-05,26.553,6.732e-05,0.0011063,-0.00020753,-2065.1,1.0406
11415,14.977,0.90909,0.05,8.3402e-07,8.3345,6.4042e-07,4.8119,2.8012e-12,2.7133e-06,-6.4043e-07,-4.8119,1.0517
11416,14.977,0.63636,0,0.00020536,2052.2,6.9723e-05,23.423,6.6605e-05,-0.0046921,-0.00020495,-2040.4,1.0509
11417,14.885,0.72727,0,0.00020781,2076.7,7.059e-05,24.121,6.7379e-05,-0.0034599,-0.00020739,-2064.5,1.04
11418,14.977,0.72727,0.05,8.3574e-07,8.3516,6.4174e-07,4.8218,2.7602e-12,2.7229e-06,-6.4174e-07,-4.8219,1.0512
11419,14.977,0.45455,0,0.00020516,2050.2,6.941e-05,20.465,6.6684e-05,-0.017882,-0.0002048,-2039.9,1.0503
11420,14.885,0.54545,0,0.00020762,2074.8,7.0304e-05,21.432,6.745e-05,-0.0064097,-0.00020725,-2064,1.0394
11421,14.977,0.54545,0.05,8.3416e-07,8.3358,6.4053e-07,4.8127,2.752e-12,2.0152e-06,-6.4053e-07,-4.8127,1.0506
11422,14.977,0.27273,0,0.00020507,2049.2,6.9173e-05,17.976,6.6778e-05,-0.019405,-0.00020476,-2040.2,1.0496
11423,14.885,0.36364,0,0.00020745,2073,7.001e-05,18.591,6.7532e-05,-0.028552,-0.00020713,-2063.7,1.0388
11424,14.977,0.36364,0.05,7.8983e-07,7.8929,6.0649e-07,4.5569,1.7705e-12,2.864e-06,-6.0649e-07,-4.557,1.0499
11425,14.885,0.18182,0,0.00020749,2073.5,6.9889e-05,16.964,6.7631e-05,-0.0038305,-0.0002072,-2065,1.0381
11426,14.977,0.18182,0.05,1.1815e-07,1.1807,9.0726e-08,0.68166,-4.0305e-13,-1.3524e-05,-9.0725e-08,-0.68169,1.0492
11427,14.977,0.090909,0,0.00020431,2041.7,6.8341e-05,11.011,6.6875e-05,-0.0070351,-0.00020412,-2036.1,1.0489
11428,14.792,5.7273,0,0.00020986,2097.1,7.0712e-05,17.468,6.8385e-05,-0.01752,-0.00020956,-2088.4,1.0273
11429,14.7,5.8182,0,0.00021231,2121.6,7.1454e-05,16.688,6.9233e-05,-0.0029007,-0.00021202,-2113.2,1.0158
11430,14.792,5.8182,0.05,1.0407e-07,1.04,7.9915e-08,0.60044,-1.1538e-12,-1.0416e-05,-7.9914e-08,-0.60045,1.0269
11431,14.792,5.9091,0,0.00020913,2089.9,6.9921e-05,10.872,6.8474e-05,-0.0067508,-0.00020894,-2084.4,1.0265
11432,14.792,5.5455,0,0.00020991,2097.6,7.0899e-05,19.524,6.8298e-05,-0.016722,-0.00020957,-2087.8,1.0279
11433,14.7,5.6364,0,0.00021222,2120.7,7.1525e-05,17.88,6.9142e-05,-0.026269,-0.00021191,-2111.7,1.0165
11434,14.792,5.6364,0.05,7.8771e-07,7.8716,6.0486e-07,4.5446,1.6999e-12,2.9233e-06,-6.0486e-07,-4.5447,1.0276
11435,14.792,5.3636,0,0.00021007,2099.2,7.1166e-05,22.101,6.8224e-05,-0.0048166,-0.00020968,-2088.1,1.0286
11436,14.7,5.4545,0,0.00021235,2122.1,7.1773e-05,20.335,6.9066e-05,-0.0063479,-0.000212,-2111.8,1.0172
11437,14.792,5.4545,0.05,8.3307e-07,8.325,6.397e-07,4.8064,2.7022e-12,4.0223e-06,-6.397e-07,-4.8065,1.0282
11438,14.792,5.1818,0,0.00021024,2100.9,7.1421e-05,24.497,6.816e-05,-0.0012591,-0.00020981,-2088.5,1.0292
11439,14.7,5.2727,0,0.0002125,2123.6,7.2018e-05,22.684,6.8999e-05,-0.0036425,-0.00021211,-2112.1,1.0178
11440,14.792,5.2727,0.05,8.3512e-07,8.3454,6.4126e-07,4.8182,3.5888e-12,1.3492e-06,-6.4127e-07,-4.8182,1.0289
11441,14.792,5,0,0.0002104,2102.5,7.1653e-05,26.645,6.8107e-05,0.0022246,-0.00020993,-2089.1,1.0297
11442,14.7,5.0909,0,0.00021265,2125,7.2246e-05,24.823,6.8942e-05,0.00060245,-0.00021222,-2112.5,1.0184
11443,14.792,5.0909,0.05,8.3392e-07,8.3334,6.4035e-07,4.8113,2.6837e-12,9.952e-07,-6.4035e-07,-4.8113,1.0294
11444,14.792,4.8182,0,0.00021055,2104,7.186e-05,28.524,6.8064e-05,0.0045455,-0.00021005,-2089.6,1.0302
11445,14.7,4.9091,0,0.00021279,2126.5,7.245e-05,26.721,6.8894e-05,0.0031813,-0.00021233,-2113,1.0189
11446,14.792,4.9091,0.05,8.3219e-07,8.3161,6.3901e-07,4.8013,-4.8161e-14,1.2527e-07,-6.3902e-07,-4.8014,1.03
11447,14.792,4.6364,0,0.00021069,2105.4,7.2039e-05,30.127,6.803e-05,0.0062682,-0.00021016,-2090.2,1.0307
11448,14.7,4.7273,0,0.00021293,2127.8,7.2631e-05,28.367,6.8856e-05,0.0052036,-0.00021243,-2113.5,1.0194
11449,14.792,4.7273,0.05,8.3018e-07,8.2961,6.3747e-07,4.7897,2.678e-12,-8.5185e-07,-6.3748e-07,-4.7898,1.0304
11450,14.792,4.4545,0,0.00021081,2106.7,7.2191e-05,31.459,6.8005e-05,0.0074681,-0.00021026,-2090.8,1.0311
11451,14.7,4.5455,0,0.00021304,2129,7.2786e-05,29.758,6.8826e-05,0.0066285,-0.00021252,-2113.9,1.0198
11452,14.792,4.5455,0.05,8.28e-07,8.2743,6.358e-07,4.7772,8.6308e-13,1.072e-06,-6.3581e-07,-4.7772,1.0309
11453,14.792,4.2727,0,0.00021092,2107.7,7.2316e-05,32.538,6.7986e-05,0.0082881,-0.00021035,-2091.3,1.0314
11454,14.7,4.3636,0,0.00021315,2130,7.2915e-05,30.906,6.8803e-05,0.0076388,-0.00021261,-2114.4,1.0202
11455,14.792,4.3636,0.05,8.2576e-07,8.2519,6.3408e-07,4.7642,8.7543e-13,-5.3637e-07,-6.3408e-07,-4.7642,1.0313
11456,14.792,4.0909,0,0.00021101,2108.6,7.2416e-05,33.387,6.7973e-05,0.0088215,-0.00021042,-2091.7,1.0318
11457,14.7,4.1818,0,0.00021324,2130.9,7.3021e-05,31.827,6.8787e-05,0.0083243,-0.00021268,-2114.8,1.0205
11458,14.792,4.1818,0.05,8.2353e-07,8.2297,6.3237e-07,4.7514,2.6942e-12,-2.9929e-08,-6.3237e-07,-4.7514,1.0316
11459,14.792,3.9091,0,0.00021108,2109.4,7.2494e-05,34.035,6.7965e-05,0.0091468,-0.00021048,-2092.1,1.032
11460,14.7,4,0,0.00021331,2131.6,7.3105e-05,32.545,6.8775e-05,0.0087707,-0.00021274,-2115.2,1.0208
11461,14.792,4,0.05,8.2143e-07,8.2086,6.3075e-07,4.7392,2.7021e-12,2.6261e-07,-6.3076e-07,-4.7393,1.0319
11462,14.792,3.7273,0,0.00021114,2109.9,7.2552e-05,34.51,6.7961e-05,0.0093282,-0.00021053,-2092.5,1.0322
11463,14.7,3.8182,0,0.00021337,2132.2,7.317e-05,33.087,6.8768e-05,0.0090434,-0.00021279,-2115.5,1.0211
11464,14.792,3.8182,0.05,8.1953e-07,8.1896,6.2929e-07,4.7283,1.7969e-12,3.119e-07,-6.293e-07,-4.7283,1.0321
11465,14.792,3.5455,0,0.00021118,2110.4,7.2594e-05,34.844,6.7958e-05,0.009418,-0.00021057,-2092.7,1.0324
11466,14.7,3.6364,0,0.00021342,2132.7,7.3218e-05,33.481,6.8763e-05,0.0091978,-0.00021283,-2115.7,1.0213
11467,14.792,3.6364,0.05,8.179e-07,8.1734,6.2804e-07,4.7189,8.9483e-13,2.2695e-06,-6.2805e-07,-4.7189,1.0323
11468,14.792,3.3636,0,0.00021121,2110.7,7.2622e-05,35.062,6.7957e-05,0.0094538,-0.00021059,-2092.9,1.0325
11469,14.7,3.4545,0,0.00021345,2133,7.3251e-05,33.75,6.876e-05,0.0092773,-0.00021285,-2115.9,1.0214
11470,14.792,3.4545,0.05,8.1662e-07,8.1606,6.2706e-07,4.7115,3.6272e-12,2.7803e-06,-6.2707e-07,-4.7115,1.0325
11471,14.792,3.1818,0,0.00021123,2110.8,7.2638e-05,35.184,6.7957e-05,0.0094638,-0.00021061,-2093,1.0326
11472,14.7,3.2727,0,0.00021347,2133.2,7.3272e-05,33.917,6.8759e-05,0.0093124,-0.00021287,-2116.1,1.0215
11473,14.792,3.2727,0.05,8.1574e-07,8.1518,6.2639e-07,4.7064,9.0333e-13,2.338e-06,-6.2639e-07,-4.7064,1.0325
11474,14.792,3,0,0.00021124,2110.9,7.2643e-05,35.223,6.7957e-05,0.0094657,-0.00021061,-2093.1,1.0326
11475,14.7,3.0909,0,0.00021348,2133.3,7.3282e-05,33.997,6.8758e-05,0.0093243,-0.00021288,-2116.1,1.0215
11476,14.792,3.0909,0.05,8.1529e-07,8.1473,6.2604e-07,4.7038,2.7265e-12,2.8459e-06,-6.2604e-07,-4.7039,1.0326
11477,14.792,2.8182,0,0.00021123,2110.8,7.2638e-05,35.184,6.7957e-05,0.0094645,-0.00021061,-2093,1.0326
11478,14.7,2.9091,0,0.00021348,2133.3,7.3282e-05,33.997,6.8758e-05,0.0093243,-0.00021288,-2116.1,1.0215
11479,14.792,2.9091,0.05,8.1529e-07,8.1473,6.2604e-07,4.7038,3.64e-12,3.8301e-06,-6.2604e-07,-4.7039,1.0326
11480,14.792,2.6364,0,0.00021121,2110.7,7.2622e-05,35.062,6.7957e-05,0.0094543,-0.00021059,-2092.9,1.0325
11481,14.7,2.7273,0,0.00021347,2133.2,7.3272e-05,33.917,6.8759e-05,0.0093124,-0.00021287,-2116.1,1.0215
11482,14.792,2.7273,0.05,8.1574e-07,8.1518,6.2639e-07,4.7064,9.1603e-13,3.8635e-06,-6.2639e-07,-4.7064,1.0325
11483,14.792,2.4545,0,0.00021118,2110.4,7.2594e-05,34.844,6.7958e-05,0.0094181,-0.00021057,-2092.7,1.0324
11484,14.7,2.5455,0,0.00021345,2133,7.3251e-05,33.75,6.876e-05,0.0092779,-0.00021285,-2115.9,1.0214
11485,14.792,2.5455,0.05,8.1662e-07,8.1606,6.2706e-07,4.7115,3.6494e-12,3.4237e-06,-6.2707e-07,-4.7115,1.0325
11486,14.792,2.2727,0,0.00021114,2109.9,7.2552e-05,34.51,6.7961e-05,0.0093285,-0.00021053,-2092.5,1.0322
11487,14.7,2.3636,0,0.00021342,2132.7,7.3218e-05,33.481,6.8763e-05,0.0091981,-0.00021283,-2115.7,1.0213
11488,14.792,2.3636,0.05,8.179e-07,8.1734,6.2804e-07,4.7189,1.836e-12,3.4692e-06,-6.2805e-07,-4.7189,1.0323
11489,14.792,2.0909,0,0.00021108,2109.4,7.2494e-05,34.035,6.7965e-05,0.009147,-0.00021048,-2092.1,1.032
11490,14.7,2.1818,0,0.00021337,2132.2,7.317e-05,33.087,6.8768e-05,0.0090437,-0.00021279,-2115.5,1.0211
11491,14.792,2.1818,0.05,8.1953e-07,8.1896,6.2929e-07,4.7283,2.7505e-12,3.296e-06,-6.2929e-07,-4.7283,1.0321
11492,14.792,1.9091,0,0.00021101,2108.6,7.2416e-05,33.387,6.7973e-05,0.0088214,-0.00021042,-2091.7,1.0318
11493,14.7,2,0,0.00021331,2131.6,7.3105e-05,32.545,6.8775e-05,0.008771,-0.00021274,-2115.2,1.0208
11494,14.792,2,0.05,8.2143e-07,8.2086,6.3075e-07,4.7392,9.4403e-13,3.108e-06,-6.3076e-07,-4.7392,1.0319
11495,14.792,1.7273,0,0.00021092,2107.7,7.2316e-05,32.538,6.7986e-05,0.0082882,-0.00021035,-2091.3,1.0314
11496,14.7,1.8182,0,0.00021324,2130.9,7.3021e-05,31.827,6.8787e-05,0.0083245,-0.00021268,-2114.8,1.0205
11497,14.792,1.8182,0.05,8.2353e-07,8.2297,6.3237e-07,4.7514,9.5258e-13,4.1307e-06,-6.3237e-07,-4.7514,1.0316
11498,14.792,1.5455,0,0.00021081,2106.7,7.2191e-05,31.459,6.8005e-05,0.0074681,-0.00021026,-2090.8,1.0311
11499,14.7,1.6364,0,0.00021315,2130,7.2915e-05,30.906,6.8803e-05,0.0076392,-0.00021261,-2114.4,1.0202
11500,14.792,1.6364,0.05,8.2576e-07,8.2519,6.3408e-07,4.7642,2.7768e-12,3.6569e-06,-6.3408e-07,-4.7642,1.0313
11501,14.792,1.3636,0,0.00021069,2105.4,7.2039e-05,30.127,6.803e-05,0.0062686,-0.00021016,-2090.2,1.0307
11502,14.7,1.4545,0,0.00021304,2129,7.2786e-05,29.758,6.8826e-05,0.0066287,-0.00021252,-2113.9,1.0198
11503,14.792,1.4545,0.05,8.28e-07,8.2743,6.358e-07,4.7772,1.8656e-12,3.5134e-06,-6.3581e-07,-4.7772,1.0309
11504,14.792,1.1818,0,0.00021055,2104,7.186e-05,28.524,6.8064e-05,0.0045463,-0.00021005,-2089.6,1.0302
11505,14.7,1.2727,0,0.00021293,2127.8,7.2631e-05,28.367,6.8856e-05,0.0052045,-0.00021243,-2113.5,1.0194
11506,14.792,1.2727,0.05,8.3018e-07,8.2961,6.3747e-07,4.7897,9.7619e-13,4.0351e-06,-6.3748e-07,-4.7898,1.0304
11507,14.792,1,0,0.0002104,2102.5,7.1653e-05,26.645,6.8107e-05,0.0022247,-0.00020993,-2089.1,1.0297
11508,14.7,1.0909,0,0.00021279,2126.5,7.245e-05,26.721,6.8894e-05,0.0031821,-0.00021233,-2113,1.0189
11509,14.792,1.0909,0.05,8.3219e-07,8.3161,6.3902e-07,4.8013,2.7778e-12,4.0507e-06,-6.3902e-07,-4.8014,1.03
11510,14.792,0.81818,0,0.00021024,2100.9,7.1421e-05,24.497,6.816e-05,-0.0012583,-0.00020981,-2088.5,1.0292
11511,14.7,0.90909,0,0.00021265,2125,7.2246e-05,24.823,6.8942e-05,0.00060277,-0.00021222,-2112.5,1.0184
11512,14.792,0.90909,0.05,8.3392e-07,8.3334,6.4035e-07,4.8113,2.7691e-12,3.1758e-06,-6.4035e-07,-4.8113,1.0294
11513,14.792,0.63636,0,0.00021007,2099.2,7.1166e-05,22.101,6.8224e-05,-0.0048151,-0.00020968,-2088.1,1.0286
11514,14.7,0.72727,0,0.0002125,2123.6,7.2018e-05,22.684,6.8999e-05,-0.0036404,-0.00021211,-2112.1,1.0178
11515,14.792,0.72727,0.05,8.3512e-07,8.3454,6.4126e-07,4.8182,9.3466e-13,2.623e-06,-6.4127e-07,-4.8182,1.0289
11516,14.792,0.45455,0,0.00020991,2097.6,7.0899e-05,19.524,6.8298e-05,-0.016722,-0.00020957,-2087.8,1.0279
11517,14.7,0.54545,0,0.00021235,2122.1,7.1773e-05,20.335,6.9066e-05,-0.0063473,-0.000212,-2111.8,1.0172
11518,14.792,0.54545,0.05,8.3307e-07,8.325,6.3969e-07,4.8064,1.8398e-12,2.9608e-06,-6.397e-07,-4.8065,1.0282
11519,14.792,0.27273,0,0.00020986,2097.1,7.0712e-05,17.468,6.8385e-05,-0.017521,-0.00020956,-2088.4,1.0273
11520,14.7,0.36364,0,0.00021222,2120.7,7.1525e-05,17.88,6.9142e-05,-0.026269,-0.00021191,-2111.7,1.0165
11521,14.792,0.36364,0.05,7.8771e-07,7.8716,6.0486e-07,4.5446,9.0772e-13,2.0823e-06,-6.0486e-07,-4.5447,1.0276
11522,14.7,0.18182,0,0.00021231,2121.6,7.1454e-05,16.688,6.9233e-05,-0.0029012,-0.00021202,-2113.2,1.0158
11523,14.792,0.18182,0.05,1.0407e-07,1.04,7.9916e-08,0.60044,-6.1589e-13,-1.0825e-05,-7.9914e-08,-0.60046,1.0269
11524,14.792,0.090909,0,0.00020913,2089.9,6.9921e-05,10.872,6.8474e-05,-0.006751,-0.00020894,-2084.4,1.0265
11525,14.608,5.7273,0,0.00021465,2145,7.2253e-05,16.99,6.999e-05,-0.015875,-0.00021436,-2136.5,1.0051
11526,14.515,5.8182,0,0.00021712,2169.7,7.3019e-05,16.416,7.0834e-05,-0.0022002,-0.00021683,-2161.4,0.99364
11527,14.608,5.8182,0.05,9.1998e-08,0.91935,7.0643e-08,0.53077,-5.5045e-13,-2.4596e-05,-7.0644e-08,-0.5308,1.0047
11528,14.608,5.9091,0,0.00021395,2138,7.15e-05,10.73,7.0071e-05,-0.0064544,-0.00021377,-2132.6,1.0043
11529,14.608,5.5455,0,0.00021466,2145.1,7.2395e-05,18.658,6.991e-05,-0.015635,-0.00021434,-2135.7,1.0058
11530,14.515,5.6364,0,0.00021699,2168.4,7.3046e-05,17.22,7.0751e-05,-0.024194,-0.00021669,-2159.8,0.99437
11531,14.608,5.6364,0.05,7.8658e-07,7.8603,6.0399e-07,4.5381,8.966e-13,2.4498e-06,-6.0399e-07,-4.5382,1.0054
11532,14.608,5.3636,0,0.00021478,2146.3,7.2622e-05,20.89,6.9841e-05,-0.004869,-0.00021442,-2135.8,1.0064
11533,14.515,5.4545,0,0.00021709,2169.4,7.3253e-05,19.327,7.068e-05,-0.0062363,-0.00021676,-2159.7,0.99505
11534,14.608,5.4545,0.05,8.3284e-07,8.3226,6.3951e-07,4.805,8.667e-13,3.8374e-06,-6.3951e-07,-4.8051,1.0061
11535,14.608,5.1818,0,0.00021492,2147.7,7.2839e-05,22.984,6.978e-05,-0.001571,-0.00021451,-2136.1,1.007
11536,14.515,5.2727,0,0.00021721,2170.6,7.3461e-05,21.365,7.0617e-05,-0.0037533,-0.00021684,-2159.8,0.99568
11537,14.608,5.2727,0.05,8.3525e-07,8.3467,6.4136e-07,4.8189,1.7509e-12,1.5317e-06,-6.4137e-07,-4.819,1.0067
11538,14.608,5,0,0.00021504,2149,7.3039e-05,24.874,6.9729e-05,0.0017042,-0.00021461,-2136.4,1.0076
11539,14.515,5.0909,0,0.00021732,2171.7,7.3655e-05,23.233,7.0563e-05,0.00019333,-0.00021692,-2160,0.99627
11540,14.608,5.0909,0.05,8.3446e-07,8.3388,6.4076e-07,4.8144,1.7651e-12,8.5462e-07,-6.4076e-07,-4.8144,1.0073
11541,14.608,4.8182,0,0.00021517,2150.2,7.3218e-05,26.54,6.9686e-05,0.0039412,-0.0002147,-2136.8,1.0081
11542,14.515,4.9091,0,0.00021744,2172.9,7.3831e-05,24.903,7.0517e-05,0.0026544,-0.000217,-2160.3,0.99681
11543,14.608,4.9091,0.05,8.3319e-07,8.3262,6.3979e-07,4.8071,8.4754e-13,7.1011e-07,-6.3979e-07,-4.8072,1.0078
11544,14.608,4.6364,0,0.00021528,2151.3,7.3374e-05,27.975,6.9652e-05,0.0056367,-0.00021479,-2137.2,1.0085
11545,14.515,4.7273,0,0.00021754,2173.9,7.3987e-05,26.363,7.0479e-05,0.0046179,-0.00021708,-2160.6,0.9973
11546,14.608,4.7273,0.05,8.317e-07,8.3113,6.3864e-07,4.7985,1.7641e-12,1.4602e-07,-6.3865e-07,-4.7985,1.0083
11547,14.608,4.4545,0,0.00021538,2152.3,7.3508e-05,29.182,6.9625e-05,0.0068521,-0.00021487,-2137.5,1.009
11548,14.515,4.5455,0,0.00021763,2174.8,7.4122e-05,27.609,7.0448e-05,0.0060377,-0.00021715,-2160.9,0.99774
11549,14.608,4.5455,0.05,8.3007e-07,8.2949,6.3739e-07,4.7891,8.5429e-13,1.1886e-06,-6.3739e-07,-4.7891,1.0087
11550,14.608,4.2727,0,0.00021546,2153.1,7.3618e-05,30.172,6.9604e-05,0.0077142,-0.00021493,-2137.9,1.0093
11551,14.515,4.3636,0,0.00021772,2175.7,7.4236e-05,28.649,7.0424e-05,0.0070732,-0.00021722,-2161.2,0.99813
11552,14.608,4.3636,0.05,8.2837e-07,8.2779,6.3608e-07,4.7793,3.592e-12,-6.5147e-07,-6.3608e-07,-4.7793,1.0091
11553,14.608,4.0909,0,0.00021554,2153.9,7.3708e-05,30.963,6.9588e-05,0.0083034,-0.00021499,-2138.2,1.0096
11554,14.515,4.1818,0,0.00021779,2176.4,7.4329e-05,29.494,7.0405e-05,0.0078041,-0.00021727,-2161.5,0.99848
11555,14.608,4.1818,0.05,8.2668e-07,8.2611,6.3478e-07,4.7695,8.6603e-13,1.3631e-07,-6.3478e-07,-4.7696,1.0095
11556,14.608,3.9091,0,0.0002156,2154.5,7.3779e-05,31.577,6.9577e-05,0.0086909,-0.00021504,-2138.5,1.0099
11557,14.515,4,0,0.00021785,2177,7.4405e-05,30.164,7.0391e-05,0.0083046,-0.00021732,-2161.7,0.99877
11558,14.608,4,0.05,8.2507e-07,8.245,6.3355e-07,4.7603,1.7866e-12,-6.7298e-11,-6.3356e-07,-4.7603,1.0098
11559,14.608,3.7273,0,0.00021564,2154.9,7.3833e-05,32.037,6.957e-05,0.0089324,-0.00021508,-2138.7,1.0101
11560,14.515,3.8182,0,0.0002179,2177.4,7.4463e-05,30.677,7.0381e-05,0.0086346,-0.00021736,-2161.9,0.99902
11561,14.608,3.8182,0.05,8.2362e-07,8.2305,6.3243e-07,4.7518,-2.6148e-14,7.5123e-07,-6.3244e-07,-4.7519,1.01
11562,14.608,3.5455,0,0.00021568,2155.3,7.3872e-05,32.366,6.9565e-05,0.0090738,-0.00021511,-2138.9,1.0103
11563,14.515,3.6364,0,0.00021793,2177.8,7.4507e-05,31.056,7.0374e-05,0.0088412,-0.00021739,-2162.1,0.99922
11564,14.608,3.6364,0.05,8.2238e-07,8.2181,6.3148e-07,4.7447,1.8008e-12,2.2343e-06,-6.3148e-07,-4.7447,1.0102
11565,14.608,3.3636,0,0.0002157,2155.5,7.3898e-05,32.585,6.9562e-05,0.0091509,-0.00021513,-2139.1,1.0104
11566,14.515,3.4545,0,0.00021796,2178.1,7.4537e-05,31.321,7.037e-05,0.0089644,-0.00021741,-2162.2,0.99936
11567,14.608,3.4545,0.05,8.214e-07,8.2083,6.3073e-07,4.739,8.9605e-13,2.7611e-06,-6.3073e-07,-4.7391,1.0103
11568,14.608,3.1818,0,0.00021572,2155.7,7.3913e-05,32.709,6.9561e-05,0.0091872,-0.00021514,-2139.1,1.0105
11569,14.515,3.2727,0,0.00021798,2178.2,7.4557e-05,31.487,7.0367e-05,0.0090306,-0.00021742,-2162.3,0.99946
11570,14.608,3.2727,0.05,8.2072e-07,8.2015,6.3021e-07,4.7351,1.811e-12,2.5626e-06,-6.3021e-07,-4.7352,1.0104
11571,14.608,3,0,0.00021572,2155.7,7.3918e-05,32.75,6.956e-05,0.009197,-0.00021515,-2139.2,1.0105
11572,14.515,3.0909,0,0.00021798,2178.3,7.4566e-05,31.567,7.0366e-05,0.009059,-0.00021743,-2162.4,0.99951
11573,14.608,3.0909,0.05,8.2038e-07,8.1981,6.2994e-07,4.7331,9.0688e-13,3.0798e-06,-6.2995e-07,-4.7332,1.0105
11574,14.608,2.8182,0,0.00021572,2155.7,7.3913e-05,32.709,6.9561e-05,0.0091865,-0.00021514,-2139.1,1.0105
11575,14.515,2.9091,0,0.00021798,2178.3,7.4566e-05,31.567,7.0366e-05,0.009058,-0.00021743,-2162.4,0.99951
11576,14.608,2.9091,0.05,8.2038e-07,8.1981,6.2994e-07,4.7331,9.1218e-13,4.55e-06,-6.2995e-07,-4.7332,1.0105
11577,14.608,2.6364,0,0.0002157,2155.5,7.3898e-05,32.585,6.9562e-05,0.0091511,-0.00021513,-2139.1,1.0104
11578,14.515,2.7273,0,0.00021798,2178.2,7.4557e-05,31.487,7.0367e-05,0.0090305,-0.00021742,-2162.3,0.99946
11579,14.608,2.7273,0.05,8.2072e-07,8.2015,6.3021e-07,4.7351,2.7368e-12,3.8771e-06,-6.3021e-07,-4.7352,1.0104
11580,14.608,2.4545,0,0.00021568,2155.3,7.3872e-05,32.366,6.9565e-05,0.0090745,-0.00021511,-2138.9,1.0103
11581,14.515,2.5455,0,0.00021796,2178.1,7.4537e-05,31.321,7.037e-05,0.0089649,-0.00021741,-2162.2,0.99936
11582,14.608,2.5455,0.05,8.214e-07,8.2083,6.3073e-07,4.739,2.7433e-12,3.9251e-06,-6.3073e-07,-4.7391,1.0103
11583,14.608,2.2727,0,0.00021564,2154.9,7.3833e-05,32.037,6.957e-05,0.0089326,-0.00021508,-2138.7,1.0101
11584,14.515,2.3636,0,0.00021793,2177.8,7.4507e-05,31.056,7.0374e-05,0.0088415,-0.00021739,-2162.1,0.99922
11585,14.608,2.3636,0.05,8.2238e-07,8.2181,6.3148e-07,4.7447,3.6594e-12,3.737e-06,-6.3148e-07,-4.7447,1.0102
11586,14.608,2.0909,0,0.0002156,2154.5,7.3779e-05,31.577,6.9577e-05,0.0086911,-0.00021504,-2138.5,1.0099
11587,14.515,2.1818,0,0.0002179,2177.4,7.4463e-05,30.677,7.0381e-05,0.0086351,-0.00021736,-2161.9,0.99902
11588,14.608,2.1818,0.05,8.2362e-07,8.2305,6.3243e-07,4.7518,2.7584e-12,3.3181e-06,-6.3244e-07,-4.7519,1.01
11589,14.608,1.9091,0,0.00021554,2153.9,7.3708e-05,30.963,6.9588e-05,0.008304,-0.00021499,-2138.2,1.0096
11590,14.515,2,0,0.00021785,2177,7.4405e-05,30.164,7.0391e-05,0.0083053,-0.00021732,-2161.7,0.99877
11591,14.608,2,0.05,8.2507e-07,8.245,6.3355e-07,4.7602,1.8582e-12,3.8561e-06,-6.3356e-07,-4.7603,1.0098
11592,14.608,1.7273,0,0.00021546,2153.1,7.3618e-05,30.172,6.9604e-05,0.0077147,-0.00021493,-2137.9,1.0093
11593,14.515,1.8182,0,0.00021779,2176.4,7.4329e-05,29.494,7.0405e-05,0.0078042,-0.00021727,-2161.5,0.99848
11594,14.608,1.8182,0.05,8.2668e-07,8.2611,6.3478e-07,4.7695,9.5344e-13,3.8852e-06,-6.3479e-07,-4.7696,1.0095
11595,14.608,1.5455,0,0.00021538,2152.3,7.3508e-05,29.182,6.9625e-05,0.0068527,-0.00021487,-2137.5,1.009
11596,14.515,1.6364,0,0.00021772,2175.7,7.4236e-05,28.649,7.0424e-05,0.0070734,-0.00021722,-2161.2,0.99813
11597,14.608,1.6364,0.05,8.2837e-07,8.2779,6.3608e-07,4.7793,4.8675e-14,4.2095e-06,-6.3608e-07,-4.7793,1.0091
11598,14.608,1.3636,0,0.00021528,2151.3,7.3374e-05,27.975,6.9652e-05,0.0056373,-0.00021479,-2137.2,1.0085
11599,14.515,1.4545,0,0.00021763,2174.8,7.4122e-05,27.609,7.0448e-05,0.0060377,-0.00021715,-2160.9,0.99774
11600,14.608,1.4545,0.05,8.3007e-07,8.2949,6.3739e-07,4.7891,2.7863e-12,4.0353e-06,-6.3739e-07,-4.7891,1.0087
11601,14.608,1.1818,0,0.00021517,2150.2,7.3218e-05,26.54,6.9686e-05,0.0039422,-0.0002147,-2136.8,1.0081
11602,14.515,1.2727,0,0.00021754,2173.9,7.3987e-05,26.363,7.0479e-05,0.0046185,-0.00021708,-2160.6,0.9973
11603,14.608,1.2727,0.05,8.317e-07,8.3113,6.3864e-07,4.7985,9.6963e-13,4.3294e-06,-6.3865e-07,-4.7985,1.0083
11604,14.608,1,0,0.00021504,2149,7.3039e-05,24.874,6.9729e-05,0.0017052,-0.00021461,-2136.4,1.0076
11605,14.515,1.0909,0,0.00021744,2172.9,7.3831e-05,24.903,7.0517e-05,0.0026548,-0.000217,-2160.3,0.99681
11606,14.608,1.0909,0.05,8.3319e-07,8.3262,6.3979e-07,4.8071,9.8123e-13,4.8251e-06,-6.3979e-07,-4.8072,1.0078
11607,14.608,0.81818,0,0.00021492,2147.7,7.2839e-05,22.984,6.978e-05,-0.0015694,-0.00021451,-2136.1,1.007
11608,14.515,0.90909,0,0.00021732,2171.7,7.3655e-05,23.233,7.0563e-05,0.00019493,-0.00021692,-2160,0.99627
11609,14.608,0.90909,0.05,8.3446e-07,8.3388,6.4076e-07,4.8144,1.8915e-12,4.6854e-06,-6.4076e-07,-4.8144,1.0073
11610,14.608,0.63636,0,0.00021478,2146.3,7.2622e-05,20.89,6.9841e-05,-0.0048679,-0.00021442,-2135.8,1.0064
11611,14.515,0.72727,0,0.00021721,2170.6,7.3461e-05,21.365,7.0617e-05,-0.0037515,-0.00021684,-2159.8,0.99568
11612,14.608,0.72727,0.05,8.3525e-07,8.3467,6.4136e-07,4.819,1.8706e-12,3.8646e-06,-6.4137e-07,-4.819,1.0067
11613,14.608,0.45455,0,0.00021466,2145.1,7.2395e-05,18.658,6.991e-05,-0.015635,-0.00021434,-2135.7,1.0058
11614,14.515,0.54545,0,0.00021709,2169.4,7.3253e-05,19.327,7.068e-05,-0.0062358,-0.00021676,-2159.7,0.99505
11615,14.608,0.54545,0.05,8.3284e-07,8.3226,6.3951e-07,4.805,2.7804e-12,2.2686e-06,-6.3952e-07,-4.8051,1.0061
11616,14.608,0.27273,0,0.00021465,2145,7.2253e-05,16.99,6.999e-05,-0.015874,-0.00021436,-2136.5,1.0051
11617,14.515,0.36364,0,0.00021699,2168.4,7.3046e-05,17.22,7.0751e-05,-0.024194,-0.00021669,-2159.8,0.99437
11618,14.608,0.36364,0.05,7.8658e-07,7.8603,6.0399e-07,4.5381,9.1059e-13,2.2855e-06,-6.04e-07,-4.5382,1.0054
11619,14.515,0.18182,0,0.00021712,2169.7,7.3019e-05,16.416,7.0834e-05,-0.0022002,-0.00021683,-2161.4,0.99364
11620,14.608,0.18182,0.05,9.1999e-08,0.91935,7.0643e-08,0.53079,-3.5782e-14,5.4045e-06,-7.0644e-08,-0.53079,1.0047
11621,14.608,0.090909,0,0.00021395,2138,7.15e-05,10.73,7.0071e-05,-0.0064534,-0.00021377,-2132.6,1.0043
11622,14.423,5.7273,0,0.00021944,2192.9,7.3797e-05,16.537,7.1594e-05,-0.014427,-0.00021916,-2184.6,0.983
11623,14.33,5.8182,0,0.00022193,2217.8,7.4584e-05,16.145,7.2435e-05,-0.0016777,-0.00022165,-2209.7,0.97165
11624,14.423,5.8182,0.05,8.1613e-08,0.81557,6.267e-08,0.47087,-2.2373e-12,1.8926e-06,-6.2668e-08,-0.47087,0.9826
11625,14.423,5.9091,0,0.00021877,2186.2,7.3078e-05,10.587,7.1668e-05,-0.0061509,-0.00021859,-2180.9,0.98224
11626,14.423,5.5455,0,0.00021942,2192.7,7.3899e-05,17.856,7.1521e-05,-0.014614,-0.00021911,-2183.7,0.98371
11627,14.33,5.6364,0,0.00022177,2216.2,7.4572e-05,16.602,7.2359e-05,-0.022296,-0.00022149,-2207.9,0.97239
11628,14.423,5.6364,0.05,7.8626e-07,7.8571,6.0375e-07,4.5363,2.6675e-12,3.2014e-06,-6.0375e-07,-4.5363,0.98334
11629,14.423,5.3636,0,0.00021951,2193.6,7.4089e-05,19.774,7.1456e-05,-0.0048654,-0.00021917,-2183.6,0.98437
11630,14.33,5.4545,0,0.00022184,2216.9,7.4742e-05,18.393,7.2294e-05,-0.0060862,-0.00022152,-2207.6,0.97308
11631,14.423,5.4545,0.05,8.3329e-07,8.3272,6.3986e-07,4.8077,8.4659e-13,3.9501e-06,-6.3987e-07,-4.8077,0.98403
11632,14.423,5.1818,0,0.00021961,2194.6,7.4273e-05,21.589,7.1399e-05,-0.0018064,-0.00021924,-2183.7,0.98499
11633,14.33,5.2727,0,0.00022193,2217.7,7.4917e-05,20.146,7.2235e-05,-0.003806,-0.00022158,-2207.6,0.97373
11634,14.423,5.2727,0.05,8.3599e-07,8.3541,6.4194e-07,4.8232,3.5542e-12,1.2929e-06,-6.4194e-07,-4.8233,0.98467
11635,14.423,5,0,0.00021971,2195.6,7.4443e-05,23.238,7.1351e-05,0.0012733,-0.00021931,-2183.9,0.98556
11636,14.33,5.0909,0,0.00022201,2218.6,7.508e-05,21.762,7.2184e-05,-0.00013614,-0.00022163,-2207.6,0.97433
11637,14.423,5.0909,0.05,8.3552e-07,8.3495,6.4158e-07,4.8205,1.7631e-12,1.8741e-06,-6.4158e-07,-4.8206,0.98526
11638,14.423,4.8182,0,0.00021981,2196.5,7.4596e-05,24.702,7.1309e-05,0.0034245,-0.00021937,-2184.1,0.98608
11639,14.33,4.9091,0,0.0002221,2219.5,7.5229e-05,23.217,7.214e-05,0.0022094,-0.00022169,-2207.8,0.97488
11640,14.423,4.9091,0.05,8.3463e-07,8.3405,6.4089e-07,4.8154,8.43e-13,1.0538e-06,-6.4089e-07,-4.8154,0.9858
11641,14.423,4.6364,0,0.00021989,2197.4,7.4731e-05,25.974,7.1275e-05,0.0050875,-0.00021944,-2184.3,0.98655
11642,14.33,4.7273,0,0.00022218,2220.3,7.5362e-05,24.497,7.2102e-05,0.0041117,-0.00022175,-2207.9,0.97538
11643,14.423,4.7273,0.05,8.3354e-07,8.3296,6.4005e-07,4.8091,1.7524e-12,-1.7794e-08,-6.4006e-07,-4.8091,0.9863
11644,14.423,4.4545,0,0.00021997,2198.2,7.4847e-05,27.054,7.1247e-05,0.0063101,-0.0002195,-2184.5,0.98697
11645,14.33,4.5455,0,0.00022225,2221,7.5478e-05,25.6,7.2072e-05,0.0055192,-0.0002218,-2208.1,0.97583
11646,14.423,4.5455,0.05,8.3233e-07,8.3175,6.3912e-07,4.8021,8.5154e-13,1.5476e-06,-6.3912e-07,-4.8022,0.98674
11647,14.423,4.2727,0,0.00022004,2198.9,7.4944e-05,27.949,7.1225e-05,0.0072024,-0.00021955,-2184.8,0.98734
11648,14.33,4.3636,0,0.00022232,2221.6,7.5577e-05,26.528,7.2047e-05,0.0065704,-0.00022185,-2208.2,0.97623
11649,14.423,4.3636,0.05,8.3106e-07,8.3048,6.3815e-07,4.7948,1.7629e-12,1.3133e-07,-6.3815e-07,-4.7948,0.98714
11650,14.423,4.0909,0,0.0002201,2199.4,7.5023e-05,28.673,7.1208e-05,0.0078362,-0.00021959,-2185,0.98766
11651,14.33,4.1818,0,0.00022237,2222.2,7.5658e-05,27.292,7.2027e-05,0.0073363,-0.00022189,-2208.4,0.97658
11652,14.423,4.1818,0.05,8.2979e-07,8.2921,6.3717e-07,4.7875,2.6888e-12,-7.6617e-08,-6.3717e-07,-4.7875,0.98749
11653,14.423,3.9091,0,0.00022014,2199.9,7.5086e-05,29.243,7.1195e-05,0.0082735,-0.00021963,-2185.1,0.98794
11654,14.33,4,0,0.00022242,2222.6,7.5724e-05,27.903,7.2012e-05,0.0078808,-0.00022193,-2208.5,0.97688
11655,14.423,4,0.05,8.2858e-07,8.28,6.3624e-07,4.7804,1.7848e-12,4.3277e-07,-6.3624e-07,-4.7805,0.98779
11656,14.423,3.7273,0,0.00022018,2200.3,7.5134e-05,29.676,7.1186e-05,0.0085647,-0.00021966,-2185.3,0.98816
11657,14.33,3.8182,0,0.00022245,2223,7.5776e-05,28.378,7.2e-05,0.008257,-0.00022196,-2208.7,0.97713
11658,14.423,3.8182,0.05,8.2747e-07,8.269,6.354e-07,4.7741,1.792e-12,7.3741e-07,-6.354e-07,-4.7741,0.98803
11659,14.423,3.5455,0,0.00022021,2200.6,7.5169e-05,29.991,7.1179e-05,0.0087505,-0.00021968,-2185.4,0.98833
11660,14.33,3.6364,0,0.00022248,2223.3,7.5815e-05,28.733,7.1992e-05,0.0085073,-0.00022198,-2208.8,0.97733
11661,14.423,3.6364,0.05,8.2653e-07,8.2596,6.3467e-07,4.7686,2.7059e-12,2.445e-06,-6.3468e-07,-4.7687,0.98823
11662,14.423,3.3636,0,0.00022023,2200.8,7.5193e-05,30.202,7.1175e-05,0.0088613,-0.0002197,-2185.5,0.98846
11663,14.33,3.4545,0,0.0002225,2223.5,7.5843e-05,28.984,7.1986e-05,0.0086673,-0.000222,-2208.9,0.97748
11664,14.423,3.4545,0.05,8.2579e-07,8.2522,6.341e-07,4.7644,2.7132e-12,2.2719e-06,-6.341e-07,-4.7644,0.98838
11665,14.423,3.1818,0,0.00022024,2200.9,7.5207e-05,30.324,7.1173e-05,0.0089188,-0.00021971,-2185.6,0.98853
11666,14.33,3.2727,0,0.00022252,2223.6,7.5861e-05,29.144,7.1983e-05,0.0087592,-0.00022201,-2208.9,0.97758
11667,14.423,3.2727,0.05,8.2527e-07,8.2471,6.3371e-07,4.7614,2.7194e-12,1.8379e-06,-6.3371e-07,-4.7615,0.98848
11668,14.423,3,0,0.00022024,2200.9,7.5212e-05,30.364,7.1172e-05,0.0089362,-0.00021971,-2185.6,0.98856
11669,14.33,3.0909,0,0.00022252,2223.7,7.5869e-05,29.221,7.1981e-05,0.0088009,-0.00022201,-2208.9,0.97763
11670,14.423,3.0909,0.05,8.2501e-07,8.2444,6.335e-07,4.7599,2.7255e-12,3.0769e-06,-6.3351e-07,-4.76,0.98853
11671,14.423,2.8182,0,0.00022024,2200.9,7.5207e-05,30.324,7.1173e-05,0.0089184,-0.00021971,-2185.6,0.98853
11672,14.33,2.9091,0,0.00022252,2223.7,7.5869e-05,29.221,7.1981e-05,0.0088006,-0.00022201,-2208.9,0.97763
11673,14.423,2.9091,0.05,8.2501e-07,8.2444,6.335e-07,4.7599,2.7315e-12,3.8379e-06,-6.3351e-07,-4.76,0.98853
11674,14.423,2.6364,0,0.00022023,2200.8,7.5193e-05,30.202,7.1175e-05,0.0088615,-0.0002197,-2185.5,0.98846
11675,14.33,2.7273,0,0.00022252,2223.6,7.5861e-05,29.144,7.1983e-05,0.0087589,-0.00022201,-2208.9,0.97758
11676,14.423,2.7273,0.05,8.2527e-07,8.2471,6.3371e-07,4.7614,2.7383e-12,3.8873e-06,-6.3371e-07,-4.7615,0.98848
11677,14.423,2.4545,0,0.00022021,2200.6,7.5169e-05,29.99,7.1179e-05,0.0087506,-0.00021968,-2185.4,0.98833
11678,14.33,2.5455,0,0.0002225,2223.5,7.5843e-05,28.984,7.1986e-05,0.0086676,-0.000222,-2208.9,0.97748
11679,14.423,2.5455,0.05,8.2579e-07,8.2522,6.341e-07,4.7644,1.8353e-12,3.6971e-06,-6.341e-07,-4.7644,0.98838
11680,14.423,2.2727,0,0.00022018,2200.3,7.5134e-05,29.676,7.1186e-05,0.0085652,-0.00021966,-2185.3,0.98816
11681,14.33,2.3636,0,0.00022248,2223.3,7.5815e-05,28.733,7.1992e-05,0.0085074,-0.00022198,-2208.8,0.97733
11682,14.423,2.3636,0.05,8.2653e-07,8.2596,6.3468e-07,4.7687,1.8438e-12,3.2821e-06,-6.3467e-07,-4.7687,0.98823
11683,14.423,2.0909,0,0.00022014,2199.9,7.5086e-05,29.243,7.1195e-05,0.0082744,-0.00021963,-2185.1,0.98794
11684,14.33,2.1818,0,0.00022245,2223,7.5776e-05,28.378,7.2e-05,0.0082575,-0.00022196,-2208.7,0.97713
11685,14.423,2.1818,0.05,8.2747e-07,8.269,6.354e-07,4.7741,9.4207e-13,3.3327e-06,-6.354e-07,-4.7741,0.98803
11686,14.423,1.9091,0,0.0002201,2199.4,7.5023e-05,28.673,7.1208e-05,0.0078363,-0.00021959,-2185,0.98766
11687,14.33,2,0,0.00022242,2222.6,7.5724e-05,27.903,7.2012e-05,0.0078813,-0.00022193,-2208.5,0.97688
11688,14.423,2,0.05,8.2858e-07,8.28,6.3624e-07,4.7804,2.768e-12,3.3979e-06,-6.3625e-07,-4.7805,0.98779
11689,14.423,1.7273,0,0.00022004,2198.9,7.4944e-05,27.949,7.1225e-05,0.0072021,-0.00021955,-2184.8,0.98734
11690,14.33,1.8182,0,0.00022237,2222.2,7.5658e-05,27.291,7.2027e-05,0.0073359,-0.00022189,-2208.4,0.97658
11691,14.423,1.8182,0.05,8.2979e-07,8.2921,6.3717e-07,4.7875,4.8836e-14,3.4658e-06,-6.3717e-07,-4.7875,0.98749
11692,14.423,1.5455,0,0.00021997,2198.2,7.4847e-05,27.053,7.1247e-05,0.0063097,-0.0002195,-2184.5,0.98697
11693,14.33,1.6364,0,0.00022232,2221.6,7.5577e-05,26.528,7.2047e-05,0.0065706,-0.00022185,-2208.2,0.97623
11694,14.423,1.6364,0.05,8.3106e-07,8.3048,6.3814e-07,4.7948,1.8709e-12,3.2324e-06,-6.3815e-07,-4.7948,0.98714
11695,14.423,1.3636,0,0.00021989,2197.4,7.4731e-05,25.974,7.1275e-05,0.0050875,-0.00021944,-2184.3,0.98655
11696,14.33,1.4545,0,0.00022225,2221,7.5478e-05,25.6,7.2072e-05,0.0055191,-0.0002218,-2208.1,0.97583
11697,14.423,1.4545,0.05,8.3233e-07,8.3175,6.3912e-07,4.8021,2.7872e-12,4.1013e-06,-6.3912e-07,-4.8022,0.98674
11698,14.423,1.1818,0,0.00021981,2196.5,7.4596e-05,24.702,7.1309e-05,0.0034246,-0.00021937,-2184.1,0.98608
11699,14.33,1.2727,0,0.00022218,2220.3,7.5362e-05,24.497,7.2102e-05,0.004112,-0.00022175,-2207.9,0.97538
11700,14.423,1.2727,0.05,8.3354e-07,8.3296,6.4005e-07,4.8091,1.885e-12,3.8582e-06,-6.4005e-07,-4.8091,0.9863
11701,14.423,1,0,0.00021971,2195.6,7.4443e-05,23.238,7.1351e-05,0.0012742,-0.00021931,-2183.9,0.98556
11702,14.33,1.0909,0,0.0002221,2219.5,7.5229e-05,23.216,7.214e-05,0.0022102,-0.00022169,-2207.8,0.97488
11703,14.423,1.0909,0.05,8.3463e-07,8.3405,6.4089e-07,4.8154,2.8163e-12,4.3412e-06,-6.4089e-07,-4.8154,0.9858
11704,14.423,0.81818,0,0.00021961,2194.6,7.4273e-05,21.589,7.1399e-05,-0.0018046,-0.00021924,-2183.7,0.98499
11705,14.33,0.90909,0,0.00022201,2218.6,7.508e-05,21.762,7.2184e-05,-0.00013401,-0.00022163,-2207.6,0.97433
11706,14.423,0.90909,0.05,8.3552e-07,8.3495,6.4158e-07,4.8205,6.8377e-14,4.5287e-06,-6.4158e-07,-4.8206,0.98526
11707,14.423,0.63636,0,0.00021951,2193.6,7.4089e-05,19.774,7.1456e-05,-0.0048642,-0.00021917,-2183.6,0.98437
11708,14.33,0.72727,0,0.00022193,2217.7,7.4917e-05,20.146,7.2235e-05,-0.003804,-0.00022158,-2207.6,0.97373
11709,14.423,0.72727,0.05,8.3599e-07,8.3541,6.4194e-07,4.8232,5.3484e-14,3.4318e-06,-6.4194e-07,-4.8233,0.98467
11710,14.423,0.45455,0,0.00021942,2192.7,7.3899e-05,17.856,7.1521e-05,-0.014613,-0.00021911,-2183.7,0.98371
11711,14.33,0.54545,0,0.00022184,2216.9,7.4742e-05,18.393,7.2294e-05,-0.0060861,-0.00022152,-2207.6,0.97308
11712,14.423,0.54545,0.05,8.3329e-07,8.3272,6.3987e-07,4.8077,2.7784e-12,2.9107e-06,-6.3987e-07,-4.8077,0.98403
11713,14.423,0.27273,0,0.00021944,2192.9,7.3797e-05,16.537,7.1594e-05,-0.014427,-0.00021916,-2184.6,0.983
11714,14.33,0.36364,0,0.00022177,2216.2,7.4572e-05,16.602,7.2359e-05,-0.022295,-0.00022149,-2207.9,0.97239
11715,14.423,0.36364,0.05,7.8626e-07,7.8571,6.0374e-07,4.5363,2.7604e-12,2.9135e-06,-6.0375e-07,-4.5363,0.98334
11716,14.33,0.18182,0,0.00022193,2217.8,7.4584e-05,16.145,7.2435e-05,-0.0016779,-0.00022165,-2209.7,0.97165
11717,14.423,0.18182,0.05,8.1614e-08,0.81558,6.2668e-08,0.47087,-1.2917e-12,5.1286e-06,-6.2671e-08,-0.47088,0.9826
11718,14.423,0.090909,0,0.00021877,2186.2,7.3078e-05,10.587,7.1668e-05,-0.0061513,-0.00021859,-2180.9,0.98224
11719,14.238,5.7273,0,0.00022424,2240.9,7.5345e-05,16.102,7.32e-05,-0.013146,-0.00022396,-2232.8,0.96109
11720,14.145,5.8182,0,0.00022675,2265.9,7.6152e-05,15.874,7.4039e-05,-0.0012956,-0.00022647,-2257.9,0.94981
11721,14.238,5.8182,0.05,7.2655e-08,0.72605,5.5789e-08,0.41918,-1.9773e-12,-1.2773e-05,-5.5791e-08,-0.41919,0.96069
11722,14.238,5.9091,0,0.00022359,2234.4,7.4658e-05,10.44,7.3268e-05,-0.0058441,-0.00022341,-2229.2,0.96031
11723,14.238,5.5455,0,0.00022419,2240.3,7.5411e-05,17.107,7.3132e-05,-0.01365,-0.00022389,-2231.7,0.96181
11724,14.145,5.6364,0,0.00022656,2264,7.6103e-05,16.018,7.3969e-05,-0.020549,-0.00022628,-2256,0.95056
11725,14.238,5.6364,0.05,7.8659e-07,7.8605,6.04e-07,4.5383,1.7426e-12,3.1076e-06,-6.0401e-07,-4.5383,0.96144
11726,14.238,5.3636,0,0.00022425,2241,7.5567e-05,18.737,7.3072e-05,-0.0048145,-0.00022393,-2231.5,0.96249
11727,14.145,5.4545,0,0.0002266,2264.4,7.6241e-05,17.52,7.3908e-05,-0.0059067,-0.0002263,-2255.6,0.95127
11728,14.238,5.4545,0.05,8.3432e-07,8.3374,6.4065e-07,4.8136,-7.7108e-14,3.6887e-06,-6.4065e-07,-4.8136,0.96214
11729,14.238,5.1818,0,0.00022432,2241.7,7.572e-05,20.293,7.3019e-05,-0.0019779,-0.00022397,-2231.5,0.96312
11730,14.145,5.2727,0,0.00022666,2265,7.6384e-05,19.008,7.3854e-05,-0.0038114,-0.00022633,-2255.5,0.95193
11731,14.238,5.2727,0.05,8.3724e-07,8.3666,6.4289e-07,4.8305,-7.2336e-14,1.4465e-06,-6.429e-07,-4.8305,0.96279
11732,14.238,5,0,0.0002244,2242.4,7.5863e-05,21.716,7.2973e-05,0.00091547,-0.00022402,-2231.5,0.9637
11733,14.145,5.0909,0,0.00022672,2265.7,7.652e-05,20.39,7.3806e-05,-0.00039853,-0.00022637,-2255.4,0.95254
11734,14.238,5.0909,0.05,8.3702e-07,8.3644,6.4273e-07,4.8292,8.3511e-13,1.2774e-06,-6.4273e-07,-4.8292,0.96339
11735,14.238,4.8182,0,0.00022447,2243.1,7.5992e-05,22.987,7.2933e-05,0.0029821,-0.00022407,-2231.5,0.96422
11736,14.145,4.9091,0,0.00022678,2266.3,7.6644e-05,21.64,7.3764e-05,0.001834,-0.00022641,-2255.4,0.9531
11737,14.238,4.9091,0.05,8.3641e-07,8.3583,6.4226e-07,4.8257,2.6622e-12,5.3356e-07,-6.4226e-07,-4.8257,0.96395
11738,14.238,4.6364,0,0.00022453,2243.8,7.6106e-05,24.1,7.2899e-05,0.0046078,-0.00022411,-2231.6,0.9647
11739,14.145,4.7273,0,0.00022684,2266.8,7.6755e-05,22.748,7.3728e-05,0.0036734,-0.00022645,-2255.4,0.9536
11740,14.238,4.7273,0.05,8.3564e-07,8.3506,6.4167e-07,4.8212,-6.5897e-14,-1.3982e-07,-6.4167e-07,-4.8213,0.96445
11741,14.238,4.4545,0,0.00022459,2244.4,7.6205e-05,25.052,7.2872e-05,0.0058289,-0.00022416,-2231.7,0.96513
11742,14.145,4.5455,0,0.00022689,2267.4,7.6853e-05,23.708,7.3698e-05,0.0050615,-0.00022648,-2255.4,0.95406
11743,14.238,4.5455,0.05,8.3476e-07,8.3419,6.4099e-07,4.8162,1.7632e-12,1.2292e-06,-6.41e-07,-4.8162,0.9649
11744,14.238,4.2727,0,0.00022464,2244.9,7.6288e-05,25.849,7.2849e-05,0.0067433,-0.00022419,-2231.9,0.96551
11745,14.145,4.3636,0,0.00022694,2267.9,7.6936e-05,24.523,7.3673e-05,0.0061212,-0.00022651,-2255.5,0.95447
11746,14.238,4.3636,0.05,8.3383e-07,8.3326,6.4028e-07,4.8108,1.7718e-12,-1.5047e-07,-6.4028e-07,-4.8108,0.96531
11747,14.238,4.0909,0,0.00022469,2245.3,7.6357e-05,26.499,7.2831e-05,0.0074124,-0.00022423,-2232,0.96584
11748,14.145,4.1818,0,0.00022698,2268.3,7.7006e-05,25.199,7.3653e-05,0.0069132,-0.00022654,-2255.6,0.95482
11749,14.238,4.1818,0.05,8.3289e-07,8.3232,6.3955e-07,4.8054,8.6617e-13,-5.8952e-07,-6.3956e-07,-4.8054,0.96566
11750,14.238,3.9091,0,0.00022472,2245.7,7.6412e-05,27.017,7.2817e-05,0.0078906,-0.00022425,-2232.1,0.96612
11751,14.145,4,0,0.00022702,2268.6,7.7063e-05,25.746,7.3637e-05,0.0074925,-0.00022657,-2255.6,0.95513
11752,14.238,4,0.05,8.3199e-07,8.3142,6.3886e-07,4.8002,-3.8645e-14,1.9675e-07,-6.3887e-07,-4.8002,0.96596
11753,14.238,3.7273,0,0.00022475,2246,7.6454e-05,27.414,7.2807e-05,0.0082223,-0.00022427,-2232.1,0.96634
11754,14.145,3.8182,0,0.00022704,2268.9,7.7108e-05,26.175,7.3625e-05,0.0079067,-0.00022659,-2255.7,0.95539
11755,14.238,3.8182,0.05,8.3117e-07,8.3059,6.3823e-07,4.7954,8.77e-13,1.1887e-06,-6.3823e-07,-4.7955,0.96622
11756,14.238,3.5455,0,0.00022477,2246.2,7.6486e-05,27.706,7.2799e-05,0.0084445,-0.00022429,-2232.2,0.96652
11757,14.145,3.6364,0,0.00022707,2269.1,7.7142e-05,26.498,7.3616e-05,0.0081931,-0.0002266,-2255.7,0.95559
11758,14.238,3.6364,0.05,8.3046e-07,8.2989,6.3769e-07,4.7913,1.7951e-12,1.9618e-06,-6.3769e-07,-4.7914,0.96642
11759,14.238,3.3636,0,0.00022479,2246.3,7.6507e-05,27.904,7.2794e-05,0.0085842,-0.0002243,-2232.2,0.96665
11760,14.145,3.4545,0,0.00022708,2269.2,7.7166e-05,26.729,7.3609e-05,0.0083835,-0.00022661,-2255.8,0.95574
11761,14.238,3.4545,0.05,8.299e-07,8.2933,6.3726e-07,4.7881,2.7114e-12,2.2571e-06,-6.3726e-07,-4.7882,0.96657
11762,14.238,3.1818,0,0.0002248,2246.4,7.652e-05,28.019,7.2792e-05,0.0086595,-0.00022431,-2232.3,0.96672
11763,14.145,3.2727,0,0.00022709,2269.3,7.7181e-05,26.877,7.3605e-05,0.008497,-0.00022662,-2255.8,0.95584
11764,14.238,3.2727,0.05,8.2951e-07,8.2894,6.3696e-07,4.7859,-1.0069e-14,2.07e-06,-6.3697e-07,-4.7859,0.96667
11765,14.238,3,0,0.0002248,2246.4,7.6524e-05,28.057,7.2791e-05,0.0086832,-0.00022431,-2232.3,0.96675
11766,14.145,3.0909,0,0.0002271,2269.4,7.7189e-05,26.949,7.3603e-05,0.00855,-0.00022663,-2255.8,0.9559
11767,14.238,3.0909,0.05,8.2932e-07,8.2874,6.3681e-07,4.7847,1.8156e-12,2.8359e-06,-6.3681e-07,-4.7848,0.96672
11768,14.238,2.8182,0,0.0002248,2246.4,7.652e-05,28.019,7.2792e-05,0.0086593,-0.00022431,-2232.3,0.96672
11769,14.145,2.9091,0,0.0002271,2269.4,7.7189e-05,26.949,7.3603e-05,0.0085497,-0.00022663,-2255.8,0.9559
11770,14.238,2.9091,0.05,8.2932e-07,8.2874,6.3681e-07,4.7847,1.8224e-12,3.3635e-06,-6.3681e-07,-4.7848,0.96672
11771,14.238,2.6364,0,0.00022479,2246.3,7.6507e-05,27.904,7.2794e-05,0.008584,-0.0002243,-2232.2,0.96665
11772,14.145,2.7273,0,0.00022709,2269.3,7.7181e-05,26.877,7.3605e-05,0.0084971,-0.00022662,-2255.8,0.95584
11773,14.238,2.7273,0.05,8.2951e-07,8.2894,6.3696e-07,4.7859,1.0348e-14,3.4161e-06,-6.3697e-07,-4.7859,0.96667
11774,14.238,2.4545,0,0.00022477,2246.2,7.6486e-05,27.706,7.2799e-05,0.0084448,-0.00022429,-2232.2,0.96652
11775,14.145,2.5455,0,0.00022708,2269.2,7.7166e-05,26.729,7.3609e-05,0.0083836,-0.00022661,-2255.8,0.95574
11776,14.238,2.5455,0.05,8.299e-07,8.2933,6.3726e-07,4.7881,2.7464e-12,3.236e-06,-6.3726e-07,-4.7882,0.96657
11777,14.238,2.2727,0,0.00022475,2246,7.6454e-05,27.414,7.2807e-05,0.0082224,-0.00022427,-2232.1,0.96634
11778,14.145,2.3636,0,0.00022707,2269.1,7.7142e-05,26.498,7.3616e-05,0.0081933,-0.0002266,-2255.7,0.95559
11779,14.238,2.3636,0.05,8.3046e-07,8.2989,6.3769e-07,4.7913,2.7525e-12,3.5289e-06,-6.3769e-07,-4.7914,0.96642
11780,14.238,2.0909,0,0.00022472,2245.7,7.6412e-05,27.017,7.2817e-05,0.0078907,-0.00022425,-2232.1,0.96612
11781,14.145,2.1818,0,0.00022704,2268.9,7.7108e-05,26.175,7.3625e-05,0.0079066,-0.00022659,-2255.7,0.95539
11782,14.238,2.1818,0.05,8.3117e-07,8.3059,6.3823e-07,4.7954,2.763e-12,2.6346e-06,-6.3823e-07,-4.7955,0.96622
11783,14.238,1.9091,0,0.00022469,2245.3,7.6357e-05,26.499,7.2831e-05,0.0074124,-0.00022423,-2232,0.96584
11784,14.145,2,0,0.00022702,2268.6,7.7063e-05,25.746,7.3637e-05,0.0074931,-0.00022657,-2255.6,0.95513
11785,14.238,2,0.05,8.3199e-07,8.3142,6.3886e-07,4.8001,3.6798e-12,3.19e-06,-6.3887e-07,-4.8002,0.96596
11786,14.238,1.7273,0,0.00022464,2244.9,7.6288e-05,25.848,7.2849e-05,0.0067433,-0.00022419,-2231.9,0.96551
11787,14.145,1.8182,0,0.00022698,2268.3,7.7006e-05,25.199,7.3653e-05,0.0069126,-0.00022654,-2255.6,0.95482
11788,14.238,1.8182,0.05,8.3289e-07,8.3232,6.3955e-07,4.8054,9.5978e-13,3.2429e-06,-6.3956e-07,-4.8054,0.96566
11789,14.238,1.5455,0,0.00022459,2244.4,7.6205e-05,25.052,7.2872e-05,0.0058294,-0.00022416,-2231.7,0.96513
11790,14.145,1.6364,0,0.00022694,2267.9,7.6936e-05,24.523,7.3673e-05,0.0061219,-0.00022651,-2255.5,0.95447
11791,14.238,1.6364,0.05,8.3383e-07,8.3326,6.4028e-07,4.8108,1.8808e-12,3.3442e-06,-6.4028e-07,-4.8108,0.96531
11792,14.238,1.3636,0,0.00022453,2243.8,7.6106e-05,24.1,7.2899e-05,0.004608,-0.00022411,-2231.6,0.9647
11793,14.145,1.4545,0,0.00022689,2267.4,7.6853e-05,23.708,7.3698e-05,0.0050622,-0.00022648,-2255.4,0.95406
11794,14.238,1.4545,0.05,8.3476e-07,8.3419,6.41e-07,4.8162,2.7977e-12,3.7907e-06,-6.4099e-07,-4.8162,0.9649
11795,14.238,1.1818,0,0.00022447,2243.1,7.5992e-05,22.987,7.2933e-05,0.002983,-0.00022407,-2231.5,0.96422
11796,14.145,1.2727,0,0.00022684,2266.8,7.6755e-05,22.748,7.3728e-05,0.0036735,-0.00022645,-2255.4,0.9536
11797,14.238,1.2727,0.05,8.3564e-07,8.3506,6.4166e-07,4.8212,3.7042e-12,3.6519e-06,-6.4167e-07,-4.8213,0.96445
11798,14.238,1,0,0.0002244,2242.4,7.5863e-05,21.716,7.2973e-05,0.00091741,-0.00022402,-2231.5,0.9637
11799,14.145,1.0909,0,0.00022678,2266.3,7.6644e-05,21.64,7.3764e-05,0.001835,-0.00022641,-2255.4,0.9531
11800,14.238,1.0909,0.05,8.3641e-07,8.3583,6.4226e-07,4.8257,9.7146e-13,3.6336e-06,-6.4226e-07,-4.8257,0.96395
11801,14.238,0.81818,0,0.00022432,2241.7,7.572e-05,20.293,7.3019e-05,-0.0019756,-0.00022397,-2231.5,0.96312
11802,14.145,0.90909,0,0.00022672,2265.7,7.652e-05,20.39,7.3806e-05,-0.0003972,-0.00022637,-2255.4,0.95254
11803,14.238,0.90909,0.05,8.3702e-07,8.3644,6.4273e-07,4.8292,2.8218e-12,4.0905e-06,-6.4273e-07,-4.8292,0.96339
11804,14.238,0.63636,0,0.00022425,2241,7.5567e-05,18.737,7.3072e-05,-0.0048136,-0.00022393,-2231.5,0.96249
11805,14.145,0.72727,0,0.00022666,2265,7.6384e-05,19.008,7.3854e-05,-0.003809,-0.00022633,-2255.5,0.95193
11806,14.238,0.72727,0.05,8.3724e-07,8.3666,6.429e-07,4.8305,3.7013e-12,3.2127e-06,-6.429e-07,-4.8305,0.96279
11807,14.238,0.45455,0,0.00022419,2240.3,7.5411e-05,17.107,7.3132e-05,-0.01365,-0.00022389,-2231.7,0.96181
11808,14.145,0.54545,0,0.0002266,2264.4,7.6241e-05,17.52,7.3908e-05,-0.0059066,-0.0002263,-2255.6,0.95127
11809,14.238,0.54545,0.05,8.3432e-07,8.3374,6.4065e-07,4.8136,3.6697e-12,2.1951e-06,-6.4065e-07,-4.8136,0.96214
11810,14.238,0.27273,0,0.00022424,2240.9,7.5345e-05,16.102,7.32e-05,-0.013145,-0.00022396,-2232.8,0.96109
11811,14.145,0.36364,0,0.00022656,2264,7.6103e-05,16.018,7.3969e-05,-0.020549,-0.00022628,-2256,0.95056
11812,14.238,0.36364,0.05,7.8659e-07,7.8605,6.0401e-07,4.5382,9.4067e-13,2.0545e-06,-6.0401e-07,-4.5383,0.96144
11813,14.145,0.18182,0,0.00022675,2265.9,7.6152e-05,15.874,7.4039e-05,-0.0012952,-0.00022647,-2257.9,0.94981
11814,14.238,0.18182,0.05,7.2656e-08,0.72606,5.5792e-08,0.41917,-1.0508e-12,-2.4248e-05,-5.579e-08,-0.41921,0.96069
11815,14.238,0.090909,0,0.00022359,2234.4,7.4658e-05,10.44,7.3268e-05,-0.0058449,-0.00022341,-2229.2,0.96031
11816,14.053,5.7273,0,0.00022905,2288.9,7.6896e-05,15.682,7.4807e-05,-0.012002,-0.00022878,-2281,0.93933
11817,13.96,5.8182,0,0.00023157,2314.1,7.7721e-05,15.602,7.5645e-05,-0.0010243,-0.0002313,-2306.3,0.92812
11818,14.053,5.8182,0.05,6.4907e-08,0.64862,4.9839e-08,0.37447,-2.7297e-12,-1.3904e-05,-4.9842e-08,-0.37449,0.93892
11819,14.053,5.9091,0,0.00022842,2282.7,7.6239e-05,10.29,7.4869e-05,-0.0055366,-0.00022825,-2277.5,0.93854
11820,14.053,5.5455,0,0.00022897,2288.1,7.6929e-05,16.399,7.4745e-05,-0.012738,-0.00022869,-2279.9,0.94007
11821,13.96,5.6364,0,0.00023136,2312,7.7641e-05,15.461,7.5581e-05,-0.018929,-0.0002311,-2304.3,0.92889
11822,14.053,5.6364,0.05,7.8748e-07,7.8693,6.0468e-07,4.5433,8.2042e-13,2.5987e-06,-6.0469e-07,-4.5434,0.93969
11823,14.053,5.3636,0,0.00022901,2288.5,7.7055e-05,17.764,7.469e-05,-0.0047286,-0.0002287,-2279.5,0.94076
11824,13.96,5.4545,0,0.00023138,2312.2,7.7748e-05,16.696,7.5525e-05,-0.0057041,-0.00023109,-2303.8,0.92961
11825,14.053,5.4545,0.05,8.358e-07,8.3522,6.4179e-07,4.8221,8.3779e-13,3.4505e-06,-6.4179e-07,-4.8222,0.9404
11826,14.053,5.1818,0,0.00022905,2289,7.718e-05,19.079,7.4641e-05,-0.0020966,-0.00022872,-2279.4,0.9414
11827,13.96,5.2727,0,0.00023141,2312.5,7.7863e-05,17.939,7.5475e-05,-0.0037782,-0.0002311,-2303.5,0.93028
11828,14.053,5.2727,0.05,8.3891e-07,8.3833,6.4418e-07,4.8401,8.4856e-13,1.3396e-06,-6.4417e-07,-4.8401,0.94107
11829,14.053,5,0,0.0002291,2289.5,7.7297e-05,20.289,7.4597e-05,0.00062202,-0.00022875,-2279.2,0.94199
11830,13.96,5.0909,0,0.00023145,2312.9,7.7972e-05,19.099,7.543e-05,-0.00060558,-0.00023112,-2303.3,0.9309
11831,14.053,5.0909,0.05,8.3888e-07,8.383,6.4415e-07,4.8399,3.5607e-12,1.369e-06,-6.4416e-07,-4.8399,0.94168
11832,14.053,4.8182,0,0.00022915,2289.9,7.7404e-05,21.376,7.4559e-05,0.0026028,-0.00022878,-2279.2,0.94253
11833,13.96,4.9091,0,0.00023149,2313.3,7.8073e-05,20.155,7.5391e-05,0.0015172,-0.00023114,-2303.1,0.93147
11834,14.053,4.9091,0.05,8.3849e-07,8.3792,6.4386e-07,4.8377,8.3569e-13,4.2049e-07,-6.4386e-07,-4.8377,0.94224
11835,14.053,4.6364,0,0.0002292,2290.4,7.7499e-05,22.333,7.4527e-05,0.0041871,-0.00022881,-2279.2,0.94301
11836,13.96,4.7273,0,0.00023153,2313.7,7.8164e-05,21.095,7.5357e-05,0.0032908,-0.00023116,-2303.1,0.93199
11837,14.053,4.7273,0.05,8.3797e-07,8.3739,6.4346e-07,4.8346,8.4087e-13,-1.5299e-07,-6.4346e-07,-4.8347,0.94276
11838,14.053,4.4545,0,0.00022924,2290.8,7.7581e-05,23.157,7.45e-05,0.0054011,-0.00022884,-2279.2,0.94345
11839,13.96,4.5455,0,0.00023156,2314,7.8244e-05,21.916,7.5328e-05,0.0046566,-0.00023118,-2303,0.93245
11840,14.053,4.5455,0.05,8.3736e-07,8.3678,6.4298e-07,4.8311,2.6689e-12,7.052e-07,-6.4299e-07,-4.8312,0.94322
11841,14.053,4.2727,0,0.00022928,2291.2,7.7651e-05,23.852,7.4477e-05,0.0063293,-0.00022886,-2279.2,0.94383
11842,13.96,4.3636,0,0.00023159,2314.4,7.8313e-05,22.616,7.5304e-05,0.0057174,-0.0002312,-2303,0.93287
11843,14.053,4.3636,0.05,8.3669e-07,8.3611,6.4247e-07,4.8273,8.5023e-13,-4.2141e-07,-6.4248e-07,-4.8273,0.94363
11844,14.053,4.0909,0,0.00022931,2291.5,7.7709e-05,24.424,7.4459e-05,0.0070249,-0.00022888,-2279.2,0.94417
11845,13.96,4.1818,0,0.00023162,2314.6,7.8371e-05,23.201,7.5284e-05,0.0065279,-0.00023122,-2302.9,0.93323
11846,14.053,4.1818,0.05,8.3601e-07,8.3543,6.4195e-07,4.8234,-4.4553e-14,-8.9141e-08,-6.4195e-07,-4.8234,0.94399
11847,14.053,3.9091,0,0.00022933,2291.8,7.7756e-05,24.882,7.4445e-05,0.0075357,-0.0002289,-2279.2,0.94445
11848,13.96,4,0,0.00023165,2314.9,7.8418e-05,23.677,7.5268e-05,0.0071345,-0.00023123,-2302.9,0.93354
11849,14.053,4,0.05,8.3535e-07,8.3477,6.4144e-07,4.8196,1.7797e-12,1.925e-07,-6.4145e-07,-4.8196,0.9443
11850,14.053,3.7273,0,0.00022935,2292,7.7792e-05,25.237,7.4434e-05,0.0079015,-0.00022891,-2279.2,0.94468
11851,13.96,3.8182,0,0.00023166,2315,7.8456e-05,24.053,7.5255e-05,0.0075791,-0.00023125,-2302.9,0.9338
11852,14.053,3.8182,0.05,8.3475e-07,8.3417,6.4098e-07,4.816,1.7849e-12,2.3706e-07,-6.4098e-07,-4.8161,0.94455
11853,14.053,3.5455,0,0.00022937,2292.1,7.7819e-05,25.5,7.4426e-05,0.0081541,-0.00022893,-2279.3,0.94486
11854,13.96,3.6364,0,0.00023168,2315.2,7.8484e-05,24.339,7.5246e-05,0.0078958,-0.00023125,-2302.9,0.93401
11855,14.053,3.6364,0.05,8.3422e-07,8.3365,6.4058e-07,4.8131,1.7935e-12,1.9565e-06,-6.4058e-07,-4.8131,0.94476
11856,14.053,3.3636,0,0.00022938,2292.2,7.7837e-05,25.68,7.4421e-05,0.0083168,-0.00022893,-2279.3,0.94499
11857,13.96,3.4545,0,0.00023169,2315.3,7.8504e-05,24.544,7.5239e-05,0.0081109,-0.00023126,-2302.9,0.93416
11858,14.053,3.4545,0.05,8.3381e-07,8.3323,6.4026e-07,4.8107,1.8014e-12,1.7749e-06,-6.4026e-07,-4.8107,0.94491
11859,14.053,3.1818,0,0.00022939,2292.3,7.7848e-05,25.785,7.4417e-05,0.0084073,-0.00022894,-2279.3,0.94507
11860,13.96,3.2727,0,0.0002317,2315.4,7.8518e-05,24.676,7.5235e-05,0.008243,-0.00023127,-2302.9,0.93427
11861,14.053,3.2727,0.05,8.3352e-07,8.3295,6.4004e-07,4.809,8.9864e-13,1.1121e-06,-6.4004e-07,-4.8091,0.94502
11862,14.053,3,0,0.00022939,2292.3,7.7851e-05,25.819,7.4416e-05,0.0084361,-0.00022894,-2279.3,0.94509
11863,13.96,3.0909,0,0.0002317,2315.4,7.8524e-05,24.74,7.5232e-05,0.008306,-0.00023127,-2302.9,0.93432
11864,14.053,3.0909,0.05,8.3338e-07,8.328,6.3993e-07,4.8082,3.6344e-12,1.8808e-06,-6.3993e-07,-4.8082,0.94507
11865,14.053,2.8182,0,0.00022939,2292.3,7.7848e-05,25.785,7.4417e-05,0.0084073,-0.00022894,-2279.3,0.94507
11866,13.96,2.9091,0,0.0002317,2315.4,7.8524e-05,24.74,7.5232e-05,0.0083051,-0.00023127,-2302.9,0.93432
11867,14.053,2.9091,0.05,8.3338e-07,8.328,6.3993e-07,4.8082,3.6416e-12,2.8878e-06,-6.3993e-07,-4.8082,0.94507
11868,14.053,2.6364,0,0.00022938,2292.2,7.7837e-05,25.68,7.4421e-05,0.0083172,-0.00022893,-2279.3,0.94499
11869,13.96,2.7273,0,0.0002317,2315.4,7.8518e-05,24.676,7.5235e-05,0.0082434,-0.00023127,-2302.9,0.93427
11870,14.053,2.7273,0.05,8.3352e-07,8.3295,6.4004e-07,4.809,9.204e-13,3.1812e-06,-6.4004e-07,-4.8091,0.94502
11871,14.053,2.4545,0,0.00022937,2292.1,7.7819e-05,25.5,7.4426e-05,0.0081539,-0.00022893,-2279.3,0.94486
11872,13.96,2.5455,0,0.00023169,2315.3,7.8504e-05,24.544,7.5239e-05,0.0081112,-0.00023126,-2302.9,0.93416
11873,14.053,2.5455,0.05,8.3381e-07,8.3323,6.4026e-07,4.8107,1.8883e-14,2.763e-06,-6.4026e-07,-4.8107,0.94491
11874,14.053,2.2727,0,0.00022935,2292,7.7792e-05,25.237,7.4434e-05,0.0079015,-0.00022891,-2279.2,0.94468
11875,13.96,2.3636,0,0.00023168,2315.2,7.8484e-05,24.339,7.5246e-05,0.0078965,-0.00023125,-2302.9,0.93401
11876,14.053,2.3636,0.05,8.3422e-07,8.3365,6.4058e-07,4.8131,1.8465e-12,2.8231e-06,-6.4058e-07,-4.8131,0.94476
11877,14.053,2.0909,0,0.00022933,2291.8,7.7756e-05,24.882,7.4445e-05,0.0075361,-0.0002289,-2279.2,0.94445
11878,13.96,2.1818,0,0.00023166,2315,7.8456e-05,24.053,7.5255e-05,0.0075794,-0.00023125,-2302.9,0.9338
11879,14.053,2.1818,0.05,8.3475e-07,8.3417,6.4098e-07,4.816,1.8531e-12,2.4222e-06,-6.4098e-07,-4.8161,0.94455
11880,14.053,1.9091,0,0.00022931,2291.5,7.7709e-05,24.424,7.4459e-05,0.007025,-0.00022888,-2279.2,0.94417
11881,13.96,2,0,0.00023165,2314.9,7.8418e-05,23.677,7.5268e-05,0.0071349,-0.00023123,-2302.9,0.93354
11882,14.053,2,0.05,8.3535e-07,8.3477,6.4144e-07,4.8196,9.5216e-13,2.4841e-06,-6.4145e-07,-4.8196,0.9443
11883,14.053,1.7273,0,0.00022928,2291.2,7.7651e-05,23.852,7.4477e-05,0.0063293,-0.00022886,-2279.2,0.94383
11884,13.96,1.8182,0,0.00023162,2314.6,7.8371e-05,23.201,7.5284e-05,0.0065272,-0.00023122,-2302.9,0.93323
11885,14.053,1.8182,0.05,8.3601e-07,8.3543,6.4195e-07,4.8233,2.7763e-12,2.9968e-06,-6.4196e-07,-4.8234,0.94399
11886,14.053,1.5455,0,0.00022924,2290.8,7.7581e-05,23.157,7.45e-05,0.0054018,-0.00022884,-2279.2,0.94345
11887,13.96,1.6364,0,0.00023159,2314.4,7.8313e-05,22.616,7.5304e-05,0.0057184,-0.0002312,-2303,0.93287
11888,14.053,1.6364,0.05,8.3669e-07,8.3611,6.4247e-07,4.8273,1.8732e-12,2.8443e-06,-6.4248e-07,-4.8273,0.94363
11889,14.053,1.3636,0,0.0002292,2290.4,7.7499e-05,22.333,7.4527e-05,0.0041876,-0.00022881,-2279.2,0.94301
11890,13.96,1.4545,0,0.00023156,2314,7.8244e-05,21.915,7.5328e-05,0.0046568,-0.00023118,-2303,0.93245
11891,14.053,1.4545,0.05,8.3736e-07,8.3678,6.4299e-07,4.8311,9.7477e-13,3.0805e-06,-6.4299e-07,-4.8312,0.94322
11892,14.053,1.1818,0,0.00022915,2289.9,7.7404e-05,21.376,7.4559e-05,0.002603,-0.00022878,-2279.2,0.94253
11893,13.96,1.2727,0,0.00023153,2313.7,7.8164e-05,21.095,7.5357e-05,0.0032915,-0.00023116,-2303.1,0.93199
11894,14.053,1.2727,0.05,8.3797e-07,8.3739,6.4345e-07,4.8347,1.891e-12,3.1299e-06,-6.4346e-07,-4.8347,0.94276
11895,14.053,1,0,0.0002291,2289.5,7.7297e-05,20.289,7.4597e-05,0.0006224,-0.00022875,-2279.2,0.94199
11896,13.96,1.0909,0,0.00023149,2313.3,7.8073e-05,20.155,7.5391e-05,0.0015176,-0.00023114,-2303.1,0.93147
11897,14.053,1.0909,0.05,8.3849e-07,8.3792,6.4386e-07,4.8377,2.8035e-12,2.6217e-06,-6.4386e-07,-4.8377,0.94224
11898,14.053,0.81818,0,0.00022905,2289,7.718e-05,19.079,7.4641e-05,-0.0020952,-0.00022872,-2279.4,0.9414
11899,13.96,0.90909,0,0.00023145,2312.9,7.7972e-05,19.099,7.543e-05,-0.00060509,-0.00023112,-2303.3,0.9309
11900,14.053,0.90909,0.05,8.3888e-07,8.383,6.4415e-07,4.8399,5.9814e-14,3.0029e-06,-6.4415e-07,-4.8399,0.94168
11901,14.053,0.63636,0,0.00022901,2288.5,7.7055e-05,17.764,7.469e-05,-0.004727,-0.0002287,-2279.5,0.94076
11902,13.96,0.72727,0,0.00023141,2312.5,7.7863e-05,17.939,7.5475e-05,-0.0037763,-0.0002311,-2303.5,0.93028
11903,14.053,0.72727,0.05,8.3891e-07,8.3833,6.4417e-07,4.8401,2.8083e-12,2.6006e-06,-6.4418e-07,-4.8401,0.94107
11904,14.053,0.45455,0,0.00022897,2288.1,7.6929e-05,16.399,7.4745e-05,-0.012737,-0.00022869,-2279.9,0.94007
11905,13.96,0.54545,0,0.00023138,2312.2,7.7748e-05,16.696,7.5525e-05,-0.0057032,-0.00023109,-2303.8,0.92961
11906,14.053,0.54545,0.05,8.358e-07,8.3522,6.4179e-07,4.8221,1.9037e-12,1.6992e-06,-6.4179e-07,-4.8222,0.9404
11907,14.053,0.27273,0,0.00022905,2288.9,7.6896e-05,15.682,7.4807e-05,-0.012001,-0.00022878,-2281,0.93933
11908,13.96,0.36364,0,0.00023136,2312,7.7641e-05,15.461,7.5581e-05,-0.018929,-0.0002311,-2304.3,0.92889
11909,14.053,0.36364,0.05,7.8748e-07,7.8693,6.0468e-07,4.5434,2.7586e-12,2.1832e-06,-6.0468e-07,-4.5434,0.93969
11910,13.96,0.18182,0,0.00023157,2314.1,7.7721e-05,15.602,7.5645e-05,-0.0010236,-0.0002313,-2306.3,0.92812
11911,14.053,0.18182,0.05,6.4907e-08,0.64862,4.9842e-08,0.37447,-9.1045e-13,-2.7236e-05,-4.984e-08,-0.3745,0.93892
11912,14.053,0.090909,0,0.00022842,2282.7,7.6239e-05,10.29,7.4869e-05,-0.0055355,-0.00022825,-2277.5,0.93854
11913,13.868,5.7273,0,0.00023387,2337.1,7.8452e-05,15.273,7.6418e-05,-0.010972,-0.0002336,-2329.4,0.91773
11914,13.775,5.8182,0,0.00023641,2362.5,7.9294e-05,15.326,7.7254e-05,-0.00084112,-0.00023614,-2354.8,0.90659
11915,13.868,5.8182,0.05,5.8188e-08,0.58148,4.468e-08,0.33571,-3.7564e-12,-1.6132e-05,-4.4682e-08,-0.33572,0.91731
11916,13.868,5.9091,0,0.00023326,2331,7.7824e-05,10.136,7.6474e-05,-0.0052293,-0.00023309,-2326,0.91693
11917,13.868,5.5455,0,0.00023376,2336,7.8455e-05,15.726,7.6361e-05,-0.011868,-0.00023349,-2328.1,0.91848
11918,13.775,5.6364,0,0.00023617,2360.1,7.9184e-05,14.925,7.7196e-05,-0.017415,-0.00023592,-2352.6,0.90738
11919,13.868,5.6364,0.05,7.8881e-07,7.8826,6.057e-07,4.551,8.5577e-13,2.6429e-06,-6.0571e-07,-4.551,0.91809
11920,13.868,5.3636,0,0.00023378,2336.2,7.8553e-05,16.844,7.631e-05,-0.0046114,-0.00023349,-2327.7,0.91919
11921,13.775,5.4545,0,0.00023617,2360,7.9264e-05,15.911,7.7145e-05,-0.0054826,-0.00023589,-2352,0.90811
11922,13.868,5.4545,0.05,8.3766e-07,8.3708,6.4322e-07,4.8329,1.734e-12,3.5573e-06,-6.4322e-07,-4.8329,0.91882
11923,13.868,5.1818,0,0.0002338,2336.4,7.8652e-05,17.933,7.6264e-05,-0.0021722,-0.00023349,-2327.4,0.91984
11924,13.775,5.2727,0,0.00023618,2360.2,7.9352e-05,16.925,7.7099e-05,-0.0037134,-0.00023589,-2351.7,0.90879
11925,13.868,5.2727,0.05,8.4091e-07,8.4033,6.4571e-07,4.8516,8.3445e-13,8.6933e-07,-6.4572e-07,-4.8517,0.9195
11926,13.868,5,0,0.00023383,2336.7,7.8745e-05,18.94,7.6224e-05,0.00037895,-0.0002335,-2327.2,0.92043
11927,13.775,5.0909,0,0.0002362,2360.3,7.9437e-05,17.876,7.7057e-05,-0.00076818,-0.00023589,-2351.3,0.90942
11928,13.868,5.0909,0.05,8.4104e-07,8.4045,6.4581e-07,4.8523,8.7339e-13,1.0893e-06,-6.4581e-07,-4.8524,0.92012
11929,13.868,4.8182,0,0.00023386,2337,7.883e-05,19.85,7.6189e-05,0.0022749,-0.00023352,-2327,0.92098
11930,13.775,4.9091,0,0.00023622,2360.5,7.9516e-05,18.745,7.7021e-05,0.0012477,-0.00023589,-2351.1,0.91
11931,13.868,4.9091,0.05,8.4083e-07,8.4025,6.4565e-07,4.8511,8.4033e-13,-3.9359e-08,-6.4566e-07,-4.8512,0.92069
11932,13.868,4.6364,0,0.00023389,2337.3,7.8906e-05,20.655,7.6158e-05,0.0038156,-0.00023353,-2326.9,0.92148
11933,13.775,4.7273,0,0.00023624,2360.7,7.9587e-05,19.523,7.6989e-05,0.0029554,-0.0002359,-2350.9,0.91053
11934,13.868,4.7273,0.05,8.405e-07,8.3992,6.454e-07,4.8493,8.5219e-13,-1.1397e-06,-6.454e-07,-4.8493,0.92122
11935,13.868,4.4545,0,0.00023391,2337.5,7.8973e-05,21.352,7.6132e-05,0.0050176,-0.00023354,-2326.8,0.92192
11936,13.775,4.5455,0,0.00023626,2360.9,7.965e-05,20.204,7.6962e-05,0.004294,-0.00023591,-2350.8,0.911
11937,13.868,4.5455,0.05,8.4009e-07,8.3951,6.4509e-07,4.8469,-5.9074e-14,8.4267e-07,-6.4509e-07,-4.8469,0.92169
11938,13.868,4.2727,0,0.00023394,2337.8,7.903e-05,21.942,7.611e-05,0.005953,-0.00023356,-2326.7,0.92231
11939,13.775,4.3636,0,0.00023627,2361.1,7.9705e-05,20.789,7.6939e-05,0.0053517,-0.00023591,-2350.6,0.91142
11940,13.868,4.3636,0.05,8.3964e-07,8.3906,6.4473e-07,4.8443,2.673e-12,-1.0973e-06,-6.4474e-07,-4.8443,0.9221
11941,13.868,4.0909,0,0.00023396,2337.9,7.9077e-05,22.431,7.6092e-05,0.0066689,-0.00023357,-2326.6,0.92265
11942,13.775,4.1818,0,0.00023629,2361.3,7.9751e-05,21.28,7.6919e-05,0.006174,-0.00023592,-2350.5,0.91179
11943,13.868,4.1818,0.05,8.3916e-07,8.3858,6.4437e-07,4.8415,1.7775e-12,-1.0634e-06,-6.4437e-07,-4.8416,0.92247
11944,13.868,3.9091,0,0.00023397,2338.1,7.9115e-05,22.826,7.6078e-05,0.0072053,-0.00023358,-2326.6,0.92294
11945,13.775,4,0,0.0002363,2361.4,7.9788e-05,21.681,7.6904e-05,0.0068022,-0.00023592,-2350.5,0.91211
11946,13.868,4,0.05,8.3869e-07,8.3811,6.4401e-07,4.8388,2.688e-12,-7.5958e-07,-6.4401e-07,-4.8389,0.92278
11947,13.868,3.7273,0,0.00023398,2338.2,7.9145e-05,23.133,7.6067e-05,0.0075982,-0.00023358,-2326.6,0.92318
11948,13.775,3.8182,0,0.00023631,2361.5,7.9818e-05,21.999,7.6891e-05,0.0072715,-0.00023593,-2350.4,0.91237
11949,13.868,3.8182,0.05,8.3826e-07,8.3768,6.4368e-07,4.8363,8.7573e-13,-4.743e-07,-6.4368e-07,-4.8364,0.92304
11950,13.868,3.5455,0,0.00023399,2338.3,7.9167e-05,23.361,7.6059e-05,0.0078757,-0.00023359,-2326.6,0.92336
11951,13.775,3.6364,0,0.00023632,2361.6,7.9841e-05,22.243,7.6882e-05,0.0076128,-0.00023593,-2350.4,0.91258
11952,13.868,3.6364,0.05,8.3788e-07,8.373,6.4339e-07,4.8341,8.8401e-13,1.0078e-06,-6.4339e-07,-4.8342,0.92325
11953,13.868,3.3636,0,0.000234,2338.4,7.9182e-05,23.519,7.6053e-05,0.0080589,-0.00023359,-2326.5,0.92349
11954,13.775,3.4545,0,0.00023632,2361.6,7.9857e-05,22.418,7.6875e-05,0.0078493,-0.00023594,-2350.3,0.91274
11955,13.868,3.4545,0.05,8.3758e-07,8.37,6.4316e-07,4.8324,-1.8016e-14,1.2951e-06,-6.4316e-07,-4.8325,0.92341
11956,13.868,3.1818,0,0.000234,2338.4,7.9191e-05,23.61,7.605e-05,0.0081628,-0.00023359,-2326.5,0.92357
11957,13.775,3.2727,0,0.00023633,2361.7,7.9868e-05,22.531,7.687e-05,0.0079965,-0.00023594,-2350.3,0.91285
11958,13.868,3.2727,0.05,8.3737e-07,8.3679,6.4299e-07,4.8312,8.9893e-13,3.9589e-07,-6.43e-07,-4.8313,0.92352
11959,13.868,3,0,0.00023401,2338.4,7.9194e-05,23.641,7.6049e-05,0.0081959,-0.00023359,-2326.5,0.92359
11960,13.775,3.0909,0,0.00023633,2361.7,7.9873e-05,22.587,7.6868e-05,0.0080675,-0.00023594,-2350.3,0.9129
11961,13.868,3.0909,0.05,8.3726e-07,8.3669,6.4291e-07,4.8306,9.0603e-13,1.1659e-06,-6.4292e-07,-4.8306,0.92357
11962,13.868,2.8182,0,0.000234,2338.4,7.9191e-05,23.61,7.605e-05,0.0081623,-0.00023359,-2326.5,0.92357
11963,13.775,2.9091,0,0.00023633,2361.7,7.9873e-05,22.586,7.6868e-05,0.0080668,-0.00023594,-2350.3,0.9129
11964,13.868,2.9091,0.05,8.3726e-07,8.3669,6.4291e-07,4.8306,1.8225e-12,1.934e-06,-6.4292e-07,-4.8306,0.92357
11965,13.868,2.6364,0,0.000234,2338.4,7.9182e-05,23.519,7.6053e-05,0.0080592,-0.00023359,-2326.5,0.92349
11966,13.775,2.7273,0,0.00023633,2361.7,7.9868e-05,22.531,7.687e-05,0.0079966,-0.00023594,-2350.3,0.91285
11967,13.868,2.7273,0.05,8.3737e-07,8.3679,6.4299e-07,4.8312,9.2046e-13,1.9885e-06,-6.43e-07,-4.8313,0.92352
11968,13.868,2.4545,0,0.00023399,2338.3,7.9167e-05,23.361,7.6059e-05,0.0078768,-0.00023359,-2326.6,0.92336
11969,13.775,2.5455,0,0.00023632,2361.6,7.9857e-05,22.418,7.6875e-05,0.0078492,-0.00023594,-2350.3,0.91274
11970,13.868,2.5455,0.05,8.3758e-07,8.37,6.4315e-07,4.8324,2.7463e-12,1.8032e-06,-6.4316e-07,-4.8325,0.92341
11971,13.868,2.2727,0,0.00023398,2338.2,7.9145e-05,23.133,7.6067e-05,0.0075992,-0.00023358,-2326.6,0.92318
11972,13.775,2.3636,0,0.00023632,2361.6,7.9841e-05,22.243,7.6882e-05,0.0076133,-0.00023593,-2350.4,0.91258
11973,13.868,2.3636,0.05,8.3788e-07,8.373,6.4338e-07,4.8341,9.3599e-13,2.0989e-06,-6.4339e-07,-4.8342,0.92325
11974,13.868,2.0909,0,0.00023397,2338.1,7.9115e-05,22.826,7.6078e-05,0.0072057,-0.00023358,-2326.6,0.92294
11975,13.775,2.1818,0,0.00023631,2361.5,7.9818e-05,21.999,7.6891e-05,0.007272,-0.00023593,-2350.4,0.91237
11976,13.868,2.1818,0.05,8.3826e-07,8.3768,6.4368e-07,4.8363,1.8517e-12,1.6828e-06,-6.4368e-07,-4.8364,0.92304
11977,13.868,1.9091,0,0.00023396,2337.9,7.9077e-05,22.431,7.6092e-05,0.0066686,-0.00023357,-2326.6,0.92265
11978,13.775,2,0,0.0002363,2361.4,7.9788e-05,21.681,7.6904e-05,0.0068019,-0.00023592,-2350.5,0.91211
11979,13.868,2,0.05,8.3869e-07,8.3811,6.4401e-07,4.8388,1.8595e-12,1.4893e-06,-6.4401e-07,-4.8389,0.92278
11980,13.868,1.7273,0,0.00023394,2337.8,7.903e-05,21.942,7.611e-05,0.0059533,-0.00023356,-2326.7,0.92231
11981,13.775,1.8182,0,0.00023629,2361.3,7.9751e-05,21.279,7.6919e-05,0.0061736,-0.00023592,-2350.5,0.91179
11982,13.868,1.8182,0.05,8.3916e-07,8.3858,6.4437e-07,4.8415,1.8729e-12,1.7934e-06,-6.4437e-07,-4.8416,0.92247
11983,13.868,1.5455,0,0.00023391,2337.5,7.8973e-05,21.352,7.6132e-05,0.005018,-0.00023354,-2326.8,0.92192
11984,13.775,1.6364,0,0.00023627,2361.1,7.9705e-05,20.789,7.6939e-05,0.0053526,-0.00023591,-2350.6,0.91142
11985,13.868,1.6364,0.05,8.3964e-07,8.3906,6.4473e-07,4.8443,6.8656e-14,1.8749e-06,-6.4474e-07,-4.8443,0.9221
11986,13.868,1.3636,0,0.00023389,2337.3,7.8906e-05,20.655,7.6158e-05,0.0038159,-0.00023353,-2326.9,0.92148
11987,13.775,1.4545,0,0.00023626,2360.9,7.965e-05,20.204,7.6962e-05,0.0042941,-0.00023591,-2350.8,0.911
11988,13.868,1.4545,0.05,8.4009e-07,8.3951,6.4508e-07,4.8469,2.796e-12,1.5955e-06,-6.4509e-07,-4.8469,0.92169
11989,13.868,1.1818,0,0.00023386,2337,7.883e-05,19.85,7.6189e-05,0.0022758,-0.00023352,-2327,0.92098
11990,13.775,1.2727,0,0.00023624,2360.7,7.9587e-05,19.523,7.6989e-05,0.0029562,-0.0002359,-2350.9,0.91053
11991,13.868,1.2727,0.05,8.405e-07,8.3992,6.454e-07,4.8492,1.8848e-12,1.8012e-06,-6.454e-07,-4.8493,0.92122
11992,13.868,1,0,0.00023383,2336.7,7.8745e-05,18.94,7.6224e-05,0.00037947,-0.0002335,-2327.2,0.92043
11993,13.775,1.0909,0,0.00023622,2360.5,7.9516e-05,18.745,7.7021e-05,0.0012482,-0.00023589,-2351.1,0.91
11994,13.868,1.0909,0.05,8.4083e-07,8.4025,6.4565e-07,4.8511,1.8878e-12,1.5022e-06,-6.4565e-07,-4.8512,0.92069
11995,13.868,0.81818,0,0.0002338,2336.4,7.8652e-05,17.933,7.6264e-05,-0.0021712,-0.00023349,-2327.4,0.91984
11996,13.775,0.90909,0,0.0002362,2360.3,7.9437e-05,17.876,7.7057e-05,-0.00076756,-0.00023589,-2351.3,0.90942
11997,13.868,0.90909,0.05,8.4103e-07,8.4045,6.4581e-07,4.8524,2.8095e-12,1.0883e-06,-6.4581e-07,-4.8524,0.92012
11998,13.868,0.63636,0,0.00023378,2336.2,7.8553e-05,16.844,7.631e-05,-0.0046101,-0.00023349,-2327.7,0.91919
11999,13.775,0.72727,0,0.00023618,2360.2,7.9352e-05,16.925,7.7099e-05,-0.0037113,-0.00023589,-2351.7,0.90879
12000,13.868,0.72727,0.05,8.4091e-07,8.4033,6.4572e-07,4.8516,2.8223e-12,1.1865e-06,-6.4572e-07,-4.8517,0.9195
12001,13.868,0.45455,0,0.00023376,2336,7.8455e-05,15.726,7.6361e-05,-0.011868,-0.00023349,-2328.1,0.91848
12002,13.775,0.54545,0,0.00023617,2360,7.9264e-05,15.911,7.7145e-05,-0.0054822,-0.00023589,-2352,0.90811
12003,13.868,0.54545,0.05,8.3766e-07,8.3708,6.4322e-07,4.8329,2.7899e-12,1.0112e-06,-6.4322e-07,-4.833,0.91882
12004,13.868,0.27273,0,0.00023387,2337.1,7.8452e-05,15.273,7.6418e-05,-0.010972,-0.0002336,-2329.4,0.91773
12005,13.775,0.36364,0,0.00023617,2360.1,7.9184e-05,14.925,7.7196e-05,-0.017415,-0.00023592,-2352.6,0.90738
12006,13.868,0.36364,0.05,7.8881e-07,7.8826,6.057e-07,4.551,2.7491e-12,7.5332e-07,-6.0571e-07,-4.5511,0.91809
12007,13.775,0.18182,0,0.00023641,2362.5,7.9294e-05,15.326,7.7254e-05,-0.00084066,-0.00023614,-2354.8,0.90659
12008,13.868,0.18182,0.05,5.8189e-08,0.58148,4.4681e-08,0.3357,-1.2028e-12,-2.8586e-05,-4.4682e-08,-0.33573,0.91731
12009,13.868,0.090909,0,0.00023326,2331,7.7824e-05,10.136,7.6474e-05,-0.0052293,-0.00023309,-2326,0.91693
12010,13.683,5.7273,0,0.0002387,2385.3,8.0013e-05,14.872,7.8032e-05,-0.010037,-0.00023844,-2377.9,0.89629
12011,13.591,5.8182,0,0.00024126,2410.9,8.087e-05,15.046,7.8868e-05,-0.00073055,-0.000241,-2403.3,0.88522
12012,13.683,5.8182,0.05,5.2353e-08,0.52317,4.0201e-08,0.30204,-1.9819e-12,-3.0534e-05,-4.0199e-08,-0.30206,0.89587
12013,13.683,5.9091,0,0.00023812,2379.5,7.9412e-05,9.978,7.8083e-05,-0.004925,-0.00023794,-2374.5,0.89547
12014,13.683,5.5455,0,0.00023857,2384.1,7.9988e-05,15.079,7.798e-05,-0.011034,-0.00023831,-2376.5,0.89705
12015,13.591,5.6364,0,0.000241,2408.4,8.0734e-05,14.404,7.8815e-05,-0.015987,-0.00024075,-2401.1,0.88602
12016,13.683,5.6364,0.05,7.9051e-07,7.8997,6.0701e-07,4.5608,8.6853e-13,2.9945e-06,-6.0701e-07,-4.5609,0.89666
12017,13.683,5.3636,0,0.00023856,2384,8.0059e-05,15.966,7.7934e-05,-0.004471,-0.00023829,-2376,0.89777
12018,13.591,5.4545,0,0.00024097,2408.1,8.0787e-05,15.158,7.8769e-05,-0.0052468,-0.00024071,-2400.5,0.88677
12019,13.683,5.4545,0.05,8.3984e-07,8.3926,6.4489e-07,4.8454,8.8332e-13,3.4948e-06,-6.4489e-07,-4.8455,0.8974
12020,13.683,5.1818,0,0.00023857,2384,8.0134e-05,16.842,7.7892e-05,-0.0022132,-0.00023828,-2375.6,0.89843
12021,13.591,5.2727,0,0.00024096,2408,8.085e-05,15.954,7.8726e-05,-0.003623,-0.00024069,-2400,0.88746
12022,13.683,5.2727,0.05,8.4321e-07,8.4262,6.4748e-07,4.8649,8.3974e-13,8.3472e-07,-6.4748e-07,-4.8649,0.89809
12023,13.683,5,0,0.00023858,2384.1,8.0204e-05,17.656,7.7854e-05,0.00017777,-0.00023827,-2375.3,0.89904
12024,13.591,5.0909,0,0.00024096,2408,8.0912e-05,16.706,7.8689e-05,-0.00089424,-0.00024067,-2399.6,0.8881
12025,13.683,5.0909,0.05,8.4345e-07,8.4286,6.4766e-07,4.8663,-5.9692e-14,9.2841e-07,-6.4766e-07,-4.8663,0.89872
12026,13.683,4.8182,0,0.00023859,2384.2,8.0269e-05,18.394,7.7821e-05,0.0019902,-0.00023827,-2375,0.8996
12027,13.591,4.9091,0,0.00024096,2408,8.097e-05,17.395,7.8655e-05,0.0010162,-0.00024066,-2399.2,0.88869
12028,13.683,4.9091,0.05,8.4338e-07,8.428,6.4761e-07,4.8659,2.6721e-12,2.5697e-07,-6.4761e-07,-4.8659,0.89931
12029,13.683,4.6364,0,0.0002386,2384.4,8.0328e-05,19.049,7.7793e-05,0.0034842,-0.00023827,-2374.8,0.9001
12030,13.591,4.7273,0,0.00024097,2408,8.1023e-05,18.015,7.8625e-05,0.0026578,-0.00024066,-2398.9,0.88923
12031,13.683,4.7273,0.05,8.432e-07,8.4262,6.4747e-07,4.8648,1.7695e-12,-1.5513e-06,-6.4748e-07,-4.8649,0.89984
12032,13.683,4.4545,0,0.00023861,2384.5,8.0379e-05,19.619,7.7768e-05,0.0046698,-0.00023827,-2374.6,0.90055
12033,13.591,4.5455,0,0.00024097,2408,8.1069e-05,18.559,7.86e-05,0.0039653,-0.00024065,-2398.7,0.88971
12034,13.683,4.5455,0.05,8.4296e-07,8.4238,6.4729e-07,4.8634,1.7679e-12,6.1822e-07,-6.4729e-07,-4.8635,0.90031
12035,13.683,4.2727,0,0.00023862,2384.6,8.0423e-05,20.104,7.7748e-05,0.0056081,-0.00023827,-2374.4,0.90095
12036,13.591,4.3636,0,0.00024098,2408.1,8.111e-05,19.027,7.8578e-05,0.0050163,-0.00024065,-2398.5,0.89014
12037,13.683,4.3636,0.05,8.4266e-07,8.4208,6.4706e-07,4.8617,-4.6212e-14,-1.0095e-06,-6.4706e-07,-4.8618,0.90074
12038,13.683,4.0909,0,0.00023863,2384.7,8.0459e-05,20.507,7.773e-05,0.0063381,-0.00023827,-2374.3,0.9013
12039,13.591,4.1818,0,0.00024098,2408.1,8.1144e-05,19.421,7.856e-05,0.0058449,-0.00024064,-2398.4,0.89051
12040,13.683,4.1818,0.05,8.4235e-07,8.4177,6.4682e-07,4.8599,1.7765e-12,-1.606e-06,-6.4682e-07,-4.86,0.90111
12041,13.683,3.9091,0,0.00023864,2384.7,8.0488e-05,20.833,7.7717e-05,0.0068959,-0.00023828,-2374.2,0.90159
12042,13.591,4,0,0.00024098,2408.2,8.1172e-05,19.744,7.8545e-05,0.00649,-0.00024064,-2398.2,0.89084
12043,13.683,4,0.05,8.4203e-07,8.4145,6.4657e-07,4.8581,-3.4891e-14,-1.2155e-06,-6.4658e-07,-4.8582,0.90143
12044,13.683,3.7273,0,0.00023864,2384.8,8.0511e-05,21.088,7.7706e-05,0.0073114,-0.00023828,-2374.2,0.90183
12045,13.591,3.8182,0,0.00024098,2408.2,8.1194e-05,20.001,7.8533e-05,0.0069797,-0.00024064,-2398.1,0.8911
12046,13.683,3.8182,0.05,8.4173e-07,8.4115,6.4634e-07,4.8564,-2.8296e-14,-6.954e-07,-6.4635e-07,-4.8564,0.9017
12047,13.683,3.5455,0,0.00023865,2384.8,8.0529e-05,21.278,7.7698e-05,0.0076102,-0.00023828,-2374.1,0.90202
12048,13.591,3.6364,0,0.00024099,2408.2,8.1211e-05,20.198,7.8523e-05,0.007342,-0.00024064,-2398,0.89132
12049,13.683,3.6364,0.05,8.4147e-07,8.4089,6.4614e-07,4.8549,8.8702e-13,2.9749e-07,-6.4615e-07,-4.8549,0.90191
12050,13.683,3.3636,0,0.00023865,2384.8,8.054e-05,21.409,7.7692e-05,0.0078098,-0.00023828,-2374.1,0.90215
12051,13.591,3.4545,0,0.00024099,2408.2,8.1223e-05,20.34,7.8517e-05,0.0075963,-0.00024063,-2398,0.89148
12052,13.683,3.4545,0.05,8.4126e-07,8.4068,6.4598e-07,4.8536,1.803e-12,5.9265e-07,-6.4599e-07,-4.8537,0.90207
12053,13.683,3.1818,0,0.00023865,2384.9,8.0547e-05,21.486,7.7689e-05,0.0079236,-0.00023828,-2374,0.90223
12054,13.591,3.2727,0,0.00024099,2408.2,8.1231e-05,20.432,7.8512e-05,0.0077561,-0.00024063,-2397.9,0.89159
12055,13.683,3.2727,0.05,8.4111e-07,8.4053,6.4587e-07,4.8527,1.8093e-12,-3.1156e-07,-6.4587e-07,-4.8529,0.90218
12056,13.683,3,0,0.00023865,2384.9,8.0549e-05,21.511,7.7687e-05,0.0079606,-0.00023828,-2374,0.90226
12057,13.591,3.0909,0,0.00024099,2408.2,8.1234e-05,20.476,7.851e-05,0.0078334,-0.00024063,-2397.9,0.89164
12058,13.683,3.0909,0.05,8.4104e-07,8.4046,6.4581e-07,4.8523,1.8158e-12,4.5281e-07,-6.4581e-07,-4.8524,0.90223
12059,13.683,2.8182,0,0.00023865,2384.9,8.0547e-05,21.486,7.7689e-05,0.0079234,-0.00023828,-2374,0.90223
12060,13.591,2.9091,0,0.00024099,2408.2,8.1234e-05,20.476,7.851e-05,0.0078337,-0.00024063,-2397.9,0.89164
12061,13.683,2.9091,0.05,8.4104e-07,8.4046,6.4581e-07,4.8523,1.8222e-12,1.4548e-06,-6.4581e-07,-4.8524,0.90223
12062,13.683,2.6364,0,0.00023865,2384.8,8.054e-05,21.409,7.7692e-05,0.0078094,-0.00023828,-2374.1,0.90215
12063,13.591,2.7273,0,0.00024099,2408.2,8.1231e-05,20.431,7.8512e-05,0.0077562,-0.00024063,-2397.9,0.89159
12064,13.683,2.7273,0.05,8.4111e-07,8.4053,6.4587e-07,4.8527,1.8289e-12,1.5043e-06,-6.4587e-07,-4.8529,0.90218
12065,13.683,2.4545,0,0.00023865,2384.8,8.0529e-05,21.278,7.7698e-05,0.0076095,-0.00023828,-2374.1,0.90202
12066,13.591,2.5455,0,0.00024099,2408.2,8.1223e-05,20.34,7.8517e-05,0.0075958,-0.00024063,-2398,0.89148
12067,13.683,2.5455,0.05,8.4126e-07,8.4068,6.4598e-07,4.8536,1.835e-12,1.318e-06,-6.4599e-07,-4.8537,0.90207
12068,13.683,2.2727,0,0.00023864,2384.8,8.0511e-05,21.088,7.7706e-05,0.0073114,-0.00023828,-2374.2,0.90183
12069,13.591,2.3636,0,0.00024099,2408.2,8.1211e-05,20.198,7.8523e-05,0.0073416,-0.00024064,-2398,0.89132
12070,13.683,2.3636,0.05,8.4147e-07,8.4089,6.4614e-07,4.8548,1.8414e-12,1.1279e-06,-6.4615e-07,-4.8549,0.90191
12071,13.683,2.0909,0,0.00023864,2384.7,8.0488e-05,20.833,7.7717e-05,0.0068958,-0.00023828,-2374.2,0.90159
12072,13.591,2.1818,0,0.00024098,2408.2,8.1194e-05,20.001,7.8533e-05,0.0069805,-0.00024064,-2398.1,0.8911
12073,13.683,2.1818,0.05,8.4173e-07,8.4115,6.4634e-07,4.8564,3.6686e-12,1.185e-06,-6.4635e-07,-4.8564,0.9017
12074,13.683,1.9091,0,0.00023863,2384.7,8.0459e-05,20.507,7.773e-05,0.0063377,-0.00023827,-2374.3,0.9013
12075,13.591,2,0,0.00024098,2408.2,8.1172e-05,19.744,7.8545e-05,0.0064898,-0.00024064,-2398.2,0.89084
12076,13.683,2,0.05,8.4203e-07,8.4145,6.4657e-07,4.8581,2.7649e-12,7.5787e-07,-6.4658e-07,-4.8582,0.90143
12077,13.683,1.7273,0,0.00023862,2384.6,8.0423e-05,20.104,7.7748e-05,0.0056083,-0.00023827,-2374.4,0.90095
12078,13.591,1.8182,0,0.00024098,2408.1,8.1144e-05,19.421,7.856e-05,0.0058452,-0.00024064,-2398.4,0.89051
12079,13.683,1.8182,0.05,8.4235e-07,8.4177,6.4682e-07,4.8599,3.6805e-12,1.4114e-06,-6.4682e-07,-4.86,0.90111
12080,13.683,1.5455,0,0.00023861,2384.5,8.0379e-05,19.619,7.7768e-05,0.0046705,-0.00023827,-2374.6,0.90055
12081,13.591,1.6364,0,0.00024098,2408.1,8.111e-05,19.027,7.8578e-05,0.0050163,-0.00024065,-2398.5,0.89014
12082,13.683,1.6364,0.05,8.4266e-07,8.4208,6.4706e-07,4.8618,2.7785e-12,1.5939e-06,-6.4706e-07,-4.8618,0.90074
12083,13.683,1.3636,0,0.0002386,2384.4,8.0328e-05,19.049,7.7793e-05,0.0034848,-0.00023827,-2374.8,0.9001
12084,13.591,1.4545,0,0.00024097,2408,8.1069e-05,18.559,7.86e-05,0.0039659,-0.00024065,-2398.7,0.88971
12085,13.683,1.4545,0.05,8.4296e-07,8.4238,6.4728e-07,4.8634,1.8732e-12,1.328e-06,-6.4729e-07,-4.8635,0.90031
12086,13.683,1.1818,0,0.00023859,2384.2,8.0269e-05,18.394,7.7821e-05,0.0019905,-0.00023827,-2375,0.8996
12087,13.591,1.2727,0,0.00024097,2408,8.1023e-05,18.015,7.8625e-05,0.0026581,-0.00024066,-2398.9,0.88923
12088,13.683,1.2727,0.05,8.432e-07,8.4262,6.4747e-07,4.8649,1.8754e-12,1.1863e-06,-6.4748e-07,-4.8649,0.89984
12089,13.683,1,0,0.00023858,2384.1,8.0204e-05,17.655,7.7854e-05,0.00017831,-0.00023827,-2375.3,0.89904
12090,13.591,1.0909,0,0.00024096,2408,8.097e-05,17.395,7.8655e-05,0.0010169,-0.00024066,-2399.2,0.88869
12091,13.683,1.0909,0.05,8.4338e-07,8.428,6.4761e-07,4.8659,1.8761e-12,9.032e-07,-6.4761e-07,-4.8659,0.89931
12092,13.683,0.81818,0,0.00023857,2384,8.0134e-05,16.842,7.7892e-05,-0.0022115,-0.00023828,-2375.6,0.89843
12093,13.591,0.90909,0,0.00024096,2408,8.0912e-05,16.706,7.8689e-05,-0.00089323,-0.00024067,-2399.6,0.8881
12094,13.683,0.90909,0.05,8.4345e-07,8.4286,6.4766e-07,4.8662,3.6838e-12,-4.2271e-09,-6.4767e-07,-4.8663,0.89872
12095,13.683,0.63636,0,0.00023856,2384,8.0059e-05,15.966,7.7934e-05,-0.0044697,-0.00023829,-2376,0.89777
12096,13.591,0.72727,0,0.00024096,2408,8.085e-05,15.954,7.8726e-05,-0.0036214,-0.00024069,-2400,0.88746
12097,13.683,0.72727,0.05,8.4321e-07,8.4262,6.4748e-07,4.8649,2.7989e-12,-8.5894e-07,-6.4748e-07,-4.8649,0.89809
12098,13.683,0.45455,0,0.00023857,2384.1,7.9988e-05,15.079,7.798e-05,-0.011034,-0.00023831,-2376.5,0.89705
12099,13.591,0.54545,0,0.00024097,2408.1,8.0787e-05,15.158,7.8769e-05,-0.0052472,-0.00024071,-2400.5,0.88677
12100,13.683,0.54545,0.05,8.3984e-07,8.3926,6.4489e-07,4.8454,1.8746e-12,-1.0085e-06,-6.4489e-07,-4.8455,0.8974
12101,13.683,0.27273,0,0.0002387,2385.3,8.0013e-05,14.872,7.8032e-05,-0.010036,-0.00023844,-2377.9,0.89629
12102,13.591,0.36364,0,0.000241,2408.4,8.0734e-05,14.404,7.8815e-05,-0.015987,-0.00024075,-2401.1,0.88602
12103,13.683,0.36364,0.05,7.9051e-07,7.8997,6.0701e-07,4.5608,9.7274e-13,1.156e-06,-6.0702e-07,-4.5609,0.89666
12104,13.591,0.18182,0,0.00024126,2410.9,8.087e-05,15.046,7.8868e-05,-0.00072952,-0.000241,-2403.3,0.88522
12105,13.683,0.18182,0.05,5.2354e-08,0.52317,4.0201e-08,0.30204,-1.4291e-13,-2.2926e-05,-4.0201e-08,-0.30207,0.89587
12106,13.683,0.090909,0,0.00023812,2379.5,7.9412e-05,9.978,7.8083e-05,-0.0049243,-0.00023794,-2374.5,0.89547
12107,13.498,5.7273,0,0.00024354,2433.7,8.1578e-05,14.474,7.965e-05,-0.0091798,-0.00024329,-2426.5,0.87501
12108,13.406,5.8182,0,0.00024612,2459.5,8.2451e-05,14.761,8.0486e-05,-0.00067989,-0.00024586,-2452.1,0.86402
12109,13.498,5.8182,0.05,4.7286e-08,0.47253,3.6308e-08,0.27281,-3.5889e-12,-1.6214e-05,-3.6311e-08,-0.27282,0.87458
12110,13.498,5.9091,0,0.00024298,2428.1,8.1004e-05,9.8154,7.9697e-05,-0.0046232,-0.00024281,-2423.2,0.87418
12111,13.498,5.5455,0,0.0002434,2432.3,8.1528e-05,14.453,7.9603e-05,-0.01023,-0.00024315,-2425,0.87579
12112,13.406,5.6364,0,0.00024584,2456.7,8.2289e-05,13.895,8.0438e-05,-0.01463,-0.00024561,-2449.8,0.86483
12113,13.498,5.6364,0.05,7.9253e-07,7.9198,6.0856e-07,4.5725,9.0261e-13,3.3482e-06,-6.0856e-07,-4.5725,0.87538
12114,13.498,5.3636,0,0.00024337,2432,8.1574e-05,15.12,7.9561e-05,-0.0043105,-0.00024311,-2424.4,0.87652
12115,13.406,5.4545,0,0.0002458,2456.3,8.2318e-05,14.428,8.0397e-05,-0.0049996,-0.00024555,-2449,0.86559
12116,13.498,5.4545,0.05,8.4228e-07,8.417,6.4676e-07,4.8595,-3.5042e-14,3.7648e-06,-6.4676e-07,-4.8596,0.87614
12117,13.498,5.1818,0,0.00024335,2431.9,8.1625e-05,15.793,7.9523e-05,-0.0022253,-0.00024308,-2423.9,0.87719
12118,13.406,5.2727,0,0.00024577,2456,8.2357e-05,15.017,8.0358e-05,-0.0035118,-0.00024551,-2448.4,0.8663
12119,13.498,5.2727,0.05,8.4574e-07,8.4516,6.4942e-07,4.8795,2.6961e-12,9.5938e-07,-6.4942e-07,-4.8795,0.87684
12120,13.498,5,0,0.00024334,2431.8,8.1674e-05,16.421,7.9489e-05,9.5089e-06,-0.00024306,-2423.5,0.87781
12121,13.406,5.0909,0,0.00024575,2455.8,8.2397e-05,15.577,8.0324e-05,-0.00099127,-0.00024548,-2448,0.86695
12122,13.498,5.0909,0.05,8.4607e-07,8.4549,6.4968e-07,4.8814,1.7654e-12,9.6074e-07,-6.4968e-07,-4.8815,0.87749
12123,13.498,4.8182,0,0.00024334,2431.7,8.172e-05,16.993,7.9459e-05,0.0017379,-0.00024305,-2423.2,0.87838
12124,13.406,4.9091,0,0.00024573,2455.6,8.2435e-05,16.093,8.0293e-05,0.00081442,-0.00024545,-2447.5,0.86755
12125,13.498,4.9091,0.05,8.4611e-07,8.4553,6.4971e-07,4.8817,8.6241e-13,7.6842e-08,-6.4971e-07,-4.8817,0.87808
12126,13.498,4.6364,0,0.00024333,2431.7,8.1761e-05,17.501,7.9432e-05,0.0031841,-0.00024303,-2422.9,0.87889
12127,13.406,4.7273,0,0.00024572,2455.5,8.2469e-05,16.557,8.0266e-05,0.0023877,-0.00024543,-2447.2,0.86809
12128,13.498,4.7273,0.05,8.4606e-07,8.4548,6.4967e-07,4.8813,8.6634e-13,-8.0032e-07,-6.4967e-07,-4.8814,0.87862
12129,13.498,4.4545,0,0.00024333,2431.6,8.1797e-05,17.945,7.9409e-05,0.0043501,-0.00024302,-2422.6,0.87935
12130,13.406,4.5455,0,0.00024571,2455.4,8.25e-05,16.965,8.0243e-05,0.0036629,-0.00024542,-2446.9,0.86858
12131,13.498,4.5455,0.05,8.4594e-07,8.4536,6.4958e-07,4.8806,1.7771e-12,2.694e-07,-6.4958e-07,-4.8807,0.8791
12132,13.498,4.2727,0,0.00024333,2431.6,8.1828e-05,18.322,7.939e-05,0.0052865,-0.00024301,-2422.4,0.87975
12133,13.406,4.3636,0,0.0002457,2455.3,8.2527e-05,17.317,8.0223e-05,0.0047024,-0.0002454,-2446.6,0.86902
12134,13.498,4.3636,0.05,8.4578e-07,8.4519,6.4945e-07,4.8797,8.7411e-13,-1.2523e-06,-6.4945e-07,-4.8798,0.87954
12135,13.498,4.0909,0,0.00024333,2431.6,8.1854e-05,18.637,7.9374e-05,0.0060267,-0.00024301,-2422.2,0.88011
12136,13.406,4.1818,0,0.00024569,2455.2,8.2549e-05,17.612,8.0206e-05,0.0055351,-0.00024539,-2446.4,0.8694
12137,13.498,4.1818,0.05,8.4559e-07,8.4501,6.4931e-07,4.8786,8.7678e-13,-1.587e-06,-6.4931e-07,-4.8787,0.87992
12138,13.498,3.9091,0,0.00024333,2431.6,8.1874e-05,18.891,7.9361e-05,0.0066012,-0.000243,-2422.1,0.8804
12139,13.406,4,0,0.00024569,2455.2,8.2567e-05,17.854,8.0192e-05,0.0061931,-0.00024538,-2446.2,0.86973
12140,13.498,4,0.05,8.4539e-07,8.4481,6.4915e-07,4.8775,1.7885e-12,-1.3198e-06,-6.4915e-07,-4.8775,0.88024
12141,13.498,3.7273,0,0.00024333,2431.6,8.189e-05,19.09,7.935e-05,0.0070359,-0.00024299,-2422,0.88065
12142,13.406,3.8182,0,0.00024568,2455.1,8.2581e-05,18.046,8.018e-05,0.0066998,-0.00024537,-2446.1,0.87
12143,13.498,3.8182,0.05,8.452e-07,8.4461,6.49e-07,4.8764,1.7927e-12,-7.8909e-07,-6.4901e-07,-4.8764,0.88051
12144,13.498,3.5455,0,0.00024332,2431.6,8.1902e-05,19.239,7.9343e-05,0.0073525,-0.00024299,-2421.9,0.88084
12145,13.406,3.6364,0,0.00024568,2455.1,8.2592e-05,18.193,8.0172e-05,0.0070801,-0.00024536,-2445.9,0.87022
12146,13.498,3.6364,0.05,8.4502e-07,8.4444,6.4887e-07,4.8754,8.9026e-13,5.6743e-07,-6.4888e-07,-4.8754,0.88073
12147,13.498,3.3636,0,0.00024332,2431.5,8.191e-05,19.341,7.9337e-05,0.0075663,-0.00024299,-2421.8,0.88097
12148,13.406,3.4545,0,0.00024567,2455.1,8.26e-05,18.298,8.0165e-05,0.0073495,-0.00024536,-2445.8,0.87038
12149,13.498,3.4545,0.05,8.4488e-07,8.443,6.4877e-07,4.8745,1.8045e-12,8.46e-07,-6.4877e-07,-4.8746,0.88089
12150,13.498,3.1818,0,0.00024332,2431.5,8.1915e-05,19.401,7.9334e-05,0.0076893,-0.00024299,-2421.8,0.88105
12151,13.406,3.2727,0,0.00024567,2455,8.2604e-05,18.366,8.0161e-05,0.0075214,-0.00024535,-2445.8,0.87049
12152,13.498,3.2727,0.05,8.4479e-07,8.442,6.4869e-07,4.874,3.6294e-12,-3.0389e-07,-6.4869e-07,-4.874,0.881
12153,13.498,3,0,0.00024332,2431.5,8.1917e-05,19.421,7.9333e-05,0.0077298,-0.00024299,-2421.8,0.88108
12154,13.406,3.0909,0,0.00024567,2455,8.2607e-05,18.4,8.0159e-05,0.0076042,-0.00024535,-2445.8,0.87055
12155,13.498,3.0909,0.05,8.4473e-07,8.4415,6.4865e-07,4.8737,1.8161e-12,4.5504e-07,-6.4865e-07,-4.8737,0.88105
12156,13.498,2.8182,0,0.00024332,2431.5,8.1915e-05,19.401,7.9334e-05,0.0076898,-0.00024299,-2421.8,0.88105
12157,13.406,2.9091,0,0.00024567,2455,8.2607e-05,18.4,8.0159e-05,0.007605,-0.00024535,-2445.8,0.87055
12158,13.498,2.9091,0.05,8.4473e-07,8.4415,6.4865e-07,4.8737,1.8219e-12,1.2142e-06,-6.4865e-07,-4.8737,0.88105
12159,13.498,2.6364,0,0.00024332,2431.5,8.191e-05,19.341,7.9337e-05,0.0075663,-0.00024299,-2421.8,0.88097
12160,13.406,2.7273,0,0.00024567,2455,8.2604e-05,18.366,8.0161e-05,0.0075209,-0.00024535,-2445.8,0.87049
12161,13.498,2.7273,0.05,8.4479e-07,8.442,6.4869e-07,4.874,2.7374e-12,1.0209e-06,-6.4869e-07,-4.874,0.881
12162,13.498,2.4545,0,0.00024332,2431.6,8.1902e-05,19.238,7.9343e-05,0.0073523,-0.00024299,-2421.9,0.88084
12163,13.406,2.5455,0,0.00024567,2455.1,8.26e-05,18.298,8.0165e-05,0.0073496,-0.00024536,-2445.8,0.87038
12164,13.498,2.5455,0.05,8.4488e-07,8.443,6.4876e-07,4.8746,1.8339e-12,8.2999e-07,-6.4877e-07,-4.8746,0.88089
12165,13.498,2.2727,0,0.00024333,2431.6,8.189e-05,19.09,7.935e-05,0.0070363,-0.00024299,-2422,0.88065
12166,13.406,2.3636,0,0.00024568,2455.1,8.2592e-05,18.193,8.0172e-05,0.00708,-0.00024536,-2445.9,0.87022
12167,13.498,2.3636,0.05,8.4502e-07,8.4444,6.4887e-07,4.8754,2.7485e-12,1.1117e-06,-6.4888e-07,-4.8754,0.88073
12168,13.498,2.0909,0,0.00024333,2431.6,8.1874e-05,18.891,7.9361e-05,0.0066019,-0.000243,-2422.1,0.8804
12169,13.406,2.1818,0,0.00024568,2455.1,8.2581e-05,18.046,8.018e-05,0.0067006,-0.00024537,-2446.1,0.87
12170,13.498,2.1818,0.05,8.452e-07,8.4461,6.4901e-07,4.8763,9.3597e-13,7.902e-07,-6.4901e-07,-4.8764,0.88051
12171,13.498,1.9091,0,0.00024333,2431.6,8.1854e-05,18.637,7.9374e-05,0.0060271,-0.00024301,-2422.2,0.88011
12172,13.406,2,0,0.00024569,2455.2,8.2567e-05,17.854,8.0192e-05,0.0061936,-0.00024538,-2446.2,0.86973
12173,13.498,2,0.05,8.4539e-07,8.4481,6.4915e-07,4.8775,1.8515e-12,7.2967e-07,-6.4916e-07,-4.8775,0.88024
12174,13.498,1.7273,0,0.00024333,2431.6,8.1828e-05,18.322,7.939e-05,0.0052867,-0.00024301,-2422.4,0.87975
12175,13.406,1.8182,0,0.00024569,2455.2,8.2549e-05,17.612,8.0206e-05,0.0055355,-0.00024539,-2446.4,0.8694
12176,13.498,1.8182,0.05,8.4559e-07,8.4501,6.493e-07,4.8786,1.8582e-12,1.0204e-06,-6.4931e-07,-4.8787,0.87992
12177,13.498,1.5455,0,0.00024333,2431.6,8.1797e-05,17.945,7.9409e-05,0.0043502,-0.00024302,-2422.6,0.87935
12178,13.406,1.6364,0,0.0002457,2455.3,8.2527e-05,17.317,8.0223e-05,0.0047024,-0.0002454,-2446.6,0.86902
12179,13.498,1.6364,0.05,8.4578e-07,8.4519,6.4945e-07,4.8797,1.8619e-12,5.67e-07,-6.4946e-07,-4.8798,0.87954
12180,13.498,1.3636,0,0.00024333,2431.7,8.1761e-05,17.501,7.9432e-05,0.0031844,-0.00024303,-2422.9,0.87889
12181,13.406,1.4545,0,0.00024571,2455.4,8.25e-05,16.965,8.0243e-05,0.0036632,-0.00024542,-2446.9,0.86858
12182,13.498,1.4545,0.05,8.4594e-07,8.4536,6.4958e-07,4.8806,1.8687e-12,7.9762e-07,-6.4958e-07,-4.8807,0.8791
12183,13.498,1.1818,0,0.00024334,2431.7,8.172e-05,16.992,7.9459e-05,0.0017386,-0.00024305,-2423.2,0.87838
12184,13.406,1.2727,0,0.00024572,2455.5,8.2469e-05,16.557,8.0266e-05,0.0023883,-0.00024543,-2447.2,0.86809
12185,13.498,1.2727,0.05,8.4606e-07,8.4548,6.4967e-07,4.8813,1.8714e-12,7.3314e-07,-6.4967e-07,-4.8814,0.87862
12186,13.498,1,0,0.00024334,2431.8,8.1674e-05,16.421,7.9489e-05,1.0724e-05,-0.00024306,-2423.5,0.87781
12187,13.406,1.0909,0,0.00024573,2455.6,8.2435e-05,16.093,8.0293e-05,0.00081544,-0.00024545,-2447.5,0.86755
12188,13.498,1.0909,0.05,8.4611e-07,8.4553,6.4971e-07,4.8817,2.7847e-12,8.6185e-07,-6.4971e-07,-4.8817,0.87808
12189,13.498,0.81818,0,0.00024335,2431.9,8.1625e-05,15.793,7.9523e-05,-0.0022244,-0.00024308,-2423.9,0.87719
12190,13.406,0.90909,0,0.00024575,2455.8,8.2397e-05,15.577,8.0324e-05,-0.00098981,-0.00024548,-2448,0.86695
12191,13.498,0.90909,0.05,8.4607e-07,8.4549,6.4968e-07,4.8814,1.8768e-12,-1.76e-07,-6.4968e-07,-4.8814,0.87749
12192,13.498,0.63636,0,0.00024337,2432,8.1574e-05,15.12,7.9561e-05,-0.0043105,-0.00024311,-2424.4,0.87652
12193,13.406,0.72727,0,0.00024577,2456,8.2357e-05,15.017,8.0358e-05,-0.0035111,-0.00024551,-2448.4,0.8663
12194,13.498,0.72727,0.05,8.4574e-07,8.4516,6.4942e-07,4.8794,1.8542e-12,-1.3696e-06,-6.4943e-07,-4.8796,0.87684
12195,13.498,0.45455,0,0.0002434,2432.3,8.1528e-05,14.453,7.9603e-05,-0.010231,-0.00024315,-2425,0.87579
12196,13.406,0.54545,0,0.0002458,2456.3,8.2318e-05,14.428,8.0397e-05,-0.0049993,-0.00024555,-2449,0.86559
12197,13.498,0.54545,0.05,8.4228e-07,8.417,6.4676e-07,4.8595,3.6254e-12,-2.3526e-06,-6.4677e-07,-4.8596,0.87614
12198,13.498,0.27273,0,0.00024354,2433.7,8.1578e-05,14.474,7.965e-05,-0.0091792,-0.00024329,-2426.5,0.87501
12199,13.406,0.36364,0,0.00024584,2456.7,8.2289e-05,13.895,8.0438e-05,-0.01463,-0.00024561,-2449.8,0.86483
12200,13.498,0.36364,0.05,7.9253e-07,7.9198,6.0856e-07,4.5725,2.731e-12,-4.9569e-07,-6.0857e-07,-4.5726,0.87538
12201,13.406,0.18182,0,0.00024612,2459.5,8.2451e-05,14.761,8.0486e-05,-0.00067913,-0.00024586,-2452.1,0.86402
12202,13.498,0.18182,0.05,4.7287e-08,0.47254,3.6309e-08,0.27281,-2.9266e-12,-1.2981e-05,-3.6312e-08,-0.27283,0.87458
12203,13.498,0.090909,0,0.00024298,2428.1,8.1004e-05,9.8154,7.9697e-05,-0.0046226,-0.00024281,-2423.2,0.87418
12204,13.313,5.7273,0,0.0002484,2482.3,8.3148e-05,14.078,8.1274e-05,-0.0083867,-0.00024816,-2475.2,0.85389
12205,13.221,5.8182,0,0.00025099,2508.2,8.4035e-05,14.47,8.2109e-05,-0.00067976,-0.00025074,-2500.9,0.84298
12206,13.313,5.8182,0.05,4.2902e-08,0.42873,3.2944e-08,0.2475,6.6341e-13,-4.5174e-05,-3.2943e-08,-0.24755,0.85346
12207,13.313,5.9091,0,0.00024786,2476.9,8.26e-05,9.6479,8.1315e-05,-0.004326,-0.0002477,-2472.1,0.85305
12208,13.313,5.5455,0,0.00024824,2480.7,8.3075e-05,13.84,8.1231e-05,-0.0094502,-0.000248,-2473.7,0.85469
12209,13.221,5.6364,0,0.0002507,2505.3,8.3851e-05,13.392,8.2067e-05,-0.013329,-0.00025047,-2498.6,0.84381
12210,13.313,5.6364,0.05,7.9482e-07,7.9427,6.1032e-07,4.5857,1.801e-12,3.2387e-06,-6.1032e-07,-4.5857,0.85428
12211,13.313,5.3636,0,0.00024819,2480.2,8.3097e-05,14.299,8.1194e-05,-0.0041352,-0.00024795,-2473,0.85543
12212,13.221,5.4545,0,0.00025064,2504.6,8.3855e-05,13.715,8.2029e-05,-0.0047421,-0.0002504,-2497.8,0.84458
12213,13.313,5.4545,0.05,8.4494e-07,8.4435,6.488e-07,4.8749,1.7797e-12,4.0249e-06,-6.4881e-07,-4.8749,0.85504
12214,13.313,5.1818,0,0.00024816,2479.9,8.3126e-05,14.776,8.1159e-05,-0.0022154,-0.0002479,-2472.5,0.85611
12215,13.221,5.2727,0,0.00025059,2504.2,8.3873e-05,14.105,8.1995e-05,-0.0033844,-0.00025035,-2497.1,0.8453
12216,13.313,5.2727,0.05,8.4848e-07,8.4789,6.5152e-07,4.8953,1.7772e-12,1.6629e-06,-6.5153e-07,-4.8953,0.85576
12217,13.313,5,0,0.00024813,2479.6,8.3154e-05,15.225,8.1128e-05,-0.00013265,-0.00024787,-2472,0.85674
12218,13.221,5.0909,0,0.00025055,2503.8,8.3891e-05,14.479,8.1964e-05,-0.0010656,-0.0002503,-2496.5,0.84596
12219,13.313,5.0909,0.05,8.4889e-07,8.483,6.5184e-07,4.8976,8.9758e-13,1.6372e-06,-6.5184e-07,-4.8977,0.85641
12220,13.313,4.8182,0,0.00024811,2479.4,8.3181e-05,15.634,8.1101e-05,0.0015101,-0.00024784,-2471.5,0.85732
12221,13.221,4.9091,0,0.00025052,2503.5,8.391e-05,14.825,8.1937e-05,0.00063465,-0.00025027,-2496,0.84657
12222,13.313,4.9091,0.05,8.4901e-07,8.4843,6.5193e-07,4.8984,8.7495e-13,6.4849e-07,-6.5194e-07,-4.8984,0.85702
12223,13.313,4.6364,0,0.00024809,2479.2,8.3205e-05,15.998,8.1077e-05,0.002906,-0.00024782,-2471.2,0.85784
12224,13.221,4.7273,0,0.00025049,2503.2,8.3926e-05,15.137,8.1912e-05,0.0021378,-0.00025023,-2495.6,0.84713
12225,13.313,4.7273,0.05,8.4905e-07,8.4847,6.5197e-07,4.8986,8.7937e-13,-4.1843e-07,-6.5197e-07,-4.8987,0.85757
12226,13.313,4.4545,0,0.00024808,2479,8.3227e-05,16.315,8.1056e-05,0.0040497,-0.00024779,-2470.8,0.85831
12227,13.221,4.5455,0,0.00025047,2503,8.3941e-05,15.41,8.1891e-05,0.0033774,-0.0002502,-2495.2,0.84762
12228,13.313,4.5455,0.05,8.4904e-07,8.4845,6.5196e-07,4.8985,1.7782e-12,9.4364e-07,-6.5196e-07,-4.8986,0.85806
12229,13.313,4.2727,0,0.00024806,2478.9,8.3245e-05,16.584,8.1038e-05,0.0049819,-0.00024778,-2470.6,0.85872
12230,13.221,4.3636,0,0.00025045,2502.8,8.3954e-05,15.644,8.1873e-05,0.0044032,-0.00025018,-2494.9,0.84807
12231,13.313,4.3636,0.05,8.4898e-07,8.4839,6.5191e-07,4.8981,8.7484e-13,-4.2161e-07,-6.5191e-07,-4.8982,0.8585
12232,13.313,4.0909,0,0.00024805,2478.8,8.3259e-05,16.807,8.1023e-05,0.0057299,-0.00024776,-2470.3,0.85908
12233,13.221,4.1818,0,0.00025043,2502.6,8.3964e-05,15.839,8.1857e-05,0.0052374,-0.00025016,-2494.6,0.84846
12234,13.313,4.1818,0.05,8.4889e-07,8.483,6.5184e-07,4.8976,8.7981e-13,-1.0583e-06,-6.5184e-07,-4.8977,0.85889
12235,13.313,3.9091,0,0.00024804,2478.7,8.3271e-05,16.987,8.1011e-05,0.0063185,-0.00024775,-2470.2,0.85938
12236,13.221,4,0,0.00025042,2502.4,8.3973e-05,15.997,8.1844e-05,0.0059062,-0.00025014,-2494.4,0.84879
12237,13.313,4,0.05,8.4878e-07,8.482,6.5176e-07,4.8971,8.8442e-13,-6.6347e-07,-6.5176e-07,-4.8971,0.85922
12238,13.313,3.7273,0,0.00024803,2478.6,8.328e-05,17.127,8.1001e-05,0.0067697,-0.00024774,-2470,0.85963
12239,13.221,3.8182,0,0.0002504,2502.3,8.3979e-05,16.121,8.1834e-05,0.0064284,-0.00025013,-2494.2,0.84907
12240,13.313,3.8182,0.05,8.4867e-07,8.4809,6.5167e-07,4.8964,1.7978e-12,-2.8033e-07,-6.5168e-07,-4.8965,0.85949
12241,13.313,3.5455,0,0.00024803,2478.5,8.3286e-05,17.231,8.0994e-05,0.0071021,-0.00024773,-2469.9,0.85982
12242,13.221,3.6364,0,0.00025039,2502.2,8.3983e-05,16.215,8.1826e-05,0.0068244,-0.00025011,-2494.1,0.84929
12243,13.313,3.6364,0.05,8.4857e-07,8.4799,6.516e-07,4.8958,-1.6396e-14,1.3025e-06,-6.516e-07,-4.8959,0.85971
12244,13.313,3.3636,0,0.00024802,2478.5,8.3291e-05,17.303,8.0989e-05,0.0073292,-0.00024772,-2469.8,0.85996
12245,13.221,3.4545,0,0.00025039,2502.1,8.3986e-05,16.282,8.182e-05,0.0071086,-0.0002501,-2493.9,0.84945
12246,13.313,3.4545,0.05,8.4849e-07,8.479,6.5153e-07,4.8954,2.7161e-12,7.4202e-07,-6.5153e-07,-4.8954,0.85988
12247,13.313,3.1818,0,0.00024802,2478.5,8.3293e-05,17.344,8.0986e-05,0.0074606,-0.00024772,-2469.7,0.86004
12248,13.221,3.2727,0,0.00025038,2502.1,8.3988e-05,16.325,8.1816e-05,0.0072912,-0.0002501,-2493.9,0.84957
12249,13.313,3.2727,0.05,8.4843e-07,8.4784,6.5148e-07,4.895,9.0186e-13,6.3351e-08,-6.5149e-07,-4.895,0.85999
12250,13.313,3,0,0.00024802,2478.5,8.3294e-05,17.358,8.0985e-05,0.0075037,-0.00024772,-2469.7,0.86007
12251,13.221,3.0909,0,0.00025038,2502,8.3989e-05,16.346,8.1814e-05,0.0073799,-0.0002501,-2493.8,0.84962
12252,13.313,3.0909,0.05,8.484e-07,8.4781,6.5146e-07,4.8948,1.8165e-12,9.3505e-07,-6.5147e-07,-4.8949,0.86004
12253,13.313,2.8182,0,0.00024802,2478.5,8.3293e-05,17.344,8.0986e-05,0.0074604,-0.00024772,-2469.7,0.86004
12254,13.221,2.9091,0,0.00025038,2502,8.3989e-05,16.346,8.1814e-05,0.0073804,-0.0002501,-2493.8,0.84962
12255,13.313,2.9091,0.05,8.484e-07,8.4781,6.5146e-07,4.8948,1.8215e-12,1.4495e-06,-6.5147e-07,-4.8949,0.86004
12256,13.313,2.6364,0,0.00024802,2478.5,8.3291e-05,17.303,8.0989e-05,0.0073287,-0.00024772,-2469.8,0.85996
12257,13.221,2.7273,0,0.00025038,2502.1,8.3988e-05,16.325,8.1816e-05,0.0072909,-0.0002501,-2493.9,0.84957
12258,13.313,2.7273,0.05,8.4843e-07,8.4784,6.5148e-07,4.895,1.8267e-12,1.488e-06,-6.5149e-07,-4.895,0.85999
12259,13.313,2.4545,0,0.00024803,2478.5,8.3286e-05,17.231,8.0994e-05,0.0071022,-0.00024773,-2469.9,0.85982
12260,13.221,2.5455,0,0.00025039,2502.1,8.3986e-05,16.282,8.182e-05,0.0071089,-0.0002501,-2493.9,0.84945
12261,13.313,2.5455,0.05,8.4849e-07,8.479,6.5153e-07,4.8954,9.2243e-13,1.2887e-06,-6.5153e-07,-4.8954,0.85988
12262,13.313,2.2727,0,0.00024803,2478.6,8.328e-05,17.127,8.1001e-05,0.0067699,-0.00024774,-2470,0.85963
12263,13.221,2.3636,0,0.00025039,2502.2,8.3983e-05,16.215,8.1826e-05,0.0068246,-0.00025011,-2494.1,0.84929
12264,13.313,2.3636,0.05,8.4857e-07,8.4799,6.516e-07,4.8958,2.7468e-12,1.3224e-06,-6.516e-07,-4.8959,0.85971
12265,13.313,2.0909,0,0.00024804,2478.7,8.3271e-05,16.987,8.1011e-05,0.006319,-0.00024775,-2470.2,0.85938
12266,13.221,2.1818,0,0.0002504,2502.3,8.3979e-05,16.121,8.1834e-05,0.0064291,-0.00025013,-2494.2,0.84907
12267,13.313,2.1818,0.05,8.4867e-07,8.4809,6.5167e-07,4.8964,2.7512e-12,1.003e-06,-6.5168e-07,-4.8965,0.85949
12268,13.313,1.9091,0,0.00024805,2478.8,8.3259e-05,16.807,8.1023e-05,0.0057304,-0.00024776,-2470.3,0.85908
12269,13.221,2,0,0.00025042,2502.4,8.3973e-05,15.997,8.1844e-05,0.0059066,-0.00025014,-2494.4,0.84879
12270,13.313,2,0.05,8.4878e-07,8.482,6.5176e-07,4.8971,1.8461e-12,1.1697e-06,-6.5176e-07,-4.8971,0.85922
12271,13.313,1.7273,0,0.00024806,2478.9,8.3245e-05,16.584,8.1038e-05,0.0049822,-0.00024778,-2470.6,0.85872
12272,13.221,1.8182,0,0.00025043,2502.6,8.3964e-05,15.839,8.1857e-05,0.005238,-0.00025016,-2494.6,0.84846
12273,13.313,1.8182,0.05,8.4889e-07,8.483,6.5184e-07,4.8977,3.6675e-12,1.3062e-06,-6.5184e-07,-4.8977,0.85889
12274,13.313,1.5455,0,0.00024808,2479,8.3227e-05,16.315,8.1056e-05,0.00405,-0.00024779,-2470.8,0.85831
12275,13.221,1.6364,0,0.00025045,2502.8,8.3954e-05,15.644,8.1873e-05,0.0044035,-0.00025018,-2494.9,0.84807
12276,13.313,1.6364,0.05,8.4898e-07,8.4839,6.5191e-07,4.8982,1.8582e-12,8.649e-07,-6.5191e-07,-4.8982,0.8585
12277,13.313,1.3636,0,0.00024809,2479.2,8.3205e-05,15.998,8.1077e-05,0.0029065,-0.00024782,-2471.2,0.85784
12278,13.221,1.4545,0,0.00025047,2503,8.3941e-05,15.41,8.1891e-05,0.0033777,-0.0002502,-2495.2,0.84762
12279,13.313,1.4545,0.05,8.4904e-07,8.4845,6.5195e-07,4.8985,3.7007e-14,8.7345e-07,-6.5196e-07,-4.8986,0.85806
12280,13.313,1.1818,0,0.00024811,2479.4,8.3181e-05,15.634,8.1101e-05,0.0015109,-0.00024784,-2471.5,0.85732
12281,13.221,1.2727,0,0.00025049,2503.2,8.3926e-05,15.137,8.1912e-05,0.0021386,-0.00025023,-2495.6,0.84713
12282,13.313,1.2727,0.05,8.4905e-07,8.4847,6.5196e-07,4.8986,1.8575e-12,8.175e-07,-6.5198e-07,-4.8987,0.85757
12283,13.313,1,0,0.00024813,2479.6,8.3154e-05,15.225,8.1128e-05,-0.00013139,-0.00024787,-2472,0.85674
12284,13.221,1.0909,0,0.00025052,2503.5,8.391e-05,14.825,8.1937e-05,0.00063503,-0.00025027,-2496,0.84657
12285,13.313,1.0909,0.05,8.4901e-07,8.4843,6.5193e-07,4.8984,1.8601e-12,5.4854e-07,-6.5194e-07,-4.8984,0.85702
12286,13.313,0.81818,0,0.00024816,2479.9,8.3126e-05,14.776,8.1159e-05,-0.0022142,-0.0002479,-2472.5,0.85611
12287,13.221,0.90909,0,0.00025055,2503.8,8.3891e-05,14.479,8.1964e-05,-0.0010643,-0.0002503,-2496.5,0.84596
12288,13.313,0.90909,0.05,8.4889e-07,8.483,6.5184e-07,4.8976,2.7722e-12,7.0505e-07,-6.5184e-07,-4.8977,0.85641
12289,13.313,0.63636,0,0.00024819,2480.2,8.3097e-05,14.299,8.1194e-05,-0.0041341,-0.00024795,-2473,0.85543
12290,13.221,0.72727,0,0.00025059,2504.2,8.3873e-05,14.104,8.1995e-05,-0.0033831,-0.00025035,-2497.1,0.8453
12291,13.313,0.72727,0.05,8.4848e-07,8.4789,6.5152e-07,4.8953,1.8525e-12,7.4565e-07,-6.5152e-07,-4.8953,0.85576
12292,13.313,0.45455,0,0.00024824,2480.7,8.3075e-05,13.84,8.1231e-05,-0.009449,-0.000248,-2473.7,0.85469
12293,13.221,0.54545,0,0.00025064,2504.6,8.3855e-05,13.714,8.2029e-05,-0.0047413,-0.0002504,-2497.8,0.84458
12294,13.313,0.54545,0.05,8.4494e-07,8.4435,6.488e-07,4.8748,1.8315e-12,-8.0926e-07,-6.4881e-07,-4.8749,0.85504
12295,13.313,0.27273,0,0.0002484,2482.3,8.3148e-05,14.078,8.1274e-05,-0.0083862,-0.00024816,-2475.2,0.85389
12296,13.221,0.36364,0,0.0002507,2505.3,8.3851e-05,13.392,8.2067e-05,-0.013328,-0.00025047,-2498.6,0.84381
12297,13.313,0.36364,0.05,7.9482e-07,7.9427,6.1032e-07,4.5857,1.808e-12,-1.2226e-06,-6.1032e-07,-4.5857,0.85428
12298,13.221,0.18182,0,0.00025099,2508.2,8.4035e-05,14.47,8.2109e-05,-0.00067943,-0.00025074,-2500.9,0.84298
12299,13.313,0.18182,0.05,4.2903e-08,0.42873,3.2944e-08,0.24752,-4.0151e-12,-1.1431e-05,-3.2944e-08,-0.24754,0.85346
12300,13.313,0.090909,0,0.00024786,2476.9,8.26e-05,9.6479,8.1315e-05,-0.0043261,-0.0002477,-2472.1,0.85305
12301,13.128,5.7273,0,0.00025328,2531,8.4724e-05,13.681,8.2902e-05,-0.0076458,-0.00025304,-2524.2,0.83295
12302,13.036,5.8182,0,0.00025588,2557.1,8.5624e-05,14.171,8.3738e-05,-0.00072495,-0.00025564,-2549.9,0.82211
12303,13.128,5.8182,0.05,3.9148e-08,0.39121,3.0058e-08,0.22587,-5.5229e-12,-5.0658e-07,-3.0063e-08,-0.22586,0.8325
12304,13.128,5.9091,0,0.00025276,2525.8,8.4201e-05,9.475,8.2939e-05,-0.0040325,-0.00025259,-2521.1,0.83209
12305,13.128,5.5455,0,0.0002531,2529.2,8.4627e-05,13.237,8.2865e-05,-0.0086867,-0.00025287,-2522.6,0.83376
12306,13.036,5.6364,0,0.00025558,2554,8.5418e-05,12.891,8.37e-05,-0.01207,-0.00025536,-2547.6,0.82295
12307,13.128,5.6364,0.05,7.9733e-07,7.9678,6.1225e-07,4.6002,9.0519e-13,3.2554e-06,-6.1225e-07,-4.6002,0.83334
12308,13.128,5.3636,0,0.00025303,2528.6,8.4627e-05,13.494,8.2831e-05,-0.0039457,-0.0002528,-2521.8,0.83451
12309,13.036,5.4545,0,0.00025549,2553.2,8.54e-05,13.011,8.3667e-05,-0.0044759,-0.00025527,-2546.6,0.82374
12310,13.128,5.4545,0.05,8.4779e-07,8.472,6.5099e-07,4.8913,1.8029e-12,4.4701e-06,-6.51e-07,-4.8913,0.83412
12311,13.128,5.1818,0,0.00025298,2528.1,8.4635e-05,13.783,8.28e-05,-0.0021877,-0.00025274,-2521.2,0.83521
12312,13.036,5.2727,0,0.00025543,2552.6,8.5395e-05,13.208,8.3637e-05,-0.0032445,-0.0002552,-2545.9,0.82447
12313,13.128,5.2727,0.05,8.5139e-07,8.508,6.5376e-07,4.9121,1.8047e-12,2.4586e-06,-6.5376e-07,-4.9121,0.83484
12314,13.128,5,0,0.00025294,2527.6,8.4643e-05,14.056,8.2772e-05,-0.00025623,-0.0002527,-2520.6,0.83585
12315,13.036,5.0909,0,0.00025538,2552,8.5394e-05,13.402,8.361e-05,-0.0011247,-0.00025515,-2545.3,0.82515
12316,13.128,5.0909,0.05,8.5186e-07,8.5127,6.5412e-07,4.9148,8.9728e-13,2.2626e-06,-6.5412e-07,-4.9148,0.83551
12317,13.128,4.8182,0,0.0002529,2527.3,8.4652e-05,14.305,8.2748e-05,0.0012995,-0.00025265,-2520.1,0.83643
12318,13.036,4.9091,0,0.00025533,2551.5,8.5393e-05,13.582,8.3585e-05,0.00046762,-0.0002551,-2544.7,0.82577
12319,13.128,4.9091,0.05,8.5206e-07,8.5147,6.5427e-07,4.9159,3.6069e-12,1.5045e-06,-6.5427e-07,-4.916,0.83613
12320,13.128,4.6364,0,0.00025287,2526.9,8.4659e-05,14.526,8.2726e-05,0.0026423,-0.00025262,-2519.6,0.83696
12321,13.036,4.7273,0,0.00025529,2551.1,8.5392e-05,13.742,8.3564e-05,0.0018982,-0.00025505,-2544.2,0.82633
12322,13.128,4.7273,0.05,8.5217e-07,8.5159,6.5436e-07,4.9166,2.6938e-12,3.951e-07,-6.5437e-07,-4.9167,0.83668
12323,13.128,4.4545,0,0.00025284,2526.7,8.4666e-05,14.716,8.2708e-05,0.0037608,-0.00025259,-2519.3,0.83744
12324,13.036,4.5455,0,0.00025525,2550.8,8.5392e-05,13.88,8.3545e-05,0.0030993,-0.00025501,-2543.8,0.82684
12325,13.128,4.5455,0.05,8.5224e-07,8.5165,6.5441e-07,4.917,8.7732e-13,1.4294e-06,-6.5441e-07,-4.917,0.83719
12326,13.128,4.2727,0,0.00025282,2526.4,8.4671e-05,14.876,8.2692e-05,0.0046865,-0.00025256,-2518.9,0.83786
12327,13.036,4.3636,0,0.00025522,2550.4,8.5391e-05,13.995,8.3529e-05,0.0041091,-0.00025498,-2543.4,0.82729
12328,13.128,4.3636,0.05,8.5226e-07,8.5167,6.5443e-07,4.9171,8.7836e-13,3.662e-07,-6.5443e-07,-4.9171,0.83763
12329,13.128,4.0909,0,0.00025279,2526.2,8.4675e-05,15.006,8.2678e-05,0.0054402,-0.00025254,-2518.7,0.83822
12330,13.036,4.1818,0,0.00025519,2550.2,8.5389e-05,14.088,8.3515e-05,0.0049441,-0.00025495,-2543.1,0.82768
12331,13.128,4.1818,0.05,8.5225e-07,8.5166,6.5442e-07,4.9171,8.8633e-13,1.89e-07,-6.5442e-07,-4.9171,0.83803
12332,13.128,3.9091,0,0.00025278,2526,8.4677e-05,15.109,8.2667e-05,0.0060418,-0.00025252,-2518.4,0.83853
12333,13.036,4,0,0.00025517,2549.9,8.5387e-05,14.161,8.3503e-05,0.0056226,-0.00025492,-2542.8,0.82802
12334,13.128,4,0.05,8.5222e-07,8.5163,6.544e-07,4.9168,8.8838e-13,3.0391e-07,-6.544e-07,-4.9169,0.83836
12335,13.128,3.7273,0,0.00025276,2525.9,8.4679e-05,15.188,8.2659e-05,0.0065085,-0.0002525,-2518.2,0.83878
12336,13.036,3.8182,0,0.00025515,2549.7,8.5385e-05,14.215,8.3494e-05,0.0061597,-0.0002549,-2542.6,0.8283
12337,13.128,3.8182,0.05,8.5218e-07,8.5159,6.5436e-07,4.9166,2.7089e-12,5.7607e-07,-6.5437e-07,-4.9166,0.83864
12338,13.128,3.5455,0,0.00025275,2525.8,8.468e-05,15.245,8.2652e-05,0.0068561,-0.00025249,-2518.1,0.83898
12339,13.036,3.6364,0,0.00025513,2549.6,8.5383e-05,14.254,8.3487e-05,0.0065715,-0.00025489,-2542.4,0.82853
12340,13.128,3.6364,0.05,8.5213e-07,8.5154,6.5433e-07,4.9164,2.7143e-12,2.0333e-06,-6.5433e-07,-4.9164,0.83887
12341,13.128,3.3636,0,0.00025274,2525.7,8.468e-05,15.283,8.2647e-05,0.0070959,-0.00025248,-2518,0.83912
12342,13.036,3.4545,0,0.00025512,2549.4,8.5381e-05,14.28,8.3482e-05,0.0068707,-0.00025487,-2542.3,0.8287
12343,13.128,3.4545,0.05,8.5209e-07,8.515,6.543e-07,4.9161,1.8087e-12,1.4709e-06,-6.543e-07,-4.9162,0.83903
12344,13.128,3.1818,0,0.00025274,2525.6,8.4681e-05,15.305,8.2644e-05,0.0072358,-0.00025247,-2517.9,0.8392
12345,13.036,3.2727,0,0.00025511,2549.3,8.538e-05,14.296,8.3478e-05,0.0070638,-0.00025486,-2542.2,0.82881
12346,13.128,3.2727,0.05,8.5206e-07,8.5147,6.5427e-07,4.9159,1.8125e-12,1.382e-06,-6.5428e-07,-4.916,0.83915
12347,13.128,3,0,0.00025274,2525.6,8.4681e-05,15.313,8.2644e-05,0.0072819,-0.00025247,-2517.9,0.83923
12348,13.036,3.0909,0,0.00025511,2549.3,8.5379e-05,14.303,8.3476e-05,0.0071583,-0.00025486,-2542.1,0.82887
12349,13.128,3.0909,0.05,8.5204e-07,8.5146,6.5426e-07,4.9158,2.7264e-12,1.5336e-06,-6.5426e-07,-4.9159,0.8392
12350,13.128,2.8182,0,0.00025274,2525.6,8.4681e-05,15.305,8.2644e-05,0.0072362,-0.00025247,-2517.9,0.8392
12351,13.036,2.9091,0,0.00025511,2549.3,8.5379e-05,14.303,8.3476e-05,0.0071589,-0.00025486,-2542.1,0.82887
12352,13.128,2.9091,0.05,8.5204e-07,8.5146,6.5426e-07,4.9158,1.8212e-12,2.5196e-06,-6.5426e-07,-4.9159,0.8392
12353,13.128,2.6364,0,0.00025274,2525.7,8.468e-05,15.283,8.2647e-05,0.0070964,-0.00025248,-2518,0.83912
12354,13.036,2.7273,0,0.00025511,2549.3,8.538e-05,14.296,8.3478e-05,0.0070638,-0.00025486,-2542.2,0.82881
12355,13.128,2.7273,0.05,8.5206e-07,8.5147,6.5427e-07,4.9159,1.8257e-12,2.1947e-06,-6.5428e-07,-4.916,0.83915
12356,13.128,2.4545,0,0.00025275,2525.8,8.468e-05,15.245,8.2652e-05,0.0068565,-0.00025249,-2518.1,0.83898
12357,13.036,2.5455,0,0.00025512,2549.4,8.5381e-05,14.28,8.3482e-05,0.0068706,-0.00025487,-2542.3,0.8287
12358,13.128,2.5455,0.05,8.5209e-07,8.515,6.543e-07,4.9161,9.2038e-13,2.1077e-06,-6.543e-07,-4.9162,0.83903
12359,13.128,2.2727,0,0.00025276,2525.9,8.4679e-05,15.188,8.2659e-05,0.0065091,-0.0002525,-2518.2,0.83878
12360,13.036,2.3636,0,0.00025513,2549.6,8.5383e-05,14.254,8.3487e-05,0.0065719,-0.00025489,-2542.4,0.82853
12361,13.128,2.3636,0.05,8.5213e-07,8.5154,6.5433e-07,4.9164,9.2569e-13,2.1466e-06,-6.5433e-07,-4.9164,0.83887
12362,13.128,2.0909,0,0.00025278,2526,8.4677e-05,15.109,8.2667e-05,0.0060423,-0.00025252,-2518.4,0.83853
12363,13.036,2.1818,0,0.00025515,2549.7,8.5385e-05,14.215,8.3494e-05,0.0061603,-0.0002549,-2542.6,0.8283
12364,13.128,2.1818,0.05,8.5218e-07,8.5159,6.5436e-07,4.9166,1.8392e-12,1.7027e-06,-6.5437e-07,-4.9166,0.83864
12365,13.128,1.9091,0,0.00025279,2526.2,8.4675e-05,15.006,8.2678e-05,0.0054406,-0.00025254,-2518.7,0.83822
12366,13.036,2,0,0.00025517,2549.9,8.5387e-05,14.161,8.3503e-05,0.0056223,-0.00025492,-2542.8,0.82802
12367,13.128,2,0.05,8.5222e-07,8.5163,6.544e-07,4.9169,9.3504e-13,1.4826e-06,-6.544e-07,-4.9169,0.83836
12368,13.128,1.7273,0,0.00025282,2526.4,8.4671e-05,14.876,8.2692e-05,0.0046871,-0.00025256,-2518.9,0.83786
12369,13.036,1.8182,0,0.00025519,2550.2,8.5389e-05,14.088,8.3515e-05,0.0049448,-0.00025495,-2543.1,0.82768
12370,13.128,1.8182,0.05,8.5225e-07,8.5166,6.5442e-07,4.9171,2.7549e-12,1.8584e-06,-6.5442e-07,-4.9171,0.83803
12371,13.128,1.5455,0,0.00025284,2526.7,8.4666e-05,14.716,8.2708e-05,0.0037612,-0.00025259,-2519.3,0.83744
12372,13.036,1.6364,0,0.00025522,2550.4,8.5391e-05,13.995,8.3529e-05,0.0041098,-0.00025498,-2543.4,0.82729
12373,13.128,1.6364,0.05,8.5226e-07,8.5167,6.5443e-07,4.9171,1.8495e-12,1.6745e-06,-6.5443e-07,-4.9171,0.83763
12374,13.128,1.3636,0,0.00025287,2526.9,8.4659e-05,14.526,8.2726e-05,0.0026428,-0.00025262,-2519.6,0.83696
12375,13.036,1.4545,0,0.00025525,2550.8,8.5392e-05,13.88,8.3545e-05,0.0030997,-0.00025501,-2543.8,0.82684
12376,13.128,1.4545,0.05,8.5224e-07,8.5165,6.5441e-07,4.917,2.7616e-12,1.5579e-06,-6.5441e-07,-4.917,0.83719
12377,13.128,1.1818,0,0.0002529,2527.3,8.4652e-05,14.305,8.2748e-05,0.0012999,-0.00025265,-2520.1,0.83643
12378,13.036,1.2727,0,0.00025529,2551.1,8.5392e-05,13.742,8.3564e-05,0.0018992,-0.00025505,-2544.2,0.82633
12379,13.128,1.2727,0.05,8.5217e-07,8.5159,6.5436e-07,4.9166,9.387e-13,1.4483e-06,-6.5437e-07,-4.9166,0.83668
12380,13.128,1,0,0.00025294,2527.6,8.4643e-05,14.056,8.2772e-05,-0.00025586,-0.0002527,-2520.6,0.83585
12381,13.036,1.0909,0,0.00025533,2551.5,8.5393e-05,13.582,8.3585e-05,0.00046844,-0.0002551,-2544.7,0.82577
12382,13.128,1.0909,0.05,8.5206e-07,8.5147,6.5427e-07,4.9159,3.4416e-14,1.4428e-06,-6.5427e-07,-4.916,0.83613
12383,13.128,0.81818,0,0.00025298,2528.1,8.4635e-05,13.783,8.28e-05,-0.0021864,-0.00025274,-2521.2,0.83521
12384,13.036,0.90909,0,0.00025538,2552,8.5394e-05,13.402,8.361e-05,-0.001124,-0.00025515,-2545.3,0.82515
12385,13.128,0.90909,0.05,8.5186e-07,8.5127,6.5412e-07,4.9148,9.4557e-13,1.3815e-06,-6.5413e-07,-4.9149,0.83551
12386,13.128,0.63636,0,0.00025303,2528.6,8.4627e-05,13.494,8.2831e-05,-0.0039447,-0.0002528,-2521.8,0.83451
12387,13.036,0.72727,0,0.00025543,2552.6,8.5395e-05,13.208,8.3637e-05,-0.0032425,-0.0002552,-2545.9,0.82447
12388,13.128,0.72727,0.05,8.5139e-07,8.508,6.5376e-07,4.9121,9.4893e-13,7.3069e-07,-6.5377e-07,-4.9122,0.83484
12389,13.128,0.45455,0,0.0002531,2529.2,8.4627e-05,13.236,8.2865e-05,-0.0086862,-0.00025287,-2522.6,0.83376
12390,13.036,0.54545,0,0.00025549,2553.2,8.54e-05,13.011,8.3667e-05,-0.0044758,-0.00025527,-2546.6,0.82374
12391,13.128,0.54545,0.05,8.4779e-07,8.472,6.5099e-07,4.8913,1.8246e-12,1.8241e-07,-6.51e-07,-4.8913,0.83412
12392,13.128,0.27273,0,0.00025328,2531,8.4724e-05,13.681,8.2902e-05,-0.0076451,-0.00025304,-2524.2,0.83295
12393,13.036,0.36364,0,0.00025558,2554,8.5418e-05,12.891,8.37e-05,-0.012069,-0.00025536,-2547.6,0.82295
12394,13.128,0.36364,0.05,7.9733e-07,7.9678,6.1225e-07,4.6002,9.2627e-13,1.6374e-07,-6.1226e-07,-4.6003,0.83334
12395,13.036,0.18182,0,0.00025588,2557.1,8.5624e-05,14.171,8.3738e-05,-0.00072476,-0.00025564,-2549.9,0.82211
12396,13.128,0.18182,0.05,3.9149e-08,0.39122,3.0061e-08,0.22585,-3.9044e-12,-2.8847e-05,-3.0062e-08,-0.22588,0.8325
12397,13.128,0.090909,0,0.00025276,2525.8,8.4201e-05,9.475,8.2939e-05,-0.0040322,-0.00025259,-2521.1,0.83209
12398,12.943,5.7273,0,0.00025817,2579.9,8.6305e-05,13.28,8.4536e-05,-0.006948,-0.00025794,-2573.2,0.81217
12399,12.851,5.8182,0,0.00026079,2606.1,8.7218e-05,13.864,8.5373e-05,-0.00080991,-0.00026055,-2599.1,0.80142
12400,12.943,5.8182,0.05,3.6004e-08,0.35979,2.7648e-08,0.20772,5.0581e-13,-1.1685e-05,-2.7644e-08,-0.20773,0.81172
12401,12.943,5.9091,0,0.00025767,2574.9,8.5807e-05,9.2963,8.4569e-05,-0.0037452,-0.00025751,-2570.2,0.8113
12402,12.943,5.5455,0,0.00025797,2577.9,8.6186e-05,12.637,8.4503e-05,-0.0079357,-0.00025775,-2571.6,0.813
12403,12.851,5.6364,0,0.00026047,2602.9,8.699e-05,12.39,8.534e-05,-0.010838,-0.00026026,-2596.7,0.80227
12404,12.943,5.6364,0.05,8.0005e-07,7.995,6.1434e-07,4.6159,8.8438e-13,3.7377e-06,-6.1434e-07,-4.6159,0.81257
12405,12.943,5.3636,0,0.00025789,2577.1,8.6164e-05,12.699,8.4474e-05,-0.0037473,-0.00025767,-2570.7,0.81376
12406,12.851,5.4545,0,0.00026037,2601.9,8.695e-05,12.312,8.5311e-05,-0.0042003,-0.00026016,-2595.7,0.80307
12407,12.943,5.4545,0.05,8.508e-07,8.5021,6.5331e-07,4.9087,1.7928e-12,4.5431e-06,-6.5331e-07,-4.9087,0.81336
12408,12.943,5.1818,0,0.00025782,2576.5,8.6151e-05,12.803,8.4447e-05,-0.0021496,-0.0002576,-2570,0.81447
12409,12.851,5.2727,0,0.00026029,2601.1,8.6925e-05,12.32,8.5285e-05,-0.0030927,-0.00026008,-2594.9,0.80382
12410,12.943,5.2727,0.05,8.5446e-07,8.5387,6.5612e-07,4.9298,8.8022e-13,2.6685e-06,-6.5612e-07,-4.9298,0.8141
12411,12.943,5,0,0.00025777,2575.9,8.614e-05,12.904,8.4422e-05,-0.00037072,-0.00025754,-2569.4,0.81512
12412,12.851,5.0909,0,0.00026022,2600.4,8.6903e-05,12.337,8.5261e-05,-0.0011742,-0.00026001,-2594.2,0.8045
12413,12.943,5.0909,0.05,8.5498e-07,8.5439,6.5651e-07,4.9328,1.7909e-12,2.584e-06,-6.5652e-07,-4.9328,0.81478
12414,12.943,4.8182,0,0.00025771,2575.4,8.613e-05,12.996,8.4401e-05,0.001094,-0.00025749,-2568.8,0.81572
12415,12.851,4.9091,0,0.00026016,2599.8,8.6884e-05,12.352,8.524e-05,0.00030706,-0.00025995,-2593.6,0.80513
12416,12.943,4.9091,0.05,8.5523e-07,8.5464,6.5671e-07,4.9342,1.7952e-12,2.1524e-06,-6.5671e-07,-4.9343,0.81541
12417,12.943,4.6364,0,0.00025767,2574.9,8.6122e-05,13.074,8.4382e-05,0.0023809,-0.00025744,-2568.3,0.81626
12418,12.851,4.7273,0,0.0002601,2599.2,8.6866e-05,12.361,8.5221e-05,0.0016606,-0.00025989,-2593,0.80571
12419,12.943,4.7273,0.05,8.5541e-07,8.5482,6.5685e-07,4.9353,-2.48e-14,1.1008e-06,-6.5685e-07,-4.9353,0.81597
12420,12.943,4.4545,0,0.00025763,2574.5,8.6114e-05,13.137,8.4366e-05,0.0034719,-0.0002574,-2567.9,0.81674
12421,12.851,4.5455,0,0.00026005,2598.7,8.685e-05,12.364,8.5205e-05,0.0028195,-0.00025984,-2592.5,0.80622
12422,12.943,4.5455,0.05,8.5554e-07,8.5495,6.5695e-07,4.936,-2.1536e-14,2.2031e-06,-6.5695e-07,-4.9361,0.81649
12423,12.943,4.2727,0,0.00025759,2574.1,8.6106e-05,13.186,8.4352e-05,0.0043902,-0.00025736,-2567.5,0.81717
12424,12.851,4.3636,0,0.00026001,2598.3,8.6835e-05,12.36,8.5191e-05,0.0038117,-0.0002598,-2592.1,0.80668
12425,12.943,4.3636,0.05,8.5562e-07,8.5503,6.5701e-07,4.9365,1.7922e-12,6.1514e-07,-6.5702e-07,-4.9366,0.81694
12426,12.943,4.0909,0,0.00025756,2573.8,8.6099e-05,13.221,8.434e-05,0.00515,-0.00025733,-2567.2,0.81754
12427,12.851,4.1818,0,0.00025997,2597.9,8.6822e-05,12.349,8.5179e-05,0.0046466,-0.00025976,-2591.7,0.80708
12428,12.943,4.1818,0.05,8.5568e-07,8.5509,6.5705e-07,4.9368,8.8774e-13,7.6902e-07,-6.5705e-07,-4.9369,0.81734
12429,12.943,3.9091,0,0.00025754,2573.6,8.6092e-05,13.245,8.433e-05,0.0057644,-0.00025731,-2566.9,0.81785
12430,12.851,4,0,0.00025994,2597.6,8.681e-05,12.333,8.5169e-05,0.0053359,-0.00025973,-2591.4,0.80743
12431,12.943,4,0.05,8.5571e-07,8.5512,6.5707e-07,4.937,1.7988e-12,9.284e-07,-6.5708e-07,-4.937,0.81768
12432,12.943,3.7273,0,0.00025751,2573.4,8.6086e-05,13.26,8.4322e-05,0.0062474,-0.00025729,-2566.7,0.81811
12433,12.851,3.8182,0,0.00025991,2597.3,8.6799e-05,12.315,8.5161e-05,0.0058892,-0.0002597,-2591.1,0.80771
12434,12.943,3.8182,0.05,8.5572e-07,8.5513,6.5708e-07,4.9371,1.8038e-12,1.3153e-06,-6.5709e-07,-4.9371,0.81796
12435,12.943,3.5455,0,0.0002575,2573.2,8.6081e-05,13.268,8.4317e-05,0.0066114,-0.00025727,-2566.5,0.81831
12436,12.851,3.6364,0,0.00025989,2597.1,8.679e-05,12.296,8.5155e-05,0.0063191,-0.00025968,-2590.9,0.80794
12437,12.943,3.6364,0.05,8.5572e-07,8.5513,6.5708e-07,4.9371,8.9731e-13,2.6411e-06,-6.5709e-07,-4.9371,0.81819
12438,12.943,3.3636,0,0.00025749,2573.1,8.6078e-05,13.271,8.4312e-05,0.0068645,-0.00025726,-2566.4,0.81845
12439,12.851,3.4545,0,0.00025987,2596.9,8.6783e-05,12.28,8.515e-05,0.0066345,-0.00025966,-2590.8,0.80811
12440,12.943,3.4545,0.05,8.5571e-07,8.5512,6.5708e-07,4.937,1.8102e-12,2.1983e-06,-6.5708e-07,-4.9371,0.81836
12441,12.943,3.1818,0,0.00025748,2573,8.6076e-05,13.273,8.431e-05,0.0070127,-0.00025725,-2566.3,0.81853
12442,12.851,3.2727,0,0.00025986,2596.8,8.6779e-05,12.268,8.5147e-05,0.00684,-0.00025965,-2590.7,0.80823
12443,12.943,3.2727,0.05,8.5571e-07,8.5512,6.5708e-07,4.937,1.8135e-12,1.8671e-06,-6.5708e-07,-4.937,0.81848
12444,12.943,3,0,0.00025748,2573,8.6075e-05,13.273,8.4309e-05,0.0070619,-0.00025725,-2566.3,0.81856
12445,12.851,3.0909,0,0.00025986,2596.8,8.6776e-05,12.261,8.5146e-05,0.0069406,-0.00025965,-2590.6,0.80829
12446,12.943,3.0909,0.05,8.557e-07,8.5511,6.5707e-07,4.937,1.8172e-12,2.3706e-06,-6.5708e-07,-4.937,0.81853
12447,12.943,2.8182,0,0.00025748,2573,8.6076e-05,13.273,8.431e-05,0.0070129,-0.00025725,-2566.3,0.81853
12448,12.851,2.9091,0,0.00025986,2596.8,8.6776e-05,12.261,8.5146e-05,0.0069414,-0.00025965,-2590.6,0.80829
12449,12.943,2.9091,0.05,8.557e-07,8.5511,6.5707e-07,4.937,1.8208e-12,3.2322e-06,-6.5708e-07,-4.937,0.81853
12450,12.943,2.6364,0,0.00025749,2573.1,8.6078e-05,13.271,8.4312e-05,0.006864,-0.00025726,-2566.4,0.81845
12451,12.851,2.7273,0,0.00025986,2596.8,8.6779e-05,12.268,8.5147e-05,0.00684,-0.00025965,-2590.7,0.80823
12452,12.943,2.7273,0.05,8.5571e-07,8.5512,6.5708e-07,4.937,1.8247e-12,2.7837e-06,-6.5708e-07,-4.937,0.81848
12453,12.943,2.4545,0,0.0002575,2573.2,8.6081e-05,13.268,8.4317e-05,0.0066113,-0.00025727,-2566.5,0.81831
12454,12.851,2.5455,0,0.00025987,2596.9,8.6783e-05,12.28,8.515e-05,0.0066343,-0.00025966,-2590.8,0.80811
12455,12.943,2.5455,0.05,8.5571e-07,8.5512,6.5708e-07,4.937,1.8282e-12,2.5734e-06,-6.5708e-07,-4.9371,0.81836
12456,12.943,2.2727,0,0.00025751,2573.4,8.6086e-05,13.26,8.4322e-05,0.0062477,-0.00025729,-2566.7,0.81811
12457,12.851,2.3636,0,0.00025989,2597.1,8.679e-05,12.296,8.5155e-05,0.0063193,-0.00025968,-2590.9,0.80794
12458,12.943,2.3636,0.05,8.5572e-07,8.5513,6.5708e-07,4.9371,2.7419e-12,2.6033e-06,-6.5709e-07,-4.9371,0.81819
12459,12.943,2.0909,0,0.00025754,2573.6,8.6092e-05,13.245,8.433e-05,0.0057643,-0.00025731,-2566.9,0.81785
12460,12.851,2.1818,0,0.00025991,2597.3,8.6799e-05,12.315,8.5161e-05,0.0058895,-0.0002597,-2591.1,0.80771
12461,12.943,2.1818,0.05,8.5572e-07,8.5513,6.5708e-07,4.9371,9.2648e-13,2.5029e-06,-6.5709e-07,-4.9371,0.81796
12462,12.943,1.9091,0,0.00025756,2573.8,8.6099e-05,13.221,8.434e-05,0.0051501,-0.00025733,-2567.2,0.81754
12463,12.851,2,0,0.00025994,2597.6,8.681e-05,12.333,8.5169e-05,0.0053357,-0.00025973,-2591.4,0.80743
12464,12.943,2,0.05,8.5571e-07,8.5512,6.5707e-07,4.937,1.839e-12,1.9437e-06,-6.5708e-07,-4.937,0.81768
12465,12.943,1.7273,0,0.00025759,2574.1,8.6106e-05,13.186,8.4352e-05,0.0043911,-0.00025736,-2567.5,0.81717
12466,12.851,1.8182,0,0.00025997,2597.9,8.6822e-05,12.349,8.5179e-05,0.0046471,-0.00025976,-2591.7,0.80708
12467,12.943,1.8182,0.05,8.5568e-07,8.5509,6.5705e-07,4.9368,2.7514e-12,2.5602e-06,-6.5706e-07,-4.9369,0.81734
12468,12.943,1.5455,0,0.00025763,2574.5,8.6114e-05,13.137,8.4366e-05,0.0034726,-0.0002574,-2567.9,0.81674
12469,12.851,1.6364,0,0.00026001,2598.3,8.6835e-05,12.36,8.5191e-05,0.0038125,-0.0002598,-2592.1,0.80668
12470,12.943,1.6364,0.05,8.5562e-07,8.5503,6.5701e-07,4.9365,9.3412e-13,2.3824e-06,-6.5702e-07,-4.9365,0.81694
12471,12.943,1.3636,0,0.00025767,2574.9,8.6122e-05,13.074,8.4382e-05,0.0023817,-0.00025744,-2568.3,0.81626
12472,12.851,1.4545,0,0.00026005,2598.7,8.685e-05,12.364,8.5205e-05,0.0028198,-0.00025984,-2592.5,0.80622
12473,12.943,1.4545,0.05,8.5554e-07,8.5495,6.5695e-07,4.936,2.7602e-12,2.1167e-06,-6.5695e-07,-4.9361,0.81649
12474,12.943,1.1818,0,0.00025771,2575.4,8.613e-05,12.995,8.4401e-05,0.0010954,-0.00025749,-2568.8,0.81572
12475,12.851,1.2727,0,0.0002601,2599.2,8.6866e-05,12.361,8.5221e-05,0.0016613,-0.00025989,-2593,0.80571
12476,12.943,1.2727,0.05,8.5541e-07,8.5482,6.5684e-07,4.9353,2.757e-12,2.0702e-06,-6.5685e-07,-4.9353,0.81597
12477,12.943,1,0,0.00025777,2575.9,8.614e-05,12.904,8.4422e-05,-0.00036957,-0.00025754,-2569.4,0.81512
12478,12.851,1.0909,0,0.00026016,2599.8,8.6884e-05,12.352,8.524e-05,0.00030828,-0.00025995,-2593.6,0.80513
12479,12.943,1.0909,0.05,8.5523e-07,8.5464,6.5671e-07,4.9342,1.8523e-12,2.4561e-06,-6.5671e-07,-4.9343,0.81541
12480,12.943,0.81818,0,0.00025782,2576.5,8.6151e-05,12.803,8.4447e-05,-0.0021482,-0.0002576,-2570,0.81447
12481,12.851,0.90909,0,0.00026022,2600.4,8.6903e-05,12.337,8.5261e-05,-0.0011726,-0.00026001,-2594.2,0.8045
12482,12.943,0.90909,0.05,8.5498e-07,8.5439,6.5651e-07,4.9328,2.7582e-12,1.1727e-06,-6.5652e-07,-4.9328,0.81478
12483,12.943,0.63636,0,0.00025789,2577.1,8.6164e-05,12.699,8.4474e-05,-0.0037461,-0.00025767,-2570.7,0.81376
12484,12.851,0.72727,0,0.00026029,2601.1,8.6925e-05,12.32,8.5285e-05,-0.0030913,-0.00026008,-2594.9,0.80382
12485,12.943,0.72727,0.05,8.5446e-07,8.5387,6.5612e-07,4.9298,2.7625e-12,1.0787e-06,-6.5612e-07,-4.9298,0.8141
12486,12.943,0.45455,0,0.00025797,2577.9,8.6186e-05,12.637,8.4503e-05,-0.0079356,-0.00025775,-2571.6,0.813
12487,12.851,0.54545,0,0.00026037,2601.9,8.695e-05,12.312,8.5311e-05,-0.0042005,-0.00026016,-2595.7,0.80307
12488,12.943,0.54545,0.05,8.508e-07,8.5021,6.5331e-07,4.9087,1.8392e-12,7.2523e-07,-6.5331e-07,-4.9087,0.81336
12489,12.943,0.27273,0,0.00025817,2579.9,8.6305e-05,13.28,8.4536e-05,-0.006948,-0.00025794,-2573.2,0.81217
12490,12.851,0.36364,0,0.00026047,2602.9,8.699e-05,12.39,8.534e-05,-0.010838,-0.00026026,-2596.7,0.80227
12491,12.943,0.36364,0.05,8.0005e-07,7.995,6.1434e-07,4.6159,1.8517e-12,5.841e-08,-6.1434e-07,-4.6159,0.81257
12492,12.851,0.18182,0,0.00026079,2606.1,8.7218e-05,13.864,8.5373e-05,-0.00080996,-0.00026055,-2599.1,0.80142
12493,12.943,0.18182,0.05,3.6005e-08,0.3598,2.7644e-08,0.20772,-3.3803e-12,-8.9832e-06,-2.765e-08,-0.20774,0.81172
12494,12.943,0.090909,0,0.00025767,2574.9,8.5807e-05,9.2963,8.4569e-05,-0.0037446,-0.00025751,-2570.2,0.8113
12495,12.758,5.7273,0,0.00026308,2629,8.789e-05,12.873,8.6176e-05,-0.0062811,-0.00026286,-2622.5,0.79158
12496,12.666,5.8182,0,0.00026571,2655.3,8.8817e-05,13.547,8.7014e-05,-0.00093887,-0.00026548,-2648.5,0.7809
12497,12.758,5.8182,0.05,3.3488e-08,0.33465,2.5715e-08,0.1932,-2.2123e-13,-1.0487e-05,-2.5715e-08,-0.19322,0.79111
12498,12.758,5.9091,0,0.0002626,2624.1,8.7418e-05,9.1114,8.6205e-05,-0.0034592,-0.00026244,-2619.6,0.79068
12499,12.758,5.5455,0,0.00026286,2626.8,8.7751e-05,12.036,8.6148e-05,-0.0071869,-0.00026266,-2620.8,0.79241
12500,12.666,5.6364,0,0.00026538,2652,8.8568e-05,11.884,8.6985e-05,-0.0096294,-0.00026518,-2646,0.78177
12501,12.758,5.6364,0.05,8.0295e-07,8.0239,6.1656e-07,4.6326,-2.0988e-14,3.0927e-06,-6.1656e-07,-4.6326,0.79198
12502,12.758,5.3636,0,0.00026277,2625.9,8.7707e-05,11.908,8.6122e-05,-0.0035344,-0.00026256,-2619.9,0.79319
12503,12.666,5.4545,0,0.00026526,2650.8,8.8507e-05,11.612,8.6961e-05,-0.0039224,-0.00026506,-2645,0.78259
12504,12.758,5.4545,0.05,8.5396e-07,8.5337,6.5573e-07,4.9269,1.7987e-12,4.3028e-06,-6.5573e-07,-4.9269,0.79279
12505,12.758,5.1818,0,0.00026268,2625,8.7674e-05,11.83,8.6099e-05,-0.0020997,-0.00026248,-2619.1,0.79391
12506,12.666,5.2727,0,0.00026517,2649.9,8.8461e-05,11.434,8.6938e-05,-0.0029391,-0.00026497,-2644.1,0.78334
12507,12.758,5.2727,0.05,8.5766e-07,8.5707,6.5857e-07,4.9483,3.6087e-12,2.8411e-06,-6.5858e-07,-4.9483,0.79354
12508,12.758,5,0,0.00026261,2624.3,8.7644e-05,11.761,8.6078e-05,-0.00047875,-0.00026241,-2618.4,0.79457
12509,12.666,5.0909,0,0.00026508,2649,8.8419e-05,11.274,8.6918e-05,-0.0012261,-0.00026489,-2643.4,0.78404
12510,12.758,5.0909,0.05,8.5822e-07,8.5763,6.5901e-07,4.9515,1.8093e-12,2.6773e-06,-6.5901e-07,-4.9515,0.79423
12511,12.758,4.8182,0,0.00026254,2623.6,8.7616e-05,11.695,8.606e-05,0.00089063,-0.00026234,-2617.8,0.79518
12512,12.666,4.9091,0,0.00026501,2648.2,8.8381e-05,11.125,8.6901e-05,0.00013541,-0.00026482,-2642.7,0.78468
12513,12.758,4.9091,0.05,8.5852e-07,8.5793,6.5923e-07,4.9532,1.7967e-12,2.3804e-06,-6.5924e-07,-4.9533,0.79486
12514,12.758,4.6364,0,0.00026249,2623,8.7591e-05,11.63,8.6044e-05,0.0021157,-0.00026229,-2617.2,0.79573
12515,12.666,4.7273,0,0.00026494,2647.5,8.8347e-05,10.985,8.6885e-05,0.0014045,-0.00026475,-2642,0.78526
12516,12.758,4.7273,0.05,8.5875e-07,8.5816,6.5942e-07,4.9546,3.6172e-12,1.4946e-06,-6.5942e-07,-4.9546,0.79544
12517,12.758,4.4545,0,0.00026243,2622.5,8.7569e-05,11.565,8.603e-05,0.003176,-0.00026223,-2616.7,0.79622
12518,12.666,4.5455,0,0.00026488,2646.9,8.8315e-05,10.851,8.6871e-05,0.0025161,-0.00026469,-2641.5,0.78579
12519,12.758,4.5455,0.05,8.5893e-07,8.5834,6.5955e-07,4.9556,8.8596e-13,2.6503e-06,-6.5956e-07,-4.9557,0.79596
12520,12.758,4.2727,0,0.00026239,2622.1,8.7548e-05,11.502,8.6018e-05,0.0040856,-0.00026219,-2616.3,0.79665
12521,12.666,4.3636,0,0.00026482,2646.4,8.8286e-05,10.726,8.6859e-05,0.0034893,-0.00026464,-2641,0.78625
12522,12.758,4.3636,0.05,8.5907e-07,8.5848,6.5966e-07,4.9564,8.8762e-13,1.3043e-06,-6.5966e-07,-4.9564,0.79642
12523,12.758,4.0909,0,0.00026235,2621.7,8.753e-05,11.44,8.6008e-05,0.0048516,-0.00026215,-2615.9,0.79703
12524,12.666,4.1818,0,0.00026477,2645.9,8.8261e-05,10.609,8.6849e-05,0.0043236,-0.00026459,-2640.6,0.78666
12525,12.758,4.1818,0.05,8.5918e-07,8.5859,6.5974e-07,4.957,-1.4692e-14,1.2031e-06,-6.5975e-07,-4.9571,0.79683
12526,12.758,3.9091,0,0.00026231,2621.3,8.7514e-05,11.382,8.6e-05,0.0054817,-0.00026212,-2615.6,0.79735
12527,12.666,4,0,0.00026473,2645.5,8.8238e-05,10.503,8.6841e-05,0.005027,-0.00026455,-2640.2,0.78701
12528,12.758,4,0.05,8.5926e-07,8.5866,6.598e-07,4.9575,8.9308e-13,1.5552e-06,-6.598e-07,-4.9575,0.79717
12529,12.758,3.7273,0,0.00026229,2621.1,8.75e-05,11.331,8.5993e-05,0.005984,-0.00026209,-2615.4,0.79761
12530,12.666,3.8182,0,0.0002647,2645.2,8.8219e-05,10.409,8.6835e-05,0.0056005,-0.00026452,-2639.9,0.7873
12531,12.758,3.8182,0.05,8.5931e-07,8.5872,6.5984e-07,4.9578,8.9818e-13,1.6934e-06,-6.5984e-07,-4.9578,0.79746
12532,12.758,3.5455,0,0.00026226,2620.8,8.749e-05,11.288,8.5988e-05,0.0063672,-0.00026207,-2615.2,0.79781
12533,12.666,3.6364,0,0.00026467,2644.9,8.8204e-05,10.331,8.6829e-05,0.0060535,-0.00026449,-2639.7,0.78753
12534,12.758,3.6364,0.05,8.5935e-07,8.5875,6.5987e-07,4.958,1.809e-12,2.7846e-06,-6.5987e-07,-4.958,0.79769
12535,12.758,3.3636,0,0.00026225,2620.7,8.7482e-05,11.255,8.5985e-05,0.0066366,-0.00026206,-2615,0.79795
12536,12.666,3.4545,0,0.00026465,2644.7,8.8192e-05,10.27,8.6826e-05,0.0063891,-0.00026447,-2639.5,0.78771
12537,12.758,3.4545,0.05,8.5937e-07,8.5878,6.5989e-07,4.9581,1.8119e-12,2.8091e-06,-6.5989e-07,-4.9581,0.79787
12538,12.758,3.1818,0,0.00026224,2620.6,8.7477e-05,11.235,8.5983e-05,0.0067956,-0.00026205,-2614.9,0.79804
12539,12.666,3.2727,0,0.00026464,2644.5,8.8184e-05,10.229,8.6823e-05,0.0066108,-0.00026446,-2639.4,0.78783
12540,12.758,3.2727,0.05,8.5938e-07,8.5879,6.599e-07,4.9582,9.0516e-13,1.9946e-06,-6.599e-07,-4.9582,0.79798
12541,12.758,3,0,0.00026224,2620.6,8.7475e-05,11.228,8.5982e-05,0.0068482,-0.00026204,-2614.9,0.79807
12542,12.666,3.0909,0,0.00026463,2644.5,8.818e-05,10.207,8.6822e-05,0.0067202,-0.00026445,-2639.3,0.78788
12543,12.758,3.0909,0.05,8.5939e-07,8.588,6.599e-07,4.9582,1.8176e-12,2.7311e-06,-6.599e-07,-4.9583,0.79804
12544,12.758,2.8182,0,0.00026224,2620.6,8.7477e-05,11.235,8.5983e-05,0.0067962,-0.00026205,-2614.9,0.79804
12545,12.666,2.9091,0,0.00026463,2644.5,8.818e-05,10.207,8.6822e-05,0.0067206,-0.00026445,-2639.3,0.78788
12546,12.758,2.9091,0.05,8.5939e-07,8.588,6.599e-07,4.9582,1.8204e-12,3.2296e-06,-6.599e-07,-4.9583,0.79804
12547,12.758,2.6364,0,0.00026225,2620.7,8.7482e-05,11.255,8.5985e-05,0.006637,-0.00026206,-2615,0.79795
12548,12.666,2.7273,0,0.00026464,2644.5,8.8184e-05,10.229,8.6823e-05,0.0066111,-0.00026446,-2639.4,0.78783
12549,12.758,2.7273,0.05,8.5938e-07,8.5879,6.599e-07,4.9582,9.1392e-13,3.2514e-06,-6.599e-07,-4.9582,0.79798
12550,12.758,2.4545,0,0.00026226,2620.8,8.749e-05,11.288,8.5988e-05,0.0063674,-0.00026207,-2615.2,0.79781
12551,12.666,2.5455,0,0.00026465,2644.7,8.8192e-05,10.27,8.6826e-05,0.0063897,-0.00026447,-2639.5,0.78771
12552,12.758,2.5455,0.05,8.5937e-07,8.5878,6.5989e-07,4.9581,1.8261e-12,3.154e-06,-6.5989e-07,-4.9581,0.79787
12553,12.758,2.2727,0,0.00026229,2621.1,8.75e-05,11.331,8.5993e-05,0.0059842,-0.00026209,-2615.4,0.79761
12554,12.666,2.3636,0,0.00026467,2644.9,8.8204e-05,10.331,8.6829e-05,0.0060534,-0.00026449,-2639.7,0.78753
12555,12.758,2.3636,0.05,8.5935e-07,8.5875,6.5987e-07,4.958,1.8288e-12,2.8172e-06,-6.5987e-07,-4.958,0.79769
12556,12.758,2.0909,0,0.00026231,2621.3,8.7514e-05,11.382,8.6e-05,0.0054819,-0.00026212,-2615.6,0.79735
12557,12.666,2.1818,0,0.0002647,2645.2,8.8219e-05,10.409,8.6835e-05,0.0056009,-0.00026452,-2639.9,0.7873
12558,12.758,2.1818,0.05,8.5931e-07,8.5872,6.5984e-07,4.9578,1.8332e-12,2.4225e-06,-6.5984e-07,-4.9578,0.79746
12559,12.758,1.9091,0,0.00026235,2621.7,8.753e-05,11.44,8.6008e-05,0.0048518,-0.00026215,-2615.9,0.79703
12560,12.666,2,0,0.00026473,2645.5,8.8238e-05,10.503,8.6841e-05,0.005027,-0.00026455,-2640.2,0.78701
12561,12.758,2,0.05,8.5926e-07,8.5866,6.598e-07,4.9575,1.8335e-12,2.3301e-06,-6.598e-07,-4.9575,0.79717
12562,12.758,1.7273,0,0.00026239,2622.1,8.7548e-05,11.502,8.6018e-05,0.004086,-0.00026219,-2616.3,0.79665
12563,12.666,1.8182,0,0.00026477,2645.9,8.8261e-05,10.609,8.6849e-05,0.0043237,-0.00026459,-2640.6,0.78666
12564,12.758,1.8182,0.05,8.5918e-07,8.5859,6.5974e-07,4.957,1.8403e-12,2.3994e-06,-6.5975e-07,-4.9571,0.79683
12565,12.758,1.5455,0,0.00026243,2622.5,8.7569e-05,11.565,8.603e-05,0.0031764,-0.00026223,-2616.7,0.79622
12566,12.666,1.6364,0,0.00026482,2646.4,8.8286e-05,10.726,8.6859e-05,0.0034894,-0.00026464,-2641,0.78625
12567,12.758,1.6364,0.05,8.5907e-07,8.5848,6.5966e-07,4.9564,2.7494e-12,2.2426e-06,-6.5966e-07,-4.9565,0.79642
12568,12.758,1.3636,0,0.00026249,2623,8.7591e-05,11.63,8.6044e-05,0.002116,-0.00026229,-2617.2,0.79573
12569,12.666,1.4545,0,0.00026488,2646.9,8.8315e-05,10.851,8.6871e-05,0.0025168,-0.00026469,-2641.5,0.78579
12570,12.758,1.4545,0.05,8.5893e-07,8.5834,6.5955e-07,4.9556,1.8404e-12,2.0542e-06,-6.5956e-07,-4.9556,0.79596
12571,12.758,1.1818,0,0.00026254,2623.6,8.7616e-05,11.695,8.606e-05,0.00089113,-0.00026234,-2617.8,0.79518
12572,12.666,1.2727,0,0.00026494,2647.5,8.8347e-05,10.985,8.6885e-05,0.0014051,-0.00026475,-2642,0.78526
12573,12.758,1.2727,0.05,8.5875e-07,8.5816,6.5942e-07,4.9545,9.347e-13,2.2049e-06,-6.5942e-07,-4.9546,0.79544
12574,12.758,1,0,0.00026261,2624.3,8.7644e-05,11.761,8.6078e-05,-0.00047715,-0.00026241,-2618.4,0.79457
12575,12.666,1.0909,0,0.00026501,2648.2,8.8381e-05,11.125,8.6901e-05,0.00013615,-0.00026482,-2642.7,0.78468
12576,12.758,1.0909,0.05,8.5852e-07,8.5793,6.5923e-07,4.9532,1.8498e-12,2.4119e-06,-6.5924e-07,-4.9533,0.79486
12577,12.758,0.81818,0,0.00026268,2625,8.7674e-05,11.83,8.6099e-05,-0.0020982,-0.00026248,-2619.1,0.79391
12578,12.666,0.90909,0,0.00026508,2649,8.8419e-05,11.274,8.6918e-05,-0.0012243,-0.00026489,-2643.4,0.78404
12579,12.758,0.90909,0.05,8.5822e-07,8.5763,6.5901e-07,4.9515,9.4509e-13,1.8754e-06,-6.5901e-07,-4.9516,0.79423
12580,12.758,0.63636,0,0.00026277,2625.9,8.7707e-05,11.908,8.6122e-05,-0.0035344,-0.00026256,-2619.9,0.79319
12581,12.666,0.72727,0,0.00026517,2649.9,8.8461e-05,11.434,8.6938e-05,-0.002938,-0.00026497,-2644.1,0.78334
12582,12.758,0.72727,0.05,8.5766e-07,8.5707,6.5858e-07,4.9483,9.3258e-13,1.0295e-06,-6.5858e-07,-4.9483,0.79354
12583,12.758,0.45455,0,0.00026286,2626.8,8.7751e-05,12.036,8.6148e-05,-0.007187,-0.00026266,-2620.8,0.79241
12584,12.666,0.54545,0,0.00026526,2650.8,8.8507e-05,11.612,8.6961e-05,-0.0039223,-0.00026506,-2645,0.78259
12585,12.758,0.54545,0.05,8.5396e-07,8.5337,6.5573e-07,4.9269,2.5746e-14,6.6992e-07,-6.5573e-07,-4.927,0.79279
12586,12.758,0.27273,0,0.00026308,2629,8.789e-05,12.873,8.6176e-05,-0.0062809,-0.00026286,-2622.5,0.79158
12587,12.666,0.36364,0,0.00026538,2652,8.8568e-05,11.884,8.6985e-05,-0.0096292,-0.00026518,-2646,0.78177
12588,12.758,0.36364,0.05,8.0295e-07,8.0239,6.1656e-07,4.6326,9.1563e-13,-3.6572e-07,-6.1657e-07,-4.6326,0.79198
12589,12.666,0.18182,0,0.00026571,2655.3,8.8817e-05,13.547,8.7014e-05,-0.00093878,-0.00026548,-2648.5,0.7809
12590,12.758,0.18182,0.05,3.3489e-08,0.33466,2.5716e-08,0.19319,-8.9694e-13,-3.4605e-05,-2.5716e-08,-0.19324,0.79111
12591,12.758,0.090909,0,0.0002626,2624.1,8.7418e-05,9.1114,8.6205e-05,-0.003459,-0.00026244,-2619.6,0.79068
12592,12.574,5.7273,0,0.000268,2678.2,8.9481e-05,12.458,8.7823e-05,-0.0056548,-0.00026779,-2671.9,0.77116
12593,12.481,5.8182,0,0.00027066,2704.7,9.042e-05,13.219,8.8661e-05,-0.0011098,-0.00027043,-2698.1,0.76056
12594,12.574,5.8182,0.05,3.1659e-08,0.31637,2.4309e-08,0.18266,-1.3315e-12,1.4637e-06,-2.4311e-08,-0.18266,0.77069
12595,12.574,5.9091,0,0.00026754,2673.6,8.9034e-05,8.9197,8.7847e-05,-0.0031932,-0.00026739,-2669.1,0.77025
12596,12.574,5.5455,0,0.00026778,2675.9,8.9321e-05,11.431,8.7798e-05,-0.0064529,-0.00026758,-2670.2,0.77201
12597,12.481,5.6364,0,0.00027031,2701.2,9.0152e-05,11.371,8.8637e-05,-0.0084316,-0.00027011,-2695.5,0.76145
12598,12.574,5.6364,0.05,8.0601e-07,8.0545,6.1891e-07,4.6503,1.8095e-12,2.8084e-06,-6.1891e-07,-4.6503,0.77157
12599,12.574,5.3636,0,0.00026766,2674.8,8.9257e-05,11.113,8.7777e-05,-0.0033301,-0.00026747,-2669.2,0.7728
12600,12.481,5.4545,0,0.00027018,2699.9,9.0069e-05,10.905,8.8617e-05,-0.0036399,-0.00026999,-2694.4,0.76228
12601,12.574,5.4545,0.05,8.5724e-07,8.5665,6.5825e-07,4.9459,2.7277e-12,4.0855e-06,-6.5825e-07,-4.9459,0.77239
12602,12.574,5.1818,0,0.00026756,2673.8,8.9203e-05,10.855,8.7758e-05,-0.0020619,-0.00026738,-2668.4,0.77353
12603,12.481,5.2727,0,0.00027007,2698.8,9.0002e-05,10.542,8.8599e-05,-0.0027857,-0.00026988,-2693.5,0.76305
12604,12.574,5.2727,0.05,8.6099e-07,8.604,6.6113e-07,4.9675,1.8043e-12,2.4275e-06,-6.6114e-07,-4.9675,0.77315
12605,12.574,5,0,0.00026748,2672.9,8.9154e-05,10.616,8.7741e-05,-0.00060769,-0.00026729,-2667.6,0.7742
12606,12.481,5.0909,0,0.00026996,2697.8,8.9941e-05,10.207,8.8582e-05,-0.0012873,-0.00026979,-2692.7,0.76375
12607,12.574,5.0909,0.05,8.6159e-07,8.6099,6.6159e-07,4.9709,-6.0263e-15,2.9283e-06,-6.6159e-07,-4.971,0.77385
12608,12.574,4.8182,0,0.0002674,2672.1,8.9108e-05,10.393,8.7725e-05,0.00065359,-0.00026722,-2666.9,0.77482
12609,12.481,4.9091,0,0.00026987,2696.9,8.9885e-05,9.8934,8.8568e-05,-5.9821e-05,-0.0002697,-2691.9,0.76441
12610,12.574,4.9091,0.05,8.6193e-07,8.6133,6.6185e-07,4.9729,1.8044e-12,2.2861e-06,-6.6186e-07,-4.9729,0.7745
12611,12.574,4.6364,0,0.00026732,2671.4,8.9067e-05,10.184,8.7712e-05,0.0018096,-0.00026715,-2666.3,0.77538
12612,12.481,4.7273,0,0.00026979,2696.1,8.9833e-05,9.601,8.8555e-05,0.0011123,-0.00026963,-2691.2,0.765
12613,12.574,4.7273,0.05,8.622e-07,8.6161,6.6206e-07,4.9745,2.7162e-12,1.4086e-06,-6.6206e-07,-4.9745,0.77509
12614,12.574,4.4545,0,0.00026726,2670.8,8.903e-05,9.9899,8.7701e-05,0.0028355,-0.00026709,-2665.7,0.77588
12615,12.481,4.5455,0,0.00026972,2695.3,8.9786e-05,9.3299,8.8544e-05,0.0021692,-0.00026956,-2690.6,0.76553
12616,12.574,4.5455,0.05,8.6243e-07,8.6183,6.6224e-07,4.9758,-8.0485e-15,2.5952e-06,-6.6224e-07,-4.9758,0.77561
12617,12.574,4.2727,0,0.0002672,2670.2,8.8996e-05,9.8116,8.7691e-05,0.0037357,-0.00026704,-2665.3,0.77632
12618,12.481,4.3636,0,0.00026965,2694.7,8.9743e-05,9.081,8.8535e-05,0.0031176,-0.0002695,-2690.1,0.766
12619,12.574,4.3636,0.05,8.6261e-07,8.6201,6.6238e-07,4.9768,8.9552e-13,1.5935e-06,-6.6238e-07,-4.9769,0.77608
12620,12.574,4.0909,0,0.00026715,2669.7,8.8967e-05,9.6507,8.7683e-05,0.0045108,-0.00026699,-2664.9,0.7767
12621,12.481,4.1818,0,0.00026959,2694.1,8.9705e-05,8.8561,8.8527e-05,0.0039536,-0.00026944,-2689.6,0.76642
12622,12.574,4.1818,0.05,8.6276e-07,8.6216,6.6249e-07,4.9777,1.8073e-12,1.3438e-06,-6.6249e-07,-4.9777,0.77649
12623,12.574,3.9091,0,0.00026711,2669.3,8.8941e-05,9.5092,8.7676e-05,0.0051615,-0.00026695,-2664.5,0.77702
12624,12.481,4,0,0.00026954,2693.6,8.9672e-05,8.6571,8.8521e-05,0.0046755,-0.0002694,-2689.2,0.76677
12625,12.574,4,0.05,8.6287e-07,8.6228,6.6258e-07,4.9784,2.7176e-12,1.7688e-06,-6.6258e-07,-4.9784,0.77685
12626,12.574,3.7273,0,0.00026708,2668.9,8.892e-05,9.3893,8.7671e-05,0.00569,-0.00026692,-2664.2,0.77729
12627,12.481,3.8182,0,0.0002695,2693.2,8.9644e-05,8.4864,8.8516e-05,0.0052783,-0.00026936,-2688.9,0.76707
12628,12.574,3.8182,0.05,8.6296e-07,8.6236,6.6264e-07,4.9788,1.81e-12,1.8402e-06,-6.6265e-07,-4.9789,0.77714
12629,12.574,3.5455,0,0.00026705,2668.7,8.8903e-05,9.2933,8.7667e-05,0.0060995,-0.00026689,-2664,0.77749
12630,12.481,3.6364,0,0.00026947,2692.8,8.9622e-05,8.3465,8.8512e-05,0.0057645,-0.00026933,-2688.6,0.76731
12631,12.574,3.6364,0.05,8.6303e-07,8.6243,6.627e-07,4.9792,9.0311e-13,2.9858e-06,-6.627e-07,-4.9793,0.77738
12632,12.574,3.3636,0,0.00026703,2668.5,8.8891e-05,9.2232,8.7664e-05,0.0063906,-0.00026687,-2663.9,0.77764
12633,12.481,3.4545,0,0.00026944,2692.6,8.9604e-05,8.2393,8.8509e-05,0.0061306,-0.0002693,-2688.4,0.76748
12634,12.574,3.4545,0.05,8.6307e-07,8.6248,6.6273e-07,4.9795,9.0464e-13,2.7065e-06,-6.6273e-07,-4.9795,0.77755
12635,12.574,3.1818,0,0.00026702,2668.4,8.8883e-05,9.1804,8.7662e-05,0.0065648,-0.00026686,-2663.8,0.77773
12636,12.481,3.2727,0,0.00026943,2692.4,8.9593e-05,8.1668,8.8507e-05,0.0063751,-0.00026929,-2688.3,0.7676
12637,12.574,3.2727,0.05,8.631e-07,8.625,6.6275e-07,4.9796,-2.938e-15,2.3026e-06,-6.6275e-07,-4.9797,0.77767
12638,12.574,3,0,0.00026702,2668.3,8.8881e-05,9.166,8.7662e-05,0.0066227,-0.00026686,-2663.7,0.77776
12639,12.481,3.0909,0,0.00026942,2692.3,8.9587e-05,8.1302,8.8506e-05,0.0064974,-0.00026928,-2688.3,0.76766
12640,12.574,3.0909,0.05,8.6311e-07,8.6252,6.6277e-07,4.9797,1.818e-12,2.7941e-06,-6.6276e-07,-4.9798,0.77773
12641,12.574,2.8182,0,0.00026702,2668.4,8.8883e-05,9.1804,8.7662e-05,0.0065648,-0.00026686,-2663.8,0.77773
12642,12.481,2.9091,0,0.00026942,2692.3,8.9587e-05,8.1302,8.8506e-05,0.0064975,-0.00026928,-2688.3,0.76766
12643,12.574,2.9091,0.05,8.6311e-07,8.6252,6.6277e-07,4.9797,9.1048e-13,3.4049e-06,-6.6276e-07,-4.9798,0.77773
12644,12.574,2.6364,0,0.00026703,2668.5,8.8891e-05,9.2231,8.7664e-05,0.0063909,-0.00026687,-2663.9,0.77764
12645,12.481,2.7273,0,0.00026943,2692.4,8.9593e-05,8.1668,8.8507e-05,0.0063749,-0.00026929,-2688.3,0.7676
12646,12.574,2.7273,0.05,8.631e-07,8.625,6.6275e-07,4.9796,2.9935e-15,3.1814e-06,-6.6276e-07,-4.9797,0.77767
12647,12.574,2.4545,0,0.00026705,2668.7,8.8903e-05,9.2933,8.7667e-05,0.0060996,-0.00026689,-2664,0.77749
12648,12.481,2.5455,0,0.00026944,2692.6,8.9604e-05,8.2393,8.8509e-05,0.0061311,-0.0002693,-2688.4,0.76748
12649,12.574,2.5455,0.05,8.6307e-07,8.6248,6.6273e-07,4.9795,9.1455e-13,2.6003e-06,-6.6273e-07,-4.9795,0.77755
12650,12.574,2.2727,0,0.00026708,2668.9,8.892e-05,9.3893,8.7671e-05,0.0056901,-0.00026692,-2664.2,0.77729
12651,12.481,2.3636,0,0.00026947,2692.8,8.9622e-05,8.3464,8.8512e-05,0.0057643,-0.00026933,-2688.6,0.76731
12652,12.574,2.3636,0.05,8.6303e-07,8.6243,6.627e-07,4.9792,9.1657e-13,2.8572e-06,-6.627e-07,-4.9793,0.77738
12653,12.574,2.0909,0,0.00026711,2669.3,8.8941e-05,9.5091,8.7676e-05,0.0051617,-0.00026695,-2664.5,0.77702
12654,12.481,2.1818,0,0.0002695,2693.2,8.9644e-05,8.4864,8.8516e-05,0.005279,-0.00026936,-2688.9,0.76707
12655,12.574,2.1818,0.05,8.6296e-07,8.6236,6.6264e-07,4.9788,9.1869e-13,2.4463e-06,-6.6265e-07,-4.9789,0.77714
12656,12.574,1.9091,0,0.00026715,2669.7,8.8967e-05,9.6506,8.7683e-05,0.0045105,-0.00026699,-2664.9,0.7767
12657,12.481,2,0,0.00026954,2693.6,8.9672e-05,8.6571,8.8521e-05,0.0046753,-0.0002694,-2689.2,0.76677
12658,12.574,2,0.05,8.6287e-07,8.6228,6.6258e-07,4.9783,9.1985e-13,2.4671e-06,-6.6258e-07,-4.9784,0.77685
12659,12.574,1.7273,0,0.0002672,2670.2,8.8996e-05,9.8115,8.7691e-05,0.0037355,-0.00026704,-2665.3,0.77632
12660,12.481,1.8182,0,0.00026959,2694.1,8.9705e-05,8.856,8.8527e-05,0.0039535,-0.00026944,-2689.6,0.76642
12661,12.574,1.8182,0.05,8.6276e-07,8.6216,6.6249e-07,4.9776,2.7411e-12,2.2967e-06,-6.6249e-07,-4.9778,0.77649
12662,12.574,1.5455,0,0.00026726,2670.8,8.903e-05,9.9898,8.7701e-05,0.0028359,-0.00026709,-2665.7,0.77588
12663,12.481,1.6364,0,0.00026965,2694.7,8.9743e-05,9.081,8.8535e-05,0.0031179,-0.0002695,-2690.1,0.766
12664,12.574,1.6364,0.05,8.6261e-07,8.6201,6.6237e-07,4.9768,9.2446e-13,2.1397e-06,-6.6238e-07,-4.9769,0.77608
12665,12.574,1.3636,0,0.00026732,2671.4,8.9067e-05,10.184,8.7712e-05,0.0018106,-0.00026715,-2666.3,0.77538
12666,12.481,1.4545,0,0.00026972,2695.3,8.9786e-05,9.3299,8.8544e-05,0.0021696,-0.00026956,-2690.6,0.76553
12667,12.574,1.4545,0.05,8.6243e-07,8.6183,6.6224e-07,4.9757,1.8349e-12,2.0351e-06,-6.6223e-07,-4.9758,0.77561
12668,12.574,1.1818,0,0.0002674,2672.1,8.9108e-05,10.392,8.7725e-05,0.00065444,-0.00026722,-2666.9,0.77482
12669,12.481,1.2727,0,0.00026979,2696.1,8.9833e-05,9.601,8.8555e-05,0.001113,-0.00026963,-2691.2,0.765
12670,12.574,1.2727,0.05,8.622e-07,8.6161,6.6206e-07,4.9745,1.554e-14,1.7953e-06,-6.6206e-07,-4.9745,0.77509
12671,12.574,1,0,0.00026748,2672.9,8.9154e-05,10.616,8.7741e-05,-0.00060674,-0.00026729,-2667.6,0.7742
12672,12.481,1.0909,0,0.00026987,2696.9,8.9885e-05,9.8933,8.8568e-05,-5.9298e-05,-0.0002697,-2691.9,0.76441
12673,12.574,1.0909,0.05,8.6193e-07,8.6133,6.6185e-07,4.9729,1.8364e-12,1.3293e-06,-6.6185e-07,-4.9729,0.7745
12674,12.574,0.81818,0,0.00026756,2673.8,8.9203e-05,10.855,8.7758e-05,-0.0020607,-0.00026738,-2668.4,0.77353
12675,12.481,0.90909,0,0.00026996,2697.8,8.9941e-05,10.207,8.8582e-05,-0.0012856,-0.00026979,-2692.7,0.76375
12676,12.574,0.90909,0.05,8.6159e-07,8.6099,6.6159e-07,4.9709,1.8415e-12,1.4917e-06,-6.616e-07,-4.971,0.77385
12677,12.574,0.63636,0,0.00026766,2674.8,8.9257e-05,11.113,8.7777e-05,-0.0033289,-0.00026747,-2669.2,0.7728
12678,12.481,0.72727,0,0.00027007,2698.8,9.0002e-05,10.542,8.8599e-05,-0.0027844,-0.00026988,-2693.5,0.76305
12679,12.574,0.72727,0.05,8.6099e-07,8.604,6.6113e-07,4.9675,9.0849e-13,1.4503e-06,-6.6114e-07,-4.9675,0.77315
12680,12.574,0.45455,0,0.00026778,2675.9,8.9321e-05,11.431,8.7798e-05,-0.0064525,-0.00026758,-2670.2,0.77201
12681,12.481,0.54545,0,0.00027018,2699.9,9.0069e-05,10.905,8.8617e-05,-0.0036398,-0.00026999,-2694.4,0.76228
12682,12.574,0.54545,0.05,8.5724e-07,8.5665,6.5825e-07,4.9458,1.8401e-12,6.3501e-07,-6.5826e-07,-4.9459,0.77239
12683,12.574,0.27273,0,0.000268,2678.2,8.9481e-05,12.458,8.7823e-05,-0.0056547,-0.00026779,-2671.9,0.77116
12684,12.481,0.36364,0,0.00027031,2701.2,9.0152e-05,11.371,8.8637e-05,-0.0084313,-0.00027011,-2695.5,0.76145
12685,12.574,0.36364,0.05,8.0601e-07,8.0545,6.1891e-07,4.6502,1.8433e-12,3.3078e-07,-6.1891e-07,-4.6503,0.77157
12686,12.481,0.18182,0,0.00027066,2704.7,9.042e-05,13.219,8.8661e-05,-0.0011095,-0.00027043,-2698.1,0.76056
12687,12.574,0.18182,0.05,3.166e-08,0.31638,2.4309e-08,0.18262,-2.7351e-12,-3.4826e-05,-2.4313e-08,-0.18271,0.77069
12688,12.574,0.090909,0,0.00026754,2673.6,8.9034e-05,8.9196,8.7847e-05,-0.0031922,-0.00026739,-2669.1,0.77025
12689,12.389,5.7273,0,0.00027295,2727.6,9.1077e-05,12.033,8.9475e-05,-0.0050436,-0.00027274,-2721.6,0.75092
12690,12.296,5.8182,0,0.00027562,2754.3,9.2029e-05,12.88,9.0315e-05,-0.001303,-0.00027539,-2747.8,0.74041
12691,12.389,5.8182,0.05,3.0609e-08,0.30588,2.3503e-08,0.1766,1.1321e-12,1.9034e-06,-2.3505e-08,-0.1766,0.75044
12692,12.389,5.9091,0,0.00027251,2723.2,9.0656e-05,8.7207,8.9495e-05,-0.0029273,-0.00027236,-2718.8,0.74999
12693,12.389,5.5455,0,0.0002727,2725.2,9.0896e-05,10.817,8.9456e-05,-0.0057064,-0.00027252,-2719.7,0.75178
12694,12.296,5.6364,0,0.00027525,2750.6,9.174e-05,10.847,9.0296e-05,-0.0072126,-0.00027507,-2745.2,0.74131
12695,12.389,5.6364,0.05,8.0922e-07,8.0867,6.2138e-07,4.6688,9.0839e-13,2.5327e-06,-6.2139e-07,-4.6689,0.75134
12696,12.389,5.3636,0,0.00027258,2723.9,9.0811e-05,10.31,8.9438e-05,-0.0031108,-0.0002724,-2718.7,0.75259
12697,12.296,5.4545,0,0.00027511,2749.2,9.1636e-05,10.188,9.028e-05,-0.0033296,-0.00027493,-2744.1,0.74215
12698,12.389,5.4545,0.05,8.6065e-07,8.6006,6.6087e-07,4.9655,2.722e-12,3.3968e-06,-6.6087e-07,-4.9655,0.75217
12699,12.389,5.1818,0,0.00027246,2722.7,9.0737e-05,9.8707,8.9423e-05,-0.0020212,-0.00027229,-2717.8,0.75333
12700,12.296,5.2727,0,0.00027498,2747.9,9.1549e-05,9.6385,9.0265e-05,-0.0026135,-0.00027482,-2743.1,0.74293
12701,12.389,5.2727,0.05,8.6444e-07,8.6384,6.6378e-07,4.9874,9.0356e-13,1.8998e-06,-6.6378e-07,-4.9874,0.75294
12702,12.389,5,0,0.00027236,2721.7,9.0669e-05,9.4615,8.9409e-05,-0.00074993,-0.0002722,-2717,0.75402
12703,12.296,5.0909,0,0.00027486,2746.8,9.1468e-05,9.1263,9.0253e-05,-0.0013489,-0.00027471,-2742.2,0.74365
12704,12.389,5.0909,0.05,8.6507e-07,8.6447,6.6427e-07,4.991,-9.3714e-15,2.1727e-06,-6.6427e-07,-4.991,0.75366
12705,12.389,4.8182,0,0.00027227,2720.8,9.0606e-05,9.0795,8.9398e-05,0.00038735,-0.00027211,-2716.2,0.75464
12706,12.296,4.9091,0,0.00027476,2745.7,9.1393e-05,8.647,9.0242e-05,-0.00027704,-0.00027461,-2741.4,0.74432
12707,12.389,4.9091,0.05,8.6544e-07,8.6484,6.6455e-07,4.9932,1.8063e-12,1.5679e-06,-6.6455e-07,-4.9932,0.75432
12708,12.389,4.6364,0,0.00027218,2719.9,9.0548e-05,8.7252,8.9387e-05,0.00146,-0.00027203,-2715.6,0.75521
12709,12.296,4.7273,0,0.00027466,2744.7,9.1324e-05,8.201,9.0233e-05,0.00077681,-0.00027452,-2740.6,0.74492
12710,12.389,4.7273,0.05,8.6575e-07,8.6515,6.6479e-07,4.995,1.8063e-12,8.1991e-07,-6.6479e-07,-4.995,0.75491
12711,12.389,4.4545,0,0.00027211,2719.2,9.0496e-05,8.3996,8.9379e-05,0.0024407,-0.00027196,-2715,0.75572
12712,12.296,4.5455,0,0.00027458,2743.9,9.1261e-05,7.7896,9.0225e-05,0.0017601,-0.00027444,-2740,0.74546
12713,12.389,4.5455,0.05,8.6601e-07,8.6542,6.6499e-07,4.9965,-9.3655e-15,1.9492e-06,-6.6499e-07,-4.9965,0.75545
12714,12.389,4.2727,0,0.00027204,2718.5,9.0449e-05,8.1043,8.9371e-05,0.003328,-0.0002719,-2714.4,0.75616
12715,12.296,4.3636,0,0.0002745,2743.1,9.1204e-05,7.4148,9.0218e-05,0.0026744,-0.00027437,-2739.4,0.74594
12716,12.389,4.3636,0.05,8.6624e-07,8.6564,6.6516e-07,4.9977,1.8113e-12,6.6108e-07,-6.6516e-07,-4.9978,0.75593
12717,12.389,4.0909,0,0.00027198,2717.9,9.0408e-05,7.8416,8.9365e-05,0.0041161,-0.00027185,-2714,0.75655
12718,12.296,4.1818,0,0.00027443,2742.4,9.1154e-05,7.0789,9.0212e-05,0.0035112,-0.00027431,-2738.9,0.74636
12719,12.389,4.1818,0.05,8.6642e-07,8.6582,6.653e-07,4.9988,9.0092e-13,5.9336e-07,-6.653e-07,-4.9988,0.75634
12720,12.389,3.9091,0,0.00027193,2717.4,9.0373e-05,7.6137,8.936e-05,0.004797,-0.0002718,-2713.6,0.75688
12721,12.296,4,0,0.00027437,2741.9,9.111e-05,6.7843,9.0208e-05,0.0042595,-0.00027426,-2738.5,0.74672
12722,12.389,4,0.05,8.6657e-07,8.6597,6.6541e-07,4.9996,9.0178e-13,6.6093e-07,-6.6542e-07,-4.9997,0.7567
12723,12.389,3.7273,0,0.00027189,2717,9.0343e-05,7.4231,8.9356e-05,0.0053654,-0.00027176,-2713.3,0.75715
12724,12.296,3.8182,0,0.00027433,2741.4,9.1073e-05,6.5337,9.0204e-05,0.004908,-0.00027421,-2738.1,0.74702
12725,12.389,3.8182,0.05,8.6668e-07,8.6608,6.655e-07,5.0003,-6.3774e-15,9.1111e-07,-6.655e-07,-5.0004,0.757
12726,12.389,3.5455,0,0.00027186,2716.7,9.032e-05,7.2722,8.9353e-05,0.0058162,-0.00027173,-2713.1,0.75736
12727,12.296,3.6364,0,0.00027429,2741,9.1043e-05,6.3297,9.0201e-05,0.0054471,-0.00027418,-2737.8,0.74726
12728,12.389,3.6364,0.05,8.6677e-07,8.6617,6.6557e-07,5.0008,9.047e-13,2.1672e-06,-6.6557e-07,-5.0009,0.75724
12729,12.389,3.3636,0,0.00027184,2716.5,9.0304e-05,7.1628,8.9351e-05,0.0061423,-0.00027171,-2712.9,0.75751
12730,12.296,3.4545,0,0.00027426,2740.7,9.102e-05,6.1745,9.0199e-05,0.0058645,-0.00027415,-2737.6,0.74744
12731,12.389,3.4545,0.05,8.6684e-07,8.6624,6.6562e-07,5.0012,-3.3304e-15,2.0016e-06,-6.6563e-07,-5.0012,0.75742
12732,12.389,3.1818,0,0.00027182,2716.3,9.0294e-05,7.0965,8.935e-05,0.0063395,-0.0002717,-2712.8,0.7576
12733,12.296,3.2727,0,0.00027424,2740.5,9.1005e-05,6.0699,9.0198e-05,0.0061487,-0.00027413,-2737.4,0.74756
12734,12.389,3.2727,0.05,8.6688e-07,8.6628,6.6565e-07,5.0015,-1.9564e-15,1.3561e-06,-6.6566e-07,-5.0015,0.75754
12735,12.389,3,0,0.00027182,2716.3,9.029e-05,7.0742,8.935e-05,0.0064055,-0.0002717,-2712.8,0.75763
12736,12.296,3.0909,0,0.00027423,2740.4,9.0997e-05,6.0173,9.0197e-05,0.0062929,-0.00027412,-2737.4,0.74762
12737,12.389,3.0909,0.05,8.669e-07,8.663,6.6567e-07,5.0016,2.7278e-12,1.9024e-06,-6.6568e-07,-5.0016,0.7576
12738,12.389,2.8182,0,0.00027182,2716.3,9.0294e-05,7.0965,8.935e-05,0.0063393,-0.0002717,-2712.8,0.7576
12739,12.296,2.9091,0,0.00027423,2740.4,9.0997e-05,6.0173,9.0197e-05,0.0062929,-0.00027412,-2737.4,0.74762
12740,12.389,2.9091,0.05,8.669e-07,8.663,6.6567e-07,5.0016,2.7291e-12,2.3892e-06,-6.6568e-07,-5.0016,0.7576
12741,12.389,2.6364,0,0.00027184,2716.5,9.0304e-05,7.1627,8.9351e-05,0.0061422,-0.00027171,-2712.9,0.75751
12742,12.296,2.7273,0,0.00027424,2740.5,9.1005e-05,6.0699,9.0198e-05,0.0061489,-0.00027413,-2737.4,0.74756
12743,12.389,2.7273,0.05,8.6688e-07,8.6628,6.6565e-07,5.0015,2.0987e-15,2.0418e-06,-6.6566e-07,-5.0015,0.75754
12744,12.389,2.4545,0,0.00027186,2716.7,9.032e-05,7.2721,8.9353e-05,0.0058163,-0.00027173,-2713.1,0.75736
12745,12.296,2.5455,0,0.00027426,2740.7,9.102e-05,6.1745,9.0199e-05,0.0058648,-0.00027415,-2737.6,0.74744
12746,12.389,2.5455,0.05,8.6684e-07,8.6624,6.6562e-07,5.0012,1.8225e-12,1.9924e-06,-6.6563e-07,-5.0013,0.75742
12747,12.389,2.2727,0,0.00027189,2717,9.0343e-05,7.4231,8.9356e-05,0.0053659,-0.00027176,-2713.3,0.75715
12748,12.296,2.3636,0,0.00027429,2741,9.1043e-05,6.3297,9.0201e-05,0.0054473,-0.00027418,-2737.8,0.74726
12749,12.389,2.3636,0.05,8.6677e-07,8.6617,6.6557e-07,5.0008,9.1424e-13,1.8238e-06,-6.6557e-07,-5.0009,0.75724
12750,12.389,2.0909,0,0.00027193,2717.4,9.0373e-05,7.6137,8.936e-05,0.0047973,-0.0002718,-2713.6,0.75688
12751,12.296,2.1818,0,0.00027433,2741.4,9.1073e-05,6.5337,9.0204e-05,0.0049087,-0.00027421,-2738.1,0.74702
12752,12.389,2.1818,0.05,8.6668e-07,8.6608,6.655e-07,5.0003,1.8256e-12,1.5375e-06,-6.655e-07,-5.0004,0.757
12753,12.389,1.9091,0,0.00027198,2717.9,9.0408e-05,7.8415,8.9365e-05,0.0041161,-0.00027185,-2714,0.75655
12754,12.296,2,0,0.00027437,2741.9,9.111e-05,6.7842,9.0208e-05,0.0042598,-0.00027426,-2738.5,0.74672
12755,12.389,2,0.05,8.6657e-07,8.6597,6.6541e-07,4.9996,9.1623e-13,1.2776e-06,-6.6542e-07,-4.9997,0.7567
12756,12.389,1.7273,0,0.00027204,2718.5,9.0449e-05,8.1043,8.9371e-05,0.0033285,-0.0002719,-2714.4,0.75616
12757,12.296,1.8182,0,0.00027443,2742.4,9.1154e-05,7.0788,9.0212e-05,0.0035111,-0.00027431,-2738.9,0.74636
12758,12.389,1.8182,0.05,8.6642e-07,8.6582,6.653e-07,4.9988,2.7377e-12,1.4698e-06,-6.653e-07,-4.9988,0.75634
12759,12.389,1.5455,0,0.00027211,2719.2,9.0496e-05,8.3995,8.9379e-05,0.0024409,-0.00027196,-2715,0.75572
12760,12.296,1.6364,0,0.0002745,2743.1,9.1204e-05,7.4148,9.0218e-05,0.0026749,-0.00027437,-2739.4,0.74594
12761,12.389,1.6364,0.05,8.6624e-07,8.6564,6.6516e-07,4.9977,9.195e-13,1.3647e-06,-6.6516e-07,-4.9978,0.75593
12762,12.389,1.3636,0,0.00027218,2719.9,9.0548e-05,8.7251,8.9387e-05,0.0014601,-0.00027203,-2715.6,0.75521
12763,12.296,1.4545,0,0.00027458,2743.9,9.1261e-05,7.7896,9.0225e-05,0.0017603,-0.00027444,-2740,0.74546
12764,12.389,1.4545,0.05,8.6601e-07,8.6542,6.6499e-07,4.9965,1.8291e-12,1.1587e-06,-6.65e-07,-4.9965,0.75545
12765,12.389,1.1818,0,0.00027227,2720.8,9.0606e-05,9.0795,8.9398e-05,0.00038775,-0.00027211,-2716.2,0.75464
12766,12.296,1.2727,0,0.00027466,2744.7,9.1324e-05,8.2009,9.0233e-05,0.00077717,-0.00027452,-2740.6,0.74492
12767,12.389,1.2727,0.05,8.6575e-07,8.6515,6.6479e-07,4.995,9.1805e-13,7.8748e-07,-6.6479e-07,-4.995,0.75491
12768,12.389,1,0,0.00027236,2721.7,9.0669e-05,9.4614,8.9409e-05,-0.0007487,-0.0002722,-2717,0.75402
12769,12.296,1.0909,0,0.00027476,2745.7,9.1393e-05,8.6469,9.0242e-05,-0.00027638,-0.00027461,-2741.4,0.74432
12770,12.389,1.0909,0.05,8.6544e-07,8.6484,6.6455e-07,4.9931,1.8264e-12,5.5519e-07,-6.6456e-07,-4.9932,0.75432
12771,12.389,0.81818,0,0.00027246,2722.7,9.0737e-05,9.8706,8.9423e-05,-0.0020196,-0.00027229,-2717.8,0.75333
12772,12.296,0.90909,0,0.00027486,2746.8,9.1468e-05,9.1262,9.0253e-05,-0.0013472,-0.00027471,-2742.2,0.74365
12773,12.389,0.90909,0.05,8.6507e-07,8.6447,6.6427e-07,4.991,2.7372e-12,7.6075e-07,-6.6427e-07,-4.991,0.75366
12774,12.389,0.63636,0,0.00027258,2723.9,9.0811e-05,10.31,8.9438e-05,-0.0031105,-0.0002724,-2718.7,0.75259
12775,12.296,0.72727,0,0.00027498,2747.9,9.1549e-05,9.6384,9.0265e-05,-0.0026123,-0.00027482,-2743.1,0.74293
12776,12.389,0.72727,0.05,8.6444e-07,8.6384,6.6378e-07,4.9874,9.1369e-13,1.1428e-06,-6.6378e-07,-4.9874,0.75294
12777,12.389,0.45455,0,0.0002727,2725.2,9.0896e-05,10.817,8.9456e-05,-0.0057064,-0.00027252,-2719.7,0.75178
12778,12.296,0.54545,0,0.00027511,2749.2,9.1636e-05,10.188,9.028e-05,-0.00333,-0.00027493,-2744.1,0.74215
12779,12.389,0.54545,0.05,8.6065e-07,8.6006,6.6087e-07,4.9655,2.746e-12,8.3249e-07,-6.6087e-07,-4.9655,0.75217
12780,12.389,0.27273,0,0.00027295,2727.6,9.1077e-05,12.033,8.9475e-05,-0.005043,-0.00027274,-2721.6,0.75092
12781,12.296,0.36364,0,0.00027525,2750.6,9.174e-05,10.847,9.0296e-05,-0.0072113,-0.00027507,-2745.2,0.74131
12782,12.389,0.36364,0.05,8.0922e-07,8.0867,6.2138e-07,4.6688,9.1371e-13,4.9854e-07,-6.2139e-07,-4.6689,0.75133
12783,12.296,0.18182,0,0.00027562,2754.3,9.2029e-05,12.879,9.0315e-05,-0.0013027,-0.00027539,-2747.8,0.74041
12784,12.389,0.18182,0.05,3.061e-08,0.30589,2.3507e-08,0.1766,3.0224e-12,-5.6675e-06,-2.3503e-08,-0.17662,0.75044
12785,12.389,0.090909,0,0.00027251,2723.2,9.0656e-05,8.7206,8.9495e-05,-0.0029259,-0.00027236,-2718.8,0.74999
12786,12.204,5.7273,0,0.00027791,2777.2,9.2679e-05,11.595,9.1135e-05,-0.00442,-0.00027771,-2771.4,0.73087
12787,12.111,5.8182,0,0.00028059,2804,9.3642e-05,12.527,9.1975e-05,-0.0015397,-0.00028038,-2797.7,0.72044
12788,12.204,5.8182,0.05,3.0434e-08,0.30413,2.3368e-08,0.17559,-6.4689e-13,2.2941e-06,-2.3371e-08,-0.17559,0.73038
12789,12.204,5.9091,0,0.00027749,2773,9.2284e-05,8.5139,9.115e-05,-0.0026418,-0.00027735,-2768.7,0.72993
12790,12.204,5.5455,0,0.00027765,2774.6,9.2477e-05,10.19,9.112e-05,-0.0049191,-0.00027748,-2769.5,0.73174
12791,12.111,5.6364,0,0.00028022,2800.3,9.3334e-05,10.309,9.1961e-05,-0.0059807,-0.00028004,-2795.1,0.72136
12792,12.204,5.6364,0.05,8.1258e-07,8.1202,6.2396e-07,4.6882,-5.8773e-15,2.4537e-06,-6.2396e-07,-4.6882,0.73129
12793,12.204,5.3636,0,0.00027751,2773.2,9.237e-05,9.4928,9.1107e-05,-0.0028572,-0.00027734,-2768.4,0.73256
12794,12.111,5.4545,0,0.00028006,2798.6,9.3208e-05,9.455,9.1949e-05,-0.0030104,-0.00027989,-2793.9,0.72221
12795,12.204,5.4545,0.05,8.6416e-07,8.6357,6.6357e-07,4.9858,-5.5054e-15,3.2302e-06,-6.6358e-07,-4.9858,0.73214
12796,12.204,5.1818,0,0.00027738,2771.9,9.2276e-05,8.8711,9.1095e-05,-0.0019644,-0.00027723,-2767.4,0.73332
12797,12.111,5.2727,0,0.00027991,2797.2,9.31e-05,8.717,9.1939e-05,-0.0024469,-0.00027976,-2792.8,0.72301
12798,12.204,5.2727,0.05,8.6799e-07,8.6739,6.665e-07,5.0079,-5.2515e-16,1.5769e-06,-6.6651e-07,-5.0079,0.73293
12799,12.204,5,0,0.00027726,2770.7,9.2189e-05,8.2893,9.1085e-05,-0.00090341,-0.00027712,-2766.5,0.73402
12800,12.111,5.0909,0,0.00027978,2795.9,9.2999e-05,8.0253,9.1931e-05,-0.0014468,-0.00027965,-2791.9,0.72374
12801,12.204,5.0909,0.05,8.6865e-07,8.6805,6.6701e-07,5.0117,9.0279e-13,1.7983e-06,-6.6701e-07,-5.0117,0.73365
12802,12.204,4.8182,0,0.00027715,2769.6,9.2108e-05,7.7464,9.1077e-05,7.9531e-05,-0.00027702,-2765.7,0.73465
12803,12.111,4.9091,0,0.00027966,2794.7,9.2905e-05,7.3772,9.1923e-05,-0.0005699,-0.00027954,-2791,0.72441
12804,12.204,4.9091,0.05,8.6905e-07,8.6845,6.6733e-07,5.014,2.7213e-12,1.2837e-06,-6.6732e-07,-5.014,0.73432
12805,12.204,4.6364,0,0.00027706,2768.7,9.2034e-05,7.2438,9.107e-05,0.001039,-0.00027693,-2765,0.73523
12806,12.111,4.7273,0,0.00027955,2793.6,9.2819e-05,6.7746,9.1917e-05,0.00032159,-0.00027944,-2790.2,0.72502
12807,12.204,4.7273,0.05,8.694e-07,8.688,6.6759e-07,5.016,1.8118e-12,4.4169e-07,-6.6759e-07,-5.016,0.73492
12808,12.204,4.4545,0,0.00027697,2767.8,9.1966e-05,6.7837,9.1064e-05,0.0019531,-0.00027685,-2764.4,0.73574
12809,12.111,4.5455,0,0.00027946,2792.6,9.274e-05,6.2198,9.1912e-05,0.0011905,-0.00027935,-2789.5,0.72557
12810,12.204,4.5455,0.05,8.6969e-07,8.6909,6.6781e-07,5.0177,9.0347e-13,1.5583e-06,-6.6781e-07,-5.0177,0.73547
12811,12.204,4.2727,0,0.00027689,2767,9.1906e-05,6.3685,9.1059e-05,0.0028179,-0.00027678,-2763.8,0.7362
12812,12.111,4.3636,0,0.00027937,2791.7,9.2669e-05,5.7158,9.1908e-05,0.0020409,-0.00027927,-2788.9,0.72606
12813,12.204,4.3636,0.05,8.6994e-07,8.6934,6.6801e-07,5.0191,-5.6686e-15,4.1399e-07,-6.6801e-07,-5.0192,0.73596
12814,12.204,4.0909,0,0.00027682,2766.3,9.1853e-05,6.001,9.1055e-05,0.0036208,-0.00027672,-2763.3,0.73659
12815,12.111,4.1818,0,0.00027929,2791,9.2605e-05,5.2656,9.1905e-05,0.0028642,-0.0002792,-2788.3,0.72649
12816,12.204,4.1818,0.05,8.7015e-07,8.6955,6.6817e-07,5.0203,1.8137e-12,4.4732e-07,-6.6817e-07,-5.0204,0.73638
12817,12.204,3.9091,0,0.00027677,2765.8,9.1808e-05,5.6839,9.1052e-05,0.0043476,-0.00027667,-2762.9,0.73692
12818,12.111,4,0,0.00027922,2790.3,9.255e-05,4.8723,9.1902e-05,0.0036465,-0.00027914,-2787.9,0.72686
12819,12.204,4,0.05,8.7033e-07,8.6973,6.6831e-07,5.0213,-4.1131e-15,4.8887e-07,-6.6831e-07,-5.0214,0.73674
12820,12.204,3.7273,0,0.00027672,2765.3,9.177e-05,5.4201,9.1049e-05,0.0049817,-0.00027663,-2762.6,0.7372
12821,12.111,3.8182,0,0.00027917,2789.7,9.2504e-05,4.5389,9.1901e-05,0.0043688,-0.00027909,-2787.5,0.72716
12822,12.204,3.8182,0.05,8.7047e-07,8.6987,6.6841e-07,5.0222,2.7251e-12,7.7667e-07,-6.6841e-07,-5.0222,0.73705
12823,12.204,3.5455,0,0.00027668,2764.9,9.174e-05,5.212,9.1047e-05,0.0055041,-0.00027659,-2762.3,0.73741
12824,12.111,3.6364,0,0.00027912,2789.3,9.2467e-05,4.2684,9.1899e-05,0.0050042,-0.00027905,-2787.2,0.72741
12825,12.204,3.6364,0.05,8.7058e-07,8.6998,6.685e-07,5.0228,-2.7295e-15,1.8868e-06,-6.685e-07,-5.0229,0.73729
12826,12.204,3.3636,0,0.00027666,2764.7,9.1719e-05,5.0617,9.1046e-05,0.005895,-0.00027657,-2762.1,0.73756
12827,12.111,3.4545,0,0.00027909,2789,9.2438e-05,4.0631,9.1898e-05,0.0055242,-0.00027902,-2786.9,0.72759
12828,12.204,3.4545,0.05,8.7066e-07,8.7006,6.6856e-07,5.0233,-1.8101e-15,1.7146e-06,-6.6856e-07,-5.0233,0.73747
12829,12.204,3.1818,0,0.00027664,2764.5,9.1706e-05,4.9709,9.1046e-05,0.0061372,-0.00027656,-2762,0.73765
12830,12.111,3.2727,0,0.00027907,2788.7,9.2419e-05,3.9251,9.1898e-05,0.0058929,-0.000279,-2786.8,0.72771
12831,12.204,3.2727,0.05,8.7071e-07,8.7011,6.686e-07,5.0236,9.0839e-13,1.1244e-06,-6.686e-07,-5.0236,0.73759
12832,12.204,3,0,0.00027664,2764.4,9.1702e-05,4.9405,9.1045e-05,0.0062193,-0.00027655,-2762,0.73768
12833,12.111,3.0909,0,0.00027905,2788.6,9.241e-05,3.8557,9.1897e-05,0.0060853,-0.00027899,-2786.7,0.72777
12834,12.204,3.0909,0.05,8.7074e-07,8.7014,6.6862e-07,5.0237,1.8186e-12,1.6961e-06,-6.6862e-07,-5.0238,0.73765
12835,12.204,2.8182,0,0.00027664,2764.5,9.1706e-05,4.9709,9.1046e-05,0.0061375,-0.00027656,-2762,0.73765
12836,12.111,2.9091,0,0.00027905,2788.6,9.241e-05,3.8557,9.1897e-05,0.0060853,-0.00027899,-2786.7,0.72777
12837,12.204,2.9091,0.05,8.7074e-07,8.7014,6.6862e-07,5.0237,1.8194e-12,2.2081e-06,-6.6862e-07,-5.0238,0.73765
12838,12.204,2.6364,0,0.00027666,2764.7,9.1719e-05,5.0617,9.1046e-05,0.0058956,-0.00027657,-2762.1,0.73756
12839,12.111,2.7273,0,0.00027907,2788.7,9.2419e-05,3.9251,9.1898e-05,0.0058934,-0.000279,-2786.8,0.72771
12840,12.204,2.7273,0.05,8.7071e-07,8.7011,6.686e-07,5.0236,9.106e-13,2.0647e-06,-6.686e-07,-5.0236,0.73759
12841,12.204,2.4545,0,0.00027668,2764.9,9.174e-05,5.212,9.1047e-05,0.0055045,-0.00027659,-2762.3,0.73741
12842,12.111,2.5455,0,0.00027909,2789,9.2438e-05,4.0631,9.1898e-05,0.0055242,-0.00027902,-2786.9,0.72759
12843,12.204,2.5455,0.05,8.7066e-07,8.7006,6.6856e-07,5.0233,9.1139e-13,1.6837e-06,-6.6856e-07,-5.0233,0.73747
12844,12.204,2.2727,0,0.00027672,2765.3,9.177e-05,5.4201,9.1049e-05,0.0049821,-0.00027663,-2762.6,0.7372
12845,12.111,2.3636,0,0.00027912,2789.3,9.2467e-05,4.2684,9.1899e-05,0.0050047,-0.00027905,-2787.2,0.72741
12846,12.204,2.3636,0.05,8.7058e-07,8.6998,6.685e-07,5.0228,1.8218e-12,1.6285e-06,-6.685e-07,-5.0228,0.73729
12847,12.204,2.0909,0,0.00027677,2765.8,9.1808e-05,5.6839,9.1052e-05,0.0043483,-0.00027667,-2762.9,0.73692
12848,12.111,2.1818,0,0.00027917,2789.7,9.2504e-05,4.5389,9.1901e-05,0.0043688,-0.00027909,-2787.5,0.72716
12849,12.204,2.1818,0.05,8.7047e-07,8.6987,6.6841e-07,5.0222,2.7318e-12,1.2513e-06,-6.6842e-07,-5.0222,0.73705
12850,12.204,1.9091,0,0.00027682,2766.3,9.1853e-05,6.0009,9.1055e-05,0.0036211,-0.00027672,-2763.3,0.73659
12851,12.111,2,0,0.00027922,2790.3,9.255e-05,4.8722,9.1902e-05,0.0036473,-0.00027914,-2787.9,0.72686
12852,12.204,2,0.05,8.7033e-07,8.6973,6.683e-07,5.0214,1.823e-12,1.0624e-06,-6.6831e-07,-5.0214,0.73674
12853,12.204,1.7273,0,0.00027689,2767,9.1906e-05,6.3684,9.1059e-05,0.0028179,-0.00027678,-2763.8,0.7362
12854,12.111,1.8182,0,0.00027929,2791,9.2605e-05,5.2655,9.1905e-05,0.0028643,-0.0002792,-2788.3,0.72649
12855,12.204,1.8182,0.05,8.7015e-07,8.6955,6.6817e-07,5.0203,5.767e-15,1.116e-06,-6.6818e-07,-5.0204,0.73638
12856,12.204,1.5455,0,0.00027697,2767.8,9.1966e-05,6.7836,9.1064e-05,0.0019536,-0.00027685,-2764.4,0.73574
12857,12.111,1.6364,0,0.00027937,2791.7,9.2669e-05,5.7157,9.1908e-05,0.0020413,-0.00027927,-2788.9,0.72606
12858,12.204,1.6364,0.05,8.6994e-07,8.6934,6.6801e-07,5.0191,2.7349e-12,9.1142e-07,-6.6801e-07,-5.0192,0.73596
12859,12.204,1.3636,0,0.00027706,2768.7,9.2034e-05,7.2437,9.107e-05,0.0010395,-0.00027693,-2765,0.73523
12860,12.111,1.4545,0,0.00027946,2792.6,9.274e-05,6.2198,9.1912e-05,0.0011909,-0.00027935,-2789.5,0.72557
12861,12.204,1.4545,0.05,8.6969e-07,8.6909,6.6781e-07,5.0177,1.8258e-12,7.7224e-07,-6.6782e-07,-5.0177,0.73547
12862,12.204,1.1818,0,0.00027715,2769.6,9.2108e-05,7.7463,9.1077e-05,8.0164e-05,-0.00027702,-2765.7,0.73465
12863,12.111,1.2727,0,0.00027955,2793.6,9.2819e-05,6.7745,9.1917e-05,0.00032196,-0.00027944,-2790.2,0.72502
12864,12.204,1.2727,0.05,8.694e-07,8.688,6.6759e-07,5.0159,9.1663e-13,6.6845e-07,-6.6759e-07,-5.016,0.73492
12865,12.204,1,0,0.00027726,2770.7,9.2189e-05,8.2893,9.1085e-05,-0.0009023,-0.00027712,-2766.6,0.73402
12866,12.111,1.0909,0,0.00027966,2794.7,9.2905e-05,7.3772,9.1923e-05,-0.000569,-0.00027954,-2791,0.72441
12867,12.204,1.0909,0.05,8.6905e-07,8.6845,6.6732e-07,5.014,9.1768e-13,7.4014e-07,-6.6733e-07,-5.0141,0.73432
12868,12.204,0.81818,0,0.00027738,2771.9,9.2276e-05,8.871,9.1095e-05,-0.0019632,-0.00027723,-2767.4,0.73332
12869,12.111,0.90909,0,0.00027978,2795.9,9.2999e-05,8.0253,9.1931e-05,-0.0014457,-0.00027965,-2791.9,0.72374
12870,12.204,0.90909,0.05,8.6865e-07,8.6805,6.6702e-07,5.0117,9.1277e-13,3.4312e-07,-6.6701e-07,-5.0117,0.73365
12871,12.204,0.63636,0,0.00027751,2773.2,9.237e-05,9.4927,9.1107e-05,-0.0028566,-0.00027734,-2768.4,0.73256
12872,12.111,0.72727,0,0.00027991,2797.2,9.31e-05,8.7169,9.1939e-05,-0.0024457,-0.00027976,-2792.8,0.72301
12873,12.204,0.72727,0.05,8.6799e-07,8.6739,6.665e-07,5.0079,1.8297e-12,-5.0424e-07,-6.6651e-07,-5.0079,0.73293
12874,12.204,0.45455,0,0.00027765,2774.6,9.2477e-05,10.19,9.112e-05,-0.0049182,-0.00027748,-2769.5,0.73174
12875,12.111,0.54545,0,0.00028006,2798.6,9.3208e-05,9.4549,9.1949e-05,-0.0030109,-0.00027989,-2793.9,0.72221
12876,12.204,0.54545,0.05,8.6416e-07,8.6357,6.6357e-07,4.9858,9.1727e-13,-1.3237e-07,-6.6357e-07,-4.9858,0.73214
12877,12.204,0.27273,0,0.00027791,2777.2,9.2679e-05,11.595,9.1135e-05,-0.0044188,-0.00027771,-2771.4,0.73087
12878,12.111,0.36364,0,0.00028022,2800.3,9.3334e-05,10.309,9.1961e-05,-0.0059796,-0.00028004,-2795.1,0.72136
12879,12.204,0.36364,0.05,8.1258e-07,8.1202,6.2396e-07,4.6882,-1.0148e-15,5.6296e-07,-6.2396e-07,-4.6882,0.73129
12880,12.111,0.18182,0,0.00028059,2804,9.3642e-05,12.527,9.1975e-05,-0.0015387,-0.00028038,-2797.7,0.72044
12881,12.204,0.18182,0.05,3.0435e-08,0.30414,2.3366e-08,0.17558,1.0411e-12,-2.0323e-06,-2.3375e-08,-0.17561,0.73038
12882,12.204,0.090909,0,0.00027749,2773,9.2284e-05,8.5138,9.115e-05,-0.0026427,-0.00027735,-2768.7,0.72993
12883,12.019,5.7273,0,0.00028289,2827,9.4285e-05,11.144,9.2801e-05,-0.0038398,-0.0002827,-2821.4,0.711
12884,11.926,5.8182,0,0.00028559,2854,9.5261e-05,12.16,9.3642e-05,-0.0018435,-0.00028538,-2847.9,0.70067
12885,12.019,5.8182,0.05,3.1221e-08,0.312,2.3974e-08,0.18012,8.5083e-13,-1.7065e-06,-2.3974e-08,-0.18014,0.71051
12886,12.019,5.9091,0,0.0002825,2823,9.3917e-05,8.2985,9.2812e-05,-0.0023963,-0.00028235,-2818.9,0.71005
12887,12.019,5.5455,0,0.00028262,2824.2,9.4062e-05,9.5467,9.2791e-05,-0.0041457,-0.00028246,-2819.5,0.71189
12888,11.926,5.6364,0,0.0002852,2850.1,9.4932e-05,9.7542,9.3633e-05,-0.004746,-0.00028504,-2845.2,0.7016
12889,12.019,5.6364,0.05,8.1606e-07,8.155,6.2663e-07,4.7083,-1.3292e-22,2.577e-06,-6.2663e-07,-4.7083,0.71143
12890,12.019,5.3636,0,0.00028246,2822.6,9.3934e-05,8.6558,9.2782e-05,-0.0026309,-0.00028231,-2818.3,0.71273
12891,11.926,5.4545,0,0.00028502,2848.3,9.4785e-05,8.7015,9.3626e-05,-0.0027008,-0.00028487,-2843.9,0.70247
12892,12.019,5.4545,0.05,8.6778e-07,8.6718,6.6634e-07,5.0067,1.813e-12,3.8498e-06,-6.6635e-07,-5.0067,0.7123
12893,12.019,5.1818,0,0.00028231,2821.2,9.3819e-05,7.8486,9.2775e-05,-0.0019643,-0.00028218,-2817.3,0.71349
12894,11.926,5.2727,0,0.00028487,2846.7,9.4655e-05,7.7712,9.362e-05,-0.0023135,-0.00028473,-2842.8,0.70327
12895,12.019,5.2727,0.05,8.7164e-07,8.7104,6.6931e-07,5.0289,9.0469e-13,2.2804e-06,-6.6931e-07,-5.029,0.7131
12896,12.019,5,0,0.00028218,2819.9,9.3713e-05,7.0911,9.2769e-05,-0.0011608,-0.00028206,-2816.3,0.7142
12897,11.926,5.0909,0,0.00028472,2845.2,9.4534e-05,6.8963,9.3616e-05,-0.0016294,-0.0002846,-2841.8,0.70402
12898,12.019,5.0909,0.05,8.7232e-07,8.7172,6.6984e-07,5.0329,1.8131e-12,2.2995e-06,-6.6984e-07,-5.0329,0.71383
12899,12.019,4.8182,0,0.00028206,2818.7,9.3613e-05,6.3838,9.2764e-05,-0.00039276,-0.00028195,-2815.5,0.71485
12900,11.926,4.9091,0,0.00028459,2843.9,9.4421e-05,6.0755,9.3612e-05,-0.0010236,-0.00028448,-2840.9,0.7047
12901,12.019,4.9091,0.05,8.7276e-07,8.7216,6.7017e-07,5.0354,9.0634e-13,1.7844e-06,-6.7017e-07,-5.0354,0.71451
12902,12.019,4.6364,0,0.00028195,2817.6,9.3522e-05,5.7294,9.276e-05,0.00038757,-0.00028185,-2814.7,0.71543
12903,11.926,4.7273,0,0.00028446,2842.7,9.4317e-05,5.3122,9.361e-05,-0.00039384,-0.00028437,-2840,0.70532
12904,12.019,4.7273,0.05,8.7313e-07,8.7253,6.7045e-07,5.0375,1.8159e-12,1.017e-06,-6.7046e-07,-5.0376,0.71513
12905,12.019,4.4545,0,0.00028185,2816.6,9.3439e-05,5.1311,9.2757e-05,0.0011721,-0.00028176,-2814,0.71596
12906,11.926,4.5455,0,0.00028435,2841.6,9.4221e-05,4.61,9.3608e-05,0.00024713,-0.00028427,-2839.2,0.70588
12907,12.019,4.5455,0.05,8.7345e-07,8.7285,6.707e-07,5.0394,9.0717e-13,2.062e-06,-6.7071e-07,-5.0394,0.71568
12908,12.019,4.2727,0,0.00028176,2815.7,9.3365e-05,4.5924,9.2754e-05,0.0019646,-0.00028168,-2813.4,0.71642
12909,11.926,4.3636,0,0.00028425,2840.6,9.4135e-05,3.9729,9.3606e-05,0.00091615,-0.00028418,-2838.6,0.70638
12910,12.019,4.3636,0.05,8.7373e-07,8.7313,6.7092e-07,5.041,1.8163e-12,8.7086e-07,-6.7092e-07,-5.041,0.71617
12911,12.019,4.0909,0,0.00028169,2814.9,9.33e-05,4.1167,9.2752e-05,0.0027608,-0.00028162,-2812.9,0.71682
12912,11.926,4.1818,0,0.00028416,2839.7,9.4059e-05,3.4047,9.3606e-05,0.0016255,-0.00028411,-2838,0.70681
12913,12.019,4.1818,0.05,8.7397e-07,8.7337,6.711e-07,5.0424,2.7268e-12,7.6506e-07,-6.711e-07,-5.0424,0.7166
12914,12.019,3.9091,0,0.00028162,2814.3,9.3244e-05,3.7074,9.2751e-05,0.0035472,-0.00028156,-2812.4,0.71716
12915,11.926,4,0,0.00028409,2838.9,9.3992e-05,2.9091,9.3605e-05,0.0023854,-0.00028404,-2837.5,0.70718
12916,12.019,4,0.05,8.7417e-07,8.7357,6.7125e-07,5.0435,1.8177e-12,9.8236e-07,-6.7125e-07,-5.0436,0.71697
12917,12.019,3.7273,0,0.00028157,2813.7,9.3198e-05,3.3675,9.275e-05,0.0042977,-0.00028151,-2812,0.71743
12918,11.926,3.8182,0,0.00028402,2838.3,9.3936e-05,2.4898,9.3605e-05,0.0031923,-0.00028398,-2837,0.70749
12919,12.019,3.8182,0.05,8.7433e-07,8.7373,6.7138e-07,5.0444,-8.2874e-16,1.3625e-06,-6.7138e-07,-5.0445,0.71728
12920,12.019,3.5455,0,0.00028152,2813.3,9.3162e-05,3.0999,9.275e-05,0.0049732,-0.00028147,-2811.7,0.71765
12921,11.926,3.6364,0,0.00028397,2837.8,9.3891e-05,2.1499,9.3605e-05,0.0040238,-0.00028394,-2836.7,0.70774
12922,12.019,3.6364,0.05,8.7446e-07,8.7386,6.7147e-07,5.0452,-5.3012e-16,2.3107e-06,-6.7148e-07,-5.0452,0.71753
12923,12.019,3.3636,0,0.00028149,2813,9.3136e-05,2.9069,9.2749e-05,0.0055195,-0.00028144,-2811.5,0.7178
12924,11.926,3.4545,0,0.00028394,2837.4,9.3856e-05,1.8923,9.3605e-05,0.0048193,-0.0002839,-2836.4,0.70793
12925,12.019,3.4545,0.05,8.7455e-07,8.7395,6.7154e-07,5.0457,1.8187e-12,2.2208e-06,-6.7155e-07,-5.0458,0.71771
12926,12.019,3.1818,0,0.00028148,2812.8,9.312e-05,2.7904,9.2749e-05,0.0058775,-0.00028143,-2811.4,0.7179
12927,11.926,3.2727,0,0.00028391,2837.1,9.3834e-05,1.7192,9.3605e-05,0.0054676,-0.00028388,-2836.3,0.70805
12928,12.019,3.2727,0.05,8.7461e-07,8.7401,6.716e-07,5.0461,9.0935e-13,1.543e-06,-6.716e-07,-5.0461,0.71784
12929,12.019,3,0,0.00028147,2812.8,9.3115e-05,2.7515,9.2749e-05,0.0060028,-0.00028142,-2811.4,0.71793
12930,11.926,3.0909,0,0.0002839,2837,9.3822e-05,1.6323,9.3606e-05,0.0058397,-0.00028387,-2836.2,0.70811
12931,12.019,3.0909,0.05,8.7464e-07,8.7404,6.7162e-07,5.0463,1.8189e-12,2.1315e-06,-6.7162e-07,-5.0463,0.7179
12932,12.019,2.8182,0,0.00028148,2812.8,9.312e-05,2.7904,9.2749e-05,0.0058777,-0.00028143,-2811.4,0.7179
12933,11.926,2.9091,0,0.0002839,2837,9.3822e-05,1.6323,9.3606e-05,0.0058397,-0.00028387,-2836.2,0.70811
12934,12.019,2.9091,0.05,8.7464e-07,8.7404,6.7162e-07,5.0463,2.7285e-12,2.6425e-06,-6.7162e-07,-5.0463,0.7179
12935,12.019,2.6364,0,0.00028149,2813,9.3136e-05,2.9069,9.2749e-05,0.0055194,-0.00028144,-2811.5,0.7178
12936,11.926,2.7273,0,0.00028391,2837.1,9.3834e-05,1.7192,9.3605e-05,0.005468,-0.00028388,-2836.3,0.70805
12937,12.019,2.7273,0.05,8.7461e-07,8.7401,6.7159e-07,5.0461,9.0965e-13,2.3937e-06,-6.716e-07,-5.0461,0.71784
12938,12.019,2.4545,0,0.00028152,2813.3,9.3162e-05,3.0999,9.275e-05,0.0049732,-0.00028147,-2811.7,0.71765
12939,11.926,2.5455,0,0.00028394,2837.4,9.3856e-05,1.8923,9.3605e-05,0.0048193,-0.0002839,-2836.4,0.70793
12940,12.019,2.5455,0.05,8.7455e-07,8.7395,6.7155e-07,5.0457,1.8193e-12,1.959e-06,-6.7155e-07,-5.0458,0.71771
12941,12.019,2.2727,0,0.00028157,2813.7,9.3198e-05,3.3674,9.275e-05,0.0042978,-0.00028151,-2812,0.71743
12942,11.926,2.3636,0,0.00028397,2837.8,9.3891e-05,2.1499,9.3605e-05,0.004024,-0.00028394,-2836.7,0.70774
12943,12.019,2.3636,0.05,8.7446e-07,8.7386,6.7147e-07,5.0452,1.8195e-12,2.0161e-06,-6.7148e-07,-5.0452,0.71753
12944,12.019,2.0909,0,0.00028162,2814.3,9.3244e-05,3.7073,9.2751e-05,0.0035474,-0.00028156,-2812.4,0.71716
12945,11.926,2.1818,0,0.00028402,2838.3,9.3936e-05,2.4898,9.3605e-05,0.0031924,-0.00028398,-2837,0.70749
12946,12.019,2.1818,0.05,8.7433e-07,8.7373,6.7138e-07,5.0444,1.8199e-12,1.5827e-06,-6.7138e-07,-5.0445,0.71728
12947,12.019,1.9091,0,0.00028169,2814.9,9.33e-05,4.1167,9.2752e-05,0.0027613,-0.00028162,-2812.9,0.71682
12948,11.926,2,0,0.00028409,2838.9,9.3992e-05,2.9091,9.3605e-05,0.0023855,-0.00028404,-2837.5,0.70718
12949,12.019,2,0.05,8.7417e-07,8.7357,6.7125e-07,5.0435,9.1094e-13,1.5049e-06,-6.7126e-07,-5.0436,0.71697
12950,12.019,1.7273,0,0.00028176,2815.7,9.3365e-05,4.5924,9.2754e-05,0.0019651,-0.00028168,-2813.4,0.71642
12951,11.926,1.8182,0,0.00028416,2839.7,9.4059e-05,3.4046,9.3606e-05,0.0016262,-0.00028411,-2838,0.70681
12952,12.019,1.8182,0.05,8.7397e-07,8.7337,6.711e-07,5.0424,9.114e-13,1.6883e-06,-6.711e-07,-5.0424,0.7166
12953,12.019,1.5455,0,0.00028185,2816.6,9.3439e-05,5.1311,9.2757e-05,0.0011723,-0.00028176,-2814,0.71596
12954,11.926,1.6364,0,0.00028425,2840.6,9.4135e-05,3.9728,9.3606e-05,0.00091616,-0.00028418,-2838.6,0.70638
12955,12.019,1.6364,0.05,8.7373e-07,8.7313,6.7092e-07,5.041,9.1219e-13,1.3592e-06,-6.7092e-07,-5.041,0.71617
12956,12.019,1.3636,0,0.00028195,2817.6,9.3522e-05,5.7293,9.276e-05,0.00038784,-0.00028185,-2814.7,0.71543
12957,11.926,1.4545,0,0.00028435,2841.6,9.4221e-05,4.61,9.3608e-05,0.00024766,-0.00028427,-2839.2,0.70588
12958,12.019,1.4545,0.05,8.7345e-07,8.7285,6.707e-07,5.0394,1.8222e-12,1.27e-06,-6.7071e-07,-5.0394,0.71568
12959,12.019,1.1818,0,0.00028206,2818.7,9.3613e-05,6.3837,9.2764e-05,-0.00039214,-0.00028195,-2815.5,0.71485
12960,11.926,1.2727,0,0.00028446,2842.7,9.4317e-05,5.3121,9.361e-05,-0.00039334,-0.00028437,-2840,0.70532
12961,12.019,1.2727,0.05,8.7313e-07,8.7253,6.7045e-07,5.0375,1.8226e-12,1.2018e-06,-6.7046e-07,-5.0376,0.71513
12962,12.019,1,0,0.00028218,2819.9,9.3712e-05,7.091,9.2769e-05,-0.0011599,-0.00028206,-2816.3,0.7142
12963,11.926,1.0909,0,0.00028459,2843.9,9.4421e-05,6.0754,9.3612e-05,-0.0010228,-0.00028448,-2840.9,0.7047
12964,12.019,1.0909,0.05,8.7276e-07,8.7216,6.7016e-07,5.0354,1.8227e-12,1.1945e-06,-6.7018e-07,-5.0354,0.71451
12965,12.019,0.81818,0,0.00028231,2821.2,9.3819e-05,7.8485,9.2775e-05,-0.0019633,-0.00028218,-2817.3,0.71349
12966,11.926,0.90909,0,0.00028472,2845.2,9.4534e-05,6.8962,9.3616e-05,-0.0016284,-0.0002846,-2841.8,0.70402
12967,12.019,0.90909,0.05,8.7232e-07,8.7172,6.6983e-07,5.0329,9.1713e-13,2.5648e-07,-6.6984e-07,-5.0329,0.71383
12968,12.019,0.63636,0,0.00028246,2822.6,9.3934e-05,8.6558,9.2782e-05,-0.0026308,-0.00028231,-2818.3,0.71273
12969,11.926,0.72727,0,0.00028487,2846.7,9.4655e-05,7.7712,9.362e-05,-0.0023126,-0.00028473,-2842.8,0.70327
12970,12.019,0.72727,0.05,8.7164e-07,8.7103,6.6931e-07,5.0289,1.8236e-12,-5.0029e-07,-6.6931e-07,-5.029,0.7131
12971,12.019,0.45455,0,0.00028262,2824.2,9.4062e-05,9.5466,9.2791e-05,-0.004146,-0.00028246,-2819.5,0.71189
12972,11.926,0.54545,0,0.00028502,2848.3,9.4785e-05,8.7014,9.3626e-05,-0.0027014,-0.00028487,-2843.9,0.70247
12973,12.019,0.54545,0.05,8.6778e-07,8.6718,6.6634e-07,5.0066,2.7395e-12,-8.5338e-07,-6.6635e-07,-5.0067,0.7123
12974,12.019,0.27273,0,0.00028289,2827,9.4285e-05,11.144,9.2801e-05,-0.0038388,-0.0002827,-2821.4,0.711
12975,11.926,0.36364,0,0.0002852,2850.1,9.4932e-05,9.7542,9.3633e-05,-0.0047461,-0.00028504,-2845.2,0.7016
12976,12.019,0.36364,0.05,8.1606e-07,8.155,6.2663e-07,4.7083,9.1603e-13,3.125e-07,-6.2664e-07,-4.7083,0.71143
12977,11.926,0.18182,0,0.00028559,2854,9.5261e-05,12.16,9.3642e-05,-0.001842,-0.00028538,-2847.9,0.70067
12978,12.019,0.18182,0.05,3.1222e-08,0.31201,2.3975e-08,0.1801,2.7759e-12,-3.4896e-06,-2.3975e-08,-0.18018,0.71051
12979,12.019,0.090909,0,0.0002825,2823,9.3917e-05,8.2985,9.2812e-05,-0.0023954,-0.00028235,-2818.9,0.71005
12980,11.834,5.7273,0,0.00028789,2876.9,9.5896e-05,10.675,9.4475e-05,-0.0032805,-0.00028771,-2871.6,0.69133
12981,11.742,5.8182,0,0.00029061,2904.1,9.6885e-05,11.778,9.5317e-05,-0.0022004,-0.00029041,-2898.2,0.68109
12982,11.834,5.8182,0.05,3.3033e-08,0.33011,2.5364e-08,0.19057,6.9601e-13,1.659e-06,-2.5367e-08,-0.1906,0.69083
12983,11.834,5.9091,0,0.00028752,2873.2,9.5556e-05,8.0741,9.4481e-05,-0.002172,-0.00028738,-2869.2,0.69036
12984,11.834,5.5455,0,0.0002876,2874.1,9.5652e-05,8.8825,9.4469e-05,-0.0033589,-0.00028745,-2869.6,0.69224
12985,11.742,5.6364,0,0.00029021,2900.1,9.6535e-05,9.1798,9.5313e-05,-0.0034777,-0.00029005,-2895.5,0.68203
12986,11.834,5.6364,0.05,8.1968e-07,8.1911,6.2941e-07,4.7291,-3.7874e-15,2.6056e-06,-6.2941e-07,-4.7292,0.69177
12987,11.834,5.3636,0,0.00028743,2872.3,9.5502e-05,7.7939,9.4465e-05,-0.0024147,-0.00028729,-2868.4,0.69308
12988,11.742,5.4545,0,0.00029001,2898.1,9.6365e-05,7.9228,9.531e-05,-0.0023782,-0.00028987,-2894.1,0.68292
12989,11.834,5.4545,0.05,8.715e-07,8.709,6.692e-07,5.0281,9.0815e-13,3.5501e-06,-6.692e-07,-5.0281,0.69265
12990,11.834,5.1818,0,0.00028727,2870.7,9.5366e-05,6.7966,9.4462e-05,-0.0020224,-0.00028715,-2867.3,0.69386
12991,11.742,5.2727,0,0.00028984,2896.4,9.6214e-05,6.7952,9.5309e-05,-0.002206,-0.00028972,-2893,0.68373
12992,11.834,5.2727,0.05,8.7539e-07,8.7478,6.7219e-07,5.0506,1.8181e-12,1.9893e-06,-6.7219e-07,-5.0506,0.69346
12993,11.834,5,0,0.00028712,2869.2,9.5239e-05,5.8589,9.4459e-05,-0.0015645,-0.00028702,-2866.3,0.69458
12994,11.742,5.0909,0,0.00028968,2894.8,9.6072e-05,5.7317,9.5309e-05,-0.0019301,-0.00028958,-2891.9,0.68449
12995,11.834,5.0909,0.05,8.761e-07,8.755,6.7274e-07,5.0547,9.0842e-13,1.9453e-06,-6.7274e-07,-5.0547,0.69421
12996,11.834,4.8182,0,0.00028699,2867.9,9.5121e-05,4.9826,9.4458e-05,-0.0011454,-0.0002869,-2865.4,0.69524
12997,11.742,4.9091,0,0.00028953,2893.3,9.5939e-05,4.7331,9.5309e-05,-0.0017625,-0.00028945,-2890.9,0.68518
12998,11.834,4.9091,0.05,8.7657e-07,8.7596,6.7309e-07,5.0574,-5.9589e-16,1.4712e-06,-6.731e-07,-5.0574,0.6949
12999,11.834,4.6364,0,0.00028686,2866.6,9.5013e-05,4.172,9.4457e-05,-0.00072986,-0.00028679,-2864.5,0.69583
13000,11.742,4.7273,0,0.00028939,2891.9,9.5816e-05,3.8043,9.531e-05,-0.001671,-0.00028932,-2890,0.68581
13001,11.834,4.7273,0.05,8.7697e-07,8.7636,6.734e-07,5.0597,9.0949e-13,6.7053e-07,-6.734e-07,-5.0597,0.69552
13002,11.834,4.4545,0,0.00028675,2865.5,9.4914e-05,3.4315,9.4457e-05,-0.00031315,-0.00028669,-2863.8,0.69636
13003,11.742,4.5455,0,0.00028926,2890.7,9.5704e-05,2.9502,9.5311e-05,-0.0017018,-0.00028921,-2889.2,0.68638
13004,11.834,4.5455,0.05,8.7732e-07,8.7671,6.7367e-07,5.0617,5.3619e-16,1.6429e-06,-6.7367e-07,-5.0617,0.69608
13005,11.834,4.2727,0,0.00028665,2864.5,9.4826e-05,2.7653,9.4458e-05,0.00012412,-0.0002866,-2863.1,0.69683
13006,11.742,4.3636,0,0.00028915,2889.5,9.5602e-05,2.1758,9.5313e-05,-0.0019234,-0.00028912,-2888.5,0.68688
13007,11.834,4.3636,0.05,8.7762e-07,8.7702,6.739e-07,5.0634,9.104e-13,6.1731e-07,-6.7391e-07,-5.0635,0.69658
13008,11.834,4.0909,0,0.00028656,2863.7,9.4748e-05,2.1777,9.4458e-05,0.00060985,-0.00028653,-2862.6,0.69724
13009,11.742,4.1818,0,0.00028905,2888.6,9.5512e-05,1.4863,9.5314e-05,-0.002505,-0.00028903,-2887.8,0.68733
13010,11.834,4.1818,0.05,8.7788e-07,8.7728,6.7411e-07,5.065,2.7298e-12,5.3106e-07,-6.7411e-07,-5.065,0.69702
13011,11.834,3.9091,0,0.00028649,2862.9,9.4681e-05,1.6727,9.4459e-05,0.0011845,-0.00028646,-2862.1,0.69758
13012,11.742,4,0,0.00028897,2887.7,9.5434e-05,0.88665,9.5316e-05,-0.0039794,-0.00028895,-2887.3,0.6877
13013,11.834,4,0.05,8.781e-07,8.775,6.7427e-07,5.0662,9.1091e-13,7.412e-07,-6.7427e-07,-5.0663,0.6974
13014,11.834,3.7273,0,0.00028643,2862.3,9.4626e-05,1.2538,9.446e-05,0.0019084,-0.00028641,-2861.7,0.69786
13015,11.742,3.8182,0,0.0002889,2887,9.5369e-05,0.38383,9.5317e-05,-0.0091403,-0.00028889,-2886.8,0.68802
13016,11.834,3.8182,0.05,8.7828e-07,8.7768,6.7441e-07,5.0673,2.73e-12,9.5028e-07,-6.7441e-07,-5.0673,0.69771
13017,11.834,3.5455,0,0.00028638,2861.8,9.4583e-05,0.92407,9.446e-05,0.0028542,-0.00028637,-2861.4,0.69808
13018,11.742,3.6364,0,0.00028884,2886.4,9.5325e-05,0.044347,9.5309e-05,-0.080805,-0.00028884,-2886.4,0.68827
13019,11.834,3.6364,0.05,8.7842e-07,8.7782,6.7452e-07,5.0681,9.1095e-13,1.9777e-06,-6.7452e-07,-5.0681,0.69796
13020,11.834,3.3636,0,0.00028635,2861.5,9.4552e-05,0.68613,9.4461e-05,0.0040384,-0.00028634,-2861.2,0.69824
13021,11.742,3.4545,0,0.0002888,2886,9.5322e-05,0.010318,9.5273e-05,-0.35797,-0.0002888,-2886.2,0.68846
13022,11.834,3.4545,0.05,8.7853e-07,8.7792,6.746e-07,5.0686,9.1062e-13,1.7967e-06,-6.746e-07,-5.0687,0.69815
13023,11.834,3.1818,0,0.00028633,2861.3,9.4533e-05,0.54209,9.4462e-05,0.0052288,-0.00028632,-2861,0.69833
13024,11.742,3.2727,0,0.00028877,2885.7,9.5322e-05,0.0067329,9.5246e-05,-0.56324,-0.00028878,-2886,0.68858
13025,11.834,3.2727,0.05,8.786e-07,8.7799,6.7465e-07,5.069,7.5468e-16,1.1976e-06,-6.7465e-07,-5.0691,0.69827
13026,11.834,3,0,0.00028632,2861.2,9.4527e-05,0.4938,9.4462e-05,0.0057777,-0.00028631,-2861,0.69836
13027,11.742,3.0909,0,0.00028875,2885.6,9.5323e-05,0.0057699,9.5233e-05,-0.66712,-0.00028877,-2885.9,0.68865
13028,11.834,3.0909,0.05,8.7863e-07,8.7803,6.7468e-07,5.0693,3.6382e-12,1.6708e-06,-6.7469e-07,-5.0693,0.69833
13029,11.834,2.8182,0,0.00028633,2861.3,9.4533e-05,0.54209,9.4462e-05,0.0052291,-0.00028632,-2861,0.69833
13030,11.742,2.9091,0,0.00028875,2885.6,9.5323e-05,0.0057697,9.5233e-05,-0.66713,-0.00028877,-2885.9,0.68865
13031,11.834,2.9091,0.05,8.7863e-07,8.7803,6.7468e-07,5.0693,3.6377e-12,2.2631e-06,-6.7469e-07,-5.0693,0.69833
13032,11.834,2.6364,0,0.00028635,2861.5,9.4552e-05,0.68611,9.4461e-05,0.0040391,-0.00028634,-2861.2,0.69824
13033,11.742,2.7273,0,0.00028877,2885.7,9.5322e-05,0.0067334,9.5246e-05,-0.56325,-0.00028878,-2886,0.68858
13034,11.834,2.7273,0.05,8.786e-07,8.7799,6.7465e-07,5.069,-7.3457e-16,2.1401e-06,-6.7465e-07,-5.0691,0.69827
13035,11.834,2.4545,0,0.00028638,2861.8,9.4583e-05,0.92405,9.446e-05,0.0028544,-0.00028637,-2861.4,0.69808
13036,11.742,2.5455,0,0.0002888,2886,9.5322e-05,0.010318,9.5273e-05,-0.35799,-0.0002888,-2886.2,0.68846
13037,11.834,2.5455,0.05,8.7853e-07,8.7792,6.746e-07,5.0687,-1.1653e-15,1.7792e-06,-6.746e-07,-5.0687,0.69815
13038,11.834,2.2727,0,0.00028643,2862.3,9.4626e-05,1.2538,9.446e-05,0.0019086,-0.00028641,-2861.7,0.69786
13039,11.742,2.3636,0,0.00028884,2886.4,9.5325e-05,0.04434,9.5309e-05,-0.080822,-0.00028884,-2886.4,0.68827
13040,11.834,2.3636,0.05,8.7842e-07,8.7782,6.7452e-07,5.0681,9.0812e-13,1.6879e-06,-6.7452e-07,-5.0681,0.69796
13041,11.834,2.0909,0,0.00028649,2862.9,9.4681e-05,1.6727,9.4459e-05,0.0011846,-0.00028646,-2862.1,0.69758
13042,11.742,2.1818,0,0.0002889,2887,9.5369e-05,0.3838,9.5317e-05,-0.0091408,-0.00028889,-2886.8,0.68802
13043,11.834,2.1818,0.05,8.7828e-07,8.7768,6.7441e-07,5.0673,9.0783e-13,1.27e-06,-6.7441e-07,-5.0673,0.69771
13044,11.834,1.9091,0,0.00028656,2863.7,9.4748e-05,2.1777,9.4458e-05,0.00061009,-0.00028653,-2862.6,0.69724
13045,11.742,2,0,0.00028897,2887.7,9.5434e-05,0.88662,9.5316e-05,-0.0039795,-0.00028895,-2887.3,0.6877
13046,11.834,2,0.05,8.781e-07,8.775,6.7428e-07,5.0662,2.7269e-12,1.0022e-06,-6.7427e-07,-5.0663,0.6974
13047,11.834,1.7273,0,0.00028665,2864.5,9.4826e-05,2.7653,9.4458e-05,0.00012436,-0.0002866,-2863.1,0.69683
13048,11.742,1.8182,0,0.00028905,2888.6,9.5512e-05,1.4863,9.5314e-05,-0.0025047,-0.00028903,-2887.8,0.68733
13049,11.834,1.8182,0.05,8.7788e-07,8.7728,6.7411e-07,5.065,1.8177e-12,1.1214e-06,-6.7411e-07,-5.065,0.69702
13050,11.834,1.5455,0,0.00028675,2865.5,9.4914e-05,3.4314,9.4457e-05,-0.00031279,-0.00028669,-2863.8,0.69636
13051,11.742,1.6364,0,0.00028915,2889.5,9.5602e-05,2.1758,9.5313e-05,-0.0019231,-0.00028912,-2888.5,0.68688
13052,11.834,1.6364,0.05,8.7762e-07,8.7702,6.739e-07,5.0634,1.8179e-12,9.4598e-07,-6.7391e-07,-5.0635,0.69658
13053,11.834,1.3636,0,0.00028686,2866.6,9.5013e-05,4.172,9.4457e-05,-0.0007291,-0.00028679,-2864.5,0.69583
13054,11.742,1.4545,0,0.00028926,2890.7,9.5704e-05,2.9501,9.5311e-05,-0.0017015,-0.00028921,-2889.2,0.68638
13055,11.834,1.4545,0.05,8.7732e-07,8.7671,6.7367e-07,5.0617,1.8184e-12,8.7617e-07,-6.7367e-07,-5.0617,0.69608
13056,11.834,1.1818,0,0.00028699,2867.9,9.5121e-05,4.9826,9.4458e-05,-0.0011448,-0.0002869,-2865.4,0.69524
13057,11.742,1.2727,0,0.00028939,2891.9,9.5816e-05,3.8042,9.531e-05,-0.0016704,-0.00028932,-2890,0.68581
13058,11.834,1.2727,0.05,8.7697e-07,8.7636,6.734e-07,5.0596,3.638e-12,9.09e-07,-6.734e-07,-5.0597,0.69552
13059,11.834,1,0,0.00028712,2869.2,9.5239e-05,5.8588,9.4459e-05,-0.0015637,-0.00028702,-2866.3,0.69458
13060,11.742,1.0909,0,0.00028953,2893.3,9.5939e-05,4.7331,9.5309e-05,-0.0017618,-0.00028945,-2890.9,0.68518
13061,11.834,1.0909,0.05,8.7657e-07,8.7596,6.7309e-07,5.0573,3.6385e-12,4.8081e-07,-6.731e-07,-5.0574,0.6949
13062,11.834,0.81818,0,0.00028727,2870.7,9.5366e-05,6.7966,9.4462e-05,-0.0020215,-0.00028715,-2867.3,0.69386
13063,11.742,0.90909,0,0.00028968,2894.8,9.6072e-05,5.7316,9.5309e-05,-0.0019291,-0.00028958,-2891.9,0.68449
13064,11.834,0.90909,0.05,8.761e-07,8.755,6.7274e-07,5.0547,2.7301e-12,-6.7654e-07,-6.7274e-07,-5.0547,0.69421
13065,11.834,0.63636,0,0.00028743,2872.3,9.5502e-05,7.7938,9.4465e-05,-0.0024145,-0.00028729,-2868.4,0.69308
13066,11.742,0.72727,0,0.00028984,2896.4,9.6214e-05,6.7951,9.5309e-05,-0.0022052,-0.00028972,-2893,0.68373
13067,11.834,0.72727,0.05,8.7539e-07,8.7478,6.7219e-07,5.0506,2.7302e-12,-1.4381e-06,-6.7219e-07,-5.0506,0.69346
13068,11.834,0.45455,0,0.0002876,2874.1,9.5651e-05,8.8825,9.4469e-05,-0.0033593,-0.00028745,-2869.6,0.69224
13069,11.742,0.54545,0,0.00029001,2898.1,9.6365e-05,7.9228,9.531e-05,-0.0023783,-0.00028987,-2894.1,0.68292
13070,11.834,0.54545,0.05,8.715e-07,8.709,6.692e-07,5.0281,9.1074e-13,-2.3627e-06,-6.692e-07,-5.0281,0.69265
13071,11.834,0.27273,0,0.00028789,2876.9,9.5896e-05,10.675,9.4475e-05,-0.0032799,-0.00028771,-2871.6,0.69133
13072,11.742,0.36364,0,0.00029021,2900.1,9.6535e-05,9.1797,9.5313e-05,-0.0034776,-0.00029005,-2895.5,0.68203
13073,11.834,0.36364,0.05,8.1968e-07,8.1911,6.2941e-07,4.7291,9.1131e-13,1.3769e-08,-6.2941e-07,-4.7292,0.69177
13074,11.742,0.18182,0,0.00029061,2904.1,9.6885e-05,11.778,9.5317e-05,-0.0021993,-0.00029041,-2898.2,0.68109
13075,11.834,0.18182,0.05,3.3035e-08,0.33012,2.5365e-08,0.19053,1.7133e-12,1.3759e-06,-2.5368e-08,-0.19065,0.69083
13076,11.834,0.090909,0,0.00028752,2873.2,9.5556e-05,8.074,9.4481e-05,-0.0021688,-0.00028738,-2869.2,0.69036
13077,11.649,5.7273,0,0.00029291,2927.1,9.7512e-05,10.188,9.6155e-05,-0.0027196,-0.00029274,-2922,0.67186
13078,11.557,5.8182,0,0.00029565,2954.4,9.8513e-05,11.378,9.6999e-05,-0.0026183,-0.00029545,-2948.7,0.66171
13079,11.649,5.8182,0.05,3.5871e-08,0.35846,2.7543e-08,0.20693,8.8987e-13,3.597e-06,-2.7546e-08,-0.20699,0.67135
13080,11.649,5.9091,0,0.00029256,2923.6,9.7201e-05,7.8398,9.6157e-05,-0.0019529,-0.00029243,-2919.7,0.67087
13081,11.649,5.5455,0,0.00029261,2924.1,9.7245e-05,8.194,9.6155e-05,-0.0025306,-0.00029247,-2920,0.67278
13082,11.557,5.6364,0,0.00029523,2950.3,9.8143e-05,8.5824,9.7e-05,-0.0021645,-0.00029508,-2946,0.66267
13083,11.649,5.6364,0.05,8.2343e-07,8.2286,6.3229e-07,4.7508,-1.0348e-16,2.9189e-06,-6.3229e-07,-4.7508,0.6723
13084,11.649,5.3636,0,0.00029242,2922.1,9.7074e-05,6.9015,9.6155e-05,-0.0021918,-0.0002923,-2918.7,0.67363
13085,11.557,5.4545,0,0.00029502,2948.1,9.795e-05,7.1144,9.7002e-05,-0.0020409,-0.00029489,-2944.6,0.66356
13086,11.649,5.4545,0.05,8.7532e-07,8.7471,6.7213e-07,5.0501,9.0981e-13,3.2213e-06,-6.7213e-07,-5.0502,0.67319
13087,11.649,5.1818,0,0.00029224,2920.4,9.6916e-05,5.7083,9.6156e-05,-0.002158,-0.00029214,-2917.5,0.67443
13088,11.557,5.2727,0,0.00029483,2946.2,9.7776e-05,5.7826,9.7006e-05,-0.0021487,-0.00029473,-2943.3,0.66439
13089,11.649,5.2727,0.05,8.7924e-07,8.7863,6.7515e-07,5.0728,9.121e-13,1.631e-06,-6.7515e-07,-5.0728,0.67402
13090,11.649,5,0,0.00029208,2918.8,9.6769e-05,4.5846,9.6158e-05,-0.0022322,-0.000292,-2916.5,0.67516
13091,11.557,5.0909,0,0.00029465,2944.4,9.7612e-05,4.5242,9.7009e-05,-0.0024689,-0.00029457,-2942.2,0.66516
13092,11.649,5.0909,0.05,8.7999e-07,8.7938,6.7572e-07,5.077,9.0948e-13,1.5272e-06,-6.7572e-07,-5.0771,0.67478
13093,11.649,4.8182,0,0.00029193,2917.3,9.6631e-05,3.534,9.6161e-05,-0.0025326,-0.00029187,-2915.5,0.67582
13094,11.557,4.9091,0,0.00029448,2942.8,9.7459e-05,3.3418,9.7014e-05,-0.003191,-0.00029443,-2941.1,0.66586
13095,11.649,4.9091,0.05,8.8048e-07,8.7987,6.7609e-07,5.0799,9.1224e-13,1.0018e-06,-6.761e-07,-5.08,0.67548
13096,11.649,4.6364,0,0.00029179,2915.9,9.6505e-05,2.5624,9.6163e-05,-0.0032223,-0.00029175,-2914.6,0.67643
13097,11.557,4.7273,0,0.00029433,2941.3,9.7317e-05,2.2423,9.7018e-05,-0.0047776,-0.00029429,-2940.2,0.6665
13098,11.649,4.7273,0.05,8.809e-07,8.8029,6.7642e-07,5.0824,2.7309e-12,1.9972e-07,-6.7643e-07,-5.0824,0.67611
13099,11.649,4.4545,0,0.00029167,2914.6,9.639e-05,1.6758,9.6166e-05,-0.0047862,-0.00029164,-2913.8,0.67697
13100,11.557,4.5455,0,0.00029419,2939.9,9.7188e-05,1.2338,9.7022e-05,-0.0090544,-0.00029417,-2939.3,0.66708
13101,11.649,4.5455,0.05,8.8128e-07,8.8067,6.7671e-07,5.0846,9.1274e-13,1.1843e-06,-6.7671e-07,-5.0846,0.67668
13102,11.649,4.2727,0,0.00029155,2913.5,9.6287e-05,0.88161,9.6169e-05,-0.009196,-0.00029154,-2913.1,0.67744
13103,11.557,4.3636,0,0.00029407,2938.7,9.7074e-05,0.34129,9.7024e-05,-0.03487,-0.00029407,-2938.5,0.66759
13104,11.649,4.3636,0.05,8.8161e-07,8.81,6.7696e-07,5.0864,1.8236e-12,1.4297e-07,-6.7696e-07,-5.0864,0.67719
13105,11.649,4.0909,0,0.00029146,2912.6,9.6201e-05,0.20879,9.6167e-05,-0.04025,-0.00029146,-2912.5,0.67785
13106,11.557,4.1818,0,0.00029396,2937.6,9.7036e-05,0.023873,9.6961e-05,-0.53538,-0.00029397,-2937.8,0.66804
13107,11.649,4.1818,0.05,8.8189e-07,8.8128,6.7718e-07,5.0881,2.7335e-12,3.692e-08,-6.7719e-07,-5.0881,0.67763
13108,11.649,3.9091,0,0.00029138,2911.7,9.6178e-05,0.019361,9.6115e-05,-0.45524,-0.00029138,-2912,0.6782
13109,11.557,4,0,0.00029387,2936.6,9.7038e-05,0.011106,9.6872e-05,-1.2348,-0.00029389,-2937.3,0.66842
13110,11.649,4,0.05,8.8213e-07,8.8152,6.7736e-07,5.0894,2.7319e-12,3.151e-08,-6.7737e-07,-5.0895,0.67801
13111,11.649,3.7273,0,0.00029131,2911.1,9.6179e-05,0.0097805,9.6052e-05,-0.9464,-0.00029132,-2911.5,0.67849
13112,11.557,3.8182,0,0.00029379,2935.9,9.7041e-05,0.0079699,9.6796e-05,-1.8332,-0.00029382,-2936.8,0.66874
13113,11.649,3.8182,0.05,8.8232e-07,8.8171,6.7751e-07,5.0906,9.1354e-13,3.5765e-07,-6.7751e-07,-5.0906,0.67833
13114,11.649,3.5455,0,0.00029125,2910.5,9.6181e-05,0.0072289,9.6002e-05,-1.3373,-0.00029128,-2911.2,0.67871
13115,11.557,3.6364,0,0.00029372,2935.2,9.7044e-05,0.0066452,9.6735e-05,-2.3185,-0.00029376,-2936.4,0.669
13116,11.649,3.6364,0.05,8.8248e-07,8.8187,6.7763e-07,5.0915,3.0915e-15,1.3804e-06,-6.7764e-07,-5.0915,0.67859
13117,11.649,3.3636,0,0.00029122,2910.2,9.6182e-05,0.0061722,9.5966e-05,-1.6194,-0.00029124,-2911,0.67887
13118,11.557,3.4545,0,0.00029368,2934.7,9.7047e-05,0.0059756,9.6688e-05,-2.686,-0.00029372,-2936.1,0.66919
13119,11.649,3.4545,0.05,8.8259e-07,8.8198,6.7772e-07,5.0921,9.1195e-13,1.2554e-06,-6.7772e-07,-5.0922,0.67878
13120,11.649,3.1818,0,0.00029119,2909.9,9.6183e-05,0.0057025,9.5944e-05,-1.7897,-0.00029122,-2910.8,0.67896
13121,11.557,3.2727,0,0.00029364,2934.4,9.7048e-05,0.0056257,9.6657e-05,-2.9326,-0.00029369,-2935.9,0.66932
13122,11.649,3.2727,0.05,8.8267e-07,8.8206,6.7778e-07,5.0926,1.8205e-12,6.5243e-07,-6.7778e-07,-5.0926,0.6789
13123,11.649,3,0,0.00029119,2909.9,9.6183e-05,0.0055659,9.5937e-05,-1.8466,-0.00029122,-2910.8,0.679
13124,11.557,3.0909,0,0.00029363,2934.3,9.7049e-05,0.0054731,9.6641e-05,-3.0565,-0.00029368,-2935.8,0.66938
13125,11.649,3.0909,0.05,8.8271e-07,8.821,6.7781e-07,5.0928,1.8195e-12,1.2929e-06,-6.7781e-07,-5.0928,0.67897
13126,11.649,2.8182,0,0.00029119,2909.9,9.6183e-05,0.0057024,9.5944e-05,-1.7897,-0.00029122,-2910.8,0.67896
13127,11.557,2.9091,0,0.00029363,2934.3,9.7049e-05,0.0054731,9.6641e-05,-3.0565,-0.00029368,-2935.8,0.66938
13128,11.649,2.9091,0.05,8.8271e-07,8.821,6.7781e-07,5.0928,1.8185e-12,1.7022e-06,-6.7781e-07,-5.0928,0.67897
13129,11.649,2.6364,0,0.00029122,2910.2,9.6182e-05,0.0061724,9.5966e-05,-1.6194,-0.00029124,-2911,0.67887
13130,11.557,2.7273,0,0.00029364,2934.4,9.7048e-05,0.0056259,9.6657e-05,-2.9326,-0.00029369,-2935.9,0.66932
13131,11.649,2.7273,0.05,8.8267e-07,8.8206,6.7778e-07,5.0926,1.8174e-12,1.4784e-06,-6.7778e-07,-5.0926,0.6789
13132,11.649,2.4545,0,0.00029125,2910.5,9.6181e-05,0.0072293,9.6002e-05,-1.3373,-0.00029128,-2911.2,0.67871
13133,11.557,2.5455,0,0.00029368,2934.7,9.7047e-05,0.0059756,9.6688e-05,-2.686,-0.00029372,-2936.1,0.66919
13134,11.649,2.5455,0.05,8.8259e-07,8.8198,6.7772e-07,5.0921,1.8166e-12,1.1137e-06,-6.7772e-07,-5.0922,0.67878
13135,11.649,2.2727,0,0.00029131,2911.1,9.6179e-05,0.0097812,9.6052e-05,-0.94642,-0.00029132,-2911.5,0.67849
13136,11.557,2.3636,0,0.00029372,2935.2,9.7044e-05,0.0066453,9.6735e-05,-2.3185,-0.00029376,-2936.4,0.669
13137,11.649,2.3636,0.05,8.8248e-07,8.8187,6.7763e-07,5.0915,-3.3475e-15,1.123e-06,-6.7764e-07,-5.0915,0.67859
13138,11.649,2.0909,0,0.00029138,2911.7,9.6178e-05,0.019361,9.6115e-05,-0.45527,-0.00029138,-2912,0.6782
13139,11.557,2.1818,0,0.00029379,2935.9,9.7041e-05,0.0079703,9.6796e-05,-1.8332,-0.00029382,-2936.8,0.66874
13140,11.649,2.1818,0.05,8.8232e-07,8.8171,6.7751e-07,5.0906,1.8149e-12,7.0246e-07,-6.7751e-07,-5.0906,0.67833
13141,11.649,1.9091,0,0.00029146,2912.6,9.6201e-05,0.20876,9.6167e-05,-0.040256,-0.00029146,-2912.5,0.67785
13142,11.557,2,0,0.00029387,2936.6,9.7038e-05,0.011106,9.6872e-05,-1.2348,-0.00029389,-2937.3,0.66842
13143,11.649,2,0.05,8.8213e-07,8.8152,6.7736e-07,5.0894,2.7249e-12,4.7473e-07,-6.7737e-07,-5.0895,0.67801
13144,11.649,1.7273,0,0.00029155,2913.5,9.6287e-05,0.88157,9.6169e-05,-0.0091961,-0.00029154,-2913.1,0.67744
13145,11.557,1.8182,0,0.00029396,2937.6,9.7036e-05,0.023872,9.6961e-05,-0.53542,-0.00029397,-2937.8,0.66804
13146,11.649,1.8182,0.05,8.8189e-07,8.8128,6.7718e-07,5.088,9.0437e-13,6.0795e-07,-6.7718e-07,-5.0881,0.67763
13147,11.649,1.5455,0,0.00029167,2914.6,9.639e-05,1.6758,9.6166e-05,-0.0047862,-0.00029164,-2913.8,0.67697
13148,11.557,1.6364,0,0.00029407,2938.7,9.7074e-05,0.34125,9.7024e-05,-0.034874,-0.00029407,-2938.5,0.66759
13149,11.649,1.6364,0.05,8.8161e-07,8.81,6.7696e-07,5.0864,1.8143e-12,5.1268e-07,-6.7697e-07,-5.0864,0.67719
13150,11.649,1.3636,0,0.00029179,2915.9,9.6505e-05,2.5624,9.6163e-05,-0.0032223,-0.00029175,-2914.6,0.67643
13151,11.557,1.4545,0,0.00029419,2939.9,9.7188e-05,1.2337,9.7022e-05,-0.0090547,-0.00029417,-2939.3,0.66708
13152,11.649,1.4545,0.05,8.8128e-07,8.8067,6.7671e-07,5.0845,-3.3403e-15,3.0556e-07,-6.7672e-07,-5.0846,0.67668
13153,11.649,1.1818,0,0.00029193,2917.3,9.6631e-05,3.534,9.6161e-05,-0.002532,-0.00029187,-2915.5,0.67582
13154,11.557,1.2727,0,0.00029433,2941.3,9.7317e-05,2.2422,9.7018e-05,-0.0047775,-0.00029429,-2940.2,0.6665
13155,11.649,1.2727,0.05,8.809e-07,8.8029,6.7642e-07,5.0824,-3.7931e-15,3.3126e-07,-6.7643e-07,-5.0824,0.67611
13156,11.649,1,0,0.00029208,2918.8,9.6769e-05,4.5846,9.6158e-05,-0.0022314,-0.000292,-2916.5,0.67516
13157,11.557,1.0909,0,0.00029448,2942.8,9.7459e-05,3.3417,9.7014e-05,-0.0031905,-0.00029443,-2941.1,0.66586
13158,11.649,1.0909,0.05,8.8048e-07,8.7987,6.7609e-07,5.0799,2.7251e-12,-2.0726e-07,-6.761e-07,-5.08,0.67548
13159,11.649,0.81818,0,0.00029224,2920.4,9.6916e-05,5.7083,9.6156e-05,-0.0021571,-0.00029214,-2917.5,0.67443
13160,11.557,0.90909,0,0.00029465,2944.4,9.7612e-05,4.5241,9.7009e-05,-0.0024679,-0.00029457,-2942.2,0.66516
13161,11.649,0.90909,0.05,8.7999e-07,8.7938,6.7572e-07,5.077,1.8171e-12,-9.9925e-07,-6.7572e-07,-5.0771,0.67478
13162,11.649,0.63636,0,0.00029242,2922.1,9.7074e-05,6.9014,9.6155e-05,-0.0021913,-0.0002923,-2918.7,0.67363
13163,11.557,0.72727,0,0.00029483,2946.2,9.7776e-05,5.7825,9.7006e-05,-0.0021477,-0.00029473,-2943.3,0.66439
13164,11.649,0.72727,0.05,8.7924e-07,8.7863,6.7514e-07,5.0728,1.8164e-12,-1.3277e-06,-6.7515e-07,-5.0728,0.67402
13165,11.649,0.45455,0,0.00029261,2924.1,9.7245e-05,8.1939,9.6155e-05,-0.0025303,-0.00029247,-2920,0.67278
13166,11.557,0.54545,0,0.00029502,2948.1,9.795e-05,7.1143,9.7002e-05,-0.002041,-0.00029489,-2944.6,0.66356
13167,11.649,0.54545,0.05,8.7532e-07,8.7471,6.7213e-07,5.0501,1.8187e-12,-2.0021e-06,-6.7213e-07,-5.0502,0.67319
13168,11.649,0.27273,0,0.00029291,2927.1,9.7512e-05,10.188,9.6155e-05,-0.0027189,-0.00029274,-2922,0.67186
13169,11.557,0.36364,0,0.00029523,2950.3,9.8143e-05,8.5823,9.7e-05,-0.0021645,-0.00029508,-2946,0.66267
13170,11.649,0.36364,0.05,8.2343e-07,8.2286,6.3229e-07,4.7508,1.819e-12,-8.3447e-07,-6.3229e-07,-4.7508,0.6723
13171,11.557,0.18182,0,0.00029565,2954.4,9.8513e-05,11.378,9.6999e-05,-0.0026177,-0.00029545,-2948.7,0.66171
13172,11.649,0.18182,0.05,3.5872e-08,0.35847,2.7542e-08,0.2069,3.6412e-12,1.7163e-06,-2.7549e-08,-0.20703,0.67135
13173,11.649,0.090909,0,0.00029256,2923.6,9.7201e-05,7.8397,9.6157e-05,-0.0019525,-0.00029243,-2919.7,0.67087
13174,11.464,5.7273,0,0.00029795,2977.4,9.9132e-05,9.6794,9.7844e-05,-0.0021776,-0.00029778,-2972.6,0.65258
13175,11.372,5.8182,0,0.0003007,3004.9,0.00010015,10.96,9.8688e-05,-0.0031181,-0.00030051,-2999.5,0.64252
13176,11.464,5.8182,0.05,3.9706e-08,0.39678,3.0489e-08,0.22908,-2.7273e-14,2.4944e-06,-3.0489e-08,-0.22908,0.65207
13177,11.464,5.9091,0,0.00029763,2974.2,9.8852e-05,7.5948,9.784e-05,-0.0017633,-0.0002975,-2970.4,0.65158
13178,11.464,5.5455,0,0.00029763,2974.3,9.8843e-05,7.4771,9.7848e-05,-0.0016725,-0.0002975,-2970.5,0.65352
13179,11.372,5.6364,0,0.00030027,3000.6,9.9754e-05,7.9588,9.8695e-05,-0.00080524,-0.00030013,-2996.7,0.6435
13180,11.464,5.6364,0.05,8.2732e-07,8.2675,6.3528e-07,4.7732,9.0948e-13,2.8009e-06,-6.3527e-07,-4.7732,0.65303
13181,11.464,5.3636,0,0.00029742,2972.2,9.8648e-05,5.9732,9.7853e-05,-0.001993,-0.00029732,-2969.2,0.65439
13182,11.372,5.4545,0,0.00030004,2998.3,9.9537e-05,6.2714,9.8702e-05,-0.0016978,-0.00029993,-2995.2,0.64441
13183,11.464,5.4545,0.05,8.7924e-07,8.7863,6.7514e-07,5.0728,1.8209e-12,3.3247e-06,-6.7515e-07,-5.0728,0.65394
13184,11.464,5.1818,0,0.00029723,2970.2,9.8468e-05,4.5768,9.7859e-05,-0.0024802,-0.00029715,-2968,0.65519
13185,11.372,5.2727,0,0.00029983,2996.3,9.934e-05,4.7272,9.871e-05,-0.0022039,-0.00029975,-2993.9,0.64525
13186,11.464,5.2727,0.05,8.8319e-07,8.8258,6.7818e-07,5.0956,9.1395e-13,1.7285e-06,-6.7818e-07,-5.0956,0.65477
13187,11.464,5,0,0.00029705,2968.5,9.8299e-05,3.2604,9.7865e-05,-0.0035693,-0.000297,-2966.8,0.65593
13188,11.372,5.0909,0,0.00029964,2994.3,9.9154e-05,3.2662,9.8718e-05,-0.0035779,-0.00029958,-2992.7,0.64603
13189,11.464,5.0909,0.05,8.8397e-07,8.8336,6.7877e-07,5.1001,9.1168e-13,1.6546e-06,-6.7878e-07,-5.1001,0.65555
13190,11.464,4.8182,0,0.00029689,2966.8,9.8142e-05,2.0301,9.7871e-05,-0.0061218,-0.00029685,-2965.8,0.65661
13191,11.372,4.9091,0,0.00029946,2992.5,9.898e-05,1.8941,9.8727e-05,-0.0070252,-0.00029943,-2991.6,0.64674
13192,11.464,4.9091,0.05,8.8449e-07,8.8388,6.7918e-07,5.1031,1.8226e-12,1.094e-06,-6.7918e-07,-5.1031,0.65626
13193,11.464,4.6364,0,0.00029673,2965.3,9.7998e-05,0.89793,9.7876e-05,-0.015134,-0.00029672,-2964.9,0.65722
13194,11.372,4.7273,0,0.00029929,2990.8,9.882e-05,0.63037,9.8733e-05,-0.024232,-0.00029928,-2990.5,0.64739
13195,11.464,4.7273,0.05,8.8494e-07,8.8433,6.7952e-07,5.1057,9.1443e-13,4.2905e-07,-6.7952e-07,-5.1057,0.6569
13196,11.464,4.4545,0,0.0002966,2963.9,9.7894e-05,0.066268,9.7855e-05,-0.22598,-0.0002966,-2964,0.65777
13197,11.372,4.5455,0,0.00029914,2989.3,9.8748e-05,0.028964,9.8664e-05,-0.60127,-0.00029915,-2989.6,0.64798
13198,11.464,4.5455,0.05,8.8534e-07,8.8473,6.7983e-07,5.108,1.8263e-12,1.3364e-06,-6.7983e-07,-5.108,0.65748
13199,11.464,4.2727,0,0.00029647,2962.7,9.7893e-05,0.014805,9.7743e-05,-1.1118,-0.00029649,-2963.2,0.65825
13200,11.372,4.3636,0,0.000299,2988,9.8754e-05,0.011857,9.8532e-05,-1.6527,-0.00029903,-2988.8,0.6485
13201,11.464,4.3636,0.05,8.8569e-07,8.8508,6.801e-07,5.11,9.1658e-13,3.8744e-07,-6.801e-07,-5.11,0.658
13202,11.464,4.0909,0,0.00029637,2961.6,9.7898e-05,0.0092842,9.7639e-05,-1.9322,-0.0002964,-2962.6,0.65867
13203,11.372,4.1818,0,0.00029888,2986.8,9.8761e-05,0.0083476,9.8414e-05,-2.6009,-0.00029893,-2988.1,0.64895
13204,11.464,4.1818,0.05,8.8599e-07,8.8538,6.8033e-07,5.1117,9.1713e-13,1.8675e-07,-6.8033e-07,-5.1118,0.65845
13205,11.464,3.9091,0,0.00029628,2960.7,9.7903e-05,0.0073224,9.755e-05,-2.6393,-0.00029632,-2962,0.65902
13206,11.372,4,0,0.00029878,2985.7,9.8767e-05,0.0069055,9.831e-05,-3.428,-0.00029884,-2987.4,0.64934
13207,11.464,4,0.05,8.8625e-07,8.8564,6.8053e-07,5.1132,1.8248e-12,3.4602e-07,-6.8053e-07,-5.1133,0.65883
13208,11.464,3.7273,0,0.0002962,2960,9.7907e-05,0.0063705,9.7476e-05,-3.2255,-0.00029626,-2961.6,0.65931
13209,11.372,3.8182,0,0.00029869,2984.9,9.8773e-05,0.0061546,9.8223e-05,-4.1269,-0.00029876,-2986.9,0.64966
13210,11.464,3.8182,0.05,8.8646e-07,8.8585,6.8069e-07,5.1144,9.1568e-13,6.9677e-07,-6.8069e-07,-5.1145,0.65915
13211,11.464,3.5455,0,0.00029614,2959.4,9.791e-05,0.0058472,9.7419e-05,-3.6862,-0.0002962,-2961.2,0.65954
13212,11.372,3.6364,0,0.00029862,2984.1,9.8778e-05,0.005721,9.8152e-05,-4.6924,-0.0002987,-2986.5,0.64992
13213,11.464,3.6364,0.05,8.8663e-07,8.8601,6.8081e-07,5.1154,1.8236e-12,1.631e-06,-6.8082e-07,-5.1154,0.65941
13214,11.464,3.3636,0,0.0002961,2959,9.7912e-05,0.0055504,9.7377e-05,-4.0178,-0.00029617,-2961,0.6597
13215,11.372,3.4545,0,0.00029857,2983.6,9.8781e-05,0.0054616,9.8099e-05,-5.1201,-0.00029865,-2986.2,0.65012
13216,11.464,3.4545,0.05,8.8675e-07,8.8614,6.8091e-07,5.1161,9.1314e-13,1.458e-06,-6.8092e-07,-5.1162,0.6596
13217,11.464,3.1818,0,0.00029607,2958.7,9.7914e-05,0.0053954,9.7352e-05,-4.2178,-0.00029615,-2960.8,0.6598
13218,11.372,3.2727,0,0.00029853,2983.3,9.8784e-05,0.0053124,9.8063e-05,-5.4071,-0.00029862,-2986,0.65025
13219,11.464,3.2727,0.05,8.8683e-07,8.8622,6.8098e-07,5.1166,1.8213e-12,9.1163e-07,-6.8098e-07,-5.1166,0.65973
13220,11.464,3,0,0.00029607,2958.6,9.7914e-05,0.0053472,9.7343e-05,-4.2846,-0.00029614,-2960.8,0.65983
13221,11.372,3.0909,0,0.00029851,2983.1,9.8785e-05,0.0052434,9.8045e-05,-5.5511,-0.00029861,-2985.8,0.65031
13222,11.464,3.0909,0.05,8.8687e-07,8.8626,6.8101e-07,5.1168,2.7292e-12,1.3617e-06,-6.8101e-07,-5.1168,0.6598
13223,11.464,2.8182,0,0.00029607,2958.7,9.7914e-05,0.0053957,9.7352e-05,-4.2178,-0.00029615,-2960.8,0.6598
13224,11.372,2.9091,0,0.00029851,2983.1,9.8785e-05,0.0052436,9.8045e-05,-5.5512,-0.00029861,-2985.8,0.65031
13225,11.464,2.9091,0.05,8.8687e-07,8.8626,6.8101e-07,5.1168,1.8182e-12,1.8568e-06,-6.8101e-07,-5.1168,0.6598
13226,11.464,2.6364,0,0.0002961,2959,9.7912e-05,0.0055504,9.7377e-05,-4.0178,-0.00029617,-2961,0.6597
13227,11.372,2.7273,0,0.00029853,2983.3,9.8784e-05,0.0053124,9.8063e-05,-5.4071,-0.00029862,-2986,0.65025
13228,11.464,2.7273,0.05,8.8683e-07,8.8622,6.8098e-07,5.1166,9.0717e-13,1.7112e-06,-6.8098e-07,-5.1166,0.65973
13229,11.464,2.4545,0,0.00029614,2959.4,9.791e-05,0.0058469,9.7419e-05,-3.6863,-0.0002962,-2961.2,0.65954
13230,11.372,2.5455,0,0.00029857,2983.6,9.8781e-05,0.0054619,9.8099e-05,-5.1202,-0.00029865,-2986.2,0.65012
13231,11.464,2.5455,0.05,8.8675e-07,8.8614,6.8091e-07,5.1161,2.7249e-12,1.3437e-06,-6.8092e-07,-5.1162,0.6596
13232,11.464,2.2727,0,0.0002962,2960,9.7907e-05,0.0063703,9.7476e-05,-3.2256,-0.00029626,-2961.6,0.65931
13233,11.372,2.3636,0,0.00029862,2984.1,9.8778e-05,0.0057209,9.8152e-05,-4.6924,-0.0002987,-2986.5,0.64992
13234,11.464,2.3636,0.05,8.8663e-07,8.8601,6.8081e-07,5.1154,2.7234e-12,1.1974e-06,-6.8082e-07,-5.1154,0.65941
13235,11.464,2.0909,0,0.00029628,2960.7,9.7903e-05,0.0073226,9.755e-05,-2.6393,-0.00029632,-2962,0.65902
13236,11.372,2.1818,0,0.00029869,2984.9,9.8773e-05,0.0061552,9.8223e-05,-4.127,-0.00029876,-2986.9,0.64966
13237,11.464,2.1818,0.05,8.8646e-07,8.8585,6.8069e-07,5.1144,1.8127e-12,9.109e-07,-6.8069e-07,-5.1145,0.65915
13238,11.464,1.9091,0,0.00029637,2961.6,9.7898e-05,0.0092846,9.7639e-05,-1.9322,-0.0002964,-2962.6,0.65867
13239,11.372,2,0,0.00029878,2985.7,9.8767e-05,0.0069059,9.831e-05,-3.4281,-0.00029884,-2987.4,0.64934
13240,11.464,2,0.05,8.8625e-07,8.8564,6.8053e-07,5.1132,9.0258e-13,6.3127e-07,-6.8053e-07,-5.1133,0.65883
13241,11.464,1.7273,0,0.00029647,2962.7,9.7893e-05,0.014804,9.7743e-05,-1.1118,-0.00029649,-2963.2,0.65825
13242,11.372,1.8182,0,0.00029888,2986.8,9.8761e-05,0.0083478,9.8414e-05,-2.601,-0.00029893,-2988.1,0.64895
13243,11.464,1.8182,0.05,8.8599e-07,8.8538,6.8033e-07,5.1117,1.8123e-12,7.1161e-07,-6.8033e-07,-5.1118,0.65845
13244,11.464,1.5455,0,0.0002966,2963.9,9.7894e-05,0.066258,9.7855e-05,-0.22602,-0.0002966,-2964,0.65777
13245,11.372,1.6364,0,0.000299,2988,9.8754e-05,0.011857,9.8532e-05,-1.6528,-0.00029903,-2988.8,0.6485
13246,11.464,1.6364,0.05,8.8569e-07,8.8508,6.801e-07,5.11,9.0226e-13,5.9182e-07,-6.801e-07,-5.11,0.658
13247,11.464,1.3636,0,0.00029673,2965.3,9.7998e-05,0.89788,9.7876e-05,-0.015135,-0.00029672,-2964.9,0.65722
13248,11.372,1.4545,0,0.00029914,2989.3,9.8748e-05,0.028963,9.8664e-05,-0.60132,-0.00029915,-2989.6,0.64798
13249,11.464,1.4545,0.05,8.8534e-07,8.8473,6.7983e-07,5.1079,2.722e-12,5.3459e-07,-6.7983e-07,-5.108,0.65748
13250,11.464,1.1818,0,0.00029689,2966.8,9.8142e-05,2.03,9.7871e-05,-0.0061218,-0.00029685,-2965.8,0.65661
13251,11.372,1.2727,0,0.00029929,2990.8,9.882e-05,0.63032,9.8733e-05,-0.024234,-0.00029928,-2990.5,0.64739
13252,11.464,1.2727,0.05,8.8494e-07,8.8433,6.7952e-07,5.1056,1.8136e-12,2.4418e-07,-6.7952e-07,-5.1057,0.6569
13253,11.464,1,0,0.00029705,2968.5,9.8299e-05,3.2603,9.7865e-05,-0.0035685,-0.000297,-2966.8,0.65593
13254,11.372,1.0909,0,0.00029946,2992.5,9.898e-05,1.894,9.8727e-05,-0.0070256,-0.00029943,-2991.6,0.64674
13255,11.464,1.0909,0.05,8.8449e-07,8.8388,6.7917e-07,5.103,1.8149e-12,-3.3521e-08,-6.7918e-07,-5.1031,0.65626
13256,11.464,0.81818,0,0.00029723,2970.2,9.8468e-05,4.5768,9.7859e-05,-0.0024791,-0.00029715,-2968,0.65519
13257,11.372,0.90909,0,0.00029964,2994.3,9.9154e-05,3.2661,9.8718e-05,-0.0035766,-0.00029958,-2992.7,0.64603
13258,11.464,0.90909,0.05,8.8397e-07,8.8336,6.7877e-07,5.1,1.8114e-12,-2.1094e-07,-6.7878e-07,-5.1001,0.65555
13259,11.464,0.63636,0,0.00029742,2972.2,9.8648e-05,5.9731,9.7853e-05,-0.0019926,-0.00029732,-2969.2,0.65439
13260,11.372,0.72727,0,0.00029983,2996.3,9.934e-05,4.7271,9.871e-05,-0.002203,-0.00029975,-2993.9,0.64525
13261,11.464,0.72727,0.05,8.8319e-07,8.8258,6.7818e-07,5.0956,1.8189e-12,-5.3791e-07,-6.7818e-07,-5.0956,0.65477
13262,11.464,0.45455,0,0.00029763,2974.3,9.8843e-05,7.477,9.7848e-05,-0.0016729,-0.0002975,-2970.5,0.65352
13263,11.372,0.54545,0,0.00030004,2998.3,9.9537e-05,6.2713,9.8702e-05,-0.0016977,-0.00029993,-2995.2,0.64441
13264,11.464,0.54545,0.05,8.7924e-07,8.7863,6.7514e-07,5.0727,9.0934e-13,-9.4168e-07,-6.7515e-07,-5.0728,0.65394
13265,11.464,0.27273,0,0.00029795,2977.4,9.9132e-05,9.6794,9.7844e-05,-0.0021776,-0.00029778,-2972.6,0.65258
13266,11.372,0.36364,0,0.00030027,3000.6,9.9754e-05,7.9587,9.8695e-05,-0.00080496,-0.00030013,-2996.7,0.6435
13267,11.464,0.36364,0.05,8.2732e-07,8.2675,6.3527e-07,4.7732,2.7265e-12,-6.0494e-08,-6.3528e-07,-4.7732,0.65303
13268,11.372,0.18182,0,0.0003007,3004.9,0.00010015,10.96,9.8688e-05,-0.0031177,-0.00030051,-2999.5,0.64252
13269,11.464,0.18182,0.05,3.9707e-08,0.3968,3.0488e-08,0.22904,1.7862e-12,9.4637e-07,-3.0492e-08,-0.22914,0.65207
13270,11.464,0.090909,0,0.00029763,2974.2,9.8852e-05,7.5948,9.784e-05,-0.0017623,-0.0002975,-2970.4,0.65158
13271,11.279,5.7273,0,0.00030301,3028,0.00010076,9.1475,9.9539e-05,-0.0016562,-0.00030285,-3023.4,0.63351
13272,11.187,5.8182,0,0.00030578,3055.7,0.00010179,10.522,0.00010039,-0.0037166,-0.0003056,-3050.4,0.62354
13273,11.279,5.8182,0.05,4.4499e-08,0.44468,3.4168e-08,0.25672,-6.4752e-15,7.8319e-07,-3.4171e-08,-0.25675,0.63298
13274,11.279,5.9091,0,0.00030271,3025,0.00010051,7.3384,9.9531e-05,-0.001606,-0.00030259,-3021.4,0.63249
13275,11.279,5.5455,0,0.00030267,3024.7,0.00010044,6.7277,9.9549e-05,-0.00077553,-0.00030256,-3021.3,0.63446
13276,11.187,5.6364,0,0.00030533,3051.2,0.00010137,7.3057,0.0001004,0.000609,-0.00030521,-3047.6,0.62453
13277,11.279,5.6364,0.05,8.3134e-07,8.3076,6.3836e-07,4.7964,9.0874e-13,2.3076e-06,-6.3837e-07,-4.7964,0.63397
13278,11.279,5.3636,0,0.00030245,3022.4,0.00010023,5.0034,9.9559e-05,-0.0018385,-0.00030236,-3019.9,0.63534
13279,11.187,5.4545,0,0.00030508,3048.7,0.00010113,5.3888,0.00010041,-0.0013521,-0.00030499,-3046,0.62546
13280,11.279,5.4545,0.05,8.8326e-07,8.8265,6.7823e-07,5.096,9.0895e-13,3.2198e-06,-6.7824e-07,-5.096,0.63488
13281,11.279,5.1818,0,0.00030224,3020.3,0.00010002,3.3953,9.957e-05,-0.0032122,-0.00030218,-3018.6,0.63616
13282,11.187,5.2727,0,0.00030486,3046.5,0.00010091,3.6227,0.00010042,-0.0025008,-0.0003048,-3044.7,0.62631
13283,11.279,5.2727,0.05,8.8725e-07,8.8664,6.813e-07,5.119,9.0943e-13,1.8551e-06,-6.813e-07,-5.119,0.63573
13284,11.279,5,0,0.00030204,3018.3,9.9831e-05,1.8793,9.958e-05,-0.0071516,-0.00030201,-3017.4,0.63691
13285,11.187,5.0909,0,0.00030465,3044.4,0.0001007,1.9511,0.00010044,-0.0065079,-0.00030461,-3043.4,0.62711
13286,11.279,5.0909,0.05,8.8805e-07,8.8744,6.8191e-07,5.1236,9.1312e-13,1.9777e-06,-6.8192e-07,-5.1236,0.63652
13287,11.279,4.8182,0,0.00030186,3016.5,9.9656e-05,0.48262,9.9587e-05,-0.033578,-0.00030185,-3016.3,0.6376
13288,11.187,4.9091,0,0.00030445,3042.4,0.0001005,0.4076,0.00010044,-0.040138,-0.00030444,-3042.2,0.62783
13289,11.279,4.9091,0.05,8.886e-07,8.8799,6.8233e-07,5.1268,9.1736e-13,1.5735e-06,-6.8233e-07,-5.1268,0.63724
13290,11.279,4.6364,0,0.00030169,3014.9,9.9605e-05,0.021463,9.9484e-05,-0.89021,-0.00030171,-3015.3,0.63822
13291,11.187,4.7273,0,0.00030427,3040.6,0.00010046,0.017971,0.00010031,-1.1199,-0.00030429,-3041.1,0.62849
13292,11.279,4.7273,0.05,8.8908e-07,8.8847,6.827e-07,5.1295,1.828e-12,7.1848e-07,-6.8271e-07,-5.1296,0.63789
13293,11.279,4.4545,0,0.00030154,3013.4,9.9613e-05,0.010558,9.9335e-05,-2.0834,-0.00030158,-3014.4,0.63877
13294,11.187,4.5455,0,0.0003041,3038.9,0.00010048,0.00967,0.00010015,-2.4639,-0.00030414,-3040.1,0.62908
13295,11.279,4.5455,0.05,8.895e-07,8.8889,6.8303e-07,5.132,1.8279e-12,1.5814e-06,-6.8303e-07,-5.132,0.63848
13296,11.279,4.2727,0,0.00030141,3012,9.9622e-05,0.0078289,9.92e-05,-3.1634,-0.00030146,-3013.6,0.63926
13297,11.187,4.3636,0,0.00030395,3037.4,0.00010049,0.0074116,9.9995e-05,-3.688,-0.00030401,-3039.3,0.62961
13298,11.279,4.3636,0.05,8.8988e-07,8.8926,6.8331e-07,5.1342,9.1616e-13,6.2399e-07,-6.8331e-07,-5.1342,0.639
13299,11.279,4.0909,0,0.00030129,3010.8,9.9631e-05,0.0066372,9.9082e-05,-4.1162,-0.00030136,-3012.9,0.63969
13300,11.187,4.1818,0,0.00030382,3036.1,0.0001005,0.0063949,9.986e-05,-4.7793,-0.0003039,-3038.5,0.63007
13301,11.279,4.1818,0.05,8.902e-07,8.8958,6.8356e-07,5.136,1.8282e-12,5.6642e-07,-6.8356e-07,-5.136,0.63946
13302,11.279,3.9091,0,0.00030119,3009.8,9.9638e-05,0.005995,9.898e-05,-4.9345,-0.00030127,-3012.3,0.64005
13303,11.187,4,0,0.0003037,3034.9,0.00010051,0.0058362,9.9743e-05,-5.7296,-0.0003038,-3037.8,0.63046
13304,11.279,4,0.05,8.9047e-07,8.8986,6.8377e-07,5.1376,1.8299e-12,7.5416e-07,-6.8377e-07,-5.1376,0.63985
13305,11.279,3.7273,0,0.00030111,3009,9.9644e-05,0.0056127,9.8896e-05,-5.6122,-0.0003012,-3011.8,0.64034
13306,11.187,3.8182,0,0.00030361,3034,0.00010051,0.0054949,9.9644e-05,-6.5323,-0.00030372,-3037.2,0.63079
13307,11.279,3.8182,0.05,8.907e-07,8.9008,6.8394e-07,5.1389,9.1769e-13,9.6296e-07,-6.8394e-07,-5.1389,0.64018
13308,11.279,3.5455,0,0.00030104,3008.4,9.9649e-05,0.0053757,9.883e-05,-6.1445,-0.00030115,-3011.4,0.64057
13309,11.187,3.6364,0,0.00030353,3033.2,0.00010052,0.0052783,9.9564e-05,-7.1814,-0.00030365,-3036.8,0.63105
13310,11.279,3.6364,0.05,8.9087e-07,8.9026,6.8408e-07,5.1399,9.1597e-13,1.9364e-06,-6.8408e-07,-5.1399,0.64044
13311,11.279,3.3636,0,0.000301,3007.9,9.9652e-05,0.0052309,9.8783e-05,-6.5275,-0.00030111,-3011.1,0.64073
13312,11.187,3.4545,0,0.00030347,3032.6,0.00010053,0.0051393,9.9504e-05,-7.6724,-0.0003036,-3036.4,0.63125
13313,11.279,3.4545,0.05,8.9101e-07,8.9039,6.8418e-07,5.1407,9.1437e-13,1.6167e-06,-6.8418e-07,-5.1407,0.64064
13314,11.279,3.1818,0,0.00030097,3007.6,9.9655e-05,0.0051519,9.8754e-05,-6.7585,-0.00030108,-3011,0.64083
13315,11.187,3.2727,0,0.00030343,3032.2,0.00010053,0.0050564,9.9464e-05,-8.0017,-0.00030357,-3036.2,0.63138
13316,11.279,3.2727,0.05,8.9109e-07,8.9048,6.8425e-07,5.1412,9.1248e-13,1.2146e-06,-6.8425e-07,-5.1412,0.64077
13317,11.279,3,0,0.00030096,3007.5,9.9655e-05,0.0051267,9.8745e-05,-6.8356,-0.00030107,-3010.9,0.64086
13318,11.187,3.0909,0,0.00030341,3032,0.00010053,0.0050164,9.9443e-05,-8.167,-0.00030355,-3036.1,0.63145
13319,11.279,3.0909,0.05,8.9114e-07,8.9052,6.8428e-07,5.1414,3.639e-12,1.6765e-06,-6.8428e-07,-5.1415,0.64083
13320,11.279,2.8182,0,0.00030097,3007.6,9.9655e-05,0.0051519,9.8754e-05,-6.7585,-0.00030108,-3011,0.64083
13321,11.187,2.9091,0,0.00030341,3032,0.00010053,0.0050169,9.9443e-05,-8.167,-0.00030355,-3036.1,0.63145
13322,11.279,2.9091,0.05,8.9114e-07,8.9052,6.8428e-07,5.1414,3.6369e-12,2.1381e-06,-6.8428e-07,-5.1415,0.64083
13323,11.279,2.6364,0,0.000301,3007.9,9.9652e-05,0.0052311,9.8783e-05,-6.5275,-0.00030111,-3011.1,0.64073
13324,11.187,2.7273,0,0.00030343,3032.2,0.00010053,0.0050563,9.9464e-05,-8.0018,-0.00030357,-3036.2,0.63138
13325,11.279,2.7273,0.05,8.9109e-07,8.9048,6.8425e-07,5.1412,1.816e-12,2.0039e-06,-6.8425e-07,-5.1412,0.64077
13326,11.279,2.4545,0,0.00030104,3008.4,9.9649e-05,0.0053761,9.883e-05,-6.1445,-0.00030115,-3011.4,0.64057
13327,11.187,2.5455,0,0.00030347,3032.6,0.00010053,0.0051397,9.9504e-05,-7.6724,-0.0003036,-3036.4,0.63125
13328,11.279,2.5455,0.05,8.9101e-07,8.9039,6.8418e-07,5.1407,1.8141e-12,1.6034e-06,-6.8418e-07,-5.1407,0.64064
13329,11.279,2.2727,0,0.00030111,3009,9.9644e-05,0.0056133,9.8896e-05,-5.6122,-0.0003012,-3011.8,0.64034
13330,11.187,2.3636,0,0.00030353,3033.2,0.00010052,0.005278,9.9564e-05,-7.1814,-0.00030365,-3036.8,0.63105
13331,11.279,2.3636,0.05,8.9087e-07,8.9026,6.8408e-07,5.1399,3.6308e-12,1.4429e-06,-6.8408e-07,-5.1399,0.64044
13332,11.279,2.0909,0,0.00030119,3009.8,9.9638e-05,0.0059958,9.898e-05,-4.9345,-0.00030127,-3012.3,0.64005
13333,11.187,2.1818,0,0.00030361,3034,0.00010051,0.0054956,9.9644e-05,-6.5323,-0.00030372,-3037.2,0.63079
13334,11.279,2.1818,0.05,8.907e-07,8.9008,6.8394e-07,5.1389,2.7208e-12,1.1314e-06,-6.8394e-07,-5.1389,0.64018
13335,11.279,1.9091,0,0.00030129,3010.8,9.9631e-05,0.0066373,9.9082e-05,-4.1162,-0.00030136,-3012.9,0.63969
13336,11.187,2,0,0.0003037,3034.9,0.00010051,0.0058362,9.9743e-05,-5.7297,-0.0003038,-3037.8,0.63046
13337,11.279,2,0.05,8.9047e-07,8.8986,6.8377e-07,5.1375,2.7212e-12,9.3414e-07,-6.8377e-07,-5.1376,0.63985
13338,11.279,1.7273,0,0.00030141,3012,9.9622e-05,0.0078292,9.92e-05,-3.1634,-0.00030146,-3013.6,0.63926
13339,11.187,1.8182,0,0.00030382,3036.1,0.0001005,0.0063952,9.986e-05,-4.7793,-0.0003039,-3038.5,0.63007
13340,11.279,1.8182,0.05,8.902e-07,8.8958,6.8356e-07,5.136,1.8107e-12,1.0619e-06,-6.8357e-07,-5.1361,0.63946
13341,11.279,1.5455,0,0.00030154,3013.4,9.9613e-05,0.010559,9.9335e-05,-2.0835,-0.00030158,-3014.4,0.63877
13342,11.187,1.6364,0,0.00030395,3037.4,0.00010049,0.0074118,9.9995e-05,-3.688,-0.00030401,-3039.3,0.62961
13343,11.279,1.6364,0.05,8.8988e-07,8.8926,6.8331e-07,5.1341,2.7175e-12,9.3486e-07,-6.8332e-07,-5.1342,0.639
13344,11.279,1.3636,0,0.00030169,3014.9,9.9605e-05,0.021463,9.9484e-05,-0.89026,-0.00030171,-3015.3,0.63822
13345,11.187,1.4545,0,0.0003041,3038.9,0.00010048,0.0096704,0.00010015,-2.4639,-0.00030414,-3040.1,0.62908
13346,11.279,1.4545,0.05,8.895e-07,8.8889,6.8303e-07,5.132,1.8093e-12,7.1052e-07,-6.8303e-07,-5.132,0.63848
13347,11.279,1.1818,0,0.00030186,3016.5,9.9656e-05,0.48257,9.9587e-05,-0.033582,-0.00030185,-3016.3,0.6376
13348,11.187,1.2727,0,0.00030427,3040.6,0.00010046,0.017971,0.00010031,-1.1199,-0.00030429,-3041.1,0.62849
13349,11.279,1.2727,0.05,8.8908e-07,8.8847,6.827e-07,5.1295,1.8106e-12,5.4496e-07,-6.827e-07,-5.1296,0.63789
13350,11.279,1,0,0.00030204,3018.3,9.9831e-05,1.8793,9.958e-05,-0.0071514,-0.00030201,-3017.4,0.63691
13351,11.187,1.0909,0,0.00030445,3042.4,0.0001005,0.40755,0.00010044,-0.040144,-0.00030444,-3042.2,0.62783
13352,11.279,1.0909,0.05,8.886e-07,8.8799,6.8233e-07,5.1268,2.722e-12,4.7262e-07,-6.8233e-07,-5.1268,0.63724
13353,11.279,0.81818,0,0.00030224,3020.3,0.00010002,3.3952,9.957e-05,-0.0032111,-0.00030218,-3018.6,0.63616
13354,11.187,0.90909,0,0.00030465,3044.4,0.0001007,1.9511,0.00010044,-0.0065064,-0.00030461,-3043.4,0.62711
13355,11.279,0.90909,0.05,8.8805e-07,8.8744,6.8191e-07,5.1236,3.6295e-12,2.4571e-07,-6.8192e-07,-5.1237,0.63652
13356,11.279,0.63636,0,0.00030245,3022.4,0.00010023,5.0033,9.9559e-05,-0.0018378,-0.00030236,-3019.9,0.63534
13357,11.187,0.72727,0,0.00030486,3046.5,0.00010091,3.6226,0.00010042,-0.0025002,-0.0003048,-3044.7,0.62631
13358,11.279,0.72727,0.05,8.8725e-07,8.8664,6.8129e-07,5.1189,1.8147e-12,-2.2273e-07,-6.813e-07,-5.119,0.63573
13359,11.279,0.45455,0,0.00030267,3024.7,0.00010044,6.7277,9.9549e-05,-0.00077469,-0.00030256,-3021.3,0.63446
13360,11.187,0.54545,0,0.00030508,3048.7,0.00010113,5.3887,0.00010041,-0.0013519,-0.00030499,-3046,0.62546
13361,11.279,0.54545,0.05,8.8326e-07,8.8265,6.7823e-07,5.096,-8.1602e-15,-4.5245e-07,-6.7824e-07,-5.096,0.63488
13362,11.279,0.27273,0,0.00030301,3028,0.00010076,9.1475,9.9539e-05,-0.0016554,-0.00030285,-3023.4,0.63351
13363,11.187,0.36364,0,0.00030533,3051.2,0.00010137,7.3057,0.0001004,0.00060988,-0.00030521,-3047.6,0.62453
13364,11.279,0.36364,0.05,8.3134e-07,8.3076,6.3836e-07,4.7964,3.637e-12,9.5785e-08,-6.3837e-07,-4.7965,0.63397
13365,11.187,0.18182,0,0.00030578,3055.7,0.00010179,10.522,0.00010039,-0.0037161,-0.0003056,-3050.4,0.62354
13366,11.279,0.18182,0.05,4.45e-08,0.44469,3.4169e-08,0.2567,7.0107e-13,-2.2268e-07,-3.4172e-08,-0.25679,0.63298
13367,11.279,0.090909,0,0.00030271,3025,0.00010051,7.3384,9.9531e-05,-0.0016052,-0.00030259,-3021.4,0.63249
13368,11.094,5.7273,0,0.00030809,3078.8,0.00010239,8.5896,0.00010124,-0.0011669,-0.00030794,-3074.5,0.61464
13369,11.002,5.8182,0,0.00031088,3106.6,0.00010343,10.062,0.00010209,-0.0044392,-0.0003107,-3101.6,0.60477
13370,11.094,5.8182,0.05,5.0216e-08,0.50181,3.8558e-08,0.28971,7.3034e-13,8.5898e-07,-3.8561e-08,-0.28974,0.61411
13371,11.094,5.9091,0,0.00030782,3076.1,0.00010217,7.0697,0.00010123,-0.0014948,-0.0003077,-3072.5,0.61361
13372,11.094,5.5455,0,0.00030774,3075.2,0.00010205,5.9418,0.00010126,0.00016617,-0.00030764,-3072.3,0.6156
13373,11.002,5.6364,0,0.00031041,3102,0.00010299,6.6198,0.00010211,0.0020856,-0.0003103,-3098.7,0.60578
13374,11.094,5.6364,0.05,8.355e-07,8.3492,6.4156e-07,4.8204,9.0936e-13,2.409e-06,-6.4156e-07,-4.8205,0.61511
13375,11.094,5.3636,0,0.00030749,3072.8,0.0001018,3.9863,0.00010127,-0.0017832,-0.00030742,-3070.8,0.6165
13376,11.002,5.4545,0,0.00031014,3099.3,0.00010272,4.4615,0.00010213,-0.0010158,-0.00031007,-3097.1,0.60672
13377,11.094,5.4545,0.05,8.8739e-07,8.8678,6.814e-07,5.1198,4.9788e-15,3.4477e-06,-6.8141e-07,-5.1198,0.61604
13378,11.094,5.1818,0,0.00030726,3070.5,0.00010158,2.1571,0.00010129,-0.0051439,-0.00030723,-3069.4,0.61733
13379,11.002,5.2727,0,0.0003099,3096.9,0.00010247,2.4627,0.00010214,-0.0034426,-0.00030986,-3095.6,0.60759
13380,11.094,5.2727,0.05,8.9141e-07,8.9079,6.8449e-07,5.143,5.593e-15,2.1726e-06,-6.8449e-07,-5.143,0.6169
13381,11.094,5,0,0.00030705,3068.4,0.00010137,0.45434,0.0001013,-0.034669,-0.00030704,-3068.2,0.61809
13382,11.002,5.0909,0,0.00030967,3094.6,0.00010224,0.58402,0.00010216,-0.024518,-0.00030966,-3094.3,0.60839
13383,11.094,5.0909,0.05,8.9225e-07,8.9163,6.8513e-07,5.1478,-1.4533e-22,2.1785e-06,-6.8513e-07,-5.1478,0.6177
13384,11.094,4.8182,0,0.00030685,3066.4,0.00010132,0.016708,0.00010116,-1.22,-0.00030687,-3067,0.61879
13385,11.002,4.9091,0,0.00030946,3092.4,0.00010218,0.015999,0.00010202,-1.2458,-0.00030948,-3093,0.60912
13386,11.094,4.9091,0.05,8.9282e-07,8.9221,6.8558e-07,5.1511,9.198e-13,1.8375e-06,-6.8558e-07,-5.1512,0.61843
13387,11.094,4.6364,0,0.00030667,3064.6,0.00010134,0.009166,0.00010097,-2.7159,-0.00030672,-3065.9,0.61942
13388,11.002,4.7273,0,0.00030926,3090.4,0.0001022,0.0087247,0.00010181,-2.9064,-0.00030931,-3091.9,0.60979
13389,11.094,4.7273,0.05,8.9333e-07,8.9271,6.8596e-07,5.1541,9.1944e-13,1.1315e-06,-6.8597e-07,-5.1541,0.61909
13390,11.094,4.4545,0,0.00030651,3062.9,0.00010135,0.0071333,0.0001008,-4.088,-0.00030657,-3065,0.61998
13391,11.002,4.5455,0,0.00030908,3088.6,0.00010222,0.0068648,0.00010162,-4.4399,-0.00030915,-3090.8,0.61039
13392,11.094,4.5455,0.05,8.9378e-07,8.9316,6.8631e-07,5.1567,9.1849e-13,2.0206e-06,-6.8631e-07,-5.1567,0.61969
13393,11.094,4.2727,0,0.00030636,3061.5,0.00010136,0.0062144,0.00010065,-5.3227,-0.00030645,-3064.1,0.62048
13394,11.002,4.3636,0,0.00030891,3087,0.00010223,0.0060306,0.00010145,-5.8318,-0.00030901,-3089.9,0.61093
13395,11.094,4.3636,0.05,8.9417e-07,8.9356,6.8661e-07,5.1589,9.2286e-13,1.147e-06,-6.8662e-07,-5.159,0.62022
13396,11.094,4.0909,0,0.00030623,3060.2,0.00010137,0.0057056,0.00010052,-6.4112,-0.00030634,-3063.4,0.62091
13397,11.002,4.1818,0,0.00030877,3085.5,0.00010224,0.0055674,0.0001013,-7.072,-0.00030889,-3089.1,0.61139
13398,11.094,4.1818,0.05,8.9451e-07,8.939,6.8687e-07,5.1609,1.8289e-12,9.3651e-07,-6.8688e-07,-5.1609,0.62068
13399,11.094,3.9091,0,0.00030612,3059.1,0.00010138,0.0053915,0.0001004,-7.3456,-0.00030624,-3062.7,0.62128
13400,11.002,4,0,0.00030864,3084.3,0.00010226,0.0052783,0.00010117,-8.1518,-0.00030878,-3088.4,0.61179
13401,11.094,4,0.05,8.948e-07,8.9418,6.8709e-07,5.1626,9.208e-13,1.326e-06,-6.871e-07,-5.1626,0.62108
13402,11.094,3.7273,0,0.00030603,3058.2,0.00010139,0.0051868,0.00010031,-8.1194,-0.00030616,-3062.2,0.62157
13403,11.002,3.8182,0,0.00030854,3083.2,0.00010227,0.0050857,0.00010106,-9.0637,-0.00030869,-3087.8,0.61213
13404,11.094,3.8182,0.05,8.9504e-07,8.9442,6.8728e-07,5.1639,1.8287e-12,1.3919e-06,-6.8728e-07,-5.164,0.62141
13405,11.094,3.5455,0,0.00030596,3057.5,0.0001014,0.0050517,0.00010024,-8.727,-0.0003061,-3061.8,0.62181
13406,11.002,3.6364,0,0.00030845,3082.4,0.00010227,0.0049549,0.00010097,-9.8012,-0.00030862,-3087.3,0.61239
13407,11.094,3.6364,0.05,8.9523e-07,8.9461,6.8742e-07,5.165,2.7363e-12,2.3848e-06,-6.8742e-07,-5.165,0.62167
13408,11.094,3.3636,0,0.00030591,3056.9,0.0001014,0.0049654,0.00010018,-9.1642,-0.00030606,-3061.5,0.62197
13409,11.002,3.4545,0,0.00030839,3081.7,0.00010228,0.0048676,0.0001009,-10.359,-0.00030856,-3086.9,0.61259
13410,11.094,3.4545,0.05,8.9537e-07,8.9475,6.8753e-07,5.1658,1.8253e-12,2.1301e-06,-6.8753e-07,-5.1659,0.62187
13411,11.094,3.1818,0,0.00030587,3056.6,0.00010141,0.0049166,0.00010015,-9.4278,-0.00030603,-3061.3,0.62207
13412,11.002,3.2727,0,0.00030834,3081.3,0.00010229,0.0048132,0.00010086,-10.733,-0.00030853,-3086.7,0.61273
13413,11.094,3.2727,0.05,8.9546e-07,8.9484,6.876e-07,5.1664,9.1308e-13,1.7559e-06,-6.8761e-07,-5.1664,0.62201
13414,11.094,3,0,0.00030586,3056.5,0.00010141,0.0049008,0.00010014,-9.5159,-0.00030602,-3061.3,0.6221
13415,11.002,3.0909,0,0.00030832,3081.1,0.00010229,0.0047865,0.00010083,-10.921,-0.00030851,-3086.5,0.61279
13416,11.094,3.0909,0.05,8.9551e-07,8.9489,6.8764e-07,5.1666,1.8202e-12,2.0357e-06,-6.8764e-07,-5.1667,0.62207
13417,11.094,2.8182,0,0.00030587,3056.6,0.00010141,0.0049169,0.00010015,-9.4279,-0.00030603,-3061.3,0.62207
13418,11.002,2.9091,0,0.00030832,3081.1,0.00010229,0.0047869,0.00010083,-10.921,-0.00030851,-3086.5,0.61279
13419,11.094,2.9091,0.05,8.9551e-07,8.9489,6.8764e-07,5.1666,1.8178e-12,2.4343e-06,-6.8764e-07,-5.1667,0.62207
13420,11.094,2.6364,0,0.00030591,3056.9,0.0001014,0.0049654,0.00010018,-9.1643,-0.00030606,-3061.5,0.62197
13421,11.002,2.7273,0,0.00030834,3081.3,0.00010229,0.0048132,0.00010086,-10.733,-0.00030853,-3086.7,0.61273
13422,11.094,2.7273,0.05,8.9546e-07,8.9484,6.876e-07,5.1664,2.7247e-12,2.3565e-06,-6.876e-07,-5.1664,0.62201
13423,11.094,2.4545,0,0.00030596,3057.5,0.0001014,0.0050515,0.00010024,-8.727,-0.0003061,-3061.8,0.62181
13424,11.002,2.5455,0,0.00030839,3081.7,0.00010228,0.0048678,0.0001009,-10.359,-0.00030856,-3086.9,0.61259
13425,11.094,2.5455,0.05,8.9537e-07,8.9475,6.8753e-07,5.1658,1.8129e-12,2.0412e-06,-6.8753e-07,-5.1659,0.62187
13426,11.094,2.2727,0,0.00030603,3058.2,0.00010139,0.0051866,0.00010031,-8.1194,-0.00030616,-3062.2,0.62157
13427,11.002,2.3636,0,0.00030845,3082.4,0.00010227,0.0049549,0.00010097,-9.8012,-0.00030862,-3087.3,0.61239
13428,11.094,2.3636,0.05,8.9523e-07,8.9461,6.8742e-07,5.165,2.7205e-12,2.024e-06,-6.8742e-07,-5.165,0.62167
13429,11.094,2.0909,0,0.00030612,3059.1,0.00010138,0.0053916,0.0001004,-7.3456,-0.00030624,-3062.7,0.62128
13430,11.002,2.1818,0,0.00030854,3083.2,0.00010227,0.0050858,0.00010106,-9.0637,-0.00030869,-3087.8,0.61213
13431,11.094,2.1818,0.05,8.9504e-07,8.9442,6.8728e-07,5.1639,1.808e-12,1.5267e-06,-6.8728e-07,-5.164,0.62141
13432,11.094,1.9091,0,0.00030623,3060.2,0.00010137,0.0057059,0.00010052,-6.4112,-0.00030634,-3063.4,0.62091
13433,11.002,2,0,0.00030864,3084.3,0.00010226,0.0052787,0.00010117,-8.1519,-0.00030878,-3088.4,0.61179
13434,11.094,2,0.05,8.948e-07,8.9418,6.8709e-07,5.1626,2.7178e-12,1.4637e-06,-6.871e-07,-5.1626,0.62108
13435,11.094,1.7273,0,0.00030636,3061.5,0.00010136,0.0062146,0.00010065,-5.3228,-0.00030645,-3064.1,0.62048
13436,11.002,1.8182,0,0.00030877,3085.5,0.00010224,0.0055677,0.0001013,-7.072,-0.00030889,-3089.1,0.61139
13437,11.094,1.8182,0.05,8.9451e-07,8.939,6.8687e-07,5.1609,1.8099e-12,1.4773e-06,-6.8688e-07,-5.1609,0.62068
13438,11.094,1.5455,0,0.00030651,3062.9,0.00010135,0.007133,0.0001008,-4.088,-0.00030657,-3065,0.61998
13439,11.002,1.6364,0,0.00030891,3087,0.00010223,0.0060309,0.00010145,-5.8318,-0.00030901,-3089.9,0.61093
13440,11.094,1.6364,0.05,8.9417e-07,8.9356,6.8661e-07,5.1589,8.998e-13,1.4691e-06,-6.8662e-07,-5.159,0.62022
13441,11.094,1.3636,0,0.00030667,3064.6,0.00010134,0.009166,0.00010097,-2.7159,-0.00030672,-3065.9,0.61942
13442,11.002,1.4545,0,0.00030908,3088.6,0.00010222,0.0068652,0.00010162,-4.4399,-0.00030915,-3090.8,0.61039
13443,11.094,1.4545,0.05,8.9378e-07,8.9316,6.8631e-07,5.1567,2.7169e-12,1.1381e-06,-6.8632e-07,-5.1567,0.61969
13444,11.094,1.1818,0,0.00030685,3066.4,0.00010132,0.016708,0.00010116,-1.22,-0.00030687,-3067,0.61879
13445,11.002,1.2727,0,0.00030926,3090.4,0.0001022,0.0087253,0.00010181,-2.9064,-0.00030931,-3091.9,0.60979
13446,11.094,1.2727,0.05,8.9333e-07,8.9271,6.8596e-07,5.1541,8.9832e-13,1.2482e-06,-6.8597e-07,-5.1541,0.61909
13447,11.094,1,0,0.00030705,3068.4,0.00010137,0.45429,0.0001013,-0.034673,-0.00030704,-3068.2,0.61809
13448,11.002,1.0909,0,0.00030946,3092.4,0.00010218,0.015999,0.00010202,-1.2459,-0.00030948,-3093,0.60912
13449,11.094,1.0909,0.05,8.9282e-07,8.9221,6.8558e-07,5.1511,1.8094e-12,1.2803e-06,-6.8558e-07,-5.1512,0.61843
13450,11.094,0.81818,0,0.00030726,3070.5,0.00010158,2.157,0.00010129,-0.0051428,-0.00030723,-3069.4,0.61733
13451,11.002,0.90909,0,0.00030967,3094.6,0.00010224,0.58396,0.00010216,-0.024518,-0.00030966,-3094.3,0.60839
13452,11.094,0.90909,0.05,8.9225e-07,8.9163,6.8514e-07,5.1478,1.8075e-12,1.0052e-06,-6.8513e-07,-5.1478,0.6177
13453,11.094,0.63636,0,0.00030749,3072.8,0.0001018,3.9863,0.00010127,-0.001783,-0.00030742,-3070.8,0.6165
13454,11.002,0.72727,0,0.0003099,3096.9,0.00010247,2.4626,0.00010214,-0.0034418,-0.00030986,-3095.6,0.60759
13455,11.094,0.72727,0.05,8.9141e-07,8.9079,6.8449e-07,5.143,2.727e-12,4.7998e-07,-6.8449e-07,-5.143,0.6169
13456,11.094,0.45455,0,0.00030774,3075.2,0.00010205,5.9418,0.00010126,0.0001664,-0.00030764,-3072.3,0.6156
13457,11.002,0.54545,0,0.00031014,3099.3,0.00010272,4.4615,0.00010213,-0.0010158,-0.00031007,-3097.1,0.60672
13458,11.094,0.54545,0.05,8.8739e-07,8.8678,6.8141e-07,5.1198,2.7275e-12,-3.144e-07,-6.8141e-07,-5.1199,0.61604
13459,11.094,0.27273,0,0.00030809,3078.8,0.00010239,8.5896,0.00010124,-0.0011663,-0.00030794,-3074.5,0.61464
13460,11.002,0.36364,0,0.00031041,3102,0.00010299,6.6198,0.00010211,0.0020863,-0.0003103,-3098.7,0.60578
13461,11.094,0.36364,0.05,8.355e-07,8.3492,6.4156e-07,4.8204,9.0319e-13,2.0159e-07,-6.4156e-07,-4.8205,0.61511
13462,11.002,0.18182,0,0.00031088,3106.6,0.00010343,10.062,0.00010209,-0.0044382,-0.0003107,-3101.6,0.60477
13463,11.094,0.18182,0.05,5.0217e-08,0.50183,3.8557e-08,0.28968,1.2289e-12,-1.2327e-06,-3.8564e-08,-0.28977,0.61411
13464,11.094,0.090909,0,0.00030782,3076.1,0.00010217,7.0697,0.00010123,-0.0014942,-0.0003077,-3072.5,0.61361
13465,10.909,5.7273,0,0.00031319,3129.7,0.00010402,8.0031,0.00010296,-0.0007263,-0.00031305,-3125.7,0.59598
13466,10.817,5.8182,0,0.00031599,3157.8,0.00010508,9.579,0.0001038,-0.0053191,-0.00031583,-3153,0.58622
13467,10.909,5.8182,0.05,5.6839e-08,0.568,4.3644e-08,0.32794,7.4066e-13,2.1686e-06,-4.3647e-08,-0.32794,0.59545
13468,10.909,5.9091,0,0.00031295,3127.3,0.00010384,6.7877,0.00010294,-0.0014446,-0.00031283,-3123.9,0.59494
13469,10.909,5.5455,0,0.00031282,3126,0.00010366,5.1149,0.00010298,0.0011595,-0.00031273,-3123.5,0.59696
13470,10.817,5.6364,0,0.00031551,3153,0.00010461,5.8974,0.00010383,0.0036163,-0.00031541,-3150,0.58724
13471,10.909,5.6364,0.05,8.3981e-07,8.3923,6.4487e-07,4.8453,9.3223e-13,2.6402e-06,-6.4487e-07,-4.8453,0.59646
13472,10.909,5.3636,0,0.00031255,3123.4,0.00010339,2.9161,0.000103,-0.0019742,-0.0003125,-3121.9,0.59787
13473,10.817,5.4545,0,0.00031523,3150.1,0.00010432,3.4843,0.00010385,-0.00071796,-0.00031517,-3148.3,0.58819
13474,10.909,5.4545,0.05,8.9163e-07,8.9102,6.8466e-07,5.1443,2.7332e-12,3.2587e-06,-6.8467e-07,-5.1443,0.5974
13475,10.909,5.1818,0,0.0003123,3120.9,0.00010313,0.86042,0.00010302,-0.014008,-0.00031229,-3120.5,0.59871
13476,10.817,5.2727,0,0.00031496,3147.4,0.00010404,1.2423,0.00010387,-0.0071044,-0.00031494,-3146.8,0.58907
13477,10.909,5.2727,0.05,8.9568e-07,8.9506,6.8777e-07,5.1676,5.4624e-15,2.0524e-06,-6.8778e-07,-5.1677,0.59828
13478,10.909,5,0,0.00031207,3118.6,0.00010304,0.016589,0.00010289,-1.1264,-0.00031209,-3119.1,0.59949
13479,10.817,5.0909,0,0.00031471,3144.9,0.0001039,0.01814,0.00010378,-0.9195,-0.00031473,-3145.4,0.58988
13480,10.909,5.0909,0.05,8.9655e-07,8.9593,6.8844e-07,5.1727,6.346e-15,2.0502e-06,-6.8844e-07,-5.1727,0.59908
13481,10.909,4.8182,0,0.00031186,3116.4,0.00010306,0.0084908,0.00010267,-2.952,-0.00031191,-3117.9,0.60019
13482,10.817,4.9091,0,0.00031448,3142.6,0.00010392,0.0082588,0.00010353,-2.9231,-0.00031453,-3144.1,0.59063
13483,10.909,4.9091,0.05,8.9716e-07,8.9654,6.8891e-07,5.1762,1.8318e-12,1.8095e-06,-6.8891e-07,-5.1762,0.59982
13484,10.909,4.6364,0,0.00031166,3114.5,0.00010308,0.0066752,0.00010246,-4.6495,-0.00031174,-3116.8,0.60083
13485,10.817,4.7273,0,0.00031426,3140.5,0.00010394,0.0064747,0.00010331,-4.7989,-0.00031434,-3142.9,0.5913
13486,10.909,4.7273,0.05,8.9769e-07,8.9708,6.8932e-07,5.1793,9.2616e-13,1.0666e-06,-6.8932e-07,-5.1793,0.6005
13487,10.909,4.4545,0,0.00031148,3112.7,0.0001031,0.0058886,0.00010227,-6.2023,-0.00031159,-3115.8,0.6014
13488,10.817,4.5455,0,0.00031407,3138.5,0.00010397,0.0057381,0.0001031,-6.5272,-0.00031418,-3141.7,0.59191
13489,10.909,4.5455,0.05,8.9817e-07,8.9755,6.8968e-07,5.182,1.8306e-12,1.9476e-06,-6.8968e-07,-5.182,0.6011
13490,10.909,4.2727,0,0.00031132,3111.1,0.00010311,0.0054529,0.0001021,-7.5993,-0.00031145,-3114.8,0.60191
13491,10.817,4.3636,0,0.00031389,3136.7,0.00010398,0.0053313,0.00010291,-8.0956,-0.00031402,-3140.7,0.59246
13492,10.909,4.3636,0.05,8.9858e-07,8.9796,6.9e-07,5.1844,1.8361e-12,1.0352e-06,-6.9e-07,-5.1844,0.60164
13493,10.909,4.0909,0,0.00031118,3109.6,0.00010313,0.0051794,0.00010195,-8.8306,-0.00031133,-3114,0.60234
13494,10.817,4.1818,0,0.00031373,3135.1,0.000104,0.005074,0.00010274,-9.493,-0.00031389,-3139.9,0.59293
13495,10.909,4.1818,0.05,8.9894e-07,8.9832,6.9027e-07,5.1865,1.833e-12,9.3972e-07,-6.9028e-07,-5.1865,0.60211
13496,10.909,3.9091,0,0.00031106,3108.4,0.00010314,0.0049945,0.00010182,-9.8876,-0.00031123,-3113.4,0.60271
13497,10.817,4,0,0.00031359,3133.8,0.00010402,0.004897,0.00010259,-10.71,-0.00031377,-3139.1,0.59333
13498,10.909,4,0.05,8.9925e-07,8.9863,6.9051e-07,5.1882,3.6517e-12,1.0679e-06,-6.9051e-07,-5.1882,0.60251
13499,10.909,3.7273,0,0.00031096,3107.4,0.00010315,0.0048652,0.00010172,-10.763,-0.00031114,-3112.8,0.60302
13500,10.817,3.8182,0,0.00031348,3132.6,0.00010403,0.0047695,0.00010247,-11.737,-0.00031368,-3138.5,0.59367
13501,10.909,3.8182,0.05,8.995e-07,8.9888,6.907e-07,5.1897,1.8307e-12,1.4129e-06,-6.9071e-07,-5.1897,0.60285
13502,10.909,3.5455,0,0.00031088,3106.7,0.00010316,0.0047755,0.00010163,-11.45,-0.00031107,-3112.4,0.60325
13503,10.817,3.6364,0,0.00031338,3131.7,0.00010404,0.004677,0.00010237,-12.568,-0.0003136,-3137.9,0.59394
13504,10.909,3.6364,0.05,8.997e-07,8.9908,6.9085e-07,5.1908,9.1895e-13,2.1061e-06,-6.9086e-07,-5.1908,0.60312
13505,10.909,3.3636,0,0.00031082,3106.1,0.00010316,0.004716,0.00010157,-11.945,-0.00031103,-3112.1,0.60342
13506,10.817,3.4545,0,0.00031331,3131,0.00010405,0.0046135,0.00010229,-13.197,-0.00031354,-3137.6,0.59415
13507,10.909,3.4545,0.05,8.9984e-07,8.9922,6.9097e-07,5.1916,1.8269e-12,1.9625e-06,-6.9097e-07,-5.1917,0.60332
13508,10.909,3.1818,0,0.00031079,3105.8,0.00010317,0.0046814,0.00010154,-12.243,-0.000311,-3111.9,0.60352
13509,10.817,3.2727,0,0.00031327,3130.5,0.00010405,0.0045722,0.00010224,-13.619,-0.0003135,-3137.3,0.59428
13510,10.909,3.2727,0.05,8.9994e-07,8.9932,6.9105e-07,5.1922,3.6429e-12,1.5846e-06,-6.9104e-07,-5.1923,0.60345
13511,10.909,3,0,0.00031078,3105.7,0.00010317,0.0046702,0.00010153,-12.343,-0.00031099,-3111.8,0.60355
13512,10.817,3.0909,0,0.00031324,3130.3,0.00010406,0.0045514,0.00010221,-13.83,-0.00031348,-3137.2,0.59435
13513,10.909,3.0909,0.05,8.9999e-07,8.9937,6.9108e-07,5.1925,9.1105e-13,2.0385e-06,-6.9109e-07,-5.1925,0.60352
13514,10.909,2.8182,0,0.00031079,3105.8,0.00010317,0.0046815,0.00010154,-12.243,-0.000311,-3111.9,0.60352
13515,10.817,2.9091,0,0.00031324,3130.3,0.00010406,0.0045516,0.00010221,-13.83,-0.00031348,-3137.2,0.59435
13516,10.909,2.9091,0.05,8.9999e-07,8.9937,6.9108e-07,5.1925,9.0791e-13,2.4914e-06,-6.9109e-07,-5.1925,0.60352
13517,10.909,2.6364,0,0.00031082,3106.1,0.00010316,0.0047161,0.00010157,-11.945,-0.00031103,-3112.1,0.60342
13518,10.817,2.7273,0,0.00031327,3130.5,0.00010405,0.0045721,0.00010224,-13.619,-0.0003135,-3137.3,0.59428
13519,10.909,2.7273,0.05,8.9994e-07,8.9932,6.9105e-07,5.1922,3.6333e-12,2.3482e-06,-6.9104e-07,-5.1923,0.60345
13520,10.909,2.4545,0,0.00031088,3106.7,0.00010316,0.0047758,0.00010163,-11.45,-0.00031107,-3112.4,0.60325
13521,10.817,2.5455,0,0.00031331,3131,0.00010405,0.0046138,0.00010229,-13.197,-0.00031354,-3137.6,0.59415
13522,10.909,2.5455,0.05,8.9984e-07,8.9922,6.9097e-07,5.1916,1.8116e-12,1.9694e-06,-6.9097e-07,-5.1917,0.60332
13523,10.909,2.2727,0,0.00031096,3107.4,0.00010315,0.0048653,0.00010172,-10.763,-0.00031114,-3112.8,0.60302
13524,10.817,2.3636,0,0.00031338,3131.7,0.00010404,0.0046776,0.00010237,-12.568,-0.0003136,-3137.9,0.59394
13525,10.909,2.3636,0.05,8.997e-07,8.9908,6.9085e-07,5.1908,2.7175e-12,1.9541e-06,-6.9086e-07,-5.1908,0.60312
13526,10.909,2.0909,0,0.00031106,3108.4,0.00010314,0.0049949,0.00010182,-9.8876,-0.00031123,-3113.4,0.60271
13527,10.817,2.1818,0,0.00031348,3132.6,0.00010403,0.0047697,0.00010247,-11.737,-0.00031368,-3138.5,0.59367
13528,10.909,2.1818,0.05,8.995e-07,8.9888,6.907e-07,5.1896,1.806e-12,1.5687e-06,-6.907e-07,-5.1897,0.60285
13529,10.909,1.9091,0,0.00031118,3109.6,0.00010313,0.0051799,0.00010195,-8.8306,-0.00031133,-3114,0.60234
13530,10.817,2,0,0.00031359,3133.8,0.00010402,0.0048976,0.00010259,-10.71,-0.00031377,-3139.1,0.59333
13531,10.909,2,0.05,8.9925e-07,8.9863,6.9051e-07,5.1882,2.7139e-12,1.3821e-06,-6.9051e-07,-5.1882,0.60251
13532,10.909,1.7273,0,0.00031132,3111.1,0.00010311,0.0054534,0.0001021,-7.5993,-0.00031145,-3114.8,0.60191
13533,10.817,1.8182,0,0.00031373,3135.1,0.000104,0.0050743,0.00010274,-9.4931,-0.00031389,-3139.9,0.59293
13534,10.909,1.8182,0.05,8.9894e-07,8.9832,6.9027e-07,5.1865,8.9442e-13,1.4957e-06,-6.9028e-07,-5.1865,0.60211
13535,10.909,1.5455,0,0.00031148,3112.7,0.0001031,0.0058895,0.00010227,-6.2024,-0.00031159,-3115.8,0.6014
13536,10.817,1.6364,0,0.00031389,3136.7,0.00010398,0.0053316,0.00010291,-8.0956,-0.00031402,-3140.7,0.59246
13537,10.909,1.6364,0.05,8.9858e-07,8.9796,6.9e-07,5.1844,1.8042e-12,1.274e-06,-6.9e-07,-5.1844,0.60164
13538,10.909,1.3636,0,0.00031166,3114.5,0.00010308,0.0066762,0.00010246,-4.6496,-0.00031174,-3116.8,0.60083
13539,10.817,1.4545,0,0.00031407,3138.5,0.00010397,0.0057389,0.0001031,-6.5272,-0.00031418,-3141.7,0.59191
13540,10.909,1.4545,0.05,8.9817e-07,8.9755,6.8968e-07,5.182,1.8007e-12,1.1666e-06,-6.8969e-07,-5.182,0.6011
13541,10.909,1.1818,0,0.00031186,3116.4,0.00010306,0.0084916,0.00010267,-2.9521,-0.00031191,-3117.9,0.60019
13542,10.817,1.2727,0,0.00031426,3140.5,0.00010394,0.0064754,0.00010331,-4.799,-0.00031434,-3142.9,0.5913
13543,10.909,1.2727,0.05,8.9769e-07,8.9708,6.8932e-07,5.1792,3.6229e-12,1.1844e-06,-6.8932e-07,-5.1793,0.6005
13544,10.909,1,0,0.00031207,3118.6,0.00010304,0.016589,0.00010289,-1.1265,-0.00031209,-3119.1,0.59949
13545,10.817,1.0909,0,0.00031448,3142.6,0.00010392,0.0082596,0.00010353,-2.9232,-0.00031453,-3144.1,0.59063
13546,10.909,1.0909,0.05,8.9716e-07,8.9654,6.8891e-07,5.1762,2.7128e-12,1.1181e-06,-6.8891e-07,-5.1762,0.59982
13547,10.909,0.81818,0,0.0003123,3120.9,0.00010313,0.86037,0.00010302,-0.014007,-0.00031229,-3120.5,0.59871
13548,10.817,0.90909,0,0.00031471,3144.9,0.0001039,0.018141,0.00010378,-0.91956,-0.00031473,-3145.4,0.58988
13549,10.909,0.90909,0.05,8.9655e-07,8.9593,6.8844e-07,5.1726,2.7032e-12,7.8589e-07,-6.8844e-07,-5.1727,0.59908
13550,10.909,0.63636,0,0.00031255,3123.4,0.00010339,2.916,0.000103,-0.0019735,-0.0003125,-3121.9,0.59787
13551,10.817,0.72727,0,0.00031496,3147.4,0.00010404,1.2422,0.00010387,-0.0071037,-0.00031494,-3146.8,0.58907
13552,10.909,0.72727,0.05,8.9568e-07,8.9506,6.8776e-07,5.1676,8.9804e-13,6.1647e-07,-6.8778e-07,-5.1677,0.59828
13553,10.909,0.45455,0,0.00031282,3126,0.00010366,5.1148,0.00010298,0.00116,-0.00031273,-3123.5,0.59696
13554,10.817,0.54545,0,0.00031523,3150.1,0.00010432,3.4843,0.00010385,-0.00071835,-0.00031517,-3148.3,0.58819
13555,10.909,0.54545,0.05,8.9163e-07,8.9102,6.8466e-07,5.1442,2.7175e-12,-3.1894e-07,-6.8467e-07,-5.1443,0.5974
13556,10.909,0.27273,0,0.00031319,3129.7,0.00010402,8.0031,0.00010296,-0.00072502,-0.00031305,-3125.7,0.59598
13557,10.817,0.36364,0,0.00031551,3153,0.00010461,5.8974,0.00010383,0.0036161,-0.00031541,-3150,0.58724
13558,10.909,0.36364,0.05,8.3981e-07,8.3923,6.4487e-07,4.8452,1.8174e-12,6.8782e-07,-6.4487e-07,-4.8454,0.59646
13559,10.817,0.18182,0,0.00031599,3157.8,0.00010508,9.579,0.0001038,-0.0053178,-0.00031583,-3153,0.58622
13560,10.909,0.18182,0.05,5.6841e-08,0.56801,4.3643e-08,0.32791,1.7908e-12,-1.8387e-06,-4.365e-08,-0.32797,0.59545
13561,10.909,0.090909,0,0.00031295,3127.3,0.00010384,6.7877,0.00010294,-0.0014434,-0.00031283,-3123.9,0.59494
13562,10.725,5.7273,0,0.00031831,3180.9,0.00010566,7.3854,0.00010468,-0.00036294,-0.00031818,-3177.2,0.57754
13563,10.632,5.8182,0,0.00032113,3209.1,0.00010673,9.0704,0.00010552,-0.006403,-0.00032098,-3204.6,0.56787
13564,10.725,5.8182,0.05,6.4369e-08,0.64324,4.9428e-08,0.37138,-5.1388e-23,2.0397e-06,-4.9427e-08,-0.37138,0.57699
13565,10.725,5.9091,0,0.0003181,3178.8,0.00010551,6.4915,0.00010465,-0.0014774,-0.00031799,-3175.5,0.57648
13566,10.725,5.5455,0,0.00031792,3177,0.00010527,4.2425,0.0001047,0.0022109,-0.00031785,-3174.9,0.57853
13567,10.632,5.6364,0,0.00032064,3204.1,0.00010624,5.1348,0.00010556,0.0052423,-0.00032055,-3201.6,0.56891
13568,10.725,5.6364,0.05,8.4428e-07,8.4369,6.483e-07,4.8711,9.8122e-15,2.5845e-06,-6.483e-07,-4.8711,0.57802
13569,10.725,5.3636,0,0.00031763,3174.1,0.00010497,1.787,0.00010473,-0.0029578,-0.0003176,-3173.2,0.57945
13570,10.632,5.4545,0,0.00032032,3201,0.00010591,2.4517,0.00010559,-0.00054763,-0.00032028,-3199.8,0.56987
13571,10.725,5.4545,0.05,8.9599e-07,8.9537,6.8801e-07,5.1694,9.1692e-13,3.2694e-06,-6.8801e-07,-5.1694,0.57898
13572,10.725,5.1818,0,0.00031736,3171.5,0.00010476,0.024987,0.00010468,-0.5575,-0.00031737,-3171.7,0.58031
13573,10.632,5.2727,0,0.00032004,3198.2,0.00010563,0.07602,0.0001056,-0.13533,-0.00032004,-3198.2,0.57076
13574,10.725,5.2727,0.05,9.0007e-07,8.9945,6.9114e-07,5.1929,9.2611e-13,2.0067e-06,-6.9114e-07,-5.193,0.57987
13575,10.725,5,0,0.00031711,3168.9,0.00010478,0.0081854,0.00010442,-2.734,-0.00031716,-3170.3,0.58109
13576,10.632,5.0909,0,0.00031977,3195.5,0.00010565,0.0081204,0.00010532,-2.4551,-0.00031981,-3196.7,0.57159
13577,10.725,5.0909,0.05,9.0098e-07,9.0036,6.9184e-07,5.1982,2.7336e-12,2.1534e-06,-6.9184e-07,-5.1982,0.58068
13578,10.725,4.8182,0,0.00031688,3166.6,0.00010481,0.0063413,0.00010417,-4.789,-0.00031696,-3169,0.58181
13579,10.632,4.9091,0,0.00031952,3193,0.00010567,0.0061922,0.00010505,-4.7044,-0.0003196,-3195.3,0.57235
13580,10.725,4.9091,0.05,9.0162e-07,9.01,6.9233e-07,5.2019,7.3858e-15,1.5651e-06,-6.9233e-07,-5.2019,0.58144
13581,10.725,4.6364,0,0.00031667,3164.5,0.00010483,0.0056208,0.00010394,-6.6951,-0.00031678,-3167.8,0.58246
13582,10.632,4.7273,0,0.00031928,3190.6,0.0001057,0.0054941,0.00010479,-6.8038,-0.0003194,-3194,0.57303
13583,10.725,4.7273,0.05,9.0218e-07,9.0156,6.9276e-07,5.2051,9.2576e-13,1.0472e-06,-6.9276e-07,-5.2052,0.58212
13584,10.725,4.4545,0,0.00031647,3162.5,0.00010485,0.0052337,0.00010373,-8.4385,-0.00031661,-3166.7,0.58304
13585,10.632,4.5455,0,0.00031907,3188.5,0.00010573,0.0051313,0.00010456,-8.738,-0.00031922,-3192.8,0.57365
13586,10.725,4.5455,0.05,9.0268e-07,9.0206,6.9315e-07,5.208,1.8329e-12,1.8813e-06,-6.9315e-07,-5.2081,0.58273
13587,10.725,4.2727,0,0.00031629,3160.8,0.00010487,0.0049856,0.00010354,-10.007,-0.00031646,-3165.8,0.58355
13588,10.632,4.3636,0,0.00031887,3186.5,0.00010575,0.0048942,0.00010435,-10.493,-0.00031905,-3191.8,0.5742
13589,10.725,4.3636,0.05,9.0312e-07,9.025,6.9348e-07,5.2106,1.8389e-12,1.0721e-06,-6.9348e-07,-5.2106,0.58328
13590,10.725,4.0909,0,0.00031614,3159.2,0.00010489,0.0048123,0.00010337,-11.39,-0.00031633,-3164.9,0.58399
13591,10.632,4.1818,0,0.0003187,3184.8,0.00010577,0.0047251,0.00010416,-12.058,-0.00031891,-3190.8,0.57468
13592,10.725,4.1818,0.05,9.035e-07,9.0287,6.9377e-07,5.2127,9.2197e-13,7.286e-07,-6.9377e-07,-5.2127,0.58375
13593,10.725,3.9091,0,0.00031601,3157.9,0.00010491,0.0046844,0.00010323,-12.577,-0.00031622,-3164.2,0.58436
13594,10.632,4,0,0.00031855,3183.3,0.00010579,0.0045966,0.000104,-13.42,-0.00031878,-3190,0.57509
13595,10.725,4,0.05,9.0382e-07,9.0319,6.9402e-07,5.2146,1.8361e-12,1.0759e-06,-6.9402e-07,-5.2146,0.58416
13596,10.725,3.7273,0,0.0003159,3156.8,0.00010492,0.0045882,0.00010311,-13.56,-0.00031613,-3163.6,0.58467
13597,10.632,3.8182,0,0.00031843,3182.1,0.0001058,0.0044967,0.00010386,-14.571,-0.00031867,-3189.3,0.57543
13598,10.725,3.8182,0.05,9.0408e-07,9.0345,6.9422e-07,5.2161,9.2245e-13,1.6621e-06,-6.9422e-07,-5.2161,0.5845
13599,10.725,3.5455,0,0.00031582,3156,0.00010493,0.0045184,0.00010302,-14.332,-0.00031606,-3163.1,0.58491
13600,10.632,3.6364,0,0.00031833,3181.1,0.00010582,0.0044199,0.00010375,-15.501,-0.00031859,-3188.8,0.57571
13601,10.725,3.6364,0.05,9.0429e-07,9.0366,6.9438e-07,5.2173,1.3638e-14,1.8852e-06,-6.9438e-07,-5.2173,0.58477
13602,10.725,3.3636,0,0.00031575,3155.4,0.00010494,0.0044707,0.00010295,-14.887,-0.00031601,-3162.8,0.58508
13603,10.632,3.4545,0,0.00031825,3180.3,0.00010582,0.0043654,0.00010367,-16.205,-0.00031852,-3188.4,0.57591
13604,10.725,3.4545,0.05,9.0444e-07,9.0382,6.945e-07,5.2182,1.8277e-12,1.9752e-06,-6.945e-07,-5.2182,0.58498
13605,10.725,3.1818,0,0.00031572,3155,0.00010494,0.004442,0.00010291,-15.222,-0.00031597,-3162.6,0.58518
13606,10.632,3.2727,0,0.0003182,3179.8,0.00010583,0.0043278,0.00010361,-16.677,-0.00031848,-3188.1,0.57605
13607,10.725,3.2727,0.05,9.0454e-07,9.0392,6.9458e-07,5.2188,1.8245e-12,1.7082e-06,-6.9458e-07,-5.2188,0.58512
13608,10.725,3,0,0.00031571,3154.9,0.00010494,0.0044322,0.0001029,-15.334,-0.00031596,-3162.5,0.58522
13609,10.632,3.0909,0,0.00031817,3179.5,0.00010583,0.0043096,0.00010358,-16.914,-0.00031846,-3188,0.57612
13610,10.725,3.0909,0.05,9.046e-07,9.0397,6.9462e-07,5.219,1.8321e-15,2.1594e-06,-6.9462e-07,-5.2191,0.58518
13611,10.725,2.8182,0,0.00031572,3155,0.00010494,0.0044419,0.00010291,-15.222,-0.00031597,-3162.6,0.58518
13612,10.632,2.9091,0,0.00031817,3179.5,0.00010583,0.00431,0.00010358,-16.914,-0.00031846,-3188,0.57612
13613,10.725,2.9091,0.05,9.046e-07,9.0397,6.9462e-07,5.219,9.0768e-13,2.4898e-06,-6.9462e-07,-5.2191,0.58518
13614,10.725,2.6364,0,0.00031575,3155.4,0.00010494,0.0044708,0.00010295,-14.887,-0.00031601,-3162.8,0.58508
13615,10.632,2.7273,0,0.0003182,3179.8,0.00010583,0.0043281,0.00010361,-16.677,-0.00031848,-3188.1,0.57605
13616,10.725,2.7273,0.05,9.0454e-07,9.0392,6.9458e-07,5.2188,2.723e-12,1.8648e-06,-6.9458e-07,-5.2188,0.58512
13617,10.725,2.4545,0,0.00031582,3156,0.00010493,0.004519,0.00010302,-14.332,-0.00031606,-3163.1,0.58491
13618,10.632,2.5455,0,0.00031825,3180.3,0.00010582,0.0043655,0.00010367,-16.205,-0.00031852,-3188.4,0.57591
13619,10.725,2.5455,0.05,9.0444e-07,9.0382,6.945e-07,5.2182,9.0067e-13,1.7253e-06,-6.945e-07,-5.2182,0.58498
13620,10.725,2.2727,0,0.0003159,3156.8,0.00010492,0.004589,0.00010311,-13.56,-0.00031613,-3163.6,0.58467
13621,10.632,2.3636,0,0.00031833,3181.1,0.00010582,0.0044204,0.00010375,-15.501,-0.00031859,-3188.8,0.57571
13622,10.725,2.3636,0.05,9.0429e-07,9.0366,6.9438e-07,5.2173,8.9829e-13,1.829e-06,-6.9438e-07,-5.2173,0.58477
13623,10.725,2.0909,0,0.00031601,3157.9,0.00010491,0.0046849,0.00010323,-12.577,-0.00031622,-3164.2,0.58436
13624,10.632,2.1818,0,0.00031843,3182.1,0.0001058,0.0044968,0.00010386,-14.571,-0.00031867,-3189.3,0.57543
13625,10.725,2.1818,0.05,9.0408e-07,9.0345,6.9422e-07,5.2161,8.9372e-13,1.5469e-06,-6.9422e-07,-5.2161,0.5845
13626,10.725,1.9091,0,0.00031614,3159.2,0.00010489,0.0048127,0.00010337,-11.39,-0.00031633,-3164.9,0.58399
13627,10.632,2,0,0.00031855,3183.3,0.00010579,0.0045972,0.000104,-13.42,-0.00031878,-3190,0.57509
13628,10.725,2,0.05,9.0382e-07,9.0319,6.9402e-07,5.2145,1.8003e-12,1.3061e-06,-6.9402e-07,-5.2146,0.58416
13629,10.725,1.7273,0,0.00031629,3160.8,0.00010487,0.0049857,0.00010354,-10.007,-0.00031646,-3165.8,0.58355
13630,10.632,1.8182,0,0.0003187,3184.8,0.00010577,0.0047253,0.00010416,-12.058,-0.00031891,-3190.8,0.57468
13631,10.725,1.8182,0.05,9.035e-07,9.0287,6.9377e-07,5.2127,1.7965e-12,1.2917e-06,-6.9377e-07,-5.2128,0.58375
13632,10.725,1.5455,0,0.00031647,3162.5,0.00010485,0.0052339,0.00010373,-8.4385,-0.00031661,-3166.7,0.58304
13633,10.632,1.6364,0,0.00031887,3186.5,0.00010575,0.0048945,0.00010435,-10.493,-0.00031905,-3191.8,0.5742
13634,10.725,1.6364,0.05,9.0312e-07,9.025,6.9348e-07,5.2105,2.7093e-12,1.1849e-06,-6.9348e-07,-5.2106,0.58328
13635,10.725,1.3636,0,0.00031667,3164.5,0.00010483,0.0056212,0.00010394,-6.6951,-0.00031678,-3167.8,0.58246
13636,10.632,1.4545,0,0.00031907,3188.5,0.00010573,0.0051319,0.00010456,-8.738,-0.00031922,-3192.8,0.57365
13637,10.725,1.4545,0.05,9.0268e-07,9.0206,6.9315e-07,5.208,1.7981e-12,1.274e-06,-6.9315e-07,-5.2081,0.58273
13638,10.725,1.1818,0,0.00031688,3166.6,0.00010481,0.0063419,0.00010417,-4.789,-0.00031696,-3169,0.58181
13639,10.632,1.2727,0,0.00031928,3190.6,0.0001057,0.0054947,0.00010479,-6.8038,-0.0003194,-3194,0.57303
13640,10.725,1.2727,0.05,9.0218e-07,9.0156,6.9276e-07,5.2051,1.8048e-12,1.0672e-06,-6.9276e-07,-5.2052,0.58212
13641,10.725,1,0,0.00031711,3168.9,0.00010478,0.008187,0.00010442,-2.734,-0.00031716,-3170.3,0.58109
13642,10.632,1.0909,0,0.00031952,3193,0.00010567,0.0061926,0.00010505,-4.7044,-0.0003196,-3195.3,0.57235
13643,10.725,1.0909,0.05,9.0162e-07,9.01,6.9233e-07,5.2019,8.9037e-13,1.263e-06,-6.9233e-07,-5.2019,0.58144
13644,10.725,0.81818,0,0.00031736,3171.5,0.00010476,0.024987,0.00010468,-0.55756,-0.00031737,-3171.7,0.58031
13645,10.632,0.90909,0,0.00031977,3195.5,0.00010565,0.0081222,0.00010532,-2.4551,-0.00031981,-3196.7,0.57159
13646,10.725,0.90909,0.05,9.0098e-07,9.0036,6.9184e-07,5.1982,2.705e-12,7.5567e-07,-6.9184e-07,-5.1982,0.58068
13647,10.725,0.63636,0,0.00031763,3174.1,0.00010497,1.7869,0.00010473,-0.002958,-0.0003176,-3173.2,0.57945
13648,10.632,0.72727,0,0.00032004,3198.2,0.00010563,0.076002,0.0001056,-0.13537,-0.00032004,-3198.2,0.57076
13649,10.725,0.72727,0.05,9.0007e-07,8.9945,6.9114e-07,5.1929,1.786e-12,5.7054e-07,-6.9115e-07,-5.193,0.57987
13650,10.725,0.45455,0,0.00031792,3177,0.00010527,4.2424,0.0001047,0.0022109,-0.00031785,-3174.9,0.57853
13651,10.632,0.54545,0,0.00032032,3201,0.00010591,2.4517,0.00010559,-0.0005476,-0.00032028,-3199.8,0.56987
13652,10.725,0.54545,0.05,8.9599e-07,8.9537,6.8801e-07,5.1694,1.8136e-12,8.8921e-09,-6.8801e-07,-5.1695,0.57898
13653,10.725,0.27273,0,0.00031831,3180.9,0.00010566,7.3853,0.00010468,-0.00036187,-0.00031818,-3177.2,0.57754
13654,10.632,0.36364,0,0.00032064,3204.1,0.00010624,5.1347,0.00010556,0.0052431,-0.00032055,-3201.6,0.56891
13655,10.725,0.36364,0.05,8.4428e-07,8.4369,6.483e-07,4.871,1.8181e-12,8.4661e-07,-6.483e-07,-4.8711,0.57802
13656,10.632,0.18182,0,0.00032113,3209.1,0.00010673,9.0703,0.00010552,-0.0064022,-0.00032098,-3204.6,0.56787
13657,10.725,0.18182,0.05,6.437e-08,0.64325,4.9427e-08,0.37133,1.915e-12,-8.0641e-06,-4.943e-08,-0.37144,0.57699
13658,10.725,0.090909,0,0.0003181,3178.8,0.00010551,6.4914,0.00010465,-0.0014764,-0.00031799,-3175.5,0.57648
13659,10.54,5.7273,0,0.00032345,3232.2,0.0001073,6.7334,0.0001064,-0.00012425,-0.00032333,-3228.9,0.55931
13660,10.447,5.8182,0,0.00032629,3260.7,0.00010839,8.5344,0.00010725,-0.0077562,-0.00032615,-3256.4,0.54975
13661,10.54,5.8182,0.05,7.282e-08,0.7277,5.5915e-08,0.42014,-3.6045e-13,1.7184e-06,-5.5919e-08,-0.42014,0.55876
13662,10.54,5.9091,0,0.00032327,3230.5,0.0001072,6.1799,0.00010637,-0.0016231,-0.00032317,-3227.4,0.55824
13663,10.54,5.5455,0,0.00032304,3228.2,0.00010688,3.3197,0.00010644,0.0033268,-0.00032298,-3226.5,0.56032
13664,10.447,5.6364,0,0.00032578,3255.5,0.00010787,4.3279,0.00010729,0.006917,-0.0003257,-3253.3,0.5508
13665,10.54,5.6364,0.05,8.4891e-07,8.4832,6.5186e-07,4.8978,1.8177e-12,2.1921e-06,-6.5186e-07,-4.8978,0.5598
13666,10.54,5.3636,0,0.00032273,3225.1,0.00010655,0.59745,0.00010647,-0.0098381,-0.00032272,-3224.8,0.56125
13667,10.447,5.4545,0,0.00032544,3252.2,0.00010751,1.3582,0.00010733,-0.00090759,-0.00032542,-3251.5,0.55177
13668,10.54,5.4545,0.05,9.0047e-07,8.9985,6.9145e-07,5.1953,9.2717e-13,2.8975e-06,-6.9146e-07,-5.1953,0.56077
13669,10.54,5.1818,0,0.00032244,3222.2,0.00010651,0.0084523,0.00010624,-2.0016,-0.00032247,-3223.2,0.56212
13670,10.447,5.2727,0,0.00032513,3249.1,0.00010737,0.0090829,0.00010717,-1.441,-0.00032516,-3249.8,0.55268
13671,10.54,5.2727,0.05,9.0459e-07,9.0396,6.9461e-07,5.219,2.0216e-14,1.9678e-06,-6.9461e-07,-5.2191,0.56167
13672,10.54,5,0,0.00032217,3219.5,0.00010654,0.0060734,0.00010594,-4.4443,-0.00032224,-3221.7,0.56292
13673,10.447,5.0909,0,0.00032484,3246.2,0.0001074,0.0059308,0.00010686,-4.0926,-0.00032491,-3248.2,0.55352
13674,10.54,5.0909,0.05,9.0553e-07,9.0491,6.9533e-07,5.2245,-2.096e-15,1.9244e-06,-6.9534e-07,-5.2245,0.5625
13675,10.54,4.8182,0,0.00032192,3216.9,0.00010657,0.005407,0.00010567,-6.7376,-0.00032203,-3220.3,0.56364
13676,10.447,4.9091,0,0.00032457,3243.5,0.00010743,0.0053145,0.00010656,-6.5962,-0.00032468,-3246.7,0.55428
13677,10.54,4.9091,0.05,9.0621e-07,9.0558,6.9586e-07,5.2284,1.5708e-14,1.561e-06,-6.9585e-07,-5.2284,0.56326
13678,10.54,4.6364,0,0.00032168,3214.6,0.00010659,0.0050514,0.00010541,-8.8646,-0.00032183,-3219,0.5643
13679,10.447,4.7273,0,0.00032432,3240.9,0.00010747,0.0049714,0.00010628,-8.9328,-0.00032447,-3245.4,0.55498
13680,10.54,4.7273,0.05,9.068e-07,9.0617,6.9631e-07,5.2318,9.2714e-13,7.7993e-07,-6.9631e-07,-5.2318,0.56395
13681,10.54,4.4545,0,0.00032147,3212.5,0.00010662,0.0048233,0.00010518,-10.81,-0.00032165,-3217.9,0.56489
13682,10.447,4.5455,0,0.00032408,3238.6,0.0001075,0.004755,0.00010602,-11.086,-0.00032427,-3244.1,0.55561
13683,10.54,4.5455,0.05,9.0732e-07,9.067,6.9671e-07,5.2348,9.2767e-13,1.8227e-06,-6.9672e-07,-5.2348,0.56458
13684,10.54,4.2727,0,0.00032128,3210.6,0.00010664,0.0046545,0.00010497,-12.561,-0.00032149,-3216.8,0.5654
13685,10.447,4.3636,0,0.00032387,3236.5,0.00010752,0.0045863,0.00010579,-13.04,-0.00032409,-3243,0.55616
13686,10.54,4.3636,0.05,9.0778e-07,9.0716,6.9706e-07,5.2375,1.8522e-14,9.6474e-07,-6.9707e-07,-5.2375,0.56513
13687,10.54,4.0909,0,0.00032111,3208.9,0.00010667,0.004523,0.00010479,-14.105,-0.00032135,-3215.9,0.56585
13688,10.447,4.1818,0,0.00032369,3234.6,0.00010755,0.0044513,0.00010558,-14.783,-0.00032394,-3242,0.55665
13689,10.54,4.1818,0.05,9.0818e-07,9.0755,6.9737e-07,5.2397,1.8437e-12,8.8713e-07,-6.9737e-07,-5.2398,0.56561
13690,10.54,3.9091,0,0.00032097,3207.5,0.00010668,0.0044175,0.00010463,-15.43,-0.00032123,-3215.2,0.56623
13691,10.447,4,0,0.00032352,3233,0.00010757,0.0043391,0.0001054,-16.3,-0.0003238,-3241.1,0.55706
13692,10.54,4,0.05,9.0851e-07,9.0789,6.9763e-07,5.2417,1.8397e-12,9.8425e-07,-6.9763e-07,-5.2417,0.56603
13693,10.54,3.7273,0,0.00032085,3206.3,0.0001067,0.0043336,0.0001045,-16.528,-0.00032113,-3214.5,0.56654
13694,10.447,3.8182,0,0.00032339,3231.7,0.00010759,0.004246,0.00010525,-17.581,-0.00032368,-3240.4,0.55741
13695,10.54,3.8182,0.05,9.0879e-07,9.0816,6.9784e-07,5.2432,1.4923e-14,1.0814e-06,-6.9784e-07,-5.2433,0.56637
13696,10.54,3.5455,0,0.00032076,3205.4,0.00010671,0.0042698,0.0001044,-17.39,-0.00032105,-3214,0.56678
13697,10.447,3.6364,0,0.00032328,3230.6,0.0001076,0.0041718,0.00010512,-18.618,-0.00032359,-3239.8,0.55769
13698,10.54,3.6364,0.05,9.0901e-07,9.0838,6.98e-07,5.2445,9.2121e-13,1.765e-06,-6.98e-07,-5.2445,0.56665
13699,10.54,3.3636,0,0.00032069,3204.7,0.00010672,0.0042238,0.00010432,-18.011,-0.000321,-3213.7,0.56696
13700,10.447,3.4545,0,0.0003232,3229.7,0.00010761,0.0041167,0.00010503,-19.402,-0.00032352,-3239.4,0.5579
13701,10.54,3.4545,0.05,9.0917e-07,9.0854,6.9812e-07,5.2454,2.7379e-12,1.4991e-06,-6.9813e-07,-5.2455,0.56685
13702,10.54,3.1818,0,0.00032065,3204.3,0.00010673,0.0041959,0.00010428,-18.385,-0.00032096,-3213.5,0.56706
13703,10.447,3.2727,0,0.00032314,3229.2,0.00010762,0.0040783,0.00010497,-19.928,-0.00032347,-3239.1,0.55804
13704,10.54,3.2727,0.05,9.0928e-07,9.0865,6.9821e-07,5.2461,6.0924e-15,9.9985e-07,-6.9821e-07,-5.2461,0.56699
13705,10.54,3,0,0.00032064,3204.2,0.00010673,0.0041876,0.00010426,-18.51,-0.00032095,-3213.4,0.56709
13706,10.447,3.0909,0,0.00032311,3228.9,0.00010763,0.0040598,0.00010494,-20.192,-0.00032345,-3238.9,0.55811
13707,10.54,3.0909,0.05,9.0933e-07,9.087,6.9825e-07,5.2464,1.821e-12,1.6842e-06,-6.9825e-07,-5.2464,0.56706
13708,10.54,2.8182,0,0.00032065,3204.3,0.00010673,0.0041966,0.00010428,-18.385,-0.00032096,-3213.5,0.56706
13709,10.447,2.9091,0,0.00032311,3228.9,0.00010763,0.0040601,0.00010494,-20.192,-0.00032345,-3238.9,0.55811
13710,10.54,2.9091,0.05,9.0933e-07,9.087,6.9825e-07,5.2464,1.817e-12,2.3689e-06,-6.9825e-07,-5.2464,0.56706
13711,10.54,2.6364,0,0.00032069,3204.7,0.00010672,0.0042241,0.00010432,-18.011,-0.000321,-3213.7,0.56696
13712,10.447,2.7273,0,0.00032314,3229.2,0.00010762,0.004079,0.00010497,-19.928,-0.00032347,-3239.1,0.55804
13713,10.54,2.7273,0.05,9.0928e-07,9.0865,6.9821e-07,5.2461,-6.0923e-15,1.8631e-06,-6.9821e-07,-5.2461,0.56699
13714,10.54,2.4545,0,0.00032076,3205.4,0.00010671,0.0042697,0.0001044,-17.39,-0.00032105,-3214,0.56678
13715,10.447,2.5455,0,0.0003232,3229.7,0.00010761,0.0041168,0.00010503,-19.402,-0.00032352,-3239.4,0.5579
13716,10.54,2.5455,0.05,9.0917e-07,9.0854,6.9812e-07,5.2454,2.718e-12,1.7105e-06,-6.9814e-07,-5.2455,0.56685
13717,10.54,2.2727,0,0.00032085,3206.3,0.0001067,0.0043334,0.0001045,-16.528,-0.00032113,-3214.5,0.56654
13718,10.447,2.3636,0,0.00032328,3230.6,0.0001076,0.0041717,0.00010512,-18.618,-0.00032359,-3239.8,0.55769
13719,10.54,2.3636,0.05,9.0901e-07,9.0838,6.98e-07,5.2445,8.9762e-13,1.4569e-06,-6.98e-07,-5.2445,0.56665
13720,10.54,2.0909,0,0.00032097,3207.5,0.00010668,0.0044177,0.00010463,-15.43,-0.00032123,-3215.2,0.56623
13721,10.447,2.1818,0,0.00032339,3231.7,0.00010759,0.0042461,0.00010525,-17.581,-0.00032368,-3240.4,0.55741
13722,10.54,2.1818,0.05,9.0879e-07,9.0816,6.9784e-07,5.2432,8.9309e-13,1.3035e-06,-6.9784e-07,-5.2433,0.56637
13723,10.54,1.9091,0,0.00032111,3208.9,0.00010667,0.0045234,0.00010479,-14.105,-0.00032135,-3215.9,0.56585
13724,10.447,2,0,0.00032352,3233,0.00010757,0.0043394,0.0001054,-16.3,-0.0003238,-3241.1,0.55706
13725,10.54,2,0.05,9.0851e-07,9.0789,6.9763e-07,5.2417,1.8007e-12,9.4374e-07,-6.9763e-07,-5.2417,0.56603
13726,10.54,1.7273,0,0.00032128,3210.6,0.00010664,0.0046549,0.00010497,-12.561,-0.00032149,-3216.8,0.5654
13727,10.447,1.8182,0,0.00032369,3234.6,0.00010755,0.0044515,0.00010558,-14.783,-0.00032394,-3242,0.55665
13728,10.54,1.8182,0.05,9.0818e-07,9.0755,6.9737e-07,5.2397,1.8015e-12,8.6735e-07,-6.9737e-07,-5.2398,0.56561
13729,10.54,1.5455,0,0.00032147,3212.5,0.00010662,0.0048239,0.00010518,-10.81,-0.00032165,-3217.9,0.56489
13730,10.447,1.6364,0,0.00032387,3236.5,0.00010752,0.0045871,0.00010579,-13.04,-0.00032409,-3243,0.55616
13731,10.54,1.6364,0.05,9.0778e-07,9.0716,6.9706e-07,5.2375,1.7949e-12,9.2112e-07,-6.9707e-07,-5.2375,0.56513
13732,10.54,1.3636,0,0.00032168,3214.6,0.00010659,0.0050522,0.00010541,-8.8646,-0.00032183,-3219,0.5643
13733,10.447,1.4545,0,0.00032408,3238.6,0.0001075,0.0047556,0.00010602,-11.086,-0.00032427,-3244.1,0.55561
13734,10.54,1.4545,0.05,9.0732e-07,9.067,6.9671e-07,5.2348,2.7137e-12,1.0246e-06,-6.9672e-07,-5.2348,0.56458
13735,10.54,1.1818,0,0.00032192,3216.9,0.00010657,0.0054074,0.00010567,-6.7376,-0.00032203,-3220.3,0.56364
13736,10.447,1.2727,0,0.00032432,3240.9,0.00010747,0.0049723,0.00010628,-8.9328,-0.00032447,-3245.4,0.55498
13737,10.54,1.2727,0.05,9.068e-07,9.0617,6.9631e-07,5.2318,3.6098e-12,1.2022e-06,-6.9631e-07,-5.2318,0.56395
13738,10.54,1,0,0.00032217,3219.5,0.00010654,0.006074,0.00010594,-4.4443,-0.00032224,-3221.7,0.56292
13739,10.447,1.0909,0,0.00032457,3243.5,0.00010743,0.0053147,0.00010656,-6.5962,-0.00032468,-3246.7,0.55428
13740,10.54,1.0909,0.05,9.0621e-07,9.0558,6.9585e-07,5.2284,8.9137e-13,8.9251e-07,-6.9585e-07,-5.2284,0.56326
13741,10.54,0.81818,0,0.00032244,3222.2,0.00010651,0.0084534,0.00010624,-2.0017,-0.00032247,-3223.2,0.56212
13742,10.447,0.90909,0,0.00032484,3246.2,0.0001074,0.0059322,0.00010686,-4.0927,-0.00032491,-3248.2,0.55352
13743,10.54,0.90909,0.05,9.0553e-07,9.0491,6.9533e-07,5.2245,2.703e-12,7.0728e-07,-6.9534e-07,-5.2245,0.5625
13744,10.54,0.63636,0,0.00032273,3225.1,0.00010655,0.5974,0.00010647,-0.0098382,-0.00032272,-3224.8,0.56125
13745,10.447,0.72727,0,0.00032513,3249.1,0.00010737,0.009084,0.00010717,-1.4411,-0.00032516,-3249.8,0.55268
13746,10.54,0.72727,0.05,9.0459e-07,9.0396,6.9461e-07,5.219,2.7224e-12,6.7031e-07,-6.9461e-07,-5.2191,0.56167
13747,10.54,0.45455,0,0.00032304,3228.2,0.00010688,3.3197,0.00010644,0.0033277,-0.00032298,-3226.5,0.56032
13748,10.447,0.54545,0,0.00032544,3252.2,0.00010751,1.3581,0.00010733,-0.00090729,-0.00032542,-3251.5,0.55177
13749,10.54,0.54545,0.05,9.0047e-07,8.9985,6.9145e-07,5.1953,3.6174e-12,6.1238e-07,-6.9146e-07,-5.1954,0.56077
13750,10.54,0.27273,0,0.00032345,3232.2,0.0001073,6.7334,0.0001064,-0.00012347,-0.00032333,-3228.9,0.55931
13751,10.447,0.36364,0,0.00032578,3255.5,0.00010787,4.3279,0.00010729,0.006918,-0.0003257,-3253.3,0.5508
13752,10.54,0.36364,0.05,8.4891e-07,8.4832,6.5186e-07,4.8978,2.7214e-12,8.7427e-07,-6.5186e-07,-4.8978,0.5598
13753,10.447,0.18182,0,0.00032629,3260.7,0.00010839,8.5344,0.00010725,-0.0077555,-0.00032615,-3256.4,0.54975
13754,10.54,0.18182,0.05,7.2822e-08,0.72771,5.5916e-08,0.42012,2.0977e-12,-4.5704e-06,-5.5919e-08,-0.42017,0.55876
13755,10.54,0.090909,0,0.00032327,3230.5,0.0001072,6.1798,0.00010637,-0.0016224,-0.00032317,-3227.4,0.55824
13756,10.355,5.7273,0,0.00032861,3283.8,0.00010895,6.0443,0.00010814,-8.8733e-05,-0.00032851,-3280.8,0.54131
13757,10.262,5.8182,0,0.00033148,3312.5,0.00011005,7.9691,0.00010899,-0.0094702,-0.00033134,-3308.5,0.53185
13758,10.355,5.8182,0.05,8.2226e-08,0.82169,6.3139e-08,0.4744,1.756e-12,1.3399e-06,-6.3139e-08,-0.4744,0.54074
13759,10.355,5.9091,0,0.00032847,3282.4,0.00010888,5.8518,0.0001081,-0.0019229,-0.00032837,-3279.5,0.54021
13760,10.355,5.5455,0,0.00032818,3279.5,0.00010849,2.3416,0.00010818,0.0045155,-0.00032814,-3278.3,0.54232
13761,10.262,5.6364,0,0.00033094,3307.1,0.0001095,3.4728,0.00010904,0.0086271,-0.00033088,-3305.4,0.53291
13762,10.355,5.6364,0.05,8.5372e-07,8.5313,6.5555e-07,4.9255,9.2301e-13,1.9362e-06,-6.5555e-07,-4.9256,0.5418
13763,10.355,5.3636,0,0.00032784,3276.2,0.00010822,0.011177,0.00010813,-0.69322,-0.00032786,-3276.5,0.54327
13764,10.262,5.4545,0,0.00033058,3303.5,0.00010911,0.20728,0.00010908,-0.011539,-0.00033058,-3303.4,0.5339
13765,10.355,5.4545,0.05,9.0509e-07,9.0447,6.95e-07,5.2219,1.8445e-12,2.9921e-06,-6.95e-07,-5.2219,0.54278
13766,10.355,5.1818,0,0.00032753,3273.1,0.00010826,0.0059823,0.00010779,-3.5504,-0.00032759,-3274.8,0.54415
13767,10.262,5.2727,0,0.00033025,3300.2,0.00010913,0.00604,0.00010874,-2.8968,-0.0003303,-3301.6,0.53482
13768,10.355,5.2727,0.05,9.0924e-07,9.0861,6.9818e-07,5.2458,9.189e-13,1.3956e-06,-6.9818e-07,-5.2459,0.5437
13769,10.355,5,0,0.00032724,3270.1,0.0001083,0.0052222,0.00010747,-6.2629,-0.00032735,-3273.3,0.54496
13770,10.262,5.0909,0,0.00032993,3297,0.00010917,0.0051247,0.00010839,-5.8357,-0.00033003,-3300,0.53567
13771,10.355,5.0909,0.05,9.1022e-07,9.0959,6.9894e-07,5.2515,9.1872e-13,1.3938e-06,-6.9894e-07,-5.2516,0.54454
13772,10.355,4.8182,0,0.00032697,3267.4,0.00010834,0.004926,0.00010716,-8.8093,-0.00032712,-3271.8,0.54569
13773,10.262,4.9091,0,0.00032964,3294.1,0.00010921,0.0048906,0.00010806,-8.6096,-0.00032978,-3298.4,0.53644
13774,10.355,4.9091,0.05,9.1093e-07,9.103,6.9948e-07,5.2556,1.5801e-14,9.888e-07,-6.9949e-07,-5.2556,0.54531
13775,10.355,4.6364,0,0.00032671,3264.9,0.00010837,0.0047076,0.00010688,-11.172,-0.0003269,-3270.5,0.54636
13776,10.262,4.7273,0,0.00032936,3291.4,0.00010924,0.0046705,0.00010775,-11.199,-0.00032955,-3296.9,0.53715
13777,10.355,4.7273,0.05,9.1156e-07,9.1093,6.9996e-07,5.2592,1.504e-14,2.652e-07,-6.9996e-07,-5.2592,0.54601
13778,10.355,4.4545,0,0.00032648,3262.6,0.0001084,0.00454,0.00010662,-13.333,-0.00032671,-3269.2,0.54695
13779,10.262,4.5455,0,0.00032911,3288.8,0.00010928,0.0045036,0.00010747,-13.586,-0.00032934,-3295.6,0.53778
13780,10.355,4.5455,0.05,9.1211e-07,9.1148,7.0038e-07,5.2624,1.9496e-14,1.3098e-06,-7.0039e-07,-5.2624,0.54664
13781,10.355,4.2727,0,0.00032628,3260.5,0.00010843,0.0043979,0.00010639,-15.278,-0.00032653,-3268.1,0.54748
13782,10.262,4.3636,0,0.00032888,3286.6,0.00010931,0.004353,0.00010721,-15.753,-0.00032915,-3294.4,0.53835
13783,10.355,4.3636,0.05,9.1259e-07,9.1196,7.0076e-07,5.2652,2.9418e-14,1.9145e-07,-7.0076e-07,-5.2652,0.5472
13784,10.355,4.0909,0,0.0003261,3258.7,0.00010845,0.0042773,0.00010619,-16.994,-0.00032638,-3267.2,0.54793
13785,10.262,4.1818,0,0.00032868,3284.5,0.00010934,0.0042214,0.00010699,-17.685,-0.00032898,-3293.3,0.53884
13786,10.355,4.1818,0.05,9.13e-07,9.1237,7.0107e-07,5.2676,9.3838e-13,5.7726e-07,-7.0107e-07,-5.2676,0.54769
13787,10.355,3.9091,0,0.00032594,3257.2,0.00010847,0.0041741,0.00010602,-18.467,-0.00032625,-3266.3,0.54832
13788,10.262,4,0,0.0003285,3282.8,0.00010936,0.0041059,0.00010679,-19.368,-0.00032883,-3292.4,0.53926
13789,10.355,4,0.05,9.1335e-07,9.1272,7.0134e-07,5.2696,1.8363e-12,2.7672e-07,-7.0134e-07,-5.2696,0.54811
13790,10.355,3.7273,0,0.00032581,3255.9,0.00010849,0.0040883,0.00010587,-19.687,-0.00032614,-3265.7,0.54863
13791,10.262,3.8182,0,0.00032836,3281.3,0.00010939,0.0040063,0.00010662,-20.789,-0.00032871,-3291.6,0.53961
13792,10.355,3.8182,0.05,9.1364e-07,9.1301,7.0156e-07,5.2712,9.2911e-13,3.9116e-07,-7.0156e-07,-5.2713,0.54846
13793,10.355,3.5455,0,0.00032571,3254.9,0.00010851,0.0040211,0.00010576,-20.645,-0.00032606,-3265.1,0.54888
13794,10.262,3.6364,0,0.00032824,3280.1,0.0001094,0.0039253,0.00010648,-21.939,-0.0003286,-3291,0.53989
13795,10.355,3.6364,0.05,9.1387e-07,9.1323,7.0173e-07,5.2725,1.4061e-14,1.0647e-06,-7.0174e-07,-5.2726,0.54874
13796,10.355,3.3636,0,0.00032564,3254.1,0.00010852,0.0039725,0.00010568,-21.335,-0.000326,-3264.8,0.54905
13797,10.262,3.4545,0,0.00032815,3279.2,0.00010942,0.0038639,0.00010638,-22.809,-0.00032853,-3290.5,0.5401
13798,10.355,3.4545,0.05,9.1403e-07,9.134,7.0186e-07,5.2735,9.2067e-13,1.0365e-06,-7.0186e-07,-5.2736,0.54895
13799,10.355,3.1818,0,0.0003256,3253.7,0.00010852,0.0039428,0.00010563,-21.75,-0.00032596,-3264.5,0.54916
13800,10.262,3.2727,0,0.00032809,3278.6,0.00010943,0.003822,0.00010631,-23.392,-0.00032848,-3290.2,0.54024
13801,10.355,3.2727,0.05,9.1414e-07,9.1351,7.0195e-07,5.2742,9.1637e-13,7.6651e-07,-7.0195e-07,-5.2742,0.54909
13802,10.355,3,0,0.00032558,3253.6,0.00010852,0.0039328,0.00010561,-21.889,-0.00032595,-3264.5,0.54919
13803,10.262,3.0909,0,0.00032806,3278.3,0.00010943,0.0038006,0.00010628,-23.685,-0.00032845,-3290.1,0.54031
13804,10.355,3.0909,0.05,9.142e-07,9.1357,7.0199e-07,5.2745,1.8212e-12,1.2092e-06,-7.0199e-07,-5.2745,0.54916
13805,10.355,2.8182,0,0.0003256,3253.7,0.00010852,0.0039431,0.00010563,-21.75,-0.00032596,-3264.5,0.54916
13806,10.262,2.9091,0,0.00032806,3278.3,0.00010943,0.0038003,0.00010628,-23.685,-0.00032845,-3290.1,0.54031
13807,10.355,2.9091,0.05,9.142e-07,9.1357,7.0199e-07,5.2745,1.8167e-12,1.6519e-06,-7.0199e-07,-5.2745,0.54916
13808,10.355,2.6364,0,0.00032564,3254.1,0.00010852,0.003973,0.00010568,-21.335,-0.000326,-3264.8,0.54905
13809,10.262,2.7273,0,0.00032809,3278.6,0.00010943,0.0038223,0.00010631,-23.392,-0.00032848,-3290.2,0.54024
13810,10.355,2.7273,0.05,9.1414e-07,9.1351,7.0195e-07,5.2742,1.812e-12,1.3803e-06,-7.0195e-07,-5.2742,0.54909
13811,10.355,2.4545,0,0.00032571,3254.9,0.00010851,0.0040212,0.00010576,-20.645,-0.00032606,-3265.1,0.54888
13812,10.262,2.5455,0,0.00032815,3279.2,0.00010942,0.0038643,0.00010638,-22.809,-0.00032853,-3290.5,0.5401
13813,10.355,2.5455,0.05,9.1403e-07,9.134,7.0186e-07,5.2735,8.991e-13,8.6686e-07,-7.0186e-07,-5.2736,0.54895
13814,10.355,2.2727,0,0.00032581,3255.9,0.00010849,0.0040885,0.00010587,-19.687,-0.00032614,-3265.7,0.54863
13815,10.262,2.3636,0,0.00032824,3280.1,0.0001094,0.0039252,0.00010648,-21.939,-0.0003286,-3291,0.53989
13816,10.355,2.3636,0.05,9.1387e-07,9.1323,7.0173e-07,5.2725,8.9358e-13,8.5595e-07,-7.0174e-07,-5.2726,0.54874
13817,10.355,2.0909,0,0.00032594,3257.2,0.00010847,0.0041741,0.00010602,-18.467,-0.00032625,-3266.3,0.54832
13818,10.262,2.1818,0,0.00032836,3281.3,0.00010939,0.0040068,0.00010662,-20.789,-0.00032871,-3291.6,0.53961
13819,10.355,2.1818,0.05,9.1364e-07,9.1301,7.0156e-07,5.2712,1.7975e-12,5.6531e-07,-7.0156e-07,-5.2713,0.54846
13820,10.355,1.9091,0,0.0003261,3258.7,0.00010845,0.0042774,0.00010619,-16.994,-0.00032638,-3267.2,0.54793
13821,10.262,2,0,0.0003285,3282.8,0.00010936,0.0041058,0.00010679,-19.368,-0.00032883,-3292.4,0.53926
13822,10.355,2,0.05,9.1335e-07,9.1272,7.0134e-07,5.2696,2.7058e-12,7.9383e-07,-7.0134e-07,-5.2696,0.54811
13823,10.355,1.7273,0,0.00032628,3260.5,0.00010843,0.0043986,0.00010639,-15.278,-0.00032653,-3268.1,0.54748
13824,10.262,1.8182,0,0.00032868,3284.5,0.00010934,0.0042218,0.00010699,-17.685,-0.00032898,-3293.3,0.53884
13825,10.355,1.8182,0.05,9.13e-07,9.1237,7.0107e-07,5.2676,1.7951e-12,7.9556e-07,-7.0107e-07,-5.2676,0.54769
13826,10.355,1.5455,0,0.00032648,3262.6,0.0001084,0.0045408,0.00010662,-13.333,-0.00032671,-3269.2,0.54695
13827,10.262,1.6364,0,0.00032888,3286.6,0.00010931,0.0043535,0.00010721,-15.753,-0.00032915,-3294.4,0.53835
13828,10.355,1.6364,0.05,9.1259e-07,9.1196,7.0076e-07,5.2652,1.8034e-12,6.2697e-07,-7.0076e-07,-5.2652,0.5472
13829,10.355,1.3636,0,0.00032671,3264.9,0.00010837,0.0047083,0.00010688,-11.172,-0.0003269,-3270.5,0.54636
13830,10.262,1.4545,0,0.00032911,3288.8,0.00010928,0.0045045,0.00010747,-13.586,-0.00032934,-3295.6,0.53778
13831,10.355,1.4545,0.05,9.1211e-07,9.1148,7.0039e-07,5.2624,8.8541e-13,9.3135e-07,-7.0039e-07,-5.2625,0.54664
13832,10.355,1.1818,0,0.00032697,3267.4,0.00010834,0.0049267,0.00010716,-8.8093,-0.00032712,-3271.8,0.54569
13833,10.262,1.2727,0,0.00032936,3291.4,0.00010924,0.004671,0.00010775,-11.199,-0.00032955,-3296.9,0.53715
13834,10.355,1.2727,0.05,9.1156e-07,9.1093,6.9996e-07,5.2592,2.7011e-12,6.6796e-07,-6.9996e-07,-5.2593,0.54601
13835,10.355,1,0,0.00032724,3270.1,0.0001083,0.0052233,0.00010747,-6.263,-0.00032735,-3273.3,0.54496
13836,10.262,1.0909,0,0.00032964,3294.1,0.00010921,0.004891,0.00010806,-8.6096,-0.00032978,-3298.4,0.53644
13837,10.355,1.0909,0.05,9.1093e-07,9.103,6.9948e-07,5.2556,2.7053e-12,7.3742e-07,-6.9949e-07,-5.2557,0.54531
13838,10.355,0.81818,0,0.00032753,3273.1,0.00010826,0.0059839,0.00010779,-3.5504,-0.00032759,-3274.8,0.54415
13839,10.262,0.90909,0,0.00032993,3297,0.00010917,0.0051263,0.00010839,-5.8357,-0.00033003,-3300,0.53567
13840,10.355,0.90909,0.05,9.1022e-07,9.0959,6.9893e-07,5.2515,3.6263e-12,1.0937e-06,-6.9894e-07,-5.2516,0.54454
13841,10.355,0.63636,0,0.00032784,3276.2,0.00010822,0.011178,0.00010813,-0.69327,-0.00032786,-3276.5,0.54327
13842,10.262,0.72727,0,0.00033025,3300.2,0.00010913,0.0060415,0.00010874,-2.8969,-0.0003303,-3301.6,0.53482
13843,10.355,0.72727,0.05,9.0924e-07,9.0861,6.9818e-07,5.2458,2.6903e-12,3.1282e-07,-6.9818e-07,-5.2459,0.5437
13844,10.355,0.45455,0,0.00032818,3279.5,0.00010849,2.3415,0.00010818,0.004516,-0.00032814,-3278.3,0.54232
13845,10.262,0.54545,0,0.00033058,3303.5,0.00010911,0.20723,0.00010908,-0.011543,-0.00033058,-3303.4,0.5339
13846,10.355,0.54545,0.05,9.0509e-07,9.0447,6.95e-07,5.2219,2.7195e-12,-1.7118e-07,-6.95e-07,-5.222,0.54278
13847,10.355,0.27273,0,0.00032861,3283.8,0.00010895,6.0443,0.00010814,-8.7677e-05,-0.00032851,-3280.8,0.54131
13848,10.262,0.36364,0,0.00033094,3307.1,0.0001095,3.4727,0.00010904,0.0086282,-0.00033088,-3305.4,0.53291
13849,10.355,0.36364,0.05,8.5372e-07,8.5313,6.5555e-07,4.9255,1.8172e-12,3.1398e-07,-6.5555e-07,-4.9256,0.5418
13850,10.262,0.18182,0,0.00033148,3312.5,0.00011005,7.969,0.00010899,-0.0094695,-0.00033134,-3308.5,0.53185
13851,10.355,0.18182,0.05,8.2227e-08,0.8217,6.3139e-08,0.47437,2.2481e-12,-9.1661e-06,-6.3141e-08,-0.47445,0.54074
13852,10.355,0.090909,0,0.00032847,3282.4,0.00010888,5.8518,0.0001081,-0.0019222,-0.00032837,-3279.5,0.54021
13853,10.17,5.7273,0,0.00033379,3335.6,0.0001106,5.3149,0.00010989,-0.00039302,-0.0003337,-3333,0.52352
13854,10.077,5.8182,0,0.00033668,3364.5,0.00011172,7.3722,0.00011074,-0.011681,-0.00033655,-3360.8,0.51417
13855,10.17,5.8182,0.05,9.263e-08,0.92566,7.1126e-08,0.53441,4.8526e-13,-2.4754e-06,-7.113e-08,-0.53444,0.52295
13856,10.17,5.9091,0,0.00033369,3334.6,0.00011058,5.5062,0.00010984,-0.0024351,-0.00033359,-3331.8,0.52242
13857,10.17,5.5455,0,0.00033334,3331.1,0.00011011,1.3028,0.00010994,0.0057812,-0.00033331,-3330.4,0.52456
13858,10.077,5.6364,0,0.00033612,3358.9,0.00011113,2.565,0.00011079,0.010283,-0.00033608,-3357.6,0.51524
13859,10.17,5.6364,0.05,8.5872e-07,8.5813,6.5939e-07,4.9544,9.3705e-13,1.9575e-06,-6.5939e-07,-4.9544,0.52402
13860,10.17,5.3636,0,0.00033298,3327.5,0.00010998,0.0054774,0.00010971,-2.0378,-0.00033301,-3328.5,0.52552
13861,10.077,5.4545,0,0.00033573,3355,0.00011084,0.0048678,0.0001107,-1.0448,-0.00033575,-3355.6,0.51625
13862,10.17,5.4545,0.05,9.0986e-07,9.0923,6.9865e-07,5.2494,9.3571e-13,2.2844e-06,-6.9866e-07,-5.2494,0.52502
13863,10.17,5.1818,0,0.00033264,3324.1,0.00011003,0.0052231,0.00010934,-5.2007,-0.00033273,-3326.7,0.52641
13864,10.077,5.2727,0,0.00033538,3351.4,0.00011089,0.0053572,0.0001103,-4.4499,-0.00033545,-3353.7,0.51718
13865,10.17,5.2727,0.05,9.1403e-07,9.134,7.0186e-07,5.2735,9.3939e-13,1.3205e-06,-7.0186e-07,-5.2735,0.52595
13866,10.17,5,0,0.00033233,3321,0.00011007,0.0048475,0.00010898,-8.2002,-0.00033246,-3325.1,0.52722
13867,10.077,5.0909,0,0.00033504,3348.1,0.00011094,0.0048209,0.00010992,-7.6939,-0.00033517,-3351.9,0.51804
13868,10.17,5.0909,0.05,9.1506e-07,9.1443,7.0265e-07,5.2794,9.5336e-13,1.1077e-06,-7.0265e-07,-5.2795,0.5268
13869,10.17,4.8182,0,0.00033203,3318,0.00011012,0.0046712,0.00010865,-11.017,-0.00033222,-3323.5,0.52797
13870,10.077,4.9091,0,0.00033472,3344.9,0.00011099,0.0046953,0.00010956,-10.757,-0.0003349,-3350.2,0.51883
13871,10.17,4.9091,0.05,9.1581e-07,9.1518,7.0323e-07,5.2838,9.2286e-13,8.9399e-07,-7.0323e-07,-5.2838,0.52758
13872,10.17,4.6364,0,0.00033176,3315.3,0.00011015,0.0044904,0.00010834,-13.63,-0.00033199,-3322.1,0.52864
13873,10.077,4.7273,0,0.00033442,3341.9,0.00011103,0.0044965,0.00010922,-13.617,-0.00033465,-3348.7,0.51954
13874,10.17,4.7273,0.05,9.1646e-07,9.1583,7.0373e-07,5.2875,2.3658e-14,1.9846e-07,-7.0373e-07,-5.2876,0.52829
13875,10.17,4.4545,0,0.00033151,3312.8,0.00011019,0.0043327,0.00010806,-16.022,-0.00033178,-3320.8,0.52925
13876,10.077,4.5455,0,0.00033415,3339.2,0.00011107,0.0043292,0.00010891,-16.253,-0.00033442,-3347.3,0.52018
13877,10.17,4.5455,0.05,9.1704e-07,9.1641,7.0417e-07,5.2909,9.3365e-13,9.7516e-07,-7.0417e-07,-5.2909,0.52893
13878,10.17,4.2727,0,0.00033128,3310.6,0.00011022,0.0041873,0.0001078,-18.175,-0.00033159,-3319.6,0.52978
13879,10.077,4.3636,0,0.0003339,3336.7,0.00011111,0.0041662,0.00010863,-18.648,-0.00033422,-3346,0.52075
13880,10.17,4.3636,0.05,9.1755e-07,9.1691,7.0456e-07,5.2938,1.8461e-12,7.0287e-08,-7.0456e-07,-5.2938,0.5295
13881,10.17,4.0909,0,0.00033109,3308.6,0.00011025,0.0040573,0.00010758,-20.074,-0.00033142,-3318.6,0.53024
13882,10.077,4.1818,0,0.00033368,3334.5,0.00011114,0.0040187,0.00010838,-20.783,-0.00033403,-3344.9,0.52125
13883,10.17,4.1818,0.05,9.1798e-07,9.1734,7.0489e-07,5.2963,1.9778e-14,-2.6604e-07,-7.049e-07,-5.2963,0.52999
13884,10.17,3.9091,0,0.00033092,3306.9,0.00011028,0.003943,0.00010739,-21.705,-0.00033128,-3317.7,0.53063
13885,10.077,4,0,0.00033349,3332.6,0.00011117,0.0038864,0.00010816,-22.643,-0.00033387,-3343.9,0.52168
13886,10.17,4,0.05,9.1834e-07,9.1771,7.0517e-07,5.2984,9.3304e-13,-2.8748e-07,-7.0517e-07,-5.2984,0.53042
13887,10.17,3.7273,0,0.00033078,3305.5,0.0001103,0.0038463,0.00010723,-23.056,-0.00033117,-3317,0.53095
13888,10.077,3.8182,0,0.00033333,3331,0.0001112,0.0037711,0.00010797,-24.215,-0.00033374,-3343.1,0.52204
13889,10.17,3.8182,0.05,9.1864e-07,9.18,7.054e-07,5.3001,1.8972e-14,3.9751e-07,-7.054e-07,-5.3001,0.53077
13890,10.17,3.5455,0,0.00033067,3304.4,0.00011031,0.0037698,0.0001071,-24.118,-0.00033107,-3316.4,0.53119
13891,10.077,3.6364,0,0.0003332,3329.7,0.00011122,0.0036766,0.00010782,-25.486,-0.00033363,-3342.4,0.52232
13892,10.17,3.6364,0.05,9.1887e-07,9.1824,7.0558e-07,5.3015,1.6549e-14,8.3484e-07,-7.0558e-07,-5.3015,0.53105
13893,10.17,3.3636,0,0.00033059,3303.6,0.00011033,0.0037144,0.00010701,-24.881,-0.00033101,-3316,0.53137
13894,10.077,3.4545,0,0.0003331,3328.7,0.00011123,0.0036051,0.00010771,-26.448,-0.00033355,-3341.9,0.52253
13895,10.17,3.4545,0.05,9.1905e-07,9.1841,7.0571e-07,5.3024,9.2067e-13,5.6684e-07,-7.0572e-07,-5.3025,0.53127
13896,10.17,3.1818,0,0.00033054,3303.2,0.00011033,0.0036802,0.00010696,-25.342,-0.00033097,-3315.8,0.53148
13897,10.077,3.2727,0,0.00033304,3328.1,0.00011124,0.0035559,0.00010764,-27.093,-0.00033349,-3341.5,0.52268
13898,10.17,3.2727,0.05,9.1916e-07,9.1853,7.058e-07,5.3031,1.8262e-12,5.3909e-08,-7.0581e-07,-5.3031,0.53141
13899,10.17,3,0,0.00033053,3303,0.00011034,0.0036684,0.00010694,-25.496,-0.00033095,-3315.7,0.53151
13900,10.077,3.0909,0,0.00033301,3327.8,0.00011125,0.0035304,0.0001076,-27.417,-0.00033346,-3341.4,0.52275
13901,10.17,3.0909,0.05,9.1922e-07,9.1859,7.0585e-07,5.3035,9.1191e-13,7.3359e-07,-7.0585e-07,-5.3035,0.53148
13902,10.17,2.8182,0,0.00033054,3303.2,0.00011033,0.00368,0.00010696,-25.342,-0.00033097,-3315.8,0.53148
13903,10.077,2.9091,0,0.00033301,3327.8,0.00011125,0.0035305,0.0001076,-27.417,-0.00033346,-3341.4,0.52275
13904,10.17,2.9091,0.05,9.1922e-07,9.1859,7.0585e-07,5.3035,9.0702e-13,1.1738e-06,-7.0585e-07,-5.3035,0.53148
13905,10.17,2.6364,0,0.00033059,3303.6,0.00011033,0.0037145,0.00010701,-24.881,-0.00033101,-3316,0.53137
13906,10.077,2.7273,0,0.00033304,3328.1,0.00011124,0.0035557,0.00010764,-27.093,-0.00033349,-3341.5,0.52268
13907,10.17,2.7273,0.05,9.1916e-07,9.1853,7.058e-07,5.3031,1.8116e-12,8.9921e-07,-7.0581e-07,-5.3031,0.53141
13908,10.17,2.4545,0,0.00033067,3304.4,0.00011031,0.00377,0.0001071,-24.118,-0.00033107,-3316.4,0.53119
13909,10.077,2.5455,0,0.0003331,3328.7,0.00011123,0.0036052,0.00010771,-26.448,-0.00033355,-3341.9,0.52253
13910,10.17,2.5455,0.05,9.1905e-07,9.1841,7.0571e-07,5.3024,-1.1928e-14,6.1946e-07,-7.0572e-07,-5.3025,0.53127
13911,10.17,2.2727,0,0.00033078,3305.5,0.0001103,0.0038465,0.00010723,-23.056,-0.00033117,-3317,0.53095
13912,10.077,2.3636,0,0.0003332,3329.7,0.00011122,0.0036768,0.00010782,-25.486,-0.00033363,-3342.4,0.52232
13913,10.17,2.3636,0.05,9.1887e-07,9.1824,7.0558e-07,5.3014,8.9451e-13,8.2902e-07,-7.0558e-07,-5.3015,0.53105
13914,10.17,2.0909,0,0.00033092,3306.9,0.00011028,0.0039433,0.00010739,-21.705,-0.00033128,-3317.7,0.53063
13915,10.077,2.1818,0,0.00033333,3331,0.0001112,0.0037719,0.00010797,-24.215,-0.00033374,-3343.1,0.52204
13916,10.17,2.1818,0.05,9.1864e-07,9.18,7.054e-07,5.3001,1.7986e-12,9.4101e-08,-7.054e-07,-5.3001,0.53077
13917,10.17,1.9091,0,0.00033109,3308.6,0.00011025,0.0040576,0.00010758,-20.074,-0.00033142,-3318.6,0.53024
13918,10.077,2,0,0.00033349,3332.6,0.00011117,0.0038868,0.00010816,-22.643,-0.00033387,-3343.9,0.52168
13919,10.17,2,0.05,9.1834e-07,9.1771,7.0517e-07,5.2984,1.7953e-12,1.1794e-07,-7.0517e-07,-5.2984,0.53042
13920,10.17,1.7273,0,0.00033128,3310.6,0.00011022,0.0041876,0.0001078,-18.175,-0.00033159,-3319.6,0.52978
13921,10.077,1.8182,0,0.00033368,3334.5,0.00011114,0.0040192,0.00010838,-20.783,-0.00033403,-3344.9,0.52125
13922,10.17,1.8182,0.05,9.1798e-07,9.1734,7.0489e-07,5.2963,1.7927e-12,3.0815e-07,-7.049e-07,-5.2963,0.52999
13923,10.17,1.5455,0,0.00033151,3312.8,0.00011019,0.0043333,0.00010806,-16.022,-0.00033178,-3320.8,0.52925
13924,10.077,1.6364,0,0.0003339,3336.7,0.00011111,0.0041667,0.00010863,-18.648,-0.00033422,-3346,0.52075
13925,10.17,1.6364,0.05,9.1755e-07,9.1691,7.0456e-07,5.2938,1.7987e-12,6.4453e-07,-7.0456e-07,-5.2938,0.5295
13926,10.17,1.3636,0,0.00033176,3315.3,0.00011015,0.0044911,0.00010834,-13.63,-0.00033199,-3322.1,0.52864
13927,10.077,1.4545,0,0.00033415,3339.2,0.00011107,0.0043298,0.00010891,-16.253,-0.00033442,-3347.3,0.52018
13928,10.17,1.4545,0.05,9.1704e-07,9.1641,7.0417e-07,5.2909,2.7113e-12,6.1055e-07,-7.0417e-07,-5.2909,0.52893
13929,10.17,1.1818,0,0.00033203,3318,0.00011012,0.0046713,0.00010865,-11.017,-0.00033222,-3323.5,0.52797
13930,10.077,1.2727,0,0.00033442,3341.9,0.00011103,0.0044972,0.00010922,-13.617,-0.00033465,-3348.7,0.51954
13931,10.17,1.2727,0.05,9.1646e-07,9.1583,7.0373e-07,5.2875,2.7028e-12,1.6197e-07,-7.0373e-07,-5.2876,0.52829
13932,10.17,1,0,0.00033233,3321,0.00011007,0.0048484,0.00010898,-8.2003,-0.00033246,-3325.1,0.52722
13933,10.077,1.0909,0,0.00033472,3344.9,0.00011099,0.0046953,0.00010956,-10.757,-0.0003349,-3350.2,0.51883
13934,10.17,1.0909,0.05,9.1581e-07,9.1518,7.0323e-07,5.2838,2.7044e-12,5.3512e-07,-7.0323e-07,-5.2838,0.52758
13935,10.17,0.81818,0,0.00033264,3324.1,0.00011003,0.0052246,0.00010934,-5.2007,-0.00033273,-3326.7,0.52641
13936,10.077,0.90909,0,0.00033504,3348.1,0.00011094,0.004823,0.00010992,-7.694,-0.00033517,-3351.9,0.51804
13937,10.17,0.90909,0.05,9.1506e-07,9.1443,7.0265e-07,5.2794,1.7903e-12,6.0593e-07,-7.0266e-07,-5.2795,0.5268
13938,10.17,0.63636,0,0.00033298,3327.5,0.00010998,0.0054782,0.00010971,-2.0378,-0.00033301,-3328.5,0.52552
13939,10.077,0.72727,0,0.00033538,3351.4,0.00011089,0.0053581,0.0001103,-4.4499,-0.00033545,-3353.7,0.51718
13940,10.17,0.72727,0.05,9.1403e-07,9.134,7.0186e-07,5.2735,1.8127e-12,3.9477e-07,-7.0186e-07,-5.2735,0.52595
13941,10.17,0.45455,0,0.00033334,3331.1,0.00011011,1.3027,0.00010994,0.0057819,-0.00033331,-3330.4,0.52456
13942,10.077,0.54545,0,0.00033573,3355,0.00011084,0.0048683,0.0001107,-1.0449,-0.00033575,-3355.6,0.51625
13943,10.17,0.54545,0.05,9.0986e-07,9.0923,6.9865e-07,5.2494,2.7118e-12,1.0401e-07,-6.9866e-07,-5.2495,0.52502
13944,10.17,0.27273,0,0.00033379,3335.6,0.0001106,5.3149,0.00010989,-0.00039205,-0.0003337,-3333,0.52352
13945,10.077,0.36364,0,0.00033612,3358.9,0.00011113,2.5649,0.00011079,0.010284,-0.00033608,-3357.6,0.51524
13946,10.17,0.36364,0.05,8.5872e-07,8.5813,6.5939e-07,4.9544,1.8114e-12,6.7188e-07,-6.5939e-07,-4.9544,0.52402
13947,10.077,0.18182,0,0.00033668,3364.5,0.00011172,7.3722,0.00011074,-0.01168,-0.00033655,-3360.8,0.51417
13948,10.17,0.18182,0.05,9.2631e-08,0.92567,7.1128e-08,0.53441,2.4082e-12,-6.5385e-06,-7.113e-08,-0.53446,0.52295
13949,10.17,0.090909,0,0.00033369,3334.6,0.00011058,5.5061,0.00010984,-0.0024343,-0.00033359,-3331.8,0.52242
13950,9.9849,5.7273,0,0.000339,3387.6,0.00011225,4.5421,0.00011164,-0.0012967,-0.00033892,-3385.3,0.50597
13951,9.8925,5.8182,0,0.00034191,3416.7,0.00011339,6.7417,0.00011249,-0.014593,-0.00034179,-3413.3,0.49672
13952,9.9849,5.8182,0.05,1.0409e-07,1.0402,7.9926e-08,0.60052,-1.6954e-23,-2.5526e-06,-7.9926e-08,-0.60055,0.50539
13953,9.9849,5.9091,0,0.00033893,3386.9,0.00011228,5.1417,0.00011159,-0.0032449,-0.00033884,-3384.4,0.50485
13954,9.9849,5.5455,0,0.00033851,3382.8,0.00011173,0.19767,0.0001117,0.0070546,-0.00033851,-3382.7,0.50701
13955,9.8925,5.6364,0,0.00034132,3410.9,0.00011277,1.6001,0.00011256,0.011527,-0.00034129,-3410.1,0.49781
13956,9.9849,5.6364,0.05,8.6393e-07,8.6333,6.6339e-07,4.9844,1.9576e-14,1.7877e-06,-6.6339e-07,-4.9845,0.50647
13957,9.9849,5.3636,0,0.00033813,3379,0.00011176,0.0047278,0.00011129,-3.4757,-0.00033819,-3380.7,0.50799
13958,9.8925,5.4545,0,0.00034091,3406.7,0.00011262,0.004082,0.0001123,-2.3609,-0.00034095,-3407.9,0.49883
13959,9.9849,5.4545,0.05,9.1478e-07,9.1414,7.0243e-07,5.2778,9.2633e-13,2.1522e-06,-7.0243e-07,-5.2778,0.50749
13960,9.9849,5.1818,0,0.00033777,3375.3,0.00011181,0.0050288,0.00011088,-6.9612,-0.00033789,-3378.8,0.50889
13961,9.8925,5.2727,0,0.00034052,3402.9,0.00011268,0.0053218,0.00011186,-6.1076,-0.00034063,-3405.9,0.49977
13962,9.9849,5.2727,0.05,9.1898e-07,9.1835,7.0566e-07,5.3021,1.2214e-14,9.3565e-07,-7.0566e-07,-5.3021,0.50842
13963,9.9849,5,0,0.00033743,3371.9,0.00011186,0.004711,0.00011049,-10.268,-0.0003376,-3377.1,0.50972
13964,9.8925,5.0909,0,0.00034016,3399.2,0.00011273,0.0047684,0.00011144,-9.6784,-0.00034032,-3404,0.50064
13965,9.9849,5.0909,0.05,9.2005e-07,9.1942,7.0649e-07,5.3083,-5.1794e-15,1.049e-06,-7.0649e-07,-5.3083,0.50929
13966,9.9849,4.8182,0,0.00033711,3368.7,0.00011191,0.0045469,0.00011013,-13.373,-0.00033733,-3375.4,0.51047
13967,9.8925,4.9091,0,0.00033981,3395.8,0.00011278,0.004637,0.00011105,-13.051,-0.00034003,-3402.3,0.50144
13968,9.9849,4.9091,0.05,9.2084e-07,9.2021,7.0709e-07,5.3128,6.9366e-15,2.6721e-07,-7.071e-07,-5.3128,0.51008
13969,9.9849,4.6364,0,0.00033681,3365.8,0.00011195,0.0043524,0.00010979,-16.256,-0.00033708,-3373.9,0.51115
13970,9.8925,4.7273,0,0.00033949,3392.6,0.00011283,0.0044062,0.00011068,-16.201,-0.00033976,-3400.6,0.50216
13971,9.9849,4.7273,0.05,9.2153e-07,9.209,7.0762e-07,5.3168,1.8281e-12,-1.5744e-08,-7.0762e-07,-5.3168,0.5108
13972,9.9849,4.4545,0,0.00033654,3363.1,0.00011199,0.0041742,0.00010948,-18.895,-0.00033686,-3372.5,0.51177
13973,9.8925,4.5455,0,0.0003392,3389.6,0.00011288,0.0042073,0.00011034,-19.106,-0.00033952,-3399.1,0.50281
13974,9.9849,4.5455,0.05,9.2214e-07,9.215,7.0808e-07,5.3203,9.2279e-13,6.2499e-07,-7.0809e-07,-5.3203,0.51144
13975,9.9849,4.2727,0,0.0003363,3360.7,0.00011203,0.0040052,0.0001092,-21.271,-0.00033666,-3371.3,0.5123
13976,9.8925,4.3636,0,0.00033893,3387,0.00011292,0.004012,0.00011003,-21.744,-0.00033929,-3397.8,0.50339
13977,9.9849,4.3636,0.05,9.2266e-07,9.2203,7.0849e-07,5.3233,2.2814e-14,-2.2413e-08,-7.0849e-07,-5.3233,0.51202
13978,9.9849,4.0909,0,0.00033609,3358.5,0.00011206,0.0038528,0.00010895,-23.367,-0.00033648,-3370.2,0.51277
13979,9.8925,4.1818,0,0.00033869,3384.6,0.00011296,0.0038343,0.00010975,-24.097,-0.0003391,-3396.6,0.5039
13980,9.9849,4.1818,0.05,9.2311e-07,9.2248,7.0884e-07,5.3259,9.409e-13,-5.3769e-07,-7.0884e-07,-5.3259,0.51252
13981,9.9849,3.9091,0,0.0003359,3356.7,0.00011209,0.0037178,0.00010874,-25.167,-0.00033632,-3369.2,0.51316
13982,9.8925,4,0,0.00033849,3382.5,0.00011299,0.0036756,0.00010951,-26.147,-0.00033892,-3395.5,0.50433
13983,9.9849,4,0.05,9.2349e-07,9.2285,7.0913e-07,5.3281,9.3203e-13,-7.4615e-07,-7.0913e-07,-5.3281,0.51295
13984,9.9849,3.7273,0,0.00033575,3355.2,0.00011212,0.0036033,0.00010857,-26.659,-0.0003362,-3368.5,0.51349
13985,9.8925,3.8182,0,0.00033831,3380.8,0.00011302,0.0035373,0.00010931,-27.88,-0.00033878,-3394.6,0.50469
13986,9.9849,3.8182,0.05,9.238e-07,9.2316,7.0936e-07,5.3299,2.1415e-14,-7.5937e-08,-7.0936e-07,-5.3299,0.51331
13987,9.9849,3.5455,0,0.00033563,3354,0.00011214,0.0035128,0.00010843,-27.83,-0.0003361,-3367.8,0.51374
13988,9.8925,3.6364,0,0.00033817,3379.4,0.00011304,0.0034239,0.00010915,-29.281,-0.00033866,-3393.9,0.50498
13989,9.9849,3.6364,0.05,9.2404e-07,9.234,7.0955e-07,5.3313,1.9444e-14,6.0647e-07,-7.0955e-07,-5.3313,0.5136
13990,9.9849,3.3636,0,0.00033555,3353.2,0.00011215,0.0034469,0.00010833,-28.673,-0.00033603,-3367.4,0.51392
13991,9.8925,3.4545,0,0.00033807,3378.3,0.00011306,0.003338,0.00010902,-30.342,-0.00033857,-3393.4,0.50519
13992,9.9849,3.4545,0.05,9.2422e-07,9.2358,7.0969e-07,5.3323,1.8315e-12,3.3816e-07,-7.0969e-07,-5.3323,0.51381
13993,9.9849,3.1818,0,0.0003355,3352.7,0.00011216,0.0034061,0.00010827,-29.182,-0.00033598,-3367.2,0.51402
13994,9.8925,3.2727,0,0.00033799,3377.6,0.00011307,0.0032791,0.00010894,-31.053,-0.00033851,-3393,0.50534
13995,9.9849,3.2727,0.05,9.2434e-07,9.237,7.0977e-07,5.333,9.173e-13,-1.7885e-07,-7.0978e-07,-5.333,0.51395
13996,9.9849,3,0,0.00033548,3352.5,0.00011216,0.0033924,0.00010825,-29.352,-0.00033597,-3367.1,0.51406
13997,9.8925,3.0909,0,0.00033796,3377.3,0.00011308,0.0032488,0.0001089,-31.41,-0.00033848,-3392.8,0.50541
13998,9.9849,3.0909,0.05,9.244e-07,9.2376,7.0982e-07,5.3333,9.1212e-13,4.9689e-07,-7.0982e-07,-5.3334,0.51403
13999,9.9849,2.8182,0,0.0003355,3352.7,0.00011216,0.0034062,0.00010827,-29.182,-0.00033598,-3367.2,0.51402
14000,9.8925,2.9091,0,0.00033796,3377.3,0.00011308,0.003249,0.0001089,-31.41,-0.00033848,-3392.8,0.50541
14001,9.9849,2.9091,0.05,9.244e-07,9.2376,7.0982e-07,5.3333,9.068e-13,6.9468e-07,-7.0982e-07,-5.3334,0.51403
14002,9.9849,2.6364,0,0.00033555,3353.2,0.00011215,0.0034466,0.00010833,-28.673,-0.00033603,-3367.4,0.51392
14003,9.8925,2.7273,0,0.00033799,3377.6,0.00011307,0.0032789,0.00010894,-31.053,-0.00033851,-3393,0.50534
14004,9.9849,2.7273,0.05,9.2434e-07,9.237,7.0977e-07,5.333,1.8109e-12,4.1491e-07,-7.0978e-07,-5.333,0.51395
14005,9.9849,2.4545,0,0.00033563,3354,0.00011214,0.0035129,0.00010843,-27.83,-0.0003361,-3367.8,0.51374
14006,9.8925,2.5455,0,0.00033807,3378.3,0.00011306,0.0033381,0.00010902,-30.342,-0.00033857,-3393.4,0.50519
14007,9.9849,2.5455,0.05,9.2422e-07,9.2358,7.0968e-07,5.3323,1.8054e-12,1.3875e-07,-7.0969e-07,-5.3323,0.51381
14008,9.9849,2.2727,0,0.00033575,3355.2,0.00011212,0.003604,0.00010857,-26.659,-0.0003362,-3368.5,0.51349
14009,9.8925,2.3636,0,0.00033817,3379.4,0.00011304,0.0034241,0.00010915,-29.281,-0.00033866,-3393.9,0.50498
14010,9.9849,2.3636,0.05,9.2404e-07,9.234,7.0955e-07,5.3313,8.9311e-13,9.6243e-08,-7.0955e-07,-5.3313,0.5136
14011,9.9849,2.0909,0,0.0003359,3356.7,0.00011209,0.0037185,0.00010874,-25.167,-0.00033632,-3369.2,0.51316
14012,9.8925,2.1818,0,0.00033831,3380.8,0.00011302,0.0035381,0.00010931,-27.88,-0.00033878,-3394.6,0.50469
14013,9.9849,2.1818,0.05,9.238e-07,9.2316,7.0936e-07,5.3299,8.8746e-13,7.3228e-08,-7.0936e-07,-5.3299,0.51331
14014,9.9849,1.9091,0,0.00033609,3358.5,0.00011206,0.0038535,0.00010895,-23.367,-0.00033648,-3370.2,0.51277
14015,9.8925,2,0,0.00033849,3382.5,0.00011299,0.0036761,0.00010951,-26.147,-0.00033892,-3395.5,0.50433
14016,9.9849,2,0.05,9.2349e-07,9.2285,7.0912e-07,5.3281,8.817e-13,-1.8005e-07,-7.0913e-07,-5.3281,0.51295
14017,9.9849,1.7273,0,0.0003363,3360.7,0.00011203,0.004006,0.0001092,-21.271,-0.00033666,-3371.3,0.5123
14018,9.8925,1.8182,0,0.00033869,3384.6,0.00011296,0.003835,0.00010975,-24.097,-0.0003391,-3396.6,0.5039
14019,9.9849,1.8182,0.05,9.2311e-07,9.2248,7.0883e-07,5.3259,1.7904e-12,2.7021e-07,-7.0884e-07,-5.3259,0.51252
14020,9.9849,1.5455,0,0.00033654,3363.1,0.00011199,0.0041747,0.00010948,-18.895,-0.00033686,-3372.5,0.51177
14021,9.8925,1.6364,0,0.00033893,3387,0.00011292,0.0040125,0.00011003,-21.744,-0.00033929,-3397.8,0.50339
14022,9.9849,1.6364,0.05,9.2266e-07,9.2203,7.0849e-07,5.3233,1.786e-12,-1.863e-07,-7.0849e-07,-5.3233,0.51202
14023,9.9849,1.3636,0,0.00033681,3365.8,0.00011195,0.0043531,0.00010979,-16.256,-0.00033708,-3373.9,0.51115
14024,9.8925,1.4545,0,0.0003392,3389.6,0.00011288,0.0042077,0.00011034,-19.106,-0.00033952,-3399.1,0.50281
14025,9.9849,1.4545,0.05,9.2214e-07,9.215,7.0808e-07,5.3202,8.6259e-13,-2.9023e-08,-7.0809e-07,-5.3203,0.51144
14026,9.9849,1.1818,0,0.00033711,3368.7,0.00011191,0.0045474,0.00011013,-13.374,-0.00033733,-3375.4,0.51047
14027,9.8925,1.2727,0,0.00033949,3392.6,0.00011283,0.0044069,0.00011068,-16.201,-0.00033976,-3400.6,0.50216
14028,9.9849,1.2727,0.05,9.2153e-07,9.209,7.0762e-07,5.3168,8.7368e-13,-2.6221e-07,-7.0762e-07,-5.3168,0.5108
14029,9.9849,1,0,0.00033743,3371.9,0.00011186,0.0047122,0.00011049,-10.268,-0.0003376,-3377.1,0.50972
14030,9.8925,1.0909,0,0.00033981,3395.8,0.00011278,0.0046371,0.00011105,-13.051,-0.00034003,-3402.3,0.50144
14031,9.9849,1.0909,0.05,9.2084e-07,9.2021,7.0709e-07,5.3128,2.7027e-12,2.2478e-08,-7.071e-07,-5.3129,0.51008
14032,9.9849,0.81818,0,0.00033777,3375.3,0.00011181,0.0050303,0.00011088,-6.9613,-0.00033789,-3378.8,0.50889
14033,9.8925,0.90909,0,0.00034016,3399.2,0.00011273,0.0047703,0.00011144,-9.6785,-0.00034032,-3404,0.50064
14034,9.9849,0.90909,0.05,9.2005e-07,9.1942,7.0648e-07,5.3082,3.6173e-12,-3.8954e-07,-7.0649e-07,-5.3083,0.50929
14035,9.9849,0.63636,0,0.00033813,3379,0.00011176,0.0047284,0.00011129,-3.4758,-0.00033819,-3380.7,0.50799
14036,9.8925,0.72727,0,0.00034052,3402.9,0.00011268,0.0053226,0.00011186,-6.1076,-0.00034063,-3405.9,0.49977
14037,9.9849,0.72727,0.05,9.1898e-07,9.1835,7.0566e-07,5.302,3.6035e-12,1.7378e-07,-7.0567e-07,-5.3021,0.50842
14038,9.9849,0.45455,0,0.00033851,3382.8,0.00011173,0.19763,0.0001117,0.0070551,-0.00033851,-3382.7,0.50701
14039,9.8925,0.54545,0,0.00034091,3406.7,0.00011262,0.0040825,0.0001123,-2.3609,-0.00034095,-3407.9,0.49883
14040,9.9849,0.54545,0.05,9.1478e-07,9.1414,7.0243e-07,5.2778,3.6019e-12,7.8352e-07,-7.0244e-07,-5.2778,0.50749
14041,9.9849,0.27273,0,0.000339,3387.6,0.00011225,4.542,0.00011164,-0.0012958,-0.00033892,-3385.3,0.50597
14042,9.8925,0.36364,0,0.00034132,3410.9,0.00011277,1.6001,0.00011256,0.011528,-0.00034129,-3410.1,0.49781
14043,9.9849,0.36364,0.05,8.6393e-07,8.6333,6.6339e-07,4.9844,1.8021e-12,3.9523e-07,-6.6339e-07,-4.9845,0.50647
14044,9.8925,0.18182,0,0.00034191,3416.7,0.00011339,6.7416,0.00011249,-0.014592,-0.00034179,-3413.3,0.49672
14045,9.9849,0.18182,0.05,1.0409e-07,1.0402,7.9926e-08,0.6005,5.7615e-13,-1.1517e-05,-7.9929e-08,-0.60058,0.50539
14046,9.9849,0.090909,0,0.00033893,3386.9,0.00011228,5.1417,0.00011159,-0.0032444,-0.00033884,-3384.4,0.50485
14047,9.8,5.7273,0,0.00034422,3439.8,0.0001139,3.7227,0.00011341,-0.0033305,-0.00034416,-3438,0.48864
14048,9.7075,5.8182,0,0.00034716,3469.2,0.00011507,6.0752,0.00011426,-0.018531,-0.00034705,-3466.1,0.47951
14049,9.8,5.8182,0.05,1.1667e-07,1.1659,8.9587e-08,0.67311,-2.0041e-23,1.2664e-06,-8.9583e-08,-0.67311,0.48806
14050,9.8,5.9091,0,0.00034419,3439.6,0.00011398,4.7571,0.00011335,-0.0044746,-0.00034411,-3437.2,0.48751
14051,9.8,5.5455,0,0.00034371,3434.8,0.00011347,0.0086429,0.00011334,-0.97996,-0.00034373,-3435.2,0.4897
14052,9.7075,5.6364,0,0.00034654,3463.1,0.00011441,0.57664,0.00011433,0.0091435,-0.00034653,-3462.8,0.48061
14053,9.8,5.6364,0.05,8.6936e-07,8.6876,6.6756e-07,5.0158,2.2368e-14,1.7488e-06,-6.6756e-07,-5.0158,0.48916
14054,9.8,5.3636,0,0.0003433,3430.6,0.00011354,0.0047792,0.00011287,-5.0111,-0.00034338,-3433.1,0.49069
14055,9.7075,5.4545,0,0.0003461,3458.6,0.0001144,0.0043632,0.0001139,-3.7665,-0.00034617,-3460.5,0.48164
14056,9.8,5.4545,0.05,9.1987e-07,9.1923,7.0634e-07,5.3072,1.3197e-14,1.8388e-06,-7.0634e-07,-5.3072,0.49018
14057,9.8,5.1818,0,0.00034291,3426.7,0.0001136,0.0051082,0.00011242,-8.8422,-0.00034306,-3431.1,0.4916
14058,9.7075,5.2727,0,0.00034569,3454.5,0.00011447,0.0055785,0.00011342,-7.8792,-0.00034582,-3458.4,0.4826
14059,9.8,5.2727,0.05,9.241e-07,9.2346,7.096e-07,5.3316,1.8761e-12,1.0876e-06,-7.096e-07,-5.3316,0.49113
14060,9.8,5,0,0.00034254,3423,0.00011366,0.0047213,0.00011199,-12.478,-0.00034275,-3429.3,0.49244
14061,9.7075,5.0909,0,0.00034529,3450.5,0.00011453,0.004868,0.00011296,-11.801,-0.00034549,-3456.4,0.48348
14062,9.8,5.0909,0.05,9.2522e-07,9.2458,7.1046e-07,5.3381,1.9475e-14,9.963e-07,-7.1046e-07,-5.3381,0.49201
14063,9.8,4.8182,0,0.00034219,3419.6,0.00011371,0.0045132,0.00011159,-15.894,-0.00034246,-3427.5,0.4932
14064,9.7075,4.9091,0,0.00034492,3446.8,0.00011459,0.0046725,0.00011253,-15.506,-0.00034518,-3454.5,0.48428
14065,9.8,4.9091,0.05,9.2605e-07,9.2541,7.1109e-07,5.3429,9.3896e-13,3.0125e-07,-7.111e-07,-5.3429,0.49281
14066,9.8,4.6364,0,0.00034188,3416.4,0.00011376,0.0042722,0.00011122,-19.066,-0.0003422,-3425.9,0.4939
14067,9.7075,4.7273,0,0.00034457,3443.3,0.00011465,0.0043761,0.00011212,-18.967,-0.00034489,-3452.8,0.48502
14068,9.8,4.7273,0.05,9.2678e-07,9.2614,7.1165e-07,5.347,3.4704e-14,-9.2512e-08,-7.1165e-07,-5.347,0.49354
14069,9.8,4.4545,0,0.00034158,3413.5,0.00011381,0.0040524,0.00011088,-21.97,-0.00034195,-3424.4,0.49451
14070,9.7075,4.5455,0,0.00034425,3440.2,0.0001147,0.0041238,0.00011175,-22.16,-0.00034463,-3451.2,0.48567
14071,9.8,4.5455,0.05,9.2741e-07,9.2677,7.1214e-07,5.3507,1.8488e-12,6.6919e-07,-7.1213e-07,-5.3507,0.49419
14072,9.8,4.2727,0,0.00034132,3410.9,0.00011385,0.0038457,0.00011058,-24.585,-0.00034173,-3423.1,0.49506
14073,9.7075,4.3636,0,0.00034397,3437.3,0.00011475,0.0038811,0.00011141,-25.061,-0.00034439,-3449.7,0.48626
14074,9.8,4.3636,0.05,9.2796e-07,9.2732,7.1256e-07,5.3538,1.8462e-12,-2.9493e-07,-7.1256e-07,-5.3539,0.49477
14075,9.8,4.0909,0,0.00034109,3408.6,0.00011389,0.0036599,0.00011031,-26.892,-0.00034154,-3421.9,0.49553
14076,9.7075,4.1818,0,0.00034371,3434.7,0.00011479,0.0036628,0.00011111,-27.648,-0.00034417,-3448.5,0.48677
14077,9.8,4.1818,0.05,9.2842e-07,9.2778,7.1291e-07,5.3565,9.3808e-13,-1.9329e-08,-7.1292e-07,-5.3566,0.49528
14078,9.8,3.9091,0,0.00034089,3406.6,0.00011392,0.0034967,0.00011008,-28.874,-0.00034138,-3420.9,0.49593
14079,9.7075,4,0,0.00034349,3432.5,0.00011483,0.0034689,0.00011085,-29.903,-0.00034398,-3447.3,0.48721
14080,9.8,4,0.05,9.2881e-07,9.2817,7.1321e-07,5.3588,9.374e-13,-3.08e-07,-7.1322e-07,-5.3588,0.49571
14081,9.8,3.7273,0,0.00034073,3404.9,0.00011395,0.0033586,0.00010989,-30.517,-0.00034124,-3420.1,0.49626
14082,9.7075,3.8182,0,0.0003433,3430.6,0.00011486,0.0033016,0.00011063,-31.808,-0.00034383,-3446.4,0.48757
14083,9.8,3.8182,0.05,9.2913e-07,9.2849,7.1346e-07,5.3606,1.846e-12,-8.2016e-08,-7.1346e-07,-5.3607,0.49608
14084,9.8,3.5455,0,0.0003406,3403.7,0.00011397,0.0032491,0.00010974,-31.807,-0.00034113,-3419.5,0.49651
14085,9.7075,3.6364,0,0.00034314,3429.1,0.00011489,0.0031644,0.00011045,-33.35,-0.0003437,-3445.6,0.48786
14086,9.8,3.6364,0.05,9.2938e-07,9.2874,7.1365e-07,5.3621,2.0086e-14,8.7569e-07,-7.1365e-07,-5.3621,0.49637
14087,9.8,3.3636,0,0.00034051,3402.7,0.00011399,0.0031698,0.00010963,-32.735,-0.00034105,-3419,0.49669
14088,9.7075,3.4545,0,0.00034303,3427.9,0.00011491,0.003061,0.00011031,-34.517,-0.0003436,-3445.1,0.48808
14089,9.8,3.4545,0.05,9.2957e-07,9.2893,7.1379e-07,5.3631,9.2452e-13,1.064e-07,-7.1379e-07,-5.3632,0.49658
14090,9.8,3.1818,0,0.00034045,3402.2,0.000114,0.0031211,0.00010956,-33.295,-0.00034101,-3418.7,0.4968
14091,9.7075,3.2727,0,0.00034295,3427.2,0.00011492,0.0029904,0.00011022,-35.299,-0.00034354,-3444.7,0.48823
14092,9.8,3.2727,0.05,9.2969e-07,9.2905,7.1388e-07,5.3638,1.8275e-12,-1.7317e-07,-7.1388e-07,-5.3639,0.49673
14093,9.8,3,0,0.00034043,3402,0.000114,0.0031046,0.00010954,-33.482,-0.00034099,-3418.6,0.49684
14094,9.7075,3.0909,0,0.00034291,3426.8,0.00011493,0.002954,0.00011017,-35.692,-0.00034351,-3444.5,0.4883
14095,9.8,3.0909,0.05,9.2975e-07,9.2911,7.1393e-07,5.3642,1.8219e-12,4.9882e-07,-7.1393e-07,-5.3642,0.4968
14096,9.8,2.8182,0,0.00034045,3402.2,0.000114,0.003121,0.00010956,-33.295,-0.00034101,-3418.7,0.4968
14097,9.7075,2.9091,0,0.00034291,3426.8,0.00011493,0.002954,0.00011017,-35.692,-0.00034351,-3444.5,0.4883
14098,9.8,2.9091,0.05,9.2975e-07,9.2911,7.1393e-07,5.3642,1.816e-12,6.9316e-07,-7.1393e-07,-5.3642,0.4968
14099,9.8,2.6364,0,0.00034051,3402.7,0.00011399,0.0031699,0.00010963,-32.735,-0.00034105,-3419,0.49669
14100,9.7075,2.7273,0,0.00034295,3427.2,0.00011492,0.00299,0.00011022,-35.299,-0.00034354,-3444.7,0.48823
14101,9.8,2.7273,0.05,9.2969e-07,9.2905,7.1388e-07,5.3638,2.7196e-12,-6.6562e-08,-7.1388e-07,-5.3639,0.49673
14102,9.8,2.4545,0,0.0003406,3403.7,0.00011397,0.0032493,0.00010974,-31.807,-0.00034113,-3419.5,0.49651
14103,9.7075,2.5455,0,0.00034303,3427.9,0.00011491,0.0030611,0.00011031,-34.517,-0.0003436,-3445.1,0.48808
14104,9.8,2.5455,0.05,9.2957e-07,9.2893,7.1379e-07,5.3631,8.962e-13,-1.1174e-07,-7.1379e-07,-5.3632,0.49658
14105,9.8,2.2727,0,0.00034073,3404.9,0.00011395,0.0033589,0.00010989,-30.517,-0.00034124,-3420.1,0.49626
14106,9.7075,2.3636,0,0.00034314,3429.1,0.00011489,0.0031647,0.00011045,-33.35,-0.0003437,-3445.6,0.48786
14107,9.8,2.3636,0.05,9.2938e-07,9.2874,7.1365e-07,5.3621,1.8003e-12,5.8466e-07,-7.1365e-07,-5.3621,0.49637
14108,9.8,2.0909,0,0.00034089,3406.6,0.00011392,0.0034972,0.00011008,-28.874,-0.00034138,-3420.9,0.49593
14109,9.7075,2.1818,0,0.0003433,3430.6,0.00011486,0.0033019,0.00011063,-31.808,-0.00034383,-3446.4,0.48757
14110,9.8,2.1818,0.05,9.2913e-07,9.2849,7.1346e-07,5.3606,2.7004e-12,2.5384e-08,-7.1346e-07,-5.3607,0.49608
14111,9.8,1.9091,0,0.00034109,3408.6,0.00011389,0.0036605,0.00011031,-26.892,-0.00034154,-3421.9,0.49553
14112,9.7075,2,0,0.00034349,3432.5,0.00011483,0.0034694,0.00011085,-29.903,-0.00034398,-3447.3,0.48721
14113,9.8,2,0.05,9.2881e-07,9.2817,7.1321e-07,5.3588,1.7807e-12,-1.8183e-07,-7.1322e-07,-5.3588,0.49571
14114,9.8,1.7273,0,0.00034132,3410.9,0.00011385,0.0038462,0.00011058,-24.585,-0.00034173,-3423.1,0.49506
14115,9.7075,1.8182,0,0.00034371,3434.7,0.00011479,0.0036632,0.00011111,-27.648,-0.00034417,-3448.5,0.48677
14116,9.8,1.8182,0.05,9.2842e-07,9.2778,7.1291e-07,5.3565,1.7888e-12,-2.9424e-10,-7.1292e-07,-5.3566,0.49528
14117,9.8,1.5455,0,0.00034158,3413.5,0.00011381,0.0040528,0.00011088,-21.97,-0.00034195,-3424.4,0.49451
14118,9.7075,1.6364,0,0.00034397,3437.3,0.00011475,0.0038818,0.00011141,-25.061,-0.00034439,-3449.7,0.48626
14119,9.8,1.6364,0.05,9.2796e-07,9.2732,7.1255e-07,5.3538,2.6855e-12,-6.8058e-08,-7.1256e-07,-5.3539,0.49477
14120,9.8,1.3636,0,0.00034188,3416.4,0.00011376,0.0042726,0.00011122,-19.066,-0.0003422,-3425.9,0.4939
14121,9.7075,1.4545,0,0.00034425,3440.2,0.0001147,0.004124,0.00011175,-22.16,-0.00034463,-3451.2,0.48567
14122,9.8,1.4545,0.05,9.2741e-07,9.2677,7.1214e-07,5.3506,8.9234e-13,-3.5334e-07,-7.1213e-07,-5.3508,0.49419
14123,9.8,1.1818,0,0.00034219,3419.6,0.00011371,0.0045135,0.00011159,-15.894,-0.00034246,-3427.5,0.4932
14124,9.7075,1.2727,0,0.00034457,3443.3,0.00011465,0.0043767,0.00011212,-18.967,-0.00034489,-3452.8,0.48502
14125,9.8,1.2727,0.05,9.2678e-07,9.2614,7.1165e-07,5.347,1.785e-12,-7.278e-08,-7.1165e-07,-5.347,0.49354
14126,9.8,1,0,0.00034254,3423,0.00011366,0.0047221,0.00011199,-12.478,-0.00034275,-3429.3,0.49244
14127,9.7075,1.0909,0,0.00034492,3446.8,0.00011459,0.0046731,0.00011253,-15.506,-0.00034518,-3454.5,0.48428
14128,9.8,1.0909,0.05,9.2605e-07,9.2541,7.1109e-07,5.3428,8.7137e-13,-1.105e-07,-7.111e-07,-5.3429,0.49281
14129,9.8,0.81818,0,0.00034291,3426.7,0.0001136,0.0051094,0.00011242,-8.8423,-0.00034306,-3431.1,0.4916
14130,9.7075,0.90909,0,0.00034529,3450.5,0.00011453,0.0048696,0.00011296,-11.801,-0.00034549,-3456.4,0.48348
14131,9.8,0.90909,0.05,9.2522e-07,9.2458,7.1046e-07,5.3381,1.809e-12,3.009e-07,-7.1046e-07,-5.3381,0.49201
14132,9.8,0.63636,0,0.0003433,3430.6,0.00011354,0.0047799,0.00011287,-5.0112,-0.00034338,-3433.1,0.49069
14133,9.7075,0.72727,0,0.00034569,3454.5,0.00011447,0.0055795,0.00011342,-7.8793,-0.00034582,-3458.4,0.4826
14134,9.8,0.72727,0.05,9.241e-07,9.2346,7.096e-07,5.3316,1.7951e-12,4.1301e-07,-7.0959e-07,-5.3317,0.49113
14135,9.8,0.45455,0,0.00034371,3434.8,0.00011347,0.0086436,0.00011334,-0.98,-0.00034373,-3435.2,0.4897
14136,9.7075,0.54545,0,0.0003461,3458.6,0.0001144,0.0043638,0.0001139,-3.7665,-0.00034617,-3460.5,0.48164
14137,9.8,0.54545,0.05,9.1987e-07,9.1923,7.0634e-07,5.3071,2.637e-12,5.2014e-07,-7.0635e-07,-5.3072,0.49018
14138,9.8,0.27273,0,0.00034422,3439.8,0.0001139,3.7227,0.00011341,-0.0033294,-0.00034416,-3438,0.48864
14139,9.7075,0.36364,0,0.00034654,3463.1,0.00011441,0.57661,0.00011433,0.0091446,-0.00034653,-3462.8,0.48061
14140,9.8,0.36364,0.05,8.6936e-07,8.6876,6.6756e-07,5.0158,8.6727e-13,9.8233e-07,-6.6757e-07,-5.0159,0.48916
14141,9.7075,0.18182,0,0.00034716,3469.2,0.00011507,6.0752,0.00011426,-0.01853,-0.00034705,-3466.1,0.47951
14142,9.8,0.18182,0.05,1.1667e-07,1.1659,8.9585e-08,0.67309,5.0201e-13,-7.5908e-06,-8.9587e-08,-0.67314,0.48806
14143,9.8,0.090909,0,0.00034419,3439.6,0.00011398,4.7571,0.00011335,-0.0044736,-0.00034411,-3437.2,0.48751
14144,9.6151,5.7273,0,0.00034947,3492.3,0.00011556,2.8542,0.00011518,-0.0077745,-0.00034942,-3490.8,0.47155
14145,9.5226,5.8182,0,0.00035243,3521.8,0.00011675,5.3708,0.00011603,-0.024037,-0.00035234,-3519.2,0.46253
14146,9.6151,5.8182,0.05,1.3044e-07,1.3035,1.0016e-07,0.75258,1.6296e-13,1.2425e-06,-1.0016e-07,-0.75258,0.47096
14147,9.6151,5.9091,0,0.00034949,3492.4,0.00011569,4.3513,0.00011511,-0.0063144,-0.00034941,-3490.3,0.4704
14148,9.6151,5.5455,0,0.00034893,3486.9,0.00011526,0.010205,0.00011496,-2.2361,-0.00034897,-3488,0.47263
14149,9.5226,5.6364,0,0.00035179,3515.5,0.00011612,0.026592,0.00011604,-0.5343,-0.0003518,-3515.7,0.46365
14150,9.6151,5.6364,0.05,8.7504e-07,8.7444,6.7192e-07,5.0486,8.9535e-13,1.4558e-06,-6.7193e-07,-5.0486,0.47207
14151,9.6151,5.3636,0,0.00034849,3482.4,0.00011533,0.005135,0.00011444,-6.6523,-0.0003486,-3485.8,0.47363
14152,9.5226,5.4545,0,0.00035131,3510.7,0.00011619,0.00492,0.00011549,-5.2686,-0.0003514,-3513.3,0.46469
14153,9.6151,5.4545,0.05,9.2514e-07,9.245,7.1039e-07,5.3376,9.2081e-13,1.9979e-06,-7.104e-07,-5.3376,0.47311
14154,9.6151,5.1818,0,0.00034806,3478.2,0.0001154,0.0053509,0.00011395,-10.855,-0.00034825,-3483.7,0.47455
14155,9.5226,5.2727,0,0.00035086,3506.2,0.00011627,0.0060068,0.00011497,-9.7751,-0.00035103,-3511.1,0.46566
14156,9.6151,5.2727,0.05,9.2941e-07,9.2877,7.1367e-07,5.3622,1.3642e-14,1.166e-06,-7.1367e-07,-5.3622,0.47407
14157,9.6151,5,0,0.00034767,3474.3,0.00011547,0.0048302,0.00011349,-14.845,-0.00034792,-3481.7,0.4754
14158,9.5226,5.0909,0,0.00035044,3502,0.00011634,0.0050706,0.00011447,-14.074,-0.00035068,-3509,0.46655
14159,9.6151,5.0909,0.05,9.3058e-07,9.2994,7.1457e-07,5.369,1.8172e-12,1.329e-06,-7.1457e-07,-5.369,0.47496
14160,9.6151,4.8182,0,0.00034729,3470.5,0.00011553,0.0045432,0.00011305,-18.594,-0.00034761,-3479.8,0.47617
14161,9.5226,4.9091,0,0.00035004,3498,0.00011641,0.0047752,0.000114,-18.137,-0.00035034,-3507,0.46736
14162,9.6151,4.9091,0.05,9.3145e-07,9.3081,7.1524e-07,5.374,9.4159e-13,4.6409e-08,-7.1524e-07,-5.3741,0.47577
14163,9.6151,4.6364,0,0.00034695,3467.1,0.00011559,0.0042329,0.00011265,-22.077,-0.00034732,-3478.1,0.47687
14164,9.5226,4.7273,0,0.00034966,3494.2,0.00011647,0.004389,0.00011355,-21.933,-0.00035003,-3505.1,0.46811
14165,9.6151,4.7273,0.05,9.3221e-07,9.3157,7.1582e-07,5.3784,9.4012e-13,3.2726e-07,-7.1582e-07,-5.3784,0.47651
14166,9.6151,4.4545,0,0.00034663,3463.9,0.00011564,0.0039557,0.00011228,-25.266,-0.00034706,-3476.5,0.4775
14167,9.5226,4.5455,0,0.00034932,3490.8,0.00011653,0.0040666,0.00011315,-25.436,-0.00034975,-3503.4,0.46877
14168,9.6151,4.5455,0.05,9.3287e-07,9.3223,7.1633e-07,5.3822,3.0283e-14,6.0679e-07,-7.1633e-07,-5.3822,0.47717
14169,9.6151,4.2727,0,0.00034635,3461.1,0.00011569,0.0036999,0.00011194,-28.138,-0.00034682,-3475.1,0.47805
14170,9.5226,4.3636,0,0.00034901,3487.7,0.00011659,0.0037644,0.00011278,-28.619,-0.00034949,-3501.9,0.46936
14171,9.6151,4.3636,0.05,9.3344e-07,9.3279,7.1677e-07,5.3855,9.4909e-13,-2.1281e-07,-7.1676e-07,-5.3855,0.47776
14172,9.6151,4.0909,0,0.0003461,3458.6,0.00011573,0.0034724,0.00011165,-30.673,-0.00034661,-3473.9,0.47853
14173,9.5226,4.1818,0,0.00034873,3484.9,0.00011664,0.0034958,0.00011245,-31.459,-0.00034925,-3500.5,0.46988
14174,9.6151,4.1818,0.05,9.3392e-07,9.3328,7.1714e-07,5.3883,9.375e-13,4.5046e-09,-7.1713e-07,-5.3883,0.47827
14175,9.6151,3.9091,0,0.00034589,3456.5,0.00011577,0.0032736,0.00011139,-32.851,-0.00034643,-3472.8,0.47893
14176,9.5226,4,0,0.00034849,3482.5,0.00011668,0.0032595,0.00011216,-33.934,-0.00034905,-3499.3,0.47032
14177,9.6151,4,0.05,9.3432e-07,9.3368,7.1744e-07,5.3906,9.3179e-13,-7.1419e-07,-7.1745e-07,-5.3906,0.47871
14178,9.6151,3.7273,0,0.00034571,3454.7,0.0001158,0.0031066,0.00011118,-34.655,-0.00034629,-3471.9,0.47926
14179,9.5226,3.8182,0,0.00034828,3480.4,0.00011671,0.0030572,0.00011192,-36.026,-0.00034888,-3498.3,0.47069
14180,9.6151,3.8182,0.05,9.3465e-07,9.3401,7.177e-07,5.3925,2.665e-14,1.8001e-07,-7.177e-07,-5.3925,0.47908
14181,9.6151,3.5455,0,0.00034557,3453.3,0.00011582,0.002975,0.00011102,-36.073,-0.00034617,-3471.2,0.47952
14182,9.5226,3.6364,0,0.00034812,3478.8,0.00011674,0.0028924,0.00011172,-37.719,-0.00034875,-3497.5,0.47099
14183,9.6151,3.6364,0.05,9.3491e-07,9.3426,7.1789e-07,5.3939,9.3169e-13,6.4561e-07,-7.1789e-07,-5.394,0.47937
14184,9.6151,3.3636,0,0.00034547,3452.3,0.00011584,0.0028801,0.0001109,-37.094,-0.00034609,-3470.7,0.4797
14185,9.5226,3.4545,0,0.00034799,3477.5,0.00011676,0.0027685,0.00011157,-39,-0.00034864,-3496.9,0.47121
14186,9.6151,3.4545,0.05,9.351e-07,9.3445,7.1804e-07,5.395,1.8328e-12,1.1343e-07,-7.1804e-07,-5.3951,0.47959
14187,9.6151,3.1818,0,0.00034541,3451.7,0.00011585,0.0028216,0.00011083,-37.709,-0.00034604,-3470.4,0.47981
14188,9.5226,3.2727,0,0.00034791,3476.7,0.00011678,0.0026841,0.00011147,-39.859,-0.00034857,-3496.5,0.47136
14189,9.6151,3.2727,0.05,9.3522e-07,9.3457,7.1813e-07,5.3957,9.1923e-13,7.0953e-08,-7.1813e-07,-5.3958,0.47974
14190,9.6151,3,0,0.00034539,3451.5,0.00011585,0.0028016,0.00011081,-37.915,-0.00034602,-3470.3,0.47985
14191,9.5226,3.0909,0,0.00034787,3476.3,0.00011679,0.0026409,0.00011142,-40.29,-0.00034854,-3496.3,0.47143
14192,9.6151,3.0909,0.05,9.3528e-07,9.3464,7.1818e-07,5.3961,9.1273e-13,2.3414e-08,-7.1818e-07,-5.3962,0.47981
14193,9.6151,2.8182,0,0.00034541,3451.7,0.00011585,0.0028213,0.00011083,-37.709,-0.00034604,-3470.4,0.47981
14194,9.5226,2.9091,0,0.00034787,3476.3,0.00011679,0.0026407,0.00011142,-40.29,-0.00034854,-3496.3,0.47143
14195,9.6151,2.9091,0.05,9.3528e-07,9.3464,7.1818e-07,5.3961,1.8158e-12,4.5185e-07,-7.1818e-07,-5.3962,0.47981
14196,9.6151,2.6364,0,0.00034547,3452.3,0.00011584,0.0028798,0.0001109,-37.094,-0.00034609,-3470.7,0.4797
14197,9.5226,2.7273,0,0.00034791,3476.7,0.00011678,0.0026839,0.00011147,-39.859,-0.00034857,-3496.5,0.47136
14198,9.6151,2.7273,0.05,9.3522e-07,9.3457,7.1813e-07,5.3957,8.9987e-13,4.0023e-07,-7.1813e-07,-5.3958,0.47974
14199,9.6151,2.4545,0,0.00034557,3453.3,0.00011582,0.0029753,0.00011102,-36.073,-0.00034617,-3471.2,0.47952
14200,9.5226,2.5455,0,0.00034799,3477.5,0.00011676,0.0027684,0.00011157,-39,-0.00034864,-3496.9,0.47121
14201,9.6151,2.5455,0.05,9.351e-07,9.3445,7.1804e-07,5.395,1.8033e-12,-1.2674e-07,-7.1804e-07,-5.3951,0.47959
14202,9.6151,2.2727,0,0.00034571,3454.7,0.0001158,0.0031069,0.00011118,-34.655,-0.00034629,-3471.9,0.47926
14203,9.5226,2.3636,0,0.00034812,3478.8,0.00011674,0.0028929,0.00011172,-37.719,-0.00034875,-3497.5,0.47099
14204,9.6151,2.3636,0.05,9.3491e-07,9.3426,7.1789e-07,5.3939,1.7988e-12,-1.8399e-07,-7.1789e-07,-5.394,0.47937
14205,9.6151,2.0909,0,0.00034589,3456.5,0.00011577,0.0032739,0.00011139,-32.851,-0.00034643,-3472.8,0.47893
14206,9.5226,2.1818,0,0.00034828,3480.4,0.00011671,0.0030574,0.00011192,-36.026,-0.00034888,-3498.3,0.47069
14207,9.6151,2.1818,0.05,9.3465e-07,9.3401,7.177e-07,5.3925,2.7018e-12,-2.0597e-07,-7.177e-07,-5.3925,0.47908
14208,9.6151,1.9091,0,0.0003461,3458.6,0.00011573,0.0034727,0.00011165,-30.673,-0.00034661,-3473.9,0.47853
14209,9.5226,2,0,0.00034849,3482.5,0.00011668,0.0032598,0.00011216,-33.934,-0.00034905,-3499.3,0.47032
14210,9.6151,2,0.05,9.3432e-07,9.3368,7.1744e-07,5.3906,1.7813e-12,5.8044e-09,-7.1745e-07,-5.3906,0.47871
14211,9.6151,1.7273,0,0.00034635,3461.1,0.00011569,0.0037005,0.00011194,-28.138,-0.00034682,-3475.1,0.47805
14212,9.5226,1.8182,0,0.00034873,3484.9,0.00011664,0.0034961,0.00011245,-31.459,-0.00034925,-3500.5,0.46988
14213,9.6151,1.8182,0.05,9.3392e-07,9.3328,7.1714e-07,5.3882,1.7845e-12,-3.5986e-08,-7.1714e-07,-5.3883,0.47827
14214,9.6151,1.5455,0,0.00034663,3463.9,0.00011564,0.0039561,0.00011228,-25.266,-0.00034706,-3476.5,0.4775
14215,9.5226,1.6364,0,0.00034901,3487.7,0.00011659,0.003765,0.00011278,-28.619,-0.00034949,-3501.9,0.46936
14216,9.6151,1.6364,0.05,9.3344e-07,9.3279,7.1676e-07,5.3855,2.6865e-12,1.9242e-07,-7.1677e-07,-5.3855,0.47776
14217,9.6151,1.3636,0,0.00034695,3467.1,0.00011559,0.0042333,0.00011265,-22.077,-0.00034732,-3478.1,0.47687
14218,9.5226,1.4545,0,0.00034932,3490.8,0.00011653,0.0040671,0.00011315,-25.436,-0.00034975,-3503.4,0.46877
14219,9.6151,1.4545,0.05,9.3287e-07,9.3223,7.1632e-07,5.3822,8.6067e-13,1.5396e-07,-7.1633e-07,-5.3822,0.47717
14220,9.6151,1.1818,0,0.00034729,3470.5,0.00011553,0.0045441,0.00011305,-18.594,-0.00034761,-3479.8,0.47617
14221,9.5226,1.2727,0,0.00034966,3494.2,0.00011647,0.0043896,0.00011355,-21.933,-0.00035003,-3505.1,0.46811
14222,9.6151,1.2727,0.05,9.3221e-07,9.3157,7.1582e-07,5.3784,1.7827e-12,1.18e-07,-7.1582e-07,-5.3784,0.47651
14223,9.6151,1,0,0.00034767,3474.3,0.00011547,0.0048316,0.00011349,-14.845,-0.00034792,-3481.7,0.4754
14224,9.5226,1.0909,0,0.00035004,3498,0.00011641,0.0047761,0.000114,-18.137,-0.00035034,-3507,0.46736
14225,9.6151,1.0909,0.05,9.3145e-07,9.3081,7.1523e-07,5.374,1.7686e-12,2.6016e-07,-7.1524e-07,-5.3741,0.47577
14226,9.6151,0.81818,0,0.00034806,3478.2,0.0001154,0.0053523,0.00011395,-10.855,-0.00034825,-3483.7,0.47455
14227,9.5226,0.90909,0,0.00035044,3502,0.00011634,0.0050722,0.00011447,-14.074,-0.00035068,-3509,0.46655
14228,9.6151,0.90909,0.05,9.3058e-07,9.2994,7.1457e-07,5.3689,1.7563e-12,6.4563e-07,-7.1457e-07,-5.369,0.47496
14229,9.6151,0.63636,0,0.00034849,3482.4,0.00011533,0.0051358,0.00011444,-6.6524,-0.0003486,-3485.8,0.47363
14230,9.5226,0.72727,0,0.00035086,3506.2,0.00011627,0.0060075,0.00011497,-9.7752,-0.00035103,-3511.1,0.46566
14231,9.6151,0.72727,0.05,9.2941e-07,9.2877,7.1367e-07,5.3622,3.5783e-12,6.3617e-07,-7.1367e-07,-5.3623,0.47407
14232,9.6151,0.45455,0,0.00034893,3486.9,0.00011526,0.010206,0.00011496,-2.2362,-0.00034897,-3488,0.47263
14233,9.5226,0.54545,0,0.00035131,3510.7,0.00011619,0.0049206,0.00011549,-5.2687,-0.0003514,-3513.3,0.46469
14234,9.6151,0.54545,0.05,9.2514e-07,9.245,7.1039e-07,5.3376,8.6373e-13,5.6137e-07,-7.104e-07,-5.3377,0.47311
14235,9.6151,0.27273,0,0.00034947,3492.3,0.00011556,2.8542,0.00011518,-0.0077737,-0.00034942,-3490.8,0.47155
14236,9.5226,0.36364,0,0.00035179,3515.5,0.00011612,0.026592,0.00011604,-0.53433,-0.0003518,-3515.7,0.46365
14237,9.6151,0.36364,0.05,8.7504e-07,8.7444,6.7192e-07,5.0486,2.7087e-12,1.2123e-06,-6.7193e-07,-5.0486,0.47207
14238,9.5226,0.18182,0,0.00035243,3521.8,0.00011675,5.3707,0.00011603,-0.024036,-0.00035234,-3519.2,0.46253
14239,9.6151,0.18182,0.05,1.3044e-07,1.3035,1.0016e-07,0.75254,6.6415e-13,-1.7248e-05,-1.0017e-07,-0.75264,0.47096
14240,9.6151,0.090909,0,0.00034949,3492.4,0.00011569,4.3513,0.00011511,-0.0063135,-0.00034941,-3490.3,0.4704
14241,9.4302,5.7273,0,0.00035474,3544.9,0.00011723,1.9365,0.00011697,-0.01857,-0.0003547,-3544,0.4547
14242,9.3377,5.8182,0,0.00035772,3574.8,0.00011844,4.6265,0.00011782,-0.032069,-0.00035764,-3572.5,0.44579
14243,9.4302,5.8182,0.05,1.455e-07,1.454,1.1172e-07,0.83943,-3.714e-13,-8.2925e-06,-1.1173e-07,-0.83948,0.4541
14244,9.4302,5.9091,0,0.0003548,3545.6,0.00011741,3.9229,0.00011689,-0.0090676,-0.00035474,-3543.6,0.45354
14245,9.4302,5.5455,0,0.00035417,3539.2,0.00011705,0.011891,0.00011658,-3.5778,-0.00035423,-3541,0.45579
14246,9.3377,5.6364,0,0.00035705,3568.1,0.00011791,0.024294,0.00011768,-1.6986,-0.00035708,-3568.9,0.44692
14247,9.4302,5.6364,0.05,8.8099e-07,8.8038,6.7649e-07,5.0829,9.0592e-13,1.6933e-06,-6.7649e-07,-5.0829,0.45523
14248,9.4302,5.3636,0,0.00035369,3534.4,0.00011713,0.0056565,0.00011601,-8.4085,-0.00035383,-3538.6,0.4568
14249,9.3377,5.4545,0,0.00035654,3563,0.000118,0.0056227,0.00011708,-6.8756,-0.00035666,-3566.4,0.44798
14250,9.4302,5.4545,0.05,9.3063e-07,9.2998,7.146e-07,5.3693,8.9397e-13,1.9602e-06,-7.1461e-07,-5.3693,0.45628
14251,9.4302,5.1818,0,0.00035324,3529.9,0.00011721,0.0057052,0.00011548,-13.011,-0.00035346,-3536.4,0.45773
14252,9.3377,5.2727,0,0.00035606,3558.1,0.00011808,0.0065603,0.00011651,-11.806,-0.00035626,-3564,0.44896
14253,9.4302,5.2727,0.05,9.3492e-07,9.3428,7.179e-07,5.394,2.5624e-14,1.306e-06,-7.179e-07,-5.3941,0.45725
14254,9.4302,5,0,0.00035281,3525.6,0.00011729,0.0050106,0.00011497,-17.382,-0.0003531,-3534.3,0.45859
14255,9.3377,5.0909,0,0.0003556,3553.6,0.00011817,0.0053561,0.00011597,-16.512,-0.00035588,-3561.8,0.44986
14256,9.4302,5.0909,0.05,9.3614e-07,9.3549,7.1884e-07,5.4011,9.4533e-13,1.0676e-06,-7.1884e-07,-5.4011,0.45815
14257,9.4302,4.8182,0,0.0003524,3521.6,0.00011736,0.0046195,0.0001145,-21.491,-0.00035277,-3532.3,0.45938
14258,9.3377,4.9091,0,0.00035517,3549.2,0.00011824,0.0049355,0.00011545,-20.96,-0.00035552,-3559.7,0.45068
14259,9.4302,4.9091,0.05,9.3706e-07,9.3641,7.1954e-07,5.4063,9.537e-13,6.0811e-07,-7.1954e-07,-5.4064,0.45897
14260,9.4302,4.6364,0,0.00035203,3517.9,0.00011742,0.0042219,0.00011405,-25.307,-0.00035246,-3530.5,0.46008
14261,9.3377,4.7273,0,0.00035476,3545.2,0.00011831,0.0044398,0.00011497,-25.118,-0.00035518,-3557.7,0.45143
14262,9.4302,4.7273,0.05,9.3785e-07,9.372,7.2015e-07,5.4109,4.3594e-14,2.7427e-07,-7.2015e-07,-5.4109,0.45971
14263,9.4302,4.4545,0,0.00035169,3514.5,0.00011748,0.0038743,0.00011365,-28.804,-0.00035217,-3528.8,0.46072
14264,9.3377,4.5455,0,0.00035439,3541.5,0.00011838,0.0040333,0.00011453,-28.955,-0.00035488,-3555.9,0.45211
14265,9.4302,4.5455,0.05,9.3854e-07,9.3789,7.2068e-07,5.4149,1.8514e-12,7.2871e-07,-7.2068e-07,-5.4149,0.46038
14266,9.4302,4.2727,0,0.00035139,3511.4,0.00011754,0.0035589,0.00011328,-31.954,-0.00035192,-3527.3,0.46127
14267,9.3377,4.3636,0,0.00035406,3538.1,0.00011844,0.0036606,0.00011412,-32.442,-0.0003546,-3554.2,0.45271
14268,9.4302,4.3636,0.05,9.3913e-07,9.3848,7.2113e-07,5.4183,9.4769e-13,6.7251e-08,-7.2113e-07,-5.4183,0.46098
14269,9.4302,4.0909,0,0.00035112,3508.7,0.00011758,0.0032812,0.00011296,-34.733,-0.00035169,-3526,0.46176
14270,9.3377,4.1818,0,0.00035376,3535.1,0.0001185,0.0033329,0.00011376,-35.554,-0.00035435,-3552.8,0.45323
14271,9.4302,4.1818,0.05,9.3962e-07,9.3898,7.2151e-07,5.4212,1.8524e-12,-4.4383e-08,-7.2151e-07,-5.4212,0.4615
14272,9.4302,3.9091,0,0.00035088,3506.4,0.00011763,0.0030411,0.00011268,-37.122,-0.0003515,-3524.8,0.46217
14273,9.3377,4,0,0.00035349,3532.5,0.00011854,0.0030476,0.00011345,-38.266,-0.00035413,-3551.5,0.45368
14274,9.4302,4,0.05,9.4004e-07,9.3939,7.2183e-07,5.4236,1.8521e-12,-2.1319e-07,-7.2183e-07,-5.4236,0.46195
14275,9.4302,3.7273,0,0.00035069,3504.5,0.00011766,0.0028408,0.00011246,-39.102,-0.00035134,-3523.9,0.4625
14276,9.3377,3.8182,0,0.00035327,3530.3,0.00011858,0.0028052,0.00011319,-40.559,-0.00035395,-3550.4,0.45405
14277,9.4302,3.8182,0.05,9.4037e-07,9.3972,7.2209e-07,5.4255,1.8496e-12,-2.9773e-07,-7.2209e-07,-5.4255,0.46232
14278,9.4302,3.5455,0,0.00035054,3503,0.00011769,0.0026834,0.00011228,-40.657,-0.00035122,-3523.1,0.46276
14279,9.3377,3.6364,0,0.00035309,3528.5,0.00011862,0.002609,0.00011297,-42.415,-0.0003538,-3549.5,0.45435
14280,9.4302,3.6364,0.05,9.4063e-07,9.3998,7.2229e-07,5.427,9.35e-13,1.8836e-07,-7.2229e-07,-5.427,0.46261
14281,9.4302,3.3636,0,0.00035043,3501.9,0.00011771,0.0025699,0.00011215,-41.777,-0.00035113,-3522.6,0.46294
14282,9.3377,3.4545,0,0.00035296,3527.2,0.00011864,0.0024612,0.00011281,-43.819,-0.00035368,-3548.9,0.45457
14283,9.4302,3.4545,0.05,9.4082e-07,9.4018,7.2244e-07,5.4281,1.8359e-12,1.2503e-07,-7.2244e-07,-5.4281,0.46284
14284,9.4302,3.1818,0,0.00035037,3501.3,0.00011772,0.0025005,0.00011207,-42.452,-0.00035107,-3522.3,0.46305
14285,9.3377,3.2727,0,0.00035287,3526.3,0.00011866,0.0023608,0.0001127,-44.761,-0.00035361,-3548.4,0.45472
14286,9.4302,3.2727,0.05,9.4095e-07,9.403,7.2253e-07,5.4288,1.085e-14,8.0616e-08,-7.2253e-07,-5.4289,0.46298
14287,9.4302,3,0,0.00035035,3501,0.00011772,0.0024772,0.00011204,-42.678,-0.00035105,-3522.2,0.46309
14288,9.3377,3.0909,0,0.00035282,3525.8,0.00011867,0.0023102,0.00011264,-45.234,-0.00035357,-3548.2,0.4548
14289,9.4302,3.0909,0.05,9.4101e-07,9.4036,7.2258e-07,5.4292,2.7321e-12,9.8052e-07,-7.2258e-07,-5.4292,0.46306
14290,9.4302,2.8182,0,0.00035037,3501.3,0.00011772,0.0025005,0.00011207,-42.452,-0.00035107,-3522.3,0.46305
14291,9.3377,2.9091,0,0.00035282,3525.8,0.00011867,0.0023102,0.00011264,-45.234,-0.00035357,-3548.2,0.4548
14292,9.4302,2.9091,0.05,9.4101e-07,9.4036,7.2258e-07,5.4292,2.7248e-12,1.4031e-06,-7.2258e-07,-5.4292,0.46306
14293,9.4302,2.6364,0,0.00035043,3501.9,0.00011771,0.0025699,0.00011215,-41.777,-0.00035113,-3522.6,0.46294
14294,9.3377,2.7273,0,0.00035287,3526.3,0.00011866,0.002361,0.0001127,-44.761,-0.00035361,-3548.4,0.45472
14295,9.4302,2.7273,0.05,9.4095e-07,9.403,7.2253e-07,5.4288,8.9821e-13,8.6786e-07,-7.2253e-07,-5.4289,0.46298
14296,9.4302,2.4545,0,0.00035054,3503,0.00011769,0.0026835,0.00011228,-40.657,-0.00035122,-3523.1,0.46276
14297,9.3377,2.5455,0,0.00035296,3527.2,0.00011864,0.0024612,0.00011281,-43.819,-0.00035368,-3548.9,0.45457
14298,9.4302,2.5455,0.05,9.4082e-07,9.4018,7.2243e-07,5.4281,1.7998e-12,3.3312e-07,-7.2244e-07,-5.4281,0.46284
14299,9.4302,2.2727,0,0.00035069,3504.5,0.00011766,0.002841,0.00011246,-39.102,-0.00035134,-3523.9,0.4625
14300,9.3377,2.3636,0,0.00035309,3528.5,0.00011862,0.0026091,0.00011297,-42.415,-0.0003538,-3549.5,0.45435
14301,9.4302,2.3636,0.05,9.4063e-07,9.3998,7.2229e-07,5.427,1.794e-12,-1.9646e-07,-7.2229e-07,-5.427,0.46261
14302,9.4302,2.0909,0,0.00035088,3506.4,0.00011763,0.0030412,0.00011268,-37.122,-0.0003515,-3524.8,0.46217
14303,9.3377,2.1818,0,0.00035327,3530.3,0.00011858,0.0028055,0.00011319,-40.559,-0.00035395,-3550.4,0.45405
14304,9.4302,2.1818,0.05,9.4037e-07,9.3972,7.2209e-07,5.4255,1.7865e-12,-2.5332e-07,-7.2209e-07,-5.4255,0.46232
14305,9.4302,1.9091,0,0.00035112,3508.7,0.00011758,0.0032814,0.00011296,-34.733,-0.00035169,-3526,0.46176
14306,9.3377,2,0,0.00035349,3532.5,0.00011854,0.0030481,0.00011345,-38.266,-0.00035413,-3551.5,0.45368
14307,9.4302,2,0.05,9.4004e-07,9.3939,7.2183e-07,5.4236,2.6843e-12,6.9075e-07,-7.2183e-07,-5.4236,0.46195
14308,9.4302,1.7273,0,0.00035139,3511.4,0.00011754,0.0035593,0.00011328,-31.954,-0.00035192,-3527.3,0.46127
14309,9.3377,1.8182,0,0.00035376,3535.1,0.0001185,0.0033333,0.00011376,-35.554,-0.00035435,-3552.8,0.45323
14310,9.4302,1.8182,0.05,9.3962e-07,9.3898,7.2151e-07,5.4212,3.5966e-12,1.2871e-07,-7.2151e-07,-5.4212,0.4615
14311,9.4302,1.5455,0,0.00035169,3514.5,0.00011748,0.003875,0.00011365,-28.804,-0.00035217,-3528.8,0.46072
14312,9.3377,1.6364,0,0.00035406,3538.1,0.00011844,0.0036609,0.00011412,-32.442,-0.0003546,-3554.2,0.45271
14313,9.4302,1.6364,0.05,9.3913e-07,9.3848,7.2113e-07,5.4182,1.768e-12,1.2766e-07,-7.2113e-07,-5.4184,0.46098
14314,9.4302,1.3636,0,0.00035203,3517.9,0.00011742,0.0042226,0.00011405,-25.307,-0.00035246,-3530.5,0.46008
14315,9.3377,1.4545,0,0.00035439,3541.5,0.00011838,0.004034,0.00011453,-28.955,-0.00035488,-3555.9,0.45211
14316,9.4302,1.4545,0.05,9.3854e-07,9.3789,7.2067e-07,5.4149,2.6717e-12,-7.4541e-08,-7.2068e-07,-5.4149,0.46038
14317,9.4302,1.1818,0,0.0003524,3521.6,0.00011736,0.0046201,0.0001145,-21.491,-0.00035277,-3532.3,0.45938
14318,9.3377,1.2727,0,0.00035476,3545.2,0.00011831,0.0044405,0.00011497,-25.118,-0.00035518,-3557.7,0.45143
14319,9.4302,1.2727,0.05,9.3785e-07,9.372,7.2015e-07,5.4109,1.7737e-12,6.6808e-08,-7.2015e-07,-5.411,0.45971
14320,9.4302,1,0,0.00035281,3525.6,0.00011729,0.0050117,0.00011497,-17.382,-0.0003531,-3534.3,0.45859
14321,9.3377,1.0909,0,0.00035517,3549.2,0.00011824,0.0049361,0.00011545,-20.96,-0.00035552,-3559.7,0.45068
14322,9.4302,1.0909,0.05,9.3706e-07,9.3641,7.1954e-07,5.4063,8.7423e-13,1.9672e-07,-7.1954e-07,-5.4064,0.45897
14323,9.4302,0.81818,0,0.00035324,3529.9,0.00011721,0.0057062,0.00011548,-13.011,-0.00035346,-3536.4,0.45773
14324,9.3377,0.90909,0,0.0003556,3553.6,0.00011817,0.0053577,0.00011597,-16.512,-0.00035588,-3561.8,0.44986
14325,9.4302,0.90909,0.05,9.3614e-07,9.3549,7.1884e-07,5.401,1.7801e-12,1.3364e-07,-7.1884e-07,-5.4011,0.45815
14326,9.4302,0.63636,0,0.00035369,3534.4,0.00011713,0.0056571,0.00011601,-8.4086,-0.00035383,-3538.6,0.4568
14327,9.3377,0.72727,0,0.00035606,3558.1,0.00011808,0.0065612,0.00011651,-11.806,-0.00035626,-3564,0.44896
14328,9.4302,0.72727,0.05,9.3492e-07,9.3428,7.179e-07,5.394,1.79e-12,4.327e-07,-7.179e-07,-5.3941,0.45725
14329,9.4302,0.45455,0,0.00035417,3539.2,0.00011705,0.011892,0.00011658,-3.5778,-0.00035423,-3541,0.45579
14330,9.3377,0.54545,0,0.00035654,3563,0.000118,0.0056231,0.00011708,-6.8757,-0.00035666,-3566.4,0.44798
14331,9.4302,0.54545,0.05,9.3063e-07,9.2998,7.146e-07,5.3692,1.7879e-12,2.2301e-07,-7.1461e-07,-5.3693,0.45628
14332,9.4302,0.27273,0,0.00035474,3544.9,0.00011723,1.9365,0.00011697,-0.018569,-0.0003547,-3544,0.4547
14333,9.3377,0.36364,0,0.00035705,3568.1,0.00011791,0.024295,0.00011768,-1.6987,-0.00035708,-3568.9,0.44692
14334,9.4302,0.36364,0.05,8.8099e-07,8.8038,6.7649e-07,5.0828,3.5523e-12,1.7169e-07,-6.7649e-07,-5.0829,0.45523
14335,9.3377,0.18182,0,0.00035772,3574.8,0.00011844,4.6264,0.00011782,-0.032068,-0.00035764,-3572.5,0.44579
14336,9.4302,0.18182,0.05,1.455e-07,1.454,1.1172e-07,0.83943,1.3609e-12,-1.1354e-05,-1.1173e-07,-0.83948,0.4541
14337,9.4302,0.090909,0,0.0003548,3545.6,0.00011741,3.9229,0.00011689,-0.0090667,-0.00035474,-3543.6,0.45354
14338,9.2453,5.7273,0,0.00036003,3597.8,0.00011889,0.98492,0.00011876,-0.055338,-0.00036001,-3597.3,0.43809
14339,9.1528,5.8182,0,0.00036304,3627.9,0.00012013,3.8413,0.00011961,-0.044491,-0.00036298,-3626,0.42929
14340,9.2453,5.8182,0.05,1.6193e-07,1.6182,1.2434e-07,0.93426,-4.1713e-13,-3.8051e-06,-1.2434e-07,-0.93429,0.43748
14341,9.2453,5.9091,0,0.00036014,3599,0.00011914,3.471,0.00011867,-0.013219,-0.00036008,-3597.2,0.43691
14342,9.2453,5.5455,0,0.00035942,3591.8,0.00011886,0.013717,0.00011819,-5.012,-0.00035951,-3594.3,0.43919
14343,9.1528,5.6364,0,0.00036234,3620.9,0.00011972,0.026282,0.00011932,-2.9463,-0.00036239,-3622.4,0.43044
14344,9.2453,5.6364,0.05,8.8723e-07,8.8662,6.8128e-07,5.1189,9.0503e-13,1.155e-06,-6.8128e-07,-5.1189,0.43862
14345,9.2453,5.3636,0,0.00035891,3586.6,0.00011895,0.006305,0.00011758,-10.29,-0.00035908,-3591.8,0.44021
14346,9.1528,5.4545,0,0.00036179,3615.4,0.00011982,0.006439,0.00011867,-8.5962,-0.00036194,-3619.7,0.43151
14347,9.2453,5.4545,0.05,9.3633e-07,9.3569,7.1899e-07,5.4022,1.8254e-12,1.6506e-06,-7.1899e-07,-5.4022,0.43969
14348,9.2453,5.1818,0,0.00035842,3581.7,0.00011904,0.0061576,0.000117,-15.323,-0.00035868,-3589.4,0.44116
14349,9.1528,5.2727,0,0.00036127,3610.2,0.00011991,0.0072234,0.00011805,-13.984,-0.00036151,-3617.2,0.4325
14350,9.2453,5.2727,0.05,9.4066e-07,9.4001,7.2231e-07,5.4271,8.9147e-13,7.1131e-07,-7.2231e-07,-5.4272,0.44067
14351,9.2453,5,0,0.00035796,3577.1,0.00011912,0.00526,0.00011644,-20.104,-0.0003583,-3587.1,0.44203
14352,9.1528,5.0909,0,0.00036078,3605.3,0.00012,0.0057185,0.00011746,-19.128,-0.0003611,-3614.8,0.43341
14353,9.2453,5.0909,0.05,9.4193e-07,9.4128,7.2328e-07,5.4345,1.8265e-12,9.4227e-07,-7.2329e-07,-5.4345,0.44158
14354,9.2453,4.8182,0,0.00035753,3572.8,0.0001192,0.0047449,0.00011593,-24.601,-0.00035794,-3585,0.44282
14355,9.1528,4.9091,0,0.00036031,3600.6,0.00012009,0.0051515,0.00011689,-23.992,-0.00036071,-3612.5,0.43425
14356,9.2453,4.9091,0.05,9.4289e-07,9.4224,7.2402e-07,5.44,9.5838e-13,6.7257e-07,-7.2402e-07,-5.44,0.44241
14357,9.2453,4.6364,0,0.00035712,3568.8,0.00011927,0.0042442,0.00011544,-28.778,-0.0003576,-3583.1,0.44354
14358,9.1528,4.7273,0,0.00035987,3596.2,0.00012017,0.0045293,0.00011637,-28.54,-0.00036035,-3610.4,0.43501
14359,9.2453,4.7273,0.05,9.4372e-07,9.4306,7.2465e-07,5.4448,9.4501e-13,-4.9882e-09,-7.2466e-07,-5.4448,0.44316
14360,9.2453,4.4545,0,0.00035675,3565.1,0.00011934,0.0038141,0.000115,-32.606,-0.0003573,-3581.3,0.44418
14361,9.1528,4.5455,0,0.00035947,3592.2,0.00012024,0.0040261,0.00011589,-32.737,-0.00036002,-3608.5,0.43569
14362,9.2453,4.5455,0.05,9.4443e-07,9.4378,7.252e-07,5.4489,9.4316e-13,3.7454e-07,-7.2521e-07,-5.4489,0.44384
14363,9.2453,4.2727,0,0.00035642,3561.8,0.0001194,0.00343,0.0001146,-36.055,-0.00035702,-3579.7,0.44474
14364,9.1528,4.3636,0,0.00035911,3588.6,0.00012031,0.0035722,0.00011545,-36.553,-0.00035972,-3606.7,0.43629
14365,9.2453,4.3636,0.05,9.4504e-07,9.4439,7.2567e-07,5.4524,1.8659e-12,2.1827e-07,-7.2567e-07,-5.4525,0.44444
14366,9.2453,4.0909,0,0.00035613,3558.9,0.00011946,0.003095,0.00011425,-39.099,-0.00035678,-3578.2,0.44523
14367,9.1528,4.1818,0,0.00035878,3585.3,0.00012037,0.0031776,0.00011505,-39.959,-0.00035945,-3605.2,0.43682
14368,9.2453,4.1818,0.05,9.4555e-07,9.449,7.2606e-07,5.4554,4.8068e-14,-1.5763e-06,-7.2607e-07,-5.4554,0.44497
14369,9.2453,3.9091,0,0.00035588,3556.4,0.0001195,0.0028077,0.00011395,-41.716,-0.00035657,-3577,0.44564
14370,9.1528,4,0,0.0003585,3582.5,0.00012043,0.0028368,0.00011471,-42.928,-0.00035921,-3603.8,0.43727
14371,9.2453,4,0.05,9.4597e-07,9.4532,7.2639e-07,5.4578,2.7597e-12,-2.201e-07,-7.2639e-07,-5.4578,0.44542
14372,9.2453,3.7273,0,0.00035567,3554.3,0.00011954,0.0025694,0.0001137,-43.884,-0.0003564,-3576,0.44598
14373,9.1528,3.8182,0,0.00035826,3580.1,0.00012047,0.0025492,0.00011442,-45.438,-0.00035901,-3602.6,0.43765
14374,9.2453,3.8182,0.05,9.4631e-07,9.4566,7.2665e-07,5.4597,9.4116e-13,-3.0723e-07,-7.2665e-07,-5.4598,0.44579
14375,9.2453,3.5455,0,0.00035551,3552.7,0.00011957,0.0023827,0.0001135,-45.588,-0.00035626,-3575.2,0.44624
14376,9.1528,3.6364,0,0.00035807,3578.2,0.00012051,0.0023172,0.00011419,-47.469,-0.00035885,-3601.7,0.43795
14377,9.2453,3.6364,0.05,9.4658e-07,9.4592,7.2685e-07,5.4613,9.3683e-13,6.6283e-07,-7.2685e-07,-5.4613,0.44609
14378,9.2453,3.3636,0,0.00035539,3551.5,0.00011959,0.0022481,0.00011336,-46.815,-0.00035617,-3574.7,0.44643
14379,9.1528,3.4545,0,0.00035792,3576.7,0.00012053,0.0021429,0.00011401,-49.007,-0.00035873,-3601,0.43818
14380,9.2453,3.4545,0.05,9.4677e-07,9.4612,7.27e-07,5.4624,2.0009e-14,1.4493e-07,-7.27e-07,-5.4624,0.44632
14381,9.2453,3.1818,0,0.00035532,3550.8,0.0001196,0.0021664,0.00011327,-47.555,-0.00035611,-3574.3,0.44654
14382,9.1528,3.2727,0,0.00035782,3575.8,0.00012055,0.0020249,0.00011389,-50.039,-0.00035865,-3600.5,0.43833
14383,9.2453,3.2727,0.05,9.469e-07,9.4624,7.2709e-07,5.4631,1.8298e-12,-3.8281e-07,-7.2711e-07,-5.4631,0.44647
14384,9.2453,3,0,0.0003553,3550.5,0.00011961,0.0021391,0.00011325,-47.802,-0.00035609,-3574.2,0.44658
14385,9.1528,3.0909,0,0.00035777,3575.3,0.00012056,0.0019655,0.00011383,-50.556,-0.00035861,-3600.3,0.4384
14386,9.2453,3.0909,0.05,9.4696e-07,9.463,7.2714e-07,5.4635,1.8231e-12,3.0903e-08,-7.2715e-07,-5.4635,0.44654
14387,9.2453,2.8182,0,0.00035532,3550.8,0.0001196,0.0021666,0.00011327,-47.555,-0.00035611,-3574.3,0.44654
14388,9.1528,2.9091,0,0.00035777,3575.3,0.00012056,0.0019657,0.00011383,-50.556,-0.00035861,-3600.3,0.4384
14389,9.2453,2.9091,0.05,9.4696e-07,9.463,7.2714e-07,5.4635,1.8148e-12,4.4568e-07,-7.2715e-07,-5.4635,0.44654
14390,9.2453,2.6364,0,0.00035539,3551.5,0.00011959,0.0022483,0.00011336,-46.815,-0.00035617,-3574.7,0.44643
14391,9.1528,2.7273,0,0.00035782,3575.8,0.00012055,0.0020252,0.00011389,-50.039,-0.00035865,-3600.5,0.43833
14392,9.2453,2.7273,0.05,9.469e-07,9.4624,7.2709e-07,5.4631,1.8054e-12,-9.2772e-08,-7.2711e-07,-5.4631,0.44647
14393,9.2453,2.4545,0,0.00035551,3552.7,0.00011957,0.0023827,0.0001135,-45.588,-0.00035626,-3575.2,0.44624
14394,9.1528,2.5455,0,0.00035792,3576.7,0.00012053,0.002143,0.00011401,-49.007,-0.00035873,-3601,0.43818
14395,9.2453,2.5455,0.05,9.4677e-07,9.4612,7.27e-07,5.4624,8.8736e-13,-1.606e-07,-7.2701e-07,-5.4624,0.44632
14396,9.2453,2.2727,0,0.00035567,3554.3,0.00011954,0.0025695,0.0001137,-43.884,-0.0003564,-3576,0.44598
14397,9.1528,2.3636,0,0.00035807,3578.2,0.00012051,0.0023173,0.00011419,-47.469,-0.00035885,-3601.7,0.43795
14398,9.2453,2.3636,0.05,9.4658e-07,9.4592,7.2685e-07,5.4613,8.8199e-13,-2.1637e-07,-7.2686e-07,-5.4613,0.44609
14399,9.2453,2.0909,0,0.00035588,3556.4,0.0001195,0.0028083,0.00011395,-41.716,-0.00035657,-3577,0.44564
14400,9.1528,2.1818,0,0.00035826,3580.1,0.00012047,0.0025495,0.00011442,-45.438,-0.00035901,-3602.6,0.43765
14401,9.2453,2.1818,0.05,9.4631e-07,9.4566,7.2665e-07,5.4597,8.738e-13,-8.1847e-07,-7.2665e-07,-5.4598,0.44579
14402,9.2453,1.9091,0,0.00035613,3558.9,0.00011946,0.0030958,0.00011425,-39.099,-0.00035678,-3578.2,0.44523
14403,9.1528,2,0,0.0003585,3582.5,0.00012043,0.0028375,0.00011471,-42.928,-0.00035921,-3603.8,0.43727
14404,9.2453,2,0.05,9.4597e-07,9.4532,7.2639e-07,5.4578,2.6903e-12,-3.9705e-07,-7.2639e-07,-5.4579,0.44542
14405,9.2453,1.7273,0,0.00035642,3561.8,0.0001194,0.0034303,0.0001146,-36.055,-0.00035702,-3579.7,0.44474
14406,9.1528,1.8182,0,0.00035878,3585.3,0.00012037,0.0031781,0.00011505,-39.959,-0.00035945,-3605.2,0.43682
14407,9.2453,1.8182,0.05,9.4555e-07,9.449,7.2606e-07,5.4554,8.5767e-13,-3.4779e-07,-7.2607e-07,-5.4554,0.44497
14408,9.2453,1.5455,0,0.00035675,3565.1,0.00011934,0.0038145,0.000115,-32.606,-0.0003573,-3581.3,0.44418
14409,9.1528,1.6364,0,0.00035911,3588.6,0.00012031,0.0035728,0.00011545,-36.553,-0.00035972,-3606.7,0.43629
14410,9.2453,1.6364,0.05,9.4504e-07,9.4439,7.2567e-07,5.4524,2.6683e-12,-3.5066e-07,-7.2567e-07,-5.4525,0.44444
14411,9.2453,1.3636,0,0.00035712,3568.8,0.00011927,0.0042448,0.00011544,-28.778,-0.0003576,-3583.1,0.44354
14412,9.1528,1.4545,0,0.00035947,3592.2,0.00012024,0.0040265,0.00011589,-32.737,-0.00036002,-3608.5,0.43569
14413,9.2453,1.4545,0.05,9.4443e-07,9.4378,7.252e-07,5.4489,2.6685e-12,-4.2835e-07,-7.252e-07,-5.4489,0.44384
14414,9.2453,1.1818,0,0.00035753,3572.8,0.0001192,0.0047454,0.00011593,-24.601,-0.00035794,-3585,0.44282
14415,9.1528,1.2727,0,0.00035987,3596.2,0.00012017,0.0045301,0.00011637,-28.54,-0.00036035,-3610.4,0.43501
14416,9.2453,1.2727,0.05,9.4372e-07,9.4306,7.2465e-07,5.4447,1.736e-12,-1.9191e-07,-7.2466e-07,-5.4448,0.44316
14417,9.2453,1,0,0.00035796,3577.1,0.00011912,0.005261,0.00011644,-20.105,-0.0003583,-3587.1,0.44203
14418,9.1528,1.0909,0,0.00036031,3600.6,0.00012009,0.005152,0.00011689,-23.992,-0.00036071,-3612.5,0.43425
14419,9.2453,1.0909,0.05,9.4289e-07,9.4224,7.2402e-07,5.44,2.6818e-12,-1.5864e-07,-7.2402e-07,-5.44,0.44241
14420,9.2453,0.81818,0,0.00035842,3581.7,0.00011904,0.006159,0.000117,-15.323,-0.00035868,-3589.4,0.44116
14421,9.1528,0.90909,0,0.00036078,3605.3,0.00012,0.00572,0.00011746,-19.128,-0.0003611,-3614.8,0.43341
14422,9.2453,0.90909,0.05,9.4193e-07,9.4128,7.2328e-07,5.4345,1.7179e-12,1.9704e-08,-7.2329e-07,-5.4345,0.44158
14423,9.2453,0.63636,0,0.00035891,3586.6,0.00011895,0.0063058,0.00011758,-10.29,-0.00035908,-3591.8,0.44021
14424,9.1528,0.72727,0,0.00036127,3610.2,0.00011991,0.0072248,0.00011805,-13.984,-0.00036151,-3617.2,0.4325
14425,9.2453,0.72727,0.05,9.4066e-07,9.4001,7.223e-07,5.4271,2.6458e-12,-1.2135e-08,-7.2231e-07,-5.4272,0.44067
14426,9.2453,0.45455,0,0.00035942,3591.8,0.00011886,0.013717,0.00011819,-5.012,-0.00035951,-3594.3,0.43919
14427,9.1528,0.54545,0,0.00036179,3615.4,0.00011982,0.0064394,0.00011867,-8.5962,-0.00036194,-3619.7,0.43151
14428,9.2453,0.54545,0.05,9.3633e-07,9.3569,7.1899e-07,5.4022,2.6859e-12,4.5255e-07,-7.1899e-07,-5.4022,0.43969
14429,9.2453,0.27273,0,0.00036003,3597.8,0.00011889,0.98489,0.00011876,-0.055338,-0.00036001,-3597.3,0.43809
14430,9.1528,0.36364,0,0.00036234,3620.9,0.00011972,0.026283,0.00011932,-2.9463,-0.00036239,-3622.4,0.43044
14431,9.2453,0.36364,0.05,8.8723e-07,8.8662,6.8128e-07,5.1188,1.7922e-12,-6.3569e-09,-6.8128e-07,-5.1189,0.43862
14432,9.1528,0.18182,0,0.00036304,3627.9,0.00012013,3.8413,0.00011961,-0.04449,-0.00036298,-3626,0.42929
14433,9.2453,0.18182,0.05,1.6193e-07,1.6182,1.2434e-07,0.93425,1.1348e-12,-8.6888e-06,-1.2435e-07,-0.93431,0.43748
14434,9.2453,0.090909,0,0.00036014,3599,0.00011914,3.471,0.00011867,-0.013218,-0.00036008,-3597.2,0.43691
14435,9.0604,5.7273,0,0.00036534,3650.9,0.0001206,0.22586,0.00012052,-0.34895,-0.00036535,-3651,0.42173
14436,8.9679,5.8182,0,0.00036839,3681.3,0.00012182,3.0165,0.00012141,-0.065441,-0.00036834,-3679.9,0.41305
14437,9.0604,5.8182,0.05,1.7985e-07,1.7972,1.381e-07,1.0376,1.6494e-13,-2.4573e-06,-1.381e-07,-1.0376,0.42111
14438,9.0604,5.9091,0,0.00036551,3652.6,0.00012087,2.9948,0.00012047,-0.019641,-0.00036546,-3651.1,0.42053
14439,9.0604,5.5455,0,0.0003647,3644.5,0.00012068,0.015694,0.0001198,-6.5463,-0.00036481,-3647.8,0.42284
14440,8.9679,5.6364,0,0.00036765,3673.9,0.00012154,0.029091,0.00012096,-4.28,-0.00036772,-3676.1,0.41421
14441,9.0604,5.6364,0.05,8.9379e-07,8.9317,6.8632e-07,5.1567,9.1721e-13,9.9964e-07,-6.8632e-07,-5.1567,0.42227
14442,9.0604,5.3636,0,0.00036415,3639,0.00012078,0.0070621,0.00011914,-12.306,-0.00036436,-3645.1,0.42387
14443,8.9679,5.4545,0,0.00036706,3668,0.00012165,0.0073515,0.00012026,-10.44,-0.00036723,-3673.2,0.41529
14444,9.0604,5.4545,0.05,9.4229e-07,9.4164,7.2356e-07,5.4366,9.3761e-13,1.7787e-06,-7.2356e-07,-5.4366,0.42334
14445,9.0604,5.1818,0,0.00036362,3633.7,0.00012088,0.0066992,0.00011851,-17.804,-0.00036392,-3642.6,0.42483
14446,8.9679,5.2727,0,0.0003665,3662.4,0.00012175,0.0079815,0.00011958,-16.321,-0.00036677,-3670.6,0.41629
14447,9.0604,5.2727,0.05,9.4664e-07,9.4598,7.269e-07,5.4616,1.3934e-14,7.5485e-07,-7.269e-07,-5.4616,0.42434
14448,9.0604,5,0,0.00036312,3628.7,0.00012097,0.0055727,0.0001179,-23.029,-0.00036351,-3640.2,0.42571
14449,8.9679,5.0909,0,0.00036596,3657.1,0.00012185,0.0061456,0.00011893,-21.939,-0.00036633,-3668,0.41721
14450,9.0604,5.0909,0.05,9.4796e-07,9.4731,7.2792e-07,5.4693,1.4073e-14,4.9194e-07,-7.2792e-07,-5.4693,0.42525
14451,9.0604,4.8182,0,0.00036265,3624,0.00012106,0.0049152,0.00011734,-27.944,-0.00036312,-3637.9,0.42651
14452,8.9679,4.9091,0,0.00036546,3652.1,0.00012195,0.005413,0.00011832,-27.251,-0.00036592,-3665.6,0.41806
14453,9.0604,4.9091,0.05,9.4897e-07,9.4831,7.2869e-07,5.4751,9.3436e-13,5.9885e-07,-7.2869e-07,-5.4751,0.42609
14454,9.0604,4.6364,0,0.00036222,3619.7,0.00012114,0.0042978,0.00011681,-32.511,-0.00036276,-3635.8,0.42724
14455,8.9679,4.7273,0,0.00036499,3647.4,0.00012204,0.0046489,0.00011775,-32.22,-0.00036553,-3663.4,0.41882
14456,9.0604,4.7273,0.05,9.4983e-07,9.4917,7.2935e-07,5.48,1.8529e-12,-2.4416e-07,-7.2935e-07,-5.4801,0.42686
14457,9.0604,4.4545,0,0.00036182,3615.7,0.00012121,0.0037742,0.00011633,-36.697,-0.00036243,-3633.9,0.42788
14458,8.9679,4.5455,0,0.00036456,3643,0.00012212,0.0040366,0.00011722,-36.808,-0.00036517,-3661.3,0.41951
14459,9.0604,4.5455,0.05,9.5057e-07,9.4991,7.2992e-07,5.4843,1.863e-12,4.1445e-07,-7.2992e-07,-5.4843,0.42754
14460,9.0604,4.2727,0,0.00036146,3612.2,0.00012128,0.0033117,0.0001159,-40.469,-0.00036214,-3632.2,0.42845
14461,8.9679,4.3636,0,0.00036416,3639.1,0.0001222,0.0034918,0.00011674,-40.979,-0.00036484,-3659.4,0.42012
14462,9.0604,4.3636,0.05,9.5119e-07,9.5054,7.304e-07,5.4879,4.4702e-14,-7.2418e-07,-7.304e-07,-5.488,0.42815
14463,9.0604,4.0909,0,0.00036115,3609,0.00012134,0.0029124,0.00011551,-43.799,-0.00036187,-3630.7,0.42894
14464,8.9679,4.1818,0,0.00036381,3635.6,0.00012227,0.0030221,0.00011632,-44.702,-0.00036455,-3657.7,0.42066
14465,9.0604,4.1818,0.05,9.5172e-07,9.5106,7.308e-07,5.4909,1.865e-12,-1.0956e-06,-7.308e-07,-5.4909,0.42868
14466,9.0604,3.9091,0,0.00036088,3606.3,0.00012139,0.002572,0.00011518,-46.661,-0.00036165,-3629.4,0.42936
14467,8.9679,4,0,0.0003635,3632.5,0.00012232,0.0026191,0.00011594,-47.948,-0.0003643,-3656.3,0.42111
14468,9.0604,4,0.05,9.5215e-07,9.5149,7.3113e-07,5.4934,2.7758e-12,-1.6256e-06,-7.3113e-07,-5.4934,0.42914
14469,9.0604,3.7273,0,0.00036065,3604,0.00012144,0.002291,0.00011491,-49.034,-0.00036146,-3628.3,0.4297
14470,8.9679,3.8182,0,0.00036325,3630,0.00012237,0.002281,0.00011563,-50.693,-0.00036408,-3655,0.4215
14471,9.0604,3.8182,0.05,9.5249e-07,9.5183,7.3139e-07,5.4954,1.8562e-12,-6.2566e-07,-7.3139e-07,-5.4954,0.42952
14472,9.0604,3.5455,0,0.00036048,3602.3,0.00012147,0.0020716,0.0001147,-50.899,-0.00036132,-3627.5,0.42997
14473,8.9679,3.6364,0,0.00036304,3627.9,0.00012241,0.0020093,0.00011537,-52.915,-0.00036391,-3654,0.4218
14474,9.0604,3.6364,0.05,9.5275e-07,9.521,7.316e-07,5.4969,9.3965e-13,2.0401e-07,-7.316e-07,-5.4969,0.42982
14475,9.0604,3.3636,0,0.00036035,3601,0.00012149,0.0019141,0.00011454,-52.241,-0.00036121,-3626.8,0.43016
14476,8.9679,3.4545,0,0.00036288,3626.3,0.00012244,0.0018055,0.00011518,-54.596,-0.00036378,-3653.3,0.42203
14477,9.0604,3.4545,0.05,9.5295e-07,9.5229,7.3174e-07,5.498,1.8393e-12,1.5921e-07,-7.3175e-07,-5.4981,0.43005
14478,9.0604,3.1818,0,0.00036027,3600.2,0.00012151,0.0018185,0.00011445,-53.051,-0.00036115,-3626.5,0.43027
14479,8.9679,3.2727,0,0.00036277,3625.2,0.00012246,0.0016681,0.00011505,-55.725,-0.00036369,-3652.8,0.42218
14480,9.0604,3.2727,0.05,9.5307e-07,9.5241,7.3184e-07,5.4987,1.3551e-14,-3.7584e-07,-7.3184e-07,-5.4988,0.4302
14481,9.0604,3,0,0.00036025,3600,0.00012151,0.0017866,0.00011442,-53.321,-0.00036113,-3626.4,0.43031
14482,8.9679,3.0909,0,0.00036272,3624.7,0.00012248,0.001599,0.00011498,-56.291,-0.00036364,-3652.5,0.42226
14483,9.0604,3.0909,0.05,9.5313e-07,9.5248,7.3189e-07,5.4991,1.8234e-12,-4.4355e-07,-7.3189e-07,-5.4992,0.43027
14484,9.0604,2.8182,0,0.00036027,3600.2,0.00012151,0.0018187,0.00011445,-53.051,-0.00036115,-3626.5,0.43027
14485,8.9679,2.9091,0,0.00036272,3624.7,0.00012248,0.001599,0.00011498,-56.291,-0.00036364,-3652.5,0.42226
14486,9.0604,2.9091,0.05,9.5313e-07,9.5248,7.3189e-07,5.4991,1.8143e-12,-3.5267e-08,-7.3189e-07,-5.4992,0.43027
14487,9.0604,2.6364,0,0.00036035,3601,0.00012149,0.0019142,0.00011454,-52.241,-0.00036121,-3626.8,0.43016
14488,8.9679,2.7273,0,0.00036277,3625.2,0.00012246,0.0016682,0.00011505,-55.725,-0.00036369,-3652.8,0.42218
14489,9.0604,2.7273,0.05,9.5307e-07,9.5241,7.3184e-07,5.4987,-1.3471e-14,-1.0536e-07,-7.3184e-07,-5.4988,0.4302
14490,9.0604,2.4545,0,0.00036048,3602.3,0.00012147,0.0020718,0.0001147,-50.899,-0.00036132,-3627.5,0.42997
14491,8.9679,2.5455,0,0.00036288,3626.3,0.00012244,0.0018058,0.00011518,-54.596,-0.00036378,-3653.3,0.42203
14492,9.0604,2.5455,0.05,9.5295e-07,9.5229,7.3174e-07,5.498,2.7042e-12,-1.6989e-07,-7.3175e-07,-5.4981,0.43005
14493,9.0604,2.2727,0,0.00036065,3604,0.00012144,0.0022913,0.00011491,-49.034,-0.00036146,-3628.3,0.4297
14494,8.9679,2.3636,0,0.00036304,3627.9,0.00012241,0.0020095,0.00011537,-52.915,-0.00036391,-3654,0.4218
14495,9.0604,2.3636,0.05,9.5275e-07,9.521,7.316e-07,5.4969,1.7872e-12,-2.4752e-07,-7.316e-07,-5.497,0.42982
14496,9.0604,2.0909,0,0.00036088,3606.3,0.00012139,0.0025724,0.00011518,-46.661,-0.00036165,-3629.4,0.42936
14497,8.9679,2.1818,0,0.00036325,3630,0.00012237,0.0022813,0.00011563,-50.693,-0.00036408,-3655,0.4215
14498,9.0604,2.1818,0.05,9.5249e-07,9.5183,7.3139e-07,5.4954,1.7782e-12,-2.3788e-07,-7.3139e-07,-5.4954,0.42952
14499,9.0604,1.9091,0,0.00036115,3609,0.00012134,0.0029129,0.00011551,-43.799,-0.00036187,-3630.7,0.42894
14500,8.9679,2,0,0.0003635,3632.5,0.00012232,0.0026196,0.00011594,-47.948,-0.0003643,-3656.3,0.42111
14501,9.0604,2,0.05,9.5215e-07,9.5149,7.3113e-07,5.4934,2.6811e-12,-4.0817e-07,-7.3113e-07,-5.4935,0.42914
14502,9.0604,1.7273,0,0.00036146,3612.2,0.00012128,0.0033125,0.0001159,-40.469,-0.00036214,-3632.2,0.42845
14503,8.9679,1.8182,0,0.00036381,3635.6,0.00012227,0.0030226,0.00011632,-44.702,-0.00036455,-3657.7,0.42066
14504,9.0604,1.8182,0.05,9.5172e-07,9.5106,7.308e-07,5.4909,2.6718e-12,-3.901e-07,-7.308e-07,-5.491,0.42868
14505,9.0604,1.5455,0,0.00036182,3615.7,0.00012121,0.0037748,0.00011633,-36.697,-0.00036243,-3633.9,0.42788
14506,8.9679,1.6364,0,0.00036416,3639.1,0.0001222,0.0034922,0.00011674,-40.979,-0.00036484,-3659.4,0.42012
14507,9.0604,1.6364,0.05,9.5119e-07,9.5054,7.304e-07,5.4879,1.7611e-12,-4.092e-07,-7.304e-07,-5.488,0.42815
14508,9.0604,1.3636,0,0.00036222,3619.7,0.00012114,0.0042983,0.00011681,-32.511,-0.00036276,-3635.8,0.42723
14509,8.9679,1.4545,0,0.00036456,3643,0.00012212,0.0040372,0.00011722,-36.808,-0.00036517,-3661.3,0.41951
14510,9.0604,1.4545,0.05,9.5057e-07,9.4991,7.2992e-07,5.4843,2.671e-12,-5.951e-07,-7.2992e-07,-5.4843,0.42754
14511,9.0604,1.1818,0,0.00036265,3624,0.00012106,0.004916,0.00011734,-27.944,-0.00036312,-3637.9,0.42651
14512,8.9679,1.2727,0,0.00036499,3647.4,0.00012204,0.0046499,0.00011775,-32.22,-0.00036553,-3663.4,0.41882
14513,9.0604,1.2727,0.05,9.4983e-07,9.4917,7.2935e-07,5.48,2.6787e-12,-5.568e-07,-7.2935e-07,-5.4801,0.42686
14514,9.0604,1,0,0.00036312,3628.7,0.00012097,0.0055736,0.0001179,-23.029,-0.00036351,-3640.2,0.42571
14515,8.9679,1.0909,0,0.00036546,3652.1,0.00012195,0.0054138,0.00011832,-27.251,-0.00036592,-3665.6,0.41806
14516,9.0604,1.0909,0.05,9.4897e-07,9.4831,7.2869e-07,5.4751,8.1906e-13,-3.6314e-07,-7.2869e-07,-5.4751,0.42609
14517,9.0604,0.81818,0,0.00036362,3633.7,0.00012088,0.0067006,0.00011851,-17.804,-0.00036392,-3642.6,0.42483
14518,8.9679,0.90909,0,0.00036596,3657.1,0.00012185,0.0061469,0.00011893,-21.939,-0.00036633,-3668,0.41721
14519,9.0604,0.90909,0.05,9.4796e-07,9.4731,7.2792e-07,5.4693,1.7165e-12,-2.903e-07,-7.2792e-07,-5.4693,0.42525
14520,9.0604,0.63636,0,0.00036415,3639,0.00012078,0.0070631,0.00011914,-12.306,-0.00036436,-3645.1,0.42387
14521,8.9679,0.72727,0,0.0003665,3662.4,0.00012175,0.0079827,0.00011958,-16.321,-0.00036677,-3670.6,0.41629
14522,9.0604,0.72727,0.05,9.4664e-07,9.4598,7.269e-07,5.4616,1.7606e-12,2.0853e-07,-7.269e-07,-5.4616,0.42434
14523,9.0604,0.45455,0,0.0003647,3644.5,0.00012068,0.015695,0.0001198,-6.5464,-0.00036481,-3647.8,0.42284
14524,8.9679,0.54545,0,0.00036706,3668,0.00012165,0.0073518,0.00012026,-10.44,-0.00036723,-3673.2,0.41529
14525,9.0604,0.54545,0.05,9.4229e-07,9.4164,7.2356e-07,5.4366,2.643e-12,1.1764e-07,-7.2357e-07,-5.4366,0.42334
14526,9.0604,0.27273,0,0.00036534,3650.9,0.0001206,0.22585,0.00012052,-0.34897,-0.00036535,-3651,0.42173
14527,8.9679,0.36364,0,0.00036765,3673.9,0.00012154,0.029092,0.00012096,-4.28,-0.00036772,-3676.1,0.41421
14528,9.0604,0.36364,0.05,8.9379e-07,8.9317,6.8632e-07,5.1567,3.5232e-12,3.3299e-07,-6.8632e-07,-5.1568,0.42227
14529,8.9679,0.18182,0,0.00036839,3681.3,0.00012182,3.0165,0.00012141,-0.06544,-0.00036834,-3679.9,0.41305
14530,9.0604,0.18182,0.05,1.7985e-07,1.7972,1.381e-07,1.0376,4.9486e-13,-1.3918e-05,-1.381e-07,-1.0377,0.42111
14531,9.0604,0.090909,0,0.00036551,3652.6,0.00012087,2.9948,0.00012047,-0.01964,-0.00036546,-3651.1,0.42053
14532,8.8755,5.7273,0,0.00037068,3704.3,0.0001224,0.082906,0.00012221,-1.3278,-0.0003707,-3704.9,0.40561
14533,8.783,5.8182,0,0.00037376,3735,0.00012353,2.1597,0.00012322,-0.10587,-0.00037372,-3734,0.39705
14534,8.8755,5.8182,0.05,1.9936e-07,1.9922,1.5308e-07,1.1502,-1.2092e-12,1.2922e-06,-1.5308e-07,-1.1502,0.40499
14535,8.8755,5.9091,0,0.00037091,3706.5,0.00012261,2.4942,0.00012227,-0.030029,-0.00037086,-3705.3,0.4044
14536,8.8755,5.5455,0,0.00037,3697.4,0.00012251,0.017825,0.00012141,-8.189,-0.00037014,-3701.5,0.40674
14537,8.783,5.6364,0,0.00037298,3727.2,0.00012337,0.032353,0.0001226,-5.7061,-0.00037307,-3730,0.39822
14538,8.8755,5.6364,0.05,9.007e-07,9.0008,6.9163e-07,5.1966,-2.7049e-14,9.6607e-07,-6.9163e-07,-5.1966,0.40616
14539,8.8755,5.3636,0,0.0003694,3691.5,0.00012262,0.007908,0.00012069,-14.47,-0.00036965,-3698.7,0.40778
14540,8.783,5.4545,0,0.00037234,3720.9,0.00012349,0.0083562,0.00012183,-12.416,-0.00037255,-3727,0.39932
14541,8.8755,5.4545,0.05,9.4852e-07,9.4787,7.2835e-07,5.4725,9.4002e-13,2.0135e-06,-7.2835e-07,-5.4725,0.40724
14542,8.8755,5.1818,0,0.00036884,3685.8,0.00012273,0.0073115,0.00012,-20.47,-0.00036918,-3696,0.40875
14543,8.783,5.2727,0,0.00037174,3714.8,0.00012361,0.0088288,0.0001211,-18.831,-0.00037206,-3724.2,0.40033
14544,8.8755,5.2727,0.05,9.5289e-07,9.5223,7.317e-07,5.4977,3.6646e-12,9.1496e-07,-7.317e-07,-5.4977,0.40825
14545,8.8755,5,0,0.0003683,3680.4,0.00012283,0.0059319,0.00011935,-26.174,-0.00036874,-3693.4,0.40964
14546,8.783,5.0909,0,0.00037116,3709.1,0.00012372,0.0066321,0.0001204,-24.96,-0.00037158,-3721.5,0.40126
14547,8.8755,5.0909,0.05,9.5427e-07,9.5361,7.3276e-07,5.5057,5.0278e-14,8.9599e-07,-7.3276e-07,-5.5057,0.40918
14548,8.8755,4.8182,0,0.00036779,3675.4,0.00012293,0.0051158,0.00011873,-31.54,-0.00036832,-3691,0.41045
14549,8.783,4.9091,0,0.00037062,3703.6,0.00012383,0.0057167,0.00011973,-30.758,-0.00037113,-3718.9,0.40212
14550,8.8755,4.9091,0.05,9.5532e-07,9.5466,7.3356e-07,5.5117,9.3484e-13,3.9887e-07,-7.3357e-07,-5.5117,0.41003
14551,8.8755,4.6364,0,0.00036732,3670.7,0.00012302,0.0043674,0.00011816,-36.529,-0.00036793,-3688.8,0.41118
14552,8.783,4.7273,0,0.00037011,3698.6,0.00012393,0.0047949,0.00011911,-36.182,-0.00037071,-3716.5,0.40289
14553,8.8755,4.7273,0.05,9.5621e-07,9.5555,7.3425e-07,5.5169,1.8556e-12,-2.265e-07,-7.3425e-07,-5.5169,0.4108
14554,8.8755,4.4545,0,0.00036689,3666.4,0.00012311,0.0037393,0.00011763,-41.101,-0.00036757,-3686.8,0.41183
14555,8.783,4.5455,0,0.00036964,3693.9,0.00012402,0.004061,0.00011853,-41.191,-0.00037033,-3714.3,0.40359
14556,8.8755,4.5455,0.05,9.5697e-07,9.5631,7.3484e-07,5.5212,1.8805e-12,7.1233e-07,-7.3484e-07,-5.5213,0.41149
14557,8.8755,4.2727,0,0.00036651,3662.5,0.00012318,0.0031903,0.00011716,-45.223,-0.00036725,-3684.9,0.41241
14558,8.783,4.3636,0,0.00036922,3689.6,0.0001241,0.0034155,0.00011801,-45.746,-0.00036997,-3712.3,0.4042
14559,8.8755,4.3636,0.05,9.5761e-07,9.5695,7.3533e-07,5.525,9.577e-13,-2.5527e-07,-7.3533e-07,-5.525,0.41211
14560,8.8755,4.0909,0,0.00036617,3659.1,0.00012325,0.0027188,0.00011674,-48.862,-0.00036697,-3683.3,0.41291
14561,8.783,4.1818,0,0.00036884,3685.8,0.00012418,0.0028624,0.00011755,-49.813,-0.00036966,-3710.5,0.40474
14562,8.8755,4.1818,0.05,9.5814e-07,9.5748,7.3573e-07,5.528,1.8496e-12,-2.5052e-07,-7.3574e-07,-5.5281,0.41264
14563,8.8755,3.9091,0,0.00036587,3656.2,0.0001233,0.0023192,0.00011638,-51.99,-0.00036673,-3681.9,0.41333
14564,8.783,4,0,0.00036851,3682.5,0.00012424,0.0023906,0.00011714,-53.359,-0.00036939,-3708.9,0.4052
14565,8.8755,4,0.05,9.5858e-07,9.5792,7.3607e-07,5.5305,1.8566e-12,3.4203e-07,-7.3607e-07,-5.5305,0.4131
14566,8.8755,3.7273,0,0.00036563,3653.8,0.00012335,0.0019911,0.00011609,-54.584,-0.00036653,-3680.8,0.41367
14567,8.783,3.8182,0,0.00036823,3679.7,0.0001243,0.0019965,0.0001168,-56.358,-0.00036915,-3707.6,0.40559
14568,8.8755,3.8182,0.05,9.5892e-07,9.5826,7.3633e-07,5.5325,3.6762e-12,-2.1753e-07,-7.3633e-07,-5.5325,0.41349
14569,8.8755,3.5455,0,0.00036544,3651.9,0.00012339,0.0017355,0.00011585,-56.622,-0.00036637,-3679.8,0.41394
14570,8.783,3.6364,0,0.000368,3677.5,0.00012434,0.001681,0.00011652,-58.786,-0.00036897,-3706.5,0.4059
14571,8.8755,3.6364,0.05,9.5918e-07,9.5852,7.3653e-07,5.534,1.8545e-12,2.2609e-07,-7.3653e-07,-5.5341,0.41379
14572,8.8755,3.3636,0,0.0003653,3650.5,0.00012342,0.0015522,0.00011568,-58.09,-0.00036625,-3679.2,0.41413
14573,8.783,3.4545,0,0.00036783,3675.8,0.00012437,0.0014446,0.00011631,-60.624,-0.00036882,-3705.7,0.40613
14574,8.8755,3.4545,0.05,9.5937e-07,9.5871,7.3668e-07,5.5351,9.3546e-13,1.6267e-07,-7.3668e-07,-5.5352,0.41402
14575,8.8755,3.1818,0,0.00036522,3649.7,0.00012343,0.0014414,0.00011558,-58.975,-0.00036619,-3678.8,0.41425
14576,8.783,3.2727,0,0.00036772,3674.6,0.0001244,0.0012859,0.00011616,-61.858,-0.00036873,-3705.2,0.40628
14577,8.8755,3.2727,0.05,9.595e-07,9.5883,7.3677e-07,5.5358,9.2408e-13,1.178e-07,-7.3678e-07,-5.5358,0.41417
14578,8.8755,3,0,0.00036519,3649.4,0.00012344,0.0014043,0.00011555,-59.271,-0.00036616,-3678.7,0.41429
14579,8.783,3.0909,0,0.00036766,3674,0.00012441,0.0012058,0.00011609,-62.477,-0.00036868,-3704.9,0.40636
14580,8.8755,3.0909,0.05,9.5956e-07,9.589,7.3682e-07,5.5362,1.824e-12,3.7971e-08,-7.3682e-07,-5.5362,0.41425
14581,8.8755,2.8182,0,0.00036522,3649.7,0.00012343,0.0014414,0.00011558,-58.975,-0.00036619,-3678.8,0.41425
14582,8.783,2.9091,0,0.00036766,3674,0.00012441,0.0012058,0.00011609,-62.477,-0.00036868,-3704.9,0.40636
14583,8.8755,2.9091,0.05,9.5956e-07,9.589,7.3682e-07,5.5362,1.8138e-12,-3.939e-08,-7.3682e-07,-5.5362,0.41425
14584,8.8755,2.6364,0,0.0003653,3650.5,0.00012342,0.0015524,0.00011568,-58.09,-0.00036625,-3679.2,0.41413
14585,8.783,2.7273,0,0.00036772,3674.6,0.0001244,0.0012857,0.00011616,-61.858,-0.00036873,-3705.2,0.40628
14586,8.8755,2.7273,0.05,9.595e-07,9.5883,7.3677e-07,5.5358,8.9298e-13,-1.1219e-07,-7.3678e-07,-5.5358,0.41417
14587,8.8755,2.4545,0,0.00036544,3651.9,0.00012339,0.0017358,0.00011585,-56.622,-0.00036637,-3679.8,0.41394
14588,8.783,2.5455,0,0.00036783,3675.8,0.00012437,0.0014449,0.00011631,-60.624,-0.00036882,-3705.7,0.40613
14589,8.8755,2.5455,0.05,9.5937e-07,9.5871,7.3668e-07,5.5351,8.834e-13,2.8619e-07,-7.3668e-07,-5.5352,0.41402
14590,8.8755,2.2727,0,0.00036563,3653.8,0.00012335,0.0019914,0.00011609,-54.584,-0.00036653,-3680.8,0.41367
14591,8.783,2.3636,0,0.000368,3677.5,0.00012434,0.0016813,0.00011652,-58.786,-0.00036897,-3706.5,0.4059
14592,8.8755,2.3636,0.05,9.5918e-07,9.5852,7.3653e-07,5.534,2.6927e-12,-2.8615e-07,-7.3653e-07,-5.5341,0.41379
14593,8.8755,2.0909,0,0.00036587,3656.2,0.0001233,0.0023197,0.00011638,-51.99,-0.00036673,-3681.9,0.41333
14594,8.783,2.1818,0,0.00036823,3679.7,0.0001243,0.001997,0.0001168,-56.358,-0.00036915,-3707.6,0.40559
14595,8.8755,2.1818,0.05,9.5892e-07,9.5826,7.3633e-07,5.5325,3.5903e-12,-3.3082e-07,-7.3633e-07,-5.5325,0.41349
14596,8.8755,1.9091,0,0.00036617,3659.1,0.00012325,0.0027193,0.00011674,-48.862,-0.00036697,-3683.3,0.41291
14597,8.783,2,0,0.00036851,3682.5,0.00012424,0.0023911,0.00011714,-53.359,-0.00036939,-3708.9,0.4052
14598,8.8755,2,0.05,9.5858e-07,9.5792,7.3606e-07,5.5305,2.6691e-12,-5.2444e-07,-7.3607e-07,-5.5306,0.4131
14599,8.8755,1.7273,0,0.00036651,3662.5,0.00012318,0.0031904,0.00011716,-45.223,-0.00036725,-3684.9,0.41241
14600,8.783,1.8182,0,0.00036884,3685.8,0.00012418,0.0028629,0.00011755,-49.813,-0.00036966,-3710.5,0.40474
14601,8.8755,1.8182,0.05,9.5814e-07,9.5748,7.3573e-07,5.528,1.7351e-12,-6.2296e-07,-7.3574e-07,-5.5281,0.41264
14602,8.8755,1.5455,0,0.00036689,3666.4,0.00012311,0.0037397,0.00011763,-41.101,-0.00036757,-3686.8,0.41183
14603,8.783,1.6364,0,0.00036922,3689.6,0.0001241,0.0034157,0.00011801,-45.746,-0.00036997,-3712.3,0.4042
14604,8.8755,1.6364,0.05,9.5761e-07,9.5695,7.3533e-07,5.5249,2.6498e-12,-5.7952e-07,-7.3533e-07,-5.525,0.41211
14605,8.8755,1.3636,0,0.00036732,3670.7,0.00012302,0.0043684,0.00011816,-36.529,-0.00036793,-3688.8,0.41118
14606,8.783,1.4545,0,0.00036964,3693.9,0.00012402,0.0040616,0.00011853,-41.191,-0.00037033,-3714.3,0.40359
14607,8.8755,1.4545,0.05,9.5697e-07,9.5631,7.3484e-07,5.5212,2.6511e-12,-8.9656e-07,-7.3483e-07,-5.5213,0.41149
14608,8.8755,1.1818,0,0.00036779,3675.4,0.00012293,0.0051168,0.00011873,-31.54,-0.00036832,-3691,0.41045
14609,8.783,1.2727,0,0.00037011,3698.6,0.00012393,0.0047959,0.00011911,-36.182,-0.00037071,-3716.5,0.40289
14610,8.8755,1.2727,0.05,9.5621e-07,9.5555,7.3425e-07,5.5168,1.7211e-12,-2.872e-07,-7.3426e-07,-5.5169,0.4108
14611,8.8755,1,0,0.0003683,3680.4,0.00012283,0.005933,0.00011935,-26.174,-0.00036874,-3693.4,0.40964
14612,8.783,1.0909,0,0.00037062,3703.6,0.00012383,0.0057174,0.00011973,-30.758,-0.00037113,-3718.9,0.40212
14613,8.8755,1.0909,0.05,9.5532e-07,9.5466,7.3356e-07,5.5117,8.2198e-13,-7.1296e-07,-7.3357e-07,-5.5118,0.41003
14614,8.8755,0.81818,0,0.00036884,3685.8,0.00012273,0.0073126,0.00012,-20.47,-0.00036918,-3696,0.40875
14615,8.783,0.90909,0,0.00037116,3709.1,0.00012372,0.0066337,0.0001204,-24.96,-0.00037158,-3721.5,0.40126
14616,8.8755,0.90909,0.05,9.5427e-07,9.5361,7.3276e-07,5.5056,3.5647e-12,-1.0625e-06,-7.3276e-07,-5.5057,0.40918
14617,8.8755,0.63636,0,0.0003694,3691.5,0.00012262,0.0079085,0.00012069,-14.47,-0.00036965,-3698.7,0.40778
14618,8.783,0.72727,0,0.00037174,3714.8,0.00012361,0.0088297,0.0001211,-18.831,-0.00037206,-3724.2,0.40033
14619,8.8755,0.72727,0.05,9.5289e-07,9.5223,7.317e-07,5.4977,3.516e-12,-1.8467e-07,-7.317e-07,-5.4977,0.40825
14620,8.8755,0.45455,0,0.00037,3697.4,0.00012251,0.017825,0.00012141,-8.189,-0.00037014,-3701.5,0.40674
14621,8.783,0.54545,0,0.00037234,3720.9,0.00012349,0.0083564,0.00012183,-12.416,-0.00037255,-3727,0.39932
14622,8.8755,0.54545,0.05,9.4852e-07,9.4787,7.2835e-07,5.4725,8.8019e-13,6.0421e-07,-7.2834e-07,-5.4725,0.40724
14623,8.8755,0.27273,0,0.00037068,3704.3,0.0001224,0.082905,0.00012221,-1.3278,-0.0003707,-3704.9,0.40561
14624,8.783,0.36364,0,0.00037298,3727.2,0.00012337,0.032354,0.0001226,-5.7061,-0.00037307,-3730,0.39822
14625,8.8755,0.36364,0.05,9.007e-07,9.0008,6.9162e-07,5.1966,3.4907e-12,-4.9811e-07,-6.9163e-07,-5.1967,0.40616
14626,8.783,0.18182,0,0.00037376,3735,0.00012353,2.1597,0.00012322,-0.10587,-0.00037372,-3734,0.39705
14627,8.8755,0.18182,0.05,1.9936e-07,1.9922,1.5308e-07,1.1502,-1.4339e-13,-1.4408e-05,-1.5309e-07,-1.1502,0.40499
14628,8.8755,0.090909,0,0.00037091,3706.5,0.00012261,2.4942,0.00012227,-0.030029,-0.00037086,-3705.3,0.4044
14629,8.6906,5.7273,0,0.00037604,3757.8,0.00012422,0.059864,0.00012388,-2.5005,-0.00037608,-3759.1,0.38975
14630,8.5981,5.8182,0,0.00037915,3788.9,0.00012524,1.3056,0.00012504,-0.20343,-0.00037913,-3788.4,0.38131
14631,8.6906,5.8182,0.05,2.2058e-07,2.2043,1.6938e-07,1.2727,-6.1148e-13,-2.6617e-06,-1.6938e-07,-1.2727,0.38912
14632,8.6906,5.9091,0,0.00037633,3760.7,0.00012436,1.9714,0.00012409,-0.048015,-0.0003763,-3759.7,0.38853
14633,8.6906,5.5455,0,0.00037532,3750.6,0.00012435,0.020131,0.00012302,-9.9485,-0.00037549,-3755.5,0.39089
14634,8.5981,5.6364,0,0.00037833,3780.7,0.00012521,0.035996,0.00012424,-7.2312,-0.00037845,-3784.3,0.3825
14635,8.6906,5.6364,0.05,9.08e-07,9.0738,6.9723e-07,5.2388,4.304e-14,1.7196e-06,-6.9724e-07,-5.2388,0.3903
14636,8.6906,5.3636,0,0.00037468,3744.2,0.00012447,0.008849,0.00012224,-16.792,-0.00037496,-3752.5,0.39195
14637,8.5981,5.4545,0,0.00037765,3773.9,0.00012534,0.0094626,0.00012341,-14.537,-0.00037789,-3781.1,0.3836
14638,8.6906,5.4545,0.05,9.5505e-07,9.544,7.3336e-07,5.5102,1.8047e-12,2.2788e-06,-7.3336e-07,-5.5102,0.3914
14639,8.6906,5.1818,0,0.00037406,3738.1,0.0001246,0.0080015,0.00012149,-23.335,-0.00037445,-3749.7,0.39292
14640,8.5981,5.2727,0,0.000377,3767.4,0.00012547,0.009773,0.00012261,-21.528,-0.00037736,-3778.1,0.38462
14641,8.6906,5.2727,0.05,9.5944e-07,9.5878,7.3673e-07,5.5355,7.7198e-14,1.2705e-06,-7.3673e-07,-5.5355,0.39242
14642,8.6906,5,0,0.00037348,3732.3,0.00012471,0.0063455,0.00012078,-29.557,-0.00037398,-3746.9,0.39382
14643,8.5981,5.0909,0,0.00037637,3761.1,0.0001256,0.0071854,0.00012184,-28.21,-0.00037685,-3775.2,0.38557
14644,8.6906,5.0909,0.05,9.6088e-07,9.6021,7.3783e-07,5.5438,9.5315e-13,1.4116e-06,-7.3784e-07,-5.5438,0.39336
14645,8.6906,4.8182,0,0.00037294,3726.8,0.00012482,0.0053543,0.00012011,-35.412,-0.00037353,-3744.4,0.39464
14646,8.5981,4.9091,0,0.00037579,3755.3,0.00012572,0.0060689,0.00012112,-34.533,-0.00037636,-3772.4,0.38643
14647,8.6906,4.9091,0.05,9.6197e-07,9.613,7.3867e-07,5.5501,2.7472e-12,5.8602e-07,-7.3867e-07,-5.5501,0.39421
14648,8.6906,4.6364,0,0.00037243,3721.7,0.00012492,0.004461,0.00011948,-40.856,-0.00037311,-3742,0.39538
14649,8.5981,4.7273,0,0.00037524,3749.8,0.00012583,0.0049736,0.00012044,-40.45,-0.00037591,-3769.9,0.38721
14650,8.6906,4.7273,0.05,9.6289e-07,9.6223,7.3938e-07,5.5554,2.7629e-14,-3.7913e-07,-7.3939e-07,-5.5555,0.39499
14651,8.6906,4.4545,0,0.00037197,3717.1,0.00012501,0.0037171,0.00011891,-45.847,-0.00037272,-3739.8,0.39604
14652,8.5981,4.5455,0,0.00037473,3744.7,0.00012593,0.0041057,0.00011982,-45.915,-0.00037549,-3767.5,0.38791
14653,8.6906,4.5455,0.05,9.6367e-07,9.6301,7.3999e-07,5.5599,2.7765e-12,7.1134e-07,-7.3998e-07,-5.56,0.39569
14654,8.6906,4.2727,0,0.00037155,3712.9,0.0001251,0.0030718,0.0001184,-50.347,-0.00037238,-3737.8,0.39662
14655,8.5981,4.3636,0,0.00037427,3740.1,0.00012602,0.0033488,0.00011925,-50.886,-0.00037511,-3765.3,0.38854
14656,8.6906,4.3636,0.05,9.6433e-07,9.6366,7.4048e-07,5.5636,9.61e-13,-2.8982e-07,-7.4048e-07,-5.5637,0.39631
14657,8.6906,4.0909,0,0.00037118,3709.2,0.00012517,0.0025211,0.00011794,-54.32,-0.00037207,-3736.1,0.39712
14658,8.5981,4.1818,0,0.00037386,3736,0.00012611,0.002704,0.00011874,-55.325,-0.00037477,-3763.4,0.38908
14659,8.6906,4.1818,0.05,9.6486e-07,9.642,7.4089e-07,5.5668,9.7887e-13,-1.5839e-07,-7.4089e-07,-5.5668,0.39685
14660,8.6906,3.9091,0,0.00037086,3706.1,0.00012523,0.0020564,0.00011755,-57.737,-0.00037181,-3734.6,0.39755
14661,8.5981,4,0,0.0003735,3732.5,0.00012618,0.0021566,0.0001183,-59.196,-0.00037448,-3761.7,0.38955
14662,8.6906,4,0.05,9.6529e-07,9.6463,7.4122e-07,5.5692,3.8951e-14,-1.6887e-07,-7.4123e-07,-5.5693,0.39732
14663,8.6906,3.7273,0,0.0003706,3703.4,0.00012529,0.001676,0.00011722,-60.57,-0.00037159,-3733.3,0.3979
14664,8.5981,3.8182,0,0.0003732,3729.4,0.00012624,0.0017009,0.00011792,-62.471,-0.00037423,-3760.3,0.38994
14665,8.6906,3.8182,0.05,9.6563e-07,9.6497,7.4149e-07,5.5712,4.7177e-14,-1.674e-07,-7.4149e-07,-5.5713,0.39771
14666,8.6906,3.5455,0,0.00037039,3701.4,0.00012533,0.0013804,0.00011697,-62.797,-0.00037142,-3732.4,0.39817
14667,8.5981,3.6364,0,0.00037296,3727,0.00012629,0.001337,0.00011762,-65.122,-0.00037402,-3759.1,0.39025
14668,8.6906,3.6364,0.05,9.6589e-07,9.6522,7.4168e-07,5.5727,1.8515e-12,2.832e-07,-7.4169e-07,-5.5727,0.39801
14669,8.6906,3.3636,0,0.00037024,3699.9,0.00012536,0.001169,0.00011679,-64.4,-0.0003713,-3731.7,0.39836
14670,8.5981,3.4545,0,0.00037277,3725.2,0.00012633,0.0010649,0.00011739,-67.129,-0.00037387,-3758.3,0.39048
14671,8.6906,3.4545,0.05,9.6608e-07,9.6541,7.4183e-07,5.5738,9.3706e-13,2.1432e-07,-7.4182e-07,-5.5738,0.39825
14672,8.6906,3.1818,0,0.00037015,3699,0.00012537,0.0010412,0.00011667,-65.368,-0.00037122,-3731.2,0.39847
14673,8.5981,3.2727,0,0.00037265,3723.9,0.00012635,0.00088242,0.00011724,-68.476,-0.00037377,-3757.7,0.39063
14674,8.6906,3.2727,0.05,9.6619e-07,9.6553,7.4192e-07,5.5745,9.2563e-13,1.2427e-07,-7.4192e-07,-5.5745,0.3984
14675,8.6906,3,0,0.00037012,3698.7,0.00012538,0.00099838,0.00011664,-65.691,-0.0003712,-3731.1,0.39851
14676,8.5981,3.0909,0,0.00037259,3723.3,0.00012636,0.00079053,0.00011716,-69.152,-0.00037371,-3757.4,0.39071
14677,8.6906,3.0909,0.05,9.6625e-07,9.6559,7.4196e-07,5.5748,1.8245e-12,9.9608e-07,-7.4197e-07,-5.5748,0.39848
14678,8.6906,2.8182,0,0.00037015,3699,0.00012537,0.0010412,0.00011667,-65.368,-0.00037122,-3731.2,0.39847
14679,8.5981,2.9091,0,0.00037259,3723.3,0.00012636,0.0007907,0.00011716,-69.152,-0.00037371,-3757.4,0.39071
14680,8.6906,2.9091,0.05,9.6625e-07,9.6559,7.4196e-07,5.5748,2.7227e-12,1.3874e-06,-7.4197e-07,-5.5748,0.39848
14681,8.6906,2.6364,0,0.00037024,3699.9,0.00012536,0.001169,0.00011679,-64.4,-0.0003713,-3731.7,0.39836
14682,8.5981,2.7273,0,0.00037265,3723.9,0.00012635,0.00088227,0.00011724,-68.476,-0.00037377,-3757.7,0.39063
14683,8.6906,2.7273,0.05,9.6619e-07,9.6553,7.4192e-07,5.5744,8.9221e-13,3.4029e-07,-7.4192e-07,-5.5745,0.3984
14684,8.6906,2.4545,0,0.00037039,3701.4,0.00012533,0.0013807,0.00011697,-62.797,-0.00037142,-3732.4,0.39817
14685,8.5981,2.5455,0,0.00037277,3725.2,0.00012633,0.001065,0.00011739,-67.129,-0.00037387,-3758.3,0.39048
14686,8.6906,2.5455,0.05,9.6608e-07,9.6541,7.4183e-07,5.5738,8.811e-13,2.623e-07,-7.4182e-07,-5.5738,0.39825
14687,8.6906,2.2727,0,0.0003706,3703.4,0.00012529,0.0016764,0.00011722,-60.57,-0.00037159,-3733.3,0.3979
14688,8.5981,2.3636,0,0.00037296,3727,0.00012629,0.0013373,0.00011762,-65.122,-0.00037402,-3759.1,0.39025
14689,8.6906,2.3636,0.05,9.6589e-07,9.6522,7.4168e-07,5.5727,1.7755e-12,-2.832e-07,-7.4169e-07,-5.5727,0.39801
14690,8.6906,2.0909,0,0.00037086,3706.1,0.00012523,0.0020568,0.00011755,-57.737,-0.00037181,-3734.6,0.39755
14691,8.5981,2.1818,0,0.0003732,3729.4,0.00012624,0.0017013,0.00011792,-62.471,-0.00037423,-3760.3,0.38994
14692,8.6906,2.1818,0.05,9.6563e-07,9.6497,7.4149e-07,5.5712,8.6102e-13,-4.1829e-07,-7.4149e-07,-5.5713,0.39771
14693,8.6906,1.9091,0,0.00037118,3709.2,0.00012517,0.0025215,0.00011794,-54.32,-0.00037207,-3736.1,0.39712
14694,8.5981,2,0,0.0003735,3732.5,0.00012618,0.0021569,0.0001183,-59.196,-0.00037448,-3761.7,0.38955
14695,8.6906,2,0.05,9.6529e-07,9.6463,7.4122e-07,5.5692,-6.6674e-14,4.1594e-07,-7.4123e-07,-5.5693,0.39732
14696,8.6906,1.7273,0,0.00037155,3712.9,0.0001251,0.0030723,0.0001184,-50.347,-0.00037238,-3737.8,0.39662
14697,8.5981,1.8182,0,0.00037386,3736,0.00012611,0.0027047,0.00011874,-55.325,-0.00037477,-3763.4,0.38908
14698,8.6906,1.8182,0.05,9.6486e-07,9.642,7.409e-07,5.5668,1.7439e-12,-5.8771e-07,-7.4089e-07,-5.5668,0.39685
14699,8.6906,1.5455,0,0.00037197,3717.1,0.00012501,0.0037175,0.00011891,-45.847,-0.00037272,-3739.8,0.39604
14700,8.5981,1.6364,0,0.00037427,3740.1,0.00012602,0.0033493,0.00011925,-50.886,-0.00037511,-3765.3,0.38854
14701,8.6906,1.6364,0.05,9.6433e-07,9.6366,7.4048e-07,5.5636,2.6129e-12,1.7034e-07,-7.4049e-07,-5.5637,0.39631
14702,8.6906,1.3636,0,0.00037243,3721.7,0.00012492,0.0044616,0.00011948,-40.856,-0.00037311,-3742,0.39538
14703,8.5981,1.4545,0,0.00037473,3744.7,0.00012593,0.0041062,0.00011982,-45.915,-0.00037549,-3767.5,0.38791
14704,8.6906,1.4545,0.05,9.6367e-07,9.6301,7.3998e-07,5.5599,2.6092e-12,-9.0833e-07,-7.3998e-07,-5.56,0.39569
14705,8.6906,1.1818,0,0.00037294,3726.8,0.00012482,0.005355,0.00012011,-35.412,-0.00037353,-3744.4,0.39464
14706,8.5981,1.2727,0,0.00037524,3749.8,0.00012583,0.0049743,0.00012044,-40.45,-0.00037591,-3769.9,0.38721
14707,8.6906,1.2727,0.05,9.6289e-07,9.6223,7.3938e-07,5.5554,7.8351e-13,-7.0035e-07,-7.3938e-07,-5.5555,0.39499
14708,8.6906,1,0,0.00037348,3732.3,0.00012471,0.0063468,0.00012078,-29.557,-0.00037398,-3746.9,0.39382
14709,8.5981,1.0909,0,0.00037579,3755.3,0.00012572,0.0060696,0.00012112,-34.533,-0.00037636,-3772.4,0.38643
14710,8.6906,1.0909,0.05,9.6197e-07,9.613,7.3867e-07,5.5501,2.6385e-12,-5.0733e-07,-7.3867e-07,-5.5501,0.39421
14711,8.6906,0.81818,0,0.00037406,3738.1,0.0001246,0.0080029,0.00012149,-23.335,-0.00037445,-3749.7,0.39292
14712,8.5981,0.90909,0,0.00037637,3761.1,0.0001256,0.0071871,0.00012184,-28.21,-0.00037685,-3775.2,0.38557
14713,8.6906,0.90909,0.05,9.6088e-07,9.6021,7.3783e-07,5.5438,-1.0355e-13,-5.9718e-07,-7.3783e-07,-5.5438,0.39336
14714,8.6906,0.63636,0,0.00037468,3744.2,0.00012447,0.0088497,0.00012224,-16.792,-0.00037496,-3752.5,0.39195
14715,8.5981,0.72727,0,0.000377,3767.4,0.00012547,0.009774,0.00012261,-21.528,-0.00037736,-3778.1,0.38462
14716,8.6906,0.72727,0.05,9.5944e-07,9.5878,7.3673e-07,5.5355,8.1149e-13,-7.1895e-08,-7.3674e-07,-5.5355,0.39242
14717,8.6906,0.45455,0,0.00037532,3750.6,0.00012435,0.020132,0.00012302,-9.9485,-0.00037549,-3755.5,0.39089
14718,8.5981,0.54545,0,0.00037765,3773.9,0.00012534,0.0094629,0.00012341,-14.537,-0.00037789,-3781.1,0.3836
14719,8.6906,0.54545,0.05,9.5505e-07,9.544,7.3336e-07,5.5102,4.3746e-12,4.3607e-07,-7.3337e-07,-5.5102,0.3914
14720,8.6906,0.27273,0,0.00037604,3757.8,0.00012422,0.059864,0.00012388,-2.5005,-0.00037608,-3759.1,0.38975
14721,8.5981,0.36364,0,0.00037833,3780.7,0.00012521,0.035997,0.00012424,-7.2313,-0.00037845,-3784.3,0.3825
14722,8.6906,0.36364,0.05,9.08e-07,9.0738,6.9723e-07,5.2387,3.4305e-12,8.068e-07,-6.9724e-07,-5.2388,0.3903
14723,8.5981,0.18182,0,0.00037915,3788.9,0.00012524,1.3056,0.00012504,-0.20343,-0.00037913,-3788.4,0.38131
14724,8.6906,0.18182,0.05,2.2059e-07,2.2043,1.6938e-07,1.2726,1.2026e-13,-2.0729e-05,-1.6939e-07,-1.2727,0.38912
14725,8.6906,0.090909,0,0.00037633,3760.7,0.00012436,1.9713,0.00012409,-0.048014,-0.0003763,-3759.7,0.38853
14726,8.5057,5.7273,0,0.00038143,3811.7,0.00012606,0.052898,0.00012555,-3.7685,-0.00038149,-3813.5,0.37414
14727,8.4132,5.8182,0,0.00038457,3843.1,0.00012699,0.60453,0.00012684,-0.51183,-0.00038457,-3843,0.36583
14728,8.5057,5.8182,0.05,2.4367e-07,2.435,1.8711e-07,1.4058,-3.9688e-23,1.1509e-06,-1.8711e-07,-1.4058,0.37351
14729,8.5057,5.9091,0,0.00038178,3815.2,0.00012611,1.4336,0.00012591,-0.082812,-0.00038176,-3814.5,0.37291
14730,8.5057,5.5455,0,0.00038066,3803.9,0.0001262,0.022636,0.00012463,-11.834,-0.00038085,-3809.8,0.37529
14731,8.4132,5.6364,0,0.0003837,3834.4,0.00012706,0.040003,0.00012588,-8.8629,-0.00038385,-3838.8,0.36703
14732,8.5057,5.6364,0.05,9.1574e-07,9.151,7.0317e-07,5.2834,1.8067e-12,1.297e-06,-7.0317e-07,-5.2834,0.3747
14733,8.5057,5.3636,0,0.00037996,3797,0.00012634,0.0098936,0.00012377,-19.286,-0.00038029,-3806.6,0.37636
14734,8.4132,5.4545,0,0.00038297,3827,0.00012721,0.010676,0.00012497,-16.812,-0.00038325,-3835.4,0.36814
14735,8.5057,5.4545,0.05,9.6192e-07,9.6126,7.3864e-07,5.5498,8.8129e-14,1.0096e-06,-7.3864e-07,-5.5499,0.37581
14736,8.5057,5.1818,0,0.0003793,3790.4,0.00012648,0.0087766,0.00012296,-26.416,-0.00037975,-3803.6,0.37735
14737,8.4132,5.2727,0,0.00038227,3820,0.00012736,0.010816,0.0001241,-24.427,-0.00038268,-3832.2,0.36918
14738,8.5057,5.2727,0.05,9.6632e-07,9.6566,7.4202e-07,5.5752,1.0503e-14,6.5042e-07,-7.4202e-07,-5.5752,0.37684
14739,8.5057,5,0,0.00037868,3784.2,0.0001266,0.0068193,0.00012219,-33.198,-0.00037923,-3800.6,0.37826
14740,8.4132,5.0909,0,0.0003816,3813.3,0.00012749,0.0078057,0.00012327,-31.708,-0.00038213,-3829.1,0.37013
14741,8.5057,5.0909,0.05,9.6781e-07,9.6715,7.4316e-07,5.5838,1.8247e-12,9.7513e-07,-7.4316e-07,-5.5838,0.37779
14742,8.5057,4.8182,0,0.00037809,3778.3,0.00012673,0.0056354,0.00012146,-39.582,-0.00037875,-3797.9,0.37908
14743,8.4132,4.9091,0,0.00038096,3807,0.00012763,0.006469,0.00012249,-38.599,-0.00038161,-3826.2,0.371
14744,8.5057,4.9091,0.05,9.6895e-07,9.6828,7.4403e-07,5.5903,1.7924e-12,4.2429e-07,-7.4403e-07,-5.5904,0.37865
14745,8.5057,4.6364,0,0.00037754,3772.8,0.00012684,0.0045829,0.00012078,-45.519,-0.00037829,-3795.4,0.37983
14746,8.4132,4.7273,0,0.00038037,3801.1,0.00012775,0.0051836,0.00012175,-45.049,-0.00038112,-3823.4,0.37179
14747,8.5057,4.7273,0.05,9.699e-07,9.6923,7.4476e-07,5.5958,1.8387e-12,4.0965e-07,-7.4476e-07,-5.5959,0.37944
14748,8.5057,4.4545,0,0.00037704,3767.8,0.00012694,0.0037116,0.00012016,-50.964,-0.00037788,-3793,0.3805
14749,8.4132,4.5455,0,0.00037982,3795.6,0.00012786,0.0041685,0.00012107,-51.008,-0.00038067,-3820.9,0.3725
14750,8.5057,4.5455,0.05,9.707e-07,9.7003,7.4537e-07,5.6004,1.8561e-12,1.0251e-06,-7.4538e-07,-5.6004,0.38015
14751,8.5057,4.2727,0,0.00037659,3763.3,0.00012703,0.0029608,0.00011959,-55.873,-0.00037751,-3790.9,0.38108
14752,8.4132,4.3636,0,0.00037933,3790.6,0.00012796,0.0032897,0.00012045,-56.43,-0.00038026,-3818.5,0.37313
14753,8.5057,4.3636,0.05,9.7135e-07,9.7068,7.4588e-07,5.6042,4.3793e-14,3.6736e-07,-7.4588e-07,-5.6043,0.38077
14754,8.5057,4.0909,0,0.00037619,3759.3,0.00012711,0.0023228,0.0001191,-60.21,-0.00037718,-3789,0.38159
14755,8.4132,4.1818,0,0.00037888,3786.2,0.00012805,0.0025442,0.0001199,-61.272,-0.00037989,-3816.5,0.37368
14756,8.5057,4.1818,0.05,9.7189e-07,9.7122,7.4629e-07,5.6073,1.8664e-12,-8.1607e-08,-7.4629e-07,-5.6073,0.38132
14757,8.5057,3.9091,0,0.00037584,3755.9,0.00012718,0.0017866,0.00011867,-63.939,-0.00037689,-3787.4,0.38202
14758,8.4132,4,0,0.0003785,3782.3,0.00012813,0.0019137,0.00011942,-65.497,-0.00037957,-3814.7,0.37415
14759,8.5057,4,0.05,9.7232e-07,9.7164,7.4662e-07,5.6097,1.8824e-12,-2.7582e-07,-7.4662e-07,-5.6098,0.38179
14760,8.5057,3.7273,0,0.00037556,3753,0.00012724,0.0013489,0.00011832,-67.031,-0.00037666,-3786.1,0.38237
14761,8.4132,3.8182,0,0.00037817,3779.1,0.0001282,0.0013905,0.00011901,-69.07,-0.0003793,-3813.1,0.37454
14762,8.5057,3.8182,0.05,9.7265e-07,9.7198,7.4687e-07,5.6117,1.8613e-12,2.8974e-07,-7.4687e-07,-5.6117,0.38218
14763,8.5057,3.5455,0,0.00037534,3750.8,0.00012729,0.0010095,0.00011804,-69.462,-0.00037647,-3785,0.38264
14764,8.4132,3.6364,0,0.0003779,3776.4,0.00012826,0.00097373,0.00011868,-71.963,-0.00037908,-3811.9,0.37485
14765,8.5057,3.6364,0.05,9.729e-07,9.7222,7.4706e-07,5.6131,1.8519e-12,2.9347e-07,-7.4707e-07,-5.6132,0.38249
14766,8.5057,3.3636,0,0.00037518,3749.2,0.00012732,0.00076689,0.00011784,-71.213,-0.00037634,-3784.3,0.38284
14767,8.4132,3.4545,0,0.0003777,3774.4,0.0001283,0.00066231,0.00011843,-74.154,-0.00037891,-3811,0.37509
14768,8.5057,3.4545,0.05,9.7307e-07,9.724,7.472e-07,5.6141,2.3989e-14,2.0124e-07,-7.472e-07,-5.6142,0.38272
14769,8.5057,3.1818,0,0.00037508,3748.2,0.00012734,0.00062071,0.00011772,-72.269,-0.00037626,-3783.8,0.38295
14770,8.4132,3.2727,0,0.00037757,3773.1,0.00012832,0.00045381,0.00011826,-75.624,-0.0003788,-3810.3,0.37524
14771,8.5057,3.2727,0.05,9.7319e-07,9.7251,7.4728e-07,5.6148,2.7446e-12,1.3224e-07,-7.4729e-07,-5.6148,0.38288
14772,8.5057,3,0,0.00037505,3747.9,0.00012735,0.00057194,0.00011768,-72.622,-0.00037623,-3783.7,0.38299
14773,8.4132,3.0909,0,0.0003775,3772.4,0.00012834,0.00034908,0.00011818,-76.362,-0.00037874,-3810,0.37532
14774,8.5057,3.0909,0.05,9.7324e-07,9.7257,7.4733e-07,5.6151,1.8249e-12,4.5856e-08,-7.4733e-07,-5.6152,0.38296
14775,8.5057,2.8182,0,0.00037508,3748.2,0.00012734,0.00062071,0.00011772,-72.269,-0.00037626,-3783.8,0.38295
14776,8.4132,2.9091,0,0.0003775,3772.4,0.00012834,0.00034932,0.00011818,-76.362,-0.00037874,-3810,0.37532
14777,8.5057,2.9091,0.05,9.7324e-07,9.7257,7.4733e-07,5.6151,1.8125e-12,-4.7223e-08,-7.4733e-07,-5.6152,0.38296
14778,8.5057,2.6364,0,0.00037518,3749.2,0.00012732,0.00076695,0.00011784,-71.213,-0.00037634,-3784.3,0.38284
14779,8.4132,2.7273,0,0.00037757,3773.1,0.00012832,0.00045375,0.00011826,-75.624,-0.0003788,-3810.3,0.37524
14780,8.5057,2.7273,0.05,9.7319e-07,9.7251,7.4728e-07,5.6148,2.708e-12,-1.4447e-07,-7.4729e-07,-5.6148,0.38288
14781,8.5057,2.4545,0,0.00037534,3750.8,0.00012729,0.0010096,0.00011804,-69.462,-0.00037647,-3785,0.38264
14782,8.4132,2.5455,0,0.0003777,3774.4,0.0001283,0.00066249,0.00011843,-74.154,-0.00037891,-3811,0.37509
14783,8.5057,2.5455,0.05,9.7307e-07,9.724,7.472e-07,5.6141,-3.1996e-14,6.9593e-07,-7.472e-07,-5.6142,0.38272
14784,8.5057,2.2727,0,0.00037556,3753,0.00012724,0.0013492,0.00011832,-67.031,-0.00037666,-3786.1,0.38237
14785,8.4132,2.3636,0,0.0003779,3776.4,0.00012826,0.00097391,0.00011868,-71.963,-0.00037908,-3811.9,0.37485
14786,8.5057,2.3636,0.05,9.729e-07,9.7222,7.4706e-07,5.6131,1.7705e-12,-3.5947e-07,-7.4707e-07,-5.6132,0.38249
14787,8.5057,2.0909,0,0.00037584,3755.9,0.00012718,0.0017869,0.00011867,-63.939,-0.00037689,-3787.4,0.38202
14788,8.4132,2.1818,0,0.00037817,3779.1,0.0001282,0.0013909,0.00011901,-69.07,-0.0003793,-3813.1,0.37454
14789,8.5057,2.1818,0.05,9.7265e-07,9.7198,7.4687e-07,5.6117,2.6706e-12,1.6772e-08,-7.4687e-07,-5.6117,0.38218
14790,8.5057,1.9091,0,0.00037619,3759.3,0.00012711,0.0023234,0.0001191,-60.21,-0.00037718,-3789,0.38159
14791,8.4132,2,0,0.0003785,3782.3,0.00012813,0.0019141,0.00011942,-65.497,-0.00037957,-3814.7,0.37415
14792,8.5057,2,0.05,9.7232e-07,9.7164,7.4662e-07,5.6097,1.7466e-12,-7.0197e-07,-7.4662e-07,-5.6098,0.38179
14793,8.5057,1.7273,0,0.00037659,3763.3,0.00012703,0.0029614,0.00011959,-55.873,-0.00037751,-3790.9,0.38108
14794,8.4132,1.8182,0,0.00037888,3786.2,0.00012805,0.0025449,0.0001199,-61.272,-0.00037989,-3816.5,0.37368
14795,8.5057,1.8182,0.05,9.7189e-07,9.7122,7.4629e-07,5.6073,3.5545e-12,-1.2275e-07,-7.4629e-07,-5.6073,0.38132
14796,8.5057,1.5455,0,0.00037704,3767.8,0.00012694,0.0037122,0.00012016,-50.964,-0.00037788,-3793,0.3805
14797,8.4132,1.6364,0,0.00037933,3790.6,0.00012796,0.0032902,0.00012045,-56.43,-0.00038026,-3818.5,0.37313
14798,8.5057,1.6364,0.05,9.7135e-07,9.7068,7.4587e-07,5.6042,-1.0603e-13,3.8342e-07,-7.4588e-07,-5.6043,0.38077
14799,8.5057,1.3636,0,0.00037754,3772.8,0.00012684,0.0045836,0.00012078,-45.519,-0.00037829,-3795.4,0.37983
14800,8.4132,1.4545,0,0.00037982,3795.6,0.00012786,0.0041694,0.00012107,-51.008,-0.00038067,-3820.9,0.3725
14801,8.5057,1.4545,0.05,9.707e-07,9.7003,7.4537e-07,5.6004,3.4961e-12,3.7577e-07,-7.4538e-07,-5.6005,0.38015
14802,8.5057,1.1818,0,0.00037809,3778.3,0.00012673,0.005636,0.00012146,-39.582,-0.00037875,-3797.9,0.37908
14803,8.4132,1.2727,0,0.00038037,3801.1,0.00012775,0.0051844,0.00012175,-45.049,-0.00038112,-3823.4,0.37179
14804,8.5057,1.2727,0.05,9.699e-07,9.6923,7.4476e-07,5.5958,2.5904e-12,-7.1725e-07,-7.4477e-07,-5.5959,0.37944
14805,8.5057,1,0,0.00037868,3784.2,0.0001266,0.0068204,0.00012219,-33.198,-0.00037923,-3800.6,0.37826
14806,8.4132,1.0909,0,0.00038096,3807,0.00012763,0.0064696,0.00012249,-38.599,-0.00038161,-3826.2,0.371
14807,8.5057,1.0909,0.05,9.6895e-07,9.6828,7.4403e-07,5.5903,2.5998e-12,-1.0768e-06,-7.4403e-07,-5.5904,0.37865
14808,8.5057,0.81818,0,0.0003793,3790.4,0.00012648,0.0087779,0.00012296,-26.416,-0.00037975,-3803.6,0.37735
14809,8.4132,0.90909,0,0.0003816,3813.3,0.00012749,0.0078072,0.00012327,-31.708,-0.00038213,-3829.1,0.37013
14810,8.5057,0.90909,0.05,9.6781e-07,9.6715,7.4316e-07,5.5838,3.5191e-12,-1.0045e-06,-7.4316e-07,-5.5839,0.37779
14811,8.5057,0.63636,0,0.00037996,3797,0.00012634,0.0098942,0.00012377,-19.286,-0.00038029,-3806.6,0.37636
14812,8.4132,0.72727,0,0.00038227,3820,0.00012736,0.010817,0.0001241,-24.427,-0.00038268,-3832.2,0.36918
14813,8.5057,0.72727,0.05,9.6632e-07,9.6566,7.4201e-07,5.5752,1.6438e-12,5.0013e-07,-7.4202e-07,-5.5752,0.37684
14814,8.5057,0.45455,0,0.00038066,3803.9,0.0001262,0.022637,0.00012463,-11.834,-0.00038085,-3809.8,0.37529
14815,8.4132,0.54545,0,0.00038297,3827,0.00012721,0.010676,0.00012497,-16.812,-0.00038325,-3835.4,0.36814
14816,8.5057,0.54545,0.05,9.6192e-07,9.6126,7.3864e-07,5.5498,3.5249e-12,2.48e-07,-7.3864e-07,-5.5499,0.37581
14817,8.5057,0.27273,0,0.00038143,3811.7,0.00012606,0.052899,0.00012555,-3.7685,-0.00038149,-3813.5,0.37414
14818,8.4132,0.36364,0,0.0003837,3834.4,0.00012706,0.040005,0.00012588,-8.8629,-0.00038385,-3838.8,0.36703
14819,8.5057,0.36364,0.05,9.1574e-07,9.151,7.0317e-07,5.2833,3.4791e-12,-8.0629e-07,-7.0317e-07,-5.2834,0.3747
14820,8.4132,0.18182,0,0.00038457,3843.1,0.00012699,0.60451,0.00012684,-0.51184,-0.00038457,-3843,0.36583
14821,8.5057,0.18182,0.05,2.4367e-07,2.435,1.8711e-07,1.4058,2.4046e-12,-5.7875e-06,-1.8711e-07,-1.4059,0.37351
14822,8.5057,0.090909,0,0.00038178,3815.2,0.00012611,1.4336,0.00012591,-0.082813,-0.00038176,-3814.5,0.37291
14823,8.3208,5.7273,0,0.00038684,3865.7,0.00012792,0.050921,0.00012723,-5.126,-0.00038693,-3868.3,0.3588
14824,8.2283,5.8182,0,0.00039002,3897.5,0.00012879,0.28603,0.00012859,-1.2639,-0.00039004,-3898,0.35061
14825,8.3208,5.8182,0.05,2.6875e-07,2.6857,2.0637e-07,1.5506,1.7105e-13,-4.2415e-06,-2.0637e-07,-1.5506,0.35816
14826,8.3208,5.9091,0,0.00038726,3869.9,0.00012788,0.90771,0.00012774,-0.1629,-0.00038725,-3869.6,0.35755
14827,8.3208,5.5455,0,0.00038601,3857.5,0.00012807,0.025349,0.00012623,-13.855,-0.00038625,-3864.4,0.35996
14828,8.2283,5.6364,0,0.0003891,3888.3,0.00012893,0.044384,0.00012751,-10.609,-0.00038928,-3893.6,0.35182
14829,8.3208,5.6364,0.05,9.2394e-07,9.233,7.0947e-07,5.3307,-1.5049e-22,2.0809e-06,-7.0947e-07,-5.3307,0.35936
14830,8.3208,5.3636,0,0.00038527,3850,0.00012823,0.011038,0.0001253,-21.966,-0.00038564,-3861,0.36104
14831,8.2283,5.4545,0,0.00038831,3880.4,0.0001291,0.011999,0.00012653,-19.254,-0.00038863,-3890,0.35295
14832,8.3208,5.4545,0.05,9.6916e-07,9.6849,7.442e-07,5.5916,1.8465e-12,2.1452e-06,-7.442e-07,-5.5916,0.36048
14833,8.3208,5.1818,0,0.00038456,3842.9,0.00012837,0.0096311,0.00012442,-29.731,-0.00038505,-3857.7,0.36204
14834,8.2283,5.2727,0,0.00038755,3872.9,0.00012926,0.01196,0.00012559,-27.544,-0.00038801,-3886.5,0.35399
14835,8.3208,5.2727,0.05,9.7357e-07,9.729,7.4758e-07,5.617,6.961e-14,1.097e-06,-7.4758e-07,-5.617,0.36152
14836,8.3208,5,0,0.00038388,3836.2,0.00012852,0.0073467,0.00012357,-37.12,-0.0003845,-3854.6,0.36295
14837,8.2283,5.0909,0,0.00038683,3865.6,0.00012941,0.0084921,0.00012469,-35.473,-0.00038742,-3883.2,0.35495
14838,8.3208,5.0909,0.05,9.7511e-07,9.7444,7.4877e-07,5.6259,8.8628e-14,2.65e-07,-7.4877e-07,-5.626,0.36248
14839,8.3208,4.8182,0,0.00038324,3829.8,0.00012865,0.0059523,0.00012278,-44.076,-0.00038398,-3851.6,0.36379
14840,8.2283,4.9091,0,0.00038615,3858.8,0.00012955,0.0069156,0.00012383,-42.98,-0.00038686,-3880.1,0.35583
14841,8.3208,4.9091,0.05,9.7629e-07,9.7561,7.4967e-07,5.6327,1.8244e-12,2.659e-07,-7.4967e-07,-5.6327,0.36335
14842,8.3208,4.6364,0,0.00038265,3823.9,0.00012877,0.0047256,0.00012204,-50.548,-0.00038349,-3848.9,0.36454
14843,8.2283,4.7273,0,0.00038551,3852.4,0.00012969,0.0054227,0.00012303,-50.009,-0.00038633,-3877.2,0.35663
14844,8.3208,4.7273,0.05,9.7726e-07,9.7659,7.5042e-07,5.6383,1.8836e-12,4.284e-07,-7.5042e-07,-5.6383,0.36415
14845,8.3208,4.4545,0,0.00038211,3818.5,0.00012888,0.0037147,0.00012137,-56.484,-0.00038304,-3846.4,0.36521
14846,8.2283,4.5455,0,0.00038491,3846.5,0.00012981,0.0042469,0.00012229,-56.503,-0.00038584,-3874.4,0.35734
14847,8.3208,4.5455,0.05,9.7807e-07,9.774,7.5104e-07,5.643,1.8794e-12,6.0231e-07,-7.5104e-07,-5.643,0.36486
14848,8.3208,4.2727,0,0.00038162,3813.6,0.00012899,0.0028482,0.00012076,-61.837,-0.00038264,-3844.1,0.3658
14849,8.2283,4.3636,0,0.00038438,3841.1,0.00012992,0.0032344,0.00012162,-62.414,-0.0003854,-3871.9,0.35798
14850,8.3208,4.3636,0.05,9.7873e-07,9.7806,7.5154e-07,5.6468,9.7355e-14,3.8824e-07,-7.5154e-07,-5.6468,0.36549
14851,8.3208,4.0909,0,0.00038119,3809.3,0.00012908,0.0021146,0.00012022,-66.567,-0.00038228,-3842.1,0.36632
14852,8.2283,4.1818,0,0.0003839,3836.3,0.00013002,0.0023788,0.00012101,-67.693,-0.000385,-3869.7,0.35853
14853,8.3208,4.1818,0.05,9.7926e-07,9.7858,7.5195e-07,5.6498,9.8484e-13,-2.3751e-07,-7.5195e-07,-5.6499,0.36604
14854,8.3208,3.9091,0,0.00038082,3805.6,0.00012915,0.0015,0.00011975,-70.635,-0.00038197,-3840.4,0.36675
14855,8.2283,4,0,0.00038348,3832.1,0.00013011,0.0016572,0.00012049,-72.3,-0.00038466,-3867.8,0.35901
14856,8.3208,4,0.05,9.7967e-07,9.79,7.5227e-07,5.6522,1.8816e-12,4.2832e-07,-7.5227e-07,-5.6523,0.36652
14857,8.3208,3.7273,0,0.00038051,3802.5,0.00012922,0.00099958,0.00011937,-74.009,-0.00038172,-3838.9,0.3671
14858,8.2283,3.8182,0,0.00038312,3828.6,0.00013019,0.0010604,0.00012005,-76.197,-0.00038436,-3866.1,0.3594
14859,8.3208,3.8182,0.05,9.7999e-07,9.7932,7.5251e-07,5.6541,9.5157e-13,3.2544e-07,-7.5251e-07,-5.6541,0.36691
14860,8.3208,3.5455,0,0.00038027,3800.1,0.00012927,0.00061205,0.00011906,-76.662,-0.00038152,-3837.8,0.36738
14861,8.2283,3.6364,0,0.00038284,3825.7,0.00013025,0.00058565,0.00011969,-79.354,-0.00038413,-3864.8,0.35972
14862,8.3208,3.6364,0.05,9.8023e-07,9.7955,7.5269e-07,5.6554,1.854e-12,1.1588e-06,-7.527e-07,-5.6555,0.36723
14863,8.3208,3.3636,0,0.0003801,3798.3,0.0001293,0.00033553,0.00011885,-78.572,-0.00038137,-3837,0.36758
14864,8.2283,3.4545,0,0.00038262,3823.6,0.00013029,0.0002311,0.00011941,-81.744,-0.00038395,-3863.8,0.35995
14865,8.3208,3.4545,0.05,9.8039e-07,9.7972,7.5282e-07,5.6564,1.8499e-12,2.3666e-07,-7.5282e-07,-5.6564,0.36746
14866,8.3208,3.1818,0,0.00037999,3797.3,0.00012933,0.00016892,0.00011871,-79.725,-0.00038128,-3836.5,0.36769
14867,8.2283,3.2727,0,0.00038247,3822.1,0.00013032,-5.7384e-06,0.00011923,-83.348,-0.00038382,-3863.1,0.36011
14868,8.3208,3.2727,0.05,9.805e-07,9.7982,7.529e-07,5.657,2.7463e-12,1.2934e-07,-7.529e-07,-5.657,0.36762
14869,8.3208,3,0,0.00037995,3796.9,0.00012933,0.00011335,0.00011867,-80.11,-0.00038125,-3836.3,0.36773
14870,8.2283,3.0909,0,0.0003824,3821.4,0.00013034,-0.00012461,0.00011914,-84.153,-0.00038376,-3862.8,0.36019
14871,8.3208,3.0909,0.05,9.8055e-07,9.7987,7.5294e-07,5.6573,2.7349e-12,4.965e-08,-7.5294e-07,-5.6573,0.3677
14872,8.3208,2.8182,0,0.00037999,3797.3,0.00012933,0.0001691,0.00011871,-79.725,-0.00038128,-3836.5,0.36769
14873,8.2283,2.9091,0,0.0003824,3821.4,0.00013034,-0.0001244,0.00011914,-84.153,-0.00038376,-3862.8,0.36019
14874,8.3208,2.9091,0.05,9.8055e-07,9.7987,7.5294e-07,5.6573,2.7215e-12,-4.9958e-08,-7.5294e-07,-5.6573,0.3677
14875,8.3208,2.6364,0,0.0003801,3798.3,0.0001293,0.00033559,0.00011885,-78.572,-0.00038137,-3837,0.36758
14876,8.2283,2.7273,0,0.00038247,3822.1,0.00013032,-5.5593e-06,0.00011923,-83.348,-0.00038382,-3863.1,0.36011
14877,8.3208,2.7273,0.05,9.805e-07,9.7982,7.529e-07,5.657,2.7063e-12,-1.6951e-07,-7.529e-07,-5.657,0.36762
14878,8.3208,2.4545,0,0.00038027,3800.1,0.00012927,0.00061226,0.00011906,-76.662,-0.00038152,-3837.8,0.36738
14879,8.2283,2.5455,0,0.00038262,3823.6,0.00013029,0.00023146,0.00011941,-81.744,-0.00038395,-3863.8,0.35995
14880,8.3208,2.5455,0.05,9.8039e-07,9.7972,7.5282e-07,5.6564,1.7848e-12,-2.7243e-07,-7.5282e-07,-5.6564,0.36746
14881,8.3208,2.2727,0,0.00038051,3802.5,0.00012922,0.00099988,0.00011937,-74.009,-0.00038172,-3838.9,0.3671
14882,8.2283,2.3636,0,0.00038284,3825.7,0.00013025,0.00058565,0.00011969,-79.354,-0.00038413,-3864.8,0.35972
14883,8.3208,2.3636,0.05,9.8023e-07,9.7955,7.5269e-07,5.6554,2.6667e-12,1.4497e-06,-7.527e-07,-5.6555,0.36723
14884,8.3208,2.0909,0,0.00038082,3805.6,0.00012915,0.0015005,0.00011975,-70.635,-0.00038197,-3840.4,0.36675
14885,8.2283,2.1818,0,0.00038312,3828.6,0.00013019,0.0010607,0.00012005,-76.197,-0.00038436,-3866.1,0.3594
14886,8.3208,2.1818,0.05,9.7999e-07,9.7932,7.5251e-07,5.6541,8.4136e-13,-5.5592e-07,-7.5251e-07,-5.6541,0.36691
14887,8.3208,1.9091,0,0.00038119,3809.3,0.00012908,0.0021152,0.00012022,-66.567,-0.00038228,-3842.1,0.36632
14888,8.2283,2,0,0.00038348,3832.1,0.00013011,0.0016577,0.00012049,-72.3,-0.00038466,-3867.8,0.35901
14889,8.3208,2,0.05,9.7967e-07,9.79,7.5227e-07,5.6522,2.6477e-12,3.0251e-07,-7.5227e-07,-5.6523,0.36652
14890,8.3208,1.7273,0,0.00038162,3813.6,0.00012899,0.0028487,0.00012076,-61.837,-0.00038264,-3844.1,0.3658
14891,8.2283,1.8182,0,0.0003839,3836.3,0.00013002,0.0023794,0.00012101,-67.693,-0.000385,-3869.7,0.35853
14892,8.3208,1.8182,0.05,9.7926e-07,9.7858,7.5195e-07,5.6498,1.7325e-12,-2.5146e-07,-7.5195e-07,-5.6499,0.36604
14893,8.3208,1.5455,0,0.00038211,3818.5,0.00012888,0.0037155,0.00012137,-56.484,-0.00038304,-3846.4,0.36521
14894,8.2283,1.6364,0,0.00038438,3841.1,0.00012992,0.0032349,0.00012162,-62.414,-0.0003854,-3871.9,0.35798
14895,8.3208,1.6364,0.05,9.7873e-07,9.7806,7.5155e-07,5.6468,1.7285e-12,7.2253e-07,-7.5154e-07,-5.6468,0.36549
14896,8.3208,1.3636,0,0.00038265,3823.9,0.00012877,0.0047266,0.00012204,-50.548,-0.00038349,-3848.9,0.36454
14897,8.2283,1.4545,0,0.00038491,3846.5,0.00012981,0.0042478,0.00012229,-56.503,-0.00038584,-3874.4,0.35734
14898,8.3208,1.4545,0.05,9.7807e-07,9.774,7.5104e-07,5.643,2.6396e-12,-5.1127e-07,-7.5103e-07,-5.643,0.36486
14899,8.3208,1.1818,0,0.00038324,3829.8,0.00012865,0.005953,0.00012278,-44.077,-0.00038398,-3851.6,0.36379
14900,8.2283,1.2727,0,0.00038551,3852.4,0.00012969,0.0054236,0.00012303,-50.009,-0.00038633,-3877.2,0.35663
14901,8.3208,1.2727,0.05,9.7726e-07,9.7659,7.5041e-07,5.6383,5.2768e-12,-1.1083e-06,-7.5042e-07,-5.6384,0.36415
14902,8.3208,1,0,0.00038388,3836.2,0.00012852,0.0073478,0.00012357,-37.12,-0.0003845,-3854.6,0.36295
14903,8.2283,1.0909,0,0.00038615,3858.8,0.00012955,0.0069163,0.00012383,-42.98,-0.00038686,-3880.1,0.35583
14904,8.3208,1.0909,0.05,9.7629e-07,9.7561,7.4966e-07,5.6327,1.6994e-12,-1.3908e-07,-7.4967e-07,-5.6327,0.36335
14905,8.3208,0.81818,0,0.00038456,3842.9,0.00012837,0.0096324,0.00012442,-29.731,-0.00038505,-3857.7,0.36204
14906,8.2283,0.90909,0,0.00038683,3865.6,0.00012941,0.0084932,0.00012469,-35.473,-0.00038742,-3883.2,0.35495
14907,8.3208,0.90909,0.05,9.7511e-07,9.7444,7.4877e-07,5.6259,1.6653e-12,-1.9826e-07,-7.4877e-07,-5.626,0.36248
14908,8.3208,0.63636,0,0.00038527,3850,0.00012823,0.011039,0.0001253,-21.966,-0.00038564,-3861,0.36104
14909,8.2283,0.72727,0,0.00038755,3872.9,0.00012926,0.011961,0.00012559,-27.545,-0.00038801,-3886.5,0.35399
14910,8.3208,0.72727,0.05,9.7357e-07,9.729,7.4758e-07,5.617,3.4767e-12,-7.5451e-07,-7.4759e-07,-5.6171,0.36152
14911,8.3208,0.45455,0,0.00038601,3857.5,0.00012807,0.02535,0.00012623,-13.855,-0.00038625,-3864.4,0.35996
14912,8.2283,0.54545,0,0.00038831,3880.4,0.0001291,0.012,0.00012653,-19.254,-0.00038863,-3890,0.35295
14913,8.3208,0.54545,0.05,9.6916e-07,9.6849,7.4419e-07,5.5916,1.6188e-12,6.2822e-07,-7.442e-07,-5.5916,0.36048
14914,8.3208,0.27273,0,0.00038684,3865.7,0.00012792,0.050922,0.00012723,-5.1261,-0.00038693,-3868.3,0.3588
14915,8.2283,0.36364,0,0.0003891,3888.3,0.00012893,0.044385,0.00012751,-10.609,-0.00038928,-3893.6,0.35182
14916,8.3208,0.36364,0.05,9.2394e-07,9.233,7.0947e-07,5.3306,3.4392e-12,-9.2784e-07,-7.0947e-07,-5.3307,0.35936
14917,8.2283,0.18182,0,0.00039002,3897.5,0.00012879,0.28603,0.00012859,-1.264,-0.00039004,-3898,0.35061
14918,8.3208,0.18182,0.05,2.6875e-07,2.6857,2.0637e-07,1.5505,-1.2411e-12,-2.0056e-05,-2.0637e-07,-1.5506,0.35816
14919,8.3208,0.090909,0,0.00038726,3869.9,0.00012788,0.9077,0.00012774,-0.1629,-0.00038725,-3869.6,0.35755
14920,8.1358,5.7273,0,0.00039228,3920.1,0.00012978,0.051262,0.0001289,-6.5761,-0.00039239,-3923.3,0.34372
14921,8.0434,5.8182,0,0.0003955,3952.3,0.00013064,0.18441,0.00013031,-2.2973,-0.00039554,-3953.3,0.33565
14922,8.1358,5.8182,0.05,2.9599e-07,2.9579,2.2729e-07,1.7077,1.5073e-12,-4.34e-06,-2.2729e-07,-1.7078,0.34307
14923,8.1358,5.9091,0,0.00039277,3925,0.00012967,0.48267,0.00012956,-0.37902,-0.00039277,-3924.9,0.34246
14924,8.1358,5.5455,0,0.00039139,3911.2,0.00012996,0.028291,0.00012782,-16.021,-0.00039166,-3919.2,0.34489
14925,8.0434,5.6364,0,0.00039452,3942.5,0.00013081,0.04916,0.00012915,-12.477,-0.00039473,-3948.7,0.33688
14926,8.1358,5.6364,0.05,9.3266e-07,9.3202,7.1617e-07,5.381,-1.5191e-22,9.3255e-07,-7.1617e-07,-5.381,0.34429
14927,8.1358,5.3636,0,0.00039059,3903.2,0.00013012,0.012292,0.00012682,-24.845,-0.00039101,-3915.6,0.34598
14928,8.0434,5.4545,0,0.00039367,3934,0.00013099,0.013442,0.00012808,-21.876,-0.00039404,-3944.9,0.33801
14929,8.1358,5.4545,0.05,9.7682e-07,9.7614,7.5007e-07,5.6357,-4.9611e-14,1.0071e-06,-7.5007e-07,-5.6358,0.34542
14930,8.1358,5.1818,0,0.00038982,3895.5,0.00013029,0.010572,0.00012586,-33.298,-0.00039038,-3912.1,0.34699
14931,8.0434,5.2727,0,0.00039285,3925.8,0.00013117,0.013212,0.00012706,-30.897,-0.00039337,-3941.2,0.33907
14932,8.1358,5.2727,0.05,9.8123e-07,9.8055,7.5346e-07,5.6612,1.8468e-12,1.0698e-06,-7.5346e-07,-5.6612,0.34647
14933,8.1358,5,0,0.00038909,3888.2,0.00013044,0.007932,0.00012494,-41.344,-0.00038978,-3908.7,0.34791
14934,8.0434,5.0909,0,0.00039207,3918,0.00013134,0.009248,0.00012608,-39.528,-0.00039273,-3937.6,0.34004
14935,8.1358,5.0909,0.05,9.8282e-07,9.8214,7.5468e-07,5.6704,6.723e-15,5.6397e-08,-7.5468e-07,-5.6704,0.34743
14936,8.1358,4.8182,0,0.00038841,3881.4,0.00013059,0.0063082,0.00012408,-48.922,-0.00038921,-3905.6,0.34875
14937,8.0434,4.9091,0,0.00039133,3910.6,0.0001315,0.0074107,0.00012515,-47.703,-0.00039212,-3934.3,0.34092
14938,8.1358,4.9091,0.05,9.8403e-07,9.8335,7.5561e-07,5.6774,1.8547e-12,1.1356e-06,-7.5561e-07,-5.6774,0.34832
14939,8.1358,4.6364,0,0.00038777,3875,0.00013073,0.0048916,0.00012328,-55.972,-0.00038869,-3902.7,0.34951
14940,8.0434,4.7273,0,0.00039064,3903.7,0.00013164,0.0056918,0.00012428,-55.357,-0.00039155,-3931.1,0.34173
14941,8.1358,4.7273,0.05,9.8502e-07,9.8434,7.5637e-07,5.6831,5.4725e-12,-2.8059e-08,-7.5637e-07,-5.6831,0.34912
14942,8.1358,4.4545,0,0.00038718,3869.1,0.00013085,0.0037282,0.00012254,-62.441,-0.0003882,-3900,0.35019
14943,8.0434,4.5455,0,0.00039,3897.3,0.00013178,0.0043405,0.00012347,-62.433,-0.00039103,-3928.2,0.34245
14944,8.1358,4.5455,0.05,9.8584e-07,9.8516,7.57e-07,5.6878,1.8837e-12,5.9196e-07,-7.57e-07,-5.6878,0.34984
14945,8.1358,4.2727,0,0.00038665,3863.8,0.00013096,0.0027351,0.00012187,-68.277,-0.00038777,-3897.5,0.35079
14946,8.0434,4.3636,0,0.00038942,3891.5,0.00013191,0.003182,0.00012274,-68.873,-0.00039055,-3925.5,0.34309
14947,8.1358,4.3636,0.05,9.8649e-07,9.8581,7.575e-07,5.6916,9.8362e-13,5.9412e-07,-7.575e-07,-5.6916,0.35047
14948,8.1358,4.0909,0,0.00038618,3859.2,0.00013106,0.0018969,0.00012129,-73.433,-0.00038738,-3895.4,0.3513
14949,8.0434,4.1818,0,0.0003889,3886.3,0.00013202,0.0022064,0.00012208,-74.628,-0.00039012,-3923.1,0.34365
14950,8.1358,4.1818,0.05,9.87e-07,9.8632,7.579e-07,5.6945,7.8358e-14,5.2585e-07,-7.5789e-07,-5.6945,0.35103
14951,8.1358,3.9091,0,0.00038578,3855.2,0.00013115,0.0011965,0.00012078,-77.869,-0.00038705,-3893.5,0.35174
14952,8.0434,4,0,0.00038845,3881.8,0.00013211,0.0013852,0.00012151,-79.65,-0.00038974,-3921,0.34413
14953,8.1358,4,0.05,9.874e-07,9.8672,7.582e-07,5.6968,6.1385e-14,1.857e-07,-7.582e-07,-5.6969,0.35151
14954,8.1358,3.7273,0,0.00038545,3851.8,0.00013122,0.00062764,0.00012036,-81.548,-0.00038677,-3892,0.3521
14955,8.0434,3.8182,0,0.00038807,3878,0.0001322,0.00070781,0.00012103,-83.899,-0.00038942,-3919.2,0.34452
14956,8.1358,3.8182,0.05,9.877e-07,9.8702,7.5843e-07,5.6985,1.865e-12,4.7033e-07,-7.5843e-07,-5.6985,0.3519
14957,8.1358,3.5455,0,0.00038519,3849.2,0.00013127,0.00018746,0.00012003,-84.442,-0.00038655,-3890.7,0.35238
14958,8.0434,3.6364,0,0.00038776,3874.9,0.00013226,0.00016976,0.00012064,-87.342,-0.00038917,-3917.8,0.34484
14959,8.1358,3.6364,0.05,9.8792e-07,9.8723,7.5859e-07,5.6998,9.5118e-13,3.0565e-07,-7.586e-07,-5.6998,0.35222
14960,8.1358,3.3636,0,0.000385,3847.3,0.00013131,-0.00012641,0.0001198,-86.526,-0.0003864,-3889.9,0.35257
14961,8.0434,3.4545,0,0.00038752,3872.5,0.00013231,-0.00023166,0.00012034,-89.948,-0.00038897,-3916.7,0.34508
14962,8.1358,3.4545,0.05,9.8806e-07,9.8738,7.5871e-07,5.7006,3.6641e-12,2.4292e-07,-7.5871e-07,-5.7007,0.35246
14963,8.1358,3.1818,0,0.00038488,3846.2,0.00013134,-0.00031495,0.00011965,-87.783,-0.0003863,-3889.3,0.35269
14964,8.0434,3.2727,0,0.00038736,3871,0.00013234,-0.00049953,0.00012014,-91.698,-0.00038884,-3916,0.34524
14965,8.1358,3.2727,0.05,9.8816e-07,9.8747,7.5878e-07,5.7011,1.8406e-12,1.0883e-06,-7.5878e-07,-5.7012,0.35262
14966,8.1358,3,0,0.00038485,3845.8,0.00013134,-0.00037787,0.0001196,-88.203,-0.00038627,-3889.2,0.35273
14967,8.0434,3.0909,0,0.00038728,3870.2,0.00013236,-0.00063369,0.00012004,-92.577,-0.00038878,-3915.6,0.34532
14968,8.1358,3.0909,0.05,9.882e-07,9.8752,7.5882e-07,5.7014,9.1661e-13,5.1566e-08,-7.5881e-07,-5.7015,0.3527
14969,8.1358,2.8182,0,0.00038488,3846.2,0.00013134,-0.00031475,0.00011965,-87.783,-0.0003863,-3889.3,0.35269
14970,8.0434,2.9091,0,0.00038728,3870.2,0.00013236,-0.00063364,0.00012004,-92.577,-0.00038878,-3915.6,0.34532
14971,8.1358,2.9091,0.05,9.882e-07,9.8752,7.5882e-07,5.7014,1.8118e-12,8.9785e-07,-7.5881e-07,-5.7015,0.3527
14972,8.1358,2.6364,0,0.000385,3847.3,0.00013131,-0.00012593,0.0001198,-86.526,-0.0003864,-3889.9,0.35257
14973,8.0434,2.7273,0,0.00038736,3871,0.00013234,-0.0004992,0.00012014,-91.698,-0.00038884,-3916,0.34524
14974,8.1358,2.7273,0.05,9.8816e-07,9.8747,7.5878e-07,5.7011,1.7963e-12,-1.7913e-07,-7.5878e-07,-5.7012,0.35262
14975,8.1358,2.4545,0,0.00038519,3849.2,0.00013127,0.00018761,0.00012003,-84.442,-0.00038655,-3890.7,0.35238
14976,8.0434,2.5455,0,0.00038752,3872.5,0.00013231,-0.00023133,0.00012034,-89.948,-0.00038897,-3916.7,0.34508
14977,8.1358,2.5455,0.05,9.8806e-07,9.8738,7.5871e-07,5.7006,3.5976e-12,-2.9074e-07,-7.5871e-07,-5.7007,0.35246
14978,8.1358,2.2727,0,0.00038545,3851.8,0.00013122,0.00062764,0.00012036,-81.548,-0.00038677,-3892,0.3521
14979,8.0434,2.3636,0,0.00038776,3874.9,0.00013226,0.00016973,0.00012064,-87.342,-0.00038917,-3917.8,0.34484
14980,8.1358,2.3636,0.05,9.8792e-07,9.8723,7.5859e-07,5.6997,8.5629e-13,1.4146e-06,-7.586e-07,-5.6998,0.35222
14981,8.1358,2.0909,0,0.00038578,3855.2,0.00013115,0.0011968,0.00012078,-77.869,-0.00038705,-3893.5,0.35174
14982,8.0434,2.1818,0,0.00038807,3878,0.0001322,0.00070799,0.00012103,-83.899,-0.00038942,-3919.2,0.34452
14983,8.1358,2.1818,0.05,9.877e-07,9.8702,7.5843e-07,5.6985,1.7496e-12,-3.7626e-07,-7.5843e-07,-5.6985,0.3519
14984,8.1358,1.9091,0,0.00038618,3859.2,0.00013106,0.0018974,0.00012129,-73.433,-0.00038738,-3895.4,0.3513
14985,8.0434,2,0,0.00038845,3881.8,0.00013211,0.0013857,0.00012151,-79.65,-0.00038974,-3921,0.34413
14986,8.1358,2,0.05,9.874e-07,9.8672,7.582e-07,5.6968,1.7254e-12,-7.77e-07,-7.582e-07,-5.6969,0.35151
14987,8.1358,1.7273,0,0.00038665,3863.8,0.00013096,0.0027356,0.00012187,-68.277,-0.00038777,-3897.5,0.35079
14988,8.0434,1.8182,0,0.0003889,3886.3,0.00013202,0.0022067,0.00012208,-74.628,-0.00039012,-3923.1,0.34365
14989,8.1358,1.8182,0.05,9.87e-07,9.8632,7.579e-07,5.6945,1.7146e-12,2.1186e-07,-7.579e-07,-5.6946,0.35103
14990,8.1358,1.5455,0,0.00038718,3869.1,0.00013085,0.0037287,0.00012254,-62.441,-0.0003882,-3900,0.35019
14991,8.0434,1.6364,0,0.00038942,3891.5,0.00013191,0.0031826,0.00012274,-68.873,-0.00039055,-3925.5,0.34309
14992,8.1358,1.6364,0.05,9.8649e-07,9.8581,7.575e-07,5.6915,1.706e-12,5.5601e-08,-7.575e-07,-5.6916,0.35047
14993,8.1358,1.3636,0,0.00038777,3875,0.00013073,0.0048924,0.00012328,-55.972,-0.00038869,-3902.7,0.34951
14994,8.0434,1.4545,0,0.00039,3897.3,0.00013178,0.0043411,0.00012347,-62.433,-0.00039103,-3928.2,0.34245
14995,8.1358,1.4545,0.05,9.8584e-07,9.8516,7.57e-07,5.6877,1.6922e-12,-1.0969e-06,-7.57e-07,-5.6879,0.34984
14996,8.1358,1.1818,0,0.00038841,3881.4,0.00013059,0.0063091,0.00012408,-48.922,-0.00038921,-3905.6,0.34875
14997,8.0434,1.2727,0,0.00039064,3903.7,0.00013164,0.0056925,0.00012428,-55.357,-0.00039155,-3931.1,0.34173
14998,8.1358,1.2727,0.05,9.8502e-07,9.8434,7.5637e-07,5.6831,7.1044e-12,-6.0429e-07,-7.5638e-07,-5.6831,0.34912
14999,8.1358,1,0,0.00038909,3888.2,0.00013044,0.0079329,0.00012494,-41.344,-0.00038978,-3908.7,0.34791
15000,8.0434,1.0909,0,0.00039133,3910.6,0.0001315,0.0074114,0.00012515,-47.703,-0.00039212,-3934.3,0.34092
15001,8.1358,1.0909,0.05,9.8403e-07,9.8335,7.5561e-07,5.6773,3.4353e-12,4.1023e-07,-7.5561e-07,-5.6774,0.34832
15002,8.1358,0.81818,0,0.00038982,3895.5,0.00013029,0.010573,0.00012586,-33.298,-0.00039038,-3912.1,0.34699
15003,8.0434,0.90909,0,0.00039207,3918,0.00013134,0.0092492,0.00012608,-39.528,-0.00039273,-3937.6,0.34004
15004,8.1358,0.90909,0.05,9.8282e-07,9.8214,7.5468e-07,5.6703,3.4404e-12,-7.8001e-07,-7.5469e-07,-5.6704,0.34743
15005,8.1358,0.63636,0,0.00039059,3903.2,0.00013012,0.012293,0.00012682,-24.845,-0.00039101,-3915.6,0.34598
15006,8.0434,0.72727,0,0.00039285,3925.8,0.00013117,0.013213,0.00012706,-30.897,-0.00039337,-3941.2,0.33907
15007,8.1358,0.72727,0.05,9.8123e-07,9.8055,7.5346e-07,5.6612,3.45e-12,-1.6459e-07,-7.5346e-07,-5.6612,0.34647
15008,8.1358,0.45455,0,0.00039139,3911.2,0.00012996,0.028292,0.00012782,-16.021,-0.00039166,-3919.2,0.34489
15009,8.0434,0.54545,0,0.00039367,3934,0.00013099,0.013443,0.00012808,-21.876,-0.00039404,-3944.9,0.33801
15010,8.1358,0.54545,0.05,9.7682e-07,9.7614,7.5007e-07,5.6357,1.543e-12,-7.9046e-07,-7.5008e-07,-5.6358,0.34542
15011,8.1358,0.27273,0,0.00039228,3920.1,0.00012978,0.051263,0.0001289,-6.5761,-0.00039239,-3923.3,0.34372
15012,8.0434,0.36364,0,0.00039452,3942.5,0.00013081,0.049161,0.00012915,-12.477,-0.00039473,-3948.7,0.33688
15013,8.1358,0.36364,0.05,9.3266e-07,9.3202,7.1616e-07,5.381,1.5633e-12,-1.3279e-06,-7.1617e-07,-5.3811,0.34429
15014,8.0434,0.18182,0,0.0003955,3952.3,0.00013064,0.18441,0.00013031,-2.2974,-0.00039554,-3953.3,0.33565
15015,8.1358,0.18182,0.05,2.96e-07,2.9579,2.2728e-07,1.7077,2.0286e-12,-2.0002e-05,-2.2729e-07,-1.7078,0.34307
15016,8.1358,0.090909,0,0.00039277,3925,0.00012967,0.48266,0.00012956,-0.37903,-0.00039277,-3924.9,0.34246
15017,7.9509,5.7273,0,0.00039774,3974.6,0.00013166,0.052981,0.00013057,-8.1235,-0.00039787,-3978.7,0.3289
15018,7.8585,5.8182,0,0.00040101,4007.3,0.00013252,0.14391,0.00013204,-3.4595,-0.00040106,-4008.9,0.32097
15019,7.9509,5.8182,0.05,3.2557e-07,3.2535,2.5e-07,1.8784,1.7157e-13,9.3783e-07,-2.5e-07,-1.8784,0.32825
15020,7.9509,5.9091,0,0.00039831,3980.4,0.00013151,0.26726,0.00013136,-0.84167,-0.00039832,-3980.7,0.32763
15021,7.9509,5.5455,0,0.0003968,3965.2,0.00013185,0.031482,0.00012941,-18.344,-0.0003971,-3974.3,0.33009
15022,7.8585,5.6364,0,0.00039997,3996.9,0.00013271,0.054363,0.00013078,-14.476,-0.00040021,-4004.1,0.3222
15023,7.9509,5.6364,0.05,9.4196e-07,9.4131,7.2331e-07,5.4347,-1.5343e-22,1.3106e-06,-7.2331e-07,-5.4347,0.32948
15024,7.9509,5.3636,0,0.00039593,3956.6,0.00013204,0.013659,0.00012832,-27.939,-0.0003964,-3970.5,0.33119
15025,7.8585,5.4545,0,0.00039905,3987.7,0.00013291,0.015019,0.00012962,-24.691,-0.00039946,-4000,0.32335
15026,7.9509,5.4545,0.05,9.8493e-07,9.8425,7.563e-07,5.6825,2.8743e-14,1.8694e-06,-7.563e-07,-5.6826,0.33062
15027,7.9509,5.1818,0,0.0003951,3948.3,0.00013222,0.011601,0.00012728,-37.138,-0.00039572,-3966.7,0.3322
15028,7.8585,5.2727,0,0.00039817,3978.9,0.0001331,0.014583,0.00012851,-34.504,-0.00039874,-3996.1,0.32442
15029,7.9509,5.2727,0.05,9.8933e-07,9.8865,7.5968e-07,5.708,1.7925e-12,1.3995e-06,-7.5968e-07,-5.708,0.33168
15030,7.9509,5,0,0.00039431,3940.4,0.00013239,0.0085761,0.00012628,-45.896,-0.00039507,-3963.1,0.33314
15031,7.8585,5.0909,0,0.00039732,3970.5,0.00013329,0.010082,0.00012744,-43.896,-0.00039805,-3992.3,0.32539
15032,7.9509,5.0909,0.05,9.9097e-07,9.9029,7.6094e-07,5.7174,1.8733e-12,1.604e-06,-7.6094e-07,-5.7174,0.33265
15033,7.9509,4.8182,0,0.00039357,3933,0.00013255,0.0067026,0.00012534,-54.146,-0.00039446,-3959.8,0.33399
15034,7.8585,4.9091,0,0.00039653,3962.5,0.00013346,0.0079608,0.00012643,-52.793,-0.0003974,-3988.7,0.32629
15035,7.9509,4.9091,0.05,9.9221e-07,9.9152,7.6189e-07,5.7246,1.8275e-12,5.1854e-07,-7.619e-07,-5.7246,0.33354
15036,7.9509,4.6364,0,0.00039288,3926.1,0.0001327,0.0050786,0.00012447,-61.825,-0.00039389,-3956.6,0.33475
15037,7.8585,4.7273,0,0.00039578,3955.1,0.00013362,0.0059958,0.00012549,-61.128,-0.00039678,-3985.3,0.3271
15038,7.9509,4.7273,0.05,9.9322e-07,9.9253,7.6267e-07,5.7304,3.6159e-12,7.7867e-07,-7.6267e-07,-5.7304,0.33435
15039,7.9509,4.4545,0,0.00039224,3919.7,0.00013284,0.0037488,0.00012367,-68.872,-0.00039337,-3953.7,0.33543
15040,7.8585,4.5455,0,0.00039509,3948.1,0.00013377,0.004453,0.00012461,-68.834,-0.00039621,-3982.1,0.32782
15041,7.9509,4.5455,0.05,9.9403e-07,9.9334,7.6329e-07,5.735,2.0704e-14,-5.3003e-09,-7.6329e-07,-5.7351,0.33508
15042,7.9509,4.2727,0,0.00039167,3914,0.00013296,0.0026178,0.00012295,-75.231,-0.0003929,-3951.1,0.33604
15043,7.8585,4.3636,0,0.00039446,3941.9,0.00013391,0.0031357,0.00012382,-75.85,-0.00039569,-3979.2,0.32847
15044,7.9509,4.3636,0.05,9.9467e-07,9.9398,7.6378e-07,5.7387,2.4416e-14,3.4507e-07,-7.6379e-07,-5.7388,0.33572
15045,7.9509,4.0909,0,0.00039117,3909,0.00013307,0.0016656,0.00012231,-80.851,-0.00039248,-3948.8,0.33656
15046,7.8585,4.1818,0,0.0003939,3936.2,0.00013403,0.0020288,0.0001231,-82.12,-0.00039523,-3976.7,0.32903
15047,7.9509,4.1818,0.05,9.9516e-07,9.9448,7.6416e-07,5.7416,5.6193e-14,4.7138e-07,-7.6416e-07,-5.7416,0.33628
15048,7.9509,3.9091,0,0.00039073,3904.6,0.00013316,0.00087163,0.00012176,-85.686,-0.00039212,-3946.8,0.337
15049,7.8585,4,0,0.00039341,3931.3,0.00013414,0.0010993,0.00012248,-87.594,-0.00039482,-3974.4,0.32951
15050,7.9509,4,0.05,9.9553e-07,9.9485,7.6444e-07,5.7437,1.8617e-12,4.9349e-07,-7.6445e-07,-5.7437,0.33676
15051,7.9509,3.7273,0,0.00039037,3901,0.00013324,0.00022783,0.0001213,-89.698,-0.00039182,-3945.1,0.33736
15052,7.8585,3.8182,0,0.00039299,3927.2,0.00013423,0.00033411,0.00012195,-92.226,-0.00039448,-3972.5,0.32992
15053,7.9509,3.8182,0.05,9.958e-07,9.9512,7.6465e-07,5.7453,1.8493e-12,4.8674e-07,-7.6466e-07,-5.7453,0.33716
15054,7.9509,3.5455,0,0.00039009,3898.2,0.0001333,-0.00026959,0.00012094,-92.853,-0.00039158,-3943.8,0.33764
15055,7.8585,3.6364,0,0.00039266,3923.8,0.0001343,-0.00027319,0.00012153,-95.978,-0.0003942,-3971,0.33024
15056,7.9509,3.6364,0.05,9.9599e-07,9.953,7.648e-07,5.7464,9.5835e-13,2.738e-07,-7.648e-07,-5.7464,0.33748
15057,7.9509,3.3636,0,0.00038988,3896.1,0.00013334,-0.00062381,0.00012068,-95.126,-0.00039141,-3942.8,0.33784
15058,7.8585,3.4545,0,0.0003924,3921.3,0.00013436,-0.00072552,0.0001212,-98.821,-0.00039399,-3969.8,0.33048
15059,7.9509,3.4545,0.05,9.9612e-07,9.9543,7.649e-07,5.7471,3.3005e-14,1.1722e-06,-7.6489e-07,-5.7472,0.33772
15060,7.9509,3.1818,0,0.00038976,3894.9,0.00013337,-0.00083663,0.00012053,-96.497,-0.00039131,-3942.3,0.33795
15061,7.8585,3.2727,0,0.00039223,3919.6,0.00013439,-0.0010272,0.00012099,-100.73,-0.00039385,-3969,0.33064
15062,7.9509,3.2727,0.05,9.962e-07,9.9551,7.6495e-07,5.7475,1.8377e-12,1.1038e-06,-7.6496e-07,-5.7476,0.33788
15063,7.9509,3,0,0.00038972,3894.5,0.00013338,-0.00090761,0.00012048,-96.955,-0.00039128,-3942.1,0.33799
15064,7.8585,3.0909,0,0.00039214,3918.7,0.00013441,-0.0011783,0.00012088,-101.69,-0.00039378,-3968.6,0.33072
15065,7.9509,3.0909,0.05,9.9623e-07,9.9554,7.6498e-07,5.7478,1.8265e-12,5.6471e-08,-7.6498e-07,-5.7478,0.33796
15066,7.9509,2.8182,0,0.00038976,3894.9,0.00013337,-0.00083645,0.00012053,-96.497,-0.00039131,-3942.3,0.33795
15067,7.8585,2.9091,0,0.00039214,3918.7,0.00013441,-0.0011782,0.00012088,-101.69,-0.00039378,-3968.6,0.33072
15068,7.9509,2.9091,0.05,9.9623e-07,9.9554,7.6498e-07,5.7478,1.8111e-12,8.9643e-07,-7.6498e-07,-5.7478,0.33796
15069,7.9509,2.6364,0,0.00038988,3896.1,0.00013334,-0.00062363,0.00012068,-95.126,-0.00039141,-3942.8,0.33784
15070,7.8585,2.7273,0,0.00039223,3919.6,0.00013439,-0.0010271,0.00012099,-100.73,-0.00039385,-3969,0.33064
15071,7.9509,2.7273,0.05,9.962e-07,9.9551,7.6495e-07,5.7475,2.7019e-12,-1.9177e-07,-7.6496e-07,-5.7476,0.33788
15072,7.9509,2.4545,0,0.00039009,3898.2,0.0001333,-0.00026944,0.00012094,-92.853,-0.00039158,-3943.8,0.33764
15073,7.8585,2.5455,0,0.0003924,3921.3,0.00013436,-0.00072522,0.0001212,-98.821,-0.00039399,-3969.8,0.33048
15074,7.9509,2.5455,0.05,9.9612e-07,9.9543,7.649e-07,5.7471,8.7061e-13,-3.5407e-07,-7.6489e-07,-5.7472,0.33772
15075,7.9509,2.2727,0,0.00039037,3901,0.00013324,0.00022798,0.0001213,-89.698,-0.00039182,-3945.1,0.33736
15076,7.8585,2.3636,0,0.00039266,3923.8,0.0001343,-0.00027296,0.00012153,-95.978,-0.0003942,-3971,0.33024
15077,7.9509,2.3636,0.05,9.9599e-07,9.953,7.648e-07,5.7463,8.5738e-13,-5.2705e-07,-7.648e-07,-5.7464,0.33748
15078,7.9509,2.0909,0,0.00039073,3904.6,0.00013316,0.00087193,0.00012176,-85.686,-0.00039212,-3946.8,0.337
15079,7.8585,2.1818,0,0.00039299,3927.2,0.00013423,0.00033435,0.00012195,-92.226,-0.00039448,-3972.5,0.32992
15080,7.9509,2.1818,0.05,9.958e-07,9.9512,7.6465e-07,5.7453,2.6279e-12,-6.1219e-07,-7.6466e-07,-5.7453,0.33716
15081,7.9509,1.9091,0,0.00039117,3909,0.00013307,0.0016658,0.00012231,-80.851,-0.00039248,-3948.8,0.33656
15082,7.8585,2,0,0.00039341,3931.3,0.00013414,0.0010998,0.00012248,-87.594,-0.00039482,-3974.4,0.32951
15083,7.9509,2,0.05,9.9553e-07,9.9485,7.6444e-07,5.7437,2.6203e-12,-6.8339e-07,-7.6445e-07,-5.7438,0.33676
15084,7.9509,1.7273,0,0.00039167,3914,0.00013296,0.0026182,0.00012295,-75.231,-0.0003929,-3951.1,0.33604
15085,7.8585,1.8182,0,0.0003939,3936.2,0.00013403,0.0020292,0.0001231,-82.12,-0.00039523,-3976.7,0.32903
15086,7.9509,1.8182,0.05,9.9516e-07,9.9448,7.6416e-07,5.7416,1.6785e-12,2.9541e-08,-7.6417e-07,-5.7416,0.33628
15087,7.9509,1.5455,0,0.00039224,3919.7,0.00013284,0.0037495,0.00012367,-68.872,-0.00039337,-3953.7,0.33543
15088,7.8585,1.6364,0,0.00039446,3941.9,0.00013391,0.0031363,0.00012382,-75.85,-0.00039569,-3979.2,0.32847
15089,7.9509,1.6364,0.05,9.9467e-07,9.9398,7.6378e-07,5.7387,1.6759e-12,-1.4261e-07,-7.6379e-07,-5.7388,0.33572
15090,7.9509,1.3636,0,0.00039288,3926.1,0.0001327,0.0050792,0.00012447,-61.825,-0.00039389,-3956.6,0.33475
15091,7.8585,1.4545,0,0.00039509,3948.1,0.00013377,0.0044536,0.00012461,-68.834,-0.00039621,-3982.1,0.32782
15092,7.9509,1.4545,0.05,9.9403e-07,9.9334,7.6329e-07,5.735,5.2585e-12,-8.7766e-07,-7.6329e-07,-5.7351,0.33508
15093,7.9509,1.1818,0,0.00039357,3933,0.00013255,0.0067032,0.00012534,-54.146,-0.00039446,-3959.8,0.33399
15094,7.8585,1.2727,0,0.00039578,3955.1,0.00013362,0.0059964,0.00012549,-61.128,-0.00039678,-3985.3,0.3271
15095,7.9509,1.2727,0.05,9.9322e-07,9.9253,7.6266e-07,5.7303,3.3537e-12,-1.5919e-06,-7.6267e-07,-5.7304,0.33435
15096,7.9509,1,0,0.00039431,3940.4,0.00013239,0.0085772,0.00012628,-45.896,-0.00039507,-3963.1,0.33314
15097,7.8585,1.0909,0,0.00039653,3962.5,0.00013346,0.0079615,0.00012643,-52.793,-0.0003974,-3988.7,0.32629
15098,7.9509,1.0909,0.05,9.9221e-07,9.9152,7.6189e-07,5.7246,5.2031e-12,-7.8746e-07,-7.6189e-07,-5.7246,0.33354
15099,7.9509,0.81818,0,0.0003951,3948.3,0.00013222,0.011603,0.00012728,-37.138,-0.00039572,-3966.7,0.3322
15100,7.8585,0.90909,0,0.00039732,3970.5,0.00013329,0.010083,0.00012744,-43.896,-0.00039805,-3992.3,0.32539
15101,7.9509,0.90909,0.05,9.9097e-07,9.9029,7.6094e-07,5.7174,1.6951e-12,-6.0864e-07,-7.6095e-07,-5.7174,0.33265
15102,7.9509,0.63636,0,0.00039593,3956.6,0.00013204,0.01366,0.00012832,-27.939,-0.0003964,-3970.5,0.33119
15103,7.8585,0.72727,0,0.00039817,3978.9,0.0001331,0.014584,0.00012851,-34.504,-0.00039874,-3996.1,0.32442
15104,7.9509,0.72727,0.05,9.8933e-07,9.8865,7.5968e-07,5.7079,5.1834e-12,2.5384e-07,-7.5969e-07,-5.708,0.33168
15105,7.9509,0.45455,0,0.0003968,3965.2,0.00013185,0.031482,0.00012941,-18.344,-0.0003971,-3974.3,0.33009
15106,7.8585,0.54545,0,0.00039905,3987.7,0.00013291,0.015019,0.00012962,-24.691,-0.00039946,-4000,0.32335
15107,7.9509,0.54545,0.05,9.8493e-07,9.8425,7.563e-07,5.6825,3.4319e-12,-7.9669e-07,-7.563e-07,-5.6826,0.33062
15108,7.9509,0.27273,0,0.00039774,3974.6,0.00013166,0.052982,0.00013057,-8.1235,-0.00039787,-3978.7,0.3289
15109,7.8585,0.36364,0,0.00039997,3996.9,0.00013271,0.054364,0.00013078,-14.476,-0.00040021,-4004.1,0.3222
15110,7.9509,0.36364,0.05,9.4196e-07,9.4131,7.2331e-07,5.4347,1.4593e-12,1.0292e-06,-7.2331e-07,-5.4347,0.32948
15111,7.8585,0.18182,0,0.00040101,4007.3,0.00013252,0.14391,0.00013204,-3.4596,-0.00040106,-4008.9,0.32097
15112,7.9509,0.18182,0.05,3.2557e-07,3.2535,2.5e-07,1.8784,2.5574e-13,-1.507e-05,-2.5e-07,-1.8784,0.32825
15113,7.9509,0.090909,0,0.00039831,3980.4,0.00013151,0.26726,0.00013136,-0.84168,-0.00039832,-3980.7,0.32763
15114,7.766,5.7273,0,0.00040323,4029.5,0.00013355,0.055691,0.00013225,-9.7738,-0.00040339,-4034.3,0.31436
15115,7.6736,5.8182,0,0.00040654,4062.6,0.0001344,0.12448,0.00013376,-4.7137,-0.00040662,-4064.9,0.30656
15116,7.766,5.8182,0.05,3.5766e-07,3.5742,2.7464e-07,2.0635,1.7171e-13,-4.5655e-06,-2.7464e-07,-2.0636,0.3137
15117,7.766,5.9091,0,0.00040389,4036.1,0.00013337,0.18619,0.00013315,-1.4772,-0.00040391,-4036.7,0.31308
15118,7.766,5.5455,0,0.00040222,4019.4,0.00013377,0.034954,0.00013099,-20.834,-0.00040257,-4029.8,0.31556
15119,7.6736,5.6364,0,0.00040544,4051.6,0.00013462,0.060035,0.0001324,-16.614,-0.00040572,-4059.8,0.30781
15120,7.766,5.6364,0.05,9.519e-07,9.5124,7.3094e-07,5.492,1.3342e-13,1.1659e-06,-7.3094e-07,-5.492,0.31494
15121,7.766,5.3636,0,0.00040128,4010.1,0.00013397,0.01516,0.00012981,-31.266,-0.00040181,-4025.6,0.31667
15122,7.6736,5.4545,0,0.00040445,4041.7,0.00013484,0.016747,0.00013115,-27.714,-0.00040491,-4055.5,0.30896
15123,7.766,5.4545,0.05,9.9355e-07,9.9286,7.6292e-07,5.7323,-3.885e-14,3.7558e-07,-7.6292e-07,-5.7323,0.3161
15124,7.766,5.1818,0,0.00040039,4001.1,0.00013417,0.012736,0.00012867,-41.271,-0.00040108,-4021.6,0.31769
15125,7.6736,5.2727,0,0.00040349,4032.2,0.00013505,0.016087,0.00012994,-38.385,-0.00040413,-4051.2,0.31003
15126,7.766,5.2727,0.05,9.9793e-07,9.9725,7.6629e-07,5.7576,1.8467e-12,-3.813e-08,-7.6629e-07,-5.7576,0.31716
15127,7.766,5,0,0.00039954,3992.6,0.00013436,0.0092926,0.00012759,-50.801,-0.00040038,-4017.8,0.31863
15128,7.6736,5.0909,0,0.00040258,4023.1,0.00013525,0.011005,0.00012878,-48.601,-0.00040339,-4047.1,0.31102
15129,7.766,5.0909,0.05,9.9962e-07,9.9893,7.6758e-07,5.7673,-3.0072e-14,9.6149e-07,-7.6758e-07,-5.7673,0.31815
15130,7.766,4.8182,0,0.00039873,3984.6,0.00013453,0.0071474,0.00012658,-59.782,-0.00039972,-4014.1,0.31949
15131,7.6736,4.9091,0,0.00040172,4014.4,0.00013545,0.0085753,0.00012769,-58.283,-0.00040268,-4043.3,0.31192
15132,7.766,4.9091,0.05,1.0009e-06,10.002,7.6855e-07,5.7746,3.7168e-15,-1.9574e-07,-7.6856e-07,-5.7746,0.31904
15133,7.766,4.6364,0,0.00039799,3977.1,0.0001347,0.0052979,0.00012563,-68.143,-0.0003991,-4010.8,0.32026
15134,7.6736,4.7273,0,0.00040091,4006.4,0.00013562,0.0063425,0.00012666,-67.355,-0.00040202,-4039.6,0.31274
15135,7.766,4.7273,0.05,1.0019e-06,10.012,7.6933e-07,5.7805,7.5683e-14,6.3488e-07,-7.6933e-07,-5.7805,0.31986
15136,7.766,4.4545,0,0.0003973,3970.3,0.00013485,0.0037868,0.00012476,-75.817,-0.00039854,-4007.6,0.32095
15137,7.6736,4.5455,0,0.00040017,3998.9,0.00013579,0.0045917,0.00012571,-75.745,-0.0004014,-4036.2,0.31347
15138,7.766,4.5455,0.05,1.0027e-06,10.02,7.6995e-07,5.7851,5.4519e-14,7.7831e-07,-7.6995e-07,-5.7851,0.32059
15139,7.766,4.2727,0,0.00039668,3964.1,0.00013498,0.0025052,0.00012397,-82.744,-0.00039803,-4004.8,0.32155
15140,7.6736,4.3636,0,0.00039949,3992.1,0.00013594,0.0031009,0.00012484,-83.387,-0.00040084,-4033.1,0.31412
15141,7.766,4.3636,0.05,1.0033e-06,10.026,7.7042e-07,5.7886,1.8873e-12,7.0357e-07,-7.7042e-07,-5.7886,0.32123
15142,7.766,4.0909,0,0.00039614,3958.6,0.0001351,0.0014285,0.00012327,-88.868,-0.00039757,-4002.3,0.32208
15143,7.6736,4.1818,0,0.00039888,3986,0.00013607,0.0018508,0.00012407,-90.217,-0.00040034,-4030.4,0.31469
15144,7.766,4.1818,0.05,1.0038e-06,10.031,7.7077e-07,5.7913,9.2808e-14,-3.2445e-07,-7.7077e-07,-5.7913,0.3218
15145,7.766,3.9091,0,0.00039567,3953.9,0.0001352,0.00053272,0.00012268,-94.138,-0.00039718,-4000.2,0.32252
15146,7.6736,4,0,0.00039835,3980.7,0.00013619,0.0008035,0.00012339,-96.181,-0.0003999,-4027.9,0.31517
15147,7.766,4,0.05,1.0041e-06,10.034,7.7103e-07,5.7932,6.3977e-14,-4.2985e-07,-7.7103e-07,-5.7932,0.32228
15148,7.766,3.7273,0,0.00039527,3950,0.00013529,-0.00019262,0.00012218,-98.511,-0.00039686,-3998.4,0.32288
15149,7.6736,3.8182,0,0.0003979,3976.2,0.00013629,-5.7633e-05,0.00012282,-101.23,-0.00039952,-4025.9,0.31558
15150,7.766,3.8182,0.05,1.0043e-06,10.036,7.7121e-07,5.7945,3.6795e-12,2.9242e-07,-7.7121e-07,-5.7946,0.32269
15151,7.766,3.5455,0,0.00039497,3947,0.00013536,-0.00075261,0.00012179,-101.95,-0.0003966,-3996.9,0.32316
15152,7.6736,3.6364,0,0.00039753,3972.6,0.00013637,-0.00074013,0.00012235,-105.32,-0.00039922,-4024.2,0.3159
15153,7.766,3.6364,0.05,1.0045e-06,10.038,7.7133e-07,5.7954,2.7699e-12,3.3014e-07,-7.7133e-07,-5.7955,0.32301
15154,7.766,3.3636,0,0.00039475,3944.7,0.0001354,-0.001151,0.00012151,-104.43,-0.00039642,-3995.9,0.32336
15155,7.6736,3.4545,0,0.00039726,3969.8,0.00013643,-0.0012482,0.000122,-108.42,-0.00039899,-4022.9,0.31614
15156,7.766,3.4545,0.05,1.0046e-06,10.039,7.7141e-07,5.796,1.8566e-12,1.1701e-06,-7.714e-07,-5.7961,0.32325
15157,7.766,3.1818,0,0.00039461,3943.4,0.00013543,-0.0013902,0.00012134,-105.92,-0.00039631,-3995.3,0.32348
15158,7.6736,3.2727,0,0.00039707,3968,0.00013647,-0.0015869,0.00012176,-110.5,-0.00039884,-4022.1,0.3163
15159,7.766,3.2727,0.05,1.0046e-06,10.04,7.7144e-07,5.7963,2.7504e-12,1.1102e-06,-7.7145e-07,-5.7964,0.32341
15160,7.766,3,0,0.00039457,3943,0.00013544,-0.00147,0.00012128,-106.42,-0.00039627,-3995.1,0.32353
15161,7.6736,3.0909,0,0.00039698,3967.1,0.00013649,-0.0017564,0.00012164,-111.54,-0.00039876,-4021.7,0.31638
15162,7.766,3.0909,0.05,1.0047e-06,10.04,7.7146e-07,5.7964,9.1742e-13,5.6938e-08,-7.7147e-07,-5.7965,0.32349
15163,7.766,2.8182,0,0.00039461,3943.4,0.00013543,-0.0013901,0.00012134,-105.92,-0.00039631,-3995.3,0.32348
15164,7.6736,2.9091,0,0.00039698,3967.1,0.00013649,-0.0017562,0.00012164,-111.54,-0.00039876,-4021.7,0.31638
15165,7.766,2.9091,0.05,1.0047e-06,10.04,7.7146e-07,5.7964,9.0125e-13,1.8421e-06,-7.7147e-07,-5.7965,0.32349
15166,7.766,2.6364,0,0.00039475,3944.7,0.0001354,-0.0011508,0.00012151,-104.43,-0.00039642,-3995.9,0.32336
15167,7.6736,2.7273,0,0.00039707,3968,0.00013647,-0.0015867,0.00012176,-110.5,-0.00039884,-4022.1,0.3163
15168,7.766,2.7273,0.05,1.0046e-06,10.04,7.7144e-07,5.7963,2.6994e-12,7.4268e-07,-7.7145e-07,-5.7964,0.32341
15169,7.766,2.4545,0,0.00039497,3947,0.00013536,-0.00075222,0.00012179,-101.95,-0.0003966,-3996.9,0.32316
15170,7.6736,2.5455,0,0.00039726,3969.8,0.00013643,-0.001248,0.000122,-108.42,-0.00039899,-4022.9,0.31614
15171,7.766,2.5455,0.05,1.0046e-06,10.039,7.7141e-07,5.796,1.7793e-12,-3.8543e-07,-7.714e-07,-5.7961,0.32325
15172,7.766,2.2727,0,0.00039527,3950,0.00013529,-0.00019229,0.00012218,-98.511,-0.00039686,-3998.4,0.32288
15173,7.6736,2.3636,0,0.00039753,3972.6,0.00013637,-0.00073983,0.00012235,-105.32,-0.00039922,-4024.2,0.3159
15174,7.766,2.3636,0.05,1.0045e-06,10.038,7.7133e-07,5.7954,2.6627e-12,1.4656e-06,-7.7133e-07,-5.7955,0.32301
15175,7.766,2.0909,0,0.00039567,3953.9,0.0001352,0.00053319,0.00012268,-94.138,-0.00039718,-4000.2,0.32252
15176,7.6736,2.1818,0,0.0003979,3976.2,0.00013629,-5.7037e-05,0.00012282,-101.23,-0.00039952,-4025.9,0.31558
15177,7.766,2.1818,0.05,1.0043e-06,10.036,7.7121e-07,5.7945,3.5217e-12,-9.1979e-07,-7.7121e-07,-5.7946,0.32269
15178,7.766,1.9091,0,0.00039614,3958.6,0.0001351,0.0014292,0.00012327,-88.868,-0.00039757,-4002.3,0.32208
15179,7.6736,2,0,0.00039835,3980.7,0.00013619,0.00080392,0.00012339,-96.181,-0.0003999,-4027.9,0.31517
15180,7.766,2,0.05,1.0041e-06,10.034,7.7103e-07,5.7932,-8.2068e-14,-8.402e-07,-7.7103e-07,-5.7932,0.32228
15181,7.766,1.7273,0,0.00039668,3964.1,0.00013498,0.0025059,0.00012397,-82.744,-0.00039803,-4004.8,0.32155
15182,7.6736,1.8182,0,0.00039888,3986,0.00013607,0.0018515,0.00012407,-90.217,-0.00040034,-4030.4,0.31469
15183,7.766,1.8182,0.05,1.0038e-06,10.031,7.7077e-07,5.7913,-1.1722e-13,3.2445e-07,-7.7078e-07,-5.7913,0.3218
15184,7.766,1.5455,0,0.0003973,3970.3,0.00013485,0.0037873,0.00012476,-75.817,-0.00039854,-4007.6,0.32095
15185,7.6736,1.6364,0,0.00039949,3992.1,0.00013594,0.0031016,0.00012484,-83.387,-0.00040084,-4033.1,0.31412
15186,7.766,1.6364,0.05,1.0033e-06,10.026,7.7042e-07,5.7886,5.2951e-12,-1.0512e-06,-7.7042e-07,-5.7887,0.32123
15187,7.766,1.3636,0,0.00039799,3977.1,0.0001347,0.0052984,0.00012563,-68.143,-0.0003991,-4010.8,0.32026
15188,7.6736,1.4545,0,0.00040017,3998.9,0.00013579,0.0045922,0.00012571,-75.745,-0.0004014,-4036.2,0.31347
15189,7.766,1.4545,0.05,1.0027e-06,10.02,7.6995e-07,5.785,-2.0757e-13,-1.4202e-06,-7.6995e-07,-5.7851,0.32059
15190,7.766,1.1818,0,0.00039873,3984.6,0.00013453,0.0071481,0.00012658,-59.782,-0.00039972,-4014.1,0.31949
15191,7.6736,1.2727,0,0.00040091,4006.4,0.00013562,0.0063431,0.00012666,-67.355,-0.00040202,-4039.6,0.31274
15192,7.766,1.2727,0.05,1.0019e-06,10.012,7.6933e-07,5.7804,-1.6639e-13,-1.3957e-06,-7.6933e-07,-5.7805,0.31986
15193,7.766,1,0,0.00039954,3992.6,0.00013436,0.0092936,0.00012759,-50.801,-0.00040038,-4017.8,0.31863
15194,7.6736,1.0909,0,0.00040172,4014.4,0.00013545,0.0085761,0.00012769,-58.283,-0.00040268,-4043.3,0.31192
15195,7.766,1.0909,0.05,1.0009e-06,10.002,7.6855e-07,5.7746,3.4001e-12,-3.9038e-07,-7.6856e-07,-5.7746,0.31904
15196,7.766,0.81818,0,0.00040039,4001.1,0.00013417,0.012737,0.00012867,-41.271,-0.00040108,-4021.6,0.31769
15197,7.6736,0.90909,0,0.00040258,4023.1,0.00013525,0.011006,0.00012878,-48.601,-0.00040339,-4047.1,0.31102
15198,7.766,0.90909,0.05,9.9962e-07,9.9893,7.6758e-07,5.7673,1.6449e-12,-5.6283e-07,-7.6758e-07,-5.7674,0.31815
15199,7.766,0.63636,0,0.00040128,4010.1,0.00013397,0.015161,0.00012981,-31.266,-0.00040181,-4025.6,0.31667
15200,7.6736,0.72727,0,0.00040349,4032.2,0.00013505,0.016088,0.00012994,-38.385,-0.00040413,-4051.2,0.31003
15201,7.766,0.72727,0.05,9.9793e-07,9.9725,7.6629e-07,5.7575,3.4141e-12,-2.1678e-06,-7.6629e-07,-5.7577,0.31716
15202,7.766,0.45455,0,0.00040222,4019.4,0.00013377,0.034954,0.00013099,-20.834,-0.00040257,-4029.8,0.31556
15203,7.6736,0.54545,0,0.00040445,4041.7,0.00013484,0.016748,0.00013115,-27.714,-0.00040491,-4055.5,0.30896
15204,7.766,0.54545,0.05,9.9355e-07,9.9286,7.6291e-07,5.7322,3.2249e-12,-2.6998e-06,-7.6293e-07,-5.7323,0.3161
15205,7.766,0.27273,0,0.00040323,4029.5,0.00013355,0.055693,0.00013225,-9.7738,-0.00040339,-4034.3,0.31436
15206,7.6736,0.36364,0,0.00040544,4051.6,0.00013462,0.060037,0.0001324,-16.614,-0.00040572,-4059.8,0.30781
15207,7.766,0.36364,0.05,9.519e-07,9.5124,7.3094e-07,5.492,-2.4015e-13,-6.0155e-07,-7.3094e-07,-5.492,0.31494
15208,7.6736,0.18182,0,0.00040654,4062.6,0.0001344,0.12448,0.00013376,-4.7137,-0.00040662,-4064.9,0.30656
15209,7.766,0.18182,0.05,3.5767e-07,3.5742,2.7464e-07,2.0635,8.791e-13,-9.8217e-06,-2.7464e-07,-2.0636,0.3137
15210,7.766,0.090909,0,0.00040389,4036.1,0.00013337,0.18619,0.00013315,-1.4772,-0.00040391,-4036.7,0.31308
15211,7.5811,5.7273,0,0.00040874,4084.6,0.00013546,0.059216,0.00013392,-11.533,-0.00040894,-4090.3,0.3001
15212,7.4887,5.8182,0,0.00041211,4118.3,0.00013631,0.11459,0.00013548,-6.0514,-0.00041221,-4121.2,0.29243
15213,7.5811,5.8182,0.05,3.9247e-07,3.922,3.0137e-07,2.2644,-6.2738e-13,7.3988e-07,-3.0137e-07,-2.2644,0.29943
15214,7.5811,5.9091,0,0.00040949,4092.1,0.00013525,0.15207,0.00013494,-2.1997,-0.00040953,-4093.1,0.2988
15215,7.5811,5.5455,0,0.00040766,4073.8,0.00013569,0.038735,0.00013256,-23.503,-0.00040806,-4085.5,0.3013
15216,7.4887,5.6364,0,0.00041093,4106.5,0.00013655,0.066211,0.00013402,-18.901,-0.00041125,-4115.9,0.29368
15217,7.5811,5.6364,0.05,9.6254e-07,9.6188,7.3911e-07,5.5534,3.6132e-14,-3.5024e-07,-7.3911e-07,-5.5534,0.30068
15218,7.5811,5.3636,0,0.00040666,4063.7,0.00013592,0.016807,0.00013128,-34.841,-0.00040724,-4081,0.30242
15219,7.4887,5.4545,0,0.00040986,4095.8,0.00013679,0.018635,0.00013266,-30.958,-0.00041038,-4111.2,0.29485
15220,7.5811,5.4545,0.05,1.0027e-06,10.02,7.6997e-07,5.7853,1.8905e-14,1.5049e-06,-7.6997e-07,-5.7853,0.30184
15221,7.5811,5.1818,0,0.00040569,4054.1,0.00013614,0.013986,0.00013005,-45.722,-0.00040645,-4076.7,0.30345
15222,7.4887,5.2727,0,0.00040884,4085.5,0.00013702,0.01773,0.00013135,-42.559,-0.00040954,-4106.6,0.29593
15223,7.5811,5.2727,0.05,1.0071e-06,10.064,7.7332e-07,5.8104,5.4021e-14,1.207e-06,-7.7332e-07,-5.8104,0.30292
15224,7.5811,5,0,0.00040477,4044.9,0.00013634,0.010089,0.00012888,-56.089,-0.00040569,-4072.6,0.3044
15225,7.4887,5.0909,0,0.00040785,4075.7,0.00013724,0.012017,0.0001301,-53.669,-0.00040874,-4102.3,0.29692
15226,7.5811,5.0909,0.05,1.0088e-06,10.081,7.7464e-07,5.8204,-4.5426e-14,-6.0118e-08,-7.7465e-07,-5.8204,0.30391
15227,7.5811,4.8182,0,0.0004039,4036.2,0.00013654,0.0076477,0.00012777,-65.861,-0.00040498,-4068.7,0.30526
15228,7.4887,4.9091,0,0.00040692,4066.4,0.00013745,0.0092525,0.00012891,-64.202,-0.00040797,-4098.1,0.29783
15229,7.5811,4.9091,0.05,1.0101e-06,10.094,7.7563e-07,5.8278,1.7529e-12,4.6755e-07,-7.7563e-07,-5.8278,0.30481
15230,7.5811,4.6364,0,0.00040309,4028.1,0.00013672,0.0055528,0.00012674,-74.962,-0.00040432,-4065.1,0.30604
15231,7.4887,4.7273,0,0.00040605,4057.7,0.00013765,0.0067286,0.00012779,-74.075,-0.00040726,-4094.2,0.29865
15232,7.5811,4.7273,0.05,1.0111e-06,10.104,7.764e-07,5.8336,5.5979e-14,4.5931e-07,-7.7641e-07,-5.8336,0.30563
15233,7.5811,4.4545,0,0.00040235,4020.7,0.00013688,0.0038444,0.00012579,-83.319,-0.0004037,-4061.7,0.30673
15234,7.4887,4.5455,0,0.00040524,4049.6,0.00013783,0.0047511,0.00012675,-83.209,-0.00040659,-4090.5,0.29939
15235,7.5811,4.5455,0.05,1.0119e-06,10.112,7.77e-07,5.8381,1.852e-12,7.3914e-07,-7.77e-07,-5.8381,0.30637
15236,7.5811,4.2727,0,0.00040168,4014,0.00013703,0.0023986,0.00012494,-90.864,-0.00040315,-4058.7,0.30734
15237,7.4887,4.3636,0,0.0004045,4042.2,0.00013799,0.0030718,0.00012581,-91.53,-0.00040598,-4087.2,0.30004
15238,7.5811,4.3636,0.05,1.0125e-06,10.118,7.7745e-07,5.8414,1.7925e-12,4.5479e-07,-7.7745e-07,-5.8415,0.30702
15239,7.5811,4.0909,0,0.00040109,4008.1,0.00013716,0.0011866,0.00012418,-97.535,-0.00040266,-4056,0.30787
15240,7.4887,4.1818,0,0.00040384,4035.7,0.00013814,0.001666,0.00012497,-98.97,-0.00040544,-4084.2,0.30062
15241,7.5811,4.1818,0.05,1.0129e-06,10.122,7.7776e-07,5.8438,3.3073e-14,4.3456e-07,-7.7777e-07,-5.8439,0.30759
15242,7.5811,3.9091,0,0.00040058,4003,0.00013727,0.00017965,0.00012353,-103.28,-0.00040224,-4053.7,0.30832
15243,7.4887,4,0,0.00040327,4029.9,0.00013827,0.00049006,0.00012423,-105.47,-0.00040496,-4081.6,0.3011
15244,7.5811,4,0.05,1.0132e-06,10.125,7.7798e-07,5.8455,5.6805e-14,4.4009e-07,-7.7799e-07,-5.8455,0.30808
15245,7.5811,3.7273,0,0.00040016,3998.8,0.00013737,-0.00063477,0.00012299,-108.04,-0.00040189,-4051.7,0.30868
15246,7.4887,3.8182,0,0.00040278,4025,0.00013838,-0.00047555,0.00012361,-110.97,-0.00040456,-4079.4,0.30151
15247,7.5811,3.8182,0.05,1.0134e-06,10.127,7.7813e-07,5.8465,5.7439e-14,2.6763e-07,-7.7813e-07,-5.8466,0.30848
15248,7.5811,3.5455,0,0.00039982,3995.5,0.00013744,-0.0012628,0.00012256,-111.79,-0.00040161,-4050.2,0.30896
15249,7.4887,3.6364,0,0.00040239,4021.1,0.00013846,-0.0012399,0.0001231,-115.43,-0.00040423,-4077.6,0.30183
15250,7.5811,3.6364,0.05,1.0135e-06,10.128,7.7821e-07,5.8472,4.1438e-14,3.7635e-07,-7.7821e-07,-5.8472,0.30881
15251,7.5811,3.3636,0,0.00039958,3993.1,0.00013749,-0.0017095,0.00012226,-114.49,-0.00040141,-4049.1,0.30917
15252,7.4887,3.4545,0,0.00040209,4018.1,0.00013853,-0.0018089,0.00012272,-118.8,-0.00040398,-4076.2,0.30208
15253,7.5811,3.4545,0.05,1.0135e-06,10.128,7.7826e-07,5.8475,2.9846e-14,2.8674e-07,-7.7827e-07,-5.8476,0.30905
15254,7.5811,3.1818,0,0.00039944,3991.6,0.00013753,-0.0019775,0.00012207,-116.12,-0.00040129,-4048.4,0.30929
15255,7.4887,3.2727,0,0.00040189,4016.1,0.00013858,-0.0021879,0.00012246,-121.07,-0.00040381,-4075.3,0.30224
15256,7.5811,3.2727,0.05,1.0136e-06,10.129,7.7828e-07,5.8477,2.252e-14,1.5372e-07,-7.7829e-07,-5.8478,0.30921
15257,7.5811,3,0,0.00039939,3991.2,0.00013754,-0.0020668,0.00012201,-116.67,-0.00040125,-4048.2,0.30933
15258,7.4887,3.0909,0,0.00040179,4015.1,0.0001386,-0.0023775,0.00012233,-122.21,-0.00040373,-4074.8,0.30232
15259,7.5811,3.0909,0.05,1.0136e-06,10.129,7.783e-07,5.8478,9.1823e-13,6.3095e-08,-7.7829e-07,-5.8478,0.30929
15260,7.5811,2.8182,0,0.00039944,3991.6,0.00013753,-0.0019773,0.00012207,-116.12,-0.00040129,-4048.4,0.30929
15261,7.4887,2.9091,0,0.00040179,4015.1,0.0001386,-0.0023773,0.00012233,-122.21,-0.00040373,-4074.8,0.30232
15262,7.5811,2.9091,0.05,1.0136e-06,10.129,7.783e-07,5.8478,1.8101e-12,-6.8684e-08,-7.7829e-07,-5.8478,0.30929
15263,7.5811,2.6364,0,0.00039958,3993.1,0.00013749,-0.0017094,0.00012226,-114.49,-0.00040141,-4049.1,0.30917
15264,7.4887,2.7273,0,0.00040189,4016.1,0.00013858,-0.0021879,0.00012246,-121.07,-0.00040381,-4075.3,0.30224
15265,7.5811,2.7273,0.05,1.0136e-06,10.129,7.7828e-07,5.8477,-2.8171e-14,1.6712e-06,-7.7829e-07,-5.8478,0.30921
15266,7.5811,2.4545,0,0.00039982,3995.5,0.00013744,-0.0012626,0.00012256,-111.79,-0.00040161,-4050.2,0.30896
15267,7.4887,2.5455,0,0.00040209,4018.1,0.00013853,-0.0018089,0.00012272,-118.8,-0.00040398,-4076.2,0.30208
15268,7.5811,2.5455,0.05,1.0135e-06,10.128,7.7826e-07,5.8475,1.7605e-12,-3.5748e-07,-7.7827e-07,-5.8476,0.30905
15269,7.5811,2.2727,0,0.00040016,3998.8,0.00013737,-0.0006342,0.00012299,-108.04,-0.00040189,-4051.7,0.30868
15270,7.4887,2.3636,0,0.00040239,4021.1,0.00013846,-0.0012399,0.0001231,-115.43,-0.00040423,-4077.6,0.30183
15271,7.5811,2.3636,0.05,1.0135e-06,10.128,7.7821e-07,5.8471,-8.1298e-14,2.1674e-07,-7.7822e-07,-5.8473,0.30881
15272,7.5811,2.0909,0,0.00040058,4003,0.00013727,0.00018019,0.00012353,-103.28,-0.00040224,-4053.7,0.30832
15273,7.4887,2.1818,0,0.00040278,4025,0.00013838,-0.00047501,0.00012361,-110.97,-0.00040456,-4079.4,0.30151
15274,7.5811,2.1818,0.05,1.0134e-06,10.127,7.7813e-07,5.8465,-8.6864e-14,-8.8472e-07,-7.7813e-07,-5.8466,0.30848
15275,7.5811,1.9091,0,0.00040109,4008.1,0.00013716,0.001187,0.00012418,-97.535,-0.00040266,-4056,0.30787
15276,7.4887,2,0,0.00040327,4029.9,0.00013827,0.00049042,0.00012423,-105.47,-0.00040496,-4081.6,0.3011
15277,7.5811,2,0.05,1.0132e-06,10.125,7.7798e-07,5.8455,-1.2955e-13,7.0557e-09,-7.7799e-07,-5.8455,0.30808
15278,7.5811,1.7273,0,0.00040168,4014,0.00013703,0.0023994,0.00012494,-90.864,-0.00040315,-4058.7,0.30734
15279,7.4887,1.8182,0,0.00040384,4035.7,0.00013814,0.0016667,0.00012497,-98.97,-0.00040544,-4084.2,0.30062
15280,7.5811,1.8182,0.05,1.0129e-06,10.122,7.7776e-07,5.8438,1.6563e-12,-1.4011e-06,-7.7777e-07,-5.8439,0.30759
15281,7.5811,1.5455,0,0.00040235,4020.7,0.00013688,0.0038451,0.00012579,-83.319,-0.0004037,-4061.7,0.30673
15282,7.4887,1.6364,0,0.0004045,4042.2,0.00013799,0.0030725,0.00012581,-91.53,-0.00040598,-4087.2,0.30004
15283,7.5811,1.6364,0.05,1.0125e-06,10.118,7.7744e-07,5.8414,5.1634e-12,-2.4666e-07,-7.7745e-07,-5.8415,0.30702
15284,7.5811,1.3636,0,0.00040309,4028.1,0.00013672,0.0055534,0.00012674,-74.962,-0.00040432,-4065.1,0.30604
15285,7.4887,1.4545,0,0.00040524,4049.6,0.00013783,0.0047518,0.00012675,-83.209,-0.00040659,-4090.5,0.29939
15286,7.5811,1.4545,0.05,1.0119e-06,10.112,7.77e-07,5.8381,3.427e-12,4.925e-07,-7.77e-07,-5.8381,0.30637
15287,7.5811,1.1818,0,0.0004039,4036.2,0.00013654,0.0076484,0.00012777,-65.861,-0.00040498,-4068.7,0.30526
15288,7.4887,1.2727,0,0.00040605,4057.7,0.00013765,0.0067291,0.00012779,-74.075,-0.00040726,-4094.2,0.29865
15289,7.5811,1.2727,0.05,1.0111e-06,10.104,7.764e-07,5.8336,1.5757e-12,-1.9836e-07,-7.764e-07,-5.8336,0.30563
15290,7.5811,1,0,0.00040477,4044.9,0.00013634,0.01009,0.00012888,-56.089,-0.00040569,-4072.6,0.3044
15291,7.4887,1.0909,0,0.00040692,4066.4,0.00013745,0.0092534,0.00012891,-64.202,-0.00040797,-4098.1,0.29783
15292,7.5811,1.0909,0.05,1.0101e-06,10.094,7.7563e-07,5.8277,3.2122e-12,-8.3599e-07,-7.7563e-07,-5.8278,0.30481
15293,7.5811,0.81818,0,0.00040569,4054.1,0.00013614,0.013987,0.00013005,-45.722,-0.00040645,-4076.7,0.30345
15294,7.4887,0.90909,0,0.00040785,4075.7,0.00013724,0.012019,0.0001301,-53.669,-0.00040874,-4102.3,0.29692
15295,7.5811,0.90909,0.05,1.0088e-06,10.081,7.7464e-07,5.8203,1.5212e-12,-2.06e-06,-7.7464e-07,-5.8204,0.30391
15296,7.5811,0.63636,0,0.00040666,4063.7,0.00013592,0.016808,0.00013128,-34.841,-0.00040724,-4081,0.30242
15297,7.4887,0.72727,0,0.00040884,4085.5,0.00013702,0.017731,0.00013135,-42.559,-0.00040954,-4106.6,0.29593
15298,7.5811,0.72727,0.05,1.0071e-06,10.064,7.7332e-07,5.8104,3.3438e-12,-8.9363e-07,-7.7332e-07,-5.8105,0.30292
15299,7.5811,0.45455,0,0.00040766,4073.8,0.00013569,0.038736,0.00013256,-23.503,-0.00040806,-4085.5,0.3013
15300,7.4887,0.54545,0,0.00040986,4095.8,0.00013679,0.018635,0.00013266,-30.958,-0.00041038,-4111.2,0.29485
15301,7.5811,0.54545,0.05,1.0027e-06,10.02,7.6997e-07,5.7852,3.2387e-12,-2.1368e-06,-7.6998e-07,-5.7853,0.30184
15302,7.5811,0.27273,0,0.00040874,4084.6,0.00013546,0.059217,0.00013392,-11.533,-0.00040894,-4090.3,0.3001
15303,7.4887,0.36364,0,0.00041093,4106.5,0.00013655,0.066212,0.00013402,-18.901,-0.00041125,-4115.9,0.29368
15304,7.5811,0.36364,0.05,9.6254e-07,9.6188,7.3911e-07,5.5533,3.2467e-12,-2.2356e-06,-7.3911e-07,-5.5535,0.30068
15305,7.4887,0.18182,0,0.00041211,4118.3,0.00013631,0.11459,0.00013548,-6.0514,-0.00041221,-4121.2,0.29243
15306,7.5811,0.18182,0.05,3.9247e-07,3.922,3.0137e-07,2.2643,2.5055e-13,-1.5049e-05,-3.0137e-07,-2.2644,0.29943
15307,7.5811,0.090909,0,0.00040949,4092.1,0.00013525,0.15207,0.00013494,-2.1997,-0.00040953,-4093.1,0.2988
15308,7.3962,5.7273,0,0.00041429,4140,0.00013738,0.063462,0.00013559,-13.407,-0.00041452,-4146.7,0.28611
15309,7.3038,5.8182,0,0.00041771,4174.2,0.00013822,0.10997,0.00013721,-7.4712,-0.00041783,-4177.9,0.27858
15310,7.3962,5.8182,0.05,4.3021e-07,4.2991,3.3035e-07,2.4821,-6.2777e-13,1.5098e-06,-3.3035e-07,-2.4821,0.28544
15311,7.3962,5.9091,0,0.00041513,4148.5,0.00013715,0.13579,0.00013674,-2.9816,-0.00041518,-4149.9,0.2848
15312,7.3962,5.5455,0,0.00041313,4128.5,0.00013764,0.042839,0.00013413,-26.364,-0.00041357,-4141.6,0.28732
15313,7.3038,5.6364,0,0.00041645,4161.7,0.00013849,0.072931,0.00013564,-21.346,-0.00041681,-4172.3,0.27984
15314,7.3962,5.6364,0.05,9.7395e-07,9.7328,7.4788e-07,5.6192,-6.079e-22,1.2522e-06,-7.4787e-07,-5.6192,0.2867
15315,7.3962,5.3636,0,0.00041204,4117.6,0.00013789,0.018598,0.00013274,-38.683,-0.00041269,-4136.8,0.28845
15316,7.3038,5.4545,0,0.0004153,4150.1,0.00013875,0.020694,0.00013417,-34.441,-0.00041588,-4167.2,0.28102
15317,7.3962,5.4545,0.05,1.0125e-06,10.118,7.7751e-07,5.8418,1.1021e-13,8.3527e-07,-7.7751e-07,-5.8419,0.28787
15318,7.3962,5.1818,0,0.000411,4107.2,0.00013813,0.015345,0.0001314,-50.513,-0.00041183,-4132.2,0.28949
15319,7.3038,5.2727,0,0.00041419,4139.1,0.00013901,0.019522,0.00013274,-47.049,-0.00041497,-4162.4,0.28211
15320,7.3962,5.2727,0.05,1.0169e-06,10.162,7.8082e-07,5.8668,1.6006e-14,1.5222e-06,-7.8083e-07,-5.8668,0.28896
15321,7.3962,5,0,0.00041,4097.2,0.00013835,0.010955,0.00013013,-61.788,-0.00041102,-4127.7,0.29045
15322,7.3038,5.0909,0,0.00041313,4128.4,0.00013925,0.013125,0.00013138,-59.13,-0.0004141,-4157.7,0.28311
15323,7.3962,5.0909,0.05,1.0186e-06,10.179,7.8217e-07,5.8769,-6.2243e-14,-3.8556e-15,-7.8218e-07,-5.8769,0.28995
15324,7.3962,4.8182,0,0.00040907,4087.8,0.00013856,0.0081934,0.00012892,-72.421,-0.00041025,-4123.6,0.29131
15325,7.3038,4.9091,0,0.00041212,4118.4,0.00013948,0.0099954,0.00013009,-70.586,-0.00041328,-4153.2,0.28402
15326,7.3962,4.9091,0.05,1.0199e-06,10.192,7.8316e-07,5.8844,9.5387e-14,5.3344e-07,-7.8316e-07,-5.8844,0.29086
15327,7.3962,4.6364,0,0.00040819,4079.1,0.00013876,0.0058312,0.0001278,-82.326,-0.00040953,-4119.6,0.2921
15328,7.3038,4.7273,0,0.00041118,4108.9,0.0001397,0.0071549,0.00012887,-81.329,-0.0004125,-4149,0.28485
15329,7.3962,4.7273,0.05,1.0209e-06,10.202,7.8393e-07,5.8901,1.0381e-13,-3.1045e-07,-7.8393e-07,-5.8902,0.29169
15330,7.3962,4.4545,0,0.00040739,4071.1,0.00013894,0.0039081,0.00012677,-91.423,-0.00040887,-4116,0.29279
15331,7.3038,4.5455,0,0.0004103,4100.2,0.0001399,0.0049307,0.00012775,-91.27,-0.00041178,-4145,0.28559
15332,7.3962,4.5455,0.05,1.0216e-06,10.209,7.845e-07,5.8944,1.8484e-12,-9.066e-08,-7.845e-07,-5.8944,0.29243
15333,7.3962,4.2727,0,0.00040666,4063.8,0.0001391,0.0022843,0.00012584,-99.639,-0.00040827,-4112.7,0.29341
15334,7.3038,4.3636,0,0.0004095,4092.2,0.00014008,0.0030464,0.00012672,-100.33,-0.00041112,-4141.5,0.28625
15335,7.3962,4.3636,0.05,1.0222e-06,10.215,7.849e-07,5.8974,1.735e-12,1.0061e-07,-7.8491e-07,-5.8975,0.29308
15336,7.3962,4.0909,0,0.00040602,4057.4,0.00013925,0.0009245,0.00012502,-106.91,-0.00040774,-4109.8,0.29394
15337,7.3038,4.1818,0,0.00040879,4085.1,0.00014024,0.0014712,0.00012581,-108.43,-0.00041053,-4138.2,0.28682
15338,7.3962,4.1818,0.05,1.0225e-06,10.218,7.8518e-07,5.8995,1.9581e-14,8.2474e-07,-7.8518e-07,-5.8995,0.29366
15339,7.3962,3.9091,0,0.00040547,4051.9,0.00013937,-0.00020352,0.00012431,-113.16,-0.00040728,-4107.3,0.29439
15340,7.3038,4,0,0.00040817,4078.9,0.00014038,0.00015484,0.000125,-115.51,-0.00041001,-4135.4,0.28731
15341,7.3962,4,0.05,1.0228e-06,10.221,7.8536e-07,5.9008,9.4173e-14,7.5048e-07,-7.8535e-07,-5.9008,0.29415
15342,7.3962,3.7273,0,0.00040501,4047.3,0.00013947,-0.0011146,0.00012372,-118.36,-0.0004069,-4105.2,0.29475
15343,7.3038,3.8182,0,0.00040764,4073.6,0.0001405,-0.00092414,0.00012432,-121.51,-0.00040957,-4133,0.28772
15344,7.3962,3.8182,0.05,1.0229e-06,10.222,7.8544e-07,5.9015,3.6643e-12,5.9085e-07,-7.8545e-07,-5.9015,0.29455
15345,7.3962,3.5455,0,0.00040465,4043.7,0.00013955,-0.001817,0.00012326,-122.44,-0.0004066,-4103.6,0.29504
15346,7.3038,3.6364,0,0.00040722,4069.3,0.00014059,-0.0017783,0.00012377,-126.36,-0.00040922,-4131.1,0.28805
15347,7.3962,3.6364,0.05,1.0229e-06,10.222,7.8549e-07,5.9019,3.6736e-12,4.3949e-07,-7.855e-07,-5.9019,0.29488
15348,7.3962,3.3636,0,0.00040439,4041.2,0.00013961,-0.0023163,0.00012293,-125.39,-0.00040638,-4102.4,0.29524
15349,7.3038,3.4545,0,0.00040689,4066.1,0.00014066,-0.0024135,0.00012336,-130.05,-0.00040895,-4129.6,0.28829
15350,7.3962,3.4545,0.05,1.023e-06,10.223,7.855e-07,5.902,4.1097e-14,2.2679e-06,-7.8551e-07,-5.902,0.29512
15351,7.3962,3.1818,0,0.00040424,4039.6,0.00013965,-0.0026158,0.00012272,-127.16,-0.00040625,-4101.7,0.29536
15352,7.3038,3.2727,0,0.00040667,4063.9,0.00014071,-0.0028362,0.00012308,-132.52,-0.00040877,-4128.6,0.28845
15353,7.3962,3.2727,0.05,1.023e-06,10.223,7.855e-07,5.902,1.8451e-12,2.2229e-07,-7.8551e-07,-5.902,0.29528
15354,7.3962,3,0,0.00040419,4039.1,0.00013966,-0.0027156,0.00012266,-127.76,-0.00040621,-4101.4,0.2954
15355,7.3038,3.0909,0,0.00040657,4062.9,0.00014074,-0.0030475,0.00012294,-133.76,-0.00040868,-4128.1,0.28853
15356,7.3962,3.0909,0.05,1.023e-06,10.222,7.855e-07,5.9019,1.8278e-12,1.0246e-06,-7.8551e-07,-5.902,0.29537
15357,7.3962,2.8182,0,0.00040424,4039.6,0.00013965,-0.0026158,0.00012272,-127.16,-0.00040625,-4101.7,0.29536
15358,7.3038,2.9091,0,0.00040657,4062.9,0.00014074,-0.0030474,0.00012294,-133.76,-0.00040868,-4128.1,0.28853
15359,7.3962,2.9091,0.05,1.023e-06,10.222,7.855e-07,5.9019,1.8085e-12,-7.4819e-08,-7.8551e-07,-5.902,0.29537
15360,7.3962,2.6364,0,0.00040439,4041.2,0.00013961,-0.0023164,0.00012293,-125.39,-0.00040638,-4102.4,0.29524
15361,7.3038,2.7273,0,0.00040667,4063.9,0.00014071,-0.0028361,0.00012308,-132.52,-0.00040877,-4128.6,0.28845
15362,7.3962,2.7273,0.05,1.023e-06,10.223,7.855e-07,5.902,1.7878e-12,7.3648e-07,-7.8551e-07,-5.902,0.29528
15363,7.3962,2.4545,0,0.00040465,4043.7,0.00013955,-0.001817,0.00012326,-122.44,-0.0004066,-4103.6,0.29504
15364,7.3038,2.5455,0,0.00040689,4066.1,0.00014066,-0.0024132,0.00012336,-130.05,-0.00040895,-4129.6,0.28829
15365,7.3962,2.5455,0.05,1.023e-06,10.223,7.855e-07,5.902,-5.2233e-14,6.0736e-07,-7.8551e-07,-5.902,0.29512
15366,7.3962,2.2727,0,0.00040501,4047.3,0.00013947,-0.0011146,0.00012372,-118.36,-0.0004069,-4105.2,0.29475
15367,7.3038,2.3636,0,0.00040722,4069.3,0.00014059,-0.0017782,0.00012377,-126.36,-0.00040922,-4131.1,0.28805
15368,7.3962,2.3636,0.05,1.0229e-06,10.222,7.8549e-07,5.9019,3.5273e-12,-4.6534e-07,-7.8549e-07,-5.9019,0.29488
15369,7.3962,2.0909,0,0.00040547,4051.9,0.00013937,-0.00020316,0.00012431,-113.16,-0.00040728,-4107.3,0.29439
15370,7.3038,2.1818,0,0.00040764,4073.6,0.0001405,-0.00092402,0.00012432,-121.51,-0.00040957,-4133,0.28772
15371,7.3962,2.1818,0.05,1.0229e-06,10.222,7.8544e-07,5.9015,3.5117e-12,-5.5802e-07,-7.8545e-07,-5.9015,0.29455
15372,7.3962,1.9091,0,0.00040602,4057.4,0.00013925,0.0009251,0.00012502,-106.91,-0.00040774,-4109.8,0.29394
15373,7.3038,2,0,0.00040817,4078.9,0.00014038,0.00015538,0.000125,-115.51,-0.00041001,-4135.4,0.28731
15374,7.3962,2,0.05,1.0228e-06,10.221,7.8535e-07,5.9008,1.6965e-12,-6.3198e-07,-7.8535e-07,-5.9008,0.29415
15375,7.3962,1.7273,0,0.00040666,4063.8,0.0001391,0.0022849,0.00012584,-99.639,-0.00040827,-4112.7,0.29341
15376,7.3038,1.8182,0,0.00040879,4085.1,0.00014024,0.0014717,0.00012581,-108.43,-0.00041053,-4138.2,0.28682
15377,7.3962,1.8182,0.05,1.0225e-06,10.218,7.8518e-07,5.8995,-1.8911e-13,-7.331e-07,-7.8519e-07,-5.8995,0.29366
15378,7.3962,1.5455,0,0.00040739,4071.1,0.00013894,0.0039088,0.00012677,-91.423,-0.00040887,-4116,0.29279
15379,7.3038,1.6364,0,0.0004095,4092.2,0.00014008,0.003047,0.00012672,-100.33,-0.00041112,-4141.5,0.28625
15380,7.3962,1.6364,0.05,1.0222e-06,10.215,7.849e-07,5.8974,3.3102e-12,3.2966e-07,-7.8491e-07,-5.8975,0.29308
15381,7.3962,1.3636,0,0.00040819,4079.1,0.00013876,0.005832,0.0001278,-82.326,-0.00040953,-4119.6,0.2921
15382,7.3038,1.4545,0,0.0004103,4100.2,0.0001399,0.0049313,0.00012775,-91.27,-0.00041178,-4145,0.28559
15383,7.3962,1.4545,0.05,1.0216e-06,10.209,7.845e-07,5.8944,3.3694e-12,-5.2394e-07,-7.845e-07,-5.8944,0.29243
15384,7.3962,1.1818,0,0.00040907,4087.8,0.00013856,0.0081941,0.00012892,-72.421,-0.00041025,-4123.6,0.29131
15385,7.3038,1.2727,0,0.00041118,4108.9,0.0001397,0.0071558,0.00012887,-81.329,-0.0004125,-4149,0.28485
15386,7.3962,1.2727,0.05,1.0209e-06,10.202,7.8393e-07,5.89,1.6059e-12,-3.917e-06,-7.8393e-07,-5.8902,0.29169
15387,7.3962,1,0,0.00041,4097.2,0.00013835,0.010956,0.00013013,-61.788,-0.00041102,-4127.7,0.29045
15388,7.3038,1.0909,0,0.00041212,4118.4,0.00013948,0.0099962,0.00013009,-70.586,-0.00041328,-4153.2,0.28402
15389,7.3962,1.0909,0.05,1.0199e-06,10.192,7.8316e-07,5.8843,1.4695e-12,-4.4537e-06,-7.8317e-07,-5.8845,0.29086
15390,7.3962,0.81818,0,0.000411,4107.2,0.00013813,0.015346,0.0001314,-50.513,-0.00041183,-4132.2,0.28949
15391,7.3038,0.90909,0,0.00041313,4128.4,0.00013925,0.013126,0.00013138,-59.13,-0.0004141,-4157.7,0.28311
15392,7.3962,0.90909,0.05,1.0186e-06,10.179,7.8217e-07,5.8769,3.2104e-12,3.6728e-07,-7.8218e-07,-5.8769,0.28995
15393,7.3962,0.63636,0,0.00041204,4117.6,0.00013789,0.018599,0.00013274,-38.683,-0.00041269,-4136.8,0.28845
15394,7.3038,0.72727,0,0.00041419,4139.1,0.00013901,0.019523,0.00013274,-47.049,-0.00041497,-4162.4,0.28211
15395,7.3962,0.72727,0.05,1.0169e-06,10.162,7.8082e-07,5.8667,-2.5034e-13,-1.9166e-06,-7.8083e-07,-5.8669,0.28896
15396,7.3962,0.45455,0,0.00041313,4128.5,0.00013764,0.04284,0.00013413,-26.364,-0.00041357,-4141.6,0.28732
15397,7.3038,0.54545,0,0.0004153,4150.1,0.00013875,0.020695,0.00013417,-34.441,-0.00041588,-4167.2,0.28102
15398,7.3962,0.54545,0.05,1.0125e-06,10.118,7.775e-07,5.8418,-9.7588e-14,-2.7307e-06,-7.7751e-07,-5.8419,0.28787
15399,7.3962,0.27273,0,0.00041429,4140,0.00013738,0.063463,0.00013559,-13.407,-0.00041452,-4146.7,0.28611
15400,7.3038,0.36364,0,0.00041645,4161.7,0.00013849,0.072933,0.00013564,-21.346,-0.00041681,-4172.3,0.27984
15401,7.3962,0.36364,0.05,9.7395e-07,9.7328,7.4787e-07,5.6192,1.321e-12,-5.3393e-06,-7.4788e-07,-5.6193,0.2867
15402,7.3038,0.18182,0,0.00041771,4174.2,0.00013822,0.10997,0.00013721,-7.4712,-0.00041783,-4177.9,0.27858
15403,7.3962,0.18182,0.05,4.3021e-07,4.2991,3.3035e-07,2.4821,-1.2555e-12,-9.8417e-06,-3.3035e-07,-2.4821,0.28544
15404,7.3962,0.090909,0,0.00041513,4148.5,0.00013715,0.13579,0.00013674,-2.9816,-0.00041518,-4149.9,0.2848
15405,7.2113,5.7273,0,0.00041987,4195.8,0.00013932,0.068418,0.00013726,-15.401,-0.00042012,-4203.4,0.2724
15406,7.1189,5.8182,0,0.00042334,4230.5,0.00014016,0.10876,0.00013895,-8.9737,-0.00042349,-4234.9,0.26501
15407,7.2113,5.8182,0.05,4.7111e-07,4.7079,3.6175e-07,2.7181,-7.6734e-23,6.9045e-07,-3.6175e-07,-2.7181,0.27173
15408,7.2113,5.9091,0,0.00042081,4205.2,0.00013907,0.12788,0.00013854,-3.8145,-0.00042088,-4207.1,0.27109
15409,7.2113,5.5455,0,0.00041862,4183.3,0.0001396,0.047308,0.00013568,-29.429,-0.00041911,-4197.9,0.27363
15410,7.1189,5.6364,0,0.000422,4217.1,0.00014045,0.080256,0.00013725,-23.959,-0.0004224,-4229,0.26629
15411,7.2113,5.6364,0.05,9.8623e-07,9.8555,7.573e-07,5.6901,4.2111e-14,1.273e-06,-7.573e-07,-5.6901,0.273
15412,7.2113,5.3636,0,0.00041745,4171.6,0.00013987,0.020558,0.00013417,-42.812,-0.00041816,-4192.8,0.27477
15413,7.1189,5.4545,0,0.00042076,4204.7,0.00014074,0.022952,0.00013565,-38.178,-0.00042139,-4223.6,0.26747
15414,7.2113,5.4545,0.05,1.0231e-06,10.223,7.8558e-07,5.9025,5.25e-12,1.3855e-06,-7.8558e-07,-5.9025,0.27418
15415,7.2113,5.1818,0,0.00041632,4160.3,0.00014013,0.016834,0.00013272,-55.671,-0.00041724,-4187.9,0.27581
15416,7.1189,5.2727,0,0.00041956,4192.7,0.00014102,0.021484,0.00013411,-51.879,-0.00042042,-4218.4,0.26857
15417,7.2113,5.2727,0.05,1.0273e-06,10.266,7.8885e-07,5.9271,3.8152e-14,7.8305e-07,-7.8885e-07,-5.9271,0.27527
15418,7.2113,5,0,0.00041524,4149.6,0.00014038,0.01191,0.00013134,-67.932,-0.00041636,-4183.1,0.27677
15419,7.1189,5.0909,0,0.00041841,4181.2,0.00014128,0.014344,0.00013263,-65.011,-0.00041948,-4213.3,0.26957
15420,7.2113,5.0909,0.05,1.0291e-06,10.284,7.9022e-07,5.9374,1.0922e-13,6.1083e-07,-7.9022e-07,-5.9374,0.27628
15421,7.2113,4.8182,0,0.00041423,4139.4,0.00014062,0.0087981,0.00013003,-79.497,-0.00041552,-4178.6,0.27765
15422,7.1189,4.9091,0,0.00041732,4170.3,0.00014154,0.010818,0.00013122,-77.471,-0.00041858,-4208.5,0.27049
15423,7.2113,4.9091,0.05,1.0304e-06,10.297,7.9121e-07,5.9449,7.7626e-16,1.0095e-06,-7.9121e-07,-5.9449,0.27719
15424,7.2113,4.6364,0,0.00041328,4130,0.00014083,0.0061455,0.00012882,-90.276,-0.00041475,-4174.4,0.27843
15425,7.1189,4.7273,0,0.0004163,4160.1,0.00014177,0.0076331,0.0001299,-89.158,-0.00041774,-4204,0.27132
15426,7.2113,4.7273,0.05,1.0314e-06,10.306,7.9195e-07,5.9504,-3.5564e-14,-5.6744e-07,-7.9196e-07,-5.9505,0.27802
15427,7.2113,4.4545,0,0.00041242,4121.3,0.00014103,0.0039889,0.0001277,-100.18,-0.00041403,-4170.5,0.27913
15428,7.1189,4.5455,0,0.00041535,4150.7,0.00014199,0.0051405,0.00012868,-99.978,-0.00041696,-4199.7,0.27207
15429,7.2113,4.5455,0.05,1.032e-06,10.313,7.9248e-07,5.9544,1.8583e-12,9.9036e-07,-7.9249e-07,-5.9544,0.27877
15430,7.2113,4.2727,0,0.00041163,4113.5,0.00014121,0.0021708,0.00012668,-109.13,-0.00041338,-4166.9,0.27975
15431,7.1189,4.3636,0,0.00041449,4142,0.00014219,0.0030331,0.00012757,-109.84,-0.00041625,-4195.9,0.27273
15432,7.2113,4.3636,0.05,1.0325e-06,10.318,7.9284e-07,5.9571,1.068e-13,4.232e-08,-7.9284e-07,-5.9571,0.27943
15433,7.2113,4.0909,0,0.00041094,4106.5,0.00014137,0.00065031,0.00012579,-117.04,-0.0004128,-4163.8,0.28029
15434,7.1189,4.1818,0,0.00041372,4134.3,0.00014236,0.0012732,0.00012657,-118.67,-0.00041561,-4192.4,0.27331
15435,7.2113,4.1818,0.05,1.0328e-06,10.321,7.9306e-07,5.9587,1.9055e-12,1.2583e-07,-7.9306e-07,-5.9588,0.28
15436,7.2113,3.9091,0,0.00041034,4100.6,0.0001415,-0.00060947,0.00012502,-123.86,-0.00041231,-4161.1,0.28074
15437,7.1189,4,0,0.00041304,4127.6,0.00014252,-0.00019566,0.0001257,-126.38,-0.00041505,-4189.3,0.2738
15438,7.2113,4,0.05,1.0329e-06,10.322,7.9317e-07,5.9596,9.6891e-14,7.2722e-07,-7.9317e-07,-5.9596,0.28049
15439,7.2113,3.7273,0,0.00040984,4095.6,0.00014161,-0.0016264,0.00012438,-129.52,-0.00041189,-4158.8,0.2811
15440,7.1189,3.8182,0,0.00041247,4121.9,0.00014265,-0.0013986,0.00012496,-132.91,-0.00041457,-4186.7,0.27421
15441,7.2113,3.8182,0.05,1.033e-06,10.323,7.9321e-07,5.9598,1.8733e-12,-3.8398e-07,-7.9321e-07,-5.96,0.2809
15442,7.2113,3.5455,0,0.00040945,4091.7,0.0001417,-0.0024099,0.00012387,-133.97,-0.00041157,-4157,0.28139
15443,7.1189,3.6364,0,0.00041201,4117.3,0.00014275,-0.0023501,0.00012436,-138.2,-0.00041419,-4184.6,0.27454
15444,7.2113,3.6364,0.05,1.033e-06,10.323,7.932e-07,5.9598,1.8593e-12,5.4627e-07,-7.9321e-07,-5.9598,0.28123
15445,7.2113,3.3636,0,0.00040917,4088.9,0.00014176,-0.0029663,0.00012351,-137.18,-0.00041133,-4155.8,0.28159
15446,7.1189,3.4545,0,0.00041166,4113.8,0.00014283,-0.0030574,0.0001239,-142.22,-0.0004139,-4183,0.27478
15447,7.2113,3.4545,0.05,1.0329e-06,10.322,7.9317e-07,5.9596,5.2985e-14,3.7376e-07,-7.9317e-07,-5.9596,0.28147
15448,7.2113,3.1818,0,0.000409,4087.2,0.0001418,-0.0032997,0.00012329,-139.12,-0.00041119,-4155,0.28172
15449,7.1189,3.2727,0,0.00041142,4111.4,0.00014288,-0.0035278,0.0001236,-144.91,-0.0004137,-4182,0.27495
15450,7.2113,3.2727,0.05,1.0329e-06,10.322,7.9314e-07,5.9593,1.8447e-12,2.0402e-07,-7.9315e-07,-5.9594,0.28164
15451,7.2113,3,0,0.00040895,4086.6,0.00014182,-0.0034107,0.00012321,-139.76,-0.00041114,-4154.7,0.28176
15452,7.1189,3.0909,0,0.00041131,4110.2,0.00014291,-0.003763,0.00012345,-146.26,-0.0004136,-4181.4,0.27503
15453,7.2113,3.0909,0.05,1.0329e-06,10.322,7.9313e-07,5.9592,1.8294e-12,7.5854e-08,-7.9313e-07,-5.9593,0.28172
15454,7.2113,2.8182,0,0.000409,4087.2,0.0001418,-0.0032995,0.00012329,-139.12,-0.00041119,-4155,0.28172
15455,7.1189,2.9091,0,0.00041131,4110.2,0.00014291,-0.0037629,0.00012345,-146.26,-0.0004136,-4181.4,0.27503
15456,7.2113,2.9091,0.05,1.0329e-06,10.322,7.9313e-07,5.9592,1.8082e-12,-8.4025e-08,-7.9313e-07,-5.9593,0.28172
15457,7.2113,2.6364,0,0.00040917,4088.9,0.00014176,-0.0029659,0.00012351,-137.18,-0.00041133,-4155.8,0.28159
15458,7.1189,2.7273,0,0.00041142,4111.4,0.00014288,-0.0035275,0.0001236,-144.91,-0.0004137,-4182,0.27495
15459,7.2113,2.7273,0.05,1.0329e-06,10.322,7.9314e-07,5.9593,1.781e-12,-2.7788e-07,-7.9315e-07,-5.9594,0.28164
15460,7.2113,2.4545,0,0.00040945,4091.7,0.0001417,-0.0024095,0.00012387,-133.97,-0.00041157,-4157,0.28139
15461,7.1189,2.5455,0,0.00041166,4113.8,0.00014283,-0.0030571,0.0001239,-142.22,-0.0004139,-4183,0.27478
15462,7.2113,2.5455,0.05,1.0329e-06,10.322,7.9317e-07,5.9596,-5.1781e-14,-3.6366e-07,-7.9317e-07,-5.9596,0.28147
15463,7.2113,2.2727,0,0.00040984,4095.6,0.00014161,-0.0016262,0.00012438,-129.52,-0.00041189,-4158.8,0.2811
15464,7.1189,2.3636,0,0.00041201,4117.3,0.00014275,-0.00235,0.00012436,-138.2,-0.00041419,-4184.6,0.27454
15465,7.2113,2.3636,0.05,1.033e-06,10.323,7.932e-07,5.9598,1.7081e-12,3.2832e-06,-7.9321e-07,-5.9598,0.28123
15466,7.2113,2.0909,0,0.00041034,4100.6,0.0001415,-0.00060917,0.00012502,-123.86,-0.00041231,-4161.1,0.28074
15467,7.1189,2.1818,0,0.00041247,4121.9,0.00014265,-0.0013983,0.00012496,-132.91,-0.00041457,-4186.7,0.27421
15468,7.2113,2.1818,0.05,1.033e-06,10.323,7.9321e-07,5.9597,1.7037e-12,-1.0927e-06,-7.9321e-07,-5.96,0.2809
15469,7.2113,1.9091,0,0.00041094,4106.5,0.00014137,0.00065079,0.00012579,-117.04,-0.0004128,-4163.8,0.28029
15470,7.1189,2,0,0.00041304,4127.6,0.00014252,-0.00019539,0.0001257,-126.38,-0.00041505,-4189.3,0.2738
15471,7.2113,2,0.05,1.0329e-06,10.322,7.9317e-07,5.9596,-1.9055e-13,-1.1797e-06,-7.9318e-07,-5.9596,0.28049
15472,7.2113,1.7273,0,0.00041163,4113.5,0.00014121,0.0021713,0.00012668,-109.13,-0.00041338,-4166.9,0.27975
15473,7.1189,1.8182,0,0.00041372,4134.3,0.00014236,0.0012736,0.00012657,-118.67,-0.00041561,-4192.4,0.27331
15474,7.2113,1.8182,0.05,1.0328e-06,10.321,7.9306e-07,5.9587,3.4121e-12,-1.4616e-06,-7.9306e-07,-5.9588,0.28
15475,7.2113,1.5455,0,0.00041242,4121.3,0.00014103,0.0039894,0.0001277,-100.18,-0.00041403,-4170.5,0.27913
15476,7.1189,1.6364,0,0.00041449,4142,0.00014219,0.0030336,0.00012757,-109.84,-0.00041625,-4195.9,0.27273
15477,7.2113,1.6364,0.05,1.0325e-06,10.318,7.9284e-07,5.9571,-1.068e-13,-1.6375e-06,-7.9284e-07,-5.9571,0.27943
15478,7.2113,1.3636,0,0.00041328,4130,0.00014083,0.0061463,0.00012882,-90.276,-0.00041475,-4174.4,0.27843
15479,7.1189,1.4545,0,0.00041535,4150.7,0.00014199,0.0051413,0.00012868,-99.978,-0.00041696,-4199.7,0.27207
15480,7.2113,1.4545,0.05,1.032e-06,10.313,7.9248e-07,5.9544,3.3476e-12,-8.6657e-07,-7.9249e-07,-5.9544,0.27877
15481,7.2113,1.1818,0,0.00041423,4139.4,0.00014062,0.008799,0.00013003,-79.497,-0.00041552,-4178.6,0.27765
15482,7.1189,1.2727,0,0.0004163,4160.1,0.00014177,0.0076339,0.0001299,-89.158,-0.00041774,-4204,0.27132
15483,7.2113,1.2727,0.05,1.0314e-06,10.306,7.9195e-07,5.9504,1.5379e-12,-4.4808e-07,-7.9195e-07,-5.9505,0.27802
15484,7.2113,1,0,0.00041524,4149.6,0.00014038,0.011911,0.00013134,-67.932,-0.00041636,-4183.1,0.27677
15485,7.1189,1.0909,0,0.00041732,4170.3,0.00014154,0.010819,0.00013122,-77.471,-0.00041858,-4208.5,0.27049
15486,7.2113,1.0909,0.05,1.0304e-06,10.297,7.9121e-07,5.9449,1.4857e-12,6.6095e-08,-7.9122e-07,-5.9449,0.27719
15487,7.2113,0.81818,0,0.00041632,4160.3,0.00014013,0.016835,0.00013272,-55.671,-0.00041724,-4187.9,0.27581
15488,7.1189,0.90909,0,0.00041841,4181.2,0.00014128,0.014345,0.00013263,-65.011,-0.00041948,-4213.3,0.26957
15489,7.2113,0.90909,0.05,1.0291e-06,10.284,7.9022e-07,5.9374,-2.2801e-13,-2.5235e-06,-7.9022e-07,-5.9374,0.27628
15490,7.2113,0.63636,0,0.00041745,4171.6,0.00013987,0.020558,0.00013417,-42.813,-0.00041816,-4192.8,0.27477
15491,7.1189,0.72727,0,0.00041956,4192.7,0.00014102,0.021485,0.00013411,-51.879,-0.00042042,-4218.4,0.26857
15492,7.2113,0.72727,0.05,1.0273e-06,10.266,7.8885e-07,5.9271,-3.2543e-13,-1.4838e-06,-7.8886e-07,-5.9272,0.27527
15493,7.2113,0.45455,0,0.00041862,4183.3,0.0001396,0.047309,0.00013568,-29.429,-0.00041911,-4197.9,0.27363
15494,7.1189,0.54545,0,0.00042076,4204.7,0.00014074,0.022952,0.00013565,-38.178,-0.00042139,-4223.6,0.26747
15495,7.2113,0.54545,0.05,1.0231e-06,10.223,7.8558e-07,5.9024,6.6238e-12,-6.0985e-06,-7.8558e-07,-5.9026,0.27418
15496,7.2113,0.27273,0,0.00041987,4195.8,0.00013932,0.068419,0.00013726,-15.401,-0.00042012,-4203.4,0.2724
15497,7.1189,0.36364,0,0.000422,4217.1,0.00014045,0.080257,0.00013725,-23.959,-0.0004224,-4229,0.26629
15498,7.2113,0.36364,0.05,9.8623e-07,9.8555,7.573e-07,5.69,1.6249e-12,-2.3108e-06,-7.573e-07,-5.6901,0.273
15499,7.1189,0.18182,0,0.00042334,4230.5,0.00014016,0.10876,0.00013895,-8.9737,-0.00042349,-4234.9,0.26501
15500,7.2113,0.18182,0.05,4.7111e-07,4.7079,3.6175e-07,2.718,1.6685e-12,-2.0426e-05,-3.6176e-07,-2.7181,0.27173
15501,7.2113,0.090909,0,0.00042081,4205.2,0.00013907,0.12788,0.00013854,-3.8145,-0.00042088,-4207.1,0.27109
15502,7.0264,5.7273,0,0.00042547,4251.8,0.00014128,0.074101,0.00013894,-17.523,-0.00042577,-4260.5,0.25899
15503,6.934,5.8182,0,0.00042901,4287.2,0.00014211,0.11005,0.00014069,-10.56,-0.00042919,-4292.4,0.25174
15504,7.0264,5.8182,0.05,5.1542e-07,5.1506,3.9578e-07,2.9737,-6.2774e-13,6.4116e-07,-3.9578e-07,-2.9737,0.25831
15505,7.0264,5.9091,0,0.00042653,4262.3,0.000141,0.12464,0.00014036,-4.6957,-0.00042661,-4264.6,0.25766
15506,7.0264,5.5455,0,0.00042414,4238.4,0.00014159,0.052183,0.00013723,-32.712,-0.00042468,-4254.7,0.26022
15507,6.934,5.6364,0,0.00042758,4272.8,0.00014243,0.088238,0.00013886,-26.749,-0.00042802,-4286.1,0.25302
15508,7.0264,5.6364,0.05,9.9944e-07,9.9875,7.6745e-07,5.7663,4.5311e-14,1.4458e-06,-7.6745e-07,-5.7663,0.25959
15509,7.0264,5.3636,0,0.00042287,4225.8,0.00014188,0.022707,0.00013559,-47.249,-0.00042365,-4249.2,0.26137
15510,6.934,5.4545,0,0.00042623,4259.4,0.00014274,0.025424,0.00013713,-42.187,-0.00042694,-4280.3,0.25421
15511,7.0264,5.4545,0.05,1.0343e-06,10.336,7.9424e-07,5.9676,-5.5332e-15,2.5557e-06,-7.9424e-07,-5.9676,0.26078
15512,7.0264,5.1818,0,0.00042165,4213.6,0.00014217,0.018471,0.00013402,-61.222,-0.00042266,-4243.8,0.26242
15513,6.934,5.2727,0,0.00042494,4246.5,0.00014305,0.02363,0.00013545,-57.072,-0.00042588,-4274.7,0.25531
15514,7.0264,5.2727,0.05,1.0385e-06,10.378,7.9746e-07,5.9918,8.2331e-14,6.9064e-07,-7.9746e-07,-5.9918,0.26188
15515,7.0264,5,0,0.00042049,4202,0.00014244,0.012965,0.00013251,-74.553,-0.0004217,-4238.7,0.26338
15516,6.934,5.0909,0,0.0004237,4234.1,0.00014334,0.015683,0.00013384,-71.346,-0.00042487,-4269.3,0.25632
15517,7.0264,5.0909,0.05,1.0403e-06,10.396,7.9884e-07,6.0022,7.8585e-14,8.2402e-07,-7.9884e-07,-6.0022,0.26288
15518,7.0264,4.8182,0,0.00041939,4191,0.00014269,0.0094736,0.00013109,-87.133,-0.0004208,-4233.9,0.26426
15519,6.934,4.9091,0,0.00042252,4222.3,0.00014362,0.011726,0.00013232,-84.894,-0.0004239,-4264.1,0.25725
15520,7.0264,4.9091,0.05,1.0416e-06,10.409,7.9983e-07,6.0096,1.1676e-14,9.3407e-07,-7.9982e-07,-6.0096,0.26381
15521,7.0264,4.6364,0,0.00041837,4180.8,0.00014293,0.006505,0.00012977,-98.861,-0.00041996,-4229.3,0.26505
15522,6.934,4.7273,0,0.00042141,4211.2,0.00014387,0.0081664,0.00013088,-97.608,-0.00042299,-4259.2,0.25808
15523,7.0264,4.7273,0.05,1.0425e-06,10.418,8.0054e-07,6.0149,1.8797e-12,8.6171e-08,-8.0053e-07,-6.0149,0.26464
15524,7.0264,4.4545,0,0.00041743,4171.4,0.00014315,0.004094,0.00012855,-109.64,-0.00041918,-4225.1,0.26576
15525,6.934,4.5455,0,0.00042039,4201,0.00014411,0.0053818,0.00012955,-109.38,-0.00042214,-4254.6,0.25883
15526,7.0264,4.5455,0.05,1.0432e-06,10.424,8.0101e-07,6.0185,-1.8481e-14,-2.8877e-07,-8.0101e-07,-6.0185,0.26539
15527,7.0264,4.2727,0,0.00041658,4162.9,0.00014334,0.0020646,0.00012745,-119.38,-0.00041848,-4221.3,0.26638
15528,6.934,4.3636,0,0.00041946,4191.7,0.00014433,0.0030315,0.00012834,-120.12,-0.00042137,-4250.4,0.2595
15529,7.0264,4.3636,0.05,1.0435e-06,10.428,8.0131e-07,6.0207,1.2986e-13,9.6831e-07,-8.0131e-07,-6.0207,0.26605
15530,7.0264,4.0909,0,0.00041583,4155.4,0.00014351,0.00036916,0.00012648,-128,-0.00041785,-4217.9,0.26691
15531,6.934,4.1818,0,0.00041862,4183.3,0.00014452,0.0010705,0.00012725,-129.73,-0.00042068,-4246.7,0.26008
15532,7.0264,4.1818,0.05,1.0437e-06,10.43,8.0145e-07,6.0218,3.4623e-14,9.6548e-07,-8.0146e-07,-6.0218,0.26663
15533,7.0264,3.9091,0,0.00041518,4148.9,0.00014366,-0.0010343,0.00012564,-135.43,-0.00041732,-4215,0.26737
15534,6.934,4,0,0.00041789,4176,0.00014469,-0.00056442,0.00012631,-138.13,-0.00042007,-4243.4,0.26057
15535,7.0264,4,0.05,1.0438e-06,10.431,8.0149e-07,6.0221,1.912e-12,9.2544e-07,-8.0149e-07,-6.0221,0.26712
15536,7.0264,3.7273,0,0.00041464,4143.5,0.00014379,-0.002166,0.00012494,-141.6,-0.00041687,-4212.5,0.26774
15537,6.934,3.8182,0,0.00041727,4169.8,0.00014483,-0.0019023,0.0001255,-145.25,-0.00041955,-4240.6,0.26098
15538,7.0264,3.8182,0.05,1.0437e-06,10.43,8.0146e-07,6.0218,1.9034e-12,3.1178e-07,-8.0146e-07,-6.0219,0.26753
15539,7.0264,3.5455,0,0.00041422,4139.3,0.00014388,-0.0030374,0.00012439,-146.45,-0.00041652,-4210.6,0.26802
15540,6.934,3.6364,0,0.00041677,4164.8,0.00014495,-0.0029596,0.00012485,-151.02,-0.00041913,-4238.3,0.26131
15541,7.0264,3.6364,0.05,1.0436e-06,10.429,8.0139e-07,6.0213,1.8911e-12,3.2831e-07,-8.0139e-07,-6.0213,0.26786
15542,7.0264,3.3636,0,0.00041391,4136.3,0.00014395,-0.0036563,0.00012399,-149.95,-0.00041626,-4209.2,0.26823
15543,6.934,3.4545,0,0.00041639,4161,0.00014503,-0.0037455,0.00012435,-155.39,-0.00041882,-4236.6,0.26156
15544,7.0264,3.4545,0.05,1.0435e-06,10.428,8.0131e-07,6.0207,4.2023e-14,2.9783e-07,-8.0131e-07,-6.0208,0.26811
15545,7.0264,3.1818,0,0.00041373,4134.4,0.00014399,-0.0040271,0.00012376,-152.06,-0.00041611,-4208.4,0.26835
15546,6.934,3.2727,0,0.00041614,4158.5,0.00014509,-0.0042679,0.00012402,-158.33,-0.0004186,-4235.4,0.26172
15547,7.0264,3.2727,0.05,1.0435e-06,10.427,8.0124e-07,6.0202,1.847e-12,2.6422e-07,-8.0124e-07,-6.0202,0.26827
15548,7.0264,3,0,0.00041367,4133.8,0.00014401,-0.0041507,0.00012368,-152.77,-0.00041606,-4208.1,0.26839
15549,6.934,3.0909,0,0.00041601,4157.2,0.00014512,-0.0045289,0.00012385,-159.81,-0.0004185,-4234.8,0.26181
15550,7.0264,3.0909,0.05,1.0434e-06,10.427,8.0121e-07,6.02,1.8298e-12,8.7538e-08,-8.0121e-07,-6.02,0.26835
15551,7.0264,2.8182,0,0.00041373,4134.4,0.00014399,-0.0040269,0.00012376,-152.06,-0.00041611,-4208.4,0.26835
15552,6.934,2.9091,0,0.00041601,4157.2,0.00014512,-0.0045289,0.00012385,-159.81,-0.0004185,-4234.8,0.26181
15553,7.0264,2.9091,0.05,1.0434e-06,10.427,8.0121e-07,6.02,1.8066e-12,-8.7261e-08,-8.0121e-07,-6.02,0.26835
15554,7.0264,2.6364,0,0.00041391,4136.3,0.00014395,-0.003656,0.00012399,-149.95,-0.00041626,-4209.2,0.26823
15555,6.934,2.7273,0,0.00041614,4158.5,0.00014509,-0.0042678,0.00012402,-158.33,-0.0004186,-4235.4,0.26172
15556,7.0264,2.7273,0.05,1.0435e-06,10.427,8.0124e-07,6.0202,1.7777e-12,-2.5762e-07,-8.0124e-07,-6.0202,0.26827
15557,7.0264,2.4545,0,0.00041422,4139.3,0.00014388,-0.0030374,0.00012439,-146.45,-0.00041652,-4210.6,0.26802
15558,6.934,2.5455,0,0.00041639,4161,0.00014503,-0.0037452,0.00012435,-155.39,-0.00041882,-4236.6,0.26156
15559,7.0264,2.5455,0.05,1.0435e-06,10.428,8.0131e-07,6.0207,1.7437e-12,-5.4431e-07,-8.0131e-07,-6.0208,0.26811
15560,7.0264,2.2727,0,0.00041464,4143.5,0.00014379,-0.0021658,0.00012494,-141.6,-0.00041687,-4212.5,0.26774
15561,6.934,2.3636,0,0.00041677,4164.8,0.00014495,-0.0029595,0.00012485,-151.02,-0.00041913,-4238.3,0.26131
15562,7.0264,2.3636,0.05,1.0436e-06,10.429,8.0139e-07,6.0213,1.7357e-12,-1.0718e-06,-8.0139e-07,-6.0214,0.26786
15563,7.0264,2.0909,0,0.00041518,4148.9,0.00014366,-0.001034,0.00012564,-135.43,-0.00041732,-4215,0.26737
15564,6.934,2.1818,0,0.00041727,4169.8,0.00014483,-0.0019019,0.0001255,-145.25,-0.00041955,-4240.6,0.26098
15565,7.0264,2.1818,0.05,1.0437e-06,10.43,8.0146e-07,6.0218,5.3295e-12,8.0214e-07,-8.0146e-07,-6.0219,0.26753
15566,7.0264,1.9091,0,0.00041583,4155.4,0.00014351,0.00036938,0.00012648,-128,-0.00041785,-4217.9,0.26691
15567,6.934,2,0,0.00041789,4176,0.00014469,-0.00056418,0.00012631,-138.13,-0.00042007,-4243.4,0.26057
15568,7.0264,2,0.05,1.0438e-06,10.431,8.0149e-07,6.0221,3.4931e-12,-8.329e-07,-8.0149e-07,-6.0221,0.26712
15569,7.0264,1.7273,0,0.00041658,4162.9,0.00014334,0.002065,0.00012745,-119.38,-0.00041848,-4221.3,0.26638
15570,6.934,1.8182,0,0.00041862,4183.3,0.00014452,0.001071,0.00012725,-129.73,-0.00042068,-4246.7,0.26008
15571,7.0264,1.8182,0.05,1.0437e-06,10.43,8.0145e-07,6.0218,1.5873e-12,-8.582e-07,-8.0146e-07,-6.0218,0.26663
15572,7.0264,1.5455,0,0.00041743,4171.4,0.00014315,0.0040948,0.00012855,-109.64,-0.00041918,-4225.1,0.26576
15573,6.934,1.6364,0,0.00041946,4191.7,0.00014433,0.0030319,0.00012834,-120.12,-0.00042137,-4250.4,0.2595
15574,7.0264,1.6364,0.05,1.0435e-06,10.428,8.0131e-07,6.0207,-1.7501e-13,-9.6831e-07,-8.0131e-07,-6.0207,0.26605
15575,7.0264,1.3636,0,0.00041837,4180.8,0.00014293,0.0065058,0.00012977,-98.861,-0.00041996,-4229.3,0.26505
15576,6.934,1.4545,0,0.00042039,4201,0.00014411,0.0053827,0.00012955,-109.38,-0.00042214,-4254.6,0.25883
15577,7.0264,1.4545,0.05,1.0432e-06,10.424,8.0101e-07,6.0185,1.5089e-12,-2.5853e-06,-8.0101e-07,-6.0186,0.26539
15578,7.0264,1.1818,0,0.00041939,4191,0.00014269,0.0094742,0.00013109,-87.133,-0.0004208,-4233.9,0.26426
15579,6.934,1.2727,0,0.00042141,4211.2,0.00014387,0.0081671,0.00013088,-97.608,-0.00042299,-4259.2,0.25808
15580,7.0264,1.2727,0.05,1.0425e-06,10.418,8.0054e-07,6.0149,1.5853e-12,-2.3234e-06,-8.0053e-07,-6.0149,0.26464
15581,7.0264,1,0,0.00042049,4202,0.00014244,0.012966,0.00013251,-74.553,-0.0004217,-4238.7,0.26338
15582,6.934,1.0909,0,0.00042252,4222.3,0.00014362,0.011726,0.00013232,-84.894,-0.0004239,-4264.1,0.25725
15583,7.0264,1.0909,0.05,1.0416e-06,10.409,7.9982e-07,6.0096,-3.2925e-13,-1.0897e-06,-7.9982e-07,-6.0096,0.26381
15584,7.0264,0.81818,0,0.00042165,4213.6,0.00014217,0.018472,0.00013402,-61.222,-0.00042266,-4243.8,0.26242
15585,6.934,0.90909,0,0.0004237,4234.1,0.00014334,0.015684,0.00013384,-71.346,-0.00042487,-4269.3,0.25632
15586,7.0264,0.90909,0.05,1.0403e-06,10.396,7.9884e-07,6.0021,-3.8136e-13,-4.5853e-06,-7.9885e-07,-6.0023,0.26288
15587,7.0264,0.63636,0,0.00042287,4225.8,0.00014188,0.022708,0.00013559,-47.249,-0.00042365,-4249.2,0.26137
15588,6.934,0.72727,0,0.00042494,4246.5,0.00014305,0.023631,0.00013545,-57.072,-0.00042588,-4274.7,0.25531
15589,7.0264,0.72727,0.05,1.0385e-06,10.378,7.9747e-07,5.9918,1.4692e-12,-2.9915e-06,-7.9746e-07,-5.9919,0.26188
15590,7.0264,0.45455,0,0.00042414,4238.4,0.00014159,0.052184,0.00013723,-32.712,-0.00042468,-4254.7,0.26022
15591,6.934,0.54545,0,0.00042623,4259.4,0.00014274,0.025425,0.00013713,-42.187,-0.00042694,-4280.3,0.25421
15592,7.0264,0.54545,0.05,1.0343e-06,10.336,7.9424e-07,5.9676,3.0591e-12,-2.9671e-06,-7.9425e-07,-5.9677,0.26078
15593,7.0264,0.27273,0,0.00042547,4251.8,0.00014128,0.074102,0.00013894,-17.523,-0.00042577,-4260.5,0.25899
15594,6.934,0.36364,0,0.00042758,4272.8,0.00014243,0.08824,0.00013886,-26.749,-0.00042802,-4286.1,0.25302
15595,7.0264,0.36364,0.05,9.9944e-07,9.9875,7.6745e-07,5.7663,1.3516e-12,-2.3e-06,-7.6745e-07,-5.7663,0.25959
15596,6.934,0.18182,0,0.00042901,4287.2,0.00014211,0.11005,0.00014069,-10.56,-0.00042919,-4292.4,0.25174
15597,7.0264,0.18182,0.05,5.1542e-07,5.1507,3.9578e-07,2.9737,2.4965e-13,-1.0562e-05,-3.9578e-07,-2.9738,0.25831
15598,7.0264,0.090909,0,0.00042653,4262.3,0.000141,0.12464,0.00014036,-4.6957,-0.00042661,-4264.6,0.25766
15599,6.8415,5.7273,0,0.00043111,4308.1,0.00014325,0.080539,0.00014061,-19.777,-0.00043144,-4318,0.24586
15600,6.7491,5.8182,0,0.00043472,4344.2,0.00014407,0.11338,0.00014243,-12.232,-0.00043493,-4350.3,0.23875
15601,6.8415,5.8182,0.05,5.634e-07,5.6301,4.3262e-07,3.2505,-6.2747e-13,4.9324e-07,-4.3262e-07,-3.2505,0.24518
15602,6.8415,5.9091,0,0.00043228,4319.9,0.00014294,0.12437,0.00014218,-5.6242,-0.00043238,-4322.6,0.24453
15603,6.8415,5.5455,0,0.00042967,4293.8,0.00014359,0.057492,0.00013876,-36.227,-0.00043028,-4311.7,0.2471
15604,6.7491,5.6364,0,0.00043318,4328.8,0.00014443,0.096938,0.00014046,-29.728,-0.00043368,-4343.6,0.24004
15605,6.8415,5.6364,0.05,1.0137e-06,10.13,7.784e-07,5.8485,4.8646e-14,-1.6649e-06,-7.784e-07,-5.8486,0.24647
15606,6.8415,5.3636,0,0.0004283,4280.1,0.00014391,0.025056,0.00013699,-52.013,-0.00042917,-4305.8,0.24825
15607,6.7491,5.4545,0,0.00043173,4314.3,0.00014477,0.028132,0.00013858,-46.485,-0.0004325,-4337.4,0.24124
15608,6.8415,5.4545,0.05,1.0465e-06,10.458,8.0357e-07,6.0376,-1.1021e-13,-3.9458e-06,-8.0356e-07,-6.0377,0.24766
15609,6.8415,5.1818,0,0.00042699,4266.9,0.00014422,0.020259,0.00013528,-67.197,-0.00042809,-4300.1,0.24931
15610,6.7491,5.2727,0,0.00043033,4300.4,0.0001451,0.025974,0.00013676,-62.654,-0.00043136,-4331.3,0.24235
15611,6.8415,5.2727,0.05,1.0506e-06,10.499,8.0672e-07,6.0614,-9.9673e-14,1.2018e-06,-8.0672e-07,-6.0614,0.24877
15612,6.8415,5,0,0.00042573,4254.4,0.00014452,0.014122,0.00013365,-81.688,-0.00042706,-4294.6,0.25028
15613,6.7491,5.0909,0,0.00042899,4286.9,0.00014542,0.01715,0.00013502,-78.168,-0.00043027,-4325.5,0.24337
15614,6.8415,5.0909,0.05,1.0524e-06,10.517,8.0811e-07,6.0718,-2.4966e-14,1.8071e-06,-8.081e-07,-6.0718,0.24978
15615,6.8415,4.8182,0,0.00042454,4242.5,0.0001448,0.010217,0.0001321,-95.37,-0.00042608,-4289.4,0.25117
15616,6.7491,4.9091,0,0.00042772,4274.2,0.00014572,0.012723,0.00013336,-92.899,-0.00042922,-4319.9,0.2443
15617,6.8415,4.9091,0.05,1.0536e-06,10.529,8.0907e-07,6.079,1.6001e-13,1.0067e-06,-8.0907e-07,-6.079,0.25071
15618,6.8415,4.6364,0,0.00042344,4231.4,0.00014506,0.0069046,0.00013066,-108.13,-0.00042517,-4284.5,0.25196
15619,6.7491,4.7273,0,0.00042652,4262.3,0.00014601,0.0087564,0.0001318,-106.73,-0.00042823,-4314.6,0.24514
15620,6.8415,4.7273,0.05,1.0545e-06,10.538,8.0973e-07,6.084,3.6677e-12,-7.5437e-07,-8.0973e-07,-6.084,0.25155
15621,6.8415,4.4545,0,0.00042242,4221.3,0.00014529,0.0042169,0.00012934,-119.86,-0.00042433,-4279.9,0.25267
15622,6.7491,4.5455,0,0.00042541,4251.2,0.00014627,0.0056542,0.00013036,-119.54,-0.00042732,-4309.7,0.24589
15623,6.8415,4.5455,0.05,1.055e-06,10.543,8.1014e-07,6.0871,1.376e-13,5.8292e-07,-8.1014e-07,-6.0871,0.2523
15624,6.8415,4.2727,0,0.0004215,4212.1,0.00014551,0.0019574,0.00012814,-130.47,-0.00042357,-4275.8,0.25329
15625,6.7491,4.3636,0,0.0004244,4241.1,0.0001465,0.0030392,0.00012904,-131.23,-0.00042648,-4305.2,0.24655
15626,6.8415,4.3636,0.05,1.0553e-06,10.546,8.1035e-07,6.0887,1.7929e-12,1.0451e-06,-8.1036e-07,-6.0887,0.25296
15627,6.8415,4.0909,0,0.00042069,4204,0.0001457,7.1422e-05,0.00012708,-139.86,-0.00042289,-4272.1,0.25383
15628,6.7491,4.1818,0,0.0004235,4232,0.00014671,0.00085967,0.00012785,-141.7,-0.00042573,-4301.1,0.24714
15629,6.8415,4.1818,0.05,1.0554e-06,10.547,8.1041e-07,6.0891,1.381e-13,1.0426e-06,-8.1041e-07,-6.0891,0.25354
15630,6.8415,3.9091,0,0.00041998,4197,0.00014586,-0.0014882,0.00012617,-147.95,-0.00042231,-4269,0.25428
15631,6.7491,4,0,0.00042271,4224.1,0.0001469,-0.00095596,0.00012682,-150.85,-0.00042507,-4297.5,0.24763
15632,6.8415,4,0.05,1.0553e-06,10.546,8.1036e-07,6.0887,1.918e-12,2.4643e-07,-8.1036e-07,-6.0888,0.25404
15633,6.8415,3.7273,0,0.0004194,4191.1,0.00014599,-0.0027452,0.00012541,-154.67,-0.00042182,-4266.3,0.25465
15634,6.7491,3.8182,0,0.00042204,4217.4,0.00014705,-0.0024406,0.00012595,-158.61,-0.00042451,-4294.5,0.24805
15635,6.8415,3.8182,0.05,1.0552e-06,10.544,8.1024e-07,6.0878,1.066e-13,3.223e-07,-8.1024e-07,-6.0879,0.25445
15636,6.8415,3.5455,0,0.00041894,4186.6,0.0001461,-0.0037126,0.00012481,-159.96,-0.00042144,-4264.2,0.25494
15637,6.7491,3.6364,0,0.00042149,4212,0.00014718,-0.0036133,0.00012523,-164.9,-0.00042406,-4292,0.24838
15638,6.8415,3.6364,0.05,1.055e-06,10.543,8.1009e-07,6.0868,1.8406e-12,6.0657e-07,-8.101e-07,-6.0868,0.25478
15639,6.8415,3.3636,0,0.00041861,4183.3,0.00014618,-0.0043992,0.00012438,-163.78,-0.00042116,-4262.7,0.25515
15640,6.7491,3.4545,0,0.00042108,4207.9,0.00014728,-0.0044846,0.0001247,-169.66,-0.00042371,-4290.2,0.24862
15641,6.8415,3.4545,0.05,1.0548e-06,10.541,8.0996e-07,6.0857,1.8669e-12,3.1663e-07,-8.0996e-07,-6.0857,0.25503
15642,6.8415,3.1818,0,0.00041842,4181.3,0.00014622,-0.0048102,0.00012412,-166.08,-0.00042099,-4261.8,0.25527
15643,6.7491,3.2727,0,0.0004208,4205.1,0.00014734,-0.0050637,0.00012433,-172.87,-0.00042348,-4288.9,0.24879
15644,6.8415,3.2727,0.05,1.0547e-06,10.539,8.0985e-07,6.0849,3.1366e-14,2.8405e-07,-8.0985e-07,-6.0849,0.25519
15645,6.8415,3,0,0.00041835,4180.6,0.00014624,-0.0049471,0.00012403,-166.85,-0.00042094,-4261.5,0.25531
15646,6.7491,3.0909,0,0.00042067,4203.7,0.00014737,-0.0053528,0.00012415,-174.48,-0.00042336,-4288.3,0.24887
15647,6.8415,3.0909,0.05,1.0546e-06,10.539,8.0979e-07,6.0844,1.2608e-14,1.996e-06,-8.0979e-07,-6.0845,0.25527
15648,6.8415,2.8182,0,0.00041842,4181.3,0.00014622,-0.0048103,0.00012412,-166.08,-0.00042099,-4261.8,0.25527
15649,6.7491,2.9091,0,0.00042067,4203.7,0.00014737,-0.0053528,0.00012415,-174.48,-0.00042336,-4288.3,0.24887
15650,6.8415,2.9091,0.05,1.0546e-06,10.539,8.0979e-07,6.0844,-1.2572e-14,-1.0055e-07,-8.0979e-07,-6.0845,0.25527
15651,6.8415,2.6364,0,0.00041861,4183.3,0.00014618,-0.0043991,0.00012438,-163.78,-0.00042116,-4262.7,0.25515
15652,6.7491,2.7273,0,0.0004208,4205.1,0.00014734,-0.0050636,0.00012433,-172.87,-0.00042348,-4288.9,0.24879
15653,6.8415,2.7273,0.05,1.0547e-06,10.539,8.0985e-07,6.0849,-4.3599e-14,1.6269e-06,-8.0985e-07,-6.0849,0.25519
15654,6.8415,2.4545,0,0.00041894,4186.6,0.0001461,-0.0037122,0.00012481,-159.96,-0.00042144,-4264.2,0.25494
15655,6.7491,2.5455,0,0.00042108,4207.9,0.00014728,-0.0044844,0.0001247,-169.66,-0.00042371,-4290.2,0.24862
15656,6.8415,2.5455,0.05,1.0548e-06,10.541,8.0995e-07,6.0857,1.7366e-12,-6.0014e-07,-8.0996e-07,-6.0857,0.25503
15657,6.8415,2.2727,0,0.0004194,4191.1,0.00014599,-0.0027448,0.00012541,-154.67,-0.00042182,-4266.3,0.25465
15658,6.7491,2.3636,0,0.00042149,4212,0.00014718,-0.0036131,0.00012523,-164.9,-0.00042406,-4292,0.24838
15659,6.8415,2.3636,0.05,1.055e-06,10.543,8.1009e-07,6.0867,1.6611e-12,1.0182e-06,-8.1011e-07,-6.0868,0.25478
15660,6.8415,2.0909,0,0.00041998,4197,0.00014586,-0.0014878,0.00012617,-147.95,-0.00042231,-4269,0.25428
15661,6.7491,2.1818,0,0.00042204,4217.4,0.00014705,-0.0024402,0.00012595,-158.61,-0.00042451,-4294.5,0.24805
15662,6.8415,2.1818,0.05,1.0552e-06,10.544,8.1024e-07,6.0878,-1.2953e-13,-1.6845e-06,-8.1025e-07,-6.0879,0.25445
15663,6.8415,1.9091,0,0.00042069,4204,0.0001457,7.199e-05,0.00012708,-139.86,-0.00042289,-4272.1,0.25383
15664,6.7491,2,0,0.00042271,4224.1,0.0001469,-0.00095557,0.00012682,-150.85,-0.00042507,-4297.5,0.24763
15665,6.8415,2,0.05,1.0553e-06,10.546,8.1036e-07,6.0887,1.6451e-12,-2.2318e-06,-8.1036e-07,-6.0888,0.25404
15666,6.8415,1.7273,0,0.0004215,4212.1,0.00014551,0.001958,0.00012814,-130.47,-0.00042357,-4275.8,0.25329
15667,6.7491,1.8182,0,0.0004235,4232,0.00014671,0.00086036,0.00012785,-141.7,-0.00042573,-4301.1,0.24714
15668,6.8415,1.8182,0.05,1.0554e-06,10.547,8.1041e-07,6.0891,-1.8569e-13,-2.022e-08,-8.1042e-07,-6.0892,0.25354
15669,6.8415,1.5455,0,0.00042242,4221.3,0.00014529,0.0042175,0.00012934,-119.86,-0.00042433,-4279.9,0.25267
15670,6.7491,1.6364,0,0.0004244,4241.1,0.0001465,0.0030399,0.00012904,-131.23,-0.00042648,-4305.2,0.24655
15671,6.8415,1.6364,0.05,1.0553e-06,10.546,8.1036e-07,6.0887,3.2968e-12,9.5636e-07,-8.1036e-07,-6.0887,0.25296
15672,6.8415,1.3636,0,0.00042344,4231.4,0.00014506,0.0069054,0.00013066,-108.13,-0.00042517,-4284.5,0.25196
15673,6.7491,1.4545,0,0.00042541,4251.2,0.00014627,0.0056549,0.00013036,-119.54,-0.00042732,-4309.7,0.24589
15674,6.8415,1.4545,0.05,1.055e-06,10.543,8.1014e-07,6.0871,1.4682e-12,-2.3683e-06,-8.1015e-07,-6.0871,0.2523
15675,6.8415,1.1818,0,0.00042454,4242.5,0.0001448,0.010218,0.0001321,-95.37,-0.00042608,-4289.4,0.25117
15676,6.7491,1.2727,0,0.00042652,4262.3,0.00014601,0.0087573,0.0001318,-106.73,-0.00042823,-4314.6,0.24514
15677,6.8415,1.2727,0.05,1.0545e-06,10.538,8.0972e-07,6.0839,3.2229e-12,-7.7178e-06,-8.0973e-07,-6.0841,0.25155
15678,6.8415,1,0,0.00042573,4254.4,0.00014452,0.014123,0.00013365,-81.688,-0.00042706,-4294.6,0.25028
15679,6.7491,1.0909,0,0.00042772,4274.2,0.00014572,0.012724,0.00013336,-92.899,-0.00042922,-4319.9,0.2443
15680,6.8415,1.0909,0.05,1.0536e-06,10.529,8.0907e-07,6.0789,1.4082e-12,-3.9866e-06,-8.0906e-07,-6.0791,0.25071
15681,6.8415,0.81818,0,0.00042699,4266.9,0.00014422,0.020261,0.00013528,-67.197,-0.00042809,-4300.1,0.24931
15682,6.7491,0.90909,0,0.00042899,4286.9,0.00014542,0.017152,0.00013502,-78.168,-0.00043027,-4325.5,0.24337
15683,6.8415,0.90909,0.05,1.0524e-06,10.517,8.081e-07,6.0717,2.8782e-12,-2.1626e-06,-8.0811e-07,-6.0718,0.24978
15684,6.8415,0.63636,0,0.0004283,4280.1,0.00014391,0.025057,0.00013699,-52.013,-0.00042917,-4305.8,0.24825
15685,6.7491,0.72727,0,0.00043033,4300.4,0.0001451,0.025975,0.00013676,-62.654,-0.00043136,-4331.3,0.24235
15686,6.8415,0.72727,0.05,1.0506e-06,10.499,8.0672e-07,6.0614,-5.2069e-13,-4.7178e-07,-8.0672e-07,-6.0614,0.24877
15687,6.8415,0.45455,0,0.00042967,4293.8,0.00014359,0.057493,0.00013876,-36.227,-0.00043028,-4311.7,0.2471
15688,6.7491,0.54545,0,0.00043173,4314.3,0.00014477,0.028132,0.00013858,-46.485,-0.0004325,-4337.4,0.24124
15689,6.8415,0.54545,0.05,1.0465e-06,10.458,8.0357e-07,6.0376,1.5384e-12,-8.1852e-06,-8.0356e-07,-6.0378,0.24766
15690,6.8415,0.27273,0,0.00043111,4308.1,0.00014325,0.08054,0.00014061,-19.777,-0.00043144,-4318,0.24586
15691,6.7491,0.36364,0,0.00043318,4328.8,0.00014443,0.096939,0.00014046,-29.728,-0.00043368,-4343.6,0.24004
15692,6.8415,0.36364,0.05,1.0137e-06,10.13,7.7839e-07,5.8485,4.9223e-12,-3.2972e-06,-7.784e-07,-5.8486,0.24647
15693,6.7491,0.18182,0,0.00043472,4344.2,0.00014407,0.11338,0.00014243,-12.232,-0.00043493,-4350.3,0.23875
15694,6.8415,0.18182,0.05,5.634e-07,5.6301,4.3262e-07,3.2505,5.0063e-13,-1.0656e-05,-4.3263e-07,-3.2506,0.24518
15695,6.8415,0.090909,0,0.00043228,4319.9,0.00014294,0.12437,0.00014218,-5.6242,-0.00043238,-4322.6,0.24453
15696,6.6566,5.7273,0,0.00043678,4364.8,0.00014524,0.08779,0.00014228,-22.17,-0.00043716,-4375.8,0.23303
15697,6.5642,5.8182,0,0.00044047,4401.6,0.00014606,0.11856,0.00014418,-13.989,-0.0004407,-4408.5,0.22607
15698,6.6566,5.8182,0.05,6.1534e-07,6.1491,4.725e-07,3.5502,-1.1684e-12,1.5097e-06,-4.7251e-07,-3.5502,0.23234
15699,6.6566,5.9091,0,0.00043808,4377.8,0.0001449,0.1262,0.00014401,-6.5993,-0.00043819,-4381,0.23169
15700,6.6566,5.5455,0,0.00043524,4349.4,0.00014561,0.06328,0.00014028,-39.987,-0.0004359,-4369.2,0.23428
15701,6.5642,5.6364,0,0.00043882,4385.1,0.00014645,0.10642,0.00014205,-32.904,-0.00043936,-4401.4,0.22737
15702,6.6566,5.6364,0.05,1.0291e-06,10.284,7.9022e-07,5.9374,3.4877e-12,1.3378e-06,-7.9022e-07,-5.9374,0.23364
15703,6.6566,5.3636,0,0.00043376,4334.6,0.00014596,0.027626,0.00013836,-57.128,-0.0004347,-4362.9,0.23544
15704,6.5642,5.4545,0,0.00043725,4369.5,0.00014682,0.031097,0.00014001,-51.092,-0.0004381,-4394.8,0.22857
15705,6.6566,5.4545,0.05,1.0596e-06,10.588,8.1362e-07,6.1132,1.5959e-12,8.6857e-07,-8.1363e-07,-6.1132,0.23484
15706,6.6566,5.1818,0,0.00043233,4320.4,0.0001463,0.022217,0.0001365,-73.625,-0.00043354,-4356.7,0.2365
15707,6.5642,5.2727,0,0.00043574,4354.4,0.00014718,0.028536,0.00013804,-68.653,-0.00043687,-4388.3,0.22968
15708,6.6566,5.2727,0.05,1.0636e-06,10.628,8.167e-07,6.1363,9.531e-14,1.7093e-06,-8.167e-07,-6.1363,0.23595
15709,6.6566,5,0,0.00043098,4306.8,0.00014663,0.015392,0.00013473,-89.377,-0.00043243,-4350.8,0.23748
15710,6.5642,5.0909,0,0.00043429,4339.9,0.00014753,0.018757,0.00013615,-85.512,-0.00043568,-4382,0.23071
15711,6.6566,5.0909,0.05,1.0654e-06,10.646,8.1807e-07,6.1467,1.5523e-12,1.8684e-06,-8.1808e-07,-6.1467,0.23697
15712,6.6566,4.8182,0,0.00042969,4293.9,0.00014693,0.011037,0.00013305,-104.26,-0.00043137,-4345.1,0.23836
15713,6.5642,4.9091,0,0.00043291,4326.1,0.00014786,0.013819,0.00013435,-101.53,-0.00043455,-4376,0.23164
15714,6.6566,4.9091,0.05,1.0666e-06,10.658,8.19e-07,6.1537,1.9235e-12,7.2209e-07,-8.19e-07,-6.1537,0.2379
15715,6.6566,4.6364,0,0.00042849,4282,0.00014722,0.0073505,0.00013149,-118.14,-0.00043038,-4339.8,0.23916
15716,6.5642,4.7273,0,0.00043161,4313.2,0.00014817,0.0094088,0.00013265,-116.57,-0.00043348,-4370.3,0.23248
15717,6.6566,4.7273,0.05,1.0674e-06,10.666,8.1961e-07,6.1581,1.9009e-12,-2.8499e-06,-8.1961e-07,-6.1583,0.23874
15718,6.6566,4.4545,0,0.00042739,4271,0.00014747,0.0043616,0.00013005,-130.91,-0.00042947,-4334.9,0.23987
15719,6.5642,4.5455,0,0.00043041,4301.2,0.00014845,0.005961,0.00013108,-130.52,-0.00043249,-4364.9,0.23323
15720,6.6566,4.5455,0.05,1.0678e-06,10.671,8.1994e-07,6.1607,1.8182e-12,1.1657e-06,-8.1994e-07,-6.1607,0.2395
15721,6.6566,4.2727,0,0.0004264,4261,0.00014771,0.0018517,0.00012875,-142.46,-0.00042864,-4330.5,0.24049
15722,6.5642,4.3636,0,0.00042932,4290.2,0.00014871,0.003058,0.00012965,-143.24,-0.00043158,-4360.1,0.2339
15723,6.6566,4.3636,0.05,1.068e-06,10.672,8.2005e-07,6.1616,-1.1176e-14,1.1266e-06,-8.2006e-07,-6.1616,0.24016
15724,6.6566,4.0909,0,0.00042552,4252.2,0.00014792,-0.00024131,0.00012759,-152.69,-0.00042791,-4326.5,0.24103
15725,6.5642,4.1818,0,0.00042834,4280.5,0.00014894,0.00064069,0.00012836,-154.64,-0.00043076,-4355.7,0.23449
15726,6.6566,4.1818,0.05,1.0679e-06,10.672,8.2001e-07,6.1612,1.9362e-12,1.0933e-06,-8.2e-07,-6.1612,0.24075
15727,6.6566,3.9091,0,0.00042476,4244.6,0.00014809,-0.0019711,0.0001266,-161.5,-0.00042727,-4323.1,0.24149
15728,6.5642,4,0,0.00042748,4271.9,0.00014915,-0.0013717,0.00012724,-164.61,-0.00043005,-4351.8,0.23498
15729,6.6566,4,0.05,1.0677e-06,10.669,8.1984e-07,6.16,8.1446e-14,9.981e-07,-8.1985e-07,-6.16,0.24124
15730,6.6566,3.7273,0,0.00042413,4238.3,0.00014824,-0.0033641,0.00012577,-168.83,-0.00042674,-4320.2,0.24186
15731,6.5642,3.8182,0,0.00042676,4264.6,0.00014932,-0.0030161,0.00012628,-173.06,-0.00042944,-4348.5,0.2354
15732,6.6566,3.8182,0.05,1.0674e-06,10.667,8.1963e-07,6.1583,4.9981e-14,2.9578e-07,-8.1963e-07,-6.1584,0.24166
15733,6.6566,3.5455,0,0.00042363,4233.4,0.00014836,-0.0044357,0.00012512,-174.6,-0.00042633,-4318,0.24215
15734,6.5642,3.6364,0,0.00042617,4258.8,0.00014945,-0.0043142,0.00012551,-179.92,-0.00042895,-4345.9,0.23573
15735,6.6566,3.6364,0.05,1.0671e-06,10.664,8.1939e-07,6.1566,3.7096e-12,6.8178e-07,-8.1939e-07,-6.1566,0.24199
15736,6.6566,3.3636,0,0.00042327,4229.8,0.00014844,-0.0051963,0.00012465,-178.76,-0.00042603,-4316.3,0.24235
15737,6.5642,3.4545,0,0.00042572,4254.3,0.00014956,-0.0052786,0.00012492,-185.12,-0.00042857,-4343.8,0.23597
15738,6.6566,3.4545,0.05,1.0668e-06,10.661,8.1917e-07,6.1549,3.6638e-12,2.2372e-06,-8.1918e-07,-6.155,0.24223
15739,6.6566,3.1818,0,0.00042305,4227.6,0.00014849,-0.0056517,0.00012437,-181.27,-0.00042585,-4315.3,0.24248
15740,6.5642,3.2727,0,0.00042542,4251.3,0.00014963,-0.0059192,0.00012453,-188.61,-0.00042832,-4342.5,0.23614
15741,6.6566,3.2727,0.05,1.0666e-06,10.659,8.1901e-07,6.1538,3.6677e-12,3.0895e-07,-8.1902e-07,-6.1538,0.2424
15742,6.6566,3,0,0.00042298,4226.9,0.00014851,-0.0058033,0.00012427,-182.11,-0.00042579,-4315,0.24252
15743,6.5642,3.0909,0,0.00042527,4249.8,0.00014966,-0.0062391,0.00012433,-190.37,-0.00042819,-4341.8,0.23622
15744,6.6566,3.0909,0.05,1.0665e-06,10.658,8.1893e-07,6.1531,1.2424e-14,9.5856e-08,-8.1893e-07,-6.1532,0.24248
15745,6.6566,2.8182,0,0.00042305,4227.6,0.00014849,-0.0056516,0.00012437,-181.27,-0.00042585,-4315.3,0.24248
15746,6.5642,2.9091,0,0.00042527,4249.8,0.00014966,-0.006239,0.00012433,-190.37,-0.00042819,-4341.8,0.23622
15747,6.6566,2.9091,0.05,1.0665e-06,10.658,8.1893e-07,6.1531,-1.4968e-14,-1.1003e-07,-8.1893e-07,-6.1532,0.24248
15748,6.6566,2.6364,0,0.00042327,4229.8,0.00014844,-0.0051962,0.00012465,-178.76,-0.00042603,-4316.3,0.24235
15749,6.5642,2.7273,0,0.00042542,4251.3,0.00014963,-0.0059191,0.00012453,-188.61,-0.00042832,-4342.5,0.23614
15750,6.6566,2.7273,0.05,1.0666e-06,10.659,8.1901e-07,6.1538,5.4026e-12,1.6003e-06,-8.1902e-07,-6.1538,0.2424
15751,6.6566,2.4545,0,0.00042363,4233.4,0.00014836,-0.0044357,0.00012512,-174.6,-0.00042633,-4318,0.24215
15752,6.5642,2.5455,0,0.00042572,4254.3,0.00014956,-0.0052784,0.00012492,-185.12,-0.00042857,-4343.8,0.23597
15753,6.6566,2.5455,0.05,1.0668e-06,10.661,8.1917e-07,6.1549,3.5309e-12,1.0642e-06,-8.1918e-07,-6.155,0.24223
15754,6.6566,2.2727,0,0.00042413,4238.3,0.00014824,-0.0033638,0.00012577,-168.83,-0.00042674,-4320.2,0.24186
15755,6.5642,2.3636,0,0.00042617,4258.8,0.00014945,-0.004314,0.00012551,-179.92,-0.00042895,-4345.9,0.23573
15756,6.6566,2.3636,0.05,1.0671e-06,10.664,8.1939e-07,6.1566,3.51e-12,-6.5522e-07,-8.1939e-07,-6.1566,0.24199
15757,6.6566,2.0909,0,0.00042476,4244.6,0.00014809,-0.0019707,0.0001266,-161.5,-0.00042727,-4323.1,0.24149
15758,6.5642,2.1818,0,0.00042676,4264.6,0.00014932,-0.0030157,0.00012628,-173.06,-0.00042944,-4348.5,0.2354
15759,6.6566,2.1818,0.05,1.0674e-06,10.667,8.1963e-07,6.1583,1.6305e-12,-1.3546e-06,-8.1963e-07,-6.1584,0.24166
15760,6.6566,1.9091,0,0.00042552,4252.2,0.00014792,-0.00024079,0.00012759,-152.69,-0.00042791,-4326.5,0.24103
15761,6.5642,2,0,0.00042748,4271.9,0.00014915,-0.0013712,0.00012724,-164.61,-0.00043005,-4351.8,0.23498
15762,6.6566,2,0.05,1.0677e-06,10.669,8.1984e-07,6.16,-2.1657e-13,-9.4415e-07,-8.1985e-07,-6.16,0.24124
15763,6.6566,1.7273,0,0.0004264,4261,0.00014771,0.0018525,0.00012875,-142.46,-0.00042864,-4330.5,0.24049
15764,6.5642,1.8182,0,0.00042834,4280.5,0.00014894,0.00064126,0.00012836,-154.64,-0.00043076,-4355.7,0.23449
15765,6.6566,1.8182,0.05,1.0679e-06,10.672,8.2001e-07,6.1612,3.3768e-12,-2.0659e-06,-8.2e-07,-6.1612,0.24075
15766,6.6566,1.5455,0,0.00042739,4271,0.00014747,0.0043623,0.00013005,-130.91,-0.00042947,-4334.9,0.23987
15767,6.5642,1.6364,0,0.00042932,4290.2,0.00014871,0.0030589,0.00012965,-143.24,-0.00043158,-4360.1,0.2339
15768,6.6566,1.6364,0.05,1.068e-06,10.672,8.2005e-07,6.1615,-3.1334e-13,-2.4173e-06,-8.2006e-07,-6.1616,0.24016
15769,6.6566,1.3636,0,0.00042849,4282,0.00014722,0.0073513,0.00013149,-118.14,-0.00043038,-4339.8,0.23916
15770,6.5642,1.4545,0,0.00043041,4301.2,0.00014845,0.0059617,0.00013108,-130.52,-0.00043249,-4364.9,0.23323
15771,6.6566,1.4545,0.05,1.0678e-06,10.671,8.1994e-07,6.1606,3.0924e-12,-4.4211e-06,-8.1994e-07,-6.1608,0.2395
15772,6.6566,1.1818,0,0.00042969,4293.9,0.00014693,0.011038,0.00013305,-104.26,-0.00043137,-4345.1,0.23836
15773,6.5642,1.2727,0,0.00043161,4313.2,0.00014817,0.0094097,0.00013265,-116.57,-0.00043348,-4370.3,0.23248
15774,6.6566,1.2727,0.05,1.0674e-06,10.666,8.1961e-07,6.1581,5.1398e-12,-5.0426e-06,-8.196e-07,-6.1583,0.23874
15775,6.6566,1,0,0.00043098,4306.8,0.00014663,0.015393,0.00013473,-89.377,-0.00043243,-4350.8,0.23748
15776,6.5642,1.0909,0,0.00043291,4326.1,0.00014786,0.013819,0.00013435,-101.53,-0.00043455,-4376,0.23164
15777,6.6566,1.0909,0.05,1.0666e-06,10.658,8.19e-07,6.1537,4.6047e-12,1.5563e-08,-8.1901e-07,-6.1537,0.2379
15778,6.6566,0.81818,0,0.00043233,4320.4,0.0001463,0.022218,0.0001365,-73.625,-0.00043354,-4356.7,0.2365
15779,6.5642,0.90909,0,0.00043429,4339.9,0.00014753,0.018759,0.00013615,-85.512,-0.00043568,-4382,0.23071
15780,6.6566,0.90909,0.05,1.0654e-06,10.646,8.1807e-07,6.1467,1.127e-12,-7.6373e-07,-8.1807e-07,-6.1467,0.23697
15781,6.6566,0.63636,0,0.00043376,4334.6,0.00014596,0.027627,0.00013836,-57.128,-0.0004347,-4362.9,0.23544
15782,6.5642,0.72727,0,0.00043574,4354.4,0.00014718,0.028537,0.00013804,-68.654,-0.00043687,-4388.3,0.22968
15783,6.6566,0.72727,0.05,1.0636e-06,10.628,8.1669e-07,6.1363,-2.6283e-13,-5.9658e-06,-8.167e-07,-6.1364,0.23595
15784,6.6566,0.45455,0,0.00043524,4349.4,0.00014561,0.063281,0.00014028,-39.987,-0.0004359,-4369.2,0.23428
15785,6.5642,0.54545,0,0.00043725,4369.5,0.00014682,0.031098,0.00014001,-51.092,-0.0004381,-4394.8,0.22857
15786,6.6566,0.54545,0.05,1.0596e-06,10.588,8.1362e-07,6.1132,4.639e-12,-6.9305e-06,-8.1362e-07,-6.1133,0.23484
15787,6.6566,0.27273,0,0.00043678,4364.8,0.00014524,0.087792,0.00014228,-22.17,-0.00043716,-4375.8,0.23303
15788,6.5642,0.36364,0,0.00043882,4385.1,0.00014645,0.10642,0.00014205,-32.904,-0.00043936,-4401.4,0.22737
15789,6.6566,0.36364,0.05,1.0291e-06,10.284,7.9023e-07,5.9374,4.8469e-12,-4.3714e-07,-7.9022e-07,-5.9374,0.23364
15790,6.5642,0.18182,0,0.00044047,4401.6,0.00014606,0.11856,0.00014418,-13.989,-0.0004407,-4408.5,0.22607
15791,6.6566,0.18182,0.05,6.1534e-07,6.1491,4.725e-07,3.5502,5.024e-13,-1.0551e-05,-4.7251e-07,-3.5502,0.23234
15792,6.6566,0.090909,0,0.00043808,4377.8,0.0001449,0.1262,0.00014401,-6.5993,-0.00043819,-4381,0.23169
15793,6.4717,5.7273,0,0.00044249,4421.9,0.00014725,0.095926,0.00014395,-24.707,-0.00044291,-4434.1,0.2205
15794,6.3792,5.8182,0,0.00044625,4459.5,0.00014806,0.12554,0.00014593,-15.833,-0.00044652,-4467.3,0.21368
15795,6.4717,5.8182,0.05,6.7153e-07,6.7107,5.1565e-07,3.8744,1.5915e-12,4.9336e-07,-5.1565e-07,-3.8744,0.21981
15796,6.4717,5.9091,0,0.00044392,4436.1,0.00014688,0.12966,0.00014585,-7.6201,-0.00044405,-4439.9,0.21915
15797,6.4717,5.5455,0,0.00044083,4405.2,0.00014765,0.069592,0.00014179,-44.007,-0.00044156,-4427,0.22175
15798,6.3792,5.6364,0,0.00044448,4441.8,0.00014848,0.11677,0.00014364,-36.288,-0.00044509,-4459.7,0.21499
15799,6.4717,5.6364,0.05,1.0458e-06,10.45,8.0302e-07,6.0336,1.7024e-12,-3.2437e-06,-8.0302e-07,-6.0336,0.22111
15800,6.4717,5.3636,0,0.00043923,4389.3,0.00014804,0.030438,0.0001397,-62.616,-0.00044026,-4420.2,0.22292
15801,6.3792,5.4545,0,0.00044279,4424.9,0.00014889,0.034353,0.00014143,-56.026,-0.00044372,-4452.6,0.2162
15802,6.4717,5.4545,0.05,1.0737e-06,10.73,8.2449e-07,6.1949,5.3115e-14,1.7932e-06,-8.2449e-07,-6.1949,0.22232
15803,6.4717,5.1818,0,0.00043769,4373.9,0.00014841,0.024356,0.00013769,-80.538,-0.000439,-4413.6,0.22398
15804,6.3792,5.2727,0,0.00044116,4408.5,0.00014929,0.03134,0.00013929,-75.098,-0.00044239,-4445.6,0.21732
15805,6.4717,5.2727,0.05,1.0776e-06,10.769,8.2747e-07,6.2173,1.2782e-13,8.5777e-07,-8.2747e-07,-6.2173,0.22343
15806,6.4717,5,0,0.00043622,4359.2,0.00014876,0.016783,0.00013576,-97.659,-0.0004378,-4407.2,0.22496
15807,6.3792,5.0909,0,0.00043959,4392.8,0.00014967,0.020523,0.00013723,-93.416,-0.0004411,-4438.8,0.21834
15808,6.4717,5.0909,0.05,1.0794e-06,10.786,8.2883e-07,6.2275,1.2216e-13,1.4347e-06,-8.2883e-07,-6.2275,0.22446
15809,6.4717,4.8182,0,0.00043483,4345.3,0.0001491,0.011938,0.00013394,-113.84,-0.00043666,-4401.1,0.22585
15810,6.3792,4.9091,0,0.0004381,4377.9,0.00015003,0.015027,0.00013528,-110.83,-0.00043988,-4432.3,0.21927
15811,6.4717,4.9091,0.05,1.0805e-06,10.798,8.2971e-07,6.2341,1.6175e-14,-1.3768e-06,-8.2972e-07,-6.2342,0.22539
15812,6.4717,4.6364,0,0.00043354,4332.4,0.00014941,0.0078452,0.00013224,-128.94,-0.00043558,-4395.4,0.22665
15813,6.3792,4.7273,0,0.0004367,4363.9,0.00015037,0.010135,0.00013344,-127.19,-0.00043872,-4426.1,0.22012
15814,6.4717,4.7273,0.05,1.0812e-06,10.805,8.3024e-07,6.2381,-1.0033e-13,1.2691e-06,-8.3025e-07,-6.2381,0.22623
15815,6.4717,4.4545,0,0.00043234,4320.4,0.00014969,0.0045287,0.00013068,-142.85,-0.0004346,-4390.1,0.22736
15816,6.3792,4.5455,0,0.0004354,4351,0.00015068,0.0063104,0.00013173,-142.37,-0.00043764,-4420.4,0.22088
15817,6.4717,4.5455,0.05,1.0815e-06,10.808,8.3047e-07,6.2398,7.3868e-14,-6.4149e-07,-8.3048e-07,-6.2399,0.22699
15818,6.4717,4.2727,0,0.00043126,4309.7,0.00014995,0.0017463,0.00012926,-155.42,-0.0004337,-4385.3,0.22799
15819,6.3792,4.3636,0,0.00043421,4339.1,0.00015096,0.0030942,0.00013017,-156.22,-0.00043666,-4415.1,0.22155
15820,6.4717,4.3636,0.05,1.0815e-06,10.808,8.3047e-07,6.2398,1.8401e-12,1.5254e-06,-8.3047e-07,-6.2399,0.22766
15821,6.4717,4.0909,0,0.00043031,4300.1,0.00015017,-0.00057215,0.000128,-166.56,-0.0004329,-4381,0.22853
15822,6.3792,4.1818,0,0.00043315,4328.5,0.00015121,0.00041786,0.00012877,-168.64,-0.00043577,-4410.4,0.22213
15823,6.4717,4.1818,0.05,1.0813e-06,10.805,8.3029e-07,6.2385,7.846e-14,1.1777e-06,-8.303e-07,-6.2385,0.22824
15824,6.4717,3.9091,0,0.00042949,4291.9,0.00015037,-0.002487,0.00012692,-176.17,-0.00043221,-4377.3,0.22899
15825,6.3792,4,0,0.00043222,4319.3,0.00015143,-0.0018085,0.00012754,-179.5,-0.000435,-4406.2,0.22263
15826,6.4717,4,0.05,1.0809e-06,10.802,8.3e-07,6.2363,1.7757e-12,1.5407e-07,-8.3001e-07,-6.2364,0.22874
15827,6.4717,3.7273,0,0.0004288,4285.1,0.00015053,-0.0040284,0.00012602,-184.16,-0.00043164,-4374.2,0.22936
15828,6.3792,3.8182,0,0.00043144,4311.4,0.00015162,-0.0036267,0.0001265,-188.72,-0.00043434,-4402.7,0.22304
15829,6.4717,3.8182,0.05,1.0805e-06,10.797,8.2967e-07,6.2338,1.9249e-12,2.9598e-07,-8.2967e-07,-6.2338,0.22915
15830,6.4717,3.5455,0,0.00042827,4279.7,0.00015066,-0.0052136,0.00012531,-190.45,-0.00043119,-4371.7,0.22965
15831,6.3792,3.6364,0,0.0004308,4305,0.00015177,-0.0050614,0.00012566,-196.19,-0.0004338,-4399.8,0.22337
15832,6.4717,3.6364,0.05,1.08e-06,10.793,8.2933e-07,6.2312,7.6143e-14,1.8605e-06,-8.2933e-07,-6.2313,0.22948
15833,6.4717,3.3636,0,0.00042788,4275.8,0.00015075,-0.0060544,0.0001248,-194.98,-0.00043086,-4370,0.22985
15834,6.3792,3.4545,0,0.00043032,4300.2,0.00015189,-0.0061269,0.00012502,-201.86,-0.00043339,-4397.6,0.22362
15835,6.4717,3.4545,0.05,1.0796e-06,10.789,8.2903e-07,6.229,1.8863e-12,5.52e-07,-8.2903e-07,-6.229,0.22973
15836,6.4717,3.1818,0,0.00042764,4273.5,0.0001508,-0.0065575,0.00012449,-197.72,-0.00043066,-4368.9,0.22998
15837,6.3792,3.2727,0,0.00042999,4297,0.00015196,-0.0068343,0.00012459,-205.67,-0.00043312,-4396.1,0.22378
15838,6.4717,3.2727,0.05,1.0794e-06,10.786,8.2881e-07,6.2273,1.8528e-12,2.6197e-07,-8.2881e-07,-6.2274,0.2299
15839,6.4717,3,0,0.00042757,4272.7,0.00015082,-0.006725,0.00012439,-198.63,-0.0004306,-4368.6,0.23002
15840,6.3792,3.0909,0,0.00042983,4295.3,0.000152,-0.0071874,0.00012437,-207.59,-0.00043298,-4395.4,0.22387
15841,6.4717,3.0909,0.05,1.0792e-06,10.785,8.2869e-07,6.2265,3.6514e-12,1.0395e-07,-8.287e-07,-6.2265,0.22998
15842,6.4717,2.8182,0,0.00042764,4273.5,0.0001508,-0.0065575,0.00012449,-197.72,-0.00043066,-4368.9,0.22998
15843,6.3792,2.9091,0,0.00042983,4295.3,0.000152,-0.0071875,0.00012437,-207.59,-0.00043298,-4395.4,0.22387
15844,6.4717,2.9091,0.05,1.0792e-06,10.785,8.2869e-07,6.2265,3.6216e-12,-1.2029e-07,-8.287e-07,-6.2265,0.22998
15845,6.4717,2.6364,0,0.00042788,4275.8,0.00015075,-0.0060543,0.0001248,-194.98,-0.00043086,-4370,0.22985
15846,6.3792,2.7273,0,0.00042999,4297,0.00015196,-0.0068342,0.00012459,-205.67,-0.00043312,-4396.1,0.22378
15847,6.4717,2.7273,0.05,1.0794e-06,10.786,8.288e-07,6.2273,3.576e-12,-4.0633e-07,-8.2882e-07,-6.2274,0.2299
15848,6.4717,2.4545,0,0.00042827,4279.7,0.00015066,-0.0052133,0.00012531,-190.45,-0.00043119,-4371.7,0.22965
15849,6.3792,2.5455,0,0.00043032,4300.2,0.00015189,-0.0061267,0.00012502,-201.86,-0.00043339,-4397.6,0.22362
15850,6.4717,2.5455,0.05,1.0796e-06,10.789,8.2903e-07,6.229,1.7419e-12,-5.3647e-07,-8.2903e-07,-6.229,0.22973
15851,6.4717,2.2727,0,0.0004288,4285.1,0.00015053,-0.0040279,0.00012602,-184.16,-0.00043164,-4374.2,0.22936
15852,6.3792,2.3636,0,0.0004308,4305,0.00015177,-0.0050611,0.00012566,-196.19,-0.0004338,-4399.8,0.22337
15853,6.4717,2.3636,0.05,1.08e-06,10.793,8.2932e-07,6.2312,1.641e-12,-1.506e-06,-8.2933e-07,-6.2313,0.22948
15854,6.4717,2.0909,0,0.00042949,4291.9,0.00015037,-0.0024865,0.00012692,-176.17,-0.00043221,-4377.3,0.22899
15855,6.3792,2.1818,0,0.00043144,4311.4,0.00015162,-0.0036264,0.0001265,-188.72,-0.00043434,-4402.7,0.22304
15856,6.4717,2.1818,0.05,1.0805e-06,10.797,8.2967e-07,6.2338,1.6072e-12,3.7308e-07,-8.2967e-07,-6.2338,0.22915
15857,6.4717,1.9091,0,0.00043031,4300.1,0.00015017,-0.00057159,0.000128,-166.56,-0.0004329,-4381,0.22853
15858,6.3792,2,0,0.00043222,4319.3,0.00015143,-0.001808,0.00012754,-179.5,-0.000435,-4406.2,0.22263
15859,6.4717,2,0.05,1.0809e-06,10.802,8.3e-07,6.2363,1.4915e-12,-1.9047e-06,-8.3001e-07,-6.2365,0.22874
15860,6.4717,1.7273,0,0.00043126,4309.7,0.00014995,0.001747,0.00012926,-155.42,-0.0004337,-4385.3,0.22799
15861,6.3792,1.8182,0,0.00043315,4328.5,0.00015121,0.00041843,0.00012877,-168.64,-0.00043577,-4410.4,0.22213
15862,6.4717,1.8182,0.05,1.0813e-06,10.805,8.3029e-07,6.2385,1.4816e-12,-4.4917e-07,-8.303e-07,-6.2385,0.22824
15863,6.4717,1.5455,0,0.00043234,4320.4,0.00014969,0.0045294,0.00013068,-142.85,-0.0004346,-4390.1,0.22736
15864,6.3792,1.6364,0,0.00043421,4339.1,0.00015096,0.0030951,0.00013017,-156.22,-0.00043666,-4415.1,0.22155
15865,6.4717,1.6364,0.05,1.0815e-06,10.808,8.3047e-07,6.2398,1.3396e-12,-4.341e-06,-8.3048e-07,-6.2399,0.22766
15866,6.4717,1.3636,0,0.00043354,4332.4,0.00014941,0.007846,0.00013224,-128.94,-0.00043558,-4395.4,0.22665
15867,6.3792,1.4545,0,0.0004354,4351,0.00015068,0.0063108,0.00013173,-142.37,-0.00043764,-4420.4,0.22088
15868,6.4717,1.4545,0.05,1.0815e-06,10.808,8.3047e-07,6.2398,1.2554e-12,-5.0446e-06,-8.3047e-07,-6.2399,0.22699
15869,6.4717,1.1818,0,0.00043483,4345.3,0.0001491,0.011939,0.00013394,-113.84,-0.00043666,-4401.1,0.22585
15870,6.3792,1.2727,0,0.0004367,4363.9,0.00015037,0.010135,0.00013344,-127.19,-0.00043872,-4426.1,0.22012
15871,6.4717,1.2727,0.05,1.0812e-06,10.805,8.3024e-07,6.2381,4.8167e-12,-4.8447e-06,-8.3024e-07,-6.2382,0.22623
15872,6.4717,1,0,0.00043622,4359.2,0.00014876,0.016784,0.00013576,-97.659,-0.0004378,-4407.2,0.22496
15873,6.3792,1.0909,0,0.0004381,4377.9,0.00015003,0.015027,0.00013528,-110.83,-0.00043988,-4432.3,0.21927
15874,6.4717,1.0909,0.05,1.0805e-06,10.798,8.2971e-07,6.2341,1.4445e-12,-3.8007e-06,-8.2972e-07,-6.2342,0.22539
15875,6.4717,0.81818,0,0.00043769,4373.9,0.00014841,0.024358,0.00013769,-80.538,-0.000439,-4413.6,0.22398
15876,6.3792,0.90909,0,0.00043959,4392.8,0.00014967,0.020525,0.00013723,-93.416,-0.0004411,-4438.8,0.21834
15877,6.4717,0.90909,0.05,1.0794e-06,10.786,8.2883e-07,6.2275,-4.998e-13,8.7556e-08,-8.2883e-07,-6.2275,0.22446
15878,6.4717,0.63636,0,0.00043923,4389.3,0.00014804,0.030438,0.0001397,-62.616,-0.00044026,-4420.2,0.22292
15879,6.3792,0.72727,0,0.00044116,4408.5,0.00014929,0.031341,0.00013929,-75.098,-0.00044239,-4445.6,0.21732
15880,6.4717,0.72727,0.05,1.0776e-06,10.769,8.2747e-07,6.2172,-5.1647e-13,-1.0853e-05,-8.2747e-07,-6.2174,0.22343
15881,6.4717,0.45455,0,0.00044083,4405.2,0.00014765,0.069593,0.00014179,-44.007,-0.00044156,-4427,0.22175
15882,6.3792,0.54545,0,0.00044279,4424.9,0.00014889,0.034354,0.00014143,-56.026,-0.00044372,-4452.6,0.2162
15883,6.4717,0.54545,0.05,1.0737e-06,10.73,8.2449e-07,6.1949,-3.1696e-13,-7.9622e-06,-8.2449e-07,-6.195,0.22232
15884,6.4717,0.27273,0,0.00044249,4421.9,0.00014725,0.095928,0.00014395,-24.707,-0.00044291,-4434.1,0.2205
15885,6.3792,0.36364,0,0.00044448,4441.8,0.00014848,0.11677,0.00014364,-36.288,-0.00044509,-4459.7,0.21499
15886,6.4717,0.36364,0.05,1.0458e-06,10.45,8.0302e-07,6.0335,6.0541e-12,-8.0493e-06,-8.0303e-07,-6.0336,0.22111
15887,6.3792,0.18182,0,0.00044625,4459.5,0.00014806,0.12554,0.00014593,-15.833,-0.00044652,-4467.3,0.21368
15888,6.4717,0.18182,0.05,6.7153e-07,6.7107,5.1565e-07,3.8744,3.1776e-12,-1.0219e-05,-5.1565e-07,-3.8744,0.21981
15889,6.4717,0.090909,0,0.00044392,4436.1,0.00014688,0.12966,0.00014585,-7.6201,-0.00044405,-4439.9,0.21915
15890,6.2868,5.7273,0,0.00044824,4479.3,0.00014928,0.10505,0.00014562,-27.393,-0.0004487,-4492.9,0.20827
15891,6.1943,5.8182,0,0.00045209,4517.7,0.00015008,0.13436,0.0001477,-17.761,-0.00045238,-4526.5,0.2016
15892,6.2868,5.8182,0.05,7.323e-07,7.318,5.6232e-07,4.225,1.5058e-12,1.4109e-06,-5.6232e-07,-4.225,0.20757
15893,6.2868,5.9091,0,0.0004498,4494.9,0.00014888,0.13449,0.0001477,-8.6854,-0.00044995,-4499.2,0.20691
15894,6.2868,5.5455,0,0.00044644,4461.4,0.00014972,0.07649,0.00014328,-48.302,-0.00044725,-4485.3,0.20953
15895,6.1943,5.6364,0,0.00045018,4498.7,0.00015054,0.12808,0.00014522,-39.889,-0.00045084,-4518.5,0.20291
15896,6.2868,5.6364,0.05,1.0638e-06,10.631,8.1688e-07,6.1377,1.5062e-12,2.4909e-07,-8.1688e-07,-6.1377,0.20888
15897,6.2868,5.3636,0,0.00044472,4444.1,0.00015014,0.033526,0.00014102,-68.503,-0.00044584,-4477.9,0.2107
15898,6.1943,5.4545,0,0.00044835,4480.5,0.00015099,0.037937,0.00014282,-61.307,-0.00044937,-4510.8,0.20413
15899,6.2868,5.4545,0.05,1.0891e-06,10.883,8.3626e-07,6.2833,1.5389e-12,1.16e-06,-8.3626e-07,-6.2833,0.2101
15900,6.2868,5.1818,0,0.00044305,4427.5,0.00015055,0.026708,0.00013883,-87.971,-0.00044448,-4470.8,0.21177
15901,6.1943,5.2727,0,0.00044659,4462.8,0.00015142,0.034417,0.0001405,-82.016,-0.00044793,-4503.2,0.20525
15902,6.2868,5.2727,0.05,1.0928e-06,10.92,8.3912e-07,6.3048,1.6461e-12,9.1845e-07,-8.3912e-07,-6.3048,0.21121
15903,6.2868,5,0,0.00044146,4411.6,0.00015093,0.018321,0.00013674,-106.58,-0.00044318,-4463.9,0.21275
15904,6.1943,5.0909,0,0.00044489,4445.8,0.00015184,0.022471,0.00013827,-101.92,-0.00044654,-4495.9,0.20628
15905,6.2868,5.0909,0.05,1.0945e-06,10.938,8.4046e-07,6.3148,1.3089e-13,-4.9696e-06,-8.4046e-07,-6.3149,0.21224
15906,6.2868,4.8182,0,0.00043996,4396.6,0.0001513,0.012941,0.00013477,-124.17,-0.00044194,-4457.3,0.21364
15907,6.1943,4.9091,0,0.00044328,4429.7,0.00015223,0.016365,0.00013614,-120.85,-0.00044521,-4488.9,0.20721
15908,6.2868,4.9091,0.05,1.0956e-06,10.948,8.4129e-07,6.3211,1.707e-12,-1.8065e-06,-8.4129e-07,-6.3211,0.21318
15909,6.2868,4.6364,0,0.00043856,4382.6,0.00015163,0.0084053,0.00013292,-140.61,-0.00044078,-4451.2,0.21444
15910,6.1943,4.7273,0,0.00044176,4414.6,0.0001526,0.010948,0.00013414,-138.65,-0.00044396,-4482.3,0.20806
15911,6.2868,4.7273,0.05,1.0962e-06,10.954,8.4172e-07,6.3244,2.1439e-14,1.362e-06,-8.4172e-07,-6.3244,0.21402
15912,6.2868,4.4545,0,0.00043727,4369.7,0.00015194,0.0047321,0.00013122,-155.74,-0.00043971,-4445.5,0.21515
15913,6.1943,4.5455,0,0.00044036,4400.5,0.00015294,0.0067138,0.00013228,-155.17,-0.00044279,-4476.1,0.20882
15914,6.2868,4.5455,0.05,1.0963e-06,10.956,8.4183e-07,6.3252,1.7947e-12,-8.549e-07,-8.4183e-07,-6.3252,0.21478
15915,6.2868,4.2727,0,0.0004361,4358,0.00015222,0.0016533,0.00012967,-169.44,-0.00043874,-4440.2,0.21578
15916,6.1943,4.3636,0,0.00043908,4387.7,0.00015325,0.0031568,0.00013059,-170.25,-0.00044172,-4470.4,0.20949
15917,6.2868,4.3636,0.05,1.0961e-06,10.954,8.4169e-07,6.3241,1.8454e-13,-4.7259e-07,-8.4169e-07,-6.3242,0.21545
15918,6.2868,4.0909,0,0.00043507,4347.7,0.00015247,-0.00091068,0.00012831,-181.58,-0.00043787,-4435.6,0.21632
15919,6.1943,4.1818,0,0.00043793,4376.2,0.00015352,0.00019854,0.00012906,-183.78,-0.00044076,-4465.2,0.21007
15920,6.2868,4.1818,0.05,1.0957e-06,10.95,8.4137e-07,6.3217,1.7101e-13,1.2897e-06,-8.4137e-07,-6.3217,0.21603
15921,6.2868,3.9091,0,0.00043418,4338.8,0.00015269,-0.0030268,0.00012713,-192.05,-0.00043712,-4431.6,0.21678
15922,6.1943,4,0,0.00043692,4366.2,0.00015377,-0.0022607,0.00012773,-195.62,-0.00043992,-4460.7,0.21057
15923,6.2868,4,0.05,1.0951e-06,10.944,8.4093e-07,6.3184,5.5161e-12,1.1642e-06,-8.4093e-07,-6.3184,0.21653
15924,6.2868,3.7273,0,0.00043343,4331.4,0.00015286,-0.0047291,0.00012614,-200.75,-0.0004365,-4428.2,0.21715
15925,6.1943,3.8182,0,0.00043607,4357.7,0.00015397,-0.0042677,0.0001266,-205.66,-0.0004392,-4456.9,0.21098
15926,6.2868,3.8182,0.05,1.0945e-06,10.938,8.4045e-07,6.3148,1.8421e-12,1.0047e-06,-8.4045e-07,-6.3148,0.21695
15927,6.2868,3.5455,0,0.00043285,4325.5,0.000153,-0.0060378,0.00012537,-207.61,-0.00043601,-4425.6,0.21744
15928,6.1943,3.6364,0,0.00043538,4350.8,0.00015414,-0.0058506,0.00012568,-213.81,-0.00043862,-4453.7,0.21131
15929,6.2868,3.6364,0.05,1.0939e-06,10.932,8.3998e-07,6.3113,1.9128e-12,8.0611e-07,-8.3998e-07,-6.3113,0.21728
15930,6.2868,3.3636,0,0.00043243,4321.3,0.0001531,-0.006966,0.00012481,-212.56,-0.00043565,-4423.7,0.21765
15931,6.1943,3.4545,0,0.00043485,4345.5,0.00015426,-0.007026,0.00012498,-220,-0.00043818,-4451.4,0.21156
15932,6.2868,3.4545,0.05,1.0934e-06,10.926,8.3958e-07,6.3083,3.6738e-12,2.4934e-06,-8.3959e-07,-6.3083,0.21752
15933,6.2868,3.1818,0,0.00043218,4318.8,0.00015316,-0.0075212,0.00012448,-215.54,-0.00043544,-4422.5,0.21777
15934,6.1943,3.2727,0,0.0004345,4342,0.00015435,-0.007806,0.00012451,-224.16,-0.00043788,-4449.8,0.21173
15935,6.2868,3.2727,0.05,1.093e-06,10.923,8.3929e-07,6.3061,4.2952e-14,2.7514e-07,-8.393e-07,-6.3062,0.21769
15936,6.2868,3,0,0.00043209,4317.9,0.00015318,-0.0077061,0.00012436,-216.54,-0.00043537,-4422.1,0.21781
15937,6.1943,3.0909,0,0.00043433,4340.3,0.00015439,-0.0081952,0.00012428,-226.24,-0.00043773,-4449,0.21181
15938,6.2868,3.0909,0.05,1.0928e-06,10.921,8.3914e-07,6.305,1.8336e-12,1.2017e-07,-8.3914e-07,-6.305,0.21777
15939,6.2868,2.8182,0,0.00043218,4318.8,0.00015316,-0.0075212,0.00012448,-215.54,-0.00043544,-4422.5,0.21777
15940,6.1943,2.9091,0,0.00043433,4340.3,0.00015439,-0.0081953,0.00012428,-226.24,-0.00043773,-4449,0.21181
15941,6.2868,2.9091,0.05,1.0928e-06,10.921,8.3914e-07,6.305,1.8016e-12,-1.1989e-07,-8.3914e-07,-6.305,0.21777
15942,6.2868,2.6364,0,0.00043243,4321.3,0.0001531,-0.0069658,0.00012481,-212.56,-0.00043565,-4423.7,0.21765
15943,6.1943,2.7273,0,0.0004345,4342,0.00015435,-0.007806,0.00012451,-224.16,-0.00043788,-4449.8,0.21173
15944,6.2868,2.7273,0.05,1.093e-06,10.923,8.3929e-07,6.3061,1.7641e-12,1.4638e-06,-8.393e-07,-6.3062,0.21769
15945,6.2868,2.4545,0,0.00043285,4325.5,0.000153,-0.0060377,0.00012537,-207.61,-0.00043601,-4425.6,0.21744
15946,6.1943,2.5455,0,0.00043485,4345.5,0.00015426,-0.0070257,0.00012498,-220,-0.00043818,-4451.4,0.21156
15947,6.2868,2.5455,0.05,1.0934e-06,10.926,8.3958e-07,6.3083,3.5194e-12,-5.7121e-07,-8.3959e-07,-6.3083,0.21752
15948,6.2868,2.2727,0,0.00043343,4331.4,0.00015286,-0.0047289,0.00012614,-200.75,-0.0004365,-4428.2,0.21715
15949,6.1943,2.3636,0,0.00043538,4350.8,0.00015414,-0.0058505,0.00012568,-213.81,-0.00043862,-4453.7,0.21131
15950,6.2868,2.3636,0.05,1.0939e-06,10.932,8.3998e-07,6.3113,3.481e-12,1.1281e-06,-8.3999e-07,-6.3113,0.21728
15951,6.2868,2.0909,0,0.00043418,4338.8,0.00015269,-0.0030265,0.00012713,-192.05,-0.00043712,-4431.6,0.21678
15952,6.1943,2.1818,0,0.00043607,4357.7,0.00015397,-0.0042674,0.0001266,-205.66,-0.0004392,-4456.9,0.21098
15953,6.2868,2.1818,0.05,1.0945e-06,10.938,8.4045e-07,6.3148,1.5846e-12,-5.3232e-07,-8.4045e-07,-6.3149,0.21695
15954,6.2868,1.9091,0,0.00043507,4347.7,0.00015247,-0.0009102,0.00012831,-181.58,-0.00043787,-4435.6,0.21632
15955,6.1943,2,0,0.00043692,4366.2,0.00015377,-0.0022603,0.00012773,-195.62,-0.00043992,-4460.7,0.21057
15956,6.2868,2,0.05,1.0951e-06,10.944,8.4093e-07,6.3184,5.2187e-12,8.0351e-07,-8.4093e-07,-6.3184,0.21653
15957,6.2868,1.7273,0,0.0004361,4358,0.00015222,0.001654,0.00012967,-169.44,-0.00043874,-4440.2,0.21578
15958,6.1943,1.8182,0,0.00043793,4376.2,0.00015352,0.00019913,0.00012906,-183.78,-0.00044076,-4465.2,0.21007
15959,6.2868,1.8182,0.05,1.0957e-06,10.95,8.4137e-07,6.3217,1.5348e-12,-1.1675e-06,-8.4137e-07,-6.3217,0.21603
15960,6.2868,1.5455,0,0.00043727,4369.7,0.00015194,0.0047326,0.00013122,-155.74,-0.00043971,-4445.5,0.21515
15961,6.1943,1.6364,0,0.00043908,4387.7,0.00015325,0.0031575,0.00013059,-170.25,-0.00044172,-4470.4,0.20949
15962,6.2868,1.6364,0.05,1.0961e-06,10.954,8.4169e-07,6.3241,3.2538e-12,-3.0595e-06,-8.4169e-07,-6.3242,0.21545
15963,6.2868,1.3636,0,0.00043856,4382.6,0.00015163,0.0084058,0.00013292,-140.61,-0.00044078,-4451.2,0.21444
15964,6.1943,1.4545,0,0.00044036,4400.5,0.00015294,0.0067142,0.00013228,-155.17,-0.00044279,-4476.1,0.20882
15965,6.2868,1.4545,0.05,1.0963e-06,10.956,8.4183e-07,6.3252,6.5691e-12,-3.5035e-06,-8.4183e-07,-6.3252,0.21478
15966,6.2868,1.1818,0,0.00043996,4396.6,0.0001513,0.012942,0.00013477,-124.17,-0.00044194,-4457.3,0.21364
15967,6.1943,1.2727,0,0.00044176,4414.6,0.0001526,0.010949,0.00013414,-138.65,-0.00044396,-4482.3,0.20806
15968,6.2868,1.2727,0.05,1.0962e-06,10.954,8.4172e-07,6.3243,-3.2068e-13,-3.8236e-06,-8.4172e-07,-6.3244,0.21402
15969,6.2868,1,0,0.00044146,4411.6,0.00015093,0.018322,0.00013674,-106.58,-0.00044318,-4463.9,0.21275
15970,6.1943,1.0909,0,0.00044328,4429.7,0.00015223,0.016366,0.00013614,-120.85,-0.00044521,-4488.9,0.20721
15971,6.2868,1.0909,0.05,1.0956e-06,10.948,8.4128e-07,6.3211,4.6711e-12,-3.3956e-06,-8.4129e-07,-6.3211,0.21318
15972,6.2868,0.81818,0,0.00044305,4427.5,0.00015055,0.026709,0.00013883,-87.971,-0.00044448,-4470.8,0.21177
15973,6.1943,0.90909,0,0.00044489,4445.8,0.00015184,0.022472,0.00013827,-101.92,-0.00044654,-4495.9,0.20628
15974,6.2868,0.90909,0.05,1.0945e-06,10.938,8.4046e-07,6.3148,1.1641e-12,-5.9362e-06,-8.4046e-07,-6.3149,0.21224
15975,6.2868,0.63636,0,0.00044472,4444.1,0.00015014,0.033527,0.00014102,-68.503,-0.00044584,-4477.9,0.2107
15976,6.1943,0.72727,0,0.00044659,4462.8,0.00015142,0.034418,0.0001405,-82.016,-0.00044793,-4503.2,0.20525
15977,6.2868,0.72727,0.05,1.0928e-06,10.92,8.3912e-07,6.3048,1.1476e-12,-9.1845e-07,-8.3913e-07,-6.3048,0.21121
15978,6.2868,0.45455,0,0.00044644,4461.4,0.00014972,0.076491,0.00014328,-48.302,-0.00044725,-4485.3,0.20953
15979,6.1943,0.54545,0,0.00044835,4480.5,0.00015099,0.037938,0.00014282,-61.307,-0.00044937,-4510.8,0.20413
15980,6.2868,0.54545,0.05,1.0891e-06,10.883,8.3626e-07,6.2833,2.55e-12,-5.0399e-06,-8.3627e-07,-6.2834,0.2101
15981,6.2868,0.27273,0,0.00044824,4479.3,0.00014928,0.10505,0.00014562,-27.393,-0.0004487,-4492.9,0.20827
15982,6.1943,0.36364,0,0.00045018,4498.7,0.00015054,0.12808,0.00014522,-39.889,-0.00045084,-4518.5,0.20291
15983,6.2868,0.36364,0.05,1.0638e-06,10.631,8.1688e-07,6.1377,2.2093e-12,-9.9863e-06,-8.1688e-07,-6.1378,0.20888
15984,6.1943,0.18182,0,0.00045209,4517.7,0.00015008,0.13436,0.0001477,-17.761,-0.00045238,-4526.5,0.2016
15985,6.2868,0.18182,0.05,7.323e-07,7.318,5.6232e-07,4.225,2.2995e-12,-1.0834e-05,-5.6232e-07,-4.2251,0.20757
15986,6.2868,0.090909,0,0.0004498,4494.9,0.00014888,0.1345,0.0001477,-8.6854,-0.00044995,-4499.2,0.20691
15987,6.1019,5.7273,0,0.00045402,4537.1,0.00015133,0.11527,0.00014729,-30.231,-0.00045453,-4552.1,0.19635
15988,6.0094,5.8182,0,0.00045796,4576.5,0.00015212,0.14516,0.00014947,-19.772,-0.00045829,-4586.3,0.18983
15989,6.1019,5.8182,0.05,7.9799e-07,7.9744,6.1276e-07,4.604,4.2911e-14,1.6372e-06,-6.1276e-07,-4.604,0.19565
15990,6.1019,5.9091,0,0.00045574,4554.2,0.00015089,0.14057,0.00014957,-9.7934,-0.0004559,-4559,0.19499
15991,6.1019,5.5455,0,0.00045209,4517.8,0.00015181,0.084035,0.00014476,-52.887,-0.00045296,-4543.9,0.19761
15992,6.0094,5.6364,0,0.00045591,4556,0.00015262,0.14043,0.00014679,-43.717,-0.00045664,-4577.6,0.19115
15993,6.1019,5.6364,0.05,1.0834e-06,10.826,8.319e-07,6.2506,6.3175e-14,1.4032e-06,-8.319e-07,-6.2506,0.19696
15994,6.1019,5.3636,0,0.00045022,4499.1,0.00015227,0.036922,0.00014231,-74.814,-0.00045145,-4536.1,0.19878
15995,6.0094,5.4545,0,0.00045394,4536.3,0.00015311,0.041878,0.00014419,-66.955,-0.00045504,-4569.4,0.19237
15996,6.1019,5.4545,0.05,1.1057e-06,11.049,8.4902e-07,6.3792,-1.29e-13,1.6435e-06,-8.4902e-07,-6.3792,0.19818
15997,6.1019,5.1818,0,0.00044843,4481.2,0.00015271,0.029295,0.00013994,-95.958,-0.00044998,-4528.4,0.19986
15998,6.0094,5.2727,0,0.00045203,4517.2,0.00015358,0.037789,0.00014167,-89.441,-0.00045349,-4561.2,0.19349
15999,6.1019,5.2727,0.05,1.1092e-06,11.085,8.5175e-07,6.3997,1.4624e-13,-3.2456e-06,-8.5175e-07,-6.3998,0.1993
16000,6.1019,5,0,0.00044671,4464,0.00015313,0.02002,0.00013767,-116.18,-0.00044857,-4520.9,0.20084
16001,6.0094,5.0909,0,0.0004502,4498.9,0.00015403,0.02461,0.00013925,-111.07,-0.00045198,-4553.4,0.19452
16002,6.1019,5.0909,0.05,1.1109e-06,11.102,8.5306e-07,6.4095,1.6797e-13,1.1742e-06,-8.5306e-07,-6.4095,0.20033
16003,6.1019,4.8182,0,0.00044508,4447.7,0.00015353,0.014058,0.00013552,-135.32,-0.00044723,-4513.8,0.20173
16004,6.0094,4.9091,0,0.00044845,4481.4,0.00015446,0.017841,0.00013694,-131.64,-0.00045055,-4545.8,0.19546
16005,6.1019,4.9091,0.05,1.1119e-06,11.111,8.5381e-07,6.4152,-3.119e-14,1.4466e-06,-8.5381e-07,-6.4152,0.20127
16006,6.1019,4.6364,0,0.00044356,4432.6,0.0001539,0.0090397,0.00013351,-153.2,-0.00044597,-4507.2,0.20253
16007,6.0094,4.7273,0,0.00044681,4465.1,0.00015487,0.011851,0.00013477,-151.01,-0.00044919,-4538.6,0.1963
16008,6.1019,4.7273,0.05,1.1123e-06,11.116,8.5414e-07,6.4176,1.957e-13,-1.6115e-06,-8.5413e-07,-6.4177,0.20211
16009,6.1019,4.4545,0,0.00044217,4418.6,0.00015424,0.0049781,0.00013166,-169.67,-0.00044481,-4501,0.20325
16010,6.0094,4.5455,0,0.00044529,4449.9,0.00015524,0.0071703,0.00013275,-168.98,-0.00044793,-4531.9,0.19706
16011,6.1019,4.5455,0.05,1.1123e-06,11.115,8.541e-07,6.4174,1.7878e-12,1.512e-06,-8.5411e-07,-6.4174,0.20287
16012,6.1019,4.2727,0,0.0004409,4406,0.00015455,0.0015766,0.00012998,-184.59,-0.00044375,-4495.4,0.20387
16013,6.0094,4.3636,0,0.0004439,4436,0.00015558,0.0032423,0.0001309,-185.42,-0.00044677,-4525.8,0.19773
16014,6.1019,4.3636,0.05,1.1119e-06,11.111,8.538e-07,6.4151,1.9942e-13,-6.3e-07,-8.538e-07,-6.4152,0.20354
16015,6.1019,4.0909,0,0.00043978,4394.8,0.00015482,-0.0012543,0.00012849,-197.82,-0.00044281,-4490.3,0.20441
16016,6.0094,4.1818,0,0.00044266,4423.5,0.00015588,-2.2518e-05,0.00012924,-200.15,-0.00044572,-4520.2,0.19831
16017,6.1019,4.1818,0.05,1.1113e-06,11.105,8.533e-07,6.4114,1.9593e-12,1.4005e-06,-8.533e-07,-6.4114,0.20413
16018,6.1019,3.9091,0,0.00043882,4385.1,0.00015505,-0.0035893,0.0001272,-209.23,-0.000442,-4486,0.20487
16019,6.0094,4,0,0.00044157,4412.7,0.00015614,-0.0027348,0.00012779,-213.06,-0.00044481,-4515.3,0.19881
16020,6.1019,4,0.05,1.1105e-06,11.097,8.527e-07,6.4068,1.9546e-12,1.9886e-08,-8.527e-07,-6.4068,0.20462
16021,6.1019,3.7273,0,0.00043801,4377.1,0.00015524,-0.0054666,0.00012613,-218.72,-0.00044132,-4482.4,0.20524
16022,6.0094,3.8182,0,0.00044065,4403.4,0.00015637,-0.0049469,0.00012656,-224.01,-0.00044403,-4511.2,0.19923
16023,6.1019,3.8182,0.05,1.1096e-06,11.089,8.5205e-07,6.4019,1.8895e-12,2.6429e-07,-8.5205e-07,-6.402,0.20504
16024,6.1019,3.5455,0,0.00043738,4370.8,0.0001554,-0.0069093,0.00012529,-226.2,-0.00044079,-4479.5,0.20553
16025,6.0094,3.6364,0,0.0004399,4396,0.00015655,-0.0066909,0.00012555,-232.9,-0.0004434,-4507.8,0.19955
16026,6.1019,3.6364,0.05,1.1088e-06,11.081,8.5144e-07,6.3974,1.1905e-13,2.256e-06,-8.5144e-07,-6.3974,0.20537
16027,6.1019,3.3636,0,0.00043693,4366.2,0.0001555,-0.007932,0.00012468,-231.6,-0.0004404,-4477.4,0.20574
16028,6.0094,3.4545,0,0.00043933,4390.3,0.00015669,-0.0079852,0.00012479,-239.65,-0.00044292,-4505.2,0.1998
16029,6.1019,3.4545,0.05,1.1082e-06,11.074,8.5092e-07,6.3935,3.6744e-12,6.4165e-07,-8.5093e-07,-6.3935,0.20562
16030,6.1019,3.1818,0,0.00043665,4363.5,0.00015557,-0.0085436,0.00012431,-234.86,-0.00044017,-4476.2,0.20586
16031,6.0094,3.2727,0,0.00043895,4386.5,0.00015678,-0.0088439,0.00012428,-244.18,-0.00044259,-4503.5,0.19997
16032,6.1019,3.2727,0.05,1.1077e-06,11.069,8.5056e-07,6.3907,5.2913e-14,2.9654e-07,-8.5056e-07,-6.3908,0.20578
16033,6.1019,3,0,0.00043656,4362.6,0.00015559,-0.0087471,0.00012419,-235.95,-0.00044009,-4475.8,0.2059
16034,6.0094,3.0909,0,0.00043876,4384.6,0.00015683,-0.0092722,0.00012403,-246.46,-0.00044243,-4502.6,0.20005
16035,6.1019,3.0909,0.05,1.1074e-06,11.067,8.5036e-07,6.3893,1.6262e-14,2.0387e-06,-8.5037e-07,-6.3893,0.20586
16036,6.1019,2.8182,0,0.00043665,4363.5,0.00015557,-0.0085436,0.00012431,-234.86,-0.00044017,-4476.2,0.20586
16037,6.0094,2.9091,0,0.00043876,4384.6,0.00015683,-0.0092723,0.00012403,-246.46,-0.00044243,-4502.6,0.20005
16038,6.1019,2.9091,0.05,1.1074e-06,11.067,8.5036e-07,6.3893,-1.8817e-14,1.7757e-06,-8.5037e-07,-6.3893,0.20586
16039,6.1019,2.6364,0,0.00043693,4366.2,0.0001555,-0.0079319,0.00012468,-231.6,-0.0004404,-4477.4,0.20574
16040,6.0094,2.7273,0,0.00043895,4386.5,0.00015678,-0.0088438,0.00012428,-244.18,-0.00044259,-4503.5,0.19997
16041,6.1019,2.7273,0.05,1.1077e-06,11.069,8.5056e-07,6.3907,1.7645e-12,5.2208e-06,-8.5056e-07,-6.3908,0.20578
16042,6.1019,2.4545,0,0.00043738,4370.8,0.0001554,-0.006909,0.00012529,-226.2,-0.00044079,-4479.5,0.20553
16043,6.0094,2.5455,0,0.00043933,4390.3,0.00015669,-0.0079849,0.00012479,-239.65,-0.00044292,-4505.2,0.1998
16044,6.1019,2.5455,0.05,1.1082e-06,11.074,8.5092e-07,6.3935,3.5061e-12,-6.4165e-07,-8.5093e-07,-6.3935,0.20562
16045,6.1019,2.2727,0,0.00043801,4377.1,0.00015524,-0.0054664,0.00012613,-218.72,-0.00044132,-4482.4,0.20524
16046,6.0094,2.3636,0,0.0004399,4396,0.00015655,-0.0066907,0.00012555,-232.9,-0.0004434,-4507.8,0.19955
16047,6.1019,2.3636,0.05,1.1088e-06,11.081,8.5144e-07,6.3974,-1.1111e-13,-1.3657e-06,-8.5144e-07,-6.3974,0.20537
16048,6.1019,2.0909,0,0.00043882,4385.1,0.00015505,-0.0035889,0.0001272,-209.23,-0.000442,-4486,0.20487
16049,6.0094,2.1818,0,0.00044065,4403.4,0.00015637,-0.0049466,0.00012656,-224.01,-0.00044403,-4511.2,0.19923
16050,6.1019,2.1818,0.05,1.1096e-06,11.089,8.5205e-07,6.4019,1.5537e-12,-8.7731e-07,-8.5205e-07,-6.402,0.20504
16051,6.1019,1.9091,0,0.00043978,4394.8,0.00015482,-0.0012538,0.00012849,-197.82,-0.00044281,-4490.3,0.20441
16052,6.0094,2,0,0.00044157,4412.7,0.00015614,-0.0027344,0.00012779,-213.06,-0.00044481,-4515.3,0.19881
16053,6.1019,2,0.05,1.1105e-06,11.097,8.5269e-07,6.4068,5.0411e-12,-5.3618e-07,-8.527e-07,-6.4068,0.20462
16054,6.1019,1.7273,0,0.0004409,4406,0.00015455,0.0015772,0.00012998,-184.59,-0.00044375,-4495.4,0.20387
16055,6.0094,1.8182,0,0.00044266,4423.5,0.00015588,-2.1903e-05,0.00012924,-200.15,-0.00044572,-4520.2,0.19831
16056,6.1019,1.8182,0.05,1.1113e-06,11.105,8.533e-07,6.4114,1.3012e-12,-1.2838e-06,-8.5331e-07,-6.4114,0.20413
16057,6.1019,1.5455,0,0.00044217,4418.6,0.00015424,0.0049788,0.00013166,-169.67,-0.00044481,-4501,0.20325
16058,6.0094,1.6364,0,0.0004439,4436,0.00015558,0.0032429,0.0001309,-185.42,-0.00044677,-4525.8,0.19773
16059,6.1019,1.6364,0.05,1.1119e-06,11.111,8.538e-07,6.4151,-3.0539e-13,-5.5787e-06,-8.538e-07,-6.4152,0.20354
16060,6.1019,1.3636,0,0.00044356,4432.6,0.0001539,0.0090404,0.00013351,-153.2,-0.00044597,-4507.2,0.20253
16061,6.0094,1.4545,0,0.00044529,4449.9,0.00015524,0.0071711,0.00013275,-168.98,-0.00044793,-4531.9,0.19706
16062,6.1019,1.4545,0.05,1.1123e-06,11.115,8.541e-07,6.4174,1.0959e-12,-1.3601e-06,-8.5411e-07,-6.4174,0.20287
16063,6.1019,1.1818,0,0.00044508,4447.7,0.00015353,0.014059,0.00013552,-135.32,-0.00044723,-4513.8,0.20173
16064,6.0094,1.2727,0,0.00044681,4465.1,0.00015487,0.011852,0.00013477,-151.01,-0.00044919,-4538.6,0.1963
16065,6.1019,1.2727,0.05,1.1123e-06,11.116,8.5414e-07,6.4176,1.1812e-12,-8.7428e-06,-8.5414e-07,-6.4177,0.20211
16066,6.1019,1,0,0.00044671,4464,0.00015313,0.020021,0.00013767,-116.18,-0.00044857,-4520.9,0.20084
16067,6.0094,1.0909,0,0.00044845,4481.4,0.00015446,0.017841,0.00013694,-131.64,-0.00045055,-4545.8,0.19546
16068,6.1019,1.0909,0.05,1.1119e-06,11.111,8.5381e-07,6.4152,2.8281e-12,-3.8532e-06,-8.5381e-07,-6.4152,0.20127
16069,6.1019,0.81818,0,0.00044843,4481.2,0.00015271,0.029296,0.00013994,-95.958,-0.00044998,-4528.4,0.19986
16070,6.0094,0.90909,0,0.0004502,4498.9,0.00015403,0.024611,0.00013925,-111.07,-0.00045198,-4553.4,0.19452
16071,6.1019,0.90909,0.05,1.1109e-06,11.102,8.5306e-07,6.4095,1.2972e-12,-1.2329e-06,-8.5306e-07,-6.4095,0.20033
16072,6.1019,0.63636,0,0.00045022,4499.1,0.00015227,0.036923,0.00014231,-74.814,-0.00045145,-4536.1,0.19878
16073,6.0094,0.72727,0,0.00045203,4517.2,0.00015358,0.03779,0.00014167,-89.441,-0.00045349,-4561.2,0.19349
16074,6.1019,0.72727,0.05,1.1092e-06,11.085,8.5175e-07,6.3997,1.0246e-12,-9.0404e-06,-8.5176e-07,-6.3998,0.1993
16075,6.1019,0.45455,0,0.00045209,4517.8,0.00015181,0.084036,0.00014476,-52.887,-0.00045296,-4543.9,0.19761
16076,6.0094,0.54545,0,0.00045394,4536.3,0.00015311,0.041878,0.00014419,-66.955,-0.00045504,-4569.4,0.19237
16077,6.1019,0.54545,0.05,1.1057e-06,11.049,8.4902e-07,6.3792,6.0622e-12,-1.0182e-05,-8.4902e-07,-6.3793,0.19818
16078,6.1019,0.27273,0,0.00045402,4537.1,0.00015133,0.11527,0.00014729,-30.231,-0.00045453,-4552.1,0.19635
16079,6.0094,0.36364,0,0.00045591,4556,0.00015262,0.14043,0.00014679,-43.717,-0.00045664,-4577.6,0.19115
16080,6.1019,0.36364,0.05,1.0834e-06,10.826,8.319e-07,6.2506,3.4404e-13,-5.9406e-06,-8.3191e-07,-6.2506,0.19696
16081,6.0094,0.18182,0,0.00045796,4576.5,0.00015212,0.14516,0.00014947,-19.772,-0.00045829,-4586.3,0.18983
16082,6.1019,0.18182,0.05,7.9799e-07,7.9744,6.1275e-07,4.604,1.1339e-12,-2.6127e-07,-6.1276e-07,-4.604,0.19565
16083,6.1019,0.090909,0,0.00045574,4554.2,0.00015089,0.14057,0.00014957,-9.7934,-0.0004559,-4559,0.19499
16084,5.917,5.7273,0,0.00045985,4595.3,0.0001534,0.1267,0.00014896,-33.225,-0.0004604,-4611.8,0.18474
16085,5.8245,5.8182,0,0.00046389,4635.7,0.00015418,0.15814,0.00015125,-21.861,-0.00046426,-4646.5,0.17838
16086,5.917,5.8182,0.05,8.6894e-07,8.6834,6.6724e-07,5.0134,1.6348e-12,1.2133e-06,-6.6724e-07,-5.0134,0.18403
16087,5.917,5.9091,0,0.00046172,4614,0.00015292,0.14778,0.00015144,-10.941,-0.0004619,-4619.4,0.18337
16088,5.917,5.5455,0,0.00045776,4574.5,0.00015392,0.092275,0.00014622,-57.776,-0.00045872,-4603,0.186
16089,5.8245,5.6364,0,0.00046168,4613.6,0.00015473,0.15392,0.00014835,-47.782,-0.00046247,-4637.3,0.17969
16090,5.917,5.6364,0.05,1.1046e-06,11.038,8.482e-07,6.373,1.0056e-13,-5.308e-06,-8.482e-07,-6.373,0.18535
16091,5.917,5.3636,0,0.00045575,4554.3,0.00015442,0.040642,0.00014356,-81.573,-0.00045708,-4594.6,0.18718
16092,5.8245,5.4545,0,0.00045955,4592.3,0.00015526,0.046212,0.00014554,-72.99,-0.00046075,-4628.4,0.18092
16093,5.917,5.4545,0.05,1.1237e-06,11.229,8.6287e-07,6.4833,-5.1569e-13,9.4869e-07,-8.6288e-07,-6.4833,0.18657
16094,5.917,5.1818,0,0.0004538,4534.9,0.00015491,0.032124,0.00014099,-104.54,-0.00045549,-4586.3,0.18825
16095,5.8245,5.2727,0,0.00045749,4571.7,0.00015577,0.041482,0.0001428,-97.403,-0.00045907,-4619.6,0.18204
16096,5.917,5.2727,0.05,1.1271e-06,11.263,8.6546e-07,6.5028,-1.3446e-13,2.1181e-06,-8.6547e-07,-6.5028,0.1877
16097,5.917,5,0,0.00045194,4516.3,0.00015537,0.021881,0.00013853,-126.52,-0.00045396,-4578.2,0.18924
16098,5.8245,5.0909,0,0.00045551,4551.9,0.00015627,0.02696,0.00014017,-120.9,-0.00045744,-4611.1,0.18307
16099,5.917,5.0909,0.05,1.1287e-06,11.28,8.6673e-07,6.5122,1.8625e-12,2.2297e-06,-8.6673e-07,-6.5122,0.18873
16100,5.917,4.8182,0,0.00045019,4498.8,0.0001558,0.015285,0.00013619,-147.33,-0.00045251,-4570.6,0.19013
16101,5.8245,4.9091,0,0.00045362,4533.1,0.00015674,0.019465,0.00013767,-143.27,-0.00045589,-4603,0.18401
16102,5.917,4.9091,0.05,1.1296e-06,11.288,8.674e-07,6.5173,1.8945e-12,1.4935e-06,-8.674e-07,-6.5173,0.18966
16103,5.917,4.6364,0,0.00044854,4482.3,0.0001562,0.0097404,0.00013401,-166.78,-0.00045115,-4563.4,0.19093
16104,5.8245,4.7273,0,0.00045184,4515.3,0.00015718,0.012851,0.0001353,-164.33,-0.00045442,-4595.2,0.18485
16105,5.917,4.7273,0.05,1.1299e-06,11.291,8.6759e-07,6.5187,2.0599e-13,-1.9809e-06,-8.6759e-07,-6.5188,0.19051
16106,5.917,4.4545,0,0.00044703,4467.2,0.00015658,0.005256,0.00013199,-184.72,-0.00044989,-4556.7,0.19164
16107,5.8245,4.5455,0,0.0004502,4498.9,0.00015758,0.0076846,0.00013311,-183.9,-0.00045304,-4588,0.18561
16108,5.917,4.5455,0.05,1.1296e-06,11.288,8.674e-07,6.5173,3.621e-14,1.6497e-06,-8.674e-07,-6.5173,0.19127
16109,5.917,4.2727,0,0.00044566,4453.6,0.00015691,0.0015034,0.00013016,-200.97,-0.00044874,-4550.6,0.19227
16110,5.8245,4.3636,0,0.0004487,4483.9,0.00015795,0.0033527,0.0001311,-201.8,-0.00045179,-4581.4,0.18628
16111,5.917,4.3636,0.05,1.129e-06,11.282,8.6691e-07,6.5136,2.1238e-13,-9.1203e-07,-8.669e-07,-6.5136,0.19194
16112,5.917,4.0909,0,0.00044445,4441.4,0.00015721,-0.0016176,0.00012854,-215.38,-0.00044772,-4545.2,0.19281
16113,5.8245,4.1818,0,0.00044735,4470.4,0.00015828,-0.00024555,0.00012929,-217.86,-0.00045066,-4575.3,0.18686
16114,5.917,4.1818,0.05,1.1281e-06,11.273,8.6621e-07,6.5083,3.6067e-12,1.459e-06,-8.6621e-07,-6.5084,0.19252
16115,5.917,3.9091,0,0.0004434,4431,0.00015746,-0.0041901,0.00012714,-227.83,-0.00044684,-4540.5,0.19326
16116,5.8245,4,0,0.00044617,4458.6,0.00015857,-0.0032325,0.00012771,-231.92,-0.00044966,-4570.1,0.18736
16117,5.917,4,0.05,1.127e-06,11.262,8.654e-07,6.5023,1.8801e-12,1.4108e-06,-8.654e-07,-6.5023,0.19302
16118,5.917,3.7273,0,0.00044254,4422.3,0.00015768,-0.0062574,0.00012598,-238.18,-0.00044611,-4536.6,0.19363
16119,5.8245,3.8182,0,0.00044517,4448.6,0.00015882,-0.0056672,0.00012636,-243.87,-0.00044882,-4565.6,0.18777
16120,5.917,3.8182,0.05,1.1259e-06,11.251,8.6457e-07,6.496,9.5469e-14,1.2081e-06,-8.6457e-07,-6.496,0.19343
16121,5.917,3.5455,0,0.00044185,4415.5,0.00015784,-0.0078454,0.00012506,-246.34,-0.00044553,-4533.5,0.19392
16122,5.8245,3.6364,0,0.00044436,4440.5,0.00015902,-0.0075855,0.00012527,-253.57,-0.00044813,-4561.9,0.1881
16123,5.917,3.6364,0.05,1.1249e-06,11.241,8.6379e-07,6.4902,3.6895e-12,9.5521e-07,-8.638e-07,-6.4902,0.19376
16124,5.917,3.3636,0,0.00044136,4410.5,0.00015796,-0.0089707,0.00012439,-252.23,-0.00044511,-4531.2,0.19413
16125,5.8245,3.4545,0,0.00044374,4434.4,0.00015917,-0.0090087,0.00012444,-260.93,-0.00044761,-4559.1,0.18835
16126,5.917,3.4545,0.05,1.1241e-06,11.233,8.6315e-07,6.4853,3.6943e-12,2.2575e-06,-8.6315e-07,-6.4854,0.19401
16127,5.917,3.1818,0,0.00044106,4407.6,0.00015803,-0.0096434,0.00012399,-255.78,-0.00044485,-4529.9,0.19425
16128,5.8245,3.2727,0,0.00044333,4430.3,0.00015927,-0.0099526,0.00012389,-265.88,-0.00044726,-4557.2,0.18851
16129,5.917,3.2727,0.05,1.1235e-06,11.227,8.6268e-07,6.4819,3.6807e-12,4.337e-07,-8.6268e-07,-6.4819,0.19417
16130,5.917,3,0,0.00044096,4406.6,0.00015806,-0.0098673,0.00012386,-256.97,-0.00044477,-4529.4,0.19429
16131,5.8245,3.0909,0,0.00044312,4428.2,0.00015932,-0.010423,0.00012361,-268.36,-0.00044708,-4556.3,0.18859
16132,5.917,3.0909,0.05,1.1232e-06,11.224,8.6244e-07,6.48,1.8035e-14,1.4124e-07,-8.6244e-07,-6.48,0.19425
16133,5.917,2.8182,0,0.00044106,4407.6,0.00015803,-0.0096433,0.00012399,-255.78,-0.00044485,-4529.9,0.19425
16134,5.8245,2.9091,0,0.00044312,4428.2,0.00015932,-0.010423,0.00012361,-268.36,-0.00044708,-4556.3,0.18859
16135,5.917,2.9091,0.05,1.1232e-06,11.224,8.6244e-07,6.48,1.7991e-12,-1.4081e-07,-8.6244e-07,-6.48,0.19425
16136,5.917,2.6364,0,0.00044136,4410.5,0.00015796,-0.0089705,0.00012439,-252.23,-0.00044511,-4531.2,0.19413
16137,5.8245,2.7273,0,0.00044333,4430.3,0.00015927,-0.0099524,0.00012389,-265.88,-0.00044726,-4557.2,0.18851
16138,5.917,2.7273,0.05,1.1235e-06,11.227,8.6268e-07,6.4819,3.5692e-12,-4.1802e-07,-8.6268e-07,-6.4819,0.19417
16139,5.917,2.4545,0,0.00044185,4415.5,0.00015784,-0.0078452,0.00012506,-246.34,-0.00044553,-4533.5,0.19392
16140,5.8245,2.5455,0,0.00044374,4434.4,0.00015917,-0.0090086,0.00012444,-260.93,-0.00044761,-4559.1,0.18835
16141,5.917,2.5455,0.05,1.1241e-06,11.233,8.6315e-07,6.4853,3.5111e-12,-9.9561e-07,-8.6315e-07,-6.4854,0.19401
16142,5.917,2.2727,0,0.00044254,4422.3,0.00015768,-0.0062571,0.00012598,-238.18,-0.00044611,-4536.6,0.19363
16143,5.8245,2.3636,0,0.00044436,4440.5,0.00015902,-0.0075853,0.00012527,-253.57,-0.00044813,-4561.9,0.1881
16144,5.917,2.3636,0.05,1.1249e-06,11.241,8.6379e-07,6.4902,3.3766e-12,-8.8357e-07,-8.638e-07,-6.4902,0.19376
16145,5.917,2.0909,0,0.0004434,4431,0.00015746,-0.0041898,0.00012714,-227.83,-0.00044684,-4540.5,0.19326
16146,5.8245,2.1818,0,0.00044517,4448.6,0.00015882,-0.0056668,0.00012636,-243.87,-0.00044882,-4565.6,0.18777
16147,5.917,2.1818,0.05,1.1259e-06,11.251,8.6457e-07,6.496,3.3159e-12,-1.2024e-06,-8.6457e-07,-6.4961,0.19343
16148,5.917,1.9091,0,0.00044445,4441.4,0.00015721,-0.001617,0.00012854,-215.38,-0.00044772,-4545.2,0.19281
16149,5.8245,2,0,0.00044617,4458.6,0.00015857,-0.0032321,0.00012771,-231.92,-0.00044966,-4570.1,0.18736
16150,5.917,2,0.05,1.127e-06,11.262,8.654e-07,6.5023,1.445e-12,6.3241e-07,-8.654e-07,-6.5023,0.19302
16151,5.917,1.7273,0,0.00044566,4453.6,0.00015691,0.0015041,0.00013016,-200.97,-0.00044874,-4550.6,0.19227
16152,5.8245,1.8182,0,0.00044735,4470.4,0.00015828,-0.00024483,0.00012929,-217.86,-0.00045066,-4575.3,0.18686
16153,5.917,1.8182,0.05,1.1281e-06,11.273,8.6621e-07,6.5083,3.2284e-12,-3.2686e-06,-8.6621e-07,-6.5084,0.19252
16154,5.917,1.5455,0,0.00044703,4467.2,0.00015658,0.0052567,0.00013199,-184.72,-0.00044989,-4556.7,0.19164
16155,5.8245,1.6364,0,0.0004487,4483.9,0.00015795,0.0033533,0.0001311,-201.8,-0.00045179,-4581.4,0.18628
16156,5.917,1.6364,0.05,1.129e-06,11.282,8.6691e-07,6.5135,3.3014e-12,-8.7839e-06,-8.669e-07,-6.5137,0.19194
16157,5.917,1.3636,0,0.00044854,4482.3,0.0001562,0.0097412,0.00013401,-166.78,-0.00045115,-4563.4,0.19093
16158,5.8245,1.4545,0,0.0004502,4498.9,0.00015758,0.0076853,0.00013311,-183.9,-0.00045304,-4588,0.18561
16159,5.917,1.4545,0.05,1.1296e-06,11.288,8.674e-07,6.5172,2.5469e-12,-5.6321e-06,-8.674e-07,-6.5174,0.19127
16160,5.917,1.1818,0,0.00045019,4498.8,0.0001558,0.015285,0.00013619,-147.33,-0.00045251,-4570.6,0.19013
16161,5.8245,1.2727,0,0.00045184,4515.3,0.00015718,0.012852,0.0001353,-164.33,-0.00045442,-4595.2,0.18485
16162,5.917,1.2727,0.05,1.1299e-06,11.291,8.6759e-07,6.5187,2.8186e-12,-6.68e-06,-8.6759e-07,-6.5188,0.19051
16163,5.917,1,0,0.00045194,4516.3,0.00015537,0.021882,0.00013853,-126.52,-0.00045396,-4578.2,0.18924
16164,5.8245,1.0909,0,0.00045362,4533.1,0.00015674,0.019466,0.00013767,-143.27,-0.00045589,-4603,0.18401
16165,5.917,1.0909,0.05,1.1296e-06,11.288,8.6739e-07,6.5173,4.1914e-12,-1.3226e-06,-8.674e-07,-6.5173,0.18966
16166,5.917,0.81818,0,0.0004538,4534.9,0.00015491,0.032125,0.00014099,-104.54,-0.00045549,-4586.3,0.18825
16167,5.8245,0.90909,0,0.00045551,4551.9,0.00015627,0.026961,0.00014017,-120.9,-0.00045744,-4611.1,0.18307
16168,5.917,0.90909,0.05,1.1287e-06,11.28,8.6673e-07,6.5122,4.8853e-12,-9.4199e-06,-8.6672e-07,-6.5123,0.18873
16169,5.917,0.63636,0,0.00045575,4554.3,0.00015442,0.040642,0.00014356,-81.573,-0.00045708,-4594.6,0.18718
16170,5.8245,0.72727,0,0.00045749,4571.7,0.00015577,0.041482,0.0001428,-97.403,-0.00045907,-4619.6,0.18204
16171,5.917,0.72727,0.05,1.1271e-06,11.263,8.6547e-07,6.5027,-4.3852e-13,-5.9838e-06,-8.6546e-07,-6.5028,0.1877
16172,5.917,0.45455,0,0.00045776,4574.5,0.00015392,0.092276,0.00014622,-57.776,-0.00045872,-4603,0.186
16173,5.8245,0.54545,0,0.00045955,4592.3,0.00015526,0.046212,0.00014554,-72.99,-0.00046075,-4628.4,0.18092
16174,5.917,0.54545,0.05,1.1237e-06,11.229,8.6287e-07,6.4833,5.7726e-13,-6.2233e-06,-8.6288e-07,-6.4833,0.18657
16175,5.917,0.27273,0,0.00045985,4595.3,0.0001534,0.1267,0.00014896,-33.225,-0.0004604,-4611.8,0.18474
16176,5.8245,0.36364,0,0.00046168,4613.6,0.00015473,0.15392,0.00014835,-47.782,-0.00046247,-4637.3,0.17969
16177,5.917,0.36364,0.05,1.1046e-06,11.038,8.4819e-07,6.373,4.9377e-13,-6.011e-06,-8.482e-07,-6.373,0.18535
16178,5.8245,0.18182,0,0.00046389,4635.7,0.00015418,0.15815,0.00015125,-21.861,-0.00046426,-4646.5,0.17838
16179,5.917,0.18182,0.05,8.6894e-07,8.6834,6.6724e-07,5.0133,2.1163e-13,-4.2059e-05,-6.6724e-07,-5.0135,0.18403
16180,5.917,0.090909,0,0.00046172,4614,0.00015292,0.14778,0.00015144,-10.941,-0.0004619,-4619.4,0.18337
16181,5.7321,5.7273,0,0.00046572,4654,0.0001555,0.13951,0.00015064,-36.377,-0.00046633,-4672,0.17344
16182,5.6396,5.8182,0,0.00046987,4695.4,0.00015626,0.17361,0.00015304,-24.025,-0.00047027,-4707.3,0.16724
16183,5.7321,5.8182,0.05,9.4555e-07,9.4489,7.2606e-07,5.4553,8.5804e-14,1.1146e-06,-7.2606e-07,-5.4554,0.17274
16184,5.7321,5.9091,0,0.00046775,4674.3,0.00015497,0.15613,0.00015334,-12.125,-0.00046795,-4680.2,0.17207
16185,5.7321,5.5455,0,0.00046347,4631.5,0.00015606,0.10129,0.00014767,-62.983,-0.00046451,-4662.6,0.17471
16186,5.6396,5.6364,0,0.00046749,4671.7,0.00015686,0.16869,0.0001499,-52.089,-0.00046835,-4697.4,0.16856
16187,5.7321,5.6364,0.05,1.1276e-06,11.268,8.6587e-07,6.5058,3.3466e-12,1.3175e-06,-8.6587e-07,-6.5058,0.17406
16188,5.7321,5.3636,0,0.00046129,4609.7,0.00015661,0.044732,0.00014478,-88.808,-0.00046274,-4653.5,0.17588
16189,5.6396,5.4545,0,0.00046519,4648.7,0.00015743,0.050993,0.00014686,-79.434,-0.00046649,-4687.8,0.16978
16190,5.7321,5.4545,0.05,1.1433e-06,11.425,8.7794e-07,6.5965,-6.0993e-13,-5.2605e-06,-8.7794e-07,-6.5965,0.17528
16191,5.7321,5.1818,0,0.00045919,4588.7,0.00015713,0.035233,0.00014199,-113.75,-0.00046102,-4644.5,0.17696
16192,5.6396,5.2727,0,0.00046296,4626.4,0.000158,0.045539,0.00014389,-105.94,-0.00046467,-4678.4,0.1709
16193,5.7321,5.2727,0.05,1.1465e-06,11.457,8.8037e-07,6.6147,1.474e-12,1.2611e-06,-8.8037e-07,-6.6147,0.1764
16194,5.7321,5,0,0.00045718,4568.6,0.00015764,0.023934,0.00013932,-137.64,-0.00045936,-4635.9,0.17794
16195,5.6396,5.0909,0,0.00046081,4605,0.00015854,0.029551,0.00014104,-131.46,-0.00046291,-4669.3,0.17193
16196,5.7321,5.0909,0.05,1.1481e-06,11.473,8.8158e-07,6.6239,1.9093e-13,1.4014e-06,-8.8158e-07,-6.6239,0.17743
16197,5.7321,4.8182,0,0.00045528,4549.6,0.00015811,0.016645,0.00013678,-160.27,-0.00045779,-4627.6,0.17883
16198,5.6396,4.9091,0,0.00045877,4584.6,0.00015905,0.021264,0.00013831,-155.79,-0.00046122,-4660.5,0.17287
16199,5.7321,4.9091,0.05,1.1488e-06,11.48,8.8216e-07,6.6282,2.1157e-13,1.5212e-06,-8.8216e-07,-6.6282,0.17837
16200,5.7321,4.6364,0,0.0004535,4531.9,0.00015855,0.010528,0.0001344,-181.44,-0.00045631,-4619.9,0.17963
16201,5.6396,4.7273,0,0.00045685,4565.4,0.00015953,0.01397,0.00013574,-178.7,-0.00045963,-4652.1,0.17371
16202,5.7321,4.7273,0.05,1.1489e-06,11.481,8.8221e-07,6.6285,3.6221e-12,-2.2894e-06,-8.8221e-07,-6.6286,0.17922
16203,5.7321,4.4545,0,0.00045186,4515.5,0.00015896,0.0055829,0.00013221,-200.97,-0.00045495,-4612.6,0.18035
16204,5.6396,4.5455,0,0.00045507,4547.6,0.00015997,0.0082731,0.00013335,-200.01,-0.00045815,-4644.3,0.17447
16205,5.7321,4.5455,0.05,1.1484e-06,11.476,8.8183e-07,6.6257,2.2337e-13,1.7635e-06,-8.8183e-07,-6.6257,0.17997
16206,5.7321,4.2727,0,0.00045038,4500.7,0.00015933,0.0014483,0.00013022,-218.68,-0.0004537,-4606.1,0.18097
16207,5.6396,4.3636,0,0.00045345,4531.3,0.00016038,0.0035017,0.00013116,-219.5,-0.00045678,-4637.1,0.17514
16208,5.7321,4.3636,0.05,1.1475e-06,11.467,8.8113e-07,6.6204,1.7928e-12,1.7062e-06,-8.8113e-07,-6.6204,0.18064
16209,5.7321,4.0909,0,0.00044907,4487.6,0.00015965,-0.0019879,0.00012846,-234.39,-0.0004526,-4600.2,0.18151
16210,5.6396,4.1818,0,0.00045199,4516.8,0.00016074,-0.00045859,0.0001292,-237,-0.00045555,-4630.6,0.17572
16211,5.7321,4.1818,0.05,1.1463e-06,11.455,8.802e-07,6.6135,1.8329e-12,-7.0988e-07,-8.8021e-07,-6.6135,0.18122
16212,5.7321,3.9091,0,0.00044794,4476.3,0.00015993,-0.0048183,0.00012693,-247.96,-0.00045164,-4595.1,0.18196
16213,5.6396,4,0,0.00045071,4504,0.00016106,-0.0037437,0.00012748,-252.34,-0.00045448,-4624.9,0.17621
16214,5.7321,4,0.05,1.1449e-06,11.441,8.7917e-07,6.6057,1.0447e-13,-2.6569e-07,-8.7917e-07,-6.6057,0.18172
16215,5.7321,3.7273,0,0.000447,4466.9,0.00016016,-0.0070913,0.00012566,-259.25,-0.00045084,-4590.9,0.18233
16216,5.6396,3.8182,0,0.00044963,4493.2,0.00016133,-0.0064194,0.00012601,-265.36,-0.00045356,-4620,0.17662
16217,5.7321,3.8182,0.05,1.1436e-06,11.428,8.7812e-07,6.5978,9.3774e-14,1.4593e-07,-8.7812e-07,-6.5979,0.18213
16218,5.7321,3.5455,0,0.00044626,4459.5,0.00016035,-0.0088363,0.00012466,-268.15,-0.00045021,-4587.5,0.18262
16219,5.6396,3.6364,0,0.00044875,4484.4,0.00016155,-0.0085262,0.00012482,-275.95,-0.00045281,-4616.1,0.17695
16220,5.7321,3.6364,0.05,1.1423e-06,11.415,8.7715e-07,6.5906,3.6446e-12,-4.0517e-07,-8.7716e-07,-6.5907,0.18246
16221,5.7321,3.3636,0,0.00044572,4454.1,0.00016048,-0.010072,0.00012394,-274.58,-0.00044976,-4585.1,0.18282
16222,5.6396,3.4545,0,0.00044809,4477.8,0.00016171,-0.010088,0.00012392,-283.98,-0.00045224,-4613,0.1772
16223,5.7321,3.4545,0.05,1.1413e-06,11.405,8.7636e-07,6.5846,7.5226e-14,4.1802e-06,-8.7636e-07,-6.5846,0.1827
16224,5.7321,3.1818,0,0.0004454,4450.9,0.00016056,-0.010811,0.0001235,-278.46,-0.00044948,-4583.6,0.18295
16225,5.6396,3.2727,0,0.00044764,4473.3,0.00016182,-0.011124,0.00012331,-289.39,-0.00045186,-4611,0.17736
16226,5.7321,3.2727,0.05,1.1405e-06,11.397,8.7579e-07,6.5803,4.4777e-14,1.8325e-07,-8.7579e-07,-6.5804,0.18287
16227,5.7321,3,0,0.00044529,4449.8,0.00016058,-0.011057,0.00012335,-279.76,-0.00044939,-4583.1,0.18299
16228,5.6396,3.0909,0,0.00044742,4471.1,0.00016188,-0.01164,0.000123,-292.1,-0.00045167,-4610,0.17744
16229,5.7321,3.0909,0.05,1.1401e-06,11.394,8.7549e-07,6.5781,1.8386e-14,3.951e-06,-8.7549e-07,-6.5781,0.18295
16230,5.7321,2.8182,0,0.0004454,4450.9,0.00016056,-0.010811,0.0001235,-278.46,-0.00044948,-4583.6,0.18295
16231,5.6396,2.9091,0,0.00044742,4471.1,0.00016188,-0.01164,0.000123,-292.1,-0.00045167,-4610,0.17744
16232,5.7321,2.9091,0.05,1.1401e-06,11.394,8.7549e-07,6.5781,-2.1905e-14,3.6479e-06,-8.7549e-07,-6.5781,0.18295
16233,5.7321,2.6364,0,0.00044572,4454.1,0.00016048,-0.010072,0.00012394,-274.58,-0.00044976,-4585.1,0.18282
16234,5.6396,2.7273,0,0.00044764,4473.3,0.00016182,-0.011124,0.00012331,-289.39,-0.00045186,-4611,0.17736
16235,5.7321,2.7273,0.05,1.1405e-06,11.397,8.7579e-07,6.5803,-8.3337e-14,-7.1654e-07,-8.7579e-07,-6.5804,0.18287
16236,5.7321,2.4545,0,0.00044626,4459.5,0.00016035,-0.0088361,0.00012466,-268.15,-0.00045021,-4587.5,0.18262
16237,5.6396,2.5455,0,0.00044809,4477.8,0.00016171,-0.010088,0.00012392,-283.98,-0.00045224,-4613,0.1772
16238,5.7321,2.5455,0.05,1.1413e-06,11.405,8.7636e-07,6.5845,-1.1747e-13,-1.4705e-06,-8.7636e-07,-6.5847,0.1827
16239,5.7321,2.2727,0,0.000447,4466.9,0.00016016,-0.0070909,0.00012566,-259.25,-0.00045084,-4590.9,0.18233
16240,5.6396,2.3636,0,0.00044875,4484.4,0.00016155,-0.008526,0.00012482,-275.95,-0.00045281,-4616.1,0.17695
16241,5.7321,2.3636,0.05,1.1423e-06,11.415,8.7715e-07,6.5906,3.3814e-12,-2.3562e-06,-8.7716e-07,-6.5907,0.18246
16242,5.7321,2.0909,0,0.00044794,4476.3,0.00015993,-0.0048178,0.00012693,-247.96,-0.00045164,-4595.1,0.18196
16243,5.6396,2.1818,0,0.00044963,4493.2,0.00016133,-0.006419,0.00012601,-265.36,-0.00045356,-4620,0.17662
16244,5.7321,2.1818,0.05,1.1436e-06,11.428,8.7812e-07,6.5978,-2.9197e-13,-3.536e-06,-8.7812e-07,-6.5979,0.18213
16245,5.7321,1.9091,0,0.00044907,4487.6,0.00015965,-0.0019873,0.00012846,-234.39,-0.0004526,-4600.2,0.18151
16246,5.6396,2,0,0.00045071,4504,0.00016106,-0.0037434,0.00012748,-252.34,-0.00045448,-4624.9,0.17621
16247,5.7321,2,0.05,1.1449e-06,11.441,8.7917e-07,6.6057,-2.8421e-13,-2.7904e-06,-8.7917e-07,-6.6058,0.18172
16248,5.7321,1.7273,0,0.00045038,4500.7,0.00015933,0.001449,0.00013022,-218.68,-0.0004537,-4606.1,0.18097
16249,5.6396,1.8182,0,0.00045199,4516.8,0.00016074,-0.00045805,0.0001292,-237,-0.00045555,-4630.6,0.17572
16250,5.7321,1.8182,0.05,1.1463e-06,11.455,8.802e-07,6.6134,4.7995e-12,-4.0565e-06,-8.8021e-07,-6.6136,0.18122
16251,5.7321,1.5455,0,0.00045186,4515.5,0.00015896,0.0055835,0.00013221,-200.97,-0.00045495,-4612.6,0.18035
16252,5.6396,1.6364,0,0.00045345,4531.3,0.00016038,0.0035024,0.00013116,-219.5,-0.00045678,-4637.1,0.17514
16253,5.7321,1.6364,0.05,1.1475e-06,11.467,8.8112e-07,6.6204,8.6691e-13,5.1395e-07,-8.8113e-07,-6.6204,0.18064
16254,5.7321,1.3636,0,0.0004535,4531.9,0.00015855,0.010529,0.0001344,-181.44,-0.00045631,-4619.9,0.17963
16255,5.6396,1.4545,0,0.00045507,4547.6,0.00015997,0.0082738,0.00013335,-200.01,-0.00045815,-4644.3,0.17447
16256,5.7321,1.4545,0.05,1.1484e-06,11.476,8.8183e-07,6.6257,3.2348e-12,-5e-06,-8.8183e-07,-6.6258,0.17997
16257,5.7321,1.1818,0,0.00045528,4549.6,0.00015811,0.016646,0.00013678,-160.27,-0.00045779,-4627.6,0.17883
16258,5.6396,1.2727,0,0.00045685,4565.4,0.00015953,0.013971,0.00013574,-178.7,-0.00045963,-4652.1,0.17371
16259,5.7321,1.2727,0.05,1.1489e-06,11.481,8.822e-07,6.6285,4.4083e-12,-9.5778e-06,-8.8221e-07,-6.6286,0.17922
16260,5.7321,1,0,0.00045718,4568.6,0.00015764,0.023935,0.00013932,-137.64,-0.00045936,-4635.9,0.17794
16261,5.6396,1.0909,0,0.00045877,4584.6,0.00015905,0.021264,0.00013831,-155.79,-0.00046122,-4660.5,0.17287
16262,5.7321,1.0909,0.05,1.1488e-06,11.48,8.8215e-07,6.6281,2.3429e-12,-1.061e-05,-8.8216e-07,-6.6282,0.17837
16263,5.7321,0.81818,0,0.00045919,4588.7,0.00015713,0.035234,0.00014199,-113.75,-0.00046102,-4644.5,0.17696
16264,5.6396,0.90909,0,0.00046081,4605,0.00015854,0.029553,0.00014104,-131.46,-0.00046291,-4669.3,0.17193
16265,5.7321,0.90909,0.05,1.1481e-06,11.473,8.8158e-07,6.6238,8.8051e-13,-6.4648e-06,-8.8159e-07,-6.6239,0.17743
16266,5.7321,0.63636,0,0.00046129,4609.7,0.00015661,0.044732,0.00014478,-88.808,-0.00046274,-4653.5,0.17588
16267,5.6396,0.72727,0,0.00046296,4626.4,0.000158,0.04554,0.00014389,-105.94,-0.00046467,-4678.4,0.1709
16268,5.7321,0.72727,0.05,1.1465e-06,11.457,8.8036e-07,6.6147,4.9868e-13,-9.2626e-07,-8.8037e-07,-6.6147,0.1764
16269,5.7321,0.45455,0,0.00046347,4631.5,0.00015606,0.10129,0.00014767,-62.983,-0.00046451,-4662.6,0.17471
16270,5.6396,0.54545,0,0.00046519,4648.7,0.00015743,0.050994,0.00014686,-79.434,-0.00046649,-4687.8,0.16978
16271,5.7321,0.54545,0.05,1.1433e-06,11.425,8.7794e-07,6.5964,4.1469e-13,-1.1471e-05,-8.7794e-07,-6.5965,0.17528
16272,5.7321,0.27273,0,0.00046572,4654,0.0001555,0.13951,0.00015064,-36.377,-0.00046633,-4672,0.17344
16273,5.6396,0.36364,0,0.00046749,4671.7,0.00015686,0.16869,0.0001499,-52.089,-0.00046835,-4697.4,0.16856
16274,5.7321,0.36364,0.05,1.1276e-06,11.268,8.6587e-07,6.5058,2.7537e-12,-7.2692e-06,-8.6588e-07,-6.5059,0.17406
16275,5.6396,0.18182,0,0.00046987,4695.4,0.00015626,0.17361,0.00015304,-24.025,-0.00047027,-4707.3,0.16724
16276,5.7321,0.18182,0.05,9.4555e-07,9.449,7.2607e-07,5.4553,3.8069e-12,-1.0102e-05,-7.2606e-07,-5.4554,0.17274
16277,5.7321,0.090909,0,0.00046775,4674.3,0.00015497,0.15613,0.00015334,-12.125,-0.00046795,-4680.2,0.17207
16278,5.5472,5.7273,0,0.00047163,4713.1,0.00015761,0.15388,0.00015231,-39.687,-0.00047229,-4732.7,0.16246
16279,5.4547,5.8182,0,0.0004759,4755.7,0.00015836,0.19192,0.00015484,-26.254,-0.00047634,-4768.7,0.15642
16280,5.5472,5.8182,0.05,1.0282e-06,10.275,7.8952e-07,5.9321,2.1452e-14,1.2221e-06,-7.8952e-07,-5.9321,0.16176
16281,5.5472,5.9091,0,0.00047383,4735.1,0.00015704,0.16563,0.00015524,-13.339,-0.00047406,-4741.6,0.16109
16282,5.5472,5.5455,0,0.00046921,4688.8,0.00015823,0.11118,0.00014909,-68.523,-0.00047033,-4722.7,0.16373
16283,5.4547,5.6364,0,0.00047333,4730.1,0.00015901,0.18486,0.00015145,-56.648,-0.00047427,-4758.1,0.15774
16284,5.5472,5.6364,0.05,1.1526e-06,11.518,8.8506e-07,6.65,9.8318e-14,1.164e-06,-8.8506e-07,-6.65,0.16308
16285,5.5472,5.3636,0,0.00046685,4665.3,0.00015882,0.049239,0.00014597,-96.547,-0.00046842,-4712.8,0.1649
16286,5.4547,5.4545,0,0.00047085,4705.2,0.00015964,0.056272,0.00014815,-86.307,-0.00047226,-4747.8,0.15896
16287,5.5472,5.4545,0.05,1.1647e-06,11.639,8.9432e-07,6.7196,-2.8525e-13,1.9499e-06,-8.9433e-07,-6.7196,0.1643
16288,5.5472,5.1818,0,0.00046458,4642.6,0.0001594,0.038658,0.00014294,-123.63,-0.00046656,-4703.2,0.16598
16289,5.4547,5.2727,0,0.00046844,4681.2,0.00016025,0.049999,0.00014493,-115.08,-0.00047029,-4737.6,0.16009
16290,5.5472,5.2727,0.05,1.1676e-06,11.668,8.9659e-07,6.7366,-2.15e-13,1.3293e-06,-8.9659e-07,-6.7366,0.16542
16291,5.5472,5,0,0.00046241,4620.9,0.00015995,0.026205,0.00014003,-149.59,-0.00046477,-4693.9,0.16696
16292,5.4547,5.0909,0,0.00046612,4658,0.00016084,0.032409,0.00014183,-142.81,-0.00046839,-4727.7,0.16111
16293,5.5472,5.0909,0.05,1.1691e-06,11.683,8.9775e-07,6.7453,-1.5401e-13,-1.6404e-05,-8.9775e-07,-6.7454,0.16645
16294,5.5472,4.8182,0,0.00046035,4600.3,0.00016046,0.01816,0.00013728,-174.21,-0.00046307,-4685,0.16785
16295,5.4547,4.9091,0,0.00046392,4636,0.0001614,0.023254,0.00013887,-169.25,-0.00046656,-4718.3,0.16205
16296,5.5472,4.9091,0.05,1.1698e-06,11.689,8.9822e-07,6.7489,-1.101e-13,1.6188e-06,-8.9823e-07,-6.7489,0.16739
16297,5.5472,4.6364,0,0.00045843,4581.1,0.00016095,0.011418,0.00013469,-197.25,-0.00046147,-4676.6,0.16865
16298,5.4547,4.7273,0,0.00046184,4615.2,0.00016193,0.015218,0.00013608,-194.19,-0.00046484,-4709.2,0.16289
16299,5.5472,4.7273,0.05,1.1696e-06,11.688,8.9811e-07,6.748,-6.7078e-14,-3.0279e-06,-8.9812e-07,-6.7481,0.16823
16300,5.5472,4.4545,0,0.00045666,4563.4,0.00016139,0.0059717,0.00013231,-218.52,-0.00045998,-4668.8,0.16936
16301,5.4547,4.5455,0,0.00045992,4596,0.00016241,0.0089438,0.00013348,-217.38,-0.00046323,-4700.8,0.16364
16302,5.5472,4.5455,0.05,1.1688e-06,11.68,8.9753e-07,6.7437,1.2146e-12,1.8821e-06,-8.9754e-07,-6.7437,0.16899
16303,5.5472,4.2727,0,0.00045506,4547.4,0.00016179,0.0014222,0.00013014,-237.81,-0.00045863,-4661.7,0.16998
16304,5.4547,4.3636,0,0.00045816,4578.4,0.00016286,0.0036943,0.0001311,-238.62,-0.00046175,-4693,0.16431
16305,5.5472,4.3636,0.05,1.1676e-06,11.668,8.9659e-07,6.7366,2.3017e-13,1.7163e-06,-8.9659e-07,-6.7366,0.16965
16306,5.5472,4.0909,0,0.00045364,4533.2,0.00016215,-0.002356,0.00012822,-254.94,-0.00045743,-4655.3,0.17052
16307,5.4547,4.1818,0,0.00045658,4562.6,0.00016326,-0.00065918,0.00012896,-257.7,-0.00046042,-4686,0.16489
16308,5.5472,4.1818,0.05,1.1661e-06,11.653,8.9541e-07,6.7277,1.9936e-12,-1.4941e-06,-8.9541e-07,-6.7278,0.17023
16309,5.5472,3.9091,0,0.00045241,4521,0.00016246,-0.0054656,0.00012656,-269.74,-0.00045639,-4649.8,0.17097
16310,5.4547,4,0,0.0004552,4548.8,0.0001636,-0.0042673,0.00012708,-274.42,-0.00045925,-4679.9,0.16538
16311,5.5472,4,0.05,1.1644e-06,11.636,8.9412e-07,6.718,1.8558e-12,-2.542e-07,-8.9412e-07,-6.7181,0.17073
16312,5.5472,3.7273,0,0.00045139,4510.8,0.00016271,-0.007961,0.00012517,-282.06,-0.00045553,-4645.2,0.17134
16313,5.4547,3.8182,0,0.00045403,4537.2,0.0001639,-0.0072033,0.00012548,-288.64,-0.00045825,-4674.6,0.16579
16314,5.5472,3.8182,0.05,1.1627e-06,11.619,8.9283e-07,6.7084,1.116e-13,1.3921e-06,-8.9283e-07,-6.7084,0.17114
16315,5.5472,3.5455,0,0.00045059,4502.8,0.00016291,-0.0098756,0.00012408,-291.78,-0.00045484,-4641.6,0.17162
16316,5.4547,3.6364,0,0.00045308,4527.7,0.00016414,-0.0095132,0.00012419,-300.19,-0.00045744,-4670.3,0.16611
16317,5.5472,3.6364,0.05,1.1612e-06,11.604,8.9165e-07,6.6995,5.2557e-14,4.0385e-06,-8.9166e-07,-6.6996,0.17146
16318,5.5472,3.3636,0,0.00045001,4497,0.00016306,-0.011231,0.00012329,-298.79,-0.00045435,-4639,0.17183
16319,5.4547,3.4545,0,0.00045236,4520.5,0.00016432,-0.011225,0.0001232,-308.96,-0.00045682,-4667,0.16635
16320,5.5472,3.4545,0.05,1.1599e-06,11.591,8.9068e-07,6.6922,7.9036e-14,3.6755e-07,-8.9069e-07,-6.6923,0.17171
16321,5.5472,3.1818,0,0.00044966,4493.5,0.00016314,-0.012041,0.00012282,-303.03,-0.00045405,-4637.4,0.17195
16322,5.4547,3.2727,0,0.00045187,4515.6,0.00016444,-0.012359,0.00012254,-314.86,-0.00045641,-4664.8,0.16652
16323,5.5472,3.2727,0.05,1.159e-06,11.582,8.8999e-07,6.6871,5.6933e-14,4.8375e-07,-8.8999e-07,-6.6871,0.17187
16324,5.5472,3,0,0.00044954,4492.3,0.00016317,-0.01231,0.00012266,-304.45,-0.00045395,-4636.8,0.17199
16325,5.4547,3.0909,0,0.00045163,4513.2,0.0001645,-0.012924,0.00012221,-317.82,-0.0004562,-4663.7,0.1666
16326,5.5472,3.0909,0.05,1.1586e-06,11.578,8.8963e-07,6.6843,1.839e-12,1.444e-07,-8.8964e-07,-6.6844,0.17195
16327,5.5472,2.8182,0,0.00044966,4493.5,0.00016314,-0.012041,0.00012282,-303.03,-0.00045405,-4637.4,0.17195
16328,5.4547,2.9091,0,0.00045163,4513.2,0.0001645,-0.012924,0.00012221,-317.82,-0.0004562,-4663.7,0.1666
16329,5.5472,2.9091,0.05,1.1586e-06,11.578,8.8963e-07,6.6843,1.7958e-12,-1.7862e-07,-8.8964e-07,-6.6844,0.17195
16330,5.5472,2.6364,0,0.00045001,4497,0.00016306,-0.011231,0.00012329,-298.79,-0.00045435,-4639,0.17183
16331,5.4547,2.7273,0,0.00045187,4515.6,0.00016444,-0.012359,0.00012254,-314.86,-0.00045641,-4664.8,0.16652
16332,5.5472,2.7273,0.05,1.159e-06,11.582,8.8999e-07,6.687,1.7415e-12,-6.2911e-07,-8.8999e-07,-6.6871,0.17187
16333,5.5472,2.4545,0,0.00045059,4502.8,0.00016291,-0.0098754,0.00012408,-291.78,-0.00045484,-4641.6,0.17162
16334,5.4547,2.5455,0,0.00045236,4520.5,0.00016432,-0.011225,0.0001232,-308.96,-0.00045682,-4667,0.16635
16335,5.5472,2.5455,0.05,1.1599e-06,11.591,8.9068e-07,6.6922,1.6548e-12,-1.1899e-06,-8.9069e-07,-6.6923,0.17171
16336,5.5472,2.2727,0,0.00045139,4510.8,0.00016271,-0.0079607,0.00012517,-282.06,-0.00045553,-4645.2,0.17134
16337,5.4547,2.3636,0,0.00045308,4527.7,0.00016414,-0.009513,0.00012419,-300.19,-0.00045744,-4670.3,0.16611
16338,5.5472,2.3636,0.05,1.1612e-06,11.604,8.9165e-07,6.6995,1.515e-12,1.8882e-06,-8.9166e-07,-6.6996,0.17146
16339,5.5472,2.0909,0,0.00045241,4521,0.00016246,-0.0054653,0.00012656,-269.74,-0.00045639,-4649.8,0.17097
16340,5.4547,2.1818,0,0.00045403,4537.2,0.0001639,-0.0072029,0.00012548,-288.64,-0.00045825,-4674.6,0.16579
16341,5.5472,2.1818,0.05,1.1627e-06,11.619,8.9283e-07,6.7084,3.3135e-12,-1.2529e-06,-8.9283e-07,-6.7084,0.17114
16342,5.5472,1.9091,0,0.00045364,4533.2,0.00016215,-0.0023557,0.00012822,-254.94,-0.00045743,-4655.3,0.17052
16343,5.4547,2,0,0.0004552,4548.8,0.0001636,-0.004267,0.00012708,-274.42,-0.00045925,-4679.9,0.16538
16344,5.5472,2,0.05,1.1644e-06,11.636,8.9412e-07,6.718,1.3448e-12,-5.167e-06,-8.9412e-07,-6.7181,0.17073
16345,5.5472,1.7273,0,0.00045506,4547.4,0.00016179,0.0014228,0.00013014,-237.81,-0.00045863,-4661.7,0.16998
16346,5.4547,1.8182,0,0.00045658,4562.6,0.00016326,-0.00065866,0.00012896,-257.7,-0.00046042,-4686,0.16489
16347,5.5472,1.8182,0.05,1.1661e-06,11.653,8.9541e-07,6.7277,2.9729e-12,-6.6731e-06,-8.9542e-07,-6.7278,0.17023
16348,5.5472,1.5455,0,0.00045666,4563.4,0.00016139,0.0059725,0.00013231,-218.52,-0.00045998,-4668.8,0.16936
16349,5.4547,1.6364,0,0.00045816,4578.4,0.00016286,0.0036949,0.0001311,-238.62,-0.00046175,-4693,0.16431
16350,5.5472,1.6364,0.05,1.1676e-06,11.668,8.9659e-07,6.7366,1.3226e-12,-8.1353e-06,-8.9659e-07,-6.7367,0.16965
16351,5.5472,1.3636,0,0.00045843,4581.1,0.00016095,0.011419,0.00013469,-197.25,-0.00046147,-4676.6,0.16865
16352,5.4547,1.4545,0,0.00045992,4596,0.00016241,0.0089445,0.00013348,-217.38,-0.00046323,-4700.8,0.16364
16353,5.5472,1.4545,0.05,1.1688e-06,11.68,8.9752e-07,6.7437,5.5709e-13,-5.7372e-06,-8.9754e-07,-6.7437,0.16899
16354,5.5472,1.1818,0,0.00046035,4600.3,0.00016046,0.01816,0.00013728,-174.21,-0.00046307,-4685,0.16785
16355,5.4547,1.2727,0,0.00046184,4615.2,0.00016193,0.015218,0.00013608,-194.19,-0.00046484,-4709.2,0.16289
16356,5.5472,1.2727,0.05,1.1696e-06,11.688,8.9811e-07,6.748,4.2696e-12,-6.1988e-06,-8.9812e-07,-6.7481,0.16823
16357,5.5472,1,0,0.00046241,4620.9,0.00015995,0.026206,0.00014003,-149.59,-0.00046477,-4693.9,0.16696
16358,5.4547,1.0909,0,0.00046392,4636,0.0001614,0.023255,0.00013887,-169.25,-0.00046656,-4718.3,0.16205
16359,5.5472,1.0909,0.05,1.1698e-06,11.689,8.9822e-07,6.7489,5.2505e-13,-6.8384e-06,-8.9823e-07,-6.7489,0.16739
16360,5.5472,0.81818,0,0.00046458,4642.6,0.0001594,0.038659,0.00014294,-123.63,-0.00046656,-4703.2,0.16598
16361,5.4547,0.90909,0,0.00046612,4658,0.00016084,0.032411,0.00014183,-142.81,-0.00046839,-4727.7,0.16111
16362,5.5472,0.90909,0.05,1.1691e-06,11.683,8.9775e-07,6.7453,2.7382e-12,-1.752e-05,-8.9775e-07,-6.7454,0.16645
16363,5.5472,0.63636,0,0.00046685,4665.3,0.00015882,0.04924,0.00014597,-96.547,-0.00046842,-4712.8,0.1649
16364,5.4547,0.72727,0,0.00046844,4681.2,0.00016025,0.049999,0.00014493,-115.08,-0.00047029,-4737.6,0.16009
16365,5.5472,0.72727,0.05,1.1676e-06,11.668,8.9659e-07,6.7366,2.3239e-12,-7.7426e-06,-8.9659e-07,-6.7367,0.16542
16366,5.5472,0.45455,0,0.00046921,4688.8,0.00015823,0.11118,0.00014909,-68.523,-0.00047033,-4722.7,0.16373
16367,5.4547,0.54545,0,0.00047085,4705.2,0.00015964,0.056273,0.00014815,-86.307,-0.00047226,-4747.8,0.15896
16368,5.5472,0.54545,0.05,1.1647e-06,11.639,8.9433e-07,6.7196,2.259e-12,-1.4991e-05,-8.9432e-07,-6.7197,0.1643
16369,5.5472,0.27273,0,0.00047163,4713.1,0.00015761,0.15389,0.00015231,-39.687,-0.00047229,-4732.7,0.16246
16370,5.4547,0.36364,0,0.00047333,4730.1,0.00015901,0.18486,0.00015145,-56.648,-0.00047427,-4758.1,0.15774
16371,5.5472,0.36364,0.05,1.1526e-06,11.518,8.8505e-07,6.6499,6.0797e-13,-1.4877e-05,-8.8506e-07,-6.65,0.16308
16372,5.4547,0.18182,0,0.0004759,4755.7,0.00015836,0.19192,0.00015484,-26.254,-0.00047634,-4768.7,0.15642
16373,5.5472,0.18182,0.05,1.0282e-06,10.275,7.8952e-07,5.9321,8.5887e-13,-1.0571e-05,-7.8952e-07,-5.9322,0.16176
16374,5.5472,0.090909,0,0.00047383,4735.1,0.00015704,0.16563,0.00015524,-13.339,-0.00047406,-4741.6,0.16109
16375,5.3623,5.7273,0,0.0004776,4772.7,0.00015975,0.17002,0.00015399,-43.154,-0.00047831,-4794,0.1518
16376,5.2698,5.8182,0,0.00048199,4816.6,0.00016049,0.21355,0.00015666,-28.538,-0.00048247,-4830.7,0.14593
16377,5.3623,5.8182,0.05,1.1173e-06,11.165,8.5793e-07,6.4461,6.1688e-14,1.0309e-06,-8.5793e-07,-6.4461,0.1511
16378,5.3623,5.9091,0,0.00047998,4796.5,0.00015913,0.1763,0.00015716,-14.577,-0.00048022,-4803.6,0.15043
16379,5.3623,5.5455,0,0.00047498,4746.5,0.00016042,0.12201,0.0001505,-74.41,-0.0004762,-4783.2,0.15308
16380,5.2698,5.6364,0,0.00047922,4788.9,0.00016119,0.20257,0.00015299,-61.463,-0.00048023,-4819.2,0.14725
16381,5.3623,5.6364,0.05,1.1797e-06,11.789,9.0587e-07,6.8063,1.0844e-13,1.4819e-06,-9.0587e-07,-6.8063,0.15242
16382,5.3623,5.3636,0,0.00047243,4721.1,0.00016107,0.054201,0.00014711,-104.82,-0.00047413,-4772.6,0.15425
16383,5.2698,5.4545,0,0.00047654,4762.1,0.00016188,0.062103,0.00014941,-93.629,-0.00047806,-4808.2,0.14847
16384,5.3623,5.4545,0.05,1.1879e-06,11.871,9.1217e-07,6.8536,1.5391e-13,1.9575e-06,-9.1216e-07,-6.8536,0.15364
16385,5.3623,5.1818,0,0.00046998,4696.5,0.0001617,0.042422,0.00014383,-134.23,-0.00047212,-4762.2,0.15532
16386,5.2698,5.2727,0,0.00047393,4736.1,0.00016255,0.054899,0.00014592,-124.86,-0.00047593,-4797.2,0.14959
16387,5.3623,5.2727,0.05,1.1906e-06,11.898,9.1426e-07,6.8694,-2.222e-13,1.5637e-06,-9.1426e-07,-6.8694,0.15477
16388,5.3623,5,0,0.00046763,4673.1,0.0001623,0.028709,0.00014067,-162.45,-0.00047018,-4752.2,0.1563
16389,5.2698,5.0909,0,0.00047143,4711,0.00016319,0.035559,0.00014256,-154.98,-0.00047387,-4786.6,0.15061
16390,5.3623,5.0909,0.05,1.1921e-06,11.913,9.1538e-07,6.8778,2.5098e-13,1.8046e-06,-9.1538e-07,-6.8778,0.15579
16391,5.3623,4.8182,0,0.00046541,4650.9,0.00016286,0.019837,0.00013768,-189.22,-0.00046834,-4742.6,0.15719
16392,5.2698,4.9091,0,0.00046905,4687.2,0.0001638,0.025453,0.00013934,-183.74,-0.0004719,-4776.4,0.15155
16393,5.3623,4.9091,0.05,1.1926e-06,11.917,9.1574e-07,6.8805,1.9098e-12,2.2919e-06,-9.1574e-07,-6.8805,0.15673
16394,5.3623,4.6364,0,0.00046333,4630.1,0.00016339,0.012414,0.00013487,-214.3,-0.0004666,-4733.5,0.15798
16395,5.2698,4.7273,0,0.0004668,4664.8,0.00016437,0.016607,0.00013631,-210.87,-0.00047003,-4766.7,0.15238
16396,5.3623,4.7273,0.05,1.1922e-06,11.914,9.1545e-07,6.8784,-6.1857e-14,1.8885e-06,-9.1546e-07,-6.8784,0.15757
16397,5.3623,4.4545,0,0.00046141,4611,0.00016388,0.0064219,0.00013227,-237.47,-0.00046499,-4725.1,0.15869
16398,5.2698,4.5455,0,0.00046472,4644,0.00016491,0.0097036,0.00013348,-236.13,-0.00046829,-4757.6,0.15313
16399,5.3623,4.5455,0.05,1.1911e-06,11.903,9.1465e-07,6.8723,1.439e-12,2.0049e-06,-9.1465e-07,-6.8723,0.15832
16400,5.3623,4.2727,0,0.00045968,4593.6,0.00016432,0.0014213,0.00012992,-258.49,-0.00046353,-4717.4,0.15931
16401,5.2698,4.3636,0,0.00046282,4625,0.00016539,0.0039342,0.00013089,-259.27,-0.00046668,-4749.2,0.15379
16402,5.3623,4.3636,0.05,1.1896e-06,11.888,9.1344e-07,6.8632,-1.4643e-13,-1.6862e-06,-9.1345e-07,-6.8633,0.15898
16403,5.3623,4.0909,0,0.00045814,4578.3,0.00016471,-0.0027277,0.00012782,-277.17,-0.00046223,-4710.6,0.15984
16404,5.2698,4.1818,0,0.00046111,4608,0.00016583,-0.00084555,0.00012855,-280.07,-0.00046524,-4741.6,0.15437
16405,5.3623,4.1818,0.05,1.1877e-06,11.869,9.1198e-07,6.8523,4.3489e-14,1.6375e-06,-9.1199e-07,-6.8523,0.15956
16406,5.3623,3.9091,0,0.00045682,4565,0.00016505,-0.0061391,0.00012601,-293.31,-0.0004611,-4704.6,0.16029
16407,5.2698,4,0,0.00045962,4593,0.00016621,-0.0048027,0.00012651,-298.32,-0.00046397,-4734.9,0.15486
16408,5.3623,4,0.05,1.1856e-06,11.848,9.1041e-07,6.8405,1.8339e-12,1.6025e-06,-9.1041e-07,-6.8405,0.16005
16409,5.3623,3.7273,0,0.00045572,4554,0.00016532,-0.008874,0.0001245,-306.76,-0.00046016,-4699.7,0.16066
16410,5.2698,3.8182,0,0.00045836,4580.4,0.00016654,-0.008019,0.00012477,-313.82,-0.00046289,-4729.2,0.15526
16411,5.3623,3.8182,0.05,1.1836e-06,11.828,9.0885e-07,6.8288,1.0431e-13,1.4917e-06,-9.0885e-07,-6.8288,0.16046
16412,5.3623,3.5455,0,0.00045485,4545.4,0.00016555,-0.010971,0.00012331,-317.37,-0.00045942,-4695.7,0.16094
16413,5.2698,3.6364,0,0.00045733,4570.1,0.0001668,-0.010547,0.00012335,-326.43,-0.00046201,-4724.6,0.15559
16414,5.3623,3.6364,0.05,1.1817e-06,11.809,9.0744e-07,6.8181,1.5511e-13,3.984e-06,-9.0744e-07,-6.8182,0.16078
16415,5.3623,3.3636,0,0.00045422,4539.1,0.0001657,-0.012454,0.00012245,-325.02,-0.00045888,-4692.9,0.16114
16416,5.2698,3.4545,0,0.00045655,4562.4,0.000167,-0.012419,0.00012228,-336.01,-0.00046134,-4721.1,0.15583
16417,5.3623,3.4545,0.05,1.1802e-06,11.794,9.0627e-07,6.8094,1.8379e-12,8.5751e-07,-9.0628e-07,-6.8094,0.16102
16418,5.3623,3.1818,0,0.00045385,4535.3,0.0001658,-0.01334,0.00012193,-329.65,-0.00045855,-4691.2,0.16126
16419,5.2698,3.2727,0,0.00045603,4557.1,0.00016713,-0.013659,0.00012156,-342.45,-0.00046089,-4718.7,0.15599
16420,5.3623,3.2727,0.05,1.1792e-06,11.783,9.0545e-07,6.8031,1.8833e-12,3.3789e-07,-9.0545e-07,-6.8032,0.16118
16421,5.3623,3,0,0.00045372,4534.1,0.00016583,-0.013635,0.00012175,-331.2,-0.00045845,-4690.6,0.1613
16422,5.2698,3.0909,0,0.00045576,4554.5,0.0001672,-0.014276,0.00012119,-345.69,-0.00046066,-4717.5,0.15607
16423,5.3623,3.0909,0.05,1.1786e-06,11.778,9.0502e-07,6.8,9.3063e-13,1.7627e-07,-9.0502e-07,-6.8,0.16126
16424,5.3623,2.8182,0,0.00045385,4535.3,0.0001658,-0.01334,0.00012193,-329.65,-0.00045855,-4691.2,0.16126
16425,5.2698,2.9091,0,0.00045576,4554.5,0.0001672,-0.014276,0.00012119,-345.69,-0.00046066,-4717.5,0.15607
16426,5.3623,2.9091,0.05,1.1786e-06,11.778,9.0502e-07,6.8,8.8368e-13,-1.7409e-07,-9.0502e-07,-6.8,0.16126
16427,5.3623,2.6364,0,0.00045422,4539.1,0.0001657,-0.012454,0.00012245,-325.02,-0.00045888,-4692.9,0.16114
16428,5.2698,2.7273,0,0.00045603,4557.1,0.00016713,-0.013659,0.00012156,-342.45,-0.00046089,-4718.7,0.15599
16429,5.3623,2.7273,0.05,1.1792e-06,11.783,9.0545e-07,6.8031,1.747e-12,-6.8844e-07,-9.0545e-07,-6.8032,0.16118
16430,5.3623,2.4545,0,0.00045485,4545.4,0.00016555,-0.010971,0.00012331,-317.37,-0.00045942,-4695.7,0.16094
16431,5.2698,2.5455,0,0.00045655,4562.4,0.000167,-0.012419,0.00012228,-336.01,-0.00046134,-4721.1,0.15583
16432,5.3623,2.5455,0.05,1.1802e-06,11.794,9.0627e-07,6.8094,1.5976e-12,-1.355e-06,-9.0628e-07,-6.8094,0.16102
16433,5.3623,2.2727,0,0.00045572,4554,0.00016532,-0.0088737,0.0001245,-306.76,-0.00046016,-4699.7,0.16066
16434,5.2698,2.3636,0,0.00045733,4570.1,0.0001668,-0.010547,0.00012335,-326.43,-0.00046201,-4724.6,0.15559
16435,5.3623,2.3636,0.05,1.1817e-06,11.809,9.0744e-07,6.8181,-1.4806e-13,1.7957e-06,-9.0744e-07,-6.8182,0.16078
16436,5.3623,2.0909,0,0.00045682,4565,0.00016505,-0.0061387,0.00012601,-293.31,-0.0004611,-4704.6,0.16029
16437,5.2698,2.1818,0,0.00045836,4580.4,0.00016654,-0.0080186,0.00012477,-313.82,-0.00046289,-4729.2,0.15526
16438,5.3623,2.1818,0.05,1.1836e-06,11.828,9.0885e-07,6.8288,1.5042e-12,-1.268e-06,-9.0885e-07,-6.8288,0.16046
16439,5.3623,1.9091,0,0.00045814,4578.3,0.00016471,-0.0027271,0.00012782,-277.17,-0.00046223,-4710.6,0.15984
16440,5.2698,2,0,0.00045962,4593,0.00016621,-0.0048022,0.00012651,-298.32,-0.00046397,-4734.9,0.15486
16441,5.3623,2,0.05,1.1856e-06,11.848,9.1041e-07,6.8404,1.4306e-12,-5.8394e-06,-9.1041e-07,-6.8405,0.16005
16442,5.3623,1.7273,0,0.00045968,4593.6,0.00016432,0.0014219,0.00012992,-258.49,-0.00046353,-4717.4,0.15931
16443,5.2698,1.8182,0,0.00046111,4608,0.00016583,-0.00084494,0.00012855,-280.07,-0.00046524,-4741.6,0.15437
16444,5.3623,1.8182,0.05,1.1877e-06,11.869,9.1198e-07,6.8523,-7.4797e-13,-1.6375e-06,-9.1199e-07,-6.8523,0.15956
16445,5.3623,1.5455,0,0.00046141,4611,0.00016388,0.0064226,0.00013227,-237.47,-0.00046499,-4725.1,0.15869
16446,5.2698,1.6364,0,0.00046282,4625,0.00016539,0.0039348,0.00013089,-259.27,-0.00046668,-4749.2,0.15379
16447,5.3623,1.6364,0.05,1.1896e-06,11.888,9.1344e-07,6.8632,8.1913e-13,-7.5337e-06,-9.1345e-07,-6.8633,0.15898
16448,5.3623,1.3636,0,0.00046333,4630.1,0.00016339,0.012415,0.00013487,-214.3,-0.0004666,-4733.5,0.15798
16449,5.2698,1.4545,0,0.00046472,4644,0.00016491,0.0097043,0.00013348,-236.13,-0.00046829,-4757.6,0.15313
16450,5.3623,1.4545,0.05,1.1911e-06,11.903,9.1465e-07,6.8723,9.0126e-13,-6.5598e-06,-9.1465e-07,-6.8723,0.15832
16451,5.3623,1.1818,0,0.00046541,4650.9,0.00016286,0.019837,0.00013768,-189.22,-0.00046834,-4742.6,0.15719
16452,5.2698,1.2727,0,0.0004668,4664.8,0.00016437,0.016608,0.00013631,-210.87,-0.00047003,-4766.7,0.15238
16453,5.3623,1.2727,0.05,1.1922e-06,11.914,9.1545e-07,6.8784,-5.4428e-13,-1.8885e-06,-9.1546e-07,-6.8784,0.15757
16454,5.3623,1,0,0.00046763,4673.1,0.0001623,0.02871,0.00014067,-162.45,-0.00047018,-4752.2,0.1563
16455,5.2698,1.0909,0,0.00046905,4687.2,0.0001638,0.025454,0.00013934,-183.74,-0.0004719,-4776.4,0.15155
16456,5.3623,1.0909,0.05,1.1926e-06,11.917,9.1574e-07,6.8805,4.3398e-12,-6.1247e-06,-9.1574e-07,-6.8805,0.15673
16457,5.3623,0.81818,0,0.00046998,4696.5,0.0001617,0.042423,0.00014383,-134.23,-0.00047212,-4762.2,0.15532
16458,5.2698,0.90909,0,0.00047143,4711,0.00016319,0.03556,0.00014256,-154.98,-0.00047387,-4786.6,0.15061
16459,5.3623,0.90909,0.05,1.1921e-06,11.913,9.1537e-07,6.8778,3.8156e-12,-8.3404e-06,-9.1538e-07,-6.8778,0.15579
16460,5.3623,0.63636,0,0.00047243,4721.1,0.00016107,0.054201,0.00014711,-104.82,-0.00047413,-4772.6,0.15425
16461,5.2698,0.72727,0,0.00047393,4736.1,0.00016255,0.0549,0.00014592,-124.86,-0.00047593,-4797.2,0.14959
16462,5.3623,0.72727,0.05,1.1906e-06,11.898,9.1426e-07,6.8693,2.1512e-12,-3.0181e-05,-9.1426e-07,-6.8695,0.15477
16463,5.3623,0.45455,0,0.00047498,4746.5,0.00016042,0.12201,0.0001505,-74.41,-0.0004762,-4783.2,0.15308
16464,5.2698,0.54545,0,0.00047654,4762.1,0.00016188,0.062103,0.00014941,-93.629,-0.00047806,-4808.2,0.14847
16465,5.3623,0.54545,0.05,1.1879e-06,11.871,9.1216e-07,6.8536,4.0934e-15,-1.4047e-07,-9.1217e-07,-6.8536,0.15364
16466,5.3623,0.27273,0,0.0004776,4772.7,0.00015975,0.17002,0.00015399,-43.154,-0.00047831,-4794,0.1518
16467,5.2698,0.36364,0,0.00047922,4788.9,0.00016119,0.20257,0.00015299,-61.463,-0.00048023,-4819.2,0.14725
16468,5.3623,0.36364,0.05,1.1797e-06,11.789,9.0586e-07,6.8063,9.8518e-13,1.5869e-07,-9.0587e-07,-6.8063,0.15242
16469,5.2698,0.18182,0,0.00048199,4816.6,0.00016049,0.21355,0.00015666,-28.538,-0.00048247,-4830.7,0.14593
16470,5.3623,0.18182,0.05,1.1173e-06,11.165,8.5792e-07,6.4461,-1.0495e-12,-1.069e-05,-8.5793e-07,-6.4461,0.1511
16471,5.3623,0.090909,0,0.00047998,4796.5,0.00015913,0.1763,0.00015716,-14.577,-0.00048022,-4803.6,0.15043
16472,5.1774,5.7273,0,0.00048361,4832.8,0.00016192,0.18817,0.00015567,-46.775,-0.00048439,-4855.9,0.14148
16473,5.0849,5.8182,0,0.00048814,4878,0.00016263,0.23909,0.00015849,-30.865,-0.00048865,-4893.3,0.13576
16474,5.1774,5.8182,0.05,1.2132e-06,12.124,9.316e-07,6.9997,8.5861e-14,7.5482e-07,-9.316e-07,-6.9997,0.14077
16475,5.1774,5.9091,0,0.00048618,4858.4,0.00016124,0.18822,0.00015911,-15.831,-0.00048644,-4866.2,0.1401
16476,5.1774,5.5455,0,0.00048078,4804.5,0.00016265,0.1339,0.00015189,-80.656,-0.0004821,-4844.2,0.14275
16477,5.0849,5.6364,0,0.00048515,4848.1,0.0001634,0.222,0.00015452,-66.54,-0.00048624,-4881,0.13708
16478,5.1774,5.6364,0.05,1.2091e-06,12.083,9.2844e-07,6.9759,1.6362e-12,6.946e-07,-9.2844e-07,-6.9759,0.14209
16479,5.1774,5.3636,0,0.00047803,4777,0.00016335,0.05967,0.00014822,-113.65,-0.00047986,-4832.8,0.14392
16480,5.0849,5.4545,0,0.00048225,4819.2,0.00016415,0.068552,0.00015064,-101.42,-0.00048389,-4869,0.1383
16481,5.1774,5.4545,0.05,1.2132e-06,12.124,9.3159e-07,6.9996,1.6226e-13,2.172e-06,-9.3159e-07,-6.9996,0.14331
16482,5.1774,5.1818,0,0.00047538,4750.5,0.00016404,0.046566,0.00014465,-145.59,-0.00047769,-4821.6,0.14499
16483,5.0849,5.2727,0,0.00047944,4791.1,0.00016488,0.060288,0.00014686,-135.32,-0.0004816,-4857.3,0.13942
16484,5.1774,5.2727,0.05,1.2157e-06,12.149,9.3353e-07,7.0142,1.9685e-13,1.321e-06,-9.3353e-07,-7.0142,0.14443
16485,5.1774,5,0,0.00047284,4725.2,0.00016469,0.031474,0.00014123,-176.26,-0.0004756,-4810.8,0.14596
16486,5.0849,5.0909,0,0.00047673,4764.1,0.00016558,0.039032,0.0001432,-168.05,-0.00047937,-4845.8,0.14044
16487,5.1774,5.0909,0.05,1.2171e-06,12.163,9.3461e-07,7.0223,1.8904e-12,1.9087e-06,-9.3461e-07,-7.0223,0.14546
16488,5.1774,4.8182,0,0.00047044,4701.2,0.00016531,0.021697,0.00013797,-205.38,-0.0004736,-4800.5,0.14684
16489,5.0849,4.9091,0,0.00047416,4738.3,0.00016624,0.027885,0.00013971,-199.32,-0.00047723,-4834.8,0.14137
16490,5.1774,4.9091,0.05,1.2175e-06,12.166,9.3486e-07,7.0242,1.9004e-12,1.8211e-06,-9.3486e-07,-7.0242,0.14638
16491,5.1774,4.6364,0,0.0004682,4678.7,0.00016589,0.013531,0.00013492,-232.69,-0.00047172,-4790.7,0.14764
16492,5.0849,4.7273,0,0.00047174,4714.1,0.00016687,0.018153,0.00013641,-228.85,-0.00047521,-4824.3,0.1422
16493,5.1774,4.7273,0.05,1.2169e-06,12.16,9.344e-07,7.0207,2.8176e-12,2.2907e-06,-9.3441e-07,-7.0207,0.14722
16494,5.1774,4.4545,0,0.00046613,4658,0.00016642,0.0069448,0.00013209,-257.92,-0.00046998,-4781.6,0.14834
16495,5.0849,4.5455,0,0.00046949,4691.6,0.00016746,0.010564,0.00013334,-256.36,-0.00047332,-4814.5,0.14294
16496,5.1774,4.5455,0.05,1.2155e-06,12.147,9.3335e-07,7.0128,2.5412e-13,-1.3332e-06,-9.3335e-07,-7.0129,0.14797
16497,5.1774,4.2727,0,0.00046425,4639.3,0.0001669,0.0014548,0.00012953,-280.84,-0.00046839,-4773.4,0.14895
16498,5.0849,4.3636,0,0.00046743,4671.1,0.00016799,0.0042298,0.00013051,-281.58,-0.00047158,-4805.5,0.1436
16499,5.1774,4.3636,0.05,1.2136e-06,12.127,9.3187e-07,7.0017,2.6159e-13,1.9505e-06,-9.3187e-07,-7.0017,0.14863
16500,5.1774,4.0909,0,0.00046259,4622.7,0.00016733,-0.003095,0.00012724,-301.21,-0.00046698,-4766,0.14948
16501,5.0849,4.1818,0,0.00046559,4652.7,0.00016847,-0.0010112,0.00012797,-304.25,-0.00047002,-4797.3,0.14417
16502,5.1774,4.1818,0.05,1.2113e-06,12.104,9.301e-07,6.9884,1.6264e-12,-1.2051e-06,-9.301e-07,-6.9884,0.1492
16503,5.1774,3.9091,0,0.00046116,4608.4,0.0001677,-0.0068315,0.00012527,-318.82,-0.00046575,-4759.5,0.14993
16504,5.0849,4,0,0.00046398,4636.6,0.00016889,-0.0053445,0.00012575,-324.16,-0.00046864,-4790.1,0.14465
16505,5.1774,4,0.05,1.2088e-06,12.08,9.2821e-07,6.9742,-5.2688e-14,1.7125e-06,-9.2821e-07,-6.9742,0.14969
16506,5.1774,3.7273,0,0.00045997,4596.5,0.00016801,-0.0098237,0.00012362,-333.5,-0.00046473,-4754.2,0.15029
16507,5.0849,3.8182,0,0.00046261,4622.9,0.00016924,-0.0088615,0.00012385,-341.08,-0.00046747,-4784,0.14505
16508,5.1774,3.8182,0.05,1.2064e-06,12.056,9.2635e-07,6.9603,8.5338e-14,1.5964e-06,-9.2636e-07,-6.9603,0.15009
16509,5.1774,3.5455,0,0.00045903,4587.1,0.00016825,-0.012115,0.00012233,-345.08,-0.00046393,-4749.9,0.15057
16510,5.0849,3.6364,0,0.0004615,4611.8,0.00016953,-0.011623,0.00012231,-354.85,-0.00046651,-4779,0.14537
16511,5.1774,3.6364,0.05,1.2042e-06,12.034,9.2468e-07,6.9477,1.9071e-12,1.2674e-06,-9.2468e-07,-6.9477,0.15041
16512,5.1774,3.3636,0,0.00045836,4580.4,0.00016843,-0.013736,0.00012139,-353.44,-0.00046334,-4746.9,0.15077
16513,5.0849,3.4545,0,0.00046066,4603.4,0.00016975,-0.013665,0.00012114,-365.31,-0.00046579,-4775.2,0.14561
16514,5.1774,3.4545,0.05,1.2024e-06,12.016,9.233e-07,6.9373,1.8652e-12,4.6985e-06,-9.2331e-07,-6.9373,0.15065
16515,5.1774,3.1818,0,0.00045795,4576.3,0.00016853,-0.014703,0.00012082,-358.49,-0.00046299,-4745,0.15089
16516,5.0849,3.2727,0,0.0004601,4597.8,0.0001699,-0.015017,0.00012035,-372.34,-0.0004653,-4772.6,0.14577
16517,5.1774,3.2727,0.05,1.2011e-06,12.003,9.2232e-07,6.93,1.8642e-12,5.8554e-07,-9.2233e-07,-6.93,0.15081
16518,5.1774,3,0,0.00045781,4574.9,0.00016857,-0.015024,0.00012063,-360.18,-0.00046287,-4744.4,0.15093
16519,5.0849,3.0909,0,0.00045981,4594.9,0.00016997,-0.015689,0.00011995,-375.88,-0.00046505,-4771.3,0.14585
16520,5.1774,3.0909,0.05,1.2005e-06,11.997,9.2182e-07,6.9262,1.8408e-12,1.9155e-07,-9.2182e-07,-6.9262,0.15089
16521,5.1774,2.8182,0,0.00045795,4576.3,0.00016853,-0.014702,0.00012082,-358.49,-0.00046299,-4745,0.15089
16522,5.0849,2.9091,0,0.00045981,4594.9,0.00016997,-0.015689,0.00011995,-375.88,-0.00046505,-4771.3,0.14585
16523,5.1774,2.9091,0.05,1.2005e-06,11.997,9.2182e-07,6.9262,1.7902e-12,-1.8922e-07,-9.2182e-07,-6.9262,0.15089
16524,5.1774,2.6364,0,0.00045836,4580.4,0.00016843,-0.013736,0.00012139,-353.44,-0.00046334,-4746.9,0.15077
16525,5.0849,2.7273,0,0.0004601,4597.8,0.0001699,-0.015016,0.00012035,-372.34,-0.0004653,-4772.6,0.14577
16526,5.1774,2.7273,0.05,1.2011e-06,12.003,9.2232e-07,6.93,1.713e-12,-5.5765e-07,-9.2233e-07,-6.93,0.15081
16527,5.1774,2.4545,0,0.00045903,4587.1,0.00016825,-0.012115,0.00012233,-345.08,-0.00046393,-4749.9,0.15057
16528,5.0849,2.5455,0,0.00046066,4603.4,0.00016975,-0.013665,0.00012114,-365.31,-0.00046579,-4775.2,0.14561
16529,5.1774,2.5455,0.05,1.2024e-06,12.016,9.233e-07,6.9373,2.5195e-12,2.9053e-06,-9.2331e-07,-6.9373,0.15065
16530,5.1774,2.2727,0,0.00045997,4596.5,0.00016801,-0.0098234,0.00012362,-333.5,-0.00046473,-4754.2,0.15029
16531,5.0849,2.3636,0,0.0004615,4611.8,0.00016953,-0.011623,0.00012231,-354.85,-0.00046651,-4779,0.14537
16532,5.1774,2.3636,0.05,1.2042e-06,12.034,9.2468e-07,6.9477,1.6e-12,-1.1407e-06,-9.2468e-07,-6.9477,0.15041
16533,5.1774,2.0909,0,0.00046116,4608.4,0.0001677,-0.0068311,0.00012527,-318.82,-0.00046575,-4759.5,0.14993
16534,5.0849,2.1818,0,0.00046261,4622.9,0.00016924,-0.0088612,0.00012385,-341.08,-0.00046747,-4784,0.14505
16535,5.1774,2.1818,0.05,1.2064e-06,12.056,9.2635e-07,6.9603,-4.0023e-13,-1.2771e-06,-9.2636e-07,-6.9603,0.15009
16536,5.1774,1.9091,0,0.00046259,4622.7,0.00016733,-0.0030945,0.00012724,-301.21,-0.00046698,-4766,0.14948
16537,5.0849,2,0,0.00046398,4636.6,0.00016889,-0.005344,0.00012575,-324.16,-0.00046864,-4790.1,0.14465
16538,5.1774,2,0.05,1.2088e-06,12.08,9.2821e-07,6.9742,-5.0635e-13,-1.5222e-06,-9.2821e-07,-6.9742,0.14969
16539,5.1774,1.7273,0,0.00046425,4639.3,0.0001669,0.0014554,0.00012953,-280.84,-0.00046839,-4773.4,0.14895
16540,5.0849,1.8182,0,0.00046559,4652.7,0.00016847,-0.0010107,0.00012797,-304.25,-0.00047002,-4797.3,0.14417
16541,5.1774,1.8182,0.05,1.2113e-06,12.104,9.301e-07,6.9884,2.6217e-12,-5.1363e-06,-9.301e-07,-6.9884,0.1492
16542,5.1774,1.5455,0,0.00046613,4658,0.00016642,0.0069454,0.00013209,-257.92,-0.00046998,-4781.6,0.14834
16543,5.0849,1.6364,0,0.00046743,4671.1,0.00016799,0.0042304,0.00013051,-281.58,-0.00047158,-4805.5,0.1436
16544,5.1774,1.6364,0.05,1.2136e-06,12.127,9.3187e-07,7.0017,-4.8829e-13,-6.2416e-06,-9.3187e-07,-7.0017,0.14863
16545,5.1774,1.3636,0,0.0004682,4678.7,0.00016589,0.013532,0.00013492,-232.69,-0.00047172,-4790.7,0.14764
16546,5.0849,1.4545,0,0.00046949,4691.6,0.00016746,0.010564,0.00013334,-256.36,-0.00047332,-4814.5,0.14294
16547,5.1774,1.4545,0.05,1.2155e-06,12.147,9.3335e-07,7.0128,1.5049e-12,-5.0637e-06,-9.3335e-07,-7.0129,0.14797
16548,5.1774,1.1818,0,0.00047044,4701.2,0.00016531,0.021697,0.00013797,-205.38,-0.0004736,-4800.5,0.14684
16549,5.0849,1.2727,0,0.00047174,4714.1,0.00016687,0.018154,0.00013641,-228.85,-0.00047521,-4824.3,0.1422
16550,5.1774,1.2727,0.05,1.2169e-06,12.16,9.344e-07,7.0207,1.9412e-12,-1.718e-06,-9.344e-07,-7.0207,0.14722
16551,5.1774,1,0,0.00047284,4725.2,0.00016469,0.031475,0.00014123,-176.26,-0.0004756,-4810.8,0.14596
16552,5.0849,1.0909,0,0.00047416,4738.3,0.00016624,0.027885,0.00013971,-199.32,-0.00047723,-4834.8,0.14137
16553,5.1774,1.0909,0.05,1.2175e-06,12.166,9.3486e-07,7.0242,7.3315e-14,-1.4093e-05,-9.3487e-07,-7.0243,0.14638
16554,5.1774,0.81818,0,0.00047538,4750.5,0.00016404,0.046567,0.00014465,-145.59,-0.00047769,-4821.6,0.14499
16555,5.0849,0.90909,0,0.00047673,4764.1,0.00016558,0.039034,0.0001432,-168.05,-0.00047937,-4845.8,0.14044
16556,5.1774,0.90909,0.05,1.2171e-06,12.163,9.3461e-07,7.0222,4.3161e-13,-1.7158e-05,-9.3461e-07,-7.0223,0.14546
16557,5.1774,0.63636,0,0.00047803,4777,0.00016335,0.059671,0.00014822,-113.65,-0.00047986,-4832.8,0.14392
16558,5.0849,0.72727,0,0.00047944,4791.1,0.00016488,0.060289,0.00014686,-135.32,-0.0004816,-4857.3,0.13942
16559,5.1774,0.72727,0.05,1.2157e-06,12.149,9.3353e-07,7.0141,-1.1713e-12,-9.8257e-06,-9.3353e-07,-7.0142,0.14443
16560,5.1774,0.45455,0,0.00048078,4804.5,0.00016265,0.1339,0.00015189,-80.656,-0.0004821,-4844.2,0.14275
16561,5.0849,0.54545,0,0.00048225,4819.2,0.00016415,0.068552,0.00015064,-101.42,-0.00048389,-4869,0.1383
16562,5.1774,0.54545,0.05,1.2132e-06,12.124,9.3159e-07,6.9996,-1.1707e-12,-9.8201e-06,-9.316e-07,-6.9997,0.14331
16563,5.1774,0.27273,0,0.00048361,4832.8,0.00016192,0.18817,0.00015567,-46.775,-0.00048439,-4855.9,0.14148
16564,5.0849,0.36364,0,0.00048515,4848.1,0.0001634,0.222,0.00015452,-66.54,-0.00048624,-4881,0.13708
16565,5.1774,0.36364,0.05,1.2091e-06,12.083,9.2843e-07,6.9759,-8.6115e-13,-9.0956e-06,-9.2844e-07,-6.9759,0.14209
16566,5.0849,0.18182,0,0.00048814,4878,0.00016263,0.23909,0.00015849,-30.865,-0.00048865,-4893.3,0.13576
16567,5.1774,0.18182,0.05,1.2132e-06,12.124,9.316e-07,6.9997,-4.3898e-13,-1.0588e-05,-9.316e-07,-6.9997,0.14077
16568,5.1774,0.090909,0,0.00048618,4858.4,0.00016124,0.18822,0.00015911,-15.831,-0.00048644,-4866.2,0.1401
16569,4.9925,5.7273,0,0.00048968,4893.4,0.00016411,0.20863,0.00015735,-50.544,-0.00049051,-4918.4,0.13148
16570,4.9,5.8182,0,0.00049435,4940.1,0.0001648,0.26928,0.00016035,-33.217,-0.00049491,-4956.5,0.12594
16571,4.9925,5.8182,0.05,1.3165e-06,13.155,1.0109e-06,7.5953,8.5914e-14,-9.5792e-06,-1.0109e-06,-7.5953,0.13078
16572,4.9925,5.9091,0,0.00049244,4921,0.00016337,0.20147,0.00016107,-17.088,-0.00049272,-4929.4,0.13011
16573,4.9925,5.5455,0,0.00048662,4862.8,0.0001649,0.14694,0.00015327,-87.273,-0.00048804,-4905.8,0.13275
16574,4.9,5.6364,0,0.00049112,4907.8,0.00016564,0.24334,0.00015604,-71.879,-0.0004923,-4943.3,0.12725
16575,4.9925,5.6364,0.05,1.2409e-06,12.401,9.5289e-07,7.1597,1.3003e-13,1.9052e-06,-9.5289e-07,-7.1597,0.13209
16576,4.9925,5.3636,0,0.00048365,4833.2,0.00016567,0.065703,0.00014928,-123.06,-0.00048563,-4893.5,0.13391
16577,4.9,5.4545,0,0.00048799,4876.5,0.00016645,0.075698,0.00015184,-109.7,-0.00048976,-4930.4,0.12846
16578,4.9925,5.4545,0.05,1.2408e-06,12.399,9.5276e-07,7.1587,-4.4567e-13,2.223e-06,-9.5276e-07,-7.1587,0.13331
16579,4.9925,5.1818,0,0.00048079,4804.6,0.00016642,0.051127,0.00014541,-157.75,-0.00048328,-4881.5,0.13498
16580,4.9,5.2727,0,0.00048496,4846.2,0.00016724,0.066225,0.00014774,-146.5,-0.00048728,-4917.8,0.12958
16581,4.9925,5.2727,0.05,1.2431e-06,12.423,9.5455e-07,7.1721,-4.0875e-13,-7.5533e-06,-9.5455e-07,-7.1722,0.13443
16582,4.9925,5,0,0.00047805,4777.2,0.00016713,0.034525,0.00014169,-191.09,-0.00048101,-4869.8,0.13595
16583,4.9,5.0909,0,0.00048204,4817,0.00016801,0.042871,0.00014377,-182.06,-0.00048487,-4905.5,0.13059
16584,4.9925,5.0909,0.05,1.2445e-06,12.436,9.5562e-07,7.1801,2.4003e-13,6.7116e-07,-9.5562e-07,-7.1801,0.13544
16585,4.9925,4.8182,0,0.00047545,4751.3,0.00016781,0.023758,0.00013815,-222.77,-0.00047885,-4858.7,0.13682
16586,4.9,4.9091,0,0.00047925,4789.2,0.00016874,0.030578,0.00013998,-216.07,-0.00048256,-4893.6,0.13151
16587,4.9925,4.9091,0.05,1.2447e-06,12.438,9.5578e-07,7.1814,-6.4035e-13,1.9247e-06,-9.5578e-07,-7.1814,0.13637
16588,4.9925,4.6364,0,0.00047303,4727,0.00016844,0.014781,0.00013483,-252.5,-0.00047682,-4848.2,0.13761
16589,4.9,4.7273,0,0.00047664,4763.1,0.00016943,0.01988,0.00013639,-248.21,-0.00048037,-4882.3,0.13234
16590,4.9925,4.7273,0.05,1.2439e-06,12.43,9.5514e-07,7.1765,1.4855e-12,1.8193e-06,-9.5514e-07,-7.1765,0.1372
16591,4.9925,4.4545,0,0.00047079,4704.7,0.00016902,0.0075483,0.00013176,-279.99,-0.00047493,-4838.4,0.13831
16592,4.9,4.5455,0,0.00047421,4738.8,0.00017007,0.011543,0.00013304,-278.17,-0.00047833,-4871.8,0.13308
16593,4.9925,4.5455,0.05,1.2422e-06,12.413,9.5384e-07,7.1668,2.6963e-13,-3.6814e-06,-9.5384e-07,-7.1668,0.13794
16594,4.9925,4.2727,0,0.00046877,4684.5,0.00016955,0.001528,0.00012896,-304.98,-0.00047321,-4829.5,0.13892
16595,4.9,4.3636,0,0.00047199,4716.6,0.00017065,0.0045958,0.00012997,-305.66,-0.00047645,-4862,0.13373
16596,4.9925,4.3636,0.05,1.2399e-06,12.39,9.5205e-07,7.1533,1.9819e-12,6.79e-07,-9.5205e-07,-7.1534,0.13859
16597,4.9925,4.0909,0,0.00046698,4666.5,0.00017002,-0.0034543,0.00012648,-327.2,-0.00047168,-4821.5,0.13944
16598,4.9,4.1818,0,0.00047,4696.8,0.00017118,-0.0011434,0.00012721,-330.39,-0.00047475,-4853.3,0.13429
16599,4.9925,4.1818,0.05,1.2371e-06,12.363,9.4995e-07,7.1376,-1.2951e-13,1.861e-06,-9.4996e-07,-7.1376,0.13916
16600,4.9925,3.9091,0,0.00046543,4651.1,0.00017043,-0.0075398,0.00012433,-346.42,-0.00047035,-4814.6,0.13988
16601,4.9,4,0,0.00046826,4679.4,0.00017164,-0.0058803,0.00012478,-352.11,-0.00047326,-4845.5,0.13477
16602,4.9925,4,0.05,1.2342e-06,12.334,9.4772e-07,7.1208,1.6524e-12,1.8272e-06,-9.4773e-07,-7.1208,0.13964
16603,4.9925,3.7273,0,0.00046414,4638.2,0.00017077,-0.010807,0.00012253,-362.44,-0.00046925,-4808.8,0.14024
16604,4.9,3.8182,0,0.00046679,4664.7,0.00017203,-0.0097184,0.00012271,-370.58,-0.00047199,-4838.9,0.13517
16605,4.9925,3.8182,0.05,1.2314e-06,12.305,9.4555e-07,7.1045,2.4404e-13,1.5353e-06,-9.4555e-07,-7.1045,0.14004
16606,4.9925,3.5455,0,0.00046313,4628.1,0.00017103,-0.013306,0.00012112,-375.08,-0.00046837,-4804.3,0.14052
16607,4.9,3.6364,0,0.00046559,4652.7,0.00017235,-0.012727,0.00012103,-385.61,-0.00047095,-4833.5,0.13548
16608,4.9925,3.6364,0.05,1.2288e-06,12.28,9.4358e-07,7.0897,1.0685e-12,1.3562e-06,-9.4358e-07,-7.0897,0.14036
16609,4.9925,3.3636,0,0.0004624,4620.8,0.00017123,-0.015071,0.00012009,-384.22,-0.00046774,-4800.9,0.14072
16610,4.9,3.4545,0,0.00046469,4643.6,0.00017259,-0.01495,0.00011975,-397.03,-0.00047016,-4829.4,0.13572
16611,4.9925,3.4545,0.05,1.2267e-06,12.259,9.4197e-07,7.0775,2.7949e-12,-9.8966e-07,-9.4198e-07,-7.0777,0.1406
16612,4.9925,3.1818,0,0.00046196,4616.4,0.00017134,-0.016123,0.00011947,-389.74,-0.00046736,-4798.9,0.14083
16613,4.9,3.2727,0,0.00046408,4637.6,0.00017275,-0.016418,0.00011889,-404.71,-0.00046963,-4826.7,0.13588
16614,4.9925,3.2727,0.05,1.2252e-06,12.244,9.4083e-07,7.0691,1.8794e-12,6.575e-07,-9.4084e-07,-7.0691,0.14075
16615,4.9925,3,0,0.00046181,4615,0.00017138,-0.016473,0.00011927,-391.58,-0.00046723,-4798.3,0.14087
16616,4.9,3.0909,0,0.00046377,4634.5,0.00017283,-0.017148,0.00011846,-408.58,-0.00046937,-4825.3,0.13595
16617,4.9925,3.0909,0.05,1.2245e-06,12.236,9.4024e-07,7.0646,2.2352e-14,1.7843e-07,-9.4025e-07,-7.0647,0.14083
16618,4.9925,2.8182,0,0.00046196,4616.4,0.00017134,-0.016123,0.00011947,-389.74,-0.00046736,-4798.9,0.14083
16619,4.9,2.9091,0,0.00046377,4634.5,0.00017283,-0.017148,0.00011846,-408.58,-0.00046937,-4825.3,0.13595
16620,4.9925,2.9091,0.05,1.2245e-06,12.236,9.4024e-07,7.0646,-3.2291e-14,-2.2985e-07,-9.4025e-07,-7.0647,0.14083
16621,4.9925,2.6364,0,0.0004624,4620.8,0.00017123,-0.015071,0.00012009,-384.22,-0.00046774,-4800.9,0.14072
16622,4.9,2.7273,0,0.00046408,4637.6,0.00017275,-0.016418,0.00011889,-404.71,-0.00046963,-4826.7,0.13588
16623,4.9925,2.7273,0.05,1.2252e-06,12.244,9.4083e-07,7.0691,1.7191e-12,-5.9773e-07,-9.4084e-07,-7.0691,0.14075
16624,4.9925,2.4545,0,0.00046313,4628.1,0.00017103,-0.013306,0.00012112,-375.08,-0.00046837,-4804.3,0.14052
16625,4.9,2.5455,0,0.00046469,4643.6,0.00017259,-0.014949,0.00011975,-397.03,-0.00047016,-4829.4,0.13572
16626,4.9925,2.5455,0.05,1.2267e-06,12.259,9.4197e-07,7.0775,3.3519e-12,-2.8612e-06,-9.4198e-07,-7.0777,0.1406
16627,4.9925,2.2727,0,0.00046414,4638.2,0.00017077,-0.010806,0.00012253,-362.44,-0.00046925,-4808.8,0.14024
16628,4.9,2.3636,0,0.00046559,4652.7,0.00017235,-0.012727,0.00012103,-385.61,-0.00047095,-4833.5,0.13548
16629,4.9925,2.3636,0.05,1.2288e-06,12.28,9.4358e-07,7.0897,1.6198e-12,2.5154e-06,-9.4358e-07,-7.0897,0.14036
16630,4.9925,2.0909,0,0.00046543,4651.1,0.00017043,-0.0075394,0.00012433,-346.42,-0.00047035,-4814.6,0.13988
16631,4.9,2.1818,0,0.00046679,4664.7,0.00017203,-0.0097181,0.00012271,-370.58,-0.00047199,-4838.9,0.13517
16632,4.9925,2.1818,0.05,1.2314e-06,12.305,9.4555e-07,7.1045,-3.0342e-13,-1.7059e-06,-9.4555e-07,-7.1045,0.14004
16633,4.9925,1.9091,0,0.00046698,4666.5,0.00017002,-0.0034538,0.00012648,-327.2,-0.00047168,-4821.5,0.13944
16634,4.9,2,0,0.00046826,4679.4,0.00017164,-0.0058799,0.00012478,-352.11,-0.00047326,-4845.5,0.13477
16635,4.9925,2,0.05,1.2342e-06,12.334,9.4772e-07,7.1208,1.1684e-12,-1.6242e-06,-9.4773e-07,-7.1208,0.13964
16636,4.9925,1.7273,0,0.00046877,4684.5,0.00016955,0.0015286,0.00012896,-304.98,-0.00047321,-4829.5,0.13892
16637,4.9,1.8182,0,0.00047,4696.8,0.00017118,-0.0011428,0.00012721,-330.39,-0.00047475,-4853.3,0.13429
16638,4.9925,1.8182,0.05,1.2371e-06,12.363,9.4995e-07,7.1376,-9.1527e-13,-2.1666e-06,-9.4996e-07,-7.1376,0.13916
16639,4.9925,1.5455,0,0.00047079,4704.7,0.00016902,0.0075489,0.00013176,-279.99,-0.00047493,-4838.4,0.13831
16640,4.9,1.6364,0,0.00047199,4716.6,0.00017065,0.0045964,0.00012997,-305.66,-0.00047645,-4862,0.13373
16641,4.9925,1.6364,0.05,1.2399e-06,12.39,9.5205e-07,7.1533,1.1334e-12,-6.9767e-06,-9.5205e-07,-7.1534,0.13859
16642,4.9925,1.3636,0,0.00047303,4727,0.00016844,0.014782,0.00013483,-252.5,-0.00047682,-4848.2,0.13761
16643,4.9,1.4545,0,0.00047421,4738.8,0.00017007,0.011543,0.00013304,-278.17,-0.00047833,-4871.8,0.13308
16644,4.9925,1.4545,0.05,1.2422e-06,12.413,9.5384e-07,7.1667,6.6374e-13,-1.3017e-05,-9.5384e-07,-7.1668,0.13794
16645,4.9925,1.1818,0,0.00047545,4751.3,0.00016781,0.023758,0.00013815,-222.77,-0.00047885,-4858.7,0.13682
16646,4.9,1.2727,0,0.00047664,4763.1,0.00016943,0.019881,0.00013639,-248.21,-0.00048037,-4882.3,0.13234
16647,4.9925,1.2727,0.05,1.2439e-06,12.43,9.5514e-07,7.1765,3.7871e-12,-8.7842e-06,-9.5514e-07,-7.1766,0.1372
16648,4.9925,1,0,0.00047805,4777.2,0.00016713,0.034526,0.00014169,-191.09,-0.00048101,-4869.8,0.13595
16649,4.9,1.0909,0,0.00047925,4789.2,0.00016874,0.030579,0.00013998,-216.07,-0.00048256,-4893.6,0.13151
16650,4.9925,1.0909,0.05,1.2447e-06,12.438,9.5578e-07,7.1814,-1.4291e-13,3.7617e-07,-9.5578e-07,-7.1814,0.13637
16651,4.9925,0.81818,0,0.00048079,4804.6,0.00016642,0.051128,0.00014541,-157.75,-0.00048328,-4881.5,0.13498
16652,4.9,0.90909,0,0.00048204,4817,0.00016801,0.042872,0.00014377,-182.06,-0.00048487,-4905.5,0.13059
16653,4.9925,0.90909,0.05,1.2445e-06,12.436,9.5562e-07,7.1801,7.8888e-13,-2.7853e-05,-9.5562e-07,-7.1802,0.13544
16654,4.9925,0.63636,0,0.00048365,4833.2,0.00016567,0.065704,0.00014928,-123.06,-0.00048563,-4893.5,0.13391
16655,4.9,0.72727,0,0.00048496,4846.2,0.00016724,0.066226,0.00014774,-146.5,-0.00048728,-4917.8,0.12958
16656,4.9925,0.72727,0.05,1.2431e-06,12.423,9.5455e-07,7.1721,2.2138e-12,-1.0683e-05,-9.5456e-07,-7.1722,0.13443
16657,4.9925,0.45455,0,0.00048662,4862.8,0.0001649,0.14694,0.00015327,-87.273,-0.00048804,-4905.8,0.13275
16658,4.9,0.54545,0,0.00048799,4876.5,0.00016645,0.075698,0.00015184,-109.7,-0.00048976,-4930.4,0.12846
16659,4.9925,0.54545,0.05,1.2408e-06,12.399,9.5276e-07,7.1586,-4.658e-13,-1.0262e-05,-9.5276e-07,-7.1587,0.13331
16660,4.9925,0.27273,0,0.00048968,4893.4,0.00016411,0.20863,0.00015735,-50.544,-0.00049051,-4918.4,0.13148
16661,4.9,0.36364,0,0.00049112,4907.8,0.00016564,0.24334,0.00015604,-71.879,-0.0004923,-4943.3,0.12725
16662,4.9925,0.36364,0.05,1.2409e-06,12.401,9.5289e-07,7.1596,1.625e-12,-2.1851e-05,-9.529e-07,-7.1597,0.13209
16663,4.9,0.18182,0,0.00049435,4940.1,0.0001648,0.26928,0.00016035,-33.217,-0.00049491,-4956.5,0.12594
16664,4.9925,0.18182,0.05,1.3165e-06,13.155,1.0109e-06,7.5952,6.6316e-13,-3.1757e-05,-1.0109e-06,-7.5954,0.13078
16665,4.9925,0.090909,0,0.00049244,4921,0.00016337,0.20147,0.00016107,-17.088,-0.00049272,-4929.4,0.13011
16666,4.8075,5.7273,0,0.0004958,4954.6,0.00016632,0.23175,0.00015904,-54.452,-0.0004967,-4981.4,0.12182
16667,4.7151,5.8182,0,0.00050063,5002.9,0.00016699,0.30505,0.00016222,-35.574,-0.00050122,-5020.4,0.11645
16668,4.8075,5.8182,0.05,1.4274e-06,14.264,1.0961e-06,8.2355,8.5991e-14,1.9719e-07,-1.0961e-06,-8.2355,0.12112
16669,4.8075,5.9091,0,0.00049876,4984.1,0.00016552,0.21617,0.00016305,-18.337,-0.00049906,-4993.2,0.12045
16670,4.8075,5.5455,0,0.00049249,4921.5,0.00016718,0.1613,0.00015462,-94.271,-0.00049403,-4967.9,0.12308
16671,4.7151,5.6364,0,0.00049714,4968,0.0001679,0.2668,0.00015755,-77.483,-0.00049841,-5006.1,0.11776
16672,4.8075,5.6364,0.05,1.2754e-06,12.746,9.7938e-07,7.3587,-1.3449e-12,7.5902e-07,-9.7938e-07,-7.3587,0.12243
16673,4.8075,5.3636,0,0.00048929,4889.6,0.00016802,0.072377,0.0001503,-133.1,-0.00049142,-4954.7,0.12424
16674,4.7151,5.4545,0,0.00049376,4934.2,0.00016878,0.083635,0.000153,-118.49,-0.00049567,-4992.3,0.11896
16675,4.8075,5.4545,0.05,1.2708e-06,12.699,9.7582e-07,7.3319,1.6503e-12,2.2928e-06,-9.7582e-07,-7.3319,0.12364
16676,4.8075,5.1818,0,0.0004862,4858.7,0.00016884,0.056165,0.0001461,-170.77,-0.00048888,-4941.8,0.1253
16677,4.7151,5.2727,0,0.00049048,4901.5,0.00016965,0.072777,0.00014855,-158.43,-0.00049299,-4978.7,0.12007
16678,4.8075,5.2727,0.05,1.273e-06,12.721,9.7751e-07,7.3446,1.8426e-12,7.3038e-07,-9.7751e-07,-7.3446,0.12475
16679,4.8075,5,0,0.00048324,4829.1,0.00016962,0.037907,0.00014206,-207.01,-0.00048643,-4929.2,0.12626
16680,4.7151,5.0909,0,0.00048733,4870,0.00017049,0.04712,0.00014425,-197.07,-0.00049038,-4965.5,0.12108
16681,4.8075,5.0909,0.05,1.2744e-06,12.735,9.7859e-07,7.3528,-3.4379e-13,2.1183e-06,-9.786e-07,-7.3528,0.12576
16682,4.8075,4.8182,0,0.00048044,4801.1,0.00017036,0.026054,0.00013822,-241.48,-0.00048409,-4917.3,0.12713
16683,4.7151,4.9091,0,0.00048433,4840,0.00017129,0.03357,0.00014013,-234.06,-0.00048789,-4952.7,0.12199
16684,4.8075,4.9091,0.05,1.2745e-06,12.737,9.7868e-07,7.3534,2.4187e-13,-4.6706e-06,-9.7868e-07,-7.3535,0.12668
16685,4.8075,4.6364,0,0.00047782,4774.9,0.00017105,0.016192,0.0001346,-273.85,-0.00048189,-4905.9,0.12791
16686,4.7151,4.7273,0,0.00048151,4811.8,0.00017204,0.021813,0.00013623,-269.05,-0.00048552,-4940.6,0.12281
16687,4.8075,4.7273,0.05,1.2735e-06,12.726,9.7787e-07,7.3473,-1.661e-13,-5.3493e-06,-9.7787e-07,-7.3474,0.1275
16688,4.8075,4.4545,0,0.00047541,4750.8,0.00017169,0.0082568,0.00013126,-303.81,-0.00047985,-4895.4,0.1286
16689,4.7151,4.5455,0,0.00047889,4785.6,0.00017274,0.012661,0.00013259,-301.69,-0.00048331,-4929.3,0.12354
16690,4.8075,4.5455,0.05,1.2715e-06,12.706,9.7632e-07,7.3357,1.5712e-12,5.7868e-06,-9.7633e-07,-7.3357,0.12824
16691,4.8075,4.2727,0,0.00047323,4729,0.00017228,0.0016628,0.00012821,-331.05,-0.00047799,-4885.8,0.1292
16692,4.7151,4.3636,0,0.00047649,4761.7,0.00017339,0.0050502,0.00012924,-331.66,-0.00048127,-4918.8,0.12418
16693,4.8075,4.3636,0.05,1.2687e-06,12.678,9.7423e-07,7.3199,2.0459e-12,-8.4251e-06,-9.7422e-07,-7.32,0.12888
16694,4.8075,4.0909,0,0.00047129,4709.7,0.00017279,-0.0037843,0.00012551,-355.29,-0.00047633,-4877.3,0.12972
16695,4.7151,4.1818,0,0.00047435,4740.2,0.00017396,-0.0012252,0.00012623,-358.63,-0.00047943,-4909.4,0.12474
16696,4.8075,4.1818,0.05,1.2655e-06,12.647,9.7178e-07,7.3015,2.3587e-13,1.9786e-06,-9.7177e-07,-7.3015,0.12944
16697,4.8075,3.9091,0,0.00046962,4693,0.00017324,-0.0082424,0.00012316,-376.27,-0.00047489,-4869.8,0.13016
16698,4.7151,4,0,0.00047248,4721.5,0.00017447,-0.0063935,0.00012359,-382.33,-0.00047782,-4901.1,0.12521
16699,4.8075,4,0.05,1.2622e-06,12.613,9.6918e-07,7.2821,-1.3787e-13,2.5952e-06,-9.6919e-07,-7.2821,0.12992
16700,4.8075,3.7273,0,0.00046824,4679.2,0.00017361,-0.011801,0.00012121,-393.76,-0.00047369,-4863.6,0.13051
16701,4.7151,3.8182,0,0.00047089,4705.6,0.0001749,-0.010572,0.00012134,-402.49,-0.00047644,-4894,0.1256
16702,4.8075,3.8182,0.05,1.2589e-06,12.58,9.6667e-07,7.2631,1.1354e-12,2.0022e-06,-9.6666e-07,-7.2631,0.13031
16703,4.8075,3.5455,0,0.00046715,4668.3,0.0001739,-0.014518,0.00011966,-407.57,-0.00047274,-4858.7,0.13079
16704,4.7151,3.6364,0,0.0004696,4692.8,0.00017525,-0.01384,0.0001195,-418.9,-0.00047532,-4888.2,0.12591
16705,4.8075,3.6364,0.05,1.2559e-06,12.551,9.6438e-07,7.246,8.3721e-13,1.5939e-06,-9.644e-07,-7.246,0.13063
16706,4.8075,3.3636,0,0.00046636,4660.4,0.00017412,-0.016435,0.00011855,-417.54,-0.00047206,-4855.1,0.13098
16707,4.7151,3.4545,0,0.00046862,4683,0.00017552,-0.016251,0.00011811,-431.37,-0.00047447,-4883.8,0.12615
16708,4.8075,3.4545,0.05,1.2535e-06,12.526,9.6253e-07,7.232,1.8447e-12,-4.5501e-07,-9.6254e-07,-7.2322,0.13086
16709,4.8075,3.1818,0,0.00046589,4655.7,0.00017424,-0.017577,0.00011787,-423.57,-0.00047164,-4853,0.1311
16710,4.7151,3.2727,0,0.00046797,4676.5,0.0001757,-0.017841,0.00011717,-439.77,-0.0004739,-4880.8,0.1263
16711,4.8075,3.2727,0.05,1.2518e-06,12.509,9.6122e-07,7.2222,2.7874e-12,3.9584e-07,-9.6122e-07,-7.2222,0.13102
16712,4.8075,3,0,0.00046573,4654.1,0.00017429,-0.017956,0.00011765,-425.59,-0.00047151,-4852.3,0.13114
16713,4.7151,3.0909,0,0.00046764,4673.2,0.00017579,-0.018632,0.0001167,-443.99,-0.00047361,-4879.3,0.12638
16714,4.8075,3.0909,0.05,1.2509e-06,12.5,9.6053e-07,7.2171,2.7525e-12,1.8635e-07,-9.6054e-07,-7.2171,0.1311
16715,4.8075,2.8182,0,0.00046589,4655.7,0.00017424,-0.017577,0.00011787,-423.57,-0.00047164,-4853,0.1311
16716,4.7151,2.9091,0,0.00046764,4673.2,0.00017579,-0.018632,0.0001167,-443.99,-0.00047361,-4879.3,0.12638
16717,4.8075,2.9091,0.05,1.2509e-06,12.5,9.6053e-07,7.2171,2.6925e-12,-2.5087e-07,-9.6054e-07,-7.2171,0.1311
16718,4.8075,2.6364,0,0.00046636,4660.4,0.00017412,-0.016435,0.00011855,-417.54,-0.00047206,-4855.1,0.13098
16719,4.7151,2.7273,0,0.00046797,4676.5,0.0001757,-0.017841,0.00011717,-439.77,-0.0004739,-4880.8,0.1263
16720,4.8075,2.7273,0.05,1.2518e-06,12.509,9.6121e-07,7.2222,2.5917e-12,2.8816e-06,-9.6122e-07,-7.2222,0.13102
16721,4.8075,2.4545,0,0.00046715,4668.3,0.0001739,-0.014518,0.00011966,-407.57,-0.00047274,-4858.7,0.13079
16722,4.7151,2.5455,0,0.00046862,4683,0.00017552,-0.016251,0.00011811,-431.37,-0.00047447,-4883.8,0.12615
16723,4.8075,2.5455,0.05,1.2535e-06,12.526,9.6253e-07,7.232,2.4541e-12,-2.4569e-06,-9.6254e-07,-7.2321,0.13086
16724,4.8075,2.2727,0,0.00046824,4679.2,0.00017361,-0.011801,0.00012121,-393.76,-0.00047369,-4863.6,0.13051
16725,4.7151,2.3636,0,0.0004696,4692.8,0.00017525,-0.01384,0.0001195,-418.9,-0.00047532,-4888.2,0.12591
16726,4.8075,2.3636,0.05,1.2559e-06,12.551,9.6438e-07,7.246,4.7446e-13,-1.3041e-06,-9.6439e-07,-7.246,0.13063
16727,4.8075,2.0909,0,0.00046962,4693,0.00017324,-0.0082422,0.00012316,-376.27,-0.00047489,-4869.8,0.13016
16728,4.7151,2.1818,0,0.00047089,4705.6,0.0001749,-0.010572,0.00012134,-402.49,-0.00047644,-4894,0.1256
16729,4.8075,2.1818,0.05,1.2589e-06,12.58,9.6666e-07,7.2631,1.301e-12,-3.7671e-06,-9.6666e-07,-7.2631,0.13031
16730,4.8075,1.9091,0,0.00047129,4709.7,0.00017279,-0.0037838,0.00012551,-355.29,-0.00047633,-4877.3,0.12972
16731,4.7151,2,0,0.00047248,4721.5,0.00017447,-0.006393,0.00012359,-382.33,-0.00047782,-4901.1,0.12521
16732,4.8075,2,0.05,1.2622e-06,12.613,9.6918e-07,7.2821,1.0666e-12,1.4446e-06,-9.6919e-07,-7.2821,0.12992
16733,4.8075,1.7273,0,0.00047323,4729,0.00017228,0.0016634,0.00012821,-331.05,-0.00047799,-4885.8,0.1292
16734,4.7151,1.8182,0,0.00047435,4740.2,0.00017396,-0.0012246,0.00012623,-358.63,-0.00047943,-4909.4,0.12474
16735,4.8075,1.8182,0.05,1.2655e-06,12.647,9.7178e-07,7.3015,4.8254e-12,-6.4045e-06,-9.7177e-07,-7.3016,0.12944
16736,4.8075,1.5455,0,0.00047541,4750.8,0.00017169,0.0082574,0.00013126,-303.81,-0.00047985,-4895.4,0.1286
16737,4.7151,1.6364,0,0.00047649,4761.7,0.00017339,0.0050507,0.00012924,-331.66,-0.00048127,-4918.8,0.12418
16738,4.8075,1.6364,0.05,1.2687e-06,12.678,9.7422e-07,7.3198,7.2407e-13,-1.8963e-05,-9.7422e-07,-7.32,0.12888
16739,4.8075,1.3636,0,0.00047782,4774.9,0.00017105,0.016193,0.0001346,-273.85,-0.00048189,-4905.9,0.12791
16740,4.7151,1.4545,0,0.00047889,4785.6,0.00017274,0.012662,0.00013259,-301.69,-0.00048331,-4929.3,0.12354
16741,4.8075,1.4545,0.05,1.2715e-06,12.706,9.7632e-07,7.3357,3.429e-12,-9.1574e-06,-9.7633e-07,-7.3357,0.12824
16742,4.8075,1.1818,0,0.00048044,4801.1,0.00017036,0.026055,0.00013822,-241.48,-0.00048409,-4917.3,0.12713
16743,4.7151,1.2727,0,0.00048151,4811.8,0.00017204,0.021814,0.00013623,-269.05,-0.00048552,-4940.6,0.12281
16744,4.8075,1.2727,0.05,1.2735e-06,12.726,9.7787e-07,7.3473,4.1088e-13,-1.0475e-05,-9.7787e-07,-7.3474,0.1275
16745,4.8075,1,0,0.00048324,4829.1,0.00016962,0.037908,0.00014206,-207.01,-0.00048643,-4929.2,0.12626
16746,4.7151,1.0909,0,0.00048433,4840,0.00017129,0.033571,0.00014013,-234.06,-0.00048789,-4952.7,0.12199
16747,4.8075,1.0909,0.05,1.2745e-06,12.737,9.7868e-07,7.3534,-1.8516e-12,-9.405e-06,-9.7869e-07,-7.3535,0.12668
16748,4.8075,0.81818,0,0.0004862,4858.7,0.00016884,0.056166,0.0001461,-170.77,-0.00048888,-4941.8,0.1253
16749,4.7151,0.90909,0,0.00048733,4870,0.00017049,0.047121,0.00014425,-197.07,-0.00049038,-4965.5,0.12108
16750,4.8075,0.90909,0.05,1.2744e-06,12.735,9.7859e-07,7.3528,1.5966e-12,-1.2123e-05,-9.786e-07,-7.3528,0.12576
16751,4.8075,0.63636,0,0.00048929,4889.6,0.00016802,0.072378,0.0001503,-133.1,-0.00049142,-4954.7,0.12424
16752,4.7151,0.72727,0,0.00049048,4901.5,0.00016965,0.072778,0.00014855,-158.43,-0.00049299,-4978.7,0.12007
16753,4.8075,0.72727,0.05,1.273e-06,12.721,9.7751e-07,7.3446,1.6899e-12,-1.1625e-05,-9.775e-07,-7.3446,0.12475
16754,4.8075,0.45455,0,0.00049249,4921.5,0.00016718,0.1613,0.00015462,-94.271,-0.00049403,-4967.9,0.12308
16755,4.7151,0.54545,0,0.00049376,4934.2,0.00016878,0.083635,0.000153,-118.49,-0.00049567,-4992.3,0.11896
16756,4.8075,0.54545,0.05,1.2708e-06,12.699,9.7581e-07,7.3319,2.9353e-12,-1.1638e-05,-9.7582e-07,-7.3319,0.12364
16757,4.8075,0.27273,0,0.0004958,4954.6,0.00016632,0.23175,0.00015904,-54.452,-0.0004967,-4981.4,0.12182
16758,4.7151,0.36364,0,0.00049714,4968,0.0001679,0.26681,0.00015755,-77.483,-0.00049841,-5006.1,0.11776
16759,4.8075,0.36364,0.05,1.2754e-06,12.746,9.7938e-07,7.3586,-1.3142e-13,-1.28e-05,-9.7938e-07,-7.3587,0.12243
16760,4.7151,0.18182,0,0.00050063,5002.9,0.00016699,0.30506,0.00016222,-35.574,-0.00050122,-5020.4,0.11645
16761,4.8075,0.18182,0.05,1.4274e-06,14.264,1.0961e-06,8.2355,4.9227e-13,3.3702e-08,-1.0961e-06,-8.2355,0.12112
16762,4.8075,0.090909,0,0.00049876,4984.1,0.00016552,0.21617,0.00016305,-18.337,-0.00049906,-4993.2,0.12045
16763,4.6226,5.7273,0,0.00050197,5016.3,0.00016856,0.25795,0.00016074,-58.487,-0.00050294,-5045.1,0.1125
16764,4.5302,5.8182,0,0.00050698,5066.3,0.00016921,0.34758,0.00016412,-37.911,-0.00050761,-5085,0.1073
16765,4.6226,5.8182,0.05,1.5465e-06,15.454,1.1875e-06,8.9226,1.7219e-13,-1.8926e-15,-1.1875e-06,-8.9226,0.1118
16766,4.6226,5.9091,0,0.00050514,5047.9,0.00016768,0.23247,0.00016505,-19.56,-0.00050547,-5057.6,0.11114
16767,4.6226,5.5455,0,0.0004984,4980.6,0.0001695,0.17711,0.00015594,-101.66,-0.00050005,-5030.6,0.11375
16768,4.5302,5.6364,0,0.0005032,5028.5,0.00017019,0.29264,0.00015906,-83.348,-0.00050456,-5069.5,0.1086
16769,4.6226,5.6364,0.05,1.3127e-06,13.118,1.008e-06,7.5739,9.4157e-14,-1.6065e-15,-1.008e-06,-7.5739,0.1131
16770,4.6226,5.3636,0,0.00049495,4946.1,0.00017041,0.079769,0.00015126,-143.79,-0.00049724,-5016.4,0.1149
16771,4.5302,5.4545,0,0.00049955,4992.1,0.00017115,0.092456,0.00015413,-127.81,-0.0005016,-5054.7,0.1098
16772,4.6226,5.4545,0.05,1.3035e-06,13.026,1.0009e-06,7.5206,1.6151e-12,-1.0044e-05,-1.0009e-06,-7.5206,0.11431
16773,4.6226,5.1818,0,0.00049161,4912.8,0.0001713,0.061733,0.00014671,-184.7,-0.00049449,-5002.5,0.11595
16774,4.5302,5.2727,0,0.00049602,4956.8,0.0001721,0.080009,0.00014931,-171.17,-0.00049871,-5040.1,0.1109
16775,4.6226,5.2727,0.05,1.3056e-06,13.047,1.0026e-06,7.5329,1.8177e-12,-9.9827e-06,-1.0026e-06,-7.533,0.11541
16776,4.6226,5,0,0.00048842,4880.8,0.00017216,0.041656,0.00014232,-224.09,-0.00049185,-4989,0.11691
16777,4.5302,5.0909,0,0.00049262,4922.8,0.00017301,0.051821,0.00014464,-213.16,-0.0004959,-5025.9,0.11189
16778,4.6226,5.0909,0.05,1.3072e-06,13.063,1.0037e-06,7.5417,3.5318e-13,2.222e-06,-1.0037e-06,-7.5417,0.11641
16779,4.6226,4.8182,0,0.0004854,4850.6,0.00017297,0.028612,0.00013815,-261.6,-0.00048932,-4976.1,0.11777
16780,4.5302,4.9091,0,0.00048938,4890.5,0.00017389,0.036885,0.00014016,-253.4,-0.0004932,-5012.2,0.1128
16781,4.6226,4.9091,0.05,1.3072e-06,13.063,1.0038e-06,7.5421,3.3905e-13,-8.7583e-06,-1.0038e-06,-7.5422,0.11732
16782,4.6226,4.6364,0,0.00048257,4822.4,0.00017373,0.017784,0.00013422,-296.86,-0.00048694,-4964,0.11854
16783,4.5302,4.7273,0,0.00048634,4860,0.00017472,0.02397,0.00013592,-291.49,-0.00049064,-4999.2,0.11361
16784,4.6226,4.7273,0.05,1.306e-06,13.051,1.0028e-06,7.535,-2.1233e-13,1.3503e-06,-1.0028e-06,-7.535,0.11813
16785,4.6226,4.4545,0,0.00047997,4796.4,0.00017443,0.0090847,0.00013058,-329.51,-0.00048473,-4952.7,0.11922
16786,4.5302,4.5455,0,0.00048352,4831.8,0.00017549,0.01393,0.00013196,-327.05,-0.00048825,-4987,0.11433
16787,4.6226,4.5455,0.05,1.3037e-06,13.028,1.001e-06,7.5215,1.8918e-12,2.5295e-06,-1.001e-06,-7.5215,0.11886
16788,4.6226,4.2727,0,0.00047762,4772.9,0.00017507,0.001872,0.00012726,-359.22,-0.00048272,-4942.4,0.11982
16789,4.5302,4.3636,0,0.00048094,4806.1,0.0001762,0.0056014,0.00012832,-359.72,-0.00048605,-4975.8,0.11496
16790,4.6226,4.3636,0.05,1.3005e-06,12.996,9.9863e-07,7.5033,-3.4052e-13,2.9118e-06,-9.9864e-07,-7.5033,0.1195
16791,4.6226,4.0909,0,0.00047554,4752.1,0.00017564,-0.0040728,0.00012431,-385.66,-0.00048092,-4933.2,0.12033
16792,4.5302,4.1818,0,0.00047863,4783,0.00017683,-0.0012487,0.00012504,-389.14,-0.00048406,-4965.7,0.11551
16793,4.6226,4.1818,0.05,1.2969e-06,12.96,9.9582e-07,7.4822,-3.5024e-13,-2.938e-06,-9.9583e-07,-7.4823,0.12005
16794,4.6226,3.9091,0,0.00047374,4734.2,0.00017613,-0.0089265,0.00012176,-408.56,-0.00047937,-4925.2,0.12076
16795,4.5302,4,0,0.00047662,4762.9,0.00017739,-0.0068749,0.00012216,-415,-0.00048232,-4956.8,0.11598
16796,4.6226,4,0.05,1.293e-06,12.921,9.9286e-07,7.46,3.2905e-12,3.2192e-06,-9.9286e-07,-7.46,0.12052
16797,4.6226,3.7273,0,0.00047225,4719.3,0.00017654,-0.012791,0.00011963,-427.65,-0.00047807,-4918.5,0.12111
16798,4.5302,3.8182,0,0.00047491,4745.8,0.00017787,-0.011411,0.00011971,-437.01,-0.00048083,-4949.2,0.11636
16799,4.6226,3.8182,0.05,1.2892e-06,12.883,9.8997e-07,7.4383,7.3977e-14,2.1327e-06,-9.8997e-07,-7.4383,0.12091
16800,4.6226,3.5455,0,0.00047108,4707.5,0.00017687,-0.015737,0.00011795,-442.72,-0.00047705,-4913.3,0.12138
16801,4.5302,3.6364,0,0.00047353,4732,0.00017825,-0.014949,0.00011771,-454.93,-0.00047962,-4943,0.11667
16802,4.6226,3.6364,0.05,1.2859e-06,12.85,9.8737e-07,7.4187,9.0961e-13,3.6095e-06,-9.8738e-07,-7.4188,0.12122
16803,4.6226,3.3636,0,0.00047023,4699.1,0.0001771,-0.017811,0.00011673,-453.62,-0.0004763,-4909.5,0.12157
16804,4.5302,3.4545,0,0.00047248,4721.5,0.00017855,-0.017554,0.00011619,-468.54,-0.0004787,-4938.3,0.1169
16805,4.6226,3.4545,0.05,1.2831e-06,12.822,9.8525e-07,7.4028,1.8381e-12,4.8839e-07,-9.8526e-07,-7.4029,0.12145
16806,4.6226,3.1818,0,0.00046972,4694,0.00017724,-0.019044,0.000116,-460.2,-0.00047586,-4907.1,0.12168
16807,4.5302,3.2727,0,0.00047177,4714.5,0.00017875,-0.019268,0.00011517,-477.71,-0.00047808,-4935.1,0.11705
16808,4.6226,3.2727,0.05,1.2811e-06,12.803,9.8376e-07,7.3915,1.8845e-12,8.7064e-08,-9.8376e-07,-7.3916,0.1216
16809,4.6226,3,0,0.00046955,4692.3,0.00017729,-0.019454,0.00011575,-462.41,-0.00047571,-4906.4,0.12172
16810,4.5302,3.0909,0,0.00047142,4710.9,0.00017885,-0.02012,0.00011466,-482.32,-0.00047777,-4933.6,0.11713
16811,4.6226,3.0909,0.05,1.2801e-06,12.793,9.8298e-07,7.3857,9.3763e-13,4.0152e-06,-9.8299e-07,-7.3858,0.12168
16812,4.6226,2.8182,0,0.00046972,4694,0.00017724,-0.019044,0.000116,-460.2,-0.00047586,-4907.1,0.12168
16813,4.5302,2.9091,0,0.00047142,4710.9,0.00017885,-0.02012,0.00011466,-482.32,-0.00047777,-4933.6,0.11713
16814,4.6226,2.9091,0.05,1.2801e-06,12.793,9.8298e-07,7.3857,8.7609e-13,-2.7054e-07,-9.8299e-07,-7.3858,0.12168
16815,4.6226,2.6364,0,0.00047023,4699.1,0.0001771,-0.017811,0.00011673,-453.62,-0.0004763,-4909.5,0.12157
16816,4.5302,2.7273,0,0.00047177,4714.5,0.00017875,-0.019268,0.00011517,-477.71,-0.00047808,-4935.1,0.11705
16817,4.6226,2.7273,0.05,1.2811e-06,12.803,9.8376e-07,7.3915,1.6823e-12,-1.2808e-06,-9.8376e-07,-7.3916,0.1216
16818,4.6226,2.4545,0,0.00047108,4707.5,0.00017687,-0.015737,0.00011795,-442.72,-0.00047705,-4913.3,0.12138
16819,4.5302,2.5455,0,0.00047248,4721.5,0.00017855,-0.017553,0.00011619,-468.54,-0.0004787,-4938.3,0.1169
16820,4.6226,2.5455,0.05,1.2831e-06,12.822,9.8525e-07,7.4028,2.4396e-12,-1.9872e-06,-9.8526e-07,-7.4029,0.12145
16821,4.6226,2.2727,0,0.00047225,4719.3,0.00017654,-0.012791,0.00011963,-427.65,-0.00047807,-4918.5,0.12111
16822,4.5302,2.3636,0,0.00047353,4732,0.00017825,-0.014949,0.00011771,-454.93,-0.00047962,-4943,0.11667
16823,4.6226,2.3636,0.05,1.2859e-06,12.85,9.8737e-07,7.4187,4.8579e-13,5.1794e-07,-9.8738e-07,-7.4188,0.12122
16824,4.6226,2.0909,0,0.00047374,4734.2,0.00017613,-0.0089261,0.00012176,-408.56,-0.00047937,-4925.2,0.12076
16825,4.5302,2.1818,0,0.00047491,4745.8,0.00017787,-0.01141,0.00011971,-437.01,-0.00048083,-4949.2,0.11636
16826,4.6226,2.1818,0.05,1.2892e-06,12.883,9.8997e-07,7.4383,2.0652e-12,-1.551e-06,-9.8998e-07,-7.4383,0.12091
16827,4.6226,1.9091,0,0.00047554,4752.1,0.00017564,-0.0040723,0.00012431,-385.66,-0.00048092,-4933.2,0.12033
16828,4.5302,2,0,0.00047662,4762.9,0.00017739,-0.0068745,0.00012216,-415,-0.00048232,-4956.8,0.11598
16829,4.6226,2,0.05,1.293e-06,12.921,9.9285e-07,7.46,2.462e-12,-1.8395e-06,-9.9286e-07,-7.46,0.12052
16830,4.6226,1.7273,0,0.00047762,4772.9,0.00017507,0.0018725,0.00012726,-359.22,-0.00048272,-4942.4,0.11982
16831,4.5302,1.8182,0,0.00047863,4783,0.00017683,-0.0012482,0.00012504,-389.14,-0.00048406,-4965.7,0.11551
16832,4.6226,1.8182,0.05,1.2969e-06,12.96,9.9582e-07,7.4822,-9.7592e-13,-7.1369e-06,-9.9583e-07,-7.4823,0.12005
16833,4.6226,1.5455,0,0.00047997,4796.4,0.00017443,0.0090854,0.00013058,-329.51,-0.00048473,-4952.7,0.11922
16834,4.5302,1.6364,0,0.00048094,4806.1,0.0001762,0.0056019,0.00012832,-359.72,-0.00048605,-4975.8,0.11496
16835,4.6226,1.6364,0.05,1.3005e-06,12.996,9.9863e-07,7.5033,2.1644e-13,-4.68e-06,-9.9863e-07,-7.5034,0.1195
16836,4.6226,1.3636,0,0.00048257,4822.4,0.00017373,0.017785,0.00013422,-296.86,-0.00048694,-4964,0.11854
16837,4.5302,1.4545,0,0.00048352,4831.8,0.00017549,0.013931,0.00013196,-327.05,-0.00048825,-4987,0.11433
16838,4.6226,1.4545,0.05,1.3037e-06,13.028,1.0011e-06,7.5214,1.2887e-12,-2.4919e-05,-1.001e-06,-7.5216,0.11886
16839,4.6226,1.1818,0,0.0004854,4850.6,0.00017297,0.028613,0.00013815,-261.6,-0.00048932,-4976.1,0.11777
16840,4.5302,1.2727,0,0.00048634,4860,0.00017472,0.02397,0.00013592,-291.49,-0.00049064,-4999.2,0.11361
16841,4.6226,1.2727,0.05,1.306e-06,13.051,1.0028e-06,7.5349,1.6141e-13,-1.0314e-05,-1.0028e-06,-7.535,0.11813
16842,4.6226,1,0,0.00048842,4880.8,0.00017216,0.041657,0.00014232,-224.09,-0.00049185,-4989,0.11691
16843,4.5302,1.0909,0,0.00048938,4890.5,0.00017389,0.036886,0.00014016,-253.4,-0.0004932,-5012.2,0.1128
16844,4.6226,1.0909,0.05,1.3072e-06,13.063,1.0038e-06,7.5421,3.0789e-12,-9.3023e-06,-1.0038e-06,-7.5422,0.11732
16845,4.6226,0.81818,0,0.00049161,4912.8,0.0001713,0.061734,0.00014671,-184.7,-0.00049449,-5002.5,0.11595
16846,4.5302,0.90909,0,0.00049262,4922.8,0.00017301,0.051822,0.00014464,-213.16,-0.0004959,-5025.9,0.11189
16847,4.6226,0.90909,0.05,1.3072e-06,13.063,1.0037e-06,7.5417,-4.0498e-14,-2.3328e-05,-1.0037e-06,-7.5418,0.11641
16848,4.6226,0.63636,0,0.00049495,4946.1,0.00017041,0.07977,0.00015126,-143.79,-0.00049724,-5016.4,0.1149
16849,4.5302,0.72727,0,0.00049602,4956.8,0.0001721,0.080009,0.00014931,-171.17,-0.00049871,-5040.1,0.1109
16850,4.6226,0.72727,0.05,1.3056e-06,13.047,1.0026e-06,7.5329,1.1694e-12,-2.5317e-05,-1.0026e-06,-7.533,0.11541
16851,4.6226,0.45455,0,0.0004984,4980.6,0.0001695,0.17711,0.00015594,-101.66,-0.00050005,-5030.6,0.11375
16852,4.5302,0.54545,0,0.00049955,4992.1,0.00017115,0.092456,0.00015413,-127.81,-0.0005016,-5054.7,0.1098
16853,4.6226,0.54545,0.05,1.3035e-06,13.026,1.0009e-06,7.5205,1.2941e-12,-2.625e-05,-1.0009e-06,-7.5206,0.11431
16854,4.6226,0.27273,0,0.00050197,5016.3,0.00016856,0.25795,0.00016074,-58.487,-0.00050294,-5045.1,0.1125
16855,4.5302,0.36364,0,0.0005032,5028.5,0.00017019,0.29264,0.00015906,-83.348,-0.00050456,-5069.5,0.1086
16856,4.6226,0.36364,0.05,1.3127e-06,13.118,1.008e-06,7.5739,-4.5425e-13,-1.6065e-15,-1.008e-06,-7.5739,0.1131
16857,4.5302,0.18182,0,0.00050698,5066.3,0.00016921,0.34758,0.00016412,-37.911,-0.00050761,-5085,0.1073
16858,4.6226,0.18182,0.05,1.5465e-06,15.454,1.1875e-06,8.9226,2.4124e-13,-2.2424e-05,-1.1875e-06,-8.9227,0.1118
16859,4.6226,0.090909,0,0.00050514,5047.9,0.00016768,0.23247,0.00016505,-19.56,-0.00050547,-5057.6,0.11114
16860,4.4377,5.7273,0,0.00050821,5078.6,0.00017083,0.28772,0.00016245,-62.632,-0.00050924,-5109.4,0.10352
16861,4.3453,5.8182,0,0.0005134,5130.4,0.00017144,0.39833,0.00016604,-40.197,-0.00051406,-5150.2,0.098498
16862,4.4377,5.8182,0.05,1.6742e-06,16.73,1.2856e-06,9.6592,-1.0949e-12,1.3141e-06,-1.2856e-06,-9.6592,0.10282
16863,4.4377,5.9091,0,0.00051159,5112.4,0.00016987,0.25054,0.00016708,-20.738,-0.00051193,-5122.6,0.10216
16864,4.4377,5.5455,0,0.00050435,5040,0.00017184,0.19454,0.00015725,-109.45,-0.00050612,-5093.8,0.10476
16865,4.3453,5.6364,0,0.00050931,5089.6,0.00017251,0.32114,0.00016056,-89.47,-0.00051076,-5133.5,0.099792
16866,4.4377,5.6364,0.05,1.353e-06,13.521,1.039e-06,7.8063,-1.4834e-12,2.3596e-06,-1.039e-06,-7.8063,0.10412
16867,4.4377,5.3636,0,0.00050062,5002.8,0.00017284,0.087953,0.00015218,-155.15,-0.00050308,-5078.5,0.1059
16868,4.3453,5.4545,0,0.00050537,5050.3,0.00017356,0.10227,0.00015522,-137.68,-0.00050757,-5117.6,0.10098
16869,4.4377,5.4545,0.05,1.3391e-06,13.382,1.0283e-06,7.7261,-1.3627e-12,1.6309e-06,-1.0283e-06,-7.7261,0.10531
16870,4.4377,5.1818,0,0.00049703,4966.8,0.00017381,0.067877,0.00014724,-199.58,-0.00050012,-5063.6,0.10695
16871,4.3453,5.2727,0,0.00050156,5012.2,0.00017459,0.087993,0.00014999,-184.75,-0.00050445,-5101.9,0.10207
16872,4.4377,5.2727,0.05,1.3413e-06,13.404,1.03e-06,7.7387,3.8038e-13,4.6672e-06,-1.03e-06,-7.7388,0.10641
16873,4.4377,5,0,0.00049358,4932.4,0.00017475,0.0458,0.00014248,-242.42,-0.00049726,-5049.1,0.10789
16874,4.3453,5.0909,0,0.0004979,4975.5,0.00017559,0.057019,0.00014492,-230.38,-0.00050142,-5086.7,0.10305
16875,4.4377,5.0909,0.05,1.3431e-06,13.421,1.0313e-06,7.7488,-2.6617e-12,1.5491e-06,-1.0313e-06,-7.7488,0.1074
16876,4.4377,4.8182,0,0.00049033,4899.9,0.00017564,0.031448,0.00013794,-283.24,-0.00049453,-5035.3,0.10874
16877,4.3453,4.9091,0,0.00049441,4940.7,0.00017655,0.040555,0.00014006,-274.16,-0.0004985,-5072.1,0.10394
16878,4.4377,4.9091,0.05,1.3432e-06,13.422,1.0314e-06,7.7494,1.7771e-13,1.4908e-06,-1.0314e-06,-7.7494,0.1083
16879,4.4377,4.6364,0,0.00048728,4869.5,0.00017647,0.019564,0.00013366,-321.65,-0.00049196,-5022.3,0.1095
16880,4.3453,4.7273,0,0.00049113,4907.9,0.00017746,0.02637,0.00013545,-315.64,-0.00049574,-5058.1,0.10474
16881,4.4377,4.7273,0.05,1.3418e-06,13.408,1.0303e-06,7.7414,3.3833e-13,2.8381e-06,-1.0303e-06,-7.7414,0.1091
16882,4.4377,4.4545,0,0.00048448,4841.5,0.00017725,0.010037,0.0001297,-357.24,-0.00048957,-5010.2,0.11017
16883,4.3453,4.5455,0,0.0004881,4877.6,0.00017831,0.015365,0.00013114,-354.39,-0.00049316,-5045.1,0.10545
16884,4.4377,4.5455,0.05,1.3392e-06,13.382,1.0283e-06,7.7262,1.7191e-12,-6.0183e-06,-1.0283e-06,-7.7263,0.10982
16885,4.4377,4.2727,0,0.00048195,4816.2,0.00017795,0.0021585,0.0001261,-389.63,-0.0004874,-4999.2,0.11076
16886,4.3453,4.3636,0,0.00048532,4849.9,0.00017909,0.0062613,0.00012718,-390.01,-0.00049078,-5033.1,0.10608
16887,4.4377,4.3636,0.05,1.3356e-06,13.347,1.0256e-06,7.7057,-1.3565e-13,-1.1318e-05,-1.0256e-06,-7.7058,0.11045
16888,4.4377,4.0909,0,0.00047971,4793.8,0.00017858,-0.0043156,0.00012289,-418.48,-0.00048546,-4989.3,0.11126
16889,4.3453,4.1818,0,0.00048285,4825.1,0.00017979,-0.0012018,0.00012361,-422.11,-0.00048864,-5022.3,0.10662
16890,4.4377,4.1818,0.05,1.3315e-06,13.306,1.0224e-06,7.682,-3.5022e-13,2.7785e-06,-1.0224e-06,-7.682,0.11099
16891,4.4377,3.9091,0,0.00047778,4774.5,0.00017912,-0.0095852,0.0001201,-443.47,-0.00048378,-4980.8,0.11168
16892,4.3453,4,0,0.00048068,4803.5,0.00018041,-0.0073098,0.00012047,-450.32,-0.00048676,-5012.8,0.10707
16893,4.4377,4,0.05,1.3271e-06,13.262,1.0191e-06,7.6568,8.8015e-13,1.9519e-06,-1.0191e-06,-7.6568,0.11145
16894,4.4377,3.7273,0,0.00047618,4758.5,0.00017958,-0.013769,0.00011778,-464.31,-0.00048238,-4973.7,0.11203
16895,4.3453,3.8182,0,0.00047885,4785.2,0.00018093,-0.012216,0.0001178,-474.34,-0.00048515,-5004.7,0.10745
16896,4.4377,3.8182,0.05,1.3229e-06,13.22,1.0158e-06,7.6323,1.8458e-12,-1.1274e-07,-1.0158e-06,-7.6324,0.11184
16897,4.4377,3.5455,0,0.00047492,4746,0.00017993,-0.016948,0.00011595,-480.77,-0.00048127,-4968.1,0.11229
16898,4.3453,3.6364,0,0.00047737,4770.4,0.00018136,-0.016031,0.00011563,-493.89,-0.00048385,-4998.1,0.10775
16899,4.4377,3.6364,0.05,1.3191e-06,13.182,1.0129e-06,7.6104,1.0444e-12,1.6459e-06,-1.0129e-06,-7.6104,0.11214
16900,4.4377,3.3636,0,0.00047402,4736.9,0.00018019,-0.019182,0.00011463,-492.66,-0.00048047,-4964,0.11248
16901,4.3453,3.4545,0,0.00047624,4759.2,0.00018168,-0.018831,0.00011398,-508.76,-0.00048285,-4993.1,0.10798
16902,4.4377,3.4545,0.05,1.316e-06,13.15,1.0105e-06,7.5924,2.8562e-12,2.1803e-07,-1.0105e-06,-7.5925,0.11237
16903,4.4377,3.1818,0,0.00047347,4731.4,0.00018035,-0.020508,0.00011382,-499.85,-0.00047999,-4961.5,0.11259
16904,4.3453,3.2727,0,0.00047549,4751.6,0.0001819,-0.02067,0.00011286,-518.76,-0.00048219,-4989.7,0.10813
16905,4.4377,3.2727,0.05,1.3138e-06,13.129,1.0088e-06,7.5797,2.791e-12,3.7025e-07,-1.0088e-06,-7.5798,0.11252
16906,4.4377,3,0,0.00047329,4729.6,0.0001804,-0.020948,0.00011356,-502.25,-0.00047983,-4960.7,0.11263
16907,4.3453,3.0909,0,0.00047511,4747.8,0.00018201,-0.021582,0.0001123,-523.79,-0.00048185,-4988,0.1082
16908,4.4377,3.0909,0.05,1.3126e-06,13.117,1.0079e-06,7.5732,9.4247e-13,2.5718e-07,-1.0079e-06,-7.5732,0.11259
16909,4.4377,2.8182,0,0.00047347,4731.4,0.00018035,-0.020508,0.00011382,-499.85,-0.00047999,-4961.5,0.11259
16910,4.3453,2.9091,0,0.00047511,4747.8,0.00018201,-0.021582,0.0001123,-523.79,-0.00048185,-4988,0.1082
16911,4.4377,2.9091,0.05,1.3126e-06,13.117,1.0079e-06,7.5732,8.7532e-13,-2.5106e-07,-1.0079e-06,-7.5732,0.11259
16912,4.4377,2.6364,0,0.00047402,4736.9,0.00018019,-0.019182,0.00011463,-492.66,-0.00048047,-4964,0.11248
16913,4.3453,2.7273,0,0.00047549,4751.6,0.0001819,-0.02067,0.00011286,-518.76,-0.00048219,-4989.7,0.10813
16914,4.4377,2.7273,0.05,1.3138e-06,13.129,1.0088e-06,7.5797,2.5953e-12,-1.0892e-06,-1.0088e-06,-7.5798,0.11252
16915,4.4377,2.4545,0,0.00047492,4746,0.00017993,-0.016948,0.00011595,-480.77,-0.00048127,-4968.1,0.11229
16916,4.3453,2.5455,0,0.00047624,4759.2,0.00018168,-0.018831,0.00011398,-508.76,-0.00048285,-4993.1,0.10798
16917,4.4377,2.5455,0.05,1.316e-06,13.15,1.0105e-06,7.5924,2.4545e-12,-2.3013e-06,-1.0105e-06,-7.5925,0.11237
16918,4.4377,2.2727,0,0.00047618,4758.5,0.00017958,-0.013768,0.00011778,-464.3,-0.00048238,-4973.7,0.11203
16919,4.3453,2.3636,0,0.00047737,4770.4,0.00018136,-0.016031,0.00011563,-493.89,-0.00048385,-4998.1,0.10775
16920,4.4377,2.3636,0.05,1.3191e-06,13.182,1.0129e-06,7.6104,3.8324e-13,-1.4814e-06,-1.0129e-06,-7.6104,0.11214
16921,4.4377,2.0909,0,0.00047778,4774.5,0.00017912,-0.0095849,0.0001201,-443.47,-0.00048378,-4980.8,0.11168
16922,4.3453,2.1818,0,0.00047885,4785.2,0.00018093,-0.012216,0.0001178,-474.34,-0.00048515,-5004.7,0.10745
16923,4.4377,2.1818,0.05,1.3229e-06,13.22,1.0158e-06,7.6323,1.9913e-12,-5.0596e-06,-1.0158e-06,-7.6324,0.11184
16924,4.4377,1.9091,0,0.00047971,4793.8,0.00017858,-0.0043152,0.00012289,-418.48,-0.00048546,-4989.3,0.11126
16925,4.3453,2,0,0.00048068,4803.5,0.00018041,-0.0073094,0.00012047,-450.32,-0.00048676,-5012.8,0.10707
16926,4.4377,2,0.05,1.3271e-06,13.262,1.0191e-06,7.6568,1.477e-12,1.5942e-06,-1.0191e-06,-7.6568,0.11145
16927,4.4377,1.7273,0,0.00048195,4816.2,0.00017795,0.002159,0.0001261,-389.63,-0.0004874,-4999.2,0.11076
16928,4.3453,1.8182,0,0.00048285,4825.1,0.00017979,-0.0012013,0.00012361,-422.11,-0.00048864,-5022.3,0.10662
16929,4.4377,1.8182,0.05,1.3315e-06,13.306,1.0224e-06,7.6819,2.9522e-13,-7.9393e-06,-1.0224e-06,-7.682,0.11099
16930,4.4377,1.5455,0,0.00048448,4841.5,0.00017725,0.010037,0.0001297,-357.24,-0.00048957,-5010.2,0.11017
16931,4.3453,1.6364,0,0.00048532,4849.9,0.00017909,0.0062617,0.00012718,-390.01,-0.00049078,-5033.1,0.10608
16932,4.4377,1.6364,0.05,1.3356e-06,13.347,1.0256e-06,7.7057,-1.5802e-12,-2.0071e-05,-1.0256e-06,-7.7059,0.11045
16933,4.4377,1.3636,0,0.00048728,4869.5,0.00017647,0.019565,0.00013366,-321.65,-0.00049196,-5022.3,0.1095
16934,4.3453,1.4545,0,0.0004881,4877.6,0.00017831,0.015365,0.00013114,-354.39,-0.00049316,-5045.1,0.10545
16935,4.4377,1.4545,0.05,1.3392e-06,13.382,1.0283e-06,7.7262,1.4013e-12,-1.87e-05,-1.0283e-06,-7.7263,0.10982
16936,4.4377,1.1818,0,0.00049033,4899.9,0.00017564,0.031449,0.00013794,-283.24,-0.00049453,-5035.3,0.10874
16937,4.3453,1.2727,0,0.00049113,4907.9,0.00017746,0.026371,0.00013545,-315.64,-0.00049574,-5058.1,0.10474
16938,4.4377,1.2727,0.05,1.3418e-06,13.408,1.0303e-06,7.7413,1.0097e-12,-2.238e-05,-1.0303e-06,-7.7414,0.1091
16939,4.4377,1,0,0.00049358,4932.4,0.00017475,0.045801,0.00014248,-242.42,-0.00049726,-5049.1,0.10789
16940,4.3453,1.0909,0,0.00049441,4940.7,0.00017655,0.040556,0.00014006,-274.16,-0.0004985,-5072.1,0.10394
16941,4.4377,1.0909,0.05,1.3432e-06,13.422,1.0314e-06,7.7494,1.4074e-12,-1.2971e-05,-1.0314e-06,-7.7494,0.1083
16942,4.4377,0.81818,0,0.00049703,4966.8,0.00017381,0.067878,0.00014724,-199.58,-0.00050012,-5063.6,0.10695
16943,4.3453,0.90909,0,0.0004979,4975.5,0.00017559,0.05702,0.00014492,-230.38,-0.00050142,-5086.7,0.10305
16944,4.4377,0.90909,0.05,1.3431e-06,13.421,1.0313e-06,7.7487,-1.7756e-12,-2.775e-05,-1.0313e-06,-7.7488,0.1074
16945,4.4377,0.63636,0,0.00050062,5002.8,0.00017284,0.087953,0.00015218,-155.15,-0.00050308,-5078.5,0.1059
16946,4.3453,0.72727,0,0.00050156,5012.2,0.00017459,0.087994,0.00014999,-184.75,-0.00050445,-5101.9,0.10207
16947,4.4377,0.72727,0.05,1.3413e-06,13.404,1.03e-06,7.7387,1.1715e-12,-2.8384e-05,-1.03e-06,-7.7388,0.10641
16948,4.4377,0.45455,0,0.00050435,5040,0.00017184,0.19454,0.00015725,-109.45,-0.00050612,-5093.8,0.10476
16949,4.3453,0.54545,0,0.00050537,5050.3,0.00017356,0.10227,0.00015522,-137.68,-0.00050757,-5117.6,0.10098
16950,4.4377,0.54545,0.05,1.3391e-06,13.382,1.0283e-06,7.7261,-7.5923e-13,-1.6324e-05,-1.0283e-06,-7.7261,0.10531
16951,4.4377,0.27273,0,0.00050821,5078.6,0.00017083,0.28772,0.00016245,-62.632,-0.00050924,-5109.4,0.10352
16952,4.3453,0.36364,0,0.00050931,5089.6,0.00017251,0.32114,0.00016056,-89.47,-0.00051076,-5133.5,0.099792
16953,4.4377,0.36364,0.05,1.353e-06,13.521,1.039e-06,7.8063,-9.0068e-13,-2.9901e-05,-1.039e-06,-7.8064,0.10412
16954,4.3453,0.18182,0,0.0005134,5130.4,0.00017144,0.39833,0.00016604,-40.197,-0.00051406,-5150.2,0.098498
16955,4.4377,0.18182,0.05,1.6742e-06,16.73,1.2856e-06,9.6592,2.3472e-13,-2.179e-05,-1.2856e-06,-9.6593,0.10282
16956,4.4377,0.090909,0,0.00051159,5112.4,0.00016987,0.25054,0.00016708,-20.738,-0.00051193,-5122.6,0.10216
16957,4.2528,5.7273,0,0.0005145,5141.4,0.00017311,0.32165,0.00016417,-66.869,-0.0005156,-5174.4,0.094887
16958,4.1604,5.8182,0,0.00051989,5195.3,0.0001737,0.45921,0.00016799,-42.395,-0.00052059,-5216.1,0.090049
16959,4.2528,5.8182,0.05,1.8108e-06,18.096,1.3905e-06,10.447,3.4568e-13,7.8666e-07,-1.3905e-06,-10.447,0.094196
16960,4.2528,5.9091,0,0.0005181,5177.4,0.00017208,0.2706,0.00016913,-21.848,-0.00051846,-5188.1,0.093544
16961,4.2528,5.5455,0,0.00051033,5099.8,0.00017422,0.21378,0.00015853,-117.64,-0.00051222,-5157.5,0.096121
16962,4.1604,5.6364,0,0.00051546,5151,0.00017485,0.35261,0.00016205,-95.841,-0.00051701,-5198.1,0.091331
16963,4.2528,5.6364,0.05,1.3965e-06,13.955,1.0723e-06,8.057,4.0398e-13,6.9578e-07,-1.0723e-06,-8.057,0.095485
16964,4.2528,5.3636,0,0.00050631,5059.6,0.00017531,0.097029,0.00015304,-167.23,-0.00050895,-5141.1,0.097252
16965,4.1604,5.4545,0,0.00051121,5108.6,0.00017599,0.11321,0.00015627,-148.12,-0.00051357,-5181,0.092506
16966,4.2528,5.4545,0.05,1.3779e-06,13.77,1.0581e-06,7.9498,-1.5542e-12,1.6917e-06,-1.0581e-06,-7.9498,0.096667
16967,4.2528,5.1818,0,0.00050243,5020.9,0.00017637,0.074668,0.00014768,-215.49,-0.00050575,-5125.1,0.098281
16968,4.1604,5.2727,0,0.00050711,5067.6,0.00017712,0.096818,0.0001506,-199.22,-0.0005102,-5164.2,0.093579
16969,4.2528,5.2727,0.05,1.3803e-06,13.794,1.0599e-06,7.9638,3.9549e-13,-1.6892e-15,-1.0599e-06,-7.9638,0.097747
16970,4.2528,5,0,0.00049873,4983.8,0.00017739,0.050386,0.00014251,-262.08,-0.00050267,-5109.7,0.099213
16971,4.1604,5.0909,0,0.00050316,5028.1,0.00017822,0.062771,0.0001451,-248.83,-0.00050693,-5147.9,0.094552
16972,4.2528,5.0909,0.05,1.3824e-06,13.815,1.0615e-06,7.9758,1.9247e-13,4.6906e-06,-1.0615e-06,-7.9758,0.098728
16973,4.2528,4.8182,0,0.00049522,4948.8,0.00017837,0.034595,0.00013757,-306.51,-0.00049972,-5094.9,0.10005
16974,4.1604,4.9091,0,0.00049941,4990.6,0.00017927,0.044617,0.00013981,-296.46,-0.00050379,-5132.2,0.09543
16975,4.2528,4.9091,0.05,1.3827e-06,13.817,1.0617e-06,7.9773,-1.3533e-12,-9.7945e-06,-1.0617e-06,-7.9774,0.099613
16976,4.2528,4.6364,0,0.00049195,4916.1,0.00017929,0.021558,0.00013293,-348.35,-0.00049694,-5081,0.1008
16977,4.1604,4.7273,0,0.00049588,4955.4,0.00018027,0.02904,0.0001348,-341.64,-0.00050081,-5117.4,0.096216
16978,4.2528,4.7273,0.05,1.3812e-06,13.803,1.0606e-06,7.969,-1.0051e-12,5.948e-06,-1.0606e-06,-7.969,0.10041
16979,4.2528,4.4545,0,0.00048894,4886,0.00018015,0.011134,0.00012862,-387.14,-0.00049437,-5068,0.10146
16980,4.1604,4.5455,0,0.00049262,4922.8,0.00018121,0.016984,0.00013012,-383.87,-0.00049802,-5103.5,0.096913
16981,4.2528,4.5455,0.05,1.3784e-06,13.774,1.0584e-06,7.9524,3.3385e-13,4.2008e-06,-1.0584e-06,-7.9524,0.10111
16982,4.2528,4.2727,0,0.00048622,4858.8,0.00018092,0.0025431,0.0001247,-422.47,-0.00049202,-5056.3,0.10204
16983,4.1604,4.3636,0,0.00048965,4893.1,0.00018207,0.0070485,0.00012581,-422.71,-0.00049546,-5090.7,0.097525
16984,4.2528,4.3636,0.05,1.3744e-06,13.735,1.0554e-06,7.9298,4.6357e-13,-4.8897e-06,-1.0554e-06,-7.9298,0.10173
16985,4.2528,4.0909,0,0.00048382,4834.8,0.00018162,-0.0044901,0.0001212,-453.94,-0.00048994,-5045.8,0.10253
16986,4.1604,4.1818,0,0.00048699,4866.5,0.00018284,-0.0010638,0.00012193,-457.71,-0.00049316,-5079.2,0.098054
16987,4.2528,4.1818,0.05,1.3698e-06,13.689,1.0519e-06,7.9034,1.1354e-12,2.348e-06,-1.0519e-06,-7.9034,0.10226
16988,4.2528,3.9091,0,0.00048175,4814.2,0.00018222,-0.010192,0.00011817,-481.2,-0.00048813,-5036.7,0.10294
16989,4.1604,4,0,0.00048467,4843.4,0.00018353,-0.0076732,0.00011851,-488.49,-0.00049113,-5069.1,0.098502
16990,4.2528,4,0.05,1.365e-06,13.641,1.0481e-06,7.8754,2.2388e-12,2.0665e-06,-1.0482e-06,-7.8754,0.10272
16991,4.2528,3.7273,0,0.00048003,4797,0.00018272,-0.014701,0.00011565,-503.95,-0.00048662,-5029.1,0.10328
16992,4.1604,3.8182,0,0.00048271,4823.8,0.00018411,-0.012958,0.00011561,-514.69,-0.0004894,-5060.5,0.098873
16993,4.2528,3.8182,0.05,1.3603e-06,13.593,1.0445e-06,7.8482,8.1875e-13,2.1866e-06,-1.0445e-06,-7.8482,0.10309
16994,4.2528,3.5455,0,0.00047869,4783.6,0.00018311,-0.018116,0.00011365,-521.91,-0.00048542,-5023.1,0.10354
16995,4.1604,3.6364,0,0.00048113,4808,0.00018458,-0.01705,0.00011324,-536.02,-0.000488,-5053.5,0.099166
16996,4.2528,3.6364,0.05,1.3561e-06,13.551,1.0413e-06,7.8238,1.0429e-12,1.749e-06,-1.0413e-06,-7.8238,0.10339
16997,4.2528,3.3636,0,0.00047772,4773.9,0.0001834,-0.020509,0.00011221,-534.89,-0.00048456,-5018.8,0.10372
16998,4.1604,3.4545,0,0.00047993,4796,0.00018494,-0.020041,0.00011144,-552.24,-0.00048693,-5048.2,0.099386
16999,4.2528,3.4545,0.05,1.3526e-06,13.517,1.0386e-06,7.8038,1.754e-12,1.0211e-06,-1.0386e-06,-7.8038,0.10361
17000,4.2528,3.1818,0,0.00047713,4768,0.00018357,-0.021926,0.00011134,-542.74,-0.00048404,-5016.2,0.10383
17001,4.1604,3.2727,0,0.00047913,4788,0.00018518,-0.022001,0.00011023,-563.15,-0.00048621,-5044.6,0.099531
17002,4.2528,3.2727,0.05,1.3502e-06,13.492,1.0368e-06,7.7898,1.918e-12,8.1593e-07,-1.0368e-06,-7.7898,0.10376
17003,4.2528,3,0,0.00047694,4766.1,0.00018363,-0.022396,0.00011105,-545.36,-0.00048387,-5015.3,0.10387
17004,4.1604,3.0909,0,0.00047872,4783.9,0.0001853,-0.02297,0.00010963,-568.64,-0.00048585,-5042.8,0.099604
17005,4.2528,3.0909,0.05,1.3489e-06,13.48,1.0358e-06,7.7825,9.4186e-13,2.7398e-07,-1.0358e-06,-7.7825,0.10383
17006,4.2528,2.8182,0,0.00047713,4768,0.00018357,-0.021926,0.00011134,-542.74,-0.00048404,-5016.2,0.10383
17007,4.1604,2.9091,0,0.00047872,4783.9,0.0001853,-0.02297,0.00010963,-568.64,-0.00048585,-5042.8,0.099604
17008,4.2528,2.9091,0.05,1.3489e-06,13.48,1.0358e-06,7.7825,8.7032e-13,-2.6093e-07,-1.0358e-06,-7.7825,0.10383
17009,4.2528,2.6364,0,0.00047772,4773.9,0.0001834,-0.020509,0.00011221,-534.89,-0.00048456,-5018.8,0.10372
17010,4.1604,2.7273,0,0.00047913,4788,0.00018518,-0.022,0.00011023,-563.15,-0.00048621,-5044.6,0.099531
17011,4.2528,2.7273,0.05,1.3502e-06,13.492,1.0368e-06,7.7898,1.6957e-12,-7.7707e-07,-1.0368e-06,-7.7898,0.10376
17012,4.2528,2.4545,0,0.00047869,4783.6,0.00018311,-0.018116,0.00011365,-521.91,-0.00048542,-5023.1,0.10354
17013,4.1604,2.5455,0,0.00047993,4796,0.00018494,-0.020041,0.00011144,-552.24,-0.00048693,-5048.2,0.099386
17014,4.2528,2.5455,0.05,1.3526e-06,13.517,1.0386e-06,7.8038,1.3377e-12,-1.1488e-06,-1.0386e-06,-7.8038,0.10361
17015,4.2528,2.2727,0,0.00048003,4797,0.00018272,-0.014701,0.00011565,-503.95,-0.00048662,-5029.1,0.10328
17016,4.1604,2.3636,0,0.00048113,4808,0.00018458,-0.01705,0.00011324,-536.02,-0.000488,-5053.5,0.099166
17017,4.2528,2.3636,0.05,1.3561e-06,13.551,1.0413e-06,7.8238,4.5746e-13,-2.0988e-06,-1.0413e-06,-7.8238,0.10339
17018,4.2528,2.0909,0,0.00048175,4814.2,0.00018222,-0.010192,0.00011817,-481.2,-0.00048813,-5036.7,0.10294
17019,4.1604,2.1818,0,0.00048271,4823.8,0.00018411,-0.012958,0.00011561,-514.69,-0.0004894,-5060.5,0.098873
17020,4.2528,2.1818,0.05,1.3603e-06,13.593,1.0445e-06,7.8482,1.9317e-13,-2.1866e-06,-1.0445e-06,-7.8482,0.10309
17021,4.2528,1.9091,0,0.00048382,4834.8,0.00018162,-0.0044896,0.0001212,-453.94,-0.00048994,-5045.8,0.10253
17022,4.1604,2,0,0.00048467,4843.4,0.00018353,-0.0076729,0.00011851,-488.49,-0.00049113,-5069.1,0.098502
17023,4.2528,2,0.05,1.365e-06,13.641,1.0482e-06,7.8754,2.5215e-12,-2.0665e-06,-1.0482e-06,-7.8754,0.10272
17024,4.2528,1.7273,0,0.00048622,4858.8,0.00018092,0.0025436,0.0001247,-422.47,-0.00049202,-5056.3,0.10204
17025,4.1604,1.8182,0,0.00048699,4866.5,0.00018284,-0.0010632,0.00012193,-457.71,-0.00049316,-5079.2,0.098054
17026,4.2528,1.8182,0.05,1.3698e-06,13.689,1.0519e-06,7.9033,5.7564e-13,-1.5279e-05,-1.0519e-06,-7.9034,0.10226
17027,4.2528,1.5455,0,0.00048894,4886,0.00018015,0.011134,0.00012862,-387.14,-0.00049437,-5068,0.10146
17028,4.1604,1.6364,0,0.00048965,4893.1,0.00018207,0.0070489,0.00012581,-422.71,-0.00049546,-5090.7,0.097525
17029,4.2528,1.6364,0.05,1.3744e-06,13.735,1.0554e-06,7.9298,7.514e-13,-1.0723e-05,-1.0554e-06,-7.9298,0.10173
17030,4.2528,1.3636,0,0.00049195,4916.1,0.00017929,0.021559,0.00013293,-348.35,-0.00049694,-5081,0.1008
17031,4.1604,1.4545,0,0.00049262,4922.8,0.00018121,0.016985,0.00013012,-383.87,-0.00049802,-5103.5,0.096913
17032,4.2528,1.4545,0.05,1.3784e-06,13.774,1.0584e-06,7.9524,-9.7546e-13,-9.7961e-06,-1.0584e-06,-7.9525,0.10111
17033,4.2528,1.1818,0,0.00049522,4948.8,0.00017837,0.034595,0.00013757,-306.51,-0.00049972,-5094.9,0.10005
17034,4.1604,1.2727,0,0.00049588,4955.4,0.00018027,0.029041,0.0001348,-341.64,-0.00050081,-5117.4,0.096216
17035,4.2528,1.2727,0.05,1.3812e-06,13.803,1.0606e-06,7.969,-2.8966e-12,-2.974e-06,-1.0606e-06,-7.969,0.10041
17036,4.2528,1,0,0.00049873,4983.8,0.00017739,0.050387,0.00014251,-262.08,-0.00050267,-5109.7,0.099213
17037,4.1604,1.0909,0,0.00049941,4990.6,0.00017927,0.044617,0.00013981,-296.46,-0.00050379,-5132.2,0.09543
17038,4.2528,1.0909,0.05,1.3827e-06,13.817,1.0617e-06,7.9773,-2.905e-13,-3.7281e-05,-1.0617e-06,-7.9774,0.099613
17039,4.2528,0.81818,0,0.00050243,5020.9,0.00017637,0.074669,0.00014768,-215.49,-0.00050575,-5125.1,0.098281
17040,4.1604,0.90909,0,0.00050316,5028.1,0.00017822,0.062772,0.0001451,-248.83,-0.00050693,-5147.9,0.094552
17041,4.2528,0.90909,0.05,1.3824e-06,13.815,1.0615e-06,7.9758,2.2874e-12,-3.177e-05,-1.0615e-06,-7.9759,0.098728
17042,4.2528,0.63636,0,0.00050631,5059.6,0.00017531,0.097029,0.00015304,-167.23,-0.00050895,-5141.1,0.097252
17043,4.1604,0.72727,0,0.00050711,5067.6,0.00017712,0.096819,0.0001506,-199.22,-0.0005102,-5164.2,0.093579
17044,4.2528,0.72727,0.05,1.3803e-06,13.794,1.0599e-06,7.9638,1.8376e-12,-2.3436e-07,-1.0599e-06,-7.9638,0.097747
17045,4.2528,0.45455,0,0.00051033,5099.8,0.00017422,0.21378,0.00015853,-117.64,-0.00051222,-5157.5,0.096121
17046,4.1604,0.54545,0,0.00051121,5108.6,0.00017599,0.11321,0.00015627,-148.12,-0.00051357,-5181,0.092506
17047,4.2528,0.54545,0.05,1.3779e-06,13.77,1.0581e-06,7.9498,-2.9889e-12,-3.6226e-05,-1.0581e-06,-7.9499,0.096667
17048,4.2528,0.27273,0,0.0005145,5141.4,0.00017311,0.32165,0.00016417,-66.869,-0.0005156,-5174.4,0.094887
17049,4.1604,0.36364,0,0.00051546,5151,0.00017485,0.35261,0.00016205,-95.841,-0.00051701,-5198.1,0.091331
17050,4.2528,0.36364,0.05,1.3965e-06,13.955,1.0723e-06,8.057,6.8659e-13,-3.2315e-05,-1.0723e-06,-8.057,0.095485
17051,4.1604,0.18182,0,0.00051989,5195.3,0.0001737,0.45922,0.00016799,-42.395,-0.00052059,-5216.1,0.090049
17052,4.2528,0.18182,0.05,1.8108e-06,18.096,1.3905e-06,10.447,4.5246e-13,-2.1378e-05,-1.3905e-06,-10.448,0.094196
17053,4.2528,0.090909,0,0.0005181,5177.4,0.00017208,0.2706,0.00016913,-21.848,-0.00051846,-5188.1,0.093544
17054,4.0679,5.7273,0,0.00052084,5204.8,0.00017542,0.36047,0.0001659,-71.173,-0.00052201,-5239.9,0.086609
17055,3.9755,5.8182,0,0.00052644,5260.8,0.00017597,0.53271,0.00016998,-44.463,-0.00052718,-5282.6,0.081955
17056,4.0679,5.8182,0.05,1.9568e-06,19.554,1.5025e-06,11.29,1.6716e-12,1.4538e-06,-1.5025e-06,-11.29,0.085924
17057,4.0679,5.9091,0,0.00052466,5243,0.00017429,0.29293,0.00017121,-22.861,-0.00052504,-5254.2,0.085278
17058,4.0679,5.5455,0,0.00051634,5159.8,0.00017663,0.23505,0.00015979,-126.25,-0.00051837,-5221.7,0.08783
17059,3.9755,5.6364,0,0.00052164,5212.8,0.00017722,0.38746,0.00016354,-102.45,-0.0005233,-5263.1,0.083223
17060,4.0679,5.6364,0.05,1.4433e-06,14.423,1.1083e-06,8.327,2.0814e-13,-1.7663e-15,-1.1083e-06,-8.327,0.0872
17061,4.0679,5.3636,0,0.00051201,5116.6,0.00017781,0.10711,0.00015383,-180.05,-0.00051483,-5204.2,0.088946
17062,3.9755,5.4545,0,0.00051707,5167.1,0.00017847,0.12543,0.00015727,-159.15,-0.00051959,-5244.8,0.084384
17063,4.0679,5.4545,0.05,1.4201e-06,14.192,1.0905e-06,8.1935,1.2735e-12,4.8312e-06,-1.0905e-06,-8.1935,0.088369
17064,4.0679,5.1818,0,0.00050783,5074.8,0.00017898,0.082176,0.00014802,-232.49,-0.00051139,-5187,0.089961
17065,3.9755,5.2727,0,0.00051265,5123,0.0001797,0.10659,0.00015112,-214.63,-0.00051596,-5226.8,0.085441
17066,4.0679,5.2727,0.05,1.423e-06,14.22,1.0927e-06,8.21,2.0482e-13,1.7182e-06,-1.0927e-06,-8.21,0.089434
17067,4.0679,5,0,0.00050384,5034.9,0.0001801,0.055458,0.00014241,-283.16,-0.00050806,-5170.5,0.090879
17068,3.9755,5.0909,0,0.0005084,5080.5,0.00018091,0.06914,0.00014515,-268.57,-0.00051244,-5209.4,0.086399
17069,4.0679,5.0909,0.05,1.4256e-06,14.247,1.0947e-06,8.2252,1.9989e-13,6.7073e-06,-1.0947e-06,-8.2252,0.0904
17070,4.0679,4.8182,0,0.00050007,4997.3,0.00018118,0.038082,0.00013705,-331.54,-0.00050488,-5154.8,0.091703
17071,3.9755,4.9091,0,0.00050437,5040.2,0.00018206,0.049114,0.00013941,-320.42,-0.00050905,-5192.7,0.087261
17072,4.0679,4.9091,0.05,1.4262e-06,14.252,1.0951e-06,8.2284,1.9343e-13,-1.4476e-05,-1.0951e-06,-8.2285,0.091271
17073,4.0679,4.6364,0,0.00049656,4962.1,0.00018219,0.023785,0.000132,-377.12,-0.00050189,-5139.9,0.092437
17074,3.9755,4.7273,0,0.00050058,5002.4,0.00018317,0.03201,0.00013397,-369.62,-0.00050584,-5176.9,0.088032
17075,4.0679,4.7273,0.05,1.4248e-06,14.238,1.0941e-06,8.2203,5.5553e-13,-1.7437e-15,-1.0941e-06,-8.2203,0.09205
17076,4.0679,4.4545,0,0.00049333,4929.9,0.00018313,0.012392,0.00012731,-419.41,-0.00049912,-5126.2,0.093084
17077,3.9755,4.5455,0,0.00049708,4967.4,0.0001842,0.018813,0.00012887,-415.65,-0.00050285,-5162.2,0.088715
17078,4.0679,4.5455,0.05,1.4218e-06,14.208,1.0917e-06,8.2028,5.2468e-13,-8.082e-06,-1.0917e-06,-8.2029,0.09274
17079,4.0679,4.2727,0,0.00049042,4900.8,0.00018399,0.0030436,0.00012304,-457.93,-0.0004966,-5113.7,0.093648
17080,3.9755,4.3636,0,0.0004939,4935.6,0.00018515,0.007987,0.00012419,-457.99,-0.00050009,-5148.6,0.089313
17081,4.0679,4.3636,0.05,1.4175e-06,14.165,1.0885e-06,8.1783,3.5795e-12,-7.7917e-06,-1.0885e-06,-8.1784,0.093345
17082,4.0679,4.0909,0,0.00048785,4875.1,0.00018476,-0.0045739,0.00011924,-492.25,-0.00049435,-5102.5,0.094131
17083,3.9755,4.1818,0,0.00049106,4907.2,0.000186,-0.00080627,0.00011997,-496.16,-0.00049762,-5136.5,0.08983
17084,4.0679,4.1818,0.05,1.4125e-06,14.115,1.0846e-06,8.1495,2.1916e-12,-3.576e-06,-1.0846e-06,-8.1495,0.093868
17085,4.0679,3.9091,0,0.00048564,4853,0.00018542,-0.010719,0.00011595,-521.99,-0.00049241,-5092.9,0.094535
17086,3.9755,4,0,0.00048859,4882.5,0.00018676,-0.0079296,0.00011626,-529.73,-0.00049544,-5125.8,0.090267
17087,4.0679,4,0.05,1.4072e-06,14.062,1.0806e-06,8.1189,3.9025e-13,2.7281e-06,-1.0806e-06,-8.1189,0.094312
17088,4.0679,3.7273,0,0.00048381,4834.7,0.00018597,-0.015554,0.0001132,-546.8,-0.00049078,-5084.9,0.094863
17089,3.9755,3.8182,0,0.0004865,4861.7,0.0001874,-0.013592,0.0001131,-558.3,-0.00049359,-5116.7,0.090628
17090,4.0679,3.8182,0.05,1.402e-06,14.011,1.0766e-06,8.0891,-1.8124e-13,1.8512e-06,-1.0766e-06,-8.0891,0.094677
17091,4.0679,3.5455,0,0.00048237,4820.4,0.00018641,-0.019199,0.00011103,-566.39,-0.0004895,-5078.6,0.095116
17092,3.9755,3.6364,0,0.00048482,4844.8,0.00018793,-0.017953,0.00011053,-581.56,-0.00049208,-5109.4,0.090914
17093,4.0679,3.6364,0.05,1.3974e-06,13.965,1.073e-06,8.0624,2.0126e-12,1.4832e-06,-1.073e-06,-8.0624,0.094968
17094,4.0679,3.3636,0,0.00048134,4810.1,0.00018673,-0.021743,0.00010946,-580.55,-0.00048858,-5074,0.095296
17095,3.9755,3.4545,0,0.00048354,4832.1,0.00018833,-0.021125,0.00010858,-599.23,-0.00049094,-5103.8,0.091127
17096,4.0679,3.4545,0.05,1.3936e-06,13.927,1.0701e-06,8.0407,1.0846e-12,1.3548e-06,-1.0701e-06,-8.0407,0.095184
17097,4.0679,3.1818,0,0.00048072,4803.9,0.00018692,-0.023247,0.00010852,-589.1,-0.00048802,-5071.3,0.095403
17098,3.9755,3.2727,0,0.00048269,4823.6,0.0001886,-0.023195,0.00010726,-611.13,-0.00049017,-5100,0.091269
17099,4.0679,3.2727,0.05,1.391e-06,13.9,1.0681e-06,8.0253,1.0207e-12,5.2981e-07,-1.0681e-06,-8.0254,0.095327
17100,4.0679,3,0,0.00048051,4801.8,0.00018698,-0.023744,0.0001082,-591.97,-0.00048783,-5070.3,0.095439
17101,3.9755,3.0909,0,0.00048226,4819.3,0.00018873,-0.024216,0.0001066,-617.11,-0.00048979,-5098.1,0.091339
17102,4.0679,3.0909,0.05,1.3896e-06,13.887,1.0671e-06,8.0174,2.7628e-12,2.7732e-07,-1.0671e-06,-8.0174,0.095399
17103,4.0679,2.8182,0,0.00048072,4803.9,0.00018692,-0.023247,0.00010852,-589.1,-0.00048802,-5071.3,0.095403
17104,3.9755,2.9091,0,0.00048226,4819.3,0.00018873,-0.024216,0.0001066,-617.11,-0.00048979,-5098.1,0.091339
17105,4.0679,2.9091,0.05,1.3896e-06,13.887,1.0671e-06,8.0174,2.6834e-12,-2.9119e-07,-1.0671e-06,-8.0174,0.095399
17106,4.0679,2.6364,0,0.00048134,4810.1,0.00018673,-0.021743,0.00010946,-580.55,-0.00048858,-5074,0.095296
17107,3.9755,2.7273,0,0.00048269,4823.6,0.0001886,-0.023195,0.00010726,-611.13,-0.00049017,-5100,0.091269
17108,4.0679,2.7273,0.05,1.391e-06,13.9,1.0681e-06,8.0253,7.8454e-13,6.368e-06,-1.0681e-06,-8.0254,0.095327
17109,4.0679,2.4545,0,0.00048237,4820.4,0.00018641,-0.019199,0.00011103,-566.39,-0.0004895,-5078.6,0.095116
17110,3.9755,2.5455,0,0.00048354,4832.1,0.00018833,-0.021125,0.00010858,-599.23,-0.00049094,-5103.8,0.091127
17111,4.0679,2.5455,0.05,1.3936e-06,13.927,1.0701e-06,8.0407,1.4378e-12,-1.2193e-06,-1.0701e-06,-8.0407,0.095184
17112,4.0679,2.2727,0,0.00048381,4834.7,0.00018597,-0.015553,0.0001132,-546.8,-0.00049078,-5084.9,0.094863
17113,3.9755,2.3636,0,0.00048482,4844.8,0.00018793,-0.017952,0.00011053,-581.56,-0.00049208,-5109.4,0.090914
17114,4.0679,2.3636,0.05,1.3974e-06,13.965,1.073e-06,8.0624,2.3559e-12,-6.6567e-06,-1.073e-06,-8.0625,0.094968
17115,4.0679,2.0909,0,0.00048564,4853,0.00018542,-0.010718,0.00011595,-521.99,-0.00049241,-5092.9,0.094535
17116,3.9755,2.1818,0,0.0004865,4861.7,0.0001874,-0.013592,0.0001131,-558.3,-0.00049359,-5116.7,0.090628
17117,4.0679,2.1818,0.05,1.402e-06,14.011,1.0766e-06,8.0891,1.194e-13,-2.314e-06,-1.0766e-06,-8.0891,0.094677
17118,4.0679,1.9091,0,0.00048785,4875.1,0.00018476,-0.0045735,0.00011924,-492.25,-0.00049435,-5102.5,0.094131
17119,3.9755,2,0,0.00048859,4882.5,0.00018676,-0.0079293,0.00011626,-529.73,-0.00049544,-5125.8,0.090267
17120,4.0679,2,0.05,1.4072e-06,14.062,1.0806e-06,8.1189,1.3953e-12,-2.1825e-06,-1.0806e-06,-8.1189,0.094312
17121,4.0679,1.7273,0,0.00049042,4900.8,0.00018399,0.0030442,0.00012304,-457.93,-0.0004966,-5113.7,0.093648
17122,3.9755,1.8182,0,0.00049106,4907.2,0.000186,-0.00080564,0.00011997,-496.16,-0.00049762,-5136.5,0.08983
17123,4.0679,1.8182,0.05,1.4125e-06,14.115,1.0846e-06,8.1495,1.813e-12,-1.2234e-05,-1.0846e-06,-8.1495,0.093868
17124,4.0679,1.5455,0,0.00049333,4929.9,0.00018313,0.012393,0.00012731,-419.41,-0.00049912,-5126.2,0.093084
17125,3.9755,1.6364,0,0.0004939,4935.6,0.00018515,0.0079876,0.00012419,-457.99,-0.00050009,-5148.6,0.089313
17126,4.0679,1.6364,0.05,1.4175e-06,14.165,1.0885e-06,8.1783,1.5141e-12,-2.2393e-05,-1.0885e-06,-8.1784,0.093345
17127,4.0679,1.3636,0,0.00049656,4962.1,0.00018219,0.023786,0.000132,-377.12,-0.00050189,-5139.9,0.092437
17128,3.9755,1.4545,0,0.00049708,4967.4,0.0001842,0.018814,0.00012887,-415.65,-0.00050285,-5162.2,0.088715
17129,4.0679,1.4545,0.05,1.4218e-06,14.208,1.0917e-06,8.2028,-3.4724e-13,-1.395e-05,-1.0917e-06,-8.2029,0.09274
17130,4.0679,1.1818,0,0.00050007,4997.3,0.00018118,0.038082,0.00013705,-331.54,-0.00050488,-5154.8,0.091703
17131,3.9755,1.2727,0,0.00050058,5002.4,0.00018317,0.032011,0.00013397,-369.62,-0.00050584,-5176.9,0.088032
17132,4.0679,1.2727,0.05,1.4248e-06,14.238,1.0941e-06,8.2203,-1.8018e-12,-1.7469e-05,-1.0941e-06,-8.2203,0.09205
17133,4.0679,1,0,0.00050384,5034.9,0.0001801,0.055459,0.00014241,-283.16,-0.00050806,-5170.5,0.090879
17134,3.9755,1.0909,0,0.00050437,5040.2,0.00018206,0.049115,0.00013941,-320.42,-0.00050905,-5192.7,0.087261
17135,4.0679,1.0909,0.05,1.4262e-06,14.252,1.0951e-06,8.2284,1.0007e-12,-3.382e-05,-1.0951e-06,-8.2285,0.091271
17136,4.0679,0.81818,0,0.00050783,5074.8,0.00017898,0.082177,0.00014802,-232.49,-0.00051139,-5187,0.089961
17137,3.9755,0.90909,0,0.0005084,5080.5,0.00018091,0.069142,0.00014515,-268.57,-0.00051244,-5209.4,0.086399
17138,4.0679,0.90909,0.05,1.4256e-06,14.247,1.0947e-06,8.2252,-5.9968e-13,-1.5974e-05,-1.0947e-06,-8.2253,0.0904
17139,4.0679,0.63636,0,0.00051201,5116.6,0.00017781,0.10711,0.00015383,-180.05,-0.00051483,-5204.2,0.088946
17140,3.9755,0.72727,0,0.00051265,5123,0.0001797,0.10659,0.00015112,-214.63,-0.00051596,-5226.8,0.085441
17141,4.0679,0.72727,0.05,1.423e-06,14.22,1.0927e-06,8.2099,-4.731e-12,-6.9065e-05,-1.0927e-06,-8.2101,0.089434
17142,4.0679,0.45455,0,0.00051634,5159.8,0.00017663,0.23505,0.00015979,-126.25,-0.00051837,-5221.7,0.08783
17143,3.9755,0.54545,0,0.00051707,5167.1,0.00017847,0.12543,0.00015727,-159.15,-0.00051959,-5244.8,0.084384
17144,4.0679,0.54545,0.05,1.4201e-06,14.192,1.0905e-06,8.1934,3.6523e-13,-5.4908e-05,-1.0905e-06,-8.1936,0.088369
17145,4.0679,0.27273,0,0.00052084,5204.8,0.00017542,0.36047,0.0001659,-71.173,-0.00052201,-5239.9,0.086609
17146,3.9755,0.36364,0,0.00052164,5212.8,0.00017722,0.38747,0.00016354,-102.45,-0.0005233,-5263.1,0.083223
17147,4.0679,0.36364,0.05,1.4433e-06,14.423,1.1083e-06,8.327,-3.0719e-12,-1.9312e-05,-1.1083e-06,-8.327,0.0872
17148,3.9755,0.18182,0,0.00052644,5260.8,0.00017597,0.53271,0.00016998,-44.463,-0.00052718,-5282.6,0.081955
17149,4.0679,0.18182,0.05,1.9568e-06,19.554,1.5025e-06,11.29,-8.5227e-13,-1.0762e-05,-1.5026e-06,-11.29,0.085924
17150,4.0679,0.090909,0,0.00052466,5243,0.00017429,0.29294,0.00017121,-22.861,-0.00052504,-5254.2,0.085278
17151,3.883,5.7273,0,0.00052724,5268.8,0.00017775,0.40507,0.00016765,-75.513,-0.00052848,-5305.9,0.078687
17152,3.7906,5.8182,0,0.00053306,5327,0.00017825,0.62207,0.000172,-46.352,-0.00053383,-5349.7,0.074222
17153,3.883,5.8182,0.05,2.1123e-06,21.109,1.622e-06,12.187,-3.4405e-22,3.9203e-07,-1.622e-06,-12.187,0.07801
17154,3.883,5.9091,0,0.00053128,5309.1,0.00017652,0.31793,0.00017332,-23.744,-0.00053167,-5320.8,0.077371
17155,3.883,5.5455,0,0.00052237,5220.1,0.00017906,0.25863,0.00016102,-135.27,-0.00052454,-5286.3,0.079892
17156,3.7906,5.6364,0,0.00052786,5275,0.00017962,0.42614,0.00016501,-109.29,-0.00052963,-5328.5,0.075473
17157,3.883,5.6364,0.05,1.4936e-06,14.926,1.1469e-06,8.6174,-2.4328e-22,-2.0099e-05,-1.1469e-06,-8.6174,0.07927
17158,3.883,5.3636,0,0.00051771,5173.5,0.00018036,0.11832,0.00015457,-193.66,-0.00052073,-5267.6,0.080992
17159,3.7906,5.4545,0,0.00052294,5225.8,0.00018097,0.13911,0.00015822,-170.78,-0.00052563,-5309,0.076616
17160,3.883,5.4545,0.05,1.4661e-06,14.651,1.1258e-06,8.4589,2.1437e-13,-1.8548e-05,-1.1258e-06,-8.4589,0.080423
17161,3.883,5.1818,0,0.00051322,5128.6,0.00018163,0.090492,0.00014826,-250.65,-0.00051702,-5249.3,0.08199
17162,3.7906,5.2727,0,0.00051818,5178.2,0.00018233,0.11741,0.00015156,-231.05,-0.00052172,-5289.8,0.077655
17163,3.883,5.2727,0.05,1.4697e-06,14.687,1.1286e-06,8.4797,6.3384e-13,3.5447e-06,-1.1286e-06,-8.4797,0.081471
17164,3.883,5,0,0.00050893,5085.8,0.00018287,0.061078,0.00014217,-305.77,-0.00051344,-5231.7,0.082891
17165,3.7906,5.0909,0,0.00051361,5132.6,0.00018365,0.076196,0.00014508,-289.72,-0.00051793,-5271.3,0.078595
17166,3.883,5.0909,0.05,1.4732e-06,14.722,1.1312e-06,8.4996,2.068e-13,5.2042e-06,-1.1312e-06,-8.4996,0.082421
17167,3.883,4.8182,0,0.00050488,5045.3,0.00018405,0.041951,0.00013634,-358.45,-0.00051002,-5214.9,0.083699
17168,3.7906,4.9091,0,0.00050928,5089.3,0.00018492,0.054089,0.00013884,-346.16,-0.00051429,-5253.5,0.079439
17169,3.883,4.9091,0.05,1.4742e-06,14.732,1.132e-06,8.5056,6.0221e-13,3.3678e-06,-1.132e-06,-8.5056,0.083275
17170,3.883,4.6364,0,0.00050111,5007.6,0.00018517,0.02628,0.00013085,-408.12,-0.0005068,-5199.2,0.084417
17171,3.7906,4.7273,0,0.00050523,5048.8,0.00018614,0.035308,0.00013293,-399.77,-0.00051084,-5236.8,0.080193
17172,3.883,4.7273,0.05,1.473e-06,14.72,1.1311e-06,8.4986,1.5844e-12,-9.4878e-06,-1.1311e-06,-8.4986,0.084038
17173,3.883,4.4545,0,0.00049766,4973.1,0.00018621,0.013844,0.00012576,-454.22,-0.00050382,-5184.6,0.08505
17174,3.7906,4.5455,0,0.00050149,5011.4,0.00018728,0.020874,0.00012739,-449.94,-0.00050762,-5221.2,0.08086
17175,3.883,4.5455,0.05,1.4699e-06,14.689,1.1287e-06,8.4807,3.6535e-13,3.0648e-06,-1.1287e-06,-8.4807,0.084713
17176,3.883,4.2727,0,0.00049455,4942,0.00018716,0.0036942,0.00012112,-496.22,-0.00050111,-5171.4,0.0856
17177,3.7906,4.3636,0,0.00049809,4977.4,0.00018833,0.0091012,0.0001223,-496.09,-0.00050467,-5206.9,0.081443
17178,3.883,4.3636,0.05,1.4654e-06,14.644,1.1253e-06,8.4548,6.8043e-13,2.8539e-06,-1.1253e-06,-8.4548,0.085304
17179,3.883,4.0909,0,0.0004918,4914.7,0.00018801,-0.0045259,0.00011699,-533.64,-0.0004987,-5159.7,0.08607
17180,3.7906,4.1818,0,0.00049506,4947.2,0.00018928,-0.00039769,0.00011772,-537.7,-0.00050201,-5194.1,0.081945
17181,3.883,4.1818,0.05,1.4601e-06,14.591,1.1212e-06,8.4239,1.2524e-12,2.599e-06,-1.1212e-06,-8.4239,0.085813
17182,3.883,3.9091,0,0.00048945,4891.2,0.00018875,-0.011114,0.00011341,-566.06,-0.00049662,-5149.6,0.086463
17183,3.7906,4,0,0.00049244,4921,0.00019012,-0.0080373,0.00011369,-574.28,-0.00049969,-5182.9,0.08237
17184,3.883,4,0.05,1.4544e-06,14.534,1.1168e-06,8.391,2.0464e-12,-2.7147e-06,-1.1168e-06,-8.3911,0.086245
17185,3.883,3.7273,0,0.00048751,4871.8,0.00018936,-0.016266,0.00011043,-593.1,-0.00049488,-5141.2,0.086782
17186,3.7906,3.8182,0,0.00049023,4898.9,0.00019083,-0.014065,0.00011026,-605.41,-0.00049771,-5173.5,0.082721
17187,3.883,3.8182,0.05,1.4488e-06,14.478,1.1125e-06,8.359,2.04e-12,-6.6599e-06,-1.1125e-06,-8.3591,0.086601
17188,3.883,3.5455,0,0.00048599,4856.5,0.00018985,-0.020127,0.00010807,-614.45,-0.00049352,-5134.5,0.087028
17189,3.7906,3.6364,0,0.00048844,4881,0.00019141,-0.018674,0.00010747,-630.74,-0.0004961,-5165.8,0.082998
17190,3.883,3.6364,0.05,1.4439e-06,14.429,1.1087e-06,8.3304,-4.1177e-14,-7.3744e-07,-1.1087e-06,-8.3304,0.086883
17191,3.883,3.3636,0,0.00048489,4845.6,0.0001902,-0.02281,0.00010637,-629.87,-0.00049253,-5129.7,0.087203
17192,3.7906,3.4545,0,0.0004871,4867.6,0.00019186,-0.022006,0.00010535,-649.98,-0.00049489,-5160,0.083205
17193,3.883,3.4545,0.05,1.4398e-06,14.388,1.1056e-06,8.3071,2.0504e-12,1.7209e-06,-1.1056e-06,-8.3071,0.087093
17194,3.883,3.1818,0,0.00048424,4839,0.00019041,-0.024389,0.00010534,-639.2,-0.00049193,-5126.9,0.087307
17195,3.7906,3.2727,0,0.0004862,4858.6,0.00019216,-0.02417,0.00010393,-662.93,-0.00049407,-5156,0.083342
17196,3.883,3.2727,0.05,1.437e-06,14.36,1.1034e-06,8.2907,9.6518e-13,-1.6077e-07,-1.1034e-06,-8.2908,0.087232
17197,3.883,3,0,0.00048402,4836.8,0.00019048,-0.02491,0.000105,-642.32,-0.00049173,-5125.9,0.087342
17198,3.7906,3.0909,0,0.00048574,4854.1,0.00019231,-0.025235,0.00010321,-669.44,-0.00049366,-5154.1,0.08341
17199,3.883,3.0909,0.05,1.4355e-06,14.345,1.1023e-06,8.2823,1.8506e-12,3.233e-07,-1.1023e-06,-8.2823,0.087302
17200,3.883,2.8182,0,0.00048424,4839,0.00019041,-0.024389,0.00010534,-639.2,-0.00049193,-5126.9,0.087307
17201,3.7906,2.9091,0,0.00048574,4854.1,0.00019231,-0.025235,0.00010321,-669.44,-0.00049366,-5154.1,0.08341
17202,3.883,2.9091,0.05,1.4355e-06,14.345,1.1023e-06,8.2823,1.77e-12,-2.9391e-07,-1.1023e-06,-8.2823,0.087302
17203,3.883,2.6364,0,0.00048489,4845.6,0.0001902,-0.022809,0.00010637,-629.87,-0.00049253,-5129.7,0.087203
17204,3.7906,2.7273,0,0.0004862,4858.6,0.00019216,-0.02417,0.00010393,-662.93,-0.00049407,-5156,0.083342
17205,3.883,2.7273,0.05,1.437e-06,14.36,1.1034e-06,8.2907,1.6167e-12,-1.9099e-06,-1.1034e-06,-8.2908,0.087232
17206,3.883,2.4545,0,0.00048599,4856.5,0.00018985,-0.020127,0.00010807,-614.45,-0.00049352,-5134.5,0.087028
17207,3.7906,2.5455,0,0.0004871,4867.6,0.00019186,-0.022006,0.00010535,-649.98,-0.00049489,-5160,0.083205
17208,3.883,2.5455,0.05,1.4398e-06,14.388,1.1056e-06,8.3071,1.4033e-12,-1.1473e-06,-1.1056e-06,-8.3071,0.087093
17209,3.883,2.2727,0,0.00048751,4871.8,0.00018936,-0.016265,0.00011043,-593.1,-0.00049488,-5141.2,0.086782
17210,3.7906,2.3636,0,0.00048844,4881,0.00019141,-0.018674,0.00010747,-630.74,-0.0004961,-5165.8,0.082998
17211,3.883,2.3636,0.05,1.4439e-06,14.429,1.1087e-06,8.3303,2.6733e-13,-9.6607e-06,-1.1087e-06,-8.3305,0.086883
17212,3.883,2.0909,0,0.00048945,4891.2,0.00018875,-0.011114,0.00011341,-566.06,-0.00049662,-5149.6,0.086463
17213,3.7906,2.1818,0,0.00049023,4898.9,0.00019083,-0.014065,0.00011026,-605.41,-0.00049771,-5173.5,0.082721
17214,3.883,2.1818,0.05,1.4488e-06,14.478,1.1125e-06,8.359,1.7896e-12,-1.0568e-05,-1.1125e-06,-8.3591,0.086601
17215,3.883,1.9091,0,0.0004918,4914.7,0.00018801,-0.0045254,0.00011699,-533.64,-0.0004987,-5159.7,0.08607
17216,3.7906,2,0,0.00049244,4921,0.00019012,-0.0080369,0.00011369,-574.28,-0.00049969,-5182.9,0.08237
17217,3.883,2,0.05,1.4544e-06,14.534,1.1168e-06,8.391,1.0873e-12,-1.4624e-05,-1.1168e-06,-8.3911,0.086245
17218,3.883,1.7273,0,0.00049455,4942,0.00018716,0.0036948,0.00012112,-496.22,-0.00050111,-5171.4,0.0856
17219,3.7906,1.8182,0,0.00049506,4947.2,0.00018928,-0.00039715,0.00011772,-537.7,-0.00050201,-5194.1,0.081945
17220,3.883,1.8182,0.05,1.4601e-06,14.591,1.1212e-06,8.4239,1.078e-12,-2.599e-06,-1.1212e-06,-8.4239,0.085813
17221,3.883,1.5455,0,0.00049766,4973.1,0.00018621,0.013845,0.00012576,-454.22,-0.00050382,-5184.6,0.08505
17222,3.7906,1.6364,0,0.00049809,4977.4,0.00018833,0.0091019,0.0001223,-496.09,-0.00050467,-5206.9,0.081443
17223,3.883,1.6364,0.05,1.4654e-06,14.644,1.1253e-06,8.4548,-2.7883e-12,-2.8539e-06,-1.1253e-06,-8.4548,0.085304
17224,3.883,1.3636,0,0.00050111,5007.6,0.00018517,0.026281,0.00013085,-408.12,-0.0005068,-5199.2,0.084417
17225,3.7906,1.4545,0,0.00050149,5011.4,0.00018728,0.020875,0.00012739,-449.94,-0.00050762,-5221.2,0.08086
17226,3.883,1.4545,0.05,1.4699e-06,14.689,1.1287e-06,8.4807,1.0649e-12,-1.2368e-05,-1.1287e-06,-8.4807,0.084713
17227,3.883,1.1818,0,0.00050488,5045.3,0.00018405,0.041952,0.00013634,-358.45,-0.00051002,-5214.9,0.083699
17228,3.7906,1.2727,0,0.00050523,5048.8,0.00018614,0.035309,0.00013293,-399.77,-0.00051084,-5236.8,0.080193
17229,3.883,1.2727,0.05,1.473e-06,14.72,1.1311e-06,8.4985,-2.4128e-12,-6.2211e-05,-1.1311e-06,-8.4987,0.084038
17230,3.883,1,0,0.00050893,5085.8,0.00018287,0.061079,0.00014217,-305.77,-0.00051344,-5231.7,0.082891
17231,3.7906,1.0909,0,0.00050928,5089.3,0.00018492,0.05409,0.00013884,-346.16,-0.00051429,-5253.5,0.079439
17232,3.883,1.0909,0.05,1.4742e-06,14.732,1.132e-06,8.5056,1.1359e-12,-1.7868e-05,-1.132e-06,-8.5057,0.083275
17233,3.883,0.81818,0,0.00051322,5128.6,0.00018163,0.090493,0.00014826,-250.65,-0.00051702,-5249.3,0.08199
17234,3.7906,0.90909,0,0.00051361,5132.6,0.00018365,0.076197,0.00014508,-289.72,-0.00051793,-5271.3,0.078595
17235,3.883,0.90909,0.05,1.4732e-06,14.722,1.1312e-06,8.4996,1.1166e-12,-1.7832e-05,-1.1312e-06,-8.4996,0.082421
17236,3.883,0.63636,0,0.00051771,5173.5,0.00018036,0.11832,0.00015457,-193.66,-0.00052073,-5267.6,0.080992
17237,3.7906,0.72727,0,0.00051818,5178.2,0.00018233,0.11741,0.00015156,-231.05,-0.00052172,-5289.8,0.077655
17238,3.883,0.72727,0.05,1.4697e-06,14.687,1.1286e-06,8.4797,-1.3667e-14,-1.7934e-05,-1.1286e-06,-8.4797,0.081471
17239,3.883,0.45455,0,0.00052237,5220.1,0.00017906,0.25863,0.00016102,-135.27,-0.00052454,-5286.3,0.079892
17240,3.7906,0.54545,0,0.00052294,5225.8,0.00018097,0.13911,0.00015822,-170.78,-0.00052563,-5309,0.076616
17241,3.883,0.54545,0.05,1.4661e-06,14.651,1.1258e-06,8.4589,-1.8036e-16,-4.0692e-05,-1.1258e-06,-8.4589,0.080423
17242,3.883,0.27273,0,0.00052724,5268.8,0.00017775,0.40508,0.00016765,-75.513,-0.00052848,-5305.9,0.078687
17243,3.7906,0.36364,0,0.00052786,5275,0.00017962,0.42614,0.00016501,-109.29,-0.00052963,-5328.5,0.075473
17244,3.883,0.36364,0.05,1.4936e-06,14.926,1.1469e-06,8.6173,-4.7919e-12,-4.0197e-05,-1.1469e-06,-8.6174,0.07927
17245,3.7906,0.18182,0,0.00053306,5327,0.00017825,0.62208,0.000172,-46.352,-0.00053383,-5349.7,0.074222
17246,3.883,0.18182,0.05,2.1123e-06,21.109,1.622e-06,12.187,4.0295e-13,-3.2565e-05,-1.622e-06,-12.187,0.07801
17247,3.883,0.090909,0,0.00053128,5309.1,0.00017652,0.31793,0.00017332,-23.744,-0.00053167,-5320.8,0.077371
17248,3.6981,5.7273,0,0.00053368,5333.1,0.00018009,0.45655,0.00016941,-79.856,-0.00053499,-5372.4,0.071126
17249,3.6057,5.8182,0,0.00053974,5393.7,0.00018055,0.73163,0.00017406,-48.003,-0.00054053,-5417.2,0.066852
17250,3.6981,5.8182,0.05,2.2778e-06,22.762,1.749e-06,13.142,-3.71e-22,-2.7875e-15,-1.749e-06,-13.142,0.070458
17251,3.6981,5.9091,0,0.00053794,5375.7,0.00017876,0.34606,0.00017546,-24.46,-0.00053835,-5387.7,0.069828
17252,3.6981,5.5455,0,0.00052842,5280.6,0.00018152,0.28481,0.00016222,-144.71,-0.00053073,-5351.3,0.072313
17253,3.6057,5.6364,0,0.0005341,5337.3,0.00018202,0.46918,0.00016648,-116.34,-0.00053598,-5394.3,0.068084
17254,3.6981,5.6364,0.05,1.5477e-06,15.466,1.1884e-06,8.9293,-1.0385e-12,1.8335e-06,-1.1884e-06,-8.9293,0.0717
17255,3.6981,5.3636,0,0.0005234,5230.4,0.00018294,0.13081,0.00015523,-208.1,-0.00052663,-5331.3,0.073393
17256,3.6057,5.4545,0,0.0005288,5284.4,0.00018351,0.15444,0.00015912,-183.06,-0.00053167,-5373.4,0.069207
17257,3.6981,5.4545,0.05,1.5163e-06,15.152,1.1643e-06,8.7482,1.3661e-12,-2.0722e-05,-1.1643e-06,-8.7483,0.072833
17258,3.6981,5.1818,0,0.00051857,5182.2,0.00018434,0.099699,0.00014839,-270.05,-0.00052264,-5311.9,0.074372
17259,3.6057,5.2727,0,0.00052369,5233.2,0.00018499,0.12941,0.0001519,-248.55,-0.00052747,-5353,0.070225
17260,3.6981,5.2727,0.05,1.521e-06,15.2,1.168e-06,8.7757,4.3391e-13,-1.8615e-15,-1.168e-06,-8.7757,0.073863
17261,3.6981,5,0,0.00051397,5136.1,0.0001857,0.067291,0.00014177,-330.04,-0.00051879,-5293.2,0.075254
17262,3.6057,5.0909,0,0.00051878,5184.3,0.00018645,0.083997,0.00014486,-312.38,-0.00052339,-5333.3,0.071144
17263,3.6981,5.0909,0.05,1.5256e-06,15.246,1.1715e-06,8.8021,2.1303e-13,1.7871e-06,-1.1715e-06,-8.8021,0.074793
17264,3.6981,4.8182,0,0.00050963,5092.8,0.00018701,0.046229,0.00013544,-387.42,-0.00051511,-5275.4,0.076043
17265,3.6057,4.9091,0,0.00051414,5137.9,0.00018785,0.059573,0.00013809,-373.85,-0.00051948,-5314.6,0.071969
17266,3.6981,4.9091,0.05,1.5274e-06,15.263,1.1728e-06,8.8123,2.075e-13,-1.8692e-15,-1.1728e-06,-8.8123,0.075628
17267,3.6981,4.6364,0,0.0005056,5052.5,0.00018824,0.029057,0.00012947,-441.54,-0.00051166,-5258.8,0.076744
17268,3.6057,4.7273,0,0.00050981,5094.6,0.0001892,0.038948,0.00013166,-432.26,-0.00051578,-5296.9,0.072703
17269,3.6981,4.7273,0.05,1.5265e-06,15.255,1.1722e-06,8.8073,-2.4864e-22,5.0333e-06,-1.1722e-06,-8.8073,0.076372
17270,3.6981,4.4545,0,0.00050192,5015.7,0.0001894,0.015503,0.00012394,-491.79,-0.00050847,-5243.5,0.077359
17271,3.6057,4.5455,0,0.00050582,5054.7,0.00019046,0.023177,0.00012565,-486.94,-0.00051234,-5280.5,0.073351
17272,3.6981,4.5455,0.05,1.5235e-06,15.224,1.1698e-06,8.7898,-2.3551e-13,4.7856e-06,-1.1699e-06,-8.7898,0.07703
17273,3.6981,4.2727,0,0.00049861,4982.6,0.00019045,0.0045156,0.0001189,-537.56,-0.00050557,-5229.6,0.077894
17274,3.6057,4.3636,0,0.00050221,5018.6,0.00019163,0.010407,0.00012012,-537.23,-0.00050918,-5265.6,0.073917
17275,3.6981,4.3636,0.05,1.5189e-06,15.178,1.1663e-06,8.7631,1.2715e-12,2.9806e-06,-1.1663e-06,-8.7631,0.077605
17276,3.6981,4.0909,0,0.0004957,4953.6,0.00019139,-0.0043145,0.00011442,-578.34,-0.000503,-5217.3,0.07835
17277,3.6057,4.1818,0,0.000499,4986.6,0.00019268,0.00018869,0.00011515,-582.56,-0.00050635,-5252.3,0.074404
17278,3.6981,4.1818,0.05,1.5132e-06,15.122,1.162e-06,8.7307,2.8067e-12,-3.6947e-06,-1.162e-06,-8.7308,0.0781
17279,3.6981,3.9091,0,0.00049321,4928.7,0.00019221,-0.011334,0.00011053,-613.65,-0.00050077,-5206.8,0.078731
17280,3.6057,4,0,0.00049623,4958.8,0.00019361,-0.0079541,0.00011078,-622.39,-0.00050387,-5240.6,0.074815
17281,3.6981,4,0.05,1.5073e-06,15.062,1.1574e-06,8.6961,9.5076e-13,3.6206e-06,-1.1574e-06,-8.6961,0.078518
17282,3.6981,3.7273,0,0.00049116,4908.2,0.00019289,-0.016779,0.0001073,-643.09,-0.00049892,-5198,0.07904
17283,3.6057,3.8182,0,0.00049389,4935.5,0.00019441,-0.014319,0.00010707,-656.27,-0.00050177,-5230.8,0.075153
17284,3.6981,3.8182,0.05,1.5014e-06,15.004,1.1529e-06,8.6625,2.1658e-12,2.0559e-06,-1.1529e-06,-8.6625,0.078863
17285,3.6981,3.5455,0,0.00048955,4892.1,0.00019343,-0.02083,0.00010475,-666.33,-0.00049747,-5191.1,0.079277
17286,3.6057,3.6364,0,0.00049202,4916.8,0.00019505,-0.019141,0.00010405,-683.82,-0.00050007,-5222.9,0.075421
17287,3.6981,3.6364,0.05,1.4962e-06,14.952,1.1489e-06,8.6324,1.9262e-12,-6.1455e-06,-1.1489e-06,-8.6325,0.079136
17288,3.6981,3.3636,0,0.0004884,4880.6,0.00019382,-0.023626,0.0001029,-683.12,-0.00049642,-5186.2,0.079446
17289,3.6057,3.4545,0,0.00049061,4902.7,0.00019555,-0.0226,0.00010176,-704.74,-0.00049878,-5216.9,0.075621
17290,3.6981,3.4545,0.05,1.492e-06,14.91,1.1457e-06,8.6081,1.7643e-12,-3.6682e-07,-1.1457e-06,-8.6082,0.079339
17291,3.6981,3.1818,0,0.0004877,4873.7,0.00019405,-0.025266,0.00010179,-693.26,-0.00049578,-5183.2,0.079547
17292,3.6057,3.2727,0,0.00048966,4893.3,0.00019588,-0.024832,0.00010021,-718.82,-0.00049791,-5212.9,0.075753
17293,3.6981,3.2727,0.05,1.489e-06,14.88,1.1434e-06,8.5911,1.033e-12,1.1082e-06,-1.1434e-06,-8.5911,0.079474
17294,3.6981,3,0,0.00048747,4871.4,0.00019413,-0.025806,0.00010142,-696.65,-0.00049557,-5182.2,0.07958
17295,3.6057,3.0909,0,0.00048919,4888.5,0.00019605,-0.025926,9.944e-05,-725.89,-0.00049748,-5210.9,0.075819
17296,3.6981,3.0909,0.05,1.4875e-06,14.865,1.1422e-06,8.5823,1.8596e-12,3.2599e-07,-1.1422e-06,-8.5823,0.079541
17297,3.6981,2.8182,0,0.0004877,4873.7,0.00019405,-0.025265,0.00010179,-693.26,-0.00049578,-5183.2,0.079547
17298,3.6057,2.9091,0,0.00048919,4888.5,0.00019605,-0.025926,9.944e-05,-725.89,-0.00049748,-5210.9,0.075819
17299,3.6981,2.9091,0.05,1.4875e-06,14.865,1.1422e-06,8.5823,1.7745e-12,-3.2599e-07,-1.1422e-06,-8.5823,0.079541
17300,3.6981,2.6364,0,0.0004884,4880.6,0.00019382,-0.023626,0.0001029,-683.12,-0.00049642,-5186.2,0.079446
17301,3.6057,2.7273,0,0.00048966,4893.3,0.00019588,-0.024832,0.00010021,-718.82,-0.00049791,-5212.9,0.075753
17302,3.6981,2.7273,0.05,1.489e-06,14.88,1.1434e-06,8.5911,7.7979e-13,-1.6859e-06,-1.1434e-06,-8.5911,0.079474
17303,3.6981,2.4545,0,0.00048955,4892.1,0.00019343,-0.02083,0.00010475,-666.33,-0.00049747,-5191.1,0.079277
17304,3.6057,2.5455,0,0.00049061,4902.7,0.00019555,-0.0226,0.00010176,-704.74,-0.00049878,-5216.9,0.075621
17305,3.6981,2.5455,0.05,1.492e-06,14.91,1.1457e-06,8.6081,1.3314e-12,-4.3653e-06,-1.1457e-06,-8.6082,0.079339
17306,3.6981,2.2727,0,0.00049116,4908.2,0.00019289,-0.016778,0.0001073,-643.09,-0.00049892,-5198,0.07904
17307,3.6057,2.3636,0,0.00049202,4916.8,0.00019505,-0.01914,0.00010405,-683.82,-0.00050007,-5222.9,0.075421
17308,3.6981,2.3636,0.05,1.4962e-06,14.952,1.1489e-06,8.6324,1.4337e-12,-1.069e-05,-1.1489e-06,-8.6325,0.079136
17309,3.6981,2.0909,0,0.00049321,4928.7,0.00019221,-0.011334,0.00011053,-613.65,-0.00050077,-5206.8,0.078731
17310,3.6057,2.1818,0,0.00049389,4935.5,0.00019441,-0.014318,0.00010707,-656.27,-0.00050177,-5230.8,0.075153
17311,3.6981,2.1818,0.05,1.5014e-06,15.004,1.1529e-06,8.6625,2.2683e-12,-2.0559e-06,-1.1529e-06,-8.6625,0.078863
17312,3.6981,1.9091,0,0.0004957,4953.6,0.00019139,-0.004314,0.00011442,-578.34,-0.000503,-5217.3,0.07835
17313,3.6057,2,0,0.00049623,4958.8,0.00019361,-0.0079537,0.00011078,-622.39,-0.00050387,-5240.6,0.074815
17314,3.6981,2,0.05,1.5073e-06,15.062,1.1574e-06,8.6961,1.8452e-12,-3.6206e-06,-1.1574e-06,-8.6961,0.078518
17315,3.6981,1.7273,0,0.00049861,4982.6,0.00019045,0.0045162,0.0001189,-537.56,-0.00050557,-5229.6,0.077894
17316,3.6057,1.8182,0,0.000499,4986.6,0.00019268,0.0001891,0.00011515,-582.56,-0.00050635,-5252.3,0.074404
17317,3.6981,1.8182,0.05,1.5132e-06,15.122,1.162e-06,8.7307,7.5203e-13,-2.2362e-05,-1.162e-06,-8.7308,0.0781
17318,3.6981,1.5455,0,0.00050192,5015.7,0.0001894,0.015503,0.00012394,-491.79,-0.00050847,-5243.5,0.077359
17319,3.6057,1.6364,0,0.00050221,5018.6,0.00019163,0.010407,0.00012012,-537.23,-0.00050918,-5265.6,0.073917
17320,3.6981,1.6364,0.05,1.5189e-06,15.178,1.1663e-06,8.7631,1.2995e-12,-2.9806e-06,-1.1663e-06,-8.7631,0.077605
17321,3.6981,1.3636,0,0.0005056,5052.5,0.00018824,0.029057,0.00012947,-441.54,-0.00051166,-5258.8,0.076744
17322,3.6057,1.4545,0,0.00050582,5054.7,0.00019046,0.023178,0.00012565,-486.94,-0.00051234,-5280.5,0.073351
17323,3.6981,1.4545,0.05,1.5235e-06,15.224,1.1698e-06,8.7898,-2.6851e-12,-1.5952e-06,-1.1699e-06,-8.7898,0.07703
17324,3.6981,1.1818,0,0.00050963,5092.8,0.00018701,0.04623,0.00013544,-387.42,-0.00051511,-5275.4,0.076043
17325,3.6057,1.2727,0,0.00050981,5094.6,0.0001892,0.038948,0.00013166,-432.26,-0.00051578,-5296.9,0.072703
17326,3.6981,1.2727,0.05,1.5265e-06,15.255,1.1722e-06,8.8073,7.421e-13,-1.7679e-05,-1.1722e-06,-8.8073,0.076372
17327,3.6981,1,0,0.00051397,5136.1,0.0001857,0.067292,0.00014177,-330.04,-0.00051879,-5293.2,0.075254
17328,3.6057,1.0909,0,0.00051414,5137.9,0.00018785,0.059573,0.00013809,-373.85,-0.00051948,-5314.6,0.071969
17329,3.6981,1.0909,0.05,1.5274e-06,15.263,1.1728e-06,8.8123,-3.8894e-12,-1.8692e-15,-1.1729e-06,-8.8123,0.075628
17330,3.6981,0.81818,0,0.00051857,5182.2,0.00018434,0.0997,0.00014839,-270.05,-0.00052264,-5311.9,0.074372
17331,3.6057,0.90909,0,0.00051878,5184.3,0.00018645,0.083998,0.00014486,-312.38,-0.00052339,-5333.3,0.071144
17332,3.6981,0.90909,0.05,1.5256e-06,15.246,1.1715e-06,8.8021,-3.7186e-12,7.8694e-07,-1.1715e-06,-8.8021,0.074793
17333,3.6981,0.63636,0,0.0005234,5230.4,0.00018294,0.13081,0.00015523,-208.1,-0.00052663,-5331.3,0.073393
17334,3.6057,0.72727,0,0.00052369,5233.2,0.00018499,0.12941,0.0001519,-248.55,-0.00052747,-5353,0.070225
17335,3.6981,0.72727,0.05,1.521e-06,15.2,1.168e-06,8.7757,1.9294e-12,-1.8615e-15,-1.168e-06,-8.7757,0.073863
17336,3.6981,0.45455,0,0.00052842,5280.6,0.00018152,0.28482,0.00016222,-144.71,-0.00053073,-5351.3,0.072313
17337,3.6057,0.54545,0,0.0005288,5284.4,0.00018351,0.15444,0.00015912,-183.06,-0.00053167,-5373.4,0.069207
17338,3.6981,0.54545,0.05,1.5163e-06,15.152,1.1643e-06,8.7482,-3.3058e-12,-4.6967e-05,-1.1643e-06,-8.7483,0.072833
17339,3.6981,0.27273,0,0.00053368,5333.1,0.00018009,0.45655,0.00016941,-79.856,-0.00053499,-5372.4,0.071126
17340,3.6057,0.36364,0,0.0005341,5337.3,0.00018202,0.46918,0.00016648,-116.34,-0.00053598,-5394.3,0.068084
17341,3.6981,0.36364,0.05,1.5477e-06,15.466,1.1884e-06,8.9293,2.0045e-12,-4.422e-05,-1.1884e-06,-8.9293,0.0717
17342,3.6057,0.18182,0,0.00053974,5393.7,0.00018055,0.73163,0.00017406,-48.003,-0.00054053,-5417.2,0.066852
17343,3.6981,0.18182,0.05,2.2778e-06,22.762,1.749e-06,13.142,2.984e-12,-3.36e-05,-1.749e-06,-13.142,0.070458
17344,3.6981,0.090909,0,0.00053794,5375.7,0.00017876,0.34606,0.00017546,-24.46,-0.00053835,-5387.7,0.069828
17345,3.5132,5.7273,0,0.00054016,5397.9,0.00018245,0.51623,0.00017118,-84.161,-0.00054153,-5439.2,0.06393
17346,3.4208,5.8182,0,0.00054647,5460.9,0.00018285,0.86729,0.00017616,-49.352,-0.00054728,-5485,0.059851
17347,3.5132,5.8182,0.05,2.4532e-06,24.515,1.8837e-06,14.154,-3.9957e-22,3.3349e-06,-1.8837e-06,-14.154,0.063272
17348,3.5132,5.9091,0,0.00054463,5442.6,0.000181,0.37797,0.00017762,-24.962,-0.00054505,-5454.8,0.062652
17349,3.5132,5.5455,0,0.00053448,5341.1,0.00018401,0.31394,0.00016339,-154.58,-0.00053693,-5416.5,0.065095
17350,3.4208,5.6364,0,0.00054035,5399.8,0.00018445,0.5172,0.00016793,-123.59,-0.00054234,-5460.3,0.06106
17351,3.5132,5.6364,0.05,1.6057e-06,16.046,1.233e-06,9.2642,-1.2932e-21,3.7343e-06,-1.233e-06,-9.2642,0.064493
17352,3.5132,5.3636,0,0.00052908,5287.1,0.00018556,0.14473,0.0001558,-223.42,-0.00053252,-5395.2,0.066154
17353,3.4208,5.4545,0,0.00053465,5342.8,0.00018607,0.17166,0.00015996,-196.01,-0.00053771,-5438,0.06216
17354,3.5132,5.4545,0.05,1.5711e-06,15.7,1.2064e-06,9.0643,-2.5589e-22,-2.3838e-05,-1.2064e-06,-9.0643,0.065605
17355,3.5132,5.1818,0,0.00052389,5235.3,0.0001871,0.10988,0.00014838,-290.8,-0.00052823,-5374.6,0.067111
17356,3.4208,5.2727,0,0.00052915,5287.9,0.0001877,0.14272,0.00015212,-267.21,-0.00053319,-5416.3,0.063155
17357,3.5132,5.2727,0.05,1.5775e-06,15.764,1.2113e-06,9.1013,2.668e-12,3.7186e-06,-1.2113e-06,-9.1013,0.066612
17358,3.5132,5,0,0.00051896,5186,0.0001886,0.074138,0.00014119,-356.11,-0.00052409,-5354.8,0.067971
17359,3.4208,5.0909,0,0.0005239,5235.4,0.0001893,0.092621,0.00014448,-336.7,-0.00052881,-5395.5,0.064051
17360,3.5132,5.0909,0.05,1.5836e-06,15.825,1.216e-06,9.1365,4.3685e-13,-1.938e-15,-1.216e-06,-9.1365,0.06752
17361,3.5132,4.8182,0,0.00051432,5139.6,0.00019004,0.050932,0.00013432,-418.63,-0.00052016,-5336.1,0.068739
17362,3.4208,4.9091,0,0.00051894,5185.8,0.00019086,0.065607,0.00013713,-403.66,-0.00052462,-5375.8,0.064852
17363,3.5132,4.9091,0.05,1.5864e-06,15.853,1.2181e-06,9.1526,-2.5838e-22,7.1666e-06,-1.2181e-06,-9.1526,0.068334
17364,3.5132,4.6364,0,0.00051002,5096.7,0.00019141,0.032124,0.00012784,-477.61,-0.00051647,-5318.7,0.069419
17365,3.4208,4.7273,0,0.00051432,5139.6,0.00019235,0.042954,0.00013015,-467.32,-0.00052067,-5357.3,0.065564
17366,3.5132,4.7273,0.05,1.5861e-06,15.85,1.2179e-06,9.1508,1.2887e-12,5.2011e-06,-1.2179e-06,-9.1508,0.069057
17367,3.5132,4.4545,0,0.00050611,5057.6,0.00019269,0.017379,0.00012184,-532.36,-0.00051306,-5302.7,0.070015
17368,3.4208,4.5455,0,0.00051008,5097.2,0.00019375,0.025746,0.00012362,-526.9,-0.00051699,-5340.2,0.066192
17369,3.5132,4.5455,0.05,1.5832e-06,15.821,1.2157e-06,9.1345,-1.2366e-12,1.6546e-06,-1.2157e-06,-9.1345,0.069695
17370,3.5132,4.2727,0,0.0005026,5022.5,0.00019386,0.0055286,0.00011637,-582.22,-0.00050997,-5288.3,0.070532
17371,3.4208,4.3636,0,0.00050626,5059.1,0.00019505,0.011935,0.00011763,-581.69,-0.00051363,-5324.8,0.066738
17372,3.5132,4.3636,0.05,1.5786e-06,15.775,1.2122e-06,9.1077,1.0892e-12,-8.1059e-06,-1.2122e-06,-9.1078,0.070252
17373,3.5132,4.0909,0,0.00049953,4991.8,0.00019491,-0.0039031,0.00011151,-626.62,-0.00050723,-5275.6,0.070973
17374,3.4208,4.1818,0,0.00050288,5025.3,0.00019622,0.0010014,0.00011224,-631.02,-0.00051063,-5311,0.067208
17375,3.5132,4.1818,0.05,1.5729e-06,15.718,1.2078e-06,9.0746,2.2439e-13,4.263e-06,-1.2078e-06,-9.0747,0.07073
17376,3.5132,3.9091,0,0.00049691,4965.7,0.00019581,-0.011324,0.0001073,-665.04,-0.00050487,-5264.7,0.071341
17377,3.4208,4,0,0.00049996,4996.2,0.00019726,-0.0076108,0.00010751,-674.34,-0.00050801,-5299.1,0.067604
17378,3.5132,4,0.05,1.5667e-06,15.656,1.203e-06,9.0391,2.0427e-12,-1.2775e-05,-1.203e-06,-9.0392,0.071134
17379,3.5132,3.7273,0,0.00049475,4944.1,0.00019657,-0.01702,0.0001038,-697.05,-0.00050291,-5255.7,0.071638
17380,3.4208,3.8182,0,0.00049752,4971.8,0.00019814,-0.014261,0.0001035,-711.15,-0.00050579,-5289.1,0.067929
17381,3.5132,3.8182,0.05,1.5607e-06,15.597,1.1985e-06,9.0048,4.502e-13,1.078e-06,-1.1985e-06,-9.0048,0.071467
17382,3.5132,3.5455,0,0.00049307,4927.3,0.00019717,-0.021218,0.00010104,-722.3,-0.00050137,-5248.6,0.071867
17383,3.4208,3.6364,0,0.00049557,4952.2,0.00019886,-0.019242,0.00010024,-741.06,-0.00050399,-5281,0.068186
17384,3.5132,3.6364,0.05,1.5555e-06,15.544,1.1944e-06,8.9742,1.5797e-12,-3.0414e-07,-1.1944e-06,-8.9743,0.071729
17385,3.5132,3.3636,0,0.00049187,4915.3,0.00019761,-0.024093,9.9054e-05,-740.53,-0.00050026,-5243.6,0.072029
17386,3.4208,3.4545,0,0.0004941,4937.6,0.00019941,-0.022779,9.7766e-05,-763.76,-0.00050264,-5275,0.068378
17387,3.5132,3.4545,0.05,1.5512e-06,15.501,1.1911e-06,8.9496,9.026e-13,-1.5744e-07,-1.1911e-06,-8.9497,0.071925
17388,3.5132,3.1818,0,0.00049115,4908.1,0.00019787,-0.025768,9.7852e-05,-751.54,-0.0004996,-5240.5,0.072126
17389,3.4208,3.2727,0,0.00049312,4927.8,0.00019978,-0.025043,9.6105e-05,-779.02,-0.00050173,-5270.9,0.068504
17390,3.5132,3.2727,0.05,1.5482e-06,15.472,1.1888e-06,8.9326,1.0389e-12,8.7424e-07,-1.1888e-06,-8.9326,0.072054
17391,3.5132,3,0,0.00049091,4905.7,0.00019796,-0.026318,9.745e-05,-755.22,-0.00049937,-5239.5,0.072158
17392,3.4208,3.0909,0,0.00049263,4922.9,0.00019997,-0.026146,9.5272e-05,-786.68,-0.00050127,-5268.9,0.068567
17393,3.5132,3.0909,0.05,1.5467e-06,15.456,1.1877e-06,8.9238,1.8636e-12,2.7947e-07,-1.1877e-06,-8.9238,0.072119
17394,3.5132,2.8182,0,0.00049115,4908.1,0.00019787,-0.025768,9.7852e-05,-751.54,-0.0004996,-5240.5,0.072126
17395,3.4208,2.9091,0,0.00049263,4922.9,0.00019997,-0.026146,9.5272e-05,-786.68,-0.00050127,-5268.9,0.068567
17396,3.5132,2.9091,0.05,1.5467e-06,15.456,1.1877e-06,8.9238,1.776e-12,-4.147e-07,-1.1877e-06,-8.9238,0.072119
17397,3.5132,2.6364,0,0.00049187,4915.3,0.00019761,-0.024092,9.9054e-05,-740.53,-0.00050026,-5243.6,0.072029
17398,3.4208,2.7273,0,0.00049312,4927.8,0.00019978,-0.025042,9.6105e-05,-779.02,-0.00050173,-5270.9,0.068504
17399,3.5132,2.7273,0.05,1.5482e-06,15.472,1.1888e-06,8.9325,1.6725e-12,-1.5142e-06,-1.1888e-06,-8.9326,0.072054
17400,3.5132,2.4545,0,0.00049307,4927.3,0.00019717,-0.021218,0.00010104,-722.3,-0.00050137,-5248.6,0.071867
17401,3.4208,2.5455,0,0.0004941,4937.6,0.00019941,-0.022779,9.7766e-05,-763.76,-0.00050264,-5275,0.068378
17402,3.5132,2.5455,0.05,1.5512e-06,15.501,1.1911e-06,8.9496,2.2144e-12,-3.3388e-06,-1.1911e-06,-8.9497,0.071925
17403,3.5132,2.2727,0,0.00049475,4944.1,0.00019657,-0.017019,0.0001038,-697.05,-0.00050291,-5255.7,0.071638
17404,3.4208,2.3636,0,0.00049557,4952.2,0.00019886,-0.019242,0.00010024,-741.06,-0.00050399,-5281,0.068186
17405,3.5132,2.3636,0.05,1.5555e-06,15.544,1.1944e-06,8.9742,1.8705e-12,-5.0769e-06,-1.1944e-06,-8.9743,0.071729
17406,3.5132,2.0909,0,0.00049691,4965.7,0.00019581,-0.011323,0.0001073,-665.04,-0.00050487,-5264.7,0.071341
17407,3.4208,2.1818,0,0.00049752,4971.8,0.00019814,-0.014261,0.0001035,-711.15,-0.00050579,-5289.1,0.067929
17408,3.5132,2.1818,0.05,1.5607e-06,15.597,1.1985e-06,9.0048,5.0909e-13,-1.078e-06,-1.1985e-06,-9.0048,0.071467
17409,3.5132,1.9091,0,0.00049953,4991.8,0.00019491,-0.0039028,0.00011151,-626.62,-0.00050723,-5275.6,0.070973
17410,3.4208,2,0,0.00049996,4996.2,0.00019726,-0.0076105,0.00010751,-674.34,-0.00050801,-5299.1,0.067604
17411,3.5132,2,0.05,1.5667e-06,15.656,1.203e-06,9.0391,1.9348e-12,-3.1865e-05,-1.203e-06,-9.0393,0.071134
17412,3.5132,1.7273,0,0.0005026,5022.5,0.00019386,0.005529,0.00011637,-582.22,-0.00050997,-5288.3,0.070532
17413,3.4208,1.8182,0,0.00050288,5025.3,0.00019622,0.0010018,0.00011224,-631.02,-0.00051063,-5311,0.067208
17414,3.5132,1.8182,0.05,1.5729e-06,15.718,1.2078e-06,9.0746,-9.064e-13,-1.3003e-05,-1.2078e-06,-9.0747,0.07073
17415,3.5132,1.5455,0,0.00050611,5057.6,0.00019269,0.01738,0.00012184,-532.36,-0.00051306,-5302.7,0.070015
17416,3.4208,1.6364,0,0.00050626,5059.1,0.00019505,0.011936,0.00011763,-581.69,-0.00051363,-5324.8,0.066738
17417,3.5132,1.6364,0.05,1.5786e-06,15.775,1.2122e-06,9.1077,4.5213e-13,-1.7413e-05,-1.2122e-06,-9.1078,0.070252
17418,3.5132,1.3636,0,0.00051002,5096.7,0.00019141,0.032125,0.00012784,-477.61,-0.00051647,-5318.7,0.069419
17419,3.4208,1.4545,0,0.00051008,5097.2,0.00019375,0.025746,0.00012362,-526.9,-0.00051699,-5340.2,0.066192
17420,3.5132,1.4545,0.05,1.5832e-06,15.821,1.2157e-06,9.1345,-2.6892e-12,-3.0674e-05,-1.2157e-06,-9.1346,0.069695
17421,3.5132,1.1818,0,0.00051432,5139.6,0.00019004,0.050933,0.00013432,-418.63,-0.00052016,-5336.1,0.068739
17422,3.4208,1.2727,0,0.00051432,5139.6,0.00019235,0.042955,0.00013015,-467.32,-0.00052067,-5357.3,0.065564
17423,3.5132,1.2727,0.05,1.5861e-06,15.85,1.2179e-06,9.1507,-2.0786e-12,-5.6852e-05,-1.2179e-06,-9.1509,0.069057
17424,3.5132,1,0,0.00051896,5186,0.0001886,0.074138,0.00014119,-356.11,-0.00052409,-5354.8,0.067971
17425,3.4208,1.0909,0,0.00051894,5185.8,0.00019086,0.065608,0.00013713,-403.66,-0.00052462,-5375.8,0.064852
17426,3.5132,1.0909,0.05,1.5864e-06,15.853,1.2181e-06,9.1526,2.4429e-12,-3.5833e-06,-1.2181e-06,-9.1526,0.068334
17427,3.5132,0.81818,0,0.00052389,5235.3,0.0001871,0.10988,0.00014838,-290.8,-0.00052823,-5374.6,0.067111
17428,3.4208,0.90909,0,0.0005239,5235.4,0.0001893,0.092622,0.00014448,-336.7,-0.00052881,-5395.5,0.064051
17429,3.5132,0.90909,0.05,1.5836e-06,15.825,1.216e-06,9.1365,-1.4652e-12,-1.938e-15,-1.216e-06,-9.1365,0.06752
17430,3.5132,0.63636,0,0.00052908,5287.1,0.00018556,0.14473,0.0001558,-223.42,-0.00053252,-5395.2,0.066154
17431,3.4208,0.72727,0,0.00052915,5287.9,0.0001877,0.14272,0.00015212,-267.21,-0.00053319,-5416.3,0.063155
17432,3.5132,0.72727,0.05,1.5775e-06,15.764,1.2113e-06,9.1013,-3.8716e-12,-2.3711e-05,-1.2113e-06,-9.1013,0.066612
17433,3.5132,0.45455,0,0.00053448,5341.1,0.00018401,0.31394,0.00016339,-154.58,-0.00053693,-5416.5,0.065095
17434,3.4208,0.54545,0,0.00053465,5342.8,0.00018607,0.17166,0.00015996,-196.01,-0.00053771,-5438,0.06216
17435,3.5132,0.54545,0.05,1.5711e-06,15.7,1.2064e-06,9.0643,2.4875e-13,-2.8717e-05,-1.2064e-06,-9.0643,0.065605
17436,3.5132,0.27273,0,0.00054016,5397.9,0.00018245,0.51623,0.00017118,-84.161,-0.00054153,-5439.2,0.06393
17437,3.4208,0.36364,0,0.00054035,5399.8,0.00018445,0.5172,0.00016793,-123.59,-0.00054234,-5460.3,0.06106
17438,3.5132,0.36364,0.05,1.6057e-06,16.046,1.233e-06,9.2641,3.9079e-13,-4.8569e-05,-1.233e-06,-9.2642,0.064493
17439,3.4208,0.18182,0,0.00054647,5460.9,0.00018285,0.86729,0.00017616,-49.352,-0.00054728,-5485,0.059851
17440,3.5132,0.18182,0.05,2.4532e-06,24.515,1.8837e-06,14.154,2.9752e-12,-1.112e-05,-1.8837e-06,-14.154,0.063272
17441,3.5132,0.090909,0,0.00054463,5442.6,0.000181,0.37797,0.00017762,-24.962,-0.00054505,-5454.8,0.062652
17442,3.3283,5.7273,0,0.00054666,5462.8,0.00018481,0.58583,0.00017297,-88.383,-0.0005481,-5506.2,0.057103
17443,3.2358,5.8182,0,0.00055323,5528.5,0.00018514,1.0372,0.0001783,-50.323,-0.00055405,-5553,0.053223
17444,3.3283,5.8182,0.05,2.6386e-06,26.368,2.0261e-06,15.223,3.5332e-13,-3.2291e-15,-2.0261e-06,-15.223,0.056456
17445,3.3283,5.9091,0,0.00055134,5509.6,0.00018322,0.41459,0.00017981,-25.199,-0.00055176,-5521.9,0.055849
17446,3.3283,5.5455,0,0.00054052,5401.4,0.0001865,0.34644,0.00016451,-164.89,-0.00054313,-5481.8,0.058244
17447,3.2358,5.6364,0,0.00054659,5462.1,0.00018687,0.571,0.00016936,-131.01,-0.00054869,-5526.1,0.054406
17448,3.3283,5.6364,0.05,1.668e-06,16.669,1.2808e-06,9.6238,4.5106e-13,7.5676e-06,-1.2808e-06,-9.6238,0.057653
17449,3.3283,5.3636,0,0.00053471,5343.5,0.00018821,0.16028,0.00015629,-239.69,-0.00053838,-5459.2,0.059277
17450,3.2358,5.4545,0,0.00054045,5400.8,0.00018865,0.19106,0.00016072,-209.68,-0.00054371,-5502.5,0.055479
17451,3.3283,5.4545,0.05,1.6311e-06,16.299,1.2525e-06,9.4105,4.5262e-13,1.0459e-06,-1.2525e-06,-9.4105,0.05874
17452,3.3283,5.1818,0,0.00052915,5287.9,0.00018991,0.12117,0.00014823,-313.01,-0.00053378,-5437.4,0.060209
17453,3.2358,5.2727,0,0.00053455,5341.9,0.00019045,0.1575,0.00015221,-287.14,-0.00053886,-5479.5,0.056448
17454,3.3283,5.2727,0.05,1.6398e-06,16.387,1.2592e-06,9.4609,9.0046e-13,-1.8674e-05,-1.2592e-06,-9.4609,0.059723
17455,3.3283,5,0,0.00052387,5235.1,0.00019156,0.081691,0.00014042,-384.16,-0.00052935,-5416.6,0.061045
17456,3.2358,5.0909,0,0.00052893,5285.7,0.00019222,0.10215,0.00014392,-362.83,-0.00053417,-5457.7,0.057317
17457,3.3283,5.0909,0.05,1.6479e-06,16.468,1.2654e-06,9.5076,-2.6841e-22,3.7374e-06,-1.2654e-06,-9.5076,0.060606
17458,3.3283,4.8182,0,0.00051893,5185.7,0.00019317,0.056107,0.00013296,-452.29,-0.00052514,-5397,0.061789
17459,3.2358,4.9091,0,0.00052364,5232.8,0.00019395,0.072236,0.00013593,-435.82,-0.00052969,-5437,0.058093
17460,3.3283,4.9091,0.05,1.652e-06,16.509,1.2685e-06,9.5314,-2.2106e-12,3.6708e-06,-1.2686e-06,-9.5314,0.061395
17461,3.3283,4.6364,0,0.00051437,5140.1,0.00019469,0.035519,0.00012593,-516.57,-0.0005212,-5378.9,0.062446
17462,3.2358,4.7273,0,0.00051873,5183.8,0.0001956,0.047354,0.00012835,-505.21,-0.00052548,-5417.8,0.058781
17463,3.3283,4.7273,0.05,1.6525e-06,16.514,1.2689e-06,9.5341,4.2532e-13,3.5678e-06,-1.2689e-06,-9.5341,0.062096
17464,3.3283,4.4545,0,0.00051022,5098.7,0.00019611,0.019516,0.00011942,-576.2,-0.00051757,-5362.3,0.063022
17465,3.2358,4.5455,0,0.00051425,5139,0.00019716,0.028607,0.00012128,-570.12,-0.00052157,-5400.2,0.059385
17466,3.3283,4.5455,0.05,1.6501e-06,16.489,1.267e-06,9.5201,2.1279e-12,3.4194e-06,-1.267e-06,-9.5201,0.062712
17467,3.3283,4.2727,0,0.00050653,5061.8,0.00019741,0.0067914,0.0001135,-630.48,-0.0005143,-5347.5,0.063519
17468,3.2358,4.3636,0,0.00051023,5098.8,0.00019861,0.01373,0.00011479,-629.75,-0.00051802,-5384.4,0.05991
17469,3.3283,4.3636,0.05,1.6456e-06,16.444,1.2636e-06,9.4941,1.9734e-12,6.4349e-06,-1.2636e-06,-9.4941,0.063248
17470,3.3283,4.0909,0,0.00050331,5029.6,0.00019857,-0.0032113,0.00010824,-678.77,-0.0005114,-5334.5,0.063943
17471,3.2358,4.1818,0,0.0005067,5063.5,0.00019992,0.0021076,0.00010896,-683.39,-0.00051485,-5370.5,0.06036
17472,3.3283,4.1818,0.05,1.6399e-06,16.387,1.2592e-06,9.4612,4.9759e-13,2.9565e-06,-1.2592e-06,-9.4612,0.063708
17473,3.3283,3.9091,0,0.00050057,5002.3,0.00019959,-0.010978,0.0001037,-720.5,-0.00050892,-5323.5,0.064296
17474,3.2358,4,0,0.00050366,5033.1,0.00020107,-0.0069127,0.00010386,-730.42,-0.00051209,-5358.4,0.060739
17475,3.3283,4,0.05,1.6338e-06,16.326,1.2545e-06,9.426,1.9723e-12,1.3172e-06,-1.2545e-06,-9.426,0.064096
17476,3.3283,3.7273,0,0.00049833,4979.9,0.00020043,-0.016861,9.992e-05,-755.24,-0.00050686,-5314.4,0.06458
17477,3.2358,3.8182,0,0.00050113,5007.9,0.00020206,-0.013772,9.9533e-05,-770.34,-0.00050977,-5348.4,0.06105
17478,3.3283,3.8182,0.05,1.6279e-06,16.268,1.25e-06,9.3921,2.1805e-12,2.2522e-06,-1.25e-06,-9.3921,0.064414
17479,3.3283,3.5455,0,0.00049659,4962.5,0.0002011,-0.021144,9.6946e-05,-782.61,-0.00050525,-5307.3,0.064799
17480,3.2358,3.6364,0,0.00049911,4987.7,0.00020286,-0.018833,9.6027e-05,-802.73,-0.0005079,-5340.4,0.061296
17481,3.3283,3.6364,0.05,1.6227e-06,16.216,1.246e-06,9.3623,-5.5022e-15,-1.8614e-06,-1.246e-06,-9.3623,0.064666
17482,3.3283,3.3636,0,0.00049534,4950,0.00020159,-0.024046,9.4803e-05,-802.36,-0.00050409,-5302.2,0.064954
17483,3.2358,3.4545,0,0.00049761,4972.6,0.00020347,-0.022379,9.3372e-05,-827.29,-0.00050649,-5334.4,0.061478
17484,3.3283,3.4545,0.05,1.6186e-06,16.175,1.2429e-06,9.3386,9.2976e-13,-5.8888e-07,-1.2429e-06,-9.3386,0.064853
17485,3.3283,3.1818,0,0.0004946,4942.6,0.00020188,-0.025725,9.351e-05,-814.28,-0.00050339,-5299.2,0.065047
17486,3.2358,3.2727,0,0.0004966,4962.6,0.00020389,-0.024624,9.159e-05,-843.78,-0.00050554,-5330.4,0.061598
17487,3.3283,3.2727,0.05,1.6158e-06,16.147,1.2407e-06,9.3223,1.9436e-12,1.1189e-06,-1.2407e-06,-9.3223,0.064976
17488,3.3283,3,0,0.00049435,4940.1,0.00020198,-0.026274,9.3078e-05,-818.26,-0.00050316,-5298.1,0.065078
17489,3.2358,3.0909,0,0.0004961,4957.6,0.00020409,-0.025711,9.0695e-05,-852.06,-0.00050507,-5328.4,0.061659
17490,3.3283,3.0909,0.05,1.6143e-06,16.132,1.2396e-06,9.3139,9.3851e-13,2.0193e-07,-1.2396e-06,-9.314,0.065038
17491,3.3283,2.8182,0,0.0004946,4942.6,0.00020188,-0.025725,9.351e-05,-814.28,-0.00050339,-5299.2,0.065047
17492,3.2358,2.9091,0,0.0004961,4957.6,0.00020409,-0.025711,9.0695e-05,-852.06,-0.00050507,-5328.4,0.061659
17493,3.3283,2.9091,0.05,1.6143e-06,16.132,1.2396e-06,9.3139,8.4062e-13,-5.1657e-07,-1.2396e-06,-9.314,0.065038
17494,3.3283,2.6364,0,0.00049534,4950,0.00020159,-0.024046,9.4803e-05,-802.36,-0.00050409,-5302.2,0.064954
17495,3.2358,2.7273,0,0.0004966,4962.6,0.00020389,-0.024624,9.159e-05,-843.78,-0.00050554,-5330.4,0.061598
17496,3.3283,2.7273,0.05,1.6158e-06,16.147,1.2407e-06,9.3223,1.4851e-12,-1.1189e-06,-1.2407e-06,-9.3223,0.064976
17497,3.3283,2.4545,0,0.00049659,4962.5,0.0002011,-0.021144,9.6946e-05,-782.61,-0.00050525,-5307.3,0.064799
17498,3.2358,2.5455,0,0.00049761,4972.6,0.00020347,-0.022379,9.3372e-05,-827.29,-0.00050649,-5334.4,0.061478
17499,3.3283,2.5455,0.05,1.6186e-06,16.175,1.2429e-06,9.3386,1.2549e-12,-5.5068e-06,-1.2429e-06,-9.3387,0.064853
17500,3.3283,2.2727,0,0.00049833,4979.9,0.00020043,-0.016861,9.992e-05,-755.24,-0.00050686,-5314.4,0.06458
17501,3.2358,2.3636,0,0.00049911,4987.7,0.00020286,-0.018833,9.6027e-05,-802.73,-0.0005079,-5340.4,0.061296
17502,3.3283,2.3636,0.05,1.6227e-06,16.216,1.246e-06,9.3623,9.4654e-13,-5.4919e-06,-1.246e-06,-9.3623,0.064666
17503,3.3283,2.0909,0,0.00050057,5002.3,0.00019959,-0.010978,0.0001037,-720.5,-0.00050892,-5323.5,0.064296
17504,3.2358,2.1818,0,0.00050113,5007.9,0.00020206,-0.013772,9.9533e-05,-770.34,-0.00050977,-5348.4,0.06105
17505,3.3283,2.1818,0.05,1.6279e-06,16.268,1.25e-06,9.3921,5.2494e-13,-2.2522e-06,-1.25e-06,-9.3921,0.064414
17506,3.3283,1.9091,0,0.00050331,5029.6,0.00019857,-0.003211,0.00010824,-678.77,-0.0005114,-5334.5,0.063943
17507,3.2358,2,0,0.00050366,5033.1,0.00020107,-0.0069124,0.00010386,-730.42,-0.00051209,-5358.4,0.060739
17508,3.3283,2,0.05,1.6338e-06,16.326,1.2545e-06,9.4259,1.4998e-12,-1.8208e-05,-1.2545e-06,-9.426,0.064096
17509,3.3283,1.7273,0,0.00050653,5061.8,0.00019741,0.006792,0.0001135,-630.48,-0.0005143,-5347.5,0.063519
17510,3.2358,1.8182,0,0.0005067,5063.5,0.00019992,0.002108,0.00010896,-683.39,-0.00051485,-5370.5,0.06036
17511,3.3283,1.8182,0.05,1.6399e-06,16.387,1.2592e-06,9.4612,1.2769e-12,-1.2711e-05,-1.2592e-06,-9.4613,0.063708
17512,3.3283,1.5455,0,0.00051022,5098.7,0.00019611,0.019516,0.00011942,-576.2,-0.00051757,-5362.3,0.063022
17513,3.2358,1.6364,0,0.00051023,5098.8,0.00019861,0.01373,0.00011479,-629.75,-0.00051802,-5384.4,0.05991
17514,3.3283,1.6364,0.05,1.6456e-06,16.444,1.2636e-06,9.4941,-8.6073e-13,-1.734e-05,-1.2636e-06,-9.4941,0.063248
17515,3.3283,1.3636,0,0.00051437,5140.1,0.00019469,0.035519,0.00012593,-516.57,-0.0005212,-5378.9,0.062446
17516,3.2358,1.4545,0,0.00051425,5139,0.00019716,0.028607,0.00012128,-570.12,-0.00052157,-5400.2,0.059385
17517,3.3283,1.4545,0.05,1.6501e-06,16.489,1.267e-06,9.52,1.8101e-12,-1.8698e-05,-1.267e-06,-9.5201,0.062712
17518,3.3283,1.1818,0,0.00051893,5185.7,0.00019317,0.056108,0.00013296,-452.29,-0.00052514,-5397,0.061789
17519,3.2358,1.2727,0,0.00051873,5183.8,0.0001956,0.047355,0.00012835,-505.21,-0.00052548,-5417.8,0.058781
17520,3.3283,1.2727,0.05,1.6525e-06,16.514,1.2689e-06,9.5341,1.2314e-12,-3.9436e-05,-1.2689e-06,-9.5342,0.062096
17521,3.3283,1,0,0.00052387,5235.1,0.00019156,0.081692,0.00014042,-384.16,-0.00052935,-5416.6,0.061045
17522,3.2358,1.0909,0,0.00052364,5232.8,0.00019395,0.072236,0.00013593,-435.82,-0.00052969,-5437,0.058093
17523,3.3283,1.0909,0.05,1.652e-06,16.509,1.2686e-06,9.5314,-3.5234e-12,-4.2003e-05,-1.2685e-06,-9.5314,0.061395
17524,3.3283,0.81818,0,0.00052915,5287.9,0.00018991,0.12117,0.00014823,-313.01,-0.00053378,-5437.4,0.060209
17525,3.2358,0.90909,0,0.00052893,5285.7,0.00019222,0.10215,0.00014392,-362.83,-0.00053417,-5457.7,0.057317
17526,3.3283,0.90909,0.05,1.6479e-06,16.468,1.2654e-06,9.5076,-1.1714e-12,-3.7374e-06,-1.2654e-06,-9.5076,0.060606
17527,3.3283,0.63636,0,0.00053471,5343.5,0.00018821,0.16028,0.00015629,-239.69,-0.00053838,-5459.2,0.059277
17528,3.2358,0.72727,0,0.00053455,5341.9,0.00019045,0.1575,0.00015221,-287.14,-0.00053886,-5479.5,0.056448
17529,3.3283,0.72727,0.05,1.6398e-06,16.387,1.2592e-06,9.4609,2.0747e-12,-2.6228e-05,-1.2592e-06,-9.4609,0.059723
17530,3.3283,0.45455,0,0.00054052,5401.4,0.0001865,0.34644,0.00016451,-164.89,-0.00054313,-5481.8,0.058244
17531,3.2358,0.54545,0,0.00054045,5400.8,0.00018865,0.19106,0.00016072,-209.68,-0.00054371,-5502.5,0.055479
17532,3.3283,0.54545,0.05,1.6311e-06,16.299,1.2525e-06,9.4105,-2.2888e-12,-3.7968e-06,-1.2525e-06,-9.4105,0.05874
17533,3.3283,0.27273,0,0.00054666,5462.8,0.00018481,0.58583,0.00017297,-88.383,-0.0005481,-5506.2,0.057103
17534,3.2358,0.36364,0,0.00054659,5462.1,0.00018687,0.571,0.00016936,-131.01,-0.00054869,-5526.1,0.054406
17535,3.3283,0.36364,0.05,1.668e-06,16.669,1.2808e-06,9.6238,-1.1259e-12,-2.5567e-05,-1.2809e-06,-9.6238,0.057653
17536,3.2358,0.18182,0,0.00055323,5528.5,0.00018514,1.0372,0.0001783,-50.323,-0.00055405,-5553,0.053223
17537,3.3283,0.18182,0.05,2.6386e-06,26.368,2.0261e-06,15.223,1.3438e-13,-1.0917e-05,-2.0261e-06,-15.223,0.056456
17538,3.3283,0.090909,0,0.00055134,5509.6,0.00018322,0.4146,0.00017981,-25.199,-0.00055176,-5521.9,0.055849
17539,3.1434,5.7273,0,0.00055316,5527.7,0.00018716,0.6675,0.00017476,-92.472,-0.00055466,-5573.1,0.050649
17540,3.0509,5.8182,0,0.00056,5596.1,0.00018742,1.2531,0.00018048,-50.834,-0.00056082,-5620.7,0.046972
17541,3.1434,5.8182,0.05,2.8337e-06,28.318,2.176e-06,16.349,3.561e-13,-3.4679e-15,-2.176e-06,-16.349,0.050016
17542,3.1434,5.9091,0,0.00055803,5576.5,0.00018543,0.45728,0.00018203,-25.11,-0.00055845,-5588.8,0.049423
17543,3.1434,5.5455,0,0.00054652,5461.4,0.00018901,0.38281,0.00016558,-175.66,-0.00054929,-5546.9,0.051762
17544,3.0509,5.6364,0,0.00055278,5524,0.00018929,0.63149,0.00017076,-138.61,-0.000555,-5591.7,0.048126
17545,3.1434,5.6364,0.05,1.7351e-06,17.339,1.3323e-06,10.011,-2.8261e-22,3.8112e-06,-1.3323e-06,-10.011,0.051186
17546,3.1434,5.3636,0,0.00054028,5399.1,0.00019089,0.17768,0.00015666,-257.01,-0.00054419,-5522.9,0.052767
17547,3.0509,5.4545,0,0.00054618,5458.1,0.00019125,0.21294,0.00016139,-224.13,-0.00054965,-5566.6,0.049169
17548,3.1434,5.4545,0.05,1.6971e-06,16.96,1.3032e-06,9.7917,4.5474e-13,1.9159e-06,-1.3032e-06,-9.7917,0.052244
17549,3.1434,5.1818,0,0.00053433,5339.6,0.00019276,0.13366,0.00014791,-336.85,-0.00053926,-5500,0.053671
17550,3.0509,5.2727,0,0.00053986,5394.9,0.00019323,0.17394,0.00015215,-308.49,-0.00054445,-5542.4,0.050107
17551,3.1434,5.2727,0.05,1.709e-06,17.078,1.3123e-06,9.86,4.5414e-13,7.6192e-06,-1.3123e-06,-9.86,0.053198
17552,3.1434,5,0,0.0005287,5283.3,0.0001946,0.090002,0.00013944,-414.4,-0.00053452,-5478.3,0.054479
17553,3.0509,5.0909,0,0.00053386,5334.9,0.0001952,0.11266,0.00014314,-391.01,-0.00053943,-5519.6,0.050947
17554,3.1434,5.0909,0.05,1.7196e-06,17.184,1.3205e-06,9.9214,-2.8009e-22,-2.1045e-15,-1.3205e-06,-9.9214,0.054054
17555,3.1434,4.8182,0,0.00052344,5230.8,0.00019638,0.061773,0.00013133,-488.67,-0.00053004,-5458,0.055196
17556,3.0509,4.9091,0,0.00052824,5278.7,0.00019711,0.079481,0.00013447,-470.61,-0.00053466,-5498.2,0.051694
17557,3.1434,4.9091,0.05,1.7254e-06,17.242,1.3249e-06,9.9549,-2.8104e-22,-2.1116e-15,-1.3249e-06,-9.9549,0.054816
17558,3.1434,4.6364,0,0.00051862,5182.6,0.00019807,0.039254,0.00012371,-558.71,-0.00052585,-5439.3,0.055829
17559,3.0509,4.7273,0,0.00052305,5226.8,0.00019896,0.052151,0.00012625,-546.24,-0.00053019,-5478.5,0.052355
17560,3.1434,4.7273,0.05,1.7269e-06,17.257,1.3261e-06,9.9634,4.3564e-13,7.3088e-06,-1.3261e-06,-9.9634,0.05549
17561,3.1434,4.4545,0,0.00051426,5139,0.00019966,0.021938,0.00011665,-623.64,-0.00052202,-5422.4,0.056381
17562,3.0509,4.5455,0,0.00051834,5179.8,0.0002007,0.031772,0.00011859,-616.93,-0.00052607,-5460.6,0.052933
17563,3.1434,4.5455,0.05,1.725e-06,17.238,1.3246e-06,9.9524,-1.1831e-12,-3.7462e-05,-1.3246e-06,-9.9525,0.056082
17564,3.1434,4.2727,0,0.0005104,5100.4,0.00020111,0.0083547,0.00011025,-682.66,-0.00051857,-5407.4,0.056857
17565,3.0509,4.3636,0,0.00051414,5137.8,0.00020231,0.015827,0.00011157,-681.78,-0.00052233,-5444.7,0.053435
17566,3.1434,4.3636,0.05,1.7208e-06,17.196,1.3214e-06,9.9283,1.8666e-12,3.3241e-06,-1.3214e-06,-9.9283,0.056596
17567,3.1434,4.0909,0,0.00050705,5067,0.00020241,-0.0021585,0.00010458,-735.09,-0.00051553,-5394.4,0.057261
17568,3.0509,4.1818,0,0.00051047,5101.2,0.00020378,0.0035775,0.00010529,-740,-0.00051902,-5430.8,0.053864
17569,3.1434,4.1818,0.05,1.7154e-06,17.142,1.3172e-06,9.8968,1.4562e-12,3.064e-06,-1.3172e-06,-9.8968,0.057036
17570,3.1434,3.9091,0,0.00050422,5038.7,0.00020354,-0.010185,9.9686e-05,-780.33,-0.00051294,-5383.3,0.057598
17571,3.0509,4,0,0.00050734,5069.9,0.00020507,-0.0057536,9.9798e-05,-790.96,-0.00051615,-5418.9,0.054224
17572,3.1434,4,0.05,1.7096e-06,17.084,1.3127e-06,9.8633,-9.4539e-13,-7.8856e-06,-1.3127e-06,-9.8633,0.057406
17573,3.1434,3.7273,0,0.00050191,5015.7,0.00020449,-0.016163,9.5628e-05,-817.93,-0.0005108,-5374.4,0.057868
17574,3.0509,3.8182,0,0.00050476,5044.1,0.00020617,-0.012711,9.5156e-05,-834.12,-0.00051374,-5409.1,0.054519
17575,3.1434,3.8182,0.05,1.7041e-06,17.029,1.3085e-06,9.8315,-3.4799e-13,-2.9192e-06,-1.3085e-06,-9.8316,0.057709
17576,3.1434,3.5455,0,0.00050013,4997.8,0.00020523,-0.020445,9.2437e-05,-847.52,-0.00050912,-5367.4,0.058077
17577,3.0509,3.6364,0,0.0005027,5023.5,0.00020707,-0.017746,9.1401e-05,-869.09,-0.00051181,-5401.4,0.054752
17578,3.1434,3.6364,0.05,1.6993e-06,16.981,1.3049e-06,9.8043,1.1877e-12,2.3623e-06,-1.3049e-06,-9.8043,0.057948
17579,3.1434,3.3636,0,0.00049886,4985.1,0.00020577,-0.023307,9.0141e-05,-868.83,-0.00050792,-5362.5,0.058224
17580,3.0509,3.4545,0,0.00050117,5008.3,0.00020775,-0.021211,8.8563e-05,-895.55,-0.00051036,-5395.6,0.054924
17581,3.1434,3.4545,0.05,1.6956e-06,16.945,1.302e-06,9.783,2.0875e-12,-7.0301e-06,-1.302e-06,-9.7831,0.058126
17582,3.1434,3.1818,0,0.0004981,4977.6,0.0002061,-0.024946,8.8757e-05,-881.69,-0.0005072,-5359.5,0.058312
17583,3.0509,3.2727,0,0.00050016,4998.1,0.00020821,-0.023374,8.6661e-05,-913.3,-0.00050939,-5391.8,0.055038
17584,3.1434,3.2727,0.05,1.6931e-06,16.92,1.3001e-06,9.7686,9.4611e-13,2.9658e-07,-1.3001e-06,-9.7687,0.058243
17585,3.1434,3,0,0.00049785,4975,0.00020621,-0.025479,8.8294e-05,-885.99,-0.00050696,-5358.5,0.058341
17586,3.0509,3.0909,0,0.00049965,4993.1,0.00020844,-0.024412,8.5707e-05,-922.21,-0.00050891,-5389.9,0.055095
17587,3.1434,3.0909,0.05,1.6919e-06,16.907,1.2992e-06,9.7614,2.7655e-12,3.067e-07,-1.2992e-06,-9.7614,0.058301
17588,3.1434,2.8182,0,0.0004981,4977.6,0.0002061,-0.024946,8.8757e-05,-881.69,-0.0005072,-5359.5,0.058312
17589,3.0509,2.9091,0,0.00049965,4993.1,0.00020844,-0.024412,8.5707e-05,-922.21,-0.00050891,-5389.9,0.055095
17590,3.1434,2.9091,0.05,1.6919e-06,16.907,1.2992e-06,9.7614,3.5717e-12,-4.4181e-07,-1.2992e-06,-9.7614,0.058301
17591,3.1434,2.6364,0,0.00049886,4985.1,0.00020577,-0.023307,9.0141e-05,-868.83,-0.00050792,-5362.5,0.058224
17592,3.0509,2.7273,0,0.00050016,4998.1,0.00020821,-0.023374,8.6661e-05,-913.3,-0.00050939,-5391.8,0.055038
17593,3.1434,2.7273,0.05,1.6931e-06,16.92,1.3001e-06,9.7686,6.6821e-13,-1.9286e-06,-1.3001e-06,-9.7687,0.058243
17594,3.1434,2.4545,0,0.00050013,4997.8,0.00020523,-0.020445,9.2437e-05,-847.52,-0.00050912,-5367.4,0.058077
17595,3.0509,2.5455,0,0.00050117,5008.3,0.00020775,-0.021211,8.8563e-05,-895.55,-0.00051036,-5395.6,0.054924
17596,3.1434,2.5455,0.05,1.6956e-06,16.945,1.302e-06,9.783,2.4697e-12,-3.4771e-06,-1.302e-06,-9.7831,0.058126
17597,3.1434,2.2727,0,0.00050191,5015.7,0.00020449,-0.016163,9.5628e-05,-817.93,-0.0005108,-5374.4,0.057868
17598,3.0509,2.3636,0,0.0005027,5023.5,0.00020707,-0.017745,9.1401e-05,-869.09,-0.00051181,-5401.4,0.054752
17599,3.1434,2.3636,0.05,1.6993e-06,16.981,1.3049e-06,9.8042,-7.8645e-14,-6.3707e-06,-1.3049e-06,-9.8043,0.057948
17600,3.1434,2.0909,0,0.00050422,5038.7,0.00020354,-0.010185,9.9686e-05,-780.33,-0.00051294,-5383.3,0.057598
17601,3.0509,2.1818,0,0.00050476,5044.1,0.00020617,-0.012711,9.5156e-05,-834.12,-0.00051374,-5409.1,0.054519
17602,3.1434,2.1818,0.05,1.7041e-06,17.029,1.3085e-06,9.8315,7.2071e-13,-1.6381e-05,-1.3085e-06,-9.8316,0.057709
17603,3.1434,1.9091,0,0.00050705,5067,0.00020241,-0.0021582,0.00010458,-735.09,-0.00051553,-5394.4,0.057261
17604,3.0509,2,0,0.00050734,5069.9,0.00020507,-0.0057533,9.9798e-05,-790.96,-0.00051615,-5418.9,0.054224
17605,3.1434,2,0.05,1.7096e-06,17.084,1.3127e-06,9.8633,-5.4384e-13,-1.3358e-05,-1.3127e-06,-9.8633,0.057406
17606,3.1434,1.7273,0,0.0005104,5100.4,0.00020111,0.0083551,0.00011025,-682.66,-0.00051857,-5407.4,0.056857
17607,3.0509,1.8182,0,0.00051047,5101.2,0.00020378,0.0035779,0.00010529,-740,-0.00051902,-5430.8,0.053864
17608,3.1434,1.8182,0.05,1.7154e-06,17.142,1.3172e-06,9.8968,1.2686e-12,-6.1281e-06,-1.3172e-06,-9.8968,0.057036
17609,3.1434,1.5455,0,0.00051426,5139,0.00019966,0.021939,0.00011665,-623.64,-0.00052202,-5422.4,0.056381
17610,3.0509,1.6364,0,0.00051414,5137.8,0.00020231,0.015827,0.00011157,-681.78,-0.00052233,-5444.7,0.053435
17611,3.1434,1.6364,0.05,1.7208e-06,17.196,1.3214e-06,9.9282,8.5824e-13,-2.0531e-05,-1.3214e-06,-9.9283,0.056596
17612,3.1434,1.3636,0,0.00051862,5182.6,0.00019807,0.039255,0.00012371,-558.71,-0.00052585,-5439.3,0.055829
17613,3.0509,1.4545,0,0.00051834,5179.8,0.0002007,0.031773,0.00011859,-616.93,-0.00052607,-5460.6,0.052933
17614,3.1434,1.4545,0.05,1.725e-06,17.238,1.3246e-06,9.9524,-3.418e-13,-3.7462e-05,-1.3246e-06,-9.9525,0.056082
17615,3.1434,1.1818,0,0.00052344,5230.8,0.00019638,0.061774,0.00013133,-488.67,-0.00053004,-5458,0.055196
17616,3.0509,1.2727,0,0.00052305,5226.8,0.00019896,0.052152,0.00012625,-546.24,-0.00053019,-5478.5,0.052355
17617,3.1434,1.2727,0.05,1.7269e-06,17.257,1.3261e-06,9.9634,-6.8938e-13,-2.1764e-05,-1.3261e-06,-9.9635,0.05549
17618,3.1434,1,0,0.0005287,5283.3,0.0001946,0.090003,0.00013944,-414.4,-0.00053452,-5478.3,0.054479
17619,3.0509,1.0909,0,0.00052824,5278.7,0.00019711,0.079482,0.00013447,-470.61,-0.00053466,-5498.2,0.051694
17620,3.1434,1.0909,0.05,1.7254e-06,17.242,1.3249e-06,9.9549,1.2839e-12,-5.0523e-05,-1.3249e-06,-9.955,0.054816
17621,3.1434,0.81818,0,0.00053433,5339.6,0.00019276,0.13366,0.00014791,-336.85,-0.00053926,-5500,0.053671
17622,3.0509,0.90909,0,0.00053386,5334.9,0.0001952,0.11267,0.00014314,-391,-0.00053943,-5519.6,0.050947
17623,3.1434,0.90909,0.05,1.7196e-06,17.184,1.3205e-06,9.9214,-5.5741e-12,-5.3897e-05,-1.3205e-06,-9.9214,0.054054
17624,3.1434,0.63636,0,0.00054028,5399.1,0.00019089,0.17768,0.00015666,-257.01,-0.00054419,-5522.9,0.052767
17625,3.0509,0.72727,0,0.00053986,5394.9,0.00019323,0.17394,0.00015215,-308.49,-0.00054445,-5542.4,0.050107
17626,3.1434,0.72727,0.05,1.709e-06,17.078,1.3123e-06,9.86,-1.0805e-11,-5.7889e-05,-1.3123e-06,-9.8601,0.053198
17627,3.1434,0.45455,0,0.00054652,5461.4,0.00018901,0.38281,0.00016558,-175.66,-0.00054929,-5546.9,0.051762
17628,3.0509,0.54545,0,0.00054618,5458.1,0.00019125,0.21294,0.00016139,-224.13,-0.00054965,-5566.6,0.049169
17629,3.1434,0.54545,0.05,1.6971e-06,16.96,1.3032e-06,9.7917,-2.2493e-12,-3.801e-05,-1.3032e-06,-9.7917,0.052244
17630,3.1434,0.27273,0,0.00055316,5527.7,0.00018716,0.6675,0.00017476,-92.472,-0.00055466,-5573.1,0.050649
17631,3.0509,0.36364,0,0.00055278,5524,0.00018929,0.63149,0.00017076,-138.61,-0.000555,-5591.7,0.048126
17632,3.1434,0.36364,0.05,1.7351e-06,17.339,1.3323e-06,10.011,-2.9872e-12,-2.9205e-05,-1.3323e-06,-10.011,0.051186
17633,3.0509,0.18182,0,0.00056,5596.1,0.00018742,1.2531,0.00018048,-50.834,-0.00056082,-5620.7,0.046972
17634,3.1434,0.18182,0.05,2.8337e-06,28.318,2.176e-06,16.349,3.0499e-12,-3.4227e-05,-2.176e-06,-16.349,0.050016
17635,3.1434,0.090909,0,0.00055803,5576.5,0.00018543,0.45728,0.00018203,-25.11,-0.00055845,-5588.8,0.049423
17636,2.9585,5.7273,0,0.00055962,5592.3,0.00018949,0.76396,0.00017656,-96.375,-0.00056118,-5639.5,0.044573
17637,2.866,5.8182,0,0.00056674,5663.5,0.00018966,1.5319,0.0001827,-50.793,-0.00056756,-5687.9,0.041103
17638,2.9585,5.8182,0.05,3.0382e-06,30.361,2.333e-06,17.529,-4.9486e-22,3.016e-06,-2.333e-06,-17.529,0.043955
17639,2.9585,5.9091,0,0.00056468,5642.9,0.00018761,0.50804,0.00018426,-24.625,-0.00056509,-5654.9,0.043377
17640,2.9585,5.5455,0,0.00055244,5520.6,0.00019152,0.42362,0.00016659,-186.92,-0.00055538,-5611.5,0.045654
17641,2.866,5.6364,0,0.00055889,5585.1,0.0001917,0.6998,0.00017212,-146.37,-0.00056123,-5656.5,0.042223
17642,2.9585,5.6364,0.05,1.8075e-06,18.062,1.3879e-06,10.428,-2.944e-22,-2.212e-15,-1.3879e-06,-10.428,0.045093
17643,2.9585,5.3636,0,0.00054575,5453.8,0.00019359,0.19716,0.0001569,-275.48,-0.00054991,-5586.2,0.046627
17644,2.866,5.4545,0,0.0005518,5514.2,0.00019385,0.2377,0.00016194,-239.46,-0.00055548,-5629.9,0.043232
17645,2.9585,5.4545,0.05,1.7704e-06,17.692,1.3594e-06,10.214,4.5269e-13,3.7974e-06,-1.3594e-06,-10.214,0.04612
17646,2.9585,5.1818,0,0.00053939,5390.2,0.00019566,0.14748,0.0001474,-362.52,-0.00054464,-5562.2,0.047499
17647,2.866,5.2727,0,0.00054504,5446.6,0.00019605,0.19221,0.00015191,-331.43,-0.00054991,-5604.7,0.044137
17648,2.9585,5.2727,0.05,1.7863e-06,17.851,1.3717e-06,10.306,8.6931e-13,3.811e-06,-1.3717e-06,-10.306,0.047042
17649,2.9585,5,0,0.00053339,5330.2,0.00019771,0.099103,0.00013819,-447.1,-0.00053959,-5539.7,0.048276
17650,2.866,5.0909,0,0.00053864,5382.7,0.00019823,0.12423,0.00014212,-421.49,-0.00054457,-5581,0.044944
17651,2.9585,5.0909,0.05,1.8001e-06,17.989,1.3823e-06,10.386,-6.6198e-12,-2.203e-15,-1.3823e-06,-10.386,0.047867
17652,2.9585,4.8182,0,0.00052783,5274.7,0.00019969,0.067932,0.0001294,-528.1,-0.00053483,-5518.8,0.048964
17653,2.866,4.9091,0,0.00053268,5323.2,0.00020037,0.087364,0.0001327,-508.35,-0.00053951,-5559.1,0.045659
17654,2.9585,4.9091,0.05,1.8079e-06,18.067,1.3883e-06,10.431,-2.3149e-12,-2.3208e-05,-1.3883e-06,-10.431,0.048599
17655,2.9585,4.6364,0,0.00052276,5224,0.00020158,0.043331,0.00012114,-604.41,-0.00053041,-5499.9,0.049569
17656,2.866,4.7273,0,0.00052723,5268.6,0.00020243,0.057353,0.00012379,-590.81,-0.00053478,-5539.1,0.046289
17657,2.9585,4.7273,0.05,1.8106e-06,18.093,1.3903e-06,10.446,3.2092e-12,-4.6392e-06,-1.3903e-06,-10.446,0.049244
17658,2.9585,4.4545,0,0.00051821,5178.5,0.00020336,0.024667,0.00011351,-675.05,-0.00052638,-5482.9,0.050095
17659,2.866,4.5455,0,0.00052231,5219.5,0.00020438,0.035267,0.00011551,-667.75,-0.00053046,-5521.3,0.04684
17660,2.9585,4.5455,0.05,1.8093e-06,18.081,1.3893e-06,10.439,1.0331e-12,3.6054e-06,-1.3893e-06,-10.439,0.049809
17661,2.9585,4.2727,0,0.00051421,5138.5,0.00020498,0.010273,0.00010661,-739.13,-0.00052277,-5468,0.050548
17662,2.866,4.3636,0,0.00051797,5176.1,0.00020619,0.018288,0.00010794,-738.17,-0.00052656,-5505.6,0.047315
17663,2.9585,4.3636,0.05,1.8056e-06,18.044,1.3865e-06,10.418,2.376e-12,3.4205e-06,-1.3865e-06,-10.418,0.050298
17664,2.9585,4.0909,0,0.00051076,5104.1,0.00020643,-0.00064978,0.0001005,-795.93,-0.00051962,-5455.3,0.050931
17665,2.866,4.1818,0,0.00051421,5138.6,0.00020783,0.0055175,0.00010119,-801.23,-0.00052313,-5492.1,0.047721
17666,2.9585,4.1818,0.05,1.8007e-06,17.994,1.3827e-06,10.389,-2.9329e-22,3.1627e-06,-1.3827e-06,-10.389,0.050716
17667,2.9585,3.9091,0,0.00050787,5075.2,0.0002077,-0.0088125,9.5256e-05,-844.84,-0.00051694,-5444.6,0.05125
17668,2.866,4,0,0.00051104,5106.8,0.00020927,-0.0039826,9.5306e-05,-856.28,-0.00052019,-5480.8,0.048061
17669,2.9585,4,0.05,1.7955e-06,17.942,1.3787e-06,10.359,9.9558e-13,-1.7278e-05,-1.3787e-06,-10.359,0.051066
17670,2.9585,3.7273,0,0.00050554,5051.9,0.00020875,-0.014758,9.0914e-05,-885.39,-0.00051474,-5436.1,0.051506
17671,2.866,3.8182,0,0.00050843,5080.8,0.0002105,-0.010888,9.0349e-05,-902.79,-0.00051773,-5471.7,0.048339
17672,2.9585,3.8182,0.05,1.7907e-06,17.895,1.3751e-06,10.332,1.9006e-12,-3.3251e-06,-1.3751e-06,-10.332,0.051353
17673,2.9585,3.5455,0,0.00050374,5033.9,0.00020959,-0.018928,8.7509e-05,-917.25,-0.00051303,-5429.5,0.051702
17674,2.866,3.6364,0,0.00050637,5060.2,0.0002115,-0.01576,8.6351e-05,-940.37,-0.00051577,-5464.5,0.048558
17675,2.9585,3.6364,0.05,1.7868e-06,17.856,1.372e-06,10.309,1.6429e-13,-6.6895e-06,-1.3721e-06,-10.309,0.051579
17676,2.9585,3.3636,0,0.00050247,5021.2,0.00021019,-0.021664,8.5062e-05,-940.17,-0.00051181,-5424.8,0.051841
17677,2.866,3.4545,0,0.00050485,5045.1,0.00021227,-0.019034,8.3336e-05,-968.76,-0.00051431,-5459.2,0.04872
17678,2.9585,3.4545,0.05,1.7839e-06,17.827,1.3698e-06,10.292,7.4648e-14,-2.3396e-06,-1.3698e-06,-10.292,0.051746
17679,2.9585,3.1818,0,0.00050171,5013.6,0.00021055,-0.023209,8.3589e-05,-953.98,-0.00051108,-5422.1,0.051923
17680,2.866,3.2727,0,0.00050385,5035,0.00021278,-0.021038,8.1319e-05,-987.77,-0.00051333,-5455.7,0.048827
17681,2.9585,3.2727,0.05,1.782e-06,17.808,1.3684e-06,10.281,1.8278e-12,-4.3077e-07,-1.3684e-06,-10.281,0.051856
17682,2.9585,3,0,0.00050146,5011.1,0.00021067,-0.023707,8.3097e-05,-958.59,-0.00051083,-5421.2,0.051951
17683,2.866,3.0909,0,0.00050335,5030.1,0.00021304,-0.021986,8.0309e-05,-997.3,-0.00051285,-5454,0.04888
17684,2.9585,3.0909,0.05,1.7811e-06,17.799,1.3677e-06,10.276,9.5001e-13,2.4132e-07,-1.3677e-06,-10.276,0.051911
17685,2.9585,2.8182,0,0.00050171,5013.6,0.00021055,-0.023209,8.3589e-05,-953.98,-0.00051108,-5422.1,0.051923
17686,2.866,2.9091,0,0.00050335,5030.1,0.00021304,-0.021986,8.0309e-05,-997.3,-0.00051285,-5454,0.04888
17687,2.9585,2.9091,0.05,1.7811e-06,17.799,1.3677e-06,10.276,8.4443e-13,-8.2253e-06,-1.3677e-06,-10.276,0.051911
17688,2.9585,2.6364,0,0.00050247,5021.2,0.00021019,-0.021664,8.5062e-05,-940.17,-0.00051181,-5424.8,0.051841
17689,2.866,2.7273,0,0.00050385,5035,0.00021278,-0.021038,8.1319e-05,-987.77,-0.00051333,-5455.7,0.048827
17690,2.9585,2.7273,0.05,1.782e-06,17.808,1.3684e-06,10.281,1.5662e-12,-2.7348e-06,-1.3684e-06,-10.281,0.051856
17691,2.9585,2.4545,0,0.00050374,5033.9,0.00020959,-0.018928,8.7509e-05,-917.25,-0.00051303,-5429.5,0.051702
17692,2.866,2.5455,0,0.00050485,5045.1,0.00021227,-0.019033,8.3336e-05,-968.76,-0.00051431,-5459.2,0.04872
17693,2.9585,2.5455,0.05,1.7839e-06,17.827,1.3698e-06,10.292,3.5118e-13,-6.2907e-06,-1.3698e-06,-10.292,0.051746
17694,2.9585,2.2727,0,0.00050554,5051.9,0.00020875,-0.014758,9.0914e-05,-885.39,-0.00051474,-5436.1,0.051506
17695,2.866,2.3636,0,0.00050637,5060.2,0.0002115,-0.015759,8.6351e-05,-940.37,-0.00051577,-5464.5,0.048558
17696,2.9585,2.3636,0.05,1.7868e-06,17.856,1.3721e-06,10.309,3.0937e-13,-2.2995e-05,-1.3721e-06,-10.309,0.051579
17697,2.9585,2.0909,0,0.00050787,5075.2,0.0002077,-0.0088122,9.5256e-05,-844.84,-0.00051694,-5444.6,0.05125
17698,2.866,2.1818,0,0.00050843,5080.8,0.0002105,-0.010888,9.0349e-05,-902.79,-0.00051773,-5471.7,0.048339
17699,2.9585,2.1818,0.05,1.7907e-06,17.895,1.375e-06,10.332,2.0307e-13,-1.0602e-05,-1.3751e-06,-10.332,0.051353
17700,2.9585,1.9091,0,0.00051076,5104.1,0.00020643,-0.00064943,0.0001005,-795.93,-0.00051962,-5455.3,0.050931
17701,2.866,2,0,0.00051104,5106.8,0.00020927,-0.0039824,9.5306e-05,-856.28,-0.00052019,-5480.8,0.048061
17702,2.9585,2,0.05,1.7955e-06,17.942,1.3787e-06,10.359,1.5218e-13,-2.1523e-05,-1.3787e-06,-10.359,0.051066
17703,2.9585,1.7273,0,0.00051421,5138.5,0.00020498,0.010274,0.00010661,-739.13,-0.00052277,-5468,0.050548
17704,2.866,1.8182,0,0.00051421,5138.6,0.00020783,0.0055179,0.00010119,-801.23,-0.00052313,-5492.1,0.047721
17705,2.9585,1.8182,0.05,1.8007e-06,17.994,1.3827e-06,10.389,-1.6489e-12,-1.8198e-05,-1.3827e-06,-10.389,0.050716
17706,2.9585,1.5455,0,0.00051821,5178.5,0.00020336,0.024668,0.00011351,-675.05,-0.00052638,-5482.9,0.050095
17707,2.866,1.6364,0,0.00051797,5176.1,0.00020619,0.018288,0.00010794,-738.17,-0.00052656,-5505.6,0.047315
17708,2.9585,1.6364,0.05,1.8056e-06,18.044,1.3865e-06,10.417,1.8916e-13,-3.7434e-05,-1.3865e-06,-10.418,0.050298
17709,2.9585,1.3636,0,0.00052276,5224,0.00020158,0.043331,0.00012114,-604.41,-0.00053041,-5499.9,0.049569
17710,2.866,1.4545,0,0.00052231,5219.5,0.00020438,0.035268,0.00011551,-667.75,-0.00053046,-5521.3,0.04684
17711,2.9585,1.4545,0.05,1.8093e-06,18.081,1.3893e-06,10.439,-1.8461e-12,-2.4153e-05,-1.3894e-06,-10.439,0.049809
17712,2.9585,1.1818,0,0.00052783,5274.7,0.00019969,0.067932,0.0001294,-528.1,-0.00053483,-5518.8,0.048964
17713,2.866,1.2727,0,0.00052723,5268.6,0.00020243,0.057353,0.00012379,-590.81,-0.00053478,-5539.1,0.046289
17714,2.9585,1.2727,0.05,1.8106e-06,18.093,1.3903e-06,10.446,-2.8291e-12,-4.7843e-05,-1.3903e-06,-10.446,0.049244
17715,2.9585,1,0,0.00053339,5330.2,0.00019771,0.099104,0.00013819,-447.1,-0.00053959,-5539.7,0.048276
17716,2.866,1.0909,0,0.00053268,5323.2,0.00020037,0.087365,0.0001327,-508.35,-0.00053951,-5559.1,0.045659
17717,2.9585,1.0909,0.05,1.8079e-06,18.067,1.3883e-06,10.431,1.1254e-12,-5.3994e-05,-1.3883e-06,-10.431,0.048599
17718,2.9585,0.81818,0,0.00053939,5390.2,0.00019566,0.14748,0.0001474,-362.52,-0.00054464,-5562.2,0.047499
17719,2.866,0.90909,0,0.00053864,5382.7,0.00019823,0.12423,0.00014212,-421.49,-0.00054457,-5581,0.044944
17720,2.9585,0.90909,0.05,1.8001e-06,17.989,1.3823e-06,10.386,4.8012e-13,-2.9672e-05,-1.3823e-06,-10.386,0.047867
17721,2.9585,0.63636,0,0.00054575,5453.8,0.00019359,0.19716,0.0001569,-275.48,-0.00054991,-5586.2,0.046627
17722,2.866,0.72727,0,0.00054504,5446.6,0.00019605,0.19221,0.00015191,-331.43,-0.00054991,-5604.7,0.044137
17723,2.9585,0.72727,0.05,1.7863e-06,17.851,1.3717e-06,10.306,8.6931e-13,-6.3732e-05,-1.3717e-06,-10.306,0.047042
17724,2.9585,0.45455,0,0.00055244,5520.6,0.00019152,0.42362,0.00016659,-186.92,-0.00055538,-5611.5,0.045654
17725,2.866,0.54545,0,0.0005518,5514.2,0.00019385,0.2377,0.00016194,-239.46,-0.00055548,-5629.9,0.043232
17726,2.9585,0.54545,0.05,1.7704e-06,17.692,1.3594e-06,10.214,-7.1444e-12,-7.0633e-05,-1.3595e-06,-10.214,0.04612
17727,2.9585,0.27273,0,0.00055962,5592.3,0.00018949,0.76396,0.00017656,-96.375,-0.00056118,-5639.5,0.044573
17728,2.866,0.36364,0,0.00055889,5585.1,0.0001917,0.6998,0.00017212,-146.37,-0.00056123,-5656.5,0.042223
17729,2.9585,0.36364,0.05,1.8075e-06,18.062,1.3879e-06,10.428,4.1108e-13,-6.4001e-05,-1.3879e-06,-10.428,0.045093
17730,2.866,0.18182,0,0.00056674,5663.5,0.00018966,1.5319,0.0001827,-50.793,-0.00056756,-5687.9,0.041103
17731,2.9585,0.18182,0.05,3.0382e-06,30.361,2.333e-06,17.529,2.9888e-12,-2.3662e-05,-2.333e-06,-17.529,0.043955
17732,2.9585,0.090909,0,0.00056468,5642.9,0.00018761,0.50804,0.00018426,-24.625,-0.00056509,-5654.9,0.043377
17733,2.7736,5.7273,0,0.000566,5656.1,0.00019179,0.87875,0.00017836,-100.04,-0.00056762,-5705,0.038877
17734,2.6811,5.8182,0,0.0005734,5730.1,0.00019186,1.8991,0.00018494,-50.102,-0.0005742,-5754,0.035618
17735,2.7736,5.8182,0.05,3.2512e-06,32.49,2.4965e-06,18.758,-5.2955e-22,-3.9789e-15,-2.4965e-06,-18.758,0.038277
17736,2.7736,5.9091,0,0.00057123,5708.4,0.00018973,0.57015,0.0001865,-23.664,-0.00057162,-5719.9,0.037717
17737,2.7736,5.5455,0,0.00055824,5578.6,0.00019401,0.46959,0.0001675,-198.72,-0.00056135,-5675,0.039923
17738,2.6811,5.6364,0,0.00056487,5644.8,0.00019406,0.77735,0.00017342,-154.29,-0.00056732,-5719.9,0.036701
17739,2.7736,5.6364,0.05,1.8862e-06,18.849,1.4484e-06,10.883,4.4969e-13,3.7722e-06,-1.4484e-06,-10.883,0.03938
17740,2.7736,5.3636,0,0.00055107,5506.9,0.0001963,0.21902,0.00015698,-295.26,-0.0005555,-5648.5,0.040861
17741,2.6811,5.4545,0,0.00055725,5568.6,0.00019644,0.26579,0.00016236,-255.79,-0.00056115,-5692,0.037673
17742,2.7736,5.4545,0.05,1.8525e-06,18.512,1.4225e-06,10.688,-3.0173e-22,-2.2671e-15,-1.4225e-06,-10.688,0.040371
17743,2.7736,5.1818,0,0.00054428,5439.1,0.00019861,0.16277,0.00014665,-390.26,-0.00054987,-5623.6,0.041698
17744,2.6811,5.2727,0,0.00055002,5496.4,0.00019888,0.21254,0.00015144,-356.23,-0.00055521,-5665.7,0.03854
17745,2.7736,5.2727,0.05,1.8737e-06,18.724,1.4387e-06,10.81,4.4984e-13,3.7735e-06,-1.4387e-06,-10.81,0.041258
17746,2.7736,5,0,0.00053792,5375.5,0.00020089,0.10905,0.00013665,-482.62,-0.0005445,-5600.5,0.042441
17747,2.6811,5.0909,0,0.00054322,5428.5,0.00020132,0.13692,0.0001408,-454.64,-0.00054953,-5641.4,0.039311
17748,2.7736,5.0909,0.05,1.8912e-06,18.899,1.4522e-06,10.911,4.5372e-13,-3.2568e-05,-1.4522e-06,-10.911,0.042048
17749,2.7736,4.8182,0,0.00053207,5317,0.00020311,0.074603,0.00012711,-570.98,-0.00053948,-5579.4,0.043096
17750,2.6811,4.9091,0,0.00053695,5365.8,0.00020372,0.095889,0.00013057,-549.5,-0.00054418,-5619.3,0.039991
17751,2.7736,4.9091,0.05,1.9012e-06,18.999,1.4599e-06,10.969,1.3915e-12,-2.1971e-05,-1.4599e-06,-10.969,0.042746
17752,2.7736,4.6364,0,0.00052677,5264.1,0.00020523,0.047775,0.00011817,-654.1,-0.00053484,-5560.5,0.04367
17753,2.6811,4.7273,0,0.00053125,5308.8,0.00020603,0.062955,0.00012093,-639.4,-0.00053923,-5599.5,0.040588
17754,2.7736,4.7273,0.05,1.9051e-06,19.038,1.4629e-06,10.992,9.0022e-13,-2.3315e-15,-1.4629e-06,-10.992,0.04336
17755,2.7736,4.4545,0,0.00052207,5217.1,0.00020721,0.027765,0.00010994,-730.86,-0.00053064,-5543.9,0.044168
17756,2.6811,4.5455,0,0.00052617,5258.1,0.00020822,0.03912,0.00011198,-723.06,-0.00053473,-5582.2,0.041107
17757,2.7736,4.5455,0.05,1.9046e-06,19.032,1.4625e-06,10.988,-3.1021e-22,3.6776e-06,-1.4625e-06,-10.988,0.043895
17758,2.7736,4.2727,0,0.00051797,5176.1,0.00020903,0.012658,0.00010252,-800.3,-0.00052692,-5529.6,0.044595
17759,2.6811,4.3636,0,0.00052174,5213.8,0.00021025,0.021195,0.00010385,-799.39,-0.00053072,-5567.3,0.041555
17760,2.7736,4.3636,0.05,1.9014e-06,19.001,1.4601e-06,10.97,4.1785e-13,-2.327e-15,-1.4601e-06,-10.97,0.044357
17761,2.7736,4.0909,0,0.00051448,5141.2,0.00021066,0.001476,9.5981e-05,-861.66,-0.00052369,-5517.6,0.044956
17762,2.6811,4.1818,0,0.00051794,5175.9,0.00021208,0.0080676,9.6623e-05,-867.51,-0.00052722,-5554.8,0.041935
17763,2.7736,4.1818,0.05,1.8972e-06,18.959,1.4568e-06,10.946,-1.6958e-12,-1.1298e-05,-1.4568e-06,-10.946,0.044751
17764,2.7736,3.9091,0,0.00051158,5112.3,0.00021207,-0.0066529,9.0384e-05,-914.34,-0.00052096,-5507.8,0.045254
17765,2.6811,4,0,0.00051477,5144.2,0.0002137,-0.0014075,9.0358e-05,-926.75,-0.00052424,-5544.6,0.042253
17766,2.7736,4,0.05,1.8931e-06,18.918,1.4536e-06,10.922,1.0956e-12,-1.0817e-05,-1.4536e-06,-10.922,0.04508
17767,2.7736,3.7273,0,0.00050926,5089,0.00021325,-0.012404,8.5767e-05,-957.9,-0.00051874,-5499.9,0.045494
17768,2.6811,3.8182,0,0.0005122,5118.5,0.00021508,-0.0080707,8.5098e-05,-976.63,-0.00052178,-5536.4,0.042512
17769,2.7736,3.8182,0.05,1.8896e-06,18.883,1.4509e-06,10.902,1.2451e-12,-2.3125e-15,-1.4509e-06,-10.902,0.045349
17770,2.7736,3.5455,0,0.00050748,5071.3,0.00021419,-0.016324,8.2157e-05,-992.04,-0.00051702,-5494,0.045678
17771,2.6811,3.6364,0,0.0005102,5098.4,0.0002162,-0.012613,8.0873e-05,-1016.8,-0.00051983,-5530.2,0.042716
17772,2.7736,3.6364,0.05,1.887e-06,18.857,1.449e-06,10.887,1.2012e-12,1.0076e-06,-1.449e-06,-10.887,0.04556
17773,2.7736,3.3636,0,0.00050623,5058.8,0.00021486,-0.018831,7.957e-05,-1016.5,-0.0005158,-5489.9,0.045807
17774,2.6811,3.4545,0,0.00050873,5083.7,0.00021705,-0.015566,7.7696e-05,-1047.1,-0.00051838,-5525.8,0.042867
17775,2.7736,3.4545,0.05,1.8853e-06,18.84,1.4477e-06,10.877,2.0563e-12,2.5871e-06,-1.4477e-06,-10.877,0.045716
17776,2.7736,3.1818,0,0.00050549,5051.4,0.00021527,-0.020218,7.8014e-05,-1031.3,-0.00051507,-5487.5,0.045884
17777,2.6811,3.2727,0,0.00050776,5074.1,0.00021763,-0.017323,7.5576e-05,-1067.3,-0.00051742,-5522.9,0.042966
17778,2.7736,3.2727,0.05,1.8843e-06,18.83,1.4469e-06,10.872,1.058e-12,2.6172e-07,-1.4469e-06,-10.872,0.045819
17779,2.7736,3,0,0.00050525,5049,0.0002154,-0.020661,7.7495e-05,-1036.2,-0.00051483,-5486.7,0.04591
17780,2.6811,3.0909,0,0.00050729,5069.4,0.00021791,-0.018139,7.4516e-05,-1077.4,-0.00051695,-5521.5,0.043015
17781,2.7736,3.0909,0.05,1.8839e-06,18.826,1.4466e-06,10.869,1.8704e-12,2.2383e-07,-1.4466e-06,-10.869,0.045871
17782,2.7736,2.8182,0,0.00050549,5051.4,0.00021527,-0.020218,7.8014e-05,-1031.3,-0.00051507,-5487.5,0.045884
17783,2.6811,2.9091,0,0.00050729,5069.4,0.00021791,-0.018139,7.4516e-05,-1077.4,-0.00051695,-5521.5,0.043015
17784,2.7736,2.9091,0.05,1.8839e-06,18.826,1.4466e-06,10.869,1.7618e-12,-1.5826e-05,-1.4466e-06,-10.869,0.045871
17785,2.7736,2.6364,0,0.00050623,5058.8,0.00021486,-0.01883,7.957e-05,-1016.5,-0.0005158,-5489.9,0.045807
17786,2.6811,2.7273,0,0.00050776,5074.1,0.00021763,-0.017323,7.5576e-05,-1067.3,-0.00051742,-5522.9,0.042966
17787,2.7736,2.7273,0.05,1.8843e-06,18.83,1.4469e-06,10.872,1.6587e-12,-2.2203e-06,-1.4469e-06,-10.872,0.045819
17788,2.7736,2.4545,0,0.00050748,5071.3,0.00021419,-0.016324,8.2157e-05,-992.04,-0.00051702,-5494,0.045678
17789,2.6811,2.5455,0,0.00050873,5083.7,0.00021705,-0.015566,7.7696e-05,-1047.1,-0.00051838,-5525.8,0.042867
17790,2.7736,2.5455,0.05,1.8853e-06,18.84,1.4477e-06,10.877,2.3135e-12,-4.2328e-06,-1.4477e-06,-10.877,0.045716
17791,2.7736,2.2727,0,0.00050926,5089,0.00021325,-0.012404,8.5767e-05,-957.9,-0.00051874,-5499.9,0.045494
17792,2.6811,2.3636,0,0.0005102,5098.4,0.0002162,-0.012613,8.0873e-05,-1016.8,-0.00051983,-5530.2,0.042716
17793,2.7736,2.3636,0.05,1.887e-06,18.857,1.449e-06,10.887,1.3214e-12,-2.0152e-06,-1.449e-06,-10.887,0.04556
17794,2.7736,2.0909,0,0.00051158,5112.3,0.00021207,-0.0066527,9.0384e-05,-914.34,-0.00052096,-5507.8,0.045254
17795,2.6811,2.1818,0,0.0005122,5118.5,0.00021508,-0.0080705,8.5098e-05,-976.63,-0.00052178,-5536.4,0.042512
17796,2.7736,2.1818,0.05,1.8896e-06,18.883,1.4509e-06,10.902,1.1502e-12,-1.249e-06,-1.4509e-06,-10.902,0.045349
17797,2.7736,1.9091,0,0.00051448,5141.2,0.00021066,0.0014763,9.5981e-05,-861.66,-0.00052369,-5517.6,0.044956
17798,2.6811,2,0,0.00051477,5144.2,0.0002137,-0.0014072,9.0358e-05,-926.75,-0.00052424,-5544.6,0.042253
17799,2.7736,2,0.05,1.8931e-06,18.918,1.4536e-06,10.922,-3.1376e-13,-1.0817e-05,-1.4536e-06,-10.922,0.04508
17800,2.7736,1.7273,0,0.00051797,5176.1,0.00020903,0.012658,0.00010252,-800.3,-0.00052692,-5529.6,0.044595
17801,2.6811,1.8182,0,0.00051794,5175.9,0.00021208,0.008068,9.6623e-05,-867.51,-0.00052722,-5554.8,0.041935
17802,2.7736,1.8182,0.05,1.8972e-06,18.959,1.4568e-06,10.946,-3.125e-12,-2.1051e-05,-1.4568e-06,-10.946,0.044751
17803,2.7736,1.5455,0,0.00052207,5217.1,0.00020721,0.027766,0.00010994,-730.86,-0.00053064,-5543.9,0.044168
17804,2.6811,1.6364,0,0.00052174,5213.8,0.00021025,0.021196,0.00010385,-799.39,-0.00053072,-5567.3,0.041555
17805,2.7736,1.6364,0.05,1.9014e-06,19.001,1.4601e-06,10.97,1.9025e-12,-2.8992e-05,-1.4601e-06,-10.97,0.044357
17806,2.7736,1.3636,0,0.00052677,5264.1,0.00020523,0.047775,0.00011817,-654.1,-0.00053484,-5560.5,0.04367
17807,2.6811,1.4545,0,0.00052617,5258.1,0.00020822,0.039121,0.00011198,-723.06,-0.00053473,-5582.2,0.041107
17808,2.7736,1.4545,0.05,1.9046e-06,19.032,1.4625e-06,10.988,-3.0127e-13,-2.2411e-05,-1.4625e-06,-10.988,0.043895
17809,2.7736,1.1818,0,0.00053207,5317,0.00020311,0.074603,0.00012711,-570.98,-0.00053948,-5579.4,0.043096
17810,2.6811,1.2727,0,0.00053125,5308.8,0.00020603,0.062956,0.00012093,-639.4,-0.00053923,-5599.5,0.040588
17811,2.7736,1.2727,0.05,1.9051e-06,19.038,1.4629e-06,10.992,-2.6002e-12,-2.617e-05,-1.4629e-06,-10.992,0.04336
17812,2.7736,1,0,0.00053792,5375.5,0.00020089,0.10905,0.00013665,-482.62,-0.0005445,-5600.5,0.042441
17813,2.6811,1.0909,0,0.00053695,5365.8,0.00020372,0.095889,0.00013057,-549.5,-0.00054418,-5619.3,0.039991
17814,2.7736,1.0909,0.05,1.9012e-06,18.999,1.4599e-06,10.969,-1.1719e-12,-2.3267e-15,-1.4599e-06,-10.969,0.042746
17815,2.7736,0.81818,0,0.00054428,5439.1,0.00019861,0.16277,0.00014665,-390.26,-0.00054987,-5623.6,0.041698
17816,2.6811,0.90909,0,0.00054322,5428.5,0.00020132,0.13692,0.0001408,-454.64,-0.00054953,-5641.4,0.039311
17817,2.7736,0.90909,0.05,1.8912e-06,18.899,1.4522e-06,10.911,-2.1856e-12,-2.3144e-15,-1.4522e-06,-10.911,0.042048
17818,2.7736,0.63636,0,0.00055107,5506.9,0.0001963,0.21902,0.00015698,-295.26,-0.0005555,-5648.5,0.040861
17819,2.6811,0.72727,0,0.00055002,5496.4,0.00019888,0.21254,0.00015144,-356.23,-0.00055521,-5665.7,0.03854
17820,2.7736,0.72727,0.05,1.8737e-06,18.724,1.4387e-06,10.81,3.2634e-13,-3.4991e-05,-1.4387e-06,-10.81,0.041258
17821,2.7736,0.45455,0,0.00055824,5578.6,0.00019401,0.46959,0.0001675,-198.72,-0.00056135,-5675,0.039923
17822,2.6811,0.54545,0,0.00055725,5568.6,0.00019644,0.26579,0.00016236,-255.79,-0.00056115,-5692,0.037673
17823,2.7736,0.54545,0.05,1.8525e-06,18.512,1.4225e-06,10.688,-2.6412e-12,-2.2671e-15,-1.4225e-06,-10.688,0.040371
17824,2.7736,0.27273,0,0.000566,5656.1,0.00019179,0.87876,0.00017836,-100.04,-0.00056762,-5705,0.038877
17825,2.6811,0.36364,0,0.00056487,5644.8,0.00019406,0.77735,0.00017342,-154.29,-0.00056732,-5719.9,0.036701
17826,2.7736,0.36364,0.05,1.8862e-06,18.849,1.4484e-06,10.883,-7.5842e-12,-7.3887e-05,-1.4484e-06,-10.883,0.03938
17827,2.6811,0.18182,0,0.0005734,5730.1,0.00019186,1.8991,0.00018494,-50.102,-0.0005742,-5754,0.035618
17828,2.7736,0.18182,0.05,3.2512e-06,32.49,2.4965e-06,18.758,-2.9085e-12,-3.6607e-05,-2.4965e-06,-18.758,0.038277
17829,2.7736,0.090909,0,0.00057123,5708.4,0.00018973,0.57016,0.0001865,-23.664,-0.00057162,-5719.9,0.037717
17830,2.5887,5.7273,0,0.00057225,5718.6,0.00019403,1.0165,0.00018013,-103.4,-0.00057392,-5769,0.033567
17831,2.4962,5.8182,0,0.00057992,5795.2,0.00019398,2.3948,0.00018718,-48.661,-0.00058069,-5818.2,0.030523
17832,2.5887,5.8182,0.05,3.4715e-06,34.691,2.6657e-06,20.029,-5.6543e-22,-4.2484e-15,-2.6657e-06,-20.029,0.032987
17833,2.5887,5.9091,0,0.00057762,5772.3,0.00019177,0.64928,0.00018873,-22.136,-0.00057799,-5783,0.032446
17834,2.5887,5.5455,0,0.00056386,5634.7,0.00019648,0.52156,0.00016831,-211.14,-0.00056714,-5737,0.034573
17835,2.4962,5.6364,0,0.00057062,5702.3,0.00019636,0.86591,0.00017463,-162.41,-0.0005732,-5781.3,0.031564
17836,2.5887,5.6364,0.05,1.9729e-06,19.715,1.5149e-06,11.383,-3.2134e-22,3.6853e-06,-1.5149e-06,-11.383,0.03405
17837,2.5887,5.3636,0,0.00055618,5557.9,0.00019902,0.24356,0.00015685,-316.58,-0.00056088,-5709.3,0.035471
17838,2.4962,5.4545,0,0.00056244,5620.5,0.000199,0.2978,0.00016259,-273.3,-0.00056658,-5752,0.032493
17839,2.5887,5.4545,0.05,1.9459e-06,19.445,1.4942e-06,11.227,8.6282e-13,3.6189e-06,-1.4942e-06,-11.227,0.035001
17840,2.5887,5.1818,0,0.00054895,5485.7,0.00020159,0.17964,0.00014561,-420.45,-0.00055489,-5683.7,0.03627
17841,2.4962,5.2727,0,0.00055473,5543.5,0.00020173,0.23523,0.0001507,-383.23,-0.00056025,-5725,0.033319
17842,2.5887,5.2727,0.05,1.9735e-06,19.721,1.5154e-06,11.386,8.7939e-13,3.6884e-06,-1.5154e-06,-11.386,0.035849
17843,2.5887,5,0,0.00054224,5418.6,0.00020415,0.11984,0.00013474,-521.39,-0.00054922,-5660.4,0.036975
17844,2.4962,5.0909,0,0.00054754,5471.6,0.00020447,0.15085,0.00013911,-490.94,-0.00055423,-5700.5,0.03405
17845,2.5887,5.0909,0.05,1.9952e-06,19.938,1.5321e-06,11.511,7.5751e-13,-2.4417e-15,-1.5321e-06,-11.511,0.0366
17846,2.5887,4.8182,0,0.00053611,5357.4,0.00020664,0.081758,0.0001244,-617.83,-0.00054394,-5639.5,0.037594
17847,2.4962,4.9091,0,0.00054097,5405.9,0.00020717,0.10512,0.00012802,-594.63,-0.00054862,-5678.6,0.034692
17848,2.5887,4.9091,0.05,2.0075e-06,20.062,1.5415e-06,11.583,4.5397e-13,-3.5911e-06,-1.5415e-06,-11.583,0.037262
17849,2.5887,4.6364,0,0.00053063,5302.7,0.00020902,0.052579,0.00011475,-708.32,-0.00053912,-5621.2,0.038135
17850,2.4962,4.7273,0,0.00053507,5347,0.00020977,0.069031,0.00011758,-692.63,-0.00054348,-5659.6,0.035252
17851,2.5887,4.7273,0.05,2.0124e-06,20.111,1.5453e-06,11.611,-3.2778e-22,-2.4628e-15,-1.5453e-06,-11.611,0.037841
17852,2.5887,4.4545,0,0.00052583,5254.7,0.00021125,0.031278,0.00010589,-791.6,-0.0005348,-5605.5,0.038602
17853,2.4962,4.5455,0,0.00052989,5295.3,0.00021224,0.043461,0.00010796,-783.48,-0.00053885,-5643.4,0.035738
17854,2.5887,4.5455,0.05,2.0125e-06,20.111,1.5453e-06,11.611,1.4379e-12,3.7343e-06,-1.5453e-06,-11.611,0.038344
17855,2.5887,4.2727,0,0.0005217,5213.4,0.0002133,0.015618,9.795e-05,-866.65,-0.00053101,-5592.4,0.039001
17856,2.4962,4.3636,0,0.00052544,5250.8,0.00021452,0.024753,9.9254e-05,-866.01,-0.00053478,-5629.9,0.036155
17857,2.5887,4.3636,0.05,2.01e-06,20.086,1.5434e-06,11.597,6.1276e-13,-1.9913e-05,-1.5434e-06,-11.597,0.038777
17858,2.5887,4.0909,0,0.00051823,5178.7,0.00021512,0.0043894,9.0987e-05,-932.7,-0.00052775,-5581.7,0.039337
17859,2.4962,4.1818,0,0.00052169,5213.3,0.00021658,0.011504,9.1561e-05,-939.31,-0.00053128,-5619.1,0.036508
17860,2.5887,4.1818,0.05,2.0068e-06,20.055,1.541e-06,11.578,-1.461e-12,-2.456e-15,-1.541e-06,-11.578,0.039144
17861,2.5887,3.9091,0,0.00051538,5150.3,0.00021671,-0.0034872,8.5054e-05,-989.18,-0.00052503,-5573.1,0.039615
17862,2.4962,4,0,0.0005186,5182.5,0.00021839,0.0023049,8.4932e-05,-1002.8,-0.00052833,-5610.6,0.036802
17863,2.5887,4,0.05,2.0042e-06,20.028,1.539e-06,11.563,1.8318e-12,-5.5387e-06,-1.539e-06,-11.563,0.03945
17864,2.5887,3.7273,0,0.00051313,5127.8,0.00021802,-0.0088477,8.0182e-05,-1035.7,-0.00052284,-5566.6,0.039837
17865,2.4962,3.8182,0,0.00051614,5157.9,0.00021993,-0.003887,7.9397e-05,-1055.9,-0.00052593,-5604.1,0.037042
17866,2.5887,3.8182,0.05,2.0025e-06,20.011,1.5377e-06,11.554,-3.2913e-13,2.5578e-06,-1.5377e-06,-11.554,0.039699
17867,2.5887,3.5455,0,0.00051143,5110.8,0.00021907,-0.012358,7.6387e-05,-1072,-0.00052116,-5561.8,0.040007
17868,2.4962,3.6364,0,0.00051425,5138.9,0.00022119,-0.0079125,7.4972e-05,-1098.6,-0.00052405,-5599.4,0.037229
17869,2.5887,3.6364,0.05,2.0019e-06,20.005,1.5372e-06,11.55,1.0831e-12,-2.4499e-15,-1.5372e-06,-11.55,0.039895
17870,2.5887,3.3636,0,0.00051025,5098.9,0.00021982,-0.01452,7.3675e-05,-1098.1,-0.00051997,-5558.5,0.040126
17871,2.4962,3.4545,0,0.00051288,5125.2,0.00022214,-0.010406,7.1659e-05,-1130.6,-0.00052266,-5596.1,0.037368
17872,2.5887,3.4545,0.05,2.0019e-06,20.005,1.5372e-06,11.55,2.2499e-13,2.2649e-06,-1.5372e-06,-11.55,0.04004
17873,2.5887,3.1818,0,0.00050955,5091.9,0.00022027,-0.015682,7.2049e-05,-1113.7,-0.00051927,-5556.6,0.040198
17874,2.4962,3.2727,0,0.00051198,5116.3,0.00022277,-0.011826,6.9454e-05,-1152,-0.00052175,-5594.1,0.037459
17875,2.5887,3.2727,0.05,2.0022e-06,20.008,1.5375e-06,11.552,2.6377e-12,1.3811e-06,-1.5375e-06,-11.552,0.040135
17876,2.5887,3,0,0.00050931,5089.6,0.00022042,-0.016046,7.1507e-05,-1118.9,-0.00051903,-5556,0.040221
17877,2.4962,3.0909,0,0.00051155,5111.9,0.00022309,-0.012465,6.8353e-05,-1162.7,-0.0005213,-5593.1,0.037504
17878,2.5887,3.0909,0.05,2.0025e-06,20.011,1.5377e-06,11.553,9.3704e-13,2.2433e-07,-1.5377e-06,-11.554,0.040182
17879,2.5887,2.8182,0,0.00050955,5091.9,0.00022027,-0.015682,7.2049e-05,-1113.7,-0.00051927,-5556.6,0.040198
17880,2.4962,2.9091,0,0.00051155,5111.9,0.00022309,-0.012465,6.8353e-05,-1162.7,-0.0005213,-5593.1,0.037504
17881,2.5887,2.9091,0.05,2.0025e-06,20.011,1.5377e-06,11.553,8.3102e-13,-6.0705e-07,-1.5377e-06,-11.554,0.040182
17882,2.5887,2.6364,0,0.00051025,5098.9,0.00021982,-0.01452,7.3675e-05,-1098.1,-0.00051997,-5558.5,0.040126
17883,2.4962,2.7273,0,0.00051198,5116.3,0.00022277,-0.011826,6.9454e-05,-1152,-0.00052175,-5594.1,0.037459
17884,2.5887,2.7273,0.05,2.0022e-06,20.008,1.5375e-06,11.552,2.3084e-12,-1.3811e-06,-1.5375e-06,-11.552,0.040135
17885,2.5887,2.4545,0,0.00051143,5110.8,0.00021907,-0.012358,7.6387e-05,-1072,-0.00052116,-5561.8,0.040007
17886,2.4962,2.5455,0,0.00051288,5125.2,0.00022214,-0.010406,7.1659e-05,-1130.6,-0.00052266,-5596.1,0.037368
17887,2.5887,2.5455,0.05,2.0019e-06,20.005,1.5372e-06,11.55,6.0236e-13,-2.2649e-06,-1.5372e-06,-11.55,0.04004
17888,2.5887,2.2727,0,0.00051313,5127.8,0.00021802,-0.0088475,8.0182e-05,-1035.7,-0.00052284,-5566.6,0.039837
17889,2.4962,2.3636,0,0.00051425,5138.9,0.00022119,-0.0079123,7.4972e-05,-1098.6,-0.00052405,-5599.4,0.037229
17890,2.5887,2.3636,0.05,2.0019e-06,20.005,1.5372e-06,11.55,1.3063e-12,-2.7847e-05,-1.5372e-06,-11.55,0.039895
17891,2.5887,2.0909,0,0.00051538,5150.3,0.00021671,-0.0034869,8.5054e-05,-989.18,-0.00052503,-5573.1,0.039615
17892,2.4962,2.1818,0,0.00051614,5157.9,0.00021993,-0.0038868,7.9397e-05,-1055.9,-0.00052593,-5604.1,0.037042
17893,2.5887,2.1818,0.05,2.0025e-06,20.011,1.5377e-06,11.554,-1.3963e-12,-5.1156e-06,-1.5377e-06,-11.554,0.039699
17894,2.5887,1.9091,0,0.00051823,5178.7,0.00021512,0.0043897,9.0987e-05,-932.7,-0.00052775,-5581.7,0.039337
17895,2.4962,2,0,0.0005186,5182.5,0.00021839,0.0023052,8.4932e-05,-1002.8,-0.00052833,-5610.6,0.036802
17896,2.5887,2,0.05,2.0042e-06,20.028,1.539e-06,11.563,1.5026e-12,-1.4491e-05,-1.539e-06,-11.563,0.03945
17897,2.5887,1.7273,0,0.0005217,5213.4,0.0002133,0.015619,9.795e-05,-866.65,-0.00053101,-5592.4,0.039001
17898,2.4962,1.8182,0,0.00052169,5213.3,0.00021658,0.011504,9.1561e-05,-939.31,-0.00053128,-5619.1,0.036508
17899,2.5887,1.8182,0.05,2.0068e-06,20.055,1.541e-06,11.578,1.2388e-12,-2.2235e-05,-1.541e-06,-11.578,0.039144
17900,2.5887,1.5455,0,0.00052583,5254.7,0.00021125,0.031279,0.00010589,-791.6,-0.0005348,-5605.5,0.038602
17901,2.4962,1.6364,0,0.00052544,5250.8,0.00021452,0.024753,9.9254e-05,-866.01,-0.00053478,-5629.9,0.036155
17902,2.5887,1.6364,0.05,2.01e-06,20.086,1.5434e-06,11.597,-2.2412e-12,-2.349e-05,-1.5434e-06,-11.597,0.038777
17903,2.5887,1.3636,0,0.00053063,5302.7,0.00020902,0.05258,0.00011475,-708.32,-0.00053912,-5621.2,0.038135
17904,2.4962,1.4545,0,0.00052989,5295.3,0.00021224,0.043462,0.00010796,-783.48,-0.00053885,-5643.4,0.035738
17905,2.5887,1.4545,0.05,2.0125e-06,20.111,1.5453e-06,11.611,1.1977e-12,-2.8019e-05,-1.5453e-06,-11.611,0.038344
17906,2.5887,1.1818,0,0.00053611,5357.4,0.00020664,0.081759,0.0001244,-617.83,-0.00054394,-5639.5,0.037594
17907,2.4962,1.2727,0,0.00053507,5347,0.00020977,0.069031,0.00011758,-692.63,-0.00054348,-5659.6,0.035252
17908,2.5887,1.2727,0.05,2.0124e-06,20.111,1.5453e-06,11.611,-6.2109e-12,-5.696e-05,-1.5453e-06,-11.611,0.037841
17909,2.5887,1,0,0.00054224,5418.6,0.00020415,0.11984,0.00013474,-521.39,-0.00054922,-5660.4,0.036975
17910,2.4962,1.0909,0,0.00054097,5405.9,0.00020717,0.10512,0.00012802,-594.63,-0.00054862,-5678.6,0.034692
17911,2.5887,1.0909,0.05,2.0075e-06,20.062,1.5415e-06,11.583,-6.444e-12,-7.6163e-06,-1.5415e-06,-11.583,0.037262
17912,2.5887,0.81818,0,0.00054895,5485.7,0.00020159,0.17964,0.00014561,-420.45,-0.00055489,-5683.7,0.03627
17913,2.4962,0.90909,0,0.00054754,5471.6,0.00020447,0.15085,0.00013911,-490.94,-0.00055423,-5700.5,0.03405
17914,2.5887,0.90909,0.05,1.9952e-06,19.938,1.5321e-06,11.511,-3.1792e-12,-2.4417e-15,-1.5321e-06,-11.511,0.0366
17915,2.5887,0.63636,0,0.00055618,5557.9,0.00019902,0.24356,0.00015685,-316.58,-0.00056088,-5709.3,0.035471
17916,2.4962,0.72727,0,0.00055473,5543.5,0.00020173,0.23523,0.0001507,-383.23,-0.00056025,-5725,0.033319
17917,2.5887,0.72727,0.05,1.9735e-06,19.721,1.5154e-06,11.386,6.7741e-13,-7.661e-05,-1.5154e-06,-11.386,0.035849
17918,2.5887,0.45455,0,0.00056386,5634.7,0.00019648,0.52156,0.00016831,-211.14,-0.00056714,-5737,0.034573
17919,2.4962,0.54545,0,0.00056244,5620.5,0.000199,0.2978,0.00016259,-273.3,-0.00056658,-5752,0.032493
17920,2.5887,0.54545,0.05,1.9459e-06,19.445,1.4942e-06,11.227,-8.3331e-12,-4.0168e-05,-1.4942e-06,-11.227,0.035001
17921,2.5887,0.27273,0,0.00057225,5718.6,0.00019403,1.0165,0.00018013,-103.4,-0.00057392,-5769,0.033567
17922,2.4962,0.36364,0,0.00057062,5702.3,0.00019636,0.86591,0.00017463,-162.41,-0.0005732,-5781.3,0.031564
17923,2.5887,0.36364,0.05,1.9729e-06,19.715,1.5149e-06,11.383,-3.9029e-12,-2.4144e-15,-1.5149e-06,-11.383,0.03405
17924,2.4962,0.18182,0,0.00057992,5795.2,0.00019398,2.3948,0.00018718,-48.661,-0.00058069,-5818.2,0.030523
17925,2.5887,0.18182,0.05,3.4715e-06,34.691,2.6657e-06,20.029,-6.9738e-14,-1.2675e-05,-2.6657e-06,-20.029,0.032987
17926,2.5887,0.090909,0,0.00057762,5772.3,0.00019177,0.64928,0.00018873,-22.136,-0.00057799,-5783,0.032446
17927,2.4038,5.7273,0,0.00057828,5778.8,0.00019618,1.1834,0.00018186,-106.41,-0.00057999,-5830.6,0.028646
17928,2.3113,5.8182,0,0.00058621,5858,0.000196,3.0836,0.00018942,-46.371,-0.00058693,-5879.5,0.02582
17929,2.4038,5.8182,0.05,3.6972e-06,36.946,2.839e-06,21.331,-6.0219e-22,-4.5246e-15,-2.839e-06,-21.331,0.028087
17930,2.4038,5.9091,0,0.00058377,5833.7,0.00019369,0.7562,0.00019094,-19.934,-0.00058409,-5843.2,0.027568
17931,2.4038,5.5455,0,0.00056919,5688,0.00019888,0.58069,0.00016895,-224.32,-0.00057266,-5796.5,0.029607
17932,2.3113,5.6364,0,0.00057606,5756.6,0.00019858,0.9676,0.00017572,-170.79,-0.00057876,-5839.6,0.026814
17933,2.4038,5.6364,0.05,2.0701e-06,20.687,1.5896e-06,11.943,-3.3717e-22,-7.4911e-15,-1.5896e-06,-11.943,0.029106
17934,2.4038,5.3636,0,0.00056098,5605.9,0.00020172,0.27131,0.00015646,-339.75,-0.00056598,-5767.9,0.030462
17935,2.3113,5.4545,0,0.00056728,5668.8,0.00020152,0.33429,0.00016257,-292.28,-0.00057167,-5809.1,0.027697
17936,2.4038,5.4545,0.05,2.054e-06,20.526,1.5772e-06,11.851,-3.3456e-22,5.7894e-06,-1.5772e-06,-11.851,0.030013
17937,2.4038,5.1818,0,0.00055331,5529.2,0.00020461,0.19836,0.00014422,-453.54,-0.00055962,-5741.9,0.031217
17938,2.3113,5.2727,0,0.00055907,5586.8,0.00020459,0.26041,0.0001496,-412.9,-0.00056494,-5781.7,0.028478
17939,2.4038,5.2727,0.05,2.0894e-06,20.879,1.6044e-06,12.055,-4.9797e-12,3.5458e-06,-1.6044e-06,-12.055,0.030818
17940,2.4038,5,0,0.00054626,5458.8,0.00020749,0.13164,0.0001324,-564.04,-0.00055366,-5718.8,0.031881
17941,2.3113,5.0909,0,0.0005515,5511.2,0.00020768,0.16593,0.00013698,-531.04,-0.00055861,-5757.4,0.029164
17942,2.4038,5.0909,0.05,2.1155e-06,21.14,1.6244e-06,12.205,6.631e-13,-3.8785e-05,-1.6244e-06,-12.205,0.031527
17943,2.4038,4.8182,0,0.00053991,5395.4,0.0002103,0.089549,0.00012121,-669.33,-0.00054817,-5698.7,0.032461
17944,2.3113,4.9091,0,0.00054467,5443,0.00021073,0.11489,0.00012494,-644.48,-0.00055276,-5736.4,0.029764
17945,2.4038,4.9091,0.05,2.1296e-06,21.282,1.6353e-06,12.287,8.3626e-13,3.7717e-06,-1.6353e-06,-12.287,0.032148
17946,2.4038,4.6364,0,0.00053431,5339.4,0.00021299,0.057947,0.0001108,-767.76,-0.00054321,-5681.7,0.032965
17947,2.3113,4.7273,0,0.00053865,5382.8,0.00021367,0.075453,0.00011367,-751.27,-0.00054748,-5718.9,0.030285
17948,2.4038,4.7273,0.05,2.135e-06,21.336,1.6394e-06,12.318,4.5045e-13,-2.6991e-05,-1.6394e-06,-12.318,0.032689
17949,2.4038,4.4545,0,0.00052949,5291.2,0.0002155,0.035489,0.00010131,-857.91,-0.00053883,-5667.7,0.033399
17950,2.3113,4.5455,0,0.00053346,5330.9,0.00021645,0.048248,0.00010335,-849.75,-0.00054281,-5704.7,0.030735
17951,2.4038,4.5455,0.05,2.1352e-06,21.337,1.6396e-06,12.319,-4.2866e-12,-5.8968e-07,-1.6396e-06,-12.319,0.033157
17952,2.4038,4.2727,0,0.00052541,5250.5,0.0002178,0.019523,9.2854e-05,-938.74,-0.00053504,-5656.5,0.033768
17953,2.3113,4.3636,0,0.00052909,5287.2,0.00021902,0.029013,9.4088e-05,-938.67,-0.00053876,-5693.7,0.031119
17954,2.4038,4.3636,0.05,2.1333e-06,21.319,1.6381e-06,12.308,1.4593e-12,7.2702e-06,-1.6381e-06,-12.308,0.033558
17955,2.4038,4.0909,0,0.00052205,5216.9,0.00021985,0.0085284,8.5489e-05,-1009.5,-0.00053184,-5647.9,0.034078
17956,2.3113,4.1818,0,0.00052549,5251.2,0.00022134,0.015956,8.5961e-05,-1017.2,-0.00053534,-5685.4,0.031443
17957,2.4038,4.1818,0.05,2.1316e-06,21.301,1.6368e-06,12.298,-2.3627e-13,-1.8681e-05,-1.6368e-06,-12.298,0.033897
17958,2.4038,3.9091,0,0.00051935,5189.9,0.00022162,0.0011698,7.9253e-05,-1069.7,-0.0005292,-5641.4,0.034333
17959,2.3113,4,0,0.00052259,5222.3,0.00022337,0.0073325,7.9009e-05,-1084.7,-0.00053252,-5679.5,0.031712
17960,2.4038,4,0.05,2.131e-06,21.295,1.6363e-06,12.295,1.8213e-12,3.04e-06,-1.6363e-06,-12.295,0.034179
17961,2.4038,3.7273,0,0.00051724,5168.9,0.00022309,-0.0035772,7.4161e-05,-1119,-0.00052711,-5636.7,0.034536
17962,2.3113,3.8182,0,0.00052033,5199.7,0.0002251,0.001862,7.3246e-05,-1140.9,-0.00053026,-5675.4,0.03193
17963,2.4038,3.8182,0.05,2.1318e-06,21.304,1.637e-06,12.3,2.0398e-12,1.301e-06,-1.637e-06,-12.3,0.034407
17964,2.4038,3.5455,0,0.00051568,5153.2,0.00022425,-0.0065094,7.0215e-05,-1157.4,-0.00052552,-5633.5,0.034692
17965,2.3113,3.6364,0,0.00051863,5182.7,0.00022649,-0.0014582,6.8665e-05,-1185.9,-0.00052852,-5672.8,0.0321
17966,2.4038,3.6364,0.05,2.1338e-06,21.323,1.6385e-06,12.311,1.3338e-12,-2.6113e-15,-1.6385e-06,-12.311,0.034586
17967,2.4038,3.3636,0,0.0005146,5142.5,0.00022509,-0.0082114,6.7406e-05,-1184.8,-0.00052441,-5631.5,0.034801
17968,2.3113,3.4545,0,0.00051741,5170.6,0.00022755,-0.0033629,6.5252e-05,-1219.5,-0.00052725,-5671.3,0.032226
17969,2.4038,3.4545,0.05,2.1361e-06,21.346,1.6403e-06,12.324,1.8022e-12,-2.8258e-06,-1.6403e-06,-12.324,0.034718
17970,2.4038,3.1818,0,0.00051397,5136.2,0.0002256,-0.0090803,6.5725e-05,-1201.2,-0.00052376,-5630.4,0.034866
17971,2.3113,3.2727,0,0.00051664,5162.8,0.00022826,-0.0043671,6.299e-05,-1241.8,-0.00052643,-5670.5,0.032308
17972,2.4038,3.2727,0.05,2.1382e-06,21.367,1.6418e-06,12.336,1.9302e-12,1.3965e-06,-1.6418e-06,-12.336,0.034805
17973,2.4038,3,0,0.00051377,5134.1,0.00022577,-0.009345,6.5166e-05,-1206.7,-0.00052354,-5630,0.034887
17974,2.3113,3.0909,0,0.00051626,5159,0.00022862,-0.004792,6.1862e-05,-1252.9,-0.00052603,-5670.1,0.032349
17975,2.4038,3.0909,0.05,2.1393e-06,21.379,1.6427e-06,12.343,9.4929e-13,3.2711e-07,-1.6427e-06,-12.343,0.034848
17976,2.4038,2.8182,0,0.00051397,5136.2,0.0002256,-0.0090802,6.5725e-05,-1201.2,-0.00052376,-5630.4,0.034866
17977,2.3113,2.9091,0,0.00051626,5159,0.00022862,-0.0047919,6.1862e-05,-1252.9,-0.00052603,-5670.1,0.032349
17978,2.4038,2.9091,0.05,2.1393e-06,21.379,1.6427e-06,12.343,8.3986e-13,-5.1272e-07,-1.6427e-06,-12.343,0.034848
17979,2.4038,2.6364,0,0.0005146,5142.5,0.00022509,-0.0082113,6.7406e-05,-1184.8,-0.00052441,-5631.5,0.034801
17980,2.3113,2.7273,0,0.00051664,5162.8,0.00022826,-0.0043669,6.299e-05,-1241.8,-0.00052643,-5670.5,0.032308
17981,2.4038,2.7273,0.05,2.1382e-06,21.367,1.6418e-06,12.336,1.6528e-12,-1.3965e-06,-1.6418e-06,-12.336,0.034805
17982,2.4038,2.4545,0,0.00051568,5153.2,0.00022425,-0.0065094,7.0215e-05,-1157.4,-0.00052552,-5633.5,0.034692
17983,2.3113,2.5455,0,0.00051741,5170.6,0.00022755,-0.0033628,6.5252e-05,-1219.5,-0.00052725,-5671.3,0.032226
17984,2.4038,2.5455,0.05,2.1361e-06,21.346,1.6403e-06,12.324,1.0729e-12,-7.7962e-06,-1.6403e-06,-12.324,0.034718
17985,2.4038,2.2727,0,0.00051724,5168.9,0.00022309,-0.003577,7.4161e-05,-1119,-0.00052711,-5636.7,0.034536
17986,2.3113,2.3636,0,0.00051863,5182.7,0.00022649,-0.001458,6.8665e-05,-1185.9,-0.00052852,-5672.8,0.0321
17987,2.4038,2.3636,0.05,2.1338e-06,21.323,1.6385e-06,12.311,3.3618e-13,-6.0455e-06,-1.6385e-06,-12.311,0.034586
17988,2.4038,2.0909,0,0.00051935,5189.9,0.00022162,0.0011701,7.9253e-05,-1069.7,-0.0005292,-5641.4,0.034333
17989,2.3113,2.1818,0,0.00052033,5199.7,0.0002251,0.0018621,7.3246e-05,-1140.9,-0.00053026,-5675.4,0.03193
17990,2.4038,2.1818,0.05,2.1318e-06,21.304,1.637e-06,12.3,9.5422e-13,-1.9004e-05,-1.637e-06,-12.3,0.034407
17991,2.4038,1.9091,0,0.00052205,5216.9,0.00021985,0.0085287,8.5489e-05,-1009.5,-0.00053184,-5647.9,0.034078
17992,2.3113,2,0,0.00052259,5222.3,0.00022337,0.0073326,7.9009e-05,-1084.7,-0.00053252,-5679.5,0.031712
17993,2.4038,2,0.05,2.131e-06,21.295,1.6363e-06,12.295,7.5266e-13,-1.5123e-05,-1.6363e-06,-12.295,0.034179
17994,2.4038,1.7273,0,0.00052541,5250.5,0.0002178,0.019524,9.2854e-05,-938.74,-0.00053504,-5656.5,0.033768
17995,2.3113,1.8182,0,0.00052549,5251.2,0.00022134,0.015956,8.5961e-05,-1017.2,-0.00053534,-5685.4,0.031443
17996,2.4038,1.8182,0.05,2.1316e-06,21.301,1.6368e-06,12.298,-2.0884e-12,-5.2899e-05,-1.6368e-06,-12.298,0.033897
17997,2.4038,1.5455,0,0.00052949,5291.2,0.0002155,0.035489,0.00010131,-857.91,-0.00053883,-5667.7,0.033399
17998,2.3113,1.6364,0,0.00052909,5287.2,0.00021902,0.029013,9.4088e-05,-938.67,-0.00053876,-5693.7,0.031119
17999,2.4038,1.6364,0.05,2.1333e-06,21.319,1.6381e-06,12.308,-7.5702e-13,-2.49e-05,-1.6381e-06,-12.308,0.033558
18000,2.4038,1.3636,0,0.00053431,5339.4,0.00021299,0.057947,0.0001108,-767.76,-0.00054321,-5681.7,0.032965
18001,2.3113,1.4545,0,0.00053346,5330.9,0.00021645,0.048249,0.00010335,-849.75,-0.00054281,-5704.7,0.030735
18002,2.4038,1.4545,0.05,2.1352e-06,21.337,1.6396e-06,12.319,-1.5527e-12,-2.6131e-15,-1.6396e-06,-12.319,0.033157
18003,2.4038,1.1818,0,0.00053991,5395.4,0.0002103,0.089549,0.00012121,-669.33,-0.00054817,-5698.7,0.032461
18004,2.3113,1.2727,0,0.00053865,5382.8,0.00021367,0.075453,0.00011367,-751.27,-0.00054748,-5718.9,0.030285
18005,2.4038,1.2727,0.05,2.135e-06,21.336,1.6394e-06,12.318,-3.6852e-12,-3.8435e-05,-1.6394e-06,-12.318,0.032689
18006,2.4038,1,0,0.00054626,5458.8,0.00020749,0.13164,0.0001324,-564.04,-0.00055366,-5718.8,0.031881
18007,2.3113,1.0909,0,0.00054467,5443,0.00021073,0.11489,0.00012494,-644.48,-0.00055276,-5736.4,0.029764
18008,2.4038,1.0909,0.05,2.1296e-06,21.282,1.6353e-06,12.287,-3.8592e-12,-7.3948e-05,-1.6353e-06,-12.287,0.032148
18009,2.4038,0.81818,0,0.00055331,5529.2,0.00020461,0.19836,0.00014422,-453.54,-0.00055962,-5741.9,0.031217
18010,2.3113,0.90909,0,0.0005515,5511.2,0.00020768,0.16593,0.00013698,-531.04,-0.00055861,-5757.4,0.029164
18011,2.4038,0.90909,0.05,2.1155e-06,21.14,1.6244e-06,12.205,-4.1729e-12,-7.7571e-05,-1.6244e-06,-12.205,0.031527
18012,2.4038,0.63636,0,0.00056098,5605.9,0.00020172,0.27131,0.00015646,-339.75,-0.00056598,-5767.9,0.030462
18013,2.3113,0.72727,0,0.00055907,5586.8,0.00020459,0.26041,0.0001496,-412.9,-0.00056494,-5781.7,0.028478
18014,2.4038,0.72727,0.05,2.0894e-06,20.879,1.6044e-06,12.055,1.1481e-12,-7.0916e-06,-1.6044e-06,-12.055,0.030818
18015,2.4038,0.45455,0,0.00056919,5688,0.00019888,0.58069,0.00016895,-224.32,-0.00057266,-5796.5,0.029607
18016,2.3113,0.54545,0,0.00056728,5668.8,0.00020152,0.33429,0.00016257,-292.28,-0.00057167,-5809.1,0.027697
18017,2.4038,0.54545,0.05,2.054e-06,20.526,1.5772e-06,11.851,-9.4268e-12,-8.7676e-05,-1.5772e-06,-11.851,0.030013
18018,2.4038,0.27273,0,0.00057828,5778.8,0.00019618,1.1834,0.00018186,-106.41,-0.00057999,-5830.6,0.028646
18019,2.3113,0.36364,0,0.00057606,5756.6,0.00019858,0.9676,0.00017572,-170.79,-0.00057876,-5839.6,0.026814
18020,2.4038,0.36364,0.05,2.0701e-06,20.687,1.5896e-06,11.943,-1.4742e-11,-4.2033e-05,-1.5896e-06,-11.943,0.029106
18021,2.3113,0.18182,0,0.00058621,5858,0.000196,3.0836,0.00018942,-46.371,-0.00058693,-5879.5,0.02582
18022,2.4038,0.18182,0.05,3.6972e-06,36.946,2.839e-06,21.331,-4.8121e-13,-2.6567e-05,-2.839e-06,-21.331,0.028087
18023,2.4038,0.090909,0,0.00058377,5833.7,0.00019369,0.7562,0.00019094,-19.934,-0.00058409,-5843.2,0.027568
18024,2.2189,5.7273,0,0.00058397,5835.6,0.0001982,1.3875,0.0001835,-109.04,-0.00058572,-5888.7,0.024116
18025,2.1264,5.8182,0,0.00059212,5917.2,0.00019787,4.0761,0.00019159,-43.159,-0.00059278,-5936.6,0.021513
18026,2.2189,5.8182,0.05,3.9256e-06,39.229,3.0143e-06,22.649,1.6781e-12,-4.8041e-15,-3.0143e-06,-22.649,0.023581
18027,2.2189,5.9091,0,0.00058955,5891.4,0.00019547,0.91407,0.00019309,-16.946,-0.00058982,-5899.4,0.023088
18028,2.2189,5.5455,0,0.00057413,5737.3,0.0002012,0.64794,0.00016938,-238.45,-0.0005778,-5852.5,0.025028
18029,2.1264,5.6364,0,0.00058103,5806.3,0.00020066,1.0857,0.00017662,-179.53,-0.00058386,-5893.5,0.022456
18030,2.2189,5.6364,0.05,2.182e-06,21.805,1.6755e-06,12.589,-3.554e-22,-2.6703e-15,-1.6755e-06,-12.589,0.024551
18031,2.2189,5.3636,0,0.00056535,5649.6,0.00020439,0.30232,0.00015574,-365.21,-0.00057067,-5823.2,0.025834
18032,2.1264,5.4545,0,0.00057161,5712.1,0.00020396,0.37667,0.00016223,-313.14,-0.00057628,-5862.1,0.023288
18033,2.2189,5.4545,0.05,2.1824e-06,21.809,1.6758e-06,12.591,-3.5546e-22,-2.6708e-15,-1.6758e-06,-12.591,0.02541
18034,2.2189,5.1818,0,0.00055724,5568.6,0.00020765,0.21867,0.00014238,-490.21,-0.00056395,-5797.3,0.026543
18035,2.1264,5.2727,0,0.0005629,5625.1,0.00020743,0.28909,0.00014804,-445.94,-0.00056915,-5834.7,0.024018
18036,2.2189,5.2727,0.05,2.2265e-06,22.249,1.7096e-06,12.846,-3.6264e-22,5.689e-06,-1.7096e-06,-12.846,0.026167
18037,2.2189,5,0,0.00054989,5495.1,0.00021091,0.14402,0.00012953,-611.35,-0.00055773,-5775.2,0.027162
18038,2.1264,5.0909,0,0.00055498,5546,0.00021094,0.18296,0.00013428,-575.83,-0.00056253,-5811.3,0.024656
18039,2.2189,5.0909,0.05,2.2564e-06,22.549,1.7327e-06,13.018,-3.6752e-22,-2.7614e-15,-1.7327e-06,-13.018,0.026829
18040,2.2189,4.8182,0,0.00054339,5430.1,0.0002141,0.097524,0.00011741,-726.35,-0.00055208,-5756.7,0.0277
18041,2.1264,4.9091,0,0.00054797,5475.9,0.00021441,0.12599,0.00012122,-700.07,-0.00055651,-5792.2,0.02521
18042,2.2189,4.9091,0.05,2.2712e-06,22.696,1.744e-06,13.104,3.4497e-13,-2.7795e-15,-1.744e-06,-13.104,0.027407
18043,2.2189,4.6364,0,0.00053777,5374,0.00021714,0.063497,0.00010623,-833.25,-0.00054707,-5741.9,0.028164
18044,2.1264,4.7273,0,0.00054193,5415.5,0.00021775,0.083112,0.00010909,-816.33,-0.00055118,-5777.3,0.025689
18045,2.2189,4.7273,0.05,2.2759e-06,22.743,1.7476e-06,13.131,9.0627e-13,7.6023e-06,-1.7476e-06,-13.131,0.027907
18046,2.2189,4.4545,0,0.00053304,5326.7,0.00021997,0.04012,9.612e-05,-930.56,-0.00054273,-5730.6,0.028562
18047,2.1264,4.5455,0,0.00053685,5364.8,0.0002209,0.05452,9.8077e-05,-922.77,-0.00054656,-5766.3,0.0261
18048,2.2189,4.5455,0.05,2.2754e-06,22.739,1.7473e-06,13.128,4.53e-13,-2.7845e-05,-1.7473e-06,-13.128,0.028338
18049,2.2189,4.2727,0,0.00052914,5287.7,0.00022256,0.024183,8.7179e-05,-1017.2,-0.00053905,-5722.4,0.028899
18050,2.1264,4.3636,0,0.0005327,5323.3,0.0002238,0.035147,8.8289e-05,-1018.1,-0.00054266,-5758.9,0.026448
18051,2.2189,4.3636,0.05,2.274e-06,22.724,1.7461e-06,13.12,-1.5281e-12,-1.8783e-05,-1.7461e-06,-13.12,0.028704
18052,2.2189,4.0909,0,0.00052601,5256.4,0.00022486,0.013762,7.946e-05,-1092.5,-0.000536,-5716.8,0.029181
18053,2.1264,4.1818,0,0.00052939,5290.3,0.0002264,0.022681,7.9785e-05,-1101.6,-0.00053945,-5754.3,0.026741
18054,2.2189,4.1818,0.05,2.2738e-06,22.723,1.746e-06,13.119,-1.6471e-12,3.4355e-06,-1.746e-06,-13.119,0.029013
18055,2.2189,3.9091,0,0.00052356,5231.9,0.00022685,0.0072111,7.2976e-05,-1156.1,-0.00053355,-5713.3,0.029412
18056,2.1264,4,0,0.00052682,5264.5,0.00022868,0.014967,7.2579e-05,-1172.9,-0.00053687,-5752.1,0.026984
18057,2.2189,4,0.05,2.2759e-06,22.744,1.7476e-06,13.131,-3.9932e-13,3.0785e-06,-1.7476e-06,-13.131,0.029269
18058,2.2189,3.7273,0,0.0005217,5213.4,0.0002285,0.0032975,6.7719e-05,-1208,-0.00053163,-5711.3,0.029596
18059,2.1264,3.8182,0,0.00052487,5245.1,0.00023061,0.010464,6.6656e-05,-1231.9,-0.00053486,-5751.4,0.027179
18060,2.2189,3.8182,0.05,2.2801e-06,22.785,1.7508e-06,13.155,2.6664e-12,2.6277e-06,-1.7508e-06,-13.155,0.029476
18061,2.2189,3.5455,0,0.00052035,5199.9,0.00022979,0.001095,6.367e-05,-1248.2,-0.00053021,-5710.4,0.029735
18062,2.1264,3.6364,0,0.00052346,5230.9,0.00023216,0.0080106,6.1984e-05,-1278.6,-0.00053334,-5751.7,0.027332
18063,2.2189,3.6364,0.05,2.2853e-06,22.837,1.7548e-06,13.185,-2.2803e-13,-2.9658e-06,-1.7548e-06,-13.185,0.029637
18064,2.2189,3.3636,0,0.00051944,5190.8,0.00023072,-5.2953e-05,6.0802e-05,-1276.7,-0.00052923,-5710,0.029834
18065,2.1264,3.4545,0,0.00052248,5221.1,0.00023334,0.0067894,5.8525e-05,-1313.5,-0.00053227,-5752.5,0.027444
18066,2.2189,3.4545,0.05,2.2905e-06,22.889,1.7588e-06,13.215,4.3929e-13,1.5346e-06,-1.7588e-06,-13.215,0.029756
18067,2.2189,3.1818,0,0.00051891,5185.5,0.00023128,-0.00057955,5.9091e-05,-1293.8,-0.00052866,-5709.9,0.029892
18068,2.1264,3.2727,0,0.00052186,5215,0.00023412,0.0062501,5.6241e-05,-1336.5,-0.00053158,-5753.2,0.027518
18069,2.2189,3.2727,0.05,2.2947e-06,22.931,1.762e-06,13.239,1.8201e-12,9.3199e-07,-1.762e-06,-13.239,0.029834
18070,2.2189,3,0,0.00051874,5183.8,0.00023147,-0.00072881,5.8523e-05,-1299.4,-0.00052847,-5709.9,0.029911
18071,2.1264,3.0909,0,0.00052157,5212.1,0.00023452,0.006059,5.5107e-05,-1348,-0.00053125,-5753.7,0.027554
18072,2.2189,3.0909,0.05,2.2969e-06,22.953,1.7638e-06,13.252,9.3706e-13,1.8548e-07,-1.7638e-06,-13.252,0.029873
18073,2.2189,2.8182,0,0.00051891,5185.5,0.00023128,-0.00057943,5.9091e-05,-1293.8,-0.00052866,-5709.9,0.029892
18074,2.1264,2.9091,0,0.00052157,5212.1,0.00023452,0.006059,5.5107e-05,-1348,-0.00053125,-5753.7,0.027554
18075,2.2189,2.9091,0.05,2.2969e-06,22.953,1.7638e-06,13.252,1.2816e-12,-6.5419e-07,-1.7638e-06,-13.252,0.029873
18076,2.2189,2.6364,0,0.00051944,5190.8,0.00023072,-5.2798e-05,6.0802e-05,-1276.7,-0.00052923,-5710,0.029834
18077,2.1264,2.7273,0,0.00052186,5215,0.00023412,0.0062502,5.6241e-05,-1336.5,-0.00053158,-5753.2,0.027518
18078,2.2189,2.7273,0.05,2.2947e-06,22.931,1.762e-06,13.239,1.5145e-12,-1.596e-05,-1.762e-06,-13.239,0.029834
18079,2.2189,2.4545,0,0.00052035,5199.9,0.00022979,0.0010951,6.367e-05,-1248.2,-0.00053021,-5710.4,0.029735
18080,2.1264,2.5455,0,0.00052248,5221.1,0.00023334,0.0067896,5.8525e-05,-1313.5,-0.00053227,-5752.5,0.027444
18081,2.2189,2.5455,0.05,2.2905e-06,22.889,1.7588e-06,13.215,8.5302e-13,-4.8802e-06,-1.7588e-06,-13.215,0.029756
18082,2.2189,2.2727,0,0.0005217,5213.4,0.0002285,0.0032976,6.7719e-05,-1208,-0.00053163,-5711.3,0.029596
18083,2.1264,2.3636,0,0.00052346,5230.9,0.00023216,0.0080107,6.1984e-05,-1278.6,-0.00053334,-5751.7,0.027332
18084,2.2189,2.3636,0.05,2.2853e-06,22.837,1.7548e-06,13.185,4.5736e-13,-3.1589e-06,-1.7548e-06,-13.185,0.029637
18085,2.2189,2.0909,0,0.00052356,5231.9,0.00022685,0.0072112,7.2976e-05,-1156.1,-0.00053355,-5713.3,0.029412
18086,2.1264,2.1818,0,0.00052487,5245.1,0.00023061,0.010464,6.6656e-05,-1231.9,-0.00053486,-5751.4,0.027179
18087,2.2189,2.1818,0.05,2.2801e-06,22.785,1.7508e-06,13.155,2.6677e-12,-1.1023e-05,-1.7508e-06,-13.155,0.029476
18088,2.2189,1.9091,0,0.00052601,5256.4,0.00022486,0.013762,7.946e-05,-1092.5,-0.000536,-5716.8,0.029181
18089,2.1264,2,0,0.00052682,5264.5,0.00022868,0.014968,7.2579e-05,-1172.9,-0.00053687,-5752.1,0.026984
18090,2.2189,2,0.05,2.2759e-06,22.744,1.7476e-06,13.131,3.5631e-13,-1.5574e-05,-1.7476e-06,-13.131,0.029269
18091,2.2189,1.7273,0,0.00052914,5287.7,0.00022256,0.024184,8.718e-05,-1017.2,-0.00053905,-5722.4,0.028899
18092,2.1264,1.8182,0,0.00052939,5290.3,0.0002264,0.022681,7.9785e-05,-1101.6,-0.00053945,-5754.3,0.026741
18093,2.2189,1.8182,0.05,2.2738e-06,22.723,1.746e-06,13.119,-5.2747e-12,-4.8886e-05,-1.746e-06,-13.119,0.029013
18094,2.2189,1.5455,0,0.00053304,5326.7,0.00021997,0.04012,9.612e-05,-930.56,-0.00054273,-5730.6,0.028562
18095,2.1264,1.6364,0,0.0005327,5323.3,0.0002238,0.035148,8.8289e-05,-1018.1,-0.00054266,-5758.9,0.026448
18096,2.2189,1.6364,0.05,2.274e-06,22.724,1.7461e-06,13.12,-1.9667e-12,-4.4924e-05,-1.7461e-06,-13.12,0.028704
18097,2.2189,1.3636,0,0.00053777,5374,0.00021714,0.063497,0.00010623,-833.25,-0.00054707,-5741.9,0.028164
18098,2.1264,1.4545,0,0.00053685,5364.8,0.0002209,0.054521,9.8077e-05,-922.77,-0.00054656,-5766.3,0.0261
18099,2.2189,1.4545,0.05,2.2754e-06,22.739,1.7473e-06,13.128,-3.2363e-12,-2.7845e-05,-1.7473e-06,-13.128,0.028338
18100,2.2189,1.1818,0,0.00054339,5430.1,0.0002141,0.097524,0.00011741,-726.35,-0.00055208,-5756.7,0.0277
18101,2.1264,1.2727,0,0.00054193,5415.5,0.00021775,0.083113,0.00010909,-816.33,-0.00055118,-5777.3,0.025689
18102,2.2189,1.2727,0.05,2.2759e-06,22.743,1.7476e-06,13.131,-4.0175e-12,-4.0688e-05,-1.7476e-06,-13.131,0.027907
18103,2.2189,1,0,0.00054989,5495.1,0.00021091,0.14402,0.00012953,-611.35,-0.00055773,-5775.2,0.027162
18104,2.1264,1.0909,0,0.00054797,5475.9,0.00021441,0.12599,0.00012122,-700.07,-0.00055651,-5792.2,0.02521
18105,2.2189,1.0909,0.05,2.2712e-06,22.696,1.744e-06,13.104,-1.2169e-11,-4.1587e-05,-1.744e-06,-13.104,0.027407
18106,2.2189,0.81818,0,0.00055724,5568.6,0.00020765,0.21867,0.00014238,-490.21,-0.00056395,-5797.3,0.026543
18107,2.1264,0.90909,0,0.00055498,5546,0.00021094,0.18296,0.00013428,-575.83,-0.00056253,-5811.3,0.024656
18108,2.2189,0.90909,0.05,2.2564e-06,22.549,1.7327e-06,13.018,-3.8747e-12,-7.0674e-06,-1.7327e-06,-13.018,0.026829
18109,2.2189,0.63636,0,0.00056535,5649.6,0.00020439,0.30232,0.00015574,-365.21,-0.00057067,-5823.2,0.025834
18110,2.1264,0.72727,0,0.0005629,5625.1,0.00020743,0.28909,0.00014804,-445.94,-0.00056915,-5834.7,0.024018
18111,2.2189,0.72727,0.05,2.2265e-06,22.249,1.7096e-06,12.846,-1.0807e-11,-0.00013598,-1.7096e-06,-12.846,0.026167
18112,2.2189,0.45455,0,0.00057413,5737.3,0.0002012,0.64794,0.00016938,-238.45,-0.0005778,-5852.5,0.025028
18113,2.1264,0.54545,0,0.00057161,5712.1,0.00020396,0.37667,0.00016223,-313.14,-0.00057628,-5862.1,0.023288
18114,2.2189,0.54545,0.05,2.1824e-06,21.809,1.6758e-06,12.591,-1.0953e-11,-0.00010156,-1.6758e-06,-12.591,0.02541
18115,2.2189,0.27273,0,0.00058397,5835.6,0.0001982,1.3875,0.0001835,-109.04,-0.00058572,-5888.7,0.024116
18116,2.1264,0.36364,0,0.00058103,5806.3,0.00020066,1.0857,0.00017662,-179.53,-0.00058386,-5893.5,0.022456
18117,2.2189,0.36364,0.05,2.182e-06,21.805,1.6755e-06,12.589,-4.5753e-12,-9.8449e-05,-1.6755e-06,-12.589,0.024551
18118,2.1264,0.18182,0,0.00059212,5917.2,0.00019787,4.0761,0.00019159,-43.159,-0.00059278,-5936.6,0.021513
18119,2.2189,0.18182,0.05,3.9256e-06,39.229,3.0143e-06,22.649,-2.786e-13,-2.8153e-05,-3.0143e-06,-22.649,0.023581
18120,2.2189,0.090909,0,0.00058955,5891.4,0.00019547,0.91408,0.00019309,-16.946,-0.00058982,-5899.4,0.023088
18121,2.034,5.7273,0,0.00058916,5887.6,0.00020005,1.6406,0.00018502,-111.26,-0.00059095,-5941.6,0.019981
18122,1.9415,5.8182,0,0.0005975,5970.9,0.00019957,5.5671,0.00019364,-39.006,-0.00059806,-5987.5,0.017605
18123,2.034,5.8182,0.05,4.1528e-06,41.499,3.1888e-06,23.96,-6.764e-22,6.5883e-06,-3.1888e-06,-23.96,0.019473
18124,2.034,5.9091,0,0.00059479,5943.8,0.00019703,1.1845,0.00019513,-13.066,-0.00059499,-5949.7,0.019007
18125,2.034,5.5455,0,0.00057849,5780.9,0.0002034,0.72627,0.00016952,-253.86,-0.00058238,-5903.3,0.020839
18126,1.9415,5.6364,0,0.00058535,5849.5,0.00020254,1.2221,0.00017725,-188.83,-0.00058831,-5940.9,0.01849
18127,2.034,5.6364,0.05,2.3156e-06,23.14,1.7781e-06,13.36,-3.7716e-22,-3.4485e-07,-1.7781e-06,-13.36,0.020389
18128,2.034,5.3636,0,0.00056913,5687.4,0.000207,0.33881,0.00015457,-393.61,-0.0005748,-5873.8,0.021592
18129,1.9415,5.4545,0,0.00057524,5748.4,0.00020629,0.42387,0.00016145,-336.47,-0.00058022,-5909,0.019266
18130,2.034,5.4545,0.05,2.339e-06,23.373,1.796e-06,13.495,-3.8096e-22,5.5703e-06,-1.796e-06,-13.495,0.021194
18131,2.034,5.1818,0,0.00056061,5602.2,0.00021072,0.24255,0.00013996,-531.36,-0.00056775,-5848.8,0.022249
18132,1.9415,5.2727,0,0.00056604,5656.5,0.00021025,0.31923,0.00014588,-483.32,-0.0005727,-5882.5,0.019942
18133,2.034,5.2727,0.05,2.392e-06,23.903,1.8367e-06,13.8,-5.4621e-12,-2.9273e-15,-1.8367e-06,-13.8,0.021898
18134,2.034,5,0,0.00055303,5526.5,0.00021443,0.15893,0.00012598,-664.41,-0.00056132,-5828.5,0.022819
18135,1.9415,5.0909,0,0.00055784,5574.5,0.00021426,0.19941,0.00013085,-626.53,-0.00056584,-5861.2,0.020527
18136,2.034,5.0909,0.05,2.4239e-06,24.223,1.8613e-06,13.985,4.7147e-13,-2.9664e-15,-1.8613e-06,-13.985,0.022511
18137,2.034,4.8182,0,0.00054648,5461,0.00021806,0.10779,0.0001129,-790,-0.00055561,-5812.9,0.023311
18138,1.9415,4.9091,0,0.00055076,5503.8,0.00021823,0.13578,0.0001167,-762.7,-0.00055975,-5845.2,0.021033
18139,2.034,4.9091,0.05,2.4369e-06,24.352,1.8712e-06,14.06,8.5827e-13,7.1997e-06,-1.8712e-06,-14.06,0.023041
18140,2.034,4.6364,0,0.00054097,5406,0.00022151,0.071528,0.00010094,-905.87,-0.00055066,-5801.7,0.023734
18141,1.9415,4.7273,0,0.00054484,5444.7,0.00022204,0.08943,0.0001037,-889.07,-0.00055449,-5834.4,0.021466
18142,2.034,4.7273,0.05,2.4386e-06,24.369,1.8726e-06,14.07,3.8445e-13,-3.1466e-05,-1.8726e-06,-14.07,0.023497
18143,2.034,4.4545,0,0.00053649,5361.2,0.00022472,0.047655,9.0234e-05,-1010.4,-0.00054648,-5794.5,0.024093
18144,1.9415,4.5455,0,0.00054007,5396.9,0.00022561,0.059803,9.2029e-05,-1003.7,-0.00055009,-5828.3,0.021835
18145,2.034,4.5455,0.05,2.4363e-06,24.346,1.8708e-06,14.056,1.8524e-12,-2.9816e-15,-1.8708e-06,-14.056,0.023887
18146,2.034,4.2727,0,0.00053293,5325.6,0.00022764,0.032215,8.0873e-05,-1102.7,-0.00054305,-5790.6,0.024396
18147,1.9415,4.3636,0,0.00053632,5359.5,0.00022889,0.040745,8.1788e-05,-1105.2,-0.0005465,-5826,0.022146
18148,2.034,4.3636,0.05,2.4348e-06,24.332,1.8697e-06,14.048,8.8456e-13,7.4203e-06,-1.8697e-06,-14.048,0.024218
18149,2.034,4.0909,0,0.00053018,5298.1,0.00023022,0.022772,7.2877e-05,-1182.2,-0.00054029,-5789.3,0.024648
18150,1.9415,4.1818,0,0.00053348,5331.2,0.00023182,0.029264,7.3e-05,-1193.3,-0.00054366,-5826.7,0.022407
18151,2.034,4.1818,0.05,2.4367e-06,24.35,1.871e-06,14.058,1.058e-12,-2.982e-15,-1.871e-06,-14.058,0.024494
18152,2.034,3.9091,0,0.00052811,5277.5,0.00023244,0.017326,6.6228e-05,-1248.8,-0.00053815,-5789.9,0.024854
18153,1.9415,4,0,0.00053139,5310.3,0.00023437,0.022733,6.5642e-05,-1267.7,-0.00054148,-5829.4,0.022621
18154,2.034,4,0.05,2.4421e-06,24.404,1.8752e-06,14.09,3.1432e-13,-3.4379e-05,-1.8752e-06,-14.09,0.024723
18155,2.034,3.7273,0,0.00052661,5262.5,0.00023427,0.014437,6.0887e-05,-1302.8,-0.00053653,-5791.5,0.025017
18156,1.9415,3.8182,0,0.00052991,5295.4,0.00023651,0.019346,5.9659e-05,-1328.8,-0.00053985,-5833.2,0.022794
18157,2.034,3.8182,0.05,2.4502e-06,24.485,1.8814e-06,14.136,1.0977e-12,2.6319e-06,-1.8814e-06,-14.136,0.024907
18158,2.034,3.5455,0,0.00052557,5252.1,0.00023571,0.013071,5.6802e-05,-1344.2,-0.00053536,-5793.5,0.025142
18159,1.9415,3.6364,0,0.00052888,5285.2,0.00023824,0.017814,5.4982e-05,-1376.9,-0.00053867,-5837.4,0.022928
18160,2.034,3.6364,0.05,2.4593e-06,24.576,1.8884e-06,14.189,1.3768e-12,2.0996e-06,-1.8884e-06,-14.189,0.02505
18161,2.034,3.3636,0,0.00052489,5245.3,0.00023674,0.012528,5.3926e-05,-1373.6,-0.00053458,-5795.4,0.025228
18162,1.9415,3.4545,0,0.00052822,5278.6,0.00023953,0.017276,5.1544e-05,-1412.5,-0.00053787,-5841.1,0.023026
18163,2.034,3.4545,0.05,2.4678e-06,24.661,1.895e-06,14.238,1.1441e-12,2.2858e-06,-1.895e-06,-14.238,0.025155
18164,2.034,3.1818,0,0.00052451,5241.5,0.00023736,0.012363,5.2218e-05,-1391.1,-0.00053413,-5796.7,0.02528
18165,1.9415,3.2727,0,0.00052782,5274.6,0.0002404,0.017181,4.9287e-05,-1435.9,-0.00053737,-5843.9,0.023091
18166,2.034,3.2727,0.05,2.4743e-06,24.726,1.9e-06,14.276,1.4815e-12,1.6467e-08,-1.9e-06,-14.276,0.025224
18167,2.034,3,0,0.00052439,5240.2,0.00023757,0.012334,5.1651e-05,-1396.9,-0.00053398,-5797.1,0.025297
18168,1.9415,3.0909,0,0.00052764,5272.8,0.00024084,0.017207,4.8169e-05,-1447.6,-0.00053714,-5845.4,0.023123
18169,2.034,3.0909,0.05,2.4778e-06,24.761,1.9027e-06,14.296,1.4053e-12,2.8588e-07,-1.9027e-06,-14.296,0.025258
18170,2.034,2.8182,0,0.00052451,5241.5,0.00023736,0.012363,5.2218e-05,-1391.1,-0.00053413,-5796.7,0.02528
18171,1.9415,2.9091,0,0.00052764,5272.8,0.00024084,0.017207,4.8169e-05,-1447.6,-0.00053714,-5845.4,0.023123
18172,2.034,2.9091,0.05,2.4778e-06,24.761,1.9027e-06,14.296,1.2948e-12,-1.584e-05,-1.9027e-06,-14.296,0.025258
18173,2.034,2.6364,0,0.00052489,5245.3,0.00023674,0.012528,5.3926e-05,-1373.6,-0.00053458,-5795.4,0.025228
18174,1.9415,2.7273,0,0.00052782,5274.6,0.0002404,0.017181,4.9287e-05,-1435.9,-0.00053737,-5843.9,0.023091
18175,2.034,2.7273,0.05,2.4743e-06,24.726,1.9e-06,14.276,1.2065e-12,-1.7092e-05,-1.9e-06,-14.276,0.025224
18176,2.034,2.4545,0,0.00052557,5252.1,0.00023571,0.013071,5.6802e-05,-1344.2,-0.00053536,-5793.5,0.025142
18177,1.9415,2.5455,0,0.00052822,5278.6,0.00023953,0.017276,5.1544e-05,-1412.5,-0.00053787,-5841.1,0.023026
18178,2.034,2.5455,0.05,2.4678e-06,24.661,1.895e-06,14.238,1.5616e-12,-4.0645e-06,-1.895e-06,-14.238,0.025155
18179,2.034,2.2727,0,0.00052661,5262.5,0.00023427,0.014437,6.0887e-05,-1302.8,-0.00053653,-5791.5,0.025017
18180,1.9415,2.3636,0,0.00052888,5285.2,0.00023824,0.017814,5.4982e-05,-1376.9,-0.00053867,-5837.4,0.022928
18181,2.034,2.3636,0.05,2.4593e-06,24.576,1.8884e-06,14.189,6.928e-13,-3.1494e-06,-1.8884e-06,-14.189,0.02505
18182,2.034,2.0909,0,0.00052811,5277.5,0.00023244,0.017326,6.6228e-05,-1248.8,-0.00053815,-5789.9,0.024854
18183,1.9415,2.1818,0,0.00052991,5295.4,0.00023651,0.019346,5.9659e-05,-1328.8,-0.00053985,-5833.2,0.022794
18184,2.034,2.1818,0.05,2.4502e-06,24.485,1.8814e-06,14.136,-5.3436e-13,-1.1059e-05,-1.8814e-06,-14.136,0.024907
18185,2.034,1.9091,0,0.00053018,5298.1,0.00023022,0.022772,7.2877e-05,-1182.2,-0.00054029,-5789.3,0.024648
18186,1.9415,2,0,0.00053139,5310.3,0.00023437,0.022734,6.5642e-05,-1267.7,-0.00054148,-5829.4,0.022621
18187,2.034,2,0.05,2.4421e-06,24.404,1.8752e-06,14.09,-1.1623e-12,-1.2696e-05,-1.8752e-06,-14.09,0.024723
18188,2.034,1.7273,0,0.00053293,5325.6,0.00022764,0.032216,8.0873e-05,-1102.7,-0.00054305,-5790.6,0.024396
18189,1.9415,1.8182,0,0.00053348,5331.2,0.00023182,0.029264,7.3e-05,-1193.3,-0.00054366,-5826.7,0.022407
18190,2.034,1.8182,0.05,2.4367e-06,24.35,1.871e-06,14.058,-3.6368e-13,-3.8982e-05,-1.871e-06,-14.058,0.024494
18191,2.034,1.5455,0,0.00053649,5361.2,0.00022472,0.047656,9.0234e-05,-1010.4,-0.00054648,-5794.5,0.024093
18192,1.9415,1.6364,0,0.00053632,5359.5,0.00022889,0.040745,8.1788e-05,-1105.2,-0.0005465,-5826,0.022146
18193,2.034,1.6364,0.05,2.4348e-06,24.332,1.8697e-06,14.048,-1.9951e-12,-5.4263e-05,-1.8697e-06,-14.048,0.024217
18194,2.034,1.3636,0,0.00054097,5406,0.00022151,0.071529,0.00010094,-905.87,-0.00055066,-5801.7,0.023734
18195,1.9415,1.4545,0,0.00054007,5396.9,0.00022561,0.059804,9.2029e-05,-1003.7,-0.00055009,-5828.3,0.021835
18196,2.034,1.4545,0.05,2.4363e-06,24.346,1.8708e-06,14.056,9.7821e-13,-4.0812e-05,-1.8708e-06,-14.056,0.023887
18197,2.034,1.1818,0,0.00054648,5461,0.00021806,0.10779,0.0001129,-790,-0.00055561,-5812.9,0.023311
18198,1.9415,1.2727,0,0.00054484,5444.7,0.00022204,0.08943,0.0001037,-889.07,-0.00055449,-5834.4,0.021466
18199,2.034,1.2727,0.05,2.4386e-06,24.369,1.8726e-06,14.07,-8.5304e-12,-3.9004e-05,-1.8726e-06,-14.07,0.023497
18200,2.034,1,0,0.00055303,5526.5,0.00021443,0.15893,0.00012598,-664.41,-0.00056132,-5828.5,0.022819
18201,1.9415,1.0909,0,0.00055076,5503.8,0.00021823,0.13578,0.0001167,-762.7,-0.00055975,-5845.2,0.021033
18202,2.034,1.0909,0.05,2.4369e-06,24.352,1.8712e-06,14.06,5.4586e-14,-4.7815e-05,-1.8712e-06,-14.06,0.023041
18203,2.034,0.81818,0,0.00056061,5602.2,0.00021072,0.24255,0.00013996,-531.36,-0.00056775,-5848.8,0.022249
18204,1.9415,0.90909,0,0.00055784,5574.5,0.00021426,0.19941,0.00013085,-626.53,-0.00056584,-5861.2,0.020527
18205,2.034,0.90909,0.05,2.4239e-06,24.223,1.8613e-06,13.985,-4.7728e-12,-9.2408e-05,-1.8613e-06,-13.985,0.022511
18206,2.034,0.63636,0,0.00056913,5687.4,0.000207,0.33881,0.00015457,-393.61,-0.0005748,-5873.8,0.021592
18207,1.9415,0.72727,0,0.00056604,5656.5,0.00021025,0.31923,0.00014588,-483.32,-0.0005727,-5882.5,0.019942
18208,2.034,0.72727,0.05,2.392e-06,23.903,1.8367e-06,13.8,-5.0993e-12,-4.8863e-05,-1.8367e-06,-13.8,0.021898
18209,2.034,0.45455,0,0.00057849,5780.9,0.0002034,0.72627,0.00016952,-253.86,-0.00058238,-5903.3,0.020839
18210,1.9415,0.54545,0,0.00057524,5748.4,0.00020629,0.42387,0.00016145,-336.47,-0.00058022,-5909,0.019266
18211,2.034,0.54545,0.05,2.3389e-06,23.373,1.796e-06,13.495,-5.8359e-12,-5.5703e-06,-1.796e-06,-13.495,0.021194
18212,2.034,0.27273,0,0.00058916,5887.6,0.00020005,1.6406,0.00018502,-111.26,-0.00059095,-5941.6,0.019981
18213,1.9415,0.36364,0,0.00058535,5849.5,0.00020254,1.2221,0.00017725,-188.83,-0.00058831,-5940.9,0.01849
18214,2.034,0.36364,0.05,2.3156e-06,23.14,1.7781e-06,13.36,6.5776e-13,-0.0001,-1.7781e-06,-13.36,0.020389
18215,1.9415,0.18182,0,0.0005975,5970.9,0.00019957,5.5671,0.00019364,-39.006,-0.00059806,-5987.5,0.017605
18216,2.034,0.18182,0.05,4.1528e-06,41.499,3.1888e-06,23.96,9.328e-13,-4.5385e-05,-3.1888e-06,-23.96,0.019473
18217,2.034,0.090909,0,0.00059479,5943.8,0.00019703,1.1845,0.00019513,-13.066,-0.00059499,-5949.7,0.019007
18218,1.8491,5.7273,0,0.00059365,5932.4,0.00020164,1.9546,0.00018633,-113.1,-0.00059545,-5987.1,0.016243
18219,1.7566,5.8182,0,0.00060208,6016.6,0.00020103,7.9173,0.00019545,-34.021,-0.00060251,-6029.5,0.014097
18220,1.8491,5.8182,0.05,4.3736e-06,43.706,3.3584e-06,25.234,-1.3257e-12,-5.3524e-15,-3.3584e-06,-25.234,0.015765
18221,1.8491,5.9091,0,0.00059928,5988.7,0.00019832,1.7816,0.00019698,-8.3067,-0.00059939,-5992,0.015329
18222,1.8491,5.5455,0,0.00058207,5816.6,0.00020542,0.8127,0.00016924,-271.03,-0.00058619,-5947,0.017041
18223,1.7566,5.6364,0,0.00058873,5883.3,0.00020417,1.3882,0.0001775,-199.03,-0.00059184,-5979.5,0.01492
18224,1.8491,5.6364,0.05,2.4823e-06,24.806,1.9061e-06,14.322,-4.0431e-22,-3.0378e-15,-1.9061e-06,-14.322,0.016621
18225,1.8491,5.3636,0,0.00057211,5717.1,0.00020953,0.37525,0.0001528,-425.9,-0.00057815,-5918,0.017736
18226,1.7566,5.4545,0,0.0005779,5775,0.00020846,0.48629,0.00016005,-363.21,-0.00058321,-5947.8,0.015634
18227,1.8491,5.4545,0.05,2.5359e-06,25.342,1.9473e-06,14.631,-4.1305e-22,-3.1035e-15,-1.9473e-06,-14.631,0.017367
18228,1.8491,5.1818,0,0.00056322,5628.3,0.00021379,0.26337,0.00013679,-578.29,-0.00057082,-5895,0.018337
18229,1.7566,5.2727,0,0.00056824,5678.5,0.00021302,0.36158,0.00014291,-526.46,-0.00057535,-5923.2,0.01625
18230,1.8491,5.2727,0.05,2.5962e-06,25.944,1.9935e-06,14.979,-4.2286e-22,5.3634e-06,-1.9935e-06,-14.979,0.018014
18231,1.8491,5,0,0.00055552,5551.3,0.00021806,0.16921,0.00012158,-724.71,-0.00056428,-5878,0.018855
18232,1.7566,5.0909,0,0.00055986,5594.8,0.00021766,0.22647,0.00012648,-684.86,-0.00056835,-5905.5,0.01678
18233,1.8491,5.0909,0.05,2.626e-06,26.242,2.0164e-06,15.151,-4.2771e-22,-3.2137e-15,-2.0164e-06,-15.151,0.018572
18234,1.8491,4.8182,0,0.00054908,5487,0.00022221,0.11299,0.0001075,-861.76,-0.00055863,-5866.8,0.019298
18235,1.7566,4.9091,0,0.00055289,5525.1,0.00022222,0.15608,0.00011118,-834.14,-0.00056233,-5894.7,0.017232
18236,1.8491,4.9091,0.05,2.6325e-06,26.307,2.0214e-06,15.188,2.6622e-13,-2.2332e-06,-2.0214e-06,-15.188,0.019051
18237,1.8491,4.6364,0,0.00054389,5435.1,0.00022614,0.074677,9.4781e-05,-986.93,-0.00055391,-5860.9,0.019675
18238,1.7566,4.7273,0,0.00054734,5469.7,0.00022659,0.10684,9.7328e-05,-971.09,-0.00055735,-5890.1,0.017617
18239,1.8491,4.7273,0.05,2.6278e-06,26.26,2.0179e-06,15.161,-4.2802e-22,-3.216e-15,-2.0179e-06,-15.161,0.019461
18240,1.8491,4.4545,0,0.00053986,5394.9,0.00022979,0.050721,8.3562e-05,-1098.6,-0.00055009,-5859.6,0.019994
18241,1.7566,4.5455,0,0.00054311,5427.4,0.00023066,0.077007,8.5087e-05,-1093.7,-0.00055338,-5890.9,0.017942
18242,1.8491,4.5455,0.05,2.6217e-06,26.199,2.0131e-06,15.126,-4.2701e-22,-5.7374e-05,-2.0131e-06,-15.126,0.019808
18243,1.8491,4.2727,0,0.00053685,5364.8,0.00023307,0.036179,7.3886e-05,-1196,-0.00054709,-5861.8,0.020262
18244,1.7566,4.3636,0,0.00054003,5396.5,0.00023436,0.058998,7.4517e-05,-1200.9,-0.00055033,-5895.8,0.018215
18245,1.8491,4.3636,0.05,2.6197e-06,26.179,2.0116e-06,15.114,-2.4213e-12,-2.4039e-05,-2.0116e-06,-15.114,0.0201
18246,1.8491,4.0909,0,0.00053467,5343,0.00023597,0.027989,6.5731e-05,-1279.1,-0.00054481,-5866.5,0.020483
18247,1.7566,4.1818,0,0.00053788,5375.1,0.00023765,0.049007,6.5589e-05,-1292.7,-0.00054808,-5903.6,0.018442
18248,1.8491,4.1818,0.05,2.6237e-06,26.219,2.0147e-06,15.137,-2.5378e-13,-2.524e-05,-2.0147e-06,-15.137,0.020344
18249,1.8491,3.9091,0,0.00053316,5327.9,0.00023844,0.02378,5.9036e-05,-1347.9,-0.00054314,-5872.4,0.020663
18250,1.7566,4,0,0.00053647,5361,0.00024049,0.043923,5.8221e-05,-1369.4,-0.00054647,-5912.9,0.018627
18251,1.8491,4,0.05,2.633e-06,26.312,2.0218e-06,15.191,-1.1374e-12,3.0909e-06,-2.0218e-06,-15.191,0.020544
18252,1.8491,3.7273,0,0.00053216,5317.9,0.00024047,0.021931,5.3715e-05,-1403.2,-0.00054195,-5878.8,0.020805
18253,1.7566,3.8182,0,0.0005356,5352.3,0.00024286,0.041728,5.2308e-05,-1431.7,-0.00054538,-5922.5,0.018776
18254,1.8491,3.8182,0.05,2.6455e-06,26.437,2.0314e-06,15.263,7.0441e-13,-1.3928e-05,-2.0314e-06,-15.264,0.020704
18255,1.8491,3.5455,0,0.00053152,5311.5,0.00024206,0.021351,4.9683e-05,-1445.4,-0.00054114,-5884.6,0.020913
18256,1.7566,3.6364,0,0.0005351,5347.3,0.00024476,0.041079,4.7735e-05,-1480.3,-0.00054467,-5931.4,0.018891
18257,1.8491,3.6364,0.05,2.6589e-06,26.57,2.0417e-06,15.34,1.0426e-12,1.0354e-06,-2.0417e-06,-15.34,0.020829
18258,1.8491,3.3636,0,0.00053114,5307.7,0.00024319,0.021341,4.6864e-05,-1475.1,-0.00054062,-5889.3,0.020989
18259,1.7566,3.4545,0,0.00053483,5344.6,0.00024619,0.041139,4.4403e-05,-1516.1,-0.00054423,-5938.9,0.018976
18260,1.8491,3.4545,0.05,2.6708e-06,26.69,2.0509e-06,15.409,9.945e-13,-2e-07,-2.0509e-06,-15.409,0.02092
18261,1.8491,3.1818,0,0.00053094,5305.8,0.00024388,0.021482,4.5197e-05,-1492.8,-0.00054034,-5892.3,0.021033
18262,1.7566,3.2727,0,0.00053471,5343.4,0.00024714,0.041405,4.223e-05,-1539.6,-0.00054399,-5944.2,0.019031
18263,1.8491,3.2727,0.05,2.6797e-06,26.779,2.0577e-06,15.461,5.8279e-13,-8.305e-07,-2.0577e-06,-15.461,0.02098
18264,1.8491,3,0,0.00053088,5305.2,0.0002441,0.021551,4.4646e-05,-1498.6,-0.00054025,-5893.3,0.021048
18265,1.7566,3.0909,0,0.00053467,5343,0.00024761,0.041599,4.1157e-05,-1551.2,-0.00054388,-5946.9,0.019058
18266,1.8491,3.0909,0.05,2.6844e-06,26.826,2.0613e-06,15.488,1.4138e-12,2.8146e-07,-2.0613e-06,-15.488,0.021009
18267,1.8491,2.8182,0,0.00053094,5305.8,0.00024388,0.021482,4.5197e-05,-1492.8,-0.00054034,-5892.3,0.021033
18268,1.7566,2.9091,0,0.00053467,5343,0.00024761,0.041599,4.1157e-05,-1551.2,-0.00054388,-5946.9,0.019058
18269,1.8491,2.9091,0.05,2.6844e-06,26.826,2.0613e-06,15.488,1.7622e-12,-3.9584e-07,-2.0613e-06,-15.488,0.021009
18270,1.8491,2.6364,0,0.00053114,5307.7,0.00024319,0.021342,4.6864e-05,-1475.1,-0.00054062,-5889.3,0.020989
18271,1.7566,2.7273,0,0.00053471,5343.4,0.00024714,0.041405,4.223e-05,-1539.6,-0.00054399,-5944.2,0.019031
18272,1.8491,2.7273,0.05,2.6797e-06,26.779,2.0577e-06,15.461,1.1835e-12,-2.6357e-06,-2.0577e-06,-15.461,0.02098
18273,1.8491,2.4545,0,0.00053152,5311.5,0.00024206,0.021351,4.9683e-05,-1445.4,-0.00054114,-5884.6,0.020913
18274,1.7566,2.5455,0,0.00053483,5344.6,0.00024619,0.041139,4.4403e-05,-1516.1,-0.00054423,-5938.9,0.018976
18275,1.8491,2.5455,0.05,2.6708e-06,26.69,2.0509e-06,15.409,6.6175e-13,-1.9335e-05,-2.0509e-06,-15.409,0.02092
18276,1.8491,2.2727,0,0.00053216,5317.9,0.00024047,0.021932,5.3715e-05,-1403.2,-0.00054195,-5878.8,0.020805
18277,1.7566,2.3636,0,0.0005351,5347.3,0.00024476,0.041079,4.7735e-05,-1480.3,-0.00054467,-5931.4,0.018891
18278,1.8491,2.3636,0.05,2.6589e-06,26.57,2.0417e-06,15.34,1.7856e-13,-1.5072e-05,-2.0417e-06,-15.34,0.020829
18279,1.8491,2.0909,0,0.00053316,5327.9,0.00023844,0.02378,5.9036e-05,-1347.9,-0.00054314,-5872.4,0.020663
18280,1.7566,2.1818,0,0.0005356,5352.3,0.00024286,0.041728,5.2308e-05,-1431.7,-0.00054538,-5922.5,0.018776
18281,1.8491,2.1818,0.05,2.6455e-06,26.437,2.0314e-06,15.263,-1.0217e-12,-5.2223e-06,-2.0314e-06,-15.263,0.020704
18282,1.8491,1.9091,0,0.00053467,5343,0.00023597,0.02799,6.5732e-05,-1279.1,-0.00054481,-5866.5,0.020483
18283,1.7566,2,0,0.00053647,5361,0.00024049,0.043923,5.8221e-05,-1369.4,-0.00054647,-5912.9,0.018627
18284,1.8491,2,0.05,2.633e-06,26.312,2.0218e-06,15.191,-2.3061e-12,-4.0456e-05,-2.0218e-06,-15.191,0.020544
18285,1.8491,1.7273,0,0.00053685,5364.8,0.00023307,0.036179,7.3886e-05,-1196,-0.00054709,-5861.8,0.020262
18286,1.7566,1.8182,0,0.00053788,5375.1,0.00023765,0.049007,6.5589e-05,-1292.7,-0.00054808,-5903.6,0.018442
18287,1.8491,1.8182,0.05,2.6237e-06,26.219,2.0147e-06,15.137,-5.1326e-12,-5.361e-05,-2.0147e-06,-15.137,0.020344
18288,1.8491,1.5455,0,0.00053986,5394.9,0.00022979,0.050721,8.3562e-05,-1098.6,-0.00055009,-5859.6,0.019994
18289,1.7566,1.6364,0,0.00054003,5396.5,0.00023436,0.058998,7.4517e-05,-1200.9,-0.00055033,-5895.8,0.018215
18290,1.8491,1.6364,0.05,2.6197e-06,26.179,2.0116e-06,15.114,1.3164e-12,-7.4555e-06,-2.0116e-06,-15.114,0.0201
18291,1.8491,1.3636,0,0.00054389,5435.1,0.00022614,0.074677,9.4781e-05,-986.93,-0.00055391,-5860.9,0.019675
18292,1.7566,1.4545,0,0.00054311,5427.4,0.00023066,0.077007,8.5087e-05,-1093.7,-0.00055338,-5890.9,0.017942
18293,1.8491,1.4545,0.05,2.6217e-06,26.199,2.0131e-06,15.126,-5.9334e-12,-3.4409e-05,-2.0131e-06,-15.126,0.019808
18294,1.8491,1.1818,0,0.00054908,5487,0.00022221,0.11299,0.0001075,-861.76,-0.00055863,-5866.8,0.019298
18295,1.7566,1.2727,0,0.00054734,5469.7,0.00022659,0.10684,9.7328e-05,-971.09,-0.00055735,-5890.1,0.017617
18296,1.8491,1.2727,0.05,2.6278e-06,26.26,2.0179e-06,15.161,-7.7867e-12,-0.00011142,-2.0179e-06,-15.161,0.019461
18297,1.8491,1,0,0.00055552,5551.3,0.00021806,0.16922,0.00012158,-724.71,-0.00056428,-5878,0.018855
18298,1.7566,1.0909,0,0.00055289,5525.1,0.00022222,0.15608,0.00011118,-834.14,-0.00056233,-5894.7,0.017232
18299,1.8491,1.0909,0.05,2.6325e-06,26.307,2.0214e-06,15.188,2.3723e-13,-5.7055e-05,-2.0214e-06,-15.188,0.019051
18300,1.8491,0.81818,0,0.00056322,5628.3,0.00021379,0.26337,0.00013679,-578.29,-0.00057082,-5895,0.018337
18301,1.7566,0.90909,0,0.00055986,5594.8,0.00021766,0.22647,0.00012648,-684.86,-0.00056835,-5905.5,0.01678
18302,1.8491,0.90909,0.05,2.626e-06,26.242,2.0164e-06,15.151,-1.8172e-11,-0.00014481,-2.0164e-06,-15.151,0.018572
18303,1.8491,0.63636,0,0.00057211,5717.1,0.00020953,0.37525,0.0001528,-425.9,-0.00057815,-5918,0.017736
18304,1.7566,0.72727,0,0.00056824,5678.5,0.00021302,0.36158,0.00014291,-526.46,-0.00057535,-5923.2,0.01625
18305,1.8491,0.72727,0.05,2.5962e-06,25.944,1.9936e-06,14.979,-1.8413e-11,-0.00010444,-1.9935e-06,-14.979,0.018014
18306,1.8491,0.45455,0,0.00058207,5816.6,0.00020542,0.8127,0.00016924,-271.03,-0.00058619,-5947,0.017041
18307,1.7566,0.54545,0,0.0005779,5775,0.00020846,0.48629,0.00016005,-363.21,-0.00058321,-5947.8,0.015634
18308,1.8491,0.54545,0.05,2.5359e-06,25.342,1.9473e-06,14.631,-5.4769e-13,-0.00010976,-1.9473e-06,-14.631,0.017367
18309,1.8491,0.27273,0,0.00059365,5932.4,0.00020164,1.9546,0.00018633,-113.1,-0.00059545,-5987.1,0.016243
18310,1.7566,0.36364,0,0.00058873,5883.3,0.00020417,1.3882,0.0001775,-199.03,-0.00059184,-5979.5,0.01492
18311,1.8491,0.36364,0.05,2.4823e-06,24.806,1.9061e-06,14.322,-6.0215e-12,-5.402e-05,-1.9061e-06,-14.322,0.016621
18312,1.7566,0.18182,0,0.00060208,6016.6,0.00020103,7.9173,0.00019545,-34.021,-0.00060251,-6029.5,0.014097
18313,1.8491,0.18182,0.05,4.3736e-06,43.706,3.3584e-06,25.234,-4.5943e-12,-3.3107e-05,-3.3584e-06,-25.234,0.015765
18314,1.8491,0.090909,0,0.00059928,5988.7,0.00019832,1.7816,0.00019698,-8.3067,-0.00059939,-5992,0.015329
18315,1.6642,5.7273,0,0.00059711,5967,0.00020289,2.3628,0.00018732,-114.65,-0.00059893,-6022.3,0.012903
18316,1.5717,5.8182,0,0.00060549,6050.8,0.00020221,11.76,0.00019684,-28.565,-0.00060577,-6059.1,0.010992
18317,1.6642,5.8182,0.05,4.5807e-06,45.775,3.5174e-06,26.428,-7.4609e-22,-5.6058e-15,-3.5174e-06,-26.428,0.012459
18318,1.6642,5.9091,0,0.00060271,6022.9,0.00019938,3.7839,0.00019841,-3.4787,-0.0006027,-6022.8,0.012056
18319,1.6642,5.5455,0,0.00058453,5841.2,0.00020719,0.93059,0.00016837,-290.73,-0.00058891,-5980.7,0.013637
18320,1.5717,5.6364,0,0.00059079,5903.8,0.00020544,1.5646,0.00017718,-210.72,-0.00059406,-6005.6,0.011746
18321,1.6642,5.6364,0.05,2.7011e-06,26.992,2.0741e-06,15.584,-4.3995e-22,-3.3056e-15,-2.0741e-06,-15.584,0.013249
18322,1.6642,5.3636,0,0.00057398,5735.8,0.00021194,0.43804,0.0001502,-463.46,-0.00058045,-5953.3,0.014268
18323,1.5717,5.4545,0,0.00057921,5788.1,0.00021041,0.53131,0.00015779,-394.79,-0.00058491,-5975.1,0.012392
18324,1.6642,5.4545,0.05,2.7916e-06,27.897,2.1436e-06,16.106,4.0424e-13,-5.7855e-05,-2.1436e-06,-16.106,0.013931
18325,1.6642,5.1818,0,0.00056482,5644.3,0.00021688,0.30959,0.00013262,-632.83,-0.00057291,-5933.9,0.014809
18326,1.5717,5.2727,0,0.00056918,5687.8,0.00021573,0.37777,0.00013883,-577.45,-0.00057679,-5954.3,0.012944
18327,1.6642,5.2727,0.05,2.8535e-06,28.516,2.1912e-06,16.463,-4.6478e-22,-3.4921e-15,-2.1912e-06,-16.463,0.014515
18328,1.6642,5,0,0.00055718,5567.9,0.00022182,0.20499,0.00011609,-794.22,-0.00056642,-5922.3,0.01527
18329,1.5717,5.0909,0,0.00056082,5604.3,0.00022114,0.22255,0.00012086,-753.21,-0.00056981,-5942.7,0.013413
18330,1.6642,5.0909,0.05,2.8727e-06,28.708,2.2059e-06,16.574,-6.084e-12,-3.5157e-15,-2.2059e-06,-16.574,0.015015
18331,1.6642,4.8182,0,0.0005511,5507.2,0.0002266,0.1447,0.000101,-943.52,-0.00056105,-5917.9,0.015661
18332,1.5717,4.9091,0,0.00055425,5538.6,0.00022643,0.14351,0.00010441,-916.71,-0.00056411,-5939.7,0.01381
18333,1.6642,4.9091,0.05,2.8651e-06,28.632,2.2001e-06,16.531,2.3284e-13,-3.5064e-15,-2.2001e-06,-16.531,0.01544
18334,1.6642,4.6364,0,0.00054651,5461.3,0.0002311,0.10564,8.7613e-05,-1078,-0.0005568,-5919.8,0.015991
18335,1.5717,4.7273,0,0.00054939,5490.1,0.00023145,0.090773,8.9785e-05,-1064.4,-0.00055969,-5944.3,0.014144
18336,1.6642,4.7273,0.05,2.8489e-06,28.469,2.1876e-06,16.437,-4.6402e-22,-5.5955e-06,-2.1876e-06,-16.437,0.015799
18337,1.6642,4.4545,0,0.00054323,5428.5,0.00023523,0.082793,7.6011e-05,-1196.2,-0.00055359,-5926.8,0.016268
18338,1.5717,4.5455,0,0.00054604,5456.6,0.00023609,0.060564,7.713e-05,-1194.3,-0.00055646,-5954.8,0.014424
18339,1.6642,4.5455,0.05,2.8364e-06,28.344,2.178e-06,16.364,-3.738e-12,-2.7543e-05,-2.178e-06,-16.365,0.016102
18340,1.6642,4.2727,0,0.00054102,5406.5,0.00023893,0.070013,6.6182e-05,-1297.9,-0.00055128,-5937.2,0.016499
18341,1.5717,4.3636,0,0.00054393,5435.5,0.00024027,0.043389,6.6426e-05,-1306.1,-0.00055424,-5969.6,0.014657
18342,1.6642,4.3636,0.05,2.8331e-06,28.312,2.1755e-06,16.346,8.8977e-13,3.732e-06,-2.1755e-06,-16.346,0.016355
18343,1.6642,4.0909,0,0.00053965,5392.8,0.00024216,0.063583,5.8038e-05,-1383.4,-0.00054969,-5949.6,0.016689
18344,1.5717,4.1818,0,0.00054275,5423.8,0.00024394,0.034485,5.7561e-05,-1400.4,-0.00055283,-5986.6,0.014849
18345,1.6642,4.1818,0.05,2.8395e-06,28.375,2.1804e-06,16.382,6.4536e-13,-3.475e-15,-2.1804e-06,-16.382,0.016564
18346,1.6642,3.9091,0,0.00053888,5385.1,0.00024491,0.060826,5.1451e-05,-1453.5,-0.00054868,-5962.6,0.016842
18347,1.5717,4,0,0.00054224,5418.7,0.00024709,0.03029,5.0373e-05,-1478,-0.00055204,-6004.3,0.015006
18348,1.6642,4,0.05,2.8529e-06,28.509,2.1907e-06,16.46,1.4546e-12,-1.2263e-05,-2.1907e-06,-16.46,0.016735
18349,1.6642,3.7273,0,0.00053852,5381.4,0.00024715,0.060044,4.6286e-05,-1509.1,-0.00054806,-5974.8,0.016963
18350,1.5717,3.8182,0,0.00054215,5417.8,0.0002497,0.02867,4.4692e-05,-1540.4,-0.00055166,-6021.1,0.01513
18351,1.6642,3.8182,0.05,2.8698e-06,28.679,2.2037e-06,16.558,1.0971e-12,2.5622e-06,-2.2037e-06,-16.558,0.016872
18352,1.6642,3.5455,0,0.00053839,5380.2,0.00024889,0.060178,4.2414e-05,-1551.3,-0.00054773,-5985.4,0.017054
18353,1.5717,3.6364,0,0.0005423,5419.2,0.00025179,0.028319,4.0356e-05,-1588.6,-0.00055155,-6036,0.015227
18354,1.6642,3.6364,0.05,2.8871e-06,28.851,2.2169e-06,16.657,4.1036e-13,1.0089e-06,-2.2169e-06,-16.657,0.016977
18355,1.6642,3.3636,0,0.00053839,5380.2,0.00025013,0.060604,3.9728e-05,-1580.8,-0.00054756,-5993.5,0.017118
18356,1.5717,3.4545,0,0.00054252,5421.5,0.00025334,0.028489,3.7227e-05,-1623.8,-0.00055158,-6047.8,0.015297
18357,1.6642,3.4545,0.05,2.902e-06,29,2.2283e-06,16.743,1.5723e-12,-1.4076e-05,-2.2283e-06,-16.743,0.017054
18358,1.6642,3.1818,0,0.00053842,5380.5,0.00025087,0.060973,3.8149e-05,-1598.3,-0.00054749,-5998.5,0.017156
18359,1.5717,3.2727,0,0.00054273,5423.6,0.00025437,0.028772,3.52e-05,-1646.7,-0.00055165,-6056.1,0.015343
18360,1.6642,3.2727,0.05,2.9128e-06,29.108,2.2367e-06,16.805,5.7858e-13,6.4554e-08,-2.2367e-06,-16.805,0.017105
18361,1.6642,3,0,0.00053844,5380.7,0.00025112,0.061113,3.7628e-05,-1604,-0.00054747,-6000.2,0.017168
18362,1.5717,3.0909,0,0.00054285,5424.8,0.00025489,0.028956,3.4205e-05,-1658.1,-0.0005517,-6060.3,0.015366
18363,1.6642,3.0909,0.05,2.9185e-06,29.165,2.241e-06,16.838,9.4957e-13,3.6325e-07,-2.241e-06,-16.838,0.01713
18364,1.6642,2.8182,0,0.00053842,5380.5,0.00025087,0.060973,3.8149e-05,-1598.3,-0.00054749,-5998.5,0.017156
18365,1.5717,2.9091,0,0.00054285,5424.8,0.00025489,0.028956,3.4205e-05,-1658.1,-0.0005517,-6060.3,0.015366
18366,1.6642,2.9091,0.05,2.9185e-06,29.165,2.241e-06,16.838,8.5213e-13,-3.6326e-07,-2.241e-06,-16.838,0.01713
18367,1.6642,2.6364,0,0.00053839,5380.2,0.00025013,0.060604,3.9728e-05,-1580.8,-0.00054756,-5993.5,0.017118
18368,1.5717,2.7273,0,0.00054273,5423.6,0.00025437,0.028772,3.52e-05,-1646.7,-0.00055165,-6056.1,0.015343
18369,1.6642,2.7273,0.05,2.9128e-06,29.108,2.2367e-06,16.805,3.1889e-13,-1.6735e-05,-2.2367e-06,-16.805,0.017105
18370,1.6642,2.4545,0,0.00053839,5380.2,0.00024889,0.060178,4.2414e-05,-1551.3,-0.00054773,-5985.4,0.017054
18371,1.5717,2.5455,0,0.00054252,5421.5,0.00025334,0.02849,3.7227e-05,-1623.8,-0.00055158,-6047.8,0.015297
18372,1.6642,2.5455,0.05,2.902e-06,29,2.2283e-06,16.743,1.4053e-12,-2.8986e-06,-2.2283e-06,-16.743,0.017054
18373,1.6642,2.2727,0,0.00053852,5381.4,0.00024715,0.060044,4.6286e-05,-1509.1,-0.00054806,-5974.8,0.016963
18374,1.5717,2.3636,0,0.0005423,5419.2,0.00025179,0.028319,4.0356e-05,-1588.6,-0.00055155,-6036,0.015227
18375,1.6642,2.3636,0.05,2.8871e-06,28.851,2.2169e-06,16.657,1.3205e-12,-2.1749e-05,-2.2169e-06,-16.657,0.016977
18376,1.6642,2.0909,0,0.00053888,5385.1,0.00024491,0.060826,5.1451e-05,-1453.5,-0.00054868,-5962.6,0.016842
18377,1.5717,2.1818,0,0.00054215,5417.8,0.0002497,0.02867,4.4692e-05,-1540.4,-0.00055166,-6021.1,0.01513
18378,1.6642,2.1818,0.05,2.8698e-06,28.679,2.2037e-06,16.558,-2.7579e-13,-5.1244e-06,-2.2037e-06,-16.558,0.016872
18379,1.6642,1.9091,0,0.00053965,5392.8,0.00024216,0.063584,5.8038e-05,-1383.4,-0.00054969,-5949.6,0.016689
18380,1.5717,2,0,0.00054224,5418.7,0.00024709,0.03029,5.0373e-05,-1478,-0.00055204,-6004.3,0.015006
18381,1.6642,2,0.05,2.8529e-06,28.509,2.1907e-06,16.46,-3.7279e-13,-1.8377e-05,-2.1907e-06,-16.46,0.016735
18382,1.6642,1.7273,0,0.00054102,5406.5,0.00023893,0.070013,6.6182e-05,-1297.9,-0.00055128,-5937.2,0.016499
18383,1.5717,1.8182,0,0.00054275,5423.8,0.00024394,0.034485,5.7561e-05,-1400.4,-0.00055283,-5986.6,0.014849
18384,1.6642,1.8182,0.05,2.8395e-06,28.375,2.1804e-06,16.382,-3.0256e-12,-2.1189e-05,-2.1804e-06,-16.382,0.016564
18385,1.6642,1.5455,0,0.00054323,5428.5,0.00023523,0.082794,7.6011e-05,-1196.2,-0.00055359,-5926.8,0.016268
18386,1.5717,1.6364,0,0.00054393,5435.5,0.00024027,0.043389,6.6426e-05,-1306.1,-0.00055424,-5969.6,0.014657
18387,1.6642,1.6364,0.05,2.8331e-06,28.312,2.1755e-06,16.346,-2.5722e-12,-7.4639e-06,-2.1755e-06,-16.346,0.016355
18388,1.6642,1.3636,0,0.00054651,5461.3,0.0002311,0.10564,8.7613e-05,-1078,-0.0005568,-5919.8,0.015991
18389,1.5717,1.4545,0,0.00054604,5456.6,0.00023609,0.060565,7.713e-05,-1194.3,-0.00055646,-5954.8,0.014424
18390,1.6642,1.4545,0.05,2.8364e-06,28.344,2.178e-06,16.364,-4.9303e-14,-6.6526e-05,-2.178e-06,-16.365,0.016102
18391,1.6642,1.1818,0,0.0005511,5507.2,0.0002266,0.1447,0.000101,-943.52,-0.00056105,-5917.9,0.015661
18392,1.5717,1.2727,0,0.00054939,5490.1,0.00023145,0.090774,8.9785e-05,-1064.4,-0.00055969,-5944.3,0.014144
18393,1.6642,1.2727,0.05,2.8489e-06,28.469,2.1876e-06,16.437,-3.6073e-12,-0.00012331,-2.1876e-06,-16.437,0.015799
18394,1.6642,1,0,0.00055718,5567.9,0.00022182,0.20499,0.00011609,-794.22,-0.00056642,-5922.3,0.01527
18395,1.5717,1.0909,0,0.00055425,5538.6,0.00022643,0.14351,0.00010441,-916.71,-0.00056411,-5939.7,0.01381
18396,1.6642,1.0909,0.05,2.8651e-06,28.632,2.2001e-06,16.531,-5.7414e-12,-0.00010414,-2.2001e-06,-16.531,0.01544
18397,1.6642,0.81818,0,0.00056482,5644.3,0.00021688,0.30959,0.00013262,-632.83,-0.00057291,-5933.9,0.014809
18398,1.5717,0.90909,0,0.00056082,5604.3,0.00022114,0.22255,0.00012086,-753.21,-0.00056981,-5942.7,0.013413
18399,1.6642,0.90909,0.05,2.8727e-06,28.708,2.2059e-06,16.574,-5.637e-12,-5.6476e-06,-2.2059e-06,-16.574,0.015015
18400,1.6642,0.63636,0,0.00057398,5735.8,0.00021194,0.43804,0.0001502,-463.46,-0.00058045,-5953.3,0.014268
18401,1.5717,0.72727,0,0.00056918,5687.8,0.00021573,0.37777,0.00013883,-577.45,-0.00057679,-5954.3,0.012944
18402,1.6642,0.72727,0.05,2.8535e-06,28.516,2.1912e-06,16.463,-1.9225e-11,-5.5212e-05,-2.1911e-06,-16.463,0.014515
18403,1.6642,0.45455,0,0.00058453,5841.2,0.00020719,0.93059,0.00016837,-290.73,-0.00058891,-5980.7,0.013637
18404,1.5717,0.54545,0,0.00057921,5788.1,0.00021041,0.53131,0.00015779,-394.79,-0.00058491,-5975.1,0.012392
18405,1.6642,0.54545,0.05,2.7916e-06,27.897,2.1436e-06,16.106,-1.3914e-11,-0.00012249,-2.1436e-06,-16.106,0.013931
18406,1.6642,0.27273,0,0.00059711,5967,0.00020289,2.3628,0.00018732,-114.65,-0.00059893,-6022.3,0.012903
18407,1.5717,0.36364,0,0.00059079,5903.8,0.00020544,1.5646,0.00017718,-210.72,-0.00059406,-6005.6,0.011746
18408,1.6642,0.36364,0.05,2.7011e-06,26.992,2.0741e-06,15.584,-1.3631e-11,-7.0326e-06,-2.0741e-06,-15.584,0.013249
18409,1.5717,0.18182,0,0.00060549,6050.8,0.00020221,11.76,0.00019684,-28.565,-0.00060577,-6059.1,0.010992
18410,1.6642,0.18182,0.05,4.5807e-06,45.775,3.5174e-06,26.428,-1.8867e-12,-5.5613e-05,-3.5174e-06,-26.428,0.012459
18411,1.6642,0.090909,0,0.00060271,6022.9,0.00019938,3.7839,0.00019841,-3.4787,-0.0006027,-6022.8,0.012056
18412,1.4792,5.7273,0,0.00059911,5986.9,0.00020367,2.8418,0.00018783,-116.15,-0.00060095,-6042.7,0.0099629
18413,1.3868,5.8182,0,0.00060722,6068,0.00020305,18.151,0.00019753,-23.297,-0.0006073,-6070.5,0.0082896
18414,1.4792,5.8182,0.05,4.765e-06,47.617,3.6589e-06,27.492,-7.7612e-22,-5.8314e-15,-3.6589e-06,-27.492,0.0095554
18415,1.4792,5.9091,0,0.00060461,6041.9,0.0002004,9.9284,0.00019894,-1.0173,-0.00060446,-6037.5,0.0091888
18416,1.4792,5.5455,0,0.00058542,5850.2,0.00020863,1.0025,0.00016667,-314.21,-0.00059011,-6000.4,0.010625
18417,1.3868,5.6364,0,0.00059098,5905.7,0.00020621,1.8641,0.00017604,-224.83,-0.00059444,-6013.9,0.0089674
18418,1.4792,5.6364,0.05,3.0034e-06,30.013,2.3062e-06,17.328,-4.8918e-22,-3.6755e-15,-2.3062e-06,-17.328,0.010273
18419,1.4792,5.3636,0,0.00057434,5739.4,0.00021419,0.42937,0.00014647,-508.44,-0.00058128,-5976.5,0.011188
18420,1.3868,5.4545,0,0.00057866,5782.6,0.00021208,0.70206,0.0001543,-433.41,-0.0005848,-5986.7,0.009541
18421,1.4792,5.4545,0.05,3.1331e-06,31.31,2.4059e-06,18.077,-5.1032e-22,-3.8344e-15,-2.4059e-06,-18.077,0.010884
18422,1.4792,5.1818,0,0.00056509,5647,0.00021999,0.27259,0.0001271,-697.67,-0.00057371,-5963.3,0.011664
18423,1.3868,5.2727,0,0.00056843,5680.3,0.0002184,0.52754,0.00013324,-639.36,-0.00057658,-5972.7,0.010024
18424,1.4792,5.2727,0.05,3.1837e-06,31.815,2.4447e-06,18.368,-5.1855e-22,-3.8962e-15,-2.4447e-06,-18.368,0.011402
18425,1.4792,5,0,0.0005578,5574.2,0.00022575,0.15105,0.00010918,-875.71,-0.00056751,-5960.1,0.012065
18426,1.3868,5.0909,0,0.00056043,5600.4,0.00022478,0.35864,0.00011361,-834.88,-0.00056993,-5970.8,0.010428
18427,1.4792,5.0909,0.05,3.1771e-06,31.749,2.4396e-06,18.33,-5.1748e-22,5.0626e-06,-2.4396e-06,-18.33,0.01184
18428,1.4792,4.8182,0,0.00055246,5520.8,0.00023129,0.083356,9.3167e-05,-1037.7,-0.00056274,-5965.9,0.012401
18429,1.3868,4.9091,0,0.0005547,5543.2,0.00023096,0.27731,9.6055e-05,-1013.3,-0.00056494,-5979.8,0.010766
18430,1.4792,4.9091,0.05,3.1434e-06,31.412,2.4137e-06,18.136,-5.1198e-22,-3.8469e-15,-2.4137e-06,-18.136,0.012207
18431,1.4792,4.6364,0,0.00054886,5484.8,0.00023645,0.041573,7.9268e-05,-1180.9,-0.00055932,-5979,0.012683
18432,1.3868,4.7273,0,0.00055102,5506.4,0.00023675,0.22641,8.086e-05,-1171.1,-0.00056151,-5997.6,0.011048
18433,1.4792,4.7273,0.05,3.1085e-06,31.064,2.387e-06,17.935,-3.8493e-12,-3.8042e-15,-2.387e-06,-17.935,0.012514
18434,1.4792,4.4545,0,0.00054669,5463.1,0.00024113,0.018319,6.7503e-05,-1304.5,-0.00055706,-5997.3,0.012917
18435,1.3868,4.5455,0,0.00054901,5486.3,0.00024203,0.19984,6.806e-05,-1306.9,-0.00055943,-6021.6,0.011281
18436,1.4792,4.5455,0.05,3.0868e-06,30.847,2.3703e-06,17.809,8.809e-13,-2.7664e-05,-2.3703e-06,-17.809,0.012771
18437,1.4792,4.2727,0,0.00054562,5452.4,0.00024528,0.0058484,5.7759e-05,-1408.9,-0.00055575,-6018.6,0.01311
18438,1.3868,4.3636,0,0.00054826,5478.8,0.00024673,0.18615,5.751e-05,-1421.5,-0.00055841,-6049.3,0.011474
18439,1.4792,4.3636,0.05,3.0816e-06,30.794,2.3663e-06,17.779,7.2119e-13,-3.3077e-05,-2.3663e-06,-17.779,0.012983
18440,1.4792,4.0909,0,0.00054531,5449.4,0.00024887,-0.00027194,4.985e-05,-1495.4,-0.00055513,-6040.9,0.013268
18441,1.3868,4.1818,0,0.00054836,5479.8,0.00025081,0.17993,4.8978e-05,-1516.3,-0.00055817,-6078.2,0.011632
18442,1.4792,4.1818,0.05,3.09e-06,30.879,2.3727e-06,17.828,7.3579e-13,-3.7816e-15,-2.3727e-06,-17.828,0.013158
18443,1.4792,3.9091,0,0.00054549,5451.1,0.00025189,-0.0029628,4.3569e-05,-1565.2,-0.00055498,-6062.5,0.013395
18444,1.3868,4,0,0.00054898,5486,0.00025427,0.17751,4.2205e-05,-1593.2,-0.00055843,-6106.2,0.011759
18445,1.4792,4,0.05,3.1069e-06,31.048,2.3857e-06,17.925,-2.8484e-13,-2.0941e-05,-2.3857e-06,-17.925,0.0133
18446,1.4792,3.7273,0,0.00054591,5455.4,0.00025434,-0.0039084,3.8718e-05,-1620.1,-0.00055511,-6081.9,0.013495
18447,1.3868,3.8182,0,0.00054985,5494.7,0.00025712,0.17692,3.6947e-05,-1654.2,-0.00055896,-6131.6,0.011861
18448,1.4792,3.8182,0.05,3.1272e-06,31.25,2.4013e-06,18.042,5.9173e-13,-6.1013e-06,-2.4013e-06,-18.042,0.013413
18449,1.4792,3.5455,0,0.00054641,5460.4,0.00025624,-0.0040641,3.5127e-05,-1661.3,-0.00055537,-6098.1,0.01357
18450,1.3868,3.6364,0,0.00055075,5503.7,0.00025938,0.17707,3.299e-05,-1700.8,-0.00055958,-6153.2,0.011939
18451,1.4792,3.6364,0.05,3.1469e-06,31.447,2.4164e-06,18.156,1.5007e-12,-3.2676e-06,-2.4164e-06,-18.156,0.0135
18452,1.4792,3.3636,0,0.00054685,5464.8,0.00025758,-0.0039382,3.2659e-05,-1690,-0.00055563,-6110.1,0.013622
18453,1.3868,3.4545,0,0.00055154,5511.6,0.00026105,0.17744,3.0168e-05,-1734.6,-0.00056016,-6170.1,0.011995
18454,1.4792,3.4545,0.05,3.1634e-06,31.612,2.4291e-06,18.251,1.0435e-12,-1.3354e-05,-2.4291e-06,-18.251,0.013563
18455,1.4792,3.1818,0,0.00054715,5467.7,0.00025838,-0.0037871,3.1217e-05,-1706.8,-0.00055581,-6117.6,0.013653
18456,1.3868,3.2727,0,0.00055212,5517.4,0.00026216,0.17777,2.8355e-05,-1756.6,-0.0005606,-6181.7,0.012032
18457,1.4792,3.2727,0.05,3.1751e-06,31.729,2.4381e-06,18.319,1.4468e-12,1.0367e-06,-2.4381e-06,-18.319,0.013604
18458,1.4792,3,0,0.00054725,5468.8,0.00025865,-0.003726,3.0743e-05,-1712.4,-0.00055588,-6120.1,0.013663
18459,1.3868,3.0909,0,0.00055243,5520.5,0.00026271,0.17795,2.7468e-05,-1767.4,-0.00056083,-6187.6,0.01205
18460,1.4792,3.0909,0.05,3.1812e-06,31.79,2.4428e-06,18.354,1.4056e-12,2.4781e-07,-2.4428e-06,-18.354,0.013624
18461,1.4792,2.8182,0,0.00054715,5467.7,0.00025838,-0.0037872,3.1217e-05,-1706.8,-0.00055581,-6117.6,0.013653
18462,1.3868,2.9091,0,0.00055243,5520.5,0.00026271,0.17795,2.7468e-05,-1767.4,-0.00056083,-6187.6,0.01205
18463,1.4792,2.9091,0.05,3.1812e-06,31.79,2.4428e-06,18.354,1.3151e-12,-4.2512e-07,-2.4428e-06,-18.354,0.013624
18464,1.4792,2.6364,0,0.00054685,5464.8,0.00025758,-0.0039382,3.2659e-05,-1690,-0.00055563,-6110.1,0.013622
18465,1.3868,2.7273,0,0.00055212,5517.4,0.00026216,0.17777,2.8355e-05,-1756.6,-0.0005606,-6181.7,0.012032
18466,1.4792,2.7273,0.05,3.1751e-06,31.729,2.4381e-06,18.319,1.1996e-12,-1.5906e-05,-2.4381e-06,-18.319,0.013604
18467,1.4792,2.4545,0,0.00054641,5460.4,0.00025624,-0.004064,3.5127e-05,-1661.3,-0.00055537,-6098.1,0.01357
18468,1.3868,2.5455,0,0.00055154,5511.6,0.00026105,0.17744,3.0168e-05,-1734.6,-0.00056016,-6170.1,0.011995
18469,1.4792,2.5455,0.05,3.1634e-06,31.612,2.4291e-06,18.251,1.5919e-12,-3.1554e-05,-2.4291e-06,-18.251,0.013563
18470,1.4792,2.2727,0,0.00054591,5455.4,0.00025434,-0.0039082,3.8718e-05,-1620.1,-0.00055511,-6081.9,0.013495
18471,1.3868,2.3636,0,0.00055075,5503.7,0.00025938,0.17707,3.299e-05,-1700.8,-0.00055958,-6153.2,0.011939
18472,1.4792,2.3636,0.05,3.1469e-06,31.447,2.4164e-06,18.156,3.0208e-13,-7.146e-06,-2.4164e-06,-18.156,0.0135
18473,1.4792,2.0909,0,0.00054549,5451.1,0.00025189,-0.0029626,4.3569e-05,-1565.2,-0.00055498,-6062.5,0.013395
18474,1.3868,2.1818,0,0.00054985,5494.7,0.00025712,0.17692,3.6947e-05,-1654.2,-0.00055896,-6131.6,0.011861
18475,1.4792,2.1818,0.05,3.1272e-06,31.25,2.4013e-06,18.042,2.9003e-14,-1.1065e-05,-2.4013e-06,-18.042,0.013413
18476,1.4792,1.9091,0,0.00054531,5449.4,0.00024887,-0.00027178,4.985e-05,-1495.4,-0.00055513,-6040.9,0.013268
18477,1.3868,2,0,0.00054898,5486,0.00025427,0.17751,4.2205e-05,-1593.2,-0.00055843,-6106.2,0.011759
18478,1.4792,2,0.05,3.1069e-06,31.048,2.3857e-06,17.925,-2.6609e-12,-2.3931e-05,-2.3857e-06,-17.925,0.0133
18479,1.4792,1.7273,0,0.00054562,5452.4,0.00024528,0.0058485,5.7759e-05,-1408.9,-0.00055575,-6018.6,0.01311
18480,1.3868,1.8182,0,0.00054836,5479.8,0.00025081,0.17993,4.8978e-05,-1516.3,-0.00055817,-6078.2,0.011632
18481,1.4792,1.8182,0.05,3.09e-06,30.879,2.3727e-06,17.828,-1.1272e-12,-3.4878e-05,-2.3727e-06,-17.828,0.013158
18482,1.4792,1.5455,0,0.00054669,5463.1,0.00024113,0.018319,6.7503e-05,-1304.5,-0.00055706,-5997.3,0.012917
18483,1.3868,1.6364,0,0.00054826,5478.8,0.00024673,0.18615,5.751e-05,-1421.5,-0.00055841,-6049.3,0.011474
18484,1.4792,1.6364,0.05,3.0816e-06,30.794,2.3663e-06,17.779,-4.7191e-12,-3.7712e-15,-2.3663e-06,-17.779,0.012983
18485,1.4792,1.3636,0,0.00054886,5484.8,0.00023645,0.041573,7.9268e-05,-1180.9,-0.00055932,-5979,0.012683
18486,1.3868,1.4545,0,0.00054901,5486.3,0.00024203,0.19984,6.806e-05,-1306.9,-0.00055943,-6021.6,0.011281
18487,1.4792,1.4545,0.05,3.0868e-06,30.847,2.3703e-06,17.809,-2.431e-12,-3.529e-05,-2.3703e-06,-17.809,0.012771
18488,1.4792,1.1818,0,0.00055246,5520.8,0.00023129,0.083356,9.3167e-05,-1037.7,-0.00056274,-5965.9,0.012401
18489,1.3868,1.2727,0,0.00055102,5506.4,0.00023675,0.22641,8.086e-05,-1171.1,-0.00056151,-5997.6,0.011048
18490,1.4792,1.2727,0.05,3.1085e-06,31.064,2.387e-06,17.935,-3.7585e-12,-0.0001333,-2.387e-06,-17.935,0.012514
18491,1.4792,1,0,0.0005578,5574.2,0.00022575,0.15106,0.00010918,-875.71,-0.00056751,-5960.1,0.012065
18492,1.3868,1.0909,0,0.0005547,5543.2,0.00023096,0.27731,9.6055e-05,-1013.3,-0.00056494,-5979.8,0.010766
18493,1.4792,1.0909,0.05,3.1434e-06,31.412,2.4137e-06,18.136,-5.4151e-12,-9.4319e-05,-2.4137e-06,-18.136,0.012207
18494,1.4792,0.81818,0,0.00056509,5647,0.00021999,0.27259,0.0001271,-697.67,-0.00057371,-5963.3,0.011664
18495,1.3868,0.90909,0,0.00056043,5600.4,0.00022478,0.35864,0.00011361,-834.88,-0.00056993,-5970.8,0.010428
18496,1.4792,0.90909,0.05,3.1771e-06,31.749,2.4396e-06,18.33,-1.8735e-11,-5.4309e-05,-2.4396e-06,-18.33,0.01184
18497,1.4792,0.63636,0,0.00057434,5739.4,0.00021419,0.42937,0.00014647,-508.44,-0.00058128,-5976.5,0.011188
18498,1.3868,0.72727,0,0.00056843,5680.3,0.0002184,0.52754,0.00013324,-639.36,-0.00057658,-5972.7,0.010024
18499,1.4792,0.72727,0.05,3.1837e-06,31.815,2.4447e-06,18.368,-7.0846e-12,-5.7631e-05,-2.4447e-06,-18.368,0.011402
18500,1.4792,0.45455,0,0.00058542,5850.2,0.00020863,1.0025,0.00016667,-314.21,-0.00059011,-6000.4,0.010625
18501,1.3868,0.54545,0,0.00057866,5782.6,0.00021208,0.70206,0.0001543,-433.41,-0.0005848,-5986.7,0.009541
18502,1.4792,0.54545,0.05,3.1331e-06,31.31,2.4059e-06,18.077,-1.4201e-11,-3.8344e-15,-2.4059e-06,-18.077,0.010884
18503,1.4792,0.27273,0,0.00059911,5986.9,0.00020367,2.8418,0.00018783,-116.15,-0.00060095,-6042.7,0.0099629
18504,1.3868,0.36364,0,0.00059098,5905.7,0.00020621,1.8641,0.00017604,-224.83,-0.00059444,-6013.9,0.0089674
18505,1.4792,0.36364,0.05,3.0034e-06,30.013,2.3062e-06,17.328,-2.1653e-11,-0.00012032,-2.3062e-06,-17.328,0.010273
18506,1.3868,0.18182,0,0.00060722,6068,0.00020305,18.151,0.00019753,-23.297,-0.0006073,-6070.5,0.0082896
18507,1.4792,0.18182,0.05,4.765e-06,47.617,3.6589e-06,27.492,-3.7596e-13,-2.1396e-05,-3.659e-06,-27.492,0.0095554
18508,1.4792,0.090909,0,0.00060461,6041.9,0.0002004,9.9285,0.00019894,-1.0173,-0.00060446,-6037.5,0.0091888
18509,1.2943,5.7273,0,0.000599,5985.9,0.00020379,3.6287,0.0001876,-118.02,-0.00060085,-6042.1,0.0074212
18510,1.2019,5.8182,0,0.00060645,6060.3,0.00020342,28.135,0.00019713,-19.165,-0.00060628,-6055.7,0.0059879
18511,1.2943,5.8182,0.05,4.9165e-06,49.131,3.7753e-06,28.366,-8.0079e-22,-6.0169e-15,-3.7753e-06,-28.366,0.0070538
18512,1.2943,5.9091,0,0.00060433,6039.2,0.00020111,20.058,0.00019842,-0.18287,-0.00060399,-6029.2,0.0067273
18513,1.2943,5.5455,0,0.00058413,5837.3,0.00020963,1.3595,0.00016375,-343.37,-0.00058919,-6000.7,0.0080056
18514,1.2019,5.6364,0,0.00058844,5880.3,0.00020627,1.8869,0.00017364,-243.28,-0.00059216,-5997.2,0.0065831
18515,1.2943,5.6364,0.05,3.4401e-06,34.377,2.6416e-06,19.848,-5.6031e-22,-4.21e-15,-2.6416e-06,-19.848,0.0076924
18516,1.2943,5.3636,0,0.00057265,5722.5,0.00021628,0.74929,0.00014112,-564,-0.00058013,-5983.2,0.0084946
18517,1.2019,5.4545,0,0.00057547,5750.7,0.00021336,0.45436,0.00014902,-482.99,-0.00058215,-5976.7,0.007078
18518,1.2943,5.4545,0.05,3.6005e-06,35.98,2.7647e-06,20.773,-5.8644e-22,-4.4063e-15,-2.7647e-06,-20.773,0.0082278
18519,1.2943,5.1818,0,0.00056365,5632.6,0.00022319,0.5914,0.00011976,-776.49,-0.00057282,-5980.3,0.0089019
18520,1.2019,5.2727,0,0.00056541,5650.2,0.00022099,0.19429,0.00012552,-717.16,-0.00057418,-5974.4,0.0074872
18521,1.2943,5.2727,0.05,3.6123e-06,36.098,2.7738e-06,20.841,2.5289e-14,-2.1214e-07,-2.7738e-06,-20.841,0.0086744
18522,1.2943,5,0,0.00055722,5568.3,0.00022998,0.47271,0.00010047,-972.65,-0.00056734,-5990.3,0.0092401
18523,1.2019,5.0909,0,0.00055837,5579.8,0.00022861,-0.027091,0.00010421,-934.72,-0.00056836,-5988.1,0.0078244
18524,1.2943,5.0909,0.05,3.5536e-06,35.512,2.7288e-06,20.503,-5.7881e-22,-4.3489e-15,-2.7288e-06,-20.503,0.0090454
18525,1.2943,4.8182,0,0.00055317,5527.8,0.00023642,0.41292,8.3708e-05,-1147,-0.00056366,-6011.1,0.0095202
18526,1.2019,4.9091,0,0.00055418,5537.9,0.00023587,-0.13589,8.5769e-05,-1128,-0.00056468,-6015.2,0.0081018
18527,1.2943,4.9091,0.05,3.4764e-06,34.74,2.6694e-06,20.057,1.912e-13,-4.2544e-15,-2.6694e-06,-20.057,0.0093529
18528,1.2943,4.6364,0,0.0005511,5507.2,0.00024234,0.37987,6.96e-05,-1297.5,-0.00056156,-6039.8,0.0097516
18529,1.2019,4.7273,0,0.00055234,5519.6,0.00024256,-0.203,7.037e-05,-1293.9,-0.00056286,-6051.8,0.0083298
18530,1.2943,4.7273,0.05,3.4147e-06,34.124,2.6221e-06,19.701,-5.5619e-22,7.279e-06,-2.6221e-06,-19.701,0.0096072
18531,1.2943,4.4545,0,0.00055052,5501.4,0.00024763,0.36447,5.8011e-05,-1424.3,-0.00056072,-6073.2,0.0099422
18532,1.2019,4.5455,0,0.00055225,5518.7,0.00024854,-0.24018,5.7843e-05,-1433.1,-0.00056249,-6094,0.0085167
18533,1.2943,4.5455,0.05,3.381e-06,33.787,2.5962e-06,19.507,-3.6658e-12,-4.1377e-15,-2.5962e-06,-19.507,0.0098169
18534,1.2943,4.2727,0,0.00055096,5505.8,0.00025226,0.35805,4.8676e-05,-1529.3,-0.00056078,-6108.5,0.010098
18535,1.2019,4.3636,0,0.0005533,5529.2,0.00025378,-0.26206,4.7845e-05,-1547.6,-0.00056314,-6138.3,0.0086695
18536,1.2943,4.3636,0.05,3.3728e-06,33.705,2.5899e-06,19.459,1.1647e-12,-4.1276e-15,-2.5899e-06,-19.459,0.0099891
18537,1.2943,4.0909,0,0.000552,5516.2,0.00025621,0.35618,4.1285e-05,-1614.5,-0.00056142,-6143,0.010225
18538,1.2019,4.1818,0,0.00055501,5546.2,0.00025828,-0.27522,3.9986e-05,-1640.4,-0.00056441,-6181.6,0.0087936
18539,1.2943,4.1818,0.05,3.3819e-06,33.796,2.5969e-06,19.512,3.9863e-13,-1.5831e-05,-2.5969e-06,-19.512,0.01013
18540,1.2943,3.9091,0,0.00055332,5529.3,0.00025951,0.35628,3.5538e-05,-1682.5,-0.00056237,-6174.9,0.010326
18541,1.2019,4,0,0.00055697,5565.9,0.00026205,-0.28368,3.3896e-05,-1714.5,-0.00056597,-6221.7,0.0088934
18542,1.2943,4,0.05,3.4e-06,33.976,2.6107e-06,19.616,-1.9282e-13,-1.2624e-05,-2.6107e-06,-19.616,0.010243
18543,1.2943,3.7273,0,0.00055466,5542.8,0.00026216,0.35705,3.1177e-05,-1735.2,-0.00056339,-6202.5,0.010405
18544,1.2019,3.8182,0,0.00055893,5585.4,0.00026512,-0.28942,2.9261e-05,-1772.4,-0.00056757,-6256.8,0.0089721
18545,1.2943,3.8182,0.05,3.4206e-06,34.182,2.6266e-06,19.735,-9.8202e-14,-4.2263e-06,-2.6266e-06,-19.735,0.010332
18546,1.2943,3.5455,0,0.00055586,5554.8,0.0002642,0.35789,2.7993e-05,-1774.4,-0.00056434,-6225,0.010465
18547,1.2019,3.6364,0,0.00056068,5602.9,0.00026753,-0.29346,2.5829e-05,-1816.3,-0.00056904,-6285.9,0.0090323
18548,1.2943,3.6364,0.05,3.4398e-06,34.374,2.6413e-06,19.846,9.628e-13,-1.9295e-06,-2.6413e-06,-19.846,0.010401
18549,1.2943,3.3636,0,0.0005568,5564.2,0.00026563,0.35857,2.5827e-05,-1801.5,-0.0005651,-6241.4,0.010506
18550,1.2019,3.4545,0,0.00056208,5616.9,0.00026931,-0.29626,2.3411e-05,-1847.9,-0.00057023,-6308.3,0.009076
18551,1.2943,3.4545,0.05,3.4553e-06,34.529,2.6532e-06,19.935,8.1861e-13,-1.3497e-05,-2.6532e-06,-19.935,0.010451
18552,1.2943,3.1818,0,0.00055739,5570,0.00026649,0.35898,2.457e-05,-1817.3,-0.00056558,-6251.5,0.01053
18553,1.2019,3.2727,0,0.00056306,5626.7,0.00027048,-0.29805,2.187e-05,-1868.3,-0.00057107,-6323.4,0.0091043
18554,1.2943,3.2727,0.05,3.466e-06,34.636,2.6615e-06,19.997,9.9265e-13,1.3678e-07,-2.6615e-06,-19.997,0.010483
18555,1.2943,3,0,0.00055759,5572.1,0.00026677,0.35912,2.4158e-05,-1822.6,-0.00056574,-6254.8,0.010538
18556,1.2019,3.0909,0,0.00056356,5631.7,0.00027106,-0.29893,2.1121e-05,-1878.3,-0.0005715,-6331,0.0091183
18557,1.2943,3.0909,0.05,3.4715e-06,34.691,2.6656e-06,20.029,1.1741e-12,-1.5037e-05,-2.6656e-06,-20.029,0.010499
18558,1.2943,2.8182,0,0.00055739,5570,0.00026649,0.35898,2.457e-05,-1817.3,-0.00056558,-6251.5,0.01053
18559,1.2019,2.9091,0,0.00056356,5631.7,0.00027106,-0.29893,2.1121e-05,-1878.3,-0.0005715,-6331,0.0091183
18560,1.2943,2.9091,0.05,3.4715e-06,34.691,2.6656e-06,20.029,1.0951e-12,-3.6084e-07,-2.6656e-06,-20.029,0.010499
18561,1.2943,2.6364,0,0.0005568,5564.2,0.00026563,0.35857,2.5827e-05,-1801.5,-0.0005651,-6241.4,0.010506
18562,1.2019,2.7273,0,0.00056306,5626.7,0.00027048,-0.29805,2.187e-05,-1868.3,-0.00057107,-6323.4,0.0091043
18563,1.2943,2.7273,0.05,3.466e-06,34.636,2.6615e-06,19.997,1.009e-12,-1.6517e-05,-2.6615e-06,-19.997,0.010483
18564,1.2943,2.4545,0,0.00055586,5554.8,0.0002642,0.35789,2.7993e-05,-1774.4,-0.00056434,-6225,0.010465
18565,1.2019,2.5455,0,0.00056208,5616.9,0.00026931,-0.29626,2.3411e-05,-1847.9,-0.00057023,-6308.3,0.009076
18566,1.2943,2.5455,0.05,3.4553e-06,34.529,2.6532e-06,19.935,8.6964e-13,-3.1393e-06,-2.6532e-06,-19.935,0.010451
18567,1.2943,2.2727,0,0.00055466,5542.8,0.00026216,0.35705,3.1177e-05,-1735.2,-0.00056339,-6202.5,0.010405
18568,1.2019,2.3636,0,0.00056068,5602.9,0.00026753,-0.29346,2.5829e-05,-1816.3,-0.00056904,-6285.9,0.0090323
18569,1.2943,2.3636,0.05,3.4398e-06,34.374,2.6413e-06,19.846,1.8028e-13,-5.6006e-06,-2.6413e-06,-19.846,0.010401
18570,1.2943,2.0909,0,0.00055332,5529.3,0.00025951,0.35628,3.5538e-05,-1682.5,-0.00056237,-6174.9,0.010326
18571,1.2019,2.1818,0,0.00055893,5585.4,0.00026512,-0.28942,2.9261e-05,-1772.4,-0.00056757,-6256.8,0.0089721
18572,1.2943,2.1818,0.05,3.4206e-06,34.182,2.6266e-06,19.735,2.4653e-13,-2.2573e-05,-2.6266e-06,-19.735,0.010332
18573,1.2943,1.9091,0,0.000552,5516.2,0.00025621,0.35618,4.1285e-05,-1614.5,-0.00056142,-6143,0.010225
18574,1.2019,2,0,0.00055697,5565.9,0.00026205,-0.28368,3.3896e-05,-1714.5,-0.00056597,-6221.7,0.0088934
18575,1.2943,2,0.05,3.4e-06,33.976,2.6107e-06,19.616,1.2971e-13,-1.3425e-05,-2.6107e-06,-19.616,0.010243
18576,1.2943,1.7273,0,0.00055096,5505.8,0.00025226,0.35805,4.8676e-05,-1529.3,-0.00056078,-6108.5,0.010098
18577,1.2019,1.8182,0,0.00055501,5546.2,0.00025828,-0.27522,3.9986e-05,-1640.4,-0.00056441,-6181.6,0.0087936
18578,1.2943,1.8182,0.05,3.3819e-06,33.796,2.5969e-06,19.512,5.4992e-13,-3.3439e-06,-2.5969e-06,-19.512,0.01013
18579,1.2943,1.5455,0,0.00055052,5501.4,0.00024763,0.36447,5.8011e-05,-1424.3,-0.00056072,-6073.2,0.0099422
18580,1.2019,1.6364,0,0.0005533,5529.2,0.00025378,-0.26206,4.7845e-05,-1547.6,-0.00056314,-6138.3,0.0086695
18581,1.2943,1.6364,0.05,3.3728e-06,33.705,2.5899e-06,19.459,-6.1164e-13,-6.2192e-05,-2.5899e-06,-19.459,0.0099891
18582,1.2943,1.3636,0,0.0005511,5507.2,0.00024234,0.37987,6.96e-05,-1297.5,-0.00056156,-6039.8,0.0097516
18583,1.2019,1.4545,0,0.00055225,5518.7,0.00024854,-0.24018,5.7843e-05,-1433.1,-0.00056249,-6094,0.0085167
18584,1.2943,1.4545,0.05,3.381e-06,33.787,2.5962e-06,19.507,-3.6728e-12,-6.5317e-05,-2.5962e-06,-19.507,0.0098169
18585,1.2943,1.1818,0,0.00055317,5527.8,0.00023642,0.41292,8.3708e-05,-1147,-0.00056366,-6011.1,0.0095202
18586,1.2019,1.2727,0,0.00055234,5519.6,0.00024256,-0.203,7.037e-05,-1293.9,-0.00056286,-6051.8,0.0083298
18587,1.2943,1.2727,0.05,3.4147e-06,34.124,2.6221e-06,19.701,-7.7991e-13,-6.4906e-05,-2.6221e-06,-19.701,0.0096072
18588,1.2943,1,0,0.00055722,5568.3,0.00022998,0.47271,0.00010047,-972.65,-0.00056734,-5990.3,0.0092401
18589,1.2019,1.0909,0,0.00055418,5537.9,0.00023587,-0.13589,8.5769e-05,-1128,-0.00056468,-6015.2,0.0081018
18590,1.2943,1.0909,0.05,3.4764e-06,34.74,2.6694e-06,20.057,-1.1469e-11,-5.7629e-05,-2.6694e-06,-20.057,0.0093529
18591,1.2943,0.81818,0,0.00056365,5632.6,0.00022319,0.5914,0.00011976,-776.49,-0.00057282,-5980.3,0.0089019
18592,1.2019,0.90909,0,0.00055837,5579.8,0.00022861,-0.027091,0.00010421,-934.72,-0.00056836,-5988.1,0.0078244
18593,1.2943,0.90909,0.05,3.5536e-06,35.512,2.7288e-06,20.503,-6.2074e-12,-5.2817e-06,-2.7288e-06,-20.503,0.0090454
18594,1.2943,0.63636,0,0.00057265,5722.5,0.00021628,0.74929,0.00014112,-564,-0.00058013,-5983.2,0.0084946
18595,1.2019,0.72727,0,0.00056541,5650.2,0.00022099,0.19429,0.00012552,-717.16,-0.00057418,-5974.4,0.0074872
18596,1.2943,0.72727,0.05,3.6123e-06,36.098,2.7738e-06,20.841,-2.232e-13,-2.5088e-06,-2.7738e-06,-20.841,0.0086744
18597,1.2943,0.45455,0,0.00058413,5837.3,0.00020963,1.3595,0.00016375,-343.37,-0.00058919,-6000.7,0.0080056
18598,1.2019,0.54545,0,0.00057547,5750.7,0.00021336,0.45436,0.00014902,-482.99,-0.00058215,-5976.7,0.007078
18599,1.2943,0.54545,0.05,3.6005e-06,35.98,2.7648e-06,20.773,-7.451e-12,-0.00024385,-2.7647e-06,-20.773,0.0082278
18600,1.2943,0.27273,0,0.000599,5985.9,0.00020379,3.6287,0.0001876,-118.02,-0.00060085,-6042.1,0.0074212
18601,1.2019,0.36364,0,0.00058844,5880.3,0.00020627,1.8869,0.00017364,-243.28,-0.00059216,-5997.2,0.0065831
18602,1.2943,0.36364,0.05,3.4401e-06,34.377,2.6416e-06,19.848,-7.2752e-12,-6.0875e-05,-2.6416e-06,-19.848,0.0076924
18603,1.2019,0.18182,0,0.00060645,6060.3,0.00020342,28.135,0.00019713,-19.165,-0.00060628,-6055.7,0.0059879
18604,1.2943,0.18182,0.05,4.9165e-06,49.131,3.7753e-06,28.366,-9.5397e-13,-1.1048e-06,-3.7753e-06,-28.366,0.0070538
18605,1.2943,0.090909,0,0.00060433,6039.2,0.00020111,20.058,0.00019842,-0.18287,-0.00060399,-6029.2,0.0067273
18606,1.1094,5.7273,0,0.00059575,5953.4,0.00020292,3.9667,0.00018622,-121.53,-0.00059765,-6011.2,0.0052753
18607,1.017,5.8182,0,0.00060193,6015.2,0.00020301,42.898,0.00019517,-15.986,-0.00060145,-6001.5,0.0040837
18608,1.1094,5.8182,0.05,5.0368e-06,50.334,3.8677e-06,29.06,-2.6161e-21,-6.1641e-15,-3.8677e-06,-29.06,0.004952
18609,1.1094,5.9091,0,0.00060085,6004.4,0.00020107,33.349,0.00019663,-0.0015977,-0.00060028,-5987.7,0.0046693
18610,1.1094,5.5455,0,0.00057965,5792.5,0.00020996,0.72224,0.000159,-382.14,-0.00058519,-5973.7,0.0057756
18611,1.017,5.6364,0,0.00058199,5815.9,0.00020549,3.3121,0.00016927,-268.8,-0.00058603,-5943.8,0.0045891
18612,1.1094,5.6364,0.05,4.0968e-06,40.94,3.1458e-06,23.637,-6.6728e-22,-5.0137e-15,-3.1458e-06,-23.637,0.0055045
18613,1.1094,5.3636,0,0.00056808,5676.8,0.00021807,-0.16414,0.00013346,-635.89,-0.00057622,-5968.1,0.0061859
18614,1.017,5.4545,0,0.00056871,5683.2,0.00021438,2.0025,0.00014104,-549.04,-0.00057601,-5936.6,0.0049997
18615,1.1094,5.4545,0.05,4.2512e-06,42.483,3.2644e-06,24.527,-6.9243e-22,-5.2026e-15,-3.2644e-06,-24.527,0.0059582
18616,1.1094,5.1818,0,0.00055996,5595.7,0.00022641,-0.45189,0.00010995,-875.5,-0.0005697,-5982.2,0.0065211
18617,1.017,5.2727,0,0.00055961,5592.2,0.00022381,1.8584,0.00011481,-817.18,-0.00056896,-5954.7,0.0053316
18618,1.1094,5.2727,0.05,4.1708e-06,41.679,3.2027e-06,24.064,-6.7933e-22,-6.0305e-05,-3.2027e-06,-24.064,0.006329
18619,1.1094,5,0,0.00055518,5548,0.0002345,-0.6507,8.9461e-05,-1090.4,-0.00056565,-6012.6,0.0067944
18620,1.017,5.0909,0,0.00055459,5542.1,0.00023303,1.7182,9.2009e-05,-1057.9,-0.0005649,-5993.6,0.0055994
18621,1.1094,5.0909,0.05,4.0189e-06,40.161,3.086e-06,23.187,-6.5459e-22,-4.9184e-15,-3.086e-06,-23.187,0.0066313
18622,1.1094,4.8182,0,0.00055324,5528.6,0.000242,-0.76072,7.2364e-05,-1275.4,-0.00056381,-6055.3,0.0070173
18623,1.017,4.9091,0,0.00055302,5526.4,0.0002416,1.6776,7.3209e-05,-1263.6,-0.00056351,-6047.6,0.0058158
18624,1.1094,4.9091,0.05,3.8767e-06,38.74,2.9768e-06,22.367,-5.7447e-12,-4.7443e-15,-2.9768e-06,-22.367,0.0068776
18625,1.1094,4.6364,0,0.00055342,5530.4,0.00024876,-0.82857,5.8544e-05,-1430.1,-0.00056372,-6105.5,0.0071991
18626,1.017,4.7273,0,0.00055396,5535.8,0.0002493,1.6639,5.8246e-05,-1433.8,-0.00056417,-6110.4,0.0059908
18627,1.1094,4.7273,0.05,3.7811e-06,37.785,2.9034e-06,21.815,1.6769e-13,-4.6274e-15,-2.9034e-06,-21.815,0.0070783
18628,1.1094,4.4545,0,0.00055498,5546,0.0002547,-0.87021,4.7614e-05,-1556.8,-0.00056485,-6158.6,0.0073471
18629,1.017,4.5455,0,0.00055646,5560.8,0.00025604,1.6674,4.6597e-05,-1572,-0.00056621,-6176.4,0.0061324
18630,1.1094,4.5455,0.05,3.7336e-06,37.311,2.867e-06,21.541,2.3927e-13,-4.5692e-15,-2.867e-06,-21.541,0.0072419
18631,1.1094,4.2727,0,0.00055732,5569.3,0.00025981,-0.89762,3.91e-05,-1659.2,-0.00056671,-6211,0.0074671
18632,1.017,4.3636,0,0.00055978,5594,0.00026183,1.6757,3.7651e-05,-1682.7,-0.00056901,-6240.9,0.006247
18633,1.1094,4.3636,0.05,3.7204e-06,37.179,2.8568e-06,21.465,9.0291e-13,-1.3421e-05,-2.8568e-06,-21.465,0.0073748
18634,1.1094,4.0909,0,0.00055996,5595.7,0.00026411,-0.91663,3.255e-05,-1740.8,-0.00056891,-6259.9,0.0075639
18635,1.017,4.1818,0,0.00056337,5629.8,0.00026671,1.6846,3.0844e-05,-1770.5,-0.00057212,-6301,0.0063393
18636,1.1094,4.1818,0.05,3.7264e-06,37.238,2.8614e-06,21.499,1.0827e-12,3.2164e-06,-2.8614e-06,-21.499,0.0074822
18637,1.1094,3.9091,0,0.00056257,5621.9,0.00026766,-0.93047,2.7578e-05,-1804.8,-0.00057114,-6303.3,0.0076407
18638,1.017,4,0,0.00056684,5664.5,0.00027075,1.6925,2.571e-05,-1839.5,-0.00057519,-6354.4,0.0064129
18639,1.1094,4,0.05,3.7403e-06,37.377,2.8721e-06,21.58,-1.6811e-12,-1.2952e-05,-2.8721e-06,-21.58,0.0075683
18640,1.1094,3.7273,0,0.00056493,5645.4,0.00027049,-0.94073,2.3877e-05,-1853.9,-0.00057318,-6340,0.0077004
18641,1.017,3.8182,0,0.00056997,5695.7,0.00027401,1.6986,2.1885e-05,-1892.7,-0.00057798,-6399.8,0.0064707
18642,1.1094,3.8182,0.05,3.7557e-06,37.531,2.8839e-06,21.669,5.4204e-13,-1.2724e-05,-2.8839e-06,-21.669,0.007636
18643,1.1094,3.5455,0,0.00056688,5664.9,0.00027264,-0.94824,2.1215e-05,-1890.1,-0.0005749,-6369,0.007745
18644,1.017,3.6364,0,0.00057258,5721.9,0.00027655,1.7032,1.9101e-05,-1932.6,-0.00058034,-6436.6,0.0065147
18645,1.1094,3.6364,0.05,3.7693e-06,37.667,2.8944e-06,21.747,2.4962e-13,-1.2745e-05,-2.8944e-06,-21.747,0.0076876
18646,1.1094,3.3636,0,0.00056833,5679.4,0.00027416,-0.95341,1.9424e-05,-1914.9,-0.00057618,-6390.1,0.0077758
18647,1.017,3.4545,0,0.00057461,5742.1,0.00027841,1.7064,1.7164e-05,-1961.2,-0.00058218,-6464.4,0.0065465
18648,1.1094,3.4545,0.05,3.7798e-06,37.772,2.9024e-06,21.807,6.2187e-13,-3.196e-05,-2.9024e-06,-21.807,0.007725
18649,1.1094,3.1818,0,0.00056922,5688.3,0.00027506,-0.95644,1.8391e-05,-1929.4,-0.00057697,-6402.8,0.0077939
18650,1.017,3.2727,0,0.00057598,5755.8,0.00027963,1.7084,1.594e-05,-1979.5,-0.00058344,-6483,0.0065671
18651,1.1094,3.2727,0.05,3.7867e-06,37.841,2.9077e-06,21.847,6.3177e-13,-1.495e-05,-2.9077e-06,-21.847,0.0077493
18652,1.1094,3,0,0.00056952,5691.3,0.00027535,-0.95744,1.8054e-05,-1934.2,-0.00057724,-6407,0.0077999
18653,1.017,3.0909,0,0.00057667,5762.7,0.00028023,1.7093,1.5348e-05,-1988.5,-0.00058407,-6492.3,0.0065772
18654,1.1094,3.0909,0.05,3.7901e-06,37.875,2.9103e-06,21.867,9.4053e-13,1.1909e-07,-2.9103e-06,-21.867,0.0077612
18655,1.1094,2.8182,0,0.00056922,5688.3,0.00027506,-0.95644,1.8391e-05,-1929.4,-0.00057697,-6402.8,0.0077939
18656,1.017,2.9091,0,0.00057667,5762.7,0.00028023,1.7093,1.5348e-05,-1988.5,-0.00058407,-6492.3,0.0065772
18657,1.1094,2.9091,0.05,3.7901e-06,37.875,2.9103e-06,21.867,8.6783e-13,-3.4207e-07,-2.9103e-06,-21.867,0.0077612
18658,1.1094,2.6364,0,0.00056833,5679.4,0.00027416,-0.95341,1.9424e-05,-1914.9,-0.00057618,-6390.1,0.0077758
18659,1.017,2.7273,0,0.00057598,5755.8,0.00027963,1.7084,1.594e-05,-1979.5,-0.00058344,-6483,0.0065671
18660,1.1094,2.7273,0.05,3.7867e-06,37.841,2.9077e-06,21.847,8.9007e-13,-7.1727e-07,-2.9077e-06,-21.847,0.0077493
18661,1.1094,2.4545,0,0.00056688,5664.9,0.00027264,-0.94824,2.1215e-05,-1890.1,-0.0005749,-6369,0.007745
18662,1.017,2.5455,0,0.00057461,5742.1,0.00027841,1.7064,1.7164e-05,-1961.2,-0.00058218,-6464.4,0.0065465
18663,1.1094,2.5455,0.05,3.7798e-06,37.772,2.9024e-06,21.807,7.0562e-13,-1.7638e-05,-2.9024e-06,-21.807,0.007725
18664,1.1094,2.2727,0,0.00056493,5645.4,0.00027049,-0.94073,2.3877e-05,-1853.9,-0.00057318,-6340,0.0077004
18665,1.017,2.3636,0,0.00057258,5721.9,0.00027655,1.7032,1.9101e-05,-1932.6,-0.00058034,-6436.6,0.0065147
18666,1.1094,2.3636,0.05,3.7693e-06,37.667,2.8944e-06,21.747,-3.1477e-13,-2.5606e-06,-2.8944e-06,-21.747,0.0076876
18667,1.1094,2.0909,0,0.00056257,5621.9,0.00026766,-0.93047,2.7578e-05,-1804.8,-0.00057114,-6303.3,0.0076407
18668,1.017,2.1818,0,0.00056997,5695.7,0.00027401,1.6986,2.1885e-05,-1892.7,-0.00057798,-6399.8,0.0064707
18669,1.1094,2.1818,0.05,3.7557e-06,37.531,2.8839e-06,21.669,-1.7807e-13,-1.014e-05,-2.8839e-06,-21.669,0.007636
18670,1.1094,1.9091,0,0.00055996,5595.7,0.00026411,-0.91663,3.255e-05,-1740.8,-0.00056891,-6259.9,0.0075639
18671,1.017,2,0,0.00056684,5664.5,0.00027075,1.6925,2.571e-05,-1839.5,-0.00057519,-6354.4,0.0064129
18672,1.1094,2,0.05,3.7403e-06,37.377,2.8721e-06,21.58,3.7359e-13,-3.0378e-05,-2.8721e-06,-21.58,0.0075683
18673,1.1094,1.7273,0,0.00055732,5569.3,0.00025981,-0.89762,3.91e-05,-1659.2,-0.00056671,-6211,0.0074671
18674,1.017,1.8182,0,0.00056337,5629.8,0.00026671,1.6846,3.0844e-05,-1770.5,-0.00057212,-6301,0.0063393
18675,1.1094,1.8182,0.05,3.7264e-06,37.238,2.8614e-06,21.499,-5.4969e-12,-1.7326e-05,-2.8614e-06,-21.499,0.0074822
18676,1.1094,1.5455,0,0.00055498,5546,0.0002547,-0.87021,4.7614e-05,-1556.8,-0.00056485,-6158.6,0.0073471
18677,1.017,1.6364,0,0.00055978,5594,0.00026183,1.6757,3.7651e-05,-1682.7,-0.00056901,-6240.9,0.006247
18678,1.1094,1.6364,0.05,3.7204e-06,37.179,2.8568e-06,21.465,-4.1473e-12,-1.3708e-05,-2.8568e-06,-21.465,0.0073748
18679,1.1094,1.3636,0,0.00055342,5530.4,0.00024876,-0.82857,5.8544e-05,-1430.1,-0.00056372,-6105.5,0.0071991
18680,1.017,1.4545,0,0.00055646,5560.8,0.00025604,1.6674,4.6597e-05,-1572,-0.00056621,-6176.4,0.0061324
18681,1.1094,1.4545,0.05,3.7336e-06,37.311,2.867e-06,21.541,1.1963e-12,-4.5692e-15,-2.867e-06,-21.541,0.0072419
18682,1.1094,1.1818,0,0.00055324,5528.6,0.000242,-0.76072,7.2364e-05,-1275.4,-0.00056381,-6055.3,0.0070173
18683,1.017,1.2727,0,0.00055396,5535.8,0.0002493,1.6639,5.8246e-05,-1433.8,-0.00056417,-6110.4,0.0059908
18684,1.1094,1.2727,0.05,3.7811e-06,37.785,2.9034e-06,21.815,-2.0685e-13,-5.6267e-06,-2.9034e-06,-21.815,0.0070783
18685,1.1094,1,0,0.00055518,5548,0.0002345,-0.6507,8.9461e-05,-1090.4,-0.00056565,-6012.6,0.0067944
18686,1.017,1.0909,0,0.00055302,5526.4,0.0002416,1.6776,7.3209e-05,-1263.6,-0.00056351,-6047.6,0.0058158
18687,1.1094,1.0909,0.05,3.8767e-06,38.74,2.9768e-06,22.367,-1.259e-11,-5.7621e-05,-2.9768e-06,-22.367,0.0068776
18688,1.1094,0.81818,0,0.00055996,5595.7,0.00022641,-0.45189,0.00010995,-875.49,-0.0005697,-5982.2,0.0065211
18689,1.017,0.90909,0,0.00055459,5542.1,0.00023303,1.7182,9.2009e-05,-1057.9,-0.0005649,-5993.6,0.0055994
18690,1.1094,0.90909,0.05,4.0189e-06,40.161,3.086e-06,23.187,-7.7652e-13,-0.00011617,-3.086e-06,-23.187,0.0066313
18691,1.1094,0.63636,0,0.00056808,5676.8,0.00021807,-0.16414,0.00013346,-635.89,-0.00057622,-5968.1,0.0061859
18692,1.017,0.72727,0,0.00055961,5592.2,0.00022381,1.8584,0.00011481,-817.18,-0.00056896,-5954.7,0.0053316
18693,1.1094,0.72727,0.05,4.1708e-06,41.679,3.2027e-06,24.064,-1.4334e-11,-0.00012236,-3.2027e-06,-24.064,0.006329
18694,1.1094,0.45455,0,0.00057965,5792.5,0.00020996,0.72224,0.000159,-382.14,-0.00058519,-5973.7,0.0057756
18695,1.017,0.54545,0,0.00056871,5683.2,0.00021438,2.0025,0.00014104,-549.04,-0.00057601,-5936.6,0.0049997
18696,1.1094,0.54545,0.05,4.2512e-06,42.483,3.2644e-06,24.527,1.1932e-14,-0.00018253,-3.2644e-06,-24.527,0.0059582
18697,1.1094,0.27273,0,0.00059575,5953.4,0.00020292,3.9667,0.00018622,-121.53,-0.00059765,-6011.2,0.0052753
18698,1.017,0.36364,0,0.00058199,5815.9,0.00020549,3.3121,0.00016927,-268.8,-0.00058603,-5943.8,0.0045891
18699,1.1094,0.36364,0.05,4.0968e-06,40.94,3.1458e-06,23.637,-1.4174e-11,-5.0137e-15,-3.1458e-06,-23.637,0.0055045
18700,1.017,0.18182,0,0.00060193,6015.2,0.00020301,42.898,0.00019517,-15.986,-0.00060145,-6001.5,0.0040837
18701,1.1094,0.18182,0.05,5.0368e-06,50.334,3.8677e-06,29.06,-6.8559e-12,-3.2342e-05,-3.8677e-06,-29.06,0.004952
18702,1.1094,0.090909,0,0.00060085,6004.4,0.00020107,33.349,0.00019663,-0.0015942,-0.00060028,-5987.7,0.0046693
18703,0.92453,5.7273,0,0.00058796,5875.5,0.0002009,7.047,0.00018298,-127.54,-0.00058989,-5934.6,0.00352
18704,0.83208,5.8182,0,0.00059136,5909.6,0.00020105,61.065,0.00019074,-16.404,-0.00059057,-5886.8,0.00257
18705,0.92453,5.8182,0.05,5.1596e-06,51.561,3.962e-06,29.769,-8.4039e-22,-6.3144e-15,-3.962e-06,-29.769,0.003245
18706,0.92453,5.9091,0,0.0005926,5921.9,0.00019977,51.041,0.00019311,1.0326,-0.0005917,-5895.7,0.0030099
18707,0.92453,5.5455,0,0.00057085,5704.6,0.00020986,4.2602,0.00015141,-434.91,-0.00057691,-5907.2,0.0039302
18708,0.83208,5.6364,0,0.00056923,5688.4,0.00020298,-0.40261,0.00016172,-310.4,-0.00057389,-5837.5,0.0029786
18709,0.92453,5.6364,0.05,5.1089e-06,51.054,3.923e-06,29.476,-8.3213e-22,-6.2523e-15,-3.923e-06,-29.476,0.0037042
18710,0.92453,5.3636,0,0.00056001,5596.3,0.00022011,3.9441,0.00012239,-730.29,-0.00056874,-5923.2,0.0042575
18711,0.83208,5.4545,0,0.00055641,5560.2,0.00021441,-3.3329,0.00012889,-645.84,-0.00056466,-5856.9,0.0033002
18712,0.92453,5.4545,0.05,5.1642e-06,51.607,3.9655e-06,29.795,-8.4114e-22,-6.0079e-05,-3.9655e-06,-29.795,0.004071
18713,0.92453,5.1818,0,0.00055402,5536.4,0.00023043,3.9932,9.6801e-05,-1000,-0.00056409,-5965.7,0.0045183
18714,0.83208,5.2727,0,0.00054983,5494.5,0.00022629,-4.2116,9.9916e-05,-953.74,-0.00055993,-5911.6,0.0035524
18715,0.92453,5.2727,0.05,4.8905e-06,48.871,3.7553e-06,28.216,-7.9656e-22,-1.1685e-06,-3.7553e-06,-28.216,0.0043627
18716,0.92453,5,0,0.00055226,5518.8,0.00024014,4.0279,7.5665e-05,-1231.8,-0.00056267,-6027.9,0.0047265
18717,0.83208,5.0909,0,0.00054861,5482.3,0.0002375,-4.8396,7.6376e-05,-1215.5,-0.00055924,-5991.3,0.0037507
18718,0.92453,5.0909,0.05,4.584e-06,45.809,3.52e-06,26.448,-7.4664e-22,-5.6099e-15,-3.52e-06,-26.448,0.0045949
18719,0.92453,4.8182,0,0.00055363,5532.5,0.0002489,4.0918,5.8998e-05,-1422.7,-0.00056378,-6102,0.0048931
18720,0.83208,4.9091,0,0.00055118,5508,0.00024756,-5.2067,5.8253e-05,-1427.6,-0.0005616,-6084.9,0.0039074
18721,0.92453,4.9091,0.05,4.3546e-06,43.516,3.3438e-06,25.124,-7.0927e-22,-5.3292e-15,-3.3438e-06,-25.124,0.0047803
18722,0.92453,4.6364,0,0.00055694,5565.6,0.00025658,4.1538,4.622e-05,-1576.4,-0.00056658,-6180.7,0.005027
18723,0.83208,4.7273,0,0.00055596,5555.8,0.00025631,-5.4581,4.4704e-05,-1595.4,-0.00056585,-6182.9,0.0040319
18724,0.92453,4.7273,0.05,4.2198e-06,42.168,3.2402e-06,24.346,-6.873e-22,-5.1641e-15,-3.2402e-06,-24.346,0.0049289
18725,0.92453,4.4545,0,0.00056123,5608.5,0.00026317,4.2096,3.6574e-05,-1698.3,-0.00057031,-6258.2,0.0051346
18726,0.83208,4.5455,0,0.00056172,5613.3,0.00026378,-5.6342,3.4706e-05,-1726.8,-0.00057102,-6278,0.0041313
18727,0.92453,4.5455,0.05,4.1547e-06,41.518,3.1903e-06,23.97,2.6144e-13,-5.0845e-15,-3.1903e-06,-23.97,0.0050483
18728,0.92453,4.2727,0,0.00056582,5654.3,0.00026873,4.2556,2.935e-05,-1794.4,-0.00057438,-6330.5,0.0052211
18729,0.83208,4.3636,0,0.00056764,5672.5,0.00027004,-5.7654,2.7361e-05,-1829.2,-0.00057642,-6365.8,0.0042107
18730,0.92453,4.3636,0.05,4.1291e-06,41.263,3.1707e-06,23.823,-2.1423e-12,-2.1532e-05,-3.1707e-06,-23.823,0.0051442
18731,0.92453,4.0909,0,0.00057024,5698.5,0.00027335,4.2923,2.3968e-05,-1869.5,-0.00057836,-6395.2,0.0052902
18732,0.83208,4.1818,0,0.00057325,5728.5,0.00027524,-5.8653,2.1966e-05,-1908.8,-0.00058159,-6443.7,0.0042742
18733,0.92453,4.1818,0.05,4.1219e-06,41.191,3.1651e-06,23.782,-1.2514e-12,-2.4281e-05,-3.1651e-06,-23.782,0.0052211
18734,0.92453,3.9091,0,0.00057423,5738.3,0.0002771,4.3205,1.9987e-05,-1927.6,-0.000582,-6450.7,0.0053448
18735,0.83208,4,0,0.00057825,5778.5,0.00027947,-5.9423,1.801e-05,-1970.5,-0.00058624,-6510.6,0.0043244
18736,0.92453,4,0.05,4.1213e-06,41.185,3.1647e-06,23.778,3.9694e-13,-1.3319e-05,-3.1647e-06,-23.778,0.0052822
18737,0.92453,3.7273,0,0.00057762,5772.2,0.00028007,4.3418,1.7083e-05,-1971.6,-0.00058512,-6496.3,0.005387
18738,0.83208,3.8182,0,0.0005825,5821,0.00028285,-6.0014,1.5127e-05,-2017.6,-0.00059023,-6566,0.0043636
18739,0.92453,3.8182,0.05,4.122e-06,41.192,3.1652e-06,23.782,-2.3479e-13,-1.3049e-05,-3.1652e-06,-23.782,0.00533
18740,0.92453,3.5455,0,0.0005803,5799,0.00028231,4.3572,1.5026e-05,-2003.9,-0.00058761,-6531.9,0.0054183
18741,0.83208,3.6364,0,0.00058593,5855.3,0.00028546,-6.0457,1.3064e-05,-2052.7,-0.00059347,-6610,0.0043934
18742,0.92453,3.6364,0.05,4.1223e-06,41.194,3.1654e-06,23.783,7.1407e-13,-4.5679e-06,-3.1654e-06,-23.784,0.0053664
18743,0.92453,3.3636,0,0.00058225,5818.5,0.00028388,4.3677,1.3656e-05,-2026,-0.00058942,-6557.2,0.00544
18744,0.83208,3.4545,0,0.00058851,5881.1,0.00028736,-6.0774,1.1645e-05,-2077.7,-0.00059591,-6642.6,0.0044148
18745,0.92453,3.4545,0.05,4.1218e-06,41.19,3.1651e-06,23.781,5.7607e-13,5.4927e-07,-3.165e-06,-23.781,0.0053926
18746,0.92453,3.1818,0,0.00058342,5830.2,0.0002848,4.3737,1.2873e-05,-2038.8,-0.00059051,-6572.4,0.0054527
18747,0.83208,3.2727,0,0.00059023,5898.3,0.0002886,-6.0978,1.0756e-05,-2093.7,-0.00059754,-6664.2,0.0044286
18748,0.92453,3.2727,0.05,4.1211e-06,41.183,3.1645e-06,23.777,6.4197e-13,-5.7203e-07,-3.1645e-06,-23.777,0.0054095
18749,0.92453,3,0,0.00058381,5834.1,0.00028511,4.3757,1.2618e-05,-2043,-0.00059088,-6577.5,0.0054569
18750,0.83208,3.0909,0,0.00059109,5906.8,0.00028922,-6.1078,1.0328e-05,-2101.6,-0.00059836,-6675,0.0044354
18751,0.92453,3.0909,0.05,4.1206e-06,41.178,3.1641e-06,23.774,6.9404e-13,-3.038e-05,-3.1641e-06,-23.774,0.0054179
18752,0.92453,2.8182,0,0.00058342,5830.2,0.0002848,4.3737,1.2873e-05,-2038.8,-0.00059051,-6572.4,0.0054527
18753,0.83208,2.9091,0,0.00059109,5906.8,0.00028922,-6.1078,1.0328e-05,-2101.6,-0.00059836,-6675,0.0044354
18754,0.92453,2.9091,0.05,4.1206e-06,41.178,3.1641e-06,23.774,7.5612e-13,-3.006e-07,-3.1641e-06,-23.774,0.0054179
18755,0.92453,2.6364,0,0.00058225,5818.5,0.00028388,4.3677,1.3656e-05,-2026,-0.00058942,-6557.2,0.00544
18756,0.83208,2.7273,0,0.00059023,5898.3,0.0002886,-6.0978,1.0756e-05,-2093.7,-0.00059754,-6664.2,0.0044286
18757,0.92453,2.7273,0.05,4.1211e-06,41.183,3.1645e-06,23.777,7.1223e-13,-1.7595e-05,-3.1645e-06,-23.777,0.0054095
18758,0.92453,2.4545,0,0.0005803,5799,0.00028231,4.3572,1.5026e-05,-2003.9,-0.00058761,-6531.9,0.0054183
18759,0.83208,2.5455,0,0.00058851,5881.1,0.00028736,-6.0774,1.1645e-05,-2077.7,-0.00059591,-6642.6,0.0044148
18760,0.92453,2.5455,0.05,4.1218e-06,41.19,3.165e-06,23.781,7.5927e-13,-4.7747e-05,-3.165e-06,-23.781,0.0053926
18761,0.92453,2.2727,0,0.00057762,5772.2,0.00028007,4.3418,1.7083e-05,-1971.6,-0.00058512,-6496.3,0.005387
18762,0.83208,2.3636,0,0.00058593,5855.3,0.00028546,-6.0457,1.3064e-05,-2052.7,-0.00059347,-6610,0.0043934
18763,0.92453,2.3636,0.05,4.1223e-06,41.194,3.1654e-06,23.783,1.7851e-13,-1.9607e-05,-3.1654e-06,-23.784,0.0053664
18764,0.92453,2.0909,0,0.00057423,5738.3,0.0002771,4.3205,1.9987e-05,-1927.6,-0.000582,-6450.7,0.0053448
18765,0.83208,2.1818,0,0.0005825,5821,0.00028285,-6.0014,1.5127e-05,-2017.6,-0.00059023,-6566,0.0043636
18766,0.92453,2.1818,0.05,4.122e-06,41.192,3.1652e-06,23.782,-2.1491e-13,-8.8384e-06,-3.1652e-06,-23.782,0.00533
18767,0.92453,1.9091,0,0.00057024,5698.5,0.00027335,4.2923,2.3968e-05,-1869.5,-0.00057836,-6395.2,0.0052902
18768,0.83208,2,0,0.00057825,5778.5,0.00027947,-5.9423,1.801e-05,-1970.5,-0.00058624,-6510.6,0.0043244
18769,0.92453,2,0.05,4.1213e-06,41.185,3.1647e-06,23.778,-6.4286e-13,-1.7131e-05,-3.1647e-06,-23.778,0.0052822
18770,0.92453,1.7273,0,0.00056582,5654.3,0.00026873,4.2556,2.935e-05,-1794.4,-0.00057438,-6330.5,0.0052211
18771,0.83208,1.8182,0,0.00057325,5728.5,0.00027524,-5.8653,2.1966e-05,-1908.8,-0.00058159,-6443.7,0.0042742
18772,0.92453,1.8182,0.05,4.1219e-06,41.191,3.1651e-06,23.782,-1.6032e-12,-3.6198e-05,-3.1651e-06,-23.782,0.0052211
18773,0.92453,1.5455,0,0.00056123,5608.5,0.00026317,4.2096,3.6574e-05,-1698.3,-0.00057031,-6258.2,0.0051346
18774,0.83208,1.6364,0,0.00056764,5672.5,0.00027004,-5.7654,2.7361e-05,-1829.2,-0.00057642,-6365.8,0.0042107
18775,0.92453,1.6364,0.05,4.1291e-06,41.263,3.1707e-06,23.823,-6.5477e-12,-6.4429e-05,-3.1707e-06,-23.823,0.0051442
18776,0.92453,1.3636,0,0.00055694,5565.6,0.00025658,4.1538,4.622e-05,-1576.4,-0.00056658,-6180.7,0.005027
18777,0.83208,1.4545,0,0.00056172,5613.3,0.00026378,-5.6342,3.4706e-05,-1726.8,-0.00057102,-6278,0.0041313
18778,0.92453,1.4545,0.05,4.1547e-06,41.518,3.1903e-06,23.97,-2.9463e-12,-4.1404e-05,-3.1903e-06,-23.97,0.0050483
18779,0.92453,1.1818,0,0.00055363,5532.5,0.0002489,4.0918,5.8998e-05,-1422.7,-0.00056378,-6102,0.0048931
18780,0.83208,1.2727,0,0.00055596,5555.8,0.00025631,-5.4581,4.4704e-05,-1595.4,-0.00056585,-6182.9,0.0040319
18781,0.92453,1.2727,0.05,4.2198e-06,42.168,3.2402e-06,24.346,-4.2381e-12,-4.9692e-05,-3.2402e-06,-24.346,0.0049289
18782,0.92453,1,0,0.00055226,5518.8,0.00024014,4.0279,7.5665e-05,-1231.8,-0.00056267,-6027.9,0.0047265
18783,0.83208,1.0909,0,0.00055118,5508,0.00024756,-5.2067,5.8253e-05,-1427.6,-0.0005616,-6084.9,0.0039074
18784,0.92453,1.0909,0.05,4.3546e-06,43.516,3.3438e-06,25.124,-6.6852e-12,-0.00010996,-3.3438e-06,-25.124,0.0047803
18785,0.92453,0.81818,0,0.00055402,5536.4,0.00023043,3.9932,9.6801e-05,-1000,-0.00056409,-5965.7,0.0045183
18786,0.83208,0.90909,0,0.00054861,5482.3,0.0002375,-4.8396,7.6376e-05,-1215.5,-0.00055924,-5991.3,0.0037507
18787,0.92453,0.90909,0.05,4.584e-06,45.809,3.52e-06,26.448,-7.5988e-12,-0.00016781,-3.52e-06,-26.448,0.0045949
18788,0.92453,0.63636,0,0.00056001,5596.3,0.00022011,3.9441,0.00012239,-730.29,-0.00056874,-5923.2,0.0042575
18789,0.83208,0.72727,0,0.00054983,5494.5,0.00022629,-4.2116,9.9916e-05,-953.74,-0.00055993,-5911.6,0.0035524
18790,0.92453,0.72727,0.05,4.8905e-06,48.871,3.7553e-06,28.216,-1.4731e-11,-5.985e-15,-3.7553e-06,-28.216,0.0043627
18791,0.92453,0.45455,0,0.00057085,5704.6,0.00020986,4.2602,0.00015141,-434.91,-0.00057691,-5907.2,0.0039302
18792,0.83208,0.54545,0,0.00055641,5560.2,0.00021441,-3.3329,0.00012889,-645.84,-0.00056466,-5856.9,0.0033002
18793,0.92453,0.54545,0.05,5.1642e-06,51.607,3.9655e-06,29.795,-1.3744e-11,-5.9942e-05,-3.9655e-06,-29.795,0.004071
18794,0.92453,0.27273,0,0.00058796,5875.5,0.0002009,7.047,0.00018298,-127.54,-0.00058989,-5934.6,0.00352
18795,0.83208,0.36364,0,0.00056923,5688.4,0.00020298,-0.4026,0.00016172,-310.4,-0.00057389,-5837.5,0.0029786
18796,0.92453,0.36364,0.05,5.1089e-06,51.054,3.923e-06,29.476,-5.6581e-12,-0.0001131,-3.923e-06,-29.476,0.0037042
18797,0.83208,0.18182,0,0.00059136,5909.6,0.00020105,61.065,0.00019074,-16.403,-0.00059057,-5886.8,0.00257
18798,0.92453,0.18182,0.05,5.1596e-06,51.561,3.962e-06,29.769,-4.54e-12,-0.00012802,-3.962e-06,-29.769,0.003245
18799,0.92453,0.090909,0,0.0005926,5921.9,0.00019977,51.041,0.00019311,1.0326,-0.0005917,-5895.7,0.0030099
18800,0.73962,5.7273,0,0.0005723,5719.1,0.00019605,0.3943,0.00017664,-145.5,-0.00057463,-5790.2,0.0021464
18801,0.64717,5.8182,0,0.00057127,5708.8,0.00019622,86.554,0.00018339,-9.7935,-0.0005699,-5669.8,0.0014349
18802,0.73962,5.8182,0.05,5.5541e-06,55.503,4.2649e-06,32.045,-9.0465e-22,-1.6179e-07,-4.2649e-06,-32.045,0.0019238
18803,0.73962,5.9091,0,0.00057659,5761.9,0.00019637,72.282,0.00018657,-1.4112,-0.00057535,-5726.2,0.0017404
18804,0.73962,5.5455,0,0.00055445,5540.6,0.00020747,-8.4372,0.00013929,-520.65,-0.00056167,-5787.4,0.0024609
18805,0.64717,5.6364,0,0.00054821,5478.3,0.00020054,17.389,0.00014845,-373.99,-0.00055323,-5646.1,0.0017405
18806,0.73962,5.6364,0.05,6.7142e-06,67.096,5.1557e-06,38.738,-1.0936e-21,-8.2169e-15,-5.1557e-06,-38.738,0.0022829
18807,0.73962,5.3636,0,0.00054586,5454.8,0.00022057,-11.597,0.00010635,-869.79,-0.00055576,-5844.7,0.0027028
18808,0.64717,5.4545,0,0.0005388,5384.3,0.00021662,19.299,0.00011011,-780.99,-0.00054728,-5720.4,0.0019702
18809,0.73962,5.4545,0.05,6.4323e-06,64.279,4.9392e-06,37.111,-1.0477e-21,-2.2327e-07,-4.9392e-06,-37.111,0.0025584
18810,0.73962,5.1818,0,0.00054413,5437.5,0.00023336,-13.091,7.9356e-05,-1170.2,-0.00055494,-5936.1,0.0028893
18811,0.64717,5.2727,0,0.00053846,5380.8,0.00023219,20.714,7.9437e-05,-1127,-0.00054801,-5841.4,0.0021432
18812,0.73962,5.2727,0.05,5.798e-06,57.94,4.4521e-06,33.452,-9.4436e-22,-7.0956e-15,-4.4521e-06,-33.452,0.0027699
18813,0.73962,5,0,0.00054735,5469.7,0.00024493,-14.097,5.883e-05,-1412.3,-0.00055804,-6047.2,0.0030344
18814,0.64717,5.0909,0,0.00054422,5438.4,0.00024602,21.706,5.7023e-05,-1398.3,-0.00055354,-5985.8,0.0022748
18815,0.73962,5.0909,0.05,5.2815e-06,52.779,4.0556e-06,30.472,5.269e-14,-6.4635e-15,-4.0556e-06,-30.472,0.0029331
18816,0.73962,4.8182,0,0.00055342,5530.4,0.00025498,-14.769,4.3858e-05,-1601,-0.00056357,-6165,0.003148
18817,0.64717,4.9091,0,0.00055303,5526.5,0.00025781,22.505,4.1325e-05,-1604.1,-0.00056167,-6134.8,0.0023761
18818,0.73962,4.9091,0.05,4.9634e-06,49.6,3.8113e-06,28.636,-4.9436e-12,-4.7224e-05,-3.8113e-06,-28.636,0.0030604
18819,0.73962,4.6364,0,0.0005607,5603.1,0.00026351,-15.253,3.3125e-05,-1746.3,-0.00057022,-6279.6,0.0032378
18820,0.64717,4.7273,0,0.0005628,5624.1,0.00026766,23.114,3.0466e-05,-1759.1,-0.00057073,-6276.2,0.0024552
18821,0.73962,4.7273,0.05,4.7932e-06,47.899,3.6806e-06,27.654,-3.6957e-12,-3.1002e-05,-3.6806e-06,-27.654,0.0031604
18822,0.73962,4.4545,0,0.00056812,5677.2,0.00027065,-15.613,2.5454e-05,-1857.9,-0.00057709,-6385.2,0.0033092
18823,0.64717,4.5455,0,0.00057232,5719.3,0.0002758,23.586,2.2928e-05,-1876.4,-0.00057964,-6403.9,0.0025173
18824,0.73962,4.5455,0.05,4.7044e-06,47.011,3.6124e-06,27.142,-2.8723e-13,-2.1508e-05,-3.6124e-06,-27.142,0.0032396
18825,0.73962,4.2727,0,0.00057507,5746.8,0.00027655,-15.888,1.9953e-05,-1943.8,-0.00058361,-6478.7,0.0033659
18826,0.64717,4.3636,0,0.000581,5806,0.00028247,23.953,1.7644e-05,-1965.8,-0.00058785,-6515.3,0.0025664
18827,0.73962,4.3636,0.05,4.6528e-06,46.496,3.5728e-06,26.845,1.7332e-13,-5.6941e-15,-3.5728e-06,-26.845,0.0033025
18828,0.73962,4.0909,0,0.00058126,5808.6,0.00028136,-16.101,1.5992e-05,-2010,-0.00058945,-6559,0.0034108
18829,0.64717,4.1818,0,0.00058857,5881.7,0.00028789,24.238,1.39e-05,-2034.4,-0.00059508,-6610,0.0026053
18830,0.73962,4.1818,0.05,4.6167e-06,46.135,3.5451e-06,26.636,1.9174e-13,-5.6499e-15,-3.5451e-06,-26.636,0.0033525
18831,0.73962,3.9091,0,0.00058652,5861.2,0.00028522,-16.265,1.3136e-05,-2060.6,-0.00059446,-6625.8,0.0034461
18832,0.64717,4,0,0.00059498,5945.7,0.00029225,24.459,1.1229e-05,-2087,-0.00060123,-6688.8,0.0026359
18833,0.73962,4,0.05,4.5871e-06,45.839,3.5223e-06,26.465,3.0688e-13,-5.6136e-15,-3.5223e-06,-26.465,0.0033919
18834,0.73962,3.7273,0,0.00059082,5904.1,0.00028824,-16.39,1.1094e-05,-2098.8,-0.00059857,-6679.5,0.0034732
18835,0.64717,3.8182,0,0.00060021,5998,0.00029569,24.628,9.3212e-06,-2127,-0.00060628,-6752.4,0.0026596
18836,0.73962,3.8182,0.05,4.5612e-06,45.581,3.5025e-06,26.316,4.2914e-13,-3.7292e-06,-3.5025e-06,-26.316,0.0034226
18837,0.73962,3.5455,0,0.00059414,5937.3,0.00029051,-16.481,9.6683e-06,-2126.6,-0.00060175,-6720.6,0.0034933
18838,0.64717,3.6364,0,0.00060431,6039,0.00029831,24.755,7.9763e-06,-2156.7,-0.00061025,-6801.8,0.0026776
18839,0.73962,3.6364,0.05,4.5391e-06,45.36,3.4855e-06,26.189,5.6333e-13,3.4727e-07,-3.4855e-06,-26.189,0.0034458
18840,0.73962,3.3636,0,0.00059649,5960.8,0.00029209,-16.543,8.7291e-06,-2145.6,-0.00060402,-6749.5,0.0035072
18841,0.64717,3.4545,0,0.00060734,6069.2,0.00030022,24.845,7.0617e-06,-2177.8,-0.00061319,-6838.1,0.0026904
18842,0.73962,3.4545,0.05,4.5215e-06,45.184,3.4719e-06,26.087,5.0528e-13,-2.8135e-07,-3.4719e-06,-26.087,0.0034625
18843,0.73962,3.1818,0,0.0005979,5974.8,0.00029301,-16.58,8.1952e-06,-2156.6,-0.00060538,-6766.7,0.0035153
18844,0.64717,3.2727,0,0.00060933,6089.1,0.00030146,24.903,6.4931e-06,-2191.3,-0.00061513,-6861.9,0.0026987
18845,0.73962,3.2727,0.05,4.5092e-06,45.061,3.4625e-06,26.016,4.9514e-13,-6.2778e-08,-3.4625e-06,-26.016,0.0034733
18846,0.73962,3,0,0.00059836,5979.5,0.00029332,-16.592,8.022e-06,-2160.2,-0.00060583,-6772.4,0.003518
18847,0.64717,3.0909,0,0.00061032,6099,0.00030207,24.932,6.2204e-06,-2197.9,-0.00061609,-6873.7,0.0027028
18848,0.73962,3.0909,0.05,4.5029e-06,44.998,3.4576e-06,25.979,8.1382e-13,9.3085e-08,-3.4576e-06,-25.979,0.0034786
18849,0.73962,2.8182,0,0.0005979,5974.8,0.00029301,-16.58,8.1952e-06,-2156.6,-0.00060538,-6766.7,0.0035153
18850,0.64717,2.9091,0,0.00061032,6099,0.00030207,24.932,6.2204e-06,-2197.9,-0.00061609,-6873.7,0.0027028
18851,0.73962,2.9091,0.05,4.5029e-06,44.998,3.4576e-06,25.979,8.8756e-13,-1.877e-07,-3.4576e-06,-25.979,0.0034786
18852,0.73962,2.6364,0,0.00059649,5960.8,0.00029209,-16.543,8.7291e-06,-2145.6,-0.00060402,-6749.5,0.0035072
18853,0.64717,2.7273,0,0.00060933,6089.1,0.00030146,24.903,6.4931e-06,-2191.3,-0.00061513,-6861.9,0.0026987
18854,0.73962,2.7273,0.05,4.5092e-06,45.061,3.4625e-06,26.016,4.5446e-13,-6.2243e-05,-3.4625e-06,-26.016,0.0034733
18855,0.73962,2.4545,0,0.00059414,5937.3,0.00029051,-16.481,9.6683e-06,-2126.6,-0.00060175,-6720.6,0.0034933
18856,0.64717,2.5455,0,0.00060734,6069.2,0.00030022,24.845,7.0617e-06,-2177.8,-0.00061319,-6838.1,0.0026904
18857,0.73962,2.5455,0.05,4.5215e-06,45.184,3.4719e-06,26.087,5.4583e-13,-3.4854e-06,-3.4719e-06,-26.087,0.0034625
18858,0.73962,2.2727,0,0.00059082,5904.1,0.00028824,-16.39,1.1094e-05,-2098.8,-0.00059857,-6679.5,0.0034732
18859,0.64717,2.3636,0,0.00060431,6039,0.00029831,24.755,7.9763e-06,-2156.7,-0.00061025,-6801.8,0.0026776
18860,0.73962,2.3636,0.05,4.5391e-06,45.36,3.4855e-06,26.188,4.2151e-13,-3.7839e-05,-3.4855e-06,-26.189,0.0034458
18861,0.73962,2.0909,0,0.00058652,5861.2,0.00028522,-16.265,1.3136e-05,-2060.6,-0.00059446,-6625.8,0.0034461
18862,0.64717,2.1818,0,0.00060021,5998,0.00029569,24.628,9.3212e-06,-2127,-0.00060628,-6752.4,0.0026596
18863,0.73962,2.1818,0.05,4.5612e-06,45.581,3.5025e-06,26.316,1.9153e-13,-5.5566e-06,-3.5025e-06,-26.316,0.0034226
18864,0.73962,1.9091,0,0.00058126,5808.6,0.00028136,-16.101,1.5992e-05,-2010,-0.00058945,-6559,0.0034108
18865,0.64717,2,0,0.00059498,5945.7,0.00029225,24.459,1.1229e-05,-2087,-0.00060123,-6688.8,0.0026359
18866,0.73962,2,0.05,4.5871e-06,45.839,3.5223e-06,26.465,3.7443e-13,-1.6815e-05,-3.5223e-06,-26.465,0.0033919
18867,0.73962,1.7273,0,0.00057507,5746.8,0.00027655,-15.888,1.9953e-05,-1943.8,-0.00058361,-6478.7,0.0033659
18868,0.64717,1.8182,0,0.00058857,5881.7,0.00028789,24.238,1.39e-05,-2034.4,-0.00059508,-6610,0.0026053
18869,0.73962,1.8182,0.05,4.6167e-06,46.135,3.545e-06,26.636,-1.0344e-12,-2.4675e-05,-3.5451e-06,-26.636,0.0033525
18870,0.73962,1.5455,0,0.00056812,5677.2,0.00027065,-15.613,2.5454e-05,-1857.9,-0.00057709,-6385.2,0.0033092
18871,0.64717,1.6364,0,0.000581,5806,0.00028247,23.953,1.7644e-05,-1965.8,-0.00058785,-6515.3,0.0025664
18872,0.73962,1.6364,0.05,4.6528e-06,46.496,3.5728e-06,26.845,-2.9493e-13,-5.0396e-05,-3.5728e-06,-26.845,0.0033025
18873,0.73962,1.3636,0,0.0005607,5603.1,0.00026351,-15.253,3.3125e-05,-1746.3,-0.00057022,-6279.6,0.0032378
18874,0.64717,1.4545,0,0.00057232,5719.3,0.0002758,23.586,2.2928e-05,-1876.4,-0.00057964,-6403.9,0.0025173
18875,0.73962,1.4545,0.05,4.7044e-06,47.011,3.6124e-06,27.142,1.618e-13,-6.0187e-05,-3.6124e-06,-27.142,0.0032396
18876,0.73962,1.1818,0,0.00055342,5530.4,0.00025498,-14.769,4.3858e-05,-1601,-0.00056357,-6165,0.003148
18877,0.64717,1.2727,0,0.0005628,5624.1,0.00026766,23.114,3.0466e-05,-1759.1,-0.00057073,-6276.2,0.0024552
18878,0.73962,1.2727,0.05,4.7932e-06,47.899,3.6806e-06,27.654,-3.9338e-12,-7.714e-05,-3.6806e-06,-27.654,0.0031604
18879,0.73962,1,0,0.00054735,5469.7,0.00024493,-14.097,5.883e-05,-1412.3,-0.00055804,-6047.2,0.0030344
18880,0.64717,1.0909,0,0.00055303,5526.5,0.00025781,22.505,4.1325e-05,-1604.1,-0.00056167,-6134.8,0.0023761
18881,0.73962,1.0909,0.05,4.9634e-06,49.6,3.8113e-06,28.636,-5.3669e-12,-0.00010145,-3.8113e-06,-28.636,0.0030604
18882,0.73962,0.81818,0,0.00054413,5437.5,0.00023336,-13.091,7.9356e-05,-1170.2,-0.00055494,-5936.1,0.0028893
18883,0.64717,0.90909,0,0.00054422,5438.4,0.00024602,21.706,5.7023e-05,-1398.3,-0.00055354,-5985.8,0.0022748
18884,0.73962,0.90909,0.05,5.2815e-06,52.779,4.0556e-06,30.472,-1.3237e-11,-0.00010793,-4.0556e-06,-30.472,0.0029331
18885,0.73962,0.63636,0,0.00054586,5454.8,0.00022057,-11.597,0.00010635,-869.79,-0.00055576,-5844.7,0.0027028
18886,0.64717,0.72727,0,0.00053846,5380.8,0.00023219,20.714,7.9437e-05,-1127,-0.00054801,-5841.4,0.0021432
18887,0.73962,0.72727,0.05,5.798e-06,57.94,4.4521e-06,33.452,-7.511e-12,-0.00012246,-4.4521e-06,-33.452,0.0027699
18888,0.73962,0.45455,0,0.00055445,5540.6,0.00020747,-8.4372,0.00013929,-520.65,-0.00056167,-5787.4,0.0024609
18889,0.64717,0.54545,0,0.0005388,5384.3,0.00021662,19.299,0.00011011,-780.99,-0.00054728,-5720.4,0.0019702
18890,0.73962,0.54545,0.05,6.4323e-06,64.279,4.9392e-06,37.111,-6.9832e-12,-0.00011335,-4.9392e-06,-37.111,0.0025584
18891,0.73962,0.27273,0,0.0005723,5719.1,0.00019605,0.39431,0.00017664,-145.5,-0.00057463,-5790.2,0.0021464
18892,0.64717,0.36364,0,0.00054821,5478.3,0.00020054,17.389,0.00014845,-373.99,-0.00055323,-5646.1,0.0017405
18893,0.73962,0.36364,0.05,6.7142e-06,67.096,5.1557e-06,38.738,-1.8832e-11,-0.00015902,-5.1557e-06,-38.738,0.0022829
18894,0.64717,0.18182,0,0.00057127,5708.8,0.00019622,86.554,0.00018339,-9.7935,-0.0005699,-5669.8,0.0014349
18895,0.73962,0.18182,0.05,5.5541e-06,55.503,4.2649e-06,32.045,-6.1959e-12,-6.4361e-05,-4.2649e-06,-32.045,0.0019238
18896,0.73962,0.090909,0,0.00057659,5761.9,0.00019637,72.282,0.00018657,-1.4111,-0.00057535,-5726.2,0.0017404
18897,0.55472,5.7273,0,0.0005465,5461.2,0.00019142,33.777,0.0001645,-168.45,-0.00054851,-5525.8,0.0011397
18898,0.46226,5.8182,0,0.00053124,5308.8,0.00018532,95.796,0.00016707,-41.276,-0.00053018,-5280.2,0.00065911
18899,0.55472,5.8182,0.05,6.9362e-06,69.314,5.3262e-06,40.019,7.1722e-12,-8.4886e-15,-5.3262e-06,-40.019,0.00097365
18900,0.55472,5.9091,0,0.00054816,5477.8,0.00018936,107.02,0.00017633,9.096,-0.00054612,-5419.1,0.00084549
18901,0.55472,5.5455,0,0.00053196,5315.9,0.00020963,44.565,0.00011924,-634.58,-0.00053873,-5578.3,0.0013553
18902,0.46226,5.6364,0,0.00050729,5069.4,0.00018921,-48.868,0.00012461,-534.21,-0.00051547,-5343.5,0.00085766
18903,0.55472,5.6364,0.05,9.3148e-06,93.084,7.1526e-06,53.742,-1.5172e-21,-1.14e-14,-7.1526e-06,-53.742,0.0012268
18904,0.55472,5.3636,0,0.00053096,5305.9,0.00022822,51.464,8.2977e-05,-1039.9,-0.00053928,-5715.3,0.0015126
18905,0.46226,5.4545,0,0.00050665,5063,0.0002106,-67.364,8.16e-05,-1036.6,-0.00051842,-5544.9,0.000997
18906,0.55472,5.4545,0.05,8.1154e-06,81.098,6.2317e-06,46.822,-1.3218e-21,-9.9317e-15,-6.2317e-06,-46.822,0.0014097
18907,0.55472,5.1818,0,0.00053835,5379.8,0.00024484,55.453,5.6898e-05,-1356.7,-0.00054639,-5889.6,0.0016289
18908,0.46226,5.2727,0,0.00051808,5177.3,0.0002299,-76.613,5.3073e-05,-1405.2,-0.00053034,-5788.7,0.0010963
18909,0.55472,5.2727,0.05,6.864e-06,68.593,5.2707e-06,39.602,-1.118e-21,-6.2273e-05,-5.2707e-06,-39.602,0.0015432
18910,0.55472,5,0,0.00054988,5495,0.0002589,58.283,3.94e-05,-1591,-0.00055705,-6072.5,0.0017166
18911,0.46226,5.0909,0,0.00053388,5335.2,0.00024586,-82.44,3.5215e-05,-1665.2,-0.00054569,-6029.9,0.0011688
18912,0.55472,5.0909,0.05,6.0905e-06,60.862,4.6767e-06,35.139,-9.92e-22,-7.4535e-15,-4.6767e-06,-35.139,0.0016424
18913,0.55472,4.8182,0,0.00056247,5620.8,0.00027049,60.376,2.789e-05,-1762.4,-0.00056879,-6245.7,0.0017837
18914,0.46226,4.9091,0,0.00055,5496.2,0.00025873,-86.473,2.4124e-05,-1849.2,-0.00056129,-6247.8,0.0012232
18915,0.55472,4.9091,0.05,5.6623e-06,56.584,4.3479e-06,32.669,-9.2226e-22,-6.9295e-15,-4.3479e-06,-32.669,0.0017177
18916,0.55472,4.6364,0,0.00057451,5741.1,0.00027994,61.947,2.0268e-05,-1889.2,-0.00058014,-6400.4,0.0018358
18917,0.46226,4.7273,0,0.00056472,5643.3,0.00026906,-89.399,1.7086e-05,-1982.6,-0.00057561,-6435.9,0.0012647
18918,0.55472,4.7273,0.05,5.4203e-06,54.166,4.1622e-06,31.273,-3.1519e-13,-6.6334e-15,-4.1622e-06,-31.273,0.0017756
18919,0.55472,4.4545,0,0.00058528,5848.7,0.00028761,63.149,1.5133e-05,-1984.2,-0.00059042,-6534,0.0018767
18920,0.46226,4.5455,0,0.0005775,5771.1,0.00027733,-91.598,1.2494e-05,-2081.5,-0.00058812,-6594.3,0.0012969
18921,0.55472,4.5455,0.05,5.2616e-06,52.58,4.0403e-06,30.357,-1.8828e-12,-2.6078e-14,-4.0403e-06,-30.357,0.0018209
18922,0.55472,4.2727,0,0.00059456,5941.5,0.00029381,64.077,1.1608e-05,-2056.3,-0.00059934,-6646.7,0.0019089
18923,0.46226,4.3636,0,0.0005883,5878.9,0.00028397,-93.282,9.4133e-06,-2156.2,-0.00059874,-6725.6,0.0013222
18924,0.55472,4.3636,0.05,5.141e-06,51.375,3.9477e-06,29.661,-1.2754e-12,-2.5354e-05,-3.9477e-06,-29.661,0.0018564
18925,0.55472,4.0909,0,0.00060234,6019.2,0.00029878,64.796,9.1495e-06,-2111.3,-0.00060687,-6739.9,0.0019343
18926,0.46226,4.1818,0,0.00059723,5968.2,0.00028927,-94.582,7.2997e-06,-2213.2,-0.00060757,-6833.1,0.0013419
18927,0.55472,4.1818,0.05,5.0412e-06,50.377,3.871e-06,29.085,3.9849e-13,-1.256e-06,-3.871e-06,-29.085,0.0018844
18928,0.55472,3.9091,0,0.0006087,6082.8,0.00030271,65.351,7.4196e-06,-2153.3,-0.00061305,-6815.3,0.001954
18929,0.46226,4,0,0.00060451,6040.9,0.00029347,-95.586,5.8261e-06,-2256.9,-0.00061478,-6919.8,0.0013574
18930,0.55472,4,0.05,4.9564e-06,49.53,3.8059e-06,28.596,-3.1513e-13,-6.0657e-15,-3.8059e-06,-28.596,0.0019063
18931,0.55472,3.7273,0,0.00061373,6133.1,0.00030576,65.772,6.2038e-06,-2184.9,-0.00061796,-6874.7,0.0019692
18932,0.46226,3.8182,0,0.00061029,6098.6,0.00029676,-96.355,4.7918e-06,-2290.1,-0.00062052,-6988.4,0.0013694
18933,0.55472,3.8182,0.05,4.8853e-06,48.82,3.7513e-06,28.186,2.5768e-14,-5.9787e-15,-3.7513e-06,-28.186,0.0019233
18934,0.55472,3.5455,0,0.00061754,6171.1,0.00030802,66.08,5.3655e-06,-2208,-0.00062168,-6919.4,0.0019804
18935,0.46226,3.6364,0,0.00061473,6143.1,0.00029925,-96.93,4.0715e-06,-2314.8,-0.00062494,-7040.9,0.0013784
18936,0.55472,3.6364,0.05,4.8279e-06,48.245,3.7072e-06,27.854,2.7645e-13,-2.9683e-05,-3.7072e-06,-27.854,0.0019361
18937,0.55472,3.3636,0,0.00062019,6197.7,0.00030959,66.291,4.8182e-06,-2223.6,-0.00062429,-6950.5,0.001988
18938,0.46226,3.4545,0,0.00061796,6175.3,0.00030105,-97.339,3.5859e-06,-2332.4,-0.00062815,-7079,0.0013848
18939,0.55472,3.4545,0.05,4.7844e-06,47.811,3.6738e-06,27.604,4.7061e-13,-5.9016e-07,-3.6738e-06,-27.604,0.0019452
18940,0.55472,3.1818,0,0.00062177,6213.4,0.00031051,66.414,4.5089e-06,-2232.7,-0.00062583,-6968.8,0.0019925
18941,0.46226,3.2727,0,0.00062006,6196.3,0.00030221,-97.602,3.2858e-06,-2343.6,-0.00063025,-7103.7,0.001389
18942,0.55472,3.2727,0.05,4.7552e-06,47.519,3.6514e-06,27.435,3.9335e-13,1.9373e-07,-3.6514e-06,-27.435,0.0019512
18943,0.55472,3,0,0.00062229,6218.6,0.00031081,66.455,4.4088e-06,-2235.7,-0.00062634,-6974.9,0.001994
18944,0.46226,3.0909,0,0.0006211,6206.7,0.00030278,-97.73,3.1424e-06,-2349.1,-0.00063128,-7115.9,0.001391
18945,0.55472,3.0909,0.05,4.7406e-06,47.373,3.6402e-06,27.351,4.6727e-13,6.0185e-08,-3.6402e-06,-27.351,0.0019541
18946,0.55472,2.8182,0,0.00062177,6213.4,0.00031051,66.414,4.5089e-06,-2232.7,-0.00062583,-6968.8,0.0019925
18947,0.46226,2.9091,0,0.0006211,6206.7,0.00030278,-97.73,3.1424e-06,-2349.1,-0.00063128,-7115.9,0.001391
18948,0.55472,2.9091,0.05,4.7406e-06,47.373,3.6402e-06,27.351,4.9604e-13,-1.43e-07,-3.6402e-06,-27.351,0.0019541
18949,0.55472,2.6364,0,0.00062019,6197.7,0.00030959,66.291,4.8182e-06,-2223.6,-0.00062429,-6950.5,0.001988
18950,0.46226,2.7273,0,0.00062006,6196.3,0.00030221,-97.602,3.2858e-06,-2343.6,-0.00063025,-7103.7,0.001389
18951,0.55472,2.7273,0.05,4.7552e-06,47.519,3.6514e-06,27.435,4.1413e-13,-3.8747e-07,-3.6514e-06,-27.435,0.0019512
18952,0.55472,2.4545,0,0.00061754,6171.1,0.00030802,66.08,5.3655e-06,-2208,-0.00062168,-6919.4,0.0019804
18953,0.46226,2.5455,0,0.00061796,6175.3,0.00030105,-97.339,3.5859e-06,-2332.4,-0.00062815,-7079,0.0013848
18954,0.55472,2.5455,0.05,4.7844e-06,47.811,3.6738e-06,27.603,3.6471e-13,-2.4884e-06,-3.6738e-06,-27.604,0.0019452
18955,0.55472,2.2727,0,0.00061373,6133.1,0.00030576,65.772,6.2038e-06,-2184.9,-0.00061796,-6874.7,0.0019692
18956,0.46226,2.3636,0,0.00061473,6143.1,0.00029925,-96.93,4.0715e-06,-2314.8,-0.00062494,-7040.9,0.0013784
18957,0.55472,2.3636,0.05,4.8279e-06,48.245,3.7072e-06,27.854,-4.8511e-14,-6.259e-05,-3.7072e-06,-27.854,0.0019361
18958,0.55472,2.0909,0,0.0006087,6082.8,0.00030271,65.351,7.4196e-06,-2153.3,-0.00061305,-6815.3,0.001954
18959,0.46226,2.1818,0,0.00061029,6098.6,0.00029676,-96.355,4.7918e-06,-2290.1,-0.00062052,-6988.4,0.0013694
18960,0.55472,2.1818,0.05,4.8853e-06,48.819,3.7513e-06,28.186,-9.4531e-14,-7.9682e-06,-3.7513e-06,-28.186,0.0019233
18961,0.55472,1.9091,0,0.00060234,6019.2,0.00029878,64.796,9.1495e-06,-2111.3,-0.00060687,-6739.9,0.0019343
18962,0.46226,2,0,0.00060451,6040.9,0.00029347,-95.586,5.8261e-06,-2256.9,-0.00061478,-6919.8,0.0013574
18963,0.55472,2,0.05,4.9564e-06,49.53,3.8059e-06,28.596,-3.8787e-13,-8.9612e-06,-3.8059e-06,-28.596,0.0019063
18964,0.55472,1.7273,0,0.00059456,5941.5,0.00029381,64.077,1.1608e-05,-2056.3,-0.00059934,-6646.7,0.0019089
18965,0.46226,1.8182,0,0.00059723,5968.2,0.00028927,-94.582,7.2997e-06,-2213.2,-0.00060757,-6833.1,0.0013419
18966,0.55472,1.8182,0.05,5.0412e-06,50.377,3.871e-06,29.085,3.4781e-13,-1.1318e-05,-3.871e-06,-29.085,0.0018844
18967,0.55472,1.5455,0,0.00058528,5848.7,0.00028761,63.149,1.5133e-05,-1984.2,-0.00059042,-6534,0.0018767
18968,0.46226,1.6364,0,0.0005883,5878.9,0.00028397,-93.282,9.4133e-06,-2156.2,-0.00059874,-6725.6,0.0013222
18969,0.55472,1.6364,0.05,5.141e-06,51.375,3.9477e-06,29.661,-1.3398e-12,-4.2216e-05,-3.9477e-06,-29.661,0.0018564
18970,0.55472,1.3636,0,0.00057451,5741.1,0.00027994,61.947,2.0268e-05,-1889.2,-0.00058014,-6400.4,0.0018358
18971,0.46226,1.4545,0,0.0005775,5771.1,0.00027733,-91.598,1.2494e-05,-2081.5,-0.00058812,-6594.3,0.0012969
18972,0.55472,1.4545,0.05,5.2616e-06,52.58,4.0403e-06,30.357,-8.2375e-14,-4.8727e-05,-4.0403e-06,-30.357,0.0018209
18973,0.55472,1.1818,0,0.00056247,5620.8,0.00027049,60.376,2.789e-05,-1762.4,-0.00056879,-6245.7,0.0017837
18974,0.46226,1.2727,0,0.00056472,5643.3,0.00026906,-89.399,1.7086e-05,-1982.6,-0.00057561,-6435.9,0.0012647
18975,0.55472,1.2727,0.05,5.4203e-06,54.166,4.1622e-06,31.273,4.8263e-13,-1.6442e-05,-4.1622e-06,-31.273,0.0017756
18976,0.55472,1,0,0.00054988,5495,0.0002589,58.283,3.94e-05,-1591,-0.00055705,-6072.5,0.0017166
18977,0.46226,1.0909,0,0.00055,5496.2,0.00025873,-86.473,2.4124e-05,-1849.2,-0.00056129,-6247.8,0.0012232
18978,0.55472,1.0909,0.05,5.6623e-06,56.584,4.3479e-06,32.669,-9.847e-12,-5.7599e-05,-4.3479e-06,-32.669,0.0017177
18979,0.55472,0.81818,0,0.00053835,5379.8,0.00024484,55.453,5.6898e-05,-1356.7,-0.00054639,-5889.6,0.0016289
18980,0.46226,0.90909,0,0.00053388,5335.2,0.00024586,-82.44,3.5215e-05,-1665.2,-0.00054569,-6029.9,0.0011688
18981,0.55472,0.90909,0.05,6.0905e-06,60.862,4.6767e-06,35.139,-1.2181e-11,-6.4347e-05,-4.6767e-06,-35.139,0.0016424
18982,0.55472,0.63636,0,0.00053096,5305.9,0.00022822,51.464,8.2977e-05,-1039.9,-0.00053928,-5715.3,0.0015126
18983,0.46226,0.72727,0,0.00051808,5177.3,0.0002299,-76.613,5.3073e-05,-1405.2,-0.00053034,-5788.7,0.0010962
18984,0.55472,0.72727,0.05,6.864e-06,68.593,5.2707e-06,39.602,-7.333e-12,-6.1893e-05,-5.2707e-06,-39.602,0.0015432
18985,0.55472,0.45455,0,0.00053196,5315.9,0.00020963,44.565,0.00011924,-634.58,-0.00053873,-5578.3,0.0013553
18986,0.46226,0.54545,0,0.00050665,5063,0.0002106,-67.364,8.16e-05,-1036.6,-0.00051842,-5544.9,0.000997
18987,0.55472,0.54545,0.05,8.1154e-06,81.098,6.2317e-06,46.822,-7.0302e-12,-5.7361e-05,-6.2316e-06,-46.822,0.0014097
18988,0.55472,0.27273,0,0.0005465,5461.2,0.00019142,33.777,0.0001645,-168.45,-0.00054851,-5525.8,0.0011397
18989,0.46226,0.36364,0,0.00050729,5069.4,0.00018921,-48.868,0.00012461,-534.21,-0.00051547,-5343.5,0.00085766
18990,0.55472,0.36364,0.05,9.3148e-06,93.084,7.1526e-06,53.742,-4.1006e-12,1.055e-05,-7.1526e-06,-53.742,0.0012268
18991,0.46226,0.18182,0,0.00053124,5308.8,0.00018532,95.796,0.00016707,-41.276,-0.00053018,-5280.2,0.00065911
18992,0.55472,0.18182,0.05,6.9362e-06,69.314,5.3262e-06,40.019,-2.1465e-11,-0.00012036,-5.3261e-06,-40.019,0.00097365
18993,0.55472,0.090909,0,0.00054816,5477.8,0.00018936,107.02,0.00017633,9.096,-0.00054612,-5419.1,0.00084549
18994,0.36981,5.7273,0,0.00049057,4902.3,0.00016932,-90.414,0.00014077,-304.96,-0.00049694,-5096.4,0.00047613
18995,0.27736,5.8182,0,0.00045511,4547.9,0.00016397,164.77,0.00014179,-1.8738,-0.0004521,-4464.2,0.00020911
18996,0.36981,5.8182,0.05,1.2125e-05,121.17,9.3106e-06,69.956,-1.9749e-21,-1.4839e-14,-9.3106e-06,-69.956,0.00036979
18997,0.36981,5.9091,0,0.00049393,4935.9,0.00017514,131.99,0.00015443,-23.623,-0.00049191,-4879.9,0.00029901
18998,0.36981,5.5455,0,0.00048066,4803.3,0.00019005,-161.77,8.6602e-05,-939.05,-0.00049465,-5306.3,0.00059482
18999,0.27736,5.6364,0,0.00046521,4648.9,0.00020733,235.74,7.7432e-05,-740.24,-0.00046604,-4823.7,0.00030389
19000,0.36981,5.6364,0.05,1.3504e-05,134.95,1.037e-05,77.914,-2.1996e-21,-1.6527e-14,-1.037e-05,-77.914,0.00051499
19001,0.36981,5.3636,0,0.00049309,4927.5,0.00021224,-195.66,5.1306e-05,-1404.9,-0.00050905,-5615.2,0.00067511
19002,0.27736,5.4545,0,0.00050104,5006.9,0.00024438,279.68,4.1928e-05,-1241.5,-0.00049975,-5311.4,0.00036358
19003,0.36981,5.4545,0.05,1.0289e-05,102.82,7.9008e-06,59.364,-4.9793e-14,-4.2914e-07,-7.9008e-06,-59.364,0.00060996
19004,0.36981,5.1818,0,0.00051341,5130.5,0.00023091,-214.58,3.1258e-05,-1714.7,-0.00052949,-5927.9,0.00073147
19005,0.27736,5.2727,0,0.00053708,5367,0.00027191,310.94,2.393e-05,-1552.3,-0.00053334,-5739.4,0.00040312
19006,0.36981,5.2727,0.05,8.47e-06,84.642,6.5039e-06,48.868,-3.442e-14,-2.3099e-06,-6.5039e-06,-48.868,0.00067462
19007,0.36981,5,0,0.000534,5336.3,0.00024569,-227.22,1.9968e-05,-1923.2,-0.00054996,-6205.4,0.00077251
19008,0.27736,5.0909,0,0.00056771,5673.2,0.00029211,330.97,1.4705e-05,-1753.4,-0.0005624,-6089.5,0.00043084
19009,0.36981,5.0909,0.05,7.538e-06,75.328,5.7882e-06,43.491,-1.2278e-21,-3.7372e-06,-5.7882e-06,-43.491,0.00072059
19010,0.36981,4.8182,0,0.00055231,5519.3,0.0002573,-236.26,1.3403e-05,-2068.8,-0.00056819,-6438.7,0.00080325
19011,0.27736,4.9091,0,0.00059253,5921.2,0.00030734,345.57,9.6091e-06,-1891.5,-0.00058622,-6368.3,0.00045108
19012,0.36981,4.9091,0.05,7.0442e-06,70.394,5.4091e-06,40.642,-1.1474e-21,-3.7395e-06,-5.4091e-06,-40.642,0.00075446
19013,0.36981,4.6364,0,0.00056778,5673.9,0.00026645,-242.95,9.3952e-06,-2174.3,-0.00058367,-6630.4,0.00082675
19014,0.27736,4.7273,0,0.00061238,6119.6,0.000319,356.3,6.6112e-06,-1990.9,-0.00060542,-6589.4,0.0004663
19015,0.36981,4.7273,0.05,6.7112e-06,67.066,5.1534e-06,38.721,-4.0161e-13,-2.294e-05,-5.1534e-06,-38.721,0.00078006
19016,0.36981,4.4545,0,0.00058058,5801.8,0.00027369,-248.03,6.8408e-06,-2253,-0.00059652,-6786.4,0.00084497
19017,0.27736,4.5455,0,0.00062822,6277.9,0.00032806,364.47,4.745e-06,-2064.8,-0.00062083,-6765.1,0.00047795
19018,0.36981,4.5455,0.05,6.453e-06,64.485,4.9551e-06,37.231,-7.9576e-14,-1.0752e-05,-4.9551e-06,-37.231,0.00079976
19019,0.36981,4.2727,0,0.00059102,5906.1,0.00027943,-251.94,5.1531e-06,-2312.7,-0.00060702,-6912.3,0.0008592
19020,0.27736,4.3636,0,0.00064086,6404.2,0.00033516,370.75,3.5317e-06,-2120.9,-0.00063316,-6904.8,0.00048699
19021,0.36981,4.3636,0.05,6.2398e-06,62.355,4.7914e-06,36,-7.9976e-13,-2.8178e-05,-4.7914e-06,-36,0.00081508
19022,0.36981,4.0909,0,0.00059944,5990.3,0.00028397,-254.96,4.0076e-06,-2358.5,-0.00061551,-7013.3,0.00087032
19023,0.27736,4.1818,0,0.00065092,6504.7,0.00034073,375.62,2.7164e-06,-2164.1,-0.000643,-7015.8,0.00049404
19024,0.36981,4.1818,0.05,6.0612e-06,60.57,4.6542e-06,34.97,2.0994e-13,-5.1877e-06,-4.6542e-06,-34.97,0.00082706
19025,0.36981,3.9091,0,0.00060613,6057.1,0.00028752,-257.29,3.2168e-06,-2393.5,-0.00062226,-7093,0.00087896
19026,0.27736,4,0,0.00065886,6584.1,0.0003451,379.4,2.1559e-06,-2197.4,-0.00065079,-7103.4,0.00049953
19027,0.36981,4,0.05,5.9126e-06,59.085,4.5402e-06,34.113,1.1793e-13,-6.1035e-05,-4.5402e-06,-34.113,0.0008364
19028,0.36981,3.7273,0,0.00061132,6108.9,0.00029026,-259.06,2.6687e-06,-2419.9,-0.0006275,-7154.7,0.00088555
19029,0.27736,3.8182,0,0.00066505,6645.9,0.00034848,382.3,1.7664e-06,-2222.8,-0.00065686,-7171.5,0.00050376
19030,0.36981,3.8182,0.05,5.7917e-06,57.877,4.4473e-06,33.415,1.9297e-13,-7.0879e-15,-4.4473e-06,-33.415,0.00084359
19031,0.36981,3.5455,0,0.00061518,6147.6,0.00029228,-260.35,2.2945e-06,-2439.2,-0.00063141,-7200.6,0.0008904
19032,0.27736,3.6364,0,0.00066973,6692.7,0.00035103,384.47,1.497e-06,-2241.8,-0.00066146,-7223,0.00050692
19033,0.36981,3.6364,0.05,5.6968e-06,56.928,4.3744e-06,32.868,5.7661e-14,-6.9717e-15,-4.3744e-06,-32.868,0.000849
19034,0.36981,3.3636,0,0.00061785,6174.3,0.00029367,-261.23,2.0518e-06,-2452.3,-0.00063411,-7232.2,0.00089373
19035,0.27736,3.4545,0,0.00067309,6726.3,0.00035285,386.01,1.3162e-06,-2255.3,-0.00066477,-7260,0.00050919
19036,0.36981,3.4545,0.05,5.6266e-06,56.227,4.3205e-06,32.463,3.024e-13,-4.148e-07,-4.3205e-06,-32.463,0.00085286
19037,0.36981,3.1818,0,0.00061942,6190,0.00029449,-261.75,1.9152e-06,-2460,-0.0006357,-7250.8,0.00089567
19038,0.27736,3.2727,0,0.00067527,6748,0.00035402,387.01,1.2048e-06,-2263.9,-0.00066691,-7283.9,0.00051065
19039,0.36981,3.2727,0.05,5.5803e-06,55.765,4.285e-06,32.196,2.925e-13,-1.2336e-07,-4.285e-06,-32.196,0.00085535
19040,0.36981,3,0,0.00061994,6195.1,0.00029475,-261.91,1.8711e-06,-2462.5,-0.00063623,-7256.9,0.00089631
19041,0.27736,3.0909,0,0.00067633,6758.7,0.0003546,387.49,1.1516e-06,-2268.2,-0.00066796,-7295.7,0.00051136
19042,0.36981,3.0909,0.05,5.5573e-06,55.535,4.2673e-06,32.063,2.8915e-13,-6.0978e-05,-4.2673e-06,-32.063,0.00085657
19043,0.36981,2.8182,0,0.00061942,6190,0.00029449,-261.75,1.9152e-06,-2460,-0.0006357,-7250.8,0.00089567
19044,0.27736,2.9091,0,0.00067633,6758.7,0.0003546,387.49,1.1516e-06,-2268.2,-0.00066796,-7295.7,0.00051136
19045,0.36981,2.9091,0.05,5.5573e-06,55.535,4.2673e-06,32.063,3.0451e-13,-6.1075e-05,-4.2673e-06,-32.063,0.00085657
19046,0.36981,2.6364,0,0.00061785,6174.3,0.00029367,-261.23,2.0518e-06,-2452.3,-0.00063411,-7232.2,0.00089373
19047,0.27736,2.7273,0,0.00067527,6748,0.00035402,387.01,1.2048e-06,-2263.9,-0.00066691,-7283.9,0.00051065
19048,0.36981,2.7273,0.05,5.5803e-06,55.765,4.285e-06,32.196,2.8595e-13,-4.0322e-07,-4.285e-06,-32.196,0.00085535
19049,0.36981,2.4545,0,0.00061518,6147.6,0.00029228,-260.35,2.2945e-06,-2439.2,-0.00063141,-7200.6,0.0008904
19050,0.27736,2.5455,0,0.00067309,6726.3,0.00035285,386.01,1.3162e-06,-2255.3,-0.00066477,-7260,0.00050919
19051,0.36981,2.5455,0.05,5.6266e-06,56.227,4.3205e-06,32.463,3.2285e-13,-6.1551e-05,-4.3205e-06,-32.463,0.00085286
19052,0.36981,2.2727,0,0.00061132,6108.9,0.00029026,-259.06,2.6687e-06,-2419.9,-0.0006275,-7154.7,0.00088555
19053,0.27736,2.3636,0,0.00066973,6692.7,0.00035103,384.47,1.497e-06,-2241.8,-0.00066146,-7223,0.00050692
19054,0.36981,2.3636,0.05,5.6968e-06,56.928,4.3744e-06,32.868,3.1501e-13,-3.2019e-05,-4.3744e-06,-32.868,0.000849
19055,0.36981,2.0909,0,0.00060613,6057.1,0.00028752,-257.29,3.2168e-06,-2393.5,-0.00062226,-7093,0.00087896
19056,0.27736,2.1818,0,0.00066505,6645.9,0.00034848,382.3,1.7664e-06,-2222.8,-0.00065686,-7171.5,0.00050376
19057,0.36981,2.1818,0.05,5.7917e-06,57.877,4.4473e-06,33.415,-1.9019e-13,-3.4571e-05,-4.4473e-06,-33.415,0.00084359
19058,0.36981,1.9091,0,0.00059944,5990.3,0.00028397,-254.96,4.0076e-06,-2358.5,-0.00061551,-7013.3,0.00087032
19059,0.27736,2,0,0.00065886,6584.1,0.0003451,379.4,2.1559e-06,-2197.4,-0.00065079,-7103.4,0.00049953
19060,0.36981,2,0.05,5.9126e-06,59.085,4.5402e-06,34.113,-1.7061e-13,-3.1492e-05,-4.5402e-06,-34.113,0.0008364
19061,0.36981,1.7273,0,0.00059102,5906.1,0.00027943,-251.94,5.1531e-06,-2312.7,-0.00060702,-6912.3,0.0008592
19062,0.27736,1.8182,0,0.00065092,6504.7,0.00034073,375.62,2.7164e-06,-2164.1,-0.000643,-7015.8,0.00049404
19063,0.36981,1.8182,0.05,6.0612e-06,60.57,4.6542e-06,34.97,-3.436e-13,-3.5903e-05,-4.6542e-06,-34.97,0.00082706
19064,0.36981,1.5455,0,0.00058058,5801.8,0.00027369,-248.03,6.8408e-06,-2253,-0.00059652,-6786.4,0.00084497
19065,0.27736,1.6364,0,0.00064086,6404.2,0.00033516,370.75,3.5317e-06,-2120.9,-0.00063316,-6904.8,0.00048699
19066,0.36981,1.6364,0.05,6.2398e-06,62.355,4.7914e-06,36,-8.82e-13,-4.6114e-05,-4.7914e-06,-36.001,0.00081508
19067,0.36981,1.3636,0,0.00056778,5673.9,0.00026645,-242.95,9.3952e-06,-2174.3,-0.00058367,-6630.4,0.00082675
19068,0.27736,1.4545,0,0.00062822,6277.9,0.00032806,364.47,4.745e-06,-2064.8,-0.00062083,-6765.1,0.00047795
19069,0.36981,1.4545,0.05,6.453e-06,64.485,4.9551e-06,37.231,-1.5859e-12,-1.8018e-05,-4.9551e-06,-37.231,0.00079976
19070,0.36981,1.1818,0,0.00055231,5519.3,0.0002573,-236.26,1.3403e-05,-2068.8,-0.00056819,-6438.7,0.00080325
19071,0.27736,1.2727,0,0.00061238,6119.6,0.000319,356.3,6.6112e-06,-1990.9,-0.00060542,-6589.4,0.0004663
19072,0.36981,1.2727,0.05,6.7112e-06,67.066,5.1534e-06,38.721,-2.8699e-12,-3.9143e-05,-5.1534e-06,-38.721,0.00078006
19073,0.36981,1,0,0.000534,5336.3,0.00024569,-227.22,1.9968e-05,-1923.2,-0.00054996,-6205.4,0.00077251
19074,0.27736,1.0909,0,0.00059253,5921.2,0.00030734,345.57,9.6091e-06,-1891.5,-0.00058622,-6368.3,0.00045108
19075,0.36981,1.0909,0.05,7.0442e-06,70.394,5.4091e-06,40.642,-7.9279e-13,-6.0198e-05,-5.4091e-06,-40.642,0.00075446
19076,0.36981,0.81818,0,0.00051341,5130.5,0.00023091,-214.58,3.1258e-05,-1714.7,-0.00052949,-5927.9,0.00073147
19077,0.27736,0.90909,0,0.00056771,5673.2,0.00029211,330.97,1.4705e-05,-1753.4,-0.0005624,-6089.5,0.00043084
19078,0.36981,0.90909,0.05,7.538e-06,75.328,5.7882e-06,43.49,-5.6952e-12,-9.2949e-05,-5.7882e-06,-43.491,0.00072059
19079,0.36981,0.63636,0,0.00049309,4927.5,0.00021224,-195.66,5.1306e-05,-1404.9,-0.00050905,-5615.2,0.00067511
19080,0.27736,0.72727,0,0.00053708,5367,0.00027191,310.94,2.393e-05,-1552.3,-0.00053334,-5739.4,0.00040312
19081,0.36981,0.72727,0.05,8.47e-06,84.642,6.5039e-06,48.868,-7.2375e-12,-1.8717e-05,-6.5039e-06,-48.868,0.00067462
19082,0.36981,0.45455,0,0.00048066,4803.3,0.00019005,-161.77,8.6602e-05,-939.05,-0.00049465,-5306.3,0.00059482
19083,0.27736,0.54545,0,0.00050104,5006.9,0.00024438,279.68,4.1928e-05,-1241.5,-0.00049975,-5311.4,0.00036358
19084,0.36981,0.54545,0.05,1.0289e-05,102.82,7.9008e-06,59.364,-1.0954e-11,-0.00018422,-7.9008e-06,-59.364,0.00060996
19085,0.36981,0.27273,0,0.00049057,4902.3,0.00016932,-90.414,0.00014077,-304.96,-0.00049694,-5096.4,0.00047613
19086,0.27736,0.36364,0,0.00046521,4648.9,0.00020733,235.74,7.7432e-05,-740.24,-0.00046604,-4823.7,0.00030389
19087,0.36981,0.36364,0.05,1.3504e-05,134.95,1.037e-05,77.914,-6.8408e-12,-9.4031e-07,-1.037e-05,-77.914,0.00051499
19088,0.27736,0.18182,0,0.00045511,4547.9,0.00016397,164.77,0.00014179,-1.8737,-0.0004521,-4464.2,0.00020911
19089,0.36981,0.18182,0.05,1.2125e-05,121.17,9.3106e-06,69.956,-7.1332e-12,-9.2613e-05,-9.3106e-06,-69.956,0.00036979
19090,0.36981,0.090909,0,0.00049393,4935.9,0.00017514,131.99,0.00015443,-23.623,-0.00049191,-4879.9,0.00029901
19091,0.18491,5.7273,0,0.0004264,4261.1,0.00019629,448.22,8.2144e-05,-409.44,-0.00041921,-4176.4,0.00011826
19092,0.18491,5.8182,0.05,2.9389e-05,293.68,2.2567e-05,169.56,-2.2465e-13,-4.7113e-07,-2.2567e-05,-169.56,6.9845e-05
19093,0.18491,5.9091,0,0.00038573,3854.7,0.00014155,223.97,0.00012356,88.818,-0.00038023,-3696.5,5.3258e-05
19094,0.092453,5.8182,0,0.00027158,2713.9,8.4311e-05,-400.55,6.1604e-05,-571.16,-0.00028771,-3195.7,2.6531e-05
19095,0.18491,5.5455,0,0.00048816,4878.2,0.00026156,676.48,3.2807e-05,-1042.3,-0.0004711,-4828.4,0.00015695
19096,0.18491,5.6364,0.05,1.8749e-05,187.36,1.4397e-05,108.17,-3.0538e-21,1.7811e-06,-1.4397e-05,-108.17,0.00011705
19097,0.092453,5.6364,0,0.00034121,3409.8,0.00011858,-831.52,2.1228e-05,-1563,-0.00037601,-4547.7,4.3858e-05
19098,0.18491,5.3636,0,0.00054807,5476.9,0.00030404,786.23,1.5512e-05,-1381.7,-0.000525,-5442.8,0.00018043
19099,0.18491,5.4545,0.05,1.2719e-05,127.1,9.7668e-06,73.384,-2.0717e-21,-1.5566e-14,-9.7668e-06,-73.384,0.00014259
19100,0.092453,5.4545,0,0.00039919,3989.1,0.00014359,-1028.7,9.0632e-06,-2039.5,-0.00044165,-5426,5.3387e-05
19101,0.18491,5.1818,0,0.00059372,5933.2,0.00033312,856.53,8.2665e-06,-1584.3,-0.00056715,-5907.7,0.000196
19102,0.18491,5.2727,0.05,9.7331e-06,97.264,7.4738e-06,56.155,-1.5853e-21,-3.5331e-06,-7.4738e-06,-56.155,0.00015841
19103,0.092453,5.2727,0,0.00044075,4404.5,0.00016066,-1145.1,4.5699e-06,-2317.9,-0.00048779,-6017.3,5.9363e-05
19104,0.18491,5,0,0.00062797,6275.3,0.00035377,903.79,4.966e-06,-1717,-0.00059929,-6257.1,0.000207
19105,0.18491,5.0909,0.05,8.1835e-06,81.779,6.2839e-06,47.215,-2.2736e-13,-9.4684e-06,-6.2839e-06,-47.215,0.0001692
19106,0.092453,5.0909,0,0.00047065,4703.3,0.00017255,-1223.7,2.6748e-06,-2500.1,-0.00052082,-6433.4,6.3399e-05
19107,0.18491,4.8182,0,0.00065393,6534.8,0.00036904,938.15,3.2184e-06,-1810.5,-0.00062385,-6522,0.00021508
19108,0.18491,4.9091,0.05,7.1255e-06,71.206,5.4715e-06,41.111,-1.1606e-21,-5.5125e-06,-5.4715e-06,-41.111,0.00017694
19109,0.092453,4.9091,0,0.00049278,4924.4,0.00018127,-1279.6,1.697e-06,-2628.8,-0.00054519,-6738,6.6289e-05
19110,0.18491,4.6364,0,0.00067391,6734.4,0.00038061,963.74,2.2146e-06,-1879.4,-0.00064283,-6726,0.00022118
19111,0.18491,4.7273,0.05,6.3537e-06,63.493,4.8788e-06,36.658,-2.2413e-12,-1.6868e-06,-4.8788e-06,-36.658,0.00018271
19112,0.092453,4.7273,0,0.00050952,5091.7,0.00018781,-1321.1,1.1528e-06,-2723.6,-0.00056362,-6967,6.8435e-05
19113,0.18491,4.4545,0,0.00068944,6889.7,0.00038953,983.26,1.595e-06,-1931.5,-0.00065763,-6884.7,0.00022587
19114,0.18491,4.5455,0.05,5.7642e-06,57.603,4.4262e-06,33.257,-3.1344e-13,-1.4567e-05,-4.4262e-06,-33.257,0.0001871
19115,0.092453,4.5455,0,0.00052241,5220.5,0.00019283,-1352.5,8.2158e-07,-2795.2,-0.00057779,-7142.6,7.0066e-05
19116,0.18491,4.2727,0,0.0007016,7011.2,0.00039647,998.33,1.1941e-06,-1971.6,-0.00066925,-7009,0.00022952
19117,0.18491,4.3636,0.05,5.3043e-06,53.006,4.073e-06,30.603,-1.1189e-12,-1.5118e-05,-4.073e-06,-30.603,0.0001905
19118,0.092453,4.3636,0,0.00053243,5320.7,0.00019672,-1376.8,6.0954e-07,-2850.3,-0.0005888,-7278.9,7.1324e-05
19119,0.18491,4.0909,0,0.00071112,7106.3,0.00040187,1010,9.2532e-07,-2002.6,-0.00067835,-7106.4,0.00023235
19120,0.18491,4.1818,0.05,4.942e-06,49.386,3.7948e-06,28.513,-8.9006e-13,-2.8672e-05,-3.7948e-06,-28.513,0.00019313
19121,0.092453,4.1818,0,0.00054027,5398.9,0.00019976,-1395.6,4.6821e-07,-2893,-0.00059741,-7385.2,7.23e-05
19122,0.18491,3.9091,0,0.00071853,7180.3,0.00040606,1019,7.4131e-07,-2026.4,-0.00068544,-7182.1,0.00023454
19123,0.18491,4,0.05,4.6568e-06,46.536,3.5759e-06,26.868,-2.6779e-14,-3.3485e-05,-3.5759e-06,-26.868,0.00019518
19124,0.092453,4,0,0.00054637,5460,0.00020212,-1410.2,3.7156e-07,-2926,-0.00060411,-7467.9,7.3057e-05
19125,0.18491,3.7273,0,0.00072418,7236.8,0.00040925,1025.8,6.1444e-07,-2044.5,-0.00069085,-7239.9,0.0002362
19126,0.18491,3.8182,0.05,4.4351e-06,44.32,3.4056e-06,25.588,3.6088e-15,-1.538e-05,-3.4056e-06,-25.588,0.00019675
19127,0.092453,3.8182,0,0.00055108,5507,0.00020394,-1421.3,3.0459e-07,-2951.4,-0.00060927,-7531.5,7.3638e-05
19128,0.18491,3.5455,0,0.00072834,7278.3,0.0004116,1030.8,5.2811e-07,-2057.8,-0.00069484,-7282.5,0.00023743
19129,0.18491,3.6364,0.05,4.267e-06,42.641,3.2765e-06,24.619,5.9723e-14,-4.4507e-07,-3.2765e-06,-24.619,0.00019792
19130,0.092453,3.6364,0,0.00055461,5542.3,0.00020531,-1429.7,2.5834e-07,-2970.4,-0.00061315,-7579.3,7.4074e-05
19131,0.18491,3.3636,0,0.00073119,7306.9,0.0004132,1034.3,4.7225e-07,-2066.8,-0.00069758,-7311.7,0.00023827
19132,0.18491,3.4545,0.05,4.146e-06,41.432,3.1837e-06,23.921,9.0674e-14,-2.107e-07,-3.1837e-06,-23.921,0.00019876
19133,0.092453,3.4545,0,0.00055714,5567.5,0.00020629,-1435.7,2.2734e-07,-2983.9,-0.00061592,-7613.5,7.4384e-05
19134,0.18491,3.1818,0,0.00073286,7323.5,0.00041414,1036.3,4.4084e-07,-2072.1,-0.00069918,-7328.8,0.00023876
19135,0.18491,3.2727,0.05,4.0677e-06,40.649,3.1235e-06,23.469,9.9023e-14,-1.5239e-05,-3.1235e-06,-23.469,0.0001993
19136,0.092453,3.2727,0,0.00055876,5583.8,0.00020692,-1439.5,2.0824e-07,-2992.6,-0.00061771,-7635.4,7.4584e-05
19137,0.18491,3,0,0.00073341,7329,0.00041445,1036.9,4.3071e-07,-2073.9,-0.0006997,-7334.4,0.00023892
19138,0.18491,3.0909,0.05,4.0292e-06,40.264,3.0939e-06,23.246,1.4563e-13,-4.5784e-05,-3.0939e-06,-23.247,0.00019957
19139,0.092453,3.0909,0,0.00055956,5591.7,0.00020723,-1441.4,1.9913e-07,-2996.9,-0.00061858,-7646.2,7.4681e-05
19140,0.18491,2.8182,0,0.00073286,7323.5,0.00041414,1036.3,4.4084e-07,-2072.1,-0.00069918,-7328.8,0.00023876
19141,0.18491,2.9091,0.05,4.0292e-06,40.264,3.0939e-06,23.246,1.5531e-13,-6.1069e-05,-3.0939e-06,-23.246,0.00019957
19142,0.092453,2.9091,0,0.00055956,5591.7,0.00020723,-1441.4,1.9913e-07,-2996.9,-0.00061858,-7646.2,7.4681e-05
19143,0.18491,2.6364,0,0.00073119,7306.9,0.0004132,1034.3,4.7225e-07,-2066.8,-0.00069758,-7311.7,0.00023827
19144,0.18491,2.7273,0.05,4.0677e-06,40.649,3.1235e-06,23.469,1.1354e-13,-4.5607e-07,-3.1235e-06,-23.469,0.0001993
19145,0.092453,2.7273,0,0.00055876,5583.8,0.00020692,-1439.5,2.0824e-07,-2992.6,-0.00061771,-7635.4,7.4584e-05
19146,0.18491,2.4545,0,0.00072834,7278.3,0.0004116,1030.8,5.2811e-07,-2057.8,-0.00069484,-7282.5,0.00023743
19147,0.18491,2.5455,0.05,4.146e-06,41.432,3.1836e-06,23.921,3.6783e-14,-3.0615e-05,-3.1837e-06,-23.921,0.00019876
19148,0.092453,2.5455,0,0.00055714,5567.5,0.00020629,-1435.7,2.2734e-07,-2983.9,-0.00061592,-7613.5,7.4384e-05
19149,0.18491,2.2727,0,0.00072418,7236.8,0.00040925,1025.8,6.1444e-07,-2044.5,-0.00069085,-7239.9,0.0002362
19150,0.18491,2.3636,0.05,4.267e-06,42.641,3.2765e-06,24.619,7.7147e-14,-3.9193e-06,-3.2765e-06,-24.619,0.00019792
19151,0.092453,2.3636,0,0.00055461,5542.3,0.00020531,-1429.7,2.5834e-07,-2970.4,-0.00061315,-7579.3,7.4074e-05
19152,0.18491,2.0909,0,0.00071853,7180.3,0.00040606,1019,7.4131e-07,-2026.4,-0.00068544,-7182.1,0.00023454
19153,0.18491,2.1818,0.05,4.4351e-06,44.32,3.4056e-06,25.588,-2.7418e-13,-2.1231e-05,-3.4056e-06,-25.588,0.00019675
19154,0.092453,2.1818,0,0.00055108,5507,0.00020394,-1421.3,3.0459e-07,-2951.4,-0.00060927,-7531.5,7.3638e-05
19155,0.18491,1.9091,0,0.00071112,7106.3,0.00040187,1010,9.2532e-07,-2002.6,-0.00067835,-7106.4,0.00023235
19156,0.18491,2,0.05,4.6568e-06,46.536,3.5759e-06,26.868,-5.2515e-13,-1.6146e-05,-3.5759e-06,-26.868,0.00019518
19157,0.092453,2,0,0.00054637,5460,0.00020212,-1410.2,3.7156e-07,-2926,-0.00060411,-7467.9,7.3057e-05
19158,0.18491,1.7273,0,0.0007016,7011.2,0.00039647,998.33,1.1941e-06,-1971.6,-0.00066925,-7009,0.00022952
19159,0.18491,1.8182,0.05,4.942e-06,49.386,3.7948e-06,28.513,-1.0652e-13,-2.2838e-05,-3.7948e-06,-28.513,0.00019313
19160,0.092453,1.8182,0,0.00054027,5398.9,0.00019976,-1395.6,4.6821e-07,-2893,-0.00059741,-7385.2,7.23e-05
19161,0.18491,1.5455,0,0.00068944,6889.7,0.00038953,983.26,1.595e-06,-1931.5,-0.00065763,-6884.7,0.00022587
19162,0.18491,1.6364,0.05,5.3043e-06,53.006,4.073e-06,30.603,-1.2795e-12,-3.8714e-05,-4.073e-06,-30.603,0.0001905
19163,0.092453,1.6364,0,0.00053243,5320.7,0.00019672,-1376.8,6.0954e-07,-2850.3,-0.0005888,-7278.9,7.1324e-05
19164,0.18491,1.3636,0,0.00067391,6734.4,0.00038061,963.74,2.2146e-06,-1879.4,-0.00064283,-6726,0.00022118
19165,0.18491,1.4545,0.05,5.7642e-06,57.603,4.4262e-06,33.257,-5.2186e-13,-1.9088e-05,-4.4262e-06,-33.257,0.0001871
19166,0.092453,1.4545,0,0.00052241,5220.5,0.00019283,-1352.5,8.2158e-07,-2795.2,-0.00057779,-7142.6,7.0066e-05
19167,0.18491,1.1818,0,0.00065393,6534.8,0.00036904,938.15,3.2184e-06,-1810.5,-0.00062385,-6522,0.00021508
19168,0.18491,1.2727,0.05,6.3537e-06,63.493,4.8788e-06,36.658,-2.5319e-12,-5.1324e-05,-4.8788e-06,-36.658,0.00018271
19169,0.092453,1.2727,0,0.00050952,5091.7,0.00018781,-1321.1,1.1528e-06,-2723.6,-0.00056362,-6967,6.8435e-05
19170,0.18491,1,0,0.00062797,6275.3,0.00035377,903.79,4.966e-06,-1717,-0.00059929,-6257.1,0.000207
19171,0.18491,1.0909,0.05,7.1255e-06,71.206,5.4715e-06,41.111,-4.1085e-12,-3.0375e-05,-5.4715e-06,-41.111,0.00017694
19172,0.092453,1.0909,0,0.00049278,4924.4,0.00018127,-1279.6,1.697e-06,-2628.8,-0.00054519,-6738,6.6289e-05
19173,0.18491,0.81818,0,0.00059372,5933.2,0.00033312,856.53,8.2665e-06,-1584.3,-0.00056715,-5907.7,0.000196
19174,0.18491,0.90909,0.05,8.1835e-06,81.779,6.2839e-06,47.215,-8.8501e-12,-8.8147e-05,-6.2839e-06,-47.215,0.0001692
19175,0.092453,0.90909,0,0.00047065,4703.3,0.00017255,-1223.7,2.6748e-06,-2500.1,-0.00052082,-6433.4,6.3399e-05
19176,0.18491,0.63636,0,0.00054807,5476.9,0.00030404,786.23,1.5512e-05,-1381.7,-0.000525,-5442.8,0.00018043
19177,0.18491,0.72727,0.05,9.7331e-06,97.264,7.4738e-06,56.155,-6.4466e-12,-0.00010769,-7.4738e-06,-56.155,0.00015841
19178,0.092453,0.72727,0,0.00044075,4404.5,0.00016066,-1145.1,4.5699e-06,-2317.9,-0.00048779,-6017.3,5.9363e-05
19179,0.18491,0.45455,0,0.00048816,4878.2,0.00026156,676.48,3.2807e-05,-1042.3,-0.0004711,-4828.4,0.00015695
19180,0.18491,0.54545,0.05,1.2719e-05,127.1,9.7668e-06,73.384,-1.2548e-12,-0.00012225,-9.7668e-06,-73.384,0.00014259
19181,0.092453,0.54545,0,0.00039919,3989.1,0.00014359,-1028.7,9.0632e-06,-2039.5,-0.00044165,-5426,5.3387e-05
19182,0.18491,0.27273,0,0.0004264,4261.1,0.00019629,448.22,8.2144e-05,-409.44,-0.00041921,-4176.4,0.00011826
19183,0.18491,0.36364,0.05,1.8749e-05,187.36,1.4397e-05,108.17,-1.348e-11,-0.00011546,-1.4397e-05,-108.17,0.00011705
19184,0.092453,0.36364,0,0.00034121,3409.8,0.00011858,-831.52,2.1228e-05,-1563,-0.00037601,-4547.7,4.3858e-05
19185,0.18491,0.18182,0.05,2.9389e-05,293.68,2.2567e-05,169.56,-5.3519e-12,-7.6887e-05,-2.2567e-05,-169.56,6.9845e-05
19186,0.18491,0.090909,0,0.00038573,3854.7,0.00014155,223.97,0.00012356,88.818,-0.00038023,-3696.5,5.3258e-05
19187,0.092453,0.18182,0,0.00027158,2713.9,8.4311e-05,-400.55,6.1604e-05,-571.16,-0.00028771,-3195.7,2.6531e-05
19188,19.951,0.27273,0,1.7427e-05,174.15,8.199e-06,27.915,3.9799e-06,-3.786,-1.6799e-05,-159.91,1.6963
19189,20.043,0.18182,0,1.7176e-05,171.64,7.2375e-06,16.875,4.4798e-06,-3.8453,-1.686e-05,-164.18,1.7093
19190,19.951,0.18182,0.05,1.8626e-06,18.613,1.4302e-06,10.746,6.9302e-13,8.2954e-06,-1.4302e-06,-10.746,1.6962
19191,19.951,0.090909,0,1.1007e-05,109.99,4.4047e-06,7.7848,3.0075e-06,-2.713,-1.0883e-05,-107.08,1.6962
19192,19.859,0.18182,0,1.0097e-05,100.9,4.0432e-06,8.2818,2.8637e-06,-0.58086,-9.9369e-06,-96.76,1.6832
19193,19.951,0.45455,0,2.499e-05,249.73,1.2419e-05,50.205,5.428e-06,-2.3223,-2.3758e-05,-221.61,1.6965
19194,20.043,0.36364,0,2.1855e-05,218.4,9.3068e-06,23.921,5.7566e-06,-2.7542,-2.1372e-05,-206.59,1.7095
19195,19.951,0.36364,0.05,1.7143e-06,17.131,1.3163e-06,9.8904,1.4494e-12,1.2418e-05,-1.3163e-06,-9.8904,1.6964
19196,19.859,0.36364,0,1.6716e-05,167.04,7.4553e-06,24.026,4.3314e-06,0.55383,-1.6173e-05,-153.51,1.6834
19197,19.951,0.63636,0,3.396e-05,339.37,1.7788e-05,80.603,6.797e-06,-1.9809,-3.186e-05,-292.43,1.6967
19198,20.043,0.54545,0,2.8935e-05,289.15,1.3216e-05,43.825,7.1259e-06,-1.9363,-2.7949e-05,-265.48,1.7096
19199,19.951,0.54545,0.05,1.8813e-06,18.8,1.4446e-06,10.854,1.1294e-12,1.3594e-05,-1.4446e-06,-10.854,1.6966
19200,19.859,0.54545,0,2.3997e-05,239.8,1.1668e-05,46.401,5.5396e-06,0.35206,-2.2867e-05,-213.08,1.6836
19201,19.951,0.81818,0,4.4296e-05,442.65,2.4031e-05,116.26,8.3012e-06,-1.9345,-4.1151e-05,-373.5,1.6969
19202,20.043,0.72727,0,3.7456e-05,374.3,1.8081e-05,69.538,8.6145e-06,-1.5898,-3.5789e-05,-335.22,1.7098
19203,19.951,0.72727,0.05,2.18e-06,21.785,1.6739e-06,12.577,7.8011e-13,9.9996e-06,-1.6739e-06,-12.577,1.6968
19204,19.859,0.72727,0,3.2023e-05,320.01,1.6377e-05,72.142,6.8225e-06,0.35508,-3.018e-05,-277.67,1.6838
19205,19.951,1,0,5.6573e-05,565.34,3.1407e-05,157.95,1.0088e-05,-2.2231,-5.2194e-05,-470.19,1.6971
19206,20.043,0.90909,0,4.7518e-05,474.85,2.3783e-05,99.24,1.0368e-05,-1.5505,-4.5046e-05,-417.92,1.71
19207,19.951,0.90909,0.05,2.6157e-06,26.139,2.0085e-06,15.091,9.4545e-13,1.2695e-05,-2.0085e-06,-15.091,1.697
19208,19.859,0.90909,0,4.1244e-05,412.15,2.1791e-05,101.9,8.2851e-06,0.41908,-3.8555e-05,-351.52,1.684
19209,19.951,1.1818,0,7.18e-05,717.51,4.043e-05,208.13,1.2398e-05,-2.495,-6.5943e-05,-591.12,1.6973
19210,20.043,1.0909,0,5.9615e-05,595.74,3.0476e-05,132.77,1.2566e-05,-1.7971,-5.6235e-05,-518.74,1.7102
19211,19.951,1.0909,0.05,3.2283e-06,32.261,2.4789e-06,18.626,8.8288e-13,1.5867e-05,-2.4789e-06,-18.626,1.6972
19212,19.859,1.0909,0,5.2319e-05,522.83,2.8283e-05,137.35,1.0023e-05,0.15125,-4.8611e-05,-440.39,1.6842
19213,19.951,1.3636,0,9.1651e-05,915.88,5.1893e-05,268.79,1.5543e-05,-4.3351,-8.4043e-05,-752.59,1.6975
19214,20.043,1.2727,0,7.4645e-05,745.93,3.8492e-05,170.7,1.5516e-05,-1.9332,-7.0259e-05,-646.42,1.7104
19215,19.951,1.2727,0.05,4.1545e-06,41.516,3.1901e-06,23.969,4.2907e-13,1.1204e-05,-3.1901e-06,-23.969,1.6974
19216,19.859,1.2727,0,6.6327e-05,662.82,3.6349e-05,181.09,1.24e-05,1.1483,-6.1368e-05,-553.12,1.6844
19217,19.951,1.5455,0,0.00011989,1198.1,6.7752e-05,351.18,2.0565e-05,-3.3672,-0.00010997,-984.14,1.6977
19218,20.043,1.4545,0,9.3936e-05,938.71,4.8125e-05,209.84,1.9655e-05,-4.0657,-8.8588e-05,-817.36,1.7106
19219,19.951,1.4545,0.05,5.3846e-06,53.809,4.1347e-06,31.067,5.3253e-13,6.1738e-06,-4.1347e-06,-31.067,1.6976
19220,19.859,1.4545,0,8.5323e-05,852.65,4.7505e-05,240.19,1.5131e-05,-3.0512,-7.8644e-05,-707.65,1.6847
19221,19.951,1.7273,0,0.00016186,1617.5,8.6358e-05,398.75,3.0642e-05,-19.881,-0.0001513,-1386.9,1.698
19222,20.043,1.6364,0,0.00012022,1201.4,6.0148e-05,252.23,2.6399e-05,-1.3468,-0.00011393,-1055.7,1.7108
19223,19.951,1.6364,0.05,8.2353e-06,82.297,6.3237e-06,47.514,1.511e-12,1.3807e-05,-6.3237e-06,-47.514,1.6978
19224,19.859,1.6364,0,0.00011153,1114.6,6.0183e-05,298.8,2.2231e-05,13.644,-0.00010345,-930.66,1.6849
19225,19.951,1.9091,0,0.00021131,2111.6,9.7683e-05,296.43,4.7417e-05,-81.251,-0.0002051,-1978.5,1.6982
19226,20.043,1.8182,0,0.00015882,1587.1,7.2765e-05,237.55,3.8384e-05,-20.765,-0.00015354,-1462.8,1.711
19227,19.951,1.8182,0.05,1.3978e-05,139.68,1.0733e-05,80.646,8.4854e-13,2.0803e-05,-1.0733e-05,-80.646,1.6981
19228,19.859,1.8182,0,0.00016282,1627.1,9.5088e-05,486.4,2.2158e-05,-61.573,-0.00014852,-1344,1.6852
19229,19.951,2.0909,0,0.00024058,2404.1,9.3334e-05,137.13,6.79e-05,-53.961,-0.00023859,-2356.8,1.6985
19230,20.043,2,0,0.00019663,1964.9,7.6006e-05,103.54,5.518e-05,-52.939,-0.0001953,-1934.9,1.7112
19231,19.951,2,0.05,2.4096e-05,240.8,1.8503e-05,139.02,2.4991e-12,2.6355e-06,-1.8503e-05,-139.02,1.6983
19232,19.859,2,0,0.00036199,3617.4,0.00014537,215.42,9.4078e-05,-169.94,-0.00035968,-3579.3,1.6855
19233,19.951,2.2727,0,0.0002411,2409.3,9.2281e-05,146.87,7.1186e-05,-11.632,-0.0002384,-2337.8,1.6987
19234,20.043,2.1818,0,0.00021321,2130.7,7.7428e-05,75.75,6.5232e-05,-15.887,-0.00021205,-2099.3,1.7114
19235,19.951,2.1818,0.05,1.6273e-05,162.61,1.2495e-05,93.885,-3.0013e-13,8.1453e-06,-1.2495e-05,-93.885,1.6986
19236,19.951,2.4545,0,0.00022727,2271.1,9.0053e-05,181.2,6.5674e-05,-1.9804,-0.00022366,-2175.9,1.6989
19237,20.043,2.3636,0,0.0002108,2106.5,7.9252e-05,113.78,6.3397e-05,-5.35,-0.0002087,-2049.8,1.7116
19238,19.951,2.3636,0.05,7.027e-06,70.221,5.3958e-06,40.542,-7.4712e-13,-1.8072e-05,-5.3958e-06,-40.542,1.6988
19239,19.951,2.6364,0,0.00021345,2133,8.5565e-05,183.49,6.1171e-05,0.20348,-0.00020973,-2035.3,1.699
19240,20.043,2.5455,0,0.00020193,2017.9,7.7464e-05,130.89,6.0058e-05,0.10661,-0.00019938,-1949.2,1.7118
19241,19.951,2.5455,0.05,3.9198e-06,39.171,3.0099e-06,22.615,-1.2477e-12,-8.0504e-06,-3.0099e-06,-22.615,1.699
19242,19.951,2.8182,0,0.00020585,2057,8.3077e-05,183.56,5.8611e-05,-0.27111,-0.00020211,-1959.2,1.6991
19243,20.043,2.7273,0,0.00019546,1953.2,7.6009e-05,138.99,5.7465e-05,-0.34004,-0.00019273,-1880.2,1.7118
19244,19.951,2.7273,0.05,2.4366e-06,24.349,1.871e-06,14.058,-5.6885e-13,-1.4937e-05,-1.871e-06,-14.058,1.6991
19245,19.951,3,0,0.0002034,2032.5,8.2208e-05,183.04,5.7854e-05,0.052767,-0.00019966,-1934.8,1.6991
19246,20.043,2.9091,0,0.00019217,1920.4,7.5142e-05,141.92,5.6261e-05,0.048798,-0.00018936,-1845.5,1.7119
19247,19.951,2.9091,0.05,1.9344e-06,19.331,1.4854e-06,11.161,-1.1275e-12,-1.5207e-05,-1.4854e-06,-11.161,1.6991
19248,19.951,3.1818,0,0.00020585,2057,8.3077e-05,183.56,5.8611e-05,-0.27111,-0.00020211,-1959.2,1.6991
19249,20.043,3.0909,0,0.00019217,1920.4,7.5142e-05,141.92,5.6261e-05,0.048797,-0.00018936,-1845.5,1.7119
19250,19.951,3.0909,0.05,1.9344e-06,19.331,1.4854e-06,11.161,-6.4906e-13,-2.1068e-05,-1.4854e-06,-11.161,1.6991
19251,19.951,3.3636,0,0.00021345,2133,8.5565e-05,183.49,6.1171e-05,0.20348,-0.00020973,-2035.3,1.699
19252,20.043,3.2727,0,0.00019546,1953.2,7.6009e-05,138.99,5.7465e-05,-0.34004,-0.00019273,-1880.2,1.7118
19253,19.951,3.2727,0.05,2.4366e-06,24.349,1.871e-06,14.058,-4.9821e-13,-1.9438e-05,-1.871e-06,-14.058,1.6991
19254,19.951,3.5455,0,0.00022727,2271.1,9.0053e-05,181.2,6.5674e-05,-1.9804,-0.00022366,-2175.9,1.6989
19255,20.043,3.4545,0,0.00020193,2017.9,7.7464e-05,130.89,6.0058e-05,0.1066,-0.00019938,-1949.2,1.7118
19256,19.951,3.4545,0.05,3.9198e-06,39.171,3.0099e-06,22.615,-2.3984e-13,-2.3529e-05,-3.0099e-06,-22.615,1.699
19257,19.951,3.7273,0,0.0002411,2409.3,9.2281e-05,146.87,7.1186e-05,-11.632,-0.0002384,-2337.8,1.6987
19258,20.043,3.6364,0,0.0002108,2106.5,7.9252e-05,113.78,6.3397e-05,-5.35,-0.0002087,-2049.8,1.7116
19259,19.951,3.6364,0.05,7.027e-06,70.221,5.3958e-06,40.542,-3.6108e-14,-3.3108e-05,-5.3958e-06,-40.542,1.6988
19260,19.951,3.9091,0,0.00024058,2404.1,9.3334e-05,137.13,6.79e-05,-53.961,-0.00023859,-2356.8,1.6985
19261,20.043,3.8182,0,0.00021321,2130.7,7.7428e-05,75.75,6.5232e-05,-15.887,-0.00021205,-2099.3,1.7114
19262,19.951,3.8182,0.05,1.6273e-05,162.61,1.2495e-05,93.885,2.3344e-12,-2.8643e-05,-1.2495e-05,-93.885,1.6986
19263,19.951,4.0909,0,0.00021131,2111.6,9.7683e-05,296.43,4.7417e-05,-81.251,-0.0002051,-1978.5,1.6982
19264,20.043,4,0,0.00019663,1964.9,7.6006e-05,103.54,5.518e-05,-52.939,-0.0001953,-1934.9,1.7112
19265,19.951,4,0.05,2.4096e-05,240.8,1.8503e-05,139.02,-4.3868e-13,-5.2196e-05,-1.8503e-05,-139.02,1.6983
19266,19.859,4,0,0.00036199,3617.4,0.00014537,215.42,9.4078e-05,-169.94,-0.00035968,-3579.3,1.6855
19267,19.951,4.2727,0,0.00016186,1617.5,8.6358e-05,398.75,3.0642e-05,-19.881,-0.0001513,-1386.9,1.698
19268,20.043,4.1818,0,0.00015882,1587.1,7.2765e-05,237.55,3.8385e-05,-20.765,-0.00015354,-1462.8,1.711
19269,19.951,4.1818,0.05,1.3978e-05,139.68,1.0733e-05,80.646,-6.6642e-12,-8.0817e-05,-1.0733e-05,-80.646,1.6981
19270,19.859,4.1818,0,0.00016282,1627.1,9.5088e-05,486.4,2.2158e-05,-61.573,-0.00014852,-1344,1.6852
19271,19.951,4.4545,0,0.00011989,1198.1,6.7752e-05,351.18,2.0565e-05,-3.3672,-0.00010997,-984.14,1.6977
19272,20.043,4.3636,0,0.00012022,1201.4,6.0148e-05,252.23,2.6399e-05,-1.3468,-0.00011393,-1055.7,1.7108
19273,19.951,4.3636,0.05,8.2353e-06,82.297,6.3237e-06,47.514,-1.6134e-12,-1.0852e-05,-6.3237e-06,-47.514,1.6978
19274,19.859,4.3636,0,0.00011153,1114.6,6.0183e-05,298.8,2.2231e-05,13.644,-0.00010345,-930.66,1.6849
19275,19.951,4.6364,0,9.1651e-05,915.88,5.1893e-05,268.79,1.5543e-05,-4.3351,-8.4043e-05,-752.59,1.6975
19276,20.043,4.5455,0,9.3936e-05,938.71,4.8124e-05,209.84,1.9655e-05,-4.0657,-8.8588e-05,-817.36,1.7106
19277,19.951,4.5455,0.05,5.3846e-06,53.809,4.1347e-06,31.067,-5.3848e-14,-8.4904e-06,-4.1347e-06,-31.067,1.6976
19278,19.859,4.5455,0,8.5324e-05,852.65,4.7505e-05,240.19,1.5131e-05,-3.0512,-7.8644e-05,-707.65,1.6847
19279,19.951,4.8182,0,7.18e-05,717.51,4.043e-05,208.13,1.2398e-05,-2.495,-6.5943e-05,-591.12,1.6973
19280,20.043,4.7273,0,7.4645e-05,745.93,3.8492e-05,170.7,1.5516e-05,-1.9332,-7.0259e-05,-646.42,1.7104
19281,19.951,4.7273,0.05,4.1545e-06,41.516,3.1901e-06,23.969,1.1461e-13,-8.1868e-06,-3.1901e-06,-23.969,1.6974
19282,19.859,4.7273,0,6.6327e-05,662.82,3.6349e-05,181.09,1.24e-05,1.1483,-6.1368e-05,-553.12,1.6844
19283,19.951,5,0,5.6573e-05,565.34,3.1407e-05,157.95,1.0088e-05,-2.2231,-5.2194e-05,-470.19,1.6971
19284,20.043,4.9091,0,5.9615e-05,595.74,3.0476e-05,132.77,1.2566e-05,-1.7971,-5.6235e-05,-518.74,1.7102
19285,19.951,4.9091,0.05,3.2283e-06,32.261,2.4789e-06,18.626,4.5475e-13,5.0711e-06,-2.4789e-06,-18.626,1.6972
19286,19.859,4.9091,0,5.2319e-05,522.83,2.8283e-05,137.35,1.0023e-05,0.15125,-4.8611e-05,-440.4,1.6842
19287,19.951,5.1818,0,4.4296e-05,442.65,2.4031e-05,116.26,8.3012e-06,-1.9345,-4.1151e-05,-373.5,1.6969
19288,20.043,5.0909,0,4.7518e-05,474.85,2.3783e-05,99.24,1.0368e-05,-1.5505,-4.5046e-05,-417.92,1.71
19289,19.951,5.0909,0.05,2.6157e-06,26.139,2.0085e-06,15.091,2.432e-13,2.9274e-06,-2.0085e-06,-15.091,1.697
19290,19.859,5.0909,0,4.1244e-05,412.15,2.1791e-05,101.9,8.2851e-06,0.41908,-3.8555e-05,-351.52,1.684
19291,19.951,5.3636,0,3.396e-05,339.37,1.7788e-05,80.603,6.797e-06,-1.9809,-3.186e-05,-292.43,1.6967
19292,20.043,5.2727,0,3.7456e-05,374.3,1.8081e-05,69.538,8.6145e-06,-1.5898,-3.5789e-05,-335.22,1.7098
19293,19.951,5.2727,0.05,2.18e-06,21.785,1.6739e-06,12.577,2.5686e-13,6.6717e-06,-1.6739e-06,-12.577,1.6968
19294,19.859,5.2727,0,3.2023e-05,320.01,1.6377e-05,72.142,6.8225e-06,0.35508,-3.018e-05,-277.67,1.6838
19295,19.951,5.5455,0,2.499e-05,249.73,1.2419e-05,50.205,5.428e-06,-2.3223,-2.3758e-05,-221.61,1.6965
19296,20.043,5.4545,0,2.8935e-05,289.15,1.3216e-05,43.825,7.1259e-06,-1.9363,-2.7949e-05,-265.48,1.7096
19297,19.951,5.4545,0.05,1.8813e-06,18.8,1.4446e-06,10.854,4.2898e-13,4.3361e-06,-1.4446e-06,-10.854,1.6966
19298,19.859,5.4545,0,2.3997e-05,239.8,1.1668e-05,46.401,5.5396e-06,0.35206,-2.2867e-05,-213.08,1.6836
19299,19.951,5.7273,0,1.7427e-05,174.15,8.199e-06,27.915,3.9799e-06,-3.786,-1.6799e-05,-159.91,1.6963
19300,20.043,5.6364,0,2.1855e-05,218.4,9.3068e-06,23.921,5.7566e-06,-2.7542,-2.1372e-05,-206.59,1.7095
19301,19.951,5.6364,0.05,1.7143e-06,17.131,1.3163e-06,9.8904,1.0027e-13,5.3761e-06,-1.3163e-06,-9.8904,1.6964
19302,19.859,5.6364,0,1.6716e-05,167.04,7.4553e-06,24.026,4.3314e-06,0.55383,-1.6173e-05,-153.51,1.6834
19303,20.043,5.8182,0,1.7176e-05,171.64,7.2375e-06,16.875,4.4798e-06,-3.8453,-1.686e-05,-164.18,1.7093
19304,19.951,5.8182,0.05,1.8626e-06,18.613,1.4302e-06,10.746,1.1224e-13,3.4817e-06,-1.4302e-06,-10.746,1.6962
19305,19.951,5.9091,0,1.1007e-05,109.99,4.4047e-06,7.7848,3.0075e-06,-2.713,-1.0883e-05,-107.08,1.6962
19306,19.859,5.8182,0,1.0097e-05,100.9,4.0432e-06,8.2818,2.8637e-06,-0.58086,-9.9369e-06,-96.76,1.6832
19307,20.135,0.27273,0,2.2203e-05,221.88,8.7585e-06,15.986,6.3233e-06,-2.3109,-2.1914e-05,-214.47,1.7224
19308,20.227,0.18182,0,2.3869e-05,238.53,9.2968e-06,16.272,6.925e-06,-1.5484,-2.3569e-05,-230.67,1.7354
19309,20.135,0.18182,0.05,1.5657e-06,15.646,1.2023e-06,9.0333,4.7198e-13,5.4019e-06,-1.2023e-06,-9.0333,1.7223
19310,20.135,0.090909,0,1.8614e-05,186.01,6.7311e-06,7.0203,5.7829e-06,-0.10408,-1.8486e-05,-182.45,1.7222
19311,20.135,0.45455,0,2.6759e-05,267.41,1.0786e-05,22.664,7.5291e-06,-1.8073,-2.632e-05,-256.14,1.7226
19312,20.227,0.36364,0,2.6315e-05,262.97,9.9526e-06,14.103,7.7999e-06,-2.0713,-2.6073e-05,-256.58,1.7355
19313,20.135,0.36364,0.05,1.3363e-06,13.353,1.0261e-06,7.7095,9.5709e-13,1.2568e-05,-1.0261e-06,-7.7095,1.7225
19314,20.135,0.63636,0,3.3471e-05,334.48,1.4256e-05,38.373,8.9805e-06,-1.2666,-3.2663e-05,-314.16,1.7227
19315,20.227,0.54545,0,3.1215e-05,311.94,1.2174e-05,21.635,9.0607e-06,-1.7581,-3.0811e-05,-301.34,1.7357
19316,20.135,0.54545,0.05,1.3739e-06,13.729,1.055e-06,7.9265,1.2161e-12,1.5548e-05,-1.055e-06,-7.9265,1.7226
19317,20.135,0.81818,0,4.1794e-05,417.65,1.862e-05,58.437,1.0708e-05,-1.0108,-4.0498e-05,-385.75,1.7229
19318,20.227,0.72727,0,3.783e-05,378.04,1.5373e-05,34.249,1.0629e-05,-1.3988,-3.7145e-05,-360.35,1.7358
19319,20.135,0.72727,0.05,1.4868e-06,14.857,1.1416e-06,8.5779,1.5986e-12,1.4348e-05,-1.1416e-06,-8.5779,1.7228
19320,20.135,1,0,5.1829e-05,517.93,2.373e-05,80.658,1.2869e-05,-0.95172,-4.9988e-05,-473.23,1.7231
19321,20.227,0.90909,0,4.6004e-05,459.73,1.9287e-05,49.202,1.2568e-05,-1.2827,-4.4981e-05,-433.68,1.736
19322,20.135,0.90909,0.05,1.6725e-06,16.713,1.2843e-06,9.6495,1.0467e-12,1.4776e-05,-1.2843e-06,-9.6495,1.723
19323,20.135,1.1818,0,6.4017e-05,639.73,2.9598e-05,103.31,1.5708e-05,-1.0579,-6.1635e-05,-582.18,1.7233
19324,20.227,1.0909,0,5.5872e-05,558.33,2.3774e-05,64.21,1.5049e-05,-1.3437,-5.4513e-05,-524,1.7362
19325,20.135,1.0909,0.05,1.9458e-06,19.444,1.4941e-06,11.226,1.0304e-12,7.6294e-06,-1.4941e-06,-11.226,1.7232
19326,20.135,1.3636,0,7.8957e-05,789.02,3.6076e-05,121.91,1.9653e-05,-1.4801,-7.618e-05,-721.54,1.7234
19327,20.227,1.2727,0,6.7779e-05,677.32,2.8726e-05,76.486,1.8333e-05,-1.6028,-6.6166e-05,-636.49,1.7363
19328,20.135,1.2727,0.05,2.2901e-06,22.885,1.7585e-06,13.213,1.1977e-12,6.2775e-06,-1.7585e-06,-13.213,1.7233
19329,20.135,1.5455,0,9.7284e-05,972.17,4.2488e-05,125.68,2.5518e-05,-1.8258,-9.4548e-05,-903.95,1.7236
19330,20.227,1.4545,0,8.2123e-05,820.66,3.38e-05,80.069,2.2844e-05,-2.2552,-8.0489e-05,-778.65,1.7365
19331,20.135,1.4545,0.05,2.9093e-06,29.073,2.234e-06,16.786,7.1585e-13,1.9569e-05,-2.234e-06,-16.786,1.7235
19332,20.135,1.7273,0,0.00011991,1198.3,4.8171e-05,103.18,3.419e-05,-1.864,-0.00011784,-1144.2,1.7238
19333,20.227,1.6364,0,9.9229e-05,991.61,3.8295e-05,64.94,2.9163e-05,-3.6773,-9.8009e-05,-959.19,1.7367
19334,20.135,1.6364,0.05,3.3437e-06,33.413,2.5675e-06,19.291,7.1518e-14,1.4386e-05,-2.5675e-06,-19.291,1.7237
19335,20.135,1.9091,0,0.00014399,1438.9,5.061e-05,41.079,4.6028e-05,6.649,-0.00014315,-1414.7,1.724
19336,20.227,1.8182,0,0.00011946,1193.7,4.2273e-05,29.712,3.7287e-05,-7.7525,-0.00011904,-1182.3,1.7368
19337,20.135,1.8182,0.05,5.0426e-06,50.391,3.8721e-06,29.093,1.8047e-12,2.1316e-05,-3.8721e-06,-29.093,1.7239
19338,20.135,2.0909,0,0.00016631,1662,5.6534e-05,15.359,5.3492e-05,-7.4951,-0.00016617,-1657.9,1.7242
19339,20.227,2,0,0.00013952,1394.2,4.8469e-05,8.1075,4.2642e-05,-35.679,-0.00013994,-1407.5,1.737
19340,20.135,2,0.05,4.9708e-06,49.674,3.817e-06,28.679,5.1246e-14,-5.8923e-15,-3.817e-06,-28.679,1.7241
19341,20.135,2.2727,0,0.00018048,1803.6,6.1914e-05,23.99,5.7763e-05,-7.1983,-0.00018018,-1795,1.7244
19342,20.227,2.1818,0,0.0001575,1573.9,5.4201e-05,4.9139,4.8634e-05,-36.916,-0.000158,-1589.5,1.7372
19343,20.135,2.1818,0.05,7.3099e-06,73.048,5.6131e-06,42.174,7.5532e-14,3.1713e-06,-5.6131e-06,-42.174,1.7243
19344,20.135,2.4545,0,0.00018452,1843.9,6.581e-05,57.072,5.7742e-05,-3.5464,-0.00018353,-1816.4,1.7245
19345,20.227,2.3636,0,0.0001667,1665.8,5.6671e-05,12.451,5.3333e-05,-12.629,-0.00016669,-1665.8,1.7373
19346,20.135,2.3636,0.05,5.6855e-06,56.816,4.3658e-06,32.803,-4.9241e-13,-2.0653e-06,-4.3658e-06,-32.803,1.7244
19347,20.135,2.6364,0,0.00018342,1832.9,6.7401e-05,82.58,5.636e-05,-0.37137,-0.00018188,-1790.4,1.7246
19348,20.227,2.5455,0,0.00016931,1692,5.8899e-05,35.302,5.397e-05,-1.7375,-0.00016871,-1674.9,1.7374
19349,20.135,2.5455,0.05,4.2357e-06,42.327,3.2525e-06,24.438,-1.0171e-12,-8.2798e-06,-3.2525e-06,-24.438,1.7245
19350,20.135,2.8182,0,0.00018138,1812.6,6.7681e-05,94.398,5.512e-05,0.02053,-0.00017959,-1763.5,1.7247
19351,20.227,2.7273,0,0.00016905,1689.3,6.0124e-05,52.073,5.3174e-05,-0.14989,-0.0001681,-1662.7,1.7375
19352,20.135,2.7273,0.05,3.1196e-06,31.175,2.3955e-06,17.999,-8.2694e-13,-1.0632e-05,-2.3955e-06,-17.999,1.7246
19353,20.135,3,0,0.00018057,1804.4,6.7705e-05,98.005,5.4674e-05,0.094998,-0.0001787,-1753.4,1.7247
19354,20.227,2.9091,0,0.00016849,1683.8,6.0591e-05,60.112,5.2614e-05,0.17593,-0.00016739,-1652.8,1.7375
19355,20.135,2.9091,0.05,2.6304e-06,26.285,2.0198e-06,15.176,-2.6414e-13,-1.0575e-05,-2.0198e-06,-15.176,1.7247
19356,20.135,3.1818,0,0.00018138,1812.6,6.7681e-05,94.398,5.512e-05,0.020529,-0.00017959,-1763.5,1.7247
19357,20.227,3.0909,0,0.00016849,1683.8,6.0591e-05,60.112,5.2614e-05,0.17593,-0.00016739,-1652.8,1.7375
19358,20.135,3.0909,0.05,2.6304e-06,26.285,2.0198e-06,15.176,2.6669e-13,-9.5287e-06,-2.0198e-06,-15.176,1.7247
19359,20.135,3.3636,0,0.00018342,1832.9,6.7401e-05,82.58,5.636e-05,-0.37138,-0.00018188,-1790.4,1.7246
19360,20.227,3.2727,0,0.00016905,1689.3,6.0124e-05,52.073,5.3174e-05,-0.14989,-0.0001681,-1662.7,1.7375
19361,20.135,3.2727,0.05,3.1196e-06,31.175,2.3955e-06,17.999,7.3012e-13,-1.0336e-05,-2.3955e-06,-17.999,1.7246
19362,20.135,3.5455,0,0.00018452,1843.9,6.581e-05,57.072,5.7742e-05,-3.5464,-0.00018353,-1816.4,1.7245
19363,20.227,3.4545,0,0.00016931,1692,5.8899e-05,35.302,5.397e-05,-1.7375,-0.00016871,-1674.9,1.7374
19364,20.135,3.4545,0.05,4.2357e-06,42.327,3.2525e-06,24.438,7.123e-13,-8.7859e-06,-3.2525e-06,-24.438,1.7245
19365,20.135,3.7273,0,0.00018048,1803.6,6.1914e-05,23.99,5.7763e-05,-7.1983,-0.00018018,-1795,1.7244
19366,20.227,3.6364,0,0.0001667,1665.8,5.6671e-05,12.451,5.3333e-05,-12.629,-0.00016669,-1665.8,1.7373
19367,20.135,3.6364,0.05,5.6855e-06,56.816,4.3658e-06,32.803,1.8335e-12,-7.0023e-06,-4.3658e-06,-32.803,1.7244
19368,20.135,3.9091,0,0.00016631,1662,5.6534e-05,15.359,5.3492e-05,-7.4953,-0.00016617,-1657.9,1.7242
19369,20.227,3.8182,0,0.0001575,1573.9,5.4201e-05,4.9139,4.8634e-05,-36.916,-0.000158,-1589.5,1.7372
19370,20.135,3.8182,0.05,7.3099e-06,73.048,5.6131e-06,42.174,2.5598e-12,-1.4286e-06,-5.6131e-06,-42.174,1.7243
19371,20.135,4.0909,0,0.00014399,1438.9,5.061e-05,41.079,4.6028e-05,6.649,-0.00014315,-1414.7,1.724
19372,20.227,4,0,0.00013952,1394.2,4.8469e-05,8.1075,4.2642e-05,-35.679,-0.00013994,-1407.5,1.737
19373,20.135,4,0.05,4.9708e-06,49.674,3.817e-06,28.679,2.0905e-12,-1.0202e-05,-3.817e-06,-28.679,1.7241
19374,20.135,4.2727,0,0.00011991,1198.3,4.8171e-05,103.18,3.419e-05,-1.864,-0.00011784,-1144.2,1.7238
19375,20.227,4.1818,0,0.00011946,1193.7,4.2273e-05,29.712,3.7287e-05,-7.7526,-0.00011904,-1182.3,1.7368
19376,20.135,4.1818,0.05,5.0426e-06,50.391,3.8721e-06,29.093,-2.9288e-12,-2.3257e-05,-3.8721e-06,-29.093,1.7239
19377,20.135,4.4545,0,9.7284e-05,972.17,4.2488e-05,125.68,2.5518e-05,-1.8258,-9.4548e-05,-903.95,1.7236
19378,20.227,4.3636,0,9.9229e-05,991.61,3.8295e-05,64.94,2.9163e-05,-3.6773,-9.8009e-05,-959.19,1.7367
19379,20.135,4.3636,0.05,3.3437e-06,33.413,2.5675e-06,19.291,-2.5184e-12,-1.9764e-05,-2.5675e-06,-19.291,1.7237
19380,20.135,4.6364,0,7.8957e-05,789.02,3.6076e-05,121.91,1.9653e-05,-1.4801,-7.618e-05,-721.54,1.7234
19381,20.227,4.5455,0,8.2123e-05,820.66,3.38e-05,80.069,2.2844e-05,-2.2552,-8.0489e-05,-778.65,1.7365
19382,20.135,4.5455,0.05,2.9093e-06,29.073,2.234e-06,16.786,-2.2188e-12,-2.1616e-05,-2.234e-06,-16.786,1.7235
19383,20.135,4.8182,0,6.4017e-05,639.73,2.9598e-05,103.31,1.5708e-05,-1.0579,-6.1635e-05,-582.18,1.7233
19384,20.227,4.7273,0,6.7779e-05,677.32,2.8726e-05,76.485,1.8333e-05,-1.6028,-6.6166e-05,-636.49,1.7363
19385,20.135,4.7273,0.05,2.2901e-06,22.885,1.7585e-06,13.213,-1.3937e-12,-9.5205e-06,-1.7585e-06,-13.213,1.7233
19386,20.135,5,0,5.1829e-05,517.93,2.373e-05,80.658,1.2869e-05,-0.95173,-4.9988e-05,-473.23,1.7231
19387,20.227,4.9091,0,5.5872e-05,558.33,2.3774e-05,64.21,1.5049e-05,-1.3437,-5.4513e-05,-524,1.7362
19388,20.135,4.9091,0.05,1.9458e-06,19.444,1.4941e-06,11.226,-4.7991e-13,-5.843e-06,-1.4941e-06,-11.226,1.7232
19389,20.135,5.1818,0,4.1794e-05,417.65,1.862e-05,58.437,1.0708e-05,-1.0108,-4.0498e-05,-385.75,1.7229
19390,20.227,5.0909,0,4.6004e-05,459.73,1.9287e-05,49.202,1.2568e-05,-1.2827,-4.4981e-05,-433.68,1.736
19391,20.135,5.0909,0.05,1.6725e-06,16.713,1.2843e-06,9.6495,-4.0652e-13,-2.5574e-06,-1.2843e-06,-9.6495,1.723
19392,20.135,5.3636,0,3.3471e-05,334.48,1.4256e-05,38.373,8.9805e-06,-1.2666,-3.2663e-05,-314.16,1.7227
19393,20.227,5.2727,0,3.783e-05,378.04,1.5373e-05,34.249,1.0629e-05,-1.3988,-3.7145e-05,-360.35,1.7358
19394,20.135,5.2727,0.05,1.4868e-06,14.857,1.1416e-06,8.5779,-9.4945e-14,7.4676e-07,-1.1416e-06,-8.5779,1.7228
19395,20.135,5.5455,0,2.6759e-05,267.41,1.0786e-05,22.664,7.5291e-06,-1.8073,-2.632e-05,-256.14,1.7226
19396,20.227,5.4545,0,3.1215e-05,311.94,1.2174e-05,21.635,9.0607e-06,-1.7581,-3.0811e-05,-301.34,1.7357
19397,20.135,5.4545,0.05,1.3739e-06,13.729,1.055e-06,7.9265,4.4917e-14,1.5051e-06,-1.055e-06,-7.9265,1.7226
19398,20.135,5.7273,0,2.2203e-05,221.88,8.7585e-06,15.986,6.3233e-06,-2.3109,-2.1914e-05,-214.47,1.7224
19399,20.227,5.6364,0,2.6315e-05,262.97,9.9526e-06,14.103,7.7999e-06,-2.0713,-2.6073e-05,-256.58,1.7355
19400,20.135,5.6364,0.05,1.3363e-06,13.353,1.0261e-06,7.7095,3.6166e-13,4.9887e-06,-1.0261e-06,-7.7095,1.7225
19401,20.227,5.8182,0,2.3869e-05,238.53,9.2968e-06,16.272,6.925e-06,-1.5484,-2.3569e-05,-230.67,1.7354
19402,20.135,5.8182,0.05,1.5657e-06,15.646,1.2023e-06,9.0333,2.5471e-13,6.0668e-06,-1.2023e-06,-9.0333,1.7223
19403,20.135,5.9091,0,1.8614e-05,186.01,6.7311e-06,7.0204,5.7829e-06,-0.10408,-1.8486e-05,-182.45,1.7222
19404,20.319,0.27273,0,2.8096e-05,280.77,1.0601e-05,15.218,8.3877e-06,-1.4127,-2.7824e-05,-273.5,1.7485
19405,20.411,0.18182,0,2.9771e-05,297.51,1.1322e-05,17.634,8.8724e-06,-0.77167,-2.9442e-05,-288.65,1.7614
19406,20.319,0.18182,0.05,1.3799e-06,13.789,1.0596e-06,7.9613,1.6495e-13,5.7334e-06,-1.0596e-06,-7.9613,1.7484
19407,20.319,0.090909,0,2.5348e-05,253.3,9.1167e-06,9.0373,7.9116e-06,-0.017416,-2.5182e-05,-248.67,1.7483
19408,20.319,0.45455,0,3.1154e-05,311.32,1.1633e-05,15.269,9.3647e-06,-1.772,-3.0889e-05,-304.22,1.7486
19409,20.411,0.36364,0,3.1409e-05,313.88,1.1517e-05,13.109,9.5991e-06,-1.2985,-3.1184e-05,-307.72,1.7616
19410,20.319,0.36364,0.05,1.1297e-06,11.289,8.6743e-07,6.5175,3.8477e-13,7.3393e-06,-8.6743e-07,-6.5175,1.7485
19411,20.319,0.63636,0,3.6175e-05,361.5,1.3767e-05,21.089,1.0731e-05,-1.7232,-3.5792e-05,-351.28,1.7488
19412,20.411,0.54545,0,3.4978e-05,349.53,1.2809e-05,14.26,1.0686e-05,-1.6902,-3.4736e-05,-342.98,1.7618
19413,20.319,0.54545,0.05,1.1553e-06,11.545,8.8709e-07,6.6653,1.1199e-12,1.284e-05,-8.8709e-07,-6.6652,1.7487
19414,20.319,0.81818,0,4.279e-05,427.6,1.6639e-05,29.507,1.2494e-05,-1.6363,-4.223e-05,-412.81,1.7489
19415,20.411,0.72727,0,4.0077e-05,400.49,1.4802e-05,17.948,1.2174e-05,-1.7925,-3.9765e-05,-392.05,1.7619
19416,20.319,0.72727,0.05,1.2265e-06,12.257,9.418e-07,7.0764,1.1888e-12,1.6197e-05,-9.4181e-07,-7.0764,1.7489
19417,20.319,1,0,5.0924e-05,508.89,2.0024e-05,37.957,1.4743e-05,-1.7199,-5.0192e-05,-489.61,1.7491
19418,20.411,0.90909,0,4.6586e-05,465.54,1.731e-05,22.228,1.4097e-05,-1.908,-4.6193e-05,-454.91,1.762
19419,20.319,0.90909,0.05,1.3324e-06,13.314,1.0231e-06,7.687,9.5025e-13,1.1198e-05,-1.0231e-06,-7.687,1.749
19420,20.319,1.1818,0,6.0642e-05,606,2.3689e-05,43.304,1.7655e-05,-2.0317,-5.9812e-05,-584.09,1.7493
19421,20.411,1.0909,0,5.4479e-05,544.41,2.0143e-05,24.783,1.6546e-05,-2.2452,-5.4045e-05,-532.64,1.7622
19422,20.319,1.0909,0.05,1.4705e-06,14.694,1.1291e-06,8.4839,1.1944e-12,1.1408e-05,-1.1291e-06,-8.4839,1.7492
19423,20.319,1.3636,0,7.2066e-05,720.16,2.7329e-05,41.246,2.1479e-05,-2.7059,-7.131e-05,-699.89,1.7494
19424,20.411,1.2727,0,6.3776e-05,637.32,2.3083e-05,22.679,1.9648e-05,-3.1366,-6.3404e-05,-627.15,1.7623
19425,20.319,1.2727,0.05,1.6475e-06,16.464,1.2651e-06,9.5055,2.1274e-13,5.401e-06,-1.2651e-06,-9.5055,1.7493
19426,20.319,1.5455,0,8.5098e-05,850.4,3.0511e-05,26.119,2.6336e-05,-5.252,-8.47e-05,-839.53,1.7496
19427,20.411,1.4545,0,7.451e-05,744.58,2.6017e-05,13.525,2.3397e-05,-6.1595,-7.4365e-05,-740.7,1.7625
19428,20.319,1.4545,0.05,1.8307e-06,18.294,1.4058e-06,10.562,4.392e-13,7.6294e-06,-1.4058e-06,-10.562,1.7495
19429,20.319,1.7273,0,9.9558e-05,994.89,3.4143e-05,4.5907,3.1082e-05,-18.409,-9.9773e-05,-1001.6,1.7497
19430,20.411,1.6364,0,8.6452e-05,863.92,2.9895e-05,3.2982,2.6501e-05,-22.206,-8.6745e-05,-873.09,1.7626
19431,20.319,1.6364,0.05,2.0734e-06,20.72,1.5921e-06,11.963,1.7998e-12,1.5977e-05,-1.5921e-06,-11.963,1.7496
19432,20.319,1.9091,0,0.00011514,1150.6,4.039e-05,-1.3245,3.3765e-05,-51.101,-0.00011595,-1176,1.7498
19433,20.411,1.8182,0,9.9473e-05,994.04,3.5583e-05,0.66466,2.8132e-05,-55.317,-0.00010028,-1020.2,1.7627
19434,20.319,1.8182,0.05,2.6506e-06,26.488,2.0353e-06,15.293,1.0807e-12,1.2998e-05,-2.0353e-06,-15.293,1.7498
19435,20.319,2.0909,0,0.00013033,1302.4,4.6136e-05,-2.3424,3.7411e-05,-67.897,-0.0001314,-1336.3,1.75
19436,20.411,2,0,0.00011309,1130.2,4.1194e-05,-1.0371,3.0504e-05,-81.357,-0.00011428,-1169.2,1.7629
19437,20.319,2,0.05,3.3527e-06,33.504,2.5745e-06,19.344,-8.3603e-14,1.5537e-05,-2.5745e-06,-19.344,1.7499
19438,20.319,2.2727,0,0.00014278,1426.8,4.9938e-05,0.7338,4.2351e-05,-56.269,-0.00014364,-1453.7,1.7501
19439,20.411,2.1818,0,0.00012572,1256.3,4.5528e-05,-0.13409,3.4474e-05,-83.189,-0.00012693,-1295.9,1.763
19440,20.319,2.1818,0.05,3.882e-06,38.793,2.9809e-06,22.397,1.4522e-13,3.6546e-06,-2.9809e-06,-22.397,1.75
19441,20.319,2.4545,0,0.00015064,1505.3,5.1386e-05,2.8956,4.7126e-05,-29.112,-0.00015106,-1518.2,1.7502
19442,20.411,2.3636,0,0.00013537,1352.8,4.7893e-05,1.5367,3.928e-05,-63.183,-0.00013631,-1382.5,1.7631
19443,20.319,2.3636,0.05,4.1561e-06,41.533,3.1914e-06,23.979,-1.7144e-13,-2.3833e-06,-3.1914e-06,-23.979,1.7502
19444,20.319,2.6364,0,0.00015432,1542.1,5.1656e-05,5.0446,5.0151e-05,-6.263,-0.00015434,-1542.7,1.7503
19445,20.411,2.5455,0,0.00014102,1409.2,4.853e-05,1.2035,4.3246e-05,-38.5,-0.00014161,-1427.4,1.7632
19446,20.319,2.5455,0.05,3.6224e-06,36.199,2.7816e-06,20.9,-5.9141e-13,-5.0631e-06,-2.7816e-06,-20.9,1.7503
19447,20.319,2.8182,0,0.00015567,1555.6,5.2577e-05,14.351,5.0643e-05,-0.17742,-0.00015542,-1548.5,1.7504
19448,20.411,2.7273,0,0.00014377,1436.7,4.852e-05,1.0294,4.5714e-05,-20.053,-0.00014408,-1446.1,1.7632
19449,20.319,2.7273,0.05,3.1498e-06,31.476,2.4186e-06,18.173,-3.695e-13,-8.4564e-06,-2.4186e-06,-18.173,1.7503
19450,20.319,3,0,0.00015597,1558.6,5.3019e-05,18.78,5.0565e-05,0.34593,-0.00015563,-1549,1.7504
19451,20.411,2.9091,0,0.00014481,1447.1,4.8345e-05,0.50007,4.6891e-05,-10.427,-0.00014498,-1452.1,1.7632
19452,20.319,2.9091,0.05,2.8651e-06,28.631,2.2e-06,16.53,-1.8862e-13,-6.4936e-06,-2.2e-06,-16.53,1.7504
19453,20.319,3.1818,0,0.00015567,1555.6,5.2577e-05,14.351,5.0643e-05,-0.17743,-0.00015542,-1548.5,1.7504
19454,20.411,3.0909,0,0.00014481,1447.1,4.8345e-05,0.50007,4.6891e-05,-10.427,-0.00014498,-1452.1,1.7632
19455,20.319,3.0909,0.05,2.8651e-06,28.631,2.2e-06,16.53,6.3684e-13,-5.4027e-06,-2.2e-06,-16.53,1.7504
19456,20.319,3.3636,0,0.00015432,1542.1,5.1656e-05,5.0446,5.0151e-05,-6.263,-0.00015434,-1542.7,1.7503
19457,20.411,3.2727,0,0.00014377,1436.7,4.852e-05,1.0294,4.5714e-05,-20.053,-0.00014408,-1446.1,1.7632
19458,20.319,3.2727,0.05,3.1498e-06,31.476,2.4186e-06,18.173,8.7093e-13,-2.3865e-06,-2.4186e-06,-18.173,1.7503
19459,20.319,3.5455,0,0.00015064,1505.3,5.1386e-05,2.8956,4.7126e-05,-29.112,-0.00015106,-1518.2,1.7502
19460,20.411,3.4545,0,0.00014102,1409.2,4.853e-05,1.2035,4.3246e-05,-38.5,-0.00014161,-1427.4,1.7632
19461,20.319,3.4545,0.05,3.6224e-06,36.199,2.7816e-06,20.9,1.1801e-12,-4.0801e-07,-2.7816e-06,-20.9,1.7503
19462,20.319,3.7273,0,0.00014278,1426.8,4.9938e-05,0.73381,4.2351e-05,-56.269,-0.00014364,-1453.7,1.7501
19463,20.411,3.6364,0,0.00013537,1352.8,4.7893e-05,1.5367,3.928e-05,-63.183,-0.00013631,-1382.5,1.7631
19464,20.319,3.6364,0.05,4.1561e-06,41.533,3.1914e-06,23.979,1.7375e-12,3.0876e-07,-3.1914e-06,-23.979,1.7502
19465,20.319,3.9091,0,0.00013033,1302.4,4.6136e-05,-2.3424,3.7411e-05,-67.897,-0.0001314,-1336.3,1.75
19466,20.411,3.8182,0,0.00012572,1256.3,4.5528e-05,-0.13409,3.4474e-05,-83.19,-0.00012693,-1295.9,1.763
19467,20.319,3.8182,0.05,3.882e-06,38.793,2.9809e-06,22.397,2.9498e-12,5.1925e-06,-2.9809e-06,-22.397,1.75
19468,20.319,4.0909,0,0.00011514,1150.6,4.039e-05,-1.3245,3.3765e-05,-51.101,-0.00011595,-1176,1.7498
19469,20.411,4,0,0.00011309,1130.2,4.1194e-05,-1.0371,3.0504e-05,-81.357,-0.00011428,-1169.2,1.7629
19470,20.319,4,0.05,3.3527e-06,33.504,2.5745e-06,19.344,2.7087e-12,1.1635e-07,-2.5745e-06,-19.344,1.7499
19471,20.319,4.2727,0,9.9558e-05,994.89,3.4143e-05,4.5907,3.1082e-05,-18.409,-9.9773e-05,-1001.6,1.7497
19472,20.411,4.1818,0,9.9473e-05,994.04,3.5583e-05,0.66465,2.8132e-05,-55.317,-0.00010028,-1020.2,1.7627
19473,20.319,4.1818,0.05,2.6506e-06,26.488,2.0353e-06,15.293,7.8754e-13,-2.3794e-06,-2.0353e-06,-15.293,1.7498
19474,20.319,4.4545,0,8.5098e-05,850.4,3.0511e-05,26.119,2.6336e-05,-5.2521,-8.47e-05,-839.53,1.7496
19475,20.411,4.3636,0,8.6452e-05,863.92,2.9895e-05,3.2982,2.6501e-05,-22.206,-8.6745e-05,-873.1,1.7626
19476,20.319,4.3636,0.05,2.0734e-06,20.72,1.5921e-06,11.963,-3.3919e-12,-1.3459e-05,-1.5921e-06,-11.963,1.7496
19477,20.319,4.6364,0,7.2066e-05,720.16,2.7329e-05,41.246,2.1479e-05,-2.7059,-7.131e-05,-699.89,1.7494
19478,20.411,4.5455,0,7.451e-05,744.58,2.6017e-05,13.525,2.3397e-05,-6.1596,-7.4365e-05,-740.7,1.7625
19479,20.319,4.5455,0.05,1.8307e-06,18.294,1.4058e-06,10.562,-2.2364e-12,-1.9065e-05,-1.4058e-06,-10.562,1.7495
19480,20.319,4.8182,0,6.0642e-05,606,2.3689e-05,43.304,1.7655e-05,-2.0317,-5.9812e-05,-584.09,1.7493
19481,20.411,4.7273,0,6.3776e-05,637.32,2.3083e-05,22.679,1.9648e-05,-3.1366,-6.3404e-05,-627.15,1.7623
19482,20.319,4.7273,0.05,1.6475e-06,16.464,1.2651e-06,9.5055,-1.7283e-12,-1.2074e-05,-1.2651e-06,-9.5055,1.7493
19483,20.319,5,0,5.0924e-05,508.89,2.0024e-05,37.957,1.4743e-05,-1.7199,-5.0192e-05,-489.61,1.7491
19484,20.411,4.9091,0,5.4479e-05,544.41,2.0143e-05,24.783,1.6546e-05,-2.2452,-5.4045e-05,-532.64,1.7622
19485,20.319,4.9091,0.05,1.4705e-06,14.694,1.1291e-06,8.4839,-1.3369e-12,-6.9955e-06,-1.1291e-06,-8.4839,1.7492
19486,20.319,5.1818,0,4.279e-05,427.6,1.6639e-05,29.507,1.2494e-05,-1.6363,-4.223e-05,-412.81,1.7489
19487,20.411,5.0909,0,4.6586e-05,465.54,1.731e-05,22.228,1.4097e-05,-1.908,-4.6193e-05,-454.91,1.762
19488,20.319,5.0909,0.05,1.3324e-06,13.314,1.0231e-06,7.687,-3.6159e-13,-4.0727e-06,-1.0231e-06,-7.687,1.749
19489,20.319,5.3636,0,3.6175e-05,361.5,1.3767e-05,21.089,1.0731e-05,-1.7232,-3.5792e-05,-351.28,1.7488
19490,20.411,5.2727,0,4.0077e-05,400.49,1.4802e-05,17.948,1.2174e-05,-1.7925,-3.9765e-05,-392.05,1.7619
19491,20.319,5.2727,0.05,1.2265e-06,12.257,9.4181e-07,7.0764,-1.2489e-13,-2.32e-06,-9.418e-07,-7.0763,1.7489
19492,20.319,5.5455,0,3.1154e-05,311.32,1.1633e-05,15.269,9.3647e-06,-1.772,-3.0889e-05,-304.22,1.7486
19493,20.411,5.4545,0,3.4978e-05,349.53,1.2809e-05,14.26,1.0686e-05,-1.6902,-3.4736e-05,-342.98,1.7618
19494,20.319,5.4545,0.05,1.1553e-06,11.545,8.8709e-07,6.6653,-1.2134e-13,1.8172e-06,-8.8709e-07,-6.6652,1.7487
19495,20.319,5.7273,0,2.8096e-05,280.77,1.0601e-05,15.218,8.3877e-06,-1.4127,-2.7824e-05,-273.5,1.7485
19496,20.411,5.6364,0,3.1409e-05,313.88,1.1517e-05,13.109,9.5991e-06,-1.2985,-3.1184e-05,-307.72,1.7616
19497,20.319,5.6364,0.05,1.1297e-06,11.289,8.6743e-07,6.5175,1.9359e-13,4.8305e-06,-8.6743e-07,-6.5175,1.7485
19498,20.411,5.8182,0,2.9771e-05,297.51,1.1322e-05,17.634,8.8724e-06,-0.77167,-2.9442e-05,-288.65,1.7614
19499,20.319,5.8182,0.05,1.3799e-06,13.789,1.0596e-06,7.9613,2.8992e-13,5.6891e-06,-1.0596e-06,-7.9613,1.7484
19500,20.319,5.9091,0,2.5348e-05,253.3,9.1167e-06,9.0373,7.9116e-06,-0.017415,-2.5182e-05,-248.67,1.7483
19501,20.503,0.27273,0,3.3137e-05,331.14,1.2289e-05,15.91,1.0078e-05,-0.69728,-3.2847e-05,-323.22,1.7746
19502,20.595,0.18182,0,3.4404e-05,343.81,1.2887e-05,18.285,1.0405e-05,-0.36175,-3.4062e-05,-334.47,1.7876
19503,20.503,0.18182,0.05,1.1759e-06,11.751,9.0294e-07,6.7844,4.1304e-13,5.908e-06,-9.0294e-07,-6.7843,1.7745
19504,20.503,0.090909,0,3.0808e-05,307.87,1.1028e-05,10.409,9.6538e-06,0.085524,-3.0616e-05,-302.49,1.7744
19505,20.503,0.45455,0,3.5397e-05,353.72,1.2828e-05,13.118,1.0926e-05,-1.1773,-3.5172e-05,-347.53,1.7747
19506,20.595,0.36364,0,3.5663e-05,356.39,1.2929e-05,13.552,1.1032e-05,-0.70617,-3.5423e-05,-349.75,1.7877
19507,20.503,0.36364,0.05,9.0332e-07,9.027,6.9364e-07,5.2117,9.8278e-13,9.3175e-06,-6.9364e-07,-5.2117,1.7746
19508,20.503,0.63636,0,3.9196e-05,391.69,1.4101e-05,13.059,1.2142e-05,-1.6588,-3.8981e-05,-385.78,1.7749
19509,20.595,0.54545,0,3.8376e-05,383.5,1.3671e-05,11.356,1.199e-05,-1.2732,-3.8189e-05,-378.3,1.7878
19510,20.503,0.54545,0.05,9.2196e-07,9.2133,7.0795e-07,5.3193,7.4377e-13,1.1407e-05,-7.0795e-07,-5.3193,1.7748
19511,20.503,0.81818,0,4.4321e-05,442.9,1.5857e-05,13.556,1.3771e-05,-2.1161,-4.4105e-05,-436.98,1.775
19512,20.595,0.72727,0,4.2289e-05,422.6,1.4865e-05,9.7312,1.33e-05,-2.0267,-4.2146e-05,-418.62,1.788
19513,20.503,0.72727,0.05,9.6979e-07,9.6912,7.4468e-07,5.5952,5.9795e-13,7.3554e-06,-7.4468e-07,-5.5952,1.7749
19514,20.503,1,0,5.0686e-05,506.51,1.7937e-05,12.868,1.5844e-05,-2.8575,-5.0498e-05,-501.32,1.7751
19515,20.595,0.90909,0,4.734e-05,473.07,1.6429e-05,7.7307,1.496e-05,-3.304,-4.7255e-05,-470.76,1.7881
19516,20.503,0.90909,0.05,1.0333e-06,10.326,7.9345e-07,5.9617,5.1751e-14,1.8041e-06,-7.9345e-07,-5.9617,1.7751
19517,20.503,1.1818,0,5.8219e-05,581.78,2.023e-05,9.3573,1.8339e-05,-4.8493,-5.8129e-05,-579.4,1.7753
19518,20.595,1.0909,0,5.3461e-05,534.25,1.837e-05,4.9056,1.6856e-05,-6.4697,-5.3479e-05,-534.94,1.7882
19519,20.503,1.0909,0.05,1.1152e-06,11.144,8.5633e-07,6.4341,7.7909e-14,-2.2035e-07,-8.5633e-07,-6.4341,1.7752
19520,20.503,1.3636,0,6.6828e-05,667.82,2.3011e-05,4.2705,2.0815e-05,-12.229,-6.6948e-05,-671.64,1.7754
19521,20.595,1.2727,0,6.0569e-05,605.27,2.093e-05,2.4843,1.8608e-05,-14.965,-6.0762e-05,-611.32,1.7884
19522,20.503,1.2727,0.05,1.2213e-06,12.205,9.3783e-07,7.0465,5.7486e-14,5.5111e-07,-9.3783e-07,-7.0465,1.7753
19523,20.503,1.5455,0,7.6397e-05,763.45,2.688e-05,1.8113,2.2515e-05,-30.985,-7.6841e-05,-777.51,1.7755
19524,20.595,1.4545,0,6.8548e-05,685,2.4269e-05,1.2628,1.9904e-05,-31.537,-6.9004e-05,-699.55,1.7885
19525,20.503,1.4545,0.05,1.3949e-06,13.939,1.0711e-06,8.0478,1.7717e-15,1.4862e-08,-1.0711e-06,-8.0478,1.7754
19526,20.503,1.7273,0,8.6752e-05,866.92,3.1536e-05,0.88565,2.3669e-05,-58.225,-8.7576e-05,-894.08,1.7756
19527,20.595,1.6364,0,7.7267e-05,772.14,2.8266e-05,0.76377,2.0762e-05,-55.615,-7.8045e-05,-798.02,1.7886
19528,20.503,1.6364,0.05,1.6812e-06,16.801,1.291e-06,9.7,2.4956e-13,-2.359e-16,-1.291e-06,-9.7,1.7756
19529,20.503,1.9091,0,9.7662e-05,975.95,3.6361e-05,0.76159,2.5082e-05,-83.988,-9.8802e-05,-1014.8,1.7758
19530,20.595,1.8182,0,8.6548e-05,864.89,3.2566e-05,0.37281,2.1576e-05,-82.205,-8.7644e-05,-902.84,1.7887
19531,20.503,1.8182,0.05,2.0091e-06,20.077,1.5427e-06,11.592,-6.4499e-13,2.9777e-06,-1.5427e-06,-11.592,1.7757
19532,20.503,2.0909,0,0.00010848,1084.1,4.0564e-05,1.0086,2.756e-05,-96.701,-0.00010978,-1128.6,1.7759
19533,20.595,2,0,9.6162e-05,960.96,3.6666e-05,0.53185,2.31e-05,-101.4,-9.7471e-05,-1007.3,1.7888
19534,20.503,2,0.05,2.4095e-06,24.079,1.8502e-06,13.902,9.3895e-13,4.9985e-07,-1.8502e-06,-13.902,1.7758
19535,20.503,2.2727,0,0.00011803,1179.5,4.3495e-05,0.74911,3.1109e-05,-92.314,-0.00011931,-1222.5,1.776
19536,20.595,2.1818,0,0.00010535,1052.8,3.9922e-05,0.56001,2.5764e-05,-105.81,-0.00010674,-1101.4,1.7889
19537,20.503,2.1818,0.05,2.8108e-06,28.089,2.1584e-06,16.217,5.3043e-13,3.201e-06,-2.1584e-06,-16.217,1.7759
19538,20.503,2.4545,0,0.00012531,1252.3,4.5137e-05,0.59537,3.4865e-05,-76.582,-0.00012643,-1288.5,1.776
19539,20.595,2.3636,0,0.0001131,1130.2,4.2045e-05,0.40029,2.9113e-05,-96.765,-0.00011442,-1175.2,1.7889
19540,20.503,2.3636,0.05,3.0343e-06,30.322,2.3299e-06,17.506,1.1745e-13,-3.334e-06,-2.3299e-06,-17.506,1.776
19541,20.503,2.6364,0,0.00013002,1299.3,4.5853e-05,0.64477,3.7904e-05,-59.082,-0.00013091,-1327.5,1.7761
19542,20.595,2.5455,0,0.00011872,1186.4,4.321e-05,0.53539,3.2233e-05,-81.941,-0.00011989,-1224.9,1.789
19543,20.503,2.5455,0.05,3.0218e-06,30.197,2.3204e-06,17.434,-1.6901e-13,-5.1692e-06,-2.3204e-06,-17.434,1.7761
19544,20.503,2.8182,0,0.0001325,1324.1,4.6059e-05,0.48575,3.9775e-05,-46.734,-0.00013322,-1346.6,1.7761
19545,20.595,2.7273,0,0.00012214,1220.6,4.3712e-05,0.46874,3.4477e-05,-68.914,-0.00012316,-1253.3,1.7891
19546,20.503,2.7273,0.05,2.8791e-06,28.771,2.2108e-06,16.611,-2.3717e-13,-6.1443e-06,-2.2108e-06,-16.611,1.7761
19547,20.503,3,0,0.00013326,1331.6,4.6091e-05,0.397,4.0395e-05,-42.403,-0.00013392,-1352.1,1.7762
19548,20.595,2.9091,0,0.00012372,1236.4,4.388e-05,0.39705,3.5613e-05,-61.716,-0.00012465,-1265.9,1.7891
19549,20.503,2.9091,0.05,2.7722e-06,27.703,2.1287e-06,15.994,1.2578e-12,-4.5532e-06,-2.1287e-06,-15.994,1.7761
19550,20.503,3.1818,0,0.0001325,1324.1,4.6059e-05,0.48575,3.9775e-05,-46.734,-0.00013322,-1346.6,1.7761
19551,20.595,3.0909,0,0.00012372,1236.4,4.388e-05,0.39705,3.5613e-05,-61.716,-0.00012465,-1265.9,1.7891
19552,20.503,3.0909,0.05,2.7722e-06,27.703,2.1287e-06,15.994,5.5281e-13,-2.6239e-06,-2.1287e-06,-15.994,1.7761
19553,20.503,3.3636,0,0.00013002,1299.3,4.5853e-05,0.64477,3.7904e-05,-59.082,-0.00013091,-1327.5,1.7761
19554,20.595,3.2727,0,0.00012214,1220.6,4.3712e-05,0.46874,3.4477e-05,-68.914,-0.00012316,-1253.3,1.7891
19555,20.503,3.2727,0.05,2.8791e-06,28.771,2.2108e-06,16.611,1.5723e-12,-6.0244e-07,-2.2108e-06,-16.611,1.7761
19556,20.503,3.5455,0,0.00012531,1252.3,4.5137e-05,0.59537,3.4865e-05,-76.582,-0.00012643,-1288.5,1.776
19557,20.595,3.4545,0,0.00011872,1186.4,4.321e-05,0.53539,3.2233e-05,-81.941,-0.00011989,-1224.9,1.789
19558,20.503,3.4545,0.05,3.0218e-06,30.197,2.3204e-06,17.434,1.9578e-12,1.4062e-06,-2.3204e-06,-17.434,1.7761
19559,20.503,3.7273,0,0.00011803,1179.5,4.3495e-05,0.74911,3.1109e-05,-92.314,-0.00011931,-1222.5,1.776
19560,20.595,3.6364,0,0.0001131,1130.2,4.2045e-05,0.40029,2.9113e-05,-96.765,-0.00011442,-1175.2,1.7889
19561,20.503,3.6364,0.05,3.0343e-06,30.322,2.3299e-06,17.506,2.0385e-12,2.7944e-06,-2.3299e-06,-17.506,1.776
19562,20.503,3.9091,0,0.00010848,1084.1,4.0564e-05,1.0086,2.756e-05,-96.701,-0.00010978,-1128.6,1.7759
19563,20.595,3.8182,0,0.00010535,1052.8,3.9922e-05,0.56001,2.5764e-05,-105.81,-0.00010674,-1101.4,1.7889
19564,20.503,3.8182,0.05,2.8108e-06,28.089,2.1584e-06,16.217,2.5155e-12,6.0619e-06,-2.1584e-06,-16.217,1.7759
19565,20.503,4.0909,0,9.7662e-05,975.95,3.6361e-05,0.76159,2.5082e-05,-83.989,-9.8802e-05,-1014.8,1.7758
19566,20.595,4,0,9.6162e-05,960.96,3.6666e-05,0.53185,2.31e-05,-101.4,-9.7471e-05,-1007.3,1.7888
19567,20.503,4,0.05,2.4095e-06,24.079,1.8502e-06,13.902,1.4594e-12,3.5311e-06,-1.8502e-06,-13.902,1.7758
19568,20.503,4.2727,0,8.6752e-05,866.92,3.1536e-05,0.88564,2.3669e-05,-58.225,-8.7576e-05,-894.08,1.7756
19569,20.595,4.1818,0,8.6548e-05,864.89,3.2566e-05,0.3728,2.1576e-05,-82.205,-8.7644e-05,-902.84,1.7887
19570,20.503,4.1818,0.05,2.0091e-06,20.077,1.5427e-06,11.592,9.1653e-13,-9.4387e-06,-1.5427e-06,-11.592,1.7757
19571,20.503,4.4545,0,7.6397e-05,763.45,2.688e-05,1.8113,2.2515e-05,-30.985,-7.6841e-05,-777.51,1.7755
19572,20.595,4.3636,0,7.7267e-05,772.14,2.8266e-05,0.76377,2.0762e-05,-55.615,-7.8045e-05,-798.02,1.7886
19573,20.503,4.3636,0.05,1.6812e-06,16.801,1.291e-06,9.7,-3.8469e-13,-8.9194e-06,-1.291e-06,-9.7,1.7756
19574,20.503,4.6364,0,6.6828e-05,667.82,2.3011e-05,4.2705,2.0815e-05,-12.229,-6.6948e-05,-671.64,1.7754
19575,20.595,4.5455,0,6.8548e-05,685,2.4269e-05,1.2628,1.9904e-05,-31.537,-6.9004e-05,-699.55,1.7885
19576,20.503,4.5455,0.05,1.3949e-06,13.939,1.0711e-06,8.0478,-2.2846e-12,-2.6123e-05,-1.0711e-06,-8.0478,1.7754
19577,20.503,4.8182,0,5.8219e-05,581.78,2.023e-05,9.3572,1.8339e-05,-4.8493,-5.8129e-05,-579.4,1.7753
19578,20.595,4.7273,0,6.0569e-05,605.27,2.093e-05,2.4842,1.8608e-05,-14.965,-6.0762e-05,-611.32,1.7884
19579,20.503,4.7273,0.05,1.2213e-06,12.205,9.3783e-07,7.0465,-2.479e-12,-1.4059e-05,-9.3783e-07,-7.0465,1.7753
19580,20.503,5,0,5.0686e-05,506.51,1.7937e-05,12.868,1.5844e-05,-2.8575,-5.0498e-05,-501.32,1.7751
19581,20.595,4.9091,0,5.3461e-05,534.25,1.837e-05,4.9056,1.6856e-05,-6.4697,-5.3479e-05,-534.94,1.7882
19582,20.503,4.9091,0.05,1.1152e-06,11.144,8.5633e-07,6.4341,-1.3926e-12,-1.7133e-05,-8.5633e-07,-6.4341,1.7752
19583,20.503,5.1818,0,4.4321e-05,442.9,1.5857e-05,13.556,1.3771e-05,-2.1161,-4.4105e-05,-436.98,1.775
19584,20.595,5.0909,0,4.734e-05,473.07,1.6429e-05,7.7306,1.496e-05,-3.304,-4.7255e-05,-470.76,1.7881
19585,20.503,5.0909,0.05,1.0333e-06,10.326,7.9345e-07,5.9617,-1.0251e-12,-1.4858e-05,-7.9345e-07,-5.9617,1.7751
19586,20.503,5.3636,0,3.9196e-05,391.69,1.4101e-05,13.059,1.2142e-05,-1.6588,-3.8981e-05,-385.78,1.7749
19587,20.595,5.2727,0,4.2289e-05,422.6,1.4865e-05,9.7312,1.33e-05,-2.0267,-4.2146e-05,-418.62,1.788
19588,20.503,5.2727,0.05,9.6979e-07,9.6912,7.4468e-07,5.5952,-5.9225e-13,-8.4667e-06,-7.4468e-07,-5.5952,1.7749
19589,20.503,5.5455,0,3.5397e-05,353.72,1.2828e-05,13.118,1.0926e-05,-1.1773,-3.5172e-05,-347.53,1.7747
19590,20.595,5.4545,0,3.8376e-05,383.5,1.3671e-05,11.356,1.199e-05,-1.2732,-3.8189e-05,-378.3,1.7878
19591,20.503,5.4545,0.05,9.2197e-07,9.2133,7.0796e-07,5.3193,-4.0123e-13,-2.5513e-06,-7.0795e-07,-5.3193,1.7748
19592,20.503,5.7273,0,3.3137e-05,331.14,1.2289e-05,15.91,1.0078e-05,-0.69728,-3.2847e-05,-323.22,1.7746
19593,20.595,5.6364,0,3.5663e-05,356.39,1.2929e-05,13.552,1.1032e-05,-0.70617,-3.5423e-05,-349.75,1.7877
19594,20.503,5.6364,0.05,9.0332e-07,9.027,6.9364e-07,5.2117,-8.5986e-15,1.1185e-06,-6.9364e-07,-5.2117,1.7746
19595,20.595,5.8182,0,3.4404e-05,343.81,1.2887e-05,18.286,1.0405e-05,-0.36175,-3.4062e-05,-334.47,1.7876
19596,20.503,5.8182,0.05,1.1759e-06,11.751,9.0294e-07,6.7843,4.4967e-13,4.4494e-06,-9.0294e-07,-6.7843,1.7745
19597,20.503,5.9091,0,3.0808e-05,307.87,1.1028e-05,10.409,9.6538e-06,0.085527,-3.0616e-05,-302.49,1.7744
19598,20.687,0.27273,0,3.6969e-05,369.43,1.3562e-05,16.189,1.1357e-05,-0.38015,-3.6672e-05,-361.25,1.8007
19599,20.779,0.18182,0,3.7751e-05,377.25,1.3967e-05,18.085,1.1536e-05,-0.18242,-3.7413e-05,-367.97,1.8137
19600,20.687,0.18182,0.05,9.6239e-07,9.6173,7.39e-07,5.5525,2.3467e-13,5.7788e-06,-7.39e-07,-5.5525,1.8006
19601,20.687,0.090909,0,3.4949e-05,349.25,1.2437e-05,10.91,1.0995e-05,0.074102,-3.475e-05,-343.63,1.8005
19602,20.687,0.45455,0,3.8727e-05,387,1.3839e-05,12.292,1.2103e-05,-0.75314,-3.8514e-05,-381.07,1.8008
19603,20.779,0.36364,0,3.8766e-05,387.39,1.396e-05,13.805,1.2068e-05,-0.40874,-3.8519e-05,-380.5,1.8138
19604,20.687,0.36364,0.05,6.7908e-07,6.7861,5.2145e-07,3.918,4.5446e-13,7.8181e-06,-5.2145e-07,-3.918,1.8007
19605,20.687,0.63636,0,4.1638e-05,416.09,1.4562e-05,8.9834,1.3168e-05,-1.4884,-4.1501e-05,-412.25,1.801
19606,20.779,0.54545,0,4.0875e-05,408.47,1.4358e-05,9.9234,1.2919e-05,-0.89005,-4.0711e-05,-403.84,1.8139
19607,20.687,0.54545,0.05,6.9562e-07,6.9514,5.3415e-07,4.0134,6.77e-13,7.4579e-06,-5.3415e-07,-4.0134,1.8009
19608,20.687,0.81818,0,4.5561e-05,455.29,1.5654e-05,5.5389,1.4491e-05,-3.1987,-4.5515e-05,-454.06,1.8011
19609,20.779,0.72727,0,4.3873e-05,438.43,1.505e-05,5.5502,1.4017e-05,-2.2137,-4.3811e-05,-436.71,1.8141
19610,20.687,0.72727,0.05,7.3763e-07,7.3712,5.6641e-07,4.2558,1.8798e-13,4.5633e-06,-5.6641e-07,-4.2558,1.801
19611,20.687,1,0,5.0431e-05,503.96,1.7264e-05,2.795,1.5842e-05,-7.8912,-5.0509e-05,-506.43,1.8012
19612,20.779,0.90909,0,4.7732e-05,476.99,1.6277e-05,2.368,1.5075e-05,-6.6626,-4.7798e-05,-479.07,1.8142
19613,20.687,0.90909,0.05,7.9333e-07,7.9279,6.0918e-07,4.5771,-2.8105e-13,1.4417e-06,-6.0918e-07,-4.5771,1.8011
19614,20.687,1.1818,0,5.6159e-05,561.21,1.9526e-05,1.4593,1.6968e-05,-17.761,-5.6412e-05,-569.11,1.8013
19615,20.779,1.0909,0,5.2388e-05,523.52,1.8175e-05,1.1886,1.5882e-05,-16.035,-5.2619e-05,-530.73,1.8143
19616,20.687,1.0909,0.05,8.7136e-07,8.7076,6.691e-07,5.0273,4.5475e-13,-1.7421e-06,-6.691e-07,-5.0273,1.8012
19617,20.687,1.3636,0,6.263e-05,625.87,2.237e-05,0.83908,1.7811e-05,-33.415,-6.3114e-05,-641.45,1.8014
19618,20.779,1.2727,0,5.7749e-05,577.09,2.0588e-05,0.72236,1.6486e-05,-30.097,-5.8187e-05,-591.16,1.8144
19619,20.687,1.2727,0.05,9.8904e-07,9.8836,7.5946e-07,5.7063,-3.1876e-14,-5.4536e-07,-7.5946e-07,-5.7063,1.8014
19620,20.687,1.5455,0,6.9716e-05,696.68,2.5689e-05,0.46871,1.8381e-05,-54.439,-7.0472e-05,-722.04,1.8015
19621,20.779,1.4545,0,6.3704e-05,636.6,2.3433e-05,0.46383,1.6872e-05,-48.83,-6.4383e-05,-659.35,1.8145
19622,20.687,1.4545,0.05,1.1626e-06,11.618,8.9272e-07,6.7076,9.3222e-14,2.4718e-06,-8.9272e-07,-6.7076,1.8015
19623,20.687,1.7273,0,7.7304e-05,772.51,2.9295e-05,0.249,1.8884e-05,-77.975,-7.8329e-05,-808.4,1.8016
19624,20.779,1.6364,0,7.0138e-05,700.9,2.6594e-05,0.2806,1.7114e-05,-70.947,-7.1068e-05,-733.51,1.8146
19625,20.687,1.6364,0.05,1.3963e-06,13.953,1.0722e-06,8.056,5.7806e-13,4.8491e-06,-1.0722e-06,-8.056,1.8016
19626,20.687,1.9091,0,8.522e-05,851.61,3.2865e-05,0.090898,1.9751e-05,-98.436,-8.6464e-05,-896.5,1.8017
19627,20.779,1.8182,0,7.6949e-05,768.96,2.9859e-05,0.18835,1.7503e-05,-92.652,-7.81e-05,-810.97,1.8147
19628,20.687,1.8182,0.05,1.6698e-06,16.686,1.2822e-06,9.6339,8.5147e-13,5.7211e-06,-1.2822e-06,-9.6339,1.8017
19629,20.687,2.0909,0,9.31e-05,930.36,3.6018e-05,0.037284,2.136e-05,-110.1,-9.4482e-05,-980.48,1.8018
19630,20.779,2,0,8.3933e-05,838.75,3.2916e-05,0.10331,1.8434e-05,-108.71,-8.5249e-05,-887.74,1.8148
19631,20.687,2,0.05,1.9478e-06,19.464,1.4956e-06,11.238,7.6899e-13,6.4507e-06,-1.4956e-06,-11.238,1.8017
19632,20.687,2.2727,0,0.00010035,1002.8,3.8472e-05,0.21009,2.3685e-05,-110.9,-0.00010177,-1053.5,1.8019
19633,20.779,2.1818,0,9.0701e-05,906.39,3.5478e-05,0.14758,2.0097e-05,-115.42,-9.2107e-05,-958.48,1.8148
19634,20.687,2.1818,0.05,2.2134e-06,22.119,1.6996e-06,12.77,6.9737e-13,5.4155e-06,-1.6996e-06,-12.77,1.8018
19635,20.687,2.4545,0,0.00010631,1062.3,4.0123e-05,0.37812,2.6271e-05,-103.7,-0.00010768,-1110.2,1.8019
19636,20.779,2.3636,0,9.6681e-05,966.14,3.7373e-05,0.28874,2.2261e-05,-113.26,-9.81e-05,-1017.6,1.8149
19637,20.687,2.3636,0.05,2.4218e-06,24.202,1.8597e-06,13.973,5.434e-13,1.0758e-06,-1.8597e-06,-13.973,1.8019
19638,20.687,2.6364,0,0.00011058,1105,4.1074e-05,0.40521,2.8527e-05,-93.864,-0.00011186,-1148.7,1.802
19639,20.779,2.5455,0,0.00010136,1012.9,3.8597e-05,0.3422,2.442e-05,-106.18,-0.00010274,-1061.6,1.8149
19640,20.687,2.5455,0.05,2.5247e-06,25.229,1.9386e-06,14.566,3.0473e-13,-3.8558e-07,-1.9386e-06,-14.566,1.802
19641,20.687,2.8182,0,0.00011308,1130,4.1533e-05,0.39091,3.0019e-05,-86.128,-0.00011429,-1170.4,1.802
19642,20.779,2.7273,0,0.00010448,1044.1,3.9284e-05,0.35647,2.6092e-05,-98.764,-0.0001058,-1089.8,1.815
19643,20.687,2.7273,0.05,2.5388e-06,25.37,1.9495e-06,14.648,6.4187e-13,-3.1431e-07,-1.9495e-06,-14.648,1.802
19644,20.687,3,0,0.0001139,1138.2,4.1667e-05,0.38081,3.0533e-05,-83.269,-0.00011508,-1177.3,1.802
19645,20.779,2.9091,0,0.00010602,1059.5,3.9583e-05,0.35391,2.6986e-05,-94.295,-0.0001073,-1103.3,1.815
19646,20.687,2.9091,0.05,2.5254e-06,25.236,1.9392e-06,14.57,1.3347e-12,-2.215e-07,-1.9392e-06,-14.57,1.802
19647,20.687,3.1818,0,0.00011308,1130,4.1533e-05,0.39091,3.0019e-05,-86.128,-0.00011429,-1170.4,1.802
19648,20.779,3.0909,0,0.00010602,1059.5,3.9583e-05,0.35391,2.6986e-05,-94.295,-0.0001073,-1103.3,1.815
19649,20.687,3.0909,0.05,2.5254e-06,25.236,1.9392e-06,14.57,1.1642e-12,2.044e-07,-1.9392e-06,-14.57,1.802
19650,20.687,3.3636,0,0.00011058,1105,4.1074e-05,0.40521,2.8527e-05,-93.864,-0.00011186,-1148.7,1.802
19651,20.779,3.2727,0,0.00010448,1044.1,3.9284e-05,0.35647,2.6092e-05,-98.764,-0.0001058,-1089.8,1.815
19652,20.687,3.2727,0.05,2.5388e-06,25.37,1.9495e-06,14.647,1.853e-12,4.0588e-06,-1.9495e-06,-14.648,1.802
19653,20.687,3.5455,0,0.00010631,1062.3,4.0123e-05,0.37812,2.6271e-05,-103.7,-0.00010768,-1110.2,1.8019
19654,20.779,3.4545,0,0.00010136,1012.9,3.8597e-05,0.3422,2.442e-05,-106.18,-0.00010274,-1061.6,1.8149
19655,20.687,3.4545,0.05,2.5247e-06,25.229,1.9386e-06,14.566,2.231e-12,7.2833e-06,-1.9386e-06,-14.566,1.802
19656,20.687,3.7273,0,0.00010035,1002.8,3.8472e-05,0.21009,2.3685e-05,-110.9,-0.00010177,-1053.5,1.8019
19657,20.779,3.6364,0,9.6681e-05,966.14,3.7373e-05,0.28874,2.2261e-05,-113.26,-9.81e-05,-1017.6,1.8149
19658,20.687,3.6364,0.05,2.4218e-06,24.202,1.8597e-06,13.973,2.1663e-12,5.9298e-06,-1.8597e-06,-13.973,1.8019
19659,20.687,3.9091,0,9.31e-05,930.36,3.6018e-05,0.037283,2.136e-05,-110.1,-9.4482e-05,-980.48,1.8018
19660,20.779,3.8182,0,9.0701e-05,906.39,3.5478e-05,0.14758,2.0097e-05,-115.42,-9.2107e-05,-958.48,1.8148
19661,20.687,3.8182,0.05,2.2134e-06,22.119,1.6996e-06,12.77,2.2867e-12,8.0189e-06,-1.6996e-06,-12.77,1.8018
19662,20.687,4.0909,0,8.522e-05,851.61,3.2865e-05,0.090896,1.9751e-05,-98.436,-8.6464e-05,-896.5,1.8017
19663,20.779,4,0,8.3933e-05,838.75,3.2916e-05,0.10331,1.8434e-05,-108.71,-8.5249e-05,-887.74,1.8148
19664,20.687,4,0.05,1.9478e-06,19.464,1.4956e-06,11.238,2.0675e-12,6.9383e-06,-1.4956e-06,-11.238,1.8017
19665,20.687,4.2727,0,7.7304e-05,772.51,2.9295e-05,0.249,1.8884e-05,-77.975,-7.8329e-05,-808.4,1.8016
19666,20.779,4.1818,0,7.6949e-05,768.96,2.9859e-05,0.18835,1.7503e-05,-92.652,-7.81e-05,-810.97,1.8147
19667,20.687,4.1818,0.05,1.6698e-06,16.686,1.2822e-06,9.6339,1.4011e-12,-7.2164e-06,-1.2822e-06,-9.6339,1.8017
19668,20.687,4.4545,0,6.9716e-05,696.68,2.5689e-05,0.4687,1.8381e-05,-54.439,-7.0472e-05,-722.04,1.8015
19669,20.779,4.3636,0,7.0138e-05,700.9,2.6594e-05,0.2806,1.7114e-05,-70.947,-7.1068e-05,-733.51,1.8146
19670,20.687,4.3636,0.05,1.3963e-06,13.953,1.0722e-06,8.056,6.0853e-13,-1.0428e-05,-1.0722e-06,-8.0561,1.8016
19671,20.687,4.6364,0,6.263e-05,625.87,2.237e-05,0.83908,1.7811e-05,-33.415,-6.3114e-05,-641.45,1.8014
19672,20.779,4.5455,0,6.3704e-05,636.6,2.3433e-05,0.46383,1.6872e-05,-48.83,-6.4383e-05,-659.35,1.8145
19673,20.687,4.5455,0.05,1.1626e-06,11.618,8.9272e-07,6.7076,-9.7327e-13,-1.571e-05,-8.9272e-07,-6.7076,1.8015
19674,20.687,4.8182,0,5.6159e-05,561.21,1.9526e-05,1.4593,1.6968e-05,-17.761,-5.6412e-05,-569.11,1.8013
19675,20.779,4.7273,0,5.7749e-05,577.09,2.0588e-05,0.72236,1.6486e-05,-30.097,-5.8187e-05,-591.16,1.8144
19676,20.687,4.7273,0.05,9.8904e-07,9.8836,7.5946e-07,5.7063,-1.1733e-12,-1.7101e-06,-7.5946e-07,-5.7063,1.8014
19677,20.687,5,0,5.0431e-05,503.96,1.7264e-05,2.795,1.5842e-05,-7.8912,-5.0509e-05,-506.43,1.8012
19678,20.779,4.9091,0,5.2388e-05,523.52,1.8175e-05,1.1886,1.5882e-05,-16.035,-5.2619e-05,-530.73,1.8143
19679,20.687,4.9091,0.05,8.7136e-07,8.7076,6.691e-07,5.0273,-1.2465e-12,-1.3968e-05,-6.691e-07,-5.0273,1.8012
19680,20.687,5.1818,0,4.5561e-05,455.29,1.5654e-05,5.5388,1.4491e-05,-3.1988,-4.5515e-05,-454.06,1.8011
19681,20.779,5.0909,0,4.7732e-05,476.99,1.6277e-05,2.368,1.5075e-05,-6.6627,-4.7798e-05,-479.07,1.8142
19682,20.687,5.0909,0.05,7.9333e-07,7.9279,6.0918e-07,4.5772,-1.8013e-12,-1.2476e-05,-6.0918e-07,-4.5771,1.8011
19683,20.687,5.3636,0,4.1638e-05,416.09,1.4562e-05,8.9834,1.3168e-05,-1.4884,-4.1501e-05,-412.25,1.801
19684,20.779,5.2727,0,4.3873e-05,438.43,1.505e-05,5.5502,1.4017e-05,-2.2137,-4.3811e-05,-436.71,1.8141
19685,20.687,5.2727,0.05,7.3763e-07,7.3713,5.6641e-07,4.2558,-9.2696e-13,-5.2241e-06,-5.6641e-07,-4.2558,1.801
19686,20.687,5.5455,0,3.8727e-05,387,1.3839e-05,12.292,1.2103e-05,-0.75314,-3.8514e-05,-381.07,1.8008
19687,20.779,5.4545,0,4.0875e-05,408.47,1.4358e-05,9.9234,1.2919e-05,-0.89006,-4.0711e-05,-403.84,1.8139
19688,20.687,5.4545,0.05,6.9562e-07,6.9514,5.3415e-07,4.0134,-2.6302e-13,-2.3131e-06,-5.3415e-07,-4.0134,1.8009
19689,20.687,5.7273,0,3.6969e-05,369.43,1.3562e-05,16.189,1.1357e-05,-0.38015,-3.6672e-05,-361.25,1.8007
19690,20.779,5.6364,0,3.8766e-05,387.39,1.396e-05,13.805,1.2068e-05,-0.40874,-3.8519e-05,-380.5,1.8138
19691,20.687,5.6364,0.05,6.7908e-07,6.7861,5.2145e-07,3.918,9.0752e-14,2.764e-06,-5.2145e-07,-3.918,1.8007
19692,20.779,5.8182,0,3.7751e-05,377.25,1.3967e-05,18.085,1.1536e-05,-0.18242,-3.7413e-05,-367.97,1.8137
19693,20.687,5.8182,0.05,9.6239e-07,9.6173,7.39e-07,5.5525,2.4996e-13,4.4356e-06,-7.39e-07,-5.5525,1.8006
19694,20.687,5.9091,0,3.4949e-05,349.25,1.2437e-05,10.91,1.0995e-05,0.074101,-3.475e-05,-343.63,1.8005
19695,20.871,0.27273,0,3.9576e-05,395.49,1.439e-05,15.885,1.2247e-05,-0.21189,-3.9285e-05,-387.41,1.8268
19696,20.963,0.18182,0,3.9898e-05,398.71,1.461e-05,17.331,1.2291e-05,-0.091091,-3.9577e-05,-389.8,1.8398
19697,20.871,0.18182,0.05,7.5301e-07,7.5249,5.7822e-07,4.3445,3.2778e-13,4.2695e-06,-5.7822e-07,-4.3445,1.8267
19698,20.871,0.090909,0,3.7833e-05,378.07,1.3384e-05,10.848,1.195e-05,0.070894,-3.7636e-05,-372.5,1.8267
19699,20.871,0.45455,0,4.0963e-05,409.35,1.4514e-05,11.691,1.2895e-05,-0.47108,-4.0759e-05,-403.61,1.8269
19700,20.963,0.36364,0,4.0714e-05,406.86,1.4578e-05,13.592,1.2736e-05,-0.24629,-4.0469e-05,-400.01,1.84
19701,20.871,0.36364,0.05,4.7176e-07,4.7143,3.6225e-07,2.7218,9.8205e-13,8.0198e-06,-3.6225e-07,-2.7218,1.8269
19702,20.871,0.63636,0,4.3203e-05,431.73,1.4877e-05,6.7194,1.382e-05,-1.222,-4.3104e-05,-428.93,1.8271
19703,20.963,0.54545,0,4.2359e-05,423.3,1.4757e-05,8.9931,1.348e-05,-0.59676,-4.2208e-05,-419.02,1.8401
19704,20.871,0.54545,0.05,4.9714e-07,4.968,3.8174e-07,2.8683,4.3434e-13,8.6696e-06,-3.8174e-07,-2.8683,1.827
19705,20.871,0.81818,0,4.6184e-05,461.52,1.5668e-05,2.3436,1.473e-05,-4.7058,-4.622e-05,-462.66,1.8272
19706,20.963,0.72727,0,4.4649e-05,446.18,1.513e-05,3.4075,1.4376e-05,-2.256,-4.4626e-05,-445.57,1.8402
19707,20.871,0.72727,0.05,5.5138e-07,5.51,4.2339e-07,3.1812,-3.0251e-13,5.5457e-07,-4.2339e-07,-3.1812,1.8271
19708,20.871,1,0,4.9864e-05,498.29,1.7218e-05,0.99017,1.5244e-05,-13.847,-5.0066e-05,-504.56,1.8273
19709,20.963,0.90909,0,4.7566e-05,475.33,1.6256e-05,1.0402,1.484e-05,-9.6008,-4.7703e-05,-479.52,1.8403
19710,20.871,0.90909,0.05,6.2367e-07,6.2324,4.789e-07,3.5983,-1.9371e-13,-6.4198e-07,-4.789e-07,-3.5983,1.8272
19711,20.871,1.1818,0,5.4172e-05,541.34,1.9255e-05,0.58822,1.5559e-05,-27.181,-5.4571e-05,-554.11,1.8274
19712,20.963,1.0909,0,5.1067e-05,510.32,1.796e-05,0.56001,1.5003e-05,-21.658,-5.139e-05,-520.51,1.8404
19713,20.871,1.0909,0.05,7.2228e-07,7.2178,5.5462e-07,4.1672,-4.8407e-13,-1.2349e-07,-5.5462e-07,-4.1672,1.8273
19714,20.871,1.3636,0,5.9016e-05,589.75,2.1657e-05,0.39649,1.5718e-05,-44.227,-5.9635e-05,-610.4,1.8275
19715,20.963,1.2727,0,5.5081e-05,550.43,2.0014e-05,0.37418,1.5026e-05,-37.105,-5.561e-05,-567.84,1.8405
19716,20.871,1.2727,0.05,8.5647e-07,8.5588,6.5766e-07,4.9414,1.9215e-13,-5.7367e-06,-6.5766e-07,-4.9414,1.8274
19717,20.871,1.5455,0,6.4302e-05,642.57,2.4339e-05,0.28204,1.5769e-05,-64.106,-6.5145e-05,-672.06,1.8276
19718,20.963,1.4545,0,5.9523e-05,594.82,2.2347e-05,0.27086,1.4932e-05,-55.438,-6.0265e-05,-620.44,1.8406
19719,20.871,1.4545,0.05,1.029e-06,10.283,7.9016e-07,5.9369,3.3079e-13,1.6474e-06,-7.9016e-07,-5.9369,1.8275
19720,20.871,1.7273,0,6.9934e-05,698.86,2.7156e-05,0.20682,1.5877e-05,-84.539,-7.0982e-05,-737.16,1.8277
19721,20.963,1.6364,0,6.4312e-05,642.68,2.4857e-05,0.20329,1.4816e-05,-75.237,-6.5255e-05,-676.86,1.8407
19722,20.871,1.6364,0.05,1.2294e-06,12.285,9.44e-07,7.0928,8.8469e-13,7.4213e-06,-9.44e-07,-7.0928,1.8276
19723,20.871,1.9091,0,7.5781e-05,757.29,2.9908e-05,0.18106,1.6298e-05,-102.08,-7.6995e-05,-803.04,1.8277
19724,20.963,1.8182,0,6.9357e-05,693.09,2.7394e-05,0.15847,1.4875e-05,-93.899,-7.0471e-05,-735.16,1.8407
19725,20.871,1.8182,0.05,1.4409e-06,14.399,1.1065e-06,8.3135,3.0522e-13,7.4719e-06,-1.1065e-06,-8.3135,1.8277
19726,20.871,2.0909,0,8.1602e-05,815.46,3.2374e-05,0.19763,1.7232e-05,-113.57,-8.2933e-05,-866.18,1.8278
19727,20.963,2,0,7.4512e-05,744.6,2.9773e-05,0.15599,1.533e-05,-108.36,-7.5756e-05,-792.75,1.8408
19728,20.871,2,0.05,1.6527e-06,16.516,1.2691e-06,9.5354,1.2926e-12,4.6675e-06,-1.2691e-06,-9.5354,1.8278
19729,20.871,2.2727,0,8.7029e-05,869.69,3.4378e-05,0.2206,1.8659e-05,-117.89,-8.8427e-05,-922.49,1.8279
19730,20.963,2.1818,0,7.9519e-05,794.64,3.1818e-05,0.17611,1.6276e-05,-116.61,-8.0853e-05,-846.39,1.8409
19731,20.871,2.1818,0.05,1.8559e-06,18.546,1.4251e-06,10.707,6.8757e-13,6.8387e-06,-1.4251e-06,-10.707,1.8278
19732,20.871,2.4545,0,9.1647e-05,915.84,3.5848e-05,0.25741,2.0316e-05,-116.45,-9.3064e-05,-968.34,1.8279
19733,20.963,2.3636,0,8.4025e-05,839.67,3.342e-05,0.20709,1.7583e-05,-118.78,-8.5407e-05,-892.61,1.8409
19734,20.871,2.3636,0.05,2.0293e-06,20.279,1.5582e-06,11.708,6.561e-13,3.6574e-06,-1.5582e-06,-11.708,1.8279
19735,20.871,2.6364,0,9.5118e-05,950.52,3.6808e-05,0.29993,2.183e-05,-112.24,-9.6521e-05,-1001.5,1.8279
19736,20.963,2.5455,0,8.7678e-05,876.18,3.4552e-05,0.25202,1.8956e-05,-116.93,-8.9073e-05,-928.62,1.8409
19737,20.871,2.5455,0.05,2.15e-06,21.485,1.6509e-06,12.404,4.8591e-13,4.0761e-06,-1.6509e-06,-12.404,1.8279
19738,20.871,2.8182,0,9.7246e-05,971.79,3.7334e-05,0.32046,2.2872e-05,-108.34,-9.8627e-05,-1021.2,1.828
19739,20.963,2.7273,0,9.0218e-05,901.56,3.5253e-05,0.2832,2.0071e-05,-113.79,-9.1606e-05,-952.89,1.841
19740,20.871,2.7273,0.05,2.2144e-06,22.129,1.7004e-06,12.776,1.0125e-12,7.6573e-07,-1.7004e-06,-12.776,1.8279
19741,20.871,3,0,9.796e-05,978.93,3.7499e-05,0.32433,2.3241e-05,-106.81,-9.9331e-05,-1027.8,1.828
19742,20.963,2.9091,0,9.1512e-05,914.49,3.5582e-05,0.29505,2.0687e-05,-111.62,-9.289e-05,-965,1.841
19743,20.871,2.9091,0.05,2.2388e-06,22.373,1.7191e-06,12.917,1.1592e-12,2.0748e-06,-1.7191e-06,-12.917,1.828
19744,20.871,3.1818,0,9.7246e-05,971.79,3.7334e-05,0.32046,2.2872e-05,-108.34,-9.8627e-05,-1021.2,1.828
19745,20.963,3.0909,0,9.1512e-05,914.49,3.5582e-05,0.29505,2.0687e-05,-111.62,-9.289e-05,-965,1.841
19746,20.871,3.0909,0.05,2.2388e-06,22.373,1.7191e-06,12.917,1.117e-12,1.7502e-06,-1.7191e-06,-12.917,1.828
19747,20.871,3.3636,0,9.5118e-05,950.52,3.6808e-05,0.29993,2.183e-05,-112.24,-9.6521e-05,-1001.5,1.8279
19748,20.963,3.2727,0,9.0218e-05,901.56,3.5253e-05,0.2832,2.0071e-05,-113.79,-9.1606e-05,-952.89,1.841
19749,20.871,3.2727,0.05,2.2144e-06,22.129,1.7004e-06,12.776,1.5137e-12,5.1773e-06,-1.7004e-06,-12.776,1.8279
19750,20.871,3.5455,0,9.1647e-05,915.84,3.5848e-05,0.25741,2.0316e-05,-116.45,-9.3064e-05,-968.34,1.8279
19751,20.963,3.4545,0,8.7678e-05,876.18,3.4552e-05,0.25202,1.8956e-05,-116.93,-8.9073e-05,-928.62,1.8409
19752,20.871,3.4545,0.05,2.15e-06,21.485,1.6509e-06,12.404,1.875e-12,6.4428e-06,-1.6509e-06,-12.404,1.8279
19753,20.871,3.7273,0,8.7029e-05,869.69,3.4378e-05,0.2206,1.8659e-05,-117.89,-8.8427e-05,-922.49,1.8279
19754,20.963,3.6364,0,8.4025e-05,839.67,3.342e-05,0.20709,1.7583e-05,-118.78,-8.5407e-05,-892.61,1.8409
19755,20.871,3.6364,0.05,2.0293e-06,20.279,1.5582e-06,11.708,2.1252e-12,4.8124e-06,-1.5582e-06,-11.708,1.8279
19756,20.871,3.9091,0,8.1602e-05,815.46,3.2374e-05,0.19763,1.7232e-05,-113.57,-8.2933e-05,-866.18,1.8278
19757,20.963,3.8182,0,7.9519e-05,794.64,3.1818e-05,0.17611,1.6276e-05,-116.61,-8.0853e-05,-846.39,1.8409
19758,20.871,3.8182,0.05,1.8559e-06,18.546,1.4251e-06,10.707,1.8622e-12,4.5201e-06,-1.4251e-06,-10.707,1.8278
19759,20.871,4.0909,0,7.5781e-05,757.29,2.9908e-05,0.18106,1.6298e-05,-102.08,-7.6995e-05,-803.04,1.8277
19760,20.963,4,0,7.4512e-05,744.6,2.9773e-05,0.15599,1.533e-05,-108.36,-7.5756e-05,-792.75,1.8408
19761,20.871,4,0.05,1.6527e-06,16.516,1.2691e-06,9.5354,1.2179e-12,-4.7386e-07,-1.2691e-06,-9.5355,1.8278
19762,20.871,4.2727,0,6.9934e-05,698.86,2.7156e-05,0.20682,1.5877e-05,-84.539,-7.0982e-05,-737.16,1.8277
19763,20.963,4.1818,0,6.9357e-05,693.09,2.7394e-05,0.15847,1.4875e-05,-93.899,-7.0471e-05,-735.16,1.8407
19764,20.871,4.1818,0.05,1.4409e-06,14.399,1.1065e-06,8.3135,9.9587e-13,2.4733e-06,-1.1065e-06,-8.3135,1.8277
19765,20.871,4.4545,0,6.4302e-05,642.57,2.4339e-05,0.28204,1.5769e-05,-64.106,-6.5145e-05,-672.06,1.8276
19766,20.963,4.3636,0,6.4312e-05,642.68,2.4857e-05,0.20328,1.4816e-05,-75.237,-6.5255e-05,-676.86,1.8407
19767,20.871,4.3636,0.05,1.2294e-06,12.285,9.44e-07,7.0928,9.5165e-13,-6.2013e-06,-9.44e-07,-7.0928,1.8276
19768,20.871,4.6364,0,5.9016e-05,589.75,2.1657e-05,0.39649,1.5718e-05,-44.227,-5.9635e-05,-610.4,1.8275
19769,20.963,4.5455,0,5.9523e-05,594.82,2.2347e-05,0.27086,1.4932e-05,-55.438,-6.0265e-05,-620.44,1.8406
19770,20.871,4.5455,0.05,1.029e-06,10.283,7.9016e-07,5.9369,-2.8802e-13,-1.4809e-05,-7.9016e-07,-5.9369,1.8275
19771,20.871,4.8182,0,5.4172e-05,541.34,1.9255e-05,0.58822,1.5559e-05,-27.182,-5.4571e-05,-554.11,1.8274
19772,20.963,4.7273,0,5.5081e-05,550.43,2.0014e-05,0.37418,1.5026e-05,-37.105,-5.561e-05,-567.84,1.8405
19773,20.871,4.7273,0.05,8.5647e-07,8.5588,6.5766e-07,4.9414,-8.9692e-13,-1.0022e-05,-6.5766e-07,-4.9414,1.8274
19774,20.871,5,0,4.9864e-05,498.29,1.7218e-05,0.99017,1.5244e-05,-13.847,-5.0066e-05,-504.56,1.8273
19775,20.963,4.9091,0,5.1067e-05,510.32,1.796e-05,0.56001,1.5003e-05,-21.658,-5.139e-05,-520.51,1.8404
19776,20.871,4.9091,0.05,7.2228e-07,7.2178,5.5462e-07,4.1672,-1.9067e-12,-4.5677e-06,-5.5462e-07,-4.1672,1.8273
19777,20.871,5.1818,0,4.6184e-05,461.52,1.5668e-05,2.3436,1.473e-05,-4.7058,-4.622e-05,-462.66,1.8272
19778,20.963,5.0909,0,4.7566e-05,475.33,1.6256e-05,1.0402,1.484e-05,-9.6008,-4.7703e-05,-479.52,1.8403
19779,20.871,5.0909,0.05,6.2367e-07,6.2324,4.789e-07,3.5983,-8.7469e-13,-8.0676e-06,-4.789e-07,-3.5983,1.8272
19780,20.871,5.3636,0,4.3203e-05,431.73,1.4877e-05,6.7193,1.382e-05,-1.222,-4.3104e-05,-428.93,1.8271
19781,20.963,5.2727,0,4.4649e-05,446.18,1.513e-05,3.4075,1.4376e-05,-2.256,-4.4626e-05,-445.57,1.8402
19782,20.871,5.2727,0.05,5.5138e-07,5.51,4.234e-07,3.1812,-1.0383e-12,-1.495e-05,-4.2339e-07,-3.1812,1.8271
19783,20.871,5.5455,0,4.0963e-05,409.35,1.4514e-05,11.691,1.2895e-05,-0.47108,-4.0759e-05,-403.61,1.8269
19784,20.963,5.4545,0,4.2359e-05,423.3,1.4757e-05,8.993,1.348e-05,-0.59677,-4.2208e-05,-419.02,1.8401
19785,20.871,5.4545,0.05,4.9714e-07,4.968,3.8174e-07,2.8683,-1.5771e-12,-8.7723e-06,-3.8174e-07,-2.8683,1.827
19786,20.871,5.7273,0,3.9576e-05,395.49,1.439e-05,15.885,1.2247e-05,-0.21189,-3.9285e-05,-387.41,1.8268
19787,20.963,5.6364,0,4.0714e-05,406.86,1.4578e-05,13.592,1.2736e-05,-0.24629,-4.0469e-05,-400.01,1.84
19788,20.871,5.6364,0.05,4.7176e-07,4.7143,3.6225e-07,2.7218,-1.6811e-14,-4.4227e-07,-3.6225e-07,-2.7218,1.8269
19789,20.963,5.8182,0,3.9898e-05,398.71,1.461e-05,17.331,1.2291e-05,-0.09109,-3.9577e-05,-389.8,1.8398
19790,20.871,5.8182,0.05,7.5301e-07,7.5249,5.7821e-07,4.3445,5.4308e-13,4.205e-06,-5.7822e-07,-4.3445,1.8267
19791,20.871,5.9091,0,3.7833e-05,378.07,1.3384e-05,10.848,1.195e-05,0.070895,-3.7636e-05,-372.5,1.8267
19792,21.055,0.27273,0,4.1054e-05,410.25,1.4813e-05,15.154,1.278e-05,-0.12426,-4.0776e-05,-402.52,1.853
19793,21.147,0.18182,0,4.0974e-05,409.46,1.4878e-05,16.304,1.2702e-05,-0.04579,-4.0673e-05,-401.08,1.866
19794,21.055,0.18182,0.05,5.5788e-07,5.5749,4.2838e-07,3.2187,-1.2941e-13,-1.6983e-07,-4.2838e-07,-3.2187,1.8529
19795,21.055,0.090909,0,3.9565e-05,395.38,1.3924e-05,10.464,1.254e-05,0.063726,-3.9376e-05,-390.01,1.8528
19796,21.055,0.45455,0,4.214e-05,421.1,1.4838e-05,11.025,1.3331e-05,-0.29798,-4.1946e-05,-415.63,1.8531
19797,21.147,0.36364,0,4.161e-05,415.82,1.4822e-05,13.022,1.3068e-05,-0.15343,-4.1376e-05,-409.23,1.8661
19798,21.055,0.36364,0.05,2.9462e-07,2.9441,2.2623e-07,1.6998,-1.0031e-12,-7.6194e-06,-2.2623e-07,-1.6998,1.853
19799,21.055,0.63636,0,4.3856e-05,438.26,1.4966e-05,5.3529,1.4127e-05,-0.94407,-4.3778e-05,-436.02,1.8532
19800,21.147,0.54545,0,4.2885e-05,428.55,1.486e-05,8.268,1.3708e-05,-0.39074,-4.2744e-05,-424.55,1.8662
19801,21.055,0.54545,0.05,3.4551e-07,3.4527,2.6531e-07,1.9934,-5.8054e-13,-9.5709e-06,-2.6531e-07,-1.9934,1.8531
19802,21.055,0.81818,0,4.6107e-05,460.75,1.5599e-05,1.2147,1.4675e-05,-5.7328,-4.618e-05,-462.97,1.8533
19803,21.147,0.72727,0,4.4622e-05,445.92,1.5021e-05,2.2909,1.4436e-05,-2.105,-4.4618e-05,-445.81,1.8664
19804,21.055,0.72727,0.05,4.2585e-07,4.2556,3.27e-07,2.457,-6.1208e-13,-4.5037e-06,-3.27e-07,-2.457,1.8533
19805,21.055,1,0,4.8865e-05,488.31,1.6987e-05,0.52902,1.47e-05,-16.656,-4.9117e-05,-496.15,1.8534
19806,21.147,0.90909,0,4.6812e-05,467.8,1.6026e-05,0.60064,1.4518e-05,-10.734,-4.6974e-05,-472.76,1.8664
19807,21.055,0.90909,0.05,5.2322e-07,5.2286,4.0177e-07,3.0187,-3.782e-13,-3.3825e-06,-4.0177e-07,-3.0187,1.8534
19808,21.055,1.1818,0,5.2083e-05,520.47,1.8719e-05,0.33951,1.4573e-05,-30.809,-5.2531e-05,-535,1.8535
19809,21.147,1.0909,0,4.9425e-05,493.91,1.7483e-05,0.34303,1.4324e-05,-23.393,-4.9774e-05,-505,1.8665
19810,21.055,1.0909,0.05,6.4097e-07,6.4053,4.9219e-07,3.6981,-1.1005e-12,-5.2259e-06,-4.9219e-07,-3.6981,1.8535
19811,21.055,1.3636,0,5.5696e-05,556.57,2.0703e-05,0.24598,1.4346e-05,-47.52,-5.6346e-05,-578.67,1.8536
19812,21.147,1.2727,0,5.2413e-05,523.77,1.9195e-05,0.24425,1.402e-05,-38.635,-5.2958e-05,-541.88,1.8666
19813,21.055,1.2727,0.05,7.809e-07,7.8036,5.9964e-07,4.5054,9.3792e-14,-2.8502e-06,-5.9964e-07,-4.5054,1.8535
19814,21.055,1.5455,0,5.9636e-05,595.95,2.2864e-05,0.18633,1.4082e-05,-65.798,-6.0478e-05,-626.01,1.8537
19815,21.147,1.4545,0,5.5719e-05,556.8,2.1095e-05,0.18806,1.365e-05,-55.748,-5.6453e-05,-582.47,1.8667
19816,21.055,1.4545,0.05,9.3995e-07,9.393,7.2177e-07,5.4231,-2.4976e-13,6.0089e-06,-7.2177e-07,-5.4231,1.8536
19817,21.055,1.7273,0,6.3828e-05,637.84,2.5094e-05,0.14645,1.3908e-05,-83.897,-6.4836e-05,-675.55,1.8537
19818,21.147,1.6364,0,5.9281e-05,592.4,2.3101e-05,0.15054,1.3302e-05,-73.474,-6.0184e-05,-625.62,1.8668
19819,21.055,1.6364,0.05,1.1102e-06,11.094,8.5248e-07,6.4052,1.0256e-12,-7.7386e-07,-8.5248e-07,-6.4052,1.8537
19820,21.055,1.9091,0,6.8165e-05,681.18,2.7257e-05,0.1242,1.3984e-05,-99.602,-6.9308e-05,-725.43,1.8538
19821,21.147,1.8182,0,6.3026e-05,629.83,2.5107e-05,0.12767,1.3113e-05,-89.992,-6.4069e-05,-669.91,1.8668
19822,21.055,1.8182,0.05,1.2826e-06,12.817,9.8488e-07,7.4,1.0591e-12,3.3798e-06,-9.8488e-07,-7.4,1.8538
19823,21.055,2.0909,0,7.2479e-05,724.29,2.9216e-05,0.12704,1.4422e-05,-111.03,-7.3723e-05,-773.32,1.8539
19824,21.147,2,0,6.6841e-05,667.94,2.699e-05,0.12026,1.3212e-05,-103.4,-6.7993e-05,-713.54,1.8669
19825,21.055,2,0.05,1.4513e-06,14.503,1.1145e-06,8.3736,8.1599e-13,4.5504e-06,-1.1145e-06,-8.3736,1.8538
19826,21.055,2.2727,0,7.6526e-05,764.73,3.086e-05,0.15892,1.5207e-05,-117.45,-7.7839e-05,-816.56,1.8539
19827,21.147,2.1818,0,7.0546e-05,704.97,2.8639e-05,0.13523,1.3651e-05,-112.48,-7.1779e-05,-754.37,1.8669
19828,21.055,2.1818,0.05,1.6114e-06,16.103,1.2373e-06,9.2968,1.3244e-12,2.613e-06,-1.2373e-06,-9.2968,1.8539
19829,21.055,2.4545,0,8.002e-05,799.65,3.2124e-05,0.20165,1.6182e-05,-119.58,-8.1375e-05,-852.58,1.8539
19830,21.147,2.3636,0,7.3906e-05,738.55,2.9976e-05,0.16754,1.4356e-05,-117.19,-7.5194e-05,-790.04,1.867
19831,21.055,2.3636,0.05,1.7527e-06,17.515,1.3459e-06,10.112,1.0163e-12,4.0571e-06,-1.3459e-06,-10.112,1.8539
19832,21.055,2.6364,0,8.2702e-05,826.44,3.2997e-05,0.23655,1.7113e-05,-119.11,-8.4074e-05,-879.39,1.854
19833,21.147,2.5455,0,7.6671e-05,766.18,3.0965e-05,0.20086,1.5151e-05,-118.62,-7.7991e-05,-818.45,1.867
19834,21.055,2.5455,0.05,1.8626e-06,18.613,1.4303e-06,10.746,1.2549e-12,2.4632e-06,-1.4303e-06,-10.746,1.8539
19835,21.055,2.8182,0,8.438e-05,843.22,3.3502e-05,0.25824,1.7775e-05,-117.91,-8.5758e-05,-895.81,1.854
19836,21.147,2.7273,0,7.8629e-05,785.75,3.1606e-05,0.22646,1.5826e-05,-118.34,-7.9964e-05,-838.07,1.867
19837,21.055,2.7273,0.05,1.934e-06,19.327,1.4851e-06,11.159,1.0825e-12,1.2738e-06,-1.4851e-06,-11.159,1.854
19838,21.055,3,0,8.495e-05,848.92,3.3666e-05,0.26551,1.8013e-05,-117.34,-8.6328e-05,-901.32,1.854
19839,21.147,2.9091,0,7.9641e-05,795.86,3.1919e-05,0.23999,1.621e-05,-117.79,-8.0981e-05,-848.05,1.867
19840,21.055,2.9091,0.05,1.9679e-06,19.666,1.5111e-06,11.354,9.6107e-13,3.2441e-06,-1.5111e-06,-11.354,1.854
19841,21.055,3.1818,0,8.438e-05,843.22,3.3502e-05,0.25824,1.7775e-05,-117.91,-8.5758e-05,-895.81,1.854
19842,21.147,3.0909,0,7.9641e-05,795.86,3.1919e-05,0.23999,1.621e-05,-117.79,-8.0981e-05,-848.05,1.867
19843,21.055,3.0909,0.05,1.9679e-06,19.666,1.5111e-06,11.354,1.5438e-12,3.4649e-06,-1.5111e-06,-11.354,1.854
19844,21.055,3.3636,0,8.2702e-05,826.44,3.2997e-05,0.23655,1.7113e-05,-119.11,-8.4074e-05,-879.39,1.854
19845,21.147,3.2727,0,7.8629e-05,785.75,3.1606e-05,0.22646,1.5826e-05,-118.34,-7.9964e-05,-838.07,1.867
19846,21.055,3.2727,0.05,1.934e-06,19.327,1.4851e-06,11.158,1.4478e-12,4.6144e-06,-1.4851e-06,-11.159,1.854
19847,21.055,3.5455,0,8.002e-05,799.65,3.2124e-05,0.20165,1.6182e-05,-119.58,-8.1375e-05,-852.58,1.8539
19848,21.147,3.4545,0,7.6671e-05,766.18,3.0965e-05,0.20086,1.5151e-05,-118.62,-7.7991e-05,-818.45,1.867
19849,21.055,3.4545,0.05,1.8626e-06,18.613,1.4303e-06,10.746,1.5526e-12,4.8295e-06,-1.4303e-06,-10.746,1.8539
19850,21.055,3.7273,0,7.6526e-05,764.73,3.086e-05,0.15892,1.5207e-05,-117.45,-7.7839e-05,-816.56,1.8539
19851,21.147,3.6364,0,7.3906e-05,738.55,2.9976e-05,0.16754,1.4356e-05,-117.19,-7.5194e-05,-790.04,1.867
19852,21.055,3.6364,0.05,1.7527e-06,17.515,1.3459e-06,10.112,1.8612e-12,3.7398e-06,-1.3459e-06,-10.112,1.8539
19853,21.055,3.9091,0,7.2479e-05,724.29,2.9216e-05,0.12705,1.4422e-05,-111.03,-7.3723e-05,-773.32,1.8539
19854,21.147,3.8182,0,7.0546e-05,704.97,2.8639e-05,0.13523,1.3651e-05,-112.48,-7.1779e-05,-754.37,1.8669
19855,21.055,3.8182,0.05,1.6114e-06,16.103,1.2373e-06,9.2968,2.0025e-12,5.8369e-06,-1.2373e-06,-9.2968,1.8539
19856,21.055,4.0909,0,6.8165e-05,681.18,2.7257e-05,0.1242,1.3984e-05,-99.602,-6.9308e-05,-725.43,1.8538
19857,21.147,4,0,6.6841e-05,667.94,2.699e-05,0.12026,1.3212e-05,-103.4,-6.7993e-05,-713.54,1.8669
19858,21.055,4,0.05,1.4513e-06,14.503,1.1145e-06,8.3736,1.4256e-12,3.5202e-06,-1.1145e-06,-8.3736,1.8538
19859,21.055,4.2727,0,6.3828e-05,637.84,2.5094e-05,0.14644,1.3908e-05,-83.897,-6.4836e-05,-675.55,1.8537
19860,21.147,4.1818,0,6.3026e-05,629.83,2.5107e-05,0.12767,1.3113e-05,-89.992,-6.4069e-05,-669.91,1.8668
19861,21.055,4.1818,0.05,1.2826e-06,12.817,9.8488e-07,7.4,1.2497e-12,-5.8131e-06,-9.8488e-07,-7.4,1.8538
19862,21.055,4.4545,0,5.9636e-05,595.95,2.2864e-05,0.18633,1.4082e-05,-65.798,-6.0478e-05,-626.01,1.8537
19863,21.147,4.3636,0,5.9281e-05,592.4,2.3101e-05,0.15054,1.3302e-05,-73.474,-6.0184e-05,-625.62,1.8668
19864,21.055,4.3636,0.05,1.1102e-06,11.094,8.5248e-07,6.4052,3.394e-13,-2.4322e-06,-8.5248e-07,-6.4052,1.8537
19865,21.055,4.6364,0,5.5696e-05,556.57,2.0703e-05,0.24598,1.4346e-05,-47.52,-5.6346e-05,-578.67,1.8536
19866,21.147,4.5455,0,5.5719e-05,556.8,2.1095e-05,0.18806,1.365e-05,-55.748,-5.6453e-05,-582.47,1.8667
19867,21.055,4.5455,0.05,9.3995e-07,9.3931,7.2177e-07,5.4231,-1.8809e-13,-8.5541e-06,-7.2177e-07,-5.4231,1.8536
19868,21.055,4.8182,0,5.2083e-05,520.47,1.8719e-05,0.33951,1.4573e-05,-30.809,-5.2531e-05,-535,1.8535
19869,21.147,4.7273,0,5.2413e-05,523.77,1.9195e-05,0.24425,1.402e-05,-38.636,-5.2958e-05,-541.88,1.8666
19870,21.055,4.7273,0.05,7.809e-07,7.8036,5.9964e-07,4.5054,-5.5102e-13,-1.102e-05,-5.9964e-07,-4.5054,1.8535
19871,21.055,5,0,4.8865e-05,488.31,1.6987e-05,0.52902,1.47e-05,-16.656,-4.9117e-05,-496.15,1.8534
19872,21.147,4.9091,0,4.9425e-05,493.91,1.7483e-05,0.34303,1.4324e-05,-23.393,-4.9774e-05,-505,1.8665
19873,21.055,4.9091,0.05,6.4097e-07,6.4053,4.9219e-07,3.6981,-9.7786e-13,-9.0432e-06,-4.9219e-07,-3.6981,1.8535
19874,21.055,5.1818,0,4.6107e-05,460.75,1.5599e-05,1.2147,1.4675e-05,-5.7328,-4.618e-05,-462.97,1.8533
19875,21.147,5.0909,0,4.6812e-05,467.8,1.6026e-05,0.60064,1.4518e-05,-10.734,-4.6974e-05,-472.76,1.8664
19876,21.055,5.0909,0.05,5.2322e-07,5.2286,4.0177e-07,3.0187,-1.6901e-12,-1.4291e-05,-4.0177e-07,-3.0187,1.8534
19877,21.055,5.3636,0,4.3856e-05,438.26,1.4966e-05,5.3529,1.4127e-05,-0.94407,-4.3778e-05,-436.02,1.8532
19878,21.147,5.2727,0,4.4622e-05,445.92,1.5021e-05,2.2909,1.4436e-05,-2.105,-4.4618e-05,-445.81,1.8664
19879,21.055,5.2727,0.05,4.2585e-07,4.2556,3.27e-07,2.457,-1.133e-12,-1.395e-05,-3.27e-07,-2.457,1.8533
19880,21.055,5.5455,0,4.214e-05,421.1,1.4838e-05,11.025,1.3331e-05,-0.29799,-4.1946e-05,-415.63,1.8531
19881,21.147,5.4545,0,4.2885e-05,428.55,1.486e-05,8.268,1.3708e-05,-0.39074,-4.2744e-05,-424.55,1.8662
19882,21.055,5.4545,0.05,3.4551e-07,3.4527,2.6531e-07,1.9934,-1.3623e-12,-1.3533e-05,-2.6531e-07,-1.9934,1.8531
19883,21.055,5.7273,0,4.1054e-05,410.25,1.4813e-05,15.154,1.278e-05,-0.12426,-4.0776e-05,-402.52,1.853
19884,21.147,5.6364,0,4.161e-05,415.82,1.4822e-05,13.022,1.3068e-05,-0.15343,-4.1376e-05,-409.23,1.8661
19885,21.055,5.6364,0.05,2.9462e-07,2.9441,2.2623e-07,1.6998,-5.4261e-13,-6.2758e-06,-2.2623e-07,-1.6998,1.853
19886,21.147,5.8182,0,4.0974e-05,409.46,1.4878e-05,16.304,1.2702e-05,-0.045789,-4.0673e-05,-401.08,1.866
19887,21.055,5.8182,0.05,5.5788e-07,5.5749,4.2838e-07,3.2187,7.7484e-13,3.4803e-06,-4.2838e-07,-3.2187,1.8529
19888,21.055,5.9091,0,3.9565e-05,395.38,1.3924e-05,10.464,1.254e-05,0.063727,-3.9376e-05,-390.01,1.8528
19889,21.239,0.27273,0,4.1539e-05,415.1,1.4894e-05,14.227,1.2991e-05,-0.073757,-4.128e-05,-407.84,1.8792
19890,21.331,0.18182,0,4.1124e-05,410.95,1.4837e-05,15.225,1.2808e-05,-0.022187,-4.0844e-05,-403.14,1.8922
19891,21.239,0.18182,0.05,3.8313e-07,3.8287,2.942e-07,2.2105,1.8683e-13,4.1707e-06,-2.942e-07,-2.2105,1.8791
19892,21.239,0.090909,0,4.0281e-05,402.53,1.4118e-05,9.9476,1.2802e-05,0.058741,-4.0102e-05,-397.44,1.879
19893,21.239,0.45455,0,4.2373e-05,423.44,1.4852e-05,10.328,1.3453e-05,-0.18577,-4.2191e-05,-418.27,1.8793
19894,21.331,0.36364,0,4.1598e-05,415.69,1.4755e-05,12.302,1.3105e-05,-0.095257,-4.1376e-05,-409.45,1.8923
19895,21.239,0.36364,0.05,1.7134e-07,1.7122,1.3157e-07,0.98856,2.219e-13,1.3027e-05,-1.3157e-07,-0.98855,1.8792
19896,21.239,0.63636,0,4.3679e-05,436.49,1.4826e-05,4.5379,1.4132e-05,-0.67817,-4.3611e-05,-434.54,1.8794
19897,21.331,0.54545,0,4.2574e-05,425.45,1.4705e-05,7.7202,1.3645e-05,-0.2448,-4.2441e-05,-421.65,1.8924
19898,21.239,0.54545,0.05,2.6446e-07,2.6428,2.0308e-07,1.5258,5.6e-14,8.0784e-06,-2.0308e-07,-1.5258,1.8793
19899,21.239,0.81818,0,4.5368e-05,453.36,1.5325e-05,0.75362,1.4441e-05,-5.8859,-4.5451e-05,-455.89,1.8795
19900,21.331,0.72727,0,4.3883e-05,438.52,1.4712e-05,1.7314,1.425e-05,-1.7355,-4.3882e-05,-438.52,1.8925
19901,21.239,0.72727,0.05,3.6871e-07,3.6846,2.8313e-07,2.1273,6.0375e-13,5.564e-06,-2.8313e-07,-2.1273,1.8794
19902,21.239,1,0,4.7422e-05,473.89,1.6513e-05,0.34231,1.4202e-05,-17.02,-4.7682e-05,-481.99,1.8796
19903,21.331,0.90909,0,4.5515e-05,454.84,1.5568e-05,0.40371,1.4124e-05,-10.445,-4.5676e-05,-459.76,1.8926
19904,21.239,0.90909,0.05,4.8109e-07,4.8076,3.6942e-07,2.7757,4.5654e-13,3.9291e-06,-3.6942e-07,-2.7757,1.8795
19905,21.239,1.1818,0,4.9812e-05,497.77,1.7957e-05,0.2327,1.3832e-05,-30.768,-5.0259e-05,-512.32,1.8797
19906,21.331,1.0909,0,4.7453e-05,474.2,1.6788e-05,0.24131,1.3741e-05,-22.651,-4.7793e-05,-484.99,1.8927
19907,21.239,1.0909,0.05,6.0405e-07,6.0363,4.6383e-07,3.4851,7.3974e-13,1.1499e-05,-4.6383e-07,-3.4851,1.8796
19908,21.239,1.3636,0,5.2495e-05,524.59,1.9585e-05,0.17954,1.3387e-05,-46.392,-5.3126e-05,-546.14,1.8797
19909,21.331,1.2727,0,4.9666e-05,496.32,1.8199e-05,0.18083,1.3262e-05,-36.91,-5.0187e-05,-513.64,1.8928
19910,21.239,1.2727,0.05,7.3764e-07,7.3713,5.6642e-07,4.2558,7.8056e-13,6.5478e-06,-5.6642e-07,-4.2558,1.8797
19911,21.239,1.5455,0,5.5423e-05,553.85,2.1331e-05,0.14681,1.2933e-05,-62.955,-5.6221e-05,-582.55,1.8798
19912,21.331,1.4545,0,5.2116e-05,520.8,1.9744e-05,0.14744,1.274e-05,-52.481,-5.2806e-05,-544.96,1.8929
19913,21.239,1.4545,0.05,8.7896e-07,8.7835,6.7493e-07,5.0712,1.021e-12,8.0963e-06,-6.7493e-07,-5.0712,1.8798
19914,21.239,1.7273,0,5.8536e-05,584.96,2.3114e-05,0.1264,1.2565e-05,-79.13,-5.9476e-05,-620.42,1.8799
19915,21.331,1.6364,0,5.4756e-05,547.18,2.1357e-05,0.12618,1.2249e-05,-68.314,-5.5594e-05,-578.05,1.8929
19916,21.239,1.6364,0.05,1.0231e-06,10.224,7.8563e-07,5.9029,1.1347e-12,9.1816e-06,-7.8563e-07,-5.9029,1.8798
19917,21.239,1.9091,0,6.1751e-05,617.08,2.4839e-05,0.11869,1.239e-05,-93.42,-6.2804e-05,-658.39,1.8799
19918,21.331,1.8182,0,5.7528e-05,574.88,2.296e-05,0.11439,1.1885e-05,-83.104,-5.8485e-05,-611.84,1.893
19919,21.239,1.8182,0.05,1.1654e-06,11.646,8.9488e-07,6.7238,1.0485e-12,6.9571e-06,-8.9489e-07,-6.7238,1.8799
19920,21.239,2.0909,0,6.4942e-05,648.97,2.6412e-05,0.12442,1.2474e-05,-104.6,-6.6082e-05,-694.84,1.88
19921,21.331,2,0,6.0343e-05,603.01,2.4468e-05,0.11368,1.1732e-05,-95.583,-6.1394e-05,-645.03,1.893
19922,21.239,2,0.05,1.3025e-06,13.016,1.0002e-06,7.5149,1.0471e-12,7.8095e-06,-1.0002e-06,-7.515,1.8799
19923,21.239,2.2727,0,6.7939e-05,678.92,2.7755e-05,0.14144,1.2811e-05,-112.14,-6.9144e-05,-727.92,1.88
19924,21.331,2.1818,0,6.3074e-05,630.3,2.5804e-05,0.12384,1.1823e-05,-104.92,-6.4196e-05,-676.1,1.8931
19925,21.239,2.1818,0.05,1.4311e-06,14.301,1.0989e-06,8.2567,1.3509e-12,9.0531e-06,-1.0989e-06,-8.2567,1.88
19926,21.239,2.4545,0,7.0542e-05,704.93,2.8817e-05,0.16591,1.3308e-05,-116.36,-7.1792e-05,-755.77,1.88
19927,21.331,2.3636,0,6.5555e-05,655.09,2.6908e-05,0.14248,1.2117e-05,-110.99,-6.6729e-05,-703.41,1.8931
19928,21.239,2.3636,0.05,1.5453e-06,15.442,1.1866e-06,8.9157,1.1791e-12,9.4484e-06,-1.1866e-06,-8.9157,1.88
19929,21.239,2.6364,0,7.2557e-05,725.07,2.9573e-05,0.19077,1.3819e-05,-118.18,-7.3836e-05,-776.79,1.8801
19930,21.331,2.5455,0,6.7608e-05,675.61,2.7745e-05,0.16487,1.2509e-05,-114.32,-6.8818e-05,-725.37,1.8931
19931,21.239,2.5455,0.05,1.6375e-06,16.363,1.2574e-06,9.4474,1.1915e-12,6.7064e-06,-1.2574e-06,-9.4474,1.88
19932,21.239,2.8182,0,7.3831e-05,737.8,3.0023e-05,0.20829,1.4197e-05,-118.7,-7.5124e-05,-789.82,1.8801
19933,21.331,2.7273,0,6.9074e-05,690.26,2.8303e-05,0.18391,1.2867e-05,-115.8,-7.0305e-05,-740.72,1.8931
19934,21.239,2.7273,0.05,1.7011e-06,17,1.3063e-06,9.8147,1.2296e-12,6.3228e-06,-1.3063e-06,-9.8147,1.8801
19935,21.239,3,0,7.4266e-05,742.15,3.0172e-05,0.21447,1.4336e-05,-118.77,-7.5564e-05,-794.24,1.8801
19936,21.331,2.9091,0,6.9837e-05,697.88,2.858e-05,0.19452,1.3078e-05,-116.28,-7.1078e-05,-748.6,1.8931
19937,21.239,2.9091,0.05,1.7333e-06,17.321,1.3309e-06,10,1.4293e-12,8.1286e-06,-1.3309e-06,-10,1.8801
19938,21.239,3.1818,0,7.3831e-05,737.8,3.0023e-05,0.20829,1.4197e-05,-118.7,-7.5124e-05,-789.82,1.8801
19939,21.331,3.0909,0,6.9837e-05,697.88,2.858e-05,0.19452,1.3078e-05,-116.28,-7.1078e-05,-748.6,1.8931
19940,21.239,3.0909,0.05,1.7333e-06,17.321,1.3309e-06,10,1.303e-12,6.2133e-06,-1.3309e-06,-10,1.8801
19941,21.239,3.3636,0,7.2557e-05,725.07,2.9573e-05,0.19077,1.3819e-05,-118.18,-7.3836e-05,-776.79,1.8801
19942,21.331,3.2727,0,6.9074e-05,690.26,2.8303e-05,0.18391,1.2867e-05,-115.8,-7.0305e-05,-740.72,1.8931
19943,21.239,3.2727,0.05,1.7011e-06,17,1.3063e-06,9.8147,1.6553e-12,7.2691e-06,-1.3063e-06,-9.8147,1.8801
19944,21.239,3.5455,0,7.0542e-05,704.93,2.8817e-05,0.16591,1.3308e-05,-116.36,-7.1792e-05,-755.77,1.88
19945,21.331,3.4545,0,6.7608e-05,675.61,2.7745e-05,0.16487,1.2509e-05,-114.32,-6.8818e-05,-725.37,1.8931
19946,21.239,3.4545,0.05,1.6375e-06,16.363,1.2574e-06,9.4474,1.8032e-12,6.5574e-06,-1.2574e-06,-9.4474,1.88
19947,21.239,3.7273,0,6.7939e-05,678.92,2.7755e-05,0.14144,1.2811e-05,-112.14,-6.9144e-05,-727.92,1.88
19948,21.331,3.6364,0,6.5555e-05,655.09,2.6908e-05,0.14248,1.2117e-05,-110.99,-6.6729e-05,-703.41,1.8931
19949,21.239,3.6364,0.05,1.5453e-06,15.442,1.1866e-06,8.9157,1.7928e-12,8.4663e-06,-1.1866e-06,-8.9157,1.88
19950,21.239,3.9091,0,6.4942e-05,648.97,2.6412e-05,0.12442,1.2474e-05,-104.6,-6.6082e-05,-694.84,1.88
19951,21.331,3.8182,0,6.3074e-05,630.3,2.5804e-05,0.12384,1.1823e-05,-104.92,-6.4196e-05,-676.1,1.8931
19952,21.239,3.8182,0.05,1.4311e-06,14.301,1.0989e-06,8.2567,1.6575e-12,8.3434e-06,-1.0989e-06,-8.2568,1.88
19953,21.239,4.0909,0,6.1751e-05,617.08,2.4839e-05,0.11869,1.239e-05,-93.42,-6.2804e-05,-658.39,1.8799
19954,21.331,4,0,6.0343e-05,603.01,2.4468e-05,0.11368,1.1732e-05,-95.583,-6.1394e-05,-645.03,1.893
19955,21.239,4,0.05,1.3025e-06,13.016,1.0002e-06,7.5149,1.5167e-12,7.4938e-06,-1.0002e-06,-7.515,1.8799
19956,21.239,4.2727,0,5.8536e-05,584.96,2.3114e-05,0.1264,1.2565e-05,-79.13,-5.9476e-05,-620.42,1.8799
19957,21.331,4.1818,0,5.7528e-05,574.88,2.296e-05,0.11439,1.1885e-05,-83.104,-5.8485e-05,-611.84,1.893
19958,21.239,4.1818,0.05,1.1654e-06,11.646,8.9488e-07,6.7238,1.1244e-12,5.5051e-06,-8.9489e-07,-6.7238,1.8799
19959,21.239,4.4545,0,5.5423e-05,553.85,2.1331e-05,0.14681,1.2933e-05,-62.955,-5.6221e-05,-582.55,1.8798
19960,21.331,4.3636,0,5.4756e-05,547.18,2.1357e-05,0.12618,1.2249e-05,-68.314,-5.5594e-05,-578.05,1.8929
19961,21.239,4.3636,0.05,1.0231e-06,10.224,7.8563e-07,5.9029,1.0406e-12,4.9144e-06,-7.8563e-07,-5.9029,1.8798
19962,21.239,4.6364,0,5.2495e-05,524.59,1.9585e-05,0.17954,1.3387e-05,-46.392,-5.3126e-05,-546.14,1.8797
19963,21.331,4.5455,0,5.2116e-05,520.8,1.9744e-05,0.14744,1.274e-05,-52.481,-5.2806e-05,-544.96,1.8929
19964,21.239,4.5455,0.05,8.7896e-07,8.7835,6.7493e-07,5.0711,9.3816e-13,-4.1464e-06,-6.7493e-07,-5.0712,1.8798
19965,21.239,4.8182,0,4.9812e-05,497.77,1.7957e-05,0.2327,1.3832e-05,-30.768,-5.0259e-05,-512.32,1.8797
19966,21.331,4.7273,0,4.9666e-05,496.32,1.8199e-05,0.18083,1.3262e-05,-36.91,-5.0187e-05,-513.64,1.8928
19967,21.239,4.7273,0.05,7.3764e-07,7.3713,5.6642e-07,4.2558,4.8705e-13,3.0643e-06,-5.6642e-07,-4.2558,1.8797
19968,21.239,5,0,4.7422e-05,473.89,1.6513e-05,0.34231,1.4202e-05,-17.02,-4.7682e-05,-481.99,1.8796
19969,21.331,4.9091,0,4.7453e-05,474.2,1.6788e-05,0.24131,1.3741e-05,-22.651,-4.7793e-05,-484.99,1.8927
19970,21.239,4.9091,0.05,6.0405e-07,6.0363,4.6383e-07,3.4851,7.1461e-14,-2.8654e-06,-4.6383e-07,-3.4851,1.8796
19971,21.239,5.1818,0,4.5368e-05,453.36,1.5325e-05,0.75362,1.4441e-05,-5.8859,-4.5451e-05,-455.89,1.8795
19972,21.331,5.0909,0,4.5515e-05,454.84,1.5568e-05,0.4037,1.4124e-05,-10.445,-4.5676e-05,-459.76,1.8926
19973,21.239,5.0909,0.05,4.8109e-07,4.8076,3.6942e-07,2.7757,4.7413e-13,5.7431e-06,-3.6942e-07,-2.7757,1.8795
19974,21.239,5.3636,0,4.3679e-05,436.49,1.4826e-05,4.5379,1.4132e-05,-0.67817,-4.3611e-05,-434.54,1.8794
19975,21.331,5.2727,0,4.3883e-05,438.52,1.4712e-05,1.7314,1.425e-05,-1.7355,-4.3882e-05,-438.52,1.8925
19976,21.239,5.2727,0.05,3.6871e-07,3.6846,2.8313e-07,2.1273,-4.7254e-13,-4.3392e-06,-2.8313e-07,-2.1273,1.8794
19977,21.239,5.5455,0,4.2373e-05,423.44,1.4852e-05,10.328,1.3453e-05,-0.18577,-4.2191e-05,-418.27,1.8793
19978,21.331,5.4545,0,4.2574e-05,425.45,1.4705e-05,7.7202,1.3645e-05,-0.2448,-4.2441e-05,-421.65,1.8924
19979,21.239,5.4545,0.05,2.6446e-07,2.6428,2.0308e-07,1.5258,-8.3364e-13,-3.0819e-06,-2.0307e-07,-1.5258,1.8793
19980,21.239,5.7273,0,4.1539e-05,415.1,1.4894e-05,14.227,1.2991e-05,-0.073755,-4.128e-05,-407.84,1.8792
19981,21.331,5.6364,0,4.1598e-05,415.69,1.4755e-05,12.302,1.3105e-05,-0.095256,-4.1376e-05,-409.45,1.8923
19982,21.239,5.6364,0.05,1.7134e-07,1.7122,1.3157e-07,0.98857,-4.5472e-13,-2.0687e-06,-1.3157e-07,-0.98856,1.8792
19983,21.331,5.8182,0,4.1123e-05,410.95,1.4837e-05,15.225,1.2808e-05,-0.022186,-4.0844e-05,-403.14,1.8922
19984,21.239,5.8182,0.05,3.8313e-07,3.8287,2.942e-07,2.2105,4.0182e-13,4.5966e-06,-2.942e-07,-2.2105,1.8791
19985,21.239,5.9091,0,4.0281e-05,402.53,1.4118e-05,9.9476,1.2802e-05,0.058744,-4.0102e-05,-397.44,1.879
19986,21.423,0.27273,0,4.1182e-05,411.54,1.4698e-05,13.302,1.2922e-05,-0.043428,-4.094e-05,-404.75,1.9054
19987,21.515,0.18182,0,4.0491e-05,404.63,1.4547e-05,14.244,1.2649e-05,-0.009838,-4.023e-05,-397.33,1.9184
19988,21.423,0.18182,0.05,2.312e-07,2.3104,1.7754e-07,1.3339,-1.5254e-13,3.3406e-06,-1.7754e-07,-1.3339,1.9053
19989,21.423,0.090909,0,4.0124e-05,400.97,1.4023e-05,9.4274,1.2776e-05,0.054297,-3.9955e-05,-396.14,1.9053
19990,21.423,0.45455,0,4.1807e-05,417.78,1.4611e-05,9.7166,1.3303e-05,-0.11066,-4.1635e-05,-412.89,1.9055
19991,21.515,0.36364,0,4.0823e-05,407.95,1.4441e-05,11.617,1.2887e-05,-0.057033,-4.0614e-05,-402.04,1.9185
19992,21.423,0.36364,0.05,1.5764e-07,1.5753,1.2104e-07,0.90948,1.0504e-12,1.1488e-05,-1.2105e-07,-0.90948,1.9054
19993,21.423,0.63636,0,4.2792e-05,427.62,1.449e-05,4.163,1.3878e-05,-0.43931,-4.2726e-05,-425.74,1.9056
19994,21.515,0.54545,0,4.1561e-05,415.33,1.434e-05,7.4084,1.3335e-05,-0.14104,-4.1433e-05,-411.64,1.9186
19995,21.423,0.54545,0.05,2.6591e-07,2.6573,2.0418e-07,1.5342,1.2642e-12,1.2304e-05,-2.0419e-07,-1.5342,1.9055
19996,21.423,0.81818,0,4.405e-05,440.2,1.4842e-05,0.53383,1.4068e-05,-5.2853,-4.4128e-05,-442.54,1.9057
19997,21.515,0.72727,0,4.254e-05,425.11,1.4227e-05,1.5583,1.3863e-05,-1.1772,-4.2533e-05,-424.91,1.9187
19998,21.423,0.72727,0.05,3.6987e-07,3.6962,2.8401e-07,2.134,1.1047e-12,9.6264e-06,-2.8402e-07,-2.134,1.9056
19999,21.423,1,0,4.5571e-05,455.4,1.5835e-05,0.24737,1.3698e-05,-15.813,-4.5815e-05,-462.97,1.9058
20000,21.515,0.90909,0,4.375e-05,437.2,1.4915e-05,0.3012,1.3654e-05,-9.1736,-4.3894e-05,-441.56,1.9188
20001,21.423,0.90909,0.05,4.7889e-07,4.7856,3.6772e-07,2.7629,8.4073e-13,8.8931e-06,-3.6773e-07,-2.7629,1.9057
20002,21.423,1.1818,0,4.7337e-05,473.04,1.7028e-05,0.1762,1.3206e-05,-28.535,-4.7754e-05,-486.56,1.9058
20003,21.515,1.0909,0,4.518e-05,451.49,1.5923e-05,0.18562,1.3186e-05,-20.376,-4.5488e-05,-461.23,1.9189
20004,21.423,1.0909,0.05,5.9377e-07,5.9336,4.5594e-07,3.4258,1.2849e-12,1.0044e-05,-4.5594e-07,-3.4258,1.9058
20005,21.423,1.3636,0,4.9318e-05,492.84,1.8357e-05,0.14265,1.2652e-05,-42.725,-4.9902e-05,-512.73,1.9059
20006,21.515,1.2727,0,4.681e-05,467.77,1.7078e-05,0.1451,1.263e-05,-33.279,-4.7284e-05,-483.44,1.919
20007,21.423,1.2727,0.05,7.1356e-07,7.1307,5.4792e-07,4.1169,1.4291e-12,1.2129e-05,-5.4793e-07,-4.1169,1.9059
20008,21.423,1.5455,0,5.1481e-05,514.45,1.977e-05,0.12259,1.2093e-05,-57.561,-5.2215e-05,-540.74,1.906
20009,21.515,1.4545,0,4.8613e-05,485.79,1.8333e-05,0.12355,1.2036e-05,-47.191,-4.924e-05,-507.59,1.919
20010,21.423,1.4545,0.05,8.3585e-07,8.3528,6.4183e-07,4.8225,1.2925e-12,1.1037e-05,-6.4183e-07,-4.8225,1.9059
20011,21.423,1.7273,0,5.378e-05,537.42,2.1204e-05,0.1106,1.1604e-05,-72.02,-5.4638e-05,-569.74,1.906
20012,21.515,1.6364,0,5.0556e-05,505.21,1.9634e-05,0.11046,1.1467e-05,-61.255,-5.1316e-05,-532.98,1.9191
20013,21.423,1.6364,0.05,9.5751e-07,9.5685,7.3525e-07,5.5244,1.7411e-12,1.312e-05,-7.3525e-07,-5.5244,1.906
20014,21.423,1.9091,0,5.6149e-05,561.1,2.2589e-05,0.10629,1.1258e-05,-85.034,-5.7107e-05,-598.7,1.9061
20015,21.515,1.8182,0,5.2593e-05,525.57,2.0923e-05,0.10377,1.0994e-05,-74.5,-5.346e-05,-558.78,1.9191
20016,21.423,1.8182,0.05,1.0756e-06,10.749,8.2596e-07,6.206,1.464e-12,1.2346e-05,-8.2596e-07,-6.206,1.906
20017,21.423,2.0909,0,5.8496e-05,584.56,2.386e-05,0.11064,1.1103e-05,-95.737,-5.953e-05,-626.45,1.9061
20018,21.515,2,0,5.4658e-05,546.2,2.2138e-05,0.10386,1.0675e-05,-86.019,-5.5607e-05,-584.04,1.9192
20019,21.423,2,0.05,1.188e-06,11.872,9.1222e-07,6.8541,1.639e-12,1.2769e-05,-9.1222e-07,-6.8541,1.9061
20020,21.423,2.2727,0,6.0699e-05,606.57,2.4956e-05,0.12322,1.1138e-05,-103.7,-6.179e-05,-651.66,1.9061
20021,21.515,2.1818,0,5.6655e-05,566.16,2.3221e-05,0.11119,1.0537e-05,-95.192,-5.7668e-05,-607.66,1.9192
20022,21.423,2.1818,0.05,1.292e-06,12.911,9.921e-07,7.4542,1.5324e-12,1.0628e-05,-9.921e-07,-7.4542,1.9061
20023,21.423,2.4545,0,6.2614e-05,625.71,2.5837e-05,0.14056,1.1311e-05,-109,-6.3748e-05,-672.96,1.9062
20024,21.515,2.3636,0,5.8469e-05,584.29,2.4128e-05,0.12422,1.0559e-05,-101.83,-5.9528e-05,-628.43,1.9192
20025,21.423,2.3636,0.05,1.3839e-06,13.829,1.0627e-06,7.9844,1.692e-12,9.9699e-06,-1.0627e-06,-7.9844,1.9061
20026,21.423,2.6364,0,6.4103e-05,640.58,2.6475e-05,0.15765,1.1534e-05,-112.11,-6.5264e-05,-689.14,1.9062
20027,21.515,2.5455,0,5.9973e-05,599.31,2.4825e-05,0.13926,1.068e-05,-106.14,-6.1065e-05,-645.2,1.9193
20028,21.423,2.5455,0.05,1.4586e-06,14.576,1.12e-06,8.4154,1.5408e-12,9.4817e-06,-1.12e-06,-8.4154,1.9062
20029,21.423,2.8182,0,6.5046e-05,650.02,2.686e-05,0.16998,1.1713e-05,-113.64,-6.6225e-05,-699.23,1.9062
20030,21.515,2.7273,0,6.1049e-05,610.07,2.5297e-05,0.15223,1.0823e-05,-108.6,-6.2162e-05,-656.98,1.9193
20031,21.423,2.7273,0.05,1.5112e-06,15.102,1.1604e-06,8.7189,1.3098e-12,7.7847e-06,-1.1604e-06,-8.7189,1.9062
20032,21.423,3,0,6.537e-05,653.25,2.6989e-05,0.17445,1.1782e-05,-114.09,-6.6553e-05,-702.67,1.9062
20033,21.515,2.9091,0,6.1611e-05,615.68,2.5534e-05,0.15967,1.0915e-05,-109.68,-6.2734e-05,-663.05,1.9193
20034,21.423,2.9091,0.05,1.5383e-06,15.372,1.1812e-06,8.8753,1.5661e-12,9.2449e-06,-1.1812e-06,-8.8753,1.9062
20035,21.423,3.1818,0,6.5046e-05,650.02,2.686e-05,0.16998,1.1713e-05,-113.64,-6.6225e-05,-699.23,1.9062
20036,21.515,3.0909,0,6.1611e-05,615.68,2.5534e-05,0.15967,1.0915e-05,-109.68,-6.2734e-05,-663.05,1.9193
20037,21.423,3.0909,0.05,1.5383e-06,15.372,1.1812e-06,8.8753,1.507e-12,7.0006e-06,-1.1812e-06,-8.8753,1.9062
20038,21.423,3.3636,0,6.4103e-05,640.58,2.6475e-05,0.15765,1.1534e-05,-112.11,-6.5264e-05,-689.14,1.9062
20039,21.515,3.2727,0,6.1049e-05,610.07,2.5297e-05,0.15223,1.0823e-05,-108.6,-6.2162e-05,-656.98,1.9193
20040,21.423,3.2727,0.05,1.5112e-06,15.102,1.1604e-06,8.7189,1.4627e-12,7.815e-06,-1.1604e-06,-8.7189,1.9062
20041,21.423,3.5455,0,6.2614e-05,625.71,2.5837e-05,0.14055,1.1311e-05,-109,-6.3748e-05,-672.96,1.9062
20042,21.515,3.4545,0,5.9973e-05,599.31,2.4825e-05,0.13926,1.068e-05,-106.14,-6.1065e-05,-645.2,1.9193
20043,21.423,3.4545,0.05,1.4586e-06,14.576,1.12e-06,8.4154,1.4265e-12,6.843e-06,-1.12e-06,-8.4154,1.9062
20044,21.423,3.7273,0,6.0699e-05,606.57,2.4956e-05,0.12322,1.1138e-05,-103.7,-6.179e-05,-651.66,1.9061
20045,21.515,3.6364,0,5.8469e-05,584.29,2.4128e-05,0.12422,1.0559e-05,-101.83,-5.9528e-05,-628.43,1.9192
20046,21.423,3.6364,0.05,1.3839e-06,13.829,1.0627e-06,7.9844,1.5254e-12,6.578e-06,-1.0627e-06,-7.9844,1.9061
20047,21.423,3.9091,0,5.8496e-05,584.56,2.386e-05,0.11064,1.1103e-05,-95.737,-5.953e-05,-626.45,1.9061
20048,21.515,3.8182,0,5.6655e-05,566.16,2.3221e-05,0.11119,1.0537e-05,-95.192,-5.7668e-05,-607.66,1.9192
20049,21.423,3.8182,0.05,1.292e-06,12.911,9.921e-07,7.4542,1.3879e-12,6.931e-06,-9.921e-07,-7.4542,1.9061
20050,21.423,4.0909,0,5.6149e-05,561.1,2.2589e-05,0.10629,1.1258e-05,-85.034,-5.7107e-05,-598.7,1.9061
20051,21.515,4,0,5.4658e-05,546.2,2.2138e-05,0.10386,1.0675e-05,-86.019,-5.5607e-05,-584.04,1.9192
20052,21.423,4,0.05,1.188e-06,11.872,9.1222e-07,6.854,1.3049e-12,5.6339e-06,-9.1222e-07,-6.8541,1.9061
20053,21.423,4.2727,0,5.378e-05,537.42,2.1204e-05,0.1106,1.1604e-05,-72.02,-5.4638e-05,-569.74,1.906
20054,21.515,4.1818,0,5.2593e-05,525.57,2.0923e-05,0.10378,1.0994e-05,-74.5,-5.346e-05,-558.78,1.9191
20055,21.423,4.1818,0.05,1.0756e-06,10.749,8.2596e-07,6.206,1.0555e-12,5.5152e-06,-8.2596e-07,-6.206,1.906
20056,21.423,4.4545,0,5.1481e-05,514.45,1.977e-05,0.12259,1.2093e-05,-57.561,-5.2215e-05,-540.74,1.906
20057,21.515,4.3636,0,5.0556e-05,505.21,1.9634e-05,0.11046,1.1467e-05,-61.255,-5.1316e-05,-532.98,1.9191
20058,21.423,4.3636,0.05,9.5751e-07,9.5685,7.3525e-07,5.5244,9.2354e-13,2.3773e-06,-7.3525e-07,-5.5244,1.906
20059,21.423,4.6364,0,4.9318e-05,492.84,1.8357e-05,0.14265,1.2652e-05,-42.725,-4.9902e-05,-512.73,1.9059
20060,21.515,4.5455,0,4.8613e-05,485.79,1.8333e-05,0.12355,1.2036e-05,-47.191,-4.924e-05,-507.59,1.919
20061,21.423,4.5455,0.05,8.3585e-07,8.3528,6.4183e-07,4.8225,8.0871e-13,5.5405e-06,-6.4183e-07,-4.8225,1.9059
20062,21.423,4.8182,0,4.7337e-05,473.04,1.7028e-05,0.17619,1.3206e-05,-28.535,-4.7754e-05,-486.56,1.9058
20063,21.515,4.7273,0,4.681e-05,467.77,1.7078e-05,0.1451,1.263e-05,-33.279,-4.7284e-05,-483.44,1.919
20064,21.423,4.7273,0.05,7.1356e-07,7.1307,5.4792e-07,4.1169,2.5519e-13,2.2227e-06,-5.4793e-07,-4.1169,1.9059
20065,21.423,5,0,4.5571e-05,455.4,1.5835e-05,0.24736,1.3698e-05,-15.813,-4.5815e-05,-462.97,1.9058
20066,21.515,4.9091,0,4.518e-05,451.49,1.5923e-05,0.18562,1.3186e-05,-20.376,-4.5488e-05,-461.23,1.9189
20067,21.423,4.9091,0.05,5.9377e-07,5.9336,4.5594e-07,3.4258,6.3973e-13,1.2471e-06,-4.5594e-07,-3.4258,1.9058
20068,21.423,5.1818,0,4.405e-05,440.2,1.4842e-05,0.53383,1.4068e-05,-5.2853,-4.4128e-05,-442.54,1.9057
20069,21.515,5.0909,0,4.375e-05,437.2,1.4915e-05,0.3012,1.3654e-05,-9.1736,-4.3894e-05,-441.56,1.9188
20070,21.423,5.0909,0.05,4.7889e-07,4.7856,3.6772e-07,2.7629,1.6578e-13,6.3715e-06,-3.6773e-07,-2.7629,1.9057
20071,21.423,5.3636,0,4.2792e-05,427.62,1.449e-05,4.163,1.3878e-05,-0.43931,-4.2726e-05,-425.74,1.9056
20072,21.515,5.2727,0,4.254e-05,425.11,1.4227e-05,1.5583,1.3863e-05,-1.1772,-4.2533e-05,-424.91,1.9187
20073,21.423,5.2727,0.05,3.6987e-07,3.6962,2.8401e-07,2.134,1.302e-13,5.5221e-06,-2.8402e-07,-2.134,1.9056
20074,21.423,5.5455,0,4.1807e-05,417.78,1.4611e-05,9.7166,1.3303e-05,-0.11066,-4.1635e-05,-412.89,1.9055
20075,21.515,5.4545,0,4.1561e-05,415.33,1.434e-05,7.4084,1.3335e-05,-0.14104,-4.1433e-05,-411.64,1.9186
20076,21.423,5.4545,0.05,2.6591e-07,2.6573,2.0419e-07,1.5342,3.3493e-13,1.9573e-06,-2.0419e-07,-1.5342,1.9055
20077,21.423,5.7273,0,4.1182e-05,411.54,1.4698e-05,13.302,1.2922e-05,-0.043428,-4.094e-05,-404.75,1.9054
20078,21.515,5.6364,0,4.0823e-05,407.95,1.4441e-05,11.617,1.2887e-05,-0.057032,-4.0614e-05,-402.04,1.9185
20079,21.423,5.6364,0.05,1.5764e-07,1.5753,1.2105e-07,0.90949,5.2956e-13,2.16e-06,-1.2105e-07,-0.90948,1.9054
20080,21.515,5.8182,0,4.0491e-05,404.63,1.4547e-05,14.244,1.2649e-05,-0.0098391,-4.023e-05,-397.33,1.9184
20081,21.423,5.8182,0.05,2.312e-07,2.3104,1.7754e-07,1.3339,4.4532e-13,5.142e-06,-1.7754e-07,-1.3339,1.9053
20082,21.423,5.9091,0,4.0124e-05,400.97,1.4023e-05,9.4275,1.2776e-05,0.054296,-3.9955e-05,-396.14,1.9053
20083,21.607,0.27273,0,4.0126e-05,400.98,1.4284e-05,12.52,1.2614e-05,-0.024492,-3.9898e-05,-394.58,1.9316
20084,21.699,0.18182,0,3.9212e-05,391.85,1.4059e-05,13.454,1.2267e-05,-0.003429,-3.8966e-05,-384.95,1.9447
20085,21.607,0.18182,0.05,1.0199e-07,1.0192,7.8314e-08,0.58842,4.4941e-13,6.6686e-06,-7.8314e-08,-0.58842,1.9315
20086,21.607,0.090909,0,3.9236e-05,392.09,1.3693e-05,8.9844,1.2504e-05,0.050188,-3.9074e-05,-387.49,1.9315
20087,21.607,0.45455,0,4.058e-05,405.52,1.4169e-05,9.3066,1.2923e-05,-0.059387,-4.0415e-05,-400.82,1.9317
20088,21.699,0.36364,0,3.9424e-05,393.97,1.3936e-05,11.109,1.2453e-05,-0.031551,-3.9224e-05,-388.31,1.9448
20089,21.607,0.36364,0.05,2.2832e-07,2.2816,1.7532e-07,1.3173,6.3791e-13,7.1503e-06,-1.7532e-07,-1.3173,1.9317
20090,21.607,0.63636,0,4.1316e-05,412.87,1.3999e-05,4.222,1.3404e-05,-0.24439,-4.1246e-05,-410.87,1.9318
20091,21.699,0.54545,0,3.9977e-05,399.49,1.3813e-05,7.4057,1.2818e-05,-0.068837,-3.9846e-05,-395.77,1.9449
20092,21.607,0.54545,0.05,3.1643e-07,3.1622,2.4298e-07,1.8257,1.1865e-12,5.3225e-06,-2.4298e-07,-1.8257,1.9318
20093,21.607,0.81818,0,4.2249e-05,422.2,1.418e-05,0.43234,1.3578e-05,-4.0905,-4.231e-05,-424.01,1.9319
20094,21.699,0.72727,0,4.0705e-05,406.77,1.3615e-05,1.8408,1.3293e-05,-0.58078,-4.0683e-05,-406.14,1.945
20095,21.607,0.72727,0.05,4.0339e-07,4.0311,3.0975e-07,2.3274,7.1463e-13,8.7646e-06,-3.0976e-07,-2.3274,1.9318
20096,21.607,1,0,4.337e-05,433.4,1.4996e-05,0.19434,1.3162e-05,-13.583,-4.3582e-05,-439.93,1.932
20097,21.699,0.90909,0,4.1599e-05,415.7,1.4103e-05,0.24873,1.3113e-05,-7.191,-4.1712e-05,-419.12,1.9451
20098,21.607,0.90909,0.05,4.9792e-07,4.9758,3.8234e-07,2.8728,1.2095e-12,9.3244e-06,-3.8234e-07,-2.8728,1.9319
20099,21.607,1.1818,0,4.4667e-05,446.36,1.5972e-05,0.14357,1.2628e-05,-24.977,-4.5036e-05,-458.24,1.9321
20100,21.699,1.0909,0,4.2648e-05,426.19,1.4926e-05,0.15353,1.2627e-05,-17.119,-4.2911e-05,-434.41,1.9451
20101,21.607,1.0909,0.05,5.9795e-07,5.9754,4.5915e-07,3.4499,1.715e-12,1.3314e-05,-4.5915e-07,-3.4499,1.932
20102,21.607,1.3636,0,4.612e-05,460.88,1.7053e-05,0.12103,1.2034e-05,-37.59,-4.6641e-05,-478.46,1.9321
20103,21.699,1.2727,0,4.3841e-05,438.1,1.5867e-05,0.12397,1.2056e-05,-28.507,-4.4253e-05,-451.59,1.9452
20104,21.607,1.2727,0.05,7.0114e-07,7.0066,5.3839e-07,4.0453,1.5228e-12,1.2698e-05,-5.3839e-07,-4.0453,1.9321
20105,21.607,1.5455,0,4.7705e-05,476.72,1.8197e-05,0.10822,1.1432e-05,-50.725,-4.8362e-05,-499.99,1.9322
20106,21.699,1.4545,0,4.5157e-05,451.26,1.6883e-05,0.10921,1.1446e-05,-40.744,-4.571e-05,-470.19,1.9453
20107,21.607,1.4545,0.05,8.0503e-07,8.0447,6.1816e-07,4.6446,1.681e-12,1.3629e-05,-6.1816e-07,-4.6446,1.9321
20108,21.607,1.7273,0,4.9388e-05,493.54,1.9354e-05,0.10114,1.0878e-05,-63.578,-5.0158e-05,-522.18,1.9322
20109,21.699,1.6364,0,4.6574e-05,465.42,1.7934e-05,0.10078,1.085e-05,-53.13,-4.7248e-05,-489.65,1.9453
20110,21.607,1.6364,0.05,9.0711e-07,9.0649,6.9655e-07,5.2336,1.7654e-12,1.2507e-05,-6.9655e-07,-5.2336,1.9322
20111,21.607,1.9091,0,5.1119e-05,510.83,2.0471e-05,0.099294,1.043e-05,-75.345,-5.1979e-05,-544.26,1.9323
20112,21.699,1.8182,0,4.8057e-05,480.24,1.8973e-05,0.096898,1.032e-05,-64.917,-4.8828e-05,-509.34,1.9454
20113,21.607,1.8182,0.05,1.0052e-06,10.045,7.7189e-07,5.7997,1.7047e-12,1.1293e-05,-7.719e-07,-5.7997,1.9322
20114,21.607,2.0909,0,5.283e-05,527.93,2.1499e-05,0.10279,1.0123e-05,-85.369,-5.3758e-05,-565.35,1.9323
20115,21.699,2,0,4.9555e-05,495.21,1.9954e-05,0.097521,9.9037e-06,-75.414,-5.0402e-05,-528.53,1.9454
20116,21.607,2,0.05,1.0975e-06,10.968,8.4277e-07,6.3322,1.7931e-12,1.1299e-05,-8.4277e-07,-6.3322,1.9323
20117,21.607,2.2727,0,5.4432e-05,543.95,2.2392e-05,0.11101,9.9641e-06,-93.27,-5.5412e-05,-584.48,1.9323
20118,21.699,2.1818,0,5.1001e-05,509.66,2.0833e-05,0.10253,9.6229e-06,-84.123,-5.1905e-05,-546.42,1.9454
20119,21.607,2.1818,0.05,1.182e-06,11.812,9.0761e-07,6.8194,1.8297e-12,1.0994e-05,-9.0761e-07,-6.8194,1.9323
20120,21.607,2.4545,0,5.5825e-05,557.87,2.3116e-05,0.12217,9.9256e-06,-98.988,-5.6842e-05,-600.66,1.9323
20121,21.699,2.3636,0,5.2312e-05,522.76,2.1573e-05,0.11092,9.4725e-06,-90.811,-5.3258e-05,-562.14,1.9454
20122,21.607,2.3636,0.05,1.2558e-06,12.55,9.6431e-07,7.2455,1.8331e-12,1.2672e-05,-9.6431e-07,-7.2455,1.9323
20123,21.607,2.6364,0,5.6908e-05,568.69,2.3647e-05,0.13339,9.958e-06,-102.72,-5.7951e-05,-612.96,1.9324
20124,21.699,2.5455,0,5.3398e-05,533.61,2.2149e-05,0.12068,9.4208e-06,-95.513,-5.4373e-05,-574.84,1.9455
20125,21.607,2.5455,0.05,1.3156e-06,13.147,1.0102e-06,7.5904,1.6797e-12,9.7779e-06,-1.0102e-06,-7.5904,1.9323
20126,21.607,2.8182,0,5.7595e-05,575.56,2.397e-05,0.14162,1.0006e-05,-104.78,-5.8653e-05,-620.66,1.9324
20127,21.699,2.7273,0,5.4176e-05,541.38,2.2541e-05,0.12918,9.423e-06,-98.434,-5.517e-05,-583.76,1.9455
20128,21.607,2.7273,0.05,1.3578e-06,13.569,1.0426e-06,7.8339,1.6853e-12,9.0358e-06,-1.0426e-06,-7.8339,1.9324
20129,21.607,3,0,5.7831e-05,577.91,2.4078e-05,0.14463,1.0027e-05,-105.43,-5.8894e-05,-623.28,1.9324
20130,21.699,2.9091,0,5.4582e-05,545.44,2.2739e-05,0.1341,9.4367e-06,-99.815,-5.5586e-05,-588.37,1.9455
20131,21.607,2.9091,0.05,1.3796e-06,13.787,1.0594e-06,7.9599,1.6937e-12,8.3899e-06,-1.0594e-06,-7.9599,1.9324
20132,21.607,3.1818,0,5.7595e-05,575.56,2.397e-05,0.14162,1.0006e-05,-104.78,-5.8653e-05,-620.66,1.9324
20133,21.699,3.0909,0,5.4582e-05,545.44,2.2739e-05,0.1341,9.4367e-06,-99.815,-5.5586e-05,-588.37,1.9455
20134,21.607,3.0909,0.05,1.3796e-06,13.787,1.0594e-06,7.9598,1.493e-12,7.842e-06,-1.0594e-06,-7.9599,1.9324
20135,21.607,3.3636,0,5.6908e-05,568.69,2.3647e-05,0.13339,9.958e-06,-102.72,-5.7951e-05,-612.96,1.9324
20136,21.699,3.2727,0,5.4176e-05,541.38,2.2541e-05,0.12918,9.423e-06,-98.434,-5.517e-05,-583.76,1.9455
20137,21.607,3.2727,0.05,1.3578e-06,13.569,1.0426e-06,7.8339,1.5447e-12,6.449e-06,-1.0426e-06,-7.8339,1.9324
20138,21.607,3.5455,0,5.5825e-05,557.87,2.3116e-05,0.12217,9.9256e-06,-98.988,-5.6842e-05,-600.66,1.9323
20139,21.699,3.4545,0,5.3398e-05,533.61,2.2149e-05,0.12068,9.4208e-06,-95.513,-5.4373e-05,-574.84,1.9455
20140,21.607,3.4545,0.05,1.3156e-06,13.147,1.0102e-06,7.5904,1.3765e-12,7.1647e-06,-1.0102e-06,-7.5904,1.9323
20141,21.607,3.7273,0,5.4432e-05,543.95,2.2392e-05,0.11101,9.964e-06,-93.27,-5.5412e-05,-584.48,1.9323
20142,21.699,3.6364,0,5.2312e-05,522.76,2.1573e-05,0.11092,9.4725e-06,-90.811,-5.3258e-05,-562.14,1.9454
20143,21.607,3.6364,0.05,1.2558e-06,12.55,9.6431e-07,7.2455,1.3505e-12,5.8604e-06,-9.6431e-07,-7.2455,1.9323
20144,21.607,3.9091,0,5.283e-05,527.93,2.1499e-05,0.10279,1.0123e-05,-85.369,-5.3758e-05,-565.35,1.9323
20145,21.699,3.8182,0,5.1001e-05,509.66,2.0833e-05,0.10252,9.6229e-06,-84.123,-5.1905e-05,-546.42,1.9454
20146,21.607,3.8182,0.05,1.182e-06,11.812,9.0761e-07,6.8194,1.2089e-12,6.184e-06,-9.0761e-07,-6.8194,1.9323
20147,21.607,4.0909,0,5.1119e-05,510.83,2.0471e-05,0.099295,1.043e-05,-75.345,-5.1979e-05,-544.26,1.9323
20148,21.699,4,0,4.9555e-05,495.21,1.9954e-05,0.097521,9.9037e-06,-75.414,-5.0402e-05,-528.53,1.9454
20149,21.607,4,0.05,1.0975e-06,10.968,8.4277e-07,6.3322,1.0402e-12,3.8127e-06,-8.4277e-07,-6.3322,1.9323
20150,21.607,4.2727,0,4.9388e-05,493.54,1.9354e-05,0.10114,1.0878e-05,-63.578,-5.0158e-05,-522.18,1.9322
20151,21.699,4.1818,0,4.8057e-05,480.24,1.8973e-05,0.096898,1.032e-05,-64.917,-4.8828e-05,-509.34,1.9454
20152,21.607,4.1818,0.05,1.0052e-06,10.045,7.7189e-07,5.7997,7.5607e-13,2.4589e-06,-7.719e-07,-5.7997,1.9322
20153,21.607,4.4545,0,4.7705e-05,476.72,1.8197e-05,0.10822,1.1432e-05,-50.725,-4.8362e-05,-499.99,1.9322
20154,21.699,4.3636,0,4.6574e-05,465.42,1.7934e-05,0.10078,1.085e-05,-53.131,-4.7248e-05,-489.65,1.9453
20155,21.607,4.3636,0.05,9.0711e-07,9.0649,6.9655e-07,5.2336,8.7417e-13,2.6957e-06,-6.9655e-07,-5.2336,1.9322
20156,21.607,4.6364,0,4.612e-05,460.88,1.7053e-05,0.12103,1.2034e-05,-37.59,-4.6641e-05,-478.46,1.9321
20157,21.699,4.5455,0,4.5157e-05,451.26,1.6883e-05,0.10921,1.1446e-05,-40.744,-4.571e-05,-470.19,1.9453
20158,21.607,4.5455,0.05,8.0503e-07,8.0447,6.1816e-07,4.6446,6.2358e-13,7.3039e-07,-6.1816e-07,-4.6446,1.9321
20159,21.607,4.8182,0,4.4667e-05,446.36,1.5972e-05,0.14357,1.2628e-05,-24.977,-4.5036e-05,-458.24,1.9321
20160,21.699,4.7273,0,4.3841e-05,438.1,1.5867e-05,0.12397,1.2056e-05,-28.507,-4.4253e-05,-451.59,1.9452
20161,21.607,4.7273,0.05,7.0114e-07,7.0066,5.3839e-07,4.0453,3.6541e-13,8.948e-07,-5.3839e-07,-4.0453,1.9321
20162,21.607,5,0,4.337e-05,433.4,1.4996e-05,0.19434,1.3162e-05,-13.583,-4.3582e-05,-439.93,1.932
20163,21.699,4.9091,0,4.2648e-05,426.19,1.4926e-05,0.15353,1.2627e-05,-17.119,-4.2911e-05,-434.41,1.9451
20164,21.607,4.9091,0.05,5.9795e-07,5.9754,4.5915e-07,3.4499,5.9105e-13,1.7262e-06,-4.5915e-07,-3.4499,1.932
20165,21.607,5.1818,0,4.2249e-05,422.2,1.418e-05,0.43234,1.3578e-05,-4.0905,-4.231e-05,-424.01,1.9319
20166,21.699,5.0909,0,4.1599e-05,415.7,1.4103e-05,0.24873,1.3113e-05,-7.191,-4.1712e-05,-419.12,1.9451
20167,21.607,5.0909,0.05,4.9792e-07,4.9758,3.8234e-07,2.8728,3.3094e-13,2.704e-06,-3.8234e-07,-2.8728,1.9319
20168,21.607,5.3636,0,4.1316e-05,412.87,1.3999e-05,4.222,1.3404e-05,-0.24439,-4.1246e-05,-410.87,1.9318
20169,21.699,5.2727,0,4.0705e-05,406.77,1.3615e-05,1.8409,1.3293e-05,-0.58078,-4.0683e-05,-406.14,1.945
20170,21.607,5.2727,0.05,4.0339e-07,4.0311,3.0976e-07,2.3274,5.6983e-14,2.139e-07,-3.0976e-07,-2.3274,1.9318
20171,21.607,5.5455,0,4.058e-05,405.52,1.4169e-05,9.3066,1.2923e-05,-0.059385,-4.0415e-05,-400.82,1.9317
20172,21.699,5.4545,0,3.9977e-05,399.49,1.3813e-05,7.4057,1.2818e-05,-0.068834,-3.9846e-05,-395.77,1.9449
20173,21.607,5.4545,0.05,3.1643e-07,3.1622,2.4298e-07,1.8257,3.8684e-13,3.8563e-06,-2.4298e-07,-1.8257,1.9318
20174,21.607,5.7273,0,4.0126e-05,400.98,1.4284e-05,12.52,1.2614e-05,-0.024492,-3.9898e-05,-394.58,1.9316
20175,21.699,5.6364,0,3.9424e-05,393.97,1.3936e-05,11.109,1.2453e-05,-0.03155,-3.9224e-05,-388.31,1.9448
20176,21.607,5.6364,0.05,2.2832e-07,2.2816,1.7532e-07,1.3173,3.6268e-13,4.8177e-06,-1.7532e-07,-1.3173,1.9317
20177,21.699,5.8182,0,3.9212e-05,391.85,1.4059e-05,13.454,1.2267e-05,-0.0034323,-3.8966e-05,-384.95,1.9447
20178,21.607,5.8182,0.05,1.0199e-07,1.0192,7.8313e-08,0.58842,9.1602e-13,7.0235e-06,-7.8314e-08,-0.58842,1.9315
20179,21.607,5.9091,0,3.9236e-05,392.09,1.3693e-05,8.9845,1.2504e-05,0.050188,-3.9074e-05,-387.49,1.9315
20180,21.791,0.27273,0,3.8498e-05,384.72,1.3701e-05,11.97,1.2106e-05,-0.012883,-3.8281e-05,-378.6,1.9579
20181,21.883,0.18182,0,3.7405e-05,373.79,1.3416e-05,12.904,1.1699e-05,-0.00054707,-3.7169e-05,-367.18,1.971
20182,21.791,0.18182,0.05,9.5088e-09,0.095023,7.3016e-09,0.054864,3.7912e-13,4.367e-06,-7.3016e-09,-0.054859,1.9578
20183,21.791,0.090909,0,3.7743e-05,377.17,1.3175e-05,8.6644,1.2027e-05,0.046119,-3.7588e-05,-372.74,1.9578
20184,21.791,0.45455,0,3.8819e-05,387.92,1.3576e-05,9.1875,1.235e-05,-0.025173,-3.8655e-05,-383.26,1.958
20185,21.883,0.36364,0,3.7522e-05,374.96,1.3287e-05,10.869,1.1839e-05,-0.015253,-3.7325e-05,-369.41,1.9711
20186,21.791,0.36364,0.05,3.0934e-07,3.0912,2.3753e-07,1.7847,-1.0657e-13,-3.911e-07,-2.3753e-07,-1.7847,1.9579
20187,21.791,0.63636,0,3.9366e-05,393.39,1.3392e-05,4.7424,1.2746e-05,-0.10901,-3.9285e-05,-391.05,1.9581
20188,21.883,0.54545,0,3.7934e-05,379.08,1.3167e-05,7.7731,1.2129e-05,-0.021658,-3.7796e-05,-375.14,1.9712
20189,21.791,0.54545,0.05,3.7864e-07,3.7838,2.9075e-07,2.1846,-3.7952e-13,-3.3048e-06,-2.9075e-07,-2.1846,1.958
20190,21.791,0.81818,0,4.0057e-05,400.29,1.3375e-05,0.43799,1.2994e-05,-2.4293,-4.009e-05,-401.28,1.9581
20191,21.883,0.72727,0,3.8477e-05,384.51,1.2941e-05,2.806,1.2542e-05,-0.19874,-3.8432e-05,-383.19,1.9712
20192,21.791,0.72727,0.05,4.4745e-07,4.4714,3.4358e-07,2.5816,3.7024e-13,2.4515e-06,-3.4359e-07,-2.5816,1.9581
20193,21.791,1,0,4.088e-05,408.52,1.4028e-05,0.16574,1.259e-05,-10.634,-4.1048e-05,-413.65,1.9582
20194,21.883,0.90909,0,3.9137e-05,391.1,1.3165e-05,0.23912,1.2514e-05,-4.6516,-3.921e-05,-393.29,1.9713
20195,21.791,0.90909,0.05,5.2524e-07,5.2488,4.0332e-07,3.0304,9.0061e-13,6.8316e-06,-4.0332e-07,-3.0304,1.9582
20196,21.791,1.1818,0,4.1827e-05,417.99,1.482e-05,0.12452,1.2065e-05,-20.573,-4.2137e-05,-427.83,1.9583
20197,21.883,1.0909,0,3.9906e-05,398.78,1.3827e-05,0.13674,1.2056e-05,-13.176,-4.0111e-05,-405.13,1.9714
20198,21.791,1.0909,0.05,6.0901e-07,6.0859,4.6764e-07,3.5137,1.1372e-12,8.8502e-06,-4.6764e-07,-3.5137,1.9582
20199,21.791,1.3636,0,4.2885e-05,428.55,1.5696e-05,0.10805,1.1479e-05,-31.578,-4.3332e-05,-443.41,1.9584
20200,21.883,1.2727,0,4.0772e-05,407.44,1.4588e-05,0.11201,1.151e-05,-23.009,-4.1112e-05,-418.4,1.9715
20201,21.791,1.2727,0.05,6.9574e-07,6.9526,5.3424e-07,4.0141,1.1712e-12,9.9748e-06,-5.3424e-07,-4.0141,1.9583
20202,21.791,1.5455,0,4.4035e-05,440.04,1.662e-05,0.09928,1.0876e-05,-43.061,-4.4607e-05,-459.93,1.9584
20203,21.883,1.4545,0,4.1725e-05,416.96,1.5408e-05,0.10088,1.0922e-05,-33.607,-4.2192e-05,-432.69,1.9715
20204,21.791,1.4545,0.05,7.8282e-07,7.8228,6.0111e-07,4.5165,1.2741e-12,9.5456e-06,-6.0111e-07,-4.5165,1.9584
20205,21.791,1.7273,0,4.5253e-05,452.21,1.7553e-05,0.094714,1.0303e-05,-54.381,-4.5929e-05,-476.89,1.9584
20206,21.883,1.6364,0,4.2745e-05,427.16,1.6256e-05,0.094922,1.0334e-05,-44.398,-4.3325e-05,-447.57,1.9716
20207,21.791,1.6364,0.05,8.68e-07,8.674,6.6651e-07,5.0079,1.4652e-12,1.1063e-05,-6.6652e-07,-5.0079,1.9584
20208,21.791,1.9091,0,4.6502e-05,464.7,1.8456e-05,0.093684,9.8046e-06,-64.906,-4.7262e-05,-493.68,1.9585
20209,21.883,1.8182,0,4.381e-05,437.8,1.7093e-05,0.092309,9.7896e-06,-54.784,-4.4481e-05,-462.55,1.9716
20210,21.791,1.8182,0.05,9.4935e-07,9.487,7.2898e-07,5.4773,1.4449e-12,9.4389e-06,-7.2898e-07,-5.4773,1.9585
20211,21.791,2.0909,0,4.7734e-05,477.01,1.9287e-05,0.096119,9.4116e-06,-74.106,-4.8557e-05,-509.66,1.9585
20212,21.883,2,0,4.4882e-05,448.51,1.7885e-05,0.092725,9.3261e-06,-64.215,-4.5625e-05,-477.1,1.9716
20213,21.791,2,0.05,1.0252e-06,10.245,7.8724e-07,5.915,1.2713e-12,1.1058e-05,-7.8725e-07,-5.9151,1.9585
20214,21.791,2.2727,0,4.8884e-05,488.51,2.0014e-05,0.10157,9.1356e-06,-81.632,-4.9756e-05,-524.12,1.9585
20215,21.883,2.1818,0,4.5913e-05,458.82,1.8597e-05,0.095974,8.9664e-06,-72.265,-4.6711e-05,-490.6,1.9717
20216,21.791,2.1818,0.05,1.0939e-06,10.931,8.3998e-07,6.3113,1.3191e-12,1.1519e-05,-8.3998e-07,-6.3113,1.9585
20217,21.791,2.4545,0,4.9883e-05,498.49,2.0606e-05,0.10881,8.9669e-06,-87.342,-5.0788e-05,-536.32,1.9586
20218,21.883,2.3636,0,4.6846e-05,468.14,1.92e-05,0.10135,8.7146e-06,-78.683,-4.7683e-05,-502.43,1.9717
20219,21.791,2.3636,0.05,1.1533e-06,11.525,8.856e-07,6.654,1.5591e-12,1.089e-05,-8.856e-07,-6.654,1.9585
20220,21.791,2.6364,0,5.0659e-05,506.24,2.1043e-05,0.11602,8.88e-06,-91.27,-5.1587e-05,-545.6,1.9586
20221,21.883,2.5455,0,4.7618e-05,475.85,1.9671e-05,0.10755,8.558e-06,-83.393,-4.8482e-05,-511.97,1.9717
20222,21.791,2.5455,0.05,1.201e-06,12.002,9.2222e-07,6.9292,1.51e-12,1.1431e-05,-9.2223e-07,-6.9292,1.9586
20223,21.791,2.8182,0,5.1152e-05,511.17,2.131e-05,0.12132,8.8442e-06,-93.541,-5.2093e-05,-551.4,1.9586
20224,21.883,2.7273,0,4.8171e-05,481.38,1.9994e-05,0.11294,8.4737e-06,-86.445,-4.9052e-05,-518.67,1.9717
20225,21.791,2.7273,0.05,1.2345e-06,12.337,9.4796e-07,7.1226,1.3602e-12,1.0247e-05,-9.4796e-07,-7.1226,1.9586
20226,21.791,3,0,5.1321e-05,512.86,2.14e-05,0.12326,8.8353e-06,-94.281,-5.2266e-05,-553.38,1.9586
20227,21.883,2.9091,0,4.8459e-05,484.26,2.0158e-05,0.11607,8.4386e-06,-87.936,-4.9349e-05,-522.13,1.9717
20228,21.791,2.9091,0.05,1.2518e-06,12.51,9.6125e-07,7.2225,1.5486e-12,9.1216e-06,-9.6126e-07,-7.2225,1.9586
20229,21.791,3.1818,0,5.1152e-05,511.17,2.131e-05,0.12132,8.8442e-06,-93.541,-5.2093e-05,-551.4,1.9586
20230,21.883,3.0909,0,4.8459e-05,484.26,2.0158e-05,0.11607,8.4386e-06,-87.936,-4.9349e-05,-522.13,1.9717
20231,21.791,3.0909,0.05,1.2518e-06,12.51,9.6125e-07,7.2225,1.6372e-12,9.0276e-06,-9.6126e-07,-7.2225,1.9586
20232,21.791,3.3636,0,5.0659e-05,506.24,2.1043e-05,0.11602,8.88e-06,-91.27,-5.1587e-05,-545.6,1.9586
20233,21.883,3.2727,0,4.8171e-05,481.38,1.9994e-05,0.11294,8.4737e-06,-86.445,-4.9052e-05,-518.67,1.9717
20234,21.791,3.2727,0.05,1.2345e-06,12.337,9.4796e-07,7.1226,1.4068e-12,9.1002e-06,-9.4796e-07,-7.1226,1.9586
20235,21.791,3.5455,0,4.9883e-05,498.49,2.0606e-05,0.10881,8.9669e-06,-87.342,-5.0788e-05,-536.32,1.9586
20236,21.883,3.4545,0,4.7618e-05,475.85,1.9671e-05,0.10755,8.558e-06,-83.393,-4.8482e-05,-511.97,1.9717
20237,21.791,3.4545,0.05,1.201e-06,12.002,9.2222e-07,6.9292,1.5401e-12,8.3451e-06,-9.2223e-07,-6.9292,1.9586
20238,21.791,3.7273,0,4.8884e-05,488.51,2.0014e-05,0.10157,9.1356e-06,-81.632,-4.9756e-05,-524.12,1.9585
20239,21.883,3.6364,0,4.6846e-05,468.14,1.92e-05,0.10135,8.7146e-06,-78.683,-4.7683e-05,-502.43,1.9717
20240,21.791,3.6364,0.05,1.1533e-06,11.525,8.856e-07,6.654,1.5951e-12,8.3502e-06,-8.856e-07,-6.654,1.9585
20241,21.791,3.9091,0,4.7734e-05,477.01,1.9287e-05,0.096119,9.4116e-06,-74.106,-4.8557e-05,-509.66,1.9585
20242,21.883,3.8182,0,4.5913e-05,458.82,1.8597e-05,0.095973,8.9664e-06,-72.265,-4.6711e-05,-490.6,1.9717
20243,21.791,3.8182,0.05,1.0939e-06,10.931,8.3998e-07,6.3113,1.5444e-12,8.7012e-06,-8.3998e-07,-6.3113,1.9585
20244,21.791,4.0909,0,4.6502e-05,464.7,1.8456e-05,0.093683,9.8046e-06,-64.906,-4.7262e-05,-493.68,1.9585
20245,21.883,4,0,4.4882e-05,448.51,1.7885e-05,0.092725,9.3261e-06,-64.215,-4.5625e-05,-477.1,1.9716
20246,21.791,4,0.05,1.0252e-06,10.245,7.8724e-07,5.915,1.565e-12,7.5079e-06,-7.8724e-07,-5.9151,1.9585
20247,21.791,4.2727,0,4.5253e-05,452.21,1.7553e-05,0.094713,1.0303e-05,-54.381,-4.5929e-05,-476.89,1.9584
20248,21.883,4.1818,0,4.381e-05,437.8,1.7093e-05,0.092307,9.7896e-06,-54.784,-4.4481e-05,-462.55,1.9716
20249,21.791,4.1818,0.05,9.4935e-07,9.487,7.2898e-07,5.4773,1.137e-12,7.2898e-06,-7.2898e-07,-5.4773,1.9585
20250,21.791,4.4545,0,4.4035e-05,440.04,1.662e-05,0.09928,1.0876e-05,-43.061,-4.4607e-05,-459.93,1.9584
20251,21.883,4.3636,0,4.2745e-05,427.16,1.6256e-05,0.094923,1.0334e-05,-44.398,-4.3325e-05,-447.57,1.9716
20252,21.791,4.3636,0.05,8.68e-07,8.674,6.6651e-07,5.0079,1.3239e-12,8.4074e-06,-6.6652e-07,-5.0079,1.9584
20253,21.791,4.6364,0,4.2885e-05,428.55,1.5696e-05,0.10805,1.1479e-05,-31.578,-4.3332e-05,-443.41,1.9584
20254,21.883,4.5455,0,4.1725e-05,416.96,1.5408e-05,0.10088,1.0922e-05,-33.607,-4.2192e-05,-432.69,1.9715
20255,21.791,4.5455,0.05,7.8282e-07,7.8228,6.0111e-07,4.5165,1.1798e-12,5.7013e-06,-6.0111e-07,-4.5165,1.9584
20256,21.791,4.8182,0,4.1827e-05,417.99,1.482e-05,0.12452,1.2065e-05,-20.573,-4.2137e-05,-427.83,1.9583
20257,21.883,4.7273,0,4.0772e-05,407.44,1.4588e-05,0.11201,1.151e-05,-23.009,-4.1112e-05,-418.4,1.9715
20258,21.791,4.7273,0.05,6.9574e-07,6.9526,5.3424e-07,4.0141,1.1115e-12,7.962e-06,-5.3424e-07,-4.0141,1.9583
20259,21.791,5,0,4.088e-05,408.52,1.4028e-05,0.16574,1.259e-05,-10.634,-4.1048e-05,-413.65,1.9582
20260,21.883,4.9091,0,3.9906e-05,398.78,1.3827e-05,0.13674,1.2056e-05,-13.176,-4.0111e-05,-405.13,1.9714
20261,21.791,4.9091,0.05,6.0901e-07,6.0859,4.6764e-07,3.5137,1.174e-12,7.4247e-06,-4.6764e-07,-3.5137,1.9582
20262,21.791,5.1818,0,4.0057e-05,400.29,1.3375e-05,0.43799,1.2994e-05,-2.4293,-4.009e-05,-401.28,1.9581
20263,21.883,5.0909,0,3.9137e-05,391.1,1.3165e-05,0.23912,1.2514e-05,-4.6515,-3.921e-05,-393.29,1.9713
20264,21.791,5.0909,0.05,5.2524e-07,5.2488,4.0332e-07,3.0304,9.3679e-13,6.3612e-06,-4.0332e-07,-3.0304,1.9582
20265,21.791,5.3636,0,3.9366e-05,393.39,1.3392e-05,4.7425,1.2746e-05,-0.10901,-3.9285e-05,-391.05,1.9581
20266,21.883,5.2727,0,3.8477e-05,384.51,1.2941e-05,2.806,1.2542e-05,-0.19873,-3.8432e-05,-383.19,1.9712
20267,21.791,5.2727,0.05,4.4745e-07,4.4714,3.4358e-07,2.5816,9.0362e-13,8.1954e-06,-3.4359e-07,-2.5816,1.9581
20268,21.791,5.5455,0,3.8819e-05,387.92,1.3576e-05,9.1875,1.235e-05,-0.025171,-3.8655e-05,-383.26,1.958
20269,21.883,5.4545,0,3.7934e-05,379.08,1.3167e-05,7.7731,1.2129e-05,-0.021655,-3.7796e-05,-375.14,1.9712
20270,21.791,5.4545,0.05,3.7864e-07,3.7838,2.9075e-07,2.1846,1.1773e-12,9.0959e-06,-2.9075e-07,-2.1846,1.958
20271,21.791,5.7273,0,3.8498e-05,384.72,1.3701e-05,11.97,1.2106e-05,-0.012885,-3.8281e-05,-378.6,1.9579
20272,21.883,5.6364,0,3.7522e-05,374.96,1.3287e-05,10.869,1.1839e-05,-0.015253,-3.7325e-05,-369.41,1.9711
20273,21.791,5.6364,0.05,3.0934e-07,3.0912,2.3753e-07,1.7847,9.6541e-13,9.1742e-06,-2.3753e-07,-1.7847,1.9579
20274,21.883,5.8182,0,3.7405e-05,373.79,1.3416e-05,12.904,1.1699e-05,-0.0005496,-3.7169e-05,-367.18,1.971
20275,21.791,5.8182,0.05,9.5088e-09,0.095022,7.3013e-09,0.05486,3.5547e-13,5.1808e-06,-7.3019e-09,-0.054862,1.9578
20276,21.791,5.9091,0,3.7743e-05,377.17,1.3175e-05,8.6644,1.2027e-05,0.046117,-3.7588e-05,-372.74,1.9578
20277,21.975,0.27273,0,3.6412e-05,363.87,1.2989e-05,11.701,1.1431e-05,-0.0064867,-3.6199e-05,-357.88,1.9842
20278,22.067,0.18182,0,3.5174e-05,351.5,1.2656e-05,12.612,1.0977e-05,-0.00010054,-3.4943e-05,-345.03,1.9973
20279,21.975,0.18182,0.05,9.7164e-08,0.97097,7.461e-08,0.56059,1.0702e-13,4.2306e-06,-7.461e-08,-0.56059,1.9841
20280,21.975,0.090909,0,3.576e-05,357.35,1.2506e-05,8.4889,1.1381e-05,0.04218,-3.5607e-05,-353.01,1.9841
20281,21.975,0.45455,0,3.6632e-05,366.07,1.2873e-05,9.4189,1.1619e-05,-0.0038024,-3.6463e-05,-361.27,1.9843
20282,22.067,0.36364,0,3.5219e-05,351.95,1.2534e-05,10.952,1.1075e-05,-0.0059499,-3.502e-05,-346.35,1.9974
20283,21.975,0.36364,0.05,3.8105e-07,3.8079,2.926e-07,2.1985,-2.7131e-13,-6.3376e-08,-2.926e-07,-2.1985,1.9842
20284,21.975,0.63636,0,3.7042e-05,370.16,1.2704e-05,5.7439,1.1936e-05,-0.030647,-3.6941e-05,-367.27,1.9843
20285,22.067,0.54545,0,3.5531e-05,355.06,1.2437e-05,8.5536,1.13e-05,0.0064555,-3.5378e-05,-350.71,1.9975
20286,21.975,0.54545,0.05,4.3702e-07,4.3672,3.3558e-07,2.5214,-3.1325e-13,-2.3846e-07,-3.3558e-07,-2.5214,1.9843
20287,21.975,0.81818,0,3.7556e-05,375.3,1.2498e-05,0.85792,1.2295e-05,-0.66965,-3.7552e-05,-375.2,1.9844
20288,22.067,0.72727,0,3.5942e-05,359.17,1.2236e-05,4.4687,1.1635e-05,-0.044932,-3.5865e-05,-356.94,1.9975
20289,21.975,0.72727,0.05,4.9104e-07,4.907,3.7706e-07,2.8331,2.4581e-13,3.9298e-06,-3.7706e-07,-2.8331,1.9844
20290,21.975,1,0,3.8162e-05,381.35,1.2958e-05,0.1584,1.1988e-05,-7.1258,-3.8275e-05,-384.78,1.9845
20291,22.067,0.90909,0,3.6434e-05,364.09,1.2138e-05,0.36,1.1862e-05,-1.7151,-3.6457e-05,-364.76,1.9976
20292,21.975,0.90909,0.05,5.538e-07,5.5341,4.2525e-07,3.1951,5.7546e-13,7.696e-06,-4.2525e-07,-3.1951,1.9844
20293,21.975,1.1818,0,3.8851e-05,388.24,1.3594e-05,0.11533,1.1506e-05,-15.574,-3.909e-05,-395.73,1.9846
20294,22.067,1.0909,0,3.6998e-05,369.72,1.2649e-05,0.13514,1.1473e-05,-8.6981,-3.7136e-05,-373.93,1.9977
20295,21.975,1.0909,0.05,6.226e-07,6.2217,4.7808e-07,3.5921,8.23e-13,9.3811e-06,-4.7808e-07,-3.5921,1.9845
20296,21.975,1.3636,0,3.9614e-05,395.87,1.43e-05,0.1013,1.0959e-05,-24.997,-3.9978e-05,-407.72,1.9846
20297,22.067,1.2727,0,3.7625e-05,375.99,1.3257e-05,0.10766,1.0981e-05,-16.993,-3.7883e-05,-384.14,1.9977
20298,21.975,1.2727,0.05,6.9445e-07,6.9398,5.3325e-07,4.0067,1.029e-12,9.5165e-06,-5.3326e-07,-4.0067,1.9846
20299,21.975,1.5455,0,4.0438e-05,404.1,1.5044e-05,0.094509,1.0386e-05,-34.898,-4.0917e-05,-420.37,1.9847
20300,22.067,1.4545,0,3.8306e-05,382.8,1.3916e-05,0.097422,1.044e-05,-26.019,-3.868e-05,-395.09,1.9978
20301,21.975,1.4545,0.05,7.668e-07,7.6628,5.8881e-07,4.4241,1.1606e-12,1.1044e-05,-5.8881e-07,-4.4241,1.9846
20302,21.975,1.7273,0,4.1307e-05,412.78,1.5795e-05,0.091135,9.8267e-06,-44.754,-4.1883e-05,-433.28,1.9847
20303,22.067,1.6364,0,3.9031e-05,390.04,1.4597e-05,0.092387,9.8861e-06,-35.3,-3.9509e-05,-406.43,1.9978
20304,21.975,1.6364,0.05,8.3751e-07,8.3693,6.431e-07,4.832,1.3836e-12,1.2129e-05,-6.431e-07,-4.832,1.9847
20305,21.975,1.9091,0,4.2194e-05,421.65,1.6522e-05,0.090302,9.3169e-06,-54.049,-4.285e-05,-446.01,1.9847
20306,22.067,1.8182,0,3.9781e-05,397.53,1.527e-05,0.090129,9.3563e-06,-44.345,-4.0347e-05,-417.8,1.9979
20307,21.975,1.8182,0.05,9.048e-07,9.0418,6.9478e-07,5.2203,1.1811e-12,1.1367e-05,-6.9478e-07,-5.2203,1.9847
20308,21.975,2.0909,0,4.3065e-05,430.36,1.7195e-05,0.091759,8.8854e-06,-62.339,-4.3783e-05,-458.07,1.9848
20309,22.067,2,0,4.0533e-05,405.05,1.5908e-05,0.090066,8.8829e-06,-52.695,-4.1169e-05,-428.77,1.9979
20310,21.975,2,0.05,9.6715e-07,9.6649,7.4265e-07,5.58,1.3625e-12,1.2275e-05,-7.4265e-07,-5.58,1.9847
20311,21.975,2.2727,0,4.3877e-05,438.47,1.7783e-05,0.095117,8.5479e-06,-69.297,-4.4641e-05,-468.93,1.9848
20312,22.067,2.1818,0,4.1254e-05,412.26,1.6484e-05,0.09189,8.489e-06,-59.977,-4.1943e-05,-438.9,1.9979
20313,21.975,2.1818,0.05,1.0231e-06,10.224,7.856e-07,5.9027,1.4511e-12,1.3213e-05,-7.856e-07,-5.9027,1.9848
20314,21.975,2.4545,0,4.4581e-05,445.5,1.8265e-05,0.099597,8.3056e-06,-74.735,-4.5376e-05,-478.08,1.9848
20315,22.067,2.3636,0,4.1905e-05,418.76,1.6973e-05,0.095092,8.1853e-06,-65.93,-4.2632e-05,-447.75,1.9979
20316,21.975,2.3636,0.05,1.071e-06,10.703,8.2239e-07,6.1791,1.2758e-12,1.2521e-05,-8.2239e-07,-6.1791,1.9848
20317,21.975,2.6364,0,4.5127e-05,450.96,1.8622e-05,0.10408,8.1489e-06,-78.59,-4.5944e-05,-485.02,1.9848
20318,22.067,2.5455,0,4.2442e-05,424.13,1.7356e-05,0.098844,7.971e-06,-70.419,-4.3196e-05,-454.87,1.998
20319,21.975,2.5455,0.05,1.1091e-06,11.083,8.5166e-07,6.399,1.3979e-12,1.1554e-05,-8.5166e-07,-6.399,1.9848
20320,21.975,2.8182,0,4.5473e-05,454.42,1.8842e-05,0.10738,8.0633e-06,-80.876,-4.6303e-05,-489.36,1.9848
20321,22.067,2.7273,0,4.2826e-05,427.97,1.762e-05,0.10213,7.8374e-06,-73.399,-4.3597e-05,-459.86,1.998
20322,21.975,2.7273,0.05,1.1357e-06,11.349,8.7208e-07,6.5525,1.2965e-12,1.0774e-05,-8.7209e-07,-6.5525,1.9848
20323,21.975,3,0,4.5592e-05,455.61,1.8915e-05,0.10859,8.0363e-06,-81.632,-4.6425e-05,-490.84,1.9848
20324,22.067,2.9091,0,4.3027e-05,429.97,1.7754e-05,0.10405,7.774e-06,-74.88,-4.3805e-05,-462.43,1.998
20325,21.975,2.9091,0.05,1.1494e-06,11.486,8.826e-07,6.6315,1.4166e-12,1.2792e-05,-8.826e-07,-6.6315,1.9848
20326,21.975,3.1818,0,4.5473e-05,454.42,1.8842e-05,0.10737,8.0633e-06,-80.876,-4.6303e-05,-489.36,1.9848
20327,22.067,3.0909,0,4.3027e-05,429.97,1.7754e-05,0.10405,7.774e-06,-74.88,-4.3805e-05,-462.43,1.998
20328,21.975,3.0909,0.05,1.1494e-06,11.486,8.826e-07,6.6315,1.6562e-12,1.1076e-05,-8.826e-07,-6.6315,1.9848
20329,21.975,3.3636,0,4.5127e-05,450.96,1.8622e-05,0.10408,8.1489e-06,-78.59,-4.5944e-05,-485.02,1.9848
20330,22.067,3.2727,0,4.2826e-05,427.97,1.762e-05,0.10213,7.8374e-06,-73.399,-4.3597e-05,-459.86,1.998
20331,21.975,3.2727,0.05,1.1357e-06,11.349,8.7208e-07,6.5525,1.5747e-12,1.0507e-05,-8.7209e-07,-6.5525,1.9848
20332,21.975,3.5455,0,4.4581e-05,445.5,1.8265e-05,0.099598,8.3056e-06,-74.735,-4.5376e-05,-478.08,1.9848
20333,22.067,3.4545,0,4.2442e-05,424.13,1.7356e-05,0.098844,7.971e-06,-70.419,-4.3196e-05,-454.87,1.998
20334,21.975,3.4545,0.05,1.1091e-06,11.083,8.5166e-07,6.399,1.5173e-12,1.2811e-05,-8.5166e-07,-6.399,1.9848
20335,21.975,3.7273,0,4.3877e-05,438.47,1.7783e-05,0.095118,8.5479e-06,-69.297,-4.4641e-05,-468.93,1.9848
20336,22.067,3.6364,0,4.1905e-05,418.76,1.6973e-05,0.095093,8.1853e-06,-65.93,-4.2632e-05,-447.75,1.9979
20337,21.975,3.6364,0.05,1.071e-06,10.703,8.2239e-07,6.1791,1.6094e-12,1.3579e-05,-8.2239e-07,-6.1791,1.9848
20338,21.975,3.9091,0,4.3065e-05,430.36,1.7195e-05,0.091759,8.8854e-06,-62.34,-4.3783e-05,-458.07,1.9848
20339,22.067,3.8182,0,4.1254e-05,412.26,1.6484e-05,0.091891,8.489e-06,-59.977,-4.1943e-05,-438.9,1.9979
20340,21.975,3.8182,0.05,1.0231e-06,10.224,7.856e-07,5.9027,1.7284e-12,1.3335e-05,-7.856e-07,-5.9027,1.9848
20341,21.975,4.0909,0,4.2194e-05,421.65,1.6522e-05,0.090302,9.3169e-06,-54.05,-4.285e-05,-446.01,1.9847
20342,22.067,4,0,4.0533e-05,405.05,1.5908e-05,0.090065,8.8829e-06,-52.695,-4.1169e-05,-428.77,1.9979
20343,21.975,4,0.05,9.6715e-07,9.6649,7.4265e-07,5.58,1.5178e-12,1.1989e-05,-7.4266e-07,-5.58,1.9847
20344,21.975,4.2727,0,4.1307e-05,412.78,1.5795e-05,0.091134,9.8267e-06,-44.754,-4.1883e-05,-433.28,1.9847
20345,22.067,4.1818,0,3.9781e-05,397.53,1.527e-05,0.09013,9.3563e-06,-44.345,-4.0347e-05,-417.8,1.9979
20346,21.975,4.1818,0.05,9.048e-07,9.0418,6.9478e-07,5.2203,1.6236e-12,1.1029e-05,-6.9478e-07,-5.2203,1.9847
20347,21.975,4.4545,0,4.0438e-05,404.1,1.5044e-05,0.09451,1.0386e-05,-34.898,-4.0916e-05,-420.37,1.9847
20348,22.067,4.3636,0,3.9031e-05,390.04,1.4597e-05,0.092387,9.8861e-06,-35.3,-3.9509e-05,-406.43,1.9978
20349,21.975,4.3636,0.05,8.3751e-07,8.3693,6.431e-07,4.832,1.6327e-12,1.3314e-05,-6.431e-07,-4.832,1.9847
20350,21.975,4.6364,0,3.9614e-05,395.87,1.43e-05,0.1013,1.0959e-05,-24.997,-3.9978e-05,-407.72,1.9846
20351,22.067,4.5455,0,3.8306e-05,382.8,1.3916e-05,0.097422,1.044e-05,-26.019,-3.868e-05,-395.09,1.9978
20352,21.975,4.5455,0.05,7.668e-07,7.6628,5.8881e-07,4.4241,1.5629e-12,1.0425e-05,-5.8881e-07,-4.4241,1.9846
20353,21.975,4.8182,0,3.8851e-05,388.24,1.3594e-05,0.11534,1.1506e-05,-15.574,-3.909e-05,-395.73,1.9846
20354,22.067,4.7273,0,3.7625e-05,375.99,1.3257e-05,0.10766,1.0981e-05,-16.993,-3.7883e-05,-384.14,1.9977
20355,21.975,4.7273,0.05,6.9445e-07,6.9398,5.3325e-07,4.0067,1.5477e-12,1.2497e-05,-5.3326e-07,-4.0067,1.9846
20356,21.975,5,0,3.8162e-05,381.35,1.2958e-05,0.1584,1.1988e-05,-7.1257,-3.8275e-05,-384.78,1.9845
20357,22.067,4.9091,0,3.6998e-05,369.72,1.2649e-05,0.13514,1.1473e-05,-8.6981,-3.7136e-05,-373.92,1.9977
20358,21.975,4.9091,0.05,6.226e-07,6.2217,4.7808e-07,3.5921,1.4369e-12,1.4056e-05,-4.7808e-07,-3.5921,1.9845
20359,21.975,5.1818,0,3.7556e-05,375.3,1.2498e-05,0.85794,1.2295e-05,-0.66964,-3.7552e-05,-375.2,1.9844
20360,22.067,5.0909,0,3.6434e-05,364.09,1.2138e-05,0.36,1.1862e-05,-1.7151,-3.6457e-05,-364.76,1.9976
20361,21.975,5.0909,0.05,5.538e-07,5.5341,4.2525e-07,3.1951,1.2709e-12,1.0538e-05,-4.2525e-07,-3.1951,1.9844
20362,21.975,5.3636,0,3.7042e-05,370.16,1.2704e-05,5.7439,1.1936e-05,-0.030645,-3.6941e-05,-367.27,1.9843
20363,22.067,5.2727,0,3.5942e-05,359.17,1.2236e-05,4.4687,1.1635e-05,-0.044933,-3.5865e-05,-356.94,1.9975
20364,21.975,5.2727,0.05,4.9104e-07,4.907,3.7706e-07,2.8331,1.1859e-12,1.1927e-05,-3.7706e-07,-2.8331,1.9844
20365,21.975,5.5455,0,3.6632e-05,366.07,1.2873e-05,9.4189,1.1619e-05,-0.0038002,-3.6463e-05,-361.27,1.9843
20366,22.067,5.4545,0,3.5531e-05,355.06,1.2437e-05,8.5536,1.13e-05,0.0064553,-3.5378e-05,-350.71,1.9975
20367,21.975,5.4545,0.05,4.3702e-07,4.3672,3.3558e-07,2.5214,1.0786e-12,1.1917e-05,-3.3558e-07,-2.5214,1.9843
20368,21.975,5.7273,0,3.6412e-05,363.87,1.2989e-05,11.701,1.1431e-05,-0.0064866,-3.6199e-05,-357.88,1.9842
20369,22.067,5.6364,0,3.5219e-05,351.95,1.2534e-05,10.952,1.1075e-05,-0.0059476,-3.502e-05,-346.35,1.9974
20370,21.975,5.6364,0.05,3.8105e-07,3.8079,2.926e-07,2.1985,1.069e-12,1.1053e-05,-2.926e-07,-2.1985,1.9842
20371,22.067,5.8182,0,3.5174e-05,351.5,1.2656e-05,12.612,1.0977e-05,-9.9968e-05,-3.4943e-05,-345.03,1.9973
20372,21.975,5.8182,0.05,9.7164e-08,0.97097,7.461e-08,0.56059,3.9931e-13,7.0144e-06,-7.461e-08,-0.56059,1.9841
20373,21.975,5.9091,0,3.576e-05,357.35,1.2506e-05,8.4889,1.1381e-05,0.042181,-3.5607e-05,-353.01,1.9841
20374,22.159,0.27273,0,3.3961e-05,339.38,1.2183e-05,11.736,1.0621e-05,-0.0040692,-3.3747e-05,-333.36,2.0105
20375,22.251,0.18182,0,3.2606e-05,325.84,1.1805e-05,12.577,1.0131e-05,-0.0016411,-3.2374e-05,-319.37,2.0236
20376,22.159,0.18182,0.05,1.7191e-07,1.7179,1.32e-07,0.99181,2.6931e-13,4.7251e-06,-1.32e-07,-0.99181,2.0104
20377,22.159,0.090909,0,3.3383e-05,333.6,1.1719e-05,8.464,1.0598e-05,0.038704,-3.323e-05,-329.27,2.0104
20378,22.159,0.45455,0,3.4111e-05,340.88,1.2091e-05,10.037,1.0757e-05,0.0081569,-3.3929e-05,-335.74,2.0106
20379,22.251,0.36364,0,3.2604e-05,325.81,1.1706e-05,11.388,1.019e-05,-0.001881,-3.2395e-05,-319.97,2.0237
20380,22.159,0.36364,0.05,4.4086e-07,4.4056,3.3853e-07,2.5436,-6.119e-14,2.0487e-06,-3.3853e-07,-2.5436,2.0105
20381,22.159,0.63636,0,3.4426e-05,344.02,1.1963e-05,7.2318,1.1001e-05,0.0086969,-3.4297e-05,-340.35,2.0107
20382,22.251,0.54545,0,3.285e-05,328.27,1.1653e-05,9.7768,1.0354e-05,0.021727,-3.2673e-05,-323.27,2.0238
20383,22.159,0.54545,0.05,4.873e-07,4.8697,3.7419e-07,2.8115,4.2357e-13,6.1154e-06,-3.7419e-07,-2.8115,2.0106
20384,22.159,0.81818,0,3.4816e-05,347.92,1.1738e-05,2.9349,1.1338e-05,-0.071869,-3.4767e-05,-346.48,2.0107
20385,22.251,0.72727,0,3.3173e-05,331.5,1.1506e-05,6.7149,1.0614e-05,0.010421,-3.3053e-05,-328.09,2.0238
20386,22.159,0.72727,0.05,5.2997e-07,5.2961,4.0695e-07,3.0577,4.2327e-13,4.9676e-06,-4.0695e-07,-3.0577,2.0107
20387,22.159,1,0,3.5268e-05,352.43,1.1811e-05,0.20205,1.1364e-05,-3.1581,-3.5317e-05,-353.9,2.0108
20388,22.251,0.90909,0,3.3549e-05,335.26,1.1268e-05,2.3056,1.0949e-05,-0.096796,-3.3511e-05,-334.15,2.0239
20389,22.159,0.90909,0.05,5.8036e-07,5.7996,4.4564e-07,3.3484,6.4644e-13,6.2695e-06,-4.4564e-07,-3.3484,2.0107
20390,22.159,1.1818,0,3.577e-05,357.45,1.2311e-05,0.11729,1.0951e-05,-10.101,-3.5929e-05,-362.34,2.0109
20391,22.251,1.0909,0,3.3968e-05,339.44,1.141e-05,0.17521,1.0885e-05,-3.7735,-3.4027e-05,-341.23,2.024
20392,22.159,1.0909,0.05,6.3643e-07,6.3599,4.887e-07,3.6719,8.1186e-13,8.7709e-06,-4.887e-07,-3.6719,2.0108
20393,22.159,1.3636,0,3.6317e-05,362.92,1.2873e-05,0.10049,1.0464e-05,-17.999,-3.6587e-05,-371.53,2.0109
20394,22.251,1.2727,0,3.4421e-05,343.97,1.1887e-05,0.11371,1.0467e-05,-10.557,-3.4586e-05,-349.07,2.024
20395,22.159,1.2727,0.05,6.9553e-07,6.9505,5.3408e-07,4.0129,8.5291e-13,9.9926e-06,-5.3408e-07,-4.0129,2.0109
20396,22.159,1.5455,0,3.6899e-05,368.74,1.3469e-05,0.093626,9.9425e-06,-26.4,-3.7275e-05,-381.18,2.011
20397,22.251,1.4545,0,3.4903e-05,348.79,1.2411e-05,0.099482,9.9895e-06,-18.093,-3.5174e-05,-357.43,2.0241
20398,22.159,1.4545,0.05,7.553e-07,7.5478,5.7998e-07,4.3577,1.033e-12,1.0194e-05,-5.7998e-07,-4.3577,2.0109
20399,22.159,1.7273,0,3.7506e-05,374.81,1.4071e-05,0.090317,9.4187e-06,-34.868,-3.7975e-05,-390.97,2.011
20400,22.251,1.6364,0,3.5407e-05,353.83,1.2954e-05,0.093479,9.4871e-06,-25.956,-3.5775e-05,-366.04,2.0241
20401,22.159,1.6364,0.05,8.1378e-07,8.1322,6.2488e-07,4.6951,1.2829e-12,1.1624e-05,-6.2488e-07,-4.6951,2.011
20402,22.159,1.9091,0,3.8122e-05,380.96,1.4656e-05,0.089129,8.9252e-06,-42.968,-3.8669e-05,-400.57,2.011
20403,22.251,1.8182,0,3.5923e-05,358.98,1.3493e-05,0.090647,8.9922e-06,-33.729,-3.6375e-05,-374.6,2.0242
20404,22.159,1.8182,0.05,8.6932e-07,8.6872,6.6753e-07,5.0156,1.2414e-12,1.066e-05,-6.6753e-07,-5.0156,2.011
20405,22.159,2.0909,0,3.8724e-05,386.97,1.5197e-05,0.089614,8.4888e-06,-50.315,-3.9331e-05,-409.62,2.0111
20406,22.251,2,0,3.6436e-05,364.11,1.4006e-05,0.08976,8.5343e-06,-41.019,-3.6957e-05,-382.83,2.0242
20407,22.159,2,0.05,9.2054e-07,9.199,7.0686e-07,5.3111,1.3457e-12,1.1462e-05,-7.0686e-07,-5.3111,2.011
20408,22.159,2.2727,0,3.9283e-05,392.56,1.5673e-05,0.091409,8.1278e-06,-56.6,-3.9936e-05,-417.73,2.0111
20409,22.251,2.1818,0,3.6925e-05,369,1.4469e-05,0.090335,8.1368e-06,-47.486,-3.75e-05,-390.39,2.0242
20410,22.159,2.1818,0.05,9.6614e-07,9.6548,7.4188e-07,5.5742,1.4219e-12,1.2628e-05,-7.4188e-07,-5.5742,2.0111
20411,22.159,2.4545,0,3.9766e-05,397.39,1.6064e-05,0.093977,7.8507e-06,-61.614,-4.0452e-05,-424.54,2.0111
20412,22.251,2.3636,0,3.7365e-05,373.39,1.4864e-05,0.091926,7.8145e-06,-52.874,-3.798e-05,-396.96,2.0242
20413,22.159,2.3636,0.05,1.0049e-06,10.042,7.7162e-07,5.7976,1.3554e-12,1.19e-05,-7.7162e-07,-5.7976,2.0111
20414,22.159,2.6364,0,4.0141e-05,401.13,1.6354e-05,0.096603,7.6581e-06,-65.238,-4.0848e-05,-429.69,2.0111
20415,22.251,2.5455,0,3.7728e-05,377.02,1.5174e-05,0.09397,7.5742e-06,-57.011,-3.837e-05,-402.22,2.0243
20416,22.159,2.5455,0.05,1.0354e-06,10.347,7.9509e-07,5.974,1.3803e-12,1.3206e-05,-7.9509e-07,-5.974,2.0111
20417,22.159,2.8182,0,4.0378e-05,403.5,1.6532e-05,0.098553,7.5458e-06,-67.42,-4.1097e-05,-432.91,2.0111
20418,22.251,2.7273,0,3.7987e-05,379.61,1.5388e-05,0.095824,7.4165e-06,-59.802,-3.8646e-05,-405.9,2.0243
20419,22.159,2.7273,0.05,1.0566e-06,10.559,8.1136e-07,6.0962,1.3329e-12,1.1994e-05,-8.1136e-07,-6.0962,2.0111
20420,22.159,3,0,4.046e-05,404.32,1.6592e-05,0.099272,7.509e-06,-68.148,-4.1183e-05,-434,2.0111
20421,22.251,2.9091,0,3.8122e-05,380.96,1.5497e-05,0.096919,7.3387e-06,-61.204,-3.879e-05,-407.79,2.0243
20422,22.159,2.9091,0.05,1.0675e-06,10.668,8.197e-07,6.1589,1.4664e-12,1.1785e-05,-8.197e-07,-6.1589,2.0111
20423,22.159,3.1818,0,4.0378e-05,403.5,1.6532e-05,0.098553,7.5458e-06,-67.42,-4.1097e-05,-432.91,2.0111
20424,22.251,3.0909,0,3.8122e-05,380.96,1.5497e-05,0.096919,7.3387e-06,-61.204,-3.879e-05,-407.79,2.0243
20425,22.159,3.0909,0.05,1.0675e-06,10.668,8.197e-07,6.1589,1.4921e-12,1.2075e-05,-8.197e-07,-6.1589,2.0111
20426,22.159,3.3636,0,4.0141e-05,401.13,1.6354e-05,0.096603,7.6581e-06,-65.238,-4.0848e-05,-429.69,2.0111
20427,22.251,3.2727,0,3.7987e-05,379.61,1.5388e-05,0.095823,7.4165e-06,-59.802,-3.8646e-05,-405.9,2.0243
20428,22.159,3.2727,0.05,1.0566e-06,10.559,8.1136e-07,6.0962,1.477e-12,1.2979e-05,-8.1136e-07,-6.0962,2.0111
20429,22.159,3.5455,0,3.9766e-05,397.39,1.6064e-05,0.093976,7.8507e-06,-61.614,-4.0452e-05,-424.54,2.0111
20430,22.251,3.4545,0,3.7728e-05,377.02,1.5174e-05,0.093971,7.5742e-06,-57.011,-3.837e-05,-402.22,2.0243
20431,22.159,3.4545,0.05,1.0354e-06,10.347,7.9509e-07,5.974,1.6508e-12,1.1705e-05,-7.9509e-07,-5.974,2.0111
20432,22.159,3.7273,0,3.9283e-05,392.56,1.5673e-05,0.09141,8.1278e-06,-56.6,-3.9936e-05,-417.73,2.0111
20433,22.251,3.6364,0,3.7365e-05,373.39,1.4864e-05,0.091925,7.8145e-06,-52.874,-3.798e-05,-396.96,2.0242
20434,22.159,3.6364,0.05,1.0049e-06,10.042,7.7162e-07,5.7976,1.5092e-12,1.2384e-05,-7.7162e-07,-5.7976,2.0111
20435,22.159,3.9091,0,3.8724e-05,386.97,1.5197e-05,0.089615,8.4888e-06,-50.315,-3.9331e-05,-409.62,2.0111
20436,22.251,3.8182,0,3.6925e-05,369,1.4469e-05,0.090334,8.1367e-06,-47.486,-3.75e-05,-390.39,2.0242
20437,22.159,3.8182,0.05,9.6614e-07,9.6548,7.4188e-07,5.5742,1.651e-12,1.2189e-05,-7.4188e-07,-5.5742,2.0111
20438,22.159,4.0909,0,3.8122e-05,380.96,1.4656e-05,0.08913,8.9252e-06,-42.968,-3.8669e-05,-400.57,2.011
20439,22.251,4,0,3.6436e-05,364.11,1.4006e-05,0.089761,8.5343e-06,-41.019,-3.6957e-05,-382.83,2.0242
20440,22.159,4,0.05,9.2054e-07,9.199,7.0686e-07,5.311,1.5067e-12,1.1699e-05,-7.0686e-07,-5.3111,2.011
20441,22.159,4.2727,0,3.7506e-05,374.81,1.4071e-05,0.090319,9.4187e-06,-34.868,-3.7975e-05,-390.97,2.011
20442,22.251,4.1818,0,3.5923e-05,358.98,1.3493e-05,0.090648,8.9922e-06,-33.729,-3.6375e-05,-374.6,2.0242
20443,22.159,4.1818,0.05,8.6932e-07,8.6872,6.6753e-07,5.0156,1.5187e-12,1.1287e-05,-6.6753e-07,-5.0156,2.011
20444,22.159,4.4545,0,3.6899e-05,368.74,1.3469e-05,0.093626,9.9425e-06,-26.4,-3.7275e-05,-381.18,2.011
20445,22.251,4.3636,0,3.5407e-05,353.83,1.2954e-05,0.093479,9.4871e-06,-25.956,-3.5775e-05,-366.04,2.0241
20446,22.159,4.3636,0.05,8.1378e-07,8.1322,6.2488e-07,4.6951,1.5961e-12,1.2813e-05,-6.2488e-07,-4.6951,2.011
20447,22.159,4.6364,0,3.6317e-05,362.92,1.2873e-05,0.10049,1.0464e-05,-17.999,-3.6587e-05,-371.53,2.0109
20448,22.251,4.5455,0,3.4903e-05,348.79,1.2411e-05,0.099482,9.9895e-06,-18.093,-3.5174e-05,-357.43,2.0241
20449,22.159,4.5455,0.05,7.553e-07,7.5478,5.7998e-07,4.3577,1.387e-12,1.1073e-05,-5.7998e-07,-4.3577,2.0109
20450,22.159,4.8182,0,3.577e-05,357.45,1.2311e-05,0.11729,1.0951e-05,-10.101,-3.5929e-05,-362.34,2.0109
20451,22.251,4.7273,0,3.4421e-05,343.97,1.1887e-05,0.11371,1.0467e-05,-10.557,-3.4586e-05,-349.07,2.024
20452,22.159,4.7273,0.05,6.9553e-07,6.9505,5.3408e-07,4.0129,1.4664e-12,1.3018e-05,-5.3408e-07,-4.0129,2.0109
20453,22.159,5,0,3.5268e-05,352.43,1.1811e-05,0.20206,1.1364e-05,-3.1581,-3.5317e-05,-353.9,2.0108
20454,22.251,4.9091,0,3.3968e-05,339.44,1.141e-05,0.17521,1.0885e-05,-3.7735,-3.4027e-05,-341.23,2.024
20455,22.159,4.9091,0.05,6.3643e-07,6.3599,4.887e-07,3.6719,1.2563e-12,1.2143e-05,-4.887e-07,-3.6719,2.0108
20456,22.159,5.1818,0,3.4816e-05,347.92,1.1738e-05,2.935,1.1338e-05,-0.071873,-3.4767e-05,-346.48,2.0107
20457,22.251,5.0909,0,3.3549e-05,335.26,1.1268e-05,2.3057,1.0949e-05,-0.096798,-3.3511e-05,-334.15,2.0239
20458,22.159,5.0909,0.05,5.8036e-07,5.7996,4.4564e-07,3.3484,1.1396e-12,1.025e-05,-4.4564e-07,-3.3484,2.0107
20459,22.159,5.3636,0,3.4426e-05,344.02,1.1963e-05,7.2319,1.1001e-05,0.0086942,-3.4297e-05,-340.35,2.0107
20460,22.251,5.2727,0,3.3173e-05,331.5,1.1506e-05,6.7149,1.0614e-05,0.010419,-3.3053e-05,-328.09,2.0238
20461,22.159,5.2727,0.05,5.2997e-07,5.2961,4.0695e-07,3.0577,1.1717e-12,1.16e-05,-4.0695e-07,-3.0577,2.0107
20462,22.159,5.5455,0,3.4111e-05,340.88,1.2091e-05,10.037,1.0757e-05,0.0081569,-3.3929e-05,-335.74,2.0106
20463,22.251,5.4545,0,3.285e-05,328.27,1.1653e-05,9.7768,1.0354e-05,0.021727,-3.2673e-05,-323.27,2.0238
20464,22.159,5.4545,0.05,4.873e-07,4.8697,3.7419e-07,2.8115,9.5362e-13,1.0013e-05,-3.7419e-07,-2.8115,2.0106
20465,22.159,5.7273,0,3.3961e-05,339.38,1.2183e-05,11.736,1.0621e-05,-0.0040663,-3.3747e-05,-333.36,2.0105
20466,22.251,5.6364,0,3.2604e-05,325.81,1.1706e-05,11.388,1.019e-05,-0.0018798,-3.2395e-05,-319.97,2.0237
20467,22.159,5.6364,0.05,4.4086e-07,4.4056,3.3853e-07,2.5436,9.7402e-13,9.7267e-06,-3.3853e-07,-2.5436,2.0105
20468,22.251,5.8182,0,3.2606e-05,325.84,1.1805e-05,12.577,1.0131e-05,-0.0016382,-3.2374e-05,-319.37,2.0236
20469,22.159,5.8182,0.05,1.7191e-07,1.7179,1.32e-07,0.99181,6.3156e-13,6.8881e-06,-1.32e-07,-0.99181,2.0104
20470,22.159,5.9091,0,3.3383e-05,333.6,1.1719e-05,8.464,1.0598e-05,0.038707,-3.323e-05,-329.27,2.0104
20471,22.343,0.27273,0,3.1225e-05,312.03,1.1308e-05,12.079,9.6997e-06,-0.0047241,-3.1002e-05,-305.82,2.0368
20472,22.436,0.18182,0,2.9773e-05,297.52,1.0887e-05,12.788,9.1843e-06,-0.005018,-2.9534e-05,-290.92,2.0499
20473,22.343,0.18182,0.05,2.3425e-07,2.3409,1.7987e-07,1.3515,2.5145e-13,2.1394e-06,-1.7987e-07,-1.3515,2.0368
20474,22.343,0.090909,0,3.0693e-05,306.72,1.0841e-05,8.5866,9.7034e-06,0.03617,-3.0537e-05,-302.32,2.0367
20475,22.343,0.45455,0,3.1334e-05,313.12,1.1259e-05,11.065,9.7883e-06,0.013923,-3.1131e-05,-307.43,2.0369
20476,22.436,0.36364,0,2.9747e-05,297.27,1.0829e-05,12.193,9.2064e-06,-0.0013992,-2.9521e-05,-290.99,2.05
20477,22.343,0.36364,0.05,4.8965e-07,4.8931,3.7599e-07,2.825,5.3549e-13,6.033e-06,-3.7599e-07,-2.825,2.0368
20478,22.343,0.63636,0,3.159e-05,315.68,1.119e-05,9.213,9.9674e-06,0.027237,-3.1423e-05,-310.96,2.037
20479,22.436,0.54545,0,2.996e-05,299.39,1.0838e-05,11.467,9.3159e-06,0.029806,-2.9748e-05,-293.48,2.0501
20480,22.343,0.54545,0.05,5.2907e-07,5.2871,4.0626e-07,3.0525,1.0861e-12,8.8382e-06,-4.0626e-07,-3.0525,2.0369
20481,22.343,0.81818,0,3.1901e-05,318.79,1.1029e-05,6.0262,1.0229e-05,0.015113,-3.1793e-05,-315.72,2.0371
20482,22.436,0.72727,0,3.0232e-05,302.11,1.0765e-05,9.5061,9.5045e-06,0.032314,-3.0058e-05,-297.23,2.0502
20483,22.343,0.72727,0.05,5.6317e-07,5.6279,4.3245e-07,3.2492,3.6397e-13,2.7203e-06,-4.3245e-07,-3.2493,2.037
20484,22.343,1,0,3.2246e-05,322.24,1.0788e-05,1.6782,1.0547e-05,-0.12962,-3.2219e-05,-321.46,2.0371
20485,22.436,0.90909,0,3.0534e-05,305.13,1.0597e-05,6.2693,9.7659e-06,0.021339,-3.0422e-05,-301.94,2.0503
20486,22.343,0.90909,0.05,6.0377e-07,6.0335,4.6362e-07,3.4835,2.8691e-13,2.7078e-06,-4.6362e-07,-3.4835,2.0371
20487,22.343,1.1818,0,3.2617e-05,325.94,1.0985e-05,0.15407,1.0403e-05,-4.2195,-3.2684e-05,-327.95,2.0372
20488,22.436,1.0909,0,3.0854e-05,308.33,1.0349e-05,1.9433,1.0077e-05,-0.0974,-3.0822e-05,-307.4,2.0503
20489,22.343,1.0909,0.05,6.4944e-07,6.4899,4.9869e-07,3.7469,6.3988e-13,6.2387e-06,-4.9869e-07,-3.7469,2.0371
20490,22.343,1.3636,0,3.3006e-05,329.84,1.1424e-05,0.10954,9.9926e-06,-10.649,-3.3173e-05,-334.98,2.0372
20491,22.436,1.2727,0,3.1184e-05,311.63,1.049e-05,0.16452,9.9677e-06,-3.7617,-3.1244e-05,-313.41,2.0504
20492,22.343,1.2727,0.05,6.9793e-07,6.9745,5.3592e-07,4.0267,8.365e-13,6.3815e-06,-5.3592e-07,-4.0267,2.0372
20493,22.343,1.5455,0,3.3411e-05,333.88,1.1896e-05,0.098011,9.5349e-06,-17.643,-3.3674e-05,-342.3,2.0373
20494,22.436,1.4545,0,3.1521e-05,314.99,1.0897e-05,0.11311,9.5673e-06,-9.875,-3.1675e-05,-319.75,2.0504
20495,22.343,1.4545,0.05,7.4719e-07,7.4668,5.7375e-07,4.3109,1.0907e-12,7.9261e-06,-5.7375e-07,-4.3109,2.0372
20496,22.343,1.7273,0,3.3824e-05,338.01,1.2376e-05,0.093054,9.0617e-06,-24.808,-3.4176e-05,-349.68,2.0373
20497,22.436,1.6364,0,3.1862e-05,318.4,1.1325e-05,0.10042,9.1271e-06,-16.417,-3.2107e-05,-326.24,2.0505
20498,22.343,1.6364,0.05,7.9544e-07,7.949,6.108e-07,4.5893,1.1096e-12,8.691e-06,-6.108e-07,-4.5893,2.0373
20499,22.343,1.9091,0,3.4238e-05,342.14,1.2843e-05,0.090776,8.6026e-06,-31.77,-3.4665e-05,-356.87,2.0373
20500,22.436,1.8182,0,3.2204e-05,321.81,1.1754e-05,0.095046,8.6799e-06,-23.002,-3.2531e-05,-332.64,2.0505
20501,22.343,1.8182,0.05,8.4121e-07,8.4063,6.4595e-07,4.8534,1.2967e-12,8.9805e-06,-6.4595e-07,-4.8534,2.0373
20502,22.343,2.0909,0,3.4639e-05,346.15,1.3277e-05,0.090115,8.1834e-06,-38.182,-3.5127e-05,-363.6,2.0374
20503,22.436,2,0,3.2538e-05,325.16,1.2163e-05,0.09257,8.2537e-06,-29.279,-3.2935e-05,-338.75,2.0505
20504,22.343,2,0.05,8.8325e-07,8.8264,6.7823e-07,5.0959,1.3897e-12,9.5623e-06,-6.7823e-07,-5.0959,2.0373
20505,22.343,2.2727,0,3.5009e-05,349.85,1.366e-05,0.090572,7.8241e-06,-43.756,-3.5545e-05,-369.61,2.0374
20506,22.436,2.1818,0,3.2855e-05,328.32,1.2534e-05,0.09174,7.8721e-06,-34.935,-3.3307e-05,-344.34,2.0505
20507,22.343,2.1818,0.05,9.2047e-07,9.1983,7.068e-07,5.3106,1.3078e-12,1.03e-05,-7.068e-07,-5.3107,2.0374
20508,22.343,2.4545,0,3.5328e-05,353.04,1.3975e-05,0.091698,7.538e-06,-48.271,-3.5898e-05,-374.63,2.0374
20509,22.436,2.3636,0,3.3138e-05,331.15,1.2851e-05,0.091934,7.5527e-06,-39.72,-3.3632e-05,-349.17,2.0506
20510,22.343,2.3636,0.05,9.5184e-07,9.5119,7.309e-07,5.4917,1.44e-12,1.0475e-05,-7.309e-07,-5.4917,2.0374
20511,22.343,2.6364,0,3.5575e-05,355.51,1.4209e-05,0.093008,7.332e-06,-51.58,-3.6168e-05,-378.42,2.0374
20512,22.436,2.5455,0,3.3371e-05,333.48,1.3102e-05,0.092667,7.3072e-06,-43.444,-3.3895e-05,-353.02,2.0506
20513,22.343,2.5455,0.05,9.7643e-07,9.7576,7.4978e-07,5.6335,1.4888e-12,1.043e-05,-7.4978e-07,-5.6336,2.0374
20514,22.343,2.8182,0,3.5732e-05,357.07,1.4354e-05,0.09403,7.2083e-06,-53.593,-3.6338e-05,-380.78,2.0374
20515,22.436,2.7273,0,3.3538e-05,335.15,1.3274e-05,0.093479,7.1416e-06,-45.985,-3.408e-05,-355.71,2.0506
20516,22.343,2.7273,0.05,9.9338e-07,9.927,7.6279e-07,5.7313,1.4199e-12,9.4258e-06,-7.6279e-07,-5.7313,2.0374
20517,22.343,3,0,3.5785e-05,357.61,1.4402e-05,0.094414,7.1671e-06,-54.269,-3.6396e-05,-381.58,2.0374
20518,22.436,2.9091,0,3.3624e-05,336.01,1.3363e-05,0.093995,7.0585e-06,-47.272,-3.4176e-05,-357.09,2.0506
20519,22.343,2.9091,0.05,1.002e-06,10.013,7.6944e-07,5.7813,1.5719e-12,1.0292e-05,-7.6944e-07,-5.7813,2.0374
20520,22.343,3.1818,0,3.5732e-05,357.07,1.4354e-05,0.09403,7.2083e-06,-53.593,-3.6338e-05,-380.78,2.0374
20521,22.436,3.0909,0,3.3624e-05,336.01,1.3363e-05,0.093993,7.0585e-06,-47.272,-3.4176e-05,-357.09,2.0506
20522,22.343,3.0909,0.05,1.002e-06,10.013,7.6944e-07,5.7813,1.3856e-12,9.2711e-06,-7.6944e-07,-5.7813,2.0374
20523,22.343,3.3636,0,3.5575e-05,355.51,1.4209e-05,0.093009,7.332e-06,-51.58,-3.6168e-05,-378.42,2.0374
20524,22.436,3.2727,0,3.3538e-05,335.15,1.3274e-05,0.093479,7.1416e-06,-45.985,-3.408e-05,-355.71,2.0506
20525,22.343,3.2727,0.05,9.9338e-07,9.927,7.6279e-07,5.7313,1.497e-12,1.026e-05,-7.6279e-07,-5.7313,2.0374
20526,22.343,3.5455,0,3.5328e-05,353.04,1.3975e-05,0.091699,7.538e-06,-48.271,-3.5898e-05,-374.63,2.0374
20527,22.436,3.4545,0,3.3371e-05,333.48,1.3102e-05,0.092667,7.3072e-06,-43.444,-3.3895e-05,-353.02,2.0506
20528,22.343,3.4545,0.05,9.7643e-07,9.7576,7.4978e-07,5.6335,1.4519e-12,9.9413e-06,-7.4978e-07,-5.6336,2.0374
20529,22.343,3.7273,0,3.5009e-05,349.85,1.366e-05,0.090571,7.8241e-06,-43.756,-3.5545e-05,-369.61,2.0374
20530,22.436,3.6364,0,3.3138e-05,331.15,1.2851e-05,0.091933,7.5527e-06,-39.72,-3.3632e-05,-349.17,2.0506
20531,22.343,3.6364,0.05,9.5184e-07,9.5119,7.309e-07,5.4917,1.5904e-12,1.0201e-05,-7.309e-07,-5.4917,2.0374
20532,22.343,3.9091,0,3.4639e-05,346.15,1.3277e-05,0.090115,8.1834e-06,-38.182,-3.5127e-05,-363.6,2.0374
20533,22.436,3.8182,0,3.2855e-05,328.32,1.2534e-05,0.091739,7.8721e-06,-34.935,-3.3307e-05,-344.34,2.0505
20534,22.343,3.8182,0.05,9.2047e-07,9.1983,7.068e-07,5.3106,1.5337e-12,1.1167e-05,-7.068e-07,-5.3107,2.0374
20535,22.343,4.0909,0,3.4238e-05,342.14,1.2843e-05,0.090775,8.6026e-06,-31.77,-3.4665e-05,-356.87,2.0373
20536,22.436,4,0,3.2538e-05,325.16,1.2163e-05,0.092571,8.2537e-06,-29.279,-3.2935e-05,-338.75,2.0505
20537,22.343,4,0.05,8.8325e-07,8.8264,6.7823e-07,5.0959,1.5575e-12,9.9031e-06,-6.7823e-07,-5.0959,2.0373
20538,22.343,4.2727,0,3.3824e-05,338.01,1.2376e-05,0.093054,9.0617e-06,-24.808,-3.4176e-05,-349.68,2.0373
20539,22.436,4.1818,0,3.2204e-05,321.81,1.1754e-05,0.095045,8.6799e-06,-23.002,-3.2531e-05,-332.64,2.0505
20540,22.343,4.1818,0.05,8.4121e-07,8.4063,6.4595e-07,4.8534,1.2554e-12,8.9454e-06,-6.4595e-07,-4.8534,2.0373
20541,22.343,4.4545,0,3.3411e-05,333.88,1.1896e-05,0.098011,9.5349e-06,-17.643,-3.3674e-05,-342.3,2.0373
20542,22.436,4.3636,0,3.1862e-05,318.4,1.1325e-05,0.10042,9.1271e-06,-16.417,-3.2107e-05,-326.24,2.0505
20543,22.343,4.3636,0.05,7.9544e-07,7.949,6.108e-07,4.5893,1.6458e-12,1.0496e-05,-6.108e-07,-4.5893,2.0373
20544,22.343,4.6364,0,3.3006e-05,329.84,1.1424e-05,0.10954,9.9926e-06,-10.649,-3.3173e-05,-334.98,2.0372
20545,22.436,4.5455,0,3.1521e-05,314.99,1.0897e-05,0.11311,9.5673e-06,-9.875,-3.1675e-05,-319.75,2.0504
20546,22.343,4.5455,0.05,7.4719e-07,7.4668,5.7375e-07,4.3109,1.4139e-12,9.051e-06,-5.7375e-07,-4.3109,2.0372
20547,22.343,4.8182,0,3.2617e-05,325.94,1.0985e-05,0.15408,1.0403e-05,-4.2195,-3.2684e-05,-327.95,2.0372
20548,22.436,4.7273,0,3.1184e-05,311.63,1.049e-05,0.16452,9.9677e-06,-3.7617,-3.1244e-05,-313.41,2.0504
20549,22.343,4.7273,0.05,6.9793e-07,6.9745,5.3592e-07,4.0267,1.4271e-12,1.0133e-05,-5.3593e-07,-4.0267,2.0372
20550,22.343,5,0,3.2246e-05,322.24,1.0788e-05,1.6783,1.0547e-05,-0.12961,-3.2219e-05,-321.46,2.0371
20551,22.436,4.9091,0,3.0854e-05,308.33,1.0349e-05,1.9434,1.0077e-05,-0.097399,-3.0822e-05,-307.4,2.0503
20552,22.343,4.9091,0.05,6.4944e-07,6.4899,4.9868e-07,3.7469,1.3661e-12,1.0278e-05,-4.9869e-07,-3.7469,2.0371
20553,22.343,5.1818,0,3.1901e-05,318.78,1.1029e-05,6.0262,1.0229e-05,0.01511,-3.1793e-05,-315.72,2.0371
20554,22.436,5.0909,0,3.0534e-05,305.13,1.0597e-05,6.2693,9.7659e-06,0.021338,-3.0422e-05,-301.94,2.0503
20555,22.343,5.0909,0.05,6.0377e-07,6.0335,4.6362e-07,3.4835,1.1905e-12,7.6257e-06,-4.6362e-07,-3.4835,2.0371
20556,22.343,5.3636,0,3.159e-05,315.68,1.119e-05,9.2131,9.9674e-06,0.027237,-3.1423e-05,-310.96,2.037
20557,22.436,5.2727,0,3.0232e-05,302.11,1.0765e-05,9.5062,9.5045e-06,0.032313,-3.0058e-05,-297.23,2.0502
20558,22.343,5.2727,0.05,5.6317e-07,5.6279,4.3245e-07,3.2492,1.2652e-12,8.1249e-06,-4.3245e-07,-3.2493,2.037
20559,22.343,5.5455,0,3.1334e-05,313.12,1.1259e-05,11.065,9.7883e-06,0.013923,-3.1131e-05,-307.43,2.0369
20560,22.436,5.4545,0,2.996e-05,299.39,1.0838e-05,11.467,9.3159e-06,0.029809,-2.9748e-05,-293.48,2.0501
20561,22.343,5.4545,0.05,5.2907e-07,5.2871,4.0626e-07,3.0525,1.1455e-12,8.1193e-06,-4.0626e-07,-3.0525,2.0369
20562,22.343,5.7273,0,3.1225e-05,312.03,1.1308e-05,12.079,9.6997e-06,-0.004723,-3.1002e-05,-305.82,2.0368
20563,22.436,5.6364,0,2.9747e-05,297.27,1.0829e-05,12.193,9.2064e-06,-0.0013984,-2.9521e-05,-290.99,2.05
20564,22.343,5.6364,0.05,4.8965e-07,4.8931,3.7599e-07,2.825,9.3362e-13,7.7186e-06,-3.7599e-07,-2.825,2.0368
20565,22.436,5.8182,0,2.9773e-05,297.52,1.0887e-05,12.788,9.1843e-06,-0.0050186,-2.9534e-05,-290.92,2.0499
20566,22.343,5.8182,0.05,2.3425e-07,2.3409,1.7987e-07,1.3515,6.0198e-13,5.3132e-06,-1.7987e-07,-1.3515,2.0368
20567,22.343,5.9091,0,3.0693e-05,306.72,1.0841e-05,8.5866,9.7034e-06,0.03617,-3.0537e-05,-302.32,2.0367
20568,22.528,0.27273,0,2.8268e-05,282.48,1.0385e-05,12.729,8.6902e-06,-0.0076735,-2.803e-05,-275.91,2.0632
20569,22.62,0.18182,0,2.6734e-05,267.15,9.9198e-06,13.229,8.1578e-06,-0.010315,-2.6484e-05,-260.3,2.0763
20570,22.528,0.18182,0.05,2.869e-07,2.867,2.203e-07,1.6553,4.3906e-13,3.6291e-06,-2.203e-07,-1.6553,2.0631
20571,22.528,0.090909,0,2.7758e-05,277.39,9.8944e-06,8.8483,8.7215e-06,0.035135,-2.7597e-05,-272.85,2.0631
20572,22.528,0.45455,0,2.8363e-05,283.44,1.0398e-05,12.52,8.7342e-06,0.016367,-2.8129e-05,-276.96,2.0632
20573,22.62,0.36364,0,2.671e-05,266.92,9.9241e-06,13.38,8.143e-06,-0.0030476,-2.6457e-05,-259.98,2.0764
20574,22.528,0.36364,0.05,5.2903e-07,5.2866,4.0623e-07,3.0522,5.3493e-13,2.7584e-06,-4.0623e-07,-3.0522,2.0632
20575,22.528,0.63636,0,2.8594e-05,285.74,1.0406e-05,11.706,8.8533e-06,0.036741,-2.8376e-05,-279.69,2.0633
20576,22.62,0.54545,0,2.6919e-05,269,1.0014e-05,13.654,8.2012e-06,0.034926,-2.666e-05,-261.9,2.0765
20577,22.528,0.54545,0.05,5.632e-07,5.6281,4.3247e-07,3.2494,4.1774e-13,3.8097e-06,-4.3247e-07,-3.2494,2.0633
20578,22.528,0.81818,0,2.886e-05,288.4,1.0329e-05,9.7104,9.0421e-06,0.039689,-2.8682e-05,-283.4,2.0634
20579,22.62,0.72727,0,2.7171e-05,271.52,1.0031e-05,12.86,8.3256e-06,0.043393,-2.6929e-05,-264.85,2.0765
20580,22.528,0.72727,0.05,5.909e-07,5.9049,4.5374e-07,3.4092,5.2422e-13,4.6047e-06,-4.5374e-07,-3.4092,2.0633
20581,22.528,1,0,2.9139e-05,291.19,1.0158e-05,6.5328,9.2929e-06,0.029887,-2.9022e-05,-287.85,2.0635
20582,22.62,0.90909,0,2.7434e-05,274.15,9.9545e-06,10.878,8.513e-06,0.047036,-2.7232e-05,-268.53,2.0766
20583,22.528,0.90909,0.05,6.2391e-07,6.2348,4.7909e-07,3.5997,8.7103e-13,6.6971e-06,-4.7909e-07,-3.5997,2.0634
20584,22.528,1.1818,0,2.942e-05,294,9.9075e-06,2.3525,9.5873e-06,-0.053535,-2.938e-05,-292.84,2.0635
20585,22.62,1.0909,0,2.7691e-05,276.72,9.7813e-06,7.7534,8.7546e-06,0.039355,-2.7551e-05,-272.74,2.0767
20586,22.528,1.0909,0.05,6.6127e-07,6.6082,5.0778e-07,3.8152,8.3865e-13,8.1297e-06,-5.0778e-07,-3.8152,2.0635
20587,22.528,1.3636,0,2.9698e-05,296.78,9.9639e-06,0.1792,9.5399e-06,-3.0068,-2.9745e-05,-298.18,2.0636
20588,22.62,1.2727,0,2.7936e-05,279.17,9.5251e-06,3.6683,9.0363e-06,-0.0044602,-2.7872e-05,-277.32,2.0767
20589,22.528,1.2727,0.05,7.0113e-07,7.0065,5.3838e-07,4.0452,1.0197e-12,8.2421e-06,-5.3838e-07,-4.0452,2.0635
20590,22.528,1.5455,0,2.9973e-05,299.52,1.0326e-05,0.11635,9.1591e-06,-8.6529,-3.0108e-05,-303.69,2.0636
20591,22.62,1.4545,0,2.8169e-05,281.49,9.3932e-06,0.27783,9.1563e-06,-1.5023,-2.8189e-05,-282.1,2.0768
20592,22.528,1.4545,0.05,7.4172e-07,7.4121,5.6955e-07,4.2794,1.1943e-12,9.269e-06,-5.6955e-07,-4.2794,2.0636
20593,22.528,1.7273,0,3.0243e-05,302.22,1.0704e-05,0.10249,8.7454e-06,-14.611,-3.0463e-05,-309.21,2.0636
20594,22.62,1.6364,0,2.839e-05,283.71,9.7098e-06,0.12843,8.7999e-06,-6.7083,-2.8496e-05,-286.94,2.0768
20595,22.528,1.6364,0.05,7.8149e-07,7.8095,6.0009e-07,4.5088,1.3496e-12,1.0082e-05,-6.0009e-07,-4.5088,2.0636
20596,22.528,1.9091,0,3.0506e-05,304.85,1.1074e-05,0.096802,8.3313e-06,-20.509,-3.0801e-05,-314.53,2.0637
20597,22.62,1.8182,0,2.8602e-05,285.83,1.0045e-05,0.10811,8.4081e-06,-12.193,-2.8788e-05,-291.67,2.0768
20598,22.528,1.8182,0.05,8.1915e-07,8.1859,6.29e-07,4.7261,1.2562e-12,9.1376e-06,-6.2901e-07,-4.7261,2.0637
20599,22.528,2.0909,0,3.0757e-05,307.36,1.142e-05,0.09414,7.9427e-06,-26.029,-3.1115e-05,-319.49,2.0637
20600,22.62,2,0,2.8804e-05,287.84,1.0369e-05,0.10061,8.0227e-06,-17.526,-2.906e-05,-296.15,2.0769
20601,22.528,2,0.05,8.5362e-07,8.5303,6.5547e-07,4.925,1.2606e-12,1.0096e-05,-6.5547e-07,-4.925,2.0637
20602,22.528,2.2727,0,3.0987e-05,309.66,1.1726e-05,0.093054,7.6009e-06,-30.898,-3.1395e-05,-323.89,2.0637
20603,22.62,2.1818,0,2.8992e-05,289.72,1.0664e-05,0.097159,7.6685e-06,-22.409,-2.9306e-05,-300.22,2.0769
20604,22.528,2.1818,0.05,8.8397e-07,8.8336,6.7878e-07,5.1001,1.2321e-12,1.0814e-05,-6.7878e-07,-5.1001,2.0637
20605,22.528,2.4545,0,3.1184e-05,311.63,1.1978e-05,0.092866,7.322e-06,-34.893,-3.1629e-05,-327.55,2.0637
20606,22.62,2.3636,0,2.9159e-05,291.39,1.0918e-05,0.095591,7.3651e-06,-26.596,-2.9518e-05,-303.72,2.0769
20607,22.528,2.3636,0.05,9.0942e-07,9.0879,6.9832e-07,5.2469,1.4972e-12,1.047e-05,-6.9832e-07,-5.2469,2.0637
20608,22.528,2.6364,0,3.1337e-05,313.15,1.2167e-05,0.09311,7.1166e-06,-37.852,-3.1806e-05,-330.3,2.0638
20609,22.62,2.5455,0,2.9296e-05,292.76,1.1118e-05,0.095015,7.127e-06,-29.893,-2.9687e-05,-306.5,2.0769
20610,22.528,2.5455,0.05,9.2924e-07,9.286,7.1354e-07,5.3613,1.5476e-12,1.0958e-05,-7.1354e-07,-5.3613,2.0637
20611,22.528,2.8182,0,3.1433e-05,314.12,1.2283e-05,0.093421,6.9914e-06,-39.667,-3.1917e-05,-332.01,2.0638
20612,22.62,2.7273,0,2.9393e-05,293.73,1.1257e-05,0.094911,6.9636e-06,-32.163,-2.9806e-05,-308.43,2.0769
20613,22.528,2.7273,0.05,9.4283e-07,9.4218,7.2398e-07,5.4397,1.4784e-12,9.9088e-06,-7.2398e-07,-5.4397,2.0637
20614,22.528,3,0,3.1467e-05,314.45,1.2323e-05,0.093554,6.9493e-06,-40.279,-3.1955e-05,-332.59,2.0638
20615,22.62,2.9091,0,2.9444e-05,294.24,1.1328e-05,0.094945,6.8807e-06,-33.319,-2.9867e-05,-309.43,2.0769
20616,22.528,2.9091,0.05,9.4975e-07,9.491,7.2929e-07,5.4796,1.4586e-12,1.0773e-05,-7.2929e-07,-5.4796,2.0638
20617,22.528,3.1818,0,3.1433e-05,314.12,1.2283e-05,0.09342,6.9914e-06,-39.667,-3.1917e-05,-332.01,2.0638
20618,22.62,3.0909,0,2.9444e-05,294.24,1.1328e-05,0.094944,6.8807e-06,-33.319,-2.9867e-05,-309.43,2.0769
20619,22.528,3.0909,0.05,9.4975e-07,9.491,7.2929e-07,5.4796,1.3849e-12,9.2665e-06,-7.2929e-07,-5.4796,2.0638
20620,22.528,3.3636,0,3.1337e-05,313.15,1.2167e-05,0.093109,7.1166e-06,-37.852,-3.1806e-05,-330.3,2.0638
20621,22.62,3.2727,0,2.9393e-05,293.73,1.1257e-05,0.094911,6.9636e-06,-32.163,-2.9806e-05,-308.43,2.0769
20622,22.528,3.2727,0.05,9.4283e-07,9.4218,7.2398e-07,5.4397,1.4938e-12,1.0228e-05,-7.2398e-07,-5.4397,2.0637
20623,22.528,3.5455,0,3.1184e-05,311.63,1.1978e-05,0.092864,7.322e-06,-34.893,-3.1629e-05,-327.55,2.0637
20624,22.62,3.4545,0,2.9296e-05,292.76,1.1118e-05,0.095015,7.127e-06,-29.893,-2.9687e-05,-306.5,2.0769
20625,22.528,3.4545,0.05,9.2924e-07,9.286,7.1354e-07,5.3613,1.5021e-12,9.3995e-06,-7.1354e-07,-5.3613,2.0637
20626,22.528,3.7273,0,3.0987e-05,309.66,1.1726e-05,0.093053,7.6009e-06,-30.898,-3.1395e-05,-323.89,2.0637
20627,22.62,3.6364,0,2.9159e-05,291.39,1.0918e-05,0.09559,7.3651e-06,-26.596,-2.9518e-05,-303.72,2.0769
20628,22.528,3.6364,0.05,9.0942e-07,9.0879,6.9832e-07,5.2469,1.5852e-12,1.0581e-05,-6.9832e-07,-5.2469,2.0637
20629,22.528,3.9091,0,3.0757e-05,307.36,1.142e-05,0.09414,7.9427e-06,-26.029,-3.1115e-05,-319.49,2.0637
20630,22.62,3.8182,0,2.8992e-05,289.72,1.0664e-05,0.097159,7.6685e-06,-22.409,-2.9306e-05,-300.22,2.0769
20631,22.528,3.8182,0.05,8.8397e-07,8.8336,6.7878e-07,5.1001,1.3945e-12,1.0898e-05,-6.7878e-07,-5.1001,2.0637
20632,22.528,4.0909,0,3.0506e-05,304.85,1.1074e-05,0.096801,8.3313e-06,-20.509,-3.0801e-05,-314.53,2.0637
20633,22.62,4,0,2.8804e-05,287.84,1.0369e-05,0.10061,8.0227e-06,-17.526,-2.906e-05,-296.15,2.0769
20634,22.528,4,0.05,8.5362e-07,8.5303,6.5547e-07,4.925,1.4082e-12,1.0017e-05,-6.5547e-07,-4.925,2.0637
20635,22.528,4.2727,0,3.0243e-05,302.22,1.0704e-05,0.10249,8.7454e-06,-14.611,-3.0463e-05,-309.21,2.0636
20636,22.62,4.1818,0,2.8602e-05,285.83,1.0045e-05,0.10811,8.4081e-06,-12.193,-2.8788e-05,-291.67,2.0768
20637,22.528,4.1818,0.05,8.1915e-07,8.1859,6.2901e-07,4.7261,1.3308e-12,8.8389e-06,-6.2901e-07,-4.7261,2.0637
20638,22.528,4.4545,0,2.9973e-05,299.52,1.0326e-05,0.11635,9.1591e-06,-8.6529,-3.0108e-05,-303.69,2.0636
20639,22.62,4.3636,0,2.839e-05,283.71,9.7098e-06,0.12843,8.7999e-06,-6.7083,-2.8496e-05,-286.94,2.0768
20640,22.528,4.3636,0.05,7.8149e-07,7.8095,6.0009e-07,4.5088,1.4961e-12,1.0436e-05,-6.0009e-07,-4.5088,2.0636
20641,22.528,4.6364,0,2.9698e-05,296.78,9.9639e-06,0.1792,9.5399e-06,-3.0068,-2.9745e-05,-298.18,2.0636
20642,22.62,4.5455,0,2.8169e-05,281.49,9.3932e-06,0.27783,9.1563e-06,-1.5023,-2.8189e-05,-282.1,2.0768
20643,22.528,4.5455,0.05,7.4172e-07,7.4121,5.6955e-07,4.2794,1.1896e-12,8.6633e-06,-5.6955e-07,-4.2794,2.0636
20644,22.528,4.8182,0,2.942e-05,294,9.9075e-06,2.3526,9.5873e-06,-0.053534,-2.938e-05,-292.84,2.0635
20645,22.62,4.7273,0,2.7936e-05,279.17,9.5251e-06,3.6683,9.0363e-06,-0.0044601,-2.7872e-05,-277.32,2.0767
20646,22.528,4.7273,0.05,7.0113e-07,7.0065,5.3838e-07,4.0452,1.2384e-12,9.4153e-06,-5.3839e-07,-4.0452,2.0635
20647,22.528,5,0,2.9139e-05,291.19,1.0158e-05,6.5329,9.2929e-06,0.029886,-2.9022e-05,-287.85,2.0635
20648,22.62,4.9091,0,2.7691e-05,276.72,9.7813e-06,7.7535,8.7546e-06,0.039352,-2.7551e-05,-272.74,2.0767
20649,22.528,4.9091,0.05,6.6127e-07,6.6082,5.0778e-07,3.8152,1.2947e-12,9.1663e-06,-5.0778e-07,-3.8152,2.0635
20650,22.528,5.1818,0,2.886e-05,288.4,1.0329e-05,9.7105,9.0421e-06,0.039689,-2.8682e-05,-283.4,2.0634
20651,22.62,5.0909,0,2.7434e-05,274.15,9.9545e-06,10.878,8.513e-06,0.047035,-2.7232e-05,-268.53,2.0766
20652,22.528,5.0909,0.05,6.2391e-07,6.2348,4.7909e-07,3.5997,9.5134e-13,6.4427e-06,-4.7909e-07,-3.5997,2.0634
20653,22.528,5.3636,0,2.8594e-05,285.74,1.0406e-05,11.706,8.8533e-06,0.036743,-2.8376e-05,-279.69,2.0633
20654,22.62,5.2727,0,2.7171e-05,271.52,1.0031e-05,12.86,8.3256e-06,0.043391,-2.6929e-05,-264.85,2.0765
20655,22.528,5.2727,0.05,5.909e-07,5.9049,4.5374e-07,3.4092,1.185e-12,7.6594e-06,-4.5374e-07,-3.4092,2.0633
20656,22.528,5.5455,0,2.8363e-05,283.44,1.0398e-05,12.52,8.7342e-06,0.016369,-2.8129e-05,-276.96,2.0633
20657,22.62,5.4545,0,2.6919e-05,269,1.0014e-05,13.654,8.2012e-06,0.034929,-2.666e-05,-261.9,2.0765
20658,22.528,5.4545,0.05,5.632e-07,5.6281,4.3247e-07,3.2494,8.3072e-13,7.3565e-06,-4.3247e-07,-3.2494,2.0633
20659,22.528,5.7273,0,2.8268e-05,282.48,1.0385e-05,12.729,8.6902e-06,-0.0076746,-2.803e-05,-275.91,2.0632
20660,22.62,5.6364,0,2.671e-05,266.92,9.9241e-06,13.38,8.143e-06,-0.0030446,-2.6457e-05,-259.98,2.0764
20661,22.528,5.6364,0.05,5.2903e-07,5.2866,4.0623e-07,3.0522,1.2447e-12,8.2733e-06,-4.0623e-07,-3.0522,2.0632
20662,22.62,5.8182,0,2.6733e-05,267.15,9.9198e-06,13.229,8.1578e-06,-0.010317,-2.6484e-05,-260.3,2.0763
20663,22.528,5.8182,0.05,2.869e-07,2.867,2.203e-07,1.6553,8.5233e-13,7.2082e-06,-2.203e-07,-1.6553,2.0631
20664,22.528,5.9091,0,2.7758e-05,277.39,9.8944e-06,8.8484,8.7215e-06,0.035133,-2.7597e-05,-272.85,2.0631
20665,22.712,0.27273,0,2.5145e-05,251.27,9.4324e-06,13.682,7.6097e-06,-0.012362,-2.4884e-05,-244.16,2.0895
20666,22.804,0.18182,0,2.3538e-05,235.21,8.9179e-06,13.88,7.0683e-06,-0.017527,-2.3271e-05,-227.97,2.1027
20667,22.712,0.18182,0.05,3.324e-07,3.3217,2.5524e-07,1.9178,1.3286e-12,1.2571e-05,-2.5524e-07,-1.9178,2.0895
20668,22.712,0.090909,0,2.4635e-05,246.18,8.8955e-06,9.2383,7.6708e-06,0.036146,-2.4465e-05,-241.42,2.0895
20669,22.712,0.45455,0,2.5253e-05,252.36,9.5281e-06,14.427,7.6103e-06,0.017667,-2.4977e-05,-244.83,2.0896
20670,22.804,0.36364,0,2.3543e-05,235.26,9.0083e-06,14.969,7.0154e-06,-0.0052222,-2.3252e-05,-227.42,2.1028
20671,22.712,0.36364,0.05,5.6072e-07,5.6033,4.3056e-07,3.2351,5.2655e-13,6.2649e-06,-4.3056e-07,-3.2351,2.0896
20672,22.712,0.63636,0,2.5488e-05,254.71,9.6306e-06,14.747,7.6737e-06,0.043466,-2.5205e-05,-246.99,2.0897
20673,22.804,0.54545,0,2.3776e-05,237.6,9.1993e-06,16.384,7.0241e-06,0.040347,-2.3455e-05,-228.97,2.1028
20674,22.712,0.54545,0.05,5.9093e-07,5.9052,4.5376e-07,3.4094,-4.1005e-15,3.6668e-06,-4.5376e-07,-3.4094,2.0896
20675,22.712,0.81818,0,2.574e-05,257.23,9.6508e-06,13.983,7.7967e-06,0.051894,-2.5473e-05,-249.93,2.0898
20676,22.804,0.72727,0,2.4039e-05,240.22,9.3215e-06,16.826,7.0891e-06,0.052392,-2.3707e-05,-231.34,2.1029
20677,22.712,0.72727,0.05,6.1394e-07,6.1351,4.7143e-07,3.5421,6.5403e-13,1.0133e-05,-4.7143e-07,-3.5421,2.0897
20678,22.712,1,0,2.5984e-05,259.66,9.5737e-06,12.071,7.9745e-06,0.054959,-2.5757e-05,-253.39,2.0898
20679,22.804,0.90909,0,2.4289e-05,242.72,9.3451e-06,16.106,7.2096e-06,0.060962,-2.3974e-05,-234.24,2.103
20680,22.712,0.90909,0.05,6.4119e-07,6.4075,4.9235e-07,3.6993,1.0056e-12,1.2116e-05,-4.9235e-07,-3.6993,2.0898
20681,22.712,1.1818,0,2.6207e-05,261.89,9.4015e-06,9.0888,8.1986e-06,0.050252,-2.604e-05,-257.21,2.0899
20682,22.804,1.0909,0,2.4511e-05,244.94,9.2641e-06,14.225,7.3793e-06,0.063293,-2.4238e-05,-237.49,2.103
20683,22.712,1.0909,0.05,6.7203e-07,6.7157,5.1604e-07,3.8773,1.2037e-12,1.2856e-05,-5.1604e-07,-3.8773,2.0898
20684,22.712,1.3636,0,2.6408e-05,263.9,9.1489e-06,5.2278,8.4568e-06,0.027939,-2.6315e-05,-261.23,2.0899
20685,22.804,1.2727,0,2.47e-05,246.83,9.087e-06,11.313,7.5894e-06,0.060869,-2.4487e-05,-240.95,2.1031
20686,22.712,1.2727,0.05,7.0494e-07,7.0445,5.4131e-07,4.0672,1.2234e-12,1.2527e-05,-5.4131e-07,-4.0672,2.0899
20687,22.712,1.5455,0,2.6589e-05,265.7,8.8669e-06,0.96647,8.7063e-06,-0.24036,-2.6576e-05,-265.34,2.09
20688,22.804,1.4545,0,2.4858e-05,248.41,8.8322e-06,7.5911,7.8286e-06,0.050151,-2.472e-05,-244.5,2.1031
20689,22.712,1.4545,0.05,7.3842e-07,7.3791,5.6701e-07,4.2603,1.0368e-12,1.1947e-05,-5.6701e-07,-4.2603,2.0899
20690,22.712,1.7273,0,2.6753e-05,267.35,9.0536e-06,0.14941,8.4602e-06,-4.309,-2.6821e-05,-269.4,2.09
20691,22.804,1.6364,0,2.4992e-05,249.75,8.527e-06,3.3563,8.0809e-06,0.0045962,-2.4933e-05,-248.05,2.1032
20692,22.712,1.6364,0.05,7.7117e-07,7.7064,5.9216e-07,4.4493,1.1798e-12,1.2465e-05,-5.9216e-07,-4.4493,2.09
20693,22.712,1.9091,0,2.6905e-05,268.86,9.3405e-06,0.11499,8.0989e-06,-9.2141,-2.7047e-05,-273.29,2.09
20694,22.804,1.8182,0,2.5108e-05,250.9,8.3782e-06,0.26071,8.1527e-06,-1.4336,-2.5127e-05,-251.48,2.1032
20695,22.712,1.8182,0.05,8.0209e-07,8.0153,6.159e-07,4.6277,1.2003e-12,1.2004e-05,-6.159e-07,-4.6277,2.09
20696,22.712,2.0909,0,2.7044e-05,270.25,9.6131e-06,0.10472,7.7483e-06,-13.907,-2.7251e-05,-276.88,2.0901
20697,22.804,2,0,2.521e-05,251.93,8.6157e-06,0.13092,7.8267e-06,-5.7974,-2.5301e-05,-254.71,2.1032
20698,22.712,2,0.05,8.3027e-07,8.297,6.3755e-07,4.7903,1.3041e-12,1.2348e-05,-6.3755e-07,-4.7903,2.09
20699,22.712,2.2727,0,2.7169e-05,271.5,9.8559e-06,0.10021,7.4326e-06,-18.108,-2.7429e-05,-280.05,2.0901
20700,22.804,2.1818,0,2.5301e-05,252.84,8.8472e-06,0.11225,7.5068e-06,-9.9593,-2.5454e-05,-257.61,2.1033
20701,22.712,2.1818,0.05,8.5498e-07,8.5439,6.5652e-07,4.9328,1.3414e-12,1.319e-05,-6.5652e-07,-4.9328,2.0901
20702,22.712,2.4545,0,2.7275e-05,272.57,1.0057e-05,0.098047,7.17e-06,-21.597,-2.7576e-05,-282.67,2.0901
20703,22.804,2.3636,0,2.5381e-05,253.64,9.0482e-06,0.10542,7.2264e-06,-13.583,-2.5583e-05,-260.1,2.1033
20704,22.712,2.3636,0.05,8.7558e-07,8.7497,6.7233e-07,5.0517,1.3812e-12,1.4051e-05,-6.7234e-07,-5.0517,2.0901
20705,22.712,2.6364,0,2.7358e-05,273.39,1.0208e-05,0.097034,6.9738e-06,-24.206,-2.7687e-05,-284.63,2.0901
20706,22.804,2.5455,0,2.5446e-05,254.28,9.2081e-06,0.1023,7.0026e-06,-16.468,-2.5684e-05,-262.06,2.1033
20707,22.712,2.5455,0.05,8.9154e-07,8.9093,6.8459e-07,5.1438,1.4008e-12,1.4043e-05,-6.8459e-07,-5.1438,2.0901
20708,22.712,2.8182,0,2.741e-05,273.91,1.0302e-05,0.096614,6.8528e-06,-25.817,-2.7755e-05,-285.85,2.0901
20709,22.804,2.7273,0,2.5492e-05,254.75,9.319e-06,0.10084,6.8473e-06,-18.471,-2.5754e-05,-263.42,2.1033
20710,22.712,2.7273,0.05,9.0244e-07,9.0182,6.9296e-07,5.2067,1.3629e-12,1.2823e-05,-6.9296e-07,-5.2067,2.0901
20711,22.712,3,0,2.7427e-05,274.09,1.0333e-05,0.096504,6.8119e-06,-26.361,-2.7778e-05,-286.26,2.0901
20712,22.804,2.9091,0,2.5516e-05,254.99,9.3758e-06,0.10026,6.7679e-06,-19.495,-2.579e-05,-264.12,2.1033
20713,22.712,2.9091,0.05,9.0797e-07,9.0735,6.9721e-07,5.2386,1.4393e-12,1.4203e-05,-6.9721e-07,-5.2386,2.0901
20714,22.712,3.1818,0,2.741e-05,273.91,1.0302e-05,0.096613,6.8528e-06,-25.817,-2.7755e-05,-285.85,2.0901
20715,22.804,3.0909,0,2.5516e-05,254.99,9.3758e-06,0.10026,6.7679e-06,-19.495,-2.579e-05,-264.12,2.1033
20716,22.712,3.0909,0.05,9.0797e-07,9.0735,6.9721e-07,5.2386,1.4613e-12,1.3703e-05,-6.9721e-07,-5.2386,2.0901
20717,22.712,3.3636,0,2.7358e-05,273.39,1.0208e-05,0.097034,6.9738e-06,-24.206,-2.7687e-05,-284.63,2.0901
20718,22.804,3.2727,0,2.5492e-05,254.75,9.319e-06,0.10084,6.8473e-06,-18.471,-2.5754e-05,-263.42,2.1033
20719,22.712,3.2727,0.05,9.0244e-07,9.0182,6.9296e-07,5.2067,1.4934e-12,1.4226e-05,-6.9296e-07,-5.2067,2.0901
20720,22.712,3.5455,0,2.7275e-05,272.57,1.0057e-05,0.098047,7.17e-06,-21.597,-2.7576e-05,-282.67,2.0901
20721,22.804,3.4545,0,2.5446e-05,254.28,9.2081e-06,0.1023,7.0026e-06,-16.468,-2.5684e-05,-262.06,2.1033
20722,22.712,3.4545,0.05,8.9154e-07,8.9093,6.8459e-07,5.1438,1.4251e-12,1.3925e-05,-6.8459e-07,-5.1438,2.0901
20723,22.712,3.7273,0,2.7169e-05,271.5,9.8559e-06,0.10021,7.4326e-06,-18.108,-2.7429e-05,-280.05,2.0901
20724,22.804,3.6364,0,2.5381e-05,253.64,9.0482e-06,0.10542,7.2264e-06,-13.583,-2.5583e-05,-260.1,2.1033
20725,22.712,3.6364,0.05,8.7558e-07,8.7497,6.7233e-07,5.0517,1.541e-12,1.4633e-05,-6.7234e-07,-5.0517,2.0901
20726,22.712,3.9091,0,2.7044e-05,270.25,9.6131e-06,0.10471,7.7483e-06,-13.907,-2.7251e-05,-276.88,2.0901
20727,22.804,3.8182,0,2.5301e-05,252.84,8.8472e-06,0.11225,7.5068e-06,-9.9593,-2.5454e-05,-257.61,2.1033
20728,22.712,3.8182,0.05,8.5498e-07,8.5439,6.5652e-07,4.9328,1.6557e-12,1.5326e-05,-6.5652e-07,-4.9328,2.0901
20729,22.712,4.0909,0,2.6905e-05,268.86,9.3405e-06,0.11499,8.0989e-06,-9.2141,-2.7047e-05,-273.29,2.09
20730,22.804,4,0,2.521e-05,251.93,8.6157e-06,0.13092,7.8267e-06,-5.7974,-2.5301e-05,-254.71,2.1032
20731,22.712,4,0.05,8.3027e-07,8.297,6.3755e-07,4.7903,1.4573e-12,1.4476e-05,-6.3755e-07,-4.7903,2.09
20732,22.712,4.2727,0,2.6753e-05,267.35,9.0535e-06,0.14941,8.4602e-06,-4.309,-2.6821e-05,-269.4,2.09
20733,22.804,4.1818,0,2.5108e-05,250.9,8.3782e-06,0.26071,8.1527e-06,-1.4336,-2.5127e-05,-251.48,2.1032
20734,22.712,4.1818,0.05,8.0209e-07,8.0153,6.159e-07,4.6277,1.3864e-12,1.3452e-05,-6.159e-07,-4.6277,2.09
20735,22.712,4.4545,0,2.6589e-05,265.7,8.8669e-06,0.96647,8.7063e-06,-0.24036,-2.6576e-05,-265.34,2.09
20736,22.804,4.3636,0,2.4992e-05,249.75,8.527e-06,3.3563,8.0809e-06,0.0045957,-2.4933e-05,-248.05,2.1032
20737,22.712,4.3636,0.05,7.7117e-07,7.7064,5.9216e-07,4.4493,1.5336e-12,1.5304e-05,-5.9216e-07,-4.4493,2.09
20738,22.712,4.6364,0,2.6408e-05,263.9,9.1489e-06,5.2278,8.4568e-06,0.02794,-2.6315e-05,-261.23,2.0899
20739,22.804,4.5455,0,2.4858e-05,248.41,8.8322e-06,7.5911,7.8286e-06,0.050151,-2.472e-05,-244.5,2.1031
20740,22.712,4.5455,0.05,7.3842e-07,7.3791,5.6701e-07,4.2603,1.4724e-12,1.295e-05,-5.6702e-07,-4.2603,2.0899
20741,22.712,4.8182,0,2.6207e-05,261.89,9.4015e-06,9.0888,8.1986e-06,0.050251,-2.604e-05,-257.21,2.0899
20742,22.804,4.7273,0,2.47e-05,246.83,9.087e-06,11.313,7.5894e-06,0.060868,-2.4487e-05,-240.95,2.1031
20743,22.712,4.7273,0.05,7.0494e-07,7.0445,5.413e-07,4.0672,1.4978e-12,1.3675e-05,-5.4131e-07,-4.0672,2.0899
20744,22.712,5,0,2.5984e-05,259.66,9.5737e-06,12.071,7.9745e-06,0.054957,-2.5757e-05,-253.39,2.0898
20745,22.804,4.9091,0,2.4511e-05,244.94,9.2641e-06,14.225,7.3793e-06,0.063291,-2.4238e-05,-237.49,2.103
20746,22.712,4.9091,0.05,6.7203e-07,6.7157,5.1604e-07,3.8773,1.3966e-12,1.3358e-05,-5.1604e-07,-3.8773,2.0898
20747,22.712,5.1818,0,2.574e-05,257.23,9.6508e-06,13.983,7.7967e-06,0.051892,-2.5473e-05,-249.93,2.0898
20748,22.804,5.0909,0,2.4289e-05,242.72,9.3451e-06,16.106,7.2096e-06,0.06096,-2.3974e-05,-234.24,2.103
20749,22.712,5.0909,0.05,6.4119e-07,6.4075,4.9235e-07,3.6993,1.0193e-12,1.0605e-05,-4.9235e-07,-3.6993,2.0898
20750,22.712,5.3636,0,2.5488e-05,254.71,9.6306e-06,14.747,7.6737e-06,0.043466,-2.5205e-05,-246.99,2.0897
20751,22.804,5.2727,0,2.4039e-05,240.22,9.3215e-06,16.826,7.0891e-06,0.052391,-2.3707e-05,-231.34,2.1029
20752,22.712,5.2727,0.05,6.1394e-07,6.1351,4.7143e-07,3.5421,1.2077e-12,1.128e-05,-4.7143e-07,-3.5421,2.0897
20753,22.712,5.5455,0,2.5253e-05,252.36,9.5281e-06,14.427,7.6103e-06,0.017671,-2.4977e-05,-244.83,2.0896
20754,22.804,5.4545,0,2.3776e-05,237.6,9.1993e-06,16.384,7.0241e-06,0.040347,-2.3455e-05,-228.97,2.1028
20755,22.712,5.4545,0.05,5.9093e-07,5.9052,4.5376e-07,3.4094,1.1428e-12,1.0059e-05,-4.5376e-07,-3.4094,2.0896
20756,22.712,5.7273,0,2.5145e-05,251.27,9.4324e-06,13.682,7.6097e-06,-0.012359,-2.4884e-05,-244.16,2.0895
20757,22.804,5.6364,0,2.3543e-05,235.26,9.0083e-06,14.969,7.0154e-06,-0.0052204,-2.3252e-05,-227.42,2.1028
20758,22.712,5.6364,0.05,5.6072e-07,5.6033,4.3056e-07,3.2351,1.0612e-12,1.0394e-05,-4.3056e-07,-3.2351,2.0896
20759,22.804,5.8182,0,2.3538e-05,235.21,8.9179e-06,13.88,7.0683e-06,-0.017527,-2.3271e-05,-227.97,2.1027
20760,22.712,5.8182,0.05,3.324e-07,3.3217,2.5524e-07,1.9178,7.1003e-13,7.4502e-06,-2.5524e-07,-1.9178,2.0895
20761,22.712,5.9091,0,2.4635e-05,246.18,8.8955e-06,9.2383,7.6708e-06,0.036145,-2.4465e-05,-241.42,2.0895
20762,22.896,0.27273,0,2.1901e-05,218.85,8.4639e-06,14.942,6.4729e-06,-0.017603,-2.1608e-05,-211.01,2.1159
20763,22.988,0.18182,0,2.0226e-05,202.12,7.893e-06,14.726,5.9294e-06,-0.02757,-1.9935e-05,-194.37,2.1291
20764,22.896,0.18182,0.05,3.731e-07,3.7284,2.8649e-07,2.1526,5.3955e-13,8.6778e-06,-2.8649e-07,-2.1526,2.1159
20765,22.896,0.090909,0,2.137e-05,213.55,7.8589e-06,9.7452,6.5673e-06,0.040522,-2.1187e-05,-208.49,2.1158
20766,22.896,0.45455,0,2.2052e-05,220.37,8.6664e-06,16.828,6.4295e-06,0.02033,-2.1718e-05,-211.47,2.116
20767,22.988,0.36364,0,2.0291e-05,202.77,8.0993e-06,17.002,5.8355e-06,-0.0072593,-1.9948e-05,-193.74,2.1292
20768,22.896,0.36364,0.05,5.8634e-07,5.8594,4.5024e-07,3.3829,1.0881e-12,1.2514e-05,-4.5024e-07,-3.3829,2.116
20769,22.896,0.63636,0,2.2319e-05,223.04,8.8813e-06,18.396,6.4398e-06,0.051641,-2.1949e-05,-213.25,2.1161
20770,22.988,0.54545,0,2.058e-05,205.66,8.4145e-06,19.732,5.7947e-06,0.047656,-2.0173e-05,-195.06,2.1292
20771,22.896,0.54545,0.05,6.1361e-07,6.1319,4.7118e-07,3.5403,1.3022e-12,1.4705e-05,-4.7118e-07,-3.5403,2.116
20772,22.896,0.81818,0,2.2584e-05,225.69,9.0096e-06,18.903,6.5023e-06,0.063189,-2.2203e-05,-215.61,2.1161
20773,22.988,0.72727,0,2.0878e-05,208.64,8.6549e-06,21.487,5.8034e-06,0.062554,-2.0429e-05,-197.04,2.1293
20774,22.896,0.72727,0.05,6.3332e-07,6.3289,4.8631e-07,3.654,1.4741e-12,1.6308e-05,-4.8631e-07,-3.654,2.1161
20775,22.896,1,0,2.2817e-05,228.01,9.0313e-06,18.229,6.6145e-06,0.070225,-2.2451e-05,-218.32,2.1162
20776,22.988,0.90909,0,2.1139e-05,211.25,8.784e-06,22.02,5.8631e-06,0.07392,-2.0678e-05,-199.34,2.1294
20777,22.896,0.90909,0.05,6.563e-07,6.5584,5.0395e-07,3.7865,1.5906e-12,1.7409e-05,-5.0395e-07,-3.7865,2.1162
20778,22.896,1.1818,0,2.3007e-05,229.91,8.9471e-06,16.431,6.7699e-06,0.072793,-2.2682e-05,-221.22,2.1163
20779,22.988,1.0909,0,2.1347e-05,213.32,8.7952e-06,21.314,5.9691e-06,0.079306,-2.0903e-05,-201.83,2.1294
20780,22.896,1.0909,0.05,6.8207e-07,6.816,5.2374e-07,3.9352,1.2713e-12,1.5894e-05,-5.2374e-07,-3.9352,2.1162
20781,22.896,1.3636,0,2.3154e-05,231.38,8.7701e-06,13.675,6.9597e-06,0.072215,-2.289e-05,-224.21,2.1163
20782,22.988,1.2727,0,2.1499e-05,214.84,8.6981e-06,19.497,6.1141e-06,0.081949,-2.11e-05,-204.4,2.1295
20783,22.896,1.2727,0.05,7.0938e-07,7.0889,5.4472e-07,4.0928,1.1923e-12,1.4561e-05,-5.4472e-07,-4.0928,2.1163
20784,22.896,1.5455,0,2.3267e-05,232.51,8.5216e-06,10.201,7.173e-06,0.067865,-2.3076e-05,-227.21,2.1163
20785,22.988,1.4545,0,2.1604e-05,215.89,8.5119e-06,16.786,6.2889e-06,0.082475,-2.1269e-05,-206.98,2.1295
20786,22.896,1.4545,0.05,7.3702e-07,7.3651,5.6594e-07,4.2522,1.2044e-12,1.3799e-05,-5.6594e-07,-4.2522,2.1163
20787,22.896,1.7273,0,2.3353e-05,233.37,8.227e-06,6.2882,7.3975e-06,0.055383,-2.3239e-05,-230.13,2.1164
20788,22.988,1.6364,0,2.1673e-05,216.58,8.2612e-06,13.445,6.4826e-06,0.081349,-2.1412e-05,-209.51,2.1296
20789,22.896,1.6364,0.05,7.6391e-07,7.6339,5.8659e-07,4.4074,1.214e-12,1.4131e-05,-5.8659e-07,-4.4074,2.1164
20790,22.896,1.9091,0,2.342e-05,234.04,7.9177e-06,2.2632,7.6158e-06,-0.0053301,-2.3381e-05,-232.9,2.1164
20791,22.988,1.8182,0,2.1716e-05,217.01,7.9725e-06,9.7604,6.6839e-06,0.078183,-2.1532e-05,-211.93,2.1296
20792,22.896,1.8182,0.05,7.8918e-07,7.8864,6.06e-07,4.5532,1.1115e-12,1.3448e-05,-6.06e-07,-4.5532,2.1164
20793,22.896,2.0909,0,2.3475e-05,234.59,7.8567e-06,0.19018,7.5782e-06,-1.9026,-2.3504e-05,-235.44,2.1164
20794,22.988,2,0,2.1743e-05,217.28,7.6721e-06,6.0142,6.881e-06,0.070526,-2.1633e-05,-214.17,2.1296
20795,22.896,2,0.05,8.121e-07,8.1154,6.236e-07,4.6855,1.4497e-12,1.4431e-05,-6.236e-07,-4.6855,2.1164
20796,22.896,2.2727,0,2.3521e-05,235.05,8.0405e-06,0.12482,7.2995e-06,-5.4422,-2.3607e-05,-237.66,2.1165
20797,22.988,2.1818,0,2.1761e-05,217.46,7.3864e-06,2.4857,7.0611e-06,0.041392,-2.1717e-05,-216.18,2.1296
20798,22.896,2.1818,0.05,8.3209e-07,8.3152,6.3894e-07,4.8008,1.3324e-12,1.5252e-05,-6.3894e-07,-4.8008,2.1164
20799,22.896,2.4545,0,2.356e-05,235.44,8.1991e-06,0.11194,7.0587e-06,-8.4568,-2.369e-05,-239.49,2.1165
20800,22.988,2.3636,0,2.1774e-05,217.59,7.2445e-06,0.21852,7.1058e-06,-0.82323,-2.1784e-05,-217.89,2.1297
20801,22.896,2.3636,0.05,8.4867e-07,8.4808,6.5167e-07,4.8964,1.3785e-12,1.5623e-05,-6.5167e-07,-4.8964,2.1165
20802,22.896,2.6364,0,2.3589e-05,235.73,8.3189e-06,0.10708,6.876e-06,-10.734,-2.3751e-05,-240.85,2.1165
20803,22.988,2.5455,0,2.1785e-05,217.7,7.3597e-06,0.12551,6.9108e-06,-3.2468,-2.1836e-05,-219.24,2.1297
20804,22.896,2.5455,0.05,8.6145e-07,8.6085,6.6149e-07,4.9702,1.4699e-12,1.5985e-05,-6.6149e-07,-4.9701,2.1165
20805,22.896,2.8182,0,2.3608e-05,235.91,8.3933e-06,0.10502,6.7623e-06,-12.149,-2.3789e-05,-241.7,2.1165
20806,22.988,2.7273,0,2.1792e-05,217.77,7.4468e-06,0.11356,6.7672e-06,-4.9926,-2.1871e-05,-220.17,2.1297
20807,22.896,2.7273,0.05,8.7015e-07,8.6954,6.6816e-07,5.0203,1.4495e-12,1.4766e-05,-6.6816e-07,-5.0203,2.1165
20808,22.896,3,0,2.3614e-05,235.98,8.4185e-06,0.10445,6.7237e-06,-12.629,-2.3801e-05,-241.98,2.1165
20809,22.988,2.9091,0,2.1797e-05,217.81,7.4919e-06,0.11017,6.693e-06,-5.8921,-2.1889e-05,-220.64,2.1297
20810,22.896,2.9091,0.05,8.7455e-07,8.7394,6.7154e-07,5.0457,1.4304e-12,1.5924e-05,-6.7154e-07,-5.0457,2.1165
20811,22.896,3.1818,0,2.3608e-05,235.91,8.3933e-06,0.10502,6.7623e-06,-12.149,-2.3789e-05,-241.7,2.1165
20812,22.988,3.0909,0,2.1797e-05,217.81,7.4919e-06,0.11017,6.693e-06,-5.8921,-2.1889e-05,-220.64,2.1297
20813,22.896,3.0909,0.05,8.7455e-07,8.7394,6.7154e-07,5.0457,1.4699e-12,1.5438e-05,-6.7154e-07,-5.0457,2.1165
20814,22.896,3.3636,0,2.3589e-05,235.73,8.3189e-06,0.10707,6.876e-06,-10.734,-2.3751e-05,-240.85,2.1165
20815,22.988,3.2727,0,2.1792e-05,217.77,7.4468e-06,0.11356,6.7672e-06,-4.9926,-2.1871e-05,-220.17,2.1297
20816,22.896,3.2727,0.05,8.7015e-07,8.6954,6.6816e-07,5.0203,1.517e-12,1.6083e-05,-6.6816e-07,-5.0203,2.1165
20817,22.896,3.5455,0,2.356e-05,235.44,8.1991e-06,0.11194,7.0587e-06,-8.4568,-2.369e-05,-239.49,2.1165
20818,22.988,3.4545,0,2.1785e-05,217.7,7.3597e-06,0.12551,6.9108e-06,-3.2468,-2.1836e-05,-219.24,2.1297
20819,22.896,3.4545,0.05,8.6145e-07,8.6085,6.6149e-07,4.9701,1.5195e-12,1.6274e-05,-6.6149e-07,-4.9701,2.1165
20820,22.896,3.7273,0,2.3521e-05,235.05,8.0405e-06,0.12482,7.2995e-06,-5.4422,-2.3607e-05,-237.66,2.1165
20821,22.988,3.6364,0,2.1774e-05,217.59,7.2445e-06,0.21852,7.1058e-06,-0.82323,-2.1784e-05,-217.89,2.1297
20822,22.896,3.6364,0.05,8.4867e-07,8.4808,6.5167e-07,4.8964,1.6454e-12,1.7193e-05,-6.5167e-07,-4.8964,2.1165
20823,22.896,3.9091,0,2.3475e-05,234.59,7.8567e-06,0.19018,7.5782e-06,-1.9026,-2.3504e-05,-235.44,2.1164
20824,22.988,3.8182,0,2.1761e-05,217.46,7.3864e-06,2.4857,7.0611e-06,0.041392,-2.1717e-05,-216.18,2.1296
20825,22.896,3.8182,0.05,8.3209e-07,8.3152,6.3894e-07,4.8008,1.7667e-12,1.7991e-05,-6.3894e-07,-4.8008,2.1164
20826,22.896,4.0909,0,2.342e-05,234.04,7.9177e-06,2.2632,7.6158e-06,-0.0053303,-2.3381e-05,-232.9,2.1164
20827,22.988,4,0,2.1743e-05,217.28,7.6721e-06,6.0142,6.881e-06,0.070526,-2.1633e-05,-214.17,2.1296
20828,22.896,4,0.05,8.1211e-07,8.1154,6.236e-07,4.6855,1.6276e-12,1.7105e-05,-6.236e-07,-4.6855,2.1164
20829,22.896,4.2727,0,2.3353e-05,233.37,8.227e-06,6.2882,7.3975e-06,0.055382,-2.3238e-05,-230.13,2.1164
20830,22.988,4.1818,0,2.1716e-05,217.01,7.9725e-06,9.7604,6.6839e-06,0.078182,-2.1532e-05,-211.93,2.1296
20831,22.896,4.1818,0.05,7.8918e-07,7.8864,6.06e-07,4.5532,1.4303e-12,1.5724e-05,-6.06e-07,-4.5532,2.1164
20832,22.896,4.4545,0,2.3267e-05,232.51,8.5216e-06,10.201,7.173e-06,0.067864,-2.3076e-05,-227.21,2.1163
20833,22.988,4.3636,0,2.1673e-05,216.58,8.2612e-06,13.445,6.4826e-06,0.08135,-2.1412e-05,-209.51,2.1296
20834,22.896,4.3636,0.05,7.6392e-07,7.6339,5.8659e-07,4.4074,1.5796e-12,1.7784e-05,-5.8659e-07,-4.4074,2.1164
20835,22.896,4.6364,0,2.3154e-05,231.38,8.7701e-06,13.675,6.9597e-06,0.072213,-2.289e-05,-224.21,2.1163
20836,22.988,4.5455,0,2.1604e-05,215.89,8.5119e-06,16.786,6.2889e-06,0.082473,-2.1269e-05,-206.98,2.1295
20837,22.896,4.5455,0.05,7.3702e-07,7.3651,5.6594e-07,4.2522,1.3769e-12,1.5082e-05,-5.6594e-07,-4.2522,2.1163
20838,22.896,4.8182,0,2.3007e-05,229.91,8.9471e-06,16.431,6.7699e-06,0.072791,-2.2682e-05,-221.22,2.1163
20839,22.988,4.7273,0,2.1499e-05,214.84,8.6981e-06,19.497,6.1141e-06,0.081948,-2.11e-05,-204.4,2.1295
20840,22.896,4.7273,0.05,7.0938e-07,7.0889,5.4472e-07,4.0928,1.3818e-12,1.6028e-05,-5.4472e-07,-4.0928,2.1163
20841,22.896,5,0,2.2817e-05,228.01,9.0313e-06,18.229,6.6145e-06,0.070223,-2.2451e-05,-218.32,2.1162
20842,22.988,4.9091,0,2.1347e-05,213.32,8.7952e-06,21.314,5.9691e-06,0.079305,-2.0903e-05,-201.83,2.1294
20843,22.896,4.9091,0.05,6.8207e-07,6.816,5.2374e-07,3.9352,1.3659e-12,1.5071e-05,-5.2374e-07,-3.9352,2.1162
20844,22.896,5.1818,0,2.2584e-05,225.69,9.0096e-06,18.903,6.5023e-06,0.063189,-2.2203e-05,-215.61,2.1161
20845,22.988,5.0909,0,2.1139e-05,211.25,8.784e-06,22.02,5.8631e-06,0.073919,-2.0678e-05,-199.34,2.1294
20846,22.896,5.0909,0.05,6.563e-07,6.5584,5.0395e-07,3.7865,9.7922e-13,1.2459e-05,-5.0395e-07,-3.7865,2.1162
20847,22.896,5.3636,0,2.2319e-05,223.04,8.8813e-06,18.396,6.4398e-06,0.05164,-2.1949e-05,-213.25,2.1161
20848,22.988,5.2727,0,2.0878e-05,208.64,8.6549e-06,21.488,5.8034e-06,0.062553,-2.0429e-05,-197.04,2.1293
20849,22.896,5.2727,0.05,6.3332e-07,6.3289,4.8631e-07,3.654,9.2236e-13,1.2141e-05,-4.8631e-07,-3.654,2.1161
20850,22.896,5.5455,0,2.2052e-05,220.37,8.6664e-06,16.828,6.4295e-06,0.020329,-2.1718e-05,-211.47,2.116
20851,22.988,5.4545,0,2.058e-05,205.66,8.4145e-06,19.732,5.7947e-06,0.047657,-2.0173e-05,-195.06,2.1292
20852,22.896,5.4545,0.05,6.1361e-07,6.1319,4.7118e-07,3.5403,8.4277e-13,1.0839e-05,-4.7118e-07,-3.5402,2.116
20853,22.896,5.7273,0,2.1901e-05,218.85,8.4639e-06,14.942,6.4729e-06,-0.017603,-2.1608e-05,-211.01,2.1159
20854,22.988,5.6364,0,2.0291e-05,202.77,8.0993e-06,17.002,5.8355e-06,-0.0072589,-1.9948e-05,-193.74,2.1292
20855,22.896,5.6364,0.05,5.8634e-07,5.8594,4.5024e-07,3.3829,6.5971e-13,1.0518e-05,-4.5024e-07,-3.3829,2.116
20856,22.988,5.8182,0,2.0226e-05,202.12,7.893e-06,14.726,5.9294e-06,-0.027571,-1.9935e-05,-194.37,2.1291
20857,22.896,5.8182,0.05,3.731e-07,3.7284,2.8649e-07,2.1526,4.4367e-13,6.5623e-06,-2.8649e-07,-2.1526,2.1159
20858,22.896,5.9091,0,2.137e-05,213.55,7.8589e-06,9.7452,6.5673e-06,0.040522,-2.1187e-05,-208.49,2.1158
20859,23.08,0.27273,0,1.8576e-05,185.63,7.4939e-06,16.527,5.2911e-06,-0.02445,-1.824e-05,-176.83,2.1423
20860,23.172,0.18182,0,1.6834e-05,168.22,6.8554e-06,15.759,4.7529e-06,-0.038378,-1.651e-05,-159.8,2.1555
20861,23.08,0.18182,0.05,4.1123e-07,4.1094,3.1577e-07,2.3726,6.0585e-13,7.2358e-06,-3.1577e-07,-2.3726,2.1423
20862,23.08,0.090909,0,1.8002e-05,179.89,6.7963e-06,10.358,5.4243e-06,0.048267,-1.7803e-05,-174.47,2.1423
20863,23.08,0.45455,0,1.8805e-05,187.92,7.8327e-06,19.796,5.2012e-06,0.02419,-1.8389e-05,-177.23,2.1424
20864,23.172,0.36364,0,1.7e-05,169.88,7.2171e-06,19.565,4.6125e-06,-0.0040763,-1.6582e-05,-159.25,2.1556
20865,23.08,0.36364,0.05,6.0745e-07,6.0703,4.6645e-07,3.5047,1.0213e-12,1.1179e-05,-4.6645e-07,-3.5047,2.1424
20866,23.08,0.63636,0,1.9133e-05,191.2,8.1788e-06,22.753,5.1587e-06,0.061756,-1.8644e-05,-178.78,2.1425
20867,23.172,0.54545,0,1.7379e-05,173.67,7.6826e-06,23.827,4.5198e-06,0.063244,-1.6851e-05,-160.51,2.1556
20868,23.08,0.54545,0.05,6.3269e-07,6.3225,4.8583e-07,3.6503,1.6158e-12,1.6906e-05,-4.8583e-07,-3.6503,2.1424
20869,23.08,0.81818,0,1.9434e-05,194.2,8.4232e-06,24.56,5.1646e-06,0.075729,-1.8898e-05,-180.72,2.1425
20870,23.172,0.72727,0,1.7738e-05,177.26,8.0523e-06,26.969,4.4736e-06,0.080842,-1.7124e-05,-162.2,2.1557
20871,23.08,0.72727,0.05,6.5029e-07,6.4984,4.9934e-07,3.7519,1.8388e-12,1.8496e-05,-4.9934e-07,-3.7519,2.1425
20872,23.08,1,0,1.9674e-05,196.6,8.544e-06,25.075,5.2179e-06,0.084934,-1.9126e-05,-182.83,2.1426
20873,23.172,0.90909,0,1.8027e-05,180.14,8.2872e-06,28.719,4.4775e-06,0.094452,-1.7365e-05,-164.02,2.1558
20874,23.08,0.90909,0.05,6.7014e-07,6.6968,5.1459e-07,3.8664,1.7021e-12,1.7859e-05,-5.1459e-07,-3.8664,2.1426
20875,23.08,1.1818,0,1.9847e-05,198.33,8.5437e-06,24.361,5.3134e-06,0.089831,-1.9319e-05,-184.99,2.1426
20876,23.172,1.0909,0,1.8233e-05,182.21,8.385e-06,29.086,4.5274e-06,0.10149,-1.7563e-05,-165.88,2.1558
20877,23.08,1.0909,0.05,6.9194e-07,6.9146,5.3132e-07,3.9921,1.4675e-12,1.5893e-05,-5.3132e-07,-3.9921,2.1426
20878,23.08,1.3636,0,1.9959e-05,199.45,8.4383e-06,22.596,5.4433e-06,0.092598,-1.9477e-05,-187.15,2.1427
20879,23.172,1.2727,0,1.8363e-05,183.51,8.3599e-06,28.23,4.6168e-06,0.10595,-1.7719e-05,-167.72,2.1559
20880,23.08,1.2727,0.05,7.1467e-07,7.1417,5.4878e-07,4.1233,1.1432e-12,1.2667e-05,-5.4878e-07,-4.1233,2.1427
20881,23.08,1.5455,0,2.0021e-05,200.07,8.2509e-06,20.025,5.5982e-06,0.094042,-1.9604e-05,-189.27,2.1427
20882,23.172,1.4545,0,1.843e-05,184.17,8.2349e-06,26.39,4.7371e-06,0.10872,-1.7838e-05,-169.51,2.1559
20883,23.08,1.4545,0.05,7.374e-07,7.3689,5.6623e-07,4.2544,1.1553e-12,1.1115e-05,-5.6623e-07,-4.2544,2.1427
20884,23.08,1.7273,0,2.0047e-05,200.34,8.0075e-06,16.923,5.7677e-06,0.094799,-1.9705e-05,-191.3,2.1428
20885,23.172,1.6364,0,1.8448e-05,184.36,8.0364e-06,23.838,4.8785e-06,0.1107,-1.7926e-05,-171.23,2.156
20886,23.08,1.6364,0.05,7.5932e-07,7.588,5.8307e-07,4.3809,1.0544e-12,1.2136e-05,-5.8307e-07,-4.3809,2.1427
20887,23.08,1.9091,0,2.005e-05,200.37,7.7344e-06,13.568,5.9413e-06,0.095264,-1.9784e-05,-193.19,2.1428
20888,23.172,1.8182,0,1.8435e-05,184.22,7.7917e-06,20.858,5.0307e-06,0.11242,-1.799e-05,-172.86,2.156
20889,23.08,1.8182,0.05,7.7977e-07,7.7923,5.9877e-07,4.4989,1.0623e-12,1.1381e-05,-5.9877e-07,-4.4989,2.1428
20890,23.08,2.0909,0,2.0041e-05,200.27,7.457e-06,10.228,6.1085e-06,0.095728,-1.9846e-05,-194.92,2.1428
20891,23.172,2,0,1.8403e-05,183.9,7.5273e-06,17.724,5.1837e-06,0.11428,-1.8036e-05,-174.35,2.156
20892,23.08,2,0.05,7.9819e-07,7.9764,6.1291e-07,4.6052,1.2911e-12,1.2699e-05,-6.1291e-07,-4.6052,2.1428
20893,23.08,2.2727,0,2.0027e-05,200.13,7.1978e-06,7.1434,6.2599e-06,0.096468,-1.9894e-05,-196.42,2.1429
20894,23.172,2.1818,0,1.8364e-05,183.51,7.2675e-06,14.69,5.3278e-06,0.11659,-1.8069e-05,-175.68,2.156
20895,23.08,2.1818,0.05,8.1415e-07,8.1359,6.2516e-07,4.6972,1.3483e-12,1.366e-05,-6.2517e-07,-4.6972,2.1428
20896,23.08,2.4545,0,2.0013e-05,199.99,6.9759e-06,4.5216,6.3872e-06,0.097904,-1.993e-05,-197.64,2.1429
20897,23.172,2.3636,0,1.8326e-05,183.13,7.0333e-06,11.981,5.4546e-06,0.11955,-1.8091e-05,-176.79,2.1561
20898,23.08,2.3636,0.05,8.2731e-07,8.2674,6.3527e-07,4.7732,1.3459e-12,1.3974e-05,-6.3527e-07,-4.7732,2.1428
20899,23.08,2.6364,0,2.0002e-05,199.88,6.8063e-06,2.5266,6.4835e-06,0.10104,-1.9956e-05,-198.55,2.1429
20900,23.172,2.5455,0,1.8294e-05,182.82,6.842e-06,9.7816,5.5566e-06,0.12314,-1.8107e-05,-177.67,2.1561
20901,23.08,2.5455,0.05,8.3741e-07,8.3684,6.4303e-07,4.8315,1.5041e-12,1.4494e-05,-6.4303e-07,-4.8315,2.1429
20902,23.08,2.8182,0,1.9995e-05,199.81,6.6995e-06,1.276,6.5441e-06,0.10834,-1.9971e-05,-199.12,2.1429
20903,23.172,2.7273,0,1.8272e-05,182.59,6.707e-06,8.2339,5.628e-06,0.12682,-1.8116e-05,-178.28,2.1561
20904,23.08,2.7273,0.05,8.4426e-07,8.4368,6.4829e-07,4.871,1.4372e-12,1.3707e-05,-6.4829e-07,-4.871,2.1429
20905,23.08,3,0,1.9993e-05,199.79,6.6624e-06,0.8454,6.5654e-06,0.11643,-1.9976e-05,-199.31,2.1429
20906,23.172,2.9091,0,1.826e-05,182.48,6.6372e-06,7.4353,5.6648e-06,0.12931,-1.8121e-05,-178.59,2.1561
20907,23.08,2.9091,0.05,8.4772e-07,8.4713,6.5094e-07,4.8909,1.4831e-12,1.4508e-05,-6.5094e-07,-4.8909,2.1429
20908,23.08,3.1818,0,1.9995e-05,199.81,6.6995e-06,1.276,6.5441e-06,0.10834,-1.9971e-05,-199.12,2.1429
20909,23.172,3.0909,0,1.826e-05,182.48,6.6372e-06,7.4353,5.6648e-06,0.12931,-1.8121e-05,-178.59,2.1561
20910,23.08,3.0909,0.05,8.4772e-07,8.4713,6.5094e-07,4.8909,1.4734e-12,1.4093e-05,-6.5094e-07,-4.8909,2.1429
20911,23.08,3.3636,0,2.0002e-05,199.88,6.8063e-06,2.5266,6.4835e-06,0.10104,-1.9956e-05,-198.55,2.1429
20912,23.172,3.2727,0,1.8272e-05,182.59,6.707e-06,8.2339,5.628e-06,0.12682,-1.8116e-05,-178.28,2.1561
20913,23.08,3.2727,0.05,8.4426e-07,8.4368,6.4829e-07,4.871,1.5261e-12,1.4914e-05,-6.4829e-07,-4.871,2.1429
20914,23.08,3.5455,0,2.0013e-05,199.99,6.9759e-06,4.5216,6.3872e-06,0.097905,-1.993e-05,-197.64,2.1429
20915,23.172,3.4545,0,1.8294e-05,182.82,6.842e-06,9.7816,5.5566e-06,0.12314,-1.8107e-05,-177.67,2.1561
20916,23.08,3.4545,0.05,8.3741e-07,8.3684,6.4303e-07,4.8315,1.5295e-12,1.4822e-05,-6.4303e-07,-4.8315,2.1429
20917,23.08,3.7273,0,2.0027e-05,200.13,7.1978e-06,7.1434,6.2599e-06,0.096469,-1.9894e-05,-196.42,2.1429
20918,23.172,3.6364,0,1.8326e-05,183.13,7.0333e-06,11.981,5.4546e-06,0.11955,-1.8091e-05,-176.79,2.1561
20919,23.08,3.6364,0.05,8.2731e-07,8.2674,6.3527e-07,4.7732,1.5956e-12,1.6097e-05,-6.3527e-07,-4.7732,2.1428
20920,23.08,3.9091,0,2.0041e-05,200.27,7.457e-06,10.228,6.1085e-06,0.095727,-1.9846e-05,-194.92,2.1428
20921,23.172,3.8182,0,1.8364e-05,183.51,7.2675e-06,14.69,5.3278e-06,0.11659,-1.8069e-05,-175.68,2.156
20922,23.08,3.8182,0.05,8.1415e-07,8.1359,6.2516e-07,4.6972,1.6634e-12,1.666e-05,-6.2517e-07,-4.6972,2.1428
20923,23.08,4.0909,0,2.005e-05,200.37,7.7344e-06,13.568,5.9413e-06,0.095263,-1.9784e-05,-193.19,2.1428
20924,23.172,4,0,1.8403e-05,183.9,7.5273e-06,17.724,5.1837e-06,0.11428,-1.8036e-05,-174.35,2.156
20925,23.08,4,0.05,7.9819e-07,7.9764,6.1291e-07,4.6052,1.5722e-12,1.5417e-05,-6.1291e-07,-4.6052,2.1428
20926,23.08,4.2727,0,2.0047e-05,200.34,8.0075e-06,16.923,5.7677e-06,0.0948,-1.9705e-05,-191.3,2.1428
20927,23.172,4.1818,0,1.8435e-05,184.22,7.7917e-06,20.858,5.0307e-06,0.11242,-1.799e-05,-172.86,2.156
20928,23.08,4.1818,0.05,7.7977e-07,7.7923,5.9876e-07,4.4989,1.4199e-12,1.4257e-05,-5.9877e-07,-4.4989,2.1428
20929,23.08,4.4545,0,2.0021e-05,200.07,8.2509e-06,20.025,5.5982e-06,0.094041,-1.9604e-05,-189.27,2.1427
20930,23.172,4.3636,0,1.8448e-05,184.36,8.0364e-06,23.838,4.8785e-06,0.1107,-1.7926e-05,-171.23,2.156
20931,23.08,4.3636,0.05,7.5932e-07,7.588,5.8307e-07,4.3809,1.7802e-12,1.5834e-05,-5.8307e-07,-4.3809,2.1427
20932,23.08,4.6364,0,1.9959e-05,199.45,8.4383e-06,22.596,5.4433e-06,0.092597,-1.9477e-05,-187.15,2.1427
20933,23.172,4.5455,0,1.843e-05,184.17,8.2349e-06,26.39,4.7371e-06,0.10871,-1.7838e-05,-169.51,2.1559
20934,23.08,4.5455,0.05,7.374e-07,7.3689,5.6623e-07,4.2544,1.3397e-12,1.3282e-05,-5.6623e-07,-4.2544,2.1427
20935,23.08,4.8182,0,1.9847e-05,198.33,8.5437e-06,24.361,5.3134e-06,0.089831,-1.9319e-05,-184.99,2.1426
20936,23.172,4.7273,0,1.8363e-05,183.51,8.3599e-06,28.23,4.6168e-06,0.10595,-1.7719e-05,-167.72,2.1559
20937,23.08,4.7273,0.05,7.1467e-07,7.1417,5.4878e-07,4.1233,1.3353e-12,1.3739e-05,-5.4878e-07,-4.1233,2.1427
20938,23.08,5,0,1.9674e-05,196.6,8.544e-06,25.075,5.2179e-06,0.084934,-1.9126e-05,-182.83,2.1426
20939,23.172,4.9091,0,1.8233e-05,182.21,8.385e-06,29.086,4.5274e-06,0.10149,-1.7563e-05,-165.88,2.1558
20940,23.08,4.9091,0.05,6.9194e-07,6.9146,5.3132e-07,3.9921,1.3113e-12,1.3087e-05,-5.3132e-07,-3.9921,2.1426
20941,23.08,5.1818,0,1.9434e-05,194.2,8.4232e-06,24.56,5.1646e-06,0.075727,-1.8898e-05,-180.72,2.1425
20942,23.172,5.0909,0,1.8027e-05,180.14,8.2872e-06,28.719,4.4775e-06,0.094451,-1.7365e-05,-164.02,2.1558
20943,23.08,5.0909,0.05,6.7014e-07,6.6968,5.1459e-07,3.8664,1.0367e-12,9.8737e-06,-5.1459e-07,-3.8664,2.1426
20944,23.08,5.3636,0,1.9133e-05,191.2,8.1788e-06,22.753,5.1587e-06,0.061757,-1.8644e-05,-178.78,2.1425
20945,23.172,5.2727,0,1.7738e-05,177.26,8.0523e-06,26.97,4.4736e-06,0.080839,-1.7124e-05,-162.2,2.1557
20946,23.08,5.2727,0.05,6.5029e-07,6.4984,4.9934e-07,3.7519,8.5903e-13,1.0099e-05,-4.9934e-07,-3.7519,2.1425
20947,23.08,5.5455,0,1.8805e-05,187.92,7.8327e-06,19.796,5.2012e-06,0.024193,-1.8389e-05,-177.23,2.1424
20948,23.172,5.4545,0,1.7379e-05,173.67,7.6826e-06,23.827,4.5198e-06,0.063249,-1.6851e-05,-160.51,2.1556
20949,23.08,5.4545,0.05,6.3269e-07,6.3225,4.8583e-07,3.6503,7.8139e-13,8.561e-06,-4.8583e-07,-3.6503,2.1424
20950,23.08,5.7273,0,1.8576e-05,185.63,7.4939e-06,16.527,5.2911e-06,-0.024451,-1.824e-05,-176.83,2.1423
20951,23.172,5.6364,0,1.7e-05,169.88,7.2171e-06,19.565,4.6125e-06,-0.0040768,-1.6582e-05,-159.25,2.1556
20952,23.08,5.6364,0.05,6.0745e-07,6.0703,4.6645e-07,3.5047,6.5845e-13,8.6627e-06,-4.6645e-07,-3.5047,2.1424
20953,23.172,5.8182,0,1.6834e-05,168.22,6.8554e-06,15.759,4.7528e-06,-0.038381,-1.651e-05,-159.8,2.1555
20954,23.08,5.8182,0.05,4.1123e-07,4.1094,3.1577e-07,2.3726,3.7111e-13,4.7714e-06,-3.1577e-07,-2.3726,2.1423
20955,23.08,5.9091,0,1.8002e-05,179.89,6.7963e-06,10.358,5.4243e-06,0.048268,-1.7803e-05,-174.47,2.1423
20956,23.264,0.27273,0,1.5211e-05,152.01,6.5383e-06,18.495,4.0735e-06,-0.02385,-1.4812e-05,-141.92,2.1687
20957,23.356,0.18182,0,1.3396e-05,133.87,5.8168e-06,16.996,3.5469e-06,-0.059665,-1.3026e-05,-124.58,2.1819
20958,23.264,0.18182,0.05,4.491e-07,4.4879,3.4485e-07,2.5911,8.0736e-13,7.1914e-06,-3.4485e-07,-2.5911,2.1687
20959,23.264,0.090909,0,1.4567e-05,145.57,5.7184e-06,11.07,4.2542e-06,0.068932,-1.4346e-05,-139.69,2.1687
20960,23.264,0.45455,0,1.5562e-05,155.51,7.0509e-06,23.475,3.932e-06,0.041233,-1.5028e-05,-142.42,2.1688
20961,23.356,0.36364,0,1.3725e-05,137.16,6.3897e-06,22.83,3.3507e-06,-0.003835,-1.3193e-05,-124.31,2.182
20962,23.264,0.36364,0.05,6.2566e-07,6.2522,4.8043e-07,3.6097,1.5471e-12,1.4458e-05,-4.8043e-07,-3.6097,2.1688
20963,23.264,0.63636,0,1.5983e-05,159.72,7.5469e-06,27.974,3.8354e-06,0.086968,-1.5322e-05,-143.85,2.1689
20964,23.356,0.54545,0,1.4235e-05,142.25,7.0336e-06,28.874,3.201e-06,0.077786,-1.3522e-05,-125.57,2.1821
20965,23.264,0.54545,0.05,6.499e-07,6.4945,4.9904e-07,3.7496,1.9894e-12,1.8096e-05,-4.9905e-07,-3.7496,2.1688
20966,23.264,0.81818,0,1.6338e-05,163.27,7.9107e-06,31.087,3.7871e-06,0.10327,-1.5585e-05,-145.45,2.1689
20967,23.356,0.72727,0,1.4675e-05,146.65,7.537e-06,33.436,3.1001e-06,0.098733,-1.3818e-05,-127.01,2.1821
20968,23.264,0.72727,0.05,6.6635e-07,6.6589,5.1167e-07,3.8445,2.0166e-12,1.8833e-05,-5.1167e-07,-3.8445,2.1689
20969,23.264,1,0,1.6599e-05,165.88,8.1248e-06,32.704,3.7874e-06,0.11425,-1.5799e-05,-147.05,2.169
20970,23.356,0.90909,0,1.5003e-05,149.93,7.8703e-06,36.313,3.0525e-06,0.11452,-1.4052e-05,-128.4,2.1822
20971,23.264,0.90909,0.05,6.8387e-07,6.834,5.2512e-07,3.9456,2.033e-12,1.8974e-05,-5.2513e-07,-3.9456,2.169
20972,23.264,1.1818,0,1.6766e-05,167.55,8.199e-06,32.939,3.8312e-06,0.12054,-1.5961e-05,-148.59,2.1691
20973,23.356,1.0909,0,1.5218e-05,152.08,8.0428e-06,37.609,3.0537e-06,0.12283,-1.4226e-05,-129.71,2.1822
20974,23.264,1.0909,0.05,7.0235e-07,7.0186,5.3931e-07,4.0522,1.4869e-12,1.5085e-05,-5.3932e-07,-4.0522,2.169
20975,23.264,1.3636,0,1.6853e-05,168.42,8.1551e-06,32.013,3.911e-06,0.12469,-1.6078e-05,-150.07,2.1691
20976,23.356,1.2727,0,1.5335e-05,153.24,8.0773e-06,37.552,3.0966e-06,0.12846,-1.4347e-05,-130.93,2.1823
20977,23.264,1.2727,0.05,7.2112e-07,7.2062,5.5373e-07,4.1605,1.0388e-12,1.0612e-05,-5.5373e-07,-4.1605,2.1691
20978,23.264,1.5455,0,1.6877e-05,168.66,8.0195e-06,30.196,4.0177e-06,0.12761,-1.6159e-05,-151.47,2.1691
20979,23.356,1.4545,0,1.5372e-05,153.61,8.0018e-06,36.418,3.1725e-06,0.13228,-1.4425e-05,-132.09,2.1823
20980,23.264,1.4545,0.05,7.3955e-07,7.3904,5.6788e-07,4.2668,1.0611e-12,1.0556e-05,-5.6788e-07,-4.2668,2.1691
20981,23.264,1.7273,0,1.6857e-05,168.45,7.8202e-06,27.769,4.1417e-06,0.12998,-1.6211e-05,-152.79,2.1692
20982,23.356,1.6364,0,1.535e-05,153.4,7.8453e-06,34.499,3.2719e-06,0.13524,-1.447e-05,-133.17,2.1824
20983,23.264,1.6364,0.05,7.5709e-07,7.5657,5.8135e-07,4.3681,1.3087e-12,1.1887e-05,-5.8135e-07,-4.3681,2.1691
20984,23.264,1.9091,0,1.6809e-05,167.97,7.5845e-06,25.012,4.2732e-06,0.13222,-1.6242e-05,-154.01,2.1692
20985,23.356,1.8182,0,1.5291e-05,152.81,7.6366e-06,32.083,3.385e-06,0.13779,-1.449e-05,-134.17,2.1824
20986,23.264,1.8182,0.05,7.7328e-07,7.7275,5.9379e-07,4.4615,1.0949e-12,1.1254e-05,-5.9379e-07,-4.4615,2.1692
20987,23.264,2.0909,0,1.6748e-05,167.36,7.338e-06,22.188,4.4029e-06,0.1346,-1.6259e-05,-155.11,2.1692
20988,23.356,2,0,1.5211e-05,152.01,7.4026e-06,29.444,3.5025e-06,0.14024,-1.4495e-05,-135.08,2.1824
20989,23.264,2,0.05,7.8775e-07,7.872,6.0489e-07,4.5449,1.3241e-12,1.2484e-05,-6.0489e-07,-4.5449,2.1692
20990,23.264,2.2727,0,1.6685e-05,166.74,7.1035e-06,19.532,4.5221e-06,0.13723,-1.6266e-05,-156.06,2.1693
20991,23.356,2.1818,0,1.5126e-05,151.15,7.1677e-06,26.832,3.6156e-06,0.14273,-1.4489e-05,-135.89,2.1825
20992,23.264,2.1818,0.05,8.0019e-07,7.9963,6.1444e-07,4.6167,1.4361e-12,1.2944e-05,-6.1444e-07,-4.6167,2.1692
20993,23.264,2.4545,0,1.663e-05,166.18,6.9003e-06,17.248,4.6233e-06,0.14005,-1.6268e-05,-156.83,2.1693
20994,23.356,2.3636,0,1.5046e-05,150.35,6.9532e-06,24.467,3.7163e-06,0.14526,-1.4478e-05,-136.56,2.1825
20995,23.264,2.3636,0.05,8.1038e-07,8.0982,6.2227e-07,4.6755,1.4861e-12,1.2897e-05,-6.2227e-07,-4.6755,2.1693
20996,23.264,2.6364,0,1.6587e-05,165.75,6.7438e-06,15.497,4.7003e-06,0.14274,-1.6267e-05,-157.4,2.1693
20997,23.356,2.5455,0,1.4979e-05,149.69,6.7766e-06,22.528,3.798e-06,0.14763,-1.4467e-05,-137.09,2.1825
20998,23.264,2.5455,0.05,8.1815e-07,8.1759,6.2824e-07,4.7203,1.5255e-12,1.3472e-05,-6.2824e-07,-4.7204,2.1693
20999,23.264,2.8182,0,1.656e-05,165.48,6.6454e-06,14.399,4.7484e-06,0.14476,-1.6266e-05,-157.75,2.1693
21000,23.356,2.7273,0,1.4932e-05,149.22,6.6513e-06,21.156,3.8555e-06,0.14954,-1.4459e-05,-137.45,2.1825
21001,23.264,2.7273,0.05,8.234e-07,8.2283,6.3227e-07,4.7506,1.4514e-12,1.2861e-05,-6.3227e-07,-4.7506,2.1693
21002,23.264,3,0,1.6551e-05,165.39,6.6119e-06,14.024,4.7647e-06,0.14552,-1.6266e-05,-157.87,2.1693
21003,23.356,2.9091,0,1.4908e-05,148.98,6.5864e-06,20.447,3.8851e-06,0.15062,-1.4454e-05,-137.64,2.1825
21004,23.264,2.9091,0.05,8.2604e-07,8.2547,6.343e-07,4.7659,1.488e-12,1.3785e-05,-6.343e-07,-4.7659,2.1693
21005,23.264,3.1818,0,1.656e-05,165.48,6.6454e-06,14.399,4.7484e-06,0.14476,-1.6266e-05,-157.75,2.1693
21006,23.356,3.0909,0,1.4908e-05,148.98,6.5864e-06,20.447,3.8851e-06,0.15062,-1.4454e-05,-137.64,2.1825
21007,23.264,3.0909,0.05,8.2604e-07,8.2547,6.343e-07,4.7659,1.4681e-12,1.3039e-05,-6.343e-07,-4.7659,2.1693
21008,23.264,3.3636,0,1.6587e-05,165.75,6.7438e-06,15.497,4.7003e-06,0.14275,-1.6267e-05,-157.4,2.1693
21009,23.356,3.2727,0,1.4932e-05,149.22,6.6513e-06,21.156,3.8555e-06,0.14954,-1.4459e-05,-137.45,2.1825
21010,23.264,3.2727,0.05,8.234e-07,8.2283,6.3227e-07,4.7506,1.51e-12,1.3882e-05,-6.3227e-07,-4.7506,2.1693
21011,23.264,3.5455,0,1.663e-05,166.18,6.9003e-06,17.248,4.6233e-06,0.14005,-1.6268e-05,-156.83,2.1693
21012,23.356,3.4545,0,1.4979e-05,149.69,6.7766e-06,22.528,3.798e-06,0.14763,-1.4467e-05,-137.09,2.1825
21013,23.264,3.4545,0.05,8.1815e-07,8.1759,6.2824e-07,4.7203,1.613e-12,1.3449e-05,-6.2824e-07,-4.7204,2.1693
21014,23.264,3.7273,0,1.6685e-05,166.74,7.1035e-06,19.532,4.5221e-06,0.13723,-1.6266e-05,-156.06,2.1693
21015,23.356,3.6364,0,1.5046e-05,150.35,6.9532e-06,24.467,3.7163e-06,0.14526,-1.4478e-05,-136.56,2.1825
21016,23.264,3.6364,0.05,8.1038e-07,8.0982,6.2227e-07,4.6755,1.6674e-12,1.427e-05,-6.2227e-07,-4.6755,2.1693
21017,23.264,3.9091,0,1.6748e-05,167.36,7.338e-06,22.188,4.4029e-06,0.1346,-1.6259e-05,-155.11,2.1692
21018,23.356,3.8182,0,1.5126e-05,151.15,7.1677e-06,26.832,3.6156e-06,0.14273,-1.4489e-05,-135.89,2.1825
21019,23.264,3.8182,0.05,8.0019e-07,7.9963,6.1444e-07,4.6167,1.7216e-12,1.5671e-05,-6.1444e-07,-4.6167,2.1692
21020,23.264,4.0909,0,1.6809e-05,167.97,7.5845e-06,25.012,4.2732e-06,0.13222,-1.6242e-05,-154.01,2.1692
21021,23.356,4,0,1.5211e-05,152.01,7.4026e-06,29.444,3.5025e-06,0.14024,-1.4495e-05,-135.08,2.1824
21022,23.264,4,0.05,7.8775e-07,7.872,6.0489e-07,4.5449,1.6749e-12,1.4059e-05,-6.0489e-07,-4.5449,2.1692
21023,23.264,4.2727,0,1.6857e-05,168.45,7.8202e-06,27.769,4.1417e-06,0.12998,-1.6211e-05,-152.79,2.1692
21024,23.356,4.1818,0,1.5291e-05,152.81,7.6366e-06,32.083,3.385e-06,0.13779,-1.449e-05,-134.17,2.1824
21025,23.264,4.1818,0.05,7.7328e-07,7.7275,5.9379e-07,4.4615,1.5736e-12,1.2747e-05,-5.9379e-07,-4.4615,2.1692
21026,23.264,4.4545,0,1.6877e-05,168.66,8.0195e-06,30.196,4.0177e-06,0.12761,-1.6159e-05,-151.47,2.1691
21027,23.356,4.3636,0,1.535e-05,153.4,7.8453e-06,34.499,3.2719e-06,0.13524,-1.447e-05,-133.17,2.1824
21028,23.264,4.3636,0.05,7.5709e-07,7.5657,5.8135e-07,4.3681,1.3617e-12,1.4272e-05,-5.8135e-07,-4.3681,2.1691
21029,23.264,4.6364,0,1.6853e-05,168.42,8.1551e-06,32.013,3.9109e-06,0.12469,-1.6078e-05,-150.07,2.1691
21030,23.356,4.5455,0,1.5372e-05,153.61,8.0018e-06,36.418,3.1725e-06,0.13228,-1.4425e-05,-132.09,2.1823
21031,23.264,4.5455,0.05,7.3955e-07,7.3904,5.6788e-07,4.2668,1.4889e-12,1.1049e-05,-5.6788e-07,-4.2668,2.1691
21032,23.264,4.8182,0,1.6766e-05,167.55,8.199e-06,32.939,3.8312e-06,0.12054,-1.5961e-05,-148.59,2.1691
21033,23.356,4.7273,0,1.5335e-05,153.24,8.0773e-06,37.552,3.0966e-06,0.12846,-1.4347e-05,-130.93,2.1823
21034,23.264,4.7273,0.05,7.2112e-07,7.2062,5.5373e-07,4.1605,1.4906e-12,1.2495e-05,-5.5373e-07,-4.1605,2.1691
21035,23.264,5,0,1.6599e-05,165.88,8.1248e-06,32.704,3.7874e-06,0.11425,-1.5799e-05,-147.05,2.169
21036,23.356,4.9091,0,1.5218e-05,152.08,8.0428e-06,37.609,3.0537e-06,0.12283,-1.4226e-05,-129.71,2.1822
21037,23.264,4.9091,0.05,7.0235e-07,7.0186,5.3931e-07,4.0522,1.0287e-12,1.1727e-05,-5.3932e-07,-4.0522,2.169
21038,23.264,5.1818,0,1.6338e-05,163.27,7.9108e-06,31.087,3.7871e-06,0.10327,-1.5585e-05,-145.45,2.1689
21039,23.356,5.0909,0,1.5003e-05,149.93,7.8703e-06,36.313,3.0525e-06,0.11452,-1.4052e-05,-128.4,2.1822
21040,23.264,5.0909,0.05,6.8387e-07,6.834,5.2512e-07,3.9456,1.0099e-12,8.4859e-06,-5.2513e-07,-3.9456,2.169
21041,23.264,5.3636,0,1.5983e-05,159.72,7.5469e-06,27.974,3.8354e-06,0.086969,-1.5322e-05,-143.85,2.1689
21042,23.356,5.2727,0,1.4675e-05,146.65,7.537e-06,33.436,3.1001e-06,0.098733,-1.3818e-05,-127.01,2.1821
21043,23.264,5.2727,0.05,6.6635e-07,6.6589,5.1167e-07,3.8445,9.8094e-13,8.6795e-06,-5.1167e-07,-3.8445,2.1689
21044,23.264,5.5455,0,1.5562e-05,155.51,7.0509e-06,23.475,3.932e-06,0.041234,-1.5028e-05,-142.42,2.1688
21045,23.356,5.4545,0,1.4235e-05,142.25,7.0336e-06,28.874,3.201e-06,0.077789,-1.3522e-05,-125.57,2.1821
21046,23.264,5.4545,0.05,6.499e-07,6.4945,4.9904e-07,3.7496,8.1801e-13,7.8842e-06,-4.9904e-07,-3.7496,2.1688
21047,23.264,5.7273,0,1.5211e-05,152.01,6.5383e-06,18.496,4.0735e-06,-0.023853,-1.4812e-05,-141.92,2.1687
21048,23.356,5.6364,0,1.3725e-05,137.16,6.3898e-06,22.83,3.3507e-06,-0.0038346,-1.3193e-05,-124.31,2.182
21049,23.264,5.6364,0.05,6.2566e-07,6.2522,4.8043e-07,3.6097,8.7146e-13,7.8645e-06,-4.8043e-07,-3.6097,2.1688
21050,23.356,5.8182,0,1.3396e-05,133.87,5.8168e-06,16.996,3.5469e-06,-0.059666,-1.3026e-05,-124.58,2.1819
21051,23.264,5.8182,0.05,4.491e-07,4.4879,3.4485e-07,2.5911,7.2413e-13,6.0744e-06,-3.4485e-07,-2.5911,2.1687
21052,23.264,5.9091,0,1.4567e-05,145.57,5.7184e-06,11.07,4.2542e-06,0.068931,-1.4346e-05,-139.69,2.1687
21053,23.448,0.27273,0,1.1857e-05,118.49,5.6209e-06,20.975,2.8239e-06,-0.040774,-1.136e-05,-106.61,2.1952
21054,23.54,0.18182,0,9.9638e-06,99.57,4.7968e-06,18.542,2.3217e-06,-0.054807,-9.5182e-06,-89.015,2.2084
21055,23.448,0.18182,0.05,4.8894e-07,4.886,3.7544e-07,2.8209,1.1254e-12,9.752e-06,-3.7544e-07,-2.8209,2.1951
21056,23.448,0.090909,0,1.1101e-05,110.93,4.6353e-06,11.87,3.0667e-06,0.084481,-1.085e-05,-104.48,2.1951
21057,23.448,0.45455,0,1.2391e-05,123.83,6.3558e-06,28.104,2.6211e-06,0.043043,-1.1672e-05,-107.35,2.1952
21058,23.54,0.36364,0,1.0559e-05,105.51,5.6663e-06,27.191,2.0541e-06,0.050864,-9.8298e-06,-89.24,2.2084
21059,23.448,0.36364,0.05,6.4327e-07,6.4282,4.9395e-07,3.7113,1.3896e-12,1.0853e-05,-4.9395e-07,-3.7113,2.1952
21060,23.448,0.63636,0,1.2939e-05,129.3,7.0153e-06,34.273,2.4668e-06,0.097314,-1.201e-05,-108.68,2.1953
21061,23.54,0.54545,0,1.1242e-05,112.35,6.5069e-06,35.22,1.8406e-06,0.15984,-1.0222e-05,-90.475,2.2085
21062,23.448,0.54545,0.05,6.677e-07,6.6723,5.1271e-07,3.8523,1.8868e-12,1.5568e-05,-5.1271e-07,-3.8523,2.1953
21063,23.448,0.81818,0,1.3363e-05,133.54,7.4919e-06,38.627,2.3665e-06,0.11666,-1.2281e-05,-109.94,2.1954
21064,23.54,0.72727,0,1.1779e-05,117.71,7.1329e-06,41.114,1.6855e-06,0.184,-1.053e-05,-91.596,2.2086
21065,23.448,0.72727,0.05,6.8341e-07,6.8294,5.2477e-07,3.9429,2.0801e-12,1.7892e-05,-5.2477e-07,-3.9429,2.1953
21066,23.448,1,0,1.3652e-05,136.43,7.7855e-06,41.198,2.3196e-06,0.12936,-1.2477e-05,-111.05,2.1954
21067,23.54,0.90909,0,1.2153e-05,121.45,7.5461e-06,44.942,1.5918e-06,0.20333,-1.075e-05,-92.528,2.2086
21068,23.448,0.90909,0.05,6.9875e-07,6.9827,5.3655e-07,4.0314,2.0606e-12,1.7271e-05,-5.3655e-07,-4.0315,2.1954
21069,23.448,1.1818,0,1.3821e-05,138.11,7.9193e-06,42.209,2.3199e-06,0.13683,-1.2611e-05,-112.04,2.1955
21070,23.54,1.0909,0,1.2382e-05,123.73,7.7751e-06,46.971,1.5521e-06,0.21353,-1.0897e-05,-93.325,2.2087
21071,23.448,1.0909,0.05,7.1403e-07,7.1354,5.4829e-07,4.1196,1.7121e-12,1.3875e-05,-5.4829e-07,-4.1196,2.1954
21072,23.448,1.3636,0,1.389e-05,138.8,7.9229e-06,41.948,2.3589e-06,0.14201,-1.2693e-05,-112.95,2.1955
21073,23.54,1.2727,0,1.249e-05,124.81,7.8531e-06,47.52,1.5578e-06,0.2207,-1.0986e-05,-94.027,2.2087
21074,23.448,1.2727,0.05,7.2902e-07,7.2852,5.598e-07,4.2061,1.1381e-12,8.5981e-06,-5.598e-07,-4.2061,2.1955
21075,23.448,1.5455,0,1.3883e-05,138.74,7.8269e-06,40.715,2.4275e-06,0.14576,-1.2735e-05,-113.78,2.1956
21076,23.54,1.4545,0,1.2504e-05,124.95,7.813e-06,46.913,1.5993e-06,0.22567,-1.1029e-05,-94.66,2.2088
21077,23.448,1.4545,0.05,7.4342e-07,7.429,5.7085e-07,4.2892,1.2627e-12,9.629e-06,-5.7085e-07,-4.2892,2.1955
21078,23.448,1.7273,0,1.3824e-05,138.15,7.6614e-06,38.809,2.516e-06,0.14879,-1.2749e-05,-114.55,2.1956
21079,23.54,1.6364,0,1.245e-05,124.41,7.6867e-06,45.461,1.6668e-06,0.22948,-1.1039e-05,-95.239,2.2088
21080,23.448,1.6364,0.05,7.569e-07,7.5638,5.812e-07,4.3669,1.4961e-12,1.0157e-05,-5.8121e-07,-4.367,2.1956
21081,23.448,1.9091,0,1.3733e-05,137.24,7.4545e-06,36.513,2.6151e-06,0.15144,-1.2743e-05,-115.24,2.1956
21082,23.54,1.8182,0,1.2351e-05,123.43,7.5039e-06,43.461,1.7506e-06,0.23259,-1.1026e-05,-95.768,2.2088
21083,23.448,1.8182,0.05,7.6919e-07,7.6866,5.9064e-07,4.4378,1.2177e-12,9.7255e-06,-5.9064e-07,-4.4379,2.1956
21084,23.448,2.0909,0,1.3629e-05,136.19,7.2323e-06,34.088,2.7159e-06,0.15392,-1.2725e-05,-115.87,2.1956
21085,23.54,2,0,1.223e-05,122.21,7.292e-06,41.187,1.8417e-06,0.2353,-1.0999e-05,-96.245,2.2088
21086,23.448,2,0.05,7.8005e-07,7.7951,5.9898e-07,4.5005,1.3353e-12,1.1186e-05,-5.9898e-07,-4.5005,2.1956
21087,23.448,2.2727,0,1.3526e-05,135.16,7.0175e-06,31.766,2.8104e-06,0.15628,-1.2702e-05,-116.4,2.1957
21088,23.54,2.1818,0,1.2103e-05,120.95,7.0756e-06,38.886,1.9317e-06,0.23774,-1.0965e-05,-96.663,2.2089
21089,23.448,2.1818,0.05,7.893e-07,7.8876,6.0609e-07,4.5539,1.5081e-12,1.1201e-05,-6.0609e-07,-4.5539,2.1956
21090,23.448,2.4545,0,1.3435e-05,134.25,6.8296e-06,29.746,2.8917e-06,0.15847,-1.2679e-05,-116.83,2.1957
21091,23.54,2.3636,0,1.1986e-05,119.78,6.8758e-06,36.775,2.0133e-06,0.23993,-1.093e-05,-97.014,2.2089
21092,23.448,2.3636,0.05,7.9682e-07,7.9627,6.1186e-07,4.5973,1.5067e-12,1.1429e-05,-6.1186e-07,-4.5973,2.1957
21093,23.448,2.6364,0,1.3364e-05,133.55,6.6841e-06,28.187,2.9539e-06,0.16029,-1.2659e-05,-117.15,2.1957
21094,23.54,2.5455,0,1.1889e-05,118.81,6.7102e-06,35.03,2.0801e-06,0.24179,-1.09e-05,-97.288,2.2089
21095,23.448,2.5455,0.05,8.0252e-07,8.0196,6.1623e-07,4.6301,1.6705e-12,1.2088e-05,-6.1623e-07,-4.6301,2.1957
21096,23.448,2.8182,0,1.332e-05,133.11,6.5922e-06,27.204,2.993e-06,0.16152,-1.2647e-05,-117.35,2.1957
21097,23.54,2.7273,0,1.182e-05,118.12,6.5922e-06,33.789,2.1275e-06,0.24317,-1.0878e-05,-97.477,2.2089
21098,23.448,2.7273,0.05,8.0634e-07,8.0578,6.1917e-07,4.6522,1.4354e-12,1.1789e-05,-6.1917e-07,-4.6522,2.1957
21099,23.448,3,0,1.3305e-05,132.96,6.5608e-06,26.869,3.0063e-06,0.16196,-1.2642e-05,-117.42,2.1957
21100,23.54,2.9091,0,1.1785e-05,117.77,6.5309e-06,33.145,2.152e-06,0.2439,-1.0867e-05,-97.573,2.2089
21101,23.448,2.9091,0.05,8.0826e-07,8.077,6.2064e-07,4.6633,1.5967e-12,1.2436e-05,-6.2064e-07,-4.6633,2.1957
21102,23.448,3.1818,0,1.332e-05,133.11,6.5922e-06,27.204,2.993e-06,0.16153,-1.2647e-05,-117.35,2.1957
21103,23.54,3.0909,0,1.1785e-05,117.77,6.5309e-06,33.145,2.152e-06,0.24391,-1.0867e-05,-97.573,2.2089
21104,23.448,3.0909,0.05,8.0826e-07,8.077,6.2064e-07,4.6633,1.5868e-12,1.2361e-05,-6.2064e-07,-4.6633,2.1957
21105,23.448,3.3636,0,1.3364e-05,133.55,6.6841e-06,28.187,2.9539e-06,0.16029,-1.2659e-05,-117.15,2.1957
21106,23.54,3.2727,0,1.182e-05,118.12,6.5922e-06,33.789,2.1275e-06,0.24317,-1.0878e-05,-97.477,2.2089
21107,23.448,3.2727,0.05,8.0634e-07,8.0578,6.1917e-07,4.6522,1.6366e-12,1.2785e-05,-6.1917e-07,-4.6522,2.1957
21108,23.448,3.5455,0,1.3435e-05,134.25,6.8296e-06,29.746,2.8917e-06,0.15847,-1.2679e-05,-116.83,2.1957
21109,23.54,3.4545,0,1.1889e-05,118.81,6.7102e-06,35.03,2.0801e-06,0.24179,-1.09e-05,-97.288,2.2089
21110,23.448,3.4545,0.05,8.0252e-07,8.0196,6.1623e-07,4.6301,1.5208e-12,1.2772e-05,-6.1623e-07,-4.6301,2.1957
21111,23.448,3.7273,0,1.3526e-05,135.16,7.0175e-06,31.766,2.8104e-06,0.15629,-1.2702e-05,-116.4,2.1957
21112,23.54,3.6364,0,1.1986e-05,119.78,6.8758e-06,36.775,2.0133e-06,0.23993,-1.093e-05,-97.014,2.2089
21113,23.448,3.6364,0.05,7.9682e-07,7.9627,6.1186e-07,4.5973,1.7466e-12,1.395e-05,-6.1186e-07,-4.5973,2.1957
21114,23.448,3.9091,0,1.3629e-05,136.19,7.2323e-06,34.088,2.7159e-06,0.15392,-1.2725e-05,-115.87,2.1956
21115,23.54,3.8182,0,1.2103e-05,120.95,7.0756e-06,38.886,1.9317e-06,0.23774,-1.0965e-05,-96.663,2.2089
21116,23.448,3.8182,0.05,7.893e-07,7.8876,6.0609e-07,4.5539,1.7452e-12,1.4653e-05,-6.0609e-07,-4.5539,2.1956
21117,23.448,4.0909,0,1.3733e-05,137.24,7.4545e-06,36.513,2.6151e-06,0.15144,-1.2743e-05,-115.24,2.1956
21118,23.54,4,0,1.223e-05,122.21,7.292e-06,41.187,1.8417e-06,0.2353,-1.0999e-05,-96.245,2.2088
21119,23.448,4,0.05,7.8005e-07,7.7951,5.9898e-07,4.5005,1.6405e-12,1.2815e-05,-5.9898e-07,-4.5005,2.1956
21120,23.448,4.2727,0,1.3824e-05,138.15,7.6614e-06,38.809,2.516e-06,0.14879,-1.2749e-05,-114.55,2.1956
21121,23.54,4.1818,0,1.2351e-05,123.43,7.5039e-06,43.461,1.7506e-06,0.23259,-1.1026e-05,-95.768,2.2088
21122,23.448,4.1818,0.05,7.6919e-07,7.6866,5.9064e-07,4.4378,1.5345e-12,1.1447e-05,-5.9064e-07,-4.4379,2.1956
21123,23.448,4.4545,0,1.3883e-05,138.74,7.8269e-06,40.715,2.4275e-06,0.14576,-1.2735e-05,-113.78,2.1956
21124,23.54,4.3636,0,1.245e-05,124.41,7.6867e-06,45.461,1.6668e-06,0.22948,-1.1039e-05,-95.239,2.2088
21125,23.448,4.3636,0.05,7.569e-07,7.5638,5.812e-07,4.3669,1.7135e-12,1.342e-05,-5.8121e-07,-4.367,2.1956
21126,23.448,4.6364,0,1.389e-05,138.8,7.9229e-06,41.948,2.3589e-06,0.14201,-1.2693e-05,-112.95,2.1955
21127,23.54,4.5455,0,1.2504e-05,124.95,7.813e-06,46.913,1.5993e-06,0.22567,-1.1029e-05,-94.66,2.2088
21128,23.448,4.5455,0.05,7.4342e-07,7.429,5.7085e-07,4.2892,1.3786e-12,9.6413e-06,-5.7085e-07,-4.2892,2.1955
21129,23.448,4.8182,0,1.3821e-05,138.11,7.9193e-06,42.209,2.3199e-06,0.13683,-1.2611e-05,-112.04,2.1955
21130,23.54,4.7273,0,1.249e-05,124.81,7.8531e-06,47.521,1.5578e-06,0.2207,-1.0986e-05,-94.027,2.2087
21131,23.448,4.7273,0.05,7.2902e-07,7.2852,5.598e-07,4.2061,1.3737e-12,1.0557e-05,-5.598e-07,-4.2061,2.1955
21132,23.448,5,0,1.3652e-05,136.43,7.7855e-06,41.198,2.3196e-06,0.12936,-1.2477e-05,-111.05,2.1954
21133,23.54,4.9091,0,1.2382e-05,123.73,7.7751e-06,46.971,1.5521e-06,0.21353,-1.0897e-05,-93.325,2.2087
21134,23.448,4.9091,0.05,7.1403e-07,7.1354,5.4829e-07,4.1196,1.3543e-12,9.9339e-06,-5.4829e-07,-4.1196,2.1954
21135,23.448,5.1818,0,1.3363e-05,133.54,7.4919e-06,38.627,2.3665e-06,0.11666,-1.2281e-05,-109.94,2.1954
21136,23.54,5.0909,0,1.2153e-05,121.45,7.5461e-06,44.942,1.5918e-06,0.20333,-1.075e-05,-92.528,2.2086
21137,23.448,5.0909,0.05,6.9875e-07,6.9827,5.3655e-07,4.0314,1.0418e-12,7.3385e-06,-5.3655e-07,-4.0315,2.1954
21138,23.448,5.3636,0,1.2939e-05,129.3,7.0153e-06,34.273,2.4668e-06,0.097316,-1.201e-05,-108.68,2.1953
21139,23.54,5.2727,0,1.1779e-05,117.71,7.1329e-06,41.114,1.6855e-06,0.184,-1.053e-05,-91.596,2.2086
21140,23.448,5.2727,0.05,6.8341e-07,6.8294,5.2477e-07,3.9429,9.878e-13,6.4471e-06,-5.2477e-07,-3.9429,2.1953
21141,23.448,5.5455,0,1.2391e-05,123.83,6.3558e-06,28.104,2.6211e-06,0.043045,-1.1672e-05,-107.35,2.1952
21142,23.54,5.4545,0,1.1242e-05,112.35,6.5069e-06,35.22,1.8406e-06,0.15984,-1.0222e-05,-90.474,2.2085
21143,23.448,5.4545,0.05,6.677e-07,6.6723,5.1271e-07,3.8523,8.0566e-13,5.5343e-06,-5.1271e-07,-3.8523,2.1953
21144,23.448,5.7273,0,1.1857e-05,118.49,5.6209e-06,20.975,2.8239e-06,-0.040772,-1.136e-05,-106.61,2.1952
21145,23.54,5.6364,0,1.0559e-05,105.51,5.6663e-06,27.191,2.0541e-06,0.050865,-9.8298e-06,-89.24,2.2084
21146,23.448,5.6364,0.05,6.4327e-07,6.4282,4.9395e-07,3.7113,7.8517e-13,5.4055e-06,-4.9395e-07,-3.7113,2.1952
21147,23.54,5.8182,0,9.9638e-06,99.57,4.7968e-06,18.542,2.3217e-06,-0.054808,-9.5182e-06,-89.015,2.2084
21148,23.448,5.8182,0.05,4.8894e-07,4.886,3.7544e-07,2.8209,4.9476e-13,2.4752e-06,-3.7544e-07,-2.8209,2.1951
21149,23.448,5.9091,0,1.1101e-05,110.93,4.6353e-06,11.87,3.0667e-06,0.084481,-1.085e-05,-104.48,2.1951
21150,23.632,0.27273,0,8.6119e-06,86.06,4.7878e-06,24.35,1.5537e-06,0.04974,-7.9354e-06,-71.247,2.2216
21151,23.724,0.18182,0,6.6794e-06,66.748,3.882e-06,20.968,1.0628e-06,-0.21412,-6.0692e-06,-53.801,2.2348
21152,23.632,0.18182,0.05,5.3632e-07,5.3595,4.1182e-07,3.0943,6.5087e-13,9.0756e-06,-4.1182e-07,-3.0943,2.2216
21153,23.632,0.090909,0,7.6621e-06,76.569,3.5671e-06,12.864,1.8825e-06,0.20582,-7.3609e-06,-69.245,2.2215
21154,23.632,0.45455,0,9.4253e-06,94.188,5.8022e-06,34.194,1.2764e-06,0.18826,-8.3678e-06,-72.275,2.2217
21155,23.724,0.36364,0,7.6889e-06,76.836,5.1412e-06,33.381,6.9482e-07,-0.027522,-6.5556e-06,-54.504,2.2349
21156,23.632,0.36364,0.05,6.666e-07,6.6614,5.1186e-07,3.846,1.0314e-12,1.3149e-05,-5.1186e-07,-3.8459,2.2216
21157,23.632,0.63636,0,1.0125e-05,101.18,6.6179e-06,42.012,1.0616e-06,0.26374,-8.7371e-06,-73.36,2.2217
21158,23.724,0.54545,0,8.569e-06,85.631,6.1519e-06,43.247,4.1338e-07,0.12952,-6.9735e-06,-55.372,2.2349
21159,23.632,0.54545,0.05,6.9026e-07,6.8978,5.3003e-07,3.9825,1.1472e-12,1.3237e-05,-5.3003e-07,-3.9825,2.2217
21160,23.632,0.81818,0,1.0625e-05,106.18,7.1838e-06,47.404,9.1293e-07,0.287,-8.9979e-06,-74.179,2.2218
21161,23.724,0.72727,0,9.2051e-06,91.987,6.8634e-06,50.16,2.0873e-07,0.15923,-7.2654e-06,-55.998,2.235
21162,23.632,0.72727,0.05,7.0433e-07,7.0384,5.4083e-07,4.0636,1.5045e-12,1.7153e-05,-5.4084e-07,-4.0636,2.2218
21163,23.632,1,0,1.0947e-05,109.39,7.5339e-06,50.701,8.2641e-07,0.30369,-9.1701e-06,-74.806,2.2219
21164,23.724,0.90909,0,9.6272e-06,96.206,7.326e-06,54.647,7.7641e-08,0.18601,-7.4581e-06,-56.435,2.235
21165,23.632,0.90909,0.05,7.1641e-07,7.1591,5.5011e-07,4.1333,1.7518e-12,1.9099e-05,-5.5011e-07,-4.1333,2.2218
21166,23.632,1.1818,0,1.112e-05,111.13,7.7078e-06,52.275,7.9225e-07,0.31367,-9.2733e-06,-75.315,2.2219
21167,23.724,1.0909,0,9.873e-06,98.662,7.5878e-06,57.159,7.117e-09,0.20065,-7.5747e-06,-56.766,2.2351
21168,23.632,1.0909,0.05,7.2784e-07,7.2734,5.5889e-07,4.1993,1.5365e-12,1.8187e-05,-5.5889e-07,-4.1993,2.2219
21169,23.632,1.3636,0,1.1177e-05,111.69,7.7427e-06,52.482,8.0044e-07,0.32073,-9.3238e-06,-75.749,2.2219
21170,23.724,1.2727,0,9.9777e-06,99.708,7.6902e-06,58.097,-1.3939e-08,0.21127,-7.633e-06,-57.035,2.2351
21171,23.632,1.2727,0.05,7.3874e-07,7.3823,5.6726e-07,4.2622,1.36e-12,1.5226e-05,-5.6726e-07,-4.2622,2.2219
21172,23.632,1.5455,0,1.1146e-05,111.38,7.6726e-06,51.657,8.4084e-07,0.32586,-9.3351e-06,-76.132,2.222
21173,23.724,1.4545,0,9.9738e-06,99.67,7.6701e-06,57.823,3.4831e-09,0.21877,-7.6472e-06,-57.265,2.2352
21174,23.632,1.4545,0.05,7.4902e-07,7.4851,5.7516e-07,4.3215,1.273e-12,1.495e-05,-5.7516e-07,-4.3215,2.222
21175,23.632,1.7273,0,1.1053e-05,110.46,7.5293e-06,50.112,9.0361e-07,0.32984,-9.3186e-06,-76.476,2.222
21176,23.724,1.6364,0,9.8914e-06,98.846,7.5608e-06,56.665,4.906e-08,0.22443,-7.6296e-06,-57.47,2.2352
21177,23.632,1.6364,0.05,7.5852e-07,7.58,5.8245e-07,4.3763,1.4582e-12,1.5059e-05,-5.8245e-07,-4.3763,2.222
21178,23.632,1.9091,0,1.0925e-05,109.17,7.3415e-06,48.135,9.7946e-07,0.33307,-9.2844e-06,-76.786,2.222
21179,23.724,1.8182,0,9.7577e-06,97.509,7.3926e-06,54.924,1.1306e-07,0.2288,-7.5908e-06,-57.655,2.2352
21180,23.632,1.8182,0.05,7.6707e-07,7.6654,5.8902e-07,4.4257,1.2973e-12,1.4661e-05,-5.8902e-07,-4.4256,2.222
21181,23.632,2.0909,0,1.0781e-05,107.74,7.1354e-06,45.986,1.0598e-06,0.33581,-9.241e-06,-77.06,2.2221
21182,23.724,2,0,9.5972e-06,95.906,7.1932e-06,52.878,1.8646e-07,0.23228,-7.5399e-06,-57.821,2.2353
21183,23.632,2,0.05,7.7454e-07,7.74,5.9475e-07,4.4687,1.4177e-12,1.5184e-05,-5.9475e-07,-4.4687,2.222
21184,23.632,2.2727,0,1.064e-05,106.33,6.9339e-06,43.895,1.1368e-06,0.33816,-9.1956e-06,-77.295,2.2221
21185,23.724,2.1818,0,9.4313e-06,94.248,6.9872e-06,50.772,2.6111e-07,0.23509,-7.4851e-06,-57.967,2.2353
21186,23.632,2.1818,0.05,7.8082e-07,7.8028,5.9957e-07,4.505,1.5307e-12,1.7087e-05,-5.9957e-07,-4.505,2.2221
21187,23.632,2.4545,0,1.0516e-05,105.09,6.7564e-06,42.059,1.204e-06,0.34012,-9.1541e-06,-77.487,2.2221
21188,23.724,2.3636,0,9.2778e-06,92.714,6.7957e-06,48.819,3.299e-07,0.23732,-7.433e-06,-58.09,2.2353
21189,23.632,2.3636,0.05,7.8587e-07,7.8532,6.0345e-07,4.5341,1.5832e-12,1.7048e-05,-6.0345e-07,-4.5341,2.2221
21190,23.632,2.6364,0,1.0421e-05,104.13,6.6182e-06,40.632,1.2559e-06,0.34163,-9.1213e-06,-77.628,2.2221
21191,23.724,2.5455,0,9.1506e-06,91.443,6.6363e-06,47.195,3.869e-07,0.23903,-7.3891e-06,-58.187,2.2353
21192,23.632,2.5455,0.05,7.8965e-07,7.891,6.0635e-07,4.5559,1.5718e-12,1.7919e-05,-6.0635e-07,-4.5559,2.2221
21193,23.632,2.8182,0,1.036e-05,103.53,6.5308e-06,39.73,1.2887e-06,0.34259,-9.1002e-06,-77.716,2.2221
21194,23.724,2.7273,0,9.0602e-06,90.54,6.5225e-06,46.036,4.2751e-07,0.2402,-7.3575e-06,-58.254,2.2353
21195,23.632,2.7273,0.05,7.9217e-07,7.9162,6.0829e-07,4.5704,1.5581e-12,1.6865e-05,-6.0829e-07,-4.5704,2.2221
21196,23.632,3,0,1.034e-05,103.33,6.5009e-06,39.421,1.2999e-06,0.34292,-9.093e-06,-77.745,2.2221
21197,23.724,2.9091,0,9.0134e-06,90.072,6.4633e-06,45.433,4.4861e-07,0.2408,-7.3411e-06,-58.288,2.2353
21198,23.632,2.9091,0.05,7.9343e-07,7.9288,6.0925e-07,4.5777,1.7135e-12,1.7705e-05,-6.0925e-07,-4.5777,2.2221
21199,23.632,3.1818,0,1.036e-05,103.53,6.5308e-06,39.73,1.2887e-06,0.34259,-9.1002e-06,-77.716,2.2221
21200,23.724,3.0909,0,9.0134e-06,90.072,6.4633e-06,45.433,4.4861e-07,0.2408,-7.3411e-06,-58.288,2.2353
21201,23.632,3.0909,0.05,7.9343e-07,7.9288,6.0925e-07,4.5777,1.5835e-12,1.7582e-05,-6.0925e-07,-4.5777,2.2221
21202,23.632,3.3636,0,1.0421e-05,104.13,6.6182e-06,40.632,1.2559e-06,0.34163,-9.1213e-06,-77.628,2.2221
21203,23.724,3.2727,0,9.0602e-06,90.54,6.5225e-06,46.036,4.2751e-07,0.2402,-7.3575e-06,-58.254,2.2353
21204,23.632,3.2727,0.05,7.9217e-07,7.9162,6.0829e-07,4.5704,1.6837e-12,1.7958e-05,-6.0829e-07,-4.5704,2.2221
21205,23.632,3.5455,0,1.0516e-05,105.09,6.7564e-06,42.059,1.204e-06,0.34012,-9.1541e-06,-77.487,2.2221
21206,23.724,3.4545,0,9.1506e-06,91.443,6.6363e-06,47.195,3.869e-07,0.23904,-7.3891e-06,-58.187,2.2353
21207,23.632,3.4545,0.05,7.8965e-07,7.891,6.0635e-07,4.5559,1.6752e-12,1.7893e-05,-6.0635e-07,-4.5559,2.2221
21208,23.632,3.7273,0,1.064e-05,106.33,6.9339e-06,43.895,1.1368e-06,0.33816,-9.1956e-06,-77.295,2.2221
21209,23.724,3.6364,0,9.2778e-06,92.714,6.7957e-06,48.819,3.299e-07,0.23733,-7.433e-06,-58.09,2.2353
21210,23.632,3.6364,0.05,7.8587e-07,7.8532,6.0345e-07,4.5341,1.7255e-12,1.8795e-05,-6.0345e-07,-4.5341,2.2221
21211,23.632,3.9091,0,1.0781e-05,107.74,7.1354e-06,45.986,1.0598e-06,0.33581,-9.241e-06,-77.06,2.2221
21212,23.724,3.8182,0,9.4313e-06,94.248,6.9872e-06,50.772,2.6111e-07,0.23509,-7.4851e-06,-57.967,2.2353
21213,23.632,3.8182,0.05,7.8082e-07,7.8028,5.9957e-07,4.505,1.8328e-12,2.0177e-05,-5.9957e-07,-4.505,2.2221
21214,23.632,4.0909,0,1.0925e-05,109.17,7.3415e-06,48.135,9.7946e-07,0.33307,-9.2844e-06,-76.786,2.222
21215,23.724,4,0,9.5972e-06,95.906,7.1932e-06,52.878,1.8645e-07,0.23228,-7.5399e-06,-57.821,2.2353
21216,23.632,4,0.05,7.7454e-07,7.74,5.9475e-07,4.4687,1.6665e-12,1.83e-05,-5.9475e-07,-4.4687,2.222
21217,23.632,4.2727,0,1.1053e-05,110.46,7.5293e-06,50.112,9.0361e-07,0.32983,-9.3186e-06,-76.476,2.222
21218,23.724,4.1818,0,9.7577e-06,97.509,7.3926e-06,54.924,1.1305e-07,0.2288,-7.5908e-06,-57.655,2.2352
21219,23.632,4.1818,0.05,7.6707e-07,7.6654,5.8902e-07,4.4257,1.5033e-12,1.6933e-05,-5.8902e-07,-4.4256,2.222
21220,23.632,4.4545,0,1.1146e-05,111.38,7.6726e-06,51.657,8.4083e-07,0.32586,-9.3351e-06,-76.132,2.222
21221,23.724,4.3636,0,9.8914e-06,98.846,7.5608e-06,56.665,4.9058e-08,0.22443,-7.6296e-06,-57.47,2.2352
21222,23.632,4.3636,0.05,7.5852e-07,7.58,5.8245e-07,4.3763,1.7417e-12,1.892e-05,-5.8245e-07,-4.3763,2.222
21223,23.632,4.6364,0,1.1177e-05,111.69,7.7427e-06,52.482,8.0044e-07,0.32073,-9.3238e-06,-75.749,2.2219
21224,23.724,4.5455,0,9.9738e-06,99.67,7.6701e-06,57.823,3.4809e-09,0.21877,-7.6472e-06,-57.265,2.2352
21225,23.632,4.5455,0.05,7.4902e-07,7.4851,5.7516e-07,4.3215,1.4692e-12,1.5671e-05,-5.7516e-07,-4.3215,2.222
21226,23.632,4.8182,0,1.112e-05,111.13,7.7078e-06,52.275,7.9225e-07,0.31367,-9.2733e-06,-75.315,2.2219
21227,23.724,4.7273,0,9.9777e-06,99.708,7.6902e-06,58.097,-1.3942e-08,0.21128,-7.633e-06,-57.035,2.2351
21228,23.632,4.7273,0.05,7.3874e-07,7.3823,5.6726e-07,4.2622,1.4787e-12,1.6696e-05,-5.6726e-07,-4.2622,2.2219
21229,23.632,5,0,1.0947e-05,109.39,7.5339e-06,50.701,8.2641e-07,0.30369,-9.1701e-06,-74.806,2.2219
21230,23.724,4.9091,0,9.873e-06,98.662,7.5878e-06,57.159,7.1139e-09,0.20065,-7.5747e-06,-56.766,2.2351
21231,23.632,4.9091,0.05,7.2784e-07,7.2734,5.5889e-07,4.1993,1.3706e-12,1.5304e-05,-5.5889e-07,-4.1993,2.2219
21232,23.632,5.1818,0,1.0625e-05,106.18,7.1838e-06,47.404,9.1293e-07,0.28699,-8.9979e-06,-74.179,2.2218
21233,23.724,5.0909,0,9.6272e-06,96.206,7.326e-06,54.647,7.7638e-08,0.18601,-7.4581e-06,-56.435,2.235
21234,23.632,5.0909,0.05,7.1641e-07,7.1591,5.5011e-07,4.1333,1.0413e-12,1.2081e-05,-5.5011e-07,-4.1333,2.2218
21235,23.632,5.3636,0,1.0125e-05,101.18,6.6179e-06,42.012,1.0616e-06,0.26373,-8.7371e-06,-73.36,2.2217
21236,23.724,5.2727,0,9.2051e-06,91.988,6.8634e-06,50.16,2.0872e-07,0.15923,-7.2654e-06,-55.998,2.235
21237,23.632,5.2727,0.05,7.0433e-07,7.0384,5.4083e-07,4.0636,1.1432e-12,1.3e-05,-5.4084e-07,-4.0636,2.2218
21238,23.632,5.5455,0,9.4253e-06,94.188,5.8022e-06,34.194,1.2764e-06,0.18825,-8.3678e-06,-72.275,2.2217
21239,23.724,5.4545,0,8.569e-06,85.631,6.1519e-06,43.247,4.1338e-07,0.12952,-6.9735e-06,-55.372,2.2349
21240,23.632,5.4545,0.05,6.9026e-07,6.8978,5.3003e-07,3.9825,1.01e-12,1.1462e-05,-5.3003e-07,-3.9825,2.2217
21241,23.632,5.7273,0,8.6119e-06,86.06,4.7878e-06,24.35,1.5537e-06,0.049738,-7.9354e-06,-71.247,2.2216
21242,23.724,5.6364,0,7.6889e-06,76.836,5.1412e-06,33.381,6.9482e-07,-0.02752,-6.5556e-06,-54.504,2.2349
21243,23.632,5.6364,0.05,6.666e-07,6.6614,5.1186e-07,3.846,1.0616e-12,1.1837e-05,-5.1186e-07,-3.8459,2.2216
21244,23.724,5.8182,0,6.6794e-06,66.748,3.882e-06,20.968,1.0628e-06,-0.21412,-6.0692e-06,-53.801,2.2348
21245,23.632,5.8182,0.05,5.3632e-07,5.3595,4.1182e-07,3.0943,6.6457e-13,9.0417e-06,-4.1182e-07,-3.0943,2.2216
21246,23.632,5.9091,0,7.6621e-06,76.569,3.5671e-06,12.864,1.8825e-06,0.20582,-7.3609e-06,-69.245,2.2215
21247,23.816,0.27273,0,5.758e-06,57.54,4.1826e-06,29.602,2.1274e-07,-0.22541,-4.6454e-06,-36.728,2.248
21248,23.816,0.18182,0.05,6.2343e-07,6.23,4.7872e-07,3.5969,1.0911e-12,1.3886e-05,-4.7872e-07,-3.5969,2.248
21249,23.816,0.090909,0,4.3722e-06,43.691,2.5536e-06,13.987,6.9658e-07,0.034643,-3.9631e-06,-34.976,2.248
21250,23.908,0.18182,0,3.9226e-06,39.199,3.1482e-06,24.728,-1.3338e-07,0.071305,-2.8677e-06,-20.473,2.2612
21251,23.816,0.45455,0,6.9324e-06,69.277,5.4801e-06,42.353,-1.5857e-07,-0.014029,-5.1601e-06,-37.593,2.2481
21252,23.816,0.36364,0.05,7.1846e-07,7.1796,5.5169e-07,4.1452,5.7085e-13,1.0498e-05,-5.5169e-07,-4.1452,2.2481
21253,23.908,0.36364,0,5.4686e-06,54.648,4.788e-06,40.943,-6.2804e-07,0.24903,-3.4788e-06,-21.17,2.2613
21254,23.816,0.63636,0,7.7771e-06,77.717,6.3936e-06,51.366,-4.2992e-07,0.09684,-5.5075e-06,-38.054,2.2482
21255,23.816,0.54545,0.05,7.3054e-07,7.3004,5.6096e-07,4.2149,1.3187e-12,1.6312e-05,-5.6096e-07,-4.2149,2.2481
21256,23.908,0.54545,0,6.5484e-06,65.438,5.9085e-06,52.079,-9.7063e-07,0.39211,-3.8841e-06,-21.498,2.2614
21257,23.816,0.81818,0,8.3478e-06,83.421,7.0043e-06,57.394,-6.1674e-07,0.13205,-5.7341e-06,-38.318,2.2482
21258,23.816,0.72727,0.05,7.3579e-07,7.3528,5.6499e-07,4.2451,1.4376e-12,1.7826e-05,-5.6499e-07,-4.2451,2.2482
21259,23.908,0.72727,0,7.289e-06,72.839,6.6712e-06,59.643,-1.2137e-06,0.39845,-4.1524e-06,-21.682,2.2614
21260,23.816,1,0,8.7013e-06,86.953,7.3798e-06,61.104,-7.3154e-07,0.15899,-5.8728e-06,-38.47,2.2483
21261,23.816,0.90909,0.05,7.4079e-07,7.4028,5.6884e-07,4.274,1.5087e-12,1.8887e-05,-5.6884e-07,-4.274,2.2482
21262,23.908,0.90909,0,7.7688e-06,77.634,7.1637e-06,64.539,-1.3709e-06,0.41343,-4.3237e-06,-21.773,2.2615
21263,23.816,1.1818,0,8.8831e-06,88.769,7.5709e-06,62.987,-7.887e-07,0.17621,-5.9454e-06,-38.569,2.2483
21264,23.816,1.0909,0.05,7.4587e-07,7.4536,5.7274e-07,4.3033,1.5456e-12,1.9652e-05,-5.7274e-07,-4.3033,2.2483
21265,23.908,1.0909,0,8.0448e-06,80.392,7.4463e-06,67.348,-1.4614e-06,0.41924,-4.4217e-06,-21.824,2.2615
21266,23.816,1.3636,0,8.9311e-06,89.249,7.6188e-06,63.447,-8.0031e-07,0.1889,-5.968e-06,-38.639,2.2484
21267,23.816,1.2727,0.05,7.5111e-07,7.5059,5.7676e-07,4.3335,1.3987e-12,1.6987e-05,-5.7676e-07,-4.3335,2.2483
21268,23.908,1.2727,0,8.1607e-06,81.551,7.5646e-06,68.523,-1.4988e-06,0.42399,-4.4635e-06,-21.851,2.2616
21269,23.816,1.5455,0,8.8791e-06,88.729,7.5596e-06,62.84,-7.7752e-07,0.19829,-5.9538e-06,-38.694,2.2484
21270,23.816,1.4545,0.05,7.5634e-07,7.5582,5.8077e-07,4.3637,1.2923e-12,1.6576e-05,-5.8077e-07,-4.3637,2.2484
21271,23.908,1.4545,0,8.1542e-06,81.486,7.5573e-06,68.445,-1.4954e-06,0.42731,-4.4626e-06,-21.867,2.2616
21272,23.816,1.7273,0,8.7575e-06,87.515,7.4254e-06,61.486,-7.3057e-07,0.20548,-5.914e-06,-38.741,2.2484
21273,23.816,1.6364,0.05,7.6136e-07,7.6084,5.8463e-07,4.3927,1.4204e-12,1.7637e-05,-5.8463e-07,-4.3927,2.2484
21274,23.908,1.6364,0,8.0585e-06,80.53,7.4584e-06,67.455,-1.4621e-06,0.43009,-4.4309e-06,-21.877,2.2617
21275,23.816,1.9091,0,8.5939e-06,85.879,7.2455e-06,59.677,-6.689e-07,0.21104,-5.8585e-06,-38.781,2.2485
21276,23.816,1.8182,0.05,7.66e-07,7.6547,5.8819e-07,4.4194,1.4316e-12,1.7246e-05,-5.8819e-07,-4.4194,2.2485
21277,23.908,1.8182,0,7.9039e-06,78.984,7.2987e-06,65.859,-1.4089e-06,0.43256,-4.3788e-06,-21.882,2.2617
21278,23.816,2.0909,0,8.4126e-06,84.068,7.0459e-06,57.671,-6.0103e-07,0.21538,-5.7961e-06,-38.818,2.2485
21279,23.816,2,0.05,7.701e-07,7.6957,5.9134e-07,4.4431,1.439e-12,1.8254e-05,-5.9134e-07,-4.4431,2.2485
21280,23.908,2,0,7.7174e-06,77.121,7.1062e-06,63.934,-1.345e-06,0.43487,-4.3157e-06,-21.886,2.2617
21281,23.816,2.2727,0,8.235e-06,82.293,6.8496e-06,55.7,-5.3455e-07,0.21872,-5.7343e-06,-38.85,2.2485
21282,23.816,2.1818,0.05,7.7356e-07,7.7303,5.94e-07,4.4631,1.6128e-12,1.8759e-05,-5.94e-07,-4.4631,2.2485
21283,23.908,2.1818,0,7.5234e-06,75.182,6.9054e-06,61.927,-1.2785e-06,0.43705,-4.2498e-06,-21.889,2.2617
21284,23.816,2.4545,0,8.0785e-06,80.73,6.676e-06,53.958,-4.7586e-07,0.22122,-5.6795e-06,-38.877,2.2485
21285,23.816,2.3636,0.05,7.7635e-07,7.7581,5.9614e-07,4.4791,1.6123e-12,1.9229e-05,-5.9614e-07,-4.4791,2.2485
21286,23.908,2.3636,0,7.3424e-06,73.373,6.7179e-06,60.053,-1.2163e-06,0.43904,-4.1882e-06,-21.89,2.2617
21287,23.816,2.6364,0,7.957e-06,79.515,6.5406e-06,52.599,-4.3014e-07,0.22297,-5.6367e-06,-38.897,2.2485
21288,23.816,2.5455,0.05,7.7843e-07,7.7789,5.9773e-07,4.4911,1.6657e-12,2.0156e-05,-5.9773e-07,-4.4911,2.2485
21289,23.908,2.5455,0,7.1914e-06,71.865,6.5612e-06,58.488,-1.1644e-06,0.44072,-4.1367e-06,-21.892,2.2618
21290,23.816,2.8182,0,7.8801e-06,78.747,6.4548e-06,51.737,-4.0117e-07,0.22401,-5.6096e-06,-38.91,2.2486
21291,23.816,2.7273,0.05,7.798e-07,7.7927,5.9879e-07,4.4991,1.6026e-12,1.9633e-05,-5.9879e-07,-4.4991,2.2485
21292,23.908,2.7273,0,7.0835e-06,70.786,6.449e-06,57.367,-1.1272e-06,0.44196,-4.0998e-06,-21.893,2.2618
21293,23.816,3,0,7.8538e-06,78.484,6.4254e-06,51.442,-3.9125e-07,0.22436,-5.6003e-06,-38.914,2.2486
21294,23.816,2.9091,0.05,7.8049e-07,7.7995,5.9932e-07,4.5031,1.7092e-12,2.101e-05,-5.9932e-07,-4.5031,2.2485
21295,23.908,2.9091,0,7.0273e-06,70.225,6.3906e-06,56.783,-1.1079e-06,0.44261,-4.0806e-06,-21.893,2.2618
21296,23.816,3.1818,0,7.8801e-06,78.747,6.4548e-06,51.737,-4.0117e-07,0.22401,-5.6096e-06,-38.91,2.2486
21297,23.816,3.0909,0.05,7.8049e-07,7.7995,5.9932e-07,4.5031,1.7014e-12,1.9998e-05,-5.9932e-07,-4.5031,2.2485
21298,23.908,3.0909,0,7.0273e-06,70.225,6.3906e-06,56.783,-1.1079e-06,0.44261,-4.0806e-06,-21.893,2.2618
21299,23.816,3.3636,0,7.957e-06,79.515,6.5406e-06,52.599,-4.3014e-07,0.22298,-5.6367e-06,-38.897,2.2485
21300,23.816,3.2727,0.05,7.798e-07,7.7927,5.9879e-07,4.4991,1.6949e-12,2.2333e-05,-5.9879e-07,-4.4991,2.2485
21301,23.908,3.2727,0,7.0835e-06,70.786,6.449e-06,57.367,-1.1272e-06,0.44196,-4.0998e-06,-21.893,2.2618
21302,23.816,3.5455,0,8.0785e-06,80.73,6.676e-06,53.958,-4.7586e-07,0.22123,-5.6795e-06,-38.877,2.2485
21303,23.816,3.4545,0.05,7.7843e-07,7.7789,5.9773e-07,4.4911,1.8052e-12,2.0878e-05,-5.9773e-07,-4.4911,2.2485
21304,23.908,3.4545,0,7.1914e-06,71.865,6.5612e-06,58.488,-1.1644e-06,0.44072,-4.1367e-06,-21.892,2.2618
21305,23.816,3.7273,0,8.235e-06,82.293,6.8496e-06,55.7,-5.3455e-07,0.21872,-5.7343e-06,-38.85,2.2485
21306,23.816,3.6364,0.05,7.7635e-07,7.7581,5.9614e-07,4.4791,1.8588e-12,2.2284e-05,-5.9614e-07,-4.4791,2.2485
21307,23.908,3.6364,0,7.3424e-06,73.373,6.7179e-06,60.053,-1.2163e-06,0.43904,-4.1882e-06,-21.89,2.2617
21308,23.816,3.9091,0,8.4127e-06,84.068,7.0459e-06,57.671,-6.0104e-07,0.21538,-5.7961e-06,-38.818,2.2485
21309,23.816,3.8182,0.05,7.7356e-07,7.7303,5.94e-07,4.4631,2.0268e-12,2.3696e-05,-5.94e-07,-4.4631,2.2485
21310,23.908,3.8182,0,7.5234e-06,75.182,6.9054e-06,61.927,-1.2785e-06,0.43705,-4.2498e-06,-21.889,2.2617
21311,23.816,4.0909,0,8.5939e-06,85.879,7.2455e-06,59.677,-6.689e-07,0.21105,-5.8585e-06,-38.781,2.2485
21312,23.816,4,0.05,7.701e-07,7.6957,5.9134e-07,4.4431,1.7482e-12,2.1827e-05,-5.9134e-07,-4.4431,2.2485
21313,23.908,4,0,7.7174e-06,77.121,7.1062e-06,63.934,-1.345e-06,0.43487,-4.3157e-06,-21.886,2.2617
21314,23.816,4.2727,0,8.7575e-06,87.515,7.4254e-06,61.487,-7.3057e-07,0.20548,-5.914e-06,-38.741,2.2484
21315,23.816,4.1818,0.05,7.66e-07,7.6547,5.8819e-07,4.4194,1.6974e-12,2.0921e-05,-5.8819e-07,-4.4194,2.2485
21316,23.908,4.1818,0,7.9039e-06,78.984,7.2987e-06,65.859,-1.4089e-06,0.43256,-4.3788e-06,-21.882,2.2617
21317,23.816,4.4545,0,8.8791e-06,88.73,7.5596e-06,62.84,-7.7752e-07,0.19829,-5.9538e-06,-38.694,2.2484
21318,23.816,4.3636,0.05,7.6136e-07,7.6084,5.8463e-07,4.3927,1.8763e-12,2.2415e-05,-5.8463e-07,-4.3927,2.2484
21319,23.908,4.3636,0,8.0585e-06,80.53,7.4584e-06,67.455,-1.4621e-06,0.43009,-4.4309e-06,-21.877,2.2617
21320,23.816,4.6364,0,8.9311e-06,89.249,7.6188e-06,63.447,-8.0031e-07,0.18889,-5.968e-06,-38.639,2.2484
21321,23.816,4.5455,0.05,7.5634e-07,7.5582,5.8077e-07,4.3637,1.4877e-12,1.9148e-05,-5.8077e-07,-4.3637,2.2484
21322,23.908,4.5455,0,8.1542e-06,81.486,7.5573e-06,68.445,-1.4954e-06,0.42731,-4.4626e-06,-21.867,2.2616
21323,23.816,4.8182,0,8.8831e-06,88.769,7.5709e-06,62.987,-7.887e-07,0.17621,-5.9454e-06,-38.569,2.2483
21324,23.816,4.7273,0.05,7.5111e-07,7.5059,5.7676e-07,4.3335,1.4918e-12,1.9662e-05,-5.7676e-07,-4.3335,2.2483
21325,23.908,4.7273,0,8.1607e-06,81.551,7.5646e-06,68.523,-1.4988e-06,0.42399,-4.4635e-06,-21.851,2.2616
21326,23.816,5,0,8.7013e-06,86.953,7.3798e-06,61.105,-7.3154e-07,0.15898,-5.8728e-06,-38.47,2.2483
21327,23.816,4.9091,0.05,7.4587e-07,7.4535,5.7273e-07,4.3033,1.5586e-12,1.8763e-05,-5.7274e-07,-4.3033,2.2483
21328,23.908,4.9091,0,8.0448e-06,80.392,7.4463e-06,67.348,-1.4614e-06,0.41923,-4.4217e-06,-21.824,2.2615
21329,23.816,5.1818,0,8.3478e-06,83.421,7.0044e-06,57.394,-6.1674e-07,0.13205,-5.7341e-06,-38.318,2.2482
21330,23.816,5.0909,0.05,7.4079e-07,7.4028,5.6884e-07,4.274,1.1933e-12,1.5209e-05,-5.6884e-07,-4.274,2.2482
21331,23.908,5.0909,0,7.7688e-06,77.634,7.1637e-06,64.539,-1.3709e-06,0.41343,-4.3237e-06,-21.773,2.2615
21332,23.816,5.3636,0,7.7771e-06,77.717,6.3936e-06,51.366,-4.2992e-07,0.096839,-5.5075e-06,-38.054,2.2482
21333,23.816,5.2727,0.05,7.3579e-07,7.3528,5.6499e-07,4.2451,1.1874e-12,1.5638e-05,-5.6499e-07,-4.2451,2.2482
21334,23.908,5.2727,0,7.289e-06,72.839,6.6712e-06,59.643,-1.2137e-06,0.39845,-4.1524e-06,-21.682,2.2614
21335,23.816,5.5455,0,6.9324e-06,69.277,5.4801e-06,42.353,-1.5857e-07,-0.014027,-5.1601e-06,-37.593,2.2481
21336,23.816,5.4545,0.05,7.3054e-07,7.3004,5.6096e-07,4.2149,1.1736e-12,1.4777e-05,-5.6096e-07,-4.2149,2.2481
21337,23.908,5.4545,0,6.5484e-06,65.439,5.9085e-06,52.079,-9.7063e-07,0.39211,-3.8841e-06,-21.498,2.2614
21338,23.816,5.7273,0,5.758e-06,57.54,4.1826e-06,29.602,2.1274e-07,-0.22541,-4.6454e-06,-36.728,2.248
21339,23.816,5.6364,0.05,7.1846e-07,7.1796,5.5169e-07,4.1452,1.2392e-12,1.5891e-05,-5.5169e-07,-4.1452,2.2481
21340,23.908,5.6364,0,5.4686e-06,54.648,4.788e-06,40.943,-6.2804e-07,0.24903,-3.4788e-06,-21.17,2.2613
21341,23.816,5.8182,0.05,6.2343e-07,6.23,4.7872e-07,3.5969,1.1742e-12,1.4332e-05,-4.7872e-07,-3.5969,2.248
21342,23.908,5.8182,0,3.9226e-06,39.199,3.1482e-06,24.728,-1.3338e-07,0.071305,-2.8677e-06,-20.473,2.2612
21343,23.816,5.9091,0,4.3722e-06,43.691,2.5536e-06,13.987,6.9658e-07,0.034642,-3.9631e-06,-34.976,2.248
21344,23.816,5.7273,0.1,5.758e-06,57.54,4.6454e-06,36.728,-2.1274e-07,0.22541,-4.1826e-06,-29.602,2.248
21345,23.724,5.8182,0.1,6.6794e-06,66.748,6.0692e-06,53.801,-1.0628e-06,0.21412,-3.882e-06,-20.968,2.2348
21346,23.816,5.9091,0.1,4.3722e-06,43.691,3.9631e-06,34.976,-6.9658e-07,-0.034637,-2.5536e-06,-13.987,2.248
21347,23.908,5.8182,0.1,3.9226e-06,39.199,2.8677e-06,20.473,1.3338e-07,-0.071305,-3.1482e-06,-24.728,2.2612
21348,23.816,5.5455,0.1,6.9324e-06,69.277,5.1601e-06,37.593,1.5857e-07,0.01403,-5.4801e-06,-42.353,2.2481
21349,23.724,5.6364,0.1,7.6889e-06,76.836,6.5556e-06,54.504,-6.9482e-07,0.027521,-5.1412e-06,-33.381,2.2349
21350,23.908,5.6364,0.1,5.4686e-06,54.648,3.4788e-06,21.17,6.2803e-07,-0.24903,-4.788e-06,-40.943,2.2613
21351,23.816,5.3636,0.1,7.7771e-06,77.717,5.5075e-06,38.054,4.2992e-07,-0.096837,-6.3936e-06,-51.366,2.2482
21352,23.724,5.4545,0.1,8.569e-06,85.631,6.9735e-06,55.372,-4.1338e-07,-0.12952,-6.1519e-06,-43.247,2.2349
21353,23.908,5.4545,0.1,6.5484e-06,65.439,3.8841e-06,21.498,9.7063e-07,-0.39211,-5.9085e-06,-52.079,2.2614
21354,23.816,5.1818,0.1,8.3478e-06,83.421,5.7341e-06,38.318,6.1674e-07,-0.13205,-7.0044e-06,-57.394,2.2482
21355,23.724,5.2727,0.1,9.2051e-06,91.988,7.2654e-06,55.998,-2.0873e-07,-0.15923,-6.8634e-06,-50.16,2.235
21356,23.908,5.2727,0.1,7.289e-06,72.839,4.1524e-06,21.682,1.2137e-06,-0.39845,-6.6712e-06,-59.643,2.2614
21357,23.816,5,0.1,8.7013e-06,86.953,5.8728e-06,38.47,7.3154e-07,-0.15898,-7.3798e-06,-61.105,2.2483
21358,23.724,5.0909,0.1,9.6272e-06,96.206,7.4581e-06,56.435,-7.7639e-08,-0.18601,-7.326e-06,-54.647,2.235
21359,23.908,5.0909,0.1,7.7688e-06,77.634,4.3237e-06,21.773,1.3709e-06,-0.41343,-7.1637e-06,-64.539,2.2615
21360,23.816,4.8182,0.1,8.8831e-06,88.769,5.9454e-06,38.569,7.887e-07,-0.17621,-7.5709e-06,-62.987,2.2483
21361,23.724,4.9091,0.1,9.873e-06,98.662,7.5747e-06,56.766,-7.1156e-09,-0.20065,-7.5878e-06,-57.159,2.2351
21362,23.908,4.9091,0.1,8.0448e-06,80.392,4.4217e-06,21.824,1.4614e-06,-0.41923,-7.4463e-06,-67.348,2.2615
21363,23.816,4.6364,0.1,8.9311e-06,89.249,5.968e-06,38.639,8.0031e-07,-0.18889,-7.6188e-06,-63.447,2.2484
21364,23.724,4.7273,0.1,9.9777e-06,99.708,7.633e-06,57.035,1.394e-08,-0.21127,-7.6902e-06,-58.097,2.2351
21365,23.908,4.7273,0.1,8.1607e-06,81.551,4.4635e-06,21.852,1.4988e-06,-0.42399,-7.5646e-06,-68.523,2.2616
21366,23.816,4.4545,0.1,8.8791e-06,88.73,5.9538e-06,38.694,7.7752e-07,-0.19829,-7.5596e-06,-62.84,2.2484
21367,23.724,4.5455,0.1,9.9738e-06,99.67,7.6472e-06,57.265,-3.4825e-09,-0.21877,-7.6701e-06,-57.823,2.2352
21368,23.908,4.5455,0.1,8.1542e-06,81.486,4.4626e-06,21.867,1.4954e-06,-0.42731,-7.5573e-06,-68.445,2.2616
21369,23.816,4.2727,0.1,8.7575e-06,87.515,5.914e-06,38.741,7.3057e-07,-0.20548,-7.4254e-06,-61.486,2.2484
21370,23.724,4.3636,0.1,9.8914e-06,98.846,7.6296e-06,57.47,-4.906e-08,-0.22443,-7.5608e-06,-56.665,2.2352
21371,23.908,4.3636,0.1,8.0585e-06,80.53,4.4309e-06,21.877,1.4621e-06,-0.43009,-7.4584e-06,-67.455,2.2617
21372,23.816,4.0909,0.1,8.5939e-06,85.879,5.8585e-06,38.781,6.689e-07,-0.21104,-7.2455e-06,-59.677,2.2485
21373,23.724,4.1818,0.1,9.7577e-06,97.509,7.5908e-06,57.655,-1.1306e-07,-0.2288,-7.3926e-06,-54.924,2.2352
21374,23.908,4.1818,0.1,7.9039e-06,78.984,4.3789e-06,21.882,1.4089e-06,-0.43256,-7.2987e-06,-65.859,2.2617
21375,23.816,3.9091,0.1,8.4126e-06,84.068,5.7961e-06,38.818,6.0103e-07,-0.21538,-7.0459e-06,-57.671,2.2485
21376,23.724,4,0.1,9.5972e-06,95.906,7.5399e-06,57.821,-1.8646e-07,-0.23228,-7.1932e-06,-52.878,2.2353
21377,23.908,4,0.1,7.7174e-06,77.121,4.3157e-06,21.886,1.345e-06,-0.43487,-7.1062e-06,-63.934,2.2617
21378,23.816,3.7273,0.1,8.235e-06,82.293,5.7343e-06,38.85,5.3455e-07,-0.21872,-6.8496e-06,-55.7,2.2485
21379,23.724,3.8182,0.1,9.4313e-06,94.248,7.4851e-06,57.967,-2.6111e-07,-0.23509,-6.9872e-06,-50.772,2.2353
21380,23.908,3.8182,0.1,7.5234e-06,75.182,4.2498e-06,21.889,1.2785e-06,-0.43705,-6.9054e-06,-61.927,2.2617
21381,23.816,3.5455,0.1,8.0785e-06,80.73,5.6795e-06,38.877,4.7586e-07,-0.22122,-6.676e-06,-53.958,2.2485
21382,23.724,3.6364,0.1,9.2778e-06,92.714,7.433e-06,58.09,-3.299e-07,-0.23733,-6.7957e-06,-48.819,2.2353
21383,23.908,3.6364,0.1,7.3424e-06,73.373,4.1882e-06,21.89,1.2163e-06,-0.43904,-6.7179e-06,-60.053,2.2617
21384,23.816,3.3636,0.1,7.957e-06,79.515,5.6367e-06,38.897,4.3014e-07,-0.22297,-6.5406e-06,-52.599,2.2485
21385,23.724,3.4545,0.1,9.1506e-06,91.443,7.3891e-06,58.187,-3.869e-07,-0.23904,-6.6363e-06,-47.195,2.2353
21386,23.908,3.4545,0.1,7.1914e-06,71.865,4.1367e-06,21.892,1.1644e-06,-0.44072,-6.5612e-06,-58.488,2.2618
21387,23.816,3.1818,0.1,7.8801e-06,78.747,5.6096e-06,38.91,4.0117e-07,-0.22401,-6.4548e-06,-51.737,2.2486
21388,23.724,3.2727,0.1,9.0602e-06,90.54,7.3575e-06,58.254,-4.2751e-07,-0.2402,-6.5225e-06,-46.036,2.2353
21389,23.908,3.2727,0.1,7.0835e-06,70.786,4.0998e-06,21.893,1.1272e-06,-0.44196,-6.449e-06,-57.367,2.2618
21390,23.816,3,0.1,7.8538e-06,78.484,5.6003e-06,38.914,3.9125e-07,-0.22436,-6.4254e-06,-51.442,2.2486
21391,23.724,3.0909,0.1,9.0134e-06,90.072,7.3411e-06,58.288,-4.4861e-07,-0.2408,-6.4633e-06,-45.433,2.2353
21392,23.908,3.0909,0.1,7.0273e-06,70.225,4.0806e-06,21.893,1.1079e-06,-0.44261,-6.3906e-06,-56.783,2.2618
21393,23.816,2.8182,0.1,7.8801e-06,78.747,5.6096e-06,38.91,4.0117e-07,-0.22401,-6.4548e-06,-51.737,2.2486
21394,23.724,2.9091,0.1,9.0134e-06,90.072,7.3411e-06,58.288,-4.4861e-07,-0.2408,-6.4633e-06,-45.433,2.2353
21395,23.908,2.9091,0.1,7.0273e-06,70.225,4.0806e-06,21.893,1.1079e-06,-0.44261,-6.3906e-06,-56.783,2.2618
21396,23.816,2.6364,0.1,7.957e-06,79.515,5.6367e-06,38.897,4.3014e-07,-0.22297,-6.5406e-06,-52.599,2.2485
21397,23.724,2.7273,0.1,9.0602e-06,90.54,7.3575e-06,58.254,-4.2751e-07,-0.2402,-6.5225e-06,-46.036,2.2353
21398,23.908,2.7273,0.1,7.0835e-06,70.786,4.0998e-06,21.893,1.1272e-06,-0.44196,-6.449e-06,-57.367,2.2618
21399,23.816,2.4545,0.1,8.0785e-06,80.73,5.6795e-06,38.877,4.7586e-07,-0.22122,-6.676e-06,-53.958,2.2485
21400,23.724,2.5455,0.1,9.1506e-06,91.443,7.3891e-06,58.187,-3.869e-07,-0.23903,-6.6363e-06,-47.195,2.2353
21401,23.908,2.5455,0.1,7.1914e-06,71.865,4.1367e-06,21.892,1.1644e-06,-0.44072,-6.5612e-06,-58.488,2.2618
21402,23.816,2.2727,0.1,8.235e-06,82.293,5.7343e-06,38.85,5.3454e-07,-0.21872,-6.8496e-06,-55.7,2.2485
21403,23.724,2.3636,0.1,9.2778e-06,92.714,7.433e-06,58.09,-3.299e-07,-0.23732,-6.7957e-06,-48.819,2.2353
21404,23.908,2.3636,0.1,7.3424e-06,73.373,4.1882e-06,21.89,1.2163e-06,-0.43904,-6.7179e-06,-60.053,2.2617
21405,23.816,2.0909,0.1,8.4126e-06,84.068,5.7961e-06,38.818,6.0103e-07,-0.21538,-7.0459e-06,-57.671,2.2485
21406,23.724,2.1818,0.1,9.4313e-06,94.248,7.4851e-06,57.967,-2.6111e-07,-0.23509,-6.9872e-06,-50.772,2.2353
21407,23.908,2.1818,0.1,7.5234e-06,75.182,4.2498e-06,21.889,1.2785e-06,-0.43705,-6.9054e-06,-61.927,2.2617
21408,23.816,1.9091,0.1,8.5939e-06,85.879,5.8585e-06,38.781,6.6889e-07,-0.21104,-7.2455e-06,-59.677,2.2485
21409,23.724,2,0.1,9.5972e-06,95.906,7.5399e-06,57.821,-1.8646e-07,-0.23228,-7.1932e-06,-52.878,2.2353
21410,23.908,2,0.1,7.7174e-06,77.121,4.3157e-06,21.886,1.345e-06,-0.43487,-7.1062e-06,-63.934,2.2617
21411,23.816,1.7273,0.1,8.7575e-06,87.515,5.914e-06,38.741,7.3057e-07,-0.20548,-7.4254e-06,-61.486,2.2484
21412,23.724,1.8182,0.1,9.7577e-06,97.509,7.5908e-06,57.655,-1.1306e-07,-0.2288,-7.3926e-06,-54.924,2.2352
21413,23.908,1.8182,0.1,7.9039e-06,78.984,4.3788e-06,21.882,1.4089e-06,-0.43256,-7.2987e-06,-65.859,2.2617
21414,23.816,1.5455,0.1,8.8791e-06,88.729,5.9538e-06,38.694,7.7752e-07,-0.19829,-7.5596e-06,-62.84,2.2484
21415,23.724,1.6364,0.1,9.8914e-06,98.846,7.6296e-06,57.47,-4.9062e-08,-0.22443,-7.5608e-06,-56.665,2.2352
21416,23.908,1.6364,0.1,8.0585e-06,80.53,4.4309e-06,21.877,1.4621e-06,-0.43009,-7.4584e-06,-67.455,2.2617
21417,23.816,1.3636,0.1,8.9311e-06,89.249,5.968e-06,38.639,8.0031e-07,-0.18889,-7.6188e-06,-63.447,2.2484
21418,23.724,1.4545,0.1,9.9738e-06,99.67,7.6472e-06,57.265,-3.4846e-09,-0.21877,-7.6701e-06,-57.823,2.2352
21419,23.908,1.4545,0.1,8.1542e-06,81.486,4.4626e-06,21.867,1.4954e-06,-0.42731,-7.5573e-06,-68.445,2.2616
21420,23.816,1.1818,0.1,8.8831e-06,88.769,5.9454e-06,38.569,7.887e-07,-0.17621,-7.5709e-06,-62.987,2.2483
21421,23.724,1.2727,0.1,9.9777e-06,99.708,7.633e-06,57.035,1.3938e-08,-0.21128,-7.6902e-06,-58.097,2.2351
21422,23.908,1.2727,0.1,8.1607e-06,81.551,4.4635e-06,21.852,1.4988e-06,-0.42399,-7.5646e-06,-68.523,2.2616
21423,23.816,1,0.1,8.7013e-06,86.953,5.8728e-06,38.47,7.3153e-07,-0.15898,-7.3798e-06,-61.104,2.2483
21424,23.724,1.0909,0.1,9.873e-06,98.662,7.5747e-06,56.766,-7.1187e-09,-0.20065,-7.5878e-06,-57.159,2.2351
21425,23.908,1.0909,0.1,8.0448e-06,80.392,4.4217e-06,21.824,1.4614e-06,-0.41923,-7.4463e-06,-67.348,2.2615
21426,23.816,0.81818,0.1,8.3478e-06,83.421,5.7341e-06,38.318,6.1674e-07,-0.13205,-7.0043e-06,-57.394,2.2482
21427,23.724,0.90909,0.1,9.6272e-06,96.206,7.4581e-06,56.435,-7.7643e-08,-0.18601,-7.326e-06,-54.647,2.235
21428,23.908,0.90909,0.1,7.7688e-06,77.634,4.3237e-06,21.773,1.3709e-06,-0.41343,-7.1637e-06,-64.539,2.2615
21429,23.816,0.63636,0.1,7.7771e-06,77.717,5.5075e-06,38.054,4.2992e-07,-0.096839,-6.3936e-06,-51.366,2.2482
21430,23.724,0.72727,0.1,9.2051e-06,91.987,7.2654e-06,55.998,-2.0873e-07,-0.15923,-6.8634e-06,-50.16,2.235
21431,23.908,0.72727,0.1,7.289e-06,72.839,4.1524e-06,21.682,1.2137e-06,-0.39845,-6.6712e-06,-59.643,2.2614
21432,23.816,0.45455,0.1,6.9324e-06,69.277,5.1601e-06,37.593,1.5856e-07,0.01403,-5.4801e-06,-42.353,2.2481
21433,23.724,0.54545,0.1,8.569e-06,85.631,6.9735e-06,55.372,-4.1338e-07,-0.12952,-6.1519e-06,-43.247,2.2349
21434,23.908,0.54545,0.1,6.5484e-06,65.438,3.8841e-06,21.498,9.7063e-07,-0.39211,-5.9085e-06,-52.079,2.2614
21435,23.816,0.27273,0.1,5.758e-06,57.54,4.6454e-06,36.728,-2.1274e-07,0.22541,-4.1826e-06,-29.602,2.248
21436,23.724,0.36364,0.1,7.6889e-06,76.836,6.5556e-06,54.504,-6.9482e-07,0.027522,-5.1412e-06,-33.38,2.2349
21437,23.908,0.36364,0.1,5.4686e-06,54.648,3.4788e-06,21.17,6.2803e-07,-0.24902,-4.788e-06,-40.943,2.2613
21438,23.724,0.18182,0.1,6.6794e-06,66.748,6.0692e-06,53.801,-1.0628e-06,0.21412,-3.882e-06,-20.968,2.2348
21439,23.908,0.18182,0.1,3.9226e-06,39.199,2.8677e-06,20.473,1.3338e-07,-0.071304,-3.1482e-06,-24.728,2.2612
21440,23.816,0.090909,0.1,4.3722e-06,43.691,3.9631e-06,34.976,-6.9658e-07,-0.034639,-2.5536e-06,-13.987,2.248
21441,23.632,5.7273,0.1,8.6119e-06,86.06,7.9354e-06,71.247,-1.5537e-06,-0.049739,-4.7878e-06,-24.35,2.2216
21442,23.54,5.8182,0.1,9.9638e-06,99.57,9.5182e-06,89.015,-2.3217e-06,0.054807,-4.7968e-06,-18.542,2.2084
21443,23.632,5.9091,0.1,7.6621e-06,76.569,7.3609e-06,69.245,-1.8825e-06,-0.20582,-3.5671e-06,-12.864,2.2215
21444,23.632,5.5455,0.1,9.4253e-06,94.188,8.3678e-06,72.275,-1.2764e-06,-0.18825,-5.8022e-06,-34.194,2.2217
21445,23.54,5.6364,0.1,1.0559e-05,105.51,9.8298e-06,89.24,-2.0541e-06,-0.050864,-5.6663e-06,-27.191,2.2084
21446,23.632,5.3636,0.1,1.0125e-05,101.18,8.7371e-06,73.36,-1.0616e-06,-0.26373,-6.6179e-06,-42.012,2.2217
21447,23.54,5.4545,0.1,1.1242e-05,112.35,1.0222e-05,90.474,-1.8406e-06,-0.15985,-6.5069e-06,-35.22,2.2085
21448,23.632,5.1818,0.1,1.0625e-05,106.18,8.9979e-06,74.179,-9.1293e-07,-0.28699,-7.1838e-06,-47.404,2.2218
21449,23.54,5.2727,0.1,1.1779e-05,117.71,1.053e-05,91.596,-1.6855e-06,-0.184,-7.1329e-06,-41.114,2.2086
21450,23.632,5,0.1,1.0947e-05,109.39,9.1701e-06,74.806,-8.2641e-07,-0.30369,-7.5339e-06,-50.701,2.2219
21451,23.54,5.0909,0.1,1.2153e-05,121.45,1.075e-05,92.528,-1.5918e-06,-0.20333,-7.5461e-06,-44.942,2.2086
21452,23.632,4.8182,0.1,1.112e-05,111.13,9.2733e-06,75.315,-7.9225e-07,-0.31367,-7.7078e-06,-52.275,2.2219
21453,23.54,4.9091,0.1,1.2382e-05,123.73,1.0897e-05,93.325,-1.5521e-06,-0.21354,-7.7751e-06,-46.971,2.2087
21454,23.632,4.6364,0.1,1.1177e-05,111.69,9.3238e-06,75.749,-8.0044e-07,-0.32073,-7.7427e-06,-52.482,2.2219
21455,23.54,4.7273,0.1,1.249e-05,124.81,1.0986e-05,94.027,-1.5578e-06,-0.2207,-7.8531e-06,-47.521,2.2087
21456,23.632,4.4545,0.1,1.1146e-05,111.38,9.3351e-06,76.132,-8.4083e-07,-0.32586,-7.6726e-06,-51.657,2.222
21457,23.54,4.5455,0.1,1.2504e-05,124.95,1.1029e-05,94.66,-1.5993e-06,-0.22567,-7.813e-06,-46.913,2.2088
21458,23.632,4.2727,0.1,1.1053e-05,110.46,9.3186e-06,76.476,-9.0361e-07,-0.32984,-7.5293e-06,-50.112,2.222
21459,23.54,4.3636,0.1,1.245e-05,124.41,1.1039e-05,95.239,-1.6668e-06,-0.22948,-7.6867e-06,-45.461,2.2088
21460,23.632,4.0909,0.1,1.0925e-05,109.17,9.2844e-06,76.786,-9.7946e-07,-0.33307,-7.3415e-06,-48.135,2.222
21461,23.54,4.1818,0.1,1.2351e-05,123.43,1.1026e-05,95.768,-1.7506e-06,-0.23259,-7.5039e-06,-43.461,2.2088
21462,23.632,3.9091,0.1,1.0781e-05,107.74,9.241e-06,77.06,-1.0598e-06,-0.33581,-7.1354e-06,-45.986,2.2221
21463,23.54,4,0.1,1.223e-05,122.21,1.0999e-05,96.245,-1.8417e-06,-0.2353,-7.292e-06,-41.187,2.2088
21464,23.632,3.7273,0.1,1.064e-05,106.33,9.1956e-06,77.295,-1.1368e-06,-0.33816,-6.9339e-06,-43.895,2.2221
21465,23.54,3.8182,0.1,1.2103e-05,120.95,1.0965e-05,96.663,-1.9317e-06,-0.23774,-7.0756e-06,-38.886,2.2089
21466,23.632,3.5455,0.1,1.0516e-05,105.09,9.1541e-06,77.487,-1.204e-06,-0.34012,-6.7564e-06,-42.059,2.2221
21467,23.54,3.6364,0.1,1.1986e-05,119.78,1.093e-05,97.014,-2.0133e-06,-0.23993,-6.8758e-06,-36.775,2.2089
21468,23.632,3.3636,0.1,1.0421e-05,104.13,9.1213e-06,77.628,-1.2559e-06,-0.34163,-6.6182e-06,-40.632,2.2221
21469,23.54,3.4545,0.1,1.1889e-05,118.81,1.09e-05,97.288,-2.0801e-06,-0.24179,-6.7102e-06,-35.03,2.2089
21470,23.632,3.1818,0.1,1.036e-05,103.53,9.1002e-06,77.716,-1.2887e-06,-0.34259,-6.5308e-06,-39.73,2.2221
21471,23.54,3.2727,0.1,1.182e-05,118.12,1.0878e-05,97.477,-2.1275e-06,-0.24317,-6.5922e-06,-33.789,2.2089
21472,23.632,3,0.1,1.034e-05,103.33,9.093e-06,77.745,-1.2999e-06,-0.34292,-6.5009e-06,-39.421,2.2221
21473,23.54,3.0909,0.1,1.1785e-05,117.77,1.0867e-05,97.573,-2.152e-06,-0.24391,-6.5309e-06,-33.145,2.2089
21474,23.632,2.8182,0.1,1.036e-05,103.53,9.1002e-06,77.716,-1.2887e-06,-0.34259,-6.5308e-06,-39.73,2.2221
21475,23.54,2.9091,0.1,1.1785e-05,117.77,1.0867e-05,97.573,-2.152e-06,-0.24391,-6.5309e-06,-33.145,2.2089
21476,23.632,2.6364,0.1,1.0421e-05,104.13,9.1213e-06,77.628,-1.2559e-06,-0.34163,-6.6182e-06,-40.632,2.2221
21477,23.54,2.7273,0.1,1.182e-05,118.12,1.0878e-05,97.477,-2.1275e-06,-0.24317,-6.5922e-06,-33.789,2.2089
21478,23.632,2.4545,0.1,1.0516e-05,105.09,9.1541e-06,77.487,-1.204e-06,-0.34012,-6.7564e-06,-42.059,2.2221
21479,23.54,2.5455,0.1,1.1889e-05,118.81,1.09e-05,97.288,-2.0801e-06,-0.24179,-6.7102e-06,-35.03,2.2089
21480,23.632,2.2727,0.1,1.064e-05,106.33,9.1956e-06,77.295,-1.1368e-06,-0.33816,-6.9339e-06,-43.895,2.2221
21481,23.54,2.3636,0.1,1.1986e-05,119.78,1.093e-05,97.014,-2.0133e-06,-0.23993,-6.8758e-06,-36.775,2.2089
21482,23.632,2.0909,0.1,1.0781e-05,107.74,9.241e-06,77.06,-1.0598e-06,-0.33581,-7.1354e-06,-45.986,2.2221
21483,23.54,2.1818,0.1,1.2103e-05,120.95,1.0965e-05,96.663,-1.9317e-06,-0.23774,-7.0756e-06,-38.886,2.2089
21484,23.632,1.9091,0.1,1.0925e-05,109.17,9.2844e-06,76.786,-9.7946e-07,-0.33307,-7.3415e-06,-48.135,2.222
21485,23.54,2,0.1,1.223e-05,122.21,1.0999e-05,96.245,-1.8417e-06,-0.2353,-7.292e-06,-41.187,2.2088
21486,23.632,1.7273,0.1,1.1053e-05,110.46,9.3186e-06,76.476,-9.0361e-07,-0.32984,-7.5293e-06,-50.112,2.222
21487,23.54,1.8182,0.1,1.2351e-05,123.43,1.1026e-05,95.768,-1.7506e-06,-0.23259,-7.5039e-06,-43.461,2.2088
21488,23.632,1.5455,0.1,1.1146e-05,111.38,9.3351e-06,76.132,-8.4084e-07,-0.32586,-7.6726e-06,-51.657,2.222
21489,23.54,1.6364,0.1,1.245e-05,124.41,1.1039e-05,95.239,-1.6668e-06,-0.22948,-7.6867e-06,-45.461,2.2088
21490,23.632,1.3636,0.1,1.1177e-05,111.69,9.3238e-06,75.749,-8.0044e-07,-0.32073,-7.7427e-06,-52.482,2.2219
21491,23.54,1.4545,0.1,1.2504e-05,124.95,1.1029e-05,94.66,-1.5993e-06,-0.22567,-7.813e-06,-46.913,2.2088
21492,23.632,1.1818,0.1,1.112e-05,111.13,9.2733e-06,75.315,-7.9225e-07,-0.31367,-7.7078e-06,-52.275,2.2219
21493,23.54,1.2727,0.1,1.249e-05,124.81,1.0986e-05,94.027,-1.5578e-06,-0.2207,-7.8531e-06,-47.52,2.2087
21494,23.632,1,0.1,1.0947e-05,109.39,9.1701e-06,74.806,-8.2641e-07,-0.30369,-7.5339e-06,-50.701,2.2219
21495,23.54,1.0909,0.1,1.2382e-05,123.73,1.0897e-05,93.325,-1.5521e-06,-0.21354,-7.7751e-06,-46.971,2.2087
21496,23.632,0.81818,0.1,1.0625e-05,106.18,8.9979e-06,74.179,-9.1293e-07,-0.287,-7.1838e-06,-47.403,2.2218
21497,23.54,0.90909,0.1,1.2153e-05,121.45,1.075e-05,92.528,-1.5918e-06,-0.20333,-7.5461e-06,-44.942,2.2086
21498,23.632,0.63636,0.1,1.0125e-05,101.18,8.7371e-06,73.36,-1.0616e-06,-0.26374,-6.6179e-06,-42.012,2.2217
21499,23.54,0.72727,0.1,1.1779e-05,117.71,1.053e-05,91.596,-1.6855e-06,-0.184,-7.1329e-06,-41.114,2.2086
21500,23.632,0.45455,0.1,9.4253e-06,94.188,8.3678e-06,72.275,-1.2764e-06,-0.18825,-5.8022e-06,-34.194,2.2217
21501,23.54,0.54545,0.1,1.1242e-05,112.35,1.0222e-05,90.475,-1.8406e-06,-0.15984,-6.5069e-06,-35.22,2.2085
21502,23.632,0.27273,0.1,8.6119e-06,86.06,7.9354e-06,71.247,-1.5537e-06,-0.04974,-4.7878e-06,-24.35,2.2216
21503,23.54,0.36364,0.1,1.0559e-05,105.51,9.8298e-06,89.24,-2.0541e-06,-0.050864,-5.6663e-06,-27.191,2.2084
21504,23.54,0.18182,0.1,9.9638e-06,99.57,9.5182e-06,89.015,-2.3217e-06,0.054807,-4.7968e-06,-18.542,2.2084
21505,23.632,0.090909,0.1,7.6621e-06,76.569,7.3609e-06,69.245,-1.8825e-06,-0.20582,-3.5671e-06,-12.864,2.2215
21506,23.448,5.7273,0.1,1.1857e-05,118.49,1.136e-05,106.61,-2.8239e-06,0.040773,-5.6209e-06,-20.975,2.1952
21507,23.356,5.8182,0.1,1.3396e-05,133.87,1.3026e-05,124.58,-3.5469e-06,0.059665,-5.8168e-06,-16.996,2.1819
21508,23.448,5.9091,0.1,1.1101e-05,110.93,1.085e-05,104.48,-3.0667e-06,-0.084481,-4.6353e-06,-11.87,2.1951
21509,23.448,5.5455,0.1,1.2391e-05,123.83,1.1672e-05,107.35,-2.6211e-06,-0.043045,-6.3558e-06,-28.104,2.1952
21510,23.356,5.6364,0.1,1.3725e-05,137.16,1.3193e-05,124.31,-3.3507e-06,0.0038352,-6.3897e-06,-22.83,2.182
21511,23.448,5.3636,0.1,1.2939e-05,129.3,1.201e-05,108.68,-2.4668e-06,-0.097317,-7.0153e-06,-34.273,2.1953
21512,23.356,5.4545,0.1,1.4235e-05,142.25,1.3522e-05,125.57,-3.201e-06,-0.077789,-7.0336e-06,-28.874,2.1821
21513,23.448,5.1818,0.1,1.3363e-05,133.54,1.2281e-05,109.94,-2.3665e-06,-0.11666,-7.4919e-06,-38.627,2.1954
21514,23.356,5.2727,0.1,1.4675e-05,146.65,1.3818e-05,127.01,-3.1001e-06,-0.098734,-7.537e-06,-33.436,2.1821
21515,23.448,5,0.1,1.3652e-05,136.43,1.2477e-05,111.05,-2.3196e-06,-0.12936,-7.7855e-06,-41.198,2.1954
21516,23.356,5.0909,0.1,1.5003e-05,149.93,1.4052e-05,128.4,-3.0525e-06,-0.11452,-7.8703e-06,-36.313,2.1822
21517,23.448,4.8182,0.1,1.3821e-05,138.11,1.2611e-05,112.04,-2.3199e-06,-0.13683,-7.9193e-06,-42.209,2.1955
21518,23.356,4.9091,0.1,1.5218e-05,152.08,1.4226e-05,129.71,-3.0537e-06,-0.12283,-8.0428e-06,-37.609,2.1822
21519,23.448,4.6364,0.1,1.389e-05,138.8,1.2693e-05,112.95,-2.3589e-06,-0.14201,-7.9229e-06,-41.948,2.1955
21520,23.356,4.7273,0.1,1.5335e-05,153.24,1.4347e-05,130.93,-3.0966e-06,-0.12846,-8.0773e-06,-37.552,2.1823
21521,23.448,4.4545,0.1,1.3883e-05,138.74,1.2735e-05,113.78,-2.4275e-06,-0.14576,-7.8269e-06,-40.715,2.1956
21522,23.356,4.5455,0.1,1.5372e-05,153.61,1.4425e-05,132.09,-3.1725e-06,-0.13228,-8.0018e-06,-36.418,2.1823
21523,23.448,4.2727,0.1,1.3824e-05,138.15,1.2749e-05,114.55,-2.516e-06,-0.14879,-7.6614e-06,-38.809,2.1956
21524,23.356,4.3636,0.1,1.535e-05,153.4,1.447e-05,133.17,-3.2719e-06,-0.13524,-7.8453e-06,-34.499,2.1824
21525,23.448,4.0909,0.1,1.3733e-05,137.24,1.2743e-05,115.24,-2.6151e-06,-0.15144,-7.4545e-06,-36.513,2.1956
21526,23.356,4.1818,0.1,1.5291e-05,152.81,1.449e-05,134.17,-3.385e-06,-0.13779,-7.6366e-06,-32.083,2.1824
21527,23.448,3.9091,0.1,1.3629e-05,136.19,1.2725e-05,115.87,-2.7159e-06,-0.15392,-7.2323e-06,-34.088,2.1956
21528,23.356,4,0.1,1.5211e-05,152.01,1.4495e-05,135.08,-3.5025e-06,-0.14024,-7.4026e-06,-29.444,2.1824
21529,23.448,3.7273,0.1,1.3526e-05,135.16,1.2702e-05,116.4,-2.8104e-06,-0.15628,-7.0175e-06,-31.766,2.1957
21530,23.356,3.8182,0.1,1.5126e-05,151.15,1.4489e-05,135.89,-3.6156e-06,-0.14274,-7.1677e-06,-26.832,2.1825
21531,23.448,3.5455,0.1,1.3435e-05,134.25,1.2679e-05,116.83,-2.8917e-06,-0.15847,-6.8296e-06,-29.746,2.1957
21532,23.356,3.6364,0.1,1.5046e-05,150.35,1.4478e-05,136.56,-3.7163e-06,-0.14526,-6.9532e-06,-24.466,2.1825
21533,23.448,3.3636,0.1,1.3364e-05,133.55,1.2659e-05,117.15,-2.9539e-06,-0.16029,-6.6841e-06,-28.187,2.1957
21534,23.356,3.4545,0.1,1.4979e-05,149.69,1.4467e-05,137.09,-3.798e-06,-0.14763,-6.7766e-06,-22.528,2.1825
21535,23.448,3.1818,0.1,1.332e-05,133.11,1.2647e-05,117.35,-2.993e-06,-0.16153,-6.5922e-06,-27.204,2.1957
21536,23.356,3.2727,0.1,1.4932e-05,149.22,1.4459e-05,137.45,-3.8555e-06,-0.14954,-6.6513e-06,-21.156,2.1825
21537,23.448,3,0.1,1.3305e-05,132.96,1.2642e-05,117.42,-3.0063e-06,-0.16196,-6.5608e-06,-26.869,2.1957
21538,23.356,3.0909,0.1,1.4908e-05,148.98,1.4454e-05,137.64,-3.8851e-06,-0.15063,-6.5864e-06,-20.447,2.1825
21539,23.448,2.8182,0.1,1.332e-05,133.11,1.2647e-05,117.35,-2.993e-06,-0.16153,-6.5922e-06,-27.204,2.1957
21540,23.356,2.9091,0.1,1.4908e-05,148.98,1.4454e-05,137.64,-3.8851e-06,-0.15062,-6.5864e-06,-20.447,2.1825
21541,23.448,2.6364,0.1,1.3364e-05,133.55,1.2659e-05,117.15,-2.9539e-06,-0.16029,-6.6841e-06,-28.187,2.1957
21542,23.356,2.7273,0.1,1.4932e-05,149.22,1.4459e-05,137.45,-3.8555e-06,-0.14954,-6.6513e-06,-21.156,2.1825
21543,23.448,2.4545,0.1,1.3435e-05,134.25,1.2679e-05,116.83,-2.8917e-06,-0.15847,-6.8296e-06,-29.746,2.1957
21544,23.356,2.5455,0.1,1.4979e-05,149.69,1.4467e-05,137.09,-3.798e-06,-0.14763,-6.7766e-06,-22.528,2.1825
21545,23.448,2.2727,0.1,1.3526e-05,135.16,1.2702e-05,116.4,-2.8104e-06,-0.15629,-7.0175e-06,-31.766,2.1957
21546,23.356,2.3636,0.1,1.5046e-05,150.35,1.4478e-05,136.56,-3.7163e-06,-0.14526,-6.9532e-06,-24.466,2.1825
21547,23.448,2.0909,0.1,1.3629e-05,136.19,1.2725e-05,115.87,-2.7159e-06,-0.15392,-7.2323e-06,-34.088,2.1956
21548,23.356,2.1818,0.1,1.5126e-05,151.15,1.4489e-05,135.89,-3.6156e-06,-0.14273,-7.1677e-06,-26.832,2.1825
21549,23.448,1.9091,0.1,1.3733e-05,137.24,1.2743e-05,115.24,-2.6151e-06,-0.15144,-7.4545e-06,-36.513,2.1956
21550,23.356,2,0.1,1.5211e-05,152.01,1.4495e-05,135.08,-3.5025e-06,-0.14024,-7.4026e-06,-29.444,2.1824
21551,23.448,1.7273,0.1,1.3824e-05,138.15,1.2749e-05,114.55,-2.516e-06,-0.14879,-7.6614e-06,-38.809,2.1956
21552,23.356,1.8182,0.1,1.5291e-05,152.81,1.449e-05,134.17,-3.385e-06,-0.13779,-7.6366e-06,-32.083,2.1824
21553,23.448,1.5455,0.1,1.3883e-05,138.74,1.2735e-05,113.78,-2.4275e-06,-0.14577,-7.8269e-06,-40.715,2.1956
21554,23.356,1.6364,0.1,1.535e-05,153.4,1.447e-05,133.17,-3.2719e-06,-0.13524,-7.8453e-06,-34.498,2.1824
21555,23.448,1.3636,0.1,1.389e-05,138.8,1.2693e-05,112.95,-2.3589e-06,-0.14201,-7.9229e-06,-41.948,2.1955
21556,23.356,1.4545,0.1,1.5372e-05,153.61,1.4425e-05,132.09,-3.1725e-06,-0.13228,-8.0018e-06,-36.418,2.1823
21557,23.448,1.1818,0.1,1.3821e-05,138.11,1.2611e-05,112.04,-2.3199e-06,-0.13683,-7.9193e-06,-42.209,2.1955
21558,23.356,1.2727,0.1,1.5335e-05,153.24,1.4347e-05,130.93,-3.0966e-06,-0.12846,-8.0773e-06,-37.552,2.1823
21559,23.448,1,0.1,1.3652e-05,136.43,1.2477e-05,111.05,-2.3196e-06,-0.12936,-7.7855e-06,-41.198,2.1954
21560,23.356,1.0909,0.1,1.5218e-05,152.08,1.4226e-05,129.71,-3.0537e-06,-0.12283,-8.0428e-06,-37.609,2.1822
21561,23.448,0.81818,0.1,1.3363e-05,133.54,1.2281e-05,109.94,-2.3665e-06,-0.11666,-7.4919e-06,-38.627,2.1954
21562,23.356,0.90909,0.1,1.5003e-05,149.93,1.4052e-05,128.4,-3.0525e-06,-0.11452,-7.8703e-06,-36.313,2.1822
21563,23.448,0.63636,0.1,1.2939e-05,129.3,1.201e-05,108.68,-2.4668e-06,-0.097316,-7.0153e-06,-34.273,2.1953
21564,23.356,0.72727,0.1,1.4675e-05,146.65,1.3818e-05,127.01,-3.1001e-06,-0.098734,-7.537e-06,-33.436,2.1821
21565,23.448,0.45455,0.1,1.2391e-05,123.83,1.1672e-05,107.35,-2.6211e-06,-0.043044,-6.3558e-06,-28.104,2.1952
21566,23.356,0.54545,0.1,1.4235e-05,142.25,1.3522e-05,125.57,-3.201e-06,-0.077787,-7.0336e-06,-28.874,2.1821
21567,23.448,0.27273,0.1,1.1857e-05,118.49,1.136e-05,106.61,-2.8239e-06,0.040774,-5.6209e-06,-20.975,2.1952
21568,23.356,0.36364,0.1,1.3725e-05,137.16,1.3193e-05,124.31,-3.3507e-06,0.0038362,-6.3897e-06,-22.83,2.182
21569,23.356,0.18182,0.1,1.3396e-05,133.87,1.3026e-05,124.58,-3.5469e-06,0.059663,-5.8168e-06,-16.996,2.1819
21570,23.448,0.090909,0.1,1.1101e-05,110.93,1.085e-05,104.48,-3.0667e-06,-0.08448,-4.6353e-06,-11.87,2.1951
21571,23.264,5.7273,0.1,1.5211e-05,152.01,1.4812e-05,141.92,-4.0735e-06,0.023852,-6.5383e-06,-18.496,2.1687
21572,23.172,5.8182,0.1,1.6834e-05,168.22,1.651e-05,159.8,-4.7528e-06,0.038381,-6.8554e-06,-15.759,2.1555
21573,23.264,5.9091,0.1,1.4567e-05,145.57,1.4346e-05,139.69,-4.2542e-06,-0.068931,-5.7184e-06,-11.07,2.1687
21574,23.264,5.5455,0.1,1.5562e-05,155.51,1.5028e-05,142.42,-3.932e-06,-0.041234,-7.0509e-06,-23.475,2.1688
21575,23.172,5.6364,0.1,1.7e-05,169.88,1.6582e-05,159.25,-4.6125e-06,0.0040782,-7.2171e-06,-19.565,2.1556
21576,23.264,5.3636,0.1,1.5983e-05,159.72,1.5322e-05,143.85,-3.8354e-06,-0.086969,-7.5469e-06,-27.974,2.1689
21577,23.172,5.4545,0.1,1.7379e-05,173.67,1.6851e-05,160.51,-4.5198e-06,-0.063249,-7.6826e-06,-23.827,2.1556
21578,23.264,5.1818,0.1,1.6338e-05,163.27,1.5585e-05,145.45,-3.7871e-06,-0.10327,-7.9107e-06,-31.087,2.1689
21579,23.172,5.2727,0.1,1.7738e-05,177.26,1.7124e-05,162.2,-4.4736e-06,-0.080839,-8.0523e-06,-26.969,2.1557
21580,23.264,5,0.1,1.6599e-05,165.88,1.5799e-05,147.05,-3.7874e-06,-0.11425,-8.1248e-06,-32.704,2.169
21581,23.172,5.0909,0.1,1.8027e-05,180.14,1.7365e-05,164.02,-4.4775e-06,-0.094453,-8.2872e-06,-28.719,2.1558
21582,23.264,4.8182,0.1,1.6766e-05,167.55,1.5961e-05,148.59,-3.8312e-06,-0.12054,-8.199e-06,-32.939,2.1691
21583,23.172,4.9091,0.1,1.8233e-05,182.21,1.7563e-05,165.88,-4.5274e-06,-0.10149,-8.385e-06,-29.086,2.1558
21584,23.264,4.6364,0.1,1.6853e-05,168.42,1.6078e-05,150.07,-3.9109e-06,-0.12469,-8.1551e-06,-32.013,2.1691
21585,23.172,4.7273,0.1,1.8363e-05,183.51,1.7719e-05,167.72,-4.6168e-06,-0.10595,-8.3599e-06,-28.23,2.1559
21586,23.264,4.4545,0.1,1.6877e-05,168.66,1.6159e-05,151.47,-4.0177e-06,-0.12761,-8.0195e-06,-30.196,2.1691
21587,23.172,4.5455,0.1,1.843e-05,184.17,1.7838e-05,169.51,-4.7371e-06,-0.10872,-8.2349e-06,-26.39,2.1559
21588,23.264,4.2727,0.1,1.6857e-05,168.45,1.6211e-05,152.79,-4.1417e-06,-0.12998,-7.8202e-06,-27.769,2.1692
21589,23.172,4.3636,0.1,1.8448e-05,184.36,1.7926e-05,171.23,-4.8785e-06,-0.1107,-8.0364e-06,-23.838,2.156
21590,23.264,4.0909,0.1,1.6809e-05,167.97,1.6242e-05,154.01,-4.2732e-06,-0.13222,-7.5845e-06,-25.012,2.1692
21591,23.172,4.1818,0.1,1.8435e-05,184.22,1.799e-05,172.86,-5.0307e-06,-0.11242,-7.7917e-06,-20.858,2.156
21592,23.264,3.9091,0.1,1.6748e-05,167.36,1.6259e-05,155.11,-4.4029e-06,-0.1346,-7.338e-06,-22.188,2.1692
21593,23.172,4,0.1,1.8403e-05,183.9,1.8036e-05,174.35,-5.1837e-06,-0.11428,-7.5273e-06,-17.724,2.156
21594,23.264,3.7273,0.1,1.6685e-05,166.74,1.6266e-05,156.06,-4.5221e-06,-0.13723,-7.1035e-06,-19.532,2.1693
21595,23.172,3.8182,0.1,1.8364e-05,183.51,1.8069e-05,175.68,-5.3278e-06,-0.11659,-7.2675e-06,-14.69,2.156
21596,23.264,3.5455,0.1,1.663e-05,166.18,1.6268e-05,156.83,-4.6233e-06,-0.14006,-6.9003e-06,-17.248,2.1693
21597,23.172,3.6364,0.1,1.8326e-05,183.13,1.8091e-05,176.79,-5.4546e-06,-0.11955,-7.0333e-06,-11.981,2.1561
21598,23.264,3.3636,0.1,1.6587e-05,165.75,1.6267e-05,157.4,-4.7003e-06,-0.14275,-6.7438e-06,-15.497,2.1693
21599,23.172,3.4545,0.1,1.8294e-05,182.82,1.8107e-05,177.67,-5.5566e-06,-0.12314,-6.842e-06,-9.7816,2.1561
21600,23.264,3.1818,0.1,1.656e-05,165.48,1.6266e-05,157.75,-4.7484e-06,-0.14476,-6.6454e-06,-14.399,2.1693
21601,23.172,3.2727,0.1,1.8272e-05,182.59,1.8116e-05,178.28,-5.628e-06,-0.12682,-6.707e-06,-8.2339,2.1561
21602,23.264,3,0.1,1.6551e-05,165.39,1.6266e-05,157.87,-4.7647e-06,-0.14552,-6.6119e-06,-14.024,2.1693
21603,23.172,3.0909,0.1,1.826e-05,182.48,1.8121e-05,178.59,-5.6648e-06,-0.12931,-6.6372e-06,-7.4353,2.1561
21604,23.264,2.8182,0.1,1.656e-05,165.48,1.6266e-05,157.75,-4.7484e-06,-0.14476,-6.6454e-06,-14.399,2.1693
21605,23.172,2.9091,0.1,1.826e-05,182.48,1.8121e-05,178.59,-5.6648e-06,-0.12931,-6.6372e-06,-7.4353,2.1561
21606,23.264,2.6364,0.1,1.6587e-05,165.75,1.6267e-05,157.4,-4.7003e-06,-0.14275,-6.7438e-06,-15.497,2.1693
21607,23.172,2.7273,0.1,1.8272e-05,182.59,1.8116e-05,178.28,-5.628e-06,-0.12682,-6.707e-06,-8.2339,2.1561
21608,23.264,2.4545,0.1,1.663e-05,166.18,1.6268e-05,156.83,-4.6233e-06,-0.14005,-6.9003e-06,-17.248,2.1693
21609,23.172,2.5455,0.1,1.8294e-05,182.82,1.8107e-05,177.67,-5.5566e-06,-0.12314,-6.842e-06,-9.7816,2.1561
21610,23.264,2.2727,0.1,1.6685e-05,166.74,1.6266e-05,156.06,-4.5221e-06,-0.13723,-7.1035e-06,-19.532,2.1693
21611,23.172,2.3636,0.1,1.8326e-05,183.13,1.8091e-05,176.79,-5.4546e-06,-0.11955,-7.0333e-06,-11.981,2.1561
21612,23.264,2.0909,0.1,1.6748e-05,167.36,1.6259e-05,155.11,-4.4029e-06,-0.1346,-7.338e-06,-22.188,2.1692
21613,23.172,2.1818,0.1,1.8364e-05,183.51,1.8069e-05,175.68,-5.3278e-06,-0.11659,-7.2675e-06,-14.69,2.156
21614,23.264,1.9091,0.1,1.6809e-05,167.97,1.6242e-05,154.01,-4.2732e-06,-0.13222,-7.5845e-06,-25.012,2.1692
21615,23.172,2,0.1,1.8403e-05,183.9,1.8036e-05,174.35,-5.1837e-06,-0.11428,-7.5273e-06,-17.724,2.156
21616,23.264,1.7273,0.1,1.6857e-05,168.45,1.6211e-05,152.79,-4.1417e-06,-0.12998,-7.8202e-06,-27.769,2.1692
21617,23.172,1.8182,0.1,1.8435e-05,184.22,1.799e-05,172.86,-5.0307e-06,-0.11242,-7.7917e-06,-20.858,2.156
21618,23.264,1.5455,0.1,1.6877e-05,168.66,1.6159e-05,151.47,-4.0177e-06,-0.12761,-8.0195e-06,-30.196,2.1691
21619,23.172,1.6364,0.1,1.8448e-05,184.36,1.7926e-05,171.23,-4.8785e-06,-0.1107,-8.0364e-06,-23.838,2.156
21620,23.264,1.3636,0.1,1.6853e-05,168.42,1.6078e-05,150.07,-3.911e-06,-0.12469,-8.1551e-06,-32.013,2.1691
21621,23.172,1.4545,0.1,1.843e-05,184.17,1.7838e-05,169.51,-4.7371e-06,-0.10872,-8.2349e-06,-26.39,2.1559
21622,23.264,1.1818,0.1,1.6766e-05,167.55,1.5961e-05,148.59,-3.8312e-06,-0.12054,-8.199e-06,-32.939,2.1691
21623,23.172,1.2727,0.1,1.8363e-05,183.51,1.7719e-05,167.72,-4.6168e-06,-0.10595,-8.3599e-06,-28.23,2.1559
21624,23.264,1,0.1,1.6599e-05,165.88,1.5799e-05,147.05,-3.7874e-06,-0.11425,-8.1248e-06,-32.704,2.169
21625,23.172,1.0909,0.1,1.8233e-05,182.21,1.7563e-05,165.88,-4.5274e-06,-0.10149,-8.385e-06,-29.086,2.1558
21626,23.264,0.81818,0.1,1.6338e-05,163.27,1.5585e-05,145.45,-3.7871e-06,-0.10327,-7.9107e-06,-31.087,2.1689
21627,23.172,0.90909,0.1,1.8027e-05,180.14,1.7365e-05,164.02,-4.4775e-06,-0.094453,-8.2872e-06,-28.719,2.1558
21628,23.264,0.63636,0.1,1.5983e-05,159.72,1.5322e-05,143.85,-3.8354e-06,-0.086968,-7.5469e-06,-27.974,2.1689
21629,23.172,0.72727,0.1,1.7738e-05,177.26,1.7124e-05,162.2,-4.4736e-06,-0.08084,-8.0523e-06,-26.969,2.1557
21630,23.264,0.45455,0.1,1.5562e-05,155.51,1.5028e-05,142.42,-3.932e-06,-0.041232,-7.0509e-06,-23.475,2.1688
21631,23.172,0.54545,0.1,1.7379e-05,173.67,1.6851e-05,160.51,-4.5198e-06,-0.063244,-7.6826e-06,-23.827,2.1556
21632,23.264,0.27273,0.1,1.5211e-05,152.01,1.4812e-05,141.92,-4.0736e-06,0.02385,-6.5383e-06,-18.495,2.1687
21633,23.172,0.36364,0.1,1.7e-05,169.88,1.6582e-05,159.25,-4.6125e-06,0.0040777,-7.2171e-06,-19.565,2.1556
21634,23.172,0.18182,0.1,1.6834e-05,168.22,1.651e-05,159.8,-4.7529e-06,0.038376,-6.8554e-06,-15.759,2.1555
21635,23.264,0.090909,0.1,1.4567e-05,145.57,1.4346e-05,139.69,-4.2542e-06,-0.068932,-5.7184e-06,-11.07,2.1687
21636,23.08,5.7273,0.1,1.8576e-05,185.63,1.824e-05,176.83,-5.2911e-06,0.024452,-7.4939e-06,-16.527,2.1423
21637,22.988,5.8182,0.1,2.0226e-05,202.12,1.9935e-05,194.37,-5.9294e-06,0.027571,-7.893e-06,-14.726,2.1291
21638,23.08,5.9091,0.1,1.8002e-05,179.89,1.7803e-05,174.47,-5.4243e-06,-0.048267,-6.7963e-06,-10.358,2.1423
21639,23.08,5.5455,0.1,1.8805e-05,187.92,1.8389e-05,177.23,-5.2012e-06,-0.024192,-7.8327e-06,-19.796,2.1424
21640,22.988,5.6364,0.1,2.0291e-05,202.77,1.9948e-05,193.74,-5.8355e-06,0.0072603,-8.0993e-06,-17.002,2.1292
21641,23.08,5.3636,0.1,1.9133e-05,191.2,1.8644e-05,178.78,-5.1587e-06,-0.061757,-8.1788e-06,-22.753,2.1425
21642,22.988,5.4545,0.1,2.058e-05,205.66,2.0173e-05,195.06,-5.7947e-06,-0.047657,-8.4145e-06,-19.732,2.1292
21643,23.08,5.1818,0.1,1.9434e-05,194.2,1.8898e-05,180.72,-5.1646e-06,-0.075727,-8.4232e-06,-24.56,2.1425
21644,22.988,5.2727,0.1,2.0878e-05,208.64,2.0429e-05,197.04,-5.8034e-06,-0.062552,-8.6549e-06,-21.488,2.1293
21645,23.08,5,0.1,1.9674e-05,196.6,1.9126e-05,182.83,-5.2179e-06,-0.084935,-8.544e-06,-25.075,2.1426
21646,22.988,5.0909,0.1,2.1139e-05,211.25,2.0678e-05,199.34,-5.8631e-06,-0.073919,-8.784e-06,-22.02,2.1294
21647,23.08,4.8182,0.1,1.9847e-05,198.33,1.9319e-05,184.99,-5.3134e-06,-0.089831,-8.5437e-06,-24.361,2.1426
21648,22.988,4.9091,0.1,2.1347e-05,213.32,2.0903e-05,201.83,-5.9691e-06,-0.079306,-8.7952e-06,-21.314,2.1294
21649,23.08,4.6364,0.1,1.9959e-05,199.45,1.9477e-05,187.15,-5.4433e-06,-0.092597,-8.4383e-06,-22.596,2.1427
21650,22.988,4.7273,0.1,2.1499e-05,214.84,2.11e-05,204.4,-6.1141e-06,-0.081946,-8.6981e-06,-19.497,2.1295
21651,23.08,4.4545,0.1,2.0021e-05,200.07,1.9604e-05,189.27,-5.5982e-06,-0.094042,-8.2509e-06,-20.025,2.1427
21652,22.988,4.5455,0.1,2.1604e-05,215.89,2.1269e-05,206.98,-6.2889e-06,-0.082474,-8.5119e-06,-16.786,2.1295
21653,23.08,4.2727,0.1,2.0047e-05,200.33,1.9705e-05,191.3,-5.7677e-06,-0.0948,-8.0075e-06,-16.923,2.1428
21654,22.988,4.3636,0.1,2.1673e-05,216.58,2.1412e-05,209.51,-6.4826e-06,-0.081349,-8.2612e-06,-13.445,2.1296
21655,23.08,4.0909,0.1,2.005e-05,200.37,1.9784e-05,193.19,-5.9413e-06,-0.095263,-7.7344e-06,-13.568,2.1428
21656,22.988,4.1818,0.1,2.1716e-05,217.01,2.1532e-05,211.93,-6.6839e-06,-0.078182,-7.9725e-06,-9.7603,2.1296
21657,23.08,3.9091,0.1,2.0041e-05,200.27,1.9846e-05,194.92,-6.1085e-06,-0.095727,-7.457e-06,-10.228,2.1428
21658,22.988,4,0.1,2.1743e-05,217.28,2.1633e-05,214.17,-6.881e-06,-0.070525,-7.6721e-06,-6.0142,2.1296
21659,23.08,3.7273,0.1,2.0027e-05,200.13,1.9894e-05,196.42,-6.2599e-06,-0.096468,-7.1978e-06,-7.1434,2.1429
21660,22.988,3.8182,0.1,2.1761e-05,217.46,2.1717e-05,216.18,-7.0611e-06,-0.04139,-7.3864e-06,-2.4856,2.1296
21661,23.08,3.5455,0.1,2.0013e-05,199.99,1.993e-05,197.64,-6.3872e-06,-0.097905,-6.9759e-06,-4.5216,2.1429
21662,22.988,3.6364,0.1,2.1774e-05,217.59,2.1784e-05,217.89,-7.1058e-06,0.82326,-7.2445e-06,-0.21852,2.1297
21663,23.08,3.3636,0.1,2.0002e-05,199.88,1.9956e-05,198.55,-6.4835e-06,-0.10104,-6.8063e-06,-2.5266,2.1429
21664,22.988,3.4545,0.1,2.1785e-05,217.7,2.1836e-05,219.24,-6.9108e-06,3.2468,-7.3597e-06,-0.12551,2.1297
21665,23.08,3.1818,0.1,1.9995e-05,199.81,1.9971e-05,199.12,-6.5441e-06,-0.10833,-6.6995e-06,-1.276,2.1429
21666,22.988,3.2727,0.1,2.1792e-05,217.77,2.1871e-05,220.17,-6.7672e-06,4.9927,-7.4468e-06,-0.11356,2.1297
21667,23.08,3,0.1,1.9993e-05,199.79,1.9976e-05,199.31,-6.5654e-06,-0.11643,-6.6624e-06,-0.84538,2.1429
21668,22.988,3.0909,0.1,2.1797e-05,217.81,2.1889e-05,220.64,-6.693e-06,5.8921,-7.4919e-06,-0.11017,2.1297
21669,23.08,2.8182,0.1,1.9995e-05,199.81,1.9971e-05,199.12,-6.5441e-06,-0.10834,-6.6995e-06,-1.276,2.1429
21670,22.988,2.9091,0.1,2.1797e-05,217.81,2.1889e-05,220.64,-6.693e-06,5.8921,-7.4919e-06,-0.11017,2.1297
21671,23.08,2.6364,0.1,2.0002e-05,199.88,1.9956e-05,198.55,-6.4835e-06,-0.10104,-6.8063e-06,-2.5266,2.1429
21672,22.988,2.7273,0.1,2.1792e-05,217.77,2.1871e-05,220.17,-6.7672e-06,4.9927,-7.4468e-06,-0.11356,2.1297
21673,23.08,2.4545,0.1,2.0013e-05,199.99,1.993e-05,197.64,-6.3872e-06,-0.097903,-6.9759e-06,-4.5216,2.1429
21674,22.988,2.5455,0.1,2.1785e-05,217.7,2.1836e-05,219.24,-6.9108e-06,3.2468,-7.3597e-06,-0.12551,2.1297
21675,23.08,2.2727,0.1,2.0027e-05,200.13,1.9894e-05,196.42,-6.2599e-06,-0.096467,-7.1978e-06,-7.1434,2.1429
21676,22.988,2.3636,0.1,2.1774e-05,217.59,2.1784e-05,217.89,-7.1058e-06,0.82325,-7.2445e-06,-0.21851,2.1297
21677,23.08,2.0909,0.1,2.0041e-05,200.27,1.9846e-05,194.92,-6.1085e-06,-0.095727,-7.457e-06,-10.228,2.1428
21678,22.988,2.1818,0.1,2.1761e-05,217.46,2.1717e-05,216.18,-7.0611e-06,-0.041391,-7.3864e-06,-2.4856,2.1296
21679,23.08,1.9091,0.1,2.005e-05,200.37,1.9784e-05,193.19,-5.9413e-06,-0.095264,-7.7344e-06,-13.568,2.1428
21680,22.988,2,0.1,2.1743e-05,217.28,2.1633e-05,214.17,-6.881e-06,-0.070525,-7.6721e-06,-6.0142,2.1296
21681,23.08,1.7273,0.1,2.0047e-05,200.34,1.9705e-05,191.3,-5.7677e-06,-0.094801,-8.0075e-06,-16.923,2.1428
21682,22.988,1.8182,0.1,2.1716e-05,217.01,2.1532e-05,211.93,-6.6839e-06,-0.078183,-7.9725e-06,-9.7603,2.1296
21683,23.08,1.5455,0.1,2.0021e-05,200.07,1.9604e-05,189.27,-5.5982e-06,-0.094043,-8.2509e-06,-20.025,2.1427
21684,22.988,1.6364,0.1,2.1673e-05,216.58,2.1412e-05,209.51,-6.4826e-06,-0.08135,-8.2612e-06,-13.445,2.1296
21685,23.08,1.3636,0.1,1.9959e-05,199.45,1.9477e-05,187.15,-5.4433e-06,-0.092598,-8.4383e-06,-22.596,2.1427
21686,22.988,1.4545,0.1,2.1604e-05,215.89,2.1269e-05,206.98,-6.2889e-06,-0.082475,-8.5119e-06,-16.786,2.1295
21687,23.08,1.1818,0.1,1.9847e-05,198.33,1.9319e-05,184.99,-5.3134e-06,-0.08983,-8.5437e-06,-24.361,2.1426
21688,22.988,1.2727,0.1,2.1499e-05,214.84,2.11e-05,204.4,-6.1141e-06,-0.081948,-8.698e-06,-19.497,2.1295
21689,23.08,1,0.1,1.9674e-05,196.6,1.9126e-05,182.83,-5.2179e-06,-0.084935,-8.544e-06,-25.075,2.1426
21690,22.988,1.0909,0.1,2.1347e-05,213.32,2.0903e-05,201.83,-5.9691e-06,-0.079305,-8.7952e-06,-21.314,2.1294
21691,23.08,0.81818,0.1,1.9434e-05,194.2,1.8898e-05,180.72,-5.1646e-06,-0.075728,-8.4232e-06,-24.56,2.1425
21692,22.988,0.90909,0.1,2.1139e-05,211.25,2.0678e-05,199.34,-5.8631e-06,-0.07392,-8.784e-06,-22.02,2.1294
21693,23.08,0.63636,0.1,1.9133e-05,191.2,1.8644e-05,178.78,-5.1587e-06,-0.061754,-8.1788e-06,-22.753,2.1425
21694,22.988,0.72727,0.1,2.0878e-05,208.64,2.0429e-05,197.04,-5.8034e-06,-0.062552,-8.6549e-06,-21.487,2.1293
21695,23.08,0.45455,0.1,1.8805e-05,187.92,1.8389e-05,177.23,-5.2012e-06,-0.02419,-7.8327e-06,-19.796,2.1424
21696,22.988,0.54545,0.1,2.058e-05,205.66,2.0173e-05,195.06,-5.7947e-06,-0.047655,-8.4145e-06,-19.732,2.1292
21697,23.08,0.27273,0.1,1.8576e-05,185.63,1.824e-05,176.83,-5.2911e-06,0.024449,-7.4939e-06,-16.527,2.1423
21698,22.988,0.36364,0.1,2.0291e-05,202.77,1.9948e-05,193.74,-5.8355e-06,0.007261,-8.0993e-06,-17.002,2.1292
21699,22.988,0.18182,0.1,2.0226e-05,202.12,1.9935e-05,194.37,-5.9294e-06,0.02757,-7.893e-06,-14.726,2.1291
21700,23.08,0.090909,0.1,1.8002e-05,179.89,1.7803e-05,174.47,-5.4243e-06,-0.048267,-6.7963e-06,-10.358,2.1423
21701,22.896,5.7273,0.1,2.1901e-05,218.85,2.1608e-05,211.01,-6.4729e-06,0.017603,-8.4639e-06,-14.942,2.1159
21702,22.804,5.8182,0.1,2.3538e-05,235.21,2.3271e-05,227.97,-7.0683e-06,0.017527,-8.9179e-06,-13.88,2.1027
21703,22.896,5.9091,0.1,2.137e-05,213.55,2.1187e-05,208.49,-6.5673e-06,-0.040523,-7.8589e-06,-9.7452,2.1158
21704,22.896,5.5455,0.1,2.2052e-05,220.37,2.1718e-05,211.47,-6.4295e-06,-0.020328,-8.6664e-06,-16.828,2.116
21705,22.804,5.6364,0.1,2.3543e-05,235.26,2.3252e-05,227.42,-7.0154e-06,0.0052207,-9.0083e-06,-14.969,2.1028
21706,22.896,5.3636,0.1,2.2319e-05,223.04,2.1949e-05,213.25,-6.4398e-06,-0.051639,-8.8813e-06,-18.396,2.1161
21707,22.804,5.4545,0.1,2.3776e-05,237.6,2.3455e-05,228.97,-7.0241e-06,-0.040347,-9.1993e-06,-16.384,2.1028
21708,22.896,5.1818,0.1,2.2584e-05,225.69,2.2203e-05,215.61,-6.5023e-06,-0.063187,-9.0096e-06,-18.903,2.1161
21709,22.804,5.2727,0.1,2.4039e-05,240.22,2.3707e-05,231.34,-7.0891e-06,-0.05239,-9.3215e-06,-16.826,2.1029
21710,22.896,5,0.1,2.2817e-05,228.01,2.2451e-05,218.32,-6.6145e-06,-0.070223,-9.0313e-06,-18.229,2.1162
21711,22.804,5.0909,0.1,2.4289e-05,242.72,2.3974e-05,234.24,-7.2096e-06,-0.060959,-9.3451e-06,-16.106,2.103
21712,22.896,4.8182,0.1,2.3007e-05,229.91,2.2682e-05,221.22,-6.7699e-06,-0.07279,-8.9471e-06,-16.431,2.1163
21713,22.804,4.9091,0.1,2.4511e-05,244.94,2.4238e-05,237.49,-7.3793e-06,-0.063292,-9.2641e-06,-14.225,2.103
21714,22.896,4.6364,0.1,2.3154e-05,231.38,2.289e-05,224.21,-6.9597e-06,-0.072212,-8.7701e-06,-13.675,2.1163
21715,22.804,4.7273,0.1,2.47e-05,246.83,2.4487e-05,240.95,-7.5894e-06,-0.060868,-9.087e-06,-11.313,2.1031
21716,22.896,4.4545,0.1,2.3267e-05,232.51,2.3076e-05,227.21,-7.173e-06,-0.067862,-8.5216e-06,-10.201,2.1163
21717,22.804,4.5455,0.1,2.4858e-05,248.41,2.472e-05,244.5,-7.8286e-06,-0.050152,-8.8322e-06,-7.5911,2.1031
21718,22.896,4.2727,0.1,2.3353e-05,233.37,2.3238e-05,230.13,-7.3975e-06,-0.055381,-8.227e-06,-6.2882,2.1164
21719,22.804,4.3636,0.1,2.4992e-05,249.75,2.4933e-05,248.05,-8.0809e-06,-0.0045946,-8.527e-06,-3.3563,2.1032
21720,22.896,4.0909,0.1,2.342e-05,234.04,2.3381e-05,232.9,-7.6158e-06,0.0053327,-7.9177e-06,-2.2632,2.1164
21721,22.804,4.1818,0.1,2.5108e-05,250.9,2.5127e-05,251.48,-8.1527e-06,1.4336,-8.3782e-06,-0.26071,2.1032
21722,22.896,3.9091,0.1,2.3475e-05,234.59,2.3504e-05,235.44,-7.5782e-06,1.9026,-7.8567e-06,-0.19018,2.1164
21723,22.804,4,0.1,2.521e-05,251.93,2.5301e-05,254.71,-7.8267e-06,5.7974,-8.6157e-06,-0.13092,2.1032
21724,22.896,3.7273,0.1,2.3521e-05,235.05,2.3607e-05,237.66,-7.2995e-06,5.4422,-8.0405e-06,-0.12482,2.1165
21725,22.804,3.8182,0.1,2.5301e-05,252.84,2.5454e-05,257.61,-7.5068e-06,9.9593,-8.8472e-06,-0.11225,2.1033
21726,22.896,3.5455,0.1,2.356e-05,235.43,2.369e-05,239.49,-7.0587e-06,8.4568,-8.1991e-06,-0.11194,2.1165
21727,22.804,3.6364,0.1,2.5381e-05,253.64,2.5583e-05,260.1,-7.2264e-06,13.583,-9.0482e-06,-0.10542,2.1033
21728,22.896,3.3636,0.1,2.3589e-05,235.73,2.3751e-05,240.85,-6.876e-06,10.734,-8.3189e-06,-0.10707,2.1165
21729,22.804,3.4545,0.1,2.5446e-05,254.28,2.5684e-05,262.06,-7.0026e-06,16.469,-9.2081e-06,-0.1023,2.1033
21730,22.896,3.1818,0.1,2.3608e-05,235.91,2.3789e-05,241.7,-6.7623e-06,12.149,-8.3933e-06,-0.10502,2.1165
21731,22.804,3.2727,0.1,2.5492e-05,254.75,2.5754e-05,263.42,-6.8473e-06,18.471,-9.319e-06,-0.10084,2.1033
21732,22.896,3,0.1,2.3614e-05,235.98,2.3801e-05,241.98,-6.7237e-06,12.629,-8.4185e-06,-0.10444,2.1165
21733,22.804,3.0909,0.1,2.5516e-05,254.99,2.579e-05,264.12,-6.7679e-06,19.495,-9.3758e-06,-0.10026,2.1033
21734,22.896,2.8182,0.1,2.3608e-05,235.91,2.3789e-05,241.7,-6.7623e-06,12.149,-8.3933e-06,-0.10502,2.1165
21735,22.804,2.9091,0.1,2.5516e-05,254.99,2.579e-05,264.12,-6.7679e-06,19.495,-9.3758e-06,-0.10026,2.1033
21736,22.896,2.6364,0.1,2.3589e-05,235.73,2.3751e-05,240.85,-6.876e-06,10.734,-8.3189e-06,-0.10707,2.1165
21737,22.804,2.7273,0.1,2.5492e-05,254.75,2.5754e-05,263.42,-6.8473e-06,18.471,-9.319e-06,-0.10084,2.1033
21738,22.896,2.4545,0.1,2.356e-05,235.44,2.369e-05,239.49,-7.0587e-06,8.4568,-8.1991e-06,-0.11194,2.1165
21739,22.804,2.5455,0.1,2.5446e-05,254.28,2.5684e-05,262.06,-7.0026e-06,16.469,-9.2081e-06,-0.1023,2.1033
21740,22.896,2.2727,0.1,2.3521e-05,235.05,2.3607e-05,237.66,-7.2995e-06,5.4422,-8.0405e-06,-0.12482,2.1165
21741,22.804,2.3636,0.1,2.5381e-05,253.64,2.5583e-05,260.1,-7.2264e-06,13.583,-9.0482e-06,-0.10542,2.1033
21742,22.896,2.0909,0.1,2.3475e-05,234.59,2.3504e-05,235.44,-7.5782e-06,1.9026,-7.8567e-06,-0.19018,2.1164
21743,22.804,2.1818,0.1,2.5301e-05,252.84,2.5454e-05,257.61,-7.5068e-06,9.9593,-8.8472e-06,-0.11225,2.1033
21744,22.896,1.9091,0.1,2.342e-05,234.04,2.3381e-05,232.9,-7.6158e-06,0.0053312,-7.9177e-06,-2.2632,2.1164
21745,22.804,2,0.1,2.521e-05,251.93,2.5301e-05,254.71,-7.8267e-06,5.7974,-8.6157e-06,-0.13092,2.1032
21746,22.896,1.7273,0.1,2.3353e-05,233.37,2.3239e-05,230.13,-7.3975e-06,-0.055382,-8.227e-06,-6.2882,2.1164
21747,22.804,1.8182,0.1,2.5108e-05,250.9,2.5127e-05,251.48,-8.1527e-06,1.4336,-8.3782e-06,-0.26071,2.1032
21748,22.896,1.5455,0.1,2.3267e-05,232.51,2.3076e-05,227.21,-7.173e-06,-0.067864,-8.5216e-06,-10.201,2.1163
21749,22.804,1.6364,0.1,2.4992e-05,249.75,2.4933e-05,248.05,-8.0809e-06,-0.0045942,-8.527e-06,-3.3563,2.1032
21750,22.896,1.3636,0.1,2.3154e-05,231.38,2.289e-05,224.21,-6.9597e-06,-0.072214,-8.7701e-06,-13.675,2.1163
21751,22.804,1.4545,0.1,2.4858e-05,248.41,2.472e-05,244.5,-7.8286e-06,-0.050151,-8.8322e-06,-7.5911,2.1031
21752,22.896,1.1818,0.1,2.3007e-05,229.91,2.2682e-05,221.22,-6.7699e-06,-0.072792,-8.9471e-06,-16.431,2.1163
21753,22.804,1.2727,0.1,2.47e-05,246.83,2.4487e-05,240.95,-7.5894e-06,-0.06087,-9.087e-06,-11.313,2.1031
21754,22.896,1,0.1,2.2817e-05,228.01,2.2451e-05,218.32,-6.6145e-06,-0.070223,-9.0313e-06,-18.229,2.1162
21755,22.804,1.0909,0.1,2.4511e-05,244.94,2.4238e-05,237.49,-7.3793e-06,-0.063292,-9.2641e-06,-14.225,2.103
21756,22.896,0.81818,0.1,2.2584e-05,225.69,2.2203e-05,215.61,-6.5023e-06,-0.063188,-9.0096e-06,-18.903,2.1161
21757,22.804,0.90909,0.1,2.4289e-05,242.72,2.3974e-05,234.24,-7.2096e-06,-0.060961,-9.3451e-06,-16.106,2.103
21758,22.896,0.63636,0.1,2.2319e-05,223.04,2.1949e-05,213.25,-6.4398e-06,-0.05164,-8.8813e-06,-18.396,2.1161
21759,22.804,0.72727,0.1,2.4039e-05,240.22,2.3707e-05,231.34,-7.0891e-06,-0.052391,-9.3215e-06,-16.826,2.1029
21760,22.896,0.45455,0.1,2.2052e-05,220.37,2.1718e-05,211.47,-6.4295e-06,-0.020328,-8.6664e-06,-16.828,2.116
21761,22.804,0.54545,0.1,2.3776e-05,237.6,2.3455e-05,228.97,-7.0241e-06,-0.040347,-9.1993e-06,-16.384,2.1028
21762,22.896,0.27273,0.1,2.1901e-05,218.85,2.1608e-05,211.01,-6.4729e-06,0.017605,-8.4639e-06,-14.942,2.1159
21763,22.804,0.36364,0.1,2.3543e-05,235.26,2.3252e-05,227.42,-7.0154e-06,0.0052227,-9.0083e-06,-14.969,2.1028
21764,22.804,0.18182,0.1,2.3538e-05,235.21,2.3271e-05,227.97,-7.0683e-06,0.017528,-8.9179e-06,-13.88,2.1027
21765,22.896,0.090909,0.1,2.137e-05,213.55,2.1187e-05,208.49,-6.5673e-06,-0.04052,-7.8589e-06,-9.7452,2.1158
21766,22.712,5.7273,0.1,2.5145e-05,251.27,2.4884e-05,244.16,-7.6097e-06,0.012361,-9.4324e-06,-13.682,2.0895
21767,22.62,5.8182,0.1,2.6733e-05,267.15,2.6484e-05,260.3,-8.1578e-06,0.010317,-9.9198e-06,-13.229,2.0763
21768,22.712,5.9091,0.1,2.4635e-05,246.18,2.4465e-05,241.42,-7.6708e-06,-0.036142,-8.8955e-06,-9.2383,2.0895
21769,22.712,5.5455,0.1,2.5253e-05,252.36,2.4977e-05,244.83,-7.6103e-06,-0.01767,-9.5281e-06,-14.427,2.0896
21770,22.62,5.6364,0.1,2.671e-05,266.92,2.6457e-05,259.98,-8.143e-06,0.0030445,-9.9241e-06,-13.38,2.0764
21771,22.712,5.3636,0.1,2.5488e-05,254.71,2.5205e-05,246.99,-7.6737e-06,-0.043465,-9.6306e-06,-14.747,2.0897
21772,22.62,5.4545,0.1,2.6919e-05,269,2.666e-05,261.9,-8.2012e-06,-0.03493,-1.0014e-05,-13.654,2.0765
21773,22.712,5.1818,0.1,2.574e-05,257.23,2.5473e-05,249.93,-7.7967e-06,-0.051891,-9.6508e-06,-13.983,2.0898
21774,22.62,5.2727,0.1,2.7171e-05,271.52,2.6929e-05,264.85,-8.3256e-06,-0.043392,-1.0031e-05,-12.86,2.0765
21775,22.712,5,0.1,2.5984e-05,259.66,2.5757e-05,253.39,-7.9745e-06,-0.054958,-9.5737e-06,-12.071,2.0898
21776,22.62,5.0909,0.1,2.7434e-05,274.15,2.7232e-05,268.53,-8.513e-06,-0.047037,-9.9545e-06,-10.878,2.0766
21777,22.712,4.8182,0.1,2.6207e-05,261.89,2.604e-05,257.21,-8.1986e-06,-0.050252,-9.4015e-06,-9.0888,2.0899
21778,22.62,4.9091,0.1,2.7691e-05,276.72,2.7551e-05,272.74,-8.7546e-06,-0.039354,-9.7813e-06,-7.7535,2.0767
21779,22.712,4.6364,0.1,2.6408e-05,263.9,2.6315e-05,261.23,-8.4568e-06,-0.027942,-9.1489e-06,-5.2277,2.0899
21780,22.62,4.7273,0.1,2.7936e-05,279.17,2.7872e-05,277.32,-9.0363e-06,0.0044594,-9.5251e-06,-3.6683,2.0767
21781,22.712,4.4545,0.1,2.6589e-05,265.7,2.6576e-05,265.34,-8.7063e-06,0.24036,-8.8669e-06,-0.96645,2.09
21782,22.62,4.5455,0.1,2.8169e-05,281.49,2.8189e-05,282.1,-9.1563e-06,1.5023,-9.3932e-06,-0.27782,2.0768
21783,22.712,4.2727,0.1,2.6753e-05,267.35,2.6821e-05,269.4,-8.4602e-06,4.309,-9.0535e-06,-0.1494,2.09
21784,22.62,4.3636,0.1,2.839e-05,283.71,2.8496e-05,286.94,-8.7999e-06,6.7083,-9.7098e-06,-0.12843,2.0768
21785,22.712,4.0909,0.1,2.6905e-05,268.86,2.7047e-05,273.29,-8.0989e-06,9.2142,-9.3405e-06,-0.11499,2.09
21786,22.62,4.1818,0.1,2.8602e-05,285.83,2.8788e-05,291.67,-8.4081e-06,12.193,-1.0045e-05,-0.10811,2.0768
21787,22.712,3.9091,0.1,2.7044e-05,270.25,2.7251e-05,276.88,-7.7483e-06,13.907,-9.6131e-06,-0.10471,2.0901
21788,22.62,4,0.1,2.8804e-05,287.84,2.906e-05,296.15,-8.0227e-06,17.526,-1.0369e-05,-0.10061,2.0769
21789,22.712,3.7273,0.1,2.7169e-05,271.5,2.7429e-05,280.05,-7.4326e-06,18.108,-9.8559e-06,-0.10021,2.0901
21790,22.62,3.8182,0.1,2.8992e-05,289.72,2.9306e-05,300.22,-7.6685e-06,22.409,-1.0664e-05,-0.097158,2.0769
21791,22.712,3.5455,0.1,2.7275e-05,272.57,2.7576e-05,282.67,-7.17e-06,21.597,-1.0057e-05,-0.098046,2.0901
21792,22.62,3.6364,0.1,2.9159e-05,291.39,2.9518e-05,303.72,-7.3651e-06,26.596,-1.0918e-05,-0.095591,2.0769
21793,22.712,3.3636,0.1,2.7358e-05,273.39,2.7687e-05,284.63,-6.9738e-06,24.206,-1.0208e-05,-0.097033,2.0901
21794,22.62,3.4545,0.1,2.9296e-05,292.76,2.9687e-05,306.5,-7.127e-06,29.893,-1.1118e-05,-0.095016,2.0769
21795,22.712,3.1818,0.1,2.741e-05,273.91,2.7755e-05,285.85,-6.8528e-06,25.817,-1.0302e-05,-0.096613,2.0901
21796,22.62,3.2727,0.1,2.9393e-05,293.73,2.9806e-05,308.43,-6.9636e-06,32.163,-1.1257e-05,-0.09491,2.0769
21797,22.712,3,0.1,2.7427e-05,274.09,2.7778e-05,286.26,-6.8119e-06,26.361,-1.0333e-05,-0.096504,2.0901
21798,22.62,3.0909,0.1,2.9444e-05,294.24,2.9867e-05,309.43,-6.8807e-06,33.319,-1.1328e-05,-0.094945,2.0769
21799,22.712,2.8182,0.1,2.741e-05,273.91,2.7755e-05,285.85,-6.8528e-06,25.817,-1.0302e-05,-0.096614,2.0901
21800,22.62,2.9091,0.1,2.9444e-05,294.24,2.9867e-05,309.43,-6.8807e-06,33.319,-1.1328e-05,-0.094945,2.0769
21801,22.712,2.6364,0.1,2.7358e-05,273.39,2.7687e-05,284.63,-6.9738e-06,24.206,-1.0208e-05,-0.097034,2.0901
21802,22.62,2.7273,0.1,2.9393e-05,293.73,2.9806e-05,308.43,-6.9636e-06,32.163,-1.1257e-05,-0.094911,2.0769
21803,22.712,2.4545,0.1,2.7275e-05,272.57,2.7576e-05,282.67,-7.17e-06,21.597,-1.0057e-05,-0.098046,2.0901
21804,22.62,2.5455,0.1,2.9296e-05,292.76,2.9687e-05,306.5,-7.127e-06,29.893,-1.1118e-05,-0.095015,2.0769
21805,22.712,2.2727,0.1,2.7169e-05,271.5,2.7429e-05,280.05,-7.4326e-06,18.108,-9.8559e-06,-0.10021,2.0901
21806,22.62,2.3636,0.1,2.9159e-05,291.39,2.9518e-05,303.72,-7.3651e-06,26.596,-1.0918e-05,-0.095591,2.0769
21807,22.712,2.0909,0.1,2.7044e-05,270.25,2.7251e-05,276.88,-7.7483e-06,13.907,-9.6131e-06,-0.10472,2.0901
21808,22.62,2.1818,0.1,2.8992e-05,289.72,2.9306e-05,300.22,-7.6685e-06,22.409,-1.0664e-05,-0.097159,2.0769
21809,22.712,1.9091,0.1,2.6905e-05,268.86,2.7047e-05,273.29,-8.0989e-06,9.2141,-9.3405e-06,-0.11499,2.09
21810,22.62,2,0.1,2.8804e-05,287.84,2.906e-05,296.15,-8.0227e-06,17.526,-1.0369e-05,-0.10061,2.0769
21811,22.712,1.7273,0.1,2.6753e-05,267.35,2.6821e-05,269.4,-8.4602e-06,4.309,-9.0536e-06,-0.14941,2.09
21812,22.62,1.8182,0.1,2.8602e-05,285.83,2.8788e-05,291.67,-8.4081e-06,12.193,-1.0045e-05,-0.10811,2.0768
21813,22.712,1.5455,0.1,2.6589e-05,265.7,2.6576e-05,265.34,-8.7063e-06,0.24037,-8.8669e-06,-0.96646,2.09
21814,22.62,1.6364,0.1,2.839e-05,283.71,2.8496e-05,286.94,-8.7999e-06,6.7083,-9.7098e-06,-0.12843,2.0768
21815,22.712,1.3636,0.1,2.6408e-05,263.9,2.6315e-05,261.23,-8.4568e-06,-0.027939,-9.1489e-06,-5.2277,2.0899
21816,22.62,1.4545,0.1,2.8169e-05,281.49,2.8189e-05,282.1,-9.1563e-06,1.5024,-9.3932e-06,-0.27782,2.0768
21817,22.712,1.1818,0.1,2.6207e-05,261.89,2.604e-05,257.21,-8.1986e-06,-0.050251,-9.4015e-06,-9.0888,2.0899
21818,22.62,1.2727,0.1,2.7936e-05,279.17,2.7872e-05,277.32,-9.0363e-06,0.0044601,-9.5251e-06,-3.6683,2.0767
21819,22.712,1,0.1,2.5984e-05,259.66,2.5757e-05,253.39,-7.9745e-06,-0.054959,-9.5737e-06,-12.071,2.0898
21820,22.62,1.0909,0.1,2.7691e-05,276.72,2.7551e-05,272.74,-8.7546e-06,-0.039355,-9.7813e-06,-7.7534,2.0767
21821,22.712,0.81818,0.1,2.574e-05,257.23,2.5473e-05,249.93,-7.7967e-06,-0.051894,-9.6508e-06,-13.983,2.0898
21822,22.62,0.90909,0.1,2.7434e-05,274.15,2.7232e-05,268.53,-8.513e-06,-0.047037,-9.9545e-06,-10.878,2.0766
21823,22.712,0.63636,0.1,2.5488e-05,254.71,2.5205e-05,246.99,-7.6737e-06,-0.043466,-9.6306e-06,-14.746,2.0897
21824,22.62,0.72727,0.1,2.7171e-05,271.52,2.6929e-05,264.85,-8.3256e-06,-0.043393,-1.0031e-05,-12.86,2.0765
21825,22.712,0.45455,0.1,2.5253e-05,252.36,2.4977e-05,244.83,-7.6103e-06,-0.017668,-9.5281e-06,-14.427,2.0896
21826,22.62,0.54545,0.1,2.6919e-05,269,2.666e-05,261.9,-8.2012e-06,-0.034928,-1.0014e-05,-13.654,2.0765
21827,22.712,0.27273,0.1,2.5145e-05,251.27,2.4884e-05,244.16,-7.6097e-06,0.012361,-9.4324e-06,-13.682,2.0895
21828,22.62,0.36364,0.1,2.671e-05,266.92,2.6457e-05,259.98,-8.143e-06,0.0030462,-9.9241e-06,-13.38,2.0764
21829,22.62,0.18182,0.1,2.6733e-05,267.15,2.6484e-05,260.3,-8.1578e-06,0.010316,-9.9198e-06,-13.229,2.0763
21830,22.712,0.090909,0.1,2.4635e-05,246.18,2.4465e-05,241.42,-7.6708e-06,-0.036145,-8.8955e-06,-9.2383,2.0895
21831,22.528,5.7273,0.1,2.8268e-05,282.48,2.803e-05,275.91,-8.6902e-06,0.0076731,-1.0385e-05,-12.729,2.0632
21832,22.436,5.8182,0.1,2.9773e-05,297.52,2.9534e-05,290.92,-9.1843e-06,0.0050181,-1.0887e-05,-12.788,2.0499
21833,22.528,5.9091,0.1,2.7758e-05,277.39,2.7597e-05,272.85,-8.7215e-06,-0.035135,-9.8944e-06,-8.8484,2.0631
21834,22.528,5.5455,0.1,2.8363e-05,283.44,2.8129e-05,276.96,-8.7342e-06,-0.016371,-1.0398e-05,-12.52,2.0633
21835,22.436,5.6364,0.1,2.9747e-05,297.27,2.9521e-05,290.99,-9.2064e-06,0.0013978,-1.0829e-05,-12.193,2.05
21836,22.528,5.3636,0.1,2.8594e-05,285.74,2.8376e-05,279.69,-8.8533e-06,-0.036745,-1.0406e-05,-11.706,2.0633
21837,22.436,5.4545,0.1,2.996e-05,299.39,2.9748e-05,293.48,-9.3159e-06,-0.029809,-1.0838e-05,-11.467,2.0501
21838,22.528,5.1818,0.1,2.886e-05,288.4,2.8682e-05,283.4,-9.0421e-06,-0.039691,-1.0329e-05,-9.7104,2.0634
21839,22.436,5.2727,0.1,3.0232e-05,302.11,3.0058e-05,297.23,-9.5045e-06,-0.032314,-1.0765e-05,-9.5062,2.0502
21840,22.528,5,0.1,2.9139e-05,291.19,2.9022e-05,287.85,-9.2929e-06,-0.029888,-1.0158e-05,-6.5329,2.0635
21841,22.436,5.0909,0.1,3.0534e-05,305.13,3.0422e-05,301.94,-9.7659e-06,-0.021339,-1.0597e-05,-6.2693,2.0503
21842,22.528,4.8182,0.1,2.942e-05,294,2.938e-05,292.84,-9.5873e-06,0.053536,-9.9075e-06,-2.3525,2.0635
21843,22.436,4.9091,0.1,3.0854e-05,308.33,3.0822e-05,307.4,-1.0077e-05,0.0974,-1.0349e-05,-1.9433,2.0503
21844,22.528,4.6364,0.1,2.9698e-05,296.78,2.9745e-05,298.18,-9.5399e-06,3.0068,-9.9639e-06,-0.1792,2.0636
21845,22.436,4.7273,0.1,3.1184e-05,311.63,3.1244e-05,313.41,-9.9677e-06,3.7617,-1.049e-05,-0.16452,2.0504
21846,22.528,4.4545,0.1,2.9973e-05,299.52,3.0108e-05,303.69,-9.1591e-06,8.653,-1.0326e-05,-0.11635,2.0636
21847,22.436,4.5455,0.1,3.1521e-05,314.99,3.1675e-05,319.75,-9.5673e-06,9.875,-1.0897e-05,-0.11311,2.0504
21848,22.528,4.2727,0.1,3.0243e-05,302.22,3.0463e-05,309.21,-8.7454e-06,14.611,-1.0704e-05,-0.10249,2.0636
21849,22.436,4.3636,0.1,3.1862e-05,318.4,3.2107e-05,326.24,-9.1271e-06,16.417,-1.1325e-05,-0.10042,2.0505
21850,22.528,4.0909,0.1,3.0506e-05,304.85,3.0801e-05,314.53,-8.3313e-06,20.509,-1.1074e-05,-0.096803,2.0637
21851,22.436,4.1818,0.1,3.2204e-05,321.81,3.2531e-05,332.64,-8.6799e-06,23.002,-1.1754e-05,-0.095046,2.0505
21852,22.528,3.9091,0.1,3.0757e-05,307.36,3.1115e-05,319.49,-7.9427e-06,26.029,-1.142e-05,-0.094141,2.0637
21853,22.436,4,0.1,3.2538e-05,325.16,3.2935e-05,338.75,-8.2537e-06,29.279,-1.2163e-05,-0.092572,2.0505
21854,22.528,3.7273,0.1,3.0987e-05,309.66,3.1395e-05,323.89,-7.6009e-06,30.898,-1.1726e-05,-0.093055,2.0637
21855,22.436,3.8182,0.1,3.2855e-05,328.32,3.3307e-05,344.34,-7.872e-06,34.935,-1.2534e-05,-0.091739,2.0505
21856,22.528,3.5455,0.1,3.1184e-05,311.63,3.1629e-05,327.55,-7.3219e-06,34.893,-1.1978e-05,-0.092867,2.0637
21857,22.436,3.6364,0.1,3.3138e-05,331.15,3.3632e-05,349.17,-7.5527e-06,39.72,-1.2851e-05,-0.091935,2.0506
21858,22.528,3.3636,0.1,3.1337e-05,313.15,3.1806e-05,330.3,-7.1166e-06,37.852,-1.2167e-05,-0.09311,2.0638
21859,22.436,3.4545,0.1,3.3371e-05,333.48,3.3895e-05,353.02,-7.3072e-06,43.444,-1.3102e-05,-0.092668,2.0506
21860,22.528,3.1818,0.1,3.1433e-05,314.12,3.1917e-05,332.01,-6.9914e-06,39.668,-1.2283e-05,-0.093421,2.0638
21861,22.436,3.2727,0.1,3.3538e-05,335.15,3.408e-05,355.71,-7.1416e-06,45.985,-1.3274e-05,-0.093479,2.0506
21862,22.528,3,0.1,3.1467e-05,314.45,3.1955e-05,332.59,-6.9493e-06,40.279,-1.2323e-05,-0.093554,2.0638
21863,22.436,3.0909,0.1,3.3624e-05,336.01,3.4176e-05,357.09,-7.0585e-06,47.272,-1.3363e-05,-0.093994,2.0506
21864,22.528,2.8182,0.1,3.1433e-05,314.12,3.1917e-05,332.01,-6.9914e-06,39.668,-1.2283e-05,-0.093421,2.0638
21865,22.436,2.9091,0.1,3.3624e-05,336.01,3.4176e-05,357.09,-7.0585e-06,47.272,-1.3363e-05,-0.093994,2.0506
21866,22.528,2.6364,0.1,3.1337e-05,313.15,3.1806e-05,330.3,-7.1166e-06,37.852,-1.2167e-05,-0.09311,2.0638
21867,22.436,2.7273,0.1,3.3538e-05,335.15,3.408e-05,355.71,-7.1416e-06,45.985,-1.3274e-05,-0.09348,2.0506
21868,22.528,2.4545,0.1,3.1184e-05,311.63,3.1629e-05,327.55,-7.322e-06,34.893,-1.1978e-05,-0.092867,2.0637
21869,22.436,2.5455,0.1,3.3371e-05,333.48,3.3895e-05,353.02,-7.3072e-06,43.444,-1.3102e-05,-0.092668,2.0506
21870,22.528,2.2727,0.1,3.0987e-05,309.66,3.1395e-05,323.89,-7.6009e-06,30.898,-1.1726e-05,-0.093055,2.0637
21871,22.436,2.3636,0.1,3.3138e-05,331.15,3.3632e-05,349.17,-7.5527e-06,39.72,-1.2851e-05,-0.091934,2.0506
21872,22.528,2.0909,0.1,3.0757e-05,307.36,3.1115e-05,319.49,-7.9427e-06,26.029,-1.142e-05,-0.09414,2.0637
21873,22.436,2.1818,0.1,3.2855e-05,328.32,3.3307e-05,344.34,-7.8721e-06,34.935,-1.2534e-05,-0.091739,2.0505
21874,22.528,1.9091,0.1,3.0506e-05,304.85,3.0801e-05,314.53,-8.3313e-06,20.509,-1.1074e-05,-0.096802,2.0637
21875,22.436,2,0.1,3.2538e-05,325.16,3.2935e-05,338.75,-8.2537e-06,29.279,-1.2163e-05,-0.092571,2.0505
21876,22.528,1.7273,0.1,3.0243e-05,302.22,3.0463e-05,309.21,-8.7454e-06,14.611,-1.0704e-05,-0.10249,2.0636
21877,22.436,1.8182,0.1,3.2204e-05,321.81,3.2531e-05,332.64,-8.6799e-06,23.002,-1.1754e-05,-0.095046,2.0505
21878,22.528,1.5455,0.1,2.9973e-05,299.52,3.0108e-05,303.69,-9.1591e-06,8.6529,-1.0326e-05,-0.11635,2.0636
21879,22.436,1.6364,0.1,3.1862e-05,318.4,3.2107e-05,326.24,-9.1271e-06,16.417,-1.1325e-05,-0.10042,2.0505
21880,22.528,1.3636,0.1,2.9698e-05,296.78,2.9745e-05,298.18,-9.5399e-06,3.0068,-9.9639e-06,-0.1792,2.0636
21881,22.436,1.4545,0.1,3.1521e-05,314.99,3.1675e-05,319.75,-9.5673e-06,9.875,-1.0897e-05,-0.11311,2.0504
21882,22.528,1.1818,0.1,2.942e-05,294,2.938e-05,292.84,-9.5873e-06,0.053533,-9.9075e-06,-2.3525,2.0635
21883,22.436,1.2727,0.1,3.1184e-05,311.63,3.1244e-05,313.41,-9.9677e-06,3.7617,-1.049e-05,-0.16452,2.0504
21884,22.528,1,0.1,2.9139e-05,291.19,2.9022e-05,287.85,-9.2929e-06,-0.029889,-1.0158e-05,-6.5328,2.0635
21885,22.436,1.0909,0.1,3.0854e-05,308.33,3.0822e-05,307.4,-1.0077e-05,0.097401,-1.0349e-05,-1.9433,2.0503
21886,22.528,0.81818,0.1,2.886e-05,288.4,2.8682e-05,283.4,-9.0421e-06,-0.039691,-1.0329e-05,-9.7104,2.0634
21887,22.436,0.90909,0.1,3.0534e-05,305.13,3.0422e-05,301.94,-9.7659e-06,-0.02134,-1.0597e-05,-6.2693,2.0503
21888,22.528,0.63636,0.1,2.8594e-05,285.74,2.8376e-05,279.69,-8.8533e-06,-0.036744,-1.0406e-05,-11.706,2.0633
21889,22.436,0.72727,0.1,3.0232e-05,302.11,3.0058e-05,297.23,-9.5045e-06,-0.032315,-1.0765e-05,-9.5061,2.0502
21890,22.528,0.45455,0.1,2.8363e-05,283.44,2.8129e-05,276.96,-8.7342e-06,-0.016369,-1.0398e-05,-12.52,2.0632
21891,22.436,0.54545,0.1,2.996e-05,299.39,2.9748e-05,293.48,-9.3159e-06,-0.029807,-1.0838e-05,-11.467,2.0501
21892,22.528,0.27273,0.1,2.8268e-05,282.48,2.803e-05,275.91,-8.6902e-06,0.0076729,-1.0385e-05,-12.729,2.0632
21893,22.436,0.36364,0.1,2.9747e-05,297.27,2.9521e-05,290.99,-9.2064e-06,0.0013993,-1.0829e-05,-12.193,2.05
21894,22.436,0.18182,0.1,2.9773e-05,297.52,2.9534e-05,290.92,-9.1843e-06,0.0050167,-1.0887e-05,-12.788,2.0499
21895,22.528,0.090909,0.1,2.7758e-05,277.39,2.7597e-05,272.85,-8.7215e-06,-0.035136,-9.8944e-06,-8.8483,2.0631
21896,22.343,5.7273,0.1,3.1225e-05,312.03,3.1002e-05,305.82,-9.6997e-06,0.0047233,-1.1308e-05,-12.079,2.0368
21897,22.251,5.8182,0.1,3.2606e-05,325.84,3.2374e-05,319.37,-1.0131e-05,0.0016388,-1.1805e-05,-12.577,2.0236
21898,22.343,5.9091,0.1,3.0693e-05,306.72,3.0537e-05,302.32,-9.7034e-06,-0.036169,-1.0841e-05,-8.5866,2.0367
21899,22.343,5.5455,0.1,3.1334e-05,313.12,3.1131e-05,307.43,-9.7883e-06,-0.013923,-1.1259e-05,-11.065,2.0369
21900,22.251,5.6364,0.1,3.2604e-05,325.81,3.2395e-05,319.97,-1.019e-05,0.0018799,-1.1706e-05,-11.388,2.0237
21901,22.343,5.3636,0.1,3.159e-05,315.68,3.1423e-05,310.96,-9.9674e-06,-0.027236,-1.119e-05,-9.213,2.037
21902,22.251,5.4545,0.1,3.285e-05,328.27,3.2673e-05,323.27,-1.0354e-05,-0.021726,-1.1653e-05,-9.7768,2.0238
21903,22.343,5.1818,0.1,3.1901e-05,318.78,3.1793e-05,315.72,-1.0229e-05,-0.015111,-1.1029e-05,-6.0262,2.0371
21904,22.251,5.2727,0.1,3.3173e-05,331.5,3.3053e-05,328.09,-1.0614e-05,-0.010419,-1.1506e-05,-6.7149,2.0238
21905,22.343,5,0.1,3.2246e-05,322.24,3.2219e-05,321.46,-1.0547e-05,0.12962,-1.0788e-05,-1.6783,2.0371
21906,22.251,5.0909,0.1,3.3549e-05,335.26,3.3511e-05,334.15,-1.0949e-05,0.096797,-1.1268e-05,-2.3057,2.0239
21907,22.343,4.8182,0.1,3.2617e-05,325.94,3.2684e-05,327.95,-1.0403e-05,4.2196,-1.0985e-05,-0.15407,2.0372
21908,22.251,4.9091,0.1,3.3968e-05,339.44,3.4027e-05,341.23,-1.0885e-05,3.7735,-1.141e-05,-0.17521,2.024
21909,22.343,4.6364,0.1,3.3006e-05,329.84,3.3173e-05,334.98,-9.9926e-06,10.649,-1.1424e-05,-0.10954,2.0372
21910,22.251,4.7273,0.1,3.4421e-05,343.97,3.4586e-05,349.07,-1.0467e-05,10.557,-1.1887e-05,-0.11371,2.024
21911,22.343,4.4545,0.1,3.3411e-05,333.88,3.3674e-05,342.3,-9.5349e-06,17.643,-1.1896e-05,-0.098011,2.0373
21912,22.251,4.5455,0.1,3.4903e-05,348.79,3.5174e-05,357.43,-9.9895e-06,18.093,-1.2411e-05,-0.099482,2.0241
21913,22.343,4.2727,0.1,3.3824e-05,338.01,3.4176e-05,349.68,-9.0617e-06,24.808,-1.2376e-05,-0.093055,2.0373
21914,22.251,4.3636,0.1,3.5407e-05,353.82,3.5775e-05,366.04,-9.4871e-06,25.956,-1.2954e-05,-0.093479,2.0241
21915,22.343,4.0909,0.1,3.4238e-05,342.14,3.4665e-05,356.87,-8.6026e-06,31.77,-1.2843e-05,-0.090776,2.0373
21916,22.251,4.1818,0.1,3.5923e-05,358.98,3.6375e-05,374.6,-8.9922e-06,33.729,-1.3493e-05,-0.090648,2.0242
21917,22.343,3.9091,0.1,3.4639e-05,346.15,3.5127e-05,363.6,-8.1834e-06,38.182,-1.3277e-05,-0.090115,2.0374
21918,22.251,4,0.1,3.6436e-05,364.11,3.6957e-05,382.83,-8.5343e-06,41.019,-1.4006e-05,-0.08976,2.0242
21919,22.343,3.7273,0.1,3.5009e-05,349.85,3.5545e-05,369.61,-7.8241e-06,43.756,-1.366e-05,-0.090571,2.0374
21920,22.251,3.8182,0.1,3.6925e-05,369,3.75e-05,390.39,-8.1367e-06,47.486,-1.4469e-05,-0.090334,2.0242
21921,22.343,3.5455,0.1,3.5328e-05,353.04,3.5898e-05,374.63,-7.538e-06,48.271,-1.3975e-05,-0.091699,2.0374
21922,22.251,3.6364,0.1,3.7365e-05,373.39,3.798e-05,396.96,-7.8145e-06,52.874,-1.4864e-05,-0.091925,2.0242
21923,22.343,3.3636,0.1,3.5575e-05,355.51,3.6168e-05,378.42,-7.332e-06,51.58,-1.4209e-05,-0.093009,2.0374
21924,22.251,3.4545,0.1,3.7728e-05,377.02,3.837e-05,402.22,-7.5742e-06,57.011,-1.5174e-05,-0.093971,2.0243
21925,22.343,3.1818,0.1,3.5732e-05,357.07,3.6338e-05,380.78,-7.2083e-06,53.593,-1.4354e-05,-0.09403,2.0374
21926,22.251,3.2727,0.1,3.7987e-05,379.61,3.8646e-05,405.9,-7.4165e-06,59.802,-1.5388e-05,-0.095823,2.0243
21927,22.343,3,0.1,3.5785e-05,357.61,3.6396e-05,381.58,-7.1671e-06,54.269,-1.4402e-05,-0.094413,2.0374
21928,22.251,3.0909,0.1,3.8122e-05,380.96,3.879e-05,407.79,-7.3387e-06,61.204,-1.5497e-05,-0.096919,2.0243
21929,22.343,2.8182,0.1,3.5732e-05,357.07,3.6338e-05,380.78,-7.2083e-06,53.593,-1.4354e-05,-0.09403,2.0374
21930,22.251,2.9091,0.1,3.8122e-05,380.96,3.879e-05,407.79,-7.3387e-06,61.204,-1.5497e-05,-0.096918,2.0243
21931,22.343,2.6364,0.1,3.5575e-05,355.51,3.6168e-05,378.42,-7.332e-06,51.58,-1.4209e-05,-0.093009,2.0374
21932,22.251,2.7273,0.1,3.7987e-05,379.61,3.8646e-05,405.9,-7.4165e-06,59.802,-1.5388e-05,-0.095825,2.0243
21933,22.343,2.4545,0.1,3.5328e-05,353.04,3.5898e-05,374.63,-7.538e-06,48.271,-1.3975e-05,-0.091698,2.0374
21934,22.251,2.5455,0.1,3.7728e-05,377.02,3.837e-05,402.22,-7.5742e-06,57.011,-1.5174e-05,-0.09397,2.0243
21935,22.343,2.2727,0.1,3.5009e-05,349.85,3.5545e-05,369.61,-7.8241e-06,43.756,-1.366e-05,-0.090571,2.0374
21936,22.251,2.3636,0.1,3.7365e-05,373.39,3.798e-05,396.96,-7.8145e-06,52.874,-1.4864e-05,-0.091925,2.0242
21937,22.343,2.0909,0.1,3.4639e-05,346.15,3.5127e-05,363.6,-8.1834e-06,38.182,-1.3277e-05,-0.090115,2.0374
21938,22.251,2.1818,0.1,3.6925e-05,369,3.75e-05,390.39,-8.1367e-06,47.486,-1.4469e-05,-0.090334,2.0242
21939,22.343,1.9091,0.1,3.4238e-05,342.14,3.4665e-05,356.87,-8.6026e-06,31.77,-1.2843e-05,-0.090775,2.0373
21940,22.251,2,0.1,3.6436e-05,364.11,3.6957e-05,382.83,-8.5343e-06,41.019,-1.4006e-05,-0.08976,2.0242
21941,22.343,1.7273,0.1,3.3824e-05,338.01,3.4176e-05,349.68,-9.0617e-06,24.808,-1.2376e-05,-0.093055,2.0373
21942,22.251,1.8182,0.1,3.5923e-05,358.98,3.6375e-05,374.6,-8.9922e-06,33.729,-1.3493e-05,-0.090647,2.0242
21943,22.343,1.5455,0.1,3.3411e-05,333.88,3.3674e-05,342.3,-9.5349e-06,17.643,-1.1896e-05,-0.098012,2.0373
21944,22.251,1.6364,0.1,3.5407e-05,353.83,3.5775e-05,366.04,-9.4871e-06,25.956,-1.2954e-05,-0.093479,2.0241
21945,22.343,1.3636,0.1,3.3006e-05,329.84,3.3173e-05,334.98,-9.9926e-06,10.649,-1.1424e-05,-0.10954,2.0372
21946,22.251,1.4545,0.1,3.4903e-05,348.79,3.5174e-05,357.43,-9.9895e-06,18.093,-1.2411e-05,-0.099482,2.0241
21947,22.343,1.1818,0.1,3.2617e-05,325.94,3.2684e-05,327.95,-1.0403e-05,4.2196,-1.0985e-05,-0.15407,2.0372
21948,22.251,1.2727,0.1,3.4421e-05,343.97,3.4586e-05,349.07,-1.0467e-05,10.557,-1.1887e-05,-0.11371,2.024
21949,22.343,1,0.1,3.2246e-05,322.24,3.2219e-05,321.46,-1.0547e-05,0.12962,-1.0788e-05,-1.6782,2.0371
21950,22.251,1.0909,0.1,3.3968e-05,339.44,3.4027e-05,341.23,-1.0885e-05,3.7735,-1.141e-05,-0.17521,2.024
21951,22.343,0.81818,0.1,3.1901e-05,318.78,3.1793e-05,315.72,-1.0229e-05,-0.015113,-1.1029e-05,-6.0262,2.0371
21952,22.251,0.90909,0.1,3.3549e-05,335.26,3.3511e-05,334.15,-1.0949e-05,0.096796,-1.1268e-05,-2.3056,2.0239
21953,22.343,0.63636,0.1,3.159e-05,315.68,3.1423e-05,310.96,-9.9674e-06,-0.027237,-1.119e-05,-9.213,2.037
21954,22.251,0.72727,0.1,3.3173e-05,331.5,3.3053e-05,328.09,-1.0614e-05,-0.010421,-1.1506e-05,-6.7149,2.0238
21955,22.343,0.45455,0.1,3.1334e-05,313.12,3.1131e-05,307.43,-9.7883e-06,-0.013922,-1.1259e-05,-11.065,2.0369
21956,22.251,0.54545,0.1,3.285e-05,328.27,3.2673e-05,323.27,-1.0354e-05,-0.021726,-1.1653e-05,-9.7768,2.0238
21957,22.343,0.27273,0.1,3.1225e-05,312.03,3.1002e-05,305.82,-9.6997e-06,0.0047237,-1.1308e-05,-12.079,2.0368
21958,22.251,0.36364,0.1,3.2604e-05,325.81,3.2395e-05,319.97,-1.019e-05,0.0018817,-1.1706e-05,-11.388,2.0237
21959,22.251,0.18182,0.1,3.2606e-05,325.84,3.2374e-05,319.37,-1.0131e-05,0.00164,-1.1805e-05,-12.577,2.0236
21960,22.343,0.090909,0.1,3.0693e-05,306.72,3.0537e-05,302.32,-9.7034e-06,-0.03617,-1.0841e-05,-8.5866,2.0367
21961,22.159,5.7273,0.1,3.3961e-05,339.38,3.3747e-05,333.36,-1.0621e-05,0.0040667,-1.2183e-05,-11.736,2.0105
21962,22.067,5.8182,0.1,3.5174e-05,351.5,3.4943e-05,345.03,-1.0977e-05,0.00010043,-1.2656e-05,-12.612,1.9973
21963,22.159,5.9091,0.1,3.3383e-05,333.6,3.323e-05,329.27,-1.0598e-05,-0.038706,-1.1719e-05,-8.464,2.0104
21964,22.159,5.5455,0.1,3.4111e-05,340.88,3.3929e-05,335.74,-1.0757e-05,-0.0081566,-1.2091e-05,-10.037,2.0106
21965,22.067,5.6364,0.1,3.5219e-05,351.95,3.502e-05,346.35,-1.1075e-05,0.0059482,-1.2534e-05,-10.952,1.9974
21966,22.159,5.3636,0.1,3.4426e-05,344.02,3.4297e-05,340.35,-1.1001e-05,-0.0086935,-1.1963e-05,-7.2318,2.0107
21967,22.067,5.4545,0.1,3.5531e-05,355.06,3.5378e-05,350.71,-1.13e-05,-0.0064548,-1.2437e-05,-8.5536,1.9975
21968,22.159,5.1818,0.1,3.4816e-05,347.92,3.4767e-05,346.48,-1.1338e-05,0.071873,-1.1738e-05,-2.935,2.0107
21969,22.067,5.2727,0.1,3.5942e-05,359.17,3.5865e-05,356.94,-1.1635e-05,0.044934,-1.2236e-05,-4.4687,1.9975
21970,22.159,5,0.1,3.5268e-05,352.43,3.5317e-05,353.9,-1.1364e-05,3.1581,-1.1811e-05,-0.20205,2.0108
21971,22.067,5.0909,0.1,3.6434e-05,364.09,3.6457e-05,364.76,-1.1862e-05,1.7151,-1.2138e-05,-0.36,1.9976
21972,22.159,4.8182,0.1,3.577e-05,357.45,3.5929e-05,362.34,-1.0951e-05,10.101,-1.2311e-05,-0.11729,2.0109
21973,22.067,4.9091,0.1,3.6998e-05,369.72,3.7136e-05,373.92,-1.1473e-05,8.6982,-1.2649e-05,-0.13514,1.9977
21974,22.159,4.6364,0.1,3.6317e-05,362.92,3.6587e-05,371.53,-1.0464e-05,17.999,-1.2873e-05,-0.10049,2.0109
21975,22.067,4.7273,0.1,3.7625e-05,375.99,3.7883e-05,384.14,-1.0981e-05,16.993,-1.3257e-05,-0.10766,1.9977
21976,22.159,4.4545,0.1,3.6899e-05,368.74,3.7275e-05,381.18,-9.9425e-06,26.4,-1.3469e-05,-0.093626,2.011
21977,22.067,4.5455,0.1,3.8306e-05,382.8,3.868e-05,395.09,-1.044e-05,26.019,-1.3916e-05,-0.097423,1.9978
21978,22.159,4.2727,0.1,3.7506e-05,374.81,3.7975e-05,390.97,-9.4187e-06,34.868,-1.4071e-05,-0.090317,2.011
21979,22.067,4.3636,0.1,3.9031e-05,390.04,3.9509e-05,406.43,-9.8861e-06,35.3,-1.4597e-05,-0.092386,1.9978
21980,22.159,4.0909,0.1,3.8122e-05,380.96,3.8669e-05,400.57,-8.9252e-06,42.968,-1.4656e-05,-0.089129,2.011
21981,22.067,4.1818,0.1,3.9781e-05,397.53,4.0347e-05,417.8,-9.3563e-06,44.345,-1.527e-05,-0.090129,1.9979
21982,22.159,3.9091,0.1,3.8724e-05,386.97,3.9331e-05,409.62,-8.4888e-06,50.315,-1.5197e-05,-0.089614,2.0111
21983,22.067,4,0.1,4.0533e-05,405.05,4.1169e-05,428.77,-8.8829e-06,52.695,-1.5908e-05,-0.090065,1.9979
21984,22.159,3.7273,0.1,3.9283e-05,392.56,3.9936e-05,417.73,-8.1278e-06,56.6,-1.5673e-05,-0.091409,2.0111
21985,22.067,3.8182,0.1,4.1254e-05,412.26,4.1943e-05,438.9,-8.489e-06,59.977,-1.6484e-05,-0.09189,1.9979
21986,22.159,3.5455,0.1,3.9766e-05,397.39,4.0452e-05,424.54,-7.8507e-06,61.614,-1.6064e-05,-0.093976,2.0111
21987,22.067,3.6364,0.1,4.1905e-05,418.76,4.2632e-05,447.75,-8.1853e-06,65.93,-1.6973e-05,-0.095093,1.9979
21988,22.159,3.3636,0.1,4.0141e-05,401.13,4.0848e-05,429.69,-7.6581e-06,65.238,-1.6354e-05,-0.096603,2.0111
21989,22.067,3.4545,0.1,4.2442e-05,424.13,4.3196e-05,454.87,-7.971e-06,70.419,-1.7356e-05,-0.098845,1.998
21990,22.159,3.1818,0.1,4.0378e-05,403.5,4.1097e-05,432.91,-7.5458e-06,67.42,-1.6532e-05,-0.098553,2.0111
21991,22.067,3.2727,0.1,4.2826e-05,427.97,4.3597e-05,459.86,-7.8374e-06,73.399,-1.762e-05,-0.10213,1.998
21992,22.159,3,0.1,4.046e-05,404.32,4.1183e-05,434,-7.509e-06,68.148,-1.6592e-05,-0.099272,2.0111
21993,22.067,3.0909,0.1,4.3027e-05,429.97,4.3805e-05,462.43,-7.774e-06,74.88,-1.7754e-05,-0.10405,1.998
21994,22.159,2.8182,0.1,4.0378e-05,403.5,4.1097e-05,432.91,-7.5458e-06,67.42,-1.6532e-05,-0.098553,2.0111
21995,22.067,2.9091,0.1,4.3027e-05,429.97,4.3805e-05,462.43,-7.774e-06,74.88,-1.7754e-05,-0.10405,1.998
21996,22.159,2.6364,0.1,4.0141e-05,401.13,4.0848e-05,429.69,-7.6581e-06,65.238,-1.6354e-05,-0.096603,2.0111
21997,22.067,2.7273,0.1,4.2826e-05,427.97,4.3597e-05,459.86,-7.8374e-06,73.399,-1.762e-05,-0.10214,1.998
21998,22.159,2.4545,0.1,3.9766e-05,397.39,4.0452e-05,424.54,-7.8507e-06,61.614,-1.6064e-05,-0.093976,2.0111
21999,22.067,2.5455,0.1,4.2442e-05,424.13,4.3196e-05,454.87,-7.971e-06,70.419,-1.7356e-05,-0.098844,1.998
22000,22.159,2.2727,0.1,3.9283e-05,392.56,3.9936e-05,417.73,-8.1278e-06,56.6,-1.5673e-05,-0.091409,2.0111
22001,22.067,2.3636,0.1,4.1905e-05,418.76,4.2632e-05,447.75,-8.1853e-06,65.93,-1.6973e-05,-0.095092,1.9979
22002,22.159,2.0909,0.1,3.8724e-05,386.97,3.9331e-05,409.62,-8.4888e-06,50.315,-1.5197e-05,-0.089614,2.0111
22003,22.067,2.1818,0.1,4.1254e-05,412.26,4.1943e-05,438.9,-8.489e-06,59.977,-1.6484e-05,-0.09189,1.9979
22004,22.159,1.9091,0.1,3.8122e-05,380.96,3.8669e-05,400.57,-8.9252e-06,42.968,-1.4656e-05,-0.089129,2.011
22005,22.067,2,0.1,4.0533e-05,405.05,4.1169e-05,428.77,-8.8829e-06,52.695,-1.5908e-05,-0.090066,1.9979
22006,22.159,1.7273,0.1,3.7506e-05,374.81,3.7975e-05,390.97,-9.4187e-06,34.868,-1.4071e-05,-0.090317,2.011
22007,22.067,1.8182,0.1,3.9781e-05,397.53,4.0347e-05,417.8,-9.3563e-06,44.345,-1.527e-05,-0.09013,1.9979
22008,22.159,1.5455,0.1,3.6899e-05,368.74,3.7275e-05,381.18,-9.9425e-06,26.4,-1.3469e-05,-0.093625,2.011
22009,22.067,1.6364,0.1,3.9031e-05,390.04,3.9509e-05,406.43,-9.8861e-06,35.3,-1.4597e-05,-0.092386,1.9978
22010,22.159,1.3636,0.1,3.6317e-05,362.92,3.6587e-05,371.53,-1.0464e-05,17.999,-1.2873e-05,-0.10049,2.0109
22011,22.067,1.4545,0.1,3.8306e-05,382.8,3.868e-05,395.09,-1.044e-05,26.019,-1.3916e-05,-0.097422,1.9978
22012,22.159,1.1818,0.1,3.577e-05,357.45,3.5929e-05,362.34,-1.0951e-05,10.101,-1.2311e-05,-0.11729,2.0109
22013,22.067,1.2727,0.1,3.7625e-05,375.99,3.7883e-05,384.14,-1.0981e-05,16.993,-1.3257e-05,-0.10766,1.9977
22014,22.159,1,0.1,3.5268e-05,352.43,3.5317e-05,353.9,-1.1364e-05,3.1581,-1.1811e-05,-0.20205,2.0108
22015,22.067,1.0909,0.1,3.6998e-05,369.72,3.7136e-05,373.93,-1.1473e-05,8.6982,-1.2649e-05,-0.13514,1.9977
22016,22.159,0.81818,0.1,3.4816e-05,347.92,3.4767e-05,346.48,-1.1338e-05,0.071871,-1.1738e-05,-2.9349,2.0107
22017,22.067,0.90909,0.1,3.6434e-05,364.09,3.6457e-05,364.76,-1.1862e-05,1.7151,-1.2138e-05,-0.36,1.9976
22018,22.159,0.63636,0.1,3.4426e-05,344.02,3.4297e-05,340.35,-1.1001e-05,-0.0086956,-1.1963e-05,-7.2318,2.0107
22019,22.067,0.72727,0.1,3.5942e-05,359.17,3.5865e-05,356.94,-1.1635e-05,0.044931,-1.2236e-05,-4.4687,1.9975
22020,22.159,0.45455,0.1,3.4111e-05,340.88,3.3929e-05,335.74,-1.0757e-05,-0.008156,-1.2091e-05,-10.037,2.0106
22021,22.067,0.54545,0.1,3.5531e-05,355.06,3.5378e-05,350.71,-1.13e-05,-0.0064552,-1.2437e-05,-8.5536,1.9975
22022,22.159,0.27273,0.1,3.3961e-05,339.38,3.3747e-05,333.36,-1.0621e-05,0.0040693,-1.2183e-05,-11.736,2.0105
22023,22.067,0.36364,0.1,3.5219e-05,351.95,3.502e-05,346.35,-1.1075e-05,0.0059502,-1.2534e-05,-10.952,1.9974
22024,22.067,0.18182,0.1,3.5174e-05,351.5,3.4943e-05,345.03,-1.0977e-05,0.00010178,-1.2656e-05,-12.612,1.9973
22025,22.159,0.090909,0.1,3.3383e-05,333.6,3.323e-05,329.27,-1.0598e-05,-0.038704,-1.1719e-05,-8.464,2.0104
22026,21.975,5.7273,0.1,3.6412e-05,363.87,3.6199e-05,357.88,-1.1431e-05,0.0064873,-1.2989e-05,-11.701,1.9842
22027,21.883,5.8182,0.1,3.7405e-05,373.79,3.7169e-05,367.18,-1.1699e-05,0.00054953,-1.3416e-05,-12.904,1.971
22028,21.975,5.9091,0.1,3.576e-05,357.35,3.5607e-05,353.01,-1.1381e-05,-0.04218,-1.2506e-05,-8.4889,1.9841
22029,21.975,5.5455,0.1,3.6632e-05,366.07,3.6463e-05,361.27,-1.1619e-05,0.0038011,-1.2873e-05,-9.4189,1.9843
22030,21.883,5.6364,0.1,3.7522e-05,374.96,3.7325e-05,369.41,-1.1839e-05,0.015253,-1.3287e-05,-10.869,1.9711
22031,21.975,5.3636,0.1,3.7042e-05,370.16,3.6941e-05,367.27,-1.1936e-05,0.030646,-1.2704e-05,-5.7439,1.9843
22032,21.883,5.4545,0.1,3.7934e-05,379.08,3.7796e-05,375.14,-1.2129e-05,0.021655,-1.3167e-05,-7.7731,1.9712
22033,21.975,5.1818,0.1,3.7556e-05,375.3,3.7552e-05,375.2,-1.2295e-05,0.66965,-1.2498e-05,-0.85793,1.9844
22034,21.883,5.2727,0.1,3.8477e-05,384.51,3.8432e-05,383.19,-1.2542e-05,0.19874,-1.2941e-05,-2.806,1.9712
22035,21.975,5,0.1,3.8162e-05,381.35,3.8275e-05,384.78,-1.1988e-05,7.1258,-1.2958e-05,-0.1584,1.9845
22036,21.883,5.0909,0.1,3.9137e-05,391.1,3.921e-05,393.29,-1.2514e-05,4.6515,-1.3165e-05,-0.23911,1.9713
22037,21.975,4.8182,0.1,3.8851e-05,388.24,3.909e-05,395.73,-1.1506e-05,15.574,-1.3594e-05,-0.11533,1.9846
22038,21.883,4.9091,0.1,3.9906e-05,398.78,4.0111e-05,405.13,-1.2056e-05,13.176,-1.3827e-05,-0.13674,1.9714
22039,21.975,4.6364,0.1,3.9614e-05,395.87,3.9978e-05,407.72,-1.0959e-05,24.997,-1.43e-05,-0.1013,1.9846
22040,21.883,4.7273,0.1,4.0772e-05,407.44,4.1112e-05,418.4,-1.151e-05,23.009,-1.4588e-05,-0.11201,1.9715
22041,21.975,4.4545,0.1,4.0438e-05,404.1,4.0916e-05,420.37,-1.0386e-05,34.898,-1.5044e-05,-0.094509,1.9847
22042,21.883,4.5455,0.1,4.1725e-05,416.96,4.2192e-05,432.69,-1.0922e-05,33.607,-1.5408e-05,-0.10088,1.9715
22043,21.975,4.2727,0.1,4.1307e-05,412.78,4.1883e-05,433.28,-9.8267e-06,44.754,-1.5795e-05,-0.091134,1.9847
22044,21.883,4.3636,0.1,4.2745e-05,427.16,4.3325e-05,447.57,-1.0334e-05,44.398,-1.6256e-05,-0.094922,1.9716
22045,21.975,4.0909,0.1,4.2194e-05,421.65,4.285e-05,446.01,-9.3169e-06,54.05,-1.6522e-05,-0.090301,1.9847
22046,21.883,4.1818,0.1,4.381e-05,437.8,4.4481e-05,462.55,-9.7896e-06,54.784,-1.7093e-05,-0.092308,1.9716
22047,21.975,3.9091,0.1,4.3065e-05,430.36,4.3783e-05,458.07,-8.8854e-06,62.34,-1.7195e-05,-0.091758,1.9848
22048,21.883,4,0.1,4.4882e-05,448.51,4.5625e-05,477.1,-9.3261e-06,64.215,-1.7885e-05,-0.092725,1.9716
22049,21.975,3.7273,0.1,4.3877e-05,438.47,4.4641e-05,468.93,-8.5479e-06,69.297,-1.7783e-05,-0.095117,1.9848
22050,21.883,3.8182,0.1,4.5913e-05,458.82,4.6711e-05,490.6,-8.9664e-06,72.265,-1.8597e-05,-0.095973,1.9717
22051,21.975,3.5455,0.1,4.4581e-05,445.5,4.5376e-05,478.08,-8.3056e-06,74.735,-1.8265e-05,-0.099598,1.9848
22052,21.883,3.6364,0.1,4.6846e-05,468.14,4.7683e-05,502.43,-8.7146e-06,78.683,-1.92e-05,-0.10135,1.9717
22053,21.975,3.3636,0.1,4.5127e-05,450.96,4.5944e-05,485.02,-8.1489e-06,78.59,-1.8622e-05,-0.10408,1.9848
22054,21.883,3.4545,0.1,4.7618e-05,475.85,4.8482e-05,511.97,-8.558e-06,83.393,-1.9671e-05,-0.10755,1.9717
22055,21.975,3.1818,0.1,4.5473e-05,454.42,4.6303e-05,489.36,-8.0633e-06,80.876,-1.8842e-05,-0.10737,1.9848
22056,21.883,3.2727,0.1,4.8171e-05,481.38,4.9052e-05,518.67,-8.4737e-06,86.445,-1.9994e-05,-0.11294,1.9717
22057,21.975,3,0.1,4.5592e-05,455.61,4.6425e-05,490.84,-8.0363e-06,81.632,-1.8915e-05,-0.10858,1.9848
22058,21.883,3.0909,0.1,4.8459e-05,484.26,4.9349e-05,522.13,-8.4386e-06,87.936,-2.0158e-05,-0.11607,1.9717
22059,21.975,2.8182,0.1,4.5473e-05,454.42,4.6303e-05,489.36,-8.0633e-06,80.876,-1.8842e-05,-0.10737,1.9848
22060,21.883,2.9091,0.1,4.8459e-05,484.26,4.9349e-05,522.13,-8.4386e-06,87.936,-2.0158e-05,-0.11607,1.9717
22061,21.975,2.6364,0.1,4.5127e-05,450.96,4.5944e-05,485.02,-8.1489e-06,78.59,-1.8622e-05,-0.10408,1.9848
22062,21.883,2.7273,0.1,4.8171e-05,481.38,4.9052e-05,518.67,-8.4737e-06,86.445,-1.9994e-05,-0.11294,1.9717
22063,21.975,2.4545,0.1,4.4581e-05,445.5,4.5376e-05,478.08,-8.3056e-06,74.735,-1.8265e-05,-0.099597,1.9848
22064,21.883,2.5455,0.1,4.7618e-05,475.85,4.8482e-05,511.97,-8.558e-06,83.393,-1.9671e-05,-0.10755,1.9717
22065,21.975,2.2727,0.1,4.3877e-05,438.47,4.4641e-05,468.93,-8.5479e-06,69.297,-1.7783e-05,-0.095117,1.9848
22066,21.883,2.3636,0.1,4.6846e-05,468.14,4.7683e-05,502.43,-8.7146e-06,78.683,-1.92e-05,-0.10135,1.9717
22067,21.975,2.0909,0.1,4.3065e-05,430.36,4.3783e-05,458.07,-8.8854e-06,62.339,-1.7195e-05,-0.091759,1.9848
22068,21.883,2.1818,0.1,4.5913e-05,458.82,4.6711e-05,490.6,-8.9664e-06,72.265,-1.8597e-05,-0.095973,1.9717
22069,21.975,1.9091,0.1,4.2194e-05,421.65,4.285e-05,446.01,-9.3169e-06,54.049,-1.6522e-05,-0.090302,1.9847
22070,21.883,2,0.1,4.4882e-05,448.51,4.5625e-05,477.1,-9.3261e-06,64.215,-1.7885e-05,-0.092725,1.9716
22071,21.975,1.7273,0.1,4.1307e-05,412.78,4.1883e-05,433.28,-9.8267e-06,44.754,-1.5795e-05,-0.091135,1.9847
22072,21.883,1.8182,0.1,4.381e-05,437.8,4.4481e-05,462.55,-9.7896e-06,54.784,-1.7093e-05,-0.092308,1.9716
22073,21.975,1.5455,0.1,4.0438e-05,404.1,4.0917e-05,420.37,-1.0386e-05,34.898,-1.5044e-05,-0.09451,1.9847
22074,21.883,1.6364,0.1,4.2745e-05,427.16,4.3325e-05,447.57,-1.0334e-05,44.398,-1.6256e-05,-0.094922,1.9716
22075,21.975,1.3636,0.1,3.9614e-05,395.87,3.9978e-05,407.72,-1.0959e-05,24.997,-1.43e-05,-0.1013,1.9846
22076,21.883,1.4545,0.1,4.1725e-05,416.96,4.2192e-05,432.69,-1.0922e-05,33.607,-1.5408e-05,-0.10088,1.9715
22077,21.975,1.1818,0.1,3.8851e-05,388.24,3.909e-05,395.73,-1.1506e-05,15.574,-1.3594e-05,-0.11533,1.9846
22078,21.883,1.2727,0.1,4.0772e-05,407.44,4.1112e-05,418.4,-1.151e-05,23.009,-1.4588e-05,-0.11201,1.9715
22079,21.975,1,0.1,3.8162e-05,381.35,3.8275e-05,384.78,-1.1988e-05,7.1258,-1.2958e-05,-0.1584,1.9845
22080,21.883,1.0909,0.1,3.9906e-05,398.78,4.0111e-05,405.13,-1.2056e-05,13.176,-1.3827e-05,-0.13674,1.9714
22081,21.975,0.81818,0.1,3.7556e-05,375.3,3.7552e-05,375.2,-1.2295e-05,0.66966,-1.2498e-05,-0.85792,1.9844
22082,21.883,0.90909,0.1,3.9137e-05,391.1,3.921e-05,393.29,-1.2514e-05,4.6516,-1.3165e-05,-0.23912,1.9713
22083,21.975,0.63636,0.1,3.7042e-05,370.16,3.6941e-05,367.27,-1.1936e-05,0.030645,-1.2704e-05,-5.7439,1.9843
22084,21.883,0.72727,0.1,3.8477e-05,384.51,3.8432e-05,383.19,-1.2542e-05,0.19874,-1.2941e-05,-2.806,1.9712
22085,21.975,0.45455,0.1,3.6632e-05,366.07,3.6463e-05,361.27,-1.1619e-05,0.0038021,-1.2873e-05,-9.4189,1.9843
22086,21.883,0.54545,0.1,3.7934e-05,379.08,3.7796e-05,375.14,-1.2129e-05,0.021656,-1.3167e-05,-7.7731,1.9712
22087,21.975,0.27273,0.1,3.6412e-05,363.87,3.6199e-05,357.88,-1.1431e-05,0.0064882,-1.2989e-05,-11.701,1.9842
22088,21.883,0.36364,0.1,3.7522e-05,374.96,3.7325e-05,369.41,-1.1839e-05,0.015254,-1.3287e-05,-10.869,1.9711
22089,21.883,0.18182,0.1,3.7405e-05,373.79,3.7169e-05,367.18,-1.1699e-05,0.00054818,-1.3416e-05,-12.904,1.971
22090,21.975,0.090909,0.1,3.576e-05,357.35,3.5607e-05,353.01,-1.1381e-05,-0.04218,-1.2506e-05,-8.4889,1.9841
22091,21.791,5.7273,0.1,3.8498e-05,384.72,3.8281e-05,378.6,-1.2106e-05,0.012884,-1.3701e-05,-11.97,1.9579
22092,21.699,5.8182,0.1,3.9212e-05,391.85,3.8966e-05,384.95,-1.2267e-05,0.0034313,-1.4059e-05,-13.454,1.9447
22093,21.791,5.9091,0.1,3.7743e-05,377.17,3.7588e-05,372.74,-1.2027e-05,-0.046116,-1.3175e-05,-8.6644,1.9578
22094,21.791,5.5455,0.1,3.8819e-05,387.92,3.8655e-05,383.26,-1.235e-05,0.02517,-1.3576e-05,-9.1875,1.958
22095,21.699,5.6364,0.1,3.9424e-05,393.97,3.9224e-05,388.31,-1.2453e-05,0.03155,-1.3936e-05,-11.109,1.9448
22096,21.791,5.3636,0.1,3.9366e-05,393.39,3.9285e-05,391.05,-1.2746e-05,0.109,-1.3392e-05,-4.7425,1.9581
22097,21.699,5.4545,0.1,3.9977e-05,399.49,3.9846e-05,395.77,-1.2818e-05,0.068834,-1.3813e-05,-7.4057,1.9449
22098,21.791,5.1818,0.1,4.0057e-05,400.29,4.009e-05,401.28,-1.2994e-05,2.4293,-1.3375e-05,-0.43799,1.9581
22099,21.699,5.2727,0.1,4.0705e-05,406.77,4.0683e-05,406.14,-1.3293e-05,0.58078,-1.3615e-05,-1.8408,1.945
22100,21.791,5,0.1,4.088e-05,408.52,4.1048e-05,413.65,-1.259e-05,10.634,-1.4028e-05,-0.16574,1.9582
22101,21.699,5.0909,0.1,4.1599e-05,415.7,4.1712e-05,419.12,-1.3113e-05,7.191,-1.4103e-05,-0.24873,1.9451
22102,21.791,4.8182,0.1,4.1827e-05,417.99,4.2137e-05,427.83,-1.2065e-05,20.573,-1.482e-05,-0.12452,1.9583
22103,21.699,4.9091,0.1,4.2648e-05,426.19,4.2911e-05,434.41,-1.2627e-05,17.119,-1.4926e-05,-0.15353,1.9451
22104,21.791,4.6364,0.1,4.2885e-05,428.55,4.3332e-05,443.41,-1.1479e-05,31.578,-1.5696e-05,-0.10805,1.9584
22105,21.699,4.7273,0.1,4.3841e-05,438.1,4.4253e-05,451.59,-1.2056e-05,28.507,-1.5867e-05,-0.12397,1.9452
22106,21.791,4.4545,0.1,4.4035e-05,440.04,4.4607e-05,459.93,-1.0876e-05,43.061,-1.662e-05,-0.099281,1.9584
22107,21.699,4.5455,0.1,4.5157e-05,451.26,4.571e-05,470.19,-1.1446e-05,40.744,-1.6883e-05,-0.10921,1.9453
22108,21.791,4.2727,0.1,4.5253e-05,452.21,4.5929e-05,476.89,-1.0303e-05,54.381,-1.7553e-05,-0.094714,1.9584
22109,21.699,4.3636,0.1,4.6574e-05,465.42,4.7248e-05,489.65,-1.085e-05,53.131,-1.7934e-05,-0.10078,1.9453
22110,21.791,4.0909,0.1,4.6502e-05,464.7,4.7262e-05,493.68,-9.8046e-06,64.906,-1.8456e-05,-0.093684,1.9585
22111,21.699,4.1818,0.1,4.8057e-05,480.24,4.8828e-05,509.34,-1.032e-05,64.917,-1.8973e-05,-0.096898,1.9454
22112,21.791,3.9091,0.1,4.7734e-05,477.01,4.8557e-05,509.66,-9.4116e-06,74.106,-1.9287e-05,-0.096119,1.9585
22113,21.699,4,0.1,4.9555e-05,495.21,5.0402e-05,528.53,-9.9037e-06,75.414,-1.9954e-05,-0.097521,1.9454
22114,21.791,3.7273,0.1,4.8884e-05,488.51,4.9756e-05,524.12,-9.1356e-06,81.632,-2.0014e-05,-0.10157,1.9585
22115,21.699,3.8182,0.1,5.1001e-05,509.66,5.1905e-05,546.42,-9.6229e-06,84.123,-2.0833e-05,-0.10253,1.9454
22116,21.791,3.5455,0.1,4.9883e-05,498.49,5.0788e-05,536.32,-8.9669e-06,87.342,-2.0606e-05,-0.10881,1.9586
22117,21.699,3.6364,0.1,5.2312e-05,522.76,5.3258e-05,562.14,-9.4725e-06,90.811,-2.1573e-05,-0.11092,1.9454
22118,21.791,3.3636,0.1,5.0659e-05,506.24,5.1587e-05,545.6,-8.88e-06,91.27,-2.1043e-05,-0.11602,1.9586
22119,21.699,3.4545,0.1,5.3398e-05,533.61,5.4373e-05,574.84,-9.4208e-06,95.513,-2.2149e-05,-0.12068,1.9455
22120,21.791,3.1818,0.1,5.1152e-05,511.17,5.2093e-05,551.4,-8.8442e-06,93.541,-2.131e-05,-0.12132,1.9586
22121,21.699,3.2727,0.1,5.4176e-05,541.38,5.517e-05,583.76,-9.423e-06,98.434,-2.2541e-05,-0.12918,1.9455
22122,21.791,3,0.1,5.1321e-05,512.86,5.2266e-05,553.38,-8.8353e-06,94.281,-2.14e-05,-0.12326,1.9586
22123,21.699,3.0909,0.1,5.4582e-05,545.44,5.5586e-05,588.37,-9.4367e-06,99.815,-2.2739e-05,-0.1341,1.9455
22124,21.791,2.8182,0.1,5.1152e-05,511.17,5.2093e-05,551.4,-8.8442e-06,93.541,-2.131e-05,-0.12132,1.9586
22125,21.699,2.9091,0.1,5.4582e-05,545.44,5.5586e-05,588.37,-9.4367e-06,99.815,-2.2739e-05,-0.1341,1.9455
22126,21.791,2.6364,0.1,5.0659e-05,506.24,5.1587e-05,545.6,-8.88e-06,91.27,-2.1043e-05,-0.11602,1.9586
22127,21.699,2.7273,0.1,5.4176e-05,541.38,5.517e-05,583.76,-9.423e-06,98.434,-2.2541e-05,-0.12918,1.9455
22128,21.791,2.4545,0.1,4.9883e-05,498.49,5.0788e-05,536.32,-8.9669e-06,87.342,-2.0606e-05,-0.10881,1.9586
22129,21.699,2.5455,0.1,5.3398e-05,533.61,5.4373e-05,574.84,-9.4208e-06,95.513,-2.2149e-05,-0.12068,1.9455
22130,21.791,2.2727,0.1,4.8884e-05,488.51,4.9756e-05,524.12,-9.1356e-06,81.632,-2.0014e-05,-0.10157,1.9585
22131,21.699,2.3636,0.1,5.2312e-05,522.76,5.3258e-05,562.14,-9.4725e-06,90.811,-2.1573e-05,-0.11092,1.9454
22132,21.791,2.0909,0.1,4.7734e-05,477.01,4.8557e-05,509.66,-9.4116e-06,74.106,-1.9287e-05,-0.096119,1.9585
22133,21.699,2.1818,0.1,5.1001e-05,509.66,5.1905e-05,546.42,-9.6229e-06,84.123,-2.0833e-05,-0.10253,1.9454
22134,21.791,1.9091,0.1,4.6502e-05,464.7,4.7262e-05,493.68,-9.8046e-06,64.906,-1.8456e-05,-0.093684,1.9585
22135,21.699,2,0.1,4.9555e-05,495.21,5.0402e-05,528.53,-9.9037e-06,75.414,-1.9954e-05,-0.097521,1.9454
22136,21.791,1.7273,0.1,4.5253e-05,452.21,4.5929e-05,476.89,-1.0303e-05,54.381,-1.7553e-05,-0.094713,1.9584
22137,21.699,1.8182,0.1,4.8057e-05,480.24,4.8828e-05,509.34,-1.032e-05,64.917,-1.8973e-05,-0.096898,1.9454
22138,21.791,1.5455,0.1,4.4035e-05,440.04,4.4607e-05,459.93,-1.0876e-05,43.061,-1.662e-05,-0.09928,1.9584
22139,21.699,1.6364,0.1,4.6574e-05,465.42,4.7248e-05,489.65,-1.085e-05,53.13,-1.7934e-05,-0.10078,1.9453
22140,21.791,1.3636,0.1,4.2885e-05,428.55,4.3332e-05,443.41,-1.1479e-05,31.578,-1.5696e-05,-0.10805,1.9584
22141,21.699,1.4545,0.1,4.5157e-05,451.26,4.571e-05,470.19,-1.1446e-05,40.744,-1.6883e-05,-0.10921,1.9453
22142,21.791,1.1818,0.1,4.1827e-05,417.99,4.2137e-05,427.83,-1.2065e-05,20.573,-1.482e-05,-0.12452,1.9583
22143,21.699,1.2727,0.1,4.3841e-05,438.1,4.4253e-05,451.59,-1.2056e-05,28.507,-1.5867e-05,-0.12397,1.9452
22144,21.791,1,0.1,4.088e-05,408.52,4.1048e-05,413.65,-1.259e-05,10.634,-1.4028e-05,-0.16575,1.9582
22145,21.699,1.0909,0.1,4.2648e-05,426.19,4.2911e-05,434.41,-1.2627e-05,17.119,-1.4926e-05,-0.15353,1.9451
22146,21.791,0.81818,0.1,4.0057e-05,400.29,4.009e-05,401.28,-1.2994e-05,2.4293,-1.3375e-05,-0.43799,1.9581
22147,21.699,0.90909,0.1,4.1599e-05,415.7,4.1712e-05,419.12,-1.3113e-05,7.191,-1.4103e-05,-0.24873,1.9451
22148,21.791,0.63636,0.1,3.9366e-05,393.39,3.9285e-05,391.05,-1.2746e-05,0.10901,-1.3392e-05,-4.7425,1.9581
22149,21.699,0.72727,0.1,4.0705e-05,406.77,4.0683e-05,406.14,-1.3293e-05,0.58079,-1.3615e-05,-1.8408,1.945
22150,21.791,0.45455,0.1,3.8819e-05,387.92,3.8655e-05,383.26,-1.235e-05,0.025172,-1.3576e-05,-9.1875,1.958
22151,21.699,0.54545,0.1,3.9977e-05,399.49,3.9846e-05,395.77,-1.2818e-05,0.068834,-1.3813e-05,-7.4057,1.9449
22152,21.791,0.27273,0.1,3.8498e-05,384.72,3.8281e-05,378.6,-1.2106e-05,0.012882,-1.3701e-05,-11.97,1.9579
22153,21.699,0.36364,0.1,3.9424e-05,393.97,3.9224e-05,388.31,-1.2453e-05,0.031551,-1.3936e-05,-11.109,1.9448
22154,21.699,0.18182,0.1,3.9212e-05,391.85,3.8966e-05,384.95,-1.2267e-05,0.0034296,-1.4059e-05,-13.454,1.9447
22155,21.791,0.090909,0.1,3.7743e-05,377.17,3.7588e-05,372.74,-1.2027e-05,-0.046117,-1.3175e-05,-8.6644,1.9578
22156,21.607,5.7273,0.1,4.0126e-05,400.98,3.9898e-05,394.58,-1.2614e-05,0.024492,-1.4284e-05,-12.52,1.9316
22157,21.515,5.8182,0.1,4.0491e-05,404.63,4.023e-05,397.33,-1.2649e-05,0.0098384,-1.4547e-05,-14.244,1.9184
22158,21.607,5.9091,0.1,3.9236e-05,392.09,3.9074e-05,387.49,-1.2504e-05,-0.050188,-1.3693e-05,-8.9844,1.9315
22159,21.607,5.5455,0.1,4.058e-05,405.52,4.0415e-05,400.82,-1.2923e-05,0.059385,-1.4169e-05,-9.3066,1.9317
22160,21.515,5.6364,0.1,4.0823e-05,407.95,4.0614e-05,402.04,-1.2887e-05,0.057032,-1.4441e-05,-11.617,1.9185
22161,21.607,5.3636,0.1,4.1316e-05,412.87,4.1246e-05,410.87,-1.3404e-05,0.24439,-1.3999e-05,-4.222,1.9318
22162,21.515,5.4545,0.1,4.1561e-05,415.33,4.1433e-05,411.64,-1.3335e-05,0.14104,-1.434e-05,-7.4084,1.9186
22163,21.607,5.1818,0.1,4.2249e-05,422.2,4.231e-05,424.01,-1.3578e-05,4.0905,-1.418e-05,-0.43233,1.9319
22164,21.515,5.2727,0.1,4.254e-05,425.11,4.2533e-05,424.91,-1.3863e-05,1.1772,-1.4227e-05,-1.5583,1.9187
22165,21.607,5,0.1,4.337e-05,433.4,4.3582e-05,439.93,-1.3162e-05,13.583,-1.4996e-05,-0.19434,1.932
22166,21.515,5.0909,0.1,4.375e-05,437.2,4.3894e-05,441.56,-1.3654e-05,9.1736,-1.4915e-05,-0.3012,1.9188
22167,21.607,4.8182,0.1,4.4667e-05,446.36,4.5036e-05,458.24,-1.2628e-05,24.977,-1.5972e-05,-0.14357,1.9321
22168,21.515,4.9091,0.1,4.518e-05,451.49,4.5488e-05,461.23,-1.3186e-05,20.376,-1.5923e-05,-0.18562,1.9189
22169,21.607,4.6364,0.1,4.612e-05,460.88,4.6641e-05,478.46,-1.2034e-05,37.59,-1.7053e-05,-0.12103,1.9321
22170,21.515,4.7273,0.1,4.681e-05,467.77,4.7284e-05,483.44,-1.263e-05,33.279,-1.7078e-05,-0.1451,1.919
22171,21.607,4.4545,0.1,4.7705e-05,476.72,4.8362e-05,499.99,-1.1432e-05,50.725,-1.8197e-05,-0.10822,1.9322
22172,21.515,4.5455,0.1,4.8613e-05,485.79,4.924e-05,507.59,-1.2036e-05,47.191,-1.8333e-05,-0.12355,1.919
22173,21.607,4.2727,0.1,4.9388e-05,493.53,5.0158e-05,522.18,-1.0878e-05,63.578,-1.9354e-05,-0.10114,1.9322
22174,21.515,4.3636,0.1,5.0556e-05,505.21,5.1316e-05,532.98,-1.1467e-05,61.255,-1.9634e-05,-0.11046,1.9191
22175,21.607,4.0909,0.1,5.1119e-05,510.83,5.1979e-05,544.26,-1.043e-05,75.345,-2.0471e-05,-0.099296,1.9323
22176,21.515,4.1818,0.1,5.2593e-05,525.57,5.346e-05,558.78,-1.0994e-05,74.5,-2.0923e-05,-0.10378,1.9191
22177,21.607,3.9091,0.1,5.283e-05,527.93,5.3758e-05,565.35,-1.0123e-05,85.369,-2.1499e-05,-0.10279,1.9323
22178,21.515,4,0.1,5.4658e-05,546.2,5.5607e-05,584.04,-1.0675e-05,86.019,-2.2138e-05,-0.10386,1.9192
22179,21.607,3.7273,0.1,5.4432e-05,543.95,5.5412e-05,584.48,-9.964e-06,93.27,-2.2392e-05,-0.11101,1.9323
22180,21.515,3.8182,0.1,5.6655e-05,566.16,5.7668e-05,607.66,-1.0537e-05,95.192,-2.3221e-05,-0.11119,1.9192
22181,21.607,3.5455,0.1,5.5825e-05,557.87,5.6842e-05,600.66,-9.9256e-06,98.988,-2.3116e-05,-0.12217,1.9323
22182,21.515,3.6364,0.1,5.8469e-05,584.29,5.9528e-05,628.43,-1.0559e-05,101.83,-2.4128e-05,-0.12422,1.9192
22183,21.607,3.3636,0.1,5.6908e-05,568.69,5.7951e-05,612.96,-9.958e-06,102.72,-2.3647e-05,-0.13339,1.9324
22184,21.515,3.4545,0.1,5.9973e-05,599.31,6.1065e-05,645.2,-1.068e-05,106.14,-2.4825e-05,-0.13927,1.9193
22185,21.607,3.1818,0.1,5.7595e-05,575.56,5.8653e-05,620.66,-1.0006e-05,104.78,-2.397e-05,-0.14162,1.9324
22186,21.515,3.2727,0.1,6.1049e-05,610.07,6.2162e-05,656.98,-1.0823e-05,108.6,-2.5297e-05,-0.15223,1.9193
22187,21.607,3,0.1,5.7831e-05,577.91,5.8894e-05,623.28,-1.0027e-05,105.43,-2.4078e-05,-0.14463,1.9324
22188,21.515,3.0909,0.1,6.1611e-05,615.68,6.2734e-05,663.05,-1.0915e-05,109.68,-2.5534e-05,-0.15967,1.9193
22189,21.607,2.8182,0.1,5.7595e-05,575.56,5.8653e-05,620.66,-1.0006e-05,104.78,-2.397e-05,-0.14162,1.9324
22190,21.515,2.9091,0.1,6.1611e-05,615.68,6.2734e-05,663.05,-1.0915e-05,109.68,-2.5534e-05,-0.15967,1.9193
22191,21.607,2.6364,0.1,5.6908e-05,568.69,5.7951e-05,612.96,-9.958e-06,102.72,-2.3647e-05,-0.13339,1.9324
22192,21.515,2.7273,0.1,6.1049e-05,610.07,6.2162e-05,656.98,-1.0823e-05,108.6,-2.5297e-05,-0.15223,1.9193
22193,21.607,2.4545,0.1,5.5825e-05,557.87,5.6842e-05,600.66,-9.9256e-06,98.988,-2.3116e-05,-0.12217,1.9323
22194,21.515,2.5455,0.1,5.9973e-05,599.31,6.1065e-05,645.2,-1.068e-05,106.14,-2.4825e-05,-0.13927,1.9193
22195,21.607,2.2727,0.1,5.4432e-05,543.95,5.5412e-05,584.48,-9.9641e-06,93.27,-2.2392e-05,-0.11101,1.9323
22196,21.515,2.3636,0.1,5.8469e-05,584.29,5.9528e-05,628.43,-1.0559e-05,101.83,-2.4128e-05,-0.12422,1.9192
22197,21.607,2.0909,0.1,5.283e-05,527.93,5.3758e-05,565.35,-1.0123e-05,85.369,-2.1499e-05,-0.10279,1.9323
22198,21.515,2.1818,0.1,5.6655e-05,566.16,5.7668e-05,607.66,-1.0537e-05,95.192,-2.3221e-05,-0.11119,1.9192
22199,21.607,1.9091,0.1,5.1119e-05,510.83,5.1979e-05,544.26,-1.043e-05,75.345,-2.0471e-05,-0.099295,1.9323
22200,21.515,2,0.1,5.4658e-05,546.2,5.5607e-05,584.04,-1.0675e-05,86.019,-2.2138e-05,-0.10386,1.9192
22201,21.607,1.7273,0.1,4.9388e-05,493.54,5.0158e-05,522.18,-1.0878e-05,63.578,-1.9354e-05,-0.10114,1.9322
22202,21.515,1.8182,0.1,5.2593e-05,525.57,5.346e-05,558.78,-1.0994e-05,74.5,-2.0923e-05,-0.10377,1.9191
22203,21.607,1.5455,0.1,4.7705e-05,476.72,4.8362e-05,499.99,-1.1432e-05,50.725,-1.8197e-05,-0.10822,1.9322
22204,21.515,1.6364,0.1,5.0556e-05,505.21,5.1316e-05,532.98,-1.1467e-05,61.255,-1.9634e-05,-0.11046,1.9191
22205,21.607,1.3636,0.1,4.612e-05,460.88,4.6641e-05,478.46,-1.2034e-05,37.59,-1.7053e-05,-0.12103,1.9321
22206,21.515,1.4545,0.1,4.8613e-05,485.79,4.924e-05,507.59,-1.2036e-05,47.191,-1.8333e-05,-0.12355,1.919
22207,21.607,1.1818,0.1,4.4667e-05,446.36,4.5036e-05,458.24,-1.2628e-05,24.977,-1.5972e-05,-0.14357,1.9321
22208,21.515,1.2727,0.1,4.681e-05,467.77,4.7284e-05,483.44,-1.263e-05,33.279,-1.7078e-05,-0.1451,1.919
22209,21.607,1,0.1,4.337e-05,433.4,4.3582e-05,439.93,-1.3162e-05,13.583,-1.4996e-05,-0.19434,1.932
22210,21.515,1.0909,0.1,4.518e-05,451.49,4.5488e-05,461.23,-1.3186e-05,20.376,-1.5923e-05,-0.18562,1.9189
22211,21.607,0.81818,0.1,4.2249e-05,422.2,4.231e-05,424.01,-1.3578e-05,4.0905,-1.418e-05,-0.43233,1.9319
22212,21.515,0.90909,0.1,4.375e-05,437.2,4.3894e-05,441.56,-1.3654e-05,9.1736,-1.4915e-05,-0.3012,1.9188
22213,21.607,0.63636,0.1,4.1316e-05,412.87,4.1246e-05,410.87,-1.3404e-05,0.24439,-1.3999e-05,-4.222,1.9318
22214,21.515,0.72727,0.1,4.254e-05,425.11,4.2533e-05,424.91,-1.3863e-05,1.1772,-1.4227e-05,-1.5583,1.9187
22215,21.607,0.45455,0.1,4.058e-05,405.52,4.0415e-05,400.82,-1.2923e-05,0.059386,-1.4169e-05,-9.3066,1.9317
22216,21.515,0.54545,0.1,4.1561e-05,415.33,4.1433e-05,411.64,-1.3335e-05,0.14104,-1.434e-05,-7.4084,1.9186
22217,21.607,0.27273,0.1,4.0126e-05,400.98,3.9898e-05,394.58,-1.2614e-05,0.024493,-1.4284e-05,-12.52,1.9316
22218,21.515,0.36364,0.1,4.0823e-05,407.95,4.0614e-05,402.04,-1.2887e-05,0.057035,-1.4441e-05,-11.617,1.9185
22219,21.515,0.18182,0.1,4.0491e-05,404.63,4.023e-05,397.33,-1.2649e-05,0.0098382,-1.4547e-05,-14.244,1.9184
22220,21.607,0.090909,0.1,3.9236e-05,392.09,3.9074e-05,387.49,-1.2504e-05,-0.050188,-1.3693e-05,-8.9844,1.9315
22221,21.423,5.7273,0.1,4.1182e-05,411.54,4.094e-05,404.75,-1.2922e-05,0.043427,-1.4698e-05,-13.302,1.9054
22222,21.331,5.8182,0.1,4.1123e-05,410.95,4.0844e-05,403.14,-1.2808e-05,0.022186,-1.4837e-05,-15.225,1.8922
22223,21.423,5.9091,0.1,4.0124e-05,400.97,3.9955e-05,396.14,-1.2776e-05,-0.054297,-1.4023e-05,-9.4274,1.9053
22224,21.423,5.5455,0.1,4.1807e-05,417.78,4.1635e-05,412.89,-1.3303e-05,0.11066,-1.4611e-05,-9.7166,1.9055
22225,21.331,5.6364,0.1,4.1598e-05,415.69,4.1376e-05,409.45,-1.3105e-05,0.095257,-1.4755e-05,-12.302,1.8923
22226,21.423,5.3636,0.1,4.2792e-05,427.62,4.2726e-05,425.74,-1.3878e-05,0.43931,-1.449e-05,-4.163,1.9056
22227,21.331,5.4545,0.1,4.2574e-05,425.45,4.2441e-05,421.65,-1.3645e-05,0.2448,-1.4705e-05,-7.7202,1.8924
22228,21.423,5.1818,0.1,4.405e-05,440.2,4.4128e-05,442.54,-1.4068e-05,5.2853,-1.4842e-05,-0.53383,1.9057
22229,21.331,5.2727,0.1,4.3883e-05,438.52,4.3882e-05,438.52,-1.425e-05,1.7355,-1.4712e-05,-1.7314,1.8925
22230,21.423,5,0.1,4.5571e-05,455.4,4.5815e-05,462.97,-1.3698e-05,15.813,-1.5835e-05,-0.24736,1.9058
22231,21.331,5.0909,0.1,4.5515e-05,454.84,4.5676e-05,459.76,-1.4124e-05,10.445,-1.5568e-05,-0.4037,1.8926
22232,21.423,4.8182,0.1,4.7337e-05,473.04,4.7754e-05,486.56,-1.3206e-05,28.535,-1.7028e-05,-0.1762,1.9058
22233,21.331,4.9091,0.1,4.7453e-05,474.2,4.7793e-05,484.99,-1.3741e-05,22.651,-1.6788e-05,-0.24131,1.8927
22234,21.423,4.6364,0.1,4.9318e-05,492.84,4.9902e-05,512.73,-1.2652e-05,42.725,-1.8357e-05,-0.14265,1.9059
22235,21.331,4.7273,0.1,4.9666e-05,496.32,5.0187e-05,513.64,-1.3262e-05,36.91,-1.8199e-05,-0.18083,1.8928
22236,21.423,4.4545,0.1,5.1481e-05,514.45,5.2215e-05,540.74,-1.2093e-05,57.561,-1.977e-05,-0.12259,1.906
22237,21.331,4.5455,0.1,5.2116e-05,520.8,5.2806e-05,544.96,-1.274e-05,52.481,-1.9744e-05,-0.14744,1.8929
22238,21.423,4.2727,0.1,5.378e-05,537.42,5.4638e-05,569.74,-1.1604e-05,72.02,-2.1204e-05,-0.1106,1.906
22239,21.331,4.3636,0.1,5.4756e-05,547.18,5.5594e-05,578.05,-1.2249e-05,68.314,-2.1357e-05,-0.12618,1.8929
22240,21.423,4.0909,0.1,5.6149e-05,561.1,5.7107e-05,598.7,-1.1258e-05,85.034,-2.2589e-05,-0.10629,1.9061
22241,21.331,4.1818,0.1,5.7528e-05,574.88,5.8485e-05,611.84,-1.1885e-05,83.104,-2.296e-05,-0.11439,1.893
22242,21.423,3.9091,0.1,5.8496e-05,584.56,5.953e-05,626.45,-1.1103e-05,95.737,-2.386e-05,-0.11064,1.9061
22243,21.331,4,0.1,6.0343e-05,603.01,6.1394e-05,645.03,-1.1732e-05,95.583,-2.4468e-05,-0.11368,1.893
22244,21.423,3.7273,0.1,6.0699e-05,606.57,6.179e-05,651.66,-1.1138e-05,103.7,-2.4956e-05,-0.12322,1.9061
22245,21.331,3.8182,0.1,6.3074e-05,630.3,6.4196e-05,676.1,-1.1823e-05,104.92,-2.5804e-05,-0.12384,1.8931
22246,21.423,3.5455,0.1,6.2614e-05,625.71,6.3748e-05,672.96,-1.1311e-05,109,-2.5837e-05,-0.14056,1.9062
22247,21.331,3.6364,0.1,6.5555e-05,655.09,6.6729e-05,703.41,-1.2117e-05,110.99,-2.6908e-05,-0.14248,1.8931
22248,21.423,3.3636,0.1,6.4103e-05,640.58,6.5264e-05,689.14,-1.1534e-05,112.11,-2.6475e-05,-0.15765,1.9062
22249,21.331,3.4545,0.1,6.7608e-05,675.61,6.8818e-05,725.37,-1.2509e-05,114.32,-2.7745e-05,-0.16487,1.8931
22250,21.423,3.1818,0.1,6.5046e-05,650.02,6.6225e-05,699.23,-1.1713e-05,113.64,-2.686e-05,-0.16998,1.9062
22251,21.331,3.2727,0.1,6.9074e-05,690.26,7.0305e-05,740.72,-1.2867e-05,115.8,-2.8303e-05,-0.18391,1.8931
22252,21.423,3,0.1,6.537e-05,653.25,6.6553e-05,702.67,-1.1782e-05,114.09,-2.6989e-05,-0.17445,1.9062
22253,21.331,3.0909,0.1,6.9837e-05,697.88,7.1078e-05,748.6,-1.3078e-05,116.28,-2.858e-05,-0.19452,1.8931
22254,21.423,2.8182,0.1,6.5046e-05,650.02,6.6225e-05,699.23,-1.1713e-05,113.64,-2.686e-05,-0.16998,1.9062
22255,21.331,2.9091,0.1,6.9837e-05,697.88,7.1078e-05,748.6,-1.3078e-05,116.28,-2.858e-05,-0.19452,1.8931
22256,21.423,2.6364,0.1,6.4103e-05,640.58,6.5264e-05,689.14,-1.1534e-05,112.11,-2.6475e-05,-0.15765,1.9062
22257,21.331,2.7273,0.1,6.9074e-05,690.26,7.0305e-05,740.72,-1.2867e-05,115.8,-2.8303e-05,-0.18391,1.8931
22258,21.423,2.4545,0.1,6.2614e-05,625.71,6.3748e-05,672.96,-1.1311e-05,109,-2.5837e-05,-0.14056,1.9062
22259,21.331,2.5455,0.1,6.7608e-05,675.61,6.8818e-05,725.37,-1.2509e-05,114.32,-2.7745e-05,-0.16487,1.8931
22260,21.423,2.2727,0.1,6.0699e-05,606.57,6.179e-05,651.66,-1.1138e-05,103.7,-2.4956e-05,-0.12322,1.9061
22261,21.331,2.3636,0.1,6.5555e-05,655.09,6.6729e-05,703.41,-1.2117e-05,110.99,-2.6908e-05,-0.14248,1.8931
22262,21.423,2.0909,0.1,5.8496e-05,584.56,5.953e-05,626.45,-1.1103e-05,95.737,-2.386e-05,-0.11064,1.9061
22263,21.331,2.1818,0.1,6.3074e-05,630.3,6.4196e-05,676.1,-1.1823e-05,104.92,-2.5804e-05,-0.12384,1.8931
22264,21.423,1.9091,0.1,5.6149e-05,561.1,5.7107e-05,598.7,-1.1258e-05,85.034,-2.2589e-05,-0.10629,1.9061
22265,21.331,2,0.1,6.0343e-05,603.01,6.1394e-05,645.03,-1.1732e-05,95.583,-2.4468e-05,-0.11368,1.893
22266,21.423,1.7273,0.1,5.378e-05,537.42,5.4638e-05,569.74,-1.1604e-05,72.02,-2.1204e-05,-0.1106,1.906
22267,21.331,1.8182,0.1,5.7528e-05,574.88,5.8485e-05,611.84,-1.1885e-05,83.104,-2.296e-05,-0.11439,1.893
22268,21.423,1.5455,0.1,5.1481e-05,514.45,5.2215e-05,540.74,-1.2093e-05,57.561,-1.977e-05,-0.12259,1.906
22269,21.331,1.6364,0.1,5.4756e-05,547.18,5.5594e-05,578.05,-1.2249e-05,68.314,-2.1357e-05,-0.12618,1.8929
22270,21.423,1.3636,0.1,4.9318e-05,492.84,4.9902e-05,512.73,-1.2652e-05,42.725,-1.8357e-05,-0.14265,1.9059
22271,21.331,1.4545,0.1,5.2116e-05,520.8,5.2806e-05,544.96,-1.274e-05,52.481,-1.9744e-05,-0.14744,1.8929
22272,21.423,1.1818,0.1,4.7337e-05,473.04,4.7754e-05,486.56,-1.3206e-05,28.535,-1.7028e-05,-0.17619,1.9058
22273,21.331,1.2727,0.1,4.9666e-05,496.32,5.0187e-05,513.64,-1.3262e-05,36.91,-1.8199e-05,-0.18083,1.8928
22274,21.423,1,0.1,4.5571e-05,455.4,4.5815e-05,462.97,-1.3698e-05,15.813,-1.5835e-05,-0.24736,1.9058
22275,21.331,1.0909,0.1,4.7453e-05,474.2,4.7793e-05,484.99,-1.3741e-05,22.651,-1.6788e-05,-0.24131,1.8927
22276,21.423,0.81818,0.1,4.405e-05,440.2,4.4128e-05,442.54,-1.4068e-05,5.2853,-1.4842e-05,-0.53383,1.9057
22277,21.331,0.90909,0.1,4.5515e-05,454.84,4.5676e-05,459.76,-1.4124e-05,10.445,-1.5568e-05,-0.4037,1.8926
22278,21.423,0.63636,0.1,4.2792e-05,427.62,4.2726e-05,425.74,-1.3878e-05,0.43931,-1.449e-05,-4.163,1.9056
22279,21.331,0.72727,0.1,4.3883e-05,438.52,4.3882e-05,438.52,-1.425e-05,1.7355,-1.4712e-05,-1.7314,1.8925
22280,21.423,0.45455,0.1,4.1807e-05,417.78,4.1635e-05,412.89,-1.3303e-05,0.11066,-1.4611e-05,-9.7166,1.9055
22281,21.331,0.54545,0.1,4.2574e-05,425.45,4.2441e-05,421.65,-1.3645e-05,0.2448,-1.4705e-05,-7.7202,1.8924
22282,21.423,0.27273,0.1,4.1182e-05,411.54,4.094e-05,404.75,-1.2922e-05,0.043429,-1.4698e-05,-13.302,1.9054
22283,21.331,0.36364,0.1,4.1598e-05,415.69,4.1376e-05,409.45,-1.3105e-05,0.095259,-1.4755e-05,-12.302,1.8923
22284,21.331,0.18182,0.1,4.1124e-05,410.95,4.0844e-05,403.14,-1.2808e-05,0.022186,-1.4837e-05,-15.225,1.8922
22285,21.423,0.090909,0.1,4.0124e-05,400.97,3.9955e-05,396.14,-1.2776e-05,-0.054296,-1.4023e-05,-9.4274,1.9053
22286,21.239,5.7273,0.1,4.1539e-05,415.1,4.128e-05,407.84,-1.2991e-05,0.073756,-1.4894e-05,-14.227,1.8792
22287,21.147,5.8182,0.1,4.0974e-05,409.46,4.0673e-05,401.08,-1.2702e-05,0.045789,-1.4878e-05,-16.304,1.866
22288,21.239,5.9091,0.1,4.0281e-05,402.53,4.0102e-05,397.44,-1.2802e-05,-0.058743,-1.4118e-05,-9.9476,1.879
22289,21.239,5.5455,0.1,4.2373e-05,423.44,4.2191e-05,418.27,-1.3453e-05,0.18577,-1.4852e-05,-10.328,1.8793
22290,21.147,5.6364,0.1,4.161e-05,415.82,4.1376e-05,409.23,-1.3068e-05,0.15343,-1.4822e-05,-13.022,1.8661
22291,21.239,5.3636,0.1,4.3679e-05,436.49,4.3611e-05,434.54,-1.4132e-05,0.67817,-1.4826e-05,-4.5379,1.8794
22292,21.147,5.4545,0.1,4.2885e-05,428.55,4.2744e-05,424.55,-1.3708e-05,0.39074,-1.486e-05,-8.268,1.8662
22293,21.239,5.1818,0.1,4.5368e-05,453.36,4.5451e-05,455.89,-1.4441e-05,5.8859,-1.5325e-05,-0.75362,1.8795
22294,21.147,5.2727,0.1,4.4622e-05,445.92,4.4618e-05,445.81,-1.4436e-05,2.105,-1.5021e-05,-2.2909,1.8664
22295,21.239,5,0.1,4.7422e-05,473.89,4.7682e-05,481.99,-1.4202e-05,17.02,-1.6513e-05,-0.34231,1.8796
22296,21.147,5.0909,0.1,4.6812e-05,467.8,4.6974e-05,472.76,-1.4518e-05,10.734,-1.6026e-05,-0.60064,1.8664
22297,21.239,4.8182,0.1,4.9812e-05,497.77,5.0259e-05,512.32,-1.3832e-05,30.768,-1.7957e-05,-0.2327,1.8797
22298,21.147,4.9091,0.1,4.9425e-05,493.91,4.9774e-05,505,-1.4324e-05,23.393,-1.7483e-05,-0.34303,1.8665
22299,21.239,4.6364,0.1,5.2495e-05,524.59,5.3126e-05,546.14,-1.3387e-05,46.392,-1.9585e-05,-0.17954,1.8797
22300,21.147,4.7273,0.1,5.2413e-05,523.77,5.2958e-05,541.88,-1.402e-05,38.636,-1.9195e-05,-0.24425,1.8666
22301,21.239,4.4545,0.1,5.5423e-05,553.85,5.6221e-05,582.55,-1.2933e-05,62.955,-2.1331e-05,-0.14681,1.8798
22302,21.147,4.5455,0.1,5.5719e-05,556.8,5.6453e-05,582.47,-1.365e-05,55.749,-2.1095e-05,-0.18806,1.8667
22303,21.239,4.2727,0.1,5.8536e-05,584.96,5.9476e-05,620.42,-1.2565e-05,79.13,-2.3114e-05,-0.1264,1.8799
22304,21.147,4.3636,0.1,5.9281e-05,592.4,6.0184e-05,625.62,-1.3302e-05,73.474,-2.3101e-05,-0.15054,1.8668
22305,21.239,4.0909,0.1,6.1751e-05,617.08,6.2804e-05,658.39,-1.239e-05,93.42,-2.4839e-05,-0.11869,1.8799
22306,21.147,4.1818,0.1,6.3026e-05,629.83,6.4069e-05,669.91,-1.3113e-05,89.992,-2.5107e-05,-0.12767,1.8668
22307,21.239,3.9091,0.1,6.4942e-05,648.97,6.6082e-05,694.84,-1.2474e-05,104.6,-2.6412e-05,-0.12442,1.88
22308,21.147,4,0.1,6.6841e-05,667.94,6.7993e-05,713.54,-1.3212e-05,103.4,-2.699e-05,-0.12026,1.8669
22309,21.239,3.7273,0.1,6.7939e-05,678.92,6.9144e-05,727.92,-1.2811e-05,112.14,-2.7755e-05,-0.14144,1.88
22310,21.147,3.8182,0.1,7.0546e-05,704.97,7.1779e-05,754.37,-1.3651e-05,112.48,-2.8639e-05,-0.13523,1.8669
22311,21.239,3.5455,0.1,7.0542e-05,704.93,7.1792e-05,755.77,-1.3308e-05,116.36,-2.8817e-05,-0.16591,1.88
22312,21.147,3.6364,0.1,7.3906e-05,738.55,7.5194e-05,790.04,-1.4356e-05,117.19,-2.9976e-05,-0.16754,1.867
22313,21.239,3.3636,0.1,7.2557e-05,725.07,7.3836e-05,776.79,-1.3819e-05,118.18,-2.9573e-05,-0.19077,1.8801
22314,21.147,3.4545,0.1,7.6671e-05,766.18,7.7991e-05,818.45,-1.5151e-05,118.62,-3.0965e-05,-0.20086,1.867
22315,21.239,3.1818,0.1,7.3831e-05,737.8,7.5124e-05,789.82,-1.4197e-05,118.7,-3.0023e-05,-0.20829,1.8801
22316,21.147,3.2727,0.1,7.8629e-05,785.75,7.9964e-05,838.07,-1.5826e-05,118.34,-3.1606e-05,-0.22646,1.867
22317,21.239,3,0.1,7.4266e-05,742.15,7.5564e-05,794.24,-1.4336e-05,118.77,-3.0172e-05,-0.21447,1.8801
22318,21.147,3.0909,0.1,7.9641e-05,795.86,8.0981e-05,848.05,-1.621e-05,117.79,-3.1919e-05,-0.23999,1.867
22319,21.239,2.8182,0.1,7.3831e-05,737.8,7.5124e-05,789.82,-1.4197e-05,118.7,-3.0023e-05,-0.20829,1.8801
22320,21.147,2.9091,0.1,7.9641e-05,795.86,8.0981e-05,848.05,-1.621e-05,117.79,-3.1919e-05,-0.23999,1.867
22321,21.239,2.6364,0.1,7.2557e-05,725.07,7.3836e-05,776.79,-1.3819e-05,118.18,-2.9573e-05,-0.19077,1.8801
22322,21.147,2.7273,0.1,7.8629e-05,785.75,7.9964e-05,838.07,-1.5826e-05,118.34,-3.1606e-05,-0.22646,1.867
22323,21.239,2.4545,0.1,7.0542e-05,704.93,7.1792e-05,755.77,-1.3308e-05,116.36,-2.8817e-05,-0.16591,1.88
22324,21.147,2.5455,0.1,7.6671e-05,766.18,7.7991e-05,818.45,-1.5151e-05,118.62,-3.0965e-05,-0.20086,1.867
22325,21.239,2.2727,0.1,6.7939e-05,678.92,6.9144e-05,727.92,-1.2811e-05,112.14,-2.7755e-05,-0.14144,1.88
22326,21.147,2.3636,0.1,7.3906e-05,738.55,7.5194e-05,790.04,-1.4356e-05,117.19,-2.9976e-05,-0.16754,1.867
22327,21.239,2.0909,0.1,6.4942e-05,648.97,6.6082e-05,694.84,-1.2474e-05,104.6,-2.6412e-05,-0.12442,1.88
22328,21.147,2.1818,0.1,7.0546e-05,704.97,7.1779e-05,754.37,-1.3651e-05,112.48,-2.8639e-05,-0.13523,1.8669
22329,21.239,1.9091,0.1,6.1751e-05,617.08,6.2804e-05,658.39,-1.239e-05,93.42,-2.4839e-05,-0.11869,1.8799
22330,21.147,2,0.1,6.6841e-05,667.94,6.7993e-05,713.54,-1.3212e-05,103.4,-2.699e-05,-0.12026,1.8669
22331,21.239,1.7273,0.1,5.8536e-05,584.96,5.9476e-05,620.42,-1.2565e-05,79.13,-2.3114e-05,-0.1264,1.8799
22332,21.147,1.8182,0.1,6.3026e-05,629.83,6.4069e-05,669.91,-1.3113e-05,89.992,-2.5107e-05,-0.12767,1.8668
22333,21.239,1.5455,0.1,5.5423e-05,553.85,5.6221e-05,582.55,-1.2933e-05,62.955,-2.1331e-05,-0.14681,1.8798
22334,21.147,1.6364,0.1,5.9281e-05,592.4,6.0184e-05,625.62,-1.3302e-05,73.474,-2.3101e-05,-0.15054,1.8668
22335,21.239,1.3636,0.1,5.2495e-05,524.59,5.3126e-05,546.14,-1.3387e-05,46.392,-1.9585e-05,-0.17954,1.8797
22336,21.147,1.4545,0.1,5.5719e-05,556.8,5.6453e-05,582.47,-1.365e-05,55.748,-2.1095e-05,-0.18806,1.8667
22337,21.239,1.1818,0.1,4.9812e-05,497.77,5.0259e-05,512.32,-1.3832e-05,30.768,-1.7957e-05,-0.2327,1.8797
22338,21.147,1.2727,0.1,5.2413e-05,523.77,5.2958e-05,541.88,-1.402e-05,38.635,-1.9195e-05,-0.24425,1.8666
22339,21.239,1,0.1,4.7422e-05,473.89,4.7682e-05,481.99,-1.4202e-05,17.02,-1.6513e-05,-0.34231,1.8796
22340,21.147,1.0909,0.1,4.9425e-05,493.91,4.9774e-05,505,-1.4324e-05,23.393,-1.7483e-05,-0.34303,1.8665
22341,21.239,0.81818,0.1,4.5368e-05,453.36,4.5451e-05,455.89,-1.4441e-05,5.8859,-1.5325e-05,-0.75362,1.8795
22342,21.147,0.90909,0.1,4.6812e-05,467.8,4.6974e-05,472.76,-1.4518e-05,10.734,-1.6026e-05,-0.60064,1.8664
22343,21.239,0.63636,0.1,4.3679e-05,436.49,4.3611e-05,434.54,-1.4132e-05,0.67817,-1.4826e-05,-4.5379,1.8794
22344,21.147,0.72727,0.1,4.4622e-05,445.92,4.4618e-05,445.81,-1.4436e-05,2.105,-1.5021e-05,-2.2909,1.8664
22345,21.239,0.45455,0.1,4.2373e-05,423.44,4.2191e-05,418.27,-1.3453e-05,0.18577,-1.4852e-05,-10.328,1.8793
22346,21.147,0.54545,0.1,4.2885e-05,428.55,4.2744e-05,424.55,-1.3708e-05,0.39074,-1.486e-05,-8.268,1.8662
22347,21.239,0.27273,0.1,4.1539e-05,415.1,4.128e-05,407.84,-1.2991e-05,0.073757,-1.4894e-05,-14.227,1.8792
22348,21.147,0.36364,0.1,4.161e-05,415.82,4.1376e-05,409.23,-1.3068e-05,0.15343,-1.4822e-05,-13.022,1.8661
22349,21.147,0.18182,0.1,4.0974e-05,409.46,4.0673e-05,401.08,-1.2702e-05,0.04579,-1.4878e-05,-16.304,1.866
22350,21.239,0.090909,0.1,4.0281e-05,402.53,4.0102e-05,397.44,-1.2802e-05,-0.058744,-1.4118e-05,-9.9476,1.879
22351,21.055,5.7273,0.1,4.1054e-05,410.25,4.0776e-05,402.52,-1.278e-05,0.12426,-1.4813e-05,-15.154,1.853
22352,20.963,5.8182,0.1,3.9898e-05,398.71,3.9577e-05,389.8,-1.2291e-05,0.091089,-1.461e-05,-17.331,1.8398
22353,21.055,5.9091,0.1,3.9565e-05,395.38,3.9376e-05,390.01,-1.254e-05,-0.063727,-1.3924e-05,-10.464,1.8528
22354,21.055,5.5455,0.1,4.214e-05,421.1,4.1946e-05,415.63,-1.3331e-05,0.29798,-1.4838e-05,-11.025,1.8531
22355,20.963,5.6364,0.1,4.0714e-05,406.86,4.0469e-05,400.01,-1.2736e-05,0.24629,-1.4578e-05,-13.592,1.84
22356,21.055,5.3636,0.1,4.3856e-05,438.26,4.3778e-05,436.02,-1.4127e-05,0.94407,-1.4966e-05,-5.3529,1.8532
22357,20.963,5.4545,0.1,4.2359e-05,423.3,4.2208e-05,419.02,-1.348e-05,0.59676,-1.4757e-05,-8.993,1.8401
22358,21.055,5.1818,0.1,4.6107e-05,460.75,4.618e-05,462.97,-1.4675e-05,5.7328,-1.5599e-05,-1.2147,1.8533
22359,20.963,5.2727,0.1,4.4649e-05,446.18,4.4626e-05,445.57,-1.4376e-05,2.256,-1.513e-05,-3.4075,1.8402
22360,21.055,5,0.1,4.8865e-05,488.31,4.9117e-05,496.15,-1.47e-05,16.656,-1.6987e-05,-0.52902,1.8534
22361,20.963,5.0909,0.1,4.7566e-05,475.33,4.7703e-05,479.52,-1.484e-05,9.6008,-1.6256e-05,-1.0402,1.8403
22362,21.055,4.8182,0.1,5.2083e-05,520.47,5.2531e-05,535,-1.4573e-05,30.809,-1.8719e-05,-0.33951,1.8535
22363,20.963,4.9091,0.1,5.1067e-05,510.32,5.139e-05,520.51,-1.5003e-05,21.658,-1.796e-05,-0.56001,1.8404
22364,21.055,4.6364,0.1,5.5696e-05,556.57,5.6346e-05,578.67,-1.4346e-05,47.52,-2.0703e-05,-0.24598,1.8536
22365,20.963,4.7273,0.1,5.5081e-05,550.43,5.561e-05,567.84,-1.5026e-05,37.105,-2.0014e-05,-0.37418,1.8405
22366,21.055,4.4545,0.1,5.9636e-05,595.95,6.0478e-05,626.01,-1.4082e-05,65.798,-2.2864e-05,-0.18633,1.8537
22367,20.963,4.5455,0.1,5.9523e-05,594.82,6.0265e-05,620.44,-1.4932e-05,55.438,-2.2347e-05,-0.27086,1.8406
22368,21.055,4.2727,0.1,6.3828e-05,637.84,6.4836e-05,675.55,-1.3908e-05,83.897,-2.5094e-05,-0.14645,1.8537
22369,20.963,4.3636,0.1,6.4312e-05,642.68,6.5255e-05,676.86,-1.4816e-05,75.237,-2.4857e-05,-0.20329,1.8407
22370,21.055,4.0909,0.1,6.8165e-05,681.18,6.9308e-05,725.43,-1.3984e-05,99.602,-2.7257e-05,-0.1242,1.8538
22371,20.963,4.1818,0.1,6.9357e-05,693.09,7.0471e-05,735.16,-1.4875e-05,93.899,-2.7394e-05,-0.15847,1.8407
22372,21.055,3.9091,0.1,7.2479e-05,724.29,7.3723e-05,773.32,-1.4422e-05,111.03,-2.9216e-05,-0.12705,1.8539
22373,20.963,4,0.1,7.4512e-05,744.6,7.5756e-05,792.75,-1.533e-05,108.36,-2.9773e-05,-0.15599,1.8408
22374,21.055,3.7273,0.1,7.6526e-05,764.73,7.7839e-05,816.56,-1.5207e-05,117.45,-3.086e-05,-0.15892,1.8539
22375,20.963,3.8182,0.1,7.9519e-05,794.64,8.0853e-05,846.39,-1.6276e-05,116.61,-3.1818e-05,-0.17611,1.8409
22376,21.055,3.5455,0.1,8.002e-05,799.65,8.1375e-05,852.58,-1.6182e-05,119.58,-3.2124e-05,-0.20165,1.8539
22377,20.963,3.6364,0.1,8.4025e-05,839.67,8.5407e-05,892.61,-1.7583e-05,118.78,-3.342e-05,-0.20709,1.8409
22378,21.055,3.3636,0.1,8.2702e-05,826.44,8.4074e-05,879.39,-1.7113e-05,119.11,-3.2997e-05,-0.23655,1.854
22379,20.963,3.4545,0.1,8.7678e-05,876.18,8.9073e-05,928.62,-1.8956e-05,116.93,-3.4552e-05,-0.25203,1.8409
22380,21.055,3.1818,0.1,8.438e-05,843.22,8.5758e-05,895.81,-1.7775e-05,117.91,-3.3502e-05,-0.25824,1.854
22381,20.963,3.2727,0.1,9.0218e-05,901.56,9.1606e-05,952.89,-2.0071e-05,113.79,-3.5253e-05,-0.2832,1.841
22382,21.055,3,0.1,8.495e-05,848.92,8.6328e-05,901.32,-1.8013e-05,117.34,-3.3666e-05,-0.26551,1.854
22383,20.963,3.0909,0.1,9.1512e-05,914.49,9.289e-05,965,-2.0687e-05,111.62,-3.5582e-05,-0.29505,1.841
22384,21.055,2.8182,0.1,8.438e-05,843.22,8.5758e-05,895.81,-1.7775e-05,117.91,-3.3502e-05,-0.25824,1.854
22385,20.963,2.9091,0.1,9.1512e-05,914.49,9.289e-05,965,-2.0687e-05,111.62,-3.5582e-05,-0.29505,1.841
22386,21.055,2.6364,0.1,8.2702e-05,826.44,8.4074e-05,879.39,-1.7113e-05,119.11,-3.2997e-05,-0.23655,1.854
22387,20.963,2.7273,0.1,9.0218e-05,901.56,9.1606e-05,952.89,-2.0071e-05,113.79,-3.5253e-05,-0.2832,1.841
22388,21.055,2.4545,0.1,8.002e-05,799.65,8.1375e-05,852.58,-1.6182e-05,119.58,-3.2124e-05,-0.20165,1.8539
22389,20.963,2.5455,0.1,8.7678e-05,876.18,8.9073e-05,928.62,-1.8956e-05,116.93,-3.4552e-05,-0.25203,1.8409
22390,21.055,2.2727,0.1,7.6526e-05,764.73,7.7839e-05,816.56,-1.5207e-05,117.45,-3.086e-05,-0.15892,1.8539
22391,20.963,2.3636,0.1,8.4025e-05,839.67,8.5407e-05,892.61,-1.7583e-05,118.78,-3.342e-05,-0.20709,1.8409
22392,21.055,2.0909,0.1,7.2479e-05,724.29,7.3723e-05,773.32,-1.4422e-05,111.03,-2.9216e-05,-0.12705,1.8539
22393,20.963,2.1818,0.1,7.9519e-05,794.64,8.0853e-05,846.39,-1.6276e-05,116.61,-3.1818e-05,-0.17611,1.8409
22394,21.055,1.9091,0.1,6.8165e-05,681.18,6.9308e-05,725.43,-1.3984e-05,99.602,-2.7257e-05,-0.1242,1.8538
22395,20.963,2,0.1,7.4512e-05,744.6,7.5756e-05,792.75,-1.533e-05,108.36,-2.9773e-05,-0.15599,1.8408
22396,21.055,1.7273,0.1,6.3828e-05,637.84,6.4836e-05,675.55,-1.3908e-05,83.897,-2.5094e-05,-0.14645,1.8537
22397,20.963,1.8182,0.1,6.9357e-05,693.09,7.0471e-05,735.16,-1.4875e-05,93.899,-2.7394e-05,-0.15847,1.8407
22398,21.055,1.5455,0.1,5.9636e-05,595.95,6.0478e-05,626.01,-1.4082e-05,65.798,-2.2864e-05,-0.18633,1.8537
22399,20.963,1.6364,0.1,6.4312e-05,642.68,6.5255e-05,676.86,-1.4816e-05,75.237,-2.4857e-05,-0.20329,1.8407
22400,21.055,1.3636,0.1,5.5696e-05,556.57,5.6346e-05,578.67,-1.4346e-05,47.52,-2.0703e-05,-0.24598,1.8536
22401,20.963,1.4545,0.1,5.9523e-05,594.82,6.0265e-05,620.44,-1.4932e-05,55.438,-2.2347e-05,-0.27086,1.8406
22402,21.055,1.1818,0.1,5.2083e-05,520.47,5.2531e-05,535,-1.4573e-05,30.809,-1.8719e-05,-0.33952,1.8535
22403,20.963,1.2727,0.1,5.5081e-05,550.43,5.561e-05,567.84,-1.5026e-05,37.105,-2.0014e-05,-0.37418,1.8405
22404,21.055,1,0.1,4.8865e-05,488.31,4.9117e-05,496.15,-1.47e-05,16.656,-1.6987e-05,-0.52902,1.8534
22405,20.963,1.0909,0.1,5.1067e-05,510.32,5.139e-05,520.51,-1.5003e-05,21.658,-1.796e-05,-0.56001,1.8404
22406,21.055,0.81818,0.1,4.6107e-05,460.75,4.618e-05,462.97,-1.4675e-05,5.7328,-1.5599e-05,-1.2147,1.8533
22407,20.963,0.90909,0.1,4.7566e-05,475.33,4.7703e-05,479.52,-1.484e-05,9.6008,-1.6256e-05,-1.0402,1.8403
22408,21.055,0.63636,0.1,4.3856e-05,438.26,4.3778e-05,436.02,-1.4127e-05,0.94407,-1.4966e-05,-5.3529,1.8532
22409,20.963,0.72727,0.1,4.4649e-05,446.18,4.4626e-05,445.57,-1.4376e-05,2.256,-1.513e-05,-3.4075,1.8402
22410,21.055,0.45455,0.1,4.214e-05,421.1,4.1946e-05,415.63,-1.3331e-05,0.29798,-1.4838e-05,-11.025,1.8531
22411,20.963,0.54545,0.1,4.2359e-05,423.3,4.2208e-05,419.02,-1.348e-05,0.59676,-1.4757e-05,-8.993,1.8401
22412,21.055,0.27273,0.1,4.1054e-05,410.25,4.0776e-05,402.52,-1.278e-05,0.12426,-1.4813e-05,-15.154,1.853
22413,20.963,0.36364,0.1,4.0714e-05,406.86,4.0469e-05,400.01,-1.2736e-05,0.24629,-1.4578e-05,-13.592,1.84
22414,20.963,0.18182,0.1,3.9898e-05,398.71,3.9577e-05,389.8,-1.2291e-05,0.091091,-1.461e-05,-17.331,1.8398
22415,21.055,0.090909,0.1,3.9565e-05,395.38,3.9376e-05,390.01,-1.254e-05,-0.063726,-1.3924e-05,-10.464,1.8528
22416,20.871,5.7273,0.1,3.9576e-05,395.49,3.9285e-05,387.41,-1.2247e-05,0.21189,-1.439e-05,-15.885,1.8268
22417,20.779,5.8182,0.1,3.7751e-05,377.25,3.7413e-05,367.97,-1.1536e-05,0.18241,-1.3967e-05,-18.085,1.8137
22418,20.871,5.9091,0.1,3.7833e-05,378.07,3.7636e-05,372.5,-1.195e-05,-0.070894,-1.3384e-05,-10.848,1.8267
22419,20.871,5.5455,0.1,4.0963e-05,409.35,4.0759e-05,403.61,-1.2895e-05,0.47108,-1.4514e-05,-11.691,1.8269
22420,20.779,5.6364,0.1,3.8766e-05,387.39,3.8519e-05,380.5,-1.2068e-05,0.40874,-1.396e-05,-13.805,1.8138
22421,20.871,5.3636,0.1,4.3203e-05,431.73,4.3104e-05,428.93,-1.382e-05,1.222,-1.4877e-05,-6.7193,1.8271
22422,20.779,5.4545,0.1,4.0875e-05,408.47,4.0711e-05,403.84,-1.2919e-05,0.89006,-1.4358e-05,-9.9234,1.8139
22423,20.871,5.1818,0.1,4.6184e-05,461.52,4.622e-05,462.66,-1.473e-05,4.7058,-1.5668e-05,-2.3436,1.8272
22424,20.779,5.2727,0.1,4.3873e-05,438.43,4.3811e-05,436.71,-1.4017e-05,2.2137,-1.505e-05,-5.5502,1.8141
22425,20.871,5,0.1,4.9864e-05,498.29,5.0066e-05,504.56,-1.5244e-05,13.847,-1.7218e-05,-0.99016,1.8273
22426,20.779,5.0909,0.1,4.7732e-05,476.99,4.7798e-05,479.07,-1.5075e-05,6.6627,-1.6277e-05,-2.368,1.8142
22427,20.871,4.8182,0.1,5.4172e-05,541.34,5.4571e-05,554.11,-1.5559e-05,27.182,-1.9255e-05,-0.58822,1.8274
22428,20.779,4.9091,0.1,5.2388e-05,523.52,5.2619e-05,530.73,-1.5882e-05,16.035,-1.8175e-05,-1.1886,1.8143
22429,20.871,4.6364,0.1,5.9016e-05,589.75,5.9635e-05,610.4,-1.5718e-05,44.227,-2.1657e-05,-0.39649,1.8275
22430,20.779,4.7273,0.1,5.7749e-05,577.09,5.8187e-05,591.16,-1.6486e-05,30.097,-2.0588e-05,-0.72235,1.8144
22431,20.871,4.4545,0.1,6.4302e-05,642.57,6.5145e-05,672.06,-1.5769e-05,64.106,-2.4339e-05,-0.28204,1.8276
22432,20.779,4.5455,0.1,6.3704e-05,636.6,6.4383e-05,659.35,-1.6872e-05,48.83,-2.3433e-05,-0.46383,1.8145
22433,20.871,4.2727,0.1,6.9934e-05,698.86,7.0982e-05,737.16,-1.5877e-05,84.539,-2.7156e-05,-0.20682,1.8277
22434,20.779,4.3636,0.1,7.0138e-05,700.9,7.1068e-05,733.51,-1.7114e-05,70.947,-2.6594e-05,-0.2806,1.8146
22435,20.871,4.0909,0.1,7.5781e-05,757.29,7.6995e-05,803.04,-1.6298e-05,102.08,-2.9908e-05,-0.18106,1.8277
22436,20.779,4.1818,0.1,7.6949e-05,768.96,7.81e-05,810.97,-1.7503e-05,92.652,-2.9859e-05,-0.18835,1.8147
22437,20.871,3.9091,0.1,8.1602e-05,815.46,8.2933e-05,866.18,-1.7232e-05,113.57,-3.2374e-05,-0.19763,1.8278
22438,20.779,4,0.1,8.3933e-05,838.75,8.5249e-05,887.74,-1.8434e-05,108.71,-3.2916e-05,-0.10331,1.8148
22439,20.871,3.7273,0.1,8.7029e-05,869.69,8.8427e-05,922.49,-1.8659e-05,117.89,-3.4378e-05,-0.2206,1.8279
22440,20.779,3.8182,0.1,9.0701e-05,906.39,9.2107e-05,958.48,-2.0097e-05,115.42,-3.5478e-05,-0.14758,1.8148
22441,20.871,3.5455,0.1,9.1647e-05,915.84,9.3064e-05,968.34,-2.0316e-05,116.45,-3.5848e-05,-0.25741,1.8279
22442,20.779,3.6364,0.1,9.6681e-05,966.14,9.81e-05,1017.6,-2.2261e-05,113.26,-3.7373e-05,-0.28874,1.8149
22443,20.871,3.3636,0.1,9.5118e-05,950.52,9.6521e-05,1001.5,-2.183e-05,112.24,-3.6808e-05,-0.29993,1.8279
22444,20.779,3.4545,0.1,0.00010136,1012.9,0.00010274,1061.6,-2.442e-05,106.18,-3.8597e-05,-0.3422,1.8149
22445,20.871,3.1818,0.1,9.7246e-05,971.79,9.8627e-05,1021.2,-2.2872e-05,108.34,-3.7334e-05,-0.32046,1.828
22446,20.779,3.2727,0.1,0.00010448,1044.1,0.0001058,1089.8,-2.6092e-05,98.764,-3.9284e-05,-0.35647,1.815
22447,20.871,3,0.1,9.796e-05,978.93,9.9331e-05,1027.8,-2.3241e-05,106.81,-3.7499e-05,-0.32432,1.828
22448,20.779,3.0909,0.1,0.00010602,1059.5,0.0001073,1103.3,-2.6986e-05,94.295,-3.9583e-05,-0.35391,1.815
22449,20.871,2.8182,0.1,9.7246e-05,971.79,9.8627e-05,1021.2,-2.2872e-05,108.34,-3.7334e-05,-0.32046,1.828
22450,20.779,2.9091,0.1,0.00010602,1059.5,0.0001073,1103.3,-2.6986e-05,94.295,-3.9583e-05,-0.35391,1.815
22451,20.871,2.6364,0.1,9.5118e-05,950.52,9.6521e-05,1001.5,-2.183e-05,112.24,-3.6808e-05,-0.29993,1.8279
22452,20.779,2.7273,0.1,0.00010448,1044.1,0.0001058,1089.8,-2.6092e-05,98.764,-3.9284e-05,-0.35647,1.815
22453,20.871,2.4545,0.1,9.1647e-05,915.84,9.3064e-05,968.34,-2.0316e-05,116.45,-3.5848e-05,-0.25741,1.8279
22454,20.779,2.5455,0.1,0.00010136,1012.9,0.00010274,1061.6,-2.442e-05,106.18,-3.8597e-05,-0.3422,1.8149
22455,20.871,2.2727,0.1,8.7029e-05,869.69,8.8427e-05,922.49,-1.8659e-05,117.89,-3.4378e-05,-0.2206,1.8279
22456,20.779,2.3636,0.1,9.6681e-05,966.14,9.81e-05,1017.6,-2.2261e-05,113.26,-3.7373e-05,-0.28874,1.8149
22457,20.871,2.0909,0.1,8.1602e-05,815.46,8.2933e-05,866.18,-1.7232e-05,113.57,-3.2374e-05,-0.19763,1.8278
22458,20.779,2.1818,0.1,9.0701e-05,906.39,9.2107e-05,958.48,-2.0097e-05,115.42,-3.5478e-05,-0.14758,1.8148
22459,20.871,1.9091,0.1,7.5781e-05,757.29,7.6995e-05,803.04,-1.6298e-05,102.08,-2.9908e-05,-0.18106,1.8277
22460,20.779,2,0.1,8.3933e-05,838.75,8.5249e-05,887.74,-1.8434e-05,108.71,-3.2916e-05,-0.10331,1.8148
22461,20.871,1.7273,0.1,6.9934e-05,698.86,7.0982e-05,737.16,-1.5877e-05,84.539,-2.7156e-05,-0.20682,1.8277
22462,20.779,1.8182,0.1,7.6949e-05,768.96,7.81e-05,810.97,-1.7503e-05,92.652,-2.9859e-05,-0.18835,1.8147
22463,20.871,1.5455,0.1,6.4302e-05,642.57,6.5145e-05,672.06,-1.5769e-05,64.106,-2.4339e-05,-0.28204,1.8276
22464,20.779,1.6364,0.1,7.0138e-05,700.9,7.1068e-05,733.51,-1.7114e-05,70.947,-2.6594e-05,-0.2806,1.8146
22465,20.871,1.3636,0.1,5.9016e-05,589.75,5.9635e-05,610.4,-1.5718e-05,44.227,-2.1657e-05,-0.39649,1.8275
22466,20.779,1.4545,0.1,6.3704e-05,636.6,6.4383e-05,659.35,-1.6872e-05,48.83,-2.3433e-05,-0.46383,1.8145
22467,20.871,1.1818,0.1,5.4172e-05,541.34,5.4571e-05,554.11,-1.5559e-05,27.182,-1.9255e-05,-0.58822,1.8274
22468,20.779,1.2727,0.1,5.7749e-05,577.09,5.8187e-05,591.16,-1.6486e-05,30.097,-2.0588e-05,-0.72236,1.8144
22469,20.871,1,0.1,4.9864e-05,498.29,5.0066e-05,504.56,-1.5244e-05,13.847,-1.7218e-05,-0.99017,1.8273
22470,20.779,1.0909,0.1,5.2388e-05,523.52,5.2619e-05,530.73,-1.5882e-05,16.035,-1.8175e-05,-1.1886,1.8143
22471,20.871,0.81818,0.1,4.6184e-05,461.52,4.622e-05,462.66,-1.473e-05,4.7058,-1.5668e-05,-2.3436,1.8272
22472,20.779,0.90909,0.1,4.7732e-05,476.99,4.7798e-05,479.07,-1.5075e-05,6.6627,-1.6277e-05,-2.368,1.8142
22473,20.871,0.63636,0.1,4.3203e-05,431.73,4.3104e-05,428.93,-1.382e-05,1.222,-1.4877e-05,-6.7193,1.8271
22474,20.779,0.72727,0.1,4.3873e-05,438.43,4.3811e-05,436.71,-1.4017e-05,2.2137,-1.505e-05,-5.5502,1.8141
22475,20.871,0.45455,0.1,4.0963e-05,409.35,4.0759e-05,403.61,-1.2895e-05,0.47108,-1.4514e-05,-11.691,1.8269
22476,20.779,0.54545,0.1,4.0875e-05,408.47,4.0711e-05,403.84,-1.2919e-05,0.89006,-1.4358e-05,-9.9234,1.8139
22477,20.871,0.27273,0.1,3.9576e-05,395.49,3.9285e-05,387.41,-1.2247e-05,0.21189,-1.439e-05,-15.885,1.8268
22478,20.779,0.36364,0.1,3.8766e-05,387.39,3.8519e-05,380.5,-1.2068e-05,0.40874,-1.396e-05,-13.805,1.8138
22479,20.779,0.18182,0.1,3.7751e-05,377.25,3.7413e-05,367.97,-1.1536e-05,0.18241,-1.3967e-05,-18.085,1.8137
22480,20.871,0.090909,0.1,3.7833e-05,378.07,3.7636e-05,372.5,-1.195e-05,-0.070894,-1.3384e-05,-10.848,1.8267
22481,20.687,5.7273,0.1,3.6969e-05,369.43,3.6672e-05,361.25,-1.1357e-05,0.38015,-1.3562e-05,-16.189,1.8007
22482,20.595,5.8182,0.1,3.4404e-05,343.81,3.4062e-05,334.47,-1.0405e-05,0.36175,-1.2887e-05,-18.285,1.7876
22483,20.687,5.9091,0.1,3.4949e-05,349.25,3.475e-05,343.63,-1.0995e-05,-0.074101,-1.2437e-05,-10.91,1.8005
22484,20.687,5.5455,0.1,3.8727e-05,387,3.8514e-05,381.07,-1.2103e-05,0.75314,-1.3839e-05,-12.292,1.8008
22485,20.595,5.6364,0.1,3.5663e-05,356.39,3.5423e-05,349.75,-1.1032e-05,0.70617,-1.2929e-05,-13.552,1.7877
22486,20.687,5.3636,0.1,4.1638e-05,416.09,4.1501e-05,412.25,-1.3168e-05,1.4884,-1.4562e-05,-8.9834,1.801
22487,20.595,5.4545,0.1,3.8376e-05,383.5,3.8189e-05,378.3,-1.199e-05,1.2732,-1.3671e-05,-11.356,1.7878
22488,20.687,5.1818,0.1,4.5561e-05,455.29,4.5515e-05,454.06,-1.4491e-05,3.1988,-1.5654e-05,-5.5388,1.8011
22489,20.595,5.2727,0.1,4.2289e-05,422.6,4.2146e-05,418.62,-1.33e-05,2.0267,-1.4865e-05,-9.7312,1.788
22490,20.687,5,0.1,5.0431e-05,503.96,5.0509e-05,506.43,-1.5842e-05,7.8913,-1.7264e-05,-2.7949,1.8012
22491,20.595,5.0909,0.1,4.734e-05,473.07,4.7255e-05,470.76,-1.496e-05,3.304,-1.6429e-05,-7.7306,1.7881
22492,20.687,4.8182,0.1,5.6159e-05,561.21,5.6412e-05,569.11,-1.6968e-05,17.761,-1.9526e-05,-1.4593,1.8013
22493,20.595,4.9091,0.1,5.3461e-05,534.25,5.3479e-05,534.94,-1.6856e-05,6.4697,-1.837e-05,-4.9055,1.7882
22494,20.687,4.6364,0.1,6.263e-05,625.87,6.3114e-05,641.45,-1.7811e-05,33.415,-2.237e-05,-0.83908,1.8014
22495,20.595,4.7273,0.1,6.0569e-05,605.27,6.0762e-05,611.32,-1.8608e-05,14.965,-2.093e-05,-2.4842,1.7884
22496,20.687,4.4545,0.1,6.9716e-05,696.68,7.0472e-05,722.04,-1.8381e-05,54.439,-2.5689e-05,-0.4687,1.8015
22497,20.595,4.5455,0.1,6.8548e-05,685,6.9004e-05,699.55,-1.9904e-05,31.537,-2.4269e-05,-1.2628,1.7885
22498,20.687,4.2727,0.1,7.7304e-05,772.51,7.8329e-05,808.4,-1.8884e-05,77.975,-2.9295e-05,-0.249,1.8016
22499,20.595,4.3636,0.1,7.7267e-05,772.14,7.8045e-05,798.02,-2.0762e-05,55.615,-2.8266e-05,-0.76377,1.7886
22500,20.687,4.0909,0.1,8.522e-05,851.61,8.6464e-05,896.5,-1.9751e-05,98.436,-3.2865e-05,-0.090897,1.8017
22501,20.595,4.1818,0.1,8.6548e-05,864.89,8.7644e-05,902.84,-2.1576e-05,82.205,-3.2566e-05,-0.3728,1.7887
22502,20.687,3.9091,0.1,9.31e-05,930.36,9.4482e-05,980.48,-2.136e-05,110.1,-3.6018e-05,-0.037283,1.8018
22503,20.595,4,0.1,9.6162e-05,960.96,9.7471e-05,1007.3,-2.31e-05,101.4,-3.6666e-05,-0.53185,1.7888
22504,20.687,3.7273,0.1,0.00010035,1002.8,0.00010177,1053.5,-2.3685e-05,110.9,-3.8472e-05,-0.21009,1.8019
22505,20.595,3.8182,0.1,0.00010535,1052.8,0.00010674,1101.4,-2.5764e-05,105.81,-3.9922e-05,-0.56001,1.7889
22506,20.687,3.5455,0.1,0.00010631,1062.3,0.00010768,1110.2,-2.6271e-05,103.7,-4.0123e-05,-0.37812,1.8019
22507,20.595,3.6364,0.1,0.0001131,1130.2,0.00011442,1175.2,-2.9113e-05,96.765,-4.2045e-05,-0.40029,1.7889
22508,20.687,3.3636,0.1,0.00011058,1105,0.00011186,1148.7,-2.8527e-05,93.864,-4.1074e-05,-0.40521,1.802
22509,20.595,3.4545,0.1,0.00011872,1186.4,0.00011989,1224.9,-3.2233e-05,81.941,-4.321e-05,-0.53539,1.789
22510,20.687,3.1818,0.1,0.00011308,1130,0.00011429,1170.4,-3.0019e-05,86.128,-4.1533e-05,-0.39091,1.802
22511,20.595,3.2727,0.1,0.00012214,1220.6,0.00012316,1253.3,-3.4477e-05,68.914,-4.3712e-05,-0.46874,1.7891
22512,20.687,3,0.1,0.0001139,1138.2,0.00011508,1177.3,-3.0533e-05,83.269,-4.1666e-05,-0.38081,1.802
22513,20.595,3.0909,0.1,0.00012372,1236.4,0.00012465,1265.9,-3.5613e-05,61.716,-4.388e-05,-0.39705,1.7891
22514,20.687,2.8182,0.1,0.00011308,1130,0.00011429,1170.4,-3.0019e-05,86.128,-4.1533e-05,-0.39091,1.802
22515,20.595,2.9091,0.1,0.00012372,1236.4,0.00012465,1265.9,-3.5613e-05,61.716,-4.388e-05,-0.39705,1.7891
22516,20.687,2.6364,0.1,0.00011058,1105,0.00011186,1148.7,-2.8527e-05,93.864,-4.1074e-05,-0.40521,1.802
22517,20.595,2.7273,0.1,0.00012214,1220.6,0.00012316,1253.3,-3.4477e-05,68.914,-4.3712e-05,-0.46874,1.7891
22518,20.687,2.4545,0.1,0.00010631,1062.3,0.00010768,1110.2,-2.6271e-05,103.7,-4.0123e-05,-0.37812,1.8019
22519,20.595,2.5455,0.1,0.00011872,1186.4,0.00011989,1224.9,-3.2233e-05,81.941,-4.3209e-05,-0.53539,1.789
22520,20.687,2.2727,0.1,0.00010035,1002.8,0.00010177,1053.5,-2.3685e-05,110.9,-3.8472e-05,-0.21009,1.8019
22521,20.595,2.3636,0.1,0.0001131,1130.2,0.00011442,1175.2,-2.9113e-05,96.765,-4.2045e-05,-0.40029,1.7889
22522,20.687,2.0909,0.1,9.31e-05,930.36,9.4482e-05,980.48,-2.136e-05,110.1,-3.6018e-05,-0.037284,1.8018
22523,20.595,2.1818,0.1,0.00010535,1052.8,0.00010674,1101.4,-2.5764e-05,105.81,-3.9922e-05,-0.56001,1.7889
22524,20.687,1.9091,0.1,8.522e-05,851.61,8.6464e-05,896.5,-1.9751e-05,98.436,-3.2865e-05,-0.090896,1.8017
22525,20.595,2,0.1,9.6162e-05,960.96,9.7471e-05,1007.3,-2.31e-05,101.4,-3.6666e-05,-0.53185,1.7888
22526,20.687,1.7273,0.1,7.7304e-05,772.51,7.8329e-05,808.4,-1.8884e-05,77.975,-2.9295e-05,-0.249,1.8016
22527,20.595,1.8182,0.1,8.6548e-05,864.89,8.7644e-05,902.84,-2.1576e-05,82.205,-3.2566e-05,-0.3728,1.7887
22528,20.687,1.5455,0.1,6.9716e-05,696.68,7.0472e-05,722.04,-1.8381e-05,54.439,-2.5689e-05,-0.4687,1.8015
22529,20.595,1.6364,0.1,7.7267e-05,772.14,7.8045e-05,798.02,-2.0762e-05,55.615,-2.8266e-05,-0.76377,1.7886
22530,20.687,1.3636,0.1,6.263e-05,625.87,6.3114e-05,641.45,-1.7811e-05,33.415,-2.237e-05,-0.83908,1.8014
22531,20.595,1.4545,0.1,6.8548e-05,685,6.9004e-05,699.55,-1.9904e-05,31.537,-2.4269e-05,-1.2628,1.7885
22532,20.687,1.1818,0.1,5.6159e-05,561.21,5.6412e-05,569.11,-1.6968e-05,17.761,-1.9526e-05,-1.4593,1.8013
22533,20.595,1.2727,0.1,6.0569e-05,605.27,6.0762e-05,611.32,-1.8608e-05,14.965,-2.093e-05,-2.4843,1.7884
22534,20.687,1,0.1,5.0431e-05,503.96,5.0509e-05,506.43,-1.5842e-05,7.8912,-1.7264e-05,-2.795,1.8012
22535,20.595,1.0909,0.1,5.3461e-05,534.25,5.3479e-05,534.94,-1.6856e-05,6.4697,-1.837e-05,-4.9056,1.7882
22536,20.687,0.81818,0.1,4.5561e-05,455.29,4.5515e-05,454.06,-1.4491e-05,3.1987,-1.5654e-05,-5.5389,1.8011
22537,20.595,0.90909,0.1,4.734e-05,473.07,4.7255e-05,470.76,-1.496e-05,3.304,-1.6429e-05,-7.7307,1.7881
22538,20.687,0.63636,0.1,4.1638e-05,416.09,4.1501e-05,412.25,-1.3168e-05,1.4884,-1.4562e-05,-8.9834,1.801
22539,20.595,0.72727,0.1,4.2289e-05,422.6,4.2146e-05,418.62,-1.33e-05,2.0267,-1.4865e-05,-9.7312,1.788
22540,20.687,0.45455,0.1,3.8727e-05,387,3.8514e-05,381.07,-1.2103e-05,0.75314,-1.3839e-05,-12.292,1.8008
22541,20.595,0.54545,0.1,3.8376e-05,383.5,3.8189e-05,378.3,-1.199e-05,1.2732,-1.3671e-05,-11.356,1.7878
22542,20.687,0.27273,0.1,3.6969e-05,369.43,3.6672e-05,361.25,-1.1357e-05,0.38015,-1.3562e-05,-16.189,1.8007
22543,20.595,0.36364,0.1,3.5663e-05,356.39,3.5423e-05,349.75,-1.1032e-05,0.70617,-1.2929e-05,-13.552,1.7877
22544,20.595,0.18182,0.1,3.4404e-05,343.81,3.4062e-05,334.47,-1.0405e-05,0.36175,-1.2887e-05,-18.285,1.7876
22545,20.687,0.090909,0.1,3.4949e-05,349.25,3.475e-05,343.63,-1.0995e-05,-0.074101,-1.2437e-05,-10.91,1.8005
22546,20.503,5.7273,0.1,3.3137e-05,331.14,3.2847e-05,323.22,-1.0078e-05,0.69728,-1.2289e-05,-15.91,1.7746
22547,20.411,5.8182,0.1,2.9771e-05,297.51,2.9442e-05,288.65,-8.8724e-06,0.77167,-1.1322e-05,-17.634,1.7614
22548,20.503,5.9091,0.1,3.0808e-05,307.87,3.0616e-05,302.49,-9.6538e-06,-0.085526,-1.1028e-05,-10.409,1.7744
22549,20.503,5.5455,0.1,3.5397e-05,353.72,3.5172e-05,347.53,-1.0926e-05,1.1773,-1.2828e-05,-13.118,1.7747
22550,20.411,5.6364,0.1,3.1409e-05,313.88,3.1184e-05,307.72,-9.5991e-06,1.2985,-1.1517e-05,-13.109,1.7616
22551,20.503,5.3636,0.1,3.9196e-05,391.69,3.8981e-05,385.78,-1.2142e-05,1.6588,-1.4101e-05,-13.059,1.7749
22552,20.411,5.4545,0.1,3.4978e-05,349.53,3.4736e-05,342.98,-1.0686e-05,1.6902,-1.2809e-05,-14.26,1.7618
22553,20.503,5.1818,0.1,4.4321e-05,442.9,4.4105e-05,436.98,-1.3771e-05,2.1161,-1.5857e-05,-13.556,1.775
22554,20.411,5.2727,0.1,4.0077e-05,400.49,3.9765e-05,392.05,-1.2174e-05,1.7925,-1.4802e-05,-17.948,1.7619
22555,20.503,5,0.1,5.0686e-05,506.51,5.0498e-05,501.32,-1.5844e-05,2.8575,-1.7937e-05,-12.868,1.7751
22556,20.411,5.0909,0.1,4.6586e-05,465.54,4.6193e-05,454.91,-1.4097e-05,1.908,-1.731e-05,-22.228,1.762
22557,20.503,4.8182,0.1,5.8219e-05,581.78,5.8129e-05,579.4,-1.8339e-05,4.8493,-2.023e-05,-9.3572,1.7753
22558,20.411,4.9091,0.1,5.4479e-05,544.41,5.4045e-05,532.64,-1.6546e-05,2.2452,-2.0143e-05,-24.783,1.7622
22559,20.503,4.6364,0.1,6.6828e-05,667.82,6.6948e-05,671.64,-2.0815e-05,12.229,-2.3011e-05,-4.2705,1.7754
22560,20.411,4.7273,0.1,6.3776e-05,637.32,6.3404e-05,627.15,-1.9648e-05,3.1366,-2.3083e-05,-22.679,1.7623
22561,20.503,4.4545,0.1,7.6397e-05,763.45,7.6841e-05,777.51,-2.2515e-05,30.985,-2.688e-05,-1.8113,1.7755
22562,20.411,4.5455,0.1,7.451e-05,744.58,7.4365e-05,740.7,-2.3397e-05,6.1596,-2.6017e-05,-13.525,1.7625
22563,20.503,4.2727,0.1,8.6752e-05,866.92,8.7576e-05,894.08,-2.3669e-05,58.225,-3.1536e-05,-0.88564,1.7756
22564,20.411,4.3636,0.1,8.6452e-05,863.92,8.6745e-05,873.09,-2.6501e-05,22.206,-2.9895e-05,-3.2982,1.7626
22565,20.503,4.0909,0.1,9.7662e-05,975.95,9.8802e-05,1014.8,-2.5082e-05,83.989,-3.6361e-05,-0.76159,1.7758
22566,20.411,4.1818,0.1,9.9473e-05,994.04,0.00010028,1020.2,-2.8132e-05,55.317,-3.5583e-05,-0.66465,1.7627
22567,20.503,3.9091,0.1,0.00010848,1084.1,0.00010978,1128.6,-2.756e-05,96.701,-4.0564e-05,-1.0086,1.7759
22568,20.411,4,0.1,0.00011309,1130.2,0.00011428,1169.2,-3.0504e-05,81.357,-4.1194e-05,1.0371,1.7629
22569,20.503,3.7273,0.1,0.00011803,1179.5,0.00011931,1222.5,-3.1109e-05,92.314,-4.3495e-05,-0.74911,1.776
22570,20.411,3.8182,0.1,0.00012572,1256.3,0.00012693,1295.9,-3.4474e-05,83.19,-4.5528e-05,0.13409,1.763
22571,20.503,3.5455,0.1,0.00012531,1252.3,0.00012643,1288.5,-3.4865e-05,76.582,-4.5137e-05,-0.59537,1.776
22572,20.411,3.6364,0.1,0.00013537,1352.8,0.00013631,1382.5,-3.928e-05,63.183,-4.7893e-05,-1.5367,1.7631
22573,20.503,3.3636,0.1,0.00013002,1299.3,0.00013091,1327.5,-3.7904e-05,59.082,-4.5853e-05,-0.64477,1.7761
22574,20.411,3.4545,0.1,0.00014102,1409.2,0.00014161,1427.4,-4.3246e-05,38.5,-4.853e-05,-1.2035,1.7632
22575,20.503,3.1818,0.1,0.0001325,1324.1,0.00013322,1346.6,-3.9775e-05,46.734,-4.6059e-05,-0.48575,1.7761
22576,20.411,3.2727,0.1,0.00014377,1436.7,0.00014408,1446.1,-4.5714e-05,20.053,-4.852e-05,-1.0294,1.7632
22577,20.503,3,0.1,0.00013326,1331.6,0.00013392,1352.1,-4.0395e-05,42.403,-4.6091e-05,-0.397,1.7762
22578,20.411,3.0909,0.1,0.00014481,1447.1,0.00014498,1452.1,-4.6891e-05,10.427,-4.8345e-05,-0.50007,1.7632
22579,20.503,2.8182,0.1,0.0001325,1324.1,0.00013322,1346.6,-3.9775e-05,46.734,-4.6059e-05,-0.48575,1.7761
22580,20.411,2.9091,0.1,0.00014481,1447.1,0.00014498,1452.1,-4.6891e-05,10.427,-4.8345e-05,-0.50007,1.7632
22581,20.503,2.6364,0.1,0.00013002,1299.3,0.00013091,1327.5,-3.7904e-05,59.082,-4.5853e-05,-0.64477,1.7761
22582,20.411,2.7273,0.1,0.00014377,1436.7,0.00014408,1446.1,-4.5714e-05,20.053,-4.852e-05,-1.0294,1.7632
22583,20.503,2.4545,0.1,0.00012531,1252.3,0.00012643,1288.5,-3.4865e-05,76.582,-4.5137e-05,-0.59537,1.776
22584,20.411,2.5455,0.1,0.00014102,1409.2,0.00014161,1427.4,-4.3246e-05,38.5,-4.853e-05,-1.2034,1.7632
22585,20.503,2.2727,0.1,0.00011803,1179.5,0.00011931,1222.5,-3.1109e-05,92.314,-4.3495e-05,-0.74911,1.776
22586,20.411,2.3636,0.1,0.00013537,1352.8,0.00013631,1382.5,-3.928e-05,63.183,-4.7893e-05,-1.5367,1.7631
22587,20.503,2.0909,0.1,0.00010848,1084.1,0.00010978,1128.6,-2.756e-05,96.701,-4.0564e-05,-1.0086,1.7759
22588,20.411,2.1818,0.1,0.00012572,1256.3,0.00012693,1295.9,-3.4474e-05,83.189,-4.5528e-05,0.13409,1.763
22589,20.503,1.9091,0.1,9.7662e-05,975.95,9.8802e-05,1014.8,-2.5082e-05,83.988,-3.6361e-05,-0.76159,1.7758
22590,20.411,2,0.1,0.00011309,1130.2,0.00011428,1169.2,-3.0504e-05,81.357,-4.1194e-05,1.0371,1.7629
22591,20.503,1.7273,0.1,8.6752e-05,866.92,8.7576e-05,894.08,-2.3669e-05,58.225,-3.1536e-05,-0.88565,1.7756
22592,20.411,1.8182,0.1,9.9473e-05,994.04,0.00010028,1020.2,-2.8132e-05,55.317,-3.5583e-05,-0.66466,1.7627
22593,20.503,1.5455,0.1,7.6397e-05,763.45,7.6841e-05,777.51,-2.2515e-05,30.985,-2.688e-05,-1.8113,1.7755
22594,20.411,1.6364,0.1,8.6452e-05,863.92,8.6745e-05,873.09,-2.6501e-05,22.206,-2.9895e-05,-3.2982,1.7626
22595,20.503,1.3636,0.1,6.6828e-05,667.82,6.6948e-05,671.64,-2.0815e-05,12.229,-2.3011e-05,-4.2705,1.7754
22596,20.411,1.4545,0.1,7.451e-05,744.58,7.4365e-05,740.7,-2.3397e-05,6.1595,-2.6017e-05,-13.525,1.7625
22597,20.503,1.1818,0.1,5.8219e-05,581.78,5.8129e-05,579.4,-1.8339e-05,4.8493,-2.023e-05,-9.3573,1.7753
22598,20.411,1.2727,0.1,6.3776e-05,637.32,6.3404e-05,627.15,-1.9648e-05,3.1366,-2.3083e-05,-22.679,1.7623
22599,20.503,1,0.1,5.0686e-05,506.51,5.0498e-05,501.32,-1.5844e-05,2.8575,-1.7937e-05,-12.868,1.7751
22600,20.411,1.0909,0.1,5.4479e-05,544.41,5.4045e-05,532.64,-1.6546e-05,2.2452,-2.0143e-05,-24.783,1.7622
22601,20.503,0.81818,0.1,4.4321e-05,442.9,4.4105e-05,436.98,-1.3771e-05,2.1161,-1.5857e-05,-13.556,1.775
22602,20.411,0.90909,0.1,4.6586e-05,465.54,4.6193e-05,454.91,-1.4097e-05,1.908,-1.731e-05,-22.228,1.762
22603,20.503,0.63636,0.1,3.9196e-05,391.69,3.8981e-05,385.78,-1.2142e-05,1.6588,-1.4101e-05,-13.059,1.7749
22604,20.411,0.72727,0.1,4.0077e-05,400.49,3.9765e-05,392.05,-1.2174e-05,1.7925,-1.4802e-05,-17.948,1.7619
22605,20.503,0.45455,0.1,3.5397e-05,353.72,3.5172e-05,347.53,-1.0926e-05,1.1773,-1.2828e-05,-13.118,1.7747
22606,20.411,0.54545,0.1,3.4978e-05,349.53,3.4736e-05,342.98,-1.0686e-05,1.6902,-1.2809e-05,-14.26,1.7618
22607,20.503,0.27273,0.1,3.3137e-05,331.14,3.2847e-05,323.22,-1.0078e-05,0.69728,-1.2289e-05,-15.91,1.7746
22608,20.411,0.36364,0.1,3.1409e-05,313.88,3.1184e-05,307.72,-9.5991e-06,1.2985,-1.1517e-05,-13.109,1.7616
22609,20.411,0.18182,0.1,2.9771e-05,297.51,2.9442e-05,288.65,-8.8724e-06,0.77168,-1.1322e-05,-17.634,1.7614
22610,20.503,0.090909,0.1,3.0808e-05,307.87,3.0616e-05,302.49,-9.6538e-06,-0.085525,-1.1028e-05,-10.409,1.7744
22611,20.319,5.7273,0.1,2.8096e-05,280.77,2.7824e-05,273.5,-8.3877e-06,1.4127,-1.0601e-05,-15.218,1.7485
22612,20.227,5.8182,0.1,2.3869e-05,238.53,2.3569e-05,230.67,-6.925e-06,1.5484,-9.2968e-06,-16.272,1.7354
22613,20.319,5.9091,0.1,2.5348e-05,253.3,2.5182e-05,248.67,-7.9116e-06,0.017417,-9.1167e-06,-9.0373,1.7483
22614,20.319,5.5455,0.1,3.1154e-05,311.32,3.0889e-05,304.22,-9.3647e-06,1.772,-1.1633e-05,-15.269,1.7486
22615,20.227,5.6364,0.1,2.6315e-05,262.97,2.6073e-05,256.58,-7.7999e-06,2.0713,-9.9526e-06,-14.103,1.7355
22616,20.319,5.3636,0.1,3.6175e-05,361.5,3.5792e-05,351.28,-1.0731e-05,1.7232,-1.3767e-05,-21.089,1.7488
22617,20.227,5.4545,0.1,3.1215e-05,311.94,3.0811e-05,301.34,-9.0607e-06,1.7581,-1.2174e-05,-21.635,1.7357
22618,20.319,5.1818,0.1,4.279e-05,427.6,4.223e-05,412.81,-1.2494e-05,1.6363,-1.6639e-05,-29.507,1.7489
22619,20.227,5.2727,0.1,3.783e-05,378.04,3.7145e-05,360.35,-1.0629e-05,1.3988,-1.5373e-05,-34.249,1.7358
22620,20.319,5,0.1,5.0924e-05,508.89,5.0192e-05,489.61,-1.4743e-05,1.7199,-2.0024e-05,-37.957,1.7491
22621,20.227,5.0909,0.1,4.6004e-05,459.73,4.4981e-05,433.68,-1.2568e-05,1.2827,-1.9287e-05,-49.202,1.736
22622,20.319,4.8182,0.1,6.0642e-05,606,5.9812e-05,584.09,-1.7655e-05,2.0317,-2.3689e-05,-43.304,1.7493
22623,20.227,4.9091,0.1,5.5872e-05,558.33,5.4513e-05,524,-1.5049e-05,1.3437,-2.3774e-05,-64.21,1.7362
22624,20.319,4.6364,0.1,7.2066e-05,720.16,7.131e-05,699.89,-2.1479e-05,2.7059,-2.7329e-05,-41.246,1.7494
22625,20.227,4.7273,0.1,6.7779e-05,677.32,6.6166e-05,636.49,-1.8333e-05,1.6028,-2.8726e-05,-76.485,1.7363
22626,20.319,4.4545,0.1,8.5098e-05,850.4,8.47e-05,839.53,-2.6336e-05,5.2521,-3.0511e-05,-26.119,1.7496
22627,20.227,4.5455,0.1,8.2123e-05,820.66,8.0489e-05,778.65,-2.2844e-05,2.2552,-3.38e-05,-80.069,1.7365
22628,20.319,4.2727,0.1,9.9558e-05,994.89,9.9773e-05,1001.6,-3.1082e-05,18.409,-3.4143e-05,-4.5906,1.7497
22629,20.227,4.3636,0.1,9.9229e-05,991.61,9.8009e-05,959.19,-2.9163e-05,3.6773,-3.8295e-05,-64.94,1.7367
22630,20.319,4.0909,0.1,0.00011514,1150.6,0.00011595,1176,-3.3765e-05,51.101,-4.039e-05,1.3245,1.7498
22631,20.227,4.1818,0.1,0.00011946,1193.7,0.00011904,1182.3,-3.7287e-05,7.7526,-4.2273e-05,-29.712,1.7368
22632,20.319,3.9091,0.1,0.00013033,1302.4,0.0001314,1336.3,-3.7411e-05,67.897,-4.6136e-05,2.3424,1.75
22633,20.227,4,0.1,0.00013952,1394.2,0.00013994,1407.5,-4.2642e-05,35.679,-4.8469e-05,-8.1075,1.737
22634,20.319,3.7273,0.1,0.00014278,1426.8,0.00014364,1453.7,-4.2351e-05,56.269,-4.9938e-05,-0.7338,1.7501
22635,20.227,3.8182,0.1,0.0001575,1573.9,0.000158,1589.5,-4.8634e-05,36.916,-5.4201e-05,-4.9139,1.7372
22636,20.319,3.5455,0.1,0.00015064,1505.3,0.00015106,1518.2,-4.7126e-05,29.112,-5.1386e-05,-2.8956,1.7502
22637,20.227,3.6364,0.1,0.0001667,1665.8,0.00016669,1665.8,-5.3333e-05,12.629,-5.6671e-05,-12.451,1.7373
22638,20.319,3.3636,0.1,0.00015432,1542.1,0.00015434,1542.7,-5.0151e-05,6.263,-5.1656e-05,-5.0446,1.7503
22639,20.227,3.4545,0.1,0.00016931,1692,0.00016871,1674.9,-5.397e-05,1.7375,-5.8899e-05,-35.302,1.7374
22640,20.319,3.1818,0.1,0.00015567,1555.6,0.00015542,1548.5,-5.0643e-05,0.17743,-5.2577e-05,-14.351,1.7504
22641,20.227,3.2727,0.1,0.00016905,1689.3,0.0001681,1662.7,-5.3174e-05,0.14989,-6.0124e-05,-52.073,1.7375
22642,20.319,3,0.1,0.00015597,1558.6,0.00015563,1549,-5.0565e-05,-0.34593,-5.3019e-05,-18.78,1.7504
22643,20.227,3.0909,0.1,0.00016849,1683.8,0.00016739,1652.8,-5.2614e-05,-0.17593,-6.0591e-05,-60.112,1.7375
22644,20.319,2.8182,0.1,0.00015567,1555.6,0.00015542,1548.5,-5.0643e-05,0.17742,-5.2577e-05,-14.351,1.7504
22645,20.227,2.9091,0.1,0.00016849,1683.8,0.00016739,1652.8,-5.2614e-05,-0.17593,-6.0591e-05,-60.112,1.7375
22646,20.319,2.6364,0.1,0.00015432,1542.1,0.00015434,1542.7,-5.0151e-05,6.263,-5.1656e-05,-5.0446,1.7503
22647,20.227,2.7273,0.1,0.00016905,1689.3,0.0001681,1662.7,-5.3174e-05,0.14989,-6.0124e-05,-52.073,1.7375
22648,20.319,2.4545,0.1,0.00015064,1505.3,0.00015106,1518.2,-4.7126e-05,29.112,-5.1386e-05,-2.8956,1.7502
22649,20.227,2.5455,0.1,0.00016931,1692,0.00016871,1674.9,-5.397e-05,1.7375,-5.8899e-05,-35.302,1.7374
22650,20.319,2.2727,0.1,0.00014278,1426.8,0.00014364,1453.7,-4.2351e-05,56.269,-4.9938e-05,-0.7338,1.7501
22651,20.227,2.3636,0.1,0.0001667,1665.8,0.00016669,1665.8,-5.3333e-05,12.629,-5.6671e-05,-12.451,1.7373
22652,20.319,2.0909,0.1,0.00013033,1302.4,0.0001314,1336.3,-3.7411e-05,67.897,-4.6136e-05,2.3424,1.75
22653,20.227,2.1818,0.1,0.0001575,1573.9,0.000158,1589.5,-4.8634e-05,36.916,-5.4201e-05,-4.9139,1.7372
22654,20.319,1.9091,0.1,0.00011514,1150.6,0.00011595,1176,-3.3765e-05,51.101,-4.039e-05,1.3245,1.7498
22655,20.227,2,0.1,0.00013952,1394.2,0.00013994,1407.5,-4.2642e-05,35.679,-4.8469e-05,-8.1075,1.737
22656,20.319,1.7273,0.1,9.9558e-05,994.89,9.9773e-05,1001.6,-3.1082e-05,18.409,-3.4143e-05,-4.5907,1.7497
22657,20.227,1.8182,0.1,0.00011946,1193.7,0.00011904,1182.3,-3.7287e-05,7.7525,-4.2273e-05,-29.712,1.7368
22658,20.319,1.5455,0.1,8.5098e-05,850.4,8.47e-05,839.53,-2.6336e-05,5.252,-3.0511e-05,-26.119,1.7496
22659,20.227,1.6364,0.1,9.9229e-05,991.61,9.8009e-05,959.19,-2.9163e-05,3.6773,-3.8295e-05,-64.94,1.7367
22660,20.319,1.3636,0.1,7.2066e-05,720.16,7.131e-05,699.89,-2.1479e-05,2.7059,-2.7329e-05,-41.246,1.7494
22661,20.227,1.4545,0.1,8.2123e-05,820.66,8.0489e-05,778.65,-2.2844e-05,2.2552,-3.38e-05,-80.069,1.7365
22662,20.319,1.1818,0.1,6.0642e-05,606,5.9812e-05,584.09,-1.7655e-05,2.0317,-2.3689e-05,-43.304,1.7493
22663,20.227,1.2727,0.1,6.7779e-05,677.32,6.6166e-05,636.49,-1.8333e-05,1.6028,-2.8726e-05,-76.486,1.7363
22664,20.319,1,0.1,5.0924e-05,508.89,5.0192e-05,489.61,-1.4743e-05,1.7199,-2.0024e-05,-37.957,1.7491
22665,20.227,1.0909,0.1,5.5872e-05,558.33,5.4513e-05,524,-1.5049e-05,1.3437,-2.3774e-05,-64.21,1.7362
22666,20.319,0.81818,0.1,4.279e-05,427.6,4.223e-05,412.81,-1.2494e-05,1.6363,-1.6639e-05,-29.507,1.7489
22667,20.227,0.90909,0.1,4.6004e-05,459.73,4.4981e-05,433.68,-1.2568e-05,1.2827,-1.9287e-05,-49.202,1.736
22668,20.319,0.63636,0.1,3.6175e-05,361.5,3.5792e-05,351.28,-1.0731e-05,1.7232,-1.3767e-05,-21.089,1.7488
22669,20.227,0.72727,0.1,3.783e-05,378.04,3.7145e-05,360.35,-1.0629e-05,1.3988,-1.5373e-05,-34.249,1.7358
22670,20.319,0.45455,0.1,3.1154e-05,311.32,3.0889e-05,304.22,-9.3647e-06,1.772,-1.1633e-05,-15.269,1.7486
22671,20.227,0.54545,0.1,3.1215e-05,311.94,3.0811e-05,301.34,-9.0607e-06,1.7581,-1.2174e-05,-21.635,1.7357
22672,20.319,0.27273,0.1,2.8096e-05,280.77,2.7824e-05,273.5,-8.3877e-06,1.4127,-1.0601e-05,-15.218,1.7485
22673,20.227,0.36364,0.1,2.6315e-05,262.97,2.6073e-05,256.58,-7.7999e-06,2.0713,-9.9526e-06,-14.103,1.7355
22674,20.227,0.18182,0.1,2.3869e-05,238.53,2.3569e-05,230.67,-6.925e-06,1.5484,-9.2968e-06,-16.272,1.7354
22675,20.319,0.090909,0.1,2.5348e-05,253.3,2.5182e-05,248.67,-7.9116e-06,0.017416,-9.1167e-06,-9.0373,1.7483
22676,20.135,5.7273,0.1,2.2203e-05,221.88,2.1914e-05,214.47,-6.3233e-06,2.3109,-8.7585e-06,-15.986,1.7224
22677,20.043,5.8182,0.1,1.7176e-05,171.64,1.686e-05,164.18,-4.4798e-06,3.8453,-7.2375e-06,-16.875,1.7093
22678,20.135,5.9091,0.1,1.8614e-05,186.01,1.8486e-05,182.45,-5.7829e-06,0.10409,-6.7311e-06,-7.0203,1.7222
22679,20.135,5.5455,0.1,2.6759e-05,267.41,2.632e-05,256.14,-7.5291e-06,1.8073,-1.0786e-05,-22.664,1.7226
22680,20.043,5.6364,0.1,2.1855e-05,218.4,2.1372e-05,206.59,-5.7566e-06,2.7542,-9.3068e-06,-23.921,1.7095
22681,20.135,5.3636,0.1,3.3471e-05,334.48,3.2663e-05,314.16,-8.9805e-06,1.2666,-1.4256e-05,-38.373,1.7227
22682,20.043,5.4545,0.1,2.8935e-05,289.15,2.7949e-05,265.48,-7.1259e-06,1.9363,-1.3216e-05,-43.825,1.7096
22683,20.135,5.1818,0.1,4.1794e-05,417.65,4.0498e-05,385.75,-1.0708e-05,1.0108,-1.862e-05,-58.437,1.7229
22684,20.043,5.2727,0.1,3.7456e-05,374.3,3.5789e-05,335.22,-8.6145e-06,1.5898,-1.8081e-05,-69.538,1.7098
22685,20.135,5,0.1,5.1829e-05,517.93,4.9988e-05,473.23,-1.2869e-05,0.95173,-2.373e-05,-80.658,1.7231
22686,20.043,5.0909,0.1,4.7518e-05,474.85,4.5046e-05,417.92,-1.0368e-05,1.5505,-2.3783e-05,-99.24,1.71
22687,20.135,4.8182,0.1,6.4017e-05,639.73,6.1635e-05,582.18,-1.5708e-05,1.0579,-2.9598e-05,-103.31,1.7233
22688,20.043,4.9091,0.1,5.9615e-05,595.74,5.6235e-05,518.74,-1.2566e-05,1.7971,-3.0476e-05,-132.77,1.7102
22689,20.135,4.6364,0.1,7.8957e-05,789.02,7.618e-05,721.54,-1.9653e-05,1.4801,-3.6076e-05,-121.91,1.7234
22690,20.043,4.7273,0.1,7.4645e-05,745.93,7.0259e-05,646.42,-1.5516e-05,1.9332,-3.8492e-05,-170.7,1.7104
22691,20.135,4.4545,0.1,9.7284e-05,972.17,9.4548e-05,903.95,-2.5518e-05,1.8258,-4.2488e-05,-125.68,1.7236
22692,20.043,4.5455,0.1,9.3936e-05,938.71,8.8588e-05,817.36,-1.9655e-05,4.0657,-4.8124e-05,-209.84,1.7106
22693,20.135,4.2727,0.1,0.00011991,1198.3,0.00011784,1144.2,-3.419e-05,1.864,-4.8171e-05,-103.18,1.7238
22694,20.043,4.3636,0.1,0.00012022,1201.4,0.00011393,1055.7,-2.6399e-05,1.3468,-6.0148e-05,-252.23,1.7108
22695,20.135,4.0909,0.1,0.00014399,1438.9,0.00014315,1414.7,-4.6028e-05,-6.649,-5.061e-05,-41.079,1.724
22696,20.043,4.1818,0.1,0.00015882,1587.1,0.00015354,1462.8,-3.8385e-05,20.765,-7.2765e-05,-237.55,1.711
22697,20.135,3.9091,0.1,0.00016631,1662,0.00016617,1657.9,-5.3492e-05,7.4952,-5.6534e-05,-15.359,1.7242
22698,20.043,4,0.1,0.00019663,1964.9,0.0001953,1934.9,-5.518e-05,52.939,-7.6006e-05,-103.54,1.7112
22699,20.135,3.7273,0.1,0.00018048,1803.6,0.00018018,1795,-5.7763e-05,7.1983,-6.1914e-05,-23.99,1.7244
22700,20.043,3.8182,0.1,0.00021321,2130.7,0.00021205,2099.3,-6.5232e-05,15.887,-7.7428e-05,-75.75,1.7114
22701,20.135,3.5455,0.1,0.00018452,1843.9,0.00018353,1816.4,-5.7742e-05,3.5464,-6.581e-05,-57.072,1.7245
22702,20.043,3.6364,0.1,0.0002108,2106.5,0.0002087,2049.8,-6.3397e-05,5.35,-7.9252e-05,-113.78,1.7116
22703,20.135,3.3636,0.1,0.00018342,1832.9,0.00018188,1790.4,-5.636e-05,0.37138,-6.7401e-05,-82.58,1.7246
22704,20.043,3.4545,0.1,0.00020193,2017.9,0.00019938,1949.2,-6.0058e-05,-0.1066,-7.7464e-05,-130.89,1.7118
22705,20.135,3.1818,0.1,0.00018138,1812.6,0.00017959,1763.5,-5.512e-05,-0.020529,-6.7681e-05,-94.398,1.7247
22706,20.043,3.2727,0.1,0.00019546,1953.2,0.00019273,1880.2,-5.7465e-05,0.34004,-7.6009e-05,-138.99,1.7118
22707,20.135,3,0.1,0.00018057,1804.4,0.0001787,1753.4,-5.4674e-05,-0.094998,-6.7705e-05,-98.005,1.7247
22708,20.043,3.0909,0.1,0.00019217,1920.4,0.00018936,1845.5,-5.6261e-05,-0.048798,-7.5142e-05,-141.92,1.7119
22709,20.135,2.8182,0.1,0.00018138,1812.6,0.00017959,1763.5,-5.512e-05,-0.02053,-6.7681e-05,-94.398,1.7247
22710,20.043,2.9091,0.1,0.00019217,1920.4,0.00018936,1845.5,-5.6261e-05,-0.048798,-7.5142e-05,-141.92,1.7119
22711,20.135,2.6364,0.1,0.00018342,1832.9,0.00018188,1790.4,-5.636e-05,0.37137,-6.7401e-05,-82.58,1.7246
22712,20.043,2.7273,0.1,0.00019546,1953.2,0.00019273,1880.2,-5.7465e-05,0.34004,-7.6009e-05,-138.99,1.7118
22713,20.135,2.4545,0.1,0.00018452,1843.9,0.00018353,1816.4,-5.7742e-05,3.5464,-6.581e-05,-57.072,1.7245
22714,20.043,2.5455,0.1,0.00020193,2017.9,0.00019938,1949.2,-6.0058e-05,-0.10661,-7.7464e-05,-130.89,1.7118
22715,20.135,2.2727,0.1,0.00018048,1803.6,0.00018018,1795,-5.7763e-05,7.1983,-6.1914e-05,-23.99,1.7244
22716,20.043,2.3636,0.1,0.0002108,2106.5,0.0002087,2049.8,-6.3397e-05,5.35,-7.9252e-05,-113.78,1.7116
22717,20.135,2.0909,0.1,0.00016631,1662,0.00016617,1657.9,-5.3492e-05,7.4951,-5.6534e-05,-15.359,1.7242
22718,20.043,2.1818,0.1,0.00021321,2130.7,0.00021205,2099.3,-6.5232e-05,15.887,-7.7428e-05,-75.75,1.7114
22719,20.135,1.9091,0.1,0.00014399,1438.9,0.00014315,1414.7,-4.6028e-05,-6.649,-5.061e-05,-41.079,1.724
22720,20.043,2,0.1,0.00019663,1964.9,0.0001953,1934.9,-5.518e-05,52.939,-7.6006e-05,-103.54,1.7112
22721,20.135,1.7273,0.1,0.00011991,1198.3,0.00011784,1144.2,-3.419e-05,1.864,-4.8171e-05,-103.18,1.7238
22722,20.043,1.8182,0.1,0.00015882,1587.1,0.00015354,1462.8,-3.8384e-05,20.765,-7.2765e-05,-237.55,1.711
22723,20.135,1.5455,0.1,9.7284e-05,972.17,9.4548e-05,903.95,-2.5518e-05,1.8258,-4.2488e-05,-125.68,1.7236
22724,20.043,1.6364,0.1,0.00012022,1201.4,0.00011393,1055.7,-2.6399e-05,1.3468,-6.0148e-05,-252.23,1.7108
22725,20.135,1.3636,0.1,7.8957e-05,789.02,7.618e-05,721.54,-1.9653e-05,1.4801,-3.6076e-05,-121.91,1.7234
22726,20.043,1.4545,0.1,9.3936e-05,938.71,8.8588e-05,817.36,-1.9655e-05,4.0657,-4.8125e-05,-209.84,1.7106
22727,20.135,1.1818,0.1,6.4017e-05,639.73,6.1635e-05,582.18,-1.5708e-05,1.0579,-2.9598e-05,-103.31,1.7233
22728,20.043,1.2727,0.1,7.4645e-05,745.93,7.0259e-05,646.42,-1.5516e-05,1.9332,-3.8492e-05,-170.7,1.7104
22729,20.135,1,0.1,5.1829e-05,517.93,4.9988e-05,473.23,-1.2869e-05,0.95172,-2.373e-05,-80.658,1.7231
22730,20.043,1.0909,0.1,5.9615e-05,595.74,5.6235e-05,518.74,-1.2566e-05,1.7971,-3.0476e-05,-132.77,1.7102
22731,20.135,0.81818,0.1,4.1794e-05,417.65,4.0498e-05,385.75,-1.0708e-05,1.0108,-1.862e-05,-58.437,1.7229
22732,20.043,0.90909,0.1,4.7518e-05,474.85,4.5046e-05,417.92,-1.0368e-05,1.5505,-2.3783e-05,-99.24,1.71
22733,20.135,0.63636,0.1,3.3471e-05,334.48,3.2663e-05,314.16,-8.9805e-06,1.2666,-1.4256e-05,-38.373,1.7227
22734,20.043,0.72727,0.1,3.7456e-05,374.3,3.5789e-05,335.22,-8.6145e-06,1.5898,-1.8081e-05,-69.538,1.7098
22735,20.135,0.45455,0.1,2.6759e-05,267.41,2.632e-05,256.14,-7.5291e-06,1.8073,-1.0786e-05,-22.664,1.7226
22736,20.043,0.54545,0.1,2.8935e-05,289.15,2.7949e-05,265.48,-7.1259e-06,1.9363,-1.3216e-05,-43.825,1.7096
22737,20.135,0.27273,0.1,2.2203e-05,221.88,2.1914e-05,214.47,-6.3233e-06,2.3109,-8.7585e-06,-15.986,1.7224
22738,20.043,0.36364,0.1,2.1855e-05,218.4,2.1372e-05,206.59,-5.7566e-06,2.7542,-9.3068e-06,-23.921,1.7095
22739,20.043,0.18182,0.1,1.7176e-05,171.64,1.686e-05,164.18,-4.4798e-06,3.8453,-7.2375e-06,-16.875,1.7093
22740,20.135,0.090909,0.1,1.8614e-05,186.01,1.8486e-05,182.45,-5.7829e-06,0.10409,-6.7311e-06,-7.0203,1.7222
22741,19.951,5.7273,0.1,1.7427e-05,174.15,1.6799e-05,159.91,-3.9799e-06,3.786,-8.199e-06,-27.915,1.6963
22742,19.859,5.8182,0.1,1.0097e-05,100.9,9.9369e-06,96.76,-2.8637e-06,0.58086,-4.0432e-06,-8.2818,1.6832
22743,19.951,5.9091,0.1,1.1007e-05,109.99,1.0883e-05,107.08,-3.0075e-06,2.713,-4.4047e-06,-7.7848,1.6962
22744,19.951,5.5455,0.1,2.499e-05,249.73,2.3758e-05,221.61,-5.428e-06,2.3223,-1.2419e-05,-50.205,1.6965
22745,19.859,5.6364,0.1,1.6716e-05,167.04,1.6173e-05,153.51,-4.3314e-06,-0.55383,-7.4553e-06,-24.026,1.6834
22746,19.951,5.3636,0.1,3.396e-05,339.37,3.186e-05,292.43,-6.797e-06,1.9809,-1.7788e-05,-80.603,1.6967
22747,19.859,5.4545,0.1,2.3997e-05,239.8,2.2867e-05,213.08,-5.5396e-06,-0.35206,-1.1668e-05,-46.401,1.6836
22748,19.951,5.1818,0.1,4.4296e-05,442.65,4.1151e-05,373.5,-8.3012e-06,1.9345,-2.4031e-05,-116.26,1.6969
22749,19.859,5.2727,0.1,3.2023e-05,320.01,3.018e-05,277.67,-6.8225e-06,-0.35508,-1.6377e-05,-72.142,1.6838
22750,19.951,5,0.1,5.6573e-05,565.34,5.2194e-05,470.19,-1.0088e-05,2.2231,-3.1407e-05,-157.95,1.6971
22751,19.859,5.0909,0.1,4.1244e-05,412.15,3.8555e-05,351.52,-8.2851e-06,-0.41908,-2.1791e-05,-101.9,1.684
22752,19.951,4.8182,0.1,7.18e-05,717.51,6.5943e-05,591.12,-1.2398e-05,2.495,-4.043e-05,-208.13,1.6973
22753,19.859,4.9091,0.1,5.2319e-05,522.83,4.8611e-05,440.4,-1.0023e-05,-0.15125,-2.8283e-05,-137.35,1.6842
22754,19.951,4.6364,0.1,9.1651e-05,915.88,8.4043e-05,752.59,-1.5543e-05,4.3351,-5.1893e-05,-268.79,1.6975
22755,19.859,4.7273,0.1,6.6327e-05,662.82,6.1368e-05,553.12,-1.24e-05,-1.1483,-3.6349e-05,-181.09,1.6844
22756,19.951,4.4545,0.1,0.00011989,1198.1,0.00010997,984.14,-2.0565e-05,3.3672,-6.7752e-05,-351.18,1.6977
22757,19.859,4.5455,0.1,8.5324e-05,852.65,7.8644e-05,707.65,-1.5131e-05,3.0512,-4.7505e-05,-240.19,1.6847
22758,19.951,4.2727,0.1,0.00016186,1617.5,0.0001513,1386.9,-3.0642e-05,19.881,-8.6358e-05,-398.75,1.698
22759,19.859,4.3636,0.1,0.00011153,1114.6,0.00010345,930.66,-2.2231e-05,-13.644,-6.0183e-05,-298.8,1.6849
22760,19.951,4.0909,0.1,0.00021131,2111.6,0.0002051,1978.5,-4.7417e-05,81.251,-9.7683e-05,-296.43,1.6982
22761,19.859,4.1818,0.1,0.00016282,1627.1,0.00014852,1344,-2.2158e-05,61.573,-9.5088e-05,-486.4,1.6852
22762,19.951,3.9091,0.1,0.00024058,2404.1,0.00023859,2356.8,-6.79e-05,53.961,-9.3334e-05,-137.13,1.6985
22763,19.859,4,0.1,0.00036199,3617.4,0.00035968,3579.3,-9.4078e-05,169.94,-0.00014537,-215.42,1.6855
22764,19.951,3.7273,0.1,0.0002411,2409.3,0.0002384,2337.8,-7.1186e-05,11.632,-9.2281e-05,-146.87,1.6987
22765,19.859,3.8182,0.1,0.00029636,2961.6,0.00029214,2851.5,-8.5206e-05,16.261,-0.00011692,-221.99,1.6858
22766,19.951,3.5455,0.1,0.00022727,2271.1,0.00022366,2175.9,-6.5674e-05,1.9804,-9.0053e-05,-181.2,1.6989
22767,19.859,3.6364,0.1,0.00025616,2559.8,0.00025108,2429.1,-7.1271e-05,7.1111,-0.0001054,-249.3,1.6861
22768,19.951,3.3636,0.1,0.00021345,2133,0.00020973,2035.3,-6.1171e-05,-0.20348,-8.5565e-05,-183.49,1.699
22769,19.859,3.4545,0.1,0.000231,2308.5,0.00022614,2182.6,-6.4455e-05,-0.8154,-9.5392e-05,-233.26,1.6862
22770,19.951,3.1818,0.1,0.00020585,2057,0.00020211,1959.2,-5.8611e-05,0.27111,-8.3077e-05,-183.56,1.6991
22771,19.859,3.2727,0.1,0.00021744,2172.9,0.00021277,2052.7,-6.0315e-05,0.78006,-9.021e-05,-223.84,1.6863
22772,19.951,3,0.1,0.0002034,2032.5,0.00019966,1934.8,-5.7854e-05,-0.052767,-8.2208e-05,-183.04,1.6991
22773,19.859,3.0909,0.1,0.00021137,2112.3,0.00020681,1994.7,-5.8638e-05,0.19274,-8.773e-05,-218.39,1.6864
22774,19.951,2.8182,0.1,0.00020585,2057,0.00020211,1959.2,-5.8611e-05,0.27111,-8.3077e-05,-183.56,1.6991
22775,19.859,2.9091,0.1,0.00021137,2112.3,0.00020681,1994.7,-5.8638e-05,0.19274,-8.773e-05,-218.39,1.6864
22776,19.951,2.6364,0.1,0.00021345,2133,0.00020973,2035.3,-6.1171e-05,-0.20348,-8.5565e-05,-183.49,1.699
22777,19.859,2.7273,0.1,0.00021744,2172.9,0.00021277,2052.7,-6.0315e-05,0.78006,-9.021e-05,-223.84,1.6863
22778,19.951,2.4545,0.1,0.00022727,2271.1,0.00022366,2175.9,-6.5674e-05,1.9804,-9.0053e-05,-181.2,1.6989
22779,19.859,2.5455,0.1,0.000231,2308.5,0.00022614,2182.6,-6.4455e-05,-0.8154,-9.5392e-05,-233.26,1.6862
22780,19.951,2.2727,0.1,0.0002411,2409.3,0.0002384,2337.8,-7.1186e-05,11.632,-9.2281e-05,-146.87,1.6987
22781,19.859,2.3636,0.1,0.00025616,2559.8,0.00025108,2429.1,-7.1271e-05,7.1111,-0.0001054,-249.3,1.6861
22782,19.951,2.0909,0.1,0.00024058,2404.1,0.00023859,2356.8,-6.79e-05,53.961,-9.3334e-05,-137.13,1.6985
22783,19.859,2.1818,0.1,0.00029636,2961.6,0.00029214,2851.5,-8.5206e-05,16.261,-0.00011692,-221.99,1.6858
22784,19.951,1.9091,0.1,0.00021131,2111.6,0.0002051,1978.5,-4.7417e-05,81.251,-9.7683e-05,-296.43,1.6982
22785,19.859,2,0.1,0.00036199,3617.4,0.00035968,3579.3,-9.4078e-05,169.94,-0.00014537,-215.42,1.6855
22786,19.951,1.7273,0.1,0.00016186,1617.5,0.0001513,1386.9,-3.0642e-05,19.881,-8.6358e-05,-398.75,1.698
22787,19.859,1.8182,0.1,0.00016282,1627.1,0.00014852,1344,-2.2158e-05,61.573,-9.5088e-05,-486.4,1.6852
22788,19.951,1.5455,0.1,0.00011989,1198.1,0.00010997,984.14,-2.0565e-05,3.3672,-6.7752e-05,-351.18,1.6977
22789,19.859,1.6364,0.1,0.00011153,1114.6,0.00010345,930.66,-2.2231e-05,-13.644,-6.0183e-05,-298.8,1.6849
22790,19.951,1.3636,0.1,9.1651e-05,915.88,8.4043e-05,752.59,-1.5543e-05,4.3351,-5.1893e-05,-268.79,1.6975
22791,19.859,1.4545,0.1,8.5323e-05,852.65,7.8644e-05,707.65,-1.5131e-05,3.0512,-4.7505e-05,-240.19,1.6847
22792,19.951,1.1818,0.1,7.18e-05,717.51,6.5943e-05,591.12,-1.2398e-05,2.495,-4.043e-05,-208.13,1.6973
22793,19.859,1.2727,0.1,6.6327e-05,662.82,6.1368e-05,553.12,-1.24e-05,-1.1483,-3.6349e-05,-181.09,1.6844
22794,19.951,1,0.1,5.6573e-05,565.34,5.2194e-05,470.19,-1.0088e-05,2.2231,-3.1407e-05,-157.95,1.6971
22795,19.859,1.0909,0.1,5.2319e-05,522.83,4.8611e-05,440.39,-1.0023e-05,-0.15125,-2.8283e-05,-137.35,1.6842
22796,19.951,0.81818,0.1,4.4296e-05,442.65,4.1151e-05,373.5,-8.3012e-06,1.9345,-2.4031e-05,-116.26,1.6969
22797,19.859,0.90909,0.1,4.1244e-05,412.15,3.8555e-05,351.52,-8.2851e-06,-0.41908,-2.1791e-05,-101.9,1.684
22798,19.951,0.63636,0.1,3.396e-05,339.37,3.186e-05,292.43,-6.797e-06,1.9809,-1.7788e-05,-80.603,1.6967
22799,19.859,0.72727,0.1,3.2023e-05,320.01,3.018e-05,277.67,-6.8225e-06,-0.35508,-1.6377e-05,-72.142,1.6838
22800,19.951,0.45455,0.1,2.499e-05,249.73,2.3758e-05,221.61,-5.428e-06,2.3223,-1.2419e-05,-50.205,1.6965
22801,19.859,0.54545,0.1,2.3997e-05,239.8,2.2867e-05,213.08,-5.5396e-06,-0.35205,-1.1668e-05,-46.401,1.6836
22802,19.951,0.27273,0.1,1.7427e-05,174.15,1.6799e-05,159.91,-3.9799e-06,3.786,-8.199e-06,-27.915,1.6963
22803,19.859,0.36364,0.1,1.6716e-05,167.04,1.6173e-05,153.51,-4.3314e-06,-0.55383,-7.4553e-06,-24.026,1.6834
22804,19.859,0.18182,0.1,1.0097e-05,100.9,9.9369e-06,96.76,-2.8637e-06,0.58086,-4.0432e-06,-8.2818,1.6832
22805,19.951,0.090909,0.1,1.1007e-05,109.99,1.0883e-05,107.08,-3.0075e-06,2.713,-4.4047e-06,-7.7848,1.6962
22806,0.18491,0.27273,0.1,0.0004264,4261.1,0.00041921,4176.4,-8.2144e-05,409.44,-0.00019629,-448.22,0.00011826
22807,0.27736,0.18182,0.1,0.00045511,4547.9,0.0004521,4464.2,-0.00014179,1.8737,-0.00016397,-164.77,0.00020911
22808,0.092453,0.18182,0.1,0.00027158,2713.9,0.00028771,3195.7,-6.1604e-05,571.16,-8.4311e-05,400.55,2.6531e-05
22809,0.18491,0.090909,0.1,0.00038573,3854.7,0.00038023,3696.5,-0.00012356,-88.818,-0.00014155,-223.97,5.3258e-05
22810,0.18491,0.45455,0.1,0.00048816,4878.2,0.0004711,4828.4,-3.2807e-05,1042.3,-0.00026156,-676.48,0.00015695
22811,0.27736,0.36364,0.1,0.00046521,4648.9,0.00046604,4823.7,-7.7432e-05,740.24,-0.00020733,-235.74,0.00030389
22812,0.092453,0.36364,0.1,0.00034121,3409.8,0.00037601,4547.7,-2.1228e-05,1563,-0.00011858,831.52,4.3858e-05
22813,0.18491,0.63636,0.1,0.00054807,5476.9,0.000525,5442.8,-1.5512e-05,1381.7,-0.00030404,-786.23,0.00018043
22814,0.27736,0.54545,0.1,0.00050104,5006.9,0.00049975,5311.4,-4.1928e-05,1241.5,-0.00024438,-279.68,0.00036358
22815,0.092453,0.54545,0.1,0.00039919,3989.1,0.00044165,5426,-9.0632e-06,2039.5,-0.00014359,1028.7,5.3387e-05
22816,0.18491,0.81818,0.1,0.00059372,5933.2,0.00056715,5907.7,-8.2665e-06,1584.3,-0.00033312,-856.53,0.000196
22817,0.27736,0.72727,0.1,0.00053708,5367,0.00053334,5739.4,-2.393e-05,1552.3,-0.00027191,-310.94,0.00040312
22818,0.092453,0.72727,0.1,0.00044075,4404.5,0.00048779,6017.3,-4.5699e-06,2317.9,-0.00016066,1145.1,5.9363e-05
22819,0.18491,1,0.1,0.00062797,6275.3,0.00059929,6257.1,-4.966e-06,1717,-0.00035377,-903.79,0.000207
22820,0.27736,0.90909,0.1,0.00056771,5673.2,0.0005624,6089.5,-1.4705e-05,1753.4,-0.00029211,-330.97,0.00043084
22821,0.092453,0.90909,0.1,0.00047065,4703.3,0.00052082,6433.4,-2.6748e-06,2500.1,-0.00017255,1223.7,6.3399e-05
22822,0.18491,1.1818,0.1,0.00065393,6534.8,0.00062385,6522,-3.2184e-06,1810.5,-0.00036904,-938.15,0.00021508
22823,0.27736,1.0909,0.1,0.00059253,5921.2,0.00058622,6368.3,-9.6091e-06,1891.5,-0.00030734,-345.57,0.00045108
22824,0.092453,1.0909,0.1,0.00049278,4924.4,0.00054519,6738,-1.697e-06,2628.8,-0.00018127,1279.6,6.6289e-05
22825,0.18491,1.3636,0.1,0.00067391,6734.4,0.00064283,6726,-2.2146e-06,1879.4,-0.00038061,-963.74,0.00022118
22826,0.27736,1.2727,0.1,0.00061238,6119.6,0.00060542,6589.4,-6.6112e-06,1990.9,-0.000319,-356.3,0.0004663
22827,0.092453,1.2727,0.1,0.00050952,5091.7,0.00056362,6967,-1.1528e-06,2723.6,-0.00018781,1321.1,6.8435e-05
22828,0.18491,1.5455,0.1,0.00068944,6889.7,0.00065763,6884.7,-1.595e-06,1931.5,-0.00038953,-983.26,0.00022587
22829,0.27736,1.4545,0.1,0.00062822,6277.9,0.00062083,6765.1,-4.745e-06,2064.8,-0.00032806,-364.47,0.00047795
22830,0.092453,1.4545,0.1,0.00052241,5220.5,0.00057779,7142.6,-8.2158e-07,2795.2,-0.00019283,1352.5,7.0066e-05
22831,0.18491,1.7273,0.1,0.0007016,7011.2,0.00066925,7009,-1.1941e-06,1971.6,-0.00039647,-998.33,0.00022952
22832,0.27736,1.6364,0.1,0.00064086,6404.2,0.00063316,6904.8,-3.5317e-06,2120.9,-0.00033516,-370.75,0.00048699
22833,0.092453,1.6364,0.1,0.00053243,5320.7,0.0005888,7278.9,-6.0954e-07,2850.3,-0.00019672,1376.8,7.1324e-05
22834,0.18491,1.9091,0.1,0.00071112,7106.3,0.00067835,7106.4,-9.2532e-07,2002.6,-0.00040187,-1010,0.00023235
22835,0.27736,1.8182,0.1,0.00065092,6504.7,0.000643,7015.8,-2.7164e-06,2164.1,-0.00034073,-375.62,0.00049404
22836,0.092453,1.8182,0.1,0.00054027,5398.9,0.00059741,7385.2,-4.6821e-07,2893,-0.00019976,1395.6,7.23e-05
22837,0.18491,2.0909,0.1,0.00071853,7180.3,0.00068544,7182.1,-7.4131e-07,2026.4,-0.00040606,-1019,0.00023454
22838,0.27736,2,0.1,0.00065886,6584.1,0.00065079,7103.4,-2.1559e-06,2197.4,-0.0003451,-379.4,0.00049953
22839,0.092453,2,0.1,0.00054637,5460,0.00060411,7467.9,-3.7156e-07,2926,-0.00020212,1410.2,7.3057e-05
22840,0.18491,2.2727,0.1,0.00072418,7236.8,0.00069085,7239.9,-6.1444e-07,2044.5,-0.00040925,-1025.8,0.0002362
22841,0.27736,2.1818,0.1,0.00066505,6645.9,0.00065686,7171.5,-1.7664e-06,2222.8,-0.00034848,-382.3,0.00050376
22842,0.092453,2.1818,0.1,0.00055108,5507,0.00060927,7531.5,-3.0459e-07,2951.4,-0.00020394,1421.3,7.3638e-05
22843,0.18491,2.4545,0.1,0.00072834,7278.3,0.00069484,7282.5,-5.2811e-07,2057.8,-0.0004116,-1030.8,0.00023743
22844,0.27736,2.3636,0.1,0.00066973,6692.7,0.00066146,7223,-1.497e-06,2241.8,-0.00035103,-384.47,0.00050692
22845,0.092453,2.3636,0.1,0.00055461,5542.3,0.00061315,7579.3,-2.5834e-07,2970.4,-0.00020531,1429.7,7.4074e-05
22846,0.18491,2.6364,0.1,0.00073119,7306.9,0.00069758,7311.7,-4.7225e-07,2066.8,-0.0004132,-1034.3,0.00023827
22847,0.27736,2.5455,0.1,0.00067309,6726.3,0.00066477,7260,-1.3162e-06,2255.3,-0.00035285,-386.01,0.00050919
22848,0.092453,2.5455,0.1,0.00055714,5567.5,0.00061592,7613.4,-2.2734e-07,2983.9,-0.00020629,1435.7,7.4384e-05
22849,0.18491,2.8182,0.1,0.00073286,7323.5,0.00069918,7328.8,-4.4084e-07,2072.1,-0.00041414,-1036.3,0.00023876
22850,0.27736,2.7273,0.1,0.00067527,6748,0.00066691,7283.9,-1.2048e-06,2263.9,-0.00035402,-387.01,0.00051065
22851,0.092453,2.7273,0.1,0.00055876,5583.8,0.00061771,7635.4,-2.0824e-07,2992.6,-0.00020692,1439.5,7.4584e-05
22852,0.18491,3,0.1,0.00073341,7329,0.0006997,7334.4,-4.3071e-07,2073.9,-0.00041445,-1036.9,0.00023892
22853,0.27736,2.9091,0.1,0.00067633,6758.7,0.00066796,7295.7,-1.1516e-06,2268.2,-0.0003546,-387.49,0.00051136
22854,0.092453,2.9091,0.1,0.00055956,5591.7,0.00061858,7646.2,-1.9913e-07,2996.9,-0.00020723,1441.4,7.4681e-05
22855,0.18491,3.1818,0.1,0.00073286,7323.5,0.00069918,7328.8,-4.4084e-07,2072.1,-0.00041414,-1036.3,0.00023876
22856,0.27736,3.0909,0.1,0.00067633,6758.7,0.00066796,7295.7,-1.1516e-06,2268.2,-0.0003546,-387.49,0.00051136
22857,0.092453,3.0909,0.1,0.00055956,5591.7,0.00061858,7646.2,-1.9913e-07,2996.9,-0.00020723,1441.4,7.4681e-05
22858,0.18491,3.3636,0.1,0.00073119,7306.9,0.00069758,7311.7,-4.7225e-07,2066.8,-0.0004132,-1034.3,0.00023827
22859,0.27736,3.2727,0.1,0.00067527,6748,0.00066691,7283.9,-1.2048e-06,2263.9,-0.00035402,-387.01,0.00051065
22860,0.092453,3.2727,0.1,0.00055876,5583.8,0.00061771,7635.4,-2.0824e-07,2992.6,-0.00020692,1439.5,7.4584e-05
22861,0.18491,3.5455,0.1,0.00072834,7278.3,0.00069484,7282.5,-5.2811e-07,2057.8,-0.0004116,-1030.8,0.00023743
22862,0.27736,3.4545,0.1,0.00067309,6726.3,0.00066477,7260,-1.3162e-06,2255.3,-0.00035285,-386.01,0.00050919
22863,0.092453,3.4545,0.1,0.00055714,5567.5,0.00061592,7613.5,-2.2734e-07,2983.9,-0.00020629,1435.7,7.4384e-05
22864,0.18491,3.7273,0.1,0.00072418,7236.8,0.00069085,7239.9,-6.1444e-07,2044.5,-0.00040925,-1025.8,0.0002362
22865,0.27736,3.6364,0.1,0.00066973,6692.7,0.00066146,7223,-1.497e-06,2241.8,-0.00035103,-384.47,0.00050692
22866,0.092453,3.6364,0.1,0.00055461,5542.3,0.00061315,7579.3,-2.5834e-07,2970.4,-0.00020531,1429.7,7.4074e-05
22867,0.18491,3.9091,0.1,0.00071853,7180.3,0.00068544,7182.1,-7.4131e-07,2026.4,-0.00040606,-1019,0.00023454
22868,0.27736,3.8182,0.1,0.00066505,6645.9,0.00065686,7171.5,-1.7664e-06,2222.8,-0.00034848,-382.3,0.00050376
22869,0.092453,3.8182,0.1,0.00055108,5507,0.00060927,7531.5,-3.0459e-07,2951.4,-0.00020394,1421.3,7.3638e-05
22870,0.18491,4.0909,0.1,0.00071112,7106.3,0.00067835,7106.4,-9.2532e-07,2002.6,-0.00040187,-1010,0.00023235
22871,0.27736,4,0.1,0.00065886,6584.1,0.00065079,7103.4,-2.1559e-06,2197.4,-0.0003451,-379.4,0.00049953
22872,0.092453,4,0.1,0.00054637,5460,0.00060411,7467.9,-3.7156e-07,2926,-0.00020212,1410.2,7.3057e-05
22873,0.18491,4.2727,0.1,0.0007016,7011.2,0.00066925,7009,-1.1941e-06,1971.6,-0.00039647,-998.33,0.00022952
22874,0.27736,4.1818,0.1,0.00065092,6504.7,0.000643,7015.8,-2.7164e-06,2164.1,-0.00034073,-375.62,0.00049404
22875,0.092453,4.1818,0.1,0.00054027,5398.9,0.00059741,7385.2,-4.6821e-07,2893,-0.00019976,1395.6,7.23e-05
22876,0.18491,4.4545,0.1,0.00068944,6889.7,0.00065763,6884.7,-1.595e-06,1931.5,-0.00038953,-983.26,0.00022587
22877,0.27736,4.3636,0.1,0.00064086,6404.2,0.00063316,6904.8,-3.5317e-06,2120.9,-0.00033516,-370.75,0.00048699
22878,0.092453,4.3636,0.1,0.00053243,5320.7,0.0005888,7278.9,-6.0954e-07,2850.3,-0.00019672,1376.8,7.1324e-05
22879,0.18491,4.6364,0.1,0.00067391,6734.4,0.00064283,6726,-2.2146e-06,1879.4,-0.00038061,-963.74,0.00022118
22880,0.27736,4.5455,0.1,0.00062822,6277.9,0.00062083,6765.1,-4.745e-06,2064.8,-0.00032806,-364.47,0.00047795
22881,0.092453,4.5455,0.1,0.00052241,5220.5,0.00057779,7142.6,-8.2158e-07,2795.2,-0.00019283,1352.5,7.0066e-05
22882,0.18491,4.8182,0.1,0.00065393,6534.8,0.00062385,6522,-3.2184e-06,1810.5,-0.00036904,-938.15,0.00021508
22883,0.27736,4.7273,0.1,0.00061238,6119.6,0.00060542,6589.4,-6.6112e-06,1990.9,-0.000319,-356.3,0.0004663
22884,0.092453,4.7273,0.1,0.00050952,5091.7,0.00056362,6967,-1.1528e-06,2723.6,-0.00018781,1321.1,6.8435e-05
22885,0.18491,5,0.1,0.00062797,6275.3,0.00059929,6257.1,-4.966e-06,1717,-0.00035377,-903.79,0.000207
22886,0.27736,4.9091,0.1,0.00059253,5921.2,0.00058622,6368.3,-9.6091e-06,1891.5,-0.00030734,-345.57,0.00045108
22887,0.092453,4.9091,0.1,0.00049278,4924.4,0.00054519,6738,-1.697e-06,2628.8,-0.00018127,1279.6,6.6289e-05
22888,0.18491,5.1818,0.1,0.00059372,5933.2,0.00056715,5907.7,-8.2665e-06,1584.3,-0.00033312,-856.53,0.000196
22889,0.27736,5.0909,0.1,0.00056771,5673.2,0.0005624,6089.5,-1.4705e-05,1753.4,-0.00029211,-330.97,0.00043084
22890,0.092453,5.0909,0.1,0.00047065,4703.3,0.00052082,6433.4,-2.6748e-06,2500.1,-0.00017255,1223.7,6.3399e-05
22891,0.18491,5.3636,0.1,0.00054807,5476.9,0.000525,5442.8,-1.5512e-05,1381.7,-0.00030404,-786.23,0.00018043
22892,0.27736,5.2727,0.1,0.00053708,5367,0.00053334,5739.4,-2.393e-05,1552.3,-0.00027191,-310.94,0.00040312
22893,0.092453,5.2727,0.1,0.00044075,4404.5,0.00048779,6017.3,-4.5699e-06,2317.9,-0.00016066,1145.1,5.9363e-05
22894,0.18491,5.5455,0.1,0.00048816,4878.2,0.0004711,4828.4,-3.2807e-05,1042.3,-0.00026156,-676.48,0.00015695
22895,0.27736,5.4545,0.1,0.00050104,5006.9,0.00049975,5311.4,-4.1928e-05,1241.5,-0.00024438,-279.68,0.00036358
22896,0.092453,5.4545,0.1,0.00039919,3989.1,0.00044165,5426,-9.0632e-06,2039.5,-0.00014359,1028.7,5.3387e-05
22897,0.18491,5.7273,0.1,0.0004264,4261.1,0.00041921,4176.4,-8.2144e-05,409.44,-0.00019629,-448.22,0.00011826
22898,0.27736,5.6364,0.1,0.00046521,4648.9,0.00046604,4823.7,-7.7432e-05,740.24,-0.00020733,-235.74,0.00030389
22899,0.092453,5.6364,0.1,0.00034121,3409.8,0.00037601,4547.7,-2.1228e-05,1563,-0.00011858,831.52,4.3858e-05
22900,0.27736,5.8182,0.1,0.00045511,4547.9,0.0004521,4464.2,-0.00014179,1.8738,-0.00016397,-164.77,0.00020911
22901,0.092453,5.8182,0.1,0.00027158,2713.9,0.00028771,3195.7,-6.1604e-05,571.16,-8.4311e-05,400.55,2.6531e-05
22902,0.18491,5.9091,0.1,0.00038573,3854.7,0.00038023,3696.5,-0.00012356,-88.818,-0.00014155,-223.97,5.3258e-05
22903,0.36981,0.27273,0.1,0.00049057,4902.3,0.00049694,5096.4,-0.00014077,304.96,-0.00016932,90.414,0.00047613
22904,0.46226,0.18182,0.1,0.00053124,5308.8,0.00053018,5280.2,-0.00016707,41.276,-0.00018532,-95.796,0.00065911
22905,0.36981,0.090909,0.1,0.00049393,4935.9,0.00049191,4879.9,-0.00015443,23.623,-0.00017514,-131.99,0.00029901
22906,0.36981,0.45455,0.1,0.00048066,4803.3,0.00049465,5306.3,-8.6602e-05,939.05,-0.00019005,161.77,0.00059482
22907,0.46226,0.36364,0.1,0.00050729,5069.4,0.00051547,5343.5,-0.00012461,534.21,-0.00018921,48.868,0.00085766
22908,0.36981,0.63636,0.1,0.00049309,4927.5,0.00050905,5615.2,-5.1306e-05,1404.9,-0.00021224,195.66,0.00067511
22909,0.46226,0.54545,0.1,0.00050665,5063,0.00051842,5544.9,-8.16e-05,1036.6,-0.0002106,67.364,0.000997
22910,0.36981,0.81818,0.1,0.00051341,5130.5,0.00052949,5927.9,-3.1258e-05,1714.7,-0.00023091,214.58,0.00073147
22911,0.46226,0.72727,0.1,0.00051808,5177.3,0.00053034,5788.7,-5.3073e-05,1405.2,-0.0002299,76.613,0.0010962
22912,0.36981,1,0.1,0.000534,5336.3,0.00054996,6205.4,-1.9968e-05,1923.2,-0.00024569,227.22,0.00077251
22913,0.46226,0.90909,0.1,0.00053388,5335.2,0.00054569,6029.9,-3.5215e-05,1665.2,-0.00024586,82.44,0.0011688
22914,0.36981,1.1818,0.1,0.00055231,5519.3,0.00056819,6438.7,-1.3403e-05,2068.8,-0.0002573,236.26,0.00080325
22915,0.46226,1.0909,0.1,0.00055,5496.2,0.00056129,6247.8,-2.4124e-05,1849.2,-0.00025873,86.473,0.0012232
22916,0.36981,1.3636,0.1,0.00056778,5673.9,0.00058367,6630.4,-9.3952e-06,2174.3,-0.00026645,242.95,0.00082675
22917,0.46226,1.2727,0.1,0.00056472,5643.3,0.00057561,6435.9,-1.7086e-05,1982.6,-0.00026906,89.399,0.0012647
22918,0.36981,1.5455,0.1,0.00058058,5801.8,0.00059652,6786.4,-6.8408e-06,2253,-0.00027369,248.03,0.00084497
22919,0.46226,1.4545,0.1,0.0005775,5771.1,0.00058812,6594.3,-1.2494e-05,2081.5,-0.00027733,91.598,0.0012969
22920,0.36981,1.7273,0.1,0.00059102,5906.1,0.00060702,6912.3,-5.1531e-06,2312.7,-0.00027943,251.94,0.0008592
22921,0.46226,1.6364,0.1,0.0005883,5878.9,0.00059874,6725.6,-9.4133e-06,2156.2,-0.00028397,93.282,0.0013222
22922,0.36981,1.9091,0.1,0.00059944,5990.3,0.00061551,7013.3,-4.0076e-06,2358.5,-0.00028397,254.96,0.00087032
22923,0.46226,1.8182,0.1,0.00059723,5968.2,0.00060757,6833.1,-7.2997e-06,2213.2,-0.00028927,94.582,0.0013419
22924,0.36981,2.0909,0.1,0.00060613,6057.1,0.00062226,7093,-3.2168e-06,2393.5,-0.00028752,257.29,0.00087896
22925,0.46226,2,0.1,0.00060451,6040.9,0.00061478,6919.8,-5.8261e-06,2256.9,-0.00029347,95.586,0.0013574
22926,0.36981,2.2727,0.1,0.00061132,6108.9,0.0006275,7154.7,-2.6687e-06,2419.9,-0.00029026,259.06,0.00088555
22927,0.46226,2.1818,0.1,0.00061029,6098.6,0.00062052,6988.4,-4.7918e-06,2290.1,-0.00029676,96.355,0.0013694
22928,0.36981,2.4545,0.1,0.00061518,6147.6,0.00063141,7200.6,-2.2945e-06,2439.2,-0.00029228,260.35,0.0008904
22929,0.46226,2.3636,0.1,0.00061473,6143.1,0.00062494,7040.9,-4.0715e-06,2314.8,-0.00029925,96.93,0.0013784
22930,0.36981,2.6364,0.1,0.00061785,6174.3,0.00063411,7232.2,-2.0518e-06,2452.3,-0.00029367,261.23,0.00089373
22931,0.46226,2.5455,0.1,0.00061796,6175.3,0.00062815,7079,-3.5859e-06,2332.4,-0.00030105,97.339,0.0013848
22932,0.36981,2.8182,0.1,0.00061942,6190,0.0006357,7250.8,-1.9152e-06,2460,-0.00029449,261.75,0.00089567
22933,0.46226,2.7273,0.1,0.00062006,6196.3,0.00063025,7103.7,-3.2858e-06,2343.6,-0.00030221,97.602,0.001389
22934,0.36981,3,0.1,0.00061994,6195.1,0.00063623,7256.9,-1.8711e-06,2462.5,-0.00029475,261.91,0.00089631
22935,0.46226,2.9091,0.1,0.0006211,6206.7,0.00063128,7115.9,-3.1424e-06,2349.1,-0.00030278,97.73,0.001391
22936,0.36981,3.1818,0.1,0.00061942,6190,0.0006357,7250.8,-1.9152e-06,2460,-0.00029449,261.75,0.00089567
22937,0.46226,3.0909,0.1,0.0006211,6206.7,0.00063128,7115.9,-3.1424e-06,2349.1,-0.00030278,97.73,0.001391
22938,0.36981,3.3636,0.1,0.00061785,6174.3,0.00063411,7232.2,-2.0518e-06,2452.3,-0.00029367,261.23,0.00089373
22939,0.46226,3.2727,0.1,0.00062006,6196.3,0.00063025,7103.7,-3.2858e-06,2343.6,-0.00030221,97.602,0.001389
22940,0.36981,3.5455,0.1,0.00061518,6147.6,0.00063141,7200.6,-2.2945e-06,2439.2,-0.00029228,260.35,0.0008904
22941,0.46226,3.4545,0.1,0.00061796,6175.3,0.00062815,7079,-3.5859e-06,2332.4,-0.00030105,97.339,0.0013848
22942,0.36981,3.7273,0.1,0.00061132,6108.9,0.0006275,7154.7,-2.6687e-06,2419.9,-0.00029026,259.06,0.00088555
22943,0.46226,3.6364,0.1,0.00061473,6143.1,0.00062494,7040.9,-4.0715e-06,2314.8,-0.00029925,96.93,0.0013784
22944,0.36981,3.9091,0.1,0.00060613,6057.1,0.00062226,7093,-3.2168e-06,2393.5,-0.00028752,257.29,0.00087896
22945,0.46226,3.8182,0.1,0.00061029,6098.6,0.00062052,6988.4,-4.7918e-06,2290.1,-0.00029676,96.355,0.0013694
22946,0.36981,4.0909,0.1,0.00059944,5990.3,0.00061551,7013.3,-4.0076e-06,2358.5,-0.00028397,254.96,0.00087032
22947,0.46226,4,0.1,0.00060451,6040.9,0.00061478,6919.8,-5.8261e-06,2256.9,-0.00029347,95.586,0.0013574
22948,0.36981,4.2727,0.1,0.00059102,5906.1,0.00060702,6912.3,-5.1531e-06,2312.7,-0.00027943,251.94,0.0008592
22949,0.46226,4.1818,0.1,0.00059723,5968.2,0.00060757,6833.1,-7.2997e-06,2213.2,-0.00028927,94.582,0.0013419
22950,0.36981,4.4545,0.1,0.00058058,5801.8,0.00059652,6786.4,-6.8408e-06,2253,-0.00027369,248.03,0.00084497
22951,0.46226,4.3636,0.1,0.0005883,5878.9,0.00059874,6725.6,-9.4133e-06,2156.2,-0.00028397,93.282,0.0013222
22952,0.36981,4.6364,0.1,0.00056778,5673.9,0.00058367,6630.4,-9.3952e-06,2174.3,-0.00026645,242.95,0.00082675
22953,0.46226,4.5455,0.1,0.0005775,5771.1,0.00058812,6594.3,-1.2494e-05,2081.5,-0.00027733,91.598,0.0012969
22954,0.36981,4.8182,0.1,0.00055231,5519.3,0.00056819,6438.7,-1.3403e-05,2068.8,-0.0002573,236.26,0.00080325
22955,0.46226,4.7273,0.1,0.00056472,5643.3,0.00057561,6435.9,-1.7086e-05,1982.6,-0.00026906,89.399,0.0012647
22956,0.36981,5,0.1,0.000534,5336.3,0.00054996,6205.4,-1.9968e-05,1923.2,-0.00024569,227.22,0.00077251
22957,0.46226,4.9091,0.1,0.00055,5496.2,0.00056129,6247.8,-2.4124e-05,1849.2,-0.00025873,86.473,0.0012232
22958,0.36981,5.1818,0.1,0.00051341,5130.5,0.00052949,5927.9,-3.1258e-05,1714.7,-0.00023091,214.58,0.00073147
22959,0.46226,5.0909,0.1,0.00053388,5335.2,0.00054569,6029.9,-3.5215e-05,1665.2,-0.00024586,82.44,0.0011688
22960,0.36981,5.3636,0.1,0.00049309,4927.5,0.00050905,5615.2,-5.1306e-05,1404.9,-0.00021224,195.66,0.00067511
22961,0.46226,5.2727,0.1,0.00051808,5177.3,0.00053034,5788.7,-5.3073e-05,1405.2,-0.0002299,76.613,0.0010963
22962,0.36981,5.5455,0.1,0.00048066,4803.3,0.00049465,5306.3,-8.6602e-05,939.05,-0.00019005,161.77,0.00059482
22963,0.46226,5.4545,0.1,0.00050665,5063,0.00051842,5544.9,-8.16e-05,1036.6,-0.0002106,67.364,0.000997
22964,0.36981,5.7273,0.1,0.00049057,4902.3,0.00049694,5096.4,-0.00014077,304.96,-0.00016932,90.414,0.00047613
22965,0.46226,5.6364,0.1,0.00050729,5069.4,0.00051547,5343.5,-0.00012461,534.21,-0.00018921,48.868,0.00085766
22966,0.46226,5.8182,0.1,0.00053124,5308.8,0.00053018,5280.2,-0.00016707,41.276,-0.00018532,-95.796,0.00065911
22967,0.36981,5.9091,0.1,0.00049393,4935.9,0.00049191,4879.9,-0.00015443,23.623,-0.00017514,-131.99,0.00029901
22968,0.55472,0.27273,0.1,0.0005465,5461.2,0.00054851,5525.8,-0.0001645,168.45,-0.00019142,-33.777,0.0011397
22969,0.64717,0.18182,0.1,0.00057127,5708.8,0.0005699,5669.8,-0.00018339,9.7935,-0.00019622,-86.554,0.0014349
22970,0.55472,0.090909,0.1,0.00054816,5477.8,0.00054612,5419.1,-0.00017633,-9.096,-0.00018936,-107.02,0.00084549
22971,0.55472,0.45455,0.1,0.00053196,5315.9,0.00053873,5578.3,-0.00011924,634.58,-0.00020963,-44.565,0.0013553
22972,0.64717,0.36364,0.1,0.00054821,5478.3,0.00055323,5646.1,-0.00014845,373.99,-0.00020054,-17.389,0.0017405
22973,0.55472,0.63636,0.1,0.00053096,5305.9,0.00053928,5715.3,-8.2977e-05,1039.9,-0.00022822,-51.464,0.0015126
22974,0.64717,0.54545,0.1,0.0005388,5384.3,0.00054728,5720.4,-0.00011011,780.99,-0.00021662,-19.299,0.0019702
22975,0.55472,0.81818,0.1,0.00053835,5379.8,0.00054639,5889.6,-5.6898e-05,1356.7,-0.00024484,-55.453,0.0016289
22976,0.64717,0.72727,0.1,0.00053846,5380.8,0.00054801,5841.4,-7.9437e-05,1127,-0.00023219,-20.714,0.0021432
22977,0.55472,1,0.1,0.00054988,5495,0.00055705,6072.5,-3.94e-05,1591,-0.0002589,-58.283,0.0017166
22978,0.64717,0.90909,0.1,0.00054422,5438.4,0.00055354,5985.8,-5.7023e-05,1398.3,-0.00024602,-21.706,0.0022748
22979,0.55472,1.1818,0.1,0.00056247,5620.8,0.00056879,6245.7,-2.789e-05,1762.4,-0.00027049,-60.376,0.0017837
22980,0.64717,1.0909,0.1,0.00055303,5526.5,0.00056167,6134.8,-4.1325e-05,1604.1,-0.00025781,-22.505,0.0023761
22981,0.55472,1.3636,0.1,0.00057451,5741.1,0.00058014,6400.4,-2.0268e-05,1889.2,-0.00027994,-61.947,0.0018358
22982,0.64717,1.2727,0.1,0.0005628,5624.1,0.00057073,6276.2,-3.0466e-05,1759.1,-0.00026766,-23.114,0.0024552
22983,0.55472,1.5455,0.1,0.00058528,5848.7,0.00059042,6534,-1.5133e-05,1984.2,-0.00028761,-63.149,0.0018767
22984,0.64717,1.4545,0.1,0.00057232,5719.3,0.00057964,6403.9,-2.2928e-05,1876.4,-0.0002758,-23.586,0.0025173
22985,0.55472,1.7273,0.1,0.00059456,5941.5,0.00059934,6646.7,-1.1608e-05,2056.3,-0.00029381,-64.077,0.0019089
22986,0.64717,1.6364,0.1,0.000581,5806,0.00058785,6515.3,-1.7644e-05,1965.8,-0.00028247,-23.953,0.0025664
22987,0.55472,1.9091,0.1,0.00060234,6019.2,0.00060687,6739.9,-9.1495e-06,2111.3,-0.00029878,-64.796,0.0019343
22988,0.64717,1.8182,0.1,0.00058857,5881.7,0.00059508,6610,-1.39e-05,2034.4,-0.00028789,-24.238,0.0026053
22989,0.55472,2.0909,0.1,0.0006087,6082.8,0.00061305,6815.3,-7.4196e-06,2153.3,-0.00030271,-65.351,0.001954
22990,0.64717,2,0.1,0.00059498,5945.7,0.00060123,6688.8,-1.1229e-05,2087,-0.00029225,-24.459,0.0026359
22991,0.55472,2.2727,0.1,0.00061373,6133.1,0.00061796,6874.7,-6.2038e-06,2184.9,-0.00030576,-65.772,0.0019692
22992,0.64717,2.1818,0.1,0.00060021,5998,0.00060628,6752.4,-9.3212e-06,2127,-0.00029569,-24.628,0.0026596
22993,0.55472,2.4545,0.1,0.00061754,6171.1,0.00062168,6919.4,-5.3655e-06,2208,-0.00030802,-66.08,0.0019804
22994,0.64717,2.3636,0.1,0.00060431,6039,0.00061025,6801.8,-7.9763e-06,2156.7,-0.00029831,-24.755,0.0026776
22995,0.55472,2.6364,0.1,0.00062019,6197.7,0.00062429,6950.5,-4.8182e-06,2223.6,-0.00030959,-66.291,0.001988
22996,0.64717,2.5455,0.1,0.00060734,6069.2,0.00061319,6838.1,-7.0617e-06,2177.8,-0.00030022,-24.845,0.0026904
22997,0.55472,2.8182,0.1,0.00062177,6213.4,0.00062583,6968.8,-4.5089e-06,2232.7,-0.00031051,-66.414,0.0019925
22998,0.64717,2.7273,0.1,0.00060933,6089.1,0.00061513,6861.9,-6.493e-06,2191.3,-0.00030146,-24.903,0.0026987
22999,0.55472,3,0.1,0.00062229,6218.6,0.00062634,6974.9,-4.4088e-06,2235.7,-0.00031081,-66.455,0.001994
23000,0.64717,2.9091,0.1,0.00061032,6099,0.00061609,6873.7,-6.2204e-06,2197.9,-0.00030207,-24.932,0.0027028
23001,0.55472,3.1818,0.1,0.00062177,6213.4,0.00062583,6968.8,-4.5089e-06,2232.7,-0.00031051,-66.414,0.0019925
23002,0.64717,3.0909,0.1,0.00061032,6099,0.00061609,6873.7,-6.2204e-06,2197.9,-0.00030207,-24.932,0.0027028
23003,0.55472,3.3636,0.1,0.00062019,6197.7,0.00062429,6950.5,-4.8182e-06,2223.6,-0.00030959,-66.291,0.001988
23004,0.64717,3.2727,0.1,0.00060933,6089.1,0.00061513,6861.9,-6.493e-06,2191.3,-0.00030146,-24.903,0.0026987
23005,0.55472,3.5455,0.1,0.00061754,6171.1,0.00062168,6919.4,-5.3655e-06,2208,-0.00030802,-66.08,0.0019804
23006,0.64717,3.4545,0.1,0.00060734,6069.2,0.00061319,6838.1,-7.0617e-06,2177.8,-0.00030022,-24.845,0.0026904
23007,0.55472,3.7273,0.1,0.00061373,6133.1,0.00061796,6874.7,-6.2038e-06,2184.9,-0.00030576,-65.772,0.0019692
23008,0.64717,3.6364,0.1,0.00060431,6039,0.00061025,6801.8,-7.9763e-06,2156.7,-0.00029831,-24.755,0.0026776
23009,0.55472,3.9091,0.1,0.0006087,6082.8,0.00061305,6815.3,-7.4196e-06,2153.3,-0.00030271,-65.351,0.001954
23010,0.64717,3.8182,0.1,0.00060021,5998,0.00060628,6752.4,-9.3212e-06,2127,-0.00029569,-24.628,0.0026596
23011,0.55472,4.0909,0.1,0.00060234,6019.2,0.00060687,6739.9,-9.1495e-06,2111.3,-0.00029878,-64.796,0.0019343
23012,0.64717,4,0.1,0.00059498,5945.7,0.00060123,6688.8,-1.1229e-05,2087,-0.00029225,-24.459,0.0026359
23013,0.55472,4.2727,0.1,0.00059456,5941.5,0.00059934,6646.7,-1.1608e-05,2056.3,-0.00029381,-64.077,0.0019089
23014,0.64717,4.1818,0.1,0.00058857,5881.7,0.00059508,6610,-1.39e-05,2034.4,-0.00028789,-24.238,0.0026053
23015,0.55472,4.4545,0.1,0.00058528,5848.7,0.00059042,6534,-1.5133e-05,1984.2,-0.00028761,-63.149,0.0018767
23016,0.64717,4.3636,0.1,0.000581,5806,0.00058785,6515.3,-1.7644e-05,1965.8,-0.00028247,-23.953,0.0025664
23017,0.55472,4.6364,0.1,0.00057451,5741.1,0.00058014,6400.4,-2.0268e-05,1889.2,-0.00027994,-61.947,0.0018358
23018,0.64717,4.5455,0.1,0.00057232,5719.3,0.00057964,6403.9,-2.2928e-05,1876.4,-0.0002758,-23.586,0.0025173
23019,0.55472,4.8182,0.1,0.00056247,5620.8,0.00056879,6245.7,-2.789e-05,1762.4,-0.00027049,-60.376,0.0017837
23020,0.64717,4.7273,0.1,0.0005628,5624.1,0.00057073,6276.2,-3.0466e-05,1759.1,-0.00026766,-23.114,0.0024552
23021,0.55472,5,0.1,0.00054988,5495,0.00055705,6072.5,-3.94e-05,1591,-0.0002589,-58.283,0.0017166
23022,0.64717,4.9091,0.1,0.00055303,5526.5,0.00056167,6134.8,-4.1325e-05,1604.1,-0.00025781,-22.505,0.0023761
23023,0.55472,5.1818,0.1,0.00053835,5379.8,0.00054639,5889.6,-5.6898e-05,1356.7,-0.00024484,-55.453,0.0016289
23024,0.64717,5.0909,0.1,0.00054422,5438.4,0.00055354,5985.8,-5.7023e-05,1398.3,-0.00024602,-21.706,0.0022748
23025,0.55472,5.3636,0.1,0.00053096,5305.9,0.00053928,5715.3,-8.2977e-05,1039.9,-0.00022822,-51.464,0.0015126
23026,0.64717,5.2727,0.1,0.00053846,5380.8,0.00054801,5841.4,-7.9437e-05,1127,-0.00023219,-20.714,0.0021432
23027,0.55472,5.5455,0.1,0.00053196,5315.9,0.00053873,5578.3,-0.00011924,634.58,-0.00020963,-44.565,0.0013553
23028,0.64717,5.4545,0.1,0.0005388,5384.3,0.00054728,5720.4,-0.00011011,780.99,-0.00021662,-19.299,0.0019702
23029,0.55472,5.7273,0.1,0.0005465,5461.2,0.00054851,5525.8,-0.0001645,168.45,-0.00019142,-33.777,0.0011397
23030,0.64717,5.6364,0.1,0.00054821,5478.3,0.00055323,5646.1,-0.00014845,373.99,-0.00020054,-17.389,0.0017405
23031,0.64717,5.8182,0.1,0.00057127,5708.8,0.0005699,5669.8,-0.00018339,9.7935,-0.00019622,-86.554,0.0014349
23032,0.55472,5.9091,0.1,0.00054816,5477.8,0.00054612,5419.1,-0.00017633,-9.096,-0.00018936,-107.02,0.00084549
23033,0.73962,0.27273,0.1,0.0005723,5719.1,0.00057463,5790.2,-0.00017664,145.5,-0.00019605,-0.39431,0.0021464
23034,0.83208,0.18182,0.1,0.00059136,5909.6,0.00059057,5886.8,-0.00019074,16.403,-0.00020105,-61.065,0.00257
23035,0.73962,0.090909,0.1,0.00057659,5761.9,0.00057535,5726.2,-0.00018657,1.4111,-0.00019637,-72.282,0.0017404
23036,0.73962,0.45455,0.1,0.00055445,5540.6,0.00056167,5787.4,-0.00013929,520.65,-0.00020747,8.4372,0.0024609
23037,0.83208,0.36364,0.1,0.00056923,5688.4,0.00057389,5837.5,-0.00016172,310.4,-0.00020298,0.4026,0.0029786
23038,0.73962,0.63636,0.1,0.00054586,5454.8,0.00055576,5844.7,-0.00010635,869.79,-0.00022057,11.597,0.0027028
23039,0.83208,0.54545,0.1,0.00055641,5560.2,0.00056466,5856.9,-0.00012889,645.84,-0.00021441,3.3329,0.0033002
23040,0.73962,0.81818,0.1,0.00054413,5437.5,0.00055494,5936.1,-7.9356e-05,1170.2,-0.00023336,13.091,0.0028893
23041,0.83208,0.72727,0.1,0.00054983,5494.5,0.00055993,5911.6,-9.9916e-05,953.74,-0.00022629,4.2116,0.0035524
23042,0.73962,1,0.1,0.00054735,5469.7,0.00055804,6047.2,-5.883e-05,1412.3,-0.00024493,14.097,0.0030344
23043,0.83208,0.90909,0.1,0.00054861,5482.3,0.00055924,5991.3,-7.6376e-05,1215.5,-0.0002375,4.8396,0.0037507
23044,0.73962,1.1818,0.1,0.00055342,5530.4,0.00056357,6165,-4.3858e-05,1601,-0.00025498,14.769,0.003148
23045,0.83208,1.0909,0.1,0.00055118,5508,0.0005616,6084.9,-5.8253e-05,1427.6,-0.00024756,5.2067,0.0039074
23046,0.73962,1.3636,0.1,0.0005607,5603.1,0.00057022,6279.6,-3.3125e-05,1746.3,-0.00026351,15.253,0.0032378
23047,0.83208,1.2727,0.1,0.00055596,5555.8,0.00056585,6182.9,-4.4704e-05,1595.4,-0.00025631,5.4581,0.0040319
23048,0.73962,1.5455,0.1,0.00056812,5677.2,0.00057709,6385.2,-2.5454e-05,1857.9,-0.00027065,15.613,0.0033092
23049,0.83208,1.4545,0.1,0.00056172,5613.3,0.00057102,6278,-3.4706e-05,1726.8,-0.00026378,5.6342,0.0041313
23050,0.73962,1.7273,0.1,0.00057507,5746.8,0.00058361,6478.7,-1.9953e-05,1943.8,-0.00027655,15.888,0.0033659
23051,0.83208,1.6364,0.1,0.00056764,5672.5,0.00057642,6365.8,-2.7361e-05,1829.2,-0.00027004,5.7654,0.0042107
23052,0.73962,1.9091,0.1,0.00058126,5808.6,0.00058945,6559,-1.5992e-05,2010,-0.00028136,16.101,0.0034108
23053,0.83208,1.8182,0.1,0.00057325,5728.5,0.00058159,6443.7,-2.1966e-05,1908.8,-0.00027524,5.8653,0.0042742
23054,0.73962,2.0909,0.1,0.00058652,5861.2,0.00059446,6625.8,-1.3136e-05,2060.6,-0.00028522,16.265,0.0034461
23055,0.83208,2,0.1,0.00057825,5778.5,0.00058624,6510.6,-1.801e-05,1970.5,-0.00027947,5.9423,0.0043244
23056,0.73962,2.2727,0.1,0.00059082,5904.1,0.00059857,6679.5,-1.1094e-05,2098.8,-0.00028824,16.39,0.0034732
23057,0.83208,2.1818,0.1,0.0005825,5821,0.00059023,6566,-1.5127e-05,2017.6,-0.00028285,6.0014,0.0043636
23058,0.73962,2.4545,0.1,0.00059414,5937.3,0.00060175,6720.6,-9.6683e-06,2126.6,-0.00029051,16.481,0.0034933
23059,0.83208,2.3636,0.1,0.00058593,5855.3,0.00059347,6610,-1.3064e-05,2052.7,-0.00028546,6.0457,0.0043934
23060,0.73962,2.6364,0.1,0.00059649,5960.8,0.00060402,6749.5,-8.7291e-06,2145.6,-0.00029209,16.543,0.0035072
23061,0.83208,2.5455,0.1,0.00058851,5881.1,0.00059591,6642.6,-1.1645e-05,2077.7,-0.00028736,6.0774,0.0044148
23062,0.73962,2.8182,0.1,0.0005979,5974.8,0.00060538,6766.7,-8.1952e-06,2156.6,-0.00029301,16.58,0.0035153
23063,0.83208,2.7273,0.1,0.00059023,5898.3,0.00059754,6664.2,-1.0756e-05,2093.7,-0.0002886,6.0978,0.0044286
23064,0.73962,3,0.1,0.00059836,5979.5,0.00060583,6772.4,-8.022e-06,2160.2,-0.00029332,16.592,0.003518
23065,0.83208,2.9091,0.1,0.00059109,5906.8,0.00059836,6675,-1.0328e-05,2101.6,-0.00028922,6.1078,0.0044354
23066,0.73962,3.1818,0.1,0.0005979,5974.8,0.00060538,6766.7,-8.1952e-06,2156.6,-0.00029301,16.58,0.0035153
23067,0.83208,3.0909,0.1,0.00059109,5906.8,0.00059836,6675,-1.0328e-05,2101.6,-0.00028922,6.1078,0.0044354
23068,0.73962,3.3636,0.1,0.00059649,5960.8,0.00060402,6749.5,-8.7291e-06,2145.6,-0.00029209,16.543,0.0035072
23069,0.83208,3.2727,0.1,0.00059023,5898.3,0.00059754,6664.2,-1.0756e-05,2093.7,-0.0002886,6.0978,0.0044286
23070,0.73962,3.5455,0.1,0.00059414,5937.3,0.00060175,6720.6,-9.6683e-06,2126.6,-0.00029051,16.481,0.0034933
23071,0.83208,3.4545,0.1,0.00058851,5881.1,0.00059591,6642.6,-1.1645e-05,2077.7,-0.00028736,6.0774,0.0044148
23072,0.73962,3.7273,0.1,0.00059082,5904.1,0.00059857,6679.5,-1.1094e-05,2098.8,-0.00028824,16.39,0.0034732
23073,0.83208,3.6364,0.1,0.00058593,5855.3,0.00059347,6610,-1.3064e-05,2052.7,-0.00028546,6.0457,0.0043934
23074,0.73962,3.9091,0.1,0.00058652,5861.2,0.00059446,6625.8,-1.3136e-05,2060.6,-0.00028522,16.265,0.0034461
23075,0.83208,3.8182,0.1,0.0005825,5821,0.00059023,6566,-1.5127e-05,2017.6,-0.00028285,6.0014,0.0043636
23076,0.73962,4.0909,0.1,0.00058126,5808.6,0.00058945,6559,-1.5992e-05,2010,-0.00028136,16.101,0.0034108
23077,0.83208,4,0.1,0.00057825,5778.5,0.00058624,6510.6,-1.801e-05,1970.5,-0.00027947,5.9423,0.0043244
23078,0.73962,4.2727,0.1,0.00057507,5746.8,0.00058361,6478.7,-1.9953e-05,1943.8,-0.00027655,15.888,0.0033659
23079,0.83208,4.1818,0.1,0.00057325,5728.5,0.00058159,6443.7,-2.1966e-05,1908.8,-0.00027524,5.8653,0.0042742
23080,0.73962,4.4545,0.1,0.00056812,5677.2,0.00057709,6385.2,-2.5454e-05,1857.9,-0.00027065,15.613,0.0033092
23081,0.83208,4.3636,0.1,0.00056764,5672.5,0.00057642,6365.8,-2.7361e-05,1829.2,-0.00027004,5.7654,0.0042107
23082,0.73962,4.6364,0.1,0.0005607,5603.1,0.00057022,6279.6,-3.3125e-05,1746.3,-0.00026351,15.253,0.0032378
23083,0.83208,4.5455,0.1,0.00056172,5613.3,0.00057102,6278,-3.4706e-05,1726.8,-0.00026378,5.6342,0.0041313
23084,0.73962,4.8182,0.1,0.00055342,5530.4,0.00056357,6165,-4.3858e-05,1601,-0.00025498,14.769,0.003148
23085,0.83208,4.7273,0.1,0.00055596,5555.8,0.00056585,6182.9,-4.4704e-05,1595.4,-0.00025631,5.4581,0.0040319
23086,0.73962,5,0.1,0.00054735,5469.7,0.00055804,6047.2,-5.883e-05,1412.3,-0.00024493,14.097,0.0030344
23087,0.83208,4.9091,0.1,0.00055118,5508,0.0005616,6084.9,-5.8253e-05,1427.6,-0.00024756,5.2067,0.0039074
23088,0.73962,5.1818,0.1,0.00054413,5437.5,0.00055494,5936.1,-7.9356e-05,1170.2,-0.00023336,13.091,0.0028893
23089,0.83208,5.0909,0.1,0.00054861,5482.3,0.00055924,5991.3,-7.6376e-05,1215.5,-0.0002375,4.8396,0.0037507
23090,0.73962,5.3636,0.1,0.00054586,5454.8,0.00055576,5844.7,-0.00010635,869.79,-0.00022057,11.597,0.0027028
23091,0.83208,5.2727,0.1,0.00054983,5494.5,0.00055993,5911.6,-9.9916e-05,953.74,-0.00022629,4.2116,0.0035524
23092,0.73962,5.5455,0.1,0.00055445,5540.6,0.00056167,5787.4,-0.00013929,520.65,-0.00020747,8.4372,0.0024609
23093,0.83208,5.4545,0.1,0.00055641,5560.2,0.00056466,5856.9,-0.00012889,645.84,-0.00021441,3.3329,0.0033002
23094,0.73962,5.7273,0.1,0.0005723,5719.1,0.00057463,5790.2,-0.00017664,145.5,-0.00019605,-0.3943,0.0021464
23095,0.83208,5.6364,0.1,0.00056923,5688.4,0.00057389,5837.5,-0.00016172,310.4,-0.00020298,0.40261,0.0029786
23096,0.83208,5.8182,0.1,0.00059136,5909.6,0.00059057,5886.8,-0.00019074,16.404,-0.00020105,-61.065,0.00257
23097,0.73962,5.9091,0.1,0.00057659,5761.9,0.00057535,5726.2,-0.00018657,1.4112,-0.00019637,-72.282,0.0017404
23098,0.92453,0.27273,0.1,0.00058796,5875.5,0.00058989,5934.6,-0.00018298,127.54,-0.0002009,-7.047,0.00352
23099,1.017,0.18182,0.1,0.00060193,6015.2,0.00060145,6001.5,-0.00019517,15.986,-0.00020301,-42.898,0.0040837
23100,0.92453,0.090909,0.1,0.0005926,5921.9,0.0005917,5895.7,-0.00019311,-1.0326,-0.00019977,-51.041,0.0030099
23101,0.92453,0.45455,0.1,0.00057085,5704.6,0.00057691,5907.2,-0.00015141,434.91,-0.00020986,-4.2602,0.0039302
23102,1.017,0.36364,0.1,0.00058199,5815.9,0.00058603,5943.8,-0.00016927,268.8,-0.00020549,-3.3121,0.0045891
23103,0.92453,0.63636,0.1,0.00056001,5596.3,0.00056874,5923.2,-0.00012239,730.29,-0.00022011,-3.9441,0.0042575
23104,1.017,0.54545,0.1,0.00056871,5683.2,0.00057601,5936.6,-0.00014104,549.04,-0.00021438,-2.0025,0.0049997
23105,0.92453,0.81818,0.1,0.00055402,5536.4,0.00056409,5965.7,-9.6801e-05,1000,-0.00023043,-3.9932,0.0045183
23106,1.017,0.72727,0.1,0.00055961,5592.2,0.00056896,5954.7,-0.00011481,817.18,-0.00022381,-1.8584,0.0053316
23107,0.92453,1,0.1,0.00055226,5518.8,0.00056267,6027.9,-7.5665e-05,1231.8,-0.00024014,-4.0279,0.0047265
23108,1.017,0.90909,0.1,0.00055459,5542.1,0.0005649,5993.6,-9.2009e-05,1057.9,-0.00023303,-1.7182,0.0055994
23109,0.92453,1.1818,0.1,0.00055363,5532.5,0.00056378,6102,-5.8998e-05,1422.7,-0.0002489,-4.0918,0.0048931
23110,1.017,1.0909,0.1,0.00055302,5526.4,0.00056351,6047.6,-7.3209e-05,1263.6,-0.0002416,-1.6776,0.0058158
23111,0.92453,1.3636,0.1,0.00055694,5565.6,0.00056658,6180.7,-4.622e-05,1576.4,-0.00025658,-4.1538,0.005027
23112,1.017,1.2727,0.1,0.00055396,5535.8,0.00056417,6110.4,-5.8246e-05,1433.8,-0.0002493,-1.6639,0.0059908
23113,0.92453,1.5455,0.1,0.00056123,5608.5,0.00057031,6258.2,-3.6574e-05,1698.3,-0.00026317,-4.2096,0.0051346
23114,1.017,1.4545,0.1,0.00055646,5560.8,0.00056621,6176.4,-4.6597e-05,1572,-0.00025604,-1.6674,0.0061324
23115,0.92453,1.7273,0.1,0.00056582,5654.3,0.00057438,6330.5,-2.935e-05,1794.4,-0.00026873,-4.2556,0.0052211
23116,1.017,1.6364,0.1,0.00055978,5594,0.00056901,6240.9,-3.7651e-05,1682.7,-0.00026183,-1.6757,0.006247
23117,0.92453,1.9091,0.1,0.00057024,5698.5,0.00057836,6395.2,-2.3968e-05,1869.5,-0.00027335,-4.2923,0.0052902
23118,1.017,1.8182,0.1,0.00056337,5629.8,0.00057212,6301,-3.0844e-05,1770.5,-0.00026671,-1.6846,0.0063393
23119,0.92453,2.0909,0.1,0.00057423,5738.3,0.000582,6450.7,-1.9987e-05,1927.6,-0.0002771,-4.3205,0.0053448
23120,1.017,2,0.1,0.00056684,5664.5,0.00057519,6354.4,-2.571e-05,1839.5,-0.00027075,-1.6925,0.0064129
23121,0.92453,2.2727,0.1,0.00057762,5772.2,0.00058512,6496.3,-1.7083e-05,1971.6,-0.00028007,-4.3418,0.005387
23122,1.017,2.1818,0.1,0.00056997,5695.7,0.00057798,6399.8,-2.1885e-05,1892.7,-0.00027401,-1.6986,0.0064707
23123,0.92453,2.4545,0.1,0.0005803,5799,0.00058761,6531.9,-1.5026e-05,2003.9,-0.00028231,-4.3572,0.0054183
23124,1.017,2.3636,0.1,0.00057258,5721.9,0.00058034,6436.6,-1.9101e-05,1932.6,-0.00027655,-1.7032,0.0065147
23125,0.92453,2.6364,0.1,0.00058225,5818.5,0.00058942,6557.2,-1.3656e-05,2026,-0.00028388,-4.3677,0.00544
23126,1.017,2.5455,0.1,0.00057461,5742.1,0.00058218,6464.4,-1.7164e-05,1961.2,-0.00027841,-1.7064,0.0065465
23127,0.92453,2.8182,0.1,0.00058342,5830.2,0.00059051,6572.4,-1.2873e-05,2038.8,-0.0002848,-4.3737,0.0054527
23128,1.017,2.7273,0.1,0.00057598,5755.8,0.00058344,6483,-1.594e-05,1979.5,-0.00027963,-1.7084,0.0065671
23129,0.92453,3,0.1,0.00058381,5834.1,0.00059088,6577.5,-1.2618e-05,2043,-0.00028511,-4.3757,0.0054569
23130,1.017,2.9091,0.1,0.00057667,5762.7,0.00058407,6492.3,-1.5348e-05,1988.5,-0.00028023,-1.7093,0.0065772
23131,0.92453,3.1818,0.1,0.00058342,5830.2,0.00059051,6572.4,-1.2873e-05,2038.8,-0.0002848,-4.3737,0.0054527
23132,1.017,3.0909,0.1,0.00057667,5762.7,0.00058407,6492.3,-1.5348e-05,1988.5,-0.00028023,-1.7093,0.0065772
23133,0.92453,3.3636,0.1,0.00058225,5818.5,0.00058942,6557.2,-1.3656e-05,2026,-0.00028388,-4.3677,0.00544
23134,1.017,3.2727,0.1,0.00057598,5755.8,0.00058344,6483,-1.594e-05,1979.5,-0.00027963,-1.7084,0.0065671
23135,0.92453,3.5455,0.1,0.0005803,5799,0.00058761,6531.9,-1.5026e-05,2003.9,-0.00028231,-4.3572,0.0054183
23136,1.017,3.4545,0.1,0.00057461,5742.1,0.00058218,6464.4,-1.7164e-05,1961.2,-0.00027841,-1.7064,0.0065465
23137,0.92453,3.7273,0.1,0.00057762,5772.2,0.00058512,6496.3,-1.7083e-05,1971.6,-0.00028007,-4.3418,0.005387
23138,1.017,3.6364,0.1,0.00057258,5721.9,0.00058034,6436.6,-1.9101e-05,1932.6,-0.00027655,-1.7032,0.0065147
23139,0.92453,3.9091,0.1,0.00057423,5738.3,0.000582,6450.7,-1.9987e-05,1927.6,-0.0002771,-4.3205,0.0053448
23140,1.017,3.8182,0.1,0.00056997,5695.7,0.00057798,6399.8,-2.1885e-05,1892.7,-0.00027401,-1.6986,0.0064707
23141,0.92453,4.0909,0.1,0.00057024,5698.5,0.00057836,6395.2,-2.3968e-05,1869.5,-0.00027335,-4.2923,0.0052902
23142,1.017,4,0.1,0.00056684,5664.5,0.00057519,6354.4,-2.571e-05,1839.5,-0.00027075,-1.6925,0.0064129
23143,0.92453,4.2727,0.1,0.00056582,5654.3,0.00057438,6330.5,-2.935e-05,1794.4,-0.00026873,-4.2556,0.0052211
23144,1.017,4.1818,0.1,0.00056337,5629.8,0.00057212,6301,-3.0844e-05,1770.5,-0.00026671,-1.6846,0.0063393
23145,0.92453,4.4545,0.1,0.00056123,5608.5,0.00057031,6258.2,-3.6574e-05,1698.3,-0.00026317,-4.2096,0.0051346
23146,1.017,4.3636,0.1,0.00055978,5594,0.00056901,6240.9,-3.7651e-05,1682.7,-0.00026183,-1.6757,0.006247
23147,0.92453,4.6364,0.1,0.00055694,5565.6,0.00056658,6180.7,-4.622e-05,1576.4,-0.00025658,-4.1538,0.005027
23148,1.017,4.5455,0.1,0.00055646,5560.8,0.00056621,6176.4,-4.6597e-05,1572,-0.00025604,-1.6674,0.0061324
23149,0.92453,4.8182,0.1,0.00055363,5532.5,0.00056378,6102,-5.8998e-05,1422.7,-0.0002489,-4.0918,0.0048931
23150,1.017,4.7273,0.1,0.00055396,5535.8,0.00056417,6110.4,-5.8246e-05,1433.8,-0.0002493,-1.6639,0.0059908
23151,0.92453,5,0.1,0.00055226,5518.8,0.00056267,6027.9,-7.5665e-05,1231.8,-0.00024014,-4.0279,0.0047265
23152,1.017,4.9091,0.1,0.00055302,5526.4,0.00056351,6047.6,-7.3209e-05,1263.6,-0.0002416,-1.6776,0.0058158
23153,0.92453,5.1818,0.1,0.00055402,5536.4,0.00056409,5965.7,-9.6801e-05,1000,-0.00023043,-3.9932,0.0045183
23154,1.017,5.0909,0.1,0.00055459,5542.1,0.0005649,5993.6,-9.2009e-05,1057.9,-0.00023303,-1.7182,0.0055994
23155,0.92453,5.3636,0.1,0.00056001,5596.3,0.00056874,5923.2,-0.00012239,730.29,-0.00022011,-3.9441,0.0042575
23156,1.017,5.2727,0.1,0.00055961,5592.2,0.00056896,5954.7,-0.00011481,817.18,-0.00022381,-1.8584,0.0053316
23157,0.92453,5.5455,0.1,0.00057085,5704.6,0.00057691,5907.2,-0.00015141,434.91,-0.00020986,-4.2602,0.0039302
23158,1.017,5.4545,0.1,0.00056871,5683.2,0.00057601,5936.6,-0.00014104,549.04,-0.00021438,-2.0025,0.0049997
23159,0.92453,5.7273,0.1,0.00058796,5875.5,0.00058989,5934.6,-0.00018298,127.54,-0.0002009,-7.047,0.00352
23160,1.017,5.6364,0.1,0.00058199,5815.9,0.00058603,5943.8,-0.00016927,268.8,-0.00020549,-3.3121,0.0045891
23161,1.017,5.8182,0.1,0.00060193,6015.2,0.00060145,6001.5,-0.00019517,15.986,-0.00020301,-42.898,0.0040837
23162,0.92453,5.9091,0.1,0.0005926,5921.9,0.0005917,5895.7,-0.00019311,-1.0326,-0.00019977,-51.041,0.0030099
23163,1.1094,0.27273,0.1,0.00059575,5953.4,0.00059765,6011.2,-0.00018621,121.53,-0.00020292,-3.9667,0.0052753
23164,1.2019,0.18182,0.1,0.00060645,6060.3,0.00060628,6055.7,-0.00019713,19.165,-0.00020342,-28.135,0.0059879
23165,1.1094,0.090909,0.1,0.00060085,6004.4,0.00060028,5987.7,-0.00019663,0.0015942,-0.00020107,-33.349,0.0046693
23166,1.1094,0.45455,0.1,0.00057965,5792.5,0.00058519,5973.7,-0.000159,382.14,-0.00020996,-0.72224,0.0057756
23167,1.2019,0.36364,0.1,0.00058844,5880.3,0.00059216,5997.2,-0.00017364,243.28,-0.00020627,-1.8869,0.0065831
23168,1.1094,0.63636,0.1,0.00056808,5676.8,0.00057622,5968.1,-0.00013346,635.89,-0.00021807,0.16414,0.0061859
23169,1.2019,0.54545,0.1,0.00057547,5750.7,0.00058215,5976.7,-0.00014902,482.99,-0.00021336,-0.45436,0.007078
23170,1.1094,0.81818,0.1,0.00055996,5595.7,0.0005697,5982.2,-0.00010995,875.49,-0.00022641,0.45189,0.0065211
23171,1.2019,0.72727,0.1,0.00056541,5650.2,0.00057418,5974.4,-0.00012552,717.16,-0.00022099,-0.19429,0.0074872
23172,1.1094,1,0.1,0.00055518,5548,0.00056565,6012.6,-8.9461e-05,1090.4,-0.0002345,0.6507,0.0067944
23173,1.2019,0.90909,0.1,0.00055837,5579.8,0.00056836,5988.1,-0.00010421,934.72,-0.00022861,0.027091,0.0078244
23174,1.1094,1.1818,0.1,0.00055324,5528.6,0.00056381,6055.3,-7.2364e-05,1275.4,-0.000242,0.76072,0.0070173
23175,1.2019,1.0909,0.1,0.00055418,5537.9,0.00056468,6015.2,-8.5769e-05,1128,-0.00023587,0.13589,0.0081018
23176,1.1094,1.3636,0.1,0.00055342,5530.4,0.00056372,6105.5,-5.8544e-05,1430.1,-0.00024876,0.82857,0.0071991
23177,1.2019,1.2727,0.1,0.00055234,5519.6,0.00056286,6051.8,-7.037e-05,1293.9,-0.00024256,0.203,0.0083298
23178,1.1094,1.5455,0.1,0.00055498,5546,0.00056485,6158.6,-4.7614e-05,1556.8,-0.0002547,0.87021,0.0073471
23179,1.2019,1.4545,0.1,0.00055225,5518.7,0.00056249,6094,-5.7843e-05,1433.1,-0.00024854,0.24018,0.0085167
23180,1.1094,1.7273,0.1,0.00055732,5569.3,0.00056671,6211,-3.91e-05,1659.2,-0.00025981,0.89762,0.0074671
23181,1.2019,1.6364,0.1,0.0005533,5529.2,0.00056314,6138.3,-4.7845e-05,1547.6,-0.00025378,0.26206,0.0086695
23182,1.1094,1.9091,0.1,0.00055996,5595.7,0.00056891,6259.9,-3.255e-05,1740.8,-0.00026411,0.91663,0.0075639
23183,1.2019,1.8182,0.1,0.00055501,5546.2,0.00056441,6181.6,-3.9986e-05,1640.4,-0.00025828,0.27522,0.0087936
23184,1.1094,2.0909,0.1,0.00056257,5621.8,0.00057114,6303.3,-2.7578e-05,1804.8,-0.00026766,0.93047,0.0076407
23185,1.2019,2,0.1,0.00055697,5565.9,0.00056597,6221.7,-3.3896e-05,1714.5,-0.00026205,0.28368,0.0088934
23186,1.1094,2.2727,0.1,0.00056493,5645.4,0.00057318,6340,-2.3877e-05,1853.9,-0.00027049,0.94073,0.0077004
23187,1.2019,2.1818,0.1,0.00055893,5585.4,0.00056757,6256.8,-2.9261e-05,1772.4,-0.00026512,0.28942,0.0089721
23188,1.1094,2.4545,0.1,0.00056688,5664.9,0.0005749,6369,-2.1215e-05,1890.1,-0.00027264,0.94824,0.007745
23189,1.2019,2.3636,0.1,0.00056068,5602.9,0.00056904,6285.9,-2.5829e-05,1816.3,-0.00026753,0.29346,0.0090323
23190,1.1094,2.6364,0.1,0.00056833,5679.4,0.00057618,6390.1,-1.9424e-05,1914.9,-0.00027416,0.95341,0.0077758
23191,1.2019,2.5455,0.1,0.00056208,5616.9,0.00057023,6308.3,-2.3411e-05,1847.9,-0.00026931,0.29626,0.009076
23192,1.1094,2.8182,0.1,0.00056922,5688.3,0.00057697,6402.8,-1.8391e-05,1929.4,-0.00027506,0.95644,0.0077939
23193,1.2019,2.7273,0.1,0.00056306,5626.7,0.00057107,6323.4,-2.187e-05,1868.3,-0.00027048,0.29805,0.0091043
23194,1.1094,3,0.1,0.00056952,5691.3,0.00057724,6407,-1.8054e-05,1934.2,-0.00027535,0.95744,0.0077999
23195,1.2019,2.9091,0.1,0.00056356,5631.7,0.0005715,6331,-2.1121e-05,1878.3,-0.00027106,0.29893,0.0091183
23196,1.1094,3.1818,0.1,0.00056922,5688.3,0.00057697,6402.8,-1.8391e-05,1929.4,-0.00027506,0.95644,0.0077939
23197,1.2019,3.0909,0.1,0.00056356,5631.7,0.0005715,6331,-2.1121e-05,1878.3,-0.00027106,0.29893,0.0091183
23198,1.1094,3.3636,0.1,0.00056833,5679.4,0.00057618,6390.1,-1.9424e-05,1914.9,-0.00027416,0.95341,0.0077758
23199,1.2019,3.2727,0.1,0.00056306,5626.7,0.00057107,6323.4,-2.187e-05,1868.3,-0.00027048,0.29805,0.0091043
23200,1.1094,3.5455,0.1,0.00056688,5664.9,0.0005749,6369,-2.1215e-05,1890.1,-0.00027264,0.94824,0.007745
23201,1.2019,3.4545,0.1,0.00056208,5616.9,0.00057023,6308.3,-2.3411e-05,1847.9,-0.00026931,0.29626,0.009076
23202,1.1094,3.7273,0.1,0.00056493,5645.4,0.00057318,6340,-2.3877e-05,1853.9,-0.00027049,0.94073,0.0077004
23203,1.2019,3.6364,0.1,0.00056068,5602.9,0.00056904,6285.9,-2.5829e-05,1816.3,-0.00026753,0.29346,0.0090323
23204,1.1094,3.9091,0.1,0.00056257,5621.9,0.00057114,6303.3,-2.7578e-05,1804.8,-0.00026766,0.93047,0.0076407
23205,1.2019,3.8182,0.1,0.00055893,5585.4,0.00056757,6256.8,-2.9261e-05,1772.4,-0.00026512,0.28942,0.0089721
23206,1.1094,4.0909,0.1,0.00055996,5595.7,0.00056891,6259.9,-3.255e-05,1740.8,-0.00026411,0.91663,0.0075639
23207,1.2019,4,0.1,0.00055697,5565.9,0.00056597,6221.7,-3.3896e-05,1714.5,-0.00026205,0.28368,0.0088934
23208,1.1094,4.2727,0.1,0.00055732,5569.3,0.00056671,6211,-3.91e-05,1659.2,-0.00025981,0.89762,0.0074671
23209,1.2019,4.1818,0.1,0.00055501,5546.2,0.00056441,6181.6,-3.9986e-05,1640.4,-0.00025828,0.27522,0.0087936
23210,1.1094,4.4545,0.1,0.00055498,5546,0.00056485,6158.6,-4.7614e-05,1556.8,-0.0002547,0.87021,0.0073471
23211,1.2019,4.3636,0.1,0.0005533,5529.2,0.00056314,6138.3,-4.7845e-05,1547.6,-0.00025378,0.26206,0.0086695
23212,1.1094,4.6364,0.1,0.00055342,5530.4,0.00056372,6105.5,-5.8544e-05,1430.1,-0.00024876,0.82857,0.0071991
23213,1.2019,4.5455,0.1,0.00055225,5518.7,0.00056249,6094,-5.7843e-05,1433.1,-0.00024854,0.24018,0.0085167
23214,1.1094,4.8182,0.1,0.00055324,5528.6,0.00056381,6055.3,-7.2364e-05,1275.4,-0.000242,0.76072,0.0070173
23215,1.2019,4.7273,0.1,0.00055234,5519.6,0.00056286,6051.8,-7.037e-05,1293.9,-0.00024256,0.203,0.0083298
23216,1.1094,5,0.1,0.00055518,5548,0.00056565,6012.6,-8.9461e-05,1090.4,-0.0002345,0.6507,0.0067944
23217,1.2019,4.9091,0.1,0.00055418,5537.9,0.00056468,6015.2,-8.5769e-05,1128,-0.00023587,0.13589,0.0081018
23218,1.1094,5.1818,0.1,0.00055996,5595.7,0.0005697,5982.2,-0.00010995,875.5,-0.00022641,0.45189,0.0065211
23219,1.2019,5.0909,0.1,0.00055837,5579.8,0.00056836,5988.1,-0.00010421,934.72,-0.00022861,0.027091,0.0078244
23220,1.1094,5.3636,0.1,0.00056808,5676.8,0.00057622,5968.1,-0.00013346,635.89,-0.00021807,0.16414,0.0061859
23221,1.2019,5.2727,0.1,0.00056541,5650.2,0.00057418,5974.4,-0.00012552,717.16,-0.00022099,-0.19429,0.0074872
23222,1.1094,5.5455,0.1,0.00057965,5792.5,0.00058519,5973.7,-0.000159,382.14,-0.00020996,-0.72224,0.0057756
23223,1.2019,5.4545,0.1,0.00057547,5750.7,0.00058215,5976.7,-0.00014902,482.99,-0.00021336,-0.45436,0.007078
23224,1.1094,5.7273,0.1,0.00059575,5953.4,0.00059765,6011.2,-0.00018622,121.53,-0.00020292,-3.9667,0.0052753
23225,1.2019,5.6364,0.1,0.00058844,5880.3,0.00059216,5997.2,-0.00017364,243.28,-0.00020627,-1.8869,0.0065831
23226,1.2019,5.8182,0.1,0.00060645,6060.3,0.00060628,6055.7,-0.00019713,19.165,-0.00020342,-28.135,0.0059879
23227,1.1094,5.9091,0.1,0.00060085,6004.4,0.00060028,5987.7,-0.00019663,0.0015977,-0.00020107,-33.349,0.0046693
23228,1.2943,0.27273,0.1,0.000599,5985.9,0.00060085,6042.1,-0.0001876,118.02,-0.00020379,-3.6287,0.0074212
23229,1.3868,0.18182,0.1,0.00060722,6068,0.0006073,6070.5,-0.00019753,23.297,-0.00020305,-18.152,0.0082896
23230,1.2943,0.090909,0.1,0.00060433,6039.2,0.00060399,6029.2,-0.00019842,0.18287,-0.00020111,-20.058,0.0067273
23231,1.2943,0.45455,0.1,0.00058413,5837.3,0.00058919,6000.7,-0.00016375,343.37,-0.00020963,-1.3595,0.0080056
23232,1.3868,0.36364,0.1,0.00059098,5905.7,0.00059444,6013.9,-0.00017604,224.83,-0.00020621,-1.8641,0.0089674
23233,1.2943,0.63636,0.1,0.00057265,5722.5,0.00058013,5983.2,-0.00014112,564,-0.00021628,-0.74929,0.0084946
23234,1.3868,0.54545,0.1,0.00057866,5782.6,0.0005848,5986.7,-0.0001543,433.41,-0.00021208,-0.70206,0.009541
23235,1.2943,0.81818,0.1,0.00056365,5632.6,0.00057282,5980.3,-0.00011976,776.49,-0.00022319,-0.5914,0.0089019
23236,1.3868,0.72727,0.1,0.00056843,5680.3,0.00057658,5972.7,-0.00013324,639.36,-0.0002184,-0.52754,0.010024
23237,1.2943,1,0.1,0.00055722,5568.3,0.00056734,5990.3,-0.00010047,972.65,-0.00022998,-0.47271,0.0092401
23238,1.3868,0.90909,0.1,0.00056043,5600.4,0.00056993,5970.8,-0.00011361,834.88,-0.00022478,-0.35864,0.010428
23239,1.2943,1.1818,0.1,0.00055317,5527.8,0.00056366,6011.1,-8.3708e-05,1147,-0.00023642,-0.41292,0.0095202
23240,1.3868,1.0909,0.1,0.0005547,5543.2,0.00056494,5979.8,-9.6055e-05,1013.3,-0.00023096,-0.27731,0.010766
23241,1.2943,1.3636,0.1,0.0005511,5507.2,0.00056156,6039.8,-6.96e-05,1297.5,-0.00024234,-0.37987,0.0097516
23242,1.3868,1.2727,0.1,0.00055102,5506.4,0.00056151,5997.6,-8.086e-05,1171.1,-0.00023675,-0.22641,0.011048
23243,1.2943,1.5455,0.1,0.00055052,5501.4,0.00056072,6073.2,-5.8011e-05,1424.3,-0.00024763,-0.36447,0.0099422
23244,1.3868,1.4545,0.1,0.00054901,5486.3,0.00055943,6021.6,-6.806e-05,1306.9,-0.00024203,-0.19984,0.011281
23245,1.2943,1.7273,0.1,0.00055096,5505.8,0.00056078,6108.5,-4.8676e-05,1529.3,-0.00025226,-0.35805,0.010098
23246,1.3868,1.6364,0.1,0.00054826,5478.8,0.00055841,6049.3,-5.751e-05,1421.5,-0.00024673,-0.18615,0.011474
23247,1.2943,1.9091,0.1,0.000552,5516.2,0.00056142,6143,-4.1285e-05,1614.5,-0.00025621,-0.35618,0.010225
23248,1.3868,1.8182,0.1,0.00054836,5479.8,0.00055817,6078.2,-4.8978e-05,1516.3,-0.00025081,-0.17993,0.011632
23249,1.2943,2.0909,0.1,0.00055332,5529.3,0.00056237,6174.9,-3.5538e-05,1682.5,-0.00025951,-0.35628,0.010326
23250,1.3868,2,0.1,0.00054898,5486,0.00055843,6106.2,-4.2205e-05,1593.2,-0.00025427,-0.17751,0.011759
23251,1.2943,2.2727,0.1,0.00055466,5542.8,0.00056339,6202.5,-3.1177e-05,1735.2,-0.00026216,-0.35705,0.010405
23252,1.3868,2.1818,0.1,0.00054985,5494.7,0.00055896,6131.6,-3.6947e-05,1654.2,-0.00025712,-0.17692,0.011861
23253,1.2943,2.4545,0.1,0.00055586,5554.8,0.00056434,6225,-2.7993e-05,1774.4,-0.0002642,-0.35789,0.010465
23254,1.3868,2.3636,0.1,0.00055075,5503.7,0.00055958,6153.2,-3.299e-05,1700.8,-0.00025938,-0.17707,0.011939
23255,1.2943,2.6364,0.1,0.0005568,5564.2,0.0005651,6241.4,-2.5827e-05,1801.5,-0.00026563,-0.35857,0.010506
23256,1.3868,2.5455,0.1,0.00055154,5511.6,0.00056016,6170.1,-3.0168e-05,1734.6,-0.00026105,-0.17744,0.011995
23257,1.2943,2.8182,0.1,0.00055739,5570,0.00056558,6251.5,-2.457e-05,1817.3,-0.00026649,-0.35898,0.01053
23258,1.3868,2.7273,0.1,0.00055212,5517.4,0.0005606,6181.7,-2.8355e-05,1756.6,-0.00026216,-0.17777,0.012032
23259,1.2943,3,0.1,0.00055759,5572.1,0.00056574,6254.8,-2.4158e-05,1822.6,-0.00026677,-0.35912,0.010538
23260,1.3868,2.9091,0.1,0.00055243,5520.5,0.00056083,6187.6,-2.7468e-05,1767.4,-0.00026271,-0.17795,0.01205
23261,1.2943,3.1818,0.1,0.00055739,5570,0.00056558,6251.5,-2.457e-05,1817.3,-0.00026649,-0.35898,0.01053
23262,1.3868,3.0909,0.1,0.00055243,5520.5,0.00056083,6187.6,-2.7468e-05,1767.4,-0.00026271,-0.17795,0.01205
23263,1.2943,3.3636,0.1,0.0005568,5564.2,0.0005651,6241.4,-2.5827e-05,1801.5,-0.00026563,-0.35857,0.010506
23264,1.3868,3.2727,0.1,0.00055212,5517.4,0.0005606,6181.7,-2.8355e-05,1756.6,-0.00026216,-0.17777,0.012032
23265,1.2943,3.5455,0.1,0.00055586,5554.8,0.00056434,6225,-2.7993e-05,1774.4,-0.0002642,-0.35789,0.010465
23266,1.3868,3.4545,0.1,0.00055154,5511.6,0.00056016,6170.1,-3.0168e-05,1734.6,-0.00026105,-0.17744,0.011995
23267,1.2943,3.7273,0.1,0.00055466,5542.8,0.00056339,6202.5,-3.1177e-05,1735.2,-0.00026216,-0.35705,0.010405
23268,1.3868,3.6364,0.1,0.00055075,5503.7,0.00055958,6153.2,-3.299e-05,1700.8,-0.00025938,-0.17707,0.011939
23269,1.2943,3.9091,0.1,0.00055332,5529.3,0.00056237,6174.9,-3.5538e-05,1682.5,-0.00025951,-0.35628,0.010326
23270,1.3868,3.8182,0.1,0.00054985,5494.7,0.00055896,6131.6,-3.6947e-05,1654.2,-0.00025712,-0.17692,0.011861
23271,1.2943,4.0909,0.1,0.000552,5516.2,0.00056142,6143,-4.1285e-05,1614.5,-0.00025621,-0.35618,0.010225
23272,1.3868,4,0.1,0.00054898,5486,0.00055843,6106.2,-4.2205e-05,1593.2,-0.00025427,-0.17751,0.011759
23273,1.2943,4.2727,0.1,0.00055096,5505.8,0.00056078,6108.5,-4.8676e-05,1529.3,-0.00025226,-0.35805,0.010098
23274,1.3868,4.1818,0.1,0.00054836,5479.8,0.00055817,6078.2,-4.8978e-05,1516.3,-0.00025081,-0.17993,0.011632
23275,1.2943,4.4545,0.1,0.00055052,5501.4,0.00056072,6073.2,-5.8011e-05,1424.3,-0.00024763,-0.36447,0.0099422
23276,1.3868,4.3636,0.1,0.00054826,5478.8,0.00055841,6049.3,-5.751e-05,1421.5,-0.00024673,-0.18615,0.011474
23277,1.2943,4.6364,0.1,0.0005511,5507.2,0.00056156,6039.8,-6.96e-05,1297.5,-0.00024234,-0.37987,0.0097516
23278,1.3868,4.5455,0.1,0.00054901,5486.3,0.00055943,6021.6,-6.806e-05,1306.9,-0.00024203,-0.19984,0.011281
23279,1.2943,4.8182,0.1,0.00055317,5527.8,0.00056366,6011.1,-8.3708e-05,1147,-0.00023642,-0.41292,0.0095202
23280,1.3868,4.7273,0.1,0.00055102,5506.4,0.00056151,5997.6,-8.086e-05,1171.1,-0.00023675,-0.22641,0.011048
23281,1.2943,5,0.1,0.00055722,5568.3,0.00056734,5990.3,-0.00010047,972.65,-0.00022998,-0.47271,0.0092401
23282,1.3868,4.9091,0.1,0.0005547,5543.2,0.00056494,5979.8,-9.6055e-05,1013.3,-0.00023096,-0.27731,0.010766
23283,1.2943,5.1818,0.1,0.00056365,5632.6,0.00057282,5980.3,-0.00011976,776.49,-0.00022319,-0.5914,0.0089019
23284,1.3868,5.0909,0.1,0.00056043,5600.4,0.00056993,5970.8,-0.00011361,834.88,-0.00022478,-0.35864,0.010428
23285,1.2943,5.3636,0.1,0.00057265,5722.5,0.00058013,5983.2,-0.00014112,564,-0.00021628,-0.74929,0.0084946
23286,1.3868,5.2727,0.1,0.00056843,5680.3,0.00057658,5972.7,-0.00013324,639.36,-0.0002184,-0.52754,0.010024
23287,1.2943,5.5455,0.1,0.00058413,5837.3,0.00058919,6000.7,-0.00016375,343.37,-0.00020963,-1.3595,0.0080056
23288,1.3868,5.4545,0.1,0.00057866,5782.6,0.0005848,5986.7,-0.0001543,433.41,-0.00021208,-0.70206,0.009541
23289,1.2943,5.7273,0.1,0.000599,5985.9,0.00060085,6042.1,-0.0001876,118.02,-0.00020379,-3.6287,0.0074212
23290,1.3868,5.6364,0.1,0.00059098,5905.7,0.00059444,6013.9,-0.00017604,224.83,-0.00020621,-1.8641,0.0089674
23291,1.3868,5.8182,0.1,0.00060722,6068,0.0006073,6070.5,-0.00019753,23.297,-0.00020305,-18.151,0.0082896
23292,1.2943,5.9091,0.1,0.00060433,6039.2,0.00060399,6029.2,-0.00019842,0.18287,-0.00020111,-20.058,0.0067273
23293,1.4792,0.27273,0.1,0.00059911,5986.9,0.00060095,6042.7,-0.00018783,116.15,-0.00020367,-2.8418,0.0099629
23294,1.5717,0.18182,0.1,0.00060549,6050.8,0.00060577,6059.1,-0.00019684,28.565,-0.00020221,-11.76,0.010992
23295,1.4792,0.090909,0.1,0.00060461,6041.9,0.00060446,6037.5,-0.00019894,1.0173,-0.0002004,-9.9285,0.0091888
23296,1.4792,0.45455,0.1,0.00058542,5850.2,0.00059011,6000.4,-0.00016667,314.21,-0.00020863,-1.0025,0.010625
23297,1.5717,0.36364,0.1,0.00059079,5903.8,0.00059406,6005.6,-0.00017718,210.72,-0.00020544,-1.5646,0.011746
23298,1.4792,0.63636,0.1,0.00057434,5739.4,0.00058128,5976.5,-0.00014647,508.44,-0.00021419,-0.42937,0.011188
23299,1.5717,0.54545,0.1,0.00057921,5788.1,0.00058491,5975.1,-0.00015779,394.79,-0.00021041,-0.53131,0.012392
23300,1.4792,0.81818,0.1,0.00056509,5647,0.00057371,5963.3,-0.0001271,697.67,-0.00021999,-0.27259,0.011664
23301,1.5717,0.72727,0.1,0.00056918,5687.8,0.00057679,5954.3,-0.00013883,577.45,-0.00021573,-0.37777,0.012944
23302,1.4792,1,0.1,0.0005578,5574.2,0.00056751,5960.1,-0.00010918,875.71,-0.00022575,-0.15106,0.012065
23303,1.5717,0.90909,0.1,0.00056082,5604.3,0.00056981,5942.7,-0.00012086,753.21,-0.00022114,-0.22255,0.013413
23304,1.4792,1.1818,0.1,0.00055246,5520.8,0.00056274,5965.9,-9.3167e-05,1037.7,-0.00023129,-0.083356,0.012401
23305,1.5717,1.0909,0.1,0.00055425,5538.6,0.00056411,5939.7,-0.00010441,916.71,-0.00022643,-0.14351,0.01381
23306,1.4792,1.3636,0.1,0.00054886,5484.8,0.00055932,5979,-7.9268e-05,1180.9,-0.00023645,-0.041573,0.012683
23307,1.5717,1.2727,0.1,0.00054939,5490.1,0.00055969,5944.3,-8.9785e-05,1064.4,-0.00023145,-0.090773,0.014144
23308,1.4792,1.5455,0.1,0.00054669,5463.1,0.00055706,5997.3,-6.7503e-05,1304.5,-0.00024113,-0.018319,0.012917
23309,1.5717,1.4545,0.1,0.00054604,5456.6,0.00055646,5954.8,-7.713e-05,1194.3,-0.00023609,-0.060565,0.014424
23310,1.4792,1.7273,0.1,0.00054562,5452.4,0.00055575,6018.6,-5.7759e-05,1408.9,-0.00024528,-0.0058485,0.01311
23311,1.5717,1.6364,0.1,0.00054393,5435.5,0.00055424,5969.6,-6.6426e-05,1306.1,-0.00024027,-0.043389,0.014657
23312,1.4792,1.9091,0.1,0.00054531,5449.4,0.00055513,6040.9,-4.985e-05,1495.4,-0.00024887,0.00027178,0.013268
23313,1.5717,1.8182,0.1,0.00054275,5423.8,0.00055283,5986.6,-5.7561e-05,1400.4,-0.00024394,-0.034485,0.014849
23314,1.4792,2.0909,0.1,0.00054549,5451.1,0.00055498,6062.5,-4.3569e-05,1565.2,-0.00025189,0.0029626,0.013395
23315,1.5717,2,0.1,0.00054224,5418.7,0.00055204,6004.3,-5.0373e-05,1478,-0.00024709,-0.03029,0.015006
23316,1.4792,2.2727,0.1,0.00054591,5455.4,0.00055511,6081.9,-3.8718e-05,1620.1,-0.00025434,0.0039082,0.013495
23317,1.5717,2.1818,0.1,0.00054215,5417.8,0.00055166,6021.1,-4.4692e-05,1540.4,-0.0002497,-0.02867,0.01513
23318,1.4792,2.4545,0.1,0.00054641,5460.4,0.00055537,6098.1,-3.5127e-05,1661.3,-0.00025624,0.004064,0.01357
23319,1.5717,2.3636,0.1,0.0005423,5419.2,0.00055155,6036,-4.0356e-05,1588.6,-0.00025179,-0.028319,0.015227
23320,1.4792,2.6364,0.1,0.00054685,5464.8,0.00055563,6110.1,-3.2659e-05,1690,-0.00025758,0.0039382,0.013622
23321,1.5717,2.5455,0.1,0.00054252,5421.5,0.00055158,6047.8,-3.7227e-05,1623.8,-0.00025334,-0.02849,0.015297
23322,1.4792,2.8182,0.1,0.00054715,5467.7,0.00055581,6117.6,-3.1217e-05,1706.8,-0.00025838,0.0037871,0.013653
23323,1.5717,2.7273,0.1,0.00054273,5423.6,0.00055165,6056.1,-3.52e-05,1646.7,-0.00025437,-0.028772,0.015343
23324,1.4792,3,0.1,0.00054725,5468.8,0.00055588,6120.1,-3.0743e-05,1712.4,-0.00025865,0.0037259,0.013663
23325,1.5717,2.9091,0.1,0.00054285,5424.8,0.0005517,6060.3,-3.4205e-05,1658.1,-0.00025489,-0.028956,0.015366
23326,1.4792,3.1818,0.1,0.00054715,5467.7,0.00055581,6117.6,-3.1217e-05,1706.8,-0.00025838,0.0037871,0.013653
23327,1.5717,3.0909,0.1,0.00054285,5424.8,0.0005517,6060.3,-3.4205e-05,1658.1,-0.00025489,-0.028956,0.015366
23328,1.4792,3.3636,0.1,0.00054685,5464.8,0.00055563,6110.1,-3.2659e-05,1690,-0.00025758,0.0039382,0.013622
23329,1.5717,3.2727,0.1,0.00054273,5423.6,0.00055165,6056.1,-3.52e-05,1646.7,-0.00025437,-0.028772,0.015343
23330,1.4792,3.5455,0.1,0.00054641,5460.4,0.00055537,6098.1,-3.5127e-05,1661.3,-0.00025624,0.0040641,0.01357
23331,1.5717,3.4545,0.1,0.00054252,5421.5,0.00055158,6047.8,-3.7227e-05,1623.8,-0.00025334,-0.028489,0.015297
23332,1.4792,3.7273,0.1,0.00054591,5455.4,0.00055511,6081.9,-3.8718e-05,1620.1,-0.00025434,0.0039084,0.013495
23333,1.5717,3.6364,0.1,0.0005423,5419.2,0.00055155,6036,-4.0356e-05,1588.6,-0.00025179,-0.028318,0.015227
23334,1.4792,3.9091,0.1,0.00054549,5451.1,0.00055498,6062.5,-4.3569e-05,1565.2,-0.00025189,0.0029628,0.013395
23335,1.5717,3.8182,0.1,0.00054215,5417.8,0.00055166,6021.1,-4.4692e-05,1540.4,-0.0002497,-0.02867,0.01513
23336,1.4792,4.0909,0.1,0.00054531,5449.4,0.00055513,6040.9,-4.985e-05,1495.4,-0.00024887,0.00027194,0.013268
23337,1.5717,4,0.1,0.00054224,5418.7,0.00055204,6004.3,-5.0373e-05,1478,-0.00024709,-0.03029,0.015006
23338,1.4792,4.2727,0.1,0.00054562,5452.4,0.00055575,6018.6,-5.7759e-05,1408.9,-0.00024528,-0.0058484,0.01311
23339,1.5717,4.1818,0.1,0.00054275,5423.8,0.00055283,5986.6,-5.7561e-05,1400.4,-0.00024394,-0.034485,0.014849
23340,1.4792,4.4545,0.1,0.00054669,5463.1,0.00055706,5997.3,-6.7503e-05,1304.5,-0.00024113,-0.018319,0.012917
23341,1.5717,4.3636,0.1,0.00054393,5435.5,0.00055424,5969.6,-6.6426e-05,1306.1,-0.00024027,-0.043389,0.014657
23342,1.4792,4.6364,0.1,0.00054886,5484.8,0.00055932,5979,-7.9268e-05,1180.9,-0.00023645,-0.041573,0.012683
23343,1.5717,4.5455,0.1,0.00054604,5456.6,0.00055646,5954.8,-7.713e-05,1194.3,-0.00023609,-0.060564,0.014424
23344,1.4792,4.8182,0.1,0.00055246,5520.8,0.00056274,5965.9,-9.3167e-05,1037.7,-0.00023129,-0.083356,0.012401
23345,1.5717,4.7273,0.1,0.00054939,5490.1,0.00055969,5944.3,-8.9785e-05,1064.4,-0.00023145,-0.090773,0.014144
23346,1.4792,5,0.1,0.0005578,5574.2,0.00056751,5960.1,-0.00010918,875.71,-0.00022575,-0.15105,0.012065
23347,1.5717,4.9091,0.1,0.00055425,5538.6,0.00056411,5939.7,-0.00010441,916.71,-0.00022643,-0.14351,0.01381
23348,1.4792,5.1818,0.1,0.00056509,5647,0.00057371,5963.3,-0.0001271,697.67,-0.00021999,-0.27259,0.011664
23349,1.5717,5.0909,0.1,0.00056082,5604.3,0.00056981,5942.7,-0.00012086,753.21,-0.00022114,-0.22255,0.013413
23350,1.4792,5.3636,0.1,0.00057434,5739.4,0.00058128,5976.5,-0.00014647,508.44,-0.00021419,-0.42937,0.011188
23351,1.5717,5.2727,0.1,0.00056918,5687.8,0.00057679,5954.3,-0.00013883,577.45,-0.00021573,-0.37777,0.012944
23352,1.4792,5.5455,0.1,0.00058542,5850.2,0.00059011,6000.4,-0.00016667,314.21,-0.00020863,-1.0025,0.010625
23353,1.5717,5.4545,0.1,0.00057921,5788.1,0.00058491,5975.1,-0.00015779,394.79,-0.00021041,-0.53131,0.012392
23354,1.4792,5.7273,0.1,0.00059911,5986.9,0.00060095,6042.7,-0.00018783,116.15,-0.00020367,-2.8418,0.0099629
23355,1.5717,5.6364,0.1,0.00059079,5903.8,0.00059406,6005.6,-0.00017718,210.72,-0.00020544,-1.5646,0.011746
23356,1.5717,5.8182,0.1,0.00060549,6050.8,0.00060577,6059.1,-0.00019684,28.565,-0.00020221,-11.76,0.010992
23357,1.4792,5.9091,0.1,0.00060461,6041.9,0.00060446,6037.5,-0.00019894,1.0173,-0.0002004,-9.9284,0.0091888
23358,1.6642,0.27273,0.1,0.00059711,5967,0.00059893,6022.3,-0.00018732,114.65,-0.00020289,-2.3628,0.012903
23359,1.7566,0.18182,0.1,0.00060208,6016.6,0.00060251,6029.5,-0.00019545,34.021,-0.00020103,-7.9173,0.014097
23360,1.6642,0.090909,0.1,0.00060271,6022.9,0.0006027,6022.8,-0.00019841,3.4787,-0.00019938,-3.7839,0.012056
23361,1.6642,0.45455,0.1,0.00058453,5841.2,0.00058891,5980.7,-0.00016837,290.73,-0.00020719,-0.93059,0.013637
23362,1.7566,0.36364,0.1,0.00058873,5883.3,0.00059184,5979.5,-0.0001775,199.03,-0.00020417,-1.3882,0.01492
23363,1.6642,0.63636,0.1,0.00057398,5735.8,0.00058045,5953.3,-0.0001502,463.46,-0.00021194,-0.43804,0.014268
23364,1.7566,0.54545,0.1,0.0005779,5775,0.00058321,5947.8,-0.00016005,363.21,-0.00020846,-0.48629,0.015634
23365,1.6642,0.81818,0.1,0.00056482,5644.3,0.00057291,5933.9,-0.00013262,632.83,-0.00021688,-0.30959,0.014809
23366,1.7566,0.72727,0.1,0.00056824,5678.5,0.00057535,5923.2,-0.00014291,526.46,-0.00021302,-0.36158,0.01625
23367,1.6642,1,0.1,0.00055718,5567.9,0.00056642,5922.3,-0.00011609,794.22,-0.00022182,-0.20499,0.01527
23368,1.7566,0.90909,0.1,0.00055986,5594.8,0.00056835,5905.5,-0.00012648,684.86,-0.00021766,-0.22647,0.01678
23369,1.6642,1.1818,0.1,0.0005511,5507.2,0.00056105,5917.9,-0.000101,943.52,-0.0002266,-0.1447,0.015661
23370,1.7566,1.0909,0.1,0.00055289,5525.1,0.00056233,5894.7,-0.00011118,834.14,-0.00022222,-0.15608,0.017232
23371,1.6642,1.3636,0.1,0.00054651,5461.3,0.0005568,5919.8,-8.7613e-05,1078,-0.0002311,-0.10564,0.015991
23372,1.7566,1.2727,0.1,0.00054734,5469.7,0.00055735,5890.1,-9.7328e-05,971.09,-0.00022659,-0.10684,0.017617
23373,1.6642,1.5455,0.1,0.00054323,5428.5,0.00055359,5926.8,-7.6011e-05,1196.2,-0.00023523,-0.082794,0.016268
23374,1.7566,1.4545,0.1,0.00054311,5427.4,0.00055338,5890.9,-8.5087e-05,1093.7,-0.00023066,-0.077007,0.017942
23375,1.6642,1.7273,0.1,0.00054102,5406.5,0.00055128,5937.2,-6.6182e-05,1297.9,-0.00023893,-0.070013,0.016499
23376,1.7566,1.6364,0.1,0.00054003,5396.5,0.00055033,5895.8,-7.4517e-05,1200.9,-0.00023436,-0.058998,0.018215
23377,1.6642,1.9091,0.1,0.00053965,5392.8,0.00054969,5949.6,-5.8038e-05,1383.4,-0.00024216,-0.063584,0.016689
23378,1.7566,1.8182,0.1,0.00053788,5375.1,0.00054808,5903.6,-6.5589e-05,1292.7,-0.00023765,-0.049007,0.018442
23379,1.6642,2.0909,0.1,0.00053888,5385.1,0.00054868,5962.6,-5.1451e-05,1453.5,-0.00024491,-0.060826,0.016842
23380,1.7566,2,0.1,0.00053647,5361,0.00054647,5912.9,-5.8221e-05,1369.4,-0.00024049,-0.043923,0.018627
23381,1.6642,2.2727,0.1,0.00053852,5381.4,0.00054806,5974.8,-4.6286e-05,1509.1,-0.00024715,-0.060044,0.016963
23382,1.7566,2.1818,0.1,0.0005356,5352.3,0.00054538,5922.5,-5.2308e-05,1431.7,-0.00024286,-0.041728,0.018776
23383,1.6642,2.4545,0.1,0.00053839,5380.2,0.00054773,5985.4,-4.2414e-05,1551.3,-0.00024889,-0.060178,0.017054
23384,1.7566,2.3636,0.1,0.0005351,5347.3,0.00054467,5931.4,-4.7735e-05,1480.3,-0.00024476,-0.041079,0.018891
23385,1.6642,2.6364,0.1,0.00053839,5380.2,0.00054756,5993.5,-3.9728e-05,1580.8,-0.00025013,-0.060604,0.017118
23386,1.7566,2.5455,0.1,0.00053483,5344.6,0.00054423,5938.9,-4.4403e-05,1516.1,-0.00024619,-0.041139,0.018976
23387,1.6642,2.8182,0.1,0.00053842,5380.5,0.00054749,5998.5,-3.8149e-05,1598.3,-0.00025087,-0.060973,0.017156
23388,1.7566,2.7273,0.1,0.00053471,5343.4,0.00054399,5944.2,-4.223e-05,1539.6,-0.00024714,-0.041405,0.019031
23389,1.6642,3,0.1,0.00053844,5380.7,0.00054747,6000.2,-3.7628e-05,1604,-0.00025112,-0.061113,0.017168
23390,1.7566,2.9091,0.1,0.00053467,5343,0.00054388,5946.9,-4.1157e-05,1551.2,-0.00024761,-0.041599,0.019058
23391,1.6642,3.1818,0.1,0.00053842,5380.5,0.00054749,5998.5,-3.8149e-05,1598.3,-0.00025087,-0.060973,0.017156
23392,1.7566,3.0909,0.1,0.00053467,5343,0.00054388,5946.9,-4.1157e-05,1551.2,-0.00024761,-0.041599,0.019058
23393,1.6642,3.3636,0.1,0.00053839,5380.2,0.00054756,5993.5,-3.9728e-05,1580.8,-0.00025013,-0.060604,0.017118
23394,1.7566,3.2727,0.1,0.00053471,5343.4,0.00054399,5944.2,-4.223e-05,1539.6,-0.00024714,-0.041405,0.019031
23395,1.6642,3.5455,0.1,0.00053839,5380.2,0.00054773,5985.4,-4.2414e-05,1551.3,-0.00024889,-0.060178,0.017054
23396,1.7566,3.4545,0.1,0.00053483,5344.6,0.00054423,5938.9,-4.4403e-05,1516.1,-0.00024619,-0.041139,0.018976
23397,1.6642,3.7273,0.1,0.00053852,5381.4,0.00054806,5974.8,-4.6286e-05,1509.1,-0.00024715,-0.060044,0.016963
23398,1.7566,3.6364,0.1,0.0005351,5347.3,0.00054467,5931.4,-4.7735e-05,1480.3,-0.00024476,-0.041079,0.018891
23399,1.6642,3.9091,0.1,0.00053888,5385.1,0.00054868,5962.6,-5.1451e-05,1453.5,-0.00024491,-0.060826,0.016842
23400,1.7566,3.8182,0.1,0.0005356,5352.3,0.00054538,5922.5,-5.2308e-05,1431.7,-0.00024286,-0.041728,0.018776
23401,1.6642,4.0909,0.1,0.00053965,5392.8,0.00054969,5949.6,-5.8038e-05,1383.4,-0.00024216,-0.063583,0.016689
23402,1.7566,4,0.1,0.00053647,5361,0.00054647,5912.9,-5.8221e-05,1369.4,-0.00024049,-0.043923,0.018627
23403,1.6642,4.2727,0.1,0.00054102,5406.5,0.00055128,5937.2,-6.6182e-05,1297.9,-0.00023893,-0.070013,0.016499
23404,1.7566,4.1818,0.1,0.00053788,5375.1,0.00054808,5903.6,-6.5589e-05,1292.7,-0.00023765,-0.049007,0.018442
23405,1.6642,4.4545,0.1,0.00054323,5428.5,0.00055359,5926.8,-7.6011e-05,1196.2,-0.00023523,-0.082793,0.016268
23406,1.7566,4.3636,0.1,0.00054003,5396.5,0.00055033,5895.8,-7.4517e-05,1200.9,-0.00023436,-0.058998,0.018215
23407,1.6642,4.6364,0.1,0.00054651,5461.3,0.0005568,5919.8,-8.7613e-05,1078,-0.0002311,-0.10564,0.015991
23408,1.7566,4.5455,0.1,0.00054311,5427.4,0.00055338,5890.9,-8.5087e-05,1093.7,-0.00023066,-0.077007,0.017942
23409,1.6642,4.8182,0.1,0.0005511,5507.2,0.00056105,5917.9,-0.000101,943.52,-0.0002266,-0.1447,0.015661
23410,1.7566,4.7273,0.1,0.00054734,5469.7,0.00055735,5890.1,-9.7328e-05,971.09,-0.00022659,-0.10684,0.017617
23411,1.6642,5,0.1,0.00055718,5567.9,0.00056642,5922.3,-0.00011609,794.22,-0.00022182,-0.20499,0.01527
23412,1.7566,4.9091,0.1,0.00055289,5525.1,0.00056233,5894.7,-0.00011118,834.14,-0.00022222,-0.15608,0.017232
23413,1.6642,5.1818,0.1,0.00056482,5644.3,0.00057291,5933.9,-0.00013262,632.83,-0.00021688,-0.30959,0.014809
23414,1.7566,5.0909,0.1,0.00055986,5594.8,0.00056835,5905.5,-0.00012648,684.86,-0.00021766,-0.22647,0.01678
23415,1.6642,5.3636,0.1,0.00057398,5735.8,0.00058045,5953.3,-0.0001502,463.46,-0.00021194,-0.43804,0.014268
23416,1.7566,5.2727,0.1,0.00056824,5678.5,0.00057535,5923.2,-0.00014291,526.46,-0.00021302,-0.36158,0.01625
23417,1.6642,5.5455,0.1,0.00058453,5841.2,0.00058891,5980.7,-0.00016837,290.73,-0.00020719,-0.93059,0.013637
23418,1.7566,5.4545,0.1,0.0005779,5775,0.00058321,5947.8,-0.00016005,363.21,-0.00020846,-0.48629,0.015634
23419,1.6642,5.7273,0.1,0.00059711,5967,0.00059893,6022.3,-0.00018732,114.65,-0.00020289,-2.3628,0.012903
23420,1.7566,5.6364,0.1,0.00058873,5883.3,0.00059184,5979.5,-0.0001775,199.03,-0.00020417,-1.3882,0.01492
23421,1.7566,5.8182,0.1,0.00060208,6016.6,0.00060251,6029.5,-0.00019545,34.021,-0.00020103,-7.9173,0.014097
23422,1.6642,5.9091,0.1,0.00060271,6022.9,0.0006027,6022.8,-0.00019841,3.4787,-0.00019938,-3.7839,0.012056
23423,1.8491,0.27273,0.1,0.00059365,5932.4,0.00059545,5987.1,-0.00018633,113.1,-0.00020164,-1.9546,0.016243
23424,1.9415,0.18182,0.1,0.0005975,5970.9,0.00059806,5987.5,-0.00019364,39.006,-0.00019957,-5.5671,0.017605
23425,1.8491,0.090909,0.1,0.00059928,5988.7,0.00059939,5992,-0.00019698,8.3067,-0.00019832,-1.7816,0.015329
23426,1.8491,0.45455,0.1,0.00058207,5816.6,0.00058619,5947,-0.00016924,271.03,-0.00020542,-0.8127,0.017041
23427,1.9415,0.36364,0.1,0.00058535,5849.5,0.00058831,5940.9,-0.00017725,188.83,-0.00020254,-1.2221,0.01849
23428,1.8491,0.63636,0.1,0.00057211,5717.1,0.00057815,5918,-0.0001528,425.9,-0.00020953,-0.37525,0.017736
23429,1.9415,0.54545,0.1,0.00057524,5748.4,0.00058022,5909,-0.00016145,336.47,-0.00020629,-0.42387,0.019266
23430,1.8491,0.81818,0.1,0.00056322,5628.3,0.00057082,5895,-0.00013679,578.29,-0.00021379,-0.26337,0.018337
23431,1.9415,0.72727,0.1,0.00056604,5656.5,0.0005727,5882.5,-0.00014588,483.32,-0.00021025,-0.31923,0.019942
23432,1.8491,1,0.1,0.00055552,5551.3,0.00056428,5878,-0.00012158,724.71,-0.00021806,-0.16922,0.018855
23433,1.9415,0.90909,0.1,0.00055784,5574.5,0.00056584,5861.2,-0.00013085,626.53,-0.00021426,-0.19941,0.020527
23434,1.8491,1.1818,0.1,0.00054908,5487,0.00055863,5866.8,-0.0001075,861.76,-0.00022221,-0.11299,0.019298
23435,1.9415,1.0909,0.1,0.00055076,5503.8,0.00055975,5845.2,-0.0001167,762.7,-0.00021823,-0.13578,0.021033
23436,1.8491,1.3636,0.1,0.00054389,5435.1,0.00055391,5860.9,-9.4781e-05,986.93,-0.00022614,-0.074677,0.019675
23437,1.9415,1.2727,0.1,0.00054484,5444.7,0.00055449,5834.4,-0.0001037,889.07,-0.00022204,-0.08943,0.021466
23438,1.8491,1.5455,0.1,0.00053986,5394.9,0.00055009,5859.6,-8.3562e-05,1098.6,-0.00022979,-0.050721,0.019994
23439,1.9415,1.4545,0.1,0.00054007,5396.9,0.00055009,5828.3,-9.2029e-05,1003.7,-0.00022561,-0.059804,0.021835
23440,1.8491,1.7273,0.1,0.00053685,5364.8,0.00054709,5861.8,-7.3886e-05,1196,-0.00023307,-0.036179,0.020262
23441,1.9415,1.6364,0.1,0.00053632,5359.5,0.0005465,5826,-8.1788e-05,1105.2,-0.00022889,-0.040745,0.022146
23442,1.8491,1.9091,0.1,0.00053467,5343,0.00054481,5866.5,-6.5732e-05,1279.1,-0.00023597,-0.02799,0.020483
23443,1.9415,1.8182,0.1,0.00053348,5331.2,0.00054366,5826.7,-7.3e-05,1193.3,-0.00023182,-0.029264,0.022407
23444,1.8491,2.0909,0.1,0.00053316,5327.9,0.00054314,5872.4,-5.9036e-05,1347.9,-0.00023844,-0.02378,0.020663
23445,1.9415,2,0.1,0.00053139,5310.3,0.00054148,5829.4,-6.5642e-05,1267.7,-0.00023437,-0.022734,0.022621
23446,1.8491,2.2727,0.1,0.00053216,5317.9,0.00054195,5878.8,-5.3715e-05,1403.2,-0.00024047,-0.021932,0.020805
23447,1.9415,2.1818,0.1,0.00052991,5295.4,0.00053985,5833.2,-5.9659e-05,1328.8,-0.00023651,-0.019346,0.022794
23448,1.8491,2.4545,0.1,0.00053152,5311.5,0.00054114,5884.6,-4.9683e-05,1445.4,-0.00024206,-0.021351,0.020913
23449,1.9415,2.3636,0.1,0.00052888,5285.2,0.00053867,5837.4,-5.4982e-05,1376.9,-0.00023824,-0.017814,0.022928
23450,1.8491,2.6364,0.1,0.00053114,5307.7,0.00054062,5889.3,-4.6864e-05,1475.1,-0.00024319,-0.021342,0.020989
23451,1.9415,2.5455,0.1,0.00052822,5278.6,0.00053787,5841.1,-5.1544e-05,1412.5,-0.00023953,-0.017276,0.023026
23452,1.8491,2.8182,0.1,0.00053094,5305.8,0.00054034,5892.3,-4.5197e-05,1492.8,-0.00024388,-0.021482,0.021033
23453,1.9415,2.7273,0.1,0.00052782,5274.6,0.00053737,5843.9,-4.9287e-05,1435.9,-0.0002404,-0.017181,0.023091
23454,1.8491,3,0.1,0.00053088,5305.2,0.00054025,5893.3,-4.4646e-05,1498.6,-0.0002441,-0.021551,0.021048
23455,1.9415,2.9091,0.1,0.00052764,5272.8,0.00053714,5845.4,-4.8169e-05,1447.6,-0.00024084,-0.017207,0.023123
23456,1.8491,3.1818,0.1,0.00053094,5305.8,0.00054034,5892.3,-4.5197e-05,1492.8,-0.00024388,-0.021482,0.021033
23457,1.9415,3.0909,0.1,0.00052764,5272.8,0.00053714,5845.4,-4.8169e-05,1447.6,-0.00024084,-0.017207,0.023123
23458,1.8491,3.3636,0.1,0.00053114,5307.7,0.00054062,5889.3,-4.6864e-05,1475.1,-0.00024319,-0.021341,0.020989
23459,1.9415,3.2727,0.1,0.00052782,5274.6,0.00053737,5843.9,-4.9287e-05,1435.9,-0.0002404,-0.017181,0.023091
23460,1.8491,3.5455,0.1,0.00053152,5311.5,0.00054114,5884.6,-4.9683e-05,1445.4,-0.00024206,-0.021351,0.020913
23461,1.9415,3.4545,0.1,0.00052822,5278.6,0.00053787,5841.1,-5.1544e-05,1412.5,-0.00023953,-0.017276,0.023026
23462,1.8491,3.7273,0.1,0.00053216,5317.9,0.00054195,5878.8,-5.3715e-05,1403.2,-0.00024047,-0.021931,0.020805
23463,1.9415,3.6364,0.1,0.00052888,5285.2,0.00053867,5837.4,-5.4982e-05,1376.9,-0.00023824,-0.017814,0.022928
23464,1.8491,3.9091,0.1,0.00053316,5327.9,0.00054314,5872.4,-5.9036e-05,1347.9,-0.00023844,-0.02378,0.020663
23465,1.9415,3.8182,0.1,0.00052991,5295.4,0.00053985,5833.2,-5.9659e-05,1328.8,-0.00023651,-0.019346,0.022794
23466,1.8491,4.0909,0.1,0.00053467,5343,0.00054481,5866.5,-6.5731e-05,1279.1,-0.00023597,-0.027989,0.020483
23467,1.9415,4,0.1,0.00053139,5310.3,0.00054148,5829.4,-6.5642e-05,1267.7,-0.00023437,-0.022733,0.022621
23468,1.8491,4.2727,0.1,0.00053685,5364.8,0.00054709,5861.8,-7.3886e-05,1196,-0.00023307,-0.036179,0.020262
23469,1.9415,4.1818,0.1,0.00053348,5331.2,0.00054366,5826.7,-7.3e-05,1193.3,-0.00023182,-0.029264,0.022407
23470,1.8491,4.4545,0.1,0.00053986,5394.9,0.00055009,5859.6,-8.3562e-05,1098.6,-0.00022979,-0.050721,0.019994
23471,1.9415,4.3636,0.1,0.00053632,5359.5,0.0005465,5826,-8.1788e-05,1105.2,-0.00022889,-0.040745,0.022146
23472,1.8491,4.6364,0.1,0.00054389,5435.1,0.00055391,5860.9,-9.4781e-05,986.93,-0.00022614,-0.074677,0.019675
23473,1.9415,4.5455,0.1,0.00054007,5396.9,0.00055009,5828.3,-9.2029e-05,1003.7,-0.00022561,-0.059803,0.021835
23474,1.8491,4.8182,0.1,0.00054908,5487,0.00055863,5866.8,-0.0001075,861.76,-0.00022221,-0.11299,0.019298
23475,1.9415,4.7273,0.1,0.00054484,5444.7,0.00055449,5834.4,-0.0001037,889.07,-0.00022204,-0.08943,0.021466
23476,1.8491,5,0.1,0.00055552,5551.3,0.00056428,5878,-0.00012158,724.71,-0.00021806,-0.16921,0.018855
23477,1.9415,4.9091,0.1,0.00055076,5503.8,0.00055975,5845.2,-0.0001167,762.7,-0.00021823,-0.13578,0.021033
23478,1.8491,5.1818,0.1,0.00056322,5628.3,0.00057082,5895,-0.00013679,578.29,-0.00021379,-0.26337,0.018337
23479,1.9415,5.0909,0.1,0.00055784,5574.5,0.00056584,5861.2,-0.00013085,626.53,-0.00021426,-0.19941,0.020527
23480,1.8491,5.3636,0.1,0.00057211,5717.1,0.00057815,5918,-0.0001528,425.9,-0.00020953,-0.37525,0.017736
23481,1.9415,5.2727,0.1,0.00056604,5656.5,0.0005727,5882.5,-0.00014588,483.32,-0.00021025,-0.31923,0.019942
23482,1.8491,5.5455,0.1,0.00058207,5816.6,0.00058619,5947,-0.00016924,271.03,-0.00020542,-0.8127,0.017041
23483,1.9415,5.4545,0.1,0.00057524,5748.4,0.00058022,5909,-0.00016145,336.47,-0.00020629,-0.42387,0.019266
23484,1.8491,5.7273,0.1,0.00059365,5932.4,0.00059545,5987.1,-0.00018633,113.1,-0.00020164,-1.9546,0.016243
23485,1.9415,5.6364,0.1,0.00058535,5849.5,0.00058831,5940.9,-0.00017725,188.83,-0.00020254,-1.2221,0.01849
23486,1.9415,5.8182,0.1,0.0005975,5970.9,0.00059806,5987.5,-0.00019364,39.006,-0.00019957,-5.5671,0.017605
23487,1.8491,5.9091,0.1,0.00059928,5988.7,0.00059939,5992,-0.00019698,8.3067,-0.00019832,-1.7816,0.015329
23488,2.034,0.27273,0.1,0.00058916,5887.6,0.00059095,5941.6,-0.00018502,111.26,-0.00020005,-1.6406,0.019981
23489,2.1264,0.18182,0.1,0.00059212,5917.2,0.00059278,5936.6,-0.00019159,43.159,-0.00019787,-4.0761,0.021513
23490,2.034,0.090909,0.1,0.00059479,5943.8,0.00059499,5949.7,-0.00019513,13.066,-0.00019703,-1.1845,0.019007
23491,2.034,0.45455,0.1,0.00057849,5780.9,0.00058238,5903.3,-0.00016952,253.86,-0.0002034,-0.72627,0.020839
23492,2.1264,0.36364,0.1,0.00058103,5806.3,0.00058386,5893.5,-0.00017662,179.53,-0.00020066,-1.0857,0.022456
23493,2.034,0.63636,0.1,0.00056913,5687.4,0.0005748,5873.8,-0.00015457,393.61,-0.000207,-0.33881,0.021592
23494,2.1264,0.54545,0.1,0.00057161,5712.1,0.00057628,5862.1,-0.00016223,313.14,-0.00020396,-0.37667,0.023288
23495,2.034,0.81818,0.1,0.00056061,5602.2,0.00056775,5848.8,-0.00013996,531.36,-0.00021072,-0.24255,0.022249
23496,2.1264,0.72727,0.1,0.0005629,5625.1,0.00056915,5834.7,-0.00014804,445.94,-0.00020743,-0.28909,0.024018
23497,2.034,1,0.1,0.00055303,5526.5,0.00056132,5828.5,-0.00012598,664.41,-0.00021443,-0.15893,0.022819
23498,2.1264,0.90909,0.1,0.00055498,5546,0.00056253,5811.3,-0.00013428,575.83,-0.00021094,-0.18296,0.024656
23499,2.034,1.1818,0.1,0.00054648,5461,0.00055561,5812.9,-0.0001129,790,-0.00021806,-0.10779,0.023311
23500,2.1264,1.0909,0.1,0.00054797,5475.9,0.00055651,5792.2,-0.00012122,700.07,-0.00021441,-0.12599,0.02521
23501,2.034,1.3636,0.1,0.00054097,5406,0.00055066,5801.7,-0.00010094,905.87,-0.00022151,-0.071529,0.023734
23502,2.1264,1.2727,0.1,0.00054193,5415.5,0.00055118,5777.3,-0.00010909,816.33,-0.00021775,-0.083113,0.025689
23503,2.034,1.5455,0.1,0.00053649,5361.2,0.00054648,5794.5,-9.0234e-05,1010.4,-0.00022472,-0.047656,0.024093
23504,2.1264,1.4545,0.1,0.00053685,5364.8,0.00054656,5766.3,-9.8077e-05,922.77,-0.0002209,-0.054521,0.0261
23505,2.034,1.7273,0.1,0.00053293,5325.6,0.00054305,5790.6,-8.0873e-05,1102.7,-0.00022764,-0.032216,0.024396
23506,2.1264,1.6364,0.1,0.0005327,5323.3,0.00054266,5758.9,-8.8289e-05,1018.1,-0.0002238,-0.035148,0.026448
23507,2.034,1.9091,0.1,0.00053018,5298.1,0.00054029,5789.3,-7.2877e-05,1182.2,-0.00023022,-0.022772,0.024648
23508,2.1264,1.8182,0.1,0.00052939,5290.3,0.00053945,5754.3,-7.9785e-05,1101.6,-0.0002264,-0.022681,0.026741
23509,2.034,2.0909,0.1,0.00052811,5277.5,0.00053815,5789.9,-6.6228e-05,1248.8,-0.00023244,-0.017326,0.024854
23510,2.1264,2,0.1,0.00052682,5264.5,0.00053687,5752.1,-7.2579e-05,1172.9,-0.00022868,-0.014968,0.026984
23511,2.034,2.2727,0.1,0.00052661,5262.5,0.00053653,5791.5,-6.0887e-05,1302.8,-0.00023427,-0.014437,0.025017
23512,2.1264,2.1818,0.1,0.00052487,5245.1,0.00053486,5751.4,-6.6656e-05,1231.9,-0.00023061,-0.010464,0.027179
23513,2.034,2.4545,0.1,0.00052557,5252.1,0.00053536,5793.5,-5.6802e-05,1344.2,-0.00023571,-0.013071,0.025142
23514,2.1264,2.3636,0.1,0.00052346,5230.9,0.00053334,5751.7,-6.1984e-05,1278.6,-0.00023216,-0.0080107,0.027332
23515,2.034,2.6364,0.1,0.00052489,5245.3,0.00053458,5795.4,-5.3926e-05,1373.6,-0.00023674,-0.012528,0.025228
23516,2.1264,2.5455,0.1,0.00052248,5221.1,0.00053227,5752.5,-5.8525e-05,1313.5,-0.00023334,-0.0067896,0.027444
23517,2.034,2.8182,0.1,0.00052451,5241.5,0.00053413,5796.7,-5.2218e-05,1391.1,-0.00023736,-0.012363,0.02528
23518,2.1264,2.7273,0.1,0.00052186,5215,0.00053158,5753.2,-5.6241e-05,1336.5,-0.00023412,-0.0062502,0.027518
23519,2.034,3,0.1,0.00052439,5240.2,0.00053398,5797.1,-5.1651e-05,1396.9,-0.00023757,-0.012334,0.025297
23520,2.1264,2.9091,0.1,0.00052157,5212.1,0.00053125,5753.7,-5.5107e-05,1348,-0.00023452,-0.006059,0.027554
23521,2.034,3.1818,0.1,0.00052451,5241.5,0.00053413,5796.7,-5.2218e-05,1391.1,-0.00023736,-0.012363,0.02528
23522,2.1264,3.0909,0.1,0.00052157,5212.1,0.00053125,5753.7,-5.5107e-05,1348,-0.00023452,-0.006059,0.027554
23523,2.034,3.3636,0.1,0.00052489,5245.3,0.00053458,5795.4,-5.3926e-05,1373.6,-0.00023674,-0.012528,0.025228
23524,2.1264,3.2727,0.1,0.00052186,5215,0.00053158,5753.2,-5.6241e-05,1336.5,-0.00023412,-0.0062501,0.027518
23525,2.034,3.5455,0.1,0.00052557,5252.1,0.00053536,5793.5,-5.6802e-05,1344.2,-0.00023571,-0.013071,0.025142
23526,2.1264,3.4545,0.1,0.00052248,5221.1,0.00053227,5752.5,-5.8525e-05,1313.5,-0.00023334,-0.0067894,0.027444
23527,2.034,3.7273,0.1,0.00052661,5262.5,0.00053653,5791.5,-6.0887e-05,1302.8,-0.00023427,-0.014437,0.025017
23528,2.1264,3.6364,0.1,0.00052346,5230.9,0.00053334,5751.7,-6.1984e-05,1278.6,-0.00023216,-0.0080105,0.027332
23529,2.034,3.9091,0.1,0.00052811,5277.5,0.00053815,5789.9,-6.6228e-05,1248.8,-0.00023244,-0.017326,0.024854
23530,2.1264,3.8182,0.1,0.00052487,5245.1,0.00053486,5751.4,-6.6656e-05,1231.9,-0.00023061,-0.010464,0.027179
23531,2.034,4.0909,0.1,0.00053018,5298.1,0.00054029,5789.3,-7.2877e-05,1182.2,-0.00023022,-0.022772,0.024648
23532,2.1264,4,0.1,0.00052682,5264.5,0.00053687,5752.1,-7.2579e-05,1172.9,-0.00022868,-0.014967,0.026984
23533,2.034,4.2727,0.1,0.00053293,5325.6,0.00054305,5790.6,-8.0873e-05,1102.7,-0.00022764,-0.032215,0.024396
23534,2.1264,4.1818,0.1,0.00052939,5290.3,0.00053945,5754.3,-7.9785e-05,1101.6,-0.0002264,-0.022681,0.026741
23535,2.034,4.4545,0.1,0.00053649,5361.2,0.00054648,5794.5,-9.0234e-05,1010.4,-0.00022472,-0.047655,0.024093
23536,2.1264,4.3636,0.1,0.0005327,5323.3,0.00054266,5758.9,-8.8289e-05,1018.1,-0.0002238,-0.035147,0.026448
23537,2.034,4.6364,0.1,0.00054097,5406,0.00055066,5801.7,-0.00010094,905.87,-0.00022151,-0.071528,0.023734
23538,2.1264,4.5455,0.1,0.00053685,5364.8,0.00054656,5766.3,-9.8077e-05,922.77,-0.0002209,-0.05452,0.0261
23539,2.034,4.8182,0.1,0.00054648,5461,0.00055561,5812.9,-0.0001129,790,-0.00021806,-0.10779,0.023311
23540,2.1264,4.7273,0.1,0.00054193,5415.5,0.00055118,5777.3,-0.00010909,816.33,-0.00021775,-0.083112,0.025689
23541,2.034,5,0.1,0.00055303,5526.5,0.00056132,5828.5,-0.00012598,664.41,-0.00021443,-0.15893,0.022819
23542,2.1264,4.9091,0.1,0.00054797,5475.9,0.00055651,5792.2,-0.00012122,700.07,-0.00021441,-0.12599,0.02521
23543,2.034,5.1818,0.1,0.00056061,5602.2,0.00056775,5848.8,-0.00013996,531.36,-0.00021072,-0.24255,0.022249
23544,2.1264,5.0909,0.1,0.00055498,5546,0.00056253,5811.3,-0.00013428,575.83,-0.00021094,-0.18296,0.024656
23545,2.034,5.3636,0.1,0.00056913,5687.4,0.0005748,5873.8,-0.00015457,393.61,-0.000207,-0.33881,0.021592
23546,2.1264,5.2727,0.1,0.0005629,5625.1,0.00056915,5834.7,-0.00014804,445.94,-0.00020743,-0.28909,0.024018
23547,2.034,5.5455,0.1,0.00057849,5780.9,0.00058238,5903.3,-0.00016952,253.86,-0.0002034,-0.72627,0.020839
23548,2.1264,5.4545,0.1,0.00057161,5712.1,0.00057628,5862.1,-0.00016223,313.14,-0.00020396,-0.37667,0.023288
23549,2.034,5.7273,0.1,0.00058916,5887.6,0.00059095,5941.6,-0.00018502,111.26,-0.00020005,-1.6406,0.019981
23550,2.1264,5.6364,0.1,0.00058103,5806.3,0.00058386,5893.5,-0.00017662,179.53,-0.00020066,-1.0857,0.022456
23551,2.1264,5.8182,0.1,0.00059212,5917.2,0.00059278,5936.6,-0.00019159,43.159,-0.00019787,-4.0761,0.021513
23552,2.034,5.9091,0.1,0.00059479,5943.8,0.00059499,5949.7,-0.00019513,13.066,-0.00019703,-1.1845,0.019007
23553,2.2189,0.27273,0.1,0.00058397,5835.6,0.00058572,5888.7,-0.0001835,109.04,-0.0001982,-1.3875,0.024116
23554,2.3113,0.18182,0.1,0.00058621,5858,0.00058693,5879.5,-0.00018942,46.371,-0.000196,-3.0836,0.02582
23555,2.2189,0.090909,0.1,0.00058955,5891.4,0.00058982,5899.4,-0.00019309,16.946,-0.00019547,-0.91408,0.023088
23556,2.2189,0.45455,0.1,0.00057413,5737.3,0.0005778,5852.5,-0.00016938,238.45,-0.0002012,-0.64794,0.025028
23557,2.3113,0.36364,0.1,0.00057606,5756.6,0.00057876,5839.6,-0.00017572,170.79,-0.00019858,-0.9676,0.026814
23558,2.2189,0.63636,0.1,0.00056535,5649.6,0.00057067,5823.2,-0.00015574,365.21,-0.00020439,-0.30232,0.025834
23559,2.3113,0.54545,0.1,0.00056728,5668.8,0.00057167,5809.1,-0.00016257,292.28,-0.00020152,-0.33429,0.027697
23560,2.2189,0.81818,0.1,0.00055724,5568.6,0.00056395,5797.3,-0.00014238,490.21,-0.00020765,-0.21867,0.026543
23561,2.3113,0.72727,0.1,0.00055907,5586.8,0.00056494,5781.7,-0.0001496,412.9,-0.00020459,-0.26041,0.028478
23562,2.2189,1,0.1,0.00054989,5495.1,0.00055773,5775.2,-0.00012953,611.35,-0.00021091,-0.14402,0.027162
23563,2.3113,0.90909,0.1,0.0005515,5511.2,0.00055861,5757.4,-0.00013698,531.04,-0.00020768,-0.16593,0.029164
23564,2.2189,1.1818,0.1,0.00054339,5430.1,0.00055208,5756.7,-0.00011741,726.35,-0.0002141,-0.097524,0.0277
23565,2.3113,1.0909,0.1,0.00054467,5443,0.00055276,5736.4,-0.00012494,644.48,-0.00021073,-0.11489,0.029764
23566,2.2189,1.3636,0.1,0.00053777,5374,0.00054707,5741.9,-0.00010623,833.25,-0.00021714,-0.063497,0.028164
23567,2.3113,1.2727,0.1,0.00053865,5382.8,0.00054748,5718.9,-0.00011367,751.27,-0.00021367,-0.075453,0.030285
23568,2.2189,1.5455,0.1,0.00053304,5326.7,0.00054273,5730.6,-9.612e-05,930.56,-0.00021997,-0.04012,0.028562
23569,2.3113,1.4545,0.1,0.00053346,5330.9,0.00054281,5704.7,-0.00010335,849.75,-0.00021645,-0.048249,0.030735
23570,2.2189,1.7273,0.1,0.00052914,5287.7,0.00053905,5722.4,-8.718e-05,1017.2,-0.00022256,-0.024184,0.028899
23571,2.3113,1.6364,0.1,0.00052909,5287.2,0.00053876,5693.7,-9.4088e-05,938.67,-0.00021902,-0.029014,0.031119
23572,2.2189,1.9091,0.1,0.00052601,5256.4,0.000536,5716.8,-7.946e-05,1092.5,-0.00022486,-0.013762,0.029181
23573,2.3113,1.8182,0.1,0.00052549,5251.2,0.00053534,5685.4,-8.5961e-05,1017.2,-0.00022134,-0.015956,0.031443
23574,2.2189,2.0909,0.1,0.00052356,5231.9,0.00053355,5713.3,-7.2976e-05,1156.1,-0.00022685,-0.0072112,0.029412
23575,2.3113,2,0.1,0.00052259,5222.3,0.00053252,5679.5,-7.9009e-05,1084.7,-0.00022337,-0.0073327,0.031712
23576,2.2189,2.2727,0.1,0.0005217,5213.4,0.00053163,5711.3,-6.7719e-05,1208,-0.0002285,-0.0032976,0.029596
23577,2.3113,2.1818,0.1,0.00052033,5199.7,0.00053026,5675.4,-7.3246e-05,1140.9,-0.0002251,-0.0018621,0.03193
23578,2.2189,2.4545,0.1,0.00052035,5199.9,0.00053021,5710.4,-6.367e-05,1248.2,-0.00022979,-0.0010951,0.029735
23579,2.3113,2.3636,0.1,0.00051863,5182.7,0.00052852,5672.8,-6.8665e-05,1185.9,-0.00022649,0.001458,0.0321
23580,2.2189,2.6364,0.1,0.00051944,5190.8,0.00052923,5710,-6.0802e-05,1276.7,-0.00023072,5.2783e-05,0.029834
23581,2.3113,2.5455,0.1,0.00051741,5170.6,0.00052725,5671.3,-6.5252e-05,1219.5,-0.00022755,0.0033628,0.032226
23582,2.2189,2.8182,0.1,0.00051891,5185.5,0.00052866,5709.9,-5.9091e-05,1293.8,-0.00023128,0.00057943,0.029892
23583,2.3113,2.7273,0.1,0.00051664,5162.8,0.00052643,5670.5,-6.299e-05,1241.8,-0.00022826,0.004367,0.032308
23584,2.2189,3,0.1,0.00051874,5183.8,0.00052847,5709.9,-5.8523e-05,1299.4,-0.00023147,0.00072881,0.029911
23585,2.3113,2.9091,0.1,0.00051626,5159,0.00052603,5670.1,-6.1862e-05,1252.9,-0.00022862,0.0047919,0.032349
23586,2.2189,3.1818,0.1,0.00051891,5185.5,0.00052866,5709.9,-5.9091e-05,1293.8,-0.00023128,0.00057955,0.029892
23587,2.3113,3.0909,0.1,0.00051626,5159,0.00052603,5670.1,-6.1862e-05,1252.9,-0.00022862,0.004792,0.032349
23588,2.2189,3.3636,0.1,0.00051944,5190.8,0.00052923,5710,-6.0802e-05,1276.7,-0.00023072,5.2967e-05,0.029834
23589,2.3113,3.2727,0.1,0.00051664,5162.8,0.00052643,5670.5,-6.299e-05,1241.8,-0.00022826,0.0043671,0.032308
23590,2.2189,3.5455,0.1,0.00052035,5199.9,0.00053021,5710.4,-6.367e-05,1248.2,-0.00022979,-0.0010949,0.029735
23591,2.3113,3.4545,0.1,0.00051741,5170.6,0.00052725,5671.3,-6.5252e-05,1219.5,-0.00022755,0.0033629,0.032226
23592,2.2189,3.7273,0.1,0.0005217,5213.4,0.00053163,5711.3,-6.7719e-05,1208,-0.0002285,-0.0032975,0.029596
23593,2.3113,3.6364,0.1,0.00051863,5182.7,0.00052852,5672.8,-6.8665e-05,1185.9,-0.00022649,0.0014582,0.0321
23594,2.2189,3.9091,0.1,0.00052356,5231.9,0.00053355,5713.3,-7.2976e-05,1156.1,-0.00022685,-0.0072111,0.029412
23595,2.3113,3.8182,0.1,0.00052033,5199.7,0.00053026,5675.4,-7.3246e-05,1140.9,-0.0002251,-0.001862,0.03193
23596,2.2189,4.0909,0.1,0.00052601,5256.4,0.000536,5716.8,-7.946e-05,1092.5,-0.00022486,-0.013762,0.029181
23597,2.3113,4,0.1,0.00052259,5222.3,0.00053252,5679.5,-7.9009e-05,1084.7,-0.00022337,-0.0073325,0.031712
23598,2.2189,4.2727,0.1,0.00052914,5287.7,0.00053905,5722.4,-8.7179e-05,1017.2,-0.00022256,-0.024183,0.028899
23599,2.3113,4.1818,0.1,0.00052549,5251.2,0.00053534,5685.4,-8.5961e-05,1017.2,-0.00022134,-0.015956,0.031443
23600,2.2189,4.4545,0.1,0.00053304,5326.7,0.00054273,5730.6,-9.612e-05,930.56,-0.00021997,-0.04012,0.028562
23601,2.3113,4.3636,0.1,0.00052909,5287.2,0.00053876,5693.7,-9.4088e-05,938.67,-0.00021902,-0.029013,0.031119
23602,2.2189,4.6364,0.1,0.00053777,5374,0.00054707,5741.9,-0.00010623,833.25,-0.00021714,-0.063497,0.028164
23603,2.3113,4.5455,0.1,0.00053346,5330.9,0.00054281,5704.7,-0.00010335,849.75,-0.00021645,-0.048248,0.030735
23604,2.2189,4.8182,0.1,0.00054339,5430.1,0.00055208,5756.7,-0.00011741,726.35,-0.0002141,-0.097524,0.0277
23605,2.3113,4.7273,0.1,0.00053865,5382.8,0.00054748,5718.9,-0.00011367,751.27,-0.00021367,-0.075453,0.030285
23606,2.2189,5,0.1,0.00054989,5495.1,0.00055773,5775.2,-0.00012953,611.35,-0.00021091,-0.14402,0.027162
23607,2.3113,4.9091,0.1,0.00054467,5443,0.00055276,5736.4,-0.00012494,644.48,-0.00021073,-0.11489,0.029764
23608,2.2189,5.1818,0.1,0.00055724,5568.6,0.00056395,5797.3,-0.00014238,490.21,-0.00020765,-0.21867,0.026543
23609,2.3113,5.0909,0.1,0.0005515,5511.2,0.00055861,5757.4,-0.00013698,531.04,-0.00020768,-0.16593,0.029164
23610,2.2189,5.3636,0.1,0.00056535,5649.6,0.00057067,5823.2,-0.00015574,365.21,-0.00020439,-0.30232,0.025834
23611,2.3113,5.2727,0.1,0.00055907,5586.8,0.00056494,5781.7,-0.0001496,412.9,-0.00020459,-0.26041,0.028478
23612,2.2189,5.5455,0.1,0.00057413,5737.3,0.0005778,5852.5,-0.00016938,238.45,-0.0002012,-0.64794,0.025028
23613,2.3113,5.4545,0.1,0.00056728,5668.8,0.00057167,5809.1,-0.00016257,292.28,-0.00020152,-0.33429,0.027697
23614,2.2189,5.7273,0.1,0.00058397,5835.6,0.00058572,5888.7,-0.0001835,109.04,-0.0001982,-1.3875,0.024116
23615,2.3113,5.6364,0.1,0.00057606,5756.6,0.00057876,5839.6,-0.00017572,170.79,-0.00019858,-0.9676,0.026814
23616,2.3113,5.8182,0.1,0.00058621,5858,0.00058693,5879.5,-0.00018942,46.371,-0.000196,-3.0836,0.02582
23617,2.2189,5.9091,0.1,0.00058955,5891.4,0.00058982,5899.4,-0.00019309,16.946,-0.00019547,-0.91407,0.023088
23618,2.4038,0.27273,0.1,0.00057828,5778.8,0.00057999,5830.6,-0.00018186,106.41,-0.00019618,-1.1834,0.028646
23619,2.4962,0.18182,0.1,0.00057992,5795.2,0.00058069,5818.2,-0.00018718,48.661,-0.00019398,-2.3948,0.030523
23620,2.4038,0.090909,0.1,0.00058377,5833.7,0.00058409,5843.2,-0.00019094,19.934,-0.00019369,-0.7562,0.027568
23621,2.4038,0.45455,0.1,0.00056919,5688,0.00057266,5796.5,-0.00016895,224.32,-0.00019888,-0.58069,0.029607
23622,2.4962,0.36364,0.1,0.00057062,5702.3,0.0005732,5781.3,-0.00017463,162.41,-0.00019636,-0.86591,0.031564
23623,2.4038,0.63636,0.1,0.00056098,5605.9,0.00056598,5767.9,-0.00015646,339.75,-0.00020172,-0.27131,0.030462
23624,2.4962,0.54545,0.1,0.00056244,5620.5,0.00056658,5752,-0.00016259,273.3,-0.000199,-0.2978,0.032493
23625,2.4038,0.81818,0.1,0.00055331,5529.2,0.00055962,5741.9,-0.00014422,453.54,-0.00020461,-0.19836,0.031217
23626,2.4962,0.72727,0.1,0.00055473,5543.5,0.00056025,5725,-0.0001507,383.23,-0.00020173,-0.23523,0.033319
23627,2.4038,1,0.1,0.00054626,5458.8,0.00055366,5718.8,-0.0001324,564.04,-0.00020749,-0.13164,0.031881
23628,2.4962,0.90909,0.1,0.00054754,5471.6,0.00055423,5700.5,-0.00013911,490.94,-0.00020447,-0.15085,0.03405
23629,2.4038,1.1818,0.1,0.00053991,5395.4,0.00054817,5698.7,-0.00012121,669.33,-0.0002103,-0.089549,0.032461
23630,2.4962,1.0909,0.1,0.00054097,5405.9,0.00054862,5678.6,-0.00012802,594.63,-0.00020717,-0.10512,0.034692
23631,2.4038,1.3636,0.1,0.00053431,5339.4,0.00054321,5681.7,-0.0001108,767.76,-0.00021299,-0.057947,0.032965
23632,2.4962,1.2727,0.1,0.00053507,5347,0.00054348,5659.6,-0.00011758,692.63,-0.00020977,-0.069031,0.035252
23633,2.4038,1.5455,0.1,0.00052949,5291.2,0.00053883,5667.7,-0.00010131,857.91,-0.0002155,-0.03549,0.033399
23634,2.4962,1.4545,0.1,0.00052989,5295.3,0.00053885,5643.4,-0.00010796,783.48,-0.00021224,-0.043462,0.035738
23635,2.4038,1.7273,0.1,0.00052541,5250.5,0.00053504,5656.5,-9.2854e-05,938.74,-0.0002178,-0.019524,0.033768
23636,2.4962,1.6364,0.1,0.00052544,5250.8,0.00053478,5629.9,-9.9254e-05,866.01,-0.00021452,-0.024753,0.036155
23637,2.4038,1.9091,0.1,0.00052205,5216.9,0.00053184,5647.9,-8.5489e-05,1009.5,-0.00021985,-0.0085287,0.034078
23638,2.4962,1.8182,0.1,0.00052169,5213.3,0.00053128,5619.1,-9.1561e-05,939.31,-0.00021658,-0.011504,0.036508
23639,2.4038,2.0909,0.1,0.00051935,5189.9,0.0005292,5641.4,-7.9253e-05,1069.7,-0.00022162,-0.0011701,0.034333
23640,2.4962,2,0.1,0.0005186,5182.5,0.00052833,5610.6,-8.4932e-05,1002.8,-0.00021839,-0.0023052,0.036802
23641,2.4038,2.2727,0.1,0.00051724,5168.9,0.00052711,5636.7,-7.4161e-05,1119,-0.00022309,0.003577,0.034536
23642,2.4962,2.1818,0.1,0.00051614,5157.9,0.00052593,5604.1,-7.9397e-05,1055.9,-0.00021993,0.0038868,0.037042
23643,2.4038,2.4545,0.1,0.00051568,5153.2,0.00052552,5633.5,-7.0215e-05,1157.4,-0.00022425,0.0065094,0.034692
23644,2.4962,2.3636,0.1,0.00051425,5138.9,0.00052405,5599.4,-7.4972e-05,1098.6,-0.00022119,0.0079123,0.037229
23645,2.4038,2.6364,0.1,0.0005146,5142.5,0.00052441,5631.5,-6.7406e-05,1184.8,-0.00022509,0.0082113,0.034801
23646,2.4962,2.5455,0.1,0.00051288,5125.2,0.00052266,5596.1,-7.1659e-05,1130.6,-0.00022214,0.010406,0.037368
23647,2.4038,2.8182,0.1,0.00051397,5136.2,0.00052376,5630.4,-6.5725e-05,1201.2,-0.0002256,0.0090802,0.034866
23648,2.4962,2.7273,0.1,0.00051198,5116.3,0.00052175,5594.1,-6.9454e-05,1152,-0.00022277,0.011826,0.037459
23649,2.4038,3,0.1,0.00051377,5134.1,0.00052354,5630,-6.5166e-05,1206.7,-0.00022577,0.009345,0.034887
23650,2.4962,2.9091,0.1,0.00051155,5111.9,0.0005213,5593.1,-6.8353e-05,1162.7,-0.00022309,0.012465,0.037504
23651,2.4038,3.1818,0.1,0.00051397,5136.2,0.00052376,5630.4,-6.5725e-05,1201.2,-0.0002256,0.0090803,0.034866
23652,2.4962,3.0909,0.1,0.00051155,5111.9,0.0005213,5593.1,-6.8353e-05,1162.7,-0.00022309,0.012465,0.037504
23653,2.4038,3.3636,0.1,0.0005146,5142.5,0.00052441,5631.5,-6.7406e-05,1184.8,-0.00022509,0.0082113,0.034801
23654,2.4962,3.2727,0.1,0.00051198,5116.3,0.00052175,5594.1,-6.9454e-05,1152,-0.00022277,0.011826,0.037459
23655,2.4038,3.5455,0.1,0.00051568,5153.2,0.00052552,5633.5,-7.0215e-05,1157.4,-0.00022425,0.0065094,0.034692
23656,2.4962,3.4545,0.1,0.00051288,5125.2,0.00052266,5596.1,-7.1659e-05,1130.6,-0.00022214,0.010406,0.037368
23657,2.4038,3.7273,0.1,0.00051724,5168.9,0.00052711,5636.7,-7.4161e-05,1119,-0.00022309,0.0035772,0.034536
23658,2.4962,3.6364,0.1,0.00051425,5138.9,0.00052405,5599.4,-7.4972e-05,1098.6,-0.00022119,0.0079125,0.037229
23659,2.4038,3.9091,0.1,0.00051935,5189.9,0.0005292,5641.4,-7.9253e-05,1069.7,-0.00022162,-0.0011698,0.034333
23660,2.4962,3.8182,0.1,0.00051614,5157.9,0.00052593,5604.1,-7.9397e-05,1055.9,-0.00021993,0.003887,0.037042
23661,2.4038,4.0909,0.1,0.00052205,5216.9,0.00053184,5647.9,-8.5489e-05,1009.5,-0.00021985,-0.0085284,0.034078
23662,2.4962,4,0.1,0.0005186,5182.5,0.00052833,5610.6,-8.4932e-05,1002.8,-0.00021839,-0.0023049,0.036802
23663,2.4038,4.2727,0.1,0.00052541,5250.5,0.00053504,5656.5,-9.2854e-05,938.74,-0.0002178,-0.019523,0.033768
23664,2.4962,4.1818,0.1,0.00052169,5213.3,0.00053128,5619.1,-9.1561e-05,939.31,-0.00021658,-0.011504,0.036508
23665,2.4038,4.4545,0.1,0.00052949,5291.2,0.00053883,5667.7,-0.00010131,857.91,-0.0002155,-0.035489,0.033399
23666,2.4962,4.3636,0.1,0.00052544,5250.8,0.00053478,5629.9,-9.9254e-05,866.01,-0.00021452,-0.024753,0.036155
23667,2.4038,4.6364,0.1,0.00053431,5339.4,0.00054321,5681.7,-0.0001108,767.76,-0.00021299,-0.057947,0.032965
23668,2.4962,4.5455,0.1,0.00052989,5295.3,0.00053885,5643.4,-0.00010796,783.48,-0.00021224,-0.043461,0.035738
23669,2.4038,4.8182,0.1,0.00053991,5395.4,0.00054817,5698.7,-0.00012121,669.33,-0.0002103,-0.089549,0.032461
23670,2.4962,4.7273,0.1,0.00053507,5347,0.00054348,5659.6,-0.00011758,692.63,-0.00020977,-0.069031,0.035252
23671,2.4038,5,0.1,0.00054626,5458.8,0.00055366,5718.8,-0.0001324,564.04,-0.00020749,-0.13164,0.031881
23672,2.4962,4.9091,0.1,0.00054097,5405.9,0.00054862,5678.6,-0.00012802,594.63,-0.00020717,-0.10512,0.034692
23673,2.4038,5.1818,0.1,0.00055331,5529.2,0.00055962,5741.9,-0.00014422,453.54,-0.00020461,-0.19836,0.031217
23674,2.4962,5.0909,0.1,0.00054754,5471.6,0.00055423,5700.5,-0.00013911,490.94,-0.00020447,-0.15085,0.03405
23675,2.4038,5.3636,0.1,0.00056098,5605.9,0.00056598,5767.9,-0.00015646,339.75,-0.00020172,-0.27131,0.030462
23676,2.4962,5.2727,0.1,0.00055473,5543.5,0.00056025,5725,-0.0001507,383.23,-0.00020173,-0.23523,0.033319
23677,2.4038,5.5455,0.1,0.00056919,5688,0.00057266,5796.5,-0.00016895,224.32,-0.00019888,-0.58069,0.029607
23678,2.4962,5.4545,0.1,0.00056244,5620.5,0.00056658,5752,-0.00016259,273.3,-0.000199,-0.2978,0.032493
23679,2.4038,5.7273,0.1,0.00057828,5778.8,0.00057999,5830.6,-0.00018186,106.41,-0.00019618,-1.1834,0.028646
23680,2.4962,5.6364,0.1,0.00057062,5702.3,0.0005732,5781.3,-0.00017463,162.41,-0.00019636,-0.86591,0.031564
23681,2.4962,5.8182,0.1,0.00057992,5795.2,0.00058069,5818.2,-0.00018718,48.661,-0.00019398,-2.3948,0.030523
23682,2.4038,5.9091,0.1,0.00058377,5833.7,0.00058409,5843.2,-0.00019094,19.934,-0.00019369,-0.7562,0.027568
23683,2.5887,0.27273,0.1,0.00057225,5718.6,0.00057392,5769,-0.00018013,103.4,-0.00019403,-1.0165,0.033567
23684,2.6811,0.18182,0.1,0.0005734,5730.1,0.0005742,5754,-0.00018494,50.102,-0.00019186,-1.8991,0.035618
23685,2.5887,0.090909,0.1,0.00057762,5772.3,0.00057799,5783,-0.00018873,22.136,-0.00019177,-0.64928,0.032446
23686,2.5887,0.45455,0.1,0.00056386,5634.7,0.00056714,5737,-0.00016831,211.14,-0.00019648,-0.52156,0.034573
23687,2.6811,0.36364,0.1,0.00056487,5644.8,0.00056732,5719.9,-0.00017342,154.29,-0.00019406,-0.77735,0.036701
23688,2.5887,0.63636,0.1,0.00055618,5557.9,0.00056088,5709.3,-0.00015685,316.58,-0.00019902,-0.24356,0.035471
23689,2.6811,0.54545,0.1,0.00055725,5568.6,0.00056115,5692,-0.00016236,255.79,-0.00019644,-0.26579,0.037673
23690,2.5887,0.81818,0.1,0.00054895,5485.7,0.00055489,5683.7,-0.00014561,420.45,-0.00020159,-0.17964,0.03627
23691,2.6811,0.72727,0.1,0.00055002,5496.4,0.00055521,5665.7,-0.00015144,356.23,-0.00019888,-0.21254,0.03854
23692,2.5887,1,0.1,0.00054223,5418.6,0.00054922,5660.4,-0.00013474,521.39,-0.00020415,-0.11984,0.036975
23693,2.6811,0.90909,0.1,0.00054322,5428.5,0.00054953,5641.4,-0.0001408,454.64,-0.00020132,-0.13692,0.039311
23694,2.5887,1.1818,0.1,0.00053611,5357.4,0.00054394,5639.5,-0.0001244,617.83,-0.00020664,-0.081759,0.037594
23695,2.6811,1.0909,0.1,0.00053695,5365.8,0.00054418,5619.3,-0.00013057,549.5,-0.00020372,-0.095889,0.039991
23696,2.5887,1.3636,0.1,0.00053063,5302.7,0.00053912,5621.2,-0.00011475,708.32,-0.00020902,-0.05258,0.038135
23697,2.6811,1.2727,0.1,0.00053125,5308.8,0.00053923,5599.5,-0.00012093,639.4,-0.00020603,-0.062956,0.040588
23698,2.5887,1.5455,0.1,0.00052583,5254.7,0.0005348,5605.5,-0.00010589,791.6,-0.00021125,-0.031279,0.038602
23699,2.6811,1.4545,0.1,0.00052617,5258.1,0.00053473,5582.2,-0.00011198,723.06,-0.00020822,-0.039121,0.041107
23700,2.5887,1.7273,0.1,0.0005217,5213.4,0.00053101,5592.4,-9.795e-05,866.65,-0.0002133,-0.015619,0.039001
23701,2.6811,1.6364,0.1,0.00052174,5213.8,0.00053072,5567.3,-0.00010385,799.39,-0.00021025,-0.021196,0.041555
23702,2.5887,1.9091,0.1,0.00051823,5178.7,0.00052775,5581.7,-9.0987e-05,932.7,-0.00021512,-0.0043897,0.039337
23703,2.6811,1.8182,0.1,0.00051794,5175.9,0.00052722,5554.8,-9.6623e-05,867.51,-0.00021208,-0.008068,0.041935
23704,2.5887,2.0909,0.1,0.00051538,5150.3,0.00052503,5573.1,-8.5054e-05,989.18,-0.00021671,0.0034869,0.039615
23705,2.6811,2,0.1,0.00051477,5144.2,0.00052424,5544.6,-9.0358e-05,926.75,-0.0002137,0.0014072,0.042253
23706,2.5887,2.2727,0.1,0.00051313,5127.8,0.00052284,5566.6,-8.0182e-05,1035.7,-0.00021802,0.0088475,0.039837
23707,2.6811,2.1818,0.1,0.0005122,5118.5,0.00052178,5536.4,-8.5098e-05,976.63,-0.00021508,0.0080705,0.042512
23708,2.5887,2.4545,0.1,0.00051143,5110.8,0.00052116,5561.8,-7.6387e-05,1072,-0.00021907,0.012358,0.040007
23709,2.6811,2.3636,0.1,0.0005102,5098.4,0.00051983,5530.2,-8.0873e-05,1016.8,-0.0002162,0.012613,0.042716
23710,2.5887,2.6364,0.1,0.00051025,5098.9,0.00051997,5558.5,-7.3675e-05,1098.1,-0.00021982,0.01452,0.040126
23711,2.6811,2.5455,0.1,0.00050873,5083.7,0.00051838,5525.8,-7.7696e-05,1047.1,-0.00021705,0.015566,0.042867
23712,2.5887,2.8182,0.1,0.00050955,5091.9,0.00051927,5556.6,-7.2049e-05,1113.7,-0.00022027,0.015682,0.040198
23713,2.6811,2.7273,0.1,0.00050776,5074.1,0.00051742,5522.9,-7.5576e-05,1067.3,-0.00021763,0.017323,0.042966
23714,2.5887,3,0.1,0.00050931,5089.6,0.00051903,5556,-7.1507e-05,1118.9,-0.00022042,0.016046,0.040221
23715,2.6811,2.9091,0.1,0.00050729,5069.4,0.00051695,5521.5,-7.4516e-05,1077.4,-0.00021791,0.018139,0.043015
23716,2.5887,3.1818,0.1,0.00050955,5091.9,0.00051927,5556.6,-7.2049e-05,1113.7,-0.00022027,0.015682,0.040198
23717,2.6811,3.0909,0.1,0.00050729,5069.4,0.00051695,5521.5,-7.4516e-05,1077.4,-0.00021791,0.018139,0.043015
23718,2.5887,3.3636,0.1,0.00051025,5098.9,0.00051997,5558.5,-7.3675e-05,1098.1,-0.00021982,0.01452,0.040126
23719,2.6811,3.2727,0.1,0.00050776,5074.1,0.00051742,5522.9,-7.5576e-05,1067.3,-0.00021763,0.017323,0.042966
23720,2.5887,3.5455,0.1,0.00051143,5110.8,0.00052116,5561.8,-7.6387e-05,1072,-0.00021907,0.012358,0.040007
23721,2.6811,3.4545,0.1,0.00050873,5083.7,0.00051838,5525.8,-7.7696e-05,1047.1,-0.00021705,0.015566,0.042867
23722,2.5887,3.7273,0.1,0.00051313,5127.8,0.00052284,5566.6,-8.0182e-05,1035.7,-0.00021802,0.0088477,0.039837
23723,2.6811,3.6364,0.1,0.0005102,5098.4,0.00051983,5530.2,-8.0873e-05,1016.8,-0.0002162,0.012613,0.042716
23724,2.5887,3.9091,0.1,0.00051538,5150.3,0.00052503,5573.1,-8.5054e-05,989.18,-0.00021671,0.0034872,0.039615
23725,2.6811,3.8182,0.1,0.0005122,5118.5,0.00052178,5536.4,-8.5098e-05,976.63,-0.00021508,0.0080707,0.042512
23726,2.5887,4.0909,0.1,0.00051823,5178.7,0.00052775,5581.7,-9.0987e-05,932.7,-0.00021512,-0.0043894,0.039337
23727,2.6811,4,0.1,0.00051477,5144.2,0.00052424,5544.6,-9.0358e-05,926.75,-0.0002137,0.0014075,0.042253
23728,2.5887,4.2727,0.1,0.0005217,5213.4,0.00053101,5592.4,-9.795e-05,866.65,-0.0002133,-0.015619,0.039001
23729,2.6811,4.1818,0.1,0.00051794,5175.9,0.00052722,5554.8,-9.6623e-05,867.51,-0.00021208,-0.0080677,0.041935
23730,2.5887,4.4545,0.1,0.00052583,5254.7,0.0005348,5605.5,-0.00010589,791.6,-0.00021125,-0.031278,0.038602
23731,2.6811,4.3636,0.1,0.00052174,5213.8,0.00053072,5567.3,-0.00010385,799.39,-0.00021025,-0.021195,0.041555
23732,2.5887,4.6364,0.1,0.00053063,5302.7,0.00053912,5621.2,-0.00011475,708.32,-0.00020902,-0.052579,0.038135
23733,2.6811,4.5455,0.1,0.00052617,5258.1,0.00053473,5582.2,-0.00011198,723.06,-0.00020822,-0.03912,0.041107
23734,2.5887,4.8182,0.1,0.00053611,5357.4,0.00054394,5639.5,-0.0001244,617.83,-0.00020664,-0.081758,0.037594
23735,2.6811,4.7273,0.1,0.00053125,5308.8,0.00053923,5599.5,-0.00012093,639.4,-0.00020603,-0.062955,0.040588
23736,2.5887,5,0.1,0.00054224,5418.6,0.00054922,5660.4,-0.00013474,521.39,-0.00020415,-0.11984,0.036975
23737,2.6811,4.9091,0.1,0.00053695,5365.8,0.00054418,5619.3,-0.00013057,549.5,-0.00020372,-0.095889,0.039991
23738,2.5887,5.1818,0.1,0.00054895,5485.7,0.00055489,5683.7,-0.00014561,420.45,-0.00020159,-0.17964,0.03627
23739,2.6811,5.0909,0.1,0.00054322,5428.5,0.00054953,5641.4,-0.0001408,454.64,-0.00020132,-0.13692,0.039311
23740,2.5887,5.3636,0.1,0.00055618,5557.9,0.00056088,5709.3,-0.00015685,316.58,-0.00019902,-0.24356,0.035471
23741,2.6811,5.2727,0.1,0.00055002,5496.4,0.00055521,5665.7,-0.00015144,356.23,-0.00019888,-0.21254,0.03854
23742,2.5887,5.5455,0.1,0.00056386,5634.7,0.00056714,5737,-0.00016831,211.14,-0.00019648,-0.52156,0.034573
23743,2.6811,5.4545,0.1,0.00055725,5568.6,0.00056115,5692,-0.00016236,255.79,-0.00019644,-0.26579,0.037673
23744,2.5887,5.7273,0.1,0.00057225,5718.6,0.00057392,5769,-0.00018013,103.4,-0.00019403,-1.0165,0.033567
23745,2.6811,5.6364,0.1,0.00056487,5644.8,0.00056732,5719.9,-0.00017342,154.29,-0.00019406,-0.77735,0.036701
23746,2.6811,5.8182,0.1,0.0005734,5730.1,0.0005742,5754,-0.00018494,50.102,-0.00019186,-1.8991,0.035618
23747,2.5887,5.9091,0.1,0.00057762,5772.3,0.00057799,5783,-0.00018873,22.136,-0.00019177,-0.64928,0.032446
23748,2.7736,0.27273,0.1,0.000566,5656.1,0.00056762,5705,-0.00017836,100.04,-0.00019179,-0.87876,0.038877
23749,2.866,0.18182,0.1,0.00056674,5663.5,0.00056756,5687.9,-0.0001827,50.793,-0.00018966,-1.5319,0.041103
23750,2.7736,0.090909,0.1,0.00057123,5708.4,0.00057162,5719.9,-0.0001865,23.664,-0.00018973,-0.57016,0.037717
23751,2.7736,0.45455,0.1,0.00055824,5578.6,0.00056135,5675,-0.0001675,198.72,-0.00019401,-0.46959,0.039923
23752,2.866,0.36364,0.1,0.00055889,5585.1,0.00056123,5656.5,-0.00017212,146.37,-0.0001917,-0.6998,0.042223
23753,2.7736,0.63636,0.1,0.00055107,5506.9,0.0005555,5648.5,-0.00015698,295.26,-0.0001963,-0.21902,0.040861
23754,2.866,0.54545,0.1,0.0005518,5514.2,0.00055548,5629.9,-0.00016194,239.46,-0.00019385,-0.2377,0.043232
23755,2.7736,0.81818,0.1,0.00054428,5439.1,0.00054987,5623.6,-0.00014665,390.26,-0.00019861,-0.16277,0.041698
23756,2.866,0.72727,0.1,0.00054504,5446.6,0.00054991,5604.7,-0.00015191,331.43,-0.00019605,-0.19221,0.044137
23757,2.7736,1,0.1,0.00053792,5375.5,0.0005445,5600.5,-0.00013665,482.62,-0.00020089,-0.10905,0.042441
23758,2.866,0.90909,0.1,0.00053864,5382.7,0.00054457,5581,-0.00014212,421.49,-0.00019823,-0.12423,0.044944
23759,2.7736,1.1818,0.1,0.00053207,5317,0.00053948,5579.4,-0.00012711,570.98,-0.00020311,-0.074603,0.043096
23760,2.866,1.0909,0.1,0.00053268,5323.2,0.00053951,5559.1,-0.0001327,508.35,-0.00020037,-0.087365,0.045659
23761,2.7736,1.3636,0.1,0.00052677,5264.1,0.00053484,5560.5,-0.00011817,654.1,-0.00020523,-0.047775,0.04367
23762,2.866,1.2727,0.1,0.00052723,5268.6,0.00053478,5539.1,-0.00012379,590.81,-0.00020243,-0.057353,0.046289
23763,2.7736,1.5455,0.1,0.00052207,5217.1,0.00053064,5543.9,-0.00010994,730.86,-0.00020721,-0.027766,0.044168
23764,2.866,1.4545,0.1,0.00052231,5219.5,0.00053046,5521.3,-0.00011551,667.75,-0.00020438,-0.035268,0.04684
23765,2.7736,1.7273,0.1,0.00051797,5176.1,0.00052692,5529.6,-0.00010252,800.3,-0.00020903,-0.012658,0.044595
23766,2.866,1.6364,0.1,0.00051797,5176.1,0.00052656,5505.6,-0.00010794,738.17,-0.00020619,-0.018288,0.047315
23767,2.7736,1.9091,0.1,0.00051448,5141.2,0.00052369,5517.6,-9.5981e-05,861.66,-0.00021066,-0.0014763,0.044956
23768,2.866,1.8182,0.1,0.00051421,5138.6,0.00052313,5492.1,-0.00010119,801.23,-0.00020783,-0.0055179,0.047721
23769,2.7736,2.0909,0.1,0.00051158,5112.3,0.00052096,5507.8,-9.0384e-05,914.34,-0.00021207,0.0066527,0.045254
23770,2.866,2,0.1,0.00051104,5106.8,0.00052019,5480.8,-9.5306e-05,856.28,-0.00020927,0.0039824,0.048061
23771,2.7736,2.2727,0.1,0.00050926,5089,0.00051874,5499.9,-8.5767e-05,957.9,-0.00021325,0.012404,0.045494
23772,2.866,2.1818,0.1,0.00050843,5080.8,0.00051773,5471.7,-9.0349e-05,902.79,-0.0002105,0.010888,0.048339
23773,2.7736,2.4545,0.1,0.00050748,5071.3,0.00051702,5494,-8.2157e-05,992.04,-0.00021419,0.016324,0.045678
23774,2.866,2.3636,0.1,0.00050637,5060.2,0.00051577,5464.5,-8.6351e-05,940.37,-0.0002115,0.015759,0.048558
23775,2.7736,2.6364,0.1,0.00050623,5058.8,0.0005158,5489.9,-7.957e-05,1016.5,-0.00021486,0.01883,0.045807
23776,2.866,2.5455,0.1,0.00050485,5045.1,0.00051431,5459.2,-8.3336e-05,968.76,-0.00021227,0.019033,0.04872
23777,2.7736,2.8182,0.1,0.00050549,5051.4,0.00051507,5487.5,-7.8014e-05,1031.3,-0.00021527,0.020218,0.045884
23778,2.866,2.7273,0.1,0.00050385,5035,0.00051333,5455.7,-8.1319e-05,987.77,-0.00021278,0.021038,0.048827
23779,2.7736,3,0.1,0.00050525,5049,0.00051483,5486.7,-7.7495e-05,1036.2,-0.0002154,0.020661,0.04591
23780,2.866,2.9091,0.1,0.00050335,5030.1,0.00051285,5454,-8.0309e-05,997.3,-0.00021304,0.021986,0.04888
23781,2.7736,3.1818,0.1,0.00050549,5051.4,0.00051507,5487.5,-7.8014e-05,1031.3,-0.00021527,0.020218,0.045884
23782,2.866,3.0909,0.1,0.00050335,5030.1,0.00051285,5454,-8.0309e-05,997.3,-0.00021304,0.021986,0.04888
23783,2.7736,3.3636,0.1,0.00050623,5058.8,0.0005158,5489.9,-7.957e-05,1016.5,-0.00021486,0.018831,0.045807
23784,2.866,3.2727,0.1,0.00050385,5035,0.00051333,5455.7,-8.1319e-05,987.77,-0.00021278,0.021038,0.048827
23785,2.7736,3.5455,0.1,0.00050748,5071.3,0.00051702,5494,-8.2157e-05,992.04,-0.00021419,0.016324,0.045678
23786,2.866,3.4545,0.1,0.00050485,5045.1,0.00051431,5459.2,-8.3336e-05,968.76,-0.00021227,0.019034,0.04872
23787,2.7736,3.7273,0.1,0.00050926,5089,0.00051874,5499.9,-8.5767e-05,957.9,-0.00021325,0.012404,0.045494
23788,2.866,3.6364,0.1,0.00050637,5060.2,0.00051577,5464.5,-8.6351e-05,940.37,-0.0002115,0.01576,0.048558
23789,2.7736,3.9091,0.1,0.00051158,5112.3,0.00052096,5507.8,-9.0384e-05,914.34,-0.00021207,0.0066529,0.045254
23790,2.866,3.8182,0.1,0.00050843,5080.8,0.00051773,5471.7,-9.0349e-05,902.79,-0.0002105,0.010888,0.048339
23791,2.7736,4.0909,0.1,0.00051448,5141.2,0.00052369,5517.6,-9.5981e-05,861.66,-0.00021066,-0.001476,0.044956
23792,2.866,4,0.1,0.00051104,5106.8,0.00052019,5480.8,-9.5306e-05,856.28,-0.00020927,0.0039826,0.048061
23793,2.7736,4.2727,0.1,0.00051797,5176.1,0.00052692,5529.6,-0.00010252,800.3,-0.00020903,-0.012658,0.044595
23794,2.866,4.1818,0.1,0.00051421,5138.6,0.00052313,5492.1,-0.00010119,801.23,-0.00020783,-0.0055175,0.047721
23795,2.7736,4.4545,0.1,0.00052207,5217.1,0.00053064,5543.9,-0.00010994,730.86,-0.00020721,-0.027765,0.044168
23796,2.866,4.3636,0.1,0.00051797,5176.1,0.00052656,5505.6,-0.00010794,738.17,-0.00020619,-0.018288,0.047315
23797,2.7736,4.6364,0.1,0.00052677,5264.1,0.00053484,5560.5,-0.00011817,654.1,-0.00020523,-0.047775,0.04367
23798,2.866,4.5455,0.1,0.00052231,5219.5,0.00053046,5521.3,-0.00011551,667.75,-0.00020438,-0.035267,0.04684
23799,2.7736,4.8182,0.1,0.00053207,5317,0.00053948,5579.4,-0.00012711,570.98,-0.00020311,-0.074603,0.043096
23800,2.866,4.7273,0.1,0.00052723,5268.6,0.00053478,5539.1,-0.00012379,590.81,-0.00020243,-0.057353,0.046289
23801,2.7736,5,0.1,0.00053792,5375.5,0.0005445,5600.5,-0.00013665,482.62,-0.00020089,-0.10905,0.042441
23802,2.866,4.9091,0.1,0.00053268,5323.2,0.00053951,5559.1,-0.0001327,508.35,-0.00020037,-0.087364,0.045659
23803,2.7736,5.1818,0.1,0.00054428,5439.1,0.00054987,5623.6,-0.00014665,390.26,-0.00019861,-0.16277,0.041698
23804,2.866,5.0909,0.1,0.00053864,5382.7,0.00054457,5581,-0.00014212,421.49,-0.00019823,-0.12423,0.044944
23805,2.7736,5.3636,0.1,0.00055107,5506.9,0.0005555,5648.5,-0.00015698,295.26,-0.0001963,-0.21902,0.040861
23806,2.866,5.2727,0.1,0.00054504,5446.6,0.00054991,5604.7,-0.00015191,331.43,-0.00019605,-0.19221,0.044137
23807,2.7736,5.5455,0.1,0.00055824,5578.6,0.00056135,5675,-0.0001675,198.72,-0.00019401,-0.46959,0.039923
23808,2.866,5.4545,0.1,0.0005518,5514.2,0.00055548,5629.9,-0.00016194,239.46,-0.00019385,-0.2377,0.043232
23809,2.7736,5.7273,0.1,0.000566,5656.1,0.00056762,5705,-0.00017836,100.04,-0.00019179,-0.87875,0.038877
23810,2.866,5.6364,0.1,0.00055889,5585.1,0.00056123,5656.5,-0.00017212,146.37,-0.0001917,-0.6998,0.042223
23811,2.866,5.8182,0.1,0.00056674,5663.5,0.00056756,5687.9,-0.0001827,50.793,-0.00018966,-1.5319,0.041103
23812,2.7736,5.9091,0.1,0.00057123,5708.4,0.00057162,5719.9,-0.0001865,23.664,-0.00018973,-0.57015,0.037717
23813,2.9585,0.27273,0.1,0.00055962,5592.3,0.00056118,5639.5,-0.00017656,96.375,-0.00018949,-0.76396,0.044573
23814,3.0509,0.18182,0.1,0.00056,5596.1,0.00056082,5620.7,-0.00018048,50.834,-0.00018742,-1.2531,0.046972
23815,2.9585,0.090909,0.1,0.00056468,5642.9,0.00056509,5654.9,-0.00018426,24.625,-0.00018761,-0.50804,0.043377
23816,2.9585,0.45455,0.1,0.00055244,5520.6,0.00055538,5611.5,-0.00016659,186.92,-0.00019152,-0.42362,0.045654
23817,3.0509,0.36364,0.1,0.00055278,5524,0.000555,5591.7,-0.00017076,138.61,-0.00018929,-0.63149,0.048126
23818,2.9585,0.63636,0.1,0.00054575,5453.8,0.00054991,5586.2,-0.0001569,275.48,-0.00019359,-0.19716,0.046627
23819,3.0509,0.54545,0.1,0.00054618,5458.1,0.00054965,5566.6,-0.00016139,224.13,-0.00019125,-0.21294,0.049169
23820,2.9585,0.81818,0.1,0.00053939,5390.2,0.00054464,5562.2,-0.0001474,362.52,-0.00019566,-0.14748,0.047499
23821,3.0509,0.72727,0.1,0.00053986,5394.9,0.00054445,5542.4,-0.00015215,308.49,-0.00019323,-0.17394,0.050107
23822,2.9585,1,0.1,0.00053339,5330.2,0.00053959,5539.7,-0.00013819,447.1,-0.00019771,-0.099104,0.048276
23823,3.0509,0.90909,0.1,0.00053386,5334.9,0.00053943,5519.6,-0.00014314,391,-0.0001952,-0.11267,0.050947
23824,2.9585,1.1818,0.1,0.00052783,5274.7,0.00053483,5518.8,-0.0001294,528.1,-0.00019969,-0.067932,0.048964
23825,3.0509,1.0909,0.1,0.00052824,5278.7,0.00053466,5498.2,-0.00013447,470.61,-0.00019711,-0.079482,0.051694
23826,2.9585,1.3636,0.1,0.00052276,5224,0.00053041,5499.9,-0.00012114,604.41,-0.00020158,-0.043331,0.049569
23827,3.0509,1.2727,0.1,0.00052305,5226.8,0.00053019,5478.5,-0.00012625,546.24,-0.00019896,-0.052152,0.052355
23828,2.9585,1.5455,0.1,0.00051821,5178.5,0.00052638,5482.9,-0.00011351,675.05,-0.00020336,-0.024668,0.050095
23829,3.0509,1.4545,0.1,0.00051834,5179.8,0.00052607,5460.6,-0.00011859,616.93,-0.0002007,-0.031773,0.052933
23830,2.9585,1.7273,0.1,0.00051421,5138.5,0.00052277,5468,-0.00010661,739.13,-0.00020498,-0.010274,0.050548
23831,3.0509,1.6364,0.1,0.00051414,5137.8,0.00052233,5444.7,-0.00011157,681.78,-0.00020231,-0.015827,0.053435
23832,2.9585,1.9091,0.1,0.00051076,5104.1,0.00051962,5455.3,-0.0001005,795.93,-0.00020643,0.00064942,0.050931
23833,3.0509,1.8182,0.1,0.00051047,5101.2,0.00051902,5430.8,-0.00010529,740,-0.00020378,-0.003578,0.053864
23834,2.9585,2.0909,0.1,0.00050787,5075.2,0.00051694,5444.6,-9.5256e-05,844.84,-0.0002077,0.0088122,0.05125
23835,3.0509,2,0.1,0.00050734,5069.9,0.00051615,5418.9,-9.9798e-05,790.96,-0.00020507,0.0057533,0.054224
23836,2.9585,2.2727,0.1,0.00050554,5051.9,0.00051474,5436.1,-9.0914e-05,885.39,-0.00020875,0.014758,0.051506
23837,3.0509,2.1818,0.1,0.00050476,5044.1,0.00051374,5409.1,-9.5156e-05,834.12,-0.00020617,0.012711,0.054519
23838,2.9585,2.4545,0.1,0.00050374,5033.9,0.00051303,5429.5,-8.7509e-05,917.25,-0.00020959,0.018928,0.051702
23839,3.0509,2.3636,0.1,0.0005027,5023.5,0.00051181,5401.4,-9.1401e-05,869.09,-0.00020707,0.017745,0.054752
23840,2.9585,2.6364,0.1,0.00050247,5021.2,0.00051181,5424.8,-8.5062e-05,940.17,-0.00021019,0.021664,0.051841
23841,3.0509,2.5455,0.1,0.00050117,5008.3,0.00051036,5395.6,-8.8563e-05,895.55,-0.00020775,0.021211,0.054924
23842,2.9585,2.8182,0.1,0.00050171,5013.6,0.00051108,5422.1,-8.3589e-05,953.98,-0.00021055,0.023209,0.051923
23843,3.0509,2.7273,0.1,0.00050016,4998.1,0.00050939,5391.8,-8.6661e-05,913.3,-0.00020821,0.023374,0.055038
23844,2.9585,3,0.1,0.00050146,5011.1,0.00051083,5421.2,-8.3097e-05,958.59,-0.00021067,0.023707,0.051951
23845,3.0509,2.9091,0.1,0.00049965,4993.1,0.00050891,5389.9,-8.5707e-05,922.21,-0.00020844,0.024412,0.055095
23846,2.9585,3.1818,0.1,0.00050171,5013.6,0.00051108,5422.1,-8.3589e-05,953.98,-0.00021055,0.023209,0.051923
23847,3.0509,3.0909,0.1,0.00049965,4993.1,0.00050891,5389.9,-8.5707e-05,922.21,-0.00020844,0.024412,0.055095
23848,2.9585,3.3636,0.1,0.00050247,5021.2,0.00051181,5424.8,-8.5062e-05,940.17,-0.00021019,0.021664,0.051841
23849,3.0509,3.2727,0.1,0.00050016,4998.1,0.00050939,5391.8,-8.6661e-05,913.3,-0.00020821,0.023374,0.055038
23850,2.9585,3.5455,0.1,0.00050374,5033.9,0.00051303,5429.5,-8.7509e-05,917.25,-0.00020959,0.018928,0.051702
23851,3.0509,3.4545,0.1,0.00050117,5008.3,0.00051036,5395.6,-8.8563e-05,895.55,-0.00020775,0.021211,0.054924
23852,2.9585,3.7273,0.1,0.00050554,5051.9,0.00051474,5436.1,-9.0914e-05,885.39,-0.00020875,0.014758,0.051506
23853,3.0509,3.6364,0.1,0.0005027,5023.5,0.00051181,5401.4,-9.1401e-05,869.09,-0.00020707,0.017746,0.054752
23854,2.9585,3.9091,0.1,0.00050787,5075.2,0.00051694,5444.6,-9.5256e-05,844.84,-0.0002077,0.0088125,0.05125
23855,3.0509,3.8182,0.1,0.00050476,5044.1,0.00051374,5409.1,-9.5156e-05,834.12,-0.00020617,0.012711,0.054519
23856,2.9585,4.0909,0.1,0.00051076,5104.1,0.00051962,5455.3,-0.0001005,795.93,-0.00020643,0.00064978,0.050931
23857,3.0509,4,0.1,0.00050734,5069.9,0.00051615,5418.9,-9.9798e-05,790.96,-0.00020507,0.0057536,0.054224
23858,2.9585,4.2727,0.1,0.00051421,5138.5,0.00052277,5468,-0.00010661,739.13,-0.00020498,-0.010273,0.050548
23859,3.0509,4.1818,0.1,0.00051047,5101.2,0.00051902,5430.8,-0.00010529,740,-0.00020378,-0.0035776,0.053864
23860,2.9585,4.4545,0.1,0.00051821,5178.5,0.00052638,5482.9,-0.00011351,675.05,-0.00020336,-0.024667,0.050095
23861,3.0509,4.3636,0.1,0.00051414,5137.8,0.00052233,5444.7,-0.00011157,681.78,-0.00020231,-0.015827,0.053435
23862,2.9585,4.6364,0.1,0.00052276,5224,0.00053041,5499.9,-0.00012114,604.41,-0.00020158,-0.043331,0.049569
23863,3.0509,4.5455,0.1,0.00051834,5179.8,0.00052607,5460.6,-0.00011859,616.93,-0.0002007,-0.031772,0.052933
23864,2.9585,4.8182,0.1,0.00052783,5274.7,0.00053483,5518.8,-0.0001294,528.1,-0.00019969,-0.067932,0.048964
23865,3.0509,4.7273,0.1,0.00052305,5226.8,0.00053019,5478.5,-0.00012625,546.24,-0.00019896,-0.052151,0.052355
23866,2.9585,5,0.1,0.00053339,5330.2,0.00053959,5539.7,-0.00013819,447.1,-0.00019771,-0.099103,0.048276
23867,3.0509,4.9091,0.1,0.00052824,5278.7,0.00053466,5498.2,-0.00013447,470.61,-0.00019711,-0.079481,0.051694
23868,2.9585,5.1818,0.1,0.00053939,5390.2,0.00054464,5562.2,-0.0001474,362.52,-0.00019566,-0.14748,0.047499
23869,3.0509,5.0909,0.1,0.00053386,5334.9,0.00053943,5519.6,-0.00014314,391.01,-0.0001952,-0.11266,0.050947
23870,2.9585,5.3636,0.1,0.00054575,5453.8,0.00054991,5586.2,-0.0001569,275.48,-0.00019359,-0.19716,0.046627
23871,3.0509,5.2727,0.1,0.00053986,5394.9,0.00054445,5542.4,-0.00015215,308.49,-0.00019323,-0.17394,0.050107
23872,2.9585,5.5455,0.1,0.00055244,5520.6,0.00055538,5611.5,-0.00016659,186.92,-0.00019152,-0.42362,0.045654
23873,3.0509,5.4545,0.1,0.00054618,5458.1,0.00054965,5566.6,-0.00016139,224.13,-0.00019125,-0.21294,0.049169
23874,2.9585,5.7273,0.1,0.00055962,5592.3,0.00056118,5639.5,-0.00017656,96.375,-0.00018949,-0.76396,0.044573
23875,3.0509,5.6364,0.1,0.00055278,5524,0.000555,5591.7,-0.00017076,138.61,-0.00018929,-0.63149,0.048126
23876,3.0509,5.8182,0.1,0.00056,5596.1,0.00056082,5620.7,-0.00018048,50.834,-0.00018742,-1.2531,0.046972
23877,2.9585,5.9091,0.1,0.00056468,5642.9,0.00056509,5654.9,-0.00018426,24.625,-0.00018761,-0.50804,0.043377
23878,3.1434,0.27273,0.1,0.00055316,5527.7,0.00055466,5573.1,-0.00017476,92.472,-0.00018716,-0.6675,0.050649
23879,3.2358,0.18182,0.1,0.00055323,5528.5,0.00055405,5553,-0.0001783,50.323,-0.00018514,-1.0372,0.053223
23880,3.1434,0.090909,0.1,0.00055803,5576.5,0.00055845,5588.8,-0.00018203,25.11,-0.00018543,-0.45728,0.049423
23881,3.1434,0.45455,0.1,0.00054652,5461.4,0.00054929,5546.9,-0.00016558,175.66,-0.00018901,-0.38281,0.051762
23882,3.2358,0.36364,0.1,0.00054659,5462.1,0.00054869,5526.1,-0.00016936,131.01,-0.00018687,-0.571,0.054406
23883,3.1434,0.63636,0.1,0.00054028,5399.1,0.00054419,5522.9,-0.00015666,257.01,-0.00019089,-0.17768,0.052767
23884,3.2358,0.54545,0.1,0.00054045,5400.8,0.00054371,5502.5,-0.00016072,209.68,-0.00018865,-0.19106,0.055479
23885,3.1434,0.81818,0.1,0.00053433,5339.6,0.00053926,5500,-0.00014791,336.85,-0.00019276,-0.13366,0.053671
23886,3.2358,0.72727,0.1,0.00053455,5341.9,0.00053886,5479.5,-0.00015221,287.14,-0.00019045,-0.1575,0.056448
23887,3.1434,1,0.1,0.0005287,5283.3,0.00053452,5478.3,-0.00013944,414.4,-0.0001946,-0.090003,0.054479
23888,3.2358,0.90909,0.1,0.00052893,5285.7,0.00053417,5457.7,-0.00014392,362.83,-0.00019222,-0.10215,0.057317
23889,3.1434,1.1818,0.1,0.00052344,5230.8,0.00053004,5458,-0.00013133,488.67,-0.00019638,-0.061774,0.055196
23890,3.2358,1.0909,0.1,0.00052364,5232.8,0.00052969,5437,-0.00013593,435.82,-0.00019395,-0.072236,0.058093
23891,3.1434,1.3636,0.1,0.00051862,5182.6,0.00052585,5439.3,-0.00012371,558.71,-0.00019807,-0.039255,0.055829
23892,3.2358,1.2727,0.1,0.00051873,5183.8,0.00052548,5417.8,-0.00012835,505.21,-0.0001956,-0.047355,0.058781
23893,3.1434,1.5455,0.1,0.00051426,5139,0.00052202,5422.4,-0.00011665,623.64,-0.00019966,-0.021939,0.056381
23894,3.2358,1.4545,0.1,0.00051425,5139,0.00052157,5400.2,-0.00012128,570.12,-0.00019716,-0.028607,0.059385
23895,3.1434,1.7273,0.1,0.0005104,5100.4,0.00051857,5407.4,-0.00011025,682.66,-0.00020111,-0.0083552,0.056857
23896,3.2358,1.6364,0.1,0.00051023,5098.8,0.00051802,5384.4,-0.00011479,629.75,-0.00019861,-0.01373,0.05991
23897,3.1434,1.9091,0.1,0.00050705,5067,0.00051553,5394.4,-0.00010458,735.09,-0.00020241,0.0021582,0.057261
23898,3.2358,1.8182,0.1,0.0005067,5063.5,0.00051485,5370.5,-0.00010896,683.39,-0.00019992,-0.002108,0.06036
23899,3.1434,2.0909,0.1,0.00050422,5038.7,0.00051294,5383.3,-9.9686e-05,780.33,-0.00020354,0.010185,0.057598
23900,3.2358,2,0.1,0.00050366,5033.1,0.00051209,5358.4,-0.00010386,730.42,-0.00020107,0.0069124,0.060739
23901,3.1434,2.2727,0.1,0.00050191,5015.7,0.0005108,5374.4,-9.5628e-05,817.93,-0.00020449,0.016163,0.057868
23902,3.2358,2.1818,0.1,0.00050113,5007.9,0.00050977,5348.4,-9.9533e-05,770.34,-0.00020206,0.013772,0.06105
23903,3.1434,2.4545,0.1,0.00050013,4997.8,0.00050912,5367.4,-9.2437e-05,847.52,-0.00020523,0.020445,0.058077
23904,3.2358,2.3636,0.1,0.00049911,4987.7,0.0005079,5340.4,-9.6027e-05,802.73,-0.00020286,0.018833,0.061296
23905,3.1434,2.6364,0.1,0.00049886,4985.1,0.00050792,5362.5,-9.0141e-05,868.83,-0.00020577,0.023307,0.058224
23906,3.2358,2.5455,0.1,0.00049761,4972.6,0.00050649,5334.4,-9.3372e-05,827.29,-0.00020347,0.022379,0.061478
23907,3.1434,2.8182,0.1,0.0004981,4977.6,0.0005072,5359.5,-8.8757e-05,881.69,-0.0002061,0.024946,0.058312
23908,3.2358,2.7273,0.1,0.0004966,4962.6,0.00050554,5330.4,-9.159e-05,843.78,-0.00020389,0.024624,0.061598
23909,3.1434,3,0.1,0.00049785,4975,0.00050696,5358.5,-8.8294e-05,885.99,-0.00020621,0.025479,0.058341
23910,3.2358,2.9091,0.1,0.0004961,4957.6,0.00050507,5328.4,-9.0695e-05,852.06,-0.00020409,0.025711,0.061659
23911,3.1434,3.1818,0.1,0.0004981,4977.6,0.0005072,5359.5,-8.8757e-05,881.69,-0.0002061,0.024946,0.058312
23912,3.2358,3.0909,0.1,0.0004961,4957.6,0.00050507,5328.4,-9.0695e-05,852.06,-0.00020409,0.025711,0.061659
23913,3.1434,3.3636,0.1,0.00049886,4985.1,0.00050792,5362.5,-9.0141e-05,868.83,-0.00020577,0.023307,0.058224
23914,3.2358,3.2727,0.1,0.0004966,4962.6,0.00050554,5330.4,-9.159e-05,843.78,-0.00020389,0.024624,0.061598
23915,3.1434,3.5455,0.1,0.00050013,4997.8,0.00050912,5367.4,-9.2437e-05,847.52,-0.00020523,0.020445,0.058077
23916,3.2358,3.4545,0.1,0.00049761,4972.6,0.00050649,5334.4,-9.3372e-05,827.29,-0.00020347,0.022379,0.061478
23917,3.1434,3.7273,0.1,0.00050191,5015.7,0.0005108,5374.4,-9.5628e-05,817.93,-0.00020449,0.016163,0.057868
23918,3.2358,3.6364,0.1,0.00049911,4987.7,0.0005079,5340.4,-9.6027e-05,802.73,-0.00020286,0.018833,0.061296
23919,3.1434,3.9091,0.1,0.00050422,5038.7,0.00051294,5383.3,-9.9686e-05,780.33,-0.00020354,0.010185,0.057598
23920,3.2358,3.8182,0.1,0.00050113,5007.9,0.00050977,5348.4,-9.9533e-05,770.34,-0.00020206,0.013772,0.06105
23921,3.1434,4.0909,0.1,0.00050705,5067,0.00051553,5394.4,-0.00010458,735.09,-0.00020241,0.0021585,0.057261
23922,3.2358,4,0.1,0.00050366,5033.1,0.00051209,5358.4,-0.00010386,730.42,-0.00020107,0.0069127,0.060739
23923,3.1434,4.2727,0.1,0.0005104,5100.4,0.00051857,5407.4,-0.00011025,682.66,-0.00020111,-0.0083546,0.056857
23924,3.2358,4.1818,0.1,0.0005067,5063.5,0.00051485,5370.5,-0.00010896,683.39,-0.00019992,-0.0021076,0.06036
23925,3.1434,4.4545,0.1,0.00051426,5139,0.00052202,5422.4,-0.00011665,623.64,-0.00019966,-0.021938,0.056381
23926,3.2358,4.3636,0.1,0.00051023,5098.8,0.00051802,5384.4,-0.00011479,629.75,-0.00019861,-0.01373,0.05991
23927,3.1434,4.6364,0.1,0.00051862,5182.6,0.00052585,5439.3,-0.00012371,558.71,-0.00019807,-0.039254,0.055829
23928,3.2358,4.5455,0.1,0.00051425,5139,0.00052157,5400.2,-0.00012128,570.12,-0.00019716,-0.028607,0.059385
23929,3.1434,4.8182,0.1,0.00052344,5230.8,0.00053004,5458,-0.00013133,488.67,-0.00019638,-0.061773,0.055196
23930,3.2358,4.7273,0.1,0.00051873,5183.8,0.00052548,5417.8,-0.00012835,505.21,-0.0001956,-0.047354,0.058781
23931,3.1434,5,0.1,0.0005287,5283.3,0.00053452,5478.3,-0.00013944,414.4,-0.0001946,-0.090002,0.054479
23932,3.2358,4.9091,0.1,0.00052364,5232.8,0.00052969,5437,-0.00013593,435.82,-0.00019395,-0.072236,0.058093
23933,3.1434,5.1818,0.1,0.00053433,5339.6,0.00053926,5500,-0.00014791,336.85,-0.00019276,-0.13366,0.053671
23934,3.2358,5.0909,0.1,0.00052893,5285.7,0.00053417,5457.7,-0.00014392,362.83,-0.00019222,-0.10215,0.057317
23935,3.1434,5.3636,0.1,0.00054028,5399.1,0.00054419,5522.9,-0.00015666,257.01,-0.00019089,-0.17768,0.052767
23936,3.2358,5.2727,0.1,0.00053455,5341.9,0.00053886,5479.5,-0.00015221,287.14,-0.00019045,-0.1575,0.056448
23937,3.1434,5.5455,0.1,0.00054652,5461.4,0.00054929,5546.9,-0.00016558,175.66,-0.00018901,-0.38281,0.051762
23938,3.2358,5.4545,0.1,0.00054045,5400.8,0.00054371,5502.5,-0.00016072,209.68,-0.00018865,-0.19105,0.055479
23939,3.1434,5.7273,0.1,0.00055316,5527.7,0.00055466,5573.1,-0.00017476,92.472,-0.00018716,-0.6675,0.050649
23940,3.2358,5.6364,0.1,0.00054659,5462.1,0.00054869,5526.1,-0.00016936,131.01,-0.00018687,-0.571,0.054406
23941,3.2358,5.8182,0.1,0.00055323,5528.5,0.00055405,5553,-0.0001783,50.323,-0.00018514,-1.0372,0.053223
23942,3.1434,5.9091,0.1,0.00055803,5576.5,0.00055845,5588.8,-0.00018203,25.11,-0.00018543,-0.45728,0.049423
23943,3.3283,0.27273,0.1,0.00054666,5462.8,0.0005481,5506.2,-0.00017297,88.383,-0.00018481,-0.58583,0.057103
23944,3.4208,0.18182,0.1,0.00054647,5460.9,0.00054728,5485,-0.00017616,49.352,-0.00018285,-0.86729,0.059851
23945,3.3283,0.090909,0.1,0.00055134,5509.6,0.00055176,5521.9,-0.00017981,25.199,-0.00018322,-0.4146,0.055849
23946,3.3283,0.45455,0.1,0.00054052,5401.4,0.00054313,5481.8,-0.00016451,164.89,-0.0001865,-0.34644,0.058244
23947,3.4208,0.36364,0.1,0.00054035,5399.8,0.00054234,5460.3,-0.00016793,123.59,-0.00018445,-0.5172,0.06106
23948,3.3283,0.63636,0.1,0.00053471,5343.5,0.00053838,5459.2,-0.00015629,239.69,-0.00018821,-0.16028,0.059277
23949,3.4208,0.54545,0.1,0.00053465,5342.8,0.00053771,5438,-0.00015996,196.01,-0.00018607,-0.17166,0.06216
23950,3.3283,0.81818,0.1,0.00052915,5287.9,0.00053378,5437.4,-0.00014823,313.01,-0.00018991,-0.12117,0.060209
23951,3.4208,0.72727,0.1,0.00052915,5287.9,0.00053319,5416.3,-0.00015212,267.21,-0.0001877,-0.14272,0.063155
23952,3.3283,1,0.1,0.00052387,5235.1,0.00052935,5416.6,-0.00014042,384.16,-0.00019156,-0.081692,0.061045
23953,3.4208,0.90909,0.1,0.0005239,5235.4,0.00052881,5395.5,-0.00014448,336.7,-0.0001893,-0.092622,0.064051
23954,3.3283,1.1818,0.1,0.00051893,5185.7,0.00052514,5397,-0.00013296,452.29,-0.00019317,-0.056107,0.061789
23955,3.4208,1.0909,0.1,0.00051894,5185.8,0.00052462,5375.8,-0.00013713,403.66,-0.00019086,-0.065607,0.064852
23956,3.3283,1.3636,0.1,0.00051437,5140.1,0.0005212,5378.9,-0.00012593,516.57,-0.00019469,-0.035519,0.062446
23957,3.4208,1.2727,0.1,0.00051432,5139.6,0.00052067,5357.3,-0.00013015,467.32,-0.00019235,-0.042955,0.065564
23958,3.3283,1.5455,0.1,0.00051022,5098.7,0.00051757,5362.3,-0.00011942,576.2,-0.00019611,-0.019516,0.063022
23959,3.4208,1.4545,0.1,0.00051008,5097.2,0.00051699,5340.2,-0.00012362,526.9,-0.00019375,-0.025746,0.066192
23960,3.3283,1.7273,0.1,0.00050653,5061.8,0.0005143,5347.5,-0.0001135,630.48,-0.00019741,-0.006792,0.063519
23961,3.4208,1.6364,0.1,0.00050626,5059.1,0.00051363,5324.8,-0.00011763,581.69,-0.00019505,-0.011936,0.066738
23962,3.3283,1.9091,0.1,0.00050331,5029.6,0.0005114,5334.5,-0.00010824,678.77,-0.00019857,0.003211,0.063943
23963,3.4208,1.8182,0.1,0.00050288,5025.3,0.00051063,5311,-0.00011224,631.02,-0.00019622,-0.0010018,0.067208
23964,3.3283,2.0909,0.1,0.00050057,5002.3,0.00050892,5323.5,-0.0001037,720.5,-0.00019959,0.010978,0.064296
23965,3.4208,2,0.1,0.00049996,4996.2,0.00050801,5299.1,-0.00010751,674.34,-0.00019726,0.0076105,0.067604
23966,3.3283,2.2727,0.1,0.00049833,4979.9,0.00050686,5314.4,-9.992e-05,755.24,-0.00020043,0.016861,0.06458
23967,3.4208,2.1818,0.1,0.00049752,4971.8,0.00050579,5289.1,-0.0001035,711.15,-0.00019814,0.014261,0.067929
23968,3.3283,2.4545,0.1,0.00049659,4962.5,0.00050525,5307.3,-9.6946e-05,782.61,-0.0002011,0.021144,0.064799
23969,3.4208,2.3636,0.1,0.00049557,4952.2,0.00050399,5281,-0.00010024,741.06,-0.00019886,0.019242,0.068186
23970,3.3283,2.6364,0.1,0.00049534,4950,0.00050409,5302.2,-9.4803e-05,802.36,-0.00020159,0.024046,0.064954
23971,3.4208,2.5455,0.1,0.0004941,4937.6,0.00050264,5275,-9.7766e-05,763.76,-0.00019941,0.022779,0.068378
23972,3.3283,2.8182,0.1,0.0004946,4942.6,0.00050339,5299.2,-9.351e-05,814.28,-0.00020188,0.025725,0.065047
23973,3.4208,2.7273,0.1,0.00049312,4927.8,0.00050173,5270.9,-9.6105e-05,779.02,-0.00019978,0.025043,0.068504
23974,3.3283,3,0.1,0.00049435,4940.1,0.00050316,5298.1,-9.3078e-05,818.26,-0.00020198,0.026274,0.065078
23975,3.4208,2.9091,0.1,0.00049263,4922.9,0.00050127,5268.9,-9.5272e-05,786.68,-0.00019997,0.026146,0.068567
23976,3.3283,3.1818,0.1,0.0004946,4942.6,0.00050339,5299.2,-9.351e-05,814.28,-0.00020188,0.025725,0.065047
23977,3.4208,3.0909,0.1,0.00049263,4922.9,0.00050127,5268.9,-9.5272e-05,786.68,-0.00019997,0.026146,0.068567
23978,3.3283,3.3636,0.1,0.00049534,4950,0.00050409,5302.2,-9.4803e-05,802.36,-0.00020159,0.024046,0.064954
23979,3.4208,3.2727,0.1,0.00049312,4927.8,0.00050173,5270.9,-9.6105e-05,779.02,-0.00019978,0.025043,0.068504
23980,3.3283,3.5455,0.1,0.00049659,4962.5,0.00050525,5307.3,-9.6946e-05,782.61,-0.0002011,0.021144,0.064799
23981,3.4208,3.4545,0.1,0.0004941,4937.6,0.00050264,5275,-9.7766e-05,763.76,-0.00019941,0.022779,0.068378
23982,3.3283,3.7273,0.1,0.00049833,4979.9,0.00050686,5314.4,-9.992e-05,755.24,-0.00020043,0.016861,0.06458
23983,3.4208,3.6364,0.1,0.00049557,4952.2,0.00050399,5281,-0.00010024,741.06,-0.00019886,0.019242,0.068186
23984,3.3283,3.9091,0.1,0.00050057,5002.3,0.00050892,5323.5,-0.0001037,720.5,-0.00019959,0.010978,0.064296
23985,3.4208,3.8182,0.1,0.00049752,4971.8,0.00050579,5289.1,-0.0001035,711.15,-0.00019814,0.014261,0.067929
23986,3.3283,4.0909,0.1,0.00050331,5029.6,0.0005114,5334.5,-0.00010824,678.77,-0.00019857,0.0032113,0.063943
23987,3.4208,4,0.1,0.00049996,4996.2,0.00050801,5299.1,-0.00010751,674.34,-0.00019726,0.0076108,0.067604
23988,3.3283,4.2727,0.1,0.00050653,5061.8,0.0005143,5347.5,-0.0001135,630.48,-0.00019741,-0.0067914,0.063519
23989,3.4208,4.1818,0.1,0.00050288,5025.3,0.00051063,5311,-0.00011224,631.02,-0.00019622,-0.0010014,0.067208
23990,3.3283,4.4545,0.1,0.00051022,5098.7,0.00051757,5362.3,-0.00011942,576.2,-0.00019611,-0.019516,0.063022
23991,3.4208,4.3636,0.1,0.00050626,5059.1,0.00051363,5324.8,-0.00011763,581.69,-0.00019505,-0.011935,0.066738
23992,3.3283,4.6364,0.1,0.00051437,5140.1,0.0005212,5378.9,-0.00012593,516.57,-0.00019469,-0.035519,0.062446
23993,3.4208,4.5455,0.1,0.00051008,5097.2,0.00051699,5340.2,-0.00012362,526.9,-0.00019375,-0.025746,0.066192
23994,3.3283,4.8182,0.1,0.00051893,5185.7,0.00052514,5397,-0.00013296,452.29,-0.00019317,-0.056107,0.061789
23995,3.4208,4.7273,0.1,0.00051432,5139.6,0.00052067,5357.3,-0.00013015,467.32,-0.00019235,-0.042954,0.065564
23996,3.3283,5,0.1,0.00052387,5235.1,0.00052935,5416.6,-0.00014042,384.16,-0.00019156,-0.081691,0.061045
23997,3.4208,4.9091,0.1,0.00051894,5185.8,0.00052462,5375.8,-0.00013713,403.66,-0.00019086,-0.065607,0.064852
23998,3.3283,5.1818,0.1,0.00052915,5287.9,0.00053378,5437.4,-0.00014823,313.01,-0.00018991,-0.12117,0.060209
23999,3.4208,5.0909,0.1,0.0005239,5235.4,0.00052881,5395.5,-0.00014448,336.7,-0.0001893,-0.092621,0.064051
24000,3.3283,5.3636,0.1,0.00053471,5343.5,0.00053838,5459.2,-0.00015629,239.69,-0.00018821,-0.16028,0.059277
24001,3.4208,5.2727,0.1,0.00052915,5287.9,0.00053319,5416.3,-0.00015212,267.21,-0.0001877,-0.14272,0.063155
24002,3.3283,5.5455,0.1,0.00054052,5401.4,0.00054313,5481.8,-0.00016451,164.89,-0.0001865,-0.34644,0.058244
24003,3.4208,5.4545,0.1,0.00053465,5342.8,0.00053771,5438,-0.00015996,196.01,-0.00018607,-0.17166,0.06216
24004,3.3283,5.7273,0.1,0.00054666,5462.8,0.0005481,5506.2,-0.00017297,88.383,-0.00018481,-0.58583,0.057103
24005,3.4208,5.6364,0.1,0.00054035,5399.8,0.00054234,5460.3,-0.00016793,123.59,-0.00018445,-0.5172,0.06106
24006,3.4208,5.8182,0.1,0.00054647,5460.9,0.00054728,5485,-0.00017616,49.352,-0.00018285,-0.86729,0.059851
24007,3.3283,5.9091,0.1,0.00055134,5509.6,0.00055176,5521.9,-0.00017981,25.199,-0.00018322,-0.41459,0.055849
24008,3.5132,0.27273,0.1,0.00054016,5397.9,0.00054153,5439.2,-0.00017118,84.161,-0.00018245,-0.51623,0.06393
24009,3.6057,0.18182,0.1,0.00053974,5393.7,0.00054053,5417.2,-0.00017406,48.003,-0.00018055,-0.73163,0.066852
24010,3.5132,0.090909,0.1,0.00054463,5442.6,0.00054505,5454.8,-0.00017762,24.962,-0.000181,-0.37797,0.062652
24011,3.5132,0.45455,0.1,0.00053448,5341.1,0.00053693,5416.5,-0.00016339,154.58,-0.00018401,-0.31394,0.065095
24012,3.6057,0.36364,0.1,0.0005341,5337.3,0.00053598,5394.3,-0.00016648,116.34,-0.00018202,-0.46918,0.068084
24013,3.5132,0.63636,0.1,0.00052908,5287.1,0.00053252,5395.2,-0.0001558,223.42,-0.00018556,-0.14473,0.066154
24014,3.6057,0.54545,0.1,0.0005288,5284.4,0.00053167,5373.4,-0.00015912,183.06,-0.00018351,-0.15444,0.069207
24015,3.5132,0.81818,0.1,0.00052389,5235.3,0.00052823,5374.6,-0.00014838,290.8,-0.0001871,-0.10988,0.067111
24016,3.6057,0.72727,0.1,0.00052369,5233.2,0.00052747,5353,-0.0001519,248.55,-0.00018499,-0.12941,0.070225
24017,3.5132,1,0.1,0.00051896,5186,0.00052409,5354.8,-0.00014119,356.11,-0.0001886,-0.074138,0.067971
24018,3.6057,0.90909,0.1,0.00051878,5184.3,0.00052339,5333.3,-0.00014486,312.38,-0.00018645,-0.083998,0.071144
24019,3.5132,1.1818,0.1,0.00051432,5139.6,0.00052016,5336.1,-0.00013432,418.63,-0.00019004,-0.050933,0.068739
24020,3.6057,1.0909,0.1,0.00051414,5137.9,0.00051948,5314.6,-0.00013809,373.85,-0.00018785,-0.059573,0.071969
24021,3.5132,1.3636,0.1,0.00051002,5096.7,0.00051647,5318.7,-0.00012784,477.61,-0.00019141,-0.032125,0.069419
24022,3.6057,1.2727,0.1,0.00050981,5094.6,0.00051578,5296.9,-0.00013166,432.26,-0.0001892,-0.038948,0.072703
24023,3.5132,1.5455,0.1,0.00050611,5057.6,0.00051306,5302.7,-0.00012184,532.36,-0.00019269,-0.01738,0.070015
24024,3.6057,1.4545,0.1,0.00050582,5054.7,0.00051234,5280.5,-0.00012565,486.94,-0.00019046,-0.023178,0.073351
24025,3.5132,1.7273,0.1,0.0005026,5022.5,0.00050997,5288.3,-0.00011637,582.22,-0.00019386,-0.005529,0.070532
24026,3.6057,1.6364,0.1,0.00050221,5018.6,0.00050918,5265.6,-0.00012012,537.23,-0.00019163,-0.010407,0.073917
24027,3.5132,1.9091,0.1,0.00049953,4991.8,0.00050723,5275.6,-0.00011151,626.62,-0.00019491,0.0039028,0.070973
24028,3.6057,1.8182,0.1,0.000499,4986.6,0.00050635,5252.3,-0.00011515,582.56,-0.00019268,-0.0001891,0.074404
24029,3.5132,2.0909,0.1,0.00049691,4965.7,0.00050487,5264.7,-0.0001073,665.04,-0.00019581,0.011323,0.071341
24030,3.6057,2,0.1,0.00049623,4958.8,0.00050387,5240.6,-0.00011078,622.39,-0.00019361,0.0079538,0.074815
24031,3.5132,2.2727,0.1,0.00049475,4944.1,0.00050291,5255.7,-0.0001038,697.05,-0.00019657,0.017019,0.071638
24032,3.6057,2.1818,0.1,0.00049389,4935.5,0.00050177,5230.8,-0.00010707,656.27,-0.00019441,0.014318,0.075153
24033,3.5132,2.4545,0.1,0.00049307,4927.3,0.00050137,5248.6,-0.00010104,722.3,-0.00019717,0.021218,0.071867
24034,3.6057,2.3636,0.1,0.00049202,4916.8,0.00050007,5222.9,-0.00010405,683.82,-0.00019505,0.01914,0.075421
24035,3.5132,2.6364,0.1,0.00049187,4915.3,0.00050026,5243.6,-9.9054e-05,740.53,-0.00019761,0.024092,0.072029
24036,3.6057,2.5455,0.1,0.00049061,4902.7,0.00049878,5216.9,-0.00010176,704.74,-0.00019555,0.0226,0.075621
24037,3.5132,2.8182,0.1,0.00049115,4908.1,0.0004996,5240.5,-9.7852e-05,751.54,-0.00019787,0.025768,0.072126
24038,3.6057,2.7273,0.1,0.00048966,4893.3,0.00049791,5212.9,-0.00010021,718.82,-0.00019588,0.024832,0.075753
24039,3.5132,3,0.1,0.00049091,4905.7,0.00049937,5239.5,-9.745e-05,755.22,-0.00019796,0.026318,0.072158
24040,3.6057,2.9091,0.1,0.00048919,4888.5,0.00049748,5210.9,-9.944e-05,725.89,-0.00019605,0.025926,0.075819
24041,3.5132,3.1818,0.1,0.00049115,4908.1,0.0004996,5240.5,-9.7852e-05,751.54,-0.00019787,0.025768,0.072126
24042,3.6057,3.0909,0.1,0.00048919,4888.5,0.00049748,5210.9,-9.944e-05,725.89,-0.00019605,0.025926,0.075819
24043,3.5132,3.3636,0.1,0.00049187,4915.3,0.00050026,5243.6,-9.9054e-05,740.53,-0.00019761,0.024093,0.072029
24044,3.6057,3.2727,0.1,0.00048966,4893.3,0.00049791,5212.9,-0.00010021,718.82,-0.00019588,0.024832,0.075753
24045,3.5132,3.5455,0.1,0.00049307,4927.3,0.00050137,5248.6,-0.00010104,722.3,-0.00019717,0.021218,0.071867
24046,3.6057,3.4545,0.1,0.00049061,4902.7,0.00049878,5216.9,-0.00010176,704.74,-0.00019555,0.0226,0.075621
24047,3.5132,3.7273,0.1,0.00049475,4944.1,0.00050291,5255.7,-0.0001038,697.05,-0.00019657,0.01702,0.071638
24048,3.6057,3.6364,0.1,0.00049202,4916.8,0.00050007,5222.9,-0.00010405,683.82,-0.00019505,0.019141,0.075421
24049,3.5132,3.9091,0.1,0.00049691,4965.7,0.00050487,5264.7,-0.0001073,665.04,-0.00019581,0.011324,0.071341
24050,3.6057,3.8182,0.1,0.00049389,4935.5,0.00050177,5230.8,-0.00010707,656.27,-0.00019441,0.014319,0.075153
24051,3.5132,4.0909,0.1,0.00049953,4991.8,0.00050723,5275.6,-0.00011151,626.62,-0.00019491,0.0039031,0.070973
24052,3.6057,4,0.1,0.00049623,4958.8,0.00050387,5240.6,-0.00011078,622.39,-0.00019361,0.0079541,0.074815
24053,3.5132,4.2727,0.1,0.0005026,5022.5,0.00050997,5288.3,-0.00011637,582.22,-0.00019386,-0.0055286,0.070532
24054,3.6057,4.1818,0.1,0.000499,4986.6,0.00050635,5252.3,-0.00011515,582.56,-0.00019268,-0.0001887,0.074404
24055,3.5132,4.4545,0.1,0.00050611,5057.6,0.00051306,5302.7,-0.00012184,532.36,-0.00019269,-0.017379,0.070015
24056,3.6057,4.3636,0.1,0.00050221,5018.6,0.00050918,5265.6,-0.00012012,537.23,-0.00019163,-0.010407,0.073917
24057,3.5132,4.6364,0.1,0.00051002,5096.7,0.00051647,5318.7,-0.00012784,477.61,-0.00019141,-0.032124,0.069419
24058,3.6057,4.5455,0.1,0.00050582,5054.7,0.00051234,5280.5,-0.00012565,486.94,-0.00019046,-0.023177,0.073351
24059,3.5132,4.8182,0.1,0.00051432,5139.6,0.00052016,5336.1,-0.00013432,418.63,-0.00019004,-0.050932,0.068739
24060,3.6057,4.7273,0.1,0.00050981,5094.6,0.00051578,5296.9,-0.00013166,432.26,-0.0001892,-0.038948,0.072703
24061,3.5132,5,0.1,0.00051896,5186,0.00052409,5354.8,-0.00014119,356.11,-0.0001886,-0.074138,0.067971
24062,3.6057,4.9091,0.1,0.00051414,5137.9,0.00051948,5314.6,-0.00013809,373.85,-0.00018785,-0.059573,0.071969
24063,3.5132,5.1818,0.1,0.00052389,5235.3,0.00052823,5374.6,-0.00014838,290.8,-0.0001871,-0.10988,0.067111
24064,3.6057,5.0909,0.1,0.00051878,5184.3,0.00052339,5333.3,-0.00014486,312.38,-0.00018645,-0.083997,0.071144
24065,3.5132,5.3636,0.1,0.00052908,5287.1,0.00053252,5395.2,-0.0001558,223.42,-0.00018556,-0.14473,0.066154
24066,3.6057,5.2727,0.1,0.00052369,5233.2,0.00052747,5353,-0.0001519,248.55,-0.00018499,-0.12941,0.070225
24067,3.5132,5.5455,0.1,0.00053448,5341.1,0.00053693,5416.5,-0.00016339,154.58,-0.00018401,-0.31394,0.065095
24068,3.6057,5.4545,0.1,0.0005288,5284.4,0.00053167,5373.4,-0.00015912,183.06,-0.00018351,-0.15444,0.069207
24069,3.5132,5.7273,0.1,0.00054016,5397.9,0.00054153,5439.2,-0.00017118,84.161,-0.00018245,-0.51623,0.06393
24070,3.6057,5.6364,0.1,0.0005341,5337.3,0.00053598,5394.3,-0.00016648,116.34,-0.00018202,-0.46918,0.068084
24071,3.6057,5.8182,0.1,0.00053974,5393.7,0.00054053,5417.2,-0.00017406,48.003,-0.00018055,-0.73163,0.066852
24072,3.5132,5.9091,0.1,0.00054463,5442.6,0.00054505,5454.8,-0.00017762,24.962,-0.000181,-0.37797,0.062652
24073,3.6981,0.27273,0.1,0.00053368,5333.1,0.00053499,5372.4,-0.00016941,79.856,-0.00018009,-0.45655,0.071126
24074,3.7906,0.18182,0.1,0.00053306,5327,0.00053383,5349.7,-0.000172,46.352,-0.00017825,-0.62208,0.074222
24075,3.6981,0.090909,0.1,0.00053794,5375.7,0.00053835,5387.7,-0.00017546,24.46,-0.00017876,-0.34606,0.069828
24076,3.6981,0.45455,0.1,0.00052842,5280.6,0.00053073,5351.3,-0.00016222,144.71,-0.00018152,-0.28482,0.072313
24077,3.7906,0.36364,0.1,0.00052786,5275,0.00052963,5328.5,-0.00016501,109.29,-0.00017962,-0.42614,0.075473
24078,3.6981,0.63636,0.1,0.0005234,5230.4,0.00052663,5331.3,-0.00015523,208.1,-0.00018294,-0.13081,0.073393
24079,3.7906,0.54545,0.1,0.00052294,5225.8,0.00052563,5309,-0.00015822,170.78,-0.00018097,-0.13911,0.076616
24080,3.6981,0.81818,0.1,0.00051857,5182.2,0.00052264,5311.9,-0.00014839,270.05,-0.00018434,-0.0997,0.074372
24081,3.7906,0.72727,0.1,0.00051818,5178.2,0.00052172,5289.8,-0.00015156,231.05,-0.00018233,-0.11741,0.077655
24082,3.6981,1,0.1,0.00051397,5136.1,0.00051879,5293.2,-0.00014177,330.04,-0.0001857,-0.067292,0.075254
24083,3.7906,0.90909,0.1,0.00051361,5132.6,0.00051793,5271.3,-0.00014508,289.72,-0.00018365,-0.076197,0.078595
24084,3.6981,1.1818,0.1,0.00050963,5092.8,0.00051511,5275.4,-0.00013544,387.42,-0.00018701,-0.04623,0.076043
24085,3.7906,1.0909,0.1,0.00050928,5089.3,0.00051429,5253.5,-0.00013884,346.16,-0.00018492,-0.05409,0.079439
24086,3.6981,1.3636,0.1,0.0005056,5052.5,0.00051166,5258.8,-0.00012947,441.54,-0.00018824,-0.029057,0.076744
24087,3.7906,1.2727,0.1,0.00050523,5048.8,0.00051084,5236.8,-0.00013293,399.77,-0.00018614,-0.035309,0.080193
24088,3.6981,1.5455,0.1,0.00050192,5015.7,0.00050847,5243.5,-0.00012394,491.79,-0.0001894,-0.015503,0.077359
24089,3.7906,1.4545,0.1,0.00050149,5011.4,0.00050762,5221.2,-0.00012739,449.94,-0.00018728,-0.020875,0.08086
24090,3.6981,1.7273,0.1,0.00049861,4982.6,0.00050557,5229.6,-0.0001189,537.56,-0.00019045,-0.0045161,0.077894
24091,3.7906,1.6364,0.1,0.00049809,4977.4,0.00050467,5206.9,-0.0001223,496.09,-0.00018833,-0.0091018,0.081443
24092,3.6981,1.9091,0.1,0.0004957,4953.6,0.000503,5217.3,-0.00011442,578.34,-0.00019139,0.0043141,0.07835
24093,3.7906,1.8182,0.1,0.00049506,4947.2,0.00050201,5194.1,-0.00011772,537.7,-0.00018928,0.00039715,0.081945
24094,3.6981,2.0909,0.1,0.00049321,4928.7,0.00050077,5206.8,-0.00011053,613.65,-0.00019221,0.011334,0.078731
24095,3.7906,2,0.1,0.00049244,4921,0.00049969,5182.9,-0.00011369,574.28,-0.00019012,0.0080369,0.08237
24096,3.6981,2.2727,0.1,0.00049116,4908.2,0.00049892,5198,-0.0001073,643.09,-0.00019289,0.016778,0.07904
24097,3.7906,2.1818,0.1,0.00049023,4898.9,0.00049771,5173.5,-0.00011026,605.41,-0.00019083,0.014065,0.082721
24098,3.6981,2.4545,0.1,0.00048955,4892.1,0.00049747,5191.1,-0.00010475,666.33,-0.00019343,0.02083,0.079277
24099,3.7906,2.3636,0.1,0.00048844,4881,0.0004961,5165.8,-0.00010747,630.74,-0.00019141,0.018674,0.082998
24100,3.6981,2.6364,0.1,0.0004884,4880.6,0.00049642,5186.2,-0.0001029,683.12,-0.00019382,0.023626,0.079446
24101,3.7906,2.5455,0.1,0.0004871,4867.6,0.00049489,5160,-0.00010535,649.98,-0.00019186,0.022006,0.083205
24102,3.6981,2.8182,0.1,0.0004877,4873.7,0.00049578,5183.2,-0.00010179,693.26,-0.00019405,0.025265,0.079547
24103,3.7906,2.7273,0.1,0.0004862,4858.6,0.00049407,5156,-0.00010393,662.93,-0.00019216,0.02417,0.083342
24104,3.6981,3,0.1,0.00048747,4871.4,0.00049557,5182.2,-0.00010142,696.65,-0.00019413,0.025806,0.07958
24105,3.7906,2.9091,0.1,0.00048574,4854.1,0.00049366,5154.1,-0.00010321,669.44,-0.00019231,0.025235,0.08341
24106,3.6981,3.1818,0.1,0.0004877,4873.7,0.00049578,5183.2,-0.00010179,693.26,-0.00019405,0.025266,0.079547
24107,3.7906,3.0909,0.1,0.00048574,4854.1,0.00049366,5154.1,-0.00010321,669.44,-0.00019231,0.025235,0.08341
24108,3.6981,3.3636,0.1,0.0004884,4880.6,0.00049642,5186.2,-0.0001029,683.12,-0.00019382,0.023626,0.079446
24109,3.7906,3.2727,0.1,0.0004862,4858.6,0.00049407,5156,-0.00010393,662.93,-0.00019216,0.02417,0.083342
24110,3.6981,3.5455,0.1,0.00048955,4892.1,0.00049747,5191.1,-0.00010475,666.33,-0.00019343,0.02083,0.079277
24111,3.7906,3.4545,0.1,0.0004871,4867.6,0.00049489,5160,-0.00010535,649.98,-0.00019186,0.022006,0.083205
24112,3.6981,3.7273,0.1,0.00049116,4908.2,0.00049892,5198,-0.0001073,643.09,-0.00019289,0.016779,0.07904
24113,3.7906,3.6364,0.1,0.00048844,4881,0.0004961,5165.8,-0.00010747,630.74,-0.00019141,0.018674,0.082998
24114,3.6981,3.9091,0.1,0.00049321,4928.7,0.00050077,5206.8,-0.00011053,613.65,-0.00019221,0.011334,0.078731
24115,3.7906,3.8182,0.1,0.00049023,4898.9,0.00049771,5173.5,-0.00011026,605.41,-0.00019083,0.014065,0.082721
24116,3.6981,4.0909,0.1,0.0004957,4953.6,0.000503,5217.3,-0.00011442,578.34,-0.00019139,0.0043144,0.07835
24117,3.7906,4,0.1,0.00049244,4921,0.00049969,5182.9,-0.00011369,574.28,-0.00019012,0.0080372,0.08237
24118,3.6981,4.2727,0.1,0.00049861,4982.6,0.00050557,5229.6,-0.0001189,537.56,-0.00019045,-0.0045157,0.077894
24119,3.7906,4.1818,0.1,0.00049506,4947.2,0.00050201,5194.1,-0.00011772,537.7,-0.00018928,0.00039762,0.081945
24120,3.6981,4.4545,0.1,0.00050192,5015.7,0.00050847,5243.5,-0.00012394,491.79,-0.0001894,-0.015503,0.077359
24121,3.7906,4.3636,0.1,0.00049809,4977.4,0.00050467,5206.9,-0.0001223,496.09,-0.00018833,-0.0091013,0.081443
24122,3.6981,4.6364,0.1,0.0005056,5052.5,0.00051166,5258.8,-0.00012947,441.54,-0.00018824,-0.029057,0.076744
24123,3.7906,4.5455,0.1,0.00050149,5011.4,0.00050762,5221.2,-0.00012739,449.94,-0.00018728,-0.020874,0.08086
24124,3.6981,4.8182,0.1,0.00050963,5092.8,0.00051511,5275.4,-0.00013544,387.42,-0.00018701,-0.046229,0.076043
24125,3.7906,4.7273,0.1,0.00050523,5048.8,0.00051084,5236.8,-0.00013293,399.77,-0.00018614,-0.035308,0.080193
24126,3.6981,5,0.1,0.00051397,5136.1,0.00051879,5293.2,-0.00014177,330.04,-0.0001857,-0.067291,0.075254
24127,3.7906,4.9091,0.1,0.00050928,5089.3,0.00051429,5253.5,-0.00013884,346.16,-0.00018492,-0.054089,0.079439
24128,3.6981,5.1818,0.1,0.00051857,5182.2,0.00052264,5311.9,-0.00014839,270.05,-0.00018434,-0.099699,0.074372
24129,3.7906,5.0909,0.1,0.00051361,5132.6,0.00051793,5271.3,-0.00014508,289.72,-0.00018365,-0.076196,0.078595
24130,3.6981,5.3636,0.1,0.0005234,5230.4,0.00052663,5331.3,-0.00015523,208.1,-0.00018294,-0.13081,0.073393
24131,3.7906,5.2727,0.1,0.00051818,5178.2,0.00052172,5289.8,-0.00015156,231.05,-0.00018233,-0.11741,0.077655
24132,3.6981,5.5455,0.1,0.00052842,5280.6,0.00053073,5351.3,-0.00016222,144.71,-0.00018152,-0.28481,0.072313
24133,3.7906,5.4545,0.1,0.00052294,5225.8,0.00052563,5309,-0.00015822,170.78,-0.00018097,-0.13911,0.076616
24134,3.6981,5.7273,0.1,0.00053368,5333.1,0.00053499,5372.4,-0.00016941,79.856,-0.00018009,-0.45655,0.071126
24135,3.7906,5.6364,0.1,0.00052786,5275,0.00052963,5328.5,-0.00016501,109.29,-0.00017962,-0.42614,0.075473
24136,3.7906,5.8182,0.1,0.00053306,5327,0.00053383,5349.7,-0.000172,46.352,-0.00017825,-0.62207,0.074222
24137,3.6981,5.9091,0.1,0.00053794,5375.7,0.00053835,5387.7,-0.00017546,24.46,-0.00017876,-0.34606,0.069828
24138,3.883,0.27273,0.1,0.00052724,5268.8,0.00052848,5305.9,-0.00016765,75.513,-0.00017775,-0.40508,0.078687
24139,3.9755,0.18182,0.1,0.00052644,5260.8,0.00052718,5282.6,-0.00016998,44.463,-0.00017597,-0.53271,0.081955
24140,3.883,0.090909,0.1,0.00053128,5309.1,0.00053167,5320.8,-0.00017332,23.744,-0.00017652,-0.31793,0.077371
24141,3.883,0.45455,0.1,0.00052237,5220.1,0.00052454,5286.3,-0.00016102,135.27,-0.00017906,-0.25863,0.079892
24142,3.9755,0.36364,0.1,0.00052164,5212.8,0.0005233,5263.1,-0.00016354,102.45,-0.00017722,-0.38747,0.083223
24143,3.883,0.63636,0.1,0.00051771,5173.5,0.00052073,5267.6,-0.00015457,193.66,-0.00018036,-0.11832,0.080992
24144,3.9755,0.54545,0.1,0.00051707,5167.1,0.00051959,5244.8,-0.00015727,159.15,-0.00017847,-0.12543,0.084384
24145,3.883,0.81818,0.1,0.00051322,5128.6,0.00051702,5249.3,-0.00014826,250.65,-0.00018163,-0.090493,0.08199
24146,3.9755,0.72727,0.1,0.00051265,5123,0.00051596,5226.8,-0.00015112,214.63,-0.0001797,-0.10659,0.085441
24147,3.883,1,0.1,0.00050893,5085.8,0.00051344,5231.7,-0.00014217,305.77,-0.00018287,-0.061079,0.082891
24148,3.9755,0.90909,0.1,0.0005084,5080.5,0.00051244,5209.4,-0.00014515,268.57,-0.00018091,-0.069142,0.086399
24149,3.883,1.1818,0.1,0.00050488,5045.3,0.00051002,5214.9,-0.00013634,358.45,-0.00018405,-0.041952,0.083699
24150,3.9755,1.0909,0.1,0.00050437,5040.2,0.00050905,5192.7,-0.00013941,320.42,-0.00018206,-0.049115,0.087261
24151,3.883,1.3636,0.1,0.00050111,5007.6,0.0005068,5199.2,-0.00013085,408.12,-0.00018517,-0.026281,0.084417
24152,3.9755,1.2727,0.1,0.00050058,5002.4,0.00050584,5176.9,-0.00013397,369.62,-0.00018317,-0.032011,0.088032
24153,3.883,1.5455,0.1,0.00049766,4973.1,0.00050382,5184.6,-0.00012576,454.22,-0.00018621,-0.013845,0.08505
24154,3.9755,1.4545,0.1,0.00049708,4967.4,0.00050285,5162.2,-0.00012887,415.65,-0.0001842,-0.018814,0.088715
24155,3.883,1.7273,0.1,0.00049455,4942,0.00050111,5171.4,-0.00012112,496.22,-0.00018716,-0.0036948,0.0856
24156,3.9755,1.6364,0.1,0.0004939,4935.6,0.00050009,5148.6,-0.00012419,457.99,-0.00018515,-0.0079876,0.089313
24157,3.883,1.9091,0.1,0.0004918,4914.7,0.0004987,5159.7,-0.00011699,533.64,-0.00018801,0.0045254,0.08607
24158,3.9755,1.8182,0.1,0.00049106,4907.2,0.00049762,5136.5,-0.00011997,496.16,-0.000186,0.00080563,0.08983
24159,3.883,2.0909,0.1,0.00048945,4891.2,0.00049662,5149.6,-0.00011341,566.06,-0.00018875,0.011114,0.086463
24160,3.9755,2,0.1,0.00048859,4882.5,0.00049544,5125.8,-0.00011626,529.73,-0.00018676,0.0079293,0.090267
24161,3.883,2.2727,0.1,0.00048751,4871.8,0.00049488,5141.2,-0.00011043,593.1,-0.00018936,0.016265,0.086782
24162,3.9755,2.1818,0.1,0.0004865,4861.7,0.00049359,5116.7,-0.0001131,558.3,-0.0001874,0.013592,0.090628
24163,3.883,2.4545,0.1,0.00048599,4856.5,0.00049352,5134.5,-0.00010807,614.45,-0.00018985,0.020127,0.087028
24164,3.9755,2.3636,0.1,0.00048482,4844.8,0.00049208,5109.4,-0.00011053,581.56,-0.00018793,0.017952,0.090914
24165,3.883,2.6364,0.1,0.00048489,4845.6,0.00049253,5129.7,-0.00010637,629.87,-0.0001902,0.022809,0.087203
24166,3.9755,2.5455,0.1,0.00048354,4832.1,0.00049094,5103.8,-0.00010858,599.23,-0.00018833,0.021125,0.091127
24167,3.883,2.8182,0.1,0.00048424,4839,0.00049193,5126.9,-0.00010534,639.2,-0.00019041,0.024389,0.087307
24168,3.9755,2.7273,0.1,0.00048269,4823.6,0.00049017,5100,-0.00010726,611.13,-0.0001886,0.023195,0.091269
24169,3.883,3,0.1,0.00048402,4836.8,0.00049173,5125.9,-0.000105,642.32,-0.00019048,0.02491,0.087342
24170,3.9755,2.9091,0.1,0.00048226,4819.3,0.00048979,5098.1,-0.0001066,617.11,-0.00018873,0.024216,0.091339
24171,3.883,3.1818,0.1,0.00048424,4839,0.00049193,5126.9,-0.00010534,639.2,-0.00019041,0.024389,0.087307
24172,3.9755,3.0909,0.1,0.00048226,4819.3,0.00048979,5098.1,-0.0001066,617.11,-0.00018873,0.024216,0.091339
24173,3.883,3.3636,0.1,0.00048489,4845.6,0.00049253,5129.7,-0.00010637,629.87,-0.0001902,0.02281,0.087203
24174,3.9755,3.2727,0.1,0.00048269,4823.6,0.00049017,5100,-0.00010726,611.13,-0.0001886,0.023195,0.091269
24175,3.883,3.5455,0.1,0.00048599,4856.5,0.00049352,5134.5,-0.00010807,614.45,-0.00018985,0.020127,0.087028
24176,3.9755,3.4545,0.1,0.00048354,4832.1,0.00049094,5103.8,-0.00010858,599.23,-0.00018833,0.021125,0.091127
24177,3.883,3.7273,0.1,0.00048751,4871.8,0.00049488,5141.2,-0.00011043,593.1,-0.00018936,0.016266,0.086782
24178,3.9755,3.6364,0.1,0.00048482,4844.8,0.00049208,5109.4,-0.00011053,581.56,-0.00018793,0.017953,0.090914
24179,3.883,3.9091,0.1,0.00048945,4891.2,0.00049662,5149.6,-0.00011341,566.06,-0.00018875,0.011114,0.086463
24180,3.9755,3.8182,0.1,0.0004865,4861.7,0.00049359,5116.7,-0.0001131,558.3,-0.0001874,0.013592,0.090628
24181,3.883,4.0909,0.1,0.0004918,4914.7,0.0004987,5159.7,-0.00011699,533.64,-0.00018801,0.0045258,0.08607
24182,3.9755,4,0.1,0.00048859,4882.5,0.00049544,5125.8,-0.00011626,529.73,-0.00018676,0.0079296,0.090267
24183,3.883,4.2727,0.1,0.00049455,4942,0.00050111,5171.4,-0.00012112,496.22,-0.00018716,-0.0036943,0.0856
24184,3.9755,4.1818,0.1,0.00049106,4907.2,0.00049762,5136.5,-0.00011997,496.16,-0.000186,0.00080618,0.08983
24185,3.883,4.4545,0.1,0.00049766,4973.1,0.00050382,5184.6,-0.00012576,454.22,-0.00018621,-0.013844,0.08505
24186,3.9755,4.3636,0.1,0.0004939,4935.6,0.00050009,5148.6,-0.00012419,457.99,-0.00018515,-0.007987,0.089313
24187,3.883,4.6364,0.1,0.00050111,5007.6,0.0005068,5199.2,-0.00013085,408.12,-0.00018517,-0.02628,0.084417
24188,3.9755,4.5455,0.1,0.00049708,4967.4,0.00050285,5162.2,-0.00012887,415.65,-0.0001842,-0.018813,0.088715
24189,3.883,4.8182,0.1,0.00050488,5045.3,0.00051002,5214.9,-0.00013634,358.45,-0.00018405,-0.041951,0.083699
24190,3.9755,4.7273,0.1,0.00050058,5002.4,0.00050584,5176.9,-0.00013397,369.62,-0.00018317,-0.03201,0.088032
24191,3.883,5,0.1,0.00050893,5085.8,0.00051344,5231.7,-0.00014217,305.77,-0.00018287,-0.061078,0.082891
24192,3.9755,4.9091,0.1,0.00050437,5040.2,0.00050905,5192.7,-0.00013941,320.42,-0.00018206,-0.049114,0.087261
24193,3.883,5.1818,0.1,0.00051322,5128.6,0.00051702,5249.3,-0.00014826,250.65,-0.00018163,-0.090492,0.08199
24194,3.9755,5.0909,0.1,0.0005084,5080.5,0.00051244,5209.4,-0.00014515,268.57,-0.00018091,-0.06914,0.086399
24195,3.883,5.3636,0.1,0.00051771,5173.5,0.00052073,5267.6,-0.00015457,193.66,-0.00018036,-0.11832,0.080992
24196,3.9755,5.2727,0.1,0.00051265,5123,0.00051596,5226.8,-0.00015112,214.63,-0.0001797,-0.10659,0.085441
24197,3.883,5.5455,0.1,0.00052237,5220.1,0.00052454,5286.3,-0.00016102,135.27,-0.00017906,-0.25863,0.079892
24198,3.9755,5.4545,0.1,0.00051707,5167.1,0.00051959,5244.8,-0.00015727,159.15,-0.00017847,-0.12543,0.084384
24199,3.883,5.7273,0.1,0.00052724,5268.8,0.00052848,5305.9,-0.00016765,75.513,-0.00017775,-0.40507,0.078687
24200,3.9755,5.6364,0.1,0.00052164,5212.8,0.0005233,5263.1,-0.00016354,102.45,-0.00017722,-0.38746,0.083223
24201,3.9755,5.8182,0.1,0.00052644,5260.8,0.00052718,5282.6,-0.00016998,44.463,-0.00017597,-0.53271,0.081955
24202,3.883,5.9091,0.1,0.00053128,5309.1,0.00053167,5320.8,-0.00017332,23.744,-0.00017652,-0.31793,0.077371
24203,4.0679,0.27273,0.1,0.00052084,5204.8,0.00052201,5239.9,-0.0001659,71.173,-0.00017542,-0.36047,0.086609
24204,4.1604,0.18182,0.1,0.00051989,5195.3,0.00052059,5216.1,-0.00016799,42.395,-0.0001737,-0.45922,0.090049
24205,4.0679,0.090909,0.1,0.00052466,5243,0.00052504,5254.2,-0.00017121,22.861,-0.00017429,-0.29294,0.085278
24206,4.0679,0.45455,0.1,0.00051634,5159.8,0.00051837,5221.7,-0.00015979,126.25,-0.00017663,-0.23505,0.08783
24207,4.1604,0.36364,0.1,0.00051546,5151,0.00051701,5198.1,-0.00016205,95.841,-0.00017485,-0.35261,0.091331
24208,4.0679,0.63636,0.1,0.00051201,5116.6,0.00051483,5204.2,-0.00015383,180.05,-0.00017781,-0.10711,0.088946
24209,4.1604,0.54545,0.1,0.00051121,5108.6,0.00051357,5181,-0.00015627,148.12,-0.00017599,-0.11321,0.092506
24210,4.0679,0.81818,0.1,0.00050783,5074.8,0.00051139,5187,-0.00014802,232.49,-0.00017898,-0.082177,0.089961
24211,4.1604,0.72727,0.1,0.00050711,5067.6,0.0005102,5164.2,-0.0001506,199.22,-0.00017712,-0.096819,0.093579
24212,4.0679,1,0.1,0.00050384,5034.9,0.00050806,5170.5,-0.00014241,283.16,-0.0001801,-0.055459,0.090879
24213,4.1604,0.90909,0.1,0.00050316,5028.1,0.00050693,5147.9,-0.0001451,248.83,-0.00017822,-0.062772,0.094552
24214,4.0679,1.1818,0.1,0.00050007,4997.3,0.00050488,5154.8,-0.00013705,331.54,-0.00018118,-0.038082,0.091703
24215,4.1604,1.0909,0.1,0.00049941,4990.6,0.00050379,5132.2,-0.00013981,296.46,-0.00017927,-0.044617,0.09543
24216,4.0679,1.3636,0.1,0.00049656,4962.1,0.00050189,5139.9,-0.000132,377.12,-0.00018219,-0.023786,0.092437
24217,4.1604,1.2727,0.1,0.00049588,4955.4,0.00050081,5117.4,-0.0001348,341.64,-0.00018027,-0.029041,0.096216
24218,4.0679,1.5455,0.1,0.00049333,4929.9,0.00049912,5126.2,-0.00012731,419.41,-0.00018313,-0.012393,0.093084
24219,4.1604,1.4545,0.1,0.00049262,4922.8,0.00049802,5103.5,-0.00013012,383.87,-0.00018121,-0.016985,0.096913
24220,4.0679,1.7273,0.1,0.00049042,4900.8,0.0004966,5113.7,-0.00012304,457.93,-0.00018399,-0.0030442,0.093648
24221,4.1604,1.6364,0.1,0.00048965,4893.1,0.00049546,5090.7,-0.00012581,422.71,-0.00018207,-0.0070489,0.097525
24222,4.0679,1.9091,0.1,0.00048785,4875.1,0.00049435,5102.5,-0.00011924,492.25,-0.00018476,0.0045734,0.094131
24223,4.1604,1.8182,0.1,0.00048699,4866.5,0.00049316,5079.2,-0.00012193,457.71,-0.00018284,0.0010632,0.098054
24224,4.0679,2.0909,0.1,0.00048564,4853,0.00049241,5092.9,-0.00011595,521.99,-0.00018542,0.010718,0.094535
24225,4.1604,2,0.1,0.00048467,4843.4,0.00049113,5069.1,-0.00011851,488.49,-0.00018353,0.0076729,0.098502
24226,4.0679,2.2727,0.1,0.00048381,4834.7,0.00049078,5084.9,-0.0001132,546.8,-0.00018597,0.015553,0.094863
24227,4.1604,2.1818,0.1,0.00048271,4823.8,0.0004894,5060.5,-0.00011561,514.69,-0.00018411,0.012958,0.098873
24228,4.0679,2.4545,0.1,0.00048237,4820.4,0.0004895,5078.6,-0.00011103,566.39,-0.00018641,0.019199,0.095116
24229,4.1604,2.3636,0.1,0.00048113,4808,0.000488,5053.5,-0.00011324,536.02,-0.00018458,0.01705,0.099166
24230,4.0679,2.6364,0.1,0.00048134,4810.1,0.00048858,5074,-0.00010946,580.55,-0.00018673,0.021743,0.095296
24231,4.1604,2.5455,0.1,0.00047993,4796,0.00048693,5048.2,-0.00011144,552.24,-0.00018494,0.020041,0.099386
24232,4.0679,2.8182,0.1,0.00048072,4803.9,0.00048802,5071.3,-0.00010852,589.1,-0.00018692,0.023247,0.095403
24233,4.1604,2.7273,0.1,0.00047913,4788,0.00048621,5044.6,-0.00011023,563.15,-0.00018518,0.022,0.099531
24234,4.0679,3,0.1,0.00048051,4801.8,0.00048783,5070.3,-0.0001082,591.97,-0.00018698,0.023744,0.095439
24235,4.1604,2.9091,0.1,0.00047872,4783.9,0.00048585,5042.8,-0.00010963,568.64,-0.0001853,0.02297,0.099604
24236,4.0679,3.1818,0.1,0.00048072,4803.9,0.00048802,5071.3,-0.00010852,589.1,-0.00018692,0.023247,0.095403
24237,4.1604,3.0909,0.1,0.00047872,4783.9,0.00048585,5042.8,-0.00010963,568.64,-0.0001853,0.02297,0.099604
24238,4.0679,3.3636,0.1,0.00048134,4810.1,0.00048858,5074,-0.00010946,580.55,-0.00018673,0.021744,0.095296
24239,4.1604,3.2727,0.1,0.00047913,4788,0.00048621,5044.6,-0.00011023,563.15,-0.00018518,0.022001,0.099531
24240,4.0679,3.5455,0.1,0.00048237,4820.4,0.0004895,5078.6,-0.00011103,566.39,-0.00018641,0.019199,0.095116
24241,4.1604,3.4545,0.1,0.00047993,4796,0.00048693,5048.2,-0.00011144,552.24,-0.00018494,0.020041,0.099386
24242,4.0679,3.7273,0.1,0.00048381,4834.7,0.00049078,5084.9,-0.0001132,546.8,-0.00018597,0.015554,0.094863
24243,4.1604,3.6364,0.1,0.00048113,4808,0.000488,5053.5,-0.00011324,536.02,-0.00018458,0.01705,0.099166
24244,4.0679,3.9091,0.1,0.00048564,4853,0.00049241,5092.9,-0.00011595,521.99,-0.00018542,0.010719,0.094535
24245,4.1604,3.8182,0.1,0.00048271,4823.8,0.0004894,5060.5,-0.00011561,514.69,-0.00018411,0.012958,0.098873
24246,4.0679,4.0909,0.1,0.00048785,4875.1,0.00049435,5102.5,-0.00011924,492.25,-0.00018476,0.0045739,0.094131
24247,4.1604,4,0.1,0.00048467,4843.4,0.00049113,5069.1,-0.00011851,488.49,-0.00018353,0.0076732,0.098502
24248,4.0679,4.2727,0.1,0.00049042,4900.8,0.0004966,5113.7,-0.00012304,457.93,-0.00018399,-0.0030436,0.093648
24249,4.1604,4.1818,0.1,0.00048699,4866.5,0.00049316,5079.2,-0.00012193,457.71,-0.00018284,0.0010638,0.098054
24250,4.0679,4.4545,0.1,0.00049333,4929.9,0.00049912,5126.2,-0.00012731,419.41,-0.00018313,-0.012392,0.093084
24251,4.1604,4.3636,0.1,0.00048965,4893.1,0.00049546,5090.7,-0.00012581,422.71,-0.00018207,-0.0070484,0.097525
24252,4.0679,4.6364,0.1,0.00049656,4962.1,0.00050189,5139.9,-0.000132,377.12,-0.00018219,-0.023785,0.092437
24253,4.1604,4.5455,0.1,0.00049262,4922.8,0.00049802,5103.5,-0.00013012,383.87,-0.00018121,-0.016984,0.096913
24254,4.0679,4.8182,0.1,0.00050007,4997.3,0.00050488,5154.8,-0.00013705,331.54,-0.00018118,-0.038082,0.091703
24255,4.1604,4.7273,0.1,0.00049588,4955.4,0.00050081,5117.4,-0.0001348,341.64,-0.00018027,-0.02904,0.096216
24256,4.0679,5,0.1,0.00050384,5034.9,0.00050806,5170.5,-0.00014241,283.16,-0.0001801,-0.055458,0.090879
24257,4.1604,4.9091,0.1,0.00049941,4990.6,0.00050379,5132.2,-0.00013981,296.46,-0.00017927,-0.044617,0.09543
24258,4.0679,5.1818,0.1,0.00050783,5074.8,0.00051139,5187,-0.00014802,232.49,-0.00017898,-0.082176,0.089961
24259,4.1604,5.0909,0.1,0.00050316,5028.1,0.00050693,5147.9,-0.0001451,248.83,-0.00017822,-0.062771,0.094552
24260,4.0679,5.3636,0.1,0.00051201,5116.6,0.00051483,5204.2,-0.00015383,180.05,-0.00017781,-0.10711,0.088946
24261,4.1604,5.2727,0.1,0.00050711,5067.6,0.0005102,5164.2,-0.0001506,199.22,-0.00017712,-0.096818,0.093579
24262,4.0679,5.5455,0.1,0.00051634,5159.8,0.00051837,5221.7,-0.00015979,126.25,-0.00017663,-0.23505,0.08783
24263,4.1604,5.4545,0.1,0.00051121,5108.6,0.00051357,5181,-0.00015627,148.12,-0.00017599,-0.11321,0.092506
24264,4.0679,5.7273,0.1,0.00052084,5204.8,0.00052201,5239.9,-0.0001659,71.173,-0.00017542,-0.36047,0.086609
24265,4.1604,5.6364,0.1,0.00051546,5151,0.00051701,5198.1,-0.00016205,95.841,-0.00017485,-0.35261,0.091331
24266,4.1604,5.8182,0.1,0.00051989,5195.3,0.00052059,5216.1,-0.00016799,42.395,-0.0001737,-0.45921,0.090049
24267,4.0679,5.9091,0.1,0.00052466,5243,0.00052504,5254.2,-0.00017121,22.861,-0.00017429,-0.29293,0.085278
24268,4.2528,0.27273,0.1,0.0005145,5141.4,0.0005156,5174.4,-0.00016417,66.869,-0.00017311,-0.32165,0.094887
24269,4.3453,0.18182,0.1,0.0005134,5130.4,0.00051406,5150.2,-0.00016604,40.197,-0.00017144,-0.39833,0.098498
24270,4.2528,0.090909,0.1,0.0005181,5177.4,0.00051846,5188.1,-0.00016913,21.848,-0.00017208,-0.2706,0.093544
24271,4.2528,0.45455,0.1,0.00051033,5099.8,0.00051222,5157.5,-0.00015853,117.64,-0.00017422,-0.21378,0.096121
24272,4.3453,0.36364,0.1,0.00050931,5089.6,0.00051076,5133.5,-0.00016056,89.47,-0.00017251,-0.32114,0.099792
24273,4.2528,0.63636,0.1,0.00050631,5059.6,0.00050895,5141.1,-0.00015304,167.23,-0.00017531,-0.097029,0.097252
24274,4.3453,0.54545,0.1,0.00050537,5050.3,0.00050757,5117.6,-0.00015522,137.68,-0.00017356,-0.10227,0.10098
24275,4.2528,0.81818,0.1,0.00050243,5020.9,0.00050575,5125.1,-0.00014768,215.49,-0.00017637,-0.074669,0.098281
24276,4.3453,0.72727,0.1,0.00050156,5012.2,0.00050445,5101.9,-0.00014999,184.75,-0.00017459,-0.087994,0.10207
24277,4.2528,1,0.1,0.00049873,4983.8,0.00050267,5109.7,-0.00014251,262.08,-0.00017739,-0.050386,0.099213
24278,4.3453,0.90909,0.1,0.0004979,4975.5,0.00050142,5086.7,-0.00014492,230.38,-0.00017559,-0.05702,0.10305
24279,4.2528,1.1818,0.1,0.00049522,4948.8,0.00049972,5094.9,-0.00013757,306.51,-0.00017837,-0.034595,0.10005
24280,4.3453,1.0909,0.1,0.00049441,4940.7,0.0004985,5072.1,-0.00014006,274.16,-0.00017655,-0.040556,0.10394
24281,4.2528,1.3636,0.1,0.00049195,4916.1,0.00049694,5081,-0.00013293,348.35,-0.00017929,-0.021559,0.1008
24282,4.3453,1.2727,0.1,0.00049113,4907.9,0.00049574,5058.1,-0.00013545,315.64,-0.00017746,-0.026371,0.10474
24283,4.2528,1.5455,0.1,0.00048894,4886,0.00049437,5068,-0.00012862,387.14,-0.00018015,-0.011134,0.10146
24284,4.3453,1.4545,0.1,0.0004881,4877.6,0.00049316,5045.1,-0.00013114,354.39,-0.00017831,-0.015365,0.10545
24285,4.2528,1.7273,0.1,0.00048622,4858.8,0.00049202,5056.3,-0.0001247,422.47,-0.00018092,-0.0025436,0.10204
24286,4.3453,1.6364,0.1,0.00048532,4849.9,0.00049078,5033.1,-0.00012718,390.01,-0.00017909,-0.0062618,0.10608
24287,4.2528,1.9091,0.1,0.00048382,4834.8,0.00048994,5045.8,-0.0001212,453.94,-0.00018162,0.0044896,0.10253
24288,4.3453,1.8182,0.1,0.00048285,4825.1,0.00048864,5022.3,-0.00012361,422.11,-0.00017979,0.0012012,0.10662
24289,4.2528,2.0909,0.1,0.00048175,4814.2,0.00048813,5036.7,-0.00011817,481.2,-0.00018222,0.010192,0.10294
24290,4.3453,2,0.1,0.00048068,4803.5,0.00048676,5012.8,-0.00012047,450.32,-0.00018041,0.0073094,0.10707
24291,4.2528,2.2727,0.1,0.00048003,4797,0.00048662,5029.1,-0.00011565,503.95,-0.00018272,0.014701,0.10328
24292,4.3453,2.1818,0.1,0.00047885,4785.2,0.00048515,5004.7,-0.0001178,474.34,-0.00018093,0.012216,0.10745
24293,4.2528,2.4545,0.1,0.00047869,4783.6,0.00048542,5023.1,-0.00011365,521.91,-0.00018311,0.018116,0.10354
24294,4.3453,2.3636,0.1,0.00047737,4770.4,0.00048385,4998.1,-0.00011563,493.89,-0.00018136,0.016031,0.10775
24295,4.2528,2.6364,0.1,0.00047772,4773.9,0.00048456,5018.8,-0.00011221,534.89,-0.0001834,0.020509,0.10372
24296,4.3453,2.5455,0.1,0.00047624,4759.2,0.00048285,4993.1,-0.00011398,508.76,-0.00018168,0.018831,0.10798
24297,4.2528,2.8182,0.1,0.00047713,4768,0.00048404,5016.2,-0.00011134,542.74,-0.00018357,0.021926,0.10383
24298,4.3453,2.7273,0.1,0.00047549,4751.6,0.00048219,4989.7,-0.00011286,518.76,-0.0001819,0.02067,0.10813
24299,4.2528,3,0.1,0.00047694,4766.1,0.00048387,5015.3,-0.00011105,545.36,-0.00018363,0.022396,0.10387
24300,4.3453,2.9091,0.1,0.00047511,4747.8,0.00048185,4988,-0.0001123,523.79,-0.00018201,0.021582,0.1082
24301,4.2528,3.1818,0.1,0.00047713,4768,0.00048404,5016.2,-0.00011134,542.74,-0.00018357,0.021926,0.10383
24302,4.3453,3.0909,0.1,0.00047511,4747.8,0.00048185,4988,-0.0001123,523.79,-0.00018201,0.021582,0.1082
24303,4.2528,3.3636,0.1,0.00047772,4773.9,0.00048456,5018.8,-0.00011221,534.89,-0.0001834,0.020509,0.10372
24304,4.3453,3.2727,0.1,0.00047549,4751.6,0.00048219,4989.7,-0.00011286,518.76,-0.0001819,0.02067,0.10813
24305,4.2528,3.5455,0.1,0.00047869,4783.6,0.00048542,5023.1,-0.00011365,521.91,-0.00018311,0.018116,0.10354
24306,4.3453,3.4545,0.1,0.00047624,4759.2,0.00048285,4993.1,-0.00011398,508.76,-0.00018168,0.018831,0.10798
24307,4.2528,3.7273,0.1,0.00048003,4797,0.00048662,5029.1,-0.00011565,503.95,-0.00018272,0.014701,0.10328
24308,4.3453,3.6364,0.1,0.00047737,4770.4,0.00048385,4998.1,-0.00011563,493.89,-0.00018136,0.016032,0.10775
24309,4.2528,3.9091,0.1,0.00048175,4814.2,0.00048813,5036.7,-0.00011817,481.2,-0.00018222,0.010192,0.10294
24310,4.3453,3.8182,0.1,0.00047885,4785.2,0.00048515,5004.7,-0.0001178,474.34,-0.00018093,0.012216,0.10745
24311,4.2528,4.0909,0.1,0.00048382,4834.8,0.00048994,5045.8,-0.0001212,453.94,-0.00018162,0.0044901,0.10253
24312,4.3453,4,0.1,0.00048068,4803.5,0.00048676,5012.8,-0.00012047,450.32,-0.00018041,0.0073098,0.10707
24313,4.2528,4.2727,0.1,0.00048622,4858.8,0.00049202,5056.3,-0.0001247,422.47,-0.00018092,-0.0025431,0.10204
24314,4.3453,4.1818,0.1,0.00048285,4825.1,0.00048864,5022.3,-0.00012361,422.11,-0.00017979,0.0012018,0.10662
24315,4.2528,4.4545,0.1,0.00048894,4886,0.00049437,5068,-0.00012862,387.14,-0.00018015,-0.011134,0.10146
24316,4.3453,4.3636,0.1,0.00048532,4849.9,0.00049078,5033.1,-0.00012718,390.01,-0.00017909,-0.0062613,0.10608
24317,4.2528,4.6364,0.1,0.00049195,4916.1,0.00049694,5081,-0.00013293,348.35,-0.00017929,-0.021558,0.1008
24318,4.3453,4.5455,0.1,0.0004881,4877.6,0.00049316,5045.1,-0.00013114,354.39,-0.00017831,-0.015365,0.10545
24319,4.2528,4.8182,0.1,0.00049522,4948.8,0.00049972,5094.9,-0.00013757,306.51,-0.00017837,-0.034595,0.10005
24320,4.3453,4.7273,0.1,0.00049113,4907.9,0.00049574,5058.1,-0.00013545,315.64,-0.00017746,-0.02637,0.10474
24321,4.2528,5,0.1,0.00049873,4983.8,0.00050267,5109.7,-0.00014251,262.08,-0.00017739,-0.050386,0.099213
24322,4.3453,4.9091,0.1,0.00049441,4940.7,0.0004985,5072.1,-0.00014006,274.16,-0.00017655,-0.040555,0.10394
24323,4.2528,5.1818,0.1,0.00050243,5020.9,0.00050575,5125.1,-0.00014768,215.49,-0.00017637,-0.074668,0.098281
24324,4.3453,5.0909,0.1,0.0004979,4975.5,0.00050142,5086.7,-0.00014492,230.38,-0.00017559,-0.057019,0.10305
24325,4.2528,5.3636,0.1,0.00050631,5059.6,0.00050895,5141.1,-0.00015304,167.23,-0.00017531,-0.097029,0.097252
24326,4.3453,5.2727,0.1,0.00050156,5012.2,0.00050445,5101.9,-0.00014999,184.75,-0.00017459,-0.087993,0.10207
24327,4.2528,5.5455,0.1,0.00051033,5099.8,0.00051222,5157.5,-0.00015853,117.64,-0.00017422,-0.21378,0.096121
24328,4.3453,5.4545,0.1,0.00050537,5050.3,0.00050757,5117.6,-0.00015522,137.68,-0.00017356,-0.10227,0.10098
24329,4.2528,5.7273,0.1,0.0005145,5141.4,0.0005156,5174.4,-0.00016417,66.869,-0.00017311,-0.32165,0.094887
24330,4.3453,5.6364,0.1,0.00050931,5089.6,0.00051076,5133.5,-0.00016056,89.47,-0.00017251,-0.32114,0.099792
24331,4.3453,5.8182,0.1,0.0005134,5130.4,0.00051406,5150.2,-0.00016604,40.197,-0.00017144,-0.39833,0.098498
24332,4.2528,5.9091,0.1,0.0005181,5177.4,0.00051846,5188.1,-0.00016913,21.848,-0.00017208,-0.2706,0.093544
24333,4.4377,0.27273,0.1,0.00050821,5078.6,0.00050924,5109.4,-0.00016245,62.632,-0.00017083,-0.28772,0.10352
24334,4.5302,0.18182,0.1,0.00050698,5066.3,0.00050761,5085,-0.00016412,37.911,-0.00016921,-0.34758,0.1073
24335,4.4377,0.090909,0.1,0.00051159,5112.4,0.00051193,5122.6,-0.00016708,20.738,-0.00016987,-0.25054,0.10216
24336,4.4377,0.45455,0.1,0.00050435,5040,0.00050612,5093.8,-0.00015725,109.45,-0.00017184,-0.19454,0.10476
24337,4.5302,0.36364,0.1,0.0005032,5028.5,0.00050456,5069.5,-0.00015906,83.348,-0.00017019,-0.29264,0.1086
24338,4.4377,0.63636,0.1,0.00050062,5002.8,0.00050308,5078.5,-0.00015218,155.15,-0.00017284,-0.087953,0.1059
24339,4.5302,0.54545,0.1,0.00049955,4992.1,0.0005016,5054.7,-0.00015413,127.81,-0.00017115,-0.092456,0.1098
24340,4.4377,0.81818,0.1,0.00049703,4966.8,0.00050012,5063.6,-0.00014724,199.58,-0.00017381,-0.067878,0.10695
24341,4.5302,0.72727,0.1,0.00049602,4956.8,0.00049871,5040.1,-0.00014931,171.17,-0.0001721,-0.080009,0.1109
24342,4.4377,1,0.1,0.00049358,4932.4,0.00049726,5049.1,-0.00014248,242.42,-0.00017475,-0.045801,0.10789
24343,4.5302,0.90909,0.1,0.00049262,4922.8,0.0004959,5025.9,-0.00014464,213.16,-0.00017301,-0.051822,0.11189
24344,4.4377,1.1818,0.1,0.00049033,4899.9,0.00049453,5035.3,-0.00013794,283.24,-0.00017564,-0.031449,0.10874
24345,4.5302,1.0909,0.1,0.00048938,4890.5,0.0004932,5012.2,-0.00014016,253.4,-0.00017389,-0.036886,0.1128
24346,4.4377,1.3636,0.1,0.00048728,4869.5,0.00049196,5022.3,-0.00013366,321.65,-0.00017647,-0.019565,0.1095
24347,4.5302,1.2727,0.1,0.00048634,4860,0.00049064,4999.2,-0.00013592,291.49,-0.00017472,-0.02397,0.11361
24348,4.4377,1.5455,0.1,0.00048448,4841.5,0.00048957,5010.2,-0.0001297,357.24,-0.00017725,-0.010037,0.11017
24349,4.5302,1.4545,0.1,0.00048352,4831.8,0.00048825,4987,-0.00013196,327.05,-0.00017549,-0.013931,0.11433
24350,4.4377,1.7273,0.1,0.00048195,4816.2,0.0004874,4999.2,-0.0001261,389.63,-0.00017795,-0.0021591,0.11076
24351,4.5302,1.6364,0.1,0.00048094,4806.1,0.00048605,4975.8,-0.00012832,359.72,-0.0001762,-0.0056019,0.11496
24352,4.4377,1.9091,0.1,0.00047971,4793.8,0.00048546,4989.3,-0.00012289,418.48,-0.00017858,0.0043151,0.11126
24353,4.5302,1.8182,0.1,0.00047863,4783,0.00048406,4965.7,-0.00012504,389.14,-0.00017683,0.0012482,0.11551
24354,4.4377,2.0909,0.1,0.00047778,4774.5,0.00048378,4980.8,-0.0001201,443.47,-0.00017912,0.0095848,0.11168
24355,4.5302,2,0.1,0.00047662,4762.9,0.00048232,4956.8,-0.00012216,415,-0.00017739,0.0068745,0.11598
24356,4.4377,2.2727,0.1,0.00047618,4758.5,0.00048238,4973.7,-0.00011778,464.3,-0.00017958,0.013768,0.11203
24357,4.5302,2.1818,0.1,0.00047491,4745.8,0.00048083,4949.2,-0.00011971,437.01,-0.00017787,0.01141,0.11636
24358,4.4377,2.4545,0.1,0.00047492,4746,0.00048127,4968.1,-0.00011595,480.77,-0.00017993,0.016948,0.11229
24359,4.5302,2.3636,0.1,0.00047353,4732,0.00047962,4943,-0.00011771,454.93,-0.00017825,0.014949,0.11667
24360,4.4377,2.6364,0.1,0.00047402,4736.9,0.00048047,4964,-0.00011463,492.66,-0.00018019,0.019182,0.11248
24361,4.5302,2.5455,0.1,0.00047248,4721.5,0.0004787,4938.3,-0.00011619,468.54,-0.00017855,0.017553,0.1169
24362,4.4377,2.8182,0.1,0.00047347,4731.4,0.00047999,4961.5,-0.00011382,499.85,-0.00018035,0.020508,0.11259
24363,4.5302,2.7273,0.1,0.00047177,4714.5,0.00047808,4935.1,-0.00011517,477.71,-0.00017875,0.019268,0.11705
24364,4.4377,3,0.1,0.00047329,4729.6,0.00047983,4960.7,-0.00011356,502.25,-0.0001804,0.020948,0.11263
24365,4.5302,2.9091,0.1,0.00047142,4710.9,0.00047777,4933.6,-0.00011466,482.32,-0.00017885,0.02012,0.11713
24366,4.4377,3.1818,0.1,0.00047347,4731.4,0.00047999,4961.5,-0.00011382,499.85,-0.00018035,0.020508,0.11259
24367,4.5302,3.0909,0.1,0.00047142,4710.9,0.00047777,4933.6,-0.00011466,482.32,-0.00017885,0.02012,0.11713
24368,4.4377,3.3636,0.1,0.00047402,4736.9,0.00048047,4964,-0.00011463,492.66,-0.00018019,0.019182,0.11248
24369,4.5302,3.2727,0.1,0.00047177,4714.5,0.00047808,4935.1,-0.00011517,477.71,-0.00017875,0.019268,0.11705
24370,4.4377,3.5455,0.1,0.00047492,4746,0.00048127,4968.1,-0.00011595,480.77,-0.00017993,0.016948,0.11229
24371,4.5302,3.4545,0.1,0.00047248,4721.5,0.0004787,4938.3,-0.00011619,468.54,-0.00017855,0.017554,0.1169
24372,4.4377,3.7273,0.1,0.00047618,4758.5,0.00048238,4973.7,-0.00011778,464.31,-0.00017958,0.013769,0.11203
24373,4.5302,3.6364,0.1,0.00047353,4732,0.00047962,4943,-0.00011771,454.93,-0.00017825,0.014949,0.11667
24374,4.4377,3.9091,0.1,0.00047778,4774.5,0.00048378,4980.8,-0.0001201,443.47,-0.00017912,0.0095852,0.11168
24375,4.5302,3.8182,0.1,0.00047491,4745.8,0.00048083,4949.2,-0.00011971,437.01,-0.00017787,0.011411,0.11636
24376,4.4377,4.0909,0.1,0.00047971,4793.8,0.00048546,4989.3,-0.00012289,418.48,-0.00017858,0.0043156,0.11126
24377,4.5302,4,0.1,0.00047662,4762.9,0.00048232,4956.8,-0.00012216,415,-0.00017739,0.006875,0.11598
24378,4.4377,4.2727,0.1,0.00048195,4816.2,0.0004874,4999.2,-0.0001261,389.63,-0.00017795,-0.0021586,0.11076
24379,4.5302,4.1818,0.1,0.00047863,4783,0.00048406,4965.7,-0.00012504,389.14,-0.00017683,0.0012487,0.11551
24380,4.4377,4.4545,0.1,0.00048448,4841.5,0.00048957,5010.2,-0.0001297,357.24,-0.00017725,-0.010037,0.11017
24381,4.5302,4.3636,0.1,0.00048094,4806.1,0.00048605,4975.8,-0.00012832,359.72,-0.0001762,-0.0056014,0.11496
24382,4.4377,4.6364,0.1,0.00048728,4869.5,0.00049196,5022.3,-0.00013366,321.65,-0.00017647,-0.019564,0.1095
24383,4.5302,4.5455,0.1,0.00048352,4831.8,0.00048825,4987,-0.00013196,327.05,-0.00017549,-0.01393,0.11433
24384,4.4377,4.8182,0.1,0.00049033,4899.9,0.00049453,5035.3,-0.00013794,283.24,-0.00017564,-0.031448,0.10874
24385,4.5302,4.7273,0.1,0.00048634,4860,0.00049064,4999.2,-0.00013592,291.49,-0.00017472,-0.02397,0.11361
24386,4.4377,5,0.1,0.00049358,4932.4,0.00049726,5049.1,-0.00014248,242.42,-0.00017475,-0.0458,0.10789
24387,4.5302,4.9091,0.1,0.00048938,4890.5,0.0004932,5012.2,-0.00014016,253.4,-0.00017389,-0.036885,0.1128
24388,4.4377,5.1818,0.1,0.00049703,4966.8,0.00050012,5063.6,-0.00014724,199.58,-0.00017381,-0.067877,0.10695
24389,4.5302,5.0909,0.1,0.00049262,4922.8,0.0004959,5025.9,-0.00014464,213.16,-0.00017301,-0.051821,0.11189
24390,4.4377,5.3636,0.1,0.00050062,5002.8,0.00050308,5078.5,-0.00015218,155.15,-0.00017284,-0.087953,0.1059
24391,4.5302,5.2727,0.1,0.00049602,4956.8,0.00049871,5040.1,-0.00014931,171.17,-0.0001721,-0.080009,0.1109
24392,4.4377,5.5455,0.1,0.00050435,5040,0.00050612,5093.8,-0.00015725,109.45,-0.00017184,-0.19454,0.10476
24393,4.5302,5.4545,0.1,0.00049955,4992.1,0.0005016,5054.7,-0.00015413,127.81,-0.00017115,-0.092456,0.1098
24394,4.4377,5.7273,0.1,0.00050821,5078.6,0.00050924,5109.4,-0.00016245,62.632,-0.00017083,-0.28772,0.10352
24395,4.5302,5.6364,0.1,0.0005032,5028.5,0.00050456,5069.5,-0.00015906,83.348,-0.00017019,-0.29264,0.1086
24396,4.5302,5.8182,0.1,0.00050698,5066.3,0.00050761,5085,-0.00016412,37.911,-0.00016921,-0.34758,0.1073
24397,4.4377,5.9091,0.1,0.00051159,5112.4,0.00051193,5122.6,-0.00016708,20.738,-0.00016987,-0.25054,0.10216
24398,4.6226,0.27273,0.1,0.00050197,5016.3,0.00050294,5045.1,-0.00016074,58.487,-0.00016856,-0.25795,0.1125
24399,4.7151,0.18182,0.1,0.00050063,5002.9,0.00050122,5020.4,-0.00016222,35.574,-0.00016699,-0.30506,0.11645
24400,4.6226,0.090909,0.1,0.00050514,5047.9,0.00050547,5057.6,-0.00016505,19.56,-0.00016768,-0.23247,0.11114
24401,4.6226,0.45455,0.1,0.0004984,4980.6,0.00050005,5030.6,-0.00015594,101.66,-0.0001695,-0.17711,0.11375
24402,4.7151,0.36364,0.1,0.00049714,4968,0.00049841,5006.1,-0.00015755,77.483,-0.0001679,-0.26681,0.11776
24403,4.6226,0.63636,0.1,0.00049495,4946.1,0.00049724,5016.4,-0.00015126,143.79,-0.00017041,-0.07977,0.1149
24404,4.7151,0.54545,0.1,0.00049376,4934.2,0.00049567,4992.3,-0.000153,118.49,-0.00016878,-0.083635,0.11896
24405,4.6226,0.81818,0.1,0.00049161,4912.8,0.00049449,5002.5,-0.00014671,184.7,-0.0001713,-0.061734,0.11595
24406,4.7151,0.72727,0.1,0.00049048,4901.5,0.00049299,4978.7,-0.00014855,158.43,-0.00016965,-0.072778,0.12007
24407,4.6226,1,0.1,0.00048842,4880.8,0.00049185,4989,-0.00014232,224.09,-0.00017216,-0.041657,0.11691
24408,4.7151,0.90909,0.1,0.00048733,4870,0.00049038,4965.5,-0.00014425,197.07,-0.00017049,-0.047121,0.12108
24409,4.6226,1.1818,0.1,0.0004854,4850.6,0.00048932,4976.1,-0.00013815,261.6,-0.00017297,-0.028613,0.11777
24410,4.7151,1.0909,0.1,0.00048433,4840,0.00048789,4952.7,-0.00014013,234.06,-0.00017129,-0.033571,0.12199
24411,4.6226,1.3636,0.1,0.00048257,4822.4,0.00048694,4964,-0.00013422,296.86,-0.00017373,-0.017785,0.11854
24412,4.7151,1.2727,0.1,0.00048151,4811.8,0.00048552,4940.6,-0.00013623,269.05,-0.00017204,-0.021814,0.12281
24413,4.6226,1.5455,0.1,0.00047997,4796.4,0.00048473,4952.7,-0.00013058,329.51,-0.00017443,-0.0090853,0.11922
24414,4.7151,1.4545,0.1,0.00047889,4785.6,0.00048331,4929.3,-0.00013259,301.69,-0.00017274,-0.012662,0.12354
24415,4.6226,1.7273,0.1,0.00047762,4772.9,0.00048272,4942.4,-0.00012726,359.22,-0.00017507,-0.0018725,0.11982
24416,4.7151,1.6364,0.1,0.00047649,4761.7,0.00048127,4918.8,-0.00012924,331.66,-0.00017339,-0.0050507,0.12418
24417,4.6226,1.9091,0.1,0.00047554,4752.1,0.00048092,4933.2,-0.00012431,385.66,-0.00017564,0.0040724,0.12033
24418,4.7151,1.8182,0.1,0.00047435,4740.2,0.00047943,4909.4,-0.00012623,358.63,-0.00017396,0.0012247,0.12474
24419,4.6226,2.0909,0.1,0.00047374,4734.2,0.00047937,4925.2,-0.00012176,408.56,-0.00017613,0.0089261,0.12076
24420,4.7151,2,0.1,0.00047248,4721.5,0.00047782,4901.1,-0.00012359,382.33,-0.00017447,0.0063931,0.12521
24421,4.6226,2.2727,0.1,0.00047225,4719.3,0.00047807,4918.5,-0.00011963,427.65,-0.00017654,0.012791,0.12111
24422,4.7151,2.1818,0.1,0.00047089,4705.6,0.00047644,4894,-0.00012134,402.49,-0.0001749,0.010571,0.1256
24423,4.6226,2.4545,0.1,0.00047108,4707.5,0.00047705,4913.3,-0.00011795,442.72,-0.00017687,0.015737,0.12138
24424,4.7151,2.3636,0.1,0.0004696,4692.8,0.00047532,4888.2,-0.0001195,418.9,-0.00017525,0.01384,0.12591
24425,4.6226,2.6364,0.1,0.00047023,4699.1,0.0004763,4909.5,-0.00011673,453.62,-0.0001771,0.017811,0.12157
24426,4.7151,2.5455,0.1,0.00046862,4683,0.00047447,4883.8,-0.00011811,431.37,-0.00017552,0.016251,0.12615
24427,4.6226,2.8182,0.1,0.00046972,4694,0.00047586,4907.1,-0.000116,460.2,-0.00017724,0.019044,0.12168
24428,4.7151,2.7273,0.1,0.00046797,4676.5,0.0004739,4880.8,-0.00011717,439.77,-0.0001757,0.017841,0.1263
24429,4.6226,3,0.1,0.00046955,4692.3,0.00047571,4906.4,-0.00011575,462.41,-0.00017729,0.019454,0.12172
24430,4.7151,2.9091,0.1,0.00046764,4673.2,0.00047361,4879.3,-0.0001167,443.99,-0.00017579,0.018632,0.12638
24431,4.6226,3.1818,0.1,0.00046972,4694,0.00047586,4907.1,-0.000116,460.2,-0.00017724,0.019044,0.12168
24432,4.7151,3.0909,0.1,0.00046764,4673.2,0.00047361,4879.3,-0.0001167,443.99,-0.00017579,0.018632,0.12638
24433,4.6226,3.3636,0.1,0.00047023,4699.1,0.0004763,4909.5,-0.00011673,453.62,-0.0001771,0.017811,0.12157
24434,4.7151,3.2727,0.1,0.00046797,4676.5,0.0004739,4880.8,-0.00011717,439.77,-0.0001757,0.017841,0.1263
24435,4.6226,3.5455,0.1,0.00047108,4707.5,0.00047705,4913.3,-0.00011795,442.72,-0.00017687,0.015737,0.12138
24436,4.7151,3.4545,0.1,0.00046862,4683,0.00047447,4883.8,-0.00011811,431.37,-0.00017552,0.016251,0.12615
24437,4.6226,3.7273,0.1,0.00047225,4719.3,0.00047807,4918.5,-0.00011963,427.65,-0.00017654,0.012791,0.12111
24438,4.7151,3.6364,0.1,0.0004696,4692.8,0.00047532,4888.2,-0.0001195,418.9,-0.00017525,0.01384,0.12591
24439,4.6226,3.9091,0.1,0.00047374,4734.2,0.00047937,4925.2,-0.00012176,408.56,-0.00017613,0.0089265,0.12076
24440,4.7151,3.8182,0.1,0.00047089,4705.6,0.00047644,4894,-0.00012134,402.49,-0.0001749,0.010572,0.1256
24441,4.6226,4.0909,0.1,0.00047554,4752.1,0.00048092,4933.2,-0.00012431,385.66,-0.00017564,0.0040728,0.12033
24442,4.7151,4,0.1,0.00047248,4721.5,0.00047782,4901.1,-0.00012359,382.33,-0.00017447,0.0063935,0.12521
24443,4.6226,4.2727,0.1,0.00047762,4772.9,0.00048272,4942.4,-0.00012726,359.22,-0.00017507,-0.001872,0.11982
24444,4.7151,4.1818,0.1,0.00047435,4740.2,0.00047943,4909.4,-0.00012623,358.63,-0.00017396,0.0012251,0.12474
24445,4.6226,4.4545,0.1,0.00047997,4796.4,0.00048473,4952.7,-0.00013058,329.51,-0.00017443,-0.0090847,0.11922
24446,4.7151,4.3636,0.1,0.00047649,4761.7,0.00048127,4918.8,-0.00012924,331.66,-0.00017339,-0.0050502,0.12418
24447,4.6226,4.6364,0.1,0.00048257,4822.4,0.00048694,4964,-0.00013422,296.86,-0.00017373,-0.017784,0.11854
24448,4.7151,4.5455,0.1,0.00047889,4785.6,0.00048331,4929.3,-0.00013259,301.69,-0.00017274,-0.012661,0.12354
24449,4.6226,4.8182,0.1,0.0004854,4850.6,0.00048932,4976.1,-0.00013815,261.6,-0.00017297,-0.028612,0.11777
24450,4.7151,4.7273,0.1,0.00048151,4811.8,0.00048552,4940.6,-0.00013623,269.05,-0.00017204,-0.021813,0.12281
24451,4.6226,5,0.1,0.00048842,4880.8,0.00049185,4989,-0.00014232,224.09,-0.00017216,-0.041656,0.11691
24452,4.7151,4.9091,0.1,0.00048433,4840,0.00048789,4952.7,-0.00014013,234.06,-0.00017129,-0.03357,0.12199
24453,4.6226,5.1818,0.1,0.00049161,4912.8,0.00049449,5002.5,-0.00014671,184.7,-0.0001713,-0.061733,0.11595
24454,4.7151,5.0909,0.1,0.00048733,4870,0.00049038,4965.5,-0.00014425,197.07,-0.00017049,-0.04712,0.12108
24455,4.6226,5.3636,0.1,0.00049495,4946.1,0.00049724,5016.4,-0.00015126,143.79,-0.00017041,-0.079769,0.1149
24456,4.7151,5.2727,0.1,0.00049048,4901.5,0.00049299,4978.7,-0.00014855,158.43,-0.00016965,-0.072777,0.12007
24457,4.6226,5.5455,0.1,0.0004984,4980.6,0.00050005,5030.6,-0.00015594,101.66,-0.0001695,-0.17711,0.11375
24458,4.7151,5.4545,0.1,0.00049376,4934.2,0.00049567,4992.3,-0.000153,118.49,-0.00016878,-0.083635,0.11896
24459,4.6226,5.7273,0.1,0.00050197,5016.3,0.00050294,5045.1,-0.00016074,58.487,-0.00016856,-0.25795,0.1125
24460,4.7151,5.6364,0.1,0.00049714,4968,0.00049841,5006.1,-0.00015755,77.483,-0.0001679,-0.2668,0.11776
24461,4.7151,5.8182,0.1,0.00050063,5002.9,0.00050122,5020.4,-0.00016222,35.574,-0.00016699,-0.30505,0.11645
24462,4.6226,5.9091,0.1,0.00050514,5047.9,0.00050547,5057.6,-0.00016505,19.56,-0.00016768,-0.23247,0.11114
24463,4.8075,0.27273,0.1,0.0004958,4954.6,0.0004967,4981.4,-0.00015904,54.452,-0.00016632,-0.23175,0.12182
24464,4.9,0.18182,0.1,0.00049435,4940.1,0.00049491,4956.5,-0.00016035,33.217,-0.0001648,-0.26928,0.12594
24465,4.8075,0.090909,0.1,0.00049876,4984.1,0.00049906,4993.2,-0.00016305,18.337,-0.00016552,-0.21617,0.12045
24466,4.8075,0.45455,0.1,0.00049249,4921.5,0.00049403,4967.9,-0.00015462,94.271,-0.00016718,-0.1613,0.12308
24467,4.9,0.36364,0.1,0.00049112,4907.8,0.0004923,4943.3,-0.00015604,71.879,-0.00016564,-0.24334,0.12725
24468,4.8075,0.63636,0.1,0.00048929,4889.6,0.00049142,4954.7,-0.0001503,133.1,-0.00016802,-0.072378,0.12424
24469,4.9,0.54545,0.1,0.00048799,4876.5,0.00048976,4930.4,-0.00015184,109.7,-0.00016645,-0.075698,0.12846
24470,4.8075,0.81818,0.1,0.0004862,4858.7,0.00048888,4941.8,-0.0001461,170.77,-0.00016884,-0.056166,0.1253
24471,4.9,0.72727,0.1,0.00048496,4846.2,0.00048728,4917.8,-0.00014774,146.5,-0.00016724,-0.066226,0.12958
24472,4.8075,1,0.1,0.00048324,4829.1,0.00048643,4929.2,-0.00014206,207.01,-0.00016962,-0.037908,0.12626
24473,4.9,0.90909,0.1,0.00048204,4817,0.00048487,4905.5,-0.00014377,182.06,-0.00016801,-0.042872,0.13059
24474,4.8075,1.1818,0.1,0.00048044,4801.1,0.00048409,4917.3,-0.00013822,241.48,-0.00017036,-0.026055,0.12713
24475,4.9,1.0909,0.1,0.00047925,4789.2,0.00048256,4893.6,-0.00013998,216.07,-0.00016874,-0.030579,0.13151
24476,4.8075,1.3636,0.1,0.00047782,4774.9,0.00048189,4905.9,-0.0001346,273.85,-0.00017105,-0.016193,0.12791
24477,4.9,1.2727,0.1,0.00047664,4763.1,0.00048037,4882.3,-0.00013639,248.21,-0.00016943,-0.01988,0.13234
24478,4.8075,1.5455,0.1,0.00047541,4750.8,0.00047985,4895.4,-0.00013126,303.81,-0.00017169,-0.0082574,0.1286
24479,4.9,1.4545,0.1,0.00047421,4738.8,0.00047833,4871.8,-0.00013304,278.17,-0.00017007,-0.011543,0.13308
24480,4.8075,1.7273,0.1,0.00047323,4729,0.00047799,4885.8,-0.00012821,331.05,-0.00017228,-0.0016634,0.1292
24481,4.9,1.6364,0.1,0.00047199,4716.6,0.00047645,4862,-0.00012997,305.66,-0.00017065,-0.0045964,0.13373
24482,4.8075,1.9091,0.1,0.00047129,4709.7,0.00047633,4877.3,-0.00012551,355.29,-0.00017279,0.0037838,0.12972
24483,4.9,1.8182,0.1,0.00047,4696.8,0.00047475,4853.3,-0.00012721,330.39,-0.00017118,0.0011428,0.13429
24484,4.8075,2.0909,0.1,0.00046962,4693,0.00047489,4869.8,-0.00012316,376.27,-0.00017324,0.0082421,0.13016
24485,4.9,2,0.1,0.00046826,4679.4,0.00047326,4845.5,-0.00012478,352.11,-0.00017164,0.0058799,0.13477
24486,4.8075,2.2727,0.1,0.00046824,4679.2,0.00047369,4863.6,-0.00012121,393.76,-0.00017361,0.011801,0.13051
24487,4.9,2.1818,0.1,0.00046679,4664.7,0.00047199,4838.9,-0.00012271,370.58,-0.00017203,0.0097181,0.13517
24488,4.8075,2.4545,0.1,0.00046715,4668.3,0.00047274,4858.7,-0.00011966,407.57,-0.0001739,0.014518,0.13079
24489,4.9,2.3636,0.1,0.00046559,4652.7,0.00047095,4833.5,-0.00012103,385.61,-0.00017235,0.012727,0.13548
24490,4.8075,2.6364,0.1,0.00046636,4660.4,0.00047206,4855.1,-0.00011855,417.54,-0.00017412,0.016435,0.13098
24491,4.9,2.5455,0.1,0.00046469,4643.6,0.00047016,4829.4,-0.00011975,397.03,-0.00017259,0.014949,0.13572
24492,4.8075,2.8182,0.1,0.00046589,4655.7,0.00047164,4853,-0.00011787,423.57,-0.00017424,0.017577,0.1311
24493,4.9,2.7273,0.1,0.00046408,4637.6,0.00046963,4826.7,-0.00011889,404.71,-0.00017275,0.016418,0.13588
24494,4.8075,3,0.1,0.00046573,4654.1,0.00047151,4852.3,-0.00011765,425.59,-0.00017429,0.017956,0.13114
24495,4.9,2.9091,0.1,0.00046377,4634.5,0.00046937,4825.3,-0.00011846,408.58,-0.00017283,0.017148,0.13595
24496,4.8075,3.1818,0.1,0.00046589,4655.7,0.00047164,4853,-0.00011787,423.57,-0.00017424,0.017577,0.1311
24497,4.9,3.0909,0.1,0.00046377,4634.5,0.00046937,4825.3,-0.00011846,408.58,-0.00017283,0.017148,0.13595
24498,4.8075,3.3636,0.1,0.00046636,4660.4,0.00047206,4855.1,-0.00011855,417.54,-0.00017412,0.016435,0.13098
24499,4.9,3.2727,0.1,0.00046408,4637.6,0.00046963,4826.7,-0.00011889,404.71,-0.00017275,0.016418,0.13588
24500,4.8075,3.5455,0.1,0.00046715,4668.3,0.00047274,4858.7,-0.00011966,407.57,-0.0001739,0.014519,0.13079
24501,4.9,3.4545,0.1,0.00046469,4643.6,0.00047016,4829.4,-0.00011975,397.03,-0.00017259,0.01495,0.13572
24502,4.8075,3.7273,0.1,0.00046824,4679.2,0.00047369,4863.6,-0.00012121,393.76,-0.00017361,0.011801,0.13051
24503,4.9,3.6364,0.1,0.00046559,4652.7,0.00047095,4833.5,-0.00012103,385.61,-0.00017235,0.012727,0.13548
24504,4.8075,3.9091,0.1,0.00046962,4693,0.00047489,4869.8,-0.00012316,376.27,-0.00017324,0.0082425,0.13016
24505,4.9,3.8182,0.1,0.00046679,4664.7,0.00047199,4838.9,-0.00012271,370.58,-0.00017203,0.0097185,0.13517
24506,4.8075,4.0909,0.1,0.00047129,4709.7,0.00047633,4877.3,-0.00012551,355.29,-0.00017279,0.0037842,0.12972
24507,4.9,4,0.1,0.00046826,4679.4,0.00047326,4845.5,-0.00012478,352.11,-0.00017164,0.0058803,0.13477
24508,4.8075,4.2727,0.1,0.00047323,4729,0.00047799,4885.8,-0.00012821,331.05,-0.00017228,-0.0016629,0.1292
24509,4.9,4.1818,0.1,0.00047,4696.8,0.00047475,4853.3,-0.00012721,330.39,-0.00017118,0.0011433,0.13429
24510,4.8075,4.4545,0.1,0.00047541,4750.8,0.00047985,4895.4,-0.00013126,303.81,-0.00017169,-0.0082568,0.1286
24511,4.9,4.3636,0.1,0.00047199,4716.6,0.00047645,4862,-0.00012997,305.66,-0.00017065,-0.0045958,0.13373
24512,4.8075,4.6364,0.1,0.00047782,4774.9,0.00048189,4905.9,-0.0001346,273.85,-0.00017105,-0.016193,0.12791
24513,4.9,4.5455,0.1,0.00047421,4738.8,0.00047833,4871.8,-0.00013304,278.17,-0.00017007,-0.011543,0.13308
24514,4.8075,4.8182,0.1,0.00048044,4801.1,0.00048409,4917.3,-0.00013822,241.48,-0.00017036,-0.026054,0.12713
24515,4.9,4.7273,0.1,0.00047664,4763.1,0.00048037,4882.3,-0.00013639,248.21,-0.00016943,-0.01988,0.13234
24516,4.8075,5,0.1,0.00048324,4829.1,0.00048643,4929.2,-0.00014206,207.01,-0.00016962,-0.037907,0.12626
24517,4.9,4.9091,0.1,0.00047925,4789.2,0.00048256,4893.6,-0.00013998,216.07,-0.00016874,-0.030578,0.13151
24518,4.8075,5.1818,0.1,0.0004862,4858.7,0.00048888,4941.8,-0.0001461,170.77,-0.00016884,-0.056165,0.1253
24519,4.9,5.0909,0.1,0.00048204,4817,0.00048487,4905.5,-0.00014377,182.06,-0.00016801,-0.042871,0.13059
24520,4.8075,5.3636,0.1,0.00048929,4889.6,0.00049142,4954.7,-0.0001503,133.1,-0.00016802,-0.072377,0.12424
24521,4.9,5.2727,0.1,0.00048496,4846.2,0.00048728,4917.8,-0.00014774,146.5,-0.00016724,-0.066225,0.12958
24522,4.8075,5.5455,0.1,0.00049249,4921.5,0.00049403,4967.9,-0.00015462,94.271,-0.00016718,-0.1613,0.12308
24523,4.9,5.4545,0.1,0.00048799,4876.5,0.00048976,4930.4,-0.00015184,109.7,-0.00016645,-0.075698,0.12846
24524,4.8075,5.7273,0.1,0.0004958,4954.6,0.0004967,4981.4,-0.00015904,54.452,-0.00016632,-0.23175,0.12182
24525,4.9,5.6364,0.1,0.00049112,4907.8,0.0004923,4943.3,-0.00015604,71.879,-0.00016564,-0.24334,0.12725
24526,4.9,5.8182,0.1,0.00049435,4940.1,0.00049491,4956.5,-0.00016035,33.217,-0.0001648,-0.26928,0.12594
24527,4.8075,5.9091,0.1,0.00049876,4984.1,0.00049906,4993.2,-0.00016305,18.337,-0.00016552,-0.21617,0.12045
24528,4.9925,0.27273,0.1,0.00048968,4893.4,0.00049051,4918.4,-0.00015735,50.544,-0.00016411,-0.20863,0.13148
24529,5.0849,0.18182,0.1,0.00048814,4878,0.00048865,4893.3,-0.00015849,30.865,-0.00016263,-0.23909,0.13576
24530,4.9925,0.090909,0.1,0.00049244,4921,0.00049272,4929.4,-0.00016107,17.088,-0.00016337,-0.20147,0.13011
24531,4.9925,0.45455,0.1,0.00048662,4862.8,0.00048804,4905.8,-0.00015327,87.273,-0.0001649,-0.14694,0.13275
24532,5.0849,0.36364,0.1,0.00048515,4848.1,0.00048624,4881,-0.00015452,66.54,-0.0001634,-0.222,0.13708
24533,4.9925,0.63636,0.1,0.00048365,4833.2,0.00048563,4893.5,-0.00014928,123.06,-0.00016567,-0.065704,0.13391
24534,5.0849,0.54545,0.1,0.00048225,4819.2,0.00048389,4869,-0.00015064,101.42,-0.00016415,-0.068552,0.1383
24535,4.9925,0.81818,0.1,0.00048079,4804.6,0.00048328,4881.5,-0.00014541,157.75,-0.00016642,-0.051128,0.13498
24536,5.0849,0.72727,0.1,0.00047944,4791.1,0.0004816,4857.3,-0.00014686,135.32,-0.00016488,-0.060289,0.13942
24537,4.9925,1,0.1,0.00047805,4777.2,0.00048101,4869.8,-0.00014169,191.09,-0.00016713,-0.034526,0.13595
24538,5.0849,0.90909,0.1,0.00047673,4764.1,0.00047937,4845.8,-0.0001432,168.05,-0.00016558,-0.039034,0.14044
24539,4.9925,1.1818,0.1,0.00047545,4751.3,0.00047885,4858.7,-0.00013815,222.77,-0.00016781,-0.023758,0.13682
24540,5.0849,1.0909,0.1,0.00047416,4738.3,0.00047723,4834.8,-0.00013971,199.32,-0.00016624,-0.027885,0.14137
24541,4.9925,1.3636,0.1,0.00047303,4727,0.00047682,4848.2,-0.00013483,252.5,-0.00016844,-0.014782,0.13761
24542,5.0849,1.2727,0.1,0.00047174,4714.1,0.00047521,4824.3,-0.00013641,228.85,-0.00016687,-0.018154,0.1422
24543,4.9925,1.5455,0.1,0.00047079,4704.7,0.00047493,4838.4,-0.00013176,279.99,-0.00016902,-0.007549,0.13831
24544,5.0849,1.4545,0.1,0.00046949,4691.6,0.00047332,4814.5,-0.00013334,256.36,-0.00016746,-0.010564,0.14294
24545,4.9925,1.7273,0.1,0.00046877,4684.5,0.00047321,4829.5,-0.00012896,304.98,-0.00016955,-0.0015286,0.13892
24546,5.0849,1.6364,0.1,0.00046743,4671.1,0.00047158,4805.5,-0.00013051,281.58,-0.00016799,-0.0042304,0.1436
24547,4.9925,1.9091,0.1,0.00046698,4666.5,0.00047168,4821.5,-0.00012648,327.2,-0.00017002,0.0034538,0.13944
24548,5.0849,1.8182,0.1,0.00046559,4652.7,0.00047002,4797.3,-0.00012797,304.25,-0.00016847,0.0010107,0.14417
24549,4.9925,2.0909,0.1,0.00046543,4651.1,0.00047035,4814.6,-0.00012433,346.42,-0.00017043,0.0075394,0.13988
24550,5.0849,2,0.1,0.00046398,4636.6,0.00046864,4790.1,-0.00012575,324.16,-0.00016889,0.005344,0.14465
24551,4.9925,2.2727,0.1,0.00046414,4638.2,0.00046925,4808.8,-0.00012253,362.44,-0.00017077,0.010806,0.14024
24552,5.0849,2.1818,0.1,0.00046261,4622.9,0.00046747,4784,-0.00012385,341.08,-0.00016924,0.0088611,0.14505
24553,4.9925,2.4545,0.1,0.00046313,4628.1,0.00046837,4804.3,-0.00012112,375.08,-0.00017103,0.013306,0.14052
24554,5.0849,2.3636,0.1,0.0004615,4611.8,0.00046651,4779,-0.00012231,354.85,-0.00016953,0.011622,0.14537
24555,4.9925,2.6364,0.1,0.0004624,4620.8,0.00046774,4800.9,-0.00012009,384.22,-0.00017123,0.015071,0.14072
24556,5.0849,2.5455,0.1,0.00046066,4603.4,0.00046579,4775.2,-0.00012114,365.31,-0.00016975,0.013665,0.14561
24557,4.9925,2.8182,0.1,0.00046196,4616.4,0.00046736,4798.9,-0.00011947,389.74,-0.00017134,0.016123,0.14083
24558,5.0849,2.7273,0.1,0.0004601,4597.8,0.0004653,4772.6,-0.00012035,372.34,-0.0001699,0.015016,0.14577
24559,4.9925,3,0.1,0.00046181,4615,0.00046723,4798.3,-0.00011927,391.58,-0.00017138,0.016473,0.14087
24560,5.0849,2.9091,0.1,0.00045981,4594.9,0.00046505,4771.3,-0.00011995,375.88,-0.00016997,0.015689,0.14585
24561,4.9925,3.1818,0.1,0.00046196,4616.4,0.00046736,4798.9,-0.00011947,389.74,-0.00017134,0.016123,0.14083
24562,5.0849,3.0909,0.1,0.00045981,4594.9,0.00046505,4771.3,-0.00011995,375.88,-0.00016997,0.015689,0.14585
24563,4.9925,3.3636,0.1,0.0004624,4620.8,0.00046774,4800.9,-0.00012009,384.22,-0.00017123,0.015071,0.14072
24564,5.0849,3.2727,0.1,0.0004601,4597.8,0.0004653,4772.6,-0.00012035,372.34,-0.0001699,0.015016,0.14577
24565,4.9925,3.5455,0.1,0.00046313,4628.1,0.00046837,4804.3,-0.00012112,375.08,-0.00017103,0.013306,0.14052
24566,5.0849,3.4545,0.1,0.00046066,4603.4,0.00046579,4775.2,-0.00012114,365.31,-0.00016975,0.013665,0.14561
24567,4.9925,3.7273,0.1,0.00046414,4638.2,0.00046925,4808.8,-0.00012253,362.44,-0.00017077,0.010807,0.14024
24568,5.0849,3.6364,0.1,0.0004615,4611.8,0.00046651,4779,-0.00012231,354.85,-0.00016953,0.011623,0.14537
24569,4.9925,3.9091,0.1,0.00046543,4651.1,0.00047035,4814.6,-0.00012433,346.42,-0.00017043,0.0075397,0.13988
24570,5.0849,3.8182,0.1,0.00046261,4622.9,0.00046747,4784,-0.00012385,341.08,-0.00016924,0.0088615,0.14505
24571,4.9925,4.0909,0.1,0.00046698,4666.5,0.00047168,4821.5,-0.00012648,327.2,-0.00017002,0.0034542,0.13944
24572,5.0849,4,0.1,0.00046398,4636.6,0.00046864,4790.1,-0.00012575,324.16,-0.00016889,0.0053445,0.14465
24573,4.9925,4.2727,0.1,0.00046877,4684.5,0.00047321,4829.5,-0.00012896,304.98,-0.00016955,-0.0015281,0.13892
24574,5.0849,4.1818,0.1,0.00046559,4652.7,0.00047002,4797.3,-0.00012797,304.25,-0.00016847,0.0010112,0.14417
24575,4.9925,4.4545,0.1,0.00047079,4704.7,0.00047493,4838.4,-0.00013176,279.99,-0.00016902,-0.0075482,0.13831
24576,5.0849,4.3636,0.1,0.00046743,4671.1,0.00047158,4805.5,-0.00013051,281.58,-0.00016799,-0.0042298,0.1436
24577,4.9925,4.6364,0.1,0.00047303,4727,0.00047682,4848.2,-0.00013483,252.5,-0.00016844,-0.014781,0.13761
24578,5.0849,4.5455,0.1,0.00046949,4691.6,0.00047332,4814.5,-0.00013334,256.36,-0.00016746,-0.010564,0.14294
24579,4.9925,4.8182,0.1,0.00047545,4751.3,0.00047885,4858.7,-0.00013815,222.77,-0.00016781,-0.023758,0.13682
24580,5.0849,4.7273,0.1,0.00047174,4714.1,0.00047521,4824.3,-0.00013641,228.85,-0.00016687,-0.018153,0.1422
24581,4.9925,5,0.1,0.00047805,4777.2,0.00048101,4869.8,-0.00014169,191.09,-0.00016713,-0.034525,0.13595
24582,5.0849,4.9091,0.1,0.00047416,4738.3,0.00047723,4834.8,-0.00013971,199.32,-0.00016624,-0.027885,0.14137
24583,4.9925,5.1818,0.1,0.00048079,4804.6,0.00048328,4881.5,-0.00014541,157.75,-0.00016642,-0.051127,0.13498
24584,5.0849,5.0909,0.1,0.00047673,4764.1,0.00047937,4845.8,-0.0001432,168.05,-0.00016558,-0.039033,0.14044
24585,4.9925,5.3636,0.1,0.00048365,4833.2,0.00048563,4893.5,-0.00014928,123.06,-0.00016567,-0.065703,0.13391
24586,5.0849,5.2727,0.1,0.00047944,4791.1,0.0004816,4857.3,-0.00014686,135.32,-0.00016488,-0.060288,0.13942
24587,4.9925,5.5455,0.1,0.00048662,4862.8,0.00048804,4905.8,-0.00015327,87.273,-0.0001649,-0.14694,0.13275
24588,5.0849,5.4545,0.1,0.00048225,4819.2,0.00048389,4869,-0.00015064,101.42,-0.00016415,-0.068552,0.1383
24589,4.9925,5.7273,0.1,0.00048968,4893.4,0.00049051,4918.4,-0.00015735,50.544,-0.00016411,-0.20863,0.13148
24590,5.0849,5.6364,0.1,0.00048515,4848.1,0.00048624,4881,-0.00015452,66.54,-0.0001634,-0.222,0.13708
24591,5.0849,5.8182,0.1,0.00048814,4878,0.00048865,4893.3,-0.00015849,30.865,-0.00016263,-0.23909,0.13576
24592,4.9925,5.9091,0.1,0.00049244,4921,0.00049272,4929.4,-0.00016107,17.088,-0.00016337,-0.20147,0.13011
24593,5.1774,0.27273,0.1,0.00048361,4832.8,0.00048439,4855.9,-0.00015567,46.775,-0.00016192,-0.18817,0.14148
24594,5.2698,0.18182,0.1,0.00048199,4816.6,0.00048247,4830.7,-0.00015666,28.538,-0.00016049,-0.21355,0.14593
24595,5.1774,0.090909,0.1,0.00048618,4858.4,0.00048644,4866.2,-0.00015911,15.831,-0.00016124,-0.18822,0.1401
24596,5.1774,0.45455,0.1,0.00048078,4804.5,0.0004821,4844.2,-0.00015189,80.656,-0.00016265,-0.1339,0.14275
24597,5.2698,0.36364,0.1,0.00047922,4788.9,0.00048023,4819.2,-0.00015299,61.463,-0.00016119,-0.20257,0.14725
24598,5.1774,0.63636,0.1,0.00047803,4777,0.00047986,4832.8,-0.00014822,113.65,-0.00016335,-0.059671,0.14392
24599,5.2698,0.54545,0.1,0.00047654,4762.1,0.00047806,4808.2,-0.00014941,93.629,-0.00016188,-0.062103,0.14847
24600,5.1774,0.81818,0.1,0.00047538,4750.5,0.00047769,4821.6,-0.00014465,145.59,-0.00016404,-0.046567,0.14499
24601,5.2698,0.72727,0.1,0.00047393,4736.1,0.00047593,4797.2,-0.00014592,124.86,-0.00016255,-0.0549,0.14959
24602,5.1774,1,0.1,0.00047284,4725.2,0.0004756,4810.8,-0.00014123,176.26,-0.00016469,-0.031475,0.14596
24603,5.2698,0.90909,0.1,0.00047143,4711,0.00047387,4786.6,-0.00014256,154.98,-0.00016319,-0.03556,0.15061
24604,5.1774,1.1818,0.1,0.00047044,4701.2,0.0004736,4800.5,-0.00013797,205.38,-0.00016531,-0.021697,0.14684
24605,5.2698,1.0909,0.1,0.00046905,4687.2,0.0004719,4776.4,-0.00013934,183.74,-0.0001638,-0.025454,0.15155
24606,5.1774,1.3636,0.1,0.0004682,4678.7,0.00047172,4790.7,-0.00013492,232.69,-0.00016589,-0.013532,0.14764
24607,5.2698,1.2727,0.1,0.0004668,4664.8,0.00047003,4766.7,-0.00013631,210.87,-0.00016437,-0.016608,0.15238
24608,5.1774,1.5455,0.1,0.00046613,4658,0.00046998,4781.6,-0.00013209,257.92,-0.00016642,-0.0069453,0.14834
24609,5.2698,1.4545,0.1,0.00046472,4644,0.00046829,4757.6,-0.00013348,236.13,-0.00016491,-0.0097042,0.15313
24610,5.1774,1.7273,0.1,0.00046425,4639.3,0.00046839,4773.4,-0.00012953,280.84,-0.0001669,-0.0014553,0.14895
24611,5.2698,1.6364,0.1,0.00046282,4625,0.00046668,4749.2,-0.00013089,259.27,-0.00016539,-0.0039348,0.15379
24612,5.1774,1.9091,0.1,0.00046259,4622.7,0.00046698,4766,-0.00012724,301.21,-0.00016733,0.0030945,0.14948
24613,5.2698,1.8182,0.1,0.00046111,4608,0.00046524,4741.6,-0.00012855,280.07,-0.00016583,0.00084496,0.15437
24614,5.1774,2.0909,0.1,0.00046116,4608.4,0.00046575,4759.5,-0.00012527,318.82,-0.0001677,0.0068311,0.14993
24615,5.2698,2,0.1,0.00045962,4593,0.00046397,4734.9,-0.00012651,298.32,-0.00016621,0.0048022,0.15486
24616,5.1774,2.2727,0.1,0.00045997,4596.5,0.00046473,4754.2,-0.00012362,333.5,-0.00016801,0.0098233,0.15029
24617,5.2698,2.1818,0.1,0.00045836,4580.4,0.00046289,4729.2,-0.00012477,313.82,-0.00016654,0.0080185,0.15526
24618,5.1774,2.4545,0.1,0.00045903,4587.1,0.00046393,4749.9,-0.00012233,345.08,-0.00016825,0.012115,0.15057
24619,5.2698,2.3636,0.1,0.00045733,4570.1,0.00046201,4724.6,-0.00012335,326.43,-0.0001668,0.010547,0.15559
24620,5.1774,2.6364,0.1,0.00045836,4580.4,0.00046334,4746.9,-0.00012139,353.44,-0.00016843,0.013736,0.15077
24621,5.2698,2.5455,0.1,0.00045655,4562.4,0.00046134,4721.1,-0.00012228,336.01,-0.000167,0.012419,0.15583
24622,5.1774,2.8182,0.1,0.00045795,4576.3,0.00046299,4745,-0.00012082,358.49,-0.00016853,0.014702,0.15089
24623,5.2698,2.7273,0.1,0.00045603,4557.1,0.00046089,4718.7,-0.00012156,342.45,-0.00016713,0.013659,0.15599
24624,5.1774,3,0.1,0.00045781,4574.9,0.00046287,4744.4,-0.00012063,360.18,-0.00016857,0.015024,0.15093
24625,5.2698,2.9091,0.1,0.00045576,4554.5,0.00046066,4717.5,-0.00012119,345.69,-0.0001672,0.014276,0.15607
24626,5.1774,3.1818,0.1,0.00045795,4576.3,0.00046299,4745,-0.00012082,358.49,-0.00016853,0.014703,0.15089
24627,5.2698,3.0909,0.1,0.00045576,4554.5,0.00046066,4717.5,-0.00012119,345.69,-0.0001672,0.014276,0.15607
24628,5.1774,3.3636,0.1,0.00045836,4580.4,0.00046334,4746.9,-0.00012139,353.44,-0.00016843,0.013736,0.15077
24629,5.2698,3.2727,0.1,0.00045603,4557.1,0.00046089,4718.7,-0.00012156,342.45,-0.00016713,0.013659,0.15599
24630,5.1774,3.5455,0.1,0.00045903,4587.1,0.00046393,4749.9,-0.00012233,345.08,-0.00016825,0.012116,0.15057
24631,5.2698,3.4545,0.1,0.00045655,4562.4,0.00046134,4721.1,-0.00012228,336.01,-0.000167,0.012419,0.15583
24632,5.1774,3.7273,0.1,0.00045997,4596.5,0.00046473,4754.2,-0.00012362,333.5,-0.00016801,0.0098237,0.15029
24633,5.2698,3.6364,0.1,0.00045733,4570.1,0.00046201,4724.6,-0.00012335,326.43,-0.0001668,0.010547,0.15559
24634,5.1774,3.9091,0.1,0.00046116,4608.4,0.00046575,4759.5,-0.00012527,318.82,-0.0001677,0.0068316,0.14993
24635,5.2698,3.8182,0.1,0.00045836,4580.4,0.00046289,4729.2,-0.00012477,313.82,-0.00016654,0.0080189,0.15526
24636,5.1774,4.0909,0.1,0.00046259,4622.7,0.00046698,4766,-0.00012724,301.21,-0.00016733,0.003095,0.14948
24637,5.2698,4,0.1,0.00045962,4593,0.00046397,4734.9,-0.00012651,298.32,-0.00016621,0.0048027,0.15486
24638,5.1774,4.2727,0.1,0.00046425,4639.3,0.00046839,4773.4,-0.00012953,280.84,-0.0001669,-0.0014548,0.14895
24639,5.2698,4.1818,0.1,0.00046111,4608,0.00046524,4741.6,-0.00012855,280.07,-0.00016583,0.0008455,0.15437
24640,5.1774,4.4545,0.1,0.00046613,4658,0.00046998,4781.6,-0.00013209,257.92,-0.00016642,-0.0069448,0.14834
24641,5.2698,4.3636,0.1,0.00046282,4625,0.00046668,4749.2,-0.00013089,259.27,-0.00016539,-0.0039343,0.15379
24642,5.1774,4.6364,0.1,0.0004682,4678.7,0.00047172,4790.7,-0.00013492,232.69,-0.00016589,-0.013531,0.14764
24643,5.2698,4.5455,0.1,0.00046472,4644,0.00046829,4757.6,-0.00013348,236.13,-0.00016491,-0.0097036,0.15313
24644,5.1774,4.8182,0.1,0.00047044,4701.2,0.0004736,4800.5,-0.00013797,205.38,-0.00016531,-0.021697,0.14684
24645,5.2698,4.7273,0.1,0.0004668,4664.8,0.00047003,4766.7,-0.00013631,210.87,-0.00016437,-0.016607,0.15238
24646,5.1774,5,0.1,0.00047284,4725.2,0.0004756,4810.8,-0.00014123,176.26,-0.00016469,-0.031474,0.14596
24647,5.2698,4.9091,0.1,0.00046905,4687.2,0.0004719,4776.4,-0.00013934,183.74,-0.0001638,-0.025453,0.15155
24648,5.1774,5.1818,0.1,0.00047538,4750.5,0.00047769,4821.6,-0.00014465,145.59,-0.00016404,-0.046566,0.14499
24649,5.2698,5.0909,0.1,0.00047143,4711,0.00047387,4786.6,-0.00014256,154.98,-0.00016319,-0.035559,0.15061
24650,5.1774,5.3636,0.1,0.00047803,4777,0.00047986,4832.8,-0.00014822,113.65,-0.00016335,-0.05967,0.14392
24651,5.2698,5.2727,0.1,0.00047393,4736.1,0.00047593,4797.2,-0.00014592,124.86,-0.00016255,-0.054899,0.14959
24652,5.1774,5.5455,0.1,0.00048078,4804.5,0.0004821,4844.2,-0.00015189,80.656,-0.00016265,-0.1339,0.14275
24653,5.2698,5.4545,0.1,0.00047654,4762.1,0.00047806,4808.2,-0.00014941,93.629,-0.00016188,-0.062103,0.14847
24654,5.1774,5.7273,0.1,0.00048361,4832.8,0.00048439,4855.9,-0.00015567,46.775,-0.00016192,-0.18817,0.14148
24655,5.2698,5.6364,0.1,0.00047922,4788.9,0.00048023,4819.2,-0.00015299,61.463,-0.00016119,-0.20257,0.14725
24656,5.2698,5.8182,0.1,0.00048199,4816.6,0.00048247,4830.7,-0.00015666,28.538,-0.00016049,-0.21355,0.14593
24657,5.1774,5.9091,0.1,0.00048618,4858.4,0.00048644,4866.2,-0.00015911,15.831,-0.00016124,-0.18822,0.1401
24658,5.3623,0.27273,0.1,0.0004776,4772.7,0.00047831,4794,-0.00015399,43.154,-0.00015975,-0.17002,0.1518
24659,5.4547,0.18182,0.1,0.0004759,4755.7,0.00047634,4768.7,-0.00015484,26.254,-0.00015836,-0.19192,0.15642
24660,5.3623,0.090909,0.1,0.00047998,4796.5,0.00048022,4803.6,-0.00015716,14.577,-0.00015913,-0.1763,0.15043
24661,5.3623,0.45455,0.1,0.00047498,4746.5,0.0004762,4783.2,-0.0001505,74.41,-0.00016042,-0.12201,0.15308
24662,5.4547,0.36364,0.1,0.00047333,4730.1,0.00047427,4758.1,-0.00015145,56.648,-0.00015901,-0.18486,0.15774
24663,5.3623,0.63636,0.1,0.00047243,4721.1,0.00047413,4772.6,-0.00014711,104.82,-0.00016107,-0.054202,0.15425
24664,5.4547,0.54545,0.1,0.00047085,4705.2,0.00047226,4747.8,-0.00014815,86.307,-0.00015964,-0.056273,0.15896
24665,5.3623,0.81818,0.1,0.00046998,4696.5,0.00047212,4762.2,-0.00014383,134.23,-0.0001617,-0.042423,0.15532
24666,5.4547,0.72727,0.1,0.00046844,4681.2,0.00047029,4737.6,-0.00014493,115.08,-0.00016025,-0.05,0.16009
24667,5.3623,1,0.1,0.00046763,4673.1,0.00047018,4752.2,-0.00014067,162.45,-0.0001623,-0.02871,0.1563
24668,5.4547,0.90909,0.1,0.00046612,4658,0.00046839,4727.7,-0.00014183,142.81,-0.00016084,-0.032411,0.16111
24669,5.3623,1.1818,0.1,0.00046541,4650.9,0.00046834,4742.6,-0.00013768,189.22,-0.00016286,-0.019837,0.15719
24670,5.4547,1.0909,0.1,0.00046392,4636,0.00046656,4718.3,-0.00013887,169.25,-0.0001614,-0.023255,0.16205
24671,5.3623,1.3636,0.1,0.00046333,4630.1,0.0004666,4733.5,-0.00013487,214.3,-0.00016339,-0.012415,0.15798
24672,5.4547,1.2727,0.1,0.00046184,4615.2,0.00046484,4709.2,-0.00013608,194.19,-0.00016193,-0.015219,0.16289
24673,5.3623,1.5455,0.1,0.00046141,4611,0.00046499,4725.1,-0.00013227,237.47,-0.00016388,-0.0064226,0.15869
24674,5.4547,1.4545,0.1,0.00045992,4596,0.00046323,4700.8,-0.00013348,217.38,-0.00016241,-0.0089444,0.16364
24675,5.3623,1.7273,0.1,0.00045968,4593.6,0.00046353,4717.4,-0.00012992,258.49,-0.00016432,-0.001422,0.15931
24676,5.4547,1.6364,0.1,0.00045816,4578.4,0.00046175,4693,-0.0001311,238.62,-0.00016286,-0.0036949,0.16431
24677,5.3623,1.9091,0.1,0.00045814,4578.3,0.00046223,4710.6,-0.00012782,277.17,-0.00016471,0.0027271,0.15984
24678,5.4547,1.8182,0.1,0.00045658,4562.6,0.00046042,4686,-0.00012896,257.7,-0.00016326,0.0006586,0.16489
24679,5.3623,2.0909,0.1,0.00045682,4565,0.0004611,4704.6,-0.00012601,293.31,-0.00016505,0.0061386,0.16029
24680,5.4547,2,0.1,0.0004552,4548.8,0.00045925,4679.9,-0.00012708,274.42,-0.0001636,0.0042669,0.16538
24681,5.3623,2.2727,0.1,0.00045572,4554,0.00046016,4699.7,-0.0001245,306.76,-0.00016532,0.0088736,0.16066
24682,5.4547,2.1818,0.1,0.00045403,4537.2,0.00045825,4674.6,-0.00012548,288.64,-0.0001639,0.0072029,0.16579
24683,5.3623,2.4545,0.1,0.00045485,4545.4,0.00045942,4695.7,-0.00012331,317.37,-0.00016555,0.01097,0.16094
24684,5.4547,2.3636,0.1,0.00045308,4527.7,0.00045744,4670.3,-0.00012419,300.19,-0.00016414,0.009513,0.16611
24685,5.3623,2.6364,0.1,0.00045422,4539.1,0.00045888,4692.9,-0.00012245,325.02,-0.0001657,0.012454,0.16114
24686,5.4547,2.5455,0.1,0.00045236,4520.5,0.00045682,4667,-0.0001232,308.96,-0.00016432,0.011225,0.16635
24687,5.3623,2.8182,0.1,0.00045385,4535.3,0.00045855,4691.2,-0.00012193,329.65,-0.0001658,0.01334,0.16126
24688,5.4547,2.7273,0.1,0.00045187,4515.6,0.00045641,4664.8,-0.00012254,314.86,-0.00016444,0.012359,0.16652
24689,5.3623,3,0.1,0.00045372,4534.1,0.00045845,4690.6,-0.00012175,331.2,-0.00016583,0.013635,0.1613
24690,5.4547,2.9091,0.1,0.00045163,4513.2,0.0004562,4663.7,-0.00012221,317.82,-0.0001645,0.012924,0.1666
24691,5.3623,3.1818,0.1,0.00045385,4535.3,0.00045855,4691.2,-0.00012193,329.65,-0.0001658,0.01334,0.16126
24692,5.4547,3.0909,0.1,0.00045163,4513.2,0.0004562,4663.7,-0.00012221,317.82,-0.0001645,0.012924,0.1666
24693,5.3623,3.3636,0.1,0.00045422,4539.1,0.00045888,4692.9,-0.00012245,325.02,-0.0001657,0.012454,0.16114
24694,5.4547,3.2727,0.1,0.00045187,4515.6,0.00045641,4664.8,-0.00012254,314.86,-0.00016444,0.012359,0.16652
24695,5.3623,3.5455,0.1,0.00045485,4545.4,0.00045942,4695.7,-0.00012331,317.37,-0.00016555,0.010971,0.16094
24696,5.4547,3.4545,0.1,0.00045236,4520.5,0.00045682,4667,-0.0001232,308.96,-0.00016432,0.011225,0.16635
24697,5.3623,3.7273,0.1,0.00045572,4554,0.00046016,4699.7,-0.0001245,306.76,-0.00016532,0.0088739,0.16066
24698,5.4547,3.6364,0.1,0.00045308,4527.7,0.00045744,4670.3,-0.00012419,300.19,-0.00016414,0.0095133,0.16611
24699,5.3623,3.9091,0.1,0.00045682,4565,0.0004611,4704.6,-0.00012601,293.31,-0.00016505,0.006139,0.16029
24700,5.4547,3.8182,0.1,0.00045403,4537.2,0.00045825,4674.6,-0.00012548,288.64,-0.0001639,0.0072032,0.16579
24701,5.3623,4.0909,0.1,0.00045814,4578.3,0.00046223,4710.6,-0.00012782,277.17,-0.00016471,0.0027276,0.15984
24702,5.4547,4,0.1,0.0004552,4548.8,0.00045925,4679.9,-0.00012708,274.42,-0.0001636,0.0042673,0.16538
24703,5.3623,4.2727,0.1,0.00045968,4593.6,0.00046353,4717.4,-0.00012992,258.49,-0.00016432,-0.0014214,0.15931
24704,5.4547,4.1818,0.1,0.00045658,4562.6,0.00046042,4686,-0.00012896,257.7,-0.00016326,0.00065918,0.16489
24705,5.3623,4.4545,0.1,0.00046141,4611,0.00046499,4725.1,-0.00013227,237.47,-0.00016388,-0.006422,0.15869
24706,5.4547,4.3636,0.1,0.00045816,4578.4,0.00046175,4693,-0.0001311,238.62,-0.00016286,-0.0036943,0.16431
24707,5.3623,4.6364,0.1,0.00046333,4630.1,0.0004666,4733.5,-0.00013487,214.3,-0.00016339,-0.012414,0.15798
24708,5.4547,4.5455,0.1,0.00045992,4596,0.00046323,4700.8,-0.00013348,217.38,-0.00016241,-0.0089438,0.16364
24709,5.3623,4.8182,0.1,0.00046541,4650.9,0.00046834,4742.6,-0.00013768,189.22,-0.00016286,-0.019837,0.15719
24710,5.4547,4.7273,0.1,0.00046184,4615.2,0.00046484,4709.2,-0.00013608,194.19,-0.00016193,-0.015218,0.16289
24711,5.3623,5,0.1,0.00046763,4673.1,0.00047018,4752.2,-0.00014067,162.45,-0.0001623,-0.028709,0.1563
24712,5.4547,4.9091,0.1,0.00046392,4636,0.00046656,4718.3,-0.00013887,169.25,-0.0001614,-0.023254,0.16205
24713,5.3623,5.1818,0.1,0.00046998,4696.5,0.00047212,4762.2,-0.00014383,134.23,-0.0001617,-0.042422,0.15532
24714,5.4547,5.0909,0.1,0.00046612,4658,0.00046839,4727.7,-0.00014183,142.81,-0.00016084,-0.032409,0.16111
24715,5.3623,5.3636,0.1,0.00047243,4721.1,0.00047413,4772.6,-0.00014711,104.82,-0.00016107,-0.054201,0.15425
24716,5.4547,5.2727,0.1,0.00046844,4681.2,0.00047029,4737.6,-0.00014493,115.08,-0.00016025,-0.049999,0.16009
24717,5.3623,5.5455,0.1,0.00047498,4746.5,0.0004762,4783.2,-0.0001505,74.41,-0.00016042,-0.12201,0.15308
24718,5.4547,5.4545,0.1,0.00047085,4705.2,0.00047226,4747.8,-0.00014815,86.307,-0.00015964,-0.056272,0.15896
24719,5.3623,5.7273,0.1,0.0004776,4772.7,0.00047831,4794,-0.00015399,43.154,-0.00015975,-0.17002,0.1518
24720,5.4547,5.6364,0.1,0.00047333,4730.1,0.00047427,4758.1,-0.00015145,56.648,-0.00015901,-0.18486,0.15774
24721,5.4547,5.8182,0.1,0.0004759,4755.7,0.00047634,4768.7,-0.00015484,26.254,-0.00015836,-0.19192,0.15642
24722,5.3623,5.9091,0.1,0.00047998,4796.5,0.00048022,4803.6,-0.00015716,14.577,-0.00015913,-0.1763,0.15043
24723,5.5472,0.27273,0.1,0.00047163,4713.1,0.00047229,4732.7,-0.00015231,39.687,-0.00015761,-0.15389,0.16246
24724,5.6396,0.18182,0.1,0.00046987,4695.4,0.00047027,4707.3,-0.00015304,24.025,-0.00015626,-0.17361,0.16724
24725,5.5472,0.090909,0.1,0.00047383,4735.1,0.00047406,4741.6,-0.00015524,13.339,-0.00015704,-0.16563,0.16109
24726,5.5472,0.45455,0.1,0.00046921,4688.8,0.00047033,4722.7,-0.00014909,68.523,-0.00015823,-0.11118,0.16373
24727,5.6396,0.36364,0.1,0.00046749,4671.7,0.00046835,4697.4,-0.0001499,52.089,-0.00015686,-0.16869,0.16856
24728,5.5472,0.63636,0.1,0.00046685,4665.3,0.00046842,4712.8,-0.00014597,96.547,-0.00015882,-0.04924,0.1649
24729,5.6396,0.54545,0.1,0.00046519,4648.7,0.00046649,4687.8,-0.00014686,79.434,-0.00015743,-0.050994,0.16978
24730,5.5472,0.81818,0.1,0.00046458,4642.6,0.00046656,4703.2,-0.00014294,123.63,-0.0001594,-0.038659,0.16598
24731,5.6396,0.72727,0.1,0.00046296,4626.4,0.00046467,4678.4,-0.00014389,105.94,-0.000158,-0.04554,0.1709
24732,5.5472,1,0.1,0.00046241,4620.9,0.00046477,4693.9,-0.00014003,149.59,-0.00015995,-0.026206,0.16696
24733,5.6396,0.90909,0.1,0.00046081,4605,0.00046291,4669.3,-0.00014104,131.46,-0.00015854,-0.029553,0.17193
24734,5.5472,1.1818,0.1,0.00046035,4600.3,0.00046307,4685,-0.00013728,174.21,-0.00016046,-0.01816,0.16785
24735,5.6396,1.0909,0.1,0.00045877,4584.6,0.00046122,4660.5,-0.00013831,155.79,-0.00015905,-0.021264,0.17287
24736,5.5472,1.3636,0.1,0.00045843,4581.1,0.00046147,4676.6,-0.00013469,197.25,-0.00016095,-0.011419,0.16865
24737,5.6396,1.2727,0.1,0.00045685,4565.4,0.00045963,4652.1,-0.00013574,178.7,-0.00015953,-0.013971,0.17371
24738,5.5472,1.5455,0.1,0.00045666,4563.4,0.00045998,4668.8,-0.00013231,218.52,-0.00016139,-0.0059724,0.16936
24739,5.6396,1.4545,0.1,0.00045507,4547.6,0.00045815,4644.3,-0.00013335,200.01,-0.00015997,-0.0082738,0.17447
24740,5.5472,1.7273,0.1,0.00045506,4547.4,0.00045863,4661.7,-0.00013014,237.81,-0.00016179,-0.0014228,0.16998
24741,5.6396,1.6364,0.1,0.00045345,4531.3,0.00045678,4637.1,-0.00013116,219.5,-0.00016038,-0.0035023,0.17514
24742,5.5472,1.9091,0.1,0.00045364,4533.2,0.00045743,4655.3,-0.00012822,254.94,-0.00016215,0.0023556,0.17052
24743,5.6396,1.8182,0.1,0.00045199,4516.8,0.00045555,4630.6,-0.0001292,237,-0.00016074,0.00045802,0.17572
24744,5.5472,2.0909,0.1,0.00045241,4521,0.00045639,4649.8,-0.00012656,269.74,-0.00016246,0.0054653,0.17097
24745,5.6396,2,0.1,0.00045071,4504,0.00045448,4624.9,-0.00012748,252.34,-0.00016106,0.0037434,0.17621
24746,5.5472,2.2727,0.1,0.00045139,4510.8,0.00045553,4645.2,-0.00012517,282.06,-0.00016271,0.0079608,0.17134
24747,5.6396,2.1818,0.1,0.00044963,4493.2,0.00045356,4620,-0.00012601,265.36,-0.00016133,0.006419,0.17662
24748,5.5472,2.4545,0.1,0.00045059,4502.8,0.00045484,4641.6,-0.00012408,291.78,-0.00016291,0.0098755,0.17162
24749,5.6396,2.3636,0.1,0.00044875,4484.4,0.00045281,4616.1,-0.00012482,275.95,-0.00016155,0.008526,0.17695
24750,5.5472,2.6364,0.1,0.00045001,4497,0.00045435,4639,-0.00012329,298.79,-0.00016306,0.011231,0.17183
24751,5.6396,2.5455,0.1,0.00044809,4477.8,0.00045224,4613,-0.00012392,283.98,-0.00016171,0.010088,0.1772
24752,5.5472,2.8182,0.1,0.00044966,4493.5,0.00045405,4637.4,-0.00012282,303.03,-0.00016314,0.012041,0.17195
24753,5.6396,2.7273,0.1,0.00044764,4473.3,0.00045186,4611,-0.00012331,289.39,-0.00016182,0.011124,0.17736
24754,5.5472,3,0.1,0.00044954,4492.3,0.00045395,4636.8,-0.00012266,304.45,-0.00016317,0.01231,0.17199
24755,5.6396,2.9091,0.1,0.00044742,4471.1,0.00045167,4610,-0.000123,292.1,-0.00016188,0.01164,0.17744
24756,5.5472,3.1818,0.1,0.00044966,4493.5,0.00045405,4637.4,-0.00012282,303.03,-0.00016314,0.012041,0.17195
24757,5.6396,3.0909,0.1,0.00044742,4471.1,0.00045167,4610,-0.000123,292.1,-0.00016188,0.01164,0.17744
24758,5.5472,3.3636,0.1,0.00045001,4497,0.00045435,4639,-0.00012329,298.79,-0.00016306,0.011231,0.17183
24759,5.6396,3.2727,0.1,0.00044764,4473.3,0.00045186,4611,-0.00012331,289.39,-0.00016182,0.011124,0.17736
24760,5.5472,3.5455,0.1,0.00045059,4502.8,0.00045484,4641.6,-0.00012408,291.78,-0.00016291,0.0098757,0.17162
24761,5.6396,3.4545,0.1,0.00044809,4477.8,0.00045224,4613,-0.00012392,283.98,-0.00016171,0.010089,0.1772
24762,5.5472,3.7273,0.1,0.00045139,4510.8,0.00045553,4645.2,-0.00012517,282.06,-0.00016271,0.0079611,0.17134
24763,5.6396,3.6364,0.1,0.00044875,4484.4,0.00045281,4616.1,-0.00012482,275.95,-0.00016155,0.0085263,0.17695
24764,5.5472,3.9091,0.1,0.00045241,4521,0.00045639,4649.8,-0.00012656,269.74,-0.00016246,0.0054657,0.17097
24765,5.6396,3.8182,0.1,0.00044963,4493.2,0.00045356,4620,-0.00012601,265.36,-0.00016133,0.0064194,0.17662
24766,5.5472,4.0909,0.1,0.00045364,4533.2,0.00045743,4655.3,-0.00012822,254.94,-0.00016215,0.0023561,0.17052
24767,5.6396,4,0.1,0.00045071,4504,0.00045448,4624.9,-0.00012748,252.34,-0.00016106,0.0037438,0.17621
24768,5.5472,4.2727,0.1,0.00045506,4547.4,0.00045863,4661.7,-0.00013014,237.81,-0.00016179,-0.0014222,0.16998
24769,5.6396,4.1818,0.1,0.00045199,4516.8,0.00045555,4630.6,-0.0001292,237,-0.00016074,0.00045852,0.17572
24770,5.5472,4.4545,0.1,0.00045666,4563.4,0.00045998,4668.8,-0.00013231,218.52,-0.00016139,-0.0059717,0.16936
24771,5.6396,4.3636,0.1,0.00045345,4531.3,0.00045678,4637.1,-0.00013116,219.5,-0.00016038,-0.0035017,0.17514
24772,5.5472,4.6364,0.1,0.00045843,4581.1,0.00046147,4676.6,-0.00013469,197.25,-0.00016095,-0.011418,0.16865
24773,5.6396,4.5455,0.1,0.00045507,4547.6,0.00045815,4644.3,-0.00013335,200.01,-0.00015997,-0.0082731,0.17447
24774,5.5472,4.8182,0.1,0.00046035,4600.3,0.00046307,4685,-0.00013728,174.21,-0.00016046,-0.01816,0.16785
24775,5.6396,4.7273,0.1,0.00045685,4565.4,0.00045963,4652.1,-0.00013574,178.7,-0.00015953,-0.01397,0.17371
24776,5.5472,5,0.1,0.00046241,4620.9,0.00046477,4693.9,-0.00014003,149.59,-0.00015995,-0.026205,0.16696
24777,5.6396,4.9091,0.1,0.00045877,4584.6,0.00046122,4660.5,-0.00013831,155.79,-0.00015905,-0.021264,0.17287
24778,5.5472,5.1818,0.1,0.00046458,4642.6,0.00046656,4703.2,-0.00014294,123.63,-0.0001594,-0.038658,0.16598
24779,5.6396,5.0909,0.1,0.00046081,4605,0.00046291,4669.3,-0.00014104,131.46,-0.00015854,-0.029551,0.17193
24780,5.5472,5.3636,0.1,0.00046685,4665.3,0.00046842,4712.8,-0.00014597,96.547,-0.00015882,-0.049239,0.1649
24781,5.6396,5.2727,0.1,0.00046296,4626.4,0.00046467,4678.4,-0.00014389,105.94,-0.000158,-0.045539,0.1709
24782,5.5472,5.5455,0.1,0.00046921,4688.8,0.00047033,4722.7,-0.00014909,68.523,-0.00015823,-0.11118,0.16373
24783,5.6396,5.4545,0.1,0.00046519,4648.7,0.00046649,4687.8,-0.00014686,79.434,-0.00015743,-0.050993,0.16978
24784,5.5472,5.7273,0.1,0.00047163,4713.1,0.00047229,4732.7,-0.00015231,39.687,-0.00015761,-0.15388,0.16246
24785,5.6396,5.6364,0.1,0.00046749,4671.7,0.00046835,4697.4,-0.0001499,52.089,-0.00015686,-0.16869,0.16856
24786,5.6396,5.8182,0.1,0.00046987,4695.4,0.00047027,4707.3,-0.00015304,24.025,-0.00015626,-0.17361,0.16724
24787,5.5472,5.9091,0.1,0.00047383,4735.1,0.00047406,4741.6,-0.00015524,13.339,-0.00015704,-0.16563,0.16109
24788,5.7321,0.27273,0.1,0.00046572,4654,0.00046633,4672,-0.00015064,36.377,-0.0001555,-0.13951,0.17344
24789,5.8245,0.18182,0.1,0.00046389,4635.7,0.00046426,4646.5,-0.00015125,21.861,-0.00015418,-0.15815,0.17838
24790,5.7321,0.090909,0.1,0.00046775,4674.3,0.00046795,4680.2,-0.00015334,12.125,-0.00015497,-0.15613,0.17207
24791,5.7321,0.45455,0.1,0.00046347,4631.5,0.00046451,4662.6,-0.00014767,62.983,-0.00015606,-0.1013,0.17471
24792,5.8245,0.36364,0.1,0.00046168,4613.6,0.00046247,4637.3,-0.00014835,47.782,-0.00015473,-0.15392,0.17969
24793,5.7321,0.63636,0.1,0.00046129,4609.7,0.00046274,4653.5,-0.00014478,88.808,-0.00015661,-0.044732,0.17588
24794,5.8245,0.54545,0.1,0.00045955,4592.3,0.00046075,4628.4,-0.00014554,72.99,-0.00015526,-0.046212,0.18092
24795,5.7321,0.81818,0.1,0.00045919,4588.7,0.00046102,4644.5,-0.00014199,113.75,-0.00015713,-0.035234,0.17696
24796,5.8245,0.72727,0.1,0.00045749,4571.7,0.00045907,4619.6,-0.0001428,97.403,-0.00015577,-0.041482,0.18204
24797,5.7321,1,0.1,0.00045718,4568.6,0.00045936,4635.9,-0.00013932,137.64,-0.00015764,-0.023935,0.17794
24798,5.8245,0.90909,0.1,0.00045551,4551.9,0.00045744,4611.1,-0.00014017,120.9,-0.00015627,-0.026961,0.18307
24799,5.7321,1.1818,0.1,0.00045528,4549.6,0.00045779,4627.6,-0.00013678,160.27,-0.00015811,-0.016646,0.17883
24800,5.8245,1.0909,0.1,0.00045362,4533.1,0.00045589,4603,-0.00013767,143.27,-0.00015674,-0.019466,0.18401
24801,5.7321,1.3636,0.1,0.0004535,4531.9,0.00045631,4619.9,-0.0001344,181.44,-0.00015855,-0.010528,0.17963
24802,5.8245,1.2727,0.1,0.00045184,4515.3,0.00045442,4595.2,-0.0001353,164.33,-0.00015718,-0.012852,0.18485
24803,5.7321,1.5455,0.1,0.00045186,4515.5,0.00045495,4612.6,-0.00013221,200.97,-0.00015896,-0.0055835,0.18035
24804,5.8245,1.4545,0.1,0.0004502,4498.9,0.00045304,4588,-0.00013311,183.9,-0.00015758,-0.0076853,0.18561
24805,5.7321,1.7273,0.1,0.00045038,4500.7,0.0004537,4606.1,-0.00013022,218.68,-0.00015933,-0.0014489,0.18097
24806,5.8245,1.6364,0.1,0.0004487,4483.9,0.00045179,4581.4,-0.0001311,201.8,-0.00015795,-0.0033533,0.18628
24807,5.7321,1.9091,0.1,0.00044907,4487.6,0.0004526,4600.2,-0.00012846,234.39,-0.00015965,0.0019874,0.18151
24808,5.8245,1.8182,0.1,0.00044735,4470.4,0.00045066,4575.3,-0.00012929,217.86,-0.00015828,0.0002449,0.18686
24809,5.7321,2.0909,0.1,0.00044794,4476.3,0.00045164,4595.1,-0.00012693,247.96,-0.00015993,0.0048179,0.18196
24810,5.8245,2,0.1,0.00044617,4458.6,0.00044966,4570.1,-0.00012771,231.92,-0.00015857,0.0032321,0.18736
24811,5.7321,2.2727,0.1,0.000447,4466.9,0.00045084,4590.9,-0.00012566,259.25,-0.00016016,0.0070909,0.18233
24812,5.8245,2.1818,0.1,0.00044517,4448.6,0.00044882,4565.6,-0.00012636,243.87,-0.00015882,0.0056668,0.18777
24813,5.7321,2.4545,0.1,0.00044626,4459.5,0.00045021,4587.5,-0.00012466,268.15,-0.00016035,0.008836,0.18262
24814,5.8245,2.3636,0.1,0.00044436,4440.5,0.00044813,4561.9,-0.00012527,253.57,-0.00015902,0.0075852,0.1881
24815,5.7321,2.6364,0.1,0.00044572,4454.1,0.00044976,4585.1,-0.00012394,274.58,-0.00016048,0.010072,0.18282
24816,5.8245,2.5455,0.1,0.00044374,4434.4,0.00044761,4559.1,-0.00012444,260.93,-0.00015917,0.0090084,0.18835
24817,5.7321,2.8182,0.1,0.0004454,4450.9,0.00044948,4583.6,-0.0001235,278.46,-0.00016056,0.010811,0.18295
24818,5.8245,2.7273,0.1,0.00044333,4430.3,0.00044726,4557.2,-0.00012389,265.88,-0.00015927,0.0099525,0.18851
24819,5.7321,3,0.1,0.00044529,4449.8,0.00044939,4583.1,-0.00012335,279.76,-0.00016058,0.011057,0.18299
24820,5.8245,2.9091,0.1,0.00044312,4428.2,0.00044708,4556.3,-0.00012361,268.36,-0.00015932,0.010423,0.18859
24821,5.7321,3.1818,0.1,0.0004454,4450.9,0.00044948,4583.6,-0.0001235,278.46,-0.00016056,0.010811,0.18295
24822,5.8245,3.0909,0.1,0.00044312,4428.2,0.00044708,4556.3,-0.00012361,268.36,-0.00015932,0.010423,0.18859
24823,5.7321,3.3636,0.1,0.00044572,4454.1,0.00044976,4585.1,-0.00012394,274.58,-0.00016048,0.010072,0.18282
24824,5.8245,3.2727,0.1,0.00044333,4430.3,0.00044726,4557.2,-0.00012389,265.88,-0.00015927,0.0099525,0.18851
24825,5.7321,3.5455,0.1,0.00044626,4459.5,0.00045021,4587.5,-0.00012466,268.15,-0.00016035,0.0088363,0.18262
24826,5.8245,3.4545,0.1,0.00044374,4434.4,0.00044761,4559.1,-0.00012444,260.93,-0.00015917,0.0090088,0.18835
24827,5.7321,3.7273,0.1,0.000447,4466.9,0.00045084,4590.9,-0.00012566,259.25,-0.00016016,0.0070912,0.18233
24828,5.8245,3.6364,0.1,0.00044436,4440.5,0.00044813,4561.9,-0.00012527,253.57,-0.00015902,0.0075856,0.1881
24829,5.7321,3.9091,0.1,0.00044794,4476.3,0.00045164,4595.1,-0.00012693,247.96,-0.00015993,0.0048183,0.18196
24830,5.8245,3.8182,0.1,0.00044517,4448.6,0.00044882,4565.6,-0.00012636,243.87,-0.00015882,0.0056672,0.18777
24831,5.7321,4.0909,0.1,0.00044907,4487.6,0.0004526,4600.2,-0.00012846,234.39,-0.00015965,0.0019878,0.18151
24832,5.8245,4,0.1,0.00044617,4458.6,0.00044966,4570.1,-0.00012771,231.92,-0.00015857,0.0032326,0.18736
24833,5.7321,4.2727,0.1,0.00045038,4500.7,0.0004537,4606.1,-0.00013022,218.68,-0.00015933,-0.0014484,0.18097
24834,5.8245,4.1818,0.1,0.00044735,4470.4,0.00045066,4575.3,-0.00012929,217.86,-0.00015828,0.0002454,0.18686
24835,5.7321,4.4545,0.1,0.00045186,4515.5,0.00045495,4612.6,-0.00013221,200.97,-0.00015896,-0.0055828,0.18035
24836,5.8245,4.3636,0.1,0.0004487,4483.9,0.00045179,4581.4,-0.0001311,201.8,-0.00015795,-0.0033527,0.18628
24837,5.7321,4.6364,0.1,0.0004535,4531.9,0.00045631,4619.9,-0.0001344,181.44,-0.00015855,-0.010528,0.17963
24838,5.8245,4.5455,0.1,0.0004502,4498.9,0.00045304,4588,-0.00013311,183.9,-0.00015758,-0.0076846,0.18561
24839,5.7321,4.8182,0.1,0.00045528,4549.6,0.00045779,4627.6,-0.00013678,160.27,-0.00015811,-0.016645,0.17883
24840,5.8245,4.7273,0.1,0.00045184,4515.3,0.00045442,4595.2,-0.0001353,164.33,-0.00015718,-0.012851,0.18485
24841,5.7321,5,0.1,0.00045718,4568.6,0.00045936,4635.9,-0.00013932,137.64,-0.00015764,-0.023934,0.17794
24842,5.8245,4.9091,0.1,0.00045362,4533.1,0.00045589,4603,-0.00013767,143.27,-0.00015674,-0.019465,0.18401
24843,5.7321,5.1818,0.1,0.00045919,4588.7,0.00046102,4644.5,-0.00014199,113.75,-0.00015713,-0.035233,0.17696
24844,5.8245,5.0909,0.1,0.00045551,4551.9,0.00045744,4611.1,-0.00014017,120.9,-0.00015627,-0.02696,0.18307
24845,5.7321,5.3636,0.1,0.00046129,4609.7,0.00046274,4653.5,-0.00014478,88.808,-0.00015661,-0.044732,0.17588
24846,5.8245,5.2727,0.1,0.00045749,4571.7,0.00045907,4619.6,-0.0001428,97.403,-0.00015577,-0.041482,0.18204
24847,5.7321,5.5455,0.1,0.00046347,4631.5,0.00046451,4662.6,-0.00014767,62.983,-0.00015606,-0.10129,0.17471
24848,5.8245,5.4545,0.1,0.00045955,4592.3,0.00046075,4628.4,-0.00014554,72.99,-0.00015526,-0.046212,0.18092
24849,5.7321,5.7273,0.1,0.00046572,4654,0.00046633,4672,-0.00015064,36.377,-0.0001555,-0.13951,0.17344
24850,5.8245,5.6364,0.1,0.00046168,4613.6,0.00046247,4637.3,-0.00014835,47.782,-0.00015473,-0.15392,0.17969
24851,5.8245,5.8182,0.1,0.00046389,4635.7,0.00046426,4646.5,-0.00015125,21.861,-0.00015418,-0.15814,0.17838
24852,5.7321,5.9091,0.1,0.00046775,4674.3,0.00046795,4680.2,-0.00015334,12.125,-0.00015497,-0.15613,0.17207
24853,5.917,0.27273,0.1,0.00045985,4595.3,0.0004604,4611.8,-0.00014896,33.225,-0.0001534,-0.1267,0.18474
24854,6.0094,0.18182,0.1,0.00045796,4576.5,0.00045829,4586.3,-0.00014947,19.772,-0.00015212,-0.14516,0.18983
24855,5.917,0.090909,0.1,0.00046172,4614,0.0004619,4619.4,-0.00015144,10.941,-0.00015292,-0.14778,0.18337
24856,5.917,0.45455,0.1,0.00045776,4574.5,0.00045872,4603,-0.00014622,57.776,-0.00015392,-0.092276,0.186
24857,6.0094,0.36364,0.1,0.00045591,4556,0.00045664,4577.6,-0.00014679,43.717,-0.00015262,-0.14043,0.19115
24858,5.917,0.63636,0.1,0.00045575,4554.3,0.00045708,4594.6,-0.00014356,81.573,-0.00015442,-0.040642,0.18718
24859,6.0094,0.54545,0.1,0.00045394,4536.3,0.00045504,4569.4,-0.00014419,66.955,-0.00015311,-0.041878,0.19237
24860,5.917,0.81818,0.1,0.0004538,4534.9,0.00045549,4586.3,-0.00014099,104.54,-0.00015491,-0.032125,0.18825
24861,6.0094,0.72727,0.1,0.00045203,4517.2,0.00045349,4561.2,-0.00014167,89.441,-0.00015358,-0.037789,0.19349
24862,5.917,1,0.1,0.00045194,4516.3,0.00045396,4578.2,-0.00013853,126.52,-0.00015537,-0.021882,0.18924
24863,6.0094,0.90909,0.1,0.0004502,4498.9,0.00045198,4553.4,-0.00013925,111.07,-0.00015403,-0.024611,0.19452
24864,5.917,1.1818,0.1,0.00045019,4498.8,0.00045251,4570.6,-0.00013619,147.33,-0.0001558,-0.015285,0.19013
24865,6.0094,1.0909,0.1,0.00044845,4481.4,0.00045055,4545.8,-0.00013694,131.64,-0.00015446,-0.017841,0.19546
24866,5.917,1.3636,0.1,0.00044854,4482.3,0.00045115,4563.4,-0.00013401,166.78,-0.0001562,-0.0097413,0.19093
24867,6.0094,1.2727,0.1,0.00044681,4465.1,0.00044919,4538.6,-0.00013477,151.01,-0.00015487,-0.011852,0.1963
24868,5.917,1.5455,0.1,0.00044703,4467.2,0.00044989,4556.7,-0.00013199,184.72,-0.00015658,-0.0052567,0.19164
24869,6.0094,1.4545,0.1,0.00044529,4449.9,0.00044793,4531.9,-0.00013275,168.98,-0.00015524,-0.0071711,0.19706
24870,5.917,1.7273,0.1,0.00044566,4453.6,0.00044874,4550.6,-0.00013016,200.97,-0.00015691,-0.0015041,0.19227
24871,6.0094,1.6364,0.1,0.0004439,4436,0.00044677,4525.8,-0.0001309,185.42,-0.00015558,-0.0032429,0.19773
24872,5.917,1.9091,0.1,0.00044445,4441.4,0.00044772,4545.2,-0.00012854,215.38,-0.00015721,0.0016171,0.19281
24873,6.0094,1.8182,0.1,0.00044266,4423.5,0.00044572,4520.2,-0.00012924,200.15,-0.00015588,2.1918e-05,0.19831
24874,5.917,2.0909,0.1,0.0004434,4431,0.00044684,4540.5,-0.00012714,227.83,-0.00015746,0.0041898,0.19326
24875,6.0094,2,0.1,0.00044157,4412.7,0.00044481,4515.3,-0.00012779,213.06,-0.00015614,0.0027344,0.19881
24876,5.917,2.2727,0.1,0.00044254,4422.3,0.00044611,4536.6,-0.00012598,238.18,-0.00015768,0.0062571,0.19363
24877,6.0094,2.1818,0.1,0.00044065,4403.4,0.00044403,4511.2,-0.00012656,224.01,-0.00015637,0.0049465,0.19923
24878,5.917,2.4545,0.1,0.00044185,4415.5,0.00044553,4533.5,-0.00012506,246.34,-0.00015784,0.007845,0.19392
24879,6.0094,2.3636,0.1,0.0004399,4396,0.0004434,4507.8,-0.00012555,232.9,-0.00015655,0.0066906,0.19955
24880,5.917,2.6364,0.1,0.00044136,4410.5,0.00044511,4531.2,-0.00012439,252.23,-0.00015796,0.0089705,0.19413
24881,6.0094,2.5455,0.1,0.00043933,4390.3,0.00044292,4505.2,-0.00012479,239.65,-0.00015669,0.007985,0.1998
24882,5.917,2.8182,0.1,0.00044106,4407.6,0.00044485,4529.9,-0.00012399,255.78,-0.00015803,0.0096433,0.19425
24883,6.0094,2.7273,0.1,0.00043895,4386.5,0.00044259,4503.5,-0.00012428,244.18,-0.00015678,0.0088438,0.19997
24884,5.917,3,0.1,0.00044096,4406.6,0.00044477,4529.4,-0.00012386,256.97,-0.00015806,0.0098673,0.19429
24885,6.0094,2.9091,0.1,0.00043876,4384.6,0.00044243,4502.6,-0.00012403,246.46,-0.00015683,0.0092723,0.20005
24886,5.917,3.1818,0.1,0.00044106,4407.6,0.00044485,4529.9,-0.00012399,255.78,-0.00015803,0.0096434,0.19425
24887,6.0094,3.0909,0.1,0.00043876,4384.6,0.00044243,4502.6,-0.00012403,246.46,-0.00015683,0.0092724,0.20005
24888,5.917,3.3636,0.1,0.00044136,4410.5,0.00044511,4531.2,-0.00012439,252.23,-0.00015796,0.0089707,0.19413
24889,6.0094,3.2727,0.1,0.00043895,4386.5,0.00044259,4503.5,-0.00012428,244.18,-0.00015678,0.0088439,0.19997
24890,5.917,3.5455,0.1,0.00044185,4415.5,0.00044553,4533.5,-0.00012506,246.34,-0.00015784,0.0078454,0.19392
24891,6.0094,3.4545,0.1,0.00043933,4390.3,0.00044292,4505.2,-0.00012479,239.65,-0.00015669,0.0079852,0.1998
24892,5.917,3.7273,0.1,0.00044254,4422.3,0.00044611,4536.6,-0.00012598,238.18,-0.00015768,0.0062575,0.19363
24893,6.0094,3.6364,0.1,0.0004399,4396,0.0004434,4507.8,-0.00012555,232.9,-0.00015655,0.006691,0.19955
24894,5.917,3.9091,0.1,0.0004434,4431,0.00044684,4540.5,-0.00012714,227.83,-0.00015746,0.0041902,0.19326
24895,6.0094,3.8182,0.1,0.00044065,4403.4,0.00044403,4511.2,-0.00012656,224.01,-0.00015637,0.0049469,0.19923
24896,5.917,4.0909,0.1,0.00044445,4441.4,0.00044772,4545.2,-0.00012854,215.38,-0.00015721,0.0016176,0.19281
24897,6.0094,4,0.1,0.00044157,4412.7,0.00044481,4515.3,-0.00012779,213.06,-0.00015614,0.0027348,0.19881
24898,5.917,4.2727,0.1,0.00044566,4453.6,0.00044874,4550.6,-0.00013016,200.97,-0.00015691,-0.0015035,0.19227
24899,6.0094,4.1818,0.1,0.00044266,4423.5,0.00044572,4520.2,-0.00012924,200.15,-0.00015588,2.2488e-05,0.19831
24900,5.917,4.4545,0.1,0.00044703,4467.2,0.00044989,4556.7,-0.00013199,184.72,-0.00015658,-0.0052561,0.19164
24901,6.0094,4.3636,0.1,0.0004439,4436,0.00044677,4525.8,-0.0001309,185.42,-0.00015558,-0.0032423,0.19773
24902,5.917,4.6364,0.1,0.00044854,4482.3,0.00045115,4563.4,-0.00013401,166.78,-0.0001562,-0.0097405,0.19093
24903,6.0094,4.5455,0.1,0.00044529,4449.9,0.00044793,4531.9,-0.00013275,168.98,-0.00015524,-0.0071703,0.19706
24904,5.917,4.8182,0.1,0.00045019,4498.8,0.00045251,4570.6,-0.00013619,147.33,-0.0001558,-0.015285,0.19013
24905,6.0094,4.7273,0.1,0.00044681,4465.1,0.00044919,4538.6,-0.00013477,151.01,-0.00015487,-0.011851,0.1963
24906,5.917,5,0.1,0.00045194,4516.3,0.00045396,4578.2,-0.00013853,126.52,-0.00015537,-0.021881,0.18924
24907,6.0094,4.9091,0.1,0.00044845,4481.4,0.00045055,4545.8,-0.00013694,131.64,-0.00015446,-0.017841,0.19546
24908,5.917,5.1818,0.1,0.0004538,4534.9,0.00045549,4586.3,-0.00014099,104.54,-0.00015491,-0.032124,0.18825
24909,6.0094,5.0909,0.1,0.0004502,4498.9,0.00045198,4553.4,-0.00013925,111.07,-0.00015403,-0.02461,0.19452
24910,5.917,5.3636,0.1,0.00045575,4554.3,0.00045708,4594.6,-0.00014356,81.573,-0.00015442,-0.040642,0.18718
24911,6.0094,5.2727,0.1,0.00045203,4517.2,0.00045349,4561.2,-0.00014167,89.441,-0.00015358,-0.037789,0.19349
24912,5.917,5.5455,0.1,0.00045776,4574.5,0.00045872,4603,-0.00014622,57.776,-0.00015392,-0.092275,0.186
24913,6.0094,5.4545,0.1,0.00045394,4536.3,0.00045504,4569.4,-0.00014419,66.955,-0.00015311,-0.041878,0.19237
24914,5.917,5.7273,0.1,0.00045985,4595.3,0.0004604,4611.8,-0.00014896,33.225,-0.0001534,-0.1267,0.18474
24915,6.0094,5.6364,0.1,0.00045591,4556,0.00045664,4577.6,-0.00014679,43.717,-0.00015262,-0.14043,0.19115
24916,6.0094,5.8182,0.1,0.00045796,4576.5,0.00045829,4586.3,-0.00014947,19.772,-0.00015212,-0.14516,0.18983
24917,5.917,5.9091,0.1,0.00046172,4614,0.0004619,4619.4,-0.00015144,10.941,-0.00015292,-0.14778,0.18337
24918,6.1019,0.27273,0.1,0.00045402,4537.1,0.00045453,4552.1,-0.00014729,30.231,-0.00015133,-0.11527,0.19635
24919,6.1943,0.18182,0.1,0.00045209,4517.7,0.00045238,4526.5,-0.0001477,17.761,-0.00015008,-0.13436,0.2016
24920,6.1019,0.090909,0.1,0.00045574,4554.2,0.0004559,4559,-0.00014957,9.7934,-0.00015089,-0.14057,0.19499
24921,6.1019,0.45455,0.1,0.00045209,4517.8,0.00045296,4543.9,-0.00014476,52.887,-0.00015181,-0.084036,0.19761
24922,6.1943,0.36364,0.1,0.00045018,4498.7,0.00045084,4518.5,-0.00014522,39.889,-0.00015054,-0.12808,0.20291
24923,6.1019,0.63636,0.1,0.00045022,4499.1,0.00045145,4536.1,-0.00014231,74.814,-0.00015227,-0.036923,0.19878
24924,6.1943,0.54545,0.1,0.00044835,4480.5,0.00044937,4510.8,-0.00014282,61.307,-0.00015099,-0.037938,0.20413
24925,6.1019,0.81818,0.1,0.00044843,4481.2,0.00044998,4528.4,-0.00013994,95.958,-0.00015271,-0.029296,0.19986
24926,6.1943,0.72727,0.1,0.00044659,4462.8,0.00044793,4503.2,-0.0001405,82.016,-0.00015142,-0.034418,0.20525
24927,6.1019,1,0.1,0.00044671,4464,0.00044857,4520.9,-0.00013767,116.18,-0.00015313,-0.020021,0.20084
24928,6.1943,0.90909,0.1,0.00044489,4445.8,0.00044654,4495.9,-0.00013827,101.92,-0.00015184,-0.022472,0.20628
24929,6.1019,1.1818,0.1,0.00044508,4447.7,0.00044723,4513.8,-0.00013552,135.32,-0.00015353,-0.014059,0.20173
24930,6.1943,1.0909,0.1,0.00044328,4429.7,0.00044521,4488.9,-0.00013614,120.85,-0.00015223,-0.016366,0.20721
24931,6.1019,1.3636,0.1,0.00044356,4432.6,0.00044597,4507.2,-0.00013351,153.2,-0.0001539,-0.0090404,0.20253
24932,6.1943,1.2727,0.1,0.00044176,4414.6,0.00044396,4482.3,-0.00013414,138.65,-0.0001526,-0.010949,0.20806
24933,6.1019,1.5455,0.1,0.00044217,4418.6,0.00044481,4501,-0.00013166,169.67,-0.00015424,-0.0049788,0.20325
24934,6.1943,1.4545,0.1,0.00044036,4400.5,0.00044279,4476.1,-0.00013228,155.17,-0.00015294,-0.0067144,0.20882
24935,6.1019,1.7273,0.1,0.0004409,4406,0.00044375,4495.4,-0.00012998,184.59,-0.00015455,-0.0015772,0.20387
24936,6.1943,1.6364,0.1,0.00043908,4387.7,0.00044172,4470.4,-0.00013059,170.25,-0.00015325,-0.0031575,0.20949
24937,6.1019,1.9091,0.1,0.00043978,4394.8,0.00044281,4490.3,-0.00012849,197.82,-0.00015482,0.0012538,0.20441
24938,6.1943,1.8182,0.1,0.00043793,4376.2,0.00044076,4465.2,-0.00012906,183.78,-0.00015352,-0.0001991,0.21007
24939,6.1019,2.0909,0.1,0.00043882,4385.1,0.000442,4486,-0.0001272,209.23,-0.00015505,0.0035888,0.20487
24940,6.1943,2,0.1,0.00043692,4366.2,0.00043992,4460.7,-0.00012773,195.62,-0.00015377,0.0022602,0.21057
24941,6.1019,2.2727,0.1,0.00043801,4377.1,0.00044132,4482.4,-0.00012613,218.72,-0.00015524,0.0054663,0.20524
24942,6.1943,2.1818,0.1,0.00043607,4357.7,0.0004392,4456.9,-0.0001266,205.66,-0.00015397,0.0042673,0.21098
24943,6.1019,2.4545,0.1,0.00043738,4370.8,0.00044079,4479.5,-0.00012529,226.2,-0.0001554,0.0069091,0.20553
24944,6.1943,2.3636,0.1,0.00043538,4350.8,0.00043862,4453.7,-0.00012568,213.81,-0.00015414,0.0058504,0.21131
24945,6.1019,2.6364,0.1,0.00043693,4366.2,0.0004404,4477.4,-0.00012468,231.6,-0.0001555,0.0079319,0.20574
24946,6.1943,2.5455,0.1,0.00043485,4345.5,0.00043818,4451.4,-0.00012498,220,-0.00015426,0.0070258,0.21156
24947,6.1019,2.8182,0.1,0.00043665,4363.5,0.00044017,4476.2,-0.00012431,234.86,-0.00015557,0.0085436,0.20586
24948,6.1943,2.7273,0.1,0.0004345,4342,0.00043788,4449.8,-0.00012451,224.16,-0.00015435,0.0078059,0.21173
24949,6.1019,3,0.1,0.00043656,4362.6,0.00044009,4475.8,-0.00012419,235.95,-0.00015559,0.0087472,0.2059
24950,6.1943,2.9091,0.1,0.00043433,4340.3,0.00043773,4449,-0.00012428,226.24,-0.00015439,0.0081952,0.21181
24951,6.1019,3.1818,0.1,0.00043665,4363.5,0.00044017,4476.2,-0.00012431,234.86,-0.00015557,0.0085436,0.20586
24952,6.1943,3.0909,0.1,0.00043433,4340.3,0.00043773,4449,-0.00012428,226.24,-0.00015439,0.0081952,0.21181
24953,6.1019,3.3636,0.1,0.00043693,4366.2,0.0004404,4477.4,-0.00012468,231.6,-0.0001555,0.007932,0.20574
24954,6.1943,3.2727,0.1,0.0004345,4342,0.00043788,4449.8,-0.00012451,224.16,-0.00015435,0.007806,0.21173
24955,6.1019,3.5455,0.1,0.00043738,4370.8,0.00044079,4479.5,-0.00012529,226.2,-0.0001554,0.0069093,0.20553
24956,6.1943,3.4545,0.1,0.00043485,4345.5,0.00043818,4451.4,-0.00012498,220,-0.00015426,0.0070259,0.21156
24957,6.1019,3.7273,0.1,0.00043801,4377.1,0.00044132,4482.4,-0.00012613,218.72,-0.00015524,0.0054666,0.20524
24958,6.1943,3.6364,0.1,0.00043538,4350.8,0.00043862,4453.7,-0.00012568,213.81,-0.00015414,0.0058508,0.21131
24959,6.1019,3.9091,0.1,0.00043882,4385.1,0.000442,4486,-0.0001272,209.23,-0.00015505,0.0035892,0.20487
24960,6.1943,3.8182,0.1,0.00043607,4357.7,0.0004392,4456.9,-0.0001266,205.66,-0.00015397,0.0042677,0.21098
24961,6.1019,4.0909,0.1,0.00043978,4394.8,0.00044281,4490.3,-0.00012849,197.82,-0.00015482,0.0012542,0.20441
24962,6.1943,4,0.1,0.00043692,4366.2,0.00043992,4460.7,-0.00012773,195.62,-0.00015377,0.0022606,0.21057
24963,6.1019,4.2727,0.1,0.0004409,4406,0.00044375,4495.4,-0.00012998,184.59,-0.00015455,-0.0015766,0.20387
24964,6.1943,4.1818,0.1,0.00043793,4376.2,0.00044076,4465.2,-0.00012906,183.78,-0.00015352,-0.00019863,0.21007
24965,6.1019,4.4545,0.1,0.00044217,4418.6,0.00044481,4501,-0.00013166,169.67,-0.00015424,-0.0049781,0.20325
24966,6.1943,4.3636,0.1,0.00043908,4387.7,0.00044172,4470.4,-0.00013059,170.25,-0.00015325,-0.0031568,0.20949
24967,6.1019,4.6364,0.1,0.00044356,4432.6,0.00044597,4507.2,-0.00013351,153.2,-0.0001539,-0.0090397,0.20253
24968,6.1943,4.5455,0.1,0.00044036,4400.5,0.00044279,4476.1,-0.00013228,155.17,-0.00015294,-0.0067138,0.20882
24969,6.1019,4.8182,0.1,0.00044508,4447.7,0.00044723,4513.8,-0.00013552,135.32,-0.00015353,-0.014058,0.20173
24970,6.1943,4.7273,0.1,0.00044176,4414.6,0.00044396,4482.3,-0.00013414,138.65,-0.0001526,-0.010948,0.20806
24971,6.1019,5,0.1,0.00044671,4464,0.00044857,4520.9,-0.00013767,116.18,-0.00015313,-0.02002,0.20084
24972,6.1943,4.9091,0.1,0.00044328,4429.7,0.00044521,4488.9,-0.00013614,120.85,-0.00015223,-0.016365,0.20721
24973,6.1019,5.1818,0.1,0.00044843,4481.2,0.00044998,4528.4,-0.00013994,95.958,-0.00015271,-0.029295,0.19986
24974,6.1943,5.0909,0.1,0.00044489,4445.8,0.00044654,4495.9,-0.00013827,101.92,-0.00015184,-0.022471,0.20628
24975,6.1019,5.3636,0.1,0.00045022,4499.1,0.00045145,4536.1,-0.00014231,74.814,-0.00015227,-0.036922,0.19878
24976,6.1943,5.2727,0.1,0.00044659,4462.8,0.00044793,4503.2,-0.0001405,82.016,-0.00015142,-0.034417,0.20525
24977,6.1019,5.5455,0.1,0.00045209,4517.8,0.00045296,4543.9,-0.00014476,52.887,-0.00015181,-0.084035,0.19761
24978,6.1943,5.4545,0.1,0.00044835,4480.5,0.00044937,4510.8,-0.00014282,61.307,-0.00015099,-0.037937,0.20413
24979,6.1019,5.7273,0.1,0.00045402,4537.1,0.00045453,4552.1,-0.00014729,30.231,-0.00015133,-0.11527,0.19635
24980,6.1943,5.6364,0.1,0.00045018,4498.7,0.00045084,4518.5,-0.00014522,39.889,-0.00015054,-0.12808,0.20291
24981,6.1943,5.8182,0.1,0.00045209,4517.7,0.00045238,4526.5,-0.0001477,17.761,-0.00015008,-0.13436,0.2016
24982,6.1019,5.9091,0.1,0.00045574,4554.2,0.0004559,4559,-0.00014957,9.7934,-0.00015089,-0.14057,0.19499
24983,6.2868,0.27273,0.1,0.00044824,4479.3,0.0004487,4492.9,-0.00014562,27.393,-0.00014928,-0.10505,0.20827
24984,6.3792,0.18182,0.1,0.00044625,4459.5,0.00044652,4467.3,-0.00014593,15.833,-0.00014806,-0.12554,0.21368
24985,6.2868,0.090909,0.1,0.0004498,4494.9,0.00044995,4499.2,-0.0001477,8.6854,-0.00014888,-0.1345,0.20691
24986,6.2868,0.45455,0.1,0.00044644,4461.4,0.00044725,4485.3,-0.00014328,48.302,-0.00014972,-0.076491,0.20953
24987,6.3792,0.36364,0.1,0.00044448,4441.8,0.00044509,4459.7,-0.00014364,36.288,-0.00014848,-0.11677,0.21499
24988,6.2868,0.63636,0.1,0.00044472,4444.1,0.00044584,4477.9,-0.00014102,68.503,-0.00015014,-0.033527,0.2107
24989,6.3792,0.54545,0.1,0.00044279,4424.9,0.00044372,4452.6,-0.00014143,56.026,-0.00014889,-0.034354,0.2162
24990,6.2868,0.81818,0.1,0.00044305,4427.5,0.00044448,4470.8,-0.00013883,87.971,-0.00015055,-0.026709,0.21177
24991,6.3792,0.72727,0.1,0.00044116,4408.5,0.00044239,4445.6,-0.00013929,75.098,-0.00014929,-0.031341,0.21732
24992,6.2868,1,0.1,0.00044146,4411.6,0.00044318,4463.9,-0.00013674,106.58,-0.00015093,-0.018322,0.21275
24993,6.3792,0.90909,0.1,0.00043959,4392.8,0.0004411,4438.8,-0.00013723,93.416,-0.00014967,-0.020525,0.21834
24994,6.2868,1.1818,0.1,0.00043996,4396.6,0.00044194,4457.3,-0.00013477,124.17,-0.0001513,-0.012942,0.21364
24995,6.3792,1.0909,0.1,0.0004381,4377.9,0.00043988,4432.3,-0.00013528,110.83,-0.00015003,-0.015027,0.21927
24996,6.2868,1.3636,0.1,0.00043856,4382.6,0.00044078,4451.2,-0.00013292,140.61,-0.00015163,-0.008406,0.21444
24997,6.3792,1.2727,0.1,0.0004367,4363.9,0.00043872,4426.1,-0.00013344,127.19,-0.00015037,-0.010135,0.22012
24998,6.2868,1.5455,0.1,0.00043727,4369.7,0.00043971,4445.5,-0.00013122,155.74,-0.00015194,-0.0047327,0.21515
24999,6.3792,1.4545,0.1,0.0004354,4351,0.00043764,4420.4,-0.00013173,142.37,-0.00015068,-0.006311,0.22088
25000,6.2868,1.7273,0.1,0.0004361,4358,0.00043874,4440.2,-0.00012967,169.44,-0.00015222,-0.0016539,0.21578
25001,6.3792,1.6364,0.1,0.00043421,4339.1,0.00043666,4415.1,-0.00013017,156.22,-0.00015096,-0.003095,0.22155
25002,6.2868,1.9091,0.1,0.00043507,4347.7,0.00043787,4435.6,-0.00012831,181.58,-0.00015247,0.00091023,0.21632
25003,6.3792,1.8182,0.1,0.00043315,4328.5,0.00043577,4410.4,-0.00012877,168.64,-0.00015121,-0.0004184,0.22213
25004,6.2868,2.0909,0.1,0.00043418,4338.8,0.00043712,4431.6,-0.00012713,192.05,-0.00015269,0.0030264,0.21678
25005,6.3792,2,0.1,0.00043222,4319.3,0.000435,4406.2,-0.00012754,179.5,-0.00015143,0.0018081,0.22263
25006,6.2868,2.2727,0.1,0.00043343,4331.4,0.0004365,4428.2,-0.00012614,200.75,-0.00015286,0.0047288,0.21715
25007,6.3792,2.1818,0.1,0.00043144,4311.4,0.00043434,4402.7,-0.0001265,188.72,-0.00015162,0.0036264,0.22304
25008,6.2868,2.4545,0.1,0.00043285,4325.5,0.00043601,4425.6,-0.00012537,207.61,-0.000153,0.0060375,0.21744
25009,6.3792,2.3636,0.1,0.0004308,4305,0.0004338,4399.8,-0.00012566,196.19,-0.00015177,0.0050611,0.22337
25010,6.2868,2.6364,0.1,0.00043243,4321.3,0.00043565,4423.7,-0.00012481,212.56,-0.0001531,0.0069658,0.21765
25011,6.3792,2.5455,0.1,0.00043032,4300.2,0.00043339,4397.6,-0.00012502,201.86,-0.00015189,0.0061266,0.22362
25012,6.2868,2.8182,0.1,0.00043218,4318.8,0.00043544,4422.5,-0.00012448,215.54,-0.00015316,0.0075211,0.21777
25013,6.3792,2.7273,0.1,0.00042999,4296.9,0.00043312,4396.1,-0.00012459,205.67,-0.00015196,0.0068342,0.22378
25014,6.2868,3,0.1,0.00043209,4317.9,0.00043537,4422.1,-0.00012436,216.54,-0.00015318,0.007706,0.21781
25015,6.3792,2.9091,0.1,0.00042983,4295.3,0.00043298,4395.4,-0.00012437,207.59,-0.000152,0.0071874,0.22387
25016,6.2868,3.1818,0.1,0.00043218,4318.8,0.00043544,4422.5,-0.00012448,215.54,-0.00015316,0.0075212,0.21777
25017,6.3792,3.0909,0.1,0.00042983,4295.3,0.00043298,4395.4,-0.00012437,207.59,-0.000152,0.0071874,0.22387
25018,6.2868,3.3636,0.1,0.00043243,4321.3,0.00043565,4423.7,-0.00012481,212.56,-0.0001531,0.0069659,0.21765
25019,6.3792,3.2727,0.1,0.00042999,4296.9,0.00043312,4396.1,-0.00012459,205.67,-0.00015196,0.0068344,0.22378
25020,6.2868,3.5455,0.1,0.00043285,4325.5,0.00043601,4425.6,-0.00012537,207.61,-0.000153,0.0060378,0.21744
25021,6.3792,3.4545,0.1,0.00043032,4300.2,0.00043339,4397.6,-0.00012502,201.86,-0.00015189,0.0061268,0.22362
25022,6.2868,3.7273,0.1,0.00043343,4331.4,0.0004365,4428.2,-0.00012614,200.75,-0.00015286,0.0047292,0.21715
25023,6.3792,3.6364,0.1,0.0004308,4305,0.0004338,4399.8,-0.00012566,196.19,-0.00015177,0.0050615,0.22337
25024,6.2868,3.9091,0.1,0.00043418,4338.8,0.00043712,4431.6,-0.00012713,192.05,-0.00015269,0.0030268,0.21678
25025,6.3792,3.8182,0.1,0.00043144,4311.4,0.00043434,4402.7,-0.0001265,188.72,-0.00015162,0.0036267,0.22304
25026,6.2868,4.0909,0.1,0.00043507,4347.7,0.00043787,4435.6,-0.00012831,181.58,-0.00015247,0.00091064,0.21632
25027,6.3792,4,0.1,0.00043222,4319.3,0.000435,4406.2,-0.00012754,179.5,-0.00015143,0.0018086,0.22263
25028,6.2868,4.2727,0.1,0.0004361,4358,0.00043874,4440.2,-0.00012967,169.44,-0.00015222,-0.0016533,0.21578
25029,6.3792,4.1818,0.1,0.00043315,4328.5,0.00043577,4410.4,-0.00012877,168.64,-0.00015121,-0.00041796,0.22213
25030,6.2868,4.4545,0.1,0.00043727,4369.7,0.00043971,4445.5,-0.00013122,155.74,-0.00015194,-0.0047322,0.21515
25031,6.3792,4.3636,0.1,0.00043421,4339.1,0.00043666,4415.1,-0.00013017,156.22,-0.00015096,-0.0030943,0.22155
25032,6.2868,4.6364,0.1,0.00043856,4382.6,0.00044078,4451.2,-0.00013292,140.61,-0.00015163,-0.0084053,0.21444
25033,6.3792,4.5455,0.1,0.0004354,4351,0.00043764,4420.4,-0.00013173,142.37,-0.00015068,-0.0063103,0.22088
25034,6.2868,4.8182,0.1,0.00043996,4396.6,0.00044194,4457.3,-0.00013477,124.17,-0.0001513,-0.012941,0.21364
25035,6.3792,4.7273,0.1,0.0004367,4363.9,0.00043872,4426.1,-0.00013344,127.19,-0.00015037,-0.010135,0.22012
25036,6.2868,5,0.1,0.00044146,4411.6,0.00044318,4463.9,-0.00013674,106.58,-0.00015093,-0.018321,0.21275
25037,6.3792,4.9091,0.1,0.0004381,4377.9,0.00043988,4432.3,-0.00013528,110.83,-0.00015003,-0.015027,0.21927
25038,6.2868,5.1818,0.1,0.00044305,4427.5,0.00044448,4470.8,-0.00013883,87.971,-0.00015055,-0.026708,0.21177
25039,6.3792,5.0909,0.1,0.00043959,4392.8,0.0004411,4438.8,-0.00013723,93.416,-0.00014967,-0.020524,0.21834
25040,6.2868,5.3636,0.1,0.00044472,4444.1,0.00044584,4477.9,-0.00014102,68.503,-0.00015014,-0.033526,0.2107
25041,6.3792,5.2727,0.1,0.00044116,4408.5,0.00044239,4445.6,-0.00013929,75.098,-0.00014929,-0.03134,0.21732
25042,6.2868,5.5455,0.1,0.00044644,4461.4,0.00044725,4485.3,-0.00014328,48.302,-0.00014972,-0.07649,0.20953
25043,6.3792,5.4545,0.1,0.00044279,4424.9,0.00044372,4452.6,-0.00014143,56.026,-0.00014889,-0.034353,0.2162
25044,6.2868,5.7273,0.1,0.00044824,4479.3,0.0004487,4492.9,-0.00014562,27.393,-0.00014928,-0.10505,0.20827
25045,6.3792,5.6364,0.1,0.00044448,4441.8,0.00044509,4459.7,-0.00014364,36.288,-0.00014848,-0.11677,0.21499
25046,6.3792,5.8182,0.1,0.00044625,4459.5,0.00044652,4467.3,-0.00014593,15.833,-0.00014806,-0.12554,0.21368
25047,6.2868,5.9091,0.1,0.0004498,4494.9,0.00044995,4499.2,-0.0001477,8.6854,-0.00014888,-0.13449,0.20691
25048,6.4717,0.27273,0.1,0.00044249,4421.9,0.00044291,4434.1,-0.00014395,24.707,-0.00014725,-0.095928,0.2205
25049,6.5642,0.18182,0.1,0.00044047,4401.6,0.0004407,4408.5,-0.00014418,13.989,-0.00014606,-0.11856,0.22607
25050,6.4717,0.090909,0.1,0.00044392,4436.1,0.00044405,4439.9,-0.00014585,7.6201,-0.00014688,-0.12966,0.21915
25051,6.4717,0.45455,0.1,0.00044083,4405.2,0.00044156,4427,-0.00014179,44.007,-0.00014765,-0.069593,0.22175
25052,6.5642,0.36364,0.1,0.00043882,4385.1,0.00043936,4401.4,-0.00014205,32.904,-0.00014645,-0.10642,0.22737
25053,6.4717,0.63636,0.1,0.00043923,4389.3,0.00044026,4420.2,-0.0001397,62.616,-0.00014804,-0.030438,0.22292
25054,6.5642,0.54545,0.1,0.00043725,4369.5,0.0004381,4394.8,-0.00014001,51.092,-0.00014682,-0.031098,0.22857
25055,6.4717,0.81818,0.1,0.00043769,4373.9,0.000439,4413.6,-0.00013769,80.538,-0.00014841,-0.024358,0.22398
25056,6.5642,0.72727,0.1,0.00043574,4354.4,0.00043687,4388.3,-0.00013804,68.654,-0.00014718,-0.028537,0.22968
25057,6.4717,1,0.1,0.00043622,4359.2,0.0004378,4407.2,-0.00013576,97.659,-0.00014876,-0.016785,0.22496
25058,6.5642,0.90909,0.1,0.00043429,4339.9,0.00043568,4382,-0.00013615,85.512,-0.00014753,-0.018759,0.23071
25059,6.4717,1.1818,0.1,0.00043483,4345.3,0.00043666,4401.1,-0.00013394,113.84,-0.0001491,-0.011939,0.22585
25060,6.5642,1.0909,0.1,0.00043291,4326.1,0.00043455,4376,-0.00013435,101.53,-0.00014786,-0.013819,0.23164
25061,6.4717,1.3636,0.1,0.00043354,4332.4,0.00043558,4395.4,-0.00013224,128.94,-0.00014941,-0.007846,0.22665
25062,6.5642,1.2727,0.1,0.00043161,4313.2,0.00043348,4370.3,-0.00013265,116.57,-0.00014817,-0.0094097,0.23248
25063,6.4717,1.5455,0.1,0.00043234,4320.4,0.0004346,4390.1,-0.00013068,142.85,-0.00014969,-0.0045294,0.22736
25064,6.5642,1.4545,0.1,0.00043041,4301.2,0.00043249,4364.9,-0.00013108,130.52,-0.00014845,-0.0059618,0.23323
25065,6.4717,1.7273,0.1,0.00043126,4309.7,0.0004337,4385.3,-0.00012926,155.42,-0.00014995,-0.001747,0.22799
25066,6.5642,1.6364,0.1,0.00042932,4290.2,0.00043158,4360.1,-0.00012965,143.24,-0.00014871,-0.0030589,0.2339
25067,6.4717,1.9091,0.1,0.00043031,4300.1,0.0004329,4381,-0.000128,166.56,-0.00015017,0.00057161,0.22853
25068,6.5642,1.8182,0.1,0.00042834,4280.5,0.00043076,4355.7,-0.00012836,154.64,-0.00014894,-0.00064132,0.23449
25069,6.4717,2.0909,0.1,0.00042949,4291.9,0.00043221,4377.3,-0.00012692,176.17,-0.00015037,0.0024866,0.22899
25070,6.5642,2,0.1,0.00042748,4271.9,0.00043005,4351.8,-0.00012724,164.61,-0.00014915,0.0013712,0.23498
25071,6.4717,2.2727,0.1,0.0004288,4285.1,0.00043164,4374.2,-0.00012602,184.16,-0.00015053,0.0040281,0.22936
25072,6.5642,2.1818,0.1,0.00042676,4264.6,0.00042944,4348.5,-0.00012628,173.06,-0.00014932,0.0030157,0.2354
25073,6.4717,2.4545,0.1,0.00042827,4279.7,0.00043119,4371.7,-0.00012531,190.45,-0.00015066,0.0052133,0.22965
25074,6.5642,2.3636,0.1,0.00042617,4258.8,0.00042895,4345.9,-0.00012551,179.92,-0.00014945,0.0043141,0.23573
25075,6.4717,2.6364,0.1,0.00042788,4275.8,0.00043086,4370,-0.0001248,194.98,-0.00015075,0.0060542,0.22985
25076,6.5642,2.5455,0.1,0.00042572,4254.3,0.00042857,4343.8,-0.00012492,185.12,-0.00014956,0.0052784,0.23597
25077,6.4717,2.8182,0.1,0.00042764,4273.5,0.00043066,4368.9,-0.00012449,197.72,-0.0001508,0.0065575,0.22998
25078,6.5642,2.7273,0.1,0.00042542,4251.3,0.00042832,4342.5,-0.00012453,188.61,-0.00014963,0.0059191,0.23614
25079,6.4717,3,0.1,0.00042757,4272.7,0.0004306,4368.6,-0.00012439,198.63,-0.00015082,0.006725,0.23002
25080,6.5642,2.9091,0.1,0.00042527,4249.8,0.00042819,4341.8,-0.00012433,190.37,-0.00014966,0.006239,0.23622
25081,6.4717,3.1818,0.1,0.00042764,4273.5,0.00043066,4368.9,-0.00012449,197.72,-0.0001508,0.0065575,0.22998
25082,6.5642,3.0909,0.1,0.00042527,4249.8,0.00042819,4341.8,-0.00012433,190.37,-0.00014966,0.0062389,0.23622
25083,6.4717,3.3636,0.1,0.00042788,4275.8,0.00043086,4370,-0.0001248,194.98,-0.00015075,0.0060544,0.22985
25084,6.5642,3.2727,0.1,0.00042542,4251.3,0.00042832,4342.5,-0.00012453,188.61,-0.00014963,0.0059192,0.23614
25085,6.4717,3.5455,0.1,0.00042827,4279.7,0.00043119,4371.7,-0.00012531,190.45,-0.00015066,0.0052136,0.22965
25086,6.5642,3.4545,0.1,0.00042572,4254.3,0.00042857,4343.8,-0.00012492,185.12,-0.00014956,0.0052787,0.23597
25087,6.4717,3.7273,0.1,0.0004288,4285.1,0.00043164,4374.2,-0.00012602,184.16,-0.00015053,0.0040284,0.22936
25088,6.5642,3.6364,0.1,0.00042617,4258.8,0.00042895,4345.9,-0.00012551,179.92,-0.00014945,0.0043142,0.23573
25089,6.4717,3.9091,0.1,0.00042949,4291.9,0.00043221,4377.3,-0.00012692,176.17,-0.00015037,0.0024871,0.22899
25090,6.5642,3.8182,0.1,0.00042676,4264.6,0.00042944,4348.5,-0.00012628,173.06,-0.00014932,0.003016,0.2354
25091,6.4717,4.0909,0.1,0.00043031,4300.1,0.0004329,4381,-0.000128,166.56,-0.00015017,0.00057216,0.22853
25092,6.5642,4,0.1,0.00042748,4271.9,0.00043005,4351.8,-0.00012724,164.61,-0.00014915,0.0013716,0.23498
25093,6.4717,4.2727,0.1,0.00043126,4309.7,0.0004337,4385.3,-0.00012926,155.42,-0.00014995,-0.0017464,0.22799
25094,6.5642,4.1818,0.1,0.00042834,4280.5,0.00043076,4355.7,-0.00012836,154.64,-0.00014894,-0.00064078,0.23449
25095,6.4717,4.4545,0.1,0.00043234,4320.4,0.0004346,4390.1,-0.00013068,142.85,-0.00014969,-0.0045286,0.22736
25096,6.5642,4.3636,0.1,0.00042932,4290.2,0.00043158,4360.1,-0.00012965,143.24,-0.00014871,-0.0030581,0.2339
25097,6.4717,4.6364,0.1,0.00043354,4332.4,0.00043558,4395.4,-0.00013224,128.94,-0.00014941,-0.0078451,0.22665
25098,6.5642,4.5455,0.1,0.00043041,4301.2,0.00043249,4364.9,-0.00013108,130.52,-0.00014845,-0.0059609,0.23323
25099,6.4717,4.8182,0.1,0.00043483,4345.3,0.00043666,4401.1,-0.00013394,113.84,-0.0001491,-0.011938,0.22585
25100,6.5642,4.7273,0.1,0.00043161,4313.2,0.00043348,4370.3,-0.00013265,116.57,-0.00014817,-0.0094089,0.23248
25101,6.4717,5,0.1,0.00043622,4359.2,0.0004378,4407.2,-0.00013576,97.659,-0.00014876,-0.016783,0.22496
25102,6.5642,4.9091,0.1,0.00043291,4326.1,0.00043455,4376,-0.00013435,101.53,-0.00014786,-0.013819,0.23164
25103,6.4717,5.1818,0.1,0.00043769,4373.9,0.000439,4413.6,-0.00013769,80.538,-0.00014841,-0.024356,0.22398
25104,6.5642,5.0909,0.1,0.00043429,4339.9,0.00043568,4382,-0.00013615,85.512,-0.00014753,-0.018758,0.23071
25105,6.4717,5.3636,0.1,0.00043923,4389.3,0.00044026,4420.2,-0.0001397,62.616,-0.00014804,-0.030438,0.22292
25106,6.5642,5.2727,0.1,0.00043574,4354.4,0.00043687,4388.3,-0.00013804,68.653,-0.00014718,-0.028536,0.22968
25107,6.4717,5.5455,0.1,0.00044083,4405.2,0.00044156,4427,-0.00014179,44.007,-0.00014765,-0.069592,0.22175
25108,6.5642,5.4545,0.1,0.00043725,4369.5,0.0004381,4394.8,-0.00014001,51.092,-0.00014682,-0.031097,0.22857
25109,6.4717,5.7273,0.1,0.00044249,4421.9,0.00044291,4434.1,-0.00014395,24.707,-0.00014725,-0.095926,0.2205
25110,6.5642,5.6364,0.1,0.00043882,4385.1,0.00043936,4401.4,-0.00014205,32.904,-0.00014645,-0.10642,0.22737
25111,6.5642,5.8182,0.1,0.00044047,4401.6,0.0004407,4408.5,-0.00014418,13.989,-0.00014606,-0.11856,0.22607
25112,6.4717,5.9091,0.1,0.00044392,4436.1,0.00044405,4439.9,-0.00014585,7.6201,-0.00014688,-0.12966,0.21915
25113,6.6566,0.27273,0.1,0.00043678,4364.8,0.00043716,4375.8,-0.00014228,22.17,-0.00014524,-0.087792,0.23303
25114,6.7491,0.18182,0.1,0.00043472,4344.2,0.00043493,4350.3,-0.00014243,12.232,-0.00014407,-0.11338,0.23875
25115,6.6566,0.090909,0.1,0.00043808,4377.8,0.00043819,4381,-0.00014401,6.5993,-0.0001449,-0.1262,0.23169
25116,6.6566,0.45455,0.1,0.00043524,4349.4,0.0004359,4369.2,-0.00014028,39.987,-0.00014561,-0.063281,0.23428
25117,6.7491,0.36364,0.1,0.00043318,4328.8,0.00043368,4343.6,-0.00014046,29.728,-0.00014443,-0.096939,0.24004
25118,6.6566,0.63636,0.1,0.00043376,4334.6,0.0004347,4362.9,-0.00013836,57.128,-0.00014596,-0.027627,0.23544
25119,6.7491,0.54545,0.1,0.00043173,4314.3,0.0004325,4337.4,-0.00013858,46.485,-0.00014477,-0.028132,0.24124
25120,6.6566,0.81818,0.1,0.00043233,4320.4,0.00043354,4356.7,-0.0001365,73.625,-0.0001463,-0.022218,0.2365
25121,6.7491,0.72727,0.1,0.00043033,4300.4,0.00043136,4331.3,-0.00013676,62.654,-0.0001451,-0.025975,0.24235
25122,6.6566,1,0.1,0.00043098,4306.8,0.00043243,4350.8,-0.00013473,89.377,-0.00014663,-0.015393,0.23748
25123,6.7491,0.90909,0.1,0.00042899,4286.9,0.00043027,4325.5,-0.00013502,78.168,-0.00014542,-0.017152,0.24337
25124,6.6566,1.1818,0.1,0.00042969,4293.9,0.00043137,4345.1,-0.00013305,104.26,-0.00014693,-0.011037,0.23836
25125,6.7491,1.0909,0.1,0.00042772,4274.2,0.00042922,4319.9,-0.00013336,92.899,-0.00014572,-0.012724,0.2443
25126,6.6566,1.3636,0.1,0.00042849,4282,0.00043038,4339.8,-0.00013149,118.14,-0.00014722,-0.0073513,0.23916
25127,6.7491,1.2727,0.1,0.00042652,4262.2,0.00042823,4314.6,-0.0001318,106.73,-0.00014601,-0.0087571,0.24514
25128,6.6566,1.5455,0.1,0.00042739,4271,0.00042947,4334.9,-0.00013005,130.91,-0.00014747,-0.0043625,0.23987
25129,6.7491,1.4545,0.1,0.00042541,4251.2,0.00042732,4309.7,-0.00013036,119.54,-0.00014627,-0.005655,0.24589
25130,6.6566,1.7273,0.1,0.0004264,4261,0.00042864,4330.5,-0.00012875,142.46,-0.00014771,-0.0018525,0.24049
25131,6.7491,1.6364,0.1,0.0004244,4241.1,0.00042648,4305.2,-0.00012904,131.23,-0.0001465,-0.0030399,0.24655
25132,6.6566,1.9091,0.1,0.00042552,4252.2,0.00042791,4326.5,-0.00012759,152.69,-0.00014792,0.00024071,0.24103
25133,6.7491,1.8182,0.1,0.0004235,4232,0.00042573,4301.1,-0.00012785,141.7,-0.00014671,-0.00086042,0.24714
25134,6.6566,2.0909,0.1,0.00042476,4244.6,0.00042727,4323.1,-0.0001266,161.5,-0.00014809,0.0019706,0.24149
25135,6.7491,2,0.1,0.00042271,4224.1,0.00042507,4297.5,-0.00012682,150.85,-0.0001469,0.00095545,0.24763
25136,6.6566,2.2727,0.1,0.00042413,4238.3,0.00042674,4320.2,-0.00012577,168.83,-0.00014824,0.0033638,0.24186
25137,6.7491,2.1818,0.1,0.00042204,4217.4,0.00042451,4294.5,-0.00012595,158.61,-0.00014705,0.0024401,0.24805
25138,6.6566,2.4545,0.1,0.00042363,4233.4,0.00042633,4318,-0.00012512,174.6,-0.00014836,0.0044357,0.24215
25139,6.7491,2.3636,0.1,0.00042149,4212,0.00042406,4292,-0.00012523,164.9,-0.00014718,0.0036131,0.24838
25140,6.6566,2.6364,0.1,0.00042327,4229.8,0.00042603,4316.3,-0.00012465,178.76,-0.00014844,0.0051962,0.24235
25141,6.7491,2.5455,0.1,0.00042108,4207.9,0.00042371,4290.2,-0.0001247,169.66,-0.00014728,0.0044843,0.24862
25142,6.6566,2.8182,0.1,0.00042305,4227.6,0.00042585,4315.3,-0.00012437,181.27,-0.00014849,0.0056515,0.24248
25143,6.7491,2.7273,0.1,0.0004208,4205.1,0.00042348,4288.9,-0.00012433,172.87,-0.00014734,0.0050635,0.24879
25144,6.6566,3,0.1,0.00042298,4226.9,0.00042579,4315,-0.00012427,182.11,-0.00014851,0.0058032,0.24252
25145,6.7491,2.9091,0.1,0.00042067,4203.7,0.00042336,4288.3,-0.00012415,174.48,-0.00014737,0.0053527,0.24887
25146,6.6566,3.1818,0.1,0.00042305,4227.6,0.00042585,4315.3,-0.00012437,181.27,-0.00014849,0.0056515,0.24248
25147,6.7491,3.0909,0.1,0.00042067,4203.7,0.00042336,4288.3,-0.00012415,174.48,-0.00014737,0.0053528,0.24887
25148,6.6566,3.3636,0.1,0.00042327,4229.8,0.00042603,4316.3,-0.00012465,178.76,-0.00014844,0.0051964,0.24235
25149,6.7491,3.2727,0.1,0.0004208,4205.1,0.00042348,4288.9,-0.00012433,172.87,-0.00014734,0.0050636,0.24879
25150,6.6566,3.5455,0.1,0.00042363,4233.4,0.00042633,4318,-0.00012512,174.6,-0.00014836,0.0044358,0.24215
25151,6.7491,3.4545,0.1,0.00042108,4207.9,0.00042371,4290.2,-0.0001247,169.66,-0.00014728,0.0044846,0.24862
25152,6.6566,3.7273,0.1,0.00042413,4238.3,0.00042674,4320.2,-0.00012577,168.83,-0.00014824,0.003364,0.24186
25153,6.7491,3.6364,0.1,0.00042149,4212,0.00042406,4292,-0.00012523,164.9,-0.00014718,0.0036133,0.24838
25154,6.6566,3.9091,0.1,0.00042476,4244.6,0.00042727,4323.1,-0.0001266,161.5,-0.00014809,0.0019709,0.24149
25155,6.7491,3.8182,0.1,0.00042204,4217.4,0.00042451,4294.5,-0.00012595,158.61,-0.00014705,0.0024405,0.24805
25156,6.6566,4.0909,0.1,0.00042552,4252.2,0.00042791,4326.5,-0.00012759,152.69,-0.00014792,0.00024115,0.24103
25157,6.7491,4,0.1,0.00042271,4224.1,0.00042507,4297.5,-0.00012682,150.85,-0.0001469,0.00095584,0.24763
25158,6.6566,4.2727,0.1,0.0004264,4261,0.00042864,4330.5,-0.00012875,142.46,-0.00014771,-0.0018518,0.24049
25159,6.7491,4.1818,0.1,0.0004235,4232,0.00042573,4301.1,-0.00012785,141.7,-0.00014671,-0.00085979,0.24714
25160,6.6566,4.4545,0.1,0.00042739,4271,0.00042947,4334.9,-0.00013005,130.91,-0.00014747,-0.0043617,0.23987
25161,6.7491,4.3636,0.1,0.0004244,4241.1,0.00042648,4305.2,-0.00012904,131.23,-0.0001465,-0.0030393,0.24655
25162,6.6566,4.6364,0.1,0.00042849,4282,0.00043038,4339.8,-0.00013149,118.14,-0.00014722,-0.0073505,0.23916
25163,6.7491,4.5455,0.1,0.00042541,4251.2,0.00042732,4309.7,-0.00013036,119.54,-0.00014627,-0.0056542,0.24589
25164,6.6566,4.8182,0.1,0.00042969,4293.9,0.00043137,4345.1,-0.00013305,104.26,-0.00014693,-0.011037,0.23836
25165,6.7491,4.7273,0.1,0.00042652,4262.2,0.00042823,4314.6,-0.0001318,106.73,-0.00014601,-0.0087564,0.24514
25166,6.6566,5,0.1,0.00043098,4306.8,0.00043243,4350.8,-0.00013473,89.377,-0.00014663,-0.015392,0.23748
25167,6.7491,4.9091,0.1,0.00042772,4274.2,0.00042922,4319.9,-0.00013336,92.899,-0.00014572,-0.012723,0.2443
25168,6.6566,5.1818,0.1,0.00043233,4320.4,0.00043354,4356.7,-0.0001365,73.625,-0.0001463,-0.022217,0.2365
25169,6.7491,5.0909,0.1,0.00042899,4286.9,0.00043027,4325.5,-0.00013502,78.168,-0.00014542,-0.01715,0.24337
25170,6.6566,5.3636,0.1,0.00043376,4334.6,0.0004347,4362.9,-0.00013836,57.128,-0.00014596,-0.027626,0.23544
25171,6.7491,5.2727,0.1,0.00043033,4300.4,0.00043136,4331.3,-0.00013676,62.654,-0.0001451,-0.025974,0.24235
25172,6.6566,5.5455,0.1,0.00043524,4349.4,0.0004359,4369.2,-0.00014028,39.987,-0.00014561,-0.06328,0.23428
25173,6.7491,5.4545,0.1,0.00043173,4314.3,0.0004325,4337.4,-0.00013858,46.485,-0.00014477,-0.028132,0.24124
25174,6.6566,5.7273,0.1,0.00043678,4364.8,0.00043716,4375.8,-0.00014228,22.17,-0.00014524,-0.08779,0.23303
25175,6.7491,5.6364,0.1,0.00043318,4328.8,0.00043368,4343.6,-0.00014046,29.728,-0.00014443,-0.096938,0.24004
25176,6.7491,5.8182,0.1,0.00043472,4344.2,0.00043493,4350.3,-0.00014243,12.232,-0.00014407,-0.11338,0.23875
25177,6.6566,5.9091,0.1,0.00043808,4377.8,0.00043819,4381,-0.00014401,6.5993,-0.0001449,-0.1262,0.23169
25178,6.8415,0.27273,0.1,0.00043111,4308.1,0.00043144,4318,-0.00014061,19.777,-0.00014325,-0.08054,0.24586
25179,6.934,0.18182,0.1,0.00042901,4287.2,0.00042919,4292.4,-0.00014069,10.56,-0.00014211,-0.11005,0.25174
25180,6.8415,0.090909,0.1,0.00043228,4319.9,0.00043238,4322.6,-0.00014218,5.6242,-0.00014294,-0.12437,0.24453
25181,6.8415,0.45455,0.1,0.00042967,4293.8,0.00043028,4311.7,-0.00013876,36.227,-0.00014359,-0.057493,0.2471
25182,6.934,0.36364,0.1,0.00042758,4272.8,0.00042802,4286.1,-0.00013886,26.749,-0.00014243,-0.08824,0.25302
25183,6.8415,0.63636,0.1,0.0004283,4280.1,0.00042917,4305.8,-0.00013699,52.013,-0.00014391,-0.025057,0.24825
25184,6.934,0.54545,0.1,0.00042623,4259.4,0.00042694,4280.3,-0.00013713,42.187,-0.00014274,-0.025425,0.25421
25185,6.8415,0.81818,0.1,0.00042699,4266.9,0.00042809,4300.1,-0.00013528,67.197,-0.00014422,-0.020261,0.24931
25186,6.934,0.72727,0.1,0.00042494,4246.5,0.00042588,4274.7,-0.00013545,57.072,-0.00014305,-0.023631,0.25531
25187,6.8415,1,0.1,0.00042573,4254.4,0.00042706,4294.6,-0.00013365,81.688,-0.00014452,-0.014123,0.25028
25188,6.934,0.90909,0.1,0.0004237,4234.1,0.00042487,4269.3,-0.00013384,71.346,-0.00014334,-0.015684,0.25632
25189,6.8415,1.1818,0.1,0.00042454,4242.5,0.00042608,4289.4,-0.0001321,95.37,-0.0001448,-0.010217,0.25117
25190,6.934,1.0909,0.1,0.00042252,4222.3,0.0004239,4264.1,-0.00013232,84.894,-0.00014362,-0.011726,0.25725
25191,6.8415,1.3636,0.1,0.00042344,4231.4,0.00042517,4284.5,-0.00013066,108.13,-0.00014506,-0.0069052,0.25196
25192,6.934,1.2727,0.1,0.00042141,4211.2,0.00042299,4259.2,-0.00013088,97.608,-0.00014387,-0.008167,0.25808
25193,6.8415,1.5455,0.1,0.00042242,4221.3,0.00042433,4279.9,-0.00012934,119.86,-0.00014529,-0.0042174,0.25267
25194,6.934,1.4545,0.1,0.00042039,4201,0.00042214,4254.6,-0.00012955,109.38,-0.00014411,-0.0053826,0.25883
25195,6.8415,1.7273,0.1,0.0004215,4212.1,0.00042357,4275.8,-0.00012814,130.47,-0.00014551,-0.001958,0.25329
25196,6.934,1.6364,0.1,0.00041946,4191.7,0.00042137,4250.4,-0.00012834,120.12,-0.00014433,-0.003032,0.2595
25197,6.8415,1.9091,0.1,0.00042069,4204,0.00042289,4272.1,-0.00012708,139.86,-0.0001457,-7.2081e-05,0.25383
25198,6.934,1.8182,0.1,0.00041862,4183.3,0.00042068,4246.7,-0.00012725,129.73,-0.00014452,-0.0010711,0.26008
25199,6.8415,2.0909,0.1,0.00041998,4197,0.00042231,4269,-0.00012617,147.95,-0.00014586,0.0014878,0.25428
25200,6.934,2,0.1,0.00041789,4176,0.00042007,4243.4,-0.00012631,138.13,-0.00014469,0.00056394,0.26057
25201,6.8415,2.2727,0.1,0.0004194,4191.1,0.00042182,4266.3,-0.00012541,154.67,-0.00014599,0.0027448,0.25465
25202,6.934,2.1818,0.1,0.00041727,4169.8,0.00041955,4240.6,-0.0001255,145.25,-0.00014483,0.001902,0.26098
25203,6.8415,2.4545,0.1,0.00041894,4186.6,0.00042144,4264.2,-0.00012481,159.96,-0.0001461,0.0037122,0.25494
25204,6.934,2.3636,0.1,0.00041677,4164.8,0.00041913,4238.3,-0.00012485,151.02,-0.00014495,0.0029594,0.26131
25205,6.8415,2.6364,0.1,0.00041861,4183.3,0.00042116,4262.7,-0.00012438,163.78,-0.00014618,0.004399,0.25515
25206,6.934,2.5455,0.1,0.00041639,4161,0.00041882,4236.6,-0.00012435,155.39,-0.00014503,0.0037452,0.26156
25207,6.8415,2.8182,0.1,0.00041842,4181.3,0.00042099,4261.8,-0.00012412,166.08,-0.00014622,0.0048102,0.25527
25208,6.934,2.7273,0.1,0.00041614,4158.5,0.0004186,4235.4,-0.00012402,158.33,-0.00014509,0.0042678,0.26172
25209,6.8415,3,0.1,0.00041835,4180.6,0.00042094,4261.5,-0.00012403,166.85,-0.00014624,0.0049472,0.25531
25210,6.934,2.9091,0.1,0.00041601,4157.2,0.0004185,4234.8,-0.00012385,159.81,-0.00014512,0.0045289,0.26181
25211,6.8415,3.1818,0.1,0.00041842,4181.3,0.00042099,4261.8,-0.00012412,166.08,-0.00014622,0.0048103,0.25527
25212,6.934,3.0909,0.1,0.00041601,4157.2,0.0004185,4234.8,-0.00012385,159.81,-0.00014512,0.0045289,0.26181
25213,6.8415,3.3636,0.1,0.00041861,4183.3,0.00042116,4262.7,-0.00012438,163.78,-0.00014618,0.0043991,0.25515
25214,6.934,3.2727,0.1,0.00041614,4158.5,0.0004186,4235.4,-0.00012402,158.33,-0.00014509,0.0042678,0.26172
25215,6.8415,3.5455,0.1,0.00041894,4186.6,0.00042144,4264.2,-0.00012481,159.96,-0.0001461,0.0037125,0.25494
25216,6.934,3.4545,0.1,0.00041639,4161,0.00041882,4236.6,-0.00012435,155.39,-0.00014503,0.0037454,0.26156
25217,6.8415,3.7273,0.1,0.0004194,4191.1,0.00042182,4266.3,-0.00012541,154.67,-0.00014599,0.0027452,0.25465
25218,6.934,3.6364,0.1,0.00041677,4164.8,0.00041913,4238.3,-0.00012485,151.02,-0.00014495,0.0029596,0.26131
25219,6.8415,3.9091,0.1,0.00041998,4197,0.00042231,4269,-0.00012617,147.95,-0.00014586,0.0014882,0.25428
25220,6.934,3.8182,0.1,0.00041727,4169.8,0.00041955,4240.6,-0.0001255,145.25,-0.00014483,0.0019023,0.26098
25221,6.8415,4.0909,0.1,0.00042069,4204,0.00042289,4272.1,-0.00012708,139.86,-0.0001457,-7.151e-05,0.25383
25222,6.934,4,0.1,0.00041789,4176,0.00042007,4243.4,-0.00012631,138.13,-0.00014469,0.00056436,0.26057
25223,6.8415,4.2727,0.1,0.0004215,4212.1,0.00042357,4275.8,-0.00012814,130.47,-0.00014551,-0.0019574,0.25329
25224,6.934,4.1818,0.1,0.00041862,4183.3,0.00042068,4246.7,-0.00012725,129.73,-0.00014452,-0.0010705,0.26008
25225,6.8415,4.4545,0.1,0.00042242,4221.3,0.00042433,4279.9,-0.00012934,119.86,-0.00014529,-0.0042169,0.25267
25226,6.934,4.3636,0.1,0.00041946,4191.7,0.00042137,4250.4,-0.00012834,120.12,-0.00014433,-0.0030314,0.2595
25227,6.8415,4.6364,0.1,0.00042344,4231.4,0.00042517,4284.5,-0.00013066,108.13,-0.00014506,-0.0069045,0.25196
25228,6.934,4.5455,0.1,0.00042039,4201,0.00042214,4254.6,-0.00012955,109.38,-0.00014411,-0.0053819,0.25883
25229,6.8415,4.8182,0.1,0.00042454,4242.5,0.00042608,4289.4,-0.0001321,95.37,-0.0001448,-0.010217,0.25117
25230,6.934,4.7273,0.1,0.00042141,4211.2,0.00042299,4259.2,-0.00013088,97.608,-0.00014387,-0.0081664,0.25808
25231,6.8415,5,0.1,0.00042573,4254.4,0.00042706,4294.6,-0.00013365,81.688,-0.00014452,-0.014122,0.25028
25232,6.934,4.9091,0.1,0.00042252,4222.3,0.0004239,4264.1,-0.00013232,84.894,-0.00014362,-0.011726,0.25725
25233,6.8415,5.1818,0.1,0.00042699,4266.9,0.00042809,4300.1,-0.00013528,67.197,-0.00014422,-0.020259,0.24931
25234,6.934,5.0909,0.1,0.0004237,4234.1,0.00042487,4269.3,-0.00013384,71.346,-0.00014334,-0.015683,0.25632
25235,6.8415,5.3636,0.1,0.0004283,4280.1,0.00042917,4305.8,-0.00013699,52.013,-0.00014391,-0.025056,0.24825
25236,6.934,5.2727,0.1,0.00042494,4246.5,0.00042588,4274.7,-0.00013545,57.072,-0.00014305,-0.02363,0.25531
25237,6.8415,5.5455,0.1,0.00042967,4293.8,0.00043028,4311.7,-0.00013876,36.227,-0.00014359,-0.057492,0.2471
25238,6.934,5.4545,0.1,0.00042623,4259.4,0.00042694,4280.3,-0.00013713,42.187,-0.00014274,-0.025424,0.25421
25239,6.8415,5.7273,0.1,0.00043111,4308.1,0.00043144,4318,-0.00014061,19.777,-0.00014325,-0.080539,0.24586
25240,6.934,5.6364,0.1,0.00042758,4272.8,0.00042802,4286.1,-0.00013886,26.749,-0.00014243,-0.088238,0.25302
25241,6.934,5.8182,0.1,0.00042901,4287.2,0.00042919,4292.4,-0.00014069,10.56,-0.00014211,-0.11005,0.25174
25242,6.8415,5.9091,0.1,0.00043228,4319.9,0.00043238,4322.6,-0.00014218,5.6242,-0.00014294,-0.12437,0.24453
25243,7.0264,0.27273,0.1,0.00042547,4251.8,0.00042577,4260.5,-0.00013894,17.523,-0.00014128,-0.074102,0.25899
25244,7.1189,0.18182,0.1,0.00042334,4230.5,0.00042349,4234.9,-0.00013895,8.9737,-0.00014016,-0.10876,0.26501
25245,7.0264,0.090909,0.1,0.00042653,4262.3,0.00042661,4264.6,-0.00014036,4.6957,-0.000141,-0.12464,0.25766
25246,7.0264,0.45455,0.1,0.00042414,4238.4,0.00042468,4254.7,-0.00013723,32.712,-0.00014159,-0.052184,0.26022
25247,7.1189,0.36364,0.1,0.000422,4217.1,0.0004224,4229,-0.00013725,23.959,-0.00014045,-0.080257,0.26629
25248,7.0264,0.63636,0.1,0.00042287,4225.8,0.00042365,4249.2,-0.00013559,47.249,-0.00014188,-0.022708,0.26137
25249,7.1189,0.54545,0.1,0.00042076,4204.7,0.00042139,4223.6,-0.00013565,38.178,-0.00014074,-0.022952,0.26747
25250,7.0264,0.81818,0.1,0.00042165,4213.6,0.00042266,4243.8,-0.00013402,61.222,-0.00014217,-0.018472,0.26242
25251,7.1189,0.72727,0.1,0.00041956,4192.7,0.00042042,4218.4,-0.00013411,51.879,-0.00014102,-0.021485,0.26857
25252,7.0264,1,0.1,0.00042049,4202,0.0004217,4238.7,-0.00013251,74.553,-0.00014244,-0.012966,0.26338
25253,7.1189,0.90909,0.1,0.00041841,4181.2,0.00041948,4213.3,-0.00013263,65.011,-0.00014128,-0.014345,0.26957
25254,7.0264,1.1818,0.1,0.00041939,4191,0.0004208,4233.9,-0.00013109,87.133,-0.00014269,-0.0094742,0.26426
25255,7.1189,1.0909,0.1,0.00041732,4170.3,0.00041858,4208.5,-0.00013122,77.471,-0.00014154,-0.010819,0.27049
25256,7.0264,1.3636,0.1,0.00041837,4180.8,0.00041996,4229.3,-0.00012977,98.861,-0.00014293,-0.0065057,0.26505
25257,7.1189,1.2727,0.1,0.0004163,4160.1,0.00041774,4204,-0.0001299,89.158,-0.00014177,-0.0076338,0.27132
25258,7.0264,1.5455,0.1,0.00041743,4171.4,0.00041918,4225.1,-0.00012855,109.64,-0.00014315,-0.0040948,0.26576
25259,7.1189,1.4545,0.1,0.00041535,4150.7,0.00041696,4199.7,-0.00012868,99.978,-0.00014199,-0.0051414,0.27207
25260,7.0264,1.7273,0.1,0.00041658,4162.9,0.00041848,4221.3,-0.00012745,119.38,-0.00014334,-0.0020652,0.26638
25261,7.1189,1.6364,0.1,0.00041449,4142,0.00041625,4195.9,-0.00012757,109.84,-0.00014219,-0.0030337,0.27273
25262,7.0264,1.9091,0.1,0.00041583,4155.4,0.00041785,4217.9,-0.00012648,128,-0.00014351,-0.00036964,0.26691
25263,7.1189,1.8182,0.1,0.00041372,4134.3,0.00041561,4192.4,-0.00012657,118.67,-0.00014236,-0.0012737,0.27331
25264,7.0264,2.0909,0.1,0.00041518,4148.9,0.00041732,4215,-0.00012564,135.43,-0.00014366,0.0010339,0.26737
25265,7.1189,2,0.1,0.00041304,4127.6,0.00041505,4189.3,-0.0001257,126.38,-0.00014252,0.00019513,0.2738
25266,7.0264,2.2727,0.1,0.00041464,4143.5,0.00041687,4212.5,-0.00012494,141.6,-0.00014379,0.0021658,0.26774
25267,7.1189,2.1818,0.1,0.00041247,4121.9,0.00041457,4186.7,-0.00012496,132.91,-0.00014265,0.0013984,0.27421
25268,7.0264,2.4545,0.1,0.00041422,4139.3,0.00041652,4210.6,-0.00012439,146.45,-0.00014388,0.0030373,0.26802
25269,7.1189,2.3636,0.1,0.00041201,4117.3,0.00041419,4184.6,-0.00012436,138.2,-0.00014275,0.0023498,0.27454
25270,7.0264,2.6364,0.1,0.00041391,4136.3,0.00041626,4209.2,-0.00012399,149.95,-0.00014395,0.0036562,0.26823
25271,7.1189,2.5455,0.1,0.00041166,4113.8,0.0004139,4183,-0.0001239,142.22,-0.00014283,0.0030571,0.27478
25272,7.0264,2.8182,0.1,0.00041373,4134.4,0.00041611,4208.4,-0.00012376,152.06,-0.00014399,0.004027,0.26835
25273,7.1189,2.7273,0.1,0.00041142,4111.4,0.0004137,4182,-0.0001236,144.91,-0.00014288,0.0035277,0.27495
25274,7.0264,3,0.1,0.00041367,4133.8,0.00041606,4208.1,-0.00012368,152.77,-0.00014401,0.0041505,0.26839
25275,7.1189,2.9091,0.1,0.00041131,4110.2,0.0004136,4181.4,-0.00012345,146.26,-0.00014291,0.0037629,0.27503
25276,7.0264,3.1818,0.1,0.00041373,4134.4,0.00041611,4208.4,-0.00012376,152.06,-0.00014399,0.0040269,0.26835
25277,7.1189,3.0909,0.1,0.00041131,4110.2,0.0004136,4181.4,-0.00012345,146.26,-0.00014291,0.0037629,0.27503
25278,7.0264,3.3636,0.1,0.00041391,4136.3,0.00041626,4209.2,-0.00012399,149.95,-0.00014395,0.0036562,0.26823
25279,7.1189,3.2727,0.1,0.00041142,4111.4,0.0004137,4182,-0.0001236,144.91,-0.00014288,0.0035277,0.27495
25280,7.0264,3.5455,0.1,0.00041422,4139.3,0.00041652,4210.6,-0.00012439,146.45,-0.00014388,0.0030375,0.26802
25281,7.1189,3.4545,0.1,0.00041166,4113.8,0.0004139,4183,-0.0001239,142.22,-0.00014283,0.0030574,0.27478
25282,7.0264,3.7273,0.1,0.00041464,4143.5,0.00041687,4212.5,-0.00012494,141.6,-0.00014379,0.002166,0.26774
25283,7.1189,3.6364,0.1,0.00041201,4117.3,0.00041419,4184.6,-0.00012436,138.2,-0.00014275,0.0023501,0.27454
25284,7.0264,3.9091,0.1,0.00041518,4148.9,0.00041732,4215,-0.00012564,135.43,-0.00014366,0.0010343,0.26737
25285,7.1189,3.8182,0.1,0.00041247,4121.9,0.00041457,4186.7,-0.00012496,132.91,-0.00014265,0.0013987,0.27421
25286,7.0264,4.0909,0.1,0.00041583,4155.4,0.00041785,4217.9,-0.00012648,128,-0.00014351,-0.00036917,0.26691
25287,7.1189,4,0.1,0.00041304,4127.6,0.00041505,4189.3,-0.0001257,126.38,-0.00014252,0.00019563,0.2738
25288,7.0264,4.2727,0.1,0.00041658,4162.9,0.00041848,4221.3,-0.00012745,119.38,-0.00014334,-0.0020646,0.26638
25289,7.1189,4.1818,0.1,0.00041372,4134.3,0.00041561,4192.4,-0.00012657,118.67,-0.00014236,-0.0012732,0.27331
25290,7.0264,4.4545,0.1,0.00041743,4171.4,0.00041918,4225.1,-0.00012855,109.64,-0.00014315,-0.004094,0.26576
25291,7.1189,4.3636,0.1,0.00041449,4142,0.00041625,4195.9,-0.00012757,109.84,-0.00014219,-0.003033,0.27273
25292,7.0264,4.6364,0.1,0.00041837,4180.8,0.00041996,4229.3,-0.00012977,98.861,-0.00014293,-0.0065051,0.26505
25293,7.1189,4.5455,0.1,0.00041535,4150.7,0.00041696,4199.7,-0.00012868,99.978,-0.00014199,-0.0051406,0.27207
25294,7.0264,4.8182,0.1,0.00041939,4191,0.0004208,4233.9,-0.00013109,87.133,-0.00014269,-0.0094736,0.26426
25295,7.1189,4.7273,0.1,0.0004163,4160.1,0.00041774,4204,-0.0001299,89.158,-0.00014177,-0.0076331,0.27132
25296,7.0264,5,0.1,0.00042049,4202,0.0004217,4238.7,-0.00013251,74.553,-0.00014244,-0.012965,0.26338
25297,7.1189,4.9091,0.1,0.00041732,4170.3,0.00041858,4208.5,-0.00013122,77.471,-0.00014154,-0.010818,0.27049
25298,7.0264,5.1818,0.1,0.00042165,4213.6,0.00042266,4243.8,-0.00013402,61.222,-0.00014217,-0.018471,0.26242
25299,7.1189,5.0909,0.1,0.00041841,4181.2,0.00041948,4213.3,-0.00013263,65.011,-0.00014128,-0.014344,0.26957
25300,7.0264,5.3636,0.1,0.00042287,4225.8,0.00042365,4249.2,-0.00013559,47.249,-0.00014188,-0.022707,0.26137
25301,7.1189,5.2727,0.1,0.00041956,4192.7,0.00042042,4218.4,-0.00013411,51.879,-0.00014102,-0.021484,0.26857
25302,7.0264,5.5455,0.1,0.00042414,4238.4,0.00042468,4254.7,-0.00013723,32.712,-0.00014159,-0.052183,0.26022
25303,7.1189,5.4545,0.1,0.00042076,4204.7,0.00042139,4223.6,-0.00013565,38.178,-0.00014074,-0.022952,0.26747
25304,7.0264,5.7273,0.1,0.00042547,4251.8,0.00042577,4260.5,-0.00013894,17.523,-0.00014128,-0.0741,0.25899
25305,7.1189,5.6364,0.1,0.000422,4217.1,0.0004224,4229,-0.00013725,23.959,-0.00014045,-0.080256,0.26629
25306,7.1189,5.8182,0.1,0.00042334,4230.5,0.00042349,4234.9,-0.00013895,8.9737,-0.00014016,-0.10876,0.26501
25307,7.0264,5.9091,0.1,0.00042653,4262.3,0.00042661,4264.6,-0.00014036,4.6957,-0.000141,-0.12464,0.25766
25308,7.2113,0.27273,0.1,0.00041987,4195.8,0.00042012,4203.4,-0.00013726,15.401,-0.00013932,-0.068419,0.2724
25309,7.3038,0.18182,0.1,0.00041771,4174.2,0.00041783,4177.9,-0.00013721,7.4712,-0.00013822,-0.10997,0.27858
25310,7.2113,0.090909,0.1,0.00042081,4205.2,0.00042088,4207.1,-0.00013854,3.8145,-0.00013907,-0.12788,0.27109
25311,7.2113,0.45455,0.1,0.00041862,4183.3,0.00041911,4197.9,-0.00013568,29.429,-0.0001396,-0.047309,0.27363
25312,7.3038,0.36364,0.1,0.00041645,4161.7,0.00041681,4172.3,-0.00013564,21.346,-0.00013849,-0.072933,0.27984
25313,7.2113,0.63636,0.1,0.00041745,4171.6,0.00041816,4192.8,-0.00013417,42.813,-0.00013987,-0.020558,0.27477
25314,7.3038,0.54545,0.1,0.0004153,4150.1,0.00041588,4167.2,-0.00013417,34.441,-0.00013875,-0.020695,0.28102
25315,7.2113,0.81818,0.1,0.00041632,4160.3,0.00041724,4187.9,-0.00013272,55.671,-0.00014013,-0.016835,0.27581
25316,7.3038,0.72727,0.1,0.00041419,4139.1,0.00041497,4162.4,-0.00013274,47.049,-0.00013901,-0.019523,0.28211
25317,7.2113,1,0.1,0.00041524,4149.6,0.00041636,4183.1,-0.00013134,67.932,-0.00014038,-0.011911,0.27677
25318,7.3038,0.90909,0.1,0.00041313,4128.4,0.0004141,4157.7,-0.00013138,59.13,-0.00013925,-0.013126,0.28311
25319,7.2113,1.1818,0.1,0.00041423,4139.4,0.00041552,4178.6,-0.00013003,79.497,-0.00014062,-0.0087989,0.27765
25320,7.3038,1.0909,0.1,0.00041212,4118.4,0.00041328,4153.2,-0.00013009,70.586,-0.00013948,-0.0099961,0.28402
25321,7.2113,1.3636,0.1,0.00041328,4130,0.00041475,4174.4,-0.00012882,90.276,-0.00014083,-0.0061463,0.27843
25322,7.3038,1.2727,0.1,0.00041118,4108.9,0.0004125,4149,-0.00012887,81.329,-0.0001397,-0.0071556,0.28485
25323,7.2113,1.5455,0.1,0.00041242,4121.3,0.00041403,4170.5,-0.0001277,100.18,-0.00014103,-0.0039895,0.27913
25324,7.3038,1.4545,0.1,0.0004103,4100.2,0.00041178,4145,-0.00012775,91.27,-0.0001399,-0.0049314,0.28559
25325,7.2113,1.7273,0.1,0.00041163,4113.5,0.00041338,4166.9,-0.00012668,109.13,-0.00014121,-0.0021713,0.27975
25326,7.3038,1.6364,0.1,0.0004095,4092.2,0.00041112,4141.5,-0.00012672,100.33,-0.00014008,-0.003047,0.28625
25327,7.2113,1.9091,0.1,0.00041094,4106.5,0.0004128,4163.8,-0.00012579,117.04,-0.00014137,-0.00065088,0.28029
25328,7.3038,1.8182,0.1,0.00040879,4085.1,0.00041053,4138.2,-0.00012581,108.43,-0.00014024,-0.0014717,0.28682
25329,7.2113,2.0909,0.1,0.00041034,4100.6,0.00041231,4161.1,-0.00012502,123.86,-0.0001415,0.00060908,0.28074
25330,7.3038,2,0.1,0.00040817,4078.9,0.00041001,4135.4,-0.000125,115.51,-0.00014038,-0.00015544,0.28731
25331,7.2113,2.2727,0.1,0.00040984,4095.6,0.00041189,4158.8,-0.00012438,129.52,-0.00014161,0.0016261,0.2811
25332,7.3038,2.1818,0.1,0.00040764,4073.6,0.00040957,4133,-0.00012432,121.51,-0.0001405,0.00092408,0.28772
25333,7.2113,2.4545,0.1,0.00040945,4091.7,0.00041157,4157,-0.00012387,133.97,-0.0001417,0.0024094,0.28139
25334,7.3038,2.3636,0.1,0.00040722,4069.3,0.00040922,4131.1,-0.00012377,126.36,-0.00014059,0.0017781,0.28805
25335,7.2113,2.6364,0.1,0.00040917,4088.9,0.00041133,4155.8,-0.00012351,137.18,-0.00014176,0.0029659,0.28159
25336,7.3038,2.5455,0.1,0.00040689,4066.1,0.00040895,4129.6,-0.00012336,130.05,-0.00014066,0.0024132,0.28829
25337,7.2113,2.8182,0.1,0.000409,4087.2,0.00041119,4155,-0.00012329,139.12,-0.0001418,0.0032996,0.28172
25338,7.3038,2.7273,0.1,0.00040667,4063.9,0.00040877,4128.6,-0.00012308,132.52,-0.00014071,0.0028361,0.28845
25339,7.2113,3,0.1,0.00040895,4086.6,0.00041114,4154.7,-0.00012321,139.76,-0.00014182,0.0034108,0.28176
25340,7.3038,2.9091,0.1,0.00040657,4062.9,0.00040868,4128.1,-0.00012294,133.76,-0.00014074,0.0030474,0.28853
25341,7.2113,3.1818,0.1,0.000409,4087.2,0.00041119,4155,-0.00012329,139.12,-0.0001418,0.0032997,0.28172
25342,7.3038,3.0909,0.1,0.00040657,4062.9,0.00040868,4128.1,-0.00012294,133.76,-0.00014074,0.0030476,0.28853
25343,7.2113,3.3636,0.1,0.00040917,4088.9,0.00041133,4155.8,-0.00012351,137.18,-0.00014176,0.0029662,0.28159
25344,7.3038,3.2727,0.1,0.00040667,4063.9,0.00040877,4128.6,-0.00012308,132.52,-0.00014071,0.0028361,0.28845
25345,7.2113,3.5455,0.1,0.00040945,4091.7,0.00041157,4157,-0.00012387,133.97,-0.0001417,0.0024098,0.28139
25346,7.3038,3.4545,0.1,0.00040689,4066.1,0.00040895,4129.6,-0.00012336,130.05,-0.00014066,0.0024134,0.28829
25347,7.2113,3.7273,0.1,0.00040984,4095.6,0.00041189,4158.8,-0.00012438,129.52,-0.00014161,0.0016265,0.2811
25348,7.3038,3.6364,0.1,0.00040722,4069.3,0.00040922,4131.1,-0.00012377,126.36,-0.00014059,0.0017785,0.28805
25349,7.2113,3.9091,0.1,0.00041034,4100.6,0.00041231,4161.1,-0.00012502,123.86,-0.0001415,0.00060956,0.28074
25350,7.3038,3.8182,0.1,0.00040764,4073.6,0.00040957,4133,-0.00012432,121.51,-0.0001405,0.00092426,0.28772
25351,7.2113,4.0909,0.1,0.00041094,4106.5,0.0004128,4163.8,-0.00012579,117.04,-0.00014137,-0.00065031,0.28029
25352,7.3038,4,0.1,0.00040817,4078.9,0.00041001,4135.4,-0.000125,115.51,-0.00014038,-0.0001549,0.28731
25353,7.2113,4.2727,0.1,0.00041163,4113.5,0.00041338,4166.9,-0.00012668,109.13,-0.00014121,-0.0021707,0.27975
25354,7.3038,4.1818,0.1,0.00040879,4085.1,0.00041053,4138.2,-0.00012581,108.43,-0.00014024,-0.0014712,0.28682
25355,7.2113,4.4545,0.1,0.00041242,4121.3,0.00041403,4170.5,-0.0001277,100.18,-0.00014103,-0.0039888,0.27913
25356,7.3038,4.3636,0.1,0.0004095,4092.2,0.00041112,4141.5,-0.00012672,100.33,-0.00014008,-0.0030464,0.28625
25357,7.2113,4.6364,0.1,0.00041328,4130,0.00041475,4174.4,-0.00012882,90.276,-0.00014083,-0.0061455,0.27843
25358,7.3038,4.5455,0.1,0.0004103,4100.2,0.00041178,4145,-0.00012775,91.27,-0.0001399,-0.0049307,0.28559
25359,7.2113,4.8182,0.1,0.00041423,4139.4,0.00041552,4178.6,-0.00013003,79.497,-0.00014062,-0.0087981,0.27765
25360,7.3038,4.7273,0.1,0.00041118,4108.9,0.0004125,4149,-0.00012887,81.329,-0.0001397,-0.0071549,0.28485
25361,7.2113,5,0.1,0.00041524,4149.6,0.00041636,4183.1,-0.00013134,67.932,-0.00014038,-0.01191,0.27677
25362,7.3038,4.9091,0.1,0.00041212,4118.4,0.00041328,4153.2,-0.00013009,70.586,-0.00013948,-0.0099956,0.28402
25363,7.2113,5.1818,0.1,0.00041632,4160.3,0.00041724,4187.9,-0.00013272,55.671,-0.00014013,-0.016834,0.27581
25364,7.3038,5.0909,0.1,0.00041313,4128.4,0.0004141,4157.7,-0.00013138,59.13,-0.00013925,-0.013125,0.28311
25365,7.2113,5.3636,0.1,0.00041745,4171.6,0.00041816,4192.8,-0.00013417,42.812,-0.00013987,-0.020558,0.27477
25366,7.3038,5.2727,0.1,0.00041419,4139.1,0.00041497,4162.4,-0.00013274,47.049,-0.00013901,-0.019522,0.28211
25367,7.2113,5.5455,0.1,0.00041862,4183.3,0.00041911,4197.9,-0.00013568,29.429,-0.0001396,-0.047308,0.27363
25368,7.3038,5.4545,0.1,0.0004153,4150.1,0.00041588,4167.2,-0.00013417,34.441,-0.00013875,-0.020695,0.28102
25369,7.2113,5.7273,0.1,0.00041987,4195.8,0.00042012,4203.4,-0.00013726,15.401,-0.00013932,-0.068418,0.2724
25370,7.3038,5.6364,0.1,0.00041645,4161.7,0.00041681,4172.3,-0.00013564,21.346,-0.00013849,-0.072931,0.27984
25371,7.3038,5.8182,0.1,0.00041771,4174.2,0.00041783,4177.9,-0.00013721,7.4712,-0.00013822,-0.10997,0.27858
25372,7.2113,5.9091,0.1,0.00042081,4205.2,0.00042088,4207.1,-0.00013854,3.8145,-0.00013907,-0.12788,0.27109
25373,7.3962,0.27273,0.1,0.00041429,4140,0.00041452,4146.7,-0.00013559,13.407,-0.00013738,-0.063463,0.28611
25374,7.4887,0.18182,0.1,0.00041211,4118.3,0.00041221,4121.2,-0.00013548,6.0514,-0.00013631,-0.11459,0.29243
25375,7.3962,0.090909,0.1,0.00041513,4148.5,0.00041518,4149.9,-0.00013674,2.9816,-0.00013715,-0.13579,0.2848
25376,7.3962,0.45455,0.1,0.00041313,4128.5,0.00041357,4141.6,-0.00013413,26.364,-0.00013764,-0.04284,0.28732
25377,7.4887,0.36364,0.1,0.00041093,4106.5,0.00041125,4115.9,-0.00013402,18.901,-0.00013655,-0.066212,0.29368
25378,7.3962,0.63636,0.1,0.00041204,4117.6,0.00041269,4136.8,-0.00013274,38.683,-0.00013789,-0.018599,0.28845
25379,7.4887,0.54545,0.1,0.00040986,4095.8,0.00041038,4111.2,-0.00013266,30.958,-0.00013679,-0.018635,0.29485
25380,7.3962,0.81818,0.1,0.000411,4107.2,0.00041183,4132.2,-0.0001314,50.513,-0.00013813,-0.015346,0.28949
25381,7.4887,0.72727,0.1,0.00040884,4085.5,0.00040954,4106.6,-0.00013135,42.559,-0.00013702,-0.017732,0.29593
25382,7.3962,1,0.1,0.00041,4097.2,0.00041102,4127.7,-0.00013013,61.788,-0.00013835,-0.010956,0.29045
25383,7.4887,0.90909,0.1,0.00040785,4075.7,0.00040874,4102.3,-0.0001301,53.669,-0.00013724,-0.012019,0.29692
25384,7.3962,1.1818,0.1,0.00040907,4087.8,0.00041025,4123.6,-0.00012892,72.421,-0.00013856,-0.008194,0.29131
25385,7.4887,1.0909,0.1,0.00040692,4066.4,0.00040797,4098.1,-0.00012891,64.202,-0.00013745,-0.0092533,0.29783
25386,7.3962,1.3636,0.1,0.00040819,4079.1,0.00040953,4119.6,-0.0001278,82.326,-0.00013876,-0.0058319,0.2921
25387,7.4887,1.2727,0.1,0.00040605,4057.7,0.00040726,4094.2,-0.00012779,74.075,-0.00013765,-0.0067292,0.29865
25388,7.3962,1.5455,0.1,0.00040739,4071.1,0.00040887,4116,-0.00012677,91.423,-0.00013894,-0.0039088,0.29279
25389,7.4887,1.4545,0.1,0.00040524,4049.6,0.00040659,4090.5,-0.00012675,83.209,-0.00013783,-0.0047517,0.29939
25390,7.3962,1.7273,0.1,0.00040666,4063.8,0.00040827,4112.7,-0.00012584,99.639,-0.0001391,-0.0022849,0.29341
25391,7.4887,1.6364,0.1,0.0004045,4042.2,0.00040598,4087.2,-0.00012581,91.53,-0.00013799,-0.0030725,0.30004
25392,7.3962,1.9091,0.1,0.00040602,4057.4,0.00040774,4109.8,-0.00012502,106.91,-0.00013925,-0.00092498,0.29394
25393,7.4887,1.8182,0.1,0.00040384,4035.7,0.00040544,4084.2,-0.00012497,98.97,-0.00013814,-0.0016667,0.30062
25394,7.3962,2.0909,0.1,0.00040547,4051.9,0.00040728,4107.3,-0.00012431,113.16,-0.00013937,0.00020325,0.29439
25395,7.4887,2,0.1,0.00040327,4029.9,0.00040496,4081.6,-0.00012423,105.47,-0.00013827,-0.00049045,0.3011
25396,7.3962,2.2727,0.1,0.00040501,4047.3,0.0004069,4105.2,-0.00012372,118.36,-0.00013947,0.0011147,0.29475
25397,7.4887,2.1818,0.1,0.00040278,4025,0.00040456,4079.4,-0.00012361,110.97,-0.00013838,0.00047519,0.30151
25398,7.3962,2.4545,0.1,0.00040465,4043.7,0.0004066,4103.6,-0.00012326,122.44,-0.00013955,0.0018171,0.29504
25399,7.4887,2.3636,0.1,0.00040239,4021.1,0.00040423,4077.6,-0.0001231,115.43,-0.00013846,0.00124,0.30183
25400,7.3962,2.6364,0.1,0.00040439,4041.2,0.00040638,4102.4,-0.00012293,125.39,-0.00013961,0.0023163,0.29524
25401,7.4887,2.5455,0.1,0.00040209,4018.1,0.00040398,4076.2,-0.00012272,118.8,-0.00013853,0.0018088,0.30208
25402,7.3962,2.8182,0.1,0.00040424,4039.6,0.00040625,4101.7,-0.00012272,127.16,-0.00013965,0.0026157,0.29536
25403,7.4887,2.7273,0.1,0.00040189,4016.1,0.00040381,4075.3,-0.00012246,121.07,-0.00013858,0.0021879,0.30224
25404,7.3962,3,0.1,0.00040419,4039.1,0.00040621,4101.4,-0.00012266,127.76,-0.00013966,0.0027155,0.2954
25405,7.4887,2.9091,0.1,0.00040179,4015.1,0.00040373,4074.8,-0.00012233,122.21,-0.0001386,0.0023773,0.30232
25406,7.3962,3.1818,0.1,0.00040424,4039.6,0.00040625,4101.7,-0.00012272,127.16,-0.00013965,0.0026158,0.29536
25407,7.4887,3.0909,0.1,0.00040179,4015.1,0.00040373,4074.8,-0.00012233,122.21,-0.0001386,0.0023773,0.30232
25408,7.3962,3.3636,0.1,0.00040439,4041.2,0.00040638,4102.4,-0.00012293,125.39,-0.00013961,0.0023164,0.29524
25409,7.4887,3.2727,0.1,0.00040189,4016.1,0.00040381,4075.3,-0.00012246,121.07,-0.00013858,0.0021878,0.30224
25410,7.3962,3.5455,0.1,0.00040465,4043.7,0.0004066,4103.6,-0.00012326,122.44,-0.00013955,0.0018173,0.29504
25411,7.4887,3.4545,0.1,0.00040209,4018.1,0.00040398,4076.2,-0.00012272,118.8,-0.00013853,0.001809,0.30208
25412,7.3962,3.7273,0.1,0.00040501,4047.3,0.0004069,4105.2,-0.00012372,118.36,-0.00013947,0.0011148,0.29475
25413,7.4887,3.6364,0.1,0.00040239,4021.1,0.00040423,4077.6,-0.0001231,115.43,-0.00013846,0.0012401,0.30183
25414,7.3962,3.9091,0.1,0.00040547,4051.9,0.00040728,4107.3,-0.00012431,113.16,-0.00013937,0.00020349,0.29439
25415,7.4887,3.8182,0.1,0.00040278,4025,0.00040456,4079.4,-0.00012361,110.97,-0.00013838,0.00047552,0.30151
25416,7.3962,4.0909,0.1,0.00040602,4057.4,0.00040774,4109.8,-0.00012502,106.91,-0.00013925,-0.00092456,0.29394
25417,7.4887,4,0.1,0.00040327,4029.9,0.00040496,4081.6,-0.00012423,105.47,-0.00013827,-0.00049009,0.3011
25418,7.3962,4.2727,0.1,0.00040666,4063.8,0.00040827,4112.7,-0.00012584,99.639,-0.0001391,-0.0022843,0.29341
25419,7.4887,4.1818,0.1,0.00040384,4035.7,0.00040544,4084.2,-0.00012497,98.97,-0.00013814,-0.0016661,0.30062
25420,7.3962,4.4545,0.1,0.00040739,4071.1,0.00040887,4116,-0.00012677,91.423,-0.00013894,-0.0039082,0.29279
25421,7.4887,4.3636,0.1,0.0004045,4042.2,0.00040598,4087.2,-0.00012581,91.53,-0.00013799,-0.0030719,0.30004
25422,7.3962,4.6364,0.1,0.00040819,4079.1,0.00040953,4119.6,-0.0001278,82.326,-0.00013876,-0.0058312,0.2921
25423,7.4887,4.5455,0.1,0.00040524,4049.6,0.00040659,4090.5,-0.00012675,83.209,-0.00013783,-0.0047511,0.29939
25424,7.3962,4.8182,0.1,0.00040907,4087.8,0.00041025,4123.6,-0.00012892,72.421,-0.00013856,-0.0081934,0.29131
25425,7.4887,4.7273,0.1,0.00040605,4057.7,0.00040726,4094.2,-0.00012779,74.075,-0.00013765,-0.0067286,0.29865
25426,7.3962,5,0.1,0.00041,4097.2,0.00041102,4127.7,-0.00013013,61.788,-0.00013835,-0.010955,0.29045
25427,7.4887,4.9091,0.1,0.00040692,4066.4,0.00040797,4098.1,-0.00012891,64.202,-0.00013745,-0.0092526,0.29783
25428,7.3962,5.1818,0.1,0.000411,4107.2,0.00041183,4132.2,-0.0001314,50.513,-0.00013813,-0.015345,0.28949
25429,7.4887,5.0909,0.1,0.00040785,4075.7,0.00040874,4102.3,-0.0001301,53.669,-0.00013724,-0.012017,0.29692
25430,7.3962,5.3636,0.1,0.00041204,4117.6,0.00041269,4136.8,-0.00013274,38.683,-0.00013789,-0.018598,0.28845
25431,7.4887,5.2727,0.1,0.00040884,4085.5,0.00040954,4106.6,-0.00013135,42.559,-0.00013702,-0.017731,0.29593
25432,7.3962,5.5455,0.1,0.00041313,4128.5,0.00041357,4141.6,-0.00013413,26.364,-0.00013764,-0.042839,0.28732
25433,7.4887,5.4545,0.1,0.00040986,4095.8,0.00041038,4111.2,-0.00013266,30.958,-0.00013679,-0.018635,0.29485
25434,7.3962,5.7273,0.1,0.00041429,4140,0.00041452,4146.7,-0.00013559,13.407,-0.00013738,-0.063462,0.28611
25435,7.4887,5.6364,0.1,0.00041093,4106.5,0.00041125,4115.9,-0.00013402,18.901,-0.00013655,-0.066211,0.29368
25436,7.4887,5.8182,0.1,0.00041211,4118.3,0.00041221,4121.2,-0.00013548,6.0514,-0.00013631,-0.11459,0.29243
25437,7.3962,5.9091,0.1,0.00041513,4148.5,0.00041518,4149.9,-0.00013674,2.9816,-0.00013715,-0.13579,0.2848
25438,7.5811,0.27273,0.1,0.00040874,4084.6,0.00040894,4090.3,-0.00013392,11.533,-0.00013546,-0.059217,0.3001
25439,7.6736,0.18182,0.1,0.00040654,4062.6,0.00040662,4064.9,-0.00013376,4.7137,-0.0001344,-0.12448,0.30656
25440,7.5811,0.090909,0.1,0.00040949,4092.1,0.00040953,4093.1,-0.00013494,2.1997,-0.00013525,-0.15207,0.2988
25441,7.5811,0.45455,0.1,0.00040766,4073.8,0.00040806,4085.5,-0.00013256,23.503,-0.00013569,-0.038736,0.3013
25442,7.6736,0.36364,0.1,0.00040544,4051.6,0.00040572,4059.8,-0.0001324,16.614,-0.00013462,-0.060037,0.30781
25443,7.5811,0.63636,0.1,0.00040666,4063.7,0.00040724,4081,-0.00013128,34.841,-0.00013592,-0.016808,0.30242
25444,7.6736,0.54545,0.1,0.00040445,4041.7,0.00040491,4055.4,-0.00013115,27.714,-0.00013484,-0.016748,0.30896
25445,7.5811,0.81818,0.1,0.00040569,4054.1,0.00040645,4076.7,-0.00013005,45.722,-0.00013614,-0.013987,0.30345
25446,7.6736,0.72727,0.1,0.00040349,4032.2,0.00040413,4051.2,-0.00012994,38.385,-0.00013505,-0.016088,0.31003
25447,7.5811,1,0.1,0.00040477,4044.9,0.00040569,4072.6,-0.00012888,56.089,-0.00013634,-0.01009,0.3044
25448,7.6736,0.90909,0.1,0.00040258,4023.1,0.00040339,4047.1,-0.00012878,48.601,-0.00013525,-0.011006,0.31102
25449,7.5811,1.1818,0.1,0.0004039,4036.2,0.00040498,4068.7,-0.00012777,65.861,-0.00013654,-0.0076486,0.30526
25450,7.6736,1.0909,0.1,0.00040172,4014.4,0.00040268,4043.3,-0.00012769,58.283,-0.00013545,-0.0085762,0.31192
25451,7.5811,1.3636,0.1,0.00040309,4028.1,0.00040432,4065.1,-0.00012674,74.962,-0.00013672,-0.0055534,0.30604
25452,7.6736,1.2727,0.1,0.00040091,4006.4,0.00040202,4039.6,-0.00012666,67.355,-0.00013562,-0.0063432,0.31274
25453,7.5811,1.5455,0.1,0.00040235,4020.7,0.0004037,4061.7,-0.00012579,83.319,-0.00013688,-0.0038451,0.30673
25454,7.6736,1.4545,0.1,0.00040017,3998.9,0.0004014,4036.2,-0.00012571,75.745,-0.00013579,-0.0045924,0.31347
25455,7.5811,1.7273,0.1,0.00040168,4014,0.00040315,4058.7,-0.00012494,90.864,-0.00013703,-0.0023995,0.30734
25456,7.6736,1.6364,0.1,0.00039949,3992.1,0.00040084,4033.1,-0.00012484,83.387,-0.00013594,-0.0031016,0.31412
25457,7.5811,1.9091,0.1,0.00040109,4008.1,0.00040266,4056,-0.00012418,97.535,-0.00013716,-0.0011872,0.30787
25458,7.6736,1.8182,0.1,0.00039888,3986,0.00040034,4030.4,-0.00012407,90.217,-0.00013607,-0.0018516,0.31469
25459,7.5811,2.0909,0.1,0.00040058,4003,0.00040224,4053.7,-0.00012353,103.28,-0.00013727,-0.00018013,0.30832
25460,7.6736,2,0.1,0.00039835,3980.7,0.0003999,4027.9,-0.00012339,96.181,-0.00013619,-0.00080395,0.31517
25461,7.5811,2.2727,0.1,0.00040016,3998.8,0.00040189,4051.7,-0.00012299,108.04,-0.00013737,0.00063435,0.30868
25462,7.6736,2.1818,0.1,0.0003979,3976.2,0.00039952,4025.9,-0.00012282,101.23,-0.00013629,5.7096e-05,0.31558
25463,7.5811,2.4545,0.1,0.00039982,3995.5,0.00040161,4050.2,-0.00012256,111.79,-0.00013744,0.0012626,0.30896
25464,7.6736,2.3636,0.1,0.00039753,3972.6,0.00039922,4024.2,-0.00012235,105.32,-0.00013637,0.00073986,0.3159
25465,7.5811,2.6364,0.1,0.00039958,3993.1,0.00040141,4049.1,-0.00012226,114.49,-0.00013749,0.0017094,0.30917
25466,7.6736,2.5455,0.1,0.00039726,3969.8,0.00039899,4022.9,-0.000122,108.42,-0.00013643,0.001248,0.31614
25467,7.5811,2.8182,0.1,0.00039944,3991.6,0.00040129,4048.4,-0.00012207,116.12,-0.00013753,0.0019774,0.30929
25468,7.6736,2.7273,0.1,0.00039707,3968,0.00039884,4022.1,-0.00012176,110.5,-0.00013647,0.0015868,0.3163
25469,7.5811,3,0.1,0.00039939,3991.2,0.00040125,4048.2,-0.00012201,116.67,-0.00013754,0.0020667,0.30933
25470,7.6736,2.9091,0.1,0.00039698,3967.1,0.00039876,4021.7,-0.00012164,111.54,-0.00013649,0.0017563,0.31638
25471,7.5811,3.1818,0.1,0.00039944,3991.6,0.00040129,4048.4,-0.00012207,116.12,-0.00013753,0.0019774,0.30929
25472,7.6736,3.0909,0.1,0.00039698,3967.1,0.00039876,4021.7,-0.00012164,111.54,-0.00013649,0.0017562,0.31638
25473,7.5811,3.3636,0.1,0.00039958,3993.1,0.00040141,4049.1,-0.00012226,114.49,-0.00013749,0.0017095,0.30917
25474,7.6736,3.2727,0.1,0.00039707,3968,0.00039884,4022.1,-0.00012176,110.5,-0.00013647,0.0015869,0.3163
25475,7.5811,3.5455,0.1,0.00039982,3995.5,0.00040161,4050.2,-0.00012256,111.79,-0.00013744,0.0012628,0.30896
25476,7.6736,3.4545,0.1,0.00039726,3969.8,0.00039899,4022.9,-0.000122,108.42,-0.00013643,0.0012482,0.31614
25477,7.5811,3.7273,0.1,0.00040016,3998.8,0.00040189,4051.7,-0.00012299,108.04,-0.00013737,0.00063474,0.30868
25478,7.6736,3.6364,0.1,0.00039753,3972.6,0.00039922,4024.2,-0.00012235,105.32,-0.00013637,0.00074016,0.3159
25479,7.5811,3.9091,0.1,0.00040058,4003,0.00040224,4053.7,-0.00012353,103.28,-0.00013727,-0.00017968,0.30832
25480,7.6736,3.8182,0.1,0.0003979,3976.2,0.00039952,4025.9,-0.00012282,101.23,-0.00013629,5.7694e-05,0.31558
25481,7.5811,4.0909,0.1,0.00040109,4008.1,0.00040266,4056,-0.00012418,97.535,-0.00013716,-0.0011867,0.30787
25482,7.6736,4,0.1,0.00039835,3980.7,0.0003999,4027.9,-0.00012339,96.181,-0.00013619,-0.00080365,0.31517
25483,7.5811,4.2727,0.1,0.00040168,4014,0.00040315,4058.7,-0.00012494,90.864,-0.00013703,-0.0023988,0.30734
25484,7.6736,4.1818,0.1,0.00039888,3986,0.00040034,4030.4,-0.00012407,90.217,-0.00013607,-0.0018509,0.31469
25485,7.5811,4.4545,0.1,0.00040235,4020.7,0.0004037,4061.7,-0.00012579,83.319,-0.00013688,-0.0038444,0.30673
25486,7.6736,4.3636,0.1,0.00039949,3992.1,0.00040084,4033.1,-0.00012484,83.387,-0.00013594,-0.0031011,0.31412
25487,7.5811,4.6364,0.1,0.00040309,4028.1,0.00040432,4065.1,-0.00012674,74.962,-0.00013672,-0.0055527,0.30604
25488,7.6736,4.5455,0.1,0.00040017,3998.9,0.0004014,4036.2,-0.00012571,75.745,-0.00013579,-0.0045916,0.31347
25489,7.5811,4.8182,0.1,0.0004039,4036.2,0.00040498,4068.7,-0.00012777,65.861,-0.00013654,-0.0076477,0.30526
25490,7.6736,4.7273,0.1,0.00040091,4006.4,0.00040202,4039.6,-0.00012666,67.355,-0.00013562,-0.0063425,0.31274
25491,7.5811,5,0.1,0.00040477,4044.9,0.00040569,4072.6,-0.00012888,56.089,-0.00013634,-0.010089,0.3044
25492,7.6736,4.9091,0.1,0.00040172,4014.4,0.00040268,4043.3,-0.00012769,58.283,-0.00013545,-0.0085751,0.31192
25493,7.5811,5.1818,0.1,0.00040569,4054.1,0.00040645,4076.7,-0.00013005,45.722,-0.00013614,-0.013986,0.30345
25494,7.6736,5.0909,0.1,0.00040258,4023.1,0.00040339,4047.1,-0.00012878,48.601,-0.00013525,-0.011005,0.31102
25495,7.5811,5.3636,0.1,0.00040666,4063.7,0.00040724,4081,-0.00013128,34.841,-0.00013592,-0.016807,0.30242
25496,7.6736,5.2727,0.1,0.00040349,4032.2,0.00040413,4051.2,-0.00012994,38.385,-0.00013505,-0.016087,0.31003
25497,7.5811,5.5455,0.1,0.00040766,4073.8,0.00040806,4085.5,-0.00013256,23.503,-0.00013569,-0.038735,0.3013
25498,7.6736,5.4545,0.1,0.00040445,4041.7,0.00040491,4055.5,-0.00013115,27.714,-0.00013484,-0.016747,0.30896
25499,7.5811,5.7273,0.1,0.00040874,4084.6,0.00040894,4090.3,-0.00013392,11.533,-0.00013546,-0.059216,0.3001
25500,7.6736,5.6364,0.1,0.00040544,4051.6,0.00040572,4059.8,-0.0001324,16.614,-0.00013462,-0.060035,0.30781
25501,7.6736,5.8182,0.1,0.00040654,4062.6,0.00040662,4064.9,-0.00013376,4.7137,-0.0001344,-0.12448,0.30656
25502,7.5811,5.9091,0.1,0.00040949,4092.1,0.00040953,4093.1,-0.00013494,2.1997,-0.00013525,-0.15207,0.2988
25503,7.766,0.27273,0.1,0.00040323,4029.5,0.00040339,4034.3,-0.00013225,9.7738,-0.00013355,-0.055693,0.31436
25504,7.8585,0.18182,0.1,0.00040101,4007.3,0.00040106,4008.9,-0.00013204,3.4596,-0.00013252,-0.14391,0.32097
25505,7.766,0.090909,0.1,0.00040389,4036.1,0.00040391,4036.7,-0.00013315,1.4772,-0.00013337,-0.18619,0.31308
25506,7.766,0.45455,0.1,0.00040222,4019.4,0.00040257,4029.8,-0.00013099,20.834,-0.00013377,-0.034954,0.31556
25507,7.8585,0.36364,0.1,0.00039997,3996.9,0.00040021,4004.1,-0.00013078,14.476,-0.00013271,-0.054364,0.3222
25508,7.766,0.63636,0.1,0.00040128,4010.1,0.00040181,4025.6,-0.00012981,31.266,-0.00013397,-0.015161,0.31667
25509,7.8585,0.54545,0.1,0.00039905,3987.7,0.00039946,4000,-0.00012962,24.691,-0.00013291,-0.015019,0.32335
25510,7.766,0.81818,0.1,0.00040039,4001.1,0.00040108,4021.6,-0.00012867,41.271,-0.00013417,-0.012737,0.31769
25511,7.8585,0.72727,0.1,0.00039817,3978.9,0.00039874,3996.1,-0.00012851,34.504,-0.0001331,-0.014584,0.32442
25512,7.766,1,0.1,0.00039954,3992.6,0.00040038,4017.8,-0.00012759,50.801,-0.00013436,-0.0092937,0.31863
25513,7.8585,0.90909,0.1,0.00039732,3970.5,0.00039805,3992.3,-0.00012744,43.896,-0.00013329,-0.010083,0.32539
25514,7.766,1.1818,0.1,0.00039873,3984.6,0.00039972,4014.1,-0.00012658,59.782,-0.00013453,-0.0071482,0.31949
25515,7.8585,1.0909,0.1,0.00039653,3962.5,0.0003974,3988.7,-0.00012643,52.793,-0.00013346,-0.0079616,0.32629
25516,7.766,1.3636,0.1,0.00039799,3977.1,0.0003991,4010.8,-0.00012563,68.143,-0.0001347,-0.0052986,0.32026
25517,7.8585,1.2727,0.1,0.00039578,3955.1,0.00039678,3985.3,-0.00012549,61.128,-0.00013362,-0.0059965,0.3271
25518,7.766,1.5455,0.1,0.0003973,3970.3,0.00039854,4007.6,-0.00012476,75.817,-0.00013485,-0.0037875,0.32095
25519,7.8585,1.4545,0.1,0.00039509,3948.1,0.00039621,3982.1,-0.00012461,68.834,-0.00013377,-0.0044538,0.32782
25520,7.766,1.7273,0.1,0.00039668,3964.1,0.00039803,4004.8,-0.00012397,82.744,-0.00013498,-0.0025058,0.32155
25521,7.8585,1.6364,0.1,0.00039446,3941.9,0.00039569,3979.2,-0.00012382,75.85,-0.00013391,-0.0031363,0.32847
25522,7.766,1.9091,0.1,0.00039614,3958.6,0.00039757,4002.3,-0.00012327,88.868,-0.0001351,-0.0014291,0.32208
25523,7.8585,1.8182,0.1,0.0003939,3936.2,0.00039523,3976.7,-0.0001231,82.12,-0.00013403,-0.0020291,0.32903
25524,7.766,2.0909,0.1,0.00039567,3953.9,0.00039718,4000.2,-0.00012268,94.138,-0.0001352,-0.00053323,0.32252
25525,7.8585,2,0.1,0.00039341,3931.3,0.00039482,3974.4,-0.00012248,87.594,-0.00013414,-0.0010998,0.32951
25526,7.766,2.2727,0.1,0.00039527,3950,0.00039686,3998.4,-0.00012218,98.511,-0.00013529,0.00019223,0.32288
25527,7.8585,2.1818,0.1,0.00039299,3927.2,0.00039448,3972.5,-0.00012195,92.226,-0.00013423,-0.00033435,0.32992
25528,7.766,2.4545,0.1,0.00039497,3947,0.0003966,3996.9,-0.00012179,101.95,-0.00013536,0.00075234,0.32316
25529,7.8585,2.3636,0.1,0.00039266,3923.8,0.0003942,3971,-0.00012153,95.978,-0.0001343,0.00027295,0.33024
25530,7.766,2.6364,0.1,0.00039475,3944.7,0.00039642,3995.9,-0.00012151,104.43,-0.0001354,0.0011508,0.32336
25531,7.8585,2.5455,0.1,0.0003924,3921.3,0.00039399,3969.8,-0.0001212,98.821,-0.00013436,0.00072522,0.33048
25532,7.766,2.8182,0.1,0.00039461,3943.4,0.00039631,3995.3,-0.00012134,105.92,-0.00013543,0.0013902,0.32348
25533,7.8585,2.7273,0.1,0.00039223,3919.6,0.00039385,3969,-0.00012099,100.73,-0.00013439,0.0010272,0.33064
25534,7.766,3,0.1,0.00039457,3943,0.00039627,3995.1,-0.00012128,106.42,-0.00013544,0.00147,0.32353
25535,7.8585,2.9091,0.1,0.00039214,3918.7,0.00039378,3968.6,-0.00012088,101.69,-0.00013441,0.0011783,0.33072
25536,7.766,3.1818,0.1,0.00039461,3943.4,0.00039631,3995.3,-0.00012134,105.92,-0.00013543,0.0013902,0.32348
25537,7.8585,3.0909,0.1,0.00039214,3918.7,0.00039378,3968.6,-0.00012088,101.69,-0.00013441,0.0011784,0.33072
25538,7.766,3.3636,0.1,0.00039475,3944.7,0.00039642,3995.9,-0.00012151,104.43,-0.0001354,0.001151,0.32336
25539,7.8585,3.2727,0.1,0.00039223,3919.6,0.00039385,3969,-0.00012099,100.73,-0.00013439,0.0010272,0.33064
25540,7.766,3.5455,0.1,0.00039497,3947,0.0003966,3996.9,-0.00012179,101.95,-0.00013536,0.00075264,0.32316
25541,7.8585,3.4545,0.1,0.0003924,3921.3,0.00039399,3969.8,-0.0001212,98.821,-0.00013436,0.00072555,0.33048
25542,7.766,3.7273,0.1,0.00039527,3950,0.00039686,3998.4,-0.00012218,98.511,-0.00013529,0.00019274,0.32288
25543,7.8585,3.6364,0.1,0.00039266,3923.8,0.0003942,3971,-0.00012153,95.978,-0.0001343,0.00027328,0.33024
25544,7.766,3.9091,0.1,0.00039567,3953.9,0.00039718,4000.2,-0.00012268,94.138,-0.0001352,-0.00053278,0.32252
25545,7.8585,3.8182,0.1,0.00039299,3927.2,0.00039448,3972.5,-0.00012195,92.226,-0.00013423,-0.00033405,0.32992
25546,7.766,4.0909,0.1,0.00039614,3958.6,0.00039757,4002.3,-0.00012327,88.868,-0.0001351,-0.0014287,0.32208
25547,7.8585,4,0.1,0.00039341,3931.3,0.00039482,3974.4,-0.00012248,87.594,-0.00013414,-0.0010993,0.32951
25548,7.766,4.2727,0.1,0.00039668,3964.1,0.00039803,4004.8,-0.00012397,82.744,-0.00013498,-0.0025053,0.32155
25549,7.8585,4.1818,0.1,0.0003939,3936.2,0.00039523,3976.7,-0.0001231,82.12,-0.00013403,-0.0020287,0.32903
25550,7.766,4.4545,0.1,0.0003973,3970.3,0.00039854,4007.6,-0.00012476,75.817,-0.00013485,-0.0037869,0.32095
25551,7.8585,4.3636,0.1,0.00039446,3941.9,0.00039569,3979.2,-0.00012382,75.85,-0.00013391,-0.0031358,0.32847
25552,7.766,4.6364,0.1,0.00039799,3977.1,0.0003991,4010.8,-0.00012563,68.143,-0.0001347,-0.0052978,0.32026
25553,7.8585,4.5455,0.1,0.00039509,3948.1,0.00039621,3982.1,-0.00012461,68.834,-0.00013377,-0.0044529,0.32782
25554,7.766,4.8182,0.1,0.00039873,3984.6,0.00039972,4014.1,-0.00012658,59.782,-0.00013453,-0.0071473,0.31949
25555,7.8585,4.7273,0.1,0.00039578,3955.1,0.00039678,3985.3,-0.00012549,61.128,-0.00013362,-0.0059958,0.3271
25556,7.766,5,0.1,0.00039954,3992.6,0.00040038,4017.8,-0.00012759,50.801,-0.00013436,-0.0092925,0.31863
25557,7.8585,4.9091,0.1,0.00039653,3962.5,0.0003974,3988.7,-0.00012643,52.793,-0.00013346,-0.0079607,0.32629
25558,7.766,5.1818,0.1,0.00040039,4001.1,0.00040108,4021.6,-0.00012867,41.271,-0.00013417,-0.012736,0.31769
25559,7.8585,5.0909,0.1,0.00039732,3970.5,0.00039805,3992.3,-0.00012744,43.896,-0.00013329,-0.010082,0.32539
25560,7.766,5.3636,0.1,0.00040128,4010.1,0.00040181,4025.6,-0.00012981,31.266,-0.00013397,-0.01516,0.31667
25561,7.8585,5.2727,0.1,0.00039817,3978.9,0.00039874,3996.1,-0.00012851,34.504,-0.0001331,-0.014583,0.32442
25562,7.766,5.5455,0.1,0.00040222,4019.4,0.00040257,4029.8,-0.00013099,20.834,-0.00013377,-0.034954,0.31556
25563,7.8585,5.4545,0.1,0.00039905,3987.7,0.00039946,4000,-0.00012962,24.691,-0.00013291,-0.015019,0.32335
25564,7.766,5.7273,0.1,0.00040323,4029.5,0.00040339,4034.3,-0.00013225,9.7738,-0.00013355,-0.055691,0.31436
25565,7.8585,5.6364,0.1,0.00039997,3996.9,0.00040021,4004.1,-0.00013078,14.476,-0.00013271,-0.054363,0.3222
25566,7.8585,5.8182,0.1,0.00040101,4007.3,0.00040106,4008.9,-0.00013204,3.4595,-0.00013252,-0.14391,0.32097
25567,7.766,5.9091,0.1,0.00040389,4036.1,0.00040391,4036.7,-0.00013315,1.4772,-0.00013337,-0.18619,0.31308
25568,7.9509,0.27273,0.1,0.00039774,3974.6,0.00039787,3978.7,-0.00013057,8.1235,-0.00013166,-0.052982,0.3289
25569,8.0434,0.18182,0.1,0.0003955,3952.3,0.00039554,3953.3,-0.00013031,2.2974,-0.00013064,-0.18441,0.33565
25570,7.9509,0.090909,0.1,0.00039831,3980.4,0.00039832,3980.7,-0.00013136,0.84169,-0.00013151,-0.26726,0.32763
25571,7.9509,0.45455,0.1,0.0003968,3965.2,0.0003971,3974.3,-0.00012941,18.344,-0.00013185,-0.031482,0.33009
25572,8.0434,0.36364,0.1,0.00039452,3942.5,0.00039473,3948.7,-0.00012915,12.477,-0.00013081,-0.049161,0.33688
25573,7.9509,0.63636,0.1,0.00039593,3956.6,0.0003964,3970.5,-0.00012832,27.939,-0.00013204,-0.01366,0.33119
25574,8.0434,0.54545,0.1,0.00039367,3934,0.00039404,3944.9,-0.00012808,21.876,-0.00013099,-0.013443,0.33801
25575,7.9509,0.81818,0.1,0.0003951,3948.3,0.00039572,3966.7,-0.00012728,37.138,-0.00013222,-0.011602,0.3322
25576,8.0434,0.72727,0.1,0.00039285,3925.8,0.00039337,3941.2,-0.00012706,30.897,-0.00013117,-0.013213,0.33907
25577,7.9509,1,0.1,0.00039431,3940.4,0.00039507,3963.1,-0.00012628,45.896,-0.00013239,-0.0085771,0.33314
25578,8.0434,0.90909,0.1,0.00039207,3918,0.00039273,3937.6,-0.00012608,39.528,-0.00013134,-0.0092492,0.34004
25579,7.9509,1.1818,0.1,0.00039357,3933,0.00039446,3959.8,-0.00012534,54.146,-0.00013255,-0.0067033,0.33399
25580,8.0434,1.0909,0.1,0.00039133,3910.6,0.00039212,3934.3,-0.00012515,47.703,-0.0001315,-0.0074113,0.34092
25581,7.9509,1.3636,0.1,0.00039288,3926.1,0.00039389,3956.6,-0.00012447,61.825,-0.0001327,-0.0050793,0.33475
25582,8.0434,1.2727,0.1,0.00039064,3903.7,0.00039155,3931.1,-0.00012428,55.357,-0.00013164,-0.0056924,0.34173
25583,7.9509,1.5455,0.1,0.00039224,3919.7,0.00039337,3953.7,-0.00012367,68.872,-0.00013284,-0.0037495,0.33543
25584,8.0434,1.4545,0.1,0.00039,3897.3,0.00039103,3928.2,-0.00012347,62.433,-0.00013178,-0.004341,0.34245
25585,7.9509,1.7273,0.1,0.00039167,3914,0.0003929,3951.1,-0.00012295,75.231,-0.00013296,-0.0026182,0.33604
25586,8.0434,1.6364,0.1,0.00038942,3891.5,0.00039055,3925.5,-0.00012274,68.873,-0.00013191,-0.0031826,0.34309
25587,7.9509,1.9091,0.1,0.00039117,3909,0.00039248,3948.8,-0.00012231,80.851,-0.00013307,-0.0016659,0.33656
25588,8.0434,1.8182,0.1,0.0003889,3886.3,0.00039012,3923.1,-0.00012208,74.628,-0.00013202,-0.0022067,0.34365
25589,7.9509,2.0909,0.1,0.00039073,3904.6,0.00039212,3946.8,-0.00012176,85.686,-0.00013316,-0.0008719,0.337
25590,8.0434,2,0.1,0.00038845,3881.8,0.00038974,3921,-0.00012151,79.65,-0.00013211,-0.0013857,0.34413
25591,7.9509,2.2727,0.1,0.00039037,3901,0.00039182,3945.1,-0.0001213,89.698,-0.00013324,-0.00022792,0.33736
25592,8.0434,2.1818,0.1,0.00038807,3878,0.00038942,3919.2,-0.00012103,83.899,-0.0001322,-0.00070813,0.34452
25593,7.9509,2.4545,0.1,0.00039009,3898.2,0.00039158,3943.8,-0.00012094,92.853,-0.0001333,0.00026932,0.33764
25594,8.0434,2.3636,0.1,0.00038776,3874.9,0.00038917,3917.8,-0.00012064,87.342,-0.00013226,-0.00016982,0.34484
25595,7.9509,2.6364,0.1,0.00038988,3896.1,0.00039141,3942.8,-0.00012068,95.126,-0.00013334,0.0006236,0.33784
25596,8.0434,2.5455,0.1,0.00038752,3872.5,0.00038897,3916.7,-0.00012034,89.948,-0.00013231,0.00023121,0.34508
25597,7.9509,2.8182,0.1,0.00038976,3894.9,0.00039131,3942.3,-0.00012053,96.497,-0.00013337,0.0008366,0.33795
25598,8.0434,2.7273,0.1,0.00038736,3871,0.00038884,3916,-0.00012014,91.698,-0.00013234,0.00049941,0.34524
25599,7.9509,3,0.1,0.00038972,3894.5,0.00039128,3942.1,-0.00012048,96.955,-0.00013338,0.0009077,0.33799
25600,8.0434,2.9091,0.1,0.00038728,3870.2,0.00038878,3915.6,-0.00012004,92.577,-0.00013236,0.00063366,0.34532
25601,7.9509,3.1818,0.1,0.00038976,3894.9,0.00039131,3942.3,-0.00012053,96.497,-0.00013337,0.00083669,0.33795
25602,8.0434,3.0909,0.1,0.00038728,3870.2,0.00038878,3915.6,-0.00012004,92.577,-0.00013236,0.00063367,0.34532
25603,7.9509,3.3636,0.1,0.00038988,3896.1,0.00039141,3942.8,-0.00012068,95.126,-0.00013334,0.00062384,0.33784
25604,8.0434,3.2727,0.1,0.00038736,3871,0.00038884,3916,-0.00012014,91.698,-0.00013234,0.00049944,0.34524
25605,7.9509,3.5455,0.1,0.00039009,3898.2,0.00039158,3943.8,-0.00012094,92.853,-0.0001333,0.00026968,0.33764
25606,8.0434,3.4545,0.1,0.00038752,3872.5,0.00038897,3916.7,-0.00012034,89.948,-0.00013231,0.0002316,0.34508
25607,7.9509,3.7273,0.1,0.00039037,3901,0.00039182,3945.1,-0.0001213,89.698,-0.00013324,-0.0002278,0.33736
25608,8.0434,3.6364,0.1,0.00038776,3874.9,0.00038917,3917.8,-0.00012064,87.342,-0.00013226,-0.00016961,0.34484
25609,7.9509,3.9091,0.1,0.00039073,3904.6,0.00039212,3946.8,-0.00012176,85.686,-0.00013316,-0.00087157,0.337
25610,8.0434,3.8182,0.1,0.00038807,3878,0.00038942,3919.2,-0.00012103,83.899,-0.0001322,-0.00070792,0.34452
25611,7.9509,4.0909,0.1,0.00039117,3909,0.00039248,3948.8,-0.00012231,80.851,-0.00013307,-0.0016654,0.33656
25612,8.0434,4,0.1,0.00038845,3881.8,0.00038974,3921,-0.00012151,79.65,-0.00013211,-0.0013852,0.34413
25613,7.9509,4.2727,0.1,0.00039167,3914,0.0003929,3951.1,-0.00012295,75.231,-0.00013296,-0.0026177,0.33604
25614,8.0434,4.1818,0.1,0.0003889,3886.3,0.00039012,3923.1,-0.00012208,74.628,-0.00013202,-0.0022062,0.34365
25615,7.9509,4.4545,0.1,0.00039224,3919.7,0.00039337,3953.7,-0.00012367,68.872,-0.00013284,-0.0037488,0.33543
25616,8.0434,4.3636,0.1,0.00038942,3891.5,0.00039055,3925.5,-0.00012274,68.873,-0.00013191,-0.003182,0.34309
25617,7.9509,4.6364,0.1,0.00039288,3926.1,0.00039389,3956.6,-0.00012447,61.825,-0.0001327,-0.0050785,0.33475
25618,8.0434,4.5455,0.1,0.00039,3897.3,0.00039103,3928.2,-0.00012347,62.433,-0.00013178,-0.0043403,0.34245
25619,7.9509,4.8182,0.1,0.00039357,3933,0.00039446,3959.8,-0.00012534,54.146,-0.00013255,-0.0067026,0.33399
25620,8.0434,4.7273,0.1,0.00039064,3903.7,0.00039155,3931.1,-0.00012428,55.357,-0.00013164,-0.0056919,0.34173
25621,7.9509,5,0.1,0.00039431,3940.4,0.00039507,3963.1,-0.00012628,45.896,-0.00013239,-0.008576,0.33314
25622,8.0434,4.9091,0.1,0.00039133,3910.6,0.00039212,3934.3,-0.00012515,47.703,-0.0001315,-0.0074107,0.34092
25623,7.9509,5.1818,0.1,0.0003951,3948.3,0.00039572,3966.7,-0.00012728,37.138,-0.00013222,-0.011601,0.3322
25624,8.0434,5.0909,0.1,0.00039207,3918,0.00039273,3937.6,-0.00012608,39.528,-0.00013134,-0.0092479,0.34004
25625,7.9509,5.3636,0.1,0.00039593,3956.6,0.0003964,3970.5,-0.00012832,27.939,-0.00013204,-0.013659,0.33119
25626,8.0434,5.2727,0.1,0.00039285,3925.8,0.00039337,3941.2,-0.00012706,30.897,-0.00013117,-0.013212,0.33907
25627,7.9509,5.5455,0.1,0.0003968,3965.2,0.0003971,3974.3,-0.00012941,18.344,-0.00013185,-0.031482,0.33009
25628,8.0434,5.4545,0.1,0.00039367,3934,0.00039404,3944.9,-0.00012808,21.876,-0.00013099,-0.013442,0.33801
25629,7.9509,5.7273,0.1,0.00039774,3974.6,0.00039787,3978.7,-0.00013057,8.1235,-0.00013166,-0.052981,0.3289
25630,8.0434,5.6364,0.1,0.00039452,3942.5,0.00039473,3948.7,-0.00012915,12.477,-0.00013081,-0.04916,0.33688
25631,8.0434,5.8182,0.1,0.0003955,3952.3,0.00039554,3953.3,-0.00013031,2.2973,-0.00013064,-0.18441,0.33565
25632,7.9509,5.9091,0.1,0.00039831,3980.4,0.00039832,3980.7,-0.00013136,0.84167,-0.00013151,-0.26726,0.32763
25633,8.1358,0.27273,0.1,0.00039228,3920.1,0.00039239,3923.3,-0.0001289,6.5761,-0.00012978,-0.051263,0.34372
25634,8.2283,0.18182,0.1,0.00039002,3897.5,0.00039004,3898,-0.00012859,1.264,-0.00012879,-0.28603,0.35061
25635,8.1358,0.090909,0.1,0.00039277,3925,0.00039277,3924.9,-0.00012956,0.37903,-0.00012967,-0.48266,0.34246
25636,8.1358,0.45455,0.1,0.00039139,3911.2,0.00039166,3919.2,-0.00012782,16.021,-0.00012996,-0.028292,0.34489
25637,8.2283,0.36364,0.1,0.0003891,3888.3,0.00038928,3893.6,-0.00012751,10.609,-0.00012893,-0.044385,0.35182
25638,8.1358,0.63636,0.1,0.00039059,3903.2,0.00039101,3915.6,-0.00012682,24.845,-0.00013012,-0.012293,0.34598
25639,8.2283,0.54545,0.1,0.00038831,3880.4,0.00038863,3890,-0.00012653,19.254,-0.0001291,-0.012,0.35295
25640,8.1358,0.81818,0.1,0.00038982,3895.5,0.00039038,3912.1,-0.00012586,33.298,-0.00013029,-0.010573,0.34699
25641,8.2283,0.72727,0.1,0.00038755,3872.9,0.00038801,3886.5,-0.00012559,27.545,-0.00012926,-0.011962,0.35399
25642,8.1358,1,0.1,0.00038909,3888.2,0.00038978,3908.7,-0.00012494,41.344,-0.00013044,-0.0079329,0.34791
25643,8.2283,0.90909,0.1,0.00038683,3865.6,0.00038742,3883.2,-0.00012469,35.473,-0.00012941,-0.0084932,0.35495
25644,8.1358,1.1818,0.1,0.00038841,3881.4,0.00038921,3905.6,-0.00012408,48.922,-0.00013059,-0.0063088,0.34875
25645,8.2283,1.0909,0.1,0.00038615,3858.8,0.00038686,3880.1,-0.00012383,42.98,-0.00012955,-0.0069162,0.35583
25646,8.1358,1.3636,0.1,0.00038777,3875,0.00038869,3902.7,-0.00012328,55.972,-0.00013073,-0.0048921,0.34951
25647,8.2283,1.2727,0.1,0.00038551,3852.4,0.00038633,3877.2,-0.00012303,50.009,-0.00012969,-0.0054235,0.35663
25648,8.1358,1.5455,0.1,0.00038718,3869.1,0.0003882,3900,-0.00012254,62.441,-0.00013085,-0.0037287,0.35019
25649,8.2283,1.4545,0.1,0.00038491,3846.5,0.00038584,3874.4,-0.00012229,56.503,-0.00012981,-0.0042477,0.35734
25650,8.1358,1.7273,0.1,0.00038665,3863.8,0.00038777,3897.5,-0.00012187,68.277,-0.00013096,-0.0027356,0.35079
25651,8.2283,1.6364,0.1,0.00038438,3841.1,0.0003854,3871.9,-0.00012162,62.414,-0.00012992,-0.0032348,0.35798
25652,8.1358,1.9091,0.1,0.00038618,3859.2,0.00038738,3895.4,-0.00012129,73.433,-0.00013106,-0.0018975,0.3513
25653,8.2283,1.8182,0.1,0.0003839,3836.3,0.000385,3869.7,-0.00012101,67.693,-0.00013002,-0.0023795,0.35853
25654,8.1358,2.0909,0.1,0.00038578,3855.2,0.00038705,3893.5,-0.00012078,77.869,-0.00013115,-0.0011971,0.35174
25655,8.2283,2,0.1,0.00038348,3832.1,0.00038466,3867.8,-0.00012049,72.3,-0.00013011,-0.0016578,0.35901
25656,8.1358,2.2727,0.1,0.00038545,3851.8,0.00038677,3892,-0.00012036,81.548,-0.00013122,-0.00062794,0.3521
25657,8.2283,2.1818,0.1,0.00038312,3828.6,0.00038436,3866.1,-0.00012005,76.197,-0.00013019,-0.0010609,0.3594
25658,8.1358,2.4545,0.1,0.00038519,3849.2,0.00038655,3890.7,-0.00012003,84.442,-0.00013127,-0.0001877,0.35238
25659,8.2283,2.3636,0.1,0.00038284,3825.7,0.00038413,3864.8,-0.00011969,79.354,-0.00013025,-0.00058568,0.35972
25660,8.1358,2.6364,0.1,0.000385,3847.3,0.0003864,3889.9,-0.0001198,86.526,-0.00013131,0.00012605,0.35257
25661,8.2283,2.5455,0.1,0.00038262,3823.6,0.00038395,3863.8,-0.00011941,81.744,-0.00013029,-0.00023146,0.35995
25662,8.1358,2.8182,0.1,0.00038488,3846.2,0.0003863,3889.3,-0.00011965,87.783,-0.00013134,0.00031483,0.35269
25663,8.2283,2.7273,0.1,0.00038247,3822.1,0.00038382,3863.1,-0.00011923,83.348,-0.00013032,5.6486e-06,0.36011
25664,8.1358,3,0.1,0.00038485,3845.8,0.00038627,3889.2,-0.0001196,88.203,-0.00013134,0.00037778,0.35273
25665,8.2283,2.9091,0.1,0.0003824,3821.4,0.00038376,3862.8,-0.00011914,84.153,-0.00013034,0.00012452,0.36019
25666,8.1358,3.1818,0.1,0.00038488,3846.2,0.0003863,3889.3,-0.00011965,87.783,-0.00013134,0.00031478,0.35269
25667,8.2283,3.0909,0.1,0.0003824,3821.4,0.00038376,3862.8,-0.00011914,84.153,-0.00013034,0.00012437,0.36019
25668,8.1358,3.3636,0.1,0.000385,3847.3,0.0003864,3889.9,-0.0001198,86.526,-0.00013131,0.00012623,0.35257
25669,8.2283,3.2727,0.1,0.00038247,3822.1,0.00038382,3863.1,-0.00011923,83.348,-0.00013032,5.6194e-06,0.36011
25670,8.1358,3.5455,0.1,0.00038519,3849.2,0.00038655,3890.7,-0.00012003,84.442,-0.00013127,-0.00018746,0.35238
25671,8.2283,3.4545,0.1,0.00038262,3823.6,0.00038395,3863.8,-0.00011941,81.744,-0.00013029,-0.00023116,0.35995
25672,8.1358,3.7273,0.1,0.00038545,3851.8,0.00038677,3892,-0.00012036,81.548,-0.00013122,-0.00062764,0.3521
25673,8.2283,3.6364,0.1,0.00038284,3825.7,0.00038413,3864.8,-0.00011969,79.354,-0.00013025,-0.0005855,0.35972
25674,8.1358,3.9091,0.1,0.00038578,3855.2,0.00038705,3893.5,-0.00012078,77.869,-0.00013115,-0.0011966,0.35174
25675,8.2283,3.8182,0.1,0.00038312,3828.6,0.00038436,3866.1,-0.00012005,76.197,-0.00013019,-0.0010605,0.3594
25676,8.1358,4.0909,0.1,0.00038618,3859.2,0.00038738,3895.4,-0.00012129,73.433,-0.00013106,-0.0018969,0.3513
25677,8.2283,4,0.1,0.00038348,3832.1,0.00038466,3867.8,-0.00012049,72.3,-0.00013011,-0.0016574,0.35901
25678,8.1358,4.2727,0.1,0.00038665,3863.8,0.00038777,3897.5,-0.00012187,68.277,-0.00013096,-0.002735,0.35079
25679,8.2283,4.1818,0.1,0.0003839,3836.3,0.000385,3869.7,-0.00012101,67.693,-0.00013002,-0.002379,0.35853
25680,8.1358,4.4545,0.1,0.00038718,3869.1,0.0003882,3900,-0.00012254,62.441,-0.00013085,-0.003728,0.35019
25681,8.2283,4.3636,0.1,0.00038438,3841.1,0.0003854,3871.9,-0.00012162,62.414,-0.00012992,-0.0032342,0.35798
25682,8.1358,4.6364,0.1,0.00038777,3875,0.00038869,3902.7,-0.00012328,55.972,-0.00013073,-0.0048917,0.34951
25683,8.2283,4.5455,0.1,0.00038491,3846.5,0.00038584,3874.4,-0.00012229,56.503,-0.00012981,-0.0042471,0.35734
25684,8.1358,4.8182,0.1,0.00038841,3881.4,0.00038921,3905.6,-0.00012408,48.922,-0.00013059,-0.0063083,0.34875
25685,8.2283,4.7273,0.1,0.00038551,3852.4,0.00038633,3877.2,-0.00012303,50.009,-0.00012969,-0.0054228,0.35663
25686,8.1358,5,0.1,0.00038909,3888.2,0.00038978,3908.7,-0.00012494,41.344,-0.00013044,-0.007932,0.34791
25687,8.2283,4.9091,0.1,0.00038615,3858.8,0.00038686,3880.1,-0.00012383,42.98,-0.00012955,-0.0069155,0.35583
25688,8.1358,5.1818,0.1,0.00038982,3895.5,0.00039038,3912.1,-0.00012586,33.298,-0.00013029,-0.010572,0.34699
25689,8.2283,5.0909,0.1,0.00038683,3865.6,0.00038742,3883.2,-0.00012469,35.473,-0.00012941,-0.0084921,0.35495
25690,8.1358,5.3636,0.1,0.00039059,3903.2,0.00039101,3915.6,-0.00012682,24.845,-0.00013012,-0.012292,0.34598
25691,8.2283,5.2727,0.1,0.00038755,3872.9,0.00038801,3886.5,-0.00012559,27.544,-0.00012926,-0.01196,0.35399
25692,8.1358,5.5455,0.1,0.00039139,3911.2,0.00039166,3919.2,-0.00012782,16.021,-0.00012996,-0.028291,0.34489
25693,8.2283,5.4545,0.1,0.00038831,3880.4,0.00038863,3890,-0.00012653,19.254,-0.0001291,-0.011999,0.35295
25694,8.1358,5.7273,0.1,0.00039228,3920.1,0.00039239,3923.3,-0.0001289,6.5761,-0.00012978,-0.051262,0.34372
25695,8.2283,5.6364,0.1,0.0003891,3888.3,0.00038928,3893.6,-0.00012751,10.609,-0.00012893,-0.044384,0.35182
25696,8.2283,5.8182,0.1,0.00039002,3897.5,0.00039004,3898,-0.00012859,1.2639,-0.00012879,-0.28603,0.35061
25697,8.1358,5.9091,0.1,0.00039277,3925,0.00039277,3924.9,-0.00012956,0.37902,-0.00012967,-0.48267,0.34246
25698,8.3208,0.27273,0.1,0.00038684,3865.7,0.00038693,3868.3,-0.00012723,5.1261,-0.00012792,-0.050922,0.3588
25699,8.4132,0.18182,0.1,0.00038457,3843.1,0.00038457,3843,-0.00012684,0.51184,-0.00012699,-0.60451,0.36583
25700,8.3208,0.090909,0.1,0.00038726,3869.9,0.00038725,3869.6,-0.00012774,0.1629,-0.00012788,-0.9077,0.35755
25701,8.3208,0.45455,0.1,0.00038601,3857.5,0.00038625,3864.4,-0.00012623,13.855,-0.00012807,-0.02535,0.35996
25702,8.4132,0.36364,0.1,0.0003837,3834.4,0.00038385,3838.8,-0.00012588,8.8629,-0.00012706,-0.040005,0.36703
25703,8.3208,0.63636,0.1,0.00038527,3850,0.00038564,3861,-0.0001253,21.966,-0.00012823,-0.011039,0.36104
25704,8.4132,0.54545,0.1,0.00038297,3827,0.00038325,3835.4,-0.00012497,16.812,-0.00012721,-0.010676,0.36814
25705,8.3208,0.81818,0.1,0.00038456,3842.9,0.00038505,3857.7,-0.00012442,29.731,-0.00012837,-0.0096324,0.36204
25706,8.4132,0.72727,0.1,0.00038227,3820,0.00038268,3832.2,-0.0001241,24.427,-0.00012736,-0.010817,0.36918
25707,8.3208,1,0.1,0.00038388,3836.2,0.0003845,3854.6,-0.00012357,37.12,-0.00012852,-0.0073477,0.36295
25708,8.4132,0.90909,0.1,0.0003816,3813.3,0.00038213,3829.1,-0.00012327,31.708,-0.00012749,-0.007807,0.37013
25709,8.3208,1.1818,0.1,0.00038324,3829.8,0.00038398,3851.6,-0.00012278,44.077,-0.00012865,-0.0059531,0.36379
25710,8.4132,1.0909,0.1,0.00038096,3807,0.00038161,3826.2,-0.00012249,38.599,-0.00012763,-0.0064698,0.371
25711,8.3208,1.3636,0.1,0.00038265,3823.9,0.00038349,3848.9,-0.00012204,50.548,-0.00012877,-0.0047266,0.36454
25712,8.4132,1.2727,0.1,0.00038037,3801.1,0.00038112,3823.4,-0.00012175,45.049,-0.00012775,-0.0051844,0.37179
25713,8.3208,1.5455,0.1,0.00038211,3818.5,0.00038304,3846.4,-0.00012137,56.484,-0.00012888,-0.0037155,0.36521
25714,8.4132,1.4545,0.1,0.00037982,3795.6,0.00038067,3820.9,-0.00012107,51.008,-0.00012786,-0.0041695,0.3725
25715,8.3208,1.7273,0.1,0.00038162,3813.6,0.00038264,3844.1,-0.00012076,61.837,-0.00012899,-0.0028487,0.3658
25716,8.4132,1.6364,0.1,0.00037933,3790.6,0.00038026,3818.5,-0.00012045,56.43,-0.00012796,-0.0032901,0.37313
25717,8.3208,1.9091,0.1,0.00038119,3809.3,0.00038228,3842.1,-0.00012022,66.567,-0.00012908,-0.0021151,0.36632
25718,8.4132,1.8182,0.1,0.00037888,3786.2,0.00037989,3816.5,-0.0001199,61.272,-0.00012805,-0.0025448,0.37368
25719,8.3208,2.0909,0.1,0.00038082,3805.6,0.00038197,3840.4,-0.00011975,70.635,-0.00012915,-0.0015005,0.36675
25720,8.4132,2,0.1,0.0003785,3782.3,0.00037957,3814.7,-0.00011942,65.497,-0.00012813,-0.0019142,0.37415
25721,8.3208,2.2727,0.1,0.00038051,3802.5,0.00038172,3838.9,-0.00011937,74.009,-0.00012922,-0.00099988,0.3671
25722,8.4132,2.1818,0.1,0.00037817,3779.1,0.0003793,3813.1,-0.00011901,69.07,-0.0001282,-0.0013911,0.37454
25723,8.3208,2.4545,0.1,0.00038027,3800.1,0.00038152,3837.8,-0.00011906,76.662,-0.00012927,-0.0006122,0.36738
25724,8.4132,2.3636,0.1,0.0003779,3776.4,0.00037908,3811.9,-0.00011868,71.963,-0.00012826,-0.00097391,0.37485
25725,8.3208,2.6364,0.1,0.0003801,3798.3,0.00038137,3837,-0.00011885,78.572,-0.0001293,-0.00033562,0.36758
25726,8.4132,2.5455,0.1,0.0003777,3774.4,0.00037891,3811,-0.00011843,74.154,-0.0001283,-0.00066249,0.37509
25727,8.3208,2.8182,0.1,0.00037999,3797.3,0.00038128,3836.5,-0.00011871,79.725,-0.00012933,-0.00016898,0.36769
25728,8.4132,2.7273,0.1,0.00037757,3773.1,0.0003788,3810.3,-0.00011826,75.624,-0.00012832,-0.00045378,0.37524
25729,8.3208,3,0.1,0.00037995,3796.9,0.00038125,3836.3,-0.00011867,80.11,-0.00012933,-0.00011338,0.36773
25730,8.4132,2.9091,0.1,0.0003775,3772.4,0.00037874,3810,-0.00011818,76.362,-0.00012834,-0.00034911,0.37532
25731,8.3208,3.1818,0.1,0.00037999,3797.3,0.00038128,3836.5,-0.00011871,79.725,-0.00012933,-0.0001691,0.36769
25732,8.4132,3.0909,0.1,0.0003775,3772.4,0.00037874,3810,-0.00011818,76.362,-0.00012834,-0.00034908,0.37532
25733,8.3208,3.3636,0.1,0.0003801,3798.3,0.00038137,3837,-0.00011885,78.572,-0.0001293,-0.00033553,0.36758
25734,8.4132,3.2727,0.1,0.00037757,3773.1,0.0003788,3810.3,-0.00011826,75.624,-0.00012832,-0.00045384,0.37524
25735,8.3208,3.5455,0.1,0.00038027,3800.1,0.00038152,3837.8,-0.00011906,76.662,-0.00012927,-0.00061196,0.36738
25736,8.4132,3.4545,0.1,0.0003777,3774.4,0.00037891,3811,-0.00011843,74.154,-0.0001283,-0.00066237,0.37509
25737,8.3208,3.7273,0.1,0.00038051,3802.5,0.00038172,3838.9,-0.00011937,74.009,-0.00012922,-0.00099955,0.3671
25738,8.4132,3.6364,0.1,0.0003779,3776.4,0.00037908,3811.9,-0.00011868,71.963,-0.00012826,-0.00097364,0.37485
25739,8.3208,3.9091,0.1,0.00038082,3805.6,0.00038197,3840.4,-0.00011975,70.635,-0.00012915,-0.0015001,0.36675
25740,8.4132,3.8182,0.1,0.00037817,3779.1,0.0003793,3813.1,-0.00011901,69.07,-0.0001282,-0.0013907,0.37454
25741,8.3208,4.0909,0.1,0.00038119,3809.3,0.00038228,3842.1,-0.00012022,66.567,-0.00012908,-0.0021148,0.36632
25742,8.4132,4,0.1,0.0003785,3782.3,0.00037957,3814.7,-0.00011942,65.497,-0.00012813,-0.0019138,0.37415
25743,8.3208,4.2727,0.1,0.00038162,3813.6,0.00038264,3844.1,-0.00012076,61.837,-0.00012899,-0.0028483,0.3658
25744,8.4132,4.1818,0.1,0.00037888,3786.2,0.00037989,3816.5,-0.0001199,61.272,-0.00012805,-0.0025444,0.37368
25745,8.3208,4.4545,0.1,0.00038211,3818.5,0.00038304,3846.4,-0.00012137,56.484,-0.00012888,-0.0037149,0.36521
25746,8.4132,4.3636,0.1,0.00037933,3790.6,0.00038026,3818.5,-0.00012045,56.43,-0.00012796,-0.0032896,0.37313
25747,8.3208,4.6364,0.1,0.00038265,3823.9,0.00038349,3848.9,-0.00012204,50.548,-0.00012877,-0.0047258,0.36454
25748,8.4132,4.5455,0.1,0.00037982,3795.6,0.00038067,3820.9,-0.00012107,51.008,-0.00012786,-0.0041686,0.3725
25749,8.3208,4.8182,0.1,0.00038324,3829.8,0.00038398,3851.6,-0.00012278,44.076,-0.00012865,-0.0059522,0.36379
25750,8.4132,4.7273,0.1,0.00038037,3801.1,0.00038112,3823.4,-0.00012175,45.049,-0.00012775,-0.0051837,0.37179
25751,8.3208,5,0.1,0.00038388,3836.2,0.0003845,3854.6,-0.00012357,37.12,-0.00012852,-0.0073467,0.36295
25752,8.4132,4.9091,0.1,0.00038096,3807,0.00038161,3826.2,-0.00012249,38.599,-0.00012763,-0.0064689,0.371
25753,8.3208,5.1818,0.1,0.00038456,3842.9,0.00038505,3857.7,-0.00012442,29.731,-0.00012837,-0.0096312,0.36204
25754,8.4132,5.0909,0.1,0.0003816,3813.3,0.00038213,3829.1,-0.00012327,31.708,-0.00012749,-0.0078057,0.37013
25755,8.3208,5.3636,0.1,0.00038527,3850,0.00038564,3861,-0.0001253,21.966,-0.00012823,-0.011038,0.36104
25756,8.4132,5.2727,0.1,0.00038227,3820,0.00038268,3832.2,-0.0001241,24.427,-0.00012736,-0.010816,0.36918
25757,8.3208,5.5455,0.1,0.00038601,3857.5,0.00038625,3864.4,-0.00012623,13.855,-0.00012807,-0.025349,0.35996
25758,8.4132,5.4545,0.1,0.00038297,3827,0.00038325,3835.4,-0.00012497,16.812,-0.00012721,-0.010676,0.36814
25759,8.3208,5.7273,0.1,0.00038684,3865.7,0.00038693,3868.3,-0.00012723,5.126,-0.00012792,-0.050921,0.3588
25760,8.4132,5.6364,0.1,0.0003837,3834.4,0.00038385,3838.8,-0.00012588,8.8629,-0.00012706,-0.040003,0.36703
25761,8.4132,5.8182,0.1,0.00038457,3843.1,0.00038457,3843,-0.00012684,0.51183,-0.00012699,-0.60452,0.36583
25762,8.3208,5.9091,0.1,0.00038726,3869.9,0.00038725,3869.6,-0.00012774,0.1629,-0.00012788,-0.90771,0.35755
25763,8.5057,0.27273,0.1,0.00038143,3811.7,0.00038149,3813.5,-0.00012555,3.7685,-0.00012606,-0.052899,0.37414
25764,8.5981,0.18182,0.1,0.00037915,3788.9,0.00037913,3788.4,-0.00012504,0.20343,-0.00012524,-1.3056,0.38131
25765,8.5057,0.090909,0.1,0.00038178,3815.2,0.00038176,3814.5,-0.00012591,0.082813,-0.00012611,-1.4336,0.37291
25766,8.5057,0.45455,0.1,0.00038066,3803.9,0.00038085,3809.8,-0.00012463,11.834,-0.0001262,-0.022637,0.37529
25767,8.5981,0.36364,0.1,0.00037833,3780.7,0.00037845,3784.3,-0.00012424,7.2313,-0.00012521,-0.035997,0.3825
25768,8.5057,0.63636,0.1,0.00037996,3797,0.00038029,3806.6,-0.00012377,19.286,-0.00012634,-0.0098943,0.37636
25769,8.5981,0.54545,0.1,0.00037765,3773.9,0.00037789,3781.1,-0.00012341,14.537,-0.00012534,-0.009463,0.3836
25770,8.5057,0.81818,0.1,0.0003793,3790.4,0.00037975,3803.6,-0.00012296,26.416,-0.00012648,-0.0087779,0.37735
25771,8.5981,0.72727,0.1,0.000377,3767.4,0.00037736,3778.1,-0.00012261,21.528,-0.00012547,-0.009774,0.38462
25772,8.5057,1,0.1,0.00037868,3784.2,0.00037923,3800.6,-0.00012219,33.198,-0.0001266,-0.0068205,0.37826
25773,8.5981,0.90909,0.1,0.00037637,3761.1,0.00037685,3775.2,-0.00012184,28.21,-0.0001256,-0.0071871,0.38557
25774,8.5057,1.1818,0.1,0.00037809,3778.3,0.00037875,3797.9,-0.00012146,39.582,-0.00012673,-0.0056362,0.37908
25775,8.5981,1.0909,0.1,0.00037579,3755.3,0.00037636,3772.4,-0.00012112,34.533,-0.00012572,-0.0060697,0.38643
25776,8.5057,1.3636,0.1,0.00037754,3772.8,0.00037829,3795.4,-0.00012078,45.519,-0.00012684,-0.0045837,0.37983
25777,8.5981,1.2727,0.1,0.00037524,3749.8,0.00037591,3769.9,-0.00012044,40.45,-0.00012583,-0.0049744,0.38721
25778,8.5057,1.5455,0.1,0.00037704,3767.8,0.00037788,3793,-0.00012016,50.964,-0.00012694,-0.0037122,0.3805
25779,8.5981,1.4545,0.1,0.00037473,3744.7,0.00037549,3767.5,-0.00011982,45.915,-0.00012593,-0.0041064,0.38791
25780,8.5057,1.7273,0.1,0.00037659,3763.3,0.00037751,3790.9,-0.00011959,55.873,-0.00012703,-0.0029613,0.38108
25781,8.5981,1.6364,0.1,0.00037427,3740.1,0.00037511,3765.3,-0.00011925,50.886,-0.00012602,-0.0033493,0.38854
25782,8.5057,1.9091,0.1,0.00037619,3759.3,0.00037718,3789,-0.0001191,60.21,-0.00012711,-0.0023233,0.38159
25783,8.5981,1.8182,0.1,0.00037386,3736,0.00037477,3763.4,-0.00011874,55.325,-0.00012611,-0.0027047,0.38908
25784,8.5057,2.0909,0.1,0.00037584,3755.9,0.00037689,3787.4,-0.00011867,63.939,-0.00012718,-0.0017871,0.38202
25785,8.5981,2,0.1,0.0003735,3732.5,0.00037448,3761.7,-0.0001183,59.196,-0.00012618,-0.0021569,0.38955
25786,8.5057,2.2727,0.1,0.00037556,3753,0.00037666,3786.1,-0.00011832,67.031,-0.00012724,-0.0013494,0.38237
25787,8.5981,2.1818,0.1,0.0003732,3729.4,0.00037423,3760.3,-0.00011792,62.471,-0.00012624,-0.0017013,0.38994
25788,8.5057,2.4545,0.1,0.00037534,3750.8,0.00037647,3785,-0.00011804,69.462,-0.00012729,-0.0010097,0.38264
25789,8.5981,2.3636,0.1,0.00037296,3727,0.00037402,3759.1,-0.00011762,65.122,-0.00012629,-0.0013373,0.39025
25790,8.5057,2.6364,0.1,0.00037518,3749.2,0.00037634,3784.3,-0.00011784,71.213,-0.00012732,-0.00076695,0.38284
25791,8.5981,2.5455,0.1,0.00037277,3725.2,0.00037387,3758.3,-0.00011739,67.129,-0.00012633,-0.0010651,0.39048
25792,8.5057,2.8182,0.1,0.00037508,3748.2,0.00037626,3783.8,-0.00011772,72.269,-0.00012734,-0.00062065,0.38295
25793,8.5981,2.7273,0.1,0.00037265,3723.9,0.00037377,3757.7,-0.00011724,68.476,-0.00012635,-0.00088242,0.39063
25794,8.5057,3,0.1,0.00037505,3747.9,0.00037623,3783.7,-0.00011768,72.622,-0.00012735,-0.0005717,0.38299
25795,8.5981,2.9091,0.1,0.00037259,3723.3,0.00037371,3757.4,-0.00011716,69.152,-0.00012636,-0.00079064,0.39071
25796,8.5057,3.1818,0.1,0.00037508,3748.2,0.00037626,3783.8,-0.00011772,72.269,-0.00012734,-0.00062056,0.38295
25797,8.5981,3.0909,0.1,0.00037259,3723.3,0.00037371,3757.4,-0.00011716,69.152,-0.00012636,-0.00079052,0.39071
25798,8.5057,3.3636,0.1,0.00037518,3749.2,0.00037634,3784.3,-0.00011784,71.213,-0.00012732,-0.00076698,0.38284
25799,8.5981,3.2727,0.1,0.00037265,3723.9,0.00037377,3757.7,-0.00011724,68.476,-0.00012635,-0.00088242,0.39063
25800,8.5057,3.5455,0.1,0.00037534,3750.8,0.00037647,3785,-0.00011804,69.462,-0.00012729,-0.0010095,0.38264
25801,8.5981,3.4545,0.1,0.00037277,3725.2,0.00037387,3758.3,-0.00011739,67.129,-0.00012633,-0.0010649,0.39048
25802,8.5057,3.7273,0.1,0.00037556,3753,0.00037666,3786.1,-0.00011832,67.031,-0.00012724,-0.001349,0.38237
25803,8.5981,3.6364,0.1,0.00037296,3727,0.00037402,3759.1,-0.00011762,65.122,-0.00012629,-0.001337,0.39025
25804,8.5057,3.9091,0.1,0.00037584,3755.9,0.00037689,3787.4,-0.00011867,63.939,-0.00012718,-0.0017868,0.38202
25805,8.5981,3.8182,0.1,0.0003732,3729.4,0.00037423,3760.3,-0.00011792,62.471,-0.00012624,-0.001701,0.38994
25806,8.5057,4.0909,0.1,0.00037619,3759.3,0.00037718,3789,-0.0001191,60.21,-0.00012711,-0.0023229,0.38159
25807,8.5981,4,0.1,0.0003735,3732.5,0.00037448,3761.7,-0.0001183,59.196,-0.00012618,-0.0021567,0.38955
25808,8.5057,4.2727,0.1,0.00037659,3763.3,0.00037751,3790.9,-0.00011959,55.873,-0.00012703,-0.0029608,0.38108
25809,8.5981,4.1818,0.1,0.00037386,3736,0.00037477,3763.4,-0.00011874,55.325,-0.00012611,-0.002704,0.38908
25810,8.5057,4.4545,0.1,0.00037704,3767.8,0.00037788,3793,-0.00012016,50.964,-0.00012694,-0.0037116,0.3805
25811,8.5981,4.3636,0.1,0.00037427,3740.1,0.00037511,3765.3,-0.00011925,50.886,-0.00012602,-0.0033488,0.38854
25812,8.5057,4.6364,0.1,0.00037754,3772.8,0.00037829,3795.4,-0.00012078,45.519,-0.00012684,-0.004583,0.37983
25813,8.5981,4.5455,0.1,0.00037473,3744.7,0.00037549,3767.5,-0.00011982,45.915,-0.00012593,-0.0041055,0.38791
25814,8.5057,4.8182,0.1,0.00037809,3778.3,0.00037875,3797.9,-0.00012146,39.582,-0.00012673,-0.0056355,0.37908
25815,8.5981,4.7273,0.1,0.00037524,3749.8,0.00037591,3769.9,-0.00012044,40.45,-0.00012583,-0.0049737,0.38721
25816,8.5057,5,0.1,0.00037868,3784.2,0.00037923,3800.6,-0.00012219,33.198,-0.0001266,-0.0068193,0.37826
25817,8.5981,4.9091,0.1,0.00037579,3755.3,0.00037636,3772.4,-0.00012112,34.533,-0.00012572,-0.0060688,0.38643
25818,8.5057,5.1818,0.1,0.0003793,3790.4,0.00037975,3803.6,-0.00012296,26.416,-0.00012648,-0.0087766,0.37735
25819,8.5981,5.0909,0.1,0.00037637,3761.1,0.00037685,3775.2,-0.00012184,28.21,-0.0001256,-0.0071856,0.38557
25820,8.5057,5.3636,0.1,0.00037996,3797,0.00038029,3806.6,-0.00012377,19.286,-0.00012634,-0.0098936,0.37636
25821,8.5981,5.2727,0.1,0.000377,3767.4,0.00037736,3778.1,-0.00012261,21.528,-0.00012547,-0.009773,0.38462
25822,8.5057,5.5455,0.1,0.00038066,3803.9,0.00038085,3809.8,-0.00012463,11.834,-0.0001262,-0.022636,0.37529
25823,8.5981,5.4545,0.1,0.00037765,3773.9,0.00037789,3781.1,-0.00012341,14.537,-0.00012534,-0.0094627,0.3836
25824,8.5057,5.7273,0.1,0.00038143,3811.7,0.00038149,3813.5,-0.00012555,3.7685,-0.00012606,-0.052898,0.37414
25825,8.5981,5.6364,0.1,0.00037833,3780.7,0.00037845,3784.3,-0.00012424,7.2312,-0.00012521,-0.035996,0.3825
25826,8.5981,5.8182,0.1,0.00037915,3788.9,0.00037913,3788.4,-0.00012504,0.20343,-0.00012524,-1.3056,0.38131
25827,8.5057,5.9091,0.1,0.00038178,3815.2,0.00038176,3814.5,-0.00012591,0.082813,-0.00012611,-1.4336,0.37291
25828,8.6906,0.27273,0.1,0.00037604,3757.8,0.00037608,3759.1,-0.00012388,2.5005,-0.00012422,-0.059864,0.38975
25829,8.783,0.18182,0.1,0.00037376,3735,0.00037372,3734,-0.00012322,0.10587,-0.00012353,-2.1597,0.39705
25830,8.6906,0.090909,0.1,0.00037633,3760.7,0.0003763,3759.7,-0.00012409,0.048015,-0.00012436,-1.9713,0.38853
25831,8.6906,0.45455,0.1,0.00037532,3750.6,0.00037549,3755.5,-0.00012302,9.9485,-0.00012435,-0.020132,0.39089
25832,8.783,0.36364,0.1,0.00037298,3727.2,0.00037307,3730,-0.0001226,5.7061,-0.00012337,-0.032354,0.39822
25833,8.6906,0.63636,0.1,0.00037468,3744.2,0.00037496,3752.5,-0.00012224,16.792,-0.00012447,-0.0088497,0.39195
25834,8.783,0.54545,0.1,0.00037234,3720.9,0.00037255,3727,-0.00012183,12.416,-0.00012349,-0.0083563,0.39932
25835,8.6906,0.81818,0.1,0.00037406,3738.1,0.00037445,3749.7,-0.00012149,23.335,-0.0001246,-0.0080029,0.39292
25836,8.783,0.72727,0.1,0.00037174,3714.8,0.00037206,3724.2,-0.0001211,18.831,-0.00012361,-0.0088297,0.40033
25837,8.6906,1,0.1,0.00037348,3732.3,0.00037398,3746.9,-0.00012078,29.557,-0.00012471,-0.0063468,0.39382
25838,8.783,0.90909,0.1,0.00037116,3709.1,0.00037158,3721.5,-0.0001204,24.96,-0.00012372,-0.0066338,0.40126
25839,8.6906,1.1818,0.1,0.00037294,3726.8,0.00037353,3744.4,-0.00012011,35.412,-0.00012482,-0.005355,0.39464
25840,8.783,1.0909,0.1,0.00037062,3703.6,0.00037113,3718.9,-0.00011973,30.758,-0.00012383,-0.0057174,0.40212
25841,8.6906,1.3636,0.1,0.00037243,3721.7,0.00037311,3742,-0.00011948,40.856,-0.00012492,-0.0044618,0.39538
25842,8.783,1.2727,0.1,0.00037011,3698.6,0.00037071,3716.5,-0.00011911,36.182,-0.00012393,-0.0047958,0.40289
25843,8.6906,1.5455,0.1,0.00037197,3717.1,0.00037272,3739.8,-0.00011891,45.847,-0.00012501,-0.0037176,0.39604
25844,8.783,1.4545,0.1,0.00036964,3693.9,0.00037033,3714.3,-0.00011853,41.191,-0.00012402,-0.0040618,0.40359
25845,8.6906,1.7273,0.1,0.00037155,3712.9,0.00037238,3737.8,-0.0001184,50.347,-0.0001251,-0.0030724,0.39662
25846,8.783,1.6364,0.1,0.00036922,3689.6,0.00036997,3712.3,-0.00011801,45.746,-0.0001241,-0.0034159,0.4042
25847,8.6906,1.9091,0.1,0.00037118,3709.2,0.00037207,3736.1,-0.00011794,54.32,-0.00012517,-0.0025216,0.39712
25848,8.783,1.8182,0.1,0.00036884,3685.8,0.00036966,3710.5,-0.00011755,49.813,-0.00012418,-0.002863,0.40474
25849,8.6906,2.0909,0.1,0.00037086,3706.1,0.00037181,3734.6,-0.00011755,57.737,-0.00012523,-0.0020567,0.39755
25850,8.783,2,0.1,0.00036851,3682.5,0.00036939,3708.9,-0.00011714,53.359,-0.00012424,-0.0023911,0.4052
25851,8.6906,2.2727,0.1,0.0003706,3703.4,0.00037159,3733.3,-0.00011722,60.57,-0.00012529,-0.0016763,0.3979
25852,8.783,2.1818,0.1,0.00036823,3679.7,0.00036915,3707.6,-0.0001168,56.358,-0.0001243,-0.001997,0.40559
25853,8.6906,2.4545,0.1,0.00037039,3701.4,0.00037142,3732.4,-0.00011697,62.797,-0.00012533,-0.0013807,0.39817
25854,8.783,2.3636,0.1,0.000368,3677.5,0.00036897,3706.5,-0.00011652,58.786,-0.00012434,-0.0016812,0.4059
25855,8.6906,2.6364,0.1,0.00037024,3699.9,0.0003713,3731.7,-0.00011679,64.4,-0.00012536,-0.0011692,0.39836
25856,8.783,2.5455,0.1,0.00036783,3675.8,0.00036882,3705.7,-0.00011631,60.624,-0.00012437,-0.0014448,0.40613
25857,8.6906,2.8182,0.1,0.00037015,3699,0.00037122,3731.2,-0.00011667,65.368,-0.00012537,-0.0010414,0.39847
25858,8.783,2.7273,0.1,0.00036772,3674.6,0.00036873,3705.2,-0.00011616,61.858,-0.0001244,-0.001286,0.40628
25859,8.6906,3,0.1,0.00037012,3698.7,0.0003712,3731.1,-0.00011664,65.691,-0.00012538,-0.00099855,0.39851
25860,8.783,2.9091,0.1,0.00036766,3674,0.00036868,3704.9,-0.00011609,62.477,-0.00012441,-0.001206,0.40636
25861,8.6906,3.1818,0.1,0.00037015,3699,0.00037122,3731.2,-0.00011667,65.368,-0.00012537,-0.0010414,0.39847
25862,8.783,3.0909,0.1,0.00036766,3674,0.00036868,3704.9,-0.00011609,62.477,-0.00012441,-0.0012058,0.40636
25863,8.6906,3.3636,0.1,0.00037024,3699.9,0.0003713,3731.7,-0.00011679,64.4,-0.00012536,-0.001169,0.39836
25864,8.783,3.2727,0.1,0.00036772,3674.6,0.00036873,3705.2,-0.00011616,61.858,-0.0001244,-0.0012859,0.40628
25865,8.6906,3.5455,0.1,0.00037039,3701.4,0.00037142,3732.4,-0.00011697,62.797,-0.00012533,-0.0013804,0.39817
25866,8.783,3.4545,0.1,0.00036783,3675.8,0.00036882,3705.7,-0.00011631,60.624,-0.00012437,-0.0014446,0.40613
25867,8.6906,3.7273,0.1,0.0003706,3703.4,0.00037159,3733.3,-0.00011722,60.57,-0.00012529,-0.001676,0.3979
25868,8.783,3.6364,0.1,0.000368,3677.5,0.00036897,3706.5,-0.00011652,58.786,-0.00012434,-0.0016809,0.4059
25869,8.6906,3.9091,0.1,0.00037086,3706.1,0.00037181,3734.6,-0.00011755,57.737,-0.00012523,-0.0020564,0.39755
25870,8.783,3.8182,0.1,0.00036823,3679.7,0.00036915,3707.6,-0.0001168,56.358,-0.0001243,-0.0019966,0.40559
25871,8.6906,4.0909,0.1,0.00037118,3709.2,0.00037207,3736.1,-0.00011794,54.32,-0.00012517,-0.002521,0.39712
25872,8.783,4,0.1,0.00036851,3682.5,0.00036939,3708.9,-0.00011714,53.359,-0.00012424,-0.0023908,0.4052
25873,8.6906,4.2727,0.1,0.00037155,3712.9,0.00037238,3737.8,-0.0001184,50.347,-0.0001251,-0.0030718,0.39662
25874,8.783,4.1818,0.1,0.00036884,3685.8,0.00036966,3710.5,-0.00011755,49.813,-0.00012418,-0.0028626,0.40474
25875,8.6906,4.4545,0.1,0.00037197,3717.1,0.00037272,3739.8,-0.00011891,45.847,-0.00012501,-0.003717,0.39604
25876,8.783,4.3636,0.1,0.00036922,3689.6,0.00036997,3712.3,-0.00011801,45.746,-0.0001241,-0.0034153,0.4042
25877,8.6906,4.6364,0.1,0.00037243,3721.7,0.00037311,3742,-0.00011948,40.856,-0.00012492,-0.004461,0.39538
25878,8.783,4.5455,0.1,0.00036964,3693.9,0.00037033,3714.3,-0.00011853,41.191,-0.00012402,-0.004061,0.40359
25879,8.6906,4.8182,0.1,0.00037294,3726.8,0.00037353,3744.4,-0.00012011,35.412,-0.00012482,-0.0053542,0.39464
25880,8.783,4.7273,0.1,0.00037011,3698.6,0.00037071,3716.5,-0.00011911,36.182,-0.00012393,-0.004795,0.40289
25881,8.6906,5,0.1,0.00037348,3732.3,0.00037398,3746.9,-0.00012078,29.557,-0.00012471,-0.0063456,0.39382
25882,8.783,4.9091,0.1,0.00037062,3703.6,0.00037113,3718.9,-0.00011973,30.758,-0.00012383,-0.0057167,0.40212
25883,8.6906,5.1818,0.1,0.00037406,3738.1,0.00037445,3749.7,-0.00012149,23.335,-0.0001246,-0.0080016,0.39292
25884,8.783,5.0909,0.1,0.00037116,3709.1,0.00037158,3721.5,-0.0001204,24.96,-0.00012372,-0.0066322,0.40126
25885,8.6906,5.3636,0.1,0.00037468,3744.2,0.00037496,3752.5,-0.00012224,16.792,-0.00012447,-0.008849,0.39195
25886,8.783,5.2727,0.1,0.00037174,3714.8,0.00037206,3724.2,-0.0001211,18.831,-0.00012361,-0.0088286,0.40033
25887,8.6906,5.5455,0.1,0.00037532,3750.6,0.00037549,3755.5,-0.00012302,9.9485,-0.00012435,-0.020131,0.39089
25888,8.783,5.4545,0.1,0.00037234,3720.9,0.00037255,3727,-0.00012183,12.416,-0.00012349,-0.0083562,0.39932
25889,8.6906,5.7273,0.1,0.00037604,3757.8,0.00037608,3759.1,-0.00012388,2.5005,-0.00012422,-0.059864,0.38975
25890,8.783,5.6364,0.1,0.00037298,3727.2,0.00037307,3730,-0.0001226,5.7061,-0.00012337,-0.032353,0.39822
25891,8.783,5.8182,0.1,0.00037376,3735,0.00037372,3734,-0.00012322,0.10587,-0.00012353,-2.1597,0.39705
25892,8.6906,5.9091,0.1,0.00037633,3760.7,0.0003763,3759.7,-0.00012409,0.048015,-0.00012436,-1.9714,0.38853
25893,8.8755,0.27273,0.1,0.00037068,3704.3,0.0003707,3704.9,-0.00012221,1.3278,-0.0001224,-0.082905,0.40561
25894,8.9679,0.18182,0.1,0.00036839,3681.3,0.00036834,3679.9,-0.00012141,0.06544,-0.00012182,-3.0164,0.41305
25895,8.8755,0.090909,0.1,0.00037091,3706.5,0.00037086,3705.3,-0.00012227,0.030029,-0.00012261,-2.4942,0.4044
25896,8.8755,0.45455,0.1,0.00037,3697.4,0.00037014,3701.5,-0.00012141,8.189,-0.00012251,-0.017825,0.40674
25897,8.9679,0.36364,0.1,0.00036765,3673.9,0.00036772,3676.1,-0.00012096,4.28,-0.00012154,-0.029092,0.41421
25898,8.8755,0.63636,0.1,0.0003694,3691.5,0.00036965,3698.7,-0.00012069,14.47,-0.00012262,-0.0079083,0.40778
25899,8.9679,0.54545,0.1,0.00036706,3668,0.00036723,3673.2,-0.00012026,10.44,-0.00012165,-0.0073517,0.41529
25900,8.8755,0.81818,0.1,0.00036884,3685.8,0.00036918,3696,-0.00012,20.47,-0.00012273,-0.0073126,0.40875
25901,8.9679,0.72727,0.1,0.0003665,3662.4,0.00036677,3670.6,-0.00011958,16.321,-0.00012175,-0.0079826,0.41629
25902,8.8755,1,0.1,0.0003683,3680.4,0.00036874,3693.4,-0.00011935,26.174,-0.00012283,-0.0059331,0.40964
25903,8.9679,0.90909,0.1,0.00036596,3657.1,0.00036633,3668,-0.00011893,21.939,-0.00012185,-0.0061469,0.41721
25904,8.8755,1.1818,0.1,0.00036779,3675.4,0.00036832,3691,-0.00011873,31.54,-0.00012293,-0.0051165,0.41045
25905,8.9679,1.0909,0.1,0.00036546,3652.1,0.00036592,3665.6,-0.00011832,27.251,-0.00012195,-0.0054138,0.41806
25906,8.8755,1.3636,0.1,0.00036732,3670.7,0.00036793,3688.8,-0.00011816,36.529,-0.00012302,-0.0043682,0.41118
25907,8.9679,1.2727,0.1,0.00036499,3647.4,0.00036553,3663.4,-0.00011775,32.22,-0.00012204,-0.0046499,0.41882
25908,8.8755,1.5455,0.1,0.00036689,3666.4,0.00036757,3686.8,-0.00011763,41.101,-0.00012311,-0.0037399,0.41183
25909,8.9679,1.4545,0.1,0.00036456,3643,0.00036517,3661.3,-0.00011722,36.808,-0.00012212,-0.0040372,0.41951
25910,8.8755,1.7273,0.1,0.00036651,3662.5,0.00036725,3684.9,-0.00011716,45.223,-0.00012318,-0.0031906,0.41241
25911,8.9679,1.6364,0.1,0.00036416,3639.1,0.00036484,3659.4,-0.00011674,40.979,-0.0001222,-0.0034923,0.42012
25912,8.8755,1.9091,0.1,0.00036617,3659.1,0.00036697,3683.3,-0.00011674,48.862,-0.00012325,-0.0027192,0.41291
25913,8.9679,1.8182,0.1,0.00036381,3635.6,0.00036455,3657.7,-0.00011632,44.702,-0.00012227,-0.0030226,0.42066
25914,8.8755,2.0909,0.1,0.00036587,3656.2,0.00036673,3681.9,-0.00011638,51.99,-0.0001233,-0.0023198,0.41333
25915,8.9679,2,0.1,0.0003635,3632.5,0.0003643,3656.3,-0.00011594,47.948,-0.00012232,-0.0026197,0.42111
25916,8.8755,2.2727,0.1,0.00036563,3653.8,0.00036653,3680.8,-0.00011609,54.584,-0.00012335,-0.0019915,0.41367
25917,8.9679,2.1818,0.1,0.00036325,3630,0.00036408,3655,-0.00011563,50.693,-0.00012237,-0.0022815,0.4215
25918,8.8755,2.4545,0.1,0.00036544,3651.9,0.00036637,3679.8,-0.00011585,56.622,-0.00012339,-0.0017356,0.41394
25919,8.9679,2.3636,0.1,0.00036304,3627.9,0.00036391,3654,-0.00011537,52.915,-0.00012241,-0.0020096,0.4218
25920,8.8755,2.6364,0.1,0.0003653,3650.5,0.00036625,3679.2,-0.00011568,58.09,-0.00012342,-0.0015523,0.41413
25921,8.9679,2.5455,0.1,0.00036288,3626.3,0.00036378,3653.3,-0.00011518,54.596,-0.00012244,-0.0018057,0.42203
25922,8.8755,2.8182,0.1,0.00036522,3649.7,0.00036619,3678.8,-0.00011558,58.975,-0.00012343,-0.0014416,0.41425
25923,8.9679,2.7273,0.1,0.00036277,3625.2,0.00036369,3652.8,-0.00011505,55.725,-0.00012246,-0.0016683,0.42218
25924,8.8755,3,0.1,0.00036519,3649.4,0.00036616,3678.7,-0.00011555,59.271,-0.00012344,-0.0014044,0.41429
25925,8.9679,2.9091,0.1,0.00036272,3624.7,0.00036364,3652.5,-0.00011498,56.291,-0.00012248,-0.001599,0.42226
25926,8.8755,3.1818,0.1,0.00036522,3649.7,0.00036619,3678.8,-0.00011558,58.975,-0.00012343,-0.0014414,0.41425
25927,8.9679,3.0909,0.1,0.00036272,3624.7,0.00036364,3652.5,-0.00011498,56.291,-0.00012248,-0.001599,0.42226
25928,8.8755,3.3636,0.1,0.0003653,3650.5,0.00036625,3679.2,-0.00011568,58.09,-0.00012342,-0.0015522,0.41413
25929,8.9679,3.2727,0.1,0.00036277,3625.2,0.00036369,3652.8,-0.00011505,55.725,-0.00012246,-0.0016682,0.42218
25930,8.8755,3.5455,0.1,0.00036544,3651.9,0.00036637,3679.8,-0.00011585,56.622,-0.00012339,-0.0017354,0.41394
25931,8.9679,3.4545,0.1,0.00036288,3626.3,0.00036378,3653.3,-0.00011518,54.596,-0.00012244,-0.0018056,0.42203
25932,8.8755,3.7273,0.1,0.00036563,3653.8,0.00036653,3680.8,-0.00011609,54.584,-0.00012335,-0.0019911,0.41367
25933,8.9679,3.6364,0.1,0.00036304,3627.9,0.00036391,3654,-0.00011537,52.915,-0.00012241,-0.0020093,0.4218
25934,8.8755,3.9091,0.1,0.00036587,3656.2,0.00036673,3681.9,-0.00011638,51.99,-0.0001233,-0.0023195,0.41333
25935,8.9679,3.8182,0.1,0.00036325,3630,0.00036408,3655,-0.00011563,50.693,-0.00012237,-0.0022811,0.4215
25936,8.8755,4.0909,0.1,0.00036617,3659.1,0.00036697,3683.3,-0.00011674,48.862,-0.00012325,-0.0027191,0.41291
25937,8.9679,4,0.1,0.0003635,3632.5,0.0003643,3656.3,-0.00011594,47.948,-0.00012232,-0.0026193,0.42111
25938,8.8755,4.2727,0.1,0.00036651,3662.5,0.00036725,3684.9,-0.00011716,45.223,-0.00012318,-0.0031902,0.41241
25939,8.9679,4.1818,0.1,0.00036381,3635.6,0.00036455,3657.7,-0.00011632,44.702,-0.00012227,-0.0030223,0.42066
25940,8.8755,4.4545,0.1,0.00036689,3666.4,0.00036757,3686.8,-0.00011763,41.101,-0.00012311,-0.0037391,0.41183
25941,8.9679,4.3636,0.1,0.00036416,3639.1,0.00036484,3659.4,-0.00011674,40.979,-0.0001222,-0.0034917,0.42012
25942,8.8755,4.6364,0.1,0.00036732,3670.7,0.00036793,3688.8,-0.00011816,36.529,-0.00012302,-0.0043674,0.41118
25943,8.9679,4.5455,0.1,0.00036456,3643,0.00036517,3661.3,-0.00011722,36.808,-0.00012212,-0.0040365,0.41951
25944,8.8755,4.8182,0.1,0.00036779,3675.4,0.00036832,3691,-0.00011873,31.54,-0.00012293,-0.0051159,0.41045
25945,8.9679,4.7273,0.1,0.00036499,3647.4,0.00036553,3663.4,-0.00011775,32.22,-0.00012204,-0.004649,0.41882
25946,8.8755,5,0.1,0.0003683,3680.4,0.00036874,3693.4,-0.00011935,26.174,-0.00012283,-0.0059319,0.40964
25947,8.9679,4.9091,0.1,0.00036546,3652.1,0.00036592,3665.6,-0.00011832,27.251,-0.00012195,-0.0054129,0.41806
25948,8.8755,5.1818,0.1,0.00036884,3685.8,0.00036918,3696,-0.00012,20.47,-0.00012273,-0.0073113,0.40875
25949,8.9679,5.0909,0.1,0.00036596,3657.1,0.00036633,3668,-0.00011893,21.939,-0.00012185,-0.0061454,0.41721
25950,8.8755,5.3636,0.1,0.0003694,3691.5,0.00036965,3698.7,-0.00012069,14.47,-0.00012262,-0.0079078,0.40778
25951,8.9679,5.2727,0.1,0.0003665,3662.4,0.00036677,3670.6,-0.00011958,16.321,-0.00012175,-0.0079816,0.41629
25952,8.8755,5.5455,0.1,0.00037,3697.4,0.00037014,3701.5,-0.00012141,8.189,-0.00012251,-0.017824,0.40674
25953,8.9679,5.4545,0.1,0.00036706,3668,0.00036723,3673.2,-0.00012026,10.44,-0.00012165,-0.0073516,0.41529
25954,8.8755,5.7273,0.1,0.00037068,3704.3,0.0003707,3704.9,-0.00012221,1.3278,-0.0001224,-0.082905,0.40561
25955,8.9679,5.6364,0.1,0.00036765,3673.9,0.00036772,3676.1,-0.00012096,4.28,-0.00012154,-0.029091,0.41421
25956,8.9679,5.8182,0.1,0.00036839,3681.3,0.00036834,3679.9,-0.00012141,0.065441,-0.00012182,-3.0165,0.41305
25957,8.8755,5.9091,0.1,0.00037091,3706.5,0.00037086,3705.3,-0.00012227,0.03003,-0.00012261,-2.4942,0.4044
25958,9.0604,0.27273,0.1,0.00036534,3650.9,0.00036535,3651,-0.00012052,0.34897,-0.0001206,-0.22585,0.42173
25959,9.1528,0.18182,0.1,0.00036304,3627.9,0.00036298,3626,-0.00011961,0.04449,-0.00012013,-3.8413,0.42929
25960,9.0604,0.090909,0.1,0.00036551,3652.6,0.00036546,3651.1,-0.00012047,0.01964,-0.00012087,-2.9947,0.42053
25961,9.0604,0.45455,0.1,0.0003647,3644.5,0.00036481,3647.8,-0.0001198,6.5464,-0.00012068,-0.015695,0.42284
25962,9.1528,0.36364,0.1,0.00036234,3620.9,0.00036239,3622.4,-0.00011932,2.9463,-0.00011972,-0.026284,0.43044
25963,9.0604,0.63636,0.1,0.00036415,3639,0.00036436,3645.1,-0.00011914,12.306,-0.00012078,-0.0070631,0.42387
25964,9.1528,0.54545,0.1,0.00036179,3615.4,0.00036194,3619.7,-0.00011867,8.5962,-0.00011982,-0.0064395,0.43151
25965,9.0604,0.81818,0.1,0.00036362,3633.7,0.00036392,3642.6,-0.00011851,17.804,-0.00012088,-0.0067005,0.42483
25966,9.1528,0.72727,0.1,0.00036127,3610.2,0.00036151,3617.2,-0.00011805,13.984,-0.00011991,-0.0072248,0.4325
25967,9.0604,1,0.1,0.00036312,3628.7,0.00036351,3640.2,-0.0001179,23.029,-0.00012097,-0.0055736,0.42571
25968,9.1528,0.90909,0.1,0.00036078,3605.3,0.0003611,3614.8,-0.00011746,19.128,-0.00012,-0.0057199,0.43341
25969,9.0604,1.1818,0.1,0.00036265,3624,0.00036312,3637.9,-0.00011734,27.944,-0.00012106,-0.0049163,0.42651
25970,9.1528,1.0909,0.1,0.00036031,3600.6,0.00036071,3612.5,-0.00011689,23.992,-0.00012009,-0.0051521,0.43425
25971,9.0604,1.3636,0.1,0.00036222,3619.7,0.00036276,3635.8,-0.00011681,32.511,-0.00012114,-0.0042986,0.42723
25972,9.1528,1.2727,0.1,0.00035987,3596.2,0.00036035,3610.4,-0.00011637,28.54,-0.00012017,-0.0045304,0.43501
25973,9.0604,1.5455,0.1,0.00036182,3615.7,0.00036243,3633.9,-0.00011633,36.697,-0.00012121,-0.0037747,0.42788
25974,9.1528,1.4545,0.1,0.00035947,3592.2,0.00036002,3608.5,-0.00011589,32.737,-0.00012024,-0.0040267,0.43569
25975,9.0604,1.7273,0.1,0.00036146,3612.1,0.00036214,3632.2,-0.0001159,40.469,-0.00012128,-0.0033125,0.42845
25976,9.1528,1.6364,0.1,0.00035911,3588.6,0.00035972,3606.7,-0.00011545,36.553,-0.00012031,-0.0035729,0.43629
25977,9.0604,1.9091,0.1,0.00036115,3609,0.00036187,3630.7,-0.00011551,43.799,-0.00012134,-0.002913,0.42894
25978,9.1528,1.8182,0.1,0.00035878,3585.3,0.00035945,3605.2,-0.00011505,39.959,-0.00012037,-0.0031782,0.43682
25979,9.0604,2.0909,0.1,0.00036088,3606.3,0.00036165,3629.4,-0.00011518,46.661,-0.00012139,-0.0025725,0.42936
25980,9.1528,2,0.1,0.0003585,3582.5,0.00035921,3603.8,-0.00011471,42.928,-0.00012043,-0.0028377,0.43727
25981,9.0604,2.2727,0.1,0.00036065,3604,0.00036146,3628.3,-0.00011491,49.034,-0.00012144,-0.0022915,0.4297
25982,9.1528,2.1818,0.1,0.00035826,3580.1,0.00035901,3602.6,-0.00011442,45.438,-0.00012047,-0.0025496,0.43765
25983,9.0604,2.4545,0.1,0.00036048,3602.3,0.00036132,3627.5,-0.0001147,50.899,-0.00012147,-0.002072,0.42997
25984,9.1528,2.3636,0.1,0.00035807,3578.2,0.00035885,3601.7,-0.00011419,47.469,-0.00012051,-0.0023175,0.43795
25985,9.0604,2.6364,0.1,0.00036035,3601,0.00036121,3626.8,-0.00011454,52.241,-0.00012149,-0.0019144,0.43016
25986,9.1528,2.5455,0.1,0.00035792,3576.7,0.00035873,3601,-0.00011401,49.007,-0.00012053,-0.0021433,0.43818
25987,9.0604,2.8182,0.1,0.00036027,3600.2,0.00036115,3626.5,-0.00011445,53.051,-0.00012151,-0.0018186,0.43027
25988,9.1528,2.7273,0.1,0.00035782,3575.8,0.00035865,3600.5,-0.00011389,50.039,-0.00012055,-0.0020251,0.43833
25989,9.0604,3,0.1,0.00036025,3600,0.00036113,3626.4,-0.00011442,53.321,-0.00012151,-0.0017865,0.43031
25990,9.1528,2.9091,0.1,0.00035777,3575.3,0.00035861,3600.3,-0.00011383,50.556,-0.00012056,-0.0019656,0.4384
25991,9.0604,3.1818,0.1,0.00036027,3600.2,0.00036115,3626.5,-0.00011445,53.051,-0.00012151,-0.0018187,0.43027
25992,9.1528,3.0909,0.1,0.00035777,3575.3,0.00035861,3600.3,-0.00011383,50.556,-0.00012056,-0.0019656,0.4384
25993,9.0604,3.3636,0.1,0.00036035,3601,0.00036121,3626.8,-0.00011454,52.241,-0.00012149,-0.0019143,0.43016
25994,9.1528,3.2727,0.1,0.00035782,3575.8,0.00035865,3600.5,-0.00011389,50.039,-0.00012055,-0.0020251,0.43833
25995,9.0604,3.5455,0.1,0.00036048,3602.3,0.00036132,3627.5,-0.0001147,50.899,-0.00012147,-0.0020718,0.42997
25996,9.1528,3.4545,0.1,0.00035792,3576.7,0.00035873,3601,-0.00011401,49.007,-0.00012053,-0.002143,0.43818
25997,9.0604,3.7273,0.1,0.00036065,3604,0.00036146,3628.3,-0.00011491,49.034,-0.00012144,-0.0022911,0.4297
25998,9.1528,3.6364,0.1,0.00035807,3578.2,0.00035885,3601.7,-0.00011419,47.469,-0.00012051,-0.0023172,0.43795
25999,9.0604,3.9091,0.1,0.00036088,3606.3,0.00036165,3629.4,-0.00011518,46.661,-0.00012139,-0.0025721,0.42936
26000,9.1528,3.8182,0.1,0.00035826,3580.1,0.00035901,3602.6,-0.00011442,45.438,-0.00012047,-0.0025493,0.43765
26001,9.0604,4.0909,0.1,0.00036115,3609,0.00036187,3630.7,-0.00011551,43.799,-0.00012134,-0.0029125,0.42894
26002,9.1528,4,0.1,0.0003585,3582.5,0.00035921,3603.8,-0.00011471,42.928,-0.00012043,-0.002837,0.43727
26003,9.0604,4.2727,0.1,0.00036146,3612.2,0.00036214,3632.2,-0.0001159,40.469,-0.00012128,-0.003312,0.42845
26004,9.1528,4.1818,0.1,0.00035878,3585.3,0.00035945,3605.2,-0.00011505,39.959,-0.00012037,-0.0031777,0.43682
26005,9.0604,4.4545,0.1,0.00036182,3615.7,0.00036243,3633.9,-0.00011633,36.697,-0.00012121,-0.0037743,0.42788
26006,9.1528,4.3636,0.1,0.00035911,3588.6,0.00035972,3606.7,-0.00011545,36.553,-0.00012031,-0.0035724,0.43629
26007,9.0604,4.6364,0.1,0.00036222,3619.7,0.00036276,3635.8,-0.00011681,32.511,-0.00012114,-0.0042978,0.42724
26008,9.1528,4.5455,0.1,0.00035947,3592.2,0.00036002,3608.5,-0.00011589,32.737,-0.00012024,-0.004026,0.43569
26009,9.0604,4.8182,0.1,0.00036265,3624,0.00036312,3637.9,-0.00011734,27.944,-0.00012106,-0.0049152,0.42651
26010,9.1528,4.7273,0.1,0.00035987,3596.2,0.00036035,3610.4,-0.00011637,28.54,-0.00012017,-0.0045295,0.43501
26011,9.0604,5,0.1,0.00036312,3628.7,0.00036351,3640.2,-0.0001179,23.029,-0.00012097,-0.0055725,0.42571
26012,9.1528,4.9091,0.1,0.00036031,3600.6,0.00036071,3612.5,-0.00011689,23.992,-0.00012009,-0.0051513,0.43425
26013,9.0604,5.1818,0.1,0.00036362,3633.7,0.00036392,3642.6,-0.00011851,17.804,-0.00012088,-0.0066993,0.42483
26014,9.1528,5.0909,0.1,0.00036078,3605.3,0.0003611,3614.8,-0.00011746,19.128,-0.00012,-0.0057187,0.43341
26015,9.0604,5.3636,0.1,0.00036415,3639,0.00036436,3645.1,-0.00011914,12.306,-0.00012078,-0.0070624,0.42387
26016,9.1528,5.2727,0.1,0.00036127,3610.2,0.00036151,3617.2,-0.00011805,13.984,-0.00011991,-0.0072237,0.4325
26017,9.0604,5.5455,0.1,0.0003647,3644.5,0.00036481,3647.8,-0.0001198,6.5463,-0.00012068,-0.015694,0.42284
26018,9.1528,5.4545,0.1,0.00036179,3615.4,0.00036194,3619.7,-0.00011867,8.5962,-0.00011982,-0.0064392,0.43151
26019,9.0604,5.7273,0.1,0.00036534,3650.9,0.00036535,3651,-0.00012052,0.34896,-0.0001206,-0.22586,0.42173
26020,9.1528,5.6364,0.1,0.00036234,3620.9,0.00036239,3622.4,-0.00011932,2.9463,-0.00011972,-0.026283,0.43044
26021,9.1528,5.8182,0.1,0.00036304,3627.9,0.00036298,3626,-0.00011961,0.044491,-0.00012013,-3.8413,0.42929
26022,9.0604,5.9091,0.1,0.00036551,3652.6,0.00036546,3651.1,-0.00012047,0.019641,-0.00012087,-2.9948,0.42053
26023,9.2453,0.27273,0.1,0.00036003,3597.8,0.00036001,3597.3,-0.00011876,0.055338,-0.00011889,-0.98489,0.43809
26024,9.3377,0.18182,0.1,0.00035772,3574.8,0.00035764,3572.5,-0.00011782,0.032068,-0.00011844,-4.6264,0.44579
26025,9.2453,0.090909,0.1,0.00036014,3599,0.00036008,3597.2,-0.00011867,0.013218,-0.00011914,-3.471,0.43691
26026,9.2453,0.45455,0.1,0.00035942,3591.8,0.00035951,3594.3,-0.00011819,5.012,-0.00011886,-0.013717,0.43919
26027,9.3377,0.36364,0.1,0.00035705,3568.1,0.00035708,3568.9,-0.00011768,1.6987,-0.00011791,-0.024295,0.44692
26028,9.2453,0.63636,0.1,0.00035891,3586.6,0.00035908,3591.8,-0.00011758,10.29,-0.00011895,-0.0063059,0.44021
26029,9.3377,0.54545,0.1,0.00035654,3563,0.00035666,3566.4,-0.00011708,6.8757,-0.000118,-0.0056232,0.44798
26030,9.2453,0.81818,0.1,0.00035842,3581.7,0.00035868,3589.4,-0.000117,15.323,-0.00011904,-0.006159,0.44116
26031,9.3377,0.72727,0.1,0.00035606,3558.1,0.00035626,3564,-0.00011651,11.806,-0.00011808,-0.0065613,0.44896
26032,9.2453,1,0.1,0.00035796,3577.1,0.0003583,3587.1,-0.00011644,20.105,-0.00011912,-0.005261,0.44203
26033,9.3377,0.90909,0.1,0.0003556,3553.6,0.00035588,3561.8,-0.00011597,16.512,-0.00011817,-0.0053577,0.44986
26034,9.2453,1.1818,0.1,0.00035753,3572.8,0.00035794,3585,-0.00011593,24.601,-0.0001192,-0.0047455,0.44282
26035,9.3377,1.0909,0.1,0.00035517,3549.2,0.00035552,3559.7,-0.00011545,20.96,-0.00011824,-0.0049362,0.45068
26036,9.2453,1.3636,0.1,0.00035712,3568.8,0.0003576,3583.1,-0.00011544,28.778,-0.00011927,-0.004245,0.44354
26037,9.3377,1.2727,0.1,0.00035476,3545.2,0.00035518,3557.7,-0.00011497,25.118,-0.00011831,-0.0044405,0.45143
26038,9.2453,1.5455,0.1,0.00035675,3565.1,0.0003573,3581.3,-0.000115,32.606,-0.00011934,-0.0038149,0.44418
26039,9.3377,1.4545,0.1,0.00035439,3541.5,0.00035488,3555.9,-0.00011453,28.955,-0.00011838,-0.0040341,0.45211
26040,9.2453,1.7273,0.1,0.00035642,3561.8,0.00035702,3579.7,-0.0001146,36.055,-0.0001194,-0.0034304,0.44474
26041,9.3377,1.6364,0.1,0.00035406,3538.1,0.0003546,3554.2,-0.00011412,32.442,-0.00011844,-0.0036611,0.45271
26042,9.2453,1.9091,0.1,0.00035613,3558.9,0.00035678,3578.2,-0.00011425,39.099,-0.00011946,-0.0030958,0.44523
26043,9.3377,1.8182,0.1,0.00035376,3535.1,0.00035435,3552.8,-0.00011376,35.554,-0.0001185,-0.0033334,0.45323
26044,9.2453,2.0909,0.1,0.00035588,3556.4,0.00035657,3577,-0.00011395,41.716,-0.0001195,-0.0028084,0.44564
26045,9.3377,2,0.1,0.00035349,3532.5,0.00035413,3551.5,-0.00011345,38.266,-0.00011854,-0.0030483,0.45368
26046,9.2453,2.2727,0.1,0.00035567,3554.3,0.0003564,3576,-0.0001137,43.884,-0.00011954,-0.0025696,0.44598
26047,9.3377,2.1818,0.1,0.00035327,3530.3,0.00035395,3550.4,-0.00011319,40.559,-0.00011858,-0.0028055,0.45405
26048,9.2453,2.4545,0.1,0.00035551,3552.7,0.00035626,3575.2,-0.0001135,45.588,-0.00011957,-0.002383,0.44624
26049,9.3377,2.3636,0.1,0.00035309,3528.5,0.0003538,3549.5,-0.00011297,42.415,-0.00011862,-0.0026092,0.45435
26050,9.2453,2.6364,0.1,0.00035539,3551.5,0.00035617,3574.7,-0.00011336,46.815,-0.00011959,-0.0022484,0.44643
26051,9.3377,2.5455,0.1,0.00035296,3527.2,0.00035368,3548.9,-0.00011281,43.819,-0.00011864,-0.0024613,0.45457
26052,9.2453,2.8182,0.1,0.00035532,3550.8,0.00035611,3574.3,-0.00011327,47.555,-0.0001196,-0.0021666,0.44654
26053,9.3377,2.7273,0.1,0.00035287,3526.3,0.00035361,3548.4,-0.0001127,44.761,-0.00011866,-0.002361,0.45472
26054,9.2453,3,0.1,0.0003553,3550.5,0.00035609,3574.2,-0.00011325,47.802,-0.00011961,-0.0021392,0.44658
26055,9.3377,2.9091,0.1,0.00035282,3525.8,0.00035357,3548.2,-0.00011264,45.234,-0.00011867,-0.0023103,0.4548
26056,9.2453,3.1818,0.1,0.00035532,3550.8,0.00035611,3574.3,-0.00011327,47.555,-0.0001196,-0.0021666,0.44654
26057,9.3377,3.0909,0.1,0.00035282,3525.8,0.00035357,3548.2,-0.00011264,45.234,-0.00011867,-0.0023101,0.4548
26058,9.2453,3.3636,0.1,0.00035539,3551.5,0.00035617,3574.7,-0.00011336,46.815,-0.00011959,-0.0022483,0.44643
26059,9.3377,3.2727,0.1,0.00035287,3526.3,0.00035361,3548.4,-0.0001127,44.761,-0.00011866,-0.0023609,0.45472
26060,9.2453,3.5455,0.1,0.00035551,3552.7,0.00035626,3575.2,-0.0001135,45.588,-0.00011957,-0.0023826,0.44624
26061,9.3377,3.4545,0.1,0.00035296,3527.2,0.00035368,3548.9,-0.00011281,43.819,-0.00011864,-0.0024611,0.45457
26062,9.2453,3.7273,0.1,0.00035567,3554.3,0.0003564,3576,-0.0001137,43.884,-0.00011954,-0.0025693,0.44598
26063,9.3377,3.6364,0.1,0.00035309,3528.5,0.0003538,3549.5,-0.00011297,42.415,-0.00011862,-0.0026089,0.45435
26064,9.2453,3.9091,0.1,0.00035588,3556.4,0.00035657,3577,-0.00011395,41.716,-0.0001195,-0.0028078,0.44564
26065,9.3377,3.8182,0.1,0.00035327,3530.3,0.00035395,3550.4,-0.00011319,40.559,-0.00011858,-0.0028053,0.45405
26066,9.2453,4.0909,0.1,0.00035613,3558.9,0.00035678,3578.2,-0.00011425,39.099,-0.00011946,-0.0030951,0.44523
26067,9.3377,4,0.1,0.00035349,3532.5,0.00035413,3551.5,-0.00011345,38.266,-0.00011854,-0.0030477,0.45368
26068,9.2453,4.2727,0.1,0.00035642,3561.8,0.00035702,3579.7,-0.0001146,36.055,-0.0001194,-0.0034301,0.44474
26069,9.3377,4.1818,0.1,0.00035376,3535.1,0.00035435,3552.8,-0.00011376,35.554,-0.0001185,-0.0033329,0.45323
26070,9.2453,4.4545,0.1,0.00035675,3565.1,0.0003573,3581.3,-0.000115,32.606,-0.00011934,-0.0038142,0.44418
26071,9.3377,4.3636,0.1,0.00035406,3538.1,0.0003546,3554.2,-0.00011412,32.442,-0.00011844,-0.0036607,0.45271
26072,9.2453,4.6364,0.1,0.00035712,3568.8,0.0003576,3583.1,-0.00011544,28.778,-0.00011927,-0.0042442,0.44354
26073,9.3377,4.5455,0.1,0.00035439,3541.5,0.00035488,3555.9,-0.00011453,28.955,-0.00011838,-0.0040334,0.45211
26074,9.2453,4.8182,0.1,0.00035753,3572.8,0.00035794,3585,-0.00011593,24.601,-0.0001192,-0.0047448,0.44282
26075,9.3377,4.7273,0.1,0.00035476,3545.2,0.00035518,3557.7,-0.00011497,25.118,-0.00011831,-0.0044399,0.45143
26076,9.2453,5,0.1,0.00035796,3577.1,0.0003583,3587.1,-0.00011644,20.104,-0.00011912,-0.0052601,0.44203
26077,9.3377,4.9091,0.1,0.00035517,3549.2,0.00035552,3559.7,-0.00011545,20.96,-0.00011824,-0.0049355,0.45068
26078,9.2453,5.1818,0.1,0.00035842,3581.7,0.00035868,3589.4,-0.000117,15.323,-0.00011904,-0.0061579,0.44116
26079,9.3377,5.0909,0.1,0.0003556,3553.6,0.00035588,3561.8,-0.00011597,16.512,-0.00011817,-0.0053564,0.44986
26080,9.2453,5.3636,0.1,0.00035891,3586.6,0.00035908,3591.8,-0.00011758,10.29,-0.00011895,-0.0063051,0.44021
26081,9.3377,5.2727,0.1,0.00035606,3558.1,0.00035626,3564,-0.00011651,11.806,-0.00011808,-0.0065602,0.44896
26082,9.2453,5.5455,0.1,0.00035942,3591.8,0.00035951,3594.3,-0.00011819,5.012,-0.00011886,-0.013717,0.43919
26083,9.3377,5.4545,0.1,0.00035654,3563,0.00035666,3566.4,-0.00011708,6.8756,-0.000118,-0.0056228,0.44798
26084,9.2453,5.7273,0.1,0.00036003,3597.8,0.00036001,3597.3,-0.00011876,0.055338,-0.00011889,-0.98491,0.43809
26085,9.3377,5.6364,0.1,0.00035705,3568.1,0.00035708,3568.9,-0.00011768,1.6986,-0.00011791,-0.024294,0.44692
26086,9.3377,5.8182,0.1,0.00035772,3574.8,0.00035764,3572.5,-0.00011782,0.032069,-0.00011844,-4.6265,0.44579
26087,9.2453,5.9091,0.1,0.00036014,3599,0.00036008,3597.2,-0.00011867,0.013219,-0.00011914,-3.471,0.43691
26088,9.4302,0.27273,0.1,0.00035474,3544.9,0.0003547,3544,-0.00011697,0.018569,-0.00011723,-1.9365,0.4547
26089,9.5226,0.18182,0.1,0.00035243,3521.8,0.00035234,3519.2,-0.00011603,0.024036,-0.00011675,-5.3707,0.46253
26090,9.4302,0.090909,0.1,0.0003548,3545.6,0.00035474,3543.6,-0.00011689,0.0090667,-0.00011741,-3.9229,0.45354
26091,9.4302,0.45455,0.1,0.00035417,3539.2,0.00035423,3541,-0.00011658,3.5778,-0.00011705,-0.011892,0.45579
26092,9.5226,0.36364,0.1,0.00035179,3515.5,0.0003518,3515.7,-0.00011604,0.53433,-0.00011612,-0.026592,0.46365
26093,9.4302,0.63636,0.1,0.00035369,3534.4,0.00035383,3538.6,-0.00011601,8.4086,-0.00011713,-0.0056571,0.4568
26094,9.5226,0.54545,0.1,0.00035131,3510.7,0.0003514,3513.3,-0.00011549,5.2687,-0.00011619,-0.0049205,0.46469
26095,9.4302,0.81818,0.1,0.00035324,3529.9,0.00035346,3536.4,-0.00011548,13.011,-0.00011721,-0.0057063,0.45773
26096,9.5226,0.72727,0.1,0.00035086,3506.2,0.00035103,3511.1,-0.00011497,9.7752,-0.00011627,-0.0060075,0.46566
26097,9.4302,1,0.1,0.00035281,3525.6,0.0003531,3534.3,-0.00011497,17.382,-0.00011729,-0.0050118,0.45859
26098,9.5226,0.90909,0.1,0.00035044,3502,0.00035068,3509,-0.00011447,14.074,-0.00011634,-0.0050723,0.46655
26099,9.4302,1.1818,0.1,0.0003524,3521.6,0.00035277,3532.3,-0.0001145,21.491,-0.00011736,-0.0046202,0.45938
26100,9.5226,1.0909,0.1,0.00035004,3498,0.00035034,3507,-0.000114,18.137,-0.00011641,-0.0047761,0.46736
26101,9.4302,1.3636,0.1,0.00035203,3517.9,0.00035246,3530.5,-0.00011405,25.308,-0.00011742,-0.0042225,0.46008
26102,9.5226,1.2727,0.1,0.00034966,3494.2,0.00035003,3505.1,-0.00011355,21.933,-0.00011647,-0.0043896,0.46811
26103,9.4302,1.5455,0.1,0.00035169,3514.5,0.00035217,3528.8,-0.00011365,28.804,-0.00011748,-0.003875,0.46072
26104,9.5226,1.4545,0.1,0.00034932,3490.8,0.00034975,3503.4,-0.00011315,25.436,-0.00011653,-0.0040673,0.46877
26105,9.4302,1.7273,0.1,0.00035139,3511.4,0.00035192,3527.3,-0.00011328,31.954,-0.00011754,-0.0035594,0.46127
26106,9.5226,1.6364,0.1,0.00034901,3487.7,0.00034949,3501.9,-0.00011278,28.619,-0.00011659,-0.003765,0.46936
26107,9.4302,1.9091,0.1,0.00035112,3508.7,0.00035169,3526,-0.00011296,34.733,-0.00011758,-0.0032816,0.46176
26108,9.5226,1.8182,0.1,0.00034873,3484.9,0.00034925,3500.5,-0.00011245,31.459,-0.00011664,-0.0034963,0.46988
26109,9.4302,2.0909,0.1,0.00035088,3506.4,0.0003515,3524.8,-0.00011268,37.122,-0.00011763,-0.0030413,0.46217
26110,9.5226,2,0.1,0.00034849,3482.5,0.00034905,3499.3,-0.00011216,33.934,-0.00011668,-0.0032599,0.47032
26111,9.4302,2.2727,0.1,0.00035069,3504.5,0.00035134,3523.9,-0.00011246,39.102,-0.00011766,-0.002841,0.4625
26112,9.5226,2.1818,0.1,0.00034828,3480.4,0.00034888,3498.3,-0.00011192,36.026,-0.00011671,-0.0030575,0.47069
26113,9.4302,2.4545,0.1,0.00035054,3503,0.00035122,3523.1,-0.00011228,40.657,-0.00011769,-0.0026835,0.46276
26114,9.5226,2.3636,0.1,0.00034812,3478.8,0.00034875,3497.5,-0.00011172,37.719,-0.00011674,-0.0028928,0.47099
26115,9.4302,2.6364,0.1,0.00035043,3501.9,0.00035113,3522.6,-0.00011215,41.777,-0.00011771,-0.0025699,0.46294
26116,9.5226,2.5455,0.1,0.00034799,3477.5,0.00034864,3496.9,-0.00011157,39,-0.00011676,-0.0027683,0.47121
26117,9.4302,2.8182,0.1,0.00035037,3501.3,0.00035107,3522.3,-0.00011207,42.452,-0.00011772,-0.0025006,0.46305
26118,9.5226,2.7273,0.1,0.00034791,3476.7,0.00034857,3496.5,-0.00011147,39.859,-0.00011678,-0.002684,0.47136
26119,9.4302,3,0.1,0.00035035,3501,0.00035105,3522.2,-0.00011204,42.678,-0.00011772,-0.0024772,0.46309
26120,9.5226,2.9091,0.1,0.00034787,3476.3,0.00034854,3496.3,-0.00011142,40.29,-0.00011679,-0.0026409,0.47143
26121,9.4302,3.1818,0.1,0.00035037,3501.3,0.00035107,3522.3,-0.00011207,42.452,-0.00011772,-0.0025004,0.46305
26122,9.5226,3.0909,0.1,0.00034787,3476.3,0.00034854,3496.3,-0.00011142,40.29,-0.00011679,-0.0026409,0.47143
26123,9.4302,3.3636,0.1,0.00035043,3501.9,0.00035113,3522.6,-0.00011215,41.777,-0.00011771,-0.0025697,0.46294
26124,9.5226,3.2727,0.1,0.00034791,3476.7,0.00034857,3496.5,-0.00011147,39.859,-0.00011678,-0.0026838,0.47136
26125,9.4302,3.5455,0.1,0.00035054,3503,0.00035122,3523.1,-0.00011228,40.657,-0.00011769,-0.0026834,0.46276
26126,9.5226,3.4545,0.1,0.00034799,3477.5,0.00034864,3496.9,-0.00011157,39,-0.00011676,-0.0027684,0.47121
26127,9.4302,3.7273,0.1,0.00035069,3504.5,0.00035134,3523.9,-0.00011246,39.102,-0.00011766,-0.0028409,0.4625
26128,9.5226,3.6364,0.1,0.00034812,3478.8,0.00034875,3497.5,-0.00011172,37.719,-0.00011674,-0.0028926,0.47099
26129,9.4302,3.9091,0.1,0.00035088,3506.4,0.0003515,3524.8,-0.00011268,37.122,-0.00011763,-0.0030411,0.46217
26130,9.5226,3.8182,0.1,0.00034828,3480.4,0.00034888,3498.3,-0.00011192,36.026,-0.00011671,-0.0030573,0.47069
26131,9.4302,4.0909,0.1,0.00035112,3508.7,0.00035169,3526,-0.00011296,34.733,-0.00011758,-0.0032812,0.46176
26132,9.5226,4,0.1,0.00034849,3482.5,0.00034905,3499.3,-0.00011216,33.934,-0.00011668,-0.0032595,0.47032
26133,9.4302,4.2727,0.1,0.00035139,3511.4,0.00035192,3527.3,-0.00011328,31.954,-0.00011754,-0.0035589,0.46127
26134,9.5226,4.1818,0.1,0.00034873,3484.9,0.00034925,3500.5,-0.00011245,31.459,-0.00011664,-0.0034958,0.46988
26135,9.4302,4.4545,0.1,0.00035169,3514.5,0.00035217,3528.8,-0.00011365,28.804,-0.00011748,-0.0038744,0.46072
26136,9.5226,4.3636,0.1,0.00034901,3487.7,0.00034949,3501.9,-0.00011278,28.619,-0.00011659,-0.0037645,0.46936
26137,9.4302,4.6364,0.1,0.00035203,3517.9,0.00035246,3530.5,-0.00011405,25.307,-0.00011742,-0.004222,0.46008
26138,9.5226,4.5455,0.1,0.00034932,3490.8,0.00034975,3503.4,-0.00011315,25.436,-0.00011653,-0.0040668,0.46877
26139,9.4302,4.8182,0.1,0.0003524,3521.6,0.00035277,3532.3,-0.0001145,21.491,-0.00011736,-0.0046196,0.45938
26140,9.5226,4.7273,0.1,0.00034966,3494.2,0.00035003,3505.1,-0.00011355,21.933,-0.00011647,-0.004389,0.46811
26141,9.4302,5,0.1,0.00035281,3525.6,0.0003531,3534.3,-0.00011497,17.382,-0.00011729,-0.0050106,0.45859
26142,9.5226,4.9091,0.1,0.00035004,3498,0.00035034,3507,-0.000114,18.137,-0.00011641,-0.0047752,0.46736
26143,9.4302,5.1818,0.1,0.00035324,3529.9,0.00035346,3536.4,-0.00011548,13.011,-0.00011721,-0.005705,0.45773
26144,9.5226,5.0909,0.1,0.00035044,3502,0.00035068,3509,-0.00011447,14.074,-0.00011634,-0.0050706,0.46655
26145,9.4302,5.3636,0.1,0.00035369,3534.4,0.00035383,3538.6,-0.00011601,8.4085,-0.00011713,-0.0056565,0.4568
26146,9.5226,5.2727,0.1,0.00035086,3506.2,0.00035103,3511.1,-0.00011497,9.7751,-0.00011627,-0.0060066,0.46566
26147,9.4302,5.5455,0.1,0.00035417,3539.2,0.00035423,3541,-0.00011658,3.5778,-0.00011705,-0.011891,0.45579
26148,9.5226,5.4545,0.1,0.00035131,3510.7,0.0003514,3513.3,-0.00011549,5.2686,-0.00011619,-0.0049202,0.46469
26149,9.4302,5.7273,0.1,0.00035474,3544.9,0.0003547,3544,-0.00011697,0.01857,-0.00011723,-1.9365,0.4547
26150,9.5226,5.6364,0.1,0.00035179,3515.5,0.0003518,3515.7,-0.00011604,0.53431,-0.00011612,-0.026592,0.46365
26151,9.5226,5.8182,0.1,0.00035243,3521.8,0.00035234,3519.2,-0.00011603,0.024037,-0.00011675,-5.3708,0.46253
26152,9.4302,5.9091,0.1,0.0003548,3545.6,0.00035474,3543.6,-0.00011689,0.0090677,-0.00011741,-3.9229,0.45354
26153,9.6151,0.27273,0.1,0.00034947,3492.3,0.00034942,3490.8,-0.00011518,0.0077736,-0.00011556,-2.8542,0.47155
26154,9.7075,0.18182,0.1,0.00034716,3469.2,0.00034705,3466.1,-0.00011426,0.01853,-0.00011507,-6.0752,0.47951
26155,9.6151,0.090909,0.1,0.00034949,3492.4,0.00034941,3490.3,-0.00011511,0.0063135,-0.00011569,-4.3513,0.4704
26156,9.6151,0.45455,0.1,0.00034893,3486.9,0.00034897,3488,-0.00011496,2.2362,-0.00011526,-0.010206,0.47263
26157,9.7075,0.36364,0.1,0.00034654,3463.1,0.00034653,3462.8,-0.00011433,-0.0091447,-0.00011441,-0.57661,0.48061
26158,9.6151,0.63636,0.1,0.00034849,3482.4,0.0003486,3485.8,-0.00011444,6.6524,-0.00011533,-0.0051356,0.47363
26159,9.7075,0.54545,0.1,0.0003461,3458.6,0.00034617,3460.5,-0.0001139,3.7665,-0.0001144,-0.0043636,0.48164
26160,9.6151,0.81818,0.1,0.00034806,3478.2,0.00034825,3483.7,-0.00011395,10.855,-0.0001154,-0.0053522,0.47455
26161,9.7075,0.72727,0.1,0.00034569,3454.5,0.00034582,3458.4,-0.00011342,7.8793,-0.00011447,-0.0055796,0.4826
26162,9.6151,1,0.1,0.00034767,3474.3,0.00034792,3481.7,-0.00011349,14.845,-0.00011547,-0.0048316,0.4754
26163,9.7075,0.90909,0.1,0.00034529,3450.5,0.00034549,3456.4,-0.00011296,11.801,-0.00011453,-0.0048697,0.48348
26164,9.6151,1.1818,0.1,0.00034729,3470.5,0.00034761,3479.8,-0.00011305,18.594,-0.00011553,-0.004544,0.47617
26165,9.7075,1.0909,0.1,0.00034492,3446.8,0.00034518,3454.5,-0.00011253,15.506,-0.00011459,-0.0046731,0.48428
26166,9.6151,1.3636,0.1,0.00034695,3467.1,0.00034732,3478.1,-0.00011265,22.077,-0.00011559,-0.0042335,0.47687
26167,9.7075,1.2727,0.1,0.00034457,3443.3,0.00034489,3452.8,-0.00011212,18.967,-0.00011465,-0.0043768,0.48502
26168,9.6151,1.5455,0.1,0.00034663,3463.9,0.00034706,3476.5,-0.00011228,25.266,-0.00011564,-0.0039564,0.4775
26169,9.7075,1.4545,0.1,0.00034425,3440.2,0.00034463,3451.2,-0.00011175,22.16,-0.0001147,-0.0041244,0.48567
26170,9.6151,1.7273,0.1,0.00034635,3461.1,0.00034682,3475.1,-0.00011194,28.138,-0.00011569,-0.0037006,0.47805
26171,9.7075,1.6364,0.1,0.00034397,3437.3,0.00034439,3449.7,-0.00011141,25.061,-0.00011475,-0.0038817,0.48626
26172,9.6151,1.9091,0.1,0.0003461,3458.6,0.00034661,3473.9,-0.00011165,30.673,-0.00011573,-0.0034729,0.47853
26173,9.7075,1.8182,0.1,0.00034371,3434.7,0.00034417,3448.5,-0.00011111,27.648,-0.00011479,-0.0036633,0.48677
26174,9.6151,2.0909,0.1,0.00034589,3456.5,0.00034643,3472.8,-0.00011139,32.851,-0.00011577,-0.003274,0.47893
26175,9.7075,2,0.1,0.00034349,3432.5,0.00034398,3447.3,-0.00011085,29.903,-0.00011483,-0.0034694,0.48721
26176,9.6151,2.2727,0.1,0.00034571,3454.7,0.00034629,3471.9,-0.00011118,34.655,-0.0001158,-0.0031069,0.47926
26177,9.7075,2.1818,0.1,0.0003433,3430.6,0.00034383,3446.4,-0.00011063,31.808,-0.00011486,-0.0033018,0.48757
26178,9.6151,2.4545,0.1,0.00034557,3453.3,0.00034617,3471.2,-0.00011102,36.073,-0.00011582,-0.0029751,0.47952
26179,9.7075,2.3636,0.1,0.00034314,3429.1,0.0003437,3445.6,-0.00011045,33.35,-0.00011489,-0.0031647,0.48786
26180,9.6151,2.6364,0.1,0.00034547,3452.3,0.00034609,3470.7,-0.0001109,37.094,-0.00011584,-0.0028798,0.4797
26181,9.7075,2.5455,0.1,0.00034303,3427.9,0.0003436,3445.1,-0.00011031,34.517,-0.00011491,-0.0030611,0.48808
26182,9.6151,2.8182,0.1,0.00034541,3451.7,0.00034604,3470.4,-0.00011083,37.709,-0.00011585,-0.0028215,0.47981
26183,9.7075,2.7273,0.1,0.00034295,3427.2,0.00034354,3444.7,-0.00011022,35.299,-0.00011492,-0.0029901,0.48823
26184,9.6151,3,0.1,0.00034539,3451.5,0.00034602,3470.3,-0.00011081,37.915,-0.00011585,-0.0028018,0.47985
26185,9.7075,2.9091,0.1,0.00034291,3426.8,0.00034351,3444.5,-0.00011017,35.692,-0.00011493,-0.0029542,0.4883
26186,9.6151,3.1818,0.1,0.00034541,3451.7,0.00034604,3470.4,-0.00011083,37.709,-0.00011585,-0.0028215,0.47981
26187,9.7075,3.0909,0.1,0.00034291,3426.8,0.00034351,3444.5,-0.00011017,35.692,-0.00011493,-0.002954,0.4883
26188,9.6151,3.3636,0.1,0.00034547,3452.3,0.00034609,3470.7,-0.0001109,37.094,-0.00011584,-0.0028799,0.4797
26189,9.7075,3.2727,0.1,0.00034295,3427.2,0.00034354,3444.7,-0.00011022,35.299,-0.00011492,-0.0029901,0.48823
26190,9.6151,3.5455,0.1,0.00034557,3453.3,0.00034617,3471.2,-0.00011102,36.073,-0.00011582,-0.0029751,0.47952
26191,9.7075,3.4545,0.1,0.00034303,3427.9,0.0003436,3445.1,-0.00011031,34.517,-0.00011491,-0.003061,0.48808
26192,9.6151,3.7273,0.1,0.00034571,3454.7,0.00034629,3471.9,-0.00011118,34.655,-0.0001158,-0.0031067,0.47926
26193,9.7075,3.6364,0.1,0.00034314,3429.1,0.0003437,3445.6,-0.00011045,33.35,-0.00011489,-0.0031643,0.48786
26194,9.6151,3.9091,0.1,0.00034589,3456.5,0.00034643,3472.8,-0.00011139,32.851,-0.00011577,-0.0032736,0.47893
26195,9.7075,3.8182,0.1,0.0003433,3430.6,0.00034383,3446.4,-0.00011063,31.808,-0.00011486,-0.0033016,0.48757
26196,9.6151,4.0909,0.1,0.0003461,3458.6,0.00034661,3473.9,-0.00011165,30.673,-0.00011573,-0.0034724,0.47853
26197,9.7075,4,0.1,0.00034349,3432.5,0.00034398,3447.3,-0.00011085,29.903,-0.00011483,-0.003469,0.48721
26198,9.6151,4.2727,0.1,0.00034635,3461.1,0.00034682,3475.1,-0.00011194,28.138,-0.00011569,-0.0037001,0.47805
26199,9.7075,4.1818,0.1,0.00034371,3434.7,0.00034417,3448.5,-0.00011111,27.648,-0.00011479,-0.0036629,0.48677
26200,9.6151,4.4545,0.1,0.00034663,3463.9,0.00034706,3476.5,-0.00011228,25.266,-0.00011564,-0.0039559,0.4775
26201,9.7075,4.3636,0.1,0.00034397,3437.3,0.00034439,3449.7,-0.00011141,25.061,-0.00011475,-0.0038813,0.48626
26202,9.6151,4.6364,0.1,0.00034695,3467.1,0.00034732,3478.1,-0.00011265,22.077,-0.00011559,-0.0042329,0.47687
26203,9.7075,4.5455,0.1,0.00034425,3440.2,0.00034463,3451.2,-0.00011175,22.16,-0.0001147,-0.0041239,0.48567
26204,9.6151,4.8182,0.1,0.00034729,3470.5,0.00034761,3479.8,-0.00011305,18.594,-0.00011553,-0.0045432,0.47617
26205,9.7075,4.7273,0.1,0.00034457,3443.3,0.00034489,3452.8,-0.00011212,18.967,-0.00011465,-0.0043762,0.48502
26206,9.6151,5,0.1,0.00034767,3474.3,0.00034792,3481.7,-0.00011349,14.845,-0.00011547,-0.0048302,0.4754
26207,9.7075,4.9091,0.1,0.00034492,3446.8,0.00034518,3454.5,-0.00011253,15.506,-0.00011459,-0.0046724,0.48428
26208,9.6151,5.1818,0.1,0.00034806,3478.2,0.00034825,3483.7,-0.00011395,10.855,-0.0001154,-0.0053509,0.47455
26209,9.7075,5.0909,0.1,0.00034529,3450.5,0.00034549,3456.4,-0.00011296,11.801,-0.00011453,-0.004868,0.48348
26210,9.6151,5.3636,0.1,0.00034849,3482.4,0.0003486,3485.8,-0.00011444,6.6523,-0.00011533,-0.0051351,0.47363
26211,9.7075,5.2727,0.1,0.00034569,3454.5,0.00034582,3458.4,-0.00011342,7.8792,-0.00011447,-0.0055785,0.4826
26212,9.6151,5.5455,0.1,0.00034893,3486.9,0.00034897,3488,-0.00011496,2.2361,-0.00011526,-0.010205,0.47263
26213,9.7075,5.4545,0.1,0.0003461,3458.6,0.00034617,3460.5,-0.0001139,3.7665,-0.0001144,-0.0043632,0.48164
26214,9.6151,5.7273,0.1,0.00034947,3492.3,0.00034942,3490.8,-0.00011518,0.0077747,-0.00011556,-2.8542,0.47155
26215,9.7075,5.6364,0.1,0.00034654,3463.1,0.00034653,3462.8,-0.00011433,-0.0091435,-0.00011441,-0.57663,0.48061
26216,9.7075,5.8182,0.1,0.00034716,3469.2,0.00034705,3466.1,-0.00011426,0.018531,-0.00011507,-6.0752,0.47951
26217,9.6151,5.9091,0.1,0.00034949,3492.4,0.00034941,3490.3,-0.00011511,0.0063145,-0.00011569,-4.3513,0.4704
26218,9.8,0.27273,0.1,0.00034422,3439.8,0.00034416,3438,-0.00011341,0.0033293,-0.0001139,-3.7227,0.48864
26219,9.8925,0.18182,0.1,0.00034191,3416.7,0.00034179,3413.3,-0.00011249,0.014592,-0.00011339,-6.7416,0.49672
26220,9.8,0.090909,0.1,0.00034419,3439.6,0.00034411,3437.2,-0.00011335,0.0044739,-0.00011398,-4.7571,0.48751
26221,9.8,0.45455,0.1,0.00034371,3434.8,0.00034373,3435.2,-0.00011334,0.98,-0.00011347,-0.0086436,0.4897
26222,9.8925,0.36364,0.1,0.00034132,3410.9,0.00034129,3410.1,-0.00011256,-0.011528,-0.00011277,-1.6001,0.49781
26223,9.8,0.63636,0.1,0.0003433,3430.6,0.00034338,3433.1,-0.00011287,5.0112,-0.00011354,-0.00478,0.49069
26224,9.8925,0.54545,0.1,0.00034091,3406.7,0.00034095,3407.9,-0.0001123,2.3609,-0.00011262,-0.0040825,0.49883
26225,9.8,0.81818,0.1,0.00034291,3426.7,0.00034306,3431.1,-0.00011242,8.8423,-0.0001136,-0.0051096,0.4916
26226,9.8925,0.72727,0.1,0.00034052,3402.9,0.00034063,3405.9,-0.00011186,6.1076,-0.00011268,-0.0053228,0.49977
26227,9.8,1,0.1,0.00034254,3423,0.00034275,3429.3,-0.00011199,12.478,-0.00011366,-0.0047222,0.49244
26228,9.8925,0.90909,0.1,0.00034016,3399.2,0.00034032,3404,-0.00011144,9.6785,-0.00011273,-0.0047703,0.50064
26229,9.8,1.1818,0.1,0.00034219,3419.6,0.00034246,3427.5,-0.00011159,15.894,-0.00011371,-0.0045136,0.4932
26230,9.8925,1.0909,0.1,0.00033981,3395.8,0.00034003,3402.3,-0.00011105,13.051,-0.00011278,-0.0046374,0.50144
26231,9.8,1.3636,0.1,0.00034188,3416.4,0.0003422,3425.9,-0.00011122,19.066,-0.00011376,-0.0042728,0.4939
26232,9.8925,1.2727,0.1,0.00033949,3392.6,0.00033976,3400.6,-0.00011068,16.201,-0.00011283,-0.0044071,0.50216
26233,9.8,1.5455,0.1,0.00034158,3413.5,0.00034195,3424.4,-0.00011088,21.97,-0.00011381,-0.0040529,0.49451
26234,9.8925,1.4545,0.1,0.0003392,3389.6,0.00033952,3399.1,-0.00011034,19.106,-0.00011288,-0.0042082,0.50281
26235,9.8,1.7273,0.1,0.00034132,3410.9,0.00034173,3423.1,-0.00011058,24.585,-0.00011385,-0.0038462,0.49506
26236,9.8925,1.6364,0.1,0.00033893,3387,0.00033929,3397.8,-0.00011003,21.744,-0.00011292,-0.0040126,0.50339
26237,9.8,1.9091,0.1,0.00034109,3408.6,0.00034154,3421.9,-0.00011031,26.892,-0.00011389,-0.0036604,0.49553
26238,9.8925,1.8182,0.1,0.00033869,3384.6,0.0003391,3396.6,-0.00010975,24.097,-0.00011296,-0.0038351,0.5039
26239,9.8,2.0909,0.1,0.00034089,3406.6,0.00034138,3420.9,-0.00011008,28.874,-0.00011392,-0.003497,0.49593
26240,9.8925,2,0.1,0.00033849,3382.5,0.00033892,3395.5,-0.00010951,26.147,-0.00011299,-0.003676,0.50433
26241,9.8,2.2727,0.1,0.00034073,3404.9,0.00034124,3420.1,-0.00010989,30.517,-0.00011395,-0.0033587,0.49626
26242,9.8925,2.1818,0.1,0.00033831,3380.8,0.00033878,3394.6,-0.00010931,27.88,-0.00011302,-0.0035379,0.50469
26243,9.8,2.4545,0.1,0.0003406,3403.7,0.00034113,3419.5,-0.00010974,31.807,-0.00011397,-0.0032494,0.49651
26244,9.8925,2.3636,0.1,0.00033817,3379.4,0.00033866,3393.9,-0.00010915,29.281,-0.00011304,-0.0034243,0.50498
26245,9.8,2.6364,0.1,0.00034051,3402.7,0.00034105,3419,-0.00010963,32.735,-0.00011399,-0.0031698,0.49669
26246,9.8925,2.5455,0.1,0.00033807,3378.3,0.00033857,3393.4,-0.00010902,30.342,-0.00011306,-0.0033381,0.50519
26247,9.8,2.8182,0.1,0.00034045,3402.2,0.00034101,3418.7,-0.00010956,33.295,-0.000114,-0.0031211,0.4968
26248,9.8925,2.7273,0.1,0.00033799,3377.6,0.00033851,3393,-0.00010894,31.053,-0.00011307,-0.003279,0.50534
26249,9.8,3,0.1,0.00034043,3402,0.00034099,3418.6,-0.00010954,33.482,-0.000114,-0.0031047,0.49684
26250,9.8925,2.9091,0.1,0.00033796,3377.3,0.00033848,3392.8,-0.0001089,31.41,-0.00011308,-0.0032488,0.50541
26251,9.8,3.1818,0.1,0.00034045,3402.2,0.00034101,3418.7,-0.00010956,33.295,-0.000114,-0.003121,0.4968
26252,9.8925,3.0909,0.1,0.00033796,3377.3,0.00033848,3392.8,-0.0001089,31.41,-0.00011308,-0.0032489,0.50541
26253,9.8,3.3636,0.1,0.00034051,3402.7,0.00034105,3419,-0.00010963,32.735,-0.00011399,-0.0031697,0.49669
26254,9.8925,3.2727,0.1,0.00033799,3377.6,0.00033851,3393,-0.00010894,31.053,-0.00011307,-0.003279,0.50534
26255,9.8,3.5455,0.1,0.0003406,3403.7,0.00034113,3419.5,-0.00010974,31.807,-0.00011397,-0.003249,0.49651
26256,9.8925,3.4545,0.1,0.00033807,3378.3,0.00033857,3393.4,-0.00010902,30.342,-0.00011306,-0.0033379,0.50519
26257,9.8,3.7273,0.1,0.00034073,3404.9,0.00034124,3420.1,-0.00010989,30.517,-0.00011395,-0.0033584,0.49626
26258,9.8925,3.6364,0.1,0.00033817,3379.4,0.00033866,3393.9,-0.00010915,29.281,-0.00011304,-0.003424,0.50498
26259,9.8,3.9091,0.1,0.00034089,3406.6,0.00034138,3420.9,-0.00011008,28.874,-0.00011392,-0.0034967,0.49593
26260,9.8925,3.8182,0.1,0.00033831,3380.8,0.00033878,3394.6,-0.00010931,27.88,-0.00011302,-0.0035375,0.50469
26261,9.8,4.0909,0.1,0.00034109,3408.6,0.00034154,3421.9,-0.00011031,26.892,-0.00011389,-0.0036602,0.49553
26262,9.8925,4,0.1,0.00033849,3382.5,0.00033892,3395.5,-0.00010951,26.147,-0.00011299,-0.0036758,0.50433
26263,9.8,4.2727,0.1,0.00034132,3410.9,0.00034173,3423.1,-0.00011058,24.585,-0.00011385,-0.0038459,0.49506
26264,9.8925,4.1818,0.1,0.00033869,3384.6,0.0003391,3396.6,-0.00010975,24.097,-0.00011296,-0.0038345,0.5039
26265,9.8,4.4545,0.1,0.00034158,3413.5,0.00034195,3424.4,-0.00011088,21.97,-0.00011381,-0.0040524,0.49451
26266,9.8925,4.3636,0.1,0.00033893,3387,0.00033929,3397.8,-0.00011003,21.744,-0.00011292,-0.0040122,0.50339
26267,9.8,4.6364,0.1,0.00034188,3416.4,0.0003422,3425.9,-0.00011122,19.066,-0.00011376,-0.0042723,0.4939
26268,9.8925,4.5455,0.1,0.0003392,3389.6,0.00033952,3399.1,-0.00011034,19.106,-0.00011288,-0.0042071,0.50281
26269,9.8,4.8182,0.1,0.00034219,3419.6,0.00034246,3427.5,-0.00011159,15.894,-0.00011371,-0.0045131,0.4932
26270,9.8925,4.7273,0.1,0.00033949,3392.6,0.00033976,3400.6,-0.00011068,16.201,-0.00011283,-0.0044066,0.50216
26271,9.8,5,0.1,0.00034254,3423,0.00034275,3429.3,-0.00011199,12.478,-0.00011366,-0.004721,0.49244
26272,9.8925,4.9091,0.1,0.00033981,3395.8,0.00034003,3402.3,-0.00011105,13.051,-0.00011278,-0.0046371,0.50144
26273,9.8,5.1818,0.1,0.00034291,3426.7,0.00034306,3431.1,-0.00011242,8.8422,-0.0001136,-0.0051081,0.4916
26274,9.8925,5.0909,0.1,0.00034016,3399.2,0.00034032,3404,-0.00011144,9.6784,-0.00011273,-0.0047686,0.50064
26275,9.8,5.3636,0.1,0.0003433,3430.6,0.00034338,3433.1,-0.00011287,5.0111,-0.00011354,-0.0047791,0.49069
26276,9.8925,5.2727,0.1,0.00034052,3402.9,0.00034063,3405.9,-0.00011186,6.1076,-0.00011268,-0.0053218,0.49977
26277,9.8,5.5455,0.1,0.00034371,3434.8,0.00034373,3435.2,-0.00011334,0.97996,-0.00011347,-0.0086428,0.4897
26278,9.8925,5.4545,0.1,0.00034091,3406.7,0.00034095,3407.9,-0.0001123,2.3609,-0.00011262,-0.004082,0.49883
26279,9.8,5.7273,0.1,0.00034422,3439.8,0.00034416,3438,-0.00011341,0.0033304,-0.0001139,-3.7227,0.48864
26280,9.8925,5.6364,0.1,0.00034132,3410.9,0.00034129,3410.1,-0.00011256,-0.011527,-0.00011277,-1.6001,0.49781
26281,9.8925,5.8182,0.1,0.00034191,3416.7,0.00034179,3413.3,-0.00011249,0.014593,-0.00011339,-6.7417,0.49672
26282,9.8,5.9091,0.1,0.00034419,3439.6,0.00034411,3437.2,-0.00011335,0.0044748,-0.00011398,-4.7571,0.48751
26283,9.9849,0.27273,0.1,0.000339,3387.6,0.00033892,3385.3,-0.00011164,0.0012959,-0.00011225,-4.542,0.50597
26284,10.077,0.18182,0.1,0.00033668,3364.5,0.00033655,3360.8,-0.00011074,0.01168,-0.00011172,-7.3722,0.51417
26285,9.9849,0.090909,0.1,0.00033893,3386.9,0.00033884,3384.4,-0.00011159,0.0032443,-0.00011228,-5.1416,0.50485
26286,9.9849,0.45455,0.1,0.00033851,3382.8,0.00033851,3382.7,-0.0001117,-0.0070551,-0.00011173,-0.19763,0.50701
26287,10.077,0.36364,0.1,0.00033612,3358.9,0.00033608,3357.6,-0.00011079,-0.010284,-0.00011113,-2.5649,0.51524
26288,9.9849,0.63636,0.1,0.00033813,3379,0.00033819,3380.7,-0.00011129,3.4758,-0.00011176,-0.0047285,0.50799
26289,10.077,0.54545,0.1,0.00033573,3355,0.00033575,3355.6,-0.0001107,1.0449,-0.00011084,-0.0048683,0.51625
26290,9.9849,0.81818,0.1,0.00033777,3375.3,0.00033789,3378.8,-0.00011088,6.9613,-0.00011181,-0.0050304,0.50889
26291,10.077,0.72727,0.1,0.00033538,3351.4,0.00033545,3353.7,-0.0001103,4.4499,-0.00011089,-0.0053582,0.51718
26292,9.9849,1,0.1,0.00033743,3371.9,0.0003376,3377.1,-0.00011049,10.268,-0.00011186,-0.0047124,0.50972
26293,10.077,0.90909,0.1,0.00033504,3348.1,0.00033517,3351.9,-0.00010992,7.694,-0.00011094,-0.0048231,0.51804
26294,9.9849,1.1818,0.1,0.00033711,3368.7,0.00033733,3375.4,-0.00011013,13.374,-0.00011191,-0.0045478,0.51047
26295,10.077,1.0909,0.1,0.00033472,3344.9,0.0003349,3350.2,-0.00010956,10.757,-0.00011099,-0.0046957,0.51883
26296,9.9849,1.3636,0.1,0.00033681,3365.8,0.00033708,3373.9,-0.00010979,16.256,-0.00011195,-0.0043535,0.51115
26297,10.077,1.2727,0.1,0.00033442,3341.9,0.00033465,3348.7,-0.00010922,13.617,-0.00011103,-0.0044975,0.51954
26298,9.9849,1.5455,0.1,0.00033654,3363.1,0.00033686,3372.5,-0.00010948,18.895,-0.00011199,-0.0041751,0.51177
26299,10.077,1.4545,0.1,0.00033415,3339.2,0.00033442,3347.3,-0.00010891,16.253,-0.00011107,-0.0043301,0.52018
26300,9.9849,1.7273,0.1,0.0003363,3360.7,0.00033666,3371.3,-0.0001092,21.271,-0.00011203,-0.0040062,0.5123
26301,10.077,1.6364,0.1,0.0003339,3336.7,0.00033422,3346,-0.00010863,18.648,-0.00011111,-0.004167,0.52075
26302,9.9849,1.9091,0.1,0.00033609,3358.5,0.00033648,3370.2,-0.00010895,23.367,-0.00011206,-0.0038536,0.51277
26303,10.077,1.8182,0.1,0.00033368,3334.5,0.00033403,3344.9,-0.00010838,20.783,-0.00011114,-0.0040194,0.52125
26304,9.9849,2.0909,0.1,0.0003359,3356.7,0.00033632,3369.2,-0.00010874,25.167,-0.00011209,-0.0037185,0.51316
26305,10.077,2,0.1,0.00033349,3332.6,0.00033387,3343.9,-0.00010816,22.643,-0.00011117,-0.0038869,0.52168
26306,9.9849,2.2727,0.1,0.00033575,3355.2,0.0003362,3368.5,-0.00010857,26.659,-0.00011212,-0.0036041,0.51349
26307,10.077,2.1818,0.1,0.00033333,3331,0.00033374,3343.1,-0.00010797,24.215,-0.0001112,-0.0037718,0.52204
26308,9.9849,2.4545,0.1,0.00033563,3354,0.0003361,3367.8,-0.00010843,27.83,-0.00011214,-0.003513,0.51374
26309,10.077,2.3636,0.1,0.0003332,3329.7,0.00033363,3342.4,-0.00010782,25.486,-0.00011122,-0.003677,0.52232
26310,9.9849,2.6364,0.1,0.00033555,3353.2,0.00033603,3367.4,-0.00010833,28.673,-0.00011215,-0.0034468,0.51392
26311,10.077,2.5455,0.1,0.0003331,3328.7,0.00033355,3341.9,-0.00010771,26.448,-0.00011123,-0.0036052,0.52253
26312,9.9849,2.8182,0.1,0.0003355,3352.7,0.00033598,3367.2,-0.00010827,29.182,-0.00011216,-0.003406,0.51402
26313,10.077,2.7273,0.1,0.00033304,3328.1,0.00033349,3341.5,-0.00010764,27.093,-0.00011124,-0.003556,0.52268
26314,9.9849,3,0.1,0.00033548,3352.5,0.00033597,3367.1,-0.00010825,29.352,-0.00011216,-0.0033923,0.51406
26315,10.077,2.9091,0.1,0.00033301,3327.8,0.00033346,3341.4,-0.0001076,27.417,-0.00011125,-0.0035305,0.52275
26316,9.9849,3.1818,0.1,0.0003355,3352.7,0.00033598,3367.2,-0.00010827,29.182,-0.00011216,-0.0034063,0.51402
26317,10.077,3.0909,0.1,0.00033301,3327.8,0.00033346,3341.4,-0.0001076,27.417,-0.00011125,-0.0035306,0.52275
26318,9.9849,3.3636,0.1,0.00033555,3353.2,0.00033603,3367.4,-0.00010833,28.673,-0.00011215,-0.0034468,0.51392
26319,10.077,3.2727,0.1,0.00033304,3328.1,0.00033349,3341.5,-0.00010764,27.093,-0.00011124,-0.0035558,0.52268
26320,9.9849,3.5455,0.1,0.00033563,3354,0.0003361,3367.8,-0.00010843,27.83,-0.00011214,-0.0035129,0.51374
26321,10.077,3.4545,0.1,0.0003331,3328.7,0.00033355,3341.9,-0.00010771,26.448,-0.00011123,-0.0036052,0.52253
26322,9.9849,3.7273,0.1,0.00033575,3355.2,0.0003362,3368.5,-0.00010857,26.659,-0.00011212,-0.0036037,0.51349
26323,10.077,3.6364,0.1,0.0003332,3329.7,0.00033363,3342.4,-0.00010782,25.486,-0.00011122,-0.0036769,0.52232
26324,9.9849,3.9091,0.1,0.0003359,3356.7,0.00033632,3369.2,-0.00010874,25.167,-0.00011209,-0.0037181,0.51316
26325,10.077,3.8182,0.1,0.00033333,3331,0.00033374,3343.1,-0.00010797,24.215,-0.0001112,-0.0037714,0.52204
26326,9.9849,4.0909,0.1,0.00033609,3358.5,0.00033648,3370.2,-0.00010895,23.367,-0.00011206,-0.0038531,0.51277
26327,10.077,4,0.1,0.00033349,3332.6,0.00033387,3343.9,-0.00010816,22.643,-0.00011117,-0.0038868,0.52168
26328,9.9849,4.2727,0.1,0.0003363,3360.7,0.00033666,3371.3,-0.0001092,21.271,-0.00011203,-0.0040056,0.5123
26329,10.077,4.1818,0.1,0.00033368,3334.5,0.00033403,3344.9,-0.00010838,20.783,-0.00011114,-0.0040187,0.52125
26330,9.9849,4.4545,0.1,0.00033654,3363.1,0.00033686,3372.5,-0.00010948,18.895,-0.00011199,-0.0041742,0.51177
26331,10.077,4.3636,0.1,0.0003339,3336.7,0.00033422,3346,-0.00010863,18.648,-0.00011111,-0.0041665,0.52075
26332,9.9849,4.6364,0.1,0.00033681,3365.8,0.00033708,3373.9,-0.00010979,16.256,-0.00011195,-0.0043525,0.51115
26333,10.077,4.5455,0.1,0.00033415,3339.2,0.00033442,3347.3,-0.00010891,16.253,-0.00011107,-0.0043292,0.52018
26334,9.9849,4.8182,0.1,0.00033711,3368.7,0.00033733,3375.4,-0.00011013,13.373,-0.00011191,-0.0045475,0.51047
26335,10.077,4.7273,0.1,0.00033442,3341.9,0.00033465,3348.7,-0.00010922,13.617,-0.00011103,-0.0044969,0.51954
26336,9.9849,5,0.1,0.00033743,3371.9,0.0003376,3377.1,-0.00011049,10.268,-0.00011186,-0.0047115,0.50972
26337,10.077,4.9091,0.1,0.00033472,3344.9,0.0003349,3350.2,-0.00010956,10.757,-0.00011099,-0.0046954,0.51883
26338,9.9849,5.1818,0.1,0.00033777,3375.3,0.00033789,3378.8,-0.00011088,6.9612,-0.00011181,-0.0050291,0.50889
26339,10.077,5.0909,0.1,0.00033504,3348.1,0.00033517,3351.9,-0.00010992,7.6939,-0.00011094,-0.0048214,0.51804
26340,9.9849,5.3636,0.1,0.00033813,3379,0.00033819,3380.7,-0.00011129,3.4757,-0.00011176,-0.0047279,0.50799
26341,10.077,5.2727,0.1,0.00033538,3351.4,0.00033545,3353.7,-0.0001103,4.4499,-0.00011089,-0.0053573,0.51718
26342,9.9849,5.5455,0.1,0.00033851,3382.8,0.00033851,3382.7,-0.0001117,-0.0070548,-0.00011173,-0.19767,0.50701
26343,10.077,5.4545,0.1,0.00033573,3355,0.00033575,3355.6,-0.0001107,1.0448,-0.00011084,-0.0048679,0.51625
26344,9.9849,5.7273,0.1,0.000339,3387.6,0.00033892,3385.3,-0.00011164,0.0012967,-0.00011225,-4.5421,0.50597
26345,10.077,5.6364,0.1,0.00033612,3358.9,0.00033608,3357.6,-0.00011079,-0.010283,-0.00011113,-2.5649,0.51524
26346,10.077,5.8182,0.1,0.00033668,3364.5,0.00033655,3360.8,-0.00011074,0.011681,-0.00011172,-7.3722,0.51417
26347,9.9849,5.9091,0.1,0.00033893,3386.9,0.00033884,3384.4,-0.00011159,0.0032453,-0.00011228,-5.1417,0.50485
26348,10.17,0.27273,0.1,0.00033379,3335.6,0.0003337,3333,-0.00010989,0.00039214,-0.0001106,-5.3149,0.52352
26349,10.262,0.18182,0.1,0.00033148,3312.5,0.00033134,3308.5,-0.00010899,0.0094695,-0.00011005,-7.969,0.53185
26350,10.17,0.090909,0.1,0.00033369,3334.6,0.00033359,3331.8,-0.00010984,0.0024344,-0.00011058,-5.5061,0.52242
26351,10.17,0.45455,0.1,0.00033334,3331.1,0.00033331,3330.4,-0.00010994,-0.0057818,-0.00011011,-1.3027,0.52456
26352,10.262,0.36364,0.1,0.00033094,3307.1,0.00033088,3305.4,-0.00010904,-0.0086283,-0.0001095,-3.4727,0.53291
26353,10.17,0.63636,0.1,0.00033298,3327.5,0.00033301,3328.5,-0.00010971,2.0378,-0.00010998,-0.0054781,0.52552
26354,10.262,0.54545,0.1,0.00033058,3303.5,0.00033058,3303.4,-0.00010908,0.011543,-0.00010911,-0.20723,0.5339
26355,10.17,0.81818,0.1,0.00033264,3324.1,0.00033273,3326.7,-0.00010934,5.2007,-0.00011003,-0.0052247,0.52641
26356,10.262,0.72727,0.1,0.00033025,3300.2,0.0003303,3301.6,-0.00010874,2.8969,-0.00010913,-0.0060414,0.53482
26357,10.17,1,0.1,0.00033233,3321,0.00033246,3325.1,-0.00010898,8.2003,-0.00011007,-0.0048486,0.52722
26358,10.262,0.90909,0.1,0.00032993,3297,0.00033003,3300,-0.00010839,5.8357,-0.00010917,-0.0051264,0.53567
26359,10.17,1.1818,0.1,0.00033203,3318,0.00033222,3323.5,-0.00010865,11.017,-0.00011012,-0.0046717,0.52797
26360,10.262,1.0909,0.1,0.00032964,3294.1,0.00032978,3298.4,-0.00010806,8.6096,-0.00010921,-0.0048912,0.53644
26361,10.17,1.3636,0.1,0.00033176,3315.3,0.00033199,3322.1,-0.00010834,13.63,-0.00011015,-0.0044914,0.52864
26362,10.262,1.2727,0.1,0.00032936,3291.4,0.00032955,3296.9,-0.00010775,11.199,-0.00010924,-0.0046713,0.53715
26363,10.17,1.5455,0.1,0.00033151,3312.8,0.00033178,3320.8,-0.00010806,16.022,-0.00011019,-0.0043335,0.52925
26364,10.262,1.4545,0.1,0.00032911,3288.8,0.00032934,3295.6,-0.00010747,13.586,-0.00010928,-0.0045046,0.53778
26365,10.17,1.7273,0.1,0.00033128,3310.6,0.00033159,3319.6,-0.0001078,18.175,-0.00011022,-0.0041878,0.52978
26366,10.262,1.6364,0.1,0.00032888,3286.6,0.00032915,3294.4,-0.00010721,15.753,-0.00010931,-0.0043535,0.53835
26367,10.17,1.9091,0.1,0.00033109,3308.6,0.00033142,3318.6,-0.00010758,20.074,-0.00011025,-0.0040577,0.53024
26368,10.262,1.8182,0.1,0.00032868,3284.5,0.00032898,3293.3,-0.00010699,17.685,-0.00010934,-0.0042218,0.53884
26369,10.17,2.0909,0.1,0.00033092,3306.9,0.00033128,3317.7,-0.00010739,21.705,-0.00011028,-0.0039434,0.53063
26370,10.262,2,0.1,0.0003285,3282.8,0.00032883,3292.4,-0.00010679,19.368,-0.00010936,-0.0041061,0.53926
26371,10.17,2.2727,0.1,0.00033078,3305.5,0.00033117,3317,-0.00010723,23.056,-0.0001103,-0.0038466,0.53095
26372,10.262,2.1818,0.1,0.00032836,3281.3,0.00032871,3291.6,-0.00010662,20.789,-0.00010939,-0.0040068,0.53961
26373,10.17,2.4545,0.1,0.00033067,3304.4,0.00033107,3316.4,-0.0001071,24.118,-0.00011031,-0.0037701,0.53119
26374,10.262,2.3636,0.1,0.00032824,3280.1,0.0003286,3291,-0.00010648,21.939,-0.0001094,-0.0039254,0.53989
26375,10.17,2.6364,0.1,0.00033059,3303.6,0.00033101,3316,-0.00010701,24.881,-0.00011033,-0.0037147,0.53137
26376,10.262,2.5455,0.1,0.00032815,3279.2,0.00032853,3290.5,-0.00010638,22.809,-0.00010942,-0.0038643,0.5401
26377,10.17,2.8182,0.1,0.00033054,3303.2,0.00033097,3315.8,-0.00010696,25.342,-0.00011033,-0.0036804,0.53148
26378,10.262,2.7273,0.1,0.00032809,3278.6,0.00032848,3290.2,-0.00010631,23.392,-0.00010943,-0.0038222,0.54024
26379,10.17,3,0.1,0.00033053,3303,0.00033095,3315.7,-0.00010694,25.496,-0.00011034,-0.0036687,0.53151
26380,10.262,2.9091,0.1,0.00032806,3278.3,0.00032845,3290.1,-0.00010628,23.685,-0.00010943,-0.0038008,0.54031
26381,10.17,3.1818,0.1,0.00033054,3303.2,0.00033097,3315.8,-0.00010696,25.342,-0.00011033,-0.0036801,0.53148
26382,10.262,3.0909,0.1,0.00032806,3278.3,0.00032845,3290.1,-0.00010628,23.685,-0.00010943,-0.0038005,0.54031
26383,10.17,3.3636,0.1,0.00033059,3303.6,0.00033101,3316,-0.00010701,24.881,-0.00011033,-0.0037146,0.53137
26384,10.262,3.2727,0.1,0.00032809,3278.6,0.00032848,3290.2,-0.00010631,23.392,-0.00010943,-0.0038222,0.54024
26385,10.17,3.5455,0.1,0.00033067,3304.4,0.00033107,3316.4,-0.0001071,24.118,-0.00011031,-0.0037702,0.53119
26386,10.262,3.4545,0.1,0.00032815,3279.2,0.00032853,3290.5,-0.00010638,22.809,-0.00010942,-0.0038643,0.5401
26387,10.17,3.7273,0.1,0.00033078,3305.5,0.00033117,3317,-0.00010723,23.056,-0.0001103,-0.0038465,0.53095
26388,10.262,3.6364,0.1,0.00032824,3280.1,0.0003286,3291,-0.00010648,21.939,-0.0001094,-0.0039252,0.53989
26389,10.17,3.9091,0.1,0.00033092,3306.9,0.00033128,3317.7,-0.00010739,21.705,-0.00011028,-0.0039432,0.53063
26390,10.262,3.8182,0.1,0.00032836,3281.3,0.00032871,3291.6,-0.00010662,20.789,-0.00010939,-0.0040064,0.53961
26391,10.17,4.0909,0.1,0.00033109,3308.6,0.00033142,3318.6,-0.00010758,20.074,-0.00011025,-0.0040575,0.53024
26392,10.262,4,0.1,0.0003285,3282.8,0.00032883,3292.4,-0.00010679,19.368,-0.00010936,-0.004106,0.53926
26393,10.17,4.2727,0.1,0.00033128,3310.6,0.00033159,3319.6,-0.0001078,18.175,-0.00011022,-0.0041873,0.52978
26394,10.262,4.1818,0.1,0.00032868,3284.5,0.00032898,3293.3,-0.00010699,17.685,-0.00010934,-0.0042214,0.53884
26395,10.17,4.4545,0.1,0.00033151,3312.8,0.00033178,3320.8,-0.00010806,16.022,-0.00011019,-0.0043329,0.52925
26396,10.262,4.3636,0.1,0.00032888,3286.6,0.00032915,3294.4,-0.00010721,15.753,-0.00010931,-0.0043531,0.53835
26397,10.17,4.6364,0.1,0.00033176,3315.3,0.00033199,3322.1,-0.00010834,13.63,-0.00011015,-0.0044908,0.52864
26398,10.262,4.5455,0.1,0.00032911,3288.8,0.00032934,3295.6,-0.00010747,13.586,-0.00010928,-0.004504,0.53778
26399,10.17,4.8182,0.1,0.00033203,3318,0.00033222,3323.5,-0.00010865,11.017,-0.00011012,-0.0046712,0.52797
26400,10.262,4.7273,0.1,0.00032936,3291.4,0.00032955,3296.9,-0.00010775,11.199,-0.00010924,-0.0046706,0.53715
26401,10.17,5,0.1,0.00033233,3321,0.00033246,3325.1,-0.00010898,8.2002,-0.00011007,-0.0048476,0.52722
26402,10.262,4.9091,0.1,0.00032964,3294.1,0.00032978,3298.4,-0.00010806,8.6096,-0.00010921,-0.0048908,0.53644
26403,10.17,5.1818,0.1,0.00033264,3324.1,0.00033273,3326.7,-0.00010934,5.2007,-0.00011003,-0.0052233,0.52641
26404,10.262,5.0909,0.1,0.00032993,3297,0.00033003,3300,-0.00010839,5.8357,-0.00010917,-0.0051248,0.53567
26405,10.17,5.3636,0.1,0.00033298,3327.5,0.00033301,3328.5,-0.00010971,2.0378,-0.00010998,-0.0054774,0.52552
26406,10.262,5.2727,0.1,0.00033025,3300.2,0.0003303,3301.6,-0.00010874,2.8968,-0.00010913,-0.0060404,0.53482
26407,10.17,5.5455,0.1,0.00033334,3331.1,0.00033331,3330.4,-0.00010994,-0.0057813,-0.00011011,-1.3028,0.52456
26408,10.262,5.4545,0.1,0.00033058,3303.5,0.00033058,3303.4,-0.00010908,0.01154,-0.00010911,-0.20727,0.5339
26409,10.17,5.7273,0.1,0.00033379,3335.6,0.0003337,3333,-0.00010989,0.00039295,-0.0001106,-5.3149,0.52352
26410,10.262,5.6364,0.1,0.00033094,3307.1,0.00033088,3305.4,-0.00010904,-0.0086272,-0.0001095,-3.4728,0.53291
26411,10.262,5.8182,0.1,0.00033148,3312.5,0.00033134,3308.5,-0.00010899,0.0094701,-0.00011005,-7.9691,0.53185
26412,10.17,5.9091,0.1,0.00033369,3334.6,0.00033359,3331.8,-0.00010984,0.0024355,-0.00011058,-5.5062,0.52242
26413,10.355,0.27273,0.1,0.00032861,3283.8,0.00032851,3280.8,-0.00010814,8.7619e-05,-0.00010895,-6.0443,0.54131
26414,10.447,0.18182,0.1,0.00032629,3260.7,0.00032615,3256.4,-0.00010725,0.0077555,-0.00010839,-8.5344,0.54975
26415,10.355,0.090909,0.1,0.00032847,3282.4,0.00032837,3279.5,-0.0001081,0.0019221,-0.00010888,-5.8518,0.54021
26416,10.355,0.45455,0.1,0.00032818,3279.5,0.00032814,3278.3,-0.00010818,-0.0045162,-0.00010849,-2.3415,0.54232
26417,10.447,0.36364,0.1,0.00032578,3255.5,0.0003257,3253.3,-0.00010729,-0.0069181,-0.00010787,-4.3279,0.5508
26418,10.355,0.63636,0.1,0.00032784,3276.2,0.00032786,3276.5,-0.00010813,0.69327,-0.00010822,-0.011178,0.54327
26419,10.447,0.54545,0.1,0.00032544,3252.2,0.00032542,3251.5,-0.00010733,0.00090727,-0.00010751,-1.3581,0.55177
26420,10.355,0.81818,0.1,0.00032753,3273.1,0.00032759,3274.8,-0.00010779,3.5504,-0.00010826,-0.0059838,0.54415
26421,10.447,0.72727,0.1,0.00032513,3249.1,0.00032516,3249.8,-0.00010717,1.4411,-0.00010737,-0.0090838,0.55268
26422,10.355,1,0.1,0.00032724,3270.1,0.00032735,3273.3,-0.00010747,6.263,-0.0001083,-0.0052234,0.54496
26423,10.447,0.90909,0.1,0.00032484,3246.2,0.00032491,3248.2,-0.00010686,4.0927,-0.0001074,-0.0059324,0.55352
26424,10.355,1.1818,0.1,0.00032697,3267.4,0.00032712,3271.8,-0.00010716,8.8093,-0.00010834,-0.0049269,0.54569
26425,10.447,1.0909,0.1,0.00032457,3243.5,0.00032468,3246.7,-0.00010656,6.5962,-0.00010743,-0.0053148,0.55428
26426,10.355,1.3636,0.1,0.00032671,3264.9,0.0003269,3270.5,-0.00010688,11.172,-0.00010837,-0.0047084,0.54636
26427,10.447,1.2727,0.1,0.00032432,3240.9,0.00032447,3245.4,-0.00010628,8.9328,-0.00010747,-0.0049723,0.55498
26428,10.355,1.5455,0.1,0.00032648,3262.6,0.00032671,3269.2,-0.00010662,13.333,-0.0001084,-0.0045407,0.54695
26429,10.447,1.4545,0.1,0.00032408,3238.6,0.00032427,3244.1,-0.00010602,11.086,-0.0001075,-0.0047556,0.55561
26430,10.355,1.7273,0.1,0.00032628,3260.5,0.00032653,3268.1,-0.00010639,15.278,-0.00010843,-0.0043984,0.54748
26431,10.447,1.6364,0.1,0.00032387,3236.5,0.00032409,3243,-0.00010579,13.04,-0.00010752,-0.0045872,0.55616
26432,10.355,1.9091,0.1,0.0003261,3258.7,0.00032638,3267.2,-0.00010619,16.994,-0.00010845,-0.0042775,0.54793
26433,10.447,1.8182,0.1,0.00032369,3234.6,0.00032394,3242,-0.00010558,14.783,-0.00010755,-0.0044517,0.55665
26434,10.355,2.0909,0.1,0.00032594,3257.2,0.00032625,3266.3,-0.00010602,18.467,-0.00010847,-0.0041743,0.54832
26435,10.447,2,0.1,0.00032352,3233,0.0003238,3241.1,-0.0001054,16.3,-0.00010757,-0.0043395,0.55706
26436,10.355,2.2727,0.1,0.00032581,3255.9,0.00032614,3265.7,-0.00010587,19.687,-0.00010849,-0.0040885,0.54863
26437,10.447,2.1818,0.1,0.00032339,3231.7,0.00032368,3240.4,-0.00010525,17.581,-0.00010759,-0.0042461,0.55741
26438,10.355,2.4545,0.1,0.00032571,3254.9,0.00032606,3265.1,-0.00010576,20.645,-0.00010851,-0.0040213,0.54888
26439,10.447,2.3636,0.1,0.00032328,3230.6,0.00032359,3239.8,-0.00010512,18.618,-0.0001076,-0.0041719,0.55769
26440,10.355,2.6364,0.1,0.00032564,3254.1,0.000326,3264.8,-0.00010568,21.335,-0.00010852,-0.0039728,0.54905
26441,10.447,2.5455,0.1,0.0003232,3229.7,0.00032352,3239.4,-0.00010503,19.402,-0.00010761,-0.0041167,0.5579
26442,10.355,2.8182,0.1,0.0003256,3253.7,0.00032596,3264.5,-0.00010563,21.75,-0.00010852,-0.0039431,0.54916
26443,10.447,2.7273,0.1,0.00032314,3229.2,0.00032347,3239.1,-0.00010497,19.928,-0.00010762,-0.0040788,0.55804
26444,10.355,3,0.1,0.00032558,3253.6,0.00032595,3264.5,-0.00010561,21.889,-0.00010852,-0.003933,0.54919
26445,10.447,2.9091,0.1,0.00032311,3228.9,0.00032345,3238.9,-0.00010494,20.192,-0.00010763,-0.00406,0.55811
26446,10.355,3.1818,0.1,0.0003256,3253.7,0.00032596,3264.5,-0.00010563,21.75,-0.00010852,-0.0039431,0.54916
26447,10.447,3.0909,0.1,0.00032311,3228.9,0.00032345,3238.9,-0.00010494,20.192,-0.00010763,-0.0040598,0.55811
26448,10.355,3.3636,0.1,0.00032564,3254.1,0.000326,3264.8,-0.00010568,21.335,-0.00010852,-0.0039728,0.54905
26449,10.447,3.2727,0.1,0.00032314,3229.2,0.00032347,3239.1,-0.00010497,19.928,-0.00010762,-0.0040789,0.55804
26450,10.355,3.5455,0.1,0.00032571,3254.9,0.00032606,3265.1,-0.00010576,20.645,-0.00010851,-0.004021,0.54888
26451,10.447,3.4545,0.1,0.0003232,3229.7,0.00032352,3239.4,-0.00010503,19.402,-0.00010761,-0.0041167,0.5579
26452,10.355,3.7273,0.1,0.00032581,3255.9,0.00032614,3265.7,-0.00010587,19.687,-0.00010849,-0.004088,0.54863
26453,10.447,3.6364,0.1,0.00032328,3230.6,0.00032359,3239.8,-0.00010512,18.618,-0.0001076,-0.0041715,0.55769
26454,10.355,3.9091,0.1,0.00032594,3257.2,0.00032625,3266.3,-0.00010602,18.467,-0.00010847,-0.0041739,0.54832
26455,10.447,3.8182,0.1,0.00032339,3231.7,0.00032368,3240.4,-0.00010525,17.581,-0.00010759,-0.0042459,0.55741
26456,10.355,4.0909,0.1,0.0003261,3258.7,0.00032638,3267.2,-0.00010619,16.994,-0.00010845,-0.0042772,0.54793
26457,10.447,4,0.1,0.00032352,3233,0.0003238,3241.1,-0.0001054,16.3,-0.00010757,-0.004339,0.55706
26458,10.355,4.2727,0.1,0.00032628,3260.5,0.00032653,3268.1,-0.00010639,15.278,-0.00010843,-0.0043981,0.54748
26459,10.447,4.1818,0.1,0.00032369,3234.6,0.00032394,3242,-0.00010558,14.783,-0.00010755,-0.0044513,0.55665
26460,10.355,4.4545,0.1,0.00032648,3262.6,0.00032671,3269.2,-0.00010662,13.333,-0.0001084,-0.0045403,0.54695
26461,10.447,4.3636,0.1,0.00032387,3236.5,0.00032409,3243,-0.00010579,13.04,-0.00010752,-0.0045863,0.55616
26462,10.355,4.6364,0.1,0.00032671,3264.9,0.0003269,3270.5,-0.00010688,11.172,-0.00010837,-0.0047077,0.54636
26463,10.447,4.5455,0.1,0.00032408,3238.6,0.00032427,3244.1,-0.00010602,11.086,-0.0001075,-0.0047551,0.55561
26464,10.355,4.8182,0.1,0.00032697,3267.4,0.00032712,3271.8,-0.00010716,8.8093,-0.00010834,-0.0049263,0.54569
26465,10.447,4.7273,0.1,0.00032432,3240.9,0.00032447,3245.4,-0.00010628,8.9328,-0.00010747,-0.0049715,0.55498
26466,10.355,5,0.1,0.00032724,3270.1,0.00032735,3273.3,-0.00010747,6.2629,-0.0001083,-0.0052224,0.54496
26467,10.447,4.9091,0.1,0.00032457,3243.5,0.00032468,3246.7,-0.00010656,6.5962,-0.00010743,-0.0053145,0.55428
26468,10.355,5.1818,0.1,0.00032753,3273.1,0.00032759,3274.8,-0.00010779,3.5504,-0.00010826,-0.0059825,0.54415
26469,10.447,5.0909,0.1,0.00032484,3246.2,0.00032491,3248.2,-0.00010686,4.0926,-0.0001074,-0.0059306,0.55352
26470,10.355,5.3636,0.1,0.00032784,3276.2,0.00032786,3276.5,-0.00010813,0.69323,-0.00010822,-0.011178,0.54327
26471,10.447,5.2727,0.1,0.00032513,3249.1,0.00032516,3249.8,-0.00010717,1.441,-0.00010737,-0.009083,0.55268
26472,10.355,5.5455,0.1,0.00032818,3279.5,0.00032814,3278.3,-0.00010818,-0.0045154,-0.00010849,-2.3416,0.54232
26473,10.447,5.4545,0.1,0.00032544,3252.2,0.00032542,3251.5,-0.00010733,0.00090745,-0.00010751,-1.3582,0.55177
26474,10.355,5.7273,0.1,0.00032861,3283.8,0.00032851,3280.8,-0.00010814,8.8522e-05,-0.00010895,-6.0443,0.54131
26475,10.447,5.6364,0.1,0.00032578,3255.5,0.0003257,3253.3,-0.00010729,-0.0069168,-0.00010787,-4.3279,0.5508
26476,10.447,5.8182,0.1,0.00032629,3260.7,0.00032615,3256.4,-0.00010725,0.007756,-0.00010839,-8.5344,0.54975
26477,10.355,5.9091,0.1,0.00032847,3282.4,0.00032837,3279.5,-0.0001081,0.0019229,-0.00010888,-5.8518,0.54021
26478,10.54,0.27273,0.1,0.00032345,3232.2,0.00032333,3228.9,-0.0001064,0.00012341,-0.0001073,-6.7334,0.55931
26479,10.632,0.18182,0.1,0.00032113,3209.1,0.00032098,3204.6,-0.00010552,0.0064023,-0.00010673,-9.0703,0.56787
26480,10.54,0.090909,0.1,0.00032327,3230.5,0.00032317,3227.4,-0.00010637,0.0016227,-0.0001072,-6.1798,0.55824
26481,10.54,0.45455,0.1,0.00032304,3228.2,0.00032298,3226.5,-0.00010644,-0.0033277,-0.00010688,-3.3197,0.56032
26482,10.632,0.36364,0.1,0.00032064,3204.1,0.00032055,3201.6,-0.00010556,-0.0052432,-0.00010624,-5.1347,0.56891
26483,10.54,0.63636,0.1,0.00032273,3225.1,0.00032272,3224.8,-0.00010647,0.0098385,-0.00010655,-0.5974,0.56125
26484,10.632,0.54545,0.1,0.00032032,3201,0.00032028,3199.8,-0.00010559,0.00054769,-0.00010591,-2.4517,0.56987
26485,10.54,0.81818,0.1,0.00032244,3222.2,0.00032247,3223.2,-0.00010624,2.0017,-0.00010651,-0.0084535,0.56212
26486,10.632,0.72727,0.1,0.00032004,3198.2,0.00032004,3198.2,-0.0001056,0.13537,-0.00010563,-0.076001,0.57076
26487,10.54,1,0.1,0.00032217,3219.5,0.00032224,3221.7,-0.00010594,4.4443,-0.00010654,-0.0060741,0.56292
26488,10.632,0.90909,0.1,0.00031977,3195.5,0.00031981,3196.7,-0.00010532,2.4551,-0.00010565,-0.0081223,0.57159
26489,10.54,1.1818,0.1,0.00032192,3216.9,0.00032203,3220.3,-0.00010567,6.7376,-0.00010657,-0.0054072,0.56364
26490,10.632,1.0909,0.1,0.00031952,3193,0.0003196,3195.3,-0.00010505,4.7044,-0.00010567,-0.0061923,0.57235
26491,10.54,1.3636,0.1,0.00032168,3214.6,0.00032183,3219,-0.00010541,8.8647,-0.00010659,-0.0050519,0.5643
26492,10.632,1.2727,0.1,0.00031928,3190.6,0.0003194,3194,-0.00010479,6.8038,-0.0001057,-0.0054948,0.57303
26493,10.54,1.5455,0.1,0.00032147,3212.5,0.00032165,3217.9,-0.00010518,10.81,-0.00010662,-0.004824,0.56489
26494,10.632,1.4545,0.1,0.00031907,3188.5,0.00031922,3192.8,-0.00010456,8.738,-0.00010573,-0.0051317,0.57365
26495,10.54,1.7273,0.1,0.00032128,3210.6,0.00032149,3216.8,-0.00010497,12.561,-0.00010664,-0.0046553,0.5654
26496,10.632,1.6364,0.1,0.00031887,3186.5,0.00031905,3191.8,-0.00010435,10.493,-0.00010575,-0.0048949,0.5742
26497,10.54,1.9091,0.1,0.00032111,3208.9,0.00032135,3215.9,-0.00010479,14.105,-0.00010667,-0.0045236,0.56585
26498,10.632,1.8182,0.1,0.0003187,3184.8,0.00031891,3190.8,-0.00010416,12.058,-0.00010577,-0.0047255,0.57468
26499,10.54,2.0909,0.1,0.00032097,3207.5,0.00032123,3215.2,-0.00010463,15.43,-0.00010668,-0.0044177,0.56623
26500,10.632,2,0.1,0.00031855,3183.3,0.00031878,3190,-0.000104,13.42,-0.00010579,-0.0045972,0.57509
26501,10.54,2.2727,0.1,0.00032085,3206.3,0.00032113,3214.5,-0.0001045,16.528,-0.0001067,-0.0043334,0.56654
26502,10.632,2.1818,0.1,0.00031843,3182.1,0.00031867,3189.3,-0.00010386,14.571,-0.0001058,-0.0044968,0.57543
26503,10.54,2.4545,0.1,0.00032076,3205.4,0.00032105,3214,-0.0001044,17.39,-0.00010671,-0.0042696,0.56678
26504,10.632,2.3636,0.1,0.00031833,3181.1,0.00031859,3188.8,-0.00010375,15.501,-0.00010582,-0.0044203,0.57571
26505,10.54,2.6364,0.1,0.00032069,3204.7,0.000321,3213.7,-0.00010432,18.011,-0.00010672,-0.004224,0.56696
26506,10.632,2.5455,0.1,0.00031825,3180.3,0.00031852,3188.4,-0.00010367,16.205,-0.00010582,-0.0043653,0.57591
26507,10.54,2.8182,0.1,0.00032065,3204.3,0.00032096,3213.5,-0.00010428,18.385,-0.00010673,-0.0041964,0.56706
26508,10.632,2.7273,0.1,0.0003182,3179.8,0.00031848,3188.1,-0.00010361,16.677,-0.00010583,-0.0043282,0.57605
26509,10.54,3,0.1,0.00032064,3204.2,0.00032095,3213.4,-0.00010426,18.51,-0.00010673,-0.0041873,0.56709
26510,10.632,2.9091,0.1,0.00031817,3179.5,0.00031846,3188,-0.00010358,16.914,-0.00010583,-0.0043098,0.57612
26511,10.54,3.1818,0.1,0.00032065,3204.3,0.00032096,3213.5,-0.00010428,18.385,-0.00010673,-0.0041962,0.56706
26512,10.632,3.0909,0.1,0.00031817,3179.5,0.00031846,3188,-0.00010358,16.914,-0.00010583,-0.0043096,0.57612
26513,10.54,3.3636,0.1,0.00032069,3204.7,0.000321,3213.7,-0.00010432,18.011,-0.00010672,-0.004224,0.56696
26514,10.632,3.2727,0.1,0.0003182,3179.8,0.00031848,3188.1,-0.00010361,16.677,-0.00010583,-0.0043282,0.57605
26515,10.54,3.5455,0.1,0.00032076,3205.4,0.00032105,3214,-0.0001044,17.39,-0.00010671,-0.0042695,0.56678
26516,10.632,3.4545,0.1,0.00031825,3180.3,0.00031852,3188.4,-0.00010367,16.205,-0.00010582,-0.0043654,0.57591
26517,10.54,3.7273,0.1,0.00032085,3206.3,0.00032113,3214.5,-0.0001045,16.528,-0.0001067,-0.0043334,0.56654
26518,10.632,3.6364,0.1,0.00031833,3181.1,0.00031859,3188.8,-0.00010375,15.501,-0.00010582,-0.00442,0.57571
26519,10.54,3.9091,0.1,0.00032097,3207.5,0.00032123,3215.2,-0.00010463,15.43,-0.00010668,-0.0044175,0.56623
26520,10.632,3.8182,0.1,0.00031843,3182.1,0.00031867,3189.3,-0.00010386,14.571,-0.0001058,-0.0044967,0.57543
26521,10.54,4.0909,0.1,0.00032111,3208.9,0.00032135,3215.9,-0.00010479,14.105,-0.00010667,-0.004523,0.56585
26522,10.632,4,0.1,0.00031855,3183.3,0.00031878,3190,-0.000104,13.42,-0.00010579,-0.0045966,0.57509
26523,10.54,4.2727,0.1,0.00032128,3210.6,0.00032149,3216.8,-0.00010497,12.561,-0.00010664,-0.0046543,0.5654
26524,10.632,4.1818,0.1,0.0003187,3184.8,0.00031891,3190.8,-0.00010416,12.058,-0.00010577,-0.004725,0.57468
26525,10.54,4.4545,0.1,0.00032147,3212.5,0.00032165,3217.9,-0.00010518,10.81,-0.00010662,-0.0048232,0.56489
26526,10.632,4.3636,0.1,0.00031887,3186.5,0.00031905,3191.8,-0.00010435,10.493,-0.00010575,-0.0048939,0.5742
26527,10.54,4.6364,0.1,0.00032168,3214.6,0.00032183,3219,-0.00010541,8.8646,-0.00010659,-0.0050514,0.5643
26528,10.632,4.5455,0.1,0.00031907,3188.5,0.00031922,3192.8,-0.00010456,8.738,-0.00010573,-0.0051313,0.57365
26529,10.54,4.8182,0.1,0.00032192,3216.9,0.00032203,3220.3,-0.00010567,6.7376,-0.00010657,-0.0054068,0.56364
26530,10.632,4.7273,0.1,0.00031928,3190.6,0.0003194,3194,-0.00010479,6.8038,-0.0001057,-0.0054943,0.57303
26531,10.54,5,0.1,0.00032217,3219.5,0.00032224,3221.7,-0.00010594,4.4443,-0.00010654,-0.006073,0.56292
26532,10.632,4.9091,0.1,0.00031952,3193,0.0003196,3195.3,-0.00010505,4.7044,-0.00010567,-0.0061919,0.57235
26533,10.54,5.1818,0.1,0.00032244,3222.2,0.00032247,3223.2,-0.00010624,2.0016,-0.00010651,-0.0084521,0.56212
26534,10.632,5.0909,0.1,0.00031977,3195.5,0.00031981,3196.7,-0.00010532,2.4551,-0.00010565,-0.0081204,0.57159
26535,10.54,5.3636,0.1,0.00032273,3225.1,0.00032272,3224.8,-0.00010647,0.009838,-0.00010655,-0.59745,0.56125
26536,10.632,5.2727,0.1,0.00032004,3198.2,0.00032004,3198.2,-0.0001056,0.13533,-0.00010563,-0.076018,0.57076
26537,10.54,5.5455,0.1,0.00032304,3228.2,0.00032298,3226.5,-0.00010644,-0.0033269,-0.00010688,-3.3197,0.56032
26538,10.632,5.4545,0.1,0.00032032,3201,0.00032028,3199.8,-0.00010559,0.00054755,-0.00010591,-2.4517,0.56987
26539,10.54,5.7273,0.1,0.00032345,3232.2,0.00032333,3228.9,-0.0001064,0.00012437,-0.0001073,-6.7334,0.55931
26540,10.632,5.6364,0.1,0.00032064,3204.1,0.00032055,3201.6,-0.00010556,-0.0052421,-0.00010624,-5.1348,0.56891
26541,10.632,5.8182,0.1,0.00032113,3209.1,0.00032098,3204.6,-0.00010552,0.0064031,-0.00010673,-9.0704,0.56787
26542,10.54,5.9091,0.1,0.00032327,3230.5,0.00032317,3227.4,-0.00010637,0.0016232,-0.0001072,-6.1799,0.55824
26543,10.725,0.27273,0.1,0.00031831,3180.9,0.00031818,3177.2,-0.00010468,0.000362,-0.00010566,-7.3853,0.57754
26544,10.817,0.18182,0.1,0.00031599,3157.8,0.00031583,3153,-0.0001038,0.005318,-0.00010508,-9.579,0.58622
26545,10.725,0.090909,0.1,0.0003181,3178.8,0.00031799,3175.5,-0.00010465,0.0014764,-0.00010551,-6.4914,0.57648
26546,10.725,0.45455,0.1,0.00031792,3177,0.00031785,3174.9,-0.0001047,-0.002211,-0.00010527,-4.2424,0.57853
26547,10.817,0.36364,0.1,0.00031551,3153,0.00031541,3150,-0.00010383,-0.0036163,-0.00010461,-5.8974,0.58724
26548,10.725,0.63636,0.1,0.00031763,3174.1,0.0003176,3173.2,-0.00010473,0.002958,-0.00010497,-1.7869,0.57945
26549,10.817,0.54545,0.1,0.00031523,3150.1,0.00031517,3148.3,-0.00010385,0.00071847,-0.00010432,-3.4843,0.58819
26550,10.725,0.81818,0.1,0.00031736,3171.5,0.00031737,3171.7,-0.00010468,0.55756,-0.00010476,-0.024987,0.58031
26551,10.817,0.72727,0.1,0.00031496,3147.4,0.00031494,3146.8,-0.00010387,0.007104,-0.00010404,-1.2422,0.58907
26552,10.725,1,0.1,0.00031711,3168.9,0.00031716,3170.3,-0.00010442,2.734,-0.00010478,-0.0081868,0.58109
26553,10.817,0.90909,0.1,0.00031471,3144.9,0.00031473,3145.4,-0.00010378,0.91956,-0.0001039,-0.018141,0.58988
26554,10.725,1.1818,0.1,0.00031688,3166.6,0.00031696,3169,-0.00010417,4.789,-0.00010481,-0.006342,0.58181
26555,10.817,1.0909,0.1,0.00031448,3142.6,0.00031453,3144.1,-0.00010353,2.9232,-0.00010392,-0.0082595,0.59063
26556,10.725,1.3636,0.1,0.00031667,3164.5,0.00031678,3167.8,-0.00010394,6.6951,-0.00010483,-0.0056214,0.58246
26557,10.817,1.2727,0.1,0.00031426,3140.5,0.00031434,3142.9,-0.00010331,4.799,-0.00010394,-0.0064754,0.5913
26558,10.725,1.5455,0.1,0.00031647,3162.5,0.00031661,3166.7,-0.00010373,8.4386,-0.00010485,-0.0052341,0.58304
26559,10.817,1.4545,0.1,0.00031407,3138.5,0.00031418,3141.7,-0.0001031,6.5272,-0.00010397,-0.0057387,0.59191
26560,10.725,1.7273,0.1,0.00031629,3160.8,0.00031646,3165.8,-0.00010354,10.007,-0.00010487,-0.004986,0.58355
26561,10.817,1.6364,0.1,0.00031389,3136.7,0.00031402,3140.7,-0.00010291,8.0956,-0.00010398,-0.0053318,0.59246
26562,10.725,1.9091,0.1,0.00031614,3159.2,0.00031633,3164.9,-0.00010337,11.39,-0.00010489,-0.0048127,0.58399
26563,10.817,1.8182,0.1,0.00031373,3135.1,0.00031389,3139.9,-0.00010274,9.4931,-0.000104,-0.0050743,0.59293
26564,10.725,2.0909,0.1,0.00031601,3157.9,0.00031622,3164.2,-0.00010323,12.577,-0.00010491,-0.0046849,0.58436
26565,10.817,2,0.1,0.00031359,3133.8,0.00031377,3139.1,-0.00010259,10.71,-0.00010402,-0.0048976,0.59333
26566,10.725,2.2727,0.1,0.0003159,3156.8,0.00031613,3163.6,-0.00010311,13.56,-0.00010492,-0.0045889,0.58467
26567,10.817,2.1818,0.1,0.00031348,3132.6,0.00031368,3138.5,-0.00010247,11.737,-0.00010403,-0.0047698,0.59367
26568,10.725,2.4545,0.1,0.00031582,3156,0.00031606,3163.1,-0.00010302,14.332,-0.00010493,-0.0045188,0.58491
26569,10.817,2.3636,0.1,0.00031338,3131.7,0.0003136,3137.9,-0.00010237,12.568,-0.00010404,-0.0046774,0.59394
26570,10.725,2.6364,0.1,0.00031575,3155.4,0.00031601,3162.8,-0.00010295,14.887,-0.00010494,-0.0044708,0.58508
26571,10.817,2.5455,0.1,0.00031331,3131,0.00031354,3137.6,-0.00010229,13.197,-0.00010405,-0.0046138,0.59415
26572,10.725,2.8182,0.1,0.00031572,3155,0.00031597,3162.6,-0.00010291,15.222,-0.00010494,-0.0044421,0.58518
26573,10.817,2.7273,0.1,0.00031327,3130.5,0.0003135,3137.3,-0.00010224,13.619,-0.00010405,-0.0045721,0.59428
26574,10.725,3,0.1,0.00031571,3154.9,0.00031596,3162.5,-0.0001029,15.334,-0.00010494,-0.0044323,0.58522
26575,10.817,2.9091,0.1,0.00031324,3130.3,0.00031348,3137.2,-0.00010221,13.83,-0.00010406,-0.0045514,0.59435
26576,10.725,3.1818,0.1,0.00031572,3155,0.00031597,3162.6,-0.00010291,15.222,-0.00010494,-0.004442,0.58518
26577,10.817,3.0909,0.1,0.00031324,3130.3,0.00031348,3137.2,-0.00010221,13.83,-0.00010406,-0.0045514,0.59435
26578,10.725,3.3636,0.1,0.00031575,3155.4,0.00031601,3162.8,-0.00010295,14.887,-0.00010494,-0.0044709,0.58508
26579,10.817,3.2727,0.1,0.00031327,3130.5,0.0003135,3137.3,-0.00010224,13.619,-0.00010405,-0.0045721,0.59428
26580,10.725,3.5455,0.1,0.00031582,3156,0.00031606,3163.1,-0.00010302,14.332,-0.00010493,-0.0045186,0.58491
26581,10.817,3.4545,0.1,0.00031331,3131,0.00031354,3137.6,-0.00010229,13.197,-0.00010405,-0.0046135,0.59415
26582,10.725,3.7273,0.1,0.0003159,3156.8,0.00031613,3163.6,-0.00010311,13.56,-0.00010492,-0.0045884,0.58467
26583,10.817,3.6364,0.1,0.00031338,3131.7,0.0003136,3137.9,-0.00010237,12.568,-0.00010404,-0.0046771,0.59394
26584,10.725,3.9091,0.1,0.00031601,3157.9,0.00031622,3164.2,-0.00010323,12.577,-0.00010491,-0.0046844,0.58436
26585,10.817,3.8182,0.1,0.00031348,3132.6,0.00031368,3138.5,-0.00010247,11.737,-0.00010403,-0.0047695,0.59367
26586,10.725,4.0909,0.1,0.00031614,3159.2,0.00031633,3164.9,-0.00010337,11.39,-0.00010489,-0.0048122,0.58399
26587,10.817,4,0.1,0.00031359,3133.8,0.00031377,3139.1,-0.00010259,10.71,-0.00010402,-0.0048971,0.59333
26588,10.725,4.2727,0.1,0.00031629,3160.8,0.00031646,3165.8,-0.00010354,10.007,-0.00010487,-0.0049854,0.58355
26589,10.817,4.1818,0.1,0.00031373,3135.1,0.00031389,3139.9,-0.00010274,9.493,-0.000104,-0.005074,0.59293
26590,10.725,4.4545,0.1,0.00031647,3162.5,0.00031661,3166.7,-0.00010373,8.4385,-0.00010485,-0.0052335,0.58304
26591,10.817,4.3636,0.1,0.00031389,3136.7,0.00031402,3140.7,-0.00010291,8.0956,-0.00010398,-0.0053312,0.59246
26592,10.725,4.6364,0.1,0.00031667,3164.5,0.00031678,3167.8,-0.00010394,6.6951,-0.00010483,-0.005621,0.58246
26593,10.817,4.5455,0.1,0.00031407,3138.5,0.00031418,3141.7,-0.0001031,6.5272,-0.00010397,-0.0057382,0.59191
26594,10.725,4.8182,0.1,0.00031688,3166.6,0.00031696,3169,-0.00010417,4.789,-0.00010481,-0.0063415,0.58181
26595,10.817,4.7273,0.1,0.00031426,3140.5,0.00031434,3142.9,-0.00010331,4.7989,-0.00010394,-0.0064749,0.5913
26596,10.725,5,0.1,0.00031711,3168.9,0.00031716,3170.3,-0.00010442,2.734,-0.00010478,-0.0081855,0.58109
26597,10.817,4.9091,0.1,0.00031448,3142.6,0.00031453,3144.1,-0.00010353,2.9231,-0.00010392,-0.008259,0.59063
26598,10.725,5.1818,0.1,0.00031736,3171.5,0.00031737,3171.7,-0.00010468,0.55751,-0.00010476,-0.024987,0.58031
26599,10.817,5.0909,0.1,0.00031471,3144.9,0.00031473,3145.4,-0.00010378,0.91951,-0.0001039,-0.01814,0.58988
26600,10.725,5.3636,0.1,0.00031763,3174.1,0.0003176,3173.2,-0.00010473,0.002958,-0.00010497,-1.787,0.57945
26601,10.817,5.2727,0.1,0.00031496,3147.4,0.00031494,3146.8,-0.00010387,0.0071044,-0.00010404,-1.2423,0.58907
26602,10.725,5.5455,0.1,0.00031792,3177,0.00031785,3174.9,-0.0001047,-0.0022107,-0.00010527,-4.2424,0.57853
26603,10.817,5.4545,0.1,0.00031523,3150.1,0.00031517,3148.3,-0.00010385,0.00071815,-0.00010432,-3.4843,0.58819
26604,10.725,5.7273,0.1,0.00031831,3180.9,0.00031818,3177.2,-0.00010468,0.00036312,-0.00010566,-7.3854,0.57754
26605,10.817,5.6364,0.1,0.00031551,3153,0.00031541,3150,-0.00010383,-0.0036163,-0.00010461,-5.8974,0.58724
26606,10.817,5.8182,0.1,0.00031599,3157.8,0.00031583,3153,-0.0001038,0.0053193,-0.00010508,-9.579,0.58622
26607,10.725,5.9091,0.1,0.0003181,3178.8,0.00031799,3175.5,-0.00010465,0.0014777,-0.00010551,-6.4915,0.57648
26608,10.909,0.27273,0.1,0.00031319,3129.7,0.00031305,3125.7,-0.00010296,0.00072501,-0.00010402,-8.0031,0.59598
26609,11.002,0.18182,0.1,0.00031088,3106.6,0.0003107,3101.6,-0.00010209,0.0044383,-0.00010343,-10.062,0.60477
26610,10.909,0.090909,0.1,0.00031295,3127.3,0.00031283,3123.9,-0.00010294,0.0014435,-0.00010384,-6.7877,0.59494
26611,10.909,0.45455,0.1,0.00031282,3126,0.00031273,3123.5,-0.00010298,-0.0011599,-0.00010366,-5.1148,0.59696
26612,11.002,0.36364,0.1,0.00031041,3102,0.0003103,3098.7,-0.00010211,-0.0020865,-0.00010299,-6.6198,0.60578
26613,10.909,0.63636,0.1,0.00031255,3123.4,0.0003125,3121.9,-0.000103,0.0019738,-0.00010339,-2.916,0.59787
26614,11.002,0.54545,0.1,0.00031014,3099.3,0.00031007,3097.1,-0.00010213,0.0010159,-0.00010272,-4.4615,0.60672
26615,10.909,0.81818,0.1,0.0003123,3120.9,0.00031229,3120.5,-0.00010302,0.014007,-0.00010313,-0.86037,0.59871
26616,11.002,0.72727,0.1,0.0003099,3096.9,0.00030986,3095.6,-0.00010214,0.0034421,-0.00010247,-2.4626,0.60759
26617,10.909,1,0.1,0.00031207,3118.6,0.00031209,3119.1,-0.00010289,1.1265,-0.00010304,-0.01659,0.59949
26618,11.002,0.90909,0.1,0.00030967,3094.6,0.00030966,3094.3,-0.00010216,0.024519,-0.00010224,-0.58396,0.60839
26619,10.909,1.1818,0.1,0.00031186,3116.4,0.00031191,3117.9,-0.00010267,2.9521,-0.00010306,-0.0084916,0.60019
26620,11.002,1.0909,0.1,0.00030946,3092.4,0.00030948,3093,-0.00010202,1.2459,-0.00010218,-0.015999,0.60912
26621,10.909,1.3636,0.1,0.00031166,3114.5,0.00031174,3116.8,-0.00010246,4.6496,-0.00010308,-0.0066759,0.60083
26622,11.002,1.2727,0.1,0.00030926,3090.4,0.00030931,3091.9,-0.00010181,2.9064,-0.0001022,-0.008725,0.60979
26623,10.909,1.5455,0.1,0.00031148,3112.7,0.00031159,3115.8,-0.00010227,6.2024,-0.0001031,-0.0058893,0.6014
26624,11.002,1.4545,0.1,0.00030908,3088.6,0.00030915,3090.8,-0.00010162,4.4399,-0.00010222,-0.0068653,0.61039
26625,10.909,1.7273,0.1,0.00031132,3111.1,0.00031145,3114.8,-0.0001021,7.5993,-0.00010311,-0.0054533,0.60191
26626,11.002,1.6364,0.1,0.00030891,3087,0.00030901,3089.9,-0.00010145,5.8318,-0.00010223,-0.0060309,0.61093
26627,10.909,1.9091,0.1,0.00031118,3109.6,0.00031133,3114,-0.00010195,8.8306,-0.00010313,-0.0051799,0.60234
26628,11.002,1.8182,0.1,0.00030877,3085.5,0.00030889,3089.1,-0.0001013,7.072,-0.00010224,-0.0055676,0.61139
26629,10.909,2.0909,0.1,0.00031106,3108.4,0.00031123,3113.4,-0.00010182,9.8876,-0.00010314,-0.0049949,0.60271
26630,11.002,2,0.1,0.00030864,3084.3,0.00030878,3088.4,-0.00010117,8.1519,-0.00010226,-0.0052788,0.61179
26631,10.909,2.2727,0.1,0.00031096,3107.4,0.00031114,3112.8,-0.00010172,10.763,-0.00010315,-0.0048653,0.60302
26632,11.002,2.1818,0.1,0.00030854,3083.2,0.00030869,3087.8,-0.00010106,9.0637,-0.00010227,-0.0050858,0.61213
26633,10.909,2.4545,0.1,0.00031088,3106.7,0.00031107,3112.4,-0.00010163,11.45,-0.00010316,-0.0047757,0.60325
26634,11.002,2.3636,0.1,0.00030845,3082.4,0.00030862,3087.3,-0.00010097,9.8012,-0.00010227,-0.0049547,0.61239
26635,10.909,2.6364,0.1,0.00031082,3106.1,0.00031103,3112.1,-0.00010157,11.945,-0.00010316,-0.0047161,0.60342
26636,11.002,2.5455,0.1,0.00030839,3081.7,0.00030856,3086.9,-0.0001009,10.359,-0.00010228,-0.0048677,0.61259
26637,10.909,2.8182,0.1,0.00031079,3105.8,0.000311,3111.9,-0.00010154,12.243,-0.00010317,-0.0046812,0.60352
26638,11.002,2.7273,0.1,0.00030834,3081.3,0.00030853,3086.7,-0.00010086,10.733,-0.00010229,-0.004813,0.61273
26639,10.909,3,0.1,0.00031078,3105.7,0.00031099,3111.8,-0.00010153,12.343,-0.00010317,-0.0046699,0.60355
26640,11.002,2.9091,0.1,0.00030832,3081.1,0.00030851,3086.5,-0.00010083,10.921,-0.00010229,-0.0047865,0.61279
26641,10.909,3.1818,0.1,0.00031079,3105.8,0.000311,3111.9,-0.00010154,12.243,-0.00010317,-0.0046813,0.60352
26642,11.002,3.0909,0.1,0.00030832,3081.1,0.00030851,3086.5,-0.00010083,10.921,-0.00010229,-0.0047866,0.61279
26643,10.909,3.3636,0.1,0.00031082,3106.1,0.00031103,3112.1,-0.00010157,11.945,-0.00010316,-0.0047157,0.60342
26644,11.002,3.2727,0.1,0.00030834,3081.3,0.00030853,3086.7,-0.00010086,10.733,-0.00010229,-0.0048131,0.61273
26645,10.909,3.5455,0.1,0.00031088,3106.7,0.00031107,3112.4,-0.00010163,11.45,-0.00010316,-0.0047752,0.60325
26646,11.002,3.4545,0.1,0.00030839,3081.7,0.00030856,3086.9,-0.0001009,10.359,-0.00010228,-0.0048674,0.61259
26647,10.909,3.7273,0.1,0.00031096,3107.4,0.00031114,3112.8,-0.00010172,10.763,-0.00010315,-0.0048651,0.60302
26648,11.002,3.6364,0.1,0.00030845,3082.4,0.00030862,3087.3,-0.00010097,9.8012,-0.00010227,-0.0049546,0.61239
26649,10.909,3.9091,0.1,0.00031106,3108.4,0.00031123,3113.4,-0.00010182,9.8876,-0.00010314,-0.0049945,0.60271
26650,11.002,3.8182,0.1,0.00030854,3083.2,0.00030869,3087.8,-0.00010106,9.0637,-0.00010227,-0.0050858,0.61213
26651,10.909,4.0909,0.1,0.00031118,3109.6,0.00031133,3114,-0.00010195,8.8306,-0.00010313,-0.0051795,0.60234
26652,11.002,4,0.1,0.00030864,3084.3,0.00030878,3088.4,-0.00010117,8.1518,-0.00010226,-0.0052782,0.61179
26653,10.909,4.2727,0.1,0.00031132,3111.1,0.00031145,3114.8,-0.0001021,7.5993,-0.00010311,-0.0054529,0.60191
26654,11.002,4.1818,0.1,0.00030877,3085.5,0.00030889,3089.1,-0.0001013,7.072,-0.00010224,-0.0055673,0.61139
26655,10.909,4.4545,0.1,0.00031148,3112.7,0.00031159,3115.8,-0.00010227,6.2023,-0.0001031,-0.0058888,0.6014
26656,11.002,4.3636,0.1,0.00030891,3087,0.00030901,3089.9,-0.00010145,5.8318,-0.00010223,-0.0060306,0.61093
26657,10.909,4.6364,0.1,0.00031166,3114.5,0.00031174,3116.8,-0.00010246,4.6495,-0.00010308,-0.0066753,0.60083
26658,11.002,4.5455,0.1,0.00030908,3088.6,0.00030915,3090.8,-0.00010162,4.4399,-0.00010222,-0.0068648,0.61039
26659,10.909,4.8182,0.1,0.00031186,3116.4,0.00031191,3117.9,-0.00010267,2.952,-0.00010306,-0.0084909,0.60019
26660,11.002,4.7273,0.1,0.00030926,3090.4,0.00030931,3091.9,-0.00010181,2.9064,-0.0001022,-0.0087247,0.60979
26661,10.909,5,0.1,0.00031207,3118.6,0.00031209,3119.1,-0.00010289,1.1264,-0.00010304,-0.016589,0.59949
26662,11.002,4.9091,0.1,0.00030946,3092.4,0.00030948,3093,-0.00010202,1.2458,-0.00010218,-0.015999,0.60912
26663,10.909,5.1818,0.1,0.0003123,3120.9,0.00031229,3120.5,-0.00010302,0.014007,-0.00010313,-0.86042,0.59871
26664,11.002,5.0909,0.1,0.00030967,3094.6,0.00030966,3094.3,-0.00010216,0.024517,-0.00010224,-0.58402,0.60839
26665,10.909,5.3636,0.1,0.00031255,3123.4,0.0003125,3121.9,-0.000103,0.0019742,-0.00010339,-2.9161,0.59787
26666,11.002,5.2727,0.1,0.0003099,3096.9,0.00030986,3095.6,-0.00010214,0.0034429,-0.00010247,-2.4627,0.60759
26667,10.909,5.5455,0.1,0.00031282,3126,0.00031273,3123.5,-0.00010298,-0.0011595,-0.00010366,-5.1149,0.59696
26668,11.002,5.4545,0.1,0.00031014,3099.3,0.00031007,3097.1,-0.00010213,0.0010158,-0.00010272,-4.4615,0.60672
26669,10.909,5.7273,0.1,0.00031319,3129.7,0.00031305,3125.7,-0.00010296,0.00072618,-0.00010402,-8.0031,0.59598
26670,11.002,5.6364,0.1,0.00031041,3102,0.0003103,3098.7,-0.00010211,-0.0020857,-0.00010299,-6.6198,0.60578
26671,11.002,5.8182,0.1,0.00031088,3106.6,0.0003107,3101.6,-0.00010209,0.0044392,-0.00010343,-10.062,0.60477
26672,10.909,5.9091,0.1,0.00031295,3127.3,0.00031283,3123.9,-0.00010294,0.0014449,-0.00010384,-6.7877,0.59494
26673,11.094,0.27273,0.1,0.00030809,3078.8,0.00030794,3074.5,-0.00010124,0.0011664,-0.00010239,-8.5896,0.61464
26674,11.187,0.18182,0.1,0.00030578,3055.7,0.0003056,3050.4,-0.00010039,0.0037162,-0.00010179,-10.522,0.62354
26675,11.094,0.090909,0.1,0.00030782,3076.1,0.0003077,3072.5,-0.00010123,0.0014944,-0.00010217,-7.0697,0.61361
26676,11.094,0.45455,0.1,0.00030774,3075.2,0.00030764,3072.3,-0.00010126,-0.00016662,-0.00010205,-5.9418,0.6156
26677,11.187,0.36364,0.1,0.00030533,3051.2,0.00030521,3047.6,-0.0001004,-0.00060967,-0.00010137,-7.3057,0.62453
26678,11.094,0.63636,0.1,0.00030749,3072.8,0.00030742,3070.8,-0.00010127,0.0017831,-0.0001018,-3.9863,0.6165
26679,11.187,0.54545,0.1,0.00030508,3048.7,0.00030499,3046,-0.00010041,0.0013517,-0.00010113,-5.3887,0.62546
26680,11.094,0.81818,0.1,0.00030726,3070.5,0.00030723,3069.4,-0.00010129,0.0051433,-0.00010158,-2.157,0.61733
26681,11.187,0.72727,0.1,0.00030486,3046.5,0.0003048,3044.7,-0.00010042,0.0025002,-0.00010091,-3.6226,0.62631
26682,11.094,1,0.1,0.00030705,3068.4,0.00030704,3068.2,-0.0001013,0.034673,-0.00010137,-0.45429,0.61809
26683,11.187,0.90909,0.1,0.00030465,3044.4,0.00030461,3043.4,-0.00010044,0.0065068,-0.0001007,-1.9511,0.62711
26684,11.094,1.1818,0.1,0.00030685,3066.4,0.00030687,3067,-0.00010116,1.22,-0.00010132,-0.016708,0.61879
26685,11.187,1.0909,0.1,0.00030445,3042.4,0.00030444,3042.2,-0.00010044,0.040144,-0.0001005,-0.40755,0.62783
26686,11.094,1.3636,0.1,0.00030667,3064.6,0.00030672,3065.9,-0.00010097,2.7159,-0.00010134,-0.0091662,0.61942
26687,11.187,1.2727,0.1,0.00030427,3040.6,0.00030429,3041.1,-0.00010031,1.1199,-0.00010046,-0.017971,0.62849
26688,11.094,1.5455,0.1,0.00030651,3062.9,0.00030657,3065,-0.0001008,4.088,-0.00010135,-0.0071334,0.61998
26689,11.187,1.4545,0.1,0.0003041,3038.9,0.00030414,3040.1,-0.00010015,2.4639,-0.00010048,-0.0096704,0.62908
26690,11.094,1.7273,0.1,0.00030636,3061.5,0.00030645,3064.1,-0.00010065,5.3228,-0.00010136,-0.0062146,0.62048
26691,11.187,1.6364,0.1,0.00030395,3037.4,0.00030401,3039.3,-9.9995e-05,3.688,-0.00010049,-0.0074118,0.62961
26692,11.094,1.9091,0.1,0.00030623,3060.2,0.00030634,3063.4,-0.00010052,6.4112,-0.00010137,-0.0057059,0.62091
26693,11.187,1.8182,0.1,0.00030382,3036.1,0.0003039,3038.5,-9.986e-05,4.7793,-0.0001005,-0.0063952,0.63007
26694,11.094,2.0909,0.1,0.00030612,3059.1,0.00030624,3062.7,-0.0001004,7.3456,-0.00010138,-0.0053916,0.62128
26695,11.187,2,0.1,0.0003037,3034.9,0.0003038,3037.8,-9.9743e-05,5.7297,-0.00010051,-0.0058362,0.63046
26696,11.094,2.2727,0.1,0.00030603,3058.2,0.00030616,3062.2,-0.00010031,8.1194,-0.00010139,-0.0051866,0.62157
26697,11.187,2.1818,0.1,0.00030361,3034,0.00030372,3037.2,-9.9644e-05,6.5323,-0.00010051,-0.0054956,0.63079
26698,11.094,2.4545,0.1,0.00030596,3057.5,0.0003061,3061.8,-0.00010024,8.7271,-0.0001014,-0.0050514,0.62181
26699,11.187,2.3636,0.1,0.00030353,3033.2,0.00030365,3036.8,-9.9564e-05,7.1814,-0.00010052,-0.005278,0.63105
26700,11.094,2.6364,0.1,0.00030591,3056.9,0.00030606,3061.5,-0.00010018,9.1643,-0.0001014,-0.0049652,0.62197
26701,11.187,2.5455,0.1,0.00030347,3032.6,0.0003036,3036.4,-9.9504e-05,7.6724,-0.00010053,-0.0051396,0.63125
26702,11.094,2.8182,0.1,0.00030587,3056.6,0.00030603,3061.3,-0.00010015,9.4279,-0.00010141,-0.0049166,0.62207
26703,11.187,2.7273,0.1,0.00030343,3032.2,0.00030357,3036.2,-9.9464e-05,8.0018,-0.00010053,-0.0050562,0.63138
26704,11.094,3,0.1,0.00030586,3056.5,0.00030602,3061.3,-0.00010014,9.5159,-0.00010141,-0.0049008,0.6221
26705,11.187,2.9091,0.1,0.00030341,3032,0.00030355,3036.1,-9.9443e-05,8.167,-0.00010053,-0.0050167,0.63145
26706,11.094,3.1818,0.1,0.00030587,3056.6,0.00030603,3061.3,-0.00010015,9.4278,-0.00010141,-0.0049167,0.62207
26707,11.187,3.0909,0.1,0.00030341,3032,0.00030355,3036.1,-9.9443e-05,8.167,-0.00010053,-0.0050165,0.63145
26708,11.094,3.3636,0.1,0.00030591,3056.9,0.00030606,3061.5,-0.00010018,9.1642,-0.0001014,-0.0049652,0.62197
26709,11.187,3.2727,0.1,0.00030343,3032.2,0.00030357,3036.2,-9.9464e-05,8.0017,-0.00010053,-0.0050562,0.63138
26710,11.094,3.5455,0.1,0.00030596,3057.5,0.0003061,3061.8,-0.00010024,8.727,-0.0001014,-0.0050513,0.62181
26711,11.187,3.4545,0.1,0.00030347,3032.6,0.0003036,3036.4,-9.9504e-05,7.6724,-0.00010053,-0.0051393,0.63125
26712,11.094,3.7273,0.1,0.00030603,3058.2,0.00030616,3062.2,-0.00010031,8.1194,-0.00010139,-0.0051866,0.62157
26713,11.187,3.6364,0.1,0.00030353,3033.2,0.00030365,3036.8,-9.9564e-05,7.1814,-0.00010052,-0.0052778,0.63105
26714,11.094,3.9091,0.1,0.00030612,3059.1,0.00030624,3062.7,-0.0001004,7.3456,-0.00010138,-0.0053914,0.62128
26715,11.187,3.8182,0.1,0.00030361,3034,0.00030372,3037.2,-9.9644e-05,6.5323,-0.00010051,-0.0054951,0.63079
26716,11.094,4.0909,0.1,0.00030623,3060.2,0.00030634,3063.4,-0.00010052,6.4112,-0.00010137,-0.0057053,0.62091
26717,11.187,4,0.1,0.0003037,3034.9,0.0003038,3037.8,-9.9743e-05,5.7297,-0.00010051,-0.0058358,0.63046
26718,11.094,4.2727,0.1,0.00030636,3061.5,0.00030645,3064.1,-0.00010065,5.3227,-0.00010136,-0.0062143,0.62048
26719,11.187,4.1818,0.1,0.00030382,3036.1,0.0003039,3038.5,-9.986e-05,4.7793,-0.0001005,-0.0063949,0.63007
26720,11.094,4.4545,0.1,0.00030651,3062.9,0.00030657,3065,-0.0001008,4.088,-0.00010135,-0.007133,0.61998
26721,11.187,4.3636,0.1,0.00030395,3037.4,0.00030401,3039.3,-9.9995e-05,3.688,-0.00010049,-0.0074116,0.62961
26722,11.094,4.6364,0.1,0.00030667,3064.6,0.00030672,3065.9,-0.00010097,2.7159,-0.00010134,-0.0091659,0.61942
26723,11.187,4.5455,0.1,0.0003041,3038.9,0.00030414,3040.1,-0.00010015,2.4639,-0.00010048,-0.0096699,0.62908
26724,11.094,4.8182,0.1,0.00030685,3066.4,0.00030687,3067,-0.00010116,1.22,-0.00010132,-0.016708,0.61879
26725,11.187,4.7273,0.1,0.00030427,3040.6,0.00030429,3041.1,-0.00010031,1.1199,-0.00010046,-0.017971,0.62849
26726,11.094,5,0.1,0.00030705,3068.4,0.00030704,3068.2,-0.0001013,0.034669,-0.00010137,-0.45434,0.61809
26727,11.187,4.9091,0.1,0.00030445,3042.4,0.00030444,3042.2,-0.00010044,0.040139,-0.0001005,-0.4076,0.62783
26728,11.094,5.1818,0.1,0.00030726,3070.5,0.00030723,3069.4,-0.00010129,0.005144,-0.00010158,-2.1571,0.61733
26729,11.187,5.0909,0.1,0.00030465,3044.4,0.00030461,3043.4,-0.00010044,0.0065079,-0.0001007,-1.9511,0.62711
26730,11.094,5.3636,0.1,0.00030749,3072.8,0.00030742,3070.8,-0.00010127,0.0017835,-0.0001018,-3.9863,0.6165
26731,11.187,5.2727,0.1,0.00030486,3046.5,0.0003048,3044.7,-0.00010042,0.0025011,-0.00010091,-3.6227,0.62631
26732,11.094,5.5455,0.1,0.00030774,3075.2,0.00030764,3072.3,-0.00010126,-0.00016618,-0.00010205,-5.9418,0.6156
26733,11.187,5.4545,0.1,0.00030508,3048.7,0.00030499,3046,-0.00010041,0.0013523,-0.00010113,-5.3888,0.62546
26734,11.094,5.7273,0.1,0.00030809,3078.8,0.00030794,3074.5,-0.00010124,0.0011669,-0.00010239,-8.5896,0.61464
26735,11.187,5.6364,0.1,0.00030533,3051.2,0.00030521,3047.6,-0.0001004,-0.00060901,-0.00010137,-7.3057,0.62453
26736,11.187,5.8182,0.1,0.00030578,3055.7,0.0003056,3050.4,-0.00010039,0.0037166,-0.00010179,-10.522,0.62354
26737,11.094,5.9091,0.1,0.00030782,3076.1,0.0003077,3072.5,-0.00010123,0.0014949,-0.00010217,-7.0697,0.61361
26738,11.279,0.27273,0.1,0.00030301,3028,0.00030285,3023.4,-9.9539e-05,0.0016556,-0.00010076,-9.1475,0.63351
26739,11.372,0.18182,0.1,0.0003007,3004.9,0.00030051,2999.5,-9.8688e-05,0.0031175,-0.00010015,-10.96,0.64252
26740,11.279,0.090909,0.1,0.00030271,3025,0.00030259,3021.4,-9.9531e-05,0.0016051,-0.00010051,-7.3384,0.63249
26741,11.279,0.45455,0.1,0.00030267,3024.7,0.00030256,3021.3,-9.9549e-05,0.00077485,-0.00010044,-6.7277,0.63446
26742,11.372,0.36364,0.1,0.00030027,3000.6,0.00030013,2996.7,-9.8695e-05,0.00080496,-9.9754e-05,-7.9587,0.6435
26743,11.279,0.63636,0.1,0.00030245,3022.4,0.00030236,3019.9,-9.9559e-05,0.0018375,-0.00010023,-5.0033,0.63534
26744,11.372,0.54545,0.1,0.00030004,2998.3,0.00029993,2995.2,-9.8702e-05,0.0016972,-9.9537e-05,-6.2713,0.64441
26745,11.279,0.81818,0.1,0.00030224,3020.3,0.00030218,3018.6,-9.957e-05,0.003211,-0.00010002,-3.3952,0.63616
26746,11.372,0.72727,0.1,0.00029983,2996.3,0.00029975,2993.9,-9.871e-05,0.0022029,-9.934e-05,-4.7271,0.64525
26747,11.279,1,0.1,0.00030204,3018.3,0.00030201,3017.4,-9.958e-05,0.0071512,-9.9831e-05,-1.8793,0.63691
26748,11.372,0.90909,0.1,0.00029964,2994.3,0.00029958,2992.7,-9.8718e-05,0.0035767,-9.9154e-05,-3.2661,0.64603
26749,11.279,1.1818,0.1,0.00030186,3016.5,0.00030185,3016.3,-9.9587e-05,0.033582,-9.9656e-05,-0.48257,0.6376
26750,11.372,1.0909,0.1,0.00029946,2992.5,0.00029943,2991.6,-9.8727e-05,0.0070252,-9.898e-05,-1.894,0.64674
26751,11.279,1.3636,0.1,0.00030169,3014.9,0.00030171,3015.3,-9.9484e-05,0.89026,-9.9605e-05,-0.021462,0.63822
26752,11.372,1.2727,0.1,0.00029929,2990.8,0.00029928,2990.5,-9.8733e-05,0.024234,-9.882e-05,-0.63032,0.64739
26753,11.279,1.5455,0.1,0.00030154,3013.4,0.00030158,3014.4,-9.9335e-05,2.0835,-9.9613e-05,-0.010559,0.63877
26754,11.372,1.4545,0.1,0.00029914,2989.3,0.00029915,2989.6,-9.8664e-05,0.60132,-9.8748e-05,-0.028962,0.64798
26755,11.279,1.7273,0.1,0.00030141,3012,0.00030146,3013.6,-9.92e-05,3.1634,-9.9622e-05,-0.0078292,0.63926
26756,11.372,1.6364,0.1,0.000299,2988,0.00029903,2988.8,-9.8532e-05,1.6528,-9.8754e-05,-0.011857,0.6485
26757,11.279,1.9091,0.1,0.00030129,3010.8,0.00030136,3012.9,-9.9082e-05,4.1162,-9.9631e-05,-0.0066373,0.63969
26758,11.372,1.8182,0.1,0.00029888,2986.8,0.00029893,2988.1,-9.8414e-05,2.601,-9.8761e-05,-0.0083482,0.64895
26759,11.279,2.0909,0.1,0.00030119,3009.8,0.00030127,3012.3,-9.898e-05,4.9345,-9.9638e-05,-0.0059957,0.64005
26760,11.372,2,0.1,0.00029878,2985.7,0.00029884,2987.4,-9.831e-05,3.4281,-9.8767e-05,-0.006906,0.64934
26761,11.279,2.2727,0.1,0.00030111,3009,0.0003012,3011.8,-9.8896e-05,5.6122,-9.9644e-05,-0.0056133,0.64034
26762,11.372,2.1818,0.1,0.00029869,2984.9,0.00029876,2986.9,-9.8223e-05,4.127,-9.8773e-05,-0.0061554,0.64966
26763,11.279,2.4545,0.1,0.00030104,3008.4,0.00030115,3011.4,-9.883e-05,6.1445,-9.9649e-05,-0.0053761,0.64057
26764,11.372,2.3636,0.1,0.00029862,2984.1,0.0002987,2986.5,-9.8152e-05,4.6924,-9.8778e-05,-0.005721,0.64992
26765,11.279,2.6364,0.1,0.000301,3007.9,0.00030111,3011.1,-9.8783e-05,6.5275,-9.9652e-05,-0.0052312,0.64073
26766,11.372,2.5455,0.1,0.00029857,2983.6,0.00029865,2986.2,-9.8099e-05,5.1202,-9.8781e-05,-0.0054619,0.65012
26767,11.279,2.8182,0.1,0.00030097,3007.6,0.00030108,3011,-9.8754e-05,6.7585,-9.9655e-05,-0.005152,0.64083
26768,11.372,2.7273,0.1,0.00029853,2983.3,0.00029862,2986,-9.8063e-05,5.4071,-9.8784e-05,-0.0053124,0.65025
26769,11.279,3,0.1,0.00030096,3007.5,0.00030107,3010.9,-9.8745e-05,6.8356,-9.9655e-05,-0.0051266,0.64086
26770,11.372,2.9091,0.1,0.00029851,2983.1,0.00029861,2985.8,-9.8045e-05,5.5512,-9.8785e-05,-0.0052436,0.65031
26771,11.279,3.1818,0.1,0.00030097,3007.6,0.00030108,3011,-9.8754e-05,6.7585,-9.9655e-05,-0.0051517,0.64083
26772,11.372,3.0909,0.1,0.00029851,2983.1,0.00029861,2985.8,-9.8045e-05,5.5512,-9.8785e-05,-0.0052435,0.65031
26773,11.279,3.3636,0.1,0.000301,3007.9,0.00030111,3011.1,-9.8783e-05,6.5275,-9.9652e-05,-0.0052308,0.64073
26774,11.372,3.2727,0.1,0.00029853,2983.3,0.00029862,2986,-9.8063e-05,5.4071,-9.8784e-05,-0.0053124,0.65025
26775,11.279,3.5455,0.1,0.00030104,3008.4,0.00030115,3011.4,-9.883e-05,6.1445,-9.9649e-05,-0.0053757,0.64057
26776,11.372,3.4545,0.1,0.00029857,2983.6,0.00029865,2986.2,-9.8099e-05,5.1202,-9.8781e-05,-0.0054615,0.65012
26777,11.279,3.7273,0.1,0.00030111,3009,0.0003012,3011.8,-9.8896e-05,5.6122,-9.9644e-05,-0.0056126,0.64034
26778,11.372,3.6364,0.1,0.00029862,2984.1,0.0002987,2986.5,-9.8152e-05,4.6924,-9.8778e-05,-0.0057207,0.64992
26779,11.279,3.9091,0.1,0.00030119,3009.8,0.00030127,3012.3,-9.898e-05,4.9345,-9.9638e-05,-0.005995,0.64005
26780,11.372,3.8182,0.1,0.00029869,2984.9,0.00029876,2986.9,-9.8223e-05,4.1269,-9.8773e-05,-0.0061546,0.64966
26781,11.279,4.0909,0.1,0.00030129,3010.8,0.00030136,3012.9,-9.9082e-05,4.1162,-9.9631e-05,-0.0066371,0.63969
26782,11.372,4,0.1,0.00029878,2985.7,0.00029884,2987.4,-9.831e-05,3.428,-9.8767e-05,-0.0069057,0.64934
26783,11.279,4.2727,0.1,0.00030141,3012,0.00030146,3013.6,-9.92e-05,3.1634,-9.9622e-05,-0.0078289,0.63926
26784,11.372,4.1818,0.1,0.00029888,2986.8,0.00029893,2988.1,-9.8414e-05,2.6009,-9.8761e-05,-0.0083477,0.64895
26785,11.279,4.4545,0.1,0.00030154,3013.4,0.00030158,3014.4,-9.9335e-05,2.0834,-9.9613e-05,-0.010559,0.63877
26786,11.372,4.3636,0.1,0.000299,2988,0.00029903,2988.8,-9.8532e-05,1.6527,-9.8754e-05,-0.011857,0.6485
26787,11.279,4.6364,0.1,0.00030169,3014.9,0.00030171,3015.3,-9.9484e-05,0.89021,-9.9605e-05,-0.021463,0.63822
26788,11.372,4.5455,0.1,0.00029914,2989.3,0.00029915,2989.6,-9.8664e-05,0.60128,-9.8748e-05,-0.028963,0.64798
26789,11.279,4.8182,0.1,0.00030186,3016.5,0.00030185,3016.3,-9.9587e-05,0.033579,-9.9656e-05,-0.48262,0.6376
26790,11.372,4.7273,0.1,0.00029929,2990.8,0.00029928,2990.5,-9.8733e-05,0.024232,-9.882e-05,-0.63037,0.64739
26791,11.279,5,0.1,0.00030204,3018.3,0.00030201,3017.4,-9.958e-05,0.0071521,-9.9831e-05,-1.8793,0.63691
26792,11.372,4.9091,0.1,0.00029946,2992.5,0.00029943,2991.6,-9.8727e-05,0.0070256,-9.898e-05,-1.8941,0.64674
26793,11.279,5.1818,0.1,0.00030224,3020.3,0.00030218,3018.6,-9.957e-05,0.0032124,-0.00010002,-3.3953,0.63616
26794,11.372,5.0909,0.1,0.00029964,2994.3,0.00029958,2992.7,-9.8718e-05,0.0035779,-9.9154e-05,-3.2662,0.64603
26795,11.279,5.3636,0.1,0.00030245,3022.4,0.00030236,3019.9,-9.9559e-05,0.0018387,-0.00010023,-5.0034,0.63534
26796,11.372,5.2727,0.1,0.00029983,2996.3,0.00029975,2993.9,-9.871e-05,0.0022041,-9.934e-05,-4.7272,0.64525
26797,11.279,5.5455,0.1,0.00030267,3024.7,0.00030256,3021.3,-9.9549e-05,0.00077569,-0.00010044,-6.7277,0.63446
26798,11.372,5.4545,0.1,0.00030004,2998.3,0.00029993,2995.2,-9.8702e-05,0.001698,-9.9537e-05,-6.2714,0.64441
26799,11.279,5.7273,0.1,0.00030301,3028,0.00030285,3023.4,-9.9539e-05,0.0016563,-0.00010076,-9.1475,0.63351
26800,11.372,5.6364,0.1,0.00030027,3000.6,0.00030013,2996.7,-9.8695e-05,0.00080545,-9.9754e-05,-7.9588,0.6435
26801,11.372,5.8182,0.1,0.0003007,3004.9,0.00030051,2999.5,-9.8688e-05,0.0031181,-0.00010015,-10.96,0.64252
26802,11.279,5.9091,0.1,0.00030271,3025,0.00030259,3021.4,-9.9531e-05,0.0016064,-0.00010051,-7.3384,0.63249
26803,11.464,0.27273,0.1,0.00029795,2977.4,0.00029778,2972.6,-9.7844e-05,0.0021771,-9.9132e-05,-9.6794,0.65258
26804,11.557,0.18182,0.1,0.00029565,2954.4,0.00029545,2948.7,-9.6999e-05,0.0026176,-9.8513e-05,-11.378,0.66171
26805,11.464,0.090909,0.1,0.00029763,2974.2,0.0002975,2970.4,-9.784e-05,0.0017625,-9.8852e-05,-7.5948,0.65158
26806,11.464,0.45455,0.1,0.00029763,2974.3,0.0002975,2970.5,-9.7848e-05,0.0016723,-9.8843e-05,-7.477,0.65352
26807,11.557,0.36364,0.1,0.00029523,2950.3,0.00029508,2946,-9.7e-05,0.0021641,-9.8143e-05,-8.5823,0.66267
26808,11.464,0.63636,0.1,0.00029742,2972.2,0.00029732,2969.2,-9.7853e-05,0.0019922,-9.8648e-05,-5.9731,0.65439
26809,11.557,0.54545,0.1,0.00029502,2948.1,0.00029489,2944.6,-9.7002e-05,0.0020406,-9.795e-05,-7.1143,0.66356
26810,11.464,0.81818,0.1,0.00029723,2970.2,0.00029715,2968,-9.7859e-05,0.0024791,-9.8468e-05,-4.5768,0.65519
26811,11.557,0.72727,0.1,0.00029483,2946.2,0.00029473,2943.3,-9.7006e-05,0.0021476,-9.7776e-05,-5.7825,0.66439
26812,11.464,1,0.1,0.00029705,2968.5,0.000297,2966.8,-9.7865e-05,0.0035684,-9.8299e-05,-3.2603,0.65593
26813,11.557,0.90909,0.1,0.00029465,2944.4,0.00029457,2942.2,-9.7009e-05,0.0024677,-9.7612e-05,-4.5241,0.66516
26814,11.464,1.1818,0.1,0.00029689,2966.8,0.00029685,2965.8,-9.7871e-05,0.0061217,-9.8142e-05,-2.03,0.65661
26815,11.557,1.0909,0.1,0.00029448,2942.8,0.00029443,2941.1,-9.7014e-05,0.0031905,-9.7459e-05,-3.3417,0.66586
26816,11.464,1.3636,0.1,0.00029673,2965.3,0.00029672,2964.9,-9.7876e-05,0.015135,-9.7998e-05,-0.89788,0.65722
26817,11.557,1.2727,0.1,0.00029433,2941.3,0.00029429,2940.2,-9.7018e-05,0.0047775,-9.7317e-05,-2.2422,0.6665
26818,11.464,1.5455,0.1,0.0002966,2963.9,0.0002966,2964,-9.7855e-05,0.22602,-9.7894e-05,-0.066258,0.65777
26819,11.557,1.4545,0.1,0.00029419,2939.9,0.00029417,2939.3,-9.7022e-05,0.0090545,-9.7188e-05,-1.2337,0.66708
26820,11.464,1.7273,0.1,0.00029647,2962.7,0.00029649,2963.2,-9.7743e-05,1.1118,-9.7893e-05,-0.014805,0.65825
26821,11.557,1.6364,0.1,0.00029407,2938.7,0.00029407,2938.5,-9.7024e-05,0.034874,-9.7074e-05,-0.34125,0.66759
26822,11.464,1.9091,0.1,0.00029637,2961.6,0.0002964,2962.6,-9.7639e-05,1.9323,-9.7898e-05,-0.009285,0.65867
26823,11.557,1.8182,0.1,0.00029396,2937.6,0.00029397,2937.8,-9.6961e-05,0.53542,-9.7036e-05,-0.023873,0.66804
26824,11.464,2.0909,0.1,0.00029628,2960.7,0.00029632,2962,-9.755e-05,2.6393,-9.7903e-05,-0.007323,0.65902
26825,11.557,2,0.1,0.00029387,2936.6,0.00029389,2937.3,-9.6872e-05,1.2348,-9.7038e-05,-0.011106,0.66842
26826,11.464,2.2727,0.1,0.0002962,2960,0.00029626,2961.6,-9.7476e-05,3.2256,-9.7907e-05,-0.0063707,0.65931
26827,11.557,2.1818,0.1,0.00029379,2935.9,0.00029382,2936.8,-9.6796e-05,1.8332,-9.7041e-05,-0.0079707,0.66874
26828,11.464,2.4545,0.1,0.00029614,2959.4,0.0002962,2961.2,-9.7419e-05,3.6863,-9.791e-05,-0.0058471,0.65954
26829,11.557,2.3636,0.1,0.00029372,2935.2,0.00029376,2936.4,-9.6735e-05,2.3185,-9.7044e-05,-0.0066453,0.669
26830,11.464,2.6364,0.1,0.0002961,2959,0.00029617,2961,-9.7377e-05,4.0178,-9.7912e-05,-0.0055503,0.6597
26831,11.557,2.5455,0.1,0.00029368,2934.7,0.00029372,2936.1,-9.6688e-05,2.686,-9.7047e-05,-0.0059758,0.66919
26832,11.464,2.8182,0.1,0.00029607,2958.7,0.00029615,2960.8,-9.7352e-05,4.2178,-9.7914e-05,-0.0053955,0.6598
26833,11.557,2.7273,0.1,0.00029364,2934.4,0.00029369,2935.9,-9.6657e-05,2.9326,-9.7048e-05,-0.005626,0.66932
26834,11.464,3,0.1,0.00029607,2958.6,0.00029614,2960.8,-9.7343e-05,4.2846,-9.7914e-05,-0.0053474,0.65983
26835,11.557,2.9091,0.1,0.00029363,2934.3,0.00029368,2935.8,-9.6641e-05,3.0565,-9.7049e-05,-0.0054731,0.66938
26836,11.464,3.1818,0.1,0.00029607,2958.7,0.00029615,2960.8,-9.7352e-05,4.2178,-9.7914e-05,-0.0053957,0.6598
26837,11.557,3.0909,0.1,0.00029363,2934.3,0.00029368,2935.8,-9.6641e-05,3.0565,-9.7049e-05,-0.0054731,0.66938
26838,11.464,3.3636,0.1,0.0002961,2959,0.00029617,2961,-9.7377e-05,4.0178,-9.7912e-05,-0.0055503,0.6597
26839,11.557,3.2727,0.1,0.00029364,2934.4,0.00029369,2935.9,-9.6657e-05,2.9326,-9.7048e-05,-0.0056262,0.66932
26840,11.464,3.5455,0.1,0.00029614,2959.4,0.0002962,2961.2,-9.7419e-05,3.6862,-9.791e-05,-0.0058467,0.65954
26841,11.557,3.4545,0.1,0.00029368,2934.7,0.00029372,2936.1,-9.6688e-05,2.686,-9.7047e-05,-0.0059755,0.66919
26842,11.464,3.7273,0.1,0.0002962,2960,0.00029626,2961.6,-9.7476e-05,3.2255,-9.7907e-05,-0.0063703,0.65931
26843,11.557,3.6364,0.1,0.00029372,2935.2,0.00029376,2936.4,-9.6735e-05,2.3185,-9.7044e-05,-0.0066451,0.669
26844,11.464,3.9091,0.1,0.00029628,2960.7,0.00029632,2962,-9.755e-05,2.6393,-9.7903e-05,-0.0073227,0.65902
26845,11.557,3.8182,0.1,0.00029379,2935.9,0.00029382,2936.8,-9.6796e-05,1.8332,-9.7041e-05,-0.0079703,0.66874
26846,11.464,4.0909,0.1,0.00029637,2961.6,0.0002964,2962.6,-9.7639e-05,1.9322,-9.7898e-05,-0.0092846,0.65867
26847,11.557,4,0.1,0.00029387,2936.6,0.00029389,2937.3,-9.6872e-05,1.2348,-9.7038e-05,-0.011106,0.66842
26848,11.464,4.2727,0.1,0.00029647,2962.7,0.00029649,2963.2,-9.7743e-05,1.1118,-9.7893e-05,-0.014805,0.65825
26849,11.557,4.1818,0.1,0.00029396,2937.6,0.00029397,2937.8,-9.6961e-05,0.53538,-9.7036e-05,-0.023873,0.66804
26850,11.464,4.4545,0.1,0.0002966,2963.9,0.0002966,2964,-9.7855e-05,0.22598,-9.7894e-05,-0.066267,0.65777
26851,11.557,4.3636,0.1,0.00029407,2938.7,0.00029407,2938.5,-9.7024e-05,0.03487,-9.7074e-05,-0.34129,0.66759
26852,11.464,4.6364,0.1,0.00029673,2965.3,0.00029672,2964.9,-9.7876e-05,0.015134,-9.7998e-05,-0.89793,0.65722
26853,11.557,4.5455,0.1,0.00029419,2939.9,0.00029417,2939.3,-9.7022e-05,0.0090545,-9.7188e-05,-1.2338,0.66708
26854,11.464,4.8182,0.1,0.00029689,2966.8,0.00029685,2965.8,-9.7871e-05,0.0061216,-9.8142e-05,-2.0301,0.65661
26855,11.557,4.7273,0.1,0.00029433,2941.3,0.00029429,2940.2,-9.7018e-05,0.0047776,-9.7317e-05,-2.2423,0.6665
26856,11.464,5,0.1,0.00029705,2968.5,0.000297,2966.8,-9.7865e-05,0.0035692,-9.8299e-05,-3.2604,0.65593
26857,11.557,4.9091,0.1,0.00029448,2942.8,0.00029443,2941.1,-9.7014e-05,0.0031909,-9.7459e-05,-3.3418,0.66586
26858,11.464,5.1818,0.1,0.00029723,2970.2,0.00029715,2968,-9.7859e-05,0.0024802,-9.8468e-05,-4.5768,0.65519
26859,11.557,5.0909,0.1,0.00029465,2944.4,0.00029457,2942.2,-9.7009e-05,0.0024688,-9.7612e-05,-4.5242,0.66516
26860,11.464,5.3636,0.1,0.00029742,2972.2,0.00029732,2969.2,-9.7853e-05,0.0019931,-9.8648e-05,-5.9732,0.65439
26861,11.557,5.2727,0.1,0.00029483,2946.2,0.00029473,2943.3,-9.7006e-05,0.0021489,-9.7776e-05,-5.7826,0.66439
26862,11.464,5.5455,0.1,0.00029763,2974.3,0.0002975,2970.5,-9.7848e-05,0.0016728,-9.8843e-05,-7.4771,0.65352
26863,11.557,5.4545,0.1,0.00029502,2948.1,0.00029489,2944.6,-9.7002e-05,0.0020409,-9.795e-05,-7.1144,0.66356
26864,11.464,5.7273,0.1,0.00029795,2977.4,0.00029778,2972.6,-9.7844e-05,0.0021776,-9.9132e-05,-9.6794,0.65258
26865,11.557,5.6364,0.1,0.00029523,2950.3,0.00029508,2946,-9.7e-05,0.0021646,-9.8143e-05,-8.5823,0.66267
26866,11.557,5.8182,0.1,0.00029565,2954.4,0.00029545,2948.7,-9.6999e-05,0.0026181,-9.8513e-05,-11.378,0.66171
26867,11.464,5.9091,0.1,0.00029763,2974.2,0.0002975,2970.4,-9.784e-05,0.0017633,-9.8852e-05,-7.5948,0.65158
26868,11.649,0.27273,0.1,0.00029291,2927.1,0.00029274,2922,-9.6155e-05,0.0027189,-9.7512e-05,-10.188,0.67186
26869,11.742,0.18182,0.1,0.00029061,2904.1,0.00029041,2898.2,-9.5317e-05,0.0021993,-9.6885e-05,-11.778,0.68109
26870,11.649,0.090909,0.1,0.00029256,2923.6,0.00029243,2919.7,-9.6157e-05,0.0019522,-9.7201e-05,-7.8397,0.67087
26871,11.649,0.45455,0.1,0.00029261,2924.1,0.00029247,2920,-9.6155e-05,0.0025302,-9.7245e-05,-8.194,0.67278
26872,11.742,0.36364,0.1,0.00029021,2900.1,0.00029005,2895.5,-9.5313e-05,0.0034774,-9.6535e-05,-9.1797,0.68203
26873,11.649,0.63636,0.1,0.00029242,2922.1,0.0002923,2918.7,-9.6155e-05,0.0021912,-9.7074e-05,-6.9014,0.67363
26874,11.742,0.54545,0.1,0.00029001,2898.1,0.00028987,2894.1,-9.531e-05,0.0023784,-9.6365e-05,-7.9228,0.68292
26875,11.649,0.81818,0.1,0.00029224,2920.4,0.00029214,2917.5,-9.6156e-05,0.0021568,-9.6916e-05,-5.7083,0.67443
26876,11.742,0.72727,0.1,0.00028984,2896.4,0.00028972,2893,-9.5309e-05,0.0022049,-9.6214e-05,-6.7951,0.68373
26877,11.649,1,0.1,0.00029208,2918.8,0.000292,2916.5,-9.6158e-05,0.0022314,-9.6769e-05,-4.5846,0.67516
26878,11.742,0.90909,0.1,0.00028968,2894.8,0.00028958,2891.9,-9.5309e-05,0.001929,-9.6072e-05,-5.7316,0.68449
26879,11.649,1.1818,0.1,0.00029193,2917.3,0.00029187,2915.5,-9.6161e-05,0.0025322,-9.6631e-05,-3.534,0.67582
26880,11.742,1.0909,0.1,0.00028953,2893.3,0.00028945,2890.9,-9.5309e-05,0.0017618,-9.5939e-05,-4.7331,0.68518
26881,11.649,1.3636,0.1,0.00029179,2915.9,0.00029175,2914.6,-9.6163e-05,0.0032222,-9.6505e-05,-2.5624,0.67643
26882,11.742,1.2727,0.1,0.00028939,2891.9,0.00028932,2890,-9.531e-05,0.0016704,-9.5816e-05,-3.8042,0.68581
26883,11.649,1.5455,0.1,0.00029167,2914.6,0.00029164,2913.8,-9.6166e-05,0.0047862,-9.639e-05,-1.6758,0.67697
26884,11.742,1.4545,0.1,0.00028926,2890.7,0.00028921,2889.2,-9.5311e-05,0.0017013,-9.5704e-05,-2.9501,0.68638
26885,11.649,1.7273,0.1,0.00029155,2913.5,0.00029154,2913.1,-9.6169e-05,0.0091962,-9.6287e-05,-0.88157,0.67744
26886,11.742,1.6364,0.1,0.00028915,2889.5,0.00028912,2888.5,-9.5313e-05,0.0019234,-9.5602e-05,-2.1758,0.68688
26887,11.649,1.9091,0.1,0.00029146,2912.6,0.00029146,2912.5,-9.6167e-05,0.040256,-9.6201e-05,-0.20876,0.67785
26888,11.742,1.8182,0.1,0.00028905,2888.6,0.00028903,2887.8,-9.5314e-05,0.0025044,-9.5512e-05,-1.4863,0.68733
26889,11.649,2.0909,0.1,0.00029138,2911.7,0.00029138,2912,-9.6115e-05,0.45527,-9.6178e-05,-0.019361,0.6782
26890,11.742,2,0.1,0.00028897,2887.7,0.00028895,2887.3,-9.5316e-05,0.0039792,-9.5434e-05,-0.88662,0.6877
26891,11.649,2.2727,0.1,0.00029131,2911.1,0.00029132,2911.5,-9.6052e-05,0.94642,-9.6179e-05,-0.0097812,0.67849
26892,11.742,2.1818,0.1,0.0002889,2887,0.00028889,2886.8,-9.5317e-05,0.0091408,-9.5369e-05,-0.3838,0.68802
26893,11.649,2.4545,0.1,0.00029125,2910.5,0.00029128,2911.2,-9.6002e-05,1.3373,-9.6181e-05,-0.0072293,0.67871
26894,11.742,2.3636,0.1,0.00028884,2886.4,0.00028884,2886.4,-9.5309e-05,0.080823,-9.5325e-05,-0.044339,0.68827
26895,11.649,2.6364,0.1,0.00029122,2910.2,0.00029124,2911,-9.5966e-05,1.6194,-9.6182e-05,-0.0061728,0.67887
26896,11.742,2.5455,0.1,0.0002888,2886,0.0002888,2886.2,-9.5273e-05,0.35799,-9.5322e-05,-0.010318,0.68846
26897,11.649,2.8182,0.1,0.00029119,2909.9,0.00029122,2910.8,-9.5944e-05,1.7897,-9.6183e-05,-0.0057026,0.67896
26898,11.742,2.7273,0.1,0.00028877,2885.7,0.00028878,2886,-9.5246e-05,0.56325,-9.5322e-05,-0.0067334,0.68858
26899,11.649,3,0.1,0.00029119,2909.9,0.00029122,2910.8,-9.5937e-05,1.8466,-9.6183e-05,-0.0055657,0.679
26900,11.742,2.9091,0.1,0.00028875,2885.6,0.00028877,2885.9,-9.5233e-05,0.66713,-9.5323e-05,-0.0057697,0.68865
26901,11.649,3.1818,0.1,0.00029119,2909.9,0.00029122,2910.8,-9.5944e-05,1.7897,-9.6183e-05,-0.0057027,0.67896
26902,11.742,3.0909,0.1,0.00028875,2885.6,0.00028877,2885.9,-9.5233e-05,0.66712,-9.5323e-05,-0.0057696,0.68865
26903,11.649,3.3636,0.1,0.00029122,2910.2,0.00029124,2911,-9.5966e-05,1.6194,-9.6182e-05,-0.0061727,0.67887
26904,11.742,3.2727,0.1,0.00028877,2885.7,0.00028878,2886,-9.5246e-05,0.56324,-9.5322e-05,-0.0067334,0.68858
26905,11.649,3.5455,0.1,0.00029125,2910.5,0.00029128,2911.2,-9.6002e-05,1.3373,-9.6181e-05,-0.0072292,0.67871
26906,11.742,3.4545,0.1,0.0002888,2886,0.0002888,2886.2,-9.5273e-05,0.35797,-9.5322e-05,-0.010318,0.68846
26907,11.649,3.7273,0.1,0.00029131,2911.1,0.00029132,2911.5,-9.6052e-05,0.9464,-9.6179e-05,-0.0097811,0.67849
26908,11.742,3.6364,0.1,0.00028884,2886.4,0.00028884,2886.4,-9.5309e-05,0.080808,-9.5325e-05,-0.044346,0.68827
26909,11.649,3.9091,0.1,0.00029138,2911.7,0.00029138,2912,-9.6115e-05,0.45524,-9.6178e-05,-0.019362,0.6782
26910,11.742,3.8182,0.1,0.0002889,2887,0.00028889,2886.8,-9.5317e-05,0.0091403,-9.5369e-05,-0.38382,0.68802
26911,11.649,4.0909,0.1,0.00029146,2912.6,0.00029146,2912.5,-9.6167e-05,0.04025,-9.6201e-05,-0.20879,0.67785
26912,11.742,4,0.1,0.00028897,2887.7,0.00028895,2887.3,-9.5316e-05,0.0039794,-9.5434e-05,-0.88665,0.6877
26913,11.649,4.2727,0.1,0.00029155,2913.5,0.00029154,2913.1,-9.6169e-05,0.0091959,-9.6287e-05,-0.88161,0.67744
26914,11.742,4.1818,0.1,0.00028905,2888.6,0.00028903,2887.8,-9.5314e-05,0.002505,-9.5512e-05,-1.4863,0.68733
26915,11.649,4.4545,0.1,0.00029167,2914.6,0.00029164,2913.8,-9.6166e-05,0.0047862,-9.639e-05,-1.6758,0.67697
26916,11.742,4.3636,0.1,0.00028915,2889.5,0.00028912,2888.5,-9.5313e-05,0.0019235,-9.5602e-05,-2.1758,0.68688
26917,11.649,4.6364,0.1,0.00029179,2915.9,0.00029175,2914.6,-9.6163e-05,0.0032224,-9.6505e-05,-2.5624,0.67643
26918,11.742,4.5455,0.1,0.00028926,2890.7,0.00028921,2889.2,-9.5311e-05,0.0017019,-9.5704e-05,-2.9502,0.68638
26919,11.649,4.8182,0.1,0.00029193,2917.3,0.00029187,2915.5,-9.6161e-05,0.0025327,-9.6631e-05,-3.534,0.67582
26920,11.742,4.7273,0.1,0.00028939,2891.9,0.00028932,2890,-9.531e-05,0.0016709,-9.5816e-05,-3.8043,0.68581
26921,11.649,5,0.1,0.00029208,2918.8,0.000292,2916.5,-9.6158e-05,0.0022321,-9.6769e-05,-4.5846,0.67516
26922,11.742,4.9091,0.1,0.00028953,2893.3,0.00028945,2890.9,-9.5309e-05,0.0017624,-9.5939e-05,-4.7331,0.68518
26923,11.649,5.1818,0.1,0.00029224,2920.4,0.00029214,2917.5,-9.6156e-05,0.0021581,-9.6916e-05,-5.7083,0.67443
26924,11.742,5.0909,0.1,0.00028968,2894.8,0.00028958,2891.9,-9.5309e-05,0.0019299,-9.6072e-05,-5.7317,0.68449
26925,11.649,5.3636,0.1,0.00029242,2922.1,0.0002923,2918.7,-9.6155e-05,0.0021919,-9.7074e-05,-6.9015,0.67363
26926,11.742,5.2727,0.1,0.00028984,2896.4,0.00028972,2893,-9.5309e-05,0.0022062,-9.6214e-05,-6.7952,0.68373
26927,11.649,5.5455,0.1,0.00029261,2924.1,0.00029247,2920,-9.6155e-05,0.0025304,-9.7245e-05,-8.194,0.67278
26928,11.742,5.4545,0.1,0.00029001,2898.1,0.00028987,2894.1,-9.531e-05,0.0023783,-9.6365e-05,-7.9228,0.68292
26929,11.649,5.7273,0.1,0.00029291,2927.1,0.00029274,2922,-9.6155e-05,0.0027194,-9.7512e-05,-10.188,0.67186
26930,11.742,5.6364,0.1,0.00029021,2900.1,0.00029005,2895.5,-9.5313e-05,0.0034778,-9.6535e-05,-9.1798,0.68203
26931,11.742,5.8182,0.1,0.00029061,2904.1,0.00029041,2898.2,-9.5317e-05,0.0022003,-9.6885e-05,-11.778,0.68109
26932,11.649,5.9091,0.1,0.00029256,2923.6,0.00029243,2919.7,-9.6157e-05,0.0019536,-9.7201e-05,-7.8398,0.67087
26933,11.834,0.27273,0.1,0.00028789,2876.9,0.00028771,2871.6,-9.4475e-05,0.0032798,-9.5896e-05,-10.675,0.69133
26934,11.926,0.18182,0.1,0.00028559,2854,0.00028538,2847.9,-9.3642e-05,0.0018422,-9.5261e-05,-12.16,0.70067
26935,11.834,0.090909,0.1,0.00028752,2873.2,0.00028738,2869.2,-9.4481e-05,0.0021698,-9.5556e-05,-8.074,0.69036
26936,11.834,0.45455,0.1,0.0002876,2874.1,0.00028745,2869.6,-9.4469e-05,0.0033592,-9.5651e-05,-8.8825,0.69224
26937,11.926,0.36364,0.1,0.0002852,2850.1,0.00028504,2845.2,-9.3633e-05,0.0047459,-9.4932e-05,-9.7542,0.7016
26938,11.834,0.63636,0.1,0.00028743,2872.3,0.00028729,2868.4,-9.4465e-05,0.0024144,-9.5502e-05,-7.7938,0.69308
26939,11.926,0.54545,0.1,0.00028502,2848.3,0.00028487,2843.9,-9.3626e-05,0.0027013,-9.4785e-05,-8.7014,0.70247
26940,11.834,0.81818,0.1,0.00028727,2870.7,0.00028715,2867.3,-9.4462e-05,0.0020214,-9.5366e-05,-6.7966,0.69386
26941,11.926,0.72727,0.1,0.00028487,2846.7,0.00028473,2842.8,-9.362e-05,0.0023128,-9.4655e-05,-7.7712,0.70327
26942,11.834,1,0.1,0.00028712,2869.2,0.00028702,2866.3,-9.4459e-05,0.0015636,-9.5239e-05,-5.8588,0.69458
26943,11.926,0.90909,0.1,0.00028472,2845.2,0.0002846,2841.8,-9.3616e-05,0.0016281,-9.4534e-05,-6.8962,0.70402
26944,11.834,1.1818,0.1,0.00028699,2867.9,0.0002869,2865.4,-9.4458e-05,0.0011447,-9.5121e-05,-4.9826,0.69524
26945,11.926,1.0909,0.1,0.00028459,2843.9,0.00028448,2840.9,-9.3612e-05,0.0010231,-9.4421e-05,-6.0754,0.7047
26946,11.834,1.3636,0.1,0.00028686,2866.6,0.00028679,2864.5,-9.4457e-05,0.00072907,-9.5013e-05,-4.172,0.69583
26947,11.926,1.2727,0.1,0.00028446,2842.7,0.00028437,2840,-9.361e-05,0.00039334,-9.4317e-05,-5.3121,0.70532
26948,11.834,1.5455,0.1,0.00028675,2865.5,0.00028669,2863.8,-9.4457e-05,0.00031286,-9.4914e-05,-3.4314,0.69636
26949,11.926,1.4545,0.1,0.00028435,2841.6,0.00028427,2839.2,-9.3608e-05,-0.00024763,-9.4221e-05,-4.6099,0.70588
26950,11.834,1.7273,0.1,0.00028665,2864.5,0.0002866,2863.1,-9.4458e-05,-0.00012442,-9.4826e-05,-2.7653,0.69683
26951,11.926,1.6364,0.1,0.00028425,2840.6,0.00028418,2838.6,-9.3606e-05,-0.00091625,-9.4135e-05,-3.9728,0.70638
26952,11.834,1.9091,0.1,0.00028656,2863.7,0.00028653,2862.6,-9.4458e-05,-0.00061029,-9.4748e-05,-2.1777,0.69724
26953,11.926,1.8182,0.1,0.00028416,2839.7,0.00028411,2838,-9.3606e-05,-0.0016261,-9.4059e-05,-3.4046,0.70681
26954,11.834,2.0909,0.1,0.00028649,2862.9,0.00028646,2862.1,-9.4459e-05,-0.0011846,-9.4681e-05,-1.6727,0.69758
26955,11.926,2,0.1,0.00028409,2838.9,0.00028404,2837.5,-9.3605e-05,-0.0023855,-9.3992e-05,-2.9091,0.70718
26956,11.834,2.2727,0.1,0.00028643,2862.3,0.00028641,2861.7,-9.446e-05,-0.0019084,-9.4626e-05,-1.2538,0.69786
26957,11.926,2.1818,0.1,0.00028402,2838.3,0.00028398,2837,-9.3605e-05,-0.0031922,-9.3936e-05,-2.4898,0.70749
26958,11.834,2.4545,0.1,0.00028638,2861.8,0.00028637,2861.4,-9.446e-05,-0.0028539,-9.4583e-05,-0.92405,0.69808
26959,11.926,2.3636,0.1,0.00028397,2837.8,0.00028394,2836.7,-9.3605e-05,-0.0040239,-9.3891e-05,-2.1499,0.70774
26960,11.834,2.6364,0.1,0.00028635,2861.5,0.00028634,2861.2,-9.4461e-05,-0.0040385,-9.4552e-05,-0.68611,0.69824
26961,11.926,2.5455,0.1,0.00028394,2837.4,0.0002839,2836.4,-9.3605e-05,-0.0048189,-9.3856e-05,-1.8923,0.70793
26962,11.834,2.8182,0.1,0.00028633,2861.3,0.00028632,2861,-9.4462e-05,-0.0052289,-9.4533e-05,-0.54208,0.69833
26963,11.926,2.7273,0.1,0.00028391,2837.1,0.00028388,2836.3,-9.3605e-05,-0.005468,-9.3834e-05,-1.7192,0.70805
26964,11.834,3,0.1,0.00028632,2861.2,0.00028631,2861,-9.4462e-05,-0.0057776,-9.4527e-05,-0.49379,0.69836
26965,11.926,2.9091,0.1,0.0002839,2837,0.00028387,2836.2,-9.3606e-05,-0.0058396,-9.3822e-05,-1.6323,0.70811
26966,11.834,3.1818,0.1,0.00028633,2861.3,0.00028632,2861,-9.4462e-05,-0.0052287,-9.4533e-05,-0.54209,0.69833
26967,11.926,3.0909,0.1,0.0002839,2837,0.00028387,2836.2,-9.3606e-05,-0.0058396,-9.3822e-05,-1.6323,0.70811
26968,11.834,3.3636,0.1,0.00028635,2861.5,0.00028634,2861.2,-9.4461e-05,-0.0040384,-9.4552e-05,-0.68612,0.69824
26969,11.926,3.2727,0.1,0.00028391,2837.1,0.00028388,2836.3,-9.3605e-05,-0.0054676,-9.3834e-05,-1.7192,0.70805
26970,11.834,3.5455,0.1,0.00028638,2861.8,0.00028637,2861.4,-9.446e-05,-0.0028539,-9.4583e-05,-0.92407,0.69808
26971,11.926,3.4545,0.1,0.00028394,2837.4,0.0002839,2836.4,-9.3605e-05,-0.0048189,-9.3856e-05,-1.8923,0.70793
26972,11.834,3.7273,0.1,0.00028643,2862.3,0.00028641,2861.7,-9.446e-05,-0.0019082,-9.4626e-05,-1.2538,0.69786
26973,11.926,3.6364,0.1,0.00028397,2837.8,0.00028394,2836.7,-9.3605e-05,-0.004024,-9.3891e-05,-2.1499,0.70774
26974,11.834,3.9091,0.1,0.00028649,2862.9,0.00028646,2862.1,-9.4459e-05,-0.0011841,-9.4681e-05,-1.6727,0.69758
26975,11.926,3.8182,0.1,0.00028402,2838.3,0.00028398,2837,-9.3605e-05,-0.0031918,-9.3936e-05,-2.4898,0.70749
26976,11.834,4.0909,0.1,0.00028656,2863.7,0.00028653,2862.6,-9.4458e-05,-0.00060949,-9.4748e-05,-2.1777,0.69724
26977,11.926,4,0.1,0.00028409,2838.9,0.00028404,2837.5,-9.3605e-05,-0.0023851,-9.3992e-05,-2.9091,0.70718
26978,11.834,4.2727,0.1,0.00028665,2864.5,0.0002866,2863.1,-9.4458e-05,-0.0001239,-9.4826e-05,-2.7653,0.69683
26979,11.926,4.1818,0.1,0.00028416,2839.7,0.00028411,2838,-9.3606e-05,-0.0016255,-9.4059e-05,-3.4047,0.70681
26980,11.834,4.4545,0.1,0.00028675,2865.5,0.00028669,2863.8,-9.4457e-05,0.00031346,-9.4914e-05,-3.4315,0.69636
26981,11.926,4.3636,0.1,0.00028425,2840.6,0.00028418,2838.6,-9.3606e-05,-0.00091591,-9.4135e-05,-3.9729,0.70638
26982,11.834,4.6364,0.1,0.00028686,2866.6,0.00028679,2864.5,-9.4457e-05,0.00072989,-9.5013e-05,-4.172,0.69583
26983,11.926,4.5455,0.1,0.00028435,2841.6,0.00028427,2839.2,-9.3608e-05,-0.00024672,-9.4221e-05,-4.61,0.70588
26984,11.834,4.8182,0.1,0.00028699,2867.9,0.0002869,2865.4,-9.4458e-05,0.0011453,-9.5121e-05,-4.9826,0.69524
26985,11.926,4.7273,0.1,0.00028446,2842.7,0.00028437,2840,-9.361e-05,0.00039376,-9.4317e-05,-5.3121,0.70532
26986,11.834,5,0.1,0.00028712,2869.2,0.00028702,2866.3,-9.4459e-05,0.0015644,-9.5239e-05,-5.8589,0.69458
26987,11.926,4.9091,0.1,0.00028459,2843.9,0.00028448,2840.9,-9.3612e-05,0.0010236,-9.4421e-05,-6.0755,0.7047
26988,11.834,5.1818,0.1,0.00028727,2870.7,0.00028715,2867.3,-9.4462e-05,0.0020224,-9.5366e-05,-6.7966,0.69386
26989,11.926,5.0909,0.1,0.00028472,2845.2,0.0002846,2841.8,-9.3616e-05,0.0016292,-9.4534e-05,-6.8963,0.70402
26990,11.834,5.3636,0.1,0.00028743,2872.3,0.00028729,2868.4,-9.4465e-05,0.002415,-9.5502e-05,-7.7939,0.69308
26991,11.926,5.2727,0.1,0.00028487,2846.7,0.00028473,2842.8,-9.362e-05,0.0023139,-9.4655e-05,-7.7712,0.70327
26992,11.834,5.5455,0.1,0.0002876,2874.1,0.00028745,2869.6,-9.4469e-05,0.0033593,-9.5652e-05,-8.8825,0.69224
26993,11.926,5.4545,0.1,0.00028502,2848.3,0.00028487,2843.9,-9.3626e-05,0.0027012,-9.4785e-05,-8.7014,0.70247
26994,11.834,5.7273,0.1,0.00028789,2876.9,0.00028771,2871.6,-9.4475e-05,0.0032807,-9.5896e-05,-10.675,0.69133
26995,11.926,5.6364,0.1,0.0002852,2850.1,0.00028504,2845.2,-9.3633e-05,0.0047462,-9.4932e-05,-9.7542,0.7016
26996,11.926,5.8182,0.1,0.00028559,2854,0.00028538,2847.9,-9.3642e-05,0.0018439,-9.5261e-05,-12.16,0.70067
26997,11.834,5.9091,0.1,0.00028752,2873.2,0.00028738,2869.2,-9.4481e-05,0.002172,-9.5556e-05,-8.0741,0.69036
26998,12.019,0.27273,0.1,0.00028289,2827,0.0002827,2821.4,-9.2801e-05,0.0038391,-9.4285e-05,-11.144,0.711
26999,12.111,0.18182,0.1,0.00028059,2804,0.00028038,2797.7,-9.1975e-05,0.0015387,-9.3642e-05,-12.527,0.72044
27000,12.019,0.090909,0.1,0.0002825,2823,0.00028235,2818.9,-9.2812e-05,0.0023952,-9.3917e-05,-8.2985,0.71005
27001,12.019,0.45455,0.1,0.00028262,2824.2,0.00028246,2819.5,-9.2791e-05,0.0041458,-9.4062e-05,-9.5466,0.71189
27002,12.111,0.36364,0.1,0.00028022,2800.3,0.00028004,2795.1,-9.1961e-05,0.0059796,-9.3334e-05,-10.309,0.72136
27003,12.019,0.63636,0.1,0.00028246,2822.6,0.00028231,2818.3,-9.2782e-05,0.0026311,-9.3934e-05,-8.6558,0.71273
27004,12.111,0.54545,0.1,0.00028006,2798.6,0.00027989,2793.9,-9.1949e-05,0.0030107,-9.3208e-05,-9.4549,0.72221
27005,12.019,0.81818,0.1,0.00028231,2821.2,0.00028218,2817.3,-9.2775e-05,0.0019634,-9.3819e-05,-7.8485,0.71349
27006,12.111,0.72727,0.1,0.00027991,2797.2,0.00027976,2792.8,-9.1939e-05,0.0024457,-9.31e-05,-8.7169,0.72301
27007,12.019,1,0.1,0.00028218,2819.9,0.00028206,2816.3,-9.2769e-05,0.0011599,-9.3712e-05,-7.091,0.7142
27008,12.111,0.90909,0.1,0.00027978,2795.9,0.00027965,2791.9,-9.1931e-05,0.0014453,-9.2999e-05,-8.0253,0.72374
27009,12.019,1.1818,0.1,0.00028206,2818.7,0.00028195,2815.5,-9.2764e-05,0.00039249,-9.3613e-05,-6.3837,0.71485
27010,12.111,1.0909,0.1,0.00027966,2794.7,0.00027954,2791,-9.1923e-05,0.00056928,-9.2905e-05,-7.3772,0.72441
27011,12.019,1.3636,0.1,0.00028195,2817.6,0.00028185,2814.7,-9.276e-05,-0.00038777,-9.3522e-05,-5.7293,0.71543
27012,12.111,1.2727,0.1,0.00027955,2793.6,0.00027944,2790.2,-9.1917e-05,-0.00032187,-9.2819e-05,-6.7745,0.72502
27013,12.019,1.5455,0.1,0.00028185,2816.6,0.00028176,2814,-9.2757e-05,-0.0011724,-9.3439e-05,-5.1311,0.71596
27014,12.111,1.4545,0.1,0.00027946,2792.6,0.00027935,2789.5,-9.1912e-05,-0.001191,-9.274e-05,-6.2198,0.72557
27015,12.019,1.7273,0.1,0.00028176,2815.7,0.00028168,2813.4,-9.2754e-05,-0.001965,-9.3365e-05,-4.5924,0.71642
27016,12.111,1.6364,0.1,0.00027937,2791.7,0.00027927,2788.9,-9.1908e-05,-0.0020414,-9.2669e-05,-5.7157,0.72606
27017,12.019,1.9091,0.1,0.00028169,2814.9,0.00028162,2812.9,-9.2752e-05,-0.0027611,-9.33e-05,-4.1167,0.71682
27018,12.111,1.8182,0.1,0.00027929,2791,0.0002792,2788.3,-9.1905e-05,-0.0028642,-9.2605e-05,-5.2655,0.72649
27019,12.019,2.0909,0.1,0.00028162,2814.3,0.00028156,2812.4,-9.2751e-05,-0.0035473,-9.3244e-05,-3.7073,0.71716
27020,12.111,2,0.1,0.00027922,2790.3,0.00027914,2787.9,-9.1902e-05,-0.0036472,-9.255e-05,-4.8722,0.72686
27021,12.019,2.2727,0.1,0.00028157,2813.7,0.00028151,2812,-9.275e-05,-0.0042977,-9.3198e-05,-3.3674,0.71743
27022,12.111,2.1818,0.1,0.00027917,2789.7,0.00027909,2787.5,-9.1901e-05,-0.0043687,-9.2504e-05,-4.5389,0.72716
27023,12.019,2.4545,0.1,0.00028152,2813.3,0.00028147,2811.7,-9.275e-05,-0.0049732,-9.3162e-05,-3.0998,0.71765
27024,12.111,2.3636,0.1,0.00027912,2789.3,0.00027905,2787.2,-9.1899e-05,-0.0050046,-9.2467e-05,-4.2684,0.72741
27025,12.019,2.6364,0.1,0.00028149,2813,0.00028144,2811.5,-9.2749e-05,-0.0055195,-9.3136e-05,-2.9069,0.7178
27026,12.111,2.5455,0.1,0.00027909,2789,0.00027902,2786.9,-9.1898e-05,-0.0055241,-9.2438e-05,-4.0631,0.72759
27027,12.019,2.8182,0.1,0.00028148,2812.8,0.00028143,2811.4,-9.2749e-05,-0.0058777,-9.312e-05,-2.7904,0.7179
27028,12.111,2.7273,0.1,0.00027907,2788.7,0.000279,2786.8,-9.1898e-05,-0.0058934,-9.2419e-05,-3.9251,0.72771
27029,12.019,3,0.1,0.00028147,2812.8,0.00028142,2811.4,-9.2749e-05,-0.0060028,-9.3115e-05,-2.7515,0.71793
27030,12.111,2.9091,0.1,0.00027905,2788.6,0.00027899,2786.7,-9.1897e-05,-0.006085,-9.241e-05,-3.8557,0.72777
27031,12.019,3.1818,0.1,0.00028148,2812.8,0.00028143,2811.4,-9.2749e-05,-0.0058775,-9.312e-05,-2.7904,0.7179
27032,12.111,3.0909,0.1,0.00027905,2788.6,0.00027899,2786.7,-9.1897e-05,-0.0060852,-9.241e-05,-3.8557,0.72777
27033,12.019,3.3636,0.1,0.00028149,2813,0.00028144,2811.5,-9.2749e-05,-0.0055192,-9.3136e-05,-2.9069,0.7178
27034,12.111,3.2727,0.1,0.00027907,2788.7,0.000279,2786.8,-9.1898e-05,-0.005893,-9.2419e-05,-3.9251,0.72771
27035,12.019,3.5455,0.1,0.00028152,2813.3,0.00028147,2811.7,-9.275e-05,-0.0049733,-9.3162e-05,-3.0999,0.71765
27036,12.111,3.4545,0.1,0.00027909,2789,0.00027902,2786.9,-9.1898e-05,-0.005524,-9.2438e-05,-4.0631,0.72759
27037,12.019,3.7273,0.1,0.00028157,2813.7,0.00028151,2812,-9.275e-05,-0.0042977,-9.3198e-05,-3.3675,0.71743
27038,12.111,3.6364,0.1,0.00027912,2789.3,0.00027905,2787.2,-9.1899e-05,-0.0050045,-9.2467e-05,-4.2684,0.72741
27039,12.019,3.9091,0.1,0.00028162,2814.3,0.00028156,2812.4,-9.2751e-05,-0.003547,-9.3244e-05,-3.7074,0.71716
27040,12.111,3.8182,0.1,0.00027917,2789.7,0.00027909,2787.5,-9.1901e-05,-0.0043685,-9.2504e-05,-4.5389,0.72716
27041,12.019,4.0909,0.1,0.00028169,2814.9,0.00028162,2812.9,-9.2752e-05,-0.0027608,-9.33e-05,-4.1167,0.71682
27042,12.111,4,0.1,0.00027922,2790.3,0.00027914,2787.9,-9.1902e-05,-0.0036468,-9.255e-05,-4.8723,0.72686
27043,12.019,4.2727,0.1,0.00028176,2815.7,0.00028168,2813.4,-9.2754e-05,-0.0019645,-9.3365e-05,-4.5924,0.71642
27044,12.111,4.1818,0.1,0.00027929,2791,0.0002792,2788.3,-9.1905e-05,-0.0028639,-9.2605e-05,-5.2656,0.72649
27045,12.019,4.4545,0.1,0.00028185,2816.6,0.00028176,2814,-9.2757e-05,-0.0011718,-9.3439e-05,-5.1311,0.71596
27046,12.111,4.3636,0.1,0.00027937,2791.7,0.00027927,2788.9,-9.1908e-05,-0.0020409,-9.2669e-05,-5.7158,0.72606
27047,12.019,4.6364,0.1,0.00028195,2817.6,0.00028185,2814.7,-9.276e-05,-0.00038728,-9.3522e-05,-5.7294,0.71543
27048,12.111,4.5455,0.1,0.00027946,2792.6,0.00027935,2789.5,-9.1912e-05,-0.0011904,-9.274e-05,-6.2198,0.72557
27049,12.019,4.8182,0.1,0.00028206,2818.7,0.00028195,2815.5,-9.2764e-05,0.00039277,-9.3613e-05,-6.3837,0.71485
27050,12.111,4.7273,0.1,0.00027955,2793.6,0.00027944,2790.2,-9.1917e-05,-0.00032158,-9.2819e-05,-6.7746,0.72502
27051,12.019,5,0.1,0.00028218,2819.9,0.00028206,2816.3,-9.2769e-05,0.0011607,-9.3712e-05,-7.0911,0.7142
27052,12.111,4.9091,0.1,0.00027966,2794.7,0.00027954,2791,-9.1923e-05,0.00056972,-9.2905e-05,-7.3772,0.72441
27053,12.019,5.1818,0.1,0.00028231,2821.2,0.00028218,2817.3,-9.2775e-05,0.0019645,-9.3819e-05,-7.8486,0.71349
27054,12.111,5.0909,0.1,0.00027978,2795.9,0.00027965,2791.9,-9.1931e-05,0.0014468,-9.2999e-05,-8.0253,0.72374
27055,12.019,5.3636,0.1,0.00028246,2822.6,0.00028231,2818.3,-9.2782e-05,0.0026315,-9.3934e-05,-8.6558,0.71273
27056,12.111,5.2727,0.1,0.00027991,2797.2,0.00027976,2792.8,-9.1939e-05,0.0024468,-9.31e-05,-8.717,0.72301
27057,12.019,5.5455,0.1,0.00028262,2824.2,0.00028246,2819.5,-9.2791e-05,0.004146,-9.4062e-05,-9.5467,0.71189
27058,12.111,5.4545,0.1,0.00028006,2798.6,0.00027989,2793.9,-9.1949e-05,0.0030106,-9.3208e-05,-9.455,0.72221
27059,12.019,5.7273,0.1,0.00028289,2827,0.0002827,2821.4,-9.2801e-05,0.00384,-9.4285e-05,-11.144,0.711
27060,12.111,5.6364,0.1,0.00028022,2800.3,0.00028004,2795.1,-9.1961e-05,0.0059805,-9.3334e-05,-10.309,0.72136
27061,12.111,5.8182,0.1,0.00028059,2804,0.00028038,2797.7,-9.1975e-05,0.0015399,-9.3642e-05,-12.527,0.72044
27062,12.019,5.9091,0.1,0.0002825,2823,0.00028235,2818.9,-9.2812e-05,0.0023964,-9.3917e-05,-8.2985,0.71005
27063,12.204,0.27273,0.1,0.00027791,2777.2,0.00027771,2771.4,-9.1135e-05,0.0044186,-9.2679e-05,-11.595,0.73087
27064,12.296,0.18182,0.1,0.00027562,2754.3,0.00027539,2747.8,-9.0315e-05,0.0013024,-9.2029e-05,-12.879,0.74041
27065,12.204,0.090909,0.1,0.00027749,2773,0.00027735,2768.7,-9.115e-05,0.0026427,-9.2284e-05,-8.5138,0.72993
27066,12.204,0.45455,0.1,0.00027765,2774.6,0.00027748,2769.5,-9.112e-05,0.0049182,-9.2477e-05,-10.19,0.73174
27067,12.296,0.36364,0.1,0.00027525,2750.6,0.00027507,2745.2,-9.0296e-05,0.0072118,-9.174e-05,-10.847,0.74131
27068,12.204,0.63636,0.1,0.00027751,2773.2,0.00027734,2768.4,-9.1107e-05,0.0028561,-9.237e-05,-9.4927,0.73256
27069,12.296,0.54545,0.1,0.00027511,2749.2,0.00027493,2744.1,-9.028e-05,0.0033297,-9.1636e-05,-10.188,0.74215
27070,12.204,0.81818,0.1,0.00027738,2771.9,0.00027723,2767.4,-9.1095e-05,0.0019627,-9.2276e-05,-8.871,0.73332
27071,12.296,0.72727,0.1,0.00027498,2747.9,0.00027482,2743.1,-9.0265e-05,0.0026123,-9.1549e-05,-9.6384,0.74293
27072,12.204,1,0.1,0.00027726,2770.7,0.00027712,2766.5,-9.1085e-05,0.00090212,-9.2189e-05,-8.2893,0.73402
27073,12.296,0.90909,0.1,0.00027486,2746.8,0.00027471,2742.2,-9.0253e-05,0.0013472,-9.1468e-05,-9.1262,0.74365
27074,12.204,1.1818,0.1,0.00027715,2769.6,0.00027702,2765.7,-9.1077e-05,-8.0151e-05,-9.2108e-05,-7.7463,0.73465
27075,12.296,1.0909,0.1,0.00027476,2745.7,0.00027461,2741.4,-9.0242e-05,0.00027635,-9.1393e-05,-8.6469,0.74432
27076,12.204,1.3636,0.1,0.00027706,2768.7,0.00027693,2765,-9.107e-05,-0.0010395,-9.2034e-05,-7.2437,0.73523
27077,12.296,1.2727,0.1,0.00027466,2744.7,0.00027452,2740.6,-9.0233e-05,-0.0007774,-9.1324e-05,-8.2009,0.74492
27078,12.204,1.5455,0.1,0.00027697,2767.8,0.00027685,2764.4,-9.1064e-05,-0.0019537,-9.1966e-05,-6.7836,0.73574
27079,12.296,1.4545,0.1,0.00027458,2743.9,0.00027444,2740,-9.0225e-05,-0.0017603,-9.1261e-05,-7.7896,0.74546
27080,12.204,1.7273,0.1,0.00027689,2767,0.00027678,2763.8,-9.1059e-05,-0.0028179,-9.1906e-05,-6.3684,0.7362
27081,12.296,1.6364,0.1,0.0002745,2743.1,0.00027437,2739.4,-9.0218e-05,-0.0026749,-9.1204e-05,-7.4148,0.74594
27082,12.204,1.9091,0.1,0.00027682,2766.3,0.00027672,2763.3,-9.1055e-05,-0.0036211,-9.1853e-05,-6.0009,0.73659
27083,12.296,1.8182,0.1,0.00027443,2742.4,0.00027431,2738.9,-9.0212e-05,-0.0035113,-9.1154e-05,-7.0788,0.74636
27084,12.204,2.0909,0.1,0.00027677,2765.8,0.00027667,2762.9,-9.1052e-05,-0.0043482,-9.1808e-05,-5.6839,0.73692
27085,12.296,2,0.1,0.00027437,2741.9,0.00027426,2738.5,-9.0208e-05,-0.00426,-9.111e-05,-6.7842,0.74672
27086,12.204,2.2727,0.1,0.00027672,2765.3,0.00027663,2762.6,-9.1049e-05,-0.0049819,-9.177e-05,-5.4201,0.7372
27087,12.296,2.1818,0.1,0.00027433,2741.4,0.00027421,2738.1,-9.0204e-05,-0.0049087,-9.1073e-05,-6.5337,0.74702
27088,12.204,2.4545,0.1,0.00027668,2764.9,0.00027659,2762.3,-9.1047e-05,-0.0055044,-9.174e-05,-5.212,0.73741
27089,12.296,2.3636,0.1,0.00027429,2741,0.00027418,2737.8,-9.0201e-05,-0.0054471,-9.1043e-05,-6.3297,0.74726
27090,12.204,2.6364,0.1,0.00027666,2764.7,0.00027657,2762.1,-9.1046e-05,-0.0058954,-9.1719e-05,-5.0617,0.73756
27091,12.296,2.5455,0.1,0.00027426,2740.7,0.00027415,2737.6,-9.0199e-05,-0.0058646,-9.102e-05,-6.1745,0.74744
27092,12.204,2.8182,0.1,0.00027664,2764.5,0.00027656,2762,-9.1046e-05,-0.0061372,-9.1706e-05,-4.9709,0.73765
27093,12.296,2.7273,0.1,0.00027424,2740.5,0.00027413,2737.4,-9.0198e-05,-0.0061491,-9.1005e-05,-6.0699,0.74756
27094,12.204,3,0.1,0.00027664,2764.4,0.00027655,2762,-9.1045e-05,-0.0062191,-9.1702e-05,-4.9405,0.73768
27095,12.296,2.9091,0.1,0.00027423,2740.4,0.00027412,2737.4,-9.0197e-05,-0.0062928,-9.0997e-05,-6.0173,0.74762
27096,12.204,3.1818,0.1,0.00027664,2764.5,0.00027656,2762,-9.1046e-05,-0.0061372,-9.1706e-05,-4.9709,0.73765
27097,12.296,3.0909,0.1,0.00027423,2740.4,0.00027412,2737.4,-9.0197e-05,-0.0062928,-9.0997e-05,-6.0173,0.74762
27098,12.204,3.3636,0.1,0.00027666,2764.7,0.00027657,2762.1,-9.1046e-05,-0.0058953,-9.1719e-05,-5.0617,0.73756
27099,12.296,3.2727,0.1,0.00027424,2740.5,0.00027413,2737.4,-9.0198e-05,-0.0061489,-9.1005e-05,-6.0699,0.74756
27100,12.204,3.5455,0.1,0.00027668,2764.9,0.00027659,2762.3,-9.1047e-05,-0.0055042,-9.174e-05,-5.212,0.73741
27101,12.296,3.4545,0.1,0.00027426,2740.7,0.00027415,2737.6,-9.0199e-05,-0.0058646,-9.102e-05,-6.1745,0.74744
27102,12.204,3.7273,0.1,0.00027672,2765.3,0.00027663,2762.6,-9.1049e-05,-0.0049817,-9.177e-05,-5.4201,0.7372
27103,12.296,3.6364,0.1,0.00027429,2741,0.00027418,2737.8,-9.0201e-05,-0.0054469,-9.1043e-05,-6.3297,0.74726
27104,12.204,3.9091,0.1,0.00027677,2765.8,0.00027667,2762.9,-9.1052e-05,-0.0043478,-9.1808e-05,-5.6839,0.73692
27105,12.296,3.8182,0.1,0.00027433,2741.4,0.00027421,2738.1,-9.0204e-05,-0.0049084,-9.1073e-05,-6.5337,0.74702
27106,12.204,4.0909,0.1,0.00027682,2766.3,0.00027672,2763.3,-9.1055e-05,-0.0036206,-9.1853e-05,-6.001,0.73659
27107,12.296,4,0.1,0.00027437,2741.9,0.00027426,2738.5,-9.0208e-05,-0.0042596,-9.111e-05,-6.7843,0.74672
27108,12.204,4.2727,0.1,0.00027689,2767,0.00027678,2763.8,-9.1059e-05,-0.0028175,-9.1906e-05,-6.3685,0.7362
27109,12.296,4.1818,0.1,0.00027443,2742.4,0.00027431,2738.9,-9.0212e-05,-0.003511,-9.1154e-05,-7.0788,0.74636
27110,12.204,4.4545,0.1,0.00027697,2767.8,0.00027685,2764.4,-9.1064e-05,-0.0019533,-9.1966e-05,-6.7837,0.73574
27111,12.296,4.3636,0.1,0.0002745,2743.1,0.00027437,2739.4,-9.0218e-05,-0.0026744,-9.1204e-05,-7.4148,0.74594
27112,12.204,4.6364,0.1,0.00027706,2768.7,0.00027693,2765,-9.107e-05,-0.0010392,-9.2034e-05,-7.2438,0.73523
27113,12.296,4.5455,0.1,0.00027458,2743.9,0.00027444,2740,-9.0225e-05,-0.00176,-9.1261e-05,-7.7896,0.74546
27114,12.204,4.8182,0.1,0.00027715,2769.6,0.00027702,2765.7,-9.1077e-05,-7.9707e-05,-9.2108e-05,-7.7464,0.73465
27115,12.296,4.7273,0.1,0.00027466,2744.7,0.00027452,2740.6,-9.0233e-05,-0.00077687,-9.1324e-05,-8.201,0.74492
27116,12.204,5,0.1,0.00027726,2770.7,0.00027712,2766.5,-9.1085e-05,0.00090326,-9.2189e-05,-8.2893,0.73402
27117,12.296,4.9091,0.1,0.00027476,2745.7,0.00027461,2741.4,-9.0242e-05,0.00027688,-9.1393e-05,-8.647,0.74432
27118,12.204,5.1818,0.1,0.00027738,2771.9,0.00027723,2767.4,-9.1095e-05,0.0019641,-9.2276e-05,-8.8711,0.73332
27119,12.296,5.0909,0.1,0.00027486,2746.8,0.00027471,2742.2,-9.0253e-05,0.0013493,-9.1468e-05,-9.1263,0.74365
27120,12.204,5.3636,0.1,0.00027751,2773.2,0.00027734,2768.4,-9.1107e-05,0.0028567,-9.237e-05,-9.4928,0.73256
27121,12.296,5.2727,0.1,0.00027498,2747.9,0.00027482,2743.1,-9.0265e-05,0.0026131,-9.1549e-05,-9.6385,0.74293
27122,12.204,5.5455,0.1,0.00027765,2774.6,0.00027748,2769.5,-9.112e-05,0.0049189,-9.2477e-05,-10.19,0.73174
27123,12.296,5.4545,0.1,0.00027511,2749.2,0.00027493,2744.1,-9.028e-05,0.0033297,-9.1636e-05,-10.188,0.74215
27124,12.204,5.7273,0.1,0.00027791,2777.2,0.00027771,2771.4,-9.1135e-05,0.0044199,-9.2679e-05,-11.595,0.73087
27125,12.296,5.6364,0.1,0.00027525,2750.6,0.00027507,2745.2,-9.0296e-05,0.0072125,-9.174e-05,-10.847,0.74131
27126,12.296,5.8182,0.1,0.00027562,2754.3,0.00027539,2747.8,-9.0315e-05,0.001303,-9.2029e-05,-12.88,0.74041
27127,12.204,5.9091,0.1,0.00027749,2773,0.00027735,2768.7,-9.115e-05,0.002642,-9.2284e-05,-8.5139,0.72993
27128,12.389,0.27273,0.1,0.00027295,2727.6,0.00027274,2721.6,-8.9475e-05,0.0050435,-9.1077e-05,-12.033,0.75092
27129,12.481,0.18182,0.1,0.00027066,2704.7,0.00027043,2698.1,-8.8661e-05,0.0011096,-9.042e-05,-13.219,0.76056
27130,12.389,0.090909,0.1,0.00027251,2723.2,0.00027236,2718.8,-8.9495e-05,0.0029261,-9.0656e-05,-8.7206,0.74999
27131,12.389,0.45455,0.1,0.0002727,2725.2,0.00027252,2719.7,-8.9456e-05,0.0057066,-9.0896e-05,-10.817,0.75178
27132,12.481,0.36364,0.1,0.00027031,2701.2,0.00027011,2695.5,-8.8637e-05,0.0084315,-9.0152e-05,-11.371,0.76145
27133,12.389,0.63636,0.1,0.00027258,2723.9,0.0002724,2718.7,-8.9438e-05,0.0031107,-9.0811e-05,-10.31,0.75259
27134,12.481,0.54545,0.1,0.00027018,2699.9,0.00026999,2694.4,-8.8617e-05,0.0036396,-9.0069e-05,-10.905,0.76228
27135,12.389,0.81818,0.1,0.00027246,2722.7,0.00027229,2717.8,-8.9423e-05,0.0020201,-9.0737e-05,-9.8706,0.75333
27136,12.481,0.72727,0.1,0.00027007,2698.8,0.00026988,2693.5,-8.8599e-05,0.0027847,-9.0002e-05,-10.542,0.76305
27137,12.389,1,0.1,0.00027236,2721.7,0.0002722,2717,-8.9409e-05,0.00074885,-9.0669e-05,-9.4614,0.75402
27138,12.481,0.90909,0.1,0.00026996,2697.8,0.00026979,2692.7,-8.8582e-05,0.0012857,-8.9941e-05,-10.207,0.76375
27139,12.389,1.1818,0.1,0.00027227,2720.8,0.00027211,2716.2,-8.9398e-05,-0.00038801,-9.0606e-05,-9.0795,0.75464
27140,12.481,1.0909,0.1,0.00026987,2696.9,0.0002697,2691.9,-8.8568e-05,5.9225e-05,-8.9885e-05,-9.8933,0.76441
27141,12.389,1.3636,0.1,0.00027218,2719.9,0.00027203,2715.6,-8.9387e-05,-0.0014603,-9.0548e-05,-8.7251,0.75521
27142,12.481,1.2727,0.1,0.00026979,2696.1,0.00026963,2691.2,-8.8555e-05,-0.0011131,-8.9833e-05,-9.601,0.765
27143,12.389,1.5455,0.1,0.00027211,2719.2,0.00027196,2715,-8.9379e-05,-0.0024409,-9.0496e-05,-8.3995,0.75572
27144,12.481,1.4545,0.1,0.00026972,2695.3,0.00026956,2690.6,-8.8544e-05,-0.0021694,-8.9786e-05,-9.3299,0.76553
27145,12.389,1.7273,0.1,0.00027204,2718.5,0.0002719,2714.4,-8.9371e-05,-0.0033287,-9.0449e-05,-8.1043,0.75616
27146,12.481,1.6364,0.1,0.00026965,2694.7,0.0002695,2690.1,-8.8535e-05,-0.0031179,-8.9743e-05,-9.081,0.766
27147,12.389,1.9091,0.1,0.00027198,2717.9,0.00027185,2714,-8.9365e-05,-0.0041164,-9.0408e-05,-7.8415,0.75655
27148,12.481,1.8182,0.1,0.00026959,2694.1,0.00026944,2689.6,-8.8527e-05,-0.003954,-8.9705e-05,-8.856,0.76642
27149,12.389,2.0909,0.1,0.00027193,2717.4,0.0002718,2713.6,-8.936e-05,-0.0047977,-9.0373e-05,-7.6137,0.75688
27150,12.481,2,0.1,0.00026954,2693.6,0.0002694,2689.2,-8.8521e-05,-0.004675,-8.9672e-05,-8.6571,0.76677
27151,12.389,2.2727,0.1,0.00027189,2717,0.00027176,2713.3,-8.9356e-05,-0.0053659,-9.0343e-05,-7.4231,0.75715
27152,12.481,2.1818,0.1,0.0002695,2693.2,0.00026936,2688.9,-8.8516e-05,-0.005279,-8.9644e-05,-8.4864,0.76707
27153,12.389,2.4545,0.1,0.00027186,2716.7,0.00027173,2713.1,-8.9353e-05,-0.0058159,-9.032e-05,-7.2721,0.75736
27154,12.481,2.3636,0.1,0.00026947,2692.8,0.00026933,2688.6,-8.8512e-05,-0.0057643,-8.9622e-05,-8.3464,0.76731
27155,12.389,2.6364,0.1,0.00027184,2716.5,0.00027171,2712.9,-8.9351e-05,-0.0061423,-9.0304e-05,-7.1627,0.75751
27156,12.481,2.5455,0.1,0.00026944,2692.6,0.0002693,2688.4,-8.8509e-05,-0.0061307,-8.9604e-05,-8.2393,0.76748
27157,12.389,2.8182,0.1,0.00027182,2716.3,0.0002717,2712.8,-8.935e-05,-0.0063396,-9.0294e-05,-7.0964,0.7576
27158,12.481,2.7273,0.1,0.00026943,2692.4,0.00026929,2688.3,-8.8507e-05,-0.0063753,-8.9593e-05,-8.1668,0.7676
27159,12.389,3,0.1,0.00027182,2716.3,0.0002717,2712.8,-8.935e-05,-0.0064055,-9.029e-05,-7.0742,0.75763
27160,12.481,2.9091,0.1,0.00026942,2692.3,0.00026928,2688.3,-8.8506e-05,-0.0064973,-8.9587e-05,-8.1302,0.76766
27161,12.389,3.1818,0.1,0.00027182,2716.3,0.0002717,2712.8,-8.935e-05,-0.0063395,-9.0294e-05,-7.0965,0.7576
27162,12.481,3.0909,0.1,0.00026942,2692.3,0.00026928,2688.3,-8.8506e-05,-0.0064975,-8.9587e-05,-8.1302,0.76766
27163,12.389,3.3636,0.1,0.00027184,2716.5,0.00027171,2712.9,-8.9351e-05,-0.0061423,-9.0304e-05,-7.1628,0.75751
27164,12.481,3.2727,0.1,0.00026943,2692.4,0.00026929,2688.3,-8.8507e-05,-0.0063752,-8.9593e-05,-8.1668,0.7676
27165,12.389,3.5455,0.1,0.00027186,2716.7,0.00027173,2713.1,-8.9353e-05,-0.0058161,-9.032e-05,-7.2722,0.75736
27166,12.481,3.4545,0.1,0.00026944,2692.6,0.0002693,2688.4,-8.8509e-05,-0.0061307,-8.9604e-05,-8.2393,0.76748
27167,12.389,3.7273,0.1,0.00027189,2717,0.00027176,2713.3,-8.9356e-05,-0.0053656,-9.0343e-05,-7.4231,0.75715
27168,12.481,3.6364,0.1,0.00026947,2692.8,0.00026933,2688.6,-8.8512e-05,-0.0057641,-8.9622e-05,-8.3465,0.76731
27169,12.389,3.9091,0.1,0.00027193,2717.4,0.0002718,2713.6,-8.936e-05,-0.0047973,-9.0373e-05,-7.6137,0.75688
27170,12.481,3.8182,0.1,0.0002695,2693.2,0.00026936,2688.9,-8.8516e-05,-0.0052783,-8.9644e-05,-8.4864,0.76707
27171,12.389,4.0909,0.1,0.00027198,2717.9,0.00027185,2714,-8.9365e-05,-0.0041162,-9.0408e-05,-7.8416,0.75655
27172,12.481,4,0.1,0.00026954,2693.6,0.0002694,2689.2,-8.8521e-05,-0.0046749,-8.9672e-05,-8.6571,0.76677
27173,12.389,4.2727,0.1,0.00027204,2718.5,0.0002719,2714.4,-8.9371e-05,-0.0033283,-9.0449e-05,-8.1043,0.75616
27174,12.481,4.1818,0.1,0.00026959,2694.1,0.00026944,2689.6,-8.8527e-05,-0.0039537,-8.9705e-05,-8.8561,0.76642
27175,12.389,4.4545,0.1,0.00027211,2719.2,0.00027196,2715,-8.9379e-05,-0.0024406,-9.0496e-05,-8.3996,0.75572
27176,12.481,4.3636,0.1,0.00026965,2694.7,0.0002695,2690.1,-8.8535e-05,-0.0031174,-8.9743e-05,-9.081,0.766
27177,12.389,4.6364,0.1,0.00027218,2719.9,0.00027203,2715.6,-8.9387e-05,-0.0014598,-9.0548e-05,-8.7252,0.75521
27178,12.481,4.5455,0.1,0.00026972,2695.3,0.00026956,2690.6,-8.8544e-05,-0.0021693,-8.9786e-05,-9.3299,0.76553
27179,12.389,4.8182,0.1,0.00027227,2720.8,0.00027211,2716.2,-8.9398e-05,-0.0003874,-9.0606e-05,-9.0795,0.75464
27180,12.481,4.7273,0.1,0.00026979,2696.1,0.00026963,2691.2,-8.8555e-05,-0.0011124,-8.9833e-05,-9.601,0.765
27181,12.389,5,0.1,0.00027236,2721.7,0.0002722,2717,-8.9409e-05,0.00075033,-9.0669e-05,-9.4615,0.75402
27182,12.481,4.9091,0.1,0.00026987,2696.9,0.0002697,2691.9,-8.8568e-05,5.978e-05,-8.9885e-05,-9.8934,0.76441
27183,12.389,5.1818,0.1,0.00027246,2722.7,0.00027229,2717.8,-8.9423e-05,0.0020216,-9.0737e-05,-9.8707,0.75333
27184,12.481,5.0909,0.1,0.00026996,2697.8,0.00026979,2692.7,-8.8582e-05,0.0012878,-8.9941e-05,-10.207,0.76375
27185,12.389,5.3636,0.1,0.00027258,2723.9,0.0002724,2718.7,-8.9438e-05,0.003111,-9.0811e-05,-10.31,0.75259
27186,12.481,5.2727,0.1,0.00027007,2698.8,0.00026988,2693.5,-8.8599e-05,0.0027855,-9.0002e-05,-10.542,0.76305
27187,12.389,5.5455,0.1,0.0002727,2725.2,0.00027252,2719.7,-8.9456e-05,0.0057066,-9.0896e-05,-10.817,0.75178
27188,12.481,5.4545,0.1,0.00027018,2699.9,0.00026999,2694.4,-8.8617e-05,0.0036401,-9.0069e-05,-10.905,0.76228
27189,12.389,5.7273,0.1,0.00027295,2727.6,0.00027274,2721.6,-8.9475e-05,0.0050436,-9.1077e-05,-12.033,0.75092
27190,12.481,5.6364,0.1,0.00027031,2701.2,0.00027011,2695.5,-8.8637e-05,0.0084318,-9.0152e-05,-11.371,0.76145
27191,12.481,5.8182,0.1,0.00027066,2704.7,0.00027043,2698.1,-8.8661e-05,0.00111,-9.042e-05,-13.219,0.76056
27192,12.389,5.9091,0.1,0.00027251,2723.2,0.00027236,2718.8,-8.9495e-05,0.0029276,-9.0656e-05,-8.7207,0.74999
27193,12.574,0.27273,0.1,0.000268,2678.2,0.00026779,2671.9,-8.7823e-05,0.0056546,-8.9481e-05,-12.458,0.77116
27194,12.666,0.18182,0.1,0.00026571,2655.3,0.00026548,2648.5,-8.7014e-05,0.00093875,-8.8817e-05,-13.547,0.7809
27195,12.574,0.090909,0.1,0.00026754,2673.6,0.00026739,2669.1,-8.7847e-05,0.0031925,-8.9034e-05,-8.9196,0.77025
27196,12.574,0.45455,0.1,0.00026778,2675.9,0.00026758,2670.2,-8.7798e-05,0.0064523,-8.9321e-05,-11.431,0.77201
27197,12.666,0.36364,0.1,0.00026538,2652,0.00026518,2646,-8.6985e-05,0.0096292,-8.8568e-05,-11.884,0.78177
27198,12.574,0.63636,0.1,0.00026766,2674.8,0.00026747,2669.2,-8.7777e-05,0.0033288,-8.9257e-05,-11.113,0.7728
27199,12.666,0.54545,0.1,0.00026526,2650.8,0.00026506,2645,-8.6961e-05,0.0039222,-8.8507e-05,-11.612,0.78259
27200,12.574,0.81818,0.1,0.00026756,2673.8,0.00026738,2668.4,-8.7758e-05,0.0020605,-8.9203e-05,-10.855,0.77353
27201,12.666,0.72727,0.1,0.00026517,2649.9,0.00026497,2644.1,-8.6938e-05,0.0029383,-8.8461e-05,-11.434,0.78334
27202,12.574,1,0.1,0.00026748,2672.9,0.00026729,2667.6,-8.7741e-05,0.00060658,-8.9153e-05,-10.616,0.7742
27203,12.666,0.90909,0.1,0.00026508,2649,0.00026489,2643.4,-8.6918e-05,0.0012243,-8.8419e-05,-11.274,0.78404
27204,12.574,1.1818,0.1,0.0002674,2672.1,0.00026722,2666.9,-8.7725e-05,-0.00065436,-8.9108e-05,-10.392,0.77482
27205,12.666,1.0909,0.1,0.00026501,2648.2,0.00026482,2642.7,-8.6901e-05,-0.00013599,-8.8381e-05,-11.125,0.78468
27206,12.574,1.3636,0.1,0.00026732,2671.4,0.00026715,2666.3,-8.7712e-05,-0.0018104,-8.9067e-05,-10.184,0.77538
27207,12.666,1.2727,0.1,0.00026494,2647.5,0.00026475,2642,-8.6885e-05,-0.0014046,-8.8347e-05,-10.985,0.78526
27208,12.574,1.5455,0.1,0.00026726,2670.8,0.00026709,2665.7,-8.7701e-05,-0.0028358,-8.903e-05,-9.9898,0.77588
27209,12.666,1.4545,0.1,0.00026488,2646.9,0.00026469,2641.5,-8.6871e-05,-0.0025169,-8.8315e-05,-10.851,0.78579
27210,12.574,1.7273,0.1,0.0002672,2670.2,0.00026704,2665.3,-8.7691e-05,-0.0037357,-8.8996e-05,-9.8115,0.77632
27211,12.666,1.6364,0.1,0.00026482,2646.4,0.00026464,2641,-8.6859e-05,-0.0034891,-8.8286e-05,-10.726,0.78625
27212,12.574,1.9091,0.1,0.00026715,2669.7,0.00026699,2664.9,-8.7683e-05,-0.0045103,-8.8967e-05,-9.6506,0.7767
27213,12.666,1.8182,0.1,0.00026477,2645.9,0.00026459,2640.6,-8.6849e-05,-0.0043239,-8.8261e-05,-10.609,0.78666
27214,12.574,2.0909,0.1,0.00026711,2669.3,0.00026695,2664.5,-8.7676e-05,-0.0051611,-8.8941e-05,-9.5091,0.77702
27215,12.666,2,0.1,0.00026473,2645.5,0.00026455,2640.2,-8.6841e-05,-0.0050263,-8.8238e-05,-10.503,0.78701
27216,12.574,2.2727,0.1,0.00026708,2668.9,0.00026692,2664.2,-8.7671e-05,-0.0056901,-8.892e-05,-9.3893,0.77729
27217,12.666,2.1818,0.1,0.0002647,2645.2,0.00026452,2639.9,-8.6835e-05,-0.0056007,-8.8219e-05,-10.409,0.7873
27218,12.574,2.4545,0.1,0.00026705,2668.7,0.00026689,2664,-8.7667e-05,-0.0060997,-8.8903e-05,-9.2933,0.77749
27219,12.666,2.3636,0.1,0.00026467,2644.9,0.00026449,2639.7,-8.6829e-05,-0.0060535,-8.8204e-05,-10.331,0.78753
27220,12.574,2.6364,0.1,0.00026703,2668.5,0.00026687,2663.9,-8.7664e-05,-0.0063909,-8.8891e-05,-9.2231,0.77764
27221,12.666,2.5455,0.1,0.00026465,2644.7,0.00026447,2639.5,-8.6826e-05,-0.0063893,-8.8192e-05,-10.27,0.78771
27222,12.574,2.8182,0.1,0.00026702,2668.4,0.00026686,2663.8,-8.7662e-05,-0.0065646,-8.8883e-05,-9.1804,0.77773
27223,12.666,2.7273,0.1,0.00026464,2644.5,0.00026446,2639.4,-8.6823e-05,-0.0066106,-8.8184e-05,-10.229,0.78783
27224,12.574,3,0.1,0.00026702,2668.3,0.00026686,2663.7,-8.7662e-05,-0.0066226,-8.8881e-05,-9.166,0.77776
27225,12.666,2.9091,0.1,0.00026463,2644.5,0.00026445,2639.3,-8.6822e-05,-0.0067203,-8.818e-05,-10.207,0.78788
27226,12.574,3.1818,0.1,0.00026702,2668.4,0.00026686,2663.8,-8.7662e-05,-0.0065649,-8.8883e-05,-9.1804,0.77773
27227,12.666,3.0909,0.1,0.00026463,2644.5,0.00026445,2639.3,-8.6822e-05,-0.0067204,-8.818e-05,-10.207,0.78788
27228,12.574,3.3636,0.1,0.00026703,2668.5,0.00026687,2663.9,-8.7664e-05,-0.0063908,-8.8891e-05,-9.2231,0.77764
27229,12.666,3.2727,0.1,0.00026464,2644.5,0.00026446,2639.4,-8.6823e-05,-0.0066106,-8.8184e-05,-10.229,0.78783
27230,12.574,3.5455,0.1,0.00026705,2668.7,0.00026689,2664,-8.7667e-05,-0.0060992,-8.8903e-05,-9.2933,0.77749
27231,12.666,3.4545,0.1,0.00026465,2644.7,0.00026447,2639.5,-8.6826e-05,-0.0063891,-8.8192e-05,-10.27,0.78771
27232,12.574,3.7273,0.1,0.00026708,2668.9,0.00026692,2664.2,-8.7671e-05,-0.0056894,-8.892e-05,-9.3893,0.77729
27233,12.666,3.6364,0.1,0.00026467,2644.9,0.00026449,2639.7,-8.6829e-05,-0.0060531,-8.8204e-05,-10.331,0.78753
27234,12.574,3.9091,0.1,0.00026711,2669.3,0.00026695,2664.5,-8.7676e-05,-0.0051608,-8.8941e-05,-9.5092,0.77702
27235,12.666,3.8182,0.1,0.0002647,2645.2,0.00026452,2639.9,-8.6835e-05,-0.0056002,-8.8219e-05,-10.409,0.7873
27236,12.574,4.0909,0.1,0.00026715,2669.7,0.00026699,2664.9,-8.7683e-05,-0.0045102,-8.8967e-05,-9.6507,0.7767
27237,12.666,4,0.1,0.00026473,2645.5,0.00026455,2640.2,-8.6841e-05,-0.0050263,-8.8238e-05,-10.503,0.78701
27238,12.574,4.2727,0.1,0.0002672,2670.2,0.00026704,2665.3,-8.7691e-05,-0.0037353,-8.8996e-05,-9.8116,0.77632
27239,12.666,4.1818,0.1,0.00026477,2645.9,0.00026459,2640.6,-8.6849e-05,-0.0043235,-8.8261e-05,-10.609,0.78666
27240,12.574,4.4545,0.1,0.00026726,2670.8,0.00026709,2665.7,-8.7701e-05,-0.0028355,-8.903e-05,-9.9899,0.77588
27241,12.666,4.3636,0.1,0.00026482,2646.4,0.00026464,2641,-8.6859e-05,-0.0034888,-8.8286e-05,-10.726,0.78625
27242,12.574,4.6364,0.1,0.00026732,2671.4,0.00026715,2666.3,-8.7712e-05,-0.00181,-8.9067e-05,-10.184,0.77538
27243,12.666,4.5455,0.1,0.00026488,2646.9,0.00026469,2641.5,-8.6871e-05,-0.0025162,-8.8315e-05,-10.851,0.78579
27244,12.574,4.8182,0.1,0.0002674,2672.1,0.00026722,2666.9,-8.7725e-05,-0.00065371,-8.9108e-05,-10.393,0.77482
27245,12.666,4.7273,0.1,0.00026494,2647.5,0.00026475,2642,-8.6885e-05,-0.0014042,-8.8347e-05,-10.985,0.78526
27246,12.574,5,0.1,0.00026748,2672.9,0.00026729,2667.6,-8.7741e-05,0.00060775,-8.9154e-05,-10.616,0.7742
27247,12.666,4.9091,0.1,0.00026501,2648.2,0.00026482,2642.7,-8.6901e-05,-0.00013521,-8.8381e-05,-11.125,0.78468
27248,12.574,5.1818,0.1,0.00026756,2673.8,0.00026738,2668.4,-8.7758e-05,0.0020619,-8.9203e-05,-10.855,0.77353
27249,12.666,5.0909,0.1,0.00026508,2649,0.00026489,2643.4,-8.6918e-05,0.0012258,-8.8419e-05,-11.274,0.78404
27250,12.574,5.3636,0.1,0.00026766,2674.8,0.00026747,2669.2,-8.7777e-05,0.0033299,-8.9257e-05,-11.113,0.7728
27251,12.666,5.2727,0.1,0.00026517,2649.9,0.00026497,2644.1,-8.6938e-05,0.0029393,-8.8461e-05,-11.434,0.78334
27252,12.574,5.5455,0.1,0.00026778,2675.9,0.00026758,2670.2,-8.7798e-05,0.0064531,-8.9321e-05,-11.431,0.77201
27253,12.666,5.4545,0.1,0.00026526,2650.8,0.00026506,2645,-8.6961e-05,0.0039227,-8.8507e-05,-11.612,0.78259
27254,12.574,5.7273,0.1,0.000268,2678.2,0.00026779,2671.9,-8.7823e-05,0.0056552,-8.9481e-05,-12.458,0.77116
27255,12.666,5.6364,0.1,0.00026538,2652,0.00026518,2646,-8.6985e-05,0.0096295,-8.8568e-05,-11.884,0.78177
27256,12.666,5.8182,0.1,0.00026571,2655.3,0.00026548,2648.5,-8.7014e-05,0.00093896,-8.8817e-05,-13.547,0.7809
27257,12.574,5.9091,0.1,0.00026754,2673.6,0.00026739,2669.1,-8.7847e-05,0.003193,-8.9034e-05,-8.9197,0.77025
27258,12.758,0.27273,0.1,0.00026308,2629,0.00026286,2622.5,-8.6176e-05,0.0062809,-8.789e-05,-12.873,0.79158
27259,12.851,0.18182,0.1,0.00026079,2606.1,0.00026055,2599.1,-8.5373e-05,0.00080971,-8.7218e-05,-13.864,0.80142
27260,12.758,0.090909,0.1,0.0002626,2624.1,0.00026244,2619.6,-8.6205e-05,0.0034583,-8.7418e-05,-9.1113,0.79068
27261,12.758,0.45455,0.1,0.00026286,2626.8,0.00026266,2620.8,-8.6148e-05,0.0071871,-8.7751e-05,-12.036,0.79241
27262,12.851,0.36364,0.1,0.00026047,2602.9,0.00026026,2596.7,-8.534e-05,0.010838,-8.699e-05,-12.39,0.80227
27263,12.758,0.63636,0.1,0.00026277,2625.9,0.00026256,2619.9,-8.6122e-05,0.0035346,-8.7707e-05,-11.908,0.79319
27264,12.851,0.54545,0.1,0.00026037,2601.9,0.00026016,2595.7,-8.5311e-05,0.0042006,-8.695e-05,-12.312,0.80307
27265,12.758,0.81818,0.1,0.00026268,2625,0.00026248,2619.1,-8.6099e-05,0.0020986,-8.7674e-05,-11.83,0.79391
27266,12.851,0.72727,0.1,0.00026029,2601.1,0.00026008,2594.9,-8.5285e-05,0.0030915,-8.6925e-05,-12.32,0.80382
27267,12.758,1,0.1,0.00026261,2624.3,0.00026241,2618.4,-8.6078e-05,0.00047744,-8.7644e-05,-11.761,0.79457
27268,12.851,0.90909,0.1,0.00026022,2600.4,0.00026001,2594.2,-8.5261e-05,0.0011726,-8.6903e-05,-12.337,0.8045
27269,12.758,1.1818,0.1,0.00026254,2623.6,0.00026234,2617.8,-8.606e-05,-0.00089061,-8.7616e-05,-11.695,0.79518
27270,12.851,1.0909,0.1,0.00026016,2599.8,0.00025995,2593.6,-8.524e-05,-0.00030784,-8.6884e-05,-12.352,0.80513
27271,12.758,1.3636,0.1,0.00026249,2623,0.00026229,2617.2,-8.6044e-05,-0.0021159,-8.7591e-05,-11.63,0.79573
27272,12.851,1.2727,0.1,0.0002601,2599.2,0.00025989,2593,-8.5221e-05,-0.001661,-8.6866e-05,-12.361,0.80571
27273,12.758,1.5455,0.1,0.00026243,2622.5,0.00026223,2616.7,-8.603e-05,-0.0031762,-8.7569e-05,-11.565,0.79622
27274,12.851,1.4545,0.1,0.00026005,2598.7,0.00025984,2592.5,-8.5205e-05,-0.0028198,-8.685e-05,-12.364,0.80622
27275,12.758,1.7273,0.1,0.00026239,2622.1,0.00026219,2616.3,-8.6018e-05,-0.0040856,-8.7548e-05,-11.502,0.79665
27276,12.851,1.6364,0.1,0.00026001,2598.3,0.0002598,2592.1,-8.5191e-05,-0.0038121,-8.6835e-05,-12.36,0.80668
27277,12.758,1.9091,0.1,0.00026235,2621.7,0.00026215,2615.9,-8.6008e-05,-0.0048516,-8.753e-05,-11.44,0.79703
27278,12.851,1.8182,0.1,0.00025997,2597.9,0.00025976,2591.7,-8.5179e-05,-0.0046468,-8.6822e-05,-12.349,0.80708
27279,12.758,2.0909,0.1,0.00026231,2621.3,0.00026212,2615.6,-8.6e-05,-0.0054817,-8.7514e-05,-11.382,0.79735
27280,12.851,2,0.1,0.00025994,2597.6,0.00025973,2591.4,-8.5169e-05,-0.0053357,-8.681e-05,-12.333,0.80743
27281,12.758,2.2727,0.1,0.00026229,2621.1,0.00026209,2615.4,-8.5993e-05,-0.0059841,-8.75e-05,-11.331,0.79761
27282,12.851,2.1818,0.1,0.00025991,2597.3,0.0002597,2591.1,-8.5161e-05,-0.0058891,-8.6799e-05,-12.315,0.80771
27283,12.758,2.4545,0.1,0.00026226,2620.8,0.00026207,2615.2,-8.5988e-05,-0.006367,-8.749e-05,-11.288,0.79781
27284,12.851,2.3636,0.1,0.00025989,2597.1,0.00025968,2590.9,-8.5155e-05,-0.006319,-8.679e-05,-12.296,0.80794
27285,12.758,2.6364,0.1,0.00026225,2620.7,0.00026206,2615,-8.5985e-05,-0.0066362,-8.7482e-05,-11.255,0.79795
27286,12.851,2.5455,0.1,0.00025987,2596.9,0.00025966,2590.8,-8.515e-05,-0.006634,-8.6783e-05,-12.28,0.80811
27287,12.758,2.8182,0.1,0.00026224,2620.6,0.00026205,2614.9,-8.5983e-05,-0.0067956,-8.7477e-05,-11.235,0.79804
27288,12.851,2.7273,0.1,0.00025986,2596.8,0.00025965,2590.7,-8.5147e-05,-0.0068395,-8.6779e-05,-12.268,0.80823
27289,12.758,3,0.1,0.00026224,2620.6,0.00026204,2614.9,-8.5982e-05,-0.0068483,-8.7475e-05,-11.228,0.79807
27290,12.851,2.9091,0.1,0.00025986,2596.8,0.00025965,2590.6,-8.5146e-05,-0.0069411,-8.6776e-05,-12.261,0.80829
27291,12.758,3.1818,0.1,0.00026224,2620.6,0.00026205,2614.9,-8.5983e-05,-0.0067955,-8.7477e-05,-11.235,0.79804
27292,12.851,3.0909,0.1,0.00025986,2596.8,0.00025965,2590.6,-8.5146e-05,-0.0069407,-8.6776e-05,-12.261,0.80829
27293,12.758,3.3636,0.1,0.00026225,2620.7,0.00026206,2615,-8.5985e-05,-0.0066361,-8.7482e-05,-11.255,0.79795
27294,12.851,3.2727,0.1,0.00025986,2596.8,0.00025965,2590.7,-8.5147e-05,-0.0068396,-8.6779e-05,-12.268,0.80823
27295,12.758,3.5455,0.1,0.00026226,2620.8,0.00026207,2615.2,-8.5988e-05,-0.006367,-8.749e-05,-11.288,0.79781
27296,12.851,3.4545,0.1,0.00025987,2596.9,0.00025966,2590.8,-8.515e-05,-0.0066341,-8.6783e-05,-12.28,0.80811
27297,12.758,3.7273,0.1,0.00026229,2621.1,0.00026209,2615.4,-8.5993e-05,-0.0059838,-8.75e-05,-11.331,0.79761
27298,12.851,3.6364,0.1,0.00025989,2597.1,0.00025968,2590.9,-8.5155e-05,-0.0063189,-8.679e-05,-12.296,0.80794
27299,12.758,3.9091,0.1,0.00026231,2621.3,0.00026212,2615.6,-8.6e-05,-0.0054814,-8.7514e-05,-11.382,0.79735
27300,12.851,3.8182,0.1,0.00025991,2597.3,0.0002597,2591.1,-8.5161e-05,-0.005889,-8.6799e-05,-12.315,0.80771
27301,12.758,4.0909,0.1,0.00026235,2621.7,0.00026215,2615.9,-8.6008e-05,-0.0048513,-8.753e-05,-11.44,0.79703
27302,12.851,4,0.1,0.00025994,2597.6,0.00025973,2591.4,-8.5169e-05,-0.0053356,-8.681e-05,-12.333,0.80743
27303,12.758,4.2727,0.1,0.00026239,2622.1,0.00026219,2616.3,-8.6018e-05,-0.0040855,-8.7548e-05,-11.502,0.79665
27304,12.851,4.1818,0.1,0.00025997,2597.9,0.00025976,2591.7,-8.5179e-05,-0.0046462,-8.6822e-05,-12.349,0.80708
27305,12.758,4.4545,0.1,0.00026243,2622.5,0.00026223,2616.7,-8.603e-05,-0.0031756,-8.7569e-05,-11.565,0.79622
27306,12.851,4.3636,0.1,0.00026001,2598.3,0.0002598,2592.1,-8.5191e-05,-0.0038118,-8.6835e-05,-12.36,0.80668
27307,12.758,4.6364,0.1,0.00026249,2623,0.00026229,2617.2,-8.6044e-05,-0.0021152,-8.7591e-05,-11.63,0.79573
27308,12.851,4.5455,0.1,0.00026005,2598.7,0.00025984,2592.5,-8.5205e-05,-0.0028193,-8.685e-05,-12.364,0.80622
27309,12.758,4.8182,0.1,0.00026254,2623.6,0.00026234,2617.8,-8.606e-05,-0.00089003,-8.7616e-05,-11.695,0.79518
27310,12.851,4.7273,0.1,0.0002601,2599.2,0.00025989,2593,-8.5221e-05,-0.0016605,-8.6866e-05,-12.361,0.80571
27311,12.758,5,0.1,0.00026261,2624.3,0.00026241,2618.4,-8.6078e-05,0.00047861,-8.7644e-05,-11.761,0.79457
27312,12.851,4.9091,0.1,0.00026016,2599.8,0.00025995,2593.6,-8.524e-05,-0.00030676,-8.6884e-05,-12.352,0.80513
27313,12.758,5.1818,0.1,0.00026268,2625,0.00026248,2619.1,-8.6099e-05,0.0020997,-8.7674e-05,-11.83,0.79391
27314,12.851,5.0909,0.1,0.00026022,2600.4,0.00026001,2594.2,-8.5261e-05,0.0011737,-8.6903e-05,-12.337,0.8045
27315,12.758,5.3636,0.1,0.00026277,2625.9,0.00026256,2619.9,-8.6122e-05,0.0035352,-8.7707e-05,-11.908,0.79319
27316,12.851,5.2727,0.1,0.00026029,2601.1,0.00026008,2594.9,-8.5285e-05,0.0030929,-8.6925e-05,-12.32,0.80382
27317,12.758,5.5455,0.1,0.00026286,2626.8,0.00026266,2620.8,-8.6148e-05,0.0071871,-8.7751e-05,-12.036,0.79241
27318,12.851,5.4545,0.1,0.00026037,2601.9,0.00026016,2595.7,-8.5311e-05,0.0042009,-8.695e-05,-12.312,0.80307
27319,12.758,5.7273,0.1,0.00026308,2629,0.00026286,2622.5,-8.6176e-05,0.0062809,-8.789e-05,-12.873,0.79158
27320,12.851,5.6364,0.1,0.00026047,2602.9,0.00026026,2596.7,-8.534e-05,0.010838,-8.699e-05,-12.39,0.80227
27321,12.851,5.8182,0.1,0.00026079,2606.1,0.00026055,2599.1,-8.5373e-05,0.00080981,-8.7218e-05,-13.864,0.80142
27322,12.758,5.9091,0.1,0.0002626,2624.1,0.00026244,2619.6,-8.6205e-05,0.0034599,-8.7418e-05,-9.1114,0.79068
27323,12.943,0.27273,0.1,0.00025817,2579.9,0.00025794,2573.2,-8.4536e-05,0.0069479,-8.6305e-05,-13.28,0.81217
27324,13.036,0.18182,0.1,0.00025588,2557.1,0.00025564,2549.9,-8.3738e-05,0.00072465,-8.5624e-05,-14.171,0.82211
27325,12.943,0.090909,0.1,0.00025767,2574.9,0.00025751,2570.2,-8.4569e-05,0.0037447,-8.5807e-05,-9.2963,0.8113
27326,12.943,0.45455,0.1,0.00025797,2577.9,0.00025775,2571.6,-8.4503e-05,0.0079359,-8.6186e-05,-12.637,0.813
27327,13.036,0.36364,0.1,0.00025558,2554,0.00025536,2547.6,-8.37e-05,0.012069,-8.5418e-05,-12.891,0.82295
27328,12.943,0.63636,0.1,0.00025789,2577.1,0.00025767,2570.7,-8.4474e-05,0.0037462,-8.6164e-05,-12.699,0.81376
27329,13.036,0.54545,0.1,0.00025549,2553.2,0.00025527,2546.6,-8.3667e-05,0.0044758,-8.54e-05,-13.011,0.82374
27330,12.943,0.81818,0.1,0.00025782,2576.5,0.0002576,2570,-8.4447e-05,0.002148,-8.6151e-05,-12.803,0.81447
27331,13.036,0.72727,0.1,0.00025543,2552.6,0.0002552,2545.9,-8.3637e-05,0.0032426,-8.5395e-05,-13.208,0.82447
27332,12.943,1,0.1,0.00025777,2575.9,0.00025754,2569.4,-8.4422e-05,0.0003697,-8.614e-05,-12.904,0.81512
27333,13.036,0.90909,0.1,0.00025538,2552,0.00025515,2545.3,-8.361e-05,0.0011239,-8.5394e-05,-13.402,0.82515
27334,12.943,1.1818,0.1,0.00025771,2575.4,0.00025749,2568.8,-8.4401e-05,-0.0010952,-8.613e-05,-12.995,0.81572
27335,13.036,1.0909,0.1,0.00025533,2551.5,0.0002551,2544.7,-8.3585e-05,-0.00046829,-8.5393e-05,-13.582,0.82577
27336,12.943,1.3636,0.1,0.00025767,2574.9,0.00025744,2568.3,-8.4382e-05,-0.0023814,-8.6122e-05,-13.074,0.81626
27337,13.036,1.2727,0.1,0.00025529,2551.1,0.00025505,2544.2,-8.3564e-05,-0.0018988,-8.5392e-05,-13.742,0.82633
27338,12.943,1.5455,0.1,0.00025763,2574.5,0.0002574,2567.9,-8.4366e-05,-0.0034724,-8.6114e-05,-13.137,0.81674
27339,13.036,1.4545,0.1,0.00025525,2550.8,0.00025501,2543.8,-8.3545e-05,-0.0030994,-8.5392e-05,-13.88,0.82684
27340,12.943,1.7273,0.1,0.00025759,2574.1,0.00025736,2567.5,-8.4352e-05,-0.0043909,-8.6106e-05,-13.186,0.81717
27341,13.036,1.6364,0.1,0.00025522,2550.4,0.00025498,2543.4,-8.3529e-05,-0.0041098,-8.5391e-05,-13.995,0.82729
27342,12.943,1.9091,0.1,0.00025756,2573.8,0.00025733,2567.2,-8.434e-05,-0.00515,-8.6099e-05,-13.221,0.81754
27343,13.036,1.8182,0.1,0.00025519,2550.2,0.00025495,2543.1,-8.3515e-05,-0.0049446,-8.5389e-05,-14.088,0.82768
27344,12.943,2.0909,0.1,0.00025754,2573.6,0.00025731,2566.9,-8.433e-05,-0.0057641,-8.6092e-05,-13.245,0.81785
27345,13.036,2,0.1,0.00025517,2549.9,0.00025492,2542.8,-8.3503e-05,-0.0056227,-8.5387e-05,-14.161,0.82802
27346,12.943,2.2727,0.1,0.00025751,2573.4,0.00025729,2566.7,-8.4322e-05,-0.0062471,-8.6086e-05,-13.26,0.81811
27347,13.036,2.1818,0.1,0.00025515,2549.7,0.0002549,2542.6,-8.3494e-05,-0.0061598,-8.5385e-05,-14.215,0.8283
27348,12.943,2.4545,0.1,0.0002575,2573.2,0.00025727,2566.5,-8.4317e-05,-0.006611,-8.6081e-05,-13.268,0.81831
27349,13.036,2.3636,0.1,0.00025513,2549.6,0.00025489,2542.4,-8.3487e-05,-0.0065716,-8.5383e-05,-14.254,0.82853
27350,12.943,2.6364,0.1,0.00025749,2573.1,0.00025726,2566.4,-8.4312e-05,-0.006864,-8.6078e-05,-13.271,0.81845
27351,13.036,2.5455,0.1,0.00025512,2549.4,0.00025487,2542.3,-8.3482e-05,-0.0068702,-8.5381e-05,-14.28,0.8287
27352,12.943,2.8182,0.1,0.00025748,2573,0.00025725,2566.3,-8.431e-05,-0.0070127,-8.6076e-05,-13.273,0.81853
27353,13.036,2.7273,0.1,0.00025511,2549.3,0.00025486,2542.2,-8.3478e-05,-0.0070636,-8.538e-05,-14.296,0.82881
27354,12.943,3,0.1,0.00025748,2573,0.00025725,2566.3,-8.4309e-05,-0.0070615,-8.6075e-05,-13.273,0.81856
27355,13.036,2.9091,0.1,0.00025511,2549.3,0.00025486,2542.1,-8.3476e-05,-0.0071584,-8.5379e-05,-14.303,0.82887
27356,12.943,3.1818,0.1,0.00025748,2573,0.00025725,2566.3,-8.431e-05,-0.0070125,-8.6076e-05,-13.273,0.81853
27357,13.036,3.0909,0.1,0.00025511,2549.3,0.00025486,2542.1,-8.3476e-05,-0.0071583,-8.5379e-05,-14.303,0.82887
27358,12.943,3.3636,0.1,0.00025749,2573.1,0.00025726,2566.4,-8.4312e-05,-0.0068642,-8.6078e-05,-13.271,0.81845
27359,13.036,3.2727,0.1,0.00025511,2549.3,0.00025486,2542.2,-8.3478e-05,-0.0070635,-8.538e-05,-14.296,0.82881
27360,12.943,3.5455,0.1,0.0002575,2573.2,0.00025727,2566.5,-8.4317e-05,-0.0066111,-8.6081e-05,-13.268,0.81831
27361,13.036,3.4545,0.1,0.00025512,2549.4,0.00025487,2542.3,-8.3482e-05,-0.0068704,-8.5381e-05,-14.28,0.8287
27362,12.943,3.7273,0.1,0.00025751,2573.4,0.00025729,2566.7,-8.4322e-05,-0.0062472,-8.6086e-05,-13.26,0.81811
27363,13.036,3.6364,0.1,0.00025513,2549.6,0.00025489,2542.4,-8.3487e-05,-0.0065712,-8.5383e-05,-14.254,0.82853
27364,12.943,3.9091,0.1,0.00025754,2573.6,0.00025731,2566.9,-8.433e-05,-0.0057642,-8.6092e-05,-13.245,0.81785
27365,13.036,3.8182,0.1,0.00025515,2549.7,0.0002549,2542.6,-8.3494e-05,-0.0061596,-8.5385e-05,-14.215,0.8283
27366,12.943,4.0909,0.1,0.00025756,2573.8,0.00025733,2567.2,-8.434e-05,-0.0051496,-8.6099e-05,-13.221,0.81754
27367,13.036,4,0.1,0.00025517,2549.9,0.00025492,2542.8,-8.3503e-05,-0.0056226,-8.5387e-05,-14.161,0.82802
27368,12.943,4.2727,0.1,0.00025759,2574.1,0.00025736,2567.5,-8.4352e-05,-0.0043902,-8.6106e-05,-13.186,0.81717
27369,13.036,4.1818,0.1,0.00025519,2550.2,0.00025495,2543.1,-8.3515e-05,-0.0049439,-8.5389e-05,-14.088,0.82768
27370,12.943,4.4545,0.1,0.00025763,2574.5,0.0002574,2567.9,-8.4366e-05,-0.0034722,-8.6114e-05,-13.137,0.81674
27371,13.036,4.3636,0.1,0.00025522,2550.4,0.00025498,2543.4,-8.3529e-05,-0.0041091,-8.5391e-05,-13.995,0.82729
27372,12.943,4.6364,0.1,0.00025767,2574.9,0.00025744,2568.3,-8.4382e-05,-0.0023811,-8.6122e-05,-13.074,0.81626
27373,13.036,4.5455,0.1,0.00025525,2550.8,0.00025501,2543.8,-8.3545e-05,-0.0030995,-8.5392e-05,-13.88,0.82684
27374,12.943,4.8182,0.1,0.00025771,2575.4,0.00025749,2568.8,-8.4401e-05,-0.0010942,-8.613e-05,-12.996,0.81572
27375,13.036,4.7273,0.1,0.00025529,2551.1,0.00025505,2544.2,-8.3564e-05,-0.0018984,-8.5392e-05,-13.742,0.82633
27376,12.943,5,0.1,0.00025777,2575.9,0.00025754,2569.4,-8.4422e-05,0.00037068,-8.614e-05,-12.904,0.81512
27377,13.036,4.9091,0.1,0.00025533,2551.5,0.0002551,2544.7,-8.3585e-05,-0.00046777,-8.5393e-05,-13.582,0.82577
27378,12.943,5.1818,0.1,0.00025782,2576.5,0.0002576,2570,-8.4447e-05,0.0021493,-8.6151e-05,-12.803,0.81447
27379,13.036,5.0909,0.1,0.00025538,2552,0.00025515,2545.3,-8.361e-05,0.0011246,-8.5394e-05,-13.402,0.82515
27380,12.943,5.3636,0.1,0.00025789,2577.1,0.00025767,2570.7,-8.4474e-05,0.0037473,-8.6164e-05,-12.699,0.81376
27381,13.036,5.2727,0.1,0.00025543,2552.6,0.0002552,2545.9,-8.3637e-05,0.0032445,-8.5395e-05,-13.208,0.82447
27382,12.943,5.5455,0.1,0.00025797,2577.9,0.00025775,2571.6,-8.4503e-05,0.0079362,-8.6186e-05,-12.637,0.813
27383,13.036,5.4545,0.1,0.00025549,2553.2,0.00025527,2546.6,-8.3667e-05,0.0044765,-8.54e-05,-13.011,0.82374
27384,12.943,5.7273,0.1,0.00025817,2579.9,0.00025794,2573.2,-8.4536e-05,0.0069481,-8.6305e-05,-13.28,0.81217
27385,13.036,5.6364,0.1,0.00025558,2554,0.00025536,2547.6,-8.37e-05,0.01207,-8.5418e-05,-12.891,0.82295
27386,13.036,5.8182,0.1,0.00025588,2557.1,0.00025564,2549.9,-8.3738e-05,0.00072508,-8.5624e-05,-14.171,0.82211
27387,12.943,5.9091,0.1,0.00025767,2574.9,0.00025751,2570.2,-8.4569e-05,0.0037451,-8.5807e-05,-9.2963,0.8113
27388,13.128,0.27273,0.1,0.00025328,2531,0.00025304,2524.2,-8.2902e-05,0.0076453,-8.4724e-05,-13.681,0.83295
27389,13.221,0.18182,0.1,0.00025099,2508.2,0.00025074,2500.9,-8.2109e-05,0.00067939,-8.4035e-05,-14.47,0.84298
27390,13.128,0.090909,0.1,0.00025276,2525.8,0.00025259,2521.1,-8.2939e-05,0.0040323,-8.4201e-05,-9.475,0.83209
27391,13.128,0.45455,0.1,0.0002531,2529.2,0.00025287,2522.6,-8.2865e-05,0.0086862,-8.4627e-05,-13.236,0.83376
27392,13.221,0.36364,0.1,0.0002507,2505.3,0.00025047,2498.6,-8.2067e-05,0.013329,-8.3851e-05,-13.392,0.84381
27393,13.128,0.63636,0.1,0.00025303,2528.6,0.0002528,2521.8,-8.2831e-05,0.0039447,-8.4627e-05,-13.494,0.83451
27394,13.221,0.54545,0.1,0.00025064,2504.6,0.0002504,2497.8,-8.2029e-05,0.0047413,-8.3855e-05,-13.714,0.84458
27395,13.128,0.81818,0.1,0.00025298,2528.1,0.00025274,2521.2,-8.28e-05,0.0021865,-8.4635e-05,-13.783,0.83521
27396,13.221,0.72727,0.1,0.00025059,2504.2,0.00025035,2497.1,-8.1995e-05,0.0033834,-8.3873e-05,-14.104,0.8453
27397,13.128,1,0.1,0.00025294,2527.6,0.0002527,2520.6,-8.2772e-05,0.00025581,-8.4643e-05,-14.056,0.83585
27398,13.221,0.90909,0.1,0.00025055,2503.8,0.0002503,2496.5,-8.1964e-05,0.0010644,-8.3891e-05,-14.479,0.84596
27399,13.128,1.1818,0.1,0.0002529,2527.3,0.00025265,2520.1,-8.2748e-05,-0.0012996,-8.4652e-05,-14.305,0.83643
27400,13.221,1.0909,0.1,0.00025052,2503.5,0.00025027,2496,-8.1937e-05,-0.00063501,-8.391e-05,-14.825,0.84657
27401,13.128,1.3636,0.1,0.00025287,2526.9,0.00025262,2519.6,-8.2726e-05,-0.0026424,-8.4659e-05,-14.526,0.83696
27402,13.221,1.2727,0.1,0.00025049,2503.2,0.00025023,2495.6,-8.1912e-05,-0.0021386,-8.3926e-05,-15.137,0.84713
27403,13.128,1.5455,0.1,0.00025284,2526.7,0.00025259,2519.3,-8.2708e-05,-0.0037611,-8.4666e-05,-14.716,0.83744
27404,13.221,1.4545,0.1,0.00025047,2503,0.0002502,2495.2,-8.1891e-05,-0.0033775,-8.3941e-05,-15.41,0.84762
27405,13.128,1.7273,0.1,0.00025282,2526.4,0.00025256,2518.9,-8.2692e-05,-0.0046871,-8.4671e-05,-14.876,0.83786
27406,13.221,1.6364,0.1,0.00025045,2502.8,0.00025018,2494.9,-8.1873e-05,-0.0044035,-8.3954e-05,-15.644,0.84807
27407,13.128,1.9091,0.1,0.00025279,2526.2,0.00025254,2518.7,-8.2678e-05,-0.0054407,-8.4675e-05,-15.006,0.83822
27408,13.221,1.8182,0.1,0.00025043,2502.6,0.00025016,2494.6,-8.1857e-05,-0.0052379,-8.3964e-05,-15.839,0.84846
27409,13.128,2.0909,0.1,0.00025278,2526,0.00025252,2518.4,-8.2667e-05,-0.0060423,-8.4677e-05,-15.109,0.83853
27410,13.221,2,0.1,0.00025042,2502.4,0.00025014,2494.4,-8.1844e-05,-0.0059064,-8.3973e-05,-15.997,0.84879
27411,13.128,2.2727,0.1,0.00025276,2525.9,0.0002525,2518.2,-8.2659e-05,-0.0065089,-8.4679e-05,-15.188,0.83878
27412,13.221,2.1818,0.1,0.0002504,2502.3,0.00025013,2494.2,-8.1834e-05,-0.0064287,-8.3979e-05,-16.121,0.84907
27413,13.128,2.4545,0.1,0.00025275,2525.8,0.00025249,2518.1,-8.2652e-05,-0.0068561,-8.468e-05,-15.245,0.83898
27414,13.221,2.3636,0.1,0.00025039,2502.2,0.00025011,2494.1,-8.1826e-05,-0.0068245,-8.3983e-05,-16.215,0.84929
27415,13.128,2.6364,0.1,0.00025274,2525.7,0.00025248,2518,-8.2647e-05,-0.0070958,-8.468e-05,-15.283,0.83912
27416,13.221,2.5455,0.1,0.00025039,2502.1,0.0002501,2493.9,-8.182e-05,-0.0071085,-8.3986e-05,-16.282,0.84945
27417,13.128,2.8182,0.1,0.00025274,2525.6,0.00025247,2517.9,-8.2644e-05,-0.0072358,-8.4681e-05,-15.305,0.8392
27418,13.221,2.7273,0.1,0.00025038,2502.1,0.0002501,2493.9,-8.1816e-05,-0.0072911,-8.3988e-05,-16.325,0.84957
27419,13.128,3,0.1,0.00025274,2525.6,0.00025247,2517.9,-8.2644e-05,-0.0072818,-8.4681e-05,-15.313,0.83923
27420,13.221,2.9091,0.1,0.00025038,2502,0.0002501,2493.8,-8.1814e-05,-0.0073802,-8.3989e-05,-16.346,0.84962
27421,13.128,3.1818,0.1,0.00025274,2525.6,0.00025247,2517.9,-8.2644e-05,-0.0072356,-8.4681e-05,-15.305,0.8392
27422,13.221,3.0909,0.1,0.00025038,2502,0.0002501,2493.8,-8.1814e-05,-0.0073801,-8.3989e-05,-16.346,0.84962
27423,13.128,3.3636,0.1,0.00025274,2525.7,0.00025248,2518,-8.2647e-05,-0.0070956,-8.468e-05,-15.283,0.83912
27424,13.221,3.2727,0.1,0.00025038,2502.1,0.0002501,2493.9,-8.1816e-05,-0.0072908,-8.3988e-05,-16.325,0.84957
27425,13.128,3.5455,0.1,0.00025275,2525.8,0.00025249,2518.1,-8.2652e-05,-0.0068559,-8.468e-05,-15.245,0.83898
27426,13.221,3.4545,0.1,0.00025039,2502.1,0.0002501,2493.9,-8.182e-05,-0.0071086,-8.3986e-05,-16.282,0.84945
27427,13.128,3.7273,0.1,0.00025276,2525.9,0.0002525,2518.2,-8.2659e-05,-0.0065082,-8.4679e-05,-15.188,0.83878
27428,13.221,3.6364,0.1,0.00025039,2502.2,0.00025011,2494.1,-8.1826e-05,-0.006824,-8.3983e-05,-16.215,0.84929
27429,13.128,3.9091,0.1,0.00025278,2526,0.00025252,2518.4,-8.2667e-05,-0.0060418,-8.4677e-05,-15.109,0.83853
27430,13.221,3.8182,0.1,0.0002504,2502.3,0.00025013,2494.2,-8.1834e-05,-0.0064283,-8.3979e-05,-16.121,0.84907
27431,13.128,4.0909,0.1,0.00025279,2526.2,0.00025254,2518.7,-8.2678e-05,-0.0054404,-8.4675e-05,-15.006,0.83822
27432,13.221,4,0.1,0.00025042,2502.4,0.00025014,2494.4,-8.1844e-05,-0.0059064,-8.3973e-05,-15.997,0.84879
27433,13.128,4.2727,0.1,0.00025282,2526.4,0.00025256,2518.9,-8.2692e-05,-0.0046863,-8.4671e-05,-14.876,0.83786
27434,13.221,4.1818,0.1,0.00025043,2502.6,0.00025016,2494.6,-8.1857e-05,-0.0052375,-8.3964e-05,-15.839,0.84846
27435,13.128,4.4545,0.1,0.00025284,2526.7,0.00025259,2519.3,-8.2708e-05,-0.0037606,-8.4666e-05,-14.716,0.83744
27436,13.221,4.3636,0.1,0.00025045,2502.8,0.00025018,2494.9,-8.1873e-05,-0.0044028,-8.3954e-05,-15.644,0.84807
27437,13.128,4.6364,0.1,0.00025287,2526.9,0.00025262,2519.6,-8.2726e-05,-0.0026423,-8.4659e-05,-14.526,0.83696
27438,13.221,4.5455,0.1,0.00025047,2503,0.0002502,2495.2,-8.1891e-05,-0.003377,-8.3941e-05,-15.41,0.84762
27439,13.128,4.8182,0.1,0.0002529,2527.3,0.00025265,2520.1,-8.2748e-05,-0.0012996,-8.4652e-05,-14.305,0.83643
27440,13.221,4.7273,0.1,0.00025049,2503.2,0.00025023,2495.6,-8.1912e-05,-0.0021381,-8.3926e-05,-15.137,0.84713
27441,13.128,5,0.1,0.00025294,2527.6,0.0002527,2520.6,-8.2772e-05,0.00025608,-8.4643e-05,-14.056,0.83585
27442,13.221,4.9091,0.1,0.00025052,2503.5,0.00025027,2496,-8.1937e-05,-0.00063482,-8.391e-05,-14.825,0.84657
27443,13.128,5.1818,0.1,0.00025298,2528.1,0.00025274,2521.2,-8.28e-05,0.0021879,-8.4635e-05,-13.783,0.83521
27444,13.221,5.0909,0.1,0.00025055,2503.8,0.0002503,2496.5,-8.1964e-05,0.0010654,-8.3891e-05,-14.479,0.84596
27445,13.128,5.3636,0.1,0.00025303,2528.6,0.0002528,2521.8,-8.2831e-05,0.0039462,-8.4627e-05,-13.494,0.83451
27446,13.221,5.2727,0.1,0.00025059,2504.2,0.00025035,2497.1,-8.1995e-05,0.0033845,-8.3873e-05,-14.104,0.8453
27447,13.128,5.5455,0.1,0.0002531,2529.2,0.00025287,2522.6,-8.2865e-05,0.0086869,-8.4627e-05,-13.237,0.83376
27448,13.221,5.4545,0.1,0.00025064,2504.6,0.0002504,2497.8,-8.2029e-05,0.0047423,-8.3855e-05,-13.715,0.84458
27449,13.128,5.7273,0.1,0.00025328,2531,0.00025304,2524.2,-8.2902e-05,0.0076459,-8.4724e-05,-13.681,0.83295
27450,13.221,5.6364,0.1,0.0002507,2505.3,0.00025047,2498.6,-8.2067e-05,0.013329,-8.3851e-05,-13.392,0.84381
27451,13.221,5.8182,0.1,0.00025099,2508.2,0.00025074,2500.9,-8.2109e-05,0.00067975,-8.4035e-05,-14.47,0.84298
27452,13.128,5.9091,0.1,0.00025276,2525.8,0.00025259,2521.1,-8.2939e-05,0.0040331,-8.4201e-05,-9.475,0.83209
27453,13.313,0.27273,0.1,0.0002484,2482.3,0.00024816,2475.2,-8.1274e-05,0.0083864,-8.3148e-05,-14.078,0.85389
27454,13.406,0.18182,0.1,0.00024612,2459.5,0.00024586,2452.1,-8.0486e-05,0.00067878,-8.2451e-05,-14.761,0.86402
27455,13.313,0.090909,0.1,0.00024786,2476.9,0.0002477,2472.1,-8.1315e-05,0.0043258,-8.26e-05,-9.6479,0.85305
27456,13.313,0.45455,0.1,0.00024824,2480.7,0.000248,2473.7,-8.1231e-05,0.0094495,-8.3075e-05,-13.84,0.85469
27457,13.406,0.36364,0.1,0.00024584,2456.7,0.00024561,2449.8,-8.0438e-05,0.01463,-8.2289e-05,-13.895,0.86483
27458,13.313,0.63636,0.1,0.00024819,2480.2,0.00024795,2473,-8.1194e-05,0.0041344,-8.3097e-05,-14.299,0.85543
27459,13.406,0.54545,0.1,0.0002458,2456.3,0.00024555,2449,-8.0397e-05,0.0049993,-8.2318e-05,-14.428,0.86559
27460,13.313,0.81818,0.1,0.00024816,2479.9,0.0002479,2472.5,-8.1159e-05,0.0022143,-8.3126e-05,-14.776,0.85611
27461,13.406,0.72727,0.1,0.00024577,2456,0.00024551,2448.4,-8.0358e-05,0.0035111,-8.2357e-05,-15.017,0.8663
27462,13.313,1,0.1,0.00024813,2479.6,0.00024787,2472,-8.1128e-05,0.00013152,-8.3154e-05,-15.225,0.85674
27463,13.406,0.90909,0.1,0.00024575,2455.8,0.00024548,2448,-8.0324e-05,0.00098963,-8.2397e-05,-15.577,0.86695
27464,13.313,1.1818,0.1,0.00024811,2479.4,0.00024784,2471.5,-8.1101e-05,-0.0015112,-8.3181e-05,-15.634,0.85732
27465,13.406,1.0909,0.1,0.00024573,2455.6,0.00024545,2447.5,-8.0293e-05,-0.00081511,-8.2435e-05,-16.093,0.86755
27466,13.313,1.3636,0.1,0.00024809,2479.2,0.00024782,2471.2,-8.1077e-05,-0.0029067,-8.3205e-05,-15.998,0.85784
27467,13.406,1.2727,0.1,0.00024572,2455.5,0.00024543,2447.2,-8.0266e-05,-0.0023887,-8.2469e-05,-16.557,0.86809
27468,13.313,1.5455,0.1,0.00024808,2479,0.00024779,2470.8,-8.1056e-05,-0.0040499,-8.3227e-05,-16.315,0.85831
27469,13.406,1.4545,0.1,0.00024571,2455.4,0.00024542,2446.9,-8.0243e-05,-0.0036631,-8.25e-05,-16.965,0.86858
27470,13.313,1.7273,0.1,0.00024806,2478.9,0.00024778,2470.6,-8.1038e-05,-0.0049822,-8.3245e-05,-16.584,0.85872
27471,13.406,1.6364,0.1,0.0002457,2455.3,0.0002454,2446.6,-8.0223e-05,-0.0047026,-8.2527e-05,-17.317,0.86902
27472,13.313,1.9091,0.1,0.00024805,2478.8,0.00024776,2470.3,-8.1023e-05,-0.00573,-8.3259e-05,-16.807,0.85908
27473,13.406,1.8182,0.1,0.00024569,2455.2,0.00024539,2446.4,-8.0206e-05,-0.0055356,-8.2549e-05,-17.612,0.8694
27474,13.313,2.0909,0.1,0.00024804,2478.7,0.00024775,2470.2,-8.1011e-05,-0.0063185,-8.3271e-05,-16.987,0.85938
27475,13.406,2,0.1,0.00024569,2455.2,0.00024538,2446.2,-8.0192e-05,-0.0061932,-8.2567e-05,-17.854,0.86973
27476,13.313,2.2727,0.1,0.00024803,2478.6,0.00024774,2470,-8.1001e-05,-0.0067696,-8.328e-05,-17.127,0.85963
27477,13.406,2.1818,0.1,0.00024568,2455.1,0.00024537,2446.1,-8.018e-05,-0.0067004,-8.2581e-05,-18.046,0.87
27478,13.313,2.4545,0.1,0.00024803,2478.5,0.00024773,2469.9,-8.0994e-05,-0.0071021,-8.3286e-05,-17.231,0.85982
27479,13.406,2.3636,0.1,0.00024568,2455.1,0.00024536,2445.9,-8.0172e-05,-0.0070802,-8.2592e-05,-18.193,0.87022
27480,13.313,2.6364,0.1,0.00024802,2478.5,0.00024772,2469.8,-8.0989e-05,-0.0073291,-8.3291e-05,-17.303,0.85996
27481,13.406,2.5455,0.1,0.00024567,2455.1,0.00024536,2445.8,-8.0165e-05,-0.0073495,-8.26e-05,-18.298,0.87038
27482,13.313,2.8182,0.1,0.00024802,2478.5,0.00024772,2469.7,-8.0986e-05,-0.0074609,-8.3293e-05,-17.344,0.86004
27483,13.406,2.7273,0.1,0.00024567,2455,0.00024535,2445.8,-8.0161e-05,-0.0075214,-8.2604e-05,-18.366,0.87049
27484,13.313,3,0.1,0.00024802,2478.5,0.00024772,2469.7,-8.0985e-05,-0.0075039,-8.3294e-05,-17.358,0.86007
27485,13.406,2.9091,0.1,0.00024567,2455,0.00024535,2445.8,-8.0159e-05,-0.0076049,-8.2607e-05,-18.4,0.87055
27486,13.313,3.1818,0.1,0.00024802,2478.5,0.00024772,2469.7,-8.0986e-05,-0.0074606,-8.3293e-05,-17.344,0.86004
27487,13.406,3.0909,0.1,0.00024567,2455,0.00024535,2445.8,-8.0159e-05,-0.0076048,-8.2607e-05,-18.4,0.87055
27488,13.313,3.3636,0.1,0.00024802,2478.5,0.00024772,2469.8,-8.0989e-05,-0.0073291,-8.3291e-05,-17.303,0.85996
27489,13.406,3.2727,0.1,0.00024567,2455,0.00024535,2445.8,-8.0161e-05,-0.0075215,-8.2604e-05,-18.366,0.87049
27490,13.313,3.5455,0.1,0.00024803,2478.5,0.00024773,2469.9,-8.0994e-05,-0.0071019,-8.3286e-05,-17.231,0.85982
27491,13.406,3.4545,0.1,0.00024567,2455.1,0.00024536,2445.8,-8.0165e-05,-0.0073496,-8.26e-05,-18.298,0.87038
27492,13.313,3.7273,0.1,0.00024803,2478.6,0.00024774,2470,-8.1001e-05,-0.0067694,-8.328e-05,-17.127,0.85963
27493,13.406,3.6364,0.1,0.00024568,2455.1,0.00024536,2445.9,-8.0172e-05,-0.0070797,-8.2592e-05,-18.193,0.87022
27494,13.313,3.9091,0.1,0.00024804,2478.7,0.00024775,2470.2,-8.1011e-05,-0.0063185,-8.3271e-05,-16.987,0.85938
27495,13.406,3.8182,0.1,0.00024568,2455.1,0.00024537,2446.1,-8.018e-05,-0.0067,-8.2581e-05,-18.046,0.87
27496,13.313,4.0909,0.1,0.00024805,2478.8,0.00024776,2470.3,-8.1023e-05,-0.0057299,-8.3259e-05,-16.807,0.85908
27497,13.406,4,0.1,0.00024569,2455.2,0.00024538,2446.2,-8.0192e-05,-0.0061932,-8.2567e-05,-17.854,0.86973
27498,13.313,4.2727,0.1,0.00024806,2478.9,0.00024778,2470.6,-8.1038e-05,-0.0049817,-8.3245e-05,-16.584,0.85872
27499,13.406,4.1818,0.1,0.00024569,2455.2,0.00024539,2446.4,-8.0206e-05,-0.0055353,-8.2549e-05,-17.612,0.8694
27500,13.313,4.4545,0.1,0.00024808,2479,0.00024779,2470.8,-8.1056e-05,-0.0040492,-8.3227e-05,-16.315,0.85831
27501,13.406,4.3636,0.1,0.0002457,2455.3,0.0002454,2446.6,-8.0223e-05,-0.0047022,-8.2527e-05,-17.317,0.86902
27502,13.313,4.6364,0.1,0.00024809,2479.2,0.00024782,2471.2,-8.1077e-05,-0.0029058,-8.3205e-05,-15.998,0.85784
27503,13.406,4.5455,0.1,0.00024571,2455.4,0.00024542,2446.9,-8.0243e-05,-0.0036626,-8.25e-05,-16.965,0.86858
27504,13.313,4.8182,0.1,0.00024811,2479.4,0.00024784,2471.5,-8.1101e-05,-0.0015104,-8.3181e-05,-15.634,0.85732
27505,13.406,4.7273,0.1,0.00024572,2455.5,0.00024543,2447.2,-8.0266e-05,-0.0023879,-8.2469e-05,-16.557,0.86809
27506,13.313,5,0.1,0.00024813,2479.6,0.00024787,2472,-8.1128e-05,0.00013247,-8.3154e-05,-15.225,0.85674
27507,13.406,4.9091,0.1,0.00024573,2455.6,0.00024545,2447.5,-8.0293e-05,-0.00081466,-8.2435e-05,-16.093,0.86755
27508,13.313,5.1818,0.1,0.00024816,2479.9,0.0002479,2472.5,-8.1159e-05,0.0022152,-8.3126e-05,-14.776,0.85611
27509,13.406,5.0909,0.1,0.00024575,2455.8,0.00024548,2448,-8.0324e-05,0.00099076,-8.2397e-05,-15.577,0.86695
27510,13.313,5.3636,0.1,0.00024819,2480.2,0.00024795,2473,-8.1194e-05,0.004135,-8.3097e-05,-14.299,0.85543
27511,13.406,5.2727,0.1,0.00024577,2456,0.00024551,2448.4,-8.0358e-05,0.0035118,-8.2357e-05,-15.017,0.8663
27512,13.313,5.5455,0.1,0.00024824,2480.7,0.000248,2473.7,-8.1231e-05,0.0094502,-8.3075e-05,-13.84,0.85469
27513,13.406,5.4545,0.1,0.0002458,2456.3,0.00024555,2449,-8.0397e-05,0.0049996,-8.2318e-05,-14.428,0.86559
27514,13.313,5.7273,0.1,0.0002484,2482.3,0.00024816,2475.2,-8.1274e-05,0.0083866,-8.3148e-05,-14.078,0.85389
27515,13.406,5.6364,0.1,0.00024584,2456.7,0.00024561,2449.8,-8.0438e-05,0.01463,-8.2289e-05,-13.895,0.86483
27516,13.406,5.8182,0.1,0.00024612,2459.5,0.00024586,2452.1,-8.0486e-05,0.0006797,-8.2451e-05,-14.761,0.86402
27517,13.313,5.9091,0.1,0.00024786,2476.9,0.0002477,2472.1,-8.1315e-05,0.0043261,-8.26e-05,-9.6479,0.85305
27518,13.498,0.27273,0.1,0.00024354,2433.7,0.00024329,2426.5,-7.965e-05,0.009179,-8.1578e-05,-14.474,0.87501
27519,13.591,0.18182,0.1,0.00024126,2410.9,0.000241,2403.3,-7.8868e-05,0.00072899,-8.087e-05,-15.046,0.88522
27520,13.498,0.090909,0.1,0.00024298,2428.1,0.00024281,2423.2,-7.9697e-05,0.0046225,-8.1004e-05,-9.8154,0.87418
27521,13.498,0.45455,0.1,0.0002434,2432.3,0.00024315,2425,-7.9603e-05,0.010231,-8.1528e-05,-14.453,0.87579
27522,13.591,0.36364,0.1,0.000241,2408.4,0.00024075,2401.1,-7.8815e-05,0.015987,-8.0734e-05,-14.404,0.88602
27523,13.498,0.63636,0.1,0.00024337,2432,0.00024311,2424.4,-7.9561e-05,0.0043102,-8.1574e-05,-15.12,0.87652
27524,13.591,0.54545,0.1,0.00024097,2408.1,0.00024071,2400.5,-7.8769e-05,0.005247,-8.0787e-05,-15.158,0.88677
27525,13.498,0.81818,0.1,0.00024335,2431.9,0.00024308,2423.9,-7.9523e-05,0.002224,-8.1625e-05,-15.793,0.87719
27526,13.591,0.72727,0.1,0.00024096,2408,0.00024069,2400,-7.8726e-05,0.0036213,-8.085e-05,-15.954,0.88746
27527,13.498,1,0.1,0.00024334,2431.8,0.00024306,2423.5,-7.9489e-05,-1.0708e-05,-8.1674e-05,-16.421,0.87781
27528,13.591,0.90909,0.1,0.00024096,2408,0.00024067,2399.6,-7.8689e-05,0.0008928,-8.0912e-05,-16.706,0.8881
27529,13.498,1.1818,0.1,0.00024334,2431.7,0.00024305,2423.2,-7.9459e-05,-0.0017385,-8.172e-05,-16.992,0.87838
27530,13.591,1.0909,0.1,0.00024096,2408,0.00024066,2399.2,-7.8655e-05,-0.001017,-8.097e-05,-17.395,0.88869
27531,13.498,1.3636,0.1,0.00024333,2431.7,0.00024303,2422.9,-7.9432e-05,-0.0031845,-8.1761e-05,-17.501,0.87889
27532,13.591,1.2727,0.1,0.00024097,2408,0.00024066,2398.9,-7.8625e-05,-0.0026586,-8.1023e-05,-18.015,0.88923
27533,13.498,1.5455,0.1,0.00024333,2431.6,0.00024302,2422.6,-7.9409e-05,-0.0043504,-8.1797e-05,-17.945,0.87935
27534,13.591,1.4545,0.1,0.00024097,2408,0.00024065,2398.7,-7.86e-05,-0.0039659,-8.1069e-05,-18.559,0.88971
27535,13.498,1.7273,0.1,0.00024333,2431.6,0.00024301,2422.4,-7.939e-05,-0.0052871,-8.1828e-05,-18.322,0.87975
27536,13.591,1.6364,0.1,0.00024098,2408.1,0.00024065,2398.5,-7.8578e-05,-0.0050164,-8.111e-05,-19.027,0.89014
27537,13.498,1.9091,0.1,0.00024333,2431.6,0.00024301,2422.2,-7.9374e-05,-0.0060272,-8.1854e-05,-18.637,0.88011
27538,13.591,1.8182,0.1,0.00024098,2408.1,0.00024064,2398.4,-7.856e-05,-0.0058455,-8.1144e-05,-19.421,0.89051
27539,13.498,2.0909,0.1,0.00024333,2431.6,0.000243,2422.1,-7.9361e-05,-0.0066018,-8.1874e-05,-18.891,0.8804
27540,13.591,2,0.1,0.00024098,2408.2,0.00024064,2398.2,-7.8545e-05,-0.00649,-8.1172e-05,-19.744,0.89084
27541,13.498,2.2727,0.1,0.00024333,2431.6,0.00024299,2422,-7.935e-05,-0.0070366,-8.189e-05,-19.09,0.88065
27542,13.591,2.1818,0.1,0.00024098,2408.2,0.00024064,2398.1,-7.8533e-05,-0.0069804,-8.1194e-05,-20.001,0.8911
27543,13.498,2.4545,0.1,0.00024332,2431.6,0.00024299,2421.9,-7.9343e-05,-0.0073526,-8.1902e-05,-19.238,0.88084
27544,13.591,2.3636,0.1,0.00024099,2408.2,0.00024064,2398,-7.8523e-05,-0.0073422,-8.1211e-05,-20.198,0.89132
27545,13.498,2.6364,0.1,0.00024332,2431.5,0.00024299,2421.8,-7.9337e-05,-0.0075664,-8.191e-05,-19.341,0.88097
27546,13.591,2.5455,0.1,0.00024099,2408.2,0.00024063,2398,-7.8517e-05,-0.007596,-8.1223e-05,-20.34,0.89148
27547,13.498,2.8182,0.1,0.00024332,2431.5,0.00024299,2421.8,-7.9334e-05,-0.0076898,-8.1915e-05,-19.401,0.88105
27548,13.591,2.7273,0.1,0.00024099,2408.2,0.00024063,2397.9,-7.8512e-05,-0.0077564,-8.1231e-05,-20.431,0.89159
27549,13.498,3,0.1,0.00024332,2431.5,0.00024299,2421.8,-7.9333e-05,-0.0077301,-8.1917e-05,-19.421,0.88108
27550,13.591,2.9091,0.1,0.00024099,2408.2,0.00024063,2397.9,-7.851e-05,-0.007834,-8.1234e-05,-20.476,0.89164
27551,13.498,3.1818,0.1,0.00024332,2431.5,0.00024299,2421.8,-7.9334e-05,-0.00769,-8.1915e-05,-19.401,0.88105
27552,13.591,3.0909,0.1,0.00024099,2408.2,0.00024063,2397.9,-7.851e-05,-0.0078338,-8.1234e-05,-20.476,0.89164
27553,13.498,3.3636,0.1,0.00024332,2431.5,0.00024299,2421.8,-7.9337e-05,-0.0075665,-8.191e-05,-19.341,0.88097
27554,13.591,3.2727,0.1,0.00024099,2408.2,0.00024063,2397.9,-7.8512e-05,-0.0077564,-8.1231e-05,-20.432,0.89159
27555,13.498,3.5455,0.1,0.00024332,2431.6,0.00024299,2421.9,-7.9343e-05,-0.0073524,-8.1902e-05,-19.239,0.88084
27556,13.591,3.4545,0.1,0.00024099,2408.2,0.00024063,2398,-7.8517e-05,-0.0075962,-8.1223e-05,-20.34,0.89148
27557,13.498,3.7273,0.1,0.00024333,2431.6,0.00024299,2422,-7.935e-05,-0.007036,-8.189e-05,-19.09,0.88065
27558,13.591,3.6364,0.1,0.00024099,2408.2,0.00024064,2398,-7.8523e-05,-0.0073419,-8.1211e-05,-20.198,0.89132
27559,13.498,3.9091,0.1,0.00024333,2431.6,0.000243,2422.1,-7.9361e-05,-0.0066014,-8.1874e-05,-18.891,0.8804
27560,13.591,3.8182,0.1,0.00024098,2408.2,0.00024064,2398.1,-7.8533e-05,-0.00698,-8.1194e-05,-20.001,0.8911
27561,13.498,4.0909,0.1,0.00024333,2431.6,0.00024301,2422.2,-7.9374e-05,-0.0060271,-8.1854e-05,-18.637,0.88011
27562,13.591,4,0.1,0.00024098,2408.2,0.00024064,2398.2,-7.8545e-05,-0.0064902,-8.1172e-05,-19.744,0.89084
27563,13.498,4.2727,0.1,0.00024333,2431.6,0.00024301,2422.4,-7.939e-05,-0.0052868,-8.1828e-05,-18.322,0.87975
27564,13.591,4.1818,0.1,0.00024098,2408.1,0.00024064,2398.4,-7.856e-05,-0.0058453,-8.1144e-05,-19.421,0.89051
27565,13.498,4.4545,0.1,0.00024333,2431.6,0.00024302,2422.6,-7.9409e-05,-0.0043503,-8.1797e-05,-17.945,0.87935
27566,13.591,4.3636,0.1,0.00024098,2408.1,0.00024065,2398.5,-7.8578e-05,-0.0050163,-8.111e-05,-19.027,0.89014
27567,13.498,4.6364,0.1,0.00024333,2431.7,0.00024303,2422.9,-7.9432e-05,-0.0031842,-8.1761e-05,-17.501,0.87889
27568,13.591,4.5455,0.1,0.00024097,2408,0.00024065,2398.7,-7.86e-05,-0.0039655,-8.1069e-05,-18.559,0.88971
27569,13.498,4.8182,0.1,0.00024334,2431.7,0.00024305,2423.2,-7.9459e-05,-0.001738,-8.172e-05,-16.993,0.87838
27570,13.591,4.7273,0.1,0.00024097,2408,0.00024066,2398.9,-7.8625e-05,-0.002658,-8.1023e-05,-18.015,0.88923
27571,13.498,5,0.1,0.00024334,2431.8,0.00024306,2423.5,-7.9489e-05,-1.0074e-05,-8.1674e-05,-16.421,0.87781
27572,13.591,4.9091,0.1,0.00024096,2408,0.00024066,2399.2,-7.8655e-05,-0.0010165,-8.097e-05,-17.395,0.88869
27573,13.498,5.1818,0.1,0.00024335,2431.9,0.00024308,2423.9,-7.9523e-05,0.0022251,-8.1625e-05,-15.793,0.87719
27574,13.591,5.0909,0.1,0.00024096,2408,0.00024067,2399.6,-7.8689e-05,0.00089386,-8.0912e-05,-16.706,0.8881
27575,13.498,5.3636,0.1,0.00024337,2432,0.00024311,2424.4,-7.9561e-05,0.0043106,-8.1574e-05,-15.12,0.87652
27576,13.591,5.2727,0.1,0.00024096,2408,0.00024069,2400,-7.8726e-05,0.0036229,-8.085e-05,-15.954,0.88746
27577,13.498,5.5455,0.1,0.0002434,2432.3,0.00024315,2425,-7.9603e-05,0.01023,-8.1528e-05,-14.453,0.87579
27578,13.591,5.4545,0.1,0.00024097,2408.1,0.00024071,2400.5,-7.8769e-05,0.0052466,-8.0787e-05,-15.158,0.88677
27579,13.498,5.7273,0.1,0.00024354,2433.7,0.00024329,2426.5,-7.965e-05,0.0091798,-8.1578e-05,-14.474,0.87501
27580,13.591,5.6364,0.1,0.000241,2408.4,0.00024075,2401.1,-7.8815e-05,0.015987,-8.0734e-05,-14.404,0.88602
27581,13.591,5.8182,0.1,0.00024126,2410.9,0.000241,2403.3,-7.8868e-05,0.00073053,-8.087e-05,-15.046,0.88522
27582,13.498,5.9091,0.1,0.00024298,2428.1,0.00024281,2423.2,-7.9697e-05,0.0046241,-8.1004e-05,-9.8154,0.87418
27583,13.683,0.27273,0.1,0.0002387,2385.3,0.00023844,2377.9,-7.8032e-05,0.010036,-8.0013e-05,-14.872,0.89629
27584,13.775,0.18182,0.1,0.00023641,2362.5,0.00023614,2354.8,-7.7254e-05,0.00084027,-7.9294e-05,-15.326,0.90659
27585,13.683,0.090909,0.1,0.00023812,2379.5,0.00023794,2374.5,-7.8083e-05,0.004924,-7.9412e-05,-9.9779,0.89547
27586,13.683,0.45455,0.1,0.00023857,2384.1,0.00023831,2376.5,-7.798e-05,0.011034,-7.9988e-05,-15.079,0.89705
27587,13.775,0.36364,0.1,0.00023617,2360.1,0.00023592,2352.6,-7.7196e-05,0.017415,-7.9184e-05,-14.925,0.90738
27588,13.683,0.63636,0.1,0.00023856,2384,0.00023829,2376,-7.7934e-05,0.0044698,-8.0059e-05,-15.966,0.89777
27589,13.775,0.54545,0.1,0.00023617,2360,0.00023589,2352,-7.7145e-05,0.0054822,-7.9264e-05,-15.911,0.90811
27590,13.683,0.81818,0.1,0.00023857,2384,0.00023828,2375.6,-7.7892e-05,0.0022113,-8.0134e-05,-16.842,0.89843
27591,13.775,0.72727,0.1,0.00023618,2360.2,0.00023589,2351.7,-7.7099e-05,0.0037114,-7.9352e-05,-16.925,0.90879
27592,13.683,1,0.1,0.00023858,2384.1,0.00023827,2375.3,-7.7854e-05,-0.00017887,-8.0204e-05,-17.655,0.89904
27593,13.775,0.90909,0.1,0.0002362,2360.3,0.00023589,2351.3,-7.7057e-05,0.00076707,-7.9437e-05,-17.876,0.90942
27594,13.683,1.1818,0.1,0.00023859,2384.2,0.00023827,2375,-7.7821e-05,-0.0019912,-8.0269e-05,-18.394,0.8996
27595,13.775,1.0909,0.1,0.00023622,2360.5,0.00023589,2351.1,-7.7021e-05,-0.0012485,-7.9516e-05,-18.745,0.91
27596,13.683,1.3636,0.1,0.0002386,2384.4,0.00023827,2374.8,-7.7793e-05,-0.0034851,-8.0328e-05,-19.049,0.9001
27597,13.775,1.2727,0.1,0.00023624,2360.7,0.0002359,2350.9,-7.6989e-05,-0.0029566,-7.9587e-05,-19.523,0.91053
27598,13.683,1.5455,0.1,0.00023861,2384.5,0.00023827,2374.6,-7.7768e-05,-0.0046703,-8.0379e-05,-19.619,0.90055
27599,13.775,1.4545,0.1,0.00023626,2360.9,0.00023591,2350.8,-7.6962e-05,-0.0042942,-7.965e-05,-20.204,0.911
27600,13.683,1.7273,0.1,0.00023862,2384.6,0.00023827,2374.4,-7.7748e-05,-0.0056083,-8.0423e-05,-20.104,0.90095
27601,13.775,1.6364,0.1,0.00023627,2361.1,0.00023591,2350.6,-7.6939e-05,-0.0053523,-7.9705e-05,-20.789,0.91142
27602,13.683,1.9091,0.1,0.00023863,2384.7,0.00023827,2374.3,-7.773e-05,-0.0063382,-8.0459e-05,-20.507,0.9013
27603,13.775,1.8182,0.1,0.00023629,2361.3,0.00023592,2350.5,-7.6919e-05,-0.0061738,-7.9751e-05,-21.279,0.91179
27604,13.683,2.0909,0.1,0.00023864,2384.7,0.00023828,2374.2,-7.7717e-05,-0.006896,-8.0488e-05,-20.833,0.90159
27605,13.775,2,0.1,0.0002363,2361.4,0.00023592,2350.5,-7.6904e-05,-0.0068023,-7.9788e-05,-21.681,0.91211
27606,13.683,2.2727,0.1,0.00023864,2384.8,0.00023828,2374.2,-7.7706e-05,-0.0073117,-8.0511e-05,-21.088,0.90183
27607,13.775,2.1818,0.1,0.00023631,2361.5,0.00023593,2350.4,-7.6891e-05,-0.0072723,-7.9818e-05,-21.999,0.91237
27608,13.683,2.4545,0.1,0.00023865,2384.8,0.00023828,2374.1,-7.7698e-05,-0.00761,-8.0528e-05,-21.278,0.90202
27609,13.775,2.3636,0.1,0.00023632,2361.6,0.00023593,2350.4,-7.6882e-05,-0.007613,-7.9841e-05,-22.243,0.91258
27610,13.683,2.6364,0.1,0.00023865,2384.8,0.00023828,2374.1,-7.7692e-05,-0.0078097,-8.054e-05,-21.409,0.90215
27611,13.775,2.5455,0.1,0.00023632,2361.6,0.00023594,2350.3,-7.6875e-05,-0.0078495,-7.9857e-05,-22.418,0.91274
27612,13.683,2.8182,0.1,0.00023865,2384.9,0.00023828,2374,-7.7689e-05,-0.007924,-8.0547e-05,-21.486,0.90223
27613,13.775,2.7273,0.1,0.00023633,2361.7,0.00023594,2350.3,-7.687e-05,-0.0079968,-7.9868e-05,-22.531,0.91285
27614,13.683,3,0.1,0.00023865,2384.9,0.00023828,2374,-7.7687e-05,-0.0079609,-8.0549e-05,-21.511,0.90226
27615,13.775,2.9091,0.1,0.00023633,2361.7,0.00023594,2350.3,-7.6868e-05,-0.0080677,-7.9873e-05,-22.586,0.9129
27616,13.683,3.1818,0.1,0.00023865,2384.9,0.00023828,2374,-7.7689e-05,-0.0079235,-8.0547e-05,-21.486,0.90223
27617,13.775,3.0909,0.1,0.00023633,2361.7,0.00023594,2350.3,-7.6868e-05,-0.0080671,-7.9873e-05,-22.586,0.9129
27618,13.683,3.3636,0.1,0.00023865,2384.8,0.00023828,2374.1,-7.7692e-05,-0.0078098,-8.054e-05,-21.409,0.90215
27619,13.775,3.2727,0.1,0.00023633,2361.7,0.00023594,2350.3,-7.687e-05,-0.0079967,-7.9868e-05,-22.531,0.91285
27620,13.683,3.5455,0.1,0.00023865,2384.8,0.00023828,2374.1,-7.7698e-05,-0.0076102,-8.0528e-05,-21.278,0.90202
27621,13.775,3.4545,0.1,0.00023632,2361.6,0.00023594,2350.3,-7.6875e-05,-0.007849,-7.9857e-05,-22.418,0.91274
27622,13.683,3.7273,0.1,0.00023864,2384.8,0.00023828,2374.2,-7.7706e-05,-0.0073116,-8.0511e-05,-21.088,0.90183
27623,13.775,3.6364,0.1,0.00023632,2361.6,0.00023593,2350.4,-7.6882e-05,-0.0076131,-7.9841e-05,-22.243,0.91258
27624,13.683,3.9091,0.1,0.00023864,2384.7,0.00023828,2374.2,-7.7717e-05,-0.0068961,-8.0488e-05,-20.833,0.90159
27625,13.775,3.8182,0.1,0.00023631,2361.5,0.00023593,2350.4,-7.6891e-05,-0.0072718,-7.9818e-05,-21.999,0.91237
27626,13.683,4.0909,0.1,0.00023863,2384.7,0.00023827,2374.3,-7.773e-05,-0.0063383,-8.0459e-05,-20.507,0.9013
27627,13.775,4,0.1,0.0002363,2361.4,0.00023592,2350.5,-7.6904e-05,-0.0068023,-7.9788e-05,-21.681,0.91211
27628,13.683,4.2727,0.1,0.00023862,2384.6,0.00023827,2374.4,-7.7748e-05,-0.0056083,-8.0423e-05,-20.104,0.90095
27629,13.775,4.1818,0.1,0.00023629,2361.3,0.00023592,2350.5,-7.6919e-05,-0.0061741,-7.9751e-05,-21.28,0.91179
27630,13.683,4.4545,0.1,0.00023861,2384.5,0.00023827,2374.6,-7.7768e-05,-0.0046701,-8.0379e-05,-19.619,0.90055
27631,13.775,4.3636,0.1,0.00023627,2361.1,0.00023591,2350.6,-7.6939e-05,-0.0053523,-7.9705e-05,-20.789,0.91142
27632,13.683,4.6364,0.1,0.0002386,2384.4,0.00023827,2374.8,-7.7793e-05,-0.0034845,-8.0328e-05,-19.049,0.9001
27633,13.775,4.5455,0.1,0.00023626,2360.9,0.00023591,2350.8,-7.6962e-05,-0.0042938,-7.965e-05,-20.204,0.911
27634,13.683,4.8182,0.1,0.00023859,2384.2,0.00023827,2375,-7.7821e-05,-0.0019906,-8.0269e-05,-18.394,0.8996
27635,13.775,4.7273,0.1,0.00023624,2360.7,0.0002359,2350.9,-7.6989e-05,-0.0029559,-7.9587e-05,-19.523,0.91053
27636,13.683,5,0.1,0.00023858,2384.1,0.00023827,2375.3,-7.7854e-05,-0.00017795,-8.0204e-05,-17.656,0.89904
27637,13.775,4.9091,0.1,0.00023622,2360.5,0.00023589,2351.1,-7.7021e-05,-0.001248,-7.9516e-05,-18.745,0.91
27638,13.683,5.1818,0.1,0.00023857,2384,0.00023828,2375.6,-7.7892e-05,0.0022129,-8.0134e-05,-16.842,0.89843
27639,13.775,5.0909,0.1,0.0002362,2360.3,0.00023589,2351.3,-7.7057e-05,0.00076796,-7.9437e-05,-17.876,0.90942
27640,13.683,5.3636,0.1,0.00023856,2384,0.00023829,2376,-7.7934e-05,0.0044705,-8.0059e-05,-15.966,0.89777
27641,13.775,5.2727,0.1,0.00023618,2360.2,0.00023589,2351.7,-7.7099e-05,0.0037133,-7.9352e-05,-16.925,0.90879
27642,13.683,5.5455,0.1,0.00023857,2384.1,0.00023831,2376.5,-7.798e-05,0.011034,-7.9988e-05,-15.079,0.89705
27643,13.775,5.4545,0.1,0.00023617,2360,0.00023589,2352,-7.7145e-05,0.0054826,-7.9264e-05,-15.911,0.90811
27644,13.683,5.7273,0.1,0.0002387,2385.3,0.00023844,2377.9,-7.8032e-05,0.010037,-8.0013e-05,-14.872,0.89629
27645,13.775,5.6364,0.1,0.00023617,2360.1,0.00023592,2352.6,-7.7196e-05,0.017414,-7.9184e-05,-14.925,0.90738
27646,13.775,5.8182,0.1,0.00023641,2362.5,0.00023614,2354.8,-7.7254e-05,0.00084108,-7.9294e-05,-15.326,0.90659
27647,13.683,5.9091,0.1,0.00023812,2379.5,0.00023794,2374.5,-7.8083e-05,0.0049252,-7.9412e-05,-9.978,0.89547
27648,13.868,0.27273,0.1,0.00023387,2337.1,0.0002336,2329.4,-7.6418e-05,0.010972,-7.8452e-05,-15.273,0.91773
27649,13.96,0.18182,0.1,0.00023157,2314.1,0.0002313,2306.3,-7.5645e-05,0.0010233,-7.7721e-05,-15.602,0.92812
27650,13.868,0.090909,0.1,0.00023326,2331,0.00023309,2326,-7.6474e-05,0.0052291,-7.7824e-05,-10.136,0.91693
27651,13.868,0.45455,0.1,0.00023376,2336,0.00023349,2328.1,-7.6361e-05,0.011868,-7.8455e-05,-15.726,0.91848
27652,13.96,0.36364,0.1,0.00023136,2312,0.0002311,2304.3,-7.5581e-05,0.018929,-7.7641e-05,-15.461,0.92889
27653,13.868,0.63636,0.1,0.00023378,2336.2,0.00023349,2327.7,-7.631e-05,0.0046101,-7.8553e-05,-16.844,0.91919
27654,13.96,0.54545,0.1,0.00023138,2312.2,0.00023109,2303.8,-7.5525e-05,0.005703,-7.7748e-05,-16.696,0.92961
27655,13.868,0.81818,0.1,0.0002338,2336.4,0.00023349,2327.4,-7.6264e-05,0.002171,-7.8652e-05,-17.933,0.91984
27656,13.96,0.72727,0.1,0.00023141,2312.5,0.0002311,2303.5,-7.5475e-05,0.0037764,-7.7863e-05,-17.939,0.93028
27657,13.868,1,0.1,0.00023383,2336.7,0.0002335,2327.2,-7.6224e-05,-0.00037969,-7.8745e-05,-18.94,0.92043
27658,13.96,0.90909,0.1,0.00023145,2312.9,0.00023112,2303.3,-7.543e-05,0.00060513,-7.7972e-05,-19.099,0.9309
27659,13.868,1.1818,0.1,0.00023386,2337,0.00023352,2327,-7.6189e-05,-0.0022758,-7.883e-05,-19.85,0.92098
27660,13.96,1.0909,0.1,0.00023149,2313.3,0.00023114,2303.1,-7.5391e-05,-0.0015178,-7.8073e-05,-20.155,0.93147
27661,13.868,1.3636,0.1,0.00023389,2337.3,0.00023353,2326.9,-7.6158e-05,-0.0038161,-7.8906e-05,-20.655,0.92148
27662,13.96,1.2727,0.1,0.00023153,2313.7,0.00023116,2303.1,-7.5357e-05,-0.0032916,-7.8164e-05,-21.095,0.93199
27663,13.868,1.5455,0.1,0.00023391,2337.5,0.00023354,2326.8,-7.6132e-05,-0.005018,-7.8973e-05,-21.352,0.92192
27664,13.96,1.4545,0.1,0.00023156,2314,0.00023118,2303,-7.5328e-05,-0.0046567,-7.8244e-05,-21.915,0.93245
27665,13.868,1.7273,0.1,0.00023394,2337.8,0.00023356,2326.7,-7.611e-05,-0.0059532,-7.903e-05,-21.942,0.92231
27666,13.96,1.6364,0.1,0.00023159,2314.4,0.0002312,2303,-7.5304e-05,-0.0057184,-7.8313e-05,-22.616,0.93287
27667,13.868,1.9091,0.1,0.00023396,2337.9,0.00023357,2326.6,-7.6092e-05,-0.0066688,-7.9077e-05,-22.431,0.92265
27668,13.96,1.8182,0.1,0.00023162,2314.6,0.00023122,2302.9,-7.5284e-05,-0.0065274,-7.8371e-05,-23.201,0.93323
27669,13.868,2.0909,0.1,0.00023397,2338.1,0.00023358,2326.6,-7.6078e-05,-0.0072062,-7.9115e-05,-22.826,0.92294
27670,13.96,2,0.1,0.00023165,2314.9,0.00023123,2302.9,-7.5268e-05,-0.007135,-7.8418e-05,-23.677,0.93354
27671,13.868,2.2727,0.1,0.00023398,2338.2,0.00023358,2326.6,-7.6067e-05,-0.007599,-7.9145e-05,-23.133,0.92318
27672,13.96,2.1818,0.1,0.00023166,2315,0.00023125,2302.9,-7.5255e-05,-0.0075796,-7.8455e-05,-24.053,0.9338
27673,13.868,2.4545,0.1,0.00023399,2338.3,0.00023359,2326.6,-7.6059e-05,-0.0078763,-7.9167e-05,-23.361,0.92336
27674,13.96,2.3636,0.1,0.00023168,2315.2,0.00023125,2302.9,-7.5246e-05,-0.007896,-7.8484e-05,-24.339,0.93401
27675,13.868,2.6364,0.1,0.000234,2338.4,0.00023359,2326.5,-7.6053e-05,-0.0080595,-7.9182e-05,-23.519,0.92349
27676,13.96,2.5455,0.1,0.00023169,2315.3,0.00023126,2302.9,-7.5239e-05,-0.0081112,-7.8504e-05,-24.544,0.93416
27677,13.868,2.8182,0.1,0.000234,2338.4,0.00023359,2326.5,-7.605e-05,-0.0081628,-7.9191e-05,-23.61,0.92357
27678,13.96,2.7273,0.1,0.0002317,2315.4,0.00023127,2302.9,-7.5235e-05,-0.0082433,-7.8518e-05,-24.676,0.93427
27679,13.868,3,0.1,0.00023401,2338.4,0.00023359,2326.5,-7.6049e-05,-0.008196,-7.9194e-05,-23.641,0.92359
27680,13.96,2.9091,0.1,0.0002317,2315.4,0.00023127,2302.9,-7.5232e-05,-0.0083058,-7.8524e-05,-24.74,0.93432
27681,13.868,3.1818,0.1,0.000234,2338.4,0.00023359,2326.5,-7.605e-05,-0.0081626,-7.9191e-05,-23.61,0.92357
27682,13.96,3.0909,0.1,0.0002317,2315.4,0.00023127,2302.9,-7.5232e-05,-0.0083054,-7.8524e-05,-24.74,0.93432
27683,13.868,3.3636,0.1,0.000234,2338.4,0.00023359,2326.5,-7.6053e-05,-0.0080588,-7.9182e-05,-23.519,0.92349
27684,13.96,3.2727,0.1,0.0002317,2315.4,0.00023127,2302.9,-7.5235e-05,-0.0082434,-7.8518e-05,-24.676,0.93427
27685,13.868,3.5455,0.1,0.00023399,2338.3,0.00023359,2326.6,-7.6059e-05,-0.0078757,-7.9167e-05,-23.361,0.92336
27686,13.96,3.4545,0.1,0.00023169,2315.3,0.00023126,2302.9,-7.5239e-05,-0.0081106,-7.8504e-05,-24.544,0.93416
27687,13.868,3.7273,0.1,0.00023398,2338.2,0.00023358,2326.6,-7.6067e-05,-0.0075986,-7.9145e-05,-23.133,0.92318
27688,13.96,3.6364,0.1,0.00023168,2315.2,0.00023125,2302.9,-7.5246e-05,-0.0078961,-7.8484e-05,-24.339,0.93401
27689,13.868,3.9091,0.1,0.00023397,2338.1,0.00023358,2326.6,-7.6078e-05,-0.0072056,-7.9115e-05,-22.826,0.92294
27690,13.96,3.8182,0.1,0.00023166,2315,0.00023125,2302.9,-7.5255e-05,-0.0075791,-7.8456e-05,-24.053,0.9338
27691,13.868,4.0909,0.1,0.00023396,2337.9,0.00023357,2326.6,-7.6092e-05,-0.006669,-7.9077e-05,-22.431,0.92265
27692,13.96,4,0.1,0.00023165,2314.9,0.00023123,2302.9,-7.5268e-05,-0.0071345,-7.8418e-05,-23.677,0.93354
27693,13.868,4.2727,0.1,0.00023394,2337.8,0.00023356,2326.7,-7.611e-05,-0.0059534,-7.903e-05,-21.942,0.92231
27694,13.96,4.1818,0.1,0.00023162,2314.6,0.00023122,2302.9,-7.5284e-05,-0.0065278,-7.8371e-05,-23.201,0.93323
27695,13.868,4.4545,0.1,0.00023391,2337.5,0.00023354,2326.8,-7.6132e-05,-0.0050177,-7.8973e-05,-21.352,0.92192
27696,13.96,4.3636,0.1,0.00023159,2314.4,0.0002312,2303,-7.5304e-05,-0.0057178,-7.8313e-05,-22.616,0.93287
27697,13.868,4.6364,0.1,0.00023389,2337.3,0.00023353,2326.9,-7.6158e-05,-0.0038156,-7.8906e-05,-20.655,0.92148
27698,13.96,4.5455,0.1,0.00023156,2314,0.00023118,2303,-7.5328e-05,-0.0046563,-7.8244e-05,-21.916,0.93245
27699,13.868,4.8182,0.1,0.00023386,2337,0.00023352,2327,-7.6189e-05,-0.0022753,-7.883e-05,-19.85,0.92098
27700,13.96,4.7273,0.1,0.00023153,2313.7,0.00023116,2303.1,-7.5357e-05,-0.0032911,-7.8164e-05,-21.095,0.93199
27701,13.868,5,0.1,0.00023383,2336.7,0.0002335,2327.2,-7.6224e-05,-0.00037924,-7.8745e-05,-18.94,0.92043
27702,13.96,4.9091,0.1,0.00023149,2313.3,0.00023114,2303.1,-7.5391e-05,-0.0015172,-7.8073e-05,-20.155,0.93147
27703,13.868,5.1818,0.1,0.0002338,2336.4,0.00023349,2327.4,-7.6264e-05,0.0021721,-7.8652e-05,-17.933,0.91984
27704,13.96,5.0909,0.1,0.00023145,2312.9,0.00023112,2303.3,-7.543e-05,0.00060572,-7.7972e-05,-19.099,0.9309
27705,13.868,5.3636,0.1,0.00023378,2336.2,0.00023349,2327.7,-7.631e-05,0.0046117,-7.8553e-05,-16.844,0.91919
27706,13.96,5.2727,0.1,0.00023141,2312.5,0.0002311,2303.5,-7.5475e-05,0.003778,-7.7863e-05,-17.939,0.93028
27707,13.868,5.5455,0.1,0.00023376,2336,0.00023349,2328.1,-7.6361e-05,0.011868,-7.8455e-05,-15.726,0.91848
27708,13.96,5.4545,0.1,0.00023138,2312.2,0.00023109,2303.8,-7.5525e-05,0.0057041,-7.7748e-05,-16.696,0.92961
27709,13.868,5.7273,0.1,0.00023387,2337.1,0.0002336,2329.4,-7.6418e-05,0.010972,-7.8452e-05,-15.273,0.91773
27710,13.96,5.6364,0.1,0.00023136,2312,0.0002311,2304.3,-7.5581e-05,0.018929,-7.7641e-05,-15.461,0.92889
27711,13.96,5.8182,0.1,0.00023157,2314.1,0.0002313,2306.3,-7.5645e-05,0.0010243,-7.7721e-05,-15.602,0.92812
27712,13.868,5.9091,0.1,0.00023326,2331,0.00023309,2326,-7.6474e-05,0.0052293,-7.7824e-05,-10.136,0.91693
27713,14.053,0.27273,0.1,0.00022905,2288.9,0.00022878,2281,-7.4807e-05,0.012001,-7.6896e-05,-15.682,0.93933
27714,14.145,0.18182,0.1,0.00022675,2265.9,0.00022647,2257.9,-7.4039e-05,0.0012949,-7.6152e-05,-15.874,0.94981
27715,14.053,0.090909,0.1,0.00022842,2282.7,0.00022825,2277.5,-7.4869e-05,0.0055357,-7.6239e-05,-10.29,0.93854
27716,14.053,0.45455,0.1,0.00022897,2288.1,0.00022869,2279.9,-7.4745e-05,0.012737,-7.6929e-05,-16.399,0.94007
27717,14.145,0.36364,0.1,0.00022656,2264,0.00022628,2256,-7.3969e-05,0.020549,-7.6103e-05,-16.018,0.95056
27718,14.053,0.63636,0.1,0.00022901,2288.5,0.0002287,2279.5,-7.469e-05,0.0047269,-7.7055e-05,-17.764,0.94076
27719,14.145,0.54545,0.1,0.0002266,2264.4,0.0002263,2255.6,-7.3908e-05,0.0059065,-7.6241e-05,-17.52,0.95127
27720,14.053,0.81818,0.1,0.00022905,2289,0.00022872,2279.4,-7.4641e-05,0.0020955,-7.718e-05,-19.079,0.9414
27721,14.145,0.72727,0.1,0.00022666,2265,0.00022633,2255.5,-7.3854e-05,0.0038095,-7.6384e-05,-19.008,0.95193
27722,14.053,1,0.1,0.0002291,2289.5,0.00022875,2279.2,-7.4597e-05,-0.00062229,-7.7297e-05,-20.289,0.94199
27723,14.145,0.90909,0.1,0.00022672,2265.7,0.00022637,2255.4,-7.3806e-05,0.00039759,-7.652e-05,-20.39,0.95254
27724,14.053,1.1818,0.1,0.00022915,2289.9,0.00022878,2279.2,-7.4559e-05,-0.0026033,-7.7404e-05,-21.376,0.94253
27725,14.145,1.0909,0.1,0.00022678,2266.3,0.00022641,2255.4,-7.3764e-05,-0.001835,-7.6644e-05,-21.64,0.9531
27726,14.053,1.3636,0.1,0.0002292,2290.4,0.00022881,2279.2,-7.4527e-05,-0.0041875,-7.7499e-05,-22.333,0.94301
27727,14.145,1.2727,0.1,0.00022684,2266.8,0.00022645,2255.4,-7.3728e-05,-0.0036736,-7.6755e-05,-22.748,0.9536
27728,14.053,1.5455,0.1,0.00022924,2290.8,0.00022884,2279.2,-7.45e-05,-0.0054017,-7.7581e-05,-23.157,0.94345
27729,14.145,1.4545,0.1,0.00022689,2267.4,0.00022648,2255.4,-7.3698e-05,-0.005062,-7.6853e-05,-23.708,0.95406
27730,14.053,1.7273,0.1,0.00022928,2291.2,0.00022886,2279.2,-7.4477e-05,-0.0063295,-7.7651e-05,-23.852,0.94383
27731,14.145,1.6364,0.1,0.00022694,2267.9,0.00022651,2255.5,-7.3673e-05,-0.0061218,-7.6936e-05,-24.523,0.95447
27732,14.053,1.9091,0.1,0.00022931,2291.5,0.00022888,2279.2,-7.4459e-05,-0.0070251,-7.7709e-05,-24.424,0.94417
27733,14.145,1.8182,0.1,0.00022698,2268.3,0.00022654,2255.6,-7.3653e-05,-0.0069127,-7.7006e-05,-25.199,0.95482
27734,14.053,2.0909,0.1,0.00022933,2291.8,0.0002289,2279.2,-7.4445e-05,-0.0075359,-7.7756e-05,-24.882,0.94445
27735,14.145,2,0.1,0.00022702,2268.6,0.00022657,2255.6,-7.3637e-05,-0.0074929,-7.7063e-05,-25.746,0.95513
27736,14.053,2.2727,0.1,0.00022935,2292,0.00022891,2279.2,-7.4434e-05,-0.0079014,-7.7792e-05,-25.237,0.94468
27737,14.145,2.1818,0.1,0.00022704,2268.9,0.00022659,2255.7,-7.3625e-05,-0.0079066,-7.7108e-05,-26.175,0.95539
27738,14.053,2.4545,0.1,0.00022937,2292.1,0.00022892,2279.3,-7.4426e-05,-0.0081539,-7.7819e-05,-25.5,0.94486
27739,14.145,2.3636,0.1,0.00022707,2269.1,0.0002266,2255.7,-7.3616e-05,-0.0081934,-7.7142e-05,-26.498,0.95559
27740,14.053,2.6364,0.1,0.00022938,2292.2,0.00022893,2279.3,-7.4421e-05,-0.0083168,-7.7837e-05,-25.68,0.94499
27741,14.145,2.5455,0.1,0.00022708,2269.2,0.00022661,2255.8,-7.3609e-05,-0.0083834,-7.7166e-05,-26.729,0.95574
27742,14.053,2.8182,0.1,0.00022939,2292.3,0.00022894,2279.3,-7.4417e-05,-0.0084074,-7.7848e-05,-25.785,0.94507
27743,14.145,2.7273,0.1,0.00022709,2269.3,0.00022662,2255.8,-7.3605e-05,-0.0084969,-7.7181e-05,-26.877,0.95584
27744,14.053,3,0.1,0.00022939,2292.3,0.00022894,2279.3,-7.4416e-05,-0.0084361,-7.7851e-05,-25.819,0.94509
27745,14.145,2.9091,0.1,0.0002271,2269.4,0.00022663,2255.8,-7.3603e-05,-0.0085499,-7.7189e-05,-26.949,0.9559
27746,14.053,3.1818,0.1,0.00022939,2292.3,0.00022894,2279.3,-7.4417e-05,-0.0084074,-7.7848e-05,-25.785,0.94507
27747,14.145,3.0909,0.1,0.0002271,2269.4,0.00022663,2255.8,-7.3603e-05,-0.0085496,-7.7189e-05,-26.949,0.9559
27748,14.053,3.3636,0.1,0.00022938,2292.2,0.00022893,2279.3,-7.4421e-05,-0.008317,-7.7837e-05,-25.68,0.94499
27749,14.145,3.2727,0.1,0.00022709,2269.3,0.00022662,2255.8,-7.3605e-05,-0.0084972,-7.7181e-05,-26.877,0.95584
27750,14.053,3.5455,0.1,0.00022937,2292.1,0.00022892,2279.3,-7.4426e-05,-0.0081539,-7.7819e-05,-25.5,0.94486
27751,14.145,3.4545,0.1,0.00022708,2269.2,0.00022661,2255.8,-7.3609e-05,-0.0083833,-7.7166e-05,-26.729,0.95574
27752,14.053,3.7273,0.1,0.00022935,2292,0.00022891,2279.2,-7.4434e-05,-0.0079014,-7.7792e-05,-25.237,0.94468
27753,14.145,3.6364,0.1,0.00022707,2269.1,0.0002266,2255.7,-7.3616e-05,-0.0081934,-7.7142e-05,-26.498,0.95559
27754,14.053,3.9091,0.1,0.00022933,2291.8,0.0002289,2279.2,-7.4445e-05,-0.0075355,-7.7756e-05,-24.882,0.94445
27755,14.145,3.8182,0.1,0.00022704,2268.9,0.00022659,2255.7,-7.3625e-05,-0.0079064,-7.7108e-05,-26.175,0.95539
27756,14.053,4.0909,0.1,0.00022931,2291.5,0.00022888,2279.2,-7.4459e-05,-0.0070248,-7.7709e-05,-24.424,0.94417
27757,14.145,4,0.1,0.00022702,2268.6,0.00022657,2255.6,-7.3637e-05,-0.0074923,-7.7063e-05,-25.746,0.95513
27758,14.053,4.2727,0.1,0.00022928,2291.2,0.00022886,2279.2,-7.4477e-05,-0.0063292,-7.7651e-05,-23.852,0.94383
27759,14.145,4.1818,0.1,0.00022698,2268.3,0.00022654,2255.6,-7.3653e-05,-0.006913,-7.7006e-05,-25.199,0.95482
27760,14.053,4.4545,0.1,0.00022924,2290.8,0.00022884,2279.2,-7.45e-05,-0.005401,-7.7581e-05,-23.157,0.94345
27761,14.145,4.3636,0.1,0.00022694,2267.9,0.00022651,2255.5,-7.3673e-05,-0.0061212,-7.6936e-05,-24.523,0.95447
27762,14.053,4.6364,0.1,0.0002292,2290.4,0.00022881,2279.2,-7.4527e-05,-0.0041871,-7.7499e-05,-22.333,0.94301
27763,14.145,4.5455,0.1,0.00022689,2267.4,0.00022648,2255.4,-7.3698e-05,-0.0050613,-7.6853e-05,-23.708,0.95406
27764,14.053,4.8182,0.1,0.00022915,2289.9,0.00022878,2279.2,-7.4559e-05,-0.0026028,-7.7404e-05,-21.376,0.94253
27765,14.145,4.7273,0.1,0.00022684,2266.8,0.00022645,2255.4,-7.3728e-05,-0.0036734,-7.6755e-05,-22.748,0.9536
27766,14.053,5,0.1,0.0002291,2289.5,0.00022875,2279.2,-7.4597e-05,-0.00062163,-7.7297e-05,-20.289,0.94199
27767,14.145,4.9091,0.1,0.00022678,2266.3,0.00022641,2255.4,-7.3764e-05,-0.0018344,-7.6644e-05,-21.64,0.9531
27768,14.053,5.1818,0.1,0.00022905,2289,0.00022872,2279.4,-7.4641e-05,0.0020966,-7.718e-05,-19.079,0.9414
27769,14.145,5.0909,0.1,0.00022672,2265.7,0.00022637,2255.4,-7.3806e-05,0.00039875,-7.652e-05,-20.39,0.95254
27770,14.053,5.3636,0.1,0.00022901,2288.5,0.0002287,2279.5,-7.469e-05,0.004728,-7.7055e-05,-17.764,0.94076
27771,14.145,5.2727,0.1,0.00022666,2265,0.00022633,2255.5,-7.3854e-05,0.0038113,-7.6384e-05,-19.008,0.95193
27772,14.053,5.5455,0.1,0.00022897,2288.1,0.00022869,2279.9,-7.4745e-05,0.012738,-7.6929e-05,-16.399,0.94007
27773,14.145,5.4545,0.1,0.0002266,2264.4,0.0002263,2255.6,-7.3908e-05,0.0059068,-7.6241e-05,-17.52,0.95127
27774,14.053,5.7273,0.1,0.00022905,2288.9,0.00022878,2281,-7.4807e-05,0.012002,-7.6896e-05,-15.682,0.93933
27775,14.145,5.6364,0.1,0.00022656,2264,0.00022628,2256,-7.3969e-05,0.020549,-7.6103e-05,-16.018,0.95056
27776,14.145,5.8182,0.1,0.00022675,2265.9,0.00022647,2257.9,-7.4039e-05,0.0012958,-7.6152e-05,-15.874,0.94981
27777,14.053,5.9091,0.1,0.00022842,2282.7,0.00022825,2277.5,-7.4869e-05,0.0055372,-7.6239e-05,-10.29,0.93854
27778,14.238,0.27273,0.1,0.00022424,2240.9,0.00022396,2232.8,-7.32e-05,0.013145,-7.5345e-05,-16.102,0.96109
27779,14.33,0.18182,0.1,0.00022193,2217.8,0.00022165,2209.7,-7.2435e-05,0.0016773,-7.4584e-05,-16.145,0.97165
27780,14.238,0.090909,0.1,0.00022359,2234.4,0.00022341,2229.2,-7.3268e-05,0.0058452,-7.4658e-05,-10.44,0.96031
27781,14.238,0.45455,0.1,0.00022419,2240.3,0.00022389,2231.7,-7.3132e-05,0.01365,-7.5411e-05,-17.107,0.96181
27782,14.33,0.36364,0.1,0.00022177,2216.2,0.00022149,2207.9,-7.2359e-05,0.022296,-7.4572e-05,-16.602,0.97239
27783,14.238,0.63636,0.1,0.00022425,2241,0.00022393,2231.5,-7.3072e-05,0.0048141,-7.5567e-05,-18.737,0.96249
27784,14.33,0.54545,0.1,0.00022184,2216.9,0.00022152,2207.6,-7.2294e-05,0.0060861,-7.4742e-05,-18.393,0.97308
27785,14.238,0.81818,0.1,0.00022432,2241.7,0.00022397,2231.5,-7.3019e-05,0.0019762,-7.572e-05,-20.293,0.96312
27786,14.33,0.72727,0.1,0.00022193,2217.7,0.00022158,2207.6,-7.2235e-05,0.0038045,-7.4917e-05,-20.146,0.97373
27787,14.238,1,0.1,0.0002244,2242.4,0.00022402,2231.5,-7.2973e-05,-0.00091713,-7.5863e-05,-21.716,0.9637
27788,14.33,0.90909,0.1,0.00022201,2218.6,0.00022163,2207.6,-7.2184e-05,0.00013434,-7.508e-05,-21.762,0.97433
27789,14.238,1.1818,0.1,0.00022447,2243.1,0.00022407,2231.5,-7.2933e-05,-0.0029829,-7.5992e-05,-22.987,0.96422
27790,14.33,1.0909,0.1,0.0002221,2219.5,0.00022169,2207.8,-7.214e-05,-0.00221,-7.5229e-05,-23.216,0.97488
27791,14.238,1.3636,0.1,0.00022453,2243.8,0.00022411,2231.6,-7.2899e-05,-0.004608,-7.6106e-05,-24.1,0.9647
27792,14.33,1.2727,0.1,0.00022218,2220.3,0.00022175,2207.9,-7.2102e-05,-0.0041121,-7.5362e-05,-24.497,0.97538
27793,14.238,1.5455,0.1,0.00022459,2244.4,0.00022416,2231.7,-7.2872e-05,-0.0058293,-7.6205e-05,-25.052,0.96513
27794,14.33,1.4545,0.1,0.00022225,2221,0.0002218,2208.1,-7.2072e-05,-0.0055191,-7.5478e-05,-25.6,0.97583
27795,14.238,1.7273,0.1,0.00022464,2244.9,0.00022419,2231.9,-7.2849e-05,-0.0067431,-7.6288e-05,-25.848,0.96551
27796,14.33,1.6364,0.1,0.00022232,2221.6,0.00022185,2208.2,-7.2047e-05,-0.0065706,-7.5577e-05,-26.528,0.97623
27797,14.238,1.9091,0.1,0.00022469,2245.3,0.00022423,2232,-7.2831e-05,-0.0074121,-7.6357e-05,-26.499,0.96584
27798,14.33,1.8182,0.1,0.00022237,2222.2,0.00022189,2208.4,-7.2027e-05,-0.0073361,-7.5658e-05,-27.291,0.97658
27799,14.238,2.0909,0.1,0.00022472,2245.7,0.00022425,2232.1,-7.2817e-05,-0.0078907,-7.6412e-05,-27.017,0.96612
27800,14.33,2,0.1,0.00022242,2222.6,0.00022193,2208.5,-7.2012e-05,-0.0078809,-7.5724e-05,-27.903,0.97688
27801,14.238,2.2727,0.1,0.00022475,2246,0.00022427,2232.1,-7.2807e-05,-0.0082225,-7.6454e-05,-27.414,0.96634
27802,14.33,2.1818,0.1,0.00022245,2223,0.00022196,2208.7,-7.2e-05,-0.0082574,-7.5776e-05,-28.378,0.97713
27803,14.238,2.4545,0.1,0.00022477,2246.2,0.00022429,2232.2,-7.2799e-05,-0.0084447,-7.6486e-05,-27.706,0.96652
27804,14.33,2.3636,0.1,0.00022248,2223.3,0.00022198,2208.8,-7.1992e-05,-0.0085074,-7.5815e-05,-28.733,0.97733
27805,14.238,2.6364,0.1,0.00022479,2246.3,0.0002243,2232.2,-7.2794e-05,-0.008584,-7.6507e-05,-27.904,0.96665
27806,14.33,2.5455,0.1,0.0002225,2223.5,0.000222,2208.9,-7.1986e-05,-0.0086673,-7.5843e-05,-28.984,0.97748
27807,14.238,2.8182,0.1,0.0002248,2246.4,0.00022431,2232.3,-7.2792e-05,-0.0086592,-7.652e-05,-28.019,0.96672
27808,14.33,2.7273,0.1,0.00022252,2223.6,0.00022201,2208.9,-7.1983e-05,-0.0087591,-7.5861e-05,-29.144,0.97758
27809,14.238,3,0.1,0.0002248,2246.4,0.00022431,2232.3,-7.2791e-05,-0.008683,-7.6524e-05,-28.057,0.96675
27810,14.33,2.9091,0.1,0.00022252,2223.7,0.00022201,2208.9,-7.1981e-05,-0.0088007,-7.5869e-05,-29.221,0.97763
27811,14.238,3.1818,0.1,0.0002248,2246.4,0.00022431,2232.3,-7.2792e-05,-0.0086593,-7.652e-05,-28.019,0.96672
27812,14.33,3.0909,0.1,0.00022252,2223.7,0.00022201,2208.9,-7.1981e-05,-0.0088007,-7.5869e-05,-29.221,0.97763
27813,14.238,3.3636,0.1,0.00022479,2246.3,0.0002243,2232.2,-7.2794e-05,-0.008584,-7.6507e-05,-27.904,0.96665
27814,14.33,3.2727,0.1,0.00022252,2223.6,0.00022201,2208.9,-7.1983e-05,-0.008759,-7.5861e-05,-29.144,0.97758
27815,14.238,3.5455,0.1,0.00022477,2246.2,0.00022429,2232.2,-7.2799e-05,-0.0084447,-7.6486e-05,-27.706,0.96652
27816,14.33,3.4545,0.1,0.0002225,2223.5,0.000222,2208.9,-7.1986e-05,-0.0086671,-7.5843e-05,-28.984,0.97748
27817,14.238,3.7273,0.1,0.00022475,2246,0.00022427,2232.1,-7.2807e-05,-0.0082223,-7.6454e-05,-27.414,0.96634
27818,14.33,3.6364,0.1,0.00022248,2223.3,0.00022198,2208.8,-7.1992e-05,-0.0085074,-7.5815e-05,-28.733,0.97733
27819,14.238,3.9091,0.1,0.00022472,2245.7,0.00022425,2232.1,-7.2817e-05,-0.0078902,-7.6412e-05,-27.017,0.96612
27820,14.33,3.8182,0.1,0.00022245,2223,0.00022196,2208.7,-7.2e-05,-0.0082568,-7.5776e-05,-28.378,0.97713
27821,14.238,4.0909,0.1,0.00022469,2245.3,0.00022423,2232,-7.2831e-05,-0.0074122,-7.6357e-05,-26.499,0.96584
27822,14.33,4,0.1,0.00022242,2222.6,0.00022193,2208.5,-7.2012e-05,-0.0078805,-7.5724e-05,-27.903,0.97688
27823,14.238,4.2727,0.1,0.00022464,2244.9,0.00022419,2231.9,-7.2849e-05,-0.0067431,-7.6288e-05,-25.849,0.96551
27824,14.33,4.1818,0.1,0.00022237,2222.2,0.00022189,2208.4,-7.2027e-05,-0.0073361,-7.5658e-05,-27.292,0.97658
27825,14.238,4.4545,0.1,0.00022459,2244.4,0.00022416,2231.7,-7.2872e-05,-0.0058286,-7.6205e-05,-25.052,0.96513
27826,14.33,4.3636,0.1,0.00022232,2221.6,0.00022185,2208.2,-7.2047e-05,-0.0065703,-7.5577e-05,-26.528,0.97623
27827,14.238,4.6364,0.1,0.00022453,2243.8,0.00022411,2231.6,-7.2899e-05,-0.0046075,-7.6106e-05,-24.1,0.9647
27828,14.33,4.5455,0.1,0.00022225,2221,0.0002218,2208.1,-7.2072e-05,-0.0055186,-7.5478e-05,-25.6,0.97583
27829,14.238,4.8182,0.1,0.00022447,2243.1,0.00022407,2231.5,-7.2933e-05,-0.0029826,-7.5992e-05,-22.987,0.96422
27830,14.33,4.7273,0.1,0.00022218,2220.3,0.00022175,2207.9,-7.2102e-05,-0.0041118,-7.5362e-05,-24.497,0.97538
27831,14.238,5,0.1,0.0002244,2242.4,0.00022402,2231.5,-7.2973e-05,-0.00091607,-7.5863e-05,-21.716,0.9637
27832,14.33,4.9091,0.1,0.0002221,2219.5,0.00022169,2207.8,-7.214e-05,-0.0022099,-7.5229e-05,-23.217,0.97488
27833,14.238,5.1818,0.1,0.00022432,2241.7,0.00022397,2231.5,-7.3019e-05,0.0019781,-7.572e-05,-20.293,0.96312
27834,14.33,5.0909,0.1,0.00022201,2218.6,0.00022163,2207.6,-7.2184e-05,0.00013599,-7.508e-05,-21.762,0.97433
27835,14.238,5.3636,0.1,0.00022425,2241,0.00022393,2231.5,-7.3072e-05,0.0048152,-7.5567e-05,-18.737,0.96249
27836,14.33,5.2727,0.1,0.00022193,2217.7,0.00022158,2207.6,-7.2235e-05,0.0038059,-7.4917e-05,-20.146,0.97373
27837,14.238,5.5455,0.1,0.00022419,2240.3,0.00022389,2231.7,-7.3132e-05,0.013651,-7.5411e-05,-17.107,0.96181
27838,14.33,5.4545,0.1,0.00022184,2216.9,0.00022152,2207.6,-7.2294e-05,0.0060867,-7.4742e-05,-18.393,0.97308
27839,14.238,5.7273,0.1,0.00022424,2240.9,0.00022396,2232.8,-7.32e-05,0.013146,-7.5345e-05,-16.102,0.96109
27840,14.33,5.6364,0.1,0.00022177,2216.2,0.00022149,2207.9,-7.2359e-05,0.022297,-7.4572e-05,-16.602,0.97239
27841,14.33,5.8182,0.1,0.00022193,2217.8,0.00022165,2209.7,-7.2435e-05,0.0016779,-7.4584e-05,-16.145,0.97165
27842,14.238,5.9091,0.1,0.00022359,2234.4,0.00022341,2229.2,-7.3268e-05,0.0058443,-7.4658e-05,-10.44,0.96031
27843,14.423,0.27273,0.1,0.00021944,2192.9,0.00021916,2184.6,-7.1594e-05,0.014427,-7.3797e-05,-16.537,0.983
27844,14.515,0.18182,0.1,0.00021712,2169.7,0.00021683,2161.4,-7.0834e-05,0.0021999,-7.3019e-05,-16.416,0.99364
27845,14.423,0.090909,0.1,0.00021877,2186.2,0.00021859,2180.9,-7.1668e-05,0.0061509,-7.3078e-05,-10.587,0.98224
27846,14.423,0.45455,0.1,0.00021942,2192.7,0.00021911,2183.7,-7.1521e-05,0.014614,-7.3899e-05,-17.856,0.98371
27847,14.515,0.36364,0.1,0.00021699,2168.4,0.00021669,2159.8,-7.0751e-05,0.024194,-7.3046e-05,-17.22,0.99437
27848,14.423,0.63636,0.1,0.00021951,2193.6,0.00021917,2183.6,-7.1456e-05,0.0048643,-7.4089e-05,-19.774,0.98437
27849,14.515,0.54545,0.1,0.00021709,2169.4,0.00021676,2159.7,-7.068e-05,0.0062356,-7.3253e-05,-19.327,0.99505
27850,14.423,0.81818,0.1,0.00021961,2194.6,0.00021924,2183.7,-7.1399e-05,0.0018049,-7.4273e-05,-21.589,0.98499
27851,14.515,0.72727,0.1,0.00021721,2170.6,0.00021684,2159.8,-7.0617e-05,0.003752,-7.3461e-05,-21.365,0.99568
27852,14.423,1,0.1,0.00021971,2195.6,0.00021931,2183.9,-7.1351e-05,-0.001274,-7.4443e-05,-23.238,0.98556
27853,14.515,0.90909,0.1,0.00021732,2171.7,0.00021692,2160,-7.0563e-05,-0.0001947,-7.3655e-05,-23.233,0.99627
27854,14.423,1.1818,0.1,0.00021981,2196.5,0.00021937,2184.1,-7.1309e-05,-0.0034247,-7.4596e-05,-24.702,0.98608
27855,14.515,1.0909,0.1,0.00021744,2172.9,0.000217,2160.3,-7.0517e-05,-0.0026547,-7.3831e-05,-24.903,0.99681
27856,14.423,1.3636,0.1,0.00021989,2197.4,0.00021944,2184.3,-7.1275e-05,-0.0050875,-7.4731e-05,-25.974,0.98655
27857,14.515,1.2727,0.1,0.00021754,2173.9,0.00021708,2160.6,-7.0479e-05,-0.0046181,-7.3987e-05,-26.363,0.9973
27858,14.423,1.5455,0.1,0.00021997,2198.2,0.0002195,2184.5,-7.1247e-05,-0.0063099,-7.4847e-05,-27.053,0.98697
27859,14.515,1.4545,0.1,0.00021763,2174.8,0.00021715,2160.9,-7.0448e-05,-0.0060376,-7.4122e-05,-27.609,0.99774
27860,14.423,1.7273,0.1,0.00022004,2198.9,0.00021955,2184.8,-7.1225e-05,-0.0072025,-7.4943e-05,-27.949,0.98734
27861,14.515,1.6364,0.1,0.00021772,2175.7,0.00021722,2161.2,-7.0424e-05,-0.0070734,-7.4236e-05,-28.649,0.99813
27862,14.423,1.9091,0.1,0.0002201,2199.4,0.00021959,2185,-7.1208e-05,-0.0078363,-7.5023e-05,-28.673,0.98766
27863,14.515,1.8182,0.1,0.00021779,2176.4,0.00021727,2161.5,-7.0405e-05,-0.0078043,-7.4329e-05,-29.494,0.99848
27864,14.423,2.0909,0.1,0.00022014,2199.9,0.00021963,2185.1,-7.1195e-05,-0.0082739,-7.5086e-05,-29.243,0.98794
27865,14.515,2,0.1,0.00021785,2177,0.00021732,2161.7,-7.0391e-05,-0.0083053,-7.4405e-05,-30.164,0.99877
27866,14.423,2.2727,0.1,0.00022018,2200.3,0.00021966,2185.3,-7.1186e-05,-0.0085651,-7.5134e-05,-29.676,0.98816
27867,14.515,2.1818,0.1,0.0002179,2177.4,0.00021736,2161.9,-7.0381e-05,-0.0086348,-7.4463e-05,-30.677,0.99902
27868,14.423,2.4545,0.1,0.00022021,2200.6,0.00021968,2185.4,-7.1179e-05,-0.0087505,-7.5169e-05,-29.99,0.98833
27869,14.515,2.3636,0.1,0.00021793,2177.8,0.00021739,2162.1,-7.0374e-05,-0.0088415,-7.4507e-05,-31.056,0.99922
27870,14.423,2.6364,0.1,0.00022023,2200.8,0.0002197,2185.5,-7.1175e-05,-0.0088614,-7.5193e-05,-30.202,0.98846
27871,14.515,2.5455,0.1,0.00021796,2178.1,0.00021741,2162.2,-7.037e-05,-0.0089647,-7.4537e-05,-31.321,0.99936
27872,14.423,2.8182,0.1,0.00022024,2200.9,0.00021971,2185.6,-7.1173e-05,-0.0089188,-7.5207e-05,-30.324,0.98853
27873,14.515,2.7273,0.1,0.00021798,2178.2,0.00021742,2162.3,-7.0367e-05,-0.0090306,-7.4557e-05,-31.487,0.99946
27874,14.423,3,0.1,0.00022024,2200.9,0.00021971,2185.6,-7.1172e-05,-0.0089363,-7.5212e-05,-30.364,0.98856
27875,14.515,2.9091,0.1,0.00021798,2178.3,0.00021743,2162.4,-7.0366e-05,-0.0090587,-7.4566e-05,-31.567,0.99951
27876,14.423,3.1818,0.1,0.00022024,2200.9,0.00021971,2185.6,-7.1173e-05,-0.0089187,-7.5207e-05,-30.324,0.98853
27877,14.515,3.0909,0.1,0.00021798,2178.3,0.00021743,2162.4,-7.0366e-05,-0.0090588,-7.4566e-05,-31.567,0.99951
27878,14.423,3.3636,0.1,0.00022023,2200.8,0.0002197,2185.5,-7.1175e-05,-0.0088611,-7.5193e-05,-30.202,0.98846
27879,14.515,3.2727,0.1,0.00021798,2178.2,0.00021742,2162.3,-7.0367e-05,-0.0090304,-7.4557e-05,-31.487,0.99946
27880,14.423,3.5455,0.1,0.00022021,2200.6,0.00021968,2185.4,-7.1179e-05,-0.0087503,-7.5169e-05,-29.991,0.98833
27881,14.515,3.4545,0.1,0.00021796,2178.1,0.00021741,2162.2,-7.037e-05,-0.0089644,-7.4537e-05,-31.321,0.99936
27882,14.423,3.7273,0.1,0.00022018,2200.3,0.00021966,2185.3,-7.1186e-05,-0.0085647,-7.5134e-05,-29.676,0.98816
27883,14.515,3.6364,0.1,0.00021793,2177.8,0.00021739,2162.1,-7.0374e-05,-0.0088415,-7.4507e-05,-31.056,0.99922
27884,14.423,3.9091,0.1,0.00022014,2199.9,0.00021963,2185.1,-7.1195e-05,-0.0082734,-7.5086e-05,-29.243,0.98794
27885,14.515,3.8182,0.1,0.0002179,2177.4,0.00021736,2161.9,-7.0381e-05,-0.0086345,-7.4463e-05,-30.677,0.99902
27886,14.423,4.0909,0.1,0.0002201,2199.4,0.00021959,2185,-7.1208e-05,-0.007836,-7.5023e-05,-28.673,0.98766
27887,14.515,4,0.1,0.00021785,2177,0.00021732,2161.7,-7.0391e-05,-0.0083048,-7.4405e-05,-30.164,0.99877
27888,14.423,4.2727,0.1,0.00022004,2198.9,0.00021955,2184.8,-7.1225e-05,-0.0072023,-7.4944e-05,-27.949,0.98734
27889,14.515,4.1818,0.1,0.00021779,2176.4,0.00021727,2161.5,-7.0405e-05,-0.0078038,-7.4329e-05,-29.494,0.99848
27890,14.423,4.4545,0.1,0.00021997,2198.2,0.0002195,2184.5,-7.1247e-05,-0.0063097,-7.4847e-05,-27.054,0.98697
27891,14.515,4.3636,0.1,0.00021772,2175.7,0.00021722,2161.2,-7.0424e-05,-0.0070733,-7.4236e-05,-28.649,0.99813
27892,14.423,4.6364,0.1,0.00021989,2197.4,0.00021944,2184.3,-7.1275e-05,-0.0050872,-7.4731e-05,-25.974,0.98655
27893,14.515,4.5455,0.1,0.00021763,2174.8,0.00021715,2160.9,-7.0448e-05,-0.0060376,-7.4122e-05,-27.609,0.99774
27894,14.423,4.8182,0.1,0.00021981,2196.5,0.00021937,2184.1,-7.1309e-05,-0.0034246,-7.4596e-05,-24.702,0.98608
27895,14.515,4.7273,0.1,0.00021754,2173.9,0.00021708,2160.6,-7.0479e-05,-0.0046178,-7.3987e-05,-26.363,0.9973
27896,14.423,5,0.1,0.00021971,2195.6,0.00021931,2183.9,-7.1351e-05,-0.0012733,-7.4443e-05,-23.238,0.98556
27897,14.515,4.9091,0.1,0.00021744,2172.9,0.000217,2160.3,-7.0517e-05,-0.0026543,-7.3831e-05,-24.903,0.99681
27898,14.423,5.1818,0.1,0.00021961,2194.6,0.00021924,2183.7,-7.1399e-05,0.0018061,-7.4273e-05,-21.589,0.98499
27899,14.515,5.0909,0.1,0.00021732,2171.7,0.00021692,2160,-7.0563e-05,-0.00019347,-7.3655e-05,-23.233,0.99627
27900,14.423,5.3636,0.1,0.00021951,2193.6,0.00021917,2183.6,-7.1456e-05,0.0048653,-7.4089e-05,-19.774,0.98437
27901,14.515,5.2727,0.1,0.00021721,2170.6,0.00021684,2159.8,-7.0617e-05,0.0037531,-7.3461e-05,-21.365,0.99568
27902,14.423,5.5455,0.1,0.00021942,2192.7,0.00021911,2183.7,-7.1521e-05,0.014614,-7.3899e-05,-17.856,0.98371
27903,14.515,5.4545,0.1,0.00021709,2169.4,0.00021676,2159.7,-7.068e-05,0.0062366,-7.3253e-05,-19.327,0.99505
27904,14.423,5.7273,0.1,0.00021944,2192.9,0.00021916,2184.6,-7.1594e-05,0.014428,-7.3797e-05,-16.537,0.983
27905,14.515,5.6364,0.1,0.00021699,2168.4,0.00021669,2159.8,-7.0751e-05,0.024194,-7.3046e-05,-17.22,0.99437
27906,14.515,5.8182,0.1,0.00021712,2169.7,0.00021683,2161.4,-7.0834e-05,0.0022004,-7.3019e-05,-16.416,0.99364
27907,14.423,5.9091,0.1,0.00021877,2186.2,0.00021859,2180.9,-7.1668e-05,0.0061512,-7.3078e-05,-10.587,0.98224
27908,14.608,0.27273,0.1,0.00021465,2145,0.00021436,2136.5,-6.999e-05,0.015875,-7.2253e-05,-16.99,1.0051
27909,14.7,0.18182,0.1,0.00021231,2121.6,0.00021202,2113.2,-6.9233e-05,0.0029009,-7.1454e-05,-16.688,1.0158
27910,14.608,0.090909,0.1,0.00021395,2138,0.00021377,2132.6,-7.0071e-05,0.0064543,-7.15e-05,-10.73,1.0043
27911,14.608,0.45455,0.1,0.00021466,2145.1,0.00021434,2135.7,-6.991e-05,0.015635,-7.2395e-05,-18.658,1.0058
27912,14.7,0.36364,0.1,0.00021222,2120.7,0.00021191,2111.7,-6.9142e-05,0.026269,-7.1525e-05,-17.88,1.0165
27913,14.608,0.63636,0.1,0.00021478,2146.3,0.00021442,2135.8,-6.9841e-05,0.0048681,-7.2622e-05,-20.89,1.0064
27914,14.7,0.54545,0.1,0.00021235,2122.1,0.000212,2111.8,-6.9066e-05,0.0063471,-7.1773e-05,-20.335,1.0172
27915,14.608,0.81818,0.1,0.00021492,2147.7,0.00021451,2136.1,-6.978e-05,0.0015699,-7.2839e-05,-22.984,1.007
27916,14.7,0.72727,0.1,0.0002125,2123.6,0.00021211,2112.1,-6.8999e-05,0.0036408,-7.2018e-05,-22.684,1.0178
27917,14.608,1,0.1,0.00021504,2149,0.00021461,2136.4,-6.9729e-05,-0.0017052,-7.3039e-05,-24.874,1.0076
27918,14.7,0.90909,0.1,0.00021265,2125,0.00021222,2112.5,-6.8942e-05,-0.00060306,-7.2246e-05,-24.823,1.0184
27919,14.608,1.1818,0.1,0.00021517,2150.2,0.0002147,2136.8,-6.9686e-05,-0.0039417,-7.3218e-05,-26.54,1.0081
27920,14.7,1.0909,0.1,0.00021279,2126.5,0.00021233,2113,-6.8894e-05,-0.0031821,-7.245e-05,-26.721,1.0189
27921,14.608,1.3636,0.1,0.00021528,2151.3,0.00021479,2137.2,-6.9652e-05,-0.0056368,-7.3374e-05,-27.975,1.0085
27922,14.7,1.2727,0.1,0.00021293,2127.8,0.00021243,2113.5,-6.8856e-05,-0.005204,-7.2631e-05,-28.367,1.0194
27923,14.608,1.5455,0.1,0.00021538,2152.3,0.00021487,2137.5,-6.9625e-05,-0.0068525,-7.3508e-05,-29.182,1.009
27924,14.7,1.4545,0.1,0.00021304,2129,0.00021252,2113.9,-6.8826e-05,-0.0066291,-7.2786e-05,-29.758,1.0198
27925,14.608,1.7273,0.1,0.00021546,2153.1,0.00021493,2137.9,-6.9604e-05,-0.0077145,-7.3618e-05,-30.172,1.0093
27926,14.7,1.6364,0.1,0.00021315,2130,0.00021261,2114.4,-6.8803e-05,-0.007639,-7.2915e-05,-30.906,1.0202
27927,14.608,1.9091,0.1,0.00021554,2153.9,0.00021499,2138.2,-6.9588e-05,-0.0083041,-7.3708e-05,-30.963,1.0096
27928,14.7,1.8182,0.1,0.00021324,2130.9,0.00021268,2114.8,-6.8787e-05,-0.0083246,-7.3021e-05,-31.827,1.0205
27929,14.608,2.0909,0.1,0.0002156,2154.5,0.00021504,2138.5,-6.9577e-05,-0.0086913,-7.3779e-05,-31.577,1.0099
27930,14.7,2,0.1,0.00021331,2131.6,0.00021274,2115.2,-6.8775e-05,-0.0087712,-7.3105e-05,-32.545,1.0208
27931,14.608,2.2727,0.1,0.00021564,2154.9,0.00021508,2138.7,-6.957e-05,-0.0089325,-7.3833e-05,-32.037,1.0101
27932,14.7,2.1818,0.1,0.00021337,2132.2,0.00021279,2115.5,-6.8768e-05,-0.0090435,-7.317e-05,-33.087,1.0211
27933,14.608,2.4545,0.1,0.00021568,2155.3,0.00021511,2138.9,-6.9565e-05,-0.0090745,-7.3872e-05,-32.366,1.0103
27934,14.7,2.3636,0.1,0.00021342,2132.7,0.00021283,2115.7,-6.8763e-05,-0.0091981,-7.3218e-05,-33.481,1.0213
27935,14.608,2.6364,0.1,0.0002157,2155.5,0.00021513,2139.1,-6.9562e-05,-0.0091511,-7.3898e-05,-32.585,1.0104
27936,14.7,2.5455,0.1,0.00021345,2133,0.00021285,2115.9,-6.876e-05,-0.0092777,-7.3251e-05,-33.75,1.0214
27937,14.608,2.8182,0.1,0.00021572,2155.7,0.00021514,2139.1,-6.9561e-05,-0.0091869,-7.3913e-05,-32.709,1.0105
27938,14.7,2.7273,0.1,0.00021347,2133.2,0.00021287,2116.1,-6.8759e-05,-0.0093124,-7.3272e-05,-33.917,1.0215
27939,14.608,3,0.1,0.00021572,2155.7,0.00021515,2139.2,-6.956e-05,-0.0091972,-7.3918e-05,-32.75,1.0105
27940,14.7,2.9091,0.1,0.00021348,2133.3,0.00021288,2116.1,-6.8758e-05,-0.0093247,-7.3282e-05,-33.997,1.0215
27941,14.608,3.1818,0.1,0.00021572,2155.7,0.00021514,2139.1,-6.9561e-05,-0.0091869,-7.3913e-05,-32.709,1.0105
27942,14.7,3.0909,0.1,0.00021348,2133.3,0.00021288,2116.1,-6.8758e-05,-0.0093245,-7.3282e-05,-33.997,1.0215
27943,14.608,3.3636,0.1,0.0002157,2155.5,0.00021513,2139.1,-6.9562e-05,-0.0091509,-7.3898e-05,-32.585,1.0104
27944,14.7,3.2727,0.1,0.00021347,2133.2,0.00021287,2116.1,-6.8759e-05,-0.0093125,-7.3272e-05,-33.917,1.0215
27945,14.608,3.5455,0.1,0.00021568,2155.3,0.00021511,2138.9,-6.9565e-05,-0.0090743,-7.3872e-05,-32.366,1.0103
27946,14.7,3.4545,0.1,0.00021345,2133,0.00021285,2115.9,-6.876e-05,-0.0092774,-7.3251e-05,-33.75,1.0214
27947,14.608,3.7273,0.1,0.00021564,2154.9,0.00021508,2138.7,-6.957e-05,-0.0089325,-7.3833e-05,-32.037,1.0101
27948,14.7,3.6364,0.1,0.00021342,2132.7,0.00021283,2115.7,-6.8763e-05,-0.0091981,-7.3218e-05,-33.481,1.0213
27949,14.608,3.9091,0.1,0.0002156,2154.5,0.00021504,2138.5,-6.9577e-05,-0.008691,-7.3779e-05,-31.577,1.0099
27950,14.7,3.8182,0.1,0.00021337,2132.2,0.00021279,2115.5,-6.8768e-05,-0.0090434,-7.317e-05,-33.087,1.0211
27951,14.608,4.0909,0.1,0.00021554,2153.9,0.00021499,2138.2,-6.9588e-05,-0.0083036,-7.3708e-05,-30.963,1.0096
27952,14.7,4,0.1,0.00021331,2131.6,0.00021274,2115.2,-6.8775e-05,-0.0087707,-7.3105e-05,-32.545,1.0208
27953,14.608,4.2727,0.1,0.00021546,2153.1,0.00021493,2137.9,-6.9604e-05,-0.0077141,-7.3618e-05,-30.172,1.0093
27954,14.7,4.1818,0.1,0.00021324,2130.9,0.00021268,2114.8,-6.8787e-05,-0.008324,-7.3021e-05,-31.827,1.0205
27955,14.608,4.4545,0.1,0.00021538,2152.3,0.00021487,2137.5,-6.9625e-05,-0.0068525,-7.3508e-05,-29.182,1.009
27956,14.7,4.3636,0.1,0.00021315,2130,0.00021261,2114.4,-6.8803e-05,-0.0076388,-7.2915e-05,-30.906,1.0202
27957,14.608,4.6364,0.1,0.00021528,2151.3,0.00021479,2137.2,-6.9652e-05,-0.0056368,-7.3374e-05,-27.975,1.0085
27958,14.7,4.5455,0.1,0.00021304,2129,0.00021252,2113.9,-6.8826e-05,-0.0066287,-7.2786e-05,-29.758,1.0198
27959,14.608,4.8182,0.1,0.00021517,2150.2,0.0002147,2136.8,-6.9686e-05,-0.0039411,-7.3218e-05,-26.54,1.0081
27960,14.7,4.7273,0.1,0.00021293,2127.8,0.00021243,2113.5,-6.8856e-05,-0.0052035,-7.2631e-05,-28.367,1.0194
27961,14.608,5,0.1,0.00021504,2149,0.00021461,2136.4,-6.9729e-05,-0.0017042,-7.3039e-05,-24.874,1.0076
27962,14.7,4.9091,0.1,0.00021279,2126.5,0.00021233,2113,-6.8894e-05,-0.0031815,-7.245e-05,-26.721,1.0189
27963,14.608,5.1818,0.1,0.00021492,2147.7,0.00021451,2136.1,-6.978e-05,0.0015711,-7.2839e-05,-22.984,1.007
27964,14.7,5.0909,0.1,0.00021265,2125,0.00021222,2112.5,-6.8942e-05,-0.00060248,-7.2246e-05,-24.823,1.0184
27965,14.608,5.3636,0.1,0.00021478,2146.3,0.00021442,2135.8,-6.9841e-05,0.0048693,-7.2622e-05,-20.89,1.0064
27966,14.7,5.2727,0.1,0.0002125,2123.6,0.00021211,2112.1,-6.8999e-05,0.003642,-7.2018e-05,-22.684,1.0178
27967,14.608,5.5455,0.1,0.00021466,2145.1,0.00021434,2135.7,-6.991e-05,0.015635,-7.2395e-05,-18.658,1.0058
27968,14.7,5.4545,0.1,0.00021235,2122.1,0.000212,2111.8,-6.9066e-05,0.0063481,-7.1773e-05,-20.335,1.0172
27969,14.608,5.7273,0.1,0.00021465,2145,0.00021436,2136.5,-6.999e-05,0.015875,-7.2253e-05,-16.99,1.0051
27970,14.7,5.6364,0.1,0.00021222,2120.7,0.00021191,2111.7,-6.9142e-05,0.026269,-7.1525e-05,-17.88,1.0165
27971,14.7,5.8182,0.1,0.00021231,2121.6,0.00021202,2113.2,-6.9233e-05,0.002901,-7.1454e-05,-16.688,1.0158
27972,14.608,5.9091,0.1,0.00021395,2138,0.00021377,2132.6,-7.0071e-05,0.0064549,-7.15e-05,-10.73,1.0043
27973,14.792,0.27273,0.1,0.00020986,2097.1,0.00020956,2088.4,-6.8385e-05,0.017521,-7.0712e-05,-17.468,1.0273
27974,14.885,0.18182,0.1,0.00020749,2073.5,0.0002072,2065,-6.7631e-05,0.0038299,-6.9889e-05,-16.964,1.0381
27975,14.792,0.090909,0.1,0.00020913,2089.9,0.00020894,2084.4,-6.8474e-05,0.00675,-6.9921e-05,-10.872,1.0265
27976,14.792,0.45455,0.1,0.00020991,2097.6,0.00020957,2087.8,-6.8298e-05,0.016722,-7.0899e-05,-19.524,1.0279
27977,14.885,0.36364,0.1,0.00020745,2073,0.00020713,2063.7,-6.7532e-05,0.028551,-7.001e-05,-18.591,1.0388
27978,14.792,0.63636,0.1,0.00021007,2099.2,0.00020968,2088.1,-6.8224e-05,0.004815,-7.1166e-05,-22.101,1.0286
27979,14.885,0.54545,0.1,0.00020762,2074.8,0.00020725,2064,-6.745e-05,0.0064094,-7.0304e-05,-21.432,1.0394
27980,14.792,0.81818,0.1,0.00021024,2100.9,0.00020981,2088.5,-6.816e-05,0.0012579,-7.1421e-05,-24.497,1.0292
27981,14.885,0.72727,0.1,0.00020781,2076.7,0.00020739,2064.5,-6.7379e-05,0.0034597,-7.059e-05,-24.121,1.04
27982,14.792,1,0.1,0.0002104,2102.5,0.00020993,2089.1,-6.8107e-05,-0.002225,-7.1653e-05,-26.645,1.0297
27983,14.885,0.90909,0.1,0.000208,2078.5,0.00020753,2065.1,-6.732e-05,-0.0011067,-7.0854e-05,-26.553,1.0406
27984,14.792,1.1818,0.1,0.00021055,2104,0.00021005,2089.6,-6.8064e-05,-0.0045462,-7.186e-05,-28.524,1.0302
27985,14.885,1.0909,0.1,0.00020817,2080.3,0.00020767,2065.8,-6.7271e-05,-0.0038057,-7.109e-05,-28.694,1.0411
27986,14.792,1.3636,0.1,0.00021069,2105.4,0.00021016,2090.2,-6.803e-05,-0.0062689,-7.2039e-05,-30.127,1.0307
27987,14.885,1.2727,0.1,0.00020834,2081.9,0.0002078,2066.5,-6.7234e-05,-0.0058825,-7.1297e-05,-30.533,1.0416
27988,14.792,1.5455,0.1,0.00021081,2106.7,0.00021026,2090.8,-6.8005e-05,-0.0074684,-7.2191e-05,-31.459,1.0311
27989,14.885,1.4545,0.1,0.00020848,2083.4,0.00020792,2067.2,-6.7205e-05,-0.0073044,-7.1473e-05,-32.07,1.042
27990,14.792,1.7273,0.1,0.00021092,2107.7,0.00021035,2091.3,-6.7986e-05,-0.0082883,-7.2316e-05,-32.538,1.0314
27991,14.885,1.6364,0.1,0.00020861,2084.7,0.00020802,2067.8,-6.7185e-05,-0.008277,-7.1619e-05,-33.321,1.0424
27992,14.792,1.9091,0.1,0.00021101,2108.6,0.00021042,2091.7,-6.7973e-05,-0.0088215,-7.2416e-05,-33.387,1.0318
27993,14.885,1.8182,0.1,0.00020872,2085.8,0.00020811,2068.4,-6.7172e-05,-0.0089048,-7.1737e-05,-34.309,1.0427
27994,14.792,2.0909,0.1,0.00021108,2109.4,0.00021048,2092.1,-6.7965e-05,-0.0091469,-7.2494e-05,-34.035,1.032
27995,14.885,2,0.1,0.00020881,2086.7,0.00020819,2068.9,-6.7164e-05,-0.0092838,-7.183e-05,-35.065,1.043
27996,14.792,2.2727,0.1,0.00021114,2109.9,0.00021053,2092.5,-6.7961e-05,-0.0093284,-7.2552e-05,-34.51,1.0322
27997,14.885,2.1818,0.1,0.00020888,2087.4,0.00020825,2069.3,-6.716e-05,-0.0094878,-7.19e-05,-35.624,1.0432
27998,14.792,2.4545,0.1,0.00021118,2110.4,0.00021057,2092.7,-6.7958e-05,-0.009418,-7.2594e-05,-34.844,1.0324
27999,14.885,2.3636,0.1,0.00020894,2087.9,0.0002083,2069.7,-6.7158e-05,-0.0095798,-7.1951e-05,-36.019,1.0434
28000,14.792,2.6364,0.1,0.00021121,2110.7,0.00021059,2092.9,-6.7957e-05,-0.0094541,-7.2622e-05,-35.062,1.0325
28001,14.885,2.5455,0.1,0.00020898,2088.3,0.00020834,2069.9,-6.7158e-05,-0.0096081,-7.1986e-05,-36.284,1.0436
28002,14.792,2.8182,0.1,0.00021123,2110.8,0.00021061,2093,-6.7957e-05,-0.0094645,-7.2638e-05,-35.184,1.0326
28003,14.885,2.7273,0.1,0.000209,2088.6,0.00020836,2070.1,-6.7159e-05,-0.0096063,-7.2008e-05,-36.444,1.0437
28004,14.792,3,0.1,0.00021124,2110.9,0.00021061,2093.1,-6.7957e-05,-0.0094659,-7.2643e-05,-35.223,1.0326
28005,14.885,2.9091,0.1,0.00020902,2088.7,0.00020837,2070.2,-6.7159e-05,-0.0095999,-7.2018e-05,-36.519,1.0437
28006,14.792,3.1818,0.1,0.00021123,2110.8,0.00021061,2093,-6.7957e-05,-0.0094643,-7.2638e-05,-35.184,1.0326
28007,14.885,3.0909,0.1,0.00020902,2088.7,0.00020837,2070.2,-6.7159e-05,-0.0095995,-7.2018e-05,-36.519,1.0437
28008,14.792,3.3636,0.1,0.00021121,2110.7,0.00021059,2092.9,-6.7957e-05,-0.0094541,-7.2622e-05,-35.062,1.0325
28009,14.885,3.2727,0.1,0.000209,2088.6,0.00020836,2070.1,-6.7159e-05,-0.0096066,-7.2008e-05,-36.444,1.0437
28010,14.792,3.5455,0.1,0.00021118,2110.4,0.00021057,2092.7,-6.7958e-05,-0.0094179,-7.2594e-05,-34.844,1.0324
28011,14.885,3.4545,0.1,0.00020898,2088.3,0.00020834,2069.9,-6.7158e-05,-0.0096079,-7.1986e-05,-36.284,1.0436
28012,14.792,3.7273,0.1,0.00021114,2109.9,0.00021053,2092.5,-6.7961e-05,-0.0093283,-7.2552e-05,-34.51,1.0322
28013,14.885,3.6364,0.1,0.00020894,2087.9,0.0002083,2069.7,-6.7158e-05,-0.0095796,-7.1951e-05,-36.019,1.0434
28014,14.792,3.9091,0.1,0.00021108,2109.4,0.00021048,2092.1,-6.7965e-05,-0.0091466,-7.2494e-05,-34.035,1.032
28015,14.885,3.8182,0.1,0.00020888,2087.4,0.00020825,2069.3,-6.716e-05,-0.0094874,-7.19e-05,-35.624,1.0432
28016,14.792,4.0909,0.1,0.00021101,2108.6,0.00021042,2091.7,-6.7973e-05,-0.008821,-7.2416e-05,-33.387,1.0318
28017,14.885,4,0.1,0.00020881,2086.7,0.00020819,2068.9,-6.7164e-05,-0.0092837,-7.183e-05,-35.066,1.043
28018,14.792,4.2727,0.1,0.00021092,2107.7,0.00021035,2091.3,-6.7986e-05,-0.0082879,-7.2316e-05,-32.538,1.0314
28019,14.885,4.1818,0.1,0.00020872,2085.8,0.00020811,2068.4,-6.7172e-05,-0.0089044,-7.1737e-05,-34.309,1.0427
28020,14.792,4.4545,0.1,0.00021081,2106.7,0.00021026,2090.8,-6.8005e-05,-0.0074679,-7.2191e-05,-31.459,1.0311
28021,14.885,4.3636,0.1,0.00020861,2084.7,0.00020802,2067.8,-6.7185e-05,-0.0082767,-7.1619e-05,-33.321,1.0424
28022,14.792,4.6364,0.1,0.00021069,2105.4,0.00021016,2090.2,-6.803e-05,-0.0062682,-7.2039e-05,-30.127,1.0307
28023,14.885,4.5455,0.1,0.00020848,2083.4,0.00020792,2067.2,-6.7205e-05,-0.0073039,-7.1473e-05,-32.07,1.042
28024,14.792,4.8182,0.1,0.00021055,2104,0.00021005,2089.6,-6.8064e-05,-0.0045458,-7.186e-05,-28.524,1.0302
28025,14.885,4.7273,0.1,0.00020834,2081.9,0.0002078,2066.5,-6.7234e-05,-0.005882,-7.1297e-05,-30.533,1.0416
28026,14.792,5,0.1,0.0002104,2102.5,0.00020993,2089.1,-6.8107e-05,-0.0022248,-7.1653e-05,-26.645,1.0297
28027,14.885,4.9091,0.1,0.00020817,2080.3,0.00020767,2065.8,-6.7271e-05,-0.0038056,-7.109e-05,-28.694,1.0411
28028,14.792,5.1818,0.1,0.00021024,2100.9,0.00020981,2088.5,-6.816e-05,0.0012585,-7.1421e-05,-24.497,1.0292
28029,14.885,5.0909,0.1,0.000208,2078.5,0.00020753,2065.1,-6.732e-05,-0.0011056,-7.0854e-05,-26.553,1.0406
28030,14.792,5.3636,0.1,0.00021007,2099.2,0.00020968,2088.1,-6.8224e-05,0.0048161,-7.1166e-05,-22.101,1.0286
28031,14.885,5.2727,0.1,0.00020781,2076.7,0.00020739,2064.5,-6.7379e-05,0.0034609,-7.059e-05,-24.121,1.04
28032,14.792,5.5455,0.1,0.00020991,2097.6,0.00020957,2087.8,-6.8298e-05,0.016722,-7.0899e-05,-19.524,1.0279
28033,14.885,5.4545,0.1,0.00020762,2074.8,0.00020725,2064,-6.745e-05,0.0064103,-7.0304e-05,-21.432,1.0394
28034,14.792,5.7273,0.1,0.00020986,2097.1,0.00020956,2088.4,-6.8385e-05,0.017521,-7.0712e-05,-17.468,1.0273
28035,14.885,5.6364,0.1,0.00020745,2073,0.00020713,2063.7,-6.7532e-05,0.028551,-7.001e-05,-18.591,1.0388
28036,14.885,5.8182,0.1,0.00020749,2073.5,0.0002072,2065,-6.7631e-05,0.00383,-6.9889e-05,-16.964,1.0381
28037,14.792,5.9091,0.1,0.00020913,2089.9,0.00020894,2084.4,-6.8474e-05,0.0067508,-6.9921e-05,-10.872,1.0265
28038,14.977,0.27273,0.1,0.00020507,2049.2,0.00020476,2040.2,-6.6778e-05,0.019405,-6.9173e-05,-17.976,1.0496
28039,15.07,0.18182,0.1,0.00020268,2025.4,0.00020238,2016.7,-6.6026e-05,0.0050527,-6.8322e-05,-17.245,1.0605
28040,14.977,0.090909,0.1,0.00020431,2041.7,0.00020412,2036.1,-6.6875e-05,0.0070359,-6.8341e-05,-11.011,1.0489
28041,14.977,0.45455,0.1,0.00020516,2050.2,0.0002048,2039.9,-6.6684e-05,0.017881,-6.941e-05,-20.465,1.0503
28042,15.07,0.36364,0.1,0.00020268,2025.4,0.00020234,2015.6,-6.5919e-05,0.031075,-6.85e-05,-19.364,1.0612
28043,14.977,0.63636,0.1,0.00020536,2052.2,0.00020495,2040.4,-6.6605e-05,0.0046917,-6.9723e-05,-23.423,1.0509
28044,15.07,0.54545,0.1,0.0002029,2027.6,0.0002025,2016.2,-6.5831e-05,0.0064087,-6.8844e-05,-22.633,1.0618
28045,14.977,0.81818,0.1,0.00020557,2054.3,0.00020511,2041.1,-6.6538e-05,0.00085442,-7.0019e-05,-26.151,1.0515
28046,15.07,0.72727,0.1,0.00020313,2029.9,0.00020268,2016.9,-6.5756e-05,0.0031949,-6.9176e-05,-25.698,1.0624
28047,14.977,1,0.1,0.00020577,2056.3,0.00020527,2041.8,-6.6484e-05,-0.002849,-7.0287e-05,-28.577,1.052
28048,15.07,0.90909,0.1,0.00020336,2032.2,0.00020286,2017.8,-6.5694e-05,-0.001721,-6.9481e-05,-28.449,1.063
28049,14.977,1.1818,0.1,0.00020596,2058.2,0.00020542,2042.6,-6.6441e-05,-0.0052525,-7.0524e-05,-30.68,1.0525
28050,15.07,1.0909,0.1,0.00020358,2034.3,0.00020303,2018.7,-6.5646e-05,-0.0045413,-6.9752e-05,-30.85,1.0635
28051,14.977,1.3636,0.1,0.00020613,2059.9,0.00020556,2043.4,-6.6409e-05,-0.0069948,-7.0727e-05,-32.454,1.053
28052,15.07,1.2727,0.1,0.00020377,2036.3,0.00020319,2019.7,-6.561e-05,-0.0066677,-6.9987e-05,-32.89,1.0639
28053,14.977,1.5455,0.1,0.00020628,2061.4,0.00020568,2044.2,-6.6386e-05,-0.0081671,-7.0898e-05,-33.91,1.0534
28054,15.07,1.4545,0.1,0.00020395,2038.1,0.00020334,2020.6,-6.5585e-05,-0.0080745,-7.0185e-05,-34.573,1.0644
28055,14.977,1.7273,0.1,0.00020641,2062.7,0.00020579,2044.9,-6.6371e-05,-0.0089321,-7.1037e-05,-35.071,1.0537
28056,15.07,1.6364,0.1,0.00020411,2039.7,0.00020347,2021.5,-6.5569e-05,-0.0089969,-7.0349e-05,-35.921,1.0647
28057,14.977,1.9091,0.1,0.00020652,2063.8,0.00020588,2045.5,-6.6362e-05,-0.0093953,-7.1148e-05,-35.967,1.054
28058,15.07,1.8182,0.1,0.00020424,2041,0.00020358,2022.2,-6.556e-05,-0.0095516,-7.0479e-05,-36.966,1.0651
28059,14.977,2.0909,0.1,0.00020661,2064.6,0.00020596,2046.1,-6.6358e-05,-0.009646,-7.1233e-05,-36.634,1.0543
28060,15.07,2,0.1,0.00020435,2042.1,0.00020368,2022.9,-6.5557e-05,-0.0098487,-7.058e-05,-37.745,1.0653
28061,14.977,2.2727,0.1,0.00020668,2065.3,0.00020602,2046.5,-6.6358e-05,-0.0097561,-7.1296e-05,-37.112,1.0545
28062,15.07,2.1818,0.1,0.00020443,2042.9,0.00020376,2023.5,-6.5558e-05,-0.0099712,-7.0655e-05,-38.305,1.0656
28063,14.977,2.4545,0.1,0.00020673,2065.9,0.00020607,2046.9,-6.6358e-05,-0.0097841,-7.134e-05,-37.438,1.0547
28064,15.07,2.3636,0.1,0.0002045,2043.6,0.00020382,2024,-6.5561e-05,-0.0099897,-7.0709e-05,-38.687,1.0658
28065,14.977,2.6364,0.1,0.00020676,2066.2,0.0002061,2047.1,-6.636e-05,-0.009773,-7.1369e-05,-37.645,1.0548
28066,15.07,2.5455,0.1,0.00020455,2044.1,0.00020386,2024.3,-6.5564e-05,-0.0099581,-7.0745e-05,-38.934,1.0659
28067,14.977,2.8182,0.1,0.00020679,2066.4,0.00020612,2047.3,-6.6361e-05,-0.0097536,-7.1385e-05,-37.759,1.0548
28068,15.07,2.7273,0.1,0.00020458,2044.4,0.00020389,2024.6,-6.5567e-05,-0.0099141,-7.0767e-05,-39.078,1.066
28069,14.977,3,0.1,0.00020679,2066.5,0.00020612,2047.3,-6.6362e-05,-0.0097451,-7.1391e-05,-37.795,1.0549
28070,15.07,2.9091,0.1,0.0002046,2044.5,0.0002039,2024.7,-6.5569e-05,-0.0098861,-7.0778e-05,-39.144,1.066
28071,14.977,3.1818,0.1,0.00020679,2066.4,0.00020612,2047.3,-6.6361e-05,-0.0097537,-7.1385e-05,-37.759,1.0548
28072,15.07,3.0909,0.1,0.0002046,2044.5,0.0002039,2024.7,-6.5569e-05,-0.009886,-7.0778e-05,-39.144,1.066
28073,14.977,3.3636,0.1,0.00020676,2066.2,0.0002061,2047.1,-6.636e-05,-0.009773,-7.1369e-05,-37.645,1.0548
28074,15.07,3.2727,0.1,0.00020458,2044.4,0.00020389,2024.6,-6.5567e-05,-0.0099143,-7.0767e-05,-39.078,1.066
28075,14.977,3.5455,0.1,0.00020673,2065.9,0.00020607,2046.9,-6.6358e-05,-0.0097838,-7.134e-05,-37.439,1.0547
28076,15.07,3.4545,0.1,0.00020455,2044.1,0.00020386,2024.3,-6.5564e-05,-0.0099581,-7.0745e-05,-38.934,1.0659
28077,14.977,3.7273,0.1,0.00020668,2065.3,0.00020602,2046.5,-6.6358e-05,-0.0097556,-7.1296e-05,-37.112,1.0545
28078,15.07,3.6364,0.1,0.0002045,2043.6,0.00020382,2024,-6.5561e-05,-0.0099891,-7.0709e-05,-38.687,1.0658
28079,14.977,3.9091,0.1,0.00020661,2064.6,0.00020596,2046.1,-6.6358e-05,-0.0096458,-7.1233e-05,-36.634,1.0543
28080,15.07,3.8182,0.1,0.00020443,2042.9,0.00020376,2023.5,-6.5558e-05,-0.0099709,-7.0655e-05,-38.305,1.0656
28081,14.977,4.0909,0.1,0.00020652,2063.8,0.00020588,2045.5,-6.6362e-05,-0.0093952,-7.1148e-05,-35.967,1.054
28082,15.07,4,0.1,0.00020435,2042.1,0.00020368,2022.9,-6.5557e-05,-0.0098487,-7.058e-05,-37.745,1.0653
28083,14.977,4.2727,0.1,0.00020641,2062.7,0.00020579,2044.9,-6.6371e-05,-0.0089318,-7.1037e-05,-35.071,1.0537
28084,15.07,4.1818,0.1,0.00020424,2041,0.00020358,2022.2,-6.556e-05,-0.0095517,-7.0479e-05,-36.966,1.0651
28085,14.977,4.4545,0.1,0.00020628,2061.4,0.00020568,2044.2,-6.6386e-05,-0.0081667,-7.0898e-05,-33.91,1.0534
28086,15.07,4.3636,0.1,0.00020411,2039.7,0.00020347,2021.5,-6.5569e-05,-0.0089962,-7.0349e-05,-35.921,1.0647
28087,14.977,4.6364,0.1,0.00020613,2059.9,0.00020556,2043.4,-6.6409e-05,-0.0069944,-7.0727e-05,-32.454,1.053
28088,15.07,4.5455,0.1,0.00020395,2038.1,0.00020334,2020.6,-6.5585e-05,-0.0080741,-7.0185e-05,-34.573,1.0644
28089,14.977,4.8182,0.1,0.00020596,2058.2,0.00020542,2042.6,-6.6441e-05,-0.0052522,-7.0524e-05,-30.68,1.0525
28090,15.07,4.7273,0.1,0.00020377,2036.3,0.00020319,2019.7,-6.561e-05,-0.0066673,-6.9987e-05,-32.89,1.0639
28091,14.977,5,0.1,0.00020577,2056.3,0.00020527,2041.8,-6.6484e-05,-0.0028479,-7.0287e-05,-28.577,1.052
28092,15.07,4.9091,0.1,0.00020358,2034.3,0.00020303,2018.7,-6.5646e-05,-0.004541,-6.9752e-05,-30.85,1.0635
28093,14.977,5.1818,0.1,0.00020557,2054.3,0.00020511,2041.1,-6.6538e-05,0.00085614,-7.0019e-05,-26.151,1.0515
28094,15.07,5.0909,0.1,0.00020336,2032.2,0.00020286,2017.8,-6.5694e-05,-0.0017196,-6.9481e-05,-28.449,1.063
28095,14.977,5.3636,0.1,0.00020536,2052.2,0.00020495,2040.4,-6.6605e-05,0.0046928,-6.9723e-05,-23.423,1.0509
28096,15.07,5.2727,0.1,0.00020313,2029.9,0.00020268,2016.9,-6.5756e-05,0.0031959,-6.9176e-05,-25.698,1.0624
28097,14.977,5.5455,0.1,0.00020516,2050.2,0.0002048,2039.9,-6.6684e-05,0.017882,-6.941e-05,-20.465,1.0503
28098,15.07,5.4545,0.1,0.0002029,2027.6,0.0002025,2016.2,-6.5831e-05,0.00641,-6.8844e-05,-22.633,1.0618
28099,14.977,5.7273,0.1,0.00020507,2049.2,0.00020476,2040.2,-6.6778e-05,0.019405,-6.9173e-05,-17.976,1.0496
28100,15.07,5.6364,0.1,0.00020268,2025.4,0.00020234,2015.6,-6.5919e-05,0.031075,-6.85e-05,-19.364,1.0612
28101,15.07,5.8182,0.1,0.00020268,2025.4,0.00020238,2016.7,-6.6026e-05,0.0050524,-6.8322e-05,-17.245,1.0605
28102,14.977,5.9091,0.1,0.00020431,2041.7,0.00020412,2036.1,-6.6875e-05,0.0070359,-6.8341e-05,-11.011,1.0489
28103,15.162,0.27273,0.1,0.00020027,2001.3,0.00019995,1992,-6.5167e-05,0.021573,-6.7635e-05,-18.521,1.0721
28104,15.255,0.18182,0.1,0.00019784,1977.1,0.00019754,1968.2,-6.4417e-05,0.0066534,-6.6751e-05,-17.534,1.083
28105,15.162,0.090909,0.1,0.00019948,1993.4,0.00019928,1987.8,-6.5273e-05,0.0073016,-6.6758e-05,-11.149,1.0714
28106,15.162,0.45455,0.1,0.00020041,2002.7,0.00020004,1991.9,-6.5066e-05,0.019122,-6.7929e-05,-21.497,1.0727
28107,15.255,0.36364,0.1,0.0001979,1977.6,0.00019755,1967.5,-6.43e-05,0.033877,-6.6994e-05,-20.21,1.0837
28108,15.162,0.63636,0.1,0.00020066,2005.2,0.00020023,1992.7,-6.4982e-05,0.0044824,-6.8293e-05,-24.879,1.0734
28109,15.255,0.54545,0.1,0.00019817,1980.3,0.00019775,1968.3,-6.4206e-05,0.0063281,-6.7395e-05,-23.96,1.0843
28110,15.162,0.81818,0.1,0.00020092,2007.8,0.00020043,1993.6,-6.4912e-05,0.00034426,-6.8635e-05,-27.97,1.0739
28111,15.255,0.72727,0.1,0.00019846,1983.2,0.00019798,1969.3,-6.4127e-05,0.0028288,-6.7779e-05,-27.441,1.0849
28112,15.162,1,0.1,0.00020116,2010.2,0.00020062,1994.7,-6.4857e-05,-0.003593,-6.8942e-05,-30.697,1.0745
28113,15.255,0.90909,0.1,0.00019873,1986,0.0001982,1970.5,-6.4064e-05,-0.0024643,-6.8128e-05,-30.54,1.0855
28114,15.162,1.1818,0.1,0.00020139,2012.5,0.00020081,1995.8,-6.4816e-05,-0.0060761,-6.9212e-05,-33.037,1.075
28115,15.255,1.0909,0.1,0.000199,1988.6,0.00019841,1971.8,-6.4017e-05,-0.0054059,-6.8438e-05,-33.219,1.086
28116,15.162,1.3636,0.1,0.00020159,2014.6,0.00020098,1996.8,-6.4786e-05,-0.007828,-6.9442e-05,-34.987,1.0754
28117,15.255,1.2727,0.1,0.00019924,1991,0.00019861,1973,-6.3984e-05,-0.0075733,-6.8704e-05,-35.468,1.0864
28118,15.162,1.5455,0.1,0.00020178,2016.4,0.00020113,1997.8,-6.4768e-05,-0.0089785,-6.9633e-05,-36.563,1.0758
28119,15.255,1.4545,0.1,0.00019945,1993.1,0.00019879,1974.2,-6.3964e-05,-0.0089518,-6.8927e-05,-37.298,1.0869
28120,15.162,1.7273,0.1,0.00020193,2018,0.00020126,1998.8,-6.4758e-05,-0.0096538,-6.9787e-05,-37.795,1.0761
28121,15.255,1.6364,0.1,0.00019964,1995,0.00019895,1975.4,-6.3954e-05,-0.009807,-6.9108e-05,-38.735,1.0872
28122,15.162,1.9091,0.1,0.00020207,2019.3,0.00020138,1999.6,-6.4755e-05,-0.010031,-6.9908e-05,-38.724,1.0764
28123,15.255,1.8182,0.1,0.0001998,1996.6,0.00019909,1976.4,-6.3952e-05,-0.010272,-6.925e-05,-39.822,1.0875
28124,15.162,2.0909,0.1,0.00020217,2020.3,0.00020147,2000.3,-6.4757e-05,-0.010192,-6.9999e-05,-39.396,1.0767
28125,15.255,2,0.1,0.00019993,1997.9,0.00019921,1977.3,-6.3956e-05,-0.010476,-6.9359e-05,-40.607,1.0878
28126,15.162,2.2727,0.1,0.00020226,2021.2,0.00020155,2000.9,-6.4761e-05,-0.010219,-7.0065e-05,-39.859,1.0769
28127,15.255,2.1818,0.1,0.00020003,1998.9,0.0001993,1978.1,-6.3963e-05,-0.010498,-6.9438e-05,-41.148,1.088
28128,15.162,2.4545,0.1,0.00020232,2021.8,0.00020161,2001.4,-6.4767e-05,-0.010175,-7.0111e-05,-40.162,1.0771
28129,15.255,2.3636,0.1,0.00020011,1999.7,0.00019937,1978.7,-6.3972e-05,-0.010431,-6.9494e-05,-41.5,1.0882
28130,15.162,2.6364,0.1,0.00020236,2022.2,0.00020165,2001.7,-6.4772e-05,-0.010109,-7.014e-05,-40.346,1.0772
28131,15.255,2.5455,0.1,0.00020017,2000.3,0.00019943,1979.1,-6.398e-05,-0.010331,-6.953e-05,-41.712,1.0884
28132,15.162,2.8182,0.1,0.00020239,2022.5,0.00020167,2002,-6.4775e-05,-0.010056,-7.0157e-05,-40.443,1.0772
28133,15.255,2.7273,0.1,0.00020021,2000.7,0.00019946,1979.4,-6.3986e-05,-0.010238,-6.9552e-05,-41.829,1.0885
28134,15.162,3,0.1,0.0002024,2022.6,0.00020168,2002,-6.4777e-05,-0.010036,-7.0162e-05,-40.472,1.0773
28135,15.255,2.9091,0.1,0.00020023,2000.9,0.00019948,1979.6,-6.399e-05,-0.010186,-6.9562e-05,-41.879,1.0885
28136,15.162,3.1818,0.1,0.00020239,2022.5,0.00020167,2002,-6.4775e-05,-0.010056,-7.0157e-05,-40.443,1.0772
28137,15.255,3.0909,0.1,0.00020023,2000.9,0.00019948,1979.6,-6.399e-05,-0.010186,-6.9562e-05,-41.879,1.0885
28138,15.162,3.3636,0.1,0.00020236,2022.2,0.00020165,2001.7,-6.4772e-05,-0.010109,-7.014e-05,-40.346,1.0772
28139,15.255,3.2727,0.1,0.00020021,2000.7,0.00019946,1979.4,-6.3986e-05,-0.010239,-6.9552e-05,-41.829,1.0885
28140,15.162,3.5455,0.1,0.00020232,2021.8,0.00020161,2001.4,-6.4767e-05,-0.010175,-7.0111e-05,-40.162,1.0771
28141,15.255,3.4545,0.1,0.00020017,2000.3,0.00019943,1979.1,-6.398e-05,-0.01033,-6.953e-05,-41.712,1.0884
28142,15.162,3.7273,0.1,0.00020226,2021.2,0.00020155,2000.9,-6.4761e-05,-0.010218,-7.0065e-05,-39.859,1.0769
28143,15.255,3.6364,0.1,0.00020011,1999.7,0.00019937,1978.7,-6.3972e-05,-0.010431,-6.9494e-05,-41.5,1.0882
28144,15.162,3.9091,0.1,0.00020217,2020.3,0.00020147,2000.3,-6.4757e-05,-0.010192,-6.9999e-05,-39.396,1.0767
28145,15.255,3.8182,0.1,0.00020003,1998.9,0.0001993,1978.1,-6.3963e-05,-0.010498,-6.9438e-05,-41.148,1.088
28146,15.162,4.0909,0.1,0.00020207,2019.3,0.00020138,1999.6,-6.4755e-05,-0.010031,-6.9908e-05,-38.724,1.0764
28147,15.255,4,0.1,0.00019993,1997.9,0.00019921,1977.3,-6.3956e-05,-0.010476,-6.9359e-05,-40.607,1.0878
28148,15.162,4.2727,0.1,0.00020193,2018,0.00020126,1998.8,-6.4758e-05,-0.0096535,-6.9787e-05,-37.795,1.0761
28149,15.255,4.1818,0.1,0.0001998,1996.6,0.00019909,1976.4,-6.3952e-05,-0.010272,-6.925e-05,-39.822,1.0875
28150,15.162,4.4545,0.1,0.00020178,2016.4,0.00020113,1997.8,-6.4768e-05,-0.0089583,-6.9633e-05,-36.563,1.0758
28151,15.255,4.3636,0.1,0.00019964,1995,0.00019895,1975.4,-6.3954e-05,-0.0098063,-6.9108e-05,-38.735,1.0872
28152,15.162,4.6364,0.1,0.00020159,2014.6,0.00020098,1996.8,-6.4786e-05,-0.0078274,-6.9442e-05,-34.987,1.0754
28153,15.255,4.5455,0.1,0.00019945,1993.1,0.00019879,1974.2,-6.3964e-05,-0.0089512,-6.8927e-05,-37.298,1.0869
28154,15.162,4.8182,0.1,0.00020139,2012.5,0.00020081,1995.8,-6.4816e-05,-0.0060756,-6.9212e-05,-33.037,1.075
28155,15.255,4.7273,0.1,0.00019924,1991,0.00019861,1973,-6.3984e-05,-0.0075733,-6.8704e-05,-35.469,1.0864
28156,15.162,5,0.1,0.00020116,2010.2,0.00020062,1994.7,-6.4857e-05,-0.0035923,-6.8942e-05,-30.697,1.0745
28157,15.255,4.9091,0.1,0.000199,1988.6,0.00019841,1971.8,-6.4017e-05,-0.0054052,-6.8438e-05,-33.219,1.086
28158,15.162,5.1818,0.1,0.00020092,2007.8,0.00020043,1993.6,-6.4912e-05,0.00034497,-6.8635e-05,-27.97,1.0739
28159,15.255,5.0909,0.1,0.00019873,1986,0.0001982,1970.5,-6.4064e-05,-0.0024637,-6.8128e-05,-30.54,1.0855
28160,15.162,5.3636,0.1,0.00020066,2005.2,0.00020023,1992.7,-6.4982e-05,0.0044836,-6.8293e-05,-24.879,1.0734
28161,15.255,5.2727,0.1,0.00019846,1983.2,0.00019798,1969.3,-6.4127e-05,0.0028296,-6.7779e-05,-27.441,1.0849
28162,15.162,5.5455,0.1,0.00020041,2002.7,0.00020004,1991.9,-6.5066e-05,0.019123,-6.7929e-05,-21.497,1.0727
28163,15.255,5.4545,0.1,0.00019817,1980.3,0.00019775,1968.3,-6.4206e-05,0.0063295,-6.7395e-05,-23.96,1.0843
28164,15.162,5.7273,0.1,0.00020027,2001.3,0.00019995,1992,-6.5167e-05,0.021573,-6.7635e-05,-18.521,1.0721
28165,15.255,5.6364,0.1,0.0001979,1977.6,0.00019755,1967.5,-6.43e-05,0.033877,-6.6994e-05,-20.21,1.0837
28166,15.255,5.8182,0.1,0.00019784,1977.1,0.00019754,1968.2,-6.4417e-05,0.0066532,-6.6751e-05,-17.534,1.083
28167,15.162,5.9091,0.1,0.00019948,1993.4,0.00019928,1987.8,-6.5273e-05,0.0073017,-6.6758e-05,-11.149,1.0714
28168,15.347,0.27273,0.1,0.00019546,1953.2,0.00019512,1943.6,-6.3549e-05,0.024078,-6.6096e-05,-19.111,1.0947
28169,15.44,0.18182,0.1,0.00019299,1928.5,0.00019268,1919.6,-6.2799e-05,0.0087401,-6.5174e-05,-17.834,1.1057
28170,15.347,0.090909,0.1,0.00019463,1944.9,0.00019443,1939.2,-6.3666e-05,0.0075419,-6.5169e-05,-11.287,1.094
28171,15.347,0.45455,0.1,0.00019566,1955.2,0.00019526,1943.8,-6.344e-05,0.020449,-6.6456e-05,-22.638,1.0954
28172,15.44,0.36364,0.1,0.00019311,1929.8,0.00019274,1919.1,-6.2672e-05,0.036996,-6.5491e-05,-21.144,1.1064
28173,15.347,0.63636,0.1,0.00019596,1958.3,0.0001955,1944.9,-6.3351e-05,0.0041723,-6.6877e-05,-26.493,1.096
28174,15.44,0.54545,0.1,0.00019344,1933.1,0.000193,1920.3,-6.2572e-05,0.006147,-6.5957e-05,-25.434,1.107
28175,15.347,0.81818,0.1,0.00019627,1961.4,0.00019574,1946.2,-6.3279e-05,-0.00029392,-6.727e-05,-29.984,1.0965
28176,15.44,0.72727,0.1,0.00019379,1936.5,0.00019327,1921.7,-6.2489e-05,0.002342,-6.6399e-05,-29.378,1.1076
28177,15.347,1,0.1,0.00019657,1964.3,0.00019598,1947.6,-6.3224e-05,-0.0044766,-6.7621e-05,-33.038,1.097
28178,15.44,0.90909,0.1,0.00019412,1939.9,0.00019354,1923.3,-6.2426e-05,-0.0033566,-6.6799e-05,-32.859,1.1081
28179,15.347,1.1818,0.1,0.00019684,1967.1,0.00019621,1949,-6.3186e-05,-0.0070322,-6.7927e-05,-35.628,1.0975
28180,15.44,1.0909,0.1,0.00019444,1943,0.0001938,1924.9,-6.2382e-05,-0.0064154,-6.7151e-05,-35.838,1.1086
28181,15.347,1.3636,0.1,0.00019709,1969.6,0.00019642,1950.4,-6.3162e-05,-0.0087814,-6.8186e-05,-37.758,1.098
28182,15.44,1.2727,0.1,0.00019473,1945.9,0.00019405,1926.5,-6.2354e-05,-0.0086131,-6.7451e-05,-38.306,1.1091
28183,15.347,1.5455,0.1,0.00019731,1971.7,0.00019661,1951.7,-6.315e-05,-0.0098545,-6.8399e-05,-39.449,1.0983
28184,15.44,1.4545,0.1,0.00019499,1948.5,0.00019427,1928.1,-6.2341e-05,-0.0099464,-6.77e-05,-40.28,1.1095
28185,15.347,1.7273,0.1,0.0001975,1973.6,0.00019677,1952.9,-6.3147e-05,-0.01046,-6.8568e-05,-40.741,1.0987
28186,15.44,1.6364,0.1,0.00019521,1950.8,0.00019447,1929.5,-6.2339e-05,-0.010715,-6.79e-05,-41.796,1.1098
28187,15.347,1.9091,0.1,0.00019766,1975.2,0.00019692,1954,-6.3152e-05,-0.010735,-6.8699e-05,-41.685,1.099
28188,15.44,1.8182,0.1,0.0001954,1952.7,0.00019463,1930.8,-6.2346e-05,-0.011071,-6.8055e-05,-42.907,1.1102
28189,15.347,2.0909,0.1,0.00019779,1976.5,0.00019703,1955,-6.3162e-05,-0.010791,-6.8795e-05,-42.341,1.0992
28190,15.44,2,0.1,0.00019556,1954.2,0.00019478,1932,-6.2359e-05,-0.011155,-6.8171e-05,-43.677,1.1104
28191,15.347,2.2727,0.1,0.00019789,1977.5,0.00019712,1955.8,-6.3173e-05,-0.01072,-6.8864e-05,-42.769,1.0994
28192,15.44,2.1818,0.1,0.00019568,1955.5,0.00019489,1933,-6.2375e-05,-0.01107,-6.8253e-05,-44.176,1.1107
28193,15.347,2.4545,0.1,0.00019796,1978.2,0.00019719,1956.4,-6.3185e-05,-0.010594,-6.891e-05,-43.03,1.0996
28194,15.44,2.3636,0.1,0.00019578,1956.4,0.00019498,1933.8,-6.2392e-05,-0.010906,-6.8309e-05,-44.474,1.1108
28195,15.347,2.6364,0.1,0.00019801,1978.8,0.00019724,1956.8,-6.3195e-05,-0.010467,-6.8939e-05,-43.176,1.0997
28196,15.44,2.5455,0.1,0.00019585,1957.1,0.00019505,1934.4,-6.2406e-05,-0.010728,-6.8345e-05,-44.633,1.111
28197,15.347,2.8182,0.1,0.00019804,1979.1,0.00019727,1957.1,-6.3201e-05,-0.010375,-6.8955e-05,-43.246,1.0998
28198,15.44,2.7273,0.1,0.00019589,1957.5,0.00019509,1934.8,-6.2417e-05,-0.010583,-6.8366e-05,-44.708,1.1111
28199,15.347,3,0.1,0.00019805,1979.2,0.00019728,1957.2,-6.3203e-05,-0.010342,-6.896e-05,-43.266,1.0998
28200,15.44,2.9091,0.1,0.00019591,1957.8,0.00019511,1935,-6.2423e-05,-0.010502,-6.8376e-05,-44.735,1.1111
28201,15.347,3.1818,0.1,0.00019804,1979.1,0.00019727,1957.1,-6.3201e-05,-0.010375,-6.8955e-05,-43.246,1.0998
28202,15.44,3.0909,0.1,0.00019591,1957.8,0.00019511,1935,-6.2423e-05,-0.010502,-6.8376e-05,-44.735,1.1111
28203,15.347,3.3636,0.1,0.00019801,1978.8,0.00019724,1956.8,-6.3195e-05,-0.010466,-6.8939e-05,-43.176,1.0997
28204,15.44,3.2727,0.1,0.00019589,1957.5,0.00019509,1934.8,-6.2417e-05,-0.010582,-6.8366e-05,-44.708,1.1111
28205,15.347,3.5455,0.1,0.00019796,1978.2,0.00019719,1956.4,-6.3185e-05,-0.010594,-6.891e-05,-43.03,1.0996
28206,15.44,3.4545,0.1,0.00019585,1957.1,0.00019505,1934.4,-6.2406e-05,-0.010727,-6.8345e-05,-44.633,1.111
28207,15.347,3.7273,0.1,0.00019789,1977.5,0.00019712,1955.8,-6.3173e-05,-0.01072,-6.8864e-05,-42.769,1.0994
28208,15.44,3.6364,0.1,0.00019578,1956.4,0.00019498,1933.8,-6.2392e-05,-0.010905,-6.8309e-05,-44.474,1.1108
28209,15.347,3.9091,0.1,0.00019779,1976.5,0.00019703,1955,-6.3162e-05,-0.010791,-6.8795e-05,-42.341,1.0992
28210,15.44,3.8182,0.1,0.00019568,1955.5,0.00019489,1933,-6.2375e-05,-0.01107,-6.8253e-05,-44.176,1.1107
28211,15.347,4.0909,0.1,0.00019766,1975.2,0.00019692,1954,-6.3152e-05,-0.010734,-6.8699e-05,-41.685,1.099
28212,15.44,4,0.1,0.00019556,1954.2,0.00019478,1932,-6.2359e-05,-0.011154,-6.8171e-05,-43.677,1.1104
28213,15.347,4.2727,0.1,0.0001975,1973.6,0.00019677,1952.9,-6.3147e-05,-0.01046,-6.8568e-05,-40.741,1.0987
28214,15.44,4.1818,0.1,0.0001954,1952.7,0.00019463,1930.8,-6.2346e-05,-0.011071,-6.8055e-05,-42.907,1.1102
28215,15.347,4.4545,0.1,0.00019731,1971.7,0.00019661,1951.7,-6.315e-05,-0.0098541,-6.8399e-05,-39.45,1.0983
28216,15.44,4.3636,0.1,0.00019521,1950.8,0.00019447,1929.5,-6.2339e-05,-0.010715,-6.79e-05,-41.796,1.1098
28217,15.347,4.6364,0.1,0.00019709,1969.6,0.00019642,1950.4,-6.3162e-05,-0.0087814,-6.8186e-05,-37.758,1.098
28218,15.44,4.5455,0.1,0.00019499,1948.5,0.00019427,1928.1,-6.2341e-05,-0.0099461,-6.77e-05,-40.28,1.1095
28219,15.347,4.8182,0.1,0.00019684,1967.1,0.00019621,1949,-6.3186e-05,-0.007032,-6.7927e-05,-35.628,1.0975
28220,15.44,4.7273,0.1,0.00019473,1945.9,0.00019405,1926.5,-6.2354e-05,-0.0086131,-6.7451e-05,-38.306,1.1091
28221,15.347,5,0.1,0.00019657,1964.3,0.00019598,1947.6,-6.3224e-05,-0.004476,-6.7621e-05,-33.038,1.097
28222,15.44,4.9091,0.1,0.00019444,1943,0.0001938,1924.9,-6.2382e-05,-0.006415,-6.7151e-05,-35.838,1.1086
28223,15.347,5.1818,0.1,0.00019627,1961.4,0.00019574,1946.2,-6.3279e-05,-0.00029311,-6.727e-05,-29.984,1.0965
28224,15.44,5.0909,0.1,0.00019412,1939.9,0.00019354,1923.3,-6.2426e-05,-0.0033555,-6.6799e-05,-32.859,1.1081
28225,15.347,5.3636,0.1,0.00019596,1958.3,0.0001955,1944.9,-6.3351e-05,0.0041722,-6.6877e-05,-26.493,1.096
28226,15.44,5.2727,0.1,0.00019379,1936.5,0.00019327,1921.7,-6.2489e-05,0.0023437,-6.6399e-05,-29.378,1.1076
28227,15.347,5.5455,0.1,0.00019566,1955.2,0.00019526,1943.8,-6.344e-05,0.020449,-6.6456e-05,-22.638,1.0954
28228,15.44,5.4545,0.1,0.00019344,1933.1,0.000193,1920.3,-6.2572e-05,0.0061482,-6.5957e-05,-25.434,1.107
28229,15.347,5.7273,0.1,0.00019546,1953.2,0.00019512,1943.6,-6.3549e-05,0.024078,-6.6096e-05,-19.111,1.0947
28230,15.44,5.6364,0.1,0.00019311,1929.8,0.00019274,1919.1,-6.2672e-05,0.036995,-6.5491e-05,-21.145,1.1064
28231,15.44,5.8182,0.1,0.00019299,1928.5,0.00019268,1919.6,-6.2799e-05,0.0087402,-6.5174e-05,-17.834,1.1057
28232,15.347,5.9091,0.1,0.00019463,1944.9,0.00019443,1939.2,-6.3666e-05,0.0075434,-6.5169e-05,-11.287,1.094
28233,15.532,0.27273,0.1,0.00019062,1904.9,0.00019028,1895,-6.1922e-05,0.026981,-6.4555e-05,-19.755,1.1175
28234,15.625,0.18182,0.1,0.0001881,1879.7,0.00018778,1870.6,-6.1171e-05,0.011449,-6.3588e-05,-18.149,1.1285
28235,15.532,0.090909,0.1,0.00018975,1896.2,0.00018955,1890.4,-6.205e-05,0.0077489,-6.3571e-05,-11.425,1.1168
28236,15.532,0.45455,0.1,0.00019089,1907.6,0.00019047,1895.5,-6.1804e-05,0.021869,-6.4988e-05,-23.905,1.1181
28237,15.625,0.36364,0.1,0.0001883,1881.7,0.00018791,1870.5,-6.1033e-05,0.040474,-6.399e-05,-22.183,1.1292
28238,15.532,0.63636,0.1,0.00019126,1911.3,0.00019077,1897,-6.171e-05,0.003723,-6.5476e-05,-28.29,1.1187
28239,15.625,0.54545,0.1,0.0001887,1885.7,0.00018823,1872,-6.0925e-05,0.005841,-6.453e-05,-27.081,1.1298
28240,15.532,0.81818,0.1,0.00019163,1915,0.00019107,1898.7,-6.1637e-05,-0.0010789,-6.5925e-05,-32.226,1.1192
28241,15.625,0.72727,0.1,0.00018912,1889.9,0.00018856,1873.9,-6.084e-05,0.0017157,-6.5038e-05,-31.541,1.1304
28242,15.532,1,0.1,0.00019199,1918.6,0.00019136,1900.5,-6.1584e-05,-0.0055167,-6.6326e-05,-35.635,1.1198
28243,15.625,0.90909,0.1,0.00018952,1893.9,0.00018889,1875.9,-6.0778e-05,-0.004418,-6.5495e-05,-35.444,1.1309
28244,15.532,1.1818,0.1,0.00019232,1921.9,0.00019164,1902.3,-6.155e-05,-0.0081355,-6.6672e-05,-38.493,1.1202
28245,15.625,1.0909,0.1,0.0001899,1897.7,0.00018921,1878,-6.0738e-05,-0.0075866,-6.5894e-05,-38.747,1.1314
28246,15.532,1.3636,0.1,0.00019262,1924.9,0.00019189,1904.1,-6.1533e-05,-0.0098657,-6.6963e-05,-40.807,1.1206
28247,15.625,1.2727,0.1,0.00019025,1901.1,0.00018951,1880.1,-6.0718e-05,-0.0098,-6.6232e-05,-41.444,1.1318
28248,15.532,1.5455,0.1,0.00019288,1927.5,0.00019212,1905.8,-6.153e-05,-0.010861,-6.7199e-05,-42.606,1.121
28249,15.625,1.4545,0.1,0.00019055,1904.2,0.00018978,1882.1,-6.0714e-05,-0.011066,-6.651e-05,-43.56,1.1322
28250,15.532,1.7273,0.1,0.00019311,1929.7,0.00019232,1907.4,-6.1538e-05,-0.011358,-6.7384e-05,-43.942,1.1214
28251,15.625,1.6364,0.1,0.00019082,1906.9,0.00019002,1883.9,-6.0724e-05,-0.011727,-6.673e-05,-45.142,1.1326
28252,15.532,1.9091,0.1,0.0001933,1931.6,0.00019249,1908.8,-6.1553e-05,-0.011509,-6.7525e-05,-44.88,1.1217
28253,15.625,1.8182,0.1,0.00019105,1909.2,0.00019022,1885.6,-6.0743e-05,-0.011952,-6.6898e-05,-46.256,1.1329
28254,15.532,2.0909,0.1,0.00019345,1933.2,0.00019264,1910,-6.1573e-05,-0.011443,-6.7626e-05,-45.494,1.1219
28255,15.625,2,0.1,0.00019124,1911.1,0.0001904,1887.1,-6.0768e-05,-0.011899,-6.702e-05,-46.984,1.1332
28256,15.532,2.2727,0.1,0.00019357,1934.4,0.00019275,1911,-6.1594e-05,-0.011261,-6.7696e-05,-45.862,1.1221
28257,15.625,2.1818,0.1,0.00019139,1912.6,0.00019054,1888.4,-6.0796e-05,-0.011688,-6.7105e-05,-47.413,1.1334
28258,15.532,2.4545,0.1,0.00019366,1935.3,0.00019283,1911.8,-6.1614e-05,-0.011043,-6.7742e-05,-46.058,1.1223
28259,15.625,2.3636,0.1,0.0001915,1913.7,0.00019065,1889.4,-6.0823e-05,-0.011415,-6.716e-05,-47.629,1.1336
28260,15.532,2.6364,0.1,0.00019372,1935.9,0.00019289,1912.4,-6.1629e-05,-0.010847,-6.777e-05,-46.147,1.1224
28261,15.625,2.5455,0.1,0.00019158,1914.5,0.00019073,1890.2,-6.0846e-05,-0.011152,-6.7194e-05,-47.711,1.1337
28262,15.532,2.8182,0.1,0.00019376,1936.2,0.00019293,1912.7,-6.164e-05,-0.010713,-6.7784e-05,-46.179,1.1224
28263,15.625,2.7273,0.1,0.00019164,1915.1,0.00019078,1890.7,-6.0862e-05,-0.01095,-6.7213e-05,-47.727,1.1338
28264,15.532,3,0.1,0.00019377,1936.3,0.00019294,1912.8,-6.1643e-05,-0.010666,-6.7789e-05,-46.185,1.1225
28265,15.625,2.9091,0.1,0.00019166,1915.3,0.00019081,1891,-6.0871e-05,-0.010841,-6.7221e-05,-47.722,1.1338
28266,15.532,3.1818,0.1,0.00019376,1936.2,0.00019293,1912.7,-6.164e-05,-0.010713,-6.7784e-05,-46.179,1.1224
28267,15.625,3.0909,0.1,0.00019166,1915.3,0.00019081,1891,-6.0871e-05,-0.01084,-6.7221e-05,-47.722,1.1338
28268,15.532,3.3636,0.1,0.00019372,1935.9,0.00019289,1912.4,-6.1629e-05,-0.010847,-6.777e-05,-46.147,1.1224
28269,15.625,3.2727,0.1,0.00019164,1915.1,0.00019078,1890.7,-6.0862e-05,-0.01095,-6.7213e-05,-47.727,1.1338
28270,15.532,3.5455,0.1,0.00019366,1935.3,0.00019283,1911.8,-6.1614e-05,-0.011042,-6.7742e-05,-46.058,1.1223
28271,15.625,3.4545,0.1,0.00019158,1914.5,0.00019073,1890.2,-6.0846e-05,-0.011152,-6.7194e-05,-47.711,1.1337
28272,15.532,3.7273,0.1,0.00019357,1934.4,0.00019275,1911,-6.1594e-05,-0.011261,-6.7696e-05,-45.862,1.1221
28273,15.625,3.6364,0.1,0.0001915,1913.7,0.00019065,1889.4,-6.0823e-05,-0.011414,-6.716e-05,-47.629,1.1336
28274,15.532,3.9091,0.1,0.00019345,1933.2,0.00019264,1910,-6.1573e-05,-0.011443,-6.7626e-05,-45.494,1.1219
28275,15.625,3.8182,0.1,0.00019139,1912.6,0.00019054,1888.4,-6.0796e-05,-0.011688,-6.7105e-05,-47.413,1.1334
28276,15.532,4.0909,0.1,0.0001933,1931.6,0.00019249,1908.8,-6.1553e-05,-0.011509,-6.7525e-05,-44.88,1.1217
28277,15.625,4,0.1,0.00019124,1911.1,0.0001904,1887.1,-6.0768e-05,-0.011899,-6.702e-05,-46.984,1.1332
28278,15.532,4.2727,0.1,0.00019311,1929.7,0.00019232,1907.4,-6.1538e-05,-0.011358,-6.7384e-05,-43.942,1.1214
28279,15.625,4.1818,0.1,0.00019105,1909.2,0.00019022,1885.6,-6.0743e-05,-0.011952,-6.6898e-05,-46.256,1.1329
28280,15.532,4.4545,0.1,0.00019288,1927.5,0.00019212,1905.8,-6.153e-05,-0.010861,-6.7199e-05,-42.607,1.121
28281,15.625,4.3636,0.1,0.00019082,1906.9,0.00019002,1883.9,-6.0724e-05,-0.011726,-6.673e-05,-45.142,1.1326
28282,15.532,4.6364,0.1,0.00019262,1924.9,0.00019189,1904.1,-6.1533e-05,-0.0098654,-6.6963e-05,-40.807,1.1206
28283,15.625,4.5455,0.1,0.00019055,1904.2,0.00018978,1882.1,-6.0714e-05,-0.011066,-6.651e-05,-43.56,1.1322
28284,15.532,4.8182,0.1,0.00019232,1921.9,0.00019164,1902.3,-6.155e-05,-0.0081353,-6.6672e-05,-38.494,1.1202
28285,15.625,4.7273,0.1,0.00019025,1901.1,0.00018951,1880.1,-6.0718e-05,-0.0097996,-6.6232e-05,-41.444,1.1318
28286,15.532,5,0.1,0.00019199,1918.6,0.00019136,1900.5,-6.1584e-05,-0.0055158,-6.6326e-05,-35.635,1.1198
28287,15.625,4.9091,0.1,0.0001899,1897.7,0.00018921,1878,-6.0738e-05,-0.0075858,-6.5894e-05,-38.747,1.1314
28288,15.532,5.1818,0.1,0.00019163,1915,0.00019107,1898.7,-6.1637e-05,-0.0010769,-6.5925e-05,-32.226,1.1192
28289,15.625,5.0909,0.1,0.00018952,1893.9,0.00018889,1875.9,-6.0778e-05,-0.0044167,-6.5495e-05,-35.444,1.1309
28290,15.532,5.3636,0.1,0.00019126,1911.3,0.00019077,1897,-6.171e-05,0.0037248,-6.5476e-05,-28.29,1.1187
28291,15.625,5.2727,0.1,0.00018912,1889.9,0.00018856,1873.9,-6.084e-05,0.0017175,-6.5038e-05,-31.541,1.1304
28292,15.532,5.5455,0.1,0.00019089,1907.6,0.00019047,1895.5,-6.1804e-05,0.021868,-6.4989e-05,-23.905,1.1181
28293,15.625,5.4545,0.1,0.0001887,1885.7,0.00018823,1872,-6.0925e-05,0.0058421,-6.453e-05,-27.081,1.1298
28294,15.532,5.7273,0.1,0.00019062,1904.9,0.00019028,1895,-6.1922e-05,0.02698,-6.4555e-05,-19.755,1.1175
28295,15.625,5.6364,0.1,0.0001883,1881.7,0.00018791,1870.5,-6.1033e-05,0.040473,-6.399e-05,-22.183,1.1292
28296,15.625,5.8182,0.1,0.0001881,1879.7,0.00018778,1870.6,-6.1171e-05,0.011448,-6.3588e-05,-18.149,1.1285
28297,15.532,5.9091,0.1,0.00018975,1896.2,0.00018955,1890.4,-6.205e-05,0.0077498,-6.3571e-05,-11.425,1.1168
28298,15.717,0.27273,0.1,0.00018576,1856.3,0.0001854,1846,-6.0281e-05,0.030345,-6.3008e-05,-20.464,1.1403
28299,15.809,0.18182,0.1,0.00018317,1830.4,0.00018285,1821.1,-5.9527e-05,0.014949,-6.1989e-05,-18.483,1.1515
28300,15.717,0.090909,0.1,0.00018484,1847.1,0.00018464,1841.3,-6.0422e-05,0.0079085,-6.1962e-05,-11.565,1.1397
28301,15.717,0.45455,0.1,0.0001861,1859.8,0.00018566,1847,-6.0154e-05,0.023384,-6.3527e-05,-25.323,1.141
28302,15.809,0.36364,0.1,0.00018345,1833.3,0.00018305,1821.5,-5.9376e-05,0.044353,-6.2489e-05,-23.344,1.1521
28303,15.717,0.63636,0.1,0.00018655,1864.2,0.00018602,1848.9,-6.0055e-05,0.0031274,-6.4089e-05,-30.303,1.1416
28304,15.809,0.54545,0.1,0.00018394,1838.2,0.00018343,1823.5,-5.9262e-05,0.0053792,-6.3113e-05,-28.931,1.1527
28305,15.717,0.81818,0.1,0.000187,1868.7,0.00018638,1851.1,-5.9981e-05,-0.0020318,-6.4604e-05,-34.734,1.1421
28306,15.809,0.72727,0.1,0.00018444,1843.1,0.00018384,1825.9,-5.9175e-05,0.00092672,-6.3696e-05,-33.969,1.1533
28307,15.717,1,0.1,0.00018743,1873,0.00018674,1853.4,-5.9932e-05,-0.0067335,-6.506e-05,-38.532,1.1426
28308,15.809,0.90909,0.1,0.00018492,1847.9,0.00018424,1828.5,-5.9116e-05,-0.005669,-6.4217e-05,-38.338,1.1538
28309,15.717,1.1818,0.1,0.00018782,1876.9,0.00018708,1855.7,-5.9906e-05,-0.0094012,-6.5451e-05,-41.676,1.1431
28310,15.809,1.0909,0.1,0.00018538,1852.5,0.00018462,1831.1,-5.9083e-05,-0.0089332,-6.467e-05,-41.993,1.1543
28311,15.717,1.3636,0.1,0.00018818,1880.5,0.00018739,1858,-5.9899e-05,-0.011091,-6.5777e-05,-44.177,1.1435
28312,15.809,1.2727,0.1,0.00018579,1856.6,0.00018499,1833.7,-5.9073e-05,-0.011143,-6.5051e-05,-44.931,1.1547
28313,15.717,1.5455,0.1,0.00018849,1883.6,0.00018767,1860.2,-5.9908e-05,-0.011985,-6.6038e-05,-46.076,1.1438
28314,15.809,1.4545,0.1,0.00018616,1860.3,0.00018531,1836.3,-5.9082e-05,-0.012317,-6.536e-05,-47.185,1.1551
28315,15.717,1.7273,0.1,0.00018876,1886.3,0.00018791,1862.2,-5.9929e-05,-0.012349,-6.6241e-05,-47.437,1.1442
28316,15.809,1.6364,0.1,0.00018648,1863.6,0.00018561,1838.7,-5.9107e-05,-0.012843,-6.5602e-05,-48.817,1.1555
28317,15.717,1.9091,0.1,0.00018899,1888.6,0.00018812,1864,-5.9958e-05,-0.012355,-6.6391e-05,-48.343,1.1445
28318,15.809,1.8182,0.1,0.00018676,1866.3,0.00018586,1840.8,-5.9142e-05,-0.012912,-6.5783e-05,-49.909,1.1558
28319,15.717,2.0909,0.1,0.00018917,1890.4,0.0001883,1865.5,-5.9992e-05,-0.012148,-6.6496e-05,-48.885,1.1447
28320,15.809,2,0.1,0.00018698,1868.5,0.00018607,1842.7,-5.9184e-05,-0.012703,-6.5912e-05,-50.563,1.156
28321,15.717,2.2727,0.1,0.00018932,1891.9,0.00018843,1866.8,-6.0025e-05,-0.011842,-6.6566e-05,-49.161,1.1449
28322,15.809,2.1818,0.1,0.00018716,1870.3,0.00018624,1844.4,-5.9227e-05,-0.01235,-6.5998e-05,-50.886,1.1563
28323,15.717,2.4545,0.1,0.00018943,1892.9,0.00018854,1867.8,-6.0055e-05,-0.011523,-6.661e-05,-49.264,1.1451
28324,15.809,2.3636,0.1,0.0001873,1871.7,0.00018638,1845.7,-5.9267e-05,-0.011958,-6.6051e-05,-50.986,1.1564
28325,15.717,2.6364,0.1,0.0001895,1893.7,0.00018861,1868.6,-6.0079e-05,-0.011255,-6.6635e-05,-49.273,1.1452
28326,15.809,2.5455,0.1,0.0001874,1872.7,0.00018648,1846.7,-5.93e-05,-0.011606,-6.6082e-05,-50.963,1.1566
28327,15.717,2.8182,0.1,0.00018954,1894.1,0.00018866,1869,-6.0094e-05,-0.011078,-6.6648e-05,-49.252,1.1452
28328,15.809,2.7273,0.1,0.00018746,1873.3,0.00018654,1847.3,-5.9325e-05,-0.011346,-6.6097e-05,-50.898,1.1566
28329,15.717,3,0.1,0.00018956,1894.2,0.00018867,1869.1,-6.0099e-05,-0.011016,-6.6651e-05,-49.24,1.1453
28330,15.809,2.9091,0.1,0.00018749,1873.6,0.00018657,1847.7,-5.9337e-05,-0.011208,-6.6104e-05,-50.85,1.1567
28331,15.717,3.1818,0.1,0.00018954,1894.1,0.00018866,1869,-6.0094e-05,-0.011078,-6.6648e-05,-49.252,1.1452
28332,15.809,3.0909,0.1,0.00018749,1873.6,0.00018657,1847.7,-5.9337e-05,-0.011208,-6.6104e-05,-50.85,1.1567
28333,15.717,3.3636,0.1,0.0001895,1893.7,0.00018861,1868.6,-6.0079e-05,-0.011255,-6.6635e-05,-49.273,1.1452
28334,15.809,3.2727,0.1,0.00018746,1873.3,0.00018654,1847.3,-5.9325e-05,-0.011346,-6.6097e-05,-50.898,1.1566
28335,15.717,3.5455,0.1,0.00018943,1892.9,0.00018854,1867.8,-6.0055e-05,-0.011523,-6.661e-05,-49.264,1.1451
28336,15.809,3.4545,0.1,0.0001874,1872.7,0.00018648,1846.7,-5.93e-05,-0.011607,-6.6082e-05,-50.963,1.1566
28337,15.717,3.7273,0.1,0.00018932,1891.9,0.00018843,1866.8,-6.0025e-05,-0.011841,-6.6566e-05,-49.161,1.1449
28338,15.809,3.6364,0.1,0.0001873,1871.7,0.00018638,1845.7,-5.9267e-05,-0.011958,-6.6051e-05,-50.986,1.1564
28339,15.717,3.9091,0.1,0.00018917,1890.4,0.0001883,1865.5,-5.9992e-05,-0.012148,-6.6496e-05,-48.885,1.1447
28340,15.809,3.8182,0.1,0.00018716,1870.3,0.00018624,1844.4,-5.9227e-05,-0.01235,-6.5998e-05,-50.886,1.1563
28341,15.717,4.0909,0.1,0.00018899,1888.6,0.00018812,1864,-5.9958e-05,-0.012355,-6.6391e-05,-48.343,1.1445
28342,15.809,4,0.1,0.00018698,1868.5,0.00018607,1842.7,-5.9184e-05,-0.012703,-6.5912e-05,-50.563,1.156
28343,15.717,4.2727,0.1,0.00018876,1886.3,0.00018791,1862.2,-5.9929e-05,-0.012348,-6.6241e-05,-47.437,1.1442
28344,15.809,4.1818,0.1,0.00018676,1866.3,0.00018586,1840.8,-5.9142e-05,-0.012912,-6.5783e-05,-49.909,1.1558
28345,15.717,4.4545,0.1,0.00018849,1883.6,0.00018767,1860.2,-5.9908e-05,-0.011984,-6.6038e-05,-46.076,1.1438
28346,15.809,4.3636,0.1,0.00018648,1863.6,0.00018561,1838.7,-5.9107e-05,-0.012841,-6.5602e-05,-48.817,1.1555
28347,15.717,4.6364,0.1,0.00018818,1880.5,0.00018739,1858,-5.9899e-05,-0.011091,-6.5777e-05,-44.178,1.1435
28348,15.809,4.5455,0.1,0.00018616,1860.3,0.00018531,1836.3,-5.9082e-05,-0.012317,-6.536e-05,-47.186,1.1551
28349,15.717,4.8182,0.1,0.00018782,1876.9,0.00018708,1855.7,-5.9906e-05,-0.0094001,-6.5451e-05,-41.676,1.1431
28350,15.809,4.7273,0.1,0.00018579,1856.6,0.00018499,1833.7,-5.9073e-05,-0.011142,-6.5051e-05,-44.931,1.1547
28351,15.717,5,0.1,0.00018743,1873,0.00018674,1853.4,-5.9932e-05,-0.0067322,-6.506e-05,-38.532,1.1426
28352,15.809,4.9091,0.1,0.00018538,1852.5,0.00018462,1831.1,-5.9083e-05,-0.0089324,-6.467e-05,-41.993,1.1543
28353,15.717,5.1818,0.1,0.000187,1868.7,0.00018638,1851.1,-5.9981e-05,-0.0020306,-6.4604e-05,-34.734,1.1421
28354,15.809,5.0909,0.1,0.00018492,1847.9,0.00018424,1828.5,-5.9116e-05,-0.0056674,-6.4218e-05,-38.338,1.1538
28355,15.717,5.3636,0.1,0.00018655,1864.2,0.00018602,1848.9,-6.0055e-05,0.0031285,-6.4089e-05,-30.304,1.1416
28356,15.809,5.2727,0.1,0.00018444,1843.1,0.00018384,1825.9,-5.9175e-05,0.00092855,-6.3696e-05,-33.969,1.1533
28357,15.717,5.5455,0.1,0.0001861,1859.8,0.00018566,1847,-6.0154e-05,0.023384,-6.3527e-05,-25.323,1.141
28358,15.809,5.4545,0.1,0.00018394,1838.2,0.00018343,1823.5,-5.9262e-05,0.0053797,-6.3113e-05,-28.931,1.1527
28359,15.717,5.7273,0.1,0.00018576,1856.3,0.0001854,1846,-6.0281e-05,0.030345,-6.3009e-05,-20.464,1.1403
28360,15.809,5.6364,0.1,0.00018345,1833.3,0.00018305,1821.5,-5.9376e-05,0.044353,-6.2489e-05,-23.344,1.1521
28361,15.809,5.8182,0.1,0.00018317,1830.4,0.00018285,1821.1,-5.9527e-05,0.014948,-6.1989e-05,-18.483,1.1515
28362,15.717,5.9091,0.1,0.00018484,1847.1,0.00018464,1841.3,-6.0422e-05,0.0079085,-6.1962e-05,-11.565,1.1397
28363,15.902,0.27273,0.1,0.00018085,1807.2,0.00018048,1796.5,-5.8621e-05,0.034242,-6.1454e-05,-21.249,1.1633
28364,15.994,0.18182,0.1,0.00017818,1780.6,0.00017785,1771.1,-5.7862e-05,0.019443,-6.0372e-05,-18.841,1.1746
28365,15.902,0.090909,0.1,0.00017987,1797.5,0.00017967,1791.6,-5.8776e-05,0.0080055,-6.0336e-05,-11.707,1.1627
28366,15.902,0.45455,0.1,0.00018129,1811.6,0.00018081,1798,-5.8485e-05,0.024992,-6.207e-05,-26.915,1.164
28367,15.994,0.36364,0.1,0.00017857,1784.4,0.00017814,1772,-5.7698e-05,0.048672,-6.0985e-05,-24.647,1.1752
28368,15.902,0.63636,0.1,0.00018183,1817,0.00018125,1800.5,-5.8382e-05,0.0023472,-6.2717e-05,-32.567,1.1645
28369,15.994,0.54545,0.1,0.00017915,1790.3,0.0001786,1774.6,-5.7577e-05,0.004726,-6.1705e-05,-31.014,1.1758
28370,15.902,0.81818,0.1,0.00018236,1822.3,0.00018169,1803.3,-5.8309e-05,-0.0031759,-6.3306e-05,-37.549,1.1651
28371,15.994,0.72727,0.1,0.00017975,1796.2,0.00017909,1777.6,-5.7489e-05,-4.7452e-05,-6.2374e-05,-36.703,1.1763
28372,15.902,1,0.1,0.00018287,1827.4,0.00018212,1806.2,-5.8266e-05,-0.0081414,-6.3825e-05,-41.776,1.1656
28373,15.994,0.90909,0.1,0.00018032,1802,0.00017958,1780.8,-5.7435e-05,-0.0071265,-6.2969e-05,-41.59,1.1769
28374,15.902,1.1818,0.1,0.00018334,1832.2,0.00018253,1809.1,-5.825e-05,-0.010837,-6.4268e-05,-45.227,1.166
28375,15.994,1.0909,0.1,0.00018086,1807.4,0.00018005,1784.1,-5.7412e-05,-0.010465,-6.3483e-05,-45.629,1.1773
28376,15.902,1.3636,0.1,0.00018377,1836.4,0.00018291,1812,-5.8256e-05,-0.012463,-6.4632e-05,-47.92,1.1664
28377,15.994,1.2727,0.1,0.00018136,1812.4,0.00018048,1787.5,-5.7416e-05,-0.012645,-6.3912e-05,-48.821,1.1778
28378,15.902,1.5455,0.1,0.00018415,1840.2,0.00018325,1814.8,-5.8281e-05,-0.013225,-6.4922e-05,-49.908,1.1668
28379,15.994,1.4545,0.1,0.00018181,1816.8,0.00018088,1790.7,-5.7443e-05,-0.013697,-6.4257e-05,-51.211,1.1781
28380,15.902,1.7273,0.1,0.00018447,1843.5,0.00018355,1817.3,-5.832e-05,-0.013428,-6.5142e-05,-51.272,1.1671
28381,15.994,1.6364,0.1,0.0001822,1820.7,0.00018124,1793.7,-5.7488e-05,-0.014055,-6.4523e-05,-52.873,1.1785
28382,15.902,1.9091,0.1,0.00018475,1846.2,0.0001838,1819.6,-5.8368e-05,-0.013266,-6.5302e-05,-52.113,1.1674
28383,15.994,1.8182,0.1,0.00018253,1824,0.00018155,1796.4,-5.7544e-05,-0.013942,-6.4718e-05,-53.913,1.1788
28384,15.902,2.0909,0.1,0.00018497,1848.4,0.00018402,1821.6,-5.8419e-05,-0.012902,-6.5411e-05,-52.547,1.1676
28385,15.994,2,0.1,0.0001828,1826.7,0.00018181,1798.9,-5.7607e-05,-0.013556,-6.4852e-05,-54.453,1.179
28386,15.902,2.2727,0.1,0.00018514,1850.1,0.00018419,1823.2,-5.8469e-05,-0.01246,-6.548e-05,-52.694,1.1678
28387,15.994,2.1818,0.1,0.00018301,1828.9,0.00018202,1800.9,-5.7669e-05,-0.013048,-6.4938e-05,-54.629,1.1793
28388,15.902,2.4545,0.1,0.00018527,1851.4,0.00018432,1824.5,-5.8512e-05,-0.012036,-6.552e-05,-52.668,1.168
28389,15.994,2.3636,0.1,0.00018318,1830.5,0.00018219,1802.6,-5.7726e-05,-0.012533,-6.4988e-05,-54.573,1.1794
28390,15.902,2.6364,0.1,0.00018536,1852.3,0.00018441,1825.4,-5.8546e-05,-0.011694,-6.5541e-05,-52.571,1.1681
28391,15.994,2.5455,0.1,0.0001833,1831.7,0.00018231,1803.9,-5.7774e-05,-0.012094,-6.5014e-05,-54.408,1.1796
28392,15.902,2.8182,0.1,0.00018541,1852.8,0.00018446,1826,-5.8568e-05,-0.011475,-6.5551e-05,-52.479,1.1682
28393,15.994,2.7273,0.1,0.00018337,1832.5,0.00018239,1804.7,-5.7808e-05,-0.011778,-6.5025e-05,-54.237,1.1796
28394,15.902,3,0.1,0.00018543,1853,0.00018448,1826.2,-5.8575e-05,-0.0114,-6.5553e-05,-52.443,1.1682
28395,15.994,2.9091,0.1,0.00018341,1832.8,0.00018243,1805.2,-5.7825e-05,-0.011614,-6.5028e-05,-54.132,1.1797
28396,15.902,3.1818,0.1,0.00018541,1852.8,0.00018446,1826,-5.8568e-05,-0.011475,-6.5551e-05,-52.479,1.1682
28397,15.994,3.0909,0.1,0.00018341,1832.8,0.00018243,1805.2,-5.7825e-05,-0.011614,-6.5028e-05,-54.132,1.1797
28398,15.902,3.3636,0.1,0.00018536,1852.3,0.00018441,1825.4,-5.8546e-05,-0.011694,-6.5541e-05,-52.571,1.1681
28399,15.994,3.2727,0.1,0.00018337,1832.5,0.00018239,1804.7,-5.7808e-05,-0.011778,-6.5025e-05,-54.237,1.1796
28400,15.902,3.5455,0.1,0.00018527,1851.4,0.00018432,1824.5,-5.8512e-05,-0.012036,-6.552e-05,-52.669,1.168
28401,15.994,3.4545,0.1,0.0001833,1831.7,0.00018231,1803.9,-5.7774e-05,-0.012094,-6.5014e-05,-54.408,1.1796
28402,15.902,3.7273,0.1,0.00018514,1850.1,0.00018419,1823.2,-5.8469e-05,-0.01246,-6.548e-05,-52.694,1.1678
28403,15.994,3.6364,0.1,0.00018318,1830.5,0.00018219,1802.6,-5.7726e-05,-0.012533,-6.4988e-05,-54.573,1.1794
28404,15.902,3.9091,0.1,0.00018497,1848.4,0.00018402,1821.6,-5.8419e-05,-0.012901,-6.5411e-05,-52.547,1.1676
28405,15.994,3.8182,0.1,0.00018301,1828.9,0.00018202,1800.9,-5.7669e-05,-0.013048,-6.4938e-05,-54.629,1.1793
28406,15.902,4.0909,0.1,0.00018475,1846.2,0.0001838,1819.6,-5.8368e-05,-0.013266,-6.5302e-05,-52.113,1.1674
28407,15.994,4,0.1,0.0001828,1826.7,0.00018181,1798.9,-5.7607e-05,-0.013556,-6.4852e-05,-54.453,1.179
28408,15.902,4.2727,0.1,0.00018447,1843.5,0.00018355,1817.3,-5.832e-05,-0.013428,-6.5142e-05,-51.272,1.1671
28409,15.994,4.1818,0.1,0.00018253,1824,0.00018155,1796.4,-5.7544e-05,-0.013942,-6.4718e-05,-53.913,1.1788
28410,15.902,4.4545,0.1,0.00018415,1840.2,0.00018325,1814.8,-5.8281e-05,-0.013225,-6.4922e-05,-49.908,1.1668
28411,15.994,4.3636,0.1,0.0001822,1820.7,0.00018124,1793.7,-5.7488e-05,-0.014055,-6.4523e-05,-52.873,1.1785
28412,15.902,4.6364,0.1,0.00018377,1836.4,0.00018291,1812,-5.8256e-05,-0.012462,-6.4632e-05,-47.921,1.1664
28413,15.994,4.5455,0.1,0.00018181,1816.8,0.00018088,1790.7,-5.7443e-05,-0.013696,-6.4257e-05,-51.211,1.1781
28414,15.902,4.8182,0.1,0.00018334,1832.2,0.00018253,1809.1,-5.825e-05,-0.010836,-6.4268e-05,-45.227,1.166
28415,15.994,4.7273,0.1,0.00018136,1812.4,0.00018048,1787.5,-5.7416e-05,-0.012645,-6.3912e-05,-48.822,1.1778
28416,15.902,5,0.1,0.00018287,1827.4,0.00018212,1806.2,-5.8266e-05,-0.0081402,-6.3825e-05,-41.776,1.1656
28417,15.994,4.9091,0.1,0.00018086,1807.4,0.00018005,1784.1,-5.7412e-05,-0.010465,-6.3483e-05,-45.629,1.1773
28418,15.902,5.1818,0.1,0.00018236,1822.3,0.00018169,1803.3,-5.8309e-05,-0.0031736,-6.3306e-05,-37.549,1.1651
28419,15.994,5.0909,0.1,0.00018032,1802,0.00017958,1780.8,-5.7435e-05,-0.0071248,-6.2969e-05,-41.59,1.1769
28420,15.902,5.3636,0.1,0.00018183,1817,0.00018125,1800.5,-5.8382e-05,0.0023485,-6.2717e-05,-32.568,1.1645
28421,15.994,5.2727,0.1,0.00017975,1796.2,0.00017909,1777.6,-5.7489e-05,-4.6089e-05,-6.2374e-05,-36.703,1.1763
28422,15.902,5.5455,0.1,0.00018129,1811.6,0.00018081,1798,-5.8485e-05,0.024992,-6.207e-05,-26.915,1.164
28423,15.994,5.4545,0.1,0.00017915,1790.3,0.0001786,1774.6,-5.7577e-05,0.0047259,-6.1705e-05,-31.014,1.1758
28424,15.902,5.7273,0.1,0.00018085,1807.2,0.00018048,1796.5,-5.8621e-05,0.034242,-6.1454e-05,-21.249,1.1633
28425,15.994,5.6364,0.1,0.00017857,1784.4,0.00017814,1772,-5.7698e-05,0.048672,-6.0985e-05,-24.647,1.1752
28426,15.994,5.8182,0.1,0.00017818,1780.6,0.00017785,1771.1,-5.7862e-05,0.019443,-6.0372e-05,-18.841,1.1746
28427,15.902,5.9091,0.1,0.00017987,1797.5,0.00017967,1791.6,-5.8776e-05,0.0080059,-6.0336e-05,-11.708,1.1627
28428,16.087,0.27273,0.1,0.00017588,1757.6,0.00017549,1746.4,-5.6938e-05,0.038736,-5.9887e-05,-22.124,1.1865
28429,16.179,0.18182,0.1,0.00017311,1729.9,0.00017278,1720.2,-5.617e-05,0.025168,-5.8732e-05,-19.228,1.1978
28430,16.087,0.090909,0.1,0.00017484,1747.2,0.00017464,1741.2,-5.7109e-05,0.008023,-5.8687e-05,-11.855,1.1858
28431,16.087,0.45455,0.1,0.00017643,1763,0.00017592,1748.5,-5.6791e-05,0.026689,-6.0615e-05,-28.709,1.1871
28432,16.179,0.36364,0.1,0.00017362,1735,0.00017316,1721.8,-5.5991e-05,0.053462,-5.9474e-05,-26.116,1.1984
28433,16.087,0.63636,0.1,0.00017707,1769.5,0.00017645,1751.7,-5.6684e-05,0.0013545,-6.1359e-05,-35.121,1.1876
28434,16.179,0.54545,0.1,0.00017432,1742,0.00017373,1725.1,-5.5864e-05,0.0038384,-6.0305e-05,-33.368,1.199
28435,16.087,0.81818,0.1,0.00017771,1775.8,0.00017698,1755.1,-5.6615e-05,-0.0045285,-6.2034e-05,-40.72,1.1882
28436,16.179,0.72727,0.1,0.00017503,1749.1,0.00017432,1728.8,-5.5777e-05,-0.0012297,-6.1072e-05,-39.789,1.1995
28437,16.087,1,0.1,0.00017832,1781.9,0.0001775,1758.8,-5.6581e-05,-0.0097536,-6.2625e-05,-45.422,1.1887
28438,16.179,0.90909,0.1,0.00017571,1755.9,0.0001749,1732.9,-5.573e-05,-0.0088054,-6.1752e-05,-45.254,1.2
28439,16.087,1.1818,0.1,0.00017888,1787.6,0.00017799,1762.5,-5.6578e-05,-0.012448,-6.3125e-05,-49.204,1.1891
28440,16.179,1.0909,0.1,0.00017636,1762.4,0.00017546,1737,-5.5721e-05,-0.012188,-6.2336e-05,-49.715,1.2005
28441,16.087,1.3636,0.1,0.0001794,1792.7,0.00017845,1766.1,-5.6603e-05,-0.013976,-6.3535e-05,-52.095,1.1895
28442,16.179,1.2727,0.1,0.00017696,1768.4,0.000176,1741.2,-5.5744e-05,-0.014303,-6.282e-05,-53.18,1.2009
28443,16.087,1.5455,0.1,0.00017985,1797.3,0.00017887,1769.6,-5.665e-05,-0.014574,-6.3856e-05,-54.16,1.1899
28444,16.179,1.4545,0.1,0.0001775,1773.7,0.00017648,1745.2,-5.5795e-05,-0.015193,-6.3206e-05,-55.701,1.2013
28445,16.087,1.7273,0.1,0.00018024,1801.2,0.00017924,1772.8,-5.6712e-05,-0.014584,-6.4096e-05,-55.499,1.1902
28446,16.179,1.6364,0.1,0.00017797,1778.4,0.00017692,1749,-5.5865e-05,-0.01535,-6.3499e-05,-57.373,1.2016
28447,16.087,1.9091,0.1,0.00018057,1804.5,0.00017955,1775.7,-5.6783e-05,-0.014229,-6.4266e-05,-56.238,1.1905
28448,16.179,1.8182,0.1,0.00017836,1782.4,0.0001773,1752.5,-5.5949e-05,-0.015023,-6.3709e-05,-58.323,1.2019
28449,16.087,2.0909,0.1,0.00018084,1807.2,0.00017981,1778.2,-5.6857e-05,-0.01369,-6.4377e-05,-56.52,1.1907
28450,16.179,2,0.1,0.00017869,1785.7,0.00017762,1755.6,-5.6038e-05,-0.014439,-6.3849e-05,-58.704,1.2022
28451,16.087,2.2727,0.1,0.00018105,1809.2,0.00018002,1780.3,-5.6927e-05,-0.013107,-6.4444e-05,-56.492,1.1909
28452,16.179,2.1818,0.1,0.00017896,1788.3,0.00017788,1758.3,-5.6126e-05,-0.013767,-6.3934e-05,-58.681,1.2024
28453,16.087,2.4545,0.1,0.0001812,1810.8,0.00018018,1782,-5.6988e-05,-0.01258,-6.4479e-05,-56.297,1.191
28454,16.179,2.3636,0.1,0.00017916,1790.3,0.00017809,1760.4,-5.6205e-05,-0.013132,-6.3979e-05,-58.419,1.2025
28455,16.087,2.6364,0.1,0.00018131,1811.9,0.00018029,1783.2,-5.7036e-05,-0.012172,-6.4495e-05,-56.059,1.1911
28456,16.179,2.5455,0.1,0.0001793,1791.8,0.00017824,1762,-5.6271e-05,-0.012615,-6.3998e-05,-58.071,1.2027
28457,16.087,2.8182,0.1,0.00018137,1812.5,0.00018036,1783.9,-5.7065e-05,-0.011917,-6.45e-05,-55.874,1.1912
28458,16.179,2.7273,0.1,0.00017939,1792.7,0.00017834,1763.1,-5.6317e-05,-0.012258,-6.4003e-05,-57.762,1.2028
28459,16.087,3,0.1,0.00018139,1812.7,0.00018038,1784.1,-5.7076e-05,-0.011831,-6.4501e-05,-55.806,1.1912
28460,16.179,2.9091,0.1,0.00017944,1793.2,0.00017839,1763.7,-5.6341e-05,-0.012077,-6.4003e-05,-57.584,1.2028
28461,16.087,3.1818,0.1,0.00018137,1812.5,0.00018036,1783.9,-5.7065e-05,-0.011917,-6.45e-05,-55.874,1.1912
28462,16.179,3.0909,0.1,0.00017944,1793.2,0.00017839,1763.7,-5.6341e-05,-0.012077,-6.4003e-05,-57.584,1.2028
28463,16.087,3.3636,0.1,0.00018131,1811.9,0.00018029,1783.2,-5.7036e-05,-0.012172,-6.4495e-05,-56.059,1.1911
28464,16.179,3.2727,0.1,0.00017939,1792.7,0.00017834,1763.1,-5.6317e-05,-0.012258,-6.4003e-05,-57.762,1.2028
28465,16.087,3.5455,0.1,0.0001812,1810.8,0.00018018,1782,-5.6988e-05,-0.01258,-6.4479e-05,-56.297,1.191
28466,16.179,3.4545,0.1,0.0001793,1791.8,0.00017824,1762,-5.6271e-05,-0.012615,-6.3998e-05,-58.071,1.2027
28467,16.087,3.7273,0.1,0.00018105,1809.2,0.00018002,1780.3,-5.6927e-05,-0.013107,-6.4444e-05,-56.492,1.1909
28468,16.179,3.6364,0.1,0.00017916,1790.3,0.00017809,1760.4,-5.6205e-05,-0.013132,-6.3979e-05,-58.42,1.2025
28469,16.087,3.9091,0.1,0.00018084,1807.2,0.00017981,1778.2,-5.6857e-05,-0.01369,-6.4377e-05,-56.52,1.1907
28470,16.179,3.8182,0.1,0.00017896,1788.3,0.00017788,1758.3,-5.6126e-05,-0.013767,-6.3934e-05,-58.681,1.2024
28471,16.087,4.0909,0.1,0.00018057,1804.5,0.00017955,1775.7,-5.6783e-05,-0.014229,-6.4266e-05,-56.238,1.1905
28472,16.179,4,0.1,0.00017869,1785.7,0.00017762,1755.6,-5.6038e-05,-0.014439,-6.3849e-05,-58.704,1.2022
28473,16.087,4.2727,0.1,0.00018024,1801.2,0.00017924,1772.8,-5.6712e-05,-0.014585,-6.4096e-05,-55.499,1.1902
28474,16.179,4.1818,0.1,0.00017836,1782.4,0.0001773,1752.5,-5.5949e-05,-0.015023,-6.3709e-05,-58.323,1.2019
28475,16.087,4.4545,0.1,0.00017985,1797.3,0.00017887,1769.6,-5.665e-05,-0.014573,-6.3856e-05,-54.16,1.1899
28476,16.179,4.3636,0.1,0.00017797,1778.4,0.00017692,1749,-5.5865e-05,-0.01535,-6.3499e-05,-57.373,1.2016
28477,16.087,4.6364,0.1,0.0001794,1792.7,0.00017845,1766.1,-5.6603e-05,-0.013976,-6.3535e-05,-52.095,1.1895
28478,16.179,4.5455,0.1,0.0001775,1773.7,0.00017648,1745.2,-5.5795e-05,-0.015192,-6.3206e-05,-55.701,1.2013
28479,16.087,4.8182,0.1,0.00017888,1787.6,0.00017799,1762.5,-5.6578e-05,-0.012448,-6.3125e-05,-49.205,1.1891
28480,16.179,4.7273,0.1,0.00017696,1768.4,0.000176,1741.2,-5.5744e-05,-0.014303,-6.282e-05,-53.18,1.2009
28481,16.087,5,0.1,0.00017832,1781.9,0.0001775,1758.8,-5.6581e-05,-0.0097529,-6.2625e-05,-45.422,1.1887
28482,16.179,4.9091,0.1,0.00017636,1762.4,0.00017546,1737,-5.5721e-05,-0.012187,-6.2336e-05,-49.715,1.2005
28483,16.087,5.1818,0.1,0.00017771,1775.8,0.00017698,1755.1,-5.6615e-05,-0.0045276,-6.2034e-05,-40.72,1.1882
28484,16.179,5.0909,0.1,0.00017571,1755.9,0.0001749,1732.9,-5.573e-05,-0.0088043,-6.1752e-05,-45.254,1.2
28485,16.087,5.3636,0.1,0.00017707,1769.5,0.00017645,1751.7,-5.6684e-05,0.0013545,-6.1359e-05,-35.121,1.1876
28486,16.179,5.2727,0.1,0.00017503,1749.1,0.00017432,1728.8,-5.5777e-05,-0.0012288,-6.1072e-05,-39.789,1.1995
28487,16.087,5.5455,0.1,0.00017643,1763,0.00017592,1748.5,-5.6791e-05,0.026689,-6.0615e-05,-28.709,1.1871
28488,16.179,5.4545,0.1,0.00017432,1742,0.00017373,1725.1,-5.5864e-05,0.0038383,-6.0305e-05,-33.368,1.199
28489,16.087,5.7273,0.1,0.00017588,1757.6,0.00017549,1746.4,-5.6938e-05,0.038736,-5.9887e-05,-22.124,1.1865
28490,16.179,5.6364,0.1,0.00017362,1735,0.00017316,1721.8,-5.5991e-05,0.053462,-5.9474e-05,-26.116,1.1984
28491,16.179,5.8182,0.1,0.00017311,1729.9,0.00017278,1720.2,-5.617e-05,0.025168,-5.8732e-05,-19.228,1.1978
28492,16.087,5.9091,0.1,0.00017484,1747.2,0.00017464,1741.2,-5.7109e-05,0.0080222,-5.8687e-05,-11.855,1.1858
28493,16.272,0.27273,0.1,0.00017083,1707.1,0.00017043,1695.5,-5.5222e-05,0.043878,-5.8303e-05,-23.103,1.2097
28494,16.364,0.18182,0.1,0.00016794,1678.3,0.0001676,1668.4,-5.4442e-05,0.032376,-5.7061e-05,-19.651,1.2211
28495,16.272,0.090909,0.1,0.00016972,1696,0.00016951,1690,-5.5411e-05,0.0079333,-5.701e-05,-12.008,1.2091
28496,16.272,0.45455,0.1,0.0001715,1713.9,0.00017096,1698.3,-5.5065e-05,0.028453,-5.9159e-05,-30.736,1.2103
28497,16.364,0.36364,0.1,0.00016859,1684.7,0.0001681,1670.7,-5.4248e-05,0.058734,-5.7952e-05,-27.774,1.2217
28498,16.272,0.63636,0.1,0.00017227,1721.5,0.00017159,1702.2,-5.4956e-05,0.00010837,-6.0015e-05,-38.008,1.2109
28499,16.364,0.54545,0.1,0.00016942,1693.1,0.00016878,1674.8,-5.4115e-05,0.0026668,-5.891e-05,-36.03,1.2223
28500,16.272,0.81818,0.1,0.00017303,1729.1,0.00017223,1706.5,-5.4892e-05,-0.0061111,-6.0787e-05,-44.301,1.2114
28501,16.364,0.72727,0.1,0.00017027,1701.5,0.00016949,1679.4,-5.403e-05,-0.0026418,-5.979e-05,-43.278,1.2228
28502,16.272,1,0.1,0.00017376,1736.4,0.00017286,1711.1,-5.4871e-05,-0.011577,-6.1461e-05,-49.529,1.2119
28503,16.364,0.90909,0.1,0.00017109,1709.7,0.00017019,1684.5,-5.3995e-05,-0.010713,-6.0568e-05,-49.392,1.2233
28504,16.272,1.1818,0.1,0.00017444,1743.2,0.00017346,1715.7,-5.4887e-05,-0.014231,-6.2029e-05,-53.674,1.2123
28505,16.364,1.0909,0.1,0.00017187,1717.5,0.00017088,1689.7,-5.4005e-05,-0.014092,-6.1233e-05,-54.322,1.2237
28506,16.272,1.3636,0.1,0.00017506,1749.4,0.00017402,1720.3,-5.4936e-05,-0.015619,-6.249e-05,-56.77,1.2127
28507,16.364,1.2727,0.1,0.00017259,1724.7,0.00017152,1694.9,-5.4053e-05,-0.016099,-6.1781e-05,-58.079,1.2242
28508,16.272,1.5455,0.1,0.00017561,1754.9,0.00017453,1724.7,-5.501e-05,-0.016011,-6.2847e-05,-58.899,1.2131
28509,16.364,1.4545,0.1,0.00017323,1731.1,0.00017212,1700,-5.4134e-05,-0.016782,-6.2214e-05,-60.73,1.2245
28510,16.272,1.7273,0.1,0.00017608,1759.6,0.00017498,1728.7,-5.5102e-05,-0.015794,-6.311e-05,-60.183,1.2134
28511,16.364,1.6364,0.1,0.0001738,1736.8,0.00017266,1704.8,-5.4238e-05,-0.016695,-6.2539e-05,-62.388,1.2249
28512,16.272,1.9091,0.1,0.00017648,1763.6,0.00017537,1732.4,-5.5204e-05,-0.015218,-6.3291e-05,-60.776,1.2136
28513,16.364,1.8182,0.1,0.00017429,1741.7,0.00017312,1709.2,-5.4356e-05,-0.01612,-6.2767e-05,-63.208,1.2252
28514,16.272,2.0909,0.1,0.00017681,1766.8,0.00017569,1735.6,-5.5307e-05,-0.014492,-6.3404e-05,-60.852,1.2139
28515,16.364,2,0.1,0.00017469,1745.7,0.00017352,1713.1,-5.448e-05,-0.015318,-6.2913e-05,-63.375,1.2254
28516,16.272,2.2727,0.1,0.00017706,1769.4,0.00017595,1738.3,-5.5404e-05,-0.013768,-6.3467e-05,-60.595,1.2141
28517,16.364,2.1818,0.1,0.00017501,1748.9,0.00017385,1716.5,-5.46e-05,-0.01448,-6.2995e-05,-63.093,1.2256
28518,16.272,2.4545,0.1,0.00017725,1771.3,0.00017615,1740.4,-5.5488e-05,-0.013151,-6.3495e-05,-60.179,1.2142
28519,16.364,2.3636,0.1,0.00017525,1751.3,0.0001741,1719.2,-5.4708e-05,-0.013738,-6.3033e-05,-62.565,1.2258
28520,16.272,2.6364,0.1,0.00017738,1772.6,0.00017629,1742,-5.5552e-05,-0.012695,-6.3504e-05,-59.76,1.2143
28521,16.364,2.5455,0.1,0.00017543,1753.1,0.00017429,1721.3,-5.4796e-05,-0.013171,-6.3043e-05,-61.98,1.2259
28522,16.272,2.8182,0.1,0.00017746,1773.4,0.00017637,1742.9,-5.5592e-05,-0.01242,-6.3504e-05,-59.457,1.2144
28523,16.364,2.7273,0.1,0.00017554,1754.2,0.00017442,1722.7,-5.4858e-05,-0.012799,-6.3041e-05,-61.495,1.226
28524,16.272,3,0.1,0.00017748,1773.6,0.0001764,1743.2,-5.5606e-05,-0.012329,-6.3503e-05,-59.347,1.2144
28525,16.364,2.9091,0.1,0.0001756,1754.8,0.00017448,1723.4,-5.489e-05,-0.012618,-6.3037e-05,-61.223,1.226
28526,16.272,3.1818,0.1,0.00017746,1773.4,0.00017637,1742.9,-5.5592e-05,-0.012421,-6.3504e-05,-59.457,1.2144
28527,16.364,3.0909,0.1,0.0001756,1754.8,0.00017448,1723.4,-5.489e-05,-0.012618,-6.3037e-05,-61.224,1.226
28528,16.272,3.3636,0.1,0.00017738,1772.6,0.00017629,1742,-5.5552e-05,-0.012695,-6.3504e-05,-59.76,1.2143
28529,16.364,3.2727,0.1,0.00017554,1754.2,0.00017442,1722.7,-5.4858e-05,-0.012799,-6.3041e-05,-61.495,1.226
28530,16.272,3.5455,0.1,0.00017725,1771.3,0.00017615,1740.4,-5.5488e-05,-0.013151,-6.3495e-05,-60.179,1.2142
28531,16.364,3.4545,0.1,0.00017543,1753.1,0.00017429,1721.3,-5.4796e-05,-0.013171,-6.3043e-05,-61.98,1.2259
28532,16.272,3.7273,0.1,0.00017706,1769.4,0.00017595,1738.3,-5.5404e-05,-0.013768,-6.3467e-05,-60.595,1.2141
28533,16.364,3.6364,0.1,0.00017525,1751.3,0.0001741,1719.2,-5.4708e-05,-0.013739,-6.3033e-05,-62.565,1.2258
28534,16.272,3.9091,0.1,0.00017681,1766.8,0.00017569,1735.6,-5.5307e-05,-0.014492,-6.3404e-05,-60.852,1.2139
28535,16.364,3.8182,0.1,0.00017501,1748.9,0.00017385,1716.5,-5.46e-05,-0.01448,-6.2995e-05,-63.093,1.2256
28536,16.272,4.0909,0.1,0.00017648,1763.6,0.00017537,1732.4,-5.5204e-05,-0.015218,-6.3291e-05,-60.776,1.2136
28537,16.364,4,0.1,0.00017469,1745.7,0.00017352,1713.1,-5.448e-05,-0.015318,-6.2913e-05,-63.375,1.2254
28538,16.272,4.2727,0.1,0.00017608,1759.6,0.00017498,1728.7,-5.5102e-05,-0.015794,-6.311e-05,-60.183,1.2134
28539,16.364,4.1818,0.1,0.00017429,1741.7,0.00017312,1709.2,-5.4356e-05,-0.01612,-6.2767e-05,-63.208,1.2252
28540,16.272,4.4545,0.1,0.00017561,1754.9,0.00017453,1724.7,-5.501e-05,-0.01601,-6.2847e-05,-58.9,1.2131
28541,16.364,4.3636,0.1,0.0001738,1736.8,0.00017266,1704.8,-5.4238e-05,-0.016694,-6.2539e-05,-62.388,1.2249
28542,16.272,4.6364,0.1,0.00017506,1749.4,0.00017402,1720.3,-5.4936e-05,-0.015618,-6.249e-05,-56.771,1.2127
28543,16.364,4.5455,0.1,0.00017323,1731.1,0.00017212,1700,-5.4134e-05,-0.016781,-6.2214e-05,-60.73,1.2245
28544,16.272,4.8182,0.1,0.00017444,1743.2,0.00017346,1715.7,-5.4887e-05,-0.01423,-6.2029e-05,-53.674,1.2123
28545,16.364,4.7273,0.1,0.00017259,1724.7,0.00017152,1694.9,-5.4053e-05,-0.016099,-6.1781e-05,-58.079,1.2242
28546,16.272,5,0.1,0.00017376,1736.4,0.00017286,1711.1,-5.4871e-05,-0.011576,-6.1461e-05,-49.53,1.2119
28547,16.364,4.9091,0.1,0.00017187,1717.5,0.00017088,1689.7,-5.4005e-05,-0.014091,-6.1233e-05,-54.322,1.2237
28548,16.272,5.1818,0.1,0.00017303,1729.1,0.00017223,1706.5,-5.4892e-05,-0.0061099,-6.0787e-05,-44.301,1.2114
28549,16.364,5.0909,0.1,0.00017109,1709.7,0.00017019,1684.5,-5.3995e-05,-0.010711,-6.0568e-05,-49.392,1.2233
28550,16.272,5.3636,0.1,0.00017227,1721.5,0.00017159,1702.2,-5.4956e-05,0.00010925,-6.0015e-05,-38.008,1.2109
28551,16.364,5.2727,0.1,0.00017027,1701.5,0.00016949,1679.4,-5.403e-05,-0.0026399,-5.979e-05,-43.278,1.2228
28552,16.272,5.5455,0.1,0.0001715,1713.9,0.00017096,1698.3,-5.5065e-05,0.028453,-5.9159e-05,-30.737,1.2103
28553,16.364,5.4545,0.1,0.00016942,1693.1,0.00016878,1674.8,-5.4115e-05,0.0026665,-5.891e-05,-36.03,1.2223
28554,16.272,5.7273,0.1,0.00017083,1707.1,0.00017043,1695.5,-5.5222e-05,0.043878,-5.8303e-05,-23.103,1.2097
28555,16.364,5.6364,0.1,0.00016859,1684.7,0.0001681,1670.7,-5.4248e-05,0.058734,-5.7952e-05,-27.774,1.2217
28556,16.364,5.8182,0.1,0.00016794,1678.3,0.0001676,1668.4,-5.4442e-05,0.032376,-5.7061e-05,-19.651,1.2211
28557,16.272,5.9091,0.1,0.00016972,1696,0.00016951,1690,-5.5411e-05,0.0079341,-5.701e-05,-12.008,1.2091
28558,16.457,0.27273,0.1,0.00016568,1655.7,0.00016526,1643.4,-5.3467e-05,0.049687,-5.6695e-05,-24.204,1.2331
28559,16.549,0.18182,0.1,0.00016264,1625.3,0.00016229,1615.2,-5.2668e-05,0.041306,-5.5351e-05,-20.117,1.2445
28560,16.457,0.090909,0.1,0.00016448,1643.7,0.00016427,1637.6,-5.3675e-05,0.0077094,-5.5296e-05,-12.171,1.2325
28561,16.457,0.45455,0.1,0.0001665,1663.9,0.00016591,1647.1,-5.3298e-05,0.030257,-5.7698e-05,-33.029,1.2337
28562,16.549,0.36364,0.1,0.00016345,1633.4,0.00016293,1618.4,-5.2458e-05,0.06447,-5.6412e-05,-29.647,1.2451
28563,16.457,0.63636,0.1,0.00016741,1673,0.00016667,1651.9,-5.3189e-05,-0.0014242,-5.8682e-05,-41.274,1.2342
28564,16.549,0.54545,0.1,0.00016444,1643.3,0.00016374,1623.4,-5.232e-05,0.0011528,-5.7516e-05,-39.041,1.2457
28565,16.457,0.81818,0.1,0.00016832,1682,0.00016744,1657.3,-5.3134e-05,-0.0079321,-5.9567e-05,-48.349,1.2347
28566,16.549,0.72727,0.1,0.00016545,1653.3,0.00016459,1629.2,-5.2241e-05,-0.0042974,-5.8526e-05,-47.224,1.2462
28567,16.457,1,0.1,0.00016919,1690.7,0.0001682,1663,-5.313e-05,-0.013604,-6.0337e-05,-54.169,1.2352
28568,16.549,0.90909,0.1,0.00016643,1663.1,0.00016544,1635.4,-5.2222e-05,-0.012841,-5.9417e-05,-54.07,1.2467
28569,16.457,1.1818,0.1,0.00017001,1698.9,0.00016893,1668.8,-5.3171e-05,-0.016165,-6.0983e-05,-58.713,1.2356
28570,16.549,1.0909,0.1,0.00016736,1672.5,0.00016627,1641.9,-5.2257e-05,-0.016156,-6.0177e-05,-59.526,1.2471
28571,16.457,1.3636,0.1,0.00017076,1706.4,0.00016962,1674.5,-5.3251e-05,-0.017362,-6.1504e-05,-62.027,1.236
28572,16.549,1.2727,0.1,0.00016823,1681.2,0.00016706,1648.5,-5.2338e-05,-0.017999,-6.0801e-05,-63.606,1.2475
28573,16.457,1.5455,0.1,0.00017142,1713.1,0.00017024,1680,-5.3361e-05,-0.017499,-6.1904e-05,-64.208,1.2364
28574,16.549,1.4545,0.1,0.00016902,1689,0.00016779,1654.8,-5.2457e-05,-0.018418,-6.1291e-05,-66.389,1.2479
28575,16.457,1.7273,0.1,0.000172,1718.8,0.0001708,1685.2,-5.3492e-05,-0.017013,-6.2194e-05,-65.402,1.2367
28576,16.549,1.6364,0.1,0.00016971,1695.9,0.00016845,1660.9,-5.2604e-05,-0.018038,-6.1653e-05,-68.008,1.2482
28577,16.457,1.9091,0.1,0.00017249,1723.7,0.00017127,1689.8,-5.3632e-05,-0.016189,-6.2387e-05,-65.796,1.237
28578,16.549,1.8182,0.1,0.0001703,1701.9,0.00016903,1666.5,-5.2767e-05,-0.017177,-6.1901e-05,-68.65,1.2485
28579,16.457,2.0909,0.1,0.00017289,1727.7,0.00017168,1693.9,-5.3773e-05,-0.015267,-6.2502e-05,-65.604,1.2372
28580,16.549,2,0.1,0.0001708,1706.8,0.00016953,1671.5,-5.2935e-05,-0.016138,-6.2055e-05,-68.539,1.2488
28581,16.457,2.2727,0.1,0.0001732,1730.8,0.000172,1697.3,-5.3904e-05,-0.014415,-6.256e-05,-65.051,1.2374
28582,16.549,2.1818,0.1,0.00017119,1710.7,0.00016993,1675.7,-5.3096e-05,-0.015141,-6.2135e-05,-67.925,1.249
28583,16.457,2.4545,0.1,0.00017343,1733.1,0.00017225,1700,-5.4016e-05,-0.013739,-6.2579e-05,-64.354,1.2375
28584,16.549,2.3636,0.1,0.00017149,1713.8,0.00017025,1679.2,-5.324e-05,-0.014328,-6.2163e-05,-67.059,1.2491
28585,16.457,2.6364,0.1,0.00017359,1734.7,0.00017242,1702,-5.4102e-05,-0.013272,-6.2579e-05,-63.703,1.2376
28586,16.549,2.5455,0.1,0.00017171,1716,0.00017049,1681.9,-5.3357e-05,-0.013761,-6.2163e-05,-66.175,1.2493
28587,16.457,2.8182,0.1,0.00017369,1735.7,0.00017252,1703.2,-5.4156e-05,-0.013009,-6.2572e-05,-63.249,1.2377
28588,16.549,2.7273,0.1,0.00017186,1717.4,0.00017065,1683.7,-5.344e-05,-0.013425,-6.2151e-05,-65.467,1.2493
28589,16.457,3,0.1,0.00017372,1736,0.00017256,1703.6,-5.4174e-05,-0.012925,-6.2569e-05,-63.087,1.2377
28590,16.549,2.9091,0.1,0.00017192,1718.1,0.00017073,1684.6,-5.3482e-05,-0.013276,-6.2142e-05,-65.077,1.2494
28591,16.457,3.1818,0.1,0.00017369,1735.7,0.00017252,1703.2,-5.4156e-05,-0.013008,-6.2572e-05,-63.249,1.2377
28592,16.549,3.0909,0.1,0.00017192,1718.1,0.00017073,1684.6,-5.3482e-05,-0.013275,-6.2142e-05,-65.077,1.2494
28593,16.457,3.3636,0.1,0.00017359,1734.7,0.00017242,1702,-5.4102e-05,-0.013272,-6.2579e-05,-63.703,1.2376
28594,16.549,3.2727,0.1,0.00017186,1717.4,0.00017065,1683.7,-5.344e-05,-0.013425,-6.2151e-05,-65.467,1.2493
28595,16.457,3.5455,0.1,0.00017343,1733.1,0.00017225,1700,-5.4016e-05,-0.013739,-6.2579e-05,-64.354,1.2375
28596,16.549,3.4545,0.1,0.00017171,1716,0.00017049,1681.9,-5.3357e-05,-0.013761,-6.2163e-05,-66.175,1.2493
28597,16.457,3.7273,0.1,0.0001732,1730.8,0.000172,1697.3,-5.3904e-05,-0.014416,-6.256e-05,-65.051,1.2374
28598,16.549,3.6364,0.1,0.00017149,1713.8,0.00017025,1679.2,-5.324e-05,-0.014329,-6.2163e-05,-67.059,1.2491
28599,16.457,3.9091,0.1,0.00017289,1727.7,0.00017168,1693.9,-5.3773e-05,-0.015266,-6.2502e-05,-65.605,1.2372
28600,16.549,3.8182,0.1,0.00017119,1710.7,0.00016993,1675.7,-5.3096e-05,-0.01514,-6.2135e-05,-67.925,1.249
28601,16.457,4.0909,0.1,0.00017249,1723.7,0.00017127,1689.8,-5.3632e-05,-0.016189,-6.2387e-05,-65.796,1.237
28602,16.549,4,0.1,0.0001708,1706.8,0.00016953,1671.5,-5.2935e-05,-0.016138,-6.2055e-05,-68.539,1.2488
28603,16.457,4.2727,0.1,0.000172,1718.8,0.0001708,1685.2,-5.3492e-05,-0.017013,-6.2194e-05,-65.402,1.2367
28604,16.549,4.1818,0.1,0.0001703,1701.9,0.00016903,1666.5,-5.2767e-05,-0.017177,-6.1901e-05,-68.65,1.2485
28605,16.457,4.4545,0.1,0.00017142,1713.1,0.00017024,1680,-5.3361e-05,-0.017499,-6.1904e-05,-64.208,1.2364
28606,16.549,4.3636,0.1,0.00016971,1695.9,0.00016845,1660.9,-5.2604e-05,-0.018037,-6.1653e-05,-68.008,1.2482
28607,16.457,4.6364,0.1,0.00017076,1706.4,0.00016962,1674.5,-5.3251e-05,-0.017362,-6.1504e-05,-62.027,1.236
28608,16.549,4.5455,0.1,0.00016902,1689,0.00016779,1654.8,-5.2457e-05,-0.018418,-6.1291e-05,-66.389,1.2479
28609,16.457,4.8182,0.1,0.00017001,1698.9,0.00016893,1668.8,-5.3171e-05,-0.016164,-6.0983e-05,-58.714,1.2356
28610,16.549,4.7273,0.1,0.00016823,1681.2,0.00016706,1648.5,-5.2338e-05,-0.017999,-6.0801e-05,-63.606,1.2475
28611,16.457,5,0.1,0.00016919,1690.7,0.0001682,1663,-5.313e-05,-0.013602,-6.0337e-05,-54.169,1.2352
28612,16.549,4.9091,0.1,0.00016736,1672.5,0.00016627,1641.9,-5.2257e-05,-0.016156,-6.0177e-05,-59.526,1.2471
28613,16.457,5.1818,0.1,0.00016832,1682,0.00016744,1657.3,-5.3134e-05,-0.0079295,-5.9567e-05,-48.349,1.2347
28614,16.549,5.0909,0.1,0.00016643,1663.1,0.00016544,1635.4,-5.2222e-05,-0.012839,-5.9417e-05,-54.07,1.2467
28615,16.457,5.3636,0.1,0.00016741,1673,0.00016667,1651.9,-5.3189e-05,-0.0014235,-5.8682e-05,-41.274,1.2342
28616,16.549,5.2727,0.1,0.00016545,1653.3,0.00016459,1629.2,-5.2241e-05,-0.0042959,-5.8526e-05,-47.224,1.2462
28617,16.457,5.5455,0.1,0.0001665,1663.9,0.00016591,1647.1,-5.3298e-05,0.030256,-5.7698e-05,-33.029,1.2337
28618,16.549,5.4545,0.1,0.00016444,1643.3,0.00016374,1623.4,-5.232e-05,0.0011519,-5.7516e-05,-39.041,1.2457
28619,16.457,5.7273,0.1,0.00016568,1655.7,0.00016526,1643.4,-5.3467e-05,0.049686,-5.6695e-05,-24.204,1.2331
28620,16.549,5.6364,0.1,0.00016345,1633.4,0.00016293,1618.4,-5.2458e-05,0.064469,-5.6412e-05,-29.647,1.2451
28621,16.549,5.8182,0.1,0.00016264,1625.3,0.00016229,1615.2,-5.2668e-05,0.041307,-5.5351e-05,-20.117,1.2445
28622,16.457,5.9091,0.1,0.00016448,1643.7,0.00016427,1637.6,-5.3675e-05,0.007711,-5.5296e-05,-12.171,1.2325
28623,16.642,0.27273,0.1,0.00016039,1602.8,0.00015995,1590,-5.166e-05,0.056114,-5.5053e-05,-25.441,1.2566
28624,16.734,0.18182,0.1,0.00015717,1570.6,0.00015681,1560.3,-5.0837e-05,0.052128,-5.3591e-05,-20.636,1.268
28625,16.642,0.090909,0.1,0.0001591,1589.9,0.00015889,1583.7,-5.1889e-05,0.0073086,-5.3533e-05,-12.346,1.256
28626,16.642,0.45455,0.1,0.00016139,1612.7,0.00016075,1594.7,-5.148e-05,0.032038,-5.6226e-05,-35.621,1.2571
28627,16.734,0.36364,0.1,0.00015817,1580.6,0.00015761,1564.5,-5.061e-05,0.0706,-5.4846e-05,-31.759,1.2686
28628,16.642,0.63636,0.1,0.00016247,1623.6,0.00016166,1600.6,-5.1373e-05,-0.0032847,-5.7357e-05,-44.967,1.2577
28629,16.734,0.54545,0.1,0.00015935,1592.4,0.00015858,1570.7,-5.0469e-05,-0.00076901,-5.6117e-05,-42.441,1.2692
28630,16.642,0.81818,0.1,0.00016355,1634.4,0.00016259,1607.3,-5.133e-05,-0.0099914,-5.8373e-05,-52.928,1.2582
28631,16.734,0.72727,0.1,0.00016054,1604.3,0.0001596,1577.9,-5.0399e-05,-0.0062012,-5.7277e-05,-51.683,1.2697
28632,16.642,1,0.1,0.0001646,1644.9,0.00016351,1614.3,-5.1349e-05,-0.015814,-5.9255e-05,-59.416,1.2586
28633,16.734,0.90909,0.1,0.00016172,1616.1,0.00016063,1585.6,-5.0401e-05,-0.015164,-5.83e-05,-59.361,1.2702
28634,16.642,1.1818,0.1,0.00016559,1654.7,0.0001644,1621.6,-5.1424e-05,-0.018213,-5.9994e-05,-64.41,1.2591
28635,16.734,1.0909,0.1,0.00016285,1627.4,0.00016164,1593.7,-5.0469e-05,-0.018331,-5.9172e-05,-65.416,1.2706
28636,16.642,1.3636,0.1,0.00016649,1663.8,0.00016523,1628.8,-5.1544e-05,-0.019157,-6.0586e-05,-67.961,1.2595
28637,16.734,1.2727,0.1,0.0001639,1637.9,0.0001626,1601.8,-5.0592e-05,-0.019939,-5.9887e-05,-69.863,1.271
28638,16.642,1.5455,0.1,0.00016731,1671.9,0.000166,1635.7,-5.17e-05,-0.018981,-6.1038e-05,-70.183,1.2598
28639,16.734,1.4545,0.1,0.00016486,1647.5,0.0001635,1609.9,-5.076e-05,-0.020029,-6.0445e-05,-72.788,1.2714
28640,16.642,1.7273,0.1,0.00016801,1679,0.00016669,1642.2,-5.1879e-05,-0.018176,-6.1359e-05,-71.25,1.2601
28641,16.734,1.6364,0.1,0.00016571,1655.9,0.00016432,1617.5,-5.0962e-05,-0.019294,-6.0854e-05,-74.345,1.2717
28642,16.642,1.9091,0.1,0.00016861,1684.9,0.00016728,1648.1,-5.207e-05,-0.017074,-6.1568e-05,-71.386,1.2604
28643,16.734,1.8182,0.1,0.00016644,1663.2,0.00016504,1624.6,-5.1181e-05,-0.018104,-6.1128e-05,-74.755,1.272
28644,16.642,2.0909,0.1,0.0001691,1689.8,0.00016778,1653.3,-5.2258e-05,-0.015954,-6.1686e-05,-70.852,1.2606
28645,16.734,2,0.1,0.00016705,1669.3,0.00016566,1630.9,-5.1406e-05,-0.016811,-6.1291e-05,-74.291,1.2722
28646,16.642,2.2727,0.1,0.00016949,1693.7,0.00016819,1657.6,-5.2432e-05,-0.015007,-6.1737e-05,-69.924,1.2608
28647,16.734,2.1818,0.1,0.00016753,1674.2,0.00016617,1636.4,-5.1619e-05,-0.015678,-6.1367e-05,-73.257,1.2724
28648,16.642,2.4545,0.1,0.00016978,1696.6,0.0001685,1661.1,-5.2581e-05,-0.014328,-6.1745e-05,-68.87,1.2609
28649,16.734,2.3636,0.1,0.00016791,1678,0.00016657,1640.8,-5.1809e-05,-0.014857,-6.1385e-05,-71.965,1.2726
28650,16.642,2.6364,0.1,0.00016998,1698.6,0.00016872,1663.6,-5.2695e-05,-0.01392,-6.1733e-05,-67.928,1.261
28651,16.734,2.5455,0.1,0.00016819,1680.7,0.00016687,1644.2,-5.1963e-05,-0.014378,-6.1372e-05,-70.704,1.2727
28652,16.642,2.8182,0.1,0.00017009,1699.8,0.00016885,1665.1,-5.2766e-05,-0.013723,-6.1719e-05,-67.284,1.2611
28653,16.734,2.7273,0.1,0.00016836,1682.5,0.00016707,1646.5,-5.2072e-05,-0.014165,-6.1349e-05,-69.717,1.2728
28654,16.642,3,0.1,0.00017013,1700.1,0.00016889,1665.6,-5.279e-05,-0.013667,-6.1713e-05,-67.055,1.2611
28655,16.734,2.9091,0.1,0.00016845,1683.3,0.00016717,1647.7,-5.2128e-05,-0.014102,-6.1333e-05,-69.178,1.2729
28656,16.642,3.1818,0.1,0.00017009,1699.8,0.00016885,1665.1,-5.2766e-05,-0.013723,-6.1719e-05,-67.284,1.2611
28657,16.734,3.0909,0.1,0.00016845,1683.3,0.00016717,1647.7,-5.2128e-05,-0.014102,-6.1333e-05,-69.178,1.2729
28658,16.642,3.3636,0.1,0.00016998,1698.6,0.00016872,1663.6,-5.2695e-05,-0.01392,-6.1733e-05,-67.928,1.261
28659,16.734,3.2727,0.1,0.00016836,1682.5,0.00016707,1646.5,-5.2072e-05,-0.014166,-6.1349e-05,-69.717,1.2728
28660,16.642,3.5455,0.1,0.00016978,1696.6,0.0001685,1661.1,-5.2581e-05,-0.014328,-6.1745e-05,-68.87,1.2609
28661,16.734,3.4545,0.1,0.00016819,1680.7,0.00016687,1644.2,-5.1963e-05,-0.014378,-6.1372e-05,-70.704,1.2727
28662,16.642,3.7273,0.1,0.00016949,1693.7,0.00016819,1657.6,-5.2432e-05,-0.015006,-6.1737e-05,-69.924,1.2608
28663,16.734,3.6364,0.1,0.00016791,1678,0.00016657,1640.8,-5.1809e-05,-0.014856,-6.1385e-05,-71.965,1.2726
28664,16.642,3.9091,0.1,0.0001691,1689.8,0.00016778,1653.3,-5.2258e-05,-0.015954,-6.1686e-05,-70.852,1.2606
28665,16.734,3.8182,0.1,0.00016753,1674.2,0.00016617,1636.4,-5.1619e-05,-0.015677,-6.1367e-05,-73.257,1.2724
28666,16.642,4.0909,0.1,0.00016861,1684.9,0.00016728,1648.1,-5.207e-05,-0.017074,-6.1568e-05,-71.386,1.2604
28667,16.734,4,0.1,0.00016705,1669.3,0.00016566,1630.9,-5.1406e-05,-0.016811,-6.1291e-05,-74.291,1.2722
28668,16.642,4.2727,0.1,0.00016801,1679,0.00016669,1642.2,-5.1879e-05,-0.018175,-6.1359e-05,-71.25,1.2601
28669,16.734,4.1818,0.1,0.00016644,1663.2,0.00016504,1624.6,-5.1181e-05,-0.018103,-6.1128e-05,-74.755,1.272
28670,16.642,4.4545,0.1,0.00016731,1671.9,0.000166,1635.7,-5.17e-05,-0.01898,-6.1038e-05,-70.183,1.2598
28671,16.734,4.3636,0.1,0.00016571,1655.9,0.00016432,1617.5,-5.0962e-05,-0.019294,-6.0854e-05,-74.345,1.2717
28672,16.642,4.6364,0.1,0.00016649,1663.8,0.00016523,1628.8,-5.1544e-05,-0.019156,-6.0586e-05,-67.962,1.2595
28673,16.734,4.5455,0.1,0.00016486,1647.5,0.0001635,1609.9,-5.076e-05,-0.020029,-6.0445e-05,-72.788,1.2714
28674,16.642,4.8182,0.1,0.00016559,1654.7,0.0001644,1621.6,-5.1424e-05,-0.018212,-5.9994e-05,-64.41,1.2591
28675,16.734,4.7273,0.1,0.0001639,1637.9,0.0001626,1601.8,-5.0592e-05,-0.019939,-5.9887e-05,-69.863,1.271
28676,16.642,5,0.1,0.0001646,1644.9,0.00016351,1614.3,-5.1349e-05,-0.015813,-5.9255e-05,-59.416,1.2586
28677,16.734,4.9091,0.1,0.00016285,1627.4,0.00016164,1593.7,-5.0469e-05,-0.018331,-5.9172e-05,-65.416,1.2706
28678,16.642,5.1818,0.1,0.00016355,1634.4,0.00016259,1607.3,-5.133e-05,-0.0099902,-5.8373e-05,-52.929,1.2582
28679,16.734,5.0909,0.1,0.00016172,1616.1,0.00016063,1585.6,-5.0401e-05,-0.015162,-5.83e-05,-59.361,1.2702
28680,16.642,5.3636,0.1,0.00016247,1623.6,0.00016166,1600.6,-5.1373e-05,-0.0032848,-5.7357e-05,-44.967,1.2577
28681,16.734,5.2727,0.1,0.00016054,1604.3,0.0001596,1577.9,-5.0399e-05,-0.0062008,-5.7277e-05,-51.683,1.2697
28682,16.642,5.5455,0.1,0.00016139,1612.7,0.00016075,1594.7,-5.148e-05,0.032037,-5.6226e-05,-35.621,1.2571
28683,16.734,5.4545,0.1,0.00015935,1592.4,0.00015858,1570.7,-5.0469e-05,-0.00076879,-5.6117e-05,-42.441,1.2692
28684,16.642,5.7273,0.1,0.00016039,1602.8,0.00015995,1590,-5.166e-05,0.056115,-5.5053e-05,-25.441,1.2566
28685,16.734,5.6364,0.1,0.00015817,1580.6,0.00015761,1564.5,-5.061e-05,0.070599,-5.4846e-05,-31.759,1.2686
28686,16.734,5.8182,0.1,0.00015717,1570.6,0.00015681,1560.3,-5.0837e-05,0.052128,-5.3591e-05,-20.636,1.268
28687,16.642,5.9091,0.1,0.0001591,1589.9,0.00015889,1583.7,-5.1889e-05,0.0073097,-5.3534e-05,-12.346,1.256
28688,16.826,0.27273,0.1,0.00015493,1548.3,0.00015446,1534.7,-4.9788e-05,0.063019,-5.3368e-05,-26.832,1.2802
28689,16.919,0.18182,0.1,0.0001515,1513.9,0.00015113,1503.2,-4.8934e-05,0.06481,-5.1766e-05,-21.215,1.2917
28690,16.826,0.090909,0.1,0.00015353,1534.2,0.00015331,1527.9,-5.0041e-05,0.006682,-5.1711e-05,-12.536,1.2795
28691,16.826,0.45455,0.1,0.00015613,1560.2,0.00015544,1540.6,-4.9599e-05,0.033717,-5.4733e-05,-38.543,1.2807
28692,16.919,0.36364,0.1,0.00015271,1526.1,0.00015211,1508.8,-4.8689e-05,0.076969,-5.3242e-05,-34.133,1.2923
28693,16.826,0.63636,0.1,0.00015742,1573.1,0.00015652,1547.9,-4.9495e-05,-0.0055032,-5.6034e-05,-49.137,1.2813
28694,16.919,0.54545,0.1,0.00015411,1540,0.00015327,1516.3,-4.8546e-05,-0.0031772,-5.4703e-05,-46.266,1.2928
28695,16.826,0.81818,0.1,0.00015871,1586,0.00015764,1556.1,-4.947e-05,-0.012267,-5.7202e-05,-58.105,1.2817
28696,16.919,0.72727,0.1,0.00015553,1554.2,0.00015449,1525.1,-4.849e-05,-0.0083504,-5.6037e-05,-56.71,1.2933
28697,16.826,1,0.1,0.00015997,1598.6,0.00015876,1564.9,-4.9521e-05,-0.018152,-5.8217e-05,-65.356,1.2822
28698,16.919,0.90909,0.1,0.00015694,1568.3,0.00015573,1534.6,-4.8521e-05,-0.017631,-5.7216e-05,-65.343,1.2938
28699,16.826,1.1818,0.1,0.00016116,1610.5,0.00015984,1573.9,-4.9637e-05,-0.020299,-5.9066e-05,-70.867,1.2826
28700,16.919,1.0909,0.1,0.0001583,1582,0.00015695,1544.7,-4.863e-05,-0.020539,-5.8223e-05,-72.094,1.2942
28701,16.826,1.3636,0.1,0.00016227,1621.6,0.00016087,1582.9,-4.9808e-05,-0.020913,-5.9746e-05,-74.689,1.283
28702,16.919,1.2727,0.1,0.00015959,1594.8,0.00015814,1554.9,-4.8807e-05,-0.021828,-5.9048e-05,-76.971,1.2946
28703,16.826,1.5455,0.1,0.00016326,1631.5,0.00016182,1591.7,-5.0022e-05,-0.020354,-6.0261e-05,-76.949,1.2833
28704,16.919,1.4545,0.1,0.00016076,1606.5,0.00015925,1565,-4.9038e-05,-0.021511,-5.9691e-05,-80.061,1.295
28705,16.826,1.7273,0.1,0.00016413,1640.2,0.00016267,1599.9,-5.0264e-05,-0.019175,-6.0622e-05,-77.849,1.2837
28706,16.919,1.6364,0.1,0.00016181,1617,0.00016027,1574.6,-4.9308e-05,-0.020352,-6.0158e-05,-81.537,1.2953
28707,16.826,1.9091,0.1,0.00016487,1647.6,0.00016341,1607.4,-5.0517e-05,-0.017762,-6.0851e-05,-77.657,1.2839
28708,16.919,1.8182,0.1,0.00016271,1626,0.00016117,1583.6,-4.96e-05,-0.018776,-6.0466e-05,-81.658,1.2956
28709,16.826,2.0909,0.1,0.00016548,1653.7,0.00016404,1614,-5.0767e-05,-0.016451,-6.0972e-05,-76.692,1.2841
28710,16.919,2,0.1,0.00016347,1633.5,0.00016194,1591.6,-4.9896e-05,-0.017215,-6.0641e-05,-80.751,1.2958
28711,16.826,2.2727,0.1,0.00016596,1658.5,0.00016455,1619.5,-5.0996e-05,-0.015465,-6.1015e-05,-75.293,1.2843
28712,16.919,2.1818,0.1,0.00016408,1639.6,0.00016259,1598.6,-5.0176e-05,-0.015986,-6.0714e-05,-79.192,1.296
28713,16.826,2.4545,0.1,0.00016632,1662.1,0.00016494,1623.9,-5.1192e-05,-0.014884,-6.1011e-05,-73.792,1.2845
28714,16.919,2.3636,0.1,0.00016455,1644.4,0.0001631,1604.3,-5.0425e-05,-0.015262,-6.072e-05,-77.366,1.2962
28715,16.826,2.6364,0.1,0.00016657,1664.6,0.00016522,1627.1,-5.134e-05,-0.014649,-6.0986e-05,-72.485,1.2846
28716,16.919,2.5455,0.1,0.00016489,1647.8,0.00016347,1608.7,-5.0626e-05,-0.01502,-6.069e-05,-75.634,1.2963
28717,16.826,2.8182,0.1,0.00016672,1666,0.00016539,1629.1,-5.1434e-05,-0.01461,-6.0961e-05,-71.602,1.2846
28718,16.919,2.7273,0.1,0.00016512,1650,0.00016373,1611.6,-5.0768e-05,-0.015076,-6.0654e-05,-74.298,1.2964
28719,16.826,3,0.1,0.00016677,1666.5,0.00016544,1629.7,-5.1465e-05,-0.014618,-6.0952e-05,-71.291,1.2846
28720,16.919,2.9091,0.1,0.00016523,1651.1,0.00016385,1613.1,-5.0841e-05,-0.015189,-6.0631e-05,-73.574,1.2964
28721,16.826,3.1818,0.1,0.00016672,1666,0.00016539,1629.1,-5.1434e-05,-0.014611,-6.0961e-05,-71.602,1.2846
28722,16.919,3.0909,0.1,0.00016523,1651.1,0.00016385,1613.1,-5.0841e-05,-0.015188,-6.0631e-05,-73.574,1.2964
28723,16.826,3.3636,0.1,0.00016657,1664.6,0.00016522,1627.1,-5.134e-05,-0.01465,-6.0986e-05,-72.485,1.2846
28724,16.919,3.2727,0.1,0.00016512,1650,0.00016373,1611.6,-5.0768e-05,-0.015076,-6.0654e-05,-74.298,1.2964
28725,16.826,3.5455,0.1,0.00016632,1662.1,0.00016494,1623.9,-5.1192e-05,-0.014884,-6.1011e-05,-73.792,1.2845
28726,16.919,3.4545,0.1,0.00016489,1647.8,0.00016347,1608.7,-5.0626e-05,-0.01502,-6.069e-05,-75.634,1.2963
28727,16.826,3.7273,0.1,0.00016596,1658.5,0.00016455,1619.5,-5.0996e-05,-0.015465,-6.1015e-05,-75.293,1.2843
28728,16.919,3.6364,0.1,0.00016455,1644.4,0.0001631,1604.3,-5.0425e-05,-0.015262,-6.072e-05,-77.366,1.2962
28729,16.826,3.9091,0.1,0.00016548,1653.7,0.00016404,1614,-5.0767e-05,-0.016451,-6.0972e-05,-76.692,1.2841
28730,16.919,3.8182,0.1,0.00016408,1639.6,0.00016259,1598.6,-5.0176e-05,-0.015986,-6.0714e-05,-79.192,1.296
28731,16.826,4.0909,0.1,0.00016487,1647.6,0.00016341,1607.4,-5.0517e-05,-0.017762,-6.0851e-05,-77.658,1.2839
28732,16.919,4,0.1,0.00016347,1633.5,0.00016194,1591.6,-4.9896e-05,-0.017214,-6.0641e-05,-80.751,1.2958
28733,16.826,4.2727,0.1,0.00016413,1640.2,0.00016267,1599.9,-5.0264e-05,-0.019175,-6.0622e-05,-77.849,1.2837
28734,16.919,4.1818,0.1,0.00016271,1626,0.00016117,1583.6,-4.96e-05,-0.018776,-6.0466e-05,-81.658,1.2956
28735,16.826,4.4545,0.1,0.00016326,1631.5,0.00016182,1591.7,-5.0022e-05,-0.020354,-6.0261e-05,-76.949,1.2833
28736,16.919,4.3636,0.1,0.00016181,1617,0.00016027,1574.6,-4.9308e-05,-0.020352,-6.0158e-05,-81.537,1.2953
28737,16.826,4.6364,0.1,0.00016227,1621.6,0.00016087,1582.9,-4.9808e-05,-0.020913,-5.9746e-05,-74.689,1.283
28738,16.919,4.5455,0.1,0.00016076,1606.5,0.00015925,1565,-4.9038e-05,-0.021511,-5.9691e-05,-80.061,1.295
28739,16.826,4.8182,0.1,0.00016116,1610.5,0.00015984,1573.9,-4.9637e-05,-0.020299,-5.9066e-05,-70.867,1.2826
28740,16.919,4.7273,0.1,0.00015959,1594.8,0.00015814,1554.9,-4.8807e-05,-0.021828,-5.9048e-05,-76.971,1.2946
28741,16.826,5,0.1,0.00015997,1598.6,0.00015876,1564.9,-4.9521e-05,-0.01815,-5.8217e-05,-65.356,1.2822
28742,16.919,4.9091,0.1,0.0001583,1582,0.00015695,1544.7,-4.863e-05,-0.020538,-5.8223e-05,-72.094,1.2942
28743,16.826,5.1818,0.1,0.00015871,1586,0.00015764,1556.1,-4.947e-05,-0.012266,-5.7202e-05,-58.105,1.2817
28744,16.919,5.0909,0.1,0.00015694,1568.3,0.00015573,1534.6,-4.8521e-05,-0.01763,-5.7216e-05,-65.343,1.2938
28745,16.826,5.3636,0.1,0.00015742,1573.1,0.00015652,1547.9,-4.9495e-05,-0.0055025,-5.6034e-05,-49.137,1.2813
28746,16.919,5.2727,0.1,0.00015553,1554.2,0.00015449,1525.1,-4.849e-05,-0.0083504,-5.6037e-05,-56.71,1.2933
28747,16.826,5.5455,0.1,0.00015613,1560.2,0.00015544,1540.6,-4.9599e-05,0.033718,-5.4733e-05,-38.543,1.2807
28748,16.919,5.4545,0.1,0.00015411,1540,0.00015327,1516.3,-4.8546e-05,-0.003175,-5.4703e-05,-46.266,1.2928
28749,16.826,5.7273,0.1,0.00015493,1548.3,0.00015446,1534.7,-4.9788e-05,0.063019,-5.3368e-05,-26.832,1.2802
28750,16.919,5.6364,0.1,0.00015271,1526.1,0.00015211,1508.8,-4.8689e-05,0.076969,-5.3242e-05,-34.133,1.2923
28751,16.919,5.8182,0.1,0.0001515,1513.9,0.00015113,1503.2,-4.8934e-05,0.064809,-5.1766e-05,-21.215,1.2917
28752,16.826,5.9091,0.1,0.00015353,1534.2,0.00015331,1527.9,-5.0041e-05,0.006682,-5.1711e-05,-12.536,1.2795
28753,17.011,0.27273,0.1,0.00014926,1491.5,0.00014876,1477.2,-4.7836e-05,0.070055,-5.1624e-05,-28.392,1.3038
28754,17.104,0.18182,0.1,0.00014556,1454.6,0.00014518,1443.6,-4.6941e-05,0.078938,-4.9861e-05,-21.864,1.3154
28755,17.011,0.090909,0.1,0.00014772,1476.2,0.0001475,1469.8,-4.8114e-05,0.0057309,-4.9811e-05,-12.746,1.3032
28756,17.011,0.45455,0.1,0.00015069,1505.8,0.00014993,1484.5,-4.7637e-05,0.035138,-5.3208e-05,-41.823,1.3044
28757,17.104,0.36364,0.1,0.00014703,1469.2,0.00014637,1450.5,-4.6678e-05,0.083279,-5.1585e-05,-36.783,1.316
28758,17.011,0.63636,0.1,0.00015222,1521.1,0.00015123,1493.5,-4.7542e-05,-0.008125,-5.4705e-05,-53.826,1.3049
28759,17.104,0.54545,0.1,0.00014867,1485.7,0.00014775,1459.8,-4.6537e-05,-0.006175,-5.3263e-05,-50.545,1.3165
28760,17.011,0.81818,0.1,0.00015376,1536.5,0.00015257,1503.6,-4.7541e-05,-0.014728,-5.605e-05,-63.947,1.3054
28761,17.104,0.72727,0.1,0.00015036,1502.6,0.00014921,1470.5,-4.65e-05,-0.010731,-5.4798e-05,-62.358,1.3171
28762,17.011,1,0.1,0.00015528,1551.7,0.00015393,1514.4,-4.7631e-05,-0.020545,-5.7223e-05,-72.086,1.3059
28763,17.104,0.90909,0.1,0.00015206,1519.6,0.00015071,1482.2,-4.6568e-05,-0.020162,-5.6161e-05,-72.1,1.3175
28764,17.011,1.1818,0.1,0.00015673,1566.2,0.00015525,1525.6,-4.7801e-05,-0.022331,-5.8206e-05,-78.206,1.3063
28765,17.104,1.0909,0.1,0.00015372,1536.1,0.00015221,1494.7,-4.673e-05,-0.022667,-5.7332e-05,-79.678,1.318
28766,17.011,1.3636,0.1,0.00015808,1579.7,0.00015652,1536.9,-4.8037e-05,-0.022528,-5.8994e-05,-82.352,1.3067
28767,17.104,1.2727,0.1,0.00015529,1551.8,0.00015366,1507.5,-4.6974e-05,-0.02354,-5.8294e-05,-85.08,1.3184
28768,17.011,1.5455,0.1,0.00015931,1592,0.0001577,1548,-4.8324e-05,-0.021504,-5.9589e-05,-84.658,1.307
28769,17.104,1.4545,0.1,0.00015673,1566.2,0.00015504,1520.2,-4.7284e-05,-0.022729,-5.9044e-05,-88.381,1.3187
28770,17.011,1.7273,0.1,0.00016039,1602.8,0.00015876,1558.4,-4.8645e-05,-0.019878,-6.0002e-05,-85.352,1.3073
28771,17.104,1.6364,0.1,0.00015803,1579.2,0.00015631,1532.4,-4.7641e-05,-0.02106,-5.9586e-05,-89.767,1.319
28772,17.011,1.9091,0.1,0.0001613,1611.9,0.0001597,1567.9,-4.8979e-05,-0.018117,-6.0256e-05,-84.755,1.3076
28773,17.104,1.8182,0.1,0.00015915,1590.4,0.00015744,1543.8,-4.8024e-05,-0.019031,-5.9938e-05,-89.534,1.3193
28774,17.011,2.0909,0.1,0.00016206,1619.5,0.00016049,1576.3,-4.9305e-05,-0.016635,-6.0383e-05,-83.252,1.3078
28775,17.104,2,0.1,0.0001601,1599.9,0.00015842,1554,-4.841e-05,-0.017182,-6.013e-05,-88.079,1.3195
28776,17.011,2.2727,0.1,0.00016266,1625.5,0.00016113,1583.4,-4.9605e-05,-0.015703,-6.0418e-05,-81.264,1.308
28777,17.104,2.1818,0.1,0.00016086,1607.5,0.00015923,1562.9,-4.8776e-05,-0.015927,-6.0202e-05,-85.865,1.3197
28778,17.011,2.4545,0.1,0.00016312,1630.1,0.00016163,1589,-4.986e-05,-0.015381,-6.0399e-05,-79.205,1.3081
28779,17.104,2.3636,0.1,0.00016146,1613.5,0.00015988,1570.2,-4.9099e-05,-0.015466,-6.0193e-05,-83.373,1.3199
28780,17.011,2.6364,0.1,0.00016343,1633.2,0.00016198,1593.1,-5.0053e-05,-0.015507,-6.0358e-05,-77.442,1.3082
28781,17.104,2.5455,0.1,0.00016189,1617.8,0.00016036,1575.7,-4.936e-05,-0.015697,-6.0146e-05,-81.054,1.32
28782,17.011,2.8182,0.1,0.00016362,1635.1,0.00016219,1595.6,-5.0175e-05,-0.015778,-6.0322e-05,-76.263,1.3083
28783,17.104,2.7273,0.1,0.00016218,1620.6,0.00016068,1579.5,-4.9544e-05,-0.016255,-6.0094e-05,-79.284,1.3201
28784,17.011,3,0.1,0.00016368,1635.7,0.00016226,1596.4,-5.0216e-05,-0.015907,-6.0309e-05,-75.85,1.3083
28785,17.104,2.9091,0.1,0.00016232,1622,0.00016084,1581.4,-4.9639e-05,-0.016688,-6.0061e-05,-78.331,1.3201
28786,17.011,3.1818,0.1,0.00016362,1635.1,0.00016219,1595.6,-5.0175e-05,-0.015778,-6.0322e-05,-76.263,1.3083
28787,17.104,3.0909,0.1,0.00016232,1622,0.00016084,1581.4,-4.9639e-05,-0.016689,-6.0061e-05,-78.331,1.3201
28788,17.011,3.3636,0.1,0.00016343,1633.2,0.00016198,1593.1,-5.0053e-05,-0.015507,-6.0358e-05,-77.442,1.3082
28789,17.104,3.2727,0.1,0.00016218,1620.6,0.00016068,1579.5,-4.9544e-05,-0.016255,-6.0094e-05,-79.285,1.3201
28790,17.011,3.5455,0.1,0.00016312,1630.1,0.00016163,1589,-4.986e-05,-0.01538,-6.0399e-05,-79.205,1.3081
28791,17.104,3.4545,0.1,0.00016189,1617.8,0.00016036,1575.7,-4.936e-05,-0.015696,-6.0146e-05,-81.054,1.32
28792,17.011,3.7273,0.1,0.00016266,1625.5,0.00016113,1583.4,-4.9605e-05,-0.015702,-6.0418e-05,-81.264,1.308
28793,17.104,3.6364,0.1,0.00016146,1613.5,0.00015988,1570.2,-4.9099e-05,-0.015466,-6.0193e-05,-83.373,1.3199
28794,17.011,3.9091,0.1,0.00016206,1619.5,0.00016049,1576.3,-4.9305e-05,-0.016634,-6.0383e-05,-83.252,1.3078
28795,17.104,3.8182,0.1,0.00016086,1607.5,0.00015923,1562.9,-4.8776e-05,-0.015926,-6.0202e-05,-85.865,1.3197
28796,17.011,4.0909,0.1,0.0001613,1611.9,0.0001597,1567.9,-4.8979e-05,-0.018116,-6.0256e-05,-84.755,1.3076
28797,17.104,4,0.1,0.0001601,1599.9,0.00015842,1554,-4.841e-05,-0.017181,-6.013e-05,-88.079,1.3195
28798,17.011,4.2727,0.1,0.00016039,1602.8,0.00015876,1558.4,-4.8645e-05,-0.019878,-6.0002e-05,-85.352,1.3073
28799,17.104,4.1818,0.1,0.00015915,1590.4,0.00015744,1543.8,-4.8024e-05,-0.019031,-5.9938e-05,-89.534,1.3193
28800,17.011,4.4545,0.1,0.00015931,1592,0.0001577,1548,-4.8324e-05,-0.021504,-5.9589e-05,-84.658,1.307
28801,17.104,4.3636,0.1,0.00015803,1579.2,0.00015631,1532.4,-4.7641e-05,-0.02106,-5.9586e-05,-89.767,1.319
28802,17.011,4.6364,0.1,0.00015808,1579.7,0.00015652,1536.9,-4.8037e-05,-0.022527,-5.8994e-05,-82.352,1.3067
28803,17.104,4.5455,0.1,0.00015673,1566.2,0.00015504,1520.2,-4.7284e-05,-0.022728,-5.9044e-05,-88.381,1.3187
28804,17.011,4.8182,0.1,0.00015673,1566.2,0.00015525,1525.6,-4.7801e-05,-0.022331,-5.8206e-05,-78.207,1.3063
28805,17.104,4.7273,0.1,0.00015529,1551.8,0.00015366,1507.5,-4.6974e-05,-0.02354,-5.8294e-05,-85.08,1.3184
28806,17.011,5,0.1,0.00015528,1551.7,0.00015393,1514.4,-4.7631e-05,-0.020544,-5.7223e-05,-72.086,1.3059
28807,17.104,4.9091,0.1,0.00015372,1536.1,0.00015221,1494.7,-4.673e-05,-0.022667,-5.7332e-05,-79.678,1.318
28808,17.011,5.1818,0.1,0.00015376,1536.5,0.00015257,1503.6,-4.7541e-05,-0.014728,-5.605e-05,-63.947,1.3054
28809,17.104,5.0909,0.1,0.00015206,1519.6,0.00015071,1482.2,-4.6568e-05,-0.020161,-5.6161e-05,-72.1,1.3175
28810,17.011,5.3636,0.1,0.00015222,1521.1,0.00015123,1493.5,-4.7542e-05,-0.0081236,-5.4705e-05,-53.826,1.3049
28811,17.104,5.2727,0.1,0.00015036,1502.6,0.00014921,1470.5,-4.65e-05,-0.010731,-5.4798e-05,-62.358,1.3171
28812,17.011,5.5455,0.1,0.00015069,1505.8,0.00014993,1484.5,-4.7637e-05,0.035139,-5.3208e-05,-41.823,1.3044
28813,17.104,5.4545,0.1,0.00014867,1485.7,0.00014775,1459.8,-4.6537e-05,-0.006172,-5.3263e-05,-50.545,1.3165
28814,17.011,5.7273,0.1,0.00014926,1491.5,0.00014876,1477.2,-4.7836e-05,0.070054,-5.1624e-05,-28.392,1.3038
28815,17.104,5.6364,0.1,0.00014703,1469.2,0.00014637,1450.5,-4.6678e-05,0.083278,-5.1585e-05,-36.783,1.316
28816,17.104,5.8182,0.1,0.00014556,1454.6,0.00014518,1443.6,-4.6941e-05,0.078937,-4.9861e-05,-21.864,1.3154
28817,17.011,5.9091,0.1,0.00014772,1476.2,0.0001475,1469.8,-4.8114e-05,0.0057314,-4.9811e-05,-12.746,1.3032
28818,17.196,0.27273,0.1,0.00014331,1432.1,0.00014277,1416.8,-4.5785e-05,0.076601,-4.9805e-05,-30.128,1.3276
28819,17.289,0.18182,0.1,0.0001393,1392,0.0001389,1380.6,-4.4836e-05,0.09347,-4.7855e-05,-22.589,1.3393
28820,17.196,0.090909,0.1,0.00014162,1415.2,0.00014139,1408.7,-4.6089e-05,0.0043196,-4.7817e-05,-12.979,1.327
28821,17.196,0.45455,0.1,0.00014501,1449.1,0.00014418,1425.8,-4.5578e-05,0.036064,-5.1636e-05,-45.477,1.3282
28822,17.289,0.36364,0.1,0.00014105,1409.5,0.00014033,1389.3,-4.4557e-05,0.08905,-4.9854e-05,-39.71,1.3398
28823,17.196,0.63636,0.1,0.00014682,1467.2,0.00014572,1436.7,-4.5496e-05,-0.011191,-5.3356e-05,-59.073,1.3287
28824,17.289,0.54545,0.1,0.00014299,1428.9,0.00014196,1400.4,-4.4421e-05,-0.0098665,-5.1778e-05,-55.291,1.3404
28825,17.196,0.81818,0.1,0.00014867,1485.7,0.00014734,1449.1,-4.5527e-05,-0.01731,-5.4911e-05,-70.522,1.3292
28826,17.289,0.72727,0.1,0.000145,1449,0.00014371,1413.5,-4.441e-05,-0.013283,-5.3548e-05,-68.668,1.3409
28827,17.196,1,0.1,0.0001505,1504,0.00014899,1462.5,-4.5667e-05,-0.022871,-5.6273e-05,-79.712,1.3296
28828,17.289,0.90909,0.1,0.00014705,1469.5,0.00014553,1428,-4.4525e-05,-0.022599,-5.5132e-05,-79.717,1.3413
28829,17.196,1.1818,0.1,0.00015228,1521.7,0.00015062,1476.6,-4.5904e-05,-0.024162,-5.7423e-05,-86.575,1.3301
28830,17.289,1.0909,0.1,0.00014906,1489.6,0.00014736,1443.5,-4.4753e-05,-0.024518,-5.6503e-05,-88.307,1.3418
28831,17.196,1.3636,0.1,0.00015394,1538.3,0.00015219,1490.7,-4.6221e-05,-0.023841,-5.8347e-05,-91.132,1.3304
28832,17.289,1.2727,0.1,0.00015099,1508.9,0.00014916,1459.4,-4.5081e-05,-0.024865,-5.7638e-05,-94.378,1.3422
28833,17.196,1.5455,0.1,0.00015546,1553.5,0.00015365,1504.6,-4.6601e-05,-0.02226,-5.9043e-05,-93.511,1.3308
28834,17.289,1.4545,0.1,0.00015278,1526.8,0.00015088,1475.4,-4.5489e-05,-0.023468,-5.8526e-05,-97.974,1.3425
28835,17.196,1.7273,0.1,0.0001568,1566.9,0.00015499,1517.8,-4.7021e-05,-0.020104,-5.9524e-05,-93.966,1.3311
28836,17.289,1.6364,0.1,0.0001544,1542.9,0.00015247,1490.8,-4.5956e-05,-0.021196,-5.9166e-05,-99.276,1.3428
28837,17.196,1.9091,0.1,0.00015795,1578.4,0.00015616,1529.9,-4.7456e-05,-0.017942,-5.9814e-05,-92.871,1.3313
28838,17.289,1.8182,0.1,0.0001558,1556.9,0.00015389,1505.3,-4.6454e-05,-0.018627,-5.9577e-05,-98.621,1.3431
28839,17.196,2.0909,0.1,0.0001589,1587.9,0.00015716,1540.6,-4.7881e-05,-0.01632,-5.995e-05,-90.7,1.3315
28840,17.289,2,0.1,0.00015699,1568.8,0.00015512,1518.3,-4.6955e-05,-0.016464,-5.9794e-05,-96.489,1.3434
28841,17.196,2.2727,0.1,0.00015966,1595.5,0.00015798,1549.6,-4.827e-05,-0.015589,-5.9977e-05,-87.977,1.3317
28842,17.289,2.1818,0.1,0.00015795,1578.5,0.00015616,1529.6,-4.7428e-05,-0.015283,-5.9865e-05,-93.457,1.3436
28843,17.196,2.4545,0.1,0.00016023,1601.2,0.00015861,1556.9,-4.86e-05,-0.015779,-5.994e-05,-85.223,1.3319
28844,17.289,2.3636,0.1,0.00015871,1586,0.00015698,1539,-4.7847e-05,-0.015339,-5.9841e-05,-90.133,1.3437
28845,17.196,2.6364,0.1,0.00016063,1605.2,0.00015906,1562.2,-4.8851e-05,-0.016563,-5.9881e-05,-82.894,1.332
28846,17.289,2.5455,0.1,0.00015926,1591.5,0.0001576,1546.2,-4.8185e-05,-0.016407,-5.9773e-05,-87.084,1.3438
28847,17.196,2.8182,0.1,0.00016087,1607.6,0.00015933,1565.4,-4.9008e-05,-0.017384,-5.9832e-05,-81.348,1.332
28848,17.289,2.7273,0.1,0.00015962,1595.1,0.00015801,1551,-4.8422e-05,-0.017832,-5.9703e-05,-84.778,1.3439
28849,17.196,3,0.1,0.00016095,1608.4,0.00015942,1566.4,-4.9061e-05,-0.017728,-5.9814e-05,-80.808,1.332
28850,17.289,2.9091,0.1,0.0001598,1596.9,0.00015822,1553.5,-4.8544e-05,-0.018814,-5.9661e-05,-83.542,1.3439
28851,17.196,3.1818,0.1,0.00016087,1607.6,0.00015933,1565.4,-4.9008e-05,-0.017385,-5.9832e-05,-81.348,1.332
28852,17.289,3.0909,0.1,0.0001598,1596.9,0.00015822,1553.5,-4.8544e-05,-0.018815,-5.9661e-05,-83.542,1.3439
28853,17.196,3.3636,0.1,0.00016063,1605.2,0.00015906,1562.2,-4.8851e-05,-0.016563,-5.9881e-05,-82.894,1.332
28854,17.289,3.2727,0.1,0.00015962,1595.1,0.00015801,1551,-4.8422e-05,-0.017832,-5.9703e-05,-84.779,1.3439
28855,17.196,3.5455,0.1,0.00016023,1601.2,0.00015861,1556.9,-4.86e-05,-0.015779,-5.994e-05,-85.223,1.3319
28856,17.289,3.4545,0.1,0.00015926,1591.5,0.0001576,1546.2,-4.8185e-05,-0.016407,-5.9773e-05,-87.084,1.3438
28857,17.196,3.7273,0.1,0.00015966,1595.5,0.00015798,1549.6,-4.827e-05,-0.015588,-5.9977e-05,-87.978,1.3317
28858,17.289,3.6364,0.1,0.00015871,1586,0.00015698,1539,-4.7847e-05,-0.015338,-5.9841e-05,-90.133,1.3437
28859,17.196,3.9091,0.1,0.0001589,1587.9,0.00015716,1540.6,-4.7881e-05,-0.016319,-5.995e-05,-90.7,1.3315
28860,17.289,3.8182,0.1,0.00015795,1578.5,0.00015616,1529.6,-4.7428e-05,-0.015283,-5.9865e-05,-93.457,1.3436
28861,17.196,4.0909,0.1,0.00015795,1578.4,0.00015616,1529.9,-4.7456e-05,-0.017942,-5.9814e-05,-92.871,1.3313
28862,17.289,4,0.1,0.00015699,1568.8,0.00015512,1518.3,-4.6955e-05,-0.016464,-5.9794e-05,-96.489,1.3434
28863,17.196,4.2727,0.1,0.0001568,1566.9,0.00015499,1517.8,-4.7021e-05,-0.020103,-5.9524e-05,-93.966,1.3311
28864,17.289,4.1818,0.1,0.0001558,1556.9,0.00015389,1505.3,-4.6454e-05,-0.018627,-5.9577e-05,-98.621,1.3431
28865,17.196,4.4545,0.1,0.00015546,1553.5,0.00015365,1504.6,-4.6601e-05,-0.022259,-5.9043e-05,-93.512,1.3308
28866,17.289,4.3636,0.1,0.0001544,1542.9,0.00015247,1490.8,-4.5956e-05,-0.021196,-5.9166e-05,-99.276,1.3428
28867,17.196,4.6364,0.1,0.00015394,1538.3,0.00015219,1490.7,-4.6221e-05,-0.023841,-5.8347e-05,-91.132,1.3304
28868,17.289,4.5455,0.1,0.00015278,1526.8,0.00015088,1475.4,-4.5489e-05,-0.023468,-5.8526e-05,-97.974,1.3425
28869,17.196,4.8182,0.1,0.00015228,1521.7,0.00015062,1476.6,-4.5904e-05,-0.024162,-5.7423e-05,-86.575,1.3301
28870,17.289,4.7273,0.1,0.00015099,1508.9,0.00014916,1459.4,-4.5081e-05,-0.024866,-5.7638e-05,-94.378,1.3422
28871,17.196,5,0.1,0.0001505,1504,0.00014899,1462.5,-4.5667e-05,-0.022871,-5.6273e-05,-79.712,1.3296
28872,17.289,4.9091,0.1,0.00014906,1489.6,0.00014736,1443.5,-4.4753e-05,-0.024517,-5.6503e-05,-88.307,1.3418
28873,17.196,5.1818,0.1,0.00014867,1485.7,0.00014734,1449.1,-4.5527e-05,-0.017309,-5.4911e-05,-70.522,1.3292
28874,17.289,5.0909,0.1,0.00014705,1469.5,0.00014553,1428,-4.4525e-05,-0.022599,-5.5132e-05,-79.717,1.3413
28875,17.196,5.3636,0.1,0.00014682,1467.2,0.00014572,1436.7,-4.5496e-05,-0.011189,-5.3356e-05,-59.073,1.3287
28876,17.289,5.2727,0.1,0.000145,1449,0.00014371,1413.5,-4.441e-05,-0.013281,-5.3548e-05,-68.668,1.3409
28877,17.196,5.5455,0.1,0.00014501,1449.1,0.00014418,1425.8,-4.5578e-05,0.036065,-5.1636e-05,-45.477,1.3282
28878,17.289,5.4545,0.1,0.00014299,1428.9,0.00014196,1400.4,-4.4421e-05,-0.0098641,-5.1778e-05,-55.291,1.3404
28879,17.196,5.7273,0.1,0.00014331,1432.1,0.00014277,1416.8,-4.5785e-05,0.0766,-4.9805e-05,-30.128,1.3276
28880,17.289,5.6364,0.1,0.00014105,1409.5,0.00014033,1389.3,-4.4557e-05,0.08905,-4.9854e-05,-39.71,1.3398
28881,17.289,5.8182,0.1,0.0001393,1392,0.0001389,1380.6,-4.4836e-05,0.093469,-4.7855e-05,-22.589,1.3393
28882,17.196,5.9091,0.1,0.00014162,1415.2,0.00014139,1408.7,-4.6089e-05,0.0043192,-4.7817e-05,-12.979,1.327
28883,17.381,0.27273,0.1,0.00013702,1369.2,0.00013644,1353,-4.3612e-05,0.081667,-4.7887e-05,-32.042,1.3515
28884,17.474,0.18182,0.1,0.00013264,1325.4,0.00013222,1313.6,-4.2597e-05,0.10632,-4.5725e-05,-23.395,1.3632
28885,17.381,0.090909,0.1,0.00013515,1350.6,0.00013492,1343.9,-4.3943e-05,0.0022769,-4.5705e-05,-13.238,1.3509
28886,17.381,0.45455,0.1,0.00013902,1389.3,0.00013811,1363.9,-4.34e-05,0.036176,-4.9994e-05,-49.505,1.3521
28887,17.474,0.36364,0.1,0.0001347,1346.1,0.00013392,1324.2,-4.2303e-05,0.093507,-4.8024e-05,-42.895,1.3638
28888,17.381,0.63636,0.1,0.00014117,1410.7,0.00013995,1377.2,-4.3336e-05,-0.014696,-5.1972e-05,-64.898,1.3526
28889,17.474,0.54545,0.1,0.00013698,1368.9,0.00013585,1337.6,-4.2176e-05,-0.014393,-5.0225e-05,-60.491,1.3643
28890,17.381,0.81818,0.1,0.00014339,1432.9,0.0001419,1392.3,-4.3408e-05,-0.019857,-5.3773e-05,-77.895,1.3531
28891,17.474,0.72727,0.1,0.00013938,1392.9,0.00013794,1353.5,-4.2199e-05,-0.015916,-5.2268e-05,-75.667,1.3648
28892,17.381,1,0.1,0.00014561,1455.1,0.00014391,1408.9,-4.3611e-05,-0.024897,-5.5367e-05,-88.355,1.3535
28893,17.474,0.90909,0.1,0.00014185,1417.5,0.00014014,1371.3,-4.2372e-05,-0.024709,-5.4119e-05,-88.286,1.3653
28894,17.381,1.1818,0.1,0.00014778,1476.8,0.00014591,1426.4,-4.393e-05,-0.02553,-5.6725e-05,-96.158,1.3539
28895,17.474,1.0909,0.1,0.00014431,1442.1,0.00014239,1390.5,-4.2681e-05,-0.025801,-5.574e-05,-98.15,1.3657
28896,17.381,1.3636,0.1,0.00014984,1497.4,0.00014786,1444.2,-4.4349e-05,-0.024588,-5.7823e-05,-101.27,1.3543
28897,17.474,1.2727,0.1,0.0001467,1465.9,0.00014462,1410.5,-4.3111e-05,-0.025505,-5.7098e-05,-105.11,1.3661
28898,17.381,1.5455,0.1,0.00015173,1516.2,0.0001497,1461.7,-4.4844e-05,-0.022354,-5.8653e-05,-103.78,1.3546
28899,17.474,1.4545,0.1,0.00014893,1488.2,0.00014677,1430.6,-4.3642e-05,-0.023441,-5.8165e-05,-109.15,1.3664
28900,17.381,1.7273,0.1,0.00015341,1533,0.00015137,1478.4,-4.5389e-05,-0.019568,-5.9223e-05,-103.97,1.3549
28901,17.474,1.6364,0.1,0.00015095,1508.4,0.00014876,1450.2,-4.4245e-05,-0.020459,-5.8936e-05,-110.4,1.3668
28902,17.381,1.9091,0.1,0.00015485,1547.4,0.00015286,1493.8,-4.5952e-05,-0.016944,-5.9561e-05,-102.27,1.3552
28903,17.474,1.8182,0.1,0.00015271,1526.1,0.00015056,1468.5,-4.4889e-05,-0.017234,-5.9427e-05,-109.25,1.367
28904,17.381,2.0909,0.1,0.00015605,1559.4,0.00015412,1507.4,-4.6502e-05,-0.015227,-5.9711e-05,-99.264,1.3554
28905,17.474,2,0.1,0.00015421,1541,0.00015213,1485.2,-4.5536e-05,-0.014709,-5.9678e-05,-106.27,1.3673
28906,17.381,2.2727,0.1,0.00015701,1569,0.00015516,1519,-4.7006e-05,-0.014911,-5.973e-05,-95.623,1.3556
28907,17.474,2.1818,0.1,0.00015543,1553.3,0.00015344,1499.6,-4.6148e-05,-0.013746,-5.975e-05,-102.21,1.3675
28908,17.381,2.4545,0.1,0.00015774,1576.3,0.00015597,1528.3,-4.7432e-05,-0.015994,-5.9674e-05,-92,1.3557
28909,17.474,2.3636,0.1,0.00015639,1562.8,0.0001545,1511.6,-4.6688e-05,-0.014713,-5.9708e-05,-97.845,1.3676
28910,17.381,2.6364,0.1,0.00015825,1581.4,0.00015655,1535.1,-4.7756e-05,-0.017889,-5.9595e-05,-88.97,1.3558
28911,17.474,2.5455,0.1,0.0001571,1569.9,0.00015529,1520.8,-4.7124e-05,-0.017183,-5.9617e-05,-93.888,1.3677
28912,17.381,2.8182,0.1,0.00015856,1584.5,0.0001569,1539.2,-4.7959e-05,-0.019632,-5.9531e-05,-86.971,1.3559
28913,17.474,2.7273,0.1,0.00015757,1574.6,0.00015582,1527.1,-4.7429e-05,-0.020032,-5.9528e-05,-90.923,1.3678
28914,17.381,3,0.1,0.00015866,1585.5,0.00015701,1540.6,-4.8027e-05,-0.020334,-5.9507e-05,-86.275,1.3559
28915,17.474,2.9091,0.1,0.0001578,1576.9,0.00015609,1530.3,-4.7587e-05,-0.021911,-5.9475e-05,-89.342,1.3679
28916,17.381,3.1818,0.1,0.00015856,1584.5,0.0001569,1539.2,-4.7959e-05,-0.019633,-5.9531e-05,-86.971,1.3559
28917,17.474,3.0909,0.1,0.0001578,1576.9,0.00015609,1530.3,-4.7587e-05,-0.021911,-5.9475e-05,-89.342,1.3679
28918,17.381,3.3636,0.1,0.00015825,1581.4,0.00015655,1535.1,-4.7756e-05,-0.017889,-5.9595e-05,-88.97,1.3558
28919,17.474,3.2727,0.1,0.00015757,1574.6,0.00015582,1527.1,-4.7429e-05,-0.020032,-5.9528e-05,-90.923,1.3678
28920,17.381,3.5455,0.1,0.00015774,1576.3,0.00015597,1528.3,-4.7432e-05,-0.015994,-5.9674e-05,-92,1.3557
28921,17.474,3.4545,0.1,0.0001571,1569.9,0.00015529,1520.8,-4.7124e-05,-0.017183,-5.9617e-05,-93.888,1.3677
28922,17.381,3.7273,0.1,0.00015701,1569,0.00015516,1519,-4.7006e-05,-0.014911,-5.973e-05,-95.623,1.3556
28923,17.474,3.6364,0.1,0.00015639,1562.8,0.0001545,1511.6,-4.6688e-05,-0.014713,-5.9708e-05,-97.845,1.3676
28924,17.381,3.9091,0.1,0.00015605,1559.4,0.00015412,1507.4,-4.6502e-05,-0.015227,-5.9711e-05,-99.264,1.3554
28925,17.474,3.8182,0.1,0.00015543,1553.3,0.00015344,1499.6,-4.6148e-05,-0.013745,-5.975e-05,-102.21,1.3675
28926,17.381,4.0909,0.1,0.00015485,1547.4,0.00015286,1493.8,-4.5952e-05,-0.016943,-5.9561e-05,-102.27,1.3552
28927,17.474,4,0.1,0.00015421,1541,0.00015213,1485.2,-4.5536e-05,-0.014709,-5.9678e-05,-106.27,1.3673
28928,17.381,4.2727,0.1,0.00015341,1533,0.00015137,1478.4,-4.5389e-05,-0.019568,-5.9223e-05,-103.97,1.3549
28929,17.474,4.1818,0.1,0.00015271,1526.1,0.00015056,1468.5,-4.4889e-05,-0.017233,-5.9427e-05,-109.25,1.367
28930,17.381,4.4545,0.1,0.00015173,1516.2,0.0001497,1461.7,-4.4844e-05,-0.022354,-5.8653e-05,-103.78,1.3546
28931,17.474,4.3636,0.1,0.00015095,1508.4,0.00014876,1450.2,-4.4245e-05,-0.020459,-5.8936e-05,-110.4,1.3668
28932,17.381,4.6364,0.1,0.00014984,1497.4,0.00014786,1444.2,-4.4349e-05,-0.024589,-5.7823e-05,-101.27,1.3543
28933,17.474,4.5455,0.1,0.00014893,1488.2,0.00014677,1430.6,-4.3642e-05,-0.023441,-5.8166e-05,-109.15,1.3664
28934,17.381,4.8182,0.1,0.00014778,1476.8,0.00014591,1426.4,-4.393e-05,-0.02553,-5.6725e-05,-96.158,1.3539
28935,17.474,4.7273,0.1,0.0001467,1465.9,0.00014462,1410.5,-4.3111e-05,-0.025506,-5.7098e-05,-105.11,1.3661
28936,17.381,5,0.1,0.00014561,1455.1,0.00014391,1408.9,-4.3611e-05,-0.024897,-5.5367e-05,-88.356,1.3535
28937,17.474,4.9091,0.1,0.00014431,1442.1,0.00014239,1390.5,-4.2681e-05,-0.0258,-5.574e-05,-98.151,1.3657
28938,17.381,5.1818,0.1,0.00014339,1432.9,0.0001419,1392.3,-4.3408e-05,-0.019855,-5.3773e-05,-77.895,1.3531
28939,17.474,5.0909,0.1,0.00014185,1417.5,0.00014014,1371.3,-4.2372e-05,-0.024708,-5.4119e-05,-88.286,1.3653
28940,17.381,5.3636,0.1,0.00014117,1410.7,0.00013995,1377.2,-4.3336e-05,-0.014694,-5.1972e-05,-64.899,1.3526
28941,17.474,5.2727,0.1,0.00013938,1392.9,0.00013794,1353.5,-4.2199e-05,-0.015914,-5.2268e-05,-75.667,1.3648
28942,17.381,5.5455,0.1,0.00013902,1389.3,0.00013811,1363.9,-4.34e-05,0.036176,-4.9994e-05,-49.505,1.3521
28943,17.474,5.4545,0.1,0.00013698,1368.9,0.00013585,1337.6,-4.2176e-05,-0.014391,-5.0225e-05,-60.491,1.3643
28944,17.381,5.7273,0.1,0.00013702,1369.2,0.00013644,1353,-4.3612e-05,0.081666,-4.7887e-05,-32.043,1.3515
28945,17.474,5.6364,0.1,0.0001347,1346.1,0.00013392,1324.2,-4.2303e-05,0.093507,-4.8024e-05,-42.896,1.3638
28946,17.474,5.8182,0.1,0.00013264,1325.4,0.00013222,1313.6,-4.2597e-05,0.10632,-4.5725e-05,-23.395,1.3632
28947,17.381,5.9091,0.1,0.00013515,1350.6,0.00013492,1343.9,-4.3943e-05,0.0022768,-4.5705e-05,-13.238,1.3509
28948,17.566,0.27273,0.1,0.0001303,1302.1,0.00012969,1284.8,-4.1292e-05,0.083628,-4.5844e-05,-34.119,1.3755
28949,17.658,0.18182,0.1,0.00012549,1254.1,0.00012507,1241.8,-4.0195e-05,0.11389,-4.3441e-05,-24.275,1.3872
28950,17.566,0.090909,0.1,0.00012824,1281.5,0.00012801,1274.7,-4.1648e-05,-0.00071795,-4.3448e-05,-13.525,1.3749
28951,17.566,0.45455,0.1,0.00013266,1325.7,0.00013166,1298,-4.1079e-05,0.034929,-4.8255e-05,-53.878,1.3761
28952,17.658,0.36364,0.1,0.00012791,1278.2,0.00012706,1254.5,-3.9888e-05,0.095411,-4.6061e-05,-46.286,1.3878
28953,17.566,0.63636,0.1,0.0001352,1351.1,0.00013385,1314,-4.104e-05,-0.018681,-5.0527e-05,-71.298,1.3766
28954,17.658,0.54545,0.1,0.00013058,1304.9,0.00012933,1270.6,-3.9777e-05,-0.019991,-4.8571e-05,-66.096,1.3883
28955,17.566,0.81818,0.1,0.00013786,1377.6,0.00013619,1332.6,-4.1163e-05,-0.022193,-5.2622e-05,-86.123,1.377
28956,17.658,0.72727,0.1,0.00013344,1333.4,0.00013182,1289.8,-3.9842e-05,-0.018549,-5.0934e-05,-83.357,1.3888
28957,17.566,1,0.1,0.00014057,1404.7,0.00013864,1353,-4.1442e-05,-0.026327,-5.4503e-05,-98.162,1.3775
28958,17.658,0.90909,0.1,0.00013642,1363.3,0.00013449,1311.7,-4.0084e-05,-0.026184,-5.3111e-05,-97.904,1.3893
28959,17.566,1.1818,0.1,0.00014324,1431.4,0.00014111,1374.8,-4.1862e-05,-0.026106,-5.6125e-05,-107.19,1.3779
28960,17.658,1.0909,0.1,0.00013944,1393.4,0.00013725,1335.5,-4.049e-05,-0.026124,-5.5051e-05,-109.43,1.3897
28961,17.566,1.3636,0.1,0.0001458,1457,0.00014354,1397.1,-4.2405e-05,-0.024446,-5.7451e-05,-113.08,1.3783
28962,17.658,1.2727,0.1,0.0001424,1423,0.00014003,1360.5,-4.1046e-05,-0.025074,-5.6698e-05,-117.63,1.3901
28963,17.566,1.5455,0.1,0.00014816,1480.6,0.00014585,1419.2,-4.3043e-05,-0.021466,-5.8458e-05,-115.84,1.3786
28964,17.658,1.4545,0.1,0.00014519,1450.9,0.00014272,1385.8,-4.1727e-05,-0.022311,-5.8006e-05,-122.33,1.3905
28965,17.566,1.7273,0.1,0.00015027,1501.6,0.00014796,1440.4,-4.3746e-05,-0.017926,-5.9147e-05,-115.74,1.3789
28966,17.658,1.6364,0.1,0.00014773,1476.3,0.00014524,1410.6,-4.2501e-05,-0.018561,-5.8951e-05,-123.62,1.3908
28967,17.566,1.9091,0.1,0.00015209,1519.8,0.00014984,1460,-4.4472e-05,-0.014735,-5.955e-05,-113.3,1.3792
28968,17.658,1.8182,0.1,0.00014996,1498.6,0.00014752,1433.9,-4.3329e-05,-0.014556,-5.9548e-05,-121.88,1.3911
28969,17.566,2.0909,0.1,0.0001536,1535,0.00015145,1477.4,-4.5181e-05,-0.012974,-5.9721e-05,-109.26,1.3794
28970,17.658,2,0.1,0.00015186,1517.5,0.00014951,1455.1,-4.4162e-05,-0.01164,-5.9845e-05,-117.84,1.3913
28971,17.566,2.2727,0.1,0.00015482,1547.1,0.00015278,1492.3,-4.583e-05,-0.01341,-5.9731e-05,-104.46,1.3795
28972,17.658,2.1818,0.1,0.00015341,1533,0.00015118,1473.7,-4.4951e-05,-0.011094,-5.9919e-05,-112.47,1.3915
28973,17.566,2.4545,0.1,0.00015575,1556.5,0.00015382,1504.2,-4.638e-05,-0.015987,-5.9653e-05,-99.744,1.3797
28974,17.658,2.3636,0.1,0.00015463,1545.2,0.00015253,1489,-4.5647e-05,-0.013487,-5.9857e-05,-106.78,1.3916
28975,17.566,2.6364,0.1,0.00015641,1563,0.00015456,1512.9,-4.6797e-05,-0.019691,-5.9551e-05,-95.846,1.3798
28976,17.658,2.5455,0.1,0.00015553,1554.3,0.00015355,1500.9,-4.6208e-05,-0.018169,-5.974e-05,-101.69,1.3918
28977,17.566,2.8182,0.1,0.00015681,1567,0.00015501,1518.2,-4.7058e-05,-0.022916,-5.9471e-05,-93.294,1.3798
28978,17.658,2.7273,0.1,0.00015614,1560.3,0.00015424,1509,-4.6601e-05,-0.023261,-5.963e-05,-97.919,1.3918
28979,17.566,3,0.1,0.00015694,1568.3,0.00015516,1520,-4.7146e-05,-0.024188,-5.9442e-05,-92.409,1.3799
28980,17.658,2.9091,0.1,0.00015644,1563.3,0.00015458,1513.1,-4.6802e-05,-0.026541,-5.9566e-05,-95.924,1.3919
28981,17.566,3.1818,0.1,0.00015681,1567,0.00015501,1518.2,-4.7058e-05,-0.022915,-5.9471e-05,-93.294,1.3798
28982,17.658,3.0909,0.1,0.00015644,1563.3,0.00015458,1513.1,-4.6802e-05,-0.026541,-5.9566e-05,-95.924,1.3919
28983,17.566,3.3636,0.1,0.00015641,1563,0.00015456,1512.9,-4.6797e-05,-0.019692,-5.9551e-05,-95.846,1.3798
28984,17.658,3.2727,0.1,0.00015614,1560.3,0.00015424,1509,-4.6601e-05,-0.023262,-5.963e-05,-97.919,1.3918
28985,17.566,3.5455,0.1,0.00015575,1556.5,0.00015382,1504.2,-4.638e-05,-0.015988,-5.9653e-05,-99.744,1.3797
28986,17.658,3.4545,0.1,0.00015553,1554.3,0.00015355,1500.9,-4.6208e-05,-0.018169,-5.974e-05,-101.69,1.3918
28987,17.566,3.7273,0.1,0.00015482,1547.1,0.00015278,1492.3,-4.583e-05,-0.013409,-5.9731e-05,-104.46,1.3795
28988,17.658,3.6364,0.1,0.00015463,1545.2,0.00015253,1489,-4.5647e-05,-0.013487,-5.9857e-05,-106.78,1.3916
28989,17.566,3.9091,0.1,0.0001536,1535,0.00015145,1477.4,-4.5181e-05,-0.012973,-5.9721e-05,-109.26,1.3794
28990,17.658,3.8182,0.1,0.00015341,1533,0.00015118,1473.7,-4.4951e-05,-0.011093,-5.9919e-05,-112.47,1.3915
28991,17.566,4.0909,0.1,0.00015209,1519.8,0.00014984,1460,-4.4472e-05,-0.014734,-5.955e-05,-113.3,1.3792
28992,17.658,4,0.1,0.00015186,1517.5,0.00014951,1455.1,-4.4162e-05,-0.01164,-5.9845e-05,-117.84,1.3913
28993,17.566,4.2727,0.1,0.00015027,1501.6,0.00014796,1440.4,-4.3746e-05,-0.017926,-5.9148e-05,-115.74,1.3789
28994,17.658,4.1818,0.1,0.00014996,1498.6,0.00014752,1433.9,-4.3329e-05,-0.014556,-5.9548e-05,-121.88,1.3911
28995,17.566,4.4545,0.1,0.00014816,1480.6,0.00014585,1419.2,-4.3043e-05,-0.021466,-5.8458e-05,-115.84,1.3786
28996,17.658,4.3636,0.1,0.00014773,1476.3,0.00014524,1410.6,-4.2501e-05,-0.018561,-5.8951e-05,-123.62,1.3908
28997,17.566,4.6364,0.1,0.0001458,1457,0.00014354,1397.1,-4.2405e-05,-0.024446,-5.7451e-05,-113.08,1.3783
28998,17.658,4.5455,0.1,0.00014519,1450.9,0.00014272,1385.8,-4.1727e-05,-0.022311,-5.8006e-05,-122.33,1.3905
28999,17.566,4.8182,0.1,0.00014324,1431.4,0.00014111,1374.8,-4.1862e-05,-0.026105,-5.6125e-05,-107.19,1.3779
29000,17.658,4.7273,0.1,0.0001424,1423,0.00014003,1360.5,-4.1046e-05,-0.025073,-5.6698e-05,-117.63,1.3901
29001,17.566,5,0.1,0.00014057,1404.7,0.00013864,1353,-4.1442e-05,-0.026326,-5.4503e-05,-98.163,1.3775
29002,17.658,4.9091,0.1,0.00013944,1393.4,0.00013725,1335.5,-4.049e-05,-0.026123,-5.5051e-05,-109.43,1.3897
29003,17.566,5.1818,0.1,0.00013786,1377.6,0.00013619,1332.6,-4.1163e-05,-0.022191,-5.2622e-05,-86.124,1.377
29004,17.658,5.0909,0.1,0.00013642,1363.3,0.00013449,1311.7,-4.0084e-05,-0.026183,-5.3111e-05,-97.905,1.3893
29005,17.566,5.3636,0.1,0.0001352,1351.1,0.00013385,1314,-4.104e-05,-0.018679,-5.0527e-05,-71.298,1.3766
29006,17.658,5.2727,0.1,0.00013344,1333.4,0.00013182,1289.8,-3.9842e-05,-0.018548,-5.0934e-05,-83.357,1.3888
29007,17.566,5.5455,0.1,0.00013266,1325.7,0.00013166,1298,-4.1079e-05,0.034929,-4.8255e-05,-53.878,1.3761
29008,17.658,5.4545,0.1,0.00013058,1304.9,0.00012933,1270.6,-3.9777e-05,-0.01999,-4.8571e-05,-66.096,1.3883
29009,17.566,5.7273,0.1,0.0001303,1302.1,0.00012969,1284.8,-4.1292e-05,0.083627,-4.5844e-05,-34.119,1.3755
29010,17.658,5.6364,0.1,0.00012791,1278.2,0.00012706,1254.5,-3.9888e-05,0.095411,-4.6061e-05,-46.286,1.3878
29011,17.658,5.8182,0.1,0.00012549,1254.1,0.00012507,1241.8,-4.0195e-05,0.11389,-4.3441e-05,-24.275,1.3872
29012,17.566,5.9091,0.1,0.00012824,1281.5,0.00012801,1274.7,-4.1648e-05,-0.00071757,-4.3448e-05,-13.525,1.3749
29013,17.751,0.27273,0.1,0.00012308,1230,0.00012242,1211.4,-3.8797e-05,0.080062,-4.3642e-05,-36.319,1.3996
29014,17.843,0.18182,0.1,0.00011778,1176.9,0.00011733,1164.2,-3.7601e-05,0.11065,-4.0971e-05,-25.214,1.4114
29015,17.751,0.090909,0.1,0.00012079,1207.1,0.00012055,1200.1,-3.9175e-05,-0.0051591,-4.1016e-05,-13.838,1.399
29016,17.751,0.45455,0.1,0.00012583,1257.4,0.00012473,1227.1,-3.8588e-05,0.031483,-4.6381e-05,-58.524,1.4001
29017,17.843,0.36364,0.1,0.00012056,1204.8,0.00011964,1179.2,-3.7286e-05,0.092938,-4.3924e-05,-49.781,1.4119
29018,17.751,0.63636,0.1,0.00012882,1287.4,0.00012732,1246.4,-3.858e-05,-0.023233,-4.8989e-05,-78.232,1.4006
29019,17.843,0.54545,0.1,0.00012367,1235.9,0.00012229,1198.3,-3.7196e-05,-0.027008,-4.6775e-05,-71.999,1.4124
29020,17.751,0.81818,0.1,0.00013202,1319.2,0.00013014,1269,-3.8764e-05,-0.024091,-5.1438e-05,-95.256,1.4011
29021,17.843,0.72727,0.1,0.00012707,1269.8,0.00012526,1221.5,-3.7311e-05,-0.021094,-4.9513e-05,-91.704,1.4129
29022,17.751,1,0.1,0.00013532,1352.2,0.00013313,1294.3,-3.9133e-05,-0.026745,-5.3678e-05,-109.31,1.4016
29023,17.843,0.90909,0.1,0.00013068,1305.9,0.0001285,1248.2,-3.7633e-05,-0.026581,-5.2094e-05,-108.68,1.4134
29024,17.751,1.1818,0.1,0.00013862,1385.3,0.00013619,1321.4,-3.9674e-05,-0.02543,-5.5644e-05,-120.01,1.402
29025,17.843,1.0909,0.1,0.0001344,1343.1,0.0001319,1277.7,-3.8153e-05,-0.02488,-5.4444e-05,-122.43,1.4138
29026,17.751,1.3636,0.1,0.00014182,1417.2,0.00013923,1349.4,-4.0368e-05,-0.023011,-5.7271e-05,-127.03,1.4023
29027,17.843,1.2727,0.1,0.00013809,1380,0.00013536,1309,-3.8857e-05,-0.022928,-5.6476e-05,-132.41,1.4142
29028,17.751,1.5455,0.1,0.00014479,1446.9,0.00014213,1377.3,-4.1185e-05,-0.019291,-5.8515e-05,-130.23,1.4027
29029,17.843,1.4545,0.1,0.00014161,1415.1,0.00013875,1341,-3.9721e-05,-0.019481,-5.8108e-05,-138.17,1.4146
29030,17.751,1.7273,0.1,0.00014745,1473.5,0.00014481,1404.2,-4.2085e-05,-0.014941,-5.9365e-05,-129.85,1.403
29031,17.843,1.6364,0.1,0.00014482,1447.2,0.00014194,1372.4,-4.071e-05,-0.014889,-5.9291e-05,-139.63,1.4149
29032,17.751,1.9091,0.1,0.00014975,1496.4,0.00014719,1429.2,-4.3019e-05,-0.011134,-5.9853e-05,-126.49,1.4032
29033,17.843,1.8182,0.1,0.00014765,1475.5,0.00014484,1402.1,-4.1771e-05,-0.0099662,-6.0029e-05,-137.19,1.4152
29034,17.751,2.0909,0.1,0.00015167,1515.6,0.00014924,1451.4,-4.3932e-05,-0.0094538,-6.005e-05,-121.11,1.4034
29035,17.843,2,0.1,0.00015005,1499.4,0.00014737,1429.2,-4.2844e-05,-0.0064461,-6.0383e-05,-131.78,1.4154
29036,17.751,2.2727,0.1,0.00015322,1531.1,0.00015094,1470.5,-4.4768e-05,-0.011035,-6.0049e-05,-114.82,1.4036
29037,17.843,2.1818,0.1,0.00015201,1519.1,0.00014951,1452.9,-4.3861e-05,-0.0066138,-6.0455e-05,-124.69,1.4156
29038,17.751,2.4545,0.1,0.00015441,1543,0.00015227,1485.8,-4.5476e-05,-0.015861,-5.9946e-05,-108.74,1.4038
29039,17.843,2.3636,0.1,0.00015357,1534.6,0.00015124,1472.6,-4.4757e-05,-0.011521,-6.0366e-05,-117.29,1.4158
29040,17.751,2.6364,0.1,0.00015526,1551.5,0.00015323,1497,-4.6012e-05,-0.022346,-5.9819e-05,-103.77,1.4039
29041,17.843,2.5455,0.1,0.00015473,1546.3,0.00015255,1487.9,-4.5478e-05,-0.019718,-6.022e-05,-110.79,1.4159
29042,17.751,2.8182,0.1,0.00015577,1556.6,0.00015382,1503.9,-4.6345e-05,-0.027846,-5.9724e-05,-100.55,1.4039
29043,17.843,2.7273,0.1,0.00015552,1554.1,0.00015344,1498.3,-4.598e-05,-0.028181,-6.0091e-05,-106.05,1.416
29044,17.751,3,0.1,0.00015594,1558.3,0.00015401,1506.2,-4.6459e-05,-0.029991,-5.9689e-05,-99.438,1.4039
29045,17.843,2.9091,0.1,0.00015591,1558,0.00015389,1503.6,-4.6238e-05,-0.033523,-6.0018e-05,-103.57,1.416
29046,17.751,3.1818,0.1,0.00015577,1556.6,0.00015382,1503.9,-4.6345e-05,-0.027847,-5.9724e-05,-100.55,1.4039
29047,17.843,3.0909,0.1,0.00015591,1558,0.00015389,1503.6,-4.6238e-05,-0.033523,-6.0018e-05,-103.57,1.416
29048,17.751,3.3636,0.1,0.00015526,1551.5,0.00015323,1497,-4.6012e-05,-0.022346,-5.9819e-05,-103.77,1.4039
29049,17.843,3.2727,0.1,0.00015552,1554.1,0.00015344,1498.3,-4.598e-05,-0.028182,-6.0091e-05,-106.05,1.416
29050,17.751,3.5455,0.1,0.00015441,1543,0.00015227,1485.8,-4.5476e-05,-0.015861,-5.9946e-05,-108.74,1.4038
29051,17.843,3.4545,0.1,0.00015473,1546.3,0.00015255,1487.9,-4.5478e-05,-0.019717,-6.022e-05,-110.79,1.4159
29052,17.751,3.7273,0.1,0.00015322,1531.1,0.00015094,1470.5,-4.4768e-05,-0.011034,-6.0049e-05,-114.82,1.4036
29053,17.843,3.6364,0.1,0.00015357,1534.6,0.00015124,1472.6,-4.4757e-05,-0.01152,-6.0366e-05,-117.29,1.4158
29054,17.751,3.9091,0.1,0.00015167,1515.6,0.00014924,1451.4,-4.3932e-05,-0.0094537,-6.005e-05,-121.11,1.4034
29055,17.843,3.8182,0.1,0.00015201,1519.1,0.00014951,1452.9,-4.3861e-05,-0.006614,-6.0455e-05,-124.69,1.4156
29056,17.751,4.0909,0.1,0.00014975,1496.4,0.00014719,1429.2,-4.3019e-05,-0.011134,-5.9853e-05,-126.49,1.4032
29057,17.843,4,0.1,0.00015005,1499.4,0.00014737,1429.2,-4.2844e-05,-0.0064458,-6.0383e-05,-131.78,1.4154
29058,17.751,4.2727,0.1,0.00014745,1473.5,0.00014481,1404.2,-4.2085e-05,-0.014941,-5.9365e-05,-129.85,1.403
29059,17.843,4.1818,0.1,0.00014765,1475.5,0.00014484,1402.1,-4.1771e-05,-0.0099667,-6.0029e-05,-137.19,1.4152
29060,17.751,4.4545,0.1,0.00014479,1446.9,0.00014213,1377.3,-4.1185e-05,-0.019291,-5.8515e-05,-130.23,1.4027
29061,17.843,4.3636,0.1,0.00014482,1447.2,0.00014194,1372.4,-4.071e-05,-0.014889,-5.9292e-05,-139.63,1.4149
29062,17.751,4.6364,0.1,0.00014182,1417.2,0.00013923,1349.4,-4.0368e-05,-0.02301,-5.7271e-05,-127.03,1.4023
29063,17.843,4.5455,0.1,0.00014161,1415.1,0.00013875,1341,-3.9721e-05,-0.01948,-5.8108e-05,-138.17,1.4146
29064,17.751,4.8182,0.1,0.00013862,1385.3,0.00013619,1321.4,-3.9674e-05,-0.02543,-5.5644e-05,-120.01,1.402
29065,17.843,4.7273,0.1,0.00013809,1380,0.00013536,1309,-3.8857e-05,-0.022928,-5.6476e-05,-132.41,1.4142
29066,17.751,5,0.1,0.00013532,1352.2,0.00013313,1294.3,-3.9133e-05,-0.026745,-5.3678e-05,-109.31,1.4016
29067,17.843,4.9091,0.1,0.0001344,1343.1,0.0001319,1277.7,-3.8153e-05,-0.02488,-5.4444e-05,-122.43,1.4138
29068,17.751,5.1818,0.1,0.00013202,1319.2,0.00013014,1269,-3.8764e-05,-0.02409,-5.1438e-05,-95.256,1.4011
29069,17.843,5.0909,0.1,0.00013068,1305.9,0.0001285,1248.2,-3.7633e-05,-0.02658,-5.2094e-05,-108.68,1.4134
29070,17.751,5.3636,0.1,0.00012882,1287.4,0.00012732,1246.4,-3.858e-05,-0.023231,-4.8989e-05,-78.232,1.4006
29071,17.843,5.2727,0.1,0.00012707,1269.8,0.00012526,1221.5,-3.7311e-05,-0.021092,-4.9513e-05,-91.705,1.4129
29072,17.751,5.5455,0.1,0.00012583,1257.4,0.00012473,1227.1,-3.8588e-05,0.031484,-4.6381e-05,-58.524,1.4001
29073,17.843,5.4545,0.1,0.00012367,1235.9,0.00012229,1198.3,-3.7196e-05,-0.027006,-4.6775e-05,-71.999,1.4124
29074,17.751,5.7273,0.1,0.00012308,1230,0.00012242,1211.4,-3.8797e-05,0.080062,-4.3642e-05,-36.319,1.3996
29075,17.843,5.6364,0.1,0.00012056,1204.8,0.00011964,1179.2,-3.7286e-05,0.092938,-4.3924e-05,-49.781,1.4119
29076,17.843,5.8182,0.1,0.00011778,1176.9,0.00011733,1164.2,-3.7601e-05,0.11065,-4.0971e-05,-25.214,1.4114
29077,17.751,5.9091,0.1,0.00012079,1207.1,0.00012055,1200.1,-3.9175e-05,-0.0051593,-4.1016e-05,-13.838,1.399
29078,17.936,0.27273,0.1,0.00011524,1151.6,0.00011454,1131.9,-3.6097e-05,0.067628,-4.1239e-05,-38.566,1.4237
29079,18.028,0.18182,0.1,0.00010938,1093,0.00010891,1079.7,-3.4783e-05,0.08897,-3.8278e-05,-26.173,1.4356
29080,17.936,0.090909,0.1,0.0001127,1126.3,0.00011246,1119.1,-3.6489e-05,-0.011731,-3.8373e-05,-14.165,1.4232
29081,17.936,0.45455,0.1,0.00011841,1183.3,0.00011721,1150.4,-3.5896e-05,0.024655,-4.4326e-05,-63.313,1.4243
29082,18.028,0.36364,0.1,0.00011255,1124.7,0.00011155,1097.2,-3.4467e-05,0.083429,-4.156e-05,-53.214,1.4361
29083,17.936,0.63636,0.1,0.00012194,1218.6,0.00012026,1173.5,-3.5927e-05,-0.028474,-4.7318e-05,-85.612,1.4248
29084,18.028,0.54545,0.1,0.00011615,1160.7,0.00011463,1119.7,-3.4404e-05,-0.036086,-4.4783e-05,-78.023,1.4366
29085,17.936,0.81818,0.1,0.00012577,1256.9,0.00012365,1200.9,-3.618e-05,-0.025223,-5.0196e-05,-105.33,1.4253
29086,18.028,0.72727,0.1,0.00012018,1201,0.00011816,1147.5,-3.4573e-05,-0.023649,-4.7964e-05,-100.64,1.4371
29087,17.936,1,0.1,0.00012981,1297.2,0.0001273,1231.9,-3.6653e-05,-0.025503,-5.2893e-05,-122.05,1.4257
29088,18.028,0.90909,0.1,0.00012457,1244.8,0.00012207,1180,-3.4983e-05,-0.025453,-5.1051e-05,-120.75,1.4376
29089,17.936,1.1818,0.1,0.00013392,1338.3,0.00013111,1265.6,-3.7335e-05,-0.022702,-5.5311e-05,-135.08,1.4261
29090,18.028,1.0909,0.1,0.00012917,1290.8,0.00012628,1216.5,-3.5631e-05,-0.021271,-5.3939e-05,-137.59,1.438
29091,17.936,1.3636,0.1,0.00013793,1378.4,0.00013492,1300.8,-3.821e-05,-0.019438,-5.7345e-05,-143.79,1.4265
29092,18.028,1.2727,0.1,0.0001338,1337.1,0.00013061,1255.6,-3.6507e-05,-0.018226,-5.649e-05,-150.16,1.4384
29093,17.936,1.5455,0.1,0.00014169,1415.9,0.00013859,1336.2,-3.9246e-05,-0.014924,-5.8911e-05,-147.77,1.4268
29094,18.028,1.4545,0.1,0.00013825,1381.5,0.00013489,1296,-3.7594e-05,-0.014448,-5.8568e-05,-157.61,1.4388
29095,17.936,1.7273,0.1,0.00014506,1449.6,0.00014199,1370.4,-4.0396e-05,-0.0096163,-5.9977e-05,-147.13,1.4271
29096,18.028,1.6364,0.1,0.00014234,1422.4,0.00013895,1335.9,-3.8849e-05,-0.0096421,-6.0077e-05,-159.51,1.4391
29097,17.936,1.9091,0.1,0.00014797,1478.7,0.00014503,1402.2,-4.1596e-05,-0.0048942,-6.0574e-05,-142.6,1.4274
29098,18.028,1.8182,0.1,0.00014592,1458.2,0.00014264,1373.8,-4.021e-05,-0.0038195,-6.1001e-05,-156.22,1.4394
29099,17.936,2.0909,0.1,0.0001504,1503,0.00014764,1430.7,-4.2773e-05,-0.0032618,-6.0799e-05,-135.44,1.4276
29100,18.028,2,0.1,0.00014896,1488.6,0.00014586,1408.5,-4.1593e-05,-0.00034038,-6.1417e-05,-148.95,1.4396
29101,17.936,2.2727,0.1,0.00015237,1522.7,0.00014981,1455.1,-4.385e-05,-0.0070085,-6.0779e-05,-127.2,1.4278
29102,18.028,2.1818,0.1,0.00015145,1513.4,0.00014859,1438.8,-4.2907e-05,-0.0018604,-6.1475e-05,-139.52,1.4398
29103,17.936,2.4545,0.1,0.0001539,1537.9,0.00015152,1474.7,-4.476e-05,-0.015769,-6.0644e-05,-119.36,1.4279
29104,18.028,2.3636,0.1,0.00015343,1533.2,0.0001508,1464.1,-4.4062e-05,-0.009559,-6.1345e-05,-129.87,1.44
29105,17.936,2.6364,0.1,0.00015499,1548.9,0.00015276,1489.2,-4.5446e-05,-0.026539,-6.0492e-05,-113.08,1.428
29106,18.028,2.5455,0.1,0.00015492,1548.2,0.00015249,1483.8,-4.4985e-05,-0.022574,-6.1166e-05,-121.6,1.4401
29107,17.936,2.8182,0.1,0.00015566,1555.5,0.00015351,1498.1,-4.5872e-05,-0.035333,-6.0384e-05,-109.07,1.4281
29108,18.028,2.7273,0.1,0.00015594,1558.3,0.00015365,1497.2,-4.5624e-05,-0.035855,-6.102e-05,-115.72,1.4402
29109,17.936,3,0.1,0.00015588,1557.7,0.00015377,1501.1,-4.6017e-05,-0.038717,-6.0345e-05,-107.7,1.4281
29110,18.028,2.9091,0.1,0.00015645,1563.5,0.00015423,1504,-4.595e-05,-0.043974,-6.0944e-05,-112.7,1.4402
29111,17.936,3.1818,0.1,0.00015566,1555.5,0.00015351,1498.1,-4.5872e-05,-0.035333,-6.0384e-05,-109.07,1.4281
29112,18.028,3.0909,0.1,0.00015645,1563.5,0.00015423,1504,-4.595e-05,-0.043974,-6.0944e-05,-112.7,1.4402
29113,17.936,3.3636,0.1,0.00015499,1548.9,0.00015276,1489.2,-4.5446e-05,-0.026539,-6.0492e-05,-113.08,1.428
29114,18.028,3.2727,0.1,0.00015594,1558.3,0.00015365,1497.2,-4.5624e-05,-0.035855,-6.102e-05,-115.72,1.4402
29115,17.936,3.5455,0.1,0.0001539,1537.9,0.00015152,1474.7,-4.476e-05,-0.015769,-6.0644e-05,-119.36,1.4279
29116,18.028,3.4545,0.1,0.00015492,1548.2,0.00015249,1483.8,-4.4985e-05,-0.022575,-6.1166e-05,-121.6,1.4401
29117,17.936,3.7273,0.1,0.00015237,1522.7,0.00014981,1455.1,-4.385e-05,-0.0070082,-6.0779e-05,-127.2,1.4278
29118,18.028,3.6364,0.1,0.00015343,1533.2,0.0001508,1464.1,-4.4062e-05,-0.0095581,-6.1345e-05,-129.87,1.44
29119,17.936,3.9091,0.1,0.0001504,1503,0.00014764,1430.7,-4.2773e-05,-0.0032618,-6.0799e-05,-135.44,1.4276
29120,18.028,3.8182,0.1,0.00015145,1513.4,0.00014859,1438.8,-4.2907e-05,-0.0018606,-6.1475e-05,-139.52,1.4398
29121,17.936,4.0909,0.1,0.00014797,1478.7,0.00014503,1402.2,-4.1596e-05,-0.0048943,-6.0575e-05,-142.6,1.4274
29122,18.028,4,0.1,0.00014896,1488.6,0.00014586,1408.5,-4.1593e-05,-0.00033972,-6.1417e-05,-148.95,1.4396
29123,17.936,4.2727,0.1,0.00014506,1449.6,0.00014199,1370.4,-4.0396e-05,-0.0096163,-5.9977e-05,-147.13,1.4271
29124,18.028,4.1818,0.1,0.00014592,1458.2,0.00014264,1373.8,-4.021e-05,-0.0038196,-6.1001e-05,-156.22,1.4394
29125,17.936,4.4545,0.1,0.00014169,1415.9,0.00013859,1336.2,-3.9246e-05,-0.014924,-5.8911e-05,-147.77,1.4268
29126,18.028,4.3636,0.1,0.00014234,1422.4,0.00013895,1335.9,-3.8849e-05,-0.0096416,-6.0077e-05,-159.51,1.4391
29127,17.936,4.6364,0.1,0.00013793,1378.4,0.00013492,1300.8,-3.821e-05,-0.019438,-5.7345e-05,-143.79,1.4265
29128,18.028,4.5455,0.1,0.00013825,1381.5,0.00013489,1296,-3.7594e-05,-0.014448,-5.8568e-05,-157.61,1.4388
29129,17.936,4.8182,0.1,0.00013392,1338.3,0.00013111,1265.6,-3.7335e-05,-0.022703,-5.5311e-05,-135.08,1.4261
29130,18.028,4.7273,0.1,0.0001338,1337.1,0.00013061,1255.6,-3.6507e-05,-0.018226,-5.649e-05,-150.16,1.4384
29131,17.936,5,0.1,0.00012981,1297.2,0.0001273,1231.9,-3.6652e-05,-0.025503,-5.2893e-05,-122.05,1.4257
29132,18.028,4.9091,0.1,0.00012917,1290.8,0.00012628,1216.5,-3.563e-05,-0.021271,-5.3939e-05,-137.59,1.438
29133,17.936,5.1818,0.1,0.00012577,1256.9,0.00012365,1200.9,-3.618e-05,-0.025222,-5.0196e-05,-105.33,1.4253
29134,18.028,5.0909,0.1,0.00012457,1244.8,0.00012207,1180,-3.4983e-05,-0.025453,-5.1051e-05,-120.75,1.4376
29135,17.936,5.3636,0.1,0.00012194,1218.6,0.00012026,1173.5,-3.5927e-05,-0.028472,-4.7318e-05,-85.612,1.4248
29136,18.028,5.2727,0.1,0.00012018,1201,0.00011816,1147.5,-3.4573e-05,-0.023648,-4.7964e-05,-100.64,1.4371
29137,17.936,5.5455,0.1,0.00011841,1183.3,0.00011721,1150.4,-3.5896e-05,0.024656,-4.4326e-05,-63.313,1.4243
29138,18.028,5.4545,0.1,0.00011615,1160.7,0.00011463,1119.7,-3.4404e-05,-0.036084,-4.4783e-05,-78.023,1.4366
29139,17.936,5.7273,0.1,0.00011524,1151.6,0.00011454,1131.9,-3.6097e-05,0.067628,-4.1239e-05,-38.566,1.4237
29140,18.028,5.6364,0.1,0.00011255,1124.7,0.00011155,1097.2,-3.4467e-05,0.083428,-4.156e-05,-53.214,1.4361
29141,18.028,5.8182,0.1,0.00010938,1093,0.00010891,1079.7,-3.4783e-05,0.088969,-3.8278e-05,-26.173,1.4356
29142,17.936,5.9091,0.1,0.0001127,1126.3,0.00011246,1119.1,-3.6489e-05,-0.011731,-3.8373e-05,-14.165,1.4232
29143,18.121,0.27273,0.1,0.00010667,1066,0.00010592,1045,-3.3161e-05,0.041845,-3.8588e-05,-40.738,1.448
29144,18.213,0.18182,0.1,0.0001002,1001.3,9.9711e-05,987.5,-3.1711e-05,0.040046,-3.5322e-05,-27.087,1.4598
29145,18.121,0.090909,0.1,0.00010387,1037.9,0.00010361,1030.6,-3.3558e-05,-0.021584,-3.5482e-05,-14.483,1.4474
29146,18.121,0.45455,0.1,0.0001103,1102.2,0.00010898,1066.6,-3.2975e-05,0.012545,-4.2033e-05,-68.039,1.4485
29147,18.213,0.36364,0.1,0.00010375,1036.7,0.00010267,1007.5,-3.1402e-05,0.06359,-3.8908e-05,-56.336,1.4604
29148,18.121,0.63636,0.1,0.00011443,1143.5,0.00011256,1094,-3.305e-05,-0.034949,-4.5462e-05,-93.292,1.449
29149,18.213,0.54545,0.1,0.00010789,1078.2,0.00010622,1033.7,-3.1371e-05,-0.04801,-4.2532e-05,-83.913,1.4609
29150,18.121,0.81818,0.1,0.00011904,1189.5,0.00011663,1127.1,-3.3377e-05,-0.025533,-4.8866e-05,-116.41,1.4495
29151,18.213,0.72727,0.1,0.00011267,1125.9,0.00011039,1066.8,-3.1597e-05,-0.0264,-4.6241e-05,-110.06,1.4614
29152,18.121,1,0.1,0.000124,1239.1,0.0001211,1165.1,-3.3961e-05,-0.02198,-5.2153e-05,-136.71,1.45
29153,18.213,0.90909,0.1,0.00011799,1179.1,0.00011513,1106.2,-3.2096e-05,-0.022151,-4.997e-05,-134.32,1.4619
29154,18.121,1.1818,0.1,0.00012912,1290.3,0.00012583,1206.9,-3.4803e-05,-0.017063,-5.5177e-05,-153.1,1.4504
29155,18.213,1.0909,0.1,0.0001237,1236.1,0.00012032,1151,-3.2877e-05,-0.013983,-5.357e-05,-155.5,1.4623
29156,18.121,1.3636,0.1,0.00013419,1341,0.00013063,1251.2,-3.5891e-05,-0.013212,-5.7768e-05,-164.39,1.4508
29157,18.213,1.2727,0.1,0.00012954,1294.5,0.00012575,1199.9,-3.3946e-05,-0.0091175,-5.6834e-05,-171.98,1.4627
29158,18.121,1.5455,0.1,0.00013896,1388.7,0.0001353,1296,-3.7196e-05,-0.008961,-5.9778e-05,-169.69,1.4511
29159,18.213,1.4545,0.1,0.00013521,1351.2,0.00013119,1250.9,-3.5294e-05,-0.0044941,-5.9535e-05,-182.14,1.4631
29160,18.121,1.7273,0.1,0.00014325,1431.5,0.00013963,1339.6,-3.8662e-05,-0.0035124,-6.1135e-05,-168.86,1.4514
29161,18.213,1.6364,0.1,0.00014044,1403.4,0.00013638,1301.8,-3.6881e-05,0.0015652,-6.1496e-05,-184.94,1.4634
29162,18.121,1.9091,0.1,0.00014695,1468.4,0.0001435,1380.3,-4.0207e-05,0.0011467,-6.1867e-05,-162.75,1.4517
29163,18.213,1.8182,0.1,0.00014501,1449.1,0.00014109,1350.4,-3.863e-05,0.0069301,-6.2661e-05,-180.55,1.4637
29164,18.121,2.0909,0.1,0.00015002,1499.2,0.00014683,1416.7,-4.1728e-05,0.0013964,-6.2109e-05,-153.14,1.4519
29165,18.213,2,0.1,0.00014885,1487.5,0.00014521,1394.8,-4.0425e-05,0.012575,-6.3134e-05,-170.62,1.464
29166,18.121,2.2727,0.1,0.00015251,1524.1,0.00014959,1448,-4.3119e-05,-0.004464,-6.205e-05,-142.25,1.4521
29167,18.213,2.1818,0.1,0.00015198,1518.8,0.00014868,1433.7,-4.2131e-05,0.0094632,-6.3142e-05,-157.86,1.4642
29168,18.121,2.4545,0.1,0.00015446,1543.5,0.00015178,1473.2,-4.4287e-05,-0.017127,-6.1871e-05,-132.13,1.4522
29169,18.213,2.3636,0.1,0.00015448,1543.8,0.0001515,1466.1,-4.3621e-05,-0.0076494,-6.294e-05,-145.16,1.4643
29170,18.121,2.6364,0.1,0.00015587,1557.6,0.00015338,1491.8,-4.5162e-05,-0.033463,-6.1694e-05,-124.24,1.4523
29171,18.213,2.5455,0.1,0.0001564,1562.9,0.00015367,1491.2,-4.4798e-05,-0.029121,-6.2718e-05,-134.67,1.4645
29172,18.121,2.8182,0.1,0.00015673,1566.2,0.00015436,1503.1,-4.5702e-05,-0.046678,-6.1578e-05,-119.33,1.4524
29173,18.213,2.7273,0.1,0.00015771,1576,0.00015515,1508.3,-4.5604e-05,-0.047876,-6.2566e-05,-127.49,1.4645
29174,18.121,3,0.1,0.00015702,1569.2,0.00015469,1507,-4.5884e-05,-0.051633,-6.1539e-05,-117.67,1.4524
29175,18.213,2.9091,0.1,0.00015838,1582.7,0.0001559,1517,-4.6011e-05,-0.059062,-6.2495e-05,-123.91,1.4646
29176,18.121,3.1818,0.1,0.00015673,1566.2,0.00015436,1503.1,-4.5702e-05,-0.046678,-6.1578e-05,-119.33,1.4524
29177,18.213,3.0909,0.1,0.00015838,1582.7,0.0001559,1517,-4.6011e-05,-0.059063,-6.2495e-05,-123.91,1.4646
29178,18.121,3.3636,0.1,0.00015587,1557.6,0.00015338,1491.8,-4.5162e-05,-0.033464,-6.1694e-05,-124.24,1.4523
29179,18.213,3.2727,0.1,0.00015771,1576,0.00015515,1508.3,-4.5604e-05,-0.047875,-6.2566e-05,-127.49,1.4645
29180,18.121,3.5455,0.1,0.00015446,1543.5,0.00015178,1473.2,-4.4287e-05,-0.017128,-6.1871e-05,-132.13,1.4522
29181,18.213,3.4545,0.1,0.0001564,1562.9,0.00015367,1491.2,-4.4798e-05,-0.029121,-6.2718e-05,-134.67,1.4645
29182,18.121,3.7273,0.1,0.00015251,1524.1,0.00014959,1448,-4.3119e-05,-0.0044636,-6.205e-05,-142.25,1.4521
29183,18.213,3.6364,0.1,0.00015448,1543.8,0.0001515,1466.1,-4.3621e-05,-0.0076487,-6.294e-05,-145.16,1.4643
29184,18.121,3.9091,0.1,0.00015002,1499.2,0.00014683,1416.7,-4.1728e-05,0.001397,-6.2109e-05,-153.14,1.4519
29185,18.213,3.8182,0.1,0.00015198,1518.8,0.00014868,1433.7,-4.2131e-05,0.0094629,-6.3142e-05,-157.86,1.4642
29186,18.121,4.0909,0.1,0.00014695,1468.4,0.0001435,1380.3,-4.0207e-05,0.0011474,-6.1867e-05,-162.75,1.4517
29187,18.213,4,0.1,0.00014885,1487.5,0.00014521,1394.8,-4.0425e-05,0.012575,-6.3134e-05,-170.62,1.464
29188,18.121,4.2727,0.1,0.00014325,1431.5,0.00013963,1339.6,-3.8662e-05,-0.0035119,-6.1135e-05,-168.86,1.4514
29189,18.213,4.1818,0.1,0.00014501,1449.1,0.00014109,1350.4,-3.863e-05,0.0069302,-6.2661e-05,-180.55,1.4637
29190,18.121,4.4545,0.1,0.00013896,1388.7,0.0001353,1296,-3.7196e-05,-0.0089608,-5.9779e-05,-169.69,1.4511
29191,18.213,4.3636,0.1,0.00014044,1403.4,0.00013638,1301.8,-3.6881e-05,0.0015653,-6.1496e-05,-184.94,1.4634
29192,18.121,4.6364,0.1,0.00013419,1341,0.00013063,1251.2,-3.5891e-05,-0.013211,-5.7768e-05,-164.39,1.4508
29193,18.213,4.5455,0.1,0.00013521,1351.2,0.00013119,1250.9,-3.5294e-05,-0.004494,-5.9535e-05,-182.14,1.4631
29194,18.121,4.8182,0.1,0.00012912,1290.3,0.00012583,1206.9,-3.4803e-05,-0.017062,-5.5177e-05,-153.1,1.4504
29195,18.213,4.7273,0.1,0.00012954,1294.5,0.00012575,1199.9,-3.3946e-05,-0.0091174,-5.6834e-05,-171.98,1.4627
29196,18.121,5,0.1,0.000124,1239.1,0.0001211,1165.1,-3.3961e-05,-0.02198,-5.2153e-05,-136.71,1.45
29197,18.213,4.9091,0.1,0.0001237,1236.1,0.00012032,1151,-3.2877e-05,-0.013983,-5.3571e-05,-155.5,1.4623
29198,18.121,5.1818,0.1,0.00011904,1189.5,0.00011663,1127.1,-3.3377e-05,-0.025532,-4.8866e-05,-116.41,1.4495
29199,18.213,5.0909,0.1,0.00011799,1179.1,0.00011513,1106.2,-3.2096e-05,-0.02215,-4.997e-05,-134.32,1.4619
29200,18.121,5.3636,0.1,0.00011443,1143.5,0.00011256,1094,-3.305e-05,-0.034948,-4.5462e-05,-93.292,1.449
29201,18.213,5.2727,0.1,0.00011267,1125.9,0.00011039,1066.8,-3.1597e-05,-0.026399,-4.6241e-05,-110.06,1.4614
29202,18.121,5.5455,0.1,0.0001103,1102.2,0.00010898,1066.6,-3.2975e-05,0.012545,-4.2033e-05,-68.039,1.4485
29203,18.213,5.4545,0.1,0.00010789,1078.2,0.00010622,1033.7,-3.1371e-05,-0.048008,-4.2532e-05,-83.913,1.4609
29204,18.121,5.7273,0.1,0.00010667,1066,0.00010592,1045,-3.3161e-05,0.041844,-3.8588e-05,-40.738,1.448
29205,18.213,5.6364,0.1,0.00010375,1036.7,0.00010267,1007.5,-3.1402e-05,0.063589,-3.8908e-05,-56.336,1.4604
29206,18.213,5.8182,0.1,0.0001002,1001.3,9.9711e-05,987.5,-3.1711e-05,0.040046,-3.5322e-05,-27.087,1.4598
29207,18.121,5.9091,0.1,0.00010387,1037.9,0.00010361,1030.6,-3.3558e-05,-0.021584,-3.5482e-05,-14.483,1.4474
29208,18.306,0.27273,0.1,9.7264e-05,971.96,9.6468e-05,949.94,-2.9961e-05,-0.0016571,-3.5638e-05,-42.651,1.4723
29209,18.398,0.18182,0.1,9.0147e-05,900.85,8.964e-05,886.58,-2.8362e-05,-0.044463,-3.2063e-05,-27.851,1.4842
29210,18.306,0.090909,0.1,9.4174e-05,941.09,9.3914e-05,933.61,-3.0347e-05,-0.03549,-3.2305e-05,-14.75,1.4717
29211,18.306,0.45455,0.1,0.00010136,1012.9,9.9935e-05,974.76,-2.9799e-05,-0.0066906,-3.9436e-05,-72.415,1.4728
29212,18.398,0.36364,0.1,9.4038e-05,939.73,9.29e-05,908.96,-2.8071e-05,0.028862,-3.5903e-05,-58.816,1.4847
29213,18.306,0.63636,0.1,0.00010618,1061.1,0.0001041,1006.9,-2.9918e-05,-0.042951,-4.3365e-05,-101.08,1.4733
29214,18.398,0.54545,0.1,9.877e-05,987.02,9.6945e-05,939.28,-2.8074e-05,-0.064917,-3.9956e-05,-89.349,1.4853
29215,18.306,0.81818,0.1,0.00011171,1116.4,0.00010897,1046.5,-3.0316e-05,-0.024554,-4.7422e-05,-128.55,1.4738
29216,18.398,0.72727,0.1,0.00010441,1043.4,0.00010185,978.24,-2.8349e-05,-0.031283,-4.4298e-05,-119.86,1.4858
29217,18.306,1,0.1,0.00011781,1177.3,0.00011444,1092.9,-3.1011e-05,-0.014807,-5.148e-05,-153.81,1.4743
29218,18.398,0.90909,0.1,0.00011088,1108,0.00010757,1025.6,-2.8925e-05,-0.017997,-4.8847e-05,-149.7,1.4862
29219,18.306,1.1818,0.1,0.00012424,1241.6,0.00012033,1144.7,-3.202e-05,-0.0061781,-5.5325e-05,-175.11,1.4747
29220,18.398,1.0909,0.1,0.00011798,1179,0.00011396,1080.4,-2.983e-05,-0.0029283,-5.34e-05,-177.1,1.4867
29221,18.306,1.3636,0.1,0.00013069,1305.9,0.0001264,1200.3,-3.3349e-05,-0.00024142,-5.8691e-05,-190.41,1.4751
29222,18.398,1.2727,0.1,0.00012538,1253,0.00012079,1141.3,-3.1098e-05,0.0067401,-5.7652e-05,-199.51,1.4871
29223,18.306,1.5455,0.1,0.00013679,1367,0.00013235,1257.2,-3.498e-05,0.0063219,-6.1326e-05,-197.95,1.4755
29224,18.398,1.4545,0.1,0.00013267,1325.8,0.00012773,1205.8,-3.2746e-05,0.0093036,-6.1243e-05,-214.1,1.4875
29225,18.306,1.7273,0.1,0.00014228,1421.8,0.00013789,1313,-3.685e-05,0.012352,-6.3076e-05,-197.04,1.4758
29226,18.398,1.6364,0.1,0.00013941,1393.2,0.0001344,1270.9,-3.4748e-05,0.0054191,-6.385e-05,-218.65,1.4878
29227,18.306,1.9091,0.1,0.00014696,1468.6,0.00014284,1365.2,-3.8849e-05,0.018734,-6.3965e-05,-188.69,1.476
29228,18.398,1.8182,0.1,0.00014527,1451.7,0.00014047,1333.5,-3.7009e-05,0.014192,-6.533e-05,-212.78,1.4881
29229,18.306,2.0909,0.1,0.00015084,1507.3,0.00014708,1411.9,-4.0828e-05,0.020858,-6.4189e-05,-175.5,1.4763
29230,18.398,2,0.1,0.00015011,1500.1,0.00014574,1390.8,-3.9361e-05,0.0077077,-6.582e-05,-198.8,1.4884
29231,18.306,2.2727,0.1,0.00015397,1538.6,0.0001506,1451.9,-4.2633e-05,0.0058642,-6.4042e-05,-160.86,1.4765
29232,18.398,2.1818,0.1,0.00015402,1539.2,0.00015014,1440.6,-4.1597e-05,-0.0059778,-6.5689e-05,-181.03,1.4886
29233,18.306,2.4545,0.1,0.00015643,1563.2,0.00015339,1484.1,-4.4132e-05,-0.021103,-6.379e-05,-147.73,1.4766
29234,18.398,2.3636,0.1,0.00015715,1570.4,0.00015371,1481.9,-4.3522e-05,-0.014541,-6.535e-05,-164.01,1.4888
29235,18.306,2.6364,0.1,0.00015823,1581.2,0.00015543,1507.7,-4.524e-05,-0.045996,-6.3587e-05,-137.9,1.4767
29236,18.398,2.5455,0.1,0.00015955,1594.4,0.00015645,1513.7,-4.5012e-05,-0.040578,-6.5068e-05,-150.74,1.4889
29237,18.306,2.8182,0.1,0.00015934,1592.3,0.00015668,1522.2,-4.5913e-05,-0.063324,-6.3476e-05,-132.02,1.4768
29238,18.398,2.7273,0.1,0.00016121,1611,0.00015832,1535.2,-4.6008e-05,-0.066874,-6.492e-05,-142.17,1.489
29239,18.306,3,0.1,0.00015972,1596.1,0.00015711,1527,-4.6138e-05,-0.069738,-6.3442e-05,-130.09,1.4768
29240,18.398,2.9091,0.1,0.00016206,1619.5,0.00015927,1546,-4.6502e-05,-0.079114,-6.4869e-05,-138.08,1.489
29241,18.306,3.1818,0.1,0.00015934,1592.3,0.00015668,1522.2,-4.5913e-05,-0.063325,-6.3476e-05,-132.02,1.4768
29242,18.398,3.0909,0.1,0.00016206,1619.5,0.00015927,1546,-4.6502e-05,-0.079115,-6.4869e-05,-138.08,1.489
29243,18.306,3.3636,0.1,0.00015823,1581.2,0.00015543,1507.7,-4.524e-05,-0.045996,-6.3587e-05,-137.9,1.4767
29244,18.398,3.2727,0.1,0.00016121,1611,0.00015832,1535.2,-4.6008e-05,-0.066873,-6.492e-05,-142.17,1.489
29245,18.306,3.5455,0.1,0.00015643,1563.2,0.00015339,1484.1,-4.4132e-05,-0.021103,-6.379e-05,-147.73,1.4766
29246,18.398,3.4545,0.1,0.00015955,1594.4,0.00015645,1513.7,-4.5012e-05,-0.040578,-6.5068e-05,-150.74,1.4889
29247,18.306,3.7273,0.1,0.00015397,1538.6,0.0001506,1451.9,-4.2633e-05,0.0058643,-6.4042e-05,-160.86,1.4765
29248,18.398,3.6364,0.1,0.00015715,1570.4,0.00015371,1481.9,-4.3522e-05,-0.014541,-6.535e-05,-164.01,1.4888
29249,18.306,3.9091,0.1,0.00015084,1507.3,0.00014708,1411.9,-4.0828e-05,0.020857,-6.4189e-05,-175.5,1.4763
29250,18.398,3.8182,0.1,0.00015402,1539.2,0.00015014,1440.6,-4.1597e-05,-0.005978,-6.5689e-05,-181.03,1.4886
29251,18.306,4.0909,0.1,0.00014696,1468.6,0.00014284,1365.2,-3.8849e-05,0.018734,-6.3965e-05,-188.69,1.476
29252,18.398,4,0.1,0.00015011,1500.1,0.00014574,1390.8,-3.9361e-05,0.0077074,-6.582e-05,-198.8,1.4884
29253,18.306,4.2727,0.1,0.00014228,1421.8,0.00013789,1313,-3.685e-05,0.012352,-6.3076e-05,-197.04,1.4758
29254,18.398,4.1818,0.1,0.00014527,1451.7,0.00014047,1333.5,-3.7009e-05,0.014192,-6.533e-05,-212.78,1.4881
29255,18.306,4.4545,0.1,0.00013679,1367,0.00013235,1257.2,-3.498e-05,0.006322,-6.1326e-05,-197.95,1.4755
29256,18.398,4.3636,0.1,0.00013941,1393.2,0.0001344,1270.9,-3.4748e-05,0.0054185,-6.385e-05,-218.65,1.4878
29257,18.306,4.6364,0.1,0.00013069,1305.9,0.0001264,1200.3,-3.3349e-05,-0.00024136,-5.8691e-05,-190.41,1.4751
29258,18.398,4.5455,0.1,0.00013267,1325.8,0.00012773,1205.8,-3.2746e-05,0.0093037,-6.1243e-05,-214.1,1.4875
29259,18.306,4.8182,0.1,0.00012424,1241.6,0.00012033,1144.7,-3.202e-05,-0.0061781,-5.5325e-05,-175.11,1.4747
29260,18.398,4.7273,0.1,0.00012538,1253,0.00012079,1141.2,-3.1098e-05,0.0067394,-5.7653e-05,-199.51,1.4871
29261,18.306,5,0.1,0.00011781,1177.3,0.00011444,1092.9,-3.1011e-05,-0.014806,-5.148e-05,-153.81,1.4743
29262,18.398,4.9091,0.1,0.00011798,1179,0.00011396,1080.4,-2.983e-05,-0.0029275,-5.34e-05,-177.1,1.4867
29263,18.306,5.1818,0.1,0.00011171,1116.4,0.00010897,1046.5,-3.0316e-05,-0.024553,-4.7422e-05,-128.55,1.4738
29264,18.398,5.0909,0.1,0.00011088,1108,0.00010757,1025.6,-2.8925e-05,-0.017995,-4.8847e-05,-149.7,1.4862
29265,18.306,5.3636,0.1,0.00010618,1061.1,0.0001041,1006.9,-2.9918e-05,-0.04295,-4.3365e-05,-101.08,1.4733
29266,18.398,5.2727,0.1,0.00010441,1043.4,0.00010185,978.24,-2.8349e-05,-0.031282,-4.4298e-05,-119.86,1.4858
29267,18.306,5.5455,0.1,0.00010136,1012.9,9.9935e-05,974.76,-2.9799e-05,-0.0066909,-3.9436e-05,-72.415,1.4728
29268,18.398,5.4545,0.1,9.877e-05,987.02,9.6945e-05,939.28,-2.8074e-05,-0.064917,-3.9956e-05,-89.349,1.4853
29269,18.306,5.7273,0.1,9.7264e-05,971.96,9.6468e-05,949.94,-2.9961e-05,-0.0016578,-3.5638e-05,-42.651,1.4723
29270,18.398,5.6364,0.1,9.4038e-05,939.73,9.29e-05,908.96,-2.8071e-05,0.028862,-3.5903e-05,-58.816,1.4847
29271,18.398,5.8182,0.1,9.0147e-05,900.85,8.964e-05,886.58,-2.8362e-05,-0.044464,-3.2063e-05,-27.851,1.4842
29272,18.306,5.9091,0.1,9.4174e-05,941.09,9.3914e-05,933.61,-3.0347e-05,-0.03549,-3.2305e-05,-14.75,1.4717
29273,18.491,0.27273,0.1,8.692e-05,868.6,8.6086e-05,845.7,-2.6479e-05,-0.068075,-3.2335e-05,-44.064,1.4966
29274,18.583,0.18182,0.1,7.9155e-05,791,7.8633e-05,776.39,-2.4719e-05,-0.1614,-2.8467e-05,-28.318,1.5086
29275,18.491,0.090909,0.1,8.3538e-05,834.81,8.3274e-05,827.23,-2.6831e-05,-0.056682,-2.8806e-05,-14.896,1.4961
29276,18.491,0.45455,0.1,9.149e-05,914.27,8.9957e-05,873.83,-2.6347e-05,-0.037357,-3.647e-05,-76.097,1.4972
29277,18.583,0.36364,0.1,8.3337e-05,832.8,8.2148e-05,801.02,-2.4464e-05,-0.020217,-3.2482e-05,-60.27,1.5091
29278,18.491,0.63636,0.1,9.7094e-05,970.27,9.4784e-05,911.26,-2.6505e-05,-0.056017,-4.0978e-05,-108.8,1.4977
29279,18.583,0.54545,0.1,8.8705e-05,886.43,8.6729e-05,835.64,-2.4498e-05,-0.084606,-3.7002e-05,-94.03,1.5097
29280,18.491,0.81818,0.1,0.00010373,1036.6,0.00010058,958.26,-2.6958e-05,-0.025929,-4.5851e-05,-141.98,1.4982
29281,18.583,0.72727,0.1,9.5349e-05,952.83,9.2467e-05,881.09,-2.4804e-05,-0.037398,-4.2113e-05,-130.09,1.5102
29282,18.491,1,0.1,0.00011124,1111.7,0.00010725,1014.3,-2.7744e-05,-0.0065827,-5.0924e-05,-174.17,1.4987
29283,18.583,0.90909,0.1,0.0001032,1031.3,9.9327e-05,937.31,-2.5423e-05,-0.010725,-4.7712e-05,-167.48,1.5107
29284,18.491,1.1818,0.1,0.00011934,1192.5,0.00011459,1078.2,-2.8909e-05,0.010054,-5.5893e-05,-202.74,1.4991
29285,18.583,1.0909,0.1,0.00011203,1119.6,0.00010717,1003.7,-2.6414e-05,0.016967,-5.3536e-05,-203.77,1.5111
29286,18.491,1.3636,0.1,0.00012758,1274.9,0.00012227,1147.9,-3.0495e-05,0.016705,-6.0356e-05,-224.35,1.4995
29287,18.583,1.2727,0.1,0.00012146,1213.7,0.00011573,1078.9,-2.7857e-05,0.032809,-5.917e-05,-235.24,1.5116
29288,18.491,1.5455,0.1,0.00013546,1353.7,0.0001299,1220.4,-3.2515e-05,0.0089015,-6.3888e-05,-235.72,1.4999
29289,18.583,1.4545,0.1,0.00013091,1308.2,0.00012462,1160.5,-2.9825e-05,0.045483,-6.4064e-05,-257.22,1.512
29290,18.491,1.7273,0.1,0.00014252,1424.2,0.00013706,1292.1,-3.4907e-05,0.0076129,-6.6188e-05,-235.02,1.5002
29291,18.583,1.6364,0.1,0.0001397,1396.1,0.00013329,1244.5,-3.2333e-05,0.082773,-6.7635e-05,-265.16,1.5123
29292,18.491,1.9091,0.1,0.00014848,1483.8,0.00014342,1359.5,-3.7521e-05,0.0033789,-6.7238e-05,-223.28,1.5005
29293,18.583,1.8182,0.1,0.00014727,1471.7,0.00014119,1326.1,-3.5289e-05,0.046017,-6.9539e-05,-257.3,1.5126
29294,18.491,2.0909,0.1,0.00015333,1532.3,0.00014882,1419.7,-4.013e-05,-0.01927,-6.735e-05,-204.54,1.5007
29295,18.583,2,0.1,0.00015337,1532.6,0.00014796,1400.5,-3.8426e-05,0.072112,-6.9938e-05,-236.7,1.5129
29296,18.491,2.2727,0.1,0.00015721,1571.1,0.00015327,1470.8,-4.2487e-05,-0.027641,-6.7009e-05,-184.28,1.5009
29297,18.583,2.1818,0.1,0.00015818,1580.7,0.00015354,1464.8,-4.14e-05,0.071652,-6.9473e-05,-210.86,1.5131
29298,18.491,2.4545,0.1,0.00016027,1601.6,0.00015677,1511.5,-4.4402e-05,-0.036793,-6.6628e-05,-167.03,1.5011
29299,18.583,2.3636,0.1,0.000162,1618.9,0.00015799,1516.9,-4.3905e-05,-0.036078,-6.8857e-05,-187.52,1.5133
29300,18.491,2.6364,0.1,0.00016252,1624.1,0.00015933,1541.1,-4.578e-05,-0.065197,-6.6391e-05,-154.93,1.5012
29301,18.583,2.5455,0.1,0.00016493,1648.2,0.00016136,1556.1,-4.5757e-05,-0.075419,-6.847e-05,-170.73,1.5134
29302,18.491,2.8182,0.1,0.00016392,1638,0.00016089,1558.9,-4.6597e-05,-0.086626,-6.6297e-05,-148.11,1.5013
29303,18.583,2.7273,0.1,0.00016694,1668.2,0.00016362,1582,-4.694e-05,-0.0906,-6.8329e-05,-160.8,1.5135
29304,18.491,3,0.1,0.00016439,1642.7,0.00016142,1564.9,-4.6866e-05,-0.09244,-6.6277e-05,-145.94,1.5013
29305,18.583,2.9091,0.1,0.00016796,1678.4,0.00016475,1594.7,-4.7509e-05,-0.10101,-6.8306e-05,-156.36,1.5136
29306,18.491,3.1818,0.1,0.00016392,1638,0.00016089,1558.9,-4.6597e-05,-0.086626,-6.6297e-05,-148.11,1.5013
29307,18.583,3.0909,0.1,0.00016796,1678.4,0.00016475,1594.7,-4.7509e-05,-0.10101,-6.8306e-05,-156.36,1.5136
29308,18.491,3.3636,0.1,0.00016252,1624.1,0.00015933,1541.1,-4.578e-05,-0.065196,-6.6391e-05,-154.93,1.5012
29309,18.583,3.2727,0.1,0.00016694,1668.2,0.00016362,1582,-4.694e-05,-0.0906,-6.8329e-05,-160.8,1.5135
29310,18.491,3.5455,0.1,0.00016027,1601.6,0.00015677,1511.5,-4.4402e-05,-0.036793,-6.6628e-05,-167.03,1.5011
29311,18.583,3.4545,0.1,0.00016493,1648.2,0.00016136,1556.1,-4.5757e-05,-0.075418,-6.847e-05,-170.73,1.5134
29312,18.491,3.7273,0.1,0.00015721,1571.1,0.00015327,1470.8,-4.2487e-05,-0.027641,-6.7009e-05,-184.28,1.5009
29313,18.583,3.6364,0.1,0.000162,1618.9,0.00015799,1516.9,-4.3905e-05,-0.036077,-6.8857e-05,-187.52,1.5133
29314,18.491,3.9091,0.1,0.00015333,1532.3,0.00014882,1419.7,-4.013e-05,-0.01927,-6.735e-05,-204.54,1.5007
29315,18.583,3.8182,0.1,0.00015818,1580.7,0.00015354,1464.8,-4.14e-05,0.071652,-6.9473e-05,-210.86,1.5131
29316,18.491,4.0909,0.1,0.00014848,1483.8,0.00014342,1359.5,-3.7521e-05,0.003379,-6.7238e-05,-223.28,1.5005
29317,18.583,4,0.1,0.00015337,1532.6,0.00014796,1400.5,-3.8426e-05,0.072112,-6.9938e-05,-236.7,1.5129
29318,18.491,4.2727,0.1,0.00014252,1424.2,0.00013706,1292.1,-3.4907e-05,0.0076128,-6.6188e-05,-235.02,1.5002
29319,18.583,4.1818,0.1,0.00014727,1471.7,0.00014119,1326.1,-3.5289e-05,0.046018,-6.9539e-05,-257.3,1.5126
29320,18.491,4.4545,0.1,0.00013546,1353.7,0.0001299,1220.4,-3.2515e-05,0.008901,-6.3888e-05,-235.72,1.4999
29321,18.583,4.3636,0.1,0.0001397,1396.1,0.00013329,1244.5,-3.2333e-05,0.082773,-6.7635e-05,-265.16,1.5123
29322,18.491,4.6364,0.1,0.00012758,1274.9,0.00012227,1147.9,-3.0495e-05,0.016705,-6.0356e-05,-224.35,1.4995
29323,18.583,4.5455,0.1,0.00013091,1308.2,0.00012462,1160.5,-2.9825e-05,0.045482,-6.4064e-05,-257.22,1.512
29324,18.491,4.8182,0.1,0.00011934,1192.5,0.00011459,1078.2,-2.8909e-05,0.010055,-5.5893e-05,-202.74,1.4991
29325,18.583,4.7273,0.1,0.00012146,1213.7,0.00011573,1078.9,-2.7857e-05,0.032809,-5.917e-05,-235.24,1.5116
29326,18.491,5,0.1,0.00011124,1111.7,0.00010725,1014.3,-2.7744e-05,-0.0065812,-5.0924e-05,-174.17,1.4987
29327,18.583,4.9091,0.1,0.00011203,1119.6,0.00010717,1003.7,-2.6414e-05,0.016968,-5.3536e-05,-203.77,1.5111
29328,18.491,5.1818,0.1,0.00010373,1036.6,0.00010058,958.26,-2.6958e-05,-0.025927,-4.5851e-05,-141.98,1.4982
29329,18.583,5.0909,0.1,0.0001032,1031.3,9.9327e-05,937.31,-2.5423e-05,-0.010725,-4.7712e-05,-167.48,1.5107
29330,18.491,5.3636,0.1,9.7094e-05,970.27,9.4784e-05,911.26,-2.6505e-05,-0.056016,-4.0978e-05,-108.8,1.4977
29331,18.583,5.2727,0.1,9.5349e-05,952.83,9.2467e-05,881.09,-2.4804e-05,-0.037396,-4.2113e-05,-130.09,1.5102
29332,18.491,5.5455,0.1,9.149e-05,914.27,8.9957e-05,873.83,-2.6347e-05,-0.037357,-3.647e-05,-76.097,1.4972
29333,18.583,5.4545,0.1,8.8705e-05,886.43,8.6729e-05,835.64,-2.4498e-05,-0.084605,-3.7002e-05,-94.03,1.5097
29334,18.491,5.7273,0.1,8.692e-05,868.6,8.6086e-05,845.7,-2.6479e-05,-0.068076,-3.2335e-05,-44.064,1.4966
29335,18.583,5.6364,0.1,8.3337e-05,832.8,8.2148e-05,801.02,-2.4464e-05,-0.020217,-3.2482e-05,-60.27,1.5091
29336,18.583,5.8182,0.1,7.9155e-05,791,7.8633e-05,776.39,-2.4719e-05,-0.1614,-2.8467e-05,-28.318,1.5086
29337,18.491,5.9091,0.1,8.3538e-05,834.81,8.3274e-05,827.23,-2.6831e-05,-0.056682,-2.8806e-05,-14.896,1.4961
29338,18.675,0.27273,0.1,7.5584e-05,755.32,7.4723e-05,731.91,-2.2708e-05,-0.14625,-2.8638e-05,-44.7,1.5211
29339,18.768,0.18182,0.1,6.7205e-05,671.59,6.6675e-05,656.85,-2.0786e-05,-0.29924,-2.4514e-05,-28.306,1.533
29340,18.675,0.090909,0.1,7.1905e-05,718.56,7.1641e-05,711,-2.2998e-05,-0.076524,-2.4959e-05,-14.811,1.5205
29341,18.675,0.45455,0.1,8.0629e-05,805.73,7.8998e-05,763.41,-2.2615e-05,-0.071407,-3.3092e-05,-78.787,1.5216
29342,18.768,0.36364,0.1,7.1625e-05,715.76,7.0406e-05,683.62,-2.059e-05,-0.090166,-2.8614e-05,-60.379,1.5336
29343,18.675,0.63636,0.1,8.7129e-05,870.69,8.4562e-05,806.59,-2.2797e-05,-0.067026,-3.8285e-05,-116.44,1.5222
29344,18.768,0.54545,0.1,7.7717e-05,776.63,7.5585e-05,722.97,-2.0652e-05,-0.11728,-3.3671e-05,-97.941,1.5341
29345,18.675,0.81818,0.1,9.5085e-05,950.2,9.143e-05,861.78,-2.3269e-05,-0.022704,-4.419e-05,-157.22,1.5227
29346,18.768,0.72727,0.1,8.5554e-05,854.95,8.2271e-05,775.52,-2.0953e-05,-0.060742,-3.9739e-05,-141.22,1.5347
29347,18.675,1,0.1,0.00010433,1042.6,9.9508e-05,928.71,-2.4093e-05,0.012573,-5.059e-05,-199.07,1.5232
29348,18.768,0.90909,0.1,9.5052e-05,949.86,9.0422e-05,841.29,-2.155e-05,-0.021746,-4.6672e-05,-188.77,1.5352
29349,18.675,1.1818,0.1,0.00011453,1144.5,0.0001086,1006.6,-2.5363e-05,0.039938,-5.7095e-05,-238.38,1.5236
29350,18.768,1.0909,0.1,0.00010599,1059.2,9.9931e-05,920.23,-2.2543e-05,0.015786,-5.416e-05,-237.54,1.5357
29351,18.675,1.3636,0.1,0.00012514,1250.6,0.00011834,1093.5,-2.7187e-05,0.062409,-6.3136e-05,-270.05,1.524
29352,18.768,1.2727,0.1,0.00011798,1179,0.0001106,1011.9,-2.4074e-05,0.064731,-6.1709e-05,-282.71,1.5361
29353,18.675,1.5455,0.1,0.00013543,1353.4,0.00012821,1186.2,-2.9642e-05,0.12039,-6.801e-05,-288.16,1.5244
29354,18.768,1.4545,0.1,0.00013035,1302.6,0.00012202,1114.7,-2.6321e-05,0.11519,-6.8562e-05,-317.27,1.5365
29355,18.675,1.7273,0.1,0.00014463,1445.3,0.00013755,1279.4,-3.2715e-05,0.1217,-7.1114e-05,-288.4,1.5248
29356,18.768,1.6364,0.1,0.00014209,1419.9,0.00013348,1224.2,-2.9453e-05,-0.079798,-7.3697e-05,-332.52,1.5369
29357,18.675,1.9091,0.1,0.00015225,1521.4,0.00014581,1367.6,-3.6193e-05,0.11457,-7.2309e-05,-271.24,1.5251
29358,18.768,1.8182,0.1,0.00015204,1519.4,0.00014398,1332.5,-3.3366e-05,0.033584,-7.6234e-05,-322.06,1.5372
29359,18.675,2.0909,0.1,0.00015826,1581.5,0.00015271,1445.8,-3.9695e-05,0.16195,-7.2094e-05,-243.27,1.5253
29360,18.768,2,0.1,0.00015975,1596.4,0.00015283,1431.4,-3.7712e-05,-0.20499,-7.6287e-05,-290.04,1.5375
29361,18.675,2.2727,0.1,0.00016298,1628.6,0.00015827,1511,-4.2818e-05,0.059976,-7.1331e-05,-214.17,1.5255
29362,18.768,2.1818,0.1,0.00016554,1654.3,0.00015985,1514.7,-4.1789e-05,-0.35222,-7.5057e-05,-250.32,1.5378
29363,18.675,2.4545,0.1,0.00016665,1665.4,0.00016257,1561.5,-4.526e-05,-0.079986,-7.0691e-05,-191.16,1.5257
29364,18.768,2.3636,0.1,0.00016997,1698.5,0.00016523,1579.5,-4.4999e-05,-0.05799,-7.3878e-05,-217.04,1.538
29365,18.675,2.6364,0.1,0.00016932,1692.1,0.00016563,1596.9,-4.6918e-05,-0.10609,-7.0386e-05,-176.44,1.5258
29366,18.768,2.5455,0.1,0.00017328,1731.6,0.00016911,1625.3,-4.7216e-05,-0.12476,-7.3267e-05,-195.86,1.5381
29367,18.675,2.8182,0.1,0.00017095,1708.3,0.00016745,1617.6,-4.7853e-05,-0.10938,-7.0307e-05,-168.82,1.5259
29368,18.768,2.7273,0.1,0.00017543,1753.1,0.00017156,1653.4,-4.8514e-05,-0.11971,-7.3077e-05,-184.67,1.5382
29369,18.675,3,0.1,0.00017149,1713.7,0.00016805,1624.3,-4.8153e-05,-0.1136,-7.0301e-05,-166.53,1.5259
29370,18.768,2.9091,0.1,0.00017647,1763.5,0.00017272,1666.5,-4.91e-05,-0.111,-7.3045e-05,-180.02,1.5382
29371,18.675,3.1818,0.1,0.00017095,1708.3,0.00016745,1617.6,-4.7853e-05,-0.10938,-7.0307e-05,-168.82,1.5259
29372,18.768,3.0909,0.1,0.00017647,1763.5,0.00017272,1666.5,-4.91e-05,-0.111,-7.3045e-05,-180.02,1.5382
29373,18.675,3.3636,0.1,0.00016932,1692.1,0.00016563,1596.9,-4.6918e-05,-0.10609,-7.0386e-05,-176.44,1.5258
29374,18.768,3.2727,0.1,0.00017543,1753.1,0.00017156,1653.4,-4.8514e-05,-0.11971,-7.3077e-05,-184.67,1.5382
29375,18.675,3.5455,0.1,0.00016665,1665.4,0.00016257,1561.5,-4.526e-05,-0.079986,-7.0691e-05,-191.16,1.5257
29376,18.768,3.4545,0.1,0.00017328,1731.6,0.00016911,1625.3,-4.7216e-05,-0.12476,-7.3267e-05,-195.86,1.5381
29377,18.675,3.7273,0.1,0.00016298,1628.6,0.00015827,1511,-4.2818e-05,0.059977,-7.1331e-05,-214.17,1.5255
29378,18.768,3.6364,0.1,0.00016997,1698.5,0.00016523,1579.5,-4.4999e-05,-0.057989,-7.3878e-05,-217.04,1.538
29379,18.675,3.9091,0.1,0.00015826,1581.5,0.00015271,1445.8,-3.9695e-05,0.16195,-7.2094e-05,-243.27,1.5253
29380,18.768,3.8182,0.1,0.00016554,1654.3,0.00015985,1514.7,-4.1789e-05,-0.35222,-7.5057e-05,-250.32,1.5378
29381,18.675,4.0909,0.1,0.00015225,1521.4,0.00014581,1367.6,-3.6193e-05,0.11457,-7.2309e-05,-271.24,1.5251
29382,18.768,4,0.1,0.00015975,1596.4,0.00015283,1431.4,-3.7712e-05,-0.20499,-7.6287e-05,-290.04,1.5375
29383,18.675,4.2727,0.1,0.00014463,1445.3,0.00013755,1279.4,-3.2715e-05,0.1217,-7.1114e-05,-288.4,1.5248
29384,18.768,4.1818,0.1,0.00015204,1519.4,0.00014398,1332.5,-3.3365e-05,0.033583,-7.6234e-05,-322.06,1.5372
29385,18.675,4.4545,0.1,0.00013543,1353.4,0.00012821,1186.2,-2.9642e-05,0.12039,-6.801e-05,-288.16,1.5244
29386,18.768,4.3636,0.1,0.00014209,1419.9,0.00013348,1224.2,-2.9453e-05,-0.079798,-7.3697e-05,-332.52,1.5369
29387,18.675,4.6364,0.1,0.00012514,1250.6,0.00011834,1093.5,-2.7187e-05,0.062409,-6.3136e-05,-270.05,1.524
29388,18.768,4.5455,0.1,0.00013035,1302.6,0.00012202,1114.7,-2.6321e-05,0.11519,-6.8562e-05,-317.27,1.5365
29389,18.675,4.8182,0.1,0.00011453,1144.5,0.0001086,1006.6,-2.5363e-05,0.039938,-5.7095e-05,-238.38,1.5236
29390,18.768,4.7273,0.1,0.00011798,1179,0.0001106,1011.9,-2.4074e-05,0.064731,-6.1709e-05,-282.71,1.5361
29391,18.675,5,0.1,0.00010433,1042.6,9.9508e-05,928.71,-2.4093e-05,0.012573,-5.059e-05,-199.07,1.5232
29392,18.768,4.9091,0.1,0.00010599,1059.2,9.9931e-05,920.23,-2.2543e-05,0.015787,-5.416e-05,-237.54,1.5357
29393,18.675,5.1818,0.1,9.5085e-05,950.2,9.143e-05,861.78,-2.3269e-05,-0.022704,-4.419e-05,-157.22,1.5227
29394,18.768,5.0909,0.1,9.5052e-05,949.86,9.0422e-05,841.29,-2.155e-05,-0.021745,-4.6672e-05,-188.77,1.5352
29395,18.675,5.3636,0.1,8.7129e-05,870.69,8.4562e-05,806.59,-2.2797e-05,-0.067024,-3.8285e-05,-116.44,1.5222
29396,18.768,5.2727,0.1,8.5554e-05,854.95,8.2271e-05,775.52,-2.0953e-05,-0.06074,-3.9739e-05,-141.22,1.5347
29397,18.675,5.5455,0.1,8.0629e-05,805.73,7.8998e-05,763.41,-2.2615e-05,-0.071406,-3.3092e-05,-78.787,1.5216
29398,18.768,5.4545,0.1,7.7717e-05,776.63,7.5585e-05,722.97,-2.0652e-05,-0.11728,-3.3671e-05,-97.941,1.5341
29399,18.675,5.7273,0.1,7.5584e-05,755.32,7.4723e-05,731.91,-2.2708e-05,-0.14625,-2.8638e-05,-44.7,1.5211
29400,18.768,5.6364,0.1,7.1625e-05,715.76,7.0406e-05,683.62,-2.059e-05,-0.090166,-2.8614e-05,-60.379,1.5336
29401,18.768,5.8182,0.1,6.7205e-05,671.59,6.6675e-05,656.85,-2.0786e-05,-0.29925,-2.4514e-05,-28.306,1.533
29402,18.675,5.9091,0.1,7.1905e-05,718.56,7.1641e-05,711,-2.2998e-05,-0.076526,-2.4959e-05,-14.811,1.5205
29403,18.86,0.27273,0.1,6.3283e-05,632.39,6.2408e-05,608.93,-1.8668e-05,-0.24214,-2.4541e-05,-44.37,1.5455
29404,18.953,0.18182,0.1,5.435e-05,543.13,5.3824e-05,528.66,-1.6579e-05,-0.32236,-2.0208e-05,-27.595,1.5575
29405,18.86,0.090909,0.1,5.9281e-05,592.4,5.9022e-05,585.03,-1.8858e-05,-0.12166,-2.0752e-05,-14.355,1.545
29406,18.86,0.45455,0.1,6.8854e-05,688.07,6.7128e-05,644.19,-1.8626e-05,-0.13168,-2.9329e-05,-80.553,1.5461
29407,18.953,0.36364,0.1,5.9038e-05,589.97,5.7806e-05,558.09,-1.6484e-05,-0.098,-2.4352e-05,-59.211,1.5581
29408,18.86,0.63636,0.1,7.6437e-05,763.84,7.3549e-05,693.82,-1.8807e-05,-0.10844,-3.5381e-05,-124.64,1.5467
29409,18.953,0.54545,0.1,6.6078e-05,660.32,6.3749e-05,603.37,-1.6567e-05,-0.097365,-3.0126e-05,-101.97,1.5587
29410,18.86,0.81818,0.1,8.5972e-05,859.13,8.163e-05,757.79,-1.9234e-05,-0.058929,-4.2587e-05,-175.53,1.5472
29411,18.953,0.72727,0.1,7.5381e-05,753.29,7.1542e-05,663.8,-1.681e-05,-0.041985,-3.7417e-05,-154.88,1.5592
29412,18.86,1,0.1,9.7287e-05,972.19,9.1289e-05,836.16,-2e-05,-0.018634,-5.0687e-05,-230.59,1.5477
29413,18.953,0.90909,0.1,8.6792e-05,867.32,8.1087e-05,739.13,-1.7286e-05,0.00068574,-4.5992e-05,-215.68,1.5597
29414,18.86,1.1818,0.1,0.00011008,1100,0.00010241,929.17,-2.1254e-05,0.04038,-5.9248e-05,-285.44,1.5482
29415,18.953,1.0909,0.1,0.00010016,1000.9,9.2363e-05,830.23,-1.8123e-05,0.077231,-5.5557e-05,-281.19,1.5602
29416,18.86,1.3636,0.1,0.00012379,1237.1,0.00011471,1036.4,-2.3208e-05,0.11824,-6.7574e-05,-333.23,1.5486
29417,18.953,1.2727,0.1,0.00011525,1151.7,0.00010538,938.83,-1.9552e-05,0.14091,-6.5662e-05,-346.31,1.5607
29418,18.86,1.5455,0.1,0.00013749,1373.9,0.00012762,1155.2,-2.6131e-05,-0.082531,-7.4582e-05,-364.13,1.549
29419,18.953,1.4545,0.1,0.00013159,1315,0.00012003,1066.6,-2.1911e-05,0.15643,-7.5519e-05,-402.63,1.5612
29420,18.86,1.7273,0.1,0.00014979,1496.8,0.0001401,1278.7,-3.0103e-05,-0.16611,-7.9009e-05,-367.62,1.5494
29421,18.953,1.6364,0.1,0.00014772,1476.2,0.00013546,1210.7,-2.5557e-05,0.90749,-8.3448e-05,-434.07,1.5616
29422,18.86,1.9091,0.1,0.00015965,1595.4,0.00015108,1397,-3.4884e-05,-0.28648,-8.0291e-05,-341.46,1.5497
29423,18.953,1.8182,0.1,0.00016151,1614,0.00015011,1360.8,-3.0936e-05,0.42997,-8.7245e-05,-422.65,1.5619
29424,18.86,2.0909,0.1,0.00016705,1669.3,0.00015999,1500.5,-3.9806e-05,-0.72272,-7.927e-05,-297.24,1.55
29425,18.953,2,0.1,0.00017141,1712.9,0.00016211,1498.4,-3.7167e-05,1.1163,-8.6495e-05,-369.51,1.5623
29426,18.86,2.2727,0.1,0.00017251,1723.9,0.0001668,1583.2,-4.397e-05,-0.47845,-7.7595e-05,-253.12,1.5502
29427,18.953,2.1818,0.1,0.00017792,1778,0.00017082,1607.3,-4.3e-05,0.7194,-8.3423e-05,-303,1.5625
29428,18.86,2.4545,0.1,0.00017656,1764.3,0.00017174,1643.1,-4.6956e-05,-0.11262,-7.6421e-05,-221.5,1.5504
29429,18.953,2.3636,0.1,0.00018263,1825.1,0.00017697,1684.4,-4.7291e-05,-0.59473,-8.104e-05,-254.17,1.5627
29430,18.86,2.6364,0.1,0.00017933,1792.1,0.000175,1681.5,-4.8814e-05,-0.1444,-7.591e-05,-203.74,1.5505
29431,18.953,2.5455,0.1,0.00018558,1854.5,0.00018066,1730.2,-4.9631e-05,-0.11644,-7.9907e-05,-227.6,1.5629
29432,18.86,2.8182,0.1,0.00018089,1807.7,0.00017677,1702,-4.9762e-05,-0.12485,-7.5759e-05,-195.46,1.5506
29433,18.953,2.7273,0.1,0.00018711,1869.8,0.00018253,1753.1,-5.0812e-05,-0.12155,-7.938e-05,-214.77,1.563
29434,18.86,3,0.1,0.00018139,1812.6,0.00017733,1708.3,-5.0048e-05,-0.11131,-7.5731e-05,-193.08,1.5506
29435,18.953,2.9091,0.1,0.00018771,1875.8,0.00018326,1762.1,-5.1275e-05,-0.080773,-7.9171e-05,-209.68,1.563
29436,18.86,3.1818,0.1,0.00018089,1807.7,0.00017677,1702,-4.9762e-05,-0.12485,-7.5759e-05,-195.46,1.5506
29437,18.953,3.0909,0.1,0.00018771,1875.8,0.00018326,1762.1,-5.1275e-05,-0.080773,-7.9171e-05,-209.68,1.563
29438,18.86,3.3636,0.1,0.00017933,1792.1,0.000175,1681.5,-4.8814e-05,-0.1444,-7.591e-05,-203.74,1.5505
29439,18.953,3.2727,0.1,0.00018711,1869.8,0.00018253,1753.1,-5.0812e-05,-0.12155,-7.938e-05,-214.77,1.563
29440,18.86,3.5455,0.1,0.00017656,1764.3,0.00017174,1643.1,-4.6956e-05,-0.11262,-7.6421e-05,-221.5,1.5504
29441,18.953,3.4545,0.1,0.00018558,1854.5,0.00018066,1730.2,-4.9631e-05,-0.11643,-7.9907e-05,-227.6,1.5629
29442,18.86,3.7273,0.1,0.00017251,1723.9,0.0001668,1583.2,-4.397e-05,-0.47845,-7.7595e-05,-253.12,1.5502
29443,18.953,3.6364,0.1,0.00018263,1825.1,0.00017697,1684.4,-4.7291e-05,-0.59473,-8.104e-05,-254.17,1.5627
29444,18.86,3.9091,0.1,0.00016705,1669.3,0.00015999,1500.5,-3.9806e-05,-0.72272,-7.927e-05,-297.24,1.55
29445,18.953,3.8182,0.1,0.00017792,1778,0.00017082,1607.3,-4.3e-05,0.7194,-8.3423e-05,-303,1.5625
29446,18.86,4.0909,0.1,0.00015965,1595.4,0.00015108,1397,-3.4884e-05,-0.28648,-8.0291e-05,-341.46,1.5497
29447,18.953,4,0.1,0.00017141,1712.9,0.00016211,1498.4,-3.7167e-05,1.1163,-8.6495e-05,-369.51,1.5623
29448,18.86,4.2727,0.1,0.00014979,1496.8,0.0001401,1278.7,-3.0103e-05,-0.16611,-7.9009e-05,-367.62,1.5494
29449,18.953,4.1818,0.1,0.00016151,1614,0.00015011,1360.8,-3.0936e-05,0.42997,-8.7245e-05,-422.65,1.5619
29450,18.86,4.4545,0.1,0.00013749,1373.9,0.00012762,1155.2,-2.613e-05,-0.082532,-7.4582e-05,-364.13,1.549
29451,18.953,4.3636,0.1,0.00014772,1476.2,0.00013546,1210.7,-2.5557e-05,0.90749,-8.3448e-05,-434.07,1.5616
29452,18.86,4.6364,0.1,0.00012379,1237.1,0.00011471,1036.4,-2.3208e-05,0.11824,-6.7574e-05,-333.23,1.5486
29453,18.953,4.5455,0.1,0.00013159,1315,0.00012003,1066.6,-2.1911e-05,0.15643,-7.5519e-05,-402.63,1.5612
29454,18.86,4.8182,0.1,0.00011008,1100,0.00010241,929.17,-2.1254e-05,0.04038,-5.9248e-05,-285.44,1.5482
29455,18.953,4.7273,0.1,0.00011525,1151.7,0.00010538,938.83,-1.9552e-05,0.14091,-6.5662e-05,-346.31,1.5607
29456,18.86,5,0.1,9.7287e-05,972.19,9.1289e-05,836.16,-2e-05,-0.018633,-5.0687e-05,-230.59,1.5477
29457,18.953,4.9091,0.1,0.00010016,1000.9,9.2363e-05,830.23,-1.8123e-05,0.077233,-5.5557e-05,-281.19,1.5602
29458,18.86,5.1818,0.1,8.5972e-05,859.13,8.163e-05,757.79,-1.9234e-05,-0.058927,-4.2587e-05,-175.53,1.5472
29459,18.953,5.0909,0.1,8.6792e-05,867.32,8.1087e-05,739.13,-1.7286e-05,0.00068768,-4.5992e-05,-215.69,1.5597
29460,18.86,5.3636,0.1,7.6437e-05,763.84,7.3549e-05,693.82,-1.8807e-05,-0.10844,-3.5381e-05,-124.64,1.5467
29461,18.953,5.2727,0.1,7.5381e-05,753.29,7.1542e-05,663.8,-1.681e-05,-0.041984,-3.7417e-05,-154.88,1.5592
29462,18.86,5.5455,0.1,6.8854e-05,688.07,6.7128e-05,644.19,-1.8626e-05,-0.13168,-2.9329e-05,-80.553,1.5461
29463,18.953,5.4545,0.1,6.6078e-05,660.32,6.3749e-05,603.37,-1.6567e-05,-0.097364,-3.0126e-05,-101.97,1.5587
29464,18.86,5.7273,0.1,6.3283e-05,632.39,6.2408e-05,608.93,-1.8668e-05,-0.24214,-2.4541e-05,-44.37,1.5455
29465,18.953,5.6364,0.1,5.9038e-05,589.97,5.7806e-05,558.09,-1.6484e-05,-0.098002,-2.4352e-05,-59.211,1.5581
29466,18.953,5.8182,0.1,5.435e-05,543.13,5.3824e-05,528.66,-1.6579e-05,-0.32236,-2.0208e-05,-27.595,1.5575
29467,18.86,5.9091,0.1,5.9281e-05,592.4,5.9022e-05,585.03,-1.8858e-05,-0.12166,-2.0752e-05,-14.355,1.545
29468,19.045,0.27273,0.1,5.0198e-05,501.64,4.9321e-05,478.56,-1.4389e-05,-0.13295,-2.0125e-05,-43.23,1.5701
29469,19.138,0.18182,0.1,4.0777e-05,407.49,4.0261e-05,393.54,-1.2146e-05,-0.22645,-1.5631e-05,-26.409,1.582
29470,19.045,0.090909,0.1,4.5741e-05,457.09,4.55e-05,450.3,-1.4434e-05,-0.02225,-1.6199e-05,-13.284,1.5695
29471,19.045,0.45455,0.1,5.6547e-05,565.08,5.4687e-05,519.22,-1.4423e-05,-0.044837,-2.541e-05,-82.598,1.5706
29472,19.138,0.36364,0.1,4.6111e-05,460.79,4.483e-05,428.56,-1.2234e-05,-0.19406,-2.0017e-05,-58.671,1.5826
29473,19.045,0.63636,0.1,6.5565e-05,655.2,6.2195e-05,576.76,-1.4569e-05,-0.02246,-3.2618e-05,-135.63,1.5712
29474,19.138,0.54545,0.1,5.467e-05,546.33,5.1961e-05,482.88,-1.2337e-05,-0.23288,-2.6946e-05,-110,1.5832
29475,19.045,0.81818,0.1,7.6977e-05,769.24,7.1611e-05,649.74,-1.4861e-05,0.021038,-4.1435e-05,-199.64,1.5718
29476,19.138,0.72727,0.1,6.5848e-05,658.03,6.1075e-05,552.26,-1.246e-05,-0.25523,-3.5812e-05,-175.71,1.5838
29477,19.045,1,0.1,9.0622e-05,905.6,8.2886e-05,738.65,-1.5409e-05,0.096758,-5.1588e-05,-271.74,1.5723
29478,19.138,0.90909,0.1,7.9371e-05,793.17,7.1994e-05,635.97,-1.2683e-05,-0.25743,-4.6279e-05,-252.68,1.5843
29479,19.045,1.1818,0.1,0.0001064,1063.3,9.6121e-05,845.78,-1.6422e-05,0.17628,-6.2755e-05,-347.95,1.5728
29480,19.138,1.0909,0.1,9.5268e-05,952.03,8.4871e-05,736.25,-1.3151e-05,-0.25153,-5.8206e-05,-338.78,1.5849
29481,19.045,1.3636,0.1,0.00012412,1240.3,0.00011145,974.75,-1.8256e-05,0.17803,-7.4362e-05,-421.38,1.5733
29482,19.138,1.2727,0.1,0.00011381,1137.3,0.00010015,858.36,-1.4117e-05,-0.20488,-7.1516e-05,-431.47,1.5854
29483,19.045,1.5455,0.1,0.00014269,1425.9,0.00012845,1126.6,-2.1338e-05,1.1449,-8.4971e-05,-476.97,1.5737
29484,19.138,1.4545,0.1,0.00013505,1349.6,0.00011833,1009.9,-1.6108e-05,-0.22409,-8.5661e-05,-522.82,1.5859
29485,19.045,1.7273,0.1,0.00015988,1597.7,0.00014575,1294.9,-2.6387e-05,1.516,-9.1963e-05,-491.19,1.5741
29486,19.138,1.6364,0.1,0.00015877,1586.6,0.00013997,1201.9,-1.9996e-05,-0.0048999,-9.9373e-05,-596.42,1.5863
29487,19.045,1.9091,0.1,0.00017333,1732.2,0.00016119,1462.5,-3.3218e-05,1.8308,-9.3496e-05,-451.07,1.5745
29488,19.138,1.8182,0.1,0.00018056,1804.3,0.00016256,1424.5,-2.7321e-05,-2.1694,-0.00010739,-603.76,1.5867
29489,19.045,2.0909,0.1,0.00018219,1820.7,0.0001729,1604.9,-4.0362e-05,2.547,-9.0601e-05,-374.93,1.5748
29490,19.138,2,0.1,0.00019363,1935,0.00018015,1632.4,-3.7979e-05,-6.5322,-0.00010394,-502.14,1.5871
29491,19.045,2.2727,0.1,0.00018794,1878.1,0.00018093,1708,-4.6324e-05,0.57566,-8.6795e-05,-303.5,1.575
29492,19.138,2.1818,0.1,0.0002003,2001.6,0.00019118,1785,-4.6782e-05,-3.0068,-9.6614e-05,-377.42,1.5874
29493,19.045,2.4545,0.1,0.00019155,1914.1,0.0001858,1770.9,-4.9967e-05,-0.61181,-8.4436e-05,-259.6,1.5752
29494,19.138,2.3636,0.1,0.00020275,2026.1,0.00019594,1858.7,-5.1427e-05,0.10622,-9.1513e-05,-301.08,1.5876
29495,19.045,2.6364,0.1,0.00019325,1931.1,0.0001881,1801.1,-5.1629e-05,-0.09641,-8.3286e-05,-237.95,1.5754
29496,19.138,2.5455,0.1,0.00020273,2025.9,0.00019687,1879.3,-5.3274e-05,-0.16801,-8.8735e-05,-266.61,1.5878
29497,19.045,2.8182,0.1,0.00019383,1937,0.00018893,1812.6,-5.2325e-05,-0.078243,-8.2706e-05,-228.34,1.5755
29498,19.138,2.7273,0.1,0.00020169,2015.5,0.00019627,1878.9,-5.3791e-05,-0.0066331,-8.706e-05,-249.98,1.5879
29499,19.045,3,0.1,0.00019394,1938.1,0.00018912,1815.4,-5.2502e-05,-0.051122,-8.2527e-05,-225.64,1.5755
29500,19.138,2.9091,0.1,0.00020092,2007.8,0.00019567,1875.1,-5.3884e-05,0.021422,-8.627e-05,-243.32,1.5879
29501,19.045,3.1818,0.1,0.00019383,1937,0.00018893,1812.6,-5.2325e-05,-0.078243,-8.2706e-05,-228.34,1.5755
29502,19.138,3.0909,0.1,0.00020092,2007.8,0.00019567,1875.1,-5.3884e-05,0.021422,-8.627e-05,-243.32,1.5879
29503,19.045,3.3636,0.1,0.00019325,1931.1,0.0001881,1801.1,-5.1629e-05,-0.096409,-8.3286e-05,-237.95,1.5754
29504,19.138,3.2727,0.1,0.00020169,2015.5,0.00019627,1878.9,-5.3791e-05,-0.0066334,-8.706e-05,-249.98,1.5879
29505,19.045,3.5455,0.1,0.00019155,1914.1,0.0001858,1770.9,-4.9967e-05,-0.61181,-8.4436e-05,-259.6,1.5752
29506,19.138,3.4545,0.1,0.00020273,2025.9,0.00019687,1879.3,-5.3274e-05,-0.16801,-8.8735e-05,-266.61,1.5878
29507,19.045,3.7273,0.1,0.00018794,1878.1,0.00018093,1708,-4.6324e-05,0.57566,-8.6795e-05,-303.5,1.575
29508,19.138,3.6364,0.1,0.00020275,2026.1,0.00019594,1858.7,-5.1427e-05,0.10622,-9.1513e-05,-301.08,1.5876
29509,19.045,3.9091,0.1,0.00018219,1820.7,0.0001729,1604.9,-4.0362e-05,2.547,-9.0601e-05,-374.93,1.5748
29510,19.138,3.8182,0.1,0.0002003,2001.6,0.00019118,1785,-4.6782e-05,-3.0068,-9.6614e-05,-377.42,1.5874
29511,19.045,4.0909,0.1,0.00017333,1732.2,0.00016119,1462.5,-3.3218e-05,1.8308,-9.3496e-05,-451.07,1.5745
29512,19.138,4,0.1,0.00019363,1935,0.00018015,1632.4,-3.7979e-05,-6.5322,-0.00010394,-502.14,1.5871
29513,19.045,4.2727,0.1,0.00015988,1597.7,0.00014575,1294.9,-2.6387e-05,1.516,-9.1963e-05,-491.19,1.5741
29514,19.138,4.1818,0.1,0.00018056,1804.3,0.00016256,1424.5,-2.7321e-05,-2.1694,-0.00010739,-603.76,1.5867
29515,19.045,4.4545,0.1,0.00014269,1425.9,0.00012845,1126.6,-2.1338e-05,1.1449,-8.4971e-05,-476.97,1.5737
29516,19.138,4.3636,0.1,0.00015877,1586.6,0.00013997,1201.9,-1.9996e-05,-0.0048997,-9.9374e-05,-596.42,1.5863
29517,19.045,4.6364,0.1,0.00012412,1240.3,0.00011145,974.75,-1.8256e-05,0.17803,-7.4362e-05,-421.38,1.5733
29518,19.138,4.5455,0.1,0.00013505,1349.6,0.00011833,1009.9,-1.6107e-05,-0.22409,-8.5661e-05,-522.82,1.5859
29519,19.045,4.8182,0.1,0.0001064,1063.3,9.6121e-05,845.78,-1.6422e-05,0.17628,-6.2755e-05,-347.95,1.5728
29520,19.138,4.7273,0.1,0.00011381,1137.3,0.00010015,858.36,-1.4117e-05,-0.20488,-7.1516e-05,-431.47,1.5854
29521,19.045,5,0.1,9.0622e-05,905.6,8.2886e-05,738.65,-1.5409e-05,0.096759,-5.1588e-05,-271.74,1.5723
29522,19.138,4.9091,0.1,9.5268e-05,952.03,8.4871e-05,736.25,-1.3151e-05,-0.25153,-5.8206e-05,-338.78,1.5849
29523,19.045,5.1818,0.1,7.6977e-05,769.24,7.1611e-05,649.74,-1.4861e-05,0.021039,-4.1435e-05,-199.64,1.5718
29524,19.138,5.0909,0.1,7.9371e-05,793.17,7.1994e-05,635.97,-1.2683e-05,-0.25743,-4.6279e-05,-252.68,1.5843
29525,19.045,5.3636,0.1,6.5565e-05,655.2,6.2195e-05,576.76,-1.4569e-05,-0.02246,-3.2618e-05,-135.63,1.5712
29526,19.138,5.2727,0.1,6.5848e-05,658.03,6.1075e-05,552.26,-1.246e-05,-0.25523,-3.5812e-05,-175.71,1.5838
29527,19.045,5.5455,0.1,5.6547e-05,565.08,5.4687e-05,519.22,-1.4423e-05,-0.044839,-2.541e-05,-82.598,1.5706
29528,19.138,5.4545,0.1,5.467e-05,546.33,5.1961e-05,482.88,-1.2337e-05,-0.23288,-2.6946e-05,-110,1.5832
29529,19.045,5.7273,0.1,5.0198e-05,501.64,4.9321e-05,478.56,-1.4389e-05,-0.13295,-2.0125e-05,-43.23,1.5701
29530,19.138,5.6364,0.1,4.6111e-05,460.79,4.483e-05,428.56,-1.2234e-05,-0.19406,-2.0017e-05,-58.671,1.5826
29531,19.138,5.8182,0.1,4.0777e-05,407.49,4.0261e-05,393.54,-1.2146e-05,-0.22645,-1.5631e-05,-26.409,1.582
29532,19.045,5.9091,0.1,4.5741e-05,457.09,4.55e-05,450.3,-1.4434e-05,-0.022251,-1.6199e-05,-13.284,1.5695
29533,19.23,0.27273,0.1,3.6963e-05,369.37,3.602e-05,345.42,-9.9799e-06,-0.20152,-1.5785e-05,-43.82,1.5946
29534,19.323,0.18182,0.1,2.719e-05,271.72,2.6622e-05,257.43,-7.3791e-06,1.9594,-1.1372e-05,-28.039,1.6066
29535,19.23,0.090909,0.1,3.1497e-05,314.76,3.1275e-05,308.54,-9.8161e-06,-0.20223,-1.1373e-05,-11.902,1.594
29536,19.23,0.45455,0.1,4.4916e-05,448.85,4.2687e-05,396.6,-1.0145e-05,-0.35577,-2.2138e-05,-90.471,1.5952
29537,19.323,0.36364,0.1,3.5042e-05,350.17,3.3327e-05,310.24,-7.861e-06,0.77065,-1.7262e-05,-69.861,1.6072
29538,19.23,0.63636,0.1,5.6002e-05,559.63,5.1679e-05,464.68,-1.0226e-05,-0.45195,-3.0979e-05,-156.38,1.5958
29539,19.323,0.54545,0.1,4.6487e-05,464.55,4.2602e-05,380.6,-7.9863e-06,0.50103,-2.6319e-05,-137.24,1.6078
29540,19.23,0.81818,0.1,6.9549e-05,695.01,6.2454e-05,545.97,-1.0281e-05,-0.52403,-4.1652e-05,-236.24,1.5964
29541,19.323,0.72727,0.1,6.0214e-05,601.72,5.3367e-05,460.82,-7.9146e-06,0.37244,-3.7247e-05,-220.02,1.6084
29542,19.23,1,0.1,8.5537e-05,854.78,7.5097e-05,641.97,-1.0424e-05,-0.59836,-5.4016e-05,-328.13,1.5969
29543,19.323,0.90909,0.1,7.6123e-05,760.71,6.5635e-05,551.66,-7.7429e-06,0.32493,-4.987e-05,-316.2,1.609
29544,19.23,1.1818,0.1,0.0001044,1043.3,9.0137e-05,758.11,-1.0846e-05,-0.63009,-6.8203e-05,-431.59,1.5975
29545,19.323,1.0909,0.1,9.4657e-05,945.91,7.9865e-05,657.43,-7.5705e-06,0.47877,-6.4429e-05,-426.73,1.6095
29546,19.23,1.3636,0.1,0.00012664,1265.6,0.00010836,903.47,-1.197e-05,-0.61416,-8.4138e-05,-542.85,1.598
29547,19.323,1.2727,0.1,0.00011677,1166.9,9.6976e-05,786.08,-7.6309e-06,0.10653,-8.1468e-05,-554.68,1.6101
29548,19.23,1.5455,0.1,0.00015282,1527.2,0.00013099,1093.8,-1.4765e-05,-1.3686,-0.0001012,-650.8,1.5985
29549,19.323,1.4545,0.1,0.0001439,1438,0.0001185,953.77,-8.13e-06,2.3513,-0.00010167,-700.46,1.6106
29550,19.23,1.7273,0.1,0.00018044,1803.2,0.00015742,1336.4,-2.093e-05,-3.6903,-0.00011543,-713.76,1.599
29551,19.323,1.6364,0.1,0.0001786,1784.8,0.00014722,1182.8,-1.0779e-05,-4.4129,-0.00012594,-869.71,1.6112
29552,19.23,1.9091,0.1,0.00020045,2003.1,0.00018127,1592.5,-3.2073e-05,-10.469,-0.00011759,-653.01,1.5994
29553,19.323,1.8182,0.1,0.00022454,2243.8,0.00019026,1577.6,-1.8087e-05,12.127,-0.00015188,-993.11,1.6116
29554,19.23,2.0909,0.1,0.00021121,2110.6,0.00019814,1810.2,-4.4406e-05,-12.14,-0.00010965,-502.32,1.5997
29555,19.323,2,0.1,0.00025294,2527.7,0.00022948,2052,-3.5551e-05,60.657,-0.00014898,-791.64,1.612
29556,19.23,2.2727,0.1,0.00021473,2145.9,0.00020593,1933.7,-5.1896e-05,-3.5562,-0.00010105,-372.92,1.6
29557,19.323,2.1818,0.1,0.00024409,2439.2,0.00023235,2160.9,-5.6342e-05,-8.2374,-0.00011909,-479.68,1.6124
29558,19.23,2.4545,0.1,0.00021369,2135.4,0.00020682,1965.8,-5.4734e-05,0.55213,-9.5616e-05,-306.62,1.6002
29559,19.323,2.3636,0.1,0.00023376,2336,0.00022559,2136.8,-5.841e-05,2.9379,-0.00010659,-359.1,1.6126
29560,19.23,2.6364,0.1,0.00021102,2108.7,0.00020492,1956.1,-5.5434e-05,-0.070212,-9.2378e-05,-277.65,1.6003
29561,19.323,2.5455,0.1,0.00022357,2234.1,0.00021676,2064.6,-5.8128e-05,-0.76766,-9.8845e-05,-306.69,1.6128
29562,19.23,2.8182,0.1,0.00020867,2085.2,0.00020291,1940.6,-5.5349e-05,0.09503,-9.0527e-05,-264.22,1.6004
29563,19.323,2.7273,0.1,0.00021699,2168.4,0.00021078,2012.9,-5.7064e-05,0.49609,-9.4851e-05,-283.42,1.6129
29564,19.23,3,0.1,0.0002078,2076.5,0.00020214,1934.1,-5.5265e-05,0.093864,-8.9925e-05,-260.33,1.6005
29565,19.323,2.9091,0.1,0.00021371,2135.6,0.00020774,1985.9,-5.6535e-05,0.16846,-9.2938e-05,-273.35,1.613
29566,19.23,3.1818,0.1,0.00020867,2085.2,0.00020291,1940.6,-5.5349e-05,0.095029,-9.0527e-05,-264.22,1.6004
29567,19.323,3.0909,0.1,0.00021371,2135.6,0.00020774,1985.9,-5.6535e-05,0.16846,-9.2938e-05,-273.35,1.613
29568,19.23,3.3636,0.1,0.00021102,2108.7,0.00020492,1956.1,-5.5434e-05,-0.070213,-9.2378e-05,-277.65,1.6003
29569,19.323,3.2727,0.1,0.00021699,2168.4,0.00021078,2012.9,-5.7064e-05,0.49609,-9.4851e-05,-283.42,1.6129
29570,19.23,3.5455,0.1,0.00021369,2135.4,0.00020682,1965.8,-5.4734e-05,0.55213,-9.5616e-05,-306.62,1.6002
29571,19.323,3.4545,0.1,0.00022357,2234.1,0.00021676,2064.6,-5.8128e-05,-0.76766,-9.8845e-05,-306.69,1.6128
29572,19.23,3.7273,0.1,0.00021473,2145.9,0.00020593,1933.7,-5.1896e-05,-3.5562,-0.00010105,-372.92,1.6
29573,19.323,3.6364,0.1,0.00023376,2336,0.00022559,2136.8,-5.841e-05,2.9379,-0.00010659,-359.1,1.6126
29574,19.23,3.9091,0.1,0.00021121,2110.6,0.00019814,1810.2,-4.4406e-05,-12.14,-0.00010965,-502.32,1.5997
29575,19.323,3.8182,0.1,0.00024409,2439.2,0.00023235,2160.9,-5.6342e-05,-8.2374,-0.00011909,-479.68,1.6124
29576,19.23,4.0909,0.1,0.00020045,2003.1,0.00018127,1592.5,-3.2073e-05,-10.469,-0.00011759,-653.01,1.5994
29577,19.323,4,0.1,0.00025294,2527.7,0.00022948,2052,-3.5551e-05,60.657,-0.00014898,-791.64,1.612
29578,19.23,4.2727,0.1,0.00018044,1803.2,0.00015742,1336.4,-2.0929e-05,-3.6903,-0.00011543,-713.76,1.599
29579,19.323,4.1818,0.1,0.00022454,2243.8,0.00019026,1577.6,-1.8087e-05,12.127,-0.00015188,-993.11,1.6116
29580,19.23,4.4545,0.1,0.00015282,1527.2,0.00013099,1093.8,-1.4765e-05,-1.3686,-0.0001012,-650.8,1.5985
29581,19.323,4.3636,0.1,0.0001786,1784.8,0.00014722,1182.8,-1.0779e-05,-4.4129,-0.00012594,-869.71,1.6112
29582,19.23,4.6364,0.1,0.00012664,1265.6,0.00010836,903.47,-1.197e-05,-0.61416,-8.4138e-05,-542.85,1.598
29583,19.323,4.5455,0.1,0.0001439,1438,0.0001185,953.77,-8.13e-06,2.3513,-0.00010167,-700.46,1.6106
29584,19.23,4.8182,0.1,0.0001044,1043.3,9.0137e-05,758.11,-1.0846e-05,-0.63009,-6.8203e-05,-431.59,1.5975
29585,19.323,4.7273,0.1,0.00011677,1166.9,9.6976e-05,786.08,-7.6309e-06,0.10653,-8.1468e-05,-554.68,1.6101
29586,19.23,5,0.1,8.5537e-05,854.78,7.5097e-05,641.97,-1.0424e-05,-0.59836,-5.4016e-05,-328.13,1.5969
29587,19.323,4.9091,0.1,9.4657e-05,945.91,7.9865e-05,657.43,-7.5705e-06,0.47877,-6.4429e-05,-426.73,1.6095
29588,19.23,5.1818,0.1,6.9549e-05,695.01,6.2454e-05,545.97,-1.0281e-05,-0.52403,-4.1652e-05,-236.24,1.5964
29589,19.323,5.0909,0.1,7.6123e-05,760.71,6.5635e-05,551.66,-7.7429e-06,0.32493,-4.987e-05,-316.2,1.609
29590,19.23,5.3636,0.1,5.6002e-05,559.63,5.1679e-05,464.68,-1.0226e-05,-0.45195,-3.0979e-05,-156.38,1.5958
29591,19.323,5.2727,0.1,6.0214e-05,601.72,5.3367e-05,460.82,-7.9146e-06,0.37244,-3.7247e-05,-220.02,1.6084
29592,19.23,5.5455,0.1,4.4916e-05,448.85,4.2687e-05,396.6,-1.0145e-05,-0.35578,-2.2138e-05,-90.471,1.5952
29593,19.323,5.4545,0.1,4.6487e-05,464.55,4.2602e-05,380.6,-7.9863e-06,0.50103,-2.6319e-05,-137.24,1.6078
29594,19.23,5.7273,0.1,3.6963e-05,369.37,3.602e-05,345.42,-9.9799e-06,-0.20152,-1.5785e-05,-43.82,1.5946
29595,19.323,5.6364,0.1,3.5042e-05,350.17,3.3327e-05,310.24,-7.861e-06,0.77065,-1.7262e-05,-69.861,1.6072
29596,19.323,5.8182,0.1,2.719e-05,271.72,2.6622e-05,257.43,-7.3791e-06,1.9594,-1.1372e-05,-28.039,1.6066
29597,19.23,5.9091,0.1,3.1497e-05,314.76,3.1275e-05,308.54,-9.8161e-06,-0.20223,-1.1373e-05,-11.902,1.594
29598,19.415,0.27273,0.1,2.6571e-05,265.53,2.498e-05,230.14,-5.3146e-06,2.5229,-1.3844e-05,-61.561,1.6192
29599,19.508,0.18182,0.1,1.4688e-05,146.77,1.423e-05,135.22,-3.8723e-06,-0.79191,-6.4763e-06,-20.357,1.6312
29600,19.415,0.090909,0.1,1.7191e-05,171.8,1.6935e-05,165.46,-4.7246e-06,2.7192,-6.9694e-06,-14.147,1.6186
29601,19.415,0.45455,0.1,3.8529e-05,385.03,3.4723e-05,305.37,-5.7204e-06,1.4933,-2.2904e-05,-127.62,1.6198
29602,19.508,0.36364,0.1,2.4458e-05,244.41,2.2504e-05,201.51,-4.4166e-06,-0.76189,-1.3641e-05,-70.074,1.6318
29603,19.415,0.63636,0.1,5.2772e-05,527.36,4.5825e-05,388.28,-5.6773e-06,1.3076,-3.4119e-05,-212.39,1.6204
29604,19.508,0.54545,0.1,3.5569e-05,355.44,3.1267e-05,267.52,-4.4037e-06,-0.50168,-2.2395e-05,-135.68,1.6324
29605,19.415,0.81818,0.1,6.8957e-05,689.09,5.8114e-05,478.27,-5.3733e-06,1.2474,-4.7034e-05,-311.77,1.621
29606,19.508,0.72727,0.1,4.7897e-05,478.64,4.0563e-05,334.77,-4.0579e-06,-0.4886,-3.2391e-05,-213.37,1.633
29607,19.415,1,0.1,8.7602e-05,875.42,7.2079e-05,579.71,-4.8824e-06,1.4569,-6.1966e-05,-427.45,1.6216
29608,19.508,0.90909,0.1,6.1854e-05,618.11,5.0783e-05,406.85,-3.443e-06,-0.58912,-4.3874e-05,-304.37,1.6336
29609,19.415,1.1818,0.1,0.00010977,1097,8.8636e-05,699.92,-4.343e-06,1.3106,-7.9638e-05,-564.43,1.6222
29610,19.508,1.0909,0.1,7.816e-05,781.06,6.2503e-05,488.48,-2.5298e-06,-0.15286,-5.7388e-05,-412.34,1.6342
29611,19.415,1.3636,0.1,0.00013745,1373.5,0.0001095,854.27,-3.7751e-06,3.1898,-0.0001014,-730.29,1.6228
29612,19.508,1.2727,0.1,9.8033e-05,979.65,7.6732e-05,586.62,-1.5688e-06,-1.7053,-7.3781e-05,-544.28,1.6349
29613,19.415,1.5455,0.1,0.00017463,1745.1,0.00013815,1068.5,-4.1166e-06,-0.48455,-0.00012986,-945.29,1.6233
29614,19.508,1.4545,0.1,0.00012413,1240.4,9.5208e-05,716.91,4.2414e-07,4.7414,-9.5419e-05,-715.39,1.6355
29615,19.415,1.7273,0.1,0.00022697,2268.1,0.00018286,1444.9,-7.9407e-06,11.377,-0.00016517,-1170,1.6239
29616,19.508,1.6364,0.1,0.00015879,1586.8,0.00012164,902.67,-9.6507e-07,-18.547,-0.00012222,-929.64,1.636
29617,19.415,1.9091,0.1,0.00027574,2755.5,0.00023733,2028.5,-2.1322e-05,85.072,-0.00018237,-1125,1.6243
29618,19.508,1.8182,0.1,0.00022808,2279.2,0.00016705,1239,1.3141e-05,82.625,-0.0001824,-1386.6,1.6366
29619,19.415,2.0909,0.1,0.00028174,2815.5,0.00026119,2383.8,-4.779e-05,62.279,-0.00015562,-747.93,1.6247
29620,19.508,2,0.1,0.00041746,4171.7,0.00038408,3472.7,-6.7953e-05,76.277,-0.00023566,-1183.8,1.6371
29621,19.415,2.2727,0.1,0.00026234,2621.6,0.00025141,2359.5,-6.2815e-05,-1.4355,-0.00012408,-461.73,1.625
29622,19.508,2.1818,0.1,0.00031337,3131.5,0.00030081,2820.5,-7.8763e-05,-31.453,-0.00014521,-530.68,1.6375
29623,19.415,2.4545,0.1,0.00024344,2432.7,0.00023537,2234.5,-6.1799e-05,1.655,-0.00010967,-358.06,1.6253
29624,19.508,2.3636,0.1,0.00026629,2661.1,0.00025756,2447.4,-6.7324e-05,6.3696,-0.00012,-389.4,1.6378
29625,19.415,2.6364,0.1,0.00022947,2293.1,0.00022256,2121,-5.9756e-05,-0.18883,-0.00010127,-312.08,1.6254
29626,19.508,2.5455,0.1,0.00024137,2412,0.00023411,2231.2,-6.2929e-05,-0.69191,-0.00010644,-327.64,1.638
29627,19.415,2.8182,0.1,0.00022197,2218.2,0.00021556,2057.8,-5.825e-05,0.56823,-9.7214e-05,-292.19,1.6255
29628,19.508,2.7273,0.1,0.00022791,2277.6,0.00022137,2113.9,-5.9855e-05,0.91812,-9.9718e-05,-298.6,1.6381
29629,19.415,3,0.1,0.00021956,2194.1,0.00021329,2037.2,-5.7806e-05,0.23975,-9.5899e-05,-285.97,1.6256
29630,19.508,2.9091,0.1,0.00022193,2217.8,0.00021569,2061.3,-5.8601e-05,0.38081,-9.666e-05,-285.58,1.6382
29631,19.415,3.1818,0.1,0.00022197,2218.2,0.00021556,2057.8,-5.825e-05,0.56823,-9.7214e-05,-292.19,1.6255
29632,19.508,3.0909,0.1,0.00022193,2217.8,0.00021569,2061.3,-5.8601e-05,0.38081,-9.666e-05,-285.58,1.6382
29633,19.415,3.3636,0.1,0.00022947,2293.1,0.00022256,2121,-5.9756e-05,-0.18883,-0.00010127,-312.08,1.6254
29634,19.508,3.2727,0.1,0.00022791,2277.6,0.00022137,2113.9,-5.9855e-05,0.91813,-9.9718e-05,-298.6,1.6381
29635,19.415,3.5455,0.1,0.00024344,2432.7,0.00023537,2234.5,-6.1799e-05,1.655,-0.00010967,-358.06,1.6253
29636,19.508,3.4545,0.1,0.00024137,2412,0.00023411,2231.2,-6.2929e-05,-0.69191,-0.00010644,-327.64,1.638
29637,19.415,3.7273,0.1,0.00026234,2621.6,0.00025141,2359.5,-6.2815e-05,-1.4355,-0.00012408,-461.73,1.625
29638,19.508,3.6364,0.1,0.00026629,2661.1,0.00025756,2447.4,-6.7324e-05,6.3696,-0.00012,-389.4,1.6378
29639,19.415,3.9091,0.1,0.00028174,2815.5,0.00026119,2383.8,-4.779e-05,62.279,-0.00015562,-747.93,1.6247
29640,19.508,3.8182,0.1,0.00031337,3131.5,0.00030081,2820.5,-7.8763e-05,-31.453,-0.00014521,-530.68,1.6375
29641,19.415,4.0909,0.1,0.00027574,2755.5,0.00023733,2028.5,-2.1322e-05,85.072,-0.00018237,-1125,1.6243
29642,19.508,4,0.1,0.00041746,4171.7,0.00038408,3472.7,-6.7952e-05,76.277,-0.00023566,-1183.8,1.6371
29643,19.415,4.2727,0.1,0.00022697,2268.1,0.00018286,1444.9,-7.9407e-06,11.377,-0.00016517,-1170,1.6239
29644,19.508,4.1818,0.1,0.00022808,2279.2,0.00016705,1239,1.3141e-05,82.625,-0.0001824,-1386.6,1.6366
29645,19.415,4.4545,0.1,0.00017463,1745.1,0.00013815,1068.5,-4.1166e-06,-0.48455,-0.00012986,-945.29,1.6233
29646,19.508,4.3636,0.1,0.00015879,1586.8,0.00012164,902.67,-9.6505e-07,-18.547,-0.00012222,-929.64,1.636
29647,19.415,4.6364,0.1,0.00013745,1373.5,0.0001095,854.27,-3.7751e-06,3.1898,-0.0001014,-730.29,1.6228
29648,19.508,4.5455,0.1,0.00012413,1240.4,9.5208e-05,716.91,4.2416e-07,4.7414,-9.5419e-05,-715.39,1.6355
29649,19.415,4.8182,0.1,0.00010977,1097,8.8636e-05,699.92,-4.343e-06,1.3106,-7.9638e-05,-564.43,1.6222
29650,19.508,4.7273,0.1,9.8033e-05,979.65,7.6732e-05,586.62,-1.5687e-06,-1.7053,-7.3781e-05,-544.28,1.6349
29651,19.415,5,0.1,8.7602e-05,875.42,7.2079e-05,579.71,-4.8824e-06,1.4569,-6.1966e-05,-427.45,1.6216
29652,19.508,4.9091,0.1,7.816e-05,781.06,6.2503e-05,488.48,-2.5298e-06,-0.15286,-5.7388e-05,-412.34,1.6342
29653,19.415,5.1818,0.1,6.8957e-05,689.09,5.8114e-05,478.27,-5.3733e-06,1.2474,-4.7034e-05,-311.77,1.621
29654,19.508,5.0909,0.1,6.1854e-05,618.11,5.0783e-05,406.85,-3.443e-06,-0.58912,-4.3874e-05,-304.37,1.6336
29655,19.415,5.3636,0.1,5.2772e-05,527.36,4.5825e-05,388.28,-5.6773e-06,1.3076,-3.4119e-05,-212.39,1.6204
29656,19.508,5.2727,0.1,4.7897e-05,478.64,4.0563e-05,334.77,-4.0579e-06,-0.4886,-3.2391e-05,-213.37,1.633
29657,19.415,5.5455,0.1,3.8529e-05,385.03,3.4723e-05,305.37,-5.7204e-06,1.4933,-2.2904e-05,-127.62,1.6198
29658,19.508,5.4545,0.1,3.5569e-05,355.44,3.1267e-05,267.52,-4.4037e-06,-0.50168,-2.2395e-05,-135.68,1.6324
29659,19.415,5.7273,0.1,2.6571e-05,265.53,2.498e-05,230.14,-5.3146e-06,2.5229,-1.3844e-05,-61.561,1.6192
29660,19.508,5.6364,0.1,2.4458e-05,244.41,2.2504e-05,201.51,-4.4166e-06,-0.76189,-1.3641e-05,-70.074,1.6318
29661,19.508,5.8182,0.1,1.4688e-05,146.77,1.423e-05,135.22,-3.8723e-06,-0.79191,-6.4763e-06,-20.357,1.6312
29662,19.415,5.9091,0.1,1.7191e-05,171.8,1.6935e-05,165.46,-4.7246e-06,2.7192,-6.9694e-06,-14.147,1.6186
29663,19.767,3.7273,0.1,0.00031248,3122.7,0.00030574,2949.8,-8.6222e-05,4.7518,-0.00013003,-324.41,1.6732
29664,19.683,3.8182,0.1,0.00035003,3497.9,0.00034082,3258.1,-9.7002e-05,-31.551,-0.00014821,-416.28,1.6616
29665,19.767,3.9091,0.1,0.00040955,4092.7,0.00040514,4013.2,-0.00010085,211.4,-0.0001714,-318.71,1.6729
29666,19.767,3.5455,0.1,0.00026043,2602.5,0.00025395,2438.7,-7.0041e-05,4.3993,-0.00011114,-304.43,1.6734
29667,19.683,3.6364,0.1,0.00027819,2780,0.00027056,2590.2,-7.3005e-05,8.7998,-0.00012114,-352.84,1.6619
29668,19.767,3.3636,0.1,0.00023508,2349.2,0.00022922,2200.3,-6.3597e-05,0.1775,-0.00010007,-273.89,1.6736
29669,19.683,3.4545,0.1,0.00024584,2456.7,0.00023918,2288.8,-6.5485e-05,-0.35035,-0.00010627,-306.78,1.6621
29670,19.767,3.1818,0.1,0.00022283,2226.8,0.00021733,2087.1,-6.0346e-05,0.67263,-9.4721e-05,-257.61,1.6737
29671,19.683,3.2727,0.1,0.00022897,2288.1,0.0002229,2135.1,-6.1139e-05,0.94521,-9.8642e-05,-280.84,1.6622
29672,19.767,3,0.1,0.00021916,2190.1,0.00021378,2053.2,-5.9427e-05,0.40686,-9.3068e-05,-252.36,1.6737
29673,19.683,3.0909,0.1,0.00022175,2215.9,0.00021595,2069.4,-5.9411e-05,0.46808,-9.5261e-05,-268.9,1.6623
29674,19.767,2.8182,0.1,0.00022283,2226.8,0.00021733,2087.1,-6.0346e-05,0.67263,-9.4721e-05,-257.61,1.6737
29675,19.683,2.9091,0.1,0.00022175,2215.9,0.00021595,2069.4,-5.9411e-05,0.46808,-9.5261e-05,-268.9,1.6623
29676,19.767,2.6364,0.1,0.00023508,2349.2,0.00022922,2200.3,-6.3597e-05,0.1775,-0.00010007,-273.89,1.6736
29677,19.683,2.7273,0.1,0.00022897,2288.1,0.0002229,2135.1,-6.1139e-05,0.94521,-9.8642e-05,-280.84,1.6622
29678,19.767,2.4545,0.1,0.00026043,2602.5,0.00025395,2438.7,-7.0041e-05,4.3993,-0.00011114,-304.43,1.6734
29679,19.683,2.5455,0.1,0.00024584,2456.7,0.00023918,2288.8,-6.5485e-05,-0.35035,-0.00010627,-306.78,1.6621
29680,19.767,2.2727,0.1,0.00031248,3122.7,0.00030574,2949.8,-8.6222e-05,4.7518,-0.00013003,-324.41,1.6732
29681,19.683,2.3636,0.1,0.00027819,2780,0.00027056,2590.2,-7.3005e-05,8.7998,-0.00012114,-352.84,1.6619
29682,19.683,2.1818,0.1,0.00035003,3497.9,0.00034082,3258.1,-9.7002e-05,-31.551,-0.00014821,-416.28,1.6616
29683,19.767,2.0909,0.1,0.00040955,4092.7,0.00040514,4013.2,-0.00010085,211.4,-0.0001714,-318.71,1.6729
29684,19.6,3.7273,0.1,0.00032158,3213.6,0.00031043,2934.4,-8.3141e-05,-22.663,-0.00014473,-485.44,1.6503
29685,19.6,3.9091,0.1,0.00044413,4438.3,0.00041876,3872.2,-9.0311e-05,47.272,-0.00022892,-994.16,1.6499
29686,19.6,3.5455,0.1,0.00026528,2650.9,0.00025718,2450.7,-6.8451e-05,4.0445,-0.00011765,-365.65,1.6505
29687,19.6,3.3636,0.1,0.00024014,2399.8,0.0002332,2226.1,-6.3029e-05,0.40723,-0.00010517,-316.25,1.6507
29688,19.6,3.1818,0.1,0.00022794,2277.8,0.00022155,2117.8,-6.0207e-05,0.72115,-9.9218e-05,-292.39,1.6508
29689,19.6,3,0.1,0.0002243,2241.4,0.00021808,2085.4,-5.9397e-05,0.51179,-9.7418e-05,-285.17,1.6508
29690,19.6,2.8182,0.1,0.00022794,2277.8,0.00022155,2117.8,-6.0207e-05,0.72115,-9.9218e-05,-292.39,1.6508
29691,19.6,2.6364,0.1,0.00024014,2399.8,0.0002332,2226.1,-6.3029e-05,0.40723,-0.00010517,-316.25,1.6507
29692,19.6,2.4545,0.1,0.00026528,2650.9,0.00025718,2450.7,-6.8451e-05,4.0445,-0.00011765,-365.65,1.6505
29693,19.6,2.2727,0.1,0.00032158,3213.6,0.00031043,2934.4,-8.3141e-05,-22.663,-0.00014473,-485.44,1.6503
29694,19.6,2.0909,0.1,0.00044413,4438.3,0.00041876,3872.2,-9.0311e-05,47.272,-0.00022892,-994.16,1.6499
29695,19.767,5.7273,0.1,1.1562e-05,115.54,1.1099e-05,103.79,-3.0064e-06,-2.1906,-5.295e-06,-19.386,1.6703
29696,19.767,5.9091,0.1,4.1424e-06,41.396,4.0818e-06,39.906,-1.1364e-06,0.69889,-1.6787e-06,-3.3761,1.6701
29697,19.767,5.8182,0.05,2.5985e-06,25.967,1.9953e-06,14.992,4.0625e-13,6.1257e-06,-1.9953e-06,-14.992,1.6702
29698,19.767,5.5455,0.1,1.8344e-05,183.31,1.7427e-05,161.1,-4.3599e-06,-2.6039,-8.9325e-06,-36.96,1.6705
29699,19.767,5.6364,0.05,5.6241e-06,56.202,4.3186e-06,32.448,3.3928e-13,5.7942e-06,-4.3186e-06,-32.448,1.6704
29700,19.767,5.3636,0.1,2.5231e-05,252.14,2.3766e-05,217.7,-5.5821e-06,-2.8157,-1.2819e-05,-57.19,1.6707
29701,19.767,5.4545,0.05,8.6097e-06,86.037,6.6112e-06,49.674,4.9981e-13,5.098e-06,-6.6112e-06,-49.674,1.6705
29702,19.767,5.1818,0.1,3.2878e-05,328.56,3.0748e-05,279.46,-6.8849e-06,-3.2981,-1.7222e-05,-80.969,1.6709
29703,19.767,5.2727,0.05,1.1885e-05,118.76,9.126e-06,68.569,3.385e-13,4.8255e-06,-9.126e-06,-68.569,1.6707
29704,19.767,5,0.1,4.1872e-05,418.43,3.8917e-05,351.37,-8.3634e-06,-3.8764,-2.2469e-05,-109.86,1.6711
29705,19.767,5.0909,0.05,1.566e-05,156.49,1.2025e-05,90.35,3.0241e-13,5.2598e-06,-1.2025e-05,-90.35,1.671
29706,19.767,4.8182,0.1,5.3058e-05,530.21,4.9044e-05,440.03,-1.0216e-05,-5.2247,-2.902e-05,-146.51,1.6713
29707,19.767,4.9091,0.05,2.0239e-05,202.25,1.5541e-05,116.77,2.6098e-15,5.2808e-06,-1.5541e-05,-116.77,1.6712
29708,19.767,4.6364,0.1,6.8171e-05,681.24,6.261e-05,558.08,-1.2474e-05,-6.0744,-3.8117e-05,-198.74,1.6716
29709,19.767,4.7273,0.05,2.613e-05,261.12,2.0065e-05,150.76,3.687e-13,5.3725e-06,-2.0065e-05,-150.76,1.6714
29710,19.767,4.4545,0.1,8.822e-05,881.59,8.1166e-05,722.1,-1.6981e-05,-15.344,-4.8793e-05,-254.36,1.6718
29711,19.767,4.5455,0.05,3.424e-05,342.17,2.6292e-05,197.55,6.0818e-13,7.4499e-06,-2.6292e-05,-197.55,1.6717
29712,19.767,4.2727,0.1,0.00013586,1357.7,0.00012061,1037.6,-1.9187e-05,-12.828,-8.3419e-05,-495.44,1.6722
29713,19.767,4.3636,0.05,4.7103e-05,470.7,3.6169e-05,271.76,2.4842e-13,1.2755e-07,-3.6169e-05,-271.76,1.672
29714,19.767,4.0909,0.1,0.00029096,2907.6,0.00028129,2780.8,-4.2468e-05,348.25,-0.00014731,-439.49,1.6725
29715,19.767,4.1818,0.05,8.2039e-05,819.82,6.2996e-05,473.33,4.4753e-12,3.4594e-05,-6.2996e-05,-473.33,1.6723
29716,19.683,4,0.1,0.0004359,4356,0.00042401,4183.5,-7.5458e-05,430.72,-0.00021174,-593.27,1.6612
29717,19.767,4,0.05,7.3994e-05,739.43,5.6818e-05,426.91,-2.368e-11,-0.00029111,-5.6818e-05,-426.91,1.6727
29718,19.6,4.0909,0.1,0.00034024,3400,0.00028931,2499.2,-1.3851e-05,221.38,-0.00023083,-1408.9,1.6494
29719,19.6,4,0.05,0.0001131,1130.2,8.6845e-05,652.52,-4.5545e-12,-8.2516e-05,-8.6845e-05,-652.52,1.6497
29720,19.6,4.2727,0.1,0.00018397,1838.4,0.00012811,864.11,1.146e-05,-12.345,-0.00015307,-1248.5,1.6488
29721,19.6,4.1818,0.05,0.00011695,1168.7,8.9805e-05,674.76,2.8196e-12,2.2777e-05,-8.9805e-05,-674.76,1.6491
29722,19.6,4.4545,0.1,0.00012125,1211.7,8.8851e-05,627.4,2.8273e-06,-18.945,-9.7189e-05,-770.43,1.6482
29723,19.6,4.3636,0.05,7.4022e-05,739.7,5.6839e-05,427.07,7.8969e-15,5.7717e-06,-5.6839e-05,-427.07,1.6485
29724,19.6,4.6364,0.1,9.4757e-05,946.92,7.0599e-05,510.54,1.5319e-06,-8.4081,-7.4862e-05,-582.41,1.6476
29725,19.6,4.5455,0.05,5.5593e-05,555.55,4.2689e-05,320.75,4.5706e-13,6.4445e-06,-4.2689e-05,-320.75,1.6479
29726,19.6,4.8182,0.1,7.4576e-05,745.24,5.7109e-05,424.09,-3.7457e-07,-7.8204,-5.7421e-05,-436.44,1.6469
29727,19.6,4.7273,0.05,4.3991e-05,439.61,3.378e-05,253.81,3.6766e-15,6.7134e-06,-3.378e-05,-253.81,1.6472
29728,19.6,5,0.1,5.9135e-05,590.94,4.6599e-05,356.12,-1.6185e-06,-6.1672,-4.4158e-05,-325.8,1.6463
29729,19.6,4.9091,0.05,3.5026e-05,350.02,2.6896e-05,202.08,4.0087e-15,5.9826e-06,-2.6896e-05,-202.08,1.6466
29730,19.6,5.1818,0.1,4.6387e-05,463.55,3.7727e-05,297.13,-2.556e-06,-5.5442,-3.3298e-05,-236.53,1.6456
29731,19.6,5.0909,0.05,2.7673e-05,276.54,2.1249e-05,159.66,-1.2314e-13,4.8579e-06,-2.1249e-05,-159.66,1.6459
29732,19.6,5.3636,0.1,3.5383e-05,353.58,2.9796e-05,242.49,-3.1399e-06,-4.9693,-2.4102e-05,-162.47,1.645
29733,19.6,5.2727,0.05,2.1301e-05,212.86,1.6356e-05,122.89,2.036e-13,5.5163e-06,-1.6356e-05,-122.89,1.6453
29734,19.6,5.5455,0.1,2.5493e-05,254.75,2.2306e-05,188.13,-3.359e-06,-4.703,-1.6131e-05,-100.66,1.6444
29735,19.6,5.4545,0.05,1.5556e-05,155.46,1.1945e-05,89.752,2.3317e-13,5.4264e-06,-1.1945e-05,-89.752,1.6447
29736,19.6,5.7273,0.1,1.5991e-05,159.8,1.4574e-05,127.77,-2.9984e-06,-4.2573,-9.07e-06,-49.877,1.6438
29737,19.6,5.6364,0.05,1.0202e-05,101.95,7.8341e-06,58.863,8.956e-14,5.3002e-06,-7.8341e-06,-58.863,1.6441
29738,19.6,5.9091,0.1,5.7681e-06,57.641,5.56e-06,52.085,-1.6309e-06,-1.9452,-2.5155e-06,-8.5913,1.6432
29739,19.6,5.8182,0.05,4.868e-06,48.646,3.738e-06,28.086,5.8788e-13,9.0745e-06,-3.738e-06,-28.086,1.6435
29740,19.767,0.27273,0.1,1.1562e-05,115.54,1.1099e-05,103.79,-3.0064e-06,-2.1906,-5.295e-06,-19.386,1.6703
29741,19.767,0.090909,0.1,4.1424e-06,41.396,4.0818e-06,39.906,-1.1364e-06,0.69888,-1.6787e-06,-3.3761,1.6701
29742,19.767,0.18182,0.05,2.5985e-06,25.967,1.9953e-06,14.992,-4.6791e-13,-9.0589e-06,-1.9953e-06,-14.992,1.6702
29743,19.767,0.45455,0.1,1.8344e-05,183.31,1.7427e-05,161.1,-4.3599e-06,-2.6039,-8.9325e-06,-36.96,1.6705
29744,19.767,0.36364,0.05,5.6241e-06,56.202,4.3186e-06,32.448,6.2246e-13,5.7814e-06,-4.3186e-06,-32.448,1.6704
29745,19.767,0.63636,0.1,2.5231e-05,252.14,2.3766e-05,217.7,-5.5821e-06,-2.8157,-1.2819e-05,-57.19,1.6707
29746,19.767,0.54545,0.05,8.6097e-06,86.037,6.6112e-06,49.674,3.398e-13,4.8757e-06,-6.6112e-06,-49.674,1.6705
29747,19.767,0.81818,0.1,3.2878e-05,328.56,3.0748e-05,279.46,-6.8849e-06,-3.2981,-1.7222e-05,-80.969,1.6709
29748,19.767,0.72727,0.05,1.1885e-05,118.76,9.126e-06,68.569,1.5051e-13,4.7528e-06,-9.126e-06,-68.569,1.6707
29749,19.767,1,0.1,4.1872e-05,418.43,3.8917e-05,351.37,-8.3634e-06,-3.8764,-2.2469e-05,-109.86,1.6711
29750,19.767,0.90909,0.05,1.566e-05,156.49,1.2025e-05,90.35,1.6067e-13,3.4783e-06,-1.2025e-05,-90.35,1.671
29751,19.767,1.1818,0.1,5.3058e-05,530.21,4.9044e-05,440.03,-1.0216e-05,-5.2247,-2.902e-05,-146.51,1.6713
29752,19.767,1.0909,0.05,2.0239e-05,202.25,1.5541e-05,116.77,-5.8263e-14,5.3027e-06,-1.5541e-05,-116.77,1.6712
29753,19.767,1.3636,0.1,6.8171e-05,681.24,6.261e-05,558.08,-1.2474e-05,-6.0744,-3.8117e-05,-198.74,1.6716
29754,19.767,1.2727,0.05,2.613e-05,261.12,2.0065e-05,150.76,2.3685e-13,5.655e-06,-2.0065e-05,-150.76,1.6714
29755,19.767,1.5455,0.1,8.822e-05,881.59,8.1166e-05,722.1,-1.6981e-05,-15.344,-4.8793e-05,-254.36,1.6718
29756,19.767,1.4545,0.05,3.424e-05,342.17,2.6292e-05,197.55,-1.5003e-13,4.847e-06,-2.6292e-05,-197.55,1.6717
29757,19.767,1.7273,0.1,0.00013586,1357.7,0.00012061,1037.6,-1.9187e-05,-12.828,-8.3419e-05,-495.44,1.6722
29758,19.767,1.6364,0.05,4.7103e-05,470.7,3.6169e-05,271.76,3.041e-14,3.8785e-06,-3.6169e-05,-271.76,1.672
29759,19.767,1.9091,0.1,0.00029096,2907.6,0.00028129,2780.8,-4.2468e-05,348.25,-0.00014731,-439.49,1.6725
29760,19.767,1.8182,0.05,8.2039e-05,819.82,6.2996e-05,473.33,-3.5143e-13,3.0257e-07,-6.2996e-05,-473.33,1.6723
29761,19.683,2,0.1,0.0004359,4356,0.00042401,4183.5,-7.5458e-05,430.72,-0.00021174,-593.27,1.6612
29762,19.767,2,0.05,7.3994e-05,739.43,5.6818e-05,426.91,6.7297e-14,1.5604e-05,-5.6818e-05,-426.91,1.6727
29763,19.6,1.9091,0.1,0.00034024,3400,0.00028931,2499.2,-1.3851e-05,221.38,-0.00023083,-1408.9,1.6494
29764,19.6,2,0.05,0.0001131,1130.2,8.6845e-05,652.52,-3.5724e-20,3.2046e-05,-8.6845e-05,-652.52,1.6497
29765,19.6,1.7273,0.1,0.00018397,1838.4,0.00012811,864.11,1.146e-05,-12.345,-0.00015307,-1248.5,1.6488
29766,19.6,1.8182,0.05,0.00011695,1168.7,8.9805e-05,674.76,4.4104e-15,-1.4313e-13,-8.9805e-05,-674.76,1.6491
29767,19.6,1.5455,0.1,0.00012125,1211.7,8.8851e-05,627.4,2.8272e-06,-18.945,-9.7189e-05,-770.43,1.6482
29768,19.6,1.6364,0.05,7.4022e-05,739.7,5.6839e-05,427.07,3.3752e-13,6.6178e-06,-5.6839e-05,-427.07,1.6485
29769,19.6,1.3636,0.1,9.4757e-05,946.92,7.0599e-05,510.54,1.5319e-06,-8.4081,-7.4862e-05,-582.41,1.6476
29770,19.6,1.4545,0.05,5.5593e-05,555.55,4.2689e-05,320.75,-3.3102e-20,5.7318e-06,-4.2689e-05,-320.75,1.6479
29771,19.6,1.1818,0.1,7.4576e-05,745.24,5.7109e-05,424.09,-3.7458e-07,-7.8204,-5.7421e-05,-436.44,1.6469
29772,19.6,1.2727,0.05,4.3991e-05,439.61,3.378e-05,253.81,2.7574e-15,6.4605e-06,-3.378e-05,-253.81,1.6472
29773,19.6,1,0.1,5.9135e-05,590.94,4.6599e-05,356.12,-1.6185e-06,-6.1672,-4.4158e-05,-325.8,1.6463
29774,19.6,1.0909,0.05,3.5026e-05,350.02,2.6896e-05,202.08,4.041e-13,5.7312e-06,-2.6896e-05,-202.08,1.6466
29775,19.6,0.81818,0.1,4.6387e-05,463.55,3.7727e-05,297.13,-2.556e-06,-5.5442,-3.3298e-05,-236.53,1.6456
29776,19.6,0.90909,0.05,2.7673e-05,276.54,2.1249e-05,159.66,1.6419e-13,4.9578e-06,-2.1249e-05,-159.66,1.6459
29777,19.6,0.63636,0.1,3.5383e-05,353.58,2.9796e-05,242.5,-3.1399e-06,-4.9693,-2.4102e-05,-162.47,1.645
29778,19.6,0.72727,0.05,2.1301e-05,212.86,1.6356e-05,122.89,3.418e-13,5.8467e-06,-1.6356e-05,-122.89,1.6453
29779,19.6,0.45455,0.1,2.5493e-05,254.75,2.2306e-05,188.13,-3.359e-06,-4.703,-1.6131e-05,-100.66,1.6444
29780,19.6,0.54545,0.05,1.5556e-05,155.46,1.1945e-05,89.752,2.8711e-13,5.3681e-06,-1.1945e-05,-89.752,1.6447
29781,19.6,0.27273,0.1,1.5991e-05,159.8,1.4574e-05,127.77,-2.9984e-06,-4.2573,-9.07e-06,-49.877,1.6438
29782,19.6,0.36364,0.05,1.0202e-05,101.95,7.8341e-06,58.863,2.6723e-13,6.0766e-06,-7.8341e-06,-58.863,1.6441
29783,19.6,0.090909,0.1,5.7681e-06,57.641,5.56e-06,52.085,-1.6309e-06,-1.9452,-2.5155e-06,-8.5913,1.6432
29784,19.6,0.18182,0.05,4.868e-06,48.646,3.738e-06,28.086,7.1263e-14,2.554e-06,-3.738e-06,-28.086,1.6435
29785,19.859,6,0.1,4.7766e-06,47.733,4.7897e-06,48.439,-1.2373e-06,3.154,-1.8453e-06,-1.4143,1.683
29786,19.767,6,0.05,8.9824e-07,8.9762,6.8974e-07,5.1824,-9.3357e-13,-3.9858e-07,-6.8973e-07,-5.1824,1.67
29787,20.043,6,0.1,1.3403e-05,133.94,1.3313e-05,131.39,-4.2173e-06,-0.32658,-4.7955e-06,-4.6712,1.7091
29788,19.951,6,0.05,1.001e-06,10.003,7.6863e-07,5.7752,-1.8799e-13,-7.019e-07,-7.6863e-07,-5.7752,1.6961
29789,20.227,6,0.1,2.0965e-05,209.51,2.0844e-05,206.05,-6.6571e-06,-0.58214,-7.4078e-06,-6.2226,1.7352
29790,20.135,6,0.05,2.3832e-06,23.815,1.83e-06,13.75,5.3115e-13,7.6159e-06,-1.83e-06,-13.75,1.7221
29791,20.411,6,0.1,2.7114e-05,270.96,2.6983e-05,267.21,-8.6207e-06,-0.29612,-9.5208e-06,-7.0592,1.7613
29792,20.319,6,0.05,3.2181e-06,32.159,2.4711e-06,18.567,3.2319e-13,6.6448e-06,-2.4711e-06,-18.567,1.7482
29793,20.595,6,0.1,3.1963e-05,319.41,3.1829e-05,315.6,-1.0196e-05,-0.16518,-1.115e-05,-7.3308,1.7874
29794,20.503,6,0.05,3.7734e-06,37.708,2.8975e-06,21.771,-7.6376e-15,4.6455e-06,-2.8975e-06,-21.771,1.7743
29795,20.779,6,0.1,3.5543e-05,355.19,3.5413e-05,351.48,-1.1372e-05,-0.054816,-1.2331e-05,-7.2605,1.8135
29796,20.687,6,0.05,4.119e-06,41.162,3.1629e-06,23.765,4.5474e-13,6.9736e-06,-3.1629e-06,-23.765,1.8004
29797,20.963,6,0.1,3.7934e-05,379.07,3.7809e-05,375.52,-1.2167e-05,0.010991,-1.3104e-05,-7.0284,1.8397
29798,20.871,6,0.05,4.3212e-06,43.182,3.3181e-06,24.931,4.5543e-13,5.698e-06,-3.3181e-06,-24.931,1.8266
29799,21.147,6,0.1,3.9244e-05,392.17,3.9126e-05,388.78,-1.2611e-05,0.049839,-1.3515e-05,-6.7411,1.8659
29800,21.055,6,0.05,4.426e-06,44.229,3.3986e-06,25.536,4.5167e-13,5.8977e-06,-3.3986e-06,-25.536,1.8528
29801,21.331,6,0.1,3.9606e-05,395.79,3.9494e-05,392.55,-1.2743e-05,0.069657,-1.3613e-05,-6.4666,1.8921
29802,21.239,6,0.05,4.4671e-06,44.64,3.4302e-06,25.773,6.7831e-13,6.3904e-06,-3.4302e-06,-25.773,1.879
29803,21.515,6,0.1,3.9158e-05,391.31,3.9049e-05,388.19,-1.2605e-05,0.078942,-1.3446e-05,-6.2429,1.9183
29804,21.423,6,0.05,4.4673e-06,44.642,3.4303e-06,25.774,4.5256e-13,6.2374e-06,-3.4303e-06,-25.774,1.9052
29805,21.699,6,0.1,3.803e-05,380.04,3.7924e-05,377,-1.224e-05,0.083509,-1.3062e-05,-6.0891,1.9446
29806,21.607,6,0.05,4.4407e-06,44.377,3.4099e-06,25.621,4.5674e-13,5.62e-06,-3.4099e-06,-25.621,1.9314
29807,21.883,6,0.1,3.6342e-05,363.17,3.6237e-05,360.17,-1.1686e-05,0.087462,-1.2498e-05,-6.0124,1.9709
29808,21.791,6,0.05,4.3953e-06,43.922,3.375e-06,25.359,6.7812e-13,8.2668e-06,-3.375e-06,-25.359,1.9577
29809,22.067,6,0.1,3.4199e-05,341.75,3.4094e-05,338.75,-1.0979e-05,0.093476,-1.1791e-05,-6.0125,1.9972
29810,21.975,6,0.05,4.334e-06,43.311,3.328e-06,25.005,4.4858e-13,4.9448e-06,-3.328e-06,-25.005,1.984
29811,22.251,6,0.1,3.169e-05,316.69,3.1584e-05,313.65,-1.0146e-05,0.10327,-1.097e-05,-6.0851,2.0235
29812,22.159,6,0.05,4.257e-06,42.541,3.2688e-06,24.561,6.8625e-13,8.243e-06,-3.2688e-06,-24.561,2.0103
29813,22.436,6,0.1,2.8893e-05,288.73,2.8784e-05,285.62,-9.2148e-06,0.11801,-1.0059e-05,-6.2234,2.0498
29814,22.343,6,0.05,4.1618e-06,41.589,3.1957e-06,24.011,9.0705e-13,4.1231e-06,-3.1957e-06,-24.011,2.0367
29815,22.62,6,0.1,2.5869e-05,258.51,2.5756e-05,255.31,-8.2051e-06,0.13863,-9.0779e-06,-6.4191,2.0762
29816,22.528,6,0.05,4.0444e-06,40.416,3.1056e-06,23.334,4.4698e-13,8.1237e-06,-3.1056e-06,-23.334,2.063
29817,22.804,6,0.1,2.2672e-05,226.56,2.2553e-05,223.23,-7.1352e-06,0.16598,-8.044e-06,-6.6625,2.1026
29818,22.712,6,0.05,3.8994e-06,38.967,2.9943e-06,22.498,4.4565e-13,7.1657e-06,-2.9943e-06,-22.498,2.0894
29819,22.988,6,0.1,1.9345e-05,193.31,1.922e-05,189.84,-6.0197e-06,0.20177,-6.9705e-06,-6.9417,2.129
29820,22.896,6,0.05,3.7199e-06,37.173,2.8564e-06,21.462,5.6828e-13,6.8821e-06,-2.8564e-06,-21.462,2.1158
29821,23.172,6,0.1,1.5927e-05,159.16,1.5795e-05,155.53,-4.8721e-06,0.24615,-5.8689e-06,-7.2431,2.1554
29822,23.08,6,0.05,3.4968e-06,34.944,2.6851e-06,20.175,6.8617e-13,6.0936e-06,-2.6851e-06,-20.175,2.1422
29823,23.356,6,0.1,1.2453e-05,124.45,1.2312e-05,120.65,-3.7043e-06,0.31091,-4.7484e-06,-7.5343,2.1818
29824,23.264,6,0.05,3.2179e-06,32.157,2.471e-06,18.566,8.102e-13,7.0659e-06,-2.471e-06,-18.566,2.1686
29825,23.54,6,0.1,8.9692e-06,89.63,8.8142e-06,85.623,-2.5312e-06,0.37824,-3.6233e-06,-7.8271,2.2083
29826,23.448,6,0.05,2.8655e-06,28.635,2.2003e-06,16.533,7.8451e-13,5.9333e-06,-2.2003e-06,-16.533,2.1951
29827,23.724,6,0.1,5.5161e-06,55.123,5.3498e-06,51.134,-1.3764e-06,0.59601,-2.4735e-06,-7.6467,2.2347
29828,23.632,6,0.05,2.406e-06,24.043,1.8475e-06,13.881,7.917e-13,7.5381e-06,-1.8475e-06,-13.881,2.2215
29829,23.908,6,0.1,2.3089e-06,23.073,2.1377e-06,19.442,-3.9723e-07,0.39568,-1.277e-06,-6.2142,2.2612
29830,23.816,6,0.05,1.7476e-06,17.464,1.3419e-06,10.083,5.0816e-13,9.5497e-06,-1.3419e-06,-10.083,2.2479
29831,24,5.9091,0.1,1.89e-06,18.887,1.2148e-06,6.2353,5.7695e-08,-2.4589,-1.6691e-06,-15.434,2.2744
29832,24,6,0.05,7.9597e-07,7.9542,6.1121e-07,4.5924,2.8511e-12,2.9932e-05,-6.1121e-07,-4.5924,2.2744
29833,24,5.7273,0.1,3.9355e-06,39.328,1.9575e-06,6.8427,7.4168e-07,-2.2925,-3.7777e-06,-36.249,2.2745
29834,24,5.8182,0.05,7.2387e-07,7.2337,5.5584e-07,4.1764,9.5968e-13,1.1872e-05,-5.5584e-07,-4.1764,2.2744
29835,24,5.5455,0.1,5.3841e-06,53.804,2.4567e-06,6.9832,1.2139e-06,-2.3545,-5.2442e-06,-50.879,2.2745
29836,24,5.6364,0.05,7.7036e-07,7.6983,5.9154e-07,4.4446,6.3077e-13,9.4904e-06,-5.9154e-07,-4.4446,2.2745
29837,24,5.3636,0.1,6.3391e-06,63.347,2.7822e-06,7.0284,1.5228e-06,-2.4341,-6.2077e-06,-60.518,2.2746
29838,24,5.4545,0.05,8.192e-07,8.1863,6.2904e-07,4.7264,6.5355e-13,1.1494e-05,-6.2904e-07,-4.7264,2.2746
29839,24,5.1818,0.1,6.9737e-06,69.689,2.9946e-06,7.0346,1.7318e-06,-2.4532,-6.8471e-06,-66.912,2.2747
29840,24,5.2727,0.05,8.4599e-07,8.4541,6.4962e-07,4.881,7.6748e-13,1.2544e-05,-6.4962e-07,-4.881,2.2746
29841,24,5,0.1,7.3662e-06,73.612,3.1244e-06,7.0177,1.8617e-06,-2.4697,-7.2428e-06,-70.878,2.2747
29842,24,5.0909,0.05,8.5975e-07,8.5916,6.6018e-07,4.9603,6.1405e-13,1.0351e-05,-6.6018e-07,-4.9603,2.2747
29843,24,4.8182,0.1,7.5711e-06,75.659,3.1908e-06,6.9919,1.9302e-06,-2.48,-7.4497e-06,-72.957,2.2748
29844,24,4.9091,0.05,8.6411e-07,8.6351,6.6353e-07,4.9855,6.8239e-13,1.1151e-05,-6.6353e-07,-4.9855,2.2747
29845,24,4.6364,0.1,7.6306e-06,76.253,3.2084e-06,6.9604,1.9509e-06,-2.4879,-7.5104e-06,-73.577,2.2748
29846,24,4.7273,0.05,8.6153e-07,8.6094,6.6155e-07,4.9706,8.9485e-13,1.4812e-05,-6.6155e-07,-4.9706,2.2748
29847,24,4.4545,0.1,7.5811e-06,75.759,3.1895e-06,6.9261,1.9357e-06,-2.494,-7.4616e-06,-73.102,2.2749
29848,24,4.5455,0.05,8.5382e-07,8.5323,6.5563e-07,4.9261,9.3957e-13,1.4959e-05,-6.5563e-07,-4.9261,2.2748
29849,24,4.2727,0.1,7.455e-06,74.499,3.145e-06,6.8904,1.8954e-06,-2.4988,-7.3358e-06,-71.858,2.2749
29850,24,4.3636,0.05,8.4242e-07,8.4184,6.4687e-07,4.8604,1.2934e-12,1.5721e-05,-6.4687e-07,-4.8603,2.2749
29851,24,4.0909,0.1,7.2816e-06,72.766,3.0847e-06,6.8546,1.8393e-06,-2.5027,-7.1623e-06,-70.137,2.2749
29852,24,4.1818,0.05,8.2861e-07,8.2804,6.3627e-07,4.7807,1.2597e-12,1.6038e-05,-6.3627e-07,-4.7807,2.2749
29853,24,3.9091,0.1,7.0872e-06,70.823,3.0175e-06,6.8202,1.7763e-06,-2.506,-6.9676e-06,-68.204,2.2749
29854,24,4,0.05,8.1362e-07,8.1306,6.2476e-07,4.6942,1.4641e-12,1.948e-05,-6.2476e-07,-4.6942,2.2749
29855,24,3.7273,0.1,6.8948e-06,68.901,2.9512e-06,6.7885,1.7138e-06,-2.5087,-6.7748e-06,-66.289,2.275
29856,24,3.8182,0.05,7.9865e-07,7.9809,6.1326e-07,4.6078,1.6631e-12,1.9251e-05,-6.1326e-07,-4.6078,2.2749
29857,24,3.5455,0.1,6.724e-06,67.194,2.8924e-06,6.7613,1.6583e-06,-2.5108,-6.6035e-06,-64.587,2.275
29858,24,3.6364,0.05,7.8485e-07,7.8431,6.0267e-07,4.5282,1.6037e-12,2.0335e-05,-6.0267e-07,-4.5282,2.275
29859,24,3.3636,0.1,6.5905e-06,65.859,2.8463e-06,6.7402,1.6149e-06,-2.5123,-6.4696e-06,-63.256,2.275
29860,24,3.4545,0.05,7.7335e-07,7.7281,5.9383e-07,4.4618,1.7949e-12,2.0974e-05,-5.9384e-07,-4.4618,2.275
29861,24,3.1818,0.1,6.5057e-06,65.012,2.8171e-06,6.7268,1.5873e-06,-2.5133,-6.3845e-06,-62.411,2.275
29862,24,3.2727,0.05,7.6508e-07,7.6455,5.8748e-07,4.4141,1.8057e-12,2.1921e-05,-5.8748e-07,-4.4141,2.275
29863,24,3,0.1,6.4766e-06,64.722,2.8071e-06,6.7222,1.5779e-06,-2.5136,-6.3554e-06,-62.121,2.275
29864,24,3.0909,0.05,7.6075e-07,7.6022,5.8416e-07,4.3892,1.6674e-12,2.1646e-05,-5.8416e-07,-4.3892,2.275
29865,24,2.8182,0.1,6.5057e-06,65.012,2.8171e-06,6.7268,1.5873e-06,-2.5133,-6.3845e-06,-62.411,2.275
29866,24,2.9091,0.05,7.6075e-07,7.6022,5.8416e-07,4.3892,1.7395e-12,2.0285e-05,-5.8416e-07,-4.3892,2.275
29867,24,2.6364,0.1,6.5905e-06,65.859,2.8463e-06,6.7402,1.6149e-06,-2.5123,-6.4696e-06,-63.256,2.275
29868,24,2.7273,0.05,7.6507e-07,7.6455,5.8748e-07,4.4141,1.7971e-12,2.0705e-05,-5.8748e-07,-4.4141,2.275
29869,24,2.4545,0.1,6.724e-06,67.194,2.8924e-06,6.7612,1.6583e-06,-2.5108,-6.6035e-06,-64.587,2.275
29870,24,2.5455,0.05,7.7335e-07,7.7281,5.9383e-07,4.4618,1.8409e-12,2.1017e-05,-5.9383e-07,-4.4618,2.275
29871,24,2.2727,0.1,6.8948e-06,68.901,2.9512e-06,6.7885,1.7138e-06,-2.5087,-6.7748e-06,-66.289,2.275
29872,24,2.3636,0.05,7.8485e-07,7.8431,6.0267e-07,4.5282,1.7314e-12,2.1917e-05,-6.0267e-07,-4.5282,2.275
29873,24,2.0909,0.1,7.0872e-06,70.823,3.0175e-06,6.8201,1.7763e-06,-2.506,-6.9676e-06,-68.204,2.2749
29874,24,2.1818,0.05,7.9864e-07,7.9809,6.1326e-07,4.6078,1.7261e-12,1.8341e-05,-6.1326e-07,-4.6078,2.2749
29875,24,1.9091,0.1,7.2816e-06,72.766,3.0847e-06,6.8546,1.8393e-06,-2.5027,-7.1623e-06,-70.137,2.2749
29876,24,2,0.05,8.1362e-07,8.1306,6.2476e-07,4.6942,1.5007e-12,1.637e-05,-6.2476e-07,-4.6942,2.2749
29877,24,1.7273,0.1,7.455e-06,74.499,3.145e-06,6.8904,1.8954e-06,-2.4988,-7.3358e-06,-71.858,2.2749
29878,24,1.8182,0.05,8.2861e-07,8.2804,6.3627e-07,4.7807,1.5491e-12,1.684e-05,-6.3627e-07,-4.7807,2.2749
29879,24,1.5455,0.1,7.5811e-06,75.758,3.1895e-06,6.9261,1.9357e-06,-2.494,-7.4616e-06,-73.102,2.2749
29880,24,1.6364,0.05,8.4242e-07,8.4183,6.4687e-07,4.8603,1.6307e-12,1.8348e-05,-6.4687e-07,-4.8603,2.2749
29881,24,1.3636,0.1,7.6306e-06,76.253,3.2084e-06,6.9604,1.9509e-06,-2.4879,-7.5104e-06,-73.577,2.2748
29882,24,1.4545,0.05,8.5382e-07,8.5323,6.5563e-07,4.9261,1.5709e-12,1.6361e-05,-6.5563e-07,-4.9261,2.2748
29883,24,1.1818,0.1,7.5711e-06,75.659,3.1908e-06,6.9919,1.9302e-06,-2.48,-7.4497e-06,-72.957,2.2748
29884,24,1.2727,0.05,8.6153e-07,8.6094,6.6155e-07,4.9706,1.6955e-12,1.6615e-05,-6.6155e-07,-4.9706,2.2748
29885,24,1,0.1,7.3662e-06,73.611,3.1244e-06,7.0177,1.8617e-06,-2.4697,-7.2428e-06,-70.877,2.2747
29886,24,1.0909,0.05,8.6411e-07,8.6351,6.6353e-07,4.9855,1.4785e-12,1.7917e-05,-6.6353e-07,-4.9855,2.2747
29887,24,0.81818,0.1,6.9737e-06,69.688,2.9946e-06,7.0346,1.7318e-06,-2.4532,-6.8471e-06,-66.912,2.2747
29888,24,0.90909,0.05,8.5975e-07,8.5915,6.6018e-07,4.9603,1.5051e-12,1.7381e-05,-6.6018e-07,-4.9603,2.2747
29889,24,0.63636,0.1,6.3391e-06,63.347,2.7822e-06,7.0284,1.5228e-06,-2.4341,-6.2077e-06,-60.518,2.2746
29890,24,0.72727,0.05,8.4599e-07,8.4541,6.4962e-07,4.881,1.4416e-12,1.7577e-05,-6.4962e-07,-4.881,2.2746
29891,24,0.45455,0.1,5.3841e-06,53.804,2.4567e-06,6.9832,1.2139e-06,-2.3545,-5.2442e-06,-50.878,2.2745
29892,24,0.54545,0.05,8.1919e-07,8.1863,6.2904e-07,4.7264,1.3176e-12,1.6298e-05,-6.2904e-07,-4.7264,2.2746
29893,24,0.27273,0.1,3.9355e-06,39.328,1.9575e-06,6.8427,7.4168e-07,-2.2925,-3.7777e-06,-36.249,2.2745
29894,24,0.36364,0.05,7.7036e-07,7.6983,5.9154e-07,4.4446,4.7122e-13,7.5305e-06,-5.9154e-07,-4.4446,2.2745
29895,24,0.090909,0.1,1.89e-06,18.887,1.2148e-06,6.2353,5.7695e-08,-2.4589,-1.6691e-06,-15.434,2.2744
29896,24,0.18182,0.05,7.2387e-07,7.2337,5.5584e-07,4.1764,-1.5689e-13,-3.7125e-06,-5.5584e-07,-4.1764,2.2744
29897,2.3842e-15,0.27273,0.1,0.0001832,1830.8,0.00024133,3543.2,4.5375e-06,1764,-8.6563e-06,1664.9,0
29898,7.9472e-16,0.090909,0.1,0.00013973,1396.3,0.00013627,1440.2,-4.9112e-06,379.44,-7.4269e-05,-141.69,0
29899,1.6109e-15,0.18182,0.05,1.666e-05,166.49,1.2793e-05,96.123,1.2845e-13,-6.1145e-05,-1.2793e-05,-96.123,0
29900,3.9736e-15,0.45455,0.1,0.00026234,2621.6,0.00034873,5161.5,3.3406e-06,2566.4,-3.5991e-06,2514.2,0
29901,3.2219e-15,0.36364,0.05,8.5786e-06,85.727,6.5873e-06,49.494,-5.5048e-12,-6.816e-05,-6.5873e-06,-49.494,0
29902,5.563e-15,0.63636,0.1,0.00030483,3046.2,0.00040564,6009.4,2.3447e-06,2979.2,-1.873e-06,2947.5,0
29903,4.8328e-15,0.54545,0.05,7.7329e-06,77.275,5.9379e-06,44.615,-4.2937e-12,-0.00013442,-5.9379e-06,-44.615,0
29904,7.1525e-15,0.81818,0.1,0.00033226,3320.3,0.00044206,6547.5,1.5035e-06,3237.4,-1.1796e-06,3217.2,0
29905,6.4438e-15,0.72727,0.05,6.7849e-06,67.803,5.21e-06,39.146,-1.6552e-12,-0.000119,-5.21e-06,-39.146,0
29906,8.7419e-15,1,0.1,0.00035107,3508.3,0.00046704,6916.7,1.0365e-06,3415.3,-8.1393e-07,3401.4,0
29907,8.0547e-15,0.90909,0.05,5.7599e-06,57.559,4.4229e-06,33.232,-1.0761e-12,-0.0001273,-4.4229e-06,-33.232,0
29908,1.0331e-14,1.1818,0.1,0.00036471,3644.6,0.00048514,7184.2,7.5078e-07,3544.7,-5.9135e-07,3534.7,0
29909,9.6657e-15,1.0909,0.05,4.8766e-06,48.733,3.7446e-06,28.136,-7.7759e-13,-6.7185e-05,-3.7446e-06,-28.136,0
29910,1.1921e-14,1.3636,0.1,0.0003749,3746.4,0.00049868,7384.4,5.5987e-07,3641.7,-4.4299e-07,3634.2,0
29911,1.1277e-14,1.2727,0.05,4.1603e-06,41.575,3.1946e-06,24.003,-8.0747e-13,-6.5644e-05,-3.1946e-06,-24.003,0
29912,1.351e-14,1.5455,0.1,0.00038269,3824.2,0.00050902,7537.3,4.2639e-07,3715.9,-3.3769e-07,3710.2,0
29913,1.2888e-14,1.4545,0.05,3.5784e-06,35.76,2.7478e-06,20.646,-6.0027e-13,-6.1623e-05,-2.7478e-06,-20.646,0
29914,1.51e-14,1.7273,0.1,0.00038869,3884.3,0.000517,7655.3,3.2877e-07,3773.2,-2.5939e-07,3768.8,0
29915,1.4498e-14,1.6364,0.05,3.1072e-06,31.05,2.3859e-06,17.927,-4.5986e-13,-1.4762e-06,-2.3859e-06,-17.927,0
29916,1.6689e-14,1.9091,0.1,0.00039335,3930.8,0.00052319,7746.8,2.5472e-07,3817.7,-1.9886e-07,3814.3,0
29917,1.6109e-14,1.8182,0.05,2.7271e-06,27.252,2.0941e-06,15.734,-1.4182e-13,-6.1209e-05,-2.0941e-06,-15.734,0
29918,1.8279e-14,2.0909,0.1,0.00039694,3966.7,0.00052796,7817.4,1.9668e-07,3852,-1.5041e-07,3849.4,0
29919,1.772e-14,2,0.05,2.4232e-06,24.215,1.8607e-06,13.981,-4.0668e-13,-0.00012146,-1.8607e-06,-13.981,0
29920,1.9868e-14,2.2727,0.1,0.00039967,3993.9,0.00053158,7871,1.4976e-07,3878,-1.1029e-07,3876.1,0
29921,1.9331e-14,2.1818,0.05,2.1841e-06,21.826,1.6771e-06,12.601,-2.7796e-13,-4.3482e-07,-1.6772e-06,-12.601,0
29922,2.1457e-14,2.4545,0.1,0.00040167,4013.9,0.00053424,7910.3,1.1068e-07,3897.1,-7.5947e-08,3895.7,0
29923,2.0942e-14,2.3636,0.05,2.0016e-06,20.002,1.537e-06,11.548,-3.2596e-14,-6.0979e-05,-1.537e-06,-11.548,0
29924,2.3047e-14,2.6364,0.1,0.00040304,4027.6,0.00053605,7937.2,7.7292e-08,3910.1,-4.5668e-08,3909.1,0
29925,2.2553e-14,2.5455,0.05,1.8694e-06,18.682,1.4355e-06,10.786,-1.3746e-14,-4.2036e-07,-1.4355e-06,-10.786,0
29926,2.4636e-14,2.8182,0.1,0.00040383,4035.5,0.00053711,7952.8,4.8828e-08,3917.6,-1.8974e-08,3917,0
29927,2.4164e-14,2.7273,0.05,1.7835e-06,17.823,1.3695e-06,10.29,-2.9849e-15,-6.1117e-05,-1.3695e-06,-10.29,0
29928,2.6226e-14,3,0.1,0.0004041,4038.2,0.00053746,7958,3.2606e-08,3920,-3.3258e-09,3919.7,0
29929,2.5775e-14,2.9091,0.05,1.7412e-06,17.4,1.337e-06,10.046,-8.8998e-16,-8.012e-09,-1.3371e-06,-10.046,0
29930,2.7815e-14,3.1818,0.1,0.00040383,4035.5,0.00053711,7952.8,4.8827e-08,3917.6,-1.8973e-08,3917,0
29931,2.7386e-14,3.0909,0.05,1.7412e-06,17.4,1.337e-06,10.046,-3.8673e-15,-3.049e-08,-1.3371e-06,-10.046,0
29932,2.9405e-14,3.3636,0.1,0.00040304,4027.6,0.00053605,7937.2,7.7292e-08,3910.1,-4.5668e-08,3909.1,0
29933,2.8997e-14,3.2727,0.05,1.7835e-06,17.823,1.3695e-06,10.29,-1.1055e-14,-8.2537e-08,-1.3695e-06,-10.29,0
29934,3.0994e-14,3.5455,0.1,0.00040167,4013.9,0.00053424,7910.3,1.1068e-07,3897.1,-7.5947e-08,3895.7,0
29935,3.0608e-14,3.4545,0.05,1.8694e-06,18.682,1.4355e-06,10.786,-2.4597e-14,-6.1059e-05,-1.4355e-06,-10.786,0
29936,3.2583e-14,3.7273,0.1,0.00039967,3993.9,0.00053158,7871,1.4976e-07,3878,-1.1029e-07,3876.1,0
29937,3.2219e-14,3.6364,0.05,2.0016e-06,20.002,1.537e-06,11.548,-4.1486e-14,-6.1054e-05,-1.537e-06,-11.548,0
29938,3.4173e-14,3.9091,0.1,0.00039694,3966.7,0.00052796,7817.4,1.9668e-07,3852,-1.5041e-07,3849.4,0
29939,3.383e-14,3.8182,0.05,2.1841e-06,21.826,1.6771e-06,12.601,-6.1707e-14,-0.00012345,-1.6771e-06,-12.602,0
29940,3.5762e-14,4.0909,0.1,0.00039335,3930.8,0.00052319,7746.8,2.5472e-07,3817.7,-1.9886e-07,3814.3,0
29941,3.5441e-14,4,0.05,2.4232e-06,24.215,1.8607e-06,13.981,-8.2069e-14,-6.1468e-07,-1.8607e-06,-13.981,0
29942,3.7352e-14,4.2727,0.1,0.00038869,3884.3,0.000517,7655.3,3.2877e-07,3773.2,-2.5939e-07,3768.8,0
29943,3.7052e-14,4.1818,0.05,2.7271e-06,27.252,2.0941e-06,15.734,-1.0468e-13,-4.2611e-06,-2.0941e-06,-15.734,0
29944,3.8941e-14,4.4545,0.1,0.00038269,3824.2,0.00050902,7537.3,4.2639e-07,3715.9,-3.3769e-07,3710.2,0
29945,3.8663e-14,4.3636,0.05,3.1072e-06,31.05,2.3859e-06,17.927,-1.3007e-13,-9.6271e-07,-2.3859e-06,-17.927,0
29946,4.0531e-14,4.6364,0.1,0.0003749,3746.4,0.00049868,7384.4,5.5987e-07,3641.7,-4.4299e-07,3634.2,0
29947,4.0274e-14,4.5455,0.05,3.5784e-06,35.76,2.7478e-06,20.646,-1.5499e-13,-1.1557e-06,-2.7478e-06,-20.646,0
29948,4.212e-14,4.8182,0.1,0.00036471,3644.6,0.00048514,7184.2,7.5078e-07,3544.7,-5.9135e-07,3534.7,0
29949,4.1885e-14,4.7273,0.05,4.1603e-06,41.575,3.1946e-06,24.003,-1.8459e-13,-6.0582e-05,-3.1946e-06,-24.003,0
29950,4.371e-14,5,0.1,0.00035107,3508.3,0.00046704,6916.7,1.0365e-06,3415.3,-8.1393e-07,3401.4,0
29951,4.3495e-14,4.9091,0.05,4.8766e-06,48.733,3.7446e-06,28.136,-2.2206e-13,-1.6765e-06,-3.7446e-06,-28.136,0
29952,4.5299e-14,5.1818,0.1,0.00033226,3320.3,0.00044206,6547.5,1.5035e-06,3237.4,-1.1796e-06,3217.2,0
29953,4.5106e-14,5.0909,0.05,5.7599e-06,57.559,4.4229e-06,33.232,-2.3358e-13,-1.9594e-06,-4.4229e-06,-33.232,0
29954,4.6888e-14,5.3636,0.1,0.00030483,3046.2,0.00040564,6009.4,2.3447e-06,2979.2,-1.873e-06,2947.5,0
29955,4.6717e-14,5.2727,0.05,6.7849e-06,67.803,5.21e-06,39.146,-3.84e-13,-2.6843e-06,-5.21e-06,-39.146,0
29956,4.8478e-14,5.5455,0.1,0.00026234,2621.6,0.00034873,5161.5,3.3406e-06,2566.4,-3.5991e-06,2514.2,0
29957,4.8328e-14,5.4545,0.05,7.7329e-06,77.275,5.9379e-06,44.615,-4.3298e-13,-2.9057e-06,-5.9379e-06,-44.615,0
29958,5.0067e-14,5.7273,0.1,0.0001832,1830.8,0.00024133,3543.2,4.5375e-06,1764,-8.6563e-06,1664.9,0
29959,4.9939e-14,5.6364,0.05,8.5786e-06,85.727,6.5873e-06,49.494,-2.2187e-13,-3.7224e-06,-6.5873e-06,-49.494,0
29960,5.1657e-14,5.9091,0.1,0.00013973,1396.3,0.00013627,1440.2,-4.9112e-06,379.44,-7.4269e-05,-141.68,0
29961,5.155e-14,5.8182,0.05,1.666e-05,166.49,1.2793e-05,96.123,-2.7136e-21,3.0462e-05,-1.2793e-05,-96.123,0
29962,23.908,0,0.1,2.3089e-06,23.073,2.1377e-06,19.442,-3.9723e-07,0.39568,-1.2769e-06,-6.2142,2.2612
29963,24,0,0.05,7.9597e-07,7.9542,6.1121e-07,4.5924,1.8426e-12,2.3618e-05,-6.1121e-07,-4.5924,2.2744
29964,23.724,0,0.1,5.5161e-06,55.123,5.3498e-06,51.134,-1.3764e-06,0.59601,-2.4735e-06,-7.6467,2.2347
29965,23.816,0,0.05,1.7476e-06,17.464,1.3419e-06,10.083,2.9554e-13,7.8934e-06,-1.3419e-06,-10.083,2.2479
29966,23.54,0,0.1,8.9692e-06,89.63,8.8142e-06,85.623,-2.5312e-06,0.37824,-3.6233e-06,-7.8271,2.2083
29967,23.632,0,0.05,2.406e-06,24.043,1.8475e-06,13.881,1.7602e-13,8.4778e-06,-1.8475e-06,-13.881,2.2215
29968,23.356,0,0.1,1.2453e-05,124.45,1.2312e-05,120.65,-3.7043e-06,0.31091,-4.7484e-06,-7.5343,2.1818
29969,23.448,0,0.05,2.8655e-06,28.635,2.2003e-06,16.532,3.8013e-13,6.0512e-06,-2.2003e-06,-16.532,2.1951
29970,23.172,0,0.1,1.5927e-05,159.16,1.5795e-05,155.53,-4.8721e-06,0.24616,-5.8689e-06,-7.2431,2.1554
29971,23.264,0,0.05,3.2179e-06,32.157,2.471e-06,18.566,2.462e-13,5.6487e-06,-2.471e-06,-18.566,2.1686
29972,22.988,0,0.1,1.9345e-05,193.31,1.922e-05,189.84,-6.0198e-06,0.20178,-6.9705e-06,-6.9416,2.129
29973,23.08,0,0.05,3.4968e-06,34.944,2.6851e-06,20.175,3.5768e-13,6.5669e-06,-2.6851e-06,-20.175,2.1422
29974,22.804,0,0.1,2.2672e-05,226.56,2.2553e-05,223.23,-7.1352e-06,0.16598,-8.044e-06,-6.6625,2.1026
29975,22.896,0,0.05,3.7199e-06,37.173,2.8564e-06,21.462,4.5115e-13,8.4026e-06,-2.8564e-06,-21.462,2.1158
29976,22.62,0,0.1,2.5869e-05,258.51,2.5756e-05,255.31,-8.2052e-06,0.13863,-9.0779e-06,-6.4191,2.0762
29977,22.712,0,0.05,3.8994e-06,38.967,2.9943e-06,22.498,9.0302e-13,5.4475e-06,-2.9943e-06,-22.498,2.0894
29978,22.436,0,0.1,2.8893e-05,288.73,2.8784e-05,285.62,-9.2148e-06,0.11801,-1.0059e-05,-6.2234,2.0498
29979,22.528,0,0.05,4.0444e-06,40.416,3.1056e-06,23.334,9.0407e-13,7.8012e-06,-3.1056e-06,-23.334,2.063
29980,22.251,0,0.1,3.169e-05,316.69,3.1584e-05,313.65,-1.0146e-05,0.10328,-1.097e-05,-6.0851,2.0235
29981,22.343,0,0.05,4.1618e-06,41.589,3.1957e-06,24.011,2.3642e-13,5.6716e-06,-3.1957e-06,-24.011,2.0367
29982,22.067,0,0.1,3.4199e-05,341.75,3.4094e-05,338.75,-1.0979e-05,0.09348,-1.1791e-05,-6.0124,1.9972
29983,22.159,0,0.05,4.257e-06,42.541,3.2688e-06,24.561,6.9044e-13,6.6974e-06,-3.2688e-06,-24.561,2.0103
29984,21.883,0,0.1,3.6342e-05,363.17,3.6237e-05,360.17,-1.1686e-05,0.087464,-1.2498e-05,-6.0124,1.9709
29985,21.975,0,0.05,4.334e-06,43.31,3.328e-06,25.005,6.8611e-13,7.4073e-06,-3.328e-06,-25.005,1.984
29986,21.699,0,0.1,3.803e-05,380.04,3.7924e-05,377,-1.224e-05,0.083508,-1.3062e-05,-6.0891,1.9446
29987,21.791,0,0.05,4.3953e-06,43.922,3.375e-06,25.359,6.8006e-13,6.8365e-06,-3.375e-06,-25.359,1.9577
29988,21.515,0,0.1,3.9158e-05,391.31,3.9049e-05,388.19,-1.2605e-05,0.078941,-1.3446e-05,-6.2429,1.9183
29989,21.607,0,0.05,4.4407e-06,44.377,3.4099e-06,25.621,4.5066e-13,5.1735e-06,-3.4099e-06,-25.621,1.9314
29990,21.331,0,0.1,3.9607e-05,395.79,3.9494e-05,392.55,-1.2743e-05,0.069658,-1.3613e-05,-6.4666,1.8921
29991,21.423,0,0.05,4.4672e-06,44.642,3.4303e-06,25.774,2.2951e-13,6.0431e-06,-3.4303e-06,-25.774,1.9052
29992,21.147,0,0.1,3.9244e-05,392.17,3.9126e-05,388.78,-1.2611e-05,0.049842,-1.3515e-05,-6.7411,1.8659
29993,21.239,0,0.05,4.4671e-06,44.64,3.4301e-06,25.773,4.5101e-13,8.6222e-06,-3.4301e-06,-25.773,1.879
29994,20.963,0,0.1,3.7934e-05,379.07,3.7809e-05,375.52,-1.2167e-05,0.010994,-1.3104e-05,-7.0284,1.8397
29995,21.055,0,0.05,4.4259e-06,44.229,3.3986e-06,25.536,2.2284e-13,7.229e-06,-3.3986e-06,-25.536,1.8528
29996,20.779,0,0.1,3.5543e-05,355.19,3.5413e-05,351.48,-1.1372e-05,-0.054813,-1.2331e-05,-7.2605,1.8135
29997,20.871,0,0.05,4.3212e-06,43.182,3.3181e-06,24.931,1.382e-15,4.3926e-06,-3.3181e-06,-24.931,1.8266
29998,20.595,0,0.1,3.1963e-05,319.41,3.1829e-05,315.6,-1.0196e-05,-0.16518,-1.115e-05,-7.3308,1.7874
29999,20.687,0,0.05,4.119e-06,41.162,3.1629e-06,23.765,-2.2997e-13,6.2366e-06,-3.1629e-06,-23.765,1.8004
30000,20.411,0,0.1,2.7114e-05,270.96,2.6983e-05,267.21,-8.6207e-06,-0.29611,-9.5208e-06,-7.0592,1.7613
30001,20.503,0,0.05,3.7734e-06,37.708,2.8975e-06,21.771,2.2769e-13,6.7973e-06,-2.8975e-06,-21.771,1.7743
30002,20.227,0,0.1,2.0965e-05,209.51,2.0844e-05,206.05,-6.6571e-06,-0.58213,-7.4078e-06,-6.2226,1.7352
30003,20.319,0,0.05,3.2181e-06,32.159,2.4711e-06,18.567,1.339e-13,4.6934e-06,-2.4711e-06,-18.567,1.7482
30004,20.043,0,0.1,1.3403e-05,133.94,1.3313e-05,131.39,-4.2173e-06,-0.32657,-4.7955e-06,-4.6712,1.7091
30005,20.135,0,0.05,2.3832e-06,23.815,1.83e-06,13.75,1.0374e-13,7.0292e-06,-1.83e-06,-13.75,1.7221
30006,19.859,0,0.1,4.7766e-06,47.733,4.7898e-06,48.439,-1.2373e-06,3.154,-1.8453e-06,-1.4143,1.683
30007,19.951,0,0.05,1.001e-06,10.003,7.6863e-07,5.7752,2.1259e-14,5.9126e-06,-7.6863e-07,-5.7752,1.6961
30008,19.767,0,0.05,8.9824e-07,8.9762,6.8974e-07,5.1824,-1.1393e-12,-5.2498e-06,-6.8973e-07,-5.1824,1.67
30009,19.508,-5.7958e-30,0.1,7.6e-06,75.947,7.6492e-06,77.698,-2.0645e-06,4.7127,-2.8115e-06,-0.89991,1.6306
30010,19.6,-5.8233e-30,0.05,1.3283e-06,13.274,1.02e-06,7.6636,3.7775e-13,5.9094e-06,-1.02e-06,-7.6636,1.6428
30011,19.323,-5.7409e-30,0.1,2.2292e-05,222.77,2.2249e-05,221.54,-7.1948e-06,0.3083,-7.5994e-06,-2.7321,1.606
30012,19.415,0,0.05,2.2653e-07,2.2637,1.7395e-07,1.307,-9.8892e-13,-8.0366e-06,-1.7395e-07,-1.307,1.6183
30013,19.138,-5.6859e-30,0.1,3.7107e-05,370.81,3.7058e-05,369.38,-1.2114e-05,-0.077992,-1.2473e-05,-2.7768,1.5814
30014,19.23,0,0.05,8.9327e-07,8.9265,6.8592e-07,5.1537,6.4572e-13,4.927e-06,-6.8592e-07,-5.1537,1.5937
30015,18.953,-5.631e-30,0.1,5.1079e-05,510.44,5.1037e-05,509.22,-1.6685e-05,0.38328,-1.7109e-05,-2.802,1.5569
30016,19.045,0,0.05,8.4096e-07,8.4038,6.4575e-07,4.8519,6.1584e-13,4.9291e-06,-6.4575e-07,-4.8519,1.5692
30017,18.768,-5.5761e-30,0.1,6.4213e-05,641.69,6.4176e-05,640.6,-2.1003e-05,0.60185,-2.1452e-05,-2.7732,1.5324
30018,18.86,0,0.05,4.2956e-07,4.2926,3.2984e-07,2.4783,1.8858e-13,3.9651e-06,-3.2985e-07,-2.4783,1.5447
30019,18.583,-5.5211e-30,0.1,7.6405e-05,763.52,7.637e-05,762.5,-2.501e-05,0.77798,-2.5486e-05,-2.7986,1.508
30020,18.675,0,0.05,4.5819e-07,4.5787,3.5183e-07,2.6435,6.2348e-13,-1.6692e-06,-3.5183e-07,-2.6435,1.5202
30021,18.398,-5.4662e-30,0.1,8.7613e-05,875.53,8.7577e-05,874.49,-2.8694e-05,0.86626,-2.92e-05,-2.9338,1.4836
30022,18.491,0,0.05,1.2788e-06,12.779,9.8194e-07,7.3779,-1.1277e-13,4.7152e-06,-9.8194e-07,-7.3779,1.4958
30023,18.213,-5.4113e-30,0.1,9.7858e-05,977.9,9.7818e-05,976.76,-3.2061e-05,0.89312,-3.2602e-05,-3.1695,1.4592
30024,18.306,0,0.05,2.209e-06,22.075,1.6962e-06,12.745,3.0979e-14,3.3468e-06,-1.6962e-06,-12.745,1.4714
30025,18.028,-5.3563e-30,0.1,0.0001072,1071.3,0.00010716,1070,-3.5132e-05,0.87373,-3.5712e-05,-3.4837,1.435
30026,18.121,0,0.05,3.1552e-06,31.53,2.4228e-06,18.204,8.9544e-13,4.5924e-06,-2.4228e-06,-18.204,1.4471
30027,17.843,-5.3014e-30,0.1,0.00011575,1156.7,0.00011569,1155.1,-3.7936e-05,0.82566,-3.8558e-05,-3.848,1.4108
30028,17.936,0,0.05,4.0741e-06,40.713,3.1284e-06,23.506,-2.4065e-14,5.1437e-06,-3.1284e-06,-23.506,1.4229
30029,17.658,-5.2464e-30,0.1,0.00012359,1235,0.00012353,1233.3,-4.051e-05,0.76208,-4.1175e-05,-4.236,1.3867
30030,17.751,0,0.05,4.9406e-06,49.372,3.7938e-06,28.505,8.8249e-13,4.1769e-06,-3.7938e-06,-28.505,1.3987
30031,17.474,-5.1915e-30,0.1,0.00013083,1307.4,0.00013076,1305.4,-4.2887e-05,0.69237,-4.3595e-05,-4.6258,1.3626
30032,17.566,0,0.05,5.7416e-06,57.376,4.4088e-06,33.126,8.9839e-13,5.3144e-06,-4.4088e-06,-33.126,1.3746
30033,17.289,-5.1366e-30,0.1,0.00013758,1374.8,0.0001375,1372.6,-4.5101e-05,0.62251,-4.5849e-05,-5.0008,1.3387
30034,17.381,0,0.05,6.4719e-06,64.674,4.9696e-06,37.34,-1.9181e-14,4.521e-06,-4.9696e-06,-37.34,1.3506
30035,17.104,-5.0816e-30,0.1,0.00014391,1438.1,0.00014383,1435.7,-4.7179e-05,0.55605,-4.7965e-05,-5.3499,1.3148
30036,17.196,0,0.05,7.1315e-06,71.266,5.4761e-06,41.145,-1.1616e-21,4.6319e-06,-5.4761e-06,-41.145,1.3267
30037,16.919,-5.0267e-30,0.1,0.00014991,1498.1,0.00014982,1495.5,-4.9149e-05,0.49482,-4.9969e-05,-5.6664,1.2911
30038,17.011,0,0.05,7.7237e-06,77.183,5.9308e-06,44.562,9.0905e-13,3.8304e-06,-5.9308e-06,-44.562,1.3029
30039,16.734,-4.9718e-30,0.1,0.00015564,1555.3,0.00015555,1552.6,-5.103e-05,0.43957,-5.188e-05,-5.947,1.2674
30040,16.826,0,0.05,8.2534e-06,82.477,6.3376e-06,47.618,1.8101e-12,4.5183e-06,-6.3376e-06,-47.618,1.2792
30041,16.549,-4.9168e-30,0.1,0.00016115,1610.4,0.00016105,1607.5,-5.2841e-05,0.39041,-5.3716e-05,-6.1911,1.2439
30042,16.642,0,0.05,8.7264e-06,87.203,6.7008e-06,50.347,9.0148e-13,4.9939e-06,-6.7008e-06,-50.347,1.2556
30043,16.364,-4.8619e-30,0.1,0.00016649,1663.8,0.00016639,1660.7,-5.4596e-05,0.34706,-5.5494e-05,-6.3995,1.2204
30044,16.457,0,0.05,9.1485e-06,91.422,7.0249e-06,52.783,9.0934e-13,3.0497e-06,-7.0249e-06,-52.783,1.2321
30045,16.179,-4.807e-30,0.1,0.0001717,1715.8,0.00017159,1712.6,-5.6308e-05,0.30906,-5.7224e-05,-6.5744,1.1971
30046,16.272,0,0.05,9.5257e-06,95.191,7.3145e-06,54.959,-9.1648e-22,4.1122e-06,-7.3145e-06,-54.959,1.2087
30047,15.994,-4.752e-30,0.1,0.00017679,1766.7,0.00017668,1763.5,-5.7986e-05,0.27585,-5.8917e-05,-6.7184,1.1739
30048,16.087,0,0.05,9.8631e-06,98.563,7.5736e-06,56.905,-4.6127e-15,3.54e-06,-7.5736e-06,-56.905,1.1855
30049,15.809,-4.6971e-30,0.1,0.00018181,1816.9,0.0001817,1813.6,-5.9638e-05,0.24686,-6.0581e-05,-6.8343,1.1508
30050,15.902,0,0.05,1.0166e-05,101.59,7.8059e-06,58.65,1.8189e-12,3.1568e-06,-7.8059e-06,-58.65,1.1623
30051,15.625,-4.6421e-30,0.1,0.00018677,1866.4,0.00018665,1863,-6.1272e-05,0.22155,-6.2223e-05,-6.925,1.1279
30052,15.717,0,0.05,1.0437e-05,104.3,8.0146e-06,60.219,1.8187e-12,3.9902e-06,-8.0146e-06,-60.219,1.1393
30053,15.44,-4.5872e-30,0.1,0.00019168,1915.5,0.00019156,1912.1,-6.289e-05,0.19941,-6.3848e-05,-6.9932,1.105
30054,15.532,0,0.05,1.0682e-05,106.75,8.2027e-06,61.632,1.8158e-12,3.7289e-06,-8.2027e-06,-61.632,1.1164
30055,15.255,-4.5323e-30,0.1,0.00019656,1964.2,0.00019644,1960.8,-6.4499e-05,0.17998,-6.546e-05,-7.0414,1.0823
30056,15.347,0,0.05,1.0904e-05,108.96,8.3727e-06,62.909,1.8188e-12,3.2772e-06,-8.3727e-06,-62.909,1.0936
30057,15.07,-4.4773e-30,0.1,0.00020141,2012.7,0.00020129,2009.3,-6.6101e-05,0.16286,-6.7064e-05,-7.0721,1.0597
30058,15.162,0,0.05,1.1104e-05,110.97,8.5267e-06,64.066,-1.7074e-16,4.6887e-06,-8.5267e-06,-64.067,1.071
30059,14.885,-4.4224e-30,0.1,0.00020625,2061.1,0.00020613,2057.6,-6.7699e-05,0.14771,-6.8662e-05,-7.0871,1.0373
30060,14.977,0,0.05,1.1287e-05,112.79,8.6666e-06,65.118,1.8169e-12,2.5618e-06,-8.6666e-06,-65.118,1.0485
30061,14.7,-4.3675e-30,0.1,0.00021108,2109.4,0.00021096,2105.9,-6.9295e-05,0.13422,-7.0256e-05,-7.0884,1.015
30062,14.792,0,0.05,1.1452e-05,114.44,8.794e-06,66.075,1.8206e-12,3.5157e-06,-8.794e-06,-66.075,1.0261
30063,14.515,-4.3125e-30,0.1,0.00021591,2157.6,0.00021579,2154.2,-7.089e-05,0.12212,-7.1849e-05,-7.0774,0.99286
30064,14.608,0,0.05,1.1604e-05,115.96,8.9102e-06,66.948,3.6379e-12,4.0052e-06,-8.9102e-06,-66.948,1.0039
30065,14.33,-4.2576e-30,0.1,0.00022075,2205.9,0.00022063,2202.5,-7.2487e-05,0.1112,-7.3441e-05,-7.0556,0.97085
30066,14.423,0,0.05,1.1742e-05,117.34,9.0163e-06,67.745,1.8189e-12,3.0392e-06,-9.0163e-06,-67.745,0.98182
30067,14.145,-4.2027e-30,0.1,0.00022558,2254.3,0.00022546,2250.8,-7.4086e-05,0.10126,-7.5034e-05,-7.024,0.949
30068,14.238,0,0.05,1.1868e-05,118.6,9.1133e-06,68.474,-5.6298e-17,3.2778e-06,-9.1133e-06,-68.474,0.95989
30069,13.96,-4.1477e-30,0.1,0.00023043,2302.7,0.00023031,2299.2,-7.5688e-05,0.092122,-7.6629e-05,-6.9837,0.9273
30070,14.053,0,0.05,1.1984e-05,119.75,9.202e-06,69.14,3.6379e-12,3.9339e-06,-9.202e-06,-69.14,0.93811
30071,13.775,-4.0928e-30,0.1,0.00023528,2351.2,0.00023517,2347.8,-7.7293e-05,0.083656,-7.8227e-05,-6.9354,0.90575
30072,13.868,0,0.05,1.2089e-05,120.81,9.283e-06,69.749,1.8189e-12,2.9799e-06,-9.283e-06,-69.749,0.91649
30073,13.591,-4.0378e-30,0.1,0.00024015,2399.9,0.00024004,2396.5,-7.8903e-05,0.075735,-7.9829e-05,-6.8799,0.88437
30074,13.683,0,0.05,1.2186e-05,121.77,9.357e-06,70.305,1.819e-12,2.9204e-06,-9.357e-06,-70.305,0.89502
30075,13.406,-3.9829e-30,0.1,0.00024503,2448.7,0.00024492,2445.3,-8.0518e-05,0.06825,-8.1434e-05,-6.8176,0.86315
30076,13.498,0,0.05,1.2273e-05,122.65,9.4243e-06,70.81,1.819e-12,2.3838e-06,-9.4243e-06,-70.81,0.87372
30077,13.221,-3.928e-30,0.1,0.00024993,2497.6,0.00024982,2494.2,-8.2138e-05,0.061105,-8.3044e-05,-6.7492,0.8421
30078,13.313,0,0.05,1.2353e-05,123.44,9.4853e-06,71.268,3.6387e-12,3.0991e-06,-9.4852e-06,-71.269,0.85258
30079,13.036,-3.873e-30,0.1,0.00025485,2546.7,0.00025473,2543.4,-8.3764e-05,0.054215,-8.4659e-05,-6.6748,0.82121
30080,13.128,0,0.05,1.2424e-05,124.16,9.5402e-06,71.682,6.3462e-16,3.0452e-06,-9.5402e-06,-71.682,0.83161
30081,12.851,-3.8181e-30,0.1,0.00025978,2596,0.00025966,2592.7,-8.5395e-05,0.047505,-8.6279e-05,-6.5948,0.8005
30082,12.943,0,0.05,1.2488e-05,124.8,9.5894e-06,72.051,5.5739e-16,2.9849e-06,-9.5894e-06,-72.051,0.81081
30083,12.666,-3.7632e-30,0.1,0.00026472,2645.4,0.00026461,2642.2,-8.7033e-05,0.04091,-8.7905e-05,-6.5094,0.77997
30084,12.758,0,0.05,1.2545e-05,125.36,9.6329e-06,72.378,3.6385e-12,2.6862e-06,-9.6329e-06,-72.378,0.79019
30085,12.481,-3.7082e-30,0.1,0.00026969,2695,0.00026958,2691.8,-8.8677e-05,0.034366,-8.9536e-05,-6.4187,0.75962
30086,12.574,0,0.05,1.2594e-05,125.86,9.6709e-06,72.663,1.819e-12,3.0398e-06,-9.6709e-06,-72.663,0.76975
30087,12.296,-3.6533e-30,0.1,0.00027468,2744.9,0.00027457,2741.7,-9.0327e-05,0.027797,-9.1173e-05,-6.3228,0.73945
30088,12.389,0,0.05,1.2637e-05,126.28,9.7033e-06,72.907,1.819e-12,2.7417e-06,-9.7033e-06,-72.907,0.74949
30089,12.111,-3.5984e-30,0.1,0.00027968,2794.9,0.00027958,2791.8,-9.1985e-05,0.021161,-9.2816e-05,-6.2218,0.71947
30090,12.204,0,0.05,1.2672e-05,126.63,9.7302e-06,73.109,3.6382e-12,3.0994e-06,-9.7302e-06,-73.109,0.72941
30091,11.926,-3.5434e-30,0.1,0.00028471,2845.1,0.0002846,2842.1,-9.3649e-05,0.014418,-9.4465e-05,-6.1154,0.69968
30092,12.019,0,0.05,1.2699e-05,126.9,9.7514e-06,73.269,1.819e-12,-1.1921e-06,-9.7515e-06,-73.269,0.70953
30093,11.742,-3.4885e-30,0.1,0.00028975,2895.5,0.00028965,2892.5,-9.532e-05,0.0075001,-9.612e-05,-6.0038,0.68008
30094,11.834,0,0.05,1.272e-05,127.11,9.767e-06,73.386,3.638e-12,6.1979e-06,-9.767e-06,-73.386,0.68983
30095,11.557,-3.4335e-30,0.1,0.00029482,2946.2,0.00029472,2943.2,-9.6999e-05,0.00035367,-9.7782e-05,-5.8867,0.66068
30096,11.649,0,0.05,1.2732e-05,127.23,9.7768e-06,73.459,1.819e-12,1.0726e-06,-9.7768e-06,-73.459,0.67033
30097,11.372,-3.3786e-30,0.1,0.00029991,2997,0.00029981,2994.1,-9.8685e-05,-0.0070695,-9.9451e-05,-5.7641,0.64148
30098,11.464,0,0.05,1.2737e-05,127.28,9.7805e-06,73.486,1.819e-12,2.4438e-06,-9.7805e-06,-73.487,0.65103
30099,11.187,-3.3237e-30,0.1,0.00030502,3048.1,0.00030492,3045.3,-0.00010038,-0.014822,-0.00010113,-5.6356,0.62249
30100,11.279,0,0.05,1.2734e-05,127.25,9.7779e-06,73.467,-1.2928e-16,2.1468e-06,-9.7779e-06,-73.467,0.63194
30101,11.002,-3.2687e-30,0.1,0.00031015,3099.4,0.00031006,3096.6,-0.00010208,-0.022959,-0.00010281,-5.5011,0.6037
30102,11.094,0,0.05,1.2722e-05,127.13,9.7688e-06,73.399,3.6382e-12,2.6226e-06,-9.7688e-06,-73.399,0.61305
30103,10.817,-3.2138e-30,0.1,0.00031531,3150.9,0.00031521,3148.2,-0.00010379,-0.031534,-0.0001045,-5.3602,0.58513
30104,10.909,0,0.05,1.2701e-05,126.92,9.7528e-06,73.278,3.638e-12,1.9073e-06,-9.7528e-06,-73.278,0.59437
30105,10.632,-3.1589e-30,0.1,0.00032048,3202.6,0.0003204,3200,-0.00010551,-0.040607,-0.00010619,-5.2128,0.56677
30106,10.725,0,0.05,1.2671e-05,126.62,9.7295e-06,73.104,3.638e-12,1.7847e-06,-9.7295e-06,-73.104,0.5759
30107,10.447,-3.1039e-30,0.1,0.00032569,3254.6,0.0003256,3252.1,-0.00010723,-0.050237,-0.0001079,-5.0585,0.54863
30108,10.54,0,0.05,1.263e-05,126.22,9.6986e-06,72.872,1.8195e-12,1.9713e-06,-9.6986e-06,-72.872,0.55765
30109,10.262,-3.049e-30,0.1,0.00033091,3306.8,0.00033083,3304.4,-0.00010896,-0.060489,-0.00010961,-4.8968,0.53071
30110,10.355,0,0.05,1.258e-05,125.71,9.6596e-06,72.578,3.6386e-12,1.9124e-06,-9.6596e-06,-72.578,0.53962
30111,10.077,-2.994e-30,0.1,0.00033616,3359.3,0.00033608,3356.9,-0.00011071,-0.071431,-0.00011133,-4.7275,0.51302
30112,10.17,0,0.05,1.2517e-05,125.09,9.6118e-06,72.22,3.6387e-12,1.7347e-06,-9.6119e-06,-72.22,0.52181
30113,9.8925,-2.9391e-30,0.1,0.00034144,3412,0.00034136,3409.7,-0.00011246,-0.083133,-0.00011305,-4.5502,0.49555
30114,9.9849,0,0.05,1.2443e-05,124.35,9.5549e-06,71.792,1.819e-12,1.4379e-06,-9.5549e-06,-71.792,0.50423
30115,9.7075,-2.8842e-30,0.1,0.00034674,3465,0.00034666,3462.8,-0.00011422,-0.095674,-0.00011478,-4.3645,0.47832
30116,9.8,0,0.05,1.2356e-05,123.48,9.4881e-06,71.29,3.6379e-12,1.6769e-06,-9.4881e-06,-71.29,0.48689
30117,9.5226,-2.8292e-30,0.1,0.00035207,3518.2,0.00035199,3516.1,-0.00011598,-0.10913,-0.00011652,-4.1698,0.46133
30118,9.6151,0,0.05,1.2255e-05,122.47,9.4107e-06,70.708,1.8189e-12,1.4205e-06,-9.4107e-06,-70.708,0.46977
30119,9.3377,-2.7743e-30,0.1,0.00035742,3571.7,0.00035735,3569.7,-0.00011776,-0.12359,-0.00011827,-3.966,0.44458
30120,9.4302,0,0.05,1.214e-05,121.31,9.3219e-06,70.041,3.6379e-12,1.6575e-06,-9.3219e-06,-70.041,0.4529
30121,9.1528,-2.7194e-30,0.1,0.0003628,3625.5,0.00036273,3623.6,-0.00011955,-0.13916,-0.00012003,-3.7524,0.42807
30122,9.2453,0,0.05,1.2008e-05,120,9.2209e-06,69.282,3.6379e-12,1.3236e-06,-9.2209e-06,-69.282,0.43627
30123,8.9679,-2.6644e-30,0.1,0.00036821,3679.6,0.00036815,3677.7,-0.00012135,-0.15593,-0.0001218,-3.5288,0.41181
30124,9.0604,0,0.05,1.186e-05,118.52,9.1068e-06,68.425,1.8172e-12,1.4287e-06,-9.1068e-06,-68.425,0.41988
30125,8.783,-2.6095e-30,0.1,0.00037365,3733.9,0.00037359,3732.2,-0.00012316,-0.174,-0.00012357,-3.2947,0.3958
30126,8.8755,0,0.05,1.1693e-05,116.85,8.9785e-06,67.461,3.6379e-12,1.2065e-06,-8.9785e-06,-67.461,0.40374
30127,8.5981,-2.5546e-30,0.1,0.00037912,3788.6,0.00037906,3786.9,-0.00012497,-0.19349,-0.00012535,-3.0498,0.38004
30128,8.6906,0,0.05,1.1506e-05,114.98,8.835e-06,66.383,-1.801e-16,1.3883e-06,-8.835e-06,-66.383,0.38786
30129,8.4132,-2.4996e-30,0.1,0.00038462,3843.5,0.00038457,3842,-0.0001268,-0.21454,-0.00012715,-2.7938,0.36455
30130,8.5057,0,0.05,1.1297e-05,112.9,8.6751e-06,65.181,3.6376e-12,1.1286e-06,-8.6751e-06,-65.181,0.37223
30131,8.2283,-2.4447e-30,0.1,0.00039015,3898.8,0.0003901,3897.4,-0.00012864,-0.23727,-0.00012895,-2.5265,0.34931
30132,8.3208,0,0.05,1.1066e-05,110.58,8.4974e-06,63.846,2.8891e-15,1.1871e-06,-8.4974e-06,-63.846,0.35687
30133,8.0434,-2.3897e-30,0.1,0.00039571,3954.4,0.00039567,3953.1,-0.0001305,-0.26182,-0.00013076,-2.2477,0.33435
30134,8.1358,0,0.05,1.081e-05,108.02,8.3005e-06,62.367,7.2752e-12,1.0939e-06,-8.3005e-06,-62.367,0.34177
30135,7.8585,-2.3348e-30,0.1,0.00040131,4010.3,0.00040127,4009.2,-0.00013236,-0.28835,-0.00013258,-1.9573,0.31965
30136,7.9509,0,0.05,1.0526e-05,105.19,8.083e-06,60.733,3.6368e-12,1.192e-06,-8.083e-06,-60.733,0.32694
30137,7.6736,-2.2799e-30,0.1,0.00040694,4066.6,0.00040691,4065.7,-0.00013424,-0.31704,-0.00013441,-1.6556,0.30523
30138,7.766,0,0.05,1.0214e-05,102.07,7.8431e-06,58.93,7.2741e-12,8.5368e-07,-7.8432e-06,-58.93,0.31238
30139,7.4887,-2.2249e-30,0.1,0.00041262,4123.3,0.00041259,4122.5,-0.00013613,-0.34805,-0.00013626,-1.3427,0.29108
30140,7.5811,0,0.05,9.8703e-06,98.634,7.5791e-06,56.947,3.636e-12,1.0065e-06,-7.5791e-06,-56.947,0.29809
30141,7.3038,-2.17e-30,0.1,0.00041832,4180.4,0.0004183,4179.7,-0.00013803,-0.38155,-0.00013811,-1.0191,0.27722
30142,7.3962,0,0.05,9.4924e-06,94.859,7.289e-06,54.767,7.2685e-12,9.3615e-07,-7.289e-06,-54.767,0.28409
30143,7.1189,-2.1151e-30,0.1,0.00042407,4237.8,0.00042405,4237.3,-0.00013994,-0.41766,-0.00013998,-0.68576,0.26365
30144,7.2113,0,0.05,9.0779e-06,90.716,6.9707e-06,52.375,3.6359e-12,7.5937e-07,-6.9707e-06,-52.375,0.27037
30145,6.934,-2.0601e-30,0.1,0.00042986,4295.7,0.00042985,4295.3,-0.00014186,-0.34222,-0.00014188,-0.45798,0.25036
30146,7.0264,0,0.05,8.6236e-06,86.177,6.6219e-06,49.754,7.2724e-12,7.7467e-07,-6.6219e-06,-49.754,0.25694
30147,6.7491,-2.0052e-30,0.1,0.0004357,4354,0.00043569,4353.7,-0.00014375,0.0072276,-0.00014382,-0.49988,0.23737
30148,6.8415,0,0.05,8.1265e-06,81.209,6.2401e-06,46.886,7.2794e-12,7.9352e-07,-6.2401e-06,-46.886,0.2438
30149,6.5642,-1.9503e-30,0.1,0.00044158,4412.7,0.00044157,4412.6,-0.00014566,0.36285,-0.00014578,-0.54574,0.22467
30150,6.6566,0,0.05,7.583e-06,75.777,5.8228e-06,43.75,-3.318e-15,7.1493e-07,-5.8228e-06,-43.75,0.23095
30151,6.3792,-1.8953e-30,0.1,0.0004475,4471.9,0.0004475,4472,-0.00014759,0.72182,-0.00014776,-0.5954,0.21228
30152,6.4717,0,0.05,6.9894e-06,69.846,5.367e-06,40.325,3.6299e-12,7.148e-07,-5.367e-06,-40.325,0.21841
30153,6.1943,-1.8404e-30,0.1,0.00045348,4531.6,0.00045348,4531.8,-0.00014952,1.0811,-0.00014975,-0.64914,0.20019
30154,6.2868,0,0.05,6.3417e-06,63.373,4.8696e-06,36.589,3.6143e-12,6.5672e-07,-4.8696e-06,-36.589,0.20617
30155,6.0094,-1.7854e-30,0.1,0.0004595,4591.9,0.00045951,4592.2,-0.00015148,1.437,-0.00015177,-0.70729,0.18842
30156,6.1019,0,0.05,5.6356e-06,56.318,4.3275e-06,32.515,-2.0145e-14,8.3331e-07,-4.3275e-06,-32.515,0.19424
30157,5.8245,-1.7305e-30,0.1,0.00046558,4652.6,0.0004656,4653.1,-0.00015345,1.7849,-0.0001538,-0.77019,0.17696
30158,5.917,0,0.05,4.8667e-06,48.633,3.737e-06,28.078,3.598e-12,-8.3422e-07,-3.737e-06,-28.079,0.18262
30159,5.6396,-1.6756e-30,0.1,0.00047172,4713.9,0.00047174,4714.6,-0.00015545,2.1191,-0.00015584,-0.83824,0.16581
30160,5.7321,0,0.05,4.0301e-06,40.273,3.0946e-06,23.252,3.5966e-12,1.0815e-06,-3.0946e-06,-23.252,0.17131
30161,5.4547,-1.6206e-30,0.1,0.00047791,4775.8,0.00047794,4776.6,-0.00015746,2.4329,-0.00015791,-0.91187,0.15499
30162,5.5472,0,0.05,3.1213e-06,31.192,2.3968e-06,18.008,3.5564e-12,3.5496e-07,-2.3968e-06,-18.008,0.16033
30163,5.2698,-1.5657e-30,0.1,0.00048417,4838.3,0.00048419,4839.2,-0.0001595,2.7182,-0.00015999,-0.99155,0.1445
30164,5.3623,0,0.05,2.1371e-06,21.356,1.641e-06,12.33,3.4327e-12,-1.7109e-06,-1.641e-06,-12.33,0.14967
30165,5.0849,-1.5108e-30,0.1,0.00049048,4901.4,0.00049051,4902.4,-0.00016156,2.9652,-0.0001621,-1.0778,0.13434
30166,5.1774,0,0.05,1.0856e-06,10.849,8.3364e-07,6.2637,-6.2498e-13,2.9967e-07,-8.3364e-07,-6.2637,0.13935
30167,4.9,-1.4558e-30,0.1,0.00049686,4965.1,0.00049689,4966.1,-0.00016364,3.1622,-0.00016422,-1.1713,0.12451
30168,4.9925,0,0.05,3.7037e-07,3.7011,2.844e-07,2.1368,-2.4813e-11,-0.00010602,-2.844e-07,-2.1369,0.12935
30169,4.7151,-1.4009e-30,0.1,0.0005033,5029.5,0.00050333,5030.5,-0.00016575,3.2955,-0.00016636,-1.2726,0.11503
30170,4.8075,0,0.05,1.4556e-06,14.546,1.1177e-06,8.3981,-1.9256e-12,-7.9239e-06,-1.1177e-06,-8.3982,0.1197
30171,4.5302,-1.3459e-30,0.1,0.0005098,5094.5,0.00050983,5095.4,-0.00016789,3.3491,-0.00016851,-1.3827,0.10589
30172,4.6226,0,0.05,2.817e-06,28.151,2.1631e-06,16.253,-3.0201e-13,-5.0761e-06,-2.1631e-06,-16.253,0.11038
30173,4.3453,-1.291e-30,0.1,0.00051636,5160.1,0.00051639,5161,-0.00017005,3.3041,-0.00017069,-1.5026,0.097095
30174,4.4377,0,0.05,4.3082e-06,43.052,3.3081e-06,24.856,3.297e-12,-1.9363e-07,-3.3082e-06,-24.856,0.10141
30175,4.1604,-1.2361e-30,0.1,0.00052298,5226.2,0.00052301,5227,-0.00017224,3.1384,-0.00017288,-1.6338,0.088656
30176,4.2528,0,0.05,5.9293e-06,59.252,4.5529e-06,34.209,3.4633e-12,-7.2562e-15,-4.5529e-06,-34.209,0.092798
30177,3.9755,-1.1811e-30,0.1,0.00052966,5292.9,0.00052967,5293.4,-0.00017446,2.8268,-0.00017508,-1.7782,0.080576
30178,4.0679,0,0.05,7.6882e-06,76.829,5.9036e-06,44.357,3.6216e-12,-1.0967e-06,-5.9036e-06,-44.357,0.084537
30179,3.7906,-1.1262e-30,0.1,0.00053637,5360,0.00053638,5360.2,-0.00017671,2.3408,-0.00017728,-1.9395,0.072857
30180,3.883,0,0.05,9.5953e-06,95.886,7.368e-06,55.36,-4.9123e-14,-6.3334e-07,-7.368e-06,-55.36,0.076637
30181,3.6057,-1.0713e-30,0.1,0.00054312,5427.5,0.00054311,5427.2,-0.00017899,1.6494,-0.00017949,-2.1244,0.065507
30182,3.6981,0,0.05,1.1662e-05,116.54,8.9549e-06,67.284,3.5894e-12,-3.2629e-07,-8.955e-06,-67.284,0.069102
30183,3.4208,-1.0163e-30,0.1,0.00054988,5495.1,0.00054986,5494.2,-0.00018128,0.72542,-0.00018169,-2.3495,0.058527
30184,3.5132,0,0.05,1.3901e-05,138.92,1.0674e-05,80.203,3.63e-12,-1.7012e-14,-1.0674e-05,-80.203,0.061936
30185,3.2358,-9.6139e-31,0.1,0.00055664,5562.5,0.00055658,5561,-0.00018359,-0.4274,-0.00018389,-2.6706,0.051924
30186,3.3283,0,0.05,1.6327e-05,163.16,1.2537e-05,94.2,-2.7102e-14,-2.2735e-07,-1.2537e-05,-94.2,0.055144
30187,3.0509,-9.0645e-31,0.1,0.00056335,5629.6,0.00056326,5627.1,-0.00018587,-1.6186,-0.0001861,-3.3391,0.045702
30188,3.1434,0,0.05,1.8956e-05,189.43,1.4556e-05,109.37,3.6086e-12,-1.9701e-07,-1.4556e-05,-109.37,0.04873
30189,2.866,-8.5152e-31,0.1,0.00056997,5695.8,0.00056985,5692.1,-0.00018804,-2.3494,-0.00018839,-4.9269,0.039864
30190,2.9585,0,0.05,2.1805e-05,217.9,1.6743e-05,125.8,3.6121e-12,-1.739e-07,-1.6743e-05,-125.8,0.042699
30191,2.6811,-7.9658e-31,0.1,0.00057644,5760.5,0.00057627,5755.4,-0.00019009,-2.7451,-0.00019071,-7.3961,0.034417
30192,2.7736,0,0.05,2.4894e-05,248.77,1.9115e-05,143.63,7.2481e-12,-3.0465e-14,-1.9115e-05,-143.63,0.037056
30193,2.4962,-7.4164e-31,0.1,0.00058269,5822.9,0.00058246,5816.1,-0.00019202,-3.0631,-0.00019302,-10.595,0.029362
30194,2.5887,0,0.05,2.8247e-05,282.27,2.169e-05,162.97,-4.6008e-21,-3.4568e-14,-2.169e-05,-162.97,0.031804
30195,2.3113,-6.8671e-31,0.1,0.0005886,5882,0.0005883,5873,-0.0001938,-3.3738,-0.00019529,-14.586,0.024706
30196,2.4038,0,0.05,3.189e-05,318.68,2.4487e-05,183.99,3.6186e-12,-2.5992e-07,-2.4487e-05,-183.99,0.026948
30197,2.1264,-6.3177e-31,0.1,0.00059403,5936.2,0.00059364,5924.6,-0.00019537,-3.7,-0.00019748,-19.509,0.02045
30198,2.2189,0,0.05,3.5855e-05,358.3,2.7532e-05,206.87,7.24e-12,-4.3879e-14,-2.7532e-05,-206.87,0.022491
30199,1.9415,-5.7683e-31,0.1,0.00059878,5983.7,0.00059827,5968.8,-0.00019667,-4.0543,-0.00019953,-25.565,0.016599
30200,2.034,0,0.05,4.0181e-05,401.53,3.0854e-05,231.82,-4.8943e-21,-1.1277e-07,-3.0854e-05,-231.82,0.018437
30201,1.7566,-5.219e-31,0.1,0.00060257,6021.5,0.00060193,6002.8,-0.00019758,-4.4488,-0.00020139,-33.025,0.013155
30202,1.8491,0,0.05,4.4914e-05,448.83,3.4488e-05,259.13,7.2569e-12,-1.064e-07,-3.4488e-05,-259.13,0.014789
30203,1.5717,-4.6696e-31,0.1,0.00060501,6045.9,0.0006042,6022.3,-0.00019797,-4.8911,-0.00020294,-42.259,0.01012
30204,1.6642,0,0.05,5.0115e-05,500.8,3.8482e-05,289.14,7.2579e-12,-6.1331e-14,-3.8482e-05,-289.14,0.011549
30205,1.3868,-4.1202e-31,0.1,0.00060554,6051.2,0.00060452,6021.4,-0.00019761,-5.4134,-0.00020405,-53.813,0.0074947
30206,1.4792,0,0.05,5.5862e-05,558.23,4.2895e-05,322.3,7.2702e-12,-6.8364e-14,-4.2895e-05,-322.3,0.0087185
30207,1.2019,-3.5709e-31,0.1,0.0006033,6028.8,0.00060201,5991.3,-0.00019619,-5.9825,-0.0002045,-68.465,0.0052784
30208,1.2943,0,0.05,6.226e-05,622.17,4.7808e-05,359.21,3.6241e-12,-7.6194e-14,-4.7808e-05,-359.21,0.0062976
30209,1.017,-3.0215e-31,0.1,0.00059696,5965.4,0.00059531,5917.8,-0.00019321,-6.801,-0.00020397,-87.639,0.003468
30210,1.1094,0,0.05,6.9465e-05,694.17,5.334e-05,400.78,3.6138e-12,-8.5011e-14,-5.334e-05,-400.78,0.0042846
30211,0.83208,-2.4721e-31,0.1,0.00058428,5838.7,0.00058215,5777.6,-0.00018779,-7.4212,-0.0002019,-113.41,0.0020576
30212,0.92453,0,0.05,7.7689e-05,776.36,5.9656e-05,448.23,3.625e-12,-8.6914e-08,-5.9656e-05,-448.23,0.002675
30213,0.64717,-1.9228e-31,0.1,0.00056106,5606.7,0.0005582,5525.3,-0.00017836,-8.9057,-0.00019729,-151.12,0.0010364
30214,0.73962,0,0.05,8.7368e-05,873.08,6.7088e-05,504.07,7.2711e-12,-8.1604e-08,-6.7088e-05,-504.07,0.0014604
30215,0.46226,-1.3734e-31,0.1,0.00051943,5190.7,0.0005153,5074.9,-0.00016191,-13.426,-0.00018841,-212.54,0.00038656
30216,0.55472,0,0.05,9.9092e-05,990.23,7.609e-05,571.71,3.6266e-12,-7.6391e-08,-7.609e-05,-571.71,0.00062618
30217,0.27736,-8.2405e-32,0.1,0.00043411,4338.1,0.00042766,4169.5,-0.00012476,18.881,-0.00017178,-334.43,8.4899e-05
30218,0.36981,0,0.05,0.00011492,1148.4,8.8244e-05,663.03,3.6274e-12,-7.078e-08,-8.8244e-05,-663.03,0.00014663
30219,0.092453,-2.7468e-32,0.1,0.00025661,2564.3,0.00023061,1954.6,-5.1405e-05,-164.35,-0.00014878,-896.02,2.882e-05
30220,0.18491,0,0.05,0.00014634,1462.4,0.00011237,844.3,7.276e-12,1.1475e-05,-0.00011237,-844.3,2.5973e-05
30221,0,0,0.05,0.00019404,1939.1,0.000149,1119.5,3.1199e-13,-0.00010419,-0.000149,-1119.5,0
30222,0.092453,6,0.1,0.00025661,2564.3,0.00023061,1954.6,-5.1405e-05,-164.35,-0.00014878,-896.02,2.882e-05
30223,5.2451e-14,6,0.05,0.00019404,1939.1,0.000149,1119.5,-3.1606e-20,-2.3747e-13,-0.000149,-1119.5,0
30224,0.27736,6,0.1,0.00043411,4338.1,0.00042766,4169.5,-0.00012476,18.881,-0.00017178,-334.43,8.4899e-05
30225,0.18491,6,0.05,0.00014634,1462.4,0.00011237,844.3,-2.3835e-20,-1.7909e-13,-0.00011237,-844.3,2.5973e-05
30226,0.46226,6,0.1,0.00051943,5190.7,0.0005153,5074.9,-0.00016191,-13.426,-0.00018841,-212.54,0.00038656
30227,0.36981,6,0.05,0.00011492,1148.4,8.8244e-05,663.03,-1.8718e-20,-1.4064e-13,-8.8244e-05,-663.03,0.00014663
30228,0.64717,6,0.1,0.00056106,5606.7,0.0005582,5525.3,-0.00017836,-8.9057,-0.00019729,-151.12,0.0010364
30229,0.55472,6,0.05,9.9092e-05,990.23,7.609e-05,571.71,-1.614e-20,-1.2127e-13,-7.609e-05,-571.71,0.00062618
30230,0.83208,6,0.1,0.00058428,5838.7,0.00058215,5777.6,-0.00018779,-7.4212,-0.0002019,-113.41,0.0020576
30231,0.73962,6,0.05,8.7368e-05,873.08,6.7088e-05,504.07,-1.423e-20,-1.0692e-13,-6.7088e-05,-504.07,0.0014604
30232,1.017,6,0.1,0.00059696,5965.4,0.00059531,5917.8,-0.00019321,-6.801,-0.00020397,-87.639,0.003468
30233,0.92453,6,0.05,7.7689e-05,776.36,5.9656e-05,448.23,-1.2654e-20,-9.5076e-14,-5.9656e-05,-448.23,0.002675
30234,1.2019,6,0.1,0.0006033,6028.8,0.00060201,5991.3,-0.00019619,-5.9825,-0.0002045,-68.465,0.0052784
30235,1.1094,6,0.05,6.9465e-05,694.17,5.334e-05,400.78,-1.1314e-20,-8.5011e-14,-5.334e-05,-400.78,0.0042846
30236,1.3868,6,0.1,0.00060554,6051.2,0.00060452,6021.4,-0.00019761,-5.4134,-0.00020405,-53.813,0.0074947
30237,1.2943,6,0.05,6.226e-05,622.17,4.7808e-05,359.21,-3.6352e-12,-7.6194e-14,-4.7808e-05,-359.21,0.0062976
30238,1.5717,6,0.1,0.00060501,6045.9,0.0006042,6022.3,-0.00019797,-4.8911,-0.00020294,-42.259,0.01012
30239,1.4792,6,0.05,5.5862e-05,558.23,4.2895e-05,322.3,-9.0987e-21,-6.8364e-14,-4.2895e-05,-322.3,0.0087185
30240,1.7566,6,0.1,0.00060257,6021.5,0.00060193,6002.8,-0.00019758,-4.4488,-0.00020139,-33.025,0.013155
30241,1.6642,6,0.05,5.0115e-05,500.8,3.8482e-05,289.14,-8.1626e-21,-6.1331e-14,-3.8482e-05,-289.14,0.011549
30242,1.9415,6,0.1,0.00059878,5983.7,0.00059827,5968.8,-0.00019667,-4.0543,-0.00019953,-25.565,0.016599
30243,1.8491,6,0.05,4.4914e-05,448.83,3.4488e-05,259.13,-7.3155e-21,1.064e-07,-3.4488e-05,-259.13,0.014789
30244,2.1264,6,0.1,0.00059403,5936.2,0.00059364,5924.6,-0.00019537,-3.7,-0.00019748,-19.509,0.02045
30245,2.034,6,0.05,4.0181e-05,401.53,3.0854e-05,231.82,-6.5445e-21,-4.9173e-14,-3.0854e-05,-231.82,0.018437
30246,2.3113,6,0.1,0.0005886,5882,0.0005883,5873,-0.0001938,-3.3738,-0.00019529,-14.586,0.024706
30247,2.2189,6,0.05,3.5855e-05,358.3,2.7532e-05,206.87,-5.84e-21,-4.3879e-14,-2.7532e-05,-206.87,0.022491
30248,2.4962,6,0.1,0.00058269,5822.9,0.00058246,5816.1,-0.00019202,-3.0631,-0.00019302,-10.595,0.029362
30249,2.4038,6,0.05,3.189e-05,318.68,2.4487e-05,183.99,-5.1942e-21,-3.9027e-14,-2.4487e-05,-183.99,0.026948
30250,2.6811,6,0.1,0.00057644,5760.5,0.00057627,5755.4,-0.00019009,-2.745,-0.00019071,-7.396,0.034417
30251,2.5887,6,0.05,2.8247e-05,282.27,2.169e-05,162.97,-4.6008e-21,-3.4568e-14,-2.169e-05,-162.97,0.031804
30252,2.866,6,0.1,0.00056997,5695.8,0.00056985,5692.1,-0.00018804,-2.3494,-0.00018839,-4.9268,0.039864
30253,2.7736,6,0.05,2.4894e-05,248.77,1.9115e-05,143.63,-4.0547e-21,-3.0465e-14,-1.9115e-05,-143.63,0.037056
30254,3.0509,6,0.1,0.00056335,5629.6,0.00056326,5627.1,-0.00018587,-1.6186,-0.0001861,-3.3391,0.045702
30255,2.9585,6,0.05,2.1805e-05,217.9,1.6743e-05,125.8,-3.5515e-21,-2.6685e-14,-1.6743e-05,-125.8,0.042699
30256,3.2358,6,0.1,0.00055664,5562.5,0.00055658,5561,-0.00018359,-0.42739,-0.00018389,-2.6706,0.051924
30257,3.1434,6,0.05,1.8956e-05,189.43,1.4556e-05,109.37,-3.0875e-21,-2.3198e-14,-1.4556e-05,-109.37,0.04873
30258,3.4208,6,0.1,0.00054988,5495.1,0.00054986,5494.2,-0.00018128,0.72544,-0.00018169,-2.3495,0.058527
30259,3.3283,6,0.05,1.6327e-05,163.16,1.2537e-05,94.2,-2.6593e-21,-1.9981e-14,-1.2537e-05,-94.2,0.055144
30260,3.6057,6,0.1,0.00054312,5427.5,0.00054311,5427.2,-0.00017899,1.6494,-0.00017949,-2.1244,0.065507
30261,3.5132,6,0.05,1.3901e-05,138.92,1.0674e-05,80.203,-2.2642e-21,-1.7012e-14,-1.0674e-05,-80.203,0.061936
30262,3.7906,6,0.1,0.00053637,5360,0.00053638,5360.2,-0.00017671,2.3408,-0.00017728,-1.9395,0.072857
30263,3.6981,6,0.05,1.1662e-05,116.54,8.9549e-06,67.284,-1.8995e-21,-1.4272e-14,-8.9549e-06,-67.284,0.069102
30264,3.9755,6,0.1,0.00052966,5292.9,0.00052967,5293.4,-0.00017446,2.8269,-0.00017508,-1.7782,0.080576
30265,3.883,6,0.05,9.5953e-06,95.886,7.368e-06,55.36,-1.5629e-21,-1.1743e-14,-7.368e-06,-55.36,0.076637
30266,4.1604,6,0.1,0.00052298,5226.2,0.00052301,5227,-0.00017224,3.1384,-0.00017288,-1.6338,0.088656
30267,4.0679,6,0.05,7.6882e-06,76.829,5.9036e-06,44.357,-1.2522e-21,-9.4088e-15,-5.9036e-06,-44.357,0.084537
30268,4.3453,6,0.1,0.00051636,5160.1,0.00051639,5161,-0.00017005,3.3041,-0.00017069,-1.5026,0.097095
30269,4.2528,6,0.05,5.9292e-06,59.252,4.5529e-06,34.209,-9.6574e-22,-7.2562e-15,-4.5529e-06,-34.209,0.092798
30270,4.5302,6,0.1,0.0005098,5094.5,0.00050983,5095.4,-0.00016789,3.3492,-0.00016851,-1.3827,0.10589
30271,4.4377,6,0.05,4.3082e-06,43.052,3.3081e-06,24.856,2.3083e-14,2.6543e-07,-3.3081e-06,-24.856,0.10141
30272,4.7151,6,0.1,0.0005033,5029.5,0.00050333,5030.5,-0.00016575,3.2955,-0.00016636,-1.2726,0.11503
30273,4.6226,6,0.05,2.817e-06,28.151,2.1631e-06,16.253,-3.2414e-14,3.7939e-07,-2.1631e-06,-16.253,0.11038
30274,4.9,6,0.1,0.00049686,4965.1,0.00049689,4966.1,-0.00016364,3.1622,-0.00016422,-1.1713,0.12451
30275,4.8075,6,0.05,1.4556e-06,14.546,1.1177e-06,8.398,-2.3708e-22,1.2474e-07,-1.1177e-06,-8.398,0.1197
30276,5.0849,6,0.1,0.00049048,4901.4,0.00049051,4902.4,-0.00016156,2.9652,-0.0001621,-1.0778,0.13434
30277,4.9925,6,0.05,3.7036e-07,3.7011,2.8439e-07,2.1368,-3.8361e-14,-1.0233e-07,-2.8439e-07,-2.1368,0.12935
30278,5.2698,6,0.1,0.00048417,4838.3,0.00048419,4839.2,-0.0001595,2.7182,-0.00015999,-0.99155,0.1445
30279,5.1774,6,0.05,1.0857e-06,10.849,8.3366e-07,6.2638,-1.7683e-22,3.8139e-07,-8.3366e-07,-6.2638,0.13935
30280,5.4547,6,0.1,0.00047791,4775.8,0.00047794,4776.6,-0.00015746,2.4329,-0.00015791,-0.91187,0.15499
30281,5.3623,6,0.05,2.1371e-06,21.357,1.6411e-06,12.33,-1.7146e-21,5.3264e-07,-1.641e-06,-12.33,0.14967
30282,5.6396,6,0.1,0.00047172,4713.9,0.00047174,4714.6,-0.00015545,2.1191,-0.00015584,-0.83823,0.16581
30283,5.5472,6,0.05,3.1213e-06,31.192,2.3968e-06,18.009,-5.084e-22,4.1412e-07,-2.3968e-06,-18.009,0.16033
30284,5.8245,6,0.1,0.00046558,4652.6,0.0004656,4653.1,-0.00015345,1.7849,-0.0001538,-0.77018,0.17696
30285,5.7321,6,0.05,4.0301e-06,40.274,3.0946e-06,23.252,-6.5642e-22,9.0266e-07,-3.0946e-06,-23.252,0.17131
30286,6.0094,6,0.1,0.0004595,4591.9,0.00045951,4592.2,-0.00015148,1.437,-0.00015177,-0.70729,0.18842
30287,5.917,6,0.05,4.8667e-06,48.634,3.737e-06,28.079,-7.9268e-22,6.5421e-07,-3.737e-06,-28.079,0.18262
30288,6.1943,6,0.1,0.00045348,4531.6,0.00045348,4531.8,-0.00014952,1.0811,-0.00014975,-0.64914,0.20019
30289,6.1019,6,0.05,5.6357e-06,56.318,4.3275e-06,32.515,-9.1793e-22,-3.5713e-07,-4.3275e-06,-32.515,0.19424
30290,6.3792,6,0.1,0.0004475,4471.9,0.0004475,4472,-0.00014759,0.72181,-0.00014776,-0.5954,0.21228
30291,6.2868,6,0.05,6.3417e-06,63.373,4.8697e-06,36.589,6.8996e-15,8.9157e-07,-4.8697e-06,-36.589,0.20617
30292,6.5642,6,0.1,0.00044158,4412.7,0.00044157,4412.6,-0.00014566,0.36284,-0.00014578,-0.54574,0.22467
30293,6.4717,6,0.05,6.9894e-06,69.846,5.367e-06,40.325,-1.1384e-21,6.5523e-07,-5.367e-06,-40.325,0.21841
30294,6.7491,6,0.1,0.0004357,4354,0.00043569,4353.7,-0.00014375,0.00722,-0.00014382,-0.49988,0.23737
30295,6.6566,6,0.05,7.583e-06,75.778,5.8228e-06,43.75,-1.3027e-14,7.7451e-07,-5.8228e-06,-43.75,0.23095
30296,6.934,6,0.1,0.00042986,4295.7,0.00042985,4295.3,-0.00014186,-0.34222,-0.00014188,-0.45798,0.25036
30297,6.8415,6,0.05,8.1265e-06,81.209,6.2402e-06,46.886,3.6368e-12,7.1502e-07,-6.2402e-06,-46.886,0.2438
30298,7.1189,6,0.1,0.00042407,4237.8,0.00042405,4237.3,-0.00013994,-0.41766,-0.00013998,-0.68577,0.26365
30299,7.0264,6,0.05,8.6237e-06,86.177,6.6219e-06,49.754,-1.4046e-21,7.1508e-07,-6.6219e-06,-49.754,0.25694
30300,7.3038,6,0.1,0.00041832,4180.4,0.0004183,4179.7,-0.00013803,-0.38155,-0.00013811,-1.0191,0.27722
30301,7.2113,6,0.05,9.0779e-06,90.717,6.9707e-06,52.375,-1.4786e-21,8.711e-07,-6.9707e-06,-52.375,0.27037
30302,7.4887,6,0.1,0.00041262,4123.3,0.00041259,4122.5,-0.00013613,-0.34804,-0.00013626,-1.3427,0.29108
30303,7.3962,6,0.05,9.4925e-06,94.859,7.289e-06,54.767,-1.5461e-21,1.0131e-06,-7.289e-06,-54.767,0.28409
30304,7.6736,6,0.1,0.00040695,4066.6,0.00040691,4065.7,-0.00013424,-0.31704,-0.00013441,-1.6556,0.30523
30305,7.5811,6,0.05,9.8703e-06,98.635,7.5791e-06,56.947,-1.6077e-21,8.3437e-07,-7.5791e-06,-56.947,0.29809
30306,7.8585,6,0.1,0.00040131,4010.3,0.00040127,4009.2,-0.00013236,-0.28835,-0.00013258,-1.9573,0.31965
30307,7.766,6,0.05,1.0214e-05,102.07,7.8432e-06,58.931,4.1883e-15,9.5359e-07,-7.8432e-06,-58.931,0.31238
30308,8.0434,6,0.1,0.00039571,3954.4,0.00039567,3953.1,-0.0001305,-0.26182,-0.00013076,-2.2477,0.33435
30309,7.9509,6,0.05,1.0526e-05,105.19,8.083e-06,60.733,3.695e-15,1.0132e-06,-8.083e-06,-60.733,0.32694
30310,8.2283,6,0.1,0.00039015,3898.8,0.0003901,3897.4,-0.00012864,-0.23727,-0.00012895,-2.5265,0.34931
30311,8.1358,6,0.05,1.081e-05,108.02,8.3006e-06,62.367,3.6378e-12,1.0454e-06,-8.3006e-06,-62.367,0.34177
30312,8.4132,6,0.1,0.00038462,3843.5,0.00038457,3842,-0.0001268,-0.21454,-0.00012715,-2.7938,0.36455
30313,8.3208,6,0.05,1.1066e-05,110.58,8.4974e-06,63.846,-1.8024e-21,1.0728e-06,-8.4974e-06,-63.846,0.35687
30314,8.5981,6,0.1,0.00037912,3788.6,0.00037906,3786.9,-0.00012497,-0.19349,-0.00012535,-3.0498,0.38004
30315,8.5057,6,0.05,1.1298e-05,112.9,8.6751e-06,65.181,-1.8401e-21,1.2283e-06,-8.6751e-06,-65.181,0.37223
30316,8.783,6,0.1,0.00037365,3733.9,0.00037359,3732.2,-0.00012316,-0.174,-0.00012357,-3.2947,0.3958
30317,8.6906,6,0.05,1.1506e-05,114.98,8.835e-06,66.383,-2.2625e-15,1.1135e-06,-8.835e-06,-66.383,0.38786
30318,8.9679,6,0.1,0.00036821,3679.6,0.00036815,3677.7,-0.00012135,-0.15593,-0.0001218,-3.5288,0.41181
30319,8.8755,6,0.05,1.1693e-05,116.85,8.9785e-06,67.461,-1.9999e-15,1.3697e-06,-8.9785e-06,-67.461,0.40374
30320,9.1528,6,0.1,0.0003628,3625.5,0.00036273,3623.6,-0.00011955,-0.13916,-0.00012003,-3.7524,0.42807
30321,9.0604,6,0.05,1.186e-05,118.52,9.1068e-06,68.425,-1.7646e-15,1.3561e-06,-9.1068e-06,-68.425,0.41988
30322,9.3377,6,0.1,0.00035742,3571.7,0.00035735,3569.7,-0.00011776,-0.12359,-0.00011827,-3.966,0.44458
30323,9.2453,6,0.05,1.2008e-05,120,9.2209e-06,69.282,1.8174e-12,1.3572e-06,-9.2209e-06,-69.282,0.43627
30324,9.5226,6,0.1,0.00035207,3518.2,0.00035199,3516.1,-0.00011598,-0.10913,-0.00011652,-4.1699,0.46133
30325,9.4302,6,0.05,1.214e-05,121.31,9.3219e-06,70.041,1.3616e-15,1.4419e-06,-9.3219e-06,-70.041,0.4529
30326,9.7075,6,0.1,0.00034674,3465,0.00034666,3462.8,-0.00011422,-0.095673,-0.00011478,-4.3645,0.47832
30327,9.6151,6,0.05,1.2255e-05,122.47,9.4107e-06,70.708,-1.1881e-15,1.5001e-06,-9.4107e-06,-70.708,0.46977
30328,9.8925,6,0.1,0.00034144,3412,0.00034136,3409.7,-0.00011246,-0.083133,-0.00011305,-4.5502,0.49555
30329,9.8,6,0.05,1.2356e-05,123.48,9.4881e-06,71.29,1.8179e-12,1.4305e-06,-9.4881e-06,-71.29,0.48689
30330,10.077,6,0.1,0.00033616,3359.3,0.00033608,3356.9,-0.00011071,-0.07143,-0.00011133,-4.7276,0.51302
30331,9.9849,6,0.05,1.2443e-05,124.35,9.5549e-06,71.792,1.819e-12,1.7807e-06,-9.5549e-06,-71.792,0.50423
30332,10.262,6,0.1,0.00033091,3306.8,0.00033083,3304.4,-0.00010896,-0.060489,-0.00010961,-4.8968,0.53071
30333,10.17,6,0.05,1.2517e-05,125.09,9.6119e-06,72.22,1.819e-12,1.6092e-06,-9.6119e-06,-72.22,0.52181
30334,10.447,6,0.1,0.00032569,3254.6,0.0003256,3252.1,-0.00010723,-0.050237,-0.0001079,-5.0585,0.54863
30335,10.355,6,0.05,1.258e-05,125.71,9.6596e-06,72.578,1.8184e-12,1.4954e-06,-9.6596e-06,-72.578,0.53962
30336,10.632,6,0.1,0.00032048,3202.6,0.0003204,3200,-0.00010551,-0.040606,-0.00010619,-5.2128,0.56677
30337,10.54,6,0.05,1.263e-05,126.22,9.6986e-06,72.872,-9.3674e-18,1.8477e-06,-9.6986e-06,-72.872,0.55765
30338,10.817,6,0.1,0.00031531,3150.9,0.00031521,3148.2,-0.00010379,-0.031533,-0.0001045,-5.3603,0.58513
30339,10.725,6,0.05,1.2671e-05,126.62,9.7295e-06,73.104,4.1007e-16,1.9073e-06,-9.7295e-06,-73.104,0.5759
30340,11.002,6,0.1,0.00031015,3099.4,0.00031006,3096.6,-0.00010208,-0.022958,-0.00010281,-5.5011,0.6037
30341,10.909,6,0.05,1.2701e-05,126.92,9.7528e-06,73.278,-2.0687e-21,1.9047e-06,-9.7528e-06,-73.279,0.59437
30342,11.187,6,0.1,0.00030502,3048.1,0.00030492,3045.3,-0.00010038,-0.014821,-0.00010113,-5.6356,0.62249
30343,11.094,6,0.05,1.2722e-05,127.13,9.7688e-06,73.399,-4.1131e-21,1.9688e-06,-9.7688e-06,-73.399,0.61305
30344,11.372,6,0.1,0.00029991,2997,0.00029981,2994.1,-9.8685e-05,-0.0070685,-9.9451e-05,-5.7641,0.64148
30345,11.279,6,0.05,1.2734e-05,127.25,9.7779e-06,73.467,1.2927e-16,2.1469e-06,-9.7779e-06,-73.467,0.63194
30346,11.557,6,0.1,0.00029482,2946.2,0.00029472,2943.2,-9.6999e-05,0.00035453,-9.7782e-05,-5.8868,0.66068
30347,11.464,6,0.05,1.2737e-05,127.28,9.7805e-06,73.487,1.819e-12,1.5497e-06,-9.7805e-06,-73.487,0.65103
30348,11.742,6,0.1,0.00028975,2895.5,0.00028965,2892.5,-9.532e-05,0.0075013,-9.612e-05,-6.0038,0.68008
30349,11.649,6,0.05,1.2732e-05,127.23,9.7768e-06,73.459,1.819e-12,5.5432e-06,-9.7768e-06,-73.459,0.67033
30350,11.926,6,0.1,0.00028471,2845.1,0.0002846,2842.1,-9.3649e-05,0.014419,-9.4465e-05,-6.1155,0.69968
30351,11.834,6,0.05,1.272e-05,127.11,9.767e-06,73.386,1.8191e-12,2.2659e-06,-9.767e-06,-73.386,0.68983
30352,12.111,6,0.1,0.00027968,2794.9,0.00027958,2791.8,-9.1985e-05,0.02116,-9.2816e-05,-6.2218,0.71947
30353,12.019,6,0.05,1.2699e-05,126.91,9.7515e-06,73.269,-2.0684e-21,-1.1325e-06,-9.7515e-06,-73.269,0.70953
30354,12.296,6,0.1,0.00027468,2744.9,0.00027457,2741.7,-9.0327e-05,0.027797,-9.1173e-05,-6.3229,0.73945
30355,12.204,6,0.05,1.2672e-05,126.63,9.7302e-06,73.109,2.655e-16,3.159e-06,-9.7302e-06,-73.109,0.72941
30356,12.481,6,0.1,0.00026969,2695,0.00026958,2691.8,-8.8677e-05,0.034367,-8.9536e-05,-6.4187,0.75962
30357,12.389,6,0.05,1.2637e-05,126.28,9.7033e-06,72.907,3.4008e-16,2.0862e-06,-9.7033e-06,-72.907,0.74949
30358,12.666,6,0.1,0.00026472,2645.4,0.00026461,2642.2,-8.7033e-05,0.04091,-8.7905e-05,-6.5094,0.77997
30359,12.574,6,0.05,1.2594e-05,125.86,9.6709e-06,72.663,-2.0513e-21,2.023e-06,-9.6709e-06,-72.663,0.76975
30360,12.851,6,0.1,0.00025978,2596,0.00025966,2592.7,-8.5395e-05,0.047505,-8.6279e-05,-6.5948,0.8005
30361,12.758,6,0.05,1.2545e-05,125.36,9.6329e-06,72.378,1.819e-12,2.563e-06,-9.6329e-06,-72.378,0.79019
30362,13.036,6,0.1,0.00025485,2546.7,0.00025473,2543.4,-8.3764e-05,0.054215,-8.4659e-05,-6.6748,0.82121
30363,12.943,6,0.05,1.2488e-05,124.8,9.5894e-06,72.051,-2.0341e-21,2.8062e-06,-9.5894e-06,-72.051,0.81081
30364,13.221,6,0.1,0.00024993,2497.6,0.00024982,2494.2,-8.2138e-05,0.061104,-8.3044e-05,-6.7492,0.8421
30365,13.128,6,0.05,1.2424e-05,124.16,9.5402e-06,71.682,1.819e-12,2.2648e-06,-9.5402e-06,-71.682,0.83161
30366,13.406,6,0.1,0.00024503,2448.7,0.00024492,2445.3,-8.0518e-05,0.06825,-8.1434e-05,-6.8177,0.86315
30367,13.313,6,0.05,1.2353e-05,123.44,9.4853e-06,71.269,-2.012e-21,2.9801e-06,-9.4853e-06,-71.269,0.85258
30368,13.591,6,0.1,0.00024015,2399.9,0.00024004,2396.5,-7.8903e-05,0.075736,-7.9829e-05,-6.8799,0.88437
30369,13.498,6,0.05,1.2273e-05,122.65,9.4243e-06,70.81,1.819e-12,2.5103e-06,-9.4243e-06,-70.81,0.87372
30370,13.775,6,0.1,0.00023528,2351.2,0.00023517,2347.8,-7.7293e-05,0.083657,-7.8227e-05,-6.9354,0.90575
30371,13.683,6,0.05,1.2186e-05,121.77,9.357e-06,70.305,3.6389e-12,2.7416e-06,-9.357e-06,-70.305,0.89502
30372,13.96,6,0.1,0.00023043,2302.7,0.00023031,2299.2,-7.5688e-05,0.092122,-7.6629e-05,-6.9837,0.9273
30373,13.868,6,0.05,1.2089e-05,120.81,9.283e-06,69.749,1.819e-12,3.0994e-06,-9.283e-06,-69.749,0.91649
30374,14.145,6,0.1,0.00022558,2254.3,0.00022546,2250.8,-7.4086e-05,0.10126,-7.5034e-05,-7.024,0.949
30375,14.053,6,0.05,1.1984e-05,119.75,9.202e-06,69.14,-1.9519e-21,2.8014e-06,-9.202e-06,-69.14,0.93811
30376,14.33,6,0.1,0.00022075,2205.9,0.00022063,2202.5,-7.2487e-05,0.1112,-7.3441e-05,-7.0556,0.97085
30377,14.238,6,0.05,1.1868e-05,118.6,9.1133e-06,68.474,1.8177e-12,3.1585e-06,-9.1133e-06,-68.474,0.95989
30378,14.515,6,0.1,0.00021591,2157.6,0.00021579,2154.2,-7.089e-05,0.12212,-7.1849e-05,-7.0775,0.99286
30379,14.423,6,0.05,1.1742e-05,117.34,9.0163e-06,67.745,1.8189e-12,3.218e-06,-9.0163e-06,-67.745,0.98182
30380,14.7,6,0.1,0.00021108,2109.4,0.00021096,2105.9,-6.9295e-05,0.13422,-7.0256e-05,-7.0884,1.015
30381,14.608,6,0.05,1.1604e-05,115.96,8.9102e-06,66.948,1.8189e-12,2.6815e-06,-8.9102e-06,-66.948,1.0039
30382,14.885,6,0.1,0.00020625,2061.1,0.00020613,2057.6,-6.7699e-05,0.14771,-6.8662e-05,-7.0872,1.0373
30383,14.792,6,0.05,1.1452e-05,114.44,8.794e-06,66.075,3.6361e-12,3.2039e-06,-8.794e-06,-66.075,1.0261
30384,15.07,6,0.1,0.00020141,2012.7,0.00020129,2009.3,-6.6101e-05,0.16286,-6.7064e-05,-7.0721,1.0597
30385,14.977,6,0.05,1.1287e-05,112.79,8.6666e-06,65.118,3.6378e-12,4.5883e-06,-8.6666e-06,-65.118,1.0485
30386,15.255,6,0.1,0.00019656,1964.2,0.00019644,1960.8,-6.4499e-05,0.17998,-6.546e-05,-7.0415,1.0823
30387,15.162,6,0.05,1.1104e-05,110.97,8.5267e-06,64.067,-8.5367e-17,2.5615e-06,-8.5267e-06,-64.067,1.071
30388,15.44,6,0.1,0.00019168,1915.5,0.00019156,1912.1,-6.289e-05,0.19941,-6.3848e-05,-6.9932,1.105
30389,15.347,6,0.05,1.0904e-05,108.96,8.3727e-06,62.909,1.8138e-12,3.018e-06,-8.3727e-06,-62.909,1.0936
30390,15.625,6,0.1,0.00018677,1866.4,0.00018665,1863,-6.1272e-05,0.22155,-6.2223e-05,-6.925,1.1279
30391,15.532,6,0.05,1.0682e-05,106.75,8.2027e-06,61.632,3.6347e-12,4.2416e-06,-8.2027e-06,-61.632,1.1164
30392,15.809,6,0.1,0.00018181,1816.9,0.0001817,1813.6,-5.9638e-05,0.24687,-6.0581e-05,-6.8343,1.1508
30393,15.717,6,0.05,1.0437e-05,104.3,8.0146e-06,60.219,1.8157e-12,3.6938e-06,-8.0146e-06,-60.219,1.1393
30394,15.994,6,0.1,0.00017679,1766.7,0.00017668,1763.5,-5.7986e-05,0.27585,-5.8917e-05,-6.7184,1.1739
30395,15.902,6,0.05,1.0166e-05,101.59,7.8059e-06,58.65,1.8152e-12,3.4548e-06,-7.8059e-06,-58.65,1.1623
30396,16.179,6,0.1,0.0001717,1715.8,0.00017159,1712.6,-5.6308e-05,0.30906,-5.7224e-05,-6.5744,1.1971
30397,16.087,6,0.05,9.8631e-06,98.563,7.5736e-06,56.905,1.8142e-12,4.2525e-06,-7.5736e-06,-56.905,1.1855
30398,16.364,6,0.1,0.00016649,1663.8,0.00016639,1660.7,-5.4596e-05,0.34707,-5.5494e-05,-6.3995,1.2204
30399,16.272,6,0.05,9.5257e-06,95.191,7.3145e-06,54.959,1.8138e-12,4.1821e-06,-7.3145e-06,-54.959,1.2087
30400,16.549,6,0.1,0.00016115,1610.4,0.00016105,1607.5,-5.2841e-05,0.39041,-5.3716e-05,-6.1911,1.2439
30401,16.457,6,0.05,9.1486e-06,91.422,7.025e-06,52.783,1.8175e-12,4.2261e-06,-7.025e-06,-52.783,1.2321
30402,16.734,6,0.1,0.00015564,1555.3,0.00015555,1552.6,-5.103e-05,0.43957,-5.188e-05,-5.947,1.2674
30403,16.642,6,0.05,8.7264e-06,87.203,6.7008e-06,50.347,1.8186e-12,4.2251e-06,-6.7008e-06,-50.347,1.2556
30404,16.919,6,0.1,0.00014991,1498.1,0.00014982,1495.5,-4.9149e-05,0.49482,-4.9969e-05,-5.6664,1.2911
30405,16.826,6,0.05,8.2534e-06,82.477,6.3376e-06,47.618,9.175e-13,4.7071e-06,-6.3376e-06,-47.618,1.2792
30406,17.104,6,0.1,0.00014391,1438.1,0.00014383,1435.7,-4.7179e-05,0.55605,-4.7965e-05,-5.3499,1.3148
30407,17.011,6,0.05,7.7237e-06,77.183,5.9308e-06,44.562,9.1554e-13,4.1379e-06,-5.9308e-06,-44.562,1.3029
30408,17.289,6,0.1,0.00013758,1374.8,0.0001375,1372.6,-4.5101e-05,0.62251,-4.5849e-05,-5.0008,1.3387
30409,17.196,6,0.05,7.1315e-06,71.266,5.4761e-06,41.145,1.8273e-12,3.4977e-06,-5.4761e-06,-41.145,1.3267
30410,17.474,6,0.1,0.00013083,1307.4,0.00013076,1305.4,-4.2887e-05,0.69237,-4.3595e-05,-4.6258,1.3626
30411,17.381,6,0.05,6.4719e-06,64.674,4.9696e-06,37.34,1.8321e-12,3.8658e-06,-4.9696e-06,-37.34,1.3506
30412,17.658,6,0.1,0.00012359,1235,0.00012353,1233.3,-4.051e-05,0.76208,-4.1175e-05,-4.236,1.3867
30413,17.566,6,0.05,5.7416e-06,57.376,4.4088e-06,33.126,9.079e-13,4.641e-06,-4.4088e-06,-33.126,1.3746
30414,17.843,6,0.1,0.00011575,1156.7,0.00011569,1155.1,-3.7936e-05,0.82566,-3.8558e-05,-3.848,1.4108
30415,17.751,6,0.05,4.9406e-06,49.372,3.7938e-06,28.505,9.2077e-13,4.7095e-06,-3.7938e-06,-28.505,1.3987
30416,18.028,6,0.1,0.0001072,1071.3,0.00010716,1070,-3.5132e-05,0.87373,-3.5712e-05,-3.4837,1.435
30417,17.936,6,0.05,4.0741e-06,40.713,3.1284e-06,23.506,8.707e-13,4.2873e-06,-3.1284e-06,-23.506,1.4229
30418,18.213,6,0.1,9.7858e-05,977.9,9.7818e-05,976.76,-3.2061e-05,0.89313,-3.2602e-05,-3.1695,1.4592
30419,18.121,6,0.05,3.1552e-06,31.53,2.4228e-06,18.204,-5.4906e-15,5.2422e-06,-2.4228e-06,-18.204,1.4471
30420,18.398,6,0.1,8.7613e-05,875.53,8.7577e-05,874.49,-2.8694e-05,0.86626,-2.92e-05,-2.9339,1.4836
30421,18.306,6,0.05,2.209e-06,22.075,1.6962e-06,12.745,9.933e-13,6.3045e-06,-1.6962e-06,-12.745,1.4714
30422,18.583,6,0.1,7.6405e-05,763.52,7.637e-05,762.5,-2.501e-05,0.77798,-2.5486e-05,-2.7986,1.508
30423,18.491,6,0.05,1.2788e-06,12.779,9.8194e-07,7.3779,9.2305e-13,4.0951e-06,-9.8194e-07,-7.3779,1.4958
30424,18.768,6,0.1,6.4213e-05,641.69,6.4176e-05,640.6,-2.1003e-05,0.60185,-2.1452e-05,-2.7732,1.5324
30425,18.675,6,0.05,4.5819e-07,4.5788,3.5183e-07,2.6436,-9.0581e-13,3.1147e-06,-3.5184e-07,-2.6435,1.5202
30426,18.953,6,0.1,5.1079e-05,510.44,5.1037e-05,509.22,-1.6685e-05,0.38328,-1.7109e-05,-2.802,1.5569
30427,18.86,6,0.05,4.2955e-07,4.2925,3.2984e-07,2.4783,4.3523e-15,1.089e-06,-3.2984e-07,-2.4783,1.5447
30428,19.138,6,0.1,3.7107e-05,370.81,3.7058e-05,369.38,-1.2114e-05,-0.077991,-1.2473e-05,-2.7768,1.5814
30429,19.045,6,0.05,8.4095e-07,8.4037,6.4575e-07,4.8519,5.1052e-13,5.6828e-06,-6.4575e-07,-4.8519,1.5692
30430,19.323,6,0.1,2.2292e-05,222.77,2.2249e-05,221.54,-7.1948e-06,0.3083,-7.5994e-06,-2.7321,1.606
30431,19.23,6,0.05,8.9327e-07,8.9265,6.8592e-07,5.1537,4.2458e-13,4.749e-06,-6.8592e-07,-5.1537,1.5937
30432,19.508,6,0.1,7.6e-06,75.947,7.6492e-06,77.698,-2.0645e-06,4.7127,-2.8115e-06,-0.8999,1.6306
30433,19.415,6,0.05,2.2653e-07,2.2637,1.7395e-07,1.307,2.4901e-14,2.0306e-06,-1.7394e-07,-1.307,1.6183
30434,19.6,6,0.05,1.3283e-06,13.274,1.02e-06,7.6636,-6.7484e-13,2.3633e-06,-1.02e-06,-7.6636,1.6428
30435,19.323,6,0,2.2292e-05,222.77,7.5994e-06,2.7321,7.1948e-06,-0.3083,-2.2249e-05,-221.54,1.606
30436,19.508,6,0,7.6e-06,75.947,2.8115e-06,0.89991,2.0645e-06,-4.7126,-7.6492e-06,-77.698,1.6306
30437,19.138,6,0,3.7107e-05,370.81,1.2473e-05,2.7768,1.2114e-05,0.077991,-3.7058e-05,-369.38,1.5814
30438,18.953,6,0,5.1079e-05,510.44,1.7109e-05,2.802,1.6685e-05,-0.38328,-5.1037e-05,-509.22,1.5569
30439,18.768,6,0,6.4213e-05,641.69,2.1452e-05,2.7732,2.1003e-05,-0.60185,-6.4176e-05,-640.6,1.5324
30440,18.583,6,0,7.6405e-05,763.52,2.5486e-05,2.7986,2.501e-05,-0.77798,-7.637e-05,-762.5,1.508
30441,18.398,6,0,8.7613e-05,875.53,2.92e-05,2.9339,2.8694e-05,-0.86626,-8.7577e-05,-874.49,1.4836
30442,18.213,6,0,9.7858e-05,977.9,3.2602e-05,3.1695,3.2061e-05,-0.89312,-9.7818e-05,-976.76,1.4592
30443,18.028,6,0,0.0001072,1071.3,3.5712e-05,3.4837,3.5132e-05,-0.87373,-0.00010716,-1070,1.435
30444,17.843,6,0,0.00011575,1156.7,3.8558e-05,3.848,3.7936e-05,-0.82566,-0.00011569,-1155.1,1.4108
30445,17.658,6,0,0.00012359,1235,4.1175e-05,4.236,4.051e-05,-0.76208,-0.00012353,-1233.3,1.3867
30446,17.474,6,0,0.00013083,1307.4,4.3595e-05,4.6258,4.2887e-05,-0.69237,-0.00013076,-1305.4,1.3626
30447,17.289,6,0,0.00013758,1374.8,4.5849e-05,5.0008,4.5101e-05,-0.62251,-0.0001375,-1372.6,1.3387
30448,17.104,6,0,0.00014391,1438.1,4.7965e-05,5.3499,4.7179e-05,-0.55605,-0.00014383,-1435.7,1.3148
30449,16.919,6,0,0.00014991,1498.1,4.9969e-05,5.6664,4.9149e-05,-0.49482,-0.00014982,-1495.5,1.2911
30450,16.734,6,0,0.00015564,1555.3,5.188e-05,5.947,5.103e-05,-0.43957,-0.00015555,-1552.6,1.2674
30451,16.549,6,0,0.00016115,1610.4,5.3716e-05,6.1911,5.2841e-05,-0.39041,-0.00016105,-1607.5,1.2439
30452,16.364,6,0,0.00016649,1663.8,5.5494e-05,6.3995,5.4596e-05,-0.34706,-0.00016639,-1660.7,1.2204
30453,16.179,6,0,0.0001717,1715.8,5.7224e-05,6.5744,5.6308e-05,-0.30906,-0.00017159,-1712.6,1.1971
30454,15.994,6,0,0.00017679,1766.7,5.8917e-05,6.7184,5.7986e-05,-0.27585,-0.00017668,-1763.5,1.1739
30455,15.809,6,0,0.00018181,1816.9,6.0581e-05,6.8343,5.9638e-05,-0.24686,-0.0001817,-1813.6,1.1508
30456,15.625,6,0,0.00018677,1866.4,6.2223e-05,6.925,6.1272e-05,-0.22155,-0.00018665,-1863,1.1279
30457,15.44,6,0,0.00019168,1915.5,6.3848e-05,6.9932,6.289e-05,-0.19941,-0.00019156,-1912.1,1.105
30458,15.255,6,0,0.00019656,1964.2,6.546e-05,7.0415,6.4499e-05,-0.17998,-0.00019644,-1960.8,1.0823
30459,15.07,6,0,0.00020141,2012.7,6.7064e-05,7.0721,6.6101e-05,-0.16286,-0.00020129,-2009.3,1.0597
30460,14.885,6,0,0.00020625,2061.1,6.8662e-05,7.0872,6.7699e-05,-0.14771,-0.00020613,-2057.6,1.0373
30461,14.7,6,0,0.00021108,2109.4,7.0256e-05,7.0884,6.9295e-05,-0.13422,-0.00021096,-2105.9,1.015
30462,14.515,6,0,0.00021591,2157.6,7.1849e-05,7.0775,7.089e-05,-0.12212,-0.00021579,-2154.2,0.99286
30463,14.33,6,0,0.00022075,2205.9,7.3441e-05,7.0556,7.2487e-05,-0.1112,-0.00022063,-2202.5,0.97085
30464,14.145,6,0,0.00022558,2254.3,7.5034e-05,7.024,7.4086e-05,-0.10125,-0.00022546,-2250.8,0.949
30465,13.96,6,0,0.00023043,2302.7,7.6629e-05,6.9837,7.5688e-05,-0.092121,-0.00023031,-2299.2,0.9273
30466,13.775,6,0,0.00023528,2351.2,7.8227e-05,6.9354,7.7293e-05,-0.083656,-0.00023517,-2347.8,0.90575
30467,13.591,6,0,0.00024015,2399.9,7.9829e-05,6.8799,7.8903e-05,-0.075735,-0.00024004,-2396.5,0.88437
30468,13.406,6,0,0.00024503,2448.7,8.1434e-05,6.8177,8.0518e-05,-0.068249,-0.00024492,-2445.3,0.86315
30469,13.221,6,0,0.00024993,2497.6,8.3044e-05,6.7492,8.2138e-05,-0.061104,-0.00024982,-2494.2,0.8421
30470,13.036,6,0,0.00025485,2546.7,8.4659e-05,6.6748,8.3764e-05,-0.054215,-0.00025473,-2543.4,0.82121
30471,12.851,6,0,0.00025978,2596,8.6279e-05,6.5948,8.5395e-05,-0.047505,-0.00025966,-2592.7,0.8005
30472,12.666,6,0,0.00026472,2645.4,8.7905e-05,6.5094,8.7033e-05,-0.04091,-0.00026461,-2642.2,0.77997
30473,12.481,6,0,0.00026969,2695,8.9536e-05,6.4188,8.8677e-05,-0.034367,-0.00026958,-2691.8,0.75962
30474,12.296,6,0,0.00027468,2744.9,9.1173e-05,6.3229,9.0327e-05,-0.027797,-0.00027457,-2741.7,0.73945
30475,12.111,6,0,0.00027968,2794.9,9.2816e-05,6.2218,9.1985e-05,-0.02116,-0.00027958,-2791.8,0.71947
30476,11.926,6,0,0.00028471,2845.1,9.4465e-05,6.1155,9.3649e-05,-0.014419,-0.0002846,-2842.1,0.69968
30477,11.742,6,0,0.00028975,2895.5,9.612e-05,6.0038,9.532e-05,-0.0075006,-0.00028965,-2892.5,0.68008
30478,11.557,6,0,0.00029482,2946.2,9.7782e-05,5.8868,9.6999e-05,-0.00035386,-0.00029472,-2943.2,0.66068
30479,11.372,6,0,0.00029991,2997,9.9451e-05,5.7641,9.8685e-05,0.007069,-0.00029981,-2994.1,0.64148
30480,11.187,6,0,0.00030502,3048.1,0.00010113,5.6356,0.00010038,0.014822,-0.00030492,-3045.3,0.62249
30481,11.002,6,0,0.00031015,3099.4,0.00010281,5.5011,0.00010208,0.022959,-0.00031006,-3096.6,0.6037
30482,10.817,6,0,0.00031531,3150.9,0.0001045,5.3603,0.00010379,0.031534,-0.00031521,-3148.2,0.58513
30483,10.632,6,0,0.00032048,3202.6,0.00010619,5.2128,0.00010551,0.040606,-0.0003204,-3200,0.56677
30484,10.447,6,0,0.00032569,3254.6,0.0001079,5.0585,0.00010723,0.050237,-0.0003256,-3252.1,0.54863
30485,10.262,6,0,0.00033091,3306.8,0.00010961,4.8969,0.00010896,0.060489,-0.00033083,-3304.4,0.53071
30486,10.077,6,0,0.00033616,3359.3,0.00011133,4.7276,0.00011071,0.071431,-0.00033608,-3356.9,0.51302
30487,9.8925,6,0,0.00034144,3412,0.00011305,4.5502,0.00011246,0.083133,-0.00034136,-3409.7,0.49555
30488,9.7075,6,0,0.00034674,3465,0.00011478,4.3645,0.00011422,0.095674,-0.00034666,-3462.8,0.47832
30489,9.5226,6,0,0.00035207,3518.2,0.00011652,4.1699,0.00011598,0.10913,-0.00035199,-3516.1,0.46133
30490,9.3377,6,0,0.00035742,3571.7,0.00011827,3.966,0.00011776,0.12359,-0.00035735,-3569.7,0.44458
30491,9.1528,6,0,0.0003628,3625.5,0.00012003,3.7524,0.00011955,0.13916,-0.00036273,-3623.6,0.42807
30492,8.9679,6,0,0.00036821,3679.6,0.0001218,3.5288,0.00012135,0.15593,-0.00036815,-3677.7,0.41181
30493,8.783,6,0,0.00037365,3733.9,0.00012357,3.2947,0.00012316,0.174,-0.00037359,-3732.2,0.3958
30494,8.5981,6,0,0.00037912,3788.6,0.00012535,3.0498,0.00012497,0.19349,-0.00037906,-3786.9,0.38004
30495,8.4132,6,0,0.00038462,3843.5,0.00012715,2.7938,0.0001268,0.21454,-0.00038457,-3842,0.36455
30496,8.2283,6,0,0.00039015,3898.8,0.00012895,2.5265,0.00012864,0.23727,-0.0003901,-3897.4,0.34931
30497,8.0434,6,0,0.00039571,3954.4,0.00013076,2.2477,0.0001305,0.26182,-0.00039567,-3953.1,0.33435
30498,7.8585,6,0,0.00040131,4010.3,0.00013258,1.9573,0.00013236,0.28835,-0.00040127,-4009.2,0.31965
30499,7.6736,6,0,0.00040695,4066.6,0.00013441,1.6556,0.00013424,0.31704,-0.00040691,-4065.7,0.30523
30500,7.4887,6,0,0.00041262,4123.3,0.00013626,1.3427,0.00013613,0.34804,-0.00041259,-4122.5,0.29108
30501,7.3038,6,0,0.00041832,4180.4,0.00013811,1.0191,0.00013803,0.38155,-0.0004183,-4179.7,0.27722
30502,7.1189,6,0,0.00042407,4237.8,0.00013998,0.68577,0.00013994,0.41766,-0.00042405,-4237.3,0.26365
30503,6.934,6,0,0.00042986,4295.7,0.00014188,0.45798,0.00014186,0.34223,-0.00042985,-4295.3,0.25036
30504,6.7491,6,0,0.0004357,4354,0.00014382,0.49988,0.00014375,-0.0072185,-0.00043569,-4353.7,0.23737
30505,6.5642,6,0,0.00044158,4412.7,0.00014578,0.54574,0.00014566,-0.36284,-0.00044157,-4412.6,0.22467
30506,6.3792,6,0,0.0004475,4471.9,0.00014776,0.5954,0.00014759,-0.72181,-0.0004475,-4472,0.21228
30507,6.1943,6,0,0.00045348,4531.6,0.00014975,0.64914,0.00014952,-1.0811,-0.00045348,-4531.8,0.20019
30508,6.0094,6,0,0.0004595,4591.9,0.00015177,0.70729,0.00015148,-1.437,-0.00045951,-4592.2,0.18842
30509,5.8245,6,0,0.00046558,4652.6,0.0001538,0.77018,0.00015345,-1.7849,-0.0004656,-4653.1,0.17696
30510,5.6396,6,0,0.00047172,4713.9,0.00015584,0.83823,0.00015545,-2.1191,-0.00047174,-4714.6,0.16581
30511,5.4547,6,0,0.00047791,4775.8,0.00015791,0.91187,0.00015746,-2.4329,-0.00047794,-4776.6,0.15499
30512,5.2698,6,0,0.00048417,4838.3,0.00015999,0.99155,0.0001595,-2.7182,-0.00048419,-4839.2,0.1445
30513,5.0849,6,0,0.00049048,4901.4,0.0001621,1.0778,0.00016156,-2.9652,-0.00049051,-4902.4,0.13434
30514,4.9,6,0,0.00049686,4965.1,0.00016422,1.1713,0.00016364,-3.1622,-0.00049689,-4966.1,0.12451
30515,4.7151,6,0,0.0005033,5029.5,0.00016636,1.2726,0.00016575,-3.2955,-0.00050333,-5030.5,0.11503
30516,4.5302,6,0,0.0005098,5094.5,0.00016851,1.3827,0.00016789,-3.3492,-0.00050983,-5095.4,0.10589
30517,4.3453,6,0,0.00051636,5160.1,0.00017069,1.5026,0.00017005,-3.3041,-0.00051639,-5161,0.097095
30518,4.1604,6,0,0.00052298,5226.2,0.00017288,1.6338,0.00017224,-3.1384,-0.00052301,-5227,0.088656
30519,3.9755,6,0,0.00052966,5292.9,0.00017508,1.7782,0.00017446,-2.8269,-0.00052967,-5293.4,0.080576
30520,3.7906,6,0,0.00053637,5360,0.00017728,1.9395,0.00017671,-2.3408,-0.00053638,-5360.2,0.072857
30521,3.6057,6,0,0.00054312,5427.5,0.00017949,2.1244,0.00017899,-1.6494,-0.00054311,-5427.2,0.065507
30522,3.4208,6,0,0.00054988,5495.1,0.00018169,2.3495,0.00018128,-0.72544,-0.00054986,-5494.2,0.058527
30523,3.2358,6,0,0.00055664,5562.5,0.00018389,2.6706,0.00018359,0.42739,-0.00055658,-5561,0.051924
30524,3.0509,6,0,0.00056335,5629.6,0.0001861,3.3391,0.00018587,1.6186,-0.00056326,-5627.1,0.045702
30525,2.866,6,0,0.00056997,5695.8,0.00018839,4.9268,0.00018804,2.3494,-0.00056985,-5692.1,0.039864
30526,2.6811,6,0,0.00057644,5760.5,0.00019071,7.396,0.00019009,2.745,-0.00057627,-5755.4,0.034417
30527,2.4962,6,0,0.00058269,5822.9,0.00019302,10.595,0.00019202,3.0631,-0.00058246,-5816.1,0.029362
30528,2.3113,6,0,0.0005886,5882,0.00019529,14.586,0.0001938,3.3738,-0.0005883,-5873,0.024706
30529,2.1264,6,0,0.00059403,5936.2,0.00019748,19.509,0.00019537,3.7,-0.00059364,-5924.6,0.02045
30530,1.9415,6,0,0.00059878,5983.7,0.00019953,25.565,0.00019667,4.0543,-0.00059827,-5968.8,0.016599
30531,1.7566,6,0,0.00060257,6021.5,0.00020139,33.025,0.00019758,4.4488,-0.00060193,-6002.8,0.013155
30532,1.5717,6,0,0.00060501,6045.9,0.00020294,42.259,0.00019797,4.8911,-0.0006042,-6022.3,0.01012
30533,1.3868,6,0,0.00060554,6051.2,0.00020405,53.813,0.00019761,5.4134,-0.00060452,-6021.4,0.0074947
30534,1.2019,6,0,0.0006033,6028.8,0.0002045,68.465,0.00019619,5.9825,-0.00060201,-5991.3,0.0052784
30535,1.017,6,0,0.00059696,5965.4,0.00020397,87.639,0.00019321,6.801,-0.00059531,-5917.8,0.003468
30536,0.83208,6,0,0.00058428,5838.7,0.0002019,113.41,0.00018779,7.4212,-0.00058215,-5777.6,0.0020576
30537,0.64717,6,0,0.00056106,5606.7,0.00019729,151.12,0.00017836,8.9057,-0.0005582,-5525.3,0.0010364
30538,0.46226,6,0,0.00051943,5190.7,0.00018841,212.54,0.00016191,13.426,-0.0005153,-5074.9,0.00038656
30539,0.27736,6,0,0.00043411,4338.1,0.00017178,334.43,0.00012476,-18.881,-0.00042766,-4169.5,8.4899e-05
30540,0.092453,6,0,0.00025661,2564.3,0.00014878,896.02,5.1405e-05,164.35,-0.00023061,-1954.6,2.882e-05
30541,19.6,5.9091,0,5.7681e-06,57.641,2.5155e-06,8.5914,1.6309e-06,1.9452,-5.56e-06,-52.085,1.6432
30542,5.1657e-14,5.9091,0,0.00013973,1396.3,7.4269e-05,141.68,4.9112e-06,-379.44,-0.00013627,-1440.2,0
30543,0.27736,-8.2405e-32,0,0.00043411,4338.1,0.00017178,334.43,0.00012476,-18.881,-0.00042766,-4169.5,8.4899e-05
30544,0.092453,-2.7468e-32,0,0.00025661,2564.3,0.00014878,896.02,5.1405e-05,164.35,-0.00023061,-1954.6,2.882e-05
30545,0.46226,-1.3734e-31,0,0.00051943,5190.7,0.00018841,212.54,0.00016191,13.426,-0.0005153,-5074.9,0.00038656
30546,0.64717,-1.9228e-31,0,0.00056106,5606.7,0.00019729,151.12,0.00017836,8.9057,-0.0005582,-5525.3,0.0010364
30547,0.83208,-2.4721e-31,0,0.00058428,5838.7,0.0002019,113.41,0.00018779,7.4212,-0.00058215,-5777.6,0.0020576
30548,1.017,-3.0215e-31,0,0.00059696,5965.4,0.00020397,87.639,0.00019321,6.801,-0.00059531,-5917.8,0.003468
30549,1.2019,-3.5709e-31,0,0.0006033,6028.8,0.0002045,68.465,0.00019619,5.9825,-0.00060201,-5991.3,0.0052784
30550,1.3868,-4.1202e-31,0,0.00060554,6051.2,0.00020405,53.813,0.00019761,5.4134,-0.00060452,-6021.4,0.0074947
30551,1.5717,-4.6696e-31,0,0.00060501,6045.9,0.00020294,42.259,0.00019797,4.8911,-0.0006042,-6022.3,0.01012
30552,1.7566,-5.219e-31,0,0.00060257,6021.5,0.00020139,33.025,0.00019758,4.4488,-0.00060193,-6002.8,0.013155
30553,1.9415,-5.7683e-31,0,0.00059878,5983.7,0.00019953,25.565,0.00019667,4.0543,-0.00059827,-5968.8,0.016599
30554,2.1264,-6.3177e-31,0,0.00059403,5936.2,0.00019748,19.509,0.00019537,3.7,-0.00059364,-5924.6,0.02045
30555,2.3113,-6.8671e-31,0,0.0005886,5882,0.00019529,14.586,0.0001938,3.3738,-0.0005883,-5873,0.024706
30556,2.4962,-7.4164e-31,0,0.00058269,5822.9,0.00019302,10.595,0.00019202,3.0631,-0.00058246,-5816.1,0.029362
30557,2.6811,-7.9658e-31,0,0.00057644,5760.5,0.00019071,7.3961,0.00019009,2.7451,-0.00057627,-5755.4,0.034417
30558,2.866,-8.5152e-31,0,0.00056997,5695.8,0.00018839,4.9269,0.00018804,2.3494,-0.00056985,-5692.1,0.039864
30559,3.0509,-9.0645e-31,0,0.00056335,5629.6,0.0001861,3.3391,0.00018587,1.6186,-0.00056326,-5627.1,0.045702
30560,3.2358,-9.6139e-31,0,0.00055664,5562.5,0.00018389,2.6706,0.00018359,0.4274,-0.00055658,-5561,0.051924
30561,3.4208,-1.0163e-30,0,0.00054988,5495.1,0.00018169,2.3495,0.00018128,-0.72542,-0.00054986,-5494.2,0.058527
30562,3.6057,-1.0713e-30,0,0.00054312,5427.5,0.00017949,2.1244,0.00017899,-1.6494,-0.00054311,-5427.2,0.065507
30563,3.7906,-1.1262e-30,0,0.00053637,5360,0.00017728,1.9395,0.00017671,-2.3408,-0.00053638,-5360.2,0.072857
30564,3.9755,-1.1811e-30,0,0.00052966,5292.9,0.00017508,1.7782,0.00017446,-2.8268,-0.00052967,-5293.4,0.080576
30565,4.1604,-1.2361e-30,0,0.00052298,5226.2,0.00017288,1.6338,0.00017224,-3.1384,-0.00052301,-5227,0.088656
30566,4.3453,-1.291e-30,0,0.00051636,5160.1,0.00017069,1.5026,0.00017005,-3.3041,-0.00051639,-5161,0.097095
30567,4.5302,-1.3459e-30,0,0.0005098,5094.5,0.00016851,1.3827,0.00016789,-3.3491,-0.00050983,-5095.5,0.10589
30568,4.7151,-1.4009e-30,0,0.0005033,5029.5,0.00016636,1.2726,0.00016575,-3.2955,-0.00050333,-5030.5,0.11503
30569,4.9,-1.4558e-30,0,0.00049686,4965.1,0.00016422,1.1713,0.00016364,-3.1622,-0.00049689,-4966.1,0.12451
30570,5.0849,-1.5108e-30,0,0.00049048,4901.4,0.0001621,1.0778,0.00016156,-2.9652,-0.00049051,-4902.4,0.13434
30571,5.2698,-1.5657e-30,0,0.00048417,4838.3,0.00015999,0.99155,0.0001595,-2.7182,-0.00048419,-4839.2,0.1445
30572,5.4547,-1.6206e-30,0,0.00047791,4775.8,0.00015791,0.91187,0.00015746,-2.4329,-0.00047794,-4776.6,0.15499
30573,5.6396,-1.6756e-30,0,0.00047172,4713.9,0.00015584,0.83824,0.00015545,-2.1191,-0.00047174,-4714.6,0.16581
30574,5.8245,-1.7305e-30,0,0.00046558,4652.6,0.0001538,0.77019,0.00015345,-1.7849,-0.0004656,-4653.1,0.17696
30575,6.0094,-1.7854e-30,0,0.0004595,4591.9,0.00015177,0.70729,0.00015148,-1.437,-0.00045951,-4592.2,0.18842
30576,6.1943,-1.8404e-30,0,0.00045348,4531.6,0.00014975,0.64914,0.00014952,-1.0811,-0.00045348,-4531.8,0.20019
30577,6.3792,-1.8953e-30,0,0.0004475,4471.9,0.00014776,0.5954,0.00014759,-0.72182,-0.0004475,-4472,0.21228
30578,6.5642,-1.9503e-30,0,0.00044158,4412.7,0.00014578,0.54574,0.00014566,-0.36285,-0.00044157,-4412.6,0.22467
30579,6.7491,-2.0052e-30,0,0.0004357,4354,0.00014382,0.49988,0.00014375,-0.007226,-0.00043569,-4353.7,0.23737
30580,6.934,-2.0601e-30,0,0.00042986,4295.7,0.00014188,0.45798,0.00014186,0.34222,-0.00042985,-4295.3,0.25036
30581,7.1189,-2.1151e-30,0,0.00042407,4237.8,0.00013998,0.68576,0.00013994,0.41766,-0.00042405,-4237.3,0.26365
30582,7.3038,-2.17e-30,0,0.00041832,4180.4,0.00013811,1.0191,0.00013803,0.38155,-0.0004183,-4179.7,0.27722
30583,7.4887,-2.2249e-30,0,0.00041262,4123.3,0.00013626,1.3427,0.00013613,0.34805,-0.00041259,-4122.5,0.29108
30584,7.6736,-2.2799e-30,0,0.00040695,4066.6,0.00013441,1.6556,0.00013424,0.31704,-0.00040691,-4065.7,0.30523
30585,7.8585,-2.3348e-30,0,0.00040131,4010.3,0.00013258,1.9573,0.00013236,0.28835,-0.00040127,-4009.2,0.31965
30586,8.0434,-2.3897e-30,0,0.00039571,3954.4,0.00013076,2.2477,0.0001305,0.26182,-0.00039567,-3953.1,0.33435
30587,8.2283,-2.4447e-30,0,0.00039015,3898.8,0.00012895,2.5265,0.00012864,0.23727,-0.0003901,-3897.4,0.34931
30588,8.4132,-2.4996e-30,0,0.00038462,3843.5,0.00012715,2.7938,0.0001268,0.21454,-0.00038457,-3842,0.36455
30589,8.5981,-2.5546e-30,0,0.00037912,3788.6,0.00012535,3.0498,0.00012497,0.19349,-0.00037906,-3786.9,0.38004
30590,8.783,-2.6095e-30,0,0.00037365,3733.9,0.00012357,3.2947,0.00012316,0.174,-0.00037359,-3732.2,0.3958
30591,8.9679,-2.6644e-30,0,0.00036821,3679.6,0.0001218,3.5288,0.00012135,0.15593,-0.00036815,-3677.7,0.41181
30592,9.1528,-2.7194e-30,0,0.0003628,3625.5,0.00012003,3.7524,0.00011955,0.13916,-0.00036273,-3623.6,0.42807
30593,9.3377,-2.7743e-30,0,0.00035742,3571.7,0.00011827,3.966,0.00011776,0.12359,-0.00035735,-3569.7,0.44458
30594,9.5226,-2.8292e-30,0,0.00035207,3518.2,0.00011652,4.1699,0.00011598,0.10913,-0.00035199,-3516.1,0.46133
30595,9.7075,-2.8842e-30,0,0.00034674,3465,0.00011478,4.3645,0.00011422,0.095674,-0.00034666,-3462.8,0.47832
30596,9.8925,-2.9391e-30,0,0.00034144,3412,0.00011305,4.5502,0.00011246,0.083134,-0.00034136,-3409.7,0.49555
30597,10.077,-2.994e-30,0,0.00033616,3359.3,0.00011133,4.7276,0.00011071,0.071431,-0.00033608,-3356.9,0.51302
30598,10.262,-3.049e-30,0,0.00033091,3306.8,0.00010961,4.8968,0.00010896,0.06049,-0.00033083,-3304.4,0.53071
30599,10.447,-3.1039e-30,0,0.00032569,3254.6,0.0001079,5.0585,0.00010723,0.050237,-0.0003256,-3252.1,0.54863
30600,10.632,-3.1589e-30,0,0.00032048,3202.6,0.00010619,5.2128,0.00010551,0.040607,-0.0003204,-3200,0.56677
30601,10.817,-3.2138e-30,0,0.00031531,3150.9,0.0001045,5.3603,0.00010379,0.031534,-0.00031521,-3148.2,0.58513
30602,11.002,-3.2687e-30,0,0.00031015,3099.4,0.00010281,5.5011,0.00010208,0.022959,-0.00031006,-3096.6,0.6037
30603,11.187,-3.3237e-30,0,0.00030502,3048.1,0.00010113,5.6356,0.00010038,0.014823,-0.00030492,-3045.3,0.62249
30604,11.372,-3.3786e-30,0,0.00029991,2997,9.9451e-05,5.7641,9.8685e-05,0.0070698,-0.00029981,-2994.1,0.64148
30605,11.557,-3.4335e-30,0,0.00029482,2946.2,9.7782e-05,5.8867,9.6999e-05,-0.00035351,-0.00029472,-2943.2,0.66068
30606,11.742,-3.4885e-30,0,0.00028975,2895.5,9.612e-05,6.0038,9.532e-05,-0.0074996,-0.00028965,-2892.5,0.68008
30607,11.926,-3.5434e-30,0,0.00028471,2845.1,9.4465e-05,6.1154,9.3649e-05,-0.014417,-0.0002846,-2842.1,0.69968
30608,12.111,-3.5984e-30,0,0.00027968,2794.9,9.2816e-05,6.2218,9.1985e-05,-0.021161,-0.00027958,-2791.8,0.71947
30609,12.296,-3.6533e-30,0,0.00027468,2744.9,9.1173e-05,6.3229,9.0327e-05,-0.027797,-0.00027457,-2741.7,0.73945
30610,12.481,-3.7082e-30,0,0.00026969,2695,8.9536e-05,6.4187,8.8677e-05,-0.034366,-0.00026958,-2691.8,0.75962
30611,12.666,-3.7632e-30,0,0.00026472,2645.4,8.7905e-05,6.5094,8.7033e-05,-0.040909,-0.00026461,-2642.2,0.77997
30612,12.851,-3.8181e-30,0,0.00025978,2596,8.6279e-05,6.5948,8.5395e-05,-0.047504,-0.00025966,-2592.7,0.8005
30613,13.036,-3.873e-30,0,0.00025485,2546.7,8.4659e-05,6.6748,8.3764e-05,-0.054215,-0.00025473,-2543.4,0.82121
30614,13.221,-3.928e-30,0,0.00024993,2497.6,8.3044e-05,6.7492,8.2138e-05,-0.061104,-0.00024982,-2494.2,0.8421
30615,13.406,-3.9829e-30,0,0.00024503,2448.7,8.1434e-05,6.8176,8.0518e-05,-0.068249,-0.00024492,-2445.3,0.86315
30616,13.591,-4.0378e-30,0,0.00024015,2399.9,7.9829e-05,6.8799,7.8903e-05,-0.075735,-0.00024004,-2396.5,0.88437
30617,13.775,-4.0928e-30,0,0.00023528,2351.2,7.8227e-05,6.9354,7.7293e-05,-0.083656,-0.00023517,-2347.8,0.90575
30618,13.96,-4.1477e-30,0,0.00023043,2302.7,7.6629e-05,6.9837,7.5688e-05,-0.092121,-0.00023031,-2299.2,0.9273
30619,14.145,-4.2027e-30,0,0.00022558,2254.3,7.5034e-05,7.024,7.4086e-05,-0.10125,-0.00022546,-2250.8,0.949
30620,14.33,-4.2576e-30,0,0.00022075,2205.9,7.3441e-05,7.0556,7.2487e-05,-0.1112,-0.00022063,-2202.5,0.97085
30621,14.515,-4.3125e-30,0,0.00021591,2157.6,7.1849e-05,7.0774,7.089e-05,-0.12212,-0.00021579,-2154.2,0.99286
30622,14.7,-4.3675e-30,0,0.00021108,2109.4,7.0256e-05,7.0884,6.9295e-05,-0.13422,-0.00021096,-2105.9,1.015
30623,14.885,-4.4224e-30,0,0.00020625,2061.1,6.8662e-05,7.0871,6.7699e-05,-0.14771,-0.00020613,-2057.6,1.0373
30624,15.07,-4.4773e-30,0,0.00020141,2012.7,6.7064e-05,7.0721,6.6101e-05,-0.16286,-0.00020129,-2009.3,1.0597
30625,15.255,-4.5323e-30,0,0.00019656,1964.2,6.546e-05,7.0415,6.4499e-05,-0.17998,-0.00019644,-1960.8,1.0823
30626,15.44,-4.5872e-30,0,0.00019168,1915.5,6.3848e-05,6.9932,6.289e-05,-0.1994,-0.00019156,-1912.1,1.105
30627,15.625,-4.6421e-30,0,0.00018677,1866.4,6.2223e-05,6.925,6.1272e-05,-0.22155,-0.00018665,-1863,1.1279
30628,15.809,-4.6971e-30,0,0.00018181,1816.9,6.0581e-05,6.8343,5.9638e-05,-0.24686,-0.0001817,-1813.6,1.1508
30629,15.994,-4.752e-30,0,0.00017679,1766.7,5.8917e-05,6.7184,5.7986e-05,-0.27585,-0.00017668,-1763.5,1.1739
30630,16.179,-4.807e-30,0,0.0001717,1715.8,5.7224e-05,6.5744,5.6308e-05,-0.30906,-0.00017159,-1712.6,1.1971
30631,16.364,-4.8619e-30,0,0.00016649,1663.8,5.5494e-05,6.3995,5.4596e-05,-0.34706,-0.00016639,-1660.7,1.2204
30632,16.549,-4.9168e-30,0,0.00016115,1610.4,5.3716e-05,6.1911,5.2841e-05,-0.39041,-0.00016105,-1607.5,1.2439
30633,16.734,-4.9718e-30,0,0.00015564,1555.3,5.188e-05,5.947,5.103e-05,-0.43957,-0.00015555,-1552.6,1.2674
30634,16.919,-5.0267e-30,0,0.00014991,1498.1,4.9969e-05,5.6664,4.9149e-05,-0.49482,-0.00014982,-1495.5,1.2911
30635,17.104,-5.0816e-30,0,0.00014391,1438.1,4.7965e-05,5.3499,4.7179e-05,-0.55605,-0.00014383,-1435.7,1.3148
30636,17.289,-5.1366e-30,0,0.00013758,1374.8,4.5849e-05,5.0008,4.5101e-05,-0.62251,-0.0001375,-1372.6,1.3387
30637,17.474,-5.1915e-30,0,0.00013083,1307.4,4.3595e-05,4.6258,4.2887e-05,-0.69237,-0.00013076,-1305.4,1.3626
30638,17.658,-5.2464e-30,0,0.00012359,1235,4.1175e-05,4.236,4.051e-05,-0.76208,-0.00012353,-1233.3,1.3867
30639,17.843,-5.3014e-30,0,0.00011575,1156.7,3.8558e-05,3.848,3.7936e-05,-0.82566,-0.00011569,-1155.1,1.4108
30640,18.028,-5.3563e-30,0,0.0001072,1071.3,3.5712e-05,3.4837,3.5132e-05,-0.87373,-0.00010716,-1070,1.435
30641,18.213,-5.4113e-30,0,9.7858e-05,977.9,3.2602e-05,3.1695,3.2061e-05,-0.89312,-9.7818e-05,-976.76,1.4592
30642,18.398,-5.4662e-30,0,8.7613e-05,875.53,2.92e-05,2.9339,2.8694e-05,-0.86626,-8.7577e-05,-874.49,1.4836
30643,18.583,-5.5211e-30,0,7.6405e-05,763.52,2.5486e-05,2.7986,2.501e-05,-0.77798,-7.637e-05,-762.5,1.508
30644,18.768,-5.5761e-30,0,6.4213e-05,641.69,2.1452e-05,2.7732,2.1003e-05,-0.60185,-6.4176e-05,-640.6,1.5324
30645,18.953,-5.631e-30,0,5.1079e-05,510.44,1.7109e-05,2.802,1.6685e-05,-0.38328,-5.1037e-05,-509.22,1.5569
30646,19.138,-5.6859e-30,0,3.7107e-05,370.81,1.2473e-05,2.7768,1.2114e-05,0.077992,-3.7058e-05,-369.38,1.5814
30647,19.323,-5.7409e-30,0,2.2292e-05,222.77,7.5994e-06,2.7321,7.1948e-06,-0.30829,-2.2249e-05,-221.54,1.606
30648,19.508,-5.7958e-30,0,7.6e-06,75.947,2.8115e-06,0.89991,2.0645e-06,-4.7126,-7.6492e-06,-77.698,1.6306
30649,19.6,0.090909,0,5.7681e-06,57.641,2.5155e-06,8.5913,1.6309e-06,1.9452,-5.56e-06,-52.085,1.6432
30650,7.9472e-16,0.090909,0,0.00013973,1396.3,7.4269e-05,141.68,4.9112e-06,-379.44,-0.00013627,-1440.2,0
30651,20.043,0,0,1.3403e-05,133.94,4.7955e-06,4.6712,4.2173e-06,0.32658,-1.3313e-05,-131.39,1.7091
30652,19.859,0,0,4.7766e-06,47.733,1.8453e-06,1.4143,1.2373e-06,-3.154,-4.7897e-06,-48.438,1.683
30653,20.227,0,0,2.0965e-05,209.51,7.4078e-06,6.2226,6.6571e-06,0.58213,-2.0844e-05,-206.05,1.7352
30654,20.411,0,0,2.7114e-05,270.96,9.5208e-06,7.0592,8.6207e-06,0.29612,-2.6983e-05,-267.21,1.7613
30655,20.595,0,0,3.1963e-05,319.41,1.115e-05,7.3308,1.0196e-05,0.16518,-3.1829e-05,-315.6,1.7874
30656,20.779,0,0,3.5543e-05,355.19,1.2331e-05,7.2605,1.1372e-05,0.054815,-3.5413e-05,-351.48,1.8135
30657,20.963,0,0,3.7934e-05,379.07,1.3104e-05,7.0284,1.2167e-05,-0.010992,-3.7809e-05,-375.52,1.8397
30658,21.147,0,0,3.9244e-05,392.17,1.3515e-05,6.7411,1.2611e-05,-0.049839,-3.9126e-05,-388.78,1.8659
30659,21.331,0,0,3.9607e-05,395.79,1.3613e-05,6.4666,1.2743e-05,-0.069657,-3.9494e-05,-392.55,1.8921
30660,21.515,0,0,3.9158e-05,391.31,1.3446e-05,6.2429,1.2605e-05,-0.078944,-3.9049e-05,-388.19,1.9183
30661,21.699,0,0,3.803e-05,380.04,1.3062e-05,6.0891,1.224e-05,-0.083509,-3.7924e-05,-377,1.9446
30662,21.883,0,0,3.6342e-05,363.17,1.2498e-05,6.0124,1.1686e-05,-0.087462,-3.6237e-05,-360.17,1.9709
30663,22.067,0,0,3.4199e-05,341.75,1.1791e-05,6.0125,1.0979e-05,-0.093476,-3.4094e-05,-338.75,1.9972
30664,22.251,0,0,3.169e-05,316.69,1.097e-05,6.0851,1.0146e-05,-0.10327,-3.1584e-05,-313.65,2.0235
30665,22.436,0,0,2.8893e-05,288.73,1.0059e-05,6.2234,9.2148e-06,-0.11801,-2.8784e-05,-285.62,2.0498
30666,22.62,0,0,2.5869e-05,258.51,9.0779e-06,6.4191,8.2052e-06,-0.13863,-2.5756e-05,-255.31,2.0762
30667,22.804,0,0,2.2672e-05,226.56,8.044e-06,6.6625,7.1352e-06,-0.16598,-2.2553e-05,-223.23,2.1026
30668,22.988,0,0,1.9345e-05,193.31,6.9705e-06,6.9417,6.0198e-06,-0.20177,-1.922e-05,-189.84,2.129
30669,23.172,0,0,1.5927e-05,159.16,5.8689e-06,7.2431,4.8721e-06,-0.24615,-1.5795e-05,-155.53,2.1554
30670,23.356,0,0,1.2453e-05,124.45,4.7485e-06,7.5343,3.7043e-06,-0.31091,-1.2312e-05,-120.65,2.1818
30671,23.54,0,0,8.9692e-06,89.63,3.6233e-06,7.8271,2.5312e-06,-0.37824,-8.8142e-06,-85.623,2.2083
30672,23.724,0,0,5.5161e-06,55.123,2.4735e-06,7.6467,1.3764e-06,-0.596,-5.3498e-06,-51.134,2.2347
30673,23.908,0,0,2.3089e-06,23.073,1.2769e-06,6.2142,3.9723e-07,-0.39567,-2.1377e-06,-19.442,2.2612
30674,19.767,0.090909,0,4.1424e-06,41.396,1.6787e-06,3.3761,1.1364e-06,-0.69888,-4.0818e-06,-39.906,1.6701
30675,24,0.090909,0,1.89e-06,18.887,1.6691e-06,15.434,-5.7695e-08,2.4589,-1.2148e-06,-6.2353,2.2744
30676,5.0067e-14,5.7273,0,0.0001832,1830.8,8.6563e-06,-1664.9,-4.5375e-06,-1764,-0.00024133,-3543.2,0
30677,4.8478e-14,5.5455,0,0.00026234,2621.6,3.5991e-06,-2514.2,-3.3406e-06,-2566.4,-0.00034873,-5161.5,0
30678,4.6888e-14,5.3636,0,0.00030483,3046.2,1.873e-06,-2947.5,-2.3447e-06,-2979.2,-0.00040564,-6009.4,0
30679,4.5299e-14,5.1818,0,0.00033226,3320.3,1.1796e-06,-3217.2,-1.5035e-06,-3237.4,-0.00044206,-6547.5,0
30680,4.371e-14,5,0,0.00035107,3508.3,8.1393e-07,-3401.4,-1.0365e-06,-3415.3,-0.00046704,-6916.7,0
30681,4.212e-14,4.8182,0,0.00036471,3644.6,5.9135e-07,-3534.7,-7.5078e-07,-3544.7,-0.00048514,-7184.2,0
30682,4.0531e-14,4.6364,0,0.0003749,3746.4,4.4299e-07,-3634.2,-5.5987e-07,-3641.7,-0.00049868,-7384.4,0
30683,3.8941e-14,4.4545,0,0.00038269,3824.2,3.3769e-07,-3710.2,-4.2639e-07,-3715.9,-0.00050902,-7537.3,0
30684,3.7352e-14,4.2727,0,0.00038869,3884.3,2.5939e-07,-3768.8,-3.2877e-07,-3773.2,-0.000517,-7655.3,0
30685,3.5762e-14,4.0909,0,0.00039335,3930.8,1.9886e-07,-3814.3,-2.5472e-07,-3817.7,-0.00052319,-7746.8,0
30686,3.4173e-14,3.9091,0,0.00039694,3966.7,1.5041e-07,-3849.4,-1.9668e-07,-3852,-0.00052796,-7817.4,0
30687,3.2583e-14,3.7273,0,0.00039967,3993.9,1.1029e-07,-3876.1,-1.4976e-07,-3878,-0.00053158,-7871,0
30688,3.0994e-14,3.5455,0,0.00040167,4013.9,7.5947e-08,-3895.7,-1.1068e-07,-3897.1,-0.00053424,-7910.3,0
30689,2.9405e-14,3.3636,0,0.00040304,4027.6,4.5668e-08,-3909.1,-7.7292e-08,-3910.1,-0.00053605,-7937.2,0
30690,2.7815e-14,3.1818,0,0.00040383,4035.6,1.8973e-08,-3917,-4.8827e-08,-3917.6,-0.00053711,-7952.8,0
30691,2.6226e-14,3,0,0.0004041,4038.2,3.3258e-09,-3919.7,-3.2606e-08,-3920,-0.00053746,-7958,0
30692,2.4636e-14,2.8182,0,0.00040383,4035.6,1.8974e-08,-3917,-4.8828e-08,-3917.6,-0.00053711,-7952.8,0
30693,2.3047e-14,2.6364,0,0.00040304,4027.6,4.5668e-08,-3909.1,-7.7292e-08,-3910.1,-0.00053605,-7937.2,0
30694,2.1457e-14,2.4545,0,0.00040167,4013.9,7.5947e-08,-3895.7,-1.1068e-07,-3897.1,-0.00053424,-7910.3,0
30695,1.9868e-14,2.2727,0,0.00039967,3993.9,1.1029e-07,-3876.1,-1.4976e-07,-3878,-0.00053158,-7871,0
30696,1.8279e-14,2.0909,0,0.00039694,3966.7,1.5041e-07,-3849.4,-1.9668e-07,-3852,-0.00052796,-7817.4,0
30697,1.6689e-14,1.9091,0,0.00039335,3930.8,1.9886e-07,-3814.3,-2.5472e-07,-3817.7,-0.00052319,-7746.8,0
30698,1.51e-14,1.7273,0,0.00038869,3884.3,2.5939e-07,-3768.8,-3.2877e-07,-3773.2,-0.000517,-7655.3,0
30699,1.351e-14,1.5455,0,0.00038269,3824.2,3.3769e-07,-3710.2,-4.2639e-07,-3715.9,-0.00050902,-7537.3,0
30700,1.1921e-14,1.3636,0,0.0003749,3746.4,4.4299e-07,-3634.2,-5.5987e-07,-3641.7,-0.00049868,-7384.4,0
30701,1.0331e-14,1.1818,0,0.00036471,3644.6,5.9135e-07,-3534.7,-7.5078e-07,-3544.7,-0.00048514,-7184.2,0
30702,8.7419e-15,1,0,0.00035107,3508.3,8.1393e-07,-3401.4,-1.0365e-06,-3415.3,-0.00046704,-6916.7,0
30703,7.1525e-15,0.81818,0,0.00033226,3320.3,1.1796e-06,-3217.2,-1.5035e-06,-3237.4,-0.00044206,-6547.5,0
30704,5.563e-15,0.63636,0,0.00030483,3046.2,1.873e-06,-2947.5,-2.3447e-06,-2979.2,-0.00040564,-6009.4,0
30705,3.9736e-15,0.45455,0,0.00026234,2621.6,3.5991e-06,-2514.2,-3.3406e-06,-2566.4,-0.00034873,-5161.5,0
30706,2.3842e-15,0.27273,0,0.0001832,1830.8,8.6563e-06,-1664.9,-4.5375e-06,-1764,-0.00024133,-3543.2,0
30707,24,0.27273,0,3.9355e-06,39.328,3.7777e-06,36.249,-7.4168e-07,2.2925,-1.9575e-06,-6.8427,2.2745
30708,24,0.45455,0,5.3841e-06,53.804,5.2442e-06,50.879,-1.2139e-06,2.3545,-2.4567e-06,-6.9832,2.2745
30709,24,0.63636,0,6.3391e-06,63.347,6.2077e-06,60.518,-1.5228e-06,2.4341,-2.7822e-06,-7.0284,2.2746
30710,24,0.81818,0,6.9737e-06,69.688,6.8471e-06,66.912,-1.7318e-06,2.4532,-2.9946e-06,-7.0346,2.2747
30711,24,1,0,7.3662e-06,73.611,7.2428e-06,70.878,-1.8617e-06,2.4698,-3.1244e-06,-7.0177,2.2747
30712,24,1.1818,0,7.5711e-06,75.659,7.4497e-06,72.957,-1.9302e-06,2.48,-3.1908e-06,-6.9919,2.2748
30713,24,1.3636,0,7.6306e-06,76.253,7.5104e-06,73.577,-1.9509e-06,2.4879,-3.2084e-06,-6.9604,2.2748
30714,24,1.5455,0,7.5811e-06,75.759,7.4616e-06,73.102,-1.9357e-06,2.494,-3.1895e-06,-6.9261,2.2749
30715,24,1.7273,0,7.455e-06,74.499,7.3358e-06,71.858,-1.8954e-06,2.4988,-3.145e-06,-6.8904,2.2749
30716,24,1.9091,0,7.2816e-06,72.766,7.1623e-06,70.137,-1.8393e-06,2.5027,-3.0847e-06,-6.8546,2.2749
30717,24,2.0909,0,7.0872e-06,70.823,6.9676e-06,68.204,-1.7763e-06,2.506,-3.0175e-06,-6.8201,2.2749
30718,24,2.2727,0,6.8948e-06,68.901,6.7748e-06,66.289,-1.7138e-06,2.5087,-2.9512e-06,-6.7885,2.275
30719,24,2.4545,0,6.724e-06,67.194,6.6035e-06,64.587,-1.6583e-06,2.5108,-2.8924e-06,-6.7612,2.275
30720,24,2.6364,0,6.5905e-06,65.859,6.4696e-06,63.256,-1.6149e-06,2.5123,-2.8463e-06,-6.7402,2.275
30721,24,2.8182,0,6.5057e-06,65.012,6.3845e-06,62.411,-1.5873e-06,2.5133,-2.8171e-06,-6.7268,2.275
30722,24,3,0,6.4766e-06,64.722,6.3554e-06,62.121,-1.5779e-06,2.5136,-2.8071e-06,-6.7222,2.275
30723,24,3.1818,0,6.5057e-06,65.012,6.3845e-06,62.411,-1.5873e-06,2.5133,-2.8171e-06,-6.7268,2.275
30724,24,3.3636,0,6.5905e-06,65.86,6.4696e-06,63.256,-1.6149e-06,2.5123,-2.8463e-06,-6.7402,2.275
30725,24,3.5455,0,6.724e-06,67.194,6.6035e-06,64.587,-1.6583e-06,2.5108,-2.8924e-06,-6.7612,2.275
30726,24,3.7273,0,6.8948e-06,68.901,6.7748e-06,66.289,-1.7138e-06,2.5087,-2.9512e-06,-6.7885,2.275
30727,24,3.9091,0,7.0872e-06,70.823,6.9676e-06,68.204,-1.7763e-06,2.506,-3.0175e-06,-6.8201,2.2749
30728,24,4.0909,0,7.2816e-06,72.766,7.1623e-06,70.138,-1.8393e-06,2.5027,-3.0847e-06,-6.8546,2.2749
30729,24,4.2727,0,7.455e-06,74.499,7.3358e-06,71.858,-1.8954e-06,2.4988,-3.145e-06,-6.8904,2.2749
30730,24,4.4545,0,7.5811e-06,75.759,7.4616e-06,73.102,-1.9357e-06,2.494,-3.1895e-06,-6.9261,2.2749
30731,24,4.6364,0,7.6306e-06,76.253,7.5105e-06,73.577,-1.9509e-06,2.4879,-3.2084e-06,-6.9604,2.2748
30732,24,4.8182,0,7.5711e-06,75.659,7.4497e-06,72.957,-1.9302e-06,2.48,-3.1908e-06,-6.9919,2.2748
30733,24,5,0,7.3662e-06,73.612,7.2428e-06,70.878,-1.8617e-06,2.4697,-3.1244e-06,-7.0177,2.2747
30734,24,5.1818,0,6.9737e-06,69.689,6.8471e-06,66.912,-1.7318e-06,2.4532,-2.9946e-06,-7.0346,2.2747
30735,24,5.3636,0,6.3391e-06,63.347,6.2077e-06,60.518,-1.5228e-06,2.4341,-2.7822e-06,-7.0284,2.2746
30736,24,5.5455,0,5.3841e-06,53.804,5.2442e-06,50.879,-1.2139e-06,2.3545,-2.4567e-06,-6.9832,2.2745
30737,24,5.7273,0,3.9355e-06,39.328,3.7777e-06,36.249,-7.4168e-07,2.2925,-1.9575e-06,-6.8427,2.2745
30738,24,5.9091,0,1.89e-06,18.887,1.6691e-06,15.434,-5.7696e-08,2.4589,-1.2148e-06,-6.2353,2.2744
30739,23.908,6,0,2.3089e-06,23.073,1.2769e-06,6.2142,3.9723e-07,-0.39567,-2.1377e-06,-19.442,2.2612
30740,23.724,6,0,5.5161e-06,55.123,2.4735e-06,7.6467,1.3764e-06,-0.596,-5.3498e-06,-51.134,2.2347
30741,23.54,6,0,8.9692e-06,89.63,3.6233e-06,7.8271,2.5312e-06,-0.37824,-8.8142e-06,-85.623,2.2083
30742,23.356,6,0,1.2453e-05,124.45,4.7485e-06,7.5343,3.7043e-06,-0.31091,-1.2312e-05,-120.65,2.1818
30743,23.172,6,0,1.5927e-05,159.16,5.8689e-06,7.2431,4.8721e-06,-0.24615,-1.5795e-05,-155.53,2.1554
30744,22.988,6,0,1.9345e-05,193.31,6.9705e-06,6.9417,6.0197e-06,-0.20177,-1.922e-05,-189.84,2.129
30745,22.804,6,0,2.2672e-05,226.56,8.044e-06,6.6625,7.1352e-06,-0.16598,-2.2553e-05,-223.23,2.1026
30746,22.62,6,0,2.5869e-05,258.51,9.0779e-06,6.4191,8.2051e-06,-0.13863,-2.5756e-05,-255.31,2.0762
30747,22.436,6,0,2.8893e-05,288.73,1.0059e-05,6.2234,9.2148e-06,-0.11801,-2.8784e-05,-285.62,2.0498
30748,22.251,6,0,3.169e-05,316.69,1.097e-05,6.0851,1.0146e-05,-0.10328,-3.1584e-05,-313.65,2.0235
30749,22.067,6,0,3.4199e-05,341.75,1.1791e-05,6.0125,1.0979e-05,-0.093476,-3.4094e-05,-338.75,1.9972
30750,21.883,6,0,3.6342e-05,363.17,1.2498e-05,6.0124,1.1686e-05,-0.087461,-3.6237e-05,-360.17,1.9709
30751,21.699,6,0,3.803e-05,380.04,1.3062e-05,6.0891,1.224e-05,-0.083507,-3.7924e-05,-377,1.9446
30752,21.515,6,0,3.9158e-05,391.31,1.3446e-05,6.2429,1.2605e-05,-0.07894,-3.9049e-05,-388.19,1.9183
30753,21.331,6,0,3.9606e-05,395.79,1.3613e-05,6.4667,1.2743e-05,-0.069656,-3.9494e-05,-392.55,1.8921
30754,21.147,6,0,3.9244e-05,392.17,1.3515e-05,6.7411,1.2611e-05,-0.049838,-3.9126e-05,-388.78,1.8659
30755,20.963,6,0,3.7934e-05,379.07,1.3104e-05,7.0284,1.2167e-05,-0.010991,-3.7809e-05,-375.52,1.8397
30756,20.779,6,0,3.5543e-05,355.19,1.2331e-05,7.2605,1.1372e-05,0.054816,-3.5413e-05,-351.48,1.8135
30757,20.595,6,0,3.1963e-05,319.41,1.115e-05,7.3309,1.0196e-05,0.16518,-3.1829e-05,-315.6,1.7874
30758,20.411,6,0,2.7114e-05,270.96,9.5208e-06,7.0592,8.6207e-06,0.29612,-2.6983e-05,-267.21,1.7613
30759,20.227,6,0,2.0965e-05,209.51,7.4078e-06,6.2226,6.6571e-06,0.58214,-2.0844e-05,-206.05,1.7352
30760,20.043,6,0,1.3403e-05,133.94,4.7955e-06,4.6712,4.2173e-06,0.32658,-1.3313e-05,-131.39,1.7091
30761,19.859,6,0,4.7766e-06,47.733,1.8453e-06,1.4143,1.2373e-06,-3.1539,-4.7897e-06,-48.439,1.683
30762,19.767,5.9091,0,4.1424e-06,41.396,1.6787e-06,3.3761,1.1364e-06,-0.69887,-4.0818e-06,-39.906,1.6701
30763,19.6,1.7273,0,0.00018397,1838.4,0.00015307,1248.5,-1.146e-05,12.345,-0.00012811,-864.11,1.6488
30764,19.6,1.9091,0,0.00034024,3400,0.00023083,1408.9,1.3851e-05,-221.38,-0.00028931,-2499.2,1.6494
30765,19.6,1.5455,0,0.00012125,1211.7,9.7189e-05,770.43,-2.8272e-06,18.945,-8.8851e-05,-627.4,1.6482
30766,19.6,1.3636,0,9.4757e-05,946.92,7.4862e-05,582.41,-1.5319e-06,8.4081,-7.0599e-05,-510.54,1.6476
30767,19.6,1.1818,0,7.4576e-05,745.24,5.7421e-05,436.44,3.7458e-07,7.8204,-5.7109e-05,-424.09,1.6469
30768,19.6,1,0,5.9135e-05,590.94,4.4158e-05,325.8,1.6185e-06,6.1672,-4.6599e-05,-356.12,1.6463
30769,19.6,0.81818,0,4.6387e-05,463.55,3.3298e-05,236.53,2.556e-06,5.5442,-3.7727e-05,-297.13,1.6456
30770,19.6,0.63636,0,3.5383e-05,353.58,2.4102e-05,162.47,3.1399e-06,4.9693,-2.9796e-05,-242.5,1.645
30771,19.6,0.45455,0,2.5493e-05,254.75,1.6131e-05,100.66,3.359e-06,4.703,-2.2306e-05,-188.13,1.6444
30772,19.6,0.27273,0,1.5991e-05,159.8,9.07e-06,49.877,2.9984e-06,4.2573,-1.4574e-05,-127.77,1.6438
30773,19.683,2,0,0.0004359,4356,0.00021174,593.27,7.5458e-05,-430.72,-0.00042401,-4183.5,1.6612
30774,19.767,0.27273,0,1.1562e-05,115.54,5.295e-06,19.386,3.0064e-06,2.1906,-1.1099e-05,-103.79,1.6703
30775,19.767,0.45455,0,1.8344e-05,183.31,8.9325e-06,36.96,4.3599e-06,2.6039,-1.7427e-05,-161.1,1.6705
30776,19.767,0.63636,0,2.5231e-05,252.14,1.2819e-05,57.19,5.5821e-06,2.8157,-2.3766e-05,-217.7,1.6707
30777,19.767,0.81818,0,3.2878e-05,328.56,1.7222e-05,80.969,6.8849e-06,3.2981,-3.0748e-05,-279.46,1.6709
30778,19.767,1,0,4.1872e-05,418.43,2.2469e-05,109.86,8.3634e-06,3.8764,-3.8917e-05,-351.37,1.6711
30779,19.767,1.1818,0,5.3058e-05,530.21,2.902e-05,146.51,1.0216e-05,5.2247,-4.9044e-05,-440.03,1.6713
30780,19.767,1.3636,0,6.8171e-05,681.24,3.8117e-05,198.74,1.2474e-05,6.0744,-6.261e-05,-558.08,1.6716
30781,19.767,1.5455,0,8.822e-05,881.59,4.8793e-05,254.36,1.6981e-05,15.344,-8.1166e-05,-722.1,1.6718
30782,19.767,1.7273,0,0.00013586,1357.7,8.3419e-05,495.44,1.9187e-05,12.828,-0.00012061,-1037.6,1.6722
30783,19.767,1.9091,0,0.00029096,2907.6,0.00014731,439.49,4.2468e-05,-348.25,-0.00028129,-2780.8,1.6725
30784,19.6,4.2727,0,0.00018397,1838.4,0.00015307,1248.5,-1.146e-05,12.345,-0.00012811,-864.11,1.6488
30785,19.6,4.0909,0,0.00034024,3400,0.00023083,1408.9,1.3851e-05,-221.38,-0.00028931,-2499.2,1.6494
30786,19.6,4.4545,0,0.00012125,1211.7,9.7189e-05,770.43,-2.8273e-06,18.945,-8.8851e-05,-627.4,1.6482
30787,19.6,4.6364,0,9.4757e-05,946.92,7.4862e-05,582.41,-1.5319e-06,8.4081,-7.0599e-05,-510.54,1.6476
30788,19.6,4.8182,0,7.4576e-05,745.24,5.7421e-05,436.44,3.7457e-07,7.8204,-5.7109e-05,-424.09,1.6469
30789,19.6,5,0,5.9135e-05,590.94,4.4158e-05,325.8,1.6185e-06,6.1672,-4.6599e-05,-356.12,1.6463
30790,19.6,5.1818,0,4.6387e-05,463.55,3.3298e-05,236.53,2.556e-06,5.5442,-3.7727e-05,-297.13,1.6456
30791,19.6,5.3636,0,3.5383e-05,353.58,2.4102e-05,162.47,3.1399e-06,4.9693,-2.9796e-05,-242.49,1.645
30792,19.6,5.5455,0,2.5493e-05,254.75,1.6131e-05,100.66,3.359e-06,4.703,-2.2306e-05,-188.13,1.6444
30793,19.6,5.7273,0,1.5991e-05,159.8,9.07e-06,49.877,2.9984e-06,4.2573,-1.4574e-05,-127.77,1.6438
30794,19.683,4,0,0.0004359,4356,0.00021174,593.27,7.5458e-05,-430.72,-0.00042401,-4183.5,1.6612
30795,19.767,5.7273,0,1.1562e-05,115.54,5.295e-06,19.386,3.0064e-06,2.1906,-1.1099e-05,-103.79,1.6703
30796,19.767,5.5455,0,1.8344e-05,183.31,8.9325e-06,36.96,4.3599e-06,2.6039,-1.7427e-05,-161.1,1.6705
30797,19.767,5.3636,0,2.5231e-05,252.14,1.2819e-05,57.19,5.5821e-06,2.8157,-2.3766e-05,-217.7,1.6707
30798,19.767,5.1818,0,3.2878e-05,328.56,1.7222e-05,80.969,6.8849e-06,3.2981,-3.0748e-05,-279.46,1.6709
30799,19.767,5,0,4.1872e-05,418.43,2.2469e-05,109.86,8.3634e-06,3.8764,-3.8917e-05,-351.37,1.6711
30800,19.767,4.8182,0,5.3058e-05,530.21,2.902e-05,146.51,1.0216e-05,5.2247,-4.9044e-05,-440.03,1.6713
30801,19.767,4.6364,0,6.8171e-05,681.24,3.8117e-05,198.74,1.2474e-05,6.0744,-6.261e-05,-558.08,1.6716
30802,19.767,4.4545,0,8.822e-05,881.59,4.8793e-05,254.36,1.6981e-05,15.344,-8.1166e-05,-722.1,1.6718
30803,19.767,4.2727,0,0.00013586,1357.7,8.3419e-05,495.44,1.9187e-05,12.828,-0.00012061,-1037.6,1.6722
30804,19.767,4.0909,0,0.00029096,2907.6,0.00014731,439.49,4.2468e-05,-348.25,-0.00028129,-2780.8,1.6725
