Node Number	X Location (in)	Y Location (in)	Z Location (in)	Equivalent (von-Mises) Stress (psi)
1	4.8061	2.6387	0.	1137.3
2	3.899	4.7271	0.	1066.6
3	1.7845	0.83728	0.	1132.4
4	1.9401	2.4964	0.	1612.6
5	4.1038	0.58905	0.	826.11
6	1.8093	5.025	0.	1106.4
7	3.8219	5.4746	0.	775.76
8	4.1511	4.1773	0.	1187.3
9	1.0969	3.4532	0.	1559.9
10	0.91592	4.8024	0.	1337.9
11	0.89246	2.1922	0.	1610.4
12	0.86811	1.0629	0.	1432.4
13	5.1946	0.78811	0.	1042.7
14	6.1968	1.0386	0.	888.89
15	7.1626	1.2655	0.	821.78
16	8.2723	1.2716	0.	723.25
17	9.477	1.2092	0.	617.9
18	10.651	1.1845	0.	525.73
19	11.797	1.1752	0.	441.83
20	12.925	1.1695	0.	365.86
21	14.03	1.1699	0.	298.09
22	15.136	1.1707	0.	237.6
23	16.239	1.173	0.	184.22
24	17.343	1.1761	0.	137.85
25	18.447	1.18	0.	98.526
26	19.551	1.1803	0.	66.241
27	20.665	1.1914	0.	40.991
28	21.77	1.1942	0.	22.943
29	22.887	1.1948	0.	12.198
30	22.876	2.3928	0.	15.598
31	22.877	3.6024	0.	15.594
32	22.884	4.7973	0.	12.235
33	21.769	4.795	0.	23.008
34	20.651	4.7971	0.	41.212
35	19.543	4.7702	0.	66.536
36	18.436	4.7249	0.	98.88
37	17.333	4.6903	0.	138.29
38	16.232	4.6732	0.	184.55
39	15.132	4.6683	0.	237.72
40	14.031	4.6669	0.	297.98
41	12.925	4.6674	0.	365.31
42	11.808	4.7278	0.	439.52
43	10.676	4.702	0.	523.07
44	9.4606	4.7427	0.	615.68
45	8.2005	4.7337	0.	725.57
46	6.9407	4.7281	0.	821.09
47	5.5818	4.7266	0.	952.36
48	4.7974	5.2637	0.	925.98
49	5.5504	1.8506	0.	1068.3
50	6.5562	2.7173	0.	839.17
51	8.0736	2.4269	0.	724.55
52	9.3753	2.3908	0.	622.39
53	10.594	2.3596	0.	526.53
54	11.77	2.3433	0.	441.15
55	12.906	2.3377	0.	365.72
56	14.027	2.3468	0.	297.84
57	15.132	2.3487	0.	237.72
58	16.236	2.3528	0.	184.59
59	17.34	2.3568	0.	138.39
60	18.445	2.3611	0.	99.233
61	19.548	2.366	0.	67.279
62	20.653	2.3856	0.	42.606
63	21.753	2.3978	0.	25.343
64	21.75	3.5943	0.	25.403
65	20.65	3.5882	0.	42.664
66	19.544	3.568	0.	67.443
67	18.434	3.5393	0.	99.558
68	17.334	3.5258	0.	138.62
69	16.233	3.5144	0.	184.72
70	15.129	3.5074	0.	237.83
71	14.026	3.5046	0.	297.98
72	12.906	3.5097	0.	365.21
73	11.772	3.5222	0.	440.28
74	10.632	3.5136	0.	523.94
75	9.3609	3.5594	0.	623.14
76	8.0276	3.5774	0.	726.2
77	6.5695	3.5755	0.	845.52
78	3.6302	5.0771	0.	660.61
79	1.8021	1.6956	0.	1267.4
80	2.3249	2.9423	0.	2078.2
81	1.9499	4.0719	0.	1575.2
82	5.2035	3.5269	0.	1086.1
83	2.4657	4.0509	0.	2525.4
84	2.6787	3.966	0.	4346.9
85	4.4621	1.8989	0.	1127.6
86	3.1305	3.4776	0.	2129.9
87	2.8675	3.6961	0.	4274.
88	2.7366	3.6841	0.	3947.2
89	3.9501	3.4029	0.	1377.4
90	4.1218	1.2431	0.	972.02
91	4.9951	1.2745	0.	983.39
92	2.6125	3.3538	0.	2522.5
93	2.6125	3.3538	0.1	2522.5
94	4.9951	1.2745	0.1	983.39
95	4.1218	1.2431	0.1	972.02
96	3.9501	3.4029	0.1	1377.4
97	2.7366	3.6841	0.1	3947.2
98	2.8675	3.6961	0.1	4274.
99	3.1305	3.4776	0.1	2129.9
100	4.4621	1.8989	0.1	1127.6
101	2.6787	3.966	0.1	4346.9
102	2.4657	4.0509	0.1	2525.4
103	5.2035	3.5269	0.1	1086.1
104	1.9499	4.0719	0.1	1575.2
105	2.3249	2.9423	0.1	2078.2
106	1.8021	1.6956	0.1	1267.4
107	3.6302	5.0771	0.1	660.61
108	6.5695	3.5755	0.1	845.52
109	8.0276	3.5774	0.1	726.2
110	9.3609	3.5594	0.1	623.14
111	10.632	3.5136	0.1	523.94
112	11.772	3.5222	0.1	440.28
113	12.906	3.5097	0.1	365.21
114	14.026	3.5046	0.1	297.98
115	15.129	3.5074	0.1	237.83
116	16.233	3.5144	0.1	184.72
117	17.334	3.5258	0.1	138.62
118	18.434	3.5393	0.1	99.558
119	19.544	3.568	0.1	67.443
120	20.65	3.5882	0.1	42.664
121	21.75	3.5943	0.1	25.403
122	21.753	2.3978	0.1	25.343
123	20.653	2.3856	0.1	42.606
124	19.548	2.366	0.1	67.279
125	18.445	2.3611	0.1	99.233
126	17.34	2.3568	0.1	138.39
127	16.236	2.3528	0.1	184.59
128	15.132	2.3487	0.1	237.72
129	14.027	2.3468	0.1	297.84
130	12.906	2.3377	0.1	365.72
131	11.77	2.3433	0.1	441.15
132	10.594	2.3596	0.1	526.53
133	9.3753	2.3908	0.1	622.39
134	8.0736	2.4269	0.1	724.55
135	6.5562	2.7173	0.1	839.17
136	5.5504	1.8506	0.1	1068.3
137	4.7974	5.2637	0.1	925.98
138	5.5818	4.7266	0.1	952.36
139	6.9407	4.7281	0.1	821.09
140	8.2005	4.7337	0.1	725.57
141	9.4606	4.7427	0.1	615.68
142	10.676	4.702	0.1	523.07
143	11.808	4.7278	0.1	439.52
144	12.925	4.6674	0.1	365.31
145	14.031	4.6669	0.1	297.98
146	15.132	4.6683	0.1	237.72
147	16.232	4.6732	0.1	184.55
148	17.333	4.6903	0.1	138.29
149	18.436	4.7249	0.1	98.88
150	19.543	4.7702	0.1	66.536
151	20.651	4.7971	0.1	41.212
152	21.769	4.795	0.1	23.008
153	22.884	4.7973	0.1	12.235
154	22.877	3.6024	0.1	15.594
155	22.876	2.3928	0.1	15.598
156	22.887	1.1948	0.1	12.198
157	21.77	1.1942	0.1	22.943
158	20.665	1.1914	0.1	40.991
159	19.551	1.1803	0.1	66.241
160	18.447	1.18	0.1	98.526
161	17.343	1.1761	0.1	137.85
162	16.239	1.173	0.1	184.22
163	15.136	1.1707	0.1	237.6
164	14.03	1.1699	0.1	298.09
165	12.925	1.1695	0.1	365.86
166	11.797	1.1752	0.1	441.83
167	10.651	1.1845	0.1	525.73
168	9.477	1.2092	0.1	617.9
169	8.2723	1.2716	0.1	723.25
170	7.1626	1.2655	0.1	821.78
171	6.1968	1.0386	0.1	888.89
172	5.1946	0.78811	0.1	1042.7
173	0.86811	1.0629	0.1	1432.4
174	0.89246	2.1922	0.1	1610.4
175	0.91592	4.8024	0.1	1337.9
176	1.0969	3.4532	0.1	1559.9
177	4.1511	4.1773	0.1	1187.3
178	3.8219	5.4746	0.1	775.76
179	1.8093	5.025	0.1	1106.4
180	4.1038	0.58905	0.1	826.11
181	1.9401	2.4964	0.1	1612.6
182	1.7845	0.83728	0.1	1132.4
183	3.899	4.7271	0.1	1066.6
184	4.8061	2.6387	0.1	1137.3
185	2.9867	4.	0.	3379.9
186	2.9867	4.5	0.	1517.7
187	2.9867	5.	0.	1083.8
188	2.9867	5.5	0.	300.93
189	2.82	4.	0.	6376.6
190	2.82	5.5	0.	510.04
191	2.82	5.	0.	1309.5
192	2.82	4.5	0.	1855.4
193	2.9867	2.	0.	2513.7
194	2.9867	1.5	0.	1826.3
195	2.9867	1.	0.	1750.5
196	2.9867	0.5	0.	843.24
197	2.82	2.	0.	3929.
198	2.82	0.5	0.	1051.1
199	2.82	1.	0.	1672.5
200	2.82	1.5	0.	2712.2
201	2.9867	6.	0.	429.55
202	4.0926	6.	0.	631.03
203	5.1986	6.	0.	878.29
204	6.3046	6.	0.	899.19
205	7.4105	6.	0.	809.48
206	8.5165	6.	0.	706.69
207	9.6225	6.	0.	611.42
208	10.728	6.	0.	524.43
209	11.834	6.	0.	442.8
210	12.94	6.	0.	365.97
211	14.046	6.	0.	298.63
212	15.152	6.	0.	237.93
213	16.258	6.	0.	184.15
214	17.364	6.	0.	137.59
215	18.47	6.	0.	98.248
216	19.576	6.	0.	65.987
217	20.682	6.	0.	40.471
218	21.788	6.	0.	21.711
219	22.894	6.	0.	10.063
220	24.	6.	0.	4.6372
221	24.	4.8	0.	8.2952
222	24.	3.6	0.	12.383
223	24.	2.4	0.	12.376
224	24.	1.2	0.	8.2904
225	1.049e-014	1.2	0.	1002.4
226	2.0981e-014	2.4	0.	1076.2
227	3.1471e-014	3.6	0.	1085.9
228	4.1961e-014	4.8	0.	999.16
229	24.	0.	0.	4.6089
230	2.9867	0.	0.	447.1
231	22.894	0.	0.	10.068
232	21.788	0.	0.	21.818
233	20.682	0.	0.	40.204
234	19.576	0.	0.	65.696
235	18.47	0.	0.	97.978
236	17.364	0.	0.	137.42
237	16.258	0.	0.	183.97
238	15.152	0.	0.	237.76
239	14.046	0.	0.	298.52
240	12.94	0.	0.	366.85
241	11.834	0.	0.	442.35
242	10.728	0.	0.	525.99
243	9.6225	0.	0.	617.49
244	8.5165	0.	0.	713.23
245	7.4105	0.	0.	828.16
246	6.3046	0.	0.	926.37
247	5.1986	0.	0.	979.1
248	4.0926	0.	0.	738.65
249	0.	0.	0.	741.94
250	2.82	0.	0.	633.8
251	1.88	9.3011e-031	0.	1088.
252	0.94	4.6505e-031	0.	1350.1
253	3.937e-014	6.	0.	663.08
254	2.82	6.	0.	654.25
255	0.94	6.	0.	1187.7
256	1.88	6.	0.	1055.8
257	2.9867	5.5	0.1	300.93
258	2.9867	5.	0.1	1083.8
259	2.9867	4.5	0.1	1517.7
260	2.9867	4.	0.1	3379.9
261	2.82	4.	0.1	6376.6
262	2.82	4.5	0.1	1855.4
263	2.82	5.	0.1	1309.5
264	2.82	5.5	0.1	510.04
265	2.9867	0.5	0.1	843.24
266	2.9867	1.	0.1	1750.5
267	2.9867	1.5	0.1	1826.3
268	2.9867	2.	0.1	2513.7
269	2.82	2.	0.1	3929.
270	2.82	1.5	0.1	2712.2
271	2.82	1.	0.1	1672.5
272	2.82	0.5	0.1	1051.1
273	2.9867	6.	0.1	429.55
274	4.0926	6.	0.1	631.03
275	5.1986	6.	0.1	878.29
276	6.3046	6.	0.1	899.19
277	7.4105	6.	0.1	809.48
278	8.5165	6.	0.1	706.69
279	9.6225	6.	0.1	611.42
280	10.728	6.	0.1	524.43
281	11.834	6.	0.1	442.8
282	12.94	6.	0.1	365.97
283	14.046	6.	0.1	298.63
284	15.152	6.	0.1	237.93
285	16.258	6.	0.1	184.15
286	17.364	6.	0.1	137.59
287	18.47	6.	0.1	98.248
288	19.576	6.	0.1	65.987
289	20.682	6.	0.1	40.471
290	21.788	6.	0.1	21.711
291	22.894	6.	0.1	10.063
292	24.	6.	0.1	4.6372
293	24.	4.8	0.1	8.2951
294	24.	3.6	0.1	12.383
295	24.	2.4	0.1	12.376
296	24.	1.2	0.1	8.2904
297	1.049e-014	1.2	0.1	1002.4
298	2.0981e-014	2.4	0.1	1076.2
299	3.1471e-014	3.6	0.1	1085.9
300	4.1961e-014	4.8	0.1	999.16
301	24.	0.	0.1	4.6089
302	22.894	0.	0.1	10.068
303	21.788	0.	0.1	21.818
304	20.682	0.	0.1	40.204
305	19.576	0.	0.1	65.696
306	18.47	0.	0.1	97.978
307	17.364	0.	0.1	137.42
308	16.258	0.	0.1	183.97
309	15.152	0.	0.1	237.76
310	14.046	0.	0.1	298.52
311	12.94	0.	0.1	366.85
312	11.834	0.	0.1	442.35
313	10.728	0.	0.1	525.99
314	9.6225	0.	0.1	617.49
315	8.5165	0.	0.1	713.23
316	7.4105	0.	0.1	828.16
317	6.3046	0.	0.1	926.37
318	5.1986	0.	0.1	979.1
319	4.0926	0.	0.1	738.65
320	2.9867	0.	0.1	447.1
321	2.82	0.	0.1	633.8
322	1.88	9.3011e-031	0.1	1088.
323	0.94	4.6505e-031	0.1	1350.1
324	0.	0.	0.1	741.94
325	3.937e-014	6.	0.1	663.08
326	0.94	6.	0.1	1187.7
327	1.88	6.	0.1	1055.8
328	2.82	6.	0.1	654.25
329	5.6812	2.678	0.	987.15
330	5.0048	3.0828	0.	1110.9
331	4.6341	2.2688	0.	1131.
332	4.8061	2.6387	5.e-002	34.754
333	3.8964	2.3194	0.	1796.7
334	4.0251	4.4522	0.	1120.8
335	4.3482	4.9954	0.	984.69
336	3.7646	4.9021	0.	847.12
337	3.899	4.7271	5.e-002	134.83
338	3.4428	4.6135	0.	1159.5
339	1.3263	0.9501	0.	1263.3
340	1.7933	1.2664	0.	1197.7
341	1.7845	0.83728	5.e-002	53.562
342	2.3022	0.66864	0.	1069.5
343	1.8322	0.41864	0.	1108.4
344	1.5185	2.9748	0.	1570.5
345	1.8711	2.096	0.	1436.6
346	2.1325	2.7194	0.	1832.3
347	1.9401	2.4964	5.e-002	46.649
348	2.3801	1.9982	0.	2111.3
349	4.6492	0.68858	0.	930.19
350	4.1128	0.91605	0.	897.44
351	4.1038	0.58905	5.e-002	45.18
352	3.5452	0.54452	0.	757.15
353	4.0982	0.29452	0.	781.15
354	1.3626	4.9137	0.	1192.5
355	1.8796	4.5484	0.	1336.2
356	1.8093	5.025	5.e-002	35.409
357	2.3147	5.2625	0.	781.07
358	1.8447	5.5125	0.	1080.1
359	4.3096	5.3691	0.	825.14
360	3.726	5.2758	0.	713.63
361	3.8219	5.4746	5.e-002	84.812
362	3.4043	5.4873	0.	514.95
363	3.9572	5.7373	0.	688.34
364	4.8665	4.452	0.	1062.8
365	4.0506	3.7901	0.	1280.5
366	4.1511	4.1773	5.e-002	72.246
367	3.5689	4.0887	0.	2237.4
368	1.0064	4.1278	0.	1443.3
369	0.9947	2.8227	0.	1582.3
370	1.5234	3.7626	0.	1528.5
371	1.0969	3.4532	5.e-002	53.704
372	0.54846	3.5266	0.	1302.2
373	0.91592	4.8024	5.e-002	43.768
374	0.45796	4.8012	0.	1143.4
375	0.92796	5.4012	0.	1254.8
376	0.88029	1.6275	0.	1519.
377	1.3473	1.9439	0.	1418.8
378	0.89246	2.1922	5.e-002	23.187
379	0.44623	2.2961	0.	1319.2
380	0.86811	1.0629	5.e-002	36.303
381	0.43406	1.1315	0.	1195.6
382	0.90406	0.53146	0.	1381.8
383	5.6957	0.91336	0.	964.64
384	5.0948	1.0313	0.	1012.5
385	5.1946	0.78811	5.e-002	15.335
386	5.1966	0.39406	0.	1010.6
387	6.6797	1.1521	0.	854.62
388	5.8736	1.4446	0.	978.08
389	6.1968	1.0386	5.e-002	8.3415
390	6.2507	0.5193	0.	907.04
391	7.7174	1.2685	0.	772.45
392	6.8594	1.9914	0.	829.14
393	7.1626	1.2655	5.e-002	5.3458
394	7.2866	0.63275	0.	824.73
395	8.8746	1.2404	0.	670.45
396	8.1729	1.8493	0.	723.87
397	8.2723	1.2716	5.e-002	12.832
398	8.3944	0.63579	0.	717.73
399	10.064	1.1968	0.	571.76
400	9.4261	1.8	0.	619.99
401	9.477	1.2092	5.e-002	4.5789
402	9.5497	0.60458	0.	617.31
403	11.224	1.1798	0.	483.75
404	10.623	1.772	0.	525.86
405	10.651	1.1845	5.e-002	6.3251
406	10.69	0.59223	0.	525.53
407	12.361	1.1723	0.	403.83
408	11.783	1.7592	0.	441.19
409	11.797	1.1752	5.e-002	6.0134
410	11.816	0.58758	0.	441.78
411	13.478	1.1697	0.	331.96
412	12.915	1.7536	0.	365.48
413	12.925	1.1695	5.e-002	5.727
414	12.933	0.58473	0.	366.03
415	14.583	1.1703	0.	267.83
416	14.029	1.7583	0.	297.64
417	14.03	1.1699	5.e-002	5.0202
418	14.038	0.58493	0.	297.97
419	15.687	1.1719	0.	210.89
420	15.134	1.7597	0.	237.31
421	15.136	1.1707	5.e-002	4.3948
422	15.144	0.58537	0.	237.34
423	16.791	1.1745	0.	161.02
424	16.237	1.7629	0.	184.05
425	16.239	1.173	5.e-002	3.8888
426	16.248	0.5865	0.	183.75
427	17.895	1.1781	0.	118.16
428	17.341	1.7664	0.	137.75
429	17.343	1.1761	5.e-002	3.3325
430	17.353	0.58804	0.	137.28
431	18.999	1.1802	0.	82.345
432	18.446	1.7705	0.	98.51
433	18.447	1.18	5.e-002	2.825
434	18.458	0.59002	0.	97.892
435	20.108	1.1858	0.	53.562
436	19.55	1.7731	0.	66.383
437	19.551	1.1803	5.e-002	2.26
438	19.564	0.59014	0.	65.588
439	21.217	1.1928	0.	31.872
440	20.659	1.7885	0.	41.426
441	20.665	1.1914	5.e-002	1.6947
442	20.674	0.59568	0.	40.206
443	22.329	1.1945	0.	17.409
444	21.761	1.796	0.	23.812
445	21.77	1.1942	5.e-002	1.174
446	21.779	0.59708	0.	21.958
447	22.882	1.7938	0.	13.683
448	22.887	1.1948	5.e-002	0.7642
449	23.444	1.1974	0.	10.094
450	22.891	0.5974	0.	10.748
451	22.876	2.9976	0.	15.481
452	22.314	2.3953	0.	20.248
453	22.876	2.3928	5.e-002	0.72666
454	23.438	2.3964	0.	13.908
455	22.88	4.1999	0.	13.702
456	22.313	3.5983	0.	20.278
457	22.877	3.6024	5.e-002	0.73702
458	23.438	3.6012	0.	13.91
459	22.327	4.7962	0.	17.456
460	22.884	4.7973	5.e-002	0.77734
461	22.889	5.3987	0.	10.766
462	23.442	4.7987	0.	10.118
463	21.21	4.7961	0.	32.012
464	21.76	4.1946	0.	23.863
465	21.769	4.795	5.e-002	1.2009
466	21.779	5.3975	0.	21.945
467	20.097	4.7837	0.	53.814
468	20.651	4.1927	0.	41.568
469	20.651	4.7971	5.e-002	1.7531
470	20.667	5.3986	0.	40.418
471	18.99	4.7476	0.	82.665
472	19.544	4.1691	0.	66.614
473	19.543	4.7702	5.e-002	2.3129
474	19.56	5.3851	0.	65.84
475	17.884	4.7076	0.	118.56
476	18.435	4.1321	0.	98.856
477	18.436	4.7249	5.e-002	2.8847
478	18.453	5.3625	0.	98.14
479	16.783	4.6817	0.	161.4
480	17.334	4.108	0.	138.1
481	17.333	4.6903	5.e-002	3.4288
482	17.349	5.3452	0.	137.51
483	15.682	4.6707	0.	211.12
484	16.232	4.0938	0.	184.29
485	16.232	4.6732	5.e-002	3.9632
486	16.245	5.3366	0.	183.9
487	14.581	4.6676	0.	267.83
488	15.13	4.0878	0.	237.44
489	15.132	4.6683	5.e-002	4.4381
490	15.142	5.3341	0.	237.38
491	13.478	4.6671	0.	331.63
492	14.028	4.0857	0.	297.66
493	14.031	4.6669	5.e-002	5.0857
494	14.039	5.3334	0.	297.87
495	12.367	4.6976	0.	402.4
496	12.916	4.0886	0.	364.94
497	12.925	4.6674	5.e-002	5.6695
498	12.933	5.3337	0.	365.25
499	11.242	4.7149	0.	481.27
500	11.79	4.125	0.	439.62
501	11.808	4.7278	5.e-002	5.9123
502	11.821	5.3639	0.	440.71
503	10.068	4.7223	0.	569.35
504	10.654	4.1078	0.	523.27
505	10.676	4.702	5.e-002	5.2725
506	10.702	5.351	0.	523.42
507	8.8305	4.7382	0.	670.55
508	9.4108	4.151	0.	619.27
509	9.4606	4.7427	5.e-002	6.9098
510	9.5415	5.3713	0.	613.26
511	7.5706	4.7309	0.	773.27
512	8.1141	4.1556	0.	725.84
513	8.2005	4.7337	5.e-002	11.175
514	8.3585	5.3669	0.	715.79
515	6.2613	4.7274	0.	886.5
516	6.7551	4.1518	0.	832.57
517	6.9407	4.7281	5.e-002	8.3672
518	7.1756	5.3641	0.	814.95
519	5.1896	4.9951	0.	936.29
520	5.3927	4.1268	0.	1018.1
521	5.5818	4.7266	5.e-002	30.462
522	5.9432	5.3633	0.	922.98
523	4.7974	5.2637	5.e-002	43.561
524	4.998	5.6318	0.	900.43
525	6.0533	2.284	0.	952.09
526	5.0063	1.8748	0.	1093.2
527	5.2728	1.5626	0.	1024.3
528	5.5504	1.8506	5.e-002	69.244
529	7.3149	2.5721	0.	780.91
530	6.5629	3.1464	0.	841.26
531	6.5562	2.7173	5.e-002	16.053
532	8.7244	2.4088	0.	673.46
533	8.0506	3.0022	0.	725.07
534	8.0736	2.4269	5.e-002	4.9974
535	9.9849	2.3752	0.	574.44
536	9.3681	2.9751	0.	622.6
537	9.3753	2.3908	5.e-002	7.2722
538	11.182	2.3514	0.	483.83
539	10.613	2.9366	0.	525.08
540	10.594	2.3596	5.e-002	6.84
541	12.338	2.3405	0.	403.43
542	11.771	2.9327	0.	440.5
543	11.77	2.3433	5.e-002	6.047
544	13.466	2.3422	0.	331.77
545	12.906	2.9237	0.	365.2
546	12.906	2.3377	5.e-002	5.5903
547	14.58	2.3477	0.	267.78
548	14.027	2.9257	0.	297.61
549	14.027	2.3468	5.e-002	5.0161
550	15.684	2.3507	0.	211.15
551	15.131	2.928	0.	237.46
552	15.132	2.3487	5.e-002	4.4769
553	16.788	2.3548	0.	161.48
554	16.234	2.9336	0.	184.33
555	16.236	2.3528	5.e-002	3.9271
556	17.892	2.3589	0.	118.79
557	17.337	2.9413	0.	138.18
558	17.34	2.3568	5.e-002	3.3925
559	18.996	2.3635	0.	83.229
560	18.439	2.9502	0.	99.061
561	18.445	2.3611	5.e-002	2.8437
562	20.101	2.3758	0.	54.888
563	19.546	2.967	0.	67.035
564	19.548	2.366	5.e-002	2.254
565	21.203	2.3917	0.	33.849
566	20.652	2.9869	0.	42.334
567	20.653	2.3856	5.e-002	1.7035
568	21.751	2.996	0.	25.142
569	21.753	2.3978	5.e-002	1.1857
570	21.2	3.5913	0.	33.909
571	21.75	3.5943	5.e-002	1.1983
572	20.097	3.5781	0.	54.994
573	20.65	3.5882	5.e-002	1.6849
574	18.989	3.5537	0.	83.473
575	19.544	3.568	5.e-002	2.1767
576	17.884	3.5325	0.	119.07
577	18.434	3.5393	5.e-002	2.816
578	16.783	3.5201	0.	161.66
579	17.334	3.5258	5.e-002	3.4455
580	15.681	3.5109	0.	211.27
581	16.233	3.5144	5.e-002	3.9806
582	14.578	3.506	0.	267.9
583	15.129	3.5074	5.e-002	4.5196
584	13.466	3.5072	0.	331.59
585	14.026	3.5046	5.e-002	5.1464
586	12.339	3.516	0.	402.74
587	12.906	3.5097	5.e-002	5.3982
588	11.202	3.5179	0.	482.09
589	11.772	3.5222	5.e-002	6.2058
590	9.9964	3.5365	0.	573.53
591	10.632	3.5136	5.e-002	6.7147
592	8.6943	3.5684	0.	674.61
593	9.3609	3.5594	5.e-002	10.745
594	7.2986	3.5765	0.	785.01
595	8.0276	3.5774	5.e-002	5.7047
596	5.8865	3.5512	0.	964.54
597	6.5695	3.5755	5.e-002	38.793
598	3.6302	5.0771	5.e-002	37.098
599	3.3085	5.0385	0.	826.52
600	1.8021	1.6956	5.e-002	63.584
601	2.3111	1.3478	0.	1436.7
602	2.1374	3.5071	0.	1766.
603	2.4687	3.1481	0.	2270.2
604	2.3249	2.9423	5.e-002	127.73
605	2.5724	2.4711	0.	2983.7
606	2.2078	4.0614	0.	2021.4
607	1.9499	4.0719	5.e-002	96.517
608	2.385	4.5359	0.	1283.
609	4.5768	3.4649	0.	1225.4
610	5.2035	3.5269	5.e-002	31.709
611	2.5722	4.0085	0.	3424.6
612	2.5391	3.7024	0.	2452.7
613	2.4657	4.0509	5.e-002	127.09
614	2.6428	4.2755	0.	1733.6
615	2.7077	3.825	0.	3858.7
616	2.6787	3.966	5.e-002	703.46
617	2.7494	3.983	0.	5156.5
618	4.292	1.571	0.	1042.6
619	4.4621	1.8989	5.e-002	100.39
620	3.7244	1.6995	0.	1413.6
621	2.999	3.5868	0.	3130.8
622	3.5403	3.4402	0.	1729.1
623	2.8715	3.4157	0.	2174.3
624	3.1305	3.4776	5.e-002	448.96
625	3.0586	3.7388	0.	2708.9
626	2.9752	2.7388	0.	2950.1
627	2.8021	3.6901	0.	4095.4
628	2.8675	3.6961	5.e-002	201.13
629	2.8438	3.848	0.	5214.1
630	2.6746	3.5189	0.	3202.6
631	2.7366	3.6841	5.e-002	264.39
632	3.9501	3.4029	5.e-002	52.211
633	3.4684	2.7014	0.	1875.3
634	4.5585	1.2588	0.	973.9
635	4.1218	1.2431	5.e-002	22.926
636	3.5542	1.1215	0.	1240.7
637	4.9951	1.2745	5.e-002	7.1657
638	2.6125	3.3538	5.e-002	209.34
639	2.6746	3.5189	0.1	3202.6
640	2.8715	3.4157	0.1	2174.3
641	2.5391	3.7024	0.1	2452.7
642	2.4687	3.1481	0.1	2270.2
643	4.5585	1.2588	0.1	973.9
644	5.2728	1.5626	0.1	1024.3
645	5.0948	1.0313	0.1	1012.5
646	4.292	1.571	0.1	1042.6
647	4.1128	0.91605	0.1	897.44
648	3.5542	1.1215	0.1	1240.7
649	3.5403	3.4402	0.1	1729.1
650	4.5768	3.4649	0.1	1225.4
651	4.0506	3.7901	0.1	1280.5
652	3.4684	2.7014	0.1	1875.3
653	2.8021	3.6901	0.1	4095.4
654	2.7077	3.825	0.1	3858.7
655	2.999	3.5868	0.1	3130.8
656	2.8438	3.848	0.1	5214.1
657	3.0586	3.7388	0.1	2708.9
658	2.9752	2.7388	0.1	2950.1
659	5.0063	1.8748	0.1	1093.2
660	4.6341	2.2688	0.1	1131.
661	3.7244	1.6995	0.1	1413.6
662	2.5722	4.0085	0.1	3424.6
663	2.7494	3.983	0.1	5156.5
664	2.2078	4.0614	0.1	2021.4
665	2.6428	4.2755	0.1	1733.6
666	5.8865	3.5512	0.1	964.54
667	5.3927	4.1268	0.1	1018.1
668	5.0048	3.0828	0.1	1110.9
669	2.1374	3.5071	0.1	1766.
670	1.5234	3.7626	0.1	1528.5
671	1.8796	4.5484	0.1	1336.2
672	2.385	4.5359	0.1	1283.
673	2.1325	2.7194	0.1	1832.3
674	2.5724	2.4711	0.1	2983.7
675	1.3473	1.9439	0.1	1418.8
676	1.8711	2.096	0.1	1436.6
677	1.7933	1.2664	0.1	1197.7
678	2.3111	1.3478	0.1	1436.7
679	3.726	5.2758	0.1	713.63
680	3.7646	4.9021	0.1	847.12
681	3.3085	5.0385	0.1	826.52
682	7.2986	3.5765	0.1	785.01
683	6.5629	3.1464	0.1	841.26
684	6.7551	4.1518	0.1	832.57
685	8.6943	3.5684	0.1	674.61
686	8.0506	3.0022	0.1	725.07
687	8.1141	4.1556	0.1	725.84
688	9.9964	3.5365	0.1	573.53
689	9.3681	2.9751	0.1	622.6
690	9.4108	4.151	0.1	619.27
691	11.202	3.5179	0.1	482.09
692	10.613	2.9366	0.1	525.08
693	10.654	4.1078	0.1	523.27
694	12.339	3.516	0.1	402.74
695	11.771	2.9327	0.1	440.5
696	11.79	4.125	0.1	439.62
697	13.466	3.5072	0.1	331.59
698	12.906	2.9237	0.1	365.2
699	12.916	4.0886	0.1	364.94
700	14.578	3.506	0.1	267.9
701	14.027	2.9257	0.1	297.61
702	14.028	4.0857	0.1	297.66
703	15.681	3.5109	0.1	211.27
704	15.131	2.928	0.1	237.46
705	15.13	4.0878	0.1	237.44
706	16.783	3.5201	0.1	161.66
707	16.234	2.9336	0.1	184.33
708	16.232	4.0938	0.1	184.29
709	17.884	3.5325	0.1	119.07
710	17.337	2.9413	0.1	138.18
711	17.334	4.108	0.1	138.1
712	18.989	3.5537	0.1	83.473
713	18.439	2.9502	0.1	99.061
714	18.435	4.1321	0.1	98.856
715	20.097	3.5781	0.1	54.994
716	19.546	2.967	0.1	67.035
717	19.544	4.1691	0.1	66.614
718	21.2	3.5913	0.1	33.909
719	20.652	2.9869	0.1	42.334
720	20.651	4.1927	0.1	41.568
721	21.751	2.996	0.1	25.142
722	21.76	4.1946	0.1	23.863
723	22.313	3.5983	0.1	20.278
724	21.203	2.3917	0.1	33.849
725	22.314	2.3953	0.1	20.248
726	21.761	1.796	0.1	23.812
727	20.101	2.3758	0.1	54.888
728	20.659	1.7885	0.1	41.426
729	18.996	2.3635	0.1	83.229
730	19.55	1.7731	0.1	66.383
731	17.892	2.3589	0.1	118.79
732	18.446	1.7705	0.1	98.51
733	16.788	2.3548	0.1	161.48
734	17.341	1.7664	0.1	137.75
735	15.684	2.3507	0.1	211.15
736	16.237	1.7629	0.1	184.05
737	14.58	2.3477	0.1	267.78
738	15.134	1.7597	0.1	237.31
739	13.466	2.3422	0.1	331.77
740	14.029	1.7583	0.1	297.64
741	12.338	2.3405	0.1	403.43
742	12.915	1.7536	0.1	365.48
743	11.182	2.3514	0.1	483.83
744	11.783	1.7592	0.1	441.19
745	9.9849	2.3752	0.1	574.44
746	10.623	1.772	0.1	525.86
747	8.7244	2.4088	0.1	673.46
748	9.4261	1.8	0.1	619.99
749	7.3149	2.5721	0.1	780.91
750	8.1729	1.8493	0.1	723.87
751	6.0533	2.284	0.1	952.09
752	6.8594	1.9914	0.1	829.14
753	5.6812	2.678	0.1	987.15
754	5.8736	1.4446	0.1	978.08
755	5.1896	4.9951	0.1	936.29
756	4.3096	5.3691	0.1	825.14
757	4.3482	4.9954	0.1	984.69
758	4.998	5.6318	0.1	900.43
759	6.2613	4.7274	0.1	886.5
760	4.8665	4.452	0.1	1062.8
761	5.9432	5.3633	0.1	922.98
762	7.5706	4.7309	0.1	773.27
763	7.1756	5.3641	0.1	814.95
764	8.8305	4.7382	0.1	670.55
765	8.3585	5.3669	0.1	715.79
766	10.068	4.7223	0.1	569.35
767	9.5415	5.3713	0.1	613.26
768	11.242	4.7149	0.1	481.27
769	10.702	5.351	0.1	523.42
770	12.367	4.6976	0.1	402.4
771	11.821	5.3639	0.1	440.71
772	13.478	4.6671	0.1	331.63
773	12.933	5.3337	0.1	365.25
774	14.581	4.6676	0.1	267.83
775	14.039	5.3334	0.1	297.87
776	15.682	4.6707	0.1	211.12
777	15.142	5.3341	0.1	237.38
778	16.783	4.6817	0.1	161.4
779	16.245	5.3366	0.1	183.9
780	17.884	4.7076	0.1	118.56
781	17.349	5.3452	0.1	137.51
782	18.99	4.7476	0.1	82.665
783	18.453	5.3625	0.1	98.14
784	20.097	4.7837	0.1	53.814
785	19.56	5.3851	0.1	65.84
786	21.21	4.7961	0.1	32.012
787	20.667	5.3986	0.1	40.418
788	22.327	4.7962	0.1	17.456
789	21.779	5.3975	0.1	21.945
790	22.88	4.1999	0.1	13.702
791	22.889	5.3987	0.1	10.766
792	23.442	4.7987	0.1	10.118
793	22.876	2.9976	0.1	15.481
794	23.438	3.6012	0.1	13.91
795	22.882	1.7938	0.1	13.683
796	23.438	2.3964	0.1	13.908
797	22.329	1.1945	0.1	17.409
798	23.444	1.1974	0.1	10.094
799	22.891	0.5974	0.1	10.748
800	21.217	1.1928	0.1	31.872
801	21.779	0.59708	0.1	21.958
802	20.108	1.1858	0.1	53.562
803	20.674	0.59568	0.1	40.206
804	18.999	1.1802	0.1	82.345
805	19.564	0.59014	0.1	65.588
806	17.895	1.1781	0.1	118.16
807	18.458	0.59002	0.1	97.892
808	16.791	1.1745	0.1	161.02
809	17.353	0.58804	0.1	137.28
810	15.687	1.1719	0.1	210.89
811	16.248	0.5865	0.1	183.75
812	14.583	1.1703	0.1	267.83
813	15.144	0.58537	0.1	237.34
814	13.478	1.1697	0.1	331.96
815	14.038	0.58493	0.1	297.97
816	12.361	1.1723	0.1	403.83
817	12.933	0.58473	0.1	366.03
818	11.224	1.1798	0.1	483.75
819	11.816	0.58758	0.1	441.78
820	10.064	1.1968	0.1	571.76
821	10.69	0.59223	0.1	525.53
822	8.8746	1.2404	0.1	670.45
823	9.5497	0.60458	0.1	617.31
824	7.7174	1.2685	0.1	772.45
825	8.3944	0.63579	0.1	717.73
826	6.6797	1.1521	0.1	854.62
827	7.2866	0.63275	0.1	824.73
828	5.6957	0.91336	0.1	964.64
829	6.2507	0.5193	0.1	907.04
830	4.6492	0.68858	0.1	930.19
831	5.1966	0.39406	0.1	1010.6
832	0.88029	1.6275	0.1	1519.
833	1.3263	0.9501	0.1	1263.3
834	0.43406	1.1315	0.1	1195.6
835	0.90406	0.53146	0.1	1381.8
836	0.9947	2.8227	0.1	1582.3
837	0.44623	2.2961	0.1	1319.2
838	1.0064	4.1278	0.1	1443.3
839	1.3626	4.9137	0.1	1192.5
840	0.45796	4.8012	0.1	1143.4
841	0.92796	5.4012	0.1	1254.8
842	1.5185	2.9748	0.1	1570.5
843	0.54846	3.5266	0.1	1302.2
844	4.0251	4.4522	0.1	1120.8
845	3.5689	4.0887	0.1	2237.4
846	3.4043	5.4873	0.1	514.95
847	3.9572	5.7373	0.1	688.34
848	2.3147	5.2625	0.1	781.07
849	1.8447	5.5125	0.1	1080.1
850	3.5452	0.54452	0.1	757.15
851	4.0982	0.29452	0.1	781.15
852	2.3801	1.9982	0.1	2111.3
853	2.3022	0.66864	0.1	1069.5
854	1.8322	0.41864	0.1	1108.4
855	3.4428	4.6135	0.1	1159.5
856	3.8964	2.3194	0.1	1796.7
857	2.9867	4.25	0.	2326.3
858	2.9033	4.	0.	4314.2
859	2.9867	4.	5.e-002	232.66
860	2.9867	4.75	0.	1294.2
861	2.9867	4.5	5.e-002	129.83
862	2.9867	5.25	0.	665.12
863	2.9867	5.	5.e-002	226.66
864	2.9867	5.75	0.	349.2
865	2.9867	5.5	5.e-002	37.817
866	2.82	4.25	0.	3315.2
867	2.82	4.	5.e-002	1340.7
868	2.82	5.25	0.	893.28
869	2.82	5.75	0.	494.43
870	2.82	5.5	5.e-002	35.963
871	2.82	4.75	0.	1524.7
872	2.82	5.	5.e-002	173.87
873	2.82	4.5	5.e-002	432.5
874	2.9867	1.75	0.	2150.3
875	2.9033	2.	0.	3135.7
876	2.9867	2.	5.e-002	168.37
877	2.9867	1.25	0.	1759.8
878	2.9867	1.5	5.e-002	182.91
879	2.9867	0.75	0.	1295.4
880	2.9867	1.	5.e-002	226.3
881	2.9867	0.25	0.	639.02
882	2.9867	0.5	5.e-002	124.88
883	2.82	1.75	0.	3202.7
884	2.82	2.	5.e-002	457.46
885	2.82	0.75	0.	1361.3
886	2.82	0.25	0.	816.6
887	2.82	0.5	5.e-002	118.08
888	2.82	1.25	0.	2188.8
889	2.82	1.	5.e-002	182.23
890	2.82	1.5	5.e-002	346.05
891	3.5396	6.	0.	527.99
892	2.9867	6.	5.e-002	61.529
893	4.6456	6.	0.	750.68
894	4.0926	6.	5.e-002	26.809
895	5.7516	6.	0.	888.52
896	5.1986	6.	5.e-002	46.195
897	6.8575	6.	0.	853.8
898	6.3046	6.	5.e-002	38.609
899	7.9635	6.	0.	758.03
900	7.4105	6.	5.e-002	14.314
901	9.0695	6.	0.	658.99
902	8.5165	6.	5.e-002	14.715
903	10.175	6.	0.	567.87
904	9.6225	6.	5.e-002	12.217
905	11.281	6.	0.	483.53
906	10.728	6.	5.e-002	11.305
907	12.387	6.	0.	404.37
908	11.834	6.	5.e-002	12.84
909	13.493	6.	0.	332.26
910	12.94	6.	5.e-002	11.131
911	14.599	6.	0.	268.24
912	14.046	6.	5.e-002	10.079
913	15.705	6.	0.	211.
914	15.152	6.	5.e-002	9.1272
915	16.811	6.	0.	160.82
916	16.258	6.	5.e-002	8.0406
917	17.917	6.	0.	117.85
918	17.364	6.	5.e-002	6.9355
919	19.023	6.	0.	82.021
920	18.47	6.	5.e-002	5.9583
921	20.129	6.	0.	53.103
922	19.576	6.	5.e-002	5.0388
923	21.235	6.	0.	30.929
924	20.682	6.	5.e-002	3.835
925	22.341	6.	0.	15.678
926	21.788	6.	5.e-002	2.4412
927	23.447	6.	0.	7.1496
928	22.894	6.	5.e-002	1.3188
929	24.	5.4	0.	6.2805
930	24.	6.	5.e-002	0.24839
931	24.	4.2	0.	10.307
932	24.	4.8	5.e-002	0.50783
933	24.	3.	0.	12.355
934	24.	3.6	5.e-002	0.55545
935	24.	1.8	0.	10.301
936	24.	2.4	5.e-002	0.55527
937	24.	0.6	0.	6.2642
938	24.	1.2	5.e-002	0.51135
939	1.5735e-014	1.8	0.	1038.4
940	5.2451e-015	0.6	0.	838.62
941	1.0632e-014	1.2	5.e-002	66.743
942	2.6226e-014	3.	0.	1080.9
943	2.1264e-014	2.4	5.e-002	22.023
944	3.6716e-014	4.2	0.	1040.5
945	3.1897e-014	3.6	5.e-002	51.913
946	4.7206e-014	5.4	0.	789.93
947	4.2529e-014	4.8	5.e-002	77.433
948	23.447	0.	0.	7.1321
949	24.	0.	5.e-002	0.26634
950	3.5396	0.	0.	561.78
951	2.9867	0.	5.e-002	9.3332
952	22.341	0.	0.	15.743
953	22.894	0.	5.e-002	1.3302
954	21.235	0.	0.	30.835
955	21.788	0.	5.e-002	2.4291
956	20.129	0.	0.	52.832
957	20.682	0.	5.e-002	3.6765
958	19.023	0.	0.	81.742
959	19.576	0.	5.e-002	4.9947
960	17.917	0.	0.	117.63
961	18.47	0.	5.e-002	6.1955
962	16.811	0.	0.	160.65
963	17.364	0.	5.e-002	7.4336
964	15.705	0.	0.	210.83
965	16.258	0.	5.e-002	8.6905
966	14.599	0.	0.	268.1
967	15.152	0.	5.e-002	9.872
968	13.493	0.	0.	332.65
969	14.046	0.	5.e-002	10.979
970	12.387	0.	0.	404.56
971	12.94	0.	5.e-002	11.992
972	11.281	0.	0.	484.13
973	11.834	0.	5.e-002	12.988
974	10.175	0.	0.	571.69
975	10.728	0.	5.e-002	14.68
976	9.0695	0.	0.	665.27
977	9.6225	0.	5.e-002	14.386
978	7.9635	0.	0.	770.58
979	8.5165	0.	5.e-002	14.824
980	6.8575	0.	0.	876.89
981	7.4105	0.	5.e-002	17.186
982	5.7516	0.	0.	952.43
983	6.3046	0.	5.e-002	9.4398
984	4.6456	0.	0.	858.16
985	5.1986	0.	5.e-002	11.06
986	4.0926	0.	5.e-002	43.997
987	0.47	2.3253e-031	0.	1005.8
988	0.	0.	5.e-002	342.39
989	2.35	1.1626e-030	0.	854.15
990	2.82	1.3952e-030	5.e-002	86.72
991	1.41	6.9758e-031	0.	1210.3
992	1.88	0.	5.e-002	37.446
993	0.94	0.	5.e-002	47.394
994	0.47	6.	0.	881.67
995	5.2451e-014	6.	5.e-002	342.51
996	2.35	6.	0.	789.74
997	2.82	6.	5.e-002	183.17
998	1.41	6.	0.	1115.6
999	0.94	6.	5.e-002	22.669
1000	1.88	6.	5.e-002	56.273
1001	2.9867	5.25	0.1	665.12
1002	2.9867	5.75	0.1	349.2
1003	2.9867	4.75	0.1	1294.2
1004	2.9867	4.25	0.1	2326.3
1005	2.9033	4.	0.1	4314.2
1006	2.82	4.25	0.1	3315.2
1007	2.82	4.75	0.1	1524.7
1008	2.82	5.25	0.1	893.28
1009	2.82	5.75	0.1	494.43
1010	2.9867	0.75	0.1	1295.4
1011	2.9867	0.25	0.1	639.02
1012	2.9867	1.25	0.1	1759.8
1013	2.9867	1.75	0.1	2150.3
1014	2.9033	2.	0.1	3135.7
1015	2.82	1.75	0.1	3202.7
1016	2.82	1.25	0.1	2188.8
1017	2.82	0.75	0.1	1361.3
1018	2.82	0.25	0.1	816.6
1019	3.5396	6.	0.1	527.99
1020	4.6456	6.	0.1	750.68
1021	5.7516	6.	0.1	888.52
1022	6.8575	6.	0.1	853.8
1023	7.9635	6.	0.1	758.03
1024	9.0695	6.	0.1	658.99
1025	10.175	6.	0.1	567.87
1026	11.281	6.	0.1	483.53
1027	12.387	6.	0.1	404.37
1028	13.493	6.	0.1	332.26
1029	14.599	6.	0.1	268.24
1030	15.705	6.	0.1	211.
1031	16.811	6.	0.1	160.82
1032	17.917	6.	0.1	117.85
1033	19.023	6.	0.1	82.021
1034	20.129	6.	0.1	53.103
1035	21.235	6.	0.1	30.929
1036	22.341	6.	0.1	15.678
1037	23.447	6.	0.1	7.1496
1038	24.	5.4	0.1	6.2805
1039	24.	4.2	0.1	10.307
1040	24.	3.	0.1	12.355
1041	24.	1.8	0.1	10.301
1042	24.	0.6	0.1	6.2642
1043	1.5735e-014	1.8	0.1	1038.4
1044	5.2451e-015	0.6	0.1	838.62
1045	2.6226e-014	3.	0.1	1080.9
1046	3.6716e-014	4.2	0.1	1040.5
1047	4.7206e-014	5.4	0.1	789.93
1048	23.447	0.	0.1	7.1321
1049	22.341	0.	0.1	15.743
1050	21.235	0.	0.1	30.835
1051	20.129	0.	0.1	52.832
1052	19.023	0.	0.1	81.742
1053	17.917	0.	0.1	117.63
1054	16.811	0.	0.1	160.65
1055	15.705	0.	0.1	210.83
1056	14.599	0.	0.1	268.1
1057	13.493	0.	0.1	332.65
1058	12.387	0.	0.1	404.56
1059	11.281	0.	0.1	484.13
1060	10.175	0.	0.1	571.69
1061	9.0695	0.	0.1	665.27
1062	7.9635	0.	0.1	770.58
1063	6.8575	0.	0.1	876.89
1064	5.7516	0.	0.1	952.43
1065	4.6456	0.	0.1	858.16
1066	3.5396	0.	0.1	561.78
1067	2.35	1.1626e-030	0.1	854.15
1068	1.41	6.9758e-031	0.1	1210.3
1069	0.47	2.3253e-031	0.1	1005.8
1070	0.47	6.	0.1	881.67
1071	1.41	6.	0.1	1115.6
1072	2.35	6.	0.1	789.74
