Node Number	X Location (in)	Y Location (in)	Z Location (in)	Maximum Principal Stress (psi)
1	6.2562	2.4991	0.	-20.327
2	5.7067	3.1418	0.	102.41
3	6.3493	1.8662	0.	-85.628
4	4.8509	3.7481	0.	596.25
5	6.2426	4.591	0.	131.61
6	4.1441	0.5281	0.	73.316
7	3.9012	1.3481	0.	116.61
8	5.9383	0.59868	0.	103.9
9	3.9857	5.3331	0.	70.903
10	4.1903	4.7424	0.	201.25
11	4.486	4.2339	0.	376.98
12	6.0452	5.4642	0.	102.81
13	6.9183	3.8969	0.	1.9232
14	3.5205	4.24	0.	79.74
15	2.9037	3.3724	0.	-85.202
16	3.3443	0.7698	0.	43.382
17	2.2524	4.7706	0.	-86.112
18	1.2025	4.6797	0.	288.9
19	1.2569	1.22	0.	289.03
20	2.395	1.0141	0.	-59.042
21	6.7774	0.81721	0.	19.69
22	7.759	1.4889	0.	-18.757
23	8.9877	1.56	0.	4.8759
24	10.282	1.5563	0.	-4.9129
25	11.49	1.5031	0.	1.2552
26	12.707	1.3629	0.	3.1479
27	13.916	1.2484	0.	3.8073
28	15.075	1.2166	0.	4.8455
29	16.197	1.1991	0.	7.8157
30	17.316	1.1908	0.	8.6022
31	18.428	1.1898	0.	8.9067
32	19.54	1.1907	0.	8.8926
33	20.653	1.1894	0.	8.6493
34	21.766	1.1975	0.	8.3381
35	22.879	1.196	0.	7.674
36	1.4337	3.4573	0.	294.22
37	1.4701	2.3253	0.	288.91
38	22.876	2.3953	0.	10.759
39	22.865	3.5938	0.	10.723
40	22.876	4.7932	0.	7.7119
41	21.753	4.7956	0.	8.2521
42	20.638	4.7919	0.	8.5717
43	19.525	4.7937	0.	8.6995
44	18.411	4.7929	0.	8.7345
45	17.304	4.7901	0.	8.6743
46	16.198	4.789	0.	8.6369
47	15.102	4.8157	0.	7.7285
48	13.987	4.8801	0.	6.1552
49	12.942	4.8885	0.	5.4102
50	11.836	4.8208	0.	2.0098
51	10.747	4.5839	0.	-5.1496
52	9.587	4.4668	0.	9.9329
53	8.093	4.4535	0.	-8.9393
54	7.101	5.1347	0.	10.394
55	3.1198	5.0361	0.	20.567
56	8.5721	2.9495	0.	-3.1856
57	6.9286	3.1709	0.	-39.921
58	9.9089	3.0275	0.	-2.0824
59	11.32	3.0381	0.	1.9279
60	12.729	2.5458	0.	7.8725
61	13.916	2.4576	0.	7.2469
62	15.053	2.4185	0.	9.8059
63	16.183	2.3996	0.	9.7552
64	17.298	2.3903	0.	10.12
65	18.4	2.39	0.	10.345
66	19.511	2.3875	0.	10.52
67	20.629	2.389	0.	10.637
68	21.749	2.3907	0.	10.742
69	21.745	3.5921	0.	10.773
70	19.508	3.5906	0.	10.623
71	18.402	3.5903	0.	10.475
72	17.298	3.5883	0.	10.316
73	16.184	3.592	0.	10.01
74	15.064	3.6224	0.	11.721
75	13.973	3.6557	0.	11.62
76	12.908	3.7195	0.	3.9673
77	12.049	3.8487	0.	19.047
78	20.63	3.5905	0.	10.678
79	5.863	5.0209	0.	106.78
80	4.345	0.95825	0.	201.06
81	3.1846	2.0352	0.	-78.319
82	5.7108	0.95656	0.	221.53
83	5.9588	1.2976	0.	128.52
84	5.3187	2.641	0.	483.91
85	5.3227	3.6482	0.	533.98
86	5.7759	3.4792	0.	504.53
87	4.1825	3.7737	0.	276.15
88	4.4738	3.1368	0.	56.869
89	5.2804	3.5678	0.	95.701
90	4.9416	3.321	0.	435.8
91	4.9416	3.321	0.1	1765.
92	5.2804	3.5678	0.1	2270.8
93	4.4738	3.1368	0.1	1727.4
94	4.1825	3.7737	0.1	1355.4
95	5.7759	3.4792	0.1	911.88
96	5.3227	3.6482	0.1	1853.6
97	5.3187	2.641	0.1	1275.4
98	5.9588	1.2976	0.1	941.27
99	5.7108	0.95656	0.1	522.74
100	3.1846	2.0352	0.1	1359.5
101	4.345	0.95825	0.1	681.28
102	5.863	5.0209	0.1	472.86
103	20.63	3.5905	0.1	37.097
104	12.049	3.8487	0.1	413.68
105	12.908	3.7195	0.1	357.4
106	13.973	3.6557	0.1	292.73
107	15.064	3.6224	0.1	236.04
108	16.184	3.592	0.1	183.02
109	17.298	3.5883	0.1	135.49
110	18.402	3.5903	0.1	95.561
111	19.508	3.5906	0.1	62.886
112	21.745	3.5921	0.1	18.558
113	21.749	2.3907	0.1	18.485
114	20.629	2.389	0.1	37.138
115	19.511	2.3875	0.1	62.767
116	18.4	2.39	0.1	95.638
117	17.298	2.3903	0.1	135.49
118	16.183	2.3996	0.1	182.94
119	15.053	2.4185	0.1	237.4
120	13.916	2.4576	0.1	300.1
121	12.729	2.5458	0.1	381.27
122	11.32	3.0381	0.1	459.68
123	9.9089	3.0275	0.1	581.76
124	6.9286	3.1709	0.1	967.22
125	8.5721	2.9495	0.1	706.05
126	3.1198	5.0361	0.1	1125.4
127	7.101	5.1347	0.1	712.34
128	8.093	4.4535	0.1	740.5
129	9.587	4.4668	0.1	620.03
130	10.747	4.5839	0.1	522.17
131	11.836	4.8208	0.1	429.22
132	12.942	4.8885	0.1	362.57
133	13.987	4.8801	0.1	296.59
134	15.102	4.8157	0.1	234.87
135	16.198	4.789	0.1	181.73
136	17.304	4.7901	0.1	135.2
137	18.411	4.7929	0.1	95.398
138	19.525	4.7937	0.1	62.479
139	20.638	4.7919	0.1	36.795
140	21.753	4.7956	0.1	18.097
141	22.876	4.7932	0.1	6.4316
142	22.865	3.5938	0.1	7.0385
143	22.876	2.3953	0.1	6.9332
144	1.4701	2.3253	0.1	1398.7
145	1.4337	3.4573	0.1	1377.4
146	22.879	1.196	0.1	6.3912
147	21.766	1.1975	0.1	17.875
148	20.653	1.1894	0.1	36.409
149	19.54	1.1907	0.1	62.002
150	18.428	1.1898	0.1	94.661
151	17.316	1.1908	0.1	134.64
152	16.197	1.1991	0.1	181.97
153	15.075	1.2166	0.1	238.64
154	13.916	1.2484	0.1	306.03
155	12.707	1.3629	0.1	377.29
156	11.49	1.5031	0.1	459.07
157	10.282	1.5563	0.1	555.63
158	8.9877	1.56	0.1	671.11
159	7.759	1.4889	0.1	755.44
160	6.7774	0.81721	0.1	753.51
161	2.395	1.0141	0.1	1408.4
162	1.2569	1.22	0.1	1316.1
163	1.2025	4.6797	0.1	1314.3
164	2.2524	4.7706	0.1	1373.
165	3.3443	0.7698	0.1	1076.6
166	2.9037	3.3724	0.1	1368.2
167	3.5205	4.24	0.1	1368.9
168	6.9183	3.8969	0.1	899.89
169	6.0452	5.4642	0.1	586.74
170	4.486	4.2339	0.1	1245.8
171	4.1903	4.7424	0.1	998.08
172	3.9857	5.3331	0.1	850.72
173	5.9383	0.59868	0.1	565.68
174	3.9012	1.3481	0.1	1116.3
175	4.1441	0.5281	0.1	718.41
176	6.2426	4.591	0.1	843.42
177	4.8509	3.7481	0.1	2396.
178	6.3493	1.8662	0.1	1147.1
179	5.7067	3.1418	0.1	1614.3
180	6.2562	2.4991	0.1	1433.3
181	3.968	6.	0.	41.972
182	2.976	6.	0.	52.818
183	1.984	6.	0.	-15.765
184	0.992	6.	0.	184.22
185	4.96	6.	0.	-101.71
186	3.937e-014	6.	0.	-579.75
187	0.992	7.2791e-031	0.	183.38
188	1.984	1.4558e-030	0.	53.832
189	2.976	2.1837e-030	0.	65.958
190	3.968	2.9116e-030	0.	-11.749
191	4.96	0.	0.	-86.405
192	0.	0.	0.	-588.26
193	6.2369	0.	0.	-4.3149
194	7.3471	0.	0.	12.814
195	8.4573	0.	0.	71.787
196	9.5675	0.	0.	18.048
197	10.678	0.	0.	5.9896
198	11.788	0.	0.	11.191
199	12.898	0.	0.	17.14
200	14.008	0.	0.	9.6105
201	15.118	0.	0.	9.1994
202	16.229	0.	0.	10.779
203	17.339	0.	0.	10.879
204	18.449	0.	0.	10.898
205	19.559	0.	0.	10.746
206	20.669	0.	0.	10.306
207	21.78	0.	0.	9.3671
208	22.89	0.	0.	7.6714
209	5.1267	0.	0.	-50.102
210	24.	0.	0.	5.1567
211	4.1961e-014	4.8	0.	-999.53
212	3.1471e-014	3.6	0.	-1026.5
213	2.0981e-014	2.4	0.	-1000.9
214	1.049e-014	1.2	0.	-964.48
215	24.	1.2	0.	6.8412
216	24.	2.4	0.	10.162
217	24.	3.6	0.	10.111
218	24.	4.8	0.	6.8105
219	24.	6.	0.	5.1741
220	22.89	6.	0.	7.6592
221	21.78	6.	0.	9.5131
222	20.669	6.	0.	10.506
223	19.559	6.	0.	11.01
224	18.449	6.	0.	11.493
225	17.339	6.	0.	11.858
226	16.229	6.	0.	11.375
227	15.118	6.	0.	8.9763
228	14.008	6.	0.	6.1332
229	12.898	6.	0.	2.9622
230	11.788	6.	0.	7.1182
231	10.678	6.	0.	-0.1398
232	9.5675	6.	0.	-4.1266
233	8.4573	6.	0.	24.999
234	7.3471	6.	0.	34.869
235	6.2369	6.	0.	-15.044
236	5.1267	6.	0.	-33.139
237	4.96	1.5	0.	599.07
238	4.96	1.	0.	499.5
239	4.96	0.5	0.	-93.017
240	4.96	2.	0.	-356.49
241	5.1267	0.5	0.	-71.257
242	5.1267	1.	0.	304.63
243	5.1267	1.5	0.	669.59
244	5.1267	2.	0.	-55.65
245	4.96	4.5	0.	729.32
246	4.96	5.	0.	7.7973
247	4.96	5.5	0.	-105.23
248	4.96	4.	0.	138.44
249	5.1267	5.5	0.	-93.704
250	5.1267	5.	0.	254.65
251	5.1267	4.5	0.	397.57
252	5.1267	4.	0.	-578.07
253	5.1267	5.5	0.1	389.46
254	5.1267	5.	0.1	845.75
255	5.1267	4.5	0.1	1199.4
256	5.1267	4.	0.1	2843.7
257	4.96	4.	0.1	5391.5
258	4.96	4.5	0.1	1169.8
259	4.96	5.	0.1	880.86
260	4.96	5.5	0.1	689.2
261	5.1267	0.5	0.1	391.86
262	5.1267	1.	0.1	844.96
263	5.1267	1.5	0.1	1159.7
264	5.1267	2.	0.1	2922.9
265	4.96	2.	0.1	2856.1
266	4.96	1.5	0.1	1253.3
267	4.96	1.	0.1	1017.1
268	4.96	0.5	0.1	534.18
269	5.1267	6.	0.1	392.71
270	6.2369	6.	0.1	550.77
271	7.3471	6.	0.1	680.86
272	8.4573	6.	0.1	686.67
273	9.5675	6.	0.1	614.76
274	10.678	6.	0.1	531.21
275	11.788	6.	0.1	445.23
276	12.898	6.	0.1	366.27
277	14.008	6.	0.1	297.8
278	15.118	6.	0.1	234.21
279	16.229	6.	0.1	179.08
280	17.339	6.	0.1	132.33
281	18.449	6.	0.1	92.487
282	19.559	6.	0.1	59.847
283	20.669	6.	0.1	34.183
284	21.78	6.	0.1	15.625
285	22.89	6.	0.1	3.9074
286	24.	6.	0.1	-0.32322
287	24.	4.8	0.1	2.2087
288	24.	3.6	0.1	3.09
289	24.	2.4	0.1	3.0292
290	24.	1.2	0.1	2.1288
291	1.049e-014	1.2	0.1	1954.5
292	2.0981e-014	2.4	0.1	2049.4
293	3.1471e-014	3.6	0.1	2079.4
294	4.1961e-014	4.8	0.1	2026.3
295	24.	0.	0.1	-0.34511
296	22.89	0.	0.1	3.9443
297	21.78	0.	0.1	15.621
298	20.669	0.	0.1	34.345
299	19.559	0.	0.1	59.897
300	18.449	0.	0.1	92.611
301	17.339	0.	0.1	132.64
302	16.229	0.	0.1	179.93
303	15.118	0.	0.1	235.51
304	14.008	0.	0.1	299.57
305	12.898	0.	0.1	367.24
306	11.788	0.	0.1	434.94
307	10.678	0.	0.1	519.33
308	9.5675	0.	0.1	609.88
309	8.4573	0.	0.1	690.86
310	7.3471	0.	0.1	707.58
311	6.2369	0.	0.1	570.26
312	5.1267	0.	0.1	421.59
313	4.96	0.	0.1	468.87
314	3.968	2.9116e-030	0.1	771.31
315	2.976	2.1837e-030	0.1	1201.2
316	1.984	1.4558e-030	0.1	1452.8
317	0.992	7.2791e-031	0.1	1293.
318	0.	0.	0.1	1309.3
319	3.937e-014	6.	0.1	1319.4
320	0.992	6.	0.1	1299.1
321	1.984	6.	0.1	1438.7
322	2.976	6.	0.1	1176.
323	3.968	6.	0.1	760.25
324	4.96	6.	0.1	538.09
325	5.9815	2.8205	0.	38.816
326	6.3027	2.1827	0.	-64.577
327	6.5924	2.835	0.	-36.283
328	5.7875	2.5701	0.	169.62
329	6.2562	2.4991	5.e-002	55.84
330	5.7413	3.3105	0.	225.15
331	5.4935	3.3548	0.	-3.3381
332	5.3242	3.2314	0.	149.95
333	5.7067	3.1418	5.e-002	128.29
334	7.0541	1.6776	0.	-52.28
335	6.154	1.5819	0.	10.084
336	6.3493	1.8662	5.e-002	42.445
337	5.738	1.9331	0.	-120.72
338	4.6684	3.991	0.	426.29
339	5.0656	3.6579	0.	256.63
340	4.8962	3.5346	0.	506.6
341	4.8509	3.7481	5.e-002	15.42
342	4.9054	3.8741	0.	139.37
343	6.5805	4.244	0.	41.898
344	6.6718	4.8629	0.	53.366
345	6.0528	4.806	0.	96.451
346	6.2426	4.591	5.e-002	60.341
347	5.6847	4.5455	0.	159.44
348	3.7442	0.64895	0.	41.104
349	4.2446	0.74318	0.	132.57
350	4.1441	0.5281	5.e-002	44.942
351	4.0561	0.26405	0.	25.125
352	4.5521	0.51405	0.	-43.012
353	3.6228	1.0589	0.	55.713
354	4.1231	1.1532	0.	125.92
355	3.5429	1.6916	0.	2.2623
356	3.9012	1.3481	5.e-002	65.843
357	4.4306	1.424	0.	271.18
358	6.3579	0.70795	0.	50.834
359	5.8246	0.77762	0.	161.05
360	5.9383	0.59868	5.e-002	30.701
361	6.0876	0.29934	0.	35.124
362	5.5325	0.54934	0.	-32.188
363	4.088	5.0378	0.	130.01
364	3.5527	5.1846	0.	30.82
365	3.9857	5.3331	5.e-002	33.964
366	3.9768	5.6666	0.	53.247
367	4.4728	5.4166	0.	-43.891
368	4.3381	4.4882	0.	287.42
369	3.8554	4.4912	0.	58.804
370	4.1903	4.7424	5.e-002	25.083
371	4.5751	4.8712	0.	70.628
372	4.3343	4.0038	0.	254.77
373	4.486	4.2339	5.e-002	76.922
374	4.723	4.3669	0.	499.88
375	6.5731	5.2995	0.	25.311
376	5.9541	5.2425	0.	103.67
377	6.0452	5.4642	5.e-002	34.63
378	6.141	5.7321	0.	40.136
379	5.586	5.4821	0.	-26.889
380	7.5057	4.1752	0.	-3.5942
381	6.9235	3.5339	0.	-20.185
382	6.9183	3.8969	5.e-002	15.743
383	6.0225	3.9485	0.	-303.98
384	3.2121	3.8062	0.	-3.6363
385	3.3201	4.638	0.	41.001
386	3.8515	4.0069	0.	158.61
387	3.5205	4.24	5.e-002	26.372
388	2.5781	4.0715	0.	-85.811
389	2.1687	3.4149	0.	103.39
390	3.0442	2.7038	0.	-85.049
391	3.6888	3.2546	0.	-62.275
392	2.9037	3.3724	5.e-002	33.02
393	2.8697	0.89194	0.	-14.758
394	3.3443	0.7698	5.e-002	25.745
395	3.1601	0.3849	0.	33.411
396	1.7275	4.7252	0.	101.38
397	2.6861	4.9033	0.	-41.247
398	2.2524	4.7706	5.e-002	19.793
399	2.1182	5.3853	0.	-52.784
400	1.3181	4.0685	0.	291.34
401	1.2025	4.6797	5.e-002	24.67
402	1.0973	5.3398	0.	236.36
403	0.60126	4.7398	0.	-356.
404	1.826	1.117	0.	114.81
405	1.3635	1.7726	0.	288.85
406	1.2569	1.22	5.e-002	21.764
407	1.1244	0.61	0.	234.77
408	0.62844	1.21	0.	-338.05
409	2.7898	1.5246	0.	-69.264
410	2.395	1.0141	5.e-002	11.166
411	2.1895	0.50704	0.	-13.818
412	7.2682	1.1531	0.	-7.9501
413	6.3681	1.0574	0.	57.779
414	6.7774	0.81721	5.e-002	30.399
415	7.0622	0.40861	0.	9.9536
416	8.3734	1.5244	0.	-7.3877
417	7.3438	2.3299	0.	-29.407
418	7.759	1.4889	5.e-002	4.9887
419	8.1081	0.74445	0.	15.414
420	9.635	1.5581	0.	-0.3902
421	8.7799	2.2547	0.	0.56555
422	8.9877	1.56	5.e-002	1.2406
423	9.2776	0.78	0.	10.001
424	10.886	1.5297	0.	-2.3367
425	10.096	2.2919	0.	-3.9824
426	10.282	1.5563	5.e-002	3.6303
427	10.48	0.77813	0.	0.2211
428	12.099	1.433	0.	1.9145
429	11.405	2.2706	0.	0.33255
430	11.49	1.5031	5.e-002	4.7079
431	11.639	0.75156	0.	5.1327
432	13.312	1.3057	0.	2.8562
433	12.718	1.9544	0.	4.8903
434	12.707	1.3629	5.e-002	3.3108
435	12.803	0.68145	0.	9.461
436	14.495	1.2325	0.	3.7243
437	13.916	1.853	0.	4.7205
438	13.916	1.2484	5.e-002	4.4307
439	13.962	0.62421	0.	5.9019
440	15.636	1.2079	0.	6.3155
441	15.064	1.8176	0.	7.1592
442	15.075	1.2166	5.e-002	3.2949
443	15.097	0.60832	0.	6.8102
444	16.757	1.1949	0.	8.1955
445	16.19	1.7994	0.	8.5883
446	16.197	1.1991	5.e-002	2.2264
447	16.213	0.59955	0.	9.0588
448	17.872	1.1903	0.	8.7415
449	17.307	1.7905	0.	9.1276
450	17.316	1.1908	5.e-002	1.8756
451	17.328	0.5954	0.	9.5018
452	18.984	1.1902	0.	8.8858
453	18.414	1.7899	0.	9.3816
454	18.428	1.1898	5.e-002	1.5937
455	18.439	0.5949	0.	9.6644
456	20.097	1.19	0.	8.7572
457	19.526	1.7891	0.	9.4676
458	19.54	1.1907	5.e-002	1.3107
459	19.549	0.59534	0.	9.5794
460	21.21	1.1934	0.	8.4849
461	20.641	1.7892	0.	9.4233
462	20.653	1.1894	5.e-002	0.99459
463	20.661	0.59469	0.	9.2308
464	22.323	1.1968	0.	8.0061
465	21.758	1.7941	0.	9.3524
466	21.766	1.1975	5.e-002	0.68069
467	21.773	0.59875	0.	8.6062
468	22.877	1.7957	0.	9.1029
469	22.879	1.196	5.e-002	0.44667
470	22.884	0.59801	0.	7.4448
471	23.44	1.198	0.	7.2217
472	1.4519	2.8913	0.	291.3
473	1.4337	3.4573	5.e-002	2.9156
474	0.71684	3.5287	0.	-366.26
475	2.3274	2.1802	0.	104.48
476	1.4701	2.3253	5.e-002	23.042
477	0.73506	2.3626	0.	-361.64
478	22.87	2.9946	0.	10.671
479	22.312	2.393	0.	10.75
480	22.876	2.3953	5.e-002	0.42431
481	23.438	2.3977	0.	10.457
482	22.87	4.1935	0.	9.1004
483	22.305	3.593	0.	10.748
484	22.865	3.5938	5.e-002	0.43284
485	23.432	3.5969	0.	10.414
486	22.314	4.7944	0.	7.9819
487	22.876	4.7932	5.e-002	0.44832
488	23.438	4.7966	0.	7.225
489	22.883	5.3966	0.	7.4623
490	21.195	4.7937	0.	8.403
491	21.749	4.1939	0.	9.3261
492	21.753	4.7956	5.e-002	0.68751
493	21.766	5.3978	0.	8.6318
494	20.082	4.7928	0.	8.6221
495	20.634	4.1912	0.	9.4034
496	20.638	4.7919	5.e-002	1.0054
497	20.654	5.396	0.	9.292
498	18.968	4.7933	0.	8.7027
499	19.516	4.1921	0.	9.4197
500	19.525	4.7937	5.e-002	1.3243
501	19.542	5.3968	0.	9.6102
502	17.857	4.7915	0.	8.692
503	18.407	4.1916	0.	9.3592
504	18.411	4.7929	5.e-002	1.6104
505	18.43	5.3965	0.	9.8641
506	16.751	4.7896	0.	8.6458
507	17.301	4.1892	0.	9.255
508	17.304	4.7901	5.e-002	1.8516
509	17.321	5.3951	0.	10.017
510	15.65	4.8024	0.	8.1787
511	16.191	4.1905	0.	9.0991
512	16.198	4.789	5.e-002	2.2189
513	16.213	5.3945	0.	9.7676
514	14.544	4.8479	0.	6.9343
515	15.083	4.219	0.	9.4872
516	15.102	4.8157	5.e-002	2.8742
517	15.11	5.4079	0.	8.1724
518	13.464	4.8843	0.	5.4529
519	13.98	4.2679	0.	8.6072
520	13.987	4.8801	5.e-002	3.9105
521	13.997	5.4401	0.	5.9931
522	12.389	4.8546	0.	3.71
523	12.925	4.304	0.	4.3402
524	12.942	4.8885	5.e-002	3.7828
525	12.92	5.4442	0.	3.7993
526	11.292	4.7023	0.	-2.6413
527	11.943	4.3347	0.	10.505
528	11.836	4.8208	5.e-002	5.3784
529	11.812	5.4104	0.	3.4977
530	10.167	4.5253	0.	2.3101
531	11.034	3.811	0.	-1.8187
532	10.747	4.5839	5.e-002	4.4832
533	10.713	5.2919	0.	-4.6114
534	8.84	4.4602	0.	0.45395
535	9.748	3.7472	0.	3.9086
536	9.587	4.4668	5.e-002	5.6469
537	9.5772	5.2334	0.	2.8969
538	7.597	4.7941	0.	0.59257
539	8.3325	3.7015	0.	-6.4202
540	8.093	4.4535	5.e-002	3.0191
541	8.2751	5.2268	0.	0.26611
542	7.101	5.1347	5.e-002	8.9943
543	7.224	5.5674	0.	7.2224
544	3.1198	5.0361	5.e-002	19.756
545	3.0479	5.518	0.	28.421
546	7.7504	3.0602	0.	-21.584
547	9.2405	2.9885	0.	-2.6877
548	8.5721	2.9495	5.e-002	6.2669
549	6.3523	3.325	0.	171.78
550	6.9286	3.1709	5.e-002	18.925
551	10.615	3.0328	0.	-0.21933
552	9.9089	3.0275	5.e-002	3.1628
553	12.024	2.792	0.	3.0095
554	11.685	3.4434	0.	7.3844
555	11.32	3.0381	5.e-002	5.3998
556	13.322	2.5017	0.	6.9834
557	12.818	3.1327	0.	5.7295
558	12.729	2.5458	5.e-002	5.8957
559	14.485	2.438	0.	8.4994
560	13.945	3.0567	0.	9.1469
561	13.916	2.4576	5.e-002	1.4545
562	15.618	2.409	0.	9.778
563	15.059	3.0204	0.	10.43
564	15.053	2.4185	5.e-002	2.8378
565	16.74	2.395	0.	9.9373
566	16.183	2.9958	0.	9.5983
567	16.183	2.3996	5.e-002	2.1765
568	17.849	2.3901	0.	10.232
569	17.298	2.9893	0.	9.9772
570	17.298	2.3903	5.e-002	2.0241
571	18.956	2.3887	0.	10.431
572	18.401	2.9901	0.	10.192
573	18.4	2.39	5.e-002	1.6458
574	20.07	2.3882	0.	10.577
575	19.51	2.9891	0.	10.369
576	19.511	2.3875	5.e-002	1.3221
577	21.189	2.3898	0.	10.689
578	20.63	2.9897	0.	10.478
579	20.629	2.389	5.e-002	1.0058
580	21.747	2.9914	0.	10.623
581	21.749	2.3907	5.e-002	0.68647
582	21.187	3.5913	0.	10.725
583	21.745	3.5921	5.e-002	0.69422
584	18.955	3.5905	0.	10.548
585	20.069	3.5906	0.	10.65
586	19.508	3.5906	5.e-002	1.3234
587	17.85	3.5893	0.	10.395
588	18.402	3.5903	5.e-002	1.66
589	16.741	3.5901	0.	10.163
590	17.298	3.5883	5.e-002	2.0568
591	15.624	3.6072	0.	10.863
592	16.184	3.592	5.e-002	2.2601
593	14.519	3.6391	0.	11.668
594	15.064	3.6224	5.e-002	2.553
595	13.441	3.6876	0.	7.7454
596	13.973	3.6557	5.e-002	0.76009
597	12.479	3.7841	0.	11.174
598	12.908	3.7195	5.e-002	2.1325
599	12.049	3.8487	5.e-002	8.4159
600	20.63	3.5905	5.e-002	0.99039
601	5.863	5.0209	5.e-002	25.429
602	5.4948	5.0105	0.	155.18
603	4.345	0.95825	5.e-002	41.623
604	4.6525	0.97913	0.	302.01
605	3.1846	2.0352	5.e-002	33.54
606	4.0723	2.0176	0.	-303.26
607	5.8348	1.1271	0.	144.04
608	5.7108	0.95656	5.e-002	1.7439
609	5.4187	0.97828	0.	225.52
610	5.9588	1.2976	5.e-002	79.008
611	5.5427	1.3988	0.	287.57
612	4.8962	2.8889	0.	254.16
613	5.1302	2.981	0.	453.9
614	5.3187	2.641	5.e-002	41.722
615	5.2227	2.3205	0.	205.1
616	5.5493	3.5637	0.	507.51
617	5.3016	3.608	0.	236.27
618	5.3227	3.6482	5.e-002	376.21
619	5.1414	3.8241	0.	-30.071
620	5.7759	3.4792	5.e-002	81.957
621	5.4513	3.7396	0.	-111.87
622	4.3282	3.4553	0.	88.408
623	4.5621	3.5474	0.	268.07
624	4.1825	3.7737	5.e-002	100.09
625	4.4738	3.1368	5.e-002	37.364
626	4.7169	2.5684	0.	-167.77
627	5.2804	3.5678	5.e-002	125.56
628	4.9416	3.321	5.e-002	29.868
629	4.5621	3.5474	0.1	1524.3
630	5.1302	2.981	0.1	1514.
631	4.8962	3.5346	0.1	2071.4
632	5.3242	3.2314	0.1	1681.6
633	5.3016	3.608	0.1	2042.6
634	5.0656	3.6579	0.1	2279.7
635	5.4935	3.3548	0.1	1940.7
636	4.3282	3.4553	0.1	1491.1
637	4.8962	2.8889	0.1	1486.9
638	3.6888	3.2546	0.1	1533.
639	4.7169	2.5684	0.1	2280.1
640	3.8515	4.0069	0.1	1355.
641	4.3343	4.0038	0.1	1289.5
642	5.5493	3.5637	0.1	1350.8
643	6.3523	3.325	0.1	938.48
644	5.7413	3.3105	0.1	1257.8
645	5.4513	3.7396	0.1	1792.
646	5.1414	3.8241	0.1	3559.8
647	5.7875	2.5701	0.1	1353.3
648	5.2227	2.3205	0.1	2091.
649	5.8348	1.1271	0.1	723.35
650	6.3681	1.0574	0.1	844.86
651	6.154	1.5819	0.1	1042.2
652	5.5427	1.3988	0.1	970.78
653	5.8246	0.77762	0.1	542.17
654	5.4187	0.97828	0.1	647.92
655	2.3274	2.1802	0.1	1378.3
656	2.7898	1.5246	0.1	1383.9
657	3.0442	2.7038	0.1	1352.1
658	3.5429	1.6916	0.1	1237.2
659	4.0723	2.0176	0.1	2099.4
660	4.1231	1.1532	0.1	890.06
661	4.2446	0.74318	0.1	699.14
662	4.6525	0.97913	0.1	799.08
663	5.9541	5.2425	0.1	529.65
664	6.0528	4.806	0.1	647.87
665	5.4948	5.0105	0.1	628.92
666	20.069	3.5906	0.1	49.99
667	21.187	3.5913	0.1	27.826
668	20.63	2.9897	0.1	36.941
669	20.634	4.1912	0.1	36.727
670	12.479	3.7841	0.1	385.32
671	11.685	3.4434	0.1	436.42
672	11.943	4.3347	0.1	421.44
673	13.441	3.6876	0.1	325.02
674	12.818	3.1327	0.1	369.31
675	12.925	4.304	0.1	359.69
676	14.519	3.6391	0.1	264.38
677	13.945	3.0567	0.1	296.2
678	13.98	4.2679	0.1	294.38
679	15.624	3.6072	0.1	209.53
680	15.059	3.0204	0.1	236.41
681	15.083	4.219	0.1	235.22
682	16.741	3.5901	0.1	159.25
683	16.183	2.9958	0.1	182.7
684	16.191	4.1905	0.1	182.15
685	17.85	3.5893	0.1	115.52
686	17.298	2.9893	0.1	135.25
687	17.301	4.1892	0.1	135.11
688	18.955	3.5905	0.1	79.222
689	18.401	2.9901	0.1	95.384
690	18.407	4.1916	0.1	95.238
691	19.51	2.9891	0.1	62.627
692	19.516	4.1921	0.1	62.444
693	21.747	2.9914	0.1	18.391
694	21.749	4.1939	0.1	18.144
695	22.305	3.593	0.1	12.796
696	21.189	2.3898	0.1	27.811
697	22.312	2.393	0.1	12.707
698	21.758	1.7941	0.1	17.995
699	20.07	2.3882	0.1	49.951
700	20.641	1.7892	0.1	36.556
701	18.956	2.3887	0.1	79.201
702	19.526	1.7891	0.1	62.149
703	17.849	2.3901	0.1	115.56
704	18.414	1.7899	0.1	94.908
705	16.74	2.395	0.1	159.21
706	17.307	1.7905	0.1	134.84
707	15.618	2.409	0.1	210.17
708	16.19	1.7994	0.1	182.26
709	14.485	2.438	0.1	268.73
710	15.064	1.8176	0.1	237.86
711	13.322	2.5017	0.1	340.53
712	13.916	1.853	0.1	302.85
713	12.024	2.792	0.1	420.45
714	12.718	1.9544	0.1	378.68
715	10.615	3.0328	0.1	520.7
716	11.034	3.811	0.1	490.78
717	11.405	2.2706	0.1	459.25
718	9.2405	2.9885	0.1	643.84
719	9.748	3.7472	0.1	600.86
720	10.096	2.2919	0.1	568.34
721	7.7504	3.0602	0.1	836.6
722	7.3438	2.3299	0.1	861.21
723	6.9235	3.5339	0.1	933.19
724	6.5924	2.835	0.1	1198.8
725	8.3325	3.7015	0.1	723.13
726	8.7799	2.2547	0.1	688.58
727	2.6861	4.9033	0.1	1249.2
728	3.3201	4.638	0.1	1247.
729	3.5527	5.1846	0.1	984.16
730	3.0479	5.518	0.1	1150.4
731	7.597	4.7941	0.1	726.08
732	6.5731	5.2995	0.1	638.76
733	6.6718	4.8629	0.1	777.48
734	7.224	5.5674	0.1	696.37
735	8.84	4.4602	0.1	680.25
736	7.5057	4.1752	0.1	820.08
737	8.2751	5.2268	0.1	712.52
738	10.167	4.5253	0.1	571.09
739	9.5772	5.2334	0.1	617.39
740	11.292	4.7023	0.1	475.62
741	10.713	5.2919	0.1	526.58
742	12.389	4.8546	0.1	395.89
743	11.812	5.4104	0.1	436.95
744	13.464	4.8843	0.1	329.52
745	12.92	5.4442	0.1	364.12
746	14.544	4.8479	0.1	265.73
747	13.997	5.4401	0.1	297.04
748	15.65	4.8024	0.1	208.3
749	15.11	5.4079	0.1	234.37
750	16.751	4.7896	0.1	158.46
751	16.213	5.3945	0.1	180.18
752	17.857	4.7915	0.1	115.29
753	17.321	5.3951	0.1	133.52
754	18.968	4.7933	0.1	78.924
755	18.43	5.3965	0.1	93.693
756	20.082	4.7928	0.1	49.623
757	19.542	5.3968	0.1	60.92
758	21.195	4.7937	0.1	27.437
759	20.654	5.396	0.1	35.244
760	22.314	4.7944	0.1	12.263
761	21.766	5.3978	0.1	16.612
762	22.87	4.1935	0.1	6.6208
763	22.883	5.3966	0.1	4.9488
764	23.438	4.7966	0.1	4.2778
765	22.87	2.9946	0.1	6.9191
766	23.432	3.5969	0.1	5.0539
767	22.877	1.7957	0.1	6.5515
768	23.438	2.3977	0.1	4.9697
769	1.4519	2.8913	0.1	1386.5
770	1.3635	1.7726	0.1	1356.8
771	0.73506	2.3626	0.1	1723.1
772	1.3181	4.0685	0.1	1343.4
773	2.1687	3.4149	0.1	1370.9
774	0.71684	3.5287	0.1	1728.3
775	22.323	1.1968	0.1	12.132
776	23.44	1.198	0.1	4.2178
777	22.884	0.59801	0.1	4.9418
778	21.21	1.1934	0.1	27.133
779	21.773	0.59875	0.1	16.504
780	20.097	1.19	0.1	49.192
781	20.661	0.59469	0.1	35.134
782	18.984	1.1902	0.1	78.318
783	19.549	0.59534	0.1	60.712
784	17.872	1.1903	0.1	114.64
785	18.439	0.5949	0.1	93.401
786	16.757	1.1949	0.1	158.29
787	17.328	0.5954	0.1	133.4
788	15.636	1.2079	0.1	210.29
789	16.213	0.59955	0.1	180.72
790	14.495	1.2325	0.1	272.32
791	15.097	0.60832	0.1	236.86
792	13.312	1.3057	0.1	341.64
793	13.962	0.62421	0.1	302.57
794	12.099	1.433	0.1	418.09
795	12.803	0.68145	0.1	371.97
796	10.886	1.5297	0.1	507.34
797	11.639	0.75156	0.1	446.75
798	9.635	1.5581	0.1	613.24
799	10.48	0.77813	0.1	537.31
800	8.3734	1.5244	0.1	713.24
801	9.2776	0.78	0.1	639.84
802	7.2682	1.1531	0.1	753.45
803	7.0541	1.6776	0.1	949.57
804	8.1081	0.74445	0.1	722.48
805	6.3579	0.70795	0.1	651.51
806	7.0622	0.40861	0.1	729.88
807	1.826	1.117	0.1	1362.1
808	2.8697	0.89194	0.1	1242.5
809	2.1895	0.50704	0.1	1430.2
810	0.62844	1.21	0.1	1632.4
811	1.1244	0.61	0.1	1297.3
812	1.7275	4.7252	0.1	1343.6
813	0.60126	4.7398	0.1	1666.6
814	1.0973	5.3398	0.1	1299.6
815	2.5781	4.0715	0.1	1370.5
816	2.1182	5.3853	0.1	1405.2
817	3.6228	1.0589	0.1	1096.
818	3.7442	0.64895	0.1	891.2
819	3.1601	0.3849	0.1	1137.6
820	3.2121	3.8062	0.1	1368.6
821	3.8554	4.4912	0.1	1162.3
822	6.5805	4.244	0.1	870.77
823	6.0225	3.9485	0.1	1807.8
824	5.586	5.4821	0.1	480.82
825	6.141	5.7321	0.1	565.06
826	4.3381	4.4882	0.1	1121.3
827	4.6684	3.991	0.1	1764.4
828	4.723	4.3669	0.1	1155.7
829	4.088	5.0378	0.1	920.69
830	4.5751	4.8712	0.1	906.73
831	4.4728	5.4166	0.1	751.45
832	3.9768	5.6666	0.1	802.83
833	5.5325	0.54934	0.1	469.28
834	6.0876	0.29934	0.1	563.53
835	4.4306	1.424	0.1	1126.3
836	4.5521	0.51405	0.1	610.91
837	4.0561	0.26405	0.1	739.15
838	5.6847	4.5455	0.1	931.82
839	4.9054	3.8741	0.1	3870.1
840	6.3027	2.1827	0.1	1289.8
841	5.738	1.9331	0.1	2031.6
842	5.9815	2.8205	0.1	1504.
843	3.472	6.	0.	27.353
844	4.464	6.	0.	-46.096
845	3.968	6.	5.e-002	10.187
846	2.48	6.	0.	16.973
847	2.976	6.	5.e-002	7.0407
848	1.488	6.	0.	82.25
849	1.984	6.	5.e-002	19.02
850	0.496	6.	0.	-212.6
851	0.992	6.	5.e-002	19.677
852	4.96	5.75	0.	-106.71
853	4.96	6.	5.e-002	44.808
854	4.7206e-014	5.4	0.	-803.33
855	5.2451e-014	6.	5.e-002	178.53
856	1.488	1.0919e-030	0.	85.733
857	0.496	3.6396e-031	0.	-217.48
858	0.992	0.	5.e-002	29.108
859	2.48	1.8198e-030	0.	15.627
860	1.984	0.	5.e-002	34.573
861	3.472	2.5477e-030	0.	21.238
862	2.976	0.	5.e-002	24.875
863	4.464	3.2756e-030	0.	-54.257
864	3.968	0.	5.e-002	12.714
865	4.96	0.25	0.	-94.179
866	4.96	3.6396e-030	5.e-002	27.711
867	5.2451e-015	0.6	0.	-785.41
868	0.	0.	5.e-002	154.34
869	6.792	0.	0.	4.0957
870	5.6818	0.	0.	-27.435
871	6.2369	0.	5.e-002	11.03
872	7.9022	0.	0.	30.385
873	7.3471	0.	5.e-002	6.1802
874	9.0124	0.	0.	40.754
875	8.4573	0.	5.e-002	17.957
876	10.123	0.	0.	11.866
877	9.5675	0.	5.e-002	15.703
878	11.233	0.	0.	7.6165
879	10.678	0.	5.e-002	9.3529
880	12.343	0.	0.	14.017
881	11.788	0.	5.e-002	4.4108
882	13.453	0.	0.	13.304
883	12.898	0.	5.e-002	5.9697
884	14.563	0.	0.	9.3641
885	14.008	0.	5.e-002	5.955
886	15.674	0.	0.	9.9533
887	15.118	0.	5.e-002	5.3265
888	16.784	0.	0.	10.794
889	16.229	0.	5.e-002	4.9678
890	17.894	0.	0.	10.852
891	17.339	0.	5.e-002	4.3817
892	19.004	0.	0.	10.777
893	18.449	0.	5.e-002	3.6241
894	20.114	0.	0.	10.471
895	19.559	0.	5.e-002	2.874
896	21.225	0.	0.	9.7836
897	20.669	0.	5.e-002	2.1453
898	22.335	0.	0.	8.4983
899	21.78	0.	5.e-002	1.4048
900	23.445	0.	0.	6.3848
901	22.89	0.	5.e-002	0.77221
902	5.1267	0.25	0.	-62.507
903	5.1267	0.	5.e-002	22.548
904	24.	0.6	0.	5.905
905	24.	0.	5.e-002	0.15133
906	3.6716e-014	4.2	0.	-1013.7
907	4.2529e-014	4.8	5.e-002	32.133
908	2.6226e-014	3.	0.	-1015.2
909	3.1897e-014	3.6	5.e-002	15.869
910	1.5735e-014	1.8	0.	-983.67
911	2.1264e-014	2.4	5.e-002	13.755
912	1.0632e-014	1.2	5.e-002	32.181
913	24.	1.8	0.	8.4818
914	24.	1.2	5.e-002	0.29578
915	24.	3.	0.	10.121
916	24.	2.4	5.e-002	0.31621
917	24.	4.2	0.	8.4409
918	24.	3.6	5.e-002	0.32075
919	24.	5.4	0.	5.9013
920	24.	4.8	5.e-002	0.29816
921	23.445	6.	0.	6.3869
922	24.	6.	5.e-002	0.1552
923	22.335	6.	0.	8.5661
924	22.89	6.	5.e-002	0.76797
925	21.225	6.	0.	9.9546
926	21.78	6.	5.e-002	1.4042
927	20.114	6.	0.	10.706
928	20.669	6.	5.e-002	2.1331
929	19.004	6.	0.	11.209
930	19.559	6.	5.e-002	2.8717
931	17.894	6.	0.	11.639
932	18.449	6.	5.e-002	3.597
933	16.784	6.	0.	11.58
934	17.339	6.	5.e-002	4.2351
935	15.674	6.	0.	10.145
936	16.229	6.	5.e-002	4.7344
937	14.563	6.	0.	7.5282
938	15.118	6.	5.e-002	5.1691
939	13.453	6.	0.	4.5009
940	14.008	6.	5.e-002	7.4421
941	12.343	6.	0.	4.9178
942	12.898	6.	5.e-002	8.2706
943	11.233	6.	0.	2.9477
944	11.788	6.	5.e-002	8.044
945	10.123	6.	0.	-4.3732
946	10.678	6.	5.e-002	4.0016
947	9.0124	6.	0.	2.6077
948	9.5675	6.	5.e-002	1.7504
949	7.9022	6.	0.	29.196
950	8.4573	6.	5.e-002	16.947
951	6.792	6.	0.	7.0315
952	7.3471	6.	5.e-002	4.8774
953	5.6818	6.	0.	-33.006
954	6.2369	6.	5.e-002	5.6399
955	5.1267	5.75	0.	-65.915
956	5.1267	6.	5.e-002	30.728
957	4.96	1.25	0.	522.76
958	4.96	1.75	0.	70.499
959	4.96	1.5	5.e-002	45.848
960	4.96	0.75	0.	166.88
961	4.96	1.	5.e-002	223.68
962	4.96	0.5	5.e-002	53.276
963	5.0433	2.	0.	-341.26
964	4.96	2.	5.e-002	76.942
965	5.1267	0.75	0.	78.021
966	5.1267	0.5	5.e-002	24.836
967	5.1267	1.25	0.	472.83
968	5.1267	1.	5.e-002	150.73
969	5.1267	1.75	0.	170.54
970	5.1267	1.5	5.e-002	78.341
971	5.1267	2.	5.e-002	84.588
972	4.96	4.75	0.	366.6
973	4.96	4.25	0.	59.106
974	4.96	4.5	5.e-002	201.99
975	4.96	5.25	0.	-76.75
976	4.96	5.	5.e-002	86.916
977	4.96	5.5	5.e-002	53.756
978	5.0433	4.	0.	-257.04
979	4.96	4.	5.e-002	978.24
980	5.1267	5.25	0.	45.996
981	5.1267	5.5	5.e-002	28.87
982	5.1267	4.75	0.	321.05
983	5.1267	5.	5.e-002	140.68
984	5.1267	4.25	0.	-102.69
985	5.1267	4.5	5.e-002	78.789
986	5.1267	4.	5.e-002	30.063
987	5.1267	5.25	0.1	616.02
988	5.1267	5.75	0.1	378.31
989	5.1267	4.75	0.1	1019.6
990	5.1267	4.25	0.1	2011.1
991	5.0433	4.	0.1	3915.6
992	4.96	4.25	0.1	2962.6
993	4.96	4.75	0.1	1024.
994	4.96	5.25	0.1	781.69
995	4.96	5.75	0.1	595.7
996	5.1267	0.75	0.1	615.73
997	5.1267	0.25	0.1	391.78
998	5.1267	1.25	0.1	998.48
999	5.1267	1.75	0.1	1904.9
1000	5.0433	2.	0.1	2753.8
1001	4.96	1.75	0.1	2005.3
1002	4.96	1.25	0.1	1116.1
1003	4.96	0.75	0.1	772.8
1004	4.96	0.25	0.1	484.52
1005	5.6818	6.	0.1	471.43
1006	6.792	6.	0.1	613.21
1007	7.9022	6.	0.1	682.97
1008	9.0124	6.	0.1	649.86
1009	10.123	6.	0.1	572.81
1010	11.233	6.	0.1	487.95
1011	12.343	6.	0.1	405.75
1012	13.453	6.	0.1	332.02
1013	14.563	6.	0.1	265.98
1014	15.674	6.	0.1	206.61
1015	16.784	6.	0.1	155.67
1016	17.894	6.	0.1	112.37
1017	19.004	6.	0.1	76.124
1018	20.114	6.	0.1	46.963
1019	21.225	6.	0.1	24.849
1020	22.335	6.	0.1	9.7422
1021	23.445	6.	0.1	1.548
1022	24.	5.4	0.1	0.653
1023	24.	4.2	0.1	2.6314
1024	24.	3.	0.1	3.0461
1025	24.	1.8	0.1	2.5611
1026	24.	0.6	0.1	0.62051
1027	1.5735e-014	1.8	0.1	2001.7
1028	5.2451e-015	0.6	0.1	1617.3
1029	2.6226e-014	3.	0.1	2064.3
1030	3.6716e-014	4.2	0.1	2052.3
1031	4.7206e-014	5.4	0.1	1653.9
1032	23.445	0.	0.1	1.5769
1033	22.335	0.	0.1	9.7572
1034	21.225	0.	0.1	24.929
1035	20.114	0.	0.1	47.065
1036	19.004	0.	0.1	76.209
1037	17.894	0.	0.1	112.59
1038	16.784	0.	0.1	156.25
1039	15.674	0.	0.1	207.68
1040	14.563	0.	0.1	267.52
1041	13.453	0.	0.1	333.39
1042	12.343	0.	0.1	400.94
1043	11.233	0.	0.1	477.12
1044	10.123	0.	0.1	564.6
1045	9.0124	0.	0.1	650.35
1046	7.9022	0.	0.1	698.66
1047	6.792	0.	0.1	637.42
1048	5.6818	0.	0.1	495.84
1049	4.464	3.2756e-030	0.1	619.49
1050	3.472	2.5477e-030	0.1	985.42
1051	2.48	1.8198e-030	0.1	1323.6
1052	1.488	1.0919e-030	0.1	1369.4
1053	0.496	3.6396e-031	0.1	1284.4
1054	0.496	6.	0.1	1289.
1055	1.488	6.	0.1	1365.2
1056	2.48	6.	0.1	1305.8
1057	3.472	6.	0.1	967.61
1058	4.464	6.	0.1	648.69
