Node Number	X Location (in)	Y Location (in)	Z Location (in)	Maximum Principal Stress (psi)
1	6.4	2.1818	0.	1771.
2	6.4	2.3636	0.	1403.6
3	6.4	2.5455	0.	1150.7
4	6.4	2.7273	0.	1015.7
5	6.4	2.9091	0.	954.33
6	6.4	3.0909	0.	954.33
7	6.4	3.2727	0.	1015.7
8	6.4	3.4545	0.	1150.7
9	6.4	3.6364	0.	1403.6
10	6.4	3.8182	0.	1771.
11	6.5667	2.1818	0.	1544.4
12	6.5667	2.3636	0.	1340.4
13	6.5667	2.5455	0.	1116.6
14	6.5667	2.7273	0.	994.05
15	6.5667	2.9091	0.	937.24
16	6.5667	3.0909	0.	937.24
17	6.5667	3.2727	0.	994.05
18	6.5667	3.4545	0.	1116.6
19	6.5667	3.6364	0.	1340.4
20	6.5667	3.8182	0.	1544.4
21	6.2171	5.8182	0.	152.08
22	6.2171	5.6364	0.	318.9
23	6.2171	5.4545	0.	581.25
24	6.2171	5.2727	0.	894.17
25	6.2171	5.0909	0.	1257.
26	6.2171	4.9091	0.	1681.7
27	6.2171	4.7273	0.	2194.4
28	6.2171	4.5455	0.	2819.
29	6.2171	4.3636	0.	3691.6
30	6.2171	4.1818	0.	4249.3
31	6.2171	4.	0.	3002.1
32	6.2171	3.8182	0.	1375.8
33	6.2171	3.6364	0.	1107.1
34	6.2171	3.4545	0.	927.28
35	6.2171	3.2727	0.	847.98
36	6.2171	3.0909	0.	808.64
37	6.2171	2.9091	0.	808.64
38	6.2171	2.7273	0.	847.98
39	6.2171	2.5455	0.	927.28
40	6.2171	2.3636	0.	1107.1
41	6.2171	2.1818	0.	1375.8
42	6.2171	2.	0.	3002.1
43	6.2171	1.8182	0.	4249.3
44	6.2171	1.6364	0.	3691.6
45	6.2171	1.4545	0.	2819.
46	6.2171	1.2727	0.	2194.4
47	6.2171	1.0909	0.	1681.7
48	6.2171	0.90909	0.	1257.
49	6.2171	0.72727	0.	894.17
50	6.2171	0.54545	0.	581.25
51	6.2171	0.36364	0.	318.9
52	6.2171	0.18182	0.	152.08
53	6.0343	5.8182	0.	110.73
54	6.0343	5.6364	0.	180.36
55	6.0343	5.4545	0.	349.05
56	6.0343	5.2727	0.	575.33
57	6.0343	5.0909	0.	842.04
58	6.0343	4.9091	0.	1142.4
59	6.0343	4.7273	0.	1471.9
60	6.0343	4.5455	0.	1794.5
61	6.0343	4.3636	0.	2037.3
62	6.0343	4.1818	0.	1979.5
63	6.0343	4.	0.	1332.7
64	6.0343	3.8182	0.	822.8
65	6.0343	3.6364	0.	633.7
66	6.0343	3.4545	0.	591.46
67	6.0343	3.2727	0.	565.46
68	6.0343	3.0909	0.	554.62
69	6.0343	2.9091	0.	554.62
70	6.0343	2.7273	0.	565.46
71	6.0343	2.5455	0.	591.46
72	6.0343	2.3636	0.	633.7
73	6.0343	2.1818	0.	822.8
74	6.0343	2.	0.	1332.7
75	6.0343	1.8182	0.	1979.5
76	6.0343	1.6364	0.	2037.3
77	6.0343	1.4545	0.	1794.5
78	6.0343	1.2727	0.	1471.9
79	6.0343	1.0909	0.	1142.4
80	6.0343	0.90909	0.	842.04
81	6.0343	0.72727	0.	575.33
82	6.0343	0.54545	0.	349.05
83	6.0343	0.36364	0.	180.36
84	6.0343	0.18182	0.	110.73
85	5.8514	5.8182	0.	109.69
86	5.8514	5.6364	0.	156.54
87	5.8514	5.4545	0.	268.59
88	5.8514	5.2727	0.	426.53
89	5.8514	5.0909	0.	614.69
90	5.8514	4.9091	0.	817.64
91	5.8514	4.7273	0.	1013.
92	5.8514	4.5455	0.	1163.9
93	5.8514	4.3636	0.	1192.3
94	5.8514	4.1818	0.	1024.4
95	5.8514	4.	0.	716.31
96	5.8514	3.8182	0.	437.91
97	5.8514	3.6364	0.	311.64
98	5.8514	3.4545	0.	281.99
99	5.8514	3.2727	0.	278.82
100	5.8514	3.0909	0.	280.21
101	5.8514	2.9091	0.	280.21
102	5.8514	2.7273	0.	278.82
103	5.8514	2.5455	0.	281.99
104	5.8514	2.3636	0.	311.64
105	5.8514	2.1818	0.	437.91
106	5.8514	2.	0.	716.32
107	5.8514	1.8182	0.	1024.4
108	5.8514	1.6364	0.	1192.3
109	5.8514	1.4545	0.	1163.9
110	5.8514	1.2727	0.	1013.
111	5.8514	1.0909	0.	817.64
112	5.8514	0.90909	0.	614.69
113	5.8514	0.72727	0.	426.53
114	5.8514	0.54545	0.	268.59
115	5.8514	0.36364	0.	156.54
116	5.8514	0.18182	0.	109.69
117	5.6686	5.8182	0.	108.65
118	5.6686	5.6364	0.	151.38
119	5.6686	5.4545	0.	230.18
120	5.6686	5.2727	0.	335.93
121	5.6686	5.0909	0.	458.4
122	5.6686	4.9091	0.	582.18
123	5.6686	4.7273	0.	685.3
124	5.6686	4.5455	0.	737.41
125	5.6686	4.3636	0.	703.17
126	5.6686	4.1818	0.	564.79
127	5.6686	4.	0.	368.17
128	5.6686	3.8182	0.	192.01
129	5.6686	3.6364	0.	87.237
130	5.6686	3.4545	0.	47.977
131	5.6686	3.2727	0.	40.698
132	5.6686	3.0909	0.	41.385
133	5.6686	2.9091	0.	41.385
134	5.6686	2.7273	0.	40.698
135	5.6686	2.5455	0.	47.978
136	5.6686	2.3636	0.	87.237
137	5.6686	2.1818	0.	192.01
138	5.6686	2.	0.	368.17
139	5.6686	1.8182	0.	564.79
140	5.6686	1.6364	0.	703.17
141	5.6686	1.4545	0.	737.41
142	5.6686	1.2727	0.	685.3
143	5.6686	1.0909	0.	582.18
144	5.6686	0.90909	0.	458.4
145	5.6686	0.72727	0.	335.93
146	5.6686	0.54545	0.	230.18
147	5.6686	0.36364	0.	151.38
148	5.6686	0.18182	0.	108.65
149	5.4857	5.8182	0.	102.57
150	5.4857	5.6364	0.	144.39
151	5.4857	5.4545	0.	201.94
152	5.4857	5.2727	0.	270.35
153	5.4857	5.0909	0.	343.34
154	5.4857	4.9091	0.	409.23
155	5.4857	4.7273	0.	451.78
156	5.4857	4.5455	0.	451.98
157	5.4857	4.3636	0.	394.6
158	5.4857	4.1818	0.	282.53
159	5.4857	4.	0.	143.2
160	5.4857	3.8182	0.	26.647
161	5.4857	3.6364	0.	3.1798
162	5.4857	3.4545	0.	1.4424
163	5.4857	3.2727	0.	1.0238
164	5.4857	3.0909	0.	0.95683
165	5.4857	2.9091	0.	0.95683
166	5.4857	2.7273	0.	1.0238
167	5.4857	2.5455	0.	1.4424
168	5.4857	2.3636	0.	3.1799
169	5.4857	2.1818	0.	26.648
170	5.4857	2.	0.	143.2
171	5.4857	1.8182	0.	282.53
172	5.4857	1.6364	0.	394.6
173	5.4857	1.4545	0.	451.98
174	5.4857	1.2727	0.	451.78
175	5.4857	1.0909	0.	409.23
176	5.4857	0.90909	0.	343.34
177	5.4857	0.72727	0.	270.35
178	5.4857	0.54545	0.	201.94
179	5.4857	0.36364	0.	144.39
180	5.4857	0.18182	0.	102.57
181	5.3029	5.8182	0.	92.732
182	5.3029	5.6364	0.	132.03
183	5.3029	5.4545	0.	174.05
184	5.3029	5.2727	0.	215.78
185	5.3029	5.0909	0.	253.58
186	5.3029	4.9091	0.	279.8
187	5.3029	4.7273	0.	284.21
188	5.3029	4.5455	0.	256.77
189	5.3029	4.3636	0.	192.65
190	5.3029	4.1818	0.	98.753
191	5.3029	4.	0.	15.812
192	5.3029	3.8182	0.	3.4456
193	5.3029	3.6364	0.	1.4914
194	5.3029	3.4545	0.	0.94901
195	5.3029	3.2727	0.	0.8165
196	5.3029	3.0909	0.	0.77108
197	5.3029	2.9091	0.	0.77108
198	5.3029	2.7273	0.	0.8165
199	5.3029	2.5455	0.	0.94902
200	5.3029	2.3636	0.	1.4914
201	5.3029	2.1818	0.	3.4456
202	5.3029	2.	0.	15.812
203	5.3029	1.8182	0.	98.754
204	5.3029	1.6364	0.	192.65
205	5.3029	1.4545	0.	256.77
206	5.3029	1.2727	0.	284.21
207	5.3029	1.0909	0.	279.8
208	5.3029	0.90909	0.	253.58
209	5.3029	0.72727	0.	215.78
210	5.3029	0.54545	0.	174.05
211	5.3029	0.36364	0.	132.03
212	5.3029	0.18182	0.	92.732
213	5.12	5.8182	0.	80.488
214	5.12	5.6364	0.	114.74
215	5.12	5.4545	0.	143.96
216	5.12	5.2727	0.	166.11
217	5.12	5.0909	0.	179.3
218	5.12	4.9091	0.	179.16
219	5.12	4.7273	0.	160.15
220	5.12	4.5455	0.	118.09
221	5.12	4.3636	0.	54.93
222	5.12	4.1818	0.	9.0197
223	5.12	4.	0.	2.8498
224	5.12	3.8182	0.	1.4157
225	5.12	3.6364	0.	0.89527
226	5.12	3.4545	0.	0.67789
227	5.12	3.2727	0.	0.59436
228	5.12	3.0909	0.	0.5733
229	5.12	2.9091	0.	0.5733
230	5.12	2.7273	0.	0.59436
231	5.12	2.5455	0.	0.67789
232	5.12	2.3636	0.	0.89527
233	5.12	2.1818	0.	1.4157
234	5.12	2.	0.	2.8499
235	5.12	1.8182	0.	9.0198
236	5.12	1.6364	0.	54.931
237	5.12	1.4545	0.	118.09
238	5.12	1.2727	0.	160.15
239	5.12	1.0909	0.	179.16
240	5.12	0.90909	0.	179.3
241	5.12	0.72727	0.	166.11
242	5.12	0.54545	0.	143.96
243	5.12	0.36364	0.	114.74
244	5.12	0.18182	0.	80.488
245	4.9371	5.8182	0.	67.084
246	4.9371	5.6364	0.	94.083
247	4.9371	5.4545	0.	111.93
248	4.9371	5.2727	0.	119.14
249	4.9371	5.0909	0.	115.04
250	4.9371	4.9091	0.	97.621
251	4.9371	4.7273	0.	65.071
252	4.9371	4.5455	0.	22.346
253	4.9371	4.3636	0.	4.95
254	4.9371	4.1818	0.	2.2459
255	4.9371	4.	0.	1.3135
256	4.9371	3.8182	0.	0.84757
257	4.9371	3.6364	0.	0.59152
258	4.9371	3.4545	0.	0.46854
259	4.9371	3.2727	0.	0.4205
260	4.9371	3.0909	0.	0.40603
261	4.9371	2.9091	0.	0.40603
262	4.9371	2.7273	0.	0.4205
263	4.9371	2.5455	0.	0.46854
264	4.9371	2.3636	0.	0.59152
265	4.9371	2.1818	0.	0.84757
266	4.9371	2.	0.	1.3135
267	4.9371	1.8182	0.	2.2459
268	4.9371	1.6364	0.	4.9501
269	4.9371	1.4545	0.	22.347
270	4.9371	1.2727	0.	65.072
271	4.9371	1.0909	0.	97.622
272	4.9371	0.90909	0.	115.04
273	4.9371	0.72727	0.	119.14
274	4.9371	0.54545	0.	111.93
275	4.9371	0.36364	0.	94.083
276	4.9371	0.18182	0.	67.084
277	4.7543	5.8182	0.	53.44
278	4.7543	5.6364	0.	71.612
279	4.7543	5.4545	0.	78.946
280	4.7543	5.2727	0.	74.309
281	4.7543	5.0909	0.	57.963
282	4.7543	4.9091	0.	30.824
283	4.7543	4.7273	0.	7.4968
284	4.7543	4.5455	0.	2.8015
285	4.7543	4.3636	0.	1.6116
286	4.7543	4.1818	0.	1.0624
287	4.7543	4.	0.	0.73437
288	4.7543	3.8182	0.	0.5241
289	4.7543	3.6364	0.	0.39547
290	4.7543	3.4545	0.	0.3239
291	4.7543	3.2727	0.	0.29036
292	4.7543	3.0909	0.	0.27858
293	4.7543	2.9091	0.	0.27858
294	4.7543	2.7273	0.	0.29036
295	4.7543	2.5455	0.	0.32391
296	4.7543	2.3636	0.	0.39547
297	4.7543	2.1818	0.	0.52411
298	4.7543	2.	0.	0.73437
299	4.7543	1.8182	0.	1.0624
300	4.7543	1.6364	0.	1.6116
301	4.7543	1.4545	0.	2.8015
302	4.7543	1.2727	0.	7.4969
303	4.7543	1.0909	0.	30.824
304	4.7543	0.90909	0.	57.963
305	4.7543	0.72727	0.	74.309
306	4.7543	0.54545	0.	78.946
307	4.7543	0.36364	0.	71.612
308	4.7543	0.18182	0.	53.44
309	4.5714	5.8182	0.	40.192
310	4.5714	5.6364	0.	48.605
311	4.5714	5.4545	0.	46.102
312	4.5714	5.2727	0.	32.085
313	4.5714	5.0909	0.	11.315
314	4.5714	4.9091	0.	3.1407
315	4.5714	4.7273	0.	1.6823
316	4.5714	4.5455	0.	1.1323
317	4.5714	4.3636	0.	0.8248
318	4.5714	4.1818	0.	0.61578
319	4.5714	4.	0.	0.46163
320	4.5714	3.8182	0.	0.34795
321	4.5714	3.6364	0.	0.2694
322	4.5714	3.4545	0.	0.22134
323	4.5714	3.2727	0.	0.19619
324	4.5714	3.0909	0.	0.18605
325	4.5714	2.9091	0.	0.18605
326	4.5714	2.7273	0.	0.19619
327	4.5714	2.5455	0.	0.22134
328	4.5714	2.3636	0.	0.2694
329	4.5714	2.1818	0.	0.34795
330	4.5714	2.	0.	0.46164
331	4.5714	1.8182	0.	0.61578
332	4.5714	1.6364	0.	0.8248
333	4.5714	1.4545	0.	1.1323
334	4.5714	1.2727	0.	1.6823
335	4.5714	1.0909	0.	3.1408
336	4.5714	0.90909	0.	11.315
337	4.5714	0.72727	0.	32.086
338	4.5714	0.54545	0.	46.102
339	4.5714	0.36364	0.	48.605
340	4.5714	0.18182	0.	40.192
341	4.3886	5.8182	0.	27.768
342	4.3886	5.6364	0.	26.078
343	4.3886	5.4545	0.	15.132
344	4.3886	5.2727	0.	3.7115
345	4.3886	5.0909	0.	1.6207
346	4.3886	4.9091	0.	1.0677
347	4.3886	4.7273	0.	0.79958
348	4.3886	4.5455	0.	0.62721
349	4.3886	4.3636	0.	0.49761
350	4.3886	4.1818	0.	0.39201
351	4.3886	4.	0.	0.30456
352	4.3886	3.8182	0.	0.23485
353	4.3886	3.6364	0.	0.18337
354	4.3886	3.4545	0.	0.14904
355	4.3886	3.2727	0.	0.12913
356	4.3886	3.0909	0.	0.12032
357	4.3886	2.9091	0.	0.12032
358	4.3886	2.7273	0.	0.12913
359	4.3886	2.5455	0.	0.14904
360	4.3886	2.3636	0.	0.18337
361	4.3886	2.1818	0.	0.23486
362	4.3886	2.	0.	0.30456
363	4.3886	1.8182	0.	0.39201
364	4.3886	1.6364	0.	0.49761
365	4.3886	1.4545	0.	0.62722
366	4.3886	1.2727	0.	0.79959
367	4.3886	1.0909	0.	1.0677
368	4.3886	0.90909	0.	1.6207
369	4.3886	0.72727	0.	3.7115
370	4.3886	0.54545	0.	15.132
371	4.3886	0.36364	0.	26.079
372	4.3886	0.18182	0.	27.768
373	4.2057	5.8182	0.	16.523
374	4.2057	5.6364	0.	6.2779
375	4.2057	5.4545	0.	1.6255
376	4.2057	5.2727	0.	0.96175
377	4.2057	5.0909	0.	0.72021
378	4.2057	4.9091	0.	0.5811
379	4.2057	4.7273	0.	0.48141
380	4.2057	4.5455	0.	0.40015
381	4.2057	4.3636	0.	0.32898
382	4.2057	4.1818	0.	0.2651
383	4.2057	4.	0.	0.20869
384	4.2057	3.8182	0.	0.16125
385	4.2057	3.6364	0.	0.12421
386	4.2057	3.4545	0.	9.7962e-002
387	4.2057	3.2727	0.	8.1701e-002
388	4.2057	3.0909	0.	7.4067e-002
389	4.2057	2.9091	0.	7.4067e-002
390	4.2057	2.7273	0.	8.1701e-002
391	4.2057	2.5455	0.	9.7962e-002
392	4.2057	2.3636	0.	0.12421
393	4.2057	2.1818	0.	0.16125
394	4.2057	2.	0.	0.20869
395	4.2057	1.8182	0.	0.2651
396	4.2057	1.6364	0.	0.32898
397	4.2057	1.4545	0.	0.40015
398	4.2057	1.2727	0.	0.48142
399	4.2057	1.0909	0.	0.5811
400	4.2057	0.90909	0.	0.72021
401	4.2057	0.72727	0.	0.96176
402	4.2057	0.54545	0.	1.6255
403	4.2057	0.36364	0.	6.278
404	4.2057	0.18182	0.	16.523
405	4.0229	5.8182	0.	7.2601
406	4.0229	5.6364	0.	1.1107
407	4.0229	5.4545	0.	0.66799
408	4.0229	5.2727	0.	0.53144
409	4.0229	5.0909	0.	0.44609
410	4.0229	4.9091	0.	0.3828
411	4.0229	4.7273	0.	0.32825
412	4.0229	4.5455	0.	0.27832
413	4.0229	4.3636	0.	0.23117
414	4.0229	4.1818	0.	0.18681
415	4.0229	4.	0.	0.14631
416	4.0229	3.8182	0.	0.1112
417	4.0229	3.6364	0.	8.2815e-002
418	4.0229	3.4545	0.	6.1841e-002
419	4.0229	3.2727	0.	4.8259e-002
420	4.0229	3.0909	0.	4.1653e-002
421	4.0229	2.9091	0.	4.1653e-002
422	4.0229	2.7273	0.	4.826e-002
423	4.0229	2.5455	0.	6.1842e-002
424	4.0229	2.3636	0.	8.2816e-002
425	4.0229	2.1818	0.	0.1112
426	4.0229	2.	0.	0.14631
427	4.0229	1.8182	0.	0.18681
428	4.0229	1.6364	0.	0.23117
429	4.0229	1.4545	0.	0.27832
430	4.0229	1.2727	0.	0.32825
431	4.0229	1.0909	0.	0.3828
432	4.0229	0.90909	0.	0.4461
433	4.0229	0.72727	0.	0.53144
434	4.0229	0.54545	0.	0.66799
435	4.0229	0.36364	0.	1.1107
436	4.0229	0.18182	0.	7.2601
437	3.84	5.8182	0.	2.7206
438	3.84	5.6364	0.	0.68501
439	3.84	5.4545	0.	0.44488
440	3.84	5.2727	0.	0.37864
441	3.84	5.0909	0.	0.32423
442	3.84	4.9091	0.	0.28219
443	3.84	4.7273	0.	0.24315
444	3.84	4.5455	0.	0.20608
445	3.84	4.3636	0.	0.17021
446	3.84	4.1818	0.	0.136
447	3.84	4.	0.	0.1044
448	3.84	3.8182	0.	7.6606e-002
449	3.84	3.6364	0.	5.3672e-002
450	3.84	3.4545	0.	3.6299e-002
451	3.84	3.2727	0.	2.4756e-002
452	3.84	3.0909	0.	1.9027e-002
453	3.84	2.9091	0.	1.9028e-002
454	3.84	2.7273	0.	2.4756e-002
455	3.84	2.5455	0.	3.6299e-002
456	3.84	2.3636	0.	5.3673e-002
457	3.84	2.1818	0.	7.6606e-002
458	3.84	2.	0.	0.10441
459	3.84	1.8182	0.	0.136
460	3.84	1.6364	0.	0.17021
461	3.84	1.4545	0.	0.20608
462	3.84	1.2727	0.	0.24315
463	3.84	1.0909	0.	0.28219
464	3.84	0.90909	0.	0.32423
465	3.84	0.72727	0.	0.37864
466	3.84	0.54545	0.	0.44488
467	3.84	0.36364	0.	0.68501
468	3.84	0.18182	0.	2.7205
469	3.6571	5.8182	0.	1.7582
470	3.6571	5.6364	0.	0.59559
471	3.6571	5.4545	0.	0.35709
472	3.6571	5.2727	0.	0.3084
473	3.6571	5.0909	0.	0.26028
474	3.6571	4.9091	0.	0.22493
475	3.6571	4.7273	0.	0.19167
476	3.6571	4.5455	0.	0.16038
477	3.6571	4.3636	0.	0.13028
478	3.6571	4.1818	0.	0.10177
479	3.6571	4.	0.	7.5504e-002
480	3.6571	3.8182	0.	5.2348e-002
481	3.6571	3.6364	0.	3.3093e-002
482	3.6571	3.4545	0.	1.8327e-002
483	3.6571	3.2727	0.	8.3826e-003
484	3.6571	3.0909	0.	3.3946e-003
485	3.6571	2.9091	0.	3.3947e-003
486	3.6571	2.7273	0.	8.3827e-003
487	3.6571	2.5455	0.	1.8327e-002
488	3.6571	2.3636	0.	3.3093e-002
489	3.6571	2.1818	0.	5.2348e-002
490	3.6571	2.	0.	7.5504e-002
491	3.6571	1.8182	0.	0.10177
492	3.6571	1.6364	0.	0.13028
493	3.6571	1.4545	0.	0.16038
494	3.6571	1.2727	0.	0.19167
495	3.6571	1.0909	0.	0.22493
496	3.6571	0.90909	0.	0.26028
497	3.6571	0.72727	0.	0.3084
498	3.6571	0.54545	0.	0.35709
499	3.6571	0.36364	0.	0.59559
500	3.6571	0.18182	0.	1.7582
501	3.4743	5.8182	0.	1.5507
502	3.4743	5.6364	0.	0.58722
503	3.4743	5.4545	0.	0.31699
504	3.4743	5.2727	0.	0.27305
505	3.4743	5.0909	0.	0.22392
506	3.4743	4.9091	0.	0.19015
507	3.4743	4.7273	0.	0.15881
508	3.4743	4.5455	0.	0.13017
509	3.4743	4.3636	0.	0.1032
510	3.4743	4.1818	0.	7.8101e-002
511	3.4743	4.	0.	5.5268e-002
512	3.4743	3.8182	0.	3.5267e-002
513	3.4743	3.6364	0.	1.8651e-002
514	3.4743	3.4545	0.	5.8687e-003
515	3.4743	3.2727	0.	-2.7837e-003
516	3.4743	3.0909	0.	-7.1429e-003
517	3.4743	2.9091	0.	-7.1429e-003
518	3.4743	2.7273	0.	-2.7836e-003
519	3.4743	2.5455	0.	5.8689e-003
520	3.4743	2.3636	0.	1.8651e-002
521	3.4743	2.1818	0.	3.5267e-002
522	3.4743	2.	0.	5.5268e-002
523	3.4743	1.8182	0.	7.8101e-002
524	3.4743	1.6364	0.	0.1032
525	3.4743	1.4545	0.	0.13018
526	3.4743	1.2727	0.	0.15882
527	3.4743	1.0909	0.	0.19015
528	3.4743	0.90909	0.	0.22392
529	3.4743	0.72727	0.	0.27305
530	3.4743	0.54545	0.	0.31699
531	3.4743	0.36364	0.	0.58722
532	3.4743	0.18182	0.	1.5507
533	3.2914	5.8182	0.	1.5569
534	3.2914	5.6364	0.	0.61185
535	3.2914	5.4545	0.	0.29967
536	3.2914	5.2727	0.	0.25576
537	3.2914	5.0909	0.	0.20278
538	3.2914	4.9091	0.	0.1684
539	3.2914	4.7273	0.	0.13719
540	3.2914	4.5455	0.	0.10965
541	3.2914	4.3636	0.	8.4414e-002
542	3.2914	4.1818	0.	6.15e-002
543	3.2914	4.	0.	4.1036e-002
544	3.2914	3.8182	0.	2.3339e-002
545	3.2914	3.6364	0.	8.7485e-003
546	3.2914	3.4545	0.	-2.4387e-003
547	3.2914	3.2727	0.	-1.0007e-002
548	3.2914	3.0909	0.	-1.3822e-002
549	3.2914	2.9091	0.	-1.3822e-002
550	3.2914	2.7273	0.	-1.0007e-002
551	3.2914	2.5455	0.	-2.4386e-003
552	3.2914	2.3636	0.	8.7488e-003
553	3.2914	2.1818	0.	2.334e-002
554	3.2914	2.	0.	4.1037e-002
555	3.2914	1.8182	0.	6.1501e-002
556	3.2914	1.6364	0.	8.4414e-002
557	3.2914	1.4545	0.	0.10965
558	3.2914	1.2727	0.	0.13719
559	3.2914	1.0909	0.	0.1684
560	3.2914	0.90909	0.	0.20278
561	3.2914	0.72727	0.	0.25576
562	3.2914	0.54545	0.	0.29967
563	3.2914	0.36364	0.	0.61185
564	3.2914	0.18182	0.	1.5569
565	3.1086	5.8182	0.	1.6733
566	3.1086	5.6364	0.	0.65481
567	3.1086	5.4545	0.	0.29569
568	3.1086	5.2727	0.	0.24935
569	3.1086	5.0909	0.	0.19104
570	3.1086	4.9091	0.	0.15486
571	3.1086	4.7273	0.	0.12281
572	3.1086	4.5455	0.	9.552e-002
573	3.1086	4.3636	0.	7.1264e-002
574	3.1086	4.1818	0.	4.9851e-002
575	3.1086	4.	0.	3.1162e-002
576	3.1086	3.8182	0.	1.5287e-002
577	3.1086	3.6364	0.	2.3623e-003
578	3.1086	3.4545	0.	-7.4658e-003
579	3.1086	3.2727	0.	-1.4083e-002
580	3.1086	3.0909	0.	-1.7411e-002
581	3.1086	2.9091	0.	-1.7411e-002
582	3.1086	2.7273	0.	-1.4083e-002
583	3.1086	2.5455	0.	-7.4656e-003
584	3.1086	2.3636	0.	2.3625e-003
585	3.1086	2.1818	0.	1.5287e-002
586	3.1086	2.	0.	3.1162e-002
587	3.1086	1.8182	0.	4.9852e-002
588	3.1086	1.6364	0.	7.1264e-002
589	3.1086	1.4545	0.	9.552e-002
590	3.1086	1.2727	0.	0.12281
591	3.1086	1.0909	0.	0.15486
592	3.1086	0.90909	0.	0.19104
593	3.1086	0.72727	0.	0.24935
594	3.1086	0.54545	0.	0.29569
595	3.1086	0.36364	0.	0.65481
596	3.1086	0.18182	0.	1.6733
597	2.9257	5.8182	0.	1.8783
598	2.9257	5.6364	0.	0.71082
599	2.9257	5.4545	0.	0.30087
600	2.9257	5.2727	0.	0.25035
601	2.9257	5.0909	0.	0.18567
602	2.9257	4.9091	0.	0.14691
603	2.9257	4.7273	0.	0.11339
604	2.9257	4.5455	0.	8.5845e-002
605	2.9257	4.3636	0.	6.2138e-002
606	2.9257	4.1818	0.	4.1857e-002
607	2.9257	4.	0.	2.4629e-002
608	2.9257	3.8182	0.	1.0321e-002
609	2.9257	3.6364	0.	-1.1279e-003
610	2.9257	3.4545	0.	-9.7262e-003
611	2.9257	3.2727	0.	-1.5468e-002
612	2.9257	3.0909	0.	-1.8343e-002
613	2.9257	2.9091	0.	-1.8343e-002
614	2.9257	2.7273	0.	-1.5468e-002
615	2.9257	2.5455	0.	-9.726e-003
616	2.9257	2.3636	0.	-1.1276e-003
617	2.9257	2.1818	0.	1.0321e-002
618	2.9257	2.	0.	2.463e-002
619	2.9257	1.8182	0.	4.1857e-002
620	2.9257	1.6364	0.	6.2139e-002
621	2.9257	1.4545	0.	8.5845e-002
622	2.9257	1.2727	0.	0.11339
623	2.9257	1.0909	0.	0.14691
624	2.9257	0.90909	0.	0.18568
625	2.9257	0.72727	0.	0.25035
626	2.9257	0.54545	0.	0.30087
627	2.9257	0.36364	0.	0.71082
628	2.9257	0.18182	0.	1.8783
629	2.7429	5.8182	0.	2.1787
630	2.7429	5.6364	0.	0.7782
631	2.7429	5.4545	0.	0.31329
632	2.7429	5.2727	0.	0.25699
633	2.7429	5.0909	0.	0.185
634	2.7429	4.9091	0.	0.143
635	2.7429	4.7273	0.	0.10757
636	2.7429	4.5455	0.	7.9448e-002
637	2.7429	4.3636	0.	5.6068e-002
638	2.7429	4.1818	0.	3.6753e-002
639	2.7429	4.	0.	2.0861e-002
640	2.7429	3.8182	0.	8.0182e-003
641	2.7429	3.6364	0.	-2.0317e-003
642	2.7429	3.4545	0.	-9.4544e-003
643	2.7429	3.2727	0.	-1.4355e-002
644	2.7429	3.0909	0.	-1.6792e-002
645	2.7429	2.9091	0.	-1.6792e-002
646	2.7429	2.7273	0.	-1.4355e-002
647	2.7429	2.5455	0.	-9.4542e-003
648	2.7429	2.3636	0.	-2.0316e-003
649	2.7429	2.1818	0.	8.0185e-003
650	2.7429	2.	0.	2.0861e-002
651	2.7429	1.8182	0.	3.6754e-002
652	2.7429	1.6364	0.	5.6068e-002
653	2.7429	1.4545	0.	7.9448e-002
654	2.7429	1.2727	0.	0.10757
655	2.7429	1.0909	0.	0.143
656	2.7429	0.90909	0.	0.18501
657	2.7429	0.72727	0.	0.25699
658	2.7429	0.54545	0.	0.31329
659	2.7429	0.36364	0.	0.77821
660	2.7429	0.18182	0.	2.1787
661	2.56	5.8182	0.	2.5999
662	2.56	5.6364	0.	0.85701
663	2.56	5.4545	0.	0.33205
664	2.56	5.2727	0.	0.2683
665	2.56	5.0909	0.	0.188
666	2.56	4.9091	0.	0.14215
667	2.56	4.7273	0.	0.10444
668	2.56	4.5455	0.	7.557e-002
669	2.56	4.3636	0.	5.2449e-002
670	2.56	4.1818	0.	3.4092e-002
671	2.56	4.	0.	1.9542e-002
672	2.56	3.8182	0.	8.1742e-003
673	2.56	3.6364	0.	-4.7611e-004
674	2.56	3.4545	0.	-6.7274e-003
675	2.56	3.2727	0.	-1.0792e-002
676	2.56	3.0909	0.	-1.2796e-002
677	2.56	2.9091	0.	-1.2796e-002
678	2.56	2.7273	0.	-1.0792e-002
679	2.56	2.5455	0.	-6.7273e-003
680	2.56	2.3636	0.	-4.7597e-004
681	2.56	2.1818	0.	8.1743e-003
682	2.56	2.	0.	1.9542e-002
683	2.56	1.8182	0.	3.4093e-002
684	2.56	1.6364	0.	5.245e-002
685	2.56	1.4545	0.	7.557e-002
686	2.56	1.2727	0.	0.10444
687	2.56	1.0909	0.	0.14215
688	2.56	0.90909	0.	0.18801
689	2.56	0.72727	0.	0.2683
690	2.56	0.54545	0.	0.33205
691	2.56	0.36364	0.	0.85701
692	2.56	0.18182	0.	2.5999
693	2.3771	5.8182	0.	3.1898
694	2.3771	5.6364	0.	0.94844
695	2.3771	5.4545	0.	0.35702
696	2.3771	5.2727	0.	0.28393
697	2.3771	5.0909	0.	0.19419
698	2.3771	4.9091	0.	0.14388
699	2.3771	4.7273	0.	0.10362
700	2.3771	4.5455	0.	7.3946e-002
701	2.3771	4.3636	0.	5.1163e-002
702	2.3771	4.1818	0.	3.3883e-002
703	2.3771	4.	0.	2.0789e-002
704	2.3771	3.8182	0.	1.0977e-002
705	2.3771	3.6364	0.	3.7729e-003
706	2.3771	3.4545	0.	-1.2872e-003
707	2.3771	3.2727	0.	-4.5114e-003
708	2.3771	3.0909	0.	-6.0817e-003
709	2.3771	2.9091	0.	-6.0816e-003
710	2.3771	2.7273	0.	-4.5114e-003
711	2.3771	2.5455	0.	-1.287e-003
712	2.3771	2.3636	0.	3.773e-003
713	2.3771	2.1818	0.	1.0977e-002
714	2.3771	2.	0.	2.0789e-002
715	2.3771	1.8182	0.	3.3884e-002
716	2.3771	1.6364	0.	5.1163e-002
717	2.3771	1.4545	0.	7.3947e-002
718	2.3771	1.2727	0.	0.10362
719	2.3771	1.0909	0.	0.14388
720	2.3771	0.90909	0.	0.19419
721	2.3771	0.72727	0.	0.28393
722	2.3771	0.54545	0.	0.35702
723	2.3771	0.36364	0.	0.94844
724	2.3771	0.18182	0.	3.1898
725	2.1943	5.8182	0.	4.0305
726	2.1943	5.6364	0.	1.0542
727	2.1943	5.4545	0.	0.38799
728	2.1943	5.2727	0.	0.30329
729	2.1943	5.0909	0.	0.20272
730	2.1943	4.9091	0.	0.14731
731	2.1943	4.7273	0.	0.1043
732	2.1943	4.5455	0.	7.3921e-002
733	2.1943	4.3636	0.	5.1687e-002
734	2.1943	4.1818	0.	3.5709e-002
735	2.1943	4.	0.	2.4246e-002
736	2.1943	3.8182	0.	1.6098e-002
737	2.1943	3.6364	0.	1.0389e-002
738	2.1943	3.4545	0.	6.529e-003
739	2.1943	3.2727	0.	4.136e-003
740	2.1943	3.0909	0.	2.9897e-003
741	2.1943	2.9091	0.	2.9897e-003
742	2.1943	2.7273	0.	4.1361e-003
743	2.1943	2.5455	0.	6.5291e-003
744	2.1943	2.3636	0.	1.0389e-002
745	2.1943	2.1818	0.	1.6098e-002
746	2.1943	2.	0.	2.4247e-002
747	2.1943	1.8182	0.	3.5709e-002
748	2.1943	1.6364	0.	5.1687e-002
749	2.1943	1.4545	0.	7.3922e-002
750	2.1943	1.2727	0.	0.1043
751	2.1943	1.0909	0.	0.14731
752	2.1943	0.90909	0.	0.20272
753	2.1943	0.72727	0.	0.30329
754	2.1943	0.54545	0.	0.38799
755	2.1943	0.36364	0.	1.0542
756	2.1943	0.18182	0.	4.0305
757	2.0114	5.8182	0.	5.2656
758	2.0114	5.6364	0.	1.1783
759	2.0114	5.4545	0.	0.42704
760	2.0114	5.2727	0.	0.32813
761	2.0114	5.0909	0.	0.21525
762	2.0114	4.9091	0.	0.15424
763	2.0114	4.7273	0.	0.1085
764	2.0114	4.5455	0.	7.7729e-002
765	2.0114	4.3636	0.	5.6431e-002
766	2.0114	4.1818	0.	4.2084e-002
767	2.0114	4.	0.	3.2464e-002
768	2.0114	3.8182	0.	2.6076e-002
769	2.0114	3.6364	0.	2.1871e-002
770	2.0114	3.4545	0.	1.9174e-002
771	2.0114	3.2727	0.	1.7566e-002
772	2.0114	3.0909	0.	1.6814e-002
773	2.0114	2.9091	0.	1.6814e-002
774	2.0114	2.7273	0.	1.7566e-002
775	2.0114	2.5455	0.	1.9174e-002
776	2.0114	2.3636	0.	2.1871e-002
777	2.0114	2.1818	0.	2.6076e-002
778	2.0114	2.	0.	3.2465e-002
779	2.0114	1.8182	0.	4.2084e-002
780	2.0114	1.6364	0.	5.6432e-002
781	2.0114	1.4545	0.	7.7729e-002
782	2.0114	1.2727	0.	0.1085
783	2.0114	1.0909	0.	0.15424
784	2.0114	0.90909	0.	0.21525
785	2.0114	0.72727	0.	0.32813
786	2.0114	0.54545	0.	0.42704
787	2.0114	0.36364	0.	1.1783
788	2.0114	0.18182	0.	5.2656
789	1.8286	5.8182	0.	7.1476
790	1.8286	5.6364	0.	1.3201
791	1.8286	5.4545	0.	0.46915
792	1.8286	5.2727	0.	0.352
793	1.8286	5.0909	0.	0.22455
794	1.8286	4.9091	0.	0.15716
795	1.8286	4.7273	0.	0.1087
796	1.8286	4.5455	0.	7.7874e-002
797	1.8286	4.3636	0.	5.7866e-002
798	1.8286	4.1818	0.	4.5365e-002
799	1.8286	4.	0.	3.7635e-002
800	1.8286	3.8182	0.	3.2917e-002
801	1.8286	3.6364	0.	3.0053e-002
802	1.8286	3.4545	0.	2.8341e-002
803	1.8286	3.2727	0.	2.7372e-002
804	1.8286	3.0909	0.	2.6933e-002
805	1.8286	2.9091	0.	2.6933e-002
806	1.8286	2.7273	0.	2.7372e-002
807	1.8286	2.5455	0.	2.8341e-002
808	1.8286	2.3636	0.	3.0053e-002
809	1.8286	2.1818	0.	3.2917e-002
810	1.8286	2.	0.	3.7635e-002
811	1.8286	1.8182	0.	4.5365e-002
812	1.8286	1.6364	0.	5.7866e-002
813	1.8286	1.4545	0.	7.7874e-002
814	1.8286	1.2727	0.	0.1087
815	1.8286	1.0909	0.	0.15716
816	1.8286	0.90909	0.	0.22455
817	1.8286	0.72727	0.	0.352
818	1.8286	0.54545	0.	0.46915
819	1.8286	0.36364	0.	1.3201
820	1.8286	0.18182	0.	7.1476
821	1.6457	5.8182	0.	10.139
822	1.6457	5.6364	0.	1.5026
823	1.6457	5.4545	0.	0.53967
824	1.6457	5.2727	0.	0.40259
825	1.6457	5.0909	0.	0.26011
826	1.6457	4.9091	0.	0.18719
827	1.6457	4.7273	0.	0.1373
828	1.6457	4.5455	0.	0.10766
829	1.6457	4.3636	0.	8.9844e-002
830	1.6457	4.1818	0.	7.9676e-002
831	1.6457	4.	0.	7.3976e-002
832	1.6457	3.8182	0.	7.0842e-002
833	1.6457	3.6364	0.	6.9121e-002
834	1.6457	3.4545	0.	6.8174e-002
835	1.6457	3.2727	0.	6.7668e-002
836	1.6457	3.0909	0.	6.7446e-002
837	1.6457	2.9091	0.	6.7446e-002
838	1.6457	2.7273	0.	6.7668e-002
839	1.6457	2.5455	0.	6.8174e-002
840	1.6457	2.3636	0.	6.9121e-002
841	1.6457	2.1818	0.	7.0842e-002
842	1.6457	2.	0.	7.3976e-002
843	1.6457	1.8182	0.	7.9676e-002
844	1.6457	1.6364	0.	8.9845e-002
845	1.6457	1.4545	0.	0.10766
846	1.6457	1.2727	0.	0.1373
847	1.6457	1.0909	0.	0.18719
848	1.6457	0.90909	0.	0.26011
849	1.6457	0.72727	0.	0.40259
850	1.6457	0.54545	0.	0.53967
851	1.6457	0.36364	0.	1.5026
852	1.6457	0.18182	0.	10.139
853	1.4629	5.8182	0.	14.976
854	1.4629	5.6364	0.	1.6628
855	1.4629	5.4545	0.	0.54713
856	1.4629	5.2727	0.	0.37489
857	1.4629	5.0909	0.	0.20895
858	1.4629	4.9091	0.	0.1263
859	1.4629	4.7273	0.	7.2625e-002
860	1.4629	4.5455	0.	4.2484e-002
861	1.4629	4.3636	0.	2.5236e-002
862	1.4629	4.1818	0.	1.5743e-002
863	1.4629	4.	0.	1.0448e-002
864	1.4629	3.8182	0.	7.4158e-003
865	1.4629	3.6364	0.	5.586e-003
866	1.4629	3.4545	0.	4.4408e-003
867	1.4629	3.2727	0.	3.7468e-003
868	1.4629	3.0909	0.	3.4137e-003
869	1.4629	2.9091	0.	3.4136e-003
870	1.4629	2.7273	0.	3.7468e-003
871	1.4629	2.5455	0.	4.4409e-003
872	1.4629	2.3636	0.	5.5859e-003
873	1.4629	2.1818	0.	7.4158e-003
874	1.4629	2.	0.	1.0448e-002
875	1.4629	1.8182	0.	1.5743e-002
876	1.4629	1.6364	0.	2.5236e-002
877	1.4629	1.4545	0.	4.2484e-002
878	1.4629	1.2727	0.	7.2625e-002
879	1.4629	1.0909	0.	0.1263
880	1.4629	0.90909	0.	0.20895
881	1.4629	0.72727	0.	0.37489
882	1.4629	0.54545	0.	0.54713
883	1.4629	0.36364	0.	1.6628
884	1.4629	0.18182	0.	14.976
885	1.28	5.8182	0.	22.815
886	1.28	5.6364	0.	2.0906
887	1.28	5.4545	0.	0.87082
888	1.28	5.2727	0.	0.69537
889	1.28	5.0909	0.	0.52812
890	1.28	4.9091	0.	0.45302
891	1.28	4.7273	0.	0.40841
892	1.28	4.5455	0.	0.38696
893	1.28	4.3636	0.	0.37653
894	1.28	4.1818	0.	0.37188
895	1.28	4.	0.	0.36975
896	1.28	3.8182	0.	0.36867
897	1.28	3.6364	0.	0.36798
898	1.28	3.4545	0.	0.36746
899	1.28	3.2727	0.	0.36709
900	1.28	3.0909	0.	0.36689
901	1.28	2.9091	0.	0.36689
902	1.28	2.7273	0.	0.36709
903	1.28	2.5455	0.	0.36746
904	1.28	2.3636	0.	0.36798
905	1.28	2.1818	0.	0.36867
906	1.28	2.	0.	0.36975
907	1.28	1.8182	0.	0.37188
908	1.28	1.6364	0.	0.37653
909	1.28	1.4545	0.	0.38696
910	1.28	1.2727	0.	0.40841
911	1.28	1.0909	0.	0.45302
912	1.28	0.90909	0.	0.52813
913	1.28	0.72727	0.	0.69537
914	1.28	0.54545	0.	0.87082
915	1.28	0.36364	0.	2.0906
916	1.28	0.18182	0.	22.815
917	1.0971	5.8182	0.	34.352
918	1.0971	5.6364	0.	1.6889
919	1.0971	5.4545	0.	3.6898e-002
920	1.0971	5.2727	0.	-0.30052
921	1.0971	5.0909	0.	-0.56713
922	1.0971	4.9091	0.	-0.70157
923	1.0971	4.7273	0.	-0.78601
924	1.0971	4.5455	0.	-0.83669
925	1.0971	4.3636	0.	-0.8702
926	1.0971	4.1818	0.	-0.89364
927	1.0971	4.	0.	-0.91105
928	1.0971	3.8182	0.	-0.92431
929	1.0971	3.6364	0.	-0.93439
930	1.0971	3.4545	0.	-0.94171
931	1.0971	3.2727	0.	-0.94652
932	1.0971	3.0909	0.	-0.9489
933	1.0971	2.9091	0.	-0.9489
934	1.0971	2.7273	0.	-0.94652
935	1.0971	2.5455	0.	-0.94171
936	1.0971	2.3636	0.	-0.93439
937	1.0971	2.1818	0.	-0.92431
938	1.0971	2.	0.	-0.91105
939	1.0971	1.8182	0.	-0.89364
940	1.0971	1.6364	0.	-0.8702
941	1.0971	1.4545	0.	-0.83669
942	1.0971	1.2727	0.	-0.78601
943	1.0971	1.0909	0.	-0.70157
944	1.0971	0.90909	0.	-0.56713
945	1.0971	0.72727	0.	-0.30052
946	1.0971	0.54545	0.	3.6897e-002
947	1.0971	0.36364	0.	1.6889
948	1.0971	0.18182	0.	34.352
949	0.91429	5.8182	0.	51.213
950	0.91429	5.6364	0.	4.9388
951	0.91429	5.4545	0.	3.9737
952	0.91429	5.2727	0.	4.0375
953	0.91429	5.0909	0.	4.0359
954	0.91429	4.9091	0.	4.0976
955	0.91429	4.7273	0.	4.1579
956	0.91429	4.5455	0.	4.2146
957	0.91429	4.3636	0.	4.261
958	0.91429	4.1818	0.	4.2975
959	0.91429	4.	0.	4.3251
960	0.91429	3.8182	0.	4.3456
961	0.91429	3.6364	0.	4.3604
962	0.91429	3.4545	0.	4.3705
963	0.91429	3.2727	0.	4.3769
964	0.91429	3.0909	0.	4.3799
965	0.91429	2.9091	0.	4.3799
966	0.91429	2.7273	0.	4.3769
967	0.91429	2.5455	0.	4.3705
968	0.91429	2.3636	0.	4.3604
969	0.91429	2.1818	0.	4.3456
970	0.91429	2.	0.	4.3251
971	0.91429	1.8182	0.	4.2975
972	0.91429	1.6364	0.	4.261
973	0.91429	1.4545	0.	4.2146
974	0.91429	1.2727	0.	4.1579
975	0.91429	1.0909	0.	4.0976
976	0.91429	0.90909	0.	4.0359
977	0.91429	0.72727	0.	4.0375
978	0.91429	0.54545	0.	3.9737
979	0.91429	0.36364	0.	4.9388
980	0.91429	0.18182	0.	51.213
981	0.73143	5.8182	0.	69.495
982	0.73143	5.6364	0.	-5.823
983	0.73143	5.4545	0.	-10.688
984	0.73143	5.2727	0.	-12.477
985	0.73143	5.0909	0.	-13.709
986	0.73143	4.9091	0.	-14.49
987	0.73143	4.7273	0.	-15.046
988	0.73143	4.5455	0.	-15.452
989	0.73143	4.3636	0.	-15.76
990	0.73143	4.1818	0.	-15.997
991	0.73143	4.	0.	-16.179
992	0.73143	3.8182	0.	-16.317
993	0.73143	3.6364	0.	-16.421
994	0.73143	3.4545	0.	-16.494
995	0.73143	3.2727	0.	-16.541
996	0.73143	3.0909	0.	-16.564
997	0.73143	2.9091	0.	-16.564
998	0.73143	2.7273	0.	-16.541
999	0.73143	2.5455	0.	-16.494
1000	0.73143	2.3636	0.	-16.421
1001	0.73143	2.1818	0.	-16.317
1002	0.73143	2.	0.	-16.179
1003	0.73143	1.8182	0.	-15.997
1004	0.73143	1.6364	0.	-15.76
1005	0.73143	1.4545	0.	-15.452
1006	0.73143	1.2727	0.	-15.046
1007	0.73143	1.0909	0.	-14.49
1008	0.73143	0.90909	0.	-13.709
1009	0.73143	0.72727	0.	-12.477
1010	0.73143	0.54545	0.	-10.688
1011	0.73143	0.36364	0.	-5.823
1012	0.73143	0.18182	0.	69.495
1013	0.54857	5.8182	0.	100.66
1014	0.54857	5.6364	0.	40.769
1015	0.54857	5.4545	0.	49.47
1016	0.54857	5.2727	0.	54.095
1017	0.54857	5.0909	0.	57.307
1018	0.54857	4.9091	0.	59.663
1019	0.54857	4.7273	0.	61.407
1020	0.54857	4.5455	0.	62.724
1021	0.54857	4.3636	0.	63.732
1022	0.54857	4.1818	0.	64.506
1023	0.54857	4.	0.	65.101
1024	0.54857	3.8182	0.	65.553
1025	0.54857	3.6364	0.	65.888
1026	0.54857	3.4545	0.	66.126
1027	0.54857	3.2727	0.	66.278
1028	0.54857	3.0909	0.	66.352
1029	0.54857	2.9091	0.	66.352
1030	0.54857	2.7273	0.	66.278
1031	0.54857	2.5455	0.	66.126
1032	0.54857	2.3636	0.	65.888
1033	0.54857	2.1818	0.	65.553
1034	0.54857	2.	0.	65.101
1035	0.54857	1.8182	0.	64.506
1036	0.54857	1.6364	0.	63.732
1037	0.54857	1.4545	0.	62.724
1038	0.54857	1.2727	0.	61.407
1039	0.54857	1.0909	0.	59.663
1040	0.54857	0.90909	0.	57.307
1041	0.54857	0.72727	0.	54.095
1042	0.54857	0.54545	0.	49.47
1043	0.54857	0.36364	0.	40.769
1044	0.54857	0.18182	0.	100.66
1045	0.36571	5.8182	0.	87.099
1046	0.36571	5.6364	0.	-138.98
1047	0.36571	5.4545	0.	-184.65
1048	0.36571	5.2727	0.	-207.66
1049	0.36571	5.0909	0.	-222.45
1050	0.36571	4.9091	0.	-232.79
1051	0.36571	4.7273	0.	-240.32
1052	0.36571	4.5455	0.	-245.95
1053	0.36571	4.3636	0.	-250.25
1054	0.36571	4.1818	0.	-253.54
1055	0.36571	4.	0.	-256.07
1056	0.36571	3.8182	0.	-257.99
1057	0.36571	3.6364	0.	-259.41
1058	0.36571	3.4545	0.	-260.42
1059	0.36571	3.2727	0.	-261.06
1060	0.36571	3.0909	0.	-261.38
1061	0.36571	2.9091	0.	-261.38
1062	0.36571	2.7273	0.	-261.06
1063	0.36571	2.5455	0.	-260.42
1064	0.36571	2.3636	0.	-259.41
1065	0.36571	2.1818	0.	-257.99
1066	0.36571	2.	0.	-256.07
1067	0.36571	1.8182	0.	-253.54
1068	0.36571	1.6364	0.	-250.25
1069	0.36571	1.4545	0.	-245.95
1070	0.36571	1.2727	0.	-240.32
1071	0.36571	1.0909	0.	-232.79
1072	0.36571	0.90909	0.	-222.45
1073	0.36571	0.72727	0.	-207.66
1074	0.36571	0.54545	0.	-184.65
1075	0.36571	0.36364	0.	-138.98
1076	0.36571	0.18182	0.	87.099
1077	0.18286	5.8182	0.	317.3
1078	0.18286	5.6364	0.	614.58
1079	0.18286	5.4545	0.	746.62
1080	0.18286	5.2727	0.	831.58
1081	0.18286	5.0909	0.	885.89
1082	0.18286	4.9091	0.	924.97
1083	0.18286	4.7273	0.	953.53
1084	0.18286	4.5455	0.	975.08
1085	0.18286	4.3636	0.	991.54
1086	0.18286	4.1818	0.	1004.2
1087	0.18286	4.	0.	1013.9
1088	0.18286	3.8182	0.	1021.3
1089	0.18286	3.6364	0.	1026.8
1090	0.18286	3.4545	0.	1030.7
1091	0.18286	3.2727	0.	1033.2
1092	0.18286	3.0909	0.	1034.4
1093	0.18286	2.9091	0.	1034.4
1094	0.18286	2.7273	0.	1033.2
1095	0.18286	2.5455	0.	1030.7
1096	0.18286	2.3636	0.	1026.8
1097	0.18286	2.1818	0.	1021.3
1098	0.18286	2.	0.	1013.9
1099	0.18286	1.8182	0.	1004.2
1100	0.18286	1.6364	0.	991.54
1101	0.18286	1.4545	0.	975.08
1102	0.18286	1.2727	0.	953.53
1103	0.18286	1.0909	0.	924.97
1104	0.18286	0.90909	0.	885.89
1105	0.18286	0.72727	0.	831.58
1106	0.18286	0.54545	0.	746.62
1107	0.18286	0.36364	0.	614.58
1108	0.18286	0.18182	0.	317.3
1109	6.7502	5.8182	0.	126.81
1110	6.9337	5.8182	0.	93.398
1111	7.1172	5.8182	0.	93.923
1112	7.3007	5.8182	0.	94.328
1113	7.4842	5.8182	0.	90.336
1114	7.6677	5.8182	0.	83.155
1115	7.8512	5.8182	0.	74.072
1116	8.0347	5.8182	0.	64.236
1117	8.2182	5.8182	0.	54.467
1118	8.4018	5.8182	0.	45.294
1119	8.5853	5.8182	0.	37.011
1120	8.7688	5.8182	0.	29.747
1121	8.9523	5.8182	0.	23.526
1122	9.1358	5.8182	0.	18.305
1123	9.3193	5.8182	0.	14.006
1124	9.5028	5.8182	0.	10.535
1125	9.6863	5.8182	0.	7.7944
1126	9.8698	5.8182	0.	5.6871
1127	10.053	5.8182	0.	4.1243
1128	10.237	5.8182	0.	3.0241
1129	10.42	5.8182	0.	2.3099
1130	10.604	5.8182	0.	1.9087
1131	10.787	5.8182	0.	1.7532
1132	10.971	5.8182	0.	1.79
1133	11.154	5.8182	0.	1.9822
1134	11.338	5.8182	0.	2.3028
1135	11.521	5.8182	0.	2.7275
1136	11.705	5.8182	0.	3.2337
1137	11.888	5.8182	0.	3.8011
1138	12.072	5.8182	0.	4.4121
1139	12.255	5.8182	0.	5.0526
1140	12.439	5.8182	0.	5.7109
1141	12.622	5.8182	0.	6.378
1142	12.806	5.8182	0.	7.0466
1143	12.989	5.8182	0.	7.7113
1144	13.173	5.8182	0.	8.368
1145	13.356	5.8182	0.	9.0138
1146	13.54	5.8182	0.	9.6466
1147	13.724	5.8182	0.	10.265
1148	13.907	5.8182	0.	10.869
1149	14.091	5.8182	0.	11.458
1150	14.274	5.8182	0.	12.032
1151	14.458	5.8182	0.	12.591
1152	14.641	5.8182	0.	13.136
1153	14.825	5.8182	0.	13.669
1154	15.008	5.8182	0.	14.189
1155	15.192	5.8182	0.	14.698
1156	15.375	5.8182	0.	15.198
1157	15.559	5.8182	0.	15.688
1158	15.742	5.8182	0.	16.171
1159	15.926	5.8182	0.	16.648
1160	16.109	5.8182	0.	17.119
1161	16.293	5.8182	0.	17.586
1162	16.476	5.8182	0.	18.049
1163	16.66	5.8182	0.	18.511
1164	16.843	5.8182	0.	18.971
1165	17.027	5.8182	0.	19.432
1166	17.21	5.8182	0.	19.893
1167	17.394	5.8182	0.	20.356
1168	17.577	5.8182	0.	20.821
1169	17.761	5.8182	0.	21.289
1170	17.944	5.8182	0.	21.762
1171	18.128	5.8182	0.	22.238
1172	18.311	5.8182	0.	22.72
1173	18.495	5.8182	0.	23.208
1174	18.678	5.8182	0.	23.701
1175	18.862	5.8182	0.	24.2
1176	19.045	5.8182	0.	24.705
1177	19.229	5.8182	0.	25.217
1178	19.412	5.8182	0.	25.734
1179	19.596	5.8182	0.	26.257
1180	19.779	5.8182	0.	26.785
1181	19.963	5.8182	0.	27.317
1182	20.146	5.8182	0.	27.852
1183	20.33	5.8182	0.	28.389
1184	20.513	5.8182	0.	28.925
1185	20.697	5.8182	0.	29.46
1186	20.88	5.8182	0.	29.99
1187	21.064	5.8182	0.	30.513
1188	21.247	5.8182	0.	31.024
1189	21.431	5.8182	0.	31.52
1190	21.614	5.8182	0.	31.995
1191	21.798	5.8182	0.	32.442
1192	21.981	5.8182	0.	32.856
1193	22.165	5.8182	0.	33.226
1194	22.348	5.8182	0.	33.542
1195	22.532	5.8182	0.	33.791
1196	22.715	5.8182	0.	33.957
1197	22.899	5.8182	0.	34.022
1198	23.082	5.8182	0.	33.964
1199	23.266	5.8182	0.	33.768
1200	23.449	5.8182	0.	33.435
1201	23.633	5.8182	0.	33.117
1202	23.816	5.8182	0.	34.116
1203	6.7502	5.6364	0.	257.46
1204	6.9337	5.6364	0.	140.76
1205	7.1172	5.6364	0.	122.17
1206	7.3007	5.6364	0.	120.58
1207	7.4842	5.6364	0.	118.27
1208	7.6677	5.6364	0.	112.09
1209	7.8512	5.6364	0.	102.35
1210	8.0347	5.6364	0.	90.323
1211	8.2182	5.6364	0.	77.313
1212	8.4018	5.6364	0.	64.33
1213	8.5853	5.6364	0.	52.062
1214	8.7688	5.6364	0.	40.922
1215	8.9523	5.6364	0.	31.115
1216	9.1358	5.6364	0.	22.699
1217	9.3193	5.6364	0.	15.642
1218	9.5028	5.6364	0.	9.8562
1219	9.6863	5.6364	0.	5.2367
1220	9.8698	5.6364	0.	1.7517
1221	10.053	5.6364	0.	0.26393
1222	10.237	5.6364	0.	0.11104
1223	10.42	5.6364	0.	7.6177e-002
1224	10.604	5.6364	0.	6.1926e-002
1225	10.787	5.6364	0.	5.4147e-002
1226	10.971	5.6364	0.	4.8926e-002
1227	11.154	5.6364	0.	4.4919e-002
1228	11.338	5.6364	0.	4.1599e-002
1229	11.521	5.6364	0.	3.8647e-002
1230	11.705	5.6364	0.	3.5967e-002
1231	11.888	5.6364	0.	3.3558e-002
1232	12.072	5.6364	0.	3.1548e-002
1233	12.255	5.6364	0.	3.043e-002
1234	12.439	5.6364	0.	3.2948e-002
1235	12.622	5.6364	0.	0.21016
1236	12.806	5.6364	0.	1.105
1237	12.989	5.6364	0.	2.0178
1238	13.173	5.6364	0.	2.9152
1239	13.356	5.6364	0.	3.7913
1240	13.54	5.6364	0.	4.6429
1241	13.724	5.6364	0.	5.4681
1242	13.907	5.6364	0.	6.266
1243	14.091	5.6364	0.	7.0364
1244	14.274	5.6364	0.	7.7797
1245	14.458	5.6364	0.	8.4967
1246	14.641	5.6364	0.	9.1886
1247	14.825	5.6364	0.	9.8571
1248	15.008	5.6364	0.	10.504
1249	15.192	5.6364	0.	11.13
1250	15.375	5.6364	0.	11.738
1251	15.559	5.6364	0.	12.329
1252	15.742	5.6364	0.	12.906
1253	15.926	5.6364	0.	13.471
1254	16.109	5.6364	0.	14.024
1255	16.293	5.6364	0.	14.569
1256	16.476	5.6364	0.	15.106
1257	16.66	5.6364	0.	15.639
1258	16.843	5.6364	0.	16.168
1259	17.027	5.6364	0.	16.695
1260	17.21	5.6364	0.	17.222
1261	17.394	5.6364	0.	17.751
1262	17.577	5.6364	0.	18.283
1263	17.761	5.6364	0.	18.82
1264	17.944	5.6364	0.	19.364
1265	18.128	5.6364	0.	19.915
1266	18.311	5.6364	0.	20.476
1267	18.495	5.6364	0.	21.047
1268	18.678	5.6364	0.	21.631
1269	18.862	5.6364	0.	22.228
1270	19.045	5.6364	0.	22.839
1271	19.229	5.6364	0.	23.467
1272	19.412	5.6364	0.	24.112
1273	19.596	5.6364	0.	24.774
1274	19.779	5.6364	0.	25.457
1275	19.963	5.6364	0.	26.159
1276	20.146	5.6364	0.	26.882
1277	20.33	5.6364	0.	27.627
1278	20.513	5.6364	0.	28.395
1279	20.697	5.6364	0.	29.186
1280	20.88	5.6364	0.	30.001
1281	21.064	5.6364	0.	30.841
1282	21.247	5.6364	0.	31.706
1283	21.431	5.6364	0.	32.598
1284	21.614	5.6364	0.	33.518
1285	21.798	5.6364	0.	34.468
1286	21.981	5.6364	0.	35.451
1287	22.165	5.6364	0.	36.472
1288	22.348	5.6364	0.	37.54
1289	22.532	5.6364	0.	38.667
1290	22.715	5.6364	0.	39.877
1291	22.899	5.6364	0.	41.21
1292	23.082	5.6364	0.	42.736
1293	23.266	5.6364	0.	44.6
1294	23.449	5.6364	0.	47.081
1295	23.633	5.6364	0.	50.879
1296	23.816	5.6364	0.	57.341
1297	6.7502	5.4545	0.	466.34
1298	6.9337	5.4545	0.	267.75
1299	7.1172	5.4545	0.	200.82
1300	7.3007	5.4545	0.	172.34
1301	7.4842	5.4545	0.	154.57
1302	7.6677	5.4545	0.	138.66
1303	7.8512	5.4545	0.	122.12
1304	8.0347	5.4545	0.	104.92
1305	8.2182	5.4545	0.	87.693
1306	8.4018	5.4545	0.	71.159
1307	8.5853	5.4545	0.	55.854
1308	8.7688	5.4545	0.	42.115
1309	8.9523	5.4545	0.	30.106
1310	9.1358	5.4545	0.	19.862
1311	9.3193	5.4545	0.	11.346
1312	9.5028	5.4545	0.	4.5618
1313	9.6863	5.4545	0.	0.7423
1314	9.8698	5.4545	0.	0.21703
1315	10.053	5.4545	0.	0.11497
1316	10.237	5.4545	0.	7.5176e-002
1317	10.42	5.4545	0.	5.4578e-002
1318	10.604	5.4545	0.	4.2137e-002
1319	10.787	5.4545	0.	3.382e-002
1320	10.971	5.4545	0.	2.7811e-002
1321	11.154	5.4545	0.	2.3276e-002
1322	11.338	5.4545	0.	1.9778e-002
1323	11.521	5.4545	0.	1.6954e-002
1324	11.705	5.4545	0.	1.4618e-002
1325	11.888	5.4545	0.	1.2637e-002
1326	12.072	5.4545	0.	1.0935e-002
1327	12.255	5.4545	0.	9.4685e-003
1328	12.439	5.4545	0.	8.205e-003
1329	12.622	5.4545	0.	7.1894e-003
1330	12.806	5.4545	0.	6.3747e-003
1331	12.989	5.4545	0.	5.7949e-003
1332	13.173	5.4545	0.	5.9273e-003
1333	13.356	5.4545	0.	2.4104e-002
1334	13.54	5.4545	0.	1.0221
1335	13.724	5.4545	0.	2.0952
1336	13.907	5.4545	0.	3.1273
1337	14.091	5.4545	0.	4.118
1338	14.274	5.4545	0.	5.0682
1339	14.458	5.4545	0.	5.9793
1340	14.641	5.4545	0.	6.8535
1341	14.825	5.4545	0.	7.6931
1342	15.008	5.4545	0.	8.5003
1343	15.192	5.4545	0.	9.2778
1344	15.375	5.4545	0.	10.028
1345	15.559	5.4545	0.	10.754
1346	15.742	5.4545	0.	11.459
1347	15.926	5.4545	0.	12.145
1348	16.109	5.4545	0.	12.815
1349	16.293	5.4545	0.	13.472
1350	16.476	5.4545	0.	14.117
1351	16.66	5.4545	0.	14.755
1352	16.843	5.4545	0.	15.387
1353	17.027	5.4545	0.	16.017
1354	17.21	5.4545	0.	16.645
1355	17.394	5.4545	0.	17.276
1356	17.577	5.4545	0.	17.911
1357	17.761	5.4545	0.	18.553
1358	17.944	5.4545	0.	19.205
1359	18.128	5.4545	0.	19.868
1360	18.311	5.4545	0.	20.545
1361	18.495	5.4545	0.	21.238
1362	18.678	5.4545	0.	21.95
1363	18.862	5.4545	0.	22.683
1364	19.045	5.4545	0.	23.439
1365	19.229	5.4545	0.	24.222
1366	19.412	5.4545	0.	25.032
1367	19.596	5.4545	0.	25.874
1368	19.779	5.4545	0.	26.749
1369	19.963	5.4545	0.	27.659
1370	20.146	5.4545	0.	28.609
1371	20.33	5.4545	0.	29.6
1372	20.513	5.4545	0.	30.635
1373	20.697	5.4545	0.	31.719
1374	20.88	5.4545	0.	32.854
1375	21.064	5.4545	0.	34.046
1376	21.247	5.4545	0.	35.298
1377	21.431	5.4545	0.	36.618
1378	21.614	5.4545	0.	38.012
1379	21.798	5.4545	0.	39.492
1380	21.981	5.4545	0.	41.069
1381	22.165	5.4545	0.	42.763
1382	22.348	5.4545	0.	44.599
1383	22.532	5.4545	0.	46.613
1384	22.715	5.4545	0.	48.86
1385	22.899	5.4545	0.	51.424
1386	23.082	5.4545	0.	54.436
1387	23.266	5.4545	0.	58.114
1388	23.449	5.4545	0.	62.787
1389	23.633	5.4545	0.	69.037
1390	23.816	5.4545	0.	77.456
1391	6.7502	5.2727	0.	715.78
1392	6.9337	5.2727	0.	439.59
1393	7.1172	5.2727	0.	313.29
1394	7.3007	5.2727	0.	241.54
1395	7.4842	5.2727	0.	194.86
1396	7.6677	5.2727	0.	160.31
1397	7.8512	5.2727	0.	131.86
1398	8.0347	5.2727	0.	107.06
1399	8.2182	5.2727	0.	84.989
1400	8.4018	5.2727	0.	65.341
1401	8.5853	5.2727	0.	48.027
1402	8.7688	5.2727	0.	33.006
1403	8.9523	5.2727	0.	20.233
1404	9.1358	5.2727	0.	9.7375
1405	9.3193	5.2727	0.	2.4812
1406	9.5028	5.2727	0.	0.58571
1407	9.6863	5.2727	0.	0.26111
1408	9.8698	5.2727	0.	0.15167
1409	10.053	5.2727	0.	0.10048
1410	10.237	5.2727	0.	7.2132e-002
1411	10.42	5.2727	0.	5.4679e-002
1412	10.604	5.2727	0.	4.3093e-002
1413	10.787	5.2727	0.	3.4937e-002
1414	10.971	5.2727	0.	2.8891e-002
1415	11.154	5.2727	0.	2.4285e-002
1416	11.338	5.2727	0.	2.0732e-002
1417	11.521	5.2727	0.	1.7886e-002
1418	11.705	5.2727	0.	1.5559e-002
1419	11.888	5.2727	0.	1.3619e-002
1420	12.072	5.2727	0.	1.1982e-002
1421	12.255	5.2727	0.	1.0603e-002
1422	12.439	5.2727	0.	9.4468e-003
1423	12.622	5.2727	0.	8.549e-003
1424	12.806	5.2727	0.	7.8547e-003
1425	12.989	5.2727	0.	7.3274e-003
1426	13.173	5.2727	0.	7.0658e-003
1427	13.356	5.2727	0.	7.2477e-003
1428	13.54	5.2727	0.	8.4583e-003
1429	13.724	5.2727	0.	1.3971e-002
1430	13.907	5.2727	0.	0.22063
1431	14.091	5.2727	0.	1.3859
1432	14.274	5.2727	0.	2.5403
1433	14.458	5.2727	0.	3.6449
1434	14.641	5.2727	0.	4.7006
1435	14.825	5.2727	0.	5.7104
1436	15.008	5.2727	0.	6.6776
1437	15.192	5.2727	0.	7.6055
1438	15.375	5.2727	0.	8.4978
1439	15.559	5.2727	0.	9.358
1440	15.742	5.2727	0.	10.19
1441	15.926	5.2727	0.	10.997
1442	16.109	5.2727	0.	11.783
1443	16.293	5.2727	0.	12.552
1444	16.476	5.2727	0.	13.306
1445	16.66	5.2727	0.	14.05
1446	16.843	5.2727	0.	14.786
1447	17.027	5.2727	0.	15.518
1448	17.21	5.2727	0.	16.249
1449	17.394	5.2727	0.	16.983
1450	17.577	5.2727	0.	17.723
1451	17.761	5.2727	0.	18.472
1452	17.944	5.2727	0.	19.233
1453	18.128	5.2727	0.	20.01
1454	18.311	5.2727	0.	20.806
1455	18.495	5.2727	0.	21.624
1456	18.678	5.2727	0.	22.467
1457	18.862	5.2727	0.	23.34
1458	19.045	5.2727	0.	24.245
1459	19.229	5.2727	0.	25.187
1460	19.412	5.2727	0.	26.168
1461	19.596	5.2727	0.	27.194
1462	19.779	5.2727	0.	28.267
1463	19.963	5.2727	0.	29.393
1464	20.146	5.2727	0.	30.576
1465	20.33	5.2727	0.	31.821
1466	20.513	5.2727	0.	33.133
1467	20.697	5.2727	0.	34.519
1468	20.88	5.2727	0.	35.985
1469	21.064	5.2727	0.	37.54
1470	21.247	5.2727	0.	39.192
1471	21.431	5.2727	0.	40.953
1472	21.614	5.2727	0.	42.837
1473	21.798	5.2727	0.	44.86
1474	21.981	5.2727	0.	47.046
1475	22.165	5.2727	0.	49.423
1476	22.348	5.2727	0.	52.031
1477	22.532	5.2727	0.	54.922
1478	22.715	5.2727	0.	58.171
1479	22.899	5.2727	0.	61.882
1480	23.082	5.2727	0.	66.203
1481	23.266	5.2727	0.	71.34
1482	23.449	5.2727	0.	77.548
1483	23.633	5.2727	0.	85.189
1484	23.816	5.2727	0.	94.469
1485	6.7502	5.0909	0.	1005.3
1486	6.9337	5.0909	0.	641.27
1487	7.1172	5.0909	0.	446.01
1488	7.3007	5.0909	0.	319.45
1489	7.4842	5.0909	0.	234.1
1490	7.6677	5.0909	0.	174.42
1491	7.8512	5.0909	0.	130.55
1492	8.0347	5.0909	0.	96.78
1493	8.2182	5.0909	0.	69.82
1494	8.4018	5.0909	0.	47.82
1495	8.5853	5.0909	0.	29.745
1496	8.7688	5.0909	0.	15.155
1497	8.9523	5.0909	0.	4.9139
1498	9.1358	5.0909	0.	1.3389
1499	9.3193	5.0909	0.	0.5718
1500	9.5028	5.0909	0.	0.31326
1501	9.6863	5.0909	0.	0.19511
1502	9.8698	5.0909	0.	0.13155
1503	10.053	5.0909	0.	9.3715e-002
1504	10.237	5.0909	0.	6.9595e-002
1505	10.42	5.0909	0.	5.3383e-002
1506	10.604	5.0909	0.	4.2026e-002
1507	10.787	5.0909	0.	3.3786e-002
1508	10.971	5.0909	0.	2.7598e-002
1509	11.154	5.0909	0.	2.2882e-002
1510	11.338	5.0909	0.	1.928e-002
1511	11.521	5.0909	0.	1.6444e-002
1512	11.705	5.0909	0.	1.4181e-002
1513	11.888	5.0909	0.	1.2344e-002
1514	12.072	5.0909	0.	1.084e-002
1515	12.255	5.0909	0.	9.6127e-003
1516	12.439	5.0909	0.	8.6181e-003
1517	12.622	5.0909	0.	7.8826e-003
1518	12.806	5.0909	0.	7.3343e-003
1519	12.989	5.0909	0.	6.9169e-003
1520	13.173	5.0909	0.	6.6755e-003
1521	13.356	5.0909	0.	6.6571e-003
1522	13.54	5.0909	0.	6.9733e-003
1523	13.724	5.0909	0.	7.9274e-003
1524	13.907	5.0909	0.	1.0314e-002
1525	14.091	5.0909	0.	1.8538e-002
1526	14.274	5.0909	0.	0.21213
1527	14.458	5.0909	0.	1.4276
1528	14.641	5.0909	0.	2.6568
1529	14.825	5.0909	0.	3.8323
1530	15.008	5.0909	0.	4.9554
1531	15.192	5.0909	0.	6.03
1532	15.375	5.0909	0.	7.0605
1533	15.559	5.0909	0.	8.0515
1534	15.742	5.0909	0.	9.0075
1535	15.926	5.0909	0.	9.9329
1536	16.109	5.0909	0.	10.832
1537	16.293	5.0909	0.	11.71
1538	16.476	5.0909	0.	12.57
1539	16.66	5.0909	0.	13.417
1540	16.843	5.0909	0.	14.255
1541	17.027	5.0909	0.	15.088
1542	17.21	5.0909	0.	15.921
1543	17.394	5.0909	0.	16.756
1544	17.577	5.0909	0.	17.599
1545	17.761	5.0909	0.	18.454
1546	17.944	5.0909	0.	19.324
1547	18.128	5.0909	0.	20.214
1548	18.311	5.0909	0.	21.128
1549	18.495	5.0909	0.	22.07
1550	18.678	5.0909	0.	23.045
1551	18.862	5.0909	0.	24.057
1552	19.045	5.0909	0.	25.111
1553	19.229	5.0909	0.	26.212
1554	19.412	5.0909	0.	27.365
1555	19.596	5.0909	0.	28.575
1556	19.779	5.0909	0.	29.848
1557	19.963	5.0909	0.	31.19
1558	20.146	5.0909	0.	32.608
1559	20.33	5.0909	0.	34.109
1560	20.513	5.0909	0.	35.7
1561	20.697	5.0909	0.	37.39
1562	20.88	5.0909	0.	39.189
1563	21.064	5.0909	0.	41.109
1564	21.247	5.0909	0.	43.162
1565	21.431	5.0909	0.	45.365
1566	21.614	5.0909	0.	47.736
1567	21.798	5.0909	0.	50.298
1568	21.981	5.0909	0.	53.081
1569	22.165	5.0909	0.	56.121
1570	22.348	5.0909	0.	59.465
1571	22.532	5.0909	0.	63.176
1572	22.715	5.0909	0.	67.333
1573	22.899	5.0909	0.	72.04
1574	23.082	5.0909	0.	77.428
1575	23.266	5.0909	0.	83.662
1576	23.449	5.0909	0.	90.904
1577	23.633	5.0909	0.	99.373
1578	23.816	5.0909	0.	109.09
1579	6.7502	4.9091	0.	1345.
1580	6.9337	4.9091	0.	865.81
1581	7.1172	4.9091	0.	584.94
1582	7.3007	4.9091	0.	392.83
1583	7.4842	4.9091	0.	262.79
1584	7.6677	4.9091	0.	175.3
1585	7.8512	4.9091	0.	115.43
1586	8.0347	4.9091	0.	73.321
1587	8.2182	4.9091	0.	42.889
1588	8.4018	4.9091	0.	20.852
1589	8.5853	4.9091	0.	7.0916
1590	8.7688	4.9091	0.	2.3235
1591	8.9523	4.9091	0.	1.0574
1592	9.1358	4.9091	0.	0.58496
1593	9.3193	4.9091	0.	0.3601
1594	9.5028	4.9091	0.	0.23728
1595	9.6863	4.9091	0.	0.16412
1596	9.8698	4.9091	0.	0.11783
1597	10.053	4.9091	0.	8.7169e-002
1598	10.237	4.9091	0.	6.6155e-002
1599	10.42	4.9091	0.	5.1317e-002
1600	10.604	4.9091	0.	4.0575e-002
1601	10.787	4.9091	0.	3.262e-002
1602	10.971	4.9091	0.	2.658e-002
1603	11.154	4.9091	0.	2.1962e-002
1604	11.338	4.9091	0.	1.8442e-002
1605	11.521	4.9091	0.	1.5693e-002
1606	11.705	4.9091	0.	1.3521e-002
1607	11.888	4.9091	0.	1.1782e-002
1608	12.072	4.9091	0.	1.0379e-002
1609	12.255	4.9091	0.	9.2537e-003
1610	12.439	4.9091	0.	8.3578e-003
1611	12.622	4.9091	0.	7.7109e-003
1612	12.806	4.9091	0.	7.2382e-003
1613	12.989	4.9091	0.	6.8717e-003
1614	13.173	4.9091	0.	6.6441e-003
1615	13.356	4.9091	0.	6.5684e-003
1616	13.54	4.9091	0.	6.6836e-003
1617	13.724	4.9091	0.	7.1099e-003
1618	13.907	4.9091	0.	7.9814e-003
1619	14.091	4.9091	0.	9.7673e-003
1620	14.274	4.9091	0.	1.4222e-002
1621	14.458	4.9091	0.	3.63e-002
1622	14.641	4.9091	0.	0.74624
1623	14.825	4.9091	0.	2.0657
1624	15.008	4.9091	0.	3.3373
1625	15.192	4.9091	0.	4.553
1626	15.375	4.9091	0.	5.7166
1627	15.559	4.9091	0.	6.8334
1628	15.742	4.9091	0.	7.9088
1629	15.926	4.9091	0.	8.948
1630	16.109	4.9091	0.	9.9565
1631	16.293	4.9091	0.	10.939
1632	16.476	4.9091	0.	11.902
1633	16.66	4.9091	0.	12.849
1634	16.843	4.9091	0.	13.785
1635	17.027	4.9091	0.	14.716
1636	17.21	4.9091	0.	15.646
1637	17.394	4.9091	0.	16.58
1638	17.577	4.9091	0.	17.524
1639	17.761	4.9091	0.	18.481
1640	17.944	4.9091	0.	19.457
1641	18.128	4.9091	0.	20.458
1642	18.311	4.9091	0.	21.487
1643	18.495	4.9091	0.	22.551
1644	18.678	4.9091	0.	23.654
1645	18.862	4.9091	0.	24.803
1646	19.045	4.9091	0.	26.004
1647	19.229	4.9091	0.	27.261
1648	19.412	4.9091	0.	28.583
1649	19.596	4.9091	0.	29.975
1650	19.779	4.9091	0.	31.444
1651	19.963	4.9091	0.	33.
1652	20.146	4.9091	0.	34.649
1653	20.33	4.9091	0.	36.401
1654	20.513	4.9091	0.	38.266
1655	20.697	4.9091	0.	40.256
1656	20.88	4.9091	0.	42.382
1657	21.064	4.9091	0.	44.659
1658	21.247	4.9091	0.	47.104
1659	21.431	4.9091	0.	49.735
1660	21.614	4.9091	0.	52.575
1661	21.798	4.9091	0.	55.653
1662	21.981	4.9091	0.	59.
1663	22.165	4.9091	0.	62.658
1664	22.348	4.9091	0.	66.677
1665	22.532	4.9091	0.	71.119
1666	22.715	4.9091	0.	76.06
1667	22.899	4.9091	0.	81.59
1668	23.082	4.9091	0.	87.815
1669	23.266	4.9091	0.	94.852
1670	23.449	4.9091	0.	102.79
1671	23.633	4.9091	0.	111.78
1672	23.816	4.9091	0.	121.74
1673	6.7502	4.7273	0.	1756.6
1674	6.9337	4.7273	0.	1107.1
1675	7.1172	4.7273	0.	709.58
1676	7.3007	4.7273	0.	443.01
1677	7.4842	4.7273	0.	268.16
1678	7.6677	4.7273	0.	155.73
1679	7.8512	4.7273	0.	83.514
1680	8.0347	4.7273	0.	37.39
1681	8.2182	4.7273	0.	11.7
1682	8.4018	4.7273	0.	3.7491
1683	8.5853	4.7273	0.	1.7395
1684	8.7688	4.7273	0.	0.97947
1685	8.9523	4.7273	0.	0.6087
1686	9.1358	4.7273	0.	0.40146
1687	9.3193	4.7273	0.	0.27583
1688	9.5028	4.7273	0.	0.19543
1689	9.6863	4.7273	0.	0.14197
1690	9.8698	4.7273	0.	0.10534
1691	10.053	4.7273	0.	7.9615e-002
1692	10.237	4.7273	0.	6.121e-002
1693	10.42	4.7273	0.	4.7805e-002
1694	10.604	4.7273	0.	3.7892e-002
1695	10.787	4.7273	0.	3.045e-002
1696	10.971	4.7273	0.	2.4755e-002
1697	11.154	4.7273	0.	2.0394e-002
1698	11.338	4.7273	0.	1.7083e-002
1699	11.521	4.7273	0.	1.4513e-002
1700	11.705	4.7273	0.	1.2503e-002
1701	11.888	4.7273	0.	1.0914e-002
1702	12.072	4.7273	0.	9.6488e-003
1703	12.255	4.7273	0.	8.651e-003
1704	12.439	4.7273	0.	7.8717e-003
1705	12.622	4.7273	0.	7.3282e-003
1706	12.806	4.7273	0.	6.9448e-003
1707	12.989	4.7273	0.	6.6478e-003
1708	13.173	4.7273	0.	6.4638e-003
1709	13.356	4.7273	0.	6.3922e-003
1710	13.54	4.7273	0.	6.4562e-003
1711	13.724	4.7273	0.	6.7204e-003
1712	13.907	4.7273	0.	7.2131e-003
1713	14.091	4.7273	0.	8.067e-003
1714	14.274	4.7273	0.	9.6485e-003
1715	14.458	4.7273	0.	1.3145e-002
1716	14.641	4.7273	0.	2.6204e-002
1717	14.825	4.7273	0.	0.45467
1718	15.008	4.7273	0.	1.8338
1719	15.192	4.7273	0.	3.1814
1720	15.375	4.7273	0.	4.4714
1721	15.559	4.7273	0.	5.7078
1722	15.742	4.7273	0.	6.8967
1723	15.926	4.7273	0.	8.0442
1724	16.109	4.7273	0.	9.1564
1725	16.293	4.7273	0.	10.239
1726	16.476	4.7273	0.	11.299
1727	16.66	4.7273	0.	12.341
1728	16.843	4.7273	0.	13.371
1729	17.027	4.7273	0.	14.395
1730	17.21	4.7273	0.	15.418
1731	17.394	4.7273	0.	16.447
1732	17.577	4.7273	0.	17.486
1733	17.761	4.7273	0.	18.542
1734	17.944	4.7273	0.	19.62
1735	18.128	4.7273	0.	20.727
1736	18.311	4.7273	0.	21.867
1737	18.495	4.7273	0.	23.048
1738	18.678	4.7273	0.	24.276
1739	18.862	4.7273	0.	25.557
1740	19.045	4.7273	0.	26.898
1741	19.229	4.7273	0.	28.307
1742	19.412	4.7273	0.	29.792
1743	19.596	4.7273	0.	31.36
1744	19.779	4.7273	0.	33.019
1745	19.963	4.7273	0.	34.781
1746	20.146	4.7273	0.	36.653
1747	20.33	4.7273	0.	38.648
1748	20.513	4.7273	0.	40.778
1749	20.697	4.7273	0.	43.055
1750	20.88	4.7273	0.	45.494
1751	21.064	4.7273	0.	48.113
1752	21.247	4.7273	0.	50.929
1753	21.431	4.7273	0.	53.966
1754	21.614	4.7273	0.	57.247
1755	21.798	4.7273	0.	60.803
1756	21.981	4.7273	0.	64.668
1757	22.165	4.7273	0.	68.885
1758	22.348	4.7273	0.	73.501
1759	22.532	4.7273	0.	78.574
1760	22.715	4.7273	0.	84.17
1761	22.899	4.7273	0.	90.364
1762	23.082	4.7273	0.	97.234
1763	23.266	4.7273	0.	104.86
1764	23.449	4.7273	0.	113.29
1765	23.633	4.7273	0.	122.62
1766	23.816	4.7273	0.	132.72
1767	6.7502	4.5455	0.	2256.6
1768	6.9337	4.5455	0.	1329.5
1769	7.1172	4.5455	0.	787.39
1770	7.3007	4.5455	0.	445.67
1771	7.4842	4.5455	0.	236.55
1772	7.6677	4.5455	0.	110.07
1773	7.8512	4.5455	0.	36.446
1774	8.0347	4.5455	0.	8.0133
1775	8.2182	4.5455	0.	2.9895
1776	8.4018	4.5455	0.	1.5843
1777	8.5853	4.5455	0.	0.96868
1778	8.7688	4.5455	0.	0.63703
1779	8.9523	4.5455	0.	0.43748
1780	9.1358	4.5455	0.	0.30934
1781	9.3193	4.5455	0.	0.22352
1782	9.5028	4.5455	0.	0.16434
1783	9.6863	4.5455	0.	0.12264
1784	9.8698	4.5455	0.	9.2738e-002
1785	10.053	4.5455	0.	7.0994e-002
1786	10.237	4.5455	0.	5.5021e-002
1787	10.42	4.5455	0.	4.3161e-002
1788	10.604	4.5455	0.	3.4271e-002
1789	10.787	4.5455	0.	2.754e-002
1790	10.971	4.5455	0.	2.2365e-002
1791	11.154	4.5455	0.	1.8402e-002
1792	11.338	4.5455	0.	1.5409e-002
1793	11.521	4.5455	0.	1.3104e-002
1794	11.705	4.5455	0.	1.1318e-002
1795	11.888	4.5455	0.	9.9214e-003
1796	12.072	4.5455	0.	8.827e-003
1797	12.255	4.5455	0.	7.9775e-003
1798	12.439	4.5455	0.	7.3283e-003
1799	12.622	4.5455	0.	6.8957e-003
1800	12.806	4.5455	0.	6.6066e-003
1801	12.989	4.5455	0.	6.3864e-003
1802	13.173	4.5455	0.	6.2568e-003
1803	13.356	4.5455	0.	6.2159e-003
1804	13.54	4.5455	0.	6.271e-003
1805	13.724	4.5455	0.	6.4795e-003
1806	13.907	4.5455	0.	6.8249e-003
1807	14.091	4.5455	0.	7.3609e-003
1808	14.274	4.5455	0.	8.2192e-003
1809	14.458	4.5455	0.	9.7054e-003
1810	14.641	4.5455	0.	1.2984e-002
1811	14.825	4.5455	0.	2.517e-002
1812	15.008	4.5455	0.	0.47997
1813	15.192	4.5455	0.	1.9236
1814	15.375	4.5455	0.	3.3305
1815	15.559	4.5455	0.	4.6789
1816	15.742	4.5455	0.	5.9743
1817	15.926	4.5455	0.	7.2232
1818	16.109	4.5455	0.	8.4327
1819	16.293	4.5455	0.	9.6093
1820	16.476	4.5455	0.	10.76
1821	16.66	4.5455	0.	11.891
1822	16.843	4.5455	0.	13.009
1823	17.027	4.5455	0.	14.121
1824	17.21	4.5455	0.	15.232
1825	17.394	4.5455	0.	16.349
1826	17.577	4.5455	0.	17.479
1827	17.761	4.5455	0.	18.628
1828	17.944	4.5455	0.	19.802
1829	18.128	4.5455	0.	21.009
1830	18.311	4.5455	0.	22.254
1831	18.495	4.5455	0.	23.546
1832	18.678	4.5455	0.	24.891
1833	18.862	4.5455	0.	26.298
1834	19.045	4.5455	0.	27.773
1835	19.229	4.5455	0.	29.325
1836	19.412	4.5455	0.	30.964
1837	19.596	4.5455	0.	32.699
1838	19.779	4.5455	0.	34.539
1839	19.963	4.5455	0.	36.495
1840	20.146	4.5455	0.	38.579
1841	20.33	4.5455	0.	40.804
1842	20.513	4.5455	0.	43.183
1843	20.697	4.5455	0.	45.73
1844	20.88	4.5455	0.	48.464
1845	21.064	4.5455	0.	51.401
1846	21.247	4.5455	0.	54.563
1847	21.431	4.5455	0.	57.973
1848	21.614	4.5455	0.	61.658
1849	21.798	4.5455	0.	65.647
1850	21.981	4.5455	0.	69.976
1851	22.165	4.5455	0.	74.684
1852	22.348	4.5455	0.	79.815
1853	22.532	4.5455	0.	85.421
1854	22.715	4.5455	0.	91.555
1855	22.899	4.5455	0.	98.276
1856	23.082	4.5455	0.	105.64
1857	23.266	4.5455	0.	113.7
1858	23.449	4.5455	0.	122.47
1859	23.633	4.5455	0.	132.04
1860	23.816	4.5455	0.	142.24
1861	6.7502	4.3636	0.	2965.9
1862	6.9337	4.3636	0.	1462.4
1863	7.1172	4.3636	0.	754.41
1864	7.3007	4.3636	0.	376.5
1865	7.4842	4.3636	0.	160.48
1866	7.6677	4.3636	0.	42.935
1867	7.8512	4.3636	0.	7.276
1868	8.0347	4.3636	0.	2.833
1869	8.2182	4.3636	0.	1.5587
1870	8.4018	4.3636	0.	0.98566
1871	8.5853	4.3636	0.	0.66647
1872	8.7688	4.3636	0.	0.46872
1873	8.9523	4.3636	0.	0.33783
1874	9.1358	4.3636	0.	0.24769
1875	9.3193	4.3636	0.	0.18396
1876	9.5028	4.3636	0.	0.13807
1877	9.6863	4.3636	0.	0.1046
1878	9.8698	4.3636	0.	7.9944e-002
1879	10.053	4.3636	0.	6.162e-002
1880	10.237	4.3636	0.	4.7946e-002
1881	10.42	4.3636	0.	3.7676e-002
1882	10.604	4.3636	0.	2.9922e-002
1883	10.787	4.3636	0.	2.4028e-002
1884	10.971	4.3636	0.	1.9491e-002
1885	11.154	4.3636	0.	1.6027e-002
1886	11.338	4.3636	0.	1.3436e-002
1887	11.521	4.3636	0.	1.1459e-002
1888	11.705	4.3636	0.	9.9478e-003
1889	11.888	4.3636	0.	8.784e-003
1890	12.072	4.3636	0.	7.8863e-003
1891	12.255	4.3636	0.	7.2054e-003
1892	12.439	4.3636	0.	6.6998e-003
1893	12.622	4.3636	0.	6.3917e-003
1894	12.806	4.3636	0.	6.2054e-003
1895	12.989	4.3636	0.	6.0694e-003
1896	13.173	4.3636	0.	6.0056e-003
1897	13.356	4.3636	0.	6.0089e-003
1898	13.54	4.3636	0.	6.0865e-003
1899	13.724	4.3636	0.	6.28e-003
1900	13.907	4.3636	0.	6.5662e-003
1901	14.091	4.3636	0.	6.9616e-003
1902	14.274	4.3636	0.	7.5289e-003
1903	14.458	4.3636	0.	8.3738e-003
1904	14.641	4.3636	0.	9.8935e-003
1905	14.825	4.3636	0.	1.3409e-002
1906	15.008	4.3636	0.	2.9572e-002
1907	15.192	4.3636	0.	0.79423
1908	15.375	4.3636	0.	2.2998
1909	15.559	4.3636	0.	3.7511
1910	15.742	4.3636	0.	5.1446
1911	15.926	4.3636	0.	6.4871
1912	16.109	4.3636	0.	7.7862
1913	16.293	4.3636	0.	9.0493
1914	16.476	4.3636	0.	10.284
1915	16.66	4.3636	0.	11.497
1916	16.843	4.3636	0.	12.696
1917	17.027	4.3636	0.	13.889
1918	17.21	4.3636	0.	15.081
1919	17.394	4.3636	0.	16.28
1920	17.577	4.3636	0.	17.494
1921	17.761	4.3636	0.	18.729
1922	17.944	4.3636	0.	19.992
1923	18.128	4.3636	0.	21.292
1924	18.311	4.3636	0.	22.635
1925	18.495	4.3636	0.	24.03
1926	18.678	4.3636	0.	25.484
1927	18.862	4.3636	0.	27.006
1928	19.045	4.3636	0.	28.606
1929	19.229	4.3636	0.	30.292
1930	19.412	4.3636	0.	32.074
1931	19.596	4.3636	0.	33.964
1932	19.779	4.3636	0.	35.971
1933	19.963	4.3636	0.	38.109
1934	20.146	4.3636	0.	40.389
1935	20.33	4.3636	0.	42.826
1936	20.513	4.3636	0.	45.434
1937	20.697	4.3636	0.	48.231
1938	20.88	4.3636	0.	51.234
1939	21.064	4.3636	0.	54.462
1940	21.247	4.3636	0.	57.938
1941	21.431	4.3636	0.	61.685
1942	21.614	4.3636	0.	65.731
1943	21.798	4.3636	0.	70.104
1944	21.981	4.3636	0.	74.837
1945	22.165	4.3636	0.	79.968
1946	22.348	4.3636	0.	85.536
1947	22.532	4.3636	0.	91.583
1948	22.715	4.3636	0.	98.153
1949	22.899	4.3636	0.	105.29
1950	23.082	4.3636	0.	113.03
1951	23.266	4.3636	0.	121.41
1952	23.449	4.3636	0.	130.44
1953	23.633	4.3636	0.	140.17
1954	23.816	4.3636	0.	150.43
1955	6.7502	4.1818	0.	3304.2
1956	6.9337	4.1818	0.	1343.9
1957	7.1172	4.1818	0.	566.6
1958	7.3007	4.1818	0.	233.04
1959	7.4842	4.1818	0.	55.646
1960	7.6677	4.1818	0.	7.4249
1961	7.8512	4.1818	0.	2.7983
1962	8.0347	4.1818	0.	1.5733
1963	8.2182	4.1818	0.	1.0054
1964	8.4018	4.1818	0.	0.69287
1965	8.5853	4.1818	0.	0.49469
1966	8.7688	4.1818	0.	0.3616
1967	8.9523	4.1818	0.	0.26803
1968	9.1358	4.1818	0.	0.20065
1969	9.3193	4.1818	0.	0.15132
1970	9.5028	4.1818	0.	0.11483
1971	9.6863	4.1818	0.	8.7643e-002
1972	9.8698	4.1818	0.	6.7279e-002
1973	10.053	4.1818	0.	5.1961e-002
1974	10.237	4.1818	0.	4.0437e-002
1975	10.42	4.1818	0.	3.174e-002
1976	10.604	4.1818	0.	2.5163e-002
1977	10.787	4.1818	0.	2.017e-002
1978	10.971	4.1818	0.	1.6336e-002
1979	11.154	4.1818	0.	1.343e-002
1980	11.338	4.1818	0.	1.1289e-002
1981	11.521	4.1818	0.	9.6816e-003
1982	11.705	4.1818	0.	8.4757e-003
1983	11.888	4.1818	0.	7.5669e-003
1984	12.072	4.1818	0.	6.8829e-003
1985	12.255	4.1818	0.	6.3834e-003
1986	12.439	4.1818	0.	6.0316e-003
1987	12.622	4.1818	0.	5.8528e-003
1988	12.806	4.1818	0.	5.7734e-003
1989	12.989	4.1818	0.	5.7268e-003
1990	13.173	4.1818	0.	5.7336e-003
1991	13.356	4.1818	0.	5.7891e-003
1992	13.54	4.1818	0.	5.8984e-003
1993	13.724	4.1818	0.	6.1039e-003
1994	13.907	4.1818	0.	6.3682e-003
1995	14.091	4.1818	0.	6.6993e-003
1996	14.274	4.1818	0.	7.1276e-003
1997	14.458	4.1818	0.	7.6879e-003
1998	14.641	4.1818	0.	8.5739e-003
1999	14.825	4.1818	0.	1.025e-002
2000	15.008	4.1818	0.	1.4562e-002
2001	15.192	4.1818	0.	6.1253e-002
2002	15.375	4.1818	0.	1.3858
2003	15.559	4.1818	0.	2.9284
2004	15.742	4.1818	0.	4.4106
2005	15.926	4.1818	0.	5.8377
2006	16.109	4.1818	0.	7.2179
2007	16.293	4.1818	0.	8.5591
2008	16.476	4.1818	0.	9.8696
2009	16.66	4.1818	0.	11.157
2010	16.843	4.1818	0.	12.43
2011	17.027	4.1818	0.	13.695
2012	17.21	4.1818	0.	14.961
2013	17.394	4.1818	0.	16.234
2014	17.577	4.1818	0.	17.524
2015	17.761	4.1818	0.	18.837
2016	17.944	4.1818	0.	20.181
2017	18.128	4.1818	0.	21.565
2018	18.311	4.1818	0.	22.996
2019	18.495	4.1818	0.	24.484
2020	18.678	4.1818	0.	26.038
2021	18.862	4.1818	0.	27.666
2022	19.045	4.1818	0.	29.379
2023	19.229	4.1818	0.	31.186
2024	19.412	4.1818	0.	33.099
2025	19.596	4.1818	0.	35.129
2026	19.779	4.1818	0.	37.288
2027	19.963	4.1818	0.	39.59
2028	20.146	4.1818	0.	42.047
2029	20.33	4.1818	0.	44.676
2030	20.513	4.1818	0.	47.492
2031	20.697	4.1818	0.	50.513
2032	20.88	4.1818	0.	53.757
2033	21.064	4.1818	0.	57.245
2034	21.247	4.1818	0.	60.999
2035	21.431	4.1818	0.	65.043
2036	21.614	4.1818	0.	69.403
2037	21.798	4.1818	0.	74.108
2038	21.981	4.1818	0.	79.189
2039	22.165	4.1818	0.	84.677
2040	22.348	4.1818	0.	90.607
2041	22.532	4.1818	0.	97.014
2042	22.715	4.1818	0.	103.93
2043	22.899	4.1818	0.	111.4
2044	23.082	4.1818	0.	119.43
2045	23.266	4.1818	0.	128.05
2046	23.449	4.1818	0.	137.26
2047	23.633	4.1818	0.	147.11
2048	23.816	4.1818	0.	157.41
2049	6.7502	4.	0.	2165.2
2050	6.9337	4.	0.	771.56
2051	7.1172	4.	0.	305.74
2052	7.3007	4.	0.	72.746
2053	7.4842	4.	0.	6.3341
2054	7.6677	4.	0.	2.8795
2055	7.8512	4.	0.	1.4994
2056	8.0347	4.	0.	1.0247
2057	8.2182	4.	0.	0.70828
2058	8.4018	4.	0.	0.5172
2059	8.5853	4.	0.	0.38221
2060	8.7688	4.	0.	0.28624
2061	8.9523	4.	0.	0.2156
2062	9.1358	4.	0.	0.16314
2063	9.3193	4.	0.	0.12385
2064	9.5028	4.	0.	9.4305e-002
2065	9.6863	4.	0.	7.2039e-002
2066	9.8698	4.	0.	5.5228e-002
2067	10.053	4.	0.	4.2524e-002
2068	10.237	4.	0.	3.2957e-002
2069	10.42	4.	0.	2.5747e-002
2070	10.604	4.	0.	2.032e-002
2071	10.787	4.	0.	1.6228e-002
2072	10.971	4.	0.	1.3107e-002
2073	11.154	4.	0.	1.0776e-002
2074	11.338	4.	0.	9.1007e-003
2075	11.521	4.	0.	7.8735e-003
2076	11.705	4.	0.	6.9835e-003
2077	11.888	4.	0.	6.3362e-003
2078	12.072	4.	0.	5.8716e-003
2079	12.255	4.	0.	5.5556e-003
2080	12.439	4.	0.	5.3558e-003
2081	12.622	4.	0.	5.3062e-003
2082	12.806	4.	0.	5.3364e-003
2083	12.989	4.	0.	5.377e-003
2084	13.173	4.	0.	5.4546e-003
2085	13.356	4.	0.	5.5674e-003
2086	13.54	4.	0.	5.7153e-003
2087	13.724	4.	0.	5.9414e-003
2088	13.907	4.	0.	6.206e-003
2089	14.091	4.	0.	6.5085e-003
2090	14.274	4.	0.	6.8629e-003
2091	14.458	4.	0.	7.2794e-003
2092	14.641	4.	0.	7.8681e-003
2093	14.825	4.	0.	8.8502e-003
2094	15.008	4.	0.	1.079e-002
2095	15.192	4.	0.	1.7927e-002
2096	15.375	4.	0.	0.59855
2097	15.559	4.	0.	2.2149
2098	15.742	4.	0.	3.7752
2099	15.926	4.	0.	5.277
2100	16.109	4.	0.	6.7286
2101	16.293	4.	0.	8.1388
2102	16.476	4.	0.	9.5161
2103	16.66	4.	0.	10.869
2104	16.843	4.	0.	12.206
2105	17.027	4.	0.	13.536
2106	17.21	4.	0.	14.866
2107	17.394	4.	0.	16.206
2108	17.577	4.	0.	17.562
2109	17.761	4.	0.	18.944
2110	17.944	4.	0.	20.359
2111	18.128	4.	0.	21.818
2112	18.311	4.	0.	23.328
2113	18.495	4.	0.	24.898
2114	18.678	4.	0.	26.54
2115	18.862	4.	0.	28.261
2116	19.045	4.	0.	30.074
2117	19.229	4.	0.	31.989
2118	19.412	4.	0.	34.017
2119	19.596	4.	0.	36.171
2120	19.779	4.	0.	38.464
2121	19.963	4.	0.	40.911
2122	20.146	4.	0.	43.525
2123	20.33	4.	0.	46.322
2124	20.513	4.	0.	49.32
2125	20.697	4.	0.	52.537
2126	20.88	4.	0.	55.992
2127	21.064	4.	0.	59.705
2128	21.247	4.	0.	63.699
2129	21.431	4.	0.	67.998
2130	21.614	4.	0.	72.627
2131	21.798	4.	0.	77.612
2132	21.981	4.	0.	82.982
2133	22.165	4.	0.	88.765
2134	22.348	4.	0.	94.991
2135	22.532	4.	0.	101.69
2136	22.715	4.	0.	108.88
2137	22.899	4.	0.	116.6
2138	23.082	4.	0.	124.85
2139	23.266	4.	0.	133.66
2140	23.449	4.	0.	143.
2141	23.633	4.	0.	152.95
2142	23.816	4.	0.	163.27
2143	6.7502	3.8182	0.	984.45
2144	6.9337	3.8182	0.	445.55
2145	7.1172	3.8182	0.	123.03
2146	7.3007	3.8182	0.	8.2535
2147	7.4842	3.8182	0.	1.5711
2148	7.6677	3.8182	0.	1.644
2149	7.8512	3.8182	0.	0.96401
2150	8.0347	3.8182	0.	0.74094
2151	8.2182	3.8182	0.	0.53983
2152	8.4018	3.8182	0.	0.40795
2153	8.5853	3.8182	0.	0.30739
2154	8.7688	3.8182	0.	0.23275
2155	8.9523	3.8182	0.	0.17622
2156	9.1358	3.8182	0.	0.1335
2157	9.3193	3.8182	0.	0.10117
2158	9.5028	3.8182	0.	7.6714e-002
2159	9.6863	3.8182	0.	5.8247e-002
2160	9.8698	3.8182	0.	4.4312e-002
2161	10.053	3.8182	0.	3.3813e-002
2162	10.237	3.8182	0.	2.5955e-002
2163	10.42	3.8182	0.	2.0083e-002
2164	10.604	3.8182	0.	1.5714e-002
2165	10.787	3.8182	0.	1.2463e-002
2166	10.971	3.8182	0.	1.0019e-002
2167	11.154	3.8182	0.	8.2366e-003
2168	11.338	3.8182	0.	7.0085e-003
2169	11.521	3.8182	0.	6.1488e-003
2170	11.705	3.8182	0.	5.5612e-003
2171	11.888	3.8182	0.	5.1651e-003
2172	12.072	3.8182	0.	4.9089e-003
2173	12.255	3.8182	0.	4.7677e-003
2174	12.439	3.8182	0.	4.7146e-003
2175	12.622	3.8182	0.	4.7865e-003
2176	12.806	3.8182	0.	4.9165e-003
2177	12.989	3.8182	0.	5.0425e-003
2178	13.173	3.8182	0.	5.1885e-003
2179	13.356	3.8182	0.	5.3534e-003
2180	13.54	3.8182	0.	5.5422e-003
2181	13.724	3.8182	0.	5.7935e-003
2182	13.907	3.8182	0.	6.0675e-003
2183	14.091	3.8182	0.	6.3595e-003
2184	14.274	3.8182	0.	6.6789e-003
2185	14.458	3.8182	0.	7.0139e-003
2186	14.641	3.8182	0.	7.4446e-003
2187	14.825	3.8182	0.	8.097e-003
2188	15.008	3.8182	0.	9.164e-003
2189	15.192	3.8182	0.	1.1819e-002
2190	15.375	3.8182	0.	6.4844e-002
2191	15.559	3.8182	0.	1.6139
2192	15.742	3.8182	0.	3.241
2193	15.926	3.8182	0.	4.8066
2194	16.109	3.8182	0.	6.3193
2195	16.293	3.8182	0.	7.7882
2196	16.476	3.8182	0.	9.2226
2197	16.66	3.8182	0.	10.632
2198	16.843	3.8182	0.	12.024
2199	17.027	3.8182	0.	13.409
2200	17.21	3.8182	0.	14.794
2201	17.394	3.8182	0.	16.189
2202	17.577	3.8182	0.	17.603
2203	17.761	3.8182	0.	19.043
2204	17.944	3.8182	0.	20.52
2205	18.128	3.8182	0.	22.042
2206	18.311	3.8182	0.	23.619
2207	18.495	3.8182	0.	25.26
2208	18.678	3.8182	0.	26.977
2209	18.862	3.8182	0.	28.778
2210	19.045	3.8182	0.	30.677
2211	19.229	3.8182	0.	32.683
2212	19.412	3.8182	0.	34.81
2213	19.596	3.8182	0.	37.07
2214	19.779	3.8182	0.	39.478
2215	19.963	3.8182	0.	42.048
2216	20.146	3.8182	0.	44.795
2217	20.33	3.8182	0.	47.736
2218	20.513	3.8182	0.	50.889
2219	20.697	3.8182	0.	54.271
2220	20.88	3.8182	0.	57.903
2221	21.064	3.8182	0.	61.806
2222	21.247	3.8182	0.	66.001
2223	21.431	3.8182	0.	70.512
2224	21.614	3.8182	0.	75.363
2225	21.798	3.8182	0.	80.578
2226	21.981	3.8182	0.	86.183
2227	22.165	3.8182	0.	92.204
2228	22.348	3.8182	0.	98.664
2229	22.532	3.8182	0.	105.59
2230	22.715	3.8182	0.	113.
2231	22.899	3.8182	0.	120.91
2232	23.082	3.8182	0.	129.33
2233	23.266	3.8182	0.	138.27
2234	23.449	3.8182	0.	147.72
2235	23.633	3.8182	0.	157.73
2236	23.816	3.8182	0.	168.07
2237	6.7502	3.6364	0.	931.53
2238	6.9337	3.6364	0.	410.19
2239	7.1172	3.6364	0.	95.501
2240	7.3007	3.6364	0.	1.4937
2241	7.4842	3.6364	0.	1.4831
2242	7.6677	3.6364	0.	1.0731
2243	7.8512	3.6364	0.	0.7902
2244	8.0347	3.6364	0.	0.60349
2245	8.2182	3.6364	0.	0.45556
2246	8.4018	3.6364	0.	0.34548
2247	8.5853	3.6364	0.	0.26088
2248	8.7688	3.6364	0.	0.19669
2249	8.9523	3.6364	0.	0.14793
2250	9.1358	3.6364	0.	0.11107
2251	9.3193	3.6364	0.	8.3277e-002
2252	9.5028	3.6364	0.	6.2381e-002
2253	9.6863	3.6364	0.	4.6722e-002
2254	9.8698	3.6364	0.	3.5013e-002
2255	10.053	3.6364	0.	2.6284e-002
2256	10.237	3.6364	0.	1.9838e-002
2257	10.42	3.6364	0.	1.5097e-002
2258	10.604	3.6364	0.	1.1638e-002
2259	10.787	3.6364	0.	9.122e-003
2260	10.971	3.6364	0.	7.2753e-003
2261	11.154	3.6364	0.	5.9784e-003
2262	11.338	3.6364	0.	5.148e-003
2263	11.521	3.6364	0.	4.6164e-003
2264	11.705	3.6364	0.	4.298e-003
2265	11.888	3.6364	0.	4.1269e-003
2266	12.072	3.6364	0.	4.0564e-003
2267	12.255	3.6364	0.	4.0696e-003
2268	12.439	3.6364	0.	4.1463e-003
2269	12.622	3.6364	0.	4.3254e-003
2270	12.806	3.6364	0.	4.5459e-003
2271	12.989	3.6364	0.	4.7445e-003
2272	13.173	3.6364	0.	4.9517e-003
2273	13.356	3.6364	0.	5.1647e-003
2274	13.54	3.6364	0.	5.3893e-003
2275	13.724	3.6364	0.	5.6653e-003
2276	13.907	3.6364	0.	5.9533e-003
2277	14.091	3.6364	0.	6.2459e-003
2278	14.274	3.6364	0.	6.5451e-003
2279	14.458	3.6364	0.	6.8365e-003
2280	14.641	3.6364	0.	7.1788e-003
2281	14.825	3.6364	0.	7.6518e-003
2282	15.008	3.6364	0.	8.3147e-003
2283	15.192	3.6364	0.	9.5798e-003
2284	15.375	3.6364	0.	1.6364e-002
2285	15.559	3.6364	0.	1.1286
2286	15.742	3.6364	0.	2.8104
2287	15.926	3.6364	0.	4.4282
2288	16.109	3.6364	0.	5.9907
2289	16.293	3.6364	0.	7.5076
2290	16.476	3.6364	0.	8.9886
2291	16.66	3.6364	0.	10.443
2292	16.843	3.6364	0.	11.88
2293	17.027	3.6364	0.	13.31
2294	17.21	3.6364	0.	14.74
2295	17.394	3.6364	0.	16.181
2296	17.577	3.6364	0.	17.641
2297	17.761	3.6364	0.	19.13
2298	17.944	3.6364	0.	20.656
2299	18.128	3.6364	0.	22.23
2300	18.311	3.6364	0.	23.862
2301	18.495	3.6364	0.	25.561
2302	18.678	3.6364	0.	27.339
2303	18.862	3.6364	0.	29.206
2304	19.045	3.6364	0.	31.174
2305	19.229	3.6364	0.	33.255
2306	19.412	3.6364	0.	35.463
2307	19.596	3.6364	0.	37.81
2308	19.779	3.6364	0.	40.311
2309	19.963	3.6364	0.	42.982
2310	20.146	3.6364	0.	45.837
2311	20.33	3.6364	0.	48.895
2312	20.513	3.6364	0.	52.172
2313	20.697	3.6364	0.	55.689
2314	20.88	3.6364	0.	59.464
2315	21.064	3.6364	0.	63.519
2316	21.247	3.6364	0.	67.875
2317	21.431	3.6364	0.	72.555
2318	21.614	3.6364	0.	77.582
2319	21.798	3.6364	0.	82.978
2320	21.981	3.6364	0.	88.767
2321	22.165	3.6364	0.	94.972
2322	22.348	3.6364	0.	101.61
2323	22.532	3.6364	0.	108.71
2324	22.715	3.6364	0.	116.28
2325	22.899	3.6364	0.	124.33
2326	23.082	3.6364	0.	132.88
2327	23.266	3.6364	0.	141.92
2328	23.449	3.6364	0.	151.45
2329	23.633	3.6364	0.	161.51
2330	23.816	3.6364	0.	171.86
2331	6.7502	3.4545	0.	827.75
2332	6.9337	3.4545	0.	452.88
2333	7.1172	3.4545	0.	134.69
2334	7.3007	3.4545	0.	2.0106
2335	7.4842	3.4545	0.	1.3574
2336	7.6677	3.4545	0.	0.97392
2337	7.8512	3.4545	0.	0.75259
2338	8.0347	3.4545	0.	0.56481
2339	8.2182	3.4545	0.	0.42419
2340	8.4018	3.4545	0.	0.31661
2341	8.5853	3.4545	0.	0.23547
2342	8.7688	3.4545	0.	0.17458
2343	8.9523	3.4545	0.	0.12911
2344	9.1358	3.4545	0.	9.5263e-002
2345	9.3193	3.4545	0.	7.0148e-002
2346	9.5028	3.4545	0.	5.1548e-002
2347	9.6863	3.4545	0.	3.7824e-002
2348	9.8698	3.4545	0.	2.772e-002
2349	10.053	3.4545	0.	2.0312e-002
2350	10.237	3.4545	0.	1.4946e-002
2351	10.42	3.4545	0.	1.1088e-002
2352	10.604	3.4545	0.	8.3469e-003
2353	10.787	3.4545	0.	6.4184e-003
2354	10.971	3.4545	0.	5.0515e-003
2355	11.154	3.4545	0.	4.1476e-003
2356	11.338	3.4545	0.	3.641e-003
2357	11.521	3.4545	0.	3.3736e-003
2358	11.705	3.4545	0.	3.2764e-003
2359	11.888	3.4545	0.	3.2855e-003
2360	12.072	3.4545	0.	3.3676e-003
2361	12.255	3.4545	0.	3.506e-003
2362	12.439	3.4545	0.	3.6863e-003
2363	12.622	3.4545	0.	3.9527e-003
2364	12.806	3.4545	0.	4.2445e-003
2365	12.989	3.4545	0.	4.5038e-003
2366	13.173	3.4545	0.	4.7589e-003
2367	13.356	3.4545	0.	5.0107e-003
2368	13.54	3.4545	0.	5.2667e-003
2369	13.724	3.4545	0.	5.5653e-003
2370	13.907	3.4545	0.	5.8666e-003
2371	14.091	3.4545	0.	6.1612e-003
2372	14.274	3.4545	0.	6.4529e-003
2373	14.458	3.4545	0.	6.7185e-003
2374	14.641	3.4545	0.	7.0091e-003
2375	14.825	3.4545	0.	7.3832e-003
2376	15.008	3.4545	0.	7.8363e-003
2377	15.192	3.4545	0.	8.5153e-003
2378	15.375	3.4545	0.	1.0611e-002
2379	15.559	3.4545	0.	0.7615
2380	15.742	3.4545	0.	2.4854
2381	15.926	3.4545	0.	4.1431
2382	16.109	3.4545	0.	5.7436
2383	16.293	3.4545	0.	7.297
2384	16.476	3.4545	0.	8.8134
2385	16.66	3.4545	0.	10.303
2386	16.843	3.4545	0.	11.774
2387	17.027	3.4545	0.	13.238
2388	17.21	3.4545	0.	14.703
2389	17.394	3.4545	0.	16.178
2390	17.577	3.4545	0.	17.674
2391	17.761	3.4545	0.	19.199
2392	17.944	3.4545	0.	20.763
2393	18.128	3.4545	0.	22.377
2394	18.311	3.4545	0.	24.05
2395	18.495	3.4545	0.	25.794
2396	18.678	3.4545	0.	27.618
2397	18.862	3.4545	0.	29.535
2398	19.045	3.4545	0.	31.556
2399	19.229	3.4545	0.	33.695
2400	19.412	3.4545	0.	35.964
2401	19.596	3.4545	0.	38.377
2402	19.779	3.4545	0.	40.949
2403	19.963	3.4545	0.	43.696
2404	20.146	3.4545	0.	46.634
2405	20.33	3.4545	0.	49.78
2406	20.513	3.4545	0.	53.152
2407	20.697	3.4545	0.	56.77
2408	20.88	3.4545	0.	60.653
2409	21.064	3.4545	0.	64.823
2410	21.247	3.4545	0.	69.3
2411	21.431	3.4545	0.	74.106
2412	21.614	3.4545	0.	79.263
2413	21.798	3.4545	0.	84.793
2414	21.981	3.4545	0.	90.718
2415	22.165	3.4545	0.	97.057
2416	22.348	3.4545	0.	103.83
2417	22.532	3.4545	0.	111.05
2418	22.715	3.4545	0.	118.74
2419	22.899	3.4545	0.	126.89
2420	23.082	3.4545	0.	135.53
2421	23.266	3.4545	0.	144.64
2422	23.449	3.4545	0.	154.22
2423	23.633	3.4545	0.	164.31
2424	23.816	3.4545	0.	174.67
2425	6.7502	3.2727	0.	781.17
2426	6.9337	3.2727	0.	468.38
2427	7.1172	3.2727	0.	171.35
2428	7.3007	3.2727	0.	1.8446
2429	7.4842	3.2727	0.	1.2703
2430	7.6677	3.2727	0.	1.0138
2431	7.8512	3.2727	0.	0.76741
2432	8.0347	3.2727	0.	0.5718
2433	8.2182	3.2727	0.	0.42084
2434	8.4018	3.2727	0.	0.30765
2435	8.5853	3.2727	0.	0.22405
2436	8.7688	3.2727	0.	0.16276
2437	8.9523	3.2727	0.	0.118
2438	9.1358	3.2727	0.	8.537e-002
2439	9.3193	3.2727	0.	6.1612e-002
2440	9.5028	3.2727	0.	4.4327e-002
2441	9.6863	3.2727	0.	3.1788e-002
2442	9.8698	3.2727	0.	2.2713e-002
2443	10.053	3.2727	0.	1.6176e-002
2444	10.237	3.2727	0.	1.1539e-002
2445	10.42	3.2727	0.	8.2829e-003
2446	10.604	3.2727	0.	6.0384e-003
2447	10.787	3.2727	0.	4.5175e-003
2448	10.971	3.2727	0.	3.4868e-003
2449	11.154	3.2727	0.	2.8584e-003
2450	11.338	3.2727	0.	2.5776e-003
2451	11.521	3.2727	0.	2.4997e-003
2452	11.705	3.2727	0.	2.5558e-003
2453	11.888	3.2727	0.	2.6936e-003
2454	12.072	3.2727	0.	2.8811e-003
2455	12.255	3.2727	0.	3.1084e-003
2456	12.439	3.2727	0.	3.3623e-003
2457	12.622	3.2727	0.	3.6895e-003
2458	12.806	3.2727	0.	4.0323e-003
2459	12.989	3.2727	0.	4.3325e-003
2460	13.173	3.2727	0.	4.6232e-003
2461	13.356	3.2727	0.	4.9028e-003
2462	13.54	3.2727	0.	5.1803e-003
2463	13.724	3.2727	0.	5.4942e-003
2464	13.907	3.2727	0.	5.8039e-003
2465	14.091	3.2727	0.	6.1049e-003
2466	14.274	3.2727	0.	6.3923e-003
2467	14.458	3.2727	0.	6.6446e-003
2468	14.641	3.2727	0.	6.9075e-003
2469	14.825	3.2727	0.	7.2273e-003
2470	15.008	3.2727	0.	7.5697e-003
2471	15.192	3.2727	0.	7.9777e-003
2472	15.375	3.2727	0.	8.7388e-003
2473	15.559	3.2727	0.	0.51449
2474	15.742	3.2727	0.	2.2677
2475	15.926	3.2727	0.	3.9524
2476	16.109	3.2727	0.	5.5785
2477	16.293	3.2727	0.	7.1565
2478	16.476	3.2727	0.	8.6968
2479	16.66	3.2727	0.	10.209
2480	16.843	3.2727	0.	11.704
2481	17.027	3.2727	0.	13.191
2482	17.21	3.2727	0.	14.678
2483	17.394	3.2727	0.	16.177
2484	17.577	3.2727	0.	17.697
2485	17.761	3.2727	0.	19.247
2486	17.944	3.2727	0.	20.837
2487	18.128	3.2727	0.	22.477
2488	18.311	3.2727	0.	24.179
2489	18.495	3.2727	0.	25.952
2490	18.678	3.2727	0.	27.808
2491	18.862	3.2727	0.	29.758
2492	19.045	3.2727	0.	31.815
2493	19.229	3.2727	0.	33.992
2494	19.412	3.2727	0.	36.303
2495	19.596	3.2727	0.	38.76
2496	19.779	3.2727	0.	41.38
2497	19.963	3.2727	0.	44.179
2498	20.146	3.2727	0.	47.172
2499	20.33	3.2727	0.	50.377
2500	20.513	3.2727	0.	53.813
2501	20.697	3.2727	0.	57.499
2502	20.88	3.2727	0.	61.455
2503	21.064	3.2727	0.	65.701
2504	21.247	3.2727	0.	70.258
2505	21.431	3.2727	0.	75.148
2506	21.614	3.2727	0.	80.391
2507	21.798	3.2727	0.	86.01
2508	21.981	3.2727	0.	92.024
2509	22.165	3.2727	0.	98.451
2510	22.348	3.2727	0.	105.31
2511	22.532	3.2727	0.	112.61
2512	22.715	3.2727	0.	120.37
2513	22.899	3.2727	0.	128.59
2514	23.082	3.2727	0.	137.28
2515	23.266	3.2727	0.	146.44
2516	23.449	3.2727	0.	156.06
2517	23.633	3.2727	0.	166.17
2518	23.816	3.2727	0.	176.53
2519	6.7502	3.0909	0.	755.19
2520	6.9337	3.0909	0.	475.35
2521	7.1172	3.0909	0.	190.78
2522	7.3007	3.0909	0.	1.3991
2523	7.4842	3.0909	0.	1.2628
2524	7.6677	3.0909	0.	1.0295
2525	7.8512	3.0909	0.	0.7896
2526	8.0347	3.0909	0.	0.58448
2527	8.2182	3.0909	0.	0.42514
2528	8.4018	3.0909	0.	0.30662
2529	8.5853	3.0909	0.	0.22025
2530	8.7688	3.0909	0.	0.15786
2531	8.9523	3.0909	0.	0.11296
2532	9.1358	3.0909	0.	8.0656e-002
2533	9.3193	3.0909	0.	5.7429e-002
2534	9.5028	3.0909	0.	4.0726e-002
2535	9.6863	3.0909	0.	2.8744e-002
2536	9.8698	3.0909	0.	2.0168e-002
2537	10.053	3.0909	0.	1.4063e-002
2538	10.237	3.0909	0.	9.791e-003
2539	10.42	3.0909	0.	6.8408e-003
2540	10.604	3.0909	0.	4.849e-003
2541	10.787	3.0909	0.	3.538e-003
2542	10.971	3.0909	0.	2.679e-003
2543	11.154	3.0909	0.	2.1921e-003
2544	11.338	3.0909	0.	2.0302e-003
2545	11.521	3.0909	0.	2.0469e-003
2546	11.705	3.0909	0.	2.1839e-003
2547	11.888	3.0909	0.	2.3885e-003
2548	12.072	3.0909	0.	2.6304e-003
2549	12.255	3.0909	0.	2.9031e-003
2550	12.439	3.0909	0.	3.1949e-003
2551	12.622	3.0909	0.	3.5536e-003
2552	12.806	3.0909	0.	3.9221e-003
2553	12.989	3.0909	0.	4.2445e-003
2554	13.173	3.0909	0.	4.5523e-003
2555	13.356	3.0909	0.	4.8464e-003
2556	13.54	3.0909	0.	5.1346e-003
2557	13.724	3.0909	0.	5.4568e-003
2558	13.907	3.0909	0.	5.7739e-003
2559	14.091	3.0909	0.	6.076e-003
2560	14.274	3.0909	0.	6.3633e-003
2561	14.458	3.0909	0.	6.6089e-003
2562	14.641	3.0909	0.	6.8605e-003
2563	14.825	3.0909	0.	7.1556e-003
2564	15.008	3.0909	0.	7.4504e-003
2565	15.192	3.0909	0.	7.7468e-003
2566	15.375	3.0909	0.	8.0666e-003
2567	15.559	3.0909	0.	0.38967
2568	15.742	3.0909	0.	2.1585
2569	15.926	3.0909	0.	3.8568
2570	16.109	3.0909	0.	5.4959
2571	16.293	3.0909	0.	7.0863
2572	16.476	3.0909	0.	8.6386
2573	16.66	3.0909	0.	10.163
2574	16.843	3.0909	0.	11.669
2575	17.027	3.0909	0.	13.167
2576	17.21	3.0909	0.	14.667
2577	17.394	3.0909	0.	16.177
2578	17.577	3.0909	0.	17.709
2579	17.761	3.0909	0.	19.271
2580	17.944	3.0909	0.	20.874
2581	18.128	3.0909	0.	22.528
2582	18.311	3.0909	0.	24.244
2583	18.495	3.0909	0.	26.032
2584	18.678	3.0909	0.	27.903
2585	18.862	3.0909	0.	29.871
2586	19.045	3.0909	0.	31.946
2587	19.229	3.0909	0.	34.143
2588	19.412	3.0909	0.	36.474
2589	19.596	3.0909	0.	38.954
2590	19.779	3.0909	0.	41.598
2591	19.963	3.0909	0.	44.422
2592	20.146	3.0909	0.	47.443
2593	20.33	3.0909	0.	50.678
2594	20.513	3.0909	0.	54.146
2595	20.697	3.0909	0.	57.866
2596	20.88	3.0909	0.	61.858
2597	21.064	3.0909	0.	66.142
2598	21.247	3.0909	0.	70.739
2599	21.431	3.0909	0.	75.671
2600	21.614	3.0909	0.	80.958
2601	21.798	3.0909	0.	86.62
2602	21.981	3.0909	0.	92.678
2603	22.165	3.0909	0.	99.149
2604	22.348	3.0909	0.	106.05
2605	22.532	3.0909	0.	113.39
2606	22.715	3.0909	0.	121.19
2607	22.899	3.0909	0.	129.44
2608	23.082	3.0909	0.	138.16
2609	23.266	3.0909	0.	147.34
2610	23.449	3.0909	0.	156.97
2611	23.633	3.0909	0.	167.09
2612	23.816	3.0909	0.	177.46
2613	6.7502	2.9091	0.	755.19
2614	6.9337	2.9091	0.	475.35
2615	7.1172	2.9091	0.	190.78
2616	7.3007	2.9091	0.	1.3991
2617	7.4842	2.9091	0.	1.2628
2618	7.6677	2.9091	0.	1.0295
2619	7.8512	2.9091	0.	0.7896
2620	8.0347	2.9091	0.	0.58448
2621	8.2182	2.9091	0.	0.42514
2622	8.4018	2.9091	0.	0.30662
2623	8.5853	2.9091	0.	0.22025
2624	8.7688	2.9091	0.	0.15786
2625	8.9523	2.9091	0.	0.11296
2626	9.1358	2.9091	0.	8.0656e-002
2627	9.3193	2.9091	0.	5.7429e-002
2628	9.5028	2.9091	0.	4.0725e-002
2629	9.6863	2.9091	0.	2.8744e-002
2630	9.8698	2.9091	0.	2.0169e-002
2631	10.053	2.9091	0.	1.4062e-002
2632	10.237	2.9091	0.	9.7907e-003
2633	10.42	2.9091	0.	6.8401e-003
2634	10.604	2.9091	0.	4.8492e-003
2635	10.787	2.9091	0.	3.5372e-003
2636	10.971	2.9091	0.	2.6791e-003
2637	11.154	2.9091	0.	2.1926e-003
2638	11.338	2.9091	0.	2.0299e-003
2639	11.521	2.9091	0.	2.0475e-003
2640	11.705	2.9091	0.	2.1839e-003
2641	11.888	2.9091	0.	2.3873e-003
2642	12.072	2.9091	0.	2.6301e-003
2643	12.255	2.9091	0.	2.9028e-003
2644	12.439	2.9091	0.	3.1943e-003
2645	12.622	2.9091	0.	3.5543e-003
2646	12.806	2.9091	0.	3.922e-003
2647	12.989	2.9091	0.	4.2445e-003
2648	13.173	2.9091	0.	4.5521e-003
2649	13.356	2.9091	0.	4.8464e-003
2650	13.54	2.9091	0.	5.1348e-003
2651	13.724	2.9091	0.	5.4575e-003
2652	13.907	2.9091	0.	5.7749e-003
2653	14.091	2.9091	0.	6.0756e-003
2654	14.274	2.9091	0.	6.3621e-003
2655	14.458	2.9091	0.	6.6093e-003
2656	14.641	2.9091	0.	6.8592e-003
2657	14.825	2.9091	0.	7.1554e-003
2658	15.008	2.9091	0.	7.4509e-003
2659	15.192	2.9091	0.	7.7461e-003
2660	15.375	2.9091	0.	8.0672e-003
2661	15.559	2.9091	0.	0.38967
2662	15.742	2.9091	0.	2.1585
2663	15.926	2.9091	0.	3.8568
2664	16.109	2.9091	0.	5.4958
2665	16.293	2.9091	0.	7.0863
2666	16.476	2.9091	0.	8.6386
2667	16.66	2.9091	0.	10.163
2668	16.843	2.9091	0.	11.669
2669	17.027	2.9091	0.	13.167
2670	17.21	2.9091	0.	14.667
2671	17.394	2.9091	0.	16.177
2672	17.577	2.9091	0.	17.709
2673	17.761	2.9091	0.	19.271
2674	17.944	2.9091	0.	20.874
2675	18.128	2.9091	0.	22.528
2676	18.311	2.9091	0.	24.244
2677	18.495	2.9091	0.	26.032
2678	18.678	2.9091	0.	27.903
2679	18.862	2.9091	0.	29.871
2680	19.045	2.9091	0.	31.946
2681	19.229	2.9091	0.	34.143
2682	19.412	2.9091	0.	36.474
2683	19.596	2.9091	0.	38.954
2684	19.779	2.9091	0.	41.598
2685	19.963	2.9091	0.	44.422
2686	20.146	2.9091	0.	47.443
2687	20.33	2.9091	0.	50.678
2688	20.513	2.9091	0.	54.146
2689	20.697	2.9091	0.	57.866
2690	20.88	2.9091	0.	61.858
2691	21.064	2.9091	0.	66.142
2692	21.247	2.9091	0.	70.739
2693	21.431	2.9091	0.	75.671
2694	21.614	2.9091	0.	80.958
2695	21.798	2.9091	0.	86.62
2696	21.981	2.9091	0.	92.678
2697	22.165	2.9091	0.	99.149
2698	22.348	2.9091	0.	106.05
2699	22.532	2.9091	0.	113.39
2700	22.715	2.9091	0.	121.19
2701	22.899	2.9091	0.	129.44
2702	23.082	2.9091	0.	138.16
2703	23.266	2.9091	0.	147.34
2704	23.449	2.9091	0.	156.97
2705	23.633	2.9091	0.	167.09
2706	23.816	2.9091	0.	177.46
2707	6.7502	2.7273	0.	781.17
2708	6.9337	2.7273	0.	468.38
2709	7.1172	2.7273	0.	171.35
2710	7.3007	2.7273	0.	1.8446
2711	7.4842	2.7273	0.	1.2703
2712	7.6677	2.7273	0.	1.0138
2713	7.8512	2.7273	0.	0.76741
2714	8.0347	2.7273	0.	0.5718
2715	8.2182	2.7273	0.	0.42084
2716	8.4018	2.7273	0.	0.30765
2717	8.5853	2.7273	0.	0.22405
2718	8.7688	2.7273	0.	0.16276
2719	8.9523	2.7273	0.	0.118
2720	9.1358	2.7273	0.	8.537e-002
2721	9.3193	2.7273	0.	6.1612e-002
2722	9.5028	2.7273	0.	4.4327e-002
2723	9.6863	2.7273	0.	3.1788e-002
2724	9.8698	2.7273	0.	2.2713e-002
2725	10.053	2.7273	0.	1.6176e-002
2726	10.237	2.7273	0.	1.1539e-002
2727	10.42	2.7273	0.	8.2828e-003
2728	10.604	2.7273	0.	6.0389e-003
2729	10.787	2.7273	0.	4.5182e-003
2730	10.971	2.7273	0.	3.4864e-003
2731	11.154	2.7273	0.	2.8588e-003
2732	11.338	2.7273	0.	2.5777e-003
2733	11.521	2.7273	0.	2.4988e-003
2734	11.705	2.7273	0.	2.556e-003
2735	11.888	2.7273	0.	2.6934e-003
2736	12.072	2.7273	0.	2.8811e-003
2737	12.255	2.7273	0.	3.1086e-003
2738	12.439	2.7273	0.	3.3622e-003
2739	12.622	2.7273	0.	3.6898e-003
2740	12.806	2.7273	0.	4.0322e-003
2741	12.989	2.7273	0.	4.3326e-003
2742	13.173	2.7273	0.	4.6227e-003
2743	13.356	2.7273	0.	4.9016e-003
2744	13.54	2.7273	0.	5.18e-003
2745	13.724	2.7273	0.	5.4947e-003
2746	13.907	2.7273	0.	5.8051e-003
2747	14.091	2.7273	0.	6.1047e-003
2748	14.274	2.7273	0.	6.3929e-003
2749	14.458	2.7273	0.	6.6449e-003
2750	14.641	2.7273	0.	6.9078e-003
2751	14.825	2.7273	0.	7.2269e-003
2752	15.008	2.7273	0.	7.5699e-003
2753	15.192	2.7273	0.	7.9787e-003
2754	15.375	2.7273	0.	8.7372e-003
2755	15.559	2.7273	0.	0.51448
2756	15.742	2.7273	0.	2.2677
2757	15.926	2.7273	0.	3.9524
2758	16.109	2.7273	0.	5.5785
2759	16.293	2.7273	0.	7.1565
2760	16.476	2.7273	0.	8.6968
2761	16.66	2.7273	0.	10.209
2762	16.843	2.7273	0.	11.704
2763	17.027	2.7273	0.	13.191
2764	17.21	2.7273	0.	14.678
2765	17.394	2.7273	0.	16.177
2766	17.577	2.7273	0.	17.697
2767	17.761	2.7273	0.	19.247
2768	17.944	2.7273	0.	20.837
2769	18.128	2.7273	0.	22.477
2770	18.311	2.7273	0.	24.179
2771	18.495	2.7273	0.	25.952
2772	18.678	2.7273	0.	27.808
2773	18.862	2.7273	0.	29.758
2774	19.045	2.7273	0.	31.815
2775	19.229	2.7273	0.	33.992
2776	19.412	2.7273	0.	36.303
2777	19.596	2.7273	0.	38.76
2778	19.779	2.7273	0.	41.38
2779	19.963	2.7273	0.	44.179
2780	20.146	2.7273	0.	47.172
2781	20.33	2.7273	0.	50.377
2782	20.513	2.7273	0.	53.813
2783	20.697	2.7273	0.	57.499
2784	20.88	2.7273	0.	61.455
2785	21.064	2.7273	0.	65.701
2786	21.247	2.7273	0.	70.258
2787	21.431	2.7273	0.	75.148
2788	21.614	2.7273	0.	80.391
2789	21.798	2.7273	0.	86.01
2790	21.981	2.7273	0.	92.024
2791	22.165	2.7273	0.	98.451
2792	22.348	2.7273	0.	105.31
2793	22.532	2.7273	0.	112.61
2794	22.715	2.7273	0.	120.37
2795	22.899	2.7273	0.	128.59
2796	23.082	2.7273	0.	137.28
2797	23.266	2.7273	0.	146.44
2798	23.449	2.7273	0.	156.06
2799	23.633	2.7273	0.	166.17
2800	23.816	2.7273	0.	176.53
2801	6.7502	2.5455	0.	827.75
2802	6.9337	2.5455	0.	452.87
2803	7.1172	2.5455	0.	134.68
2804	7.3007	2.5455	0.	2.0106
2805	7.4842	2.5455	0.	1.3574
2806	7.6677	2.5455	0.	0.97392
2807	7.8512	2.5455	0.	0.75259
2808	8.0347	2.5455	0.	0.56481
2809	8.2182	2.5455	0.	0.42419
2810	8.4018	2.5455	0.	0.31661
2811	8.5853	2.5455	0.	0.23547
2812	8.7688	2.5455	0.	0.17458
2813	8.9523	2.5455	0.	0.12911
2814	9.1358	2.5455	0.	9.5264e-002
2815	9.3193	2.5455	0.	7.0147e-002
2816	9.5028	2.5455	0.	5.1548e-002
2817	9.6863	2.5455	0.	3.7825e-002
2818	9.8698	2.5455	0.	2.772e-002
2819	10.053	2.5455	0.	2.0312e-002
2820	10.237	2.5455	0.	1.4946e-002
2821	10.42	2.5455	0.	1.1088e-002
2822	10.604	2.5455	0.	8.3469e-003
2823	10.787	2.5455	0.	6.4191e-003
2824	10.971	2.5455	0.	5.0519e-003
2825	11.154	2.5455	0.	4.1475e-003
2826	11.338	2.5455	0.	3.6407e-003
2827	11.521	2.5455	0.	3.3743e-003
2828	11.705	2.5455	0.	3.2761e-003
2829	11.888	2.5455	0.	3.2865e-003
2830	12.072	2.5455	0.	3.3678e-003
2831	12.255	2.5455	0.	3.5054e-003
2832	12.439	2.5455	0.	3.6877e-003
2833	12.622	2.5455	0.	3.953e-003
2834	12.806	2.5455	0.	4.2451e-003
2835	12.989	2.5455	0.	4.5033e-003
2836	13.173	2.5455	0.	4.7595e-003
2837	13.356	2.5455	0.	5.0114e-003
2838	13.54	2.5455	0.	5.2688e-003
2839	13.724	2.5455	0.	5.565e-003
2840	13.907	2.5455	0.	5.8662e-003
2841	14.091	2.5455	0.	6.1617e-003
2842	14.274	2.5455	0.	6.4522e-003
2843	14.458	2.5455	0.	6.7176e-003
2844	14.641	2.5455	0.	7.0105e-003
2845	14.825	2.5455	0.	7.3842e-003
2846	15.008	2.5455	0.	7.8364e-003
2847	15.192	2.5455	0.	8.5163e-003
2848	15.375	2.5455	0.	1.0612e-002
2849	15.559	2.5455	0.	0.76149
2850	15.742	2.5455	0.	2.4854
2851	15.926	2.5455	0.	4.1431
2852	16.109	2.5455	0.	5.7436
2853	16.293	2.5455	0.	7.297
2854	16.476	2.5455	0.	8.8134
2855	16.66	2.5455	0.	10.303
2856	16.843	2.5455	0.	11.774
2857	17.027	2.5455	0.	13.238
2858	17.21	2.5455	0.	14.703
2859	17.394	2.5455	0.	16.178
2860	17.577	2.5455	0.	17.674
2861	17.761	2.5455	0.	19.199
2862	17.944	2.5455	0.	20.763
2863	18.128	2.5455	0.	22.377
2864	18.311	2.5455	0.	24.05
2865	18.495	2.5455	0.	25.794
2866	18.678	2.5455	0.	27.618
2867	18.862	2.5455	0.	29.535
2868	19.045	2.5455	0.	31.556
2869	19.229	2.5455	0.	33.695
2870	19.412	2.5455	0.	35.964
2871	19.596	2.5455	0.	38.377
2872	19.779	2.5455	0.	40.949
2873	19.963	2.5455	0.	43.696
2874	20.146	2.5455	0.	46.634
2875	20.33	2.5455	0.	49.78
2876	20.513	2.5455	0.	53.152
2877	20.697	2.5455	0.	56.77
2878	20.88	2.5455	0.	60.653
2879	21.064	2.5455	0.	64.823
2880	21.247	2.5455	0.	69.3
2881	21.431	2.5455	0.	74.106
2882	21.614	2.5455	0.	79.263
2883	21.798	2.5455	0.	84.793
2884	21.981	2.5455	0.	90.718
2885	22.165	2.5455	0.	97.057
2886	22.348	2.5455	0.	103.83
2887	22.532	2.5455	0.	111.05
2888	22.715	2.5455	0.	118.74
2889	22.899	2.5455	0.	126.89
2890	23.082	2.5455	0.	135.53
2891	23.266	2.5455	0.	144.64
2892	23.449	2.5455	0.	154.22
2893	23.633	2.5455	0.	164.31
2894	23.816	2.5455	0.	174.67
2895	6.7502	2.3636	0.	931.53
2896	6.9337	2.3636	0.	410.19
2897	7.1172	2.3636	0.	95.5
2898	7.3007	2.3636	0.	1.4937
2899	7.4842	2.3636	0.	1.4831
2900	7.6677	2.3636	0.	1.0731
2901	7.8512	2.3636	0.	0.7902
2902	8.0347	2.3636	0.	0.60349
2903	8.2182	2.3636	0.	0.45556
2904	8.4018	2.3636	0.	0.34548
2905	8.5853	2.3636	0.	0.26088
2906	8.7688	2.3636	0.	0.19669
2907	8.9523	2.3636	0.	0.14793
2908	9.1358	2.3636	0.	0.11107
2909	9.3193	2.3636	0.	8.3277e-002
2910	9.5028	2.3636	0.	6.2381e-002
2911	9.6863	2.3636	0.	4.6722e-002
2912	9.8698	2.3636	0.	3.5014e-002
2913	10.053	2.3636	0.	2.6284e-002
2914	10.237	2.3636	0.	1.9838e-002
2915	10.42	2.3636	0.	1.5098e-002
2916	10.604	2.3636	0.	1.1637e-002
2917	10.787	2.3636	0.	9.1226e-003
2918	10.971	2.3636	0.	7.2756e-003
2919	11.154	2.3636	0.	5.9785e-003
2920	11.338	2.3636	0.	5.1487e-003
2921	11.521	2.3636	0.	4.6172e-003
2922	11.705	2.3636	0.	4.2987e-003
2923	11.888	2.3636	0.	4.1267e-003
2924	12.072	2.3636	0.	4.0567e-003
2925	12.255	2.3636	0.	4.0706e-003
2926	12.439	2.3636	0.	4.1464e-003
2927	12.622	2.3636	0.	4.3258e-003
2928	12.806	2.3636	0.	4.5447e-003
2929	12.989	2.3636	0.	4.7458e-003
2930	13.173	2.3636	0.	4.9512e-003
2931	13.356	2.3636	0.	5.1647e-003
2932	13.54	2.3636	0.	5.3883e-003
2933	13.724	2.3636	0.	5.6659e-003
2934	13.907	2.3636	0.	5.9535e-003
2935	14.091	2.3636	0.	6.2452e-003
2936	14.274	2.3636	0.	6.5462e-003
2937	14.458	2.3636	0.	6.8372e-003
2938	14.641	2.3636	0.	7.1776e-003
2939	14.825	2.3636	0.	7.6522e-003
2940	15.008	2.3636	0.	8.3148e-003
2941	15.192	2.3636	0.	9.5776e-003
2942	15.375	2.3636	0.	1.6366e-002
2943	15.559	2.3636	0.	1.1286
2944	15.742	2.3636	0.	2.8104
2945	15.926	2.3636	0.	4.4282
2946	16.109	2.3636	0.	5.9907
2947	16.293	2.3636	0.	7.5076
2948	16.476	2.3636	0.	8.9886
2949	16.66	2.3636	0.	10.443
2950	16.843	2.3636	0.	11.88
2951	17.027	2.3636	0.	13.31
2952	17.21	2.3636	0.	14.74
2953	17.394	2.3636	0.	16.181
2954	17.577	2.3636	0.	17.641
2955	17.761	2.3636	0.	19.13
2956	17.944	2.3636	0.	20.656
2957	18.128	2.3636	0.	22.23
2958	18.311	2.3636	0.	23.862
2959	18.495	2.3636	0.	25.561
2960	18.678	2.3636	0.	27.339
2961	18.862	2.3636	0.	29.206
2962	19.045	2.3636	0.	31.174
2963	19.229	2.3636	0.	33.255
2964	19.412	2.3636	0.	35.463
2965	19.596	2.3636	0.	37.81
2966	19.779	2.3636	0.	40.311
2967	19.963	2.3636	0.	42.982
2968	20.146	2.3636	0.	45.837
2969	20.33	2.3636	0.	48.895
2970	20.513	2.3636	0.	52.172
2971	20.697	2.3636	0.	55.689
2972	20.88	2.3636	0.	59.464
2973	21.064	2.3636	0.	63.519
2974	21.247	2.3636	0.	67.875
2975	21.431	2.3636	0.	72.555
2976	21.614	2.3636	0.	77.582
2977	21.798	2.3636	0.	82.978
2978	21.981	2.3636	0.	88.767
2979	22.165	2.3636	0.	94.972
2980	22.348	2.3636	0.	101.61
2981	22.532	2.3636	0.	108.71
2982	22.715	2.3636	0.	116.28
2983	22.899	2.3636	0.	124.33
2984	23.082	2.3636	0.	132.88
2985	23.266	2.3636	0.	141.92
2986	23.449	2.3636	0.	151.45
2987	23.633	2.3636	0.	161.51
2988	23.816	2.3636	0.	171.86
2989	6.7502	2.1818	0.	984.44
2990	6.9337	2.1818	0.	445.55
2991	7.1172	2.1818	0.	123.03
2992	7.3007	2.1818	0.	8.2535
2993	7.4842	2.1818	0.	1.5711
2994	7.6677	2.1818	0.	1.644
2995	7.8512	2.1818	0.	0.96401
2996	8.0347	2.1818	0.	0.74094
2997	8.2182	2.1818	0.	0.53983
2998	8.4018	2.1818	0.	0.40795
2999	8.5853	2.1818	0.	0.30739
3000	8.7688	2.1818	0.	0.23275
3001	8.9523	2.1818	0.	0.17622
3002	9.1358	2.1818	0.	0.13351
3003	9.3193	2.1818	0.	0.10117
3004	9.5028	2.1818	0.	7.6715e-002
3005	9.6863	2.1818	0.	5.8247e-002
3006	9.8698	2.1818	0.	4.4312e-002
3007	10.053	2.1818	0.	3.3814e-002
3008	10.237	2.1818	0.	2.5955e-002
3009	10.42	2.1818	0.	2.0083e-002
3010	10.604	2.1818	0.	1.5714e-002
3011	10.787	2.1818	0.	1.2463e-002
3012	10.971	2.1818	0.	1.002e-002
3013	11.154	2.1818	0.	8.2369e-003
3014	11.338	2.1818	0.	7.0083e-003
3015	11.521	2.1818	0.	6.1489e-003
3016	11.705	2.1818	0.	5.5615e-003
3017	11.888	2.1818	0.	5.1654e-003
3018	12.072	2.1818	0.	4.91e-003
3019	12.255	2.1818	0.	4.7674e-003
3020	12.439	2.1818	0.	4.7148e-003
3021	12.622	2.1818	0.	4.7869e-003
3022	12.806	2.1818	0.	4.9175e-003
3023	12.989	2.1818	0.	5.0419e-003
3024	13.173	2.1818	0.	5.1886e-003
3025	13.356	2.1818	0.	5.3536e-003
3026	13.54	2.1818	0.	5.5423e-003
3027	13.724	2.1818	0.	5.7931e-003
3028	13.907	2.1818	0.	6.067e-003
3029	14.091	2.1818	0.	6.36e-003
3030	14.274	2.1818	0.	6.6779e-003
3031	14.458	2.1818	0.	7.0129e-003
3032	14.641	2.1818	0.	7.4467e-003
3033	14.825	2.1818	0.	8.0944e-003
3034	15.008	2.1818	0.	9.1657e-003
3035	15.192	2.1818	0.	1.1821e-002
3036	15.375	2.1818	0.	6.4843e-002
3037	15.559	2.1818	0.	1.6139
3038	15.742	2.1818	0.	3.241
3039	15.926	2.1818	0.	4.8066
3040	16.109	2.1818	0.	6.3193
3041	16.293	2.1818	0.	7.7882
3042	16.476	2.1818	0.	9.2226
3043	16.66	2.1818	0.	10.632
3044	16.843	2.1818	0.	12.024
3045	17.027	2.1818	0.	13.409
3046	17.21	2.1818	0.	14.794
3047	17.394	2.1818	0.	16.189
3048	17.577	2.1818	0.	17.603
3049	17.761	2.1818	0.	19.043
3050	17.944	2.1818	0.	20.52
3051	18.128	2.1818	0.	22.042
3052	18.311	2.1818	0.	23.619
3053	18.495	2.1818	0.	25.26
3054	18.678	2.1818	0.	26.977
3055	18.862	2.1818	0.	28.778
3056	19.045	2.1818	0.	30.677
3057	19.229	2.1818	0.	32.683
3058	19.412	2.1818	0.	34.81
3059	19.596	2.1818	0.	37.07
3060	19.779	2.1818	0.	39.478
3061	19.963	2.1818	0.	42.048
3062	20.146	2.1818	0.	44.795
3063	20.33	2.1818	0.	47.736
3064	20.513	2.1818	0.	50.889
3065	20.697	2.1818	0.	54.271
3066	20.88	2.1818	0.	57.903
3067	21.064	2.1818	0.	61.806
3068	21.247	2.1818	0.	66.001
3069	21.431	2.1818	0.	70.512
3070	21.614	2.1818	0.	75.363
3071	21.798	2.1818	0.	80.578
3072	21.981	2.1818	0.	86.183
3073	22.165	2.1818	0.	92.204
3074	22.348	2.1818	0.	98.664
3075	22.532	2.1818	0.	105.59
3076	22.715	2.1818	0.	113.
3077	22.899	2.1818	0.	120.91
3078	23.082	2.1818	0.	129.33
3079	23.266	2.1818	0.	138.27
3080	23.449	2.1818	0.	147.72
3081	23.633	2.1818	0.	157.73
3082	23.816	2.1818	0.	168.07
3083	6.7502	2.	0.	2165.2
3084	6.9337	2.	0.	771.56
3085	7.1172	2.	0.	305.74
3086	7.3007	2.	0.	72.745
3087	7.4842	2.	0.	6.3341
3088	7.6677	2.	0.	2.8795
3089	7.8512	2.	0.	1.4994
3090	8.0347	2.	0.	1.0247
3091	8.2182	2.	0.	0.70828
3092	8.4018	2.	0.	0.5172
3093	8.5853	2.	0.	0.38221
3094	8.7688	2.	0.	0.28624
3095	8.9523	2.	0.	0.2156
3096	9.1358	2.	0.	0.16314
3097	9.3193	2.	0.	0.12385
3098	9.5028	2.	0.	9.4305e-002
3099	9.6863	2.	0.	7.2039e-002
3100	9.8698	2.	0.	5.5229e-002
3101	10.053	2.	0.	4.2524e-002
3102	10.237	2.	0.	3.2957e-002
3103	10.42	2.	0.	2.5748e-002
3104	10.604	2.	0.	2.0321e-002
3105	10.787	2.	0.	1.6228e-002
3106	10.971	2.	0.	1.3107e-002
3107	11.154	2.	0.	1.0776e-002
3108	11.338	2.	0.	9.1009e-003
3109	11.521	2.	0.	7.8741e-003
3110	11.705	2.	0.	6.9838e-003
3111	11.888	2.	0.	6.3361e-003
3112	12.072	2.	0.	5.8713e-003
3113	12.255	2.	0.	5.5562e-003
3114	12.439	2.	0.	5.3566e-003
3115	12.622	2.	0.	5.3072e-003
3116	12.806	2.	0.	5.3343e-003
3117	12.989	2.	0.	5.3785e-003
3118	13.173	2.	0.	5.4564e-003
3119	13.356	2.	0.	5.5668e-003
3120	13.54	2.	0.	5.7158e-003
3121	13.724	2.	0.	5.9416e-003
3122	13.907	2.	0.	6.206e-003
3123	14.091	2.	0.	6.5085e-003
3124	14.274	2.	0.	6.8636e-003
3125	14.458	2.	0.	7.2795e-003
3126	14.641	2.	0.	7.8692e-003
3127	14.825	2.	0.	8.8505e-003
3128	15.008	2.	0.	1.079e-002
3129	15.192	2.	0.	1.7927e-002
3130	15.375	2.	0.	0.59855
3131	15.559	2.	0.	2.2149
3132	15.742	2.	0.	3.7752
3133	15.926	2.	0.	5.277
3134	16.109	2.	0.	6.7286
3135	16.293	2.	0.	8.1388
3136	16.476	2.	0.	9.5161
3137	16.66	2.	0.	10.869
3138	16.843	2.	0.	12.206
3139	17.027	2.	0.	13.536
3140	17.21	2.	0.	14.866
3141	17.394	2.	0.	16.206
3142	17.577	2.	0.	17.562
3143	17.761	2.	0.	18.944
3144	17.944	2.	0.	20.359
3145	18.128	2.	0.	21.818
3146	18.311	2.	0.	23.327
3147	18.495	2.	0.	24.898
3148	18.678	2.	0.	26.54
3149	18.862	2.	0.	28.261
3150	19.045	2.	0.	30.074
3151	19.229	2.	0.	31.989
3152	19.412	2.	0.	34.017
3153	19.596	2.	0.	36.171
3154	19.779	2.	0.	38.464
3155	19.963	2.	0.	40.911
3156	20.146	2.	0.	43.525
3157	20.33	2.	0.	46.322
3158	20.513	2.	0.	49.32
3159	20.697	2.	0.	52.537
3160	20.88	2.	0.	55.992
3161	21.064	2.	0.	59.705
3162	21.247	2.	0.	63.699
3163	21.431	2.	0.	67.998
3164	21.614	2.	0.	72.627
3165	21.798	2.	0.	77.612
3166	21.981	2.	0.	82.982
3167	22.165	2.	0.	88.765
3168	22.348	2.	0.	94.991
3169	22.532	2.	0.	101.69
3170	22.715	2.	0.	108.88
3171	22.899	2.	0.	116.6
3172	23.082	2.	0.	124.85
3173	23.266	2.	0.	133.66
3174	23.449	2.	0.	143.
3175	23.633	2.	0.	152.95
3176	23.816	2.	0.	163.27
3177	6.7502	1.8182	0.	3304.2
3178	6.9337	1.8182	0.	1343.9
3179	7.1172	1.8182	0.	566.6
3180	7.3007	1.8182	0.	233.04
3181	7.4842	1.8182	0.	55.646
3182	7.6677	1.8182	0.	7.4249
3183	7.8512	1.8182	0.	2.7983
3184	8.0347	1.8182	0.	1.5733
3185	8.2182	1.8182	0.	1.0054
3186	8.4018	1.8182	0.	0.69287
3187	8.5853	1.8182	0.	0.49469
3188	8.7688	1.8182	0.	0.3616
3189	8.9523	1.8182	0.	0.26803
3190	9.1358	1.8182	0.	0.20065
3191	9.3193	1.8182	0.	0.15132
3192	9.5028	1.8182	0.	0.11483
3193	9.6863	1.8182	0.	8.7643e-002
3194	9.8698	1.8182	0.	6.7279e-002
3195	10.053	1.8182	0.	5.1961e-002
3196	10.237	1.8182	0.	4.0437e-002
3197	10.42	1.8182	0.	3.174e-002
3198	10.604	1.8182	0.	2.5164e-002
3199	10.787	1.8182	0.	2.017e-002
3200	10.971	1.8182	0.	1.6336e-002
3201	11.154	1.8182	0.	1.343e-002
3202	11.338	1.8182	0.	1.129e-002
3203	11.521	1.8182	0.	9.6818e-003
3204	11.705	1.8182	0.	8.4756e-003
3205	11.888	1.8182	0.	7.5674e-003
3206	12.072	1.8182	0.	6.8837e-003
3207	12.255	1.8182	0.	6.384e-003
3208	12.439	1.8182	0.	6.0319e-003
3209	12.622	1.8182	0.	5.8518e-003
3210	12.806	1.8182	0.	5.7749e-003
3211	12.989	1.8182	0.	5.7269e-003
3212	13.173	1.8182	0.	5.734e-003
3213	13.356	1.8182	0.	5.7894e-003
3214	13.54	1.8182	0.	5.9001e-003
3215	13.724	1.8182	0.	6.1035e-003
3216	13.907	1.8182	0.	6.3696e-003
3217	14.091	1.8182	0.	6.7003e-003
3218	14.274	1.8182	0.	7.128e-003
3219	14.458	1.8182	0.	7.6878e-003
3220	14.641	1.8182	0.	8.573e-003
3221	14.825	1.8182	0.	1.025e-002
3222	15.008	1.8182	0.	1.4562e-002
3223	15.192	1.8182	0.	6.1255e-002
3224	15.375	1.8182	0.	1.3858
3225	15.559	1.8182	0.	2.9285
3226	15.742	1.8182	0.	4.4106
3227	15.926	1.8182	0.	5.8377
3228	16.109	1.8182	0.	7.2179
3229	16.293	1.8182	0.	8.5592
3230	16.476	1.8182	0.	9.8696
3231	16.66	1.8182	0.	11.157
3232	16.843	1.8182	0.	12.43
3233	17.027	1.8182	0.	13.695
3234	17.21	1.8182	0.	14.961
3235	17.394	1.8182	0.	16.234
3236	17.577	1.8182	0.	17.524
3237	17.761	1.8182	0.	18.837
3238	17.944	1.8182	0.	20.181
3239	18.128	1.8182	0.	21.565
3240	18.311	1.8182	0.	22.996
3241	18.495	1.8182	0.	24.484
3242	18.678	1.8182	0.	26.038
3243	18.862	1.8182	0.	27.666
3244	19.045	1.8182	0.	29.379
3245	19.229	1.8182	0.	31.186
3246	19.412	1.8182	0.	33.099
3247	19.596	1.8182	0.	35.129
3248	19.779	1.8182	0.	37.288
3249	19.963	1.8182	0.	39.59
3250	20.146	1.8182	0.	42.047
3251	20.33	1.8182	0.	44.676
3252	20.513	1.8182	0.	47.492
3253	20.697	1.8182	0.	50.513
3254	20.88	1.8182	0.	53.757
3255	21.064	1.8182	0.	57.245
3256	21.247	1.8182	0.	60.999
3257	21.431	1.8182	0.	65.043
3258	21.614	1.8182	0.	69.403
3259	21.798	1.8182	0.	74.108
3260	21.981	1.8182	0.	79.189
3261	22.165	1.8182	0.	84.677
3262	22.348	1.8182	0.	90.607
3263	22.532	1.8182	0.	97.014
3264	22.715	1.8182	0.	103.93
3265	22.899	1.8182	0.	111.4
3266	23.082	1.8182	0.	119.43
3267	23.266	1.8182	0.	128.05
3268	23.449	1.8182	0.	137.26
3269	23.633	1.8182	0.	147.11
3270	23.816	1.8182	0.	157.41
3271	6.7502	1.6364	0.	2965.9
3272	6.9337	1.6364	0.	1462.4
3273	7.1172	1.6364	0.	754.41
3274	7.3007	1.6364	0.	376.5
3275	7.4842	1.6364	0.	160.48
3276	7.6677	1.6364	0.	42.935
3277	7.8512	1.6364	0.	7.276
3278	8.0347	1.6364	0.	2.833
3279	8.2182	1.6364	0.	1.5587
3280	8.4018	1.6364	0.	0.98566
3281	8.5853	1.6364	0.	0.66647
3282	8.7688	1.6364	0.	0.46872
3283	8.9523	1.6364	0.	0.33783
3284	9.1358	1.6364	0.	0.24769
3285	9.3193	1.6364	0.	0.18396
3286	9.5028	1.6364	0.	0.13807
3287	9.6863	1.6364	0.	0.1046
3288	9.8698	1.6364	0.	7.9945e-002
3289	10.053	1.6364	0.	6.1621e-002
3290	10.237	1.6364	0.	4.7947e-002
3291	10.42	1.6364	0.	3.7676e-002
3292	10.604	1.6364	0.	2.9922e-002
3293	10.787	1.6364	0.	2.4028e-002
3294	10.971	1.6364	0.	1.9491e-002
3295	11.154	1.6364	0.	1.6027e-002
3296	11.338	1.6364	0.	1.3436e-002
3297	11.521	1.6364	0.	1.1459e-002
3298	11.705	1.6364	0.	9.9481e-003
3299	11.888	1.6364	0.	8.7842e-003
3300	12.072	1.6364	0.	7.8862e-003
3301	12.255	1.6364	0.	7.2056e-003
3302	12.439	1.6364	0.	6.7004e-003
3303	12.622	1.6364	0.	6.3923e-003
3304	12.806	1.6364	0.	6.2054e-003
3305	12.989	1.6364	0.	6.0701e-003
3306	13.173	1.6364	0.	6.0059e-003
3307	13.356	1.6364	0.	6.009e-003
3308	13.54	1.6364	0.	6.0859e-003
3309	13.724	1.6364	0.	6.281e-003
3310	13.907	1.6364	0.	6.5657e-003
3311	14.091	1.6364	0.	6.9633e-003
3312	14.274	1.6364	0.	7.5291e-003
3313	14.458	1.6364	0.	8.3746e-003
3314	14.641	1.6364	0.	9.8947e-003
3315	14.825	1.6364	0.	1.3408e-002
3316	15.008	1.6364	0.	2.9572e-002
3317	15.192	1.6364	0.	0.79424
3318	15.375	1.6364	0.	2.2999
3319	15.559	1.6364	0.	3.7511
3320	15.742	1.6364	0.	5.1446
3321	15.926	1.6364	0.	6.4871
3322	16.109	1.6364	0.	7.7862
3323	16.293	1.6364	0.	9.0493
3324	16.476	1.6364	0.	10.284
3325	16.66	1.6364	0.	11.497
3326	16.843	1.6364	0.	12.696
3327	17.027	1.6364	0.	13.889
3328	17.21	1.6364	0.	15.081
3329	17.394	1.6364	0.	16.28
3330	17.577	1.6364	0.	17.494
3331	17.761	1.6364	0.	18.729
3332	17.944	1.6364	0.	19.992
3333	18.128	1.6364	0.	21.292
3334	18.311	1.6364	0.	22.635
3335	18.495	1.6364	0.	24.03
3336	18.678	1.6364	0.	25.484
3337	18.862	1.6364	0.	27.006
3338	19.045	1.6364	0.	28.606
3339	19.229	1.6364	0.	30.292
3340	19.412	1.6364	0.	32.074
3341	19.596	1.6364	0.	33.964
3342	19.779	1.6364	0.	35.971
3343	19.963	1.6364	0.	38.109
3344	20.146	1.6364	0.	40.389
3345	20.33	1.6364	0.	42.826
3346	20.513	1.6364	0.	45.434
3347	20.697	1.6364	0.	48.231
3348	20.88	1.6364	0.	51.234
3349	21.064	1.6364	0.	54.462
3350	21.247	1.6364	0.	57.938
3351	21.431	1.6364	0.	61.685
3352	21.614	1.6364	0.	65.73
3353	21.798	1.6364	0.	70.104
3354	21.981	1.6364	0.	74.837
3355	22.165	1.6364	0.	79.968
3356	22.348	1.6364	0.	85.536
3357	22.532	1.6364	0.	91.583
3358	22.715	1.6364	0.	98.153
3359	22.899	1.6364	0.	105.29
3360	23.082	1.6364	0.	113.03
3361	23.266	1.6364	0.	121.41
3362	23.449	1.6364	0.	130.44
3363	23.633	1.6364	0.	140.17
3364	23.816	1.6364	0.	150.43
3365	6.7502	1.4545	0.	2256.6
3366	6.9337	1.4545	0.	1329.5
3367	7.1172	1.4545	0.	787.39
3368	7.3007	1.4545	0.	445.67
3369	7.4842	1.4545	0.	236.54
3370	7.6677	1.4545	0.	110.07
3371	7.8512	1.4545	0.	36.446
3372	8.0347	1.4545	0.	8.0133
3373	8.2182	1.4545	0.	2.9895
3374	8.4018	1.4545	0.	1.5843
3375	8.5853	1.4545	0.	0.96868
3376	8.7688	1.4545	0.	0.63703
3377	8.9523	1.4545	0.	0.43748
3378	9.1358	1.4545	0.	0.30934
3379	9.3193	1.4545	0.	0.22352
3380	9.5028	1.4545	0.	0.16434
3381	9.6863	1.4545	0.	0.12264
3382	9.8698	1.4545	0.	9.2738e-002
3383	10.053	1.4545	0.	7.0993e-002
3384	10.237	1.4545	0.	5.5022e-002
3385	10.42	1.4545	0.	4.3161e-002
3386	10.604	1.4545	0.	3.4272e-002
3387	10.787	1.4545	0.	2.754e-002
3388	10.971	1.4545	0.	2.2366e-002
3389	11.154	1.4545	0.	1.8402e-002
3390	11.338	1.4545	0.	1.541e-002
3391	11.521	1.4545	0.	1.3105e-002
3392	11.705	1.4545	0.	1.1319e-002
3393	11.888	1.4545	0.	9.9227e-003
3394	12.072	1.4545	0.	8.8278e-003
3395	12.255	1.4545	0.	7.9788e-003
3396	12.439	1.4545	0.	7.329e-003
3397	12.622	1.4545	0.	6.8968e-003
3398	12.806	1.4545	0.	6.6071e-003
3399	12.989	1.4545	0.	6.3856e-003
3400	13.173	1.4545	0.	6.2582e-003
3401	13.356	1.4545	0.	6.216e-003
3402	13.54	1.4545	0.	6.273e-003
3403	13.724	1.4545	0.	6.4817e-003
3404	13.907	1.4545	0.	6.8265e-003
3405	14.091	1.4545	0.	7.3597e-003
3406	14.274	1.4545	0.	8.2188e-003
3407	14.458	1.4545	0.	9.705e-003
3408	14.641	1.4545	0.	1.2983e-002
3409	14.825	1.4545	0.	2.5173e-002
3410	15.008	1.4545	0.	0.47998
3411	15.192	1.4545	0.	1.9236
3412	15.375	1.4545	0.	3.3305
3413	15.559	1.4545	0.	4.679
3414	15.742	1.4545	0.	5.9743
3415	15.926	1.4545	0.	7.2232
3416	16.109	1.4545	0.	8.4327
3417	16.293	1.4545	0.	9.6094
3418	16.476	1.4545	0.	10.76
3419	16.66	1.4545	0.	11.891
3420	16.843	1.4545	0.	13.009
3421	17.027	1.4545	0.	14.121
3422	17.21	1.4545	0.	15.232
3423	17.394	1.4545	0.	16.349
3424	17.577	1.4545	0.	17.479
3425	17.761	1.4545	0.	18.628
3426	17.944	1.4545	0.	19.802
3427	18.128	1.4545	0.	21.009
3428	18.311	1.4545	0.	22.254
3429	18.495	1.4545	0.	23.546
3430	18.678	1.4545	0.	24.891
3431	18.862	1.4545	0.	26.298
3432	19.045	1.4545	0.	27.773
3433	19.229	1.4545	0.	29.325
3434	19.412	1.4545	0.	30.964
3435	19.596	1.4545	0.	32.699
3436	19.779	1.4545	0.	34.539
3437	19.963	1.4545	0.	36.495
3438	20.146	1.4545	0.	38.579
3439	20.33	1.4545	0.	40.804
3440	20.513	1.4545	0.	43.183
3441	20.697	1.4545	0.	45.73
3442	20.88	1.4545	0.	48.464
3443	21.064	1.4545	0.	51.401
3444	21.247	1.4545	0.	54.563
3445	21.431	1.4545	0.	57.973
3446	21.614	1.4545	0.	61.658
3447	21.798	1.4545	0.	65.647
3448	21.981	1.4545	0.	69.976
3449	22.165	1.4545	0.	74.684
3450	22.348	1.4545	0.	79.815
3451	22.532	1.4545	0.	85.421
3452	22.715	1.4545	0.	91.555
3453	22.899	1.4545	0.	98.276
3454	23.082	1.4545	0.	105.64
3455	23.266	1.4545	0.	113.7
3456	23.449	1.4545	0.	122.47
3457	23.633	1.4545	0.	132.04
3458	23.816	1.4545	0.	142.24
3459	6.7502	1.2727	0.	1756.6
3460	6.9337	1.2727	0.	1107.1
3461	7.1172	1.2727	0.	709.58
3462	7.3007	1.2727	0.	443.01
3463	7.4842	1.2727	0.	268.16
3464	7.6677	1.2727	0.	155.73
3465	7.8512	1.2727	0.	83.514
3466	8.0347	1.2727	0.	37.39
3467	8.2182	1.2727	0.	11.7
3468	8.4018	1.2727	0.	3.749
3469	8.5853	1.2727	0.	1.7395
3470	8.7688	1.2727	0.	0.97946
3471	8.9523	1.2727	0.	0.6087
3472	9.1358	1.2727	0.	0.40146
3473	9.3193	1.2727	0.	0.27583
3474	9.5028	1.2727	0.	0.19543
3475	9.6863	1.2727	0.	0.14198
3476	9.8698	1.2727	0.	0.10534
3477	10.053	1.2727	0.	7.9615e-002
3478	10.237	1.2727	0.	6.1211e-002
3479	10.42	1.2727	0.	4.7806e-002
3480	10.604	1.2727	0.	3.7893e-002
3481	10.787	1.2727	0.	3.0451e-002
3482	10.971	1.2727	0.	2.4756e-002
3483	11.154	1.2727	0.	2.0395e-002
3484	11.338	1.2727	0.	1.7083e-002
3485	11.521	1.2727	0.	1.4513e-002
3486	11.705	1.2727	0.	1.2503e-002
3487	11.888	1.2727	0.	1.0914e-002
3488	12.072	1.2727	0.	9.6493e-003
3489	12.255	1.2727	0.	8.6516e-003
3490	12.439	1.2727	0.	7.8715e-003
3491	12.622	1.2727	0.	7.3297e-003
3492	12.806	1.2727	0.	6.9445e-003
3493	12.989	1.2727	0.	6.6487e-003
3494	13.173	1.2727	0.	6.4637e-003
3495	13.356	1.2727	0.	6.3926e-003
3496	13.54	1.2727	0.	6.4563e-003
3497	13.724	1.2727	0.	6.7213e-003
3498	13.907	1.2727	0.	7.2136e-003
3499	14.091	1.2727	0.	8.068e-003
3500	14.274	1.2727	0.	9.6499e-003
3501	14.458	1.2727	0.	1.3146e-002
3502	14.641	1.2727	0.	2.6204e-002
3503	14.825	1.2727	0.	0.45469
3504	15.008	1.2727	0.	1.8338
3505	15.192	1.2727	0.	3.1814
3506	15.375	1.2727	0.	4.4714
3507	15.559	1.2727	0.	5.7078
3508	15.742	1.2727	0.	6.8967
3509	15.926	1.2727	0.	8.0442
3510	16.109	1.2727	0.	9.1564
3511	16.293	1.2727	0.	10.239
3512	16.476	1.2727	0.	11.299
3513	16.66	1.2727	0.	12.341
3514	16.843	1.2727	0.	13.371
3515	17.027	1.2727	0.	14.395
3516	17.21	1.2727	0.	15.418
3517	17.394	1.2727	0.	16.447
3518	17.577	1.2727	0.	17.486
3519	17.761	1.2727	0.	18.542
3520	17.944	1.2727	0.	19.62
3521	18.128	1.2727	0.	20.727
3522	18.311	1.2727	0.	21.867
3523	18.495	1.2727	0.	23.048
3524	18.678	1.2727	0.	24.276
3525	18.862	1.2727	0.	25.557
3526	19.045	1.2727	0.	26.898
3527	19.229	1.2727	0.	28.307
3528	19.412	1.2727	0.	29.792
3529	19.596	1.2727	0.	31.36
3530	19.779	1.2727	0.	33.019
3531	19.963	1.2727	0.	34.781
3532	20.146	1.2727	0.	36.653
3533	20.33	1.2727	0.	38.648
3534	20.513	1.2727	0.	40.778
3535	20.697	1.2727	0.	43.055
3536	20.88	1.2727	0.	45.494
3537	21.064	1.2727	0.	48.113
3538	21.247	1.2727	0.	50.929
3539	21.431	1.2727	0.	53.966
3540	21.614	1.2727	0.	57.247
3541	21.798	1.2727	0.	60.803
3542	21.981	1.2727	0.	64.668
3543	22.165	1.2727	0.	68.885
3544	22.348	1.2727	0.	73.501
3545	22.532	1.2727	0.	78.574
3546	22.715	1.2727	0.	84.17
3547	22.899	1.2727	0.	90.364
3548	23.082	1.2727	0.	97.234
3549	23.266	1.2727	0.	104.86
3550	23.449	1.2727	0.	113.29
3551	23.633	1.2727	0.	122.62
3552	23.816	1.2727	0.	132.72
3553	6.7502	1.0909	0.	1345.
3554	6.9337	1.0909	0.	865.81
3555	7.1172	1.0909	0.	584.94
3556	7.3007	1.0909	0.	392.83
3557	7.4842	1.0909	0.	262.79
3558	7.6677	1.0909	0.	175.3
3559	7.8512	1.0909	0.	115.43
3560	8.0347	1.0909	0.	73.32
3561	8.2182	1.0909	0.	42.889
3562	8.4018	1.0909	0.	20.852
3563	8.5853	1.0909	0.	7.0915
3564	8.7688	1.0909	0.	2.3235
3565	8.9523	1.0909	0.	1.0574
3566	9.1358	1.0909	0.	0.58495
3567	9.3193	1.0909	0.	0.3601
3568	9.5028	1.0909	0.	0.23728
3569	9.6863	1.0909	0.	0.16412
3570	9.8698	1.0909	0.	0.11783
3571	10.053	1.0909	0.	8.7169e-002
3572	10.237	1.0909	0.	6.6156e-002
3573	10.42	1.0909	0.	5.1317e-002
3574	10.604	1.0909	0.	4.0576e-002
3575	10.787	1.0909	0.	3.2621e-002
3576	10.971	1.0909	0.	2.658e-002
3577	11.154	1.0909	0.	2.1962e-002
3578	11.338	1.0909	0.	1.8443e-002
3579	11.521	1.0909	0.	1.5694e-002
3580	11.705	1.0909	0.	1.3521e-002
3581	11.888	1.0909	0.	1.1783e-002
3582	12.072	1.0909	0.	1.038e-002
3583	12.255	1.0909	0.	9.2538e-003
3584	12.439	1.0909	0.	8.3582e-003
3585	12.622	1.0909	0.	7.7108e-003
3586	12.806	1.0909	0.	7.2389e-003
3587	12.989	1.0909	0.	6.8729e-003
3588	13.173	1.0909	0.	6.6453e-003
3589	13.356	1.0909	0.	6.568e-003
3590	13.54	1.0909	0.	6.6844e-003
3591	13.724	1.0909	0.	7.1095e-003
3592	13.907	1.0909	0.	7.9824e-003
3593	14.091	1.0909	0.	9.7682e-003
3594	14.274	1.0909	0.	1.4222e-002
3595	14.458	1.0909	0.	3.6301e-002
3596	14.641	1.0909	0.	0.74626
3597	14.825	1.0909	0.	2.0657
3598	15.008	1.0909	0.	3.3374
3599	15.192	1.0909	0.	4.553
3600	15.375	1.0909	0.	5.7167
3601	15.559	1.0909	0.	6.8335
3602	15.742	1.0909	0.	7.9088
3603	15.926	1.0909	0.	8.9481
3604	16.109	1.0909	0.	9.9566
3605	16.293	1.0909	0.	10.939
3606	16.476	1.0909	0.	11.902
3607	16.66	1.0909	0.	12.849
3608	16.843	1.0909	0.	13.785
3609	17.027	1.0909	0.	14.716
3610	17.21	1.0909	0.	15.646
3611	17.394	1.0909	0.	16.58
3612	17.577	1.0909	0.	17.524
3613	17.761	1.0909	0.	18.481
3614	17.944	1.0909	0.	19.457
3615	18.128	1.0909	0.	20.458
3616	18.311	1.0909	0.	21.487
3617	18.495	1.0909	0.	22.551
3618	18.678	1.0909	0.	23.654
3619	18.862	1.0909	0.	24.803
3620	19.045	1.0909	0.	26.004
3621	19.229	1.0909	0.	27.261
3622	19.412	1.0909	0.	28.583
3623	19.596	1.0909	0.	29.975
3624	19.779	1.0909	0.	31.445
3625	19.963	1.0909	0.	33.
3626	20.146	1.0909	0.	34.649
3627	20.33	1.0909	0.	36.401
3628	20.513	1.0909	0.	38.266
3629	20.697	1.0909	0.	40.256
3630	20.88	1.0909	0.	42.382
3631	21.064	1.0909	0.	44.659
3632	21.247	1.0909	0.	47.104
3633	21.431	1.0909	0.	49.735
3634	21.614	1.0909	0.	52.575
3635	21.798	1.0909	0.	55.653
3636	21.981	1.0909	0.	59.
3637	22.165	1.0909	0.	62.658
3638	22.348	1.0909	0.	66.677
3639	22.532	1.0909	0.	71.119
3640	22.715	1.0909	0.	76.06
3641	22.899	1.0909	0.	81.59
3642	23.082	1.0909	0.	87.815
3643	23.266	1.0909	0.	94.852
3644	23.449	1.0909	0.	102.79
3645	23.633	1.0909	0.	111.78
3646	23.816	1.0909	0.	121.74
3647	6.7502	0.90909	0.	1005.3
3648	6.9337	0.90909	0.	641.27
3649	7.1172	0.90909	0.	446.01
3650	7.3007	0.90909	0.	319.45
3651	7.4842	0.90909	0.	234.1
3652	7.6677	0.90909	0.	174.42
3653	7.8512	0.90909	0.	130.55
3654	8.0347	0.90909	0.	96.78
3655	8.2182	0.90909	0.	69.82
3656	8.4018	0.90909	0.	47.82
3657	8.5853	0.90909	0.	29.745
3658	8.7688	0.90909	0.	15.155
3659	8.9523	0.90909	0.	4.9138
3660	9.1358	0.90909	0.	1.3388
3661	9.3193	0.90909	0.	0.5718
3662	9.5028	0.90909	0.	0.31326
3663	9.6863	0.90909	0.	0.19511
3664	9.8698	0.90909	0.	0.13155
3665	10.053	0.90909	0.	9.3717e-002
3666	10.237	0.90909	0.	6.9596e-002
3667	10.42	0.90909	0.	5.3384e-002
3668	10.604	0.90909	0.	4.2027e-002
3669	10.787	0.90909	0.	3.3787e-002
3670	10.971	0.90909	0.	2.7599e-002
3671	11.154	0.90909	0.	2.2884e-002
3672	11.338	0.90909	0.	1.9281e-002
3673	11.521	0.90909	0.	1.6446e-002
3674	11.705	0.90909	0.	1.4182e-002
3675	11.888	0.90909	0.	1.2345e-002
3676	12.072	0.90909	0.	1.0841e-002
3677	12.255	0.90909	0.	9.6142e-003
3678	12.439	0.90909	0.	8.6199e-003
3679	12.622	0.90909	0.	7.8839e-003
3680	12.806	0.90909	0.	7.3361e-003
3681	12.989	0.90909	0.	6.9177e-003
3682	13.173	0.90909	0.	6.6778e-003
3683	13.356	0.90909	0.	6.6593e-003
3684	13.54	0.90909	0.	6.9751e-003
3685	13.724	0.90909	0.	7.9286e-003
3686	13.907	0.90909	0.	1.0317e-002
3687	14.091	0.90909	0.	1.8539e-002
3688	14.274	0.90909	0.	0.21215
3689	14.458	0.90909	0.	1.4276
3690	14.641	0.90909	0.	2.6569
3691	14.825	0.90909	0.	3.8324
3692	15.008	0.90909	0.	4.9554
3693	15.192	0.90909	0.	6.0301
3694	15.375	0.90909	0.	7.0606
3695	15.559	0.90909	0.	8.0515
3696	15.742	0.90909	0.	9.0075
3697	15.926	0.90909	0.	9.9329
3698	16.109	0.90909	0.	10.832
3699	16.293	0.90909	0.	11.71
3700	16.476	0.90909	0.	12.57
3701	16.66	0.90909	0.	13.417
3702	16.843	0.90909	0.	14.255
3703	17.027	0.90909	0.	15.088
3704	17.21	0.90909	0.	15.921
3705	17.394	0.90909	0.	16.756
3706	17.577	0.90909	0.	17.599
3707	17.761	0.90909	0.	18.454
3708	17.944	0.90909	0.	19.324
3709	18.128	0.90909	0.	20.214
3710	18.311	0.90909	0.	21.128
3711	18.495	0.90909	0.	22.07
3712	18.678	0.90909	0.	23.045
3713	18.862	0.90909	0.	24.057
3714	19.045	0.90909	0.	25.111
3715	19.229	0.90909	0.	26.212
3716	19.412	0.90909	0.	27.365
3717	19.596	0.90909	0.	28.575
3718	19.779	0.90909	0.	29.848
3719	19.963	0.90909	0.	31.19
3720	20.146	0.90909	0.	32.608
3721	20.33	0.90909	0.	34.109
3722	20.513	0.90909	0.	35.7
3723	20.697	0.90909	0.	37.39
3724	20.88	0.90909	0.	39.189
3725	21.064	0.90909	0.	41.109
3726	21.247	0.90909	0.	43.162
3727	21.431	0.90909	0.	45.365
3728	21.614	0.90909	0.	47.736
3729	21.798	0.90909	0.	50.298
3730	21.981	0.90909	0.	53.081
3731	22.165	0.90909	0.	56.121
3732	22.348	0.90909	0.	59.465
3733	22.532	0.90909	0.	63.176
3734	22.715	0.90909	0.	67.333
3735	22.899	0.90909	0.	72.04
3736	23.082	0.90909	0.	77.428
3737	23.266	0.90909	0.	83.662
3738	23.449	0.90909	0.	90.904
3739	23.633	0.90909	0.	99.373
3740	23.816	0.90909	0.	109.09
3741	6.7502	0.72727	0.	715.78
3742	6.9337	0.72727	0.	439.59
3743	7.1172	0.72727	0.	313.29
3744	7.3007	0.72727	0.	241.53
3745	7.4842	0.72727	0.	194.86
3746	7.6677	0.72727	0.	160.31
3747	7.8512	0.72727	0.	131.86
3748	8.0347	0.72727	0.	107.06
3749	8.2182	0.72727	0.	84.989
3750	8.4018	0.72727	0.	65.341
3751	8.5853	0.72727	0.	48.027
3752	8.7688	0.72727	0.	33.005
3753	8.9523	0.72727	0.	20.233
3754	9.1358	0.72727	0.	9.7374
3755	9.3193	0.72727	0.	2.4811
3756	9.5028	0.72727	0.	0.58571
3757	9.6863	0.72727	0.	0.26111
3758	9.8698	0.72727	0.	0.15167
3759	10.053	0.72727	0.	0.10048
3760	10.237	0.72727	0.	7.2133e-002
3761	10.42	0.72727	0.	5.468e-002
3762	10.604	0.72727	0.	4.3094e-002
3763	10.787	0.72727	0.	3.4939e-002
3764	10.971	0.72727	0.	2.8893e-002
3765	11.154	0.72727	0.	2.4286e-002
3766	11.338	0.72727	0.	2.0734e-002
3767	11.521	0.72727	0.	1.7886e-002
3768	11.705	0.72727	0.	1.556e-002
3769	11.888	0.72727	0.	1.3621e-002
3770	12.072	0.72727	0.	1.1983e-002
3771	12.255	0.72727	0.	1.0604e-002
3772	12.439	0.72727	0.	9.4491e-003
3773	12.622	0.72727	0.	8.5511e-003
3774	12.806	0.72727	0.	7.8554e-003
3775	12.989	0.72727	0.	7.33e-003
3776	13.173	0.72727	0.	7.0678e-003
3777	13.356	0.72727	0.	7.2496e-003
3778	13.54	0.72727	0.	8.4607e-003
3779	13.724	0.72727	0.	1.3973e-002
3780	13.907	0.72727	0.	0.22067
3781	14.091	0.72727	0.	1.3859
3782	14.274	0.72727	0.	2.5404
3783	14.458	0.72727	0.	3.6449
3784	14.641	0.72727	0.	4.7006
3785	14.825	0.72727	0.	5.7105
3786	15.008	0.72727	0.	6.6776
3787	15.192	0.72727	0.	7.6055
3788	15.375	0.72727	0.	8.4978
3789	15.559	0.72727	0.	9.3581
3790	15.742	0.72727	0.	10.19
3791	15.926	0.72727	0.	10.997
3792	16.109	0.72727	0.	11.783
3793	16.293	0.72727	0.	12.552
3794	16.476	0.72727	0.	13.306
3795	16.66	0.72727	0.	14.05
3796	16.843	0.72727	0.	14.786
3797	17.027	0.72727	0.	15.518
3798	17.21	0.72727	0.	16.249
3799	17.394	0.72727	0.	16.983
3800	17.577	0.72727	0.	17.723
3801	17.761	0.72727	0.	18.472
3802	17.944	0.72727	0.	19.233
3803	18.128	0.72727	0.	20.01
3804	18.311	0.72727	0.	20.806
3805	18.495	0.72727	0.	21.624
3806	18.678	0.72727	0.	22.467
3807	18.862	0.72727	0.	23.34
3808	19.045	0.72727	0.	24.245
3809	19.229	0.72727	0.	25.187
3810	19.412	0.72727	0.	26.168
3811	19.596	0.72727	0.	27.194
3812	19.779	0.72727	0.	28.267
3813	19.963	0.72727	0.	29.393
3814	20.146	0.72727	0.	30.576
3815	20.33	0.72727	0.	31.821
3816	20.513	0.72727	0.	33.133
3817	20.697	0.72727	0.	34.519
3818	20.88	0.72727	0.	35.985
3819	21.064	0.72727	0.	37.54
3820	21.247	0.72727	0.	39.192
3821	21.431	0.72727	0.	40.953
3822	21.614	0.72727	0.	42.837
3823	21.798	0.72727	0.	44.86
3824	21.981	0.72727	0.	47.046
3825	22.165	0.72727	0.	49.423
3826	22.348	0.72727	0.	52.031
3827	22.532	0.72727	0.	54.922
3828	22.715	0.72727	0.	58.171
3829	22.899	0.72727	0.	61.882
3830	23.082	0.72727	0.	66.203
3831	23.266	0.72727	0.	71.34
3832	23.449	0.72727	0.	77.548
3833	23.633	0.72727	0.	85.189
3834	23.816	0.72727	0.	94.469
3835	6.7502	0.54545	0.	466.34
3836	6.9337	0.54545	0.	267.75
3837	7.1172	0.54545	0.	200.82
3838	7.3007	0.54545	0.	172.34
3839	7.4842	0.54545	0.	154.57
3840	7.6677	0.54545	0.	138.66
3841	7.8512	0.54545	0.	122.12
3842	8.0347	0.54545	0.	104.92
3843	8.2182	0.54545	0.	87.693
3844	8.4018	0.54545	0.	71.159
3845	8.5853	0.54545	0.	55.854
3846	8.7688	0.54545	0.	42.115
3847	8.9523	0.54545	0.	30.106
3848	9.1358	0.54545	0.	19.862
3849	9.3193	0.54545	0.	11.346
3850	9.5028	0.54545	0.	4.5618
3851	9.6863	0.54545	0.	0.7423
3852	9.8698	0.54545	0.	0.21703
3853	10.053	0.54545	0.	0.11497
3854	10.237	0.54545	0.	7.5176e-002
3855	10.42	0.54545	0.	5.4578e-002
3856	10.604	0.54545	0.	4.2137e-002
3857	10.787	0.54545	0.	3.3819e-002
3858	10.971	0.54545	0.	2.7811e-002
3859	11.154	0.54545	0.	2.3277e-002
3860	11.338	0.54545	0.	1.9778e-002
3861	11.521	0.54545	0.	1.6953e-002
3862	11.705	0.54545	0.	1.4618e-002
3863	11.888	0.54545	0.	1.2638e-002
3864	12.072	0.54545	0.	1.0935e-002
3865	12.255	0.54545	0.	9.468e-003
3866	12.439	0.54545	0.	8.206e-003
3867	12.622	0.54545	0.	7.1881e-003
3868	12.806	0.54545	0.	6.376e-003
3869	12.989	0.54545	0.	5.794e-003
3870	13.173	0.54545	0.	5.928e-003
3871	13.356	0.54545	0.	2.4112e-002
3872	13.54	0.54545	0.	1.0221
3873	13.724	0.54545	0.	2.0953
3874	13.907	0.54545	0.	3.1273
3875	14.091	0.54545	0.	4.118
3876	14.274	0.54545	0.	5.0682
3877	14.458	0.54545	0.	5.9794
3878	14.641	0.54545	0.	6.8536
3879	14.825	0.54545	0.	7.6931
3880	15.008	0.54545	0.	8.5003
3881	15.192	0.54545	0.	9.2778
3882	15.375	0.54545	0.	10.028
3883	15.559	0.54545	0.	10.755
3884	15.742	0.54545	0.	11.459
3885	15.926	0.54545	0.	12.145
3886	16.109	0.54545	0.	12.815
3887	16.293	0.54545	0.	13.472
3888	16.476	0.54545	0.	14.117
3889	16.66	0.54545	0.	14.755
3890	16.843	0.54545	0.	15.387
3891	17.027	0.54545	0.	16.017
3892	17.21	0.54545	0.	16.645
3893	17.394	0.54545	0.	17.276
3894	17.577	0.54545	0.	17.911
3895	17.761	0.54545	0.	18.554
3896	17.944	0.54545	0.	19.205
3897	18.128	0.54545	0.	19.868
3898	18.311	0.54545	0.	20.545
3899	18.495	0.54545	0.	21.238
3900	18.678	0.54545	0.	21.95
3901	18.862	0.54545	0.	22.683
3902	19.045	0.54545	0.	23.439
3903	19.229	0.54545	0.	24.222
3904	19.412	0.54545	0.	25.032
3905	19.596	0.54545	0.	25.874
3906	19.779	0.54545	0.	26.749
3907	19.963	0.54545	0.	27.659
3908	20.146	0.54545	0.	28.609
3909	20.33	0.54545	0.	29.6
3910	20.513	0.54545	0.	30.635
3911	20.697	0.54545	0.	31.719
3912	20.88	0.54545	0.	32.854
3913	21.064	0.54545	0.	34.046
3914	21.247	0.54545	0.	35.298
3915	21.431	0.54545	0.	36.618
3916	21.614	0.54545	0.	38.012
3917	21.798	0.54545	0.	39.492
3918	21.981	0.54545	0.	41.07
3919	22.165	0.54545	0.	42.763
3920	22.348	0.54545	0.	44.599
3921	22.532	0.54545	0.	46.613
3922	22.715	0.54545	0.	48.86
3923	22.899	0.54545	0.	51.424
3924	23.082	0.54545	0.	54.436
3925	23.266	0.54545	0.	58.114
3926	23.449	0.54545	0.	62.787
3927	23.633	0.54545	0.	69.037
3928	23.816	0.54545	0.	77.456
3929	6.7502	0.36364	0.	257.46
3930	6.9337	0.36364	0.	140.76
3931	7.1172	0.36364	0.	122.17
3932	7.3007	0.36364	0.	120.58
3933	7.4842	0.36364	0.	118.27
3934	7.6677	0.36364	0.	112.09
3935	7.8512	0.36364	0.	102.35
3936	8.0347	0.36364	0.	90.323
3937	8.2182	0.36364	0.	77.313
3938	8.4018	0.36364	0.	64.33
3939	8.5853	0.36364	0.	52.062
3940	8.7688	0.36364	0.	40.922
3941	8.9523	0.36364	0.	31.115
3942	9.1358	0.36364	0.	22.699
3943	9.3193	0.36364	0.	15.642
3944	9.5028	0.36364	0.	9.8562
3945	9.6863	0.36364	0.	5.2367
3946	9.8698	0.36364	0.	1.7517
3947	10.053	0.36364	0.	0.26394
3948	10.237	0.36364	0.	0.11104
3949	10.42	0.36364	0.	7.6178e-002
3950	10.604	0.36364	0.	6.1926e-002
3951	10.787	0.36364	0.	5.4148e-002
3952	10.971	0.36364	0.	4.8927e-002
3953	11.154	0.36364	0.	4.4919e-002
3954	11.338	0.36364	0.	4.1598e-002
3955	11.521	0.36364	0.	3.8647e-002
3956	11.705	0.36364	0.	3.5968e-002
3957	11.888	0.36364	0.	3.3559e-002
3958	12.072	0.36364	0.	3.1548e-002
3959	12.255	0.36364	0.	3.0431e-002
3960	12.439	0.36364	0.	3.2948e-002
3961	12.622	0.36364	0.	0.21022
3962	12.806	0.36364	0.	1.1051
3963	12.989	0.36364	0.	2.0179
3964	13.173	0.36364	0.	2.9152
3965	13.356	0.36364	0.	3.7914
3966	13.54	0.36364	0.	4.643
3967	13.724	0.36364	0.	5.4682
3968	13.907	0.36364	0.	6.2661
3969	14.091	0.36364	0.	7.0365
3970	14.274	0.36364	0.	7.7797
3971	14.458	0.36364	0.	8.4967
3972	14.641	0.36364	0.	9.1887
3973	14.825	0.36364	0.	9.8572
3974	15.008	0.36364	0.	10.504
3975	15.192	0.36364	0.	11.13
3976	15.375	0.36364	0.	11.738
3977	15.559	0.36364	0.	12.329
3978	15.742	0.36364	0.	12.906
3979	15.926	0.36364	0.	13.471
3980	16.109	0.36364	0.	14.024
3981	16.293	0.36364	0.	14.569
3982	16.476	0.36364	0.	15.106
3983	16.66	0.36364	0.	15.639
3984	16.843	0.36364	0.	16.168
3985	17.027	0.36364	0.	16.695
3986	17.21	0.36364	0.	17.222
3987	17.394	0.36364	0.	17.751
3988	17.577	0.36364	0.	18.283
3989	17.761	0.36364	0.	18.82
3990	17.944	0.36364	0.	19.364
3991	18.128	0.36364	0.	19.915
3992	18.311	0.36364	0.	20.476
3993	18.495	0.36364	0.	21.047
3994	18.678	0.36364	0.	21.631
3995	18.862	0.36364	0.	22.228
3996	19.045	0.36364	0.	22.839
3997	19.229	0.36364	0.	23.467
3998	19.412	0.36364	0.	24.112
3999	19.596	0.36364	0.	24.775
4000	19.779	0.36364	0.	25.457
4001	19.963	0.36364	0.	26.159
4002	20.146	0.36364	0.	26.882
4003	20.33	0.36364	0.	27.627
4004	20.513	0.36364	0.	28.395
4005	20.697	0.36364	0.	29.186
4006	20.88	0.36364	0.	30.001
4007	21.064	0.36364	0.	30.841
4008	21.247	0.36364	0.	31.706
4009	21.431	0.36364	0.	32.598
4010	21.614	0.36364	0.	33.518
4011	21.798	0.36364	0.	34.468
4012	21.981	0.36364	0.	35.451
4013	22.165	0.36364	0.	36.472
4014	22.348	0.36364	0.	37.54
4015	22.532	0.36364	0.	38.668
4016	22.715	0.36364	0.	39.878
4017	22.899	0.36364	0.	41.21
4018	23.082	0.36364	0.	42.737
4019	23.266	0.36364	0.	44.601
4020	23.449	0.36364	0.	47.081
4021	23.633	0.36364	0.	50.88
4022	23.816	0.36364	0.	57.341
4023	6.7502	0.18182	0.	126.81
4024	6.9337	0.18182	0.	93.398
4025	7.1172	0.18182	0.	93.923
4026	7.3007	0.18182	0.	94.328
4027	7.4842	0.18182	0.	90.336
4028	7.6677	0.18182	0.	83.156
4029	7.8512	0.18182	0.	74.072
4030	8.0347	0.18182	0.	64.236
4031	8.2182	0.18182	0.	54.467
4032	8.4018	0.18182	0.	45.294
4033	8.5853	0.18182	0.	37.011
4034	8.7688	0.18182	0.	29.747
4035	8.9523	0.18182	0.	23.526
4036	9.1358	0.18182	0.	18.305
4037	9.3193	0.18182	0.	14.006
4038	9.5028	0.18182	0.	10.536
4039	9.6863	0.18182	0.	7.7944
4040	9.8698	0.18182	0.	5.6872
4041	10.053	0.18182	0.	4.1244
4042	10.237	0.18182	0.	3.0241
4043	10.42	0.18182	0.	2.3099
4044	10.604	0.18182	0.	1.9088
4045	10.787	0.18182	0.	1.7533
4046	10.971	0.18182	0.	1.7901
4047	11.154	0.18182	0.	1.9823
4048	11.338	0.18182	0.	2.3029
4049	11.521	0.18182	0.	2.7276
4050	11.705	0.18182	0.	3.2338
4051	11.888	0.18182	0.	3.8011
4052	12.072	0.18182	0.	4.4122
4053	12.255	0.18182	0.	5.0527
4054	12.439	0.18182	0.	5.711
4055	12.622	0.18182	0.	6.3781
4056	12.806	0.18182	0.	7.0467
4057	12.989	0.18182	0.	7.7114
4058	13.173	0.18182	0.	8.3681
4059	13.356	0.18182	0.	9.0139
4060	13.54	0.18182	0.	9.6467
4061	13.724	0.18182	0.	10.265
4062	13.907	0.18182	0.	10.869
4063	14.091	0.18182	0.	11.458
4064	14.274	0.18182	0.	12.032
4065	14.458	0.18182	0.	12.591
4066	14.641	0.18182	0.	13.136
4067	14.825	0.18182	0.	13.669
4068	15.008	0.18182	0.	14.189
4069	15.192	0.18182	0.	14.698
4070	15.375	0.18182	0.	15.198
4071	15.559	0.18182	0.	15.688
4072	15.742	0.18182	0.	16.171
4073	15.926	0.18182	0.	16.648
4074	16.109	0.18182	0.	17.119
4075	16.293	0.18182	0.	17.586
4076	16.476	0.18182	0.	18.049
4077	16.66	0.18182	0.	18.511
4078	16.843	0.18182	0.	18.971
4079	17.027	0.18182	0.	19.432
4080	17.21	0.18182	0.	19.893
4081	17.394	0.18182	0.	20.356
4082	17.577	0.18182	0.	20.821
4083	17.761	0.18182	0.	21.289
4084	17.944	0.18182	0.	21.762
4085	18.128	0.18182	0.	22.239
4086	18.311	0.18182	0.	22.72
4087	18.495	0.18182	0.	23.208
4088	18.678	0.18182	0.	23.701
4089	18.862	0.18182	0.	24.2
4090	19.045	0.18182	0.	24.706
4091	19.229	0.18182	0.	25.217
4092	19.412	0.18182	0.	25.734
4093	19.596	0.18182	0.	26.257
4094	19.779	0.18182	0.	26.785
4095	19.963	0.18182	0.	27.317
4096	20.146	0.18182	0.	27.852
4097	20.33	0.18182	0.	28.389
4098	20.513	0.18182	0.	28.926
4099	20.697	0.18182	0.	29.46
4100	20.88	0.18182	0.	29.991
4101	21.064	0.18182	0.	30.513
4102	21.247	0.18182	0.	31.024
4103	21.431	0.18182	0.	31.52
4104	21.614	0.18182	0.	31.995
4105	21.798	0.18182	0.	32.443
4106	21.981	0.18182	0.	32.856
4107	22.165	0.18182	0.	33.226
4108	22.348	0.18182	0.	33.542
4109	22.532	0.18182	0.	33.791
4110	22.715	0.18182	0.	33.957
4111	22.899	0.18182	0.	34.022
4112	23.082	0.18182	0.	33.964
4113	23.266	0.18182	0.	33.768
4114	23.449	0.18182	0.	33.435
4115	23.633	0.18182	0.	33.117
4116	23.816	0.18182	0.	34.116
4117	23.816	0.18182	0.1	36.916
4118	23.633	0.18182	0.1	72.527
4119	23.449	0.18182	0.1	110.24
4120	23.266	0.18182	0.1	148.6
4121	23.082	0.18182	0.1	187.35
4122	22.899	0.18182	0.1	226.37
4123	22.715	0.18182	0.1	265.59
4124	22.532	0.18182	0.1	304.98
4125	22.348	0.18182	0.1	344.51
4126	22.165	0.18182	0.1	384.17
4127	21.981	0.18182	0.1	423.96
4128	21.798	0.18182	0.1	463.86
4129	21.614	0.18182	0.1	503.89
4130	21.431	0.18182	0.1	544.03
4131	21.247	0.18182	0.1	584.29
4132	21.064	0.18182	0.1	624.68
4133	20.88	0.18182	0.1	665.2
4134	20.697	0.18182	0.1	705.85
4135	20.513	0.18182	0.1	746.63
4136	20.33	0.18182	0.1	787.56
4137	20.146	0.18182	0.1	828.63
4138	19.963	0.18182	0.1	869.85
4139	19.779	0.18182	0.1	911.23
4140	19.596	0.18182	0.1	952.76
4141	19.412	0.18182	0.1	994.45
4142	19.229	0.18182	0.1	1036.3
4143	19.045	0.18182	0.1	1078.3
4144	18.862	0.18182	0.1	1120.5
4145	18.678	0.18182	0.1	1162.9
4146	18.495	0.18182	0.1	1205.5
4147	18.311	0.18182	0.1	1248.2
4148	18.128	0.18182	0.1	1291.1
4149	17.944	0.18182	0.1	1334.2
4150	17.761	0.18182	0.1	1377.5
4151	17.577	0.18182	0.1	1421.
4152	17.394	0.18182	0.1	1464.7
4153	17.21	0.18182	0.1	1508.5
4154	17.027	0.18182	0.1	1552.6
4155	16.843	0.18182	0.1	1596.8
4156	16.66	0.18182	0.1	1641.3
4157	16.476	0.18182	0.1	1685.9
4158	16.293	0.18182	0.1	1730.8
4159	16.109	0.18182	0.1	1775.9
4160	15.926	0.18182	0.1	1821.1
4161	15.742	0.18182	0.1	1866.6
4162	15.559	0.18182	0.1	1912.3
4163	15.375	0.18182	0.1	1958.2
4164	15.192	0.18182	0.1	2004.3
4165	15.008	0.18182	0.1	2050.6
4166	14.825	0.18182	0.1	2097.1
4167	14.641	0.18182	0.1	2143.8
4168	14.458	0.18182	0.1	2190.8
4169	14.274	0.18182	0.1	2237.9
4170	14.091	0.18182	0.1	2285.3
4171	13.907	0.18182	0.1	2332.9
4172	13.724	0.18182	0.1	2380.7
4173	13.54	0.18182	0.1	2428.7
4174	13.356	0.18182	0.1	2476.9
4175	13.173	0.18182	0.1	2525.2
4176	12.989	0.18182	0.1	2573.8
4177	12.806	0.18182	0.1	2622.5
4178	12.622	0.18182	0.1	2671.4
4179	12.439	0.18182	0.1	2720.3
4180	12.255	0.18182	0.1	2769.4
4181	12.072	0.18182	0.1	2818.5
4182	11.888	0.18182	0.1	2867.5
4183	11.705	0.18182	0.1	2916.4
4184	11.521	0.18182	0.1	2965.1
4185	11.338	0.18182	0.1	3013.5
4186	11.154	0.18182	0.1	3061.3
4187	10.971	0.18182	0.1	3108.4
4188	10.787	0.18182	0.1	3154.4
4189	10.604	0.18182	0.1	3199.
4190	10.42	0.18182	0.1	3241.8
4191	10.237	0.18182	0.1	3282.1
4192	10.053	0.18182	0.1	3319.2
4193	9.8698	0.18182	0.1	3352.3
4194	9.6863	0.18182	0.1	3380.1
4195	9.5028	0.18182	0.1	3401.3
4196	9.3193	0.18182	0.1	3414.1
4197	9.1358	0.18182	0.1	3416.3
4198	8.9523	0.18182	0.1	3405.3
4199	8.7688	0.18182	0.1	3377.9
4200	8.5853	0.18182	0.1	3330.2
4201	8.4018	0.18182	0.1	3257.9
4202	8.2182	0.18182	0.1	3155.9
4203	8.0347	0.18182	0.1	3018.6
4204	7.8512	0.18182	0.1	2840.1
4205	7.6677	0.18182	0.1	2614.9
4206	7.4842	0.18182	0.1	2338.2
4207	7.3007	0.18182	0.1	2007.4
4208	7.1172	0.18182	0.1	1623.5
4209	6.9337	0.18182	0.1	1193.1
4210	6.7502	0.18182	0.1	765.74
4211	23.816	0.36364	0.1	37.934
4212	23.633	0.36364	0.1	72.634
4213	23.449	0.36364	0.1	109.19
4214	23.266	0.36364	0.1	146.76
4215	23.082	0.36364	0.1	184.95
4216	22.899	0.36364	0.1	223.56
4217	22.715	0.36364	0.1	262.48
4218	22.532	0.36364	0.1	301.63
4219	22.348	0.36364	0.1	340.98
4220	22.165	0.36364	0.1	380.49
4221	21.981	0.36364	0.1	420.16
4222	21.798	0.36364	0.1	459.97
4223	21.614	0.36364	0.1	499.92
4224	21.431	0.36364	0.1	540.01
4225	21.247	0.36364	0.1	580.22
4226	21.064	0.36364	0.1	620.58
4227	20.88	0.36364	0.1	661.07
4228	20.697	0.36364	0.1	701.7
4229	20.513	0.36364	0.1	742.48
4230	20.33	0.36364	0.1	783.4
4231	20.146	0.36364	0.1	824.48
4232	19.963	0.36364	0.1	865.71
4233	19.779	0.36364	0.1	907.09
4234	19.596	0.36364	0.1	948.64
4235	19.412	0.36364	0.1	990.35
4236	19.229	0.36364	0.1	1032.2
4237	19.045	0.36364	0.1	1074.3
4238	18.862	0.36364	0.1	1116.5
4239	18.678	0.36364	0.1	1158.9
4240	18.495	0.36364	0.1	1201.5
4241	18.311	0.36364	0.1	1244.3
4242	18.128	0.36364	0.1	1287.2
4243	17.944	0.36364	0.1	1330.3
4244	17.761	0.36364	0.1	1373.7
4245	17.577	0.36364	0.1	1417.2
4246	17.394	0.36364	0.1	1460.9
4247	17.21	0.36364	0.1	1504.8
4248	17.027	0.36364	0.1	1548.9
4249	16.843	0.36364	0.1	1593.1
4250	16.66	0.36364	0.1	1637.6
4251	16.476	0.36364	0.1	1682.3
4252	16.293	0.36364	0.1	1727.2
4253	16.109	0.36364	0.1	1772.3
4254	15.926	0.36364	0.1	1817.6
4255	15.742	0.36364	0.1	1863.
4256	15.559	0.36364	0.1	1908.7
4257	15.375	0.36364	0.1	1954.6
4258	15.192	0.36364	0.1	2000.8
4259	15.008	0.36364	0.1	2047.1
4260	14.825	0.36364	0.1	2093.6
4261	14.641	0.36364	0.1	2140.3
4262	14.458	0.36364	0.1	2187.3
4263	14.274	0.36364	0.1	2234.4
4264	14.091	0.36364	0.1	2281.8
4265	13.907	0.36364	0.1	2329.4
4266	13.724	0.36364	0.1	2377.2
4267	13.54	0.36364	0.1	2425.1
4268	13.356	0.36364	0.1	2473.3
4269	13.173	0.36364	0.1	2521.7
4270	12.989	0.36364	0.1	2570.2
4271	12.806	0.36364	0.1	2618.9
4272	12.622	0.36364	0.1	2667.8
4273	12.439	0.36364	0.1	2716.8
4274	12.255	0.36364	0.1	2765.8
4275	12.072	0.36364	0.1	2814.9
4276	11.888	0.36364	0.1	2864.
4277	11.705	0.36364	0.1	2913.1
4278	11.521	0.36364	0.1	2961.9
4279	11.338	0.36364	0.1	3010.4
4280	11.154	0.36364	0.1	3058.5
4281	10.971	0.36364	0.1	3105.9
4282	10.787	0.36364	0.1	3152.4
4283	10.604	0.36364	0.1	3197.6
4284	10.42	0.36364	0.1	3241.1
4285	10.237	0.36364	0.1	3282.4
4286	10.053	0.36364	0.1	3320.9
4287	9.8698	0.36364	0.1	3355.5
4288	9.6863	0.36364	0.1	3385.3
4289	9.5028	0.36364	0.1	3409.
4290	9.3193	0.36364	0.1	3424.8
4291	9.1358	0.36364	0.1	3430.7
4292	8.9523	0.36364	0.1	3424.1
4293	8.7688	0.36364	0.1	3402.
4294	8.5853	0.36364	0.1	3360.6
4295	8.4018	0.36364	0.1	3295.6
4296	8.2182	0.36364	0.1	3201.7
4297	8.0347	0.36364	0.1	3073.5
4298	7.8512	0.36364	0.1	2904.8
4299	7.6677	0.36364	0.1	2689.8
4300	7.4842	0.36364	0.1	2424.2
4301	7.3007	0.36364	0.1	2106.8
4302	7.1172	0.36364	0.1	1744.3
4303	6.9337	0.36364	0.1	1361.4
4304	6.7502	0.36364	0.1	1062.4
4305	23.816	0.54545	0.1	38.783
4306	23.633	0.54545	0.1	74.181
4307	23.449	0.54545	0.1	110.61
4308	23.266	0.54545	0.1	147.82
4309	23.082	0.54545	0.1	185.64
4310	22.899	0.54545	0.1	223.94
4311	22.715	0.54545	0.1	262.59
4312	22.532	0.54545	0.1	301.51
4313	22.348	0.54545	0.1	340.67
4314	22.165	0.54545	0.1	380.03
4315	21.981	0.54545	0.1	419.56
4316	21.798	0.54545	0.1	459.26
4317	21.614	0.54545	0.1	499.1
4318	21.431	0.54545	0.1	539.09
4319	21.247	0.54545	0.1	579.23
4320	21.064	0.54545	0.1	619.52
4321	20.88	0.54545	0.1	659.95
4322	20.697	0.54545	0.1	700.52
4323	20.513	0.54545	0.1	741.25
4324	20.33	0.54545	0.1	782.13
4325	20.146	0.54545	0.1	823.16
4326	19.963	0.54545	0.1	864.36
4327	19.779	0.54545	0.1	905.71
4328	19.596	0.54545	0.1	947.23
4329	19.412	0.54545	0.1	988.92
4330	19.229	0.54545	0.1	1030.8
4331	19.045	0.54545	0.1	1072.8
4332	18.862	0.54545	0.1	1115.
4333	18.678	0.54545	0.1	1157.4
4334	18.495	0.54545	0.1	1200.
4335	18.311	0.54545	0.1	1242.7
4336	18.128	0.54545	0.1	1285.7
4337	17.944	0.54545	0.1	1328.8
4338	17.761	0.54545	0.1	1372.1
4339	17.577	0.54545	0.1	1415.6
4340	17.394	0.54545	0.1	1459.3
4341	17.21	0.54545	0.1	1503.2
4342	17.027	0.54545	0.1	1547.3
4343	16.843	0.54545	0.1	1591.5
4344	16.66	0.54545	0.1	1636.
4345	16.476	0.54545	0.1	1680.7
4346	16.293	0.54545	0.1	1725.5
4347	16.109	0.54545	0.1	1770.6
4348	15.926	0.54545	0.1	1815.9
4349	15.742	0.54545	0.1	1861.3
4350	15.559	0.54545	0.1	1907.
4351	15.375	0.54545	0.1	1952.9
4352	15.192	0.54545	0.1	1999.
4353	15.008	0.54545	0.1	2045.3
4354	14.825	0.54545	0.1	2091.8
4355	14.641	0.54545	0.1	2138.5
4356	14.458	0.54545	0.1	2185.4
4357	14.274	0.54545	0.1	2232.5
4358	14.091	0.54545	0.1	2279.8
4359	13.907	0.54545	0.1	2327.3
4360	13.724	0.54545	0.1	2375.1
4361	13.54	0.54545	0.1	2423.
4362	13.356	0.54545	0.1	2471.1
4363	13.173	0.54545	0.1	2519.4
4364	12.989	0.54545	0.1	2567.9
4365	12.806	0.54545	0.1	2616.6
4366	12.622	0.54545	0.1	2665.4
4367	12.439	0.54545	0.1	2714.4
4368	12.255	0.54545	0.1	2763.4
4369	12.072	0.54545	0.1	2812.6
4370	11.888	0.54545	0.1	2861.7
4371	11.705	0.54545	0.1	2910.8
4372	11.521	0.54545	0.1	2959.8
4373	11.338	0.54545	0.1	3008.5
4374	11.154	0.54545	0.1	3056.9
4375	10.971	0.54545	0.1	3104.7
4376	10.787	0.54545	0.1	3151.7
4377	10.604	0.54545	0.1	3197.6
4378	10.42	0.54545	0.1	3242.1
4379	10.237	0.54545	0.1	3284.7
4380	10.053	0.54545	0.1	3324.7
4381	9.8698	0.54545	0.1	3361.4
4382	9.6863	0.54545	0.1	3393.8
4383	9.5028	0.54545	0.1	3420.6
4384	9.3193	0.54545	0.1	3440.5
4385	9.1358	0.54545	0.1	3451.4
4386	8.9523	0.54545	0.1	3450.9
4387	8.7688	0.54545	0.1	3436.3
4388	8.5853	0.54545	0.1	3404.
4389	8.4018	0.54545	0.1	3349.9
4390	8.2182	0.54545	0.1	3269.
4391	8.0347	0.54545	0.1	3155.7
4392	7.8512	0.54545	0.1	3004.3
4393	7.6677	0.54545	0.1	2809.
4394	7.4842	0.54545	0.1	2566.
4395	7.3007	0.54545	0.1	2276.1
4396	7.1172	0.54545	0.1	1951.2
4397	6.9337	0.54545	0.1	1625.3
4398	6.7502	0.54545	0.1	1410.1
4399	23.816	0.72727	0.1	39.296
4400	23.633	0.72727	0.1	75.42
4401	23.449	0.72727	0.1	112.11
4402	23.266	0.72727	0.1	149.26
4403	23.082	0.72727	0.1	186.89
4404	22.899	0.72727	0.1	224.95
4405	22.715	0.72727	0.1	263.36
4406	22.532	0.72727	0.1	302.07
4407	22.348	0.72727	0.1	341.03
4408	22.165	0.72727	0.1	380.2
4409	21.981	0.72727	0.1	419.57
4410	21.798	0.72727	0.1	459.12
4411	21.614	0.72727	0.1	498.84
4412	21.431	0.72727	0.1	538.72
4413	21.247	0.72727	0.1	578.75
4414	21.064	0.72727	0.1	618.95
4415	20.88	0.72727	0.1	659.29
4416	20.697	0.72727	0.1	699.79
4417	20.513	0.72727	0.1	740.45
4418	20.33	0.72727	0.1	781.27
4419	20.146	0.72727	0.1	822.25
4420	19.963	0.72727	0.1	863.39
4421	19.779	0.72727	0.1	904.71
4422	19.596	0.72727	0.1	946.19
4423	19.412	0.72727	0.1	987.84
4424	19.229	0.72727	0.1	1029.7
4425	19.045	0.72727	0.1	1071.7
4426	18.862	0.72727	0.1	1113.9
4427	18.678	0.72727	0.1	1156.2
4428	18.495	0.72727	0.1	1198.8
4429	18.311	0.72727	0.1	1241.5
4430	18.128	0.72727	0.1	1284.4
4431	17.944	0.72727	0.1	1327.5
4432	17.761	0.72727	0.1	1370.8
4433	17.577	0.72727	0.1	1414.3
4434	17.394	0.72727	0.1	1458.
4435	17.21	0.72727	0.1	1501.8
4436	17.027	0.72727	0.1	1545.9
4437	16.843	0.72727	0.1	1590.2
4438	16.66	0.72727	0.1	1634.6
4439	16.476	0.72727	0.1	1679.3
4440	16.293	0.72727	0.1	1724.1
4441	16.109	0.72727	0.1	1769.2
4442	15.926	0.72727	0.1	1814.4
4443	15.742	0.72727	0.1	1859.9
4444	15.559	0.72727	0.1	1905.5
4445	15.375	0.72727	0.1	1951.4
4446	15.192	0.72727	0.1	1997.4
4447	15.008	0.72727	0.1	2043.7
4448	14.825	0.72727	0.1	2090.1
4449	14.641	0.72727	0.1	2136.8
4450	14.458	0.72727	0.1	2183.7
4451	14.274	0.72727	0.1	2230.7
4452	14.091	0.72727	0.1	2278.
4453	13.907	0.72727	0.1	2325.5
4454	13.724	0.72727	0.1	2373.2
4455	13.54	0.72727	0.1	2421.1
4456	13.356	0.72727	0.1	2469.1
4457	13.173	0.72727	0.1	2517.4
4458	12.989	0.72727	0.1	2565.8
4459	12.806	0.72727	0.1	2614.5
4460	12.622	0.72727	0.1	2663.3
4461	12.439	0.72727	0.1	2712.2
4462	12.255	0.72727	0.1	2761.2
4463	12.072	0.72727	0.1	2810.4
4464	11.888	0.72727	0.1	2859.6
4465	11.705	0.72727	0.1	2908.8
4466	11.521	0.72727	0.1	2957.9
4467	11.338	0.72727	0.1	3006.9
4468	11.154	0.72727	0.1	3055.6
4469	10.971	0.72727	0.1	3103.9
4470	10.787	0.72727	0.1	3151.5
4471	10.604	0.72727	0.1	3198.3
4472	10.42	0.72727	0.1	3243.9
4473	10.237	0.72727	0.1	3288.
4474	10.053	0.72727	0.1	3329.9
4475	9.8698	0.72727	0.1	3369.
4476	9.6863	0.72727	0.1	3404.5
4477	9.5028	0.72727	0.1	3435.3
4478	9.3193	0.72727	0.1	3460.1
4479	9.1358	0.72727	0.1	3477.2
4480	8.9523	0.72727	0.1	3484.5
4481	8.7688	0.72727	0.1	3479.5
4482	8.5853	0.72727	0.1	3459.
4483	8.4018	0.72727	0.1	3419.2
4484	8.2182	0.72727	0.1	3355.8
4485	8.0347	0.72727	0.1	3263.4
4486	7.8512	0.72727	0.1	3136.7
4487	7.6677	0.72727	0.1	2970.3
4488	7.4842	0.72727	0.1	2760.6
4489	7.3007	0.72727	0.1	2509.4
4490	7.1172	0.72727	0.1	2229.2
4491	6.9337	0.72727	0.1	1952.6
4492	6.7502	0.72727	0.1	1790.2
4493	23.816	0.90909	0.1	39.561
4494	23.633	0.90909	0.1	76.294
4495	23.449	0.90909	0.1	113.35
4496	23.266	0.90909	0.1	150.62
4497	23.082	0.90909	0.1	188.22
4498	22.899	0.90909	0.1	226.15
4499	22.715	0.90909	0.1	264.39
4500	22.532	0.90909	0.1	302.91
4501	22.348	0.90909	0.1	341.69
4502	22.165	0.90909	0.1	380.7
4503	21.981	0.90909	0.1	419.91
4504	21.798	0.90909	0.1	459.31
4505	21.614	0.90909	0.1	498.89
4506	21.431	0.90909	0.1	538.64
4507	21.247	0.90909	0.1	578.56
4508	21.064	0.90909	0.1	618.65
4509	20.88	0.90909	0.1	658.9
4510	20.697	0.90909	0.1	699.31
4511	20.513	0.90909	0.1	739.89
4512	20.33	0.90909	0.1	780.64
4513	20.146	0.90909	0.1	821.56
4514	19.963	0.90909	0.1	862.64
4515	19.779	0.90909	0.1	903.9
4516	19.596	0.90909	0.1	945.34
4517	19.412	0.90909	0.1	986.95
4518	19.229	0.90909	0.1	1028.7
4519	19.045	0.90909	0.1	1070.7
4520	18.862	0.90909	0.1	1112.9
4521	18.678	0.90909	0.1	1155.2
4522	18.495	0.90909	0.1	1197.7
4523	18.311	0.90909	0.1	1240.4
4524	18.128	0.90909	0.1	1283.3
4525	17.944	0.90909	0.1	1326.4
4526	17.761	0.90909	0.1	1369.7
4527	17.577	0.90909	0.1	1413.1
4528	17.394	0.90909	0.1	1456.8
4529	17.21	0.90909	0.1	1500.7
4530	17.027	0.90909	0.1	1544.7
4531	16.843	0.90909	0.1	1588.9
4532	16.66	0.90909	0.1	1633.4
4533	16.476	0.90909	0.1	1678.
4534	16.293	0.90909	0.1	1722.8
4535	16.109	0.90909	0.1	1767.9
4536	15.926	0.90909	0.1	1813.1
4537	15.742	0.90909	0.1	1858.5
4538	15.559	0.90909	0.1	1904.1
4539	15.375	0.90909	0.1	1950.
4540	15.192	0.90909	0.1	1996.
4541	15.008	0.90909	0.1	2042.2
4542	14.825	0.90909	0.1	2088.6
4543	14.641	0.90909	0.1	2135.3
4544	14.458	0.90909	0.1	2182.1
4545	14.274	0.90909	0.1	2229.1
4546	14.091	0.90909	0.1	2276.3
4547	13.907	0.90909	0.1	2323.8
4548	13.724	0.90909	0.1	2371.4
4549	13.54	0.90909	0.1	2419.2
4550	13.356	0.90909	0.1	2467.3
4551	13.173	0.90909	0.1	2515.5
4552	12.989	0.90909	0.1	2563.9
4553	12.806	0.90909	0.1	2612.5
4554	12.622	0.90909	0.1	2661.2
4555	12.439	0.90909	0.1	2710.1
4556	12.255	0.90909	0.1	2759.2
4557	12.072	0.90909	0.1	2808.4
4558	11.888	0.90909	0.1	2857.6
4559	11.705	0.90909	0.1	2906.9
4560	11.521	0.90909	0.1	2956.2
4561	11.338	0.90909	0.1	3005.5
4562	11.154	0.90909	0.1	3054.6
4563	10.971	0.90909	0.1	3103.4
4564	10.787	0.90909	0.1	3151.8
4565	10.604	0.90909	0.1	3199.5
4566	10.42	0.90909	0.1	3246.4
4567	10.237	0.90909	0.1	3292.1
4568	10.053	0.90909	0.1	3336.2
4569	9.8698	0.90909	0.1	3378.1
4570	9.6863	0.90909	0.1	3417.2
4571	9.5028	0.90909	0.1	3452.5
4572	9.3193	0.90909	0.1	3483.1
4573	9.1358	0.90909	0.1	3507.5
4574	8.9523	0.90909	0.1	3524.
4575	8.7688	0.90909	0.1	3530.4
4576	8.5853	0.90909	0.1	3524.2
4577	8.4018	0.90909	0.1	3502.2
4578	8.2182	0.90909	0.1	3460.6
4579	8.0347	0.90909	0.1	3395.
4580	7.8512	0.90909	0.1	3300.7
4581	7.6677	0.90909	0.1	3172.7
4582	7.4842	0.90909	0.1	3007.7
4583	7.3007	0.90909	0.1	2806.
4584	7.1172	0.90909	0.1	2576.5
4585	6.9337	0.90909	0.1	2343.2
4586	6.7502	0.90909	0.1	2219.9
4587	23.816	1.0909	0.1	39.695
4588	23.633	1.0909	0.1	76.913
4589	23.449	1.0909	0.1	114.32
4590	23.266	1.0909	0.1	151.79
4591	23.082	1.0909	0.1	189.45
4592	22.899	1.0909	0.1	227.35
4593	22.715	1.0909	0.1	265.5
4594	22.532	1.0909	0.1	303.89
4595	22.348	1.0909	0.1	342.53
4596	22.165	1.0909	0.1	381.38
4597	21.981	1.0909	0.1	420.44
4598	21.798	1.0909	0.1	459.7
4599	21.614	1.0909	0.1	499.14
4600	21.431	1.0909	0.1	538.77
4601	21.247	1.0909	0.1	578.57
4602	21.064	1.0909	0.1	618.55
4603	20.88	1.0909	0.1	658.7
4604	20.697	1.0909	0.1	699.03
4605	20.513	1.0909	0.1	739.53
4606	20.33	1.0909	0.1	780.2
4607	20.146	1.0909	0.1	821.04
4608	19.963	1.0909	0.1	862.07
4609	19.779	1.0909	0.1	903.27
4610	19.596	1.0909	0.1	944.65
4611	19.412	1.0909	0.1	986.21
4612	19.229	1.0909	0.1	1028.
4613	19.045	1.0909	0.1	1069.9
4614	18.862	1.0909	0.1	1112.
4615	18.678	1.0909	0.1	1154.3
4616	18.495	1.0909	0.1	1196.8
4617	18.311	1.0909	0.1	1239.5
4618	18.128	1.0909	0.1	1282.3
4619	17.944	1.0909	0.1	1325.4
4620	17.761	1.0909	0.1	1368.7
4621	17.577	1.0909	0.1	1412.1
4622	17.394	1.0909	0.1	1455.7
4623	17.21	1.0909	0.1	1499.6
4624	17.027	1.0909	0.1	1543.6
4625	16.843	1.0909	0.1	1587.8
4626	16.66	1.0909	0.1	1632.2
4627	16.476	1.0909	0.1	1676.9
4628	16.293	1.0909	0.1	1721.7
4629	16.109	1.0909	0.1	1766.7
4630	15.926	1.0909	0.1	1811.9
4631	15.742	1.0909	0.1	1857.3
4632	15.559	1.0909	0.1	1902.9
4633	15.375	1.0909	0.1	1948.7
4634	15.192	1.0909	0.1	1994.7
4635	15.008	1.0909	0.1	2040.9
4636	14.825	1.0909	0.1	2087.2
4637	14.641	1.0909	0.1	2133.8
4638	14.458	1.0909	0.1	2180.6
4639	14.274	1.0909	0.1	2227.6
4640	14.091	1.0909	0.1	2274.8
4641	13.907	1.0909	0.1	2322.2
4642	13.724	1.0909	0.1	2369.8
4643	13.54	1.0909	0.1	2417.5
4644	13.356	1.0909	0.1	2465.5
4645	13.173	1.0909	0.1	2513.7
4646	12.989	1.0909	0.1	2562.
4647	12.806	1.0909	0.1	2610.6
4648	12.622	1.0909	0.1	2659.3
4649	12.439	1.0909	0.1	2708.2
4650	12.255	1.0909	0.1	2757.2
4651	12.072	1.0909	0.1	2806.5
4652	11.888	1.0909	0.1	2855.8
4653	11.705	1.0909	0.1	2905.2
4654	11.521	1.0909	0.1	2954.7
4655	11.338	1.0909	0.1	3004.3
4656	11.154	1.0909	0.1	3053.8
4657	10.971	1.0909	0.1	3103.1
4658	10.787	1.0909	0.1	3152.3
4659	10.604	1.0909	0.1	3201.1
4660	10.42	1.0909	0.1	3249.3
4661	10.237	1.0909	0.1	3296.8
4662	10.053	1.0909	0.1	3343.3
4663	9.8698	1.0909	0.1	3388.2
4664	9.6863	1.0909	0.1	3431.2
4665	9.5028	1.0909	0.1	3471.6
4666	9.3193	1.0909	0.1	3508.6
4667	9.1358	1.0909	0.1	3541.2
4668	8.9523	1.0909	0.1	3568.1
4669	8.7688	1.0909	0.1	3587.7
4670	8.5853	1.0909	0.1	3598.
4671	8.4018	1.0909	0.1	3596.8
4672	8.2182	1.0909	0.1	3581.1
4673	8.0347	1.0909	0.1	3547.9
4674	7.8512	1.0909	0.1	3493.4
4675	7.6677	1.0909	0.1	3413.9
4676	7.4842	1.0909	0.1	3305.9
4677	7.3007	1.0909	0.1	3167.5
4678	7.1172	1.0909	0.1	3000.2
4679	6.9337	1.0909	0.1	2814.3
4680	6.7502	1.0909	0.1	2728.9
4681	23.816	1.2727	0.1	39.75
4682	23.633	1.2727	0.1	77.354
4683	23.449	1.2727	0.1	115.07
4684	23.266	1.2727	0.1	152.76
4685	23.082	1.2727	0.1	190.53
4686	22.899	1.2727	0.1	228.46
4687	22.715	1.2727	0.1	266.58
4688	22.532	1.2727	0.1	304.9
4689	22.348	1.2727	0.1	343.43
4690	22.165	1.2727	0.1	382.16
4691	21.981	1.2727	0.1	421.1
4692	21.798	1.2727	0.1	460.23
4693	21.614	1.2727	0.1	499.55
4694	21.431	1.2727	0.1	539.05
4695	21.247	1.2727	0.1	578.74
4696	21.064	1.2727	0.1	618.61
4697	20.88	1.2727	0.1	658.66
4698	20.697	1.2727	0.1	698.9
4699	20.513	1.2727	0.1	739.31
4700	20.33	1.2727	0.1	779.9
4701	20.146	1.2727	0.1	820.68
4702	19.963	1.2727	0.1	861.64
4703	19.779	1.2727	0.1	902.78
4704	19.596	1.2727	0.1	944.11
4705	19.412	1.2727	0.1	985.62
4706	19.229	1.2727	0.1	1027.3
4707	19.045	1.2727	0.1	1069.2
4708	18.862	1.2727	0.1	1111.3
4709	18.678	1.2727	0.1	1153.6
4710	18.495	1.2727	0.1	1196.
4711	18.311	1.2727	0.1	1238.7
4712	18.128	1.2727	0.1	1281.5
4713	17.944	1.2727	0.1	1324.5
4714	17.761	1.2727	0.1	1367.8
4715	17.577	1.2727	0.1	1411.2
4716	17.394	1.2727	0.1	1454.8
4717	17.21	1.2727	0.1	1498.6
4718	17.027	1.2727	0.1	1542.6
4719	16.843	1.2727	0.1	1586.8
4720	16.66	1.2727	0.1	1631.2
4721	16.476	1.2727	0.1	1675.8
4722	16.293	1.2727	0.1	1720.6
4723	16.109	1.2727	0.1	1765.6
4724	15.926	1.2727	0.1	1810.8
4725	15.742	1.2727	0.1	1856.2
4726	15.559	1.2727	0.1	1901.7
4727	15.375	1.2727	0.1	1947.5
4728	15.192	1.2727	0.1	1993.5
4729	15.008	1.2727	0.1	2039.6
4730	14.825	1.2727	0.1	2086.
4731	14.641	1.2727	0.1	2132.5
4732	14.458	1.2727	0.1	2179.3
4733	14.274	1.2727	0.1	2226.2
4734	14.091	1.2727	0.1	2273.4
4735	13.907	1.2727	0.1	2320.7
4736	13.724	1.2727	0.1	2368.2
4737	13.54	1.2727	0.1	2415.9
4738	13.356	1.2727	0.1	2463.9
4739	13.173	1.2727	0.1	2512.
4740	12.989	1.2727	0.1	2560.3
4741	12.806	1.2727	0.1	2608.8
4742	12.622	1.2727	0.1	2657.5
4743	12.439	1.2727	0.1	2706.4
4744	12.255	1.2727	0.1	2755.4
4745	12.072	1.2727	0.1	2804.7
4746	11.888	1.2727	0.1	2854.1
4747	11.705	1.2727	0.1	2903.7
4748	11.521	1.2727	0.1	2953.4
4749	11.338	1.2727	0.1	3003.2
4750	11.154	1.2727	0.1	3053.1
4751	10.971	1.2727	0.1	3103.1
4752	10.787	1.2727	0.1	3153.
4753	10.604	1.2727	0.1	3202.9
4754	10.42	1.2727	0.1	3252.6
4755	10.237	1.2727	0.1	3302.
4756	10.053	1.2727	0.1	3350.9
4757	9.8698	1.2727	0.1	3399.
4758	9.6863	1.2727	0.1	3446.2
4759	9.5028	1.2727	0.1	3492.
4760	9.3193	1.2727	0.1	3536.
4761	9.1358	1.2727	0.1	3577.4
4762	8.9523	1.2727	0.1	3615.6
4763	8.7688	1.2727	0.1	3649.6
4764	8.5853	1.2727	0.1	3678.3
4765	8.4018	1.2727	0.1	3700.2
4766	8.2182	1.2727	0.1	3714.
4767	8.0347	1.2727	0.1	3717.9
4768	7.8512	1.2727	0.1	3710.
4769	7.6677	1.2727	0.1	3688.7
4770	7.4842	1.2727	0.1	3651.8
4771	7.3007	1.2727	0.1	3596.
4772	7.1172	1.2727	0.1	3514.9
4773	6.9337	1.2727	0.1	3400.4
4774	6.7502	1.2727	0.1	3364.4
4775	23.816	1.4545	0.1	39.761
4776	23.633	1.4545	0.1	77.671
4777	23.449	1.4545	0.1	115.65
4778	23.266	1.4545	0.1	153.54
4779	23.082	1.4545	0.1	191.45
4780	22.899	1.4545	0.1	229.45
4781	22.715	1.4545	0.1	267.57
4782	22.532	1.4545	0.1	305.85
4783	22.348	1.4545	0.1	344.32
4784	22.165	1.4545	0.1	382.96
4785	21.981	1.4545	0.1	421.8
4786	21.798	1.4545	0.1	460.82
4787	21.614	1.4545	0.1	500.03
4788	21.431	1.4545	0.1	539.43
4789	21.247	1.4545	0.1	579.01
4790	21.064	1.4545	0.1	618.78
4791	20.88	1.4545	0.1	658.74
4792	20.697	1.4545	0.1	698.88
4793	20.513	1.4545	0.1	739.21
4794	20.33	1.4545	0.1	779.73
4795	20.146	1.4545	0.1	820.43
4796	19.963	1.4545	0.1	861.32
4797	19.779	1.4545	0.1	902.41
4798	19.596	1.4545	0.1	943.68
4799	19.412	1.4545	0.1	985.14
4800	19.229	1.4545	0.1	1026.8
4801	19.045	1.4545	0.1	1068.6
4802	18.862	1.4545	0.1	1110.7
4803	18.678	1.4545	0.1	1152.9
4804	18.495	1.4545	0.1	1195.3
4805	18.311	1.4545	0.1	1238.
4806	18.128	1.4545	0.1	1280.8
4807	17.944	1.4545	0.1	1323.8
4808	17.761	1.4545	0.1	1367.
4809	17.577	1.4545	0.1	1410.4
4810	17.394	1.4545	0.1	1454.
4811	17.21	1.4545	0.1	1497.8
4812	17.027	1.4545	0.1	1541.8
4813	16.843	1.4545	0.1	1586.
4814	16.66	1.4545	0.1	1630.3
4815	16.476	1.4545	0.1	1674.9
4816	16.293	1.4545	0.1	1719.7
4817	16.109	1.4545	0.1	1764.6
4818	15.926	1.4545	0.1	1809.8
4819	15.742	1.4545	0.1	1855.1
4820	15.559	1.4545	0.1	1900.7
4821	15.375	1.4545	0.1	1946.4
4822	15.192	1.4545	0.1	1992.4
4823	15.008	1.4545	0.1	2038.5
4824	14.825	1.4545	0.1	2084.8
4825	14.641	1.4545	0.1	2131.3
4826	14.458	1.4545	0.1	2178.
4827	14.274	1.4545	0.1	2224.9
4828	14.091	1.4545	0.1	2272.
4829	13.907	1.4545	0.1	2319.3
4830	13.724	1.4545	0.1	2366.8
4831	13.54	1.4545	0.1	2414.5
4832	13.356	1.4545	0.1	2462.4
4833	13.173	1.4545	0.1	2510.4
4834	12.989	1.4545	0.1	2558.7
4835	12.806	1.4545	0.1	2607.2
4836	12.622	1.4545	0.1	2655.8
4837	12.439	1.4545	0.1	2704.7
4838	12.255	1.4545	0.1	2753.8
4839	12.072	1.4545	0.1	2803.1
4840	11.888	1.4545	0.1	2852.5
4841	11.705	1.4545	0.1	2902.2
4842	11.521	1.4545	0.1	2952.1
4843	11.338	1.4545	0.1	3002.2
4844	11.154	1.4545	0.1	3052.6
4845	10.971	1.4545	0.1	3103.1
4846	10.787	1.4545	0.1	3153.9
4847	10.604	1.4545	0.1	3204.8
4848	10.42	1.4545	0.1	3256.
4849	10.237	1.4545	0.1	3307.3
4850	10.053	1.4545	0.1	3358.7
4851	9.8698	1.4545	0.1	3410.2
4852	9.6863	1.4545	0.1	3461.7
4853	9.5028	1.4545	0.1	3513.1
4854	9.3193	1.4545	0.1	3564.2
4855	9.1358	1.4545	0.1	3615.
4856	8.9523	1.4545	0.1	3665.1
4857	8.7688	1.4545	0.1	3714.4
4858	8.5853	1.4545	0.1	3762.5
4859	8.4018	1.4545	0.1	3809.4
4860	8.2182	1.4545	0.1	3855.
4861	8.0347	1.4545	0.1	3899.6
4862	7.8512	1.4545	0.1	3943.9
4863	7.6677	1.4545	0.1	3989.5
4864	7.4842	1.4545	0.1	4038.2
4865	7.3007	1.4545	0.1	4089.9
4866	7.1172	1.4545	0.1	4139.9
4867	6.9337	1.4545	0.1	4151.9
4868	6.7502	1.4545	0.1	4230.6
4869	23.816	1.6364	0.1	39.745
4870	23.633	1.6364	0.1	77.9
4871	23.449	1.6364	0.1	116.09
4872	23.266	1.6364	0.1	154.17
4873	23.082	1.6364	0.1	192.22
4874	22.899	1.6364	0.1	230.29
4875	22.715	1.6364	0.1	268.45
4876	22.532	1.6364	0.1	306.73
4877	22.348	1.6364	0.1	345.15
4878	22.165	1.6364	0.1	383.74
4879	21.981	1.6364	0.1	422.49
4880	21.798	1.6364	0.1	461.43
4881	21.614	1.6364	0.1	500.55
4882	21.431	1.6364	0.1	539.85
4883	21.247	1.6364	0.1	579.34
4884	21.064	1.6364	0.1	619.02
4885	20.88	1.6364	0.1	658.89
4886	20.697	1.6364	0.1	698.95
4887	20.513	1.6364	0.1	739.2
4888	20.33	1.6364	0.1	779.64
4889	20.146	1.6364	0.1	820.28
4890	19.963	1.6364	0.1	861.11
4891	19.779	1.6364	0.1	902.13
4892	19.596	1.6364	0.1	943.35
4893	19.412	1.6364	0.1	984.77
4894	19.229	1.6364	0.1	1026.4
4895	19.045	1.6364	0.1	1068.2
4896	18.862	1.6364	0.1	1110.2
4897	18.678	1.6364	0.1	1152.4
4898	18.495	1.6364	0.1	1194.8
4899	18.311	1.6364	0.1	1237.4
4900	18.128	1.6364	0.1	1280.2
4901	17.944	1.6364	0.1	1323.1
4902	17.761	1.6364	0.1	1366.3
4903	17.577	1.6364	0.1	1409.7
4904	17.394	1.6364	0.1	1453.3
4905	17.21	1.6364	0.1	1497.1
4906	17.027	1.6364	0.1	1541.
4907	16.843	1.6364	0.1	1585.2
4908	16.66	1.6364	0.1	1629.5
4909	16.476	1.6364	0.1	1674.1
4910	16.293	1.6364	0.1	1718.8
4911	16.109	1.6364	0.1	1763.8
4912	15.926	1.6364	0.1	1808.9
4913	15.742	1.6364	0.1	1854.2
4914	15.559	1.6364	0.1	1899.8
4915	15.375	1.6364	0.1	1945.5
4916	15.192	1.6364	0.1	1991.4
4917	15.008	1.6364	0.1	2037.5
4918	14.825	1.6364	0.1	2083.8
4919	14.641	1.6364	0.1	2130.3
4920	14.458	1.6364	0.1	2176.9
4921	14.274	1.6364	0.1	2223.8
4922	14.091	1.6364	0.1	2270.9
4923	13.907	1.6364	0.1	2318.1
4924	13.724	1.6364	0.1	2365.5
4925	13.54	1.6364	0.1	2413.2
4926	13.356	1.6364	0.1	2461.
4927	13.173	1.6364	0.1	2509.
4928	12.989	1.6364	0.1	2557.3
4929	12.806	1.6364	0.1	2605.7
4930	12.622	1.6364	0.1	2654.3
4931	12.439	1.6364	0.1	2703.2
4932	12.255	1.6364	0.1	2752.3
4933	12.072	1.6364	0.1	2801.6
4934	11.888	1.6364	0.1	2851.1
4935	11.705	1.6364	0.1	2900.9
4936	11.521	1.6364	0.1	2951.
4937	11.338	1.6364	0.1	3001.4
4938	11.154	1.6364	0.1	3052.1
4939	10.971	1.6364	0.1	3103.2
4940	10.787	1.6364	0.1	3154.8
4941	10.604	1.6364	0.1	3206.8
4942	10.42	1.6364	0.1	3259.3
4943	10.237	1.6364	0.1	3312.5
4944	10.053	1.6364	0.1	3366.5
4945	9.8698	1.6364	0.1	3421.3
4946	9.6863	1.6364	0.1	3477.1
4947	9.5028	1.6364	0.1	3534.1
4948	9.3193	1.6364	0.1	3592.5
4949	9.1358	1.6364	0.1	3652.7
4950	8.9523	1.6364	0.1	3715.
4951	8.7688	1.6364	0.1	3779.9
4952	8.5853	1.6364	0.1	3848.1
4953	8.4018	1.6364	0.1	3920.8
4954	8.2182	1.6364	0.1	3999.5
4955	8.0347	1.6364	0.1	4086.9
4956	7.8512	1.6364	0.1	4186.8
4957	7.6677	1.6364	0.1	4305.4
4958	7.4842	1.6364	0.1	4451.6
4959	7.3007	1.6364	0.1	4637.6
4960	7.1172	1.6364	0.1	4873.5
4961	6.9337	1.6364	0.1	5150.7
4962	6.7502	1.6364	0.1	5488.3
4963	23.816	1.8182	0.1	39.715
4964	23.633	1.8182	0.1	78.066
4965	23.449	1.8182	0.1	116.44
4966	23.266	1.8182	0.1	154.67
4967	23.082	1.8182	0.1	192.84
4968	22.899	1.8182	0.1	231.01
4969	22.715	1.8182	0.1	269.21
4970	22.532	1.8182	0.1	307.5
4971	22.348	1.8182	0.1	345.91
4972	22.165	1.8182	0.1	384.45
4973	21.981	1.8182	0.1	423.15
4974	21.798	1.8182	0.1	462.02
4975	21.614	1.8182	0.1	501.06
4976	21.431	1.8182	0.1	540.28
4977	21.247	1.8182	0.1	579.69
4978	21.064	1.8182	0.1	619.29
4979	20.88	1.8182	0.1	659.08
4980	20.697	1.8182	0.1	699.06
4981	20.513	1.8182	0.1	739.24
4982	20.33	1.8182	0.1	779.62
4983	20.146	1.8182	0.1	820.19
4984	19.963	1.8182	0.1	860.96
4985	19.779	1.8182	0.1	901.93
4986	19.596	1.8182	0.1	943.1
4987	19.412	1.8182	0.1	984.47
4988	19.229	1.8182	0.1	1026.
4989	19.045	1.8182	0.1	1067.8
4990	18.862	1.8182	0.1	1109.8
4991	18.678	1.8182	0.1	1151.9
4992	18.495	1.8182	0.1	1194.3
4993	18.311	1.8182	0.1	1236.9
4994	18.128	1.8182	0.1	1279.6
4995	17.944	1.8182	0.1	1322.6
4996	17.761	1.8182	0.1	1365.8
4997	17.577	1.8182	0.1	1409.1
4998	17.394	1.8182	0.1	1452.7
4999	17.21	1.8182	0.1	1496.4
5000	17.027	1.8182	0.1	1540.4
5001	16.843	1.8182	0.1	1584.5
5002	16.66	1.8182	0.1	1628.9
5003	16.476	1.8182	0.1	1673.4
5004	16.293	1.8182	0.1	1718.1
5005	16.109	1.8182	0.1	1763.
5006	15.926	1.8182	0.1	1808.2
5007	15.742	1.8182	0.1	1853.5
5008	15.559	1.8182	0.1	1899.
5009	15.375	1.8182	0.1	1944.6
5010	15.192	1.8182	0.1	1990.5
5011	15.008	1.8182	0.1	2036.6
5012	14.825	1.8182	0.1	2082.9
5013	14.641	1.8182	0.1	2129.3
5014	14.458	1.8182	0.1	2176.
5015	14.274	1.8182	0.1	2222.8
5016	14.091	1.8182	0.1	2269.8
5017	13.907	1.8182	0.1	2317.
5018	13.724	1.8182	0.1	2364.4
5019	13.54	1.8182	0.1	2412.
5020	13.356	1.8182	0.1	2459.8
5021	13.173	1.8182	0.1	2507.8
5022	12.989	1.8182	0.1	2556.
5023	12.806	1.8182	0.1	2604.4
5024	12.622	1.8182	0.1	2653.
5025	12.439	1.8182	0.1	2701.8
5026	12.255	1.8182	0.1	2750.9
5027	12.072	1.8182	0.1	2800.2
5028	11.888	1.8182	0.1	2849.8
5029	11.705	1.8182	0.1	2899.7
5030	11.521	1.8182	0.1	2950.
5031	11.338	1.8182	0.1	3000.7
5032	11.154	1.8182	0.1	3051.8
5033	10.971	1.8182	0.1	3103.4
5034	10.787	1.8182	0.1	3155.7
5035	10.604	1.8182	0.1	3208.7
5036	10.42	1.8182	0.1	3262.6
5037	10.237	1.8182	0.1	3317.6
5038	10.053	1.8182	0.1	3373.9
5039	9.8698	1.8182	0.1	3431.9
5040	9.6863	1.8182	0.1	3491.9
5041	9.5028	1.8182	0.1	3554.4
5042	9.3193	1.8182	0.1	3620.
5043	9.1358	1.8182	0.1	3689.4
5044	8.9523	1.8182	0.1	3763.6
5045	8.7688	1.8182	0.1	3844.
5046	8.5853	1.8182	0.1	3932.3
5047	8.4018	1.8182	0.1	4030.7
5048	8.2182	1.8182	0.1	4142.8
5049	8.0347	1.8182	0.1	4273.3
5050	7.8512	1.8182	0.1	4429.8
5051	7.6677	1.8182	0.1	4623.7
5052	7.4842	1.8182	0.1	4873.3
5053	7.3007	1.8182	0.1	5209.
5054	7.1172	1.8182	0.1	5684.5
5055	6.9337	1.8182	0.1	6422.1
5056	6.7502	1.8182	0.1	7974.1
5057	23.816	2.	0.1	39.68
5058	23.633	2.	0.1	78.186
5059	23.449	2.	0.1	116.7
5060	23.266	2.	0.1	155.07
5061	23.082	2.	0.1	193.35
5062	22.899	2.	0.1	231.59
5063	22.715	2.	0.1	269.85
5064	22.532	2.	0.1	308.16
5065	22.348	2.	0.1	346.56
5066	22.165	2.	0.1	385.08
5067	21.981	2.	0.1	423.74
5068	21.798	2.	0.1	462.56
5069	21.614	2.	0.1	501.54
5070	21.431	2.	0.1	540.7
5071	21.247	2.	0.1	580.04
5072	21.064	2.	0.1	619.57
5073	20.88	2.	0.1	659.29
5074	20.697	2.	0.1	699.21
5075	20.513	2.	0.1	739.32
5076	20.33	2.	0.1	779.64
5077	20.146	2.	0.1	820.16
5078	19.963	2.	0.1	860.88
5079	19.779	2.	0.1	901.8
5080	19.596	2.	0.1	942.92
5081	19.412	2.	0.1	984.25
5082	19.229	2.	0.1	1025.8
5083	19.045	2.	0.1	1067.5
5084	18.862	2.	0.1	1109.4
5085	18.678	2.	0.1	1151.6
5086	18.495	2.	0.1	1193.9
5087	18.311	2.	0.1	1236.5
5088	18.128	2.	0.1	1279.2
5089	17.944	2.	0.1	1322.1
5090	17.761	2.	0.1	1365.3
5091	17.577	2.	0.1	1408.6
5092	17.394	2.	0.1	1452.2
5093	17.21	2.	0.1	1495.9
5094	17.027	2.	0.1	1539.8
5095	16.843	2.	0.1	1583.9
5096	16.66	2.	0.1	1628.3
5097	16.476	2.	0.1	1672.8
5098	16.293	2.	0.1	1717.5
5099	16.109	2.	0.1	1762.4
5100	15.926	2.	0.1	1807.5
5101	15.742	2.	0.1	1852.8
5102	15.559	2.	0.1	1898.3
5103	15.375	2.	0.1	1943.9
5104	15.192	2.	0.1	1989.8
5105	15.008	2.	0.1	2035.8
5106	14.825	2.	0.1	2082.1
5107	14.641	2.	0.1	2128.5
5108	14.458	2.	0.1	2175.1
5109	14.274	2.	0.1	2221.9
5110	14.091	2.	0.1	2268.9
5111	13.907	2.	0.1	2316.1
5112	13.724	2.	0.1	2363.4
5113	13.54	2.	0.1	2411.
5114	13.356	2.	0.1	2458.7
5115	13.173	2.	0.1	2506.7
5116	12.989	2.	0.1	2554.8
5117	12.806	2.	0.1	2603.2
5118	12.622	2.	0.1	2651.8
5119	12.439	2.	0.1	2700.6
5120	12.255	2.	0.1	2749.7
5121	12.072	2.	0.1	2799.
5122	11.888	2.	0.1	2848.7
5123	11.705	2.	0.1	2898.7
5124	11.521	2.	0.1	2949.1
5125	11.338	2.	0.1	3000.
5126	11.154	2.	0.1	3051.4
5127	10.971	2.	0.1	3103.6
5128	10.787	2.	0.1	3156.5
5129	10.604	2.	0.1	3210.4
5130	10.42	2.	0.1	3265.6
5131	10.237	2.	0.1	3322.3
5132	10.053	2.	0.1	3380.9
5133	9.8698	2.	0.1	3441.8
5134	9.6863	2.	0.1	3505.7
5135	9.5028	2.	0.1	3573.3
5136	9.3193	2.	0.1	3645.6
5137	9.1358	2.	0.1	3723.8
5138	8.9523	2.	0.1	3809.5
5139	8.7688	2.	0.1	3904.7
5140	8.5853	2.	0.1	4012.2
5141	8.4018	2.	0.1	4135.5
5142	8.2182	2.	0.1	4279.8
5143	8.0347	2.	0.1	4452.2
5144	7.8512	2.	0.1	4663.6
5145	7.6677	2.	0.1	4930.6
5146	7.4842	2.	0.1	5280.9
5147	7.3007	2.	0.1	5763.9
5148	7.1172	2.	0.1	6486.9
5149	6.9337	2.	0.1	7649.5
5150	6.7502	2.	0.1	11162
5151	23.816	2.1818	0.1	39.645
5152	23.633	2.1818	0.1	78.273
5153	23.449	2.1818	0.1	116.9
5154	23.266	2.1818	0.1	155.37
5155	23.082	2.1818	0.1	193.75
5156	22.899	2.1818	0.1	232.06
5157	22.715	2.1818	0.1	270.37
5158	22.532	2.1818	0.1	308.71
5159	22.348	2.1818	0.1	347.11
5160	22.165	2.1818	0.1	385.62
5161	21.981	2.1818	0.1	424.25
5162	21.798	2.1818	0.1	463.03
5163	21.614	2.1818	0.1	501.96
5164	21.431	2.1818	0.1	541.07
5165	21.247	2.1818	0.1	580.35
5166	21.064	2.1818	0.1	619.83
5167	20.88	2.1818	0.1	659.49
5168	20.697	2.1818	0.1	699.36
5169	20.513	2.1818	0.1	739.42
5170	20.33	2.1818	0.1	779.68
5171	20.146	2.1818	0.1	820.15
5172	19.963	2.1818	0.1	860.83
5173	19.779	2.1818	0.1	901.71
5174	19.596	2.1818	0.1	942.79
5175	19.412	2.1818	0.1	984.08
5176	19.229	2.1818	0.1	1025.6
5177	19.045	2.1818	0.1	1067.3
5178	18.862	2.1818	0.1	1109.2
5179	18.678	2.1818	0.1	1151.3
5180	18.495	2.1818	0.1	1193.6
5181	18.311	2.1818	0.1	1236.1
5182	18.128	2.1818	0.1	1278.8
5183	17.944	2.1818	0.1	1321.8
5184	17.761	2.1818	0.1	1364.9
5185	17.577	2.1818	0.1	1408.2
5186	17.394	2.1818	0.1	1451.7
5187	17.21	2.1818	0.1	1495.5
5188	17.027	2.1818	0.1	1539.4
5189	16.843	2.1818	0.1	1583.5
5190	16.66	2.1818	0.1	1627.8
5191	16.476	2.1818	0.1	1672.3
5192	16.293	2.1818	0.1	1717.
5193	16.109	2.1818	0.1	1761.9
5194	15.926	2.1818	0.1	1807.
5195	15.742	2.1818	0.1	1852.2
5196	15.559	2.1818	0.1	1897.7
5197	15.375	2.1818	0.1	1943.3
5198	15.192	2.1818	0.1	1989.2
5199	15.008	2.1818	0.1	2035.2
5200	14.825	2.1818	0.1	2081.4
5201	14.641	2.1818	0.1	2127.8
5202	14.458	2.1818	0.1	2174.4
5203	14.274	2.1818	0.1	2221.2
5204	14.091	2.1818	0.1	2268.1
5205	13.907	2.1818	0.1	2315.3
5206	13.724	2.1818	0.1	2362.6
5207	13.54	2.1818	0.1	2410.1
5208	13.356	2.1818	0.1	2457.8
5209	13.173	2.1818	0.1	2505.8
5210	12.989	2.1818	0.1	2553.9
5211	12.806	2.1818	0.1	2602.2
5212	12.622	2.1818	0.1	2650.8
5213	12.439	2.1818	0.1	2699.6
5214	12.255	2.1818	0.1	2748.6
5215	12.072	2.1818	0.1	2798.
5216	11.888	2.1818	0.1	2847.7
5217	11.705	2.1818	0.1	2897.8
5218	11.521	2.1818	0.1	2948.3
5219	11.338	2.1818	0.1	2999.4
5220	11.154	2.1818	0.1	3051.2
5221	10.971	2.1818	0.1	3103.7
5222	10.787	2.1818	0.1	3157.3
5223	10.604	2.1818	0.1	3212.
5224	10.42	2.1818	0.1	3268.3
5225	10.237	2.1818	0.1	3326.4
5226	10.053	2.1818	0.1	3387.
5227	9.8698	2.1818	0.1	3450.6
5228	9.6863	2.1818	0.1	3518.
5229	9.5028	2.1818	0.1	3590.3
5230	9.3193	2.1818	0.1	3668.6
5231	9.1358	2.1818	0.1	3754.8
5232	8.9523	2.1818	0.1	3851.
5233	8.7688	2.1818	0.1	3959.8
5234	8.5853	2.1818	0.1	4085.
5235	8.4018	2.1818	0.1	4231.3
5236	8.2182	2.1818	0.1	4405.5
5237	8.0347	2.1818	0.1	4616.7
5238	7.8512	2.1818	0.1	4878.4
5239	7.6677	2.1818	0.1	5211.3
5240	7.4842	2.1818	0.1	5649.5
5241	7.3007	2.1818	0.1	6252.8
5242	7.1172	2.1818	0.1	7143.2
5243	6.9337	2.1818	0.1	8630.2
5244	6.7502	2.1818	0.1	11492
5245	23.816	2.3636	0.1	39.614
5246	23.633	2.3636	0.1	78.333
5247	23.449	2.3636	0.1	117.05
5248	23.266	2.3636	0.1	155.61
5249	23.082	2.3636	0.1	194.05
5250	22.899	2.3636	0.1	232.42
5251	22.715	2.3636	0.1	270.77
5252	22.532	2.3636	0.1	309.14
5253	22.348	2.3636	0.1	347.55
5254	22.165	2.3636	0.1	386.06
5255	21.981	2.3636	0.1	424.67
5256	21.798	2.3636	0.1	463.42
5257	21.614	2.3636	0.1	502.32
5258	21.431	2.3636	0.1	541.38
5259	21.247	2.3636	0.1	580.63
5260	21.064	2.3636	0.1	620.06
5261	20.88	2.3636	0.1	659.68
5262	20.697	2.3636	0.1	699.49
5263	20.513	2.3636	0.1	739.51
5264	20.33	2.3636	0.1	779.74
5265	20.146	2.3636	0.1	820.17
5266	19.963	2.3636	0.1	860.8
5267	19.779	2.3636	0.1	901.65
5268	19.596	2.3636	0.1	942.7
5269	19.412	2.3636	0.1	983.96
5270	19.229	2.3636	0.1	1025.4
5271	19.045	2.3636	0.1	1067.1
5272	18.862	2.3636	0.1	1109.
5273	18.678	2.3636	0.1	1151.1
5274	18.495	2.3636	0.1	1193.4
5275	18.311	2.3636	0.1	1235.9
5276	18.128	2.3636	0.1	1278.6
5277	17.944	2.3636	0.1	1321.5
5278	17.761	2.3636	0.1	1364.6
5279	17.577	2.3636	0.1	1407.9
5280	17.394	2.3636	0.1	1451.4
5281	17.21	2.3636	0.1	1495.1
5282	17.027	2.3636	0.1	1539.
5283	16.843	2.3636	0.1	1583.1
5284	16.66	2.3636	0.1	1627.4
5285	16.476	2.3636	0.1	1671.9
5286	16.293	2.3636	0.1	1716.6
5287	16.109	2.3636	0.1	1761.5
5288	15.926	2.3636	0.1	1806.5
5289	15.742	2.3636	0.1	1851.8
5290	15.559	2.3636	0.1	1897.2
5291	15.375	2.3636	0.1	1942.9
5292	15.192	2.3636	0.1	1988.7
5293	15.008	2.3636	0.1	2034.7
5294	14.825	2.3636	0.1	2080.9
5295	14.641	2.3636	0.1	2127.3
5296	14.458	2.3636	0.1	2173.8
5297	14.274	2.3636	0.1	2220.6
5298	14.091	2.3636	0.1	2267.5
5299	13.907	2.3636	0.1	2314.6
5300	13.724	2.3636	0.1	2361.9
5301	13.54	2.3636	0.1	2409.4
5302	13.356	2.3636	0.1	2457.1
5303	13.173	2.3636	0.1	2505.
5304	12.989	2.3636	0.1	2553.1
5305	12.806	2.3636	0.1	2601.4
5306	12.622	2.3636	0.1	2649.9
5307	12.439	2.3636	0.1	2698.7
5308	12.255	2.3636	0.1	2747.8
5309	12.072	2.3636	0.1	2797.2
5310	11.888	2.3636	0.1	2846.9
5311	11.705	2.3636	0.1	2897.1
5312	11.521	2.3636	0.1	2947.7
5313	11.338	2.3636	0.1	2999.
5314	11.154	2.3636	0.1	3051.
5315	10.971	2.3636	0.1	3103.9
5316	10.787	2.3636	0.1	3157.9
5317	10.604	2.3636	0.1	3213.3
5318	10.42	2.3636	0.1	3270.5
5319	10.237	2.3636	0.1	3329.9
5320	10.053	2.3636	0.1	3392.2
5321	9.8698	2.3636	0.1	3458.
5322	9.6863	2.3636	0.1	3528.4
5323	9.5028	2.3636	0.1	3604.6
5324	9.3193	2.3636	0.1	3688.2
5325	9.1358	2.3636	0.1	3781.3
5326	8.9523	2.3636	0.1	3886.5
5327	8.7688	2.3636	0.1	4007.1
5328	8.5853	2.3636	0.1	4147.8
5329	8.4018	2.3636	0.1	4314.3
5330	8.2182	2.3636	0.1	4514.6
5331	8.0347	2.3636	0.1	4759.4
5332	7.8512	2.3636	0.1	5064.1
5333	7.6677	2.3636	0.1	5450.9
5334	7.4842	2.3636	0.1	5954.6
5335	7.3007	2.3636	0.1	6631.
5336	7.1172	2.3636	0.1	7578.1
5337	6.9337	2.3636	0.1	8953.6
5338	6.7502	2.3636	0.1	10882
5339	23.816	2.5455	0.1	39.588
5340	23.633	2.5455	0.1	78.375
5341	23.449	2.5455	0.1	117.16
5342	23.266	2.5455	0.1	155.77
5343	23.082	2.5455	0.1	194.27
5344	22.899	2.5455	0.1	232.69
5345	22.715	2.5455	0.1	271.07
5346	22.532	2.5455	0.1	309.46
5347	22.348	2.5455	0.1	347.88
5348	22.165	2.5455	0.1	386.39
5349	21.981	2.5455	0.1	424.99
5350	21.798	2.5455	0.1	463.72
5351	21.614	2.5455	0.1	502.59
5352	21.431	2.5455	0.1	541.63
5353	21.247	2.5455	0.1	580.84
5354	21.064	2.5455	0.1	620.24
5355	20.88	2.5455	0.1	659.82
5356	20.697	2.5455	0.1	699.61
5357	20.513	2.5455	0.1	739.6
5358	20.33	2.5455	0.1	779.79
5359	20.146	2.5455	0.1	820.19
5360	19.963	2.5455	0.1	860.8
5361	19.779	2.5455	0.1	901.61
5362	19.596	2.5455	0.1	942.64
5363	19.412	2.5455	0.1	983.88
5364	19.229	2.5455	0.1	1025.3
5365	19.045	2.5455	0.1	1067.
5366	18.862	2.5455	0.1	1108.8
5367	18.678	2.5455	0.1	1150.9
5368	18.495	2.5455	0.1	1193.2
5369	18.311	2.5455	0.1	1235.7
5370	18.128	2.5455	0.1	1278.4
5371	17.944	2.5455	0.1	1321.3
5372	17.761	2.5455	0.1	1364.4
5373	17.577	2.5455	0.1	1407.7
5374	17.394	2.5455	0.1	1451.2
5375	17.21	2.5455	0.1	1494.8
5376	17.027	2.5455	0.1	1538.7
5377	16.843	2.5455	0.1	1582.8
5378	16.66	2.5455	0.1	1627.1
5379	16.476	2.5455	0.1	1671.6
5380	16.293	2.5455	0.1	1716.3
5381	16.109	2.5455	0.1	1761.1
5382	15.926	2.5455	0.1	1806.2
5383	15.742	2.5455	0.1	1851.4
5384	15.559	2.5455	0.1	1896.9
5385	15.375	2.5455	0.1	1942.5
5386	15.192	2.5455	0.1	1988.3
5387	15.008	2.5455	0.1	2034.3
5388	14.825	2.5455	0.1	2080.5
5389	14.641	2.5455	0.1	2126.9
5390	14.458	2.5455	0.1	2173.4
5391	14.274	2.5455	0.1	2220.1
5392	14.091	2.5455	0.1	2267.
5393	13.907	2.5455	0.1	2314.1
5394	13.724	2.5455	0.1	2361.4
5395	13.54	2.5455	0.1	2408.9
5396	13.356	2.5455	0.1	2456.6
5397	13.173	2.5455	0.1	2504.4
5398	12.989	2.5455	0.1	2552.5
5399	12.806	2.5455	0.1	2600.8
5400	12.622	2.5455	0.1	2649.3
5401	12.439	2.5455	0.1	2698.1
5402	12.255	2.5455	0.1	2747.1
5403	12.072	2.5455	0.1	2796.5
5404	11.888	2.5455	0.1	2846.3
5405	11.705	2.5455	0.1	2896.5
5406	11.521	2.5455	0.1	2947.2
5407	11.338	2.5455	0.1	2998.6
5408	11.154	2.5455	0.1	3050.8
5409	10.971	2.5455	0.1	3104.
5410	10.787	2.5455	0.1	3158.4
5411	10.604	2.5455	0.1	3214.3
5412	10.42	2.5455	0.1	3272.2
5413	10.237	2.5455	0.1	3332.6
5414	10.053	2.5455	0.1	3396.2
5415	9.8698	2.5455	0.1	3463.8
5416	9.6863	2.5455	0.1	3536.5
5417	9.5028	2.5455	0.1	3615.9
5418	9.3193	2.5455	0.1	3703.6
5419	9.1358	2.5455	0.1	3802.2
5420	8.9523	2.5455	0.1	3914.6
5421	8.7688	2.5455	0.1	4044.8
5422	8.5853	2.5455	0.1	4197.9
5423	8.4018	2.5455	0.1	4380.7
5424	8.2182	2.5455	0.1	4601.9
5425	8.0347	2.5455	0.1	4873.6
5426	7.8512	2.5455	0.1	5211.4
5427	7.6677	2.5455	0.1	5637.1
5428	7.4842	2.5455	0.1	6180.2
5429	7.3007	2.5455	0.1	6880.6
5430	7.1172	2.5455	0.1	7783.7
5431	6.9337	2.5455	0.1	8909.9
5432	6.7502	2.5455	0.1	10108
5433	23.816	2.7273	0.1	39.57
5434	23.633	2.7273	0.1	78.4
5435	23.449	2.7273	0.1	117.22
5436	23.266	2.7273	0.1	155.88
5437	23.082	2.7273	0.1	194.41
5438	22.899	2.7273	0.1	232.86
5439	22.715	2.7273	0.1	271.27
5440	22.532	2.7273	0.1	309.67
5441	22.348	2.7273	0.1	348.1
5442	22.165	2.7273	0.1	386.61
5443	21.981	2.7273	0.1	425.2
5444	21.798	2.7273	0.1	463.92
5445	21.614	2.7273	0.1	502.78
5446	21.431	2.7273	0.1	541.8
5447	21.247	2.7273	0.1	580.99
5448	21.064	2.7273	0.1	620.36
5449	20.88	2.7273	0.1	659.93
5450	20.697	2.7273	0.1	699.69
5451	20.513	2.7273	0.1	739.65
5452	20.33	2.7273	0.1	779.83
5453	20.146	2.7273	0.1	820.2
5454	19.963	2.7273	0.1	860.79
5455	19.779	2.7273	0.1	901.59
5456	19.596	2.7273	0.1	942.61
5457	19.412	2.7273	0.1	983.83
5458	19.229	2.7273	0.1	1025.3
5459	19.045	2.7273	0.1	1066.9
5460	18.862	2.7273	0.1	1108.8
5461	18.678	2.7273	0.1	1150.8
5462	18.495	2.7273	0.1	1193.1
5463	18.311	2.7273	0.1	1235.6
5464	18.128	2.7273	0.1	1278.2
5465	17.944	2.7273	0.1	1321.1
5466	17.761	2.7273	0.1	1364.2
5467	17.577	2.7273	0.1	1407.5
5468	17.394	2.7273	0.1	1451.
5469	17.21	2.7273	0.1	1494.7
5470	17.027	2.7273	0.1	1538.6
5471	16.843	2.7273	0.1	1582.6
5472	16.66	2.7273	0.1	1626.9
5473	16.476	2.7273	0.1	1671.4
5474	16.293	2.7273	0.1	1716.1
5475	16.109	2.7273	0.1	1760.9
5476	15.926	2.7273	0.1	1806.
5477	15.742	2.7273	0.1	1851.2
5478	15.559	2.7273	0.1	1896.6
5479	15.375	2.7273	0.1	1942.3
5480	15.192	2.7273	0.1	1988.1
5481	15.008	2.7273	0.1	2034.1
5482	14.825	2.7273	0.1	2080.2
5483	14.641	2.7273	0.1	2126.6
5484	14.458	2.7273	0.1	2173.1
5485	14.274	2.7273	0.1	2219.8
5486	14.091	2.7273	0.1	2266.7
5487	13.907	2.7273	0.1	2313.8
5488	13.724	2.7273	0.1	2361.1
5489	13.54	2.7273	0.1	2408.5
5490	13.356	2.7273	0.1	2456.2
5491	13.173	2.7273	0.1	2504.
5492	12.989	2.7273	0.1	2552.1
5493	12.806	2.7273	0.1	2600.4
5494	12.622	2.7273	0.1	2648.9
5495	12.439	2.7273	0.1	2697.6
5496	12.255	2.7273	0.1	2746.7
5497	12.072	2.7273	0.1	2796.1
5498	11.888	2.7273	0.1	2845.9
5499	11.705	2.7273	0.1	2896.1
5500	11.521	2.7273	0.1	2946.9
5501	11.338	2.7273	0.1	2998.4
5502	11.154	2.7273	0.1	3050.7
5503	10.971	2.7273	0.1	3104.
5504	10.787	2.7273	0.1	3158.7
5505	10.604	2.7273	0.1	3215.
5506	10.42	2.7273	0.1	3273.4
5507	10.237	2.7273	0.1	3334.5
5508	10.053	2.7273	0.1	3398.9
5509	9.8698	2.7273	0.1	3467.8
5510	9.6863	2.7273	0.1	3542.1
5511	9.5028	2.7273	0.1	3623.6
5512	9.3193	2.7273	0.1	3714.3
5513	9.1358	2.7273	0.1	3816.7
5514	8.9523	2.7273	0.1	3934.1
5515	8.7688	2.7273	0.1	4071.
5516	8.5853	2.7273	0.1	4232.8
5517	8.4018	2.7273	0.1	4427.
5518	8.2182	2.7273	0.1	4663.
5519	8.0347	2.7273	0.1	4953.1
5520	7.8512	2.7273	0.1	5313.1
5521	7.6677	2.7273	0.1	5762.4
5522	7.4842	2.7273	0.1	6324.
5523	7.3007	2.7273	0.1	7019.3
5524	7.1172	2.7273	0.1	7854.2
5525	6.9337	2.7273	0.1	8783.7
5526	6.7502	2.7273	0.1	9653.2
5527	23.816	2.9091	0.1	39.561
5528	23.633	2.9091	0.1	78.412
5529	23.449	2.9091	0.1	117.25
5530	23.266	2.9091	0.1	155.93
5531	23.082	2.9091	0.1	194.48
5532	22.899	2.9091	0.1	232.95
5533	22.715	2.9091	0.1	271.37
5534	22.532	2.9091	0.1	309.78
5535	22.348	2.9091	0.1	348.21
5536	22.165	2.9091	0.1	386.72
5537	21.981	2.9091	0.1	425.31
5538	21.798	2.9091	0.1	464.02
5539	21.614	2.9091	0.1	502.88
5540	21.431	2.9091	0.1	541.89
5541	21.247	2.9091	0.1	581.07
5542	21.064	2.9091	0.1	620.43
5543	20.88	2.9091	0.1	659.98
5544	20.697	2.9091	0.1	699.73
5545	20.513	2.9091	0.1	739.69
5546	20.33	2.9091	0.1	779.85
5547	20.146	2.9091	0.1	820.22
5548	19.963	2.9091	0.1	860.79
5549	19.779	2.9091	0.1	901.59
5550	19.596	2.9091	0.1	942.59
5551	19.412	2.9091	0.1	983.8
5552	19.229	2.9091	0.1	1025.2
5553	19.045	2.9091	0.1	1066.9
5554	18.862	2.9091	0.1	1108.7
5555	18.678	2.9091	0.1	1150.8
5556	18.495	2.9091	0.1	1193.
5557	18.311	2.9091	0.1	1235.5
5558	18.128	2.9091	0.1	1278.2
5559	17.944	2.9091	0.1	1321.1
5560	17.761	2.9091	0.1	1364.1
5561	17.577	2.9091	0.1	1407.4
5562	17.394	2.9091	0.1	1450.9
5563	17.21	2.9091	0.1	1494.6
5564	17.027	2.9091	0.1	1538.5
5565	16.843	2.9091	0.1	1582.6
5566	16.66	2.9091	0.1	1626.8
5567	16.476	2.9091	0.1	1671.3
5568	16.293	2.9091	0.1	1716.
5569	16.109	2.9091	0.1	1760.8
5570	15.926	2.9091	0.1	1805.9
5571	15.742	2.9091	0.1	1851.1
5572	15.559	2.9091	0.1	1896.5
5573	15.375	2.9091	0.1	1942.1
5574	15.192	2.9091	0.1	1987.9
5575	15.008	2.9091	0.1	2033.9
5576	14.825	2.9091	0.1	2080.1
5577	14.641	2.9091	0.1	2126.4
5578	14.458	2.9091	0.1	2173.
5579	14.274	2.9091	0.1	2219.7
5580	14.091	2.9091	0.1	2266.6
5581	13.907	2.9091	0.1	2313.7
5582	13.724	2.9091	0.1	2360.9
5583	13.54	2.9091	0.1	2408.4
5584	13.356	2.9091	0.1	2456.
5585	13.173	2.9091	0.1	2503.8
5586	12.989	2.9091	0.1	2551.9
5587	12.806	2.9091	0.1	2600.2
5588	12.622	2.9091	0.1	2648.7
5589	12.439	2.9091	0.1	2697.4
5590	12.255	2.9091	0.1	2746.5
5591	12.072	2.9091	0.1	2795.9
5592	11.888	2.9091	0.1	2845.7
5593	11.705	2.9091	0.1	2895.9
5594	11.521	2.9091	0.1	2946.8
5595	11.338	2.9091	0.1	2998.3
5596	11.154	2.9091	0.1	3050.6
5597	10.971	2.9091	0.1	3104.1
5598	10.787	2.9091	0.1	3158.9
5599	10.604	2.9091	0.1	3215.4
5600	10.42	2.9091	0.1	3274.
5601	10.237	2.9091	0.1	3335.4
5602	10.053	2.9091	0.1	3400.4
5603	9.8698	2.9091	0.1	3469.8
5604	9.6863	2.9091	0.1	3545.
5605	9.5028	2.9091	0.1	3627.6
5606	9.3193	2.9091	0.1	3719.7
5607	9.1358	2.9091	0.1	3824.1
5608	8.9523	2.9091	0.1	3944.1
5609	8.7688	2.9091	0.1	4084.4
5610	8.5853	2.9091	0.1	4250.8
5611	8.4018	2.9091	0.1	4450.9
5612	8.2182	2.9091	0.1	4694.5
5613	8.0347	2.9091	0.1	4994.
5614	7.8512	2.9091	0.1	5364.8
5615	7.6677	2.9091	0.1	5825.
5616	7.4842	2.9091	0.1	6392.6
5617	7.3007	2.9091	0.1	7078.7
5618	7.1172	2.9091	0.1	7870.3
5619	6.9337	2.9091	0.1	8702.8
5620	6.7502	2.9091	0.1	9435.9
5621	23.816	3.0909	0.1	39.561
5622	23.633	3.0909	0.1	78.412
5623	23.449	3.0909	0.1	117.25
5624	23.266	3.0909	0.1	155.93
5625	23.082	3.0909	0.1	194.48
5626	22.899	3.0909	0.1	232.95
5627	22.715	3.0909	0.1	271.37
5628	22.532	3.0909	0.1	309.78
5629	22.348	3.0909	0.1	348.21
5630	22.165	3.0909	0.1	386.72
5631	21.981	3.0909	0.1	425.31
5632	21.798	3.0909	0.1	464.02
5633	21.614	3.0909	0.1	502.88
5634	21.431	3.0909	0.1	541.89
5635	21.247	3.0909	0.1	581.07
5636	21.064	3.0909	0.1	620.43
5637	20.88	3.0909	0.1	659.98
5638	20.697	3.0909	0.1	699.73
5639	20.513	3.0909	0.1	739.69
5640	20.33	3.0909	0.1	779.85
5641	20.146	3.0909	0.1	820.22
5642	19.963	3.0909	0.1	860.79
5643	19.779	3.0909	0.1	901.59
5644	19.596	3.0909	0.1	942.59
5645	19.412	3.0909	0.1	983.8
5646	19.229	3.0909	0.1	1025.2
5647	19.045	3.0909	0.1	1066.9
5648	18.862	3.0909	0.1	1108.7
5649	18.678	3.0909	0.1	1150.8
5650	18.495	3.0909	0.1	1193.
5651	18.311	3.0909	0.1	1235.5
5652	18.128	3.0909	0.1	1278.2
5653	17.944	3.0909	0.1	1321.1
5654	17.761	3.0909	0.1	1364.1
5655	17.577	3.0909	0.1	1407.4
5656	17.394	3.0909	0.1	1450.9
5657	17.21	3.0909	0.1	1494.6
5658	17.027	3.0909	0.1	1538.5
5659	16.843	3.0909	0.1	1582.6
5660	16.66	3.0909	0.1	1626.8
5661	16.476	3.0909	0.1	1671.3
5662	16.293	3.0909	0.1	1716.
5663	16.109	3.0909	0.1	1760.8
5664	15.926	3.0909	0.1	1805.9
5665	15.742	3.0909	0.1	1851.1
5666	15.559	3.0909	0.1	1896.5
5667	15.375	3.0909	0.1	1942.1
5668	15.192	3.0909	0.1	1987.9
5669	15.008	3.0909	0.1	2033.9
5670	14.825	3.0909	0.1	2080.1
5671	14.641	3.0909	0.1	2126.4
5672	14.458	3.0909	0.1	2173.
5673	14.274	3.0909	0.1	2219.7
5674	14.091	3.0909	0.1	2266.6
5675	13.907	3.0909	0.1	2313.7
5676	13.724	3.0909	0.1	2360.9
5677	13.54	3.0909	0.1	2408.4
5678	13.356	3.0909	0.1	2456.
5679	13.173	3.0909	0.1	2503.8
5680	12.989	3.0909	0.1	2551.9
5681	12.806	3.0909	0.1	2600.2
5682	12.622	3.0909	0.1	2648.7
5683	12.439	3.0909	0.1	2697.4
5684	12.255	3.0909	0.1	2746.5
5685	12.072	3.0909	0.1	2795.9
5686	11.888	3.0909	0.1	2845.7
5687	11.705	3.0909	0.1	2895.9
5688	11.521	3.0909	0.1	2946.8
5689	11.338	3.0909	0.1	2998.3
5690	11.154	3.0909	0.1	3050.6
5691	10.971	3.0909	0.1	3104.1
5692	10.787	3.0909	0.1	3158.9
5693	10.604	3.0909	0.1	3215.4
5694	10.42	3.0909	0.1	3274.
5695	10.237	3.0909	0.1	3335.4
5696	10.053	3.0909	0.1	3400.4
5697	9.8698	3.0909	0.1	3469.8
5698	9.6863	3.0909	0.1	3545.
5699	9.5028	3.0909	0.1	3627.6
5700	9.3193	3.0909	0.1	3719.7
5701	9.1358	3.0909	0.1	3824.1
5702	8.9523	3.0909	0.1	3944.1
5703	8.7688	3.0909	0.1	4084.4
5704	8.5853	3.0909	0.1	4250.8
5705	8.4018	3.0909	0.1	4450.9
5706	8.2182	3.0909	0.1	4694.5
5707	8.0347	3.0909	0.1	4994.
5708	7.8512	3.0909	0.1	5364.8
5709	7.6677	3.0909	0.1	5825.
5710	7.4842	3.0909	0.1	6392.6
5711	7.3007	3.0909	0.1	7078.7
5712	7.1172	3.0909	0.1	7870.3
5713	6.9337	3.0909	0.1	8702.8
5714	6.7502	3.0909	0.1	9435.9
5715	23.816	3.2727	0.1	39.57
5716	23.633	3.2727	0.1	78.4
5717	23.449	3.2727	0.1	117.22
5718	23.266	3.2727	0.1	155.88
5719	23.082	3.2727	0.1	194.41
5720	22.899	3.2727	0.1	232.86
5721	22.715	3.2727	0.1	271.27
5722	22.532	3.2727	0.1	309.67
5723	22.348	3.2727	0.1	348.1
5724	22.165	3.2727	0.1	386.61
5725	21.981	3.2727	0.1	425.2
5726	21.798	3.2727	0.1	463.92
5727	21.614	3.2727	0.1	502.78
5728	21.431	3.2727	0.1	541.8
5729	21.247	3.2727	0.1	580.99
5730	21.064	3.2727	0.1	620.36
5731	20.88	3.2727	0.1	659.93
5732	20.697	3.2727	0.1	699.69
5733	20.513	3.2727	0.1	739.65
5734	20.33	3.2727	0.1	779.83
5735	20.146	3.2727	0.1	820.2
5736	19.963	3.2727	0.1	860.79
5737	19.779	3.2727	0.1	901.59
5738	19.596	3.2727	0.1	942.61
5739	19.412	3.2727	0.1	983.83
5740	19.229	3.2727	0.1	1025.3
5741	19.045	3.2727	0.1	1066.9
5742	18.862	3.2727	0.1	1108.8
5743	18.678	3.2727	0.1	1150.8
5744	18.495	3.2727	0.1	1193.1
5745	18.311	3.2727	0.1	1235.6
5746	18.128	3.2727	0.1	1278.2
5747	17.944	3.2727	0.1	1321.1
5748	17.761	3.2727	0.1	1364.2
5749	17.577	3.2727	0.1	1407.5
5750	17.394	3.2727	0.1	1451.
5751	17.21	3.2727	0.1	1494.7
5752	17.027	3.2727	0.1	1538.6
5753	16.843	3.2727	0.1	1582.6
5754	16.66	3.2727	0.1	1626.9
5755	16.476	3.2727	0.1	1671.4
5756	16.293	3.2727	0.1	1716.1
5757	16.109	3.2727	0.1	1760.9
5758	15.926	3.2727	0.1	1806.
5759	15.742	3.2727	0.1	1851.2
5760	15.559	3.2727	0.1	1896.6
5761	15.375	3.2727	0.1	1942.3
5762	15.192	3.2727	0.1	1988.1
5763	15.008	3.2727	0.1	2034.1
5764	14.825	3.2727	0.1	2080.2
5765	14.641	3.2727	0.1	2126.6
5766	14.458	3.2727	0.1	2173.1
5767	14.274	3.2727	0.1	2219.8
5768	14.091	3.2727	0.1	2266.7
5769	13.907	3.2727	0.1	2313.8
5770	13.724	3.2727	0.1	2361.1
5771	13.54	3.2727	0.1	2408.5
5772	13.356	3.2727	0.1	2456.2
5773	13.173	3.2727	0.1	2504.
5774	12.989	3.2727	0.1	2552.1
5775	12.806	3.2727	0.1	2600.4
5776	12.622	3.2727	0.1	2648.9
5777	12.439	3.2727	0.1	2697.6
5778	12.255	3.2727	0.1	2746.7
5779	12.072	3.2727	0.1	2796.1
5780	11.888	3.2727	0.1	2845.9
5781	11.705	3.2727	0.1	2896.1
5782	11.521	3.2727	0.1	2946.9
5783	11.338	3.2727	0.1	2998.4
5784	11.154	3.2727	0.1	3050.7
5785	10.971	3.2727	0.1	3104.
5786	10.787	3.2727	0.1	3158.7
5787	10.604	3.2727	0.1	3215.
5788	10.42	3.2727	0.1	3273.4
5789	10.237	3.2727	0.1	3334.5
5790	10.053	3.2727	0.1	3398.9
5791	9.8698	3.2727	0.1	3467.8
5792	9.6863	3.2727	0.1	3542.1
5793	9.5028	3.2727	0.1	3623.6
5794	9.3193	3.2727	0.1	3714.3
5795	9.1358	3.2727	0.1	3816.7
5796	8.9523	3.2727	0.1	3934.1
5797	8.7688	3.2727	0.1	4071.
5798	8.5853	3.2727	0.1	4232.8
5799	8.4018	3.2727	0.1	4427.
5800	8.2182	3.2727	0.1	4663.
5801	8.0347	3.2727	0.1	4953.1
5802	7.8512	3.2727	0.1	5313.1
5803	7.6677	3.2727	0.1	5762.4
5804	7.4842	3.2727	0.1	6324.
5805	7.3007	3.2727	0.1	7019.3
5806	7.1172	3.2727	0.1	7854.2
5807	6.9337	3.2727	0.1	8783.7
5808	6.7502	3.2727	0.1	9653.2
5809	23.816	3.4545	0.1	39.588
5810	23.633	3.4545	0.1	78.375
5811	23.449	3.4545	0.1	117.16
5812	23.266	3.4545	0.1	155.77
5813	23.082	3.4545	0.1	194.27
5814	22.899	3.4545	0.1	232.69
5815	22.715	3.4545	0.1	271.07
5816	22.532	3.4545	0.1	309.46
5817	22.348	3.4545	0.1	347.88
5818	22.165	3.4545	0.1	386.39
5819	21.981	3.4545	0.1	424.99
5820	21.798	3.4545	0.1	463.72
5821	21.614	3.4545	0.1	502.59
5822	21.431	3.4545	0.1	541.63
5823	21.247	3.4545	0.1	580.84
5824	21.064	3.4545	0.1	620.24
5825	20.88	3.4545	0.1	659.82
5826	20.697	3.4545	0.1	699.61
5827	20.513	3.4545	0.1	739.6
5828	20.33	3.4545	0.1	779.79
5829	20.146	3.4545	0.1	820.19
5830	19.963	3.4545	0.1	860.8
5831	19.779	3.4545	0.1	901.61
5832	19.596	3.4545	0.1	942.64
5833	19.412	3.4545	0.1	983.88
5834	19.229	3.4545	0.1	1025.3
5835	19.045	3.4545	0.1	1067.
5836	18.862	3.4545	0.1	1108.8
5837	18.678	3.4545	0.1	1150.9
5838	18.495	3.4545	0.1	1193.2
5839	18.311	3.4545	0.1	1235.7
5840	18.128	3.4545	0.1	1278.4
5841	17.944	3.4545	0.1	1321.3
5842	17.761	3.4545	0.1	1364.4
5843	17.577	3.4545	0.1	1407.7
5844	17.394	3.4545	0.1	1451.2
5845	17.21	3.4545	0.1	1494.8
5846	17.027	3.4545	0.1	1538.7
5847	16.843	3.4545	0.1	1582.8
5848	16.66	3.4545	0.1	1627.1
5849	16.476	3.4545	0.1	1671.6
5850	16.293	3.4545	0.1	1716.3
5851	16.109	3.4545	0.1	1761.1
5852	15.926	3.4545	0.1	1806.2
5853	15.742	3.4545	0.1	1851.4
5854	15.559	3.4545	0.1	1896.9
5855	15.375	3.4545	0.1	1942.5
5856	15.192	3.4545	0.1	1988.3
5857	15.008	3.4545	0.1	2034.3
5858	14.825	3.4545	0.1	2080.5
5859	14.641	3.4545	0.1	2126.9
5860	14.458	3.4545	0.1	2173.4
5861	14.274	3.4545	0.1	2220.1
5862	14.091	3.4545	0.1	2267.
5863	13.907	3.4545	0.1	2314.1
5864	13.724	3.4545	0.1	2361.4
5865	13.54	3.4545	0.1	2408.9
5866	13.356	3.4545	0.1	2456.6
5867	13.173	3.4545	0.1	2504.4
5868	12.989	3.4545	0.1	2552.5
5869	12.806	3.4545	0.1	2600.8
5870	12.622	3.4545	0.1	2649.3
5871	12.439	3.4545	0.1	2698.1
5872	12.255	3.4545	0.1	2747.1
5873	12.072	3.4545	0.1	2796.5
5874	11.888	3.4545	0.1	2846.3
5875	11.705	3.4545	0.1	2896.5
5876	11.521	3.4545	0.1	2947.2
5877	11.338	3.4545	0.1	2998.6
5878	11.154	3.4545	0.1	3050.8
5879	10.971	3.4545	0.1	3104.
5880	10.787	3.4545	0.1	3158.4
5881	10.604	3.4545	0.1	3214.3
5882	10.42	3.4545	0.1	3272.2
5883	10.237	3.4545	0.1	3332.6
5884	10.053	3.4545	0.1	3396.2
5885	9.8698	3.4545	0.1	3463.8
5886	9.6863	3.4545	0.1	3536.5
5887	9.5028	3.4545	0.1	3615.9
5888	9.3193	3.4545	0.1	3703.6
5889	9.1358	3.4545	0.1	3802.2
5890	8.9523	3.4545	0.1	3914.6
5891	8.7688	3.4545	0.1	4044.8
5892	8.5853	3.4545	0.1	4197.9
5893	8.4018	3.4545	0.1	4380.7
5894	8.2182	3.4545	0.1	4601.9
5895	8.0347	3.4545	0.1	4873.6
5896	7.8512	3.4545	0.1	5211.4
5897	7.6677	3.4545	0.1	5637.1
5898	7.4842	3.4545	0.1	6180.2
5899	7.3007	3.4545	0.1	6880.6
5900	7.1172	3.4545	0.1	7783.7
5901	6.9337	3.4545	0.1	8909.9
5902	6.7502	3.4545	0.1	10108
5903	23.816	3.6364	0.1	39.614
5904	23.633	3.6364	0.1	78.333
5905	23.449	3.6364	0.1	117.05
5906	23.266	3.6364	0.1	155.61
5907	23.082	3.6364	0.1	194.05
5908	22.899	3.6364	0.1	232.42
5909	22.715	3.6364	0.1	270.77
5910	22.532	3.6364	0.1	309.14
5911	22.348	3.6364	0.1	347.55
5912	22.165	3.6364	0.1	386.06
5913	21.981	3.6364	0.1	424.67
5914	21.798	3.6364	0.1	463.42
5915	21.614	3.6364	0.1	502.32
5916	21.431	3.6364	0.1	541.38
5917	21.247	3.6364	0.1	580.63
5918	21.064	3.6364	0.1	620.06
5919	20.88	3.6364	0.1	659.68
5920	20.697	3.6364	0.1	699.49
5921	20.513	3.6364	0.1	739.51
5922	20.33	3.6364	0.1	779.74
5923	20.146	3.6364	0.1	820.17
5924	19.963	3.6364	0.1	860.8
5925	19.779	3.6364	0.1	901.65
5926	19.596	3.6364	0.1	942.7
5927	19.412	3.6364	0.1	983.96
5928	19.229	3.6364	0.1	1025.4
5929	19.045	3.6364	0.1	1067.1
5930	18.862	3.6364	0.1	1109.
5931	18.678	3.6364	0.1	1151.1
5932	18.495	3.6364	0.1	1193.4
5933	18.311	3.6364	0.1	1235.9
5934	18.128	3.6364	0.1	1278.6
5935	17.944	3.6364	0.1	1321.5
5936	17.761	3.6364	0.1	1364.6
5937	17.577	3.6364	0.1	1407.9
5938	17.394	3.6364	0.1	1451.4
5939	17.21	3.6364	0.1	1495.1
5940	17.027	3.6364	0.1	1539.
5941	16.843	3.6364	0.1	1583.1
5942	16.66	3.6364	0.1	1627.4
5943	16.476	3.6364	0.1	1671.9
5944	16.293	3.6364	0.1	1716.6
5945	16.109	3.6364	0.1	1761.5
5946	15.926	3.6364	0.1	1806.5
5947	15.742	3.6364	0.1	1851.8
5948	15.559	3.6364	0.1	1897.2
5949	15.375	3.6364	0.1	1942.9
5950	15.192	3.6364	0.1	1988.7
5951	15.008	3.6364	0.1	2034.7
5952	14.825	3.6364	0.1	2080.9
5953	14.641	3.6364	0.1	2127.3
5954	14.458	3.6364	0.1	2173.8
5955	14.274	3.6364	0.1	2220.6
5956	14.091	3.6364	0.1	2267.5
5957	13.907	3.6364	0.1	2314.6
5958	13.724	3.6364	0.1	2361.9
5959	13.54	3.6364	0.1	2409.4
5960	13.356	3.6364	0.1	2457.1
5961	13.173	3.6364	0.1	2505.
5962	12.989	3.6364	0.1	2553.1
5963	12.806	3.6364	0.1	2601.4
5964	12.622	3.6364	0.1	2649.9
5965	12.439	3.6364	0.1	2698.7
5966	12.255	3.6364	0.1	2747.8
5967	12.072	3.6364	0.1	2797.2
5968	11.888	3.6364	0.1	2846.9
5969	11.705	3.6364	0.1	2897.1
5970	11.521	3.6364	0.1	2947.7
5971	11.338	3.6364	0.1	2999.
5972	11.154	3.6364	0.1	3051.
5973	10.971	3.6364	0.1	3103.9
5974	10.787	3.6364	0.1	3157.9
5975	10.604	3.6364	0.1	3213.3
5976	10.42	3.6364	0.1	3270.5
5977	10.237	3.6364	0.1	3329.9
5978	10.053	3.6364	0.1	3392.2
5979	9.8698	3.6364	0.1	3458.
5980	9.6863	3.6364	0.1	3528.4
5981	9.5028	3.6364	0.1	3604.6
5982	9.3193	3.6364	0.1	3688.2
5983	9.1358	3.6364	0.1	3781.3
5984	8.9523	3.6364	0.1	3886.5
5985	8.7688	3.6364	0.1	4007.1
5986	8.5853	3.6364	0.1	4147.8
5987	8.4018	3.6364	0.1	4314.3
5988	8.2182	3.6364	0.1	4514.6
5989	8.0347	3.6364	0.1	4759.4
5990	7.8512	3.6364	0.1	5064.1
5991	7.6677	3.6364	0.1	5450.9
5992	7.4842	3.6364	0.1	5954.6
5993	7.3007	3.6364	0.1	6631.
5994	7.1172	3.6364	0.1	7578.1
5995	6.9337	3.6364	0.1	8953.6
5996	6.7502	3.6364	0.1	10882
5997	23.816	3.8182	0.1	39.645
5998	23.633	3.8182	0.1	78.273
5999	23.449	3.8182	0.1	116.9
6000	23.266	3.8182	0.1	155.37
6001	23.082	3.8182	0.1	193.75
6002	22.899	3.8182	0.1	232.06
6003	22.715	3.8182	0.1	270.37
6004	22.532	3.8182	0.1	308.71
6005	22.348	3.8182	0.1	347.11
6006	22.165	3.8182	0.1	385.62
6007	21.981	3.8182	0.1	424.25
6008	21.798	3.8182	0.1	463.03
6009	21.614	3.8182	0.1	501.96
6010	21.431	3.8182	0.1	541.07
6011	21.247	3.8182	0.1	580.35
6012	21.064	3.8182	0.1	619.83
6013	20.88	3.8182	0.1	659.49
6014	20.697	3.8182	0.1	699.36
6015	20.513	3.8182	0.1	739.42
6016	20.33	3.8182	0.1	779.68
6017	20.146	3.8182	0.1	820.15
6018	19.963	3.8182	0.1	860.83
6019	19.779	3.8182	0.1	901.71
6020	19.596	3.8182	0.1	942.79
6021	19.412	3.8182	0.1	984.08
6022	19.229	3.8182	0.1	1025.6
6023	19.045	3.8182	0.1	1067.3
6024	18.862	3.8182	0.1	1109.2
6025	18.678	3.8182	0.1	1151.3
6026	18.495	3.8182	0.1	1193.6
6027	18.311	3.8182	0.1	1236.1
6028	18.128	3.8182	0.1	1278.8
6029	17.944	3.8182	0.1	1321.8
6030	17.761	3.8182	0.1	1364.9
6031	17.577	3.8182	0.1	1408.2
6032	17.394	3.8182	0.1	1451.7
6033	17.21	3.8182	0.1	1495.5
6034	17.027	3.8182	0.1	1539.4
6035	16.843	3.8182	0.1	1583.5
6036	16.66	3.8182	0.1	1627.8
6037	16.476	3.8182	0.1	1672.3
6038	16.293	3.8182	0.1	1717.
6039	16.109	3.8182	0.1	1761.9
6040	15.926	3.8182	0.1	1807.
6041	15.742	3.8182	0.1	1852.2
6042	15.559	3.8182	0.1	1897.7
6043	15.375	3.8182	0.1	1943.3
6044	15.192	3.8182	0.1	1989.2
6045	15.008	3.8182	0.1	2035.2
6046	14.825	3.8182	0.1	2081.4
6047	14.641	3.8182	0.1	2127.8
6048	14.458	3.8182	0.1	2174.4
6049	14.274	3.8182	0.1	2221.2
6050	14.091	3.8182	0.1	2268.1
6051	13.907	3.8182	0.1	2315.3
6052	13.724	3.8182	0.1	2362.6
6053	13.54	3.8182	0.1	2410.1
6054	13.356	3.8182	0.1	2457.8
6055	13.173	3.8182	0.1	2505.8
6056	12.989	3.8182	0.1	2553.9
6057	12.806	3.8182	0.1	2602.2
6058	12.622	3.8182	0.1	2650.8
6059	12.439	3.8182	0.1	2699.6
6060	12.255	3.8182	0.1	2748.6
6061	12.072	3.8182	0.1	2798.
6062	11.888	3.8182	0.1	2847.7
6063	11.705	3.8182	0.1	2897.8
6064	11.521	3.8182	0.1	2948.3
6065	11.338	3.8182	0.1	2999.4
6066	11.154	3.8182	0.1	3051.2
6067	10.971	3.8182	0.1	3103.7
6068	10.787	3.8182	0.1	3157.3
6069	10.604	3.8182	0.1	3212.
6070	10.42	3.8182	0.1	3268.3
6071	10.237	3.8182	0.1	3326.4
6072	10.053	3.8182	0.1	3387.
6073	9.8698	3.8182	0.1	3450.6
6074	9.6863	3.8182	0.1	3518.
6075	9.5028	3.8182	0.1	3590.3
6076	9.3193	3.8182	0.1	3668.7
6077	9.1358	3.8182	0.1	3754.8
6078	8.9523	3.8182	0.1	3851.
6079	8.7688	3.8182	0.1	3959.8
6080	8.5853	3.8182	0.1	4085.
6081	8.4018	3.8182	0.1	4231.3
6082	8.2182	3.8182	0.1	4405.5
6083	8.0347	3.8182	0.1	4616.7
6084	7.8512	3.8182	0.1	4878.4
6085	7.6677	3.8182	0.1	5211.3
6086	7.4842	3.8182	0.1	5649.5
6087	7.3007	3.8182	0.1	6252.8
6088	7.1172	3.8182	0.1	7143.2
6089	6.9337	3.8182	0.1	8630.2
6090	6.7502	3.8182	0.1	11492
6091	23.816	4.	0.1	39.68
6092	23.633	4.	0.1	78.186
6093	23.449	4.	0.1	116.7
6094	23.266	4.	0.1	155.07
6095	23.082	4.	0.1	193.35
6096	22.899	4.	0.1	231.59
6097	22.715	4.	0.1	269.85
6098	22.532	4.	0.1	308.16
6099	22.348	4.	0.1	346.56
6100	22.165	4.	0.1	385.08
6101	21.981	4.	0.1	423.74
6102	21.798	4.	0.1	462.56
6103	21.614	4.	0.1	501.54
6104	21.431	4.	0.1	540.7
6105	21.247	4.	0.1	580.04
6106	21.064	4.	0.1	619.57
6107	20.88	4.	0.1	659.29
6108	20.697	4.	0.1	699.21
6109	20.513	4.	0.1	739.32
6110	20.33	4.	0.1	779.64
6111	20.146	4.	0.1	820.16
6112	19.963	4.	0.1	860.88
6113	19.779	4.	0.1	901.8
6114	19.596	4.	0.1	942.92
6115	19.412	4.	0.1	984.25
6116	19.229	4.	0.1	1025.8
6117	19.045	4.	0.1	1067.5
6118	18.862	4.	0.1	1109.4
6119	18.678	4.	0.1	1151.6
6120	18.495	4.	0.1	1193.9
6121	18.311	4.	0.1	1236.5
6122	18.128	4.	0.1	1279.2
6123	17.944	4.	0.1	1322.1
6124	17.761	4.	0.1	1365.3
6125	17.577	4.	0.1	1408.6
6126	17.394	4.	0.1	1452.2
6127	17.21	4.	0.1	1495.9
6128	17.027	4.	0.1	1539.8
6129	16.843	4.	0.1	1583.9
6130	16.66	4.	0.1	1628.3
6131	16.476	4.	0.1	1672.8
6132	16.293	4.	0.1	1717.5
6133	16.109	4.	0.1	1762.4
6134	15.926	4.	0.1	1807.5
6135	15.742	4.	0.1	1852.8
6136	15.559	4.	0.1	1898.3
6137	15.375	4.	0.1	1943.9
6138	15.192	4.	0.1	1989.8
6139	15.008	4.	0.1	2035.8
6140	14.825	4.	0.1	2082.1
6141	14.641	4.	0.1	2128.5
6142	14.458	4.	0.1	2175.1
6143	14.274	4.	0.1	2221.9
6144	14.091	4.	0.1	2268.9
6145	13.907	4.	0.1	2316.1
6146	13.724	4.	0.1	2363.4
6147	13.54	4.	0.1	2411.
6148	13.356	4.	0.1	2458.7
6149	13.173	4.	0.1	2506.7
6150	12.989	4.	0.1	2554.8
6151	12.806	4.	0.1	2603.2
6152	12.622	4.	0.1	2651.8
6153	12.439	4.	0.1	2700.6
6154	12.255	4.	0.1	2749.7
6155	12.072	4.	0.1	2799.
6156	11.888	4.	0.1	2848.7
6157	11.705	4.	0.1	2898.7
6158	11.521	4.	0.1	2949.1
6159	11.338	4.	0.1	3000.
6160	11.154	4.	0.1	3051.4
6161	10.971	4.	0.1	3103.6
6162	10.787	4.	0.1	3156.5
6163	10.604	4.	0.1	3210.4
6164	10.42	4.	0.1	3265.6
6165	10.237	4.	0.1	3322.3
6166	10.053	4.	0.1	3380.9
6167	9.8698	4.	0.1	3441.8
6168	9.6863	4.	0.1	3505.7
6169	9.5028	4.	0.1	3573.3
6170	9.3193	4.	0.1	3645.6
6171	9.1358	4.	0.1	3723.8
6172	8.9523	4.	0.1	3809.5
6173	8.7688	4.	0.1	3904.7
6174	8.5853	4.	0.1	4012.2
6175	8.4018	4.	0.1	4135.5
6176	8.2182	4.	0.1	4279.8
6177	8.0347	4.	0.1	4452.2
6178	7.8512	4.	0.1	4663.6
6179	7.6677	4.	0.1	4930.6
6180	7.4842	4.	0.1	5280.9
6181	7.3007	4.	0.1	5763.9
6182	7.1172	4.	0.1	6486.9
6183	6.9337	4.	0.1	7649.5
6184	6.7502	4.	0.1	11162
6185	23.816	4.1818	0.1	39.715
6186	23.633	4.1818	0.1	78.066
6187	23.449	4.1818	0.1	116.44
6188	23.266	4.1818	0.1	154.67
6189	23.082	4.1818	0.1	192.84
6190	22.899	4.1818	0.1	231.01
6191	22.715	4.1818	0.1	269.21
6192	22.532	4.1818	0.1	307.5
6193	22.348	4.1818	0.1	345.91
6194	22.165	4.1818	0.1	384.45
6195	21.981	4.1818	0.1	423.15
6196	21.798	4.1818	0.1	462.02
6197	21.614	4.1818	0.1	501.06
6198	21.431	4.1818	0.1	540.28
6199	21.247	4.1818	0.1	579.69
6200	21.064	4.1818	0.1	619.29
6201	20.88	4.1818	0.1	659.08
6202	20.697	4.1818	0.1	699.06
6203	20.513	4.1818	0.1	739.24
6204	20.33	4.1818	0.1	779.62
6205	20.146	4.1818	0.1	820.19
6206	19.963	4.1818	0.1	860.96
6207	19.779	4.1818	0.1	901.93
6208	19.596	4.1818	0.1	943.1
6209	19.412	4.1818	0.1	984.47
6210	19.229	4.1818	0.1	1026.
6211	19.045	4.1818	0.1	1067.8
6212	18.862	4.1818	0.1	1109.8
6213	18.678	4.1818	0.1	1151.9
6214	18.495	4.1818	0.1	1194.3
6215	18.311	4.1818	0.1	1236.9
6216	18.128	4.1818	0.1	1279.6
6217	17.944	4.1818	0.1	1322.6
6218	17.761	4.1818	0.1	1365.8
6219	17.577	4.1818	0.1	1409.1
6220	17.394	4.1818	0.1	1452.7
6221	17.21	4.1818	0.1	1496.4
6222	17.027	4.1818	0.1	1540.4
6223	16.843	4.1818	0.1	1584.5
6224	16.66	4.1818	0.1	1628.9
6225	16.476	4.1818	0.1	1673.4
6226	16.293	4.1818	0.1	1718.1
6227	16.109	4.1818	0.1	1763.
6228	15.926	4.1818	0.1	1808.2
6229	15.742	4.1818	0.1	1853.5
6230	15.559	4.1818	0.1	1899.
6231	15.375	4.1818	0.1	1944.6
6232	15.192	4.1818	0.1	1990.5
6233	15.008	4.1818	0.1	2036.6
6234	14.825	4.1818	0.1	2082.9
6235	14.641	4.1818	0.1	2129.3
6236	14.458	4.1818	0.1	2176.
6237	14.274	4.1818	0.1	2222.8
6238	14.091	4.1818	0.1	2269.8
6239	13.907	4.1818	0.1	2317.
6240	13.724	4.1818	0.1	2364.4
6241	13.54	4.1818	0.1	2412.
6242	13.356	4.1818	0.1	2459.8
6243	13.173	4.1818	0.1	2507.8
6244	12.989	4.1818	0.1	2556.
6245	12.806	4.1818	0.1	2604.4
6246	12.622	4.1818	0.1	2653.
6247	12.439	4.1818	0.1	2701.8
6248	12.255	4.1818	0.1	2750.9
6249	12.072	4.1818	0.1	2800.2
6250	11.888	4.1818	0.1	2849.8
6251	11.705	4.1818	0.1	2899.7
6252	11.521	4.1818	0.1	2950.
6253	11.338	4.1818	0.1	3000.7
6254	11.154	4.1818	0.1	3051.8
6255	10.971	4.1818	0.1	3103.4
6256	10.787	4.1818	0.1	3155.7
6257	10.604	4.1818	0.1	3208.7
6258	10.42	4.1818	0.1	3262.6
6259	10.237	4.1818	0.1	3317.6
6260	10.053	4.1818	0.1	3373.9
6261	9.8698	4.1818	0.1	3431.9
6262	9.6863	4.1818	0.1	3491.9
6263	9.5028	4.1818	0.1	3554.4
6264	9.3193	4.1818	0.1	3620.
6265	9.1358	4.1818	0.1	3689.4
6266	8.9523	4.1818	0.1	3763.6
6267	8.7688	4.1818	0.1	3844.
6268	8.5853	4.1818	0.1	3932.3
6269	8.4018	4.1818	0.1	4030.7
6270	8.2182	4.1818	0.1	4142.8
6271	8.0347	4.1818	0.1	4273.3
6272	7.8512	4.1818	0.1	4429.8
6273	7.6677	4.1818	0.1	4623.7
6274	7.4842	4.1818	0.1	4873.3
6275	7.3007	4.1818	0.1	5209.
6276	7.1172	4.1818	0.1	5684.5
6277	6.9337	4.1818	0.1	6422.1
6278	6.7502	4.1818	0.1	7974.1
6279	23.816	4.3636	0.1	39.745
6280	23.633	4.3636	0.1	77.9
6281	23.449	4.3636	0.1	116.09
6282	23.266	4.3636	0.1	154.17
6283	23.082	4.3636	0.1	192.22
6284	22.899	4.3636	0.1	230.29
6285	22.715	4.3636	0.1	268.45
6286	22.532	4.3636	0.1	306.73
6287	22.348	4.3636	0.1	345.15
6288	22.165	4.3636	0.1	383.74
6289	21.981	4.3636	0.1	422.49
6290	21.798	4.3636	0.1	461.43
6291	21.614	4.3636	0.1	500.55
6292	21.431	4.3636	0.1	539.85
6293	21.247	4.3636	0.1	579.34
6294	21.064	4.3636	0.1	619.02
6295	20.88	4.3636	0.1	658.89
6296	20.697	4.3636	0.1	698.95
6297	20.513	4.3636	0.1	739.2
6298	20.33	4.3636	0.1	779.64
6299	20.146	4.3636	0.1	820.28
6300	19.963	4.3636	0.1	861.11
6301	19.779	4.3636	0.1	902.13
6302	19.596	4.3636	0.1	943.35
6303	19.412	4.3636	0.1	984.77
6304	19.229	4.3636	0.1	1026.4
6305	19.045	4.3636	0.1	1068.2
6306	18.862	4.3636	0.1	1110.2
6307	18.678	4.3636	0.1	1152.4
6308	18.495	4.3636	0.1	1194.8
6309	18.311	4.3636	0.1	1237.4
6310	18.128	4.3636	0.1	1280.2
6311	17.944	4.3636	0.1	1323.1
6312	17.761	4.3636	0.1	1366.3
6313	17.577	4.3636	0.1	1409.7
6314	17.394	4.3636	0.1	1453.3
6315	17.21	4.3636	0.1	1497.1
6316	17.027	4.3636	0.1	1541.
6317	16.843	4.3636	0.1	1585.2
6318	16.66	4.3636	0.1	1629.5
6319	16.476	4.3636	0.1	1674.1
6320	16.293	4.3636	0.1	1718.8
6321	16.109	4.3636	0.1	1763.8
6322	15.926	4.3636	0.1	1808.9
6323	15.742	4.3636	0.1	1854.2
6324	15.559	4.3636	0.1	1899.8
6325	15.375	4.3636	0.1	1945.5
6326	15.192	4.3636	0.1	1991.4
6327	15.008	4.3636	0.1	2037.5
6328	14.825	4.3636	0.1	2083.8
6329	14.641	4.3636	0.1	2130.3
6330	14.458	4.3636	0.1	2176.9
6331	14.274	4.3636	0.1	2223.8
6332	14.091	4.3636	0.1	2270.9
6333	13.907	4.3636	0.1	2318.1
6334	13.724	4.3636	0.1	2365.5
6335	13.54	4.3636	0.1	2413.2
6336	13.356	4.3636	0.1	2461.
6337	13.173	4.3636	0.1	2509.
6338	12.989	4.3636	0.1	2557.3
6339	12.806	4.3636	0.1	2605.7
6340	12.622	4.3636	0.1	2654.3
6341	12.439	4.3636	0.1	2703.2
6342	12.255	4.3636	0.1	2752.3
6343	12.072	4.3636	0.1	2801.6
6344	11.888	4.3636	0.1	2851.1
6345	11.705	4.3636	0.1	2900.9
6346	11.521	4.3636	0.1	2951.
6347	11.338	4.3636	0.1	3001.4
6348	11.154	4.3636	0.1	3052.1
6349	10.971	4.3636	0.1	3103.2
6350	10.787	4.3636	0.1	3154.8
6351	10.604	4.3636	0.1	3206.8
6352	10.42	4.3636	0.1	3259.3
6353	10.237	4.3636	0.1	3312.5
6354	10.053	4.3636	0.1	3366.5
6355	9.8698	4.3636	0.1	3421.3
6356	9.6863	4.3636	0.1	3477.1
6357	9.5028	4.3636	0.1	3534.1
6358	9.3193	4.3636	0.1	3592.5
6359	9.1358	4.3636	0.1	3652.7
6360	8.9523	4.3636	0.1	3715.
6361	8.7688	4.3636	0.1	3779.9
6362	8.5853	4.3636	0.1	3848.1
6363	8.4018	4.3636	0.1	3920.8
6364	8.2182	4.3636	0.1	3999.5
6365	8.0347	4.3636	0.1	4086.9
6366	7.8512	4.3636	0.1	4186.8
6367	7.6677	4.3636	0.1	4305.4
6368	7.4842	4.3636	0.1	4451.6
6369	7.3007	4.3636	0.1	4637.6
6370	7.1172	4.3636	0.1	4873.5
6371	6.9337	4.3636	0.1	5150.7
6372	6.7502	4.3636	0.1	5488.3
6373	23.816	4.5455	0.1	39.761
6374	23.633	4.5455	0.1	77.671
6375	23.449	4.5455	0.1	115.65
6376	23.266	4.5455	0.1	153.54
6377	23.082	4.5455	0.1	191.45
6378	22.899	4.5455	0.1	229.45
6379	22.715	4.5455	0.1	267.57
6380	22.532	4.5455	0.1	305.85
6381	22.348	4.5455	0.1	344.32
6382	22.165	4.5455	0.1	382.96
6383	21.981	4.5455	0.1	421.8
6384	21.798	4.5455	0.1	460.82
6385	21.614	4.5455	0.1	500.03
6386	21.431	4.5455	0.1	539.43
6387	21.247	4.5455	0.1	579.01
6388	21.064	4.5455	0.1	618.78
6389	20.88	4.5455	0.1	658.74
6390	20.697	4.5455	0.1	698.88
6391	20.513	4.5455	0.1	739.21
6392	20.33	4.5455	0.1	779.73
6393	20.146	4.5455	0.1	820.43
6394	19.963	4.5455	0.1	861.32
6395	19.779	4.5455	0.1	902.41
6396	19.596	4.5455	0.1	943.68
6397	19.412	4.5455	0.1	985.14
6398	19.229	4.5455	0.1	1026.8
6399	19.045	4.5455	0.1	1068.6
6400	18.862	4.5455	0.1	1110.7
6401	18.678	4.5455	0.1	1152.9
6402	18.495	4.5455	0.1	1195.3
6403	18.311	4.5455	0.1	1238.
6404	18.128	4.5455	0.1	1280.8
6405	17.944	4.5455	0.1	1323.8
6406	17.761	4.5455	0.1	1367.
6407	17.577	4.5455	0.1	1410.4
6408	17.394	4.5455	0.1	1454.
6409	17.21	4.5455	0.1	1497.8
6410	17.027	4.5455	0.1	1541.8
6411	16.843	4.5455	0.1	1586.
6412	16.66	4.5455	0.1	1630.3
6413	16.476	4.5455	0.1	1674.9
6414	16.293	4.5455	0.1	1719.7
6415	16.109	4.5455	0.1	1764.6
6416	15.926	4.5455	0.1	1809.8
6417	15.742	4.5455	0.1	1855.1
6418	15.559	4.5455	0.1	1900.7
6419	15.375	4.5455	0.1	1946.4
6420	15.192	4.5455	0.1	1992.4
6421	15.008	4.5455	0.1	2038.5
6422	14.825	4.5455	0.1	2084.8
6423	14.641	4.5455	0.1	2131.3
6424	14.458	4.5455	0.1	2178.
6425	14.274	4.5455	0.1	2224.9
6426	14.091	4.5455	0.1	2272.
6427	13.907	4.5455	0.1	2319.3
6428	13.724	4.5455	0.1	2366.8
6429	13.54	4.5455	0.1	2414.5
6430	13.356	4.5455	0.1	2462.4
6431	13.173	4.5455	0.1	2510.4
6432	12.989	4.5455	0.1	2558.7
6433	12.806	4.5455	0.1	2607.2
6434	12.622	4.5455	0.1	2655.8
6435	12.439	4.5455	0.1	2704.7
6436	12.255	4.5455	0.1	2753.8
6437	12.072	4.5455	0.1	2803.1
6438	11.888	4.5455	0.1	2852.5
6439	11.705	4.5455	0.1	2902.2
6440	11.521	4.5455	0.1	2952.1
6441	11.338	4.5455	0.1	3002.2
6442	11.154	4.5455	0.1	3052.6
6443	10.971	4.5455	0.1	3103.1
6444	10.787	4.5455	0.1	3153.9
6445	10.604	4.5455	0.1	3204.8
6446	10.42	4.5455	0.1	3256.
6447	10.237	4.5455	0.1	3307.3
6448	10.053	4.5455	0.1	3358.7
6449	9.8698	4.5455	0.1	3410.2
6450	9.6863	4.5455	0.1	3461.7
6451	9.5028	4.5455	0.1	3513.1
6452	9.3193	4.5455	0.1	3564.2
6453	9.1358	4.5455	0.1	3615.
6454	8.9523	4.5455	0.1	3665.1
6455	8.7688	4.5455	0.1	3714.4
6456	8.5853	4.5455	0.1	3762.5
6457	8.4018	4.5455	0.1	3809.4
6458	8.2182	4.5455	0.1	3855.
6459	8.0347	4.5455	0.1	3899.6
6460	7.8512	4.5455	0.1	3943.9
6461	7.6677	4.5455	0.1	3989.5
6462	7.4842	4.5455	0.1	4038.2
6463	7.3007	4.5455	0.1	4089.9
6464	7.1172	4.5455	0.1	4139.9
6465	6.9337	4.5455	0.1	4151.9
6466	6.7502	4.5455	0.1	4230.6
6467	23.816	4.7273	0.1	39.75
6468	23.633	4.7273	0.1	77.354
6469	23.449	4.7273	0.1	115.07
6470	23.266	4.7273	0.1	152.76
6471	23.082	4.7273	0.1	190.53
6472	22.899	4.7273	0.1	228.46
6473	22.715	4.7273	0.1	266.58
6474	22.532	4.7273	0.1	304.9
6475	22.348	4.7273	0.1	343.43
6476	22.165	4.7273	0.1	382.16
6477	21.981	4.7273	0.1	421.1
6478	21.798	4.7273	0.1	460.23
6479	21.614	4.7273	0.1	499.55
6480	21.431	4.7273	0.1	539.05
6481	21.247	4.7273	0.1	578.74
6482	21.064	4.7273	0.1	618.61
6483	20.88	4.7273	0.1	658.67
6484	20.697	4.7273	0.1	698.9
6485	20.513	4.7273	0.1	739.31
6486	20.33	4.7273	0.1	779.9
6487	20.146	4.7273	0.1	820.68
6488	19.963	4.7273	0.1	861.64
6489	19.779	4.7273	0.1	902.78
6490	19.596	4.7273	0.1	944.11
6491	19.412	4.7273	0.1	985.62
6492	19.229	4.7273	0.1	1027.3
6493	19.045	4.7273	0.1	1069.2
6494	18.862	4.7273	0.1	1111.3
6495	18.678	4.7273	0.1	1153.6
6496	18.495	4.7273	0.1	1196.
6497	18.311	4.7273	0.1	1238.7
6498	18.128	4.7273	0.1	1281.5
6499	17.944	4.7273	0.1	1324.5
6500	17.761	4.7273	0.1	1367.8
6501	17.577	4.7273	0.1	1411.2
6502	17.394	4.7273	0.1	1454.8
6503	17.21	4.7273	0.1	1498.6
6504	17.027	4.7273	0.1	1542.6
6505	16.843	4.7273	0.1	1586.8
6506	16.66	4.7273	0.1	1631.2
6507	16.476	4.7273	0.1	1675.8
6508	16.293	4.7273	0.1	1720.6
6509	16.109	4.7273	0.1	1765.6
6510	15.926	4.7273	0.1	1810.8
6511	15.742	4.7273	0.1	1856.2
6512	15.559	4.7273	0.1	1901.7
6513	15.375	4.7273	0.1	1947.5
6514	15.192	4.7273	0.1	1993.5
6515	15.008	4.7273	0.1	2039.6
6516	14.825	4.7273	0.1	2086.
6517	14.641	4.7273	0.1	2132.5
6518	14.458	4.7273	0.1	2179.3
6519	14.274	4.7273	0.1	2226.2
6520	14.091	4.7273	0.1	2273.4
6521	13.907	4.7273	0.1	2320.7
6522	13.724	4.7273	0.1	2368.2
6523	13.54	4.7273	0.1	2415.9
6524	13.356	4.7273	0.1	2463.9
6525	13.173	4.7273	0.1	2512.
6526	12.989	4.7273	0.1	2560.3
6527	12.806	4.7273	0.1	2608.8
6528	12.622	4.7273	0.1	2657.5
6529	12.439	4.7273	0.1	2706.4
6530	12.255	4.7273	0.1	2755.4
6531	12.072	4.7273	0.1	2804.7
6532	11.888	4.7273	0.1	2854.1
6533	11.705	4.7273	0.1	2903.7
6534	11.521	4.7273	0.1	2953.4
6535	11.338	4.7273	0.1	3003.2
6536	11.154	4.7273	0.1	3053.1
6537	10.971	4.7273	0.1	3103.1
6538	10.787	4.7273	0.1	3153.
6539	10.604	4.7273	0.1	3202.9
6540	10.42	4.7273	0.1	3252.6
6541	10.237	4.7273	0.1	3302.
6542	10.053	4.7273	0.1	3350.9
6543	9.8698	4.7273	0.1	3399.
6544	9.6863	4.7273	0.1	3446.2
6545	9.5028	4.7273	0.1	3492.
6546	9.3193	4.7273	0.1	3536.
6547	9.1358	4.7273	0.1	3577.4
6548	8.9523	4.7273	0.1	3615.6
6549	8.7688	4.7273	0.1	3649.6
6550	8.5853	4.7273	0.1	3678.3
6551	8.4018	4.7273	0.1	3700.2
6552	8.2182	4.7273	0.1	3714.
6553	8.0347	4.7273	0.1	3717.9
6554	7.8512	4.7273	0.1	3710.
6555	7.6677	4.7273	0.1	3688.7
6556	7.4842	4.7273	0.1	3651.8
6557	7.3007	4.7273	0.1	3596.
6558	7.1172	4.7273	0.1	3514.9
6559	6.9337	4.7273	0.1	3400.4
6560	6.7502	4.7273	0.1	3364.4
6561	23.816	4.9091	0.1	39.695
6562	23.633	4.9091	0.1	76.913
6563	23.449	4.9091	0.1	114.32
6564	23.266	4.9091	0.1	151.79
6565	23.082	4.9091	0.1	189.45
6566	22.899	4.9091	0.1	227.35
6567	22.715	4.9091	0.1	265.5
6568	22.532	4.9091	0.1	303.89
6569	22.348	4.9091	0.1	342.53
6570	22.165	4.9091	0.1	381.38
6571	21.981	4.9091	0.1	420.44
6572	21.798	4.9091	0.1	459.7
6573	21.614	4.9091	0.1	499.14
6574	21.431	4.9091	0.1	538.77
6575	21.247	4.9091	0.1	578.57
6576	21.064	4.9091	0.1	618.55
6577	20.88	4.9091	0.1	658.7
6578	20.697	4.9091	0.1	699.03
6579	20.513	4.9091	0.1	739.53
6580	20.33	4.9091	0.1	780.2
6581	20.146	4.9091	0.1	821.04
6582	19.963	4.9091	0.1	862.07
6583	19.779	4.9091	0.1	903.27
6584	19.596	4.9091	0.1	944.65
6585	19.412	4.9091	0.1	986.21
6586	19.229	4.9091	0.1	1028.
6587	19.045	4.9091	0.1	1069.9
6588	18.862	4.9091	0.1	1112.
6589	18.678	4.9091	0.1	1154.3
6590	18.495	4.9091	0.1	1196.8
6591	18.311	4.9091	0.1	1239.5
6592	18.128	4.9091	0.1	1282.3
6593	17.944	4.9091	0.1	1325.4
6594	17.761	4.9091	0.1	1368.7
6595	17.577	4.9091	0.1	1412.1
6596	17.394	4.9091	0.1	1455.7
6597	17.21	4.9091	0.1	1499.6
6598	17.027	4.9091	0.1	1543.6
6599	16.843	4.9091	0.1	1587.8
6600	16.66	4.9091	0.1	1632.2
6601	16.476	4.9091	0.1	1676.9
6602	16.293	4.9091	0.1	1721.7
6603	16.109	4.9091	0.1	1766.7
6604	15.926	4.9091	0.1	1811.9
6605	15.742	4.9091	0.1	1857.3
6606	15.559	4.9091	0.1	1902.9
6607	15.375	4.9091	0.1	1948.7
6608	15.192	4.9091	0.1	1994.7
6609	15.008	4.9091	0.1	2040.9
6610	14.825	4.9091	0.1	2087.2
6611	14.641	4.9091	0.1	2133.8
6612	14.458	4.9091	0.1	2180.6
6613	14.274	4.9091	0.1	2227.6
6614	14.091	4.9091	0.1	2274.8
6615	13.907	4.9091	0.1	2322.2
6616	13.724	4.9091	0.1	2369.8
6617	13.54	4.9091	0.1	2417.5
6618	13.356	4.9091	0.1	2465.5
6619	13.173	4.9091	0.1	2513.7
6620	12.989	4.9091	0.1	2562.
6621	12.806	4.9091	0.1	2610.6
6622	12.622	4.9091	0.1	2659.3
6623	12.439	4.9091	0.1	2708.2
6624	12.255	4.9091	0.1	2757.2
6625	12.072	4.9091	0.1	2806.5
6626	11.888	4.9091	0.1	2855.8
6627	11.705	4.9091	0.1	2905.2
6628	11.521	4.9091	0.1	2954.7
6629	11.338	4.9091	0.1	3004.3
6630	11.154	4.9091	0.1	3053.8
6631	10.971	4.9091	0.1	3103.1
6632	10.787	4.9091	0.1	3152.3
6633	10.604	4.9091	0.1	3201.1
6634	10.42	4.9091	0.1	3249.3
6635	10.237	4.9091	0.1	3296.8
6636	10.053	4.9091	0.1	3343.3
6637	9.8698	4.9091	0.1	3388.2
6638	9.6863	4.9091	0.1	3431.2
6639	9.5028	4.9091	0.1	3471.6
6640	9.3193	4.9091	0.1	3508.6
6641	9.1358	4.9091	0.1	3541.2
6642	8.9523	4.9091	0.1	3568.1
6643	8.7688	4.9091	0.1	3587.7
6644	8.5853	4.9091	0.1	3598.
6645	8.4018	4.9091	0.1	3596.8
6646	8.2182	4.9091	0.1	3581.2
6647	8.0347	4.9091	0.1	3547.9
6648	7.8512	4.9091	0.1	3493.4
6649	7.6677	4.9091	0.1	3413.9
6650	7.4842	4.9091	0.1	3305.9
6651	7.3007	4.9091	0.1	3167.5
6652	7.1172	4.9091	0.1	3000.2
6653	6.9337	4.9091	0.1	2814.3
6654	6.7502	4.9091	0.1	2728.9
6655	23.816	5.0909	0.1	39.561
6656	23.633	5.0909	0.1	76.294
6657	23.449	5.0909	0.1	113.35
6658	23.266	5.0909	0.1	150.62
6659	23.082	5.0909	0.1	188.22
6660	22.899	5.0909	0.1	226.15
6661	22.715	5.0909	0.1	264.39
6662	22.532	5.0909	0.1	302.91
6663	22.348	5.0909	0.1	341.69
6664	22.165	5.0909	0.1	380.7
6665	21.981	5.0909	0.1	419.91
6666	21.798	5.0909	0.1	459.31
6667	21.614	5.0909	0.1	498.89
6668	21.431	5.0909	0.1	538.64
6669	21.247	5.0909	0.1	578.56
6670	21.064	5.0909	0.1	618.65
6671	20.88	5.0909	0.1	658.9
6672	20.697	5.0909	0.1	699.31
6673	20.513	5.0909	0.1	739.89
6674	20.33	5.0909	0.1	780.64
6675	20.146	5.0909	0.1	821.56
6676	19.963	5.0909	0.1	862.64
6677	19.779	5.0909	0.1	903.9
6678	19.596	5.0909	0.1	945.34
6679	19.412	5.0909	0.1	986.95
6680	19.229	5.0909	0.1	1028.7
6681	19.045	5.0909	0.1	1070.7
6682	18.862	5.0909	0.1	1112.9
6683	18.678	5.0909	0.1	1155.2
6684	18.495	5.0909	0.1	1197.7
6685	18.311	5.0909	0.1	1240.4
6686	18.128	5.0909	0.1	1283.3
6687	17.944	5.0909	0.1	1326.4
6688	17.761	5.0909	0.1	1369.7
6689	17.577	5.0909	0.1	1413.1
6690	17.394	5.0909	0.1	1456.8
6691	17.21	5.0909	0.1	1500.7
6692	17.027	5.0909	0.1	1544.7
6693	16.843	5.0909	0.1	1588.9
6694	16.66	5.0909	0.1	1633.4
6695	16.476	5.0909	0.1	1678.
6696	16.293	5.0909	0.1	1722.8
6697	16.109	5.0909	0.1	1767.9
6698	15.926	5.0909	0.1	1813.1
6699	15.742	5.0909	0.1	1858.5
6700	15.559	5.0909	0.1	1904.1
6701	15.375	5.0909	0.1	1950.
6702	15.192	5.0909	0.1	1996.
6703	15.008	5.0909	0.1	2042.2
6704	14.825	5.0909	0.1	2088.6
6705	14.641	5.0909	0.1	2135.3
6706	14.458	5.0909	0.1	2182.1
6707	14.274	5.0909	0.1	2229.1
6708	14.091	5.0909	0.1	2276.4
6709	13.907	5.0909	0.1	2323.8
6710	13.724	5.0909	0.1	2371.4
6711	13.54	5.0909	0.1	2419.2
6712	13.356	5.0909	0.1	2467.3
6713	13.173	5.0909	0.1	2515.5
6714	12.989	5.0909	0.1	2563.9
6715	12.806	5.0909	0.1	2612.5
6716	12.622	5.0909	0.1	2661.2
6717	12.439	5.0909	0.1	2710.1
6718	12.255	5.0909	0.1	2759.2
6719	12.072	5.0909	0.1	2808.4
6720	11.888	5.0909	0.1	2857.6
6721	11.705	5.0909	0.1	2906.9
6722	11.521	5.0909	0.1	2956.2
6723	11.338	5.0909	0.1	3005.5
6724	11.154	5.0909	0.1	3054.6
6725	10.971	5.0909	0.1	3103.4
6726	10.787	5.0909	0.1	3151.8
6727	10.604	5.0909	0.1	3199.5
6728	10.42	5.0909	0.1	3246.4
6729	10.237	5.0909	0.1	3292.1
6730	10.053	5.0909	0.1	3336.2
6731	9.8698	5.0909	0.1	3378.1
6732	9.6863	5.0909	0.1	3417.2
6733	9.5028	5.0909	0.1	3452.5
6734	9.3193	5.0909	0.1	3483.1
6735	9.1358	5.0909	0.1	3507.5
6736	8.9523	5.0909	0.1	3524.
6737	8.7688	5.0909	0.1	3530.4
6738	8.5853	5.0909	0.1	3524.2
6739	8.4018	5.0909	0.1	3502.2
6740	8.2182	5.0909	0.1	3460.6
6741	8.0347	5.0909	0.1	3395.
6742	7.8512	5.0909	0.1	3300.7
6743	7.6677	5.0909	0.1	3172.7
6744	7.4842	5.0909	0.1	3007.7
6745	7.3007	5.0909	0.1	2806.
6746	7.1172	5.0909	0.1	2576.5
6747	6.9337	5.0909	0.1	2343.2
6748	6.7502	5.0909	0.1	2219.9
6749	23.816	5.2727	0.1	39.296
6750	23.633	5.2727	0.1	75.42
6751	23.449	5.2727	0.1	112.11
6752	23.266	5.2727	0.1	149.26
6753	23.082	5.2727	0.1	186.89
6754	22.899	5.2727	0.1	224.95
6755	22.715	5.2727	0.1	263.36
6756	22.532	5.2727	0.1	302.07
6757	22.348	5.2727	0.1	341.03
6758	22.165	5.2727	0.1	380.2
6759	21.981	5.2727	0.1	419.57
6760	21.798	5.2727	0.1	459.12
6761	21.614	5.2727	0.1	498.84
6762	21.431	5.2727	0.1	538.72
6763	21.247	5.2727	0.1	578.75
6764	21.064	5.2727	0.1	618.95
6765	20.88	5.2727	0.1	659.29
6766	20.697	5.2727	0.1	699.79
6767	20.513	5.2727	0.1	740.45
6768	20.33	5.2727	0.1	781.27
6769	20.146	5.2727	0.1	822.25
6770	19.963	5.2727	0.1	863.4
6771	19.779	5.2727	0.1	904.71
6772	19.596	5.2727	0.1	946.19
6773	19.412	5.2727	0.1	987.84
6774	19.229	5.2727	0.1	1029.7
6775	19.045	5.2727	0.1	1071.7
6776	18.862	5.2727	0.1	1113.9
6777	18.678	5.2727	0.1	1156.2
6778	18.495	5.2727	0.1	1198.8
6779	18.311	5.2727	0.1	1241.5
6780	18.128	5.2727	0.1	1284.4
6781	17.944	5.2727	0.1	1327.5
6782	17.761	5.2727	0.1	1370.8
6783	17.577	5.2727	0.1	1414.3
6784	17.394	5.2727	0.1	1458.
6785	17.21	5.2727	0.1	1501.8
6786	17.027	5.2727	0.1	1545.9
6787	16.843	5.2727	0.1	1590.2
6788	16.66	5.2727	0.1	1634.6
6789	16.476	5.2727	0.1	1679.3
6790	16.293	5.2727	0.1	1724.1
6791	16.109	5.2727	0.1	1769.2
6792	15.926	5.2727	0.1	1814.4
6793	15.742	5.2727	0.1	1859.9
6794	15.559	5.2727	0.1	1905.5
6795	15.375	5.2727	0.1	1951.4
6796	15.192	5.2727	0.1	1997.4
6797	15.008	5.2727	0.1	2043.7
6798	14.825	5.2727	0.1	2090.1
6799	14.641	5.2727	0.1	2136.8
6800	14.458	5.2727	0.1	2183.7
6801	14.274	5.2727	0.1	2230.8
6802	14.091	5.2727	0.1	2278.
6803	13.907	5.2727	0.1	2325.5
6804	13.724	5.2727	0.1	2373.2
6805	13.54	5.2727	0.1	2421.1
6806	13.356	5.2727	0.1	2469.1
6807	13.173	5.2727	0.1	2517.4
6808	12.989	5.2727	0.1	2565.8
6809	12.806	5.2727	0.1	2614.5
6810	12.622	5.2727	0.1	2663.3
6811	12.439	5.2727	0.1	2712.2
6812	12.255	5.2727	0.1	2761.2
6813	12.072	5.2727	0.1	2810.4
6814	11.888	5.2727	0.1	2859.6
6815	11.705	5.2727	0.1	2908.8
6816	11.521	5.2727	0.1	2957.9
6817	11.338	5.2727	0.1	3006.9
6818	11.154	5.2727	0.1	3055.6
6819	10.971	5.2727	0.1	3103.9
6820	10.787	5.2727	0.1	3151.5
6821	10.604	5.2727	0.1	3198.3
6822	10.42	5.2727	0.1	3243.9
6823	10.237	5.2727	0.1	3288.
6824	10.053	5.2727	0.1	3329.9
6825	9.8698	5.2727	0.1	3369.
6826	9.6863	5.2727	0.1	3404.5
6827	9.5028	5.2727	0.1	3435.3
6828	9.3193	5.2727	0.1	3460.1
6829	9.1358	5.2727	0.1	3477.2
6830	8.9523	5.2727	0.1	3484.5
6831	8.7688	5.2727	0.1	3479.5
6832	8.5853	5.2727	0.1	3459.
6833	8.4018	5.2727	0.1	3419.2
6834	8.2182	5.2727	0.1	3355.8
6835	8.0347	5.2727	0.1	3263.4
6836	7.8512	5.2727	0.1	3136.7
6837	7.6677	5.2727	0.1	2970.3
6838	7.4842	5.2727	0.1	2760.6
6839	7.3007	5.2727	0.1	2509.4
6840	7.1172	5.2727	0.1	2229.2
6841	6.9337	5.2727	0.1	1952.6
6842	6.7502	5.2727	0.1	1790.2
6843	23.816	5.4545	0.1	38.783
6844	23.633	5.4545	0.1	74.181
6845	23.449	5.4545	0.1	110.61
6846	23.266	5.4545	0.1	147.82
6847	23.082	5.4545	0.1	185.64
6848	22.899	5.4545	0.1	223.94
6849	22.715	5.4545	0.1	262.59
6850	22.532	5.4545	0.1	301.52
6851	22.348	5.4545	0.1	340.68
6852	22.165	5.4545	0.1	380.03
6853	21.981	5.4545	0.1	419.56
6854	21.798	5.4545	0.1	459.26
6855	21.614	5.4545	0.1	499.1
6856	21.431	5.4545	0.1	539.1
6857	21.247	5.4545	0.1	579.23
6858	21.064	5.4545	0.1	619.52
6859	20.88	5.4545	0.1	659.95
6860	20.697	5.4545	0.1	700.52
6861	20.513	5.4545	0.1	741.25
6862	20.33	5.4545	0.1	782.13
6863	20.146	5.4545	0.1	823.16
6864	19.963	5.4545	0.1	864.36
6865	19.779	5.4545	0.1	905.71
6866	19.596	5.4545	0.1	947.23
6867	19.412	5.4545	0.1	988.92
6868	19.229	5.4545	0.1	1030.8
6869	19.045	5.4545	0.1	1072.8
6870	18.862	5.4545	0.1	1115.
6871	18.678	5.4545	0.1	1157.4
6872	18.495	5.4545	0.1	1200.
6873	18.311	5.4545	0.1	1242.7
6874	18.128	5.4545	0.1	1285.7
6875	17.944	5.4545	0.1	1328.8
6876	17.761	5.4545	0.1	1372.1
6877	17.577	5.4545	0.1	1415.6
6878	17.394	5.4545	0.1	1459.3
6879	17.21	5.4545	0.1	1503.2
6880	17.027	5.4545	0.1	1547.3
6881	16.843	5.4545	0.1	1591.5
6882	16.66	5.4545	0.1	1636.
6883	16.476	5.4545	0.1	1680.7
6884	16.293	5.4545	0.1	1725.5
6885	16.109	5.4545	0.1	1770.6
6886	15.926	5.4545	0.1	1815.9
6887	15.742	5.4545	0.1	1861.3
6888	15.559	5.4545	0.1	1907.
6889	15.375	5.4545	0.1	1952.9
6890	15.192	5.4545	0.1	1999.
6891	15.008	5.4545	0.1	2045.3
6892	14.825	5.4545	0.1	2091.8
6893	14.641	5.4545	0.1	2138.5
6894	14.458	5.4545	0.1	2185.4
6895	14.274	5.4545	0.1	2232.5
6896	14.091	5.4545	0.1	2279.8
6897	13.907	5.4545	0.1	2327.3
6898	13.724	5.4545	0.1	2375.1
6899	13.54	5.4545	0.1	2423.
6900	13.356	5.4545	0.1	2471.1
6901	13.173	5.4545	0.1	2519.4
6902	12.989	5.4545	0.1	2567.9
6903	12.806	5.4545	0.1	2616.6
6904	12.622	5.4545	0.1	2665.4
6905	12.439	5.4545	0.1	2714.4
6906	12.255	5.4545	0.1	2763.4
6907	12.072	5.4545	0.1	2812.6
6908	11.888	5.4545	0.1	2861.7
6909	11.705	5.4545	0.1	2910.8
6910	11.521	5.4545	0.1	2959.8
6911	11.338	5.4545	0.1	3008.5
6912	11.154	5.4545	0.1	3056.9
6913	10.971	5.4545	0.1	3104.7
6914	10.787	5.4545	0.1	3151.7
6915	10.604	5.4545	0.1	3197.6
6916	10.42	5.4545	0.1	3242.1
6917	10.237	5.4545	0.1	3284.7
6918	10.053	5.4545	0.1	3324.7
6919	9.8698	5.4545	0.1	3361.4
6920	9.6863	5.4545	0.1	3393.8
6921	9.5028	5.4545	0.1	3420.6
6922	9.3193	5.4545	0.1	3440.5
6923	9.1358	5.4545	0.1	3451.4
6924	8.9523	5.4545	0.1	3450.9
6925	8.7688	5.4545	0.1	3436.3
6926	8.5853	5.4545	0.1	3404.
6927	8.4018	5.4545	0.1	3349.9
6928	8.2182	5.4545	0.1	3269.
6929	8.0347	5.4545	0.1	3155.7
6930	7.8512	5.4545	0.1	3004.3
6931	7.6677	5.4545	0.1	2809.
6932	7.4842	5.4545	0.1	2566.
6933	7.3007	5.4545	0.1	2276.1
6934	7.1172	5.4545	0.1	1951.2
6935	6.9337	5.4545	0.1	1625.3
6936	6.7502	5.4545	0.1	1410.1
6937	23.816	5.6364	0.1	37.934
6938	23.633	5.6364	0.1	72.634
6939	23.449	5.6364	0.1	109.19
6940	23.266	5.6364	0.1	146.76
6941	23.082	5.6364	0.1	184.95
6942	22.899	5.6364	0.1	223.56
6943	22.715	5.6364	0.1	262.48
6944	22.532	5.6364	0.1	301.63
6945	22.348	5.6364	0.1	340.98
6946	22.165	5.6364	0.1	380.49
6947	21.981	5.6364	0.1	420.16
6948	21.798	5.6364	0.1	459.97
6949	21.614	5.6364	0.1	499.92
6950	21.431	5.6364	0.1	540.01
6951	21.247	5.6364	0.1	580.22
6952	21.064	5.6364	0.1	620.58
6953	20.88	5.6364	0.1	661.07
6954	20.697	5.6364	0.1	701.7
6955	20.513	5.6364	0.1	742.48
6956	20.33	5.6364	0.1	783.4
6957	20.146	5.6364	0.1	824.48
6958	19.963	5.6364	0.1	865.71
6959	19.779	5.6364	0.1	907.09
6960	19.596	5.6364	0.1	948.64
6961	19.412	5.6364	0.1	990.35
6962	19.229	5.6364	0.1	1032.2
6963	19.045	5.6364	0.1	1074.3
6964	18.862	5.6364	0.1	1116.5
6965	18.678	5.6364	0.1	1158.9
6966	18.495	5.6364	0.1	1201.5
6967	18.311	5.6364	0.1	1244.3
6968	18.128	5.6364	0.1	1287.2
6969	17.944	5.6364	0.1	1330.3
6970	17.761	5.6364	0.1	1373.7
6971	17.577	5.6364	0.1	1417.2
6972	17.394	5.6364	0.1	1460.9
6973	17.21	5.6364	0.1	1504.8
6974	17.027	5.6364	0.1	1548.9
6975	16.843	5.6364	0.1	1593.1
6976	16.66	5.6364	0.1	1637.6
6977	16.476	5.6364	0.1	1682.3
6978	16.293	5.6364	0.1	1727.2
6979	16.109	5.6364	0.1	1772.3
6980	15.926	5.6364	0.1	1817.6
6981	15.742	5.6364	0.1	1863.
6982	15.559	5.6364	0.1	1908.7
6983	15.375	5.6364	0.1	1954.6
6984	15.192	5.6364	0.1	2000.8
6985	15.008	5.6364	0.1	2047.1
6986	14.825	5.6364	0.1	2093.6
6987	14.641	5.6364	0.1	2140.3
6988	14.458	5.6364	0.1	2187.3
6989	14.274	5.6364	0.1	2234.4
6990	14.091	5.6364	0.1	2281.8
6991	13.907	5.6364	0.1	2329.4
6992	13.724	5.6364	0.1	2377.2
6993	13.54	5.6364	0.1	2425.1
6994	13.356	5.6364	0.1	2473.3
6995	13.173	5.6364	0.1	2521.7
6996	12.989	5.6364	0.1	2570.2
6997	12.806	5.6364	0.1	2618.9
6998	12.622	5.6364	0.1	2667.8
6999	12.439	5.6364	0.1	2716.8
7000	12.255	5.6364	0.1	2765.8
7001	12.072	5.6364	0.1	2814.9
7002	11.888	5.6364	0.1	2864.
7003	11.705	5.6364	0.1	2913.1
7004	11.521	5.6364	0.1	2961.9
7005	11.338	5.6364	0.1	3010.4
7006	11.154	5.6364	0.1	3058.5
7007	10.971	5.6364	0.1	3105.9
7008	10.787	5.6364	0.1	3152.4
7009	10.604	5.6364	0.1	3197.6
7010	10.42	5.6364	0.1	3241.1
7011	10.237	5.6364	0.1	3282.4
7012	10.053	5.6364	0.1	3320.9
7013	9.8698	5.6364	0.1	3355.5
7014	9.6863	5.6364	0.1	3385.3
7015	9.5028	5.6364	0.1	3409.
7016	9.3193	5.6364	0.1	3424.8
7017	9.1358	5.6364	0.1	3430.7
7018	8.9523	5.6364	0.1	3424.1
7019	8.7688	5.6364	0.1	3402.
7020	8.5853	5.6364	0.1	3360.6
7021	8.4018	5.6364	0.1	3295.6
7022	8.2182	5.6364	0.1	3201.7
7023	8.0347	5.6364	0.1	3073.5
7024	7.8512	5.6364	0.1	2904.8
7025	7.6677	5.6364	0.1	2689.8
7026	7.4842	5.6364	0.1	2424.2
7027	7.3007	5.6364	0.1	2106.8
7028	7.1172	5.6364	0.1	1744.3
7029	6.9337	5.6364	0.1	1361.4
7030	6.7502	5.6364	0.1	1062.4
7031	23.816	5.8182	0.1	36.916
7032	23.633	5.8182	0.1	72.527
7033	23.449	5.8182	0.1	110.24
7034	23.266	5.8182	0.1	148.6
7035	23.082	5.8182	0.1	187.35
7036	22.899	5.8182	0.1	226.37
7037	22.715	5.8182	0.1	265.59
7038	22.532	5.8182	0.1	304.98
7039	22.348	5.8182	0.1	344.51
7040	22.165	5.8182	0.1	384.17
7041	21.981	5.8182	0.1	423.96
7042	21.798	5.8182	0.1	463.86
7043	21.614	5.8182	0.1	503.89
7044	21.431	5.8182	0.1	544.03
7045	21.247	5.8182	0.1	584.29
7046	21.064	5.8182	0.1	624.68
7047	20.88	5.8182	0.1	665.2
7048	20.697	5.8182	0.1	705.85
7049	20.513	5.8182	0.1	746.63
7050	20.33	5.8182	0.1	787.56
7051	20.146	5.8182	0.1	828.63
7052	19.963	5.8182	0.1	869.85
7053	19.779	5.8182	0.1	911.23
7054	19.596	5.8182	0.1	952.76
7055	19.412	5.8182	0.1	994.45
7056	19.229	5.8182	0.1	1036.3
7057	19.045	5.8182	0.1	1078.3
7058	18.862	5.8182	0.1	1120.5
7059	18.678	5.8182	0.1	1162.9
7060	18.495	5.8182	0.1	1205.5
7061	18.311	5.8182	0.1	1248.2
7062	18.128	5.8182	0.1	1291.1
7063	17.944	5.8182	0.1	1334.2
7064	17.761	5.8182	0.1	1377.5
7065	17.577	5.8182	0.1	1421.
7066	17.394	5.8182	0.1	1464.7
7067	17.21	5.8182	0.1	1508.5
7068	17.027	5.8182	0.1	1552.6
7069	16.843	5.8182	0.1	1596.8
7070	16.66	5.8182	0.1	1641.3
7071	16.476	5.8182	0.1	1685.9
7072	16.293	5.8182	0.1	1730.8
7073	16.109	5.8182	0.1	1775.9
7074	15.926	5.8182	0.1	1821.1
7075	15.742	5.8182	0.1	1866.6
7076	15.559	5.8182	0.1	1912.3
7077	15.375	5.8182	0.1	1958.2
7078	15.192	5.8182	0.1	2004.3
7079	15.008	5.8182	0.1	2050.6
7080	14.825	5.8182	0.1	2097.1
7081	14.641	5.8182	0.1	2143.8
7082	14.458	5.8182	0.1	2190.8
7083	14.274	5.8182	0.1	2237.9
7084	14.091	5.8182	0.1	2285.3
7085	13.907	5.8182	0.1	2332.9
7086	13.724	5.8182	0.1	2380.7
7087	13.54	5.8182	0.1	2428.7
7088	13.356	5.8182	0.1	2476.9
7089	13.173	5.8182	0.1	2525.2
7090	12.989	5.8182	0.1	2573.8
7091	12.806	5.8182	0.1	2622.5
7092	12.622	5.8182	0.1	2671.4
7093	12.439	5.8182	0.1	2720.3
7094	12.255	5.8182	0.1	2769.4
7095	12.072	5.8182	0.1	2818.5
7096	11.888	5.8182	0.1	2867.5
7097	11.705	5.8182	0.1	2916.4
7098	11.521	5.8182	0.1	2965.1
7099	11.338	5.8182	0.1	3013.5
7100	11.154	5.8182	0.1	3061.3
7101	10.971	5.8182	0.1	3108.4
7102	10.787	5.8182	0.1	3154.4
7103	10.604	5.8182	0.1	3199.
7104	10.42	5.8182	0.1	3241.8
7105	10.237	5.8182	0.1	3282.1
7106	10.053	5.8182	0.1	3319.2
7107	9.8698	5.8182	0.1	3352.3
7108	9.6863	5.8182	0.1	3380.1
7109	9.5028	5.8182	0.1	3401.3
7110	9.3193	5.8182	0.1	3414.1
7111	9.1358	5.8182	0.1	3416.3
7112	8.9523	5.8182	0.1	3405.3
7113	8.7688	5.8182	0.1	3377.9
7114	8.5853	5.8182	0.1	3330.2
7115	8.4018	5.8182	0.1	3257.9
7116	8.2182	5.8182	0.1	3155.9
7117	8.0347	5.8182	0.1	3018.6
7118	7.8512	5.8182	0.1	2840.1
7119	7.6677	5.8182	0.1	2614.9
7120	7.4842	5.8182	0.1	2338.2
7121	7.3007	5.8182	0.1	2007.4
7122	7.1172	5.8182	0.1	1623.5
7123	6.9337	5.8182	0.1	1193.1
7124	6.7502	5.8182	0.1	765.74
7125	0.18286	0.18182	0.1	3902.3
7126	0.18286	0.36364	0.1	4507.7
7127	0.18286	0.54545	0.1	5203.
7128	0.18286	0.72727	0.1	5732.5
7129	0.18286	0.90909	0.1	6129.2
7130	0.18286	1.0909	0.1	6427.
7131	0.18286	1.2727	0.1	6654.1
7132	0.18286	1.4545	0.1	6829.5
7133	0.18286	1.6364	0.1	6966.
7134	0.18286	1.8182	0.1	7072.6
7135	0.18286	2.	0.1	7155.4
7136	0.18286	2.1818	0.1	7219.1
7137	0.18286	2.3636	0.1	7266.7
7138	0.18286	2.5455	0.1	7300.7
7139	0.18286	2.7273	0.1	7322.6
7140	0.18286	2.9091	0.1	7333.2
7141	0.18286	3.0909	0.1	7333.2
7142	0.18286	3.2727	0.1	7322.6
7143	0.18286	3.4545	0.1	7300.7
7144	0.18286	3.6364	0.1	7266.7
7145	0.18286	3.8182	0.1	7219.1
7146	0.18286	4.	0.1	7155.4
7147	0.18286	4.1818	0.1	7072.6
7148	0.18286	4.3636	0.1	6966.
7149	0.18286	4.5455	0.1	6829.5
7150	0.18286	4.7273	0.1	6654.1
7151	0.18286	4.9091	0.1	6427.
7152	0.18286	5.0909	0.1	6129.2
7153	0.18286	5.2727	0.1	5732.5
7154	0.18286	5.4545	0.1	5203.
7155	0.18286	5.6364	0.1	4507.6
7156	0.18286	5.8182	0.1	3902.3
7157	0.36571	0.18182	0.1	5037.9
7158	0.36571	0.36364	0.1	5170.8
7159	0.36571	0.54545	0.1	5467.3
7160	0.36571	0.72727	0.1	5795.1
7161	0.36571	0.90909	0.1	6094.8
7162	0.36571	1.0909	0.1	6349.4
7163	0.36571	1.2727	0.1	6559.2
7164	0.36571	1.4545	0.1	6729.7
7165	0.36571	1.6364	0.1	6867.4
7166	0.36571	1.8182	0.1	6977.8
7167	0.36571	2.	0.1	7065.3
7168	0.36571	2.1818	0.1	7133.7
7169	0.36571	2.3636	0.1	7185.4
7170	0.36571	2.5455	0.1	7222.7
7171	0.36571	2.7273	0.1	7246.7
7172	0.36571	2.9091	0.1	7258.6
7173	0.36571	3.0909	0.1	7258.6
7174	0.36571	3.2727	0.1	7246.7
7175	0.36571	3.4545	0.1	7222.7
7176	0.36571	3.6364	0.1	7185.4
7177	0.36571	3.8182	0.1	7133.7
7178	0.36571	4.	0.1	7065.3
7179	0.36571	4.1818	0.1	6977.8
7180	0.36571	4.3636	0.1	6867.4
7181	0.36571	4.5455	0.1	6729.7
7182	0.36571	4.7273	0.1	6559.2
7183	0.36571	4.9091	0.1	6349.4
7184	0.36571	5.0909	0.1	6094.8
7185	0.36571	5.2727	0.1	5795.1
7186	0.36571	5.4545	0.1	5467.3
7187	0.36571	5.6364	0.1	5170.8
7188	0.36571	5.8182	0.1	5037.9
7189	0.54857	0.18182	0.1	5532.
7190	0.54857	0.36364	0.1	5528.2
7191	0.54857	0.54545	0.1	5642.
7192	0.54857	0.72727	0.1	5809.1
7193	0.54857	0.90909	0.1	5995.7
7194	0.54857	1.0909	0.1	6177.8
7195	0.54857	1.2727	0.1	6343.
7196	0.54857	1.4545	0.1	6486.9
7197	0.54857	1.6364	0.1	6608.9
7198	0.54857	1.8182	0.1	6710.4
7199	0.54857	2.	0.1	6793.2
7200	0.54857	2.1818	0.1	6859.1
7201	0.54857	2.3636	0.1	6909.9
7202	0.54857	2.5455	0.1	6946.8
7203	0.54857	2.7273	0.1	6970.8
7204	0.54857	2.9091	0.1	6982.7
7205	0.54857	3.0909	0.1	6982.7
7206	0.54857	3.2727	0.1	6970.8
7207	0.54857	3.4545	0.1	6946.8
7208	0.54857	3.6364	0.1	6909.9
7209	0.54857	3.8182	0.1	6859.1
7210	0.54857	4.	0.1	6793.2
7211	0.54857	4.1818	0.1	6710.4
7212	0.54857	4.3636	0.1	6608.9
7213	0.54857	4.5455	0.1	6486.9
7214	0.54857	4.7273	0.1	6343.
7215	0.54857	4.9091	0.1	6177.8
7216	0.54857	5.0909	0.1	5995.7
7217	0.54857	5.2727	0.1	5809.1
7218	0.54857	5.4545	0.1	5642.
7219	0.54857	5.6364	0.1	5528.2
7220	0.54857	5.8182	0.1	5532.
7221	0.73143	0.18182	0.1	5814.7
7222	0.73143	0.36364	0.1	5772.7
7223	0.73143	0.54545	0.1	5811.4
7224	0.73143	0.72727	0.1	5891.8
7225	0.73143	0.90909	0.1	5999.1
7226	0.73143	1.0909	0.1	6118.2
7227	0.73143	1.2727	0.1	6237.4
7228	0.73143	1.4545	0.1	6349.1
7229	0.73143	1.6364	0.1	6449.2
7230	0.73143	1.8182	0.1	6536.1
7231	0.73143	2.	0.1	6609.2
7232	0.73143	2.1818	0.1	6669.
7233	0.73143	2.3636	0.1	6715.8
7234	0.73143	2.5455	0.1	6750.3
7235	0.73143	2.7273	0.1	6773.
7236	0.73143	2.9091	0.1	6784.2
7237	0.73143	3.0909	0.1	6784.2
7238	0.73143	3.2727	0.1	6773.
7239	0.73143	3.4545	0.1	6750.3
7240	0.73143	3.6364	0.1	6715.8
7241	0.73143	3.8182	0.1	6669.
7242	0.73143	4.	0.1	6609.2
7243	0.73143	4.1818	0.1	6536.1
7244	0.73143	4.3636	0.1	6449.2
7245	0.73143	4.5455	0.1	6349.1
7246	0.73143	4.7273	0.1	6237.4
7247	0.73143	4.9091	0.1	6118.2
7248	0.73143	5.0909	0.1	5999.1
7249	0.73143	5.2727	0.1	5891.8
7250	0.73143	5.4545	0.1	5811.4
7251	0.73143	5.6364	0.1	5772.7
7252	0.73143	5.8182	0.1	5814.7
7253	0.91429	0.18182	0.1	5966.1
7254	0.91429	0.36364	0.1	5910.1
7255	0.91429	0.54545	0.1	5912.6
7256	0.91429	0.72727	0.1	5945.2
7257	0.91429	0.90909	0.1	6001.6
7258	0.91429	1.0909	0.1	6073.7
7259	0.91429	1.2727	0.1	6153.4
7260	0.91429	1.4545	0.1	6233.9
7261	0.91429	1.6364	0.1	6310.5
7262	0.91429	1.8182	0.1	6380.
7263	0.91429	2.	0.1	6440.6
7264	0.91429	2.1818	0.1	6491.4
7265	0.91429	2.3636	0.1	6532.1
7266	0.91429	2.5455	0.1	6562.5
7267	0.91429	2.7273	0.1	6582.7
7268	0.91429	2.9091	0.1	6592.8
7269	0.91429	3.0909	0.1	6592.8
7270	0.91429	3.2727	0.1	6582.7
7271	0.91429	3.4545	0.1	6562.5
7272	0.91429	3.6364	0.1	6532.1
7273	0.91429	3.8182	0.1	6491.4
7274	0.91429	4.	0.1	6440.6
7275	0.91429	4.1818	0.1	6380.
7276	0.91429	4.3636	0.1	6310.5
7277	0.91429	4.5455	0.1	6233.9
7278	0.91429	4.7273	0.1	6153.4
7279	0.91429	4.9091	0.1	6073.7
7280	0.91429	5.0909	0.1	6001.6
7281	0.91429	5.2727	0.1	5945.2
7282	0.91429	5.4545	0.1	5912.6
7283	0.91429	5.6364	0.1	5910.1
7284	0.91429	5.8182	0.1	5966.1
7285	1.0971	0.18182	0.1	6044.1
7286	1.0971	0.36364	0.1	5985.3
7287	1.0971	0.54545	0.1	5970.2
7288	1.0971	0.72727	0.1	5976.6
7289	1.0971	0.90909	0.1	6001.6
7290	1.0971	1.0909	0.1	6041.3
7291	1.0971	1.2727	0.1	6090.8
7292	1.0971	1.4545	0.1	6145.2
7293	1.0971	1.6364	0.1	6200.1
7294	1.0971	1.8182	0.1	6252.5
7295	1.0971	2.	0.1	6299.8
7296	1.0971	2.1818	0.1	6340.7
7297	1.0971	2.3636	0.1	6374.2
7298	1.0971	2.5455	0.1	6399.7
7299	1.0971	2.7273	0.1	6416.7
7300	1.0971	2.9091	0.1	6425.3
7301	1.0971	3.0909	0.1	6425.3
7302	1.0971	3.2727	0.1	6416.7
7303	1.0971	3.4545	0.1	6399.7
7304	1.0971	3.6364	0.1	6374.2
7305	1.0971	3.8182	0.1	6340.7
7306	1.0971	4.	0.1	6299.8
7307	1.0971	4.1818	0.1	6252.5
7308	1.0971	4.3636	0.1	6200.1
7309	1.0971	4.5455	0.1	6145.2
7310	1.0971	4.7273	0.1	6090.8
7311	1.0971	4.9091	0.1	6041.3
7312	1.0971	5.0909	0.1	6001.6
7313	1.0971	5.2727	0.1	5976.6
7314	1.0971	5.4545	0.1	5970.2
7315	1.0971	5.6364	0.1	5985.3
7316	1.0971	5.8182	0.1	6044.1
7317	1.28	0.18182	0.1	6074.3
7318	1.28	0.36364	0.1	6016.7
7319	1.28	0.54545	0.1	5992.6
7320	1.28	0.72727	0.1	5984.1
7321	1.28	0.90909	0.1	5989.8
7322	1.28	1.0909	0.1	6007.8
7323	1.28	1.2727	0.1	6035.4
7324	1.28	1.4545	0.1	6069.2
7325	1.28	1.6364	0.1	6106.
7326	1.28	1.8182	0.1	6143.
7327	1.28	2.	0.1	6177.9
7328	1.28	2.1818	0.1	6209.
7329	1.28	2.3636	0.1	6235.1
7330	1.28	2.5455	0.1	6255.2
7331	1.28	2.7273	0.1	6268.9
7332	1.28	2.9091	0.1	6275.9
7333	1.28	3.0909	0.1	6275.9
7334	1.28	3.2727	0.1	6268.9
7335	1.28	3.4545	0.1	6255.2
7336	1.28	3.6364	0.1	6235.1
7337	1.28	3.8182	0.1	6209.
7338	1.28	4.	0.1	6177.9
7339	1.28	4.1818	0.1	6143.
7340	1.28	4.3636	0.1	6106.
7341	1.28	4.5455	0.1	6069.2
7342	1.28	4.7273	0.1	6035.4
7343	1.28	4.9091	0.1	6007.8
7344	1.28	5.0909	0.1	5989.8
7345	1.28	5.2727	0.1	5984.1
7346	1.28	5.4545	0.1	5992.6
7347	1.28	5.6364	0.1	6016.7
7348	1.28	5.8182	0.1	6074.3
7349	1.4629	0.18182	0.1	6072.8
7350	1.4629	0.36364	0.1	6018.2
7351	1.4629	0.54545	0.1	5989.9
7352	1.4629	0.72727	0.1	5973.
7353	1.4629	0.90909	0.1	5966.8
7354	1.4629	1.0909	0.1	5970.5
7355	1.4629	1.2727	0.1	5982.6
7356	1.4629	1.4545	0.1	6001.
7357	1.4629	1.6364	0.1	6023.4
7358	1.4629	1.8182	0.1	6047.6
7359	1.4629	2.	0.1	6071.6
7360	1.4629	2.1818	0.1	6093.8
7361	1.4629	2.3636	0.1	6113.
7362	1.4629	2.5455	0.1	6128.1
7363	1.4629	2.7273	0.1	6138.5
7364	1.4629	2.9091	0.1	6143.8
7365	1.4629	3.0909	0.1	6143.8
7366	1.4629	3.2727	0.1	6138.5
7367	1.4629	3.4545	0.1	6128.1
7368	1.4629	3.6364	0.1	6113.
7369	1.4629	3.8182	0.1	6093.8
7370	1.4629	4.	0.1	6071.6
7371	1.4629	4.1818	0.1	6047.6
7372	1.4629	4.3636	0.1	6023.4
7373	1.4629	4.5455	0.1	6001.
7374	1.4629	4.7273	0.1	5982.6
7375	1.4629	4.9091	0.1	5970.5
7376	1.4629	5.0909	0.1	5966.8
7377	1.4629	5.2727	0.1	5973.
7378	1.4629	5.4545	0.1	5989.9
7379	1.4629	5.6364	0.1	6018.2
7380	1.4629	5.8182	0.1	6072.8
7381	1.6457	0.18182	0.1	6049.4
7382	1.6457	0.36364	0.1	5998.5
7383	1.6457	0.54545	0.1	5968.5
7384	1.6457	0.72727	0.1	5947.
7385	1.6457	0.90909	0.1	5933.6
7386	1.6457	1.0909	0.1	5928.
7387	1.6457	1.2727	0.1	5929.5
7388	1.6457	1.4545	0.1	5936.8
7389	1.6457	1.6364	0.1	5948.3
7390	1.6457	1.8182	0.1	5962.3
7391	1.6457	2.	0.1	5977.4
7392	1.6457	2.1818	0.1	5992.
7393	1.6457	2.3636	0.1	6005.1
7394	1.6457	2.5455	0.1	6015.7
7395	1.6457	2.7273	0.1	6023.1
7396	1.6457	2.9091	0.1	6026.9
7397	1.6457	3.0909	0.1	6026.9
7398	1.6457	3.2727	0.1	6023.1
7399	1.6457	3.4545	0.1	6015.7
7400	1.6457	3.6364	0.1	6005.1
7401	1.6457	3.8182	0.1	5992.
7402	1.6457	4.	0.1	5977.4
7403	1.6457	4.1818	0.1	5962.3
7404	1.6457	4.3636	0.1	5948.3
7405	1.6457	4.5455	0.1	5936.8
7406	1.6457	4.7273	0.1	5929.5
7407	1.6457	4.9091	0.1	5928.
7408	1.6457	5.0909	0.1	5933.6
7409	1.6457	5.2727	0.1	5947.
7410	1.6457	5.4545	0.1	5968.5
7411	1.6457	5.6364	0.1	5998.5
7412	1.6457	5.8182	0.1	6049.4
7413	1.8286	0.18182	0.1	6010.3
7414	1.8286	0.36364	0.1	5963.4
7415	1.8286	0.54545	0.1	5933.3
7416	1.8286	0.72727	0.1	5909.5
7417	1.8286	0.90909	0.1	5892.1
7418	1.8286	1.0909	0.1	5880.7
7419	1.8286	1.2727	0.1	5875.2
7420	1.8286	1.4545	0.1	5874.7
7421	1.8286	1.6364	0.1	5878.2
7422	1.8286	1.8182	0.1	5884.6
7423	1.8286	2.	0.1	5892.6
7424	1.8286	2.1818	0.1	5901.2
7425	1.8286	2.3636	0.1	5909.3
7426	1.8286	2.5455	0.1	5916.
7427	1.8286	2.7273	0.1	5920.9
7428	1.8286	2.9091	0.1	5923.4
7429	1.8286	3.0909	0.1	5923.4
7430	1.8286	3.2727	0.1	5920.9
7431	1.8286	3.4545	0.1	5916.
7432	1.8286	3.6364	0.1	5909.3
7433	1.8286	3.8182	0.1	5901.2
7434	1.8286	4.	0.1	5892.6
7435	1.8286	4.1818	0.1	5884.6
7436	1.8286	4.3636	0.1	5878.2
7437	1.8286	4.5455	0.1	5874.7
7438	1.8286	4.7273	0.1	5875.2
7439	1.8286	4.9091	0.1	5880.7
7440	1.8286	5.0909	0.1	5892.1
7441	1.8286	5.2727	0.1	5909.5
7442	1.8286	5.4545	0.1	5933.3
7443	1.8286	5.6364	0.1	5963.4
7444	1.8286	5.8182	0.1	6010.3
7445	2.0114	0.18182	0.1	5959.7
7446	2.0114	0.36364	0.1	5916.9
7447	2.0114	0.54545	0.1	5887.7
7448	2.0114	0.72727	0.1	5863.3
7449	2.0114	0.90909	0.1	5843.8
7450	2.0114	1.0909	0.1	5829.2
7451	2.0114	1.2727	0.1	5819.3
7452	2.0114	1.4545	0.1	5813.7
7453	2.0114	1.6364	0.1	5811.7
7454	2.0114	1.8182	0.1	5812.6
7455	2.0114	2.	0.1	5815.4
7456	2.0114	2.1818	0.1	5819.3
7457	2.0114	2.3636	0.1	5823.5
7458	2.0114	2.5455	0.1	5827.3
7459	2.0114	2.7273	0.1	5830.1
7460	2.0114	2.9091	0.1	5831.6
7461	2.0114	3.0909	0.1	5831.6
7462	2.0114	3.2727	0.1	5830.1
7463	2.0114	3.4545	0.1	5827.3
7464	2.0114	3.6364	0.1	5823.5
7465	2.0114	3.8182	0.1	5819.3
7466	2.0114	4.	0.1	5815.4
7467	2.0114	4.1818	0.1	5812.6
7468	2.0114	4.3636	0.1	5811.7
7469	2.0114	4.5455	0.1	5813.7
7470	2.0114	4.7273	0.1	5819.3
7471	2.0114	4.9091	0.1	5829.2
7472	2.0114	5.0909	0.1	5843.8
7473	2.0114	5.2727	0.1	5863.3
7474	2.0114	5.4545	0.1	5887.7
7475	2.0114	5.6364	0.1	5916.9
7476	2.0114	5.8182	0.1	5959.7
7477	2.1943	0.18182	0.1	5900.5
7478	2.1943	0.36364	0.1	5861.7
7479	2.1943	0.54545	0.1	5834.1
7480	2.1943	0.72727	0.1	5810.2
7481	2.1943	0.90909	0.1	5790.2
7482	2.1943	1.0909	0.1	5774.1
7483	2.1943	1.2727	0.1	5761.8
7484	2.1943	1.4545	0.1	5753.1
7485	2.1943	1.6364	0.1	5747.7
7486	2.1943	1.8182	0.1	5745.
7487	2.1943	2.	0.1	5744.2
7488	2.1943	2.1818	0.1	5744.9
7489	2.1943	2.3636	0.1	5746.2
7490	2.1943	2.5455	0.1	5747.8
7491	2.1943	2.7273	0.1	5749.1
7492	2.1943	2.9091	0.1	5749.8
7493	2.1943	3.0909	0.1	5749.8
7494	2.1943	3.2727	0.1	5749.1
7495	2.1943	3.4545	0.1	5747.8
7496	2.1943	3.6364	0.1	5746.2
7497	2.1943	3.8182	0.1	5744.9
7498	2.1943	4.	0.1	5744.2
7499	2.1943	4.1818	0.1	5745.
7500	2.1943	4.3636	0.1	5747.7
7501	2.1943	4.5455	0.1	5753.1
7502	2.1943	4.7273	0.1	5761.8
7503	2.1943	4.9091	0.1	5774.1
7504	2.1943	5.0909	0.1	5790.2
7505	2.1943	5.2727	0.1	5810.2
7506	2.1943	5.4545	0.1	5834.1
7507	2.1943	5.6364	0.1	5861.7
7508	2.1943	5.8182	0.1	5900.5
7509	2.3771	0.18182	0.1	5834.4
7510	2.3771	0.36364	0.1	5799.6
7511	2.3771	0.54545	0.1	5774.1
7512	2.3771	0.72727	0.1	5751.6
7513	2.3771	0.90909	0.1	5732.3
7514	2.3771	1.0909	0.1	5716.
7515	2.3771	1.2727	0.1	5703.
7516	2.3771	1.4545	0.1	5693.
7517	2.3771	1.6364	0.1	5685.8
7518	2.3771	1.8182	0.1	5681.
7519	2.3771	2.	0.1	5678.1
7520	2.3771	2.1818	0.1	5676.7
7521	2.3771	2.3636	0.1	5676.3
7522	2.3771	2.5455	0.1	5676.4
7523	2.3771	2.7273	0.1	5676.7
7524	2.3771	2.9091	0.1	5677.
7525	2.3771	3.0909	0.1	5677.
7526	2.3771	3.2727	0.1	5676.7
7527	2.3771	3.4545	0.1	5676.4
7528	2.3771	3.6364	0.1	5676.3
7529	2.3771	3.8182	0.1	5676.7
7530	2.3771	4.	0.1	5678.1
7531	2.3771	4.1818	0.1	5681.
7532	2.3771	4.3636	0.1	5685.8
7533	2.3771	4.5455	0.1	5693.
7534	2.3771	4.7273	0.1	5703.
7535	2.3771	4.9091	0.1	5716.
7536	2.3771	5.0909	0.1	5732.3
7537	2.3771	5.2727	0.1	5751.6
7538	2.3771	5.4545	0.1	5774.1
7539	2.3771	5.6364	0.1	5799.6
7540	2.3771	5.8182	0.1	5834.4
7541	2.56	0.18182	0.1	5762.5
7542	2.56	0.36364	0.1	5731.8
7543	2.56	0.54545	0.1	5708.8
7544	2.56	0.72727	0.1	5688.5
7545	2.56	0.90909	0.1	5670.7
7546	2.56	1.0909	0.1	5655.6
7547	2.56	1.2727	0.1	5643.1
7548	2.56	1.4545	0.1	5633.1
7549	2.56	1.6364	0.1	5625.5
7550	2.56	1.8182	0.1	5620.1
7551	2.56	2.	0.1	5616.4
7552	2.56	2.1818	0.1	5614.2
7553	2.56	2.3636	0.1	5612.9
7554	2.56	2.5455	0.1	5612.4
7555	2.56	2.7273	0.1	5612.1
7556	2.56	2.9091	0.1	5612.1
7557	2.56	3.0909	0.1	5612.1
7558	2.56	3.2727	0.1	5612.1
7559	2.56	3.4545	0.1	5612.4
7560	2.56	3.6364	0.1	5612.9
7561	2.56	3.8182	0.1	5614.2
7562	2.56	4.	0.1	5616.4
7563	2.56	4.1818	0.1	5620.1
7564	2.56	4.3636	0.1	5625.5
7565	2.56	4.5455	0.1	5633.1
7566	2.56	4.7273	0.1	5643.1
7567	2.56	4.9091	0.1	5655.6
7568	2.56	5.0909	0.1	5670.7
7569	2.56	5.2727	0.1	5688.5
7570	2.56	5.4545	0.1	5708.8
7571	2.56	5.6364	0.1	5731.8
7572	2.56	5.8182	0.1	5762.5
7573	2.7429	0.18182	0.1	5685.5
7574	2.7429	0.36364	0.1	5658.8
7575	2.7429	0.54545	0.1	5638.9
7576	2.7429	0.72727	0.1	5621.3
7577	2.7429	0.90909	0.1	5606.
7578	2.7429	1.0909	0.1	5593.
7579	2.7429	1.2727	0.1	5582.1
7580	2.7429	1.4545	0.1	5573.5
7581	2.7429	1.6364	0.1	5566.9
7582	2.7429	1.8182	0.1	5562.1
7583	2.7429	2.	0.1	5558.8
7584	2.7429	2.1818	0.1	5556.7
7585	2.7429	2.3636	0.1	5555.5
7586	2.7429	2.5455	0.1	5555.
7587	2.7429	2.7273	0.1	5554.7
7588	2.7429	2.9091	0.1	5554.6
7589	2.7429	3.0909	0.1	5554.6
7590	2.7429	3.2727	0.1	5554.7
7591	2.7429	3.4545	0.1	5555.
7592	2.7429	3.6364	0.1	5555.5
7593	2.7429	3.8182	0.1	5556.7
7594	2.7429	4.	0.1	5558.8
7595	2.7429	4.1818	0.1	5562.1
7596	2.7429	4.3636	0.1	5566.9
7597	2.7429	4.5455	0.1	5573.5
7598	2.7429	4.7273	0.1	5582.1
7599	2.7429	4.9091	0.1	5593.
7600	2.7429	5.0909	0.1	5606.
7601	2.7429	5.2727	0.1	5621.3
7602	2.7429	5.4545	0.1	5638.9
7603	2.7429	5.6364	0.1	5658.8
7604	2.7429	5.8182	0.1	5685.5
7605	2.9257	0.18182	0.1	5603.3
7606	2.9257	0.36364	0.1	5580.8
7607	2.9257	0.54545	0.1	5564.4
7608	2.9257	0.72727	0.1	5550.3
7609	2.9257	0.90909	0.1	5538.3
7610	2.9257	1.0909	0.1	5528.3
7611	2.9257	1.2727	0.1	5520.3
7612	2.9257	1.4545	0.1	5514.2
7613	2.9257	1.6364	0.1	5509.8
7614	2.9257	1.8182	0.1	5506.8
7615	2.9257	2.	0.1	5505.1
7616	2.9257	2.1818	0.1	5504.2
7617	2.9257	2.3636	0.1	5504.
7618	2.9257	2.5455	0.1	5504.1
7619	2.9257	2.7273	0.1	5504.3
7620	2.9257	2.9091	0.1	5504.4
7621	2.9257	3.0909	0.1	5504.4
7622	2.9257	3.2727	0.1	5504.3
7623	2.9257	3.4545	0.1	5504.1
7624	2.9257	3.6364	0.1	5504.
7625	2.9257	3.8182	0.1	5504.2
7626	2.9257	4.	0.1	5505.1
7627	2.9257	4.1818	0.1	5506.8
7628	2.9257	4.3636	0.1	5509.8
7629	2.9257	4.5455	0.1	5514.2
7630	2.9257	4.7273	0.1	5520.3
7631	2.9257	4.9091	0.1	5528.3
7632	2.9257	5.0909	0.1	5538.3
7633	2.9257	5.2727	0.1	5550.3
7634	2.9257	5.4545	0.1	5564.4
7635	2.9257	5.6364	0.1	5580.8
7636	2.9257	5.8182	0.1	5603.3
7637	3.1086	0.18182	0.1	5515.7
7638	3.1086	0.36364	0.1	5497.6
7639	3.1086	0.54545	0.1	5485.3
7640	3.1086	0.72727	0.1	5475.3
7641	3.1086	0.90909	0.1	5467.5
7642	3.1086	1.0909	0.1	5461.6
7643	3.1086	1.2727	0.1	5457.6
7644	3.1086	1.4545	0.1	5455.2
7645	3.1086	1.6364	0.1	5454.2
7646	3.1086	1.8182	0.1	5454.4
7647	3.1086	2.	0.1	5455.3
7648	3.1086	2.1818	0.1	5456.7
7649	3.1086	2.3636	0.1	5458.3
7650	3.1086	2.5455	0.1	5459.8
7651	3.1086	2.7273	0.1	5461.
7652	3.1086	2.9091	0.1	5461.6
7653	3.1086	3.0909	0.1	5461.6
7654	3.1086	3.2727	0.1	5461.
7655	3.1086	3.4545	0.1	5459.8
7656	3.1086	3.6364	0.1	5458.3
7657	3.1086	3.8182	0.1	5456.7
7658	3.1086	4.	0.1	5455.3
7659	3.1086	4.1818	0.1	5454.4
7660	3.1086	4.3636	0.1	5454.2
7661	3.1086	4.5455	0.1	5455.2
7662	3.1086	4.7273	0.1	5457.6
7663	3.1086	4.9091	0.1	5461.6
7664	3.1086	5.0909	0.1	5467.5
7665	3.1086	5.2727	0.1	5475.3
7666	3.1086	5.4545	0.1	5485.3
7667	3.1086	5.6364	0.1	5497.6
7668	3.1086	5.8182	0.1	5515.7
7669	3.2914	0.18182	0.1	5422.
7670	3.2914	0.36364	0.1	5408.6
7671	3.2914	0.54545	0.1	5400.9
7672	3.2914	0.72727	0.1	5395.9
7673	3.2914	0.90909	0.1	5393.2
7674	3.2914	1.0909	0.1	5392.6
7675	3.2914	1.2727	0.1	5393.8
7676	3.2914	1.4545	0.1	5396.5
7677	3.2914	1.6364	0.1	5400.3
7678	3.2914	1.8182	0.1	5404.9
7679	3.2914	2.	0.1	5409.8
7680	3.2914	2.1818	0.1	5414.7
7681	3.2914	2.3636	0.1	5419.1
7682	3.2914	2.5455	0.1	5422.8
7683	3.2914	2.7273	0.1	5425.4
7684	3.2914	2.9091	0.1	5426.8
7685	3.2914	3.0909	0.1	5426.8
7686	3.2914	3.2727	0.1	5425.4
7687	3.2914	3.4545	0.1	5422.8
7688	3.2914	3.6364	0.1	5419.1
7689	3.2914	3.8182	0.1	5414.7
7690	3.2914	4.	0.1	5409.8
7691	3.2914	4.1818	0.1	5404.9
7692	3.2914	4.3636	0.1	5400.3
7693	3.2914	4.5455	0.1	5396.5
7694	3.2914	4.7273	0.1	5393.8
7695	3.2914	4.9091	0.1	5392.6
7696	3.2914	5.0909	0.1	5393.2
7697	3.2914	5.2727	0.1	5395.9
7698	3.2914	5.4545	0.1	5400.9
7699	3.2914	5.6364	0.1	5408.6
7700	3.2914	5.8182	0.1	5422.
7701	3.4743	0.18182	0.1	5321.
7702	3.4743	0.36364	0.1	5312.7
7703	3.4743	0.54545	0.1	5310.3
7704	3.4743	0.72727	0.1	5311.2
7705	3.4743	0.90909	0.1	5314.9
7706	3.4743	1.0909	0.1	5320.9
7707	3.4743	1.2727	0.1	5328.8
7708	3.4743	1.4545	0.1	5338.1
7709	3.4743	1.6364	0.1	5348.3
7710	3.4743	1.8182	0.1	5358.8
7711	3.4743	2.	0.1	5369.2
7712	3.4743	2.1818	0.1	5378.8
7713	3.4743	2.3636	0.1	5387.2
7714	3.4743	2.5455	0.1	5394.
7715	3.4743	2.7273	0.1	5398.7
7716	3.4743	2.9091	0.1	5401.1
7717	3.4743	3.0909	0.1	5401.1
7718	3.4743	3.2727	0.1	5398.7
7719	3.4743	3.4545	0.1	5394.
7720	3.4743	3.6364	0.1	5387.2
7721	3.4743	3.8182	0.1	5378.8
7722	3.4743	4.	0.1	5369.2
7723	3.4743	4.1818	0.1	5358.8
7724	3.4743	4.3636	0.1	5348.3
7725	3.4743	4.5455	0.1	5338.1
7726	3.4743	4.7273	0.1	5328.8
7727	3.4743	4.9091	0.1	5320.9
7728	3.4743	5.0909	0.1	5314.9
7729	3.4743	5.2727	0.1	5311.2
7730	3.4743	5.4545	0.1	5310.3
7731	3.4743	5.6364	0.1	5312.7
7732	3.4743	5.8182	0.1	5321.
7733	3.6571	0.18182	0.1	5211.1
7734	3.6571	0.36364	0.1	5208.4
7735	3.6571	0.54545	0.1	5212.3
7736	3.6571	0.72727	0.1	5220.2
7737	3.6571	0.90909	0.1	5231.5
7738	3.6571	1.0909	0.1	5245.7
7739	3.6571	1.2727	0.1	5262.
7740	3.6571	1.4545	0.1	5279.8
7741	3.6571	1.6364	0.1	5298.2
7742	3.6571	1.8182	0.1	5316.6
7743	3.6571	2.	0.1	5334.1
7744	3.6571	2.1818	0.1	5350.1
7745	3.6571	2.3636	0.1	5363.9
7746	3.6571	2.5455	0.1	5374.8
7747	3.6571	2.7273	0.1	5382.4
7748	3.6571	2.9091	0.1	5386.2
7749	3.6571	3.0909	0.1	5386.2
7750	3.6571	3.2727	0.1	5382.4
7751	3.6571	3.4545	0.1	5374.8
7752	3.6571	3.6364	0.1	5363.9
7753	3.6571	3.8182	0.1	5350.1
7754	3.6571	4.	0.1	5334.1
7755	3.6571	4.1818	0.1	5316.6
7756	3.6571	4.3636	0.1	5298.2
7757	3.6571	4.5455	0.1	5279.8
7758	3.6571	4.7273	0.1	5262.
7759	3.6571	4.9091	0.1	5245.7
7760	3.6571	5.0909	0.1	5231.5
7761	3.6571	5.2727	0.1	5220.2
7762	3.6571	5.4545	0.1	5212.3
7763	3.6571	5.6364	0.1	5208.4
7764	3.6571	5.8182	0.1	5211.1
7765	3.84	0.18182	0.1	5090.4
7766	3.84	0.36364	0.1	5093.9
7767	3.84	0.54545	0.1	5105.
7768	3.84	0.72727	0.1	5121.3
7769	3.84	0.90909	0.1	5142.
7770	3.84	1.0909	0.1	5166.2
7771	3.84	1.2727	0.1	5193.1
7772	3.84	1.4545	0.1	5221.5
7773	3.84	1.6364	0.1	5250.5
7774	3.84	1.8182	0.1	5278.9
7775	3.84	2.	0.1	5305.8
7776	3.84	2.1818	0.1	5330.1
7777	3.84	2.3636	0.1	5350.9
7778	3.84	2.5455	0.1	5367.3
7779	3.84	2.7273	0.1	5378.7
7780	3.84	2.9091	0.1	5384.5
7781	3.84	3.0909	0.1	5384.5
7782	3.84	3.2727	0.1	5378.7
7783	3.84	3.4545	0.1	5367.3
7784	3.84	3.6364	0.1	5350.9
7785	3.84	3.8182	0.1	5330.1
7786	3.84	4.	0.1	5305.8
7787	3.84	4.1818	0.1	5278.9
7788	3.84	4.3636	0.1	5250.5
7789	3.84	4.5455	0.1	5221.5
7790	3.84	4.7273	0.1	5193.1
7791	3.84	4.9091	0.1	5166.2
7792	3.84	5.0909	0.1	5142.
7793	3.84	5.2727	0.1	5121.3
7794	3.84	5.4545	0.1	5105.
7795	3.84	5.6364	0.1	5093.9
7796	3.84	5.8182	0.1	5090.4
7797	4.0229	0.18182	0.1	4956.2
7798	4.0229	0.36364	0.1	4966.6
7799	4.0229	0.54545	0.1	4986.2
7800	4.0229	0.72727	0.1	5012.5
7801	4.0229	0.90909	0.1	5044.6
7802	4.0229	1.0909	0.1	5081.2
7803	4.0229	1.2727	0.1	5121.2
7804	4.0229	1.4545	0.1	5163.2
7805	4.0229	1.6364	0.1	5205.5
7806	4.0229	1.8182	0.1	5246.9
7807	4.0229	2.	0.1	5285.8
7808	4.0229	2.1818	0.1	5320.8
7809	4.0229	2.3636	0.1	5350.8
7810	4.0229	2.5455	0.1	5374.4
7811	4.0229	2.7273	0.1	5390.8
7812	4.0229	2.9091	0.1	5399.2
7813	4.0229	3.0909	0.1	5399.2
7814	4.0229	3.2727	0.1	5390.8
7815	4.0229	3.4545	0.1	5374.4
7816	4.0229	3.6364	0.1	5350.8
7817	4.0229	3.8182	0.1	5320.8
7818	4.0229	4.	0.1	5285.8
7819	4.0229	4.1818	0.1	5246.9
7820	4.0229	4.3636	0.1	5205.5
7821	4.0229	4.5455	0.1	5163.2
7822	4.0229	4.7273	0.1	5121.2
7823	4.0229	4.9091	0.1	5081.2
7824	4.0229	5.0909	0.1	5044.6
7825	4.0229	5.2727	0.1	5012.5
7826	4.0229	5.4545	0.1	4986.2
7827	4.0229	5.6364	0.1	4966.6
7828	4.0229	5.8182	0.1	4956.2
7829	4.2057	0.18182	0.1	4805.4
7830	4.2057	0.36364	0.1	4823.6
7831	4.2057	0.54545	0.1	4853.1
7832	4.2057	0.72727	0.1	4891.3
7833	4.2057	0.90909	0.1	4937.2
7834	4.2057	1.0909	0.1	4989.2
7835	4.2057	1.2727	0.1	5045.6
7836	4.2057	1.4545	0.1	5104.5
7837	4.2057	1.6364	0.1	5163.9
7838	4.2057	1.8182	0.1	5221.7
7839	4.2057	2.	0.1	5276.
7840	4.2057	2.1818	0.1	5325.
7841	4.2057	2.3636	0.1	5366.8
7842	4.2057	2.5455	0.1	5399.8
7843	4.2057	2.7273	0.1	5422.7
7844	4.2057	2.9091	0.1	5434.4
7845	4.2057	3.0909	0.1	5434.4
7846	4.2057	3.2727	0.1	5422.7
7847	4.2057	3.4545	0.1	5399.8
7848	4.2057	3.6364	0.1	5366.8
7849	4.2057	3.8182	0.1	5325.
7850	4.2057	4.	0.1	5276.
7851	4.2057	4.1818	0.1	5221.7
7852	4.2057	4.3636	0.1	5163.9
7853	4.2057	4.5455	0.1	5104.5
7854	4.2057	4.7273	0.1	5045.6
7855	4.2057	4.9091	0.1	4989.2
7856	4.2057	5.0909	0.1	4937.2
7857	4.2057	5.2727	0.1	4891.3
7858	4.2057	5.4545	0.1	4853.1
7859	4.2057	5.6364	0.1	4823.6
7860	4.2057	5.8182	0.1	4805.4
7861	4.3886	0.18182	0.1	4634.2
7862	4.3886	0.36364	0.1	4661.2
7863	4.3886	0.54545	0.1	4702.1
7864	4.3886	0.72727	0.1	4754.7
7865	4.3886	0.90909	0.1	4817.4
7866	4.3886	1.0909	0.1	4888.3
7867	4.3886	1.2727	0.1	4965.3
7868	4.3886	1.4545	0.1	5045.5
7869	4.3886	1.6364	0.1	5126.4
7870	4.3886	1.8182	0.1	5205.2
7871	4.3886	2.	0.1	5279.3
7872	4.3886	2.1818	0.1	5346.1
7873	4.3886	2.3636	0.1	5403.2
7874	4.3886	2.5455	0.1	5448.5
7875	4.3886	2.7273	0.1	5479.9
7876	4.3886	2.9091	0.1	5495.9
7877	4.3886	3.0909	0.1	5495.9
7878	4.3886	3.2727	0.1	5479.9
7879	4.3886	3.4545	0.1	5448.5
7880	4.3886	3.6364	0.1	5403.2
7881	4.3886	3.8182	0.1	5346.1
7882	4.3886	4.	0.1	5279.3
7883	4.3886	4.1818	0.1	5205.2
7884	4.3886	4.3636	0.1	5126.4
7885	4.3886	4.5455	0.1	5045.5
7886	4.3886	4.7273	0.1	4965.3
7887	4.3886	4.9091	0.1	4888.3
7888	4.3886	5.0909	0.1	4817.4
7889	4.3886	5.2727	0.1	4754.7
7890	4.3886	5.4545	0.1	4702.1
7891	4.3886	5.6364	0.1	4661.2
7892	4.3886	5.8182	0.1	4634.2
7893	4.5714	0.18182	0.1	4438.4
7894	4.5714	0.36364	0.1	4475.
7895	4.5714	0.54545	0.1	4529.3
7896	4.5714	0.72727	0.1	4598.8
7897	4.5714	0.90909	0.1	4682.
7898	4.5714	1.0909	0.1	4776.3
7899	4.5714	1.2727	0.1	4878.8
7900	4.5714	1.4545	0.1	4986.1
7901	4.5714	1.6364	0.1	5094.3
7902	4.5714	1.8182	0.1	5199.9
7903	4.5714	2.	0.1	5299.2
7904	4.5714	2.1818	0.1	5389.
7905	4.5714	2.3636	0.1	5465.9
7906	4.5714	2.5455	0.1	5526.9
7907	4.5714	2.7273	0.1	5569.3
7908	4.5714	2.9091	0.1	5591.
7909	4.5714	3.0909	0.1	5591.
7910	4.5714	3.2727	0.1	5569.3
7911	4.5714	3.4545	0.1	5526.9
7912	4.5714	3.6364	0.1	5465.9
7913	4.5714	3.8182	0.1	5389.
7914	4.5714	4.	0.1	5299.2
7915	4.5714	4.1818	0.1	5199.9
7916	4.5714	4.3636	0.1	5094.3
7917	4.5714	4.5455	0.1	4986.1
7918	4.5714	4.7273	0.1	4878.8
7919	4.5714	4.9091	0.1	4776.3
7920	4.5714	5.0909	0.1	4682.
7921	4.5714	5.2727	0.1	4598.8
7922	4.5714	5.4545	0.1	4529.3
7923	4.5714	5.6364	0.1	4475.
7924	4.5714	5.8182	0.1	4438.4
7925	4.7543	0.18182	0.1	4212.8
7926	4.7543	0.36364	0.1	4259.9
7927	4.7543	0.54545	0.1	4329.6
7928	4.7543	0.72727	0.1	4419.4
7929	4.7543	0.90909	0.1	4527.2
7930	4.7543	1.0909	0.1	4650.4
7931	4.7543	1.2727	0.1	4784.9
7932	4.7543	1.4545	0.1	4926.2
7933	4.7543	1.6364	0.1	5069.3
7934	4.7543	1.8182	0.1	5209.1
7935	4.7543	2.	0.1	5340.8
7936	4.7543	2.1818	0.1	5460.1
7937	4.7543	2.3636	0.1	5562.4
7938	4.7543	2.5455	0.1	5643.6
7939	4.7543	2.7273	0.1	5700.1
7940	4.7543	2.9091	0.1	5729.1
7941	4.7543	3.0909	0.1	5729.1
7942	4.7543	3.2727	0.1	5700.1
7943	4.7543	3.4545	0.1	5643.6
7944	4.7543	3.6364	0.1	5562.4
7945	4.7543	3.8182	0.1	5460.1
7946	4.7543	4.	0.1	5340.8
7947	4.7543	4.1818	0.1	5209.1
7948	4.7543	4.3636	0.1	5069.3
7949	4.7543	4.5455	0.1	4926.2
7950	4.7543	4.7273	0.1	4784.9
7951	4.7543	4.9091	0.1	4650.4
7952	4.7543	5.0909	0.1	4527.2
7953	4.7543	5.2727	0.1	4419.4
7954	4.7543	5.4545	0.1	4329.6
7955	4.7543	5.6364	0.1	4259.9
7956	4.7543	5.8182	0.1	4212.8
7957	4.9371	0.18182	0.1	3952.2
7958	4.9371	0.36364	0.1	4010.6
7959	4.9371	0.54545	0.1	4097.8
7960	4.9371	0.72727	0.1	4211.2
7961	4.9371	0.90909	0.1	4348.9
7962	4.9371	1.0909	0.1	4507.5
7963	4.9371	1.2727	0.1	4682.1
7964	4.9371	1.4545	0.1	4866.5
7965	4.9371	1.6364	0.1	5054.1
7966	4.9371	1.8182	0.1	5237.9
7967	4.9371	2.	0.1	5411.4
7968	4.9371	2.1818	0.1	5568.5
7969	4.9371	2.3636	0.1	5703.3
7970	4.9371	2.5455	0.1	5810.2
7971	4.9371	2.7273	0.1	5884.3
7972	4.9371	2.9091	0.1	5922.2
7973	4.9371	3.0909	0.1	5922.2
7974	4.9371	3.2727	0.1	5884.3
7975	4.9371	3.4545	0.1	5810.2
7976	4.9371	3.6364	0.1	5703.3
7977	4.9371	3.8182	0.1	5568.5
7978	4.9371	4.	0.1	5411.4
7979	4.9371	4.1818	0.1	5237.9
7980	4.9371	4.3636	0.1	5054.1
7981	4.9371	4.5455	0.1	4866.5
7982	4.9371	4.7273	0.1	4682.1
7983	4.9371	4.9091	0.1	4507.5
7984	4.9371	5.0909	0.1	4348.9
7985	4.9371	5.2727	0.1	4211.2
7986	4.9371	5.4545	0.1	4097.8
7987	4.9371	5.6364	0.1	4010.6
7988	4.9371	5.8182	0.1	3952.2
7989	5.12	0.18182	0.1	3651.
7990	5.12	0.36364	0.1	3721.2
7991	5.12	0.54545	0.1	3828.1
7992	5.12	0.72727	0.1	3969.2
7993	5.12	0.90909	0.1	4142.5
7994	5.12	1.0909	0.1	4344.2
7995	5.12	1.2727	0.1	4568.6
7996	5.12	1.4545	0.1	4807.9
7997	5.12	1.6364	0.1	5052.8
7998	5.12	1.8182	0.1	5293.7
7999	5.12	2.	0.1	5521.5
8000	5.12	2.1818	0.1	5727.4
8001	5.12	2.3636	0.1	5903.4
8002	5.12	2.5455	0.1	6041.9
8003	5.12	2.7273	0.1	6137.1
8004	5.12	2.9091	0.1	6185.5
8005	5.12	3.0909	0.1	6185.5
8006	5.12	3.2727	0.1	6137.1
8007	5.12	3.4545	0.1	6041.9
8008	5.12	3.6364	0.1	5903.4
8009	5.12	3.8182	0.1	5727.4
8010	5.12	4.	0.1	5521.5
8011	5.12	4.1818	0.1	5293.7
8012	5.12	4.3636	0.1	5052.8
8013	5.12	4.5455	0.1	4807.9
8014	5.12	4.7273	0.1	4568.6
8015	5.12	4.9091	0.1	4344.2
8016	5.12	5.0909	0.1	4142.5
8017	5.12	5.2727	0.1	3969.2
8018	5.12	5.4545	0.1	3828.1
8019	5.12	5.6364	0.1	3721.2
8020	5.12	5.8182	0.1	3651.
8021	5.3029	0.18182	0.1	3304.1
8022	5.3029	0.36364	0.1	3386.4
8023	5.3029	0.54545	0.1	3515.6
8024	5.3029	0.72727	0.1	3688.5
8025	5.3029	0.90909	0.1	3903.6
8026	5.3029	1.0909	0.1	4157.1
8027	5.3029	1.2727	0.1	4443.
8028	5.3029	1.4545	0.1	4751.9
8029	5.3029	1.6364	0.1	5071.7
8030	5.3029	1.8182	0.1	5388.1
8031	5.3029	2.	0.1	5687.5
8032	5.3029	2.1818	0.1	5956.7
8033	5.3029	2.3636	0.1	6184.
8034	5.3029	2.5455	0.1	6359.5
8035	5.3029	2.7273	0.1	6477.5
8036	5.3029	2.9091	0.1	6536.3
8037	5.3029	3.0909	0.1	6536.3
8038	5.3029	3.2727	0.1	6477.5
8039	5.3029	3.4545	0.1	6359.5
8040	5.3029	3.6364	0.1	6184.
8041	5.3029	3.8182	0.1	5956.7
8042	5.3029	4.	0.1	5687.5
8043	5.3029	4.1818	0.1	5388.1
8044	5.3029	4.3636	0.1	5071.7
8045	5.3029	4.5455	0.1	4751.9
8046	5.3029	4.7273	0.1	4443.
8047	5.3029	4.9091	0.1	4157.1
8048	5.3029	5.0909	0.1	3903.6
8049	5.3029	5.2727	0.1	3688.5
8050	5.3029	5.4545	0.1	3515.6
8051	5.3029	5.6364	0.1	3386.4
8052	5.3029	5.8182	0.1	3304.1
8053	5.4857	0.18182	0.1	2907.6
8054	5.4857	0.36364	0.1	3002.8
8055	5.4857	0.54545	0.1	3157.2
8056	5.4857	0.72727	0.1	3366.6
8057	5.4857	0.90909	0.1	3629.7
8058	5.4857	1.0909	0.1	3943.6
8059	5.4857	1.2727	0.1	4303.6
8060	5.4857	1.4545	0.1	4701.
8061	5.4857	1.6364	0.1	5119.9
8062	5.4857	1.8182	0.1	5539.4
8063	5.4857	2.	0.1	5936.5
8064	5.4857	2.1818	0.1	6289.2
8065	5.4857	2.3636	0.1	6578.3
8066	5.4857	2.5455	0.1	6791.5
8067	5.4857	2.7273	0.1	6927.5
8068	5.4857	2.9091	0.1	6992.5
8069	5.4857	3.0909	0.1	6992.5
8070	5.4857	3.2727	0.1	6927.5
8071	5.4857	3.4545	0.1	6791.5
8072	5.4857	3.6364	0.1	6578.3
8073	5.4857	3.8182	0.1	6289.2
8074	5.4857	4.	0.1	5936.5
8075	5.4857	4.1818	0.1	5539.4
8076	5.4857	4.3636	0.1	5119.9
8077	5.4857	4.5455	0.1	4701.
8078	5.4857	4.7273	0.1	4303.6
8079	5.4857	4.9091	0.1	3943.6
8080	5.4857	5.0909	0.1	3629.7
8081	5.4857	5.2727	0.1	3366.6
8082	5.4857	5.4545	0.1	3157.2
8083	5.4857	5.6364	0.1	3002.8
8084	5.4857	5.8182	0.1	2907.6
8085	5.6686	0.18182	0.1	2459.8
8086	5.6686	0.36364	0.1	2570.3
8087	5.6686	0.54545	0.1	2755.5
8088	5.6686	0.72727	0.1	3007.2
8089	5.6686	0.90909	0.1	3323.
8090	5.6686	1.0909	0.1	3703.
8091	5.6686	1.2727	0.1	4148.
8092	5.6686	1.4545	0.1	4655.
8093	5.6686	1.6364	0.1	5209.8
8094	5.6686	1.8182	0.1	5777.9
8095	5.6686	2.	0.1	6316.9
8096	5.6686	2.1818	0.1	6782.6
8097	5.6686	2.3636	0.1	7140.
8098	5.6686	2.5455	0.1	7376.3
8099	5.6686	2.7273	0.1	7508.3
8100	5.6686	2.9091	0.1	7564.9
8101	5.6686	3.0909	0.1	7564.9
8102	5.6686	3.2727	0.1	7508.3
8103	5.6686	3.4545	0.1	7376.3
8104	5.6686	3.6364	0.1	7140.
8105	5.6686	3.8182	0.1	6782.6
8106	5.6686	4.	0.1	6316.9
8107	5.6686	4.1818	0.1	5777.9
8108	5.6686	4.3636	0.1	5209.8
8109	5.6686	4.5455	0.1	4655.
8110	5.6686	4.7273	0.1	4148.
8111	5.6686	4.9091	0.1	3703.
8112	5.6686	5.0909	0.1	3323.
8113	5.6686	5.2727	0.1	3007.2
8114	5.6686	5.4545	0.1	2755.5
8115	5.6686	5.6364	0.1	2570.3
8116	5.6686	5.8182	0.1	2459.8
8117	5.8514	0.18182	0.1	1962.9
8118	5.8514	0.36364	0.1	2097.9
8119	5.8514	0.54545	0.1	2325.5
8120	5.8514	0.72727	0.1	2626.5
8121	5.8514	0.90909	0.1	2996.1
8122	5.8514	1.0909	0.1	3439.8
8123	5.8514	1.2727	0.1	3971.3
8124	5.8514	1.4545	0.1	4609.9
8125	5.8514	1.6364	0.1	5351.
8126	5.8514	1.8182	0.1	6156.6
8127	5.8514	2.	0.1	6933.6
8128	5.8514	2.1818	0.1	7553.8
8129	5.8514	2.3636	0.1	7964.
8130	5.8514	2.5455	0.1	8159.1
8131	5.8514	2.7273	0.1	8226.2
8132	5.8514	2.9091	0.1	8241.6
8133	5.8514	3.0909	0.1	8241.6
8134	5.8514	3.2727	0.1	8226.2
8135	5.8514	3.4545	0.1	8159.1
8136	5.8514	3.6364	0.1	7964.
8137	5.8514	3.8182	0.1	7553.8
8138	5.8514	4.	0.1	6933.6
8139	5.8514	4.1818	0.1	6156.6
8140	5.8514	4.3636	0.1	5351.
8141	5.8514	4.5455	0.1	4609.9
8142	5.8514	4.7273	0.1	3971.3
8143	5.8514	4.9091	0.1	3439.8
8144	5.8514	5.0909	0.1	2996.1
8145	5.8514	5.2727	0.1	2626.5
8146	5.8514	5.4545	0.1	2325.5
8147	5.8514	5.6364	0.1	2097.9
8148	5.8514	5.8182	0.1	1962.9
8149	6.0343	0.18182	0.1	1425.
8150	6.0343	0.36364	0.1	1615.
8151	6.0343	0.54545	0.1	1907.9
8152	6.0343	0.72727	0.1	2263.6
8153	6.0343	0.90909	0.1	2678.9
8154	6.0343	1.0909	0.1	3169.3
8155	6.0343	1.2727	0.1	3769.2
8156	6.0343	1.4545	0.1	4528.6
8157	6.0343	1.6364	0.1	5534.7
8158	6.0343	1.8182	0.1	6796.9
8159	6.0343	2.	0.1	7985.7
8160	6.0343	2.1818	0.1	8908.6
8161	6.0343	2.3636	0.1	9208.2
8162	6.0343	2.5455	0.1	9161.7
8163	6.0343	2.7273	0.1	9039.
8164	6.0343	2.9091	0.1	8960.
8165	6.0343	3.0909	0.1	8960.
8166	6.0343	3.2727	0.1	9039.
8167	6.0343	3.4545	0.1	9161.7
8168	6.0343	3.6364	0.1	9208.2
8169	6.0343	3.8182	0.1	8908.6
8170	6.0343	4.	0.1	7985.7
8171	6.0343	4.1818	0.1	6796.9
8172	6.0343	4.3636	0.1	5534.7
8173	6.0343	4.5455	0.1	4528.6
8174	6.0343	4.7273	0.1	3769.2
8175	6.0343	4.9091	0.1	3169.3
8176	6.0343	5.0909	0.1	2678.9
8177	6.0343	5.2727	0.1	2263.6
8178	6.0343	5.4545	0.1	1907.9
8179	6.0343	5.6364	0.1	1615.
8180	6.0343	5.8182	0.1	1425.
8181	6.2171	0.18182	0.1	903.6
8182	6.2171	0.36364	0.1	1243.4
8183	6.2171	0.54545	0.1	1633.5
8184	6.2171	0.72727	0.1	2049.
8185	6.2171	0.90909	0.1	2506.4
8186	6.2171	1.0909	0.1	3034.
8187	6.2171	1.2727	0.1	3677.4
8188	6.2171	1.4545	0.1	4540.4
8189	6.2171	1.6364	0.1	5777.7
8190	6.2171	1.8182	0.1	8239.
8191	6.2171	2.	0.1	11448
8192	6.2171	2.1818	0.1	11614
8193	6.2171	2.3636	0.1	11001
8194	6.2171	2.5455	0.1	10243
8195	6.2171	2.7273	0.1	9797.4
8196	6.2171	2.9091	0.1	9583.6
8197	6.2171	3.0909	0.1	9583.6
8198	6.2171	3.2727	0.1	9797.4
8199	6.2171	3.4545	0.1	10243
8200	6.2171	3.6364	0.1	11001
8201	6.2171	3.8182	0.1	11614
8202	6.2171	4.	0.1	11448
8203	6.2171	4.1818	0.1	8239.
8204	6.2171	4.3636	0.1	5777.7
8205	6.2171	4.5455	0.1	4540.4
8206	6.2171	4.7273	0.1	3677.4
8207	6.2171	4.9091	0.1	3034.
8208	6.2171	5.0909	0.1	2506.4
8209	6.2171	5.2727	0.1	2049.
8210	6.2171	5.4545	0.1	1633.5
8211	6.2171	5.6364	0.1	1243.4
8212	6.2171	5.8182	0.1	903.6
8213	6.5667	3.8182	0.1	15591
8214	6.5667	3.6364	0.1	12399
8215	6.5667	3.4545	0.1	10938
8216	6.5667	3.2727	0.1	10199
8217	6.5667	3.0909	0.1	9882.5
8218	6.5667	2.9091	0.1	9882.5
8219	6.5667	2.7273	0.1	10199
8220	6.5667	2.5455	0.1	10938
8221	6.5667	2.3636	0.1	12399
8222	6.5667	2.1818	0.1	15591
8223	6.4	3.8182	0.1	15602
8224	6.4	3.6364	0.1	12427
8225	6.4	3.4545	0.1	10979
8226	6.4	3.2727	0.1	10243
8227	6.4	3.0909	0.1	9928.8
8228	6.4	2.9091	0.1	9928.8
8229	6.4	2.7273	0.1	10243
8230	6.4	2.5455	0.1	10979
8231	6.4	2.3636	0.1	12427
8232	6.4	2.1818	0.1	15602
8233	6.5667	5.8182	0.1	405.6
8234	6.5667	5.6364	0.1	710.85
8235	6.5667	5.4545	0.1	979.78
8236	6.5667	5.2727	0.1	1250.1
8237	6.5667	5.0909	0.1	1542.6
8238	6.5667	4.9091	0.1	1880.4
8239	6.5667	4.7273	0.1	2294.8
8240	6.5667	4.5455	0.1	2860.5
8241	6.5667	4.3636	0.1	3637.8
8242	6.5667	4.1818	0.1	5516.1
8243	6.5667	4.	0.1	22387
8244	6.4	4.	0.1	22374
8245	6.4	4.1818	0.1	5462.4
8246	6.4	4.3636	0.1	3682.4
8247	6.4	4.5455	0.1	2964.3
8248	6.4	4.7273	0.1	2432.7
8249	6.4	4.9091	0.1	2035.5
8250	6.4	5.0909	0.1	1701.4
8251	6.4	5.2727	0.1	1402.1
8252	6.4	5.4545	0.1	1114.9
8253	6.4	5.6364	0.1	818.99
8254	6.4	5.8182	0.1	472.3
8255	6.5667	0.18182	0.1	405.6
8256	6.5667	0.36364	0.1	710.85
8257	6.5667	0.54545	0.1	979.78
8258	6.5667	0.72727	0.1	1250.1
8259	6.5667	0.90909	0.1	1542.6
8260	6.5667	1.0909	0.1	1880.4
8261	6.5667	1.2727	0.1	2294.8
8262	6.5667	1.4545	0.1	2860.5
8263	6.5667	1.6364	0.1	3637.8
8264	6.5667	1.8182	0.1	5516.1
8265	6.5667	2.	0.1	22387
8266	6.4	2.	0.1	22374
8267	6.4	1.8182	0.1	5462.4
8268	6.4	1.6364	0.1	3682.4
8269	6.4	1.4545	0.1	2964.3
8270	6.4	1.2727	0.1	2432.7
8271	6.4	1.0909	0.1	2035.5
8272	6.4	0.90909	0.1	1701.4
8273	6.4	0.72727	0.1	1402.1
8274	6.4	0.54545	0.1	1114.9
8275	6.4	0.36364	0.1	818.99
8276	6.4	0.18182	0.1	472.3
8277	6.5667	6.	0.1	51.972
8278	6.7502	6.	0.1	539.51
8279	6.9337	6.	0.1	1055.5
8280	7.1172	6.	0.1	1511.4
8281	7.3007	6.	0.1	1912.7
8282	7.4842	6.	0.1	2258.1
8283	7.6677	6.	0.1	2547.8
8284	7.8512	6.	0.1	2784.6
8285	8.0347	6.	0.1	2973.1
8286	8.2182	6.	0.1	3119.
8287	8.4018	6.	0.1	3228.2
8288	8.5853	6.	0.1	3306.4
8289	8.7688	6.	0.1	3358.9
8290	8.9523	6.	0.1	3390.3
8291	9.1358	6.	0.1	3404.5
8292	9.3193	6.	0.1	3404.8
8293	9.5028	6.	0.1	3394.1
8294	9.6863	6.	0.1	3374.4
8295	9.8698	6.	0.1	3347.8
8296	10.053	6.	0.1	3315.6
8297	10.237	6.	0.1	3279.2
8298	10.42	6.	0.1	3239.3
8299	10.604	6.	0.1	3196.8
8300	10.787	6.	0.1	3152.4
8301	10.971	6.	0.1	3106.4
8302	11.154	6.	0.1	3059.4
8303	11.338	6.	0.1	3011.5
8304	11.521	6.	0.1	2963.
8305	11.705	6.	0.1	2914.1
8306	11.888	6.	0.1	2864.9
8307	12.072	6.	0.1	2815.7
8308	12.255	6.	0.1	2766.3
8309	12.439	6.	0.1	2717.
8310	12.622	6.	0.1	2667.8
8311	12.806	6.	0.1	2618.7
8312	12.989	6.	0.1	2569.7
8313	13.173	6.	0.1	2520.8
8314	13.356	6.	0.1	2472.2
8315	13.54	6.	0.1	2423.7
8316	13.724	6.	0.1	2375.5
8317	13.907	6.	0.1	2327.4
8318	14.091	6.	0.1	2279.6
8319	14.274	6.	0.1	2232.
8320	14.458	6.	0.1	2184.6
8321	14.641	6.	0.1	2137.4
8322	14.825	6.	0.1	2090.4
8323	15.008	6.	0.1	2043.7
8324	15.192	6.	0.1	1997.2
8325	15.375	6.	0.1	1950.9
8326	15.559	6.	0.1	1904.7
8327	15.742	6.	0.1	1858.9
8328	15.926	6.	0.1	1813.2
8329	16.109	6.	0.1	1767.7
8330	16.293	6.	0.1	1722.4
8331	16.476	6.	0.1	1677.4
8332	16.66	6.	0.1	1632.5
8333	16.843	6.	0.1	1587.9
8334	17.027	6.	0.1	1543.4
8335	17.21	6.	0.1	1499.2
8336	17.394	6.	0.1	1455.1
8337	17.577	6.	0.1	1411.2
8338	17.761	6.	0.1	1367.6
8339	17.944	6.	0.1	1324.1
8340	18.128	6.	0.1	1280.8
8341	18.311	6.	0.1	1237.7
8342	18.495	6.	0.1	1194.8
8343	18.678	6.	0.1	1152.
8344	18.862	6.	0.1	1109.5
8345	19.045	6.	0.1	1067.1
8346	19.229	6.	0.1	1024.9
8347	19.412	6.	0.1	982.81
8348	19.596	6.	0.1	940.94
8349	19.779	6.	0.1	899.23
8350	19.963	6.	0.1	857.69
8351	20.146	6.	0.1	816.31
8352	20.33	6.	0.1	775.09
8353	20.513	6.	0.1	734.03
8354	20.697	6.	0.1	693.12
8355	20.88	6.	0.1	652.36
8356	21.064	6.	0.1	611.76
8357	21.247	6.	0.1	571.31
8358	21.431	6.	0.1	531.01
8359	21.614	6.	0.1	490.88
8360	21.798	6.	0.1	450.91
8361	21.981	6.	0.1	411.1
8362	22.165	6.	0.1	371.49
8363	22.348	6.	0.1	332.07
8364	22.532	6.	0.1	292.89
8365	22.715	6.	0.1	253.97
8366	22.899	6.	0.1	215.38
8367	23.082	6.	0.1	177.19
8368	23.266	6.	0.1	139.54
8369	23.449	6.	0.1	102.64
8370	23.633	6.	0.1	66.898
8371	23.816	6.	0.1	33.226
8372	24.	6.	0.1	5.1542
8373	24.	5.8182	0.1	6.7063
8374	24.	5.6364	0.1	7.0853
8375	24.	5.4545	0.1	7.2062
8376	24.	5.2727	0.1	7.2443
8377	24.	5.0909	0.1	7.2226
8378	24.	4.9091	0.1	7.1823
8379	24.	4.7273	0.1	7.132
8380	24.	4.5455	0.1	7.0795
8381	24.	4.3636	0.1	7.0284
8382	24.	4.1818	0.1	6.9811
8383	24.	4.	0.1	6.9391
8384	24.	3.8182	0.1	6.9031
8385	24.	3.6364	0.1	6.8738
8386	24.	3.4545	0.1	6.8516
8387	24.	3.2727	0.1	6.8366
8388	24.	3.0909	0.1	6.8291
8389	24.	2.9091	0.1	6.8291
8390	24.	2.7273	0.1	6.8366
8391	24.	2.5455	0.1	6.8516
8392	24.	2.3636	0.1	6.8738
8393	24.	2.1818	0.1	6.9031
8394	24.	2.	0.1	6.9391
8395	24.	1.8182	0.1	6.9812
8396	24.	1.6364	0.1	7.0284
8397	24.	1.4545	0.1	7.0795
8398	24.	1.2727	0.1	7.132
8399	24.	1.0909	0.1	7.1823
8400	24.	0.90909	0.1	7.2226
8401	24.	0.72727	0.1	7.2443
8402	24.	0.54545	0.1	7.2062
8403	24.	0.36364	0.1	7.0853
8404	24.	0.18182	0.1	6.7063
8405	1.5894e-015	0.18182	0.1	2525.4
8406	3.1789e-015	0.36364	0.1	4665.6
8407	4.7683e-015	0.54545	0.1	5711.6
8408	6.3578e-015	0.72727	0.1	6353.4
8409	7.9472e-015	0.90909	0.1	6780.3
8410	9.5366e-015	1.0909	0.1	7084.1
8411	1.1126e-014	1.2727	0.1	7307.9
8412	1.2716e-014	1.4545	0.1	7476.7
8413	1.4305e-014	1.6364	0.1	7605.8
8414	1.5894e-014	1.8182	0.1	7705.3
8415	1.7484e-014	2.	0.1	7781.7
8416	1.9073e-014	2.1818	0.1	7839.9
8417	2.0663e-014	2.3636	0.1	7883.1
8418	2.2252e-014	2.5455	0.1	7913.7
8419	2.3842e-014	2.7273	0.1	7933.3
8420	2.5431e-014	2.9091	0.1	7942.8
8421	2.702e-014	3.0909	0.1	7942.8
8422	2.861e-014	3.2727	0.1	7933.3
8423	3.0199e-014	3.4545	0.1	7913.7
8424	3.1789e-014	3.6364	0.1	7883.1
8425	3.3378e-014	3.8182	0.1	7839.9
8426	3.4968e-014	4.	0.1	7781.7
8427	3.6557e-014	4.1818	0.1	7705.3
8428	3.8147e-014	4.3636	0.1	7605.8
8429	3.9736e-014	4.5455	0.1	7476.7
8430	4.1325e-014	4.7273	0.1	7307.9
8431	4.2915e-014	4.9091	0.1	7084.1
8432	4.4504e-014	5.0909	0.1	6780.3
8433	4.6094e-014	5.2727	0.1	6353.4
8434	4.7683e-014	5.4545	0.1	5711.6
8435	4.9273e-014	5.6364	0.1	4665.6
8436	5.0862e-014	5.8182	0.1	2525.4
8437	24.	0.	0.1	5.1542
8438	23.816	0.	0.1	33.226
8439	23.633	0.	0.1	66.898
8440	23.449	0.	0.1	102.64
8441	23.266	0.	0.1	139.54
8442	23.082	0.	0.1	177.19
8443	22.899	0.	0.1	215.38
8444	22.715	0.	0.1	253.97
8445	22.532	0.	0.1	292.89
8446	22.348	0.	0.1	332.07
8447	22.165	0.	0.1	371.49
8448	21.981	0.	0.1	411.1
8449	21.798	0.	0.1	450.9
8450	21.614	0.	0.1	490.88
8451	21.431	0.	0.1	531.01
8452	21.247	0.	0.1	571.31
8453	21.064	0.	0.1	611.76
8454	20.88	0.	0.1	652.36
8455	20.697	0.	0.1	693.12
8456	20.513	0.	0.1	734.03
8457	20.33	0.	0.1	775.09
8458	20.146	0.	0.1	816.31
8459	19.963	0.	0.1	857.69
8460	19.779	0.	0.1	899.23
8461	19.596	0.	0.1	940.94
8462	19.412	0.	0.1	982.81
8463	19.229	0.	0.1	1024.9
8464	19.045	0.	0.1	1067.1
8465	18.862	0.	0.1	1109.5
8466	18.678	0.	0.1	1152.
8467	18.495	0.	0.1	1194.8
8468	18.311	0.	0.1	1237.7
8469	18.128	0.	0.1	1280.8
8470	17.944	0.	0.1	1324.1
8471	17.761	0.	0.1	1367.6
8472	17.577	0.	0.1	1411.2
8473	17.394	0.	0.1	1455.1
8474	17.21	0.	0.1	1499.2
8475	17.027	0.	0.1	1543.4
8476	16.843	0.	0.1	1587.9
8477	16.66	0.	0.1	1632.5
8478	16.476	0.	0.1	1677.4
8479	16.293	0.	0.1	1722.4
8480	16.109	0.	0.1	1767.7
8481	15.926	0.	0.1	1813.2
8482	15.742	0.	0.1	1858.9
8483	15.559	0.	0.1	1904.7
8484	15.375	0.	0.1	1950.9
8485	15.192	0.	0.1	1997.2
8486	15.008	0.	0.1	2043.7
8487	14.825	0.	0.1	2090.4
8488	14.641	0.	0.1	2137.4
8489	14.458	0.	0.1	2184.6
8490	14.274	0.	0.1	2232.
8491	14.091	0.	0.1	2279.6
8492	13.907	0.	0.1	2327.4
8493	13.724	0.	0.1	2375.5
8494	13.54	0.	0.1	2423.7
8495	13.356	0.	0.1	2472.2
8496	13.173	0.	0.1	2520.8
8497	12.989	0.	0.1	2569.7
8498	12.806	0.	0.1	2618.7
8499	12.622	0.	0.1	2667.8
8500	12.439	0.	0.1	2717.
8501	12.255	0.	0.1	2766.3
8502	12.072	0.	0.1	2815.7
8503	11.888	0.	0.1	2864.9
8504	11.705	0.	0.1	2914.1
8505	11.521	0.	0.1	2963.
8506	11.338	0.	0.1	3011.5
8507	11.154	0.	0.1	3059.4
8508	10.971	0.	0.1	3106.4
8509	10.787	0.	0.1	3152.4
8510	10.604	0.	0.1	3196.8
8511	10.42	0.	0.1	3239.3
8512	10.237	0.	0.1	3279.2
8513	10.053	0.	0.1	3315.6
8514	9.8698	0.	0.1	3347.8
8515	9.6863	0.	0.1	3374.4
8516	9.5028	0.	0.1	3394.1
8517	9.3193	0.	0.1	3404.8
8518	9.1358	0.	0.1	3404.5
8519	8.9523	0.	0.1	3390.3
8520	8.7688	0.	0.1	3358.9
8521	8.5853	0.	0.1	3306.4
8522	8.4018	0.	0.1	3228.2
8523	8.2182	0.	0.1	3119.
8524	8.0347	0.	0.1	2973.1
8525	7.8512	0.	0.1	2784.6
8526	7.6677	0.	0.1	2547.8
8527	7.4842	0.	0.1	2258.1
8528	7.3007	0.	0.1	1912.7
8529	7.1172	0.	0.1	1511.4
8530	6.9337	0.	0.1	1055.5
8531	6.7502	0.	0.1	539.51
8532	6.5667	0.	0.1	51.972
8533	6.4	0.	0.1	60.852
8534	6.2171	-2.1213e-030	0.1	641.24
8535	6.0343	-2.0589e-030	0.1	1267.7
8536	5.8514	-1.9966e-030	0.1	1835.9
8537	5.6686	-1.9342e-030	0.1	2353.
8538	5.4857	-1.8718e-030	0.1	2817.4
8539	5.3029	-1.8094e-030	0.1	3228.6
8540	5.12	-1.747e-030	0.1	3588.5
8541	4.9371	-1.6846e-030	0.1	3901.2
8542	4.7543	-1.6222e-030	0.1	4171.8
8543	4.5714	-1.5598e-030	0.1	4405.8
8544	4.3886	-1.4974e-030	0.1	4608.9
8545	4.2057	-1.435e-030	0.1	4786.
8546	4.0229	-1.3726e-030	0.1	4941.7
8547	3.84	-1.3102e-030	0.1	5079.9
8548	3.6571	-1.2478e-030	0.1	5203.8
8549	3.4743	-1.1855e-030	0.1	5316.
8550	3.2914	-1.1231e-030	0.1	5418.5
8551	3.1086	-1.0607e-030	0.1	5512.9
8552	2.9257	-9.9828e-031	0.1	5600.4
8553	2.7429	-9.3588e-031	0.1	5681.7
8554	2.56	-8.7349e-031	0.1	5756.9
8555	2.3771	-8.111e-031	0.1	5825.9
8556	2.1943	-7.4871e-031	0.1	5888.
8557	2.0114	-6.8632e-031	0.1	5942.
8558	1.8286	-6.2392e-031	0.1	5985.9
8559	1.6457	-5.6153e-031	0.1	6016.5
8560	1.4629	-4.9914e-031	0.1	6029.4
8561	1.28	-4.3675e-031	0.1	6017.6
8562	1.0971	-3.7435e-031	0.1	5970.7
8563	0.91429	-3.1196e-031	0.1	5871.2
8564	0.73143	-2.4957e-031	0.1	5690.5
8565	0.54857	-1.8718e-031	0.1	5367.
8566	0.36571	-1.2478e-031	0.1	4792.6
8567	0.18286	-6.2392e-032	0.1	3579.9
8568	0.	0.	0.1	778.92
8569	3.937e-014	6.	0.1	778.92
8570	0.18286	6.	0.1	3579.9
8571	0.36571	6.	0.1	4792.6
8572	0.54857	6.	0.1	5367.
8573	0.73143	6.	0.1	5690.5
8574	0.91429	6.	0.1	5871.2
8575	1.0971	6.	0.1	5970.7
8576	1.28	6.	0.1	6017.6
8577	1.4629	6.	0.1	6029.4
8578	1.6457	6.	0.1	6016.5
8579	1.8286	6.	0.1	5985.9
8580	2.0114	6.	0.1	5942.
8581	2.1943	6.	0.1	5888.
8582	2.3771	6.	0.1	5825.9
8583	2.56	6.	0.1	5756.9
8584	2.7429	6.	0.1	5681.7
8585	2.9257	6.	0.1	5600.4
8586	3.1086	6.	0.1	5512.9
8587	3.2914	6.	0.1	5418.5
8588	3.4743	6.	0.1	5316.
8589	3.6571	6.	0.1	5203.8
8590	3.84	6.	0.1	5079.9
8591	4.0229	6.	0.1	4941.7
8592	4.2057	6.	0.1	4786.
8593	4.3886	6.	0.1	4608.9
8594	4.5714	6.	0.1	4405.8
8595	4.7543	6.	0.1	4171.8
8596	4.9371	6.	0.1	3901.2
8597	5.12	6.	0.1	3588.5
8598	5.3029	6.	0.1	3228.6
8599	5.4857	6.	0.1	2817.4
8600	5.6686	6.	0.1	2353.
8601	5.8514	6.	0.1	1835.9
8602	6.0343	6.	0.1	1267.7
8603	6.2171	6.	0.1	641.24
8604	6.4	6.	0.1	60.852
8605	6.2171	6.	0.	21.558
8606	6.0343	6.	0.	24.272
8607	5.8514	6.	0.	25.882
8608	5.6686	6.	0.	25.115
8609	5.4857	6.	0.	22.766
8610	5.3029	6.	0.	19.884
8611	5.12	6.	0.	16.92
8612	4.9371	6.	0.	14.147
8613	4.7543	6.	0.	11.682
8614	4.5714	6.	0.	9.5703
8615	4.3886	6.	0.	7.8182
8616	4.2057	6.	0.	6.4198
8617	4.0229	6.	0.	5.3691
8618	3.84	6.	0.	4.6663
8619	3.6571	6.	0.	4.3169
8620	3.4743	6.	0.	4.3285
8621	3.2914	6.	0.	4.7141
8622	3.1086	6.	0.	5.5067
8623	2.9257	6.	0.	6.7672
8624	2.7429	6.	0.	8.5761
8625	2.56	6.	0.	11.027
8626	2.3771	6.	0.	14.229
8627	2.1943	6.	0.	18.319
8628	2.0114	6.	0.	23.47
8629	1.8286	6.	0.	29.911
8630	1.6457	6.	0.	37.954
8631	1.4629	6.	0.	48.026
8632	1.28	6.	0.	60.798
8633	1.0971	6.	0.	77.162
8634	0.91429	6.	0.	99.129
8635	0.73143	6.	0.	128.91
8636	0.54857	6.	0.	175.39
8637	0.36571	6.	0.	254.82
8638	0.18286	6.	0.	442.33
8639	6.4	6.	0.	14.297
8640	3.937e-014	6.	0.	1811.1
8641	0.18286	-6.2392e-032	0.	442.33
8642	0.36571	-1.2478e-031	0.	254.82
8643	0.54857	-1.8718e-031	0.	175.39
8644	0.73143	-2.4957e-031	0.	128.91
8645	0.91429	-3.1196e-031	0.	99.129
8646	1.0971	-3.7435e-031	0.	77.162
8647	1.28	-4.3675e-031	0.	60.798
8648	1.4629	-4.9914e-031	0.	48.026
8649	1.6457	-5.6153e-031	0.	37.954
8650	1.8286	-6.2392e-031	0.	29.911
8651	2.0114	-6.8632e-031	0.	23.47
8652	2.1943	-7.4871e-031	0.	18.319
8653	2.3771	-8.111e-031	0.	14.229
8654	2.56	-8.7349e-031	0.	11.027
8655	2.7429	-9.3588e-031	0.	8.576
8656	2.9257	-9.9828e-031	0.	6.7671
8657	3.1086	-1.0607e-030	0.	5.5066
8658	3.2914	-1.1231e-030	0.	4.714
8659	3.4743	-1.1855e-030	0.	4.3285
8660	3.6571	-1.2478e-030	0.	4.3168
8661	3.84	-1.3102e-030	0.	4.6662
8662	4.0229	-1.3726e-030	0.	5.3691
8663	4.2057	-1.435e-030	0.	6.4198
8664	4.3886	-1.4974e-030	0.	7.8182
8665	4.5714	-1.5598e-030	0.	9.5703
8666	4.7543	-1.6222e-030	0.	11.682
8667	4.9371	-1.6846e-030	0.	14.147
8668	5.12	-1.747e-030	0.	16.92
8669	5.3029	-1.8094e-030	0.	19.884
8670	5.4857	-1.8718e-030	0.	22.766
8671	5.6686	-1.9342e-030	0.	25.115
8672	5.8514	-1.9966e-030	0.	25.882
8673	6.0343	-2.0589e-030	0.	24.272
8674	6.2171	-2.1213e-030	0.	21.558
8675	6.4	0.	0.	14.297
8676	0.	0.	0.	1811.1
8677	6.7502	0.	0.	19.343
8678	6.9337	0.	0.	22.682
8679	7.1172	0.	0.	24.703
8680	7.3007	0.	0.	24.295
8681	7.4842	0.	0.	22.268
8682	7.6677	0.	0.	19.632
8683	7.8512	0.	0.	16.856
8684	8.0347	0.	0.	14.232
8685	8.2182	0.	0.	11.891
8686	8.4018	0.	0.	9.879
8687	8.5853	0.	0.	8.195
8688	8.7688	0.	0.	6.813
8689	8.9523	0.	0.	5.6978
8690	9.1358	0.	0.	4.8129
8691	9.3193	0.	0.	4.1239
8692	9.5028	0.	0.	3.6002
8693	9.6863	0.	0.	3.2158
8694	9.8698	0.	0.	2.9479
8695	10.053	0.	0.	2.7775
8696	10.237	0.	0.	2.6883
8697	10.42	0.	0.	2.6666
8698	10.604	0.	0.	2.7005
8699	10.787	0.	0.	2.7797
8700	10.971	0.	0.	2.8958
8701	11.154	0.	0.	3.0414
8702	11.338	0.	0.	3.2104
8703	11.521	0.	0.	3.3973
8704	11.705	0.	0.	3.5978
8705	11.888	0.	0.	3.8082
8706	12.072	0.	0.	4.0255
8707	12.255	0.	0.	4.2471
8708	12.439	0.	0.	4.4711
8709	12.622	0.	0.	4.6959
8710	12.806	0.	0.	4.9202
8711	12.989	0.	0.	5.143
8712	13.173	0.	0.	5.3636
8713	13.356	0.	0.	5.5816
8714	13.54	0.	0.	5.7965
8715	13.724	0.	0.	6.0084
8716	13.907	0.	0.	6.2171
8717	14.091	0.	0.	6.4226
8718	14.274	0.	0.	6.625
8719	14.458	0.	0.	6.8245
8720	14.641	0.	0.	7.0212
8721	14.825	0.	0.	7.2157
8722	15.008	0.	0.	7.4079
8723	15.192	0.	0.	7.5984
8724	15.375	0.	0.	7.7872
8725	15.559	0.	0.	7.9749
8726	15.742	0.	0.	8.1616
8727	15.926	0.	0.	8.3477
8728	16.109	0.	0.	8.5337
8729	16.293	0.	0.	8.7196
8730	16.476	0.	0.	8.9059
8731	16.66	0.	0.	9.0928
8732	16.843	0.	0.	9.2805
8733	17.027	0.	0.	9.4694
8734	17.21	0.	0.	9.6598
8735	17.394	0.	0.	9.8517
8736	17.577	0.	0.	10.046
8737	17.761	0.	0.	10.241
8738	17.944	0.	0.	10.439
8739	18.128	0.	0.	10.639
8740	18.311	0.	0.	10.842
8741	18.495	0.	0.	11.047
8742	18.678	0.	0.	11.254
8743	18.862	0.	0.	11.464
8744	19.045	0.	0.	11.676
8745	19.229	0.	0.	11.89
8746	19.412	0.	0.	12.106
8747	19.596	0.	0.	12.324
8748	19.779	0.	0.	12.543
8749	19.963	0.	0.	12.763
8750	20.146	0.	0.	12.983
8751	20.33	0.	0.	13.203
8752	20.513	0.	0.	13.421
8753	20.697	0.	0.	13.637
8754	20.88	0.	0.	13.85
8755	21.064	0.	0.	14.057
8756	21.247	0.	0.	14.258
8757	21.431	0.	0.	14.45
8758	21.614	0.	0.	14.631
8759	21.798	0.	0.	14.797
8760	21.981	0.	0.	14.946
8761	22.165	0.	0.	15.072
8762	22.348	0.	0.	15.17
8763	22.532	0.	0.	15.232
8764	22.715	0.	0.	15.248
8765	22.899	0.	0.	15.205
8766	23.082	0.	0.	15.079
8767	23.266	0.	0.	14.839
8768	23.449	0.	0.	14.397
8769	23.633	0.	0.	13.741
8770	23.816	0.	0.	11.46
8771	6.5667	0.	0.	11.941
8772	24.	0.	0.	5.7184
8773	5.0862e-014	5.8182	0.	-1075.1
8774	4.9273e-014	5.6364	0.	-2256.2
8775	4.7683e-014	5.4545	0.	-2797.6
8776	4.6094e-014	5.2727	0.	-3120.1
8777	4.4504e-014	5.0909	0.	-3333.4
8778	4.2915e-014	4.9091	0.	-3484.8
8779	4.1325e-014	4.7273	0.	-3596.2
8780	3.9736e-014	4.5455	0.	-3680.1
8781	3.8147e-014	4.3636	0.	-3744.3
8782	3.6557e-014	4.1818	0.	-3793.7
8783	3.4968e-014	4.	0.	-3831.7
8784	3.3378e-014	3.8182	0.	-3860.7
8785	3.1789e-014	3.6364	0.	-3882.2
8786	3.0199e-014	3.4545	0.	-3897.5
8787	2.861e-014	3.2727	0.	-3907.3
8788	2.702e-014	3.0909	0.	-3912.2
8789	2.5431e-014	2.9091	0.	-3912.2
8790	2.3842e-014	2.7273	0.	-3907.3
8791	2.2252e-014	2.5455	0.	-3897.5
8792	2.0663e-014	2.3636	0.	-3882.2
8793	1.9073e-014	2.1818	0.	-3860.7
8794	1.7484e-014	2.	0.	-3831.7
8795	1.5894e-014	1.8182	0.	-3793.7
8796	1.4305e-014	1.6364	0.	-3744.3
8797	1.2716e-014	1.4545	0.	-3680.1
8798	1.1126e-014	1.2727	0.	-3596.2
8799	9.5366e-015	1.0909	0.	-3484.8
8800	7.9472e-015	0.90909	0.	-3333.4
8801	6.3578e-015	0.72727	0.	-3120.1
8802	4.7683e-015	0.54545	0.	-2797.6
8803	3.1789e-015	0.36364	0.	-2256.2
8804	1.5894e-015	0.18182	0.	-1075.1
8805	24.	0.18182	0.	36.603
8806	24.	0.36364	0.	63.989
8807	24.	0.54545	0.	85.136
8808	24.	0.72727	0.	102.7
8809	24.	0.90909	0.	117.69
8810	24.	1.0909	0.	130.62
8811	24.	1.2727	0.	141.82
8812	24.	1.4545	0.	151.52
8813	24.	1.6364	0.	159.86
8814	24.	1.8182	0.	166.98
8815	24.	2.	0.	172.94
8816	24.	2.1818	0.	177.83
8817	24.	2.3636	0.	181.69
8818	24.	2.5455	0.	184.55
8819	24.	2.7273	0.	186.44
8820	24.	2.9091	0.	187.38
8821	24.	3.0909	0.	187.38
8822	24.	3.2727	0.	186.44
8823	24.	3.4545	0.	184.55
8824	24.	3.6364	0.	181.69
8825	24.	3.8182	0.	177.83
8826	24.	4.	0.	172.94
8827	24.	4.1818	0.	166.98
8828	24.	4.3636	0.	159.86
8829	24.	4.5455	0.	151.52
8830	24.	4.7273	0.	141.82
8831	24.	4.9091	0.	130.62
8832	24.	5.0909	0.	117.69
8833	24.	5.2727	0.	102.7
8834	24.	5.4545	0.	85.136
8835	24.	5.6364	0.	63.989
8836	24.	5.8182	0.	36.603
8837	24.	6.	0.	5.7184
8838	23.816	6.	0.	11.46
8839	23.633	6.	0.	13.741
8840	23.449	6.	0.	14.397
8841	23.266	6.	0.	14.839
8842	23.082	6.	0.	15.079
8843	22.899	6.	0.	15.205
8844	22.715	6.	0.	15.248
8845	22.532	6.	0.	15.232
8846	22.348	6.	0.	15.17
8847	22.165	6.	0.	15.072
8848	21.981	6.	0.	14.946
8849	21.798	6.	0.	14.797
8850	21.614	6.	0.	14.631
8851	21.431	6.	0.	14.45
8852	21.247	6.	0.	14.258
8853	21.064	6.	0.	14.057
8854	20.88	6.	0.	13.849
8855	20.697	6.	0.	13.637
8856	20.513	6.	0.	13.421
8857	20.33	6.	0.	13.203
8858	20.146	6.	0.	12.983
8859	19.963	6.	0.	12.763
8860	19.779	6.	0.	12.543
8861	19.596	6.	0.	12.324
8862	19.412	6.	0.	12.106
8863	19.229	6.	0.	11.89
8864	19.045	6.	0.	11.676
8865	18.862	6.	0.	11.464
8866	18.678	6.	0.	11.254
8867	18.495	6.	0.	11.047
8868	18.311	6.	0.	10.842
8869	18.128	6.	0.	10.639
8870	17.944	6.	0.	10.439
8871	17.761	6.	0.	10.241
8872	17.577	6.	0.	10.045
8873	17.394	6.	0.	9.8517
8874	17.21	6.	0.	9.6597
8875	17.027	6.	0.	9.4694
8876	16.843	6.	0.	9.2805
8877	16.66	6.	0.	9.0927
8878	16.476	6.	0.	8.9058
8879	16.293	6.	0.	8.7196
8880	16.109	6.	0.	8.5336
8881	15.926	6.	0.	8.3477
8882	15.742	6.	0.	8.1616
8883	15.559	6.	0.	7.9748
8884	15.375	6.	0.	7.7872
8885	15.192	6.	0.	7.5983
8886	15.008	6.	0.	7.4079
8887	14.825	6.	0.	7.2156
8888	14.641	6.	0.	7.0212
8889	14.458	6.	0.	6.8244
8890	14.274	6.	0.	6.6249
8891	14.091	6.	0.	6.4225
8892	13.907	6.	0.	6.217
8893	13.724	6.	0.	6.0084
8894	13.54	6.	0.	5.7965
8895	13.356	6.	0.	5.5815
8896	13.173	6.	0.	5.3635
8897	12.989	6.	0.	5.1429
8898	12.806	6.	0.	4.9201
8899	12.622	6.	0.	4.6958
8900	12.439	6.	0.	4.471
8901	12.255	6.	0.	4.2471
8902	12.072	6.	0.	4.0255
8903	11.888	6.	0.	3.8082
8904	11.705	6.	0.	3.5978
8905	11.521	6.	0.	3.3973
8906	11.338	6.	0.	3.2103
8907	11.154	6.	0.	3.0414
8908	10.971	6.	0.	2.8958
8909	10.787	6.	0.	2.7797
8910	10.604	6.	0.	2.7004
8911	10.42	6.	0.	2.6666
8912	10.237	6.	0.	2.6883
8913	10.053	6.	0.	2.7774
8914	9.8698	6.	0.	2.9478
8915	9.6863	6.	0.	3.2157
8916	9.5028	6.	0.	3.6002
8917	9.3193	6.	0.	4.1238
8918	9.1358	6.	0.	4.8129
8919	8.9523	6.	0.	5.6978
8920	8.7688	6.	0.	6.813
8921	8.5853	6.	0.	8.195
8922	8.4018	6.	0.	9.879
8923	8.2182	6.	0.	11.891
8924	8.0347	6.	0.	14.232
8925	7.8512	6.	0.	16.856
8926	7.6677	6.	0.	19.632
8927	7.4842	6.	0.	22.268
8928	7.3007	6.	0.	24.295
8929	7.1172	6.	0.	24.703
8930	6.9337	6.	0.	22.682
8931	6.7502	6.	0.	19.343
8932	6.5667	6.	0.	11.941
8933	6.4	1.8182	0.	5806.3
8934	6.4	1.6364	0.	2831.
8935	6.4	1.4545	0.	2189.6
8936	6.4	1.2727	0.	1620.7
8937	6.4	1.0909	0.	1218.9
8938	6.4	0.90909	0.	904.38
8939	6.4	0.72727	0.	647.36
8940	6.4	0.54545	0.	432.09
8941	6.4	0.36364	0.	250.43
8942	6.4	0.18182	0.	99.203
8943	6.4	2.	0.	4416.1
8944	6.5667	0.18182	0.	80.017
8945	6.5667	0.36364	0.	200.75
8946	6.5667	0.54545	0.	344.63
8947	6.5667	0.72727	0.	514.18
8948	6.5667	0.90909	0.	716.13
8949	6.5667	1.0909	0.	963.45
8950	6.5667	1.2727	0.	1280.
8951	6.5667	1.4545	0.	1736.3
8952	6.5667	1.6364	0.	2211.1
8953	6.5667	1.8182	0.	4832.2
8954	6.5667	2.	0.	3259.1
8955	6.4	4.1818	0.	5806.3
8956	6.4	4.3636	0.	2831.
8957	6.4	4.5455	0.	2189.6
8958	6.4	4.7273	0.	1620.7
8959	6.4	4.9091	0.	1218.9
8960	6.4	5.0909	0.	904.38
8961	6.4	5.2727	0.	647.36
8962	6.4	5.4545	0.	432.09
8963	6.4	5.6364	0.	250.43
8964	6.4	5.8182	0.	99.203
8965	6.4	4.	0.	4416.1
8966	6.5667	5.8182	0.	80.017
8967	6.5667	5.6364	0.	200.75
8968	6.5667	5.4545	0.	344.63
8969	6.5667	5.2727	0.	514.18
8970	6.5667	5.0909	0.	716.13
8971	6.5667	4.9091	0.	963.45
8972	6.5667	4.7273	0.	1280.
8973	6.5667	4.5455	0.	1736.3
8974	6.5667	4.3636	0.	2211.1
8975	6.5667	4.1818	0.	4832.2
8976	6.5667	4.	0.	3259.1
8977	6.4	2.2727	0.	1584.9
8978	6.4833	2.1818	0.	1510.3
8979	6.3086	2.1818	0.	1470.8
8980	6.4	2.1818	5.e-002	552.84
8981	6.4	2.0909	0.	2851.4
8982	6.4	2.4545	0.	1275.3
8983	6.4833	2.3636	0.	1326.
8984	6.3086	2.3636	0.	1226.4
8985	6.4	2.3636	5.e-002	96.502
8986	6.4	2.6364	0.	1082.8
8987	6.4833	2.5455	0.	1121.6
8988	6.3086	2.5455	0.	1029.
8989	6.4	2.5455	5.e-002	45.16
8990	6.4	2.8182	0.	984.77
8991	6.4833	2.7273	0.	1001.7
8992	6.3086	2.7273	0.	929.19
8993	6.4	2.7273	5.e-002	22.979
8994	6.4	3.	0.	954.14
8995	6.4833	2.9091	0.	945.49
8996	6.3086	2.9091	0.	881.23
8997	6.4	2.9091	5.e-002	12.36
8998	6.4	3.1818	0.	984.77
8999	6.4833	3.0909	0.	945.49
9000	6.3086	3.0909	0.	881.23
9001	6.4	3.0909	5.e-002	12.36
9002	6.4	3.3636	0.	1082.8
9003	6.4833	3.2727	0.	1001.7
9004	6.3086	3.2727	0.	929.19
9005	6.4	3.2727	5.e-002	22.979
9006	6.4	3.5455	0.	1275.3
9007	6.4833	3.4545	0.	1121.6
9008	6.3086	3.4545	0.	1029.
9009	6.4	3.4545	5.e-002	45.161
9010	6.4	3.7273	0.	1584.9
9011	6.4833	3.6364	0.	1326.
9012	6.3086	3.6364	0.	1226.5
9013	6.4	3.6364	5.e-002	96.503
9014	6.4833	3.8182	0.	1510.3
9015	6.3086	3.8182	0.	1470.8
9016	6.4	3.8182	5.e-002	552.84
9017	6.4	3.9091	0.	2851.4
9018	6.5667	2.2727	0.	1430.4
9019	6.6584	2.1818	0.	1173.6
9020	6.5667	2.1818	5.e-002	525.24
9021	6.5667	2.0909	0.	2165.5
9022	6.5667	2.4545	0.	1225.
9023	6.6584	2.3636	0.	1106.7
9024	6.5667	2.3636	5.e-002	104.05
9025	6.5667	2.6364	0.	1054.3
9026	6.6584	2.5455	0.	961.73
9027	6.5667	2.5455	5.e-002	51.561
9028	6.5667	2.8182	0.	965.06
9029	6.6584	2.7273	0.	884.87
9030	6.5667	2.7273	5.e-002	29.064
9031	6.5667	3.	0.	936.77
9032	6.6584	2.9091	0.	845.95
9033	6.5667	2.9091	5.e-002	19.737
9034	6.5667	3.1818	0.	965.06
9035	6.6584	3.0909	0.	845.95
9036	6.5667	3.0909	5.e-002	19.737
9037	6.5667	3.3636	0.	1054.3
9038	6.6584	3.2727	0.	884.87
9039	6.5667	3.2727	5.e-002	29.065
9040	6.5667	3.5455	0.	1225.
9041	6.6584	3.4545	0.	961.73
9042	6.5667	3.4545	5.e-002	51.561
9043	6.5667	3.7273	0.	1430.4
9044	6.6584	3.6364	0.	1106.8
9045	6.5667	3.6364	5.e-002	104.05
9046	6.6584	3.8182	0.	1173.6
9047	6.5667	3.8182	5.e-002	525.24
9048	6.5667	3.9091	0.	2165.5
9049	6.2171	5.7273	0.	229.52
9050	6.1257	5.8182	0.	117.28
9051	6.2171	5.8182	5.e-002	74.618
9052	6.2171	5.9091	0.	57.52
9053	6.3086	5.8182	0.	70.682
9054	6.2171	5.5455	0.	448.95
9055	6.1257	5.6364	0.	227.17
9056	6.2171	5.6364	5.e-002	66.871
9057	6.3086	5.6364	0.	231.89
9058	6.2171	5.3636	0.	737.51
9059	6.1257	5.4545	0.	442.67
9060	6.2171	5.4545	5.e-002	70.335
9061	6.3086	5.4545	0.	449.22
9062	6.2171	5.1818	0.	1075.5
9063	6.1257	5.2727	0.	712.95
9064	6.2171	5.2727	5.e-002	77.77
9065	6.3086	5.2727	0.	703.88
9066	6.2171	5.	0.	1469.1
9067	6.1257	5.0909	0.	1027.
9068	6.2171	5.0909	5.e-002	89.054
9069	6.3086	5.0909	0.	1001.
9070	6.2171	4.8182	0.	1937.6
9071	6.1257	4.9091	0.	1387.
9072	6.2171	4.9091	5.e-002	105.12
9073	6.3086	4.9091	0.	1354.7
9074	6.2171	4.6364	0.	2505.4
9075	6.1257	4.7273	0.	1802.3
9076	6.2171	4.7273	5.e-002	130.02
9077	6.3086	4.7273	0.	1789.7
9078	6.2171	4.4545	0.	3252.8
9079	6.1257	4.5455	0.	2266.4
9080	6.2171	4.5455	5.e-002	161.76
9081	6.3086	4.5455	0.	2362.4
9082	6.2171	4.2727	0.	3939.6
9083	6.1257	4.3636	0.	2797.3
9084	6.2171	4.3636	5.e-002	242.63
9085	6.3086	4.3636	0.	3047.5
9086	6.2171	4.0909	0.	3537.4
9087	6.1257	4.1818	0.	3060.3
9088	6.2171	4.1818	5.e-002	455.84
9089	6.3086	4.1818	0.	4665.8
9090	6.2171	3.9091	0.	2061.8
9091	6.1257	4.	0.	2145.5
9092	6.2171	4.	5.e-002	814.58
9093	6.3086	4.	0.	3226.5
9094	6.2171	3.7273	0.	1211.9
9095	6.1257	3.8182	0.	1094.6
9096	6.2171	3.8182	5.e-002	380.44
9097	6.2171	3.5455	0.	1007.5
9098	6.1257	3.6364	0.	867.65
9099	6.2171	3.6364	5.e-002	161.19
9100	6.2171	3.3636	0.	883.36
9101	6.1257	3.4545	0.	757.28
9102	6.2171	3.4545	5.e-002	88.025
9103	6.2171	3.1818	0.	825.89
9104	6.1257	3.2727	0.	705.89
9105	6.2171	3.2727	5.e-002	51.708
9106	6.2171	3.	0.	806.63
9107	6.1257	3.0909	0.	681.54
9108	6.2171	3.0909	5.e-002	39.037
9109	6.2171	2.8182	0.	825.88
9110	6.1257	2.9091	0.	681.54
9111	6.2171	2.9091	5.e-002	39.036
9112	6.2171	2.6364	0.	883.36
9113	6.1257	2.7273	0.	705.89
9114	6.2171	2.7273	5.e-002	51.707
9115	6.2171	2.4545	0.	1007.5
9116	6.1257	2.5455	0.	757.28
9117	6.2171	2.5455	5.e-002	88.024
9118	6.2171	2.2727	0.	1211.9
9119	6.1257	2.3636	0.	867.65
9120	6.2171	2.3636	5.e-002	161.18
9121	6.2171	2.0909	0.	2061.8
9122	6.1257	2.1818	0.	1094.6
9123	6.2171	2.1818	5.e-002	380.44
9124	6.2171	1.9091	0.	3537.4
9125	6.1257	2.	0.	2145.5
9126	6.2171	2.	5.e-002	814.58
9127	6.3086	2.	0.	3226.5
9128	6.2171	1.7273	0.	3939.6
9129	6.1257	1.8182	0.	3060.3
9130	6.2171	1.8182	5.e-002	455.84
9131	6.3086	1.8182	0.	4665.8
9132	6.2171	1.5455	0.	3252.8
9133	6.1257	1.6364	0.	2797.3
9134	6.2171	1.6364	5.e-002	242.63
9135	6.3086	1.6364	0.	3047.5
9136	6.2171	1.3636	0.	2505.4
9137	6.1257	1.4545	0.	2266.4
9138	6.2171	1.4545	5.e-002	161.76
9139	6.3086	1.4545	0.	2362.4
9140	6.2171	1.1818	0.	1937.6
9141	6.1257	1.2727	0.	1802.3
9142	6.2171	1.2727	5.e-002	130.02
9143	6.3086	1.2727	0.	1789.7
9144	6.2171	1.	0.	1469.2
9145	6.1257	1.0909	0.	1387.
9146	6.2171	1.0909	5.e-002	105.12
9147	6.3086	1.0909	0.	1354.7
9148	6.2171	0.81818	0.	1075.5
9149	6.1257	0.90909	0.	1027.
9150	6.2171	0.90909	5.e-002	89.054
9151	6.3086	0.90909	0.	1001.
9152	6.2171	0.63636	0.	737.51
9153	6.1257	0.72727	0.	712.95
9154	6.2171	0.72727	5.e-002	77.769
9155	6.3086	0.72727	0.	703.88
9156	6.2171	0.45455	0.	448.95
9157	6.1257	0.54545	0.	442.67
9158	6.2171	0.54545	5.e-002	70.335
9159	6.3086	0.54545	0.	449.22
9160	6.2171	0.27273	0.	229.52
9161	6.1257	0.36364	0.	227.17
9162	6.2171	0.36364	5.e-002	66.871
9163	6.3086	0.36364	0.	231.89
9164	6.1257	0.18182	0.	117.28
9165	6.2171	0.18182	5.e-002	74.618
9166	6.2171	9.0909e-002	0.	57.52
9167	6.3086	0.18182	0.	70.682
9168	6.0343	5.7273	0.	140.91
9169	5.9429	5.8182	0.	105.59
9170	6.0343	5.8182	5.e-002	67.568
9171	6.0343	5.9091	0.	46.112
9172	6.0343	5.5455	0.	261.86
9173	5.9429	5.6364	0.	158.97
9174	6.0343	5.6364	5.e-002	58.334
9175	6.0343	5.3636	0.	461.29
9176	5.9429	5.4545	0.	295.75
9177	6.0343	5.4545	5.e-002	58.518
9178	6.0343	5.1818	0.	708.52
9179	5.9429	5.2727	0.	485.97
9180	6.0343	5.2727	5.e-002	61.292
9181	6.0343	5.	0.	992.18
9182	5.9429	5.0909	0.	712.04
9183	6.0343	5.0909	5.e-002	66.422
9184	6.0343	4.8182	0.	1306.7
9185	5.9429	4.9091	0.	962.04
9186	6.0343	4.9091	5.e-002	74.242
9187	6.0343	4.6364	0.	1631.6
9188	5.9429	4.7273	0.	1222.3
9189	6.0343	4.7273	5.e-002	84.205
9190	6.0343	4.4545	0.	1910.
9191	5.9429	4.5455	0.	1456.9
9192	6.0343	4.5455	5.e-002	103.23
9193	6.0343	4.2727	0.	1997.2
9194	5.9429	4.3636	0.	1594.7
9195	6.0343	4.3636	5.e-002	99.321
9196	6.0343	4.0909	0.	1635.9
9197	5.9429	4.1818	0.	1486.
9198	6.0343	4.1818	5.e-002	144.75
9199	6.0343	3.9091	0.	1064.7
9200	5.9429	4.	0.	1019.3
9201	6.0343	4.	5.e-002	126.22
9202	6.0343	3.7273	0.	714.85
9203	5.9429	3.8182	0.	628.3
9204	6.0343	3.8182	5.e-002	178.52
9205	6.0343	3.5455	0.	603.48
9206	5.9429	3.6364	0.	472.41
9207	6.0343	3.6364	5.e-002	124.27
9208	6.0343	3.3636	0.	572.58
9209	5.9429	3.4545	0.	436.69
9210	6.0343	3.4545	5.e-002	92.077
9211	6.0343	3.1818	0.	555.76
9212	5.9429	3.2727	0.	422.1
9213	6.0343	3.2727	5.e-002	65.479
9214	6.0343	3.	0.	550.84
9215	5.9429	3.0909	0.	417.41
9216	6.0343	3.0909	5.e-002	54.099
9217	6.0343	2.8182	0.	555.76
9218	5.9429	2.9091	0.	417.41
9219	6.0343	2.9091	5.e-002	54.099
9220	6.0343	2.6364	0.	572.58
9221	5.9429	2.7273	0.	422.1
9222	6.0343	2.7273	5.e-002	65.478
9223	6.0343	2.4545	0.	603.48
9224	5.9429	2.5455	0.	436.69
9225	6.0343	2.5455	5.e-002	92.077
9226	6.0343	2.2727	0.	714.85
9227	5.9429	2.3636	0.	472.41
9228	6.0343	2.3636	5.e-002	124.27
9229	6.0343	2.0909	0.	1064.7
9230	5.9429	2.1818	0.	628.3
9231	6.0343	2.1818	5.e-002	178.52
9232	6.0343	1.9091	0.	1635.9
9233	5.9429	2.	0.	1019.3
9234	6.0343	2.	5.e-002	126.22
9235	6.0343	1.7273	0.	1997.2
9236	5.9429	1.8182	0.	1486.
9237	6.0343	1.8182	5.e-002	144.75
9238	6.0343	1.5455	0.	1910.
9239	5.9429	1.6364	0.	1594.7
9240	6.0343	1.6364	5.e-002	99.321
9241	6.0343	1.3636	0.	1631.6
9242	5.9429	1.4545	0.	1456.9
9243	6.0343	1.4545	5.e-002	103.23
9244	6.0343	1.1818	0.	1306.7
9245	5.9429	1.2727	0.	1222.3
9246	6.0343	1.2727	5.e-002	84.205
9247	6.0343	1.	0.	992.18
9248	5.9429	1.0909	0.	962.05
9249	6.0343	1.0909	5.e-002	74.242
9250	6.0343	0.81818	0.	708.52
9251	5.9429	0.90909	0.	712.04
9252	6.0343	0.90909	5.e-002	66.422
9253	6.0343	0.63636	0.	461.29
9254	5.9429	0.72727	0.	485.97
9255	6.0343	0.72727	5.e-002	61.292
9256	6.0343	0.45455	0.	261.86
9257	5.9429	0.54545	0.	295.75
9258	6.0343	0.54545	5.e-002	58.518
9259	6.0343	0.27273	0.	140.91
9260	5.9429	0.36364	0.	158.97
9261	6.0343	0.36364	5.e-002	58.334
9262	5.9429	0.18182	0.	105.59
9263	6.0343	0.18182	5.e-002	67.568
9264	6.0343	9.0909e-002	0.	46.112
9265	5.8514	5.7273	0.	130.74
9266	5.76	5.8182	0.	106.9
9267	5.8514	5.8182	5.e-002	63.824
9268	5.8514	5.9091	0.	52.176
9269	5.8514	5.5455	0.	210.24
9270	5.76	5.6364	0.	149.46
9271	5.8514	5.6364	5.e-002	54.628
9272	5.8514	5.3636	0.	346.4
9273	5.76	5.4545	0.	242.34
9274	5.8514	5.4545	5.e-002	54.543
9275	5.8514	5.1818	0.	520.27
9276	5.76	5.2727	0.	372.1
9277	5.8514	5.2727	5.e-002	56.05
9278	5.8514	5.	0.	716.14
9279	5.76	5.0909	0.	525.86
9280	5.8514	5.0909	5.e-002	58.587
9281	5.8514	4.8182	0.	915.1
9282	5.76	4.9091	0.	688.09
9283	5.8514	4.9091	5.e-002	61.848
9284	5.8514	4.6364	0.	1087.3
9285	5.76	4.7273	0.	836.7
9286	5.8514	4.7273	5.e-002	64.784
9287	5.8514	4.4545	0.	1175.1
9288	5.76	4.5455	0.	938.54
9289	5.8514	4.5455	5.e-002	64.063
9290	5.8514	4.2727	0.	1103.1
9291	5.76	4.3636	0.	937.5
9292	5.8514	4.3636	5.e-002	63.302
9293	5.8514	4.0909	0.	864.97
9294	5.76	4.1818	0.	787.83
9295	5.8514	4.1818	5.e-002	62.01
9296	5.8514	3.9091	0.	571.95
9297	5.76	4.	0.	538.11
9298	5.8514	4.	5.e-002	78.959
9299	5.8514	3.7273	0.	369.13
9300	5.76	3.8182	0.	312.63
9301	5.8514	3.8182	5.e-002	86.139
9302	5.8514	3.5455	0.	291.33
9303	5.76	3.6364	0.	198.07
9304	5.8514	3.6364	5.e-002	87.063
9305	5.8514	3.3636	0.	275.56
9306	5.76	3.4545	0.	164.65
9307	5.8514	3.4545	5.e-002	73.889
9308	5.8514	3.1818	0.	275.25
9309	5.76	3.2727	0.	159.72
9310	5.8514	3.2727	5.e-002	63.13
9311	5.8514	3.	0.	276.16
9312	5.76	3.0909	0.	160.79
9313	5.8514	3.0909	5.e-002	56.82
9314	5.8514	2.8182	0.	275.25
9315	5.76	2.9091	0.	160.79
9316	5.8514	2.9091	5.e-002	56.819
9317	5.8514	2.6364	0.	275.56
9318	5.76	2.7273	0.	159.72
9319	5.8514	2.7273	5.e-002	63.129
9320	5.8514	2.4545	0.	291.33
9321	5.76	2.5455	0.	164.65
9322	5.8514	2.5455	5.e-002	73.889
9323	5.8514	2.2727	0.	369.14
9324	5.76	2.3636	0.	198.07
9325	5.8514	2.3636	5.e-002	87.062
9326	5.8514	2.0909	0.	571.95
9327	5.76	2.1818	0.	312.63
9328	5.8514	2.1818	5.e-002	86.138
9329	5.8514	1.9091	0.	864.97
9330	5.76	2.	0.	538.11
9331	5.8514	2.	5.e-002	78.959
9332	5.8514	1.7273	0.	1103.1
9333	5.76	1.8182	0.	787.83
9334	5.8514	1.8182	5.e-002	62.01
9335	5.8514	1.5455	0.	1175.1
9336	5.76	1.6364	0.	937.51
9337	5.8514	1.6364	5.e-002	63.302
9338	5.8514	1.3636	0.	1087.3
9339	5.76	1.4545	0.	938.54
9340	5.8514	1.4545	5.e-002	64.063
9341	5.8514	1.1818	0.	915.1
9342	5.76	1.2727	0.	836.7
9343	5.8514	1.2727	5.e-002	64.784
9344	5.8514	1.	0.	716.14
9345	5.76	1.0909	0.	688.09
9346	5.8514	1.0909	5.e-002	61.848
9347	5.8514	0.81818	0.	520.27
9348	5.76	0.90909	0.	525.86
9349	5.8514	0.90909	5.e-002	58.587
9350	5.8514	0.63636	0.	346.4
9351	5.76	0.72727	0.	372.1
9352	5.8514	0.72727	5.e-002	56.05
9353	5.8514	0.45455	0.	210.24
9354	5.76	0.54545	0.	242.34
9355	5.8514	0.54545	5.e-002	54.543
9356	5.8514	0.27273	0.	130.74
9357	5.76	0.36364	0.	149.46
9358	5.8514	0.36364	5.e-002	54.628
9359	5.76	0.18182	0.	106.9
9360	5.8514	0.18182	5.e-002	63.824
9361	5.8514	9.0909e-002	0.	52.176
9362	5.6686	5.7273	0.	128.8
9363	5.5771	5.8182	0.	104.29
9364	5.6686	5.8182	5.e-002	59.038
9365	5.6686	5.9091	0.	55.304
9366	5.6686	5.5455	0.	189.34
9367	5.5771	5.6364	0.	145.47
9368	5.6686	5.6364	5.e-002	49.642
9369	5.6686	5.3636	0.	282.17
9370	5.5771	5.4545	0.	212.18
9371	5.6686	5.4545	5.e-002	49.189
9372	5.6686	5.1818	0.	396.84
9373	5.5771	5.2727	0.	297.82
9374	5.6686	5.2727	5.e-002	49.559
9375	5.6686	5.	0.	520.27
9376	5.5771	5.0909	0.	394.4
9377	5.6686	5.0909	5.e-002	50.032
9378	5.6686	4.8182	0.	633.64
9379	5.5771	4.9091	0.	488.5
9380	5.6686	4.9091	5.e-002	50.082
9381	5.6686	4.6364	0.	710.75
9382	5.5771	4.7273	0.	561.15
9383	5.6686	4.7273	5.e-002	48.852
9384	5.6686	4.4545	0.	718.83
9385	5.5771	4.5455	0.	587.82
9386	5.6686	4.5455	5.e-002	46.046
9387	5.6686	4.2727	0.	631.79
9388	5.5771	4.3636	0.	543.25
9389	5.6686	4.3636	5.e-002	42.767
9390	5.6686	4.0909	0.	464.03
9391	5.5771	4.1818	0.	419.5
9392	5.6686	4.1818	5.e-002	43.688
9393	5.6686	3.9091	0.	277.66
9394	5.5771	4.	0.	252.55
9395	5.6686	4.	5.e-002	49.976
9396	5.6686	3.7273	0.	137.05
9397	5.5771	3.8182	0.	102.56
9398	5.6686	3.8182	5.e-002	55.592
9399	5.6686	3.5455	0.	64.533
9400	5.5771	3.6364	0.	14.311
9401	5.6686	3.6364	5.e-002	58.122
9402	5.6686	3.3636	0.	41.056
9403	5.5771	3.4545	0.	1.8063
9404	5.6686	3.4545	5.e-002	56.835
9405	5.6686	3.1818	0.	37.786
9406	5.5771	3.2727	0.	1.1057
9407	5.6686	3.2727	5.e-002	53.769
9408	5.6686	3.	0.	38.141
9409	5.5771	3.0909	0.	0.97065
9410	5.6686	3.0909	5.e-002	51.551
9411	5.6686	2.8182	0.	37.786
9412	5.5771	2.9091	0.	0.97065
9413	5.6686	2.9091	5.e-002	51.551
9414	5.6686	2.6364	0.	41.056
9415	5.5771	2.7273	0.	1.1057
9416	5.6686	2.7273	5.e-002	53.769
9417	5.6686	2.4545	0.	64.533
9418	5.5771	2.5455	0.	1.8064
9419	5.6686	2.5455	5.e-002	56.834
9420	5.6686	2.2727	0.	137.05
9421	5.5771	2.3636	0.	14.311
9422	5.6686	2.3636	5.e-002	58.122
9423	5.6686	2.0909	0.	277.66
9424	5.5771	2.1818	0.	102.57
9425	5.6686	2.1818	5.e-002	55.592
9426	5.6686	1.9091	0.	464.03
9427	5.5771	2.	0.	252.55
9428	5.6686	2.	5.e-002	49.976
9429	5.6686	1.7273	0.	631.79
9430	5.5771	1.8182	0.	419.5
9431	5.6686	1.8182	5.e-002	43.688
9432	5.6686	1.5455	0.	718.83
9433	5.5771	1.6364	0.	543.25
9434	5.6686	1.6364	5.e-002	42.767
9435	5.6686	1.3636	0.	710.75
9436	5.5771	1.4545	0.	587.82
9437	5.6686	1.4545	5.e-002	46.046
9438	5.6686	1.1818	0.	633.64
9439	5.5771	1.2727	0.	561.15
9440	5.6686	1.2727	5.e-002	48.852
9441	5.6686	1.	0.	520.27
9442	5.5771	1.0909	0.	488.5
9443	5.6686	1.0909	5.e-002	50.082
9444	5.6686	0.81818	0.	396.84
9445	5.5771	0.90909	0.	394.4
9446	5.6686	0.90909	5.e-002	50.032
9447	5.6686	0.63636	0.	282.17
9448	5.5771	0.72727	0.	297.82
9449	5.6686	0.72727	5.e-002	49.559
9450	5.6686	0.45455	0.	189.34
9451	5.5771	0.54545	0.	212.18
9452	5.6686	0.54545	5.e-002	49.189
9453	5.6686	0.27273	0.	128.8
9454	5.5771	0.36364	0.	145.47
9455	5.6686	0.36364	5.e-002	49.642
9456	5.5771	0.18182	0.	104.29
9457	5.6686	0.18182	5.e-002	59.038
9458	5.6686	9.0909e-002	0.	55.304
9459	5.4857	5.7273	0.	122.85
9460	5.3943	5.8182	0.	96.835
9461	5.4857	5.8182	5.e-002	53.549
9462	5.4857	5.9091	0.	53.929
9463	5.4857	5.5455	0.	172.34
9464	5.3943	5.6364	0.	136.82
9465	5.4857	5.6364	5.e-002	44.237
9466	5.4857	5.3636	0.	235.6
9467	5.3943	5.4545	0.	185.8
9468	5.4857	5.4545	5.e-002	43.395
9469	5.4857	5.1818	0.	306.62
9470	5.3943	5.2727	0.	240.02
9471	5.4857	5.2727	5.e-002	42.944
9472	5.4857	5.	0.	376.26
9473	5.3943	5.0909	0.	294.7
9474	5.4857	5.0909	5.e-002	42.157
9475	5.4857	4.8182	0.	430.46
9476	5.3943	4.9091	0.	340.31
9477	5.4857	4.9091	5.e-002	40.653
9478	5.4857	4.6364	0.	451.58
9479	5.3943	4.7273	0.	363.71
9480	5.4857	4.7273	5.e-002	38.174
9481	5.4857	4.4545	0.	422.59
9482	5.3943	4.5455	0.	350.42
9483	5.4857	4.5455	5.e-002	34.926
9484	5.4857	4.2727	0.	337.48
9485	5.3943	4.3636	0.	290.24
9486	5.4857	4.3636	5.e-002	32.526
9487	5.4857	4.0909	0.	211.39
9488	5.3943	4.1818	0.	187.48
9489	5.4857	4.1818	5.e-002	33.072
9490	5.4857	3.9091	0.	79.964
9491	5.3943	4.	0.	67.387
9492	5.4857	4.	5.e-002	35.861
9493	5.4857	3.7273	0.	7.4697
9494	5.3943	3.8182	0.	6.6512
9495	5.4857	3.8182	5.e-002	39.018
9496	5.4857	3.5455	0.	1.9974
9497	5.3943	3.6364	0.	2.0594
9498	5.4857	3.6364	5.e-002	41.586
9499	5.4857	3.3636	0.	1.191
9500	5.3943	3.4545	0.	1.1766
9501	5.4857	3.4545	5.e-002	43.007
9502	5.4857	3.1818	0.	0.9823
9503	5.3943	3.2727	0.	0.91796
9504	5.4857	3.2727	5.e-002	43.216
9505	5.4857	3.	0.	0.95345
9506	5.3943	3.0909	0.	0.86251
9507	5.4857	3.0909	5.e-002	43.023
9508	5.4857	2.8182	0.	0.9823
9509	5.3943	2.9091	0.	0.86251
9510	5.4857	2.9091	5.e-002	43.023
9511	5.4857	2.6364	0.	1.191
9512	5.3943	2.7273	0.	0.91796
9513	5.4857	2.7273	5.e-002	43.216
9514	5.4857	2.4545	0.	1.9974
9515	5.3943	2.5455	0.	1.1766
9516	5.4857	2.5455	5.e-002	43.007
9517	5.4857	2.2727	0.	7.4698
9518	5.3943	2.3636	0.	2.0594
9519	5.4857	2.3636	5.e-002	41.585
9520	5.4857	2.0909	0.	79.964
9521	5.3943	2.1818	0.	6.6513
9522	5.4857	2.1818	5.e-002	39.018
9523	5.4857	1.9091	0.	211.39
9524	5.3943	2.	0.	67.387
9525	5.4857	2.	5.e-002	35.861
9526	5.4857	1.7273	0.	337.48
9527	5.3943	1.8182	0.	187.48
9528	5.4857	1.8182	5.e-002	33.072
9529	5.4857	1.5455	0.	422.59
9530	5.3943	1.6364	0.	290.24
9531	5.4857	1.6364	5.e-002	32.526
9532	5.4857	1.3636	0.	451.58
9533	5.3943	1.4545	0.	350.42
9534	5.4857	1.4545	5.e-002	34.926
9535	5.4857	1.1818	0.	430.46
9536	5.3943	1.2727	0.	363.71
9537	5.4857	1.2727	5.e-002	38.174
9538	5.4857	1.	0.	376.26
9539	5.3943	1.0909	0.	340.31
9540	5.4857	1.0909	5.e-002	40.653
9541	5.4857	0.81818	0.	306.62
9542	5.3943	0.90909	0.	294.7
9543	5.4857	0.90909	5.e-002	42.157
9544	5.4857	0.63636	0.	235.6
9545	5.3943	0.72727	0.	240.02
9546	5.4857	0.72727	5.e-002	42.944
9547	5.4857	0.45455	0.	172.34
9548	5.3943	0.54545	0.	185.8
9549	5.4857	0.54545	5.e-002	43.395
9550	5.4857	0.27273	0.	122.85
9551	5.3943	0.36364	0.	136.82
9552	5.4857	0.36364	5.e-002	44.237
9553	5.3943	0.18182	0.	96.835
9554	5.4857	0.18182	5.e-002	53.549
9555	5.4857	9.0909e-002	0.	53.929
9556	5.3029	5.7273	0.	112.05
9557	5.2114	5.8182	0.	86.096
9558	5.3029	5.8182	5.e-002	47.833
9559	5.3029	5.9091	0.	49.632
9560	5.3029	5.5455	0.	152.58
9561	5.2114	5.6364	0.	122.57
9562	5.3029	5.6364	5.e-002	38.862
9563	5.3029	5.3636	0.	194.61
9564	5.2114	5.4545	0.	157.75
9565	5.3029	5.4545	5.e-002	37.754
9566	5.3029	5.1818	0.	234.55
9567	5.2114	5.2727	0.	189.21
9568	5.3029	5.2727	5.e-002	36.843
9569	5.3029	5.	0.	266.67
9570	5.2114	5.0909	0.	214.3
9571	5.3029	5.0909	5.e-002	35.475
9572	5.3029	4.8182	0.	281.98
9573	5.2114	4.9091	0.	227.08
9574	5.3029	4.9091	5.e-002	33.478
9575	5.3029	4.6364	0.	270.32
9576	5.2114	4.7273	0.	219.71
9577	5.3029	4.7273	5.e-002	30.876
9578	5.3029	4.4545	0.	224.29
9579	5.2114	4.5455	0.	185.
9580	5.3029	4.5455	5.e-002	28.142
9581	5.3029	4.2727	0.	144.71
9582	5.2114	4.3636	0.	120.66
9583	5.3029	4.3636	5.e-002	26.23
9584	5.3029	4.0909	0.	48.237
9585	5.2114	4.1818	0.	38.619
9586	5.3029	4.1818	5.e-002	25.952
9587	5.3029	3.9091	0.	6.1959
9588	5.2114	4.	0.	5.7028
9589	5.3029	4.	5.e-002	27.048
9590	5.3029	3.7273	0.	2.1891
9591	5.2114	3.8182	0.	2.1935
9592	5.3029	3.8182	5.e-002	28.812
9593	5.3029	3.5455	0.	1.1553
9594	5.2114	3.6364	0.	1.1587
9595	5.3029	3.6364	5.e-002	30.762
9596	5.3029	3.3636	0.	0.86155
9597	5.2114	3.4545	0.	0.80707
9598	5.3029	3.4545	5.e-002	32.475
9599	5.3029	3.1818	0.	0.78516
9600	5.2114	3.2727	0.	0.70335
9601	5.3029	3.2727	5.e-002	33.595
9602	5.3029	3.	0.	0.76523
9603	5.2114	3.0909	0.	0.67058
9604	5.3029	3.0909	5.e-002	34.098
9605	5.3029	2.8182	0.	0.78516
9606	5.2114	2.9091	0.	0.67058
9607	5.3029	2.9091	5.e-002	34.098
9608	5.3029	2.6364	0.	0.86155
9609	5.2114	2.7273	0.	0.70336
9610	5.3029	2.7273	5.e-002	33.595
9611	5.3029	2.4545	0.	1.1553
9612	5.2114	2.5455	0.	0.80708
9613	5.3029	2.5455	5.e-002	32.475
9614	5.3029	2.2727	0.	2.1891
9615	5.2114	2.3636	0.	1.1587
9616	5.3029	2.3636	5.e-002	30.761
9617	5.3029	2.0909	0.	6.196
9618	5.2114	2.1818	0.	2.1935
9619	5.3029	2.1818	5.e-002	28.812
9620	5.3029	1.9091	0.	48.238
9621	5.2114	2.	0.	5.7029
9622	5.3029	2.	5.e-002	27.048
9623	5.3029	1.7273	0.	144.71
9624	5.2114	1.8182	0.	38.619
9625	5.3029	1.8182	5.e-002	25.952
9626	5.3029	1.5455	0.	224.29
9627	5.2114	1.6364	0.	120.67
9628	5.3029	1.6364	5.e-002	26.23
9629	5.3029	1.3636	0.	270.32
9630	5.2114	1.4545	0.	185.
9631	5.3029	1.4545	5.e-002	28.142
9632	5.3029	1.1818	0.	281.98
9633	5.2114	1.2727	0.	219.71
9634	5.3029	1.2727	5.e-002	30.875
9635	5.3029	1.	0.	266.67
9636	5.2114	1.0909	0.	227.08
9637	5.3029	1.0909	5.e-002	33.478
9638	5.3029	0.81818	0.	234.55
9639	5.2114	0.90909	0.	214.3
9640	5.3029	0.90909	5.e-002	35.475
9641	5.3029	0.63636	0.	194.61
9642	5.2114	0.72727	0.	189.21
9643	5.3029	0.72727	5.e-002	36.843
9644	5.3029	0.45455	0.	152.58
9645	5.2114	0.54545	0.	157.75
9646	5.3029	0.54545	5.e-002	37.754
9647	5.3029	0.27273	0.	112.05
9648	5.2114	0.36364	0.	122.57
9649	5.3029	0.36364	5.e-002	38.862
9650	5.2114	0.18182	0.	86.096
9651	5.3029	0.18182	5.e-002	47.833
9652	5.3029	9.0909e-002	0.	49.632
9653	5.12	5.7273	0.	97.438
9654	5.0286	5.8182	0.	73.468
9655	5.12	5.8182	5.e-002	42.284
9656	5.12	5.9091	0.	43.552
9657	5.12	5.5455	0.	129.1
9658	5.0286	5.6364	0.	103.93
9659	5.12	5.6364	5.e-002	33.832
9660	5.12	5.3636	0.	154.87
9661	5.0286	5.4545	0.	127.22
9662	5.12	5.4545	5.e-002	32.623
9663	5.12	5.1818	0.	172.64
9664	5.0286	5.2727	0.	141.64
9665	5.12	5.2727	5.e-002	31.541
9666	5.12	5.	0.	179.22
9667	5.0286	5.0909	0.	145.95
9668	5.12	5.0909	5.e-002	30.037
9669	5.12	4.8182	0.	169.62
9670	5.0286	4.9091	0.	136.99
9671	5.12	4.9091	5.e-002	28.062
9672	5.12	4.6364	0.	138.94
9673	5.0286	4.7273	0.	110.92
9674	5.12	4.7273	5.e-002	25.752
9675	5.12	4.4545	0.	85.521
9676	5.0286	4.5455	0.	65.936
9677	5.12	4.5455	5.e-002	23.476
9678	5.12	4.2727	0.	22.656
9679	5.0286	4.3636	0.	16.154
9680	5.12	4.3636	5.e-002	21.779
9681	5.12	4.0909	0.	4.4895
9682	5.0286	4.1818	0.	3.9934
9683	5.12	4.1818	5.e-002	21.02
9684	5.12	3.9091	0.	1.9286
9685	5.0286	4.	0.	1.8831
9686	5.12	4.	5.e-002	21.142
9687	5.12	3.7273	0.	1.0923
9688	5.0286	3.8182	0.	1.0876
9689	5.12	3.8182	5.e-002	21.904
9690	5.12	3.5455	0.	0.76009
9691	5.0286	3.6364	0.	0.73161
9692	5.12	3.6364	5.e-002	23.093
9693	5.12	3.3636	0.	0.62332
9694	5.0286	3.4545	0.	0.56956
9695	5.12	3.4545	5.e-002	24.401
9696	5.12	3.1818	0.	0.57651
9697	5.0286	3.2727	0.	0.50567
9698	5.12	3.2727	5.e-002	25.47
9699	5.12	3.	0.	0.56745
9700	5.0286	3.0909	0.	0.48825
9701	5.12	3.0909	5.e-002	26.05
9702	5.12	2.8182	0.	0.57651
9703	5.0286	2.9091	0.	0.48825
9704	5.12	2.9091	5.e-002	26.05
9705	5.12	2.6364	0.	0.62332
9706	5.0286	2.7273	0.	0.50567
9707	5.12	2.7273	5.e-002	25.47
9708	5.12	2.4545	0.	0.76009
9709	5.0286	2.5455	0.	0.56956
9710	5.12	2.5455	5.e-002	24.401
9711	5.12	2.2727	0.	1.0923
9712	5.0286	2.3636	0.	0.73161
9713	5.12	2.3636	5.e-002	23.093
9714	5.12	2.0909	0.	1.9286
9715	5.0286	2.1818	0.	1.0876
9716	5.12	2.1818	5.e-002	21.904
9717	5.12	1.9091	0.	4.4895
9718	5.0286	2.	0.	1.8831
9719	5.12	2.	5.e-002	21.142
9720	5.12	1.7273	0.	22.656
9721	5.0286	1.8182	0.	3.9935
9722	5.12	1.8182	5.e-002	21.02
9723	5.12	1.5455	0.	85.521
9724	5.0286	1.6364	0.	16.154
9725	5.12	1.6364	5.e-002	21.779
9726	5.12	1.3636	0.	138.94
9727	5.0286	1.4545	0.	65.936
9728	5.12	1.4545	5.e-002	23.476
9729	5.12	1.1818	0.	169.62
9730	5.0286	1.2727	0.	110.92
9731	5.12	1.2727	5.e-002	25.752
9732	5.12	1.	0.	179.22
9733	5.0286	1.0909	0.	136.99
9734	5.12	1.0909	5.e-002	28.062
9735	5.12	0.81818	0.	172.64
9736	5.0286	0.90909	0.	145.95
9737	5.12	0.90909	5.e-002	30.037
9738	5.12	0.63636	0.	154.87
9739	5.0286	0.72727	0.	141.64
9740	5.12	0.72727	5.e-002	31.541
9741	5.12	0.45455	0.	129.1
9742	5.0286	0.54545	0.	127.22
9743	5.12	0.54545	5.e-002	32.622
9744	5.12	0.27273	0.	97.439
9745	5.0286	0.36364	0.	103.93
9746	5.12	0.36364	5.e-002	33.832
9747	5.0286	0.18182	0.	73.468
9748	5.12	0.18182	5.e-002	42.284
9749	5.12	9.0909e-002	0.	43.552
9750	4.9371	5.7273	0.	80.486
9751	4.8457	5.8182	0.	60.072
9752	4.9371	5.8182	5.e-002	37.184
9753	4.9371	5.9091	0.	36.59
9754	4.9371	5.5455	0.	102.86
9755	4.8457	5.6364	0.	82.566
9756	4.9371	5.6364	5.e-002	29.327
9757	4.9371	5.3636	0.	115.45
9758	4.8457	5.4545	0.	95.024
9759	4.9371	5.4545	5.e-002	28.148
9760	4.9371	5.1818	0.	117.05
9761	4.8457	5.2727	0.	96.158
9762	4.9371	5.2727	5.e-002	27.089
9763	4.9371	5.	0.	106.29
9764	4.8457	5.0909	0.	85.733
9765	4.9371	5.0909	5.e-002	25.686
9766	4.9371	4.8182	0.	81.154
9767	4.8457	4.9091	0.	62.775
9768	4.9371	4.9091	5.e-002	23.945
9769	4.9371	4.6364	0.	41.679
9770	4.8457	4.7273	0.	28.605
9771	4.9371	4.7273	5.e-002	22.
9772	4.9371	4.4545	0.	8.9444
9773	4.8457	4.5455	0.	6.3706
9774	4.9371	4.5455	5.e-002	20.099
9775	4.9371	4.2727	0.	3.0832
9776	4.8457	4.3636	0.	2.6237
9777	4.9371	4.3636	5.e-002	18.524
9778	4.9371	4.0909	0.	1.6601
9779	4.8457	4.1818	0.	1.5177
9780	4.9371	4.1818	5.e-002	17.462
9781	4.9371	3.9091	0.	1.0335
9782	4.8457	4.	0.	0.98205
9783	4.9371	4.	5.e-002	16.951
9784	4.9371	3.7273	0.	0.696
9785	4.8457	3.8182	0.	0.671
9786	4.9371	3.8182	5.e-002	16.955
9787	4.9371	3.5455	0.	0.51678
9788	4.8457	3.6364	0.	0.48792
9789	4.9371	3.6364	5.e-002	17.409
9790	4.9371	3.3636	0.	0.43642
9791	4.8457	3.4545	0.	0.39386
9792	4.9371	3.4545	5.e-002	18.13
9793	4.9371	3.1818	0.	0.40765
9794	4.8457	3.2727	0.	0.35407
9795	4.9371	3.2727	5.e-002	18.833
9796	4.9371	3.	0.	0.40115
9797	4.8457	3.0909	0.	0.34119
9798	4.9371	3.0909	5.e-002	19.256
9799	4.9371	2.8182	0.	0.40765
9800	4.8457	2.9091	0.	0.34119
9801	4.9371	2.9091	5.e-002	19.256
9802	4.9371	2.6364	0.	0.43642
9803	4.8457	2.7273	0.	0.35407
9804	4.9371	2.7273	5.e-002	18.833
9805	4.9371	2.4545	0.	0.51678
9806	4.8457	2.5455	0.	0.39386
9807	4.9371	2.5455	5.e-002	18.13
9808	4.9371	2.2727	0.	0.69601
9809	4.8457	2.3636	0.	0.48792
9810	4.9371	2.3636	5.e-002	17.409
9811	4.9371	2.0909	0.	1.0335
9812	4.8457	2.1818	0.	0.67101
9813	4.9371	2.1818	5.e-002	16.955
9814	4.9371	1.9091	0.	1.6601
9815	4.8457	2.	0.	0.98205
9816	4.9371	2.	5.e-002	16.951
9817	4.9371	1.7273	0.	3.0832
9818	4.8457	1.8182	0.	1.5177
9819	4.9371	1.8182	5.e-002	17.463
9820	4.9371	1.5455	0.	8.9445
9821	4.8457	1.6364	0.	2.6237
9822	4.9371	1.6364	5.e-002	18.524
9823	4.9371	1.3636	0.	41.679
9824	4.8457	1.4545	0.	6.3707
9825	4.9371	1.4545	5.e-002	20.099
9826	4.9371	1.1818	0.	81.154
9827	4.8457	1.2727	0.	28.605
9828	4.9371	1.2727	5.e-002	22.
9829	4.9371	1.	0.	106.29
9830	4.8457	1.0909	0.	62.775
9831	4.9371	1.0909	5.e-002	23.945
9832	4.9371	0.81818	0.	117.05
9833	4.8457	0.90909	0.	85.733
9834	4.9371	0.90909	5.e-002	25.686
9835	4.9371	0.63636	0.	115.45
9836	4.8457	0.72727	0.	96.158
9837	4.9371	0.72727	5.e-002	27.089
9838	4.9371	0.45455	0.	102.86
9839	4.8457	0.54545	0.	95.024
9840	4.9371	0.54545	5.e-002	28.148
9841	4.9371	0.27273	0.	80.486
9842	4.8457	0.36364	0.	82.566
9843	4.9371	0.36364	5.e-002	29.327
9844	4.8457	0.18182	0.	60.072
9845	4.9371	0.18182	5.e-002	37.184
9846	4.9371	9.0909e-002	0.	36.59
9847	4.7543	5.7273	0.	62.469
9848	4.6629	5.8182	0.	46.707
9849	4.7543	5.8182	5.e-002	32.697
9850	4.7543	5.9091	0.	29.363
9851	4.7543	5.5455	0.	75.19
9852	4.6629	5.6364	0.	59.945
9853	4.7543	5.6364	5.e-002	25.421
9854	4.7543	5.3636	0.	76.563
9855	4.6629	5.4545	0.	62.269
9856	4.7543	5.4545	5.e-002	24.356
9857	4.7543	5.1818	0.	66.053
9858	4.6629	5.2727	0.	52.725
9859	4.7543	5.2727	5.e-002	23.429
9860	4.7543	5.	0.	43.947
9861	4.6629	5.0909	0.	32.377
9862	4.7543	5.0909	5.e-002	22.23
9863	4.7543	4.8182	0.	15.244
9864	4.6629	4.9091	0.	9.3916
9865	4.7543	4.9091	5.e-002	20.78
9866	4.7543	4.6364	0.	4.0297
9867	4.6629	4.7273	0.	3.0377
9868	4.7543	4.7273	5.e-002	19.179
9869	4.7543	4.4545	0.	2.0213
9870	4.6629	4.5455	0.	1.6988
9871	4.7543	4.5455	5.e-002	17.572
9872	4.7543	4.2727	0.	1.2744
9873	4.6629	4.3636	0.	1.1352
9874	4.7543	4.3636	5.e-002	16.102
9875	4.7543	4.0909	0.	0.86832
9876	4.6629	4.1818	0.	0.80617
9877	4.7543	4.1818	5.e-002	14.87
9878	4.7543	3.9091	0.	0.61191
9879	4.6629	4.	0.	0.58355
9880	4.7543	4.	5.e-002	13.933
9881	4.7543	3.7273	0.	0.44878
9882	4.6629	3.8182	0.	0.42945
9883	4.7543	3.8182	5.e-002	13.344
9884	4.7543	3.5455	0.	0.35228
9885	4.6629	3.6364	0.	0.32936
9886	4.7543	3.6364	5.e-002	13.135
9887	4.7543	3.3636	0.	0.30187
9888	4.6629	3.4545	0.	0.27105
9889	4.7543	3.4545	5.e-002	13.246
9890	4.7543	3.1818	0.	0.28035
9891	4.6629	3.2727	0.	0.24228
9892	4.7543	3.2727	5.e-002	13.502
9893	4.7543	3.	0.	0.27483
9894	4.6629	3.0909	0.	0.2315
9895	4.7543	3.0909	5.e-002	13.695
9896	4.7543	2.8182	0.	0.28036
9897	4.6629	2.9091	0.	0.2315
9898	4.7543	2.9091	5.e-002	13.695
9899	4.7543	2.6364	0.	0.30187
9900	4.6629	2.7273	0.	0.24228
9901	4.7543	2.7273	5.e-002	13.502
9902	4.7543	2.4545	0.	0.35228
9903	4.6629	2.5455	0.	0.27105
9904	4.7543	2.5455	5.e-002	13.246
9905	4.7543	2.2727	0.	0.44878
9906	4.6629	2.3636	0.	0.32936
9907	4.7543	2.3636	5.e-002	13.135
9908	4.7543	2.0909	0.	0.61191
9909	4.6629	2.1818	0.	0.42945
9910	4.7543	2.1818	5.e-002	13.344
9911	4.7543	1.9091	0.	0.86833
9912	4.6629	2.	0.	0.58355
9913	4.7543	2.	5.e-002	13.933
9914	4.7543	1.7273	0.	1.2744
9915	4.6629	1.8182	0.	0.80617
9916	4.7543	1.8182	5.e-002	14.87
9917	4.7543	1.5455	0.	2.0213
9918	4.6629	1.6364	0.	1.1352
9919	4.7543	1.6364	5.e-002	16.102
9920	4.7543	1.3636	0.	4.0298
9921	4.6629	1.4545	0.	1.6988
9922	4.7543	1.4545	5.e-002	17.572
9923	4.7543	1.1818	0.	15.244
9924	4.6629	1.2727	0.	3.0377
9925	4.7543	1.2727	5.e-002	19.179
9926	4.7543	1.	0.	43.947
9927	4.6629	1.0909	0.	9.3917
9928	4.7543	1.0909	5.e-002	20.78
9929	4.7543	0.81818	0.	66.053
9930	4.6629	0.90909	0.	32.378
9931	4.7543	0.90909	5.e-002	22.23
9932	4.7543	0.63636	0.	76.564
9933	4.6629	0.72727	0.	52.725
9934	4.7543	0.72727	5.e-002	23.429
9935	4.7543	0.45455	0.	75.19
9936	4.6629	0.54545	0.	62.27
9937	4.7543	0.54545	5.e-002	24.356
9938	4.7543	0.27273	0.	62.469
9939	4.6629	0.36364	0.	59.945
9940	4.7543	0.36364	5.e-002	25.421
9941	4.6629	0.18182	0.	46.707
9942	4.7543	0.18182	5.e-002	32.697
9943	4.7543	9.0909e-002	0.	29.363
9944	4.5714	5.7273	0.	44.362
9945	4.48	5.8182	0.	33.916
9946	4.5714	5.8182	5.e-002	28.895
9947	4.5714	5.9091	0.	22.277
9948	4.5714	5.5455	0.	47.28
9949	4.48	5.6364	0.	37.219
9950	4.5714	5.6364	5.e-002	22.12
9951	4.5714	5.3636	0.	38.948
9952	4.48	5.4545	0.	30.158
9953	4.5714	5.4545	5.e-002	21.212
9954	4.5714	5.1818	0.	20.396
9955	4.48	5.2727	0.	13.677
9956	4.5714	5.2727	5.e-002	20.463
9957	4.5714	5.	0.	5.0308
9958	4.48	5.0909	0.	3.3942
9959	4.5714	5.0909	5.e-002	19.499
9960	4.5714	4.8182	0.	2.1321
9961	4.48	4.9091	0.	1.6779
9962	4.5714	4.9091	5.e-002	18.333
9963	4.5714	4.6364	0.	1.3333
9964	4.48	4.7273	0.	1.1228
9965	4.5714	4.7273	5.e-002	17.029
9966	4.5714	4.4545	0.	0.94643
9967	4.48	4.5455	0.	0.83174
9968	4.5714	4.5455	5.e-002	15.662
9969	4.5714	4.2727	0.	0.70236
9970	4.48	4.3636	0.	0.63814
9971	4.5714	4.3636	5.e-002	14.301
9972	4.5714	4.0909	0.	0.52717
9973	4.48	4.1818	0.	0.49195
9974	4.5714	4.1818	5.e-002	12.996
9975	4.5714	3.9091	0.	0.39674
9976	4.48	4.	0.	0.37675
9977	4.5714	4.	5.e-002	11.792
9978	4.5714	3.7273	0.	0.30278
9979	4.48	3.8182	0.	0.28802
9980	4.5714	3.8182	5.e-002	10.755
9981	4.5714	3.5455	0.	0.24092
9982	4.48	3.6364	0.	0.22456
9983	4.5714	3.6364	5.e-002	9.9719
9984	4.5714	3.3636	0.	0.20526
9985	4.48	3.4545	0.	0.18414
9986	4.5714	3.4545	5.e-002	9.4908
9987	4.5714	3.1818	0.	0.18816
9988	4.48	3.2727	0.	0.16196
9989	4.5714	3.2727	5.e-002	9.2711
9990	4.5714	3.	0.	0.18327
9991	4.48	3.0909	0.	0.15261
9992	4.5714	3.0909	5.e-002	9.2052
9993	4.5714	2.8182	0.	0.18816
9994	4.48	2.9091	0.	0.15261
9995	4.5714	2.9091	5.e-002	9.2052
9996	4.5714	2.6364	0.	0.20526
9997	4.48	2.7273	0.	0.16196
9998	4.5714	2.7273	5.e-002	9.2711
9999	4.5714	2.4545	0.	0.24092
10000	4.48	2.5455	0.	0.18414
10001	4.5714	2.5455	5.e-002	9.4909
10002	4.5714	2.2727	0.	0.30279
10003	4.48	2.3636	0.	0.22456
10004	4.5714	2.3636	5.e-002	9.972
10005	4.5714	2.0909	0.	0.39674
10006	4.48	2.1818	0.	0.28802
10007	4.5714	2.1818	5.e-002	10.755
10008	4.5714	1.9091	0.	0.52717
10009	4.48	2.	0.	0.37675
10010	4.5714	2.	5.e-002	11.792
10011	4.5714	1.7273	0.	0.70236
10012	4.48	1.8182	0.	0.49195
10013	4.5714	1.8182	5.e-002	12.996
10014	4.5714	1.5455	0.	0.94643
10015	4.48	1.6364	0.	0.63814
10016	4.5714	1.6364	5.e-002	14.301
10017	4.5714	1.3636	0.	1.3333
10018	4.48	1.4545	0.	0.83174
10019	4.5714	1.4545	5.e-002	15.662
10020	4.5714	1.1818	0.	2.1321
10021	4.48	1.2727	0.	1.1228
10022	4.5714	1.2727	5.e-002	17.028
10023	4.5714	1.	0.	5.0308
10024	4.48	1.0909	0.	1.6779
10025	4.5714	1.0909	5.e-002	18.333
10026	4.5714	0.81818	0.	20.396
10027	4.48	0.90909	0.	3.3942
10028	4.5714	0.90909	5.e-002	19.499
10029	4.5714	0.63636	0.	38.948
10030	4.48	0.72727	0.	13.677
10031	4.5714	0.72727	5.e-002	20.463
10032	4.5714	0.45455	0.	47.28
10033	4.48	0.54545	0.	30.158
10034	4.5714	0.54545	5.e-002	21.212
10035	4.5714	0.27273	0.	44.362
10036	4.48	0.36364	0.	37.219
10037	4.5714	0.36364	5.e-002	22.12
10038	4.48	0.18182	0.	33.916
10039	4.5714	0.18182	5.e-002	28.895
10040	4.5714	9.0909e-002	0.	22.277
10041	4.3886	5.7273	0.	26.881
10042	4.2971	5.8182	0.	22.082
10043	4.3886	5.8182	5.e-002	25.788
10044	4.3886	5.9091	0.	15.582
10045	4.3886	5.5455	0.	20.34
10046	4.2971	5.6364	0.	15.519
10047	4.3886	5.6364	5.e-002	19.393
10048	4.3886	5.3636	0.	7.0733
10049	4.2971	5.4545	0.	4.5426
10050	4.3886	5.4545	5.e-002	18.652
10051	4.3886	5.1818	0.	2.1377
10052	4.2971	5.2727	0.	1.606
10053	4.3886	5.2727	5.e-002	18.091
10054	4.3886	5.	0.	1.2519
10055	4.2971	5.0909	0.	1.023
10056	4.3886	5.0909	5.e-002	17.353
10057	4.3886	4.8182	0.	0.90025
10058	4.2971	4.9091	0.	0.76875
10059	4.3886	4.9091	5.e-002	16.44
10060	4.3886	4.6364	0.	0.69631
10061	4.2971	4.7273	0.	0.61322
10062	4.3886	4.7273	5.e-002	15.385
10063	4.3886	4.4545	0.	0.55179
10064	4.2971	4.5455	0.	0.49856
10065	4.3886	4.5455	5.e-002	14.223
10066	4.3886	4.2727	0.	0.4374
10067	4.2971	4.3636	0.	0.40442
10068	4.3886	4.3636	5.e-002	12.982
10069	4.3886	4.0909	0.	0.34273
10070	4.2971	4.1818	0.	0.32323
10071	4.3886	4.1818	5.e-002	11.68
10072	4.3886	3.9091	0.	0.26538
10073	4.2971	4.	0.	0.25343
10074	4.3886	4.	5.e-002	10.342
10075	4.3886	3.7273	0.	0.20565
10076	4.2971	3.8182	0.	0.19616
10077	4.3886	3.8182	5.e-002	9.0141
10078	4.3886	3.5455	0.	0.16337
10079	4.2971	3.6364	0.	0.15266
10080	4.3886	3.6364	5.e-002	7.7776
10081	4.3886	3.3636	0.	0.13669
10082	4.2971	3.4545	0.	0.1228
10083	4.3886	3.4545	5.e-002	6.7361
10084	4.3886	3.1818	0.	0.1226
10085	4.2971	3.2727	0.	0.10493
10086	4.3886	3.2727	5.e-002	5.9886
10087	4.3886	3.	0.	0.11828
10088	4.2971	3.0909	0.	9.6799e-002
10089	4.3886	3.0909	5.e-002	5.6012
10090	4.3886	2.8182	0.	0.1226
10091	4.2971	2.9091	0.	9.6799e-002
10092	4.3886	2.9091	5.e-002	5.6012
10093	4.3886	2.6364	0.	0.13669
10094	4.2971	2.7273	0.	0.10493
10095	4.3886	2.7273	5.e-002	5.9886
10096	4.3886	2.4545	0.	0.16337
10097	4.2971	2.5455	0.	0.1228
10098	4.3886	2.5455	5.e-002	6.7362
10099	4.3886	2.2727	0.	0.20565
10100	4.2971	2.3636	0.	0.15266
10101	4.3886	2.3636	5.e-002	7.7777
10102	4.3886	2.0909	0.	0.26538
10103	4.2971	2.1818	0.	0.19616
10104	4.3886	2.1818	5.e-002	9.0142
10105	4.3886	1.9091	0.	0.34274
10106	4.2971	2.	0.	0.25343
10107	4.3886	2.	5.e-002	10.342
10108	4.3886	1.7273	0.	0.4374
10109	4.2971	1.8182	0.	0.32323
10110	4.3886	1.8182	5.e-002	11.68
10111	4.3886	1.5455	0.	0.5518
10112	4.2971	1.6364	0.	0.40442
10113	4.3886	1.6364	5.e-002	12.982
10114	4.3886	1.3636	0.	0.69631
10115	4.2971	1.4545	0.	0.49856
10116	4.3886	1.4545	5.e-002	14.223
10117	4.3886	1.1818	0.	0.90025
10118	4.2971	1.2727	0.	0.61322
10119	4.3886	1.2727	5.e-002	15.385
10120	4.3886	1.	0.	1.2519
10121	4.2971	1.0909	0.	0.76875
10122	4.3886	1.0909	5.e-002	16.44
10123	4.3886	0.81818	0.	2.1377
10124	4.2971	0.90909	0.	1.023
10125	4.3886	0.90909	5.e-002	17.353
10126	4.3886	0.63636	0.	7.0733
10127	4.2971	0.72727	0.	1.606
10128	4.3886	0.72727	5.e-002	18.091
10129	4.3886	0.45455	0.	20.34
10130	4.2971	0.54545	0.	4.5426
10131	4.3886	0.54545	5.e-002	18.651
10132	4.3886	0.27273	0.	26.881
10133	4.2971	0.36364	0.	15.519
10134	4.3886	0.36364	5.e-002	19.392
10135	4.2971	0.18182	0.	22.082
10136	4.3886	0.18182	5.e-002	25.787
10137	4.3886	9.0909e-002	0.	15.582
10138	4.2057	5.7273	0.	10.901
10139	4.1143	5.8182	0.	11.661
10140	4.2057	5.8182	5.e-002	23.346
10141	4.2057	5.9091	0.	9.4236
10142	4.2057	5.5455	0.	2.4681
10143	4.1143	5.6364	0.	2.09
10144	4.2057	5.6364	5.e-002	17.186
10145	4.2057	5.3636	0.	1.1395
10146	4.1143	5.4545	0.	0.95026
10147	4.2057	5.4545	5.e-002	16.602
10148	4.2057	5.1818	0.	0.80153
10149	4.1143	5.2727	0.	0.6885
10150	4.2057	5.2727	5.e-002	16.218
10151	4.2057	5.	0.	0.63337
10152	4.1143	5.0909	0.	0.55606
10153	4.2057	5.0909	5.e-002	15.683
10154	4.2057	4.8182	0.	0.52141
10155	4.1143	4.9091	0.	0.46665
10156	4.2057	4.9091	5.e-002	14.986
10157	4.2057	4.6364	0.	0.43422
10158	4.1143	4.7273	0.	0.39535
10159	4.2057	4.7273	5.e-002	14.14
10160	4.2057	4.4545	0.	0.35974
10161	4.1143	4.5455	0.	0.33309
10162	4.2057	4.5455	5.e-002	13.158
10163	4.2057	4.2727	0.	0.29325
10164	4.1143	4.3636	0.	0.27603
10165	4.2057	4.3636	5.e-002	12.044
10166	4.2057	4.0909	0.	0.2338
10167	4.1143	4.1818	0.	0.22329
10168	4.2057	4.1818	5.e-002	10.804
10169	4.2057	3.9091	0.	0.18239
10170	4.1143	4.	0.	0.17576
10171	4.2057	4.	5.e-002	9.4455
10172	4.2057	3.7273	0.	0.14054
10173	4.1143	3.8182	0.	0.13512
10174	4.2057	3.8182	5.e-002	7.9904
10175	4.2057	3.5455	0.	0.10919
10176	4.1143	3.6364	0.	0.1028
10177	4.2057	3.6364	5.e-002	6.4827
10178	4.2057	3.3636	0.	8.8151e-002
10179	4.1143	3.4545	0.	7.9438e-002
10180	4.2057	3.4545	5.e-002	4.9942
10181	4.2057	3.1818	0.	7.6337e-002
10182	4.1143	3.2727	0.	6.4651e-002
10183	4.2057	3.2727	5.e-002	3.6518
10184	4.2057	3.	0.	7.2565e-002
10185	4.1143	3.0909	0.	5.7589e-002
10186	4.2057	3.0909	5.e-002	2.7396
10187	4.2057	2.8182	0.	7.6337e-002
10188	4.1143	2.9091	0.	5.7589e-002
10189	4.2057	2.9091	5.e-002	2.7397
10190	4.2057	2.6364	0.	8.8152e-002
10191	4.1143	2.7273	0.	6.4651e-002
10192	4.2057	2.7273	5.e-002	3.6519
10193	4.2057	2.4545	0.	0.10919
10194	4.1143	2.5455	0.	7.9438e-002
10195	4.2057	2.5455	5.e-002	4.9942
10196	4.2057	2.2727	0.	0.14054
10197	4.1143	2.3636	0.	0.10281
10198	4.2057	2.3636	5.e-002	6.4827
10199	4.2057	2.0909	0.	0.18239
10200	4.1143	2.1818	0.	0.13512
10201	4.2057	2.1818	5.e-002	7.9905
10202	4.2057	1.9091	0.	0.2338
10203	4.1143	2.	0.	0.17577
10204	4.2057	2.	5.e-002	9.4455
10205	4.2057	1.7273	0.	0.29325
10206	4.1143	1.8182	0.	0.22329
10207	4.2057	1.8182	5.e-002	10.804
10208	4.2057	1.5455	0.	0.35974
10209	4.1143	1.6364	0.	0.27603
10210	4.2057	1.6364	5.e-002	12.044
10211	4.2057	1.3636	0.	0.43422
10212	4.1143	1.4545	0.	0.33309
10213	4.2057	1.4545	5.e-002	13.157
10214	4.2057	1.1818	0.	0.52141
10215	4.1143	1.2727	0.	0.39535
10216	4.2057	1.2727	5.e-002	14.14
10217	4.2057	1.	0.	0.63337
10218	4.1143	1.0909	0.	0.46665
10219	4.2057	1.0909	5.e-002	14.986
10220	4.2057	0.81818	0.	0.80154
10221	4.1143	0.90909	0.	0.55606
10222	4.2057	0.90909	5.e-002	15.683
10223	4.2057	0.63636	0.	1.1395
10224	4.1143	0.72727	0.	0.68851
10225	4.2057	0.72727	5.e-002	16.218
10226	4.2057	0.45455	0.	2.4682
10227	4.1143	0.54545	0.	0.95026
10228	4.2057	0.54545	5.e-002	16.602
10229	4.2057	0.27273	0.	10.901
10230	4.1143	0.36364	0.	2.09
10231	4.2057	0.36364	5.e-002	17.186
10232	4.1143	0.18182	0.	11.661
10233	4.2057	0.18182	5.e-002	23.346
10234	4.2057	9.0909e-002	0.	9.4236
10235	4.0229	5.7273	0.	2.0478
10236	3.9314	5.8182	0.	4.3358
10237	4.0229	5.8182	5.e-002	21.518
10238	4.0229	5.9091	0.	3.9011
10239	4.0229	5.5455	0.	0.78644
10240	3.9314	5.6364	0.	0.82032
10241	4.0229	5.6364	5.e-002	15.443
10242	4.0229	5.3636	0.	0.57467
10243	3.9314	5.4545	0.	0.53156
10244	4.0229	5.4545	5.e-002	14.995
10245	4.0229	5.1818	0.	0.47752
10246	3.9314	5.2727	0.	0.44177
10247	4.0229	5.2727	5.e-002	14.766
10248	4.0229	5.	0.	0.40787
10249	3.9314	5.0909	0.	0.37678
10250	4.0229	5.0909	5.e-002	14.403
10251	4.0229	4.8182	0.	0.35104
10252	3.9314	4.9091	0.	0.3268
10253	4.0229	4.9091	5.e-002	13.886
10254	4.0229	4.6364	0.	0.29993
10255	3.9314	4.7273	0.	0.28169
10256	4.0229	4.7273	5.e-002	13.215
10257	4.0229	4.4545	0.	0.25206
10258	3.9314	4.5455	0.	0.23934
10259	4.0229	4.5455	5.e-002	12.39
10260	4.0229	4.2727	0.	0.20675
10261	3.9314	4.3636	0.	0.19866
10262	4.0229	4.3636	5.e-002	11.41
10263	4.0229	4.0909	0.	0.16464
10264	3.9314	4.1818	0.	0.15998
10265	4.0229	4.1818	5.e-002	10.272
10266	4.0229	3.9091	0.	0.12708
10267	3.9314	4.	0.	0.12437
10268	4.0229	4.	5.e-002	8.9794
10269	4.0229	3.7273	0.	9.5524e-002
10270	3.9314	3.8182	0.	9.3234e-002
10271	4.0229	3.8182	5.e-002	7.5444
10272	4.0229	3.5455	0.	7.0998e-002
10273	3.9314	3.6364	0.	6.7794e-002
10274	4.0229	3.6364	5.e-002	5.9885
10275	4.0229	3.3636	0.	5.3833e-002
10276	3.9314	3.4545	0.	4.8763e-002
10277	4.0229	3.4545	5.e-002	4.3406
10278	4.0229	3.1818	0.	4.3809e-002
10279	3.9314	3.2727	0.	3.6283e-002
10280	4.0229	3.2727	5.e-002	2.6322
10281	4.0229	3.	0.	4.0529e-002
10282	3.9314	3.0909	0.	3.0154e-002
10283	4.0229	3.0909	5.e-002	0.90116
10284	4.0229	2.8182	0.	4.3809e-002
10285	3.9314	2.9091	0.	3.0154e-002
10286	4.0229	2.9091	5.e-002	0.9012
10287	4.0229	2.6364	0.	5.3833e-002
10288	3.9314	2.7273	0.	3.6284e-002
10289	4.0229	2.7273	5.e-002	2.6322
10290	4.0229	2.4545	0.	7.0999e-002
10291	3.9314	2.5455	0.	4.8763e-002
10292	4.0229	2.5455	5.e-002	4.3406
10293	4.0229	2.2727	0.	9.5525e-002
10294	3.9314	2.3636	0.	6.7795e-002
10295	4.0229	2.3636	5.e-002	5.9886
10296	4.0229	2.0909	0.	0.12708
10297	3.9314	2.1818	0.	9.3235e-002
10298	4.0229	2.1818	5.e-002	7.5444
10299	4.0229	1.9091	0.	0.16464
10300	3.9314	2.	0.	0.12437
10301	4.0229	2.	5.e-002	8.9794
10302	4.0229	1.7273	0.	0.20675
10303	3.9314	1.8182	0.	0.15998
10304	4.0229	1.8182	5.e-002	10.272
10305	4.0229	1.5455	0.	0.25206
10306	3.9314	1.6364	0.	0.19866
10307	4.0229	1.6364	5.e-002	11.41
10308	4.0229	1.3636	0.	0.29993
10309	3.9314	1.4545	0.	0.23934
10310	4.0229	1.4545	5.e-002	12.39
10311	4.0229	1.1818	0.	0.35104
10312	3.9314	1.2727	0.	0.28169
10313	4.0229	1.2727	5.e-002	13.215
10314	4.0229	1.	0.	0.40787
10315	3.9314	1.0909	0.	0.3268
10316	4.0229	1.0909	5.e-002	13.886
10317	4.0229	0.81818	0.	0.47752
10318	3.9314	0.90909	0.	0.37678
10319	4.0229	0.90909	5.e-002	14.403
10320	4.0229	0.63636	0.	0.57467
10321	3.9314	0.72727	0.	0.44177
10322	4.0229	0.72727	5.e-002	14.766
10323	4.0229	0.45455	0.	0.78644
10324	3.9314	0.54545	0.	0.53156
10325	4.0229	0.54545	5.e-002	14.995
10326	4.0229	0.27273	0.	2.0478
10327	3.9314	0.36364	0.	0.82032
10328	4.0229	0.36364	5.e-002	15.443
10329	3.9314	0.18182	0.	4.3358
10330	4.0229	0.18182	5.e-002	21.517
10331	4.0229	9.0909e-002	0.	3.901
10332	3.84	5.7273	0.	0.99537
10333	3.7486	5.8182	0.	2.0899
10334	3.84	5.8182	5.e-002	20.24
10335	3.84	5.9091	0.	0.38378
10336	3.84	5.5455	0.	0.52992
10337	3.7486	5.6364	0.	0.62758
10338	3.84	5.6364	5.e-002	14.104
10339	3.84	5.3636	0.	0.40048
10340	3.7486	5.4545	0.	0.39445
10341	3.84	5.4545	5.e-002	13.765
10342	3.84	5.1818	0.	0.34566
10343	3.7486	5.2727	0.	0.33908
10344	3.84	5.2727	5.e-002	13.666
10345	3.84	5.	0.	0.29953
10346	3.7486	5.0909	0.	0.28898
10347	3.84	5.0909	5.e-002	13.445
10348	3.84	4.8182	0.	0.26001
10349	3.7486	4.9091	0.	0.25109
10350	3.84	4.9091	5.e-002	13.076
10351	3.84	4.6364	0.	0.22252
10352	3.7486	4.7273	0.	0.21552
10353	3.84	4.7273	5.e-002	12.551
10354	3.84	4.4545	0.	0.18641
10355	3.7486	4.5455	0.	0.18179
10356	3.84	4.5455	5.e-002	11.866
10357	3.84	4.2727	0.	0.15162
10358	3.7486	4.3636	0.	0.14917
10359	3.84	4.3636	5.e-002	11.017
10360	3.84	4.0909	0.	0.11889
10361	3.7486	4.1818	0.	0.11809
10362	3.84	4.1818	5.e-002	10.003
10363	3.84	3.9091	0.	8.9332e-002
10364	3.7486	4.	0.	8.9379e-002
10365	3.84	4.	5.e-002	8.8313
10366	3.84	3.7273	0.	6.4075e-002
10367	3.7486	3.8182	0.	6.4068e-002
10368	3.84	3.8182	5.e-002	7.5172
10369	3.84	3.5455	0.	4.4008e-002
10370	3.7486	3.6364	0.	4.3095e-002
10371	3.84	3.6364	5.e-002	6.0893
10372	3.84	3.3636	0.	2.9613e-002
10373	3.7486	3.4545	0.	2.7109e-002
10374	3.84	3.4545	5.e-002	4.5949
10375	3.84	3.1818	0.	2.1016e-002
10376	3.7486	3.2727	0.	1.6415e-002
10377	3.84	3.2727	5.e-002	3.1275
10378	3.84	3.	0.	1.8165e-002
10379	3.7486	3.0909	0.	1.1081e-002
10380	3.84	3.0909	5.e-002	1.9766
10381	3.84	2.8182	0.	2.1016e-002
10382	3.7486	2.9091	0.	1.1081e-002
10383	3.84	2.9091	5.e-002	1.9765
10384	3.84	2.6364	0.	2.9613e-002
10385	3.7486	2.7273	0.	1.6415e-002
10386	3.84	2.7273	5.e-002	3.1274
10387	3.84	2.4545	0.	4.4008e-002
10388	3.7486	2.5455	0.	2.7109e-002
10389	3.84	2.5455	5.e-002	4.5948
10390	3.84	2.2727	0.	6.4076e-002
10391	3.7486	2.3636	0.	4.3096e-002
10392	3.84	2.3636	5.e-002	6.0893
10393	3.84	2.0909	0.	8.9332e-002
10394	3.7486	2.1818	0.	6.4069e-002
10395	3.84	2.1818	5.e-002	7.5172
10396	3.84	1.9091	0.	0.11889
10397	3.7486	2.	0.	8.9379e-002
10398	3.84	2.	5.e-002	8.8313
10399	3.84	1.7273	0.	0.15162
10400	3.7486	1.8182	0.	0.11809
10401	3.84	1.8182	5.e-002	10.003
10402	3.84	1.5455	0.	0.18641
10403	3.7486	1.6364	0.	0.14917
10404	3.84	1.6364	5.e-002	11.017
10405	3.84	1.3636	0.	0.22253
10406	3.7486	1.4545	0.	0.18179
10407	3.84	1.4545	5.e-002	11.866
10408	3.84	1.1818	0.	0.26001
10409	3.7486	1.2727	0.	0.21552
10410	3.84	1.2727	5.e-002	12.551
10411	3.84	1.	0.	0.29953
10412	3.7486	1.0909	0.	0.25109
10413	3.84	1.0909	5.e-002	13.076
10414	3.84	0.81818	0.	0.34566
10415	3.7486	0.90909	0.	0.28898
10416	3.84	0.90909	5.e-002	13.445
10417	3.84	0.63636	0.	0.40048
10418	3.7486	0.72727	0.	0.33908
10419	3.84	0.72727	5.e-002	13.666
10420	3.84	0.45455	0.	0.52992
10421	3.7486	0.54545	0.	0.39445
10422	3.84	0.54545	5.e-002	13.765
10423	3.84	0.27273	0.	0.99537
10424	3.7486	0.36364	0.	0.62758
10425	3.84	0.36364	5.e-002	14.104
10426	3.7486	0.18182	0.	2.0899
10427	3.84	0.18182	5.e-002	20.239
10428	3.84	9.0909e-002	0.	0.38378
10429	3.6571	5.7273	0.	0.8012
10430	3.5657	5.8182	0.	1.6292
10431	3.6571	5.8182	5.e-002	19.444
10432	3.6571	5.9091	0.	0.29628
10433	3.6571	5.5455	0.	0.45263
10434	3.5657	5.6364	0.	0.58789
10435	3.6571	5.6364	5.e-002	13.115
10436	3.6571	5.3636	0.	0.32481
10437	3.5657	5.4545	0.	0.33477
10438	3.6571	5.4545	5.e-002	12.858
10439	3.6571	5.1818	0.	0.28025
10440	3.5657	5.2727	0.	0.28896
10441	3.6571	5.2727	5.e-002	12.863
10442	3.6571	5.	0.	0.23998
10443	3.5657	5.0909	0.	0.24066
10444	3.6571	5.0909	5.e-002	12.757
10445	3.6571	4.8182	0.	0.20639
10446	3.5657	4.9091	0.	0.20637
10447	3.6571	4.9091	5.e-002	12.507
10448	3.6571	4.6364	0.	0.17452
10449	3.5657	4.7273	0.	0.1743
10450	3.6571	4.7273	5.e-002	12.104
10451	3.6571	4.4545	0.	0.14407
10452	3.5657	4.5455	0.	0.14452
10453	3.6571	4.5455	5.e-002	11.542
10454	3.6571	4.2727	0.	0.11493
10455	3.5657	4.3636	0.	0.11615
10456	3.6571	4.3636	5.e-002	10.817
10457	3.6571	4.0909	0.	8.7664e-002
10458	3.5657	4.1818	0.	8.948e-002
10459	3.6571	4.1818	5.e-002	9.9351
10460	3.6571	3.9091	0.	6.3046e-002
10461	3.5657	4.	0.	6.5044e-002
10462	3.6571	4.	5.e-002	8.9079
10463	3.6571	3.7273	0.	4.1912e-002
10464	3.5657	3.8182	0.	4.3555e-002
10465	3.6571	3.8182	5.e-002	7.7611
10466	3.6571	3.5455	0.	2.4956e-002
10467	3.5657	3.6364	0.	2.5687e-002
10468	3.6571	3.6364	5.e-002	6.5384
10469	3.6571	3.3636	0.	1.264e-002
10470	3.5657	3.4545	0.	1.196e-002
10471	3.6571	3.4545	5.e-002	5.3153
10472	3.6571	3.1818	0.	5.198e-003
10473	3.5657	3.2727	0.	2.6917e-003
10474	3.6571	3.2727	5.e-002	4.2294
10475	3.6571	3.	0.	2.7121e-003
10476	3.5657	3.0909	0.	-1.9674e-003
10477	3.6571	3.0909	5.e-002	3.534
10478	3.6571	2.8182	0.	5.1981e-003
10479	3.5657	2.9091	0.	-1.9674e-003
10480	3.6571	2.9091	5.e-002	3.534
10481	3.6571	2.6364	0.	1.2641e-002
10482	3.5657	2.7273	0.	2.6918e-003
10483	3.6571	2.7273	5.e-002	4.2293
10484	3.6571	2.4545	0.	2.4957e-002
10485	3.5657	2.5455	0.	1.196e-002
10486	3.6571	2.5455	5.e-002	5.3152
10487	3.6571	2.2727	0.	4.1913e-002
10488	3.5657	2.3636	0.	2.5687e-002
10489	3.6571	2.3636	5.e-002	6.5384
10490	3.6571	2.0909	0.	6.3047e-002
10491	3.5657	2.1818	0.	4.3555e-002
10492	3.6571	2.1818	5.e-002	7.761
10493	3.6571	1.9091	0.	8.7665e-002
10494	3.5657	2.	0.	6.5044e-002
10495	3.6571	2.	5.e-002	8.9079
10496	3.6571	1.7273	0.	0.11493
10497	3.5657	1.8182	0.	8.948e-002
10498	3.6571	1.8182	5.e-002	9.9351
10499	3.6571	1.5455	0.	0.14407
10500	3.5657	1.6364	0.	0.11615
10501	3.6571	1.6364	5.e-002	10.817
10502	3.6571	1.3636	0.	0.17452
10503	3.5657	1.4545	0.	0.14452
10504	3.6571	1.4545	5.e-002	11.542
10505	3.6571	1.1818	0.	0.2064
10506	3.5657	1.2727	0.	0.1743
10507	3.6571	1.2727	5.e-002	12.104
10508	3.6571	1.	0.	0.23999
10509	3.5657	1.0909	0.	0.20637
10510	3.6571	1.0909	5.e-002	12.507
10511	3.6571	0.81818	0.	0.28025
10512	3.5657	0.90909	0.	0.24066
10513	3.6571	0.90909	5.e-002	12.757
10514	3.6571	0.63636	0.	0.32481
10515	3.5657	0.72727	0.	0.28896
10516	3.6571	0.72727	5.e-002	12.863
10517	3.6571	0.45455	0.	0.45263
10518	3.5657	0.54545	0.	0.33477
10519	3.6571	0.54545	5.e-002	12.857
10520	3.6571	0.27273	0.	0.8012
10521	3.5657	0.36364	0.	0.58789
10522	3.6571	0.36364	5.e-002	13.115
10523	3.5657	0.18182	0.	1.6292
10524	3.6571	0.18182	5.e-002	19.444
10525	3.6571	9.0909e-002	0.	0.29628
10526	3.4743	5.7273	0.	0.76052
10527	3.3829	5.8182	0.	1.5479
10528	3.4743	5.8182	5.e-002	19.064
10529	3.4743	5.9091	0.	0.3247
10530	3.4743	5.5455	0.	0.43104
10531	3.3829	5.6364	0.	0.59835
10532	3.4743	5.6364	5.e-002	12.424
10533	3.4743	5.3636	0.	0.28806
10534	3.3829	5.4545	0.	0.30743
10535	3.4743	5.4545	5.e-002	12.224
10536	3.4743	5.1818	0.	0.245
10537	3.3829	5.2727	0.	0.26364
10538	3.4743	5.2727	5.e-002	12.311
10539	3.4743	5.	0.	0.20485
10540	3.3829	5.0909	0.	0.21268
10541	3.4743	5.0909	5.e-002	12.296
10542	3.4743	4.8182	0.	0.17292
10543	3.3829	4.9091	0.	0.1787
10544	3.4743	4.9091	5.e-002	12.143
10545	3.4743	4.6364	0.	0.14328
10546	3.3829	4.7273	0.	0.14751
10547	3.4743	4.7273	5.e-002	11.84
10548	3.4743	4.4545	0.	0.11568
10549	3.3829	4.5455	0.	0.11951
10550	3.4743	4.5455	5.e-002	11.384
10551	3.4743	4.2727	0.	8.9778e-002
10552	3.3829	4.3636	0.	9.3477e-002
10553	3.4743	4.3636	5.e-002	10.774
10554	3.4743	4.0909	0.	6.591e-002
10555	3.3829	4.1818	0.	6.9538e-002
10556	3.4743	4.1818	5.e-002	10.02
10557	3.4743	3.9091	0.	4.4564e-002
10558	3.3829	4.	0.	4.7947e-002
10559	3.4743	4.	5.e-002	9.1399
10560	3.4743	3.7273	0.	2.631e-002
10561	3.3829	3.8182	0.	2.9145e-002
10562	3.4743	3.8182	5.e-002	8.1675
10563	3.4743	3.5455	0.	1.165e-002
10564	3.3829	3.6364	0.	1.3578e-002
10565	3.4743	3.6364	5.e-002	7.1557
10566	3.4743	3.3636	0.	9.6033e-004
10567	3.3829	3.4545	0.	1.62e-003
10568	3.4743	3.4545	5.e-002	6.187
10569	3.4743	3.1818	0.	-5.529e-003
10570	3.3829	3.2727	0.	-6.4731e-003
10571	3.4743	3.2727	5.e-002	5.3855
10572	3.4743	3.	0.	-7.703e-003
10573	3.3829	3.0909	0.	-1.0552e-002
10574	3.4743	3.0909	5.e-002	4.9154
10575	3.4743	2.8182	0.	-5.5289e-003
10576	3.3829	2.9091	0.	-1.0552e-002
10577	3.4743	2.9091	5.e-002	4.9154
10578	3.4743	2.6364	0.	9.6052e-004
10579	3.3829	2.7273	0.	-6.473e-003
10580	3.4743	2.7273	5.e-002	5.3854
10581	3.4743	2.4545	0.	1.165e-002
10582	3.3829	2.5455	0.	1.6202e-003
10583	3.4743	2.5455	5.e-002	6.1869
10584	3.4743	2.2727	0.	2.631e-002
10585	3.3829	2.3636	0.	1.3578e-002
10586	3.4743	2.3636	5.e-002	7.1557
10587	3.4743	2.0909	0.	4.4565e-002
10588	3.3829	2.1818	0.	2.9145e-002
10589	3.4743	2.1818	5.e-002	8.1675
10590	3.4743	1.9091	0.	6.5911e-002
10591	3.3829	2.	0.	4.7947e-002
10592	3.4743	2.	5.e-002	9.1399
10593	3.4743	1.7273	0.	8.9779e-002
10594	3.3829	1.8182	0.	6.9538e-002
10595	3.4743	1.8182	5.e-002	10.02
10596	3.4743	1.5455	0.	0.11568
10597	3.3829	1.6364	0.	9.3477e-002
10598	3.4743	1.6364	5.e-002	10.774
10599	3.4743	1.3636	0.	0.14328
10600	3.3829	1.4545	0.	0.11951
10601	3.4743	1.4545	5.e-002	11.384
10602	3.4743	1.1818	0.	0.17292
10603	3.3829	1.2727	0.	0.14751
10604	3.4743	1.2727	5.e-002	11.84
10605	3.4743	1.	0.	0.20485
10606	3.3829	1.0909	0.	0.1787
10607	3.4743	1.0909	5.e-002	12.143
10608	3.4743	0.81818	0.	0.245
10609	3.3829	0.90909	0.	0.21268
10610	3.4743	0.90909	5.e-002	12.296
10611	3.4743	0.63636	0.	0.28806
10612	3.3829	0.72727	0.	0.26364
10613	3.4743	0.72727	5.e-002	12.311
10614	3.4743	0.45455	0.	0.43104
10615	3.3829	0.54545	0.	0.30743
10616	3.4743	0.54545	5.e-002	12.224
10617	3.4743	0.27273	0.	0.76052
10618	3.3829	0.36364	0.	0.59835
10619	3.4743	0.36364	5.e-002	12.424
10620	3.3829	0.18182	0.	1.5479
10621	3.4743	0.18182	5.e-002	19.063
10622	3.4743	9.0909e-002	0.	0.3247
10623	3.2914	5.7273	0.	0.77777
10624	3.2	5.8182	0.	1.613
10625	3.2914	5.8182	5.e-002	19.034
10626	3.2914	5.9091	0.	0.36783
10627	3.2914	5.5455	0.	0.43462
10628	3.2	5.6364	0.	0.6329
10629	3.2914	5.6364	5.e-002	11.985
10630	3.2914	5.3636	0.	0.2709
10631	3.2	5.4545	0.	0.29731
10632	3.2914	5.4545	5.e-002	11.824
10633	3.2914	5.1818	0.	0.22595
10634	3.2	5.2727	0.	0.25222
10635	3.2914	5.2727	5.e-002	11.974
10636	3.2914	5.	0.	0.18357
10637	3.2	5.0909	0.	0.19659
10638	3.2914	5.0909	5.e-002	12.03
10639	3.2914	4.8182	0.	0.15138
10640	3.2	4.9091	0.	0.16134
10641	3.2914	4.9091	5.e-002	11.954
10642	3.2914	4.6364	0.	0.12234
10643	3.2	4.7273	0.	0.12974
10644	3.2914	4.7273	5.e-002	11.735
10645	3.2914	4.4545	0.	9.6153e-002
10646	3.2	4.5455	0.	0.10236
10647	3.2914	4.5455	5.e-002	11.369
10648	3.2914	4.2727	0.	7.2209e-002
10649	3.2	4.3636	0.	7.7653e-002
10650	3.2914	4.3636	5.e-002	10.862
10651	3.2914	4.0909	0.	5.0609e-002
10652	3.2	4.1818	0.	5.5522e-002
10653	3.2914	4.1818	5.e-002	10.225
10654	3.2914	3.9091	0.	3.1592e-002
10655	3.2	4.	0.	3.5974e-002
10656	3.2914	4.	5.e-002	9.4823
10657	3.2914	3.7273	0.	1.5494e-002
10658	3.2	3.8182	0.	1.9211e-002
10659	3.2914	3.8182	5.e-002	8.6713
10660	3.2914	3.5455	0.	2.6377e-003
10661	3.2	3.6364	0.	5.473e-003
10662	3.2914	3.6364	5.e-002	7.8462
10663	3.2914	3.3636	0.	-6.7177e-003
10664	3.2	3.4545	0.	-5.0205e-003
10665	3.2914	3.4545	5.e-002	7.0828
10666	3.2914	3.1818	0.	-1.2396e-002
10667	3.2	3.2727	0.	-1.2104e-002
10668	3.2914	3.2727	5.e-002	6.4787
10669	3.2914	3.	0.	-1.4299e-002
10670	3.2	3.0909	0.	-1.567e-002
10671	3.2914	3.0909	5.e-002	6.1394
10672	3.2914	2.8182	0.	-1.2396e-002
10673	3.2	2.9091	0.	-1.567e-002
10674	3.2914	2.9091	5.e-002	6.1394
10675	3.2914	2.6364	0.	-6.7175e-003
10676	3.2	2.7273	0.	-1.2104e-002
10677	3.2914	2.7273	5.e-002	6.4787
10678	3.2914	2.4545	0.	2.6379e-003
10679	3.2	2.5455	0.	-5.0203e-003
10680	3.2914	2.5455	5.e-002	7.0828
10681	3.2914	2.2727	0.	1.5494e-002
10682	3.2	2.3636	0.	5.4732e-003
10683	3.2914	2.3636	5.e-002	7.8461
10684	3.2914	2.0909	0.	3.1592e-002
10685	3.2	2.1818	0.	1.9212e-002
10686	3.2914	2.1818	5.e-002	8.6712
10687	3.2914	1.9091	0.	5.061e-002
10688	3.2	2.	0.	3.5974e-002
10689	3.2914	2.	5.e-002	9.4823
10690	3.2914	1.7273	0.	7.2209e-002
10691	3.2	1.8182	0.	5.5523e-002
10692	3.2914	1.8182	5.e-002	10.225
10693	3.2914	1.5455	0.	9.6154e-002
10694	3.2	1.6364	0.	7.7654e-002
10695	3.2914	1.6364	5.e-002	10.862
10696	3.2914	1.3636	0.	0.12234
10697	3.2	1.4545	0.	0.10237
10698	3.2914	1.4545	5.e-002	11.369
10699	3.2914	1.1818	0.	0.15138
10700	3.2	1.2727	0.	0.12974
10701	3.2914	1.2727	5.e-002	11.735
10702	3.2914	1.	0.	0.18357
10703	3.2	1.0909	0.	0.16134
10704	3.2914	1.0909	5.e-002	11.954
10705	3.2914	0.81818	0.	0.22596
10706	3.2	0.90909	0.	0.19659
10707	3.2914	0.90909	5.e-002	12.03
10708	3.2914	0.63636	0.	0.2709
10709	3.2	0.72727	0.	0.25222
10710	3.2914	0.72727	5.e-002	11.974
10711	3.2914	0.45455	0.	0.43462
10712	3.2	0.54545	0.	0.29731
10713	3.2914	0.54545	5.e-002	11.824
10714	3.2914	0.27273	0.	0.77777
10715	3.2	0.36364	0.	0.6329
10716	3.2914	0.36364	5.e-002	11.985
10717	3.2	0.18182	0.	1.613
10718	3.2914	0.18182	5.e-002	19.034
10719	3.2914	9.0909e-002	0.	0.36783
10720	3.1086	5.7273	0.	0.82808
10721	3.0171	5.8182	0.	1.7737
10722	3.1086	5.8182	5.e-002	19.297
10723	3.1086	5.9091	0.	0.41922
10724	3.1086	5.5455	0.	0.45271
10725	3.0171	5.6364	0.	0.68264
10726	3.1086	5.6364	5.e-002	11.758
10727	3.1086	5.3636	0.	0.26542
10728	3.0171	5.4545	0.	0.29813
10729	3.1086	5.4545	5.e-002	11.625
10730	3.1086	5.1818	0.	0.21683
10731	3.0171	5.2727	0.	0.2497
10732	3.1086	5.2727	5.e-002	11.823
10733	3.1086	5.	0.	0.17095
10734	3.0171	5.0909	0.	0.18821
10735	3.1086	5.0909	5.e-002	11.935
10736	3.1086	4.8182	0.	0.13747
10737	3.0171	4.9091	0.	0.15074
10738	3.1086	4.9091	5.e-002	11.921
10739	3.1086	4.6364	0.	0.10814
10740	3.0171	4.7273	0.	0.11797
10741	3.1086	4.7273	5.e-002	11.769
10742	3.1086	4.4545	0.	8.2577e-002
10743	3.0171	4.5455	0.	9.0563e-002
10744	3.1086	4.5455	5.e-002	11.481
10745	3.1086	4.2727	0.	5.9874e-002
10746	3.0171	4.3636	0.	6.6596e-002
10747	3.1086	4.3636	5.e-002	11.062
10748	3.1086	4.0909	0.	3.9912e-002
10749	3.0171	4.1818	0.	4.5762e-002
10750	3.1086	4.1818	5.e-002	10.53
10751	3.1086	3.9091	0.	2.2691e-002
10752	3.0171	4.	0.	2.7817e-002
10753	3.1086	4.	5.e-002	9.9096
10754	3.1086	3.7273	0.	8.3351e-003
10755	3.0171	3.8182	0.	1.2736e-002
10756	3.1086	3.8182	5.e-002	9.2397
10757	3.1086	3.5455	0.	-3.0104e-003
10758	3.0171	3.6364	0.	5.5841e-004
10759	3.1086	3.6364	5.e-002	8.5713
10760	3.1086	3.3636	0.	-1.1213e-002
10761	3.0171	3.4545	0.	-8.6479e-003
10762	3.1086	3.4545	5.e-002	7.9686
10763	3.1086	3.1818	0.	-1.6173e-002
10764	3.0171	3.2727	0.	-1.4823e-002
10765	3.1086	3.2727	5.e-002	7.5052
10766	3.1086	3.	0.	-1.7833e-002
10767	3.0171	3.0909	0.	-1.7922e-002
10768	3.1086	3.0909	5.e-002	7.2512
10769	3.1086	2.8182	0.	-1.6173e-002
10770	3.0171	2.9091	0.	-1.7922e-002
10771	3.1086	2.9091	5.e-002	7.2512
10772	3.1086	2.6364	0.	-1.1213e-002
10773	3.0171	2.7273	0.	-1.4823e-002
10774	3.1086	2.7273	5.e-002	7.5052
10775	3.1086	2.4545	0.	-3.0102e-003
10776	3.0171	2.5455	0.	-8.6477e-003
10777	3.1086	2.5455	5.e-002	7.9686
10778	3.1086	2.2727	0.	8.3353e-003
10779	3.0171	2.3636	0.	5.5864e-004
10780	3.1086	2.3636	5.e-002	8.5713
10781	3.1086	2.0909	0.	2.2691e-002
10782	3.0171	2.1818	0.	1.2736e-002
10783	3.1086	2.1818	5.e-002	9.2397
10784	3.1086	1.9091	0.	3.9912e-002
10785	3.0171	2.	0.	2.7817e-002
10786	3.1086	2.	5.e-002	9.9095
10787	3.1086	1.7273	0.	5.9875e-002
10788	3.0171	1.8182	0.	4.5763e-002
10789	3.1086	1.8182	5.e-002	10.53
10790	3.1086	1.5455	0.	8.2578e-002
10791	3.0171	1.6364	0.	6.6596e-002
10792	3.1086	1.6364	5.e-002	11.062
10793	3.1086	1.3636	0.	0.10814
10794	3.0171	1.4545	0.	9.0564e-002
10795	3.1086	1.4545	5.e-002	11.481
10796	3.1086	1.1818	0.	0.13747
10797	3.0171	1.2727	0.	0.11797
10798	3.1086	1.2727	5.e-002	11.769
10799	3.1086	1.	0.	0.17095
10800	3.0171	1.0909	0.	0.15074
10801	3.1086	1.0909	5.e-002	11.921
10802	3.1086	0.81818	0.	0.21683
10803	3.0171	0.90909	0.	0.18821
10804	3.1086	0.90909	5.e-002	11.935
10805	3.1086	0.63636	0.	0.26542
10806	3.0171	0.72727	0.	0.2497
10807	3.1086	0.72727	5.e-002	11.823
10808	3.1086	0.45455	0.	0.45271
10809	3.0171	0.54545	0.	0.29813
10810	3.1086	0.54545	5.e-002	11.625
10811	3.1086	0.27273	0.	0.82808
10812	3.0171	0.36364	0.	0.68264
10813	3.1086	0.36364	5.e-002	11.758
10814	3.0171	0.18182	0.	1.7737
10815	3.1086	0.18182	5.e-002	19.297
10816	3.1086	9.0909e-002	0.	0.41922
10817	2.9257	5.7273	0.	0.90383
10818	2.8343	5.8182	0.	2.0246
10819	2.9257	5.8182	5.e-002	19.803
10820	2.9257	5.9091	0.	0.47923
10821	2.9257	5.5455	0.	0.48099
10822	2.8343	5.6364	0.	0.7444
10823	2.9257	5.6364	5.e-002	11.709
10824	2.9257	5.3636	0.	0.26796
10825	2.8343	5.4545	0.	0.30702
10826	2.9257	5.4545	5.e-002	11.6
10827	2.9257	5.1818	0.	0.21446
10828	2.8343	5.2727	0.	0.2536
10829	2.9257	5.2727	5.e-002	11.839
10830	2.9257	5.	0.	0.16422
10831	2.8343	5.0909	0.	0.18527
10832	2.9257	5.0909	5.e-002	11.996
10833	2.9257	4.8182	0.	0.12877
10834	2.8343	4.9091	0.	0.14489
10835	2.9257	4.9091	5.e-002	12.03
10836	2.9257	4.6364	0.	9.8604e-002
10837	2.8343	4.7273	0.	0.11041
10838	2.9257	4.7273	5.e-002	11.933
10839	2.9257	4.4545	0.	7.3196e-002
10840	2.8343	4.5455	0.	8.2581e-002
10841	2.9257	4.5455	5.e-002	11.709
10842	2.9257	4.2727	0.	5.1341e-002
10843	2.8343	4.3636	0.	5.9042e-002
10844	2.9257	4.3636	5.e-002	11.366
10845	2.9257	4.0909	0.	3.2679e-002
10846	2.8343	4.1818	0.	3.9248e-002
10847	2.9257	4.1818	5.e-002	10.924
10848	2.9257	3.9091	0.	1.6976e-002
10849	2.8343	4.	0.	2.2692e-002
10850	2.9257	4.	5.e-002	10.41
10851	2.9257	3.7273	0.	4.1419e-003
10852	2.8343	3.8182	0.	9.1209e-003
10853	2.9257	3.8182	5.e-002	9.8613
10854	2.9257	3.5455	0.	-5.8505e-003
10855	2.8343	3.6364	0.	-1.625e-003
10856	2.9257	3.6364	5.e-002	9.3226
10857	2.9257	3.3636	0.	-1.3e-002
10858	2.8343	3.4545	0.	-9.6329e-003
10859	2.9257	3.4545	5.e-002	8.8464
10860	2.9257	3.1818	0.	-1.7297e-002
10861	2.8343	3.2727	0.	-1.4953e-002
10862	2.9257	3.2727	5.e-002	8.4875
10863	2.9257	3.	0.	-1.8731e-002
10864	2.8343	3.0909	0.	-1.7608e-002
10865	2.9257	3.0909	5.e-002	8.2938
10866	2.9257	2.8182	0.	-1.7297e-002
10867	2.8343	2.9091	0.	-1.7607e-002
10868	2.9257	2.9091	5.e-002	8.2938
10869	2.9257	2.6364	0.	-1.3e-002
10870	2.8343	2.7273	0.	-1.4952e-002
10871	2.9257	2.7273	5.e-002	8.4875
10872	2.9257	2.4545	0.	-5.8502e-003
10873	2.8343	2.5455	0.	-9.6327e-003
10874	2.9257	2.5455	5.e-002	8.8463
10875	2.9257	2.2727	0.	4.1422e-003
10876	2.8343	2.3636	0.	-1.6249e-003
10877	2.9257	2.3636	5.e-002	9.3225
10878	2.9257	2.0909	0.	1.6976e-002
10879	2.8343	2.1818	0.	9.1212e-003
10880	2.9257	2.1818	5.e-002	9.8613
10881	2.9257	1.9091	0.	3.268e-002
10882	2.8343	2.	0.	2.2693e-002
10883	2.9257	2.	5.e-002	10.41
10884	2.9257	1.7273	0.	5.1341e-002
10885	2.8343	1.8182	0.	3.9249e-002
10886	2.9257	1.8182	5.e-002	10.924
10887	2.9257	1.5455	0.	7.3196e-002
10888	2.8343	1.6364	0.	5.9042e-002
10889	2.9257	1.6364	5.e-002	11.366
10890	2.9257	1.3636	0.	9.8604e-002
10891	2.8343	1.4545	0.	8.2582e-002
10892	2.9257	1.4545	5.e-002	11.709
10893	2.9257	1.1818	0.	0.12877
10894	2.8343	1.2727	0.	0.11041
10895	2.9257	1.2727	5.e-002	11.933
10896	2.9257	1.	0.	0.16422
10897	2.8343	1.0909	0.	0.14489
10898	2.9257	1.0909	5.e-002	12.03
10899	2.9257	0.81818	0.	0.21446
10900	2.8343	0.90909	0.	0.18527
10901	2.9257	0.90909	5.e-002	11.996
10902	2.9257	0.63636	0.	0.26796
10903	2.8343	0.72727	0.	0.2536
10904	2.9257	0.72727	5.e-002	11.839
10905	2.9257	0.45455	0.	0.48099
10906	2.8343	0.54545	0.	0.30702
10907	2.9257	0.54545	5.e-002	11.6
10908	2.9257	0.27273	0.	0.90383
10909	2.8343	0.36364	0.	0.7444
10910	2.9257	0.36364	5.e-002	11.709
10911	2.8343	0.18182	0.	2.0246
10912	2.9257	0.18182	5.e-002	19.802
10913	2.9257	9.0909e-002	0.	0.47923
10914	2.7429	5.7273	0.	1.0037
10915	2.6514	5.8182	0.	2.3819
10916	2.7429	5.8182	5.e-002	20.505
10917	2.7429	5.9091	0.	0.55086
10918	2.7429	5.5455	0.	0.51774
10919	2.6514	5.6364	0.	0.81746
10920	2.7429	5.6364	5.e-002	11.814
10921	2.7429	5.3636	0.	0.2767
10922	2.6514	5.4545	0.	0.32263
10923	2.7429	5.4545	5.e-002	11.733
10924	2.7429	5.1818	0.	0.21714
10925	2.6514	5.2727	0.	0.26261
10926	2.7429	5.2727	5.e-002	12.008
10927	2.7429	5.	0.	0.16179
10928	2.6514	5.0909	0.	0.18648
10929	2.7429	5.0909	5.e-002	12.202
10930	2.7429	4.8182	0.	0.12383
10931	2.6514	4.9091	0.	0.14255
10932	2.7429	4.9091	5.e-002	12.274
10933	2.7429	4.6364	0.	9.2459e-002
10934	2.6514	4.7273	0.	0.10597
10935	2.7429	4.7273	5.e-002	12.221
10936	2.7429	4.4545	0.	6.6948e-002
10937	2.6514	4.5455	0.	7.7472e-002
10938	2.7429	4.5455	5.e-002	12.048
10939	2.7429	4.2727	0.	4.5753e-002
10940	2.6514	4.3636	0.	5.4221e-002
10941	2.7429	4.3636	5.e-002	11.769
10942	2.7429	4.0909	0.	2.8251e-002
10943	2.6514	4.1818	0.	3.5385e-002
10944	2.7429	4.1818	5.e-002	11.404
10945	2.7429	3.9091	0.	1.3953e-002
10946	2.6514	4.	0.	2.0163e-002
10947	2.7429	4.	5.e-002	10.983
10948	2.7429	3.7273	0.	2.5553e-003
10949	2.6514	3.8182	0.	8.0577e-003
10950	2.7429	3.8182	5.e-002	10.537
10951	2.7429	3.5455	0.	-6.1476e-003
10952	2.6514	3.6364	0.	-1.2923e-003
10953	2.7429	3.6364	5.e-002	10.106
10954	2.7429	3.3636	0.	-1.2287e-002
10955	2.6514	3.4545	0.	-8.1291e-003
10956	2.7429	3.4545	5.e-002	9.7319
10957	2.7429	3.1818	0.	-1.5944e-002
10958	2.6514	3.2727	0.	-1.2612e-002
10959	2.7429	3.2727	5.e-002	9.4541
10960	2.7429	3.	0.	-1.7159e-002
10961	2.6514	3.0909	0.	-1.4832e-002
10962	2.7429	3.0909	5.e-002	9.3059
10963	2.7429	2.8182	0.	-1.5944e-002
10964	2.6514	2.9091	0.	-1.4832e-002
10965	2.7429	2.9091	5.e-002	9.3059
10966	2.7429	2.6364	0.	-1.2287e-002
10967	2.6514	2.7273	0.	-1.2612e-002
10968	2.7429	2.7273	5.e-002	9.4541
10969	2.7429	2.4545	0.	-6.1474e-003
10970	2.6514	2.5455	0.	-8.1289e-003
10971	2.7429	2.5455	5.e-002	9.7318
10972	2.7429	2.2727	0.	2.5555e-003
10973	2.6514	2.3636	0.	-1.2921e-003
10974	2.7429	2.3636	5.e-002	10.106
10975	2.7429	2.0909	0.	1.3953e-002
10976	2.6514	2.1818	0.	8.0579e-003
10977	2.7429	2.1818	5.e-002	10.537
10978	2.7429	1.9091	0.	2.8251e-002
10979	2.6514	2.	0.	2.0163e-002
10980	2.7429	2.	5.e-002	10.983
10981	2.7429	1.7273	0.	4.5753e-002
10982	2.6514	1.8182	0.	3.5385e-002
10983	2.7429	1.8182	5.e-002	11.404
10984	2.7429	1.5455	0.	6.6948e-002
10985	2.6514	1.6364	0.	5.4221e-002
10986	2.7429	1.6364	5.e-002	11.769
10987	2.7429	1.3636	0.	9.2459e-002
10988	2.6514	1.4545	0.	7.7473e-002
10989	2.7429	1.4545	5.e-002	12.048
10990	2.7429	1.1818	0.	0.12383
10991	2.6514	1.2727	0.	0.10597
10992	2.7429	1.2727	5.e-002	12.221
10993	2.7429	1.	0.	0.16179
10994	2.6514	1.0909	0.	0.14255
10995	2.7429	1.0909	5.e-002	12.274
10996	2.7429	0.81818	0.	0.21714
10997	2.6514	0.90909	0.	0.18648
10998	2.7429	0.90909	5.e-002	12.202
10999	2.7429	0.63636	0.	0.2767
11000	2.6514	0.72727	0.	0.26261
11001	2.7429	0.72727	5.e-002	12.008
11002	2.7429	0.45455	0.	0.51774
11003	2.6514	0.54545	0.	0.32263
11004	2.7429	0.54545	5.e-002	11.733
11005	2.7429	0.27273	0.	1.0037
11006	2.6514	0.36364	0.	0.81746
11007	2.7429	0.36364	5.e-002	11.814
11008	2.6514	0.18182	0.	2.3819
11009	2.7429	0.18182	5.e-002	20.505
11010	2.7429	9.0909e-002	0.	0.55086
11011	2.56	5.7273	0.	1.13
11012	2.4686	5.8182	0.	2.8814
11013	2.56	5.8182	5.e-002	21.366
11014	2.56	5.9091	0.	0.64024
11015	2.56	5.5455	0.	0.56247
11016	2.4686	5.6364	0.	0.90249
11017	2.56	5.6364	5.e-002	12.056
11018	2.56	5.3636	0.	0.29073
11019	2.4686	5.4545	0.	0.34449
11020	2.56	5.4545	5.e-002	12.016
11021	2.56	5.1818	0.	0.22389
11022	2.4686	5.2727	0.	0.2761
11023	2.56	5.2727	5.e-002	12.326
11024	2.56	5.	0.	0.16266
11025	2.4686	5.0909	0.	0.19109
11026	2.56	5.0909	5.e-002	12.551
11027	2.56	4.8182	0.	0.12173
11028	2.4686	4.9091	0.	0.143
11029	2.56	4.9091	5.e-002	12.652
11030	2.56	4.6364	0.	8.8889e-002
11031	2.4686	4.7273	0.	0.10401
11032	2.56	4.7273	5.e-002	12.631
11033	2.56	4.4545	0.	6.3159e-002
11034	2.4686	4.5455	0.	7.4736e-002
11035	2.56	4.5455	5.e-002	12.499
11036	2.56	4.2727	0.	4.2591e-002
11037	2.4686	4.3636	0.	5.178e-002
11038	2.56	4.3636	5.e-002	12.272
11039	2.56	4.0909	0.	2.625e-002
11040	2.4686	4.1818	0.	3.3958e-002
11041	2.56	4.1818	5.e-002	11.974
11042	2.56	3.9091	0.	1.3369e-002
11043	2.4686	4.	0.	2.0133e-002
11044	2.56	4.	5.e-002	11.632
11045	2.56	3.7273	0.	3.4145e-003
11046	2.4686	3.8182	0.	9.541e-003
11047	2.56	3.8182	5.e-002	11.275
11048	2.56	3.5455	0.	-3.9991e-003
11049	2.4686	3.6364	0.	1.6123e-003
11050	2.56	3.6364	5.e-002	10.936
11051	2.56	3.3636	0.	-9.133e-003
11052	2.4686	3.4545	0.	-4.0445e-003
11053	2.56	3.4545	5.e-002	10.646
11054	2.56	3.1818	0.	-1.2154e-002
11055	2.4686	3.2727	0.	-7.6898e-003
11056	2.56	3.2727	5.e-002	10.434
11057	2.56	3.	0.	-1.3151e-002
11058	2.4686	3.0909	0.	-9.4771e-003
11059	2.56	3.0909	5.e-002	10.322
11060	2.56	2.8182	0.	-1.2153e-002
11061	2.4686	2.9091	0.	-9.477e-003
11062	2.56	2.9091	5.e-002	10.322
11063	2.56	2.6364	0.	-9.1329e-003
11064	2.4686	2.7273	0.	-7.6897e-003
11065	2.56	2.7273	5.e-002	10.434
11066	2.56	2.4545	0.	-3.999e-003
11067	2.4686	2.5455	0.	-4.0444e-003
11068	2.56	2.5455	5.e-002	10.646
11069	2.56	2.2727	0.	3.4146e-003
11070	2.4686	2.3636	0.	1.6124e-003
11071	2.56	2.3636	5.e-002	10.936
11072	2.56	2.0909	0.	1.3369e-002
11073	2.4686	2.1818	0.	9.5411e-003
11074	2.56	2.1818	5.e-002	11.275
11075	2.56	1.9091	0.	2.6251e-002
11076	2.4686	2.	0.	2.0134e-002
11077	2.56	2.	5.e-002	11.632
11078	2.56	1.7273	0.	4.2591e-002
11079	2.4686	1.8182	0.	3.3959e-002
11080	2.56	1.8182	5.e-002	11.974
11081	2.56	1.5455	0.	6.316e-002
11082	2.4686	1.6364	0.	5.178e-002
11083	2.56	1.6364	5.e-002	12.272
11084	2.56	1.3636	0.	8.8889e-002
11085	2.4686	1.4545	0.	7.4736e-002
11086	2.56	1.4545	5.e-002	12.498
11087	2.56	1.1818	0.	0.12173
11088	2.4686	1.2727	0.	0.10401
11089	2.56	1.2727	5.e-002	12.631
11090	2.56	1.	0.	0.16267
11091	2.4686	1.0909	0.	0.143
11092	2.56	1.0909	5.e-002	12.652
11093	2.56	0.81818	0.	0.22389
11094	2.4686	0.90909	0.	0.19109
11095	2.56	0.90909	5.e-002	12.551
11096	2.56	0.63636	0.	0.29073
11097	2.4686	0.72727	0.	0.2761
11098	2.56	0.72727	5.e-002	12.326
11099	2.56	0.45455	0.	0.56247
11100	2.4686	0.54545	0.	0.34449
11101	2.56	0.54545	5.e-002	12.016
11102	2.56	0.27273	0.	1.13
11103	2.4686	0.36364	0.	0.90249
11104	2.56	0.36364	5.e-002	12.056
11105	2.4686	0.18182	0.	2.8814
11106	2.56	0.18182	5.e-002	21.365
11107	2.56	9.0909e-002	0.	0.64024
11108	2.3771	5.7273	0.	1.2871
11109	2.2857	5.8182	0.	3.5862
11110	2.3771	5.8182	5.e-002	22.349
11111	2.3771	5.9091	0.	0.75958
11112	2.3771	5.5455	0.	0.61555
11113	2.2857	5.6364	0.	1.001
11114	2.3771	5.6364	5.e-002	12.43
11115	2.3771	5.3636	0.	0.30978
11116	2.2857	5.4545	0.	0.37245
11117	2.3771	5.4545	5.e-002	12.451
11118	2.3771	5.1818	0.	0.23429
11119	2.2857	5.2727	0.	0.29359
11120	2.3771	5.2727	5.e-002	12.799
11121	2.3771	5.	0.	0.16635
11122	2.2857	5.0909	0.	0.19844
11123	2.3771	5.0909	5.e-002	13.049
11124	2.3771	4.8182	0.	0.12202
11125	2.2857	4.9091	0.	0.14559
11126	2.3771	4.9091	5.e-002	13.17
11127	2.3771	4.6364	0.	8.7565e-002
11128	2.2857	4.7273	0.	0.10395
11129	2.3771	4.7273	5.e-002	13.169
11130	2.3771	4.4545	0.	6.164e-002
11131	2.2857	4.5455	0.	7.3917e-002
11132	2.3771	4.5455	5.e-002	13.065
11133	2.3771	4.2727	0.	4.1802e-002
11134	2.2857	4.3636	0.	5.1403e-002
11135	2.3771	4.3636	5.e-002	12.88
11136	2.3771	4.0909	0.	2.6744e-002
11137	2.2857	4.1818	0.	3.4769e-002
11138	2.3771	4.1818	5.e-002	12.639
11139	2.3771	3.9091	0.	1.538e-002
11140	2.2857	4.	0.	2.2487e-002
11141	2.3771	4.	5.e-002	12.367
11142	2.3771	3.7273	0.	6.934e-003
11143	2.2857	3.8182	0.	1.3503e-002
11144	2.3771	3.8182	5.e-002	12.089
11145	2.3771	3.5455	0.	8.4446e-004
11146	2.2857	3.6364	0.	7.0439e-003
11147	2.3771	3.6364	5.e-002	11.83
11148	2.3771	3.3636	0.	-3.2701e-003
11149	2.2857	3.4545	0.	2.5819e-003
11150	2.3771	3.4545	5.e-002	11.612
11151	2.3771	3.1818	0.	-5.6518e-003
11152	2.2857	3.2727	0.	-2.2783e-004
11153	2.3771	3.2727	5.e-002	11.455
11154	2.3771	3.	0.	-6.4318e-003
11155	2.2857	3.0909	0.	-1.5866e-003
11156	2.3771	3.0909	5.e-002	11.372
11157	2.3771	2.8182	0.	-5.6517e-003
11158	2.2857	2.9091	0.	-1.5866e-003
11159	2.3771	2.9091	5.e-002	11.372
11160	2.3771	2.6364	0.	-3.2699e-003
11161	2.2857	2.7273	0.	-2.2773e-004
11162	2.3771	2.7273	5.e-002	11.455
11163	2.3771	2.4545	0.	8.4464e-004
11164	2.2857	2.5455	0.	2.582e-003
11165	2.3771	2.5455	5.e-002	11.612
11166	2.3771	2.2727	0.	6.9341e-003
11167	2.2857	2.3636	0.	7.044e-003
11168	2.3771	2.3636	5.e-002	11.83
11169	2.3771	2.0909	0.	1.538e-002
11170	2.2857	2.1818	0.	1.3503e-002
11171	2.3771	2.1818	5.e-002	12.089
11172	2.3771	1.9091	0.	2.6745e-002
11173	2.2857	2.	0.	2.2487e-002
11174	2.3771	2.	5.e-002	12.367
11175	2.3771	1.7273	0.	4.1802e-002
11176	2.2857	1.8182	0.	3.477e-002
11177	2.3771	1.8182	5.e-002	12.639
11178	2.3771	1.5455	0.	6.1641e-002
11179	2.2857	1.6364	0.	5.1403e-002
11180	2.3771	1.6364	5.e-002	12.88
11181	2.3771	1.3636	0.	8.7565e-002
11182	2.2857	1.4545	0.	7.3917e-002
11183	2.3771	1.4545	5.e-002	13.065
11184	2.3771	1.1818	0.	0.12202
11185	2.2857	1.2727	0.	0.10395
11186	2.3771	1.2727	5.e-002	13.169
11187	2.3771	1.	0.	0.16635
11188	2.2857	1.0909	0.	0.14559
11189	2.3771	1.0909	5.e-002	13.17
11190	2.3771	0.81818	0.	0.23429
11191	2.2857	0.90909	0.	0.19845
11192	2.3771	0.90909	5.e-002	13.049
11193	2.3771	0.63636	0.	0.30978
11194	2.2857	0.72727	0.	0.29359
11195	2.3771	0.72727	5.e-002	12.799
11196	2.3771	0.45455	0.	0.61555
11197	2.2857	0.54545	0.	0.37245
11198	2.3771	0.54545	5.e-002	12.451
11199	2.3771	0.27273	0.	1.2871
11200	2.2857	0.36364	0.	1.001
11201	2.3771	0.36364	5.e-002	12.429
11202	2.2857	0.18182	0.	3.5862
11203	2.3771	0.18182	5.e-002	22.348
11204	2.3771	9.0909e-002	0.	0.75958
11205	2.1943	5.7273	0.	1.4821
11206	2.1029	5.8182	0.	4.605
11207	2.1943	5.8182	5.e-002	23.419
11208	2.1943	5.9091	0.	0.93583
11209	2.1943	5.5455	0.	0.67746
11210	2.1029	5.6364	0.	1.1157
11211	2.1943	5.6364	5.e-002	12.944
11212	2.1943	5.3636	0.	0.3334
11213	2.1029	5.4545	0.	0.40743
11214	2.1943	5.4545	5.e-002	13.056
11215	2.1943	5.1818	0.	0.24758
11216	2.1029	5.2727	0.	0.31568
11217	2.1943	5.2727	5.e-002	13.444
11218	2.1943	5.	0.	0.17199
11219	2.1029	5.0909	0.	0.20897
11220	2.1943	5.0909	5.e-002	13.711
11221	2.1943	4.8182	0.	0.12387
11222	2.1029	4.9091	0.	0.15077
11223	2.1943	4.9091	5.e-002	13.838
11224	2.1943	4.6364	0.	8.7762e-002
11225	2.1029	4.7273	0.	0.10639
11226	2.1943	4.7273	5.e-002	13.844
11227	2.1943	4.4545	0.	6.1802e-002
11228	2.1029	4.5455	0.	7.5809e-002
11229	2.1943	4.5455	5.e-002	13.757
11230	2.1943	4.2727	0.	4.2919e-002
11231	2.1029	4.3636	0.	5.4036e-002
11232	2.1943	4.3636	5.e-002	13.604
11233	2.1943	4.0909	0.	2.9349e-002
11234	2.1029	4.1818	0.	3.8868e-002
11235	2.1943	4.1818	5.e-002	13.412
11236	2.1943	3.9091	0.	1.9647e-002
11237	2.1029	4.	0.	2.8321e-002
11238	2.1943	4.	5.e-002	13.202
11239	2.1943	3.7273	0.	1.279e-002
11240	2.1029	3.8182	0.	2.1049e-002
11241	2.1943	3.8182	5.e-002	12.995
11242	2.1943	3.5455	0.	8.0543e-003
11243	2.1029	3.6364	0.	1.6089e-002
11244	2.1943	3.6364	5.e-002	12.807
11245	2.1943	3.3636	0.	4.9594e-003
11246	2.1029	3.4545	0.	1.2808e-002
11247	2.1943	3.4545	5.e-002	12.652
11248	2.1943	3.1818	0.	3.2077e-003
11249	2.1029	3.2727	0.	1.0807e-002
11250	2.1943	3.2727	5.e-002	12.542
11251	2.1943	3.	0.	2.6404e-003
11252	2.1029	3.0909	0.	9.8571e-003
11253	2.1943	3.0909	5.e-002	12.485
11254	2.1943	2.8182	0.	3.2078e-003
11255	2.1029	2.9091	0.	9.8571e-003
11256	2.1943	2.9091	5.e-002	12.485
11257	2.1943	2.6364	0.	4.9595e-003
11258	2.1029	2.7273	0.	1.0807e-002
11259	2.1943	2.7273	5.e-002	12.542
11260	2.1943	2.4545	0.	8.0543e-003
11261	2.1029	2.5455	0.	1.2808e-002
11262	2.1943	2.5455	5.e-002	12.652
11263	2.1943	2.2727	0.	1.279e-002
11264	2.1029	2.3636	0.	1.6089e-002
11265	2.1943	2.3636	5.e-002	12.807
11266	2.1943	2.0909	0.	1.9647e-002
11267	2.1029	2.1818	0.	2.1049e-002
11268	2.1943	2.1818	5.e-002	12.995
11269	2.1943	1.9091	0.	2.9349e-002
11270	2.1029	2.	0.	2.8322e-002
11271	2.1943	2.	5.e-002	13.202
11272	2.1943	1.7273	0.	4.292e-002
11273	2.1029	1.8182	0.	3.8868e-002
11274	2.1943	1.8182	5.e-002	13.412
11275	2.1943	1.5455	0.	6.1803e-002
11276	2.1029	1.6364	0.	5.4037e-002
11277	2.1943	1.6364	5.e-002	13.604
11278	2.1943	1.3636	0.	8.7762e-002
11279	2.1029	1.4545	0.	7.5809e-002
11280	2.1943	1.4545	5.e-002	13.757
11281	2.1943	1.1818	0.	0.12387
11282	2.1029	1.2727	0.	0.10639
11283	2.1943	1.2727	5.e-002	13.844
11284	2.1943	1.	0.	0.17199
11285	2.1029	1.0909	0.	0.15077
11286	2.1943	1.0909	5.e-002	13.838
11287	2.1943	0.81818	0.	0.24758
11288	2.1029	0.90909	0.	0.20897
11289	2.1943	0.90909	5.e-002	13.711
11290	2.1943	0.63636	0.	0.3334
11291	2.1029	0.72727	0.	0.31568
11292	2.1943	0.72727	5.e-002	13.444
11293	2.1943	0.45455	0.	0.67746
11294	2.1029	0.54545	0.	0.40743
11295	2.1943	0.54545	5.e-002	13.056
11296	2.1943	0.27273	0.	1.4821
11297	2.1029	0.36364	0.	1.1157
11298	2.1943	0.36364	5.e-002	12.944
11299	2.1029	0.18182	0.	4.605
11300	2.1943	0.18182	5.e-002	23.418
11301	2.1943	9.0909e-002	0.	0.93583
11302	2.0114	5.7273	0.	1.7261
11303	1.92	5.8182	0.	6.1282
11304	2.0114	5.8182	5.e-002	24.539
11305	2.0114	5.9091	0.	1.2424
11306	2.0114	5.5455	0.	0.75081
11307	1.92	5.6364	0.	1.2485
11308	2.0114	5.6364	5.e-002	13.627
11309	2.0114	5.3636	0.	0.36342
11310	1.92	5.4545	0.	0.44798
11311	2.0114	5.4545	5.e-002	13.866
11312	2.0114	5.1818	0.	0.26546
11313	1.92	5.2727	0.	0.34003
11314	2.0114	5.2727	5.e-002	14.292
11315	2.0114	5.	0.	0.18128
11316	1.92	5.0909	0.	0.21988
11317	2.0114	5.0909	5.e-002	14.563
11318	2.0114	4.8182	0.	0.12917
11319	1.92	4.9091	0.	0.15569
11320	2.0114	4.9091	5.e-002	14.676
11321	2.0114	4.6364	0.	9.1595e-002
11322	1.92	4.7273	0.	0.10859
11323	2.0114	4.7273	5.e-002	14.671
11324	2.0114	4.4545	0.	6.5967e-002
11325	1.92	4.5455	0.	7.7783e-002
11326	2.0114	4.5455	5.e-002	14.586
11327	2.0114	4.2727	0.	4.8406e-002
11328	1.92	4.3636	0.	5.7122e-002
11329	2.0114	4.3636	5.e-002	14.456
11330	2.0114	4.0909	0.	3.6599e-002
11331	1.92	4.1818	0.	4.369e-002
11332	2.0114	4.1818	5.e-002	14.307
11333	2.0114	3.9091	0.	2.8715e-002
11334	1.92	4.	0.	3.5009e-002
11335	2.0114	4.	5.e-002	14.154
11336	2.0114	3.7273	0.	2.3502e-002
11337	1.92	3.8182	0.	2.9451e-002
11338	2.0114	3.8182	5.e-002	14.012
11339	2.0114	3.5455	0.	2.0108e-002
11340	1.92	3.6364	0.	2.5914e-002
11341	2.0114	3.6364	5.e-002	13.888
11342	2.0114	3.3636	0.	1.7993e-002
11343	1.92	3.4545	0.	2.3708e-002
11344	2.0114	3.4545	5.e-002	13.789
11345	2.0114	3.1818	0.	1.6833e-002
11346	1.92	3.2727	0.	2.2419e-002
11347	2.0114	3.2727	5.e-002	13.72
11348	2.0114	3.	0.	1.6464e-002
11349	1.92	3.0909	0.	2.1823e-002
11350	2.0114	3.0909	5.e-002	13.685
11351	2.0114	2.8182	0.	1.6833e-002
11352	1.92	2.9091	0.	2.1823e-002
11353	2.0114	2.9091	5.e-002	13.685
11354	2.0114	2.6364	0.	1.7993e-002
11355	1.92	2.7273	0.	2.2419e-002
11356	2.0114	2.7273	5.e-002	13.72
11357	2.0114	2.4545	0.	2.0108e-002
11358	1.92	2.5455	0.	2.3708e-002
11359	2.0114	2.5455	5.e-002	13.789
11360	2.0114	2.2727	0.	2.3502e-002
11361	1.92	2.3636	0.	2.5914e-002
11362	2.0114	2.3636	5.e-002	13.888
11363	2.0114	2.0909	0.	2.8715e-002
11364	1.92	2.1818	0.	2.9452e-002
11365	2.0114	2.1818	5.e-002	14.012
11366	2.0114	1.9091	0.	3.6599e-002
11367	1.92	2.	0.	3.5009e-002
11368	2.0114	2.	5.e-002	14.154
11369	2.0114	1.7273	0.	4.8407e-002
11370	1.92	1.8182	0.	4.369e-002
11371	2.0114	1.8182	5.e-002	14.307
11372	2.0114	1.5455	0.	6.5967e-002
11373	1.92	1.6364	0.	5.7122e-002
11374	2.0114	1.6364	5.e-002	14.456
11375	2.0114	1.3636	0.	9.1595e-002
11376	1.92	1.4545	0.	7.7783e-002
11377	2.0114	1.4545	5.e-002	14.586
11378	2.0114	1.1818	0.	0.12917
11379	1.92	1.2727	0.	0.10859
11380	2.0114	1.2727	5.e-002	14.671
11381	2.0114	1.	0.	0.18128
11382	1.92	1.0909	0.	0.15569
11383	2.0114	1.0909	5.e-002	14.676
11384	2.0114	0.81818	0.	0.26546
11385	1.92	0.90909	0.	0.21988
11386	2.0114	0.90909	5.e-002	14.563
11387	2.0114	0.63636	0.	0.36342
11388	1.92	0.72727	0.	0.34003
11389	2.0114	0.72727	5.e-002	14.292
11390	2.0114	0.45455	0.	0.75081
11391	1.92	0.54545	0.	0.44798
11392	2.0114	0.54545	5.e-002	13.866
11393	2.0114	0.27273	0.	1.7261
11394	1.92	0.36364	0.	1.2485
11395	2.0114	0.36364	5.e-002	13.627
11396	1.92	0.18182	0.	6.1282
11397	2.0114	0.18182	5.e-002	24.539
11398	2.0114	9.0909e-002	0.	1.2424
11399	1.8286	5.7273	0.	2.0298
11400	1.7371	5.8182	0.	8.5005
11401	1.8286	5.8182	5.e-002	25.668
11402	1.8286	5.9091	0.	1.9419
11403	1.8286	5.5455	0.	0.83231
11404	1.7371	5.6364	0.	1.4104
11405	1.8286	5.6364	5.e-002	14.538
11406	1.8286	5.3636	0.	0.39401
11407	1.7371	5.4545	0.	0.50426
11408	1.8286	5.4545	5.e-002	14.944
11409	1.8286	5.1818	0.	0.28103
11410	1.7371	5.2727	0.	0.37725
11411	1.8286	5.2727	5.e-002	15.397
11412	1.8286	5.	0.	0.18684
11413	1.7371	5.0909	0.	0.24231
11414	1.8286	5.0909	5.e-002	15.642
11415	1.8286	4.8182	0.	0.1304
11416	1.7371	4.9091	0.	0.17217
11417	1.8286	4.9091	5.e-002	15.712
11418	1.8286	4.6364	0.	9.1554e-002
11419	1.7371	4.7273	0.	0.12298
11420	1.8286	4.7273	5.e-002	15.67
11421	1.8286	4.4545	0.	6.662e-002
11422	1.7371	4.5455	0.	9.2743e-002
11423	1.8286	4.5455	5.e-002	15.572
11424	1.8286	4.2727	0.	5.0677e-002
11425	1.7371	4.3636	0.	7.3819e-002
11426	1.8286	4.3636	5.e-002	15.456
11427	1.8286	4.0909	0.	4.077e-002
11428	1.7371	4.1818	0.	6.2476e-002
11429	1.8286	4.1818	5.e-002	15.343
11430	1.8286	3.9091	0.	3.4689e-002
11431	1.7371	4.	0.	5.5754e-002
11432	1.8286	4.	5.e-002	15.244
11433	1.8286	3.7273	0.	3.0995e-002
11434	1.7371	3.8182	0.	5.1825e-002
11435	1.8286	3.8182	5.e-002	15.16
11436	1.8286	3.5455	0.	2.8773e-002
11437	1.7371	3.6364	0.	4.953e-002
11438	1.8286	3.6364	5.e-002	15.094
11439	1.8286	3.3636	0.	2.7475e-002
11440	1.7371	3.4545	0.	4.82e-002
11441	1.8286	3.4545	5.e-002	15.044
11442	1.8286	3.1818	0.	2.6795e-002
11443	1.7371	3.2727	0.	4.7464e-002
11444	1.8286	3.2727	5.e-002	15.011
11445	1.8286	3.	0.	2.6583e-002
11446	1.7371	3.0909	0.	4.7133e-002
11447	1.8286	3.0909	5.e-002	14.994
11448	1.8286	2.8182	0.	2.6795e-002
11449	1.7371	2.9091	0.	4.7133e-002
11450	1.8286	2.9091	5.e-002	14.994
11451	1.8286	2.6364	0.	2.7475e-002
11452	1.7371	2.7273	0.	4.7464e-002
11453	1.8286	2.7273	5.e-002	15.011
11454	1.8286	2.4545	0.	2.8773e-002
11455	1.7371	2.5455	0.	4.8201e-002
11456	1.8286	2.5455	5.e-002	15.044
11457	1.8286	2.2727	0.	3.0995e-002
11458	1.7371	2.3636	0.	4.953e-002
11459	1.8286	2.3636	5.e-002	15.094
11460	1.8286	2.0909	0.	3.4689e-002
11461	1.7371	2.1818	0.	5.1825e-002
11462	1.8286	2.1818	5.e-002	15.16
11463	1.8286	1.9091	0.	4.077e-002
11464	1.7371	2.	0.	5.5754e-002
11465	1.8286	2.	5.e-002	15.243
11466	1.8286	1.7273	0.	5.0677e-002
11467	1.7371	1.8182	0.	6.2476e-002
11468	1.8286	1.8182	5.e-002	15.343
11469	1.8286	1.5455	0.	6.662e-002
11470	1.7371	1.6364	0.	7.3819e-002
11471	1.8286	1.6364	5.e-002	15.456
11472	1.8286	1.3636	0.	9.1554e-002
11473	1.7371	1.4545	0.	9.2743e-002
11474	1.8286	1.4545	5.e-002	15.572
11475	1.8286	1.1818	0.	0.1304
11476	1.7371	1.2727	0.	0.12298
11477	1.8286	1.2727	5.e-002	15.67
11478	1.8286	1.	0.	0.18684
11479	1.7371	1.0909	0.	0.17217
11480	1.8286	1.0909	5.e-002	15.712
11481	1.8286	0.81818	0.	0.28103
11482	1.7371	0.90909	0.	0.24231
11483	1.8286	0.90909	5.e-002	15.642
11484	1.8286	0.63636	0.	0.39401
11485	1.7371	0.72727	0.	0.37725
11486	1.8286	0.72727	5.e-002	15.396
11487	1.8286	0.45455	0.	0.83231
11488	1.7371	0.54545	0.	0.50426
11489	1.8286	0.54545	5.e-002	14.944
11490	1.8286	0.27273	0.	2.0298
11491	1.7371	0.36364	0.	1.4104
11492	1.8286	0.36364	5.e-002	14.538
11493	1.7371	0.18182	0.	8.5004
11494	1.8286	0.18182	5.e-002	25.667
11495	1.8286	9.0909e-002	0.	1.9419
11496	1.6457	5.7273	0.	2.4257
11497	1.5543	5.8182	0.	12.309
11498	1.6457	5.8182	5.e-002	26.755
11499	1.6457	5.9091	0.	4.2513
11500	1.6457	5.5455	0.	0.94527
11501	1.5543	5.6364	0.	1.5815
11502	1.6457	5.6364	5.e-002	15.779
11503	1.6457	5.3636	0.	0.45151
11504	1.5543	5.4545	0.	0.54322
11505	1.6457	5.4545	5.e-002	16.388
11506	1.6457	5.1818	0.	0.32279
11507	1.5543	5.2727	0.	0.38869
11508	1.6457	5.2727	5.e-002	16.832
11509	1.6457	5.	0.	0.21892
11510	1.5543	5.0909	0.	0.23451
11511	1.6457	5.0909	5.e-002	17.001
11512	1.6457	4.8182	0.	0.15928
11513	1.5543	4.9091	0.	0.15673
11514	1.6457	4.9091	5.e-002	16.98
11515	1.6457	4.6364	0.	0.12048
11516	1.5543	4.7273	0.	0.10494
11517	1.6457	4.7273	5.e-002	16.868
11518	1.6457	4.4545	0.	9.7342e-002
11519	1.5543	4.5455	0.	7.5035e-002
11520	1.6457	4.5455	5.e-002	16.738
11521	1.6457	4.2727	0.	8.3723e-002
11522	1.5543	4.3636	0.	5.7487e-002
11523	1.6457	4.3636	5.e-002	16.626
11524	1.6457	4.0909	0.	7.6038e-002
11525	1.5543	4.1818	0.	4.7647e-002
11526	1.6457	4.1818	5.e-002	16.546
11527	1.6457	3.9091	0.	7.1789e-002
11528	1.5543	4.	0.	4.2144e-002
11529	1.6457	4.	5.e-002	16.494
11530	1.6457	3.7273	0.	6.9475e-002
11531	1.5543	3.8182	0.	3.906e-002
11532	1.6457	3.8182	5.e-002	16.463
11533	1.6457	3.5455	0.	6.8217e-002
11534	1.5543	3.6364	0.	3.7285e-002
11535	1.6457	3.6364	5.e-002	16.445
11536	1.6457	3.3636	0.	6.7539e-002
11537	1.5543	3.4545	0.	3.6241e-002
11538	1.6457	3.4545	5.e-002	16.435
11539	1.6457	3.1818	0.	6.7202e-002
11540	1.5543	3.2727	0.	3.5643e-002
11541	1.6457	3.2727	5.e-002	16.429
11542	1.6457	3.	0.	6.7099e-002
11543	1.5543	3.0909	0.	3.5367e-002
11544	1.6457	3.0909	5.e-002	16.427
11545	1.6457	2.8182	0.	6.7202e-002
11546	1.5543	2.9091	0.	3.5367e-002
11547	1.6457	2.9091	5.e-002	16.427
11548	1.6457	2.6364	0.	6.7539e-002
11549	1.5543	2.7273	0.	3.5643e-002
11550	1.6457	2.7273	5.e-002	16.429
11551	1.6457	2.4545	0.	6.8217e-002
11552	1.5543	2.5455	0.	3.6241e-002
11553	1.6457	2.5455	5.e-002	16.435
11554	1.6457	2.2727	0.	6.9476e-002
11555	1.5543	2.3636	0.	3.7285e-002
11556	1.6457	2.3636	5.e-002	16.445
11557	1.6457	2.0909	0.	7.1789e-002
11558	1.5543	2.1818	0.	3.906e-002
11559	1.6457	2.1818	5.e-002	16.463
11560	1.6457	1.9091	0.	7.6038e-002
11561	1.5543	2.	0.	4.2144e-002
11562	1.6457	2.	5.e-002	16.494
11563	1.6457	1.7273	0.	8.3723e-002
11564	1.5543	1.8182	0.	4.7647e-002
11565	1.6457	1.8182	5.e-002	16.546
11566	1.6457	1.5455	0.	9.7342e-002
11567	1.5543	1.6364	0.	5.7487e-002
11568	1.6457	1.6364	5.e-002	16.626
11569	1.6457	1.3636	0.	0.12048
11570	1.5543	1.4545	0.	7.5035e-002
11571	1.6457	1.4545	5.e-002	16.738
11572	1.6457	1.1818	0.	0.15928
11573	1.5543	1.2727	0.	0.10494
11574	1.6457	1.2727	5.e-002	16.868
11575	1.6457	1.	0.	0.21892
11576	1.5543	1.0909	0.	0.15673
11577	1.6457	1.0909	5.e-002	16.98
11578	1.6457	0.81818	0.	0.3228
11579	1.5543	0.90909	0.	0.23451
11580	1.6457	0.90909	5.e-002	17.001
11581	1.6457	0.63636	0.	0.45151
11582	1.5543	0.72727	0.	0.38869
11583	1.6457	0.72727	5.e-002	16.832
11584	1.6457	0.45455	0.	0.94528
11585	1.5543	0.54545	0.	0.54322
11586	1.6457	0.54545	5.e-002	16.388
11587	1.6457	0.27273	0.	2.4256
11588	1.5543	0.36364	0.	1.5815
11589	1.6457	0.36364	5.e-002	15.779
11590	1.5543	0.18182	0.	12.309
11591	1.6457	0.18182	5.e-002	26.754
11592	1.6457	9.0909e-002	0.	4.2512
11593	1.4629	5.7273	0.	2.8879
11594	1.3714	5.8182	0.	18.518
11595	1.4629	5.8182	5.e-002	27.743
11596	1.4629	5.9091	0.	10.419
11597	1.4629	5.5455	0.	1.0114
11598	1.3714	5.6364	0.	1.8753
11599	1.4629	5.6364	5.e-002	17.528
11600	1.4629	5.3636	0.	0.43742
11601	1.3714	5.4545	0.	0.70878
11602	1.4629	5.4545	5.e-002	18.35
11603	1.4629	5.1818	0.	0.28165
11604	1.3714	5.2727	0.	0.53508
11605	1.4629	5.2727	5.e-002	18.707
11606	1.4629	5.	0.	0.16197
11607	1.3714	5.0909	0.	0.36852
11608	1.4629	5.0909	5.e-002	18.709
11609	1.4629	4.8182	0.	9.5963e-002
11610	1.3714	4.9091	0.	0.28964
11611	1.4629	4.9091	5.e-002	18.524
11612	1.4629	4.6364	0.	5.5243e-002
11613	1.3714	4.7273	0.	0.24047
11614	1.4629	4.7273	5.e-002	18.299
11615	1.4629	4.4545	0.	3.2264e-002
11616	1.3714	4.5455	0.	0.21465
11617	1.4629	4.5455	5.e-002	18.117
11618	1.4629	4.2727	0.	1.9348e-002
11619	1.3714	4.3636	0.	0.2008
11620	1.4629	4.3636	5.e-002	18.003
11621	1.4629	4.0909	0.	1.2252e-002
11622	1.3714	4.1818	0.	0.19372
11623	1.4629	4.1818	5.e-002	17.949
11624	1.4629	3.9091	0.	8.2848e-003
11625	1.3714	4.	0.	0.19001
11626	1.4629	4.	5.e-002	17.936
11627	1.4629	3.7273	0.	5.9844e-003
11628	1.3714	3.8182	0.	0.18796
11629	1.4629	3.8182	5.e-002	17.944
11630	1.4629	3.5455	0.	4.5826e-003
11631	1.3714	3.6364	0.	0.1867
11632	1.4629	3.6364	5.e-002	17.961
11633	1.4629	3.3636	0.	3.7167e-003
11634	1.3714	3.4545	0.	0.18588
11635	1.4629	3.4545	5.e-002	17.977
11636	1.4629	3.1818	0.	3.2326e-003
11637	1.3714	3.2727	0.	0.18535
11638	1.4629	3.2727	5.e-002	17.989
11639	1.4629	3.	0.	3.0754e-003
11640	1.3714	3.0909	0.	0.18508
11641	1.4629	3.0909	5.e-002	17.995
11642	1.4629	2.8182	0.	3.2325e-003
11643	1.3714	2.9091	0.	0.18508
11644	1.4629	2.9091	5.e-002	17.995
11645	1.4629	2.6364	0.	3.7167e-003
11646	1.3714	2.7273	0.	0.18535
11647	1.4629	2.7273	5.e-002	17.989
11648	1.4629	2.4545	0.	4.5826e-003
11649	1.3714	2.5455	0.	0.18588
11650	1.4629	2.5455	5.e-002	17.977
11651	1.4629	2.2727	0.	5.9844e-003
11652	1.3714	2.3636	0.	0.1867
11653	1.4629	2.3636	5.e-002	17.961
11654	1.4629	2.0909	0.	8.2848e-003
11655	1.3714	2.1818	0.	0.18796
11656	1.4629	2.1818	5.e-002	17.944
11657	1.4629	1.9091	0.	1.2252e-002
11658	1.3714	2.	0.	0.19001
11659	1.4629	2.	5.e-002	17.936
11660	1.4629	1.7273	0.	1.9348e-002
11661	1.3714	1.8182	0.	0.19372
11662	1.4629	1.8182	5.e-002	17.949
11663	1.4629	1.5455	0.	3.2264e-002
11664	1.3714	1.6364	0.	0.2008
11665	1.4629	1.6364	5.e-002	18.003
11666	1.4629	1.3636	0.	5.5243e-002
11667	1.3714	1.4545	0.	0.21465
11668	1.4629	1.4545	5.e-002	18.117
11669	1.4629	1.1818	0.	9.5963e-002
11670	1.3714	1.2727	0.	0.24047
11671	1.4629	1.2727	5.e-002	18.299
11672	1.4629	1.	0.	0.16197
11673	1.3714	1.0909	0.	0.28964
11674	1.4629	1.0909	5.e-002	18.524
11675	1.4629	0.81818	0.	0.28165
11676	1.3714	0.90909	0.	0.36852
11677	1.4629	0.90909	5.e-002	18.709
11678	1.4629	0.63636	0.	0.43742
11679	1.3714	0.72727	0.	0.53508
11680	1.4629	0.72727	5.e-002	18.707
11681	1.4629	0.45455	0.	1.0114
11682	1.3714	0.54545	0.	0.70878
11683	1.4629	0.54545	5.e-002	18.35
11684	1.4629	0.27273	0.	2.8879
11685	1.3714	0.36364	0.	1.8753
11686	1.4629	0.36364	5.e-002	17.528
11687	1.3714	0.18182	0.	18.518
11688	1.4629	0.18182	5.e-002	27.743
11689	1.4629	9.0909e-002	0.	10.419
11690	1.28	5.7273	0.	3.6536
11691	1.1886	5.8182	0.	28.084
11692	1.28	5.8182	5.e-002	28.575
11693	1.28	5.9091	0.	20.165
11694	1.28	5.5455	0.	1.3641
11695	1.1886	5.6364	0.	1.8882
11696	1.28	5.6364	5.e-002	20.074
11697	1.28	5.3636	0.	0.75427
11698	1.1886	5.4545	0.	0.45363
11699	1.28	5.4545	5.e-002	21.053
11700	1.28	5.1818	0.	0.59919
11701	1.1886	5.2727	0.	0.19737
11702	1.28	5.2727	5.e-002	21.162
11703	1.28	5.	0.	0.4837
11704	1.1886	5.0909	0.	-1.952e-002
11705	1.28	5.0909	5.e-002	20.842
11706	1.28	4.8182	0.	0.42654
11707	1.1886	4.9091	0.	-0.12432
11708	1.28	4.9091	5.e-002	20.393
11709	1.28	4.6364	0.	0.395
11710	1.1886	4.7273	0.	-0.18889
11711	1.28	4.7273	5.e-002	20.007
11712	1.28	4.4545	0.	0.37995
11713	1.1886	4.5455	0.	-0.22499
11714	1.28	4.5455	5.e-002	19.755
11715	1.28	4.2727	0.	0.37296
11716	1.1886	4.3636	0.	-0.24697
11717	1.28	4.3636	5.e-002	19.629
11718	1.28	4.0909	0.	0.36992
11719	1.1886	4.1818	0.	-0.26102
11720	1.28	4.1818	5.e-002	19.589
11721	1.28	3.9091	0.	0.36855
11722	1.1886	4.	0.	-0.27077
11723	1.28	4.	5.e-002	19.595
11724	1.28	3.7273	0.	0.36781
11725	1.1886	3.8182	0.	-0.27793
11726	1.28	3.8182	5.e-002	19.621
11727	1.28	3.5455	0.	0.3673
11728	1.1886	3.6364	0.	-0.2833
11729	1.28	3.6364	5.e-002	19.649
11730	1.28	3.3636	0.	0.36691
11731	1.1886	3.4545	0.	-0.28721
11732	1.28	3.4545	5.e-002	19.672
11733	1.28	3.1818	0.	0.36666
11734	1.1886	3.2727	0.	-0.28979
11735	1.28	3.2727	5.e-002	19.688
11736	1.28	3.	0.	0.36657
11737	1.1886	3.0909	0.	-0.29108
11738	1.28	3.0909	5.e-002	19.695
11739	1.28	2.8182	0.	0.36666
11740	1.1886	2.9091	0.	-0.29108
11741	1.28	2.9091	5.e-002	19.695
11742	1.28	2.6364	0.	0.36691
11743	1.1886	2.7273	0.	-0.28979
11744	1.28	2.7273	5.e-002	19.688
11745	1.28	2.4545	0.	0.3673
11746	1.1886	2.5455	0.	-0.28721
11747	1.28	2.5455	5.e-002	19.672
11748	1.28	2.2727	0.	0.36781
11749	1.1886	2.3636	0.	-0.2833
11750	1.28	2.3636	5.e-002	19.649
11751	1.28	2.0909	0.	0.36855
11752	1.1886	2.1818	0.	-0.27793
11753	1.28	2.1818	5.e-002	19.621
11754	1.28	1.9091	0.	0.36992
11755	1.1886	2.	0.	-0.27077
11756	1.28	2.	5.e-002	19.595
11757	1.28	1.7273	0.	0.37296
11758	1.1886	1.8182	0.	-0.26102
11759	1.28	1.8182	5.e-002	19.589
11760	1.28	1.5455	0.	0.37995
11761	1.1886	1.6364	0.	-0.24697
11762	1.28	1.6364	5.e-002	19.629
11763	1.28	1.3636	0.	0.395
11764	1.1886	1.4545	0.	-0.22499
11765	1.28	1.4545	5.e-002	19.755
11766	1.28	1.1818	0.	0.42655
11767	1.1886	1.2727	0.	-0.18889
11768	1.28	1.2727	5.e-002	20.007
11769	1.28	1.	0.	0.4837
11770	1.1886	1.0909	0.	-0.12432
11771	1.28	1.0909	5.e-002	20.393
11772	1.28	0.81818	0.	0.59919
11773	1.1886	0.90909	0.	-1.952e-002
11774	1.28	0.90909	5.e-002	20.842
11775	1.28	0.63636	0.	0.75427
11776	1.1886	0.72727	0.	0.19737
11777	1.28	0.72727	5.e-002	21.162
11778	1.28	0.45455	0.	1.3641
11779	1.1886	0.54545	0.	0.45363
11780	1.28	0.54545	5.e-002	21.053
11781	1.28	0.27273	0.	3.6536
11782	1.1886	0.36364	0.	1.8882
11783	1.28	0.36364	5.e-002	20.074
11784	1.1886	0.18182	0.	28.084
11785	1.28	0.18182	5.e-002	28.574
11786	1.28	9.0909e-002	0.	20.164
11787	1.0971	5.7273	0.	3.954
11788	1.0057	5.8182	0.	42.221
11789	1.0971	5.8182	5.e-002	29.262
11790	1.0971	5.9091	0.	33.018
11791	1.0971	5.5455	0.	0.71469
11792	1.0057	5.6364	0.	3.3128
11793	1.0971	5.6364	5.e-002	23.906
11794	1.0971	5.3636	0.	-0.16798
11795	1.0057	5.4545	0.	2.0052
11796	1.0971	5.4545	5.e-002	24.823
11797	1.0971	5.1818	0.	-0.44959
11798	1.0057	5.2727	0.	1.8685
11799	1.0971	5.2727	5.e-002	24.37
11800	1.0971	5.	0.	-0.64282
11801	1.0057	5.0909	0.	1.7344
11802	1.0971	5.0909	5.e-002	23.491
11803	1.0971	4.8182	0.	-0.74878
11804	1.0057	4.9091	0.	1.6979
11805	1.0971	4.9091	5.e-002	22.654
11806	1.0971	4.6364	0.	-0.81443
11807	1.0057	4.7273	0.	1.6857
11808	1.0971	4.7273	5.e-002	22.065
11809	1.0971	4.4545	0.	-0.85543
11810	1.0057	4.5455	0.	1.6887
11811	1.0971	4.5455	5.e-002	21.732
11812	1.0971	4.2727	0.	-0.88324
11813	1.0057	4.3636	0.	1.6952
11814	1.0971	4.3636	5.e-002	21.579
11815	1.0971	4.0909	0.	-0.90326
11816	1.0057	4.1818	0.	1.7017
11817	1.0971	4.1818	5.e-002	21.526
11818	1.0971	3.9091	0.	-0.91834
11819	1.0057	4.	0.	1.7069
11820	1.0971	4.	5.e-002	21.519
11821	1.0971	3.7273	0.	-0.92985
11822	1.0057	3.8182	0.	1.7105
11823	1.0971	3.8182	5.e-002	21.525
11824	1.0971	3.5455	0.	-0.93845
11825	1.0057	3.6364	0.	1.7129
11826	1.0971	3.6364	5.e-002	21.531
11827	1.0971	3.3636	0.	-0.94446
11828	1.0057	3.4545	0.	1.7143
11829	1.0971	3.4545	5.e-002	21.533
11830	1.0971	3.1818	0.	-0.94802
11831	1.0057	3.2727	0.	1.7151
11832	1.0971	3.2727	5.e-002	21.533
11833	1.0971	3.	0.	-0.9492
11834	1.0057	3.0909	0.	1.7155
11835	1.0971	3.0909	5.e-002	21.533
11836	1.0971	2.8182	0.	-0.94802
11837	1.0057	2.9091	0.	1.7155
11838	1.0971	2.9091	5.e-002	21.533
11839	1.0971	2.6364	0.	-0.94446
11840	1.0057	2.7273	0.	1.7151
11841	1.0971	2.7273	5.e-002	21.533
11842	1.0971	2.4545	0.	-0.93845
11843	1.0057	2.5455	0.	1.7143
11844	1.0971	2.5455	5.e-002	21.533
11845	1.0971	2.2727	0.	-0.92985
11846	1.0057	2.3636	0.	1.7129
11847	1.0971	2.3636	5.e-002	21.531
11848	1.0971	2.0909	0.	-0.91834
11849	1.0057	2.1818	0.	1.7105
11850	1.0971	2.1818	5.e-002	21.524
11851	1.0971	1.9091	0.	-0.90326
11852	1.0057	2.	0.	1.7069
11853	1.0971	2.	5.e-002	21.518
11854	1.0971	1.7273	0.	-0.88324
11855	1.0057	1.8182	0.	1.7017
11856	1.0971	1.8182	5.e-002	21.526
11857	1.0971	1.5455	0.	-0.85543
11858	1.0057	1.6364	0.	1.6952
11859	1.0971	1.6364	5.e-002	21.579
11860	1.0971	1.3636	0.	-0.81443
11861	1.0057	1.4545	0.	1.6887
11862	1.0971	1.4545	5.e-002	21.732
11863	1.0971	1.1818	0.	-0.74878
11864	1.0057	1.2727	0.	1.6857
11865	1.0971	1.2727	5.e-002	22.065
11866	1.0971	1.	0.	-0.64282
11867	1.0057	1.0909	0.	1.6979
11868	1.0971	1.0909	5.e-002	22.654
11869	1.0971	0.81818	0.	-0.44959
11870	1.0057	0.90909	0.	1.7344
11871	1.0971	0.90909	5.e-002	23.491
11872	1.0971	0.63636	0.	-0.16799
11873	1.0057	0.72727	0.	1.8685
11874	1.0971	0.72727	5.e-002	24.37
11875	1.0971	0.45455	0.	0.71469
11876	1.0057	0.54545	0.	2.0052
11877	1.0971	0.54545	5.e-002	24.823
11878	1.0971	0.27273	0.	3.954
11879	1.0057	0.36364	0.	3.3128
11880	1.0971	0.36364	5.e-002	23.906
11881	1.0057	0.18182	0.	42.22
11882	1.0971	0.18182	5.e-002	29.262
11883	1.0971	9.0909e-002	0.	33.018
11884	0.91429	5.7273	0.	7.0141
11885	0.82286	5.8182	0.	59.577
11886	0.91429	5.8182	5.e-002	30.016
11887	0.91429	5.9091	0.	50.278
11888	0.91429	5.5455	0.	4.2687
11889	0.82286	5.6364	0.	-0.44486
11890	0.91429	5.6364	5.e-002	29.799
11891	0.91429	5.3636	0.	3.9594
11892	0.82286	5.4545	0.	-3.3575
11893	0.91429	5.4545	5.e-002	30.105
11894	0.91429	5.1818	0.	4.0166
11895	0.82286	5.2727	0.	-4.2198
11896	0.91429	5.2727	5.e-002	28.503
11897	0.91429	5.	0.	4.0563
11898	0.82286	5.0909	0.	-4.8367
11899	0.91429	5.0909	5.e-002	26.715
11900	0.91429	4.8182	0.	4.1219
11901	0.82286	4.9091	0.	-5.1967
11902	0.91429	4.9091	5.e-002	25.366
11903	0.91429	4.6364	0.	4.1828
11904	0.82286	4.7273	0.	-5.4446
11905	0.91429	4.7273	5.e-002	24.545
11906	0.91429	4.4545	0.	4.2357
11907	0.82286	4.5455	0.	-5.6193
11908	0.91429	4.5455	5.e-002	24.105
11909	0.91429	4.2727	0.	4.2779
11910	0.82286	4.3636	0.	-5.7501
11911	0.91429	4.3636	5.e-002	23.88
11912	0.91429	4.0909	0.	4.3104
11913	0.82286	4.1818	0.	-5.8499
11914	0.91429	4.1818	5.e-002	23.754
11915	0.91429	3.9091	0.	4.3348
11916	0.82286	4.	0.	-5.927
11917	0.91429	4.	5.e-002	23.668
11918	0.91429	3.7273	0.	4.3526
11919	0.82286	3.8182	0.	-5.986
11920	0.91429	3.8182	5.e-002	23.596
11921	0.91429	3.5455	0.	4.3651
11922	0.82286	3.6364	0.	-6.0302
11923	0.91429	3.6364	5.e-002	23.532
11924	0.91429	3.3636	0.	4.3734
11925	0.82286	3.4545	0.	-6.0618
11926	0.91429	3.4545	5.e-002	23.478
11927	0.91429	3.1818	0.	4.3781
11928	0.82286	3.2727	0.	-6.0821
11929	0.91429	3.2727	5.e-002	23.438
11930	0.91429	3.	0.	4.3797
11931	0.82286	3.0909	0.	-6.092
11932	0.91429	3.0909	5.e-002	23.417
11933	0.91429	2.8182	0.	4.3781
11934	0.82286	2.9091	0.	-6.092
11935	0.91429	2.9091	5.e-002	23.417
11936	0.91429	2.6364	0.	4.3734
11937	0.82286	2.7273	0.	-6.0821
11938	0.91429	2.7273	5.e-002	23.438
11939	0.91429	2.4545	0.	4.3651
11940	0.82286	2.5455	0.	-6.0618
11941	0.91429	2.5455	5.e-002	23.478
11942	0.91429	2.2727	0.	4.3526
11943	0.82286	2.3636	0.	-6.0302
11944	0.91429	2.3636	5.e-002	23.532
11945	0.91429	2.0909	0.	4.3348
11946	0.82286	2.1818	0.	-5.986
11947	0.91429	2.1818	5.e-002	23.596
11948	0.91429	1.9091	0.	4.3104
11949	0.82286	2.	0.	-5.927
11950	0.91429	2.	5.e-002	23.668
11951	0.91429	1.7273	0.	4.2779
11952	0.82286	1.8182	0.	-5.8499
11953	0.91429	1.8182	5.e-002	23.754
11954	0.91429	1.5455	0.	4.2357
11955	0.82286	1.6364	0.	-5.7501
11956	0.91429	1.6364	5.e-002	23.88
11957	0.91429	1.3636	0.	4.1828
11958	0.82286	1.4545	0.	-5.6193
11959	0.91429	1.4545	5.e-002	24.105
11960	0.91429	1.1818	0.	4.1219
11961	0.82286	1.2727	0.	-5.4446
11962	0.91429	1.2727	5.e-002	24.545
11963	0.91429	1.	0.	4.0563
11964	0.82286	1.0909	0.	-5.1967
11965	0.91429	1.0909	5.e-002	25.366
11966	0.91429	0.81818	0.	4.0166
11967	0.82286	0.90909	0.	-4.8367
11968	0.91429	0.90909	5.e-002	26.715
11969	0.91429	0.63636	0.	3.9594
11970	0.82286	0.72727	0.	-4.2198
11971	0.91429	0.72727	5.e-002	28.503
11972	0.91429	0.45455	0.	4.2687
11973	0.82286	0.54545	0.	-3.3575
11974	0.91429	0.54545	5.e-002	30.105
11975	0.91429	0.27273	0.	7.0141
11976	0.82286	0.36364	0.	-0.44486
11977	0.91429	0.36364	5.e-002	29.799
11978	0.82286	0.18182	0.	59.577
11979	0.91429	0.18182	5.e-002	30.016
11980	0.91429	9.0909e-002	0.	50.278
11981	0.73143	5.7273	0.	0.21353
11982	0.64	5.8182	0.	84.229
11983	0.73143	5.8182	5.e-002	32.411
11984	0.73143	5.9091	0.	71.002
11985	0.73143	5.5455	0.	-8.5141
11986	0.64	5.6364	0.	17.47
11987	0.73143	5.6364	5.e-002	39.115
11988	0.73143	5.3636	0.	-11.647
11989	0.64	5.4545	0.	19.39
11990	0.73143	5.4545	5.e-002	37.417
11991	0.73143	5.1818	0.	-13.12
11992	0.64	5.2727	0.	20.808
11993	0.73143	5.2727	5.e-002	33.707
11994	0.73143	5.	0.	-14.113
11995	0.64	5.0909	0.	21.798
11996	0.73143	5.0909	5.e-002	30.7
11997	0.73143	4.8182	0.	-14.775
11998	0.64	4.9091	0.	22.585
11999	0.73143	4.9091	5.e-002	28.832
12000	0.73143	4.6364	0.	-15.253
12001	0.64	4.7273	0.	23.179
12002	0.73143	4.7273	5.e-002	27.795
12003	0.73143	4.4545	0.	-15.609
12004	0.64	4.5455	0.	23.635
12005	0.73143	4.5455	5.e-002	27.209
12006	0.73143	4.2727	0.	-15.88
12007	0.64	4.3636	0.	23.985
12008	0.73143	4.3636	5.e-002	26.828
12009	0.73143	4.0909	0.	-16.089
12010	0.64	4.1818	0.	24.254
12011	0.73143	4.1818	5.e-002	26.534
12012	0.73143	3.9091	0.	-16.249
12013	0.64	4.	0.	24.461
12014	0.73143	4.	5.e-002	26.283
12015	0.73143	3.7273	0.	-16.369
12016	0.64	3.8182	0.	24.618
12017	0.73143	3.8182	5.e-002	26.061
12018	0.73143	3.5455	0.	-16.458
12019	0.64	3.6364	0.	24.734
12020	0.73143	3.6364	5.e-002	25.872
12021	0.73143	3.3636	0.	-16.518
12022	0.64	3.4545	0.	24.816
12023	0.73143	3.4545	5.e-002	25.723
12024	0.73143	3.1818	0.	-16.553
12025	0.64	3.2727	0.	24.868
12026	0.73143	3.2727	5.e-002	25.619
12027	0.73143	3.	0.	-16.564
12028	0.64	3.0909	0.	24.894
12029	0.73143	3.0909	5.e-002	25.566
12030	0.73143	2.8182	0.	-16.553
12031	0.64	2.9091	0.	24.894
12032	0.73143	2.9091	5.e-002	25.566
12033	0.73143	2.6364	0.	-16.518
12034	0.64	2.7273	0.	24.868
12035	0.73143	2.7273	5.e-002	25.619
12036	0.73143	2.4545	0.	-16.458
12037	0.64	2.5455	0.	24.816
12038	0.73143	2.5455	5.e-002	25.723
12039	0.73143	2.2727	0.	-16.369
12040	0.64	2.3636	0.	24.734
12041	0.73143	2.3636	5.e-002	25.872
12042	0.73143	2.0909	0.	-16.249
12043	0.64	2.1818	0.	24.618
12044	0.73143	2.1818	5.e-002	26.061
12045	0.73143	1.9091	0.	-16.089
12046	0.64	2.	0.	24.461
12047	0.73143	2.	5.e-002	26.283
12048	0.73143	1.7273	0.	-15.88
12049	0.64	1.8182	0.	24.254
12050	0.73143	1.8182	5.e-002	26.534
12051	0.73143	1.5455	0.	-15.609
12052	0.64	1.6364	0.	23.985
12053	0.73143	1.6364	5.e-002	26.828
12054	0.73143	1.3636	0.	-15.253
12055	0.64	1.4545	0.	23.635
12056	0.73143	1.4545	5.e-002	27.208
12057	0.73143	1.1818	0.	-14.775
12058	0.64	1.2727	0.	23.179
12059	0.73143	1.2727	5.e-002	27.795
12060	0.73143	1.	0.	-14.113
12061	0.64	1.0909	0.	22.585
12062	0.73143	1.0909	5.e-002	28.832
12063	0.73143	0.81818	0.	-13.12
12064	0.64	0.90909	0.	21.798
12065	0.73143	0.90909	5.e-002	30.7
12066	0.73143	0.63636	0.	-11.647
12067	0.64	0.72727	0.	20.808
12068	0.73143	0.72727	5.e-002	33.707
12069	0.73143	0.45455	0.	-8.5141
12070	0.64	0.54545	0.	19.39
12071	0.73143	0.54545	5.e-002	37.417
12072	0.73143	0.27273	0.	0.21351
12073	0.64	0.36364	0.	17.47
12074	0.73143	0.36364	5.e-002	39.115
12075	0.64	0.18182	0.	84.229
12076	0.73143	0.18182	5.e-002	32.411
12077	0.73143	9.0909e-002	0.	71.002
12078	0.54857	5.7273	0.	33.914
12079	0.45714	5.8182	0.	91.802
12080	0.54857	5.8182	5.e-002	40.588
12081	0.54857	5.9091	0.	105.23
12082	0.54857	5.5455	0.	44.812
12083	0.45714	5.6364	0.	-49.222
12084	0.54857	5.6364	5.e-002	54.151
12085	0.54857	5.3636	0.	51.698
12086	0.45714	5.4545	0.	-67.606
12087	0.54857	5.4545	5.e-002	47.074
12088	0.54857	5.1818	0.	55.668
12089	0.45714	5.2727	0.	-76.787
12090	0.54857	5.2727	5.e-002	39.815
12091	0.54857	5.	0.	58.471
12092	0.45714	5.0909	0.	-82.574
12093	0.54857	5.0909	5.e-002	35.341
12094	0.54857	4.8182	0.	60.528
12095	0.45714	4.9091	0.	-86.569
12096	0.54857	4.9091	5.e-002	32.834
12097	0.54857	4.6364	0.	62.062
12098	0.45714	4.7273	0.	-89.457
12099	0.54857	4.7273	5.e-002	31.373
12100	0.54857	4.4545	0.	63.226
12101	0.45714	4.5455	0.	-91.617
12102	0.54857	4.5455	5.e-002	30.376
12103	0.54857	4.2727	0.	64.118
12104	0.45714	4.3636	0.	-93.26
12105	0.54857	4.3636	5.e-002	29.595
12106	0.54857	4.0909	0.	64.803
12107	0.45714	4.1818	0.	-94.52
12108	0.54857	4.1818	5.e-002	28.935
12109	0.54857	3.9091	0.	65.326
12110	0.45714	4.	0.	-95.486
12111	0.54857	4.	5.e-002	28.368
12112	0.54857	3.7273	0.	65.72
12113	0.45714	3.8182	0.	-96.219
12114	0.54857	3.8182	5.e-002	27.889
12115	0.54857	3.5455	0.	66.007
12116	0.45714	3.6364	0.	-96.763
12117	0.54857	3.6364	5.e-002	27.499
12118	0.54857	3.3636	0.	66.202
12119	0.45714	3.4545	0.	-97.148
12120	0.54857	3.4545	5.e-002	27.203
12121	0.54857	3.1818	0.	66.315
12122	0.45714	3.2727	0.	-97.394
12123	0.54857	3.2727	5.e-002	27.004
12124	0.54857	3.	0.	66.352
12125	0.45714	3.0909	0.	-97.514
12126	0.54857	3.0909	5.e-002	26.904
12127	0.54857	2.8182	0.	66.315
12128	0.45714	2.9091	0.	-97.514
12129	0.54857	2.9091	5.e-002	26.904
12130	0.54857	2.6364	0.	66.202
12131	0.45714	2.7273	0.	-97.394
12132	0.54857	2.7273	5.e-002	27.004
12133	0.54857	2.4545	0.	66.007
12134	0.45714	2.5455	0.	-97.148
12135	0.54857	2.5455	5.e-002	27.203
12136	0.54857	2.2727	0.	65.72
12137	0.45714	2.3636	0.	-96.763
12138	0.54857	2.3636	5.e-002	27.499
12139	0.54857	2.0909	0.	65.326
12140	0.45714	2.1818	0.	-96.219
12141	0.54857	2.1818	5.e-002	27.889
12142	0.54857	1.9091	0.	64.803
12143	0.45714	2.	0.	-95.486
12144	0.54857	2.	5.e-002	28.368
12145	0.54857	1.7273	0.	64.118
12146	0.45714	1.8182	0.	-94.52
12147	0.54857	1.8182	5.e-002	28.935
12148	0.54857	1.5455	0.	63.226
12149	0.45714	1.6364	0.	-93.26
12150	0.54857	1.6364	5.e-002	29.595
12151	0.54857	1.3636	0.	62.062
12152	0.45714	1.4545	0.	-91.617
12153	0.54857	1.4545	5.e-002	30.376
12154	0.54857	1.1818	0.	60.528
12155	0.45714	1.2727	0.	-89.457
12156	0.54857	1.2727	5.e-002	31.373
12157	0.54857	1.	0.	58.471
12158	0.45714	1.0909	0.	-86.569
12159	0.54857	1.0909	5.e-002	32.834
12160	0.54857	0.81818	0.	55.668
12161	0.45714	0.90909	0.	-82.574
12162	0.54857	0.90909	5.e-002	35.341
12163	0.54857	0.63636	0.	51.698
12164	0.45714	0.72727	0.	-76.787
12165	0.54857	0.72727	5.e-002	39.815
12166	0.54857	0.45455	0.	44.812
12167	0.45714	0.54545	0.	-67.606
12168	0.54857	0.54545	5.e-002	47.074
12169	0.54857	0.27273	0.	33.914
12170	0.45714	0.36364	0.	-49.222
12171	0.54857	0.36364	5.e-002	54.151
12172	0.45714	0.18182	0.	91.802
12173	0.54857	0.18182	5.e-002	40.588
12174	0.54857	9.0909e-002	0.	105.23
12175	0.36571	5.7273	0.	-91.686
12176	0.27429	5.8182	0.	163.79
12177	0.36571	5.8182	5.e-002	70.792
12178	0.36571	5.9091	0.	128.68
12179	0.36571	5.5455	0.	-162.62
12180	0.27429	5.6364	0.	237.28
12181	0.36571	5.6364	5.e-002	78.236
12182	0.36571	5.3636	0.	-196.31
12183	0.27429	5.4545	0.	280.84
12184	0.36571	5.4545	5.e-002	59.55
12185	0.36571	5.1818	0.	-215.1
12186	0.27429	5.2727	0.	311.89
12187	0.36571	5.2727	5.e-002	49.034
12188	0.36571	5.	0.	-227.64
12189	0.27429	5.0909	0.	331.68
12190	0.36571	5.0909	5.e-002	43.601
12191	0.36571	4.8182	0.	-236.56
12192	0.27429	4.9091	0.	346.07
12193	0.36571	4.9091	5.e-002	40.661
12194	0.36571	4.6364	0.	-243.14
12195	0.27429	4.7273	0.	356.59
12196	0.36571	4.7273	5.e-002	38.637
12197	0.36571	4.4545	0.	-248.1
12198	0.27429	4.5455	0.	364.55
12199	0.36571	4.5455	5.e-002	37.046
12200	0.36571	4.2727	0.	-251.9
12201	0.27429	4.3636	0.	370.64
12202	0.36571	4.3636	5.e-002	35.719
12203	0.36571	4.0909	0.	-254.81
12204	0.27429	4.1818	0.	375.32
12205	0.36571	4.1818	5.e-002	34.599
12206	0.36571	3.9091	0.	-257.03
12207	0.27429	4.	0.	378.92
12208	0.36571	4.	5.e-002	33.661
12209	0.36571	3.7273	0.	-258.7
12210	0.27429	3.8182	0.	381.66
12211	0.36571	3.8182	5.e-002	32.892
12212	0.36571	3.5455	0.	-259.92
12213	0.27429	3.6364	0.	383.69
12214	0.36571	3.6364	5.e-002	32.284
12215	0.36571	3.3636	0.	-260.74
12216	0.27429	3.4545	0.	385.13
12217	0.36571	3.4545	5.e-002	31.832
12218	0.36571	3.1818	0.	-261.22
12219	0.27429	3.2727	0.	386.06
12220	0.36571	3.2727	5.e-002	31.533
12221	0.36571	3.	0.	-261.38
12222	0.27429	3.0909	0.	386.51
12223	0.36571	3.0909	5.e-002	31.384
12224	0.36571	2.8182	0.	-261.22
12225	0.27429	2.9091	0.	386.51
12226	0.36571	2.9091	5.e-002	31.384
12227	0.36571	2.6364	0.	-260.74
12228	0.27429	2.7273	0.	386.06
12229	0.36571	2.7273	5.e-002	31.533
12230	0.36571	2.4545	0.	-259.92
12231	0.27429	2.5455	0.	385.13
12232	0.36571	2.5455	5.e-002	31.832
12233	0.36571	2.2727	0.	-258.7
12234	0.27429	2.3636	0.	383.69
12235	0.36571	2.3636	5.e-002	32.284
12236	0.36571	2.0909	0.	-257.03
12237	0.27429	2.1818	0.	381.66
12238	0.36571	2.1818	5.e-002	32.892
12239	0.36571	1.9091	0.	-254.81
12240	0.27429	2.	0.	378.92
12241	0.36571	2.	5.e-002	33.661
12242	0.36571	1.7273	0.	-251.9
12243	0.27429	1.8182	0.	375.32
12244	0.36571	1.8182	5.e-002	34.599
12245	0.36571	1.5455	0.	-248.1
12246	0.27429	1.6364	0.	370.64
12247	0.36571	1.6364	5.e-002	35.719
12248	0.36571	1.3636	0.	-243.14
12249	0.27429	1.4545	0.	364.55
12250	0.36571	1.4545	5.e-002	37.046
12251	0.36571	1.1818	0.	-236.56
12252	0.27429	1.2727	0.	356.59
12253	0.36571	1.2727	5.e-002	38.637
12254	0.36571	1.	0.	-227.64
12255	0.27429	1.0909	0.	346.07
12256	0.36571	1.0909	5.e-002	40.661
12257	0.36571	0.81818	0.	-215.1
12258	0.27429	0.90909	0.	331.68
12259	0.36571	0.90909	5.e-002	43.601
12260	0.36571	0.63636	0.	-196.31
12261	0.27429	0.72727	0.	311.89
12262	0.36571	0.72727	5.e-002	49.034
12263	0.36571	0.45455	0.	-162.62
12264	0.27429	0.54545	0.	280.84
12265	0.36571	0.54545	5.e-002	59.55
12266	0.36571	0.27273	0.	-91.686
12267	0.27429	0.36364	0.	237.28
12268	0.36571	0.36364	5.e-002	78.236
12269	0.27429	0.18182	0.	163.79
12270	0.36571	0.18182	5.e-002	70.792
12271	0.36571	9.0909e-002	0.	128.68
12272	0.18286	5.7273	0.	452.03
12273	0.18286	5.8182	5.e-002	170.6
12274	0.18286	5.9091	0.	220.5
12275	9.1429e-002	5.8182	0.	-406.18
12276	0.18286	5.5455	0.	680.01
12277	0.18286	5.6364	5.e-002	108.32
12278	9.1429e-002	5.6364	0.	-836.5
12279	0.18286	5.3636	0.	788.98
12280	0.18286	5.4545	5.e-002	73.658
12281	9.1429e-002	5.4545	0.	-1033.3
12282	0.18286	5.1818	0.	858.71
12283	0.18286	5.2727	5.e-002	56.461
12284	9.1429e-002	5.2727	0.	-1149.1
12285	0.18286	5.	0.	905.42
12286	0.18286	5.0909	5.e-002	47.504
12287	9.1429e-002	5.0909	0.	-1227.
12288	0.18286	4.8182	0.	939.24
12289	0.18286	4.9091	5.e-002	41.36
12290	9.1429e-002	4.9091	0.	-1282.3
12291	0.18286	4.6364	0.	964.3
12292	0.18286	4.7273	5.e-002	36.857
12293	9.1429e-002	4.7273	0.	-1323.1
12294	0.18286	4.4545	0.	983.31
12295	0.18286	4.5455	5.e-002	33.401
12296	9.1429e-002	4.5455	0.	-1353.8
12297	0.18286	4.2727	0.	997.87
12298	0.18286	4.3636	5.e-002	30.688
12299	9.1429e-002	4.3636	0.	-1377.4
12300	0.18286	4.0909	0.	1009.1
12301	0.18286	4.1818	5.e-002	28.537
12302	9.1429e-002	4.1818	0.	-1395.5
12303	0.18286	3.9091	0.	1017.6
12304	0.18286	4.	5.e-002	26.832
12305	9.1429e-002	4.	0.	-1409.5
12306	0.18286	3.7273	0.	1024.1
12307	0.18286	3.8182	5.e-002	25.496
12308	9.1429e-002	3.8182	0.	-1420.1
12309	0.18286	3.5455	0.	1028.8
12310	0.18286	3.6364	5.e-002	24.478
12311	9.1429e-002	3.6364	0.	-1428.
12312	0.18286	3.3636	0.	1031.9
12313	0.18286	3.4545	5.e-002	23.74
12314	9.1429e-002	3.4545	0.	-1433.6
12315	0.18286	3.1818	0.	1033.8
12316	0.18286	3.2727	5.e-002	23.261
12317	9.1429e-002	3.2727	0.	-1437.2
12318	0.18286	3.	0.	1034.4
12319	0.18286	3.0909	5.e-002	23.025
12320	9.1429e-002	3.0909	0.	-1438.9
12321	0.18286	2.8182	0.	1033.8
12322	0.18286	2.9091	5.e-002	23.025
12323	9.1429e-002	2.9091	0.	-1438.9
12324	0.18286	2.6364	0.	1031.9
12325	0.18286	2.7273	5.e-002	23.261
12326	9.1429e-002	2.7273	0.	-1437.2
12327	0.18286	2.4545	0.	1028.8
12328	0.18286	2.5455	5.e-002	23.74
12329	9.1429e-002	2.5455	0.	-1433.6
12330	0.18286	2.2727	0.	1024.1
12331	0.18286	2.3636	5.e-002	24.477
12332	9.1429e-002	2.3636	0.	-1428.
12333	0.18286	2.0909	0.	1017.6
12334	0.18286	2.1818	5.e-002	25.496
12335	9.1429e-002	2.1818	0.	-1420.1
12336	0.18286	1.9091	0.	1009.1
12337	0.18286	2.	5.e-002	26.832
12338	9.1429e-002	2.	0.	-1409.5
12339	0.18286	1.7273	0.	997.87
12340	0.18286	1.8182	5.e-002	28.537
12341	9.1429e-002	1.8182	0.	-1395.5
12342	0.18286	1.5455	0.	983.31
12343	0.18286	1.6364	5.e-002	30.688
12344	9.1429e-002	1.6364	0.	-1377.4
12345	0.18286	1.3636	0.	964.3
12346	0.18286	1.4545	5.e-002	33.401
12347	9.1429e-002	1.4545	0.	-1353.8
12348	0.18286	1.1818	0.	939.24
12349	0.18286	1.2727	5.e-002	36.857
12350	9.1429e-002	1.2727	0.	-1323.1
12351	0.18286	1.	0.	905.42
12352	0.18286	1.0909	5.e-002	41.36
12353	9.1429e-002	1.0909	0.	-1282.3
12354	0.18286	0.81818	0.	858.71
12355	0.18286	0.90909	5.e-002	47.504
12356	9.1429e-002	0.90909	0.	-1227.
12357	0.18286	0.63636	0.	788.98
12358	0.18286	0.72727	5.e-002	56.461
12359	9.1429e-002	0.72727	0.	-1149.1
12360	0.18286	0.45455	0.	680.01
12361	0.18286	0.54545	5.e-002	73.658
12362	9.1429e-002	0.54545	0.	-1033.3
12363	0.18286	0.27273	0.	452.03
12364	0.18286	0.36364	5.e-002	108.32
12365	9.1429e-002	0.36364	0.	-836.5
12366	0.18286	0.18182	5.e-002	170.6
12367	0.18286	9.0909e-002	0.	220.5
12368	9.1429e-002	0.18182	0.	-406.18
12369	6.8419	5.8182	0.	98.443
12370	6.7502	5.7273	0.	187.07
12371	6.7502	5.8182	5.e-002	62.828
12372	6.7502	5.9091	0.	47.878
12373	6.6584	5.8182	0.	56.798
12374	7.0254	5.8182	0.	89.781
12375	6.9337	5.7273	0.	113.31
12376	6.9337	5.8182	5.e-002	55.608
12377	6.9337	5.9091	0.	39.309
12378	7.2089	5.8182	0.	92.21
12379	7.1172	5.7273	0.	106.19
12380	7.1172	5.8182	5.e-002	51.251
12381	7.1172	5.9091	0.	45.66
12382	7.3925	5.8182	0.	91.207
12383	7.3007	5.7273	0.	106.58
12384	7.3007	5.8182	5.e-002	45.999
12385	7.3007	5.9091	0.	49.235
12386	7.576	5.8182	0.	86.035
12387	7.4842	5.7273	0.	103.91
12388	7.4842	5.8182	5.e-002	40.188
12389	7.4842	5.9091	0.	48.755
12390	7.7595	5.8182	0.	78.153
12391	7.6677	5.7273	0.	97.452
12392	7.6677	5.8182	5.e-002	34.265
12393	7.6677	5.9091	0.	45.692
12394	7.943	5.8182	0.	68.853
12395	7.8512	5.7273	0.	88.138
12396	7.8512	5.8182	5.e-002	28.584
12397	7.8512	5.9091	0.	41.131
12398	8.1265	5.8182	0.	59.157
12399	8.0347	5.7273	0.	77.25
12400	8.0347	5.8182	5.e-002	23.385
12401	8.0347	5.9091	0.	35.919
12402	8.31	5.8182	0.	49.757
12403	8.2182	5.7273	0.	65.875
12404	8.2182	5.8182	5.e-002	18.788
12405	8.2182	5.9091	0.	30.624
12406	8.4935	5.8182	0.	41.076
12407	8.4018	5.7273	0.	54.799
12408	8.4018	5.8182	5.e-002	14.832
12409	8.4018	5.9091	0.	25.597
12410	8.677	5.8182	0.	33.332
12411	8.5853	5.7273	0.	44.522
12412	8.5853	5.8182	5.e-002	11.499
12413	8.5853	5.9091	0.	21.036
12414	8.8605	5.8182	0.	26.61
12415	8.7688	5.7273	0.	35.318
12416	8.7688	5.8182	5.e-002	8.7386
12417	8.7688	5.9091	0.	17.029
12418	9.044	5.8182	0.	20.9
12419	8.9523	5.7273	0.	27.301
12420	8.9523	5.8182	5.e-002	6.4852
12421	8.9523	5.9091	0.	13.597
12422	9.2275	5.8182	0.	16.148
12423	9.1358	5.7273	0.	20.48
12424	9.1358	5.8182	5.e-002	4.6699
12425	9.1358	5.9091	0.	10.72
12426	9.4111	5.8182	0.	12.267
12427	9.3193	5.7273	0.	14.799
12428	9.3193	5.8182	5.e-002	3.2266
12429	9.3193	5.9091	0.	8.3565
12430	9.5946	5.8182	0.	9.163
12431	9.5028	5.7273	0.	10.166
12432	9.5028	5.8182	5.e-002	2.0963
12433	9.5028	5.9091	0.	6.454
12434	9.7781	5.8182	0.	6.7394
12435	9.6863	5.7273	0.	6.4762
12436	9.6863	5.8182	5.e-002	1.2324
12437	9.6863	5.9091	0.	4.9581
12438	9.9616	5.8182	0.	4.9042
12439	9.8698	5.7273	0.	3.6236
12440	9.8698	5.8182	5.e-002	0.61827
12441	9.8698	5.9091	0.	3.8158
12442	10.145	5.8182	0.	3.5721
12443	10.053	5.7273	0.	1.544
12444	10.053	5.8182	5.e-002	0.37199
12445	10.053	5.9091	0.	2.9774
12446	10.329	5.8182	0.	2.6646
12447	10.237	5.7273	0.	0.41933
12448	10.237	5.8182	5.e-002	0.54402
12449	10.237	5.9091	0.	2.3974
12450	10.512	5.8182	0.	2.1074
12451	10.42	5.7273	0.	0.17665
12452	10.42	5.8182	5.e-002	0.7648
12453	10.42	5.9091	0.	2.0339
12454	10.696	5.8182	0.	1.8297
12455	10.604	5.7273	0.	0.12085
12456	10.604	5.8182	5.e-002	0.93193
12457	10.604	5.9091	0.	1.848
12458	10.879	5.8182	0.	1.7703
12459	10.787	5.7273	0.	9.9886e-002
12460	10.787	5.8182	5.e-002	1.0427
12461	10.787	5.9091	0.	1.8046
12462	11.063	5.8182	0.	1.8842
12463	10.971	5.7273	0.	9.0925e-002
12464	10.971	5.8182	5.e-002	1.1062
12465	10.971	5.9091	0.	1.8738
12466	11.246	5.8182	0.	2.14
12467	11.154	5.7273	0.	8.8805e-002
12468	11.154	5.8182	5.e-002	1.1323
12469	11.154	5.9091	0.	2.0322
12470	11.43	5.8182	0.	2.5124
12471	11.338	5.7273	0.	9.3476e-002
12472	11.338	5.8182	5.e-002	1.1297
12473	11.338	5.9091	0.	2.2613
12474	11.613	5.8182	0.	2.9778
12475	11.521	5.7273	0.	0.10995
12476	11.521	5.8182	5.e-002	1.1058
12477	11.521	5.9091	0.	2.5456
12478	11.797	5.8182	0.	3.5147
12479	11.705	5.7273	0.	0.1618
12480	11.705	5.8182	5.e-002	1.0663
12481	11.705	5.9091	0.	2.8725
12482	11.98	5.8182	0.	4.104
12483	11.888	5.7273	0.	0.37806
12484	11.888	5.8182	5.e-002	1.0157
12485	11.888	5.9091	0.	3.2311
12486	12.164	5.8182	0.	4.7299
12487	12.072	5.7273	0.	0.94639
12488	12.072	5.8182	5.e-002	0.95767
12489	12.072	5.9091	0.	3.6123
12490	12.347	5.8182	0.	5.3794
12491	12.255	5.7273	0.	1.6738
12492	12.255	5.8182	5.e-002	0.89509
12493	12.255	5.9091	0.	4.0087
12494	12.531	5.8182	0.	6.0421
12495	12.439	5.7273	0.	2.4479
12496	12.439	5.8182	5.e-002	0.83008
12497	12.439	5.9091	0.	4.4142
12498	12.714	5.8182	0.	6.7101
12499	12.622	5.7273	0.	3.2387
12500	12.622	5.8182	5.e-002	0.7644
12501	12.622	5.9091	0.	4.824
12502	12.898	5.8182	0.	7.3768
12503	12.806	5.7273	0.	4.032
12504	12.806	5.8182	5.e-002	0.69938
12505	12.806	5.9091	0.	5.2341
12506	13.081	5.8182	0.	8.0375
12507	12.989	5.7273	0.	4.8193
12508	12.989	5.8182	5.e-002	0.63591
12509	12.989	5.9091	0.	5.6417
12510	13.265	5.8182	0.	8.6888
12511	13.173	5.7273	0.	5.5947
12512	13.173	5.8182	5.e-002	0.57462
12513	13.173	5.9091	0.	6.0445
12514	13.448	5.8182	0.	9.3282
12515	13.356	5.7273	0.	6.3542
12516	13.356	5.8182	5.e-002	0.51596
12517	13.356	5.9091	0.	6.441
12518	13.632	5.8182	0.	9.954
12519	13.54	5.7273	0.	7.0951
12520	13.54	5.8182	5.e-002	0.46026
12521	13.54	5.9091	0.	6.83
12522	13.815	5.8182	0.	10.565
12523	13.724	5.7273	0.	7.8159
12524	13.724	5.8182	5.e-002	0.40775
12525	13.724	5.9091	0.	7.2111
12526	13.999	5.8182	0.	11.162
12527	13.907	5.7273	0.	8.5156
12528	13.907	5.8182	5.e-002	0.35865
12529	13.907	5.9091	0.	7.5836
12530	14.182	5.8182	0.	11.743
12531	14.091	5.7273	0.	9.194
12532	14.091	5.8182	5.e-002	0.31294
12533	14.091	5.9091	0.	7.9477
12534	14.366	5.8182	0.	12.309
12535	14.274	5.7273	0.	9.8514
12536	14.274	5.8182	5.e-002	0.27063
12537	14.274	5.9091	0.	8.3033
12538	14.549	5.8182	0.	12.861
12539	14.458	5.7273	0.	10.488
12540	14.458	5.8182	5.e-002	0.23173
12541	14.458	5.9091	0.	8.6508
12542	14.733	5.8182	0.	13.4
12543	14.641	5.7273	0.	11.106
12544	14.641	5.8182	5.e-002	0.19619
12545	14.641	5.9091	0.	8.9905
12546	14.916	5.8182	0.	13.927
12547	14.825	5.7273	0.	11.705
12548	14.825	5.8182	5.e-002	0.16416
12549	14.825	5.9091	0.	9.3232
12550	15.1	5.8182	0.	14.442
12551	15.008	5.7273	0.	12.288
12552	15.008	5.8182	5.e-002	0.13585
12553	15.008	5.9091	0.	9.6492
12554	15.283	5.8182	0.	14.946
12555	15.192	5.7273	0.	12.855
12556	15.192	5.8182	5.e-002	0.11162
12557	15.192	5.9091	0.	9.9692
12558	15.467	5.8182	0.	15.441
12559	15.375	5.7273	0.	13.407
12560	15.375	5.8182	5.e-002	9.2102e-002
12561	15.375	5.9091	0.	10.284
12562	15.65	5.8182	0.	15.928
12563	15.559	5.7273	0.	13.947
12564	15.559	5.8182	5.e-002	7.8212e-002
12565	15.559	5.9091	0.	10.594
12566	15.834	5.8182	0.	16.407
12567	15.742	5.7273	0.	14.476
12568	15.742	5.8182	5.e-002	7.1023e-002
12569	15.742	5.9091	0.	10.9
12570	16.017	5.8182	0.	16.881
12571	15.926	5.7273	0.	14.995
12572	15.926	5.8182	5.e-002	7.0596e-002
12573	15.926	5.9091	0.	11.203
12574	16.201	5.8182	0.	17.35
12575	16.109	5.7273	0.	15.506
12576	16.109	5.8182	5.e-002	7.5684e-002
12577	16.109	5.9091	0.	11.503
12578	16.384	5.8182	0.	17.815
12579	16.293	5.7273	0.	16.011
12580	16.293	5.8182	5.e-002	8.4301e-002
12581	16.293	5.9091	0.	11.801
12582	16.568	5.8182	0.	18.278
12583	16.476	5.7273	0.	16.51
12584	16.476	5.8182	5.e-002	9.4829e-002
12585	16.476	5.9091	0.	12.099
12586	16.751	5.8182	0.	18.739
12587	16.66	5.7273	0.	17.006
12588	16.66	5.8182	5.e-002	0.1063
12589	16.66	5.9091	0.	12.395
12590	16.935	5.8182	0.	19.199
12591	16.843	5.7273	0.	17.499
12592	16.843	5.8182	5.e-002	0.11825
12593	16.843	5.9091	0.	12.692
12594	17.118	5.8182	0.	19.66
12595	17.027	5.7273	0.	17.992
12596	17.027	5.8182	5.e-002	0.13051
12597	17.027	5.9091	0.	12.989
12598	17.302	5.8182	0.	20.122
12599	17.21	5.7273	0.	18.485
12600	17.21	5.8182	5.e-002	0.14312
12601	17.21	5.9091	0.	13.287
12602	17.485	5.8182	0.	20.585
12603	17.394	5.7273	0.	18.979
12604	17.394	5.8182	5.e-002	0.1562
12605	17.394	5.9091	0.	13.587
12606	17.669	5.8182	0.	21.052
12607	17.577	5.7273	0.	19.477
12608	17.577	5.8182	5.e-002	0.16995
12609	17.577	5.9091	0.	13.889
12610	17.852	5.8182	0.	21.523
12611	17.761	5.7273	0.	19.978
12612	17.761	5.8182	5.e-002	0.18461
12613	17.761	5.9091	0.	14.194
12614	18.036	5.8182	0.	21.997
12615	17.944	5.7273	0.	20.484
12616	17.944	5.8182	5.e-002	0.20045
12617	17.944	5.9091	0.	14.502
12618	18.219	5.8182	0.	22.476
12619	18.128	5.7273	0.	20.997
12620	18.128	5.8182	5.e-002	0.21774
12621	18.128	5.9091	0.	14.813
12622	18.403	5.8182	0.	22.961
12623	18.311	5.7273	0.	21.517
12624	18.311	5.8182	5.e-002	0.23678
12625	18.311	5.9091	0.	15.128
12626	18.586	5.8182	0.	23.451
12627	18.495	5.7273	0.	22.044
12628	18.495	5.8182	5.e-002	0.25788
12629	18.495	5.9091	0.	15.448
12630	18.77	5.8182	0.	23.947
12631	18.678	5.7273	0.	22.581
12632	18.678	5.8182	5.e-002	0.28132
12633	18.678	5.9091	0.	15.771
12634	18.954	5.8182	0.	24.449
12635	18.862	5.7273	0.	23.127
12636	18.862	5.8182	5.e-002	0.30739
12637	18.862	5.9091	0.	16.1
12638	19.137	5.8182	0.	24.957
12639	19.045	5.7273	0.	23.684
12640	19.045	5.8182	5.e-002	0.33636
12641	19.045	5.9091	0.	16.432
12642	19.321	5.8182	0.	25.471
12643	19.229	5.7273	0.	24.251
12644	19.229	5.8182	5.e-002	0.36849
12645	19.229	5.9091	0.	16.77
12646	19.504	5.8182	0.	25.991
12647	19.412	5.7273	0.	24.83
12648	19.412	5.8182	5.e-002	0.40404
12649	19.412	5.9091	0.	17.112
12650	19.688	5.8182	0.	26.516
12651	19.596	5.7273	0.	25.421
12652	19.596	5.8182	5.e-002	0.44332
12653	19.596	5.9091	0.	17.458
12654	19.871	5.8182	0.	27.046
12655	19.779	5.7273	0.	26.023
12656	19.779	5.8182	5.e-002	0.48661
12657	19.779	5.9091	0.	17.808
12658	20.055	5.8182	0.	27.579
12659	19.963	5.7273	0.	26.638
12660	19.963	5.8182	5.e-002	0.53419
12661	19.963	5.9091	0.	18.162
12662	20.238	5.8182	0.	28.115
12663	20.146	5.7273	0.	27.264
12664	20.146	5.8182	5.e-002	0.58637
12665	20.146	5.9091	0.	18.519
12666	20.422	5.8182	0.	28.651
12667	20.33	5.7273	0.	27.902
12668	20.33	5.8182	5.e-002	0.64345
12669	20.33	5.9091	0.	18.878
12670	20.605	5.8182	0.	29.187
12671	20.513	5.7273	0.	28.551
12672	20.513	5.8182	5.e-002	0.70576
12673	20.513	5.9091	0.	19.238
12674	20.789	5.8182	0.	29.719
12675	20.697	5.7273	0.	29.211
12676	20.697	5.8182	5.e-002	0.77371
12677	20.697	5.9091	0.	19.599
12678	20.972	5.8182	0.	30.245
12679	20.88	5.7273	0.	29.879
12680	20.88	5.8182	5.e-002	0.8477
12681	20.88	5.9091	0.	19.958
12682	21.156	5.8182	0.	30.761
12683	21.064	5.7273	0.	30.556
12684	21.064	5.8182	5.e-002	0.92818
12685	21.064	5.9091	0.	20.314
12686	21.339	5.8182	0.	31.264
12687	21.247	5.7273	0.	31.24
12688	21.247	5.8182	5.e-002	1.0156
12689	21.247	5.9091	0.	20.664
12690	21.523	5.8182	0.	31.749
12691	21.431	5.7273	0.	31.928
12692	21.431	5.8182	5.e-002	1.1105
12693	21.431	5.9091	0.	21.007
12694	21.706	5.8182	0.	32.21
12695	21.614	5.7273	0.	32.619
12696	21.614	5.8182	5.e-002	1.2135
12697	21.614	5.9091	0.	21.339
12698	21.89	5.8182	0.	32.64
12699	21.798	5.7273	0.	33.311
12700	21.798	5.8182	5.e-002	1.3252
12701	21.798	5.9091	0.	21.656
12702	22.073	5.8182	0.	33.031
12703	21.981	5.7273	0.	34.001
12704	21.981	5.8182	5.e-002	1.4465
12705	21.981	5.9091	0.	21.954
12706	22.257	5.8182	0.	33.373
12707	22.165	5.7273	0.	34.687
12708	22.165	5.8182	5.e-002	1.5783
12709	22.165	5.9091	0.	22.226
12710	22.44	5.8182	0.	33.655
12711	22.348	5.7273	0.	35.367
12712	22.348	5.8182	5.e-002	1.7215
12713	22.348	5.9091	0.	22.468
12714	22.624	5.8182	0.	33.862
12715	22.532	5.7273	0.	36.041
12716	22.532	5.8182	5.e-002	1.8776
12717	22.532	5.9091	0.	22.668
12718	22.807	5.8182	0.	33.977
12719	22.715	5.7273	0.	36.711
12720	22.715	5.8182	5.e-002	2.0483
12721	22.715	5.9091	0.	22.816
12722	22.991	5.8182	0.	33.98
12723	22.899	5.7273	0.	37.387
12724	22.899	5.8182	5.e-002	2.2358
12725	22.899	5.9091	0.	22.898
12726	23.174	5.8182	0.	33.854
12727	23.082	5.7273	0.	38.093
12728	23.082	5.8182	5.e-002	2.4434
12729	23.082	5.9091	0.	22.892
12730	23.358	5.8182	0.	33.593
12731	23.266	5.7273	0.	38.889
12732	23.266	5.8182	5.e-002	2.6767
12733	23.266	5.9091	0.	22.771
12734	23.541	5.8182	0.	33.273
12735	23.449	5.7273	0.	39.918
12736	23.449	5.8182	5.e-002	2.9433
12737	23.449	5.9091	0.	22.485
12738	23.725	5.8182	0.	33.608
12739	23.633	5.7273	0.	41.628
12740	23.633	5.8182	5.e-002	3.2784
12741	23.633	5.9091	0.	22.062
12742	23.816	5.7273	0.	45.437
12743	23.816	5.8182	5.e-002	3.9952
12744	23.908	5.8182	0.	34.869
12745	23.816	5.9091	0.	21.404
12746	6.8419	5.6364	0.	180.29
12747	6.7502	5.5455	0.	360.87
12748	6.7502	5.6364	5.e-002	56.855
12749	6.6584	5.6364	0.	183.63
12750	7.0254	5.6364	0.	123.42
12751	6.9337	5.5455	0.	201.78
12752	6.9337	5.6364	5.e-002	47.926
12753	7.2089	5.6364	0.	117.5
12754	7.1172	5.5455	0.	159.57
12755	7.1172	5.6364	5.e-002	43.421
12756	7.3925	5.6364	0.	117.33
12757	7.3007	5.5455	0.	145.33
12758	7.3007	5.6364	5.e-002	37.882
12759	7.576	5.6364	0.	113.96
12760	7.4842	5.5455	0.	135.82
12761	7.4842	5.6364	5.e-002	32.077
12762	7.7595	5.6364	0.	106.48
12763	7.6677	5.5455	0.	125.08
12764	7.6677	5.6364	5.e-002	26.43
12765	7.943	5.6364	0.	95.881
12766	7.8512	5.5455	0.	112.09
12767	7.8512	5.6364	5.e-002	21.225
12768	8.1265	5.6364	0.	83.538
12769	8.0347	5.5455	0.	97.555
12770	8.0347	5.6364	5.e-002	16.61
12771	8.31	5.6364	0.	70.65
12772	8.2182	5.5455	0.	82.473
12773	8.2182	5.6364	5.e-002	12.631
12774	8.4935	5.6364	0.	58.092
12775	8.4018	5.5455	0.	67.728
12776	8.4018	5.6364	5.e-002	9.2743
12777	8.677	5.6364	0.	46.43
12778	8.5853	5.5455	0.	53.946
12779	8.5853	5.6364	5.e-002	6.489
12780	8.8605	5.6364	0.	35.983
12781	8.7688	5.5455	0.	41.506
12782	8.7688	5.6364	5.e-002	4.2151
12783	9.044	5.6364	0.	26.887
12784	8.9523	5.5455	0.	30.595
12785	8.9523	5.6364	5.e-002	2.4045
12786	9.2275	5.6364	0.	19.159
12787	9.1358	5.5455	0.	21.259
12788	9.1358	5.6364	5.e-002	1.1117
12789	9.4111	5.6364	0.	12.742
12790	9.3193	5.5455	0.	13.458
12791	9.3193	5.6364	5.e-002	0.95368
12792	9.5946	5.6364	0.	7.5384
12793	9.5028	5.5455	0.	7.1112
12794	9.5028	5.6364	5.e-002	1.6639
12795	9.7781	5.6364	0.	3.4544
12796	9.6863	5.5455	0.	2.2569
12797	9.6863	5.6364	5.e-002	2.3616
12798	9.9616	5.6364	0.	0.71138
12799	9.8698	5.5455	0.	0.32564
12800	9.8698	5.6364	5.e-002	2.936
12801	10.145	5.6364	0.	0.15913
12802	10.053	5.5455	0.	0.12902
12803	10.053	5.6364	5.e-002	3.3926
12804	10.329	5.6364	0.	9.0296e-002
12805	10.237	5.5455	0.	8.0315e-002
12806	10.237	5.6364	5.e-002	3.7497
12807	10.512	5.6364	0.	6.8256e-002
12808	10.42	5.5455	0.	5.9651e-002
12809	10.42	5.6364	5.e-002	4.0256
12810	10.696	5.6364	0.	5.7779e-002
12811	10.604	5.5455	0.	4.8404e-002
12812	10.604	5.6364	5.e-002	4.236
12813	10.879	5.6364	0.	5.1442e-002
12814	10.787	5.5455	0.	4.1217e-002
12815	10.787	5.6364	5.e-002	4.394
12816	11.063	5.6364	0.	4.6887e-002
12817	10.971	5.5455	0.	3.6018e-002
12818	10.971	5.6364	5.e-002	4.5103
12819	11.246	5.6364	0.	4.3247e-002
12820	11.154	5.5455	0.	3.1963e-002
12821	11.154	5.6364	5.e-002	4.5938
12822	11.43	5.6364	0.	4.0119e-002
12823	11.338	5.5455	0.	2.8658e-002
12824	11.338	5.6364	5.e-002	4.6513
12825	11.613	5.6364	0.	3.7303e-002
12826	11.521	5.5455	0.	2.5797e-002
12827	11.521	5.6364	5.e-002	4.6888
12828	11.797	5.6364	0.	3.475e-002
12829	11.705	5.5455	0.	2.3242e-002
12830	11.705	5.6364	5.e-002	4.7105
12831	11.98	5.6364	0.	3.2514e-002
12832	11.888	5.5455	0.	2.0905e-002
12833	11.888	5.6364	5.e-002	4.7202
12834	12.164	5.6364	0.	3.0846e-002
12835	12.072	5.5455	0.	1.8741e-002
12836	12.072	5.6364	5.e-002	4.7206
12837	12.347	5.6364	0.	3.0785e-002
12838	12.255	5.5455	0.	1.6732e-002
12839	12.255	5.6364	5.e-002	4.7139
12840	12.531	5.6364	0.	4.4266e-002
12841	12.439	5.5455	0.	1.4864e-002
12842	12.439	5.6364	5.e-002	4.7018
12843	12.714	5.6364	0.	0.64468
12844	12.622	5.5455	0.	1.3183e-002
12845	12.622	5.6364	5.e-002	4.6857
12846	12.898	5.6364	0.	1.5592
12847	12.806	5.5455	0.	1.1633e-002
12848	12.806	5.6364	5.e-002	4.6669
12849	13.081	5.6364	0.	2.4647
12850	12.989	5.5455	0.	1.0271e-002
12851	12.989	5.6364	5.e-002	4.646
12852	13.265	5.6364	0.	3.3515
12853	13.173	5.5455	0.	0.81748
12854	13.173	5.6364	5.e-002	4.6237
12855	13.448	5.6364	0.	4.2154
12856	13.356	5.5455	0.	1.8332
12857	13.356	5.6364	5.e-002	4.6004
12858	13.632	5.6364	0.	5.0539
12859	13.54	5.5455	0.	2.8167
12860	13.54	5.6364	5.e-002	4.5765
12861	13.815	5.6364	0.	5.8655
12862	13.724	5.5455	0.	3.7664
12863	13.724	5.6364	5.e-002	4.5523
12864	13.999	5.6364	0.	6.6496
12865	13.907	5.5455	0.	4.6814
12866	13.907	5.6364	5.e-002	4.5282
12867	14.182	5.6364	0.	7.4065
12868	14.091	5.5455	0.	5.5618
12869	14.091	5.6364	5.e-002	4.5041
12870	14.366	5.6364	0.	8.1366
12871	14.274	5.5455	0.	6.4083
12872	14.274	5.6364	5.e-002	4.4803
12873	14.549	5.6364	0.	8.8411
12874	14.458	5.5455	0.	7.2222
12875	14.458	5.6364	5.e-002	4.4567
12876	14.733	5.6364	0.	9.5213
12877	14.641	5.5455	0.	8.005
12878	14.641	5.6364	5.e-002	4.4334
12879	14.916	5.6364	0.	10.179
12880	14.825	5.5455	0.	8.7588
12881	14.825	5.6364	5.e-002	4.4104
12882	15.1	5.6364	0.	10.815
12883	15.008	5.5455	0.	9.4854
12884	15.008	5.6364	5.e-002	4.3879
12885	15.283	5.6364	0.	11.432
12886	15.192	5.5455	0.	10.187
12887	15.192	5.6364	5.e-002	4.3658
12888	15.467	5.6364	0.	12.032
12889	15.375	5.5455	0.	10.866
12890	15.375	5.6364	5.e-002	4.3441
12891	15.65	5.6364	0.	12.616
12892	15.559	5.5455	0.	11.524
12893	15.559	5.6364	5.e-002	4.3228
12894	15.834	5.6364	0.	13.187
12895	15.742	5.5455	0.	12.165
12896	15.742	5.6364	5.e-002	4.3019
12897	16.017	5.6364	0.	13.746
12898	15.926	5.5455	0.	12.79
12899	15.926	5.6364	5.e-002	4.2814
12900	16.201	5.6364	0.	14.295
12901	16.109	5.5455	0.	13.401
12902	16.109	5.6364	5.e-002	4.2613
12903	16.384	5.6364	0.	14.836
12904	16.293	5.5455	0.	14.001
12905	16.293	5.6364	5.e-002	4.2416
12906	16.568	5.6364	0.	15.371
12907	16.476	5.5455	0.	14.593
12908	16.476	5.6364	5.e-002	4.2224
12909	16.751	5.6364	0.	15.901
12910	16.66	5.5455	0.	15.177
12911	16.66	5.6364	5.e-002	4.2035
12912	16.935	5.6364	0.	16.429
12913	16.843	5.5455	0.	15.757
12914	16.843	5.6364	5.e-002	4.1851
12915	17.118	5.6364	0.	16.957
12916	17.027	5.5455	0.	16.335
12917	17.027	5.6364	5.e-002	4.1669
12918	17.302	5.6364	0.	17.485
12919	17.21	5.5455	0.	16.913
12920	17.21	5.6364	5.e-002	4.1492
12921	17.485	5.6364	0.	18.015
12922	17.394	5.5455	0.	17.492
12923	17.394	5.6364	5.e-002	4.1319
12924	17.669	5.6364	0.	18.55
12925	17.577	5.5455	0.	18.076
12926	17.577	5.6364	5.e-002	4.115
12927	17.852	5.6364	0.	19.09
12928	17.761	5.5455	0.	18.665
12929	17.761	5.6364	5.e-002	4.0986
12930	18.036	5.6364	0.	19.637
12931	17.944	5.5455	0.	19.261
12932	17.944	5.6364	5.e-002	4.0826
12933	18.219	5.6364	0.	20.193
12934	18.128	5.5455	0.	19.868
12935	18.128	5.6364	5.e-002	4.067
12936	18.403	5.6364	0.	20.759
12937	18.311	5.5455	0.	20.486
12938	18.311	5.6364	5.e-002	4.0519
12939	18.586	5.6364	0.	21.336
12940	18.495	5.5455	0.	21.118
12941	18.495	5.6364	5.e-002	4.0373
12942	18.77	5.6364	0.	21.926
12943	18.678	5.5455	0.	21.765
12944	18.678	5.6364	5.e-002	4.0232
12945	18.954	5.6364	0.	22.531
12946	18.862	5.5455	0.	22.429
12947	18.862	5.6364	5.e-002	4.0097
12948	19.137	5.6364	0.	23.15
12949	19.045	5.5455	0.	23.112
12950	19.045	5.6364	5.e-002	3.9967
12951	19.321	5.6364	0.	23.786
12952	19.229	5.5455	0.	23.817
12953	19.229	5.6364	5.e-002	3.9843
12954	19.504	5.6364	0.	24.44
12955	19.412	5.5455	0.	24.543
12956	19.412	5.6364	5.e-002	3.9726
12957	19.688	5.6364	0.	25.112
12958	19.596	5.5455	0.	25.295
12959	19.596	5.6364	5.e-002	3.9615
12960	19.871	5.6364	0.	25.804
12961	19.779	5.5455	0.	26.072
12962	19.779	5.6364	5.e-002	3.9511
12963	20.055	5.6364	0.	26.517
12964	19.963	5.5455	0.	26.877
12965	19.963	5.6364	5.e-002	3.9415
12966	20.238	5.6364	0.	27.251
12967	20.146	5.5455	0.	27.712
12968	20.146	5.6364	5.e-002	3.9327
12969	20.422	5.6364	0.	28.007
12970	20.33	5.5455	0.	28.579
12971	20.33	5.6364	5.e-002	3.9248
12972	20.605	5.6364	0.	28.786
12973	20.513	5.5455	0.	29.479
12974	20.513	5.6364	5.e-002	3.9177
12975	20.789	5.6364	0.	29.589
12976	20.697	5.5455	0.	30.414
12977	20.697	5.6364	5.e-002	3.9116
12978	20.972	5.6364	0.	30.416
12979	20.88	5.5455	0.	31.388
12980	20.88	5.6364	5.e-002	3.9065
12981	21.156	5.6364	0.	31.269
12982	21.064	5.5455	0.	32.401
12983	21.064	5.6364	5.e-002	3.9025
12984	21.339	5.6364	0.	32.147
12985	21.247	5.5455	0.	33.457
12986	21.247	5.6364	5.e-002	3.8997
12987	21.523	5.6364	0.	33.053
12988	21.431	5.5455	0.	34.56
12989	21.431	5.6364	5.e-002	3.898
12990	21.706	5.6364	0.	33.988
12991	21.614	5.5455	0.	35.714
12992	21.614	5.6364	5.e-002	3.8976
12993	21.89	5.6364	0.	34.954
12994	21.798	5.5455	0.	36.924
12995	21.798	5.6364	5.e-002	3.8985
12996	22.073	5.6364	0.	35.957
12997	21.981	5.5455	0.	38.2
12998	21.981	5.6364	5.e-002	3.901
12999	22.257	5.6364	0.	37.001
13000	22.165	5.5455	0.	39.553
13001	22.165	5.6364	5.e-002	3.905
13002	22.44	5.6364	0.	38.099
13003	22.348	5.5455	0.	40.998
13004	22.348	5.6364	5.e-002	3.9107
13005	22.624	5.6364	0.	39.269
13006	22.532	5.5455	0.	42.561
13007	22.532	5.6364	5.e-002	3.9186
13008	22.807	5.6364	0.	40.541
13009	22.715	5.5455	0.	44.281
13010	22.715	5.6364	5.e-002	3.929
13011	22.991	5.6364	0.	41.971
13012	22.899	5.5455	0.	46.22
13013	22.899	5.6364	5.e-002	3.9429
13014	23.174	5.6364	0.	43.668
13015	23.082	5.5455	0.	48.48
13016	23.082	5.6364	5.e-002	3.962
13017	23.358	5.6364	0.	45.841
13018	23.266	5.5455	0.	51.243
13019	23.266	5.6364	5.e-002	3.99
13020	23.541	5.6364	0.	48.977
13021	23.449	5.5455	0.	54.82
13022	23.449	5.6364	5.e-002	4.0375
13023	23.725	5.6364	0.	54.104
13024	23.633	5.5455	0.	59.863
13025	23.633	5.6364	5.e-002	4.1451
13026	23.816	5.5455	0.	67.341
13027	23.816	5.6364	5.e-002	4.526
13028	23.908	5.6364	0.	60.341
13029	6.8419	5.4545	0.	347.93
13030	6.7502	5.3636	0.	590.88
13031	6.7502	5.4545	5.e-002	60.777
13032	6.6584	5.4545	0.	355.75
13033	7.0254	5.4545	0.	222.99
13034	6.9337	5.3636	0.	352.84
13035	6.9337	5.4545	5.e-002	48.434
13036	7.2089	5.4545	0.	180.45
13037	7.1172	5.3636	0.	256.05
13038	7.1172	5.4545	5.e-002	43.542
13039	7.3925	5.4545	0.	160.05
13040	7.3007	5.3636	0.	206.22
13041	7.3007	5.4545	5.e-002	37.598
13042	7.576	5.4545	0.	144.67
13043	7.4842	5.3636	0.	174.3
13044	7.4842	5.4545	5.e-002	31.406
13045	7.7595	5.4545	0.	129.25
13046	7.6677	5.3636	0.	149.28
13047	7.6677	5.4545	5.e-002	25.509
13048	7.943	5.4545	0.	112.84
13049	7.8512	5.3636	0.	126.89
13050	7.8512	5.4545	5.e-002	20.214
13051	8.1265	5.4545	0.	95.901
13052	8.0347	5.3636	0.	105.94
13053	8.0347	5.4545	5.e-002	15.635
13054	8.31	5.4545	0.	79.186
13055	8.2182	5.3636	0.	86.315
13056	8.2182	5.4545	5.e-002	11.778
13057	8.4935	5.4545	0.	63.364
13058	8.4018	5.3636	0.	68.23
13059	8.4018	5.4545	5.e-002	8.5933
13060	8.677	5.4545	0.	48.901
13061	8.5853	5.3636	0.	51.917
13062	8.5853	5.4545	5.e-002	6.0206
13063	8.8605	5.4545	0.	36.062
13064	8.7688	5.3636	0.	37.526
13065	8.7688	5.4545	5.e-002	4.0147
13066	9.044	5.4545	0.	24.955
13067	8.9523	5.3636	0.	25.113
13068	8.9523	5.4545	5.e-002	2.5957
13069	9.2275	5.4545	0.	15.582
13070	9.1358	5.3636	0.	14.666
13071	9.1358	5.4545	5.e-002	1.9176
13072	9.4111	5.4545	0.	7.9004
13073	9.3193	5.3636	0.	6.2372
13074	9.3193	5.4545	5.e-002	2.0264
13075	9.5946	5.4545	0.	2.1689
13076	9.5028	5.3636	0.	1.1883
13077	9.5028	5.4545	5.e-002	2.5047
13078	9.7781	5.4545	0.	0.36699
13079	9.6863	5.3636	0.	0.32837
13080	9.6863	5.4545	5.e-002	3.0226
13081	9.9616	5.4545	0.	0.15501
13082	9.8698	5.3636	0.	0.16388
13083	9.8698	5.4545	5.e-002	3.4786
13084	10.145	5.4545	0.	9.2554e-002
13085	10.053	5.3636	0.	0.10211
13086	10.053	5.4545	5.e-002	3.8542
13087	10.329	5.4545	0.	6.4029e-002
13088	10.237	5.3636	0.	7.1281e-002
13089	10.237	5.4545	5.e-002	4.1542
13090	10.512	5.4545	0.	4.8007e-002
13091	10.42	5.3636	0.	5.3321e-002
13092	10.42	5.4545	5.e-002	4.389
13093	10.696	5.4545	0.	3.7813e-002
13094	10.604	5.3636	0.	4.1757e-002
13095	10.604	5.4545	5.e-002	4.5697
13096	10.879	5.4545	0.	3.073e-002
13097	10.787	5.3636	0.	3.3746e-002
13098	10.787	5.4545	5.e-002	4.7063
13099	11.063	5.4545	0.	2.5496e-002
13100	10.971	5.3636	0.	2.7849e-002
13101	10.971	5.4545	5.e-002	4.8074
13102	11.246	5.4545	0.	2.1499e-002
13103	11.154	5.3636	0.	2.3363e-002
13104	11.154	5.4545	5.e-002	4.88
13105	11.43	5.4545	0.	1.8348e-002
13106	11.338	5.3636	0.	1.9897e-002
13107	11.338	5.4545	5.e-002	4.9303
13108	11.613	5.4545	0.	1.5773e-002
13109	11.521	5.3636	0.	1.7108e-002
13110	11.521	5.4545	5.e-002	4.963
13111	11.797	5.4545	0.	1.3618e-002
13112	11.705	5.3636	0.	1.4816e-002
13113	11.705	5.4545	5.e-002	4.9818
13114	11.98	5.4545	0.	1.1778e-002
13115	11.888	5.3636	0.	1.289e-002
13116	11.888	5.4545	5.e-002	4.99
13117	12.164	5.4545	0.	1.0195e-002
13118	12.072	5.3636	0.	1.1254e-002
13119	12.072	5.4545	5.e-002	4.9898
13120	12.347	5.4545	0.	8.8291e-003
13121	12.255	5.3636	0.	9.8642e-003
13122	12.255	5.4545	5.e-002	4.9832
13123	12.531	5.4545	0.	7.6871e-003
13124	12.439	5.3636	0.	8.6901e-003
13125	12.439	5.4545	5.e-002	4.9718
13126	12.714	5.4545	0.	6.7653e-003
13127	12.622	5.3636	0.	7.7734e-003
13128	12.622	5.4545	5.e-002	4.9566
13129	12.898	5.4545	0.	6.046e-003
13130	12.806	5.3636	0.	7.0648e-003
13131	12.806	5.4545	5.e-002	4.9389
13132	13.081	5.4545	0.	5.6981e-003
13133	12.989	5.3636	0.	6.5552e-003
13134	12.989	5.4545	5.e-002	4.9191
13135	13.265	5.4545	0.	7.2183e-003
13136	13.173	5.3636	0.	6.4171e-003
13137	13.173	5.4545	5.e-002	4.898
13138	13.448	5.4545	0.	0.46571
13139	13.356	5.3636	0.	7.1834e-003
13140	13.356	5.4545	5.e-002	4.8759
13141	13.632	5.4545	0.	1.557
13142	13.54	5.3636	0.	1.293e-002
13143	13.54	5.4545	5.e-002	4.853
13144	13.815	5.4545	0.	2.6098
13145	13.724	5.3636	0.	0.49586
13146	13.724	5.4545	5.e-002	4.8298
13147	13.999	5.4545	0.	3.6212
13148	13.907	5.3636	0.	1.6366
13149	13.907	5.4545	5.e-002	4.8064
13150	14.182	5.4545	0.	4.5917
13151	14.091	5.3636	0.	2.7368
13152	14.091	5.4545	5.e-002	4.7831
13153	14.366	5.4545	0.	5.5224
13154	14.274	5.3636	0.	3.7902
13155	14.274	5.4545	5.e-002	4.7598
13156	14.549	5.4545	0.	6.4151
13157	14.458	5.3636	0.	4.7982
13158	14.458	5.4545	5.e-002	4.7366
13159	14.733	5.4545	0.	7.2719
13160	14.641	5.3636	0.	5.763
13161	14.641	5.4545	5.e-002	4.7135
13162	14.916	5.4545	0.	8.0953
13163	14.825	5.3636	0.	6.6875
13164	14.825	5.4545	5.e-002	4.6907
13165	15.1	5.4545	0.	8.8877
13166	15.008	5.3636	0.	7.5744
13167	15.008	5.4545	5.e-002	4.6681
13168	15.283	5.4545	0.	9.6517
13169	15.192	5.3636	0.	8.4269
13170	15.192	5.4545	5.e-002	4.6459
13171	15.467	5.4545	0.	10.39
13172	15.375	5.3636	0.	9.248
13173	15.375	5.4545	5.e-002	4.6239
13174	15.65	5.4545	0.	11.105
13175	15.559	5.3636	0.	10.041
13176	15.559	5.4545	5.e-002	4.6022
13177	15.834	5.4545	0.	11.801
13178	15.742	5.3636	0.	10.809
13179	15.742	5.4545	5.e-002	4.5808
13180	16.017	5.4545	0.	12.479
13181	15.926	5.3636	0.	11.555
13182	15.926	5.4545	5.e-002	4.5597
13183	16.201	5.4545	0.	13.142
13184	16.109	5.3636	0.	12.283
13185	16.109	5.4545	5.e-002	4.5388
13186	16.384	5.4545	0.	13.793
13187	16.293	5.3636	0.	12.995
13188	16.293	5.4545	5.e-002	4.5183
13189	16.568	5.4545	0.	14.435
13190	16.476	5.3636	0.	13.695
13191	16.476	5.4545	5.e-002	4.498
13192	16.751	5.4545	0.	15.07
13193	16.66	5.3636	0.	14.385
13194	16.66	5.4545	5.e-002	4.4781
13195	16.935	5.4545	0.	15.7
13196	16.843	5.3636	0.	15.069
13197	16.843	5.4545	5.e-002	4.4584
13198	17.118	5.4545	0.	16.329
13199	17.027	5.3636	0.	15.749
13200	17.027	5.4545	5.e-002	4.439
13201	17.302	5.4545	0.	16.959
13202	17.21	5.3636	0.	16.429
13203	17.21	5.4545	5.e-002	4.4198
13204	17.485	5.4545	0.	17.592
13205	17.394	5.3636	0.	17.111
13206	17.394	5.4545	5.e-002	4.401
13207	17.669	5.4545	0.	18.231
13208	17.577	5.3636	0.	17.798
13209	17.577	5.4545	5.e-002	4.3825
13210	17.852	5.4545	0.	18.877
13211	17.761	5.3636	0.	18.493
13212	17.761	5.4545	5.e-002	4.3644
13213	18.036	5.4545	0.	19.534
13214	17.944	5.3636	0.	19.199
13215	17.944	5.4545	5.e-002	4.3465
13216	18.219	5.4545	0.	20.204
13217	18.128	5.3636	0.	19.918
13218	18.128	5.4545	5.e-002	4.3289
13219	18.403	5.4545	0.	20.889
13220	18.311	5.3636	0.	20.654
13221	18.311	5.4545	5.e-002	4.3117
13222	18.586	5.4545	0.	21.592
13223	18.495	5.3636	0.	21.409
13224	18.495	5.4545	5.e-002	4.2949
13225	18.77	5.4545	0.	22.314
13226	18.678	5.3636	0.	22.186
13227	18.678	5.4545	5.e-002	4.2784
13228	18.954	5.4545	0.	23.059
13229	18.862	5.3636	0.	22.989
13230	18.862	5.4545	5.e-002	4.2624
13231	19.137	5.4545	0.	23.828
13232	19.045	5.3636	0.	23.819
13233	19.045	5.4545	5.e-002	4.2467
13234	19.321	5.4545	0.	24.624
13235	19.229	5.3636	0.	24.68
13236	19.229	5.4545	5.e-002	4.2316
13237	19.504	5.4545	0.	25.451
13238	19.412	5.3636	0.	25.575
13239	19.412	5.4545	5.e-002	4.2168
13240	19.688	5.4545	0.	26.309
13241	19.596	5.3636	0.	26.508
13242	19.596	5.4545	5.e-002	4.2026
13243	19.871	5.4545	0.	27.201
13244	19.779	5.3636	0.	27.481
13245	19.779	5.4545	5.e-002	4.1889
13246	20.055	5.4545	0.	28.131
13247	19.963	5.3636	0.	28.499
13248	19.963	5.4545	5.e-002	4.1758
13249	20.238	5.4545	0.	29.102
13250	20.146	5.3636	0.	29.564
13251	20.146	5.4545	5.e-002	4.1632
13252	20.422	5.4545	0.	30.115
13253	20.33	5.3636	0.	30.681
13254	20.33	5.4545	5.e-002	4.1513
13255	20.605	5.4545	0.	31.174
13256	20.513	5.3636	0.	31.853
13257	20.513	5.4545	5.e-002	4.1401
13258	20.789	5.4545	0.	32.284
13259	20.697	5.3636	0.	33.087
13260	20.697	5.4545	5.e-002	4.1295
13261	20.972	5.4545	0.	33.447
13262	20.88	5.3636	0.	34.386
13263	20.88	5.4545	5.e-002	4.1197
13264	21.156	5.4545	0.	34.669
13265	21.064	5.3636	0.	35.757
13266	21.064	5.4545	5.e-002	4.1108
13267	21.339	5.4545	0.	35.955
13268	21.247	5.3636	0.	37.208
13269	21.247	5.4545	5.e-002	4.1027
13270	21.523	5.4545	0.	37.312
13271	21.431	5.3636	0.	38.746
13272	21.431	5.4545	5.e-002	4.0955
13273	21.706	5.4545	0.	38.749
13274	21.614	5.3636	0.	40.383
13275	21.614	5.4545	5.e-002	4.0893
13276	21.89	5.4545	0.	40.278
13277	21.798	5.3636	0.	42.132
13278	21.798	5.4545	5.e-002	4.0841
13279	22.073	5.4545	0.	41.914
13280	21.981	5.3636	0.	44.01
13281	21.981	5.4545	5.e-002	4.0802
13282	22.257	5.4545	0.	43.679
13283	22.165	5.3636	0.	46.043
13284	22.165	5.4545	5.e-002	4.0777
13285	22.44	5.4545	0.	45.604
13286	22.348	5.3636	0.	48.261
13287	22.348	5.4545	5.e-002	4.0768
13288	22.624	5.4545	0.	47.735
13289	22.532	5.3636	0.	50.709
13290	22.532	5.4545	5.e-002	4.078
13291	22.807	5.4545	0.	50.141
13292	22.715	5.3636	0.	53.454
13293	22.715	5.4545	5.e-002	4.0821
13294	22.991	5.4545	0.	52.93
13295	22.899	5.3636	0.	56.589
13296	22.899	5.4545	5.e-002	4.0903
13297	23.174	5.4545	0.	56.275
13298	23.082	5.3636	0.	60.254
13299	23.082	5.4545	5.e-002	4.1051
13300	23.358	5.4545	0.	60.449
13301	23.266	5.3636	0.	64.664
13302	23.266	5.4545	5.e-002	4.1319
13303	23.541	5.4545	0.	65.908
13304	23.449	5.3636	0.	70.112
13305	23.449	5.4545	5.e-002	4.1811
13306	23.725	5.4545	0.	73.244
13307	23.633	5.3636	0.	77.072
13308	23.633	5.4545	5.e-002	4.2794
13309	23.816	5.3636	0.	85.937
13310	23.816	5.4545	5.e-002	4.5796
13311	23.908	5.4545	0.	81.043
13312	6.8419	5.2727	0.	558.86
13313	6.7502	5.1818	0.	860.5
13314	6.7502	5.2727	5.e-002	68.501
13315	6.6584	5.2727	0.	556.63
13316	7.0254	5.2727	0.	363.28
13317	6.9337	5.1818	0.	540.26
13318	6.9337	5.2727	5.e-002	51.248
13319	7.2089	5.2727	0.	269.33
13320	7.1172	5.1818	0.	379.33
13321	7.1172	5.2727	5.e-002	45.041
13322	7.3925	5.2727	0.	213.47
13323	7.3007	5.1818	0.	280.21
13324	7.3007	5.2727	5.e-002	38.029
13325	7.576	5.2727	0.	174.85
13326	7.4842	5.1818	0.	214.3
13327	7.4842	5.2727	5.e-002	31.119
13328	7.7595	5.2727	0.	144.5
13329	7.6677	5.1818	0.	167.27
13330	7.6677	5.2727	5.e-002	24.861
13331	7.943	5.2727	0.	118.54
13332	7.8512	5.1818	0.	131.16
13333	7.8512	5.2727	5.e-002	19.481
13334	8.1265	5.2727	0.	95.488
13335	8.0347	5.1818	0.	101.88
13336	8.0347	5.2727	5.e-002	14.998
13337	8.31	5.2727	0.	74.852
13338	8.2182	5.1818	0.	77.363
13339	8.2182	5.2727	5.e-002	11.338
13340	8.4935	5.2727	0.	56.502
13341	8.4018	5.1818	0.	56.519
13342	8.4018	5.2727	5.e-002	8.4119
13343	8.677	5.2727	0.	40.409
13344	8.5853	5.1818	0.	38.775
13345	8.5853	5.2727	5.e-002	6.1408
13346	8.8605	5.2727	0.	26.549
13347	8.7688	5.1818	0.	23.822
13348	8.7688	5.2727	5.e-002	4.4834
13349	9.044	5.2727	0.	14.903
13350	8.9523	5.1818	0.	11.6
13351	8.9523	5.2727	5.e-002	3.4408
13352	9.2275	5.2727	0.	5.6949
13353	9.1358	5.1818	0.	3.2445
13354	9.1358	5.2727	5.e-002	3.0028
13355	9.4111	5.2727	0.	1.1276
13356	9.3193	5.1818	0.	0.84503
13357	9.3193	5.2727	5.e-002	3.0306
13358	9.5946	5.2727	0.	0.38098
13359	9.5028	5.1818	0.	0.37412
13360	9.5028	5.2727	5.e-002	3.293
13361	9.7781	5.2727	0.	0.19779
13362	9.6863	5.1818	0.	0.212
13363	9.6863	5.2727	5.e-002	3.6204
13364	9.9616	5.2727	0.	0.12337
13365	9.8698	5.1818	0.	0.13634
13366	9.8698	5.2727	5.e-002	3.9336
13367	10.145	5.2727	0.	8.5225e-002
13368	10.053	5.1818	0.	9.4853e-002
13369	10.053	5.2727	5.e-002	4.2043
13370	10.329	5.2727	0.	6.2909e-002
13371	10.237	5.1818	0.	6.9712e-002
13372	10.237	5.2727	5.e-002	4.4265
13373	10.512	5.2727	0.	4.8634e-002
13374	10.42	5.1818	0.	5.335e-002
13375	10.42	5.2727	5.e-002	4.6031
13376	10.696	5.2727	0.	3.8878e-002
13377	10.604	5.1818	0.	4.2111e-002
13378	10.604	5.2727	5.e-002	4.7397
13379	10.879	5.2727	0.	3.1834e-002
13380	10.787	5.1818	0.	3.4042e-002
13381	10.787	5.2727	5.e-002	4.8428
13382	11.063	5.2727	0.	2.6539e-002
13383	10.971	5.1818	0.	2.8002e-002
13384	10.971	5.2727	5.e-002	4.9181
13385	11.246	5.2727	0.	2.2476e-002
13386	11.154	5.1818	0.	2.3393e-002
13387	11.154	5.2727	5.e-002	4.971
13388	11.43	5.2727	0.	1.9287e-002
13389	11.338	5.1818	0.	1.9851e-002
13390	11.338	5.2727	5.e-002	5.006
13391	11.613	5.2727	0.	1.6706e-002
13392	11.521	5.1818	0.	1.7038e-002
13393	11.521	5.2727	5.e-002	5.0269
13394	11.797	5.2727	0.	1.4577e-002
13395	11.705	5.1818	0.	1.4766e-002
13396	11.705	5.2727	5.e-002	5.0366
13397	11.98	5.2727	0.	1.279e-002
13398	11.888	5.1818	0.	1.2897e-002
13399	11.888	5.2727	5.e-002	5.0376
13400	12.164	5.2727	0.	1.1282e-002
13401	12.072	5.1818	0.	1.1343e-002
13402	12.072	5.2727	5.e-002	5.0319
13403	12.347	5.2727	0.	1.0014e-002
13404	12.255	5.1818	0.	1.0056e-002
13405	12.255	5.2727	5.e-002	5.021
13406	12.531	5.2727	0.	8.9859e-003
13407	12.439	5.1818	0.	8.9954e-003
13408	12.439	5.2727	5.e-002	5.0061
13409	12.714	5.2727	0.	8.1864e-003
13410	12.622	5.1818	0.	8.1927e-003
13411	12.622	5.2727	5.e-002	4.9883
13412	12.898	5.2727	0.	7.5687e-003
13413	12.806	5.1818	0.	7.584e-003
13414	12.806	5.2727	5.e-002	4.9685
13415	13.081	5.2727	0.	7.1591e-003
13416	12.989	5.1818	0.	7.1205e-003
13417	12.989	5.2727	5.e-002	4.9471
13418	13.265	5.2727	0.	7.0804e-003
13419	13.173	5.1818	0.	6.8667e-003
13420	13.173	5.2727	5.e-002	4.9247
13421	13.448	5.2727	0.	7.6415e-003
13422	13.356	5.1818	0.	6.9086e-003
13423	13.356	5.2727	5.e-002	4.9015
13424	13.632	5.2727	0.	1.0083e-002
13425	13.54	5.1818	0.	7.467e-003
13426	13.54	5.2727	5.e-002	4.8778
13427	13.815	5.2727	0.	2.7561e-002
13428	13.724	5.1818	0.	9.2558e-003
13429	13.724	5.2727	5.e-002	4.8538
13430	13.999	5.2727	0.	0.78479
13431	13.907	5.1818	0.	1.5677e-002
13432	13.907	5.2727	5.e-002	4.8299
13433	14.182	5.2727	0.	1.9613
13434	14.091	5.1818	0.	0.15903
13435	14.091	5.2727	5.e-002	4.806
13436	14.366	5.2727	0.	3.0913
13437	14.274	5.1818	0.	1.3251
13438	14.274	5.2727	5.e-002	4.7823
13439	14.549	5.2727	0.	4.1715
13440	14.458	5.1818	0.	2.521
13441	14.458	5.2727	5.e-002	4.7588
13442	14.733	5.2727	0.	5.2043
13443	14.641	5.1818	0.	3.6647
13444	14.641	5.2727	5.e-002	4.7354
13445	14.916	5.2727	0.	6.1928
13446	14.825	5.1818	0.	4.7575
13447	14.825	5.2727	5.e-002	4.7123
13448	15.1	5.2727	0.	7.1403
13449	15.008	5.1818	0.	5.8024
13450	15.008	5.2727	5.e-002	4.6895
13451	15.283	5.2727	0.	8.0505
13452	15.192	5.1818	0.	6.8034
13453	15.192	5.2727	5.e-002	4.667
13454	15.467	5.2727	0.	8.9267
13455	15.375	5.1818	0.	7.7646
13456	15.375	5.2727	5.e-002	4.6449
13457	15.65	5.2727	0.	9.7728
13458	15.559	5.1818	0.	8.6899
13459	15.559	5.2727	5.e-002	4.623
13460	15.834	5.2727	0.	10.592
13461	15.742	5.1818	0.	9.5836
13462	15.742	5.2727	5.e-002	4.6014
13463	16.017	5.2727	0.	11.389
13464	15.926	5.1818	0.	10.45
13465	15.926	5.2727	5.e-002	4.5801
13466	16.201	5.2727	0.	12.166
13467	16.109	5.1818	0.	11.292
13468	16.109	5.2727	5.e-002	4.5591
13469	16.384	5.2727	0.	12.928
13470	16.293	5.1818	0.	12.115
13471	16.293	5.2727	5.e-002	4.5384
13472	16.568	5.2727	0.	13.677
13473	16.476	5.1818	0.	12.922
13474	16.476	5.2727	5.e-002	4.518
13475	16.751	5.2727	0.	14.416
13476	16.66	5.1818	0.	13.717
13477	16.66	5.2727	5.e-002	4.498
13478	16.935	5.2727	0.	15.15
13479	16.843	5.1818	0.	14.503
13480	16.843	5.2727	5.e-002	4.4781
13481	17.118	5.2727	0.	15.882
13482	17.027	5.1818	0.	15.286
13483	17.027	5.2727	5.e-002	4.4586
13484	17.302	5.2727	0.	16.615
13485	17.21	5.1818	0.	16.067
13486	17.21	5.2727	5.e-002	4.4393
13487	17.485	5.2727	0.	17.352
13488	17.394	5.1818	0.	16.852
13489	17.394	5.2727	5.e-002	4.4204
13490	17.669	5.2727	0.	18.096
13491	17.577	5.1818	0.	17.643
13492	17.577	5.2727	5.e-002	4.4018
13493	17.852	5.2727	0.	18.851
13494	17.761	5.1818	0.	18.444
13495	17.761	5.2727	5.e-002	4.3836
13496	18.036	5.2727	0.	19.62
13497	17.944	5.1818	0.	19.259
13498	17.944	5.2727	5.e-002	4.3656
13499	18.219	5.2727	0.	20.406
13500	18.128	5.1818	0.	20.092
13501	18.128	5.2727	5.e-002	4.3479
13502	18.403	5.2727	0.	21.213
13503	18.311	5.1818	0.	20.947
13504	18.311	5.2727	5.e-002	4.3306
13505	18.586	5.2727	0.	22.044
13506	18.495	5.1818	0.	21.826
13507	18.495	5.2727	5.e-002	4.3137
13508	18.77	5.2727	0.	22.902
13509	18.678	5.1818	0.	22.735
13510	18.678	5.2727	5.e-002	4.2972
13511	18.954	5.2727	0.	23.791
13512	18.862	5.1818	0.	23.677
13513	18.862	5.2727	5.e-002	4.2811
13514	19.137	5.2727	0.	24.714
13515	19.045	5.1818	0.	24.656
13516	19.045	5.2727	5.e-002	4.2654
13517	19.321	5.2727	0.	25.676
13518	19.229	5.1818	0.	25.676
13519	19.229	5.2727	5.e-002	4.2502
13520	19.504	5.2727	0.	26.679
13521	19.412	5.1818	0.	26.743
13522	19.412	5.2727	5.e-002	4.2354
13523	19.688	5.2727	0.	27.728
13524	19.596	5.1818	0.	27.86
13525	19.596	5.2727	5.e-002	4.2211
13526	19.871	5.2727	0.	28.828
13527	19.779	5.1818	0.	29.033
13528	19.779	5.2727	5.e-002	4.2074
13529	20.055	5.2727	0.	29.982
13530	19.963	5.1818	0.	30.266
13531	19.963	5.2727	5.e-002	4.1943
13532	20.238	5.2727	0.	31.196
13533	20.146	5.1818	0.	31.565
13534	20.146	5.2727	5.e-002	4.1818
13535	20.422	5.2727	0.	32.475
13536	20.33	5.1818	0.	32.937
13537	20.33	5.2727	5.e-002	4.1699
13538	20.605	5.2727	0.	33.824
13539	20.513	5.1818	0.	34.388
13540	20.513	5.2727	5.e-002	4.1588
13541	20.789	5.2727	0.	35.25
13542	20.697	5.1818	0.	35.925
13543	20.697	5.2727	5.e-002	4.1484
13544	20.972	5.2727	0.	36.761
13545	20.88	5.1818	0.	37.556
13546	20.88	5.2727	5.e-002	4.1388
13547	21.156	5.2727	0.	38.364
13548	21.064	5.1818	0.	39.292
13549	21.064	5.2727	5.e-002	4.1301
13550	21.339	5.2727	0.	40.071
13551	21.247	5.1818	0.	41.144
13552	21.247	5.2727	5.e-002	4.1223
13553	21.523	5.2727	0.	41.893
13554	21.431	5.1818	0.	43.124
13555	21.431	5.2727	5.e-002	4.1156
13556	21.706	5.2727	0.	43.847
13557	21.614	5.1818	0.	45.25
13558	21.614	5.2727	5.e-002	4.11
13559	21.89	5.2727	0.	45.952
13560	21.798	5.1818	0.	47.541
13561	21.798	5.2727	5.e-002	4.1057
13562	22.073	5.2727	0.	48.234
13563	21.981	5.1818	0.	50.024
13564	21.981	5.2727	5.e-002	4.1029
13565	22.257	5.2727	0.	50.726
13566	22.165	5.1818	0.	52.731
13567	22.165	5.2727	5.e-002	4.1018
13568	22.44	5.2727	0.	53.476
13569	22.348	5.1818	0.	55.705
13570	22.348	5.2727	5.e-002	4.1029
13571	22.624	5.2727	0.	56.546
13572	22.532	5.1818	0.	59.005
13573	22.532	5.2727	5.e-002	4.1067
13574	22.807	5.2727	0.	60.027
13575	22.715	5.1818	0.	62.707
13576	22.715	5.2727	5.e-002	4.1142
13577	22.991	5.2727	0.	64.043
13578	22.899	5.1818	0.	66.917
13579	22.899	5.2727	5.e-002	4.1271
13580	23.174	5.2727	0.	68.771
13581	23.082	5.1818	0.	71.773
13582	23.082	5.2727	5.e-002	4.1481
13583	23.358	5.2727	0.	74.442
13584	23.266	5.1818	0.	77.463
13585	23.266	5.2727	5.e-002	4.1821
13586	23.541	5.2727	0.	81.366
13587	23.449	5.1818	0.	84.195
13588	23.449	5.2727	5.e-002	4.237
13589	23.725	5.2727	0.	89.829
13590	23.633	5.1818	0.	92.259
13591	23.633	5.2727	5.e-002	4.3311
13592	23.816	5.1818	0.	101.76
13593	23.816	5.2727	5.e-002	4.5827
13594	23.908	5.2727	0.	98.381
13595	6.8419	5.0909	0.	803.54
13596	6.7502	5.	0.	1175.
13597	6.7502	5.0909	5.e-002	80.036
13598	6.6584	5.0909	0.	790.49
13599	7.0254	5.0909	0.	529.03
13600	6.9337	5.	0.	753.52
13601	6.9337	5.0909	5.e-002	56.204
13602	7.2089	5.0909	0.	373.13
13603	7.1172	5.	0.	515.45
13604	7.1172	5.0909	5.e-002	47.449
13605	7.3925	5.0909	0.	270.93
13606	7.3007	5.	0.	356.11
13607	7.3007	5.0909	5.e-002	38.586
13608	7.576	5.0909	0.	200.83
13609	7.4842	5.	0.	248.42
13610	7.4842	5.0909	5.e-002	30.648
13611	7.7595	5.0909	0.	150.51
13612	7.6677	5.	0.	174.84
13613	7.6677	5.0909	5.e-002	24.017
13614	7.943	5.0909	0.	112.53
13615	7.8512	5.	0.	122.96
13616	7.8512	5.0909	5.e-002	18.672
13617	8.1265	5.0909	0.	82.643
13618	8.0347	5.	0.	84.971
13619	8.0347	5.0909	5.e-002	14.432
13620	8.31	5.0909	0.	58.437
13621	8.2182	5.	0.	56.169
13622	8.2182	5.0909	5.e-002	11.107
13623	8.4935	5.0909	0.	38.547
13624	8.4018	5.	0.	33.829
13625	8.4018	5.0909	5.e-002	8.5445
13626	8.677	5.0909	0.	22.247
13627	8.5853	5.	0.	16.646
13628	8.5853	5.0909	5.e-002	6.6376
13629	8.8605	5.0909	0.	9.5187
13630	8.7688	5.	0.	5.4486
13631	8.7688	5.0909	5.e-002	5.3125
13632	9.044	5.0909	0.	2.5088
13633	8.9523	5.	0.	1.6929
13634	8.9523	5.0909	5.e-002	4.5046
13635	9.2275	5.0909	0.	0.85509
13636	9.1358	5.	0.	0.76057
13637	9.1358	5.0909	5.e-002	4.1226
13638	9.4111	5.0909	0.	0.42109
13639	9.3193	5.	0.	0.42109
13640	9.3193	5.0909	5.e-002	4.0378
13641	9.5946	5.0909	0.	0.24738
13642	9.5028	5.	0.	0.26113
13643	9.5028	5.0909	5.e-002	4.1196
13644	9.7781	5.0909	0.	0.16062
13645	9.6863	5.	0.	0.17407
13646	9.6863	5.0909	5.e-002	4.2723
13647	9.9616	5.0909	0.	0.11139
13648	9.8698	5.	0.	0.12214
13649	9.8698	5.0909	5.e-002	4.4407
13650	10.145	5.0909	0.	8.1031e-002
13651	10.053	5.	0.	8.9125e-002
13652	10.053	5.0909	5.e-002	4.5977
13653	10.329	5.0909	0.	6.1152e-002
13654	10.237	5.	0.	6.7121e-002
13655	10.237	5.0909	5.e-002	4.7321
13656	10.512	5.0909	0.	4.7512e-002
13657	10.42	5.	0.	5.188e-002
13658	10.42	5.0909	5.e-002	4.8411
13659	10.696	5.0909	0.	3.7791e-002
13660	10.604	5.	0.	4.0987e-002
13661	10.604	5.0909	5.e-002	4.9257
13662	10.879	5.0909	0.	3.062e-002
13663	10.787	5.	0.	3.2982e-002
13664	10.787	5.0909	5.e-002	4.9887
13665	11.063	5.0909	0.	2.5194e-002
13666	10.971	5.	0.	2.6926e-002
13667	10.971	5.0909	5.e-002	5.0331
13668	11.246	5.0909	0.	2.105e-002
13669	11.154	5.	0.	2.2298e-002
13670	11.154	5.0909	5.e-002	5.0619
13671	11.43	5.0909	0.	1.784e-002
13672	11.338	5.	0.	1.8764e-002
13673	11.338	5.0909	5.e-002	5.0783
13674	11.613	5.0909	0.	1.5296e-002
13675	11.521	5.	0.	1.5992e-002
13676	11.521	5.0909	5.e-002	5.0846
13677	11.797	5.0909	0.	1.3249e-002
13678	11.705	5.	0.	1.379e-002
13679	11.705	5.0909	5.e-002	5.083
13680	11.98	5.0909	0.	1.158e-002
13681	11.888	5.	0.	1.2015e-002
13682	11.888	5.0909	5.e-002	5.0752
13683	12.164	5.0909	0.	1.0216e-002
13684	12.072	5.	0.	1.0573e-002
13685	12.072	5.0909	5.e-002	5.0625
13686	12.347	5.0909	0.	9.1056e-003
13687	12.255	5.	0.	9.4059e-003
13688	12.255	5.0909	5.e-002	5.0462
13689	12.531	5.0909	0.	8.2399e-003
13690	12.439	5.	0.	8.469e-003
13691	12.439	5.0909	5.e-002	5.027
13692	12.714	5.0909	0.	7.5965e-003
13693	12.622	5.	0.	7.785e-003
13694	12.622	5.0909	5.e-002	5.0058
13695	12.898	5.0909	0.	7.1107e-003
13696	12.806	5.	0.	7.2806e-003
13697	12.806	5.0909	5.e-002	4.9833
13698	13.081	5.0909	0.	6.7758e-003
13699	12.989	5.	0.	6.8928e-003
13700	12.989	5.0909	5.e-002	4.9598
13701	13.265	5.0909	0.	6.6352e-003
13702	13.173	5.	0.	6.6592e-003
13703	13.173	5.0909	5.e-002	4.9356
13704	13.448	5.0909	0.	6.7617e-003
13705	13.356	5.	0.	6.6058e-003
13706	13.356	5.0909	5.e-002	4.9111
13707	13.632	5.0909	0.	7.3404e-003
13708	13.54	5.	0.	6.7972e-003
13709	13.54	5.0909	5.e-002	4.8862
13710	13.815	5.0909	0.	8.8183e-003
13711	13.724	5.	0.	7.4091e-003
13712	13.724	5.0909	5.e-002	4.8614
13713	13.999	5.0909	0.	1.2888e-002
13714	13.907	5.	0.	8.7456e-003
13715	13.907	5.0909	5.e-002	4.8367
13716	14.182	5.0909	0.	3.6058e-002
13717	14.091	5.	0.	1.1948e-002
13718	14.091	5.0909	5.e-002	4.8122
13719	14.366	5.0909	0.	0.78897
13720	14.274	5.	0.	2.408e-002
13721	14.274	5.0909	5.e-002	4.788
13722	14.549	5.0909	0.	2.0402
13723	14.458	5.	0.	0.40261
13724	14.458	5.0909	5.e-002	4.7641
13725	14.733	5.0909	0.	3.2434
13726	14.641	5.	0.	1.6818
13727	14.641	5.0909	5.e-002	4.7403
13728	14.916	5.0909	0.	4.3928
13729	14.825	5.	0.	2.9349
13730	14.825	5.0909	5.e-002	4.7169
13731	15.1	5.0909	0.	5.4917
13732	15.008	5.	0.	4.1325
13733	15.008	5.0909	5.e-002	4.6938
13734	15.283	5.0909	0.	6.5443
13735	15.192	5.	0.	5.2775
13736	15.192	5.0909	5.e-002	4.6711
13737	15.467	5.0909	0.	7.555
13738	15.375	5.	0.	6.3743
13739	15.375	5.0909	5.e-002	4.6488
13740	15.65	5.0909	0.	8.5285
13741	15.559	5.	0.	7.4279
13742	15.559	5.0909	5.e-002	4.6267
13743	15.834	5.0909	0.	9.4692
13744	15.742	5.	0.	8.4433
13745	15.742	5.0909	5.e-002	4.605
13746	16.017	5.0909	0.	10.382
13747	15.926	5.	0.	9.4253
13748	15.926	5.0909	5.e-002	4.5835
13749	16.201	5.0909	0.	11.27
13750	16.109	5.	0.	10.379
13751	16.109	5.0909	5.e-002	4.5624
13752	16.384	5.0909	0.	12.139
13753	16.293	5.	0.	11.309
13754	16.293	5.0909	5.e-002	4.5416
13755	16.568	5.0909	0.	12.993
13756	16.476	5.	0.	12.22
13757	16.476	5.0909	5.e-002	4.5212
13758	16.751	5.0909	0.	13.835
13759	16.66	5.	0.	13.116
13760	16.66	5.0909	5.e-002	4.501
13761	16.935	5.0909	0.	14.671
13762	16.843	5.	0.	14.003
13763	16.843	5.0909	5.e-002	4.4812
13764	17.118	5.0909	0.	15.503
13765	17.027	5.	0.	14.885
13766	17.027	5.0909	5.e-002	4.4616
13767	17.302	5.0909	0.	16.337
13768	17.21	5.	0.	15.766
13769	17.21	5.0909	5.e-002	4.4423
13770	17.485	5.0909	0.	17.177
13771	17.394	5.	0.	16.65
13772	17.394	5.0909	5.e-002	4.4234
13773	17.669	5.0909	0.	18.026
13774	17.577	5.	0.	17.543
13775	17.577	5.0909	5.e-002	4.4048
13776	17.852	5.0909	0.	18.888
13777	17.761	5.	0.	18.449
13778	17.761	5.0909	5.e-002	4.3866
13779	18.036	5.0909	0.	19.768
13780	17.944	5.	0.	19.372
13781	17.944	5.0909	5.e-002	4.3686
13782	18.219	5.0909	0.	20.67
13783	18.128	5.	0.	20.316
13784	18.128	5.0909	5.e-002	4.351
13785	18.403	5.0909	0.	21.598
13786	18.311	5.	0.	21.288
13787	18.311	5.0909	5.e-002	4.3337
13788	18.586	5.0909	0.	22.556
13789	18.495	5.	0.	22.29
13790	18.495	5.0909	5.e-002	4.3169
13791	18.77	5.0909	0.	23.55
13792	18.678	5.	0.	23.329
13793	18.678	5.0909	5.e-002	4.3004
13794	18.954	5.0909	0.	24.583
13795	18.862	5.	0.	24.409
13796	18.862	5.0909	5.e-002	4.2844
13797	19.137	5.0909	0.	25.66
13798	19.045	5.	0.	25.536
13799	19.045	5.0909	5.e-002	4.2688
13800	19.321	5.0909	0.	26.787
13801	19.229	5.	0.	26.715
13802	19.229	5.0909	5.e-002	4.2537
13803	19.504	5.0909	0.	27.968
13804	19.412	5.	0.	27.951
13805	19.412	5.0909	5.e-002	4.239
13806	19.688	5.0909	0.	29.21
13807	19.596	5.	0.	29.252
13808	19.596	5.0909	5.e-002	4.2249
13809	19.871	5.0909	0.	30.518
13810	19.779	5.	0.	30.622
13811	19.779	5.0909	5.e-002	4.2114
13812	20.055	5.0909	0.	31.898
13813	19.963	5.	0.	32.071
13814	19.963	5.0909	5.e-002	4.1986
13815	20.238	5.0909	0.	33.357
13816	20.146	5.	0.	33.603
13817	20.146	5.0909	5.e-002	4.1863
13818	20.422	5.0909	0.	34.903
13819	20.33	5.	0.	35.229
13820	20.33	5.0909	5.e-002	4.1748
13821	20.605	5.0909	0.	36.543
13822	20.513	5.	0.	36.956
13823	20.513	5.0909	5.e-002	4.164
13824	20.789	5.0909	0.	38.288
13825	20.697	5.	0.	38.795
13826	20.697	5.0909	5.e-002	4.154
13827	20.972	5.0909	0.	40.148
13828	20.88	5.	0.	40.757
13829	20.88	5.0909	5.e-002	4.1449
13830	21.156	5.0909	0.	42.134
13831	21.064	5.	0.	42.855
13832	21.064	5.0909	5.e-002	4.1368
13833	21.339	5.0909	0.	44.262
13834	21.247	5.	0.	45.103
13835	21.247	5.0909	5.e-002	4.1298
13836	21.523	5.0909	0.	46.549
13837	21.431	5.	0.	47.519
13838	21.431	5.0909	5.e-002	4.124
13839	21.706	5.0909	0.	49.016
13840	21.614	5.	0.	50.124
13841	21.614	5.0909	5.e-002	4.1194
13842	21.89	5.0909	0.	51.689
13843	21.798	5.	0.	52.943
13844	21.798	5.0909	5.e-002	4.1164
13845	22.073	5.0909	0.	54.6
13846	21.981	5.	0.	56.007
13847	21.981	5.0909	5.e-002	4.1151
13848	22.257	5.0909	0.	57.793
13849	22.165	5.	0.	59.356
13850	22.165	5.0909	5.e-002	4.116
13851	22.44	5.0909	0.	61.321
13852	22.348	5.	0.	63.037
13853	22.348	5.0909	5.e-002	4.1194
13854	22.624	5.0909	0.	65.255
13855	22.532	5.	0.	67.113
13856	22.532	5.0909	5.e-002	4.1262
13857	22.807	5.0909	0.	69.686
13858	22.715	5.	0.	71.663
13859	22.715	5.0909	5.e-002	4.1373
13860	22.991	5.0909	0.	74.734
13861	22.899	5.	0.	76.783
13862	22.899	5.0909	5.e-002	4.1546
13863	23.174	5.0909	0.	80.544
13864	23.082	5.	0.	82.593
13865	23.082	5.0909	5.e-002	4.1806
13866	23.358	5.0909	0.	87.282
13867	23.266	5.	0.	89.232
13868	23.266	5.0909	5.e-002	4.2192
13869	23.541	5.0909	0.	95.137
13870	23.449	5.	0.	96.829
13871	23.449	5.0909	5.e-002	4.2758
13872	23.725	5.0909	0.	104.23
13873	23.633	5.	0.	105.56
13874	23.633	5.0909	5.e-002	4.3621
13875	23.816	5.	0.	115.41
13876	23.816	5.0909	5.e-002	4.5782
13877	23.908	5.0909	0.	113.22
13878	6.8419	4.9091	0.	1083.
13879	6.7502	4.8182	0.	1550.5
13880	6.7502	4.9091	5.e-002	96.368
13881	6.6584	4.9091	0.	1068.7
13882	7.0254	4.9091	0.	709.04
13883	6.9337	4.8182	0.	986.21
13884	6.9337	4.9091	5.e-002	63.644
13885	7.2089	4.9091	0.	478.12
13886	7.1172	4.8182	0.	647.12
13887	7.1172	4.9091	5.e-002	50.523
13888	7.3925	4.9091	0.	321.2
13889	7.3007	4.8182	0.	417.87
13890	7.3007	4.9091	5.e-002	38.935
13891	7.576	4.9091	0.	215.15
13892	7.4842	4.8182	0.	265.45
13893	7.4842	4.9091	5.e-002	29.859
13894	7.7595	4.9091	0.	143.11
13895	7.6677	4.8182	0.	165.47
13896	7.6677	4.9091	5.e-002	23.064
13897	7.943	4.9091	0.	93.065
13898	7.8512	4.8182	0.	99.335
13899	7.8512	4.9091	5.e-002	17.988
13900	8.1265	4.9091	0.	57.316
13901	8.0347	4.8182	0.	54.831
13902	8.0347	4.9091	5.e-002	14.167
13903	8.31	4.9091	0.	31.274
13904	8.2182	4.8182	0.	24.954
13905	8.2182	4.9091	5.e-002	11.274
13906	8.4935	4.9091	0.	13.033
13907	8.4018	4.8182	0.	8.0823
13908	8.4018	4.9091	5.e-002	9.1019
13909	8.677	4.9091	0.	3.9901
13910	8.5853	4.8182	0.	2.7814
13911	8.5853	4.9091	5.e-002	7.5103
13912	8.8605	4.9091	0.	1.5439
13913	8.7688	4.8182	0.	1.3183
13914	8.7688	4.9091	5.e-002	6.3974
13915	9.044	4.9091	0.	0.78438
13916	8.9523	4.8182	0.	0.74449
13917	8.9523	4.9091	5.e-002	5.6732
13918	9.2275	4.9091	0.	0.4599
13919	9.1358	4.8182	0.	0.46262
13920	9.1358	4.9091	5.e-002	5.2477
13921	9.4111	4.9091	0.	0.29342
13922	9.3193	4.8182	0.	0.30546
13923	9.3193	4.9091	5.e-002	5.0326
13924	9.5946	4.9091	0.	0.19821
13925	9.5028	4.8182	0.	0.2106
13926	9.5028	4.9091	5.e-002	4.9509
13927	9.7781	4.9091	0.	0.13969
13928	9.6863	4.8182	0.	0.15015
13929	9.6863	4.9091	5.e-002	4.9446
13930	9.9616	4.9091	0.	0.1018
13931	9.8698	4.8182	0.	0.11001
13932	9.8698	4.9091	5.e-002	4.975
13933	10.145	4.9091	0.	7.626e-002
13934	10.053	4.8182	0.	8.2475e-002
13935	10.053	4.9091	5.e-002	5.0186
13936	10.329	4.9091	0.	5.8496e-002
13937	10.237	4.8182	0.	6.3117e-002
13938	10.237	4.9091	5.e-002	5.0625
13939	10.512	4.9091	0.	4.5798e-002
13940	10.42	4.8182	0.	4.9194e-002
13941	10.42	4.9091	5.e-002	5.1003
13942	10.696	4.9091	0.	3.6504e-002
13943	10.604	4.8182	0.	3.8984e-002
13944	10.604	4.9091	5.e-002	5.1291
13945	10.879	4.9091	0.	2.9538e-002
13946	10.787	4.8182	0.	3.1358e-002
13947	10.787	4.9091	5.e-002	5.1485
13948	11.063	4.9091	0.	2.4229e-002
13949	10.971	4.8182	0.	2.5539e-002
13950	10.971	4.9091	5.e-002	5.1589
13951	11.246	4.9091	0.	2.0173e-002
13952	11.154	4.8182	0.	2.1081e-002
13953	11.154	4.9091	5.e-002	5.1613
13954	11.43	4.9091	0.	1.7047e-002
13955	11.338	4.8182	0.	1.7689e-002
13956	11.338	4.9091	5.e-002	5.157
13957	11.613	4.9091	0.	1.4591e-002
13958	11.521	4.8182	0.	1.5046e-002
13959	11.521	4.9091	5.e-002	5.1471
13960	11.797	4.9091	0.	1.2639e-002
13961	11.705	4.8182	0.	1.2968e-002
13962	11.705	4.9091	5.e-002	5.1329
13963	11.98	4.9091	0.	1.107e-002
13964	11.888	4.8182	0.	1.1314e-002
13965	11.888	4.9091	5.e-002	5.1152
13966	12.164	4.9091	0.	9.807e-003
13967	12.072	4.8182	0.	9.9881e-003
13968	12.072	4.9091	5.e-002	5.0948
13969	12.347	4.9091	0.	8.7971e-003
13970	12.255	4.8182	0.	8.9335e-003
13971	12.255	4.9091	5.e-002	5.0723
13972	12.531	4.9091	0.	8.0256e-003
13973	12.439	4.8182	0.	8.1017e-003
13974	12.439	4.9091	5.e-002	5.0484
13975	12.714	4.9091	0.	7.4651e-003
13976	12.622	4.8182	0.	7.5113e-003
13977	12.622	4.9091	5.e-002	5.0234
13978	12.898	4.9091	0.	7.044e-003
13979	12.806	4.8182	0.	7.0871e-003
13980	12.806	4.9091	5.e-002	4.9979
13981	13.081	4.9091	0.	6.7443e-003
13982	12.989	4.8182	0.	6.7582e-003
13983	12.989	4.9091	5.e-002	4.972
13984	13.265	4.9091	0.	6.588e-003
13985	13.173	4.8182	0.	6.5537e-003
13986	13.173	4.9091	5.e-002	4.9459
13987	13.448	4.9091	0.	6.5994e-003
13988	13.356	4.8182	0.	6.4787e-003
13989	13.356	4.9091	5.e-002	4.9198
13990	13.632	4.9091	0.	6.8537e-003
13991	13.54	4.8182	0.	6.5621e-003
13992	13.54	4.9091	5.e-002	4.8937
13993	13.815	4.9091	0.	7.4657e-003
13994	13.724	4.8182	0.	6.8903e-003
13995	13.724	4.9091	5.e-002	4.8679
13996	13.999	4.9091	0.	8.6912e-003
13997	13.907	4.8182	0.	7.5273e-003
13998	13.907	4.9091	5.e-002	4.8424
13999	14.182	4.9091	0.	1.1382e-002
14000	14.091	4.8182	0.	8.7117e-003
14001	14.091	4.9091	5.e-002	4.8173
14002	14.366	4.9091	0.	1.9745e-002
14003	14.274	4.8182	0.	1.1164e-002
14004	14.274	4.9091	5.e-002	4.7925
14005	14.549	4.9091	0.	0.16155
14006	14.458	4.8182	0.	1.8062e-002
14007	14.458	4.9091	5.e-002	4.7681
14008	14.733	4.9091	0.	1.4002
14009	14.641	4.8182	0.	8.9267e-002
14010	14.641	4.9091	5.e-002	4.744
14011	14.916	4.9091	0.	2.7001
14012	14.825	4.8182	0.	1.2336
14013	14.825	4.9091	5.e-002	4.7202
14014	15.1	4.9091	0.	3.9442
14015	15.008	4.8182	0.	2.5715
14016	15.008	4.9091	5.e-002	4.6969
14017	15.283	4.9091	0.	5.1339
14018	15.192	4.8182	0.	3.8534
14019	15.192	4.9091	5.e-002	4.674
14020	15.467	4.9091	0.	6.2742
14021	15.375	4.8182	0.	5.08
14022	15.375	4.9091	5.e-002	4.6514
14023	15.65	4.9091	0.	7.3703
14024	15.559	4.8182	0.	6.2564
14025	15.559	4.9091	5.e-002	4.6292
14026	15.834	4.9091	0.	8.4276
14027	15.742	4.8182	0.	7.3882
14028	15.742	4.9091	5.e-002	4.6073
14029	16.017	4.9091	0.	9.4514
14030	15.926	4.8182	0.	8.4812
14031	15.926	4.9091	5.e-002	4.5858
14032	16.201	4.9091	0.	10.447
14033	16.109	4.8182	0.	9.5413
14034	16.109	4.9091	5.e-002	4.5645
14035	16.384	4.9091	0.	11.42
14036	16.293	4.8182	0.	10.574
14037	16.293	4.9091	5.e-002	4.5437
14038	16.568	4.9091	0.	12.374
14039	16.476	4.8182	0.	11.584
14040	16.476	4.9091	5.e-002	4.5231
14041	16.751	4.9091	0.	13.316
14042	16.66	4.8182	0.	12.578
14043	16.66	4.9091	5.e-002	4.503
14044	16.935	4.9091	0.	14.249
14045	16.843	4.8182	0.	13.561
14046	16.843	4.9091	5.e-002	4.483
14047	17.118	4.9091	0.	15.18
14048	17.027	4.8182	0.	14.538
14049	17.027	4.9091	5.e-002	4.4634
14050	17.302	4.9091	0.	16.112
14051	17.21	4.8182	0.	15.515
14052	17.21	4.9091	5.e-002	4.4441
14053	17.485	4.9091	0.	17.051
14054	17.394	4.8182	0.	16.496
14055	17.394	4.9091	5.e-002	4.4252
14056	17.669	4.9091	0.	18.001
14057	17.577	4.8182	0.	17.487
14058	17.577	4.9091	5.e-002	4.4066
14059	17.852	4.9091	0.	18.968
14060	17.761	4.8182	0.	18.493
14061	17.761	4.9091	5.e-002	4.3883
14062	18.036	4.9091	0.	19.956
14063	17.944	4.8182	0.	19.52
14064	17.944	4.9091	5.e-002	4.3704
14065	18.219	4.9091	0.	20.971
14066	18.128	4.8182	0.	20.573
14067	18.128	4.9091	5.e-002	4.3528
14068	18.403	4.9091	0.	22.018
14069	18.311	4.8182	0.	21.658
14070	18.311	4.9091	5.e-002	4.3356
14071	18.586	4.9091	0.	23.101
14072	18.495	4.8182	0.	22.78
14073	18.495	4.9091	5.e-002	4.3188
14074	18.77	4.9091	0.	24.228
14075	18.678	4.8182	0.	23.945
14076	18.678	4.9091	5.e-002	4.3024
14077	18.954	4.9091	0.	25.402
14078	18.862	4.8182	0.	25.16
14079	18.862	4.9091	5.e-002	4.2865
14080	19.137	4.9091	0.	26.631
14081	19.045	4.8182	0.	26.43
14082	19.045	4.9091	5.e-002	4.271
14083	19.321	4.9091	0.	27.921
14084	19.229	4.8182	0.	27.763
14085	19.229	4.9091	5.e-002	4.256
14086	19.504	4.9091	0.	29.278
14087	19.412	4.8182	0.	29.165
14088	19.412	4.9091	5.e-002	4.2415
14089	19.688	4.9091	0.	30.708
14090	19.596	4.8182	0.	30.645
14091	19.596	4.9091	5.e-002	4.2276
14092	19.871	4.9091	0.	32.221
14093	19.779	4.8182	0.	32.209
14094	19.779	4.9091	5.e-002	4.2143
14095	20.055	4.9091	0.	33.823
14096	19.963	4.8182	0.	33.867
14097	19.963	4.9091	5.e-002	4.2016
14098	20.238	4.9091	0.	35.524
14099	20.146	4.8182	0.	35.627
14100	20.146	4.9091	5.e-002	4.1897
14101	20.422	4.9091	0.	37.333
14102	20.33	4.8182	0.	37.501
14103	20.33	4.9091	5.e-002	4.1784
14104	20.605	4.9091	0.	39.26
14105	20.513	4.8182	0.	39.497
14106	20.513	4.9091	5.e-002	4.168
14107	20.789	4.9091	0.	41.318
14108	20.697	4.8182	0.	41.63
14109	20.697	4.9091	5.e-002	4.1585
14110	20.972	4.9091	0.	43.52
14111	20.88	4.8182	0.	43.912
14112	20.88	4.9091	5.e-002	4.1499
14113	21.156	4.9091	0.	45.881
14114	21.064	4.8182	0.	46.36
14115	21.064	4.9091	5.e-002	4.1425
14116	21.339	4.9091	0.	48.418
14117	21.247	4.8182	0.	48.99
14118	21.247	4.9091	5.e-002	4.1362
14119	21.523	4.9091	0.	51.154
14120	21.431	4.8182	0.	51.823
14121	21.431	4.9091	5.e-002	4.1312
14122	21.706	4.9091	0.	54.114
14123	21.614	4.8182	0.	54.883
14124	21.614	4.9091	5.e-002	4.1278
14125	21.89	4.9091	0.	57.326
14126	21.798	4.8182	0.	58.2
14127	21.798	4.9091	5.e-002	4.126
14128	22.073	4.9091	0.	60.829
14129	21.981	4.8182	0.	61.806
14130	21.981	4.9091	5.e-002	4.1263
14131	22.257	4.9091	0.	64.668
14132	22.165	4.8182	0.	65.743
14133	22.165	4.9091	5.e-002	4.129
14134	22.44	4.9091	0.	68.898
14135	22.348	4.8182	0.	70.061
14136	22.348	4.9091	5.e-002	4.1347
14137	22.624	4.9091	0.	73.589
14138	22.532	4.8182	0.	74.82
14139	22.532	4.9091	5.e-002	4.1441
14140	22.807	4.9091	0.	78.825
14141	22.715	4.8182	0.	80.089
14142	22.715	4.9091	5.e-002	4.1584
14143	22.991	4.9091	0.	84.702
14144	22.899	4.8182	0.	85.954
14145	22.899	4.9091	5.e-002	4.1791
14146	23.174	4.9091	0.	91.333
14147	23.082	4.8182	0.	92.504
14148	23.082	4.9091	5.e-002	4.2084
14149	23.358	4.9091	0.	98.822
14150	23.266	4.8182	0.	99.838
14151	23.266	4.9091	5.e-002	4.2492
14152	23.541	4.9091	0.	107.29
14153	23.449	4.8182	0.	108.03
14154	23.449	4.9091	5.e-002	4.305
14155	23.725	4.9091	0.	116.76
14156	23.633	4.8182	0.	117.19
14157	23.633	4.9091	5.e-002	4.3835
14158	23.816	4.8182	0.	127.23
14159	23.816	4.9091	5.e-002	4.5691
14160	23.908	4.9091	0.	126.05
14161	6.8419	4.7273	0.	1403.9
14162	6.7502	4.6364	0.	2005.7
14163	6.7502	4.7273	5.e-002	121.41
14164	6.6584	4.7273	0.	1411.1
14165	7.0254	4.7273	0.	889.85
14166	6.9337	4.6364	0.	1217.1
14167	6.9337	4.7273	5.e-002	72.98
14168	7.2089	4.7273	0.	564.79
14169	7.1172	4.6364	0.	747.65
14170	7.1172	4.7273	5.e-002	53.636
14171	7.3925	4.7273	0.	348.69
14172	7.3007	4.6364	0.	443.92
14173	7.3007	4.7273	5.e-002	38.648
14174	7.576	4.7273	0.	207.88
14175	7.4842	4.6364	0.	252.13
14176	7.4842	4.7273	5.e-002	28.967
14177	7.7595	4.7273	0.	117.19
14178	7.6677	4.6364	0.	132.64
14179	7.6677	4.7273	5.e-002	22.442
14180	7.943	4.7273	0.	58.803
14181	7.8512	4.6364	0.	58.834
14182	7.8512	4.7273	5.e-002	17.885
14183	8.1265	4.7273	0.	22.555
14184	8.0347	4.6364	0.	17.593
14185	8.0347	4.7273	5.e-002	14.547
14186	8.31	4.7273	0.	6.461
14187	8.2182	4.6364	0.	4.8982
14188	8.2182	4.7273	5.e-002	12.037
14189	8.4935	4.7273	0.	2.5133
14190	8.4018	4.6364	0.	2.1721
14191	8.4018	4.7273	5.e-002	10.135
14192	8.677	4.7273	0.	1.3023
14193	8.5853	4.6364	0.	1.214
14194	8.5853	4.7273	5.e-002	8.7035
14195	8.8605	4.7273	0.	0.77418
14196	8.7688	4.6364	0.	0.75588
14197	8.7688	4.7273	5.e-002	7.6462
14198	9.044	4.7273	0.	0.49657
14199	8.9523	4.6364	0.	0.50014
14200	8.9523	4.7273	5.e-002	6.8856
14201	9.2275	4.7273	0.	0.3345
14202	9.1358	4.6364	0.	0.34428
14203	9.1358	4.7273	5.e-002	6.3551
14204	9.4111	4.7273	0.	0.23344
14205	9.3193	4.6364	0.	0.24388
14206	9.3193	4.7273	5.e-002	5.9964
14207	9.5946	4.7273	0.	0.16748
14208	9.5028	4.6364	0.	0.17669
14209	9.5028	4.7273	5.e-002	5.7603
14210	9.7781	4.7273	0.	0.12294
14211	9.6863	4.6364	0.	0.13046
14212	9.6863	4.7273	5.e-002	5.6077
14213	9.9616	4.7273	0.	9.2043e-002
14214	9.8698	4.6364	0.	9.7925e-002
14215	9.8698	4.7273	5.e-002	5.5094
14216	10.145	4.7273	0.	7.0141e-002
14217	10.053	4.6364	0.	7.4604e-002
14218	10.053	4.7273	5.e-002	5.4451
14219	10.329	4.7273	0.	5.4334e-002
14220	10.237	4.6364	0.	5.766e-002
14221	10.237	4.7273	5.e-002	5.4007
14222	10.512	4.7273	0.	4.2736e-002
14223	10.42	4.6364	0.	4.5176e-002
14224	10.42	4.7273	5.e-002	5.3676
14225	10.696	4.7273	0.	3.4096e-002
14226	10.604	4.6364	0.	3.5868e-002
14227	10.604	4.7273	5.e-002	5.3401
14228	10.879	4.7273	0.	2.7552e-002
14229	10.787	4.6364	0.	2.8842e-002
14230	10.787	4.7273	5.e-002	5.315
14231	11.063	4.7273	0.	2.2539e-002
14232	10.971	4.6364	0.	2.3449e-002
14233	10.971	4.7273	5.e-002	5.2904
14234	11.246	4.7273	0.	1.8713e-002
14235	11.154	4.6364	0.	1.9315e-002
14236	11.154	4.7273	5.e-002	5.2653
14237	11.43	4.7273	0.	1.5779e-002
14238	11.338	4.6364	0.	1.6183e-002
14239	11.338	4.7273	5.e-002	5.2394
14240	11.613	4.7273	0.	1.3494e-002
14241	11.521	4.6364	0.	1.376e-002
14242	11.521	4.7273	5.e-002	5.2126
14243	11.797	4.7273	0.	1.1697e-002
14244	11.705	4.6364	0.	1.1874e-002
14245	11.705	4.7273	5.e-002	5.1851
14246	11.98	4.7273	0.	1.0272e-002
14247	11.888	4.6364	0.	1.039e-002
14248	11.888	4.7273	5.e-002	5.1569
14249	12.164	4.7273	0.	9.1418e-003
14250	12.072	4.6364	0.	9.2169e-003
14251	12.072	4.7273	5.e-002	5.1283
14252	12.347	4.7273	0.	8.2539e-003
14253	12.255	4.6364	0.	8.2989e-003
14254	12.255	4.7273	5.e-002	5.0994
14255	12.531	4.7273	0.	7.5927e-003
14256	12.439	4.6364	0.	7.5892e-003
14257	12.439	4.7273	5.e-002	5.0703
14258	12.714	4.7273	0.	7.129e-003
14259	12.622	4.6364	0.	7.105e-003
14260	12.622	4.7273	5.e-002	5.0413
14261	12.898	4.7273	0.	6.788e-003
14262	12.806	4.6364	0.	6.7717e-003
14263	12.806	4.7273	5.e-002	5.0126
14264	13.081	4.7273	0.	6.546e-003
14265	12.989	4.6364	0.	6.5154e-003
14266	12.989	4.7273	5.e-002	4.9842
14267	13.265	4.7273	0.	6.4158e-003
14268	13.173	4.6364	0.	6.3599e-003
14269	13.173	4.7273	5.e-002	4.9561
14270	13.448	4.7273	0.	6.4079e-003
14271	13.356	4.6364	0.	6.3037e-003
14272	13.356	4.7273	5.e-002	4.9284
14273	13.632	4.7273	0.	6.5648e-003
14274	13.54	4.6364	0.	6.3613e-003
14275	13.54	4.7273	5.e-002	4.9011
14276	13.815	4.7273	0.	6.9295e-003
14277	13.724	4.6364	0.	6.592e-003
14278	13.724	4.7273	5.e-002	4.8742
14279	13.999	4.7273	0.	7.5731e-003
14280	13.907	4.6364	0.	6.9977e-003
14281	13.907	4.7273	5.e-002	4.8479
14282	14.182	4.7273	0.	8.7133e-003
14283	14.091	4.6364	0.	7.6608e-003
14284	14.091	4.7273	5.e-002	4.8221
14285	14.366	4.7273	0.	1.0967e-002
14286	14.274	4.6364	0.	8.7941e-003
14287	14.274	4.7273	5.e-002	4.7968
14288	14.549	4.7273	0.	1.6986e-002
14289	14.458	4.6364	0.	1.0967e-002
14290	14.458	4.7273	5.e-002	4.7719
14291	14.733	4.7273	0.	6.4735e-002
14292	14.641	4.6364	0.	1.6715e-002
14293	14.641	4.7273	5.e-002	4.7473
14294	14.916	4.7273	0.	1.131
14295	14.825	4.6364	0.	6.0855e-002
14296	14.825	4.7273	5.e-002	4.7233
14297	15.1	4.7273	0.	2.5061
14298	15.008	4.6364	0.	1.1338
14299	15.008	4.7273	5.e-002	4.6997
14300	15.283	4.7273	0.	3.8255
14301	15.192	4.6364	0.	2.5387
14302	15.192	4.7273	5.e-002	4.6766
14303	15.467	4.7273	0.	5.0888
14304	15.375	4.6364	0.	3.8872
14305	15.375	4.7273	5.e-002	4.6538
14306	15.65	4.7273	0.	6.3015
14307	15.559	4.6364	0.	5.1794
14308	15.559	4.7273	5.e-002	4.6314
14309	15.834	4.7273	0.	7.4697
14310	15.742	4.6364	0.	6.4212
14311	15.742	4.7273	5.e-002	4.6094
14312	16.017	4.7273	0.	8.5996
14313	15.926	4.6364	0.	7.6191
14314	15.926	4.7273	5.e-002	4.5877
14315	16.201	4.7273	0.	9.6971
14316	16.109	4.6364	0.	8.7796
14317	16.109	4.7273	5.e-002	4.5664
14318	16.384	4.7273	0.	10.768
14319	16.293	4.6364	0.	9.9091
14320	16.293	4.7273	5.e-002	4.5455
14321	16.568	4.7273	0.	11.819
14322	16.476	4.6364	0.	11.014
14323	16.476	4.7273	5.e-002	4.5249
14324	16.751	4.7273	0.	12.855
14325	16.66	4.6364	0.	12.1
14326	16.66	4.7273	5.e-002	4.5046
14327	16.935	4.7273	0.	13.882
14328	16.843	4.6364	0.	13.174
14329	16.843	4.7273	5.e-002	4.4847
14330	17.118	4.7273	0.	14.906
14331	17.027	4.6364	0.	14.241
14332	17.027	4.7273	5.e-002	4.465
14333	17.302	4.7273	0.	15.932
14334	17.21	4.6364	0.	15.308
14335	17.21	4.7273	5.e-002	4.4457
14336	17.485	4.7273	0.	16.966
14337	17.394	4.6364	0.	16.381
14338	17.394	4.7273	5.e-002	4.4267
14339	17.669	4.7273	0.	18.013
14340	17.577	4.6364	0.	17.465
14341	17.577	4.7273	5.e-002	4.4081
14342	17.852	4.7273	0.	19.081
14343	17.761	4.6364	0.	18.567
14344	17.761	4.7273	5.e-002	4.3899
14345	18.036	4.7273	0.	20.173
14346	17.944	4.6364	0.	19.693
14347	17.944	4.7273	5.e-002	4.372
14348	18.219	4.7273	0.	21.296
14349	18.128	4.6364	0.	20.849
14350	18.128	4.7273	5.e-002	4.3544
14351	18.403	4.7273	0.	22.457
14352	18.311	4.6364	0.	22.042
14353	18.311	4.7273	5.e-002	4.3372
14354	18.586	4.7273	0.	23.661
14355	18.495	4.6364	0.	23.278
14356	18.495	4.7273	5.e-002	4.3205
14357	18.77	4.7273	0.	24.916
14358	18.678	4.6364	0.	24.564
14359	18.678	4.7273	5.e-002	4.3042
14360	18.954	4.7273	0.	26.227
14361	18.862	4.6364	0.	25.907
14362	18.862	4.7273	5.e-002	4.2883
14363	19.137	4.7273	0.	27.602
14364	19.045	4.6364	0.	27.315
14365	19.045	4.7273	5.e-002	4.273
14366	19.321	4.7273	0.	29.049
14367	19.229	4.6364	0.	28.796
14368	19.229	4.7273	5.e-002	4.2581
14369	19.504	4.7273	0.	30.575
14370	19.412	4.6364	0.	30.357
14371	19.412	4.7273	5.e-002	4.2437
14372	19.688	4.7273	0.	32.189
14373	19.596	4.6364	0.	32.008
14374	19.596	4.7273	5.e-002	4.2299
14375	19.871	4.7273	0.	33.899
14376	19.779	4.6364	0.	33.757
14377	19.779	4.7273	5.e-002	4.2168
14378	20.055	4.7273	0.	35.716
14379	19.963	4.6364	0.	35.616
14380	19.963	4.7273	5.e-002	4.2044
14381	20.238	4.7273	0.	37.65
14382	20.146	4.6364	0.	37.594
14383	20.146	4.7273	5.e-002	4.1927
14384	20.422	4.7273	0.	39.712
14385	20.33	4.6364	0.	39.704
14386	20.33	4.7273	5.e-002	4.1818
14387	20.605	4.7273	0.	41.916
14388	20.513	4.6364	0.	41.957
14389	20.513	4.7273	5.e-002	4.1717
14390	20.789	4.7273	0.	44.274
14391	20.697	4.6364	0.	44.369
14392	20.697	4.7273	5.e-002	4.1626
14393	20.972	4.7273	0.	46.803
14394	20.88	4.6364	0.	46.955
14395	20.88	4.7273	5.e-002	4.1546
14396	21.156	4.7273	0.	49.521
14397	21.064	4.6364	0.	49.733
14398	21.064	4.7273	5.e-002	4.1477
14399	21.339	4.7273	0.	52.447
14400	21.247	4.6364	0.	52.722
14401	21.247	4.7273	5.e-002	4.1422
14402	21.523	4.7273	0.	55.606
14403	21.431	4.6364	0.	55.945
14404	21.431	4.7273	5.e-002	4.1381
14405	21.706	4.7273	0.	59.025
14406	21.614	4.6364	0.	59.428
14407	21.614	4.7273	5.e-002	4.1356
14408	21.89	4.7273	0.	62.735
14409	21.798	4.6364	0.	63.201
14410	21.798	4.7273	5.e-002	4.1351
14411	22.073	4.7273	0.	66.777
14412	21.981	4.6364	0.	67.298
14413	21.981	4.7273	5.e-002	4.1369
14414	22.257	4.7273	0.	71.193
14415	22.165	4.6364	0.	71.761
14416	22.165	4.7273	5.e-002	4.1413
14417	22.44	4.7273	0.	76.037
14418	22.348	4.6364	0.	76.635
14419	22.348	4.7273	5.e-002	4.149
14420	22.624	4.7273	0.	81.372
14421	22.532	4.6364	0.	81.976
14422	22.532	4.7273	5.e-002	4.1607
14423	22.807	4.7273	0.	87.267
14424	22.715	4.6364	0.	87.843
14425	22.715	4.7273	5.e-002	4.1775
14426	22.991	4.7273	0.	93.799
14427	22.899	4.6364	0.	94.302
14428	22.899	4.7273	5.e-002	4.2007
14429	23.174	4.7273	0.	101.05
14430	23.082	4.6364	0.	101.42
14431	23.082	4.7273	5.e-002	4.232
14432	23.358	4.7273	0.	109.07
14433	23.266	4.6364	0.	109.26
14434	23.266	4.7273	5.e-002	4.2735
14435	23.541	4.7273	0.	117.95
14436	23.449	4.6364	0.	117.87
14437	23.449	4.7273	5.e-002	4.3273
14438	23.725	4.7273	0.	127.67
14439	23.633	4.6364	0.	127.32
14440	23.633	4.7273	5.e-002	4.3988
14441	23.816	4.6364	0.	137.47
14442	23.816	4.7273	5.e-002	4.5582
14443	23.908	4.7273	0.	137.17
14444	6.8419	4.5455	0.	1756.1
14445	6.7502	4.4545	0.	2609.4
14446	6.7502	4.5455	5.e-002	153.61
14447	6.6584	4.5455	0.	1864.5
14448	7.0254	4.5455	0.	1037.7
14449	6.9337	4.4545	0.	1391.3
14450	6.9337	4.5455	5.e-002	90.799
14451	7.2089	4.5455	0.	605.16
14452	7.1172	4.4545	0.	768.72
14453	7.1172	4.5455	5.e-002	54.424
14454	7.3925	4.5455	0.	334.51
14455	7.3007	4.4545	0.	410.03
14456	7.3007	4.5455	5.e-002	38.396
14457	7.576	4.5455	0.	169.29
14458	7.4842	4.4545	0.	197.87
14459	7.4842	4.5455	5.e-002	28.848
14460	7.7595	4.5455	0.	70.008
14461	7.6677	4.4545	0.	74.599
14462	7.6677	4.5455	5.e-002	23.012
14463	7.943	4.5455	0.	17.682
14464	7.8512	4.4545	0.	15.129
14465	7.8512	4.5455	5.e-002	18.885
14466	8.1265	4.5455	0.	4.7059
14467	8.0347	4.4545	0.	4.1806
14468	8.0347	4.5455	5.e-002	15.812
14469	8.31	4.5455	0.	2.1589
14470	8.2182	4.4545	0.	2.0204
14471	8.2182	4.5455	5.e-002	13.436
14472	8.4935	4.5455	0.	1.2403
14473	8.4018	4.4545	0.	1.1987
14474	8.4018	4.5455	5.e-002	11.576
14475	8.677	4.5455	0.	0.78889
14476	8.5853	4.4545	0.	0.77988
14477	8.5853	4.5455	5.e-002	10.117
14478	8.8605	4.5455	0.	0.53078
14479	8.7688	4.4545	0.	0.53409
14480	8.7688	4.5455	5.e-002	8.9779
14481	9.044	4.5455	0.	0.37004
14482	8.9523	4.4545	0.	0.37751
14483	8.9523	4.5455	5.e-002	8.0967
14484	9.2275	4.5455	0.	0.26454
14485	9.1358	4.4545	0.	0.27274
14486	9.1358	4.5455	5.e-002	7.4223
14487	9.4111	4.5455	0.	0.19281
14488	9.3193	4.4545	0.	0.20032
14489	9.3193	4.5455	5.e-002	6.9115
14490	9.5946	4.5455	0.	0.1428
14491	9.5028	4.4545	0.	0.14911
14492	9.5028	4.5455	5.e-002	6.5275
14493	9.7781	4.5455	0.	0.10725
14494	9.6863	4.4545	0.	0.1123
14495	9.6863	4.5455	5.e-002	6.2396
14496	9.9616	4.5455	0.	8.1582e-002
14497	9.8698	4.4545	0.	8.5487e-002
14498	9.8698	4.5455	5.e-002	6.0231
14499	10.145	4.5455	0.	6.282e-002
14500	10.053	4.4545	0.	6.574e-002
14501	10.053	4.5455	5.e-002	5.8586
14502	10.329	4.5455	0.	4.8966e-002
14503	10.237	4.4545	0.	5.1098e-002
14504	10.237	4.5455	5.e-002	5.7315
14505	10.512	4.5455	0.	3.8631e-002
14506	10.42	4.4545	0.	4.015e-002
14507	10.42	4.5455	5.e-002	5.631
14508	10.696	4.5455	0.	3.0846e-002
14509	10.604	4.4545	0.	3.1906e-002
14510	10.604	4.5455	5.e-002	5.5493
14511	10.879	4.5455	0.	2.4911e-002
14512	10.787	4.4545	0.	2.5646e-002
14513	10.787	4.5455	5.e-002	5.4809
14514	11.063	4.5455	0.	2.0354e-002
14515	10.971	4.4545	0.	2.0826e-002
14516	10.971	4.5455	5.e-002	5.422
14517	11.246	4.5455	0.	1.6885e-002
14518	11.154	4.4545	0.	1.7139e-002
14519	11.154	4.5455	5.e-002	5.3696
14520	11.43	4.5455	0.	1.4241e-002
14521	11.338	4.4545	0.	1.4365e-002
14522	11.338	4.5455	5.e-002	5.3222
14523	11.613	4.5455	0.	1.2199e-002
14524	11.521	4.4545	0.	1.2238e-002
14525	11.521	4.5455	5.e-002	5.2785
14526	11.797	4.5455	0.	1.061e-002
14527	11.705	4.4545	0.	1.06e-002
14528	11.705	4.5455	5.e-002	5.2376
14529	11.98	4.5455	0.	9.3662e-003
14530	11.888	4.4545	0.	9.3276e-003
14531	11.888	4.5455	5.e-002	5.1989
14532	12.164	4.5455	0.	8.3953e-003
14533	12.072	4.4545	0.	8.3378e-003
14534	12.072	4.5455	5.e-002	5.162
14535	12.347	4.5455	0.	7.6466e-003
14536	12.255	4.4545	0.	7.5776e-003
14537	12.255	4.5455	5.e-002	5.1265
14538	12.531	4.5455	0.	7.106e-003
14539	12.439	4.4545	0.	7.0042e-003
14540	12.439	4.5455	5.e-002	5.0923
14541	12.714	4.5455	0.	6.7451e-003
14542	12.622	4.4545	0.	6.6372e-003
14543	12.622	4.5455	5.e-002	5.0592
14544	12.898	4.5455	0.	6.4901e-003
14545	12.806	4.4545	0.	6.4021e-003
14546	12.806	4.5455	5.e-002	5.0273
14547	13.081	4.5455	0.	6.3144e-003
14548	12.989	4.4545	0.	6.2259e-003
14549	12.989	4.5455	5.e-002	4.9963
14550	13.265	4.5455	0.	6.2278e-003
14551	13.173	4.4545	0.	6.1306e-003
14552	13.173	4.5455	5.e-002	4.9662
14553	13.448	4.5455	0.	6.2326e-003
14554	13.356	4.4545	0.	6.1123e-003
14555	13.356	4.5455	5.e-002	4.9368
14556	13.632	4.5455	0.	6.3606e-003
14557	13.54	4.4545	0.	6.1781e-003
14558	13.54	4.5455	5.e-002	4.9082
14559	13.815	4.5455	0.	6.631e-003
14560	13.724	4.4545	0.	6.3769e-003
14561	13.724	4.5455	5.e-002	4.8803
14562	13.999	4.5455	0.	7.0591e-003
14563	13.907	4.4545	0.	6.6875e-003
14564	13.907	4.5455	5.e-002	4.8531
14565	14.182	4.5455	0.	7.7292e-003
14566	14.091	4.4545	0.	7.1419e-003
14567	14.091	4.5455	5.e-002	4.8266
14568	14.366	4.5455	0.	8.8305e-003
14569	14.274	4.4545	0.	7.8291e-003
14570	14.274	4.5455	5.e-002	4.8008
14571	14.549	4.5455	0.	1.095e-002
14572	14.458	4.4545	0.	8.927e-003
14573	14.458	4.5455	5.e-002	4.7754
14574	14.733	4.5455	0.	1.6569e-002
14575	14.641	4.4545	0.	1.1081e-002
14576	14.641	4.5455	5.e-002	4.7505
14577	14.916	4.5455	0.	6.2447e-002
14578	14.825	4.4545	0.	1.7005e-002
14579	14.825	4.5455	5.e-002	4.7261
14580	15.1	4.5455	0.	1.19
14581	15.008	4.4545	0.	8.1442e-002
14582	15.008	4.5455	5.e-002	4.7023
14583	15.283	4.5455	0.	2.6258
14584	15.192	4.4545	0.	1.3432
14585	15.192	4.5455	5.e-002	4.6789
14586	15.467	4.5455	0.	4.004
14587	15.375	4.4545	0.	2.8016
14588	15.375	4.5455	5.e-002	4.656
14589	15.65	4.5455	0.	5.326
14590	15.559	4.4545	0.	4.2013
14591	15.559	4.5455	5.e-002	4.6335
14592	15.834	4.5455	0.	6.5982
14593	15.742	4.4545	0.	5.5454
14594	15.742	4.5455	5.e-002	4.6113
14595	16.017	4.5455	0.	7.8274
14596	15.926	4.4545	0.	6.8408
14597	15.926	4.5455	5.e-002	4.5895
14598	16.201	4.5455	0.	9.0204
14599	16.109	4.4545	0.	8.0947
14600	16.109	4.5455	5.e-002	4.5681
14601	16.384	4.5455	0.	10.184
14602	16.293	4.4545	0.	9.3143
14603	16.293	4.5455	5.e-002	4.5471
14604	16.568	4.5455	0.	11.325
14605	16.476	4.4545	0.	10.507
14606	16.476	4.5455	5.e-002	4.5264
14607	16.751	4.5455	0.	12.449
14608	16.66	4.4545	0.	11.679
14609	16.66	4.5455	5.e-002	4.5061
14610	16.935	4.5455	0.	13.564
14611	16.843	4.4545	0.	12.837
14612	16.843	4.5455	5.e-002	4.4861
14613	17.118	4.5455	0.	14.676
14614	17.027	4.4545	0.	13.988
14615	17.027	4.5455	5.e-002	4.4664
14616	17.302	4.5455	0.	15.79
14617	17.21	4.4545	0.	15.14
14618	17.21	4.5455	5.e-002	4.4471
14619	17.485	4.5455	0.	16.914
14620	17.394	4.4545	0.	16.298
14621	17.394	4.5455	5.e-002	4.4281
14622	17.669	4.5455	0.	18.053
14623	17.577	4.4545	0.	17.469
14624	17.577	4.5455	5.e-002	4.4095
14625	17.852	4.5455	0.	19.214
14626	17.761	4.4545	0.	18.661
14627	17.761	4.5455	5.e-002	4.3913
14628	18.036	4.5455	0.	20.405
14629	17.944	4.4545	0.	19.879
14630	17.944	4.5455	5.e-002	4.3734
14631	18.219	4.5455	0.	21.631
14632	18.128	4.4545	0.	21.132
14633	18.128	4.5455	5.e-002	4.3559
14634	18.403	4.5455	0.	22.9
14635	18.311	4.4545	0.	22.426
14636	18.311	4.5455	5.e-002	4.3387
14637	18.586	4.5455	0.	24.218
14638	18.495	4.4545	0.	23.769
14639	18.495	4.5455	5.e-002	4.322
14640	18.77	4.5455	0.	25.594
14641	18.678	4.4545	0.	25.169
14642	18.678	4.5455	5.e-002	4.3058
14643	18.954	4.5455	0.	27.035
14644	18.862	4.4545	0.	26.633
14645	18.862	4.5455	5.e-002	4.29
14646	19.137	4.5455	0.	28.548
14647	19.045	4.4545	0.	28.17
14648	19.045	4.5455	5.e-002	4.2747
14649	19.321	4.5455	0.	30.144
14650	19.229	4.4545	0.	29.789
14651	19.229	4.5455	5.e-002	4.2599
14652	19.504	4.5455	0.	31.831
14653	19.412	4.4545	0.	31.499
14654	19.412	4.5455	5.e-002	4.2457
14655	19.688	4.5455	0.	33.618
14656	19.596	4.4545	0.	33.311
14657	19.596	4.5455	5.e-002	4.2321
14658	19.871	4.5455	0.	35.516
14659	19.779	4.4545	0.	35.234
14660	19.779	4.5455	5.e-002	4.2191
14661	20.055	4.5455	0.	37.537
14662	19.963	4.4545	0.	37.281
14663	19.963	4.5455	5.e-002	4.2069
14664	20.238	4.5455	0.	39.691
14665	20.146	4.4545	0.	39.463
14666	20.146	4.5455	5.e-002	4.1955
14667	20.422	4.5455	0.	41.993
14668	20.33	4.4545	0.	41.793
14669	20.33	4.5455	5.e-002	4.1849
14670	20.605	4.5455	0.	44.456
14671	20.513	4.4545	0.	44.287
14672	20.513	4.5455	5.e-002	4.1752
14673	20.789	4.5455	0.	47.097
14674	20.697	4.4545	0.	46.959
14675	20.697	4.5455	5.e-002	4.1665
14676	20.972	4.5455	0.	49.932
14677	20.88	4.4545	0.	49.827
14678	20.88	4.5455	5.e-002	4.1589
14679	21.156	4.5455	0.	52.982
14680	21.064	4.4545	0.	52.91
14681	21.064	4.5455	5.e-002	4.1527
14682	21.339	4.5455	0.	56.268
14683	21.247	4.4545	0.	56.229
14684	21.247	4.5455	5.e-002	4.1478
14685	21.523	4.5455	0.	59.815
14686	21.431	4.4545	0.	59.807
14687	21.431	4.5455	5.e-002	4.1445
14688	21.706	4.5455	0.	63.652
14689	21.614	4.4545	0.	63.673
14690	21.614	4.5455	5.e-002	4.1431
14691	21.89	4.5455	0.	67.811
14692	21.798	4.4545	0.	67.854
14693	21.798	4.5455	5.e-002	4.1437
14694	22.073	4.5455	0.	72.33
14695	21.981	4.4545	0.	72.386
14696	21.981	4.5455	5.e-002	4.1468
14697	22.257	4.5455	0.	77.249
14698	22.165	4.4545	0.	77.306
14699	22.165	4.5455	5.e-002	4.1527
14700	22.44	4.5455	0.	82.618
14701	22.348	4.4545	0.	82.657
14702	22.348	4.5455	5.e-002	4.1622
14703	22.624	4.5455	0.	88.488
14704	22.532	4.4545	0.	88.484
14705	22.532	4.5455	5.e-002	4.1758
14706	22.807	4.5455	0.	94.916
14707	22.715	4.4545	0.	94.838
14708	22.715	4.5455	5.e-002	4.1945
14709	22.991	4.5455	0.	101.96
14710	22.899	4.4545	0.	101.77
14711	22.899	4.5455	5.e-002	4.2194
14712	23.174	4.5455	0.	109.67
14713	23.082	4.4545	0.	109.32
14714	23.082	4.5455	5.e-002	4.2518
14715	23.358	4.5455	0.	118.08
14716	23.266	4.4545	0.	117.54
14717	23.266	4.5455	5.e-002	4.2932
14718	23.541	4.5455	0.	127.25
14719	23.449	4.4545	0.	126.45
14720	23.449	4.5455	5.e-002	4.3446
14721	23.725	4.5455	0.	137.14
14722	23.633	4.4545	0.	136.1
14723	23.633	4.5455	5.e-002	4.41
14724	23.816	4.4545	0.	146.33
14725	23.816	4.5455	5.e-002	4.5468
14726	23.908	4.5455	0.	146.79
14727	6.8419	4.3636	0.	2152.6
14728	6.7502	4.2727	0.	3109.1
14729	6.7502	4.3636	5.e-002	233.05
14730	6.6584	4.3636	0.	2384.2
14731	7.0254	4.3636	0.	1089.5
14732	6.9337	4.2727	0.	1394.5
14733	6.9337	4.3636	5.e-002	91.998
14734	7.2089	4.3636	0.	555.5
14735	7.1172	4.2727	0.	656.62
14736	7.1172	4.3636	5.e-002	56.569
14737	7.3925	4.3636	0.	262.67
14738	7.3007	4.2727	0.	303.06
14739	7.3007	4.3636	5.e-002	40.52
14740	7.576	4.3636	0.	96.469
14741	7.4842	4.2727	0.	105.3
14742	7.4842	4.3636	5.e-002	31.184
14743	7.7595	4.3636	0.	17.487
14744	7.6677	4.2727	0.	16.094
14745	7.6677	4.3636	5.e-002	25.416
14746	7.943	4.3636	0.	4.3654
14747	7.8512	4.2727	0.	4.0784
14748	7.8512	4.3636	5.e-002	21.146
14749	8.1265	4.3636	0.	2.0911
14750	8.0347	4.2727	0.	2.0122
14751	8.0347	4.3636	5.e-002	17.884
14752	8.31	4.3636	0.	1.2425
14753	8.2182	4.2727	0.	1.2139
14754	8.2182	4.3636	5.e-002	15.322
14755	8.4935	4.3636	0.	0.81456
14756	8.4018	4.2727	0.	0.80769
14757	8.4018	4.3636	5.e-002	13.279
14758	8.677	4.3636	0.	0.56221
14759	8.5853	4.2727	0.	0.56382
14760	8.5853	4.3636	5.e-002	11.64
14761	8.8605	4.3636	0.	0.40043
14762	8.7688	4.2727	0.	0.40554
14763	8.7688	4.3636	5.e-002	10.323
14764	9.044	4.3636	0.	0.29112
14765	8.9523	4.2727	0.	0.29712
14766	8.9523	4.3636	5.e-002	9.2679
14767	9.2275	4.3636	0.	0.21482
14768	9.1358	4.2727	0.	0.22054
14769	9.1358	4.3636	5.e-002	8.4275
14770	9.4111	4.3636	0.	0.16037
14771	9.3193	4.2727	0.	0.16531
14772	9.3193	4.3636	5.e-002	7.7617
14773	9.5946	4.3636	0.	0.12092
14774	9.5028	4.2727	0.	0.12492
14775	9.5028	4.3636	5.e-002	7.237
14776	9.7781	4.3636	0.	9.1995e-002
14777	9.6863	4.2727	0.	9.5105e-002
14778	9.6863	4.3636	5.e-002	6.8247
14779	9.9616	4.3636	0.	7.0593e-002
14780	9.8698	4.2727	0.	7.2919e-002
14781	9.8698	4.3636	5.e-002	6.5008
14782	10.145	4.3636	0.	5.4653e-002
14783	10.053	4.2727	0.	5.6312e-002
14784	10.053	4.3636	5.e-002	6.2454
14785	10.329	4.3636	0.	4.2721e-002
14786	10.237	4.2727	0.	4.3855e-002
14787	10.237	4.3636	5.e-002	6.0428
14788	10.512	4.3636	0.	3.3735e-002
14789	10.42	4.2727	0.	3.4467e-002
14790	10.42	4.3636	5.e-002	5.8804
14791	10.696	4.3636	0.	2.693e-002
14792	10.604	4.2727	0.	2.7368e-002
14793	10.604	4.3636	5.e-002	5.7485
14794	10.879	4.3636	0.	2.1727e-002
14795	10.787	4.2727	0.	2.1971e-002
14796	10.787	4.3636	5.e-002	5.6397
14797	11.063	4.3636	0.	1.7735e-002
14798	10.971	4.2727	0.	1.7818e-002
14799	10.971	4.3636	5.e-002	5.5484
14800	11.246	4.3636	0.	1.4714e-002
14801	11.154	4.2727	0.	1.4657e-002
14802	11.154	4.3636	5.e-002	5.4702
14803	11.43	4.3636	0.	1.2435e-002
14804	11.338	4.2727	0.	1.2308e-002
14805	11.338	4.3636	5.e-002	5.4023
14806	11.613	4.3636	0.	1.0694e-002
14807	11.521	4.2727	0.	1.0529e-002
14808	11.521	4.3636	5.e-002	5.3423
14809	11.797	4.3636	0.	9.3579e-003
14810	11.705	4.2727	0.	9.1805e-003
14811	11.705	4.3636	5.e-002	5.2885
14812	11.98	4.3636	0.	8.3285e-003
14813	11.888	4.2727	0.	8.1517e-003
14814	11.888	4.3636	5.e-002	5.2397
14815	12.164	4.3636	0.	7.5402e-003
14816	12.072	4.2727	0.	7.3668e-003
14817	12.072	4.3636	5.e-002	5.1947
14818	12.347	4.3636	0.	6.9475e-003
14819	12.255	4.2727	0.	6.7813e-003
14820	12.255	4.3636	5.e-002	5.1528
14821	12.531	4.3636	0.	6.541e-003
14822	12.439	4.2727	0.	6.3563e-003
14823	12.439	4.3636	5.e-002	5.1136
14824	12.714	4.3636	0.	6.2938e-003
14825	12.622	4.2727	0.	6.1158e-003
14826	12.622	4.3636	5.e-002	5.0765
14827	12.898	4.3636	0.	6.1325e-003
14828	12.806	4.2727	0.	5.9854e-003
14829	12.806	4.3636	5.e-002	5.0414
14830	13.081	4.3636	0.	6.0321e-003
14831	12.989	4.2727	0.	5.8958e-003
14832	12.989	4.3636	5.e-002	5.0079
14833	13.265	4.3636	0.	6.0011e-003
14834	13.173	4.2727	0.	5.8687e-003
14835	13.173	4.3636	5.e-002	4.9758
14836	13.448	4.3636	0.	6.0401e-003
14837	13.356	4.2727	0.	5.8988e-003
14838	13.356	4.3636	5.e-002	4.9449
14839	13.632	4.3636	0.	6.1735e-003
14840	13.54	4.2727	0.	5.9923e-003
14841	13.54	4.3636	5.e-002	4.9149
14842	13.815	4.3636	0.	6.4098e-003
14843	13.724	4.2727	0.	6.1909e-003
14844	13.724	4.3636	5.e-002	4.8861
14845	13.999	4.3636	0.	6.7443e-003
14846	13.907	4.2727	0.	6.4639e-003
14847	13.907	4.3636	5.e-002	4.858
14848	14.182	4.3636	0.	7.2133e-003
14849	14.091	4.2727	0.	6.8222e-003
14850	14.091	4.3636	5.e-002	4.8309
14851	14.366	4.3636	0.	7.8921e-003
14852	14.274	4.2727	0.	7.3097e-003
14853	14.274	4.3636	5.e-002	4.8045
14854	14.549	4.3636	0.	8.9987e-003
14855	14.458	4.2727	0.	7.9894e-003
14856	14.458	4.3636	5.e-002	4.7787
14857	14.733	4.3636	0.	1.1205e-002
14858	14.641	4.2727	0.	9.1306e-003
14859	14.641	4.3636	5.e-002	4.7534
14860	14.916	4.3636	0.	1.7561e-002
14861	14.825	4.2727	0.	1.1484e-002
14862	14.825	4.3636	5.e-002	4.7288
14863	15.1	4.3636	0.	0.13232
14864	15.008	4.2727	0.	1.8996e-002
14865	15.008	4.3636	5.e-002	4.7047
14866	15.283	4.3636	0.	1.5424
14867	15.192	4.2727	0.	0.30904
14868	15.192	4.3636	5.e-002	4.6811
14869	15.467	4.3636	0.	3.0246
14870	15.375	4.2727	0.	1.8293
14871	15.375	4.3636	5.e-002	4.658
14872	15.65	4.3636	0.	4.4473
14873	15.559	4.2727	0.	3.3263
14874	15.559	4.3636	5.e-002	4.6353
14875	15.834	4.3636	0.	5.8154
14876	15.742	4.2727	0.	4.7638
14877	15.742	4.3636	5.e-002	4.613
14878	16.017	4.3636	0.	7.1362
14879	15.926	4.2727	0.	6.1482
14880	15.926	4.3636	5.e-002	4.5912
14881	16.201	4.3636	0.	8.4173
14882	16.109	4.2727	0.	7.4876
14883	16.109	4.3636	5.e-002	4.5696
14884	16.384	4.3636	0.	9.6662
14885	16.293	4.2727	0.	8.7895
14886	16.293	4.3636	5.e-002	4.5485
14887	16.568	4.3636	0.	10.89
14888	16.476	4.2727	0.	10.062
14889	16.476	4.3636	5.e-002	4.5278
14890	16.751	4.3636	0.	12.096
14891	16.66	4.2727	0.	11.312
14892	16.66	4.3636	5.e-002	4.5075
14893	16.935	4.3636	0.	13.292
14894	16.843	4.2727	0.	12.547
14895	16.843	4.3636	5.e-002	4.4874
14896	17.118	4.3636	0.	14.484
14897	17.027	4.2727	0.	13.776
14898	17.027	4.3636	5.e-002	4.4677
14899	17.302	4.3636	0.	15.68
14900	17.21	4.2727	0.	15.005
14901	17.21	4.3636	5.e-002	4.4483
14902	17.485	4.3636	0.	16.887
14903	17.394	4.2727	0.	16.241
14904	17.394	4.3636	5.e-002	4.4294
14905	17.669	4.3636	0.	18.111
14906	17.577	4.2727	0.	17.492
14907	17.577	4.3636	5.e-002	4.4107
14908	17.852	4.3636	0.	19.36
14909	17.761	4.2727	0.	18.766
14910	17.761	4.3636	5.e-002	4.3925
14911	18.036	4.3636	0.	20.642
14912	17.944	4.2727	0.	20.069
14913	17.944	4.3636	5.e-002	4.3747
14914	18.219	4.3636	0.	21.963
14915	18.128	4.2727	0.	21.41
14916	18.128	4.3636	5.e-002	4.3571
14917	18.403	4.3636	0.	23.332
14918	18.311	4.2727	0.	22.798
14919	18.311	4.3636	5.e-002	4.34
14920	18.586	4.3636	0.	24.756
14921	18.495	4.2727	0.	24.239
14922	18.495	4.3636	5.e-002	4.3234
14923	18.77	4.3636	0.	26.245
14924	18.678	4.2727	0.	25.742
14925	18.678	4.3636	5.e-002	4.3072
14926	18.954	4.3636	0.	27.806
14927	18.862	4.2727	0.	27.317
14928	18.862	4.3636	5.e-002	4.2915
14929	19.137	4.3636	0.	29.449
14930	19.045	4.2727	0.	28.973
14931	19.045	4.3636	5.e-002	4.2763
14932	19.321	4.3636	0.	31.183
14933	19.229	4.2727	0.	30.72
14934	19.229	4.3636	5.e-002	4.2616
14935	19.504	4.3636	0.	33.019
14936	19.412	4.2727	0.	32.567
14937	19.412	4.3636	5.e-002	4.2475
14938	19.688	4.3636	0.	34.967
14939	19.596	4.2727	0.	34.527
14940	19.596	4.3636	5.e-002	4.234
14941	19.871	4.3636	0.	37.039
14942	19.779	4.2727	0.	36.61
14943	19.779	4.3636	5.e-002	4.2212
14944	20.055	4.3636	0.	39.248
14945	19.963	4.2727	0.	38.829
14946	19.963	4.3636	5.e-002	4.2092
14947	20.238	4.3636	0.	41.607
14948	20.146	4.2727	0.	41.198
14949	20.146	4.3636	5.e-002	4.198
14950	20.422	4.3636	0.	44.13
14951	20.33	4.2727	0.	43.731
14952	20.33	4.3636	5.e-002	4.1876
14953	20.605	4.3636	0.	46.833
14954	20.513	4.2727	0.	46.443
14955	20.513	4.3636	5.e-002	4.1783
14956	20.789	4.3636	0.	49.732
14957	20.697	4.2727	0.	49.352
14958	20.697	4.3636	5.e-002	4.17
14959	20.972	4.3636	0.	52.848
14960	20.88	4.2727	0.	52.475
14961	20.88	4.3636	5.e-002	4.1629
14962	21.156	4.3636	0.	56.2
14963	21.064	4.2727	0.	55.834
14964	21.064	4.3636	5.e-002	4.1572
14965	21.339	4.3636	0.	59.812
14966	21.247	4.2727	0.	59.449
14967	21.247	4.3636	5.e-002	4.153
14968	21.523	4.3636	0.	63.708
14969	21.431	4.2727	0.	63.345
14970	21.431	4.3636	5.e-002	4.1505
14971	21.706	4.3636	0.	67.917
14972	21.614	4.2727	0.	67.548
14973	21.614	4.3636	5.e-002	4.1499
14974	21.89	4.3636	0.	72.47
14975	21.798	4.2727	0.	72.087
14976	21.798	4.3636	5.e-002	4.1516
14977	22.073	4.3636	0.	77.403
14978	21.981	4.2727	0.	76.995
14979	21.981	4.3636	5.e-002	4.1559
14980	22.257	4.3636	0.	82.752
14981	22.165	4.2727	0.	82.306
14982	22.165	4.3636	5.e-002	4.1632
14983	22.44	4.3636	0.	88.56
14984	22.348	4.2727	0.	88.056
14985	22.348	4.3636	5.e-002	4.1741
14986	22.624	4.3636	0.	94.868
14987	22.532	4.2727	0.	94.284
14988	22.532	4.3636	5.e-002	4.1892
14989	22.807	4.3636	0.	101.72
14990	22.715	4.2727	0.	101.03
14991	22.715	4.3636	5.e-002	4.2094
14992	22.991	4.3636	0.	109.16
14993	22.899	4.2727	0.	108.33
14994	22.899	4.3636	5.e-002	4.2354
14995	23.174	4.3636	0.	117.22
14996	23.082	4.2727	0.	116.22
14997	23.082	4.3636	5.e-002	4.2683
14998	23.358	4.3636	0.	125.92
14999	23.266	4.2727	0.	124.72
15000	23.266	4.3636	5.e-002	4.309
15001	23.541	4.3636	0.	135.3
15002	23.449	4.2727	0.	133.84
15003	23.449	4.3636	5.e-002	4.358
15004	23.725	4.3636	0.	145.3
15005	23.633	4.2727	0.	143.64
15006	23.633	4.3636	5.e-002	4.4182
15007	23.816	4.2727	0.	153.92
15008	23.816	4.3636	5.e-002	4.5355
15009	23.908	4.3636	0.	155.08
15010	6.8419	4.1818	0.	2274.3
15011	6.7502	4.0909	0.	2660.2
15012	6.7502	4.1818	5.e-002	422.7
15013	6.6584	4.1818	0.	3704.2
15014	7.0254	4.1818	0.	939.8
15015	6.9337	4.0909	0.	1041.7
15016	6.9337	4.1818	5.e-002	140.83
15017	7.2089	4.1818	0.	392.57
15018	7.1172	4.0909	0.	432.06
15019	7.1172	4.1818	5.e-002	65.028
15020	7.3925	4.1818	0.	137.61
15021	7.3007	4.0909	0.	149.36
15022	7.3007	4.1818	5.e-002	46.742
15023	7.576	4.1818	0.	19.577
15024	7.4842	4.0909	0.	17.847
15025	7.4842	4.1818	5.e-002	36.446
15026	7.7595	4.1818	0.	4.3996
15027	7.6677	4.0909	0.	4.1901
15028	7.6677	4.1818	5.e-002	29.324
15029	7.943	4.1818	0.	2.0875
15030	7.8512	4.0909	0.	1.9697
15031	7.8512	4.1818	5.e-002	24.265
15032	8.1265	4.1818	0.	1.2627
15033	8.0347	4.0909	0.	1.2355
15034	8.0347	4.1818	5.e-002	20.443
15035	8.31	4.1818	0.	0.83906
15036	8.2182	4.0909	0.	0.8271
15037	8.2182	4.1818	5.e-002	17.463
15038	8.4935	4.1818	0.	0.58915
15039	8.4018	4.0909	0.	0.5889
15040	8.4018	4.1818	5.e-002	15.089
15041	8.677	4.1818	0.	0.4257
15042	8.5853	4.0909	0.	0.4289
15043	8.5853	4.1818	5.e-002	13.174
15044	8.8605	4.1818	0.	0.3134
15045	8.7688	4.0909	0.	0.31796
15046	8.7688	4.1818	5.e-002	11.624
15047	9.044	4.1818	0.	0.23346
15048	8.9523	4.0909	0.	0.23795
15049	8.9523	4.1818	5.e-002	10.367
15050	9.2275	4.1818	0.	0.17541
15051	9.1358	4.0909	0.	0.17934
15052	9.1358	4.1818	5.e-002	9.3516
15053	9.4111	4.1818	0.	0.13269
15054	9.3193	4.0909	0.	0.13585
15055	9.3193	4.1818	5.e-002	8.5335
15056	9.5946	4.1818	0.	0.10097
15057	9.5028	4.0909	0.	0.10338
15058	9.5028	4.1818	5.e-002	7.8768
15059	9.7781	4.1818	0.	7.7279e-002
15060	9.6863	4.0909	0.	7.9012e-002
15061	9.6863	4.1818	5.e-002	7.3513
15062	9.9616	4.1818	0.	5.9493e-002
15063	9.8698	4.0909	0.	6.0669e-002
15064	9.8698	4.1818	5.e-002	6.9313
15065	10.145	4.1818	0.	4.6109e-002
15066	10.053	4.0909	0.	4.6825e-002
15067	10.053	4.1818	5.e-002	6.5953
15068	10.329	4.1818	0.	3.6024e-002
15069	10.237	4.0909	0.	3.6396e-002
15070	10.237	4.1818	5.e-002	6.3257
15071	10.512	4.1818	0.	2.8406e-002
15072	10.42	4.0909	0.	2.8524e-002
15073	10.42	4.1818	5.e-002	6.1082
15074	10.696	4.1818	0.	2.2634e-002
15075	10.604	4.0909	0.	2.258e-002
15076	10.604	4.1818	5.e-002	5.9313
15077	10.879	4.1818	0.	1.8229e-002
15078	10.787	4.0909	0.	1.8078e-002
15079	10.787	4.1818	5.e-002	5.786
15080	11.063	4.1818	0.	1.4865e-002
15081	10.971	4.0909	0.	1.4631e-002
15082	10.971	4.1818	5.e-002	5.6653
15083	11.246	4.1818	0.	1.2347e-002
15084	11.154	4.0909	0.	1.2034e-002
15085	11.154	4.1818	5.e-002	5.5636
15086	11.43	4.1818	0.	1.0475e-002
15087	11.338	4.0909	0.	1.0143e-002
15088	11.338	4.1818	5.e-002	5.4768
15089	11.613	4.1818	0.	9.0709e-003
15090	11.521	4.0909	0.	8.7378e-003
15091	11.521	4.1818	5.e-002	5.4019
15092	11.797	4.1818	0.	8.0151e-003
15093	11.705	4.0909	0.	7.6992e-003
15094	11.705	4.1818	5.e-002	5.3362
15095	11.98	4.1818	0.	7.2197e-003
15096	11.888	4.0909	0.	6.9285e-003
15097	11.888	4.1818	5.e-002	5.2778
15098	12.164	4.1818	0.	6.6287e-003
15099	12.072	4.0909	0.	6.3598e-003
15100	12.072	4.1818	5.e-002	5.2253
15101	12.347	4.1818	0.	6.2036e-003
15102	12.255	4.0909	0.	5.9566e-003
15103	12.255	4.1818	5.e-002	5.1775
15104	12.531	4.1818	0.	5.9385e-003
15105	12.439	4.0909	0.	5.6844e-003
15106	12.439	4.1818	5.e-002	5.1335
15107	12.714	4.1818	0.	5.8095e-003
15108	12.622	4.0909	0.	5.573e-003
15109	12.622	4.1818	5.e-002	5.0927
15110	12.898	4.1818	0.	5.7464e-003
15111	12.806	4.0909	0.	5.5507e-003
15112	12.806	4.1818	5.e-002	5.0546
15113	13.081	4.1818	0.	5.7262e-003
15114	12.989	4.0909	0.	5.5494e-003
15115	12.989	4.1818	5.e-002	5.0187
15116	13.265	4.1818	0.	5.7569e-003
15117	13.173	4.0909	0.	5.5929e-003
15118	13.173	4.1818	5.e-002	4.9847
15119	13.448	4.1818	0.	5.8385e-003
15120	13.356	4.0909	0.	5.6779e-003
15121	13.356	4.1818	5.e-002	4.9523
15122	13.632	4.1818	0.	5.9946e-003
15123	13.54	4.0909	0.	5.8069e-003
15124	13.54	4.1818	5.e-002	4.9212
15125	13.815	4.1818	0.	6.2274e-003
15126	13.724	4.0909	0.	6.0223e-003
15127	13.724	4.1818	5.e-002	4.8913
15128	13.999	4.1818	0.	6.5216e-003
15129	13.907	4.0909	0.	6.2857e-003
15130	13.907	4.1818	5.e-002	4.8626
15131	14.182	4.1818	0.	6.8949e-003
15132	14.091	4.0909	0.	6.6e-003
15133	14.091	4.1818	5.e-002	4.8348
15134	14.366	4.1818	0.	7.3765e-003
15135	14.274	4.0909	0.	6.9865e-003
15136	14.274	4.1818	5.e-002	4.8078
15137	14.549	4.1818	0.	8.0692e-003
15138	14.458	4.0909	0.	7.4649e-003
15139	14.458	4.1818	5.e-002	4.7816
15140	14.733	4.1818	0.	9.2557e-003
15141	14.641	4.0909	0.	8.1795e-003
15142	14.641	4.1818	5.e-002	4.7561
15143	14.916	4.1818	0.	1.1753e-002
15144	14.825	4.0909	0.	9.443e-003
15145	14.825	4.1818	5.e-002	4.7311
15146	15.1	4.1818	0.	2.1201e-002
15147	15.008	4.0909	0.	1.2247e-002
15148	15.008	4.1818	5.e-002	4.7068
15149	15.283	4.1818	0.	0.59064
15150	15.192	4.0909	0.	2.703e-002
15151	15.192	4.1818	5.e-002	4.683
15152	15.467	4.1818	0.	2.1556
15153	15.375	4.0909	0.	0.97747
15154	15.375	4.1818	5.e-002	4.6598
15155	15.65	4.1818	0.	3.669
15156	15.559	4.0909	0.	2.5583
15157	15.559	4.1818	5.e-002	4.637
15158	15.834	4.1818	0.	5.1238
15159	15.742	4.0909	0.	4.0793
15160	15.742	4.1818	5.e-002	4.6146
15161	16.017	4.1818	0.	6.5274
15162	15.926	4.0909	0.	5.5434
15163	15.926	4.1818	5.e-002	4.5926
15164	16.201	4.1818	0.	7.8882
15165	16.109	4.0909	0.	6.959
15166	16.109	4.1818	5.e-002	4.571
15167	16.384	4.1818	0.	9.2141
15168	16.293	4.0909	0.	8.3344
15169	16.293	4.1818	5.e-002	4.5498
15170	16.568	4.1818	0.	10.513
15171	16.476	4.0909	0.	9.678
15172	16.476	4.1818	5.e-002	4.5291
15173	16.751	4.1818	0.	11.793
15174	16.66	4.0909	0.	10.998
15175	16.66	4.1818	5.e-002	4.5086
15176	16.935	4.1818	0.	13.062
15177	16.843	4.0909	0.	12.303
15178	16.843	4.1818	5.e-002	4.4886
15179	17.118	4.1818	0.	14.328
15180	17.027	4.0909	0.	13.6
15181	17.027	4.1818	5.e-002	4.4688
15182	17.302	4.1818	0.	15.597
15183	17.21	4.0909	0.	14.897
15184	17.21	4.1818	5.e-002	4.4494
15185	17.485	4.1818	0.	16.879
15186	17.394	4.0909	0.	16.204
15187	17.394	4.1818	5.e-002	4.4304
15188	17.669	4.1818	0.	18.18
15189	17.577	4.0909	0.	17.526
15190	17.577	4.1818	5.e-002	4.4118
15191	17.852	4.1818	0.	19.508
15192	17.761	4.0909	0.	18.873
15193	17.761	4.1818	5.e-002	4.3936
15194	18.036	4.1818	0.	20.872
15195	17.944	4.0909	0.	20.253
15196	17.944	4.1818	5.e-002	4.3757
15197	18.219	4.1818	0.	22.28
15198	18.128	4.0909	0.	21.674
15199	18.128	4.1818	5.e-002	4.3582
15200	18.403	4.1818	0.	23.74
15201	18.311	4.0909	0.	23.144
15202	18.311	4.1818	5.e-002	4.3412
15203	18.586	4.1818	0.	25.261
15204	18.495	4.0909	0.	24.673
15205	18.495	4.1818	5.e-002	4.3245
15206	18.77	4.1818	0.	26.852
15207	18.678	4.0909	0.	26.271
15208	18.678	4.1818	5.e-002	4.3084
15209	18.954	4.1818	0.	28.522
15210	18.862	4.0909	0.	27.945
15211	18.862	4.1818	5.e-002	4.2927
15212	19.137	4.1818	0.	30.282
15213	19.045	4.0909	0.	29.708
15214	19.045	4.1818	5.e-002	4.2776
15215	19.321	4.1818	0.	32.142
15216	19.229	4.0909	0.	31.569
15217	19.229	4.1818	5.e-002	4.263
15218	19.504	4.1818	0.	34.114
15219	19.412	4.0909	0.	33.539
15220	19.412	4.1818	5.e-002	4.249
15221	19.688	4.1818	0.	36.208
15222	19.596	4.0909	0.	35.631
15223	19.596	4.1818	5.e-002	4.2356
15224	19.871	4.1818	0.	38.439
15225	19.779	4.0909	0.	37.857
15226	19.779	4.1818	5.e-002	4.223
15227	20.055	4.1818	0.	40.818
15228	19.963	4.0909	0.	40.231
15229	19.963	4.1818	5.e-002	4.2112
15230	20.238	4.1818	0.	43.361
15231	20.146	4.0909	0.	42.767
15232	20.146	4.1818	5.e-002	4.2002
15233	20.422	4.1818	0.	46.084
15234	20.33	4.0909	0.	45.48
15235	20.33	4.1818	5.e-002	4.1901
15236	20.605	4.1818	0.	49.002
15237	20.513	4.0909	0.	48.387
15238	20.513	4.1818	5.e-002	4.181
15239	20.789	4.1818	0.	52.135
15240	20.697	4.0909	0.	51.506
15241	20.697	4.1818	5.e-002	4.1731
15242	20.972	4.1818	0.	55.501
15243	20.88	4.0909	0.	54.855
15244	20.88	4.1818	5.e-002	4.1664
15245	21.156	4.1818	0.	59.122
15246	21.064	4.0909	0.	58.456
15247	21.064	4.1818	5.e-002	4.1612
15248	21.339	4.1818	0.	63.021
15249	21.247	4.0909	0.	62.331
15250	21.247	4.1818	5.e-002	4.1576
15251	21.523	4.1818	0.	67.223
15252	21.431	4.0909	0.	66.503
15253	21.431	4.1818	5.e-002	4.1558
15254	21.706	4.1818	0.	71.756
15255	21.614	4.0909	0.	70.998
15256	21.614	4.1818	5.e-002	4.1561
15257	21.89	4.1818	0.	76.649
15258	21.798	4.0909	0.	75.844
15259	21.798	4.1818	5.e-002	4.1587
15260	22.073	4.1818	0.	81.933
15261	21.981	4.0909	0.	81.069
15262	21.981	4.1818	5.e-002	4.164
15263	22.257	4.1818	0.	87.642
15264	22.165	4.0909	0.	86.706
15265	22.165	4.1818	5.e-002	4.1725
15266	22.44	4.1818	0.	93.811
15267	22.348	4.0909	0.	92.785
15268	22.348	4.1818	5.e-002	4.1847
15269	22.624	4.1818	0.	100.47
15270	22.532	4.0909	0.	99.338
15271	22.532	4.1818	5.e-002	4.201
15272	22.807	4.1818	0.	107.66
15273	22.715	4.0909	0.	106.4
15274	22.715	4.1818	5.e-002	4.2222
15275	22.991	4.1818	0.	115.41
15276	22.899	4.0909	0.	113.99
15277	22.899	4.1818	5.e-002	4.2489
15278	23.174	4.1818	0.	123.74
15279	23.082	4.0909	0.	122.13
15280	23.082	4.1818	5.e-002	4.2818
15281	23.358	4.1818	0.	132.66
15282	23.266	4.0909	0.	130.85
15283	23.266	4.1818	5.e-002	4.3216
15284	23.541	4.1818	0.	142.19
15285	23.449	4.0909	0.	140.13
15286	23.449	4.1818	5.e-002	4.3685
15287	23.725	4.1818	0.	152.26
15288	23.633	4.0909	0.	150.03
15289	23.633	4.1818	5.e-002	4.4244
15290	23.816	4.0909	0.	160.34
15291	23.816	4.1818	5.e-002	4.525
15292	23.908	4.1818	0.	162.15
15293	6.8419	4.	0.	1449.4
15294	6.7502	3.9091	0.	1436.7
15295	6.7502	4.	5.e-002	758.37
15296	6.6584	4.	0.	2206.
15297	7.0254	4.	0.	532.36
15298	6.9337	3.9091	0.	595.14
15299	6.9337	4.	5.e-002	131.26
15300	7.2089	4.	0.	182.12
15301	7.1172	3.9091	0.	209.66
15302	7.1172	4.	5.e-002	84.727
15303	7.3925	4.	0.	22.289
15304	7.3007	3.9091	0.	23.913
15305	7.3007	4.	5.e-002	56.496
15306	7.576	4.	0.	3.9058
15307	7.4842	3.9091	0.	2.958
15308	7.4842	4.	5.e-002	42.658
15309	7.7595	4.	0.	2.1055
15310	7.6677	3.9091	0.	2.0822
15311	7.6677	4.	5.e-002	33.793
15312	7.943	4.	0.	1.2399
15313	7.8512	3.9091	0.	1.168
15314	7.8512	4.	5.e-002	27.694
15315	8.1265	4.	0.	0.85828
15316	8.0347	3.9091	0.	0.85297
15317	8.0347	4.	5.e-002	23.164
15318	8.31	4.	0.	0.60897
15319	8.2182	3.9091	0.	0.60771
15320	8.2182	4.	5.e-002	19.662
15321	8.4935	4.	0.	0.4477
15322	8.4018	3.9091	0.	0.45276
15323	8.4018	4.	5.e-002	16.883
15324	8.677	4.	0.	0.33305
15325	8.5853	3.9091	0.	0.33855
15326	8.5853	4.	5.e-002	14.648
15327	8.8605	4.	0.	0.25017
15328	8.7688	3.9091	0.	0.25535
15329	8.7688	4.	5.e-002	12.838
15330	9.044	4.	0.	0.18888
15331	8.9523	3.9091	0.	0.19309
15332	8.9523	4.	5.e-002	11.37
15333	9.2275	4.	0.	0.14316
15334	9.1358	3.9091	0.	0.14637
15335	9.1358	4.	5.e-002	10.179
15336	9.4111	4.	0.	0.10884
15337	9.3193	3.9091	0.	0.11114
15338	9.3193	4.	5.e-002	9.216
15339	9.5946	4.	0.	8.3005e-002
15340	9.5028	3.9091	0.	8.4532e-002
15341	9.5028	4.	5.e-002	8.4383
15342	9.7781	4.	0.	6.3515e-002
15343	9.6863	3.9091	0.	6.444e-002
15344	9.6863	4.	5.e-002	7.8118
15345	9.9616	4.	0.	4.8791e-002
15346	9.8698	3.9091	0.	4.9261e-002
15347	9.8698	4.	5.e-002	7.3075
15348	10.145	4.	0.	3.7679e-002
15349	10.053	3.9091	0.	3.7796e-002
15350	10.053	4.	5.e-002	6.9014
15351	10.329	4.	0.	2.9308e-002
15352	10.237	3.9091	0.	2.9181e-002
15353	10.237	4.	5.e-002	6.5739
15354	10.512	4.	0.	2.3002e-002
15355	10.42	3.9091	0.	2.2711e-002
15356	10.42	4.	5.e-002	6.3087
15357	10.696	4.	0.	1.8251e-002
15358	10.604	3.9091	0.	1.7864e-002
15359	10.604	4.	5.e-002	6.0929
15360	10.879	4.	0.	1.465e-002
15361	10.787	3.9091	0.	1.423e-002
15362	10.787	4.	5.e-002	5.916
15363	11.063	4.	0.	1.1929e-002
15364	10.971	3.9091	0.	1.1475e-002
15365	10.971	4.	5.e-002	5.7696
15366	11.246	4.	0.	9.9286e-003
15367	11.154	3.9091	0.	9.4393e-003
15368	11.154	4.	5.e-002	5.6472
15369	11.43	4.	0.	8.4797e-003
15370	11.338	3.9091	0.	8.0035e-003
15371	11.338	4.	5.e-002	5.5438
15372	11.613	4.	0.	7.4227e-003
15373	11.521	3.9091	0.	6.972e-003
15374	11.521	4.	5.e-002	5.4555
15375	11.797	4.	0.	6.6552e-003
15376	11.705	3.9091	0.	6.2424e-003
15377	11.705	4.	5.e-002	5.3792
15378	11.98	4.	0.	6.1001e-003
15379	11.888	3.9091	0.	5.7278e-003
15380	11.888	4.	5.e-002	5.3123
15381	12.164	4.	0.	5.7103e-003
15382	12.072	3.9091	0.	5.373e-003
15383	12.072	4.	5.e-002	5.253
15384	12.347	4.	0.	5.4527e-003
15385	12.255	3.9091	0.	5.1487e-003
15386	12.255	4.	5.e-002	5.1998
15387	12.531	4.	0.	5.3283e-003
15388	12.439	3.9091	0.	5.0257e-003
15389	12.439	4.	5.e-002	5.1515
15390	12.714	4.	0.	5.3187e-003
15391	12.622	3.9091	0.	5.0397e-003
15392	12.622	4.	5.e-002	5.1073
15393	12.898	4.	0.	5.354e-003
15394	12.806	3.9091	0.	5.122e-003
15395	12.806	4.	5.e-002	5.0665
15396	13.081	4.	0.	5.413e-003
15397	12.989	3.9091	0.	5.207e-003
15398	12.989	4.	5.e-002	5.0285
15399	13.265	4.	0.	5.5079e-003
15400	13.173	3.9091	0.	5.3201e-003
15401	13.173	4.	5.e-002	4.9928
15402	13.448	4.	0.	5.6377e-003
15403	13.356	3.9091	0.	5.4598e-003
15404	13.356	4.	5.e-002	4.959
15405	13.632	4.	0.	5.8239e-003
15406	13.54	3.9091	0.	5.6286e-003
15407	13.54	4.	5.e-002	4.9268
15408	13.815	4.	0.	6.068e-003
15409	13.724	3.9091	0.	5.8674e-003
15410	13.724	4.	5.e-002	4.896
15411	13.999	4.	0.	6.3496e-003
15412	13.907	3.9091	0.	6.1362e-003
15413	13.907	4.	5.e-002	4.8665
15414	14.182	4.	0.	6.6746e-003
15415	14.091	3.9091	0.	6.4321e-003
15416	14.091	4.	5.e-002	4.8382
15417	14.366	4.	0.	7.0535e-003
15418	14.274	3.9091	0.	6.7664e-003
15419	14.274	4.	5.e-002	4.8108
15420	14.549	4.	0.	7.5418e-003
15421	14.458	3.9091	0.	7.137e-003
15422	14.458	4.	5.e-002	4.7842
15423	14.733	4.	0.	8.2892e-003
15424	14.641	3.9091	0.	7.6362e-003
15425	14.641	4.	5.e-002	4.7584
15426	14.916	4.	0.	9.6053e-003
15427	14.825	3.9091	0.	8.4282e-003
15428	14.825	4.	5.e-002	4.7332
15429	15.1	4.	0.	1.284e-002
15430	15.008	3.9091	0.	9.8466e-003
15431	15.008	4.	5.e-002	4.7086
15432	15.283	4.	0.	4.6869e-002
15433	15.192	3.9091	0.	1.402e-002
15434	15.192	4.	5.e-002	4.6847
15435	15.467	4.	0.	1.4018
15436	15.375	3.9091	0.	0.26998
15437	15.375	4.	5.e-002	4.6613
15438	15.65	4.	0.	2.9945
15439	15.559	3.9091	0.	1.9013
15440	15.559	4.	5.e-002	4.6384
15441	15.834	4.	0.	4.5258
15442	15.742	3.9091	0.	3.4947
15443	15.742	4.	5.e-002	4.6159
15444	16.017	4.	0.	6.0025
15445	15.926	3.9091	0.	5.028
15446	15.926	4.	5.e-002	4.5938
15447	16.201	4.	0.	7.4334
15448	16.109	3.9091	0.	6.5098
15449	16.109	4.	5.e-002	4.5721
15450	16.384	4.	0.	8.8272
15451	16.293	3.9091	0.	7.9491
15452	16.293	4.	5.e-002	4.5509
15453	16.568	4.	0.	10.192
15454	16.476	3.9091	0.	9.3547
15455	16.476	4.	5.e-002	4.5301
15456	16.751	4.	0.	11.538
15457	16.66	3.9091	0.	10.735
15458	16.66	4.	5.e-002	4.5097
15459	16.935	4.	0.	12.871
15460	16.843	3.9091	0.	12.1
15461	16.843	4.	5.e-002	4.4896
15462	17.118	4.	0.	14.201
15463	17.027	3.9091	0.	13.457
15464	17.027	4.	5.e-002	4.4698
15465	17.302	4.	0.	15.536
15466	17.21	3.9091	0.	14.814
15467	17.21	4.	5.e-002	4.4504
15468	17.485	4.	0.	16.883
15469	17.394	3.9091	0.	16.181
15470	17.394	4.	5.e-002	4.4314
15471	17.669	4.	0.	18.252
15472	17.577	3.9091	0.	17.566
15473	17.577	4.	5.e-002	4.4128
15474	17.852	4.	0.	19.651
15475	17.761	3.9091	0.	18.977
15476	17.761	4.	5.e-002	4.3945
15477	18.036	4.	0.	21.088
15478	17.944	3.9091	0.	20.423
15479	17.944	4.	5.e-002	4.3767
15480	18.219	4.	0.	22.572
15481	18.128	3.9091	0.	21.913
15482	18.128	4.	5.e-002	4.3592
15483	18.403	4.	0.	24.113
15484	18.311	3.9091	0.	23.456
15485	18.311	4.	5.e-002	4.3422
15486	18.586	4.	0.	25.719
15487	18.495	3.9091	0.	25.062
15488	18.495	4.	5.e-002	4.3255
15489	18.77	4.	0.	27.4
15490	18.678	3.9091	0.	26.74
15491	18.678	4.	5.e-002	4.3094
15492	18.954	4.	0.	29.167
15493	18.862	3.9091	0.	28.502
15494	18.862	4.	5.e-002	4.2939
15495	19.137	4.	0.	31.031
15496	19.045	3.9091	0.	30.357
15497	19.045	4.	5.e-002	4.2788
15498	19.321	4.	0.	33.002
15499	19.229	3.9091	0.	32.318
15500	19.229	4.	5.e-002	4.2643
15501	19.504	4.	0.	35.094
15502	19.412	3.9091	0.	34.395
15503	19.412	4.	5.e-002	4.2503
15504	19.688	4.	0.	37.318
15505	19.596	3.9091	0.	36.602
15506	19.596	4.	5.e-002	4.2371
15507	19.871	4.	0.	39.687
15508	19.779	3.9091	0.	38.953
15509	19.779	4.	5.e-002	4.2246
15510	20.055	4.	0.	42.218
15511	19.963	3.9091	0.	41.461
15512	19.963	4.	5.e-002	4.2129
15513	20.238	4.	0.	44.923
15514	20.146	3.9091	0.	44.141
15515	20.146	4.	5.e-002	4.2021
15516	20.422	4.	0.	47.821
15517	20.33	3.9091	0.	47.011
15518	20.33	4.	5.e-002	4.1923
15519	20.605	4.	0.	50.929
15520	20.513	3.9091	0.	50.086
15521	20.513	4.	5.e-002	4.1835
15522	20.789	4.	0.	54.264
15523	20.697	3.9091	0.	53.386
15524	20.697	4.	5.e-002	4.1758
15525	20.972	4.	0.	57.848
15526	20.88	3.9091	0.	56.93
15527	20.88	4.	5.e-002	4.1696
15528	21.156	4.	0.	61.702
15529	21.064	3.9091	0.	60.738
15530	21.064	4.	5.e-002	4.1648
15531	21.339	4.	0.	65.849
15532	21.247	3.9091	0.	64.833
15533	21.247	4.	5.e-002	4.1618
15534	21.523	4.	0.	70.312
15535	21.431	3.9091	0.	69.239
15536	21.431	4.	5.e-002	4.1606
15537	21.706	4.	0.	75.12
15538	21.614	3.9091	0.	73.979
15539	21.614	4.	5.e-002	4.1615
15540	21.89	4.	0.	80.297
15541	21.798	3.9091	0.	79.08
15542	21.798	4.	5.e-002	4.165
15543	22.073	4.	0.	85.874
15544	21.981	3.9091	0.	84.568
15545	21.981	4.	5.e-002	4.1712
15546	22.257	4.	0.	91.878
15547	22.165	3.9091	0.	90.471
15548	22.165	4.	5.e-002	4.1806
15549	22.44	4.	0.	98.339
15550	22.348	3.9091	0.	96.815
15551	22.348	4.	5.e-002	4.1937
15552	22.624	4.	0.	105.28
15553	22.532	3.9091	0.	103.63
15554	22.532	4.	5.e-002	4.211
15555	22.807	4.	0.	112.74
15556	22.715	3.9091	0.	110.93
15557	22.715	4.	5.e-002	4.2329
15558	22.991	4.	0.	120.72
15559	22.899	3.9091	0.	118.74
15560	22.899	4.	5.e-002	4.26
15561	23.174	4.	0.	129.25
15562	23.082	3.9091	0.	127.08
15563	23.082	4.	5.e-002	4.2928
15564	23.358	4.	0.	138.33
15565	23.266	3.9091	0.	135.96
15566	23.266	4.	5.e-002	4.3317
15567	23.541	4.	0.	147.98
15568	23.449	3.9091	0.	145.36
15569	23.449	4.	5.e-002	4.3766
15570	23.725	4.	0.	158.11
15571	23.633	3.9091	0.	155.34
15572	23.633	4.	5.e-002	4.429
15573	23.816	3.9091	0.	165.67
15574	23.816	4.	5.e-002	4.5156
15575	23.908	4.	0.	168.07
15576	6.8419	3.8182	0.	709.79
15577	6.7502	3.7273	0.	917.31
15578	6.7502	3.8182	5.e-002	405.42
15579	7.0254	3.8182	0.	281.07
15580	6.9337	3.7273	0.	411.9
15581	6.9337	3.8182	5.e-002	187.93
15582	7.2089	3.8182	0.	34.657
15583	7.1172	3.7273	0.	101.79
15584	7.1172	3.8182	5.e-002	94.921
15585	7.3925	3.8182	0.	4.5142
15586	7.3007	3.7273	0.	4.097
15587	7.3007	3.8182	5.e-002	65.078
15588	7.576	3.8182	0.	1.5609
15589	7.4842	3.7273	0.	1.3647
15590	7.4842	3.8182	5.e-002	48.401
15591	7.7595	3.8182	0.	1.2918
15592	7.6677	3.7273	0.	1.2989
15593	7.6677	3.8182	5.e-002	38.152
15594	7.943	3.8182	0.	0.84749
15595	7.8512	3.7273	0.	0.84804
15596	7.8512	3.8182	5.e-002	31.075
15597	8.1265	3.8182	0.	0.6379
15598	8.0347	3.7273	0.	0.65586
15599	8.0347	3.8182	5.e-002	25.833
15600	8.31	3.8182	0.	0.47247
15601	8.2182	3.7273	0.	0.48763
15602	8.2182	3.8182	5.e-002	21.783
15603	8.4935	3.8182	0.	0.35677
15604	8.4018	3.7273	0.	0.37015
15605	8.4018	3.8182	5.e-002	18.576
15606	8.677	3.8182	0.	0.26947
15607	8.5853	3.7273	0.	0.27969
15608	8.5853	3.8182	5.e-002	16.006
15609	8.8605	3.8182	0.	0.20407
15610	8.7688	3.7273	0.	0.21162
15611	8.7688	3.8182	5.e-002	13.932
15612	9.044	3.8182	0.	0.15457
15613	8.9523	3.7273	0.	0.15988
15614	8.9523	3.8182	5.e-002	12.255
15615	9.2275	3.8182	0.	0.11713
15616	9.1358	3.7273	0.	0.12071
15617	9.1358	3.8182	5.e-002	10.898
15618	9.4111	3.8182	0.	8.8793e-002
15619	9.3193	3.7273	0.	9.1081e-002
15620	9.3193	3.8182	5.e-002	9.801
15621	9.5946	3.8182	0.	6.7373e-002
15622	9.5028	3.7273	0.	6.8712e-002
15623	9.5028	3.8182	5.e-002	8.9154
15624	9.7781	3.8182	0.	5.1202e-002
15625	9.6863	3.7273	0.	5.1869e-002
15626	9.6863	3.8182	5.e-002	8.2008
15627	9.9616	3.8182	0.	3.9006e-002
15628	9.8698	3.7273	0.	3.9206e-002
15629	9.8698	3.8182	5.e-002	7.6245
15630	10.145	3.8182	0.	2.9843e-002
15631	10.053	3.7273	0.	2.9708e-002
15632	10.053	3.8182	5.e-002	7.1594
15633	10.329	3.8182	0.	2.299e-002
15634	10.237	3.7273	0.	2.2641e-002
15635	10.237	3.8182	5.e-002	6.7834
15636	10.512	3.8182	0.	1.7877e-002
15637	10.42	3.7273	0.	1.7397e-002
15638	10.42	3.8182	5.e-002	6.4784
15639	10.696	3.8182	0.	1.4073e-002
15640	10.604	3.7273	0.	1.353e-002
15641	10.604	3.8182	5.e-002	6.2301
15642	10.879	3.8182	0.	1.1229e-002
15643	10.787	3.7273	0.	1.0681e-002
15644	10.787	3.8182	5.e-002	6.0267
15645	11.063	3.8182	0.	9.1192e-003
15646	10.971	3.7273	0.	8.5619e-003
15647	10.971	3.8182	5.e-002	5.8588
15648	11.246	3.8182	0.	7.616e-003
15649	11.154	3.7273	0.	7.042e-003
15650	11.154	3.8182	5.e-002	5.7189
15651	11.43	3.8182	0.	6.5736e-003
15652	11.338	3.7273	0.	6.0279e-003
15653	11.338	3.8182	5.e-002	5.6015
15654	11.613	3.8182	0.	5.8511e-003
15655	11.521	3.7273	0.	5.3438e-003
15656	11.521	3.8182	5.e-002	5.5018
15657	11.797	3.8182	0.	5.36e-003
15658	11.705	3.7273	0.	4.8998e-003
15659	11.705	3.8182	5.e-002	5.4163
15660	11.98	3.8182	0.	5.0344e-003
15661	11.888	3.7273	0.	4.6232e-003
15662	11.888	3.8182	5.e-002	5.3422
15663	12.164	3.8182	0.	4.836e-003
15664	12.072	3.7273	0.	4.4653e-003
15665	12.072	3.8182	5.e-002	5.2771
15666	12.347	3.8182	0.	4.7391e-003
15667	12.255	3.7273	0.	4.4056e-003
15668	12.255	3.8182	5.e-002	5.2192
15669	12.531	3.8182	0.	4.7486e-003
15670	12.439	3.7273	0.	4.4208e-003
15671	12.439	3.8182	5.e-002	5.1672
15672	12.714	3.8182	0.	4.8497e-003
15673	12.622	3.7273	0.	4.5491e-003
15674	12.622	3.8182	5.e-002	5.12
15675	12.898	3.8182	0.	4.9776e-003
15676	12.806	3.7273	0.	4.7265e-003
15677	12.806	3.8182	5.e-002	5.0768
15678	13.081	3.8182	0.	5.1135e-003
15679	12.989	3.7273	0.	4.8905e-003
15680	12.989	3.8182	5.e-002	5.037
15681	13.265	3.8182	0.	5.2688e-003
15682	13.173	3.7273	0.	5.0683e-003
15683	13.173	3.8182	5.e-002	4.9997
15684	13.448	3.8182	0.	5.4453e-003
15685	13.356	3.7273	0.	5.2582e-003
15686	13.356	3.8182	5.e-002	4.9647
15687	13.632	3.8182	0.	5.6649e-003
15688	13.54	3.7273	0.	5.4655e-003
15689	13.54	3.8182	5.e-002	4.9316
15690	13.815	3.8182	0.	5.9268e-003
15691	13.724	3.7273	0.	5.7294e-003
15692	13.724	3.8182	5.e-002	4.9001
15693	13.999	3.8182	0.	6.2087e-003
15694	13.907	3.7273	0.	6.0102e-003
15695	13.907	3.8182	5.e-002	4.87
15696	14.182	3.8182	0.	6.5124e-003
15697	14.091	3.7273	0.	6.3018e-003
15698	14.091	3.8182	5.e-002	4.8411
15699	14.366	3.8182	0.	6.8362e-003
15700	14.274	3.7273	0.	6.6095e-003
15701	14.274	3.8182	5.e-002	4.8134
15702	14.549	3.8182	0.	7.212e-003
15703	14.458	3.7273	0.	6.9197e-003
15704	14.458	3.8182	5.e-002	4.7865
15705	14.733	3.8182	0.	7.7363e-003
15706	14.641	3.7273	0.	7.3005e-003
15707	14.641	3.8182	5.e-002	4.7603
15708	14.916	3.8182	0.	8.5409e-003
15709	14.825	3.7273	0.	7.8511e-003
15710	14.825	3.8182	5.e-002	4.7349
15711	15.1	3.8182	0.	1.0087e-002
15712	15.008	3.7273	0.	8.6836e-003
15713	15.008	3.8182	5.e-002	4.7102
15714	15.283	3.8182	0.	1.6243e-002
15715	15.192	3.7273	0.	1.0489e-002
15716	15.192	3.8182	5.e-002	4.6861
15717	15.467	3.8182	0.	0.7682
15718	15.375	3.7273	0.	2.576e-002
15719	15.375	3.8182	5.e-002	4.6626
15720	15.65	3.8182	0.	2.4268
15721	15.559	3.7273	0.	1.3583
15722	15.559	3.8182	5.e-002	4.6396
15723	15.834	3.8182	0.	4.0236
15724	15.742	3.7273	0.	3.0124
15725	15.742	3.8182	5.e-002	4.617
15726	16.017	3.8182	0.	5.5628
15727	15.926	3.7273	0.	4.6037
15728	15.926	3.8182	5.e-002	4.5948
15729	16.201	3.8182	0.	7.0536
15730	16.109	3.7273	0.	6.141
15731	16.109	3.8182	5.e-002	4.5731
15732	16.384	3.8182	0.	8.5053
15733	16.293	3.7273	0.	7.6336
15734	16.293	3.8182	5.e-002	4.5518
15735	16.568	3.8182	0.	9.927
15736	16.476	3.7273	0.	9.091
15737	16.476	3.8182	5.e-002	4.531
15738	16.751	3.8182	0.	11.328
15739	16.66	3.7273	0.	10.522
15740	16.66	3.8182	5.e-002	4.5105
15741	16.935	3.8182	0.	12.716
15742	16.843	3.7273	0.	11.937
15743	16.843	3.8182	5.e-002	4.4904
15744	17.118	3.8182	0.	14.101
15745	17.027	3.7273	0.	13.344
15746	17.027	3.8182	5.e-002	4.4706
15747	17.302	3.8182	0.	15.491
15748	17.21	3.7273	0.	14.752
15749	17.21	3.8182	5.e-002	4.4512
15750	17.485	3.8182	0.	16.896
15751	17.394	3.7273	0.	16.169
15752	17.394	3.8182	5.e-002	4.4321
15753	17.669	3.8182	0.	18.323
15754	17.577	3.7273	0.	17.606
15755	17.577	3.8182	5.e-002	4.4135
15756	17.852	3.8182	0.	19.781
15757	17.761	3.7273	0.	19.07
15758	17.761	3.8182	5.e-002	4.3953
15759	18.036	3.8182	0.	21.281
15760	17.944	3.7273	0.	20.571
15761	17.944	3.8182	5.e-002	4.3775
15762	18.219	3.8182	0.	22.83
15763	18.128	3.7273	0.	22.119
15764	18.128	3.8182	5.e-002	4.36
15765	18.403	3.8182	0.	24.439
15766	18.311	3.7273	0.	23.723
15767	18.311	3.8182	5.e-002	4.343
15768	18.586	3.8182	0.	26.118
15769	18.495	3.7273	0.	25.393
15770	18.495	3.8182	5.e-002	4.3264
15771	18.77	3.8182	0.	27.877
15772	18.678	3.7273	0.	27.14
15773	18.678	3.8182	5.e-002	4.3103
15774	18.954	3.8182	0.	29.727
15775	18.862	3.7273	0.	28.975
15776	18.862	3.8182	5.e-002	4.2948
15777	19.137	3.8182	0.	31.68
15778	19.045	3.7273	0.	30.908
15779	19.045	3.8182	5.e-002	4.2797
15780	19.321	3.8182	0.	33.746
15781	19.229	3.7273	0.	32.951
15782	19.229	3.8182	5.e-002	4.2653
15783	19.504	3.8182	0.	35.94
15784	19.412	3.7273	0.	35.119
15785	19.412	3.8182	5.e-002	4.2515
15786	19.688	3.8182	0.	38.274
15787	19.596	3.7273	0.	37.422
15788	19.596	3.8182	5.e-002	4.2383
15789	19.871	3.8182	0.	40.763
15790	19.779	3.7273	0.	39.877
15791	19.779	3.8182	5.e-002	4.2259
15792	20.055	3.8182	0.	43.421
15793	19.963	3.7273	0.	42.497
15794	19.963	3.8182	5.e-002	4.2144
15795	20.238	3.8182	0.	46.266
15796	20.146	3.7273	0.	45.298
15797	20.146	3.8182	5.e-002	4.2037
15798	20.422	3.8182	0.	49.312
15799	20.33	3.7273	0.	48.298
15800	20.33	3.8182	5.e-002	4.1941
15801	20.605	3.8182	0.	52.58
15802	20.513	3.7273	0.	51.513
15803	20.513	3.8182	5.e-002	4.1855
15804	20.789	3.8182	0.	56.087
15805	20.697	3.7273	0.	54.963
15806	20.697	3.8182	5.e-002	4.1782
15807	20.972	3.8182	0.	59.855
15808	20.88	3.7273	0.	58.667
15809	20.88	3.8182	5.e-002	4.1723
15810	21.156	3.8182	0.	63.903
15811	21.064	3.7273	0.	62.646
15812	21.064	3.8182	5.e-002	4.1679
15813	21.339	3.8182	0.	68.257
15814	21.247	3.7273	0.	66.922
15815	21.247	3.8182	5.e-002	4.1653
15816	21.523	3.8182	0.	72.937
15817	21.431	3.7273	0.	71.518
15818	21.431	3.8182	5.e-002	4.1646
15819	21.706	3.8182	0.	77.97
15820	21.614	3.7273	0.	76.457
15821	21.614	3.8182	5.e-002	4.1662
15822	21.89	3.8182	0.	83.38
15823	21.798	3.7273	0.	81.764
15824	21.798	3.8182	5.e-002	4.1703
15825	22.073	3.8182	0.	89.193
15826	21.981	3.7273	0.	87.462
15827	21.981	3.8182	5.e-002	4.1773
15828	22.257	3.8182	0.	95.434
15829	22.165	3.7273	0.	93.576
15830	22.165	3.8182	5.e-002	4.1875
15831	22.44	3.8182	0.	102.13
15832	22.348	3.7273	0.	100.13
15833	22.348	3.8182	5.e-002	4.2013
15834	22.624	3.8182	0.	109.29
15835	22.532	3.7273	0.	107.14
15836	22.532	3.8182	5.e-002	4.2192
15837	22.807	3.8182	0.	116.95
15838	22.715	3.7273	0.	114.63
15839	22.715	3.8182	5.e-002	4.2417
15840	22.991	3.8182	0.	125.12
15841	22.899	3.7273	0.	122.61
15842	22.899	3.8182	5.e-002	4.269
15843	23.174	3.8182	0.	133.8
15844	23.082	3.7273	0.	131.1
15845	23.082	3.8182	5.e-002	4.3015
15846	23.358	3.8182	0.	143.
15847	23.266	3.7273	0.	140.09
15848	23.266	3.8182	5.e-002	4.3395
15849	23.541	3.8182	0.	152.73
15850	23.449	3.7273	0.	149.58
15851	23.449	3.8182	5.e-002	4.3829
15852	23.725	3.8182	0.	162.9
15853	23.633	3.7273	0.	159.62
15854	23.633	3.8182	5.e-002	4.4324
15855	23.816	3.7273	0.	169.96
15856	23.816	3.8182	5.e-002	4.5075
15857	23.908	3.8182	0.	172.93
15858	6.8419	3.6364	0.	668.07
15859	6.7502	3.5455	0.	866.87
15860	6.7502	3.6364	5.e-002	174.9
15861	7.0254	3.6364	0.	252.64
15862	6.9337	3.5455	0.	420.04
15863	6.9337	3.6364	5.e-002	137.83
15864	7.2089	3.6364	0.	6.5774
15865	7.1172	3.5455	0.	108.54
15866	7.1172	3.6364	5.e-002	99.162
15867	7.3925	3.6364	0.	1.4843
15868	7.3007	3.5455	0.	1.6314
15869	7.3007	3.6364	5.e-002	69.551
15870	7.576	3.6364	0.	1.2774
15871	7.4842	3.5455	0.	1.3815
15872	7.4842	3.6364	5.e-002	52.863
15873	7.7595	3.6364	0.	0.93066
15874	7.6677	3.5455	0.	1.0014
15875	7.6677	3.6364	5.e-002	41.949
15876	7.943	3.6364	0.	0.69589
15877	7.8512	3.5455	0.	0.75725
15878	7.8512	3.6364	5.e-002	34.16
15879	8.1265	3.6364	0.	0.52874
15880	8.0347	3.5455	0.	0.57468
15881	8.0347	3.6364	5.e-002	28.287
15882	8.31	3.6364	0.	0.39991
15883	8.2182	3.5455	0.	0.43331
15884	8.2182	3.6364	5.e-002	23.716
15885	8.4935	3.6364	0.	0.30272
15886	8.4018	3.5455	0.	0.3264
15887	8.4018	3.6364	5.e-002	20.095
15888	8.677	3.6364	0.	0.22844
15889	8.5853	3.5455	0.	0.24483
15890	8.5853	3.6364	5.e-002	17.199
15891	8.8605	3.6364	0.	0.17205
15892	8.7688	3.5455	0.	0.18319
15893	8.7688	3.6364	5.e-002	14.874
15894	9.044	3.6364	0.	0.12931
15895	8.9523	3.5455	0.	0.13672
15896	8.9523	3.6364	5.e-002	13.002
15897	9.2275	3.6364	0.	9.7035e-002
15898	9.1358	3.5455	0.	0.10184
15899	9.1358	3.6364	5.e-002	11.495
15900	9.4111	3.6364	0.	7.2729e-002
15901	9.3193	3.5455	0.	7.5723e-002
15902	9.3193	3.6364	5.e-002	10.281
15903	9.5946	3.6364	0.	5.448e-002
15904	9.5028	3.5455	0.	5.6225e-002
15905	9.5028	3.6364	5.e-002	9.3032
15906	9.7781	3.6364	0.	4.0816e-002
15907	9.6863	3.5455	0.	4.1717e-002
15908	9.6863	3.6364	5.e-002	8.5152
15909	9.9616	3.6364	0.	3.0611e-002
15910	9.8698	3.5455	0.	3.0947e-002
15911	9.8698	3.6364	5.e-002	7.8798
15912	10.145	3.6364	0.	2.3034e-002
15913	10.053	3.5455	0.	2.298e-002
15914	10.053	3.6364	5.e-002	7.3669
15915	10.329	3.6364	0.	1.7449e-002
15916	10.237	3.5455	0.	1.7151e-002
15917	10.237	3.6364	5.e-002	6.952
15918	10.512	3.6364	0.	1.3354e-002
15919	10.42	3.5455	0.	1.2908e-002
15920	10.42	3.6364	5.e-002	6.6153
15921	10.696	3.6364	0.	1.037e-002
15922	10.604	3.5455	0.	9.8512e-003
15923	10.604	3.6364	5.e-002	6.341
15924	10.879	3.6364	0.	8.1913e-003
15925	10.787	3.5455	0.	7.6616e-003
15926	10.787	3.6364	5.e-002	6.1164
15927	11.063	3.6364	0.	6.6215e-003
15928	10.971	3.5455	0.	6.0797e-003
15929	10.971	3.6364	5.e-002	5.9313
15930	11.246	3.6364	0.	5.5591e-003
15931	11.154	3.5455	0.	4.9984e-003
15932	11.154	3.6364	5.e-002	5.7774
15933	11.43	3.6364	0.	4.8791e-003
15934	11.338	3.5455	0.	4.3445e-003
15935	11.338	3.6364	5.e-002	5.6486
15936	11.613	3.6364	0.	4.4548e-003
15937	11.521	3.5455	0.	3.9564e-003
15938	11.521	3.6364	5.e-002	5.5398
15939	11.797	3.6364	0.	4.2105e-003
15940	11.705	3.5455	0.	3.7575e-003
15941	11.705	3.6364	5.e-002	5.4469
15942	11.98	3.6364	0.	4.09e-003
15943	11.888	3.5455	0.	3.6833e-003
15944	11.888	3.6364	5.e-002	5.3668
15945	12.164	3.6364	0.	4.0616e-003
15946	12.072	3.5455	0.	3.6945e-003
15947	12.072	3.6364	5.e-002	5.2969
15948	12.347	3.6364	0.	4.1067e-003
15949	12.255	3.5455	0.	3.7747e-003
15950	12.255	3.6364	5.e-002	5.2352
15951	12.531	3.6364	0.	4.2347e-003
15952	12.439	3.5455	0.	3.9065e-003
15953	12.439	3.6364	5.e-002	5.1802
15954	12.714	3.6364	0.	4.4345e-003
15955	12.622	3.5455	0.	4.132e-003
15956	12.622	3.6364	5.e-002	5.1305
15957	12.898	3.6364	0.	4.644e-003
15958	12.806	3.5455	0.	4.3903e-003
15959	12.806	3.6364	5.e-002	5.0854
15960	13.081	3.6364	0.	4.8468e-003
15961	12.989	3.5455	0.	4.6209e-003
15962	12.989	3.6364	5.e-002	5.0439
15963	13.265	3.6364	0.	5.0568e-003
15964	13.173	3.5455	0.	4.8533e-003
15965	13.173	3.6364	5.e-002	5.0055
15966	13.448	3.6364	0.	5.2754e-003
15967	13.356	3.5455	0.	5.0867e-003
15968	13.356	3.6364	5.e-002	4.9695
15969	13.632	3.6364	0.	5.5254e-003
15970	13.54	3.5455	0.	5.3276e-003
15971	13.54	3.6364	5.e-002	4.9356
15972	13.815	3.6364	0.	5.807e-003
15973	13.724	3.5455	0.	5.6153e-003
15974	13.724	3.6364	5.e-002	4.9034
15975	13.999	3.6364	0.	6.0967e-003
15976	13.907	3.5455	0.	5.9099e-003
15977	13.907	3.6364	5.e-002	4.8728
15978	14.182	3.6364	0.	6.3916e-003
15979	14.091	3.5455	0.	6.2031e-003
15980	14.091	3.6364	5.e-002	4.8435
15981	14.366	3.6364	0.	6.6851e-003
15982	14.274	3.5455	0.	6.4975e-003
15983	14.274	3.6364	5.e-002	4.8154
15984	14.549	3.6364	0.	6.9984e-003
15985	14.458	3.5455	0.	6.7741e-003
15986	14.458	3.6364	5.e-002	4.7883
15987	14.733	3.6364	0.	7.3982e-003
15988	14.641	3.5455	0.	7.087e-003
15989	14.641	3.6364	5.e-002	4.7619
15990	14.916	3.6364	0.	7.9432e-003
15991	14.825	3.5455	0.	7.5037e-003
15992	14.825	3.6364	5.e-002	4.7363
15993	15.1	3.6364	0.	8.8029e-003
15994	15.008	3.5455	0.	8.046e-003
15995	15.008	3.6364	5.e-002	4.7115
15996	15.283	3.6364	0.	1.106e-002
15997	15.192	3.5455	0.	8.9643e-003
15998	15.192	3.6364	5.e-002	4.6872
15999	15.467	3.6364	0.	0.26486
16000	15.375	3.5455	0.	1.2617e-002
16001	15.375	3.6364	5.e-002	4.6636
16002	15.65	3.6364	0.	1.9688
16003	15.559	3.5455	0.	0.93222
16004	15.559	3.6364	5.e-002	4.6405
16005	15.834	3.6364	0.	3.6191
16006	15.742	3.5455	0.	2.6347
16007	15.742	3.6364	5.e-002	4.6179
16008	16.017	3.6364	0.	5.2093
16009	15.926	3.5455	0.	4.2721
16010	15.926	3.6364	5.e-002	4.5957
16011	16.201	3.6364	0.	6.749
16012	16.109	3.5455	0.	5.8533
16013	16.109	3.6364	5.e-002	4.5739
16014	16.384	3.6364	0.	8.248
16015	16.293	3.5455	0.	7.3881
16016	16.293	3.6364	5.e-002	4.5526
16017	16.568	3.6364	0.	9.7157
16018	16.476	3.5455	0.	8.8865
16019	16.476	3.6364	5.e-002	4.5317
16020	16.751	3.6364	0.	11.162
16021	16.66	3.5455	0.	10.358
16022	16.66	3.6364	5.e-002	4.5112
16023	16.935	3.6364	0.	12.595
16024	16.843	3.5455	0.	11.812
16025	16.843	3.6364	5.e-002	4.491
16026	17.118	3.6364	0.	14.025
16027	17.027	3.5455	0.	13.258
16028	17.027	3.6364	5.e-002	4.4712
16029	17.302	3.6364	0.	15.461
16030	17.21	3.5455	0.	14.706
16031	17.21	3.6364	5.e-002	4.4518
16032	17.485	3.6364	0.	16.911
16033	17.394	3.5455	0.	16.164
16034	17.394	3.6364	5.e-002	4.4328
16035	17.669	3.6364	0.	18.385
16036	17.577	3.5455	0.	17.641
16037	17.577	3.6364	5.e-002	4.4141
16038	17.852	3.6364	0.	19.893
16039	17.761	3.5455	0.	19.148
16040	17.761	3.6364	5.e-002	4.3959
16041	18.036	3.6364	0.	21.443
16042	17.944	3.5455	0.	20.693
16043	17.944	3.6364	5.e-002	4.3781
16044	18.219	3.6364	0.	23.046
16045	18.128	3.5455	0.	22.287
16046	18.128	3.6364	5.e-002	4.3606
16047	18.403	3.6364	0.	24.712
16048	18.311	3.5455	0.	23.939
16049	18.311	3.6364	5.e-002	4.3436
16050	18.586	3.6364	0.	26.45
16051	18.495	3.5455	0.	25.66
16052	18.495	3.6364	5.e-002	4.3271
16053	18.77	3.6364	0.	28.272
16054	18.678	3.5455	0.	27.461
16055	18.678	3.6364	5.e-002	4.311
16056	18.954	3.6364	0.	30.19
16057	18.862	3.5455	0.	29.353
16058	18.862	3.6364	5.e-002	4.2955
16059	19.137	3.6364	0.	32.215
16060	19.045	3.5455	0.	31.348
16061	19.045	3.6364	5.e-002	4.2805
16062	19.321	3.6364	0.	34.359
16063	19.229	3.5455	0.	33.458
16064	19.229	3.6364	5.e-002	4.2661
16065	19.504	3.6364	0.	36.636
16066	19.412	3.5455	0.	35.696
16067	19.412	3.6364	5.e-002	4.2523
16068	19.688	3.6364	0.	39.061
16069	19.596	3.5455	0.	38.076
16070	19.596	3.6364	5.e-002	4.2393
16071	19.871	3.6364	0.	41.646
16072	19.779	3.5455	0.	40.613
16073	19.779	3.6364	5.e-002	4.227
16074	20.055	3.6364	0.	44.409
16075	19.963	3.5455	0.	43.321
16076	19.963	3.6364	5.e-002	4.2156
16077	20.238	3.6364	0.	47.366
16078	20.146	3.5455	0.	46.218
16079	20.146	3.6364	5.e-002	4.2051
16080	20.422	3.6364	0.	50.534
16081	20.33	3.5455	0.	49.32
16082	20.33	3.6364	5.e-002	4.1956
16083	20.605	3.6364	0.	53.931
16084	20.513	3.5455	0.	52.645
16085	20.513	3.6364	5.e-002	4.1872
16086	20.789	3.6364	0.	57.577
16087	20.697	3.5455	0.	56.213
16088	20.697	3.6364	5.e-002	4.1801
16089	20.972	3.6364	0.	61.492
16090	20.88	3.5455	0.	60.043
16091	20.88	3.6364	5.e-002	4.1744
16092	21.156	3.6364	0.	65.697
16093	21.064	3.5455	0.	64.155
16094	21.064	3.6364	5.e-002	4.1704
16095	21.339	3.6364	0.	70.215
16096	21.247	3.5455	0.	68.572
16097	21.247	3.6364	5.e-002	4.1682
16098	21.523	3.6364	0.	75.068
16099	21.431	3.5455	0.	73.316
16100	21.431	3.6364	5.e-002	4.1679
16101	21.706	3.6364	0.	80.28
16102	21.614	3.5455	0.	78.408
16103	21.614	3.6364	5.e-002	4.17
16104	21.89	3.6364	0.	85.873
16105	21.798	3.5455	0.	83.872
16106	21.798	3.6364	5.e-002	4.1746
16107	22.073	3.6364	0.	91.87
16108	21.981	3.5455	0.	89.73
16109	21.981	3.6364	5.e-002	4.1822
16110	22.257	3.6364	0.	98.293
16111	22.165	3.5455	0.	96.003
16112	22.165	3.6364	5.e-002	4.193
16113	22.44	3.6364	0.	105.16
16114	22.348	3.5455	0.	102.71
16115	22.348	3.6364	5.e-002	4.2074
16116	22.624	3.6364	0.	112.5
16117	22.532	3.5455	0.	109.87
16118	22.532	3.6364	5.e-002	4.2258
16119	22.807	3.6364	0.	120.31
16120	22.715	3.5455	0.	117.5
16121	22.715	3.6364	5.e-002	4.2485
16122	22.991	3.6364	0.	128.61
16123	22.899	3.5455	0.	125.61
16124	22.899	3.6364	5.e-002	4.2759
16125	23.174	3.6364	0.	137.4
16126	23.082	3.5455	0.	134.2
16127	23.082	3.6364	5.e-002	4.3082
16128	23.358	3.6364	0.	146.69
16129	23.266	3.5455	0.	143.28
16130	23.266	3.6364	5.e-002	4.3455
16131	23.541	3.6364	0.	156.48
16132	23.449	3.5455	0.	152.83
16133	23.449	3.6364	5.e-002	4.3876
16134	23.725	3.6364	0.	166.68
16135	23.633	3.5455	0.	162.91
16136	23.633	3.6364	5.e-002	4.4348
16137	23.816	3.5455	0.	173.26
16138	23.816	3.6364	5.e-002	4.5009
16139	23.908	3.6364	0.	176.76
16140	6.8419	3.4545	0.	638.12
16141	6.7502	3.3636	0.	798.64
16142	6.7502	3.4545	5.e-002	98.286
16143	7.0254	3.4545	0.	293.67
16144	6.9337	3.3636	0.	453.14
16145	6.9337	3.4545	5.e-002	103.93
16146	7.2089	3.4545	0.	27.14
16147	7.1172	3.3636	0.	147.01
16148	7.1172	3.4545	5.e-002	86.043
16149	7.3925	3.4545	0.	1.5865
16150	7.3007	3.3636	0.	1.8969
16151	7.3007	3.4545	5.e-002	69.114
16152	7.576	3.4545	0.	1.1619
16153	7.4842	3.3636	0.	1.3078
16154	7.4842	3.4545	5.e-002	55.28
16155	7.7595	3.4545	0.	0.86261
16156	7.6677	3.3636	0.	0.98656
16157	7.6677	3.4545	5.e-002	44.758
16158	7.943	3.4545	0.	0.6582
16159	7.8512	3.3636	0.	0.75321
16160	7.8512	3.4545	5.e-002	36.671
16161	8.1265	3.4545	0.	0.49401
16162	8.0347	3.3636	0.	0.56266
16163	8.0347	3.4545	5.e-002	30.344
16164	8.31	3.4545	0.	0.36997
16165	8.2182	3.3636	0.	0.41803
16166	8.2182	3.4545	5.e-002	25.337
16167	8.4935	3.4545	0.	0.2757
16168	8.4018	3.3636	0.	0.30865
16169	8.4018	3.4545	5.e-002	21.353
16170	8.677	3.4545	0.	0.20476
16171	8.5853	3.3636	0.	0.2271
16172	8.5853	3.4545	5.e-002	18.173
16173	8.8605	3.4545	0.	0.15165
16174	8.7688	3.3636	0.	0.16664
16175	8.7688	3.4545	5.e-002	15.629
16176	9.044	3.4545	0.	0.11204
16177	8.9523	3.3636	0.	0.12201
16178	8.9523	3.4545	5.e-002	13.592
16179	9.2275	3.4545	0.	8.2604e-002
16180	9.1358	3.3636	0.	8.9145e-002
16181	9.1358	3.4545	5.e-002	11.96
16182	9.4111	3.4545	0.	6.0776e-002
16183	9.3193	3.3636	0.	6.499e-002
16184	9.3193	3.4545	5.e-002	10.65
16185	9.5946	3.4545	0.	4.4636e-002
16186	9.5028	3.3636	0.	4.726e-002
16187	9.5028	3.4545	5.e-002	9.5983
16188	9.7781	3.4545	0.	3.2737e-002
16189	9.6863	3.3636	0.	3.429e-002
16190	9.6863	3.4545	5.e-002	8.7528
16191	9.9616	3.4545	0.	2.3991e-002
16192	9.8698	3.3636	0.	2.4822e-002
16193	9.8698	3.4545	5.e-002	8.072
16194	10.145	3.4545	0.	1.7612e-002
16195	10.053	3.3636	0.	1.7941e-002
16196	10.053	3.4545	5.e-002	7.5228
16197	10.329	3.4545	0.	1.3005e-002
16198	10.237	3.3636	0.	1.301e-002
16199	10.237	3.4545	5.e-002	7.0786
16200	10.512	3.4545	0.	9.7092e-003
16201	10.42	3.3636	0.	9.5068e-003
16202	10.42	3.4545	5.e-002	6.7182
16203	10.696	3.4545	0.	7.3768e-003
16204	10.604	3.3636	0.	7.0548e-003
16205	10.604	3.4545	5.e-002	6.4245
16206	10.879	3.4545	0.	5.7308e-003
16207	10.787	3.3636	0.	5.3613e-003
16208	10.787	3.4545	5.e-002	6.1842
16209	11.063	3.4545	0.	4.5966e-003
16210	10.971	3.3636	0.	4.1866e-003
16211	10.971	3.4545	5.e-002	5.9861
16212	11.246	3.4545	0.	3.8922e-003
16213	11.154	3.3636	0.	3.439e-003
16214	11.154	3.4545	5.e-002	5.8218
16215	11.43	3.4545	0.	3.5057e-003
16216	11.338	3.3636	0.	3.0596e-003
16217	11.338	3.4545	5.e-002	5.6845
16218	11.613	3.4545	0.	3.3238e-003
16219	11.521	3.3636	0.	2.8981e-003
16220	11.521	3.4545	5.e-002	5.5687
16221	11.797	3.4545	0.	3.2799e-003
16222	11.705	3.3636	0.	2.8863e-003
16223	11.705	3.4545	5.e-002	5.4702
16224	11.98	3.4545	0.	3.3257e-003
16225	11.888	3.3636	0.	2.9666e-003
16226	11.888	3.4545	5.e-002	5.3856
16227	12.164	3.4545	0.	3.436e-003
16228	12.072	3.3636	0.	3.1068e-003
16229	12.072	3.4545	5.e-002	5.3121
16230	12.347	3.4545	0.	3.5954e-003
16231	12.255	3.3636	0.	3.2939e-003
16232	12.255	3.4545	5.e-002	5.2475
16233	12.531	3.4545	0.	3.8188e-003
16234	12.439	3.3636	0.	3.5144e-003
16235	12.439	3.4545	5.e-002	5.1901
16236	12.714	3.4545	0.	4.0979e-003
16237	12.622	3.3636	0.	3.8139e-003
16238	12.622	3.4545	5.e-002	5.1386
16239	12.898	3.4545	0.	4.3734e-003
16240	12.806	3.3636	0.	4.1333e-003
16241	12.806	3.4545	5.e-002	5.092
16242	13.081	3.4545	0.	4.6305e-003
16243	12.989	3.3636	0.	4.4147e-003
16244	12.989	3.4545	5.e-002	5.0493
16245	13.265	3.4545	0.	4.8839e-003
16246	13.173	3.3636	0.	4.6889e-003
16247	13.173	3.4545	5.e-002	5.0099
16248	13.448	3.4545	0.	5.1377e-003
16249	13.356	3.3636	0.	4.9556e-003
16250	13.356	3.4545	5.e-002	4.9732
16251	13.632	3.4545	0.	5.4148e-003
16252	13.54	3.3636	0.	5.223e-003
16253	13.54	3.4545	5.e-002	4.9386
16254	13.815	3.4545	0.	5.7146e-003
16255	13.724	3.3636	0.	5.5296e-003
16256	13.724	3.4545	5.e-002	4.9059
16257	13.999	3.4545	0.	6.0122e-003
16258	13.907	3.3636	0.	5.8352e-003
16259	13.907	3.4545	5.e-002	4.875
16260	14.182	3.4545	0.	6.3048e-003
16261	14.091	3.3636	0.	6.1327e-003
16262	14.091	3.4545	5.e-002	4.8454
16263	14.366	3.4545	0.	6.5827e-003
16264	14.274	3.3636	0.	6.4216e-003
16265	14.274	3.4545	5.e-002	4.817
16266	14.549	3.4545	0.	6.8593e-003
16267	14.458	3.3636	0.	6.6792e-003
16268	14.458	3.4545	5.e-002	4.7896
16269	14.733	3.4545	0.	7.1882e-003
16270	14.641	3.3636	0.	6.9535e-003
16271	14.641	3.4545	5.e-002	4.7631
16272	14.916	3.4545	0.	7.5926e-003
16273	14.825	3.3636	0.	7.2959e-003
16274	14.825	3.4545	5.e-002	4.7374
16275	15.1	3.4545	0.	8.1222e-003
16276	15.008	3.3636	0.	7.6844e-003
16277	15.008	3.4545	5.e-002	4.7124
16278	15.283	3.4545	0.	9.1273e-003
16279	15.192	3.3636	0.	8.2027e-003
16280	15.192	3.4545	5.e-002	4.6881
16281	15.467	3.4545	0.	2.5607e-002
16282	15.375	3.3636	0.	9.4615e-003
16283	15.375	3.4545	5.e-002	4.6644
16284	15.65	3.4545	0.	1.6227
16285	15.559	3.3636	0.	0.62522
16286	15.559	3.4545	5.e-002	4.6412
16287	15.834	3.4545	0.	3.3141
16288	15.742	3.3636	0.	2.3634
16289	15.742	3.4545	5.e-002	4.6186
16290	16.017	3.4545	0.	4.9433
16291	15.926	3.3636	0.	4.0342
16292	15.926	3.4545	5.e-002	4.5963
16293	16.201	3.4545	0.	6.5202
16294	16.109	3.3636	0.	5.6472
16295	16.109	3.4545	5.e-002	4.5745
16296	16.384	3.4545	0.	8.0552
16297	16.293	3.3636	0.	7.2127
16298	16.293	3.4545	5.e-002	4.5532
16299	16.568	3.4545	0.	9.5579
16300	16.476	3.3636	0.	8.7407
16301	16.476	3.4545	5.e-002	4.5322
16302	16.751	3.4545	0.	11.038
16303	16.66	3.3636	0.	10.241
16304	16.66	3.4545	5.e-002	4.5117
16305	16.935	3.4545	0.	12.506
16306	16.843	3.3636	0.	11.724
16307	16.843	3.4545	5.e-002	4.4915
16308	17.118	3.4545	0.	13.97
16309	17.027	3.3636	0.	13.199
16310	17.027	3.4545	5.e-002	4.4717
16311	17.302	3.4545	0.	15.44
16312	17.21	3.3636	0.	14.675
16313	17.21	3.4545	5.e-002	4.4523
16314	17.485	3.4545	0.	16.926
16315	17.394	3.3636	0.	16.162
16316	17.394	3.4545	5.e-002	4.4332
16317	17.669	3.4545	0.	18.436
16318	17.577	3.3636	0.	17.669
16319	17.577	3.4545	5.e-002	4.4146
16320	17.852	3.4545	0.	19.981
16321	17.761	3.3636	0.	19.207
16322	17.761	3.4545	5.e-002	4.3964
16323	18.036	3.4545	0.	21.57
16324	17.944	3.3636	0.	20.784
16325	17.944	3.4545	5.e-002	4.3786
16326	18.219	3.4545	0.	23.214
16327	18.128	3.3636	0.	22.41
16328	18.128	3.4545	5.e-002	4.3611
16329	18.403	3.4545	0.	24.922
16330	18.311	3.3636	0.	24.098
16331	18.311	3.4545	5.e-002	4.3441
16332	18.586	3.4545	0.	26.706
16333	18.495	3.3636	0.	25.856
16334	18.495	3.4545	5.e-002	4.3276
16335	18.77	3.4545	0.	28.576
16336	18.678	3.3636	0.	27.696
16337	18.678	3.4545	5.e-002	4.3115
16338	18.954	3.4545	0.	30.546
16339	18.862	3.3636	0.	29.629
16340	18.862	3.4545	5.e-002	4.296
16341	19.137	3.4545	0.	32.625
16342	19.045	3.3636	0.	31.669
16343	19.045	3.4545	5.e-002	4.2811
16344	19.321	3.4545	0.	34.829
16345	19.229	3.3636	0.	33.826
16346	19.229	3.4545	5.e-002	4.2667
16347	19.504	3.4545	0.	37.17
16348	19.412	3.3636	0.	36.116
16349	19.412	3.4545	5.e-002	4.253
16350	19.688	3.4545	0.	39.663
16351	19.596	3.3636	0.	38.551
16352	19.596	3.4545	5.e-002	4.24
16353	19.871	3.4545	0.	42.322
16354	19.779	3.3636	0.	41.147
16355	19.779	3.4545	5.e-002	4.2278
16356	20.055	3.4545	0.	45.165
16357	19.963	3.3636	0.	43.92
16358	19.963	3.4545	5.e-002	4.2165
16359	20.238	3.4545	0.	48.207
16360	20.146	3.3636	0.	46.886
16361	20.146	3.4545	5.e-002	4.2061
16362	20.422	3.4545	0.	51.466
16363	20.33	3.3636	0.	50.062
16364	20.33	3.4545	5.e-002	4.1967
16365	20.605	3.4545	0.	54.961
16366	20.513	3.3636	0.	53.466
16367	20.513	3.4545	5.e-002	4.1885
16368	20.789	3.4545	0.	58.712
16369	20.697	3.3636	0.	57.118
16370	20.697	3.4545	5.e-002	4.1815
16371	20.972	3.4545	0.	62.738
16372	20.88	3.3636	0.	61.038
16373	20.88	3.4545	5.e-002	4.1761
16374	21.156	3.4545	0.	67.061
16375	21.064	3.3636	0.	65.246
16376	21.064	3.4545	5.e-002	4.1723
16377	21.339	3.4545	0.	71.703
16378	21.247	3.3636	0.	69.764
16379	21.247	3.4545	5.e-002	4.1704
16380	21.523	3.4545	0.	76.684
16381	21.431	3.3636	0.	74.613
16382	21.431	3.4545	5.e-002	4.1705
16383	21.706	3.4545	0.	82.028
16384	21.614	3.3636	0.	79.814
16385	21.614	3.4545	5.e-002	4.1729
16386	21.89	3.4545	0.	87.755
16387	21.798	3.3636	0.	85.389
16388	21.798	3.4545	5.e-002	4.1779
16389	22.073	3.4545	0.	93.887
16390	21.981	3.3636	0.	91.359
16391	21.981	3.4545	5.e-002	4.1859
16392	22.257	3.4545	0.	100.44
16393	22.165	3.3636	0.	97.743
16394	22.165	3.4545	5.e-002	4.1971
16395	22.44	3.4545	0.	107.44
16396	22.348	3.3636	0.	104.56
16397	22.348	3.4545	5.e-002	4.2119
16398	22.624	3.4545	0.	114.89
16399	22.532	3.3636	0.	111.82
16400	22.532	3.4545	5.e-002	4.2307
16401	22.807	3.4545	0.	122.82
16402	22.715	3.3636	0.	119.55
16403	22.715	3.4545	5.e-002	4.2536
16404	22.991	3.4545	0.	131.21
16405	22.899	3.3636	0.	127.74
16406	22.899	3.4545	5.e-002	4.281
16407	23.174	3.4545	0.	140.09
16408	23.082	3.3636	0.	136.4
16409	23.082	3.4545	5.e-002	4.3131
16410	23.358	3.4545	0.	149.43
16411	23.266	3.3636	0.	145.54
16412	23.266	3.4545	5.e-002	4.3498
16413	23.541	3.4545	0.	159.27
16414	23.449	3.3636	0.	155.13
16415	23.449	3.4545	5.e-002	4.3909
16416	23.725	3.4545	0.	169.49
16417	23.633	3.3636	0.	165.24
16418	23.633	3.4545	5.e-002	4.4366
16419	23.816	3.3636	0.	175.6
16420	23.816	3.4545	5.e-002	4.4958
16421	23.908	3.4545	0.	179.6
16422	6.8419	3.2727	0.	623.88
16423	6.7502	3.1818	0.	764.81
16424	6.7502	3.2727	5.e-002	60.877
16425	7.0254	3.2727	0.	319.79
16426	6.9337	3.1818	0.	466.41
16427	6.9337	3.2727	5.e-002	76.271
16428	7.2089	3.2727	0.	57.011
16429	7.1172	3.1818	0.	175.78
16430	7.1172	3.2727	5.e-002	74.878
16431	7.3925	3.2727	0.	1.4377
16432	7.3007	3.1818	0.	1.5931
16433	7.3007	3.2727	5.e-002	66.059
16434	7.576	3.2727	0.	1.1376
16435	7.4842	3.1818	0.	1.2665
16436	7.4842	3.2727	5.e-002	55.836
16437	7.7595	3.2727	0.	0.88955
16438	7.6677	3.1818	0.	1.0196
16439	7.6677	3.2727	5.e-002	46.403
16440	7.943	3.2727	0.	0.66891
16441	7.8512	3.1818	0.	0.77502
16442	7.8512	3.2727	5.e-002	38.39
16443	8.1265	3.2727	0.	0.49575
16444	8.0347	3.1818	0.	0.57443
16445	8.0347	3.2727	5.e-002	31.817
16446	8.31	3.2727	0.	0.36379
16447	8.2182	3.1818	0.	0.41963
16448	8.2182	3.2727	5.e-002	26.511
16449	8.4935	3.2727	0.	0.2655
16450	8.4018	3.1818	0.	0.30431
16451	8.4018	3.2727	5.e-002	22.261
16452	8.677	3.2727	0.	0.19315
16453	8.5853	3.1818	0.	0.21987
16454	8.5853	3.2727	5.e-002	18.868
16455	8.8605	3.2727	0.	0.1402
16456	8.7688	3.1818	0.	0.15851
16457	8.7688	3.2727	5.e-002	16.161
16458	9.044	3.2727	0.	0.10156
16459	8.9523	3.1818	0.	0.11408
16460	8.9523	3.2727	5.e-002	14.002
16461	9.2275	3.2727	0.	7.3405e-002
16462	9.1358	3.1818	0.	8.1931e-002
16463	9.1358	3.2727	5.e-002	12.279
16464	9.4111	3.2727	0.	5.2911e-002
16465	9.3193	3.1818	0.	5.8686e-002
16466	9.3193	3.2727	5.e-002	10.901
16467	9.5946	3.2727	0.	3.8019e-002
16468	9.5028	3.1818	0.	4.1885e-002
16469	9.5028	3.2727	5.e-002	9.7973
16470	9.7781	3.2727	0.	2.7225e-002
16471	9.6863	3.1818	0.	2.9772e-002
16472	9.6863	3.2727	5.e-002	8.9121
16473	9.9616	3.2727	0.	1.9427e-002
16474	9.8698	3.1818	0.	2.1061e-002
16475	9.8698	3.2727	5.e-002	8.2004
16476	10.145	3.2727	0.	1.3846e-002
16477	10.053	3.1818	0.	1.4826e-002
16478	10.053	3.2727	5.e-002	7.6268
16479	10.329	3.2727	0.	9.9033e-003
16480	10.237	3.1818	0.	1.0438e-002
16481	10.237	3.2727	5.e-002	7.163
16482	10.512	3.2727	0.	7.1558e-003
16483	10.42	3.1818	0.	7.3866e-003
16484	10.42	3.2727	5.e-002	6.7868
16485	10.696	3.2727	0.	5.2748e-003
16486	10.604	3.1818	0.	5.3079e-003
16487	10.604	3.2727	5.e-002	6.4803
16488	10.879	3.2727	0.	4.0001e-003
16489	10.787	3.1818	0.	3.9223e-003
16490	10.787	3.2727	5.e-002	6.2294
16491	11.063	3.2727	0.	3.1712e-003
16492	10.971	3.1818	0.	3.0009e-003
16493	10.971	3.2727	5.e-002	6.0229
16494	11.246	3.2727	0.	2.7171e-003
16495	11.154	3.1818	0.	2.4615e-003
16496	11.154	3.2727	5.e-002	5.8516
16497	11.43	3.2727	0.	2.538e-003
16498	11.338	3.1818	0.	2.2543e-003
16499	11.338	3.2727	5.e-002	5.7086
16500	11.613	3.2727	0.	2.5273e-003
16501	11.521	3.1818	0.	2.2348e-003
16502	11.521	3.2727	5.e-002	5.5882
16503	11.797	3.2727	0.	2.6243e-003
16504	11.705	3.1818	0.	2.34e-003
16505	11.705	3.2727	5.e-002	5.486
16506	11.98	3.2727	0.	2.7871e-003
16507	11.888	3.1818	0.	2.518e-003
16508	11.888	3.2727	5.e-002	5.3983
16509	12.164	3.2727	0.	2.9944e-003
16510	12.072	3.1818	0.	2.7381e-003
16511	12.072	3.2727	5.e-002	5.3224
16512	12.347	3.2727	0.	3.235e-003
16513	12.255	3.1818	0.	2.9924e-003
16514	12.255	3.2727	5.e-002	5.2558
16515	12.531	3.2727	0.	3.5256e-003
16516	12.439	3.1818	0.	3.2686e-003
16517	12.439	3.2727	5.e-002	5.1968
16518	12.714	3.2727	0.	3.8605e-003
16519	12.622	3.1818	0.	3.6142e-003
16520	12.622	3.2727	5.e-002	5.1441
16521	12.898	3.2727	0.	4.182e-003
16522	12.806	3.1818	0.	3.972e-003
16523	12.806	3.2727	5.e-002	5.0964
16524	13.081	3.2727	0.	4.4774e-003
16525	12.989	3.1818	0.	4.285e-003
16526	12.989	3.2727	5.e-002	5.053
16527	13.265	3.2727	0.	4.7625e-003
16528	13.173	3.1818	0.	4.5855e-003
16529	13.173	3.2727	5.e-002	5.0129
16530	13.448	3.2727	0.	5.0409e-003
16531	13.356	3.1818	0.	4.8734e-003
16532	13.356	3.2727	5.e-002	4.9756
16533	13.632	3.2727	0.	5.3365e-003
16534	13.54	3.1818	0.	5.1569e-003
16535	13.54	3.2727	5.e-002	4.9407
16536	13.815	3.2727	0.	5.6482e-003
16537	13.724	3.1818	0.	5.4754e-003
16538	13.724	3.2727	5.e-002	4.9077
16539	13.999	3.2727	0.	5.9534e-003
16540	13.907	3.1818	0.	5.7889e-003
16541	13.907	3.2727	5.e-002	4.8764
16542	14.182	3.2727	0.	6.2474e-003
16543	14.091	3.1818	0.	6.0902e-003
16544	14.091	3.2727	5.e-002	4.8466
16545	14.366	3.2727	0.	6.517e-003
16546	14.274	3.1818	0.	6.377e-003
16547	14.274	3.2727	5.e-002	4.8181
16548	14.549	3.2727	0.	6.7741e-003
16549	14.458	3.1818	0.	6.6248e-003
16550	14.458	3.2727	5.e-002	4.7906
16551	14.733	3.2727	0.	7.0643e-003
16552	14.641	3.1818	0.	6.8801e-003
16553	14.641	3.2727	5.e-002	4.7639
16554	14.916	3.2727	0.	7.3926e-003
16555	14.825	3.1818	0.	7.1841e-003
16556	14.825	3.2727	5.e-002	4.7381
16557	15.1	3.2727	0.	7.7572e-003
16558	15.008	3.1818	0.	7.4961e-003
16559	15.008	3.2727	5.e-002	4.713
16560	15.283	3.2727	0.	8.2535e-003
16561	15.192	3.1818	0.	7.8327e-003
16562	15.192	3.2727	5.e-002	4.6887
16563	15.467	3.2727	0.	1.0702e-002
16564	15.375	3.1818	0.	8.3061e-003
16565	15.375	3.2727	5.e-002	4.6649
16566	15.65	3.2727	0.	1.3905
16567	15.559	3.1818	0.	0.43918
16568	15.559	3.2727	5.e-002	4.6417
16569	15.834	3.2727	0.	3.11
16570	15.742	3.1818	0.	2.1999
16571	15.742	3.2727	5.e-002	4.619
16572	16.017	3.2727	0.	4.7654
16573	15.926	3.1818	0.	3.8911
16574	15.926	3.2727	5.e-002	4.5967
16575	16.201	3.2727	0.	6.3675
16576	16.109	3.1818	0.	5.5234
16577	16.109	3.2727	5.e-002	4.5749
16578	16.384	3.2727	0.	7.9267
16579	16.293	3.1818	0.	7.1073
16580	16.293	3.2727	5.e-002	4.5535
16581	16.568	3.2727	0.	9.4531
16582	16.476	3.1818	0.	8.6533
16583	16.476	3.2727	5.e-002	4.5326
16584	16.751	3.2727	0.	10.957
16585	16.66	3.1818	0.	10.171
16586	16.66	3.2727	5.e-002	4.512
16587	16.935	3.2727	0.	12.447
16588	16.843	3.1818	0.	11.672
16589	16.843	3.2727	5.e-002	4.4919
16590	17.118	3.2727	0.	13.934
16591	17.027	3.1818	0.	13.164
16592	17.027	3.2727	5.e-002	4.472
16593	17.302	3.2727	0.	15.428
16594	17.21	3.1818	0.	14.657
16595	17.21	3.2727	5.e-002	4.4526
16596	17.485	3.2727	0.	16.937
16597	17.394	3.1818	0.	16.162
16598	17.394	3.2727	5.e-002	4.4336
16599	17.669	3.2727	0.	18.472
16600	17.577	3.1818	0.	17.687
16601	17.577	3.2727	5.e-002	4.4149
16602	17.852	3.2727	0.	20.042
16603	17.761	3.1818	0.	19.243
16604	17.761	3.2727	5.e-002	4.3967
16605	18.036	3.2727	0.	21.657
16606	17.944	3.1818	0.	20.839
16607	17.944	3.2727	5.e-002	4.3789
16608	18.219	3.2727	0.	23.328
16609	18.128	3.1818	0.	22.486
16610	18.128	3.2727	5.e-002	4.3614
16611	18.403	3.2727	0.	25.065
16612	18.311	3.1818	0.	24.194
16613	18.311	3.2727	5.e-002	4.3444
16614	18.586	3.2727	0.	26.88
16615	18.495	3.1818	0.	25.975
16616	18.495	3.2727	5.e-002	4.3279
16617	18.77	3.2727	0.	28.783
16618	18.678	3.1818	0.	27.839
16619	18.678	3.2727	5.e-002	4.3119
16620	18.954	3.2727	0.	30.787
16621	18.862	3.1818	0.	29.797
16622	18.862	3.2727	5.e-002	4.2964
16623	19.137	3.2727	0.	32.904
16624	19.045	3.1818	0.	31.864
16625	19.045	3.2727	5.e-002	4.2815
16626	19.321	3.2727	0.	35.147
16627	19.229	3.1818	0.	34.05
16628	19.229	3.2727	5.e-002	4.2672
16629	19.504	3.2727	0.	37.531
16630	19.412	3.1818	0.	36.371
16631	19.412	3.2727	5.e-002	4.2535
16632	19.688	3.2727	0.	40.07
16633	19.596	3.1818	0.	38.84
16634	19.596	3.2727	5.e-002	4.2405
16635	19.871	3.2727	0.	42.779
16636	19.779	3.1818	0.	41.472
16637	19.779	3.2727	5.e-002	4.2283
16638	20.055	3.2727	0.	45.675
16639	19.963	3.1818	0.	44.283
16640	19.963	3.2727	5.e-002	4.2171
16641	20.238	3.2727	0.	48.774
16642	20.146	3.1818	0.	47.29
16643	20.146	3.2727	5.e-002	4.2067
16644	20.422	3.2727	0.	52.095
16645	20.33	3.1818	0.	50.511
16646	20.33	3.2727	5.e-002	4.1974
16647	20.605	3.2727	0.	55.656
16648	20.513	3.1818	0.	53.963
16649	20.513	3.2727	5.e-002	4.1893
16650	20.789	3.2727	0.	59.477
16651	20.697	3.1818	0.	57.667
16652	20.697	3.2727	5.e-002	4.1825
16653	20.972	3.2727	0.	63.578
16654	20.88	3.1818	0.	61.641
16655	20.88	3.2727	5.e-002	4.1772
16656	21.156	3.2727	0.	67.979
16657	21.064	3.1818	0.	65.906
16658	21.064	3.2727	5.e-002	4.1736
16659	21.339	3.2727	0.	72.703
16660	21.247	3.1818	0.	70.484
16661	21.247	3.2727	5.e-002	4.1718
16662	21.523	3.2727	0.	77.769
16663	21.431	3.1818	0.	75.396
16664	21.431	3.2727	5.e-002	4.1722
16665	21.706	3.2727	0.	83.201
16666	21.614	3.1818	0.	80.662
16667	21.614	3.2727	5.e-002	4.1748
16668	21.89	3.2727	0.	89.017
16669	21.798	3.1818	0.	86.303
16670	21.798	3.2727	5.e-002	4.1801
16671	22.073	3.2727	0.	95.237
16672	21.981	3.1818	0.	92.339
16673	21.981	3.2727	5.e-002	4.1884
16674	22.257	3.2727	0.	101.88
16675	22.165	3.1818	0.	98.789
16676	22.165	3.2727	5.e-002	4.1999
16677	22.44	3.2727	0.	108.96
16678	22.348	3.1818	0.	105.67
16679	22.348	3.2727	5.e-002	4.215
16680	22.624	3.2727	0.	116.49
16681	22.532	3.1818	0.	112.99
16682	22.532	3.2727	5.e-002	4.2339
16683	22.807	3.2727	0.	124.48
16684	22.715	3.1818	0.	120.77
16685	22.715	3.2727	5.e-002	4.257
16686	22.991	3.2727	0.	132.94
16687	22.899	3.1818	0.	129.01
16688	22.899	3.2727	5.e-002	4.2844
16689	23.174	3.2727	0.	141.86
16690	23.082	3.1818	0.	137.72
16691	23.082	3.2727	5.e-002	4.3162
16692	23.358	3.2727	0.	151.25
16693	23.266	3.1818	0.	146.89
16694	23.266	3.2727	5.e-002	4.3526
16695	23.541	3.2727	0.	161.11
16696	23.449	3.1818	0.	156.51
16697	23.449	3.2727	5.e-002	4.3931
16698	23.725	3.2727	0.	171.35
16699	23.633	3.1818	0.	166.63
16700	23.633	3.2727	5.e-002	4.4377
16701	23.816	3.1818	0.	176.99
16702	23.816	3.2727	5.e-002	4.4924
16703	23.908	3.2727	0.	181.48
16704	6.8419	3.0909	0.	615.17
16705	6.7502	3.	0.	752.38
16706	6.7502	3.0909	5.e-002	47.958
16707	7.0254	3.0909	0.	333.05
16708	6.9337	3.	0.	470.53
16709	6.9337	3.0909	5.e-002	64.342
16710	7.2089	3.0909	0.	74.702
16711	7.1172	3.	0.	185.76
16712	7.1172	3.0909	5.e-002	68.203
16713	7.3925	3.0909	0.	1.3041
16714	7.3007	3.	0.	1.3302
16715	7.3007	3.0909	5.e-002	63.733
16716	7.576	3.0909	0.	1.1449
16717	7.4842	3.	0.	1.2624
16718	7.4842	3.0909	5.e-002	55.71
16719	7.7595	3.0909	0.	0.90867
16720	7.6677	3.	0.	1.0285
16721	7.6677	3.0909	5.e-002	47.095
16722	7.943	3.0909	0.	0.68625
16723	7.8512	3.	0.	0.78701
16724	7.8512	3.0909	5.e-002	39.24
16725	8.1265	3.0909	0.	0.50415
16726	8.0347	3.	0.	0.58135
16727	8.0347	3.0909	5.e-002	32.581
16728	8.31	3.0909	0.	0.36537
16729	8.2182	3.	0.	0.42213
16730	8.2182	3.0909	5.e-002	27.128
16731	8.4935	3.0909	0.	0.26306
16732	8.4018	3.	0.	0.304
16733	8.4018	3.0909	5.e-002	22.737
16734	8.677	3.0909	0.	0.1888
16735	8.5853	3.	0.	0.21809
16736	8.5853	3.0909	5.e-002	19.23
16737	8.8605	3.0909	0.	0.13523
16738	8.7688	3.	0.	0.15614
16739	8.7688	3.0909	5.e-002	16.437
16740	9.044	3.0909	0.	9.6686e-002
16741	8.9523	3.	0.	0.1116
16742	8.9523	3.0909	5.e-002	14.213
16743	9.2275	3.0909	0.	6.8963e-002
16744	9.1358	3.	0.	7.9603e-002
16745	9.1358	3.0909	5.e-002	12.441
16746	9.4111	3.0909	0.	4.9025e-002
16747	9.3193	3.	0.	5.6613e-002
16748	9.3193	3.0909	5.e-002	11.028
16749	9.5946	3.0909	0.	3.4701e-002
16750	9.5028	3.	0.	4.0095e-002
16751	9.5028	3.0909	5.e-002	9.8976
16752	9.7781	3.0909	0.	2.4435e-002
16753	9.6863	3.	0.	2.8258e-002
16754	9.6863	3.0909	5.e-002	8.992
16755	9.9616	3.0909	0.	1.7102e-002
16756	9.8698	3.	0.	1.9793e-002
16757	9.8698	3.0909	5.e-002	8.2646
16758	10.145	3.0909	0.	1.1919e-002
16759	10.053	3.	0.	1.3773e-002
16760	10.053	3.0909	5.e-002	7.6787
16761	10.329	3.0909	0.	8.3108e-003
16762	10.237	3.	0.	9.5662e-003
16763	10.237	3.0909	5.e-002	7.2051
16764	10.512	3.0909	0.	5.8418e-003
16765	10.42	3.	0.	6.6663e-003
16766	10.42	3.0909	5.e-002	6.821
16767	10.696	3.0909	0.	4.1917e-003
16768	10.604	3.	0.	4.7139e-003
16769	10.604	3.0909	5.e-002	6.5082
16770	10.879	3.0909	0.	3.1075e-003
16771	10.787	3.	0.	3.4325e-003
16772	10.787	3.0909	5.e-002	6.2521
16773	11.063	3.0909	0.	2.435e-003
16774	10.971	3.	0.	2.5973e-003
16775	10.971	3.0909	5.e-002	6.0413
16776	11.246	3.0909	0.	2.1109e-003
16777	11.154	3.	0.	2.1287e-003
16778	11.154	3.0909	5.e-002	5.8665
16779	11.43	3.0909	0.	2.0384e-003
16780	11.338	3.	0.	1.9805e-003
16781	11.338	3.0909	5.e-002	5.7207
16782	11.613	3.0909	0.	2.1154e-003
16783	11.521	3.	0.	2.0087e-003
16784	11.521	3.0909	5.e-002	5.598
16785	11.797	3.0909	0.	2.2861e-003
16786	11.705	3.	0.	2.154e-003
16787	11.705	3.0909	5.e-002	5.4939
16788	11.98	3.0909	0.	2.5094e-003
16789	11.888	3.	0.	2.3648e-003
16790	11.888	3.0909	5.e-002	5.4048
16791	12.164	3.0909	0.	2.7666e-003
16792	12.072	3.	0.	2.6126e-003
16793	12.072	3.0909	5.e-002	5.3275
16794	12.347	3.0909	0.	3.0489e-003
16795	12.255	3.	0.	2.8895e-003
16796	12.255	3.0909	5.e-002	5.26
16797	12.531	3.0909	0.	3.3741e-003
16798	12.439	3.	0.	3.1845e-003
16799	12.439	3.0909	5.e-002	5.2002
16800	12.714	3.0909	0.	3.7376e-003
16801	12.622	3.	0.	3.5466e-003
16802	12.622	3.0909	5.e-002	5.1468
16803	12.898	3.0909	0.	4.083e-003
16804	12.806	3.	0.	3.9168e-003
16805	12.806	3.0909	5.e-002	5.0987
16806	13.081	3.0909	0.	4.3981e-003
16807	12.989	3.	0.	4.241e-003
16808	12.989	3.0909	5.e-002	5.0548
16809	13.265	3.0909	0.	4.699e-003
16810	13.173	3.	0.	4.55e-003
16811	13.173	3.0909	5.e-002	5.0144
16812	13.448	3.0909	0.	4.9901e-003
16813	13.356	3.	0.	4.8452e-003
16814	13.356	3.0909	5.e-002	4.9769
16815	13.632	3.0909	0.	5.2952e-003
16816	13.54	3.	0.	5.1341e-003
16817	13.54	3.0909	5.e-002	4.9417
16818	13.815	3.0909	0.	5.6148e-003
16819	13.724	3.	0.	5.457e-003
16820	13.724	3.0909	5.e-002	4.9085
16821	13.999	3.0909	0.	5.9244e-003
16822	13.907	3.	0.	5.7744e-003
16823	13.907	3.0909	5.e-002	4.8772
16824	14.182	3.0909	0.	6.219e-003
16825	14.091	3.	0.	6.0757e-003
16826	14.091	3.0909	5.e-002	4.8473
16827	14.366	3.0909	0.	6.4854e-003
16828	14.274	3.	0.	6.362e-003
16829	14.274	3.0909	5.e-002	4.8186
16830	14.549	3.0909	0.	6.7339e-003
16831	14.458	3.	0.	6.6074e-003
16832	14.458	3.0909	5.e-002	4.7911
16833	14.733	3.0909	0.	7.007e-003
16834	14.641	3.	0.	6.8562e-003
16835	14.641	3.0909	5.e-002	4.7643
16836	14.916	3.0909	0.	7.3017e-003
16837	14.825	3.	0.	7.1487e-003
16838	14.825	3.0909	5.e-002	4.7384
16839	15.1	3.0909	0.	7.5962e-003
16840	15.008	3.	0.	7.438e-003
16841	15.008	3.0909	5.e-002	4.7134
16842	15.283	3.0909	0.	7.8962e-003
16843	15.192	3.	0.	7.7206e-003
16844	15.192	3.0909	5.e-002	4.689
16845	15.467	3.0909	0.	8.3398e-003
16846	15.375	3.	0.	7.9933e-003
16847	15.375	3.0909	5.e-002	4.6652
16848	15.65	3.0909	0.	1.274
16849	15.559	3.	0.	0.37656
16850	15.559	3.0909	5.e-002	4.642
16851	15.834	3.0909	0.	3.0077
16852	15.742	3.	0.	2.1453
16853	15.742	3.0909	5.e-002	4.6192
16854	16.017	3.0909	0.	4.6763
16855	15.926	3.	0.	3.8434
16856	15.926	3.0909	5.e-002	4.5969
16857	16.201	3.0909	0.	6.2911
16858	16.109	3.	0.	5.4821
16859	16.109	3.0909	5.e-002	4.5751
16860	16.384	3.0909	0.	7.8624
16861	16.293	3.	0.	7.0722
16862	16.293	3.0909	5.e-002	4.5537
16863	16.568	3.0909	0.	9.4007
16864	16.476	3.	0.	8.6242
16865	16.476	3.0909	5.e-002	4.5328
16866	16.751	3.0909	0.	10.916
16867	16.66	3.	0.	10.148
16868	16.66	3.0909	5.e-002	4.5122
16869	16.935	3.0909	0.	12.418
16870	16.843	3.	0.	11.654
16871	16.843	3.0909	5.e-002	4.492
16872	17.118	3.0909	0.	13.917
16873	17.027	3.	0.	13.152
16874	17.027	3.0909	5.e-002	4.4722
16875	17.302	3.0909	0.	15.422
16876	17.21	3.	0.	14.651
16877	17.21	3.0909	5.e-002	4.4527
16878	17.485	3.0909	0.	16.943
16879	17.394	3.	0.	16.162
16880	17.394	3.0909	5.e-002	4.4337
16881	17.669	3.0909	0.	18.49
16882	17.577	3.	0.	17.693
16883	17.577	3.0909	5.e-002	4.4151
16884	17.852	3.0909	0.	20.073
16885	17.761	3.	0.	19.255
16886	17.761	3.0909	5.e-002	4.3968
16887	18.036	3.0909	0.	21.701
16888	17.944	3.	0.	20.858
16889	17.944	3.0909	5.e-002	4.379
16890	18.219	3.0909	0.	23.386
16891	18.128	3.	0.	22.512
16892	18.128	3.0909	5.e-002	4.3616
16893	18.403	3.0909	0.	25.138
16894	18.311	3.	0.	24.227
16895	18.311	3.0909	5.e-002	4.3446
16896	18.586	3.0909	0.	26.968
16897	18.495	3.	0.	26.015
16898	18.495	3.0909	5.e-002	4.3281
16899	18.77	3.0909	0.	28.887
16900	18.678	3.	0.	27.886
16901	18.678	3.0909	5.e-002	4.3121
16902	18.954	3.0909	0.	30.909
16903	18.862	3.	0.	29.854
16904	18.862	3.0909	5.e-002	4.2966
16905	19.137	3.0909	0.	33.044
16906	19.045	3.	0.	31.929
16907	19.045	3.0909	5.e-002	4.2817
16908	19.321	3.0909	0.	35.308
16909	19.229	3.	0.	34.125
16910	19.229	3.0909	5.e-002	4.2674
16911	19.504	3.0909	0.	37.714
16912	19.412	3.	0.	36.456
16913	19.412	3.0909	5.e-002	4.2537
16914	19.688	3.0909	0.	40.276
16915	19.596	3.	0.	38.936
16916	19.596	3.0909	5.e-002	4.2407
16917	19.871	3.0909	0.	43.01
16918	19.779	3.	0.	41.581
16919	19.779	3.0909	5.e-002	4.2286
16920	20.055	3.0909	0.	45.932
16921	19.963	3.	0.	44.405
16922	19.963	3.0909	5.e-002	4.2173
16923	20.238	3.0909	0.	49.06
16924	20.146	3.	0.	47.426
16925	20.146	3.0909	5.e-002	4.2071
16926	20.422	3.0909	0.	52.412
16927	20.33	3.	0.	50.662
16928	20.33	3.0909	5.e-002	4.1978
16929	20.605	3.0909	0.	56.006
16930	20.513	3.	0.	54.13
16931	20.513	3.0909	5.e-002	4.1897
16932	20.789	3.0909	0.	59.862
16933	20.697	3.	0.	57.85
16934	20.697	3.0909	5.e-002	4.183
16935	20.972	3.0909	0.	64.
16936	20.88	3.	0.	61.842
16937	20.88	3.0909	5.e-002	4.1778
16938	21.156	3.0909	0.	68.441
16939	21.064	3.	0.	66.127
16940	21.064	3.0909	5.e-002	4.1742
16941	21.339	3.0909	0.	73.205
16942	21.247	3.	0.	70.725
16943	21.247	3.0909	5.e-002	4.1726
16944	21.523	3.0909	0.	78.314
16945	21.431	3.	0.	75.657
16946	21.431	3.0909	5.e-002	4.173
16947	21.706	3.0909	0.	83.789
16948	21.614	3.	0.	80.945
16949	21.614	3.0909	5.e-002	4.1758
16950	21.89	3.0909	0.	89.649
16951	21.798	3.	0.	86.608
16952	21.798	3.0909	5.e-002	4.1812
16953	22.073	3.0909	0.	95.914
16954	21.981	3.	0.	92.667
16955	21.981	3.0909	5.e-002	4.1896
16956	22.257	3.0909	0.	102.6
16957	22.165	3.	0.	99.139
16958	22.165	3.0909	5.e-002	4.2013
16959	22.44	3.0909	0.	109.72
16960	22.348	3.	0.	106.04
16961	22.348	3.0909	5.e-002	4.2165
16962	22.624	3.0909	0.	117.29
16963	22.532	3.	0.	113.38
16964	22.532	3.0909	5.e-002	4.2355
16965	22.807	3.0909	0.	125.32
16966	22.715	3.	0.	121.18
16967	22.715	3.0909	5.e-002	4.2586
16968	22.991	3.0909	0.	133.8
16969	22.899	3.	0.	129.44
16970	22.899	3.0909	5.e-002	4.286
16971	23.174	3.0909	0.	142.75
16972	23.082	3.	0.	138.15
16973	23.082	3.0909	5.e-002	4.3178
16974	23.358	3.0909	0.	152.16
16975	23.266	3.	0.	147.34
16976	23.266	3.0909	5.e-002	4.3539
16977	23.541	3.0909	0.	162.03
16978	23.449	3.	0.	156.96
16979	23.449	3.0909	5.e-002	4.3941
16980	23.725	3.0909	0.	172.28
16981	23.633	3.	0.	167.09
16982	23.633	3.0909	5.e-002	4.4382
16983	23.816	3.	0.	177.46
16984	23.816	3.0909	5.e-002	4.4907
16985	23.908	3.0909	0.	182.42
16986	6.8419	2.9091	0.	615.17
16987	6.7502	2.8182	0.	764.81
16988	6.7502	2.9091	5.e-002	47.958
16989	7.0254	2.9091	0.	333.05
16990	6.9337	2.8182	0.	466.41
16991	6.9337	2.9091	5.e-002	64.341
16992	7.2089	2.9091	0.	74.702
16993	7.1172	2.8182	0.	175.78
16994	7.1172	2.9091	5.e-002	68.202
16995	7.3925	2.9091	0.	1.3041
16996	7.3007	2.8182	0.	1.5931
16997	7.3007	2.9091	5.e-002	63.733
16998	7.576	2.9091	0.	1.1449
16999	7.4842	2.8182	0.	1.2665
17000	7.4842	2.9091	5.e-002	55.71
17001	7.7595	2.9091	0.	0.90867
17002	7.6677	2.8182	0.	1.0196
17003	7.6677	2.9091	5.e-002	47.094
17004	7.943	2.9091	0.	0.68624
17005	7.8512	2.8182	0.	0.77502
17006	7.8512	2.9091	5.e-002	39.24
17007	8.1265	2.9091	0.	0.50415
17008	8.0347	2.8182	0.	0.57443
17009	8.0347	2.9091	5.e-002	32.581
17010	8.31	2.9091	0.	0.36537
17011	8.2182	2.8182	0.	0.41963
17012	8.2182	2.9091	5.e-002	27.128
17013	8.4935	2.9091	0.	0.26306
17014	8.4018	2.8182	0.	0.30431
17015	8.4018	2.9091	5.e-002	22.737
17016	8.677	2.9091	0.	0.1888
17017	8.5853	2.8182	0.	0.21987
17018	8.5853	2.9091	5.e-002	19.23
17019	8.8605	2.9091	0.	0.13523
17020	8.7688	2.8182	0.	0.15851
17021	8.7688	2.9091	5.e-002	16.437
17022	9.044	2.9091	0.	9.6686e-002
17023	8.9523	2.8182	0.	0.11408
17024	8.9523	2.9091	5.e-002	14.213
17025	9.2275	2.9091	0.	6.8963e-002
17026	9.1358	2.8182	0.	8.1931e-002
17027	9.1358	2.9091	5.e-002	12.441
17028	9.4111	2.9091	0.	4.9025e-002
17029	9.3193	2.8182	0.	5.8686e-002
17030	9.3193	2.9091	5.e-002	11.028
17031	9.5946	2.9091	0.	3.4701e-002
17032	9.5028	2.8182	0.	4.1885e-002
17033	9.5028	2.9091	5.e-002	9.8975
17034	9.7781	2.9091	0.	2.4435e-002
17035	9.6863	2.8182	0.	2.9773e-002
17036	9.6863	2.9091	5.e-002	8.992
17037	9.9616	2.9091	0.	1.7102e-002
17038	9.8698	2.8182	0.	2.1061e-002
17039	9.8698	2.9091	5.e-002	8.2646
17040	10.145	2.9091	0.	1.1918e-002
17041	10.053	2.8182	0.	1.4826e-002
17042	10.053	2.9091	5.e-002	7.6787
17043	10.329	2.9091	0.	8.3102e-003
17044	10.237	2.8182	0.	1.0438e-002
17045	10.237	2.9091	5.e-002	7.2051
17046	10.512	2.9091	0.	5.8416e-003
17047	10.42	2.8182	0.	7.3862e-003
17048	10.42	2.9091	5.e-002	6.821
17049	10.696	2.9091	0.	4.1914e-003
17050	10.604	2.8182	0.	5.3082e-003
17051	10.604	2.9091	5.e-002	6.5082
17052	10.879	2.9091	0.	3.1071e-003
17053	10.787	2.8182	0.	3.9222e-003
17054	10.787	2.9091	5.e-002	6.2521
17055	11.063	2.9091	0.	2.4353e-003
17056	10.971	2.8182	0.	3.0008e-003
17057	10.971	2.9091	5.e-002	6.0413
17058	11.246	2.9091	0.	2.111e-003
17059	11.154	2.8182	0.	2.462e-003
17060	11.154	2.9091	5.e-002	5.8665
17061	11.43	2.9091	0.	2.0386e-003
17062	11.338	2.8182	0.	2.2542e-003
17063	11.338	2.9091	5.e-002	5.7207
17064	11.613	2.9091	0.	2.1157e-003
17065	11.521	2.8182	0.	2.2346e-003
17066	11.521	2.9091	5.e-002	5.598
17067	11.797	2.9091	0.	2.2855e-003
17068	11.705	2.8182	0.	2.3401e-003
17069	11.705	2.9091	5.e-002	5.4939
17070	11.98	2.9091	0.	2.5086e-003
17071	11.888	2.8182	0.	2.5173e-003
17072	11.888	2.9091	5.e-002	5.4048
17073	12.164	2.9091	0.	2.7664e-003
17074	12.072	2.8182	0.	2.738e-003
17075	12.072	2.9091	5.e-002	5.3275
17076	12.347	2.9091	0.	3.0484e-003
17077	12.255	2.8182	0.	2.9923e-003
17078	12.255	2.9091	5.e-002	5.26
17079	12.531	2.9091	0.	3.3741e-003
17080	12.439	2.8182	0.	3.2682e-003
17081	12.439	2.9091	5.e-002	5.2002
17082	12.714	2.9091	0.	3.7379e-003
17083	12.622	2.8182	0.	3.6147e-003
17084	12.622	2.9091	5.e-002	5.1468
17085	12.898	2.9091	0.	4.083e-003
17086	12.806	2.8182	0.	3.9719e-003
17087	12.806	2.9091	5.e-002	5.0987
17088	13.081	2.9091	0.	4.398e-003
17089	12.989	2.8182	0.	4.285e-003
17090	12.989	2.9091	5.e-002	5.0548
17091	13.265	2.9091	0.	4.6989e-003
17092	13.173	2.8182	0.	4.5852e-003
17093	13.173	2.9091	5.e-002	5.0144
17094	13.448	2.9091	0.	4.9902e-003
17095	13.356	2.8182	0.	4.8728e-003
17096	13.356	2.9091	5.e-002	4.9769
17097	13.632	2.9091	0.	5.2957e-003
17098	13.54	2.8182	0.	5.1568e-003
17099	13.54	2.9091	5.e-002	4.9417
17100	13.815	2.9091	0.	5.6157e-003
17101	13.724	2.8182	0.	5.476e-003
17102	13.724	2.9091	5.e-002	4.9085
17103	13.999	2.9091	0.	5.9247e-003
17104	13.907	2.8182	0.	5.79e-003
17105	13.907	2.9091	5.e-002	4.8772
17106	14.182	2.9091	0.	6.2182e-003
17107	14.091	2.8182	0.	6.09e-003
17108	14.091	2.9091	5.e-002	4.8472
17109	14.366	2.9091	0.	6.485e-003
17110	14.274	2.8182	0.	6.3767e-003
17111	14.274	2.9091	5.e-002	4.8186
17112	14.549	2.9091	0.	6.7334e-003
17113	14.458	2.8182	0.	6.6252e-003
17114	14.458	2.9091	5.e-002	4.7911
17115	14.733	2.9091	0.	7.0063e-003
17116	14.641	2.8182	0.	6.8796e-003
17117	14.641	2.9091	5.e-002	4.7643
17118	14.916	2.9091	0.	7.3018e-003
17119	14.825	2.8182	0.	7.1838e-003
17120	14.825	2.9091	5.e-002	4.7384
17121	15.1	2.9091	0.	7.5961e-003
17122	15.008	2.8182	0.	7.4964e-003
17123	15.008	2.9091	5.e-002	4.7134
17124	15.283	2.9091	0.	7.8961e-003
17125	15.192	2.8182	0.	7.8328e-003
17126	15.192	2.9091	5.e-002	4.689
17127	15.467	2.9091	0.	8.3402e-003
17128	15.375	2.8182	0.	8.3056e-003
17129	15.375	2.9091	5.e-002	4.6652
17130	15.65	2.9091	0.	1.274
17131	15.559	2.8182	0.	0.43917
17132	15.559	2.9091	5.e-002	4.642
17133	15.834	2.9091	0.	3.0077
17134	15.742	2.8182	0.	2.1999
17135	15.742	2.9091	5.e-002	4.6192
17136	16.017	2.9091	0.	4.6763
17137	15.926	2.8182	0.	3.8911
17138	15.926	2.9091	5.e-002	4.5969
17139	16.201	2.9091	0.	6.2911
17140	16.109	2.8182	0.	5.5234
17141	16.109	2.9091	5.e-002	4.5751
17142	16.384	2.9091	0.	7.8624
17143	16.293	2.8182	0.	7.1073
17144	16.293	2.9091	5.e-002	4.5537
17145	16.568	2.9091	0.	9.4007
17146	16.476	2.8182	0.	8.6533
17147	16.476	2.9091	5.e-002	4.5328
17148	16.751	2.9091	0.	10.916
17149	16.66	2.8182	0.	10.171
17150	16.66	2.9091	5.e-002	4.5122
17151	16.935	2.9091	0.	12.418
17152	16.843	2.8182	0.	11.672
17153	16.843	2.9091	5.e-002	4.492
17154	17.118	2.9091	0.	13.917
17155	17.027	2.8182	0.	13.164
17156	17.027	2.9091	5.e-002	4.4722
17157	17.302	2.9091	0.	15.422
17158	17.21	2.8182	0.	14.657
17159	17.21	2.9091	5.e-002	4.4527
17160	17.485	2.9091	0.	16.943
17161	17.394	2.8182	0.	16.162
17162	17.394	2.9091	5.e-002	4.4337
17163	17.669	2.9091	0.	18.49
17164	17.577	2.8182	0.	17.687
17165	17.577	2.9091	5.e-002	4.4151
17166	17.852	2.9091	0.	20.073
17167	17.761	2.8182	0.	19.243
17168	17.761	2.9091	5.e-002	4.3968
17169	18.036	2.9091	0.	21.701
17170	17.944	2.8182	0.	20.839
17171	17.944	2.9091	5.e-002	4.379
17172	18.219	2.9091	0.	23.386
17173	18.128	2.8182	0.	22.486
17174	18.128	2.9091	5.e-002	4.3616
17175	18.403	2.9091	0.	25.138
17176	18.311	2.8182	0.	24.194
17177	18.311	2.9091	5.e-002	4.3446
17178	18.586	2.9091	0.	26.968
17179	18.495	2.8182	0.	25.975
17180	18.495	2.9091	5.e-002	4.3281
17181	18.77	2.9091	0.	28.887
17182	18.678	2.8182	0.	27.838
17183	18.678	2.9091	5.e-002	4.3121
17184	18.954	2.9091	0.	30.909
17185	18.862	2.8182	0.	29.797
17186	18.862	2.9091	5.e-002	4.2966
17187	19.137	2.9091	0.	33.044
17188	19.045	2.8182	0.	31.864
17189	19.045	2.9091	5.e-002	4.2817
17190	19.321	2.9091	0.	35.308
17191	19.229	2.8182	0.	34.05
17192	19.229	2.9091	5.e-002	4.2674
17193	19.504	2.9091	0.	37.714
17194	19.412	2.8182	0.	36.371
17195	19.412	2.9091	5.e-002	4.2537
17196	19.688	2.9091	0.	40.276
17197	19.596	2.8182	0.	38.84
17198	19.596	2.9091	5.e-002	4.2407
17199	19.871	2.9091	0.	43.01
17200	19.779	2.8182	0.	41.472
17201	19.779	2.9091	5.e-002	4.2286
17202	20.055	2.9091	0.	45.932
17203	19.963	2.8182	0.	44.283
17204	19.963	2.9091	5.e-002	4.2174
17205	20.238	2.9091	0.	49.06
17206	20.146	2.8182	0.	47.29
17207	20.146	2.9091	5.e-002	4.207
17208	20.422	2.9091	0.	52.412
17209	20.33	2.8182	0.	50.511
17210	20.33	2.9091	5.e-002	4.1978
17211	20.605	2.9091	0.	56.006
17212	20.513	2.8182	0.	53.963
17213	20.513	2.9091	5.e-002	4.1897
17214	20.789	2.9091	0.	59.862
17215	20.697	2.8182	0.	57.667
17216	20.697	2.9091	5.e-002	4.183
17217	20.972	2.9091	0.	64.
17218	20.88	2.8182	0.	61.641
17219	20.88	2.9091	5.e-002	4.1778
17220	21.156	2.9091	0.	68.441
17221	21.064	2.8182	0.	65.906
17222	21.064	2.9091	5.e-002	4.1742
17223	21.339	2.9091	0.	73.205
17224	21.247	2.8182	0.	70.484
17225	21.247	2.9091	5.e-002	4.1726
17226	21.523	2.9091	0.	78.314
17227	21.431	2.8182	0.	75.396
17228	21.431	2.9091	5.e-002	4.173
17229	21.706	2.9091	0.	83.789
17230	21.614	2.8182	0.	80.662
17231	21.614	2.9091	5.e-002	4.1758
17232	21.89	2.9091	0.	89.649
17233	21.798	2.8182	0.	86.303
17234	21.798	2.9091	5.e-002	4.1812
17235	22.073	2.9091	0.	95.914
17236	21.981	2.8182	0.	92.339
17237	21.981	2.9091	5.e-002	4.1896
17238	22.257	2.9091	0.	102.6
17239	22.165	2.8182	0.	98.789
17240	22.165	2.9091	5.e-002	4.2013
17241	22.44	2.9091	0.	109.72
17242	22.348	2.8182	0.	105.67
17243	22.348	2.9091	5.e-002	4.2165
17244	22.624	2.9091	0.	117.29
17245	22.532	2.8182	0.	112.99
17246	22.532	2.9091	5.e-002	4.2355
17247	22.807	2.9091	0.	125.32
17248	22.715	2.8182	0.	120.77
17249	22.715	2.9091	5.e-002	4.2586
17250	22.991	2.9091	0.	133.8
17251	22.899	2.8182	0.	129.01
17252	22.899	2.9091	5.e-002	4.286
17253	23.174	2.9091	0.	142.75
17254	23.082	2.8182	0.	137.72
17255	23.082	2.9091	5.e-002	4.3178
17256	23.358	2.9091	0.	152.16
17257	23.266	2.8182	0.	146.89
17258	23.266	2.9091	5.e-002	4.3539
17259	23.541	2.9091	0.	162.03
17260	23.449	2.8182	0.	156.51
17261	23.449	2.9091	5.e-002	4.3941
17262	23.725	2.9091	0.	172.28
17263	23.633	2.8182	0.	166.63
17264	23.633	2.9091	5.e-002	4.4382
17265	23.816	2.8182	0.	176.99
17266	23.816	2.9091	5.e-002	4.4907
17267	23.908	2.9091	0.	182.42
17268	6.8419	2.7273	0.	623.88
17269	6.7502	2.6364	0.	798.64
17270	6.7502	2.7273	5.e-002	60.876
17271	7.0254	2.7273	0.	319.79
17272	6.9337	2.6364	0.	453.14
17273	6.9337	2.7273	5.e-002	76.27
17274	7.2089	2.7273	0.	57.011
17275	7.1172	2.6364	0.	147.01
17276	7.1172	2.7273	5.e-002	74.877
17277	7.3925	2.7273	0.	1.4377
17278	7.3007	2.6364	0.	1.8969
17279	7.3007	2.7273	5.e-002	66.059
17280	7.576	2.7273	0.	1.1376
17281	7.4842	2.6364	0.	1.3078
17282	7.4842	2.7273	5.e-002	55.836
17283	7.7595	2.7273	0.	0.88955
17284	7.6677	2.6364	0.	0.98656
17285	7.6677	2.7273	5.e-002	46.403
17286	7.943	2.7273	0.	0.66891
17287	7.8512	2.6364	0.	0.75321
17288	7.8512	2.7273	5.e-002	38.39
17289	8.1265	2.7273	0.	0.49575
17290	8.0347	2.6364	0.	0.56266
17291	8.0347	2.7273	5.e-002	31.817
17292	8.31	2.7273	0.	0.36379
17293	8.2182	2.6364	0.	0.41803
17294	8.2182	2.7273	5.e-002	26.511
17295	8.4935	2.7273	0.	0.2655
17296	8.4018	2.6364	0.	0.30865
17297	8.4018	2.7273	5.e-002	22.261
17298	8.677	2.7273	0.	0.19315
17299	8.5853	2.6364	0.	0.2271
17300	8.5853	2.7273	5.e-002	18.867
17301	8.8605	2.7273	0.	0.1402
17302	8.7688	2.6364	0.	0.16664
17303	8.7688	2.7273	5.e-002	16.161
17304	9.044	2.7273	0.	0.10156
17305	8.9523	2.6364	0.	0.12201
17306	8.9523	2.7273	5.e-002	14.002
17307	9.2275	2.7273	0.	7.3405e-002
17308	9.1358	2.6364	0.	8.9146e-002
17309	9.1358	2.7273	5.e-002	12.279
17310	9.4111	2.7273	0.	5.2912e-002
17311	9.3193	2.6364	0.	6.4989e-002
17312	9.3193	2.7273	5.e-002	10.901
17313	9.5946	2.7273	0.	3.8019e-002
17314	9.5028	2.6364	0.	4.726e-002
17315	9.5028	2.7273	5.e-002	9.7973
17316	9.7781	2.7273	0.	2.7225e-002
17317	9.6863	2.6364	0.	3.429e-002
17318	9.6863	2.7273	5.e-002	8.9121
17319	9.9616	2.7273	0.	1.9427e-002
17320	9.8698	2.6364	0.	2.4822e-002
17321	9.8698	2.7273	5.e-002	8.2004
17322	10.145	2.7273	0.	1.3846e-002
17323	10.053	2.6364	0.	1.7941e-002
17324	10.053	2.7273	5.e-002	7.6267
17325	10.329	2.7273	0.	9.9034e-003
17326	10.237	2.6364	0.	1.301e-002
17327	10.237	2.7273	5.e-002	7.163
17328	10.512	2.7273	0.	7.156e-003
17329	10.42	2.6364	0.	9.5069e-003
17330	10.42	2.7273	5.e-002	6.7868
17331	10.696	2.7273	0.	5.2754e-003
17332	10.604	2.6364	0.	7.055e-003
17333	10.604	2.7273	5.e-002	6.4803
17334	10.879	2.7273	0.	4.0002e-003
17335	10.787	2.6364	0.	5.3621e-003
17336	10.787	2.7273	5.e-002	6.2294
17337	11.063	2.7273	0.	3.1713e-003
17338	10.971	2.6364	0.	4.1866e-003
17339	10.971	2.7273	5.e-002	6.0229
17340	11.246	2.7273	0.	2.7174e-003
17341	11.154	2.6364	0.	3.4391e-003
17342	11.154	2.7273	5.e-002	5.8516
17343	11.43	2.7273	0.	2.5376e-003
17344	11.338	2.6364	0.	3.0595e-003
17345	11.338	2.7273	5.e-002	5.7085
17346	11.613	2.7273	0.	2.5269e-003
17347	11.521	2.6364	0.	2.898e-003
17348	11.521	2.7273	5.e-002	5.5882
17349	11.797	2.7273	0.	2.6243e-003
17350	11.705	2.6364	0.	2.8862e-003
17351	11.705	2.7273	5.e-002	5.486
17352	11.98	2.7273	0.	2.7869e-003
17353	11.888	2.6364	0.	2.967e-003
17354	11.888	2.7273	5.e-002	5.3983
17355	12.164	2.7273	0.	2.9945e-003
17356	12.072	2.6364	0.	3.1069e-003
17357	12.072	2.7273	5.e-002	5.3224
17358	12.347	2.7273	0.	3.2351e-003
17359	12.255	2.6364	0.	3.2937e-003
17360	12.255	2.7273	5.e-002	5.2558
17361	12.531	2.7273	0.	3.5257e-003
17362	12.439	2.6364	0.	3.515e-003
17363	12.439	2.7273	5.e-002	5.1968
17364	12.714	2.7273	0.	3.8606e-003
17365	12.622	2.6364	0.	3.8142e-003
17366	12.622	2.7273	5.e-002	5.144
17367	12.898	2.7273	0.	4.182e-003
17368	12.806	2.6364	0.	4.1336e-003
17369	12.806	2.7273	5.e-002	5.0964
17370	13.081	2.7273	0.	4.4772e-003
17371	12.989	2.6364	0.	4.4145e-003
17372	12.989	2.7273	5.e-002	5.053
17373	13.265	2.7273	0.	4.7616e-003
17374	13.173	2.6364	0.	4.689e-003
17375	13.173	2.7273	5.e-002	5.0129
17376	13.448	2.7273	0.	5.0402e-003
17377	13.356	2.6364	0.	4.9553e-003
17378	13.356	2.7273	5.e-002	4.9756
17379	13.632	2.7273	0.	5.3366e-003
17380	13.54	2.6364	0.	5.2239e-003
17381	13.54	2.7273	5.e-002	4.9406
17382	13.815	2.7273	0.	5.6491e-003
17383	13.724	2.6364	0.	5.5297e-003
17384	13.724	2.7273	5.e-002	4.9077
17385	13.999	2.7273	0.	5.954e-003
17386	13.907	2.6364	0.	5.8356e-003
17387	13.907	2.7273	5.e-002	4.8764
17388	14.182	2.7273	0.	6.2477e-003
17389	14.091	2.6364	0.	6.1329e-003
17390	14.091	2.7273	5.e-002	4.8466
17391	14.366	2.7273	0.	6.5175e-003
17392	14.274	2.6364	0.	6.4215e-003
17393	14.274	2.7273	5.e-002	4.8181
17394	14.549	2.7273	0.	6.7744e-003
17395	14.458	2.6364	0.	6.6789e-003
17396	14.458	2.7273	5.e-002	4.7906
17397	14.733	2.7273	0.	7.0642e-003
17398	14.641	2.6364	0.	6.9543e-003
17399	14.641	2.7273	5.e-002	4.7639
17400	14.916	2.7273	0.	7.3924e-003
17401	14.825	2.6364	0.	7.2962e-003
17402	14.825	2.7273	5.e-002	4.7381
17403	15.1	2.7273	0.	7.7577e-003
17404	15.008	2.6364	0.	7.6845e-003
17405	15.008	2.7273	5.e-002	4.713
17406	15.283	2.7273	0.	8.2532e-003
17407	15.192	2.6364	0.	8.2037e-003
17408	15.192	2.7273	5.e-002	4.6887
17409	15.467	2.7273	0.	1.0701e-002
17410	15.375	2.6364	0.	9.4609e-003
17411	15.375	2.7273	5.e-002	4.6649
17412	15.65	2.7273	0.	1.3905
17413	15.559	2.6364	0.	0.62522
17414	15.559	2.7273	5.e-002	4.6417
17415	15.834	2.7273	0.	3.11
17416	15.742	2.6364	0.	2.3633
17417	15.742	2.7273	5.e-002	4.619
17418	16.017	2.7273	0.	4.7654
17419	15.926	2.6364	0.	4.0342
17420	15.926	2.7273	5.e-002	4.5967
17421	16.201	2.7273	0.	6.3675
17422	16.109	2.6364	0.	5.6472
17423	16.109	2.7273	5.e-002	4.5749
17424	16.384	2.7273	0.	7.9267
17425	16.293	2.6364	0.	7.2126
17426	16.293	2.7273	5.e-002	4.5535
17427	16.568	2.7273	0.	9.4531
17428	16.476	2.6364	0.	8.7407
17429	16.476	2.7273	5.e-002	4.5326
17430	16.751	2.7273	0.	10.957
17431	16.66	2.6364	0.	10.241
17432	16.66	2.7273	5.e-002	4.512
17433	16.935	2.7273	0.	12.447
17434	16.843	2.6364	0.	11.724
17435	16.843	2.7273	5.e-002	4.4919
17436	17.118	2.7273	0.	13.934
17437	17.027	2.6364	0.	13.199
17438	17.027	2.7273	5.e-002	4.472
17439	17.302	2.7273	0.	15.428
17440	17.21	2.6364	0.	14.675
17441	17.21	2.7273	5.e-002	4.4526
17442	17.485	2.7273	0.	16.937
17443	17.394	2.6364	0.	16.162
17444	17.394	2.7273	5.e-002	4.4335
17445	17.669	2.7273	0.	18.472
17446	17.577	2.6364	0.	17.669
17447	17.577	2.7273	5.e-002	4.4149
17448	17.852	2.7273	0.	20.042
17449	17.761	2.6364	0.	19.206
17450	17.761	2.7273	5.e-002	4.3967
17451	18.036	2.7273	0.	21.657
17452	17.944	2.6364	0.	20.784
17453	17.944	2.7273	5.e-002	4.3789
17454	18.219	2.7273	0.	23.328
17455	18.128	2.6364	0.	22.41
17456	18.128	2.7273	5.e-002	4.3614
17457	18.403	2.7273	0.	25.065
17458	18.311	2.6364	0.	24.098
17459	18.311	2.7273	5.e-002	4.3444
17460	18.586	2.7273	0.	26.88
17461	18.495	2.6364	0.	25.856
17462	18.495	2.7273	5.e-002	4.3279
17463	18.77	2.7273	0.	28.783
17464	18.678	2.6364	0.	27.696
17465	18.678	2.7273	5.e-002	4.3119
17466	18.954	2.7273	0.	30.787
17467	18.862	2.6364	0.	29.629
17468	18.862	2.7273	5.e-002	4.2964
17469	19.137	2.7273	0.	32.904
17470	19.045	2.6364	0.	31.669
17471	19.045	2.7273	5.e-002	4.2815
17472	19.321	2.7273	0.	35.147
17473	19.229	2.6364	0.	33.826
17474	19.229	2.7273	5.e-002	4.2672
17475	19.504	2.7273	0.	37.531
17476	19.412	2.6364	0.	36.116
17477	19.412	2.7273	5.e-002	4.2535
17478	19.688	2.7273	0.	40.07
17479	19.596	2.6364	0.	38.551
17480	19.596	2.7273	5.e-002	4.2405
17481	19.871	2.7273	0.	42.779
17482	19.779	2.6364	0.	41.147
17483	19.779	2.7273	5.e-002	4.2283
17484	20.055	2.7273	0.	45.675
17485	19.963	2.6364	0.	43.92
17486	19.963	2.7273	5.e-002	4.2171
17487	20.238	2.7273	0.	48.774
17488	20.146	2.6364	0.	46.886
17489	20.146	2.7273	5.e-002	4.2067
17490	20.422	2.7273	0.	52.095
17491	20.33	2.6364	0.	50.062
17492	20.33	2.7273	5.e-002	4.1974
17493	20.605	2.7273	0.	55.656
17494	20.513	2.6364	0.	53.466
17495	20.513	2.7273	5.e-002	4.1893
17496	20.789	2.7273	0.	59.477
17497	20.697	2.6364	0.	57.118
17498	20.697	2.7273	5.e-002	4.1825
17499	20.972	2.7273	0.	63.578
17500	20.88	2.6364	0.	61.038
17501	20.88	2.7273	5.e-002	4.1772
17502	21.156	2.7273	0.	67.979
17503	21.064	2.6364	0.	65.246
17504	21.064	2.7273	5.e-002	4.1736
17505	21.339	2.7273	0.	72.703
17506	21.247	2.6364	0.	69.764
17507	21.247	2.7273	5.e-002	4.1718
17508	21.523	2.7273	0.	77.769
17509	21.431	2.6364	0.	74.613
17510	21.431	2.7273	5.e-002	4.1722
17511	21.706	2.7273	0.	83.201
17512	21.614	2.6364	0.	79.814
17513	21.614	2.7273	5.e-002	4.1748
17514	21.89	2.7273	0.	89.017
17515	21.798	2.6364	0.	85.389
17516	21.798	2.7273	5.e-002	4.1801
17517	22.073	2.7273	0.	95.237
17518	21.981	2.6364	0.	91.359
17519	21.981	2.7273	5.e-002	4.1884
17520	22.257	2.7273	0.	101.88
17521	22.165	2.6364	0.	97.743
17522	22.165	2.7273	5.e-002	4.1999
17523	22.44	2.7273	0.	108.96
17524	22.348	2.6364	0.	104.56
17525	22.348	2.7273	5.e-002	4.215
17526	22.624	2.7273	0.	116.49
17527	22.532	2.6364	0.	111.82
17528	22.532	2.7273	5.e-002	4.2339
17529	22.807	2.7273	0.	124.48
17530	22.715	2.6364	0.	119.55
17531	22.715	2.7273	5.e-002	4.257
17532	22.991	2.7273	0.	132.94
17533	22.899	2.6364	0.	127.74
17534	22.899	2.7273	5.e-002	4.2844
17535	23.174	2.7273	0.	141.86
17536	23.082	2.6364	0.	136.4
17537	23.082	2.7273	5.e-002	4.3162
17538	23.358	2.7273	0.	151.25
17539	23.266	2.6364	0.	145.54
17540	23.266	2.7273	5.e-002	4.3526
17541	23.541	2.7273	0.	161.11
17542	23.449	2.6364	0.	155.13
17543	23.449	2.7273	5.e-002	4.3931
17544	23.725	2.7273	0.	171.35
17545	23.633	2.6364	0.	165.24
17546	23.633	2.7273	5.e-002	4.4377
17547	23.816	2.6364	0.	175.6
17548	23.816	2.7273	5.e-002	4.4924
17549	23.908	2.7273	0.	181.48
17550	6.8419	2.5455	0.	638.12
17551	6.7502	2.4545	0.	866.87
17552	6.7502	2.5455	5.e-002	98.286
17553	7.0254	2.5455	0.	293.67
17554	6.9337	2.4545	0.	420.04
17555	6.9337	2.5455	5.e-002	103.93
17556	7.2089	2.5455	0.	27.14
17557	7.1172	2.4545	0.	108.54
17558	7.1172	2.5455	5.e-002	86.042
17559	7.3925	2.5455	0.	1.5865
17560	7.3007	2.4545	0.	1.6314
17561	7.3007	2.5455	5.e-002	69.114
17562	7.576	2.5455	0.	1.1619
17563	7.4842	2.4545	0.	1.3815
17564	7.4842	2.5455	5.e-002	55.279
17565	7.7595	2.5455	0.	0.86261
17566	7.6677	2.4545	0.	1.0014
17567	7.6677	2.5455	5.e-002	44.758
17568	7.943	2.5455	0.	0.6582
17569	7.8512	2.4545	0.	0.75725
17570	7.8512	2.5455	5.e-002	36.671
17571	8.1265	2.5455	0.	0.49401
17572	8.0347	2.4545	0.	0.57468
17573	8.0347	2.5455	5.e-002	30.344
17574	8.31	2.5455	0.	0.36997
17575	8.2182	2.4545	0.	0.43331
17576	8.2182	2.5455	5.e-002	25.337
17577	8.4935	2.5455	0.	0.2757
17578	8.4018	2.4545	0.	0.3264
17579	8.4018	2.5455	5.e-002	21.353
17580	8.677	2.5455	0.	0.20476
17581	8.5853	2.4545	0.	0.24483
17582	8.5853	2.5455	5.e-002	18.173
17583	8.8605	2.5455	0.	0.15165
17584	8.7688	2.4545	0.	0.18319
17585	8.7688	2.5455	5.e-002	15.629
17586	9.044	2.5455	0.	0.11204
17587	8.9523	2.4545	0.	0.13672
17588	8.9523	2.5455	5.e-002	13.592
17589	9.2275	2.5455	0.	8.2604e-002
17590	9.1358	2.4545	0.	0.10184
17591	9.1358	2.5455	5.e-002	11.96
17592	9.4111	2.5455	0.	6.0776e-002
17593	9.3193	2.4545	0.	7.5723e-002
17594	9.3193	2.5455	5.e-002	10.65
17595	9.5946	2.5455	0.	4.4636e-002
17596	9.5028	2.4545	0.	5.6225e-002
17597	9.5028	2.5455	5.e-002	9.5983
17598	9.7781	2.5455	0.	3.2737e-002
17599	9.6863	2.4545	0.	4.1718e-002
17600	9.6863	2.5455	5.e-002	8.7528
17601	9.9616	2.5455	0.	2.3991e-002
17602	9.8698	2.4545	0.	3.0947e-002
17603	9.8698	2.5455	5.e-002	8.072
17604	10.145	2.5455	0.	1.7612e-002
17605	10.053	2.4545	0.	2.298e-002
17606	10.053	2.5455	5.e-002	7.5228
17607	10.329	2.5455	0.	1.3005e-002
17608	10.237	2.4545	0.	1.7151e-002
17609	10.237	2.5455	5.e-002	7.0785
17610	10.512	2.5455	0.	9.7092e-003
17611	10.42	2.4545	0.	1.2909e-002
17612	10.42	2.5455	5.e-002	6.7181
17613	10.696	2.5455	0.	7.3772e-003
17614	10.604	2.4545	0.	9.8507e-003
17615	10.604	2.5455	5.e-002	6.4245
17616	10.879	2.5455	0.	5.7314e-003
17617	10.787	2.4545	0.	7.6623e-003
17618	10.787	2.5455	5.e-002	6.1841
17619	11.063	2.5455	0.	4.5967e-003
17620	10.971	2.4545	0.	6.0801e-003
17621	10.971	2.5455	5.e-002	5.9861
17622	11.246	2.5455	0.	3.8919e-003
17623	11.154	2.4545	0.	4.9984e-003
17624	11.154	2.5455	5.e-002	5.8218
17625	11.43	2.5455	0.	3.5059e-003
17626	11.338	2.4545	0.	4.3447e-003
17627	11.338	2.5455	5.e-002	5.6844
17628	11.613	2.5455	0.	3.324e-003
17629	11.521	2.4545	0.	3.9571e-003
17630	11.521	2.5455	5.e-002	5.5687
17631	11.797	2.5455	0.	3.2803e-003
17632	11.705	2.4545	0.	3.7576e-003
17633	11.705	2.5455	5.e-002	5.4702
17634	11.98	2.5455	0.	3.3263e-003
17635	11.888	2.4545	0.	3.6837e-003
17636	11.888	2.5455	5.e-002	5.3856
17637	12.164	2.5455	0.	3.4359e-003
17638	12.072	2.4545	0.	3.6948e-003
17639	12.072	2.5455	5.e-002	5.3121
17640	12.347	2.5455	0.	3.5958e-003
17641	12.255	2.4545	0.	3.7748e-003
17642	12.255	2.5455	5.e-002	5.2475
17643	12.531	2.5455	0.	3.8196e-003
17644	12.439	2.4545	0.	3.9073e-003
17645	12.439	2.5455	5.e-002	5.1901
17646	12.714	2.5455	0.	4.0983e-003
17647	12.622	2.4545	0.	4.1323e-003
17648	12.622	2.5455	5.e-002	5.1386
17649	12.898	2.5455	0.	4.3735e-003
17650	12.806	2.4545	0.	4.39e-003
17651	12.806	2.5455	5.e-002	5.0919
17652	13.081	2.5455	0.	4.6306e-003
17653	12.989	2.4545	0.	4.6213e-003
17654	12.989	2.5455	5.e-002	5.0493
17655	13.265	2.5455	0.	4.8845e-003
17656	13.173	2.4545	0.	4.8534e-003
17657	13.173	2.5455	5.e-002	5.0099
17658	13.448	2.5455	0.	5.1391e-003
17659	13.356	2.4545	0.	5.087e-003
17660	13.356	2.5455	5.e-002	4.9731
17661	13.632	2.5455	0.	5.4157e-003
17662	13.54	2.4545	0.	5.3281e-003
17663	13.54	2.5455	5.e-002	4.9386
17664	13.815	2.5455	0.	5.7142e-003
17665	13.724	2.4545	0.	5.6154e-003
17666	13.724	2.5455	5.e-002	4.9059
17667	13.999	2.5455	0.	6.0123e-003
17668	13.907	2.4545	0.	5.9098e-003
17669	13.907	2.5455	5.e-002	4.8749
17670	14.182	2.5455	0.	6.3048e-003
17671	14.091	2.4545	0.	6.203e-003
17672	14.091	2.5455	5.e-002	4.8454
17673	14.366	2.5455	0.	6.5819e-003
17674	14.274	2.4545	0.	6.4977e-003
17675	14.274	2.5455	5.e-002	4.817
17676	14.549	2.5455	0.	6.8594e-003
17677	14.458	2.4545	0.	6.7739e-003
17678	14.458	2.5455	5.e-002	4.7896
17679	14.733	2.5455	0.	7.1894e-003
17680	14.641	2.4545	0.	7.0871e-003
17681	14.641	2.5455	5.e-002	4.7631
17682	14.916	2.5455	0.	7.5932e-003
17683	14.825	2.4545	0.	7.5044e-003
17684	14.825	2.5455	5.e-002	4.7374
17685	15.1	2.5455	0.	8.1227e-003
17686	15.008	2.4545	0.	8.0461e-003
17687	15.008	2.5455	5.e-002	4.7124
17688	15.283	2.5455	0.	9.128e-003
17689	15.192	2.4545	0.	8.9636e-003
17690	15.192	2.5455	5.e-002	4.6881
17691	15.467	2.5455	0.	2.5606e-002
17692	15.375	2.4545	0.	1.2618e-002
17693	15.375	2.5455	5.e-002	4.6644
17694	15.65	2.5455	0.	1.6226
17695	15.559	2.4545	0.	0.93221
17696	15.559	2.5455	5.e-002	4.6412
17697	15.834	2.5455	0.	3.3141
17698	15.742	2.4545	0.	2.6347
17699	15.742	2.5455	5.e-002	4.6185
17700	16.017	2.5455	0.	4.9433
17701	15.926	2.4545	0.	4.2721
17702	15.926	2.5455	5.e-002	4.5963
17703	16.201	2.5455	0.	6.5202
17704	16.109	2.4545	0.	5.8533
17705	16.109	2.5455	5.e-002	4.5745
17706	16.384	2.5455	0.	8.0551
17707	16.293	2.4545	0.	7.3881
17708	16.293	2.5455	5.e-002	4.5531
17709	16.568	2.5455	0.	9.5579
17710	16.476	2.4545	0.	8.8865
17711	16.476	2.5455	5.e-002	4.5322
17712	16.751	2.5455	0.	11.038
17713	16.66	2.4545	0.	10.358
17714	16.66	2.5455	5.e-002	4.5117
17715	16.935	2.5455	0.	12.506
17716	16.843	2.4545	0.	11.812
17717	16.843	2.5455	5.e-002	4.4915
17718	17.118	2.5455	0.	13.97
17719	17.027	2.4545	0.	13.258
17720	17.027	2.5455	5.e-002	4.4717
17721	17.302	2.5455	0.	15.44
17722	17.21	2.4545	0.	14.706
17723	17.21	2.5455	5.e-002	4.4522
17724	17.485	2.5455	0.	16.926
17725	17.394	2.4545	0.	16.164
17726	17.394	2.5455	5.e-002	4.4332
17727	17.669	2.5455	0.	18.436
17728	17.577	2.4545	0.	17.641
17729	17.577	2.5455	5.e-002	4.4146
17730	17.852	2.5455	0.	19.981
17731	17.761	2.4545	0.	19.148
17732	17.761	2.5455	5.e-002	4.3964
17733	18.036	2.5455	0.	21.57
17734	17.944	2.4545	0.	20.693
17735	17.944	2.5455	5.e-002	4.3786
17736	18.219	2.5455	0.	23.214
17737	18.128	2.4545	0.	22.287
17738	18.128	2.5455	5.e-002	4.3611
17739	18.403	2.5455	0.	24.922
17740	18.311	2.4545	0.	23.939
17741	18.311	2.5455	5.e-002	4.3441
17742	18.586	2.5455	0.	26.706
17743	18.495	2.4545	0.	25.66
17744	18.495	2.5455	5.e-002	4.3276
17745	18.77	2.5455	0.	28.576
17746	18.678	2.4545	0.	27.461
17747	18.678	2.5455	5.e-002	4.3115
17748	18.954	2.5455	0.	30.546
17749	18.862	2.4545	0.	29.353
17750	18.862	2.5455	5.e-002	4.296
17751	19.137	2.5455	0.	32.625
17752	19.045	2.4545	0.	31.348
17753	19.045	2.5455	5.e-002	4.2811
17754	19.321	2.5455	0.	34.829
17755	19.229	2.4545	0.	33.458
17756	19.229	2.5455	5.e-002	4.2667
17757	19.504	2.5455	0.	37.17
17758	19.412	2.4545	0.	35.696
17759	19.412	2.5455	5.e-002	4.253
17760	19.688	2.5455	0.	39.663
17761	19.596	2.4545	0.	38.076
17762	19.596	2.5455	5.e-002	4.24
17763	19.871	2.5455	0.	42.322
17764	19.779	2.4545	0.	40.613
17765	19.779	2.5455	5.e-002	4.2278
17766	20.055	2.5455	0.	45.165
17767	19.963	2.4545	0.	43.321
17768	19.963	2.5455	5.e-002	4.2164
17769	20.238	2.5455	0.	48.207
17770	20.146	2.4545	0.	46.218
17771	20.146	2.5455	5.e-002	4.206
17772	20.422	2.5455	0.	51.466
17773	20.33	2.4545	0.	49.32
17774	20.33	2.5455	5.e-002	4.1967
17775	20.605	2.5455	0.	54.961
17776	20.513	2.4545	0.	52.645
17777	20.513	2.5455	5.e-002	4.1885
17778	20.789	2.5455	0.	58.712
17779	20.697	2.4545	0.	56.213
17780	20.697	2.5455	5.e-002	4.1815
17781	20.972	2.5455	0.	62.738
17782	20.88	2.4545	0.	60.043
17783	20.88	2.5455	5.e-002	4.1761
17784	21.156	2.5455	0.	67.061
17785	21.064	2.4545	0.	64.155
17786	21.064	2.5455	5.e-002	4.1723
17787	21.339	2.5455	0.	71.703
17788	21.247	2.4545	0.	68.572
17789	21.247	2.5455	5.e-002	4.1703
17790	21.523	2.5455	0.	76.684
17791	21.431	2.4545	0.	73.316
17792	21.431	2.5455	5.e-002	4.1705
17793	21.706	2.5455	0.	82.028
17794	21.614	2.4545	0.	78.408
17795	21.614	2.5455	5.e-002	4.1729
17796	21.89	2.5455	0.	87.755
17797	21.798	2.4545	0.	83.872
17798	21.798	2.5455	5.e-002	4.1779
17799	22.073	2.5455	0.	93.887
17800	21.981	2.4545	0.	89.73
17801	21.981	2.5455	5.e-002	4.1859
17802	22.257	2.5455	0.	100.44
17803	22.165	2.4545	0.	96.003
17804	22.165	2.5455	5.e-002	4.1971
17805	22.44	2.5455	0.	107.44
17806	22.348	2.4545	0.	102.71
17807	22.348	2.5455	5.e-002	4.2119
17808	22.624	2.5455	0.	114.89
17809	22.532	2.4545	0.	109.87
17810	22.532	2.5455	5.e-002	4.2307
17811	22.807	2.5455	0.	122.82
17812	22.715	2.4545	0.	117.5
17813	22.715	2.5455	5.e-002	4.2536
17814	22.991	2.5455	0.	131.21
17815	22.899	2.4545	0.	125.61
17816	22.899	2.5455	5.e-002	4.281
17817	23.174	2.5455	0.	140.08
17818	23.082	2.4545	0.	134.2
17819	23.082	2.5455	5.e-002	4.3131
17820	23.358	2.5455	0.	149.43
17821	23.266	2.4545	0.	143.28
17822	23.266	2.5455	5.e-002	4.3498
17823	23.541	2.5455	0.	159.27
17824	23.449	2.4545	0.	152.83
17825	23.449	2.5455	5.e-002	4.3909
17826	23.725	2.5455	0.	169.49
17827	23.633	2.4545	0.	162.91
17828	23.633	2.5455	5.e-002	4.4366
17829	23.816	2.4545	0.	173.26
17830	23.816	2.5455	5.e-002	4.4958
17831	23.908	2.5455	0.	179.6
17832	6.8419	2.3636	0.	668.07
17833	6.7502	2.2727	0.	917.31
17834	6.7502	2.3636	5.e-002	174.9
17835	7.0254	2.3636	0.	252.64
17836	6.9337	2.2727	0.	411.9
17837	6.9337	2.3636	5.e-002	137.83
17838	7.2089	2.3636	0.	6.5774
17839	7.1172	2.2727	0.	101.79
17840	7.1172	2.3636	5.e-002	99.161
17841	7.3925	2.3636	0.	1.4843
17842	7.3007	2.2727	0.	4.097
17843	7.3007	2.3636	5.e-002	69.55
17844	7.576	2.3636	0.	1.2774
17845	7.4842	2.2727	0.	1.3647
17846	7.4842	2.3636	5.e-002	52.863
17847	7.7595	2.3636	0.	0.93066
17848	7.6677	2.2727	0.	1.2989
17849	7.6677	2.3636	5.e-002	41.949
17850	7.943	2.3636	0.	0.69589
17851	7.8512	2.2727	0.	0.84804
17852	7.8512	2.3636	5.e-002	34.16
17853	8.1265	2.3636	0.	0.52874
17854	8.0347	2.2727	0.	0.65586
17855	8.0347	2.3636	5.e-002	28.287
17856	8.31	2.3636	0.	0.39991
17857	8.2182	2.2727	0.	0.48763
17858	8.2182	2.3636	5.e-002	23.716
17859	8.4935	2.3636	0.	0.30272
17860	8.4018	2.2727	0.	0.37015
17861	8.4018	2.3636	5.e-002	20.095
17862	8.677	2.3636	0.	0.22844
17863	8.5853	2.2727	0.	0.27969
17864	8.5853	2.3636	5.e-002	17.199
17865	8.8605	2.3636	0.	0.17205
17866	8.7688	2.2727	0.	0.21162
17867	8.7688	2.3636	5.e-002	14.874
17868	9.044	2.3636	0.	0.12931
17869	8.9523	2.2727	0.	0.15988
17870	8.9523	2.3636	5.e-002	13.002
17871	9.2275	2.3636	0.	9.7035e-002
17872	9.1358	2.2727	0.	0.12071
17873	9.1358	2.3636	5.e-002	11.495
17874	9.4111	2.3636	0.	7.273e-002
17875	9.3193	2.2727	0.	9.1081e-002
17876	9.3193	2.3636	5.e-002	10.281
17877	9.5946	2.3636	0.	5.448e-002
17878	9.5028	2.2727	0.	6.8712e-002
17879	9.5028	2.3636	5.e-002	9.3032
17880	9.7781	2.3636	0.	4.0816e-002
17881	9.6863	2.2727	0.	5.1869e-002
17882	9.6863	2.3636	5.e-002	8.5151
17883	9.9616	2.3636	0.	3.0612e-002
17884	9.8698	2.2727	0.	3.9206e-002
17885	9.8698	2.3636	5.e-002	7.8798
17886	10.145	2.3636	0.	2.3034e-002
17887	10.053	2.2727	0.	2.9708e-002
17888	10.053	2.3636	5.e-002	7.3669
17889	10.329	2.3636	0.	1.7449e-002
17890	10.237	2.2727	0.	2.2641e-002
17891	10.237	2.3636	5.e-002	6.9519
17892	10.512	2.3636	0.	1.3354e-002
17893	10.42	2.2727	0.	1.7398e-002
17894	10.42	2.3636	5.e-002	6.6152
17895	10.696	2.3636	0.	1.037e-002
17896	10.604	2.2727	0.	1.3529e-002
17897	10.604	2.3636	5.e-002	6.341
17898	10.879	2.3636	0.	8.1918e-003
17899	10.787	2.2727	0.	1.0681e-002
17900	10.787	2.3636	5.e-002	6.1164
17901	11.063	2.3636	0.	6.6217e-003
17902	10.971	2.2727	0.	8.5624e-003
17903	10.971	2.3636	5.e-002	5.9312
17904	11.246	2.3636	0.	5.5596e-003
17905	11.154	2.2727	0.	7.0422e-003
17906	11.154	2.3636	5.e-002	5.7774
17907	11.43	2.3636	0.	4.8799e-003
17908	11.338	2.2727	0.	6.0281e-003
17909	11.338	2.3636	5.e-002	5.6486
17910	11.613	2.3636	0.	4.4555e-003
17911	11.521	2.2727	0.	5.3443e-003
17912	11.521	2.3636	5.e-002	5.5397
17913	11.797	2.3636	0.	4.2107e-003
17914	11.705	2.2727	0.	4.9003e-003
17915	11.705	2.3636	5.e-002	5.4468
17916	11.98	2.3636	0.	4.0901e-003
17917	11.888	2.2727	0.	4.6232e-003
17918	11.888	2.3636	5.e-002	5.3667
17919	12.164	2.3636	0.	4.0622e-003
17920	12.072	2.2727	0.	4.466e-003
17921	12.072	2.3636	5.e-002	5.2969
17922	12.347	2.3636	0.	4.1072e-003
17923	12.255	2.2727	0.	4.406e-003
17924	12.255	2.3636	5.e-002	5.2352
17925	12.531	2.3636	0.	4.2349e-003
17926	12.439	2.2727	0.	4.421e-003
17927	12.439	2.3636	5.e-002	5.1801
17928	12.714	2.3636	0.	4.434e-003
17929	12.622	2.2727	0.	4.5495e-003
17930	12.622	2.3636	5.e-002	5.1305
17931	12.898	2.3636	0.	4.644e-003
17932	12.806	2.2727	0.	4.7264e-003
17933	12.806	2.3636	5.e-002	5.0854
17934	13.081	2.3636	0.	4.8472e-003
17935	12.989	2.2727	0.	4.8908e-003
17936	12.989	2.3636	5.e-002	5.0439
17937	13.265	2.3636	0.	5.0565e-003
17938	13.173	2.2727	0.	5.0681e-003
17939	13.173	2.3636	5.e-002	5.0055
17940	13.448	2.3636	0.	5.2749e-003
17941	13.356	2.2727	0.	5.2583e-003
17942	13.356	2.3636	5.e-002	4.9695
17943	13.632	2.3636	0.	5.5252e-003
17944	13.54	2.2727	0.	5.4651e-003
17945	13.54	2.3636	5.e-002	4.9355
17946	13.815	2.3636	0.	5.8074e-003
17947	13.724	2.2727	0.	5.7295e-003
17948	13.724	2.3636	5.e-002	4.9034
17949	13.999	2.3636	0.	6.0964e-003
17950	13.907	2.2727	0.	6.01e-003
17951	13.907	2.3636	5.e-002	4.8728
17952	14.182	2.3636	0.	6.3917e-003
17953	14.091	2.2727	0.	6.3017e-003
17954	14.091	2.3636	5.e-002	4.8435
17955	14.366	2.3636	0.	6.6859e-003
17956	14.274	2.2727	0.	6.6095e-003
17957	14.274	2.3636	5.e-002	4.8154
17958	14.549	2.3636	0.	6.9981e-003
17959	14.458	2.2727	0.	6.9195e-003
17960	14.458	2.3636	5.e-002	4.7882
17961	14.733	2.3636	0.	7.3978e-003
17962	14.641	2.2727	0.	7.301e-003
17963	14.641	2.3636	5.e-002	4.7618
17964	14.916	2.3636	0.	7.9435e-003
17965	14.825	2.2727	0.	7.8501e-003
17966	14.825	2.3636	5.e-002	4.7363
17967	15.1	2.3636	0.	8.8019e-003
17968	15.008	2.2727	0.	8.6844e-003
17969	15.008	2.3636	5.e-002	4.7114
17970	15.283	2.3636	0.	1.106e-002
17971	15.192	2.2727	0.	1.0488e-002
17972	15.192	2.3636	5.e-002	4.6872
17973	15.467	2.3636	0.	0.26485
17974	15.375	2.2727	0.	2.576e-002
17975	15.375	2.3636	5.e-002	4.6636
17976	15.65	2.3636	0.	1.9687
17977	15.559	2.2727	0.	1.3583
17978	15.559	2.3636	5.e-002	4.6405
17979	15.834	2.3636	0.	3.6191
17980	15.742	2.2727	0.	3.0124
17981	15.742	2.3636	5.e-002	4.6179
17982	16.017	2.3636	0.	5.2093
17983	15.926	2.2727	0.	4.6037
17984	15.926	2.3636	5.e-002	4.5956
17985	16.201	2.3636	0.	6.749
17986	16.109	2.2727	0.	6.141
17987	16.109	2.3636	5.e-002	4.5739
17988	16.384	2.3636	0.	8.248
17989	16.293	2.2727	0.	7.6336
17990	16.293	2.3636	5.e-002	4.5526
17991	16.568	2.3636	0.	9.7157
17992	16.476	2.2727	0.	9.091
17993	16.476	2.3636	5.e-002	4.5317
17994	16.751	2.3636	0.	11.162
17995	16.66	2.2727	0.	10.522
17996	16.66	2.3636	5.e-002	4.5112
17997	16.935	2.3636	0.	12.595
17998	16.843	2.2727	0.	11.937
17999	16.843	2.3636	5.e-002	4.491
18000	17.118	2.3636	0.	14.025
18001	17.027	2.2727	0.	13.344
18002	17.027	2.3636	5.e-002	4.4712
18003	17.302	2.3636	0.	15.461
18004	17.21	2.2727	0.	14.752
18005	17.21	2.3636	5.e-002	4.4518
18006	17.485	2.3636	0.	16.911
18007	17.394	2.2727	0.	16.169
18008	17.394	2.3636	5.e-002	4.4327
18009	17.669	2.3636	0.	18.385
18010	17.577	2.2727	0.	17.606
18011	17.577	2.3636	5.e-002	4.4141
18012	17.852	2.3636	0.	19.893
18013	17.761	2.2727	0.	19.07
18014	17.761	2.3636	5.e-002	4.3959
18015	18.036	2.3636	0.	21.443
18016	17.944	2.2727	0.	20.571
18017	17.944	2.3636	5.e-002	4.3781
18018	18.219	2.3636	0.	23.046
18019	18.128	2.2727	0.	22.119
18020	18.128	2.3636	5.e-002	4.3606
18021	18.403	2.3636	0.	24.712
18022	18.311	2.2727	0.	23.723
18023	18.311	2.3636	5.e-002	4.3436
18024	18.586	2.3636	0.	26.45
18025	18.495	2.2727	0.	25.393
18026	18.495	2.3636	5.e-002	4.327
18027	18.77	2.3636	0.	28.272
18028	18.678	2.2727	0.	27.14
18029	18.678	2.3636	5.e-002	4.311
18030	18.954	2.3636	0.	30.19
18031	18.862	2.2727	0.	28.975
18032	18.862	2.3636	5.e-002	4.2955
18033	19.137	2.3636	0.	32.215
18034	19.045	2.2727	0.	30.908
18035	19.045	2.3636	5.e-002	4.2805
18036	19.321	2.3636	0.	34.359
18037	19.229	2.2727	0.	32.951
18038	19.229	2.3636	5.e-002	4.2661
18039	19.504	2.3636	0.	36.636
18040	19.412	2.2727	0.	35.119
18041	19.412	2.3636	5.e-002	4.2523
18042	19.688	2.3636	0.	39.061
18043	19.596	2.2727	0.	37.422
18044	19.596	2.3636	5.e-002	4.2393
18045	19.871	2.3636	0.	41.646
18046	19.779	2.2727	0.	39.877
18047	19.779	2.3636	5.e-002	4.227
18048	20.055	2.3636	0.	44.409
18049	19.963	2.2727	0.	42.497
18050	19.963	2.3636	5.e-002	4.2156
18051	20.238	2.3636	0.	47.366
18052	20.146	2.2727	0.	45.298
18053	20.146	2.3636	5.e-002	4.205
18054	20.422	2.3636	0.	50.534
18055	20.33	2.2727	0.	48.298
18056	20.33	2.3636	5.e-002	4.1955
18057	20.605	2.3636	0.	53.931
18058	20.513	2.2727	0.	51.513
18059	20.513	2.3636	5.e-002	4.1872
18060	20.789	2.3636	0.	57.577
18061	20.697	2.2727	0.	54.963
18062	20.697	2.3636	5.e-002	4.1801
18063	20.972	2.3636	0.	61.492
18064	20.88	2.2727	0.	58.667
18065	20.88	2.3636	5.e-002	4.1744
18066	21.156	2.3636	0.	65.697
18067	21.064	2.2727	0.	62.646
18068	21.064	2.3636	5.e-002	4.1704
18069	21.339	2.3636	0.	70.215
18070	21.247	2.2727	0.	66.922
18071	21.247	2.3636	5.e-002	4.1681
18072	21.523	2.3636	0.	75.068
18073	21.431	2.2727	0.	71.518
18074	21.431	2.3636	5.e-002	4.1679
18075	21.706	2.3636	0.	80.28
18076	21.614	2.2727	0.	76.457
18077	21.614	2.3636	5.e-002	4.17
18078	21.89	2.3636	0.	85.873
18079	21.798	2.2727	0.	81.764
18080	21.798	2.3636	5.e-002	4.1746
18081	22.073	2.3636	0.	91.87
18082	21.981	2.2727	0.	87.462
18083	21.981	2.3636	5.e-002	4.1822
18084	22.257	2.3636	0.	98.293
18085	22.165	2.2727	0.	93.575
18086	22.165	2.3636	5.e-002	4.193
18087	22.44	2.3636	0.	105.16
18088	22.348	2.2727	0.	100.13
18089	22.348	2.3636	5.e-002	4.2074
18090	22.624	2.3636	0.	112.5
18091	22.532	2.2727	0.	107.14
18092	22.532	2.3636	5.e-002	4.2258
18093	22.807	2.3636	0.	120.31
18094	22.715	2.2727	0.	114.63
18095	22.715	2.3636	5.e-002	4.2485
18096	22.991	2.3636	0.	128.61
18097	22.899	2.2727	0.	122.61
18098	22.899	2.3636	5.e-002	4.2759
18099	23.174	2.3636	0.	137.4
18100	23.082	2.2727	0.	131.1
18101	23.082	2.3636	5.e-002	4.3082
18102	23.358	2.3636	0.	146.69
18103	23.266	2.2727	0.	140.09
18104	23.266	2.3636	5.e-002	4.3455
18105	23.541	2.3636	0.	156.48
18106	23.449	2.2727	0.	149.58
18107	23.449	2.3636	5.e-002	4.3876
18108	23.725	2.3636	0.	166.68
18109	23.633	2.2727	0.	159.62
18110	23.633	2.3636	5.e-002	4.4348
18111	23.816	2.2727	0.	169.96
18112	23.816	2.3636	5.e-002	4.5009
18113	23.908	2.3636	0.	176.76
18114	6.8419	2.1818	0.	709.79
18115	6.7502	2.0909	0.	1436.7
18116	6.7502	2.1818	5.e-002	405.42
18117	7.0254	2.1818	0.	281.07
18118	6.9337	2.0909	0.	595.13
18119	6.9337	2.1818	5.e-002	187.93
18120	7.2089	2.1818	0.	34.657
18121	7.1172	2.0909	0.	209.66
18122	7.1172	2.1818	5.e-002	94.92
18123	7.3925	2.1818	0.	4.5142
18124	7.3007	2.0909	0.	23.913
18125	7.3007	2.1818	5.e-002	65.077
18126	7.576	2.1818	0.	1.5609
18127	7.4842	2.0909	0.	2.958
18128	7.4842	2.1818	5.e-002	48.401
18129	7.7595	2.1818	0.	1.2918
18130	7.6677	2.0909	0.	2.0822
18131	7.6677	2.1818	5.e-002	38.152
18132	7.943	2.1818	0.	0.84749
18133	7.8512	2.0909	0.	1.168
18134	7.8512	2.1818	5.e-002	31.075
18135	8.1265	2.1818	0.	0.6379
18136	8.0347	2.0909	0.	0.85297
18137	8.0347	2.1818	5.e-002	25.833
18138	8.31	2.1818	0.	0.47247
18139	8.2182	2.0909	0.	0.60771
18140	8.2182	2.1818	5.e-002	21.783
18141	8.4935	2.1818	0.	0.35677
18142	8.4018	2.0909	0.	0.45276
18143	8.4018	2.1818	5.e-002	18.576
18144	8.677	2.1818	0.	0.26947
18145	8.5853	2.0909	0.	0.33855
18146	8.5853	2.1818	5.e-002	16.006
18147	8.8605	2.1818	0.	0.20407
18148	8.7688	2.0909	0.	0.25535
18149	8.7688	2.1818	5.e-002	13.932
18150	9.044	2.1818	0.	0.15457
18151	8.9523	2.0909	0.	0.19309
18152	8.9523	2.1818	5.e-002	12.255
18153	9.2275	2.1818	0.	0.11713
18154	9.1358	2.0909	0.	0.14637
18155	9.1358	2.1818	5.e-002	10.898
18156	9.4111	2.1818	0.	8.8793e-002
18157	9.3193	2.0909	0.	0.11114
18158	9.3193	2.1818	5.e-002	9.8009
18159	9.5946	2.1818	0.	6.7373e-002
18160	9.5028	2.0909	0.	8.4533e-002
18161	9.5028	2.1818	5.e-002	8.9153
18162	9.7781	2.1818	0.	5.1202e-002
18163	9.6863	2.0909	0.	6.4441e-002
18164	9.6863	2.1818	5.e-002	8.2008
18165	9.9616	2.1818	0.	3.9007e-002
18166	9.8698	2.0909	0.	4.9261e-002
18167	9.8698	2.1818	5.e-002	7.6244
18168	10.145	2.1818	0.	2.9844e-002
18169	10.053	2.0909	0.	3.7796e-002
18170	10.053	2.1818	5.e-002	7.1593
18171	10.329	2.1818	0.	2.299e-002
18172	10.237	2.0909	0.	2.9181e-002
18173	10.237	2.1818	5.e-002	6.7833
18174	10.512	2.1818	0.	1.7877e-002
18175	10.42	2.0909	0.	2.2711e-002
18176	10.42	2.1818	5.e-002	6.4784
18177	10.696	2.1818	0.	1.4073e-002
18178	10.604	2.0909	0.	1.7864e-002
18179	10.604	2.1818	5.e-002	6.2301
18180	10.879	2.1818	0.	1.123e-002
18181	10.787	2.0909	0.	1.423e-002
18182	10.787	2.1818	5.e-002	6.0266
18183	11.063	2.1818	0.	9.1197e-003
18184	10.971	2.0909	0.	1.1476e-002
18185	10.971	2.1818	5.e-002	5.8587
18186	11.246	2.1818	0.	7.616e-003
18187	11.154	2.0909	0.	9.4397e-003
18188	11.154	2.1818	5.e-002	5.7189
18189	11.43	2.1818	0.	6.5736e-003
18190	11.338	2.0909	0.	8.0035e-003
18191	11.338	2.1818	5.e-002	5.6014
18192	11.613	2.1818	0.	5.8513e-003
18193	11.521	2.0909	0.	6.9724e-003
18194	11.521	2.1818	5.e-002	5.5018
18195	11.797	2.1818	0.	5.3603e-003
18196	11.705	2.0909	0.	6.2427e-003
18197	11.705	2.1818	5.e-002	5.4163
18198	11.98	2.1818	0.	5.0351e-003
18199	11.888	2.0909	0.	5.7279e-003
18200	11.888	2.1818	5.e-002	5.3421
18201	12.164	2.1818	0.	4.8364e-003
18202	12.072	2.0909	0.	5.3734e-003
18203	12.072	2.1818	5.e-002	5.277
18204	12.347	2.1818	0.	4.7391e-003
18205	12.255	2.0909	0.	5.1489e-003
18206	12.255	2.1818	5.e-002	5.2192
18207	12.531	2.1818	0.	4.749e-003
18208	12.439	2.0909	0.	5.0263e-003
18209	12.439	2.1818	5.e-002	5.1672
18210	12.714	2.1818	0.	4.8504e-003
18211	12.622	2.0909	0.	5.0404e-003
18212	12.622	2.1818	5.e-002	5.12
18213	12.898	2.1818	0.	4.9778e-003
18214	12.806	2.0909	0.	5.1214e-003
18215	12.806	2.1818	5.e-002	5.0768
18216	13.081	2.1818	0.	5.1133e-003
18217	12.989	2.0909	0.	5.2074e-003
18218	12.989	2.1818	5.e-002	5.0369
18219	13.265	2.1818	0.	5.269e-003
18220	13.173	2.0909	0.	5.321e-003
18221	13.173	2.1818	5.e-002	4.9997
18222	13.448	2.1818	0.	5.4455e-003
18223	13.356	2.0909	0.	5.4596e-003
18224	13.356	2.1818	5.e-002	4.9647
18225	13.632	2.1818	0.	5.6648e-003
18226	13.54	2.0909	0.	5.629e-003
18227	13.54	2.1818	5.e-002	4.9316
18228	13.815	2.1818	0.	5.9264e-003
18229	13.724	2.0909	0.	5.8673e-003
18230	13.724	2.1818	5.e-002	4.9
18231	13.999	2.1818	0.	6.2087e-003
18232	13.907	2.0909	0.	6.1359e-003
18233	13.907	2.1818	5.e-002	4.8699
18234	14.182	2.1818	0.	6.5122e-003
18235	14.091	2.0909	0.	6.4324e-003
18236	14.091	2.1818	5.e-002	4.8411
18237	14.366	2.1818	0.	6.8352e-003
18238	14.274	2.0909	0.	6.7662e-003
18239	14.274	2.1818	5.e-002	4.8133
18240	14.549	2.1818	0.	7.2125e-003
18241	14.458	2.0909	0.	7.1365e-003
18242	14.458	2.1818	5.e-002	4.7864
18243	14.733	2.1818	0.	7.7362e-003
18244	14.641	2.0909	0.	7.6378e-003
18245	14.641	2.1818	5.e-002	4.7602
18246	14.916	2.1818	0.	8.5405e-003
18247	14.825	2.0909	0.	8.427e-003
18248	14.825	2.1818	5.e-002	4.7348
18249	15.1	2.1818	0.	1.0088e-002
18250	15.008	2.0909	0.	9.8471e-003
18251	15.008	2.1818	5.e-002	4.7101
18252	15.283	2.1818	0.	1.6243e-002
18253	15.192	2.0909	0.	1.4021e-002
18254	15.192	2.1818	5.e-002	4.6861
18255	15.467	2.1818	0.	0.7682
18256	15.375	2.0909	0.	0.26997
18257	15.375	2.1818	5.e-002	4.6625
18258	15.65	2.1818	0.	2.4268
18259	15.559	2.0909	0.	1.9013
18260	15.559	2.1818	5.e-002	4.6395
18261	15.834	2.1818	0.	4.0236
18262	15.742	2.0909	0.	3.4947
18263	15.742	2.1818	5.e-002	4.617
18264	16.017	2.1818	0.	5.5628
18265	15.926	2.0909	0.	5.028
18266	15.926	2.1818	5.e-002	4.5948
18267	16.201	2.1818	0.	7.0536
18268	16.109	2.0909	0.	6.5098
18269	16.109	2.1818	5.e-002	4.5731
18270	16.384	2.1818	0.	8.5053
18271	16.293	2.0909	0.	7.9491
18272	16.293	2.1818	5.e-002	4.5518
18273	16.568	2.1818	0.	9.927
18274	16.476	2.0909	0.	9.3546
18275	16.476	2.1818	5.e-002	4.531
18276	16.751	2.1818	0.	11.328
18277	16.66	2.0909	0.	10.735
18278	16.66	2.1818	5.e-002	4.5105
18279	16.935	2.1818	0.	12.716
18280	16.843	2.0909	0.	12.1
18281	16.843	2.1818	5.e-002	4.4904
18282	17.118	2.1818	0.	14.101
18283	17.027	2.0909	0.	13.457
18284	17.027	2.1818	5.e-002	4.4706
18285	17.302	2.1818	0.	15.491
18286	17.21	2.0909	0.	14.814
18287	17.21	2.1818	5.e-002	4.4511
18288	17.485	2.1818	0.	16.896
18289	17.394	2.0909	0.	16.181
18290	17.394	2.1818	5.e-002	4.4321
18291	17.669	2.1818	0.	18.323
18292	17.577	2.0909	0.	17.566
18293	17.577	2.1818	5.e-002	4.4135
18294	17.852	2.1818	0.	19.781
18295	17.761	2.0909	0.	18.977
18296	17.761	2.1818	5.e-002	4.3953
18297	18.036	2.1818	0.	21.281
18298	17.944	2.0909	0.	20.423
18299	17.944	2.1818	5.e-002	4.3774
18300	18.219	2.1818	0.	22.83
18301	18.128	2.0909	0.	21.913
18302	18.128	2.1818	5.e-002	4.36
18303	18.403	2.1818	0.	24.439
18304	18.311	2.0909	0.	23.456
18305	18.311	2.1818	5.e-002	4.3429
18306	18.586	2.1818	0.	26.118
18307	18.495	2.0909	0.	25.062
18308	18.495	2.1818	5.e-002	4.3264
18309	18.77	2.1818	0.	27.877
18310	18.678	2.0909	0.	26.74
18311	18.678	2.1818	5.e-002	4.3103
18312	18.954	2.1818	0.	29.727
18313	18.862	2.0909	0.	28.502
18314	18.862	2.1818	5.e-002	4.2948
18315	19.137	2.1818	0.	31.68
18316	19.045	2.0909	0.	30.357
18317	19.045	2.1818	5.e-002	4.2797
18318	19.321	2.1818	0.	33.746
18319	19.229	2.0909	0.	32.318
18320	19.229	2.1818	5.e-002	4.2653
18321	19.504	2.1818	0.	35.94
18322	19.412	2.0909	0.	34.395
18323	19.412	2.1818	5.e-002	4.2514
18324	19.688	2.1818	0.	38.274
18325	19.596	2.0909	0.	36.602
18326	19.596	2.1818	5.e-002	4.2383
18327	19.871	2.1818	0.	40.763
18328	19.779	2.0909	0.	38.953
18329	19.779	2.1818	5.e-002	4.2259
18330	20.055	2.1818	0.	43.421
18331	19.963	2.0909	0.	41.461
18332	19.963	2.1818	5.e-002	4.2144
18333	20.238	2.1818	0.	46.266
18334	20.146	2.0909	0.	44.141
18335	20.146	2.1818	5.e-002	4.2037
18336	20.422	2.1818	0.	49.312
18337	20.33	2.0909	0.	47.011
18338	20.33	2.1818	5.e-002	4.1941
18339	20.605	2.1818	0.	52.58
18340	20.513	2.0909	0.	50.086
18341	20.513	2.1818	5.e-002	4.1855
18342	20.789	2.1818	0.	56.087
18343	20.697	2.0909	0.	53.386
18344	20.697	2.1818	5.e-002	4.1782
18345	20.972	2.1818	0.	59.855
18346	20.88	2.0909	0.	56.93
18347	20.88	2.1818	5.e-002	4.1722
18348	21.156	2.1818	0.	63.903
18349	21.064	2.0909	0.	60.738
18350	21.064	2.1818	5.e-002	4.1679
18351	21.339	2.1818	0.	68.257
18352	21.247	2.0909	0.	64.833
18353	21.247	2.1818	5.e-002	4.1653
18354	21.523	2.1818	0.	72.937
18355	21.431	2.0909	0.	69.238
18356	21.431	2.1818	5.e-002	4.1646
18357	21.706	2.1818	0.	77.97
18358	21.614	2.0909	0.	73.979
18359	21.614	2.1818	5.e-002	4.1662
18360	21.89	2.1818	0.	83.38
18361	21.798	2.0909	0.	79.08
18362	21.798	2.1818	5.e-002	4.1703
18363	22.073	2.1818	0.	89.193
18364	21.981	2.0909	0.	84.568
18365	21.981	2.1818	5.e-002	4.1773
18366	22.257	2.1818	0.	95.434
18367	22.165	2.0909	0.	90.471
18368	22.165	2.1818	5.e-002	4.1875
18369	22.44	2.1818	0.	102.13
18370	22.348	2.0909	0.	96.815
18371	22.348	2.1818	5.e-002	4.2013
18372	22.624	2.1818	0.	109.29
18373	22.532	2.0909	0.	103.63
18374	22.532	2.1818	5.e-002	4.2192
18375	22.807	2.1818	0.	116.95
18376	22.715	2.0909	0.	110.93
18377	22.715	2.1818	5.e-002	4.2417
18378	22.991	2.1818	0.	125.12
18379	22.899	2.0909	0.	118.74
18380	22.899	2.1818	5.e-002	4.269
18381	23.174	2.1818	0.	133.8
18382	23.082	2.0909	0.	127.08
18383	23.082	2.1818	5.e-002	4.3015
18384	23.358	2.1818	0.	143.
18385	23.266	2.0909	0.	135.96
18386	23.266	2.1818	5.e-002	4.3395
18387	23.541	2.1818	0.	152.73
18388	23.449	2.0909	0.	145.36
18389	23.449	2.1818	5.e-002	4.3829
18390	23.725	2.1818	0.	162.9
18391	23.633	2.0909	0.	155.34
18392	23.633	2.1818	5.e-002	4.4324
18393	23.816	2.0909	0.	165.67
18394	23.816	2.1818	5.e-002	4.5075
18395	23.908	2.1818	0.	172.93
18396	6.8419	2.	0.	1449.4
18397	6.7502	1.9091	0.	2660.2
18398	6.7502	2.	5.e-002	758.37
18399	6.6584	2.	0.	2206.
18400	7.0254	2.	0.	532.36
18401	6.9337	1.9091	0.	1041.7
18402	6.9337	2.	5.e-002	131.26
18403	7.2089	2.	0.	182.12
18404	7.1172	1.9091	0.	432.06
18405	7.1172	2.	5.e-002	84.727
18406	7.3925	2.	0.	22.289
18407	7.3007	1.9091	0.	149.36
18408	7.3007	2.	5.e-002	56.496
18409	7.576	2.	0.	3.9058
18410	7.4842	1.9091	0.	17.847
18411	7.4842	2.	5.e-002	42.657
18412	7.7595	2.	0.	2.1055
18413	7.6677	1.9091	0.	4.1901
18414	7.6677	2.	5.e-002	33.793
18415	7.943	2.	0.	1.2399
18416	7.8512	1.9091	0.	1.9696
18417	7.8512	2.	5.e-002	27.694
18418	8.1265	2.	0.	0.85828
18419	8.0347	1.9091	0.	1.2355
18420	8.0347	2.	5.e-002	23.164
18421	8.31	2.	0.	0.60897
18422	8.2182	1.9091	0.	0.8271
18423	8.2182	2.	5.e-002	19.662
18424	8.4935	2.	0.	0.4477
18425	8.4018	1.9091	0.	0.5889
18426	8.4018	2.	5.e-002	16.883
18427	8.677	2.	0.	0.33305
18428	8.5853	1.9091	0.	0.4289
18429	8.5853	2.	5.e-002	14.648
18430	8.8605	2.	0.	0.25017
18431	8.7688	1.9091	0.	0.31796
18432	8.7688	2.	5.e-002	12.838
18433	9.044	2.	0.	0.18888
18434	8.9523	1.9091	0.	0.23795
18435	8.9523	2.	5.e-002	11.37
18436	9.2275	2.	0.	0.14316
18437	9.1358	1.9091	0.	0.17934
18438	9.1358	2.	5.e-002	10.179
18439	9.4111	2.	0.	0.10884
18440	9.3193	1.9091	0.	0.13585
18441	9.3193	2.	5.e-002	9.2159
18442	9.5946	2.	0.	8.3006e-002
18443	9.5028	1.9091	0.	0.10338
18444	9.5028	2.	5.e-002	8.4383
18445	9.7781	2.	0.	6.3515e-002
18446	9.6863	1.9091	0.	7.9012e-002
18447	9.6863	2.	5.e-002	7.8117
18448	9.9616	2.	0.	4.8792e-002
18449	9.8698	1.9091	0.	6.0669e-002
18450	9.8698	2.	5.e-002	7.3074
18451	10.145	2.	0.	3.768e-002
18452	10.053	1.9091	0.	4.6825e-002
18453	10.053	2.	5.e-002	6.9013
18454	10.329	2.	0.	2.9309e-002
18455	10.237	1.9091	0.	3.6396e-002
18456	10.237	2.	5.e-002	6.5738
18457	10.512	2.	0.	2.3003e-002
18458	10.42	1.9091	0.	2.8524e-002
18459	10.42	2.	5.e-002	6.3086
18460	10.696	2.	0.	1.8251e-002
18461	10.604	1.9091	0.	2.258e-002
18462	10.604	2.	5.e-002	6.0928
18463	10.879	2.	0.	1.465e-002
18464	10.787	1.9091	0.	1.8078e-002
18465	10.787	2.	5.e-002	5.9159
18466	11.063	2.	0.	1.1929e-002
18467	10.971	1.9091	0.	1.4631e-002
18468	10.971	2.	5.e-002	5.7695
18469	11.246	2.	0.	9.9289e-003
18470	11.154	1.9091	0.	1.2034e-002
18471	11.154	2.	5.e-002	5.6472
18472	11.43	2.	0.	8.4802e-003
18473	11.338	1.9091	0.	1.0143e-002
18474	11.338	2.	5.e-002	5.5438
18475	11.613	2.	0.	7.4232e-003
18476	11.521	1.9091	0.	8.7382e-003
18477	11.521	2.	5.e-002	5.4555
18478	11.797	2.	0.	6.6553e-003
18479	11.705	1.9091	0.	7.6993e-003
18480	11.705	2.	5.e-002	5.3791
18481	11.98	2.	0.	6.0999e-003
18482	11.888	1.9091	0.	6.9287e-003
18483	11.888	2.	5.e-002	5.3122
18484	12.164	2.	0.	5.7105e-003
18485	12.072	1.9091	0.	6.3601e-003
18486	12.072	2.	5.e-002	5.2529
18487	12.347	2.	0.	5.4535e-003
18488	12.255	1.9091	0.	5.9572e-003
18489	12.255	2.	5.e-002	5.1998
18490	12.531	2.	0.	5.3292e-003
18491	12.439	1.9091	0.	5.6849e-003
18492	12.439	2.	5.e-002	5.1515
18493	12.714	2.	0.	5.3181e-003
18494	12.622	1.9091	0.	5.573e-003
18495	12.622	2.	5.e-002	5.1072
18496	12.898	2.	0.	5.3537e-003
18497	12.806	1.9091	0.	5.5503e-003
18498	12.806	2.	5.e-002	5.0664
18499	13.081	2.	0.	5.4146e-003
18500	12.989	1.9091	0.	5.5501e-003
18501	12.989	2.	5.e-002	5.0284
18502	13.265	2.	0.	5.5084e-003
18503	13.173	1.9091	0.	5.5939e-003
18504	13.173	2.	5.e-002	4.9927
18505	13.448	2.	0.	5.6376e-003
18506	13.356	1.9091	0.	5.6777e-003
18507	13.356	2.	5.e-002	4.9589
18508	13.632	2.	0.	5.8243e-003
18509	13.54	1.9091	0.	5.8079e-003
18510	13.54	2.	5.e-002	4.9267
18511	13.815	2.	0.	6.0681e-003
18512	13.724	1.9091	0.	6.0222e-003
18513	13.724	2.	5.e-002	4.896
18514	13.999	2.	0.	6.3495e-003
18515	13.907	1.9091	0.	6.2864e-003
18516	13.907	2.	5.e-002	4.8665
18517	14.182	2.	0.	6.6749e-003
18518	14.091	1.9091	0.	6.6005e-003
18519	14.091	2.	5.e-002	4.8381
18520	14.366	2.	0.	7.0538e-003
18521	14.274	1.9091	0.	6.987e-003
18522	14.274	2.	5.e-002	4.8107
18523	14.549	2.	0.	7.5424e-003
18524	14.458	1.9091	0.	7.4649e-003
18525	14.458	2.	5.e-002	4.7842
18526	14.733	2.	0.	8.2899e-003
18527	14.641	1.9091	0.	8.1796e-003
18528	14.641	2.	5.e-002	4.7583
18529	14.916	2.	0.	9.6052e-003
18530	14.825	1.9091	0.	9.4431e-003
18531	14.825	2.	5.e-002	4.7331
18532	15.1	2.	0.	1.284e-002
18533	15.008	1.9091	0.	1.2247e-002
18534	15.008	2.	5.e-002	4.7086
18535	15.283	2.	0.	4.6869e-002
18536	15.192	1.9091	0.	2.703e-002
18537	15.192	2.	5.e-002	4.6846
18538	15.467	2.	0.	1.4018
18539	15.375	1.9091	0.	0.97747
18540	15.375	2.	5.e-002	4.6612
18541	15.65	2.	0.	2.9945
18542	15.559	1.9091	0.	2.5583
18543	15.559	2.	5.e-002	4.6383
18544	15.834	2.	0.	4.5258
18545	15.742	1.9091	0.	4.0793
18546	15.742	2.	5.e-002	4.6158
18547	16.017	2.	0.	6.0025
18548	15.926	1.9091	0.	5.5434
18549	15.926	2.	5.e-002	4.5938
18550	16.201	2.	0.	7.4334
18551	16.109	1.9091	0.	6.959
18552	16.109	2.	5.e-002	4.5721
18553	16.384	2.	0.	8.8272
18554	16.293	1.9091	0.	8.3344
18555	16.293	2.	5.e-002	4.5509
18556	16.568	2.	0.	10.192
18557	16.476	1.9091	0.	9.678
18558	16.476	2.	5.e-002	4.5301
18559	16.751	2.	0.	11.538
18560	16.66	1.9091	0.	10.998
18561	16.66	2.	5.e-002	4.5096
18562	16.935	2.	0.	12.871
18563	16.843	1.9091	0.	12.303
18564	16.843	2.	5.e-002	4.4895
18565	17.118	2.	0.	14.201
18566	17.027	1.9091	0.	13.6
18567	17.027	2.	5.e-002	4.4698
18568	17.302	2.	0.	15.536
18569	17.21	1.9091	0.	14.897
18570	17.21	2.	5.e-002	4.4503
18571	17.485	2.	0.	16.883
18572	17.394	1.9091	0.	16.204
18573	17.394	2.	5.e-002	4.4313
18574	17.669	2.	0.	18.252
18575	17.577	1.9091	0.	17.526
18576	17.577	2.	5.e-002	4.4127
18577	17.852	2.	0.	19.651
18578	17.761	1.9091	0.	18.873
18579	17.761	2.	5.e-002	4.3945
18580	18.036	2.	0.	21.088
18581	17.944	1.9091	0.	20.253
18582	17.944	2.	5.e-002	4.3767
18583	18.219	2.	0.	22.572
18584	18.128	1.9091	0.	21.674
18585	18.128	2.	5.e-002	4.3592
18586	18.403	2.	0.	24.113
18587	18.311	1.9091	0.	23.144
18588	18.311	2.	5.e-002	4.3421
18589	18.586	2.	0.	25.719
18590	18.495	1.9091	0.	24.673
18591	18.495	2.	5.e-002	4.3255
18592	18.77	2.	0.	27.4
18593	18.678	1.9091	0.	26.271
18594	18.678	2.	5.e-002	4.3094
18595	18.954	2.	0.	29.167
18596	18.862	1.9091	0.	27.945
18597	18.862	2.	5.e-002	4.2938
18598	19.137	2.	0.	31.031
18599	19.045	1.9091	0.	29.708
18600	19.045	2.	5.e-002	4.2788
18601	19.321	2.	0.	33.002
18602	19.229	1.9091	0.	31.569
18603	19.229	2.	5.e-002	4.2642
18604	19.504	2.	0.	35.094
18605	19.412	1.9091	0.	33.539
18606	19.412	2.	5.e-002	4.2503
18607	19.688	2.	0.	37.318
18608	19.596	1.9091	0.	35.631
18609	19.596	2.	5.e-002	4.2371
18610	19.871	2.	0.	39.687
18611	19.779	1.9091	0.	37.857
18612	19.779	2.	5.e-002	4.2246
18613	20.055	2.	0.	42.218
18614	19.963	1.9091	0.	40.231
18615	19.963	2.	5.e-002	4.2129
18616	20.238	2.	0.	44.923
18617	20.146	1.9091	0.	42.767
18618	20.146	2.	5.e-002	4.2021
18619	20.422	2.	0.	47.821
18620	20.33	1.9091	0.	45.48
18621	20.33	2.	5.e-002	4.1922
18622	20.605	2.	0.	50.929
18623	20.513	1.9091	0.	48.387
18624	20.513	2.	5.e-002	4.1834
18625	20.789	2.	0.	54.264
18626	20.697	1.9091	0.	51.506
18627	20.697	2.	5.e-002	4.1758
18628	20.972	2.	0.	57.848
18629	20.88	1.9091	0.	54.855
18630	20.88	2.	5.e-002	4.1696
18631	21.156	2.	0.	61.702
18632	21.064	1.9091	0.	58.456
18633	21.064	2.	5.e-002	4.1648
18634	21.339	2.	0.	65.849
18635	21.247	1.9091	0.	62.331
18636	21.247	2.	5.e-002	4.1617
18637	21.523	2.	0.	70.312
18638	21.431	1.9091	0.	66.503
18639	21.431	2.	5.e-002	4.1606
18640	21.706	2.	0.	75.12
18641	21.614	1.9091	0.	70.998
18642	21.614	2.	5.e-002	4.1615
18643	21.89	2.	0.	80.297
18644	21.798	1.9091	0.	75.844
18645	21.798	2.	5.e-002	4.165
18646	22.073	2.	0.	85.874
18647	21.981	1.9091	0.	81.069
18648	21.981	2.	5.e-002	4.1712
18649	22.257	2.	0.	91.878
18650	22.165	1.9091	0.	86.706
18651	22.165	2.	5.e-002	4.1806
18652	22.44	2.	0.	98.339
18653	22.348	1.9091	0.	92.785
18654	22.348	2.	5.e-002	4.1937
18655	22.624	2.	0.	105.28
18656	22.532	1.9091	0.	99.338
18657	22.532	2.	5.e-002	4.211
18658	22.807	2.	0.	112.74
18659	22.715	1.9091	0.	106.4
18660	22.715	2.	5.e-002	4.2329
18661	22.991	2.	0.	120.72
18662	22.899	1.9091	0.	113.99
18663	22.899	2.	5.e-002	4.26
18664	23.174	2.	0.	129.25
18665	23.082	1.9091	0.	122.13
18666	23.082	2.	5.e-002	4.2928
18667	23.358	2.	0.	138.33
18668	23.266	1.9091	0.	130.85
18669	23.266	2.	5.e-002	4.3317
18670	23.541	2.	0.	147.98
18671	23.449	1.9091	0.	140.13
18672	23.449	2.	5.e-002	4.3766
18673	23.725	2.	0.	158.11
18674	23.633	1.9091	0.	150.03
18675	23.633	2.	5.e-002	4.429
18676	23.816	1.9091	0.	160.34
18677	23.816	2.	5.e-002	4.5156
18678	23.908	2.	0.	168.07
18679	6.8419	1.8182	0.	2274.3
18680	6.7502	1.7273	0.	3109.1
18681	6.7502	1.8182	5.e-002	422.7
18682	6.6584	1.8182	0.	3704.2
18683	7.0254	1.8182	0.	939.8
18684	6.9337	1.7273	0.	1394.5
18685	6.9337	1.8182	5.e-002	140.83
18686	7.2089	1.8182	0.	392.57
18687	7.1172	1.7273	0.	656.62
18688	7.1172	1.8182	5.e-002	65.028
18689	7.3925	1.8182	0.	137.61
18690	7.3007	1.7273	0.	303.06
18691	7.3007	1.8182	5.e-002	46.742
18692	7.576	1.8182	0.	19.577
18693	7.4842	1.7273	0.	105.3
18694	7.4842	1.8182	5.e-002	36.445
18695	7.7595	1.8182	0.	4.3996
18696	7.6677	1.7273	0.	16.094
18697	7.6677	1.8182	5.e-002	29.324
18698	7.943	1.8182	0.	2.0875
18699	7.8512	1.7273	0.	4.0783
18700	7.8512	1.8182	5.e-002	24.265
18701	8.1265	1.8182	0.	1.2627
18702	8.0347	1.7273	0.	2.0122
18703	8.0347	1.8182	5.e-002	20.443
18704	8.31	1.8182	0.	0.83906
18705	8.2182	1.7273	0.	1.2139
18706	8.2182	1.8182	5.e-002	17.463
18707	8.4935	1.8182	0.	0.58915
18708	8.4018	1.7273	0.	0.80769
18709	8.4018	1.8182	5.e-002	15.089
18710	8.677	1.8182	0.	0.4257
18711	8.5853	1.7273	0.	0.56382
18712	8.5853	1.8182	5.e-002	13.174
18713	8.8605	1.8182	0.	0.3134
18714	8.7688	1.7273	0.	0.40554
18715	8.7688	1.8182	5.e-002	11.624
18716	9.044	1.8182	0.	0.23346
18717	8.9523	1.7273	0.	0.29712
18718	8.9523	1.8182	5.e-002	10.367
18719	9.2275	1.8182	0.	0.17541
18720	9.1358	1.7273	0.	0.22054
18721	9.1358	1.8182	5.e-002	9.3515
18722	9.4111	1.8182	0.	0.13269
18723	9.3193	1.7273	0.	0.16531
18724	9.3193	1.8182	5.e-002	8.5334
18725	9.5946	1.8182	0.	0.10097
18726	9.5028	1.7273	0.	0.12492
18727	9.5028	1.8182	5.e-002	7.8768
18728	9.7781	1.8182	0.	7.7279e-002
18729	9.6863	1.7273	0.	9.5106e-002
18730	9.6863	1.8182	5.e-002	7.3513
18731	9.9616	1.8182	0.	5.9493e-002
18732	9.8698	1.7273	0.	7.292e-002
18733	9.8698	1.8182	5.e-002	6.9313
18734	10.145	1.8182	0.	4.6109e-002
18735	10.053	1.7273	0.	5.6312e-002
18736	10.053	1.8182	5.e-002	6.5953
18737	10.329	1.8182	0.	3.6025e-002
18738	10.237	1.7273	0.	4.3855e-002
18739	10.237	1.8182	5.e-002	6.3256
18740	10.512	1.8182	0.	2.8406e-002
18741	10.42	1.7273	0.	3.4468e-002
18742	10.42	1.8182	5.e-002	6.1081
18743	10.696	1.8182	0.	2.2634e-002
18744	10.604	1.7273	0.	2.7369e-002
18745	10.604	1.8182	5.e-002	5.9312
18746	10.879	1.8182	0.	1.8229e-002
18747	10.787	1.7273	0.	2.1971e-002
18748	10.787	1.8182	5.e-002	5.786
18749	11.063	1.8182	0.	1.4865e-002
18750	10.971	1.7273	0.	1.7818e-002
18751	10.971	1.8182	5.e-002	5.6652
18752	11.246	1.8182	0.	1.2347e-002
18753	11.154	1.7273	0.	1.4657e-002
18754	11.154	1.8182	5.e-002	5.5636
18755	11.43	1.8182	0.	1.0476e-002
18756	11.338	1.7273	0.	1.2309e-002
18757	11.338	1.8182	5.e-002	5.4768
18758	11.613	1.8182	0.	9.0709e-003
18759	11.521	1.7273	0.	1.0529e-002
18760	11.521	1.8182	5.e-002	5.4018
18761	11.797	1.8182	0.	8.0152e-003
18762	11.705	1.7273	0.	9.1806e-003
18763	11.705	1.8182	5.e-002	5.3361
18764	11.98	1.8182	0.	7.2204e-003
18765	11.888	1.7273	0.	8.1521e-003
18766	11.888	1.8182	5.e-002	5.2777
18767	12.164	1.8182	0.	6.6294e-003
18768	12.072	1.7273	0.	7.3672e-003
18769	12.072	1.8182	5.e-002	5.2252
18770	12.347	1.8182	0.	6.204e-003
18771	12.255	1.7273	0.	6.7817e-003
18772	12.255	1.8182	5.e-002	5.1775
18773	12.531	1.8182	0.	5.9382e-003
18774	12.439	1.7273	0.	6.3567e-003
18775	12.439	1.8182	5.e-002	5.1334
18776	12.714	1.8182	0.	5.8098e-003
18777	12.622	1.7273	0.	6.1157e-003
18778	12.622	1.8182	5.e-002	5.0926
18779	12.898	1.8182	0.	5.7472e-003
18780	12.806	1.7273	0.	5.986e-003
18781	12.806	1.8182	5.e-002	5.0545
18782	13.081	1.8182	0.	5.7265e-003
18783	12.989	1.7273	0.	5.8963e-003
18784	12.989	1.8182	5.e-002	5.0187
18785	13.265	1.8182	0.	5.7572e-003
18786	13.173	1.7273	0.	5.869e-003
18787	13.173	1.8182	5.e-002	4.9847
18788	13.448	1.8182	0.	5.8395e-003
18789	13.356	1.7273	0.	5.899e-003
18790	13.356	1.8182	5.e-002	4.9522
18791	13.632	1.8182	0.	5.9952e-003
18792	13.54	1.7273	0.	5.9928e-003
18793	13.54	1.8182	5.e-002	4.9211
18794	13.815	1.8182	0.	6.2279e-003
18795	13.724	1.7273	0.	6.1913e-003
18796	13.724	1.8182	5.e-002	4.8913
18797	13.999	1.8182	0.	6.5228e-003
18798	13.907	1.7273	0.	6.4643e-003
18799	13.907	1.8182	5.e-002	4.8625
18800	14.182	1.8182	0.	6.8957e-003
18801	14.091	1.7273	0.	6.8235e-003
18802	14.091	1.8182	5.e-002	4.8347
18803	14.366	1.8182	0.	7.3766e-003
18804	14.274	1.7273	0.	7.31e-003
18805	14.274	1.8182	5.e-002	4.8078
18806	14.549	1.8182	0.	8.0686e-003
18807	14.458	1.7273	0.	7.9897e-003
18808	14.458	1.8182	5.e-002	4.7816
18809	14.733	1.8182	0.	9.2552e-003
18810	14.641	1.7273	0.	9.1307e-003
18811	14.641	1.8182	5.e-002	4.756
18812	14.916	1.8182	0.	1.1753e-002
18813	14.825	1.7273	0.	1.1484e-002
18814	14.825	1.8182	5.e-002	4.731
18815	15.1	1.8182	0.	2.1201e-002
18816	15.008	1.7273	0.	1.8997e-002
18817	15.008	1.8182	5.e-002	4.7067
18818	15.283	1.8182	0.	0.59064
18819	15.192	1.7273	0.	0.30904
18820	15.192	1.8182	5.e-002	4.6829
18821	15.467	1.8182	0.	2.1556
18822	15.375	1.7273	0.	1.8293
18823	15.375	1.8182	5.e-002	4.6597
18824	15.65	1.8182	0.	3.669
18825	15.559	1.7273	0.	3.3263
18826	15.559	1.8182	5.e-002	4.6369
18827	15.834	1.8182	0.	5.1238
18828	15.742	1.7273	0.	4.7638
18829	15.742	1.8182	5.e-002	4.6145
18830	16.017	1.8182	0.	6.5274
18831	15.926	1.7273	0.	6.1482
18832	15.926	1.8182	5.e-002	4.5925
18833	16.201	1.8182	0.	7.8882
18834	16.109	1.7273	0.	7.4876
18835	16.109	1.8182	5.e-002	4.5709
18836	16.384	1.8182	0.	9.2141
18837	16.293	1.7273	0.	8.7895
18838	16.293	1.8182	5.e-002	4.5498
18839	16.568	1.8182	0.	10.513
18840	16.476	1.7273	0.	10.062
18841	16.476	1.8182	5.e-002	4.529
18842	16.751	1.8182	0.	11.793
18843	16.66	1.7273	0.	11.312
18844	16.66	1.8182	5.e-002	4.5086
18845	16.935	1.8182	0.	13.062
18846	16.843	1.7273	0.	12.547
18847	16.843	1.8182	5.e-002	4.4885
18848	17.118	1.8182	0.	14.328
18849	17.027	1.7273	0.	13.776
18850	17.027	1.8182	5.e-002	4.4688
18851	17.302	1.8182	0.	15.597
18852	17.21	1.7273	0.	15.005
18853	17.21	1.8182	5.e-002	4.4494
18854	17.485	1.8182	0.	16.879
18855	17.394	1.7273	0.	16.241
18856	17.394	1.8182	5.e-002	4.4304
18857	17.669	1.8182	0.	18.18
18858	17.577	1.7273	0.	17.492
18859	17.577	1.8182	5.e-002	4.4118
18860	17.852	1.8182	0.	19.508
18861	17.761	1.7273	0.	18.766
18862	17.761	1.8182	5.e-002	4.3936
18863	18.036	1.8182	0.	20.872
18864	17.944	1.7273	0.	20.069
18865	17.944	1.8182	5.e-002	4.3757
18866	18.219	1.8182	0.	22.28
18867	18.128	1.7273	0.	21.41
18868	18.128	1.8182	5.e-002	4.3582
18869	18.403	1.8182	0.	23.74
18870	18.311	1.7273	0.	22.798
18871	18.311	1.8182	5.e-002	4.3411
18872	18.586	1.8182	0.	25.261
18873	18.495	1.7273	0.	24.239
18874	18.495	1.8182	5.e-002	4.3245
18875	18.77	1.8182	0.	26.852
18876	18.678	1.7273	0.	25.742
18877	18.678	1.8182	5.e-002	4.3084
18878	18.954	1.8182	0.	28.522
18879	18.862	1.7273	0.	27.317
18880	18.862	1.8182	5.e-002	4.2927
18881	19.137	1.8182	0.	30.282
18882	19.045	1.7273	0.	28.973
18883	19.045	1.8182	5.e-002	4.2776
18884	19.321	1.8182	0.	32.142
18885	19.229	1.7273	0.	30.72
18886	19.229	1.8182	5.e-002	4.263
18887	19.504	1.8182	0.	34.114
18888	19.412	1.7273	0.	32.567
18889	19.412	1.8182	5.e-002	4.249
18890	19.688	1.8182	0.	36.208
18891	19.596	1.7273	0.	34.527
18892	19.596	1.8182	5.e-002	4.2356
18893	19.871	1.8182	0.	38.439
18894	19.779	1.7273	0.	36.61
18895	19.779	1.8182	5.e-002	4.223
18896	20.055	1.8182	0.	40.818
18897	19.963	1.7273	0.	38.829
18898	19.963	1.8182	5.e-002	4.2112
18899	20.238	1.8182	0.	43.361
18900	20.146	1.7273	0.	41.198
18901	20.146	1.8182	5.e-002	4.2002
18902	20.422	1.8182	0.	46.084
18903	20.33	1.7273	0.	43.731
18904	20.33	1.8182	5.e-002	4.1901
18905	20.605	1.8182	0.	49.002
18906	20.513	1.7273	0.	46.443
18907	20.513	1.8182	5.e-002	4.181
18908	20.789	1.8182	0.	52.135
18909	20.697	1.7273	0.	49.352
18910	20.697	1.8182	5.e-002	4.1731
18911	20.972	1.8182	0.	55.501
18912	20.88	1.7273	0.	52.475
18913	20.88	1.8182	5.e-002	4.1664
18914	21.156	1.8182	0.	59.122
18915	21.064	1.7273	0.	55.834
18916	21.064	1.8182	5.e-002	4.1612
18917	21.339	1.8182	0.	63.021
18918	21.247	1.7273	0.	59.449
18919	21.247	1.8182	5.e-002	4.1576
18920	21.523	1.8182	0.	67.223
18921	21.431	1.7273	0.	63.345
18922	21.431	1.8182	5.e-002	4.1558
18923	21.706	1.8182	0.	71.756
18924	21.614	1.7273	0.	67.548
18925	21.614	1.8182	5.e-002	4.1561
18926	21.89	1.8182	0.	76.649
18927	21.798	1.7273	0.	72.087
18928	21.798	1.8182	5.e-002	4.1587
18929	22.073	1.8182	0.	81.933
18930	21.981	1.7273	0.	76.995
18931	21.981	1.8182	5.e-002	4.164
18932	22.257	1.8182	0.	87.642
18933	22.165	1.7273	0.	82.305
18934	22.165	1.8182	5.e-002	4.1725
18935	22.44	1.8182	0.	93.811
18936	22.348	1.7273	0.	88.056
18937	22.348	1.8182	5.e-002	4.1846
18938	22.624	1.8182	0.	100.47
18939	22.532	1.7273	0.	94.284
18940	22.532	1.8182	5.e-002	4.201
18941	22.807	1.8182	0.	107.66
18942	22.715	1.7273	0.	101.03
18943	22.715	1.8182	5.e-002	4.2222
18944	22.991	1.8182	0.	115.41
18945	22.899	1.7273	0.	108.33
18946	22.899	1.8182	5.e-002	4.2489
18947	23.174	1.8182	0.	123.74
18948	23.082	1.7273	0.	116.22
18949	23.082	1.8182	5.e-002	4.2818
18950	23.358	1.8182	0.	132.66
18951	23.266	1.7273	0.	124.72
18952	23.266	1.8182	5.e-002	4.3216
18953	23.541	1.8182	0.	142.19
18954	23.449	1.7273	0.	133.84
18955	23.449	1.8182	5.e-002	4.3685
18956	23.725	1.8182	0.	152.26
18957	23.633	1.7273	0.	143.64
18958	23.633	1.8182	5.e-002	4.4244
18959	23.816	1.7273	0.	153.92
18960	23.816	1.8182	5.e-002	4.525
18961	23.908	1.8182	0.	162.15
18962	6.8419	1.6364	0.	2152.6
18963	6.7502	1.5455	0.	2609.4
18964	6.7502	1.6364	5.e-002	233.05
18965	6.6584	1.6364	0.	2384.2
18966	7.0254	1.6364	0.	1089.5
18967	6.9337	1.5455	0.	1391.3
18968	6.9337	1.6364	5.e-002	91.998
18969	7.2089	1.6364	0.	555.5
18970	7.1172	1.5455	0.	768.72
18971	7.1172	1.6364	5.e-002	56.569
18972	7.3925	1.6364	0.	262.67
18973	7.3007	1.5455	0.	410.03
18974	7.3007	1.6364	5.e-002	40.52
18975	7.576	1.6364	0.	96.469
18976	7.4842	1.5455	0.	197.87
18977	7.4842	1.6364	5.e-002	31.184
18978	7.7595	1.6364	0.	17.486
18979	7.6677	1.5455	0.	74.599
18980	7.6677	1.6364	5.e-002	25.416
18981	7.943	1.6364	0.	4.3654
18982	7.8512	1.5455	0.	15.129
18983	7.8512	1.6364	5.e-002	21.146
18984	8.1265	1.6364	0.	2.0911
18985	8.0347	1.5455	0.	4.1806
18986	8.0347	1.6364	5.e-002	17.884
18987	8.31	1.6364	0.	1.2425
18988	8.2182	1.5455	0.	2.0204
18989	8.2182	1.6364	5.e-002	15.322
18990	8.4935	1.6364	0.	0.81456
18991	8.4018	1.5455	0.	1.1987
18992	8.4018	1.6364	5.e-002	13.279
18993	8.677	1.6364	0.	0.56221
18994	8.5853	1.5455	0.	0.77988
18995	8.5853	1.6364	5.e-002	11.64
18996	8.8605	1.6364	0.	0.40043
18997	8.7688	1.5455	0.	0.53409
18998	8.7688	1.6364	5.e-002	10.323
18999	9.044	1.6364	0.	0.29112
19000	8.9523	1.5455	0.	0.37751
19001	8.9523	1.6364	5.e-002	9.2678
19002	9.2275	1.6364	0.	0.21482
19003	9.1358	1.5455	0.	0.27274
19004	9.1358	1.6364	5.e-002	8.4274
19005	9.4111	1.6364	0.	0.16037
19006	9.3193	1.5455	0.	0.20032
19007	9.3193	1.6364	5.e-002	7.7617
19008	9.5946	1.6364	0.	0.12092
19009	9.5028	1.5455	0.	0.14911
19010	9.5028	1.6364	5.e-002	7.2369
19011	9.7781	1.6364	0.	9.1996e-002
19012	9.6863	1.5455	0.	0.1123
19013	9.6863	1.6364	5.e-002	6.8246
19014	9.9616	1.6364	0.	7.0594e-002
19015	9.8698	1.5455	0.	8.5487e-002
19016	9.8698	1.6364	5.e-002	6.5007
19017	10.145	1.6364	0.	5.4654e-002
19018	10.053	1.5455	0.	6.574e-002
19019	10.053	1.6364	5.e-002	6.2453
19020	10.329	1.6364	0.	4.2721e-002
19021	10.237	1.5455	0.	5.1099e-002
19022	10.237	1.6364	5.e-002	6.0427
19023	10.512	1.6364	0.	3.3736e-002
19024	10.42	1.5455	0.	4.015e-002
19025	10.42	1.6364	5.e-002	5.8803
19026	10.696	1.6364	0.	2.693e-002
19027	10.604	1.5455	0.	3.1906e-002
19028	10.604	1.6364	5.e-002	5.7484
19029	10.879	1.6364	0.	2.1727e-002
19030	10.787	1.5455	0.	2.5646e-002
19031	10.787	1.6364	5.e-002	5.6396
19032	11.063	1.6364	0.	1.7736e-002
19033	10.971	1.5455	0.	2.0827e-002
19034	10.971	1.6364	5.e-002	5.5483
19035	11.246	1.6364	0.	1.4715e-002
19036	11.154	1.5455	0.	1.7139e-002
19037	11.154	1.6364	5.e-002	5.4701
19038	11.43	1.6364	0.	1.2435e-002
19039	11.338	1.5455	0.	1.4366e-002
19040	11.338	1.6364	5.e-002	5.4022
19041	11.613	1.6364	0.	1.0694e-002
19042	11.521	1.5455	0.	1.2238e-002
19043	11.521	1.6364	5.e-002	5.3422
19044	11.797	1.6364	0.	9.3582e-003
19045	11.705	1.5455	0.	1.06e-002
19046	11.705	1.6364	5.e-002	5.2884
19047	11.98	1.6364	0.	8.3286e-003
19048	11.888	1.5455	0.	9.3283e-003
19049	11.888	1.6364	5.e-002	5.2396
19050	12.164	1.6364	0.	7.5403e-003
19051	12.072	1.5455	0.	8.3382e-003
19052	12.072	1.6364	5.e-002	5.1946
19053	12.347	1.6364	0.	6.9479e-003
19054	12.255	1.5455	0.	7.5784e-003
19055	12.255	1.6364	5.e-002	5.1528
19056	12.531	1.6364	0.	6.5416e-003
19057	12.439	1.5455	0.	7.0049e-003
19058	12.439	1.6364	5.e-002	5.1135
19059	12.714	1.6364	0.	6.2941e-003
19060	12.622	1.5455	0.	6.638e-003
19061	12.622	1.6364	5.e-002	5.0764
19062	12.898	1.6364	0.	6.1328e-003
19063	12.806	1.5455	0.	6.4023e-003
19064	12.806	1.6364	5.e-002	5.0413
19065	13.081	1.6364	0.	6.0326e-003
19066	12.989	1.5455	0.	6.2259e-003
19067	12.989	1.6364	5.e-002	5.0078
19068	13.265	1.6364	0.	6.0012e-003
19069	13.173	1.5455	0.	6.1314e-003
19070	13.173	1.6364	5.e-002	4.9757
19071	13.448	1.6364	0.	6.0399e-003
19072	13.356	1.5455	0.	6.1124e-003
19073	13.356	1.6364	5.e-002	4.9448
19074	13.632	1.6364	0.	6.1738e-003
19075	13.54	1.5455	0.	6.1788e-003
19076	13.54	1.6364	5.e-002	4.9149
19077	13.815	1.6364	0.	6.4101e-003
19078	13.724	1.5455	0.	6.3786e-003
19079	13.724	1.6364	5.e-002	4.886
19080	13.999	1.6364	0.	6.7449e-003
19081	13.907	1.5455	0.	6.6881e-003
19082	13.907	1.6364	5.e-002	4.858
19083	14.182	1.6364	0.	7.2143e-003
19084	14.091	1.5455	0.	7.1422e-003
19085	14.091	1.6364	5.e-002	4.8308
19086	14.366	1.6364	0.	7.8926e-003
19087	14.274	1.5455	0.	7.829e-003
19088	14.274	1.6364	5.e-002	4.8044
19089	14.549	1.6364	0.	8.9997e-003
19090	14.458	1.5455	0.	8.9272e-003
19091	14.458	1.6364	5.e-002	4.7786
19092	14.733	1.6364	0.	1.1205e-002
19093	14.641	1.5455	0.	1.1081e-002
19094	14.641	1.6364	5.e-002	4.7534
19095	14.916	1.6364	0.	1.7561e-002
19096	14.825	1.5455	0.	1.7006e-002
19097	14.825	1.6364	5.e-002	4.7287
19098	15.1	1.6364	0.	0.13232
19099	15.008	1.5455	0.	8.1445e-002
19100	15.008	1.6364	5.e-002	4.7046
19101	15.283	1.6364	0.	1.5424
19102	15.192	1.5455	0.	1.3432
19103	15.192	1.6364	5.e-002	4.681
19104	15.467	1.6364	0.	3.0246
19105	15.375	1.5455	0.	2.8016
19106	15.375	1.6364	5.e-002	4.6579
19107	15.65	1.6364	0.	4.4473
19108	15.559	1.5455	0.	4.2013
19109	15.559	1.6364	5.e-002	4.6353
19110	15.834	1.6364	0.	5.8154
19111	15.742	1.5455	0.	5.5454
19112	15.742	1.6364	5.e-002	4.613
19113	16.017	1.6364	0.	7.1362
19114	15.926	1.5455	0.	6.8408
19115	15.926	1.6364	5.e-002	4.5911
19116	16.201	1.6364	0.	8.4173
19117	16.109	1.5455	0.	8.0947
19118	16.109	1.6364	5.e-002	4.5696
19119	16.384	1.6364	0.	9.6662
19120	16.293	1.5455	0.	9.3144
19121	16.293	1.6364	5.e-002	4.5485
19122	16.568	1.6364	0.	10.89
19123	16.476	1.5455	0.	10.507
19124	16.476	1.6364	5.e-002	4.5278
19125	16.751	1.6364	0.	12.096
19126	16.66	1.5455	0.	11.679
19127	16.66	1.6364	5.e-002	4.5074
19128	16.935	1.6364	0.	13.292
19129	16.843	1.5455	0.	12.837
19130	16.843	1.6364	5.e-002	4.4874
19131	17.118	1.6364	0.	14.484
19132	17.027	1.5455	0.	13.988
19133	17.027	1.6364	5.e-002	4.4677
19134	17.302	1.6364	0.	15.68
19135	17.21	1.5455	0.	15.14
19136	17.21	1.6364	5.e-002	4.4483
19137	17.485	1.6364	0.	16.887
19138	17.394	1.5455	0.	16.298
19139	17.394	1.6364	5.e-002	4.4293
19140	17.669	1.6364	0.	18.111
19141	17.577	1.5455	0.	17.469
19142	17.577	1.6364	5.e-002	4.4107
19143	17.852	1.6364	0.	19.36
19144	17.761	1.5455	0.	18.661
19145	17.761	1.6364	5.e-002	4.3925
19146	18.036	1.6364	0.	20.642
19147	17.944	1.5455	0.	19.879
19148	17.944	1.6364	5.e-002	4.3746
19149	18.219	1.6364	0.	21.963
19150	18.128	1.5455	0.	21.132
19151	18.128	1.6364	5.e-002	4.3571
19152	18.403	1.6364	0.	23.332
19153	18.311	1.5455	0.	22.426
19154	18.311	1.6364	5.e-002	4.34
19155	18.586	1.6364	0.	24.756
19156	18.495	1.5455	0.	23.769
19157	18.495	1.6364	5.e-002	4.3233
19158	18.77	1.6364	0.	26.245
19159	18.678	1.5455	0.	25.169
19160	18.678	1.6364	5.e-002	4.3071
19161	18.954	1.6364	0.	27.806
19162	18.862	1.5455	0.	26.633
19163	18.862	1.6364	5.e-002	4.2914
19164	19.137	1.6364	0.	29.449
19165	19.045	1.5455	0.	28.17
19166	19.045	1.6364	5.e-002	4.2762
19167	19.321	1.6364	0.	31.183
19168	19.229	1.5455	0.	29.789
19169	19.229	1.6364	5.e-002	4.2616
19170	19.504	1.6364	0.	33.019
19171	19.412	1.5455	0.	31.499
19172	19.412	1.6364	5.e-002	4.2474
19173	19.688	1.6364	0.	34.967
19174	19.596	1.5455	0.	33.311
19175	19.596	1.6364	5.e-002	4.234
19176	19.871	1.6364	0.	37.039
19177	19.779	1.5455	0.	35.234
19178	19.779	1.6364	5.e-002	4.2212
19179	20.055	1.6364	0.	39.248
19180	19.963	1.5455	0.	37.281
19181	19.963	1.6364	5.e-002	4.2092
19182	20.238	1.6364	0.	41.607
19183	20.146	1.5455	0.	39.463
19184	20.146	1.6364	5.e-002	4.198
19185	20.422	1.6364	0.	44.13
19186	20.33	1.5455	0.	41.793
19187	20.33	1.6364	5.e-002	4.1876
19188	20.605	1.6364	0.	46.833
19189	20.513	1.5455	0.	44.287
19190	20.513	1.6364	5.e-002	4.1782
19191	20.789	1.6364	0.	49.732
19192	20.697	1.5455	0.	46.959
19193	20.697	1.6364	5.e-002	4.1699
19194	20.972	1.6364	0.	52.848
19195	20.88	1.5455	0.	49.827
19196	20.88	1.6364	5.e-002	4.1629
19197	21.156	1.6364	0.	56.2
19198	21.064	1.5455	0.	52.91
19199	21.064	1.6364	5.e-002	4.1571
19200	21.339	1.6364	0.	59.812
19201	21.247	1.5455	0.	56.229
19202	21.247	1.6364	5.e-002	4.1529
19203	21.523	1.6364	0.	63.708
19204	21.431	1.5455	0.	59.807
19205	21.431	1.6364	5.e-002	4.1504
19206	21.706	1.6364	0.	67.917
19207	21.614	1.5455	0.	63.672
19208	21.614	1.6364	5.e-002	4.1499
19209	21.89	1.6364	0.	72.47
19210	21.798	1.5455	0.	67.854
19211	21.798	1.6364	5.e-002	4.1516
19212	22.073	1.6364	0.	77.403
19213	21.981	1.5455	0.	72.386
19214	21.981	1.6364	5.e-002	4.1559
19215	22.257	1.6364	0.	82.752
19216	22.165	1.5455	0.	77.306
19217	22.165	1.6364	5.e-002	4.1632
19218	22.44	1.6364	0.	88.56
19219	22.348	1.5455	0.	82.657
19220	22.348	1.6364	5.e-002	4.1741
19221	22.624	1.6364	0.	94.868
19222	22.532	1.5455	0.	88.484
19223	22.532	1.6364	5.e-002	4.1892
19224	22.807	1.6364	0.	101.72
19225	22.715	1.5455	0.	94.838
19226	22.715	1.6364	5.e-002	4.2094
19227	22.991	1.6364	0.	109.16
19228	22.899	1.5455	0.	101.77
19229	22.899	1.6364	5.e-002	4.2354
19230	23.174	1.6364	0.	117.22
19231	23.082	1.5455	0.	109.32
19232	23.082	1.6364	5.e-002	4.2683
19233	23.358	1.6364	0.	125.92
19234	23.266	1.5455	0.	117.54
19235	23.266	1.6364	5.e-002	4.309
19236	23.541	1.6364	0.	135.3
19237	23.449	1.5455	0.	126.45
19238	23.449	1.6364	5.e-002	4.358
19239	23.725	1.6364	0.	145.3
19240	23.633	1.5455	0.	136.1
19241	23.633	1.6364	5.e-002	4.4182
19242	23.816	1.5455	0.	146.33
19243	23.816	1.6364	5.e-002	4.5355
19244	23.908	1.6364	0.	155.08
19245	6.8419	1.4545	0.	1756.1
19246	6.7502	1.3636	0.	2005.7
19247	6.7502	1.4545	5.e-002	153.61
19248	6.6584	1.4545	0.	1864.5
19249	7.0254	1.4545	0.	1037.7
19250	6.9337	1.3636	0.	1217.1
19251	6.9337	1.4545	5.e-002	90.799
19252	7.2089	1.4545	0.	605.16
19253	7.1172	1.3636	0.	747.65
19254	7.1172	1.4545	5.e-002	54.425
19255	7.3925	1.4545	0.	334.51
19256	7.3007	1.3636	0.	443.92
19257	7.3007	1.4545	5.e-002	38.396
19258	7.576	1.4545	0.	169.29
19259	7.4842	1.3636	0.	252.13
19260	7.4842	1.4545	5.e-002	28.848
19261	7.7595	1.4545	0.	70.007
19262	7.6677	1.3636	0.	132.64
19263	7.6677	1.4545	5.e-002	23.012
19264	7.943	1.4545	0.	17.682
19265	7.8512	1.3636	0.	58.833
19266	7.8512	1.4545	5.e-002	18.885
19267	8.1265	1.4545	0.	4.7059
19268	8.0347	1.3636	0.	17.593
19269	8.0347	1.4545	5.e-002	15.812
19270	8.31	1.4545	0.	2.1589
19271	8.2182	1.3636	0.	4.8981
19272	8.2182	1.4545	5.e-002	13.436
19273	8.4935	1.4545	0.	1.2403
19274	8.4018	1.3636	0.	2.1721
19275	8.4018	1.4545	5.e-002	11.576
19276	8.677	1.4545	0.	0.78889
19277	8.5853	1.3636	0.	1.214
19278	8.5853	1.4545	5.e-002	10.117
19279	8.8605	1.4545	0.	0.53078
19280	8.7688	1.3636	0.	0.75588
19281	8.7688	1.4545	5.e-002	8.9779
19282	9.044	1.4545	0.	0.37004
19283	8.9523	1.3636	0.	0.50014
19284	8.9523	1.4545	5.e-002	8.0966
19285	9.2275	1.4545	0.	0.26454
19286	9.1358	1.3636	0.	0.34428
19287	9.1358	1.4545	5.e-002	7.4222
19288	9.4111	1.4545	0.	0.19281
19289	9.3193	1.3636	0.	0.24388
19290	9.3193	1.4545	5.e-002	6.9114
19291	9.5946	1.4545	0.	0.1428
19292	9.5028	1.3636	0.	0.17669
19293	9.5028	1.4545	5.e-002	6.5274
19294	9.7781	1.4545	0.	0.10725
19295	9.6863	1.3636	0.	0.13046
19296	9.6863	1.4545	5.e-002	6.2395
19297	9.9616	1.4545	0.	8.1582e-002
19298	9.8698	1.3636	0.	9.7926e-002
19299	9.8698	1.4545	5.e-002	6.023
19300	10.145	1.4545	0.	6.282e-002
19301	10.053	1.3636	0.	7.4604e-002
19302	10.053	1.4545	5.e-002	5.8585
19303	10.329	1.4545	0.	4.8966e-002
19304	10.237	1.3636	0.	5.766e-002
19305	10.237	1.4545	5.e-002	5.7314
19306	10.512	1.4545	0.	3.8631e-002
19307	10.42	1.3636	0.	4.5176e-002
19308	10.42	1.4545	5.e-002	5.6309
19309	10.696	1.4545	0.	3.0847e-002
19310	10.604	1.3636	0.	3.5869e-002
19311	10.604	1.4545	5.e-002	5.5492
19312	10.879	1.4545	0.	2.4912e-002
19313	10.787	1.3636	0.	2.8843e-002
19314	10.787	1.4545	5.e-002	5.4808
19315	11.063	1.4545	0.	2.0354e-002
19316	10.971	1.3636	0.	2.3449e-002
19317	10.971	1.4545	5.e-002	5.4219
19318	11.246	1.4545	0.	1.6885e-002
19319	11.154	1.3636	0.	1.9315e-002
19320	11.154	1.4545	5.e-002	5.3695
19321	11.43	1.4545	0.	1.4241e-002
19322	11.338	1.3636	0.	1.6184e-002
19323	11.338	1.4545	5.e-002	5.3221
19324	11.613	1.4545	0.	1.2199e-002
19325	11.521	1.3636	0.	1.3761e-002
19326	11.521	1.4545	5.e-002	5.2784
19327	11.797	1.4545	0.	1.0611e-002
19328	11.705	1.3636	0.	1.1874e-002
19329	11.705	1.4545	5.e-002	5.2375
19330	11.98	1.4545	0.	9.3673e-003
19331	11.888	1.3636	0.	1.039e-002
19332	11.888	1.4545	5.e-002	5.1988
19333	12.164	1.4545	0.	8.3964e-003
19334	12.072	1.3636	0.	9.2176e-003
19335	12.072	1.4545	5.e-002	5.1619
19336	12.347	1.4545	0.	7.6477e-003
19337	12.255	1.3636	0.	8.2999e-003
19338	12.255	1.4545	5.e-002	5.1265
19339	12.531	1.4545	0.	7.1069e-003
19340	12.439	1.3636	0.	7.5895e-003
19341	12.439	1.4545	5.e-002	5.0922
19342	12.714	1.4545	0.	6.746e-003
19343	12.622	1.3636	0.	7.1063e-003
19344	12.622	1.4545	5.e-002	5.0592
19345	12.898	1.4545	0.	6.49e-003
19346	12.806	1.3636	0.	6.7718e-003
19347	12.806	1.4545	5.e-002	5.0272
19348	13.081	1.4545	0.	6.3147e-003
19349	12.989	1.3636	0.	6.5154e-003
19350	12.989	1.4545	5.e-002	4.9962
19351	13.265	1.4545	0.	6.2285e-003
19352	13.173	1.3636	0.	6.3606e-003
19353	13.173	1.4545	5.e-002	4.9661
19354	13.448	1.4545	0.	6.2336e-003
19355	13.356	1.3636	0.	6.304e-003
19356	13.356	1.4545	5.e-002	4.9367
19357	13.632	1.4545	0.	6.3627e-003
19358	13.54	1.3636	0.	6.3624e-003
19359	13.54	1.4545	5.e-002	4.9081
19360	13.815	1.4545	0.	6.6329e-003
19361	13.724	1.3636	0.	6.5936e-003
19362	13.724	1.4545	5.e-002	4.8802
19363	13.999	1.4545	0.	7.0593e-003
19364	13.907	1.3636	0.	6.9988e-003
19365	13.907	1.4545	5.e-002	4.8531
19366	14.182	1.4545	0.	7.7284e-003
19367	14.091	1.3636	0.	7.6608e-003
19368	14.091	1.4545	5.e-002	4.8265
19369	14.366	1.4545	0.	8.8301e-003
19370	14.274	1.3636	0.	8.7945e-003
19371	14.274	1.4545	5.e-002	4.8007
19372	14.549	1.4545	0.	1.095e-002
19373	14.458	1.3636	0.	1.0967e-002
19374	14.458	1.4545	5.e-002	4.7753
19375	14.733	1.4545	0.	1.657e-002
19376	14.641	1.3636	0.	1.6715e-002
19377	14.641	1.4545	5.e-002	4.7504
19378	14.916	1.4545	0.	6.245e-002
19379	14.825	1.3636	0.	6.0858e-002
19380	14.825	1.4545	5.e-002	4.7261
19381	15.1	1.4545	0.	1.19
19382	15.008	1.3636	0.	1.1338
19383	15.008	1.4545	5.e-002	4.7022
19384	15.283	1.4545	0.	2.6258
19385	15.192	1.3636	0.	2.5387
19386	15.192	1.4545	5.e-002	4.6788
19387	15.467	1.4545	0.	4.004
19388	15.375	1.3636	0.	3.8872
19389	15.375	1.4545	5.e-002	4.6559
19390	15.65	1.4545	0.	5.326
19391	15.559	1.3636	0.	5.1794
19392	15.559	1.4545	5.e-002	4.6334
19393	15.834	1.4545	0.	6.5982
19394	15.742	1.3636	0.	6.4212
19395	15.742	1.4545	5.e-002	4.6113
19396	16.017	1.4545	0.	7.8274
19397	15.926	1.3636	0.	7.6191
19398	15.926	1.4545	5.e-002	4.5895
19399	16.201	1.4545	0.	9.0205
19400	16.109	1.3636	0.	8.7796
19401	16.109	1.4545	5.e-002	4.568
19402	16.384	1.4545	0.	10.184
19403	16.293	1.3636	0.	9.9091
19404	16.293	1.4545	5.e-002	4.547
19405	16.568	1.4545	0.	11.325
19406	16.476	1.3636	0.	11.014
19407	16.476	1.4545	5.e-002	4.5264
19408	16.751	1.4545	0.	12.45
19409	16.66	1.3636	0.	12.1
19410	16.66	1.4545	5.e-002	4.5061
19411	16.935	1.4545	0.	13.564
19412	16.843	1.3636	0.	13.174
19413	16.843	1.4545	5.e-002	4.4861
19414	17.118	1.4545	0.	14.676
19415	17.027	1.3636	0.	14.241
19416	17.027	1.4545	5.e-002	4.4664
19417	17.302	1.4545	0.	15.79
19418	17.21	1.3636	0.	15.308
19419	17.21	1.4545	5.e-002	4.447
19420	17.485	1.4545	0.	16.914
19421	17.394	1.3636	0.	16.381
19422	17.394	1.4545	5.e-002	4.4281
19423	17.669	1.4545	0.	18.053
19424	17.577	1.3636	0.	17.465
19425	17.577	1.4545	5.e-002	4.4095
19426	17.852	1.4545	0.	19.214
19427	17.761	1.3636	0.	18.567
19428	17.761	1.4545	5.e-002	4.3912
19429	18.036	1.4545	0.	20.405
19430	17.944	1.3636	0.	19.693
19431	17.944	1.4545	5.e-002	4.3734
19432	18.219	1.4545	0.	21.631
19433	18.128	1.3636	0.	20.849
19434	18.128	1.4545	5.e-002	4.3558
19435	18.403	1.4545	0.	22.9
19436	18.311	1.3636	0.	22.042
19437	18.311	1.4545	5.e-002	4.3387
19438	18.586	1.4545	0.	24.218
19439	18.495	1.3636	0.	23.278
19440	18.495	1.4545	5.e-002	4.322
19441	18.77	1.4545	0.	25.594
19442	18.678	1.3636	0.	24.564
19443	18.678	1.4545	5.e-002	4.3057
19444	18.954	1.4545	0.	27.035
19445	18.862	1.3636	0.	25.907
19446	18.862	1.4545	5.e-002	4.29
19447	19.137	1.4545	0.	28.549
19448	19.045	1.3636	0.	27.315
19449	19.045	1.4545	5.e-002	4.2747
19450	19.321	1.4545	0.	30.144
19451	19.229	1.3636	0.	28.796
19452	19.229	1.4545	5.e-002	4.2599
19453	19.504	1.4545	0.	31.831
19454	19.412	1.3636	0.	30.357
19455	19.412	1.4545	5.e-002	4.2457
19456	19.688	1.4545	0.	33.618
19457	19.596	1.3636	0.	32.008
19458	19.596	1.4545	5.e-002	4.2321
19459	19.871	1.4545	0.	35.516
19460	19.779	1.3636	0.	33.757
19461	19.779	1.4545	5.e-002	4.2191
19462	20.055	1.4545	0.	37.537
19463	19.963	1.3636	0.	35.616
19464	19.963	1.4545	5.e-002	4.2069
19465	20.238	1.4545	0.	39.691
19466	20.146	1.3636	0.	37.594
19467	20.146	1.4545	5.e-002	4.1955
19468	20.422	1.4545	0.	41.993
19469	20.33	1.3636	0.	39.704
19470	20.33	1.4545	5.e-002	4.1848
19471	20.605	1.4545	0.	44.456
19472	20.513	1.3636	0.	41.957
19473	20.513	1.4545	5.e-002	4.1751
19474	20.789	1.4545	0.	47.097
19475	20.697	1.3636	0.	44.369
19476	20.697	1.4545	5.e-002	4.1664
19477	20.972	1.4545	0.	49.932
19478	20.88	1.3636	0.	46.955
19479	20.88	1.4545	5.e-002	4.1589
19480	21.156	1.4545	0.	52.982
19481	21.064	1.3636	0.	49.733
19482	21.064	1.4545	5.e-002	4.1526
19483	21.339	1.4545	0.	56.268
19484	21.247	1.3636	0.	52.722
19485	21.247	1.4545	5.e-002	4.1478
19486	21.523	1.4545	0.	59.815
19487	21.431	1.3636	0.	55.945
19488	21.431	1.4545	5.e-002	4.1445
19489	21.706	1.4545	0.	63.652
19490	21.614	1.3636	0.	59.428
19491	21.614	1.4545	5.e-002	4.143
19492	21.89	1.4545	0.	67.811
19493	21.798	1.3636	0.	63.201
19494	21.798	1.4545	5.e-002	4.1437
19495	22.073	1.4545	0.	72.33
19496	21.981	1.3636	0.	67.298
19497	21.981	1.4545	5.e-002	4.1468
19498	22.257	1.4545	0.	77.249
19499	22.165	1.3636	0.	71.761
19500	22.165	1.4545	5.e-002	4.1527
19501	22.44	1.4545	0.	82.618
19502	22.348	1.3636	0.	76.635
19503	22.348	1.4545	5.e-002	4.1622
19504	22.624	1.4545	0.	88.488
19505	22.532	1.3636	0.	81.976
19506	22.532	1.4545	5.e-002	4.1758
19507	22.807	1.4545	0.	94.916
19508	22.715	1.3636	0.	87.843
19509	22.715	1.4545	5.e-002	4.1945
19510	22.991	1.4545	0.	101.96
19511	22.899	1.3636	0.	94.302
19512	22.899	1.4545	5.e-002	4.2194
19513	23.174	1.4545	0.	109.67
19514	23.082	1.3636	0.	101.42
19515	23.082	1.4545	5.e-002	4.2518
19516	23.358	1.4545	0.	118.08
19517	23.266	1.3636	0.	109.26
19518	23.266	1.4545	5.e-002	4.2931
19519	23.541	1.4545	0.	127.25
19520	23.449	1.3636	0.	117.87
19521	23.449	1.4545	5.e-002	4.3446
19522	23.725	1.4545	0.	137.14
19523	23.633	1.3636	0.	127.32
19524	23.633	1.4545	5.e-002	4.41
19525	23.816	1.3636	0.	137.47
19526	23.816	1.4545	5.e-002	4.5468
19527	23.908	1.4545	0.	146.79
19528	6.8419	1.2727	0.	1403.9
19529	6.7502	1.1818	0.	1550.5
19530	6.7502	1.2727	5.e-002	121.41
19531	6.6584	1.2727	0.	1411.1
19532	7.0254	1.2727	0.	889.85
19533	6.9337	1.1818	0.	986.2
19534	6.9337	1.2727	5.e-002	72.98
19535	7.2089	1.2727	0.	564.79
19536	7.1172	1.1818	0.	647.12
19537	7.1172	1.2727	5.e-002	53.636
19538	7.3925	1.2727	0.	348.69
19539	7.3007	1.1818	0.	417.87
19540	7.3007	1.2727	5.e-002	38.648
19541	7.576	1.2727	0.	207.88
19542	7.4842	1.1818	0.	265.45
19543	7.4842	1.2727	5.e-002	28.967
19544	7.7595	1.2727	0.	117.19
19545	7.6677	1.1818	0.	165.47
19546	7.6677	1.2727	5.e-002	22.442
19547	7.943	1.2727	0.	58.803
19548	7.8512	1.1818	0.	99.335
19549	7.8512	1.2727	5.e-002	17.885
19550	8.1265	1.2727	0.	22.555
19551	8.0347	1.1818	0.	54.83
19552	8.0347	1.2727	5.e-002	14.547
19553	8.31	1.2727	0.	6.461
19554	8.2182	1.1818	0.	24.954
19555	8.2182	1.2727	5.e-002	12.037
19556	8.4935	1.2727	0.	2.5133
19557	8.4018	1.1818	0.	8.0822
19558	8.4018	1.2727	5.e-002	10.135
19559	8.677	1.2727	0.	1.3023
19560	8.5853	1.1818	0.	2.7813
19561	8.5853	1.2727	5.e-002	8.7035
19562	8.8605	1.2727	0.	0.77418
19563	8.7688	1.1818	0.	1.3183
19564	8.7688	1.2727	5.e-002	7.6462
19565	9.044	1.2727	0.	0.49657
19566	8.9523	1.1818	0.	0.74448
19567	8.9523	1.2727	5.e-002	6.8856
19568	9.2275	1.2727	0.	0.3345
19569	9.1358	1.1818	0.	0.46262
19570	9.1358	1.2727	5.e-002	6.3551
19571	9.4111	1.2727	0.	0.23344
19572	9.3193	1.1818	0.	0.30546
19573	9.3193	1.2727	5.e-002	5.9964
19574	9.5946	1.2727	0.	0.16748
19575	9.5028	1.1818	0.	0.2106
19576	9.5028	1.2727	5.e-002	5.7602
19577	9.7781	1.2727	0.	0.12294
19578	9.6863	1.1818	0.	0.15015
19579	9.6863	1.2727	5.e-002	5.6076
19580	9.9616	1.2727	0.	9.2043e-002
19581	9.8698	1.1818	0.	0.11001
19582	9.8698	1.2727	5.e-002	5.5093
19583	10.145	1.2727	0.	7.0142e-002
19584	10.053	1.1818	0.	8.2476e-002
19585	10.053	1.2727	5.e-002	5.4449
19586	10.329	1.2727	0.	5.4335e-002
19587	10.237	1.1818	0.	6.3118e-002
19588	10.237	1.2727	5.e-002	5.4006
19589	10.512	1.2727	0.	4.2737e-002
19590	10.42	1.1818	0.	4.9194e-002
19591	10.42	1.2727	5.e-002	5.3675
19592	10.696	1.2727	0.	3.4097e-002
19593	10.604	1.1818	0.	3.8985e-002
19594	10.604	1.2727	5.e-002	5.34
19595	10.879	1.2727	0.	2.7552e-002
19596	10.787	1.1818	0.	3.1359e-002
19597	10.787	1.2727	5.e-002	5.3149
19598	11.063	1.2727	0.	2.254e-002
19599	10.971	1.1818	0.	2.5539e-002
19600	10.971	1.2727	5.e-002	5.2903
19601	11.246	1.2727	0.	1.8713e-002
19602	11.154	1.1818	0.	2.1082e-002
19603	11.154	1.2727	5.e-002	5.2652
19604	11.43	1.2727	0.	1.5779e-002
19605	11.338	1.1818	0.	1.7689e-002
19606	11.338	1.2727	5.e-002	5.2393
19607	11.613	1.2727	0.	1.3494e-002
19608	11.521	1.1818	0.	1.5046e-002
19609	11.521	1.2727	5.e-002	5.2125
19610	11.797	1.2727	0.	1.1697e-002
19611	11.705	1.1818	0.	1.2968e-002
19612	11.705	1.2727	5.e-002	5.185
19613	11.98	1.2727	0.	1.0272e-002
19614	11.888	1.1818	0.	1.1314e-002
19615	11.888	1.2727	5.e-002	5.1568
19616	12.164	1.2727	0.	9.1423e-003
19617	12.072	1.1818	0.	9.989e-003
19618	12.072	1.2727	5.e-002	5.1282
19619	12.347	1.2727	0.	8.2541e-003
19620	12.255	1.1818	0.	8.9338e-003
19621	12.255	1.2727	5.e-002	5.0993
19622	12.531	1.2727	0.	7.5933e-003
19623	12.439	1.1818	0.	8.1018e-003
19624	12.439	1.2727	5.e-002	5.0702
19625	12.714	1.2727	0.	7.1296e-003
19626	12.622	1.1818	0.	7.512e-003
19627	12.622	1.2727	5.e-002	5.0412
19628	12.898	1.2727	0.	6.7883e-003
19629	12.806	1.1818	0.	7.0873e-003
19630	12.806	1.2727	5.e-002	5.0125
19631	13.081	1.2727	0.	6.5465e-003
19632	12.989	1.1818	0.	6.7593e-003
19633	12.989	1.2727	5.e-002	4.9841
19634	13.265	1.2727	0.	6.416e-003
19635	13.173	1.1818	0.	6.5543e-003
19636	13.173	1.2727	5.e-002	4.9561
19637	13.448	1.2727	0.	6.4082e-003
19638	13.356	1.1818	0.	6.4788e-003
19639	13.356	1.2727	5.e-002	4.9283
19640	13.632	1.2727	0.	6.5653e-003
19641	13.54	1.1818	0.	6.5626e-003
19642	13.54	1.2727	5.e-002	4.901
19643	13.815	1.2727	0.	6.9302e-003
19644	13.724	1.1818	0.	6.8906e-003
19645	13.724	1.2727	5.e-002	4.8741
19646	13.999	1.2727	0.	7.5739e-003
19647	13.907	1.1818	0.	7.5281e-003
19648	13.907	1.2727	5.e-002	4.8478
19649	14.182	1.2727	0.	8.7145e-003
19650	14.091	1.1818	0.	8.7127e-003
19651	14.091	1.2727	5.e-002	4.822
19652	14.366	1.2727	0.	1.0968e-002
19653	14.274	1.1818	0.	1.1164e-002
19654	14.274	1.2727	5.e-002	4.7966
19655	14.549	1.2727	0.	1.6987e-002
19656	14.458	1.1818	0.	1.8063e-002
19657	14.458	1.2727	5.e-002	4.7718
19658	14.733	1.2727	0.	6.4737e-002
19659	14.641	1.1818	0.	8.9274e-002
19660	14.641	1.2727	5.e-002	4.7473
19661	14.916	1.2727	0.	1.131
19662	14.825	1.1818	0.	1.2336
19663	14.825	1.2727	5.e-002	4.7232
19664	15.1	1.2727	0.	2.5062
19665	15.008	1.1818	0.	2.5715
19666	15.008	1.2727	5.e-002	4.6996
19667	15.283	1.2727	0.	3.8255
19668	15.192	1.1818	0.	3.8534
19669	15.192	1.2727	5.e-002	4.6765
19670	15.467	1.2727	0.	5.0888
19671	15.375	1.1818	0.	5.08
19672	15.375	1.2727	5.e-002	4.6537
19673	15.65	1.2727	0.	6.3016
19674	15.559	1.1818	0.	6.2564
19675	15.559	1.2727	5.e-002	4.6314
19676	15.834	1.2727	0.	7.4698
19677	15.742	1.1818	0.	7.3882
19678	15.742	1.2727	5.e-002	4.6094
19679	16.017	1.2727	0.	8.5996
19680	15.926	1.1818	0.	8.4813
19681	15.926	1.2727	5.e-002	4.5877
19682	16.201	1.2727	0.	9.6972
19683	16.109	1.1818	0.	9.5413
19684	16.109	1.2727	5.e-002	4.5663
19685	16.384	1.2727	0.	10.768
19686	16.293	1.1818	0.	10.574
19687	16.293	1.2727	5.e-002	4.5454
19688	16.568	1.2727	0.	11.819
19689	16.476	1.1818	0.	11.584
19690	16.476	1.2727	5.e-002	4.5248
19691	16.751	1.2727	0.	12.855
19692	16.66	1.1818	0.	12.579
19693	16.66	1.2727	5.e-002	4.5046
19694	16.935	1.2727	0.	13.882
19695	16.843	1.1818	0.	13.561
19696	16.843	1.2727	5.e-002	4.4846
19697	17.118	1.2727	0.	14.906
19698	17.027	1.1818	0.	14.538
19699	17.027	1.2727	5.e-002	4.4649
19700	17.302	1.2727	0.	15.932
19701	17.21	1.1818	0.	15.515
19702	17.21	1.2727	5.e-002	4.4456
19703	17.485	1.2727	0.	16.966
19704	17.394	1.1818	0.	16.496
19705	17.394	1.2727	5.e-002	4.4267
19706	17.669	1.2727	0.	18.013
19707	17.577	1.1818	0.	17.487
19708	17.577	1.2727	5.e-002	4.4081
19709	17.852	1.2727	0.	19.081
19710	17.761	1.1818	0.	18.493
19711	17.761	1.2727	5.e-002	4.3898
19712	18.036	1.2727	0.	20.173
19713	17.944	1.1818	0.	19.52
19714	17.944	1.2727	5.e-002	4.3719
19715	18.219	1.2727	0.	21.296
19716	18.128	1.1818	0.	20.573
19717	18.128	1.2727	5.e-002	4.3544
19718	18.403	1.2727	0.	22.457
19719	18.311	1.1818	0.	21.658
19720	18.311	1.2727	5.e-002	4.3372
19721	18.586	1.2727	0.	23.661
19722	18.495	1.1818	0.	22.78
19723	18.495	1.2727	5.e-002	4.3205
19724	18.77	1.2727	0.	24.916
19725	18.678	1.1818	0.	23.945
19726	18.678	1.2727	5.e-002	4.3042
19727	18.954	1.2727	0.	26.227
19728	18.862	1.1818	0.	25.16
19729	18.862	1.2727	5.e-002	4.2883
19730	19.137	1.2727	0.	27.602
19731	19.045	1.1818	0.	26.43
19732	19.045	1.2727	5.e-002	4.2729
19733	19.321	1.2727	0.	29.049
19734	19.229	1.1818	0.	27.763
19735	19.229	1.2727	5.e-002	4.2581
19736	19.504	1.2727	0.	30.575
19737	19.412	1.1818	0.	29.165
19738	19.412	1.2727	5.e-002	4.2437
19739	19.688	1.2727	0.	32.189
19740	19.596	1.1818	0.	30.645
19741	19.596	1.2727	5.e-002	4.2299
19742	19.871	1.2727	0.	33.899
19743	19.779	1.1818	0.	32.209
19744	19.779	1.2727	5.e-002	4.2168
19745	20.055	1.2727	0.	35.716
19746	19.963	1.1818	0.	33.867
19747	19.963	1.2727	5.e-002	4.2044
19748	20.238	1.2727	0.	37.65
19749	20.146	1.1818	0.	35.627
19750	20.146	1.2727	5.e-002	4.1927
19751	20.422	1.2727	0.	39.712
19752	20.33	1.1818	0.	37.501
19753	20.33	1.2727	5.e-002	4.1818
19754	20.605	1.2727	0.	41.916
19755	20.513	1.1818	0.	39.497
19756	20.513	1.2727	5.e-002	4.1717
19757	20.789	1.2727	0.	44.274
19758	20.697	1.1818	0.	41.63
19759	20.697	1.2727	5.e-002	4.1626
19760	20.972	1.2727	0.	46.803
19761	20.88	1.1818	0.	43.912
19762	20.88	1.2727	5.e-002	4.1546
19763	21.156	1.2727	0.	49.521
19764	21.064	1.1818	0.	46.36
19765	21.064	1.2727	5.e-002	4.1477
19766	21.339	1.2727	0.	52.447
19767	21.247	1.1818	0.	48.99
19768	21.247	1.2727	5.e-002	4.1422
19769	21.523	1.2727	0.	55.606
19770	21.431	1.1818	0.	51.823
19771	21.431	1.2727	5.e-002	4.1381
19772	21.706	1.2727	0.	59.025
19773	21.614	1.1818	0.	54.883
19774	21.614	1.2727	5.e-002	4.1356
19775	21.89	1.2727	0.	62.735
19776	21.798	1.1818	0.	58.2
19777	21.798	1.2727	5.e-002	4.1351
19778	22.073	1.2727	0.	66.776
19779	21.981	1.1818	0.	61.806
19780	21.981	1.2727	5.e-002	4.1369
19781	22.257	1.2727	0.	71.193
19782	22.165	1.1818	0.	65.743
19783	22.165	1.2727	5.e-002	4.1413
19784	22.44	1.2727	0.	76.037
19785	22.348	1.1818	0.	70.061
19786	22.348	1.2727	5.e-002	4.149
19787	22.624	1.2727	0.	81.372
19788	22.532	1.1818	0.	74.82
19789	22.532	1.2727	5.e-002	4.1607
19790	22.807	1.2727	0.	87.267
19791	22.715	1.1818	0.	80.089
19792	22.715	1.2727	5.e-002	4.1775
19793	22.991	1.2727	0.	93.799
19794	22.899	1.1818	0.	85.954
19795	22.899	1.2727	5.e-002	4.2007
19796	23.174	1.2727	0.	101.05
19797	23.082	1.1818	0.	92.504
19798	23.082	1.2727	5.e-002	4.232
19799	23.358	1.2727	0.	109.07
19800	23.266	1.1818	0.	99.838
19801	23.266	1.2727	5.e-002	4.2735
19802	23.541	1.2727	0.	117.95
19803	23.449	1.1818	0.	108.03
19804	23.449	1.2727	5.e-002	4.3273
19805	23.725	1.2727	0.	127.67
19806	23.633	1.1818	0.	117.19
19807	23.633	1.2727	5.e-002	4.3988
19808	23.816	1.1818	0.	127.23
19809	23.816	1.2727	5.e-002	4.5582
19810	23.908	1.2727	0.	137.17
19811	6.8419	1.0909	0.	1083.
19812	6.7502	1.	0.	1175.
19813	6.7502	1.0909	5.e-002	96.368
19814	6.6584	1.0909	0.	1068.7
19815	7.0254	1.0909	0.	709.04
19816	6.9337	1.	0.	753.52
19817	6.9337	1.0909	5.e-002	63.644
19818	7.2089	1.0909	0.	478.12
19819	7.1172	1.	0.	515.45
19820	7.1172	1.0909	5.e-002	50.523
19821	7.3925	1.0909	0.	321.2
19822	7.3007	1.	0.	356.11
19823	7.3007	1.0909	5.e-002	38.935
19824	7.576	1.0909	0.	215.15
19825	7.4842	1.	0.	248.42
19826	7.4842	1.0909	5.e-002	29.859
19827	7.7595	1.0909	0.	143.11
19828	7.6677	1.	0.	174.84
19829	7.6677	1.0909	5.e-002	23.064
19830	7.943	1.0909	0.	93.065
19831	7.8512	1.	0.	122.96
19832	7.8512	1.0909	5.e-002	17.988
19833	8.1265	1.0909	0.	57.315
19834	8.0347	1.	0.	84.971
19835	8.0347	1.0909	5.e-002	14.167
19836	8.31	1.0909	0.	31.274
19837	8.2182	1.	0.	56.169
19838	8.2182	1.0909	5.e-002	11.275
19839	8.4935	1.0909	0.	13.033
19840	8.4018	1.	0.	33.829
19841	8.4018	1.0909	5.e-002	9.102
19842	8.677	1.0909	0.	3.9901
19843	8.5853	1.	0.	16.646
19844	8.5853	1.0909	5.e-002	7.5104
19845	8.8605	1.0909	0.	1.5439
19846	8.7688	1.	0.	5.4485
19847	8.7688	1.0909	5.e-002	6.3974
19848	9.044	1.0909	0.	0.78438
19849	8.9523	1.	0.	1.6929
19850	8.9523	1.0909	5.e-002	5.6732
19851	9.2275	1.0909	0.	0.4599
19852	9.1358	1.	0.	0.76057
19853	9.1358	1.0909	5.e-002	5.2477
19854	9.4111	1.0909	0.	0.29342
19855	9.3193	1.	0.	0.42109
19856	9.3193	1.0909	5.e-002	5.0325
19857	9.5946	1.0909	0.	0.19821
19858	9.5028	1.	0.	0.26113
19859	9.5028	1.0909	5.e-002	4.9508
19860	9.7781	1.0909	0.	0.13969
19861	9.6863	1.	0.	0.17407
19862	9.6863	1.0909	5.e-002	4.9445
19863	9.9616	1.0909	0.	0.1018
19864	9.8698	1.	0.	0.12214
19865	9.8698	1.0909	5.e-002	4.9749
19866	10.145	1.0909	0.	7.6261e-002
19867	10.053	1.	0.	8.9126e-002
19868	10.053	1.0909	5.e-002	5.0185
19869	10.329	1.0909	0.	5.8497e-002
19870	10.237	1.	0.	6.7122e-002
19871	10.237	1.0909	5.e-002	5.0624
19872	10.512	1.0909	0.	4.5799e-002
19873	10.42	1.	0.	5.1881e-002
19874	10.42	1.0909	5.e-002	5.1001
19875	10.696	1.0909	0.	3.6504e-002
19876	10.604	1.	0.	4.0988e-002
19877	10.604	1.0909	5.e-002	5.129
19878	10.879	1.0909	0.	2.9539e-002
19879	10.787	1.	0.	3.2983e-002
19880	10.787	1.0909	5.e-002	5.1484
19881	11.063	1.0909	0.	2.423e-002
19882	10.971	1.	0.	2.6927e-002
19883	10.971	1.0909	5.e-002	5.1588
19884	11.246	1.0909	0.	2.0174e-002
19885	11.154	1.	0.	2.2299e-002
19886	11.154	1.0909	5.e-002	5.1612
19887	11.43	1.0909	0.	1.7047e-002
19888	11.338	1.	0.	1.8765e-002
19889	11.338	1.0909	5.e-002	5.1568
19890	11.613	1.0909	0.	1.4592e-002
19891	11.521	1.	0.	1.5993e-002
19892	11.521	1.0909	5.e-002	5.147
19893	11.797	1.0909	0.	1.264e-002
19894	11.705	1.	0.	1.3791e-002
19895	11.705	1.0909	5.e-002	5.1328
19896	11.98	1.0909	0.	1.1071e-002
19897	11.888	1.	0.	1.2016e-002
19898	11.888	1.0909	5.e-002	5.1151
19899	12.164	1.0909	0.	9.8077e-003
19900	12.072	1.	0.	1.0574e-002
19901	12.072	1.0909	5.e-002	5.0946
19902	12.347	1.0909	0.	8.7973e-003
19903	12.255	1.	0.	9.4068e-003
19904	12.255	1.0909	5.e-002	5.0722
19905	12.531	1.0909	0.	8.0258e-003
19906	12.439	1.	0.	8.4701e-003
19907	12.439	1.0909	5.e-002	5.0482
19908	12.714	1.0909	0.	7.4654e-003
19909	12.622	1.	0.	7.7857e-003
19910	12.622	1.0909	5.e-002	5.0233
19911	12.898	1.0909	0.	7.045e-003
19912	12.806	1.	0.	7.2818e-003
19913	12.806	1.0909	5.e-002	4.9977
19914	13.081	1.0909	0.	6.7456e-003
19915	12.989	1.	0.	6.8938e-003
19916	12.989	1.0909	5.e-002	4.9719
19917	13.265	1.0909	0.	6.5885e-003
19918	13.173	1.	0.	6.661e-003
19919	13.173	1.0909	5.e-002	4.9458
19920	13.448	1.0909	0.	6.5996e-003
19921	13.356	1.	0.	6.6068e-003
19922	13.356	1.0909	5.e-002	4.9197
19923	13.632	1.0909	0.	6.8539e-003
19924	13.54	1.	0.	6.7985e-003
19925	13.54	1.0909	5.e-002	4.8937
19926	13.815	1.0909	0.	7.466e-003
19927	13.724	1.	0.	7.4096e-003
19928	13.724	1.0909	5.e-002	4.8678
19929	13.999	1.0909	0.	8.6921e-003
19930	13.907	1.	0.	8.7478e-003
19931	13.907	1.0909	5.e-002	4.8423
19932	14.182	1.0909	0.	1.1382e-002
19933	14.091	1.	0.	1.1949e-002
19934	14.091	1.0909	5.e-002	4.8172
19935	14.366	1.0909	0.	1.9745e-002
19936	14.274	1.	0.	2.4081e-002
19937	14.274	1.0909	5.e-002	4.7924
19938	14.549	1.0909	0.	0.16156
19939	14.458	1.	0.	0.40264
19940	14.458	1.0909	5.e-002	4.768
19941	14.733	1.0909	0.	1.4003
19942	14.641	1.	0.	1.6818
19943	14.641	1.0909	5.e-002	4.7438
19944	14.916	1.0909	0.	2.7002
19945	14.825	1.	0.	2.9349
19946	14.825	1.0909	5.e-002	4.7201
19947	15.1	1.0909	0.	3.9442
19948	15.008	1.	0.	4.1326
19949	15.008	1.0909	5.e-002	4.6968
19950	15.283	1.0909	0.	5.1339
19951	15.192	1.	0.	5.2775
19952	15.192	1.0909	5.e-002	4.6739
19953	15.467	1.0909	0.	6.2742
19954	15.375	1.	0.	6.3744
19955	15.375	1.0909	5.e-002	4.6513
19956	15.65	1.0909	0.	7.3703
19957	15.559	1.	0.	7.428
19958	15.559	1.0909	5.e-002	4.6291
19959	15.834	1.0909	0.	8.4276
19960	15.742	1.	0.	8.4433
19961	15.742	1.0909	5.e-002	4.6073
19962	16.017	1.0909	0.	9.4515
19963	15.926	1.	0.	9.4253
19964	15.926	1.0909	5.e-002	4.5857
19965	16.201	1.0909	0.	10.447
19966	16.109	1.	0.	10.379
19967	16.109	1.0909	5.e-002	4.5644
19968	16.384	1.0909	0.	11.42
19969	16.293	1.	0.	11.309
19970	16.293	1.0909	5.e-002	4.5436
19971	16.568	1.0909	0.	12.374
19972	16.476	1.	0.	12.22
19973	16.476	1.0909	5.e-002	4.5231
19974	16.751	1.0909	0.	13.316
19975	16.66	1.	0.	13.116
19976	16.66	1.0909	5.e-002	4.5029
19977	16.935	1.0909	0.	14.249
19978	16.843	1.	0.	14.003
19979	16.843	1.0909	5.e-002	4.483
19980	17.118	1.0909	0.	15.18
19981	17.027	1.	0.	14.885
19982	17.027	1.0909	5.e-002	4.4634
19983	17.302	1.0909	0.	16.112
19984	17.21	1.	0.	15.766
19985	17.21	1.0909	5.e-002	4.4441
19986	17.485	1.0909	0.	17.051
19987	17.394	1.	0.	16.65
19988	17.394	1.0909	5.e-002	4.4251
19989	17.669	1.0909	0.	18.001
19990	17.577	1.	0.	17.543
19991	17.577	1.0909	5.e-002	4.4065
19992	17.852	1.0909	0.	18.968
19993	17.761	1.	0.	18.449
19994	17.761	1.0909	5.e-002	4.3883
19995	18.036	1.0909	0.	19.956
19996	17.944	1.	0.	19.372
19997	17.944	1.0909	5.e-002	4.3704
19998	18.219	1.0909	0.	20.971
19999	18.128	1.	0.	20.316
20000	18.128	1.0909	5.e-002	4.3528
20001	18.403	1.0909	0.	22.018
20002	18.311	1.	0.	21.288
20003	18.311	1.0909	5.e-002	4.3355
20004	18.586	1.0909	0.	23.101
20005	18.495	1.	0.	22.29
20006	18.495	1.0909	5.e-002	4.3188
20007	18.77	1.0909	0.	24.228
20008	18.678	1.	0.	23.329
20009	18.678	1.0909	5.e-002	4.3024
20010	18.954	1.0909	0.	25.402
20011	18.862	1.	0.	24.409
20012	18.862	1.0909	5.e-002	4.2865
20013	19.137	1.0909	0.	26.631
20014	19.045	1.	0.	25.536
20015	19.045	1.0909	5.e-002	4.271
20016	19.321	1.0909	0.	27.921
20017	19.229	1.	0.	26.715
20018	19.229	1.0909	5.e-002	4.256
20019	19.504	1.0909	0.	29.278
20020	19.412	1.	0.	27.951
20021	19.412	1.0909	5.e-002	4.2415
20022	19.688	1.0909	0.	30.708
20023	19.596	1.	0.	29.252
20024	19.596	1.0909	5.e-002	4.2276
20025	19.871	1.0909	0.	32.221
20026	19.779	1.	0.	30.622
20027	19.779	1.0909	5.e-002	4.2143
20028	20.055	1.0909	0.	33.823
20029	19.963	1.	0.	32.071
20030	19.963	1.0909	5.e-002	4.2016
20031	20.238	1.0909	0.	35.524
20032	20.146	1.	0.	33.603
20033	20.146	1.0909	5.e-002	4.1897
20034	20.422	1.0909	0.	37.333
20035	20.33	1.	0.	35.229
20036	20.33	1.0909	5.e-002	4.1784
20037	20.605	1.0909	0.	39.26
20038	20.513	1.	0.	36.956
20039	20.513	1.0909	5.e-002	4.168
20040	20.789	1.0909	0.	41.318
20041	20.697	1.	0.	38.795
20042	20.697	1.0909	5.e-002	4.1585
20043	20.972	1.0909	0.	43.52
20044	20.88	1.	0.	40.757
20045	20.88	1.0909	5.e-002	4.1499
20046	21.156	1.0909	0.	45.881
20047	21.064	1.	0.	42.855
20048	21.064	1.0909	5.e-002	4.1425
20049	21.339	1.0909	0.	48.418
20050	21.247	1.	0.	45.103
20051	21.247	1.0909	5.e-002	4.1362
20052	21.523	1.0909	0.	51.154
20053	21.431	1.	0.	47.519
20054	21.431	1.0909	5.e-002	4.1312
20055	21.706	1.0909	0.	54.114
20056	21.614	1.	0.	50.124
20057	21.614	1.0909	5.e-002	4.1277
20058	21.89	1.0909	0.	57.326
20059	21.798	1.	0.	52.943
20060	21.798	1.0909	5.e-002	4.126
20061	22.073	1.0909	0.	60.829
20062	21.981	1.	0.	56.007
20063	21.981	1.0909	5.e-002	4.1263
20064	22.257	1.0909	0.	64.668
20065	22.165	1.	0.	59.356
20066	22.165	1.0909	5.e-002	4.129
20067	22.44	1.0909	0.	68.898
20068	22.348	1.	0.	63.037
20069	22.348	1.0909	5.e-002	4.1347
20070	22.624	1.0909	0.	73.589
20071	22.532	1.	0.	67.113
20072	22.532	1.0909	5.e-002	4.1441
20073	22.807	1.0909	0.	78.825
20074	22.715	1.	0.	71.663
20075	22.715	1.0909	5.e-002	4.1584
20076	22.991	1.0909	0.	84.702
20077	22.899	1.	0.	76.783
20078	22.899	1.0909	5.e-002	4.1791
20079	23.174	1.0909	0.	91.333
20080	23.082	1.	0.	82.593
20081	23.082	1.0909	5.e-002	4.2084
20082	23.358	1.0909	0.	98.822
20083	23.266	1.	0.	89.232
20084	23.266	1.0909	5.e-002	4.2492
20085	23.541	1.0909	0.	107.29
20086	23.449	1.	0.	96.829
20087	23.449	1.0909	5.e-002	4.305
20088	23.725	1.0909	0.	116.76
20089	23.633	1.	0.	105.56
20090	23.633	1.0909	5.e-002	4.3835
20091	23.816	1.	0.	115.41
20092	23.816	1.0909	5.e-002	4.5691
20093	23.908	1.0909	0.	126.05
20094	6.8419	0.90909	0.	803.54
20095	6.7502	0.81818	0.	860.5
20096	6.7502	0.90909	5.e-002	80.036
20097	6.6584	0.90909	0.	790.49
20098	7.0254	0.90909	0.	529.03
20099	6.9337	0.81818	0.	540.26
20100	6.9337	0.90909	5.e-002	56.204
20101	7.2089	0.90909	0.	373.13
20102	7.1172	0.81818	0.	379.33
20103	7.1172	0.90909	5.e-002	47.449
20104	7.3925	0.90909	0.	270.93
20105	7.3007	0.81818	0.	280.21
20106	7.3007	0.90909	5.e-002	38.586
20107	7.576	0.90909	0.	200.83
20108	7.4842	0.81818	0.	214.3
20109	7.4842	0.90909	5.e-002	30.647
20110	7.7595	0.90909	0.	150.51
20111	7.6677	0.81818	0.	167.27
20112	7.6677	0.90909	5.e-002	24.017
20113	7.943	0.90909	0.	112.53
20114	7.8512	0.81818	0.	131.16
20115	7.8512	0.90909	5.e-002	18.672
20116	8.1265	0.90909	0.	82.643
20117	8.0347	0.81818	0.	101.88
20118	8.0347	0.90909	5.e-002	14.432
20119	8.31	0.90909	0.	58.437
20120	8.2182	0.81818	0.	77.363
20121	8.2182	0.90909	5.e-002	11.107
20122	8.4935	0.90909	0.	38.546
20123	8.4018	0.81818	0.	56.518
20124	8.4018	0.90909	5.e-002	8.5445
20125	8.677	0.90909	0.	22.247
20126	8.5853	0.81818	0.	38.775
20127	8.5853	0.90909	5.e-002	6.6376
20128	8.8605	0.90909	0.	9.5187
20129	8.7688	0.81818	0.	23.822
20130	8.7688	0.90909	5.e-002	5.3125
20131	9.044	0.90909	0.	2.5087
20132	8.9523	0.81818	0.	11.6
20133	8.9523	0.90909	5.e-002	4.5046
20134	9.2275	0.90909	0.	0.85509
20135	9.1358	0.81818	0.	3.2444
20136	9.1358	0.90909	5.e-002	4.1226
20137	9.4111	0.90909	0.	0.42109
20138	9.3193	0.81818	0.	0.84503
20139	9.3193	0.90909	5.e-002	4.0377
20140	9.5946	0.90909	0.	0.24739
20141	9.5028	0.81818	0.	0.37412
20142	9.5028	0.90909	5.e-002	4.1195
20143	9.7781	0.90909	0.	0.16062
20144	9.6863	0.81818	0.	0.21201
20145	9.6863	0.90909	5.e-002	4.2722
20146	9.9616	0.90909	0.	0.11139
20147	9.8698	0.81818	0.	0.13634
20148	9.8698	0.90909	5.e-002	4.4406
20149	10.145	0.90909	0.	8.1033e-002
20150	10.053	0.81818	0.	9.4855e-002
20151	10.053	0.90909	5.e-002	4.5975
20152	10.329	0.90909	0.	6.1153e-002
20153	10.237	0.81818	0.	6.9714e-002
20154	10.237	0.90909	5.e-002	4.7319
20155	10.512	0.90909	0.	4.7513e-002
20156	10.42	0.81818	0.	5.3351e-002
20157	10.42	0.90909	5.e-002	4.8409
20158	10.696	0.90909	0.	3.7792e-002
20159	10.604	0.81818	0.	4.2112e-002
20160	10.604	0.90909	5.e-002	4.9256
20161	10.879	0.90909	0.	3.0622e-002
20162	10.787	0.81818	0.	3.4043e-002
20163	10.787	0.90909	5.e-002	4.9885
20164	11.063	0.90909	0.	2.5195e-002
20165	10.971	0.81818	0.	2.8004e-002
20166	10.971	0.90909	5.e-002	5.0329
20167	11.246	0.90909	0.	2.1051e-002
20168	11.154	0.81818	0.	2.3394e-002
20169	11.154	0.90909	5.e-002	5.0618
20170	11.43	0.90909	0.	1.7841e-002
20171	11.338	0.81818	0.	1.9853e-002
20172	11.338	0.90909	5.e-002	5.0781
20173	11.613	0.90909	0.	1.5298e-002
20174	11.521	0.81818	0.	1.704e-002
20175	11.521	0.90909	5.e-002	5.0845
20176	11.797	0.90909	0.	1.3251e-002
20177	11.705	0.81818	0.	1.4767e-002
20178	11.705	0.90909	5.e-002	5.0829
20179	11.98	0.90909	0.	1.1582e-002
20180	11.888	0.81818	0.	1.2898e-002
20181	11.888	0.90909	5.e-002	5.0751
20182	12.164	0.90909	0.	1.0218e-002
20183	12.072	0.81818	0.	1.1345e-002
20184	12.072	0.90909	5.e-002	5.0624
20185	12.347	0.90909	0.	9.1072e-003
20186	12.255	0.81818	0.	1.0057e-002
20187	12.255	0.90909	5.e-002	5.0461
20188	12.531	0.90909	0.	8.2415e-003
20189	12.439	0.81818	0.	8.9975e-003
20190	12.439	0.90909	5.e-002	5.0269
20191	12.714	0.90909	0.	7.5981e-003
20192	12.622	0.81818	0.	8.1945e-003
20193	12.622	0.90909	5.e-002	5.0057
20194	12.898	0.90909	0.	7.112e-003
20195	12.806	0.81818	0.	7.5852e-003
20196	12.806	0.90909	5.e-002	4.9832
20197	13.081	0.90909	0.	6.7773e-003
20198	12.989	0.81818	0.	7.1221e-003
20199	12.989	0.90909	5.e-002	4.9597
20200	13.265	0.90909	0.	6.6375e-003
20201	13.173	0.81818	0.	6.8689e-003
20202	13.173	0.90909	5.e-002	4.9355
20203	13.448	0.90909	0.	6.7637e-003
20204	13.356	0.81818	0.	6.9106e-003
20205	13.356	0.90909	5.e-002	4.9109
20206	13.632	0.90909	0.	7.3419e-003
20207	13.54	0.81818	0.	7.4691e-003
20208	13.54	0.90909	5.e-002	4.8861
20209	13.815	0.90909	0.	8.8206e-003
20210	13.724	0.81818	0.	9.2575e-003
20211	13.724	0.90909	5.e-002	4.8613
20212	13.999	0.90909	0.	1.2891e-002
20213	13.907	0.81818	0.	1.5679e-002
20214	13.907	0.90909	5.e-002	4.8366
20215	14.182	0.90909	0.	3.6061e-002
20216	14.091	0.81818	0.	0.15906
20217	14.091	0.90909	5.e-002	4.8121
20218	14.366	0.90909	0.	0.78901
20219	14.274	0.81818	0.	1.3251
20220	14.274	0.90909	5.e-002	4.7879
20221	14.549	0.90909	0.	2.0402
20222	14.458	0.81818	0.	2.521
20223	14.458	0.90909	5.e-002	4.7639
20224	14.733	0.90909	0.	3.2434
20225	14.641	0.81818	0.	3.6648
20226	14.641	0.90909	5.e-002	4.7402
20227	14.916	0.90909	0.	4.3928
20228	14.825	0.81818	0.	4.7575
20229	14.825	0.90909	5.e-002	4.7167
20230	15.1	0.90909	0.	5.4917
20231	15.008	0.81818	0.	5.8025
20232	15.008	0.90909	5.e-002	4.6937
20233	15.283	0.90909	0.	6.5443
20234	15.192	0.81818	0.	6.8035
20235	15.192	0.90909	5.e-002	4.671
20236	15.467	0.90909	0.	7.5551
20237	15.375	0.81818	0.	7.7646
20238	15.375	0.90909	5.e-002	4.6487
20239	15.65	0.90909	0.	8.5285
20240	15.559	0.81818	0.	8.69
20241	15.559	0.90909	5.e-002	4.6267
20242	15.834	0.90909	0.	9.4692
20243	15.742	0.81818	0.	9.5836
20244	15.742	0.90909	5.e-002	4.6049
20245	16.017	0.90909	0.	10.382
20246	15.926	0.81818	0.	10.45
20247	15.926	0.90909	5.e-002	4.5835
20248	16.201	0.90909	0.	11.27
20249	16.109	0.81818	0.	11.292
20250	16.109	0.90909	5.e-002	4.5623
20251	16.384	0.90909	0.	12.139
20252	16.293	0.81818	0.	12.115
20253	16.293	0.90909	5.e-002	4.5416
20254	16.568	0.90909	0.	12.993
20255	16.476	0.81818	0.	12.922
20256	16.476	0.90909	5.e-002	4.5211
20257	16.751	0.90909	0.	13.835
20258	16.66	0.81818	0.	13.717
20259	16.66	0.90909	5.e-002	4.501
20260	16.935	0.90909	0.	14.671
20261	16.843	0.81818	0.	14.503
20262	16.843	0.90909	5.e-002	4.4811
20263	17.118	0.90909	0.	15.503
20264	17.027	0.81818	0.	15.286
20265	17.027	0.90909	5.e-002	4.4615
20266	17.302	0.90909	0.	16.337
20267	17.21	0.81818	0.	16.067
20268	17.21	0.90909	5.e-002	4.4423
20269	17.485	0.90909	0.	17.177
20270	17.394	0.81818	0.	16.852
20271	17.394	0.90909	5.e-002	4.4233
20272	17.669	0.90909	0.	18.026
20273	17.577	0.81818	0.	17.643
20274	17.577	0.90909	5.e-002	4.4047
20275	17.852	0.90909	0.	18.888
20276	17.761	0.81818	0.	18.444
20277	17.761	0.90909	5.e-002	4.3865
20278	18.036	0.90909	0.	19.768
20279	17.944	0.81818	0.	19.259
20280	17.944	0.90909	5.e-002	4.3686
20281	18.219	0.90909	0.	20.67
20282	18.128	0.81818	0.	20.092
20283	18.128	0.90909	5.e-002	4.3509
20284	18.403	0.90909	0.	21.598
20285	18.311	0.81818	0.	20.947
20286	18.311	0.90909	5.e-002	4.3337
20287	18.586	0.90909	0.	22.556
20288	18.495	0.81818	0.	21.826
20289	18.495	0.90909	5.e-002	4.3168
20290	18.77	0.90909	0.	23.55
20291	18.678	0.81818	0.	22.735
20292	18.678	0.90909	5.e-002	4.3004
20293	18.954	0.90909	0.	24.583
20294	18.862	0.81818	0.	23.677
20295	18.862	0.90909	5.e-002	4.2843
20296	19.137	0.90909	0.	25.66
20297	19.045	0.81818	0.	24.656
20298	19.045	0.90909	5.e-002	4.2688
20299	19.321	0.90909	0.	26.787
20300	19.229	0.81818	0.	25.676
20301	19.229	0.90909	5.e-002	4.2537
20302	19.504	0.90909	0.	27.969
20303	19.412	0.81818	0.	26.743
20304	19.412	0.90909	5.e-002	4.239
20305	19.688	0.90909	0.	29.21
20306	19.596	0.81818	0.	27.86
20307	19.596	0.90909	5.e-002	4.2249
20308	19.871	0.90909	0.	30.518
20309	19.779	0.81818	0.	29.033
20310	19.779	0.90909	5.e-002	4.2114
20311	20.055	0.90909	0.	31.898
20312	19.963	0.81818	0.	30.266
20313	19.963	0.90909	5.e-002	4.1985
20314	20.238	0.90909	0.	33.357
20315	20.146	0.81818	0.	31.565
20316	20.146	0.90909	5.e-002	4.1863
20317	20.422	0.90909	0.	34.903
20318	20.33	0.81818	0.	32.937
20319	20.33	0.90909	5.e-002	4.1748
20320	20.605	0.90909	0.	36.543
20321	20.513	0.81818	0.	34.388
20322	20.513	0.90909	5.e-002	4.1639
20323	20.789	0.90909	0.	38.288
20324	20.697	0.81818	0.	35.925
20325	20.697	0.90909	5.e-002	4.154
20326	20.972	0.90909	0.	40.148
20327	20.88	0.81818	0.	37.556
20328	20.88	0.90909	5.e-002	4.1449
20329	21.156	0.90909	0.	42.134
20330	21.064	0.81818	0.	39.292
20331	21.064	0.90909	5.e-002	4.1368
20332	21.339	0.90909	0.	44.262
20333	21.247	0.81818	0.	41.144
20334	21.247	0.90909	5.e-002	4.1298
20335	21.523	0.90909	0.	46.549
20336	21.431	0.81818	0.	43.124
20337	21.431	0.90909	5.e-002	4.1239
20338	21.706	0.90909	0.	49.016
20339	21.614	0.81818	0.	45.25
20340	21.614	0.90909	5.e-002	4.1194
20341	21.89	0.90909	0.	51.689
20342	21.798	0.81818	0.	47.541
20343	21.798	0.90909	5.e-002	4.1164
20344	22.073	0.90909	0.	54.6
20345	21.981	0.81818	0.	50.024
20346	21.981	0.90909	5.e-002	4.1151
20347	22.257	0.90909	0.	57.793
20348	22.165	0.81818	0.	52.73
20349	22.165	0.90909	5.e-002	4.116
20350	22.44	0.90909	0.	61.321
20351	22.348	0.81818	0.	55.705
20352	22.348	0.90909	5.e-002	4.1194
20353	22.624	0.90909	0.	65.255
20354	22.532	0.81818	0.	59.005
20355	22.532	0.90909	5.e-002	4.1261
20356	22.807	0.90909	0.	69.686
20357	22.715	0.81818	0.	62.707
20358	22.715	0.90909	5.e-002	4.1373
20359	22.991	0.90909	0.	74.734
20360	22.899	0.81818	0.	66.917
20361	22.899	0.90909	5.e-002	4.1546
20362	23.174	0.90909	0.	80.544
20363	23.082	0.81818	0.	71.773
20364	23.082	0.90909	5.e-002	4.1806
20365	23.358	0.90909	0.	87.282
20366	23.266	0.81818	0.	77.463
20367	23.266	0.90909	5.e-002	4.2192
20368	23.541	0.90909	0.	95.137
20369	23.449	0.81818	0.	84.195
20370	23.449	0.90909	5.e-002	4.2758
20371	23.725	0.90909	0.	104.23
20372	23.633	0.81818	0.	92.259
20373	23.633	0.90909	5.e-002	4.3621
20374	23.816	0.81818	0.	101.76
20375	23.816	0.90909	5.e-002	4.5782
20376	23.908	0.90909	0.	113.22
20377	6.8419	0.72727	0.	558.86
20378	6.7502	0.63636	0.	590.88
20379	6.7502	0.72727	5.e-002	68.501
20380	6.6584	0.72727	0.	556.63
20381	7.0254	0.72727	0.	363.28
20382	6.9337	0.63636	0.	352.84
20383	6.9337	0.72727	5.e-002	51.248
20384	7.2089	0.72727	0.	269.33
20385	7.1172	0.63636	0.	256.05
20386	7.1172	0.72727	5.e-002	45.041
20387	7.3925	0.72727	0.	213.47
20388	7.3007	0.63636	0.	206.22
20389	7.3007	0.72727	5.e-002	38.029
20390	7.576	0.72727	0.	174.85
20391	7.4842	0.63636	0.	174.3
20392	7.4842	0.72727	5.e-002	31.118
20393	7.7595	0.72727	0.	144.5
20394	7.6677	0.63636	0.	149.28
20395	7.6677	0.72727	5.e-002	24.861
20396	7.943	0.72727	0.	118.54
20397	7.8512	0.63636	0.	126.89
20398	7.8512	0.72727	5.e-002	19.481
20399	8.1265	0.72727	0.	95.488
20400	8.0347	0.63636	0.	105.94
20401	8.0347	0.72727	5.e-002	14.998
20402	8.31	0.72727	0.	74.852
20403	8.2182	0.63636	0.	86.315
20404	8.2182	0.72727	5.e-002	11.338
20405	8.4935	0.72727	0.	56.502
20406	8.4018	0.63636	0.	68.23
20407	8.4018	0.72727	5.e-002	8.4119
20408	8.677	0.72727	0.	40.409
20409	8.5853	0.63636	0.	51.917
20410	8.5853	0.72727	5.e-002	6.1408
20411	8.8605	0.72727	0.	26.549
20412	8.7688	0.63636	0.	37.526
20413	8.7688	0.72727	5.e-002	4.4835
20414	9.044	0.72727	0.	14.903
20415	8.9523	0.63636	0.	25.113
20416	8.9523	0.72727	5.e-002	3.4408
20417	9.2275	0.72727	0.	5.6949
20418	9.1358	0.63636	0.	14.666
20419	9.1358	0.72727	5.e-002	3.0028
20420	9.4111	0.72727	0.	1.1276
20421	9.3193	0.63636	0.	6.2372
20422	9.3193	0.72727	5.e-002	3.0305
20423	9.5946	0.72727	0.	0.38098
20424	9.5028	0.63636	0.	1.1883
20425	9.5028	0.72727	5.e-002	3.2929
20426	9.7781	0.72727	0.	0.19779
20427	9.6863	0.63636	0.	0.32837
20428	9.6863	0.72727	5.e-002	3.6203
20429	9.9616	0.72727	0.	0.12337
20430	9.8698	0.63636	0.	0.16388
20431	9.8698	0.72727	5.e-002	3.9335
20432	10.145	0.72727	0.	8.5226e-002
20433	10.053	0.63636	0.	0.10211
20434	10.053	0.72727	5.e-002	4.2042
20435	10.329	0.72727	0.	6.291e-002
20436	10.237	0.63636	0.	7.1282e-002
20437	10.237	0.72727	5.e-002	4.4264
20438	10.512	0.72727	0.	4.8635e-002
20439	10.42	0.63636	0.	5.3321e-002
20440	10.42	0.72727	5.e-002	4.603
20441	10.696	0.72727	0.	3.8879e-002
20442	10.604	0.63636	0.	4.1757e-002
20443	10.604	0.72727	5.e-002	4.7396
20444	10.879	0.72727	0.	3.1836e-002
20445	10.787	0.63636	0.	3.3747e-002
20446	10.787	0.72727	5.e-002	4.8426
20447	11.063	0.72727	0.	2.654e-002
20448	10.971	0.63636	0.	2.785e-002
20449	10.971	0.72727	5.e-002	4.918
20450	11.246	0.72727	0.	2.2478e-002
20451	11.154	0.63636	0.	2.3363e-002
20452	11.154	0.72727	5.e-002	4.9709
20453	11.43	0.72727	0.	1.9288e-002
20454	11.338	0.63636	0.	1.9897e-002
20455	11.338	0.72727	5.e-002	5.0058
20456	11.613	0.72727	0.	1.6707e-002
20457	11.521	0.63636	0.	1.7108e-002
20458	11.521	0.72727	5.e-002	5.0267
20459	11.797	0.72727	0.	1.4578e-002
20460	11.705	0.63636	0.	1.4816e-002
20461	11.705	0.72727	5.e-002	5.0364
20462	11.98	0.72727	0.	1.2791e-002
20463	11.888	0.63636	0.	1.2891e-002
20464	11.888	0.72727	5.e-002	5.0375
20465	12.164	0.72727	0.	1.1283e-002
20466	12.072	0.63636	0.	1.1254e-002
20467	12.072	0.72727	5.e-002	5.0318
20468	12.347	0.72727	0.	1.0016e-002
20469	12.255	0.63636	0.	9.8646e-003
20470	12.255	0.72727	5.e-002	5.0208
20471	12.531	0.72727	0.	8.988e-003
20472	12.439	0.63636	0.	8.6918e-003
20473	12.439	0.72727	5.e-002	5.006
20474	12.714	0.72727	0.	8.1878e-003
20475	12.622	0.63636	0.	7.7738e-003
20476	12.622	0.72727	5.e-002	4.9882
20477	12.898	0.72727	0.	7.5703e-003
20478	12.806	0.63636	0.	7.0658e-003
20479	12.806	0.72727	5.e-002	4.9683
20480	13.081	0.72727	0.	7.1614e-003
20481	12.989	0.63636	0.	6.5561e-003
20482	12.989	0.72727	5.e-002	4.947
20483	13.265	0.72727	0.	7.0823e-003
20484	13.173	0.63636	0.	6.4184e-003
20485	13.173	0.72727	5.e-002	4.9245
20486	13.448	0.72727	0.	7.6436e-003
20487	13.356	0.63636	0.	7.184e-003
20488	13.356	0.72727	5.e-002	4.9013
20489	13.632	0.72727	0.	1.0085e-002
20490	13.54	0.63636	0.	1.2931e-002
20491	13.54	0.72727	5.e-002	4.8776
20492	13.815	0.72727	0.	2.7565e-002
20493	13.724	0.63636	0.	0.49591
20494	13.724	0.72727	5.e-002	4.8537
20495	13.999	0.72727	0.	0.78483
20496	13.907	0.63636	0.	1.6367
20497	13.907	0.72727	5.e-002	4.8298
20498	14.182	0.72727	0.	1.9614
20499	14.091	0.63636	0.	2.7369
20500	14.091	0.72727	5.e-002	4.8059
20501	14.366	0.72727	0.	3.0913
20502	14.274	0.63636	0.	3.7903
20503	14.274	0.72727	5.e-002	4.7822
20504	14.549	0.72727	0.	4.1716
20505	14.458	0.63636	0.	4.7982
20506	14.458	0.72727	5.e-002	4.7587
20507	14.733	0.72727	0.	5.2044
20508	14.641	0.63636	0.	5.7631
20509	14.641	0.72727	5.e-002	4.7353
20510	14.916	0.72727	0.	6.1929
20511	14.825	0.63636	0.	6.6876
20512	14.825	0.72727	5.e-002	4.7122
20513	15.1	0.72727	0.	7.1404
20514	15.008	0.63636	0.	7.5745
20515	15.008	0.72727	5.e-002	4.6894
20516	15.283	0.72727	0.	8.0505
20517	15.192	0.63636	0.	8.427
20518	15.192	0.72727	5.e-002	4.6669
20519	15.467	0.72727	0.	8.9268
20520	15.375	0.63636	0.	9.2481
20521	15.375	0.72727	5.e-002	4.6448
20522	15.65	0.72727	0.	9.7729
20523	15.559	0.63636	0.	10.041
20524	15.559	0.72727	5.e-002	4.6229
20525	15.834	0.72727	0.	10.592
20526	15.742	0.63636	0.	10.809
20527	15.742	0.72727	5.e-002	4.6013
20528	16.017	0.72727	0.	11.389
20529	15.926	0.63636	0.	11.555
20530	15.926	0.72727	5.e-002	4.58
20531	16.201	0.72727	0.	12.166
20532	16.109	0.63636	0.	12.283
20533	16.109	0.72727	5.e-002	4.559
20534	16.384	0.72727	0.	12.928
20535	16.293	0.63636	0.	12.995
20536	16.293	0.72727	5.e-002	4.5383
20537	16.568	0.72727	0.	13.677
20538	16.476	0.63636	0.	13.695
20539	16.476	0.72727	5.e-002	4.5179
20540	16.751	0.72727	0.	14.416
20541	16.66	0.63636	0.	14.385
20542	16.66	0.72727	5.e-002	4.4979
20543	16.935	0.72727	0.	15.15
20544	16.843	0.63636	0.	15.069
20545	16.843	0.72727	5.e-002	4.4781
20546	17.118	0.72727	0.	15.882
20547	17.027	0.63636	0.	15.749
20548	17.027	0.72727	5.e-002	4.4585
20549	17.302	0.72727	0.	16.615
20550	17.21	0.63636	0.	16.429
20551	17.21	0.72727	5.e-002	4.4393
20552	17.485	0.72727	0.	17.352
20553	17.394	0.63636	0.	17.111
20554	17.394	0.72727	5.e-002	4.4203
20555	17.669	0.72727	0.	18.096
20556	17.577	0.63636	0.	17.798
20557	17.577	0.72727	5.e-002	4.4018
20558	17.852	0.72727	0.	18.851
20559	17.761	0.63636	0.	18.493
20560	17.761	0.72727	5.e-002	4.3835
20561	18.036	0.72727	0.	19.62
20562	17.944	0.63636	0.	19.199
20563	17.944	0.72727	5.e-002	4.3656
20564	18.219	0.72727	0.	20.406
20565	18.128	0.63636	0.	19.918
20566	18.128	0.72727	5.e-002	4.3479
20567	18.403	0.72727	0.	21.213
20568	18.311	0.63636	0.	20.654
20569	18.311	0.72727	5.e-002	4.3306
20570	18.586	0.72727	0.	22.044
20571	18.495	0.63636	0.	21.409
20572	18.495	0.72727	5.e-002	4.3137
20573	18.77	0.72727	0.	22.902
20574	18.678	0.63636	0.	22.186
20575	18.678	0.72727	5.e-002	4.2971
20576	18.954	0.72727	0.	23.791
20577	18.862	0.63636	0.	22.989
20578	18.862	0.72727	5.e-002	4.2811
20579	19.137	0.72727	0.	24.714
20580	19.045	0.63636	0.	23.819
20581	19.045	0.72727	5.e-002	4.2654
20582	19.321	0.72727	0.	25.676
20583	19.229	0.63636	0.	24.68
20584	19.229	0.72727	5.e-002	4.2501
20585	19.504	0.72727	0.	26.679
20586	19.412	0.63636	0.	25.575
20587	19.412	0.72727	5.e-002	4.2354
20588	19.688	0.72727	0.	27.729
20589	19.596	0.63636	0.	26.508
20590	19.596	0.72727	5.e-002	4.2211
20591	19.871	0.72727	0.	28.828
20592	19.779	0.63636	0.	27.481
20593	19.779	0.72727	5.e-002	4.2074
20594	20.055	0.72727	0.	29.982
20595	19.963	0.63636	0.	28.499
20596	19.963	0.72727	5.e-002	4.1943
20597	20.238	0.72727	0.	31.196
20598	20.146	0.63636	0.	29.564
20599	20.146	0.72727	5.e-002	4.1818
20600	20.422	0.72727	0.	32.475
20601	20.33	0.63636	0.	30.681
20602	20.33	0.72727	5.e-002	4.1699
20603	20.605	0.72727	0.	33.824
20604	20.513	0.63636	0.	31.853
20605	20.513	0.72727	5.e-002	4.1588
20606	20.789	0.72727	0.	35.25
20607	20.697	0.63636	0.	33.087
20608	20.697	0.72727	5.e-002	4.1484
20609	20.972	0.72727	0.	36.761
20610	20.88	0.63636	0.	34.386
20611	20.88	0.72727	5.e-002	4.1388
20612	21.156	0.72727	0.	38.364
20613	21.064	0.63636	0.	35.757
20614	21.064	0.72727	5.e-002	4.1301
20615	21.339	0.72727	0.	40.071
20616	21.247	0.63636	0.	37.208
20617	21.247	0.72727	5.e-002	4.1223
20618	21.523	0.72727	0.	41.893
20619	21.431	0.63636	0.	38.746
20620	21.431	0.72727	5.e-002	4.1156
20621	21.706	0.72727	0.	43.847
20622	21.614	0.63636	0.	40.383
20623	21.614	0.72727	5.e-002	4.11
20624	21.89	0.72727	0.	45.952
20625	21.798	0.63636	0.	42.132
20626	21.798	0.72727	5.e-002	4.1057
20627	22.073	0.72727	0.	48.234
20628	21.981	0.63636	0.	44.01
20629	21.981	0.72727	5.e-002	4.1029
20630	22.257	0.72727	0.	50.726
20631	22.165	0.63636	0.	46.043
20632	22.165	0.72727	5.e-002	4.1018
20633	22.44	0.72727	0.	53.476
20634	22.348	0.63636	0.	48.261
20635	22.348	0.72727	5.e-002	4.1029
20636	22.624	0.72727	0.	56.546
20637	22.532	0.63636	0.	50.71
20638	22.532	0.72727	5.e-002	4.1066
20639	22.807	0.72727	0.	60.027
20640	22.715	0.63636	0.	53.454
20641	22.715	0.72727	5.e-002	4.1142
20642	22.991	0.72727	0.	64.043
20643	22.899	0.63636	0.	56.589
20644	22.899	0.72727	5.e-002	4.1271
20645	23.174	0.72727	0.	68.771
20646	23.082	0.63636	0.	60.254
20647	23.082	0.72727	5.e-002	4.1481
20648	23.358	0.72727	0.	74.442
20649	23.266	0.63636	0.	64.664
20650	23.266	0.72727	5.e-002	4.1821
20651	23.541	0.72727	0.	81.366
20652	23.449	0.63636	0.	70.112
20653	23.449	0.72727	5.e-002	4.237
20654	23.725	0.72727	0.	89.829
20655	23.633	0.63636	0.	77.072
20656	23.633	0.72727	5.e-002	4.3311
20657	23.816	0.63636	0.	85.937
20658	23.816	0.72727	5.e-002	4.5828
20659	23.908	0.72727	0.	98.381
20660	6.8419	0.54545	0.	347.93
20661	6.7502	0.45455	0.	360.87
20662	6.7502	0.54545	5.e-002	60.777
20663	6.6584	0.54545	0.	355.75
20664	7.0254	0.54545	0.	222.99
20665	6.9337	0.45455	0.	201.78
20666	6.9337	0.54545	5.e-002	48.434
20667	7.2089	0.54545	0.	180.45
20668	7.1172	0.45455	0.	159.57
20669	7.1172	0.54545	5.e-002	43.542
20670	7.3925	0.54545	0.	160.05
20671	7.3007	0.45455	0.	145.33
20672	7.3007	0.54545	5.e-002	37.598
20673	7.576	0.54545	0.	144.67
20674	7.4842	0.45455	0.	135.82
20675	7.4842	0.54545	5.e-002	31.406
20676	7.7595	0.54545	0.	129.25
20677	7.6677	0.45455	0.	125.08
20678	7.6677	0.54545	5.e-002	25.509
20679	7.943	0.54545	0.	112.84
20680	7.8512	0.45455	0.	112.09
20681	7.8512	0.54545	5.e-002	20.214
20682	8.1265	0.54545	0.	95.901
20683	8.0347	0.45455	0.	97.554
20684	8.0347	0.54545	5.e-002	15.635
20685	8.31	0.54545	0.	79.186
20686	8.2182	0.45455	0.	82.473
20687	8.2182	0.54545	5.e-002	11.778
20688	8.4935	0.54545	0.	63.364
20689	8.4018	0.45455	0.	67.728
20690	8.4018	0.54545	5.e-002	8.5932
20691	8.677	0.54545	0.	48.901
20692	8.5853	0.45455	0.	53.946
20693	8.5853	0.54545	5.e-002	6.0205
20694	8.8605	0.54545	0.	36.062
20695	8.7688	0.45455	0.	41.506
20696	8.7688	0.54545	5.e-002	4.0146
20697	9.044	0.54545	0.	24.955
20698	8.9523	0.45455	0.	30.594
20699	8.9523	0.54545	5.e-002	2.5956
20700	9.2275	0.54545	0.	15.581
20701	9.1358	0.45455	0.	21.259
20702	9.1358	0.54545	5.e-002	1.9176
20703	9.4111	0.54545	0.	7.9004
20704	9.3193	0.45455	0.	13.458
20705	9.3193	0.54545	5.e-002	2.0263
20706	9.5946	0.54545	0.	2.1689
20707	9.5028	0.45455	0.	7.1112
20708	9.5028	0.54545	5.e-002	2.5046
20709	9.7781	0.54545	0.	0.36699
20710	9.6863	0.45455	0.	2.2569
20711	9.6863	0.54545	5.e-002	3.0224
20712	9.9616	0.54545	0.	0.15501
20713	9.8698	0.45455	0.	0.32564
20714	9.8698	0.54545	5.e-002	3.4784
20715	10.145	0.54545	0.	9.2554e-002
20716	10.053	0.45455	0.	0.12902
20717	10.053	0.54545	5.e-002	3.8541
20718	10.329	0.54545	0.	6.4029e-002
20719	10.237	0.45455	0.	8.0316e-002
20720	10.237	0.54545	5.e-002	4.1541
20721	10.512	0.54545	0.	4.8007e-002
20722	10.42	0.45455	0.	5.9652e-002
20723	10.42	0.54545	5.e-002	4.3888
20724	10.696	0.54545	0.	3.7813e-002
20725	10.604	0.45455	0.	4.8404e-002
20726	10.604	0.54545	5.e-002	4.5695
20727	10.879	0.54545	0.	3.073e-002
20728	10.787	0.45455	0.	4.1217e-002
20729	10.787	0.54545	5.e-002	4.7061
20730	11.063	0.54545	0.	2.5496e-002
20731	10.971	0.45455	0.	3.6019e-002
20732	10.971	0.54545	5.e-002	4.8072
20733	11.246	0.54545	0.	2.1499e-002
20734	11.154	0.45455	0.	3.1964e-002
20735	11.154	0.54545	5.e-002	4.8799
20736	11.43	0.54545	0.	1.8347e-002
20737	11.338	0.45455	0.	2.8658e-002
20738	11.338	0.54545	5.e-002	4.9301
20739	11.613	0.54545	0.	1.5773e-002
20740	11.521	0.45455	0.	2.5797e-002
20741	11.521	0.54545	5.e-002	4.9628
20742	11.797	0.54545	0.	1.3619e-002
20743	11.705	0.45455	0.	2.3242e-002
20744	11.705	0.54545	5.e-002	4.9817
20745	11.98	0.54545	0.	1.1779e-002
20746	11.888	0.45455	0.	2.0906e-002
20747	11.888	0.54545	5.e-002	4.9898
20748	12.164	0.54545	0.	1.0194e-002
20749	12.072	0.45455	0.	1.8741e-002
20750	12.072	0.54545	5.e-002	4.9897
20751	12.347	0.54545	0.	8.8294e-003
20752	12.255	0.45455	0.	1.6732e-002
20753	12.255	0.54545	5.e-002	4.9831
20754	12.531	0.54545	0.	7.6871e-003
20755	12.439	0.45455	0.	1.4865e-002
20756	12.439	0.54545	5.e-002	4.9716
20757	12.714	0.54545	0.	6.7653e-003
20758	12.622	0.45455	0.	1.3183e-002
20759	12.622	0.54545	5.e-002	4.9565
20760	12.898	0.54545	0.	6.0461e-003
20761	12.806	0.45455	0.	1.1633e-002
20762	12.806	0.54545	5.e-002	4.9387
20763	13.081	0.54545	0.	5.698e-003
20764	12.989	0.45455	0.	1.0271e-002
20765	12.989	0.54545	5.e-002	4.919
20766	13.265	0.54545	0.	7.2185e-003
20767	13.173	0.45455	0.	0.81755
20768	13.173	0.54545	5.e-002	4.8979
20769	13.448	0.54545	0.	0.46577
20770	13.356	0.45455	0.	1.8333
20771	13.356	0.54545	5.e-002	4.8757
20772	13.632	0.54545	0.	1.557
20773	13.54	0.45455	0.	2.8168
20774	13.54	0.54545	5.e-002	4.8529
20775	13.815	0.54545	0.	2.6099
20776	13.724	0.45455	0.	3.7665
20777	13.724	0.54545	5.e-002	4.8297
20778	13.999	0.54545	0.	3.6213
20779	13.907	0.45455	0.	4.6815
20780	13.907	0.54545	5.e-002	4.8063
20781	14.182	0.54545	0.	4.5917
20782	14.091	0.45455	0.	5.5619
20783	14.091	0.54545	5.e-002	4.7829
20784	14.366	0.54545	0.	5.5225
20785	14.274	0.45455	0.	6.4084
20786	14.274	0.54545	5.e-002	4.7596
20787	14.549	0.54545	0.	6.4151
20788	14.458	0.45455	0.	7.2223
20789	14.458	0.54545	5.e-002	4.7365
20790	14.733	0.54545	0.	7.272
20791	14.641	0.45455	0.	8.0051
20792	14.641	0.54545	5.e-002	4.7134
20793	14.916	0.54545	0.	8.0954
20794	14.825	0.45455	0.	8.7589
20795	14.825	0.54545	5.e-002	4.6905
20796	15.1	0.54545	0.	8.8877
20797	15.008	0.45455	0.	9.4854
20798	15.008	0.54545	5.e-002	4.668
20799	15.283	0.54545	0.	9.6518
20800	15.192	0.45455	0.	10.187
20801	15.192	0.54545	5.e-002	4.6457
20802	15.467	0.54545	0.	10.39
20803	15.375	0.45455	0.	10.866
20804	15.375	0.54545	5.e-002	4.6238
20805	15.65	0.54545	0.	11.106
20806	15.559	0.45455	0.	11.525
20807	15.559	0.54545	5.e-002	4.6021
20808	15.834	0.54545	0.	11.801
20809	15.742	0.45455	0.	12.165
20810	15.742	0.54545	5.e-002	4.5807
20811	16.017	0.54545	0.	12.479
20812	15.926	0.45455	0.	12.79
20813	15.926	0.54545	5.e-002	4.5596
20814	16.201	0.54545	0.	13.142
20815	16.109	0.45455	0.	13.401
20816	16.109	0.54545	5.e-002	4.5387
20817	16.384	0.54545	0.	13.793
20818	16.293	0.45455	0.	14.001
20819	16.293	0.54545	5.e-002	4.5182
20820	16.568	0.54545	0.	14.435
20821	16.476	0.45455	0.	14.593
20822	16.476	0.54545	5.e-002	4.4979
20823	16.751	0.54545	0.	15.07
20824	16.66	0.45455	0.	15.177
20825	16.66	0.54545	5.e-002	4.478
20826	16.935	0.54545	0.	15.7
20827	16.843	0.45455	0.	15.758
20828	16.843	0.54545	5.e-002	4.4583
20829	17.118	0.54545	0.	16.329
20830	17.027	0.45455	0.	16.335
20831	17.027	0.54545	5.e-002	4.4389
20832	17.302	0.54545	0.	16.959
20833	17.21	0.45455	0.	16.913
20834	17.21	0.54545	5.e-002	4.4197
20835	17.485	0.54545	0.	17.592
20836	17.394	0.45455	0.	17.492
20837	17.394	0.54545	5.e-002	4.401
20838	17.669	0.54545	0.	18.231
20839	17.577	0.45455	0.	18.076
20840	17.577	0.54545	5.e-002	4.3824
20841	17.852	0.54545	0.	18.877
20842	17.761	0.45455	0.	18.665
20843	17.761	0.54545	5.e-002	4.3643
20844	18.036	0.54545	0.	19.534
20845	17.944	0.45455	0.	19.261
20846	17.944	0.54545	5.e-002	4.3464
20847	18.219	0.54545	0.	20.204
20848	18.128	0.45455	0.	19.868
20849	18.128	0.54545	5.e-002	4.3289
20850	18.403	0.54545	0.	20.889
20851	18.311	0.45455	0.	20.486
20852	18.311	0.54545	5.e-002	4.3116
20853	18.586	0.54545	0.	21.592
20854	18.495	0.45455	0.	21.118
20855	18.495	0.54545	5.e-002	4.2948
20856	18.77	0.54545	0.	22.314
20857	18.678	0.45455	0.	21.765
20858	18.678	0.54545	5.e-002	4.2784
20859	18.954	0.54545	0.	23.059
20860	18.862	0.45455	0.	22.429
20861	18.862	0.54545	5.e-002	4.2623
20862	19.137	0.54545	0.	23.828
20863	19.045	0.45455	0.	23.112
20864	19.045	0.54545	5.e-002	4.2467
20865	19.321	0.54545	0.	24.625
20866	19.229	0.45455	0.	23.817
20867	19.229	0.54545	5.e-002	4.2315
20868	19.504	0.54545	0.	25.451
20869	19.412	0.45455	0.	24.543
20870	19.412	0.54545	5.e-002	4.2168
20871	19.688	0.54545	0.	26.309
20872	19.596	0.45455	0.	25.295
20873	19.596	0.54545	5.e-002	4.2025
20874	19.871	0.54545	0.	27.201
20875	19.779	0.45455	0.	26.072
20876	19.779	0.54545	5.e-002	4.1888
20877	20.055	0.54545	0.	28.131
20878	19.963	0.45455	0.	26.877
20879	19.963	0.54545	5.e-002	4.1757
20880	20.238	0.54545	0.	29.102
20881	20.146	0.45455	0.	27.712
20882	20.146	0.54545	5.e-002	4.1632
20883	20.422	0.54545	0.	30.115
20884	20.33	0.45455	0.	28.579
20885	20.33	0.54545	5.e-002	4.1513
20886	20.605	0.54545	0.	31.174
20887	20.513	0.45455	0.	29.479
20888	20.513	0.54545	5.e-002	4.14
20889	20.789	0.54545	0.	32.284
20890	20.697	0.45455	0.	30.414
20891	20.697	0.54545	5.e-002	4.1295
20892	20.972	0.54545	0.	33.447
20893	20.88	0.45455	0.	31.388
20894	20.88	0.54545	5.e-002	4.1197
20895	21.156	0.54545	0.	34.669
20896	21.064	0.45455	0.	32.401
20897	21.064	0.54545	5.e-002	4.1108
20898	21.339	0.54545	0.	35.955
20899	21.247	0.45455	0.	33.457
20900	21.247	0.54545	5.e-002	4.1027
20901	21.523	0.54545	0.	37.312
20902	21.431	0.45455	0.	34.56
20903	21.431	0.54545	5.e-002	4.0955
20904	21.706	0.54545	0.	38.749
20905	21.614	0.45455	0.	35.714
20906	21.614	0.54545	5.e-002	4.0892
20907	21.89	0.54545	0.	40.278
20908	21.798	0.45455	0.	36.925
20909	21.798	0.54545	5.e-002	4.0841
20910	22.073	0.54545	0.	41.914
20911	21.981	0.45455	0.	38.2
20912	21.981	0.54545	5.e-002	4.0802
20913	22.257	0.54545	0.	43.679
20914	22.165	0.45455	0.	39.553
20915	22.165	0.54545	5.e-002	4.0777
20916	22.44	0.54545	0.	45.604
20917	22.348	0.45455	0.	40.998
20918	22.348	0.54545	5.e-002	4.0768
20919	22.624	0.54545	0.	47.735
20920	22.532	0.45455	0.	42.561
20921	22.532	0.54545	5.e-002	4.078
20922	22.807	0.54545	0.	50.141
20923	22.715	0.45455	0.	44.281
20924	22.715	0.54545	5.e-002	4.0821
20925	22.991	0.54545	0.	52.93
20926	22.899	0.45455	0.	46.22
20927	22.899	0.54545	5.e-002	4.0903
20928	23.174	0.54545	0.	56.275
20929	23.082	0.45455	0.	48.48
20930	23.082	0.54545	5.e-002	4.1051
20931	23.358	0.54545	0.	60.449
20932	23.266	0.45455	0.	51.243
20933	23.266	0.54545	5.e-002	4.1319
20934	23.541	0.54545	0.	65.908
20935	23.449	0.45455	0.	54.82
20936	23.449	0.54545	5.e-002	4.1811
20937	23.725	0.54545	0.	73.244
20938	23.633	0.45455	0.	59.863
20939	23.633	0.54545	5.e-002	4.2794
20940	23.816	0.45455	0.	67.341
20941	23.816	0.54545	5.e-002	4.5796
20942	23.908	0.54545	0.	81.043
20943	6.8419	0.36364	0.	180.29
20944	6.7502	0.27273	0.	187.07
20945	6.7502	0.36364	5.e-002	56.855
20946	6.6584	0.36364	0.	183.63
20947	7.0254	0.36364	0.	123.42
20948	6.9337	0.27273	0.	113.31
20949	6.9337	0.36364	5.e-002	47.926
20950	7.2089	0.36364	0.	117.5
20951	7.1172	0.27273	0.	106.19
20952	7.1172	0.36364	5.e-002	43.421
20953	7.3925	0.36364	0.	117.33
20954	7.3007	0.27273	0.	106.58
20955	7.3007	0.36364	5.e-002	37.882
20956	7.576	0.36364	0.	113.96
20957	7.4842	0.27273	0.	103.91
20958	7.4842	0.36364	5.e-002	32.077
20959	7.7595	0.36364	0.	106.48
20960	7.6677	0.27273	0.	97.452
20961	7.6677	0.36364	5.e-002	26.43
20962	7.943	0.36364	0.	95.881
20963	7.8512	0.27273	0.	88.138
20964	7.8512	0.36364	5.e-002	21.225
20965	8.1265	0.36364	0.	83.538
20966	8.0347	0.27273	0.	77.25
20967	8.0347	0.36364	5.e-002	16.61
20968	8.31	0.36364	0.	70.649
20969	8.2182	0.27273	0.	65.875
20970	8.2182	0.36364	5.e-002	12.631
20971	8.4935	0.36364	0.	58.091
20972	8.4018	0.27273	0.	54.799
20973	8.4018	0.36364	5.e-002	9.2742
20974	8.677	0.36364	0.	46.43
20975	8.5853	0.27273	0.	44.522
20976	8.5853	0.36364	5.e-002	6.4889
20977	8.8605	0.36364	0.	35.983
20978	8.7688	0.27273	0.	35.318
20979	8.7688	0.36364	5.e-002	4.215
20980	9.044	0.36364	0.	26.887
20981	8.9523	0.27273	0.	27.301
20982	8.9523	0.36364	5.e-002	2.4044
20983	9.2275	0.36364	0.	19.159
20984	9.1358	0.27273	0.	20.48
20985	9.1358	0.36364	5.e-002	1.1116
20986	9.4111	0.36364	0.	12.742
20987	9.3193	0.27273	0.	14.799
20988	9.3193	0.36364	5.e-002	0.95364
20989	9.5946	0.36364	0.	7.5384
20990	9.5028	0.27273	0.	10.166
20991	9.5028	0.36364	5.e-002	1.6638
20992	9.7781	0.36364	0.	3.4544
20993	9.6863	0.27273	0.	6.4763
20994	9.6863	0.36364	5.e-002	2.3615
20995	9.9616	0.36364	0.	0.71139
20996	9.8698	0.27273	0.	3.6236
20997	9.8698	0.36364	5.e-002	2.9359
20998	10.145	0.36364	0.	0.15913
20999	10.053	0.27273	0.	1.544
21000	10.053	0.36364	5.e-002	3.3924
21001	10.329	0.36364	0.	9.0297e-002
21002	10.237	0.27273	0.	0.41934
21003	10.237	0.36364	5.e-002	3.7496
21004	10.512	0.36364	0.	6.8256e-002
21005	10.42	0.27273	0.	0.17666
21006	10.42	0.36364	5.e-002	4.0254
21007	10.696	0.36364	0.	5.778e-002
21008	10.604	0.27273	0.	0.12086
21009	10.604	0.36364	5.e-002	4.2358
21010	10.879	0.36364	0.	5.1443e-002
21011	10.787	0.27273	0.	9.9889e-002
21012	10.787	0.36364	5.e-002	4.3938
21013	11.063	0.36364	0.	4.6888e-002
21014	10.971	0.27273	0.	9.0928e-002
21015	10.971	0.36364	5.e-002	4.5102
21016	11.246	0.36364	0.	4.3247e-002
21017	11.154	0.27273	0.	8.8807e-002
21018	11.154	0.36364	5.e-002	4.5936
21019	11.43	0.36364	0.	4.0119e-002
21020	11.338	0.27273	0.	9.3479e-002
21021	11.338	0.36364	5.e-002	4.6511
21022	11.613	0.36364	0.	3.7303e-002
21023	11.521	0.27273	0.	0.10995
21024	11.521	0.36364	5.e-002	4.6886
21025	11.797	0.36364	0.	3.4751e-002
21026	11.705	0.27273	0.	0.16181
21027	11.705	0.36364	5.e-002	4.7104
21028	11.98	0.36364	0.	3.2514e-002
21029	11.888	0.27273	0.	0.3781
21030	11.888	0.36364	5.e-002	4.7201
21031	12.164	0.36364	0.	3.0846e-002
21032	12.072	0.27273	0.	0.94645
21033	12.072	0.36364	5.e-002	4.7204
21034	12.347	0.36364	0.	3.0786e-002
21035	12.255	0.27273	0.	1.6739
21036	12.255	0.36364	5.e-002	4.7137
21037	12.531	0.36364	0.	4.4271e-002
21038	12.439	0.27273	0.	2.448
21039	12.439	0.36364	5.e-002	4.7016
21040	12.714	0.36364	0.	0.64476
21041	12.622	0.27273	0.	3.2387
21042	12.622	0.36364	5.e-002	4.6855
21043	12.898	0.36364	0.	1.5593
21044	12.806	0.27273	0.	4.0321
21045	12.806	0.36364	5.e-002	4.6667
21046	13.081	0.36364	0.	2.4648
21047	12.989	0.27273	0.	4.8194
21048	12.989	0.36364	5.e-002	4.6458
21049	13.265	0.36364	0.	3.3516
21050	13.173	0.27273	0.	5.5948
21051	13.173	0.36364	5.e-002	4.6235
21052	13.448	0.36364	0.	4.2155
21053	13.356	0.27273	0.	6.3543
21054	13.356	0.36364	5.e-002	4.6003
21055	13.632	0.36364	0.	5.054
21056	13.54	0.27273	0.	7.0952
21057	13.54	0.36364	5.e-002	4.5764
21058	13.815	0.36364	0.	5.8656
21059	13.724	0.27273	0.	7.816
21060	13.724	0.36364	5.e-002	4.5522
21061	13.999	0.36364	0.	6.6497
21062	13.907	0.27273	0.	8.5157
21063	13.907	0.36364	5.e-002	4.528
21064	14.182	0.36364	0.	7.4066
21065	14.091	0.27273	0.	9.1941
21066	14.091	0.36364	5.e-002	4.504
21067	14.366	0.36364	0.	8.1367
21068	14.274	0.27273	0.	9.8515
21069	14.274	0.36364	5.e-002	4.4801
21070	14.549	0.36364	0.	8.8412
21071	14.458	0.27273	0.	10.489
21072	14.458	0.36364	5.e-002	4.4566
21073	14.733	0.36364	0.	9.5214
21074	14.641	0.27273	0.	11.106
21075	14.641	0.36364	5.e-002	4.4332
21076	14.916	0.36364	0.	10.179
21077	14.825	0.27273	0.	11.705
21078	14.825	0.36364	5.e-002	4.4103
21079	15.1	0.36364	0.	10.815
21080	15.008	0.27273	0.	12.288
21081	15.008	0.36364	5.e-002	4.3877
21082	15.283	0.36364	0.	11.432
21083	15.192	0.27273	0.	12.855
21084	15.192	0.36364	5.e-002	4.3656
21085	15.467	0.36364	0.	12.032
21086	15.375	0.27273	0.	13.407
21087	15.375	0.36364	5.e-002	4.344
21088	15.65	0.36364	0.	12.616
21089	15.559	0.27273	0.	13.947
21090	15.559	0.36364	5.e-002	4.3227
21091	15.834	0.36364	0.	13.187
21092	15.742	0.27273	0.	14.476
21093	15.742	0.36364	5.e-002	4.3018
21094	16.017	0.36364	0.	13.746
21095	15.926	0.27273	0.	14.995
21096	15.926	0.36364	5.e-002	4.2813
21097	16.201	0.36364	0.	14.295
21098	16.109	0.27273	0.	15.506
21099	16.109	0.36364	5.e-002	4.2612
21100	16.384	0.36364	0.	14.836
21101	16.293	0.27273	0.	16.011
21102	16.293	0.36364	5.e-002	4.2415
21103	16.568	0.36364	0.	15.371
21104	16.476	0.27273	0.	16.51
21105	16.476	0.36364	5.e-002	4.2223
21106	16.751	0.36364	0.	15.901
21107	16.66	0.27273	0.	17.006
21108	16.66	0.36364	5.e-002	4.2034
21109	16.935	0.36364	0.	16.429
21110	16.843	0.27273	0.	17.5
21111	16.843	0.36364	5.e-002	4.185
21112	17.118	0.36364	0.	16.957
21113	17.027	0.27273	0.	17.992
21114	17.027	0.36364	5.e-002	4.1668
21115	17.302	0.36364	0.	17.485
21116	17.21	0.27273	0.	18.485
21117	17.21	0.36364	5.e-002	4.1491
21118	17.485	0.36364	0.	18.015
21119	17.394	0.27273	0.	18.979
21120	17.394	0.36364	5.e-002	4.1318
21121	17.669	0.36364	0.	18.55
21122	17.577	0.27273	0.	19.477
21123	17.577	0.36364	5.e-002	4.115
21124	17.852	0.36364	0.	19.09
21125	17.761	0.27273	0.	19.978
21126	17.761	0.36364	5.e-002	4.0986
21127	18.036	0.36364	0.	19.637
21128	17.944	0.27273	0.	20.484
21129	17.944	0.36364	5.e-002	4.0826
21130	18.219	0.36364	0.	20.193
21131	18.128	0.27273	0.	20.997
21132	18.128	0.36364	5.e-002	4.067
21133	18.403	0.36364	0.	20.759
21134	18.311	0.27273	0.	21.517
21135	18.311	0.36364	5.e-002	4.0518
21136	18.586	0.36364	0.	21.336
21137	18.495	0.27273	0.	22.044
21138	18.495	0.36364	5.e-002	4.0373
21139	18.77	0.36364	0.	21.927
21140	18.678	0.27273	0.	22.581
21141	18.678	0.36364	5.e-002	4.0232
21142	18.954	0.36364	0.	22.531
21143	18.862	0.27273	0.	23.127
21144	18.862	0.36364	5.e-002	4.0096
21145	19.137	0.36364	0.	23.15
21146	19.045	0.27273	0.	23.684
21147	19.045	0.36364	5.e-002	3.9967
21148	19.321	0.36364	0.	23.786
21149	19.229	0.27273	0.	24.251
21150	19.229	0.36364	5.e-002	3.9843
21151	19.504	0.36364	0.	24.44
21152	19.412	0.27273	0.	24.83
21153	19.412	0.36364	5.e-002	3.9725
21154	19.688	0.36364	0.	25.112
21155	19.596	0.27273	0.	25.421
21156	19.596	0.36364	5.e-002	3.9614
21157	19.871	0.36364	0.	25.804
21158	19.779	0.27273	0.	26.023
21159	19.779	0.36364	5.e-002	3.9511
21160	20.055	0.36364	0.	26.517
21161	19.963	0.27273	0.	26.638
21162	19.963	0.36364	5.e-002	3.9415
21163	20.238	0.36364	0.	27.251
21164	20.146	0.27273	0.	27.264
21165	20.146	0.36364	5.e-002	3.9327
21166	20.422	0.36364	0.	28.007
21167	20.33	0.27273	0.	27.902
21168	20.33	0.36364	5.e-002	3.9248
21169	20.605	0.36364	0.	28.786
21170	20.513	0.27273	0.	28.551
21171	20.513	0.36364	5.e-002	3.9177
21172	20.789	0.36364	0.	29.589
21173	20.697	0.27273	0.	29.211
21174	20.697	0.36364	5.e-002	3.9116
21175	20.972	0.36364	0.	30.417
21176	20.88	0.27273	0.	29.879
21177	20.88	0.36364	5.e-002	3.9065
21178	21.156	0.36364	0.	31.269
21179	21.064	0.27273	0.	30.556
21180	21.064	0.36364	5.e-002	3.9025
21181	21.339	0.36364	0.	32.147
21182	21.247	0.27273	0.	31.24
21183	21.247	0.36364	5.e-002	3.8997
21184	21.523	0.36364	0.	33.053
21185	21.431	0.27273	0.	31.928
21186	21.431	0.36364	5.e-002	3.898
21187	21.706	0.36364	0.	33.988
21188	21.614	0.27273	0.	32.619
21189	21.614	0.36364	5.e-002	3.8976
21190	21.89	0.36364	0.	34.954
21191	21.798	0.27273	0.	33.311
21192	21.798	0.36364	5.e-002	3.8985
21193	22.073	0.36364	0.	35.957
21194	21.981	0.27273	0.	34.001
21195	21.981	0.36364	5.e-002	3.9009
21196	22.257	0.36364	0.	37.001
21197	22.165	0.27273	0.	34.687
21198	22.165	0.36364	5.e-002	3.9049
21199	22.44	0.36364	0.	38.099
21200	22.348	0.27273	0.	35.367
21201	22.348	0.36364	5.e-002	3.9107
21202	22.624	0.36364	0.	39.269
21203	22.532	0.27273	0.	36.041
21204	22.532	0.36364	5.e-002	3.9186
21205	22.807	0.36364	0.	40.541
21206	22.715	0.27273	0.	36.712
21207	22.715	0.36364	5.e-002	3.929
21208	22.991	0.36364	0.	41.971
21209	22.899	0.27273	0.	37.387
21210	22.899	0.36364	5.e-002	3.9429
21211	23.174	0.36364	0.	43.668
21212	23.082	0.27273	0.	38.093
21213	23.082	0.36364	5.e-002	3.962
21214	23.358	0.36364	0.	45.841
21215	23.266	0.27273	0.	38.889
21216	23.266	0.36364	5.e-002	3.99
21217	23.541	0.36364	0.	48.977
21218	23.449	0.27273	0.	39.918
21219	23.449	0.36364	5.e-002	4.0375
21220	23.725	0.36364	0.	54.104
21221	23.633	0.27273	0.	41.628
21222	23.633	0.36364	5.e-002	4.1451
21223	23.816	0.27273	0.	45.437
21224	23.816	0.36364	5.e-002	4.526
21225	23.908	0.36364	0.	60.341
21226	6.8419	0.18182	0.	98.443
21227	6.7502	0.18182	5.e-002	62.828
21228	6.7502	9.0909e-002	0.	47.878
21229	6.6584	0.18182	0.	56.798
21230	7.0254	0.18182	0.	89.781
21231	6.9337	0.18182	5.e-002	55.608
21232	6.9337	9.0909e-002	0.	39.309
21233	7.2089	0.18182	0.	92.21
21234	7.1172	0.18182	5.e-002	51.251
21235	7.1172	9.0909e-002	0.	45.66
21236	7.3925	0.18182	0.	91.207
21237	7.3007	0.18182	5.e-002	45.999
21238	7.3007	9.0909e-002	0.	49.235
21239	7.576	0.18182	0.	86.035
21240	7.4842	0.18182	5.e-002	40.188
21241	7.4842	9.0909e-002	0.	48.755
21242	7.7595	0.18182	0.	78.153
21243	7.6677	0.18182	5.e-002	34.265
21244	7.6677	9.0909e-002	0.	45.692
21245	7.943	0.18182	0.	68.853
21246	7.8512	0.18182	5.e-002	28.584
21247	7.8512	9.0909e-002	0.	41.131
21248	8.1265	0.18182	0.	59.158
21249	8.0347	0.18182	5.e-002	23.384
21250	8.0347	9.0909e-002	0.	35.919
21251	8.31	0.18182	0.	49.757
21252	8.2182	0.18182	5.e-002	18.788
21253	8.2182	9.0909e-002	0.	30.624
21254	8.4935	0.18182	0.	41.076
21255	8.4018	0.18182	5.e-002	14.832
21256	8.4018	9.0909e-002	0.	25.597
21257	8.677	0.18182	0.	33.332
21258	8.5853	0.18182	5.e-002	11.499
21259	8.5853	9.0909e-002	0.	21.036
21260	8.8605	0.18182	0.	26.61
21261	8.7688	0.18182	5.e-002	8.7385
21262	8.7688	9.0909e-002	0.	17.029
21263	9.044	0.18182	0.	20.901
21264	8.9523	0.18182	5.e-002	6.4851
21265	8.9523	9.0909e-002	0.	13.597
21266	9.2275	0.18182	0.	16.148
21267	9.1358	0.18182	5.e-002	4.6698
21268	9.1358	9.0909e-002	0.	10.72
21269	9.4111	0.18182	0.	12.267
21270	9.3193	0.18182	5.e-002	3.2264
21271	9.3193	9.0909e-002	0.	8.3566
21272	9.5946	0.18182	0.	9.163
21273	9.5028	0.18182	5.e-002	2.0961
21274	9.5028	9.0909e-002	0.	6.454
21275	9.7781	0.18182	0.	6.7395
21276	9.6863	0.18182	5.e-002	1.2322
21277	9.6863	9.0909e-002	0.	4.9582
21278	9.9616	0.18182	0.	4.9042
21279	9.8698	0.18182	5.e-002	0.61814
21280	9.8698	9.0909e-002	0.	3.8159
21281	10.145	0.18182	0.	3.5721
21282	10.053	0.18182	5.e-002	0.37199
21283	10.053	9.0909e-002	0.	2.9774
21284	10.329	0.18182	0.	2.6646
21285	10.237	0.18182	5.e-002	0.54394
21286	10.237	9.0909e-002	0.	2.3974
21287	10.512	0.18182	0.	2.1074
21288	10.42	0.18182	5.e-002	0.76467
21289	10.42	9.0909e-002	0.	2.0339
21290	10.696	0.18182	0.	1.8298
21291	10.604	0.18182	5.e-002	0.93176
21292	10.604	9.0909e-002	0.	1.848
21293	10.879	0.18182	0.	1.7704
21294	10.787	0.18182	5.e-002	1.0425
21295	10.787	9.0909e-002	0.	1.8046
21296	11.063	0.18182	0.	1.8842
21297	10.971	0.18182	5.e-002	1.106
21298	10.971	9.0909e-002	0.	1.8739
21299	11.246	0.18182	0.	2.14
21300	11.154	0.18182	5.e-002	1.1321
21301	11.154	9.0909e-002	0.	2.0323
21302	11.43	0.18182	0.	2.5124
21303	11.338	0.18182	5.e-002	1.1296
21304	11.338	9.0909e-002	0.	2.2613
21305	11.613	0.18182	0.	2.9779
21306	11.521	0.18182	5.e-002	1.1057
21307	11.521	9.0909e-002	0.	2.5457
21308	11.797	0.18182	0.	3.5148
21309	11.705	0.18182	5.e-002	1.0661
21310	11.705	9.0909e-002	0.	2.8726
21311	11.98	0.18182	0.	4.1041
21312	11.888	0.18182	5.e-002	1.0155
21313	11.888	9.0909e-002	0.	3.2312
21314	12.164	0.18182	0.	4.73
21315	12.072	0.18182	5.e-002	0.95752
21316	12.072	9.0909e-002	0.	3.6124
21317	12.347	0.18182	0.	5.3794
21318	12.255	0.18182	5.e-002	0.89494
21319	12.255	9.0909e-002	0.	4.0088
21320	12.531	0.18182	0.	6.0422
21321	12.439	0.18182	5.e-002	0.82993
21322	12.439	9.0909e-002	0.	4.4142
21323	12.714	0.18182	0.	6.7102
21324	12.622	0.18182	5.e-002	0.76425
21325	12.622	9.0909e-002	0.	4.824
21326	12.898	0.18182	0.	7.3769
21327	12.806	0.18182	5.e-002	0.69923
21328	12.806	9.0909e-002	0.	5.2342
21329	13.081	0.18182	0.	8.0376
21330	12.989	0.18182	5.e-002	0.63576
21331	12.989	9.0909e-002	0.	5.6418
21332	13.265	0.18182	0.	8.6889
21333	13.173	0.18182	5.e-002	0.57447
21334	13.173	9.0909e-002	0.	6.0446
21335	13.448	0.18182	0.	9.3283
21336	13.356	0.18182	5.e-002	0.51581
21337	13.356	9.0909e-002	0.	6.4411
21338	13.632	0.18182	0.	9.9541
21339	13.54	0.18182	5.e-002	0.46011
21340	13.54	9.0909e-002	0.	6.8301
21341	13.815	0.18182	0.	10.565
21342	13.724	0.18182	5.e-002	0.40763
21343	13.724	9.0909e-002	0.	7.2111
21344	13.999	0.18182	0.	11.162
21345	13.907	0.18182	5.e-002	0.3585
21346	13.907	9.0909e-002	0.	7.5837
21347	14.182	0.18182	0.	11.743
21348	14.091	0.18182	5.e-002	0.3128
21349	14.091	9.0909e-002	0.	7.9477
21350	14.366	0.18182	0.	12.309
21351	14.274	0.18182	5.e-002	0.27051
21352	14.274	9.0909e-002	0.	8.3033
21353	14.549	0.18182	0.	12.862
21354	14.458	0.18182	5.e-002	0.23161
21355	14.458	9.0909e-002	0.	8.6508
21356	14.733	0.18182	0.	13.4
21357	14.641	0.18182	5.e-002	0.19607
21358	14.641	9.0909e-002	0.	8.9906
21359	14.916	0.18182	0.	13.927
21360	14.825	0.18182	5.e-002	0.16403
21361	14.825	9.0909e-002	0.	9.3232
21362	15.1	0.18182	0.	14.442
21363	15.008	0.18182	5.e-002	0.13574
21364	15.008	9.0909e-002	0.	9.6493
21365	15.283	0.18182	0.	14.946
21366	15.192	0.18182	5.e-002	0.11149
21367	15.192	9.0909e-002	0.	9.9693
21368	15.467	0.18182	0.	15.441
21369	15.375	0.18182	5.e-002	9.1952e-002
21370	15.375	9.0909e-002	0.	10.284
21371	15.65	0.18182	0.	15.928
21372	15.559	0.18182	5.e-002	7.8095e-002
21373	15.559	9.0909e-002	0.	10.594
21374	15.834	0.18182	0.	16.407
21375	15.742	0.18182	5.e-002	7.0912e-002
21376	15.742	9.0909e-002	0.	10.9
21377	16.017	0.18182	0.	16.881
21378	15.926	0.18182	5.e-002	7.0532e-002
21379	15.926	9.0909e-002	0.	11.203
21380	16.201	0.18182	0.	17.35
21381	16.109	0.18182	5.e-002	7.5641e-002
21382	16.109	9.0909e-002	0.	11.503
21383	16.384	0.18182	0.	17.815
21384	16.293	0.18182	5.e-002	8.4283e-002
21385	16.293	9.0909e-002	0.	11.802
21386	16.568	0.18182	0.	18.278
21387	16.476	0.18182	5.e-002	9.4816e-002
21388	16.476	9.0909e-002	0.	12.099
21389	16.751	0.18182	0.	18.739
21390	16.66	0.18182	5.e-002	0.10629
21391	16.66	9.0909e-002	0.	12.395
21392	16.935	0.18182	0.	19.199
21393	16.843	0.18182	5.e-002	0.11824
21394	16.843	9.0909e-002	0.	12.692
21395	17.118	0.18182	0.	19.66
21396	17.027	0.18182	5.e-002	0.13051
21397	17.027	9.0909e-002	0.	12.989
21398	17.302	0.18182	0.	20.122
21399	17.21	0.18182	5.e-002	0.14311
21400	17.21	9.0909e-002	0.	13.287
21401	17.485	0.18182	0.	20.586
21402	17.394	0.18182	5.e-002	0.15619
21403	17.394	9.0909e-002	0.	13.587
21404	17.669	0.18182	0.	21.052
21405	17.577	0.18182	5.e-002	0.16994
21406	17.577	9.0909e-002	0.	13.889
21407	17.852	0.18182	0.	21.523
21408	17.761	0.18182	5.e-002	0.1846
21409	17.761	9.0909e-002	0.	14.194
21410	18.036	0.18182	0.	21.997
21411	17.944	0.18182	5.e-002	0.20044
21412	17.944	9.0909e-002	0.	14.502
21413	18.219	0.18182	0.	22.476
21414	18.128	0.18182	5.e-002	0.21772
21415	18.128	9.0909e-002	0.	14.813
21416	18.403	0.18182	0.	22.961
21417	18.311	0.18182	5.e-002	0.23677
21418	18.311	9.0909e-002	0.	15.128
21419	18.586	0.18182	0.	23.451
21420	18.495	0.18182	5.e-002	0.25786
21421	18.495	9.0909e-002	0.	15.448
21422	18.77	0.18182	0.	23.947
21423	18.678	0.18182	5.e-002	0.28131
21424	18.678	9.0909e-002	0.	15.771
21425	18.954	0.18182	0.	24.449
21426	18.862	0.18182	5.e-002	0.30737
21427	18.862	9.0909e-002	0.	16.1
21428	19.137	0.18182	0.	24.957
21429	19.045	0.18182	5.e-002	0.33634
21430	19.045	9.0909e-002	0.	16.432
21431	19.321	0.18182	0.	25.471
21432	19.229	0.18182	5.e-002	0.36847
21433	19.229	9.0909e-002	0.	16.77
21434	19.504	0.18182	0.	25.991
21435	19.412	0.18182	5.e-002	0.40402
21436	19.412	9.0909e-002	0.	17.112
21437	19.688	0.18182	0.	26.516
21438	19.596	0.18182	5.e-002	0.4433
21439	19.596	9.0909e-002	0.	17.458
21440	19.871	0.18182	0.	27.046
21441	19.779	0.18182	5.e-002	0.48659
21442	19.779	9.0909e-002	0.	17.808
21443	20.055	0.18182	0.	27.579
21444	19.963	0.18182	5.e-002	0.53418
21445	19.963	9.0909e-002	0.	18.162
21446	20.238	0.18182	0.	28.115
21447	20.146	0.18182	5.e-002	0.58634
21448	20.146	9.0909e-002	0.	18.519
21449	20.422	0.18182	0.	28.651
21450	20.33	0.18182	5.e-002	0.64342
21451	20.33	9.0909e-002	0.	18.878
21452	20.605	0.18182	0.	29.187
21453	20.513	0.18182	5.e-002	0.70574
21454	20.513	9.0909e-002	0.	19.238
21455	20.789	0.18182	0.	29.719
21456	20.697	0.18182	5.e-002	0.77369
21457	20.697	9.0909e-002	0.	19.599
21458	20.972	0.18182	0.	30.245
21459	20.88	0.18182	5.e-002	0.84769
21460	20.88	9.0909e-002	0.	19.958
21461	21.156	0.18182	0.	30.762
21462	21.064	0.18182	5.e-002	0.92815
21463	21.064	9.0909e-002	0.	20.314
21464	21.339	0.18182	0.	31.264
21465	21.247	0.18182	5.e-002	1.0156
21466	21.247	9.0909e-002	0.	20.664
21467	21.523	0.18182	0.	31.749
21468	21.431	0.18182	5.e-002	1.1105
21469	21.431	9.0909e-002	0.	21.007
21470	21.706	0.18182	0.	32.21
21471	21.614	0.18182	5.e-002	1.2135
21472	21.614	9.0909e-002	0.	21.339
21473	21.89	0.18182	0.	32.64
21474	21.798	0.18182	5.e-002	1.3252
21475	21.798	9.0909e-002	0.	21.656
21476	22.073	0.18182	0.	33.031
21477	21.981	0.18182	5.e-002	1.4465
21478	21.981	9.0909e-002	0.	21.954
21479	22.257	0.18182	0.	33.373
21480	22.165	0.18182	5.e-002	1.5783
21481	22.165	9.0909e-002	0.	22.227
21482	22.44	0.18182	0.	33.655
21483	22.348	0.18182	5.e-002	1.7215
21484	22.348	9.0909e-002	0.	22.468
21485	22.624	0.18182	0.	33.862
21486	22.532	0.18182	5.e-002	1.8776
21487	22.532	9.0909e-002	0.	22.668
21488	22.807	0.18182	0.	33.977
21489	22.715	0.18182	5.e-002	2.0483
21490	22.715	9.0909e-002	0.	22.817
21491	22.991	0.18182	0.	33.98
21492	22.899	0.18182	5.e-002	2.2358
21493	22.899	9.0909e-002	0.	22.898
21494	23.174	0.18182	0.	33.854
21495	23.082	0.18182	5.e-002	2.4434
21496	23.082	9.0909e-002	0.	22.892
21497	23.358	0.18182	0.	33.593
21498	23.266	0.18182	5.e-002	2.6767
21499	23.266	9.0909e-002	0.	22.771
21500	23.541	0.18182	0.	33.273
21501	23.449	0.18182	5.e-002	2.9433
21502	23.449	9.0909e-002	0.	22.485
21503	23.725	0.18182	0.	33.608
21504	23.633	0.18182	5.e-002	3.2784
21505	23.633	9.0909e-002	0.	22.062
21506	23.816	0.18182	5.e-002	3.9952
21507	23.816	9.0909e-002	0.	21.404
21508	23.908	0.18182	0.	34.869
21509	23.725	0.18182	0.1	54.713
21510	23.816	0.27273	0.1	37.146
21511	23.908	0.18182	0.1	20.47
21512	23.816	9.0909e-002	0.1	34.398
21513	23.541	0.18182	0.1	91.379
21514	23.633	0.27273	0.1	72.209
21515	23.633	9.0909e-002	0.1	68.893
21516	23.358	0.18182	0.1	129.41
21517	23.449	0.27273	0.1	109.37
21518	23.449	9.0909e-002	0.1	105.43
21519	23.174	0.18182	0.1	167.97
21520	23.266	0.27273	0.1	147.38
21521	23.266	9.0909e-002	0.1	142.88
21522	22.991	0.18182	0.1	206.85
21523	23.082	0.27273	0.1	185.89
21524	23.082	9.0909e-002	0.1	180.94
21525	22.807	0.18182	0.1	245.97
21526	22.899	0.27273	0.1	224.73
21527	22.899	9.0909e-002	0.1	219.41
21528	22.624	0.18182	0.1	285.27
21529	22.715	0.27273	0.1	263.82
21530	22.715	9.0909e-002	0.1	258.22
21531	22.44	0.18182	0.1	324.73
21532	22.532	0.27273	0.1	303.11
21533	22.532	9.0909e-002	0.1	297.29
21534	22.257	0.18182	0.1	364.33
21535	22.348	0.27273	0.1	342.56
21536	22.348	9.0909e-002	0.1	336.58
21537	22.073	0.18182	0.1	404.05
21538	22.165	0.27273	0.1	382.16
21539	22.165	9.0909e-002	0.1	376.07
21540	21.89	0.18182	0.1	443.9
21541	21.981	0.27273	0.1	421.9
21542	21.981	9.0909e-002	0.1	415.73
21543	21.706	0.18182	0.1	483.87
21544	21.798	0.27273	0.1	461.77
21545	21.798	9.0909e-002	0.1	455.55
21546	21.523	0.18182	0.1	523.95
21547	21.614	0.27273	0.1	501.76
21548	21.614	9.0909e-002	0.1	495.53
21549	21.339	0.18182	0.1	564.15
21550	21.431	0.27273	0.1	541.88
21551	21.431	9.0909e-002	0.1	535.66
21552	21.156	0.18182	0.1	604.48
21553	21.247	0.27273	0.1	582.13
21554	21.247	9.0909e-002	0.1	575.93
21555	20.972	0.18182	0.1	644.93
21556	21.064	0.27273	0.1	622.51
21557	21.064	9.0909e-002	0.1	616.34
21558	20.789	0.18182	0.1	685.52
21559	20.88	0.27273	0.1	663.02
21560	20.88	9.0909e-002	0.1	656.91
21561	20.605	0.18182	0.1	726.24
21562	20.697	0.27273	0.1	703.66
21563	20.697	9.0909e-002	0.1	697.61
21564	20.422	0.18182	0.1	767.09
21565	20.513	0.27273	0.1	744.45
21566	20.513	9.0909e-002	0.1	738.47
21567	20.238	0.18182	0.1	808.09
21568	20.33	0.27273	0.1	785.37
21569	20.33	9.0909e-002	0.1	779.48
21570	20.055	0.18182	0.1	849.24
21571	20.146	0.27273	0.1	826.45
21572	20.146	9.0909e-002	0.1	820.64
21573	19.871	0.18182	0.1	890.53
21574	19.963	0.27273	0.1	867.68
21575	19.963	9.0909e-002	0.1	861.96
21576	19.688	0.18182	0.1	931.99
21577	19.779	0.27273	0.1	909.06
21578	19.779	9.0909e-002	0.1	903.43
21579	19.504	0.18182	0.1	973.6
21580	19.596	0.27273	0.1	950.6
21581	19.596	9.0909e-002	0.1	945.07
21582	19.321	0.18182	0.1	1015.4
21583	19.412	0.27273	0.1	992.31
21584	19.412	9.0909e-002	0.1	986.87
21585	19.137	0.18182	0.1	1057.3
21586	19.229	0.27273	0.1	1034.2
21587	19.229	9.0909e-002	0.1	1028.8
21588	18.954	0.18182	0.1	1099.4
21589	19.045	0.27273	0.1	1076.2
21590	19.045	9.0909e-002	0.1	1071.
21591	18.77	0.18182	0.1	1141.7
21592	18.862	0.27273	0.1	1118.4
21593	18.862	9.0909e-002	0.1	1113.3
21594	18.586	0.18182	0.1	1184.2
21595	18.678	0.27273	0.1	1160.8
21596	18.678	9.0909e-002	0.1	1155.8
21597	18.403	0.18182	0.1	1226.8
21598	18.495	0.27273	0.1	1203.4
21599	18.495	9.0909e-002	0.1	1198.5
21600	18.219	0.18182	0.1	1269.6
21601	18.311	0.27273	0.1	1246.1
21602	18.311	9.0909e-002	0.1	1241.3
21603	18.036	0.18182	0.1	1312.7
21604	18.128	0.27273	0.1	1289.1
21605	18.128	9.0909e-002	0.1	1284.4
21606	17.852	0.18182	0.1	1355.9
21607	17.944	0.27273	0.1	1332.2
21608	17.944	9.0909e-002	0.1	1327.6
21609	17.669	0.18182	0.1	1399.2
21610	17.761	0.27273	0.1	1375.5
21611	17.761	9.0909e-002	0.1	1371.
21612	17.485	0.18182	0.1	1442.8
21613	17.577	0.27273	0.1	1419.
21614	17.577	9.0909e-002	0.1	1414.6
21615	17.302	0.18182	0.1	1486.6
21616	17.394	0.27273	0.1	1462.7
21617	17.394	9.0909e-002	0.1	1458.4
21618	17.118	0.18182	0.1	1530.5
21619	17.21	0.27273	0.1	1506.6
21620	17.21	9.0909e-002	0.1	1502.4
21621	16.935	0.18182	0.1	1574.7
21622	17.027	0.27273	0.1	1550.6
21623	17.027	9.0909e-002	0.1	1546.6
21624	16.751	0.18182	0.1	1619.1
21625	16.843	0.27273	0.1	1594.9
21626	16.843	9.0909e-002	0.1	1590.9
21627	16.568	0.18182	0.1	1663.6
21628	16.66	0.27273	0.1	1639.4
21629	16.66	9.0909e-002	0.1	1635.5
21630	16.384	0.18182	0.1	1708.4
21631	16.476	0.27273	0.1	1684.1
21632	16.476	9.0909e-002	0.1	1680.3
21633	16.201	0.18182	0.1	1753.3
21634	16.293	0.27273	0.1	1728.9
21635	16.293	9.0909e-002	0.1	1725.3
21636	16.017	0.18182	0.1	1798.5
21637	16.109	0.27273	0.1	1774.
21638	16.109	9.0909e-002	0.1	1770.5
21639	15.834	0.18182	0.1	1843.9
21640	15.926	0.27273	0.1	1819.3
21641	15.926	9.0909e-002	0.1	1815.9
21642	15.65	0.18182	0.1	1889.4
21643	15.742	0.27273	0.1	1864.8
21644	15.742	9.0909e-002	0.1	1861.5
21645	15.467	0.18182	0.1	1935.2
21646	15.559	0.27273	0.1	1910.5
21647	15.559	9.0909e-002	0.1	1907.3
21648	15.283	0.18182	0.1	1981.2
21649	15.375	0.27273	0.1	1956.3
21650	15.375	9.0909e-002	0.1	1953.3
21651	15.1	0.18182	0.1	2027.4
21652	15.192	0.27273	0.1	2002.5
21653	15.192	9.0909e-002	0.1	1999.5
21654	14.916	0.18182	0.1	2073.8
21655	15.008	0.27273	0.1	2048.8
21656	15.008	9.0909e-002	0.1	2046.
21657	14.733	0.18182	0.1	2120.5
21658	14.825	0.27273	0.1	2095.3
21659	14.825	9.0909e-002	0.1	2092.6
21660	14.549	0.18182	0.1	2167.3
21661	14.641	0.27273	0.1	2142.
21662	14.641	9.0909e-002	0.1	2139.5
21663	14.366	0.18182	0.1	2214.4
21664	14.458	0.27273	0.1	2189.
21665	14.458	9.0909e-002	0.1	2186.6
21666	14.182	0.18182	0.1	2261.6
21667	14.274	0.27273	0.1	2236.1
21668	14.274	9.0909e-002	0.1	2233.9
21669	13.999	0.18182	0.1	2309.1
21670	14.091	0.27273	0.1	2283.5
21671	14.091	9.0909e-002	0.1	2281.4
21672	13.815	0.18182	0.1	2356.8
21673	13.907	0.27273	0.1	2331.1
21674	13.907	9.0909e-002	0.1	2329.2
21675	13.632	0.18182	0.1	2404.7
21676	13.724	0.27273	0.1	2378.9
21677	13.724	9.0909e-002	0.1	2377.1
21678	13.448	0.18182	0.1	2452.8
21679	13.54	0.27273	0.1	2426.9
21680	13.54	9.0909e-002	0.1	2425.3
21681	13.265	0.18182	0.1	2501.
21682	13.356	0.27273	0.1	2475.
21683	13.356	9.0909e-002	0.1	2473.6
21684	13.081	0.18182	0.1	2549.5
21685	13.173	0.27273	0.1	2523.4
21686	13.173	9.0909e-002	0.1	2522.2
21687	12.898	0.18182	0.1	2598.1
21688	12.989	0.27273	0.1	2572.
21689	12.989	9.0909e-002	0.1	2570.9
21690	12.714	0.18182	0.1	2646.9
21691	12.806	0.27273	0.1	2620.7
21692	12.806	9.0909e-002	0.1	2619.8
21693	12.531	0.18182	0.1	2695.9
21694	12.622	0.27273	0.1	2669.5
21695	12.622	9.0909e-002	0.1	2668.8
21696	12.347	0.18182	0.1	2744.9
21697	12.439	0.27273	0.1	2718.5
21698	12.439	9.0909e-002	0.1	2718.
21699	12.164	0.18182	0.1	2793.9
21700	12.255	0.27273	0.1	2767.6
21701	12.255	9.0909e-002	0.1	2767.2
21702	11.98	0.18182	0.1	2843.
21703	12.072	0.27273	0.1	2816.7
21704	12.072	9.0909e-002	0.1	2816.4
21705	11.797	0.18182	0.1	2892.
21706	11.888	0.27273	0.1	2865.7
21707	11.888	9.0909e-002	0.1	2865.6
21708	11.613	0.18182	0.1	2940.8
21709	11.705	0.27273	0.1	2914.7
21710	11.705	9.0909e-002	0.1	2914.7
21711	11.43	0.18182	0.1	2989.3
21712	11.521	0.27273	0.1	2963.5
21713	11.521	9.0909e-002	0.1	2963.5
21714	11.246	0.18182	0.1	3037.4
21715	11.338	0.27273	0.1	3011.9
21716	11.338	9.0909e-002	0.1	3011.9
21717	11.063	0.18182	0.1	3084.8
21718	11.154	0.27273	0.1	3059.9
21719	11.154	9.0909e-002	0.1	3059.8
21720	10.879	0.18182	0.1	3131.4
21721	10.971	0.27273	0.1	3107.1
21722	10.971	9.0909e-002	0.1	3106.9
21723	10.696	0.18182	0.1	3176.7
21724	10.787	0.27273	0.1	3153.3
21725	10.787	9.0909e-002	0.1	3152.9
21726	10.512	0.18182	0.1	3220.4
21727	10.604	0.27273	0.1	3198.3
21728	10.604	9.0909e-002	0.1	3197.5
21729	10.329	0.18182	0.1	3261.9
21730	10.42	0.27273	0.1	3241.4
21731	10.42	9.0909e-002	0.1	3240.1
21732	10.145	0.18182	0.1	3300.7
21733	10.237	0.27273	0.1	3282.2
21734	10.237	9.0909e-002	0.1	3280.2
21735	9.9616	0.18182	0.1	3335.8
21736	10.053	0.27273	0.1	3320.
21737	10.053	9.0909e-002	0.1	3317.
21738	9.7781	0.18182	0.1	3366.2
21739	9.8698	0.27273	0.1	3353.9
21740	9.8698	9.0909e-002	0.1	3349.6
21741	9.5946	0.18182	0.1	3390.7
21742	9.6863	0.27273	0.1	3382.7
21743	9.6863	9.0909e-002	0.1	3376.8
21744	9.4111	0.18182	0.1	3407.7
21745	9.5028	0.27273	0.1	3405.1
21746	9.5028	9.0909e-002	0.1	3397.2
21747	9.2275	0.18182	0.1	3415.2
21748	9.3193	0.27273	0.1	3419.4
21749	9.3193	9.0909e-002	0.1	3408.9
21750	9.044	0.18182	0.1	3410.8
21751	9.1358	0.27273	0.1	3423.5
21752	9.1358	9.0909e-002	0.1	3409.8
21753	8.8605	0.18182	0.1	3391.6
21754	8.9523	0.27273	0.1	3414.7
21755	8.9523	9.0909e-002	0.1	3397.
21756	8.677	0.18182	0.1	3354.
21757	8.7688	0.27273	0.1	3389.9
21758	8.7688	9.0909e-002	0.1	3367.5
21759	8.4935	0.18182	0.1	3294.
21760	8.5853	0.27273	0.1	3345.4
21761	8.5853	9.0909e-002	0.1	3317.1
21762	8.31	0.18182	0.1	3206.8
21763	8.4018	0.27273	0.1	3276.7
21764	8.4018	9.0909e-002	0.1	3241.5
21765	8.1265	0.18182	0.1	3087.1
21766	8.2182	0.27273	0.1	3178.8
21767	8.2182	9.0909e-002	0.1	3135.4
21768	7.943	0.18182	0.1	2929.
21769	8.0347	0.27273	0.1	3046.
21770	8.0347	9.0909e-002	0.1	2993.
21771	7.7595	0.18182	0.1	2727.
21772	7.8512	0.27273	0.1	2872.4
21773	7.8512	9.0909e-002	0.1	2808.5
21774	7.576	0.18182	0.1	2475.8
21775	7.6677	0.27273	0.1	2652.2
21776	7.6677	9.0909e-002	0.1	2576.1
21777	7.3925	0.18182	0.1	2171.7
21778	7.4842	0.27273	0.1	2380.8
21779	7.4842	9.0909e-002	0.1	2291.1
21780	7.2089	0.18182	0.1	1813.6
21781	7.3007	0.27273	0.1	2056.2
21782	7.3007	9.0909e-002	0.1	1950.5
21783	7.0254	0.18182	0.1	1404.6
21784	7.1172	0.27273	0.1	1681.8
21785	7.1172	9.0909e-002	0.1	1554.7
21786	6.8419	0.18182	0.1	966.37
21787	6.9337	0.27273	0.1	1273.2
21788	6.9337	9.0909e-002	0.1	1107.
21789	6.7502	0.27273	0.1	910.07
21790	6.6584	0.18182	0.1	545.74
21791	6.7502	9.0909e-002	0.1	626.88
21792	23.725	0.36364	0.1	55.256
21793	23.816	0.45455	0.1	38.309
21794	23.908	0.36364	0.1	21.405
21795	23.541	0.36364	0.1	90.905
21796	23.633	0.45455	0.1	73.318
21797	23.358	0.36364	0.1	127.97
21798	23.449	0.45455	0.1	109.79
21799	23.174	0.36364	0.1	165.85
21800	23.266	0.45455	0.1	147.18
21801	22.991	0.36364	0.1	204.25
21802	23.082	0.45455	0.1	185.19
21803	22.807	0.36364	0.1	243.02
21804	22.899	0.45455	0.1	223.65
21805	22.624	0.36364	0.1	282.05
21806	22.715	0.45455	0.1	262.45
21807	22.44	0.36364	0.1	321.3
21808	22.532	0.45455	0.1	301.5
21809	22.257	0.36364	0.1	360.73
21810	22.348	0.45455	0.1	340.76
21811	22.073	0.36364	0.1	400.32
21812	22.165	0.45455	0.1	380.2
21813	21.89	0.36364	0.1	440.06
21814	21.981	0.45455	0.1	419.8
21815	21.706	0.36364	0.1	479.94
21816	21.798	0.45455	0.1	459.56
21817	21.523	0.36364	0.1	519.96
21818	21.614	0.45455	0.1	499.46
21819	21.339	0.36364	0.1	560.11
21820	21.431	0.45455	0.1	539.5
21821	21.156	0.36364	0.1	600.4
21822	21.247	0.45455	0.1	579.68
21823	20.972	0.36364	0.1	640.82
21824	21.064	0.45455	0.1	620.01
21825	20.789	0.36364	0.1	681.38
21826	20.88	0.45455	0.1	660.47
21827	20.605	0.36364	0.1	722.09
21828	20.697	0.45455	0.1	701.07
21829	20.422	0.36364	0.1	762.94
21830	20.513	0.45455	0.1	741.83
21831	20.238	0.36364	0.1	803.94
21832	20.33	0.45455	0.1	782.73
21833	20.055	0.36364	0.1	845.09
21834	20.146	0.45455	0.1	823.79
21835	19.871	0.36364	0.1	886.4
21836	19.963	0.45455	0.1	865.
21837	19.688	0.36364	0.1	927.86
21838	19.779	0.45455	0.1	906.37
21839	19.504	0.36364	0.1	969.49
21840	19.596	0.45455	0.1	947.91
21841	19.321	0.36364	0.1	1011.3
21842	19.412	0.45455	0.1	989.61
21843	19.137	0.36364	0.1	1053.3
21844	19.229	0.45455	0.1	1031.5
21845	18.954	0.36364	0.1	1095.4
21846	19.045	0.45455	0.1	1073.5
21847	18.77	0.36364	0.1	1137.7
21848	18.862	0.45455	0.1	1115.7
21849	18.586	0.36364	0.1	1180.2
21850	18.678	0.45455	0.1	1158.1
21851	18.403	0.36364	0.1	1222.9
21852	18.495	0.45455	0.1	1200.7
21853	18.219	0.36364	0.1	1265.7
21854	18.311	0.45455	0.1	1243.5
21855	18.036	0.36364	0.1	1308.8
21856	18.128	0.45455	0.1	1286.4
21857	17.852	0.36364	0.1	1352.
21858	17.944	0.45455	0.1	1329.5
21859	17.669	0.36364	0.1	1395.4
21860	17.761	0.45455	0.1	1372.9
21861	17.485	0.36364	0.1	1439.
21862	17.577	0.45455	0.1	1416.4
21863	17.302	0.36364	0.1	1482.8
21864	17.394	0.45455	0.1	1460.1
21865	17.118	0.36364	0.1	1526.8
21866	17.21	0.45455	0.1	1503.9
21867	16.935	0.36364	0.1	1571.
21868	17.027	0.45455	0.1	1548.
21869	16.751	0.36364	0.1	1615.4
21870	16.843	0.45455	0.1	1592.3
21871	16.568	0.36364	0.1	1660.
21872	16.66	0.45455	0.1	1636.8
21873	16.384	0.36364	0.1	1704.7
21874	16.476	0.45455	0.1	1681.5
21875	16.201	0.36364	0.1	1749.7
21876	16.293	0.45455	0.1	1726.3
21877	16.017	0.36364	0.1	1794.9
21878	16.109	0.45455	0.1	1771.4
21879	15.834	0.36364	0.1	1840.3
21880	15.926	0.45455	0.1	1816.7
21881	15.65	0.36364	0.1	1885.9
21882	15.742	0.45455	0.1	1862.2
21883	15.467	0.36364	0.1	1931.7
21884	15.559	0.45455	0.1	1907.9
21885	15.283	0.36364	0.1	1977.7
21886	15.375	0.45455	0.1	1953.8
21887	15.1	0.36364	0.1	2023.9
21888	15.192	0.45455	0.1	1999.9
21889	14.916	0.36364	0.1	2070.3
21890	15.008	0.45455	0.1	2046.2
21891	14.733	0.36364	0.1	2117.
21892	14.825	0.45455	0.1	2092.7
21893	14.549	0.36364	0.1	2163.8
21894	14.641	0.45455	0.1	2139.4
21895	14.366	0.36364	0.1	2210.9
21896	14.458	0.45455	0.1	2186.3
21897	14.182	0.36364	0.1	2258.1
21898	14.274	0.45455	0.1	2233.5
21899	13.999	0.36364	0.1	2305.6
21900	14.091	0.45455	0.1	2280.8
21901	13.815	0.36364	0.1	2353.3
21902	13.907	0.45455	0.1	2328.3
21903	13.632	0.36364	0.1	2401.1
21904	13.724	0.45455	0.1	2376.1
21905	13.448	0.36364	0.1	2449.2
21906	13.54	0.45455	0.1	2424.1
21907	13.265	0.36364	0.1	2497.5
21908	13.356	0.45455	0.1	2472.2
21909	13.081	0.36364	0.1	2545.9
21910	13.173	0.45455	0.1	2520.5
21911	12.898	0.36364	0.1	2594.6
21912	12.989	0.45455	0.1	2569.1
21913	12.714	0.36364	0.1	2643.4
21914	12.806	0.45455	0.1	2617.8
21915	12.531	0.36364	0.1	2692.3
21916	12.622	0.45455	0.1	2666.6
21917	12.347	0.36364	0.1	2741.3
21918	12.439	0.45455	0.1	2715.6
21919	12.164	0.36364	0.1	2790.4
21920	12.255	0.45455	0.1	2764.6
21921	11.98	0.36364	0.1	2839.5
21922	12.072	0.45455	0.1	2813.7
21923	11.797	0.36364	0.1	2888.6
21924	11.888	0.45455	0.1	2862.9
21925	11.613	0.36364	0.1	2937.5
21926	11.705	0.45455	0.1	2911.9
21927	11.43	0.36364	0.1	2986.2
21928	11.521	0.45455	0.1	2960.8
21929	11.246	0.36364	0.1	3034.5
21930	11.338	0.45455	0.1	3009.5
21931	11.063	0.36364	0.1	3082.2
21932	11.154	0.45455	0.1	3057.7
21933	10.879	0.36364	0.1	3129.1
21934	10.971	0.45455	0.1	3105.3
21935	10.696	0.36364	0.1	3175.
21936	10.787	0.45455	0.1	3152.
21937	10.512	0.36364	0.1	3219.4
21938	10.604	0.45455	0.1	3197.6
21939	10.329	0.36364	0.1	3261.8
21940	10.42	0.45455	0.1	3241.6
21941	10.145	0.36364	0.1	3301.6
21942	10.237	0.45455	0.1	3283.5
21943	9.9616	0.36364	0.1	3338.2
21944	10.053	0.45455	0.1	3322.8
21945	9.7781	0.36364	0.1	3370.4
21946	9.8698	0.45455	0.1	3358.4
21947	9.5946	0.36364	0.1	3397.2
21948	9.6863	0.45455	0.1	3389.5
21949	9.4111	0.36364	0.1	3416.9
21950	9.5028	0.45455	0.1	3414.8
21951	9.2275	0.36364	0.1	3427.7
21952	9.3193	0.45455	0.1	3432.6
21953	9.044	0.36364	0.1	3427.4
21954	9.1358	0.45455	0.1	3441.
21955	8.8605	0.36364	0.1	3413.
21956	8.9523	0.45455	0.1	3437.5
21957	8.677	0.36364	0.1	3381.2
21958	8.7688	0.45455	0.1	3419.2
21959	8.4935	0.36364	0.1	3328.
21960	8.5853	0.45455	0.1	3382.3
21961	8.31	0.36364	0.1	3248.5
21962	8.4018	0.45455	0.1	3322.7
21963	8.1265	0.36364	0.1	3137.3
21964	8.2182	0.45455	0.1	3235.3
21965	7.943	0.36364	0.1	2988.7
21966	8.0347	0.45455	0.1	3114.6
21967	7.7595	0.36364	0.1	2796.6
21968	7.8512	0.45455	0.1	2954.4
21969	7.576	0.36364	0.1	2555.8
21970	7.6677	0.45455	0.1	2749.1
21971	7.3925	0.36364	0.1	2263.4
21972	7.4842	0.45455	0.1	2494.5
21973	7.2089	0.36364	0.1	1921.7
21974	7.3007	0.45455	0.1	2190.3
21975	7.0254	0.36364	0.1	1544.6
21976	7.1172	0.45455	0.1	1845.8
21977	6.8419	0.36364	0.1	1191.9
21978	6.9337	0.45455	0.1	1491.2
21979	6.7502	0.45455	0.1	1235.7
21980	6.6584	0.36364	0.1	842.37
21981	23.725	0.54545	0.1	56.453
21982	23.816	0.63636	0.1	39.017
21983	23.908	0.54545	0.1	21.927
21984	23.541	0.54545	0.1	92.387
21985	23.633	0.63636	0.1	74.762
21986	23.358	0.54545	0.1	129.21
21987	23.449	0.63636	0.1	111.31
21988	23.174	0.54545	0.1	166.73
21989	23.266	0.63636	0.1	148.48
21990	22.991	0.54545	0.1	204.79
21991	23.082	0.63636	0.1	186.2
21992	22.807	0.54545	0.1	243.26
21993	22.899	0.63636	0.1	224.38
21994	22.624	0.54545	0.1	282.05
21995	22.715	0.63636	0.1	262.91
21996	22.44	0.54545	0.1	321.09
21997	22.532	0.63636	0.1	301.73
21998	22.257	0.54545	0.1	360.35
21999	22.348	0.63636	0.1	340.8
22000	22.073	0.54545	0.1	399.8
22001	22.165	0.63636	0.1	380.07
22002	21.89	0.54545	0.1	439.41
22003	21.981	0.63636	0.1	419.52
22004	21.706	0.54545	0.1	479.18
22005	21.798	0.63636	0.1	459.15
22006	21.523	0.54545	0.1	519.1
22007	21.614	0.63636	0.1	498.93
22008	21.339	0.54545	0.1	559.16
22009	21.431	0.63636	0.1	538.87
22010	21.156	0.54545	0.1	599.37
22011	21.247	0.63636	0.1	578.96
22012	20.972	0.54545	0.1	639.73
22013	21.064	0.63636	0.1	619.2
22014	20.789	0.54545	0.1	680.23
22015	20.88	0.63636	0.1	659.58
22016	20.605	0.54545	0.1	720.88
22017	20.697	0.63636	0.1	700.12
22018	20.422	0.54545	0.1	761.68
22019	20.513	0.63636	0.1	740.82
22020	20.238	0.54545	0.1	802.64
22021	20.33	0.63636	0.1	781.67
22022	20.055	0.54545	0.1	843.76
22023	20.146	0.63636	0.1	822.68
22024	19.871	0.54545	0.1	885.03
22025	19.963	0.63636	0.1	863.85
22026	19.688	0.54545	0.1	926.47
22027	19.779	0.63636	0.1	905.18
22028	19.504	0.54545	0.1	968.07
22029	19.596	0.63636	0.1	946.68
22030	19.321	0.54545	0.1	1009.8
22031	19.412	0.63636	0.1	988.36
22032	19.137	0.54545	0.1	1051.8
22033	19.229	0.63636	0.1	1030.2
22034	18.954	0.54545	0.1	1093.9
22035	19.045	0.63636	0.1	1072.2
22036	18.77	0.54545	0.1	1136.2
22037	18.862	0.63636	0.1	1114.4
22038	18.586	0.54545	0.1	1178.7
22039	18.678	0.63636	0.1	1156.8
22040	18.403	0.54545	0.1	1221.4
22041	18.495	0.63636	0.1	1199.3
22042	18.219	0.54545	0.1	1264.2
22043	18.311	0.63636	0.1	1242.1
22044	18.036	0.54545	0.1	1307.2
22045	18.128	0.63636	0.1	1285.
22046	17.852	0.54545	0.1	1350.4
22047	17.944	0.63636	0.1	1328.1
22048	17.669	0.54545	0.1	1393.8
22049	17.761	0.63636	0.1	1371.4
22050	17.485	0.54545	0.1	1437.4
22051	17.577	0.63636	0.1	1414.9
22052	17.302	0.54545	0.1	1481.2
22053	17.394	0.63636	0.1	1458.6
22054	17.118	0.54545	0.1	1525.2
22055	17.21	0.63636	0.1	1502.5
22056	16.935	0.54545	0.1	1569.4
22057	17.027	0.63636	0.1	1546.6
22058	16.751	0.54545	0.1	1613.8
22059	16.843	0.63636	0.1	1590.8
22060	16.568	0.54545	0.1	1658.3
22061	16.66	0.63636	0.1	1635.3
22062	16.384	0.54545	0.1	1703.1
22063	16.476	0.63636	0.1	1680.
22064	16.201	0.54545	0.1	1748.1
22065	16.293	0.63636	0.1	1724.8
22066	16.017	0.54545	0.1	1793.2
22067	16.109	0.63636	0.1	1769.9
22068	15.834	0.54545	0.1	1838.6
22069	15.926	0.63636	0.1	1815.1
22070	15.65	0.54545	0.1	1884.2
22071	15.742	0.63636	0.1	1860.6
22072	15.467	0.54545	0.1	1930.
22073	15.559	0.63636	0.1	1906.3
22074	15.283	0.54545	0.1	1975.9
22075	15.375	0.63636	0.1	1952.1
22076	15.1	0.54545	0.1	2022.1
22077	15.192	0.63636	0.1	1998.2
22078	14.916	0.54545	0.1	2068.5
22079	15.008	0.63636	0.1	2044.5
22080	14.733	0.54545	0.1	2115.1
22081	14.825	0.63636	0.1	2090.9
22082	14.549	0.54545	0.1	2161.9
22083	14.641	0.63636	0.1	2137.6
22084	14.366	0.54545	0.1	2208.9
22085	14.458	0.63636	0.1	2184.5
22086	14.182	0.54545	0.1	2256.2
22087	14.274	0.63636	0.1	2231.6
22088	13.999	0.54545	0.1	2303.6
22089	14.091	0.63636	0.1	2278.9
22090	13.815	0.54545	0.1	2351.2
22091	13.907	0.63636	0.1	2326.4
22092	13.632	0.54545	0.1	2399.
22093	13.724	0.63636	0.1	2374.1
22094	13.448	0.54545	0.1	2447.1
22095	13.54	0.63636	0.1	2422.
22096	13.265	0.54545	0.1	2495.3
22097	13.356	0.63636	0.1	2470.1
22098	13.081	0.54545	0.1	2543.7
22099	13.173	0.63636	0.1	2518.4
22100	12.898	0.54545	0.1	2592.3
22101	12.989	0.63636	0.1	2566.9
22102	12.714	0.54545	0.1	2641.
22103	12.806	0.63636	0.1	2615.5
22104	12.531	0.54545	0.1	2689.9
22105	12.622	0.63636	0.1	2664.3
22106	12.347	0.54545	0.1	2738.9
22107	12.439	0.63636	0.1	2713.3
22108	12.164	0.54545	0.1	2788.
22109	12.255	0.63636	0.1	2762.3
22110	11.98	0.54545	0.1	2837.1
22111	12.072	0.63636	0.1	2811.5
22112	11.797	0.54545	0.1	2886.3
22113	11.888	0.63636	0.1	2860.6
22114	11.613	0.54545	0.1	2935.3
22115	11.705	0.63636	0.1	2909.8
22116	11.43	0.54545	0.1	2984.1
22117	11.521	0.63636	0.1	2958.8
22118	11.246	0.54545	0.1	3032.7
22119	11.338	0.63636	0.1	3007.7
22120	11.063	0.54545	0.1	3080.8
22121	11.154	0.63636	0.1	3056.2
22122	10.879	0.54545	0.1	3128.2
22123	10.971	0.63636	0.1	3104.3
22124	10.696	0.54545	0.1	3174.7
22125	10.787	0.63636	0.1	3151.6
22126	10.512	0.54545	0.1	3219.9
22127	10.604	0.63636	0.1	3198.
22128	10.329	0.54545	0.1	3263.4
22129	10.42	0.63636	0.1	3243.
22130	10.145	0.54545	0.1	3304.7
22131	10.237	0.63636	0.1	3286.3
22132	9.9616	0.54545	0.1	3343.
22133	10.053	0.63636	0.1	3327.3
22134	9.7781	0.54545	0.1	3377.6
22135	9.8698	0.63636	0.1	3365.2
22136	9.5946	0.54545	0.1	3407.2
22137	9.6863	0.63636	0.1	3399.1
22138	9.4111	0.54545	0.1	3430.6
22139	9.5028	0.63636	0.1	3428.
22140	9.2275	0.54545	0.1	3445.9
22141	9.3193	0.63636	0.1	3450.3
22142	9.044	0.54545	0.1	3451.1
22143	9.1358	0.63636	0.1	3464.3
22144	8.8605	0.54545	0.1	3443.6
22145	8.9523	0.63636	0.1	3467.7
22146	8.677	0.54545	0.1	3420.1
22147	8.7688	0.63636	0.1	3457.9
22148	8.4935	0.54545	0.1	3376.8
22149	8.5853	0.63636	0.1	3431.5
22150	8.31	0.54545	0.1	3309.2
22151	8.4018	0.63636	0.1	3384.6
22152	8.1265	0.54545	0.1	3211.9
22153	8.2182	0.63636	0.1	3312.3
22154	7.943	0.54545	0.1	3079.3
22155	8.0347	0.63636	0.1	3209.5
22156	7.7595	0.54545	0.1	2905.5
22157	7.8512	0.63636	0.1	3070.4
22158	7.576	0.54545	0.1	2685.6
22159	7.6677	0.63636	0.1	2889.4
22160	7.3925	0.54545	0.1	2417.7
22161	7.4842	0.63636	0.1	2662.9
22162	7.2089	0.54545	0.1	2107.5
22163	7.3007	0.63636	0.1	2392.
22164	7.0254	0.54545	0.1	1776.8
22165	7.1172	0.63636	0.1	2089.2
22166	6.8419	0.54545	0.1	1498.1
22167	6.9337	0.63636	0.1	1788.3
22168	6.7502	0.63636	0.1	1600.1
22169	6.6584	0.54545	0.1	1143.6
22170	23.725	0.72727	0.1	57.327
22171	23.816	0.81818	0.1	39.414
22172	23.908	0.72727	0.1	22.22
22173	23.541	0.72727	0.1	93.756
22174	23.633	0.81818	0.1	75.835
22175	23.358	0.72727	0.1	130.68
22176	23.449	0.81818	0.1	112.7
22177	23.174	0.72727	0.1	168.07
22178	23.266	0.81818	0.1	149.9
22179	22.991	0.72727	0.1	205.92
22180	23.082	0.81818	0.1	187.51
22181	22.807	0.72727	0.1	244.15
22182	22.899	0.81818	0.1	225.5
22183	22.624	0.72727	0.1	282.71
22184	22.715	0.81818	0.1	263.83
22185	22.44	0.72727	0.1	321.55
22186	22.532	0.81818	0.1	302.45
22187	22.257	0.72727	0.1	360.61
22188	22.348	0.81818	0.1	341.32
22189	22.073	0.72727	0.1	399.89
22190	22.165	0.81818	0.1	380.41
22191	21.89	0.72727	0.1	439.35
22192	21.981	0.81818	0.1	419.7
22193	21.706	0.72727	0.1	478.98
22194	21.798	0.81818	0.1	459.18
22195	21.523	0.72727	0.1	518.78
22196	21.614	0.81818	0.1	498.83
22197	21.339	0.72727	0.1	558.74
22198	21.431	0.81818	0.1	538.64
22199	21.156	0.72727	0.1	598.85
22200	21.247	0.81818	0.1	578.62
22201	20.972	0.72727	0.1	639.12
22202	21.064	0.81818	0.1	618.76
22203	20.789	0.72727	0.1	679.54
22204	20.88	0.81818	0.1	659.06
22205	20.605	0.72727	0.1	720.12
22206	20.697	0.81818	0.1	699.52
22207	20.422	0.72727	0.1	760.86
22208	20.513	0.81818	0.1	740.14
22209	20.238	0.72727	0.1	801.76
22210	20.33	0.81818	0.1	780.93
22211	20.055	0.72727	0.1	842.82
22212	20.146	0.81818	0.1	821.88
22213	19.871	0.72727	0.1	884.05
22214	19.963	0.81818	0.1	862.99
22215	19.688	0.72727	0.1	925.45
22216	19.779	0.81818	0.1	904.28
22217	19.504	0.72727	0.1	967.01
22218	19.596	0.81818	0.1	945.74
22219	19.321	0.72727	0.1	1008.8
22220	19.412	0.81818	0.1	987.37
22221	19.137	0.72727	0.1	1050.7
22222	19.229	0.81818	0.1	1029.2
22223	18.954	0.72727	0.1	1092.8
22224	19.045	0.81818	0.1	1071.2
22225	18.77	0.72727	0.1	1135.
22226	18.862	0.81818	0.1	1113.3
22227	18.586	0.72727	0.1	1177.5
22228	18.678	0.81818	0.1	1155.7
22229	18.403	0.72727	0.1	1220.1
22230	18.495	0.81818	0.1	1198.2
22231	18.219	0.72727	0.1	1263.
22232	18.311	0.81818	0.1	1240.9
22233	18.036	0.72727	0.1	1306.
22234	18.128	0.81818	0.1	1283.8
22235	17.852	0.72727	0.1	1349.2
22236	17.944	0.81818	0.1	1326.9
22237	17.669	0.72727	0.1	1392.6
22238	17.761	0.81818	0.1	1370.2
22239	17.485	0.72727	0.1	1436.1
22240	17.577	0.81818	0.1	1413.7
22241	17.302	0.72727	0.1	1479.9
22242	17.394	0.81818	0.1	1457.4
22243	17.118	0.72727	0.1	1523.9
22244	17.21	0.81818	0.1	1501.2
22245	16.935	0.72727	0.1	1568.
22246	17.027	0.81818	0.1	1545.3
22247	16.751	0.72727	0.1	1612.4
22248	16.843	0.81818	0.1	1589.5
22249	16.568	0.72727	0.1	1656.9
22250	16.66	0.81818	0.1	1634.
22251	16.384	0.72727	0.1	1701.7
22252	16.476	0.81818	0.1	1678.6
22253	16.201	0.72727	0.1	1746.6
22254	16.293	0.81818	0.1	1723.5
22255	16.017	0.72727	0.1	1791.8
22256	16.109	0.81818	0.1	1768.5
22257	15.834	0.72727	0.1	1837.1
22258	15.926	0.81818	0.1	1813.7
22259	15.65	0.72727	0.1	1882.7
22260	15.742	0.81818	0.1	1859.2
22261	15.467	0.72727	0.1	1928.4
22262	15.559	0.81818	0.1	1904.8
22263	15.283	0.72727	0.1	1974.4
22264	15.375	0.81818	0.1	1950.7
22265	15.1	0.72727	0.1	2020.6
22266	15.192	0.81818	0.1	1996.7
22267	14.916	0.72727	0.1	2066.9
22268	15.008	0.81818	0.1	2042.9
22269	14.733	0.72727	0.1	2113.5
22270	14.825	0.81818	0.1	2089.4
22271	14.549	0.72727	0.1	2160.2
22272	14.641	0.81818	0.1	2136.
22273	14.366	0.72727	0.1	2207.2
22274	14.458	0.81818	0.1	2182.9
22275	14.182	0.72727	0.1	2254.4
22276	14.274	0.81818	0.1	2229.9
22277	13.999	0.72727	0.1	2301.8
22278	14.091	0.81818	0.1	2277.2
22279	13.815	0.72727	0.1	2349.3
22280	13.907	0.81818	0.1	2324.6
22281	13.632	0.72727	0.1	2397.1
22282	13.724	0.81818	0.1	2372.3
22283	13.448	0.72727	0.1	2445.1
22284	13.54	0.81818	0.1	2420.1
22285	13.265	0.72727	0.1	2493.3
22286	13.356	0.81818	0.1	2468.2
22287	13.081	0.72727	0.1	2541.6
22288	13.173	0.81818	0.1	2516.4
22289	12.898	0.72727	0.1	2590.2
22290	12.989	0.81818	0.1	2564.9
22291	12.714	0.72727	0.1	2638.9
22292	12.806	0.81818	0.1	2613.5
22293	12.531	0.72727	0.1	2687.7
22294	12.622	0.81818	0.1	2662.2
22295	12.347	0.72727	0.1	2736.7
22296	12.439	0.81818	0.1	2711.1
22297	12.164	0.72727	0.1	2785.8
22298	12.255	0.81818	0.1	2760.2
22299	11.98	0.72727	0.1	2835.
22300	12.072	0.81818	0.1	2809.4
22301	11.797	0.72727	0.1	2884.2
22302	11.888	0.81818	0.1	2858.6
22303	11.613	0.72727	0.1	2933.3
22304	11.705	0.81818	0.1	2907.8
22305	11.43	0.72727	0.1	2982.4
22306	11.521	0.81818	0.1	2957.1
22307	11.246	0.72727	0.1	3031.2
22308	11.338	0.81818	0.1	3006.2
22309	11.063	0.72727	0.1	3079.7
22310	11.154	0.81818	0.1	3055.1
22311	10.879	0.72727	0.1	3127.7
22312	10.971	0.81818	0.1	3103.6
22313	10.696	0.72727	0.1	3174.9
22314	10.787	0.81818	0.1	3151.6
22315	10.512	0.72727	0.1	3221.1
22316	10.604	0.81818	0.1	3198.9
22317	10.329	0.72727	0.1	3266.
22318	10.42	0.81818	0.1	3245.2
22319	10.145	0.72727	0.1	3308.9
22320	10.237	0.81818	0.1	3290.
22321	9.9616	0.72727	0.1	3349.4
22322	10.053	0.81818	0.1	3333.
22323	9.7781	0.72727	0.1	3386.8
22324	9.8698	0.81818	0.1	3373.5
22325	9.5946	0.72727	0.1	3419.9
22326	9.6863	0.81818	0.1	3410.8
22327	9.4111	0.72727	0.1	3447.7
22328	9.5028	0.81818	0.1	3443.9
22329	9.2275	0.72727	0.1	3468.7
22330	9.3193	0.81818	0.1	3471.6
22331	9.044	0.72727	0.1	3480.9
22332	9.1358	0.81818	0.1	3492.3
22333	8.8605	0.72727	0.1	3482.
22334	8.9523	0.81818	0.1	3504.2
22335	8.677	0.72727	0.1	3469.2
22336	8.7688	0.81818	0.1	3505.
22337	8.4935	0.72727	0.1	3439.
22338	8.5853	0.81818	0.1	3491.6
22339	8.31	0.72727	0.1	3387.2
22340	8.4018	0.81818	0.1	3460.7
22341	8.1265	0.72727	0.1	3309.1
22342	8.2182	0.81818	0.1	3408.2
22343	7.943	0.72727	0.1	3199.1
22344	8.0347	0.81818	0.1	3329.2
22345	7.7595	0.72727	0.1	3051.9
22346	7.8512	0.81818	0.1	3218.6
22347	7.576	0.72727	0.1	2862.7
22348	7.6677	0.81818	0.1	3071.4
22349	7.3925	0.72727	0.1	2630.3
22350	7.4842	0.81818	0.1	2884.
22351	7.2089	0.72727	0.1	2361.2
22352	7.3007	0.81818	0.1	2657.4
22353	7.0254	0.72727	0.1	2077.7
22354	7.1172	0.81818	0.1	2402.6
22355	6.8419	0.72727	0.1	1852.2
22356	6.9337	0.81818	0.1	2147.8
22357	6.7502	0.81818	0.1	2005.
22358	6.6584	0.72727	0.1	1458.7
22359	23.725	0.90909	0.1	57.895
22360	23.816	1.	0.1	39.618
22361	23.908	0.90909	0.1	22.358
22362	23.541	0.90909	0.1	94.812
22363	23.633	1.	0.1	76.59
22364	23.358	0.90909	0.1	131.98
22365	23.449	1.	0.1	113.81
22366	23.174	0.90909	0.1	169.42
22367	23.266	1.	0.1	151.18
22368	22.991	0.90909	0.1	207.18
22369	23.082	1.	0.1	188.81
22370	22.807	0.90909	0.1	245.27
22371	22.899	1.	0.1	226.71
22372	22.624	0.90909	0.1	283.65
22373	22.715	1.	0.1	264.91
22374	22.44	0.90909	0.1	322.3
22375	22.532	1.	0.1	303.37
22376	22.257	0.90909	0.1	361.19
22377	22.348	1.	0.1	342.08
22378	22.073	0.90909	0.1	400.3
22379	22.165	1.	0.1	381.01
22380	21.89	0.90909	0.1	439.61
22381	21.981	1.	0.1	420.14
22382	21.706	0.90909	0.1	479.09
22383	21.798	1.	0.1	459.47
22384	21.523	0.90909	0.1	518.76
22385	21.614	1.	0.1	498.98
22386	21.339	0.90909	0.1	558.6
22387	21.431	1.	0.1	538.67
22388	21.156	0.90909	0.1	598.6
22389	21.247	1.	0.1	578.54
22390	20.972	0.90909	0.1	638.77
22391	21.064	1.	0.1	618.57
22392	20.789	0.90909	0.1	679.1
22393	20.88	1.	0.1	658.77
22394	20.605	0.90909	0.1	719.6
22395	20.697	1.	0.1	699.14
22396	20.422	0.90909	0.1	760.27
22397	20.513	1.	0.1	739.68
22398	20.238	0.90909	0.1	801.1
22399	20.33	1.	0.1	780.39
22400	20.055	0.90909	0.1	842.1
22401	20.146	1.	0.1	821.28
22402	19.871	0.90909	0.1	883.27
22403	19.963	1.	0.1	862.33
22404	19.688	0.90909	0.1	924.62
22405	19.779	1.	0.1	903.56
22406	19.504	0.90909	0.1	966.14
22407	19.596	1.	0.1	944.97
22408	19.321	0.90909	0.1	1007.8
22409	19.412	1.	0.1	986.56
22410	19.137	0.90909	0.1	1049.7
22411	19.229	1.	0.1	1028.3
22412	18.954	0.90909	0.1	1091.8
22413	19.045	1.	0.1	1070.3
22414	18.77	0.90909	0.1	1134.
22415	18.862	1.	0.1	1112.4
22416	18.586	0.90909	0.1	1176.5
22417	18.678	1.	0.1	1154.7
22418	18.403	0.90909	0.1	1219.1
22419	18.495	1.	0.1	1197.2
22420	18.219	0.90909	0.1	1261.9
22421	18.311	1.	0.1	1239.9
22422	18.036	0.90909	0.1	1304.9
22423	18.128	1.	0.1	1282.8
22424	17.852	0.90909	0.1	1348.
22425	17.944	1.	0.1	1325.9
22426	17.669	0.90909	0.1	1391.4
22427	17.761	1.	0.1	1369.1
22428	17.485	0.90909	0.1	1435.
22429	17.577	1.	0.1	1412.6
22430	17.302	0.90909	0.1	1478.7
22431	17.394	1.	0.1	1456.3
22432	17.118	0.90909	0.1	1522.7
22433	17.21	1.	0.1	1500.1
22434	16.935	0.90909	0.1	1566.8
22435	17.027	1.	0.1	1544.1
22436	16.751	0.90909	0.1	1611.2
22437	16.843	1.	0.1	1588.4
22438	16.568	0.90909	0.1	1655.7
22439	16.66	1.	0.1	1632.8
22440	16.384	0.90909	0.1	1700.4
22441	16.476	1.	0.1	1677.4
22442	16.201	0.90909	0.1	1745.4
22443	16.293	1.	0.1	1722.2
22444	16.017	0.90909	0.1	1790.5
22445	16.109	1.	0.1	1767.3
22446	15.834	0.90909	0.1	1835.8
22447	15.926	1.	0.1	1812.5
22448	15.65	0.90909	0.1	1881.3
22449	15.742	1.	0.1	1857.9
22450	15.467	0.90909	0.1	1927.1
22451	15.559	1.	0.1	1903.5
22452	15.283	0.90909	0.1	1973.
22453	15.375	1.	0.1	1949.3
22454	15.1	0.90909	0.1	2019.1
22455	15.192	1.	0.1	1995.3
22456	14.916	0.90909	0.1	2065.4
22457	15.008	1.	0.1	2041.5
22458	14.733	0.90909	0.1	2111.9
22459	14.825	1.	0.1	2087.9
22460	14.549	0.90909	0.1	2158.7
22461	14.641	1.	0.1	2134.5
22462	14.366	0.90909	0.1	2205.6
22463	14.458	1.	0.1	2181.3
22464	14.182	0.90909	0.1	2252.7
22465	14.274	1.	0.1	2228.4
22466	13.999	0.90909	0.1	2300.1
22467	14.091	1.	0.1	2275.6
22468	13.815	0.90909	0.1	2347.6
22469	13.907	1.	0.1	2323.
22470	13.632	0.90909	0.1	2395.3
22471	13.724	1.	0.1	2370.6
22472	13.448	0.90909	0.1	2443.2
22473	13.54	1.	0.1	2418.4
22474	13.265	0.90909	0.1	2491.4
22475	13.356	1.	0.1	2466.4
22476	13.081	0.90909	0.1	2539.7
22477	13.173	1.	0.1	2514.6
22478	12.898	0.90909	0.1	2588.2
22479	12.989	1.	0.1	2562.9
22480	12.714	0.90909	0.1	2636.8
22481	12.806	1.	0.1	2611.5
22482	12.531	0.90909	0.1	2685.7
22483	12.622	1.	0.1	2660.2
22484	12.347	0.90909	0.1	2734.6
22485	12.439	1.	0.1	2709.1
22486	12.164	0.90909	0.1	2783.8
22487	12.255	1.	0.1	2758.2
22488	11.98	0.90909	0.1	2833.
22489	12.072	1.	0.1	2807.4
22490	11.797	0.90909	0.1	2882.3
22491	11.888	1.	0.1	2856.7
22492	11.613	0.90909	0.1	2931.6
22493	11.705	1.	0.1	2906.1
22494	11.43	0.90909	0.1	2980.9
22495	11.521	1.	0.1	2955.5
22496	11.246	0.90909	0.1	3030.
22497	11.338	1.	0.1	3004.9
22498	11.063	0.90909	0.1	3079.
22499	11.154	1.	0.1	3054.2
22500	10.879	0.90909	0.1	3127.6
22501	10.971	1.	0.1	3103.2
22502	10.696	0.90909	0.1	3175.6
22503	10.787	1.	0.1	3152.
22504	10.512	0.90909	0.1	3223.
22505	10.604	1.	0.1	3200.3
22506	10.329	0.90909	0.1	3269.3
22507	10.42	1.	0.1	3247.9
22508	10.145	0.90909	0.1	3314.1
22509	10.237	1.	0.1	3294.5
22510	9.9616	0.90909	0.1	3357.1
22511	10.053	1.	0.1	3339.7
22512	9.7781	0.90909	0.1	3397.6
22513	9.8698	1.	0.1	3383.1
22514	9.5946	0.90909	0.1	3434.8
22515	9.6863	1.	0.1	3424.2
22516	9.4111	0.90909	0.1	3467.8
22517	9.5028	1.	0.1	3462.1
22518	9.2275	0.90909	0.1	3495.3
22519	9.3193	1.	0.1	3495.8
22520	9.044	0.90909	0.1	3515.7
22521	9.1358	1.	0.1	3524.3
22522	8.8605	0.90909	0.1	3527.1
22523	8.9523	1.	0.1	3546.
22524	8.677	0.90909	0.1	3527.2
22525	8.7688	1.	0.1	3559.
22526	8.4935	0.90909	0.1	3513.
22527	8.5853	1.	0.1	3561.1
22528	8.31	0.90909	0.1	3481.
22529	8.4018	1.	0.1	3549.5
22530	8.1265	0.90909	0.1	3427.2
22531	8.2182	1.	0.1	3520.9
22532	7.943	0.90909	0.1	3346.7
22533	8.0347	1.	0.1	3471.5
22534	7.7595	0.90909	0.1	3234.7
22535	7.8512	1.	0.1	3397.
22536	7.576	0.90909	0.1	3086.8
22537	7.6677	1.	0.1	3293.3
22538	7.3925	0.90909	0.1	2901.
22539	7.4842	1.	0.1	3156.8
22540	7.2089	0.90909	0.1	2681.6
22541	7.3007	1.	0.1	2986.7
22542	7.0254	0.90909	0.1	2445.2
22543	7.1172	1.	0.1	2788.3
22544	6.8419	0.90909	0.1	2261.5
22545	6.9337	1.	0.1	2578.7
22546	6.7502	1.	0.1	2474.3
22547	6.6584	0.90909	0.1	1806.8
22548	23.725	1.0909	0.1	58.269
22549	23.816	1.1818	0.1	39.715
22550	23.908	1.0909	0.1	22.42
22551	23.541	1.0909	0.1	95.607
22552	23.633	1.1818	0.1	77.123
22553	23.358	1.0909	0.1	133.05
22554	23.449	1.1818	0.1	114.68
22555	23.174	1.0909	0.1	170.62
22556	23.266	1.1818	0.1	152.26
22557	22.991	1.0909	0.1	208.4
22558	23.082	1.1818	0.1	189.97
22559	22.807	1.0909	0.1	246.42
22560	22.899	1.1818	0.1	227.88
22561	22.624	1.0909	0.1	284.69
22562	22.715	1.1818	0.1	266.01
22563	22.44	1.0909	0.1	323.21
22564	22.532	1.1818	0.1	304.37
22565	22.257	1.0909	0.1	361.95
22566	22.348	1.1818	0.1	342.95
22567	22.073	1.0909	0.1	400.91
22568	22.165	1.1818	0.1	381.74
22569	21.89	1.0909	0.1	440.07
22570	21.981	1.1818	0.1	420.74
22571	21.706	1.0909	0.1	479.42
22572	21.798	1.1818	0.1	459.93
22573	21.523	1.0909	0.1	518.96
22574	21.614	1.1818	0.1	499.32
22575	21.339	1.0909	0.1	558.67
22576	21.431	1.1818	0.1	538.88
22577	21.156	1.0909	0.1	598.56
22578	21.247	1.1818	0.1	578.63
22579	20.972	1.0909	0.1	638.63
22580	21.064	1.1818	0.1	618.56
22581	20.789	1.0909	0.1	678.86
22582	20.88	1.1818	0.1	658.66
22583	20.605	1.0909	0.1	719.28
22584	20.697	1.1818	0.1	698.94
22585	20.422	1.0909	0.1	759.86
22586	20.513	1.1818	0.1	739.39
22587	20.238	1.0909	0.1	800.62
22588	20.33	1.1818	0.1	780.03
22589	20.055	1.0909	0.1	841.55
22590	20.146	1.1818	0.1	820.84
22591	19.871	1.0909	0.1	882.67
22592	19.963	1.1818	0.1	861.83
22593	19.688	1.0909	0.1	923.96
22594	19.779	1.1818	0.1	903.
22595	19.504	1.0909	0.1	965.43
22596	19.596	1.1818	0.1	944.36
22597	19.321	1.0909	0.1	1007.1
22598	19.412	1.1818	0.1	985.9
22599	19.137	1.0909	0.1	1048.9
22600	19.229	1.1818	0.1	1027.6
22601	18.954	1.0909	0.1	1090.9
22602	19.045	1.1818	0.1	1069.5
22603	18.77	1.0909	0.1	1133.2
22604	18.862	1.1818	0.1	1111.6
22605	18.586	1.0909	0.1	1175.6
22606	18.678	1.1818	0.1	1153.9
22607	18.403	1.0909	0.1	1218.1
22608	18.495	1.1818	0.1	1196.4
22609	18.219	1.0909	0.1	1260.9
22610	18.311	1.1818	0.1	1239.1
22611	18.036	1.0909	0.1	1303.9
22612	18.128	1.1818	0.1	1281.9
22613	17.852	1.0909	0.1	1347.
22614	17.944	1.1818	0.1	1325.
22615	17.669	1.0909	0.1	1390.4
22616	17.761	1.1818	0.1	1368.2
22617	17.485	1.0909	0.1	1433.9
22618	17.577	1.1818	0.1	1411.6
22619	17.302	1.0909	0.1	1477.7
22620	17.394	1.1818	0.1	1455.3
22621	17.118	1.0909	0.1	1521.6
22622	17.21	1.1818	0.1	1499.1
22623	16.935	1.0909	0.1	1565.7
22624	17.027	1.1818	0.1	1543.1
22625	16.751	1.0909	0.1	1610.
22626	16.843	1.1818	0.1	1587.3
22627	16.568	1.0909	0.1	1654.6
22628	16.66	1.1818	0.1	1631.7
22629	16.384	1.0909	0.1	1699.3
22630	16.476	1.1818	0.1	1676.3
22631	16.201	1.0909	0.1	1744.2
22632	16.293	1.1818	0.1	1721.1
22633	16.017	1.0909	0.1	1789.3
22634	16.109	1.1818	0.1	1766.1
22635	15.834	1.0909	0.1	1834.6
22636	15.926	1.1818	0.1	1811.3
22637	15.65	1.0909	0.1	1880.1
22638	15.742	1.1818	0.1	1856.7
22639	15.467	1.0909	0.1	1925.8
22640	15.559	1.1818	0.1	1902.3
22641	15.283	1.0909	0.1	1971.7
22642	15.375	1.1818	0.1	1948.1
22643	15.1	1.0909	0.1	2017.8
22644	15.192	1.1818	0.1	1994.
22645	14.916	1.0909	0.1	2064.
22646	15.008	1.1818	0.1	2040.2
22647	14.733	1.0909	0.1	2110.5
22648	14.825	1.1818	0.1	2086.6
22649	14.549	1.0909	0.1	2157.2
22650	14.641	1.1818	0.1	2133.2
22651	14.366	1.0909	0.1	2204.1
22652	14.458	1.1818	0.1	2179.9
22653	14.182	1.0909	0.1	2251.2
22654	14.274	1.1818	0.1	2226.9
22655	13.999	1.0909	0.1	2298.5
22656	14.091	1.1818	0.1	2274.1
22657	13.815	1.0909	0.1	2346.
22658	13.907	1.1818	0.1	2321.4
22659	13.632	1.0909	0.1	2393.6
22660	13.724	1.1818	0.1	2369.
22661	13.448	1.0909	0.1	2441.5
22662	13.54	1.1818	0.1	2416.7
22663	13.265	1.0909	0.1	2489.6
22664	13.356	1.1818	0.1	2464.7
22665	13.081	1.0909	0.1	2537.8
22666	13.173	1.1818	0.1	2512.8
22667	12.898	1.0909	0.1	2586.3
22668	12.989	1.1818	0.1	2561.2
22669	12.714	1.0909	0.1	2634.9
22670	12.806	1.1818	0.1	2609.7
22671	12.531	1.0909	0.1	2683.7
22672	12.622	1.1818	0.1	2658.4
22673	12.347	1.0909	0.1	2732.7
22674	12.439	1.1818	0.1	2707.3
22675	12.164	1.0909	0.1	2781.8
22676	12.255	1.1818	0.1	2756.3
22677	11.98	1.0909	0.1	2831.1
22678	12.072	1.1818	0.1	2805.6
22679	11.797	1.0909	0.1	2880.5
22680	11.888	1.1818	0.1	2854.9
22681	11.613	1.0909	0.1	2930.
22682	11.705	1.1818	0.1	2904.4
22683	11.43	1.0909	0.1	2979.5
22684	11.521	1.1818	0.1	2954.
22685	11.246	1.0909	0.1	3029.
22686	11.338	1.1818	0.1	3003.7
22687	11.063	1.0909	0.1	3078.4
22688	11.154	1.1818	0.1	3053.4
22689	10.879	1.0909	0.1	3127.7
22690	10.971	1.1818	0.1	3103.1
22691	10.696	1.0909	0.1	3176.7
22692	10.787	1.1818	0.1	3152.6
22693	10.512	1.0909	0.1	3225.2
22694	10.604	1.1818	0.1	3202.
22695	10.329	1.0909	0.1	3273.1
22696	10.42	1.1818	0.1	3251.
22697	10.145	1.0909	0.1	3320.
22698	10.237	1.1818	0.1	3299.4
22699	9.9616	1.0909	0.1	3365.7
22700	10.053	1.1818	0.1	3347.
22701	9.7781	1.0909	0.1	3409.7
22702	9.8698	1.1818	0.1	3393.6
22703	9.5946	1.0909	0.1	3451.4
22704	9.6863	1.1818	0.1	3438.7
22705	9.4111	1.0909	0.1	3490.1
22706	9.5028	1.1818	0.1	3481.8
22707	9.2275	1.0909	0.1	3524.9
22708	9.3193	1.1818	0.1	3522.3
22709	9.044	1.0909	0.1	3554.6
22710	9.1358	1.1818	0.1	3559.3
22711	8.8605	1.0909	0.1	3577.8
22712	8.9523	1.1818	0.1	3591.8
22713	8.677	1.0909	0.1	3592.7
22714	8.7688	1.1818	0.1	3618.6
22715	8.4935	1.0909	0.1	3597.2
22716	8.5853	1.1818	0.1	3638.1
22717	8.31	1.0909	0.1	3588.5
22718	8.4018	1.1818	0.1	3648.5
22719	8.1265	1.0909	0.1	3563.8
22720	8.2182	1.1818	0.1	3647.6
22721	7.943	1.0909	0.1	3519.4
22722	8.0347	1.1818	0.1	3632.9
22723	7.7595	1.0909	0.1	3451.4
22724	7.8512	1.1818	0.1	3601.7
22725	7.576	1.0909	0.1	3356.
22726	7.6677	1.1818	0.1	3551.3
22727	7.3925	1.0909	0.1	3230.1
22728	7.4842	1.1818	0.1	3478.8
22729	7.2089	1.0909	0.1	3073.1
22730	7.3007	1.1818	0.1	3381.7
22731	7.0254	1.0909	0.1	2890.9
22732	7.1172	1.1818	0.1	3257.4
22733	6.8419	1.0909	0.1	2748.9
22734	6.9337	1.1818	0.1	3107.1
22735	6.7502	1.1818	0.1	3046.4
22736	6.6584	1.0909	0.1	2213.1
22737	23.725	1.2727	0.1	58.516
22738	23.816	1.3636	0.1	39.749
22739	23.908	1.2727	0.1	22.435
22740	23.541	1.2727	0.1	96.203
22741	23.633	1.3636	0.1	77.504
22742	23.358	1.2727	0.1	133.91
22743	23.449	1.3636	0.1	115.35
22744	23.174	1.2727	0.1	171.64
22745	23.266	1.3636	0.1	153.14
22746	22.991	1.2727	0.1	209.5
22747	23.082	1.3636	0.1	190.98
22748	22.807	1.2727	0.1	247.52
22749	22.899	1.3636	0.1	228.94
22750	22.624	1.2727	0.1	285.74
22751	22.715	1.3636	0.1	267.05
22752	22.44	1.2727	0.1	324.16
22753	22.532	1.3636	0.1	305.35
22754	22.257	1.2727	0.1	362.79
22755	22.348	1.3636	0.1	343.85
22756	22.073	1.2727	0.1	401.63
22757	22.165	1.3636	0.1	382.54
22758	21.89	1.2727	0.1	440.66
22759	21.981	1.3636	0.1	421.42
22760	21.706	1.2727	0.1	479.89
22761	21.798	1.3636	0.1	460.5
22762	21.523	1.2727	0.1	519.3
22763	21.614	1.3636	0.1	499.76
22764	21.339	1.2727	0.1	558.9
22765	21.431	1.3636	0.1	539.22
22766	21.156	1.2727	0.1	598.68
22767	21.247	1.3636	0.1	578.85
22768	20.972	1.2727	0.1	638.64
22769	21.064	1.3636	0.1	618.67
22770	20.789	1.2727	0.1	678.78
22771	20.88	1.3636	0.1	658.68
22772	20.605	1.2727	0.1	719.1
22773	20.697	1.3636	0.1	698.87
22774	20.422	1.2727	0.1	759.61
22775	20.513	1.3636	0.1	739.24
22776	20.238	1.2727	0.1	800.29
22777	20.33	1.3636	0.1	779.79
22778	20.055	1.2727	0.1	841.16
22779	20.146	1.3636	0.1	820.53
22780	19.871	1.2727	0.1	882.21
22781	19.963	1.3636	0.1	861.46
22782	19.688	1.2727	0.1	923.44
22783	19.779	1.3636	0.1	902.57
22784	19.504	1.2727	0.1	964.86
22785	19.596	1.3636	0.1	943.87
22786	19.321	1.2727	0.1	1006.5
22787	19.412	1.3636	0.1	985.36
22788	19.137	1.2727	0.1	1048.3
22789	19.229	1.3636	0.1	1027.
22790	18.954	1.2727	0.1	1090.2
22791	19.045	1.3636	0.1	1068.9
22792	18.77	1.2727	0.1	1132.4
22793	18.862	1.3636	0.1	1111.
22794	18.586	1.2727	0.1	1174.8
22795	18.678	1.3636	0.1	1153.2
22796	18.403	1.2727	0.1	1217.3
22797	18.495	1.3636	0.1	1195.7
22798	18.219	1.2727	0.1	1260.1
22799	18.311	1.3636	0.1	1238.3
22800	18.036	1.2727	0.1	1303.
22801	18.128	1.3636	0.1	1281.1
22802	17.852	1.2727	0.1	1346.2
22803	17.944	1.3636	0.1	1324.2
22804	17.669	1.2727	0.1	1389.5
22805	17.761	1.3636	0.1	1367.4
22806	17.485	1.2727	0.1	1433.
22807	17.577	1.3636	0.1	1410.8
22808	17.302	1.2727	0.1	1476.7
22809	17.394	1.3636	0.1	1454.4
22810	17.118	1.2727	0.1	1520.6
22811	17.21	1.3636	0.1	1498.2
22812	16.935	1.2727	0.1	1564.7
22813	17.027	1.3636	0.1	1542.2
22814	16.751	1.2727	0.1	1609.
22815	16.843	1.3636	0.1	1586.4
22816	16.568	1.2727	0.1	1653.5
22817	16.66	1.3636	0.1	1630.8
22818	16.384	1.2727	0.1	1698.2
22819	16.476	1.3636	0.1	1675.3
22820	16.201	1.2727	0.1	1743.1
22821	16.293	1.3636	0.1	1720.1
22822	16.017	1.2727	0.1	1788.2
22823	16.109	1.3636	0.1	1765.1
22824	15.834	1.2727	0.1	1833.5
22825	15.926	1.3636	0.1	1810.3
22826	15.65	1.2727	0.1	1878.9
22827	15.742	1.3636	0.1	1855.6
22828	15.467	1.2727	0.1	1924.6
22829	15.559	1.3636	0.1	1901.2
22830	15.283	1.2727	0.1	1970.5
22831	15.375	1.3636	0.1	1946.9
22832	15.1	1.2727	0.1	2016.5
22833	15.192	1.3636	0.1	1992.9
22834	14.916	1.2727	0.1	2062.8
22835	15.008	1.3636	0.1	2039.
22836	14.733	1.2727	0.1	2109.2
22837	14.825	1.3636	0.1	2085.4
22838	14.549	1.2727	0.1	2155.9
22839	14.641	1.3636	0.1	2131.9
22840	14.366	1.2727	0.1	2202.7
22841	14.458	1.3636	0.1	2178.6
22842	14.182	1.2727	0.1	2249.8
22843	14.274	1.3636	0.1	2225.6
22844	13.999	1.2727	0.1	2297.
22845	14.091	1.3636	0.1	2272.7
22846	13.815	1.2727	0.1	2344.5
22847	13.907	1.3636	0.1	2320.
22848	13.632	1.2727	0.1	2392.1
22849	13.724	1.3636	0.1	2367.5
22850	13.448	1.2727	0.1	2439.9
22851	13.54	1.3636	0.1	2415.2
22852	13.265	1.2727	0.1	2487.9
22853	13.356	1.3636	0.1	2463.1
22854	13.081	1.2727	0.1	2536.1
22855	13.173	1.3636	0.1	2511.2
22856	12.898	1.2727	0.1	2584.6
22857	12.989	1.3636	0.1	2559.5
22858	12.714	1.2727	0.1	2633.2
22859	12.806	1.3636	0.1	2608.
22860	12.531	1.2727	0.1	2681.9
22861	12.622	1.3636	0.1	2656.7
22862	12.347	1.2727	0.1	2730.9
22863	12.439	1.3636	0.1	2705.5
22864	12.164	1.2727	0.1	2780.1
22865	12.255	1.3636	0.1	2754.6
22866	11.98	1.2727	0.1	2829.4
22867	12.072	1.3636	0.1	2803.9
22868	11.797	1.2727	0.1	2878.9
22869	11.888	1.3636	0.1	2853.3
22870	11.613	1.2727	0.1	2928.5
22871	11.705	1.3636	0.1	2902.9
22872	11.43	1.2727	0.1	2978.3
22873	11.521	1.3636	0.1	2952.7
22874	11.246	1.2727	0.1	3028.1
22875	11.338	1.3636	0.1	3002.7
22876	11.063	1.2727	0.1	3078.1
22877	11.154	1.3636	0.1	3052.8
22878	10.879	1.2727	0.1	3128.
22879	10.971	1.3636	0.1	3103.1
22880	10.696	1.2727	0.1	3178.
22881	10.787	1.3636	0.1	3153.4
22882	10.512	1.2727	0.1	3227.7
22883	10.604	1.3636	0.1	3203.8
22884	10.329	1.2727	0.1	3277.3
22885	10.42	1.3636	0.1	3254.3
22886	10.145	1.2727	0.1	3326.4
22887	10.237	1.3636	0.1	3304.6
22888	9.9616	1.2727	0.1	3374.9
22889	10.053	1.3636	0.1	3354.8
22890	9.7781	1.2727	0.1	3422.6
22891	9.8698	1.3636	0.1	3404.6
22892	9.5946	1.2727	0.1	3469.1
22893	9.6863	1.3636	0.1	3453.9
22894	9.4111	1.2727	0.1	3514.
22895	9.5028	1.3636	0.1	3502.5
22896	9.2275	1.2727	0.1	3556.7
22897	9.3193	1.3636	0.1	3550.1
22898	9.044	1.2727	0.1	3596.5
22899	9.1358	1.3636	0.1	3596.2
22900	8.8605	1.2727	0.1	3632.5
22901	8.9523	1.3636	0.1	3640.3
22902	8.677	1.2727	0.1	3663.8
22903	8.7688	1.3636	0.1	3682.
22904	8.4935	1.2727	0.1	3689.
22905	8.5853	1.3636	0.1	3720.4
22906	8.31	1.2727	0.1	3706.7
22907	8.4018	1.3636	0.1	3754.8
22908	8.1265	1.2727	0.1	3715.1
22909	8.2182	1.3636	0.1	3784.5
22910	7.943	1.2727	0.1	3712.6
22911	8.0347	1.3636	0.1	3808.7
22912	7.7595	1.2727	0.1	3697.1
22913	7.8512	1.3636	0.1	3826.9
22914	7.576	1.2727	0.1	3666.2
22915	7.6677	1.3636	0.1	3839.
22916	7.3925	1.2727	0.1	3617.
22917	7.4842	1.3636	0.1	3844.8
22918	7.2089	1.2727	0.1	3543.9
22919	7.3007	1.3636	0.1	3842.5
22920	7.0254	1.2727	0.1	3439.1
22921	7.1172	1.3636	0.1	3826.5
22922	6.8419	1.2727	0.1	3354.2
22923	6.9337	1.3636	0.1	3775.
22924	6.7502	1.3636	0.1	3796.5
22925	6.6584	1.2727	0.1	2715.6
22926	23.725	1.4545	0.1	58.678
22927	23.816	1.5455	0.1	39.747
22928	23.908	1.4545	0.1	22.426
22929	23.541	1.4545	0.1	96.651
22930	23.633	1.5455	0.1	77.779
22931	23.358	1.4545	0.1	134.59
22932	23.449	1.5455	0.1	115.86
22933	23.174	1.4545	0.1	172.5
22934	23.266	1.5455	0.1	153.85
22935	22.991	1.4545	0.1	210.45
22936	23.082	1.5455	0.1	191.82
22937	22.807	1.4545	0.1	248.51
22938	22.899	1.5455	0.1	229.86
22939	22.624	1.4545	0.1	286.71
22940	22.715	1.5455	0.1	267.99
22941	22.44	1.4545	0.1	325.08
22942	22.532	1.5455	0.1	306.27
22943	22.257	1.4545	0.1	363.64
22944	22.348	1.5455	0.1	344.72
22945	22.073	1.4545	0.1	402.38
22946	22.165	1.5455	0.1	383.33
22947	21.89	1.4545	0.1	441.31
22948	21.981	1.5455	0.1	422.12
22949	21.706	1.4545	0.1	480.42
22950	21.798	1.5455	0.1	461.1
22951	21.523	1.4545	0.1	519.73
22952	21.614	1.5455	0.1	500.27
22953	21.339	1.4545	0.1	559.22
22954	21.431	1.5455	0.1	539.62
22955	21.156	1.4545	0.1	598.9
22956	21.247	1.5455	0.1	579.15
22957	20.972	1.4545	0.1	638.76
22958	21.064	1.5455	0.1	618.88
22959	20.789	1.4545	0.1	678.81
22960	20.88	1.5455	0.1	658.79
22961	20.605	1.4545	0.1	719.05
22962	20.697	1.5455	0.1	698.89
22963	20.422	1.4545	0.1	759.47
22964	20.513	1.5455	0.1	739.18
22965	20.238	1.4545	0.1	800.08
22966	20.33	1.5455	0.1	779.66
22967	20.055	1.4545	0.1	840.88
22968	20.146	1.5455	0.1	820.33
22969	19.871	1.4545	0.1	881.86
22970	19.963	1.5455	0.1	861.19
22971	19.688	1.4545	0.1	923.04
22972	19.779	1.5455	0.1	902.25
22973	19.504	1.4545	0.1	964.41
22974	19.596	1.5455	0.1	943.49
22975	19.321	1.4545	0.1	1006.
22976	19.412	1.5455	0.1	984.93
22977	19.137	1.4545	0.1	1047.7
22978	19.229	1.5455	0.1	1026.6
22979	18.954	1.4545	0.1	1089.7
22980	19.045	1.5455	0.1	1068.4
22981	18.77	1.4545	0.1	1131.8
22982	18.862	1.5455	0.1	1110.4
22983	18.586	1.4545	0.1	1174.1
22984	18.678	1.5455	0.1	1152.6
22985	18.403	1.4545	0.1	1216.7
22986	18.495	1.5455	0.1	1195.
22987	18.219	1.4545	0.1	1259.4
22988	18.311	1.5455	0.1	1237.7
22989	18.036	1.4545	0.1	1302.3
22990	18.128	1.5455	0.1	1280.5
22991	17.852	1.4545	0.1	1345.4
22992	17.944	1.5455	0.1	1323.5
22993	17.669	1.4545	0.1	1388.7
22994	17.761	1.5455	0.1	1366.6
22995	17.485	1.4545	0.1	1432.2
22996	17.577	1.5455	0.1	1410.
22997	17.302	1.4545	0.1	1475.9
22998	17.394	1.5455	0.1	1453.6
22999	17.118	1.4545	0.1	1519.8
23000	17.21	1.5455	0.1	1497.4
23001	16.935	1.4545	0.1	1563.9
23002	17.027	1.5455	0.1	1541.4
23003	16.751	1.4545	0.1	1608.1
23004	16.843	1.5455	0.1	1585.6
23005	16.568	1.4545	0.1	1652.6
23006	16.66	1.5455	0.1	1629.9
23007	16.384	1.4545	0.1	1697.3
23008	16.476	1.5455	0.1	1674.5
23009	16.201	1.4545	0.1	1742.2
23010	16.293	1.5455	0.1	1719.2
23011	16.017	1.4545	0.1	1787.2
23012	16.109	1.5455	0.1	1764.2
23013	15.834	1.4545	0.1	1832.5
23014	15.926	1.5455	0.1	1809.3
23015	15.65	1.4545	0.1	1877.9
23016	15.742	1.5455	0.1	1854.7
23017	15.467	1.4545	0.1	1923.6
23018	15.559	1.5455	0.1	1900.2
23019	15.283	1.4545	0.1	1969.4
23020	15.375	1.5455	0.1	1945.9
23021	15.1	1.4545	0.1	2015.4
23022	15.192	1.5455	0.1	1991.9
23023	14.916	1.4545	0.1	2061.7
23024	15.008	1.5455	0.1	2038.
23025	14.733	1.4545	0.1	2108.1
23026	14.825	1.5455	0.1	2084.3
23027	14.549	1.4545	0.1	2154.7
23028	14.641	1.5455	0.1	2130.8
23029	14.366	1.4545	0.1	2201.5
23030	14.458	1.5455	0.1	2177.5
23031	14.182	1.4545	0.1	2248.5
23032	14.274	1.5455	0.1	2224.4
23033	13.999	1.4545	0.1	2295.7
23034	14.091	1.5455	0.1	2271.4
23035	13.815	1.4545	0.1	2343.1
23036	13.907	1.5455	0.1	2318.7
23037	13.632	1.4545	0.1	2390.7
23038	13.724	1.5455	0.1	2366.2
23039	13.448	1.4545	0.1	2438.4
23040	13.54	1.5455	0.1	2413.8
23041	13.265	1.4545	0.1	2486.4
23042	13.356	1.5455	0.1	2461.7
23043	13.081	1.4545	0.1	2534.6
23044	13.173	1.5455	0.1	2509.7
23045	12.898	1.4545	0.1	2582.9
23046	12.989	1.5455	0.1	2558.
23047	12.714	1.4545	0.1	2631.5
23048	12.806	1.5455	0.1	2606.4
23049	12.531	1.4545	0.1	2680.3
23050	12.622	1.5455	0.1	2655.1
23051	12.347	1.4545	0.1	2729.2
23052	12.439	1.5455	0.1	2703.9
23053	12.164	1.4545	0.1	2778.4
23054	12.255	1.5455	0.1	2753.
23055	11.98	1.4545	0.1	2827.8
23056	12.072	1.5455	0.1	2802.3
23057	11.797	1.4545	0.1	2877.4
23058	11.888	1.5455	0.1	2851.8
23059	11.613	1.4545	0.1	2927.2
23060	11.705	1.5455	0.1	2901.6
23061	11.43	1.4545	0.1	2977.2
23062	11.521	1.5455	0.1	2951.6
23063	11.246	1.4545	0.1	3027.4
23064	11.338	1.5455	0.1	3001.8
23065	11.063	1.4545	0.1	3077.8
23066	11.154	1.5455	0.1	3052.3
23067	10.879	1.4545	0.1	3128.5
23068	10.971	1.5455	0.1	3103.2
23069	10.696	1.4545	0.1	3179.3
23070	10.787	1.5455	0.1	3154.3
23071	10.512	1.4545	0.1	3230.4
23072	10.604	1.5455	0.1	3205.8
23073	10.329	1.4545	0.1	3281.6
23074	10.42	1.5455	0.1	3257.6
23075	10.145	1.4545	0.1	3333.
23076	10.237	1.5455	0.1	3309.9
23077	9.9616	1.4545	0.1	3384.4
23078	10.053	1.5455	0.1	3362.6
23079	9.7781	1.4545	0.1	3435.9
23080	9.8698	1.5455	0.1	3415.7
23081	9.5946	1.4545	0.1	3487.4
23082	9.6863	1.5455	0.1	3469.4
23083	9.4111	1.4545	0.1	3538.6
23084	9.5028	1.5455	0.1	3523.6
23085	9.2275	1.4545	0.1	3589.6
23086	9.3193	1.5455	0.1	3578.4
23087	9.044	1.4545	0.1	3640.
23088	9.1358	1.5455	0.1	3633.8
23089	8.8605	1.4545	0.1	3689.7
23090	8.9523	1.5455	0.1	3690.
23091	8.677	1.4545	0.1	3738.3
23092	8.7688	1.5455	0.1	3747.1
23093	8.4935	1.4545	0.1	3785.7
23094	8.5853	1.5455	0.1	3805.3
23095	8.31	1.4545	0.1	3831.8
23096	8.4018	1.5455	0.1	3865.1
23097	8.1265	1.4545	0.1	3876.5
23098	8.2182	1.5455	0.1	3927.2
23099	7.943	1.4545	0.1	3920.4
23100	8.0347	1.5455	0.1	3993.2
23101	7.7595	1.4545	0.1	3964.5
23102	7.8512	1.5455	0.1	4065.3
23103	7.576	1.4545	0.1	4010.
23104	7.6677	1.5455	0.1	4147.2
23105	7.3925	1.4545	0.1	4057.5
23106	7.4842	1.5455	0.1	4244.4
23107	7.2089	1.4545	0.1	4103.6
23108	7.3007	1.5455	0.1	4362.7
23109	7.0254	1.4545	0.1	4125.1
23110	7.1172	1.5455	0.1	4504.5
23111	6.8419	1.4545	0.1	4154.
23112	6.9337	1.5455	0.1	4646.6
23113	6.7502	1.5455	0.1	4857.6
23114	6.6584	1.4545	0.1	3394.
23115	23.725	1.6364	0.1	58.783
23116	23.816	1.7273	0.1	39.725
23117	23.908	1.6364	0.1	22.404
23118	23.541	1.6364	0.1	96.989
23119	23.633	1.7273	0.1	77.977
23120	23.358	1.6364	0.1	135.13
23121	23.449	1.7273	0.1	116.26
23122	23.174	1.6364	0.1	173.19
23123	23.266	1.7273	0.1	154.41
23124	22.991	1.6364	0.1	211.25
23125	23.082	1.7273	0.1	192.52
23126	22.807	1.6364	0.1	249.37
23127	22.899	1.7273	0.1	230.64
23128	22.624	1.6364	0.1	287.59
23129	22.715	1.7273	0.1	268.82
23130	22.44	1.6364	0.1	325.94
23131	22.532	1.7273	0.1	307.1
23132	22.257	1.6364	0.1	364.44
23133	22.348	1.7273	0.1	345.51
23134	22.073	1.6364	0.1	403.11
23135	22.165	1.7273	0.1	384.08
23136	21.89	1.6364	0.1	441.96
23137	21.981	1.7273	0.1	422.8
23138	21.706	1.6364	0.1	480.99
23139	21.798	1.7273	0.1	461.7
23140	21.523	1.6364	0.1	520.2
23141	21.614	1.7273	0.1	500.78
23142	21.339	1.6364	0.1	559.59
23143	21.431	1.7273	0.1	540.05
23144	21.156	1.6364	0.1	599.18
23145	21.247	1.7273	0.1	579.49
23146	20.972	1.6364	0.1	638.95
23147	21.064	1.7273	0.1	619.13
23148	20.789	1.6364	0.1	678.92
23149	20.88	1.7273	0.1	658.96
23150	20.605	1.6364	0.1	719.07
23151	20.697	1.7273	0.1	698.98
23152	20.422	1.6364	0.1	759.42
23153	20.513	1.7273	0.1	739.2
23154	20.238	1.6364	0.1	799.96
23155	20.33	1.7273	0.1	779.61
23156	20.055	1.6364	0.1	840.69
23157	20.146	1.7273	0.1	820.21
23158	19.871	1.6364	0.1	881.62
23159	19.963	1.7273	0.1	861.02
23160	19.688	1.6364	0.1	922.74
23161	19.779	1.7273	0.1	902.01
23162	19.504	1.6364	0.1	964.06
23163	19.596	1.7273	0.1	943.21
23164	19.321	1.6364	0.1	1005.6
23165	19.412	1.7273	0.1	984.6
23166	19.137	1.6364	0.1	1047.3
23167	19.229	1.7273	0.1	1026.2
23168	18.954	1.6364	0.1	1089.2
23169	19.045	1.7273	0.1	1068.
23170	18.77	1.6364	0.1	1131.3
23171	18.862	1.7273	0.1	1110.
23172	18.586	1.6364	0.1	1173.6
23173	18.678	1.7273	0.1	1152.1
23174	18.403	1.6364	0.1	1216.1
23175	18.495	1.7273	0.1	1194.5
23176	18.219	1.6364	0.1	1258.8
23177	18.311	1.7273	0.1	1237.1
23178	18.036	1.6364	0.1	1301.7
23179	18.128	1.7273	0.1	1279.9
23180	17.852	1.6364	0.1	1344.7
23181	17.944	1.7273	0.1	1322.9
23182	17.669	1.6364	0.1	1388.
23183	17.761	1.7273	0.1	1366.
23184	17.485	1.6364	0.1	1431.5
23185	17.577	1.7273	0.1	1409.4
23186	17.302	1.6364	0.1	1475.2
23187	17.394	1.7273	0.1	1453.
23188	17.118	1.6364	0.1	1519.
23189	17.21	1.7273	0.1	1496.7
23190	16.935	1.6364	0.1	1563.1
23191	17.027	1.7273	0.1	1540.7
23192	16.751	1.6364	0.1	1607.4
23193	16.843	1.7273	0.1	1584.8
23194	16.568	1.6364	0.1	1651.8
23195	16.66	1.7273	0.1	1629.2
23196	16.384	1.6364	0.1	1696.5
23197	16.476	1.7273	0.1	1673.7
23198	16.201	1.6364	0.1	1741.3
23199	16.293	1.7273	0.1	1718.5
23200	16.017	1.6364	0.1	1786.3
23201	16.109	1.7273	0.1	1763.4
23202	15.834	1.6364	0.1	1831.6
23203	15.926	1.7273	0.1	1808.5
23204	15.65	1.6364	0.1	1877.
23205	15.742	1.7273	0.1	1853.8
23206	15.467	1.6364	0.1	1922.6
23207	15.559	1.7273	0.1	1899.3
23208	15.283	1.6364	0.1	1968.4
23209	15.375	1.7273	0.1	1945.1
23210	15.1	1.6364	0.1	2014.4
23211	15.192	1.7273	0.1	1990.9
23212	14.916	1.6364	0.1	2060.6
23213	15.008	1.7273	0.1	2037.
23214	14.733	1.6364	0.1	2107.
23215	14.825	1.7273	0.1	2083.3
23216	14.549	1.6364	0.1	2153.6
23217	14.641	1.7273	0.1	2129.8
23218	14.366	1.6364	0.1	2200.4
23219	14.458	1.7273	0.1	2176.4
23220	14.182	1.6364	0.1	2247.3
23221	14.274	1.7273	0.1	2223.3
23222	13.999	1.6364	0.1	2294.5
23223	14.091	1.7273	0.1	2270.3
23224	13.815	1.6364	0.1	2341.8
23225	13.907	1.7273	0.1	2317.6
23226	13.632	1.6364	0.1	2389.4
23227	13.724	1.7273	0.1	2365.
23228	13.448	1.6364	0.1	2437.1
23229	13.54	1.7273	0.1	2412.6
23230	13.265	1.6364	0.1	2485.
23231	13.356	1.7273	0.1	2460.4
23232	13.081	1.6364	0.1	2533.2
23233	13.173	1.7273	0.1	2508.4
23234	12.898	1.6364	0.1	2581.5
23235	12.989	1.7273	0.1	2556.6
23236	12.714	1.6364	0.1	2630.
23237	12.806	1.7273	0.1	2605.
23238	12.531	1.6364	0.1	2678.8
23239	12.622	1.7273	0.1	2653.6
23240	12.347	1.6364	0.1	2727.7
23241	12.439	1.7273	0.1	2702.5
23242	12.164	1.6364	0.1	2776.9
23243	12.255	1.7273	0.1	2751.6
23244	11.98	1.6364	0.1	2826.3
23245	12.072	1.7273	0.1	2800.9
23246	11.797	1.6364	0.1	2876.
23247	11.888	1.7273	0.1	2850.5
23248	11.613	1.6364	0.1	2926.
23249	11.705	1.7273	0.1	2900.3
23250	11.43	1.6364	0.1	2976.2
23251	11.521	1.7273	0.1	2950.5
23252	11.246	1.6364	0.1	3026.8
23253	11.338	1.7273	0.1	3001.
23254	11.063	1.6364	0.1	3077.7
23255	11.154	1.7273	0.1	3051.9
23256	10.879	1.6364	0.1	3129.
23257	10.971	1.7273	0.1	3103.3
23258	10.696	1.6364	0.1	3180.8
23259	10.787	1.7273	0.1	3155.2
23260	10.512	1.6364	0.1	3233.1
23261	10.604	1.7273	0.1	3207.7
23262	10.329	1.6364	0.1	3285.9
23263	10.42	1.7273	0.1	3261.
23264	10.145	1.6364	0.1	3339.5
23265	10.237	1.7273	0.1	3315.1
23266	9.9616	1.6364	0.1	3393.9
23267	10.053	1.7273	0.1	3370.2
23268	9.7781	1.6364	0.1	3449.2
23269	9.8698	1.7273	0.1	3426.6
23270	9.5946	1.6364	0.1	3505.6
23271	9.6863	1.7273	0.1	3484.5
23272	9.4111	1.6364	0.1	3563.3
23273	9.5028	1.7273	0.1	3544.2
23274	9.2275	1.6364	0.1	3622.6
23275	9.3193	1.7273	0.1	3606.2
23276	9.044	1.6364	0.1	3683.8
23277	9.1358	1.7273	0.1	3671.
23278	8.8605	1.6364	0.1	3747.3
23279	8.9523	1.7273	0.1	3739.3
23280	8.677	1.6364	0.1	3813.9
23281	8.7688	1.7273	0.1	3811.9
23282	8.4935	1.6364	0.1	3884.2
23283	8.5853	1.7273	0.1	3890.2
23284	8.31	1.6364	0.1	3959.8
23285	8.4018	1.7273	0.1	3975.7
23286	8.1265	1.6364	0.1	4042.5
23287	8.2182	1.7273	0.1	4071.1
23288	7.943	1.6364	0.1	4135.7
23289	8.0347	1.7273	0.1	4180.
23290	7.7595	1.6364	0.1	4244.1
23291	7.8512	1.7273	0.1	4308.2
23292	7.576	1.6364	0.1	4375.2
23293	7.6677	1.7273	0.1	4464.3
23294	7.3925	1.6364	0.1	4539.
23295	7.4842	1.7273	0.1	4661.8
23296	7.2089	1.6364	0.1	4745.7
23297	7.3007	1.7273	0.1	4921.8
23298	7.0254	1.6364	0.1	4993.2
23299	7.1172	1.7273	0.1	5275.2
23300	6.8419	1.6364	0.1	5257.9
23301	6.9337	1.7273	0.1	5778.3
23302	6.7502	1.7273	0.1	6704.9
23303	6.6584	1.6364	0.1	4365.9
23304	23.725	1.8182	0.1	58.85
23305	23.816	1.9091	0.1	39.694
23306	23.908	1.8182	0.1	22.375
23307	23.541	1.8182	0.1	97.244
23308	23.633	1.9091	0.1	78.121
23309	23.358	1.8182	0.1	135.55
23310	23.449	1.9091	0.1	116.56
23311	23.174	1.8182	0.1	173.76
23312	23.266	1.9091	0.1	154.86
23313	22.991	1.8182	0.1	211.92
23314	23.082	1.9091	0.1	193.09
23315	22.807	1.8182	0.1	250.11
23316	22.899	1.9091	0.1	231.29
23317	22.624	1.8182	0.1	288.36
23318	22.715	1.9091	0.1	269.52
23319	22.44	1.8182	0.1	326.7
23320	22.532	1.9091	0.1	307.82
23321	22.257	1.8182	0.1	365.18
23322	22.348	1.9091	0.1	346.22
23323	22.073	1.8182	0.1	403.8
23324	22.165	1.9091	0.1	384.75
23325	21.89	1.8182	0.1	442.58
23326	21.981	1.9091	0.1	423.43
23327	21.706	1.8182	0.1	481.54
23328	21.798	1.9091	0.1	462.27
23329	21.523	1.8182	0.1	520.67
23330	21.614	1.9091	0.1	501.28
23331	21.339	1.8182	0.1	559.99
23332	21.431	1.9091	0.1	540.47
23333	21.156	1.8182	0.1	599.49
23334	21.247	1.9091	0.1	579.84
23335	20.972	1.8182	0.1	639.18
23336	21.064	1.9091	0.1	619.41
23337	20.789	1.8182	0.1	679.07
23338	20.88	1.9091	0.1	659.16
23339	20.605	1.8182	0.1	719.15
23340	20.697	1.9091	0.1	699.12
23341	20.422	1.8182	0.1	759.43
23342	20.513	1.9091	0.1	739.26
23343	20.238	1.8182	0.1	799.91
23344	20.33	1.9091	0.1	779.61
23345	20.055	1.8182	0.1	840.58
23346	20.146	1.9091	0.1	820.16
23347	19.871	1.8182	0.1	881.45
23348	19.963	1.9091	0.1	860.9
23349	19.688	1.8182	0.1	922.52
23350	19.779	1.9091	0.1	901.85
23351	19.504	1.8182	0.1	963.79
23352	19.596	1.9091	0.1	942.99
23353	19.321	1.8182	0.1	1005.3
23354	19.412	1.9091	0.1	984.34
23355	19.137	1.8182	0.1	1046.9
23356	19.229	1.9091	0.1	1025.9
23357	18.954	1.8182	0.1	1088.8
23358	19.045	1.9091	0.1	1067.6
23359	18.77	1.8182	0.1	1130.9
23360	18.862	1.9091	0.1	1109.6
23361	18.586	1.8182	0.1	1173.1
23362	18.678	1.9091	0.1	1151.7
23363	18.403	1.8182	0.1	1215.6
23364	18.495	1.9091	0.1	1194.1
23365	18.219	1.8182	0.1	1258.3
23366	18.311	1.9091	0.1	1236.6
23367	18.036	1.8182	0.1	1301.1
23368	18.128	1.9091	0.1	1279.4
23369	17.852	1.8182	0.1	1344.2
23370	17.944	1.9091	0.1	1322.4
23371	17.669	1.8182	0.1	1387.4
23372	17.761	1.9091	0.1	1365.5
23373	17.485	1.8182	0.1	1430.9
23374	17.577	1.9091	0.1	1408.9
23375	17.302	1.8182	0.1	1474.5
23376	17.394	1.9091	0.1	1452.4
23377	17.118	1.8182	0.1	1518.4
23378	17.21	1.9091	0.1	1496.1
23379	16.935	1.8182	0.1	1562.4
23380	17.027	1.9091	0.1	1540.1
23381	16.751	1.8182	0.1	1606.7
23382	16.843	1.9091	0.1	1584.2
23383	16.568	1.8182	0.1	1651.1
23384	16.66	1.9091	0.1	1628.5
23385	16.384	1.8182	0.1	1695.8
23386	16.476	1.9091	0.1	1673.1
23387	16.201	1.8182	0.1	1740.6
23388	16.293	1.9091	0.1	1717.8
23389	16.017	1.8182	0.1	1785.6
23390	16.109	1.9091	0.1	1762.7
23391	15.834	1.8182	0.1	1830.8
23392	15.926	1.9091	0.1	1807.8
23393	15.65	1.8182	0.1	1876.2
23394	15.742	1.9091	0.1	1853.1
23395	15.467	1.8182	0.1	1921.8
23396	15.559	1.9091	0.1	1898.6
23397	15.283	1.8182	0.1	1967.6
23398	15.375	1.9091	0.1	1944.3
23399	15.1	1.8182	0.1	2013.6
23400	15.192	1.9091	0.1	1990.1
23401	14.916	1.8182	0.1	2059.7
23402	15.008	1.9091	0.1	2036.2
23403	14.733	1.8182	0.1	2106.1
23404	14.825	1.9091	0.1	2082.5
23405	14.549	1.8182	0.1	2152.6
23406	14.641	1.9091	0.1	2128.9
23407	14.366	1.8182	0.1	2199.4
23408	14.458	1.9091	0.1	2175.5
23409	14.182	1.8182	0.1	2246.3
23410	14.274	1.9091	0.1	2222.3
23411	13.999	1.8182	0.1	2293.4
23412	14.091	1.9091	0.1	2269.3
23413	13.815	1.8182	0.1	2340.7
23414	13.907	1.9091	0.1	2316.5
23415	13.632	1.8182	0.1	2388.2
23416	13.724	1.9091	0.1	2363.9
23417	13.448	1.8182	0.1	2435.9
23418	13.54	1.9091	0.1	2411.5
23419	13.265	1.8182	0.1	2483.8
23420	13.356	1.9091	0.1	2459.3
23421	13.081	1.8182	0.1	2531.9
23422	13.173	1.9091	0.1	2507.2
23423	12.898	1.8182	0.1	2580.2
23424	12.989	1.9091	0.1	2555.4
23425	12.714	1.8182	0.1	2628.7
23426	12.806	1.9091	0.1	2603.8
23427	12.531	1.8182	0.1	2677.4
23428	12.622	1.9091	0.1	2652.4
23429	12.347	1.8182	0.1	2726.3
23430	12.439	1.9091	0.1	2701.2
23431	12.164	1.8182	0.1	2775.5
23432	12.255	1.9091	0.1	2750.3
23433	11.98	1.8182	0.1	2825.
23434	12.072	1.9091	0.1	2799.6
23435	11.797	1.8182	0.1	2874.8
23436	11.888	1.9091	0.1	2849.2
23437	11.613	1.8182	0.1	2924.9
23438	11.705	1.9091	0.1	2899.2
23439	11.43	1.8182	0.1	2975.3
23440	11.521	1.9091	0.1	2949.5
23441	11.246	1.8182	0.1	3026.2
23442	11.338	1.9091	0.1	3000.3
23443	11.063	1.8182	0.1	3077.6
23444	11.154	1.9091	0.1	3051.6
23445	10.879	1.8182	0.1	3129.5
23446	10.971	1.9091	0.1	3103.5
23447	10.696	1.8182	0.1	3182.2
23448	10.787	1.9091	0.1	3156.1
23449	10.512	1.8182	0.1	3235.6
23450	10.604	1.9091	0.1	3209.6
23451	10.329	1.8182	0.1	3290.1
23452	10.42	1.9091	0.1	3264.1
23453	10.145	1.8182	0.1	3345.8
23454	10.237	1.9091	0.1	3319.9
23455	9.9616	1.8182	0.1	3402.9
23456	10.053	1.9091	0.1	3377.4
23457	9.7781	1.8182	0.1	3461.9
23458	9.8698	1.9091	0.1	3436.9
23459	9.5946	1.8182	0.1	3523.2
23460	9.6863	1.9091	0.1	3498.8
23461	9.4111	1.8182	0.1	3587.2
23462	9.5028	1.9091	0.1	3563.9
23463	9.2275	1.8182	0.1	3654.7
23464	9.3193	1.9091	0.1	3632.8
23465	9.044	1.8182	0.1	3726.5
23466	9.1358	1.9091	0.1	3706.6
23467	8.8605	1.8182	0.1	3803.8
23468	8.9523	1.9091	0.1	3786.6
23469	8.677	1.8182	0.1	3888.
23470	8.7688	1.9091	0.1	3874.4
23471	8.4935	1.8182	0.1	3981.3
23472	8.5853	1.9091	0.1	3972.2
23473	8.31	1.8182	0.1	4086.4
23474	8.4018	1.9091	0.1	4083.1
23475	8.1265	1.8182	0.1	4207.5
23476	8.2182	1.9091	0.1	4211.2
23477	7.943	1.8182	0.1	4350.6
23478	8.0347	1.9091	0.1	4362.7
23479	7.7595	1.8182	0.1	4525.1
23480	7.8512	1.9091	0.1	4546.5
23481	7.576	1.8182	0.1	4745.8
23482	7.6677	1.9091	0.1	4776.8
23483	7.3925	1.8182	0.1	5036.9
23484	7.4842	1.9091	0.1	5076.3
23485	7.2089	1.8182	0.1	5439.8
23486	7.3007	1.9091	0.1	5484.8
23487	7.0254	1.8182	0.1	6037.7
23488	7.1172	1.9091	0.1	6081.7
23489	6.8419	1.8182	0.1	7148.1
23490	6.9337	1.9091	0.1	7020.1
23491	6.7502	1.9091	0.1	9487.
23492	6.6584	1.8182	0.1	6142.2
23493	23.725	2.	0.1	58.892
23494	23.816	2.0909	0.1	39.659
23495	23.908	2.	0.1	22.345
23496	23.541	2.	0.1	97.436
23497	23.633	2.0909	0.1	78.225
23498	23.358	2.	0.1	135.88
23499	23.449	2.0909	0.1	116.8
23500	23.174	2.	0.1	174.21
23501	23.266	2.0909	0.1	155.21
23502	22.991	2.	0.1	212.47
23503	23.082	2.0909	0.1	193.54
23504	22.807	2.	0.1	250.72
23505	22.899	2.0909	0.1	231.82
23506	22.624	2.	0.1	289.
23507	22.715	2.0909	0.1	270.1
23508	22.44	2.	0.1	327.36
23509	22.532	2.0909	0.1	308.42
23510	22.257	2.	0.1	365.82
23511	22.348	2.0909	0.1	346.83
23512	22.073	2.	0.1	404.41
23513	22.165	2.0909	0.1	385.34
23514	21.89	2.	0.1	443.15
23515	21.981	2.0909	0.1	423.98
23516	21.706	2.	0.1	482.05
23517	21.798	2.0909	0.1	462.78
23518	21.523	2.	0.1	521.12
23519	21.614	2.0909	0.1	501.73
23520	21.339	2.	0.1	560.37
23521	21.431	2.0909	0.1	540.87
23522	21.156	2.	0.1	599.8
23523	21.247	2.0909	0.1	580.18
23524	20.972	2.	0.1	639.43
23525	21.064	2.0909	0.1	619.68
23526	20.789	2.	0.1	679.25
23527	20.88	2.0909	0.1	659.37
23528	20.605	2.	0.1	719.26
23529	20.697	2.0909	0.1	699.26
23530	20.422	2.	0.1	759.48
23531	20.513	2.0909	0.1	739.35
23532	20.238	2.	0.1	799.9
23533	20.33	2.0909	0.1	779.64
23534	20.055	2.	0.1	840.52
23535	20.146	2.0909	0.1	820.14
23536	19.871	2.	0.1	881.34
23537	19.963	2.0909	0.1	860.83
23538	19.688	2.	0.1	922.36
23539	19.779	2.0909	0.1	901.73
23540	19.504	2.	0.1	963.59
23541	19.596	2.0909	0.1	942.84
23542	19.321	2.	0.1	1005.
23543	19.412	2.0909	0.1	984.15
23544	19.137	2.	0.1	1046.6
23545	19.229	2.0909	0.1	1025.7
23546	18.954	2.	0.1	1088.5
23547	19.045	2.0909	0.1	1067.4
23548	18.77	2.	0.1	1130.5
23549	18.862	2.0909	0.1	1109.3
23550	18.586	2.	0.1	1172.8
23551	18.678	2.0909	0.1	1151.4
23552	18.403	2.	0.1	1215.2
23553	18.495	2.0909	0.1	1193.7
23554	18.219	2.	0.1	1257.8
23555	18.311	2.0909	0.1	1236.3
23556	18.036	2.	0.1	1300.7
23557	18.128	2.0909	0.1	1279.
23558	17.852	2.	0.1	1343.7
23559	17.944	2.0909	0.1	1321.9
23560	17.669	2.	0.1	1386.9
23561	17.761	2.0909	0.1	1365.1
23562	17.485	2.	0.1	1430.4
23563	17.577	2.0909	0.1	1408.4
23564	17.302	2.	0.1	1474.
23565	17.394	2.0909	0.1	1451.9
23566	17.118	2.	0.1	1517.9
23567	17.21	2.0909	0.1	1495.7
23568	16.935	2.	0.1	1561.9
23569	17.027	2.0909	0.1	1539.6
23570	16.751	2.	0.1	1606.1
23571	16.843	2.0909	0.1	1583.7
23572	16.568	2.	0.1	1650.5
23573	16.66	2.0909	0.1	1628.
23574	16.384	2.	0.1	1695.1
23575	16.476	2.0909	0.1	1672.5
23576	16.201	2.	0.1	1739.9
23577	16.293	2.0909	0.1	1717.2
23578	16.017	2.	0.1	1784.9
23579	16.109	2.0909	0.1	1762.1
23580	15.834	2.	0.1	1830.1
23581	15.926	2.0909	0.1	1807.2
23582	15.65	2.	0.1	1875.5
23583	15.742	2.0909	0.1	1852.5
23584	15.467	2.	0.1	1921.1
23585	15.559	2.0909	0.1	1898.
23586	15.283	2.	0.1	1966.9
23587	15.375	2.0909	0.1	1943.6
23588	15.1	2.	0.1	2012.8
23589	15.192	2.0909	0.1	1989.5
23590	14.916	2.	0.1	2059.
23591	15.008	2.0909	0.1	2035.5
23592	14.733	2.	0.1	2105.3
23593	14.825	2.0909	0.1	2081.7
23594	14.549	2.	0.1	2151.8
23595	14.641	2.0909	0.1	2128.1
23596	14.366	2.	0.1	2198.5
23597	14.458	2.0909	0.1	2174.7
23598	14.182	2.	0.1	2245.4
23599	14.274	2.0909	0.1	2221.5
23600	13.999	2.	0.1	2292.5
23601	14.091	2.0909	0.1	2268.5
23602	13.815	2.	0.1	2339.8
23603	13.907	2.0909	0.1	2315.7
23604	13.632	2.	0.1	2387.2
23605	13.724	2.0909	0.1	2363.
23606	13.448	2.	0.1	2434.9
23607	13.54	2.0909	0.1	2410.5
23608	13.265	2.	0.1	2482.7
23609	13.356	2.0909	0.1	2458.3
23610	13.081	2.	0.1	2530.8
23611	13.173	2.0909	0.1	2506.2
23612	12.898	2.	0.1	2579.
23613	12.989	2.0909	0.1	2554.3
23614	12.714	2.	0.1	2627.5
23615	12.806	2.0909	0.1	2602.7
23616	12.531	2.	0.1	2676.2
23617	12.622	2.0909	0.1	2651.3
23618	12.347	2.	0.1	2725.1
23619	12.439	2.0909	0.1	2700.1
23620	12.164	2.	0.1	2774.3
23621	12.255	2.0909	0.1	2749.1
23622	11.98	2.	0.1	2823.8
23623	12.072	2.0909	0.1	2798.5
23624	11.797	2.	0.1	2873.7
23625	11.888	2.0909	0.1	2848.2
23626	11.613	2.	0.1	2923.9
23627	11.705	2.0909	0.1	2898.2
23628	11.43	2.	0.1	2974.6
23629	11.521	2.0909	0.1	2948.7
23630	11.246	2.	0.1	3025.7
23631	11.338	2.0909	0.1	2999.7
23632	11.063	2.	0.1	3077.5
23633	11.154	2.0909	0.1	3051.3
23634	10.879	2.	0.1	3130.
23635	10.971	2.0909	0.1	3103.6
23636	10.696	2.	0.1	3183.5
23637	10.787	2.0909	0.1	3156.9
23638	10.512	2.	0.1	3238.
23639	10.604	2.0909	0.1	3211.2
23640	10.329	2.	0.1	3293.9
23641	10.42	2.0909	0.1	3266.9
23642	10.145	2.	0.1	3351.6
23643	10.237	2.0909	0.1	3324.4
23644	9.9616	2.	0.1	3411.3
23645	10.053	2.0909	0.1	3383.9
23646	9.7781	2.	0.1	3473.8
23647	9.8698	2.0909	0.1	3446.2
23648	9.5946	2.	0.1	3539.5
23649	9.6863	2.0909	0.1	3511.9
23650	9.4111	2.	0.1	3609.5
23651	9.5028	2.0909	0.1	3581.8
23652	9.2275	2.	0.1	3684.7
23653	9.3193	2.0909	0.1	3657.1
23654	9.044	2.	0.1	3766.6
23655	9.1358	2.0909	0.1	3739.3
23656	8.8605	2.	0.1	3857.1
23657	8.9523	2.0909	0.1	3830.2
23658	8.677	2.	0.1	3958.3
23659	8.7688	2.0909	0.1	3932.2
23660	8.4935	2.	0.1	4073.7
23661	8.5853	2.0909	0.1	4048.5
23662	8.31	2.	0.1	4207.3
23663	8.4018	2.0909	0.1	4183.4
23664	8.1265	2.	0.1	4365.5
23665	8.2182	2.0909	0.1	4342.5
23666	7.943	2.	0.1	4557.1
23667	8.0347	2.0909	0.1	4534.3
23668	7.7595	2.	0.1	4795.7
23669	7.8512	2.0909	0.1	4770.7
23670	7.576	2.	0.1	5103.6
23671	7.6677	2.0909	0.1	5070.4
23672	7.3925	2.	0.1	5519.3
23673	7.4842	2.0909	0.1	5464.1
23674	7.2089	2.	0.1	6120.7
23675	7.3007	2.0909	0.1	6006.3
23676	7.0254	2.	0.1	7062.1
23677	7.1172	2.0909	0.1	6810.3
23678	6.8419	2.	0.1	9382.5
23679	6.9337	2.0909	0.1	8127.5
23680	6.7502	2.0909	0.1	11234
23681	6.6584	2.	0.1	16701
23682	23.725	2.1818	0.1	58.917
23683	23.816	2.2727	0.1	39.626
23684	23.908	2.1818	0.1	22.316
23685	23.541	2.1818	0.1	97.579
23686	23.633	2.2727	0.1	78.299
23687	23.358	2.1818	0.1	136.14
23688	23.449	2.2727	0.1	116.97
23689	23.174	2.1818	0.1	174.56
23690	23.266	2.2727	0.1	155.48
23691	22.991	2.1818	0.1	212.9
23692	23.082	2.2727	0.1	193.89
23693	22.807	2.1818	0.1	251.21
23694	22.899	2.2727	0.1	232.23
23695	22.624	2.1818	0.1	289.54
23696	22.715	2.2727	0.1	270.56
23697	22.44	2.1818	0.1	327.91
23698	22.532	2.2727	0.1	308.91
23699	22.257	2.1818	0.1	366.37
23700	22.348	2.2727	0.1	347.32
23701	22.073	2.1818	0.1	404.94
23702	22.165	2.2727	0.1	385.83
23703	21.89	2.1818	0.1	443.64
23704	21.981	2.2727	0.1	424.45
23705	21.706	2.1818	0.1	482.5
23706	21.798	2.2727	0.1	463.21
23707	21.523	2.1818	0.1	521.52
23708	21.614	2.2727	0.1	502.13
23709	21.339	2.1818	0.1	560.71
23710	21.431	2.2727	0.1	541.21
23711	21.156	2.1818	0.1	600.09
23712	21.247	2.2727	0.1	580.47
23713	20.972	2.1818	0.1	639.66
23714	21.064	2.2727	0.1	619.92
23715	20.789	2.1818	0.1	679.42
23716	20.88	2.2727	0.1	659.57
23717	20.605	2.1818	0.1	719.39
23718	20.697	2.2727	0.1	699.41
23719	20.422	2.1818	0.1	759.55
23720	20.513	2.2727	0.1	739.45
23721	20.238	2.1818	0.1	799.92
23722	20.33	2.2727	0.1	779.69
23723	20.055	2.1818	0.1	840.49
23724	20.146	2.2727	0.1	820.14
23725	19.871	2.1818	0.1	881.27
23726	19.963	2.2727	0.1	860.8
23727	19.688	2.1818	0.1	922.25
23728	19.779	2.2727	0.1	901.66
23729	19.504	2.1818	0.1	963.44
23730	19.596	2.2727	0.1	942.73
23731	19.321	2.1818	0.1	1004.8
23732	19.412	2.2727	0.1	984.
23733	19.137	2.1818	0.1	1046.4
23734	19.229	2.2727	0.1	1025.5
23735	18.954	2.1818	0.1	1088.2
23736	19.045	2.2727	0.1	1067.2
23737	18.77	2.1818	0.1	1130.2
23738	18.862	2.2727	0.1	1109.1
23739	18.586	2.1818	0.1	1172.5
23740	18.678	2.2727	0.1	1151.2
23741	18.403	2.1818	0.1	1214.9
23742	18.495	2.2727	0.1	1193.5
23743	18.219	2.1818	0.1	1257.5
23744	18.311	2.2727	0.1	1236.
23745	18.036	2.1818	0.1	1300.3
23746	18.128	2.2727	0.1	1278.7
23747	17.852	2.1818	0.1	1343.3
23748	17.944	2.2727	0.1	1321.6
23749	17.669	2.1818	0.1	1386.6
23750	17.761	2.2727	0.1	1364.7
23751	17.485	2.1818	0.1	1430.
23752	17.577	2.2727	0.1	1408.
23753	17.302	2.1818	0.1	1473.6
23754	17.394	2.2727	0.1	1451.6
23755	17.118	2.1818	0.1	1517.4
23756	17.21	2.2727	0.1	1495.3
23757	16.935	2.1818	0.1	1561.4
23758	17.027	2.2727	0.1	1539.2
23759	16.751	2.1818	0.1	1605.6
23760	16.843	2.2727	0.1	1583.3
23761	16.568	2.1818	0.1	1650.
23762	16.66	2.2727	0.1	1627.6
23763	16.384	2.1818	0.1	1694.6
23764	16.476	2.2727	0.1	1672.1
23765	16.201	2.1818	0.1	1739.4
23766	16.293	2.2727	0.1	1716.8
23767	16.017	2.1818	0.1	1784.4
23768	16.109	2.2727	0.1	1761.6
23769	15.834	2.1818	0.1	1829.6
23770	15.926	2.2727	0.1	1806.7
23771	15.65	2.1818	0.1	1875.
23772	15.742	2.2727	0.1	1852.
23773	15.467	2.1818	0.1	1920.5
23774	15.559	2.2727	0.1	1897.4
23775	15.283	2.1818	0.1	1966.3
23776	15.375	2.2727	0.1	1943.1
23777	15.1	2.1818	0.1	2012.2
23778	15.192	2.2727	0.1	1988.9
23779	14.916	2.1818	0.1	2058.3
23780	15.008	2.2727	0.1	2034.9
23781	14.733	2.1818	0.1	2104.6
23782	14.825	2.2727	0.1	2081.1
23783	14.549	2.1818	0.1	2151.1
23784	14.641	2.2727	0.1	2127.5
23785	14.366	2.1818	0.1	2197.8
23786	14.458	2.2727	0.1	2174.1
23787	14.182	2.1818	0.1	2244.7
23788	14.274	2.2727	0.1	2220.9
23789	13.999	2.1818	0.1	2291.7
23790	14.091	2.2727	0.1	2267.8
23791	13.815	2.1818	0.1	2338.9
23792	13.907	2.2727	0.1	2314.9
23793	13.632	2.1818	0.1	2386.4
23794	13.724	2.2727	0.1	2362.3
23795	13.448	2.1818	0.1	2434.
23796	13.54	2.2727	0.1	2409.8
23797	13.265	2.1818	0.1	2481.8
23798	13.356	2.2727	0.1	2457.5
23799	13.081	2.1818	0.1	2529.8
23800	13.173	2.2727	0.1	2505.4
23801	12.898	2.1818	0.1	2578.
23802	12.989	2.2727	0.1	2553.5
23803	12.714	2.1818	0.1	2626.5
23804	12.806	2.2727	0.1	2601.8
23805	12.531	2.1818	0.1	2675.2
23806	12.622	2.2727	0.1	2650.3
23807	12.347	2.1818	0.1	2724.1
23808	12.439	2.2727	0.1	2699.1
23809	12.164	2.1818	0.1	2773.3
23810	12.255	2.2727	0.1	2748.2
23811	11.98	2.1818	0.1	2822.9
23812	12.072	2.2727	0.1	2797.6
23813	11.797	2.1818	0.1	2872.8
23814	11.888	2.2727	0.1	2847.3
23815	11.613	2.1818	0.1	2923.1
23816	11.705	2.2727	0.1	2897.4
23817	11.43	2.1818	0.1	2973.9
23818	11.521	2.2727	0.1	2948.
23819	11.246	2.1818	0.1	3025.3
23820	11.338	2.2727	0.1	2999.2
23821	11.063	2.1818	0.1	3077.5
23822	11.154	2.2727	0.1	3051.1
23823	10.879	2.1818	0.1	3130.5
23824	10.971	2.2727	0.1	3103.8
23825	10.696	2.1818	0.1	3184.6
23826	10.787	2.2727	0.1	3157.6
23827	10.512	2.1818	0.1	3240.1
23828	10.604	2.2727	0.1	3212.6
23829	10.329	2.1818	0.1	3297.3
23830	10.42	2.2727	0.1	3269.4
23831	10.145	2.1818	0.1	3356.7
23832	10.237	2.2727	0.1	3328.2
23833	9.9616	2.1818	0.1	3418.8
23834	10.053	2.2727	0.1	3389.6
23835	9.7781	2.1818	0.1	3484.3
23836	9.8698	2.2727	0.1	3454.3
23837	9.5946	2.1818	0.1	3554.1
23838	9.6863	2.2727	0.1	3523.2
23839	9.4111	2.1818	0.1	3629.5
23840	9.5028	2.2727	0.1	3597.4
23841	9.2275	2.1818	0.1	3711.7
23842	9.3193	2.2727	0.1	3678.4
23843	9.044	2.1818	0.1	3802.9
23844	9.1358	2.2727	0.1	3768.1
23845	8.8605	2.1818	0.1	3905.3
23846	8.9523	2.2727	0.1	3868.7
23847	8.677	2.1818	0.1	4022.3
23848	8.7688	2.2727	0.1	3983.4
23849	8.4935	2.1818	0.1	4158.
23850	8.5853	2.2727	0.1	4116.3
23851	8.31	2.1818	0.1	4318.2
23852	8.4018	2.2727	0.1	4272.7
23853	8.1265	2.1818	0.1	4510.7
23854	8.2182	2.2727	0.1	4459.9
23855	7.943	2.1818	0.1	4746.9
23856	8.0347	2.2727	0.1	4687.8
23857	7.7595	2.1818	0.1	5043.8
23858	7.8512	2.2727	0.1	4970.8
23859	7.576	2.1818	0.1	5428.8
23860	7.6677	2.2727	0.1	5330.4
23861	7.3925	2.1818	0.1	5949.
23862	7.4842	2.2727	0.1	5800.6
23863	7.2089	2.1818	0.1	6695.3
23864	7.3007	2.2727	0.1	6439.2
23865	7.0254	2.1818	0.1	7884.2
23866	7.1172	2.2727	0.1	7354.7
23867	6.8419	2.1818	0.1	10061
23868	6.9337	2.2727	0.1	8776.4
23869	6.7502	2.2727	0.1	11151
23870	6.6584	2.1818	0.1	13448
23871	23.725	2.3636	0.1	58.931
23872	23.816	2.4545	0.1	39.597
23873	23.908	2.3636	0.1	22.291
23874	23.541	2.3636	0.1	97.684
23875	23.633	2.4545	0.1	78.35
23876	23.358	2.3636	0.1	136.33
23877	23.449	2.4545	0.1	117.1
23878	23.174	2.3636	0.1	174.83
23879	23.266	2.4545	0.1	155.68
23880	22.991	2.3636	0.1	213.24
23881	23.082	2.4545	0.1	194.15
23882	22.807	2.3636	0.1	251.6
23883	22.899	2.4545	0.1	232.55
23884	22.624	2.3636	0.1	289.95
23885	22.715	2.4545	0.1	270.91
23886	22.44	2.3636	0.1	328.35
23887	22.532	2.4545	0.1	309.29
23888	22.257	2.3636	0.1	366.81
23889	22.348	2.4545	0.1	347.71
23890	22.073	2.3636	0.1	405.36
23891	22.165	2.4545	0.1	386.21
23892	21.89	2.3636	0.1	444.05
23893	21.981	2.4545	0.1	424.82
23894	21.706	2.3636	0.1	482.87
23895	21.798	2.4545	0.1	463.56
23896	21.523	2.3636	0.1	521.85
23897	21.614	2.4545	0.1	502.44
23898	21.339	2.3636	0.1	561.01
23899	21.431	2.4545	0.1	541.49
23900	21.156	2.3636	0.1	600.34
23901	21.247	2.4545	0.1	580.72
23902	20.972	2.3636	0.1	639.87
23903	21.064	2.4545	0.1	620.13
23904	20.789	2.3636	0.1	679.58
23905	20.88	2.4545	0.1	659.73
23906	20.605	2.3636	0.1	719.5
23907	20.697	2.4545	0.1	699.53
23908	20.422	2.3636	0.1	759.63
23909	20.513	2.4545	0.1	739.54
23910	20.238	2.3636	0.1	799.95
23911	20.33	2.4545	0.1	779.75
23912	20.055	2.3636	0.1	840.48
23913	20.146	2.4545	0.1	820.16
23914	19.871	2.3636	0.1	881.23
23915	19.963	2.4545	0.1	860.78
23916	19.688	2.3636	0.1	922.17
23917	19.779	2.4545	0.1	901.61
23918	19.504	2.3636	0.1	963.33
23919	19.596	2.4545	0.1	942.65
23920	19.321	2.3636	0.1	1004.7
23921	19.412	2.4545	0.1	983.9
23922	19.137	2.3636	0.1	1046.3
23923	19.229	2.4545	0.1	1025.4
23924	18.954	2.3636	0.1	1088.
23925	19.045	2.4545	0.1	1067.
23926	18.77	2.3636	0.1	1130.
23927	18.862	2.4545	0.1	1108.9
23928	18.586	2.3636	0.1	1172.2
23929	18.678	2.4545	0.1	1151.
23930	18.403	2.3636	0.1	1214.6
23931	18.495	2.4545	0.1	1193.3
23932	18.219	2.3636	0.1	1257.2
23933	18.311	2.4545	0.1	1235.8
23934	18.036	2.3636	0.1	1300.
23935	18.128	2.4545	0.1	1278.5
23936	17.852	2.3636	0.1	1343.
23937	17.944	2.4545	0.1	1321.4
23938	17.669	2.3636	0.1	1386.2
23939	17.761	2.4545	0.1	1364.5
23940	17.485	2.3636	0.1	1429.6
23941	17.577	2.4545	0.1	1407.8
23942	17.302	2.3636	0.1	1473.3
23943	17.394	2.4545	0.1	1451.3
23944	17.118	2.3636	0.1	1517.1
23945	17.21	2.4545	0.1	1495.
23946	16.935	2.3636	0.1	1561.1
23947	17.027	2.4545	0.1	1538.9
23948	16.751	2.3636	0.1	1605.3
23949	16.843	2.4545	0.1	1583.
23950	16.568	2.3636	0.1	1649.6
23951	16.66	2.4545	0.1	1627.2
23952	16.384	2.3636	0.1	1694.2
23953	16.476	2.4545	0.1	1671.7
23954	16.201	2.3636	0.1	1739.
23955	16.293	2.4545	0.1	1716.4
23956	16.017	2.3636	0.1	1784.
23957	16.109	2.4545	0.1	1761.3
23958	15.834	2.3636	0.1	1829.1
23959	15.926	2.4545	0.1	1806.3
23960	15.65	2.3636	0.1	1874.5
23961	15.742	2.4545	0.1	1851.6
23962	15.467	2.3636	0.1	1920.
23963	15.559	2.4545	0.1	1897.
23964	15.283	2.3636	0.1	1965.8
23965	15.375	2.4545	0.1	1942.7
23966	15.1	2.3636	0.1	2011.7
23967	15.192	2.4545	0.1	1988.5
23968	14.916	2.3636	0.1	2057.8
23969	15.008	2.4545	0.1	2034.5
23970	14.733	2.3636	0.1	2104.1
23971	14.825	2.4545	0.1	2080.7
23972	14.549	2.3636	0.1	2150.6
23973	14.641	2.4545	0.1	2127.1
23974	14.366	2.3636	0.1	2197.2
23975	14.458	2.4545	0.1	2173.6
23976	14.182	2.3636	0.1	2244.
23977	14.274	2.4545	0.1	2220.3
23978	13.999	2.3636	0.1	2291.1
23979	14.091	2.4545	0.1	2267.3
23980	13.815	2.3636	0.1	2338.3
23981	13.907	2.4545	0.1	2314.4
23982	13.632	2.3636	0.1	2385.7
23983	13.724	2.4545	0.1	2361.7
23984	13.448	2.3636	0.1	2433.3
23985	13.54	2.4545	0.1	2409.2
23986	13.265	2.3636	0.1	2481.1
23987	13.356	2.4545	0.1	2456.8
23988	13.081	2.3636	0.1	2529.
23989	13.173	2.4545	0.1	2504.7
23990	12.898	2.3636	0.1	2577.2
23991	12.989	2.4545	0.1	2552.8
23992	12.714	2.3636	0.1	2625.7
23993	12.806	2.4545	0.1	2601.1
23994	12.531	2.3636	0.1	2674.3
23995	12.622	2.4545	0.1	2649.6
23996	12.347	2.3636	0.1	2723.3
23997	12.439	2.4545	0.1	2698.4
23998	12.164	2.3636	0.1	2772.5
23999	12.255	2.4545	0.1	2747.5
24000	11.98	2.3636	0.1	2822.
24001	12.072	2.4545	0.1	2796.8
24002	11.797	2.3636	0.1	2872.
24003	11.888	2.4545	0.1	2846.6
24004	11.613	2.3636	0.1	2922.4
24005	11.705	2.4545	0.1	2896.8
24006	11.43	2.3636	0.1	2973.4
24007	11.521	2.4545	0.1	2947.5
24008	11.246	2.3636	0.1	3025.
24009	11.338	2.4545	0.1	2998.8
24010	11.063	2.3636	0.1	3077.4
24011	11.154	2.4545	0.1	3050.9
24012	10.879	2.3636	0.1	3130.9
24013	10.971	2.4545	0.1	3103.9
24014	10.696	2.3636	0.1	3185.6
24015	10.787	2.4545	0.1	3158.1
24016	10.512	2.3636	0.1	3241.9
24017	10.604	2.4545	0.1	3213.8
24018	10.329	2.3636	0.1	3300.2
24019	10.42	2.4545	0.1	3271.4
24020	10.145	2.3636	0.1	3361.
24021	10.237	2.4545	0.1	3331.3
24022	9.9616	2.3636	0.1	3425.1
24023	10.053	2.4545	0.1	3394.2
24024	9.7781	2.3636	0.1	3493.2
24025	9.8698	2.4545	0.1	3460.9
24026	9.5946	2.3636	0.1	3566.5
24027	9.6863	2.4545	0.1	3532.5
24028	9.4111	2.3636	0.1	3646.4
24029	9.5028	2.4545	0.1	3610.2
24030	9.2275	2.3636	0.1	3734.8
24031	9.3193	2.4545	0.1	3695.9
24032	9.044	2.3636	0.1	3833.9
24033	9.1358	2.4545	0.1	3791.7
24034	8.8605	2.3636	0.1	3946.8
24035	8.9523	2.4545	0.1	3900.5
24036	8.677	2.3636	0.1	4077.4
24037	8.7688	2.4545	0.1	4025.9
24038	8.4935	2.3636	0.1	4231.
24039	8.5853	2.4545	0.1	4172.8
24040	8.31	2.3636	0.1	4414.3
24041	8.4018	2.4545	0.1	4347.4
24042	8.1265	2.3636	0.1	4636.7
24043	8.2182	2.4545	0.1	4558.1
24044	7.943	2.3636	0.1	4911.3
24045	8.0347	2.4545	0.1	4816.2
24046	7.7595	2.3636	0.1	5256.8
24047	7.8512	2.4545	0.1	5137.2
24048	7.576	2.3636	0.1	5701.8
24049	7.6677	2.4545	0.1	5543.
24050	7.3925	2.3636	0.1	6291.6
24051	7.4842	2.4545	0.1	6065.5
24052	7.2089	2.3636	0.1	7103.4
24053	7.3007	2.4545	0.1	6752.3
24054	7.0254	2.3636	0.1	8265.7
24055	7.1172	2.4545	0.1	7674.3
24056	6.8419	2.3636	0.1	9914.9
24057	6.9337	2.4545	0.1	8920.4
24058	6.7502	2.4545	0.1	10482
24059	6.6584	2.3636	0.1	11611
24060	23.725	2.5455	0.1	58.938
24061	23.816	2.6364	0.1	39.576
24062	23.908	2.5455	0.1	22.271
24063	23.541	2.5455	0.1	97.757
24064	23.633	2.6364	0.1	78.384
24065	23.358	2.5455	0.1	136.46
24066	23.449	2.6364	0.1	117.18
24067	23.174	2.5455	0.1	175.02
24068	23.266	2.6364	0.1	155.82
24069	22.991	2.5455	0.1	213.48
24070	23.082	2.6364	0.1	194.34
24071	22.807	2.5455	0.1	251.88
24072	22.899	2.6364	0.1	232.77
24073	22.624	2.5455	0.1	290.26
24074	22.715	2.6364	0.1	271.16
24075	22.44	2.5455	0.1	328.67
24076	22.532	2.6364	0.1	309.55
24077	22.257	2.5455	0.1	367.14
24078	22.348	2.6364	0.1	347.98
24079	22.073	2.5455	0.1	405.69
24080	22.165	2.6364	0.1	386.49
24081	21.89	2.5455	0.1	444.35
24082	21.981	2.6364	0.1	425.08
24083	21.706	2.5455	0.1	483.16
24084	21.798	2.6364	0.1	463.81
24085	21.523	2.5455	0.1	522.11
24086	21.614	2.6364	0.1	502.67
24087	21.339	2.5455	0.1	561.24
24088	21.431	2.6364	0.1	541.7
24089	21.156	2.5455	0.1	600.54
24090	21.247	2.6364	0.1	580.9
24091	20.972	2.5455	0.1	640.03
24092	21.064	2.6364	0.1	620.28
24093	20.789	2.5455	0.1	679.72
24094	20.88	2.6364	0.1	659.86
24095	20.605	2.5455	0.1	719.6
24096	20.697	2.6364	0.1	699.63
24097	20.422	2.5455	0.1	759.69
24098	20.513	2.6364	0.1	739.61
24099	20.238	2.5455	0.1	799.99
24100	20.33	2.6364	0.1	779.79
24101	20.055	2.5455	0.1	840.49
24102	20.146	2.6364	0.1	820.18
24103	19.871	2.5455	0.1	881.2
24104	19.963	2.6364	0.1	860.78
24105	19.688	2.5455	0.1	922.13
24106	19.779	2.6364	0.1	901.59
24107	19.504	2.5455	0.1	963.26
24108	19.596	2.6364	0.1	942.61
24109	19.321	2.5455	0.1	1004.6
24110	19.412	2.6364	0.1	983.84
24111	19.137	2.5455	0.1	1046.2
24112	19.229	2.6364	0.1	1025.3
24113	18.954	2.5455	0.1	1087.9
24114	19.045	2.6364	0.1	1066.9
24115	18.77	2.5455	0.1	1129.9
24116	18.862	2.6364	0.1	1108.8
24117	18.586	2.5455	0.1	1172.1
24118	18.678	2.6364	0.1	1150.9
24119	18.403	2.5455	0.1	1214.4
24120	18.495	2.6364	0.1	1193.1
24121	18.219	2.5455	0.1	1257.
24122	18.311	2.6364	0.1	1235.6
24123	18.036	2.5455	0.1	1299.8
24124	18.128	2.6364	0.1	1278.3
24125	17.852	2.5455	0.1	1342.8
24126	17.944	2.6364	0.1	1321.2
24127	17.669	2.5455	0.1	1386.
24128	17.761	2.6364	0.1	1364.3
24129	17.485	2.5455	0.1	1429.4
24130	17.577	2.6364	0.1	1407.6
24131	17.302	2.5455	0.1	1473.
24132	17.394	2.6364	0.1	1451.1
24133	17.118	2.5455	0.1	1516.8
24134	17.21	2.6364	0.1	1494.7
24135	16.935	2.5455	0.1	1560.8
24136	17.027	2.6364	0.1	1538.6
24137	16.751	2.5455	0.1	1605.
24138	16.843	2.6364	0.1	1582.7
24139	16.568	2.5455	0.1	1649.4
24140	16.66	2.6364	0.1	1627.
24141	16.384	2.5455	0.1	1693.9
24142	16.476	2.6364	0.1	1671.5
24143	16.201	2.5455	0.1	1738.7
24144	16.293	2.6364	0.1	1716.2
24145	16.017	2.5455	0.1	1783.7
24146	16.109	2.6364	0.1	1761.
24147	15.834	2.5455	0.1	1828.8
24148	15.926	2.6364	0.1	1806.1
24149	15.65	2.5455	0.1	1874.2
24150	15.742	2.6364	0.1	1851.3
24151	15.467	2.5455	0.1	1919.7
24152	15.559	2.6364	0.1	1896.8
24153	15.283	2.5455	0.1	1965.4
24154	15.375	2.6364	0.1	1942.4
24155	15.1	2.5455	0.1	2011.3
24156	15.192	2.6364	0.1	1988.2
24157	14.916	2.5455	0.1	2057.4
24158	15.008	2.6364	0.1	2034.2
24159	14.733	2.5455	0.1	2103.7
24160	14.825	2.6364	0.1	2080.3
24161	14.549	2.5455	0.1	2150.1
24162	14.641	2.6364	0.1	2126.7
24163	14.366	2.5455	0.1	2196.8
24164	14.458	2.6364	0.1	2173.2
24165	14.182	2.5455	0.1	2243.6
24166	14.274	2.6364	0.1	2220.
24167	13.999	2.5455	0.1	2290.6
24168	14.091	2.6364	0.1	2266.9
24169	13.815	2.5455	0.1	2337.8
24170	13.907	2.6364	0.1	2314.
24171	13.632	2.5455	0.1	2385.2
24172	13.724	2.6364	0.1	2361.2
24173	13.448	2.5455	0.1	2432.7
24174	13.54	2.6364	0.1	2408.7
24175	13.265	2.5455	0.1	2480.5
24176	13.356	2.6364	0.1	2456.4
24177	13.081	2.5455	0.1	2528.5
24178	13.173	2.6364	0.1	2504.2
24179	12.898	2.5455	0.1	2576.6
24180	12.989	2.6364	0.1	2552.3
24181	12.714	2.5455	0.1	2625.
24182	12.806	2.6364	0.1	2600.6
24183	12.531	2.5455	0.1	2673.7
24184	12.622	2.6364	0.1	2649.1
24185	12.347	2.5455	0.1	2722.6
24186	12.439	2.6364	0.1	2697.9
24187	12.164	2.5455	0.1	2771.8
24188	12.255	2.6364	0.1	2746.9
24189	11.98	2.5455	0.1	2821.4
24190	12.072	2.6364	0.1	2796.3
24191	11.797	2.5455	0.1	2871.4
24192	11.888	2.6364	0.1	2846.1
24193	11.613	2.5455	0.1	2921.9
24194	11.705	2.6364	0.1	2896.3
24195	11.43	2.5455	0.1	2972.9
24196	11.521	2.6364	0.1	2947.1
24197	11.246	2.5455	0.1	3024.7
24198	11.338	2.6364	0.1	2998.5
24199	11.063	2.5455	0.1	3077.4
24200	11.154	2.6364	0.1	3050.8
24201	10.879	2.5455	0.1	3131.2
24202	10.971	2.6364	0.1	3104.
24203	10.696	2.5455	0.1	3186.3
24204	10.787	2.6364	0.1	3158.5
24205	10.512	2.5455	0.1	3243.3
24206	10.604	2.6364	0.1	3214.7
24207	10.329	2.5455	0.1	3302.4
24208	10.42	2.6364	0.1	3272.8
24209	10.145	2.5455	0.1	3364.4
24210	10.237	2.6364	0.1	3333.6
24211	9.9616	2.5455	0.1	3430.
24212	10.053	2.6364	0.1	3397.6
24213	9.7781	2.5455	0.1	3500.2
24214	9.8698	2.6364	0.1	3465.8
24215	9.5946	2.5455	0.1	3576.2
24216	9.6863	2.6364	0.1	3539.3
24217	9.4111	2.5455	0.1	3659.8
24218	9.5028	2.6364	0.1	3619.8
24219	9.2275	2.5455	0.1	3752.9
24220	9.3193	2.6364	0.1	3709.
24221	9.044	2.5455	0.1	3858.4
24222	9.1358	2.6364	0.1	3809.4
24223	8.8605	2.5455	0.1	3979.7
24224	8.9523	2.6364	0.1	3924.3
24225	8.677	2.5455	0.1	4121.3
24226	8.7688	2.6364	0.1	4057.8
24227	8.4935	2.5455	0.1	4289.2
24228	8.5853	2.6364	0.1	4215.3
24229	8.31	2.5455	0.1	4491.2
24230	8.4018	2.6364	0.1	4403.7
24231	8.1265	2.5455	0.1	4737.6
24232	8.2182	2.6364	0.1	4632.3
24233	7.943	2.5455	0.1	5042.2
24234	8.0347	2.6364	0.1	4913.
24235	7.7595	2.5455	0.1	5423.8
24236	7.8512	2.6364	0.1	5261.5
24237	7.576	2.5455	0.1	5908.2
24238	7.6677	2.6364	0.1	5698.5
24239	7.3925	2.5455	0.1	6529.9
24240	7.4842	2.6364	0.1	6249.9
24241	7.2089	2.5455	0.1	7331.9
24242	7.3007	2.6364	0.1	6946.1
24243	7.0254	2.5455	0.1	8346.8
24244	7.1172	2.6364	0.1	7813.
24245	6.8419	2.5455	0.1	9506.6
24246	6.9337	2.6364	0.1	8839.5
24247	6.7502	2.6364	0.1	9874.8
24248	6.6584	2.5455	0.1	10513
24249	23.725	2.7273	0.1	58.942
24250	23.816	2.8182	0.1	39.562
24251	23.908	2.7273	0.1	22.258
24252	23.541	2.7273	0.1	97.803
24253	23.633	2.8182	0.1	78.402
24254	23.358	2.7273	0.1	136.55
24255	23.449	2.8182	0.1	117.23
24256	23.174	2.7273	0.1	175.14
24257	23.266	2.8182	0.1	155.9
24258	22.991	2.7273	0.1	213.64
24259	23.082	2.8182	0.1	194.44
24260	22.807	2.7273	0.1	252.07
24261	22.899	2.8182	0.1	232.9
24262	22.624	2.7273	0.1	290.47
24263	22.715	2.8182	0.1	271.31
24264	22.44	2.7273	0.1	328.89
24265	22.532	2.8182	0.1	309.71
24266	22.257	2.7273	0.1	367.36
24267	22.348	2.8182	0.1	348.15
24268	22.073	2.7273	0.1	405.9
24269	22.165	2.8182	0.1	386.65
24270	21.89	2.7273	0.1	444.56
24271	21.981	2.8182	0.1	425.25
24272	21.706	2.7273	0.1	483.35
24273	21.798	2.8182	0.1	463.96
24274	21.523	2.7273	0.1	522.29
24275	21.614	2.8182	0.1	502.82
24276	21.339	2.7273	0.1	561.39
24277	21.431	2.8182	0.1	541.83
24278	21.156	2.7273	0.1	600.68
24279	21.247	2.8182	0.1	581.01
24280	20.972	2.7273	0.1	640.15
24281	21.064	2.8182	0.1	620.38
24282	20.789	2.7273	0.1	679.81
24283	20.88	2.8182	0.1	659.94
24284	20.605	2.7273	0.1	719.67
24285	20.697	2.8182	0.1	699.7
24286	20.422	2.7273	0.1	759.74
24287	20.513	2.8182	0.1	739.65
24288	20.238	2.7273	0.1	800.02
24289	20.33	2.8182	0.1	779.82
24290	20.055	2.7273	0.1	840.5
24291	20.146	2.8182	0.1	820.19
24292	19.871	2.7273	0.1	881.19
24293	19.963	2.8182	0.1	860.78
24294	19.688	2.7273	0.1	922.1
24295	19.779	2.8182	0.1	901.57
24296	19.504	2.7273	0.1	963.22
24297	19.596	2.8182	0.1	942.58
24298	19.321	2.7273	0.1	1004.5
24299	19.412	2.8182	0.1	983.8
24300	19.137	2.7273	0.1	1046.1
24301	19.229	2.8182	0.1	1025.2
24302	18.954	2.7273	0.1	1087.8
24303	19.045	2.8182	0.1	1066.9
24304	18.77	2.7273	0.1	1129.8
24305	18.862	2.8182	0.1	1108.7
24306	18.586	2.7273	0.1	1172.
24307	18.678	2.8182	0.1	1150.8
24308	18.403	2.7273	0.1	1214.3
24309	18.495	2.8182	0.1	1193.
24310	18.219	2.7273	0.1	1256.9
24311	18.311	2.8182	0.1	1235.5
24312	18.036	2.7273	0.1	1299.7
24313	18.128	2.8182	0.1	1278.2
24314	17.852	2.7273	0.1	1342.7
24315	17.944	2.8182	0.1	1321.1
24316	17.669	2.7273	0.1	1385.9
24317	17.761	2.8182	0.1	1364.2
24318	17.485	2.7273	0.1	1429.2
24319	17.577	2.8182	0.1	1407.4
24320	17.302	2.7273	0.1	1472.8
24321	17.394	2.8182	0.1	1450.9
24322	17.118	2.7273	0.1	1516.6
24323	17.21	2.8182	0.1	1494.6
24324	16.935	2.7273	0.1	1560.6
24325	17.027	2.8182	0.1	1538.5
24326	16.751	2.7273	0.1	1604.8
24327	16.843	2.8182	0.1	1582.6
24328	16.568	2.7273	0.1	1649.2
24329	16.66	2.8182	0.1	1626.9
24330	16.384	2.7273	0.1	1693.7
24331	16.476	2.8182	0.1	1671.3
24332	16.201	2.7273	0.1	1738.5
24333	16.293	2.8182	0.1	1716.
24334	16.017	2.7273	0.1	1783.5
24335	16.109	2.8182	0.1	1760.9
24336	15.834	2.7273	0.1	1828.6
24337	15.926	2.8182	0.1	1805.9
24338	15.65	2.7273	0.1	1873.9
24339	15.742	2.8182	0.1	1851.2
24340	15.467	2.7273	0.1	1919.5
24341	15.559	2.8182	0.1	1896.6
24342	15.283	2.7273	0.1	1965.2
24343	15.375	2.8182	0.1	1942.2
24344	15.1	2.7273	0.1	2011.1
24345	15.192	2.8182	0.1	1988.
24346	14.916	2.7273	0.1	2057.1
24347	15.008	2.8182	0.1	2034.
24348	14.733	2.7273	0.1	2103.4
24349	14.825	2.8182	0.1	2080.1
24350	14.549	2.7273	0.1	2149.8
24351	14.641	2.8182	0.1	2126.5
24352	14.366	2.7273	0.1	2196.5
24353	14.458	2.8182	0.1	2173.
24354	14.182	2.7273	0.1	2243.3
24355	14.274	2.8182	0.1	2219.7
24356	13.999	2.7273	0.1	2290.3
24357	14.091	2.8182	0.1	2266.6
24358	13.815	2.7273	0.1	2337.4
24359	13.907	2.8182	0.1	2313.7
24360	13.632	2.7273	0.1	2384.8
24361	13.724	2.8182	0.1	2361.
24362	13.448	2.7273	0.1	2432.4
24363	13.54	2.8182	0.1	2408.4
24364	13.265	2.7273	0.1	2480.1
24365	13.356	2.8182	0.1	2456.1
24366	13.081	2.7273	0.1	2528.1
24367	13.173	2.8182	0.1	2503.9
24368	12.898	2.7273	0.1	2576.2
24369	12.989	2.8182	0.1	2552.
24370	12.714	2.7273	0.1	2624.6
24371	12.806	2.8182	0.1	2600.2
24372	12.531	2.7273	0.1	2673.3
24373	12.622	2.8182	0.1	2648.8
24374	12.347	2.7273	0.1	2722.2
24375	12.439	2.8182	0.1	2697.5
24376	12.164	2.7273	0.1	2771.4
24377	12.255	2.8182	0.1	2746.6
24378	11.98	2.7273	0.1	2821.
24379	12.072	2.8182	0.1	2796.
24380	11.797	2.7273	0.1	2871.
24381	11.888	2.8182	0.1	2845.8
24382	11.613	2.7273	0.1	2921.5
24383	11.705	2.8182	0.1	2896.
24384	11.43	2.7273	0.1	2972.7
24385	11.521	2.8182	0.1	2946.8
24386	11.246	2.7273	0.1	3024.5
24387	11.338	2.8182	0.1	2998.3
24388	11.063	2.7273	0.1	3077.4
24389	11.154	2.8182	0.1	3050.7
24390	10.879	2.7273	0.1	3131.4
24391	10.971	2.8182	0.1	3104.1
24392	10.696	2.7273	0.1	3186.9
24393	10.787	2.8182	0.1	3158.8
24394	10.512	2.7273	0.1	3244.2
24395	10.604	2.8182	0.1	3215.2
24396	10.329	2.7273	0.1	3303.9
24397	10.42	2.8182	0.1	3273.7
24398	10.145	2.7273	0.1	3366.7
24399	10.237	2.8182	0.1	3334.9
24400	9.9616	2.7273	0.1	3433.4
24401	10.053	2.8182	0.1	3399.6
24402	9.7781	2.7273	0.1	3505.
24403	9.8698	2.8182	0.1	3468.8
24404	9.5946	2.7273	0.1	3582.9
24405	9.6863	2.8182	0.1	3543.6
24406	9.4111	2.7273	0.1	3669.
24407	9.5028	2.8182	0.1	3625.6
24408	9.2275	2.7273	0.1	3765.5
24409	9.3193	2.8182	0.1	3717.
24410	9.044	2.7273	0.1	3875.4
24411	9.1358	2.8182	0.1	3820.4
24412	8.8605	2.7273	0.1	4002.5
24413	8.9523	2.8182	0.1	3939.1
24414	8.677	2.7273	0.1	4151.9
24415	8.7688	2.8182	0.1	4077.7
24416	8.4935	2.7273	0.1	4329.9
24417	8.5853	2.8182	0.1	4241.8
24418	8.31	2.7273	0.1	4545.
24419	8.4018	2.8182	0.1	4438.9
24420	8.1265	2.7273	0.1	4808.
24421	8.2182	2.8182	0.1	4678.5
24422	7.943	2.7273	0.1	5133.
24423	8.0347	2.8182	0.1	4973.1
24424	7.7595	2.7273	0.1	5537.6
24425	7.8512	2.8182	0.1	5338.1
24426	7.576	2.7273	0.1	6043.
24427	7.6677	2.8182	0.1	5792.2
24428	7.3925	2.7273	0.1	6671.5
24429	7.4842	2.8182	0.1	6355.8
24430	7.2089	2.7273	0.1	7436.7
24431	7.3007	2.8182	0.1	7045.1
24432	7.0254	2.7273	0.1	8318.9
24433	7.1172	2.8182	0.1	7857.1
24434	6.8419	2.7273	0.1	9217.6
24435	6.9337	2.8182	0.1	8737.9
24436	6.7502	2.8182	0.1	9541.2
24437	6.6584	2.7273	0.1	9923.1
24438	23.725	2.9091	0.1	58.943
24439	23.816	3.	0.1	39.558
24440	23.908	2.9091	0.1	22.251
24441	23.541	2.9091	0.1	97.825
24442	23.633	3.	0.1	78.409
24443	23.358	2.9091	0.1	136.59
24444	23.449	3.	0.1	117.25
24445	23.174	2.9091	0.1	175.21
24446	23.266	3.	0.1	155.92
24447	22.991	2.9091	0.1	213.72
24448	23.082	3.	0.1	194.48
24449	22.807	2.9091	0.1	252.16
24450	22.899	3.	0.1	232.94
24451	22.624	2.9091	0.1	290.57
24452	22.715	3.	0.1	271.36
24453	22.44	2.9091	0.1	328.99
24454	22.532	3.	0.1	309.77
24455	22.257	2.9091	0.1	367.46
24456	22.348	3.	0.1	348.2
24457	22.073	2.9091	0.1	406.01
24458	22.165	3.	0.1	386.71
24459	21.89	2.9091	0.1	444.67
24460	21.981	3.	0.1	425.3
24461	21.706	2.9091	0.1	483.45
24462	21.798	3.	0.1	464.01
24463	21.523	2.9091	0.1	522.38
24464	21.614	3.	0.1	502.86
24465	21.339	2.9091	0.1	561.48
24466	21.431	3.	0.1	541.87
24467	21.156	2.9091	0.1	600.75
24468	21.247	3.	0.1	581.05
24469	20.972	2.9091	0.1	640.2
24470	21.064	3.	0.1	620.41
24471	20.789	2.9091	0.1	679.86
24472	20.88	3.	0.1	659.97
24473	20.605	2.9091	0.1	719.71
24474	20.697	3.	0.1	699.72
24475	20.422	2.9091	0.1	759.77
24476	20.513	3.	0.1	739.67
24477	20.238	2.9091	0.1	800.03
24478	20.33	3.	0.1	779.83
24479	20.055	2.9091	0.1	840.51
24480	20.146	3.	0.1	820.2
24481	19.871	2.9091	0.1	881.19
24482	19.963	3.	0.1	860.78
24483	19.688	2.9091	0.1	922.09
24484	19.779	3.	0.1	901.57
24485	19.504	2.9091	0.1	963.2
24486	19.596	3.	0.1	942.57
24487	19.321	2.9091	0.1	1004.5
24488	19.412	3.	0.1	983.79
24489	19.137	2.9091	0.1	1046.
24490	19.229	3.	0.1	1025.2
24491	18.954	2.9091	0.1	1087.8
24492	19.045	3.	0.1	1066.8
24493	18.77	2.9091	0.1	1129.7
24494	18.862	3.	0.1	1108.7
24495	18.586	2.9091	0.1	1171.9
24496	18.678	3.	0.1	1150.7
24497	18.403	2.9091	0.1	1214.3
24498	18.495	3.	0.1	1193.
24499	18.219	2.9091	0.1	1256.8
24500	18.311	3.	0.1	1235.5
24501	18.036	2.9091	0.1	1299.6
24502	18.128	3.	0.1	1278.2
24503	17.852	2.9091	0.1	1342.6
24504	17.944	3.	0.1	1321.
24505	17.669	2.9091	0.1	1385.8
24506	17.761	3.	0.1	1364.1
24507	17.485	2.9091	0.1	1429.2
24508	17.577	3.	0.1	1407.4
24509	17.302	2.9091	0.1	1472.7
24510	17.394	3.	0.1	1450.9
24511	17.118	2.9091	0.1	1516.5
24512	17.21	3.	0.1	1494.6
24513	16.935	2.9091	0.1	1560.5
24514	17.027	3.	0.1	1538.5
24515	16.751	2.9091	0.1	1604.7
24516	16.843	3.	0.1	1582.5
24517	16.568	2.9091	0.1	1649.1
24518	16.66	3.	0.1	1626.8
24519	16.384	2.9091	0.1	1693.6
24520	16.476	3.	0.1	1671.3
24521	16.201	2.9091	0.1	1738.4
24522	16.293	3.	0.1	1716.
24523	16.017	2.9091	0.1	1783.3
24524	16.109	3.	0.1	1760.8
24525	15.834	2.9091	0.1	1828.5
24526	15.926	3.	0.1	1805.9
24527	15.65	2.9091	0.1	1873.8
24528	15.742	3.	0.1	1851.1
24529	15.467	2.9091	0.1	1919.3
24530	15.559	3.	0.1	1896.5
24531	15.283	2.9091	0.1	1965.
24532	15.375	3.	0.1	1942.1
24533	15.1	2.9091	0.1	2010.9
24534	15.192	3.	0.1	1987.9
24535	14.916	2.9091	0.1	2057.
24536	15.008	3.	0.1	2033.9
24537	14.733	2.9091	0.1	2103.3
24538	14.825	3.	0.1	2080.1
24539	14.549	2.9091	0.1	2149.7
24540	14.641	3.	0.1	2126.4
24541	14.366	2.9091	0.1	2196.3
24542	14.458	3.	0.1	2173.
24543	14.182	2.9091	0.1	2243.1
24544	14.274	3.	0.1	2219.7
24545	13.999	2.9091	0.1	2290.1
24546	14.091	3.	0.1	2266.6
24547	13.815	2.9091	0.1	2337.3
24548	13.907	3.	0.1	2313.6
24549	13.632	2.9091	0.1	2384.6
24550	13.724	3.	0.1	2360.9
24551	13.448	2.9091	0.1	2432.2
24552	13.54	3.	0.1	2408.4
24553	13.265	2.9091	0.1	2479.9
24554	13.356	3.	0.1	2456.
24555	13.081	2.9091	0.1	2527.9
24556	13.173	3.	0.1	2503.8
24557	12.898	2.9091	0.1	2576.
24558	12.989	3.	0.1	2551.9
24559	12.714	2.9091	0.1	2624.4
24560	12.806	3.	0.1	2600.1
24561	12.531	2.9091	0.1	2673.
24562	12.622	3.	0.1	2648.7
24563	12.347	2.9091	0.1	2722.
24564	12.439	3.	0.1	2697.4
24565	12.164	2.9091	0.1	2771.2
24566	12.255	3.	0.1	2746.5
24567	11.98	2.9091	0.1	2820.8
24568	12.072	3.	0.1	2795.9
24569	11.797	2.9091	0.1	2870.8
24570	11.888	3.	0.1	2845.7
24571	11.613	2.9091	0.1	2921.3
24572	11.705	3.	0.1	2895.9
24573	11.43	2.9091	0.1	2972.5
24574	11.521	3.	0.1	2946.8
24575	11.246	2.9091	0.1	3024.5
24576	11.338	3.	0.1	2998.3
24577	11.063	2.9091	0.1	3077.4
24578	11.154	3.	0.1	3050.6
24579	10.879	2.9091	0.1	3131.5
24580	10.971	3.	0.1	3104.1
24581	10.696	2.9091	0.1	3187.1
24582	10.787	3.	0.1	3158.9
24583	10.512	2.9091	0.1	3244.7
24584	10.604	3.	0.1	3215.4
24585	10.329	2.9091	0.1	3304.7
24586	10.42	3.	0.1	3274.
24587	10.145	2.9091	0.1	3367.9
24588	10.237	3.	0.1	3335.4
24589	9.9616	2.9091	0.1	3435.1
24590	10.053	3.	0.1	3400.4
24591	9.7781	2.9091	0.1	3507.4
24592	9.8698	3.	0.1	3469.8
24593	9.5946	2.9091	0.1	3586.3
24594	9.6863	3.	0.1	3545.
24595	9.4111	2.9091	0.1	3673.7
24596	9.5028	3.	0.1	3627.6
24597	9.2275	2.9091	0.1	3771.9
24598	9.3193	3.	0.1	3719.7
24599	9.044	2.9091	0.1	3884.1
24600	9.1358	3.	0.1	3824.1
24601	8.8605	2.9091	0.1	4014.3
24602	8.9523	3.	0.1	3944.1
24603	8.677	2.9091	0.1	4167.6
24604	8.7688	3.	0.1	4084.4
24605	8.4935	2.9091	0.1	4350.9
24606	8.5853	3.	0.1	4250.7
24607	8.31	2.9091	0.1	4572.7
24608	8.4018	3.	0.1	4450.8
24609	8.1265	2.9091	0.1	4844.2
24610	8.2182	3.	0.1	4694.2
24611	7.943	2.9091	0.1	5179.4
24612	8.0347	3.	0.1	4993.5
24613	7.7595	2.9091	0.1	5594.9
24614	7.8512	3.	0.1	5363.9
24615	7.576	2.9091	0.1	6108.8
24616	7.6677	3.	0.1	5823.4
24617	7.3925	2.9091	0.1	6735.6
24618	7.4842	3.	0.1	6390.
24619	7.2089	2.9091	0.1	7474.5
24620	7.3007	3.	0.1	7074.8
24621	7.0254	2.9091	0.1	8286.5
24622	7.1172	3.	0.1	7865.4
24623	6.8419	2.9091	0.1	9069.2
24624	6.9337	3.	0.1	8698.
24625	6.7502	3.	0.1	9433.1
24626	6.6584	2.9091	0.1	9658.9
24627	23.725	3.0909	0.1	58.943
24628	23.816	3.1818	0.1	39.562
24629	23.908	3.0909	0.1	22.251
24630	23.541	3.0909	0.1	97.825
24631	23.633	3.1818	0.1	78.402
24632	23.358	3.0909	0.1	136.59
24633	23.449	3.1818	0.1	117.23
24634	23.174	3.0909	0.1	175.21
24635	23.266	3.1818	0.1	155.9
24636	22.991	3.0909	0.1	213.72
24637	23.082	3.1818	0.1	194.44
24638	22.807	3.0909	0.1	252.16
24639	22.899	3.1818	0.1	232.9
24640	22.624	3.0909	0.1	290.57
24641	22.715	3.1818	0.1	271.31
24642	22.44	3.0909	0.1	328.99
24643	22.532	3.1818	0.1	309.71
24644	22.257	3.0909	0.1	367.46
24645	22.348	3.1818	0.1	348.15
24646	22.073	3.0909	0.1	406.01
24647	22.165	3.1818	0.1	386.65
24648	21.89	3.0909	0.1	444.67
24649	21.981	3.1818	0.1	425.25
24650	21.706	3.0909	0.1	483.45
24651	21.798	3.1818	0.1	463.96
24652	21.523	3.0909	0.1	522.38
24653	21.614	3.1818	0.1	502.82
24654	21.339	3.0909	0.1	561.48
24655	21.431	3.1818	0.1	541.83
24656	21.156	3.0909	0.1	600.75
24657	21.247	3.1818	0.1	581.01
24658	20.972	3.0909	0.1	640.2
24659	21.064	3.1818	0.1	620.38
24660	20.789	3.0909	0.1	679.86
24661	20.88	3.1818	0.1	659.94
24662	20.605	3.0909	0.1	719.71
24663	20.697	3.1818	0.1	699.7
24664	20.422	3.0909	0.1	759.77
24665	20.513	3.1818	0.1	739.65
24666	20.238	3.0909	0.1	800.03
24667	20.33	3.1818	0.1	779.82
24668	20.055	3.0909	0.1	840.51
24669	20.146	3.1818	0.1	820.19
24670	19.871	3.0909	0.1	881.19
24671	19.963	3.1818	0.1	860.78
24672	19.688	3.0909	0.1	922.09
24673	19.779	3.1818	0.1	901.57
24674	19.504	3.0909	0.1	963.2
24675	19.596	3.1818	0.1	942.58
24676	19.321	3.0909	0.1	1004.5
24677	19.412	3.1818	0.1	983.8
24678	19.137	3.0909	0.1	1046.
24679	19.229	3.1818	0.1	1025.2
24680	18.954	3.0909	0.1	1087.8
24681	19.045	3.1818	0.1	1066.9
24682	18.77	3.0909	0.1	1129.7
24683	18.862	3.1818	0.1	1108.7
24684	18.586	3.0909	0.1	1171.9
24685	18.678	3.1818	0.1	1150.8
24686	18.403	3.0909	0.1	1214.3
24687	18.495	3.1818	0.1	1193.
24688	18.219	3.0909	0.1	1256.8
24689	18.311	3.1818	0.1	1235.5
24690	18.036	3.0909	0.1	1299.6
24691	18.128	3.1818	0.1	1278.2
24692	17.852	3.0909	0.1	1342.6
24693	17.944	3.1818	0.1	1321.1
24694	17.669	3.0909	0.1	1385.8
24695	17.761	3.1818	0.1	1364.2
24696	17.485	3.0909	0.1	1429.2
24697	17.577	3.1818	0.1	1407.4
24698	17.302	3.0909	0.1	1472.7
24699	17.394	3.1818	0.1	1450.9
24700	17.118	3.0909	0.1	1516.5
24701	17.21	3.1818	0.1	1494.6
24702	16.935	3.0909	0.1	1560.5
24703	17.027	3.1818	0.1	1538.5
24704	16.751	3.0909	0.1	1604.7
24705	16.843	3.1818	0.1	1582.6
24706	16.568	3.0909	0.1	1649.1
24707	16.66	3.1818	0.1	1626.9
24708	16.384	3.0909	0.1	1693.6
24709	16.476	3.1818	0.1	1671.3
24710	16.201	3.0909	0.1	1738.4
24711	16.293	3.1818	0.1	1716.
24712	16.017	3.0909	0.1	1783.3
24713	16.109	3.1818	0.1	1760.9
24714	15.834	3.0909	0.1	1828.5
24715	15.926	3.1818	0.1	1805.9
24716	15.65	3.0909	0.1	1873.8
24717	15.742	3.1818	0.1	1851.2
24718	15.467	3.0909	0.1	1919.3
24719	15.559	3.1818	0.1	1896.6
24720	15.283	3.0909	0.1	1965.
24721	15.375	3.1818	0.1	1942.2
24722	15.1	3.0909	0.1	2010.9
24723	15.192	3.1818	0.1	1988.
24724	14.916	3.0909	0.1	2057.
24725	15.008	3.1818	0.1	2034.
24726	14.733	3.0909	0.1	2103.3
24727	14.825	3.1818	0.1	2080.1
24728	14.549	3.0909	0.1	2149.7
24729	14.641	3.1818	0.1	2126.5
24730	14.366	3.0909	0.1	2196.3
24731	14.458	3.1818	0.1	2173.
24732	14.182	3.0909	0.1	2243.1
24733	14.274	3.1818	0.1	2219.7
24734	13.999	3.0909	0.1	2290.1
24735	14.091	3.1818	0.1	2266.6
24736	13.815	3.0909	0.1	2337.3
24737	13.907	3.1818	0.1	2313.7
24738	13.632	3.0909	0.1	2384.6
24739	13.724	3.1818	0.1	2361.
24740	13.448	3.0909	0.1	2432.2
24741	13.54	3.1818	0.1	2408.4
24742	13.265	3.0909	0.1	2479.9
24743	13.356	3.1818	0.1	2456.1
24744	13.081	3.0909	0.1	2527.9
24745	13.173	3.1818	0.1	2503.9
24746	12.898	3.0909	0.1	2576.
24747	12.989	3.1818	0.1	2552.
24748	12.714	3.0909	0.1	2624.4
24749	12.806	3.1818	0.1	2600.2
24750	12.531	3.0909	0.1	2673.
24751	12.622	3.1818	0.1	2648.8
24752	12.347	3.0909	0.1	2722.
24753	12.439	3.1818	0.1	2697.5
24754	12.164	3.0909	0.1	2771.2
24755	12.255	3.1818	0.1	2746.6
24756	11.98	3.0909	0.1	2820.8
24757	12.072	3.1818	0.1	2796.
24758	11.797	3.0909	0.1	2870.8
24759	11.888	3.1818	0.1	2845.8
24760	11.613	3.0909	0.1	2921.3
24761	11.705	3.1818	0.1	2896.
24762	11.43	3.0909	0.1	2972.5
24763	11.521	3.1818	0.1	2946.8
24764	11.246	3.0909	0.1	3024.5
24765	11.338	3.1818	0.1	2998.3
24766	11.063	3.0909	0.1	3077.4
24767	11.154	3.1818	0.1	3050.7
24768	10.879	3.0909	0.1	3131.5
24769	10.971	3.1818	0.1	3104.1
24770	10.696	3.0909	0.1	3187.1
24771	10.787	3.1818	0.1	3158.8
24772	10.512	3.0909	0.1	3244.7
24773	10.604	3.1818	0.1	3215.2
24774	10.329	3.0909	0.1	3304.7
24775	10.42	3.1818	0.1	3273.7
24776	10.145	3.0909	0.1	3367.9
24777	10.237	3.1818	0.1	3334.9
24778	9.9616	3.0909	0.1	3435.1
24779	10.053	3.1818	0.1	3399.6
24780	9.7781	3.0909	0.1	3507.4
24781	9.8698	3.1818	0.1	3468.8
24782	9.5946	3.0909	0.1	3586.3
24783	9.6863	3.1818	0.1	3543.6
24784	9.4111	3.0909	0.1	3673.7
24785	9.5028	3.1818	0.1	3625.6
24786	9.2275	3.0909	0.1	3771.9
24787	9.3193	3.1818	0.1	3717.
24788	9.044	3.0909	0.1	3884.1
24789	9.1358	3.1818	0.1	3820.4
24790	8.8605	3.0909	0.1	4014.3
24791	8.9523	3.1818	0.1	3939.1
24792	8.677	3.0909	0.1	4167.6
24793	8.7688	3.1818	0.1	4077.7
24794	8.4935	3.0909	0.1	4350.9
24795	8.5853	3.1818	0.1	4241.8
24796	8.31	3.0909	0.1	4572.7
24797	8.4018	3.1818	0.1	4438.9
24798	8.1265	3.0909	0.1	4844.2
24799	8.2182	3.1818	0.1	4678.5
24800	7.943	3.0909	0.1	5179.4
24801	8.0347	3.1818	0.1	4973.1
24802	7.7595	3.0909	0.1	5594.9
24803	7.8512	3.1818	0.1	5338.1
24804	7.576	3.0909	0.1	6108.8
24805	7.6677	3.1818	0.1	5792.2
24806	7.3925	3.0909	0.1	6735.6
24807	7.4842	3.1818	0.1	6355.8
24808	7.2089	3.0909	0.1	7474.5
24809	7.3007	3.1818	0.1	7045.1
24810	7.0254	3.0909	0.1	8286.5
24811	7.1172	3.1818	0.1	7857.1
24812	6.8419	3.0909	0.1	9069.2
24813	6.9337	3.1818	0.1	8737.9
24814	6.7502	3.1818	0.1	9541.2
24815	6.6584	3.0909	0.1	9658.9
24816	23.725	3.2727	0.1	58.942
24817	23.816	3.3636	0.1	39.576
24818	23.908	3.2727	0.1	22.258
24819	23.541	3.2727	0.1	97.803
24820	23.633	3.3636	0.1	78.384
24821	23.358	3.2727	0.1	136.55
24822	23.449	3.3636	0.1	117.18
24823	23.174	3.2727	0.1	175.14
24824	23.266	3.3636	0.1	155.82
24825	22.991	3.2727	0.1	213.64
24826	23.082	3.3636	0.1	194.34
24827	22.807	3.2727	0.1	252.07
24828	22.899	3.3636	0.1	232.77
24829	22.624	3.2727	0.1	290.47
24830	22.715	3.3636	0.1	271.16
24831	22.44	3.2727	0.1	328.89
24832	22.532	3.3636	0.1	309.55
24833	22.257	3.2727	0.1	367.35
24834	22.348	3.3636	0.1	347.98
24835	22.073	3.2727	0.1	405.9
24836	22.165	3.3636	0.1	386.49
24837	21.89	3.2727	0.1	444.56
24838	21.981	3.3636	0.1	425.08
24839	21.706	3.2727	0.1	483.35
24840	21.798	3.3636	0.1	463.81
24841	21.523	3.2727	0.1	522.29
24842	21.614	3.3636	0.1	502.67
24843	21.339	3.2727	0.1	561.39
24844	21.431	3.3636	0.1	541.7
24845	21.156	3.2727	0.1	600.68
24846	21.247	3.3636	0.1	580.9
24847	20.972	3.2727	0.1	640.15
24848	21.064	3.3636	0.1	620.28
24849	20.789	3.2727	0.1	679.81
24850	20.88	3.3636	0.1	659.86
24851	20.605	3.2727	0.1	719.67
24852	20.697	3.3636	0.1	699.63
24853	20.422	3.2727	0.1	759.74
24854	20.513	3.3636	0.1	739.61
24855	20.238	3.2727	0.1	800.02
24856	20.33	3.3636	0.1	779.79
24857	20.055	3.2727	0.1	840.5
24858	20.146	3.3636	0.1	820.18
24859	19.871	3.2727	0.1	881.19
24860	19.963	3.3636	0.1	860.78
24861	19.688	3.2727	0.1	922.1
24862	19.779	3.3636	0.1	901.59
24863	19.504	3.2727	0.1	963.22
24864	19.596	3.3636	0.1	942.61
24865	19.321	3.2727	0.1	1004.5
24866	19.412	3.3636	0.1	983.84
24867	19.137	3.2727	0.1	1046.1
24868	19.229	3.3636	0.1	1025.3
24869	18.954	3.2727	0.1	1087.8
24870	19.045	3.3636	0.1	1066.9
24871	18.77	3.2727	0.1	1129.8
24872	18.862	3.3636	0.1	1108.8
24873	18.586	3.2727	0.1	1172.
24874	18.678	3.3636	0.1	1150.9
24875	18.403	3.2727	0.1	1214.3
24876	18.495	3.3636	0.1	1193.1
24877	18.219	3.2727	0.1	1256.9
24878	18.311	3.3636	0.1	1235.6
24879	18.036	3.2727	0.1	1299.7
24880	18.128	3.3636	0.1	1278.3
24881	17.852	3.2727	0.1	1342.7
24882	17.944	3.3636	0.1	1321.2
24883	17.669	3.2727	0.1	1385.9
24884	17.761	3.3636	0.1	1364.3
24885	17.485	3.2727	0.1	1429.2
24886	17.577	3.3636	0.1	1407.6
24887	17.302	3.2727	0.1	1472.8
24888	17.394	3.3636	0.1	1451.1
24889	17.118	3.2727	0.1	1516.6
24890	17.21	3.3636	0.1	1494.7
24891	16.935	3.2727	0.1	1560.6
24892	17.027	3.3636	0.1	1538.6
24893	16.751	3.2727	0.1	1604.8
24894	16.843	3.3636	0.1	1582.7
24895	16.568	3.2727	0.1	1649.2
24896	16.66	3.3636	0.1	1627.
24897	16.384	3.2727	0.1	1693.7
24898	16.476	3.3636	0.1	1671.5
24899	16.201	3.2727	0.1	1738.5
24900	16.293	3.3636	0.1	1716.2
24901	16.017	3.2727	0.1	1783.5
24902	16.109	3.3636	0.1	1761.
24903	15.834	3.2727	0.1	1828.6
24904	15.926	3.3636	0.1	1806.1
24905	15.65	3.2727	0.1	1873.9
24906	15.742	3.3636	0.1	1851.3
24907	15.467	3.2727	0.1	1919.5
24908	15.559	3.3636	0.1	1896.8
24909	15.283	3.2727	0.1	1965.2
24910	15.375	3.3636	0.1	1942.4
24911	15.1	3.2727	0.1	2011.1
24912	15.192	3.3636	0.1	1988.2
24913	14.916	3.2727	0.1	2057.1
24914	15.008	3.3636	0.1	2034.2
24915	14.733	3.2727	0.1	2103.4
24916	14.825	3.3636	0.1	2080.3
24917	14.549	3.2727	0.1	2149.8
24918	14.641	3.3636	0.1	2126.7
24919	14.366	3.2727	0.1	2196.5
24920	14.458	3.3636	0.1	2173.2
24921	14.182	3.2727	0.1	2243.3
24922	14.274	3.3636	0.1	2220.
24923	13.999	3.2727	0.1	2290.3
24924	14.091	3.3636	0.1	2266.9
24925	13.815	3.2727	0.1	2337.4
24926	13.907	3.3636	0.1	2314.
24927	13.632	3.2727	0.1	2384.8
24928	13.724	3.3636	0.1	2361.2
24929	13.448	3.2727	0.1	2432.4
24930	13.54	3.3636	0.1	2408.7
24931	13.265	3.2727	0.1	2480.1
24932	13.356	3.3636	0.1	2456.4
24933	13.081	3.2727	0.1	2528.1
24934	13.173	3.3636	0.1	2504.2
24935	12.898	3.2727	0.1	2576.2
24936	12.989	3.3636	0.1	2552.3
24937	12.714	3.2727	0.1	2624.6
24938	12.806	3.3636	0.1	2600.6
24939	12.531	3.2727	0.1	2673.3
24940	12.622	3.3636	0.1	2649.1
24941	12.347	3.2727	0.1	2722.2
24942	12.439	3.3636	0.1	2697.9
24943	12.164	3.2727	0.1	2771.4
24944	12.255	3.3636	0.1	2746.9
24945	11.98	3.2727	0.1	2821.
24946	12.072	3.3636	0.1	2796.3
24947	11.797	3.2727	0.1	2871.
24948	11.888	3.3636	0.1	2846.1
24949	11.613	3.2727	0.1	2921.5
24950	11.705	3.3636	0.1	2896.3
24951	11.43	3.2727	0.1	2972.7
24952	11.521	3.3636	0.1	2947.1
24953	11.246	3.2727	0.1	3024.5
24954	11.338	3.3636	0.1	2998.5
24955	11.063	3.2727	0.1	3077.4
24956	11.154	3.3636	0.1	3050.8
24957	10.879	3.2727	0.1	3131.4
24958	10.971	3.3636	0.1	3104.
24959	10.696	3.2727	0.1	3186.9
24960	10.787	3.3636	0.1	3158.5
24961	10.512	3.2727	0.1	3244.2
24962	10.604	3.3636	0.1	3214.7
24963	10.329	3.2727	0.1	3303.9
24964	10.42	3.3636	0.1	3272.8
24965	10.145	3.2727	0.1	3366.7
24966	10.237	3.3636	0.1	3333.6
24967	9.9616	3.2727	0.1	3433.4
24968	10.053	3.3636	0.1	3397.6
24969	9.7781	3.2727	0.1	3505.
24970	9.8698	3.3636	0.1	3465.8
24971	9.5946	3.2727	0.1	3582.9
24972	9.6863	3.3636	0.1	3539.3
24973	9.4111	3.2727	0.1	3669.
24974	9.5028	3.3636	0.1	3619.8
24975	9.2275	3.2727	0.1	3765.5
24976	9.3193	3.3636	0.1	3709.
24977	9.044	3.2727	0.1	3875.4
24978	9.1358	3.3636	0.1	3809.4
24979	8.8605	3.2727	0.1	4002.5
24980	8.9523	3.3636	0.1	3924.3
24981	8.677	3.2727	0.1	4151.9
24982	8.7688	3.3636	0.1	4057.8
24983	8.4935	3.2727	0.1	4329.9
24984	8.5853	3.3636	0.1	4215.3
24985	8.31	3.2727	0.1	4545.
24986	8.4018	3.3636	0.1	4403.7
24987	8.1265	3.2727	0.1	4808.
24988	8.2182	3.3636	0.1	4632.3
24989	7.943	3.2727	0.1	5133.
24990	8.0347	3.3636	0.1	4913.
24991	7.7595	3.2727	0.1	5537.6
24992	7.8512	3.3636	0.1	5261.5
24993	7.576	3.2727	0.1	6043.
24994	7.6677	3.3636	0.1	5698.5
24995	7.3925	3.2727	0.1	6671.5
24996	7.4842	3.3636	0.1	6249.9
24997	7.2089	3.2727	0.1	7436.7
24998	7.3007	3.3636	0.1	6946.1
24999	7.0254	3.2727	0.1	8318.9
25000	7.1172	3.3636	0.1	7813.
25001	6.8419	3.2727	0.1	9217.6
25002	6.9337	3.3636	0.1	8839.5
25003	6.7502	3.3636	0.1	9874.8
25004	6.6584	3.2727	0.1	9923.1
25005	23.725	3.4545	0.1	58.938
25006	23.816	3.5455	0.1	39.597
25007	23.908	3.4545	0.1	22.271
25008	23.541	3.4545	0.1	97.757
25009	23.633	3.5455	0.1	78.35
25010	23.358	3.4545	0.1	136.46
25011	23.449	3.5455	0.1	117.1
25012	23.174	3.4545	0.1	175.02
25013	23.266	3.5455	0.1	155.68
25014	22.991	3.4545	0.1	213.48
25015	23.082	3.5455	0.1	194.15
25016	22.807	3.4545	0.1	251.88
25017	22.899	3.5455	0.1	232.55
25018	22.624	3.4545	0.1	290.26
25019	22.715	3.5455	0.1	270.91
25020	22.44	3.4545	0.1	328.67
25021	22.532	3.5455	0.1	309.29
25022	22.257	3.4545	0.1	367.14
25023	22.348	3.5455	0.1	347.71
25024	22.073	3.4545	0.1	405.69
25025	22.165	3.5455	0.1	386.21
25026	21.89	3.4545	0.1	444.35
25027	21.981	3.5455	0.1	424.82
25028	21.706	3.4545	0.1	483.16
25029	21.798	3.5455	0.1	463.56
25030	21.523	3.4545	0.1	522.11
25031	21.614	3.5455	0.1	502.44
25032	21.339	3.4545	0.1	561.24
25033	21.431	3.5455	0.1	541.49
25034	21.156	3.4545	0.1	600.54
25035	21.247	3.5455	0.1	580.72
25036	20.972	3.4545	0.1	640.03
25037	21.064	3.5455	0.1	620.13
25038	20.789	3.4545	0.1	679.72
25039	20.88	3.5455	0.1	659.73
25040	20.605	3.4545	0.1	719.6
25041	20.697	3.5455	0.1	699.53
25042	20.422	3.4545	0.1	759.69
25043	20.513	3.5455	0.1	739.54
25044	20.238	3.4545	0.1	799.99
25045	20.33	3.5455	0.1	779.75
25046	20.055	3.4545	0.1	840.49
25047	20.146	3.5455	0.1	820.16
25048	19.871	3.4545	0.1	881.2
25049	19.963	3.5455	0.1	860.78
25050	19.688	3.4545	0.1	922.13
25051	19.779	3.5455	0.1	901.61
25052	19.504	3.4545	0.1	963.26
25053	19.596	3.5455	0.1	942.65
25054	19.321	3.4545	0.1	1004.6
25055	19.412	3.5455	0.1	983.9
25056	19.137	3.4545	0.1	1046.2
25057	19.229	3.5455	0.1	1025.4
25058	18.954	3.4545	0.1	1087.9
25059	19.045	3.5455	0.1	1067.
25060	18.77	3.4545	0.1	1129.9
25061	18.862	3.5455	0.1	1108.9
25062	18.586	3.4545	0.1	1172.1
25063	18.678	3.5455	0.1	1151.
25064	18.403	3.4545	0.1	1214.4
25065	18.495	3.5455	0.1	1193.3
25066	18.219	3.4545	0.1	1257.
25067	18.311	3.5455	0.1	1235.8
25068	18.036	3.4545	0.1	1299.8
25069	18.128	3.5455	0.1	1278.5
25070	17.852	3.4545	0.1	1342.8
25071	17.944	3.5455	0.1	1321.4
25072	17.669	3.4545	0.1	1386.
25073	17.761	3.5455	0.1	1364.5
25074	17.485	3.4545	0.1	1429.4
25075	17.577	3.5455	0.1	1407.8
25076	17.302	3.4545	0.1	1473.
25077	17.394	3.5455	0.1	1451.3
25078	17.118	3.4545	0.1	1516.8
25079	17.21	3.5455	0.1	1495.
25080	16.935	3.4545	0.1	1560.8
25081	17.027	3.5455	0.1	1538.9
25082	16.751	3.4545	0.1	1605.
25083	16.843	3.5455	0.1	1583.
25084	16.568	3.4545	0.1	1649.4
25085	16.66	3.5455	0.1	1627.2
25086	16.384	3.4545	0.1	1693.9
25087	16.476	3.5455	0.1	1671.7
25088	16.201	3.4545	0.1	1738.7
25089	16.293	3.5455	0.1	1716.4
25090	16.017	3.4545	0.1	1783.7
25091	16.109	3.5455	0.1	1761.3
25092	15.834	3.4545	0.1	1828.8
25093	15.926	3.5455	0.1	1806.3
25094	15.65	3.4545	0.1	1874.2
25095	15.742	3.5455	0.1	1851.6
25096	15.467	3.4545	0.1	1919.7
25097	15.559	3.5455	0.1	1897.
25098	15.283	3.4545	0.1	1965.4
25099	15.375	3.5455	0.1	1942.7
25100	15.1	3.4545	0.1	2011.3
25101	15.192	3.5455	0.1	1988.5
25102	14.916	3.4545	0.1	2057.4
25103	15.008	3.5455	0.1	2034.5
25104	14.733	3.4545	0.1	2103.7
25105	14.825	3.5455	0.1	2080.7
25106	14.549	3.4545	0.1	2150.1
25107	14.641	3.5455	0.1	2127.1
25108	14.366	3.4545	0.1	2196.8
25109	14.458	3.5455	0.1	2173.6
25110	14.182	3.4545	0.1	2243.6
25111	14.274	3.5455	0.1	2220.3
25112	13.999	3.4545	0.1	2290.6
25113	14.091	3.5455	0.1	2267.3
25114	13.815	3.4545	0.1	2337.8
25115	13.907	3.5455	0.1	2314.4
25116	13.632	3.4545	0.1	2385.2
25117	13.724	3.5455	0.1	2361.7
25118	13.448	3.4545	0.1	2432.7
25119	13.54	3.5455	0.1	2409.2
25120	13.265	3.4545	0.1	2480.5
25121	13.356	3.5455	0.1	2456.8
25122	13.081	3.4545	0.1	2528.5
25123	13.173	3.5455	0.1	2504.7
25124	12.898	3.4545	0.1	2576.6
25125	12.989	3.5455	0.1	2552.8
25126	12.714	3.4545	0.1	2625.
25127	12.806	3.5455	0.1	2601.1
25128	12.531	3.4545	0.1	2673.7
25129	12.622	3.5455	0.1	2649.6
25130	12.347	3.4545	0.1	2722.6
25131	12.439	3.5455	0.1	2698.4
25132	12.164	3.4545	0.1	2771.8
25133	12.255	3.5455	0.1	2747.5
25134	11.98	3.4545	0.1	2821.4
25135	12.072	3.5455	0.1	2796.8
25136	11.797	3.4545	0.1	2871.4
25137	11.888	3.5455	0.1	2846.6
25138	11.613	3.4545	0.1	2921.9
25139	11.705	3.5455	0.1	2896.8
25140	11.43	3.4545	0.1	2972.9
25141	11.521	3.5455	0.1	2947.5
25142	11.246	3.4545	0.1	3024.7
25143	11.338	3.5455	0.1	2998.8
25144	11.063	3.4545	0.1	3077.4
25145	11.154	3.5455	0.1	3050.9
25146	10.879	3.4545	0.1	3131.2
25147	10.971	3.5455	0.1	3103.9
25148	10.696	3.4545	0.1	3186.3
25149	10.787	3.5455	0.1	3158.1
25150	10.512	3.4545	0.1	3243.3
25151	10.604	3.5455	0.1	3213.8
25152	10.329	3.4545	0.1	3302.4
25153	10.42	3.5455	0.1	3271.4
25154	10.145	3.4545	0.1	3364.4
25155	10.237	3.5455	0.1	3331.3
25156	9.9616	3.4545	0.1	3430.
25157	10.053	3.5455	0.1	3394.2
25158	9.7781	3.4545	0.1	3500.2
25159	9.8698	3.5455	0.1	3460.9
25160	9.5946	3.4545	0.1	3576.2
25161	9.6863	3.5455	0.1	3532.5
25162	9.4111	3.4545	0.1	3659.8
25163	9.5028	3.5455	0.1	3610.2
25164	9.2275	3.4545	0.1	3752.9
25165	9.3193	3.5455	0.1	3695.9
25166	9.044	3.4545	0.1	3858.4
25167	9.1358	3.5455	0.1	3791.7
25168	8.8605	3.4545	0.1	3979.7
25169	8.9523	3.5455	0.1	3900.5
25170	8.677	3.4545	0.1	4121.3
25171	8.7688	3.5455	0.1	4025.9
25172	8.4935	3.4545	0.1	4289.2
25173	8.5853	3.5455	0.1	4172.8
25174	8.31	3.4545	0.1	4491.2
25175	8.4018	3.5455	0.1	4347.4
25176	8.1265	3.4545	0.1	4737.6
25177	8.2182	3.5455	0.1	4558.1
25178	7.943	3.4545	0.1	5042.2
25179	8.0347	3.5455	0.1	4816.2
25180	7.7595	3.4545	0.1	5423.8
25181	7.8512	3.5455	0.1	5137.2
25182	7.576	3.4545	0.1	5908.2
25183	7.6677	3.5455	0.1	5543.
25184	7.3925	3.4545	0.1	6529.9
25185	7.4842	3.5455	0.1	6065.5
25186	7.2089	3.4545	0.1	7331.9
25187	7.3007	3.5455	0.1	6752.3
25188	7.0254	3.4545	0.1	8346.8
25189	7.1172	3.5455	0.1	7674.3
25190	6.8419	3.4545	0.1	9506.6
25191	6.9337	3.5455	0.1	8920.4
25192	6.7502	3.5455	0.1	10482
25193	6.6584	3.4545	0.1	10513
25194	23.725	3.6364	0.1	58.931
25195	23.816	3.7273	0.1	39.626
25196	23.908	3.6364	0.1	22.291
25197	23.541	3.6364	0.1	97.684
25198	23.633	3.7273	0.1	78.299
25199	23.358	3.6364	0.1	136.33
25200	23.449	3.7273	0.1	116.97
25201	23.174	3.6364	0.1	174.83
25202	23.266	3.7273	0.1	155.48
25203	22.991	3.6364	0.1	213.24
25204	23.082	3.7273	0.1	193.89
25205	22.807	3.6364	0.1	251.6
25206	22.899	3.7273	0.1	232.23
25207	22.624	3.6364	0.1	289.95
25208	22.715	3.7273	0.1	270.56
25209	22.44	3.6364	0.1	328.35
25210	22.532	3.7273	0.1	308.91
25211	22.257	3.6364	0.1	366.81
25212	22.348	3.7273	0.1	347.32
25213	22.073	3.6364	0.1	405.36
25214	22.165	3.7273	0.1	385.83
25215	21.89	3.6364	0.1	444.05
25216	21.981	3.7273	0.1	424.45
25217	21.706	3.6364	0.1	482.87
25218	21.798	3.7273	0.1	463.21
25219	21.523	3.6364	0.1	521.85
25220	21.614	3.7273	0.1	502.13
25221	21.339	3.6364	0.1	561.01
25222	21.431	3.7273	0.1	541.21
25223	21.156	3.6364	0.1	600.34
25224	21.247	3.7273	0.1	580.47
25225	20.972	3.6364	0.1	639.87
25226	21.064	3.7273	0.1	619.92
25227	20.789	3.6364	0.1	679.58
25228	20.88	3.7273	0.1	659.57
25229	20.605	3.6364	0.1	719.5
25230	20.697	3.7273	0.1	699.41
25231	20.422	3.6364	0.1	759.63
25232	20.513	3.7273	0.1	739.45
25233	20.238	3.6364	0.1	799.95
25234	20.33	3.7273	0.1	779.69
25235	20.055	3.6364	0.1	840.49
25236	20.146	3.7273	0.1	820.14
25237	19.871	3.6364	0.1	881.23
25238	19.963	3.7273	0.1	860.8
25239	19.688	3.6364	0.1	922.17
25240	19.779	3.7273	0.1	901.66
25241	19.504	3.6364	0.1	963.33
25242	19.596	3.7273	0.1	942.73
25243	19.321	3.6364	0.1	1004.7
25244	19.412	3.7273	0.1	984.
25245	19.137	3.6364	0.1	1046.3
25246	19.229	3.7273	0.1	1025.5
25247	18.954	3.6364	0.1	1088.
25248	19.045	3.7273	0.1	1067.2
25249	18.77	3.6364	0.1	1130.
25250	18.862	3.7273	0.1	1109.1
25251	18.586	3.6364	0.1	1172.2
25252	18.678	3.7273	0.1	1151.2
25253	18.403	3.6364	0.1	1214.6
25254	18.495	3.7273	0.1	1193.5
25255	18.219	3.6364	0.1	1257.2
25256	18.311	3.7273	0.1	1236.
25257	18.036	3.6364	0.1	1300.
25258	18.128	3.7273	0.1	1278.7
25259	17.852	3.6364	0.1	1343.
25260	17.944	3.7273	0.1	1321.6
25261	17.669	3.6364	0.1	1386.2
25262	17.761	3.7273	0.1	1364.7
25263	17.485	3.6364	0.1	1429.6
25264	17.577	3.7273	0.1	1408.
25265	17.302	3.6364	0.1	1473.3
25266	17.394	3.7273	0.1	1451.6
25267	17.118	3.6364	0.1	1517.1
25268	17.21	3.7273	0.1	1495.3
25269	16.935	3.6364	0.1	1561.1
25270	17.027	3.7273	0.1	1539.2
25271	16.751	3.6364	0.1	1605.3
25272	16.843	3.7273	0.1	1583.3
25273	16.568	3.6364	0.1	1649.6
25274	16.66	3.7273	0.1	1627.6
25275	16.384	3.6364	0.1	1694.2
25276	16.476	3.7273	0.1	1672.1
25277	16.201	3.6364	0.1	1739.
25278	16.293	3.7273	0.1	1716.8
25279	16.017	3.6364	0.1	1784.
25280	16.109	3.7273	0.1	1761.6
25281	15.834	3.6364	0.1	1829.1
25282	15.926	3.7273	0.1	1806.7
25283	15.65	3.6364	0.1	1874.5
25284	15.742	3.7273	0.1	1852.
25285	15.467	3.6364	0.1	1920.
25286	15.559	3.7273	0.1	1897.4
25287	15.283	3.6364	0.1	1965.8
25288	15.375	3.7273	0.1	1943.1
25289	15.1	3.6364	0.1	2011.7
25290	15.192	3.7273	0.1	1988.9
25291	14.916	3.6364	0.1	2057.8
25292	15.008	3.7273	0.1	2034.9
25293	14.733	3.6364	0.1	2104.1
25294	14.825	3.7273	0.1	2081.1
25295	14.549	3.6364	0.1	2150.6
25296	14.641	3.7273	0.1	2127.5
25297	14.366	3.6364	0.1	2197.2
25298	14.458	3.7273	0.1	2174.1
25299	14.182	3.6364	0.1	2244.
25300	14.274	3.7273	0.1	2220.9
25301	13.999	3.6364	0.1	2291.1
25302	14.091	3.7273	0.1	2267.8
25303	13.815	3.6364	0.1	2338.3
25304	13.907	3.7273	0.1	2314.9
25305	13.632	3.6364	0.1	2385.7
25306	13.724	3.7273	0.1	2362.3
25307	13.448	3.6364	0.1	2433.3
25308	13.54	3.7273	0.1	2409.8
25309	13.265	3.6364	0.1	2481.1
25310	13.356	3.7273	0.1	2457.5
25311	13.081	3.6364	0.1	2529.
25312	13.173	3.7273	0.1	2505.4
25313	12.898	3.6364	0.1	2577.2
25314	12.989	3.7273	0.1	2553.5
25315	12.714	3.6364	0.1	2625.7
25316	12.806	3.7273	0.1	2601.8
25317	12.531	3.6364	0.1	2674.3
25318	12.622	3.7273	0.1	2650.3
25319	12.347	3.6364	0.1	2723.3
25320	12.439	3.7273	0.1	2699.1
25321	12.164	3.6364	0.1	2772.5
25322	12.255	3.7273	0.1	2748.2
25323	11.98	3.6364	0.1	2822.
25324	12.072	3.7273	0.1	2797.6
25325	11.797	3.6364	0.1	2872.
25326	11.888	3.7273	0.1	2847.3
25327	11.613	3.6364	0.1	2922.4
25328	11.705	3.7273	0.1	2897.4
25329	11.43	3.6364	0.1	2973.4
25330	11.521	3.7273	0.1	2948.
25331	11.246	3.6364	0.1	3025.
25332	11.338	3.7273	0.1	2999.2
25333	11.063	3.6364	0.1	3077.4
25334	11.154	3.7273	0.1	3051.1
25335	10.879	3.6364	0.1	3130.9
25336	10.971	3.7273	0.1	3103.8
25337	10.696	3.6364	0.1	3185.6
25338	10.787	3.7273	0.1	3157.6
25339	10.512	3.6364	0.1	3241.9
25340	10.604	3.7273	0.1	3212.6
25341	10.329	3.6364	0.1	3300.2
25342	10.42	3.7273	0.1	3269.4
25343	10.145	3.6364	0.1	3361.
25344	10.237	3.7273	0.1	3328.2
25345	9.9616	3.6364	0.1	3425.1
25346	10.053	3.7273	0.1	3389.6
25347	9.7781	3.6364	0.1	3493.2
25348	9.8698	3.7273	0.1	3454.3
25349	9.5946	3.6364	0.1	3566.5
25350	9.6863	3.7273	0.1	3523.2
25351	9.4111	3.6364	0.1	3646.4
25352	9.5028	3.7273	0.1	3597.4
25353	9.2275	3.6364	0.1	3734.8
25354	9.3193	3.7273	0.1	3678.4
25355	9.044	3.6364	0.1	3833.9
25356	9.1358	3.7273	0.1	3768.1
25357	8.8605	3.6364	0.1	3946.8
25358	8.9523	3.7273	0.1	3868.7
25359	8.677	3.6364	0.1	4077.4
25360	8.7688	3.7273	0.1	3983.4
25361	8.4935	3.6364	0.1	4231.
25362	8.5853	3.7273	0.1	4116.3
25363	8.31	3.6364	0.1	4414.3
25364	8.4018	3.7273	0.1	4272.7
25365	8.1265	3.6364	0.1	4636.7
25366	8.2182	3.7273	0.1	4459.9
25367	7.943	3.6364	0.1	4911.3
25368	8.0347	3.7273	0.1	4687.8
25369	7.7595	3.6364	0.1	5256.8
25370	7.8512	3.7273	0.1	4970.8
25371	7.576	3.6364	0.1	5701.8
25372	7.6677	3.7273	0.1	5330.4
25373	7.3925	3.6364	0.1	6291.6
25374	7.4842	3.7273	0.1	5800.6
25375	7.2089	3.6364	0.1	7103.4
25376	7.3007	3.7273	0.1	6439.2
25377	7.0254	3.6364	0.1	8265.7
25378	7.1172	3.7273	0.1	7354.7
25379	6.8419	3.6364	0.1	9914.9
25380	6.9337	3.7273	0.1	8776.4
25381	6.7502	3.7273	0.1	11151
25382	6.6584	3.6364	0.1	11611
25383	23.725	3.8182	0.1	58.917
25384	23.816	3.9091	0.1	39.659
25385	23.908	3.8182	0.1	22.316
25386	23.541	3.8182	0.1	97.579
25387	23.633	3.9091	0.1	78.225
25388	23.358	3.8182	0.1	136.14
25389	23.449	3.9091	0.1	116.8
25390	23.174	3.8182	0.1	174.56
25391	23.266	3.9091	0.1	155.21
25392	22.991	3.8182	0.1	212.9
25393	23.082	3.9091	0.1	193.54
25394	22.807	3.8182	0.1	251.21
25395	22.899	3.9091	0.1	231.82
25396	22.624	3.8182	0.1	289.54
25397	22.715	3.9091	0.1	270.1
25398	22.44	3.8182	0.1	327.91
25399	22.532	3.9091	0.1	308.42
25400	22.257	3.8182	0.1	366.37
25401	22.348	3.9091	0.1	346.83
25402	22.073	3.8182	0.1	404.94
25403	22.165	3.9091	0.1	385.34
25404	21.89	3.8182	0.1	443.64
25405	21.981	3.9091	0.1	423.98
25406	21.706	3.8182	0.1	482.5
25407	21.798	3.9091	0.1	462.78
25408	21.523	3.8182	0.1	521.52
25409	21.614	3.9091	0.1	501.74
25410	21.339	3.8182	0.1	560.71
25411	21.431	3.9091	0.1	540.87
25412	21.156	3.8182	0.1	600.09
25413	21.247	3.9091	0.1	580.18
25414	20.972	3.8182	0.1	639.66
25415	21.064	3.9091	0.1	619.68
25416	20.789	3.8182	0.1	679.42
25417	20.88	3.9091	0.1	659.37
25418	20.605	3.8182	0.1	719.39
25419	20.697	3.9091	0.1	699.26
25420	20.422	3.8182	0.1	759.55
25421	20.513	3.9091	0.1	739.35
25422	20.238	3.8182	0.1	799.92
25423	20.33	3.9091	0.1	779.64
25424	20.055	3.8182	0.1	840.49
25425	20.146	3.9091	0.1	820.14
25426	19.871	3.8182	0.1	881.27
25427	19.963	3.9091	0.1	860.83
25428	19.688	3.8182	0.1	922.25
25429	19.779	3.9091	0.1	901.73
25430	19.504	3.8182	0.1	963.44
25431	19.596	3.9091	0.1	942.84
25432	19.321	3.8182	0.1	1004.8
25433	19.412	3.9091	0.1	984.15
25434	19.137	3.8182	0.1	1046.4
25435	19.229	3.9091	0.1	1025.7
25436	18.954	3.8182	0.1	1088.2
25437	19.045	3.9091	0.1	1067.4
25438	18.77	3.8182	0.1	1130.2
25439	18.862	3.9091	0.1	1109.3
25440	18.586	3.8182	0.1	1172.5
25441	18.678	3.9091	0.1	1151.4
25442	18.403	3.8182	0.1	1214.9
25443	18.495	3.9091	0.1	1193.7
25444	18.219	3.8182	0.1	1257.5
25445	18.311	3.9091	0.1	1236.3
25446	18.036	3.8182	0.1	1300.3
25447	18.128	3.9091	0.1	1279.
25448	17.852	3.8182	0.1	1343.3
25449	17.944	3.9091	0.1	1321.9
25450	17.669	3.8182	0.1	1386.6
25451	17.761	3.9091	0.1	1365.1
25452	17.485	3.8182	0.1	1430.
25453	17.577	3.9091	0.1	1408.4
25454	17.302	3.8182	0.1	1473.6
25455	17.394	3.9091	0.1	1451.9
25456	17.118	3.8182	0.1	1517.4
25457	17.21	3.9091	0.1	1495.7
25458	16.935	3.8182	0.1	1561.4
25459	17.027	3.9091	0.1	1539.6
25460	16.751	3.8182	0.1	1605.6
25461	16.843	3.9091	0.1	1583.7
25462	16.568	3.8182	0.1	1650.
25463	16.66	3.9091	0.1	1628.
25464	16.384	3.8182	0.1	1694.6
25465	16.476	3.9091	0.1	1672.5
25466	16.201	3.8182	0.1	1739.4
25467	16.293	3.9091	0.1	1717.2
25468	16.017	3.8182	0.1	1784.4
25469	16.109	3.9091	0.1	1762.1
25470	15.834	3.8182	0.1	1829.6
25471	15.926	3.9091	0.1	1807.2
25472	15.65	3.8182	0.1	1875.
25473	15.742	3.9091	0.1	1852.5
25474	15.467	3.8182	0.1	1920.5
25475	15.559	3.9091	0.1	1898.
25476	15.283	3.8182	0.1	1966.3
25477	15.375	3.9091	0.1	1943.6
25478	15.1	3.8182	0.1	2012.2
25479	15.192	3.9091	0.1	1989.5
25480	14.916	3.8182	0.1	2058.3
25481	15.008	3.9091	0.1	2035.5
25482	14.733	3.8182	0.1	2104.6
25483	14.825	3.9091	0.1	2081.7
25484	14.549	3.8182	0.1	2151.1
25485	14.641	3.9091	0.1	2128.1
25486	14.366	3.8182	0.1	2197.8
25487	14.458	3.9091	0.1	2174.7
25488	14.182	3.8182	0.1	2244.7
25489	14.274	3.9091	0.1	2221.5
25490	13.999	3.8182	0.1	2291.7
25491	14.091	3.9091	0.1	2268.5
25492	13.815	3.8182	0.1	2338.9
25493	13.907	3.9091	0.1	2315.7
25494	13.632	3.8182	0.1	2386.4
25495	13.724	3.9091	0.1	2363.
25496	13.448	3.8182	0.1	2434.
25497	13.54	3.9091	0.1	2410.5
25498	13.265	3.8182	0.1	2481.8
25499	13.356	3.9091	0.1	2458.3
25500	13.081	3.8182	0.1	2529.8
25501	13.173	3.9091	0.1	2506.2
25502	12.898	3.8182	0.1	2578.
25503	12.989	3.9091	0.1	2554.3
25504	12.714	3.8182	0.1	2626.5
25505	12.806	3.9091	0.1	2602.7
25506	12.531	3.8182	0.1	2675.2
25507	12.622	3.9091	0.1	2651.3
25508	12.347	3.8182	0.1	2724.1
25509	12.439	3.9091	0.1	2700.1
25510	12.164	3.8182	0.1	2773.3
25511	12.255	3.9091	0.1	2749.1
25512	11.98	3.8182	0.1	2822.9
25513	12.072	3.9091	0.1	2798.5
25514	11.797	3.8182	0.1	2872.8
25515	11.888	3.9091	0.1	2848.2
25516	11.613	3.8182	0.1	2923.1
25517	11.705	3.9091	0.1	2898.2
25518	11.43	3.8182	0.1	2973.9
25519	11.521	3.9091	0.1	2948.7
25520	11.246	3.8182	0.1	3025.3
25521	11.338	3.9091	0.1	2999.7
25522	11.063	3.8182	0.1	3077.5
25523	11.154	3.9091	0.1	3051.3
25524	10.879	3.8182	0.1	3130.5
25525	10.971	3.9091	0.1	3103.6
25526	10.696	3.8182	0.1	3184.6
25527	10.787	3.9091	0.1	3156.9
25528	10.512	3.8182	0.1	3240.1
25529	10.604	3.9091	0.1	3211.2
25530	10.329	3.8182	0.1	3297.3
25531	10.42	3.9091	0.1	3266.9
25532	10.145	3.8182	0.1	3356.7
25533	10.237	3.9091	0.1	3324.4
25534	9.9616	3.8182	0.1	3418.8
25535	10.053	3.9091	0.1	3383.9
25536	9.7781	3.8182	0.1	3484.3
25537	9.8698	3.9091	0.1	3446.2
25538	9.5946	3.8182	0.1	3554.1
25539	9.6863	3.9091	0.1	3511.9
25540	9.4111	3.8182	0.1	3629.5
25541	9.5028	3.9091	0.1	3581.8
25542	9.2275	3.8182	0.1	3711.7
25543	9.3193	3.9091	0.1	3657.1
25544	9.044	3.8182	0.1	3802.9
25545	9.1358	3.9091	0.1	3739.3
25546	8.8605	3.8182	0.1	3905.3
25547	8.9523	3.9091	0.1	3830.2
25548	8.677	3.8182	0.1	4022.3
25549	8.7688	3.9091	0.1	3932.2
25550	8.4935	3.8182	0.1	4158.
25551	8.5853	3.9091	0.1	4048.5
25552	8.31	3.8182	0.1	4318.2
25553	8.4018	3.9091	0.1	4183.4
25554	8.1265	3.8182	0.1	4510.7
25555	8.2182	3.9091	0.1	4342.5
25556	7.943	3.8182	0.1	4746.9
25557	8.0347	3.9091	0.1	4534.3
25558	7.7595	3.8182	0.1	5043.8
25559	7.8512	3.9091	0.1	4770.7
25560	7.576	3.8182	0.1	5428.8
25561	7.6677	3.9091	0.1	5070.4
25562	7.3925	3.8182	0.1	5949.
25563	7.4842	3.9091	0.1	5464.1
25564	7.2089	3.8182	0.1	6695.3
25565	7.3007	3.9091	0.1	6006.3
25566	7.0254	3.8182	0.1	7884.2
25567	7.1172	3.9091	0.1	6810.3
25568	6.8419	3.8182	0.1	10061
25569	6.9337	3.9091	0.1	8127.5
25570	6.7502	3.9091	0.1	11234
25571	6.6584	3.8182	0.1	13448
25572	23.725	4.	0.1	58.892
25573	23.816	4.0909	0.1	39.694
25574	23.908	4.	0.1	22.345
25575	23.541	4.	0.1	97.436
25576	23.633	4.0909	0.1	78.121
25577	23.358	4.	0.1	135.88
25578	23.449	4.0909	0.1	116.56
25579	23.174	4.	0.1	174.21
25580	23.266	4.0909	0.1	154.86
25581	22.991	4.	0.1	212.47
25582	23.082	4.0909	0.1	193.09
25583	22.807	4.	0.1	250.72
25584	22.899	4.0909	0.1	231.29
25585	22.624	4.	0.1	289.
25586	22.715	4.0909	0.1	269.52
25587	22.44	4.	0.1	327.36
25588	22.532	4.0909	0.1	307.82
25589	22.257	4.	0.1	365.82
25590	22.348	4.0909	0.1	346.22
25591	22.073	4.	0.1	404.41
25592	22.165	4.0909	0.1	384.75
25593	21.89	4.	0.1	443.15
25594	21.981	4.0909	0.1	423.43
25595	21.706	4.	0.1	482.05
25596	21.798	4.0909	0.1	462.27
25597	21.523	4.	0.1	521.12
25598	21.614	4.0909	0.1	501.28
25599	21.339	4.	0.1	560.37
25600	21.431	4.0909	0.1	540.47
25601	21.156	4.	0.1	599.8
25602	21.247	4.0909	0.1	579.84
25603	20.972	4.	0.1	639.43
25604	21.064	4.0909	0.1	619.41
25605	20.789	4.	0.1	679.25
25606	20.88	4.0909	0.1	659.16
25607	20.605	4.	0.1	719.26
25608	20.697	4.0909	0.1	699.12
25609	20.422	4.	0.1	759.48
25610	20.513	4.0909	0.1	739.26
25611	20.238	4.	0.1	799.9
25612	20.33	4.0909	0.1	779.61
25613	20.055	4.	0.1	840.52
25614	20.146	4.0909	0.1	820.16
25615	19.871	4.	0.1	881.34
25616	19.963	4.0909	0.1	860.9
25617	19.688	4.	0.1	922.36
25618	19.779	4.0909	0.1	901.85
25619	19.504	4.	0.1	963.59
25620	19.596	4.0909	0.1	942.99
25621	19.321	4.	0.1	1005.
25622	19.412	4.0909	0.1	984.34
25623	19.137	4.	0.1	1046.6
25624	19.229	4.0909	0.1	1025.9
25625	18.954	4.	0.1	1088.5
25626	19.045	4.0909	0.1	1067.6
25627	18.77	4.	0.1	1130.5
25628	18.862	4.0909	0.1	1109.6
25629	18.586	4.	0.1	1172.8
25630	18.678	4.0909	0.1	1151.7
25631	18.403	4.	0.1	1215.2
25632	18.495	4.0909	0.1	1194.1
25633	18.219	4.	0.1	1257.8
25634	18.311	4.0909	0.1	1236.6
25635	18.036	4.	0.1	1300.7
25636	18.128	4.0909	0.1	1279.4
25637	17.852	4.	0.1	1343.7
25638	17.944	4.0909	0.1	1322.4
25639	17.669	4.	0.1	1387.
25640	17.761	4.0909	0.1	1365.5
25641	17.485	4.	0.1	1430.4
25642	17.577	4.0909	0.1	1408.9
25643	17.302	4.	0.1	1474.
25644	17.394	4.0909	0.1	1452.4
25645	17.118	4.	0.1	1517.9
25646	17.21	4.0909	0.1	1496.1
25647	16.935	4.	0.1	1561.9
25648	17.027	4.0909	0.1	1540.1
25649	16.751	4.	0.1	1606.1
25650	16.843	4.0909	0.1	1584.2
25651	16.568	4.	0.1	1650.5
25652	16.66	4.0909	0.1	1628.5
25653	16.384	4.	0.1	1695.1
25654	16.476	4.0909	0.1	1673.1
25655	16.201	4.	0.1	1739.9
25656	16.293	4.0909	0.1	1717.8
25657	16.017	4.	0.1	1784.9
25658	16.109	4.0909	0.1	1762.7
25659	15.834	4.	0.1	1830.1
25660	15.926	4.0909	0.1	1807.8
25661	15.65	4.	0.1	1875.5
25662	15.742	4.0909	0.1	1853.1
25663	15.467	4.	0.1	1921.1
25664	15.559	4.0909	0.1	1898.6
25665	15.283	4.	0.1	1966.9
25666	15.375	4.0909	0.1	1944.3
25667	15.1	4.	0.1	2012.8
25668	15.192	4.0909	0.1	1990.2
25669	14.916	4.	0.1	2059.
25670	15.008	4.0909	0.1	2036.2
25671	14.733	4.	0.1	2105.3
25672	14.825	4.0909	0.1	2082.5
25673	14.549	4.	0.1	2151.8
25674	14.641	4.0909	0.1	2128.9
25675	14.366	4.	0.1	2198.5
25676	14.458	4.0909	0.1	2175.5
25677	14.182	4.	0.1	2245.4
25678	14.274	4.0909	0.1	2222.3
25679	13.999	4.	0.1	2292.5
25680	14.091	4.0909	0.1	2269.3
25681	13.815	4.	0.1	2339.8
25682	13.907	4.0909	0.1	2316.5
25683	13.632	4.	0.1	2387.2
25684	13.724	4.0909	0.1	2363.9
25685	13.448	4.	0.1	2434.9
25686	13.54	4.0909	0.1	2411.5
25687	13.265	4.	0.1	2482.7
25688	13.356	4.0909	0.1	2459.3
25689	13.081	4.	0.1	2530.8
25690	13.173	4.0909	0.1	2507.2
25691	12.898	4.	0.1	2579.
25692	12.989	4.0909	0.1	2555.4
25693	12.714	4.	0.1	2627.5
25694	12.806	4.0909	0.1	2603.8
25695	12.531	4.	0.1	2676.2
25696	12.622	4.0909	0.1	2652.4
25697	12.347	4.	0.1	2725.1
25698	12.439	4.0909	0.1	2701.2
25699	12.164	4.	0.1	2774.3
25700	12.255	4.0909	0.1	2750.3
25701	11.98	4.	0.1	2823.8
25702	12.072	4.0909	0.1	2799.6
25703	11.797	4.	0.1	2873.7
25704	11.888	4.0909	0.1	2849.2
25705	11.613	4.	0.1	2923.9
25706	11.705	4.0909	0.1	2899.2
25707	11.43	4.	0.1	2974.6
25708	11.521	4.0909	0.1	2949.5
25709	11.246	4.	0.1	3025.7
25710	11.338	4.0909	0.1	3000.3
25711	11.063	4.	0.1	3077.5
25712	11.154	4.0909	0.1	3051.6
25713	10.879	4.	0.1	3130.
25714	10.971	4.0909	0.1	3103.5
25715	10.696	4.	0.1	3183.5
25716	10.787	4.0909	0.1	3156.1
25717	10.512	4.	0.1	3238.
25718	10.604	4.0909	0.1	3209.6
25719	10.329	4.	0.1	3293.9
25720	10.42	4.0909	0.1	3264.1
25721	10.145	4.	0.1	3351.6
25722	10.237	4.0909	0.1	3319.9
25723	9.9616	4.	0.1	3411.3
25724	10.053	4.0909	0.1	3377.4
25725	9.7781	4.	0.1	3473.8
25726	9.8698	4.0909	0.1	3436.9
25727	9.5946	4.	0.1	3539.5
25728	9.6863	4.0909	0.1	3498.8
25729	9.4111	4.	0.1	3609.5
25730	9.5028	4.0909	0.1	3563.9
25731	9.2275	4.	0.1	3684.7
25732	9.3193	4.0909	0.1	3632.8
25733	9.044	4.	0.1	3766.6
25734	9.1358	4.0909	0.1	3706.6
25735	8.8605	4.	0.1	3857.1
25736	8.9523	4.0909	0.1	3786.6
25737	8.677	4.	0.1	3958.3
25738	8.7688	4.0909	0.1	3874.4
25739	8.4935	4.	0.1	4073.7
25740	8.5853	4.0909	0.1	3972.2
25741	8.31	4.	0.1	4207.4
25742	8.4018	4.0909	0.1	4083.1
25743	8.1265	4.	0.1	4365.5
25744	8.2182	4.0909	0.1	4211.2
25745	7.943	4.	0.1	4557.1
25746	8.0347	4.0909	0.1	4362.7
25747	7.7595	4.	0.1	4795.7
25748	7.8512	4.0909	0.1	4546.5
25749	7.576	4.	0.1	5103.6
25750	7.6677	4.0909	0.1	4776.8
25751	7.3925	4.	0.1	5519.3
25752	7.4842	4.0909	0.1	5076.3
25753	7.2089	4.	0.1	6120.7
25754	7.3007	4.0909	0.1	5484.8
25755	7.0254	4.	0.1	7062.1
25756	7.1172	4.0909	0.1	6081.7
25757	6.8419	4.	0.1	9382.5
25758	6.9337	4.0909	0.1	7020.1
25759	6.7502	4.0909	0.1	9487.
25760	6.6584	4.	0.1	16701
25761	23.725	4.1818	0.1	58.85
25762	23.816	4.2727	0.1	39.725
25763	23.908	4.1818	0.1	22.375
25764	23.541	4.1818	0.1	97.244
25765	23.633	4.2727	0.1	77.977
25766	23.358	4.1818	0.1	135.55
25767	23.449	4.2727	0.1	116.26
25768	23.174	4.1818	0.1	173.76
25769	23.266	4.2727	0.1	154.41
25770	22.991	4.1818	0.1	211.92
25771	23.082	4.2727	0.1	192.52
25772	22.807	4.1818	0.1	250.11
25773	22.899	4.2727	0.1	230.64
25774	22.624	4.1818	0.1	288.36
25775	22.715	4.2727	0.1	268.82
25776	22.44	4.1818	0.1	326.7
25777	22.532	4.2727	0.1	307.1
25778	22.257	4.1818	0.1	365.18
25779	22.348	4.2727	0.1	345.51
25780	22.073	4.1818	0.1	403.8
25781	22.165	4.2727	0.1	384.08
25782	21.89	4.1818	0.1	442.58
25783	21.981	4.2727	0.1	422.8
25784	21.706	4.1818	0.1	481.54
25785	21.798	4.2727	0.1	461.7
25786	21.523	4.1818	0.1	520.67
25787	21.614	4.2727	0.1	500.78
25788	21.339	4.1818	0.1	559.99
25789	21.431	4.2727	0.1	540.05
25790	21.156	4.1818	0.1	599.49
25791	21.247	4.2727	0.1	579.49
25792	20.972	4.1818	0.1	639.18
25793	21.064	4.2727	0.1	619.13
25794	20.789	4.1818	0.1	679.07
25795	20.88	4.2727	0.1	658.96
25796	20.605	4.1818	0.1	719.15
25797	20.697	4.2727	0.1	698.98
25798	20.422	4.1818	0.1	759.43
25799	20.513	4.2727	0.1	739.2
25800	20.238	4.1818	0.1	799.91
25801	20.33	4.2727	0.1	779.61
25802	20.055	4.1818	0.1	840.58
25803	20.146	4.2727	0.1	820.21
25804	19.871	4.1818	0.1	881.45
25805	19.963	4.2727	0.1	861.02
25806	19.688	4.1818	0.1	922.52
25807	19.779	4.2727	0.1	902.01
25808	19.504	4.1818	0.1	963.79
25809	19.596	4.2727	0.1	943.21
25810	19.321	4.1818	0.1	1005.3
25811	19.412	4.2727	0.1	984.6
25812	19.137	4.1818	0.1	1046.9
25813	19.229	4.2727	0.1	1026.2
25814	18.954	4.1818	0.1	1088.8
25815	19.045	4.2727	0.1	1068.
25816	18.77	4.1818	0.1	1130.9
25817	18.862	4.2727	0.1	1110.
25818	18.586	4.1818	0.1	1173.1
25819	18.678	4.2727	0.1	1152.1
25820	18.403	4.1818	0.1	1215.6
25821	18.495	4.2727	0.1	1194.5
25822	18.219	4.1818	0.1	1258.3
25823	18.311	4.2727	0.1	1237.1
25824	18.036	4.1818	0.1	1301.1
25825	18.128	4.2727	0.1	1279.9
25826	17.852	4.1818	0.1	1344.2
25827	17.944	4.2727	0.1	1322.9
25828	17.669	4.1818	0.1	1387.4
25829	17.761	4.2727	0.1	1366.
25830	17.485	4.1818	0.1	1430.9
25831	17.577	4.2727	0.1	1409.4
25832	17.302	4.1818	0.1	1474.5
25833	17.394	4.2727	0.1	1453.
25834	17.118	4.1818	0.1	1518.4
25835	17.21	4.2727	0.1	1496.7
25836	16.935	4.1818	0.1	1562.4
25837	17.027	4.2727	0.1	1540.7
25838	16.751	4.1818	0.1	1606.7
25839	16.843	4.2727	0.1	1584.8
25840	16.568	4.1818	0.1	1651.1
25841	16.66	4.2727	0.1	1629.2
25842	16.384	4.1818	0.1	1695.8
25843	16.476	4.2727	0.1	1673.7
25844	16.201	4.1818	0.1	1740.6
25845	16.293	4.2727	0.1	1718.5
25846	16.017	4.1818	0.1	1785.6
25847	16.109	4.2727	0.1	1763.4
25848	15.834	4.1818	0.1	1830.8
25849	15.926	4.2727	0.1	1808.5
25850	15.65	4.1818	0.1	1876.2
25851	15.742	4.2727	0.1	1853.8
25852	15.467	4.1818	0.1	1921.8
25853	15.559	4.2727	0.1	1899.3
25854	15.283	4.1818	0.1	1967.6
25855	15.375	4.2727	0.1	1945.1
25856	15.1	4.1818	0.1	2013.6
25857	15.192	4.2727	0.1	1990.9
25858	14.916	4.1818	0.1	2059.7
25859	15.008	4.2727	0.1	2037.
25860	14.733	4.1818	0.1	2106.1
25861	14.825	4.2727	0.1	2083.3
25862	14.549	4.1818	0.1	2152.6
25863	14.641	4.2727	0.1	2129.8
25864	14.366	4.1818	0.1	2199.4
25865	14.458	4.2727	0.1	2176.4
25866	14.182	4.1818	0.1	2246.3
25867	14.274	4.2727	0.1	2223.3
25868	13.999	4.1818	0.1	2293.4
25869	14.091	4.2727	0.1	2270.3
25870	13.815	4.1818	0.1	2340.7
25871	13.907	4.2727	0.1	2317.6
25872	13.632	4.1818	0.1	2388.2
25873	13.724	4.2727	0.1	2365.
25874	13.448	4.1818	0.1	2435.9
25875	13.54	4.2727	0.1	2412.6
25876	13.265	4.1818	0.1	2483.8
25877	13.356	4.2727	0.1	2460.4
25878	13.081	4.1818	0.1	2531.9
25879	13.173	4.2727	0.1	2508.4
25880	12.898	4.1818	0.1	2580.2
25881	12.989	4.2727	0.1	2556.6
25882	12.714	4.1818	0.1	2628.7
25883	12.806	4.2727	0.1	2605.
25884	12.531	4.1818	0.1	2677.4
25885	12.622	4.2727	0.1	2653.6
25886	12.347	4.1818	0.1	2726.3
25887	12.439	4.2727	0.1	2702.5
25888	12.164	4.1818	0.1	2775.5
25889	12.255	4.2727	0.1	2751.6
25890	11.98	4.1818	0.1	2825.
25891	12.072	4.2727	0.1	2800.9
25892	11.797	4.1818	0.1	2874.8
25893	11.888	4.2727	0.1	2850.5
25894	11.613	4.1818	0.1	2924.9
25895	11.705	4.2727	0.1	2900.3
25896	11.43	4.1818	0.1	2975.3
25897	11.521	4.2727	0.1	2950.5
25898	11.246	4.1818	0.1	3026.2
25899	11.338	4.2727	0.1	3001.
25900	11.063	4.1818	0.1	3077.6
25901	11.154	4.2727	0.1	3051.9
25902	10.879	4.1818	0.1	3129.5
25903	10.971	4.2727	0.1	3103.3
25904	10.696	4.1818	0.1	3182.2
25905	10.787	4.2727	0.1	3155.2
25906	10.512	4.1818	0.1	3235.6
25907	10.604	4.2727	0.1	3207.7
25908	10.329	4.1818	0.1	3290.1
25909	10.42	4.2727	0.1	3261.
25910	10.145	4.1818	0.1	3345.8
25911	10.237	4.2727	0.1	3315.1
25912	9.9616	4.1818	0.1	3402.9
25913	10.053	4.2727	0.1	3370.2
25914	9.7781	4.1818	0.1	3461.9
25915	9.8698	4.2727	0.1	3426.6
25916	9.5946	4.1818	0.1	3523.2
25917	9.6863	4.2727	0.1	3484.5
25918	9.4111	4.1818	0.1	3587.2
25919	9.5028	4.2727	0.1	3544.2
25920	9.2275	4.1818	0.1	3654.7
25921	9.3193	4.2727	0.1	3606.2
25922	9.044	4.1818	0.1	3726.5
25923	9.1358	4.2727	0.1	3671.
25924	8.8605	4.1818	0.1	3803.8
25925	8.9523	4.2727	0.1	3739.3
25926	8.677	4.1818	0.1	3888.
25927	8.7688	4.2727	0.1	3811.9
25928	8.4935	4.1818	0.1	3981.3
25929	8.5853	4.2727	0.1	3890.2
25930	8.31	4.1818	0.1	4086.4
25931	8.4018	4.2727	0.1	3975.7
25932	8.1265	4.1818	0.1	4207.5
25933	8.2182	4.2727	0.1	4071.1
25934	7.943	4.1818	0.1	4350.6
25935	8.0347	4.2727	0.1	4180.
25936	7.7595	4.1818	0.1	4525.1
25937	7.8512	4.2727	0.1	4308.2
25938	7.576	4.1818	0.1	4745.8
25939	7.6677	4.2727	0.1	4464.3
25940	7.3925	4.1818	0.1	5036.9
25941	7.4842	4.2727	0.1	4661.8
25942	7.2089	4.1818	0.1	5439.8
25943	7.3007	4.2727	0.1	4921.8
25944	7.0254	4.1818	0.1	6037.7
25945	7.1172	4.2727	0.1	5275.2
25946	6.8419	4.1818	0.1	7148.1
25947	6.9337	4.2727	0.1	5778.3
25948	6.7502	4.2727	0.1	6704.9
25949	6.6584	4.1818	0.1	6142.2
25950	23.725	4.3636	0.1	58.783
25951	23.816	4.4545	0.1	39.747
25952	23.908	4.3636	0.1	22.404
25953	23.541	4.3636	0.1	96.989
25954	23.633	4.4545	0.1	77.779
25955	23.358	4.3636	0.1	135.13
25956	23.449	4.4545	0.1	115.86
25957	23.174	4.3636	0.1	173.19
25958	23.266	4.4545	0.1	153.85
25959	22.991	4.3636	0.1	211.25
25960	23.082	4.4545	0.1	191.82
25961	22.807	4.3636	0.1	249.37
25962	22.899	4.4545	0.1	229.86
25963	22.624	4.3636	0.1	287.59
25964	22.715	4.4545	0.1	267.99
25965	22.44	4.3636	0.1	325.94
25966	22.532	4.4545	0.1	306.27
25967	22.257	4.3636	0.1	364.44
25968	22.348	4.4545	0.1	344.72
25969	22.073	4.3636	0.1	403.11
25970	22.165	4.4545	0.1	383.33
25971	21.89	4.3636	0.1	441.96
25972	21.981	4.4545	0.1	422.12
25973	21.706	4.3636	0.1	480.99
25974	21.798	4.4545	0.1	461.1
25975	21.523	4.3636	0.1	520.2
25976	21.614	4.4545	0.1	500.27
25977	21.339	4.3636	0.1	559.59
25978	21.431	4.4545	0.1	539.62
25979	21.156	4.3636	0.1	599.18
25980	21.247	4.4545	0.1	579.15
25981	20.972	4.3636	0.1	638.95
25982	21.064	4.4545	0.1	618.88
25983	20.789	4.3636	0.1	678.92
25984	20.88	4.4545	0.1	658.79
25985	20.605	4.3636	0.1	719.07
25986	20.697	4.4545	0.1	698.89
25987	20.422	4.3636	0.1	759.42
25988	20.513	4.4545	0.1	739.18
25989	20.238	4.3636	0.1	799.96
25990	20.33	4.4545	0.1	779.66
25991	20.055	4.3636	0.1	840.69
25992	20.146	4.4545	0.1	820.33
25993	19.871	4.3636	0.1	881.62
25994	19.963	4.4545	0.1	861.19
25995	19.688	4.3636	0.1	922.74
25996	19.779	4.4545	0.1	902.25
25997	19.504	4.3636	0.1	964.06
25998	19.596	4.4545	0.1	943.49
25999	19.321	4.3636	0.1	1005.6
26000	19.412	4.4545	0.1	984.93
26001	19.137	4.3636	0.1	1047.3
26002	19.229	4.4545	0.1	1026.6
26003	18.954	4.3636	0.1	1089.2
26004	19.045	4.4545	0.1	1068.4
26005	18.77	4.3636	0.1	1131.3
26006	18.862	4.4545	0.1	1110.4
26007	18.586	4.3636	0.1	1173.6
26008	18.678	4.4545	0.1	1152.6
26009	18.403	4.3636	0.1	1216.1
26010	18.495	4.4545	0.1	1195.
26011	18.219	4.3636	0.1	1258.8
26012	18.311	4.4545	0.1	1237.7
26013	18.036	4.3636	0.1	1301.7
26014	18.128	4.4545	0.1	1280.5
26015	17.852	4.3636	0.1	1344.7
26016	17.944	4.4545	0.1	1323.5
26017	17.669	4.3636	0.1	1388.
26018	17.761	4.4545	0.1	1366.6
26019	17.485	4.3636	0.1	1431.5
26020	17.577	4.4545	0.1	1410.
26021	17.302	4.3636	0.1	1475.2
26022	17.394	4.4545	0.1	1453.6
26023	17.118	4.3636	0.1	1519.
26024	17.21	4.4545	0.1	1497.4
26025	16.935	4.3636	0.1	1563.1
26026	17.027	4.4545	0.1	1541.4
26027	16.751	4.3636	0.1	1607.4
26028	16.843	4.4545	0.1	1585.6
26029	16.568	4.3636	0.1	1651.8
26030	16.66	4.4545	0.1	1629.9
26031	16.384	4.3636	0.1	1696.5
26032	16.476	4.4545	0.1	1674.5
26033	16.201	4.3636	0.1	1741.3
26034	16.293	4.4545	0.1	1719.2
26035	16.017	4.3636	0.1	1786.3
26036	16.109	4.4545	0.1	1764.2
26037	15.834	4.3636	0.1	1831.6
26038	15.926	4.4545	0.1	1809.3
26039	15.65	4.3636	0.1	1877.
26040	15.742	4.4545	0.1	1854.7
26041	15.467	4.3636	0.1	1922.6
26042	15.559	4.4545	0.1	1900.2
26043	15.283	4.3636	0.1	1968.4
26044	15.375	4.4545	0.1	1945.9
26045	15.1	4.3636	0.1	2014.4
26046	15.192	4.4545	0.1	1991.9
26047	14.916	4.3636	0.1	2060.6
26048	15.008	4.4545	0.1	2038.
26049	14.733	4.3636	0.1	2107.
26050	14.825	4.4545	0.1	2084.3
26051	14.549	4.3636	0.1	2153.6
26052	14.641	4.4545	0.1	2130.8
26053	14.366	4.3636	0.1	2200.4
26054	14.458	4.4545	0.1	2177.5
26055	14.182	4.3636	0.1	2247.3
26056	14.274	4.4545	0.1	2224.4
26057	13.999	4.3636	0.1	2294.5
26058	14.091	4.4545	0.1	2271.4
26059	13.815	4.3636	0.1	2341.8
26060	13.907	4.4545	0.1	2318.7
26061	13.632	4.3636	0.1	2389.4
26062	13.724	4.4545	0.1	2366.2
26063	13.448	4.3636	0.1	2437.1
26064	13.54	4.4545	0.1	2413.8
26065	13.265	4.3636	0.1	2485.
26066	13.356	4.4545	0.1	2461.7
26067	13.081	4.3636	0.1	2533.2
26068	13.173	4.4545	0.1	2509.7
26069	12.898	4.3636	0.1	2581.5
26070	12.989	4.4545	0.1	2558.
26071	12.714	4.3636	0.1	2630.
26072	12.806	4.4545	0.1	2606.4
26073	12.531	4.3636	0.1	2678.8
26074	12.622	4.4545	0.1	2655.1
26075	12.347	4.3636	0.1	2727.7
26076	12.439	4.4545	0.1	2703.9
26077	12.164	4.3636	0.1	2776.9
26078	12.255	4.4545	0.1	2753.
26079	11.98	4.3636	0.1	2826.3
26080	12.072	4.4545	0.1	2802.3
26081	11.797	4.3636	0.1	2876.
26082	11.888	4.4545	0.1	2851.8
26083	11.613	4.3636	0.1	2926.
26084	11.705	4.4545	0.1	2901.6
26085	11.43	4.3636	0.1	2976.2
26086	11.521	4.4545	0.1	2951.6
26087	11.246	4.3636	0.1	3026.8
26088	11.338	4.4545	0.1	3001.8
26089	11.063	4.3636	0.1	3077.7
26090	11.154	4.4545	0.1	3052.3
26091	10.879	4.3636	0.1	3129.
26092	10.971	4.4545	0.1	3103.2
26093	10.696	4.3636	0.1	3180.8
26094	10.787	4.4545	0.1	3154.3
26095	10.512	4.3636	0.1	3233.1
26096	10.604	4.4545	0.1	3205.8
26097	10.329	4.3636	0.1	3285.9
26098	10.42	4.4545	0.1	3257.6
26099	10.145	4.3636	0.1	3339.5
26100	10.237	4.4545	0.1	3309.9
26101	9.9616	4.3636	0.1	3393.9
26102	10.053	4.4545	0.1	3362.6
26103	9.7781	4.3636	0.1	3449.2
26104	9.8698	4.4545	0.1	3415.7
26105	9.5946	4.3636	0.1	3505.6
26106	9.6863	4.4545	0.1	3469.4
26107	9.4111	4.3636	0.1	3563.3
26108	9.5028	4.4545	0.1	3523.6
26109	9.2275	4.3636	0.1	3622.6
26110	9.3193	4.4545	0.1	3578.4
26111	9.044	4.3636	0.1	3683.8
26112	9.1358	4.4545	0.1	3633.8
26113	8.8605	4.3636	0.1	3747.3
26114	8.9523	4.4545	0.1	3690.
26115	8.677	4.3636	0.1	3813.9
26116	8.7688	4.4545	0.1	3747.1
26117	8.4935	4.3636	0.1	3884.2
26118	8.5853	4.4545	0.1	3805.3
26119	8.31	4.3636	0.1	3959.8
26120	8.4018	4.4545	0.1	3865.1
26121	8.1265	4.3636	0.1	4042.5
26122	8.2182	4.4545	0.1	3927.2
26123	7.943	4.3636	0.1	4135.7
26124	8.0347	4.4545	0.1	3993.2
26125	7.7595	4.3636	0.1	4244.1
26126	7.8512	4.4545	0.1	4065.3
26127	7.576	4.3636	0.1	4375.2
26128	7.6677	4.4545	0.1	4147.2
26129	7.3925	4.3636	0.1	4539.
26130	7.4842	4.4545	0.1	4244.4
26131	7.2089	4.3636	0.1	4745.7
26132	7.3007	4.4545	0.1	4362.7
26133	7.0254	4.3636	0.1	4993.2
26134	7.1172	4.4545	0.1	4504.5
26135	6.8419	4.3636	0.1	5257.9
26136	6.9337	4.4545	0.1	4646.6
26137	6.7502	4.4545	0.1	4857.6
26138	6.6584	4.3636	0.1	4365.9
26139	23.725	4.5455	0.1	58.678
26140	23.816	4.6364	0.1	39.749
26141	23.908	4.5455	0.1	22.426
26142	23.541	4.5455	0.1	96.651
26143	23.633	4.6364	0.1	77.504
26144	23.358	4.5455	0.1	134.59
26145	23.449	4.6364	0.1	115.35
26146	23.174	4.5455	0.1	172.5
26147	23.266	4.6364	0.1	153.14
26148	22.991	4.5455	0.1	210.45
26149	23.082	4.6364	0.1	190.98
26150	22.807	4.5455	0.1	248.51
26151	22.899	4.6364	0.1	228.94
26152	22.624	4.5455	0.1	286.71
26153	22.715	4.6364	0.1	267.05
26154	22.44	4.5455	0.1	325.08
26155	22.532	4.6364	0.1	305.35
26156	22.257	4.5455	0.1	363.64
26157	22.348	4.6364	0.1	343.85
26158	22.073	4.5455	0.1	402.38
26159	22.165	4.6364	0.1	382.54
26160	21.89	4.5455	0.1	441.31
26161	21.981	4.6364	0.1	421.42
26162	21.706	4.5455	0.1	480.42
26163	21.798	4.6364	0.1	460.5
26164	21.523	4.5455	0.1	519.73
26165	21.614	4.6364	0.1	499.76
26166	21.339	4.5455	0.1	559.22
26167	21.431	4.6364	0.1	539.22
26168	21.156	4.5455	0.1	598.9
26169	21.247	4.6364	0.1	578.85
26170	20.972	4.5455	0.1	638.76
26171	21.064	4.6364	0.1	618.67
26172	20.789	4.5455	0.1	678.81
26173	20.88	4.6364	0.1	658.68
26174	20.605	4.5455	0.1	719.05
26175	20.697	4.6364	0.1	698.87
26176	20.422	4.5455	0.1	759.47
26177	20.513	4.6364	0.1	739.24
26178	20.238	4.5455	0.1	800.08
26179	20.33	4.6364	0.1	779.79
26180	20.055	4.5455	0.1	840.88
26181	20.146	4.6364	0.1	820.53
26182	19.871	4.5455	0.1	881.86
26183	19.963	4.6364	0.1	861.46
26184	19.688	4.5455	0.1	923.04
26185	19.779	4.6364	0.1	902.57
26186	19.504	4.5455	0.1	964.41
26187	19.596	4.6364	0.1	943.87
26188	19.321	4.5455	0.1	1006.
26189	19.412	4.6364	0.1	985.36
26190	19.137	4.5455	0.1	1047.7
26191	19.229	4.6364	0.1	1027.
26192	18.954	4.5455	0.1	1089.7
26193	19.045	4.6364	0.1	1068.9
26194	18.77	4.5455	0.1	1131.8
26195	18.862	4.6364	0.1	1111.
26196	18.586	4.5455	0.1	1174.1
26197	18.678	4.6364	0.1	1153.2
26198	18.403	4.5455	0.1	1216.7
26199	18.495	4.6364	0.1	1195.7
26200	18.219	4.5455	0.1	1259.4
26201	18.311	4.6364	0.1	1238.3
26202	18.036	4.5455	0.1	1302.3
26203	18.128	4.6364	0.1	1281.1
26204	17.852	4.5455	0.1	1345.4
26205	17.944	4.6364	0.1	1324.2
26206	17.669	4.5455	0.1	1388.7
26207	17.761	4.6364	0.1	1367.4
26208	17.485	4.5455	0.1	1432.2
26209	17.577	4.6364	0.1	1410.8
26210	17.302	4.5455	0.1	1475.9
26211	17.394	4.6364	0.1	1454.4
26212	17.118	4.5455	0.1	1519.8
26213	17.21	4.6364	0.1	1498.2
26214	16.935	4.5455	0.1	1563.9
26215	17.027	4.6364	0.1	1542.2
26216	16.751	4.5455	0.1	1608.1
26217	16.843	4.6364	0.1	1586.4
26218	16.568	4.5455	0.1	1652.6
26219	16.66	4.6364	0.1	1630.8
26220	16.384	4.5455	0.1	1697.3
26221	16.476	4.6364	0.1	1675.3
26222	16.201	4.5455	0.1	1742.2
26223	16.293	4.6364	0.1	1720.1
26224	16.017	4.5455	0.1	1787.2
26225	16.109	4.6364	0.1	1765.1
26226	15.834	4.5455	0.1	1832.5
26227	15.926	4.6364	0.1	1810.3
26228	15.65	4.5455	0.1	1877.9
26229	15.742	4.6364	0.1	1855.6
26230	15.467	4.5455	0.1	1923.6
26231	15.559	4.6364	0.1	1901.2
26232	15.283	4.5455	0.1	1969.4
26233	15.375	4.6364	0.1	1946.9
26234	15.1	4.5455	0.1	2015.4
26235	15.192	4.6364	0.1	1992.9
26236	14.916	4.5455	0.1	2061.7
26237	15.008	4.6364	0.1	2039.
26238	14.733	4.5455	0.1	2108.1
26239	14.825	4.6364	0.1	2085.4
26240	14.549	4.5455	0.1	2154.7
26241	14.641	4.6364	0.1	2131.9
26242	14.366	4.5455	0.1	2201.5
26243	14.458	4.6364	0.1	2178.6
26244	14.182	4.5455	0.1	2248.5
26245	14.274	4.6364	0.1	2225.6
26246	13.999	4.5455	0.1	2295.7
26247	14.091	4.6364	0.1	2272.7
26248	13.815	4.5455	0.1	2343.1
26249	13.907	4.6364	0.1	2320.
26250	13.632	4.5455	0.1	2390.7
26251	13.724	4.6364	0.1	2367.5
26252	13.448	4.5455	0.1	2438.4
26253	13.54	4.6364	0.1	2415.2
26254	13.265	4.5455	0.1	2486.4
26255	13.356	4.6364	0.1	2463.1
26256	13.081	4.5455	0.1	2534.6
26257	13.173	4.6364	0.1	2511.2
26258	12.898	4.5455	0.1	2582.9
26259	12.989	4.6364	0.1	2559.5
26260	12.714	4.5455	0.1	2631.5
26261	12.806	4.6364	0.1	2608.
26262	12.531	4.5455	0.1	2680.3
26263	12.622	4.6364	0.1	2656.7
26264	12.347	4.5455	0.1	2729.2
26265	12.439	4.6364	0.1	2705.5
26266	12.164	4.5455	0.1	2778.4
26267	12.255	4.6364	0.1	2754.6
26268	11.98	4.5455	0.1	2827.8
26269	12.072	4.6364	0.1	2803.9
26270	11.797	4.5455	0.1	2877.4
26271	11.888	4.6364	0.1	2853.3
26272	11.613	4.5455	0.1	2927.2
26273	11.705	4.6364	0.1	2902.9
26274	11.43	4.5455	0.1	2977.2
26275	11.521	4.6364	0.1	2952.7
26276	11.246	4.5455	0.1	3027.4
26277	11.338	4.6364	0.1	3002.7
26278	11.063	4.5455	0.1	3077.8
26279	11.154	4.6364	0.1	3052.8
26280	10.879	4.5455	0.1	3128.5
26281	10.971	4.6364	0.1	3103.1
26282	10.696	4.5455	0.1	3179.3
26283	10.787	4.6364	0.1	3153.4
26284	10.512	4.5455	0.1	3230.4
26285	10.604	4.6364	0.1	3203.8
26286	10.329	4.5455	0.1	3281.6
26287	10.42	4.6364	0.1	3254.3
26288	10.145	4.5455	0.1	3333.
26289	10.237	4.6364	0.1	3304.6
26290	9.9616	4.5455	0.1	3384.4
26291	10.053	4.6364	0.1	3354.8
26292	9.7781	4.5455	0.1	3435.9
26293	9.8698	4.6364	0.1	3404.6
26294	9.5946	4.5455	0.1	3487.4
26295	9.6863	4.6364	0.1	3453.9
26296	9.4111	4.5455	0.1	3538.6
26297	9.5028	4.6364	0.1	3502.5
26298	9.2275	4.5455	0.1	3589.6
26299	9.3193	4.6364	0.1	3550.1
26300	9.044	4.5455	0.1	3640.
26301	9.1358	4.6364	0.1	3596.2
26302	8.8605	4.5455	0.1	3689.7
26303	8.9523	4.6364	0.1	3640.3
26304	8.677	4.5455	0.1	3738.3
26305	8.7688	4.6364	0.1	3682.
26306	8.4935	4.5455	0.1	3785.7
26307	8.5853	4.6364	0.1	3720.4
26308	8.31	4.5455	0.1	3831.8
26309	8.4018	4.6364	0.1	3754.8
26310	8.1265	4.5455	0.1	3876.5
26311	8.2182	4.6364	0.1	3784.5
26312	7.943	4.5455	0.1	3920.4
26313	8.0347	4.6364	0.1	3808.7
26314	7.7595	4.5455	0.1	3964.5
26315	7.8512	4.6364	0.1	3826.9
26316	7.576	4.5455	0.1	4010.
26317	7.6677	4.6364	0.1	3839.
26318	7.3925	4.5455	0.1	4057.5
26319	7.4842	4.6364	0.1	3844.8
26320	7.2089	4.5455	0.1	4103.6
26321	7.3007	4.6364	0.1	3842.5
26322	7.0254	4.5455	0.1	4125.1
26323	7.1172	4.6364	0.1	3826.5
26324	6.8419	4.5455	0.1	4154.
26325	6.9337	4.6364	0.1	3775.
26326	6.7502	4.6364	0.1	3796.5
26327	6.6584	4.5455	0.1	3394.
26328	23.725	4.7273	0.1	58.516
26329	23.816	4.8182	0.1	39.715
26330	23.908	4.7273	0.1	22.435
26331	23.541	4.7273	0.1	96.203
26332	23.633	4.8182	0.1	77.123
26333	23.358	4.7273	0.1	133.91
26334	23.449	4.8182	0.1	114.68
26335	23.174	4.7273	0.1	171.64
26336	23.266	4.8182	0.1	152.26
26337	22.991	4.7273	0.1	209.5
26338	23.082	4.8182	0.1	189.97
26339	22.807	4.7273	0.1	247.52
26340	22.899	4.8182	0.1	227.88
26341	22.624	4.7273	0.1	285.74
26342	22.715	4.8182	0.1	266.01
26343	22.44	4.7273	0.1	324.16
26344	22.532	4.8182	0.1	304.37
26345	22.257	4.7273	0.1	362.79
26346	22.348	4.8182	0.1	342.95
26347	22.073	4.7273	0.1	401.63
26348	22.165	4.8182	0.1	381.74
26349	21.89	4.7273	0.1	440.66
26350	21.981	4.8182	0.1	420.74
26351	21.706	4.7273	0.1	479.89
26352	21.798	4.8182	0.1	459.94
26353	21.523	4.7273	0.1	519.3
26354	21.614	4.8182	0.1	499.32
26355	21.339	4.7273	0.1	558.9
26356	21.431	4.8182	0.1	538.88
26357	21.156	4.7273	0.1	598.68
26358	21.247	4.8182	0.1	578.63
26359	20.972	4.7273	0.1	638.64
26360	21.064	4.8182	0.1	618.56
26361	20.789	4.7273	0.1	678.78
26362	20.88	4.8182	0.1	658.66
26363	20.605	4.7273	0.1	719.1
26364	20.697	4.8182	0.1	698.94
26365	20.422	4.7273	0.1	759.61
26366	20.513	4.8182	0.1	739.39
26367	20.238	4.7273	0.1	800.29
26368	20.33	4.8182	0.1	780.03
26369	20.055	4.7273	0.1	841.16
26370	20.146	4.8182	0.1	820.84
26371	19.871	4.7273	0.1	882.21
26372	19.963	4.8182	0.1	861.83
26373	19.688	4.7273	0.1	923.44
26374	19.779	4.8182	0.1	903.
26375	19.504	4.7273	0.1	964.86
26376	19.596	4.8182	0.1	944.36
26377	19.321	4.7273	0.1	1006.5
26378	19.412	4.8182	0.1	985.9
26379	19.137	4.7273	0.1	1048.3
26380	19.229	4.8182	0.1	1027.6
26381	18.954	4.7273	0.1	1090.2
26382	19.045	4.8182	0.1	1069.5
26383	18.77	4.7273	0.1	1132.4
26384	18.862	4.8182	0.1	1111.6
26385	18.586	4.7273	0.1	1174.8
26386	18.678	4.8182	0.1	1153.9
26387	18.403	4.7273	0.1	1217.3
26388	18.495	4.8182	0.1	1196.4
26389	18.219	4.7273	0.1	1260.1
26390	18.311	4.8182	0.1	1239.1
26391	18.036	4.7273	0.1	1303.
26392	18.128	4.8182	0.1	1281.9
26393	17.852	4.7273	0.1	1346.2
26394	17.944	4.8182	0.1	1325.
26395	17.669	4.7273	0.1	1389.5
26396	17.761	4.8182	0.1	1368.2
26397	17.485	4.7273	0.1	1433.
26398	17.577	4.8182	0.1	1411.6
26399	17.302	4.7273	0.1	1476.7
26400	17.394	4.8182	0.1	1455.3
26401	17.118	4.7273	0.1	1520.6
26402	17.21	4.8182	0.1	1499.1
26403	16.935	4.7273	0.1	1564.7
26404	17.027	4.8182	0.1	1543.1
26405	16.751	4.7273	0.1	1609.
26406	16.843	4.8182	0.1	1587.3
26407	16.568	4.7273	0.1	1653.5
26408	16.66	4.8182	0.1	1631.7
26409	16.384	4.7273	0.1	1698.2
26410	16.476	4.8182	0.1	1676.3
26411	16.201	4.7273	0.1	1743.1
26412	16.293	4.8182	0.1	1721.1
26413	16.017	4.7273	0.1	1788.2
26414	16.109	4.8182	0.1	1766.1
26415	15.834	4.7273	0.1	1833.5
26416	15.926	4.8182	0.1	1811.3
26417	15.65	4.7273	0.1	1878.9
26418	15.742	4.8182	0.1	1856.7
26419	15.467	4.7273	0.1	1924.6
26420	15.559	4.8182	0.1	1902.3
26421	15.283	4.7273	0.1	1970.5
26422	15.375	4.8182	0.1	1948.1
26423	15.1	4.7273	0.1	2016.5
26424	15.192	4.8182	0.1	1994.
26425	14.916	4.7273	0.1	2062.8
26426	15.008	4.8182	0.1	2040.2
26427	14.733	4.7273	0.1	2109.2
26428	14.825	4.8182	0.1	2086.6
26429	14.549	4.7273	0.1	2155.9
26430	14.641	4.8182	0.1	2133.2
26431	14.366	4.7273	0.1	2202.7
26432	14.458	4.8182	0.1	2179.9
26433	14.182	4.7273	0.1	2249.8
26434	14.274	4.8182	0.1	2226.9
26435	13.999	4.7273	0.1	2297.
26436	14.091	4.8182	0.1	2274.1
26437	13.815	4.7273	0.1	2344.5
26438	13.907	4.8182	0.1	2321.4
26439	13.632	4.7273	0.1	2392.1
26440	13.724	4.8182	0.1	2369.
26441	13.448	4.7273	0.1	2439.9
26442	13.54	4.8182	0.1	2416.7
26443	13.265	4.7273	0.1	2487.9
26444	13.356	4.8182	0.1	2464.7
26445	13.081	4.7273	0.1	2536.1
26446	13.173	4.8182	0.1	2512.8
26447	12.898	4.7273	0.1	2584.6
26448	12.989	4.8182	0.1	2561.2
26449	12.714	4.7273	0.1	2633.2
26450	12.806	4.8182	0.1	2609.7
26451	12.531	4.7273	0.1	2681.9
26452	12.622	4.8182	0.1	2658.4
26453	12.347	4.7273	0.1	2730.9
26454	12.439	4.8182	0.1	2707.3
26455	12.164	4.7273	0.1	2780.1
26456	12.255	4.8182	0.1	2756.3
26457	11.98	4.7273	0.1	2829.4
26458	12.072	4.8182	0.1	2805.6
26459	11.797	4.7273	0.1	2878.9
26460	11.888	4.8182	0.1	2854.9
26461	11.613	4.7273	0.1	2928.5
26462	11.705	4.8182	0.1	2904.4
26463	11.43	4.7273	0.1	2978.3
26464	11.521	4.8182	0.1	2954.
26465	11.246	4.7273	0.1	3028.1
26466	11.338	4.8182	0.1	3003.7
26467	11.063	4.7273	0.1	3078.1
26468	11.154	4.8182	0.1	3053.4
26469	10.879	4.7273	0.1	3128.
26470	10.971	4.8182	0.1	3103.1
26471	10.696	4.7273	0.1	3178.
26472	10.787	4.8182	0.1	3152.6
26473	10.512	4.7273	0.1	3227.7
26474	10.604	4.8182	0.1	3202.
26475	10.329	4.7273	0.1	3277.3
26476	10.42	4.8182	0.1	3251.
26477	10.145	4.7273	0.1	3326.4
26478	10.237	4.8182	0.1	3299.4
26479	9.9616	4.7273	0.1	3374.9
26480	10.053	4.8182	0.1	3347.
26481	9.7781	4.7273	0.1	3422.6
26482	9.8698	4.8182	0.1	3393.6
26483	9.5946	4.7273	0.1	3469.1
26484	9.6863	4.8182	0.1	3438.7
26485	9.4111	4.7273	0.1	3514.
26486	9.5028	4.8182	0.1	3481.8
26487	9.2275	4.7273	0.1	3556.7
26488	9.3193	4.8182	0.1	3522.3
26489	9.044	4.7273	0.1	3596.5
26490	9.1358	4.8182	0.1	3559.3
26491	8.8605	4.7273	0.1	3632.5
26492	8.9523	4.8182	0.1	3591.8
26493	8.677	4.7273	0.1	3663.8
26494	8.7688	4.8182	0.1	3618.6
26495	8.4935	4.7273	0.1	3689.
26496	8.5853	4.8182	0.1	3638.1
26497	8.31	4.7273	0.1	3706.7
26498	8.4018	4.8182	0.1	3648.5
26499	8.1265	4.7273	0.1	3715.1
26500	8.2182	4.8182	0.1	3647.6
26501	7.943	4.7273	0.1	3712.6
26502	8.0347	4.8182	0.1	3632.9
26503	7.7595	4.7273	0.1	3697.1
26504	7.8512	4.8182	0.1	3601.7
26505	7.576	4.7273	0.1	3666.2
26506	7.6677	4.8182	0.1	3551.3
26507	7.3925	4.7273	0.1	3617.
26508	7.4842	4.8182	0.1	3478.8
26509	7.2089	4.7273	0.1	3543.9
26510	7.3007	4.8182	0.1	3381.7
26511	7.0254	4.7273	0.1	3439.1
26512	7.1172	4.8182	0.1	3257.4
26513	6.8419	4.7273	0.1	3354.2
26514	6.9337	4.8182	0.1	3107.1
26515	6.7502	4.8182	0.1	3046.4
26516	6.6584	4.7273	0.1	2715.6
26517	23.725	4.9091	0.1	58.269
26518	23.816	5.	0.1	39.618
26519	23.908	4.9091	0.1	22.419
26520	23.541	4.9091	0.1	95.607
26521	23.633	5.	0.1	76.59
26522	23.358	4.9091	0.1	133.05
26523	23.449	5.	0.1	113.81
26524	23.174	4.9091	0.1	170.62
26525	23.266	5.	0.1	151.18
26526	22.991	4.9091	0.1	208.4
26527	23.082	5.	0.1	188.81
26528	22.807	4.9091	0.1	246.42
26529	22.899	5.	0.1	226.71
26530	22.624	4.9091	0.1	284.69
26531	22.715	5.	0.1	264.91
26532	22.44	4.9091	0.1	323.21
26533	22.532	5.	0.1	303.37
26534	22.257	4.9091	0.1	361.95
26535	22.348	5.	0.1	342.08
26536	22.073	4.9091	0.1	400.91
26537	22.165	5.	0.1	381.01
26538	21.89	4.9091	0.1	440.07
26539	21.981	5.	0.1	420.14
26540	21.706	4.9091	0.1	479.42
26541	21.798	5.	0.1	459.47
26542	21.523	4.9091	0.1	518.96
26543	21.614	5.	0.1	498.98
26544	21.339	4.9091	0.1	558.67
26545	21.431	5.	0.1	538.67
26546	21.156	4.9091	0.1	598.56
26547	21.247	5.	0.1	578.54
26548	20.972	4.9091	0.1	638.63
26549	21.064	5.	0.1	618.57
26550	20.789	4.9091	0.1	678.86
26551	20.88	5.	0.1	658.77
26552	20.605	4.9091	0.1	719.28
26553	20.697	5.	0.1	699.14
26554	20.422	4.9091	0.1	759.86
26555	20.513	5.	0.1	739.68
26556	20.238	4.9091	0.1	800.62
26557	20.33	5.	0.1	780.39
26558	20.055	4.9091	0.1	841.55
26559	20.146	5.	0.1	821.28
26560	19.871	4.9091	0.1	882.67
26561	19.963	5.	0.1	862.33
26562	19.688	4.9091	0.1	923.96
26563	19.779	5.	0.1	903.56
26564	19.504	4.9091	0.1	965.43
26565	19.596	5.	0.1	944.97
26566	19.321	4.9091	0.1	1007.1
26567	19.412	5.	0.1	986.56
26568	19.137	4.9091	0.1	1048.9
26569	19.229	5.	0.1	1028.3
26570	18.954	4.9091	0.1	1090.9
26571	19.045	5.	0.1	1070.3
26572	18.77	4.9091	0.1	1133.2
26573	18.862	5.	0.1	1112.4
26574	18.586	4.9091	0.1	1175.6
26575	18.678	5.	0.1	1154.7
26576	18.403	4.9091	0.1	1218.1
26577	18.495	5.	0.1	1197.2
26578	18.219	4.9091	0.1	1260.9
26579	18.311	5.	0.1	1239.9
26580	18.036	4.9091	0.1	1303.9
26581	18.128	5.	0.1	1282.8
26582	17.852	4.9091	0.1	1347.
26583	17.944	5.	0.1	1325.9
26584	17.669	4.9091	0.1	1390.4
26585	17.761	5.	0.1	1369.1
26586	17.485	4.9091	0.1	1433.9
26587	17.577	5.	0.1	1412.6
26588	17.302	4.9091	0.1	1477.7
26589	17.394	5.	0.1	1456.3
26590	17.118	4.9091	0.1	1521.6
26591	17.21	5.	0.1	1500.1
26592	16.935	4.9091	0.1	1565.7
26593	17.027	5.	0.1	1544.1
26594	16.751	4.9091	0.1	1610.
26595	16.843	5.	0.1	1588.4
26596	16.568	4.9091	0.1	1654.6
26597	16.66	5.	0.1	1632.8
26598	16.384	4.9091	0.1	1699.3
26599	16.476	5.	0.1	1677.4
26600	16.201	4.9091	0.1	1744.2
26601	16.293	5.	0.1	1722.2
26602	16.017	4.9091	0.1	1789.3
26603	16.109	5.	0.1	1767.3
26604	15.834	4.9091	0.1	1834.6
26605	15.926	5.	0.1	1812.5
26606	15.65	4.9091	0.1	1880.1
26607	15.742	5.	0.1	1857.9
26608	15.467	4.9091	0.1	1925.8
26609	15.559	5.	0.1	1903.5
26610	15.283	4.9091	0.1	1971.7
26611	15.375	5.	0.1	1949.3
26612	15.1	4.9091	0.1	2017.8
26613	15.192	5.	0.1	1995.3
26614	14.916	4.9091	0.1	2064.
26615	15.008	5.	0.1	2041.5
26616	14.733	4.9091	0.1	2110.5
26617	14.825	5.	0.1	2087.9
26618	14.549	4.9091	0.1	2157.2
26619	14.641	5.	0.1	2134.5
26620	14.366	4.9091	0.1	2204.1
26621	14.458	5.	0.1	2181.3
26622	14.182	4.9091	0.1	2251.2
26623	14.274	5.	0.1	2228.4
26624	13.999	4.9091	0.1	2298.5
26625	14.091	5.	0.1	2275.6
26626	13.815	4.9091	0.1	2346.
26627	13.907	5.	0.1	2323.
26628	13.632	4.9091	0.1	2393.6
26629	13.724	5.	0.1	2370.6
26630	13.448	4.9091	0.1	2441.5
26631	13.54	5.	0.1	2418.4
26632	13.265	4.9091	0.1	2489.6
26633	13.356	5.	0.1	2466.4
26634	13.081	4.9091	0.1	2537.8
26635	13.173	5.	0.1	2514.6
26636	12.898	4.9091	0.1	2586.3
26637	12.989	5.	0.1	2562.9
26638	12.714	4.9091	0.1	2634.9
26639	12.806	5.	0.1	2611.5
26640	12.531	4.9091	0.1	2683.7
26641	12.622	5.	0.1	2660.2
26642	12.347	4.9091	0.1	2732.7
26643	12.439	5.	0.1	2709.1
26644	12.164	4.9091	0.1	2781.8
26645	12.255	5.	0.1	2758.2
26646	11.98	4.9091	0.1	2831.1
26647	12.072	5.	0.1	2807.4
26648	11.797	4.9091	0.1	2880.5
26649	11.888	5.	0.1	2856.7
26650	11.613	4.9091	0.1	2930.
26651	11.705	5.	0.1	2906.1
26652	11.43	4.9091	0.1	2979.5
26653	11.521	5.	0.1	2955.5
26654	11.246	4.9091	0.1	3029.
26655	11.338	5.	0.1	3004.9
26656	11.063	4.9091	0.1	3078.4
26657	11.154	5.	0.1	3054.2
26658	10.879	4.9091	0.1	3127.7
26659	10.971	5.	0.1	3103.3
26660	10.696	4.9091	0.1	3176.7
26661	10.787	5.	0.1	3152.
26662	10.512	4.9091	0.1	3225.2
26663	10.604	5.	0.1	3200.3
26664	10.329	4.9091	0.1	3273.1
26665	10.42	5.	0.1	3247.9
26666	10.145	4.9091	0.1	3320.
26667	10.237	5.	0.1	3294.5
26668	9.9616	4.9091	0.1	3365.7
26669	10.053	5.	0.1	3339.7
26670	9.7781	4.9091	0.1	3409.7
26671	9.8698	5.	0.1	3383.1
26672	9.5946	4.9091	0.1	3451.4
26673	9.6863	5.	0.1	3424.2
26674	9.4111	4.9091	0.1	3490.1
26675	9.5028	5.	0.1	3462.1
26676	9.2275	4.9091	0.1	3524.9
26677	9.3193	5.	0.1	3495.8
26678	9.044	4.9091	0.1	3554.6
26679	9.1358	5.	0.1	3524.3
26680	8.8605	4.9091	0.1	3577.8
26681	8.9523	5.	0.1	3546.
26682	8.677	4.9091	0.1	3592.7
26683	8.7688	5.	0.1	3559.
26684	8.4935	4.9091	0.1	3597.2
26685	8.5853	5.	0.1	3561.1
26686	8.31	4.9091	0.1	3588.5
26687	8.4018	5.	0.1	3549.5
26688	8.1265	4.9091	0.1	3563.8
26689	8.2182	5.	0.1	3520.9
26690	7.943	4.9091	0.1	3519.4
26691	8.0347	5.	0.1	3471.5
26692	7.7595	4.9091	0.1	3451.4
26693	7.8512	5.	0.1	3397.
26694	7.576	4.9091	0.1	3356.
26695	7.6677	5.	0.1	3293.3
26696	7.3925	4.9091	0.1	3230.1
26697	7.4842	5.	0.1	3156.8
26698	7.2089	4.9091	0.1	3073.1
26699	7.3007	5.	0.1	2986.7
26700	7.0254	4.9091	0.1	2890.9
26701	7.1172	5.	0.1	2788.3
26702	6.8419	4.9091	0.1	2748.9
26703	6.9337	5.	0.1	2578.7
26704	6.7502	5.	0.1	2474.3
26705	6.6584	4.9091	0.1	2213.1
26706	23.725	5.0909	0.1	57.895
26707	23.816	5.1818	0.1	39.414
26708	23.908	5.0909	0.1	22.358
26709	23.541	5.0909	0.1	94.812
26710	23.633	5.1818	0.1	75.835
26711	23.358	5.0909	0.1	131.98
26712	23.449	5.1818	0.1	112.7
26713	23.174	5.0909	0.1	169.42
26714	23.266	5.1818	0.1	149.9
26715	22.991	5.0909	0.1	207.18
26716	23.082	5.1818	0.1	187.51
26717	22.807	5.0909	0.1	245.27
26718	22.899	5.1818	0.1	225.5
26719	22.624	5.0909	0.1	283.65
26720	22.715	5.1818	0.1	263.83
26721	22.44	5.0909	0.1	322.3
26722	22.532	5.1818	0.1	302.45
26723	22.257	5.0909	0.1	361.19
26724	22.348	5.1818	0.1	341.32
26725	22.073	5.0909	0.1	400.3
26726	22.165	5.1818	0.1	380.41
26727	21.89	5.0909	0.1	439.61
26728	21.981	5.1818	0.1	419.7
26729	21.706	5.0909	0.1	479.09
26730	21.798	5.1818	0.1	459.18
26731	21.523	5.0909	0.1	518.76
26732	21.614	5.1818	0.1	498.83
26733	21.339	5.0909	0.1	558.6
26734	21.431	5.1818	0.1	538.64
26735	21.156	5.0909	0.1	598.6
26736	21.247	5.1818	0.1	578.62
26737	20.972	5.0909	0.1	638.77
26738	21.064	5.1818	0.1	618.76
26739	20.789	5.0909	0.1	679.1
26740	20.88	5.1818	0.1	659.06
26741	20.605	5.0909	0.1	719.6
26742	20.697	5.1818	0.1	699.52
26743	20.422	5.0909	0.1	760.27
26744	20.513	5.1818	0.1	740.14
26745	20.238	5.0909	0.1	801.1
26746	20.33	5.1818	0.1	780.93
26747	20.055	5.0909	0.1	842.1
26748	20.146	5.1818	0.1	821.88
26749	19.871	5.0909	0.1	883.27
26750	19.963	5.1818	0.1	862.99
26751	19.688	5.0909	0.1	924.62
26752	19.779	5.1818	0.1	904.28
26753	19.504	5.0909	0.1	966.14
26754	19.596	5.1818	0.1	945.74
26755	19.321	5.0909	0.1	1007.8
26756	19.412	5.1818	0.1	987.37
26757	19.137	5.0909	0.1	1049.7
26758	19.229	5.1818	0.1	1029.2
26759	18.954	5.0909	0.1	1091.8
26760	19.045	5.1818	0.1	1071.2
26761	18.77	5.0909	0.1	1134.
26762	18.862	5.1818	0.1	1113.3
26763	18.586	5.0909	0.1	1176.5
26764	18.678	5.1818	0.1	1155.7
26765	18.403	5.0909	0.1	1219.1
26766	18.495	5.1818	0.1	1198.2
26767	18.219	5.0909	0.1	1261.9
26768	18.311	5.1818	0.1	1240.9
26769	18.036	5.0909	0.1	1304.9
26770	18.128	5.1818	0.1	1283.8
26771	17.852	5.0909	0.1	1348.
26772	17.944	5.1818	0.1	1326.9
26773	17.669	5.0909	0.1	1391.4
26774	17.761	5.1818	0.1	1370.2
26775	17.485	5.0909	0.1	1435.
26776	17.577	5.1818	0.1	1413.7
26777	17.302	5.0909	0.1	1478.7
26778	17.394	5.1818	0.1	1457.4
26779	17.118	5.0909	0.1	1522.7
26780	17.21	5.1818	0.1	1501.2
26781	16.935	5.0909	0.1	1566.8
26782	17.027	5.1818	0.1	1545.3
26783	16.751	5.0909	0.1	1611.2
26784	16.843	5.1818	0.1	1589.5
26785	16.568	5.0909	0.1	1655.7
26786	16.66	5.1818	0.1	1634.
26787	16.384	5.0909	0.1	1700.4
26788	16.476	5.1818	0.1	1678.6
26789	16.201	5.0909	0.1	1745.4
26790	16.293	5.1818	0.1	1723.5
26791	16.017	5.0909	0.1	1790.5
26792	16.109	5.1818	0.1	1768.5
26793	15.834	5.0909	0.1	1835.8
26794	15.926	5.1818	0.1	1813.7
26795	15.65	5.0909	0.1	1881.3
26796	15.742	5.1818	0.1	1859.2
26797	15.467	5.0909	0.1	1927.1
26798	15.559	5.1818	0.1	1904.8
26799	15.283	5.0909	0.1	1973.
26800	15.375	5.1818	0.1	1950.7
26801	15.1	5.0909	0.1	2019.1
26802	15.192	5.1818	0.1	1996.7
26803	14.916	5.0909	0.1	2065.4
26804	15.008	5.1818	0.1	2042.9
26805	14.733	5.0909	0.1	2111.9
26806	14.825	5.1818	0.1	2089.4
26807	14.549	5.0909	0.1	2158.7
26808	14.641	5.1818	0.1	2136.
26809	14.366	5.0909	0.1	2205.6
26810	14.458	5.1818	0.1	2182.9
26811	14.182	5.0909	0.1	2252.7
26812	14.274	5.1818	0.1	2229.9
26813	13.999	5.0909	0.1	2300.1
26814	14.091	5.1818	0.1	2277.2
26815	13.815	5.0909	0.1	2347.6
26816	13.907	5.1818	0.1	2324.6
26817	13.632	5.0909	0.1	2395.3
26818	13.724	5.1818	0.1	2372.3
26819	13.448	5.0909	0.1	2443.2
26820	13.54	5.1818	0.1	2420.1
26821	13.265	5.0909	0.1	2491.4
26822	13.356	5.1818	0.1	2468.2
26823	13.081	5.0909	0.1	2539.7
26824	13.173	5.1818	0.1	2516.4
26825	12.898	5.0909	0.1	2588.2
26826	12.989	5.1818	0.1	2564.9
26827	12.714	5.0909	0.1	2636.8
26828	12.806	5.1818	0.1	2613.5
26829	12.531	5.0909	0.1	2685.7
26830	12.622	5.1818	0.1	2662.2
26831	12.347	5.0909	0.1	2734.7
26832	12.439	5.1818	0.1	2711.1
26833	12.164	5.0909	0.1	2783.8
26834	12.255	5.1818	0.1	2760.2
26835	11.98	5.0909	0.1	2833.
26836	12.072	5.1818	0.1	2809.4
26837	11.797	5.0909	0.1	2882.3
26838	11.888	5.1818	0.1	2858.6
26839	11.613	5.0909	0.1	2931.6
26840	11.705	5.1818	0.1	2907.8
26841	11.43	5.0909	0.1	2980.9
26842	11.521	5.1818	0.1	2957.1
26843	11.246	5.0909	0.1	3030.
26844	11.338	5.1818	0.1	3006.2
26845	11.063	5.0909	0.1	3079.
26846	11.154	5.1818	0.1	3055.1
26847	10.879	5.0909	0.1	3127.6
26848	10.971	5.1818	0.1	3103.6
26849	10.696	5.0909	0.1	3175.6
26850	10.787	5.1818	0.1	3151.6
26851	10.512	5.0909	0.1	3223.
26852	10.604	5.1818	0.1	3198.9
26853	10.329	5.0909	0.1	3269.3
26854	10.42	5.1818	0.1	3245.2
26855	10.145	5.0909	0.1	3314.1
26856	10.237	5.1818	0.1	3290.
26857	9.9616	5.0909	0.1	3357.1
26858	10.053	5.1818	0.1	3333.
26859	9.7781	5.0909	0.1	3397.6
26860	9.8698	5.1818	0.1	3373.5
26861	9.5946	5.0909	0.1	3434.8
26862	9.6863	5.1818	0.1	3410.8
26863	9.4111	5.0909	0.1	3467.8
26864	9.5028	5.1818	0.1	3443.9
26865	9.2275	5.0909	0.1	3495.3
26866	9.3193	5.1818	0.1	3471.6
26867	9.044	5.0909	0.1	3515.7
26868	9.1358	5.1818	0.1	3492.3
26869	8.8605	5.0909	0.1	3527.1
26870	8.9523	5.1818	0.1	3504.2
26871	8.677	5.0909	0.1	3527.2
26872	8.7688	5.1818	0.1	3505.
26873	8.4935	5.0909	0.1	3513.
26874	8.5853	5.1818	0.1	3491.6
26875	8.31	5.0909	0.1	3481.
26876	8.4018	5.1818	0.1	3460.7
26877	8.1265	5.0909	0.1	3427.2
26878	8.2182	5.1818	0.1	3408.2
26879	7.943	5.0909	0.1	3346.7
26880	8.0347	5.1818	0.1	3329.2
26881	7.7595	5.0909	0.1	3234.7
26882	7.8512	5.1818	0.1	3218.6
26883	7.576	5.0909	0.1	3086.8
26884	7.6677	5.1818	0.1	3071.4
26885	7.3925	5.0909	0.1	2901.
26886	7.4842	5.1818	0.1	2884.
26887	7.2089	5.0909	0.1	2681.6
26888	7.3007	5.1818	0.1	2657.4
26889	7.0254	5.0909	0.1	2445.2
26890	7.1172	5.1818	0.1	2402.6
26891	6.8419	5.0909	0.1	2261.5
26892	6.9337	5.1818	0.1	2147.8
26893	6.7502	5.1818	0.1	2005.
26894	6.6584	5.0909	0.1	1806.8
26895	23.725	5.2727	0.1	57.327
26896	23.816	5.3636	0.1	39.017
26897	23.908	5.2727	0.1	22.22
26898	23.541	5.2727	0.1	93.756
26899	23.633	5.3636	0.1	74.762
26900	23.358	5.2727	0.1	130.68
26901	23.449	5.3636	0.1	111.31
26902	23.174	5.2727	0.1	168.07
26903	23.266	5.3636	0.1	148.48
26904	22.991	5.2727	0.1	205.92
26905	23.082	5.3636	0.1	186.2
26906	22.807	5.2727	0.1	244.15
26907	22.899	5.3636	0.1	224.38
26908	22.624	5.2727	0.1	282.71
26909	22.715	5.3636	0.1	262.91
26910	22.44	5.2727	0.1	321.55
26911	22.532	5.3636	0.1	301.73
26912	22.257	5.2727	0.1	360.61
26913	22.348	5.3636	0.1	340.8
26914	22.073	5.2727	0.1	399.89
26915	22.165	5.3636	0.1	380.07
26916	21.89	5.2727	0.1	439.35
26917	21.981	5.3636	0.1	419.52
26918	21.706	5.2727	0.1	478.98
26919	21.798	5.3636	0.1	459.15
26920	21.523	5.2727	0.1	518.78
26921	21.614	5.3636	0.1	498.93
26922	21.339	5.2727	0.1	558.74
26923	21.431	5.3636	0.1	538.87
26924	21.156	5.2727	0.1	598.85
26925	21.247	5.3636	0.1	578.96
26926	20.972	5.2727	0.1	639.12
26927	21.064	5.3636	0.1	619.2
26928	20.789	5.2727	0.1	679.54
26929	20.88	5.3636	0.1	659.58
26930	20.605	5.2727	0.1	720.12
26931	20.697	5.3636	0.1	700.12
26932	20.422	5.2727	0.1	760.86
26933	20.513	5.3636	0.1	740.82
26934	20.238	5.2727	0.1	801.76
26935	20.33	5.3636	0.1	781.67
26936	20.055	5.2727	0.1	842.82
26937	20.146	5.3636	0.1	822.68
26938	19.871	5.2727	0.1	884.05
26939	19.963	5.3636	0.1	863.85
26940	19.688	5.2727	0.1	925.45
26941	19.779	5.3636	0.1	905.18
26942	19.504	5.2727	0.1	967.01
26943	19.596	5.3636	0.1	946.68
26944	19.321	5.2727	0.1	1008.8
26945	19.412	5.3636	0.1	988.36
26946	19.137	5.2727	0.1	1050.7
26947	19.229	5.3636	0.1	1030.2
26948	18.954	5.2727	0.1	1092.8
26949	19.045	5.3636	0.1	1072.2
26950	18.77	5.2727	0.1	1135.
26951	18.862	5.3636	0.1	1114.4
26952	18.586	5.2727	0.1	1177.5
26953	18.678	5.3636	0.1	1156.8
26954	18.403	5.2727	0.1	1220.1
26955	18.495	5.3636	0.1	1199.3
26956	18.219	5.2727	0.1	1263.
26957	18.311	5.3636	0.1	1242.1
26958	18.036	5.2727	0.1	1306.
26959	18.128	5.3636	0.1	1285.
26960	17.852	5.2727	0.1	1349.2
26961	17.944	5.3636	0.1	1328.1
26962	17.669	5.2727	0.1	1392.6
26963	17.761	5.3636	0.1	1371.4
26964	17.485	5.2727	0.1	1436.1
26965	17.577	5.3636	0.1	1414.9
26966	17.302	5.2727	0.1	1479.9
26967	17.394	5.3636	0.1	1458.6
26968	17.118	5.2727	0.1	1523.9
26969	17.21	5.3636	0.1	1502.5
26970	16.935	5.2727	0.1	1568.
26971	17.027	5.3636	0.1	1546.6
26972	16.751	5.2727	0.1	1612.4
26973	16.843	5.3636	0.1	1590.8
26974	16.568	5.2727	0.1	1656.9
26975	16.66	5.3636	0.1	1635.3
26976	16.384	5.2727	0.1	1701.7
26977	16.476	5.3636	0.1	1680.
26978	16.201	5.2727	0.1	1746.6
26979	16.293	5.3636	0.1	1724.8
26980	16.017	5.2727	0.1	1791.8
26981	16.109	5.3636	0.1	1769.9
26982	15.834	5.2727	0.1	1837.1
26983	15.926	5.3636	0.1	1815.1
26984	15.65	5.2727	0.1	1882.7
26985	15.742	5.3636	0.1	1860.6
26986	15.467	5.2727	0.1	1928.4
26987	15.559	5.3636	0.1	1906.3
26988	15.283	5.2727	0.1	1974.4
26989	15.375	5.3636	0.1	1952.1
26990	15.1	5.2727	0.1	2020.6
26991	15.192	5.3636	0.1	1998.2
26992	14.916	5.2727	0.1	2066.9
26993	15.008	5.3636	0.1	2044.5
26994	14.733	5.2727	0.1	2113.5
26995	14.825	5.3636	0.1	2090.9
26996	14.549	5.2727	0.1	2160.2
26997	14.641	5.3636	0.1	2137.6
26998	14.366	5.2727	0.1	2207.2
26999	14.458	5.3636	0.1	2184.5
27000	14.182	5.2727	0.1	2254.4
27001	14.274	5.3636	0.1	2231.6
27002	13.999	5.2727	0.1	2301.8
27003	14.091	5.3636	0.1	2278.9
27004	13.815	5.2727	0.1	2349.3
27005	13.907	5.3636	0.1	2326.4
27006	13.632	5.2727	0.1	2397.1
27007	13.724	5.3636	0.1	2374.1
27008	13.448	5.2727	0.1	2445.1
27009	13.54	5.3636	0.1	2422.
27010	13.265	5.2727	0.1	2493.3
27011	13.356	5.3636	0.1	2470.1
27012	13.081	5.2727	0.1	2541.6
27013	13.173	5.3636	0.1	2518.4
27014	12.898	5.2727	0.1	2590.2
27015	12.989	5.3636	0.1	2566.9
27016	12.714	5.2727	0.1	2638.9
27017	12.806	5.3636	0.1	2615.5
27018	12.531	5.2727	0.1	2687.7
27019	12.622	5.3636	0.1	2664.3
27020	12.347	5.2727	0.1	2736.7
27021	12.439	5.3636	0.1	2713.3
27022	12.164	5.2727	0.1	2785.8
27023	12.255	5.3636	0.1	2762.3
27024	11.98	5.2727	0.1	2835.
27025	12.072	5.3636	0.1	2811.5
27026	11.797	5.2727	0.1	2884.2
27027	11.888	5.3636	0.1	2860.6
27028	11.613	5.2727	0.1	2933.3
27029	11.705	5.3636	0.1	2909.8
27030	11.43	5.2727	0.1	2982.4
27031	11.521	5.3636	0.1	2958.8
27032	11.246	5.2727	0.1	3031.2
27033	11.338	5.3636	0.1	3007.7
27034	11.063	5.2727	0.1	3079.7
27035	11.154	5.3636	0.1	3056.2
27036	10.879	5.2727	0.1	3127.7
27037	10.971	5.3636	0.1	3104.3
27038	10.696	5.2727	0.1	3174.9
27039	10.787	5.3636	0.1	3151.6
27040	10.512	5.2727	0.1	3221.1
27041	10.604	5.3636	0.1	3198.
27042	10.329	5.2727	0.1	3266.
27043	10.42	5.3636	0.1	3243.
27044	10.145	5.2727	0.1	3308.9
27045	10.237	5.3636	0.1	3286.3
27046	9.9616	5.2727	0.1	3349.4
27047	10.053	5.3636	0.1	3327.3
27048	9.7781	5.2727	0.1	3386.8
27049	9.8698	5.3636	0.1	3365.2
27050	9.5946	5.2727	0.1	3419.9
27051	9.6863	5.3636	0.1	3399.1
27052	9.4111	5.2727	0.1	3447.7
27053	9.5028	5.3636	0.1	3428.
27054	9.2275	5.2727	0.1	3468.7
27055	9.3193	5.3636	0.1	3450.3
27056	9.044	5.2727	0.1	3480.9
27057	9.1358	5.3636	0.1	3464.3
27058	8.8605	5.2727	0.1	3482.
27059	8.9523	5.3636	0.1	3467.7
27060	8.677	5.2727	0.1	3469.2
27061	8.7688	5.3636	0.1	3457.9
27062	8.4935	5.2727	0.1	3439.
27063	8.5853	5.3636	0.1	3431.5
27064	8.31	5.2727	0.1	3387.2
27065	8.4018	5.3636	0.1	3384.6
27066	8.1265	5.2727	0.1	3309.1
27067	8.2182	5.3636	0.1	3312.3
27068	7.943	5.2727	0.1	3199.1
27069	8.0347	5.3636	0.1	3209.5
27070	7.7595	5.2727	0.1	3051.9
27071	7.8512	5.3636	0.1	3070.4
27072	7.576	5.2727	0.1	2862.7
27073	7.6677	5.3636	0.1	2889.4
27074	7.3925	5.2727	0.1	2630.3
27075	7.4842	5.3636	0.1	2662.9
27076	7.2089	5.2727	0.1	2361.2
27077	7.3007	5.3636	0.1	2392.
27078	7.0254	5.2727	0.1	2077.7
27079	7.1172	5.3636	0.1	2089.2
27080	6.8419	5.2727	0.1	1852.2
27081	6.9337	5.3636	0.1	1788.3
27082	6.7502	5.3636	0.1	1600.1
27083	6.6584	5.2727	0.1	1458.7
27084	23.725	5.4545	0.1	56.453
27085	23.816	5.5455	0.1	38.309
27086	23.908	5.4545	0.1	21.927
27087	23.541	5.4545	0.1	92.387
27088	23.633	5.5455	0.1	73.318
27089	23.358	5.4545	0.1	129.21
27090	23.449	5.5455	0.1	109.79
27091	23.174	5.4545	0.1	166.73
27092	23.266	5.5455	0.1	147.18
27093	22.991	5.4545	0.1	204.79
27094	23.082	5.5455	0.1	185.19
27095	22.807	5.4545	0.1	243.26
27096	22.899	5.5455	0.1	223.65
27097	22.624	5.4545	0.1	282.05
27098	22.715	5.5455	0.1	262.45
27099	22.44	5.4545	0.1	321.09
27100	22.532	5.5455	0.1	301.5
27101	22.257	5.4545	0.1	360.35
27102	22.348	5.5455	0.1	340.76
27103	22.073	5.4545	0.1	399.8
27104	22.165	5.5455	0.1	380.2
27105	21.89	5.4545	0.1	439.41
27106	21.981	5.5455	0.1	419.8
27107	21.706	5.4545	0.1	479.18
27108	21.798	5.5455	0.1	459.56
27109	21.523	5.4545	0.1	519.1
27110	21.614	5.5455	0.1	499.46
27111	21.339	5.4545	0.1	559.16
27112	21.431	5.5455	0.1	539.5
27113	21.156	5.4545	0.1	599.37
27114	21.247	5.5455	0.1	579.68
27115	20.972	5.4545	0.1	639.73
27116	21.064	5.5455	0.1	620.01
27117	20.789	5.4545	0.1	680.23
27118	20.88	5.5455	0.1	660.47
27119	20.605	5.4545	0.1	720.88
27120	20.697	5.5455	0.1	701.07
27121	20.422	5.4545	0.1	761.69
27122	20.513	5.5455	0.1	741.83
27123	20.238	5.4545	0.1	802.64
27124	20.33	5.5455	0.1	782.73
27125	20.055	5.4545	0.1	843.76
27126	20.146	5.5455	0.1	823.79
27127	19.871	5.4545	0.1	885.03
27128	19.963	5.5455	0.1	865.
27129	19.688	5.4545	0.1	926.47
27130	19.779	5.5455	0.1	906.37
27131	19.504	5.4545	0.1	968.07
27132	19.596	5.5455	0.1	947.91
27133	19.321	5.4545	0.1	1009.8
27134	19.412	5.5455	0.1	989.61
27135	19.137	5.4545	0.1	1051.8
27136	19.229	5.5455	0.1	1031.5
27137	18.954	5.4545	0.1	1093.9
27138	19.045	5.5455	0.1	1073.5
27139	18.77	5.4545	0.1	1136.2
27140	18.862	5.5455	0.1	1115.7
27141	18.586	5.4545	0.1	1178.7
27142	18.678	5.5455	0.1	1158.1
27143	18.403	5.4545	0.1	1221.4
27144	18.495	5.5455	0.1	1200.7
27145	18.219	5.4545	0.1	1264.2
27146	18.311	5.5455	0.1	1243.5
27147	18.036	5.4545	0.1	1307.2
27148	18.128	5.5455	0.1	1286.4
27149	17.852	5.4545	0.1	1350.4
27150	17.944	5.5455	0.1	1329.5
27151	17.669	5.4545	0.1	1393.8
27152	17.761	5.5455	0.1	1372.9
27153	17.485	5.4545	0.1	1437.4
27154	17.577	5.5455	0.1	1416.4
27155	17.302	5.4545	0.1	1481.2
27156	17.394	5.5455	0.1	1460.1
27157	17.118	5.4545	0.1	1525.2
27158	17.21	5.5455	0.1	1503.9
27159	16.935	5.4545	0.1	1569.4
27160	17.027	5.5455	0.1	1548.
27161	16.751	5.4545	0.1	1613.8
27162	16.843	5.5455	0.1	1592.3
27163	16.568	5.4545	0.1	1658.3
27164	16.66	5.5455	0.1	1636.8
27165	16.384	5.4545	0.1	1703.1
27166	16.476	5.5455	0.1	1681.5
27167	16.201	5.4545	0.1	1748.1
27168	16.293	5.5455	0.1	1726.3
27169	16.017	5.4545	0.1	1793.2
27170	16.109	5.5455	0.1	1771.4
27171	15.834	5.4545	0.1	1838.6
27172	15.926	5.5455	0.1	1816.7
27173	15.65	5.4545	0.1	1884.2
27174	15.742	5.5455	0.1	1862.2
27175	15.467	5.4545	0.1	1930.
27176	15.559	5.5455	0.1	1907.9
27177	15.283	5.4545	0.1	1975.9
27178	15.375	5.5455	0.1	1953.8
27179	15.1	5.4545	0.1	2022.1
27180	15.192	5.5455	0.1	1999.9
27181	14.916	5.4545	0.1	2068.5
27182	15.008	5.5455	0.1	2046.2
27183	14.733	5.4545	0.1	2115.1
27184	14.825	5.5455	0.1	2092.7
27185	14.549	5.4545	0.1	2161.9
27186	14.641	5.5455	0.1	2139.4
27187	14.366	5.4545	0.1	2208.9
27188	14.458	5.5455	0.1	2186.3
27189	14.182	5.4545	0.1	2256.2
27190	14.274	5.5455	0.1	2233.5
27191	13.999	5.4545	0.1	2303.6
27192	14.091	5.5455	0.1	2280.8
27193	13.815	5.4545	0.1	2351.2
27194	13.907	5.5455	0.1	2328.3
27195	13.632	5.4545	0.1	2399.
27196	13.724	5.5455	0.1	2376.1
27197	13.448	5.4545	0.1	2447.1
27198	13.54	5.5455	0.1	2424.1
27199	13.265	5.4545	0.1	2495.3
27200	13.356	5.5455	0.1	2472.2
27201	13.081	5.4545	0.1	2543.7
27202	13.173	5.5455	0.1	2520.5
27203	12.898	5.4545	0.1	2592.3
27204	12.989	5.5455	0.1	2569.1
27205	12.714	5.4545	0.1	2641.
27206	12.806	5.5455	0.1	2617.8
27207	12.531	5.4545	0.1	2689.9
27208	12.622	5.5455	0.1	2666.6
27209	12.347	5.4545	0.1	2738.9
27210	12.439	5.5455	0.1	2715.6
27211	12.164	5.4545	0.1	2788.
27212	12.255	5.5455	0.1	2764.6
27213	11.98	5.4545	0.1	2837.1
27214	12.072	5.5455	0.1	2813.7
27215	11.797	5.4545	0.1	2886.3
27216	11.888	5.5455	0.1	2862.9
27217	11.613	5.4545	0.1	2935.3
27218	11.705	5.5455	0.1	2911.9
27219	11.43	5.4545	0.1	2984.1
27220	11.521	5.5455	0.1	2960.8
27221	11.246	5.4545	0.1	3032.7
27222	11.338	5.5455	0.1	3009.5
27223	11.063	5.4545	0.1	3080.8
27224	11.154	5.5455	0.1	3057.7
27225	10.879	5.4545	0.1	3128.2
27226	10.971	5.5455	0.1	3105.3
27227	10.696	5.4545	0.1	3174.7
27228	10.787	5.5455	0.1	3152.
27229	10.512	5.4545	0.1	3219.9
27230	10.604	5.5455	0.1	3197.6
27231	10.329	5.4545	0.1	3263.4
27232	10.42	5.5455	0.1	3241.6
27233	10.145	5.4545	0.1	3304.7
27234	10.237	5.5455	0.1	3283.5
27235	9.9616	5.4545	0.1	3343.
27236	10.053	5.5455	0.1	3322.8
27237	9.7781	5.4545	0.1	3377.6
27238	9.8698	5.5455	0.1	3358.4
27239	9.5946	5.4545	0.1	3407.2
27240	9.6863	5.5455	0.1	3389.5
27241	9.4111	5.4545	0.1	3430.6
27242	9.5028	5.5455	0.1	3414.8
27243	9.2275	5.4545	0.1	3445.9
27244	9.3193	5.5455	0.1	3432.6
27245	9.044	5.4545	0.1	3451.1
27246	9.1358	5.5455	0.1	3441.
27247	8.8605	5.4545	0.1	3443.6
27248	8.9523	5.5455	0.1	3437.5
27249	8.677	5.4545	0.1	3420.1
27250	8.7688	5.5455	0.1	3419.2
27251	8.4935	5.4545	0.1	3376.8
27252	8.5853	5.5455	0.1	3382.3
27253	8.31	5.4545	0.1	3309.2
27254	8.4018	5.5455	0.1	3322.7
27255	8.1265	5.4545	0.1	3211.9
27256	8.2182	5.5455	0.1	3235.3
27257	7.943	5.4545	0.1	3079.3
27258	8.0347	5.5455	0.1	3114.6
27259	7.7595	5.4545	0.1	2905.5
27260	7.8512	5.5455	0.1	2954.4
27261	7.576	5.4545	0.1	2685.6
27262	7.6677	5.5455	0.1	2749.1
27263	7.3925	5.4545	0.1	2417.7
27264	7.4842	5.5455	0.1	2494.5
27265	7.2089	5.4545	0.1	2107.5
27266	7.3007	5.5455	0.1	2190.3
27267	7.0254	5.4545	0.1	1776.8
27268	7.1172	5.5455	0.1	1845.8
27269	6.8419	5.4545	0.1	1498.1
27270	6.9337	5.5455	0.1	1491.2
27271	6.7502	5.5455	0.1	1235.7
27272	6.6584	5.4545	0.1	1143.6
27273	23.725	5.6364	0.1	55.256
27274	23.816	5.7273	0.1	37.146
27275	23.908	5.6364	0.1	21.405
27276	23.541	5.6364	0.1	90.905
27277	23.633	5.7273	0.1	72.209
27278	23.358	5.6364	0.1	127.97
27279	23.449	5.7273	0.1	109.37
27280	23.174	5.6364	0.1	165.85
27281	23.266	5.7273	0.1	147.38
27282	22.991	5.6364	0.1	204.26
27283	23.082	5.7273	0.1	185.89
27284	22.807	5.6364	0.1	243.02
27285	22.899	5.7273	0.1	224.73
27286	22.624	5.6364	0.1	282.05
27287	22.715	5.7273	0.1	263.82
27288	22.44	5.6364	0.1	321.3
27289	22.532	5.7273	0.1	303.11
27290	22.257	5.6364	0.1	360.73
27291	22.348	5.7273	0.1	342.56
27292	22.073	5.6364	0.1	400.32
27293	22.165	5.7273	0.1	382.16
27294	21.89	5.6364	0.1	440.06
27295	21.981	5.7273	0.1	421.9
27296	21.706	5.6364	0.1	479.94
27297	21.798	5.7273	0.1	461.77
27298	21.523	5.6364	0.1	519.96
27299	21.614	5.7273	0.1	501.76
27300	21.339	5.6364	0.1	560.11
27301	21.431	5.7273	0.1	541.88
27302	21.156	5.6364	0.1	600.4
27303	21.247	5.7273	0.1	582.13
27304	20.972	5.6364	0.1	640.82
27305	21.064	5.7273	0.1	622.51
27306	20.789	5.6364	0.1	681.38
27307	20.88	5.7273	0.1	663.02
27308	20.605	5.6364	0.1	722.09
27309	20.697	5.7273	0.1	703.66
27310	20.422	5.6364	0.1	762.94
27311	20.513	5.7273	0.1	744.45
27312	20.238	5.6364	0.1	803.94
27313	20.33	5.7273	0.1	785.37
27314	20.055	5.6364	0.1	845.09
27315	20.146	5.7273	0.1	826.45
27316	19.871	5.6364	0.1	886.4
27317	19.963	5.7273	0.1	867.68
27318	19.688	5.6364	0.1	927.86
27319	19.779	5.7273	0.1	909.06
27320	19.504	5.6364	0.1	969.49
27321	19.596	5.7273	0.1	950.6
27322	19.321	5.6364	0.1	1011.3
27323	19.412	5.7273	0.1	992.31
27324	19.137	5.6364	0.1	1053.3
27325	19.229	5.7273	0.1	1034.2
27326	18.954	5.6364	0.1	1095.4
27327	19.045	5.7273	0.1	1076.2
27328	18.77	5.6364	0.1	1137.7
27329	18.862	5.7273	0.1	1118.4
27330	18.586	5.6364	0.1	1180.2
27331	18.678	5.7273	0.1	1160.8
27332	18.403	5.6364	0.1	1222.9
27333	18.495	5.7273	0.1	1203.4
27334	18.219	5.6364	0.1	1265.7
27335	18.311	5.7273	0.1	1246.1
27336	18.036	5.6364	0.1	1308.8
27337	18.128	5.7273	0.1	1289.1
27338	17.852	5.6364	0.1	1352.
27339	17.944	5.7273	0.1	1332.2
27340	17.669	5.6364	0.1	1395.4
27341	17.761	5.7273	0.1	1375.5
27342	17.485	5.6364	0.1	1439.
27343	17.577	5.7273	0.1	1419.
27344	17.302	5.6364	0.1	1482.8
27345	17.394	5.7273	0.1	1462.7
27346	17.118	5.6364	0.1	1526.8
27347	17.21	5.7273	0.1	1506.6
27348	16.935	5.6364	0.1	1571.
27349	17.027	5.7273	0.1	1550.6
27350	16.751	5.6364	0.1	1615.4
27351	16.843	5.7273	0.1	1594.9
27352	16.568	5.6364	0.1	1660.
27353	16.66	5.7273	0.1	1639.4
27354	16.384	5.6364	0.1	1704.7
27355	16.476	5.7273	0.1	1684.1
27356	16.201	5.6364	0.1	1749.7
27357	16.293	5.7273	0.1	1728.9
27358	16.017	5.6364	0.1	1794.9
27359	16.109	5.7273	0.1	1774.
27360	15.834	5.6364	0.1	1840.3
27361	15.926	5.7273	0.1	1819.3
27362	15.65	5.6364	0.1	1885.9
27363	15.742	5.7273	0.1	1864.8
27364	15.467	5.6364	0.1	1931.7
27365	15.559	5.7273	0.1	1910.5
27366	15.283	5.6364	0.1	1977.7
27367	15.375	5.7273	0.1	1956.3
27368	15.1	5.6364	0.1	2023.9
27369	15.192	5.7273	0.1	2002.5
27370	14.916	5.6364	0.1	2070.3
27371	15.008	5.7273	0.1	2048.8
27372	14.733	5.6364	0.1	2117.
27373	14.825	5.7273	0.1	2095.3
27374	14.549	5.6364	0.1	2163.8
27375	14.641	5.7273	0.1	2142.
27376	14.366	5.6364	0.1	2210.9
27377	14.458	5.7273	0.1	2189.
27378	14.182	5.6364	0.1	2258.1
27379	14.274	5.7273	0.1	2236.1
27380	13.999	5.6364	0.1	2305.6
27381	14.091	5.7273	0.1	2283.5
27382	13.815	5.6364	0.1	2353.3
27383	13.907	5.7273	0.1	2331.1
27384	13.632	5.6364	0.1	2401.1
27385	13.724	5.7273	0.1	2378.9
27386	13.448	5.6364	0.1	2449.2
27387	13.54	5.7273	0.1	2426.9
27388	13.265	5.6364	0.1	2497.5
27389	13.356	5.7273	0.1	2475.
27390	13.081	5.6364	0.1	2545.9
27391	13.173	5.7273	0.1	2523.4
27392	12.898	5.6364	0.1	2594.6
27393	12.989	5.7273	0.1	2572.
27394	12.714	5.6364	0.1	2643.4
27395	12.806	5.7273	0.1	2620.7
27396	12.531	5.6364	0.1	2692.3
27397	12.622	5.7273	0.1	2669.5
27398	12.347	5.6364	0.1	2741.3
27399	12.439	5.7273	0.1	2718.5
27400	12.164	5.6364	0.1	2790.4
27401	12.255	5.7273	0.1	2767.6
27402	11.98	5.6364	0.1	2839.5
27403	12.072	5.7273	0.1	2816.7
27404	11.797	5.6364	0.1	2888.6
27405	11.888	5.7273	0.1	2865.7
27406	11.613	5.6364	0.1	2937.5
27407	11.705	5.7273	0.1	2914.7
27408	11.43	5.6364	0.1	2986.2
27409	11.521	5.7273	0.1	2963.5
27410	11.246	5.6364	0.1	3034.5
27411	11.338	5.7273	0.1	3011.9
27412	11.063	5.6364	0.1	3082.2
27413	11.154	5.7273	0.1	3059.9
27414	10.879	5.6364	0.1	3129.1
27415	10.971	5.7273	0.1	3107.1
27416	10.696	5.6364	0.1	3175.
27417	10.787	5.7273	0.1	3153.3
27418	10.512	5.6364	0.1	3219.4
27419	10.604	5.7273	0.1	3198.3
27420	10.329	5.6364	0.1	3261.8
27421	10.42	5.7273	0.1	3241.4
27422	10.145	5.6364	0.1	3301.6
27423	10.237	5.7273	0.1	3282.2
27424	9.9616	5.6364	0.1	3338.2
27425	10.053	5.7273	0.1	3320.
27426	9.7781	5.6364	0.1	3370.4
27427	9.8698	5.7273	0.1	3353.9
27428	9.5946	5.6364	0.1	3397.2
27429	9.6863	5.7273	0.1	3382.7
27430	9.4111	5.6364	0.1	3416.9
27431	9.5028	5.7273	0.1	3405.1
27432	9.2275	5.6364	0.1	3427.7
27433	9.3193	5.7273	0.1	3419.4
27434	9.044	5.6364	0.1	3427.4
27435	9.1358	5.7273	0.1	3423.5
27436	8.8605	5.6364	0.1	3413.
27437	8.9523	5.7273	0.1	3414.7
27438	8.677	5.6364	0.1	3381.2
27439	8.7688	5.7273	0.1	3389.9
27440	8.4935	5.6364	0.1	3328.
27441	8.5853	5.7273	0.1	3345.4
27442	8.31	5.6364	0.1	3248.5
27443	8.4018	5.7273	0.1	3276.7
27444	8.1265	5.6364	0.1	3137.3
27445	8.2182	5.7273	0.1	3178.8
27446	7.943	5.6364	0.1	2988.7
27447	8.0347	5.7273	0.1	3046.
27448	7.7595	5.6364	0.1	2796.6
27449	7.8512	5.7273	0.1	2872.4
27450	7.576	5.6364	0.1	2555.8
27451	7.6677	5.7273	0.1	2652.2
27452	7.3925	5.6364	0.1	2263.4
27453	7.4842	5.7273	0.1	2380.8
27454	7.2089	5.6364	0.1	1921.7
27455	7.3007	5.7273	0.1	2056.2
27456	7.0254	5.6364	0.1	1544.6
27457	7.1172	5.7273	0.1	1681.8
27458	6.8419	5.6364	0.1	1191.9
27459	6.9337	5.7273	0.1	1273.2
27460	6.7502	5.7273	0.1	910.07
27461	6.6584	5.6364	0.1	842.37
27462	23.725	5.8182	0.1	54.713
27463	23.816	5.9091	0.1	34.398
27464	23.908	5.8182	0.1	20.47
27465	23.541	5.8182	0.1	91.379
27466	23.633	5.9091	0.1	68.893
27467	23.358	5.8182	0.1	129.41
27468	23.449	5.9091	0.1	105.43
27469	23.174	5.8182	0.1	167.97
27470	23.266	5.9091	0.1	142.88
27471	22.991	5.8182	0.1	206.85
27472	23.082	5.9091	0.1	180.94
27473	22.807	5.8182	0.1	245.97
27474	22.899	5.9091	0.1	219.41
27475	22.624	5.8182	0.1	285.27
27476	22.715	5.9091	0.1	258.22
27477	22.44	5.8182	0.1	324.73
27478	22.532	5.9091	0.1	297.29
27479	22.257	5.8182	0.1	364.33
27480	22.348	5.9091	0.1	336.58
27481	22.073	5.8182	0.1	404.05
27482	22.165	5.9091	0.1	376.07
27483	21.89	5.8182	0.1	443.9
27484	21.981	5.9091	0.1	415.73
27485	21.706	5.8182	0.1	483.87
27486	21.798	5.9091	0.1	455.55
27487	21.523	5.8182	0.1	523.95
27488	21.614	5.9091	0.1	495.53
27489	21.339	5.8182	0.1	564.15
27490	21.431	5.9091	0.1	535.66
27491	21.156	5.8182	0.1	604.48
27492	21.247	5.9091	0.1	575.93
27493	20.972	5.8182	0.1	644.93
27494	21.064	5.9091	0.1	616.34
27495	20.789	5.8182	0.1	685.52
27496	20.88	5.9091	0.1	656.91
27497	20.605	5.8182	0.1	726.24
27498	20.697	5.9091	0.1	697.62
27499	20.422	5.8182	0.1	767.09
27500	20.513	5.9091	0.1	738.47
27501	20.238	5.8182	0.1	808.09
27502	20.33	5.9091	0.1	779.48
27503	20.055	5.8182	0.1	849.24
27504	20.146	5.9091	0.1	820.64
27505	19.871	5.8182	0.1	890.53
27506	19.963	5.9091	0.1	861.96
27507	19.688	5.8182	0.1	931.99
27508	19.779	5.9091	0.1	903.43
27509	19.504	5.8182	0.1	973.6
27510	19.596	5.9091	0.1	945.07
27511	19.321	5.8182	0.1	1015.4
27512	19.412	5.9091	0.1	986.87
27513	19.137	5.8182	0.1	1057.3
27514	19.229	5.9091	0.1	1028.8
27515	18.954	5.8182	0.1	1099.4
27516	19.045	5.9091	0.1	1071.
27517	18.77	5.8182	0.1	1141.7
27518	18.862	5.9091	0.1	1113.3
27519	18.586	5.8182	0.1	1184.2
27520	18.678	5.9091	0.1	1155.8
27521	18.403	5.8182	0.1	1226.8
27522	18.495	5.9091	0.1	1198.5
27523	18.219	5.8182	0.1	1269.6
27524	18.311	5.9091	0.1	1241.3
27525	18.036	5.8182	0.1	1312.7
27526	18.128	5.9091	0.1	1284.4
27527	17.852	5.8182	0.1	1355.9
27528	17.944	5.9091	0.1	1327.6
27529	17.669	5.8182	0.1	1399.2
27530	17.761	5.9091	0.1	1371.
27531	17.485	5.8182	0.1	1442.8
27532	17.577	5.9091	0.1	1414.6
27533	17.302	5.8182	0.1	1486.6
27534	17.394	5.9091	0.1	1458.4
27535	17.118	5.8182	0.1	1530.5
27536	17.21	5.9091	0.1	1502.4
27537	16.935	5.8182	0.1	1574.7
27538	17.027	5.9091	0.1	1546.6
27539	16.751	5.8182	0.1	1619.1
27540	16.843	5.9091	0.1	1590.9
27541	16.568	5.8182	0.1	1663.6
27542	16.66	5.9091	0.1	1635.5
27543	16.384	5.8182	0.1	1708.4
27544	16.476	5.9091	0.1	1680.3
27545	16.201	5.8182	0.1	1753.3
27546	16.293	5.9091	0.1	1725.3
27547	16.017	5.8182	0.1	1798.5
27548	16.109	5.9091	0.1	1770.5
27549	15.834	5.8182	0.1	1843.9
27550	15.926	5.9091	0.1	1815.9
27551	15.65	5.8182	0.1	1889.4
27552	15.742	5.9091	0.1	1861.5
27553	15.467	5.8182	0.1	1935.2
27554	15.559	5.9091	0.1	1907.3
27555	15.283	5.8182	0.1	1981.2
27556	15.375	5.9091	0.1	1953.3
27557	15.1	5.8182	0.1	2027.4
27558	15.192	5.9091	0.1	1999.5
27559	14.916	5.8182	0.1	2073.8
27560	15.008	5.9091	0.1	2046.
27561	14.733	5.8182	0.1	2120.5
27562	14.825	5.9091	0.1	2092.6
27563	14.549	5.8182	0.1	2167.3
27564	14.641	5.9091	0.1	2139.5
27565	14.366	5.8182	0.1	2214.4
27566	14.458	5.9091	0.1	2186.6
27567	14.182	5.8182	0.1	2261.6
27568	14.274	5.9091	0.1	2233.9
27569	13.999	5.8182	0.1	2309.1
27570	14.091	5.9091	0.1	2281.4
27571	13.815	5.8182	0.1	2356.8
27572	13.907	5.9091	0.1	2329.2
27573	13.632	5.8182	0.1	2404.7
27574	13.724	5.9091	0.1	2377.1
27575	13.448	5.8182	0.1	2452.8
27576	13.54	5.9091	0.1	2425.3
27577	13.265	5.8182	0.1	2501.
27578	13.356	5.9091	0.1	2473.6
27579	13.081	5.8182	0.1	2549.5
27580	13.173	5.9091	0.1	2522.2
27581	12.898	5.8182	0.1	2598.1
27582	12.989	5.9091	0.1	2570.9
27583	12.714	5.8182	0.1	2646.9
27584	12.806	5.9091	0.1	2619.8
27585	12.531	5.8182	0.1	2695.9
27586	12.622	5.9091	0.1	2668.8
27587	12.347	5.8182	0.1	2744.9
27588	12.439	5.9091	0.1	2718.
27589	12.164	5.8182	0.1	2793.9
27590	12.255	5.9091	0.1	2767.2
27591	11.98	5.8182	0.1	2843.
27592	12.072	5.9091	0.1	2816.4
27593	11.797	5.8182	0.1	2892.
27594	11.888	5.9091	0.1	2865.6
27595	11.613	5.8182	0.1	2940.8
27596	11.705	5.9091	0.1	2914.7
27597	11.43	5.8182	0.1	2989.3
27598	11.521	5.9091	0.1	2963.5
27599	11.246	5.8182	0.1	3037.4
27600	11.338	5.9091	0.1	3011.9
27601	11.063	5.8182	0.1	3084.8
27602	11.154	5.9091	0.1	3059.8
27603	10.879	5.8182	0.1	3131.4
27604	10.971	5.9091	0.1	3106.9
27605	10.696	5.8182	0.1	3176.7
27606	10.787	5.9091	0.1	3152.9
27607	10.512	5.8182	0.1	3220.4
27608	10.604	5.9091	0.1	3197.5
27609	10.329	5.8182	0.1	3261.9
27610	10.42	5.9091	0.1	3240.1
27611	10.145	5.8182	0.1	3300.7
27612	10.237	5.9091	0.1	3280.2
27613	9.9616	5.8182	0.1	3335.8
27614	10.053	5.9091	0.1	3317.
27615	9.7781	5.8182	0.1	3366.2
27616	9.8698	5.9091	0.1	3349.6
27617	9.5946	5.8182	0.1	3390.7
27618	9.6863	5.9091	0.1	3376.8
27619	9.4111	5.8182	0.1	3407.7
27620	9.5028	5.9091	0.1	3397.2
27621	9.2275	5.8182	0.1	3415.2
27622	9.3193	5.9091	0.1	3408.9
27623	9.044	5.8182	0.1	3410.8
27624	9.1358	5.9091	0.1	3409.8
27625	8.8605	5.8182	0.1	3391.6
27626	8.9523	5.9091	0.1	3397.
27627	8.677	5.8182	0.1	3354.
27628	8.7688	5.9091	0.1	3367.5
27629	8.4935	5.8182	0.1	3294.
27630	8.5853	5.9091	0.1	3317.1
27631	8.31	5.8182	0.1	3206.8
27632	8.4018	5.9091	0.1	3241.5
27633	8.1265	5.8182	0.1	3087.1
27634	8.2182	5.9091	0.1	3135.4
27635	7.943	5.8182	0.1	2929.
27636	8.0347	5.9091	0.1	2993.
27637	7.7595	5.8182	0.1	2727.
27638	7.8512	5.9091	0.1	2808.5
27639	7.576	5.8182	0.1	2475.8
27640	7.6677	5.9091	0.1	2576.1
27641	7.3925	5.8182	0.1	2171.7
27642	7.4842	5.9091	0.1	2291.1
27643	7.2089	5.8182	0.1	1813.6
27644	7.3007	5.9091	0.1	1950.5
27645	7.0254	5.8182	0.1	1404.6
27646	7.1172	5.9091	0.1	1554.7
27647	6.8419	5.8182	0.1	966.37
27648	6.9337	5.9091	0.1	1107.
27649	6.6584	5.8182	0.1	545.74
27650	6.7502	5.9091	0.1	626.88
27651	0.18286	0.27273	0.1	4189.1
27652	0.27429	0.18182	0.1	4469.1
27653	9.1429e-002	0.18182	0.1	3212.4
27654	0.18286	9.0909e-002	0.1	3700.1
27655	0.18286	0.45455	0.1	4849.3
27656	0.27429	0.36364	0.1	4836.3
27657	9.1429e-002	0.36364	0.1	4571.5
27658	0.18286	0.63636	0.1	5466.
27659	0.27429	0.54545	0.1	5328.9
27660	9.1429e-002	0.54545	0.1	5450.2
27661	0.18286	0.81818	0.1	5930.3
27662	0.27429	0.72727	0.1	5758.7
27663	9.1429e-002	0.72727	0.1	6039.7
27664	0.18286	1.	0.1	6277.9
27665	0.27429	0.90909	0.1	6108.6
27666	9.1429e-002	0.90909	0.1	6453.2
27667	0.18286	1.1818	0.1	6540.4
27668	0.27429	1.0909	0.1	6386.1
27669	9.1429e-002	1.0909	0.1	6754.7
27670	0.18286	1.3636	0.1	6741.8
27671	0.27429	1.2727	0.1	6605.4
27672	9.1429e-002	1.2727	0.1	6980.5
27673	0.18286	1.5455	0.1	6897.7
27674	0.27429	1.4545	0.1	6778.8
27675	9.1429e-002	1.4545	0.1	7152.8
27676	0.18286	1.7273	0.1	7019.3
27677	0.27429	1.6364	0.1	6916.2
27678	9.1429e-002	1.6364	0.1	7285.8
27679	0.18286	1.9091	0.1	7114.
27680	0.27429	1.8182	0.1	7024.9
27681	9.1429e-002	1.8182	0.1	7388.8
27682	0.18286	2.0909	0.1	7187.2
27683	0.27429	2.	0.1	7110.2
27684	9.1429e-002	2.	0.1	7468.5
27685	0.18286	2.2727	0.1	7242.9
27686	0.27429	2.1818	0.1	7176.3
27687	9.1429e-002	2.1818	0.1	7529.4
27688	0.18286	2.4545	0.1	7283.7
27689	0.27429	2.3636	0.1	7226.
27690	9.1429e-002	2.3636	0.1	7574.9
27691	0.18286	2.6364	0.1	7311.6
27692	0.27429	2.5455	0.1	7261.7
27693	9.1429e-002	2.5455	0.1	7607.2
27694	0.18286	2.8182	0.1	7327.9
27695	0.27429	2.7273	0.1	7284.6
27696	9.1429e-002	2.7273	0.1	7627.9
27697	0.18286	3.	0.1	7333.2
27698	0.27429	2.9091	0.1	7295.9
27699	9.1429e-002	2.9091	0.1	7638.
27700	0.18286	3.1818	0.1	7327.9
27701	0.27429	3.0909	0.1	7295.9
27702	9.1429e-002	3.0909	0.1	7638.
27703	0.18286	3.3636	0.1	7311.6
27704	0.27429	3.2727	0.1	7284.6
27705	9.1429e-002	3.2727	0.1	7627.9
27706	0.18286	3.5455	0.1	7283.7
27707	0.27429	3.4545	0.1	7261.7
27708	9.1429e-002	3.4545	0.1	7607.2
27709	0.18286	3.7273	0.1	7242.9
27710	0.27429	3.6364	0.1	7226.
27711	9.1429e-002	3.6364	0.1	7574.9
27712	0.18286	3.9091	0.1	7187.2
27713	0.27429	3.8182	0.1	7176.3
27714	9.1429e-002	3.8182	0.1	7529.4
27715	0.18286	4.0909	0.1	7114.
27716	0.27429	4.	0.1	7110.2
27717	9.1429e-002	4.	0.1	7468.5
27718	0.18286	4.2727	0.1	7019.3
27719	0.27429	4.1818	0.1	7024.9
27720	9.1429e-002	4.1818	0.1	7388.8
27721	0.18286	4.4545	0.1	6897.7
27722	0.27429	4.3636	0.1	6916.2
27723	9.1429e-002	4.3636	0.1	7285.8
27724	0.18286	4.6364	0.1	6741.8
27725	0.27429	4.5455	0.1	6778.8
27726	9.1429e-002	4.5455	0.1	7152.8
27727	0.18286	4.8182	0.1	6540.4
27728	0.27429	4.7273	0.1	6605.4
27729	9.1429e-002	4.7273	0.1	6980.5
27730	0.18286	5.	0.1	6277.9
27731	0.27429	4.9091	0.1	6386.1
27732	9.1429e-002	4.9091	0.1	6754.7
27733	0.18286	5.1818	0.1	5930.3
27734	0.27429	5.0909	0.1	6108.6
27735	9.1429e-002	5.0909	0.1	6453.2
27736	0.18286	5.3636	0.1	5466.
27737	0.27429	5.2727	0.1	5758.7
27738	9.1429e-002	5.2727	0.1	6039.7
27739	0.18286	5.5455	0.1	4849.3
27740	0.27429	5.4545	0.1	5328.9
27741	9.1429e-002	5.4545	0.1	5450.2
27742	0.18286	5.7273	0.1	4189.1
27743	0.27429	5.6364	0.1	4836.3
27744	9.1429e-002	5.6364	0.1	4571.5
27745	0.27429	5.8182	0.1	4469.1
27746	9.1429e-002	5.8182	0.1	3212.4
27747	0.18286	5.9091	0.1	3700.1
27748	0.36571	0.27273	0.1	5101.1
27749	0.45714	0.18182	0.1	5282.7
27750	0.36571	9.0909e-002	0.1	4882.3
27751	0.36571	0.45455	0.1	5315.7
27752	0.45714	0.36364	0.1	5349.2
27753	0.36571	0.63636	0.1	5628.6
27754	0.45714	0.54545	0.1	5554.5
27755	0.36571	0.81818	0.1	5943.5
27756	0.45714	0.72727	0.1	5801.4
27757	0.36571	1.	0.1	6221.4
27758	0.45714	0.90909	0.1	6044.3
27759	0.36571	1.1818	0.1	6453.9
27760	0.45714	1.0909	0.1	6262.8
27761	0.36571	1.3636	0.1	6644.3
27762	0.45714	1.2727	0.1	6450.4
27763	0.36571	1.5455	0.1	6798.5
27764	0.45714	1.4545	0.1	6607.8
27765	0.36571	1.7273	0.1	6922.5
27766	0.45714	1.6364	0.1	6737.8
27767	0.36571	1.9091	0.1	7021.5
27768	0.45714	1.8182	0.1	6843.9
27769	0.36571	2.0909	0.1	7099.5
27770	0.45714	2.	0.1	6929.1
27771	0.36571	2.2727	0.1	7159.5
27772	0.45714	2.1818	0.1	6996.3
27773	0.36571	2.4545	0.1	7204.
27774	0.45714	2.3636	0.1	7047.6
27775	0.36571	2.6364	0.1	7234.7
27776	0.45714	2.5455	0.1	7084.7
27777	0.36571	2.8182	0.1	7252.6
27778	0.45714	2.7273	0.1	7108.8
27779	0.36571	3.	0.1	7258.5
27780	0.45714	2.9091	0.1	7120.6
27781	0.36571	3.1818	0.1	7252.6
27782	0.45714	3.0909	0.1	7120.6
27783	0.36571	3.3636	0.1	7234.7
27784	0.45714	3.2727	0.1	7108.8
27785	0.36571	3.5455	0.1	7204.
27786	0.45714	3.4545	0.1	7084.7
27787	0.36571	3.7273	0.1	7159.5
27788	0.45714	3.6364	0.1	7047.6
27789	0.36571	3.9091	0.1	7099.5
27790	0.45714	3.8182	0.1	6996.3
27791	0.36571	4.0909	0.1	7021.5
27792	0.45714	4.	0.1	6929.1
27793	0.36571	4.2727	0.1	6922.5
27794	0.45714	4.1818	0.1	6843.9
27795	0.36571	4.4545	0.1	6798.5
27796	0.45714	4.3636	0.1	6737.8
27797	0.36571	4.6364	0.1	6644.3
27798	0.45714	4.5455	0.1	6607.8
27799	0.36571	4.8182	0.1	6453.9
27800	0.45714	4.7273	0.1	6450.4
27801	0.36571	5.	0.1	6221.4
27802	0.45714	4.9091	0.1	6262.8
27803	0.36571	5.1818	0.1	5943.5
27804	0.45714	5.0909	0.1	6044.3
27805	0.36571	5.3636	0.1	5628.6
27806	0.45714	5.2727	0.1	5801.4
27807	0.36571	5.5455	0.1	5315.7
27808	0.45714	5.4545	0.1	5554.5
27809	0.36571	5.7273	0.1	5101.1
27810	0.45714	5.6364	0.1	5349.2
27811	0.45714	5.8182	0.1	5282.7
27812	0.36571	5.9091	0.1	4882.3
27813	0.54857	0.27273	0.1	5529.
27814	0.64	0.18182	0.1	5672.3
27815	0.54857	9.0909e-002	0.1	5421.4
27816	0.54857	0.45455	0.1	5584.1
27817	0.64	0.36364	0.1	5650.
27818	0.54857	0.63636	0.1	5724.2
27819	0.64	0.54545	0.1	5726.7
27820	0.54857	0.81818	0.1	5901.2
27821	0.64	0.72727	0.1	5850.4
27822	0.54857	1.	0.1	6085.9
27823	0.64	0.90909	0.1	5997.1
27824	0.54857	1.1818	0.1	6259.9
27825	0.64	1.0909	0.1	6147.6
27826	0.54857	1.3636	0.1	6414.6
27827	0.64	1.2727	0.1	6289.8
27828	0.54857	1.5455	0.1	6547.7
27829	0.64	1.4545	0.1	6417.7
27830	0.54857	1.7273	0.1	6659.5
27831	0.64	1.6364	0.1	6528.8
27832	0.54857	1.9091	0.1	6751.7
27833	0.64	1.8182	0.1	6623.1
27834	0.54857	2.0909	0.1	6826.1
27835	0.64	2.	0.1	6701.1
27836	0.54857	2.2727	0.1	6884.4
27837	0.64	2.1818	0.1	6764.
27838	0.54857	2.4545	0.1	6928.3
27839	0.64	2.3636	0.1	6812.8
27840	0.54857	2.6364	0.1	6958.8
27841	0.64	2.5455	0.1	6848.5
27842	0.54857	2.8182	0.1	6976.7
27843	0.64	2.7273	0.1	6871.9
27844	0.54857	3.	0.1	6982.6
27845	0.64	2.9091	0.1	6883.4
27846	0.54857	3.1818	0.1	6976.7
27847	0.64	3.0909	0.1	6883.4
27848	0.54857	3.3636	0.1	6958.8
27849	0.64	3.2727	0.1	6871.9
27850	0.54857	3.5455	0.1	6928.3
27851	0.64	3.4545	0.1	6848.5
27852	0.54857	3.7273	0.1	6884.4
27853	0.64	3.6364	0.1	6812.8
27854	0.54857	3.9091	0.1	6826.1
27855	0.64	3.8182	0.1	6764.
27856	0.54857	4.0909	0.1	6751.7
27857	0.64	4.	0.1	6701.1
27858	0.54857	4.2727	0.1	6659.5
27859	0.64	4.1818	0.1	6623.1
27860	0.54857	4.4545	0.1	6547.7
27861	0.64	4.3636	0.1	6528.8
27862	0.54857	4.6364	0.1	6414.6
27863	0.64	4.5455	0.1	6417.7
27864	0.54857	4.8182	0.1	6259.9
27865	0.64	4.7273	0.1	6289.8
27866	0.54857	5.	0.1	6085.9
27867	0.64	4.9091	0.1	6147.6
27868	0.54857	5.1818	0.1	5901.2
27869	0.64	5.0909	0.1	5997.1
27870	0.54857	5.3636	0.1	5724.2
27871	0.64	5.2727	0.1	5850.4
27872	0.54857	5.5455	0.1	5584.1
27873	0.64	5.4545	0.1	5726.7
27874	0.54857	5.7273	0.1	5529.
27875	0.64	5.6364	0.1	5650.
27876	0.64	5.8182	0.1	5672.3
27877	0.54857	5.9091	0.1	5421.4
27878	0.73143	0.27273	0.1	5793.2
27879	0.82286	0.18182	0.1	5889.6
27880	0.73143	9.0909e-002	0.1	5728.7
27881	0.73143	0.45455	0.1	5791.7
27882	0.82286	0.36364	0.1	5840.9
27883	0.73143	0.63636	0.1	5851.
27884	0.82286	0.54545	0.1	5861.8
27885	0.73143	0.81818	0.1	5944.7
27886	0.82286	0.72727	0.1	5918.5
27887	0.73143	1.	0.1	6058.
27888	0.82286	0.90909	0.1	6000.3
27889	0.73143	1.1818	0.1	6177.2
27890	0.82286	1.0909	0.1	6095.9
27891	0.73143	1.3636	0.1	6292.8
27892	0.82286	1.2727	0.1	6195.2
27893	0.73143	1.5455	0.1	6398.9
27894	0.82286	1.4545	0.1	6291.4
27895	0.73143	1.7273	0.1	6492.5
27896	0.82286	1.6364	0.1	6379.7
27897	0.73143	1.9091	0.1	6572.5
27898	0.82286	1.8182	0.1	6457.9
27899	0.73143	2.0909	0.1	6639.
27900	0.82286	2.	0.1	6524.8
27901	0.73143	2.2727	0.1	6692.3
27902	0.82286	2.1818	0.1	6580.1
27903	0.73143	2.4545	0.1	6733.
27904	0.82286	2.3636	0.1	6623.9
27905	0.73143	2.6364	0.1	6761.6
27906	0.82286	2.5455	0.1	6656.4
27907	0.73143	2.8182	0.1	6778.5
27908	0.82286	2.7273	0.1	6677.8
27909	0.73143	3.	0.1	6784.2
27910	0.82286	2.9091	0.1	6688.5
27911	0.73143	3.1818	0.1	6778.5
27912	0.82286	3.0909	0.1	6688.5
27913	0.73143	3.3636	0.1	6761.6
27914	0.82286	3.2727	0.1	6677.8
27915	0.73143	3.5455	0.1	6733.
27916	0.82286	3.4545	0.1	6656.4
27917	0.73143	3.7273	0.1	6692.3
27918	0.82286	3.6364	0.1	6623.9
27919	0.73143	3.9091	0.1	6639.
27920	0.82286	3.8182	0.1	6580.1
27921	0.73143	4.0909	0.1	6572.5
27922	0.82286	4.	0.1	6524.8
27923	0.73143	4.2727	0.1	6492.5
27924	0.82286	4.1818	0.1	6457.9
27925	0.73143	4.4545	0.1	6398.9
27926	0.82286	4.3636	0.1	6379.7
27927	0.73143	4.6364	0.1	6292.8
27928	0.82286	4.5455	0.1	6291.4
27929	0.73143	4.8182	0.1	6177.2
27930	0.82286	4.7273	0.1	6195.2
27931	0.73143	5.	0.1	6058.
27932	0.82286	4.9091	0.1	6095.9
27933	0.73143	5.1818	0.1	5944.7
27934	0.82286	5.0909	0.1	6000.3
27935	0.73143	5.3636	0.1	5851.
27936	0.82286	5.2727	0.1	5918.5
27937	0.73143	5.5455	0.1	5791.7
27938	0.82286	5.4545	0.1	5861.8
27939	0.73143	5.7273	0.1	5793.2
27940	0.82286	5.6364	0.1	5840.9
27941	0.82286	5.8182	0.1	5889.6
27942	0.73143	5.9091	0.1	5728.7
27943	0.91429	0.27273	0.1	5937.8
27944	1.0057	0.18182	0.1	6004.5
27945	0.91429	9.0909e-002	0.1	5898.6
27946	0.91429	0.45455	0.1	5911.2
27947	1.0057	0.36364	0.1	5947.3
27948	0.91429	0.63636	0.1	5928.6
27949	1.0057	0.54545	0.1	5941.2
27950	0.91429	0.81818	0.1	5973.
27951	1.0057	0.72727	0.1	5960.8
27952	0.91429	1.	0.1	6037.2
27953	1.0057	0.90909	0.1	6001.6
27954	0.91429	1.1818	0.1	6113.1
27955	1.0057	1.0909	0.1	6057.5
27956	0.91429	1.3636	0.1	6193.3
27957	1.0057	1.2727	0.1	6122.1
27958	0.91429	1.5455	0.1	6271.9
27959	1.0057	1.4545	0.1	6189.5
27960	0.91429	1.7273	0.1	6345.
27961	1.0057	1.6364	0.1	6255.2
27962	0.91429	1.9091	0.1	6410.1
27963	1.0057	1.8182	0.1	6316.1
27964	0.91429	2.0909	0.1	6465.9
27965	1.0057	2.	0.1	6370.2
27966	0.91429	2.2727	0.1	6511.6
27967	1.0057	2.1818	0.1	6416.
27968	0.91429	2.4545	0.1	6547.2
27969	1.0057	2.3636	0.1	6453.1
27970	0.91429	2.6364	0.1	6572.5
27971	1.0057	2.5455	0.1	6481.1
27972	0.91429	2.8182	0.1	6587.7
27973	1.0057	2.7273	0.1	6499.7
27974	0.91429	3.	0.1	6592.7
27975	1.0057	2.9091	0.1	6509.1
27976	0.91429	3.1818	0.1	6587.7
27977	1.0057	3.0909	0.1	6509.1
27978	0.91429	3.3636	0.1	6572.5
27979	1.0057	3.2727	0.1	6499.7
27980	0.91429	3.5455	0.1	6547.2
27981	1.0057	3.4545	0.1	6481.1
27982	0.91429	3.7273	0.1	6511.6
27983	1.0057	3.6364	0.1	6453.1
27984	0.91429	3.9091	0.1	6465.9
27985	1.0057	3.8182	0.1	6416.
27986	0.91429	4.0909	0.1	6410.1
27987	1.0057	4.	0.1	6370.2
27988	0.91429	4.2727	0.1	6345.
27989	1.0057	4.1818	0.1	6316.1
27990	0.91429	4.4545	0.1	6271.9
27991	1.0057	4.3636	0.1	6255.2
27992	0.91429	4.6364	0.1	6193.3
27993	1.0057	4.5455	0.1	6189.5
27994	0.91429	4.8182	0.1	6113.1
27995	1.0057	4.7273	0.1	6122.1
27996	0.91429	5.	0.1	6037.2
27997	1.0057	4.9091	0.1	6057.5
27998	0.91429	5.1818	0.1	5973.
27999	1.0057	5.0909	0.1	6001.6
28000	0.91429	5.3636	0.1	5928.6
28001	1.0057	5.2727	0.1	5960.8
28002	0.91429	5.5455	0.1	5911.2
28003	1.0057	5.4545	0.1	5941.2
28004	0.91429	5.7273	0.1	5937.8
28005	1.0057	5.6364	0.1	5947.3
28006	1.0057	5.8182	0.1	6004.5
28007	0.91429	5.9091	0.1	5898.6
28008	1.0971	0.27273	0.1	6014.5
28009	1.1886	0.18182	0.1	6058.8
28010	1.0971	9.0909e-002	0.1	5990.6
28011	1.0971	0.45455	0.1	5977.7
28012	1.1886	0.36364	0.1	6000.7
28013	1.0971	0.63636	0.1	5973.3
28014	1.1886	0.54545	0.1	5981.2
28015	1.0971	0.81818	0.1	5988.9
28016	1.1886	0.72727	0.1	5980.2
28017	1.0971	1.	0.1	6021.2
28018	1.1886	0.90909	0.1	5995.7
28019	1.0971	1.1818	0.1	6065.8
28020	1.1886	1.0909	0.1	6024.6
28021	1.0971	1.3636	0.1	6117.7
28022	1.1886	1.2727	0.1	6063.1
28023	1.0971	1.5455	0.1	6172.4
28024	1.1886	1.4545	0.1	6107.2
28025	1.0971	1.7273	0.1	6226.1
28026	1.1886	1.6364	0.1	6153.
28027	1.0971	1.9091	0.1	6276.
28028	1.1886	1.8182	0.1	6197.7
28029	1.0971	2.0909	0.1	6320.1
28030	1.1886	2.	0.1	6238.8
28031	1.0971	2.2727	0.1	6357.3
28032	1.1886	2.1818	0.1	6274.8
28033	1.0971	2.4545	0.1	6386.8
28034	1.1886	2.3636	0.1	6304.6
28035	1.0971	2.6364	0.1	6408.1
28036	1.1886	2.5455	0.1	6327.4
28037	1.0971	2.8182	0.1	6420.9
28038	1.1886	2.7273	0.1	6342.8
28039	1.0971	3.	0.1	6425.2
28040	1.1886	2.9091	0.1	6350.6
28041	1.0971	3.1818	0.1	6420.9
28042	1.1886	3.0909	0.1	6350.6
28043	1.0971	3.3636	0.1	6408.1
28044	1.1886	3.2727	0.1	6342.8
28045	1.0971	3.5455	0.1	6386.8
28046	1.1886	3.4545	0.1	6327.4
28047	1.0971	3.7273	0.1	6357.3
28048	1.1886	3.6364	0.1	6304.6
28049	1.0971	3.9091	0.1	6320.1
28050	1.1886	3.8182	0.1	6274.8
28051	1.0971	4.0909	0.1	6276.
28052	1.1886	4.	0.1	6238.8
28053	1.0971	4.2727	0.1	6226.1
28054	1.1886	4.1818	0.1	6197.7
28055	1.0971	4.4545	0.1	6172.4
28056	1.1886	4.3636	0.1	6153.
28057	1.0971	4.6364	0.1	6117.7
28058	1.1886	4.5455	0.1	6107.2
28059	1.0971	4.8182	0.1	6065.8
28060	1.1886	4.7273	0.1	6063.1
28061	1.0971	5.	0.1	6021.2
28062	1.1886	4.9091	0.1	6024.6
28063	1.0971	5.1818	0.1	5988.9
28064	1.1886	5.0909	0.1	5995.7
28065	1.0971	5.3636	0.1	5973.3
28066	1.1886	5.2727	0.1	5980.2
28067	1.0971	5.5455	0.1	5977.7
28068	1.1886	5.4545	0.1	5981.2
28069	1.0971	5.7273	0.1	6014.5
28070	1.1886	5.6364	0.1	6000.7
28071	1.1886	5.8182	0.1	6058.8
28072	1.0971	5.9091	0.1	5990.6
28073	1.28	0.27273	0.1	6045.4
28074	1.3714	0.18182	0.1	6073.2
28075	1.28	9.0909e-002	0.1	6031.8
28076	1.28	0.45455	0.1	6004.6
28077	1.3714	0.36364	0.1	6017.2
28078	1.28	0.63636	0.1	5988.3
28079	1.3714	0.54545	0.1	5991.1
28080	1.28	0.81818	0.1	5986.9
28081	1.3714	0.72727	0.1	5978.4
28082	1.28	1.	0.1	5998.7
28083	1.3714	0.90909	0.1	5978.2
28084	1.28	1.1818	0.1	6021.4
28085	1.3714	1.0909	0.1	5989.1
28086	1.28	1.3636	0.1	6052.
28087	1.3714	1.2727	0.1	6009.
28088	1.28	1.5455	0.1	6087.3
28089	1.3714	1.4545	0.1	6035.1
28090	1.28	1.7273	0.1	6124.2
28091	1.3714	1.6364	0.1	6064.7
28092	1.28	1.9091	0.1	6160.2
28093	1.3714	1.8182	0.1	6095.3
28094	1.28	2.0909	0.1	6193.3
28095	1.3714	2.	0.1	6124.7
28096	1.28	2.2727	0.1	6221.9
28097	1.3714	2.1818	0.1	6151.4
28098	1.28	2.4545	0.1	6245.
28099	1.3714	2.3636	0.1	6174.
28100	1.28	2.6364	0.1	6262.
28101	1.3714	2.5455	0.1	6191.7
28102	1.28	2.8182	0.1	6272.3
28103	1.3714	2.7273	0.1	6203.7
28104	1.28	3.	0.1	6275.8
28105	1.3714	2.9091	0.1	6209.9
28106	1.28	3.1818	0.1	6272.3
28107	1.3714	3.0909	0.1	6209.9
28108	1.28	3.3636	0.1	6262.
28109	1.3714	3.2727	0.1	6203.7
28110	1.28	3.5455	0.1	6245.
28111	1.3714	3.4545	0.1	6191.7
28112	1.28	3.7273	0.1	6221.9
28113	1.3714	3.6364	0.1	6174.
28114	1.28	3.9091	0.1	6193.3
28115	1.3714	3.8182	0.1	6151.4
28116	1.28	4.0909	0.1	6160.2
28117	1.3714	4.	0.1	6124.7
28118	1.28	4.2727	0.1	6124.2
28119	1.3714	4.1818	0.1	6095.3
28120	1.28	4.4545	0.1	6087.3
28121	1.3714	4.3636	0.1	6064.7
28122	1.28	4.6364	0.1	6052.
28123	1.3714	4.5455	0.1	6035.1
28124	1.28	4.8182	0.1	6021.4
28125	1.3714	4.7273	0.1	6009.
28126	1.28	5.	0.1	5998.7
28127	1.3714	4.9091	0.1	5989.1
28128	1.28	5.1818	0.1	5986.9
28129	1.3714	5.0909	0.1	5978.2
28130	1.28	5.3636	0.1	5988.3
28131	1.3714	5.2727	0.1	5978.4
28132	1.28	5.5455	0.1	6004.6
28133	1.3714	5.4545	0.1	5991.1
28134	1.28	5.7273	0.1	6045.4
28135	1.3714	5.6364	0.1	6017.2
28136	1.3714	5.8182	0.1	6073.2
28137	1.28	5.9091	0.1	6031.8
28138	1.4629	0.27273	0.1	6045.4
28139	1.5543	0.18182	0.1	6060.8
28140	1.4629	9.0909e-002	0.1	6039.2
28141	1.4629	0.45455	0.1	6004.1
28142	1.5543	0.36364	0.1	6008.2
28143	1.4629	0.63636	0.1	5981.4
28144	1.5543	0.54545	0.1	5979.
28145	1.4629	0.81818	0.1	5969.8
28146	1.5543	0.72727	0.1	5959.8
28147	1.4629	1.	0.1	5968.5
28148	1.5543	0.90909	0.1	5950.1
28149	1.4629	1.1818	0.1	5976.4
28150	1.5543	1.0909	0.1	5949.2
28151	1.4629	1.3636	0.1	5991.6
28152	1.5543	1.2727	0.1	5956.
28153	1.4629	1.5455	0.1	6012.
28154	1.5543	1.4545	0.1	5968.9
28155	1.4629	1.7273	0.1	6035.3
28156	1.5543	1.6364	0.1	5985.8
28157	1.4629	1.9091	0.1	6059.4
28158	1.5543	1.8182	0.1	6005.
28159	1.4629	2.0909	0.1	6082.6
28160	1.5543	2.	0.1	6024.5
28161	1.4629	2.2727	0.1	6103.3
28162	1.5543	2.1818	0.1	6042.9
28163	1.4629	2.4545	0.1	6120.4
28164	1.5543	2.3636	0.1	6059.1
28165	1.4629	2.6364	0.1	6133.2
28166	1.5543	2.5455	0.1	6071.9
28167	1.4629	2.8182	0.1	6141.
28168	1.5543	2.7273	0.1	6080.8
28169	1.4629	3.	0.1	6143.7
28170	1.5543	2.9091	0.1	6085.4
28171	1.4629	3.1818	0.1	6141.
28172	1.5543	3.0909	0.1	6085.4
28173	1.4629	3.3636	0.1	6133.2
28174	1.5543	3.2727	0.1	6080.8
28175	1.4629	3.5455	0.1	6120.4
28176	1.5543	3.4545	0.1	6071.9
28177	1.4629	3.7273	0.1	6103.3
28178	1.5543	3.6364	0.1	6059.1
28179	1.4629	3.9091	0.1	6082.6
28180	1.5543	3.8182	0.1	6042.9
28181	1.4629	4.0909	0.1	6059.4
28182	1.5543	4.	0.1	6024.5
28183	1.4629	4.2727	0.1	6035.3
28184	1.5543	4.1818	0.1	6005.
28185	1.4629	4.4545	0.1	6012.
28186	1.5543	4.3636	0.1	5985.8
28187	1.4629	4.6364	0.1	5991.6
28188	1.5543	4.5455	0.1	5968.9
28189	1.4629	4.8182	0.1	5976.4
28190	1.5543	4.7273	0.1	5956.
28191	1.4629	5.	0.1	5968.5
28192	1.5543	4.9091	0.1	5949.2
28193	1.4629	5.1818	0.1	5969.8
28194	1.5543	5.0909	0.1	5950.1
28195	1.4629	5.3636	0.1	5981.4
28196	1.5543	5.2727	0.1	5959.8
28197	1.4629	5.5455	0.1	6004.1
28198	1.5543	5.4545	0.1	5979.
28199	1.4629	5.7273	0.1	6045.4
28200	1.5543	5.6364	0.1	6008.2
28201	1.5543	5.8182	0.1	6060.8
28202	1.4629	5.9091	0.1	6039.2
28203	1.6457	0.27273	0.1	6023.9
28204	1.7371	0.18182	0.1	6029.6
28205	1.6457	9.0909e-002	0.1	6023.
28206	1.6457	0.45455	0.1	5983.5
28207	1.7371	0.36364	0.1	5980.8
28208	1.6457	0.63636	0.1	5957.7
28209	1.7371	0.54545	0.1	5950.8
28210	1.6457	0.81818	0.1	5940.2
28211	1.7371	0.72727	0.1	5928.1
28212	1.6457	1.	0.1	5930.7
28213	1.7371	0.90909	0.1	5912.7
28214	1.6457	1.1818	0.1	5928.7
28215	1.7371	1.0909	0.1	5904.3
28216	1.6457	1.3636	0.1	5933.
28217	1.7371	1.2727	0.1	5902.3
28218	1.6457	1.5455	0.1	5942.4
28219	1.7371	1.4545	0.1	5905.7
28220	1.6457	1.7273	0.1	5955.1
28221	1.7371	1.6364	0.1	5913.3
28222	1.6457	1.9091	0.1	5969.7
28223	1.7371	1.8182	0.1	5923.5
28224	1.6457	2.0909	0.1	5984.6
28225	1.7371	2.	0.1	5935.
28226	1.6457	2.2727	0.1	5998.4
28227	1.7371	2.1818	0.1	5946.6
28228	1.6457	2.4545	0.1	6010.3
28229	1.7371	2.3636	0.1	5957.2
28230	1.6457	2.6364	0.1	6019.3
28231	1.7371	2.5455	0.1	5965.9
28232	1.6457	2.8182	0.1	6024.9
28233	1.7371	2.7273	0.1	5972.
28234	1.6457	3.	0.1	6026.8
28235	1.7371	2.9091	0.1	5975.2
28236	1.6457	3.1818	0.1	6024.9
28237	1.7371	3.0909	0.1	5975.2
28238	1.6457	3.3636	0.1	6019.3
28239	1.7371	3.2727	0.1	5972.
28240	1.6457	3.5455	0.1	6010.3
28241	1.7371	3.4545	0.1	5965.9
28242	1.6457	3.7273	0.1	5998.4
28243	1.7371	3.6364	0.1	5957.2
28244	1.6457	3.9091	0.1	5984.6
28245	1.7371	3.8182	0.1	5946.6
28246	1.6457	4.0909	0.1	5969.7
28247	1.7371	4.	0.1	5935.
28248	1.6457	4.2727	0.1	5955.1
28249	1.7371	4.1818	0.1	5923.5
28250	1.6457	4.4545	0.1	5942.4
28251	1.7371	4.3636	0.1	5913.3
28252	1.6457	4.6364	0.1	5933.
28253	1.7371	4.5455	0.1	5905.7
28254	1.6457	4.8182	0.1	5928.7
28255	1.7371	4.7273	0.1	5902.3
28256	1.6457	5.	0.1	5930.7
28257	1.7371	4.9091	0.1	5904.3
28258	1.6457	5.1818	0.1	5940.2
28259	1.7371	5.0909	0.1	5912.7
28260	1.6457	5.3636	0.1	5957.7
28261	1.7371	5.2727	0.1	5928.1
28262	1.6457	5.5455	0.1	5983.5
28263	1.7371	5.4545	0.1	5950.8
28264	1.6457	5.7273	0.1	6023.9
28265	1.7371	5.6364	0.1	5980.8
28266	1.7371	5.8182	0.1	6029.6
28267	1.6457	5.9091	0.1	6023.
28268	1.8286	0.27273	0.1	5986.8
28269	1.92	0.18182	0.1	5984.8
28270	1.8286	9.0909e-002	0.1	5989.8
28271	1.8286	0.45455	0.1	5948.4
28272	1.92	0.36364	0.1	5940.
28273	1.8286	0.63636	0.1	5921.4
28274	1.92	0.54545	0.1	5910.4
28275	1.8286	0.81818	0.1	5900.8
28276	1.92	0.72727	0.1	5886.3
28277	1.8286	1.	0.1	5886.4
28278	1.92	0.90909	0.1	5867.8
28279	1.8286	1.1818	0.1	5877.9
28280	1.92	1.0909	0.1	5854.9
28281	1.8286	1.3636	0.1	5874.9
28282	1.92	1.2727	0.1	5847.2
28283	1.8286	1.5455	0.1	5876.3
28284	1.92	1.4545	0.1	5844.2
28285	1.8286	1.7273	0.1	5881.3
28286	1.92	1.6364	0.1	5844.9
28287	1.8286	1.9091	0.1	5888.5
28288	1.92	1.8182	0.1	5848.6
28289	1.8286	2.0909	0.1	5896.8
28290	1.92	2.	0.1	5854.
28291	1.8286	2.2727	0.1	5905.1
28292	1.92	2.1818	0.1	5860.3
28293	1.8286	2.4545	0.1	5912.5
28294	1.92	2.3636	0.1	5866.4
28295	1.8286	2.6364	0.1	5918.3
28296	1.92	2.5455	0.1	5871.6
28297	1.8286	2.8182	0.1	5922.
28298	1.92	2.7273	0.1	5875.5
28299	1.8286	3.	0.1	5923.3
28300	1.92	2.9091	0.1	5877.5
28301	1.8286	3.1818	0.1	5922.
28302	1.92	3.0909	0.1	5877.5
28303	1.8286	3.3636	0.1	5918.3
28304	1.92	3.2727	0.1	5875.5
28305	1.8286	3.5455	0.1	5912.5
28306	1.92	3.4545	0.1	5871.6
28307	1.8286	3.7273	0.1	5905.1
28308	1.92	3.6364	0.1	5866.4
28309	1.8286	3.9091	0.1	5896.8
28310	1.92	3.8182	0.1	5860.3
28311	1.8286	4.0909	0.1	5888.5
28312	1.92	4.	0.1	5854.
28313	1.8286	4.2727	0.1	5881.3
28314	1.92	4.1818	0.1	5848.6
28315	1.8286	4.4545	0.1	5876.3
28316	1.92	4.3636	0.1	5844.9
28317	1.8286	4.6364	0.1	5874.9
28318	1.92	4.5455	0.1	5844.2
28319	1.8286	4.8182	0.1	5877.9
28320	1.92	4.7273	0.1	5847.2
28321	1.8286	5.	0.1	5886.4
28322	1.92	4.9091	0.1	5854.9
28323	1.8286	5.1818	0.1	5900.8
28324	1.92	5.0909	0.1	5867.8
28325	1.8286	5.3636	0.1	5921.4
28326	1.92	5.2727	0.1	5886.3
28327	1.8286	5.5455	0.1	5948.4
28328	1.92	5.4545	0.1	5910.4
28329	1.8286	5.7273	0.1	5986.8
28330	1.92	5.6364	0.1	5940.
28331	1.92	5.8182	0.1	5984.8
28332	1.8286	5.9091	0.1	5989.8
28333	2.0114	0.27273	0.1	5938.3
28334	2.1029	0.18182	0.1	5930.
28335	2.0114	9.0909e-002	0.1	5944.
28336	2.0114	0.45455	0.1	5902.3
28337	2.1029	0.36364	0.1	5889.2
28338	2.0114	0.63636	0.1	5875.5
28339	2.1029	0.54545	0.1	5860.8
28340	2.0114	0.81818	0.1	5853.6
28341	2.1029	0.72727	0.1	5836.7
28342	2.0114	1.	0.1	5836.5
28343	2.1029	0.90909	0.1	5816.9
28344	2.0114	1.1818	0.1	5824.2
28345	2.1029	1.0909	0.1	5801.6
28346	2.0114	1.3636	0.1	5816.4
28347	2.1029	1.2727	0.1	5790.5
28348	2.0114	1.5455	0.1	5812.6
28349	2.1029	1.4545	0.1	5783.4
28350	2.0114	1.7273	0.1	5812.
28351	2.1029	1.6364	0.1	5779.7
28352	2.0114	1.9091	0.1	5813.9
28353	2.1029	1.8182	0.1	5778.7
28354	2.0114	2.0909	0.1	5817.2
28355	2.1029	2.	0.1	5779.8
28356	2.0114	2.2727	0.1	5821.3
28357	2.1029	2.1818	0.1	5782.1
28358	2.0114	2.4545	0.1	5825.2
28359	2.1029	2.3636	0.1	5784.9
28360	2.0114	2.6364	0.1	5828.5
28361	2.1029	2.5455	0.1	5787.5
28362	2.0114	2.8182	0.1	5830.7
28363	2.1029	2.7273	0.1	5789.6
28364	2.0114	3.	0.1	5831.4
28365	2.1029	2.9091	0.1	5790.7
28366	2.0114	3.1818	0.1	5830.7
28367	2.1029	3.0909	0.1	5790.7
28368	2.0114	3.3636	0.1	5828.5
28369	2.1029	3.2727	0.1	5789.6
28370	2.0114	3.5455	0.1	5825.2
28371	2.1029	3.4545	0.1	5787.5
28372	2.0114	3.7273	0.1	5821.3
28373	2.1029	3.6364	0.1	5784.9
28374	2.0114	3.9091	0.1	5817.2
28375	2.1029	3.8182	0.1	5782.1
28376	2.0114	4.0909	0.1	5813.9
28377	2.1029	4.	0.1	5779.8
28378	2.0114	4.2727	0.1	5812.
28379	2.1029	4.1818	0.1	5778.7
28380	2.0114	4.4545	0.1	5812.6
28381	2.1029	4.3636	0.1	5779.7
28382	2.0114	4.6364	0.1	5816.4
28383	2.1029	4.5455	0.1	5783.4
28384	2.0114	4.8182	0.1	5824.2
28385	2.1029	4.7273	0.1	5790.5
28386	2.0114	5.	0.1	5836.5
28387	2.1029	4.9091	0.1	5801.6
28388	2.0114	5.1818	0.1	5853.6
28389	2.1029	5.0909	0.1	5816.9
28390	2.0114	5.3636	0.1	5875.5
28391	2.1029	5.2727	0.1	5836.7
28392	2.0114	5.5455	0.1	5902.3
28393	2.1029	5.4545	0.1	5860.8
28394	2.0114	5.7273	0.1	5938.3
28395	2.1029	5.6364	0.1	5889.2
28396	2.1029	5.8182	0.1	5930.
28397	2.0114	5.9091	0.1	5944.
28398	2.1943	0.27273	0.1	5881.1
28399	2.2857	0.18182	0.1	5867.3
28400	2.1943	9.0909e-002	0.1	5888.5
28401	2.1943	0.45455	0.1	5847.9
28402	2.2857	0.36364	0.1	5830.6
28403	2.1943	0.63636	0.1	5822.1
28404	2.2857	0.54545	0.1	5804.
28405	2.1943	0.81818	0.1	5800.2
28406	2.2857	0.72727	0.1	5780.8
28407	2.1943	1.	0.1	5782.1
28408	2.2857	0.90909	0.1	5761.2
28409	2.1943	1.1818	0.1	5767.9
28410	2.2857	1.0909	0.1	5745.
28411	2.1943	1.3636	0.1	5757.4
28412	2.2857	1.2727	0.1	5732.3
28413	2.1943	1.5455	0.1	5750.4
28414	2.2857	1.4545	0.1	5723.
28415	2.1943	1.7273	0.1	5746.2
28416	2.2857	1.6364	0.1	5716.7
28417	2.1943	1.9091	0.1	5744.5
28418	2.2857	1.8182	0.1	5712.9
28419	2.1943	2.0909	0.1	5744.4
28420	2.2857	2.	0.1	5711.2
28421	2.1943	2.2727	0.1	5745.4
28422	2.2857	2.1818	0.1	5710.8
28423	2.1943	2.4545	0.1	5746.9
28424	2.2857	2.3636	0.1	5711.3
28425	2.1943	2.6364	0.1	5748.3
28426	2.2857	2.5455	0.1	5712.1
28427	2.1943	2.8182	0.1	5749.3
28428	2.2857	2.7273	0.1	5712.9
28429	2.1943	3.	0.1	5749.7
28430	2.2857	2.9091	0.1	5713.4
28431	2.1943	3.1818	0.1	5749.3
28432	2.2857	3.0909	0.1	5713.4
28433	2.1943	3.3636	0.1	5748.3
28434	2.2857	3.2727	0.1	5712.9
28435	2.1943	3.5455	0.1	5746.9
28436	2.2857	3.4545	0.1	5712.1
28437	2.1943	3.7273	0.1	5745.4
28438	2.2857	3.6364	0.1	5711.3
28439	2.1943	3.9091	0.1	5744.4
28440	2.2857	3.8182	0.1	5710.8
28441	2.1943	4.0909	0.1	5744.5
28442	2.2857	4.	0.1	5711.2
28443	2.1943	4.2727	0.1	5746.2
28444	2.2857	4.1818	0.1	5712.9
28445	2.1943	4.4545	0.1	5750.4
28446	2.2857	4.3636	0.1	5716.7
28447	2.1943	4.6364	0.1	5757.4
28448	2.2857	4.5455	0.1	5723.
28449	2.1943	4.8182	0.1	5767.9
28450	2.2857	4.7273	0.1	5732.3
28451	2.1943	5.	0.1	5782.1
28452	2.2857	4.9091	0.1	5745.
28453	2.1943	5.1818	0.1	5800.2
28454	2.2857	5.0909	0.1	5761.2
28455	2.1943	5.3636	0.1	5822.1
28456	2.2857	5.2727	0.1	5780.8
28457	2.1943	5.5455	0.1	5847.9
28458	2.2857	5.4545	0.1	5804.
28459	2.1943	5.7273	0.1	5881.1
28460	2.2857	5.6364	0.1	5830.6
28461	2.2857	5.8182	0.1	5867.3
28462	2.1943	5.9091	0.1	5888.5
28463	2.3771	0.27273	0.1	5817.
28464	2.4686	0.18182	0.1	5798.4
28465	2.3771	9.0909e-002	0.1	5825.3
28466	2.3771	0.45455	0.1	5786.8
28467	2.4686	0.36364	0.1	5765.6
28468	2.3771	0.63636	0.1	5762.9
28469	2.4686	0.54545	0.1	5741.4
28470	2.3771	0.81818	0.1	5741.9
28471	2.4686	0.72727	0.1	5720.
28472	2.3771	1.	0.1	5724.1
28473	2.4686	0.90909	0.1	5701.4
28474	2.3771	1.1818	0.1	5709.5
28475	2.4686	1.0909	0.1	5685.8
28476	2.3771	1.3636	0.1	5697.9
28477	2.4686	1.2727	0.1	5673.
28478	2.3771	1.5455	0.1	5689.3
28479	2.4686	1.4545	0.1	5663.
28480	2.3771	1.7273	0.1	5683.3
28481	2.4686	1.6364	0.1	5655.6
28482	2.3771	1.9091	0.1	5679.5
28483	2.4686	1.8182	0.1	5650.5
28484	2.3771	2.0909	0.1	5677.3
28485	2.4686	2.	0.1	5647.3
28486	2.3771	2.2727	0.1	5676.4
28487	2.4686	2.1818	0.1	5645.5
28488	2.3771	2.4545	0.1	5676.3
28489	2.4686	2.3636	0.1	5644.6
28490	2.3771	2.6364	0.1	5676.5
28491	2.4686	2.5455	0.1	5644.4
28492	2.3771	2.8182	0.1	5676.7
28493	2.4686	2.7273	0.1	5644.4
28494	2.3771	3.	0.1	5676.8
28495	2.4686	2.9091	0.1	5644.5
28496	2.3771	3.1818	0.1	5676.7
28497	2.4686	3.0909	0.1	5644.5
28498	2.3771	3.3636	0.1	5676.5
28499	2.4686	3.2727	0.1	5644.4
28500	2.3771	3.5455	0.1	5676.3
28501	2.4686	3.4545	0.1	5644.4
28502	2.3771	3.7273	0.1	5676.4
28503	2.4686	3.6364	0.1	5644.6
28504	2.3771	3.9091	0.1	5677.3
28505	2.4686	3.8182	0.1	5645.5
28506	2.3771	4.0909	0.1	5679.5
28507	2.4686	4.	0.1	5647.3
28508	2.3771	4.2727	0.1	5683.3
28509	2.4686	4.1818	0.1	5650.5
28510	2.3771	4.4545	0.1	5689.3
28511	2.4686	4.3636	0.1	5655.6
28512	2.3771	4.6364	0.1	5697.9
28513	2.4686	4.5455	0.1	5663.
28514	2.3771	4.8182	0.1	5709.5
28515	2.4686	4.7273	0.1	5673.
28516	2.3771	5.	0.1	5724.1
28517	2.4686	4.9091	0.1	5685.8
28518	2.3771	5.1818	0.1	5741.9
28519	2.4686	5.0909	0.1	5701.4
28520	2.3771	5.3636	0.1	5762.9
28521	2.4686	5.2727	0.1	5720.
28522	2.3771	5.5455	0.1	5786.8
28523	2.4686	5.4545	0.1	5741.4
28524	2.3771	5.7273	0.1	5817.
28525	2.4686	5.6364	0.1	5765.6
28526	2.4686	5.8182	0.1	5798.4
28527	2.3771	5.9091	0.1	5825.3
28528	2.56	0.27273	0.1	5747.1
28529	2.6514	0.18182	0.1	5723.9
28530	2.56	9.0909e-002	0.1	5755.7
28531	2.56	0.45455	0.1	5720.3
28532	2.6514	0.36364	0.1	5695.2
28533	2.56	0.63636	0.1	5698.7
28534	2.6514	0.54545	0.1	5673.8
28535	2.56	0.81818	0.1	5679.6
28536	2.6514	0.72727	0.1	5654.9
28537	2.56	1.	0.1	5663.1
28538	2.6514	0.90909	0.1	5638.3
28539	2.56	1.1818	0.1	5649.3
28540	2.6514	1.0909	0.1	5624.2
28541	2.56	1.3636	0.1	5638.
28542	2.6514	1.2727	0.1	5612.6
28543	2.56	1.5455	0.1	5629.3
28544	2.6514	1.4545	0.1	5603.3
28545	2.56	1.7273	0.1	5622.8
28546	2.6514	1.6364	0.1	5596.2
28547	2.56	1.9091	0.1	5618.2
28548	2.6514	1.8182	0.1	5591.1
28549	2.56	2.0909	0.1	5615.2
28550	2.6514	2.	0.1	5587.6
28551	2.56	2.2727	0.1	5613.5
28552	2.6514	2.1818	0.1	5585.4
28553	2.56	2.4545	0.1	5612.5
28554	2.6514	2.3636	0.1	5584.2
28555	2.56	2.6364	0.1	5612.1
28556	2.6514	2.5455	0.1	5583.7
28557	2.56	2.8182	0.1	5612.
28558	2.6514	2.7273	0.1	5583.4
28559	2.56	3.	0.1	5612.
28560	2.6514	2.9091	0.1	5583.4
28561	2.56	3.1818	0.1	5612.
28562	2.6514	3.0909	0.1	5583.4
28563	2.56	3.3636	0.1	5612.1
28564	2.6514	3.2727	0.1	5583.4
28565	2.56	3.5455	0.1	5612.5
28566	2.6514	3.4545	0.1	5583.7
28567	2.56	3.7273	0.1	5613.5
28568	2.6514	3.6364	0.1	5584.2
28569	2.56	3.9091	0.1	5615.2
28570	2.6514	3.8182	0.1	5585.4
28571	2.56	4.0909	0.1	5618.2
28572	2.6514	4.	0.1	5587.6
28573	2.56	4.2727	0.1	5622.8
28574	2.6514	4.1818	0.1	5591.1
28575	2.56	4.4545	0.1	5629.3
28576	2.6514	4.3636	0.1	5596.2
28577	2.56	4.6364	0.1	5638.
28578	2.6514	4.5455	0.1	5603.3
28579	2.56	4.8182	0.1	5649.3
28580	2.6514	4.7273	0.1	5612.6
28581	2.56	5.	0.1	5663.1
28582	2.6514	4.9091	0.1	5624.2
28583	2.56	5.1818	0.1	5679.6
28584	2.6514	5.0909	0.1	5638.3
28585	2.56	5.3636	0.1	5698.7
28586	2.6514	5.2727	0.1	5654.9
28587	2.56	5.5455	0.1	5720.3
28588	2.6514	5.4545	0.1	5673.8
28589	2.56	5.7273	0.1	5747.1
28590	2.6514	5.6364	0.1	5695.2
28591	2.6514	5.8182	0.1	5723.9
28592	2.56	5.9091	0.1	5755.7
28593	2.7429	0.27273	0.1	5672.1
28594	2.8343	0.18182	0.1	5644.3
28595	2.7429	9.0909e-002	0.1	5680.2
28596	2.7429	0.45455	0.1	5648.8
28597	2.8343	0.36364	0.1	5619.7
28598	2.7429	0.63636	0.1	5630.1
28599	2.8343	0.54545	0.1	5601.6
28600	2.7429	0.81818	0.1	5613.7
28601	2.8343	0.72727	0.1	5585.8
28602	2.7429	1.	0.1	5599.5
28603	2.8343	0.90909	0.1	5572.1
28604	2.7429	1.1818	0.1	5587.5
28605	2.8343	1.0909	0.1	5560.6
28606	2.7429	1.3636	0.1	5577.8
28607	2.8343	1.2727	0.1	5551.2
28608	2.7429	1.5455	0.1	5570.2
28609	2.8343	1.4545	0.1	5543.8
28610	2.7429	1.7273	0.1	5564.4
28611	2.8343	1.6364	0.1	5538.3
28612	2.7429	1.9091	0.1	5560.4
28613	2.8343	1.8182	0.1	5534.4
28614	2.7429	2.0909	0.1	5557.7
28615	2.8343	2.	0.1	5531.9
28616	2.7429	2.2727	0.1	5556.1
28617	2.8343	2.1818	0.1	5530.5
28618	2.7429	2.4545	0.1	5555.2
28619	2.8343	2.3636	0.1	5529.8
28620	2.7429	2.6364	0.1	5554.7
28621	2.8343	2.5455	0.1	5529.5
28622	2.7429	2.8182	0.1	5554.6
28623	2.8343	2.7273	0.1	5529.5
28624	2.7429	3.	0.1	5554.5
28625	2.8343	2.9091	0.1	5529.5
28626	2.7429	3.1818	0.1	5554.6
28627	2.8343	3.0909	0.1	5529.5
28628	2.7429	3.3636	0.1	5554.7
28629	2.8343	3.2727	0.1	5529.5
28630	2.7429	3.5455	0.1	5555.2
28631	2.8343	3.4545	0.1	5529.5
28632	2.7429	3.7273	0.1	5556.1
28633	2.8343	3.6364	0.1	5529.8
28634	2.7429	3.9091	0.1	5557.7
28635	2.8343	3.8182	0.1	5530.5
28636	2.7429	4.0909	0.1	5560.4
28637	2.8343	4.	0.1	5531.9
28638	2.7429	4.2727	0.1	5564.4
28639	2.8343	4.1818	0.1	5534.4
28640	2.7429	4.4545	0.1	5570.2
28641	2.8343	4.3636	0.1	5538.3
28642	2.7429	4.6364	0.1	5577.8
28643	2.8343	4.5455	0.1	5543.8
28644	2.7429	4.8182	0.1	5587.5
28645	2.8343	4.7273	0.1	5551.2
28646	2.7429	5.	0.1	5599.5
28647	2.8343	4.9091	0.1	5560.6
28648	2.7429	5.1818	0.1	5613.7
28649	2.8343	5.0909	0.1	5572.1
28650	2.7429	5.3636	0.1	5630.1
28651	2.8343	5.2727	0.1	5585.8
28652	2.7429	5.5455	0.1	5648.8
28653	2.8343	5.4545	0.1	5601.6
28654	2.7429	5.7273	0.1	5672.1
28655	2.8343	5.6364	0.1	5619.7
28656	2.8343	5.8182	0.1	5644.3
28657	2.7429	5.9091	0.1	5680.2
28658	2.9257	0.27273	0.1	5592.1
28659	3.0171	0.18182	0.1	5559.5
28660	2.9257	9.0909e-002	0.1	5599.
28661	2.9257	0.45455	0.1	5572.6
28662	3.0171	0.36364	0.1	5539.2
28663	2.9257	0.63636	0.1	5557.4
28664	3.0171	0.54545	0.1	5524.8
28665	2.9257	0.81818	0.1	5544.3
28666	3.0171	0.72727	0.1	5512.8
28667	2.9257	1.	0.1	5533.3
28668	3.0171	0.90909	0.1	5502.9
28669	2.9257	1.1818	0.1	5524.3
28670	3.0171	1.0909	0.1	5494.9
28671	2.9257	1.3636	0.1	5517.3
28672	3.0171	1.2727	0.1	5489.
28673	2.9257	1.5455	0.1	5512.
28674	3.0171	1.4545	0.1	5484.7
28675	2.9257	1.7273	0.1	5508.3
28676	3.0171	1.6364	0.1	5482.
28677	2.9257	1.9091	0.1	5505.9
28678	3.0171	1.8182	0.1	5480.6
28679	2.9257	2.0909	0.1	5504.6
28680	3.0171	2.	0.1	5480.2
28681	2.9257	2.2727	0.1	5504.
28682	3.0171	2.1818	0.1	5480.5
28683	2.9257	2.4545	0.1	5503.9
28684	3.0171	2.3636	0.1	5481.1
28685	2.9257	2.6364	0.1	5504.1
28686	3.0171	2.5455	0.1	5481.9
28687	2.9257	2.8182	0.1	5504.2
28688	3.0171	2.7273	0.1	5482.6
28689	2.9257	3.	0.1	5504.3
28690	3.0171	2.9091	0.1	5483.
28691	2.9257	3.1818	0.1	5504.2
28692	3.0171	3.0909	0.1	5483.
28693	2.9257	3.3636	0.1	5504.1
28694	3.0171	3.2727	0.1	5482.6
28695	2.9257	3.5455	0.1	5503.9
28696	3.0171	3.4545	0.1	5481.9
28697	2.9257	3.7273	0.1	5504.
28698	3.0171	3.6364	0.1	5481.1
28699	2.9257	3.9091	0.1	5504.6
28700	3.0171	3.8182	0.1	5480.5
28701	2.9257	4.0909	0.1	5505.9
28702	3.0171	4.	0.1	5480.2
28703	2.9257	4.2727	0.1	5508.3
28704	3.0171	4.1818	0.1	5480.6
28705	2.9257	4.4545	0.1	5512.
28706	3.0171	4.3636	0.1	5482.
28707	2.9257	4.6364	0.1	5517.3
28708	3.0171	4.5455	0.1	5484.7
28709	2.9257	4.8182	0.1	5524.3
28710	3.0171	4.7273	0.1	5489.
28711	2.9257	5.	0.1	5533.3
28712	3.0171	4.9091	0.1	5494.9
28713	2.9257	5.1818	0.1	5544.3
28714	3.0171	5.0909	0.1	5502.9
28715	2.9257	5.3636	0.1	5557.4
28716	3.0171	5.2727	0.1	5512.8
28717	2.9257	5.5455	0.1	5572.6
28718	3.0171	5.4545	0.1	5524.8
28719	2.9257	5.7273	0.1	5592.1
28720	3.0171	5.6364	0.1	5539.2
28721	3.0171	5.8182	0.1	5559.5
28722	2.9257	5.9091	0.1	5599.
28723	3.1086	0.27273	0.1	5506.7
28724	3.2	0.18182	0.1	5468.8
28725	3.1086	9.0909e-002	0.1	5511.9
28726	3.1086	0.45455	0.1	5491.5
28727	3.2	0.36364	0.1	5453.1
28728	3.1086	0.63636	0.1	5480.3
28729	3.2	0.54545	0.1	5443.1
28730	3.1086	0.81818	0.1	5471.4
28731	3.2	0.72727	0.1	5435.6
28732	3.1086	1.	0.1	5464.5
28733	3.2	0.90909	0.1	5430.3
28734	3.1086	1.1818	0.1	5459.6
28735	3.2	1.0909	0.1	5427.1
28736	3.1086	1.3636	0.1	5456.4
28737	3.2	1.2727	0.1	5425.7
28738	3.1086	1.5455	0.1	5454.7
28739	3.2	1.4545	0.1	5425.9
28740	3.1086	1.7273	0.1	5454.3
28741	3.2	1.6364	0.1	5427.3
28742	3.1086	1.9091	0.1	5454.8
28743	3.2	1.8182	0.1	5429.6
28744	3.1086	2.0909	0.1	5456.
28745	3.2	2.	0.1	5432.6
28746	3.1086	2.2727	0.1	5457.5
28747	3.2	2.1818	0.1	5435.7
28748	3.1086	2.4545	0.1	5459.
28749	3.2	2.3636	0.1	5438.7
28750	3.1086	2.6364	0.1	5460.3
28751	3.2	2.5455	0.1	5441.3
28752	3.1086	2.8182	0.1	5461.2
28753	3.2	2.7273	0.1	5443.2
28754	3.1086	3.	0.1	5461.5
28755	3.2	2.9091	0.1	5444.2
28756	3.1086	3.1818	0.1	5461.2
28757	3.2	3.0909	0.1	5444.2
28758	3.1086	3.3636	0.1	5460.3
28759	3.2	3.2727	0.1	5443.2
28760	3.1086	3.5455	0.1	5459.
28761	3.2	3.4545	0.1	5441.3
28762	3.1086	3.7273	0.1	5457.5
28763	3.2	3.6364	0.1	5438.7
28764	3.1086	3.9091	0.1	5456.
28765	3.2	3.8182	0.1	5435.7
28766	3.1086	4.0909	0.1	5454.8
28767	3.2	4.	0.1	5432.6
28768	3.1086	4.2727	0.1	5454.3
28769	3.2	4.1818	0.1	5429.6
28770	3.1086	4.4545	0.1	5454.7
28771	3.2	4.3636	0.1	5427.3
28772	3.1086	4.6364	0.1	5456.4
28773	3.2	4.5455	0.1	5425.9
28774	3.1086	4.8182	0.1	5459.6
28775	3.2	4.7273	0.1	5425.7
28776	3.1086	5.	0.1	5464.5
28777	3.2	4.9091	0.1	5427.1
28778	3.1086	5.1818	0.1	5471.4
28779	3.2	5.0909	0.1	5430.3
28780	3.1086	5.3636	0.1	5480.3
28781	3.2	5.2727	0.1	5435.6
28782	3.1086	5.5455	0.1	5491.5
28783	3.2	5.4545	0.1	5443.1
28784	3.1086	5.7273	0.1	5506.7
28785	3.2	5.6364	0.1	5453.1
28786	3.2	5.8182	0.1	5468.8
28787	3.1086	5.9091	0.1	5511.9
28788	3.2914	0.27273	0.1	5415.3
28789	3.3829	0.18182	0.1	5371.5
28790	3.2914	9.0909e-002	0.1	5418.1
28791	3.2914	0.45455	0.1	5404.7
28792	3.3829	0.36364	0.1	5360.6
28793	3.2914	0.63636	0.1	5398.4
28794	3.3829	0.54545	0.1	5355.6
28795	3.2914	0.81818	0.1	5394.5
28796	3.3829	0.72727	0.1	5353.5
28797	3.2914	1.	0.1	5392.9
28798	3.3829	0.90909	0.1	5354.
28799	3.2914	1.1818	0.1	5393.2
28800	3.3829	1.0909	0.1	5356.7
28801	3.2914	1.3636	0.1	5395.2
28802	3.3829	1.2727	0.1	5361.3
28803	3.2914	1.5455	0.1	5398.4
28804	3.3829	1.4545	0.1	5367.3
28805	3.2914	1.7273	0.1	5402.6
28806	3.3829	1.6364	0.1	5374.3
28807	3.2914	1.9091	0.1	5407.3
28808	3.3829	1.8182	0.1	5381.8
28809	3.2914	2.0909	0.1	5412.2
28810	3.3829	2.	0.1	5389.5
28811	3.2914	2.2727	0.1	5416.8
28812	3.3829	2.1818	0.1	5396.7
28813	3.2914	2.4545	0.1	5420.9
28814	3.3829	2.3636	0.1	5403.2
28815	3.2914	2.6364	0.1	5424.
28816	3.3829	2.5455	0.1	5408.4
28817	3.2914	2.8182	0.1	5426.
28818	3.3829	2.7273	0.1	5412.1
28819	3.2914	3.	0.1	5426.7
28820	3.3829	2.9091	0.1	5414.
28821	3.2914	3.1818	0.1	5426.
28822	3.3829	3.0909	0.1	5414.
28823	3.2914	3.3636	0.1	5424.
28824	3.3829	3.2727	0.1	5412.1
28825	3.2914	3.5455	0.1	5420.9
28826	3.3829	3.4545	0.1	5408.4
28827	3.2914	3.7273	0.1	5416.8
28828	3.3829	3.6364	0.1	5403.2
28829	3.2914	3.9091	0.1	5412.2
28830	3.3829	3.8182	0.1	5396.7
28831	3.2914	4.0909	0.1	5407.3
28832	3.3829	4.	0.1	5389.5
28833	3.2914	4.2727	0.1	5402.6
28834	3.3829	4.1818	0.1	5381.8
28835	3.2914	4.4545	0.1	5398.4
28836	3.3829	4.3636	0.1	5374.3
28837	3.2914	4.6364	0.1	5395.2
28838	3.3829	4.5455	0.1	5367.3
28839	3.2914	4.8182	0.1	5393.2
28840	3.3829	4.7273	0.1	5361.3
28841	3.2914	5.	0.1	5392.9
28842	3.3829	4.9091	0.1	5356.7
28843	3.2914	5.1818	0.1	5394.5
28844	3.3829	5.0909	0.1	5354.
28845	3.2914	5.3636	0.1	5398.4
28846	3.3829	5.2727	0.1	5353.5
28847	3.2914	5.5455	0.1	5404.7
28848	3.3829	5.4545	0.1	5355.6
28849	3.2914	5.7273	0.1	5415.3
28850	3.3829	5.6364	0.1	5360.6
28851	3.3829	5.8182	0.1	5371.5
28852	3.2914	5.9091	0.1	5418.1
28853	3.4743	0.27273	0.1	5316.8
28854	3.5657	0.18182	0.1	5266.
28855	3.4743	9.0909e-002	0.1	5316.6
28856	3.4743	0.45455	0.1	5311.5
28857	3.5657	0.36364	0.1	5260.5
28858	3.4743	0.63636	0.1	5310.8
28859	3.5657	0.54545	0.1	5261.3
28860	3.4743	0.81818	0.1	5313.
28861	3.5657	0.72727	0.1	5265.7
28862	3.4743	1.	0.1	5317.9
28863	3.5657	0.90909	0.1	5273.2
28864	3.4743	1.1818	0.1	5324.8
28865	3.5657	1.0909	0.1	5283.3
28866	3.4743	1.3636	0.1	5333.4
28867	3.5657	1.2727	0.1	5295.4
28868	3.4743	1.5455	0.1	5343.1
28869	3.5657	1.4545	0.1	5308.9
28870	3.4743	1.7273	0.1	5353.5
28871	3.5657	1.6364	0.1	5323.2
28872	3.4743	1.9091	0.1	5363.9
28873	3.5657	1.8182	0.1	5337.7
28874	3.4743	2.0909	0.1	5373.9
28875	3.5657	2.	0.1	5351.6
28876	3.4743	2.2727	0.1	5382.9
28877	3.5657	2.1818	0.1	5364.4
28878	3.4743	2.4545	0.1	5390.5
28879	3.5657	2.3636	0.1	5375.5
28880	3.4743	2.6364	0.1	5396.3
28881	3.5657	2.5455	0.1	5384.4
28882	3.4743	2.8182	0.1	5399.8
28883	3.5657	2.7273	0.1	5390.5
28884	3.4743	3.	0.1	5401.
28885	3.5657	2.9091	0.1	5393.7
28886	3.4743	3.1818	0.1	5399.8
28887	3.5657	3.0909	0.1	5393.7
28888	3.4743	3.3636	0.1	5396.3
28889	3.5657	3.2727	0.1	5390.5
28890	3.4743	3.5455	0.1	5390.5
28891	3.5657	3.4545	0.1	5384.4
28892	3.4743	3.7273	0.1	5382.9
28893	3.5657	3.6364	0.1	5375.5
28894	3.4743	3.9091	0.1	5373.9
28895	3.5657	3.8182	0.1	5364.4
28896	3.4743	4.0909	0.1	5363.9
28897	3.5657	4.	0.1	5351.6
28898	3.4743	4.2727	0.1	5353.5
28899	3.5657	4.1818	0.1	5337.7
28900	3.4743	4.4545	0.1	5343.1
28901	3.5657	4.3636	0.1	5323.2
28902	3.4743	4.6364	0.1	5333.4
28903	3.5657	4.5455	0.1	5308.9
28904	3.4743	4.8182	0.1	5324.8
28905	3.5657	4.7273	0.1	5295.4
28906	3.4743	5.	0.1	5317.9
28907	3.5657	4.9091	0.1	5283.3
28908	3.4743	5.1818	0.1	5313.
28909	3.5657	5.0909	0.1	5273.2
28910	3.4743	5.3636	0.1	5310.8
28911	3.5657	5.2727	0.1	5265.7
28912	3.4743	5.5455	0.1	5311.5
28913	3.5657	5.4545	0.1	5261.3
28914	3.4743	5.7273	0.1	5316.8
28915	3.5657	5.6364	0.1	5260.5
28916	3.5657	5.8182	0.1	5266.
28917	3.4743	5.9091	0.1	5316.6
28918	3.6571	0.27273	0.1	5209.8
28919	3.7486	0.18182	0.1	5150.7
28920	3.6571	9.0909e-002	0.1	5205.7
28921	3.6571	0.45455	0.1	5210.3
28922	3.7486	0.36364	0.1	5151.1
28923	3.6571	0.63636	0.1	5216.2
28924	3.7486	0.54545	0.1	5158.6
28925	3.6571	0.81818	0.1	5225.9
28926	3.7486	0.72727	0.1	5170.7
28927	3.6571	1.	0.1	5238.6
28928	3.7486	0.90909	0.1	5186.8
28929	3.6571	1.1818	0.1	5253.8
28930	3.7486	1.0909	0.1	5205.9
28931	3.6571	1.3636	0.1	5270.9
28932	3.7486	1.2727	0.1	5227.5
28933	3.6571	1.5455	0.1	5289.
28934	3.7486	1.4545	0.1	5250.6
28935	3.6571	1.7273	0.1	5307.3
28936	3.7486	1.6364	0.1	5274.3
28937	3.6571	1.9091	0.1	5325.3
28938	3.7486	1.8182	0.1	5297.7
28939	3.6571	2.0909	0.1	5342.1
28940	3.7486	2.	0.1	5320.
28941	3.6571	2.2727	0.1	5356.9
28942	3.7486	2.1818	0.1	5340.1
28943	3.6571	2.4545	0.1	5369.3
28944	3.7486	2.3636	0.1	5357.4
28945	3.6571	2.6364	0.1	5378.5
28946	3.7486	2.5455	0.1	5371.
28947	3.6571	2.8182	0.1	5384.2
28948	3.7486	2.7273	0.1	5380.5
28949	3.6571	3.	0.1	5386.2
28950	3.7486	2.9091	0.1	5385.4
28951	3.6571	3.1818	0.1	5384.2
28952	3.7486	3.0909	0.1	5385.4
28953	3.6571	3.3636	0.1	5378.5
28954	3.7486	3.2727	0.1	5380.5
28955	3.6571	3.5455	0.1	5369.3
28956	3.7486	3.4545	0.1	5371.
28957	3.6571	3.7273	0.1	5356.9
28958	3.7486	3.6364	0.1	5357.4
28959	3.6571	3.9091	0.1	5342.1
28960	3.7486	3.8182	0.1	5340.1
28961	3.6571	4.0909	0.1	5325.3
28962	3.7486	4.	0.1	5320.
28963	3.6571	4.2727	0.1	5307.3
28964	3.7486	4.1818	0.1	5297.7
28965	3.6571	4.4545	0.1	5289.
28966	3.7486	4.3636	0.1	5274.3
28967	3.6571	4.6364	0.1	5270.9
28968	3.7486	4.5455	0.1	5250.6
28969	3.6571	4.8182	0.1	5253.8
28970	3.7486	4.7273	0.1	5227.5
28971	3.6571	5.	0.1	5238.6
28972	3.7486	4.9091	0.1	5205.9
28973	3.6571	5.1818	0.1	5225.9
28974	3.7486	5.0909	0.1	5186.8
28975	3.6571	5.3636	0.1	5216.2
28976	3.7486	5.2727	0.1	5170.7
28977	3.6571	5.5455	0.1	5210.3
28978	3.7486	5.4545	0.1	5158.6
28979	3.6571	5.7273	0.1	5209.8
28980	3.7486	5.6364	0.1	5151.1
28981	3.7486	5.8182	0.1	5150.7
28982	3.6571	5.9091	0.1	5205.7
28983	3.84	0.27273	0.1	5092.1
28984	3.9314	0.18182	0.1	5023.3
28985	3.84	9.0909e-002	0.1	5083.5
28986	3.84	0.45455	0.1	5099.4
28987	3.9314	0.36364	0.1	5030.3
28988	3.84	0.63636	0.1	5113.1
28989	3.9314	0.54545	0.1	5045.6
28990	3.84	0.81818	0.1	5131.6
28991	3.9314	0.72727	0.1	5066.9
28992	3.84	1.	0.1	5154.1
28993	3.9314	0.90909	0.1	5093.3
28994	3.84	1.1818	0.1	5179.6
28995	3.9314	1.0909	0.1	5123.7
28996	3.84	1.3636	0.1	5207.3
28997	3.9314	1.2727	0.1	5157.1
28998	3.84	1.5455	0.1	5236.
28999	3.9314	1.4545	0.1	5192.3
29000	3.84	1.7273	0.1	5264.7
29001	3.9314	1.6364	0.1	5228.
29002	3.84	1.9091	0.1	5292.3
29003	3.9314	1.8182	0.1	5262.9
29004	3.84	2.0909	0.1	5317.9
29005	3.9314	2.	0.1	5295.8
29006	3.84	2.2727	0.1	5340.4
29007	3.9314	2.1818	0.1	5325.5
29008	3.84	2.4545	0.1	5359.
29009	3.9314	2.3636	0.1	5350.8
29010	3.84	2.6364	0.1	5372.9
29011	3.9314	2.5455	0.1	5370.9
29012	3.84	2.8182	0.1	5381.5
29013	3.9314	2.7273	0.1	5384.8
29014	3.84	3.	0.1	5384.5
29015	3.9314	2.9091	0.1	5391.9
29016	3.84	3.1818	0.1	5381.5
29017	3.9314	3.0909	0.1	5391.9
29018	3.84	3.3636	0.1	5372.9
29019	3.9314	3.2727	0.1	5384.8
29020	3.84	3.5455	0.1	5359.
29021	3.9314	3.4545	0.1	5370.9
29022	3.84	3.7273	0.1	5340.4
29023	3.9314	3.6364	0.1	5350.8
29024	3.84	3.9091	0.1	5317.9
29025	3.9314	3.8182	0.1	5325.5
29026	3.84	4.0909	0.1	5292.3
29027	3.9314	4.	0.1	5295.8
29028	3.84	4.2727	0.1	5264.7
29029	3.9314	4.1818	0.1	5262.9
29030	3.84	4.4545	0.1	5236.
29031	3.9314	4.3636	0.1	5228.
29032	3.84	4.6364	0.1	5207.3
29033	3.9314	4.5455	0.1	5192.3
29034	3.84	4.8182	0.1	5179.6
29035	3.9314	4.7273	0.1	5157.1
29036	3.84	5.	0.1	5154.1
29037	3.9314	4.9091	0.1	5123.7
29038	3.84	5.1818	0.1	5131.6
29039	3.9314	5.0909	0.1	5093.3
29040	3.84	5.3636	0.1	5113.1
29041	3.9314	5.2727	0.1	5066.9
29042	3.84	5.5455	0.1	5099.4
29043	3.9314	5.4545	0.1	5045.6
29044	3.84	5.7273	0.1	5092.1
29045	3.9314	5.6364	0.1	5030.3
29046	3.9314	5.8182	0.1	5023.3
29047	3.84	5.9091	0.1	5083.5
29048	4.0229	0.27273	0.1	4961.4
29049	4.1143	0.18182	0.1	4880.8
29050	4.0229	9.0909e-002	0.1	4947.3
29051	4.0229	0.45455	0.1	4976.4
29052	4.1143	0.36364	0.1	4895.1
29053	4.0229	0.63636	0.1	4999.4
29054	4.1143	0.54545	0.1	4919.6
29055	4.0229	0.81818	0.1	5028.5
29056	4.1143	0.72727	0.1	4951.9
29057	4.0229	1.	0.1	5062.9
29058	4.1143	0.90909	0.1	4990.9
29059	4.0229	1.1818	0.1	5101.2
29060	4.1143	1.0909	0.1	5035.2
29061	4.0229	1.3636	0.1	5142.2
29062	4.1143	1.2727	0.1	5083.4
29063	4.0229	1.5455	0.1	5184.3
29064	4.1143	1.4545	0.1	5133.8
29065	4.0229	1.7273	0.1	5226.2
29066	4.1143	1.6364	0.1	5184.7
29067	4.0229	1.9091	0.1	5266.3
29068	4.1143	1.8182	0.1	5234.3
29069	4.0229	2.0909	0.1	5303.2
29070	4.1143	2.	0.1	5280.9
29071	4.0229	2.2727	0.1	5335.7
29072	4.1143	2.1818	0.1	5322.9
29073	4.0229	2.4545	0.1	5362.5
29074	4.1143	2.3636	0.1	5358.8
29075	4.0229	2.6364	0.1	5382.5
29076	4.1143	2.5455	0.1	5387.1
29077	4.0229	2.8182	0.1	5394.9
29078	4.1143	2.7273	0.1	5406.8
29079	4.0229	3.	0.1	5399.1
29080	4.1143	2.9091	0.1	5416.8
29081	4.0229	3.1818	0.1	5394.9
29082	4.1143	3.0909	0.1	5416.8
29083	4.0229	3.3636	0.1	5382.5
29084	4.1143	3.2727	0.1	5406.8
29085	4.0229	3.5455	0.1	5362.5
29086	4.1143	3.4545	0.1	5387.1
29087	4.0229	3.7273	0.1	5335.7
29088	4.1143	3.6364	0.1	5358.8
29089	4.0229	3.9091	0.1	5303.2
29090	4.1143	3.8182	0.1	5322.9
29091	4.0229	4.0909	0.1	5266.3
29092	4.1143	4.	0.1	5280.9
29093	4.0229	4.2727	0.1	5226.2
29094	4.1143	4.1818	0.1	5234.3
29095	4.0229	4.4545	0.1	5184.3
29096	4.1143	4.3636	0.1	5184.7
29097	4.0229	4.6364	0.1	5142.2
29098	4.1143	4.5455	0.1	5133.8
29099	4.0229	4.8182	0.1	5101.2
29100	4.1143	4.7273	0.1	5083.4
29101	4.0229	5.	0.1	5062.9
29102	4.1143	4.9091	0.1	5035.2
29103	4.0229	5.1818	0.1	5028.5
29104	4.1143	5.0909	0.1	4990.9
29105	4.0229	5.3636	0.1	4999.4
29106	4.1143	5.2727	0.1	4951.9
29107	4.0229	5.5455	0.1	4976.4
29108	4.1143	5.4545	0.1	4919.6
29109	4.0229	5.7273	0.1	4961.4
29110	4.1143	5.6364	0.1	4895.1
29111	4.1143	5.8182	0.1	4880.8
29112	4.0229	5.9091	0.1	4947.3
29113	4.2057	0.27273	0.1	4814.5
29114	4.2971	0.18182	0.1	4719.8
29115	4.2057	9.0909e-002	0.1	4793.9
29116	4.2057	0.45455	0.1	4838.3
29117	4.2971	0.36364	0.1	4742.4
29118	4.2057	0.63636	0.1	4872.2
29119	4.2971	0.54545	0.1	4777.6
29120	4.2057	0.81818	0.1	4914.3
29121	4.2971	0.72727	0.1	4823.
29122	4.2057	1.	0.1	4963.2
29123	4.2971	0.90909	0.1	4877.2
29124	4.2057	1.1818	0.1	5017.4
29125	4.2971	1.0909	0.1	4938.7
29126	4.2057	1.3636	0.1	5075.1
29127	4.2971	1.2727	0.1	5005.4
29128	4.2057	1.5455	0.1	5134.2
29129	4.2971	1.4545	0.1	5075.
29130	4.2057	1.7273	0.1	5192.8
29131	4.2971	1.6364	0.1	5145.1
29132	4.2057	1.9091	0.1	5248.8
29133	4.2971	1.8182	0.1	5213.4
29134	4.2057	2.0909	0.1	5300.4
29135	4.2971	2.	0.1	5277.6
29136	4.2057	2.2727	0.1	5345.8
29137	4.2971	2.1818	0.1	5335.5
29138	4.2057	2.4545	0.1	5383.2
29139	4.2971	2.3636	0.1	5385.
29140	4.2057	2.6364	0.1	5411.2
29141	4.2971	2.5455	0.1	5424.1
29142	4.2057	2.8182	0.1	5428.5
29143	4.2971	2.7273	0.1	5451.3
29144	4.2057	3.	0.1	5434.3
29145	4.2971	2.9091	0.1	5465.2
29146	4.2057	3.1818	0.1	5428.5
29147	4.2971	3.0909	0.1	5465.2
29148	4.2057	3.3636	0.1	5411.2
29149	4.2971	3.2727	0.1	5451.3
29150	4.2057	3.5455	0.1	5383.2
29151	4.2971	3.4545	0.1	5424.1
29152	4.2057	3.7273	0.1	5345.8
29153	4.2971	3.6364	0.1	5385.
29154	4.2057	3.9091	0.1	5300.4
29155	4.2971	3.8182	0.1	5335.5
29156	4.2057	4.0909	0.1	5248.8
29157	4.2971	4.	0.1	5277.6
29158	4.2057	4.2727	0.1	5192.8
29159	4.2971	4.1818	0.1	5213.4
29160	4.2057	4.4545	0.1	5134.2
29161	4.2971	4.3636	0.1	5145.1
29162	4.2057	4.6364	0.1	5075.1
29163	4.2971	4.5455	0.1	5075.
29164	4.2057	4.8182	0.1	5017.4
29165	4.2971	4.7273	0.1	5005.4
29166	4.2057	5.	0.1	4963.2
29167	4.2971	4.9091	0.1	4938.7
29168	4.2057	5.1818	0.1	4914.3
29169	4.2971	5.0909	0.1	4877.2
29170	4.2057	5.3636	0.1	4872.2
29171	4.2971	5.2727	0.1	4823.
29172	4.2057	5.5455	0.1	4838.3
29173	4.2971	5.4545	0.1	4777.6
29174	4.2057	5.7273	0.1	4814.5
29175	4.2971	5.6364	0.1	4742.4
29176	4.2971	5.8182	0.1	4719.8
29177	4.2057	5.9091	0.1	4793.9
29178	4.3886	0.27273	0.1	4647.7
29179	4.48	0.18182	0.1	4536.2
29180	4.3886	9.0909e-002	0.1	4619.6
29181	4.3886	0.45455	0.1	4681.6
29182	4.48	0.36364	0.1	4568.
29183	4.3886	0.63636	0.1	4728.4
29184	4.48	0.54545	0.1	4615.6
29185	4.3886	0.81818	0.1	4786.
29186	4.48	0.72727	0.1	4676.6
29187	4.3886	1.	0.1	4852.9
29188	4.48	0.90909	0.1	4749.5
29189	4.3886	1.1818	0.1	4926.8
29190	4.48	1.0909	0.1	4832.1
29191	4.3886	1.3636	0.1	5005.4
29192	4.48	1.2727	0.1	4921.9
29193	4.3886	1.5455	0.1	5085.9
29194	4.48	1.4545	0.1	5015.6
29195	4.3886	1.7273	0.1	5165.8
29196	4.48	1.6364	0.1	5110.2
29197	4.3886	1.9091	0.1	5242.2
29198	4.48	1.8182	0.1	5202.4
29199	4.3886	2.0909	0.1	5312.6
29200	4.48	2.	0.1	5289.1
29201	4.3886	2.2727	0.1	5374.6
29202	4.48	2.1818	0.1	5367.4
29203	4.3886	2.4545	0.1	5425.7
29204	4.48	2.3636	0.1	5434.5
29205	4.3886	2.6364	0.1	5464.
29206	4.48	2.5455	0.1	5487.6
29207	4.3886	2.8182	0.1	5487.8
29208	4.48	2.7273	0.1	5524.5
29209	4.3886	3.	0.1	5495.8
29210	4.48	2.9091	0.1	5543.5
29211	4.3886	3.1818	0.1	5487.8
29212	4.48	3.0909	0.1	5543.5
29213	4.3886	3.3636	0.1	5464.
29214	4.48	3.2727	0.1	5524.5
29215	4.3886	3.5455	0.1	5425.7
29216	4.48	3.4545	0.1	5487.6
29217	4.3886	3.7273	0.1	5374.6
29218	4.48	3.6364	0.1	5434.5
29219	4.3886	3.9091	0.1	5312.6
29220	4.48	3.8182	0.1	5367.4
29221	4.3886	4.0909	0.1	5242.2
29222	4.48	4.	0.1	5289.1
29223	4.3886	4.2727	0.1	5165.8
29224	4.48	4.1818	0.1	5202.4
29225	4.3886	4.4545	0.1	5085.9
29226	4.48	4.3636	0.1	5110.2
29227	4.3886	4.6364	0.1	5005.4
29228	4.48	4.5455	0.1	5015.6
29229	4.3886	4.8182	0.1	4926.8
29230	4.48	4.7273	0.1	4921.9
29231	4.3886	5.	0.1	4852.9
29232	4.48	4.9091	0.1	4832.1
29233	4.3886	5.1818	0.1	4786.
29234	4.48	5.0909	0.1	4749.5
29235	4.3886	5.3636	0.1	4728.4
29236	4.48	5.2727	0.1	4676.6
29237	4.3886	5.5455	0.1	4681.6
29238	4.48	5.4545	0.1	4615.6
29239	4.3886	5.7273	0.1	4647.7
29240	4.48	5.6364	0.1	4568.
29241	4.48	5.8182	0.1	4536.2
29242	4.3886	5.9091	0.1	4619.6
29243	4.5714	0.27273	0.1	4456.6
29244	4.6629	0.18182	0.1	4325.5
29245	4.5714	9.0909e-002	0.1	4419.8
29246	4.5714	0.45455	0.1	4502.1
29247	4.6629	0.36364	0.1	4367.3
29248	4.5714	0.63636	0.1	4564.
29249	4.6629	0.54545	0.1	4429.2
29250	4.5714	0.81818	0.1	4640.4
29251	4.6629	0.72727	0.1	4508.8
29252	4.5714	1.	0.1	4729.1
29253	4.6629	0.90909	0.1	4604.3
29254	4.5714	1.1818	0.1	4827.6
29255	4.6629	1.0909	0.1	4713.
29256	4.5714	1.3636	0.1	4932.4
29257	4.6629	1.2727	0.1	4831.5
29258	4.5714	1.5455	0.1	5040.1
29259	4.6629	1.4545	0.1	4955.8
29260	4.5714	1.7273	0.1	5147.
29261	4.6629	1.6364	0.1	5081.5
29262	4.5714	1.9091	0.1	5249.4
29263	4.6629	1.8182	0.1	5204.2
29264	4.5714	2.0909	0.1	5344.
29265	4.6629	2.	0.1	5319.8
29266	4.5714	2.2727	0.1	5427.3
29267	4.6629	2.1818	0.1	5424.4
29268	4.5714	2.4545	0.1	5496.2
29269	4.6629	2.3636	0.1	5514.
29270	4.5714	2.6364	0.1	5547.9
29271	4.6629	2.5455	0.1	5585.2
29272	4.5714	2.8182	0.1	5579.9
29273	4.6629	2.7273	0.1	5634.7
29274	4.5714	3.	0.1	5590.8
29275	4.6629	2.9091	0.1	5660.
29276	4.5714	3.1818	0.1	5579.9
29277	4.6629	3.0909	0.1	5660.
29278	4.5714	3.3636	0.1	5547.9
29279	4.6629	3.2727	0.1	5634.7
29280	4.5714	3.5455	0.1	5496.2
29281	4.6629	3.4545	0.1	5585.2
29282	4.5714	3.7273	0.1	5427.3
29283	4.6629	3.6364	0.1	5514.
29284	4.5714	3.9091	0.1	5344.
29285	4.6629	3.8182	0.1	5424.4
29286	4.5714	4.0909	0.1	5249.4
29287	4.6629	4.	0.1	5319.8
29288	4.5714	4.2727	0.1	5147.
29289	4.6629	4.1818	0.1	5204.2
29290	4.5714	4.4545	0.1	5040.1
29291	4.6629	4.3636	0.1	5081.5
29292	4.5714	4.6364	0.1	4932.4
29293	4.6629	4.5455	0.1	4955.8
29294	4.5714	4.8182	0.1	4827.6
29295	4.6629	4.7273	0.1	4831.5
29296	4.5714	5.	0.1	4729.1
29297	4.6629	4.9091	0.1	4713.
29298	4.5714	5.1818	0.1	4640.4
29299	4.6629	5.0909	0.1	4604.3
29300	4.5714	5.3636	0.1	4564.
29301	4.6629	5.2727	0.1	4508.8
29302	4.5714	5.5455	0.1	4502.1
29303	4.6629	5.4545	0.1	4429.2
29304	4.5714	5.7273	0.1	4456.6
29305	4.6629	5.6364	0.1	4367.3
29306	4.6629	5.8182	0.1	4325.5
29307	4.5714	5.9091	0.1	4419.8
29308	4.7543	0.27273	0.1	4236.3
29309	4.8457	0.18182	0.1	4082.3
29310	4.7543	9.0909e-002	0.1	4189.5
29311	4.7543	0.45455	0.1	4294.7
29312	4.8457	0.36364	0.1	4135.
29313	4.7543	0.63636	0.1	4374.4
29314	4.8457	0.54545	0.1	4213.3
29315	4.7543	0.81818	0.1	4473.3
29316	4.8457	0.72727	0.1	4314.8
29317	4.7543	1.	0.1	4588.8
29318	4.8457	0.90909	0.1	4437.4
29319	4.7543	1.1818	0.1	4717.7
29320	4.8457	1.0909	0.1	4578.2
29321	4.7543	1.3636	0.1	4855.6
29322	4.8457	1.2727	0.1	4732.8
29323	4.7543	1.5455	0.1	4997.7
29324	4.8457	1.4545	0.1	4895.7
29325	4.7543	1.7273	0.1	5139.1
29326	4.8457	1.6364	0.1	5061.1
29327	4.7543	1.9091	0.1	5274.8
29328	4.8457	1.8182	0.1	5223.
29329	4.7543	2.0909	0.1	5400.3
29330	4.8457	2.	0.1	5375.7
29331	4.7543	2.2727	0.1	5511.
29332	4.8457	2.1818	0.1	5514.
29333	4.7543	2.4545	0.1	5602.8
29334	4.8457	2.3636	0.1	5632.7
29335	4.7543	2.6364	0.1	5671.6
29336	4.8457	2.5455	0.1	5726.8
29337	4.7543	2.8182	0.1	5714.3
29338	4.8457	2.7273	0.1	5792.2
29339	4.7543	3.	0.1	5728.7
29340	4.8457	2.9091	0.1	5825.6
29341	4.7543	3.1818	0.1	5714.3
29342	4.8457	3.0909	0.1	5825.6
29343	4.7543	3.3636	0.1	5671.6
29344	4.8457	3.2727	0.1	5792.2
29345	4.7543	3.5455	0.1	5602.8
29346	4.8457	3.4545	0.1	5726.8
29347	4.7543	3.7273	0.1	5511.
29348	4.8457	3.6364	0.1	5632.7
29349	4.7543	3.9091	0.1	5400.3
29350	4.8457	3.8182	0.1	5514.
29351	4.7543	4.0909	0.1	5274.8
29352	4.8457	4.	0.1	5375.7
29353	4.7543	4.2727	0.1	5139.1
29354	4.8457	4.1818	0.1	5223.
29355	4.7543	4.4545	0.1	4997.7
29356	4.8457	4.3636	0.1	5061.1
29357	4.7543	4.6364	0.1	4855.6
29358	4.8457	4.5455	0.1	4895.7
29359	4.7543	4.8182	0.1	4717.7
29360	4.8457	4.7273	0.1	4732.8
29361	4.7543	5.	0.1	4588.8
29362	4.8457	4.9091	0.1	4578.2
29363	4.7543	5.1818	0.1	4473.3
29364	4.8457	5.0909	0.1	4437.4
29365	4.7543	5.3636	0.1	4374.4
29366	4.8457	5.2727	0.1	4314.8
29367	4.7543	5.5455	0.1	4294.7
29368	4.8457	5.4545	0.1	4213.3
29369	4.7543	5.7273	0.1	4236.3
29370	4.8457	5.6364	0.1	4135.
29371	4.8457	5.8182	0.1	4082.3
29372	4.7543	5.9091	0.1	4189.5
29373	4.9371	0.27273	0.1	3981.3
29374	5.0286	0.18182	0.1	3801.2
29375	4.9371	9.0909e-002	0.1	3923.1
29376	4.9371	0.45455	0.1	4054.
29377	5.0286	0.36364	0.1	3865.4
29378	4.9371	0.63636	0.1	4154.4
29379	5.0286	0.54545	0.1	3962.2
29380	4.9371	0.81818	0.1	4280.1
29381	5.0286	0.72727	0.1	4089.2
29382	4.9371	1.	0.1	4428.2
29383	5.0286	0.90909	0.1	4244.5
29384	4.9371	1.1818	0.1	4594.8
29385	5.0286	1.0909	0.1	4424.5
29386	4.9371	1.3636	0.1	4774.2
29387	5.0286	1.2727	0.1	4624.
29388	4.9371	1.5455	0.1	4960.2
29389	5.0286	1.4545	0.1	4835.9
29390	4.9371	1.7273	0.1	5145.8
29391	5.0286	1.6364	0.1	5052.3
29392	4.9371	1.9091	0.1	5324.4
29393	5.0286	1.8182	0.1	5264.9
29394	4.9371	2.0909	0.1	5489.7
29395	5.0286	2.	0.1	5465.7
29396	4.9371	2.2727	0.1	5635.6
29397	5.0286	2.1818	0.1	5647.5
29398	4.9371	2.4545	0.1	5756.4
29399	5.0286	2.3636	0.1	5803.
29400	4.9371	2.6364	0.1	5846.8
29401	5.0286	2.5455	0.1	5925.8
29402	4.9371	2.8182	0.1	5902.8
29403	5.0286	2.7273	0.1	6010.6
29404	4.9371	3.	0.1	5921.7
29405	5.0286	2.9091	0.1	6053.8
29406	4.9371	3.1818	0.1	5902.8
29407	5.0286	3.0909	0.1	6053.8
29408	4.9371	3.3636	0.1	5846.8
29409	5.0286	3.2727	0.1	6010.6
29410	4.9371	3.5455	0.1	5756.4
29411	5.0286	3.4545	0.1	5925.8
29412	4.9371	3.7273	0.1	5635.6
29413	5.0286	3.6364	0.1	5803.
29414	4.9371	3.9091	0.1	5489.7
29415	5.0286	3.8182	0.1	5647.5
29416	4.9371	4.0909	0.1	5324.4
29417	5.0286	4.	0.1	5465.7
29418	4.9371	4.2727	0.1	5145.8
29419	5.0286	4.1818	0.1	5264.9
29420	4.9371	4.4545	0.1	4960.2
29421	5.0286	4.3636	0.1	5052.3
29422	4.9371	4.6364	0.1	4774.2
29423	5.0286	4.5455	0.1	4835.9
29424	4.9371	4.8182	0.1	4594.8
29425	5.0286	4.7273	0.1	4624.
29426	4.9371	5.	0.1	4428.2
29427	5.0286	4.9091	0.1	4424.5
29428	4.9371	5.1818	0.1	4280.1
29429	5.0286	5.0909	0.1	4244.5
29430	4.9371	5.3636	0.1	4154.4
29431	5.0286	5.2727	0.1	4089.2
29432	4.9371	5.5455	0.1	4054.
29433	5.0286	5.4545	0.1	3962.2
29434	4.9371	5.7273	0.1	3981.3
29435	5.0286	5.6364	0.1	3865.4
29436	5.0286	5.8182	0.1	3801.2
29437	4.9371	5.9091	0.1	3923.1
29438	5.12	0.27273	0.1	3685.9
29439	5.2114	0.18182	0.1	3477.
29440	5.12	9.0909e-002	0.1	3615.
29441	5.12	0.45455	0.1	3774.4
29442	5.2114	0.36364	0.1	3553.
29443	5.12	0.63636	0.1	3898.5
29444	5.2114	0.54545	0.1	3670.6
29445	5.12	0.81818	0.1	4055.8
29446	5.2114	0.72727	0.1	3827.1
29447	5.12	1.	0.1	4243.3
29448	5.2114	0.90909	0.1	4020.9
29449	5.12	1.1818	0.1	4456.4
29450	5.2114	1.0909	0.1	4248.3
29451	5.12	1.3636	0.1	4688.1
29452	5.2114	1.2727	0.1	4503.4
29453	5.12	1.5455	0.1	4930.1
29454	5.2114	1.4545	0.1	4777.7
29455	5.12	1.7273	0.1	5173.
29456	5.2114	1.6364	0.1	5060.3
29457	5.12	1.9091	0.1	5407.2
29458	5.2114	1.8182	0.1	5339.4
29459	5.12	2.0909	0.1	5624.
29460	5.2114	2.	0.1	5603.4
29461	5.12	2.2727	0.1	5814.9
29462	5.2114	2.1818	0.1	5841.3
29463	5.12	2.4545	0.1	5972.
29464	5.2114	2.3636	0.1	6043.1
29465	5.12	2.6364	0.1	6088.7
29466	5.2114	2.5455	0.1	6200.4
29467	5.12	2.8182	0.1	6160.5
29468	5.2114	2.7273	0.1	6307.2
29469	5.12	3.	0.1	6184.6
29470	5.2114	2.9091	0.1	6360.9
29471	5.12	3.1818	0.1	6160.5
29472	5.2114	3.0909	0.1	6360.9
29473	5.12	3.3636	0.1	6088.7
29474	5.2114	3.2727	0.1	6307.2
29475	5.12	3.5455	0.1	5972.
29476	5.2114	3.4545	0.1	6200.4
29477	5.12	3.7273	0.1	5814.9
29478	5.2114	3.6364	0.1	6043.2
29479	5.12	3.9091	0.1	5624.
29480	5.2114	3.8182	0.1	5841.3
29481	5.12	4.0909	0.1	5407.2
29482	5.2114	4.	0.1	5603.4
29483	5.12	4.2727	0.1	5173.
29484	5.2114	4.1818	0.1	5339.4
29485	5.12	4.4545	0.1	4930.1
29486	5.2114	4.3636	0.1	5060.3
29487	5.12	4.6364	0.1	4688.1
29488	5.2114	4.5455	0.1	4777.7
29489	5.12	4.8182	0.1	4456.4
29490	5.2114	4.7273	0.1	4503.4
29491	5.12	5.	0.1	4243.3
29492	5.2114	4.9091	0.1	4248.3
29493	5.12	5.1818	0.1	4055.8
29494	5.2114	5.0909	0.1	4020.9
29495	5.12	5.3636	0.1	3898.5
29496	5.2114	5.2727	0.1	3827.1
29497	5.12	5.5455	0.1	3774.4
29498	5.2114	5.4545	0.1	3670.6
29499	5.12	5.7273	0.1	3685.9
29500	5.2114	5.6364	0.1	3553.
29501	5.2114	5.8182	0.1	3477.
29502	5.12	5.9091	0.1	3615.
29503	5.3029	0.27273	0.1	3344.9
29504	5.3943	0.18182	0.1	3105.1
29505	5.3029	9.0909e-002	0.1	3260.1
29506	5.3029	0.45455	0.1	3450.5
29507	5.3943	0.36364	0.1	3193.2
29508	5.3029	0.63636	0.1	3601.7
29509	5.3943	0.54545	0.1	3334.2
29510	5.3029	0.81818	0.1	3795.9
29511	5.3943	0.72727	0.1	3524.5
29512	5.3029	1.	0.1	4030.3
29513	5.3943	0.90909	0.1	3762.8
29514	5.3029	1.1818	0.1	4300.
29515	5.3943	1.0909	0.1	4046.2
29516	5.3029	1.3636	0.1	4597.3
29517	5.3943	1.2727	0.1	4369.1
29518	5.3029	1.5455	0.1	4911.5
29519	5.3943	1.4545	0.1	4722.6
29520	5.3029	1.7273	0.1	5229.4
29521	5.3943	1.6364	0.1	5092.5
29522	5.3029	1.9091	0.1	5537.2
29523	5.3943	1.8182	0.1	5461.3
29524	5.3029	2.0909	0.1	5821.4
29525	5.3943	2.	0.1	5810.2
29526	5.3029	2.2727	0.1	6069.5
29527	5.3943	2.1818	0.1	6121.7
29528	5.3029	2.4545	0.1	6270.7
29529	5.3943	2.3636	0.1	6380.4
29530	5.3029	2.6364	0.1	6417.3
29531	5.3943	2.5455	0.1	6575.1
29532	5.3029	2.8182	0.1	6505.5
29533	5.3943	2.7273	0.1	6702.3
29534	5.3029	3.	0.1	6534.9
29535	5.3943	2.9091	0.1	6764.4
29536	5.3029	3.1818	0.1	6505.5
29537	5.3943	3.0909	0.1	6764.4
29538	5.3029	3.3636	0.1	6417.3
29539	5.3943	3.2727	0.1	6702.3
29540	5.3029	3.5455	0.1	6270.7
29541	5.3943	3.4545	0.1	6575.1
29542	5.3029	3.7273	0.1	6069.5
29543	5.3943	3.6364	0.1	6380.4
29544	5.3029	3.9091	0.1	5821.4
29545	5.3943	3.8182	0.1	6121.7
29546	5.3029	4.0909	0.1	5537.2
29547	5.3943	4.	0.1	5810.2
29548	5.3029	4.2727	0.1	5229.4
29549	5.3943	4.1818	0.1	5461.3
29550	5.3029	4.4545	0.1	4911.5
29551	5.3943	4.3636	0.1	5092.5
29552	5.3029	4.6364	0.1	4597.3
29553	5.3943	4.5455	0.1	4722.6
29554	5.3029	4.8182	0.1	4300.1
29555	5.3943	4.7273	0.1	4369.1
29556	5.3029	5.	0.1	4030.3
29557	5.3943	4.9091	0.1	4046.2
29558	5.3029	5.1818	0.1	3795.9
29559	5.3943	5.0909	0.1	3762.8
29560	5.3029	5.3636	0.1	3601.7
29561	5.3943	5.2727	0.1	3524.5
29562	5.3029	5.5455	0.1	3450.5
29563	5.3943	5.4545	0.1	3334.2
29564	5.3029	5.7273	0.1	3344.9
29565	5.3943	5.6364	0.1	3193.2
29566	5.3943	5.8182	0.1	3105.1
29567	5.3029	5.9091	0.1	3260.1
29568	5.4857	0.27273	0.1	2954.5
29569	5.5771	0.18182	0.1	2682.4
29570	5.4857	9.0909e-002	0.1	2854.2
29571	5.4857	0.45455	0.1	3079.1
29572	5.5771	0.36364	0.1	2784.2
29573	5.4857	0.63636	0.1	3261.4
29574	5.5771	0.54545	0.1	2952.4
29575	5.4857	0.81818	0.1	3497.9
29576	5.5771	0.72727	0.1	3181.6
29577	5.4857	1.	0.1	3786.6
29578	5.5771	0.90909	0.1	3469.9
29579	5.4857	1.1818	0.1	4123.6
29580	5.5771	1.0909	0.1	3816.1
29581	5.4857	1.3636	0.1	4502.
29582	5.5771	1.2727	0.1	4218.5
29583	5.4857	1.5455	0.1	4909.7
29584	5.5771	1.4545	0.1	4671.1
29585	5.4857	1.7273	0.1	5328.6
29586	5.5771	1.6364	0.1	5159.2
29587	5.4857	1.9091	0.1	5736.8
29588	5.5771	1.8182	0.1	5654.6
29589	5.4857	2.0909	0.1	6111.6
29590	5.5771	2.	0.1	6124.
29591	5.4857	2.2727	0.1	6432.3
29592	5.5771	2.1818	0.1	6534.2
29593	5.4857	2.4545	0.1	6683.2
29594	5.5771	2.3636	0.1	6858.2
29595	5.4857	2.6364	0.1	6857.5
29596	5.5771	2.5455	0.1	7083.5
29597	5.4857	2.8182	0.1	6957.8
29598	5.5771	2.7273	0.1	7217.8
29599	5.4857	3.	0.1	6990.3
29600	5.5771	2.9091	0.1	7278.7
29601	5.4857	3.1818	0.1	6957.8
29602	5.5771	3.0909	0.1	7278.7
29603	5.4857	3.3636	0.1	6857.5
29604	5.5771	3.2727	0.1	7217.8
29605	5.4857	3.5455	0.1	6683.2
29606	5.5771	3.4545	0.1	7083.5
29607	5.4857	3.7273	0.1	6432.3
29608	5.5771	3.6364	0.1	6858.2
29609	5.4857	3.9091	0.1	6111.6
29610	5.5771	3.8182	0.1	6534.2
29611	5.4857	4.0909	0.1	5736.8
29612	5.5771	4.	0.1	6124.
29613	5.4857	4.2727	0.1	5328.6
29614	5.5771	4.1818	0.1	5654.6
29615	5.4857	4.4545	0.1	4909.7
29616	5.5771	4.3636	0.1	5159.2
29617	5.4857	4.6364	0.1	4502.
29618	5.5771	4.5455	0.1	4671.1
29619	5.4857	4.8182	0.1	4123.6
29620	5.5771	4.7273	0.1	4218.5
29621	5.4857	5.	0.1	3786.6
29622	5.5771	4.9091	0.1	3816.1
29623	5.4857	5.1818	0.1	3497.9
29624	5.5771	5.0909	0.1	3469.9
29625	5.4857	5.3636	0.1	3261.4
29626	5.5771	5.2727	0.1	3181.6
29627	5.4857	5.5455	0.1	3079.1
29628	5.5771	5.4545	0.1	2952.4
29629	5.4857	5.7273	0.1	2954.5
29630	5.5771	5.6364	0.1	2784.2
29631	5.5771	5.8182	0.1	2682.4
29632	5.4857	5.9091	0.1	2854.2
29633	5.6686	0.27273	0.1	2513.8
29634	5.76	0.18182	0.1	2209.2
29635	5.6686	9.0909e-002	0.1	2395.3
29636	5.6686	0.45455	0.1	2661.4
29637	5.76	0.36364	0.1	2329.7
29638	5.6686	0.63636	0.1	2880.4
29639	5.76	0.54545	0.1	2533.4
29640	5.6686	0.81818	0.1	3164.8
29641	5.76	0.72727	0.1	2807.7
29642	5.6686	1.	0.1	3513.
29643	5.76	0.90909	0.1	3148.9
29644	5.6686	1.1818	0.1	3925.4
29645	5.76	1.0909	0.1	3559.6
29646	5.6686	1.3636	0.1	4400.9
29647	5.76	1.2727	0.1	4047.2
29648	5.6686	1.5455	0.1	4930.9
29649	5.76	1.4545	0.1	4620.3
29650	5.6686	1.7273	0.1	5491.7
29651	5.76	1.6364	0.1	5270.2
29652	5.6686	1.9091	0.1	6045.
29653	5.76	1.8182	0.1	5960.5
29654	5.6686	2.0909	0.1	6547.4
29655	5.76	2.	0.1	6621.1
29656	5.6686	2.2727	0.1	6958.7
29657	5.76	2.1818	0.1	7166.
29658	5.6686	2.4545	0.1	7255.1
29659	5.76	2.3636	0.1	7551.1
29660	5.6686	2.6364	0.1	7439.
29661	5.76	2.5455	0.1	7767.5
29662	5.6686	2.8182	0.1	7533.3
29663	5.76	2.7273	0.1	7867.2
29664	5.6686	3.	0.1	7561.7
29665	5.76	2.9091	0.1	7903.3
29666	5.6686	3.1818	0.1	7533.3
29667	5.76	3.0909	0.1	7903.3
29668	5.6686	3.3636	0.1	7439.
29669	5.76	3.2727	0.1	7867.2
29670	5.6686	3.5455	0.1	7255.1
29671	5.76	3.4545	0.1	7767.5
29672	5.6686	3.7273	0.1	6958.7
29673	5.76	3.6364	0.1	7551.1
29674	5.6686	3.9091	0.1	6547.4
29675	5.76	3.8182	0.1	7166.
29676	5.6686	4.0909	0.1	6045.
29677	5.76	4.	0.1	6621.2
29678	5.6686	4.2727	0.1	5491.7
29679	5.76	4.1818	0.1	5960.5
29680	5.6686	4.4545	0.1	4931.
29681	5.76	4.3636	0.1	5270.2
29682	5.6686	4.6364	0.1	4400.9
29683	5.76	4.5455	0.1	4620.3
29684	5.6686	4.8182	0.1	3925.4
29685	5.76	4.7273	0.1	4047.2
29686	5.6686	5.	0.1	3513.
29687	5.76	4.9091	0.1	3559.6
29688	5.6686	5.1818	0.1	3164.8
29689	5.76	5.0909	0.1	3148.9
29690	5.6686	5.3636	0.1	2880.4
29691	5.76	5.2727	0.1	2807.7
29692	5.6686	5.5455	0.1	2661.4
29693	5.76	5.4545	0.1	2533.4
29694	5.6686	5.7273	0.1	2513.8
29695	5.76	5.6364	0.1	2329.7
29696	5.76	5.8182	0.1	2209.2
29697	5.6686	5.9091	0.1	2395.3
29698	5.8514	0.27273	0.1	2027.9
29699	5.9429	0.18182	0.1	1689.5
29700	5.8514	9.0909e-002	0.1	1884.7
29701	5.8514	0.45455	0.1	2209.5
29702	5.9429	0.36364	0.1	1846.9
29703	5.8514	0.63636	0.1	2474.9
29704	5.9429	0.54545	0.1	2103.6
29705	5.8514	0.81818	0.1	2811.
29706	5.9429	0.72727	0.1	2430.
29707	5.8514	1.	0.1	3217.9
29708	5.9429	0.90909	0.1	2821.1
29709	5.8514	1.1818	0.1	3705.3
29710	5.9429	1.0909	0.1	3286.6
29711	5.8514	1.3636	0.1	4289.4
29712	5.9429	1.2727	0.1	3850.2
29713	5.8514	1.5455	0.1	4977.4
29714	5.9429	1.4545	0.1	4546.9
29715	5.8514	1.7273	0.1	5748.5
29716	5.9429	1.6364	0.1	5422.8
29717	5.8514	1.9091	0.1	6539.7
29718	5.9429	1.8182	0.1	6460.8
29719	5.8514	2.0909	0.1	7238.5
29720	5.9429	2.	0.1	7454.4
29721	5.8514	2.2727	0.1	7753.5
29722	5.9429	2.1818	0.1	8229.3
29723	5.8514	2.4545	0.1	8056.1
29724	5.9429	2.3636	0.1	8586.
29725	5.8514	2.6364	0.1	8187.8
29726	5.9429	2.5455	0.1	8660.4
29727	5.8514	2.8182	0.1	8229.7
29728	5.9429	2.7273	0.1	8632.5
29729	5.8514	3.	0.1	8237.6
29730	5.9429	2.9091	0.1	8600.8
29731	5.8514	3.1818	0.1	8229.7
29732	5.9429	3.0909	0.1	8600.8
29733	5.8514	3.3636	0.1	8187.8
29734	5.9429	3.2727	0.1	8632.5
29735	5.8514	3.5455	0.1	8056.1
29736	5.9429	3.4545	0.1	8660.4
29737	5.8514	3.7273	0.1	7753.5
29738	5.9429	3.6364	0.1	8586.
29739	5.8514	3.9091	0.1	7238.5
29740	5.9429	3.8182	0.1	8229.3
29741	5.8514	4.0909	0.1	6539.7
29742	5.9429	4.	0.1	7454.4
29743	5.8514	4.2727	0.1	5748.5
29744	5.9429	4.1818	0.1	6460.8
29745	5.8514	4.4545	0.1	4977.4
29746	5.9429	4.3636	0.1	5422.8
29747	5.8514	4.6364	0.1	4289.4
29748	5.9429	4.5455	0.1	4546.9
29749	5.8514	4.8182	0.1	3705.3
29750	5.9429	4.7273	0.1	3850.2
29751	5.8514	5.	0.1	3217.9
29752	5.9429	4.9091	0.1	3286.6
29753	5.8514	5.1818	0.1	2811.
29754	5.9429	5.0909	0.1	2821.1
29755	5.8514	5.3636	0.1	2474.9
29756	5.9429	5.2727	0.1	2430.
29757	5.8514	5.5455	0.1	2209.5
29758	5.9429	5.4545	0.1	2103.6
29759	5.8514	5.7273	0.1	2027.9
29760	5.9429	5.6364	0.1	1846.9
29761	5.9429	5.8182	0.1	1689.5
29762	5.8514	5.9091	0.1	1884.7
29763	6.0343	0.27273	0.1	1515.2
29764	6.1257	0.18182	0.1	1148.6
29765	6.0343	9.0909e-002	0.1	1326.3
29766	6.0343	0.45455	0.1	1759.
29767	6.1257	0.36364	0.1	1405.5
29768	6.0343	0.63636	0.1	2085.
29769	6.1257	0.54545	0.1	1747.7
29770	6.0343	0.81818	0.1	2471.1
29771	6.1257	0.72727	0.1	2134.2
29772	6.0343	1.	0.1	2924.1
29773	6.1257	0.90909	0.1	2569.9
29774	6.0343	1.1818	0.1	3468.9
29775	6.1257	1.0909	0.1	3076.4
29776	6.0343	1.3636	0.1	4147.3
29777	6.1257	1.2727	0.1	3692.4
29778	6.0343	1.5455	0.1	5025.7
29779	6.1257	1.4545	0.1	4494.1
29780	6.0343	1.7273	0.1	6155.
29781	6.1257	1.6364	0.1	5589.3
29782	6.0343	1.9091	0.1	7371.3
29783	6.1257	1.8182	0.1	7463.3
29784	6.0343	2.0909	0.1	8434.4
29785	6.1257	2.	0.1	9691.9
29786	6.0343	2.2727	0.1	9045.4
29787	6.1257	2.1818	0.1	10261
29788	6.0343	2.4545	0.1	9175.9
29789	6.1257	2.3636	0.1	10102
29790	6.0343	2.6364	0.1	9094.5
29791	6.1257	2.5455	0.1	9700.4
29792	6.0343	2.8182	0.1	8995.2
29793	6.1257	2.7273	0.1	9417.3
29794	6.0343	3.	0.1	8956.2
29795	6.1257	2.9091	0.1	9271.7
29796	6.0343	3.1818	0.1	8995.2
29797	6.1257	3.0909	0.1	9271.7
29798	6.0343	3.3636	0.1	9094.5
29799	6.1257	3.2727	0.1	9417.3
29800	6.0343	3.5455	0.1	9175.9
29801	6.1257	3.4545	0.1	9700.4
29802	6.0343	3.7273	0.1	9045.4
29803	6.1257	3.6364	0.1	10102
29804	6.0343	3.9091	0.1	8434.4
29805	6.1257	3.8182	0.1	10261
29806	6.0343	4.0909	0.1	7371.3
29807	6.1257	4.	0.1	9692.
29808	6.0343	4.2727	0.1	6155.
29809	6.1257	4.1818	0.1	7463.3
29810	6.0343	4.4545	0.1	5025.7
29811	6.1257	4.3636	0.1	5589.3
29812	6.0343	4.6364	0.1	4147.3
29813	6.1257	4.5455	0.1	4494.1
29814	6.0343	4.8182	0.1	3468.9
29815	6.1257	4.7273	0.1	3692.4
29816	6.0343	5.	0.1	2924.1
29817	6.1257	4.9091	0.1	3076.4
29818	6.0343	5.1818	0.1	2471.1
29819	6.1257	5.0909	0.1	2569.9
29820	6.0343	5.3636	0.1	2085.
29821	6.1257	5.2727	0.1	2134.2
29822	6.0343	5.5455	0.1	1759.
29823	6.1257	5.4545	0.1	1747.7
29824	6.0343	5.7273	0.1	1515.2
29825	6.1257	5.6364	0.1	1405.5
29826	6.1257	5.8182	0.1	1148.6
29827	6.0343	5.9091	0.1	1326.3
29828	6.2171	0.27273	0.1	1069.
29829	6.3086	0.18182	0.1	640.72
29830	6.2171	9.0909e-002	0.1	742.33
29831	6.2171	0.45455	0.1	1437.9
29832	6.3086	0.36364	0.1	979.09
29833	6.2171	0.63636	0.1	1841.2
29834	6.3086	0.54545	0.1	1314.2
29835	6.2171	0.81818	0.1	2277.7
29836	6.3086	0.72727	0.1	1654.5
29837	6.2171	1.	0.1	2770.
29838	6.3086	0.90909	0.1	2018.8
29839	6.2171	1.1818	0.1	3355.3
29840	6.3086	1.0909	0.1	2431.5
29841	6.2171	1.3636	0.1	4107.6
29842	6.3086	1.2727	0.1	2928.7
29843	6.2171	1.5455	0.1	5156.6
29844	6.3086	1.4545	0.1	3587.9
29845	6.2171	1.7273	0.1	6976.7
29846	6.3086	1.6364	0.1	4521.8
29847	6.2171	1.9091	0.1	9747.1
29848	6.3086	1.8182	0.1	6219.7
29849	6.2171	2.0909	0.1	11431
29850	6.3086	2.	0.1	16807
29851	6.2171	2.2727	0.1	11279
29852	6.3086	2.1818	0.1	13504
29853	6.2171	2.4545	0.1	10612
29854	6.3086	2.3636	0.1	11685
29855	6.2171	2.6364	0.1	10016
29856	6.3086	2.5455	0.1	10601
29857	6.2171	2.8182	0.1	9688.1
29858	6.3086	2.7273	0.1	10018
29859	6.2171	3.	0.1	9581.6
29860	6.3086	2.9091	0.1	9755.9
29861	6.2171	3.1818	0.1	9688.1
29862	6.3086	3.0909	0.1	9755.9
29863	6.2171	3.3636	0.1	10016
29864	6.3086	3.2727	0.1	10018
29865	6.2171	3.5455	0.1	10612
29866	6.3086	3.4545	0.1	10601
29867	6.2171	3.7273	0.1	11279
29868	6.3086	3.6364	0.1	11685
29869	6.2171	3.9091	0.1	11431
29870	6.3086	3.8182	0.1	13504
29871	6.2171	4.0909	0.1	9747.1
29872	6.3086	4.	0.1	16807
29873	6.2171	4.2727	0.1	6976.7
29874	6.3086	4.1818	0.1	6219.7
29875	6.2171	4.4545	0.1	5156.6
29876	6.3086	4.3636	0.1	4521.8
29877	6.2171	4.6364	0.1	4107.6
29878	6.3086	4.5455	0.1	3587.9
29879	6.2171	4.8182	0.1	3355.3
29880	6.3086	4.7273	0.1	2928.7
29881	6.2171	5.	0.1	2770.
29882	6.3086	4.9091	0.1	2431.5
29883	6.2171	5.1818	0.1	2277.7
29884	6.3086	5.0909	0.1	2018.8
29885	6.2171	5.3636	0.1	1841.2
29886	6.3086	5.2727	0.1	1654.5
29887	6.2171	5.5455	0.1	1437.9
29888	6.3086	5.4545	0.1	1314.2
29889	6.2171	5.7273	0.1	1069.
29890	6.3086	5.6364	0.1	979.09
29891	6.3086	5.8182	0.1	640.72
29892	6.2171	5.9091	0.1	742.33
29893	6.5667	3.7273	0.1	13986
29894	6.4833	3.8182	0.1	15446
29895	6.5667	3.9091	0.1	18698
29896	6.5667	3.5455	0.1	11666
29897	6.4833	3.6364	0.1	12367
29898	6.5667	3.3636	0.1	10567
29899	6.4833	3.4545	0.1	10946
29900	6.5667	3.1818	0.1	10040
29901	6.4833	3.2727	0.1	10218
29902	6.5667	3.	0.1	9882.
29903	6.4833	3.0909	0.1	9905.3
29904	6.5667	2.8182	0.1	10040
29905	6.4833	2.9091	0.1	9905.3
29906	6.5667	2.6364	0.1	10567
29907	6.4833	2.7273	0.1	10218
29908	6.5667	2.4545	0.1	11666
29909	6.4833	2.5455	0.1	10946
29910	6.5667	2.2727	0.1	13986
29911	6.4833	2.3636	0.1	12367
29912	6.4833	2.1818	0.1	15446
29913	6.5667	2.0909	0.1	18698
29914	6.4	3.7273	0.1	14010
29915	6.4	3.9091	0.1	18693
29916	6.4	3.5455	0.1	11702
29917	6.4	3.3636	0.1	10611
29918	6.4	3.1818	0.1	10086
29919	6.4	3.	0.1	9928.7
29920	6.4	2.8182	0.1	10086
29921	6.4	2.6364	0.1	10611
29922	6.4	2.4545	0.1	11702
29923	6.4	2.2727	0.1	14010
29924	6.4	2.0909	0.1	18693
29925	6.5667	5.7273	0.1	558.05
29926	6.5667	5.9091	0.1	219.44
29927	6.5667	5.8182	5.e-002	95.773
29928	6.5667	5.5455	0.1	845.06
29929	6.5667	5.6364	5.e-002	204.36
29930	6.5667	5.3636	0.1	1114.7
29931	6.5667	5.4545	5.e-002	311.81
29932	6.5667	5.1818	0.1	1396.1
29933	6.5667	5.2727	5.e-002	428.02
29934	6.5667	5.	0.1	1711.2
29935	6.5667	5.0909	5.e-002	559.14
29936	6.5667	4.8182	0.1	2087.3
29937	6.5667	4.9091	5.e-002	714.2
29938	6.5667	4.6364	0.1	2577.2
29939	6.5667	4.7273	5.e-002	908.56
29940	6.5667	4.4545	0.1	3247.6
29941	6.5667	4.5455	5.e-002	1168.8
29942	6.5667	4.2727	0.1	4563.7
29943	6.5667	4.3636	5.e-002	1581.7
29944	6.5667	4.0909	0.1	12546
29945	6.5667	4.1818	5.e-002	2632.1
29946	6.4833	4.	0.1	19929
29947	6.5667	4.	5.e-002	2250.8
29948	6.4	4.0909	0.1	12420
29949	6.4	4.	5.e-002	2551.
29950	6.4	4.2727	0.1	4556.7
29951	6.4	4.1818	5.e-002	2911.5
29952	6.4	4.4545	0.1	3321.
29953	6.4	4.3636	5.e-002	1798.6
29954	6.4	4.6364	0.1	2697.7
29955	6.4	4.5455	5.e-002	1346.5
29956	6.4	4.8182	0.1	2233.4
29957	6.4	4.7273	5.e-002	1059.5
29958	6.4	5.	0.1	1867.9
29959	6.4	4.9091	5.e-002	841.31
29960	6.4	5.1818	0.1	1551.3
29961	6.4	5.0909	5.e-002	664.13
29962	6.4	5.3636	0.1	1258.
29963	6.4	5.2727	5.e-002	511.73
29964	6.4	5.5455	0.1	966.55
29965	6.4	5.4545	5.e-002	374.65
29966	6.4	5.7273	0.1	645.39
29967	6.4	5.6364	5.e-002	246.39
29968	6.4	5.9091	0.1	255.67
29969	6.4	5.8182	5.e-002	115.99
29970	6.5667	0.27273	0.1	558.05
29971	6.5667	9.0909e-002	0.1	219.44
29972	6.5667	0.18182	5.e-002	95.773
29973	6.5667	0.45455	0.1	845.06
29974	6.5667	0.36364	5.e-002	204.36
29975	6.5667	0.63636	0.1	1114.7
29976	6.5667	0.54545	5.e-002	311.81
29977	6.5667	0.81818	0.1	1396.1
29978	6.5667	0.72727	5.e-002	428.02
29979	6.5667	1.	0.1	1711.2
29980	6.5667	0.90909	5.e-002	559.14
29981	6.5667	1.1818	0.1	2087.3
29982	6.5667	1.0909	5.e-002	714.2
29983	6.5667	1.3636	0.1	2577.2
29984	6.5667	1.2727	5.e-002	908.56
29985	6.5667	1.5455	0.1	3247.6
29986	6.5667	1.4545	5.e-002	1168.8
29987	6.5667	1.7273	0.1	4563.7
29988	6.5667	1.6364	5.e-002	1581.7
29989	6.5667	1.9091	0.1	12546
29990	6.5667	1.8182	5.e-002	2632.1
29991	6.4833	2.	0.1	19929
29992	6.5667	2.	5.e-002	2250.8
29993	6.4	1.9091	0.1	12420
29994	6.4	2.	5.e-002	2551.
29995	6.4	1.7273	0.1	4556.7
29996	6.4	1.8182	5.e-002	2911.5
29997	6.4	1.5455	0.1	3321.
29998	6.4	1.6364	5.e-002	1798.6
29999	6.4	1.3636	0.1	2697.6
30000	6.4	1.4545	5.e-002	1346.5
30001	6.4	1.1818	0.1	2233.4
30002	6.4	1.2727	5.e-002	1059.5
30003	6.4	1.	0.1	1867.9
30004	6.4	1.0909	5.e-002	841.31
30005	6.4	0.81818	0.1	1551.3
30006	6.4	0.90909	5.e-002	664.13
30007	6.4	0.63636	0.1	1258.
30008	6.4	0.72727	5.e-002	511.73
30009	6.4	0.45455	0.1	966.55
30010	6.4	0.54545	5.e-002	374.65
30011	6.4	0.27273	0.1	645.39
30012	6.4	0.36364	5.e-002	246.39
30013	6.4	9.0909e-002	0.1	255.67
30014	6.4	0.18182	5.e-002	115.99
30015	6.6584	6.	0.1	287.31
30016	6.5667	6.	5.e-002	29.787
30017	6.8419	6.	0.1	796.61
30018	6.7502	6.	5.e-002	22.305
30019	7.0254	6.	0.1	1283.1
30020	6.9337	6.	5.e-002	58.009
30021	7.2089	6.	0.1	1711.8
30022	7.1172	6.	5.e-002	75.667
30023	7.3925	6.	0.1	2085.2
30024	7.3007	6.	5.e-002	84.484
30025	7.576	6.	0.1	2402.8
30026	7.4842	6.	5.e-002	87.011
30027	7.7595	6.	0.1	2666.1
30028	7.6677	6.	5.e-002	85.62
30029	7.943	6.	0.1	2878.8
30030	7.8512	6.	5.e-002	81.954
30031	8.1265	6.	0.1	3046.
30032	8.0347	6.	5.e-002	77.216
30033	8.31	6.	0.1	3173.5
30034	8.2182	6.	5.e-002	72.22
30035	8.4935	6.	0.1	3267.3
30036	8.4018	6.	5.e-002	67.483
30037	8.677	6.	0.1	3332.6
30038	8.5853	6.	5.e-002	63.302
30039	8.8605	6.	0.1	3374.6
30040	8.7688	6.	5.e-002	59.815
30041	9.044	6.	0.1	3397.4
30042	8.9523	6.	5.e-002	57.059
30043	9.2275	6.	0.1	3404.6
30044	9.1358	6.	5.e-002	55.007
30045	9.4111	6.	0.1	3399.4
30046	9.3193	6.	5.e-002	53.593
30047	9.5946	6.	0.1	3384.2
30048	9.5028	6.	5.e-002	52.738
30049	9.7781	6.	0.1	3361.1
30050	9.6863	6.	5.e-002	52.355
30051	9.9616	6.	0.1	3331.7
30052	9.8698	6.	5.e-002	52.358
30053	10.145	6.	0.1	3297.4
30054	10.053	6.	5.e-002	52.671
30055	10.329	6.	0.1	3259.2
30056	10.237	6.	5.e-002	53.223
30057	10.512	6.	0.1	3218.1
30058	10.42	6.	5.e-002	53.954
30059	10.696	6.	0.1	3174.6
30060	10.604	6.	5.e-002	54.812
30061	10.879	6.	0.1	3129.4
30062	10.787	6.	5.e-002	55.754
30063	11.063	6.	0.1	3082.9
30064	10.971	6.	5.e-002	56.746
30065	11.246	6.	0.1	3035.4
30066	11.154	6.	5.e-002	57.758
30067	11.43	6.	0.1	2987.2
30068	11.338	6.	5.e-002	58.768
30069	11.613	6.	0.1	2938.5
30070	11.521	6.	5.e-002	59.758
30071	11.797	6.	0.1	2889.5
30072	11.705	6.	5.e-002	60.715
30073	11.98	6.	0.1	2840.3
30074	11.888	6.	5.e-002	61.628
30075	12.164	6.	0.1	2791.
30076	12.072	6.	5.e-002	62.491
30077	12.347	6.	0.1	2741.7
30078	12.255	6.	5.e-002	63.298
30079	12.531	6.	0.1	2692.4
30080	12.439	6.	5.e-002	64.047
30081	12.714	6.	0.1	2643.2
30082	12.622	6.	5.e-002	64.735
30083	12.898	6.	0.1	2594.2
30084	12.806	6.	5.e-002	65.363
30085	13.081	6.	0.1	2545.2
30086	12.989	6.	5.e-002	65.931
30087	13.265	6.	0.1	2496.5
30088	13.173	6.	5.e-002	66.439
30089	13.448	6.	0.1	2448.
30090	13.356	6.	5.e-002	66.89
30091	13.632	6.	0.1	2399.6
30092	13.54	6.	5.e-002	67.286
30093	13.815	6.	0.1	2351.5
30094	13.724	6.	5.e-002	67.627
30095	13.999	6.	0.1	2303.5
30096	13.907	6.	5.e-002	67.918
30097	14.182	6.	0.1	2255.8
30098	14.091	6.	5.e-002	68.159
30099	14.366	6.	0.1	2208.3
30100	14.274	6.	5.e-002	68.354
30101	14.549	6.	0.1	2161.
30102	14.458	6.	5.e-002	68.504
30103	14.733	6.	0.1	2113.9
30104	14.641	6.	5.e-002	68.612
30105	14.916	6.	0.1	2067.1
30106	14.825	6.	5.e-002	68.679
30107	15.1	6.	0.1	2020.4
30108	15.008	6.	5.e-002	68.708
30109	15.283	6.	0.1	1974.
30110	15.192	6.	5.e-002	68.7
30111	15.467	6.	0.1	1927.8
30112	15.375	6.	5.e-002	68.658
30113	15.65	6.	0.1	1881.8
30114	15.559	6.	5.e-002	68.582
30115	15.834	6.	0.1	1836.
30116	15.742	6.	5.e-002	68.473
30117	16.017	6.	0.1	1790.4
30118	15.926	6.	5.e-002	68.334
30119	16.201	6.	0.1	1745.1
30120	16.109	6.	5.e-002	68.165
30121	16.384	6.	0.1	1699.9
30122	16.293	6.	5.e-002	67.966
30123	16.568	6.	0.1	1655.
30124	16.476	6.	5.e-002	67.739
30125	16.751	6.	0.1	1610.2
30126	16.66	6.	5.e-002	67.485
30127	16.935	6.	0.1	1565.7
30128	16.843	6.	5.e-002	67.202
30129	17.118	6.	0.1	1521.3
30130	17.027	6.	5.e-002	66.892
30131	17.302	6.	0.1	1477.1
30132	17.21	6.	5.e-002	66.555
30133	17.485	6.	0.1	1433.2
30134	17.394	6.	5.e-002	66.19
30135	17.669	6.	0.1	1389.4
30136	17.577	6.	5.e-002	65.797
30137	17.852	6.	0.1	1345.8
30138	17.761	6.	5.e-002	65.376
30139	18.036	6.	0.1	1302.4
30140	17.944	6.	5.e-002	64.925
30141	18.219	6.	0.1	1259.2
30142	18.128	6.	5.e-002	64.445
30143	18.403	6.	0.1	1216.2
30144	18.311	6.	5.e-002	63.934
30145	18.586	6.	0.1	1173.4
30146	18.495	6.	5.e-002	63.391
30147	18.77	6.	0.1	1130.7
30148	18.678	6.	5.e-002	62.814
30149	18.954	6.	0.1	1088.3
30150	18.862	6.	5.e-002	62.202
30151	19.137	6.	0.1	1046.
30152	19.045	6.	5.e-002	61.552
30153	19.321	6.	0.1	1003.8
30154	19.229	6.	5.e-002	60.864
30155	19.504	6.	0.1	961.87
30156	19.412	6.	5.e-002	60.134
30157	19.688	6.	0.1	920.08
30158	19.596	6.	5.e-002	59.359
30159	19.871	6.	0.1	878.46
30160	19.779	6.	5.e-002	58.538
30161	20.055	6.	0.1	837.
30162	19.963	6.	5.e-002	57.666
30163	20.238	6.	0.1	795.7
30164	20.146	6.	5.e-002	56.74
30165	20.422	6.	0.1	754.55
30166	20.33	6.	5.e-002	55.755
30167	20.605	6.	0.1	713.57
30168	20.513	6.	5.e-002	54.709
30169	20.789	6.	0.1	672.73
30170	20.697	6.	5.e-002	53.594
30171	20.972	6.	0.1	632.05
30172	20.88	6.	5.e-002	52.407
30173	21.156	6.	0.1	591.53
30174	21.064	6.	5.e-002	51.141
30175	21.339	6.	0.1	551.16
30176	21.247	6.	5.e-002	49.789
30177	21.523	6.	0.1	510.94
30178	21.431	6.	5.e-002	48.343
30179	21.706	6.	0.1	470.88
30180	21.614	6.	5.e-002	46.795
30181	21.89	6.	0.1	431.
30182	21.798	6.	5.e-002	45.133
30183	22.073	6.	0.1	391.29
30184	21.981	6.	5.e-002	43.348
30185	22.257	6.	0.1	351.77
30186	22.165	6.	5.e-002	41.424
30187	22.44	6.	0.1	312.47
30188	22.348	6.	5.e-002	39.346
30189	22.624	6.	0.1	273.42
30190	22.532	6.	5.e-002	37.091
30191	22.807	6.	0.1	234.66
30192	22.715	6.	5.e-002	34.636
30193	22.991	6.	0.1	196.26
30194	22.899	6.	5.e-002	31.947
30195	23.174	6.	0.1	158.34
30196	23.082	6.	5.e-002	28.977
30197	23.358	6.	0.1	121.05
30198	23.266	6.	5.e-002	25.66
30199	23.541	6.	0.1	84.7
30200	23.449	6.	5.e-002	21.892
30201	23.725	6.	0.1	49.957
30202	23.633	6.	5.e-002	17.475
30203	23.908	6.	0.1	18.532
30204	23.816	6.	5.e-002	11.779
30205	24.	5.9091	0.1	5.8582
30206	24.	6.	5.e-002	4.5318
30207	24.	5.7273	0.1	6.8915
30208	24.	5.8182	5.e-002	4.035
30209	24.	5.5455	0.1	7.1418
30210	24.	5.6364	5.e-002	4.6226
30211	24.	5.3636	0.1	7.2223
30212	24.	5.4545	5.e-002	5.1323
30213	24.	5.1818	0.1	7.2309
30214	24.	5.2727	5.e-002	5.4077
30215	24.	5.	0.1	7.2003
30216	24.	5.0909	5.e-002	5.5323
30217	24.	4.8182	0.1	7.1552
30218	24.	4.9091	5.e-002	5.5527
30219	24.	4.6364	0.1	7.104
30220	24.	4.7273	5.e-002	5.5005
30221	24.	4.4545	0.1	7.0524
30222	24.	4.5455	5.e-002	5.3987
30223	24.	4.2727	0.1	7.0034
30224	24.	4.3636	5.e-002	5.2651
30225	24.	4.0909	0.1	6.9588
30226	24.	4.1818	5.e-002	5.1144
30227	24.	3.9091	0.1	6.9198
30228	24.	4.	5.e-002	4.9591
30229	24.	3.7273	0.1	6.8872
30230	24.	3.8182	5.e-002	4.8102
30231	24.	3.5455	0.1	6.8615
30232	24.	3.6364	5.e-002	4.6774
30233	24.	3.3636	0.1	6.843
30234	24.	3.4545	5.e-002	4.5695
30235	24.	3.1818	0.1	6.8318
30236	24.	3.2727	5.e-002	4.4933
30237	24.	3.	0.1	6.828
30238	24.	3.0909	5.e-002	4.4538
30239	24.	2.8182	0.1	6.8318
30240	24.	2.9091	5.e-002	4.4538
30241	24.	2.6364	0.1	6.843
30242	24.	2.7273	5.e-002	4.4933
30243	24.	2.4545	0.1	6.8615
30244	24.	2.5455	5.e-002	4.5695
30245	24.	2.2727	0.1	6.8872
30246	24.	2.3636	5.e-002	4.6775
30247	24.	2.0909	0.1	6.9198
30248	24.	2.1818	5.e-002	4.8102
30249	24.	1.9091	0.1	6.9588
30250	24.	2.	5.e-002	4.9591
30251	24.	1.7273	0.1	7.0034
30252	24.	1.8182	5.e-002	5.1144
30253	24.	1.5455	0.1	7.0524
30254	24.	1.6364	5.e-002	5.2651
30255	24.	1.3636	0.1	7.104
30256	24.	1.4545	5.e-002	5.3987
30257	24.	1.1818	0.1	7.1552
30258	24.	1.2727	5.e-002	5.5005
30259	24.	1.	0.1	7.2003
30260	24.	1.0909	5.e-002	5.5527
30261	24.	0.81818	0.1	7.2309
30262	24.	0.90909	5.e-002	5.5323
30263	24.	0.63636	0.1	7.2223
30264	24.	0.72727	5.e-002	5.4077
30265	24.	0.45455	0.1	7.1418
30266	24.	0.54545	5.e-002	5.1323
30267	24.	0.27273	0.1	6.8914
30268	24.	0.36364	5.e-002	4.6226
30269	24.	9.0909e-002	0.1	5.8581
30270	24.	0.18182	5.e-002	4.035
30271	2.3842e-015	0.27273	0.1	3570.6
30272	7.9472e-016	9.0909e-002	0.1	1456.8
30273	1.6109e-015	0.18182	5.e-002	93.645
30274	3.9736e-015	0.45455	0.1	5188.1
30275	3.2219e-015	0.36364	5.e-002	50.43
30276	5.563e-015	0.63636	0.1	6032.4
30277	4.8328e-015	0.54545	5.e-002	45.653
30278	7.1525e-015	0.81818	0.1	6566.8
30279	6.4438e-015	0.72727	5.e-002	40.19
30280	8.7419e-015	1.	0.1	6932.2
30281	8.0547e-015	0.90909	5.e-002	34.229
30282	1.0331e-014	1.1818	0.1	7196.
30283	9.6657e-015	1.0909	5.e-002	29.099
30284	1.1921e-014	1.3636	0.1	7392.3
30285	1.1277e-014	1.2727	5.e-002	24.923
30286	1.351e-014	1.5455	0.1	7541.3
30287	1.2888e-014	1.4545	5.e-002	21.512
30288	1.51e-014	1.7273	0.1	7655.6
30289	1.4498e-014	1.6364	5.e-002	18.732
30290	1.6689e-014	1.9091	0.1	7743.5
30291	1.6109e-014	1.8182	5.e-002	16.473
30292	1.8279e-014	2.0909	0.1	7810.8
30293	1.772e-014	2.	5.e-002	14.652
30294	1.9868e-014	2.2727	0.1	7861.5
30295	1.9331e-014	2.1818	5.e-002	13.209
30296	2.1457e-014	2.4545	0.1	7898.4
30297	2.0942e-014	2.3636	5.e-002	12.099
30298	2.3047e-014	2.6364	0.1	7923.5
30299	2.2553e-014	2.5455	5.e-002	11.291
30300	2.4636e-014	2.8182	0.1	7938.1
30301	2.4164e-014	2.7273	5.e-002	10.763
30302	2.6226e-014	3.	0.1	7942.8
30303	2.5775e-014	2.9091	5.e-002	10.502
30304	2.7815e-014	3.1818	0.1	7938.1
30305	2.7386e-014	3.0909	5.e-002	10.502
30306	2.9405e-014	3.3636	0.1	7923.5
30307	2.8997e-014	3.2727	5.e-002	10.763
30308	3.0994e-014	3.5455	0.1	7898.4
30309	3.0608e-014	3.4545	5.e-002	11.291
30310	3.2583e-014	3.7273	0.1	7861.5
30311	3.2219e-014	3.6364	5.e-002	12.099
30312	3.4173e-014	3.9091	0.1	7810.8
30313	3.383e-014	3.8182	5.e-002	13.209
30314	3.5762e-014	4.0909	0.1	7743.5
30315	3.5441e-014	4.	5.e-002	14.652
30316	3.7352e-014	4.2727	0.1	7655.6
30317	3.7052e-014	4.1818	5.e-002	16.473
30318	3.8941e-014	4.4545	0.1	7541.3
30319	3.8663e-014	4.3636	5.e-002	18.732
30320	4.0531e-014	4.6364	0.1	7392.3
30321	4.0274e-014	4.5455	5.e-002	21.512
30322	4.212e-014	4.8182	0.1	7196.
30323	4.1885e-014	4.7273	5.e-002	24.923
30324	4.371e-014	5.	0.1	6932.2
30325	4.3495e-014	4.9091	5.e-002	29.099
30326	4.5299e-014	5.1818	0.1	6566.8
30327	4.5106e-014	5.0909	5.e-002	34.229
30328	4.6888e-014	5.3636	0.1	6032.4
30329	4.6717e-014	5.2727	5.e-002	40.191
30330	4.8478e-014	5.5455	0.1	5188.1
30331	4.8328e-014	5.4545	5.e-002	45.653
30332	5.0067e-014	5.7273	0.1	3570.6
30333	4.9939e-014	5.6364	5.e-002	50.431
30334	5.1657e-014	5.9091	0.1	1456.8
30335	5.155e-014	5.8182	5.e-002	93.645
30336	23.908	0.	0.1	18.532
30337	24.	0.	5.e-002	4.5318
30338	23.725	0.	0.1	49.957
30339	23.816	0.	5.e-002	11.779
30340	23.541	0.	0.1	84.7
30341	23.633	0.	5.e-002	17.475
30342	23.358	0.	0.1	121.05
30343	23.449	0.	5.e-002	21.892
30344	23.174	0.	0.1	158.34
30345	23.266	0.	5.e-002	25.66
30346	22.991	0.	0.1	196.26
30347	23.082	0.	5.e-002	28.977
30348	22.807	0.	0.1	234.66
30349	22.899	0.	5.e-002	31.947
30350	22.624	0.	0.1	273.42
30351	22.715	0.	5.e-002	34.636
30352	22.44	0.	0.1	312.47
30353	22.532	0.	5.e-002	37.091
30354	22.257	0.	0.1	351.77
30355	22.348	0.	5.e-002	39.346
30356	22.073	0.	0.1	391.29
30357	22.165	0.	5.e-002	41.424
30358	21.89	0.	0.1	431.
30359	21.981	0.	5.e-002	43.348
30360	21.706	0.	0.1	470.88
30361	21.798	0.	5.e-002	45.134
30362	21.523	0.	0.1	510.94
30363	21.614	0.	5.e-002	46.795
30364	21.339	0.	0.1	551.16
30365	21.431	0.	5.e-002	48.343
30366	21.156	0.	0.1	591.53
30367	21.247	0.	5.e-002	49.789
30368	20.972	0.	0.1	632.05
30369	21.064	0.	5.e-002	51.141
30370	20.789	0.	0.1	672.73
30371	20.88	0.	5.e-002	52.407
30372	20.605	0.	0.1	713.57
30373	20.697	0.	5.e-002	53.594
30374	20.422	0.	0.1	754.55
30375	20.513	0.	5.e-002	54.709
30376	20.238	0.	0.1	795.7
30377	20.33	0.	5.e-002	55.755
30378	20.055	0.	0.1	837.
30379	20.146	0.	5.e-002	56.74
30380	19.871	0.	0.1	878.46
30381	19.963	0.	5.e-002	57.666
30382	19.688	0.	0.1	920.08
30383	19.779	0.	5.e-002	58.538
30384	19.504	0.	0.1	961.87
30385	19.596	0.	5.e-002	59.359
30386	19.321	0.	0.1	1003.8
30387	19.412	0.	5.e-002	60.134
30388	19.137	0.	0.1	1046.
30389	19.229	0.	5.e-002	60.864
30390	18.954	0.	0.1	1088.3
30391	19.045	0.	5.e-002	61.552
30392	18.77	0.	0.1	1130.7
30393	18.862	0.	5.e-002	62.202
30394	18.586	0.	0.1	1173.4
30395	18.678	0.	5.e-002	62.814
30396	18.403	0.	0.1	1216.2
30397	18.495	0.	5.e-002	63.391
30398	18.219	0.	0.1	1259.2
30399	18.311	0.	5.e-002	63.934
30400	18.036	0.	0.1	1302.4
30401	18.128	0.	5.e-002	64.445
30402	17.852	0.	0.1	1345.8
30403	17.944	0.	5.e-002	64.925
30404	17.669	0.	0.1	1389.4
30405	17.761	0.	5.e-002	65.376
30406	17.485	0.	0.1	1433.2
30407	17.577	0.	5.e-002	65.797
30408	17.302	0.	0.1	1477.1
30409	17.394	0.	5.e-002	66.19
30410	17.118	0.	0.1	1521.3
30411	17.21	0.	5.e-002	66.555
30412	16.935	0.	0.1	1565.7
30413	17.027	0.	5.e-002	66.892
30414	16.751	0.	0.1	1610.2
30415	16.843	0.	5.e-002	67.202
30416	16.568	0.	0.1	1655.
30417	16.66	0.	5.e-002	67.485
30418	16.384	0.	0.1	1699.9
30419	16.476	0.	5.e-002	67.739
30420	16.201	0.	0.1	1745.1
30421	16.293	0.	5.e-002	67.966
30422	16.017	0.	0.1	1790.4
30423	16.109	0.	5.e-002	68.165
30424	15.834	0.	0.1	1836.
30425	15.926	0.	5.e-002	68.334
30426	15.65	0.	0.1	1881.8
30427	15.742	0.	5.e-002	68.473
30428	15.467	0.	0.1	1927.8
30429	15.559	0.	5.e-002	68.582
30430	15.283	0.	0.1	1974.
30431	15.375	0.	5.e-002	68.658
30432	15.1	0.	0.1	2020.4
30433	15.192	0.	5.e-002	68.7
30434	14.916	0.	0.1	2067.1
30435	15.008	0.	5.e-002	68.708
30436	14.733	0.	0.1	2113.9
30437	14.825	0.	5.e-002	68.679
30438	14.549	0.	0.1	2161.
30439	14.641	0.	5.e-002	68.612
30440	14.366	0.	0.1	2208.3
30441	14.458	0.	5.e-002	68.504
30442	14.182	0.	0.1	2255.8
30443	14.274	0.	5.e-002	68.354
30444	13.999	0.	0.1	2303.5
30445	14.091	0.	5.e-002	68.159
30446	13.815	0.	0.1	2351.5
30447	13.907	0.	5.e-002	67.918
30448	13.632	0.	0.1	2399.6
30449	13.724	0.	5.e-002	67.627
30450	13.448	0.	0.1	2448.
30451	13.54	0.	5.e-002	67.286
30452	13.265	0.	0.1	2496.5
30453	13.356	0.	5.e-002	66.89
30454	13.081	0.	0.1	2545.2
30455	13.173	0.	5.e-002	66.439
30456	12.898	0.	0.1	2594.2
30457	12.989	0.	5.e-002	65.931
30458	12.714	0.	0.1	2643.2
30459	12.806	0.	5.e-002	65.363
30460	12.531	0.	0.1	2692.4
30461	12.622	0.	5.e-002	64.735
30462	12.347	0.	0.1	2741.7
30463	12.439	0.	5.e-002	64.047
30464	12.164	0.	0.1	2791.
30465	12.255	0.	5.e-002	63.298
30466	11.98	0.	0.1	2840.3
30467	12.072	0.	5.e-002	62.491
30468	11.797	0.	0.1	2889.5
30469	11.888	0.	5.e-002	61.628
30470	11.613	0.	0.1	2938.5
30471	11.705	0.	5.e-002	60.715
30472	11.43	0.	0.1	2987.2
30473	11.521	0.	5.e-002	59.758
30474	11.246	0.	0.1	3035.4
30475	11.338	0.	5.e-002	58.768
30476	11.063	0.	0.1	3082.9
30477	11.154	0.	5.e-002	57.758
30478	10.879	0.	0.1	3129.4
30479	10.971	0.	5.e-002	56.746
30480	10.696	0.	0.1	3174.6
30481	10.787	0.	5.e-002	55.754
30482	10.512	0.	0.1	3218.1
30483	10.604	0.	5.e-002	54.812
30484	10.329	0.	0.1	3259.2
30485	10.42	0.	5.e-002	53.954
30486	10.145	0.	0.1	3297.4
30487	10.237	0.	5.e-002	53.223
30488	9.9616	0.	0.1	3331.7
30489	10.053	0.	5.e-002	52.671
30490	9.7781	0.	0.1	3361.1
30491	9.8698	0.	5.e-002	52.358
30492	9.5946	0.	0.1	3384.2
30493	9.6863	0.	5.e-002	52.355
30494	9.4111	0.	0.1	3399.4
30495	9.5028	0.	5.e-002	52.738
30496	9.2275	0.	0.1	3404.6
30497	9.3193	0.	5.e-002	53.593
30498	9.044	0.	0.1	3397.4
30499	9.1358	0.	5.e-002	55.007
30500	8.8605	0.	0.1	3374.6
30501	8.9523	0.	5.e-002	57.059
30502	8.677	0.	0.1	3332.6
30503	8.7688	0.	5.e-002	59.815
30504	8.4935	0.	0.1	3267.3
30505	8.5853	0.	5.e-002	63.302
30506	8.31	0.	0.1	3173.5
30507	8.4018	0.	5.e-002	67.484
30508	8.1265	0.	0.1	3046.
30509	8.2182	0.	5.e-002	72.22
30510	7.943	0.	0.1	2878.8
30511	8.0347	0.	5.e-002	77.216
30512	7.7595	0.	0.1	2666.1
30513	7.8512	0.	5.e-002	81.955
30514	7.576	0.	0.1	2402.8
30515	7.6677	0.	5.e-002	85.62
30516	7.3925	0.	0.1	2085.2
30517	7.4842	0.	5.e-002	87.011
30518	7.2089	0.	0.1	1711.8
30519	7.3007	0.	5.e-002	84.484
30520	7.0254	0.	0.1	1283.1
30521	7.1172	0.	5.e-002	75.667
30522	6.8419	0.	0.1	796.61
30523	6.9337	0.	5.e-002	58.009
30524	6.6584	0.	0.1	287.31
30525	6.7502	0.	5.e-002	22.305
30526	6.5667	0.	5.e-002	29.787
30527	6.3086	-2.1525e-030	0.1	340.93
30528	6.4	-2.1837e-030	5.e-002	35.112
30529	6.1257	-2.0901e-030	0.1	953.4
30530	6.2171	0.	5.e-002	23.196
30531	5.9429	-2.0278e-030	0.1	1551.4
30532	6.0343	0.	5.e-002	62.571
30533	5.76	-1.9654e-030	0.1	2094.2
30534	5.8514	0.	5.e-002	81.221
30535	5.5771	-1.903e-030	0.1	2585.
30536	5.6686	0.	5.e-002	90.088
30537	5.3943	-1.8406e-030	0.1	3022.8
30538	5.4857	0.	5.e-002	92.236
30539	5.2114	-1.7782e-030	0.1	3408.5
30540	5.3029	0.	5.e-002	90.494
30541	5.0286	-1.7158e-030	0.1	3744.8
30542	5.12	0.	5.e-002	86.817
30543	4.8457	-1.6534e-030	0.1	4036.5
30544	4.9371	0.	5.e-002	82.65
30545	4.6629	-1.591e-030	0.1	4288.8
30546	4.7543	0.	5.e-002	78.991
30547	4.48	-1.5286e-030	0.1	4507.3
30548	4.5714	0.	5.e-002	76.494
30549	4.2971	-1.4662e-030	0.1	4697.4
30550	4.3886	0.	5.e-002	75.56
30551	4.1143	-1.4038e-030	0.1	4863.9
30552	4.2057	0.	5.e-002	76.409
30553	3.9314	-1.3414e-030	0.1	5010.8
30554	4.0229	0.	5.e-002	79.141
30555	3.7486	-1.279e-030	0.1	5141.9
30556	3.84	0.	5.e-002	83.786
30557	3.5657	-1.2167e-030	0.1	5259.9
30558	3.6571	0.	5.e-002	90.332
30559	3.3829	-1.1543e-030	0.1	5367.2
30560	3.4743	0.	5.e-002	98.756
30561	3.2	-1.0919e-030	0.1	5465.7
30562	3.2914	0.	5.e-002	109.03
30563	3.0171	-1.0295e-030	0.1	5556.7
30564	3.1086	0.	5.e-002	121.14
30565	2.8343	-9.6708e-031	0.1	5641.
30566	2.9257	0.	5.e-002	135.09
30567	2.6514	-9.0469e-031	0.1	5719.3
30568	2.7429	0.	5.e-002	150.91
30569	2.4686	-8.423e-031	0.1	5791.4
30570	2.56	0.	5.e-002	168.64
30571	2.2857	-7.799e-031	0.1	5856.9
30572	2.3771	0.	5.e-002	188.38
30573	2.1029	-7.1751e-031	0.1	5915.
30574	2.1943	0.	5.e-002	210.24
30575	1.92	-6.5512e-031	0.1	5963.9
30576	2.0114	0.	5.e-002	234.41
30577	1.7371	-5.9273e-031	0.1	6001.1
30578	1.8286	0.	5.e-002	261.1
30579	1.5543	-5.3033e-031	0.1	6022.8
30580	1.6457	0.	5.e-002	290.64
30581	1.3714	-4.6794e-031	0.1	6023.3
30582	1.4629	0.	5.e-002	323.44
30583	1.1886	-4.0555e-031	0.1	5993.9
30584	1.28	0.	5.e-002	360.09
30585	1.0057	-3.4316e-031	0.1	5920.6
30586	1.0971	0.	5.e-002	401.47
30587	0.82286	-2.8077e-031	0.1	5780.2
30588	0.91429	0.	5.e-002	448.8
30589	0.64	-2.1837e-031	0.1	5527.6
30590	0.73143	0.	5.e-002	504.57
30591	0.45714	-1.5598e-031	0.1	5077.
30592	0.54857	0.	5.e-002	572.2
30593	0.27429	-9.3588e-032	0.1	4170.6
30594	0.36571	0.	5.e-002	663.58
30595	9.1429e-002	-3.1196e-032	0.1	1961.6
30596	0.18286	0.	5.e-002	845.13
30597	0.	0.	5.e-002	1120.8
30598	9.1429e-002	6.	0.1	1961.6
30599	5.2451e-014	6.	5.e-002	1120.8
30600	0.27429	6.	0.1	4170.6
30601	0.18286	6.	5.e-002	845.14
30602	0.45714	6.	0.1	5077.
30603	0.36571	6.	5.e-002	663.58
30604	0.64	6.	0.1	5527.6
30605	0.54857	6.	5.e-002	572.2
30606	0.82286	6.	0.1	5780.2
30607	0.73143	6.	5.e-002	504.57
30608	1.0057	6.	0.1	5920.6
30609	0.91429	6.	5.e-002	448.8
30610	1.1886	6.	0.1	5993.9
30611	1.0971	6.	5.e-002	401.47
30612	1.3714	6.	0.1	6023.3
30613	1.28	6.	5.e-002	360.09
30614	1.5543	6.	0.1	6022.8
30615	1.4629	6.	5.e-002	323.44
30616	1.7371	6.	0.1	6001.1
30617	1.6457	6.	5.e-002	290.64
30618	1.92	6.	0.1	5963.9
30619	1.8286	6.	5.e-002	261.1
30620	2.1029	6.	0.1	5915.
30621	2.0114	6.	5.e-002	234.41
30622	2.2857	6.	0.1	5856.9
30623	2.1943	6.	5.e-002	210.24
30624	2.4686	6.	0.1	5791.4
30625	2.3771	6.	5.e-002	188.38
30626	2.6514	6.	0.1	5719.3
30627	2.56	6.	5.e-002	168.64
30628	2.8343	6.	0.1	5641.
30629	2.7429	6.	5.e-002	150.91
30630	3.0171	6.	0.1	5556.7
30631	2.9257	6.	5.e-002	135.09
30632	3.2	6.	0.1	5465.7
30633	3.1086	6.	5.e-002	121.14
30634	3.3829	6.	0.1	5367.2
30635	3.2914	6.	5.e-002	109.03
30636	3.5657	6.	0.1	5259.9
30637	3.4743	6.	5.e-002	98.756
30638	3.7486	6.	0.1	5141.9
30639	3.6571	6.	5.e-002	90.333
30640	3.9314	6.	0.1	5010.8
30641	3.84	6.	5.e-002	83.786
30642	4.1143	6.	0.1	4863.9
30643	4.0229	6.	5.e-002	79.141
30644	4.2971	6.	0.1	4697.4
30645	4.2057	6.	5.e-002	76.409
30646	4.48	6.	0.1	4507.3
30647	4.3886	6.	5.e-002	75.561
30648	4.6629	6.	0.1	4288.8
30649	4.5714	6.	5.e-002	76.495
30650	4.8457	6.	0.1	4036.5
30651	4.7543	6.	5.e-002	78.991
30652	5.0286	6.	0.1	3744.8
30653	4.9371	6.	5.e-002	82.651
30654	5.2114	6.	0.1	3408.5
30655	5.12	6.	5.e-002	86.817
30656	5.3943	6.	0.1	3022.9
30657	5.3029	6.	5.e-002	90.494
30658	5.5771	6.	0.1	2585.
30659	5.4857	6.	5.e-002	92.236
30660	5.76	6.	0.1	2094.2
30661	5.6686	6.	5.e-002	90.088
30662	5.9429	6.	0.1	1551.4
30663	5.8514	6.	5.e-002	81.221
30664	6.1257	6.	0.1	953.4
30665	6.0343	6.	5.e-002	62.571
30666	6.3086	6.	0.1	340.93
30667	6.2171	6.	5.e-002	23.196
30668	6.4	6.	5.e-002	35.112
30669	6.1257	6.	0.	21.111
30670	6.3086	6.	0.	7.2048
30671	5.9429	6.	0.	24.467
30672	5.76	6.	0.	25.177
30673	5.5771	6.	0.	23.724
30674	5.3943	6.	0.	21.176
30675	5.2114	6.	0.	18.301
30676	5.0286	6.	0.	15.469
30677	4.8457	6.	0.	12.875
30678	4.6629	6.	0.	10.605
30679	4.48	6.	0.	8.684
30680	4.2971	6.	0.	7.1149
30681	4.1143	6.	0.	5.8928
30682	3.9314	6.	0.	5.0158
30683	3.7486	6.	0.	4.4881
30684	3.5657	6.	0.	4.3172
30685	3.3829	6.	0.	4.5129
30686	3.2	6.	0.	5.0968
30687	3.0171	6.	0.	6.1162
30688	2.8343	6.	0.	7.6432
30689	2.6514	6.	0.	9.7649
30690	2.4686	6.	0.	12.582
30691	2.2857	6.	0.	16.218
30692	2.1029	6.	0.	20.826
30693	1.92	6.	0.	26.605
30694	1.7371	6.	0.	33.826
30695	1.5543	6.	0.	42.853
30696	1.3714	6.	0.	54.231
30697	1.1886	6.	0.	68.732
30698	1.0057	6.	0.	87.784
30699	0.82286	6.	0.	113.43
30700	0.64	6.	0.	151.08
30701	0.45714	6.	0.	212.27
30702	0.27429	6.	0.	334.43
30703	9.1429e-002	6.	0.	894.32
30704	6.4	5.9091	0.	29.492
30705	5.1657e-014	5.9091	0.	129.37
30706	0.27429	-9.3588e-032	0.	334.43
30707	9.1429e-002	-3.1196e-032	0.	894.32
30708	0.45714	-1.5598e-031	0.	212.27
30709	0.64	-2.1837e-031	0.	151.08
30710	0.82286	-2.8077e-031	0.	113.43
30711	1.0057	-3.4316e-031	0.	87.784
30712	1.1886	-4.0555e-031	0.	68.732
30713	1.3714	-4.6794e-031	0.	54.231
30714	1.5543	-5.3033e-031	0.	42.853
30715	1.7371	-5.9273e-031	0.	33.825
30716	1.92	-6.5512e-031	0.	26.605
30717	2.1029	-7.1751e-031	0.	20.826
30718	2.2857	-7.799e-031	0.	16.218
30719	2.4686	-8.423e-031	0.	12.582
30720	2.6514	-9.0469e-031	0.	9.7649
30721	2.8343	-9.6708e-031	0.	7.6432
30722	3.0171	-1.0295e-030	0.	6.1162
30723	3.2	-1.0919e-030	0.	5.0968
30724	3.3829	-1.1543e-030	0.	4.5129
30725	3.5657	-1.2167e-030	0.	4.3172
30726	3.7486	-1.279e-030	0.	4.4881
30727	3.9314	-1.3414e-030	0.	5.0158
30728	4.1143	-1.4038e-030	0.	5.8928
30729	4.2971	-1.4662e-030	0.	7.1149
30730	4.48	-1.5286e-030	0.	8.6839
30731	4.6629	-1.591e-030	0.	10.605
30732	4.8457	-1.6534e-030	0.	12.875
30733	5.0286	-1.7158e-030	0.	15.469
30734	5.2114	-1.7782e-030	0.	18.301
30735	5.3943	-1.8406e-030	0.	21.176
30736	5.5771	-1.903e-030	0.	23.724
30737	5.76	-1.9654e-030	0.	25.177
30738	5.9429	-2.0278e-030	0.	24.466
30739	6.1257	-2.0901e-030	0.	21.111
30740	6.3086	-2.1525e-030	0.	7.2048
30741	6.4	9.0909e-002	0.	29.492
30742	7.9472e-016	9.0909e-002	0.	129.37
30743	6.8419	0.	0.	19.445
30744	6.6584	0.	0.	6.4414
30745	7.0254	0.	0.	23.194
30746	7.2089	0.	0.	24.233
30747	7.3925	0.	0.	23.1
30748	7.576	0.	0.	20.821
30749	7.7595	0.	0.	18.153
30750	7.943	0.	0.	15.481
30751	8.1265	0.	0.	13.019
30752	8.31	0.	0.	10.857
30753	8.4935	0.	0.	9.0197
30754	8.677	0.	0.	7.4936
30755	8.8605	0.	0.	6.2495
30756	9.044	0.	0.	5.2523
30757	9.2275	0.	0.	4.4669
30758	9.4111	0.	0.	3.8615
30759	9.5946	0.	0.	3.4079
30760	9.7781	0.	0.	3.0818
30761	9.9616	0.	0.	2.8626
30762	10.145	0.	0.	2.7327
30763	10.329	0.	0.	2.6771
30764	10.512	0.	0.	2.683
30765	10.696	0.	0.	2.7394
30766	10.879	0.	0.	2.837
30767	11.063	0.	0.	2.9677
30768	11.246	0.	0.	3.1249
30769	11.43	0.	0.	3.3028
30770	11.613	0.	0.	3.4965
30771	11.797	0.	0.	3.702
30772	11.98	0.	0.	3.9158
30773	12.164	0.	0.	4.1352
30774	12.347	0.	0.	4.358
30775	12.531	0.	0.	4.5824
30776	12.714	0.	0.	4.807
30777	12.898	0.	0.	5.0305
30778	13.081	0.	0.	5.2522
30779	13.265	0.	0.	5.4716
30780	13.448	0.	0.	5.688
30781	13.632	0.	0.	5.9015
30782	13.815	0.	0.	6.1118
30783	13.999	0.	0.	6.3188
30784	14.182	0.	0.	6.5228
30785	14.366	0.	0.	6.7237
30786	14.549	0.	0.	6.9219
30787	14.733	0.	0.	7.1175
30788	14.916	0.	0.	7.3108
30789	15.1	0.	0.	7.5022
30790	15.283	0.	0.	7.6918
30791	15.467	0.	0.	7.88
30792	15.65	0.	0.	8.0672
30793	15.834	0.	0.	8.2536
30794	16.017	0.	0.	8.4396
30795	16.201	0.	0.	8.6255
30796	16.384	0.	0.	8.8116
30797	16.568	0.	0.	8.9981
30798	16.751	0.	0.	9.1854
30799	16.935	0.	0.	9.3737
30800	17.118	0.	0.	9.5633
30801	17.302	0.	0.	9.7544
30802	17.485	0.	0.	9.9472
30803	17.669	0.	0.	10.142
30804	17.852	0.	0.	10.339
30805	18.036	0.	0.	10.538
30806	18.219	0.	0.	10.739
30807	18.403	0.	0.	10.942
30808	18.586	0.	0.	11.148
30809	18.77	0.	0.	11.357
30810	18.954	0.	0.	11.568
30811	19.137	0.	0.	11.781
30812	19.321	0.	0.	11.996
30813	19.504	0.	0.	12.212
30814	19.688	0.	0.	12.431
30815	19.871	0.	0.	12.65
30816	20.055	0.	0.	12.87
30817	20.238	0.	0.	13.089
30818	20.422	0.	0.	13.308
30819	20.605	0.	0.	13.525
30820	20.789	0.	0.	13.739
30821	20.972	0.	0.	13.948
30822	21.156	0.	0.	14.152
30823	21.339	0.	0.	14.348
30824	21.523	0.	0.	14.534
30825	21.706	0.	0.	14.707
30826	21.89	0.	0.	14.863
30827	22.073	0.	0.	14.999
30828	22.257	0.	0.	15.11
30829	22.44	0.	0.	15.188
30830	22.624	0.	0.	15.225
30831	22.807	0.	0.	15.207
30832	22.991	0.	0.	15.117
30833	23.174	0.	0.	14.926
30834	23.358	0.	0.	14.571
30835	23.541	0.	0.	13.999
30836	23.725	0.	0.	12.498
30837	23.908	0.	0.	8.5845
30838	6.5667	9.0909e-002	0.	23.565
30839	24.	9.0909e-002	0.	20.305
30840	5.0067e-014	5.7273	0.	-1678.2
30841	4.8478e-014	5.5455	0.	-2527.4
30842	4.6888e-014	5.3636	0.	-2958.9
30843	4.5299e-014	5.1818	0.	-3226.8
30844	4.371e-014	5.	0.	-3409.1
30845	4.212e-014	4.8182	0.	-3540.5
30846	4.0531e-014	4.6364	0.	-3638.1
30847	3.8941e-014	4.4545	0.	-3712.2
30848	3.7352e-014	4.2727	0.	-3769.
30849	3.5762e-014	4.0909	0.	-3812.7
30850	3.4173e-014	3.9091	0.	-3846.2
30851	3.2583e-014	3.7273	0.	-3871.4
30852	3.0994e-014	3.5455	0.	-3889.8
30853	2.9405e-014	3.3636	0.	-3902.4
30854	2.7815e-014	3.1818	0.	-3909.8
30855	2.6226e-014	3.	0.	-3912.2
30856	2.4636e-014	2.8182	0.	-3909.8
30857	2.3047e-014	2.6364	0.	-3902.4
30858	2.1457e-014	2.4545	0.	-3889.8
30859	1.9868e-014	2.2727	0.	-3871.4
30860	1.8279e-014	2.0909	0.	-3846.2
30861	1.6689e-014	1.9091	0.	-3812.7
30862	1.51e-014	1.7273	0.	-3769.
30863	1.351e-014	1.5455	0.	-3712.2
30864	1.1921e-014	1.3636	0.	-3638.1
30865	1.0331e-014	1.1818	0.	-3540.5
30866	8.7419e-015	1.	0.	-3409.1
30867	7.1525e-015	0.81818	0.	-3226.8
30868	5.563e-015	0.63636	0.	-2958.9
30869	3.9736e-015	0.45455	0.	-2527.4
30870	2.3842e-015	0.27273	0.	-1678.2
30871	24.	0.27273	0.	50.263
30872	24.	0.45455	0.	74.555
30873	24.	0.63636	0.	93.915
30874	24.	0.81818	0.	110.19
30875	24.	1.	0.	124.15
30876	24.	1.1818	0.	136.22
30877	24.	1.3636	0.	146.67
30878	24.	1.5455	0.	155.69
30879	24.	1.7273	0.	163.42
30880	24.	1.9091	0.	169.96
30881	24.	2.0909	0.	175.38
30882	24.	2.2727	0.	179.76
30883	24.	2.4545	0.	183.11
30884	24.	2.6364	0.	185.49
30885	24.	2.8182	0.	186.91
30886	24.	3.	0.	187.38
30887	24.	3.1818	0.	186.91
30888	24.	3.3636	0.	185.49
30889	24.	3.5455	0.	183.11
30890	24.	3.7273	0.	179.76
30891	24.	3.9091	0.	175.38
30892	24.	4.0909	0.	169.96
30893	24.	4.2727	0.	163.42
30894	24.	4.4545	0.	155.69
30895	24.	4.6364	0.	146.67
30896	24.	4.8182	0.	136.22
30897	24.	5.	0.	124.15
30898	24.	5.1818	0.	110.19
30899	24.	5.3636	0.	93.914
30900	24.	5.5455	0.	74.555
30901	24.	5.7273	0.	50.263
30902	24.	5.9091	0.	20.305
30903	23.908	6.	0.	8.5845
30904	23.725	6.	0.	12.498
30905	23.541	6.	0.	13.999
30906	23.358	6.	0.	14.571
30907	23.174	6.	0.	14.926
30908	22.991	6.	0.	15.117
30909	22.807	6.	0.	15.207
30910	22.624	6.	0.	15.225
30911	22.44	6.	0.	15.188
30912	22.257	6.	0.	15.11
30913	22.073	6.	0.	14.999
30914	21.89	6.	0.	14.863
30915	21.706	6.	0.	14.707
30916	21.523	6.	0.	14.534
30917	21.339	6.	0.	14.348
30918	21.156	6.	0.	14.152
30919	20.972	6.	0.	13.948
30920	20.789	6.	0.	13.739
30921	20.605	6.	0.	13.525
30922	20.422	6.	0.	13.308
30923	20.238	6.	0.	13.089
30924	20.055	6.	0.	12.87
30925	19.871	6.	0.	12.65
30926	19.688	6.	0.	12.431
30927	19.504	6.	0.	12.212
30928	19.321	6.	0.	11.996
30929	19.137	6.	0.	11.781
30930	18.954	6.	0.	11.568
30931	18.77	6.	0.	11.357
30932	18.586	6.	0.	11.148
30933	18.403	6.	0.	10.942
30934	18.219	6.	0.	10.739
30935	18.036	6.	0.	10.537
30936	17.852	6.	0.	10.339
30937	17.669	6.	0.	10.142
30938	17.485	6.	0.	9.9471
30939	17.302	6.	0.	9.7543
30940	17.118	6.	0.	9.5632
30941	16.935	6.	0.	9.3736
30942	16.751	6.	0.	9.1854
30943	16.568	6.	0.	8.9981
30944	16.384	6.	0.	8.8115
30945	16.201	6.	0.	8.6255
30946	16.017	6.	0.	8.4396
30947	15.834	6.	0.	8.2536
30948	15.65	6.	0.	8.0671
30949	15.467	6.	0.	7.88
30950	15.283	6.	0.	7.6917
30951	15.1	6.	0.	7.5021
30952	14.916	6.	0.	7.3108
30953	14.733	6.	0.	7.1174
30954	14.549	6.	0.	6.9218
30955	14.366	6.	0.	6.7237
30956	14.182	6.	0.	6.5228
30957	13.999	6.	0.	6.3188
30958	13.815	6.	0.	6.1117
30959	13.632	6.	0.	5.9014
30960	13.448	6.	0.	5.688
30961	13.265	6.	0.	5.4715
30962	13.081	6.	0.	5.2522
30963	12.898	6.	0.	5.0305
30964	12.714	6.	0.	4.8069
30965	12.531	6.	0.	4.5824
30966	12.347	6.	0.	4.358
30967	12.164	6.	0.	4.1352
30968	11.98	6.	0.	3.9157
30969	11.797	6.	0.	3.7019
30970	11.613	6.	0.	3.4965
30971	11.43	6.	0.	3.3028
30972	11.246	6.	0.	3.1249
30973	11.063	6.	0.	2.9677
30974	10.879	6.	0.	2.837
30975	10.696	6.	0.	2.7394
30976	10.512	6.	0.	2.683
30977	10.329	6.	0.	2.6771
30978	10.145	6.	0.	2.7327
30979	9.9616	6.	0.	2.8626
30980	9.7781	6.	0.	3.0818
30981	9.5946	6.	0.	3.4078
30982	9.4111	6.	0.	3.8615
30983	9.2275	6.	0.	4.4669
30984	9.044	6.	0.	5.2523
30985	8.8605	6.	0.	6.2495
30986	8.677	6.	0.	7.4936
30987	8.4935	6.	0.	9.0197
30988	8.31	6.	0.	10.857
30989	8.1265	6.	0.	13.019
30990	7.943	6.	0.	15.481
30991	7.7595	6.	0.	18.153
30992	7.576	6.	0.	20.821
30993	7.3925	6.	0.	23.1
30994	7.2089	6.	0.	24.233
30995	7.0254	6.	0.	23.194
30996	6.8419	6.	0.	19.445
30997	6.6584	6.	0.	6.4413
30998	6.5667	5.9091	0.	23.565
30999	6.4	1.7273	0.	4291.
31000	6.4	1.9091	0.	4375.5
31001	6.4	1.5455	0.	2505.3
31002	6.4	1.3636	0.	1904.2
31003	6.4	1.1818	0.	1419.2
31004	6.4	1.	0.	1061.1
31005	6.4	0.81818	0.	775.38
31006	6.4	0.63636	0.	539.26
31007	6.4	0.45455	0.	340.83
31008	6.4	0.27273	0.	173.9
31009	6.4833	2.	0.	2502.4
31010	6.5667	0.27273	0.	139.6
31011	6.5667	0.45455	0.	272.4
31012	6.5667	0.63636	0.	429.11
31013	6.5667	0.81818	0.	614.86
31014	6.5667	1.	0.	839.48
31015	6.5667	1.1818	0.	1121.4
31016	6.5667	1.3636	0.	1507.6
31017	6.5667	1.5455	0.	1969.2
31018	6.5667	1.7273	0.	3491.9
31019	6.5667	1.9091	0.	3366.2
31020	6.4	4.2727	0.	4291.
31021	6.4	4.0909	0.	4375.5
31022	6.4	4.4545	0.	2505.3
31023	6.4	4.6364	0.	1904.2
31024	6.4	4.8182	0.	1419.2
31025	6.4	5.	0.	1061.1
31026	6.4	5.1818	0.	775.38
31027	6.4	5.3636	0.	539.26
31028	6.4	5.5455	0.	340.83
31029	6.4	5.7273	0.	173.9
31030	6.4833	4.	0.	2502.4
31031	6.5667	5.7273	0.	139.6
31032	6.5667	5.5455	0.	272.4
31033	6.5667	5.3636	0.	429.11
31034	6.5667	5.1818	0.	614.86
31035	6.5667	5.	0.	839.48
31036	6.5667	4.8182	0.	1121.4
31037	6.5667	4.6364	0.	1507.6
31038	6.5667	4.4545	0.	1969.2
31039	6.5667	4.2727	0.	3491.9
31040	6.5667	4.0909	0.	3366.2
