Node Numbers,X Locations (inches),Y Locations (inches),Z Locations (inches),Equivalent Elastic Strains (in/in),Equivalent Stress (psi),Max Principal Elastic Strain (in/in),Max Principal Stress (psi),Middle Principal Elastic Strain (in/in),Middle Principal Stress (psi),Min Principal Elastic Strain (in/in),Min Principal Stress (psi),Total Deformation (in)
1,4.9752,3.5946,0,0.00013318,1330.9,5.3278e-05,12.278,2.8462e-05,-174.18,-0.00013495,-1402,0.039329
2,3.6306,3.4966,0,0.00023772,2375.6,0.00012872,618.56,4.452e-05,-14.05,-0.00022103,-2009.3,0.019538
3,4.9024,4.1556,0,0.00011565,1155.7,4.7168e-05,-33.47,1.8583e-05,-248.25,-0.00011894,-1281.5,0.037836
4,2.3411,0.71513,0,0.00011672,1166.4,4.8885e-05,90.817,2.8673e-05,-61.05,-0.00011547,-1144.1,0.0064787
5,2.4166,1.7632,0,0.00012992,1298.3,5.3373e-05,67.458,3.0574e-05,-103.84,-0.00012969,-1308,0.0078819
6,4.6729,0.56103,0,8.4172e-05,841.13,3.8624e-05,149.72,2.259e-05,29.248,-8.0477e-05,-745.16,0.03238
7,2.1902,5.1809,0,0.00011116,1110.9,3.7267e-05,-34.845,3.2476e-05,-70.842,-0.00011292,-1163.3,0.0058602
8,2.2105,4.3699,0,0.00011908,1190,3.7781e-05,-90.307,3.357e-05,-121.95,-0.00012266,-1295.8,0.0066179
9,4.5261,5.475,0,8.7228e-05,871.68,4.3322e-05,198.92,2.1406e-05,34.248,-8.2086e-05,-743.35,0.030032
10,5.8283,3.2465,0,9.9319e-05,992.51,3.6333e-05,-26.442,2.4072e-05,-118.57,-0.00010146,-1061.8,0.054656
11,1.0615,4.964,0,0.00013851,1384.2,7.8091e-05,309.54,1.3604e-05,-174.99,-0.00012971,-1251.8,0.0014194
12,5.6682,2.034,0,0.00010127,1012,3.4979e-05,-14.599,2.9391e-05,-56.588,-0.00010241,-1046.9,0.05145
13,1.4507,2.7346,0,0.00014774,1476.4,8.783e-05,332.61,3.9717e-06,-297.47,-0.00013668,-1354.3,0.0030071
14,1.3141,1.3091,0,0.00013056,1304.7,7.3885e-05,306.69,1.3853e-05,-144.37,-0.00012181,-1163.7,0.0022875
15,5.6691,1.0412,0,8.2435e-05,823.78,2.9164e-05,3.0552,2.4117e-05,-34.867,-8.291e-05,-839.03,0.050748
16,6.9024,1.202,0,8.1614e-05,815.58,2.8418e-05,3.6711,2.4732e-05,-24.027,-8.1925e-05,-825.41,0.075123
17,8.0766,1.2485,0,7.3325e-05,732.74,2.5924e-05,4.3772,2.1636e-05,-27.842,-7.3671e-05,-743.94,0.10053
18,9.2487,1.2236,0,6.3268e-05,632.25,2.1342e-05,-1.9956,1.9908e-05,-12.776,-6.3513e-05,-639.56,0.12787
19,10.405,1.2177,0,5.4171e-05,541.33,1.8e-05,-0.66984,1.7606e-05,-3.6266,-5.4243e-05,-543.48,0.15656
20,11.552,1.2161,0,4.5717e-05,456.85,1.5244e-05,1.4617,1.4954e-05,-0.72038,-4.5704e-05,-456.48,0.18646
21,12.692,1.2478,0,3.7988e-05,379.62,1.294e-05,4.4488,1.226e-05,-0.66082,-3.7921e-05,-377.7,0.21737
22,13.829,1.2767,0,3.0971e-05,309.5,1.0795e-05,6.5819,9.8478e-06,-0.53477,-3.0862e-05,-306.41,0.24916
23,14.956,1.2252,0,2.4708e-05,246.91,8.8099e-06,7.5176,7.7247e-06,-0.63636,-2.4581e-05,-243.37,0.28145
24,16.086,1.2189,0,1.9131e-05,191.18,7.017e-06,8.1005,5.8536e-06,-0.64069,-1.899e-05,-187.3,0.31445
25,17.22,1.1977,0,1.4285e-05,142.75,5.4408e-06,8.4345,4.2397e-06,-0.59003,-1.413e-05,-138.61,0.34804
26,18.349,1.2022,0,1.0184e-05,101.77,4.0996e-06,8.6241,2.8746e-06,-0.57979,-1.0016e-05,-97.431,0.38185
27,19.468,1.2054,0,6.8553e-06,68.506,3.0087e-06,8.7741,1.7625e-06,-0.58973,-6.6679e-06,-63.932,0.4156
28,20.593,1.1865,0,4.2414e-06,42.385,2.1124e-06,8.4672,9.0632e-07,-0.5952,-4.0342e-06,-37.716,0.4497
29,21.725,1.1911,0,2.3642e-06,23.626,1.4558e-06,8.2266,2.7951e-07,-0.61156,-2.1071e-06,-18.544,0.48409
30,22.861,1.193,0,1.2366e-06,12.357,1.0003e-06,7.6217,-9.4848e-08,-0.60671,-8.9091e-07,-6.588,0.51866
31,1.0925,3.8663,0,0.0001533,1531.9,9.0442e-05,359.91,7.5599e-06,-262.83,-0.00014183,-1385.3,0.0016792
32,22.861,2.3924,0,1.5728e-06,15.717,1.3481e-06,10.731,-2.4451e-07,-1.2353,-1.021e-06,-7.0697,0.51873
33,22.856,3.5955,0,1.5762e-06,15.751,1.3496e-06,10.714,-2.4627e-07,-1.2769,-1.0247e-06,-7.1255,0.51857
34,22.861,4.7943,0,1.2425e-06,12.416,1.006e-06,7.6754,-9.577e-08,-0.60255,-8.9413e-07,-6.6011,0.51872
35,21.724,4.7945,0,2.3628e-06,23.611,1.4574e-06,8.265,2.7834e-07,-0.59428,-2.104e-06,-18.495,0.48409
36,20.599,4.796,0,4.2297e-06,42.268,2.1178e-06,8.6109,8.983e-07,-0.55229,-4.0174e-06,-37.487,0.44991
37,19.479,4.8207,0,6.8303e-06,68.256,2.9952e-06,8.6839,1.755e-06,-0.63416,-6.6454e-06,-63.752,0.41597
38,18.353,4.8346,0,1.0173e-05,101.66,4.0978e-06,8.633,2.8691e-06,-0.59868,-1.0005e-05,-97.33,0.382
39,17.22,4.8055,0,1.429e-05,142.8,5.4553e-06,8.601,4.2342e-06,-0.57391,-1.4131e-05,-138.56,0.34807
40,16.09,4.8075,0,1.9113e-05,191,7.0087e-06,8.0861,5.8498e-06,-0.6214,-1.8971e-05,-187.11,0.31459
41,14.958,4.8229,0,2.4689e-05,246.72,8.8019e-06,7.4665,7.7172e-06,-0.6833,-2.4564e-05,-243.23,0.28152
42,13.823,4.8169,0,3.1016e-05,309.95,1.0802e-05,6.386,9.8582e-06,-0.70462,-3.0914e-05,-307.05,0.24901
43,12.685,4.809,0,3.8106e-05,380.8,1.297e-05,4.3939,1.2308e-05,-0.57649,-3.8039e-05,-378.86,0.21717
44,11.534,4.7984,0,4.5942e-05,459.1,1.5322e-05,1.4323,1.502e-05,-0.83472,-4.5931e-05,-458.8,0.18601
45,10.39,4.8049,0,5.4424e-05,543.86,1.8038e-05,-0.55577,1.7777e-05,-2.5184,-5.4476e-05,-545.4,0.15622
46,9.2561,4.8079,0,6.3246e-05,632.03,2.1181e-05,-1.1545,2.0241e-05,-8.2222,-6.3403e-05,-636.69,0.12808
47,8.1465,4.8406,0,7.2542e-05,724.92,2.4765e-05,-3.9968,2.2163e-05,-23.549,-7.2991e-05,-738.5,0.1021
48,5.9505,4.0714,0,8.8177e-05,881.16,2.8835e-05,-33.524,2.6467e-05,-51.318,-8.9607e-05,-923.45,0.056771
49,5.7699,5.0436,0,7.9683e-05,796.28,3.0232e-05,10.454,2.0381e-05,-63.559,-8.0328e-05,-820.25,0.052672
50,6.9981,3.7982,0,8.2348e-05,822.91,3.01e-05,4.9856,2.2567e-05,-51.611,-8.2995e-05,-844.76,0.077731
51,6.7771,2.5301,0,7.829e-05,782.36,3.0591e-05,1.2439,1.7516e-05,-96.993,-7.9455e-05,-825.59,0.073227
52,8.0232,2.456,0,7.2866e-05,728.16,2.6212e-05,5.6405,2.0833e-05,-34.776,-7.3277e-05,-741.88,0.09993
53,9.2165,2.4258,0,6.311e-05,630.66,2.2056e-05,1.088,1.882e-05,-23.229,-6.3451e-05,-641.38,0.12765
54,10.388,2.4218,0,5.3859e-05,538.22,1.8107e-05,-0.55168,1.7158e-05,-7.6789,-5.3996e-05,-542.3,0.15663
55,12.682,2.4434,0,3.7923e-05,378.97,1.2942e-05,4.4885,1.2201e-05,-1.0845,-3.7862e-05,-377.23,0.21747
56,13.822,2.4542,0,3.0949e-05,309.28,1.0863e-05,7.1658,9.7648e-06,-1.0863,-3.0837e-05,-306.16,0.24926
57,14.965,2.4356,0,2.4655e-05,246.38,8.9029e-06,8.6751,7.6236e-06,-0.93705,-2.451e-05,-242.37,0.28197
58,16.092,2.4163,0,1.911e-05,190.97,7.1609e-06,9.5984,5.7219e-06,-1.2135,-1.8945e-05,-186.55,0.31484
59,17.221,2.4034,0,1.4321e-05,143.11,5.6113e-06,10.011,4.1185e-06,-1.2058,-1.4139e-05,-138.38,0.34824
60,18.342,2.421,0,1.0259e-05,102.52,4.2991e-06,10.375,2.7483e-06,-1.2767,-1.0054e-05,-97.468,0.38178
61,19.466,2.4072,0,6.9464e-06,69.416,3.2074e-06,10.545,1.6464e-06,-1.1838,-6.7123e-06,-63.988,0.41564
62,20.596,2.3958,0,4.375e-06,43.72,2.3562e-06,10.678,7.7128e-07,-1.2306,-4.0909e-06,-37.763,0.44986
63,21.727,2.3816,0,2.5757e-06,25.739,1.7348e-06,10.736,1.4659e-07,-1.1977,-2.1967e-06,-18.804,0.48422
64,21.726,3.5886,0,2.5798e-06,25.781,1.7371e-06,10.767,1.4996e-07,-1.1578,-2.2003e-06,-18.817,0.48419
65,20.598,3.5948,0,4.3676e-06,43.646,2.355e-06,10.695,7.6767e-07,-1.2321,-4.0826e-06,-37.675,0.44993
66,19.471,3.6191,0,6.9349e-06,69.301,3.201e-06,10.49,1.642e-06,-1.2242,-6.7026e-06,-63.922,0.41579
67,18.342,3.6182,0,1.0266e-05,102.59,4.2981e-06,10.366,2.7562e-06,-1.2185,-1.0061e-05,-97.523,0.38178
68,17.224,3.613,0,1.4302e-05,142.92,5.6017e-06,10.026,4.1192e-06,-1.1129,-1.4118e-05,-138.14,0.34835
69,16.091,3.6148,0,1.912e-05,191.07,7.153e-06,9.4796,5.734e-06,-1.182,-1.8957e-05,-186.7,0.3148
70,14.957,3.6262,0,2.4684e-05,246.67,8.9074e-06,8.4808,7.624e-06,-1.1616,-2.4546e-05,-242.87,0.28175
71,13.818,3.6304,0,3.0972e-05,309.5,1.0849e-05,6.8859,9.7838e-06,-1.1156,-3.0866e-05,-306.54,0.24915
72,12.676,3.6231,0,3.8007e-05,379.81,1.2943e-05,4.2918,1.2258e-05,-0.85491,-3.7946e-05,-378.07,0.21731
73,11.529,3.6177,0,4.5688e-05,456.56,1.5119e-05,0.029116,1.5008e-05,-0.80736,-4.5701e-05,-456.95,0.18629
74,10.375,3.6178,0,5.4079e-05,540.42,1.815e-05,-0.42202,1.7292e-05,-6.8742,-5.42e-05,-544.04,0.1563
75,9.215,3.6125,0,6.2985e-05,629.42,2.1528e-05,-1.8378,1.935e-05,-18.207,-6.331e-05,-639.28,0.12763
76,8.0816,3.6467,0,7.2828e-05,727.78,2.6009e-05,2.0372,2.0816e-05,-36.983,-7.3344e-05,-744.47,0.10124
77,11.535,2.4227,0,4.5607e-05,455.76,1.5105e-05,0.20407,1.4977e-05,-0.76084,-4.5616e-05,-456.03,0.18644
78,4.351,5.0491,0,6.9494e-05,694.46,3.0239e-05,114.24,2.0811e-05,43.404,-6.654e-05,-612.92,0.027762
79,4.7172,4.642,0,0.00011763,1175.5,5.8269e-05,232.5,2.5533e-05,-13.469,-0.00011196,-1046.5,0.034319
80,2.6575,1.1582,0,9.5319e-05,952.53,3.6544e-05,88.464,3.0894e-05,46.01,-9.296e-05,-884.58,0.0088628
81,2.4456,2.4013,0,0.00015162,1515.2,5.7834e-05,-67.924,2.9685e-05,-279.43,-0.00015642,-1677.8,0.0084353
82,4.3658,1.0009,0,7.0181e-05,701.32,3.2925e-05,142.85,1.9241e-05,40.029,-6.6502e-05,-604.21,0.027899
83,4.6328,1.4495,0,0.00011284,1127.6,5.2782e-05,190.66,2.7359e-05,-0.35532,-0.00010838,-1020.2,0.032889
84,4.7094,2.0503,0,0.00012126,1211.7,4.2801e-05,-83.909,2.7269e-05,-200.61,-0.00012567,-1349.8,0.034698
85,4.2324,3.4404,0,0.00017602,1759,6.9609e-05,250.02,6.1439e-05,188.63,-0.00016848,-1538.9,0.027637
86,2.8326,3.1519,0,0.00017516,1750.4,6.5552e-05,-6.6207,4.3611e-05,-171.48,-0.00017761,-1833.6,0.011592
87,3.3779,2.8864,0,0.00022898,2288.2,0.00010391,383.74,6.1334e-05,63.865,-0.00021968,-2047.6,0.016844
88,4.7783,2.7543,0,0.00015232,1522.1,5.828e-05,-16.517,3.4536e-05,-194.92,-0.00015513,-1620,0.036124
89,5.4119,2.7361,0,0.0001031,1030.3,4.5079e-05,-10.908,1.2404e-05,-256.42,-0.00010542,-1141.7,0.04699
90,4.0733,2.7964,0,0.00018881,1886.8,7.6123e-05,207.91,5.7667e-05,69.24,-0.00018371,-1744.4,0.025445
91,7.0109,4.9249,0,8.2156e-05,821,3.0191e-05,23.39,2.3966e-05,-23.383,-8.2056e-05,-819.99,0.077339
92,2.4093,3.6778,0,0.00014052,1404.3,4.5895e-05,-83.564,3.9483e-05,-131.75,-0.00014412,-1511.3,0.0082246
93,2.4093,3.6778,0.1,0.00014052,1404.3,0.00014412,1511.3,-3.9483e-05,131.75,-4.5895e-05,83.564,0.0082246
94,7.0109,4.9249,0.1,8.2156e-05,821,8.2056e-05,819.99,-2.3966e-05,23.383,-3.0191e-05,-23.39,0.077339
95,4.0733,2.7964,0.1,0.00018881,1886.8,0.00018371,1744.4,-5.7667e-05,-69.24,-7.6123e-05,-207.91,0.025445
96,5.4119,2.7361,0.1,0.0001031,1030.3,0.00010542,1141.7,-1.2404e-05,256.42,-4.5079e-05,10.908,0.04699
97,4.7783,2.7543,0.1,0.00015232,1522.1,0.00015513,1620,-3.4536e-05,194.92,-5.828e-05,16.517,0.036124
98,3.3779,2.8864,0.1,0.00022898,2288.2,0.00021968,2047.6,-6.1334e-05,-63.865,-0.00010391,-383.74,0.016844
99,2.8326,3.1519,0.1,0.00017516,1750.4,0.00017761,1833.6,-4.3611e-05,171.48,-6.5552e-05,6.6207,0.011592
100,4.2324,3.4404,0.1,0.00017602,1759,0.00016848,1538.9,-6.1439e-05,-188.63,-6.9609e-05,-250.02,0.027637
101,4.7094,2.0503,0.1,0.00012126,1211.7,0.00012567,1349.8,-2.7269e-05,200.61,-4.2801e-05,83.909,0.034698
102,4.6328,1.4495,0.1,0.00011284,1127.6,0.00010838,1020.2,-2.7359e-05,0.35532,-5.2782e-05,-190.66,0.032889
103,4.3658,1.0009,0.1,7.0181e-05,701.32,6.6502e-05,604.21,-1.9241e-05,-40.029,-3.2925e-05,-142.85,0.027899
104,2.4456,2.4013,0.1,0.00015162,1515.2,0.00015642,1677.8,-2.9685e-05,279.43,-5.7834e-05,67.924,0.0084353
105,2.6575,1.1582,0.1,9.5319e-05,952.53,9.296e-05,884.58,-3.0894e-05,-46.01,-3.6544e-05,-88.464,0.0088628
106,4.7172,4.642,0.1,0.00011763,1175.5,0.00011196,1046.5,-2.5533e-05,13.469,-5.8269e-05,-232.5,0.034319
107,4.351,5.0491,0.1,6.9494e-05,694.46,6.654e-05,612.92,-2.0811e-05,-43.404,-3.0239e-05,-114.24,0.027762
108,11.535,2.4227,0.1,4.5607e-05,455.76,4.5616e-05,456.03,-1.4977e-05,0.76084,-1.5105e-05,-0.20407,0.18644
109,8.0816,3.6467,0.1,7.2828e-05,727.78,7.3344e-05,744.47,-2.0816e-05,36.983,-2.6009e-05,-2.0372,0.10124
110,9.215,3.6125,0.1,6.2985e-05,629.42,6.331e-05,639.28,-1.935e-05,18.207,-2.1528e-05,1.8378,0.12763
111,10.375,3.6178,0.1,5.4079e-05,540.42,5.42e-05,544.04,-1.7292e-05,6.8742,-1.815e-05,0.42202,0.1563
112,11.529,3.6177,0.1,4.5688e-05,456.56,4.5701e-05,456.95,-1.5008e-05,0.80736,-1.5119e-05,-0.029114,0.18629
113,12.676,3.6231,0.1,3.8007e-05,379.81,3.7946e-05,378.07,-1.2258e-05,0.85491,-1.2943e-05,-4.2918,0.21731
114,13.818,3.6304,0.1,3.0972e-05,309.5,3.0866e-05,306.54,-9.7838e-06,1.1156,-1.0849e-05,-6.8859,0.24915
115,14.957,3.6262,0.1,2.4684e-05,246.67,2.4546e-05,242.87,-7.624e-06,1.1616,-8.9074e-06,-8.4808,0.28175
116,16.091,3.6148,0.1,1.912e-05,191.07,1.8957e-05,186.7,-5.734e-06,1.182,-7.153e-06,-9.4796,0.3148
117,17.224,3.613,0.1,1.4302e-05,142.92,1.4118e-05,138.14,-4.1192e-06,1.1129,-5.6017e-06,-10.026,0.34835
118,18.342,3.6182,0.1,1.0266e-05,102.59,1.0061e-05,97.523,-2.7562e-06,1.2185,-4.2981e-06,-10.366,0.38178
119,19.471,3.6191,0.1,6.9349e-06,69.301,6.7026e-06,63.922,-1.642e-06,1.2242,-3.201e-06,-10.49,0.41579
120,20.598,3.5948,0.1,4.3676e-06,43.646,4.0826e-06,37.675,-7.6767e-07,1.2321,-2.355e-06,-10.695,0.44993
121,21.726,3.5886,0.1,2.5798e-06,25.781,2.2003e-06,18.817,-1.4996e-07,1.1578,-1.7371e-06,-10.767,0.48419
122,21.727,2.3816,0.1,2.5757e-06,25.739,2.1967e-06,18.804,-1.4659e-07,1.1977,-1.7348e-06,-10.736,0.48422
123,20.596,2.3958,0.1,4.375e-06,43.72,4.0909e-06,37.763,-7.7128e-07,1.2306,-2.3562e-06,-10.678,0.44986
124,19.466,2.4072,0.1,6.9464e-06,69.416,6.7123e-06,63.988,-1.6464e-06,1.1838,-3.2074e-06,-10.545,0.41564
125,18.342,2.421,0.1,1.0259e-05,102.52,1.0054e-05,97.468,-2.7483e-06,1.2767,-4.2991e-06,-10.375,0.38178
126,17.221,2.4034,0.1,1.4321e-05,143.11,1.4139e-05,138.38,-4.1185e-06,1.2058,-5.6113e-06,-10.011,0.34824
127,16.092,2.4163,0.1,1.911e-05,190.97,1.8945e-05,186.55,-5.7219e-06,1.2135,-7.1609e-06,-9.5984,0.31484
128,14.965,2.4356,0.1,2.4655e-05,246.38,2.451e-05,242.37,-7.6236e-06,0.93705,-8.9029e-06,-8.6751,0.28197
129,13.822,2.4542,0.1,3.0949e-05,309.28,3.0837e-05,306.16,-9.7648e-06,1.0863,-1.0863e-05,-7.1658,0.24926
130,12.682,2.4434,0.1,3.7923e-05,378.97,3.7862e-05,377.23,-1.2201e-05,1.0845,-1.2942e-05,-4.4885,0.21747
131,10.388,2.4218,0.1,5.3859e-05,538.22,5.3996e-05,542.3,-1.7158e-05,7.6789,-1.8107e-05,0.55168,0.15663
132,9.2165,2.4258,0.1,6.311e-05,630.66,6.3451e-05,641.38,-1.882e-05,23.229,-2.2056e-05,-1.088,0.12765
133,8.0232,2.456,0.1,7.2866e-05,728.16,7.3277e-05,741.88,-2.0833e-05,34.776,-2.6212e-05,-5.6405,0.09993
134,6.7771,2.5301,0.1,7.829e-05,782.36,7.9455e-05,825.59,-1.7516e-05,96.993,-3.0591e-05,-1.2439,0.073227
135,6.9981,3.7982,0.1,8.2348e-05,822.91,8.2995e-05,844.76,-2.2567e-05,51.611,-3.01e-05,-4.9856,0.077731
136,5.7699,5.0436,0.1,7.9683e-05,796.28,8.0328e-05,820.25,-2.0381e-05,63.559,-3.0232e-05,-10.454,0.052672
137,5.9505,4.0714,0.1,8.8177e-05,881.16,8.9607e-05,923.45,-2.6467e-05,51.318,-2.8835e-05,33.524,0.056771
138,8.1465,4.8406,0.1,7.2542e-05,724.92,7.2991e-05,738.5,-2.2163e-05,23.549,-2.4765e-05,3.9968,0.1021
139,9.2561,4.8079,0.1,6.3246e-05,632.03,6.3403e-05,636.69,-2.0241e-05,8.2222,-2.1181e-05,1.1545,0.12808
140,10.39,4.8049,0.1,5.4424e-05,543.86,5.4476e-05,545.4,-1.7777e-05,2.5184,-1.8038e-05,0.55577,0.15622
141,11.534,4.7984,0.1,4.5942e-05,459.1,4.5931e-05,458.8,-1.502e-05,0.83472,-1.5322e-05,-1.4323,0.18601
142,12.685,4.809,0.1,3.8106e-05,380.8,3.8039e-05,378.86,-1.2308e-05,0.57649,-1.297e-05,-4.3939,0.21717
143,13.823,4.8169,0.1,3.1016e-05,309.95,3.0914e-05,307.05,-9.8582e-06,0.70462,-1.0802e-05,-6.386,0.24901
144,14.958,4.8229,0.1,2.4689e-05,246.72,2.4564e-05,243.23,-7.7172e-06,0.6833,-8.8019e-06,-7.4665,0.28152
145,16.09,4.8075,0.1,1.9113e-05,191,1.8971e-05,187.11,-5.8498e-06,0.6214,-7.0087e-06,-8.0861,0.31459
146,17.22,4.8055,0.1,1.429e-05,142.8,1.4131e-05,138.56,-4.2342e-06,0.57391,-5.4553e-06,-8.601,0.34807
147,18.353,4.8346,0.1,1.0173e-05,101.66,1.0005e-05,97.33,-2.8691e-06,0.59868,-4.0978e-06,-8.633,0.382
148,19.479,4.8207,0.1,6.8303e-06,68.256,6.6454e-06,63.752,-1.755e-06,0.63416,-2.9952e-06,-8.6839,0.41597
149,20.599,4.796,0.1,4.2297e-06,42.268,4.0174e-06,37.487,-8.983e-07,0.55229,-2.1178e-06,-8.6109,0.44991
150,21.724,4.7945,0.1,2.3628e-06,23.611,2.104e-06,18.495,-2.7834e-07,0.59428,-1.4574e-06,-8.265,0.48409
151,22.861,4.7943,0.1,1.2425e-06,12.416,8.9413e-07,6.6011,9.577e-08,0.60255,-1.006e-06,-7.6754,0.51872
152,22.856,3.5955,0.1,1.5762e-06,15.751,1.0247e-06,7.1255,2.4627e-07,1.2769,-1.3496e-06,-10.714,0.51857
153,22.861,2.3924,0.1,1.5728e-06,15.717,1.021e-06,7.0697,2.4451e-07,1.2353,-1.3481e-06,-10.731,0.51873
154,1.0925,3.8663,0.1,0.0001533,1531.9,0.00014183,1385.3,-7.5599e-06,262.83,-9.0442e-05,-359.91,0.0016792
155,22.861,1.193,0.1,1.2366e-06,12.357,8.9091e-07,6.588,9.4848e-08,0.60671,-1.0003e-06,-7.6217,0.51866
156,21.725,1.1911,0.1,2.3642e-06,23.626,2.1071e-06,18.544,-2.7951e-07,0.61156,-1.4558e-06,-8.2266,0.48409
157,20.593,1.1865,0.1,4.2414e-06,42.385,4.0342e-06,37.716,-9.0632e-07,0.5952,-2.1124e-06,-8.4671,0.4497
158,19.468,1.2054,0.1,6.8553e-06,68.506,6.6679e-06,63.932,-1.7625e-06,0.58973,-3.0087e-06,-8.7741,0.4156
159,18.349,1.2022,0.1,1.0184e-05,101.77,1.0016e-05,97.431,-2.8746e-06,0.57979,-4.0996e-06,-8.6241,0.38185
160,17.22,1.1977,0.1,1.4285e-05,142.75,1.413e-05,138.61,-4.2397e-06,0.59003,-5.4408e-06,-8.4345,0.34804
161,16.086,1.2189,0.1,1.9131e-05,191.18,1.899e-05,187.3,-5.8536e-06,0.64069,-7.017e-06,-8.1005,0.31445
162,14.956,1.2252,0.1,2.4708e-05,246.91,2.4581e-05,243.37,-7.7247e-06,0.63636,-8.8099e-06,-7.5176,0.28145
163,13.829,1.2767,0.1,3.0971e-05,309.5,3.0862e-05,306.41,-9.8478e-06,0.53477,-1.0795e-05,-6.5818,0.24916
164,12.692,1.2478,0.1,3.7988e-05,379.62,3.7921e-05,377.7,-1.226e-05,0.66082,-1.294e-05,-4.4488,0.21737
165,11.552,1.2161,0.1,4.5717e-05,456.85,4.5704e-05,456.48,-1.4954e-05,0.72038,-1.5244e-05,-1.4617,0.18646
166,10.405,1.2177,0.1,5.4171e-05,541.33,5.4243e-05,543.48,-1.7606e-05,3.6266,-1.8e-05,0.66984,0.15656
167,9.2487,1.2236,0.1,6.3268e-05,632.25,6.3513e-05,639.56,-1.9908e-05,12.776,-2.1342e-05,1.9956,0.12787
168,8.0766,1.2485,0.1,7.3325e-05,732.74,7.3671e-05,743.94,-2.1636e-05,27.842,-2.5924e-05,-4.3772,0.10053
169,6.9024,1.202,0.1,8.1614e-05,815.58,8.1925e-05,825.41,-2.4732e-05,24.027,-2.8418e-05,-3.6711,0.075123
170,5.6691,1.0412,0.1,8.2435e-05,823.78,8.291e-05,839.03,-2.4117e-05,34.867,-2.9164e-05,-3.0552,0.050748
171,1.3141,1.3091,0.1,0.00013056,1304.7,0.00012181,1163.7,-1.3853e-05,144.37,-7.3885e-05,-306.69,0.0022875
172,1.4507,2.7346,0.1,0.00014774,1476.4,0.00013668,1354.3,-3.9717e-06,297.47,-8.783e-05,-332.61,0.0030071
173,5.6682,2.034,0.1,0.00010127,1012,0.00010241,1046.9,-2.9391e-05,56.588,-3.4979e-05,14.599,0.05145
174,1.0615,4.964,0.1,0.00013851,1384.2,0.00012971,1251.8,-1.3604e-05,174.99,-7.8091e-05,-309.54,0.0014194
175,5.8283,3.2465,0.1,9.9319e-05,992.51,0.00010146,1061.8,-2.4072e-05,118.57,-3.6333e-05,26.442,0.054656
176,4.5261,5.475,0.1,8.7228e-05,871.68,8.2086e-05,743.35,-2.1406e-05,-34.248,-4.3322e-05,-198.92,0.030032
177,2.2105,4.3699,0.1,0.00011908,1190,0.00012266,1295.8,-3.357e-05,121.95,-3.7781e-05,90.307,0.0066179
178,2.1902,5.1809,0.1,0.00011116,1110.9,0.00011292,1163.3,-3.2476e-05,70.842,-3.7267e-05,34.845,0.0058602
179,4.6729,0.56103,0.1,8.4172e-05,841.13,8.0477e-05,745.16,-2.259e-05,-29.248,-3.8624e-05,-149.72,0.03238
180,2.4166,1.7632,0.1,0.00012992,1298.3,0.00012969,1308,-3.0574e-05,103.84,-5.3373e-05,-67.458,0.0078819
181,2.3411,0.71513,0.1,0.00011672,1166.4,0.00011547,1144.1,-2.8673e-05,61.05,-4.8885e-05,-90.817,0.0064787
182,4.9024,4.1556,0.1,0.00011565,1155.7,0.00011894,1281.5,-1.8583e-05,248.25,-4.7168e-05,33.47,0.037836
183,3.6306,3.4966,0.1,0.00023772,2375.6,0.00022103,2009.3,-4.452e-05,14.05,-0.00012872,-618.56,0.019538
184,4.9752,3.5946,0.1,0.00013318,1330.9,0.00013495,1402,-2.8462e-05,174.18,-5.3278e-05,-12.278,0.039329
185,3.6467,4,0,0.00031263,3124.1,0.00011343,-171.35,6.8999e-05,-505.19,-0.00032279,-3449,0.018921
186,3.6467,4.5,0,0.00015842,1583.1,8.9335e-05,462.48,2.7423e-05,-2.7064,-0.00014538,-1301.1,0.017792
187,3.6467,5,0,0.00013772,1376.2,8.2435e-05,405,1.3387e-05,-113.8,-0.00012522,-1155.2,0.016599
188,3.6467,5.5,0,3.145e-05,314.28,1.137e-05,-120.45,-3.6958e-06,-233.64,-3.5905e-05,-475.65,0.015488
189,3.48,4,0,0.00050075,5004.1,0.00017801,-484.72,9.6935e-05,-1093.9,-0.00052482,-5765.5,0.016937
190,3.48,5.5,0,9.1487e-05,914.24,3.1365e-05,-99.337,1.8805e-05,-193.7,-9.6106e-05,-1057.1,0.013525
191,3.48,5,0,0.00014664,1465.4,5.1501e-05,-103.19,3.3284e-05,-240.07,-0.000152,-1632.2,0.014592
192,3.48,4.5,0,0.00023915,2389.9,7.694e-05,-225.45,6.1463e-05,-341.74,-0.00024859,-2671.3,0.015735
193,3.6467,2,0,0.00034279,3425.6,0.00011021,-290.18,9.1308e-05,-432.21,-0.00035486,-3784.5,0.018808
194,3.6467,1.5,0,0.00017542,1753,9.4568e-05,442.06,3.22e-05,-26.55,-0.00016358,-1497.6,0.017588
195,3.6467,1,0,0.00012277,1226.8,6.6374e-05,252.81,1.6052e-05,-125.29,-0.00011614,-1118.6,0.016359
196,3.6467,0.5,0,4.252e-05,424.91,1.4982e-05,-109.47,1.6237e-06,-209.84,-4.7053e-05,-575.58,0.015225
197,3.48,2,0,0.00039022,3899.5,0.00012451,-338.98,0.00010479,-487.14,-0.00040406,-4310.4,0.016848
198,3.48,0.5,0,6.6871e-05,668.24,2.3228e-05,-124.48,8.0815e-06,-238.28,-7.2311e-05,-842.32,0.013117
199,3.48,1,0,0.00015177,1516.6,6.709e-05,111.02,2.9813e-05,-169.07,-0.0001508,-1526.1,0.014277
200,3.48,1.5,0,0.00023267,2325.1,9.5809e-05,207.73,6.2792e-05,-40.346,-0.00022883,-2231.5,0.015552
201,3.6467,6,0,4.9042e-05,490.08,2.3287e-05,16.978,4.357e-06,-125.26,-4.9309e-05,-528.48,0.014449
202,4.7774,6,0,6.3527e-05,634.83,2.3514e-05,-14.438,1.5135e-05,-77.39,-6.4855e-05,-678.4,0.033512
203,5.9081,6,0,7.9013e-05,789.59,3.1439e-05,59.247,2.224e-05,-9.873,-7.7946e-05,-762.63,0.054126
204,7.0389,6,0,8.3838e-05,837.81,2.9789e-05,19.008,2.5788e-05,-11.049,-8.3663e-05,-833.42,0.076728
205,8.1696,6,0,7.3275e-05,732.24,2.4308e-05,-7.9442,2.3236e-05,-16,-7.3679e-05,-744.18,0.10145
206,9.3004,6,0,6.4172e-05,641.28,2.1323e-05,0.99565,2.1022e-05,-1.2663,-6.4177e-05,-641.41,0.12805
207,10.431,6,0,5.4826e-05,547.88,1.8415e-05,3.2821,1.7847e-05,-0.98252,-5.4785e-05,-546.72,0.15628
208,11.562,6,0,4.6161e-05,461.29,1.5764e-05,6.0724,1.4889e-05,-0.5047,-4.6063e-05,-458.47,0.1859
209,12.693,6,0,3.8315e-05,382.88,1.3277e-05,7.4199,1.225e-05,-0.2971,-3.8188e-05,-379.26,0.21668
210,13.823,6,0,3.1183e-05,311.62,1.1007e-05,8.5497,9.855e-06,-0.10663,-3.103e-05,-307.3,0.24842
211,14.954,6,0,2.4814e-05,247.97,8.9622e-06,9.3719,7.7287e-06,0.10345,-2.464e-05,-243.1,0.28093
212,16.085,6,0,1.918e-05,191.66,7.1323e-06,9.8291,5.8573e-06,0.24871,-1.899e-05,-186.45,0.31406
213,17.216,6,0,1.4323e-05,143.13,5.5731e-06,10.328,4.2184e-06,0.14997,-1.4117e-05,-137.62,0.34765
214,18.346,6,0,1.0244e-05,102.37,4.2195e-06,10.332,2.8762e-06,0.23859,-1.0026e-05,-96.707,0.38158
215,19.477,6,0,6.8211e-06,68.164,3.0681e-06,10.202,1.7576e-06,0.35523,-6.5879e-06,-62.35,0.41575
216,20.608,6,0,4.1654e-06,41.625,2.1797e-06,10.177,8.6844e-07,0.32537,-3.8982e-06,-35.49,0.45007
217,21.739,6,0,2.2618e-06,22.602,1.4746e-06,9.46,2.5522e-07,0.29836,-1.9518e-06,-16.284,0.48447
218,22.869,6,0,1.0355e-06,10.348,8.9351e-07,7.6497,-8.3502e-08,0.30883,-6.8162e-07,-4.1852,0.51891
219,24,6,0,4.6302e-07,4.6271,4.7836e-07,5.1112,-1.0459e-07,0.73113,-1.6576e-07,0.27147,0.55335
220,24,4.8,0,8.3235e-07,8.3178,7.7121e-07,6.7593,-2.0997e-07,-0.61294,-4.2895e-07,-2.2582,0.55339
221,24,3.6,0,1.2426e-06,12.417,1.1571e-06,10.1,-3.6048e-07,-1.3022,-6.0374e-07,-3.1299,0.55341
222,24,2.4,0,1.242e-06,12.412,1.1577e-06,10.117,-3.6386e-07,-1.3152,-5.9929e-07,-3.0841,0.5534
223,24,1.2,0,8.3151e-07,8.3094,7.7294e-07,6.8056,-2.135e-07,-0.60613,-4.2259e-07,-2.1772,0.55335
224,1.049e-14,1.2,0,0.00010135,1012.8,1.048e-06,-979.66,-1.4773e-06,-998.64,-0.00013499,-2001.8,0
225,2.0981e-14,2.4,0,0.00010674,1066.7,9.2519e-07,-1035.1,-1.5493e-06,-1053.7,-0.00014226,-2110.9,0
226,3.1471e-14,3.6,0,0.00010333,1032.6,4.3853e-07,-1010,-1.4582e-06,-1024.2,-0.00013793,-2049.6,0
227,4.1961e-14,4.8,0,9.7524e-05,974.57,6.7595e-07,-942.22,-8.0781e-07,-953.37,-0.00012977,-1922.3,0
228,24,0,0,4.6116e-07,4.6084,4.7748e-07,5.1212,-1.0322e-07,0.75797,-1.6397e-07,0.30155,0.55328
229,3.6467,0,0,4.3811e-05,437.81,2.015e-05,-26.239,8.1912e-07,-171.48,-4.5328e-05,-518.21,0.014163
230,22.869,0,0,1.0278e-06,10.271,8.8731e-07,7.5877,-8.5472e-08,0.27865,-6.7557e-07,-4.1551,0.51884
231,21.739,0,0,2.252e-06,22.504,1.4601e-06,9.3092,2.6084e-07,0.29819,-1.9488e-06,-16.304,0.4844
232,20.608,0,0,4.2011e-06,41.982,2.2004e-06,10.301,8.7555e-07,0.34643,-3.9305e-06,-35.764,0.45
233,19.477,0,0,6.8281e-06,68.234,3.0992e-06,10.56,1.7407e-06,0.35283,-6.5849e-06,-62.202,0.41568
234,18.346,0,0,1.0198e-05,101.91,4.2001e-06,10.316,2.8678e-06,0.30549,-9.9808e-06,-96.234,0.38151
235,17.216,0,0,1.434e-05,143.3,5.574e-06,10.282,4.2284e-06,0.17111,-1.4136e-05,-137.81,0.34758
236,16.085,0,0,1.9205e-05,191.92,7.1634e-06,10.124,5.8532e-06,0.2797,-1.9009e-05,-186.52,0.31399
237,14.954,0,0,2.4867e-05,248.5,9.0412e-06,10.042,7.702e-06,-0.020829,-2.4681e-05,-243.34,0.28086
238,13.823,0,0,3.1142e-05,311.2,1.0992e-05,8.5034,9.8398e-06,-0.15217,-3.099e-05,-306.93,0.24835
239,12.693,0,0,3.8216e-05,381.9,1.3172e-05,6.6995,1.2274e-05,-0.048946,-3.8099e-05,-378.53,0.21661
240,11.562,0,0,4.6131e-05,461,1.5667e-05,4.8848,1.4919e-05,-0.74138,-4.6058e-05,-458.9,0.18583
241,10.431,0,0,5.4797e-05,547.59,1.8391e-05,3.1662,1.7852e-05,-0.8807,-5.4757e-05,-546.44,0.1562
242,9.3004,0,0,6.3744e-05,637,2.116e-05,-1.0084,2.0732e-05,-4.2236,-6.3833e-05,-639.61,0.12797
243,8.1696,0,0,7.2916e-05,728.66,2.4257e-05,-4.3197,2.3337e-05,-11.228,-7.3178e-05,-736.41,0.10136
244,7.0389,0,0,8.1433e-05,813.77,2.8776e-05,20.689,2.553e-05,-3.703,-8.1117e-05,-805,0.076617
245,5.9081,0,0,8.1629e-05,815.72,3.2701e-05,71.944,2.36e-05,3.5642,-8.0129e-05,-775.82,0.05393
246,4.7774,0,0,6.2597e-05,625.54,2.4339e-05,20.197,1.6088e-05,-41.793,-6.2734e-05,-634.03,0.033266
247,0,0,0,7.7711e-05,776.57,7.6593e-06,-615.87,-4.7778e-07,-677.01,-9.9524e-05,-1421.2,0
248,3.48,0,0,6.5277e-05,652.32,3.0353e-05,-41.923,1.5572e-07,-268.82,-6.7531e-05,-777.39,0.012067
249,2.32,8.0879e-31,0,0.0001014,1013.3,4.4314e-05,62.669,1.9761e-05,-121.81,-0.00010114,-1030.2,0.0054419
250,1.16,4.0439e-31,0,0.00012964,1295.5,5.8355e-05,225.36,3.6415e-05,60.511,-0.00012399,-1144.7,0.0012656
251,3.937e-14,6,0,7.4688e-05,746.36,9.179e-06,-563.2,-1.008e-06,-639.74,-9.4856e-05,-1344.9,0
252,3.48,6,0,6.6224e-05,661.78,2.4177e-05,-92.482,8.8058e-06,-207.98,-7.0574e-05,-804.41,0.012502
253,1.16,6,0,0.00013356,1334.7,6.3719e-05,216.09,2.8983e-05,-44.907,-0.00012872,-1229.8,0.0012356
254,2.32,6,0,0.00010786,1077.9,4.0144e-05,14.86,2.9066e-05,-68.371,-0.00010853,-1102.2,0.0055273
255,3.6467,5.5,0.1,3.145e-05,314.28,3.5905e-05,475.65,3.6958e-06,233.64,-1.137e-05,120.45,0.015488
256,3.6467,5,0.1,0.00013772,1376.2,0.00012522,1155.2,-1.3387e-05,113.8,-8.2435e-05,-405,0.016599
257,3.6467,4.5,0.1,0.00015842,1583.1,0.00014538,1301.1,-2.7423e-05,2.7064,-8.9335e-05,-462.48,0.017792
258,3.6467,4,0.1,0.00031263,3124.1,0.00032279,3449,-6.8999e-05,505.19,-0.00011343,171.35,0.018921
259,3.48,4,0.1,0.00050075,5004.1,0.00052482,5765.5,-9.6935e-05,1093.9,-0.00017801,484.72,0.016937
260,3.48,4.5,0.1,0.00023915,2389.9,0.00024859,2671.3,-6.1463e-05,341.74,-7.694e-05,225.45,0.015735
261,3.48,5,0.1,0.00014664,1465.4,0.000152,1632.2,-3.3284e-05,240.07,-5.1501e-05,103.19,0.014592
262,3.48,5.5,0.1,9.1487e-05,914.24,9.6106e-05,1057.1,-1.8805e-05,193.7,-3.1365e-05,99.337,0.013525
263,3.6467,0.5,0.1,4.252e-05,424.91,4.7053e-05,575.58,-1.6237e-06,209.84,-1.4982e-05,109.47,0.015225
264,3.6467,1,0.1,0.00012277,1226.8,0.00011614,1118.6,-1.6052e-05,125.29,-6.6374e-05,-252.81,0.016359
265,3.6467,1.5,0.1,0.00017542,1753,0.00016358,1497.6,-3.22e-05,26.55,-9.4568e-05,-442.06,0.017588
266,3.6467,2,0.1,0.00034279,3425.6,0.00035486,3784.5,-9.1308e-05,432.21,-0.00011021,290.18,0.018808
267,3.48,2,0.1,0.00039022,3899.5,0.00040406,4310.4,-0.00010479,487.14,-0.00012451,338.98,0.016848
268,3.48,1.5,0.1,0.00023267,2325.1,0.00022883,2231.5,-6.2792e-05,40.346,-9.5809e-05,-207.73,0.015552
269,3.48,1,0.1,0.00015177,1516.6,0.0001508,1526.1,-2.9813e-05,169.07,-6.709e-05,-111.02,0.014277
270,3.48,0.5,0.1,6.6871e-05,668.24,7.2311e-05,842.32,-8.0815e-06,238.28,-2.3228e-05,124.48,0.013117
271,3.6467,6,0.1,4.9042e-05,490.08,4.9309e-05,528.48,-4.357e-06,125.26,-2.3287e-05,-16.978,0.014449
272,4.7774,6,0.1,6.3527e-05,634.83,6.4855e-05,678.4,-1.5135e-05,77.39,-2.3514e-05,14.438,0.033512
273,5.9081,6,0.1,7.9013e-05,789.59,7.7946e-05,762.63,-2.224e-05,9.873,-3.1439e-05,-59.247,0.054126
274,7.0389,6,0.1,8.3838e-05,837.81,8.3663e-05,833.42,-2.5788e-05,11.049,-2.9789e-05,-19.008,0.076728
275,8.1696,6,0.1,7.3275e-05,732.24,7.3679e-05,744.18,-2.3236e-05,16,-2.4308e-05,7.9442,0.10145
276,9.3004,6,0.1,6.4172e-05,641.28,6.4177e-05,641.41,-2.1022e-05,1.2663,-2.1323e-05,-0.99565,0.12805
277,10.431,6,0.1,5.4826e-05,547.88,5.4785e-05,546.72,-1.7847e-05,0.98252,-1.8415e-05,-3.2821,0.15628
278,11.562,6,0.1,4.6161e-05,461.29,4.6063e-05,458.47,-1.4889e-05,0.5047,-1.5764e-05,-6.0724,0.1859
279,12.693,6,0.1,3.8315e-05,382.88,3.8188e-05,379.26,-1.225e-05,0.2971,-1.3277e-05,-7.4199,0.21668
280,13.823,6,0.1,3.1183e-05,311.62,3.103e-05,307.3,-9.855e-06,0.10663,-1.1007e-05,-8.5497,0.24842
281,14.954,6,0.1,2.4814e-05,247.97,2.464e-05,243.1,-7.7287e-06,-0.10345,-8.9622e-06,-9.3719,0.28093
282,16.085,6,0.1,1.918e-05,191.66,1.899e-05,186.45,-5.8573e-06,-0.24871,-7.1323e-06,-9.8291,0.31406
283,17.216,6,0.1,1.4323e-05,143.13,1.4117e-05,137.62,-4.2184e-06,-0.14997,-5.5731e-06,-10.328,0.34765
284,18.346,6,0.1,1.0244e-05,102.37,1.0026e-05,96.707,-2.8762e-06,-0.23859,-4.2195e-06,-10.332,0.38158
285,19.477,6,0.1,6.8211e-06,68.164,6.5879e-06,62.35,-1.7576e-06,-0.35523,-3.0681e-06,-10.202,0.41575
286,20.608,6,0.1,4.1654e-06,41.625,3.8982e-06,35.49,-8.6844e-07,-0.32537,-2.1797e-06,-10.177,0.45007
287,21.739,6,0.1,2.2618e-06,22.602,1.9518e-06,16.284,-2.5522e-07,-0.29836,-1.4746e-06,-9.46,0.48447
288,22.869,6,0.1,1.0355e-06,10.348,6.8163e-07,4.1852,8.3501e-08,-0.30883,-8.9351e-07,-7.6497,0.51891
289,24,6,0.1,4.6303e-07,4.6271,1.6576e-07,-0.27147,1.0459e-07,-0.73112,-4.7836e-07,-5.1112,0.55335
290,24,4.8,0.1,8.3235e-07,8.3178,4.2895e-07,2.2582,2.0997e-07,0.61293,-7.7121e-07,-6.7593,0.55339
291,24,3.6,0.1,1.2426e-06,12.417,6.0374e-07,3.1299,3.6048e-07,1.3022,-1.1571e-06,-10.1,0.55341
292,24,2.4,0.1,1.242e-06,12.412,5.9929e-07,3.0841,3.6386e-07,1.3152,-1.1577e-06,-10.117,0.5534
293,24,1.2,0.1,8.3151e-07,8.3094,4.2259e-07,2.1772,2.135e-07,0.60613,-7.7294e-07,-6.8056,0.55335
294,1.049e-14,1.2,0.1,0.00010135,1012.8,0.00013499,2001.8,1.4773e-06,998.64,-1.048e-06,979.66,0
295,2.0981e-14,2.4,0.1,0.00010674,1066.7,0.00014226,2110.9,1.5493e-06,1053.7,-9.2519e-07,1035.1,0
296,3.1471e-14,3.6,0.1,0.00010333,1032.6,0.00013793,2049.6,1.4582e-06,1024.2,-4.3853e-07,1010,0
297,4.1961e-14,4.8,0.1,9.7524e-05,974.57,0.00012977,1922.3,8.0781e-07,953.37,-6.7595e-07,942.22,0
298,24,0,0.1,4.6116e-07,4.6084,1.6397e-07,-0.30155,1.0323e-07,-0.75795,-4.7748e-07,-5.1212,0.55328
299,22.869,0,0.1,1.0278e-06,10.271,6.7557e-07,4.1551,8.5471e-08,-0.27865,-8.8731e-07,-7.5877,0.51884
300,21.739,0,0.1,2.252e-06,22.504,1.9488e-06,16.304,-2.6084e-07,-0.29819,-1.4601e-06,-9.3092,0.4844
301,20.608,0,0.1,4.2011e-06,41.982,3.9305e-06,35.764,-8.7555e-07,-0.34643,-2.2004e-06,-10.301,0.45
302,19.477,0,0.1,6.8281e-06,68.234,6.5849e-06,62.202,-1.7407e-06,-0.35283,-3.0992e-06,-10.56,0.41568
303,18.346,0,0.1,1.0198e-05,101.91,9.9808e-06,96.234,-2.8678e-06,-0.30549,-4.2001e-06,-10.316,0.38151
304,17.216,0,0.1,1.434e-05,143.3,1.4136e-05,137.81,-4.2284e-06,-0.17111,-5.574e-06,-10.282,0.34758
305,16.085,0,0.1,1.9205e-05,191.92,1.9009e-05,186.52,-5.8532e-06,-0.2797,-7.1634e-06,-10.124,0.31399
306,14.954,0,0.1,2.4867e-05,248.5,2.4681e-05,243.34,-7.702e-06,0.020829,-9.0412e-06,-10.042,0.28086
307,13.823,0,0.1,3.1142e-05,311.2,3.099e-05,306.93,-9.8398e-06,0.15217,-1.0992e-05,-8.5034,0.24835
308,12.693,0,0.1,3.8216e-05,381.9,3.8099e-05,378.53,-1.2274e-05,0.048946,-1.3172e-05,-6.6995,0.21661
309,11.562,0,0.1,4.6131e-05,461,4.6058e-05,458.9,-1.4919e-05,0.74138,-1.5667e-05,-4.8848,0.18583
310,10.431,0,0.1,5.4797e-05,547.59,5.4757e-05,546.44,-1.7852e-05,0.8807,-1.8391e-05,-3.1662,0.1562
311,9.3004,0,0.1,6.3744e-05,637,6.3833e-05,639.61,-2.0732e-05,4.2236,-2.116e-05,1.0084,0.12797
312,8.1696,0,0.1,7.2916e-05,728.66,7.3178e-05,736.41,-2.3337e-05,11.228,-2.4257e-05,4.3197,0.10136
313,7.0389,0,0.1,8.1433e-05,813.77,8.1117e-05,805,-2.553e-05,3.703,-2.8776e-05,-20.689,0.076617
314,5.9081,0,0.1,8.1629e-05,815.72,8.0129e-05,775.82,-2.36e-05,-3.5642,-3.2701e-05,-71.944,0.05393
315,4.7774,0,0.1,6.2597e-05,625.54,6.2734e-05,634.03,-1.6088e-05,41.793,-2.4339e-05,-20.197,0.033266
316,3.6467,0,0.1,4.3811e-05,437.81,4.5328e-05,518.21,-8.1912e-07,171.48,-2.015e-05,26.239,0.014163
317,3.48,0,0.1,6.5277e-05,652.32,6.7531e-05,777.39,-1.5572e-07,268.82,-3.0353e-05,41.923,0.012067
318,2.32,8.0879e-31,0.1,0.0001014,1013.3,0.00010114,1030.2,-1.9761e-05,121.81,-4.4314e-05,-62.669,0.0054419
319,1.16,4.0439e-31,0.1,0.00012964,1295.5,0.00012399,1144.7,-3.6415e-05,-60.511,-5.8355e-05,-225.36,0.0012656
320,0,0,0.1,7.7711e-05,776.57,9.9524e-05,1421.2,4.7778e-07,677.01,-7.6593e-06,615.87,0
321,3.937e-14,6,0.1,7.4688e-05,746.36,9.4856e-05,1344.9,1.008e-06,639.74,-9.179e-06,563.2,0
322,1.16,6,0.1,0.00013356,1334.7,0.00012872,1229.8,-2.8983e-05,44.907,-6.3719e-05,-216.09,0.0012356
323,2.32,6,0.1,0.00010786,1077.9,0.00010853,1102.2,-2.9066e-05,68.371,-4.0144e-05,-14.86,0.0055273
324,3.48,6,0.1,6.6224e-05,661.78,7.0574e-05,804.41,-8.8058e-06,207.98,-2.4177e-05,92.482,0.012502
325,4.9388,3.8751,0,0.00012424,1241.5,4.9855e-05,-13.36,2.3808e-05,-209.07,-0.00012686,-1341.1,0.038602
326,5.4018,3.4206,0,0.00011591,1158.3,4.4612e-05,-8.5389,2.6188e-05,-146.97,-0.00011793,-1229.8,0.046817
327,4.6038,3.5175,0,0.00015408,1539.7,5.7553e-05,101.92,4.8753e-05,35.801,-0.00015163,-1469.8,0.033245
328,4.8768,3.1744,0,0.00014193,1418.3,5.5726e-05,-2.5142,3.0782e-05,-189.94,-0.00014427,-1505.2,0.037756
329,4.9752,3.5946,0.05,8.3798e-06,83.74,6.4346e-06,48.347,2.0381e-13,1.2612e-06,-6.4346e-06,-48.347,0.039318
330,3.9315,3.4685,0,0.0002053,2051.6,9.8483e-05,429.18,5.3261e-05,89.401,-0.00019436,-1771.1,0.023425
331,3.5042,3.1915,0,0.0002328,2326.4,0.00011609,499.47,5.301e-05,25.529,-0.00022021,-2027.4,0.018251
332,3.6306,3.4966,0.05,1.1639e-05,116.31,8.9371e-06,67.15,-1.8957e-21,-1.5793e-06,-8.9371e-06,-67.15,0.019528
333,3.5553,3.7483,0,0.0003608,3605.5,0.00012852,-119.75,9.1451e-05,-398.26,-0.0003688,-3856.4,0.018295
334,5.4265,4.1135,0,0.00010105,1009.8,3.7461e-05,-37.56,2.2561e-05,-149.51,-0.00010377,-1098.7,0.047045
335,4.8098,4.3988,0,0.00011537,1152.9,4.5755e-05,47.191,2.8964e-05,-78.969,-0.00011539,-1163.6,0.036099
336,4.9024,4.1556,0.05,7.0923e-06,70.874,5.446e-06,40.919,6.8169e-14,1.028e-06,-5.446e-06,-40.919,0.037825
337,4.2746,4.0778,0,0.00020627,2061.3,6.4683e-05,-219.74,5.358e-05,-303.17,-0.00021504,-2321.5,0.027761
338,1.8276,1.0121,0,0.00012041,1203.3,5.1905e-05,127.53,3.0122e-05,-36.144,-0.00011802,-1149.2,0.0042001
339,2.4993,0.93664,0,0.00010477,1047,4.1729e-05,82.233,2.9763e-05,-7.6708,-0.00010321,-1006.8,0.007644
340,2.3411,0.71513,0.05,1.1492e-05,114.84,8.8244e-06,66.303,-4.4355e-13,1.8624e-05,-8.8244e-06,-66.303,0.0064719
341,2.9105,0.60756,0,8.7469e-05,874.09,2.8669e-05,-72.339,2.2501e-05,-118.68,-9.0627e-05,-968.68,0.0096687
342,2.3305,0.35756,0,0.00010889,1088.1,4.6585e-05,76.636,2.4091e-05,-92.374,-0.00010816,-1086.1,0.0060021
343,1.8654,1.5362,0,0.00012839,1283,5.8367e-05,147.54,2.7465e-05,-84.648,-0.00012574,-1235.7,0.0046644
344,2.5371,1.4607,0,0.00010913,1090.5,4.1957e-05,55.406,3.0837e-05,-28.146,-0.00010842,-1074.5,0.008432
345,2.4311,2.0822,0,0.0001403,1402,5.2318e-05,-24.918,3.3388e-05,-167.15,-0.00014303,-1492.7,0.0081812
346,2.4166,1.7632,0.05,1.4868e-05,148.58,1.1417e-05,85.784,1.0062e-12,1.5548e-05,-1.1417e-05,-85.784,0.0078744
347,2.9483,1.6316,0,0.00016998,1698.6,6.4521e-05,61.929,4.7208e-05,-68.15,-0.00016971,-1698,0.011491
348,5.171,0.80113,0,8.1784e-05,817.28,3.0649e-05,52.008,2.5508e-05,13.378,-8.0603e-05,-783.9,0.041414
349,4.5193,0.78095,0,7.6685e-05,766.32,3.5302e-05,142.73,2.0988e-05,35.182,-7.3089e-05,-671.68,0.030126
350,4.6729,0.56103,0.05,8.1063e-06,81.007,6.2246e-06,46.77,-1.3203e-21,-9.9205e-15,-6.2246e-06,-46.77,0.032368
351,4.1598,0.53051,0,6.0188e-05,601.46,1.9994e-05,-31.032,1.677e-05,-55.26,-6.1619e-05,-644.24,0.023705
352,4.7251,0.28051,0,7.2924e-05,728.74,3.1197e-05,82.821,1.9236e-05,-7.0447,-7.1218e-05,-686.68,0.032836
353,2.2004,4.7754,0,0.00011498,1149,3.6673e-05,-68.965,3.3766e-05,-90.81,-0.00011768,-1228.7,0.0062746
354,1.6258,5.0725,0,0.00012283,1227.5,5.5778e-05,123.06,2.4572e-05,-111.41,-0.00012094,-1204.7,0.0032733
355,2.1902,5.1809,0.05,4.2388e-06,42.359,3.2549e-06,24.456,2.0084e-13,-5.1874e-15,-3.2549e-06,-24.456,0.0058529
356,2.8351,5.3404,0,9.9631e-05,995.62,3.2514e-05,-80.626,2.6043e-05,-129.25,-0.00010311,-1099.7,0.0094556
357,2.2551,5.5904,0,0.00010939,1093.2,3.7894e-05,-16.089,3.1535e-05,-63.869,-0.00011068,-1132.4,0.0057591
358,1.6515,4.1181,0,0.00013351,1334.2,6.3973e-05,133.76,1.9928e-05,-197.18,-0.00013147,-1334.7,0.0037755
359,2.3099,4.0238,0,0.00012947,1293.8,4.1781e-05,-87.366,3.6284e-05,-128.66,-0.00013309,-1401.3,0.0074284
360,2.2105,4.3699,0.05,5.9372e-06,59.331,4.559e-06,34.255,6.8128e-13,3.7885e-06,-4.559e-06,-34.255,0.00661
361,2.8453,4.6849,0,0.00012819,1281,4.4491e-05,-97.874,2.9325e-05,-211.83,-0.00013308,-1432.1,0.010446
362,5.148,5.2593,0,8.0096e-05,800.41,3.0071e-05,54.301,2.5201e-05,17.706,-7.8808e-05,-763.78,0.041105
363,4.4385,5.262,0,7.805e-05,779.96,3.6276e-05,152.79,2.1447e-05,41.37,-7.4148e-05,-676.89,0.028904
364,4.5261,5.475,0.05,1.0676e-05,106.69,8.1982e-06,61.598,-1.739e-21,-1.3066e-14,-8.1982e-06,-61.598,0.03002
365,4.0864,5.4875,0,5.7246e-05,572.07,1.9784e-05,-17.583,1.5724e-05,-48.087,-5.8302e-05,-604.29,0.022694
366,4.6518,5.7375,0,7.4601e-05,745.49,3.2806e-05,87.646,1.8285e-05,-21.465,-7.2873e-05,-706.39,0.031763
367,5.8894,3.659,0,9.3583e-05,935.18,3.1688e-05,-36.715,2.6104e-05,-78.67,-9.5475e-05,-992.17,0.055752
368,6.3027,2.8883,0,8.8772e-05,887.11,3.3295e-05,-13.85,2.0957e-05,-106.56,-9.0456e-05,-943.67,0.063772
369,5.6201,2.9913,0,0.00010089,1008.2,4.0566e-05,-19.73,1.8295e-05,-187.07,-0.00010336,-1101.1,0.050795
370,5.8283,3.2465,0.05,3.0579e-06,30.558,2.3481e-06,17.643,9.0211e-13,-5.2225e-08,-2.3481e-06,-17.643,0.054647
371,1.077,4.4152,0,0.00014558,1454.8,8.4255e-05,334.64,1.0275e-05,-221.21,-0.00013545,-1316.1,0.0015664
372,1.0615,4.964,0.05,3.6654e-06,36.629,2.8146e-06,21.148,1.4947e-13,-4.4857e-15,-2.8146e-06,-21.148,0.0014112
373,0.53075,4.882,0,0.00011584,1157.6,3.9153e-05,-318.07,5.7635e-06,-568.95,-0.00012887,-1580.5,0.0003626
374,1.1107,5.482,0,0.00013525,1351.5,7.0841e-05,262.34,2.0878e-05,-113.07,-0.00012873,-1237.2,0.0013849
375,5.6687,1.5376,0,9.1734e-05,916.71,3.199e-05,-6.3885,2.6735e-05,-45.87,-9.2559e-05,-942.2,0.051172
376,6.2227,2.282,0,8.9679e-05,896.17,3.2612e-05,-7.9737,2.3603e-05,-75.667,-9.091e-05,-936.07,0.062083
377,5.1888,2.0421,0,0.00011028,1102.1,3.7971e-05,-56.162,2.8445e-05,-127.74,-0.00011324,-1192.3,0.042836
378,5.54,2.385,0,0.00010168,1016.1,3.9627e-05,-15.777,2.1242e-05,-153.91,-0.00010386,-1093.9,0.049233
379,5.6682,2.034,0.05,2.527e-06,25.252,1.9404e-06,14.579,7.1068e-13,1.4687e-08,-1.9404e-06,-14.579,0.051441
380,1.3824,2.0219,0,0.00013841,1383.2,8.0771e-05,319,8.2812e-06,-225.66,-0.00012853,-1253.6,0.002676
381,1.2716,3.3005,0,0.00015033,1502.2,8.9125e-05,346.18,5.5544e-06,-281.74,-0.00013904,-1368.1,0.0023205
382,1.9481,2.568,0,0.00014781,1477.1,7.2544e-05,130.17,1.6533e-05,-290.67,-0.00014597,-1511.6,0.0053979
383,1.93,3.2062,0,0.0001412,1411,6.6794e-05,124,2.1042e-05,-219.75,-0.00013965,-1427.1,0.0053248
384,1.4507,2.7346,0.05,3.5541e-06,35.516,2.7291e-06,20.505,-1.6337e-13,2.8335e-06,-2.7291e-06,-20.505,0.0029977
385,0.72534,2.5673,0,0.00012501,1249.3,4.3893e-05,-354.88,1.6445e-06,-672.31,-0.00013942,-1732.2,0.00075312
386,1.3141,1.3091,0.05,8.3223e-06,83.165,6.3905e-06,48.016,-2.3509e-13,-1.4778e-06,-6.3905e-06,-48.016,0.0022791
387,0.65707,1.2546,0,0.00011383,1137.5,3.7101e-05,-339.24,5.6929e-06,-575.22,-0.00012754,-1576.2,0.00057772
388,1.2371,0.65457,0,0.00012907,1289.8,6.6075e-05,265.69,2.4755e-05,-44.775,-0.00012248,-1151,0.0018294
389,6.2857,1.1216,0,8.1947e-05,818.9,2.8778e-05,3.2615,2.4369e-05,-29.864,-8.2349e-05,-831.7,0.062618
390,5.151,1.2454,0,9.7132e-05,970.65,3.887e-05,81.057,2.7724e-05,-2.6877,-9.5528e-05,-928.76,0.041564
391,5.6691,1.0412,0.05,2.6011e-06,25.993,1.9973e-06,15.007,-4.3701e-13,-8.1564e-07,-1.9973e-06,-15.007,0.050738
392,5.7886,0.52061,0,8.1882e-05,818.25,2.8617e-05,20.103,2.6152e-05,1.5789,-8.1497e-05,-807.26,0.052401
393,7.4895,1.2252,0,7.7461e-05,774.08,2.7089e-05,3.4088,2.3262e-05,-25.345,-7.7795e-05,-784.65,0.087556
394,6.8397,1.866,0,7.9861e-05,798.06,2.947e-05,2.1975,2.1135e-05,-60.426,-8.0667e-05,-825.32,0.074274
395,6.9024,1.202,0.05,9.2528e-07,9.2465,7.105e-07,5.3384,1.586e-12,-1.3779e-07,-7.105e-07,-5.3384,0.075115
396,6.9706,0.60098,0,8.1491e-05,814.35,2.8368e-05,10.455,2.5338e-05,-12.311,-8.1498e-05,-815.03,0.075953
397,8.6626,1.2361,0,6.8291e-05,682.44,2.3631e-05,1.1715,2.0774e-05,-20.293,-6.8591e-05,-691.75,0.11397
398,8.0499,1.8522,0,7.3082e-05,730.32,2.6053e-05,4.8956,2.1239e-05,-31.274,-7.3464e-05,-742.83,0.10031
399,8.0766,1.2485,0.05,1.3177e-06,13.168,1.0119e-06,7.6028,1.679e-13,1.5057e-06,-1.0119e-06,-7.6028,0.10053
400,8.1231,0.62425,0,7.3104e-05,730.53,2.509e-05,0.027268,2.2479e-05,-19.591,-7.3417e-05,-740.12,0.10103
401,9.8269,1.2207,0,5.8715e-05,586.75,1.9669e-05,-1.3456,1.8755e-05,-8.212,-5.8875e-05,-591.5,0.14202
402,9.2326,1.8247,0,6.3177e-05,631.33,2.1699e-05,-0.45564,1.9356e-05,-18.062,-6.3474e-05,-640.41,0.12783
403,9.2487,1.2236,0.05,7.9785e-07,7.973,6.1265e-07,4.6032,-1.2995e-22,3.5414e-07,-6.1265e-07,-4.6032,0.12786
404,9.2745,0.61182,0,6.348e-05,634.36,2.1097e-05,-2.6612,2.0453e-05,-7.5007,-6.3651e-05,-639.43,0.12799
405,10.979,1.2169,0,4.9941e-05,499.06,1.6495e-05,-0.5617,1.6405e-05,-1.2326,-4.9971e-05,-499.96,0.17135
406,10.397,1.8197,0,5.3997e-05,539.6,1.8053e-05,-0.6152,1.7367e-05,-5.7641,-5.4104e-05,-542.77,0.15666
407,10.405,1.2177,0.05,6.5132e-07,6.5087,5.0013e-07,3.7578,-8.8244e-16,9.4604e-07,-5.0013e-07,-3.7578,0.15656
408,10.418,0.60885,0,5.4451e-05,544.13,1.7994e-05,-0.26756,1.7902e-05,-0.95335,-5.4471e-05,-544.74,0.15645
409,12.122,1.232,0,4.1851e-05,418.22,1.409e-05,2.9413,1.3607e-05,-0.68604,-4.1811e-05,-417.08,0.20178
410,11.544,1.8194,0,4.5637e-05,456.06,1.5153e-05,0.67006,1.4965e-05,-0.74286,-4.5638e-05,-456.09,0.1865
411,11.552,1.2161,0.05,6.1472e-07,6.1429,4.7203e-07,3.5466,-1.5153e-15,1.4168e-06,-4.7203e-07,-3.5466,0.18646
412,11.557,0.60805,0,4.5889e-05,458.57,1.5425e-05,2.9422,1.4936e-05,-0.73152,-4.585e-05,-457.46,0.1862
413,13.26,1.2623,0,3.4478e-05,344.54,1.1866e-05,5.5069,1.1054e-05,-0.59779,-3.4391e-05,-342.05,0.23316
414,12.687,1.8456,0,3.7926e-05,379,1.2915e-05,4.2716,1.223e-05,-0.87014,-3.7865e-05,-377.27,0.21746
415,12.692,1.2478,0.05,5.6328e-07,5.6289,4.3253e-07,3.2499,-2.731e-15,9.4291e-07,-4.3253e-07,-3.2498,0.21737
416,12.692,0.62391,0,3.8067e-05,380.4,1.3024e-05,5.3358,1.2267e-05,-0.34938,-3.7979e-05,-377.88,0.21704
417,14.393,1.251,0,2.7838e-05,278.19,9.8012e-06,7.0401,8.7862e-06,-0.58557,-2.772e-05,-274.88,0.26522
418,13.825,1.8655,0,3.0927e-05,309.05,1.0799e-05,6.6517,9.8066e-06,-0.80858,-3.0821e-05,-306.07,0.24925
419,13.829,1.2767,0.05,5.1355e-07,5.132,3.9434e-07,2.9629,-1.7544e-15,1.3991e-06,-3.9434e-07,-2.9629,0.24916
420,13.826,0.63836,0,3.1023e-05,310.02,1.0864e-05,7.3228,9.844e-06,-0.3419,-3.0897e-05,-306.46,0.2488
421,15.521,1.2221,0,2.1917e-05,219.02,7.9118e-06,7.7967,6.7891e-06,-0.63857,-2.1783e-05,-215.32,0.29788
422,14.961,1.8304,0,2.4648e-05,246.31,8.8268e-06,7.8743,7.6744e-06,-0.78465,-2.4516e-05,-242.65,0.28174
423,14.956,1.2252,0.05,4.5107e-07,4.5076,3.4637e-07,2.6025,-1.6207e-15,1.5003e-06,-3.4637e-07,-2.6025,0.28145
424,14.955,0.61261,0,2.4747e-05,247.3,8.8905e-06,8.5164,7.7132e-06,-0.32956,-2.4596e-05,-243.09,0.28119
425,16.653,1.2083,0,1.6706e-05,166.94,6.2273e-06,8.2553,5.0467e-06,-0.61537,-1.6558e-05,-162.94,0.3312
426,16.089,1.8176,0,1.9084e-05,190.71,7.057e-06,8.6093,5.7881e-06,-0.9245,-1.8935e-05,-186.69,0.31467
427,16.086,1.2189,0.05,4.0561e-07,4.0533,3.1146e-07,2.3402,4.8086e-14,1.8816e-06,-3.1146e-07,-2.3402,0.31445
428,16.086,0.60944,0,1.9132e-05,191.18,7.0587e-06,8.8755,5.8533e-06,-0.18101,-1.8968e-05,-186.68,0.31424
429,17.785,1.2,0,1.2231e-05,122.23,4.7687e-06,8.5178,3.5572e-06,-0.58497,-1.2071e-05,-118.01,0.36491
430,17.221,1.8006,0,1.4265e-05,142.55,5.4935e-06,8.9778,4.1794e-06,-0.89557,-1.4102e-05,-138.25,0.34816
431,17.22,1.1977,0.05,3.4361e-07,3.4337,2.6385e-07,1.9825,5.8554e-14,1.9675e-06,-2.6385e-07,-1.9825,0.34804
432,17.218,0.59885,0,1.4275e-05,142.65,5.4747e-06,9.1121,4.2345e-06,-0.20608,-1.41e-05,-137.97,0.34783
433,18.909,1.2038,0,8.5155e-06,85.096,3.5522e-06,8.6842,2.3185e-06,-0.58486,-8.3397e-06,-80.667,0.3987
434,18.346,1.8116,0,1.0183e-05,101.76,4.1675e-06,9.2604,2.8118e-06,-0.92541,-1.0003e-05,-97.213,0.38183
435,18.349,1.2022,0.05,2.8426e-07,2.8406,2.1827e-07,1.64,1.2574e-13,2.3623e-06,-2.1827e-07,-1.64,0.38184
436,18.348,0.60111,0,1.0154e-05,101.47,4.1177e-06,9.2285,2.8717e-06,-0.13387,-9.9665e-06,-96.595,0.38169
437,20.031,1.196,0,5.543e-06,55.392,2.5586e-06,8.606,1.3344e-06,-0.59262,-5.3491e-06,-50.809,0.43263
438,19.467,1.8063,0,6.8616e-06,68.569,3.0757e-06,9.4168,1.7048e-06,-0.88409,-6.6581e-06,-63.72,0.41563
439,19.468,1.2054,0.05,2.3024e-07,2.3008,1.768e-07,1.3284,1.0308e-13,2.2205e-06,-1.768e-07,-1.3284,0.4156
440,19.473,0.6027,0,6.8042e-06,67.995,3.0226e-06,9.4313,1.7518e-06,-0.11666,-6.5952e-06,-62.833,0.41565
441,21.159,1.1888,0,3.2931e-06,32.908,1.7827e-06,8.3359,5.9288e-07,-0.60364,-3.0692e-06,-28.119,0.46688
442,20.595,1.7911,0,4.2716e-06,42.686,2.2056e-06,9.3571,8.3913e-07,-0.91042,-4.0342e-06,-37.526,0.44979
443,20.593,1.1865,0.05,1.7556e-07,1.7544,1.3481e-07,1.0129,1.4623e-13,2.3337e-06,-1.3481e-07,-1.0129,0.44969
444,20.601,0.59326,0,4.1805e-06,41.776,2.1233e-06,9.1354,8.9109e-07,-0.12318,-3.9494e-06,-36.493,0.44985
445,22.293,1.1921,0,1.7839e-06,17.826,1.228e-06,7.9241,9.2198e-08,-0.61013,-1.4989e-06,-12.565,0.50137
446,21.726,1.7864,0,2.4354e-06,24.337,1.5699e-06,9.2903,2.1338e-07,-0.90214,-2.1269e-06,-18.486,0.48416
447,21.725,1.1911,0.05,1.217e-07,1.2161,9.3448e-08,0.70213,1.9341e-13,2.8e-06,-9.3448e-08,-0.70213,0.48408
448,21.732,0.59557,0,2.2666e-06,22.651,1.4256e-06,8.5249,2.7031e-07,-0.15565,-1.9958e-06,-17.182,0.48425
449,22.861,1.7927,0,1.3828e-06,13.819,1.1585e-06,9.0586,-1.6928e-07,-0.91801,-9.4071e-07,-6.7143,0.5187
450,22.861,1.193,0.05,7.8639e-08,0.78585,6.0385e-08,0.45371,2.0004e-13,3.1246e-06,-6.0385e-08,-0.45371,0.51866
451,23.43,1.1965,0,1.0184e-06,10.177,8.8167e-07,7.1765,-1.5504e-07,-0.61294,-6.5094e-07,-4.3389,0.536
452,22.865,0.5965,0,1.0937e-06,10.93,9.1425e-07,7.3827,-8.9894e-08,-0.16203,-7.5396e-07,-5.1515,0.51875
453,1.0925,3.8663,0.05,3.2776e-06,32.753,2.5168e-06,18.91,1.8627e-14,1.0706e-06,-2.5168e-06,-18.91,0.0016698
454,0.54623,3.7331,0,0.00012622,1261.3,4.5209e-05,-326.77,3.1058e-06,-643.12,-0.0001397,-1716.1,0.00042294
455,22.859,2.9939,0,1.5628e-06,15.617,1.3395e-06,10.652,-2.4499e-07,-1.2531,-1.0139e-06,-7.0307,0.51866
456,22.294,2.387,0,2.0511e-06,20.497,1.5414e-06,10.733,-4.9258e-08,-1.2187,-1.6085e-06,-12.934,0.50147
457,22.861,2.3924,0.05,7.4965e-08,0.74913,5.7564e-08,0.43251,1.7902e-13,3.1969e-06,-5.7564e-08,-0.43251,0.51873
458,23.431,2.3962,0,1.3993e-06,13.984,1.2524e-06,10.42,-3.0523e-07,-1.2831,-8.0865e-07,-5.0656,0.53606
459,22.859,4.1949,0,1.3873e-06,13.863,1.162e-06,9.0758,-1.7065e-07,-0.93695,-9.4397e-07,-6.7473,0.51865
460,22.291,3.592,0,2.0547e-06,20.533,1.5433e-06,10.74,-4.8459e-08,-1.2196,-1.6122e-06,-12.969,0.50138
461,22.856,3.5955,0.05,7.5196e-08,0.75144,5.7741e-08,0.43384,1.6958e-13,2.747e-06,-5.7741e-08,-0.43384,0.51857
462,23.428,3.5977,0,1.4017e-06,14.007,1.2529e-06,10.404,-3.044e-07,-1.2972,-8.1279e-07,-5.117,0.53599
463,22.293,4.7944,0,1.786e-06,17.848,1.2317e-06,7.97,9.1129e-08,-0.59959,-1.4989e-06,-12.547,0.5014
464,22.861,4.7943,0.05,7.8581e-08,0.78527,6.0341e-08,0.45338,1.956e-13,3.2497e-06,-6.0341e-08,-0.45337,0.51872
465,22.865,5.3971,0,1.1e-06,10.992,9.1971e-07,7.4369,-8.9372e-08,-0.14487,-7.5812e-07,-5.1696,0.51881
466,23.431,4.7971,0,1.0224e-06,10.217,8.8366e-07,7.1804,-1.5382e-07,-0.61484,-6.5568e-07,-4.3856,0.53605
467,21.161,4.7952,0,3.2872e-06,32.849,1.7865e-06,8.4296,5.8829e-07,-0.57349,-3.0596e-06,-27.982,0.46699
468,21.725,4.1915,0,2.4376e-06,24.359,1.5725e-06,9.3298,2.1445e-07,-0.87379,-2.1277e-06,-18.472,0.48415
469,21.724,4.7945,0.05,1.1759e-07,1.1751,9.0296e-08,0.67845,1.964e-13,3.1332e-06,-9.0296e-08,-0.67844,0.48409
470,21.731,5.3972,0,2.2693e-06,22.678,1.4326e-06,8.6113,2.6694e-07,-0.14678,-1.9947e-06,-17.139,0.48428
471,20.039,4.8083,0,5.5248e-06,55.21,2.5549e-06,8.6352,1.3267e-06,-0.59337,-5.3298e-06,-50.607,0.43292
472,20.598,4.1954,0,4.2611e-06,42.582,2.207e-06,9.4313,8.3333e-07,-0.88964,-4.0209e-06,-37.362,0.44993
473,20.599,4.796,0.05,1.7351e-07,1.7339,1.3323e-07,1.0011,2.0033e-13,2.6969e-06,-1.3323e-07,-1.0011,0.44991
474,20.603,5.398,0,4.1586e-06,41.557,2.1171e-06,9.156,8.8365e-07,-0.11136,-3.9264e-06,-36.252,0.45
475,18.916,4.8276,0,8.4977e-06,84.918,3.5444e-06,8.6431,2.3121e-06,-0.61654,-8.3232e-06,-80.525,0.39896
476,19.475,4.2199,0,6.8436e-06,68.389,3.066e-06,9.3456,1.6989e-06,-0.9264,-6.6423e-06,-63.599,0.41589
477,19.479,4.8207,0.05,2.3033e-07,2.3017,1.7686e-07,1.3289,1.459e-13,2.4506e-06,-1.7686e-07,-1.3289,0.41596
478,19.478,5.4103,0,6.7881e-06,67.835,2.9999e-06,9.2044,1.7568e-06,-0.13563,-6.5854e-06,-62.816,0.41587
479,17.786,4.8201,0,1.2228e-05,122.2,4.7747e-06,8.6034,3.5517e-06,-0.58635,-1.2066e-05,-117.93,0.365
480,18.348,4.2264,0,1.0183e-05,101.76,4.1669e-06,9.2663,2.813e-06,-0.90587,-1.0002e-05,-97.196,0.38191
481,18.353,4.8346,0.05,2.8247e-07,2.8228,2.169e-07,1.6297,1.785e-13,2.4364e-06,-2.169e-07,-1.6297,0.382
482,18.35,5.4173,0,1.017e-05,101.63,4.1259e-06,9.2364,2.8732e-06,-0.17624,-9.9835e-06,-96.776,0.3818
483,16.655,4.8065,0,1.6699e-05,166.87,6.2306e-06,8.3325,5.042e-06,-0.59769,-1.6549e-05,-162.83,0.33128
484,17.222,4.2093,0,1.4258e-05,142.48,5.4961e-06,9.0696,4.177e-06,-0.84147,-1.4092e-05,-138.11,0.34823
485,17.22,4.8055,0.05,3.4178e-07,3.4154,2.6244e-07,1.9719,1.2387e-13,2.3775e-06,-2.6244e-07,-1.9719,0.34806
486,17.218,5.4028,0,1.4272e-05,142.62,5.4844e-06,9.2409,4.2266e-06,-0.20987,-1.4095e-05,-137.87,0.34787
487,15.524,4.8152,0,2.1899e-05,218.84,7.9041e-06,7.7671,6.7835e-06,-0.65239,-2.1766e-05,-215.16,0.29799
488,16.09,4.2112,0,1.908e-05,190.67,7.0494e-06,8.5461,5.7922e-06,-0.89947,-1.8933e-05,-186.67,0.31472
489,16.09,4.8075,0.05,3.997e-07,3.9943,3.0692e-07,2.3061,6.5639e-14,2.0175e-06,-3.0692e-07,-2.3061,0.31459
490,16.087,5.4038,0,1.9112e-05,190.99,7.0404e-06,8.7314,5.8539e-06,-0.18373,-1.8951e-05,-186.56,0.31435
491,14.391,4.8199,0,2.7851e-05,278.32,9.8006e-06,6.9163,8.7877e-06,-0.69392,-2.7737e-05,-275.13,0.26518
492,14.957,4.2246,0,2.4653e-05,246.36,8.8245e-06,7.7476,7.6708e-06,-0.92093,-2.4525e-05,-242.83,0.28166
493,14.958,4.8229,0.05,4.5054e-07,4.5023,3.4596e-07,2.5994,1.1696e-13,1.5428e-06,-3.4596e-07,-2.5994,0.28151
494,14.956,5.4114,0,2.4716e-05,246.99,8.8509e-06,8.185,7.7235e-06,-0.28592,-2.4571e-05,-242.93,0.28125
495,13.254,4.813,0,3.4559e-05,345.35,1.1884e-05,5.3791,1.1083e-05,-0.64045,-3.4475e-05,-342.95,0.23298
496,13.821,4.2237,0,3.0962e-05,309.41,1.0797e-05,6.4246,9.8212e-06,-0.90855,-3.0862e-05,-306.59,0.24912
497,13.823,4.8169,0.05,5.1649e-07,5.1614,3.966e-07,2.9799,-8.4125e-23,1.7005e-06,-3.966e-07,-2.9799,0.24901
498,13.823,5.4085,0,3.1066e-05,310.45,1.0875e-05,7.246,9.857e-06,-0.40273,-3.0943e-05,-306.96,0.24875
499,12.109,4.8037,0,4.2022e-05,419.93,1.4144e-05,2.8983,1.3665e-05,-0.70241,-4.1983e-05,-418.82,0.20145
500,12.68,4.2161,0,3.8027e-05,380.01,1.293e-05,4.1471,1.2283e-05,-0.71292,-3.7967e-05,-378.27,0.21729
501,12.685,4.809,0.05,5.71e-07,5.706,4.3846e-07,3.2944,1.1778e-13,1.2195e-06,-4.3846e-07,-3.2944,0.21717
502,12.689,5.4045,0,3.8178e-05,381.51,1.3095e-05,5.6913,1.2279e-05,-0.43623,-3.8084e-05,-378.85,0.21697
503,10.962,4.8016,0,5.0181e-05,501.46,1.6564e-05,-0.42945,1.6512e-05,-0.82235,-5.0202e-05,-502.08,0.17095
504,11.531,4.2081,0,4.5788e-05,457.57,1.5197e-05,0.55703,1.5014e-05,-0.8245,-4.5793e-05,-457.7,0.1862
505,11.534,4.7984,0.05,6.3258e-07,6.3214,4.8574e-07,3.6497,1.1489e-13,1.2021e-06,-4.8574e-07,-3.6497,0.186
506,11.548,5.3992,0,4.602e-05,459.88,1.5516e-05,3.5475,1.4954e-05,-0.67075,-4.597e-05,-458.43,0.186
507,9.8232,4.8064,0,5.8832e-05,587.91,1.961e-05,-0.85586,1.9006e-05,-5.3899,-5.8937e-05,-591.02,0.14196
508,10.383,4.2113,0,5.4228e-05,541.9,1.8094e-05,-0.48924,1.7514e-05,-4.8508,-5.4317e-05,-544.56,0.15632
509,10.39,4.8049,0.05,6.6517e-07,6.6472,5.1077e-07,3.8377,-1.746e-22,6.9322e-07,-5.1077e-07,-3.8377,0.15621
510,10.411,5.4024,0,5.4594e-05,545.57,1.8075e-05,0.22533,1.7937e-05,-0.81208,-5.4604e-05,-545.86,0.15631
511,8.7013,4.8243,0,6.7889e-05,678.42,2.2973e-05,-2.5759,2.1198e-05,-15.912,-6.8194e-05,-687.57,0.11488
512,9.2356,4.2102,0,6.3097e-05,630.53,2.1354e-05,-1.5003,1.978e-05,-13.331,-6.3341e-05,-637.86,0.12792
513,9.2561,4.8079,0.05,6.3967e-07,6.3923,4.9119e-07,3.6906,-1.0419e-22,1.311e-06,-4.9119e-07,-3.6906,0.12807
514,9.2782,5.404,0,6.3685e-05,636.41,2.1246e-05,-0.12613,2.0616e-05,-4.8602,-6.3768e-05,-638.89,0.12813
515,8.1141,4.2437,0,7.2675e-05,726.25,2.5376e-05,-1.0613,2.1496e-05,-30.215,-7.3163e-05,-741.45,0.10175
516,7.5787,4.8828,0,7.7342e-05,772.89,2.747e-05,9.6334,2.3073e-05,-23.404,-7.7523e-05,-779.24,0.089471
517,8.1465,4.8406,0.05,8.2373e-07,8.2316,6.3252e-07,4.7525,5.3088e-15,1.5235e-07,-6.3252e-07,-4.7525,0.1021
518,8.1581,5.4203,0,7.2892e-05,728.42,2.4529e-05,-6.0293,2.2694e-05,-19.811,-7.3322e-05,-741.24,0.10185
519,5.8602,4.5575,0,8.367e-05,836.12,2.8945e-05,-15.955,2.3844e-05,-54.286,-8.4799e-05,-870.58,0.054778
520,6.4743,3.9348,0,8.5154e-05,850.95,2.86e-05,-20.783,2.5335e-05,-45.32,-8.6252e-05,-883.74,0.067021
521,5.9505,4.0714,0.05,1.6369e-06,16.358,1.257e-06,9.4443,-1.4271e-13,-9.2596e-07,-1.257e-06,-9.4443,0.056762
522,5.2436,4.8428,0,9.771e-05,976.42,4.0455e-05,92.958,2.6516e-05,-11.772,-9.5906e-05,-931.61,0.043256
523,6.3904,4.9843,0,8.0879e-05,808.23,3.02e-05,16.836,2.2158e-05,-43.592,-8.1164e-05,-819.91,0.064674
524,5.7699,5.0436,0.05,2.0502e-06,20.488,1.5743e-06,11.829,-3.3393e-22,5.9124e-07,-1.5743e-06,-11.829,0.052663
525,5.839,5.5218,0,7.9104e-05,790.49,2.6718e-05,3.9128,2.5423e-05,-5.8183,-7.9132e-05,-791.4,0.05346
526,6.8876,3.1641,0,8.0278e-05,802.22,3.0217e-05,2.1523,2.0167e-05,-73.358,-8.1222e-05,-835.16,0.075562
527,7.5398,3.7225,0,7.7575e-05,775.22,2.7922e-05,2.5183,2.1822e-05,-43.316,-7.8168e-05,-794.6,0.089255
528,7.0045,4.3616,0,8.2239e-05,821.82,3.0014e-05,13.201,2.3395e-05,-36.53,-8.2523e-05,-832.36,0.077606
529,6.9981,3.7982,0.05,1.897e-06,18.957,1.4567e-06,10.945,9.1996e-13,1.0962e-07,-1.4567e-06,-10.945,0.077724
530,7.4001,2.493,0,7.5534e-05,754.82,2.8395e-05,3.3973,1.9173e-05,-65.899,-7.6358e-05,-783.68,0.086275
531,6.7771,2.5301,0.05,9.5971e-07,9.5905,7.3694e-07,5.5371,2.3078e-13,-4.476e-07,-7.3694e-07,-5.5371,0.073219
532,8.6198,2.4409,0,6.7985e-05,679.38,2.4133e-05,3.36,1.9826e-05,-29.003,-6.8364e-05,-691.63,0.11355
533,8.0524,3.0514,0,7.284e-05,727.89,2.6103e-05,3.7777,2.0826e-05,-35.865,-7.3304e-05,-743.13,0.10066
534,8.0232,2.456,0.05,1.1344e-06,11.336,8.711e-07,6.5451,-2.1546e-13,8.8858e-08,-8.711e-07,-6.5451,0.099923
535,9.8023,2.4238,0,5.8481e-05,584.4,2.0081e-05,0.26713,1.7989e-05,-15.454,-5.8723e-05,-591.84,0.14194
536,9.2158,3.0192,0,6.3038e-05,629.95,2.1792e-05,-0.3778,1.9078e-05,-20.772,-6.3373e-05,-640.27,0.12771
537,9.2165,2.4258,0.05,8.5453e-07,8.5394,6.5618e-07,4.9302,-4.4921e-13,1.2171e-06,-6.5617e-07,-4.9302,0.12764
538,10.381,3.0198,0,5.3953e-05,539.16,1.8128e-05,-0.49142,1.7211e-05,-7.3776,-5.4084e-05,-543.06,0.15653
539,10.961,2.4222,0,4.9732e-05,496.98,1.6543e-05,-0.64943,1.6131e-05,-3.7453,-4.9806e-05,-499.17,0.17137
540,10.388,2.4218,0.05,6.6061e-07,6.6016,5.0727e-07,3.8114,-2.2796e-13,2.3253e-07,-5.0727e-07,-3.8114,0.15663
541,13.252,2.4488,0,3.4435e-05,344.12,1.1903e-05,5.8267,1.0983e-05,-1.0855,-3.435e-05,-341.69,0.23325
542,12.679,3.0332,0,3.7938e-05,379.12,1.2919e-05,4.2109,1.2229e-05,-0.9686,-3.788e-05,-377.47,0.21743
543,12.108,2.433,0,4.1764e-05,417.35,1.4023e-05,2.3427,1.3589e-05,-0.91975,-4.1739e-05,-416.63,0.20181
544,12.682,2.4434,0.05,5.6584e-07,5.6545,4.345e-07,3.2647,-2.595e-16,1.4289e-06,-4.345e-07,-3.2646,0.21746
545,14.393,2.4449,0,2.7802e-05,277.82,9.8827e-06,7.9183,8.6942e-06,-1.0117,-2.7673e-05,-274.26,0.26553
546,13.82,3.0423,0,3.0931e-05,309.1,1.083e-05,6.8307,9.7748e-06,-1.0969,-3.0826e-05,-306.16,0.24924
547,13.822,2.4542,0.05,5.3024e-07,5.2987,4.0716e-07,3.0592,-2.022e-15,1.1758e-06,-4.0716e-07,-3.0592,0.24925
548,15.529,2.4259,0,2.1882e-05,218.67,8.0318e-06,9.1356,6.6728e-06,-1.0754,-2.1727e-05,-214.46,0.29834
549,14.961,3.0309,0,2.4637e-05,246.2,8.8757e-06,8.3572,7.6244e-06,-1.0448,-2.4499e-05,-242.41,0.28189
550,14.965,2.4356,0.05,4.535e-07,4.5319,3.4823e-07,2.6165,-4.316e-15,1.4038e-06,-3.4823e-07,-2.6165,0.28197
551,16.657,2.4099,0,1.6715e-05,167.03,6.3859e-06,9.8031,4.9202e-06,-1.2098,-1.6541e-05,-162.46,0.33149
552,16.091,3.0156,0,1.9082e-05,190.69,7.1276e-06,9.3183,5.7284e-06,-1.1943,-1.8922e-05,-186.41,0.31485
553,16.092,2.4163,0.05,3.981e-07,3.9783,3.0569e-07,2.2968,1.6708e-13,1.8652e-06,-3.0569e-07,-2.2968,0.31484
554,17.782,2.4122,0,1.2288e-05,122.8,4.955e-06,10.192,3.4334e-06,-1.2414,-1.2096e-05,-117.92,0.36497
555,17.223,3.0082,0,1.4278e-05,142.68,5.5771e-06,9.797,4.1194e-06,-1.1558,-1.4099e-05,-138.04,0.34831
556,17.221,2.4034,0.05,3.4394e-07,3.437,2.641e-07,1.9844,5.2173e-14,1.8904e-06,-2.641e-07,-1.9844,0.34823
557,18.904,2.4141,0,8.5999e-06,85.94,3.7531e-06,10.46,2.1973e-06,-1.2306,-8.383e-06,-80.727,0.39868
558,18.342,3.0196,0,1.0226e-05,102.19,4.268e-06,10.141,2.7526e-06,-1.2452,-1.0027e-05,-97.268,0.38179
559,18.342,2.421,0.05,2.8477e-07,2.8458,2.1867e-07,1.643,2.22e-13,2.1738e-06,-2.1867e-07,-1.643,0.38177
560,20.031,2.4015,0,5.6547e-06,56.508,2.7815e-06,10.609,1.2088e-06,-1.2076,-5.4013e-06,-50.873,0.43274
561,19.468,3.0132,0,6.9087e-06,69.039,3.1775e-06,10.317,1.6445e-06,-1.2014,-6.6811e-06,-63.757,0.41573
562,19.466,2.4072,0.05,2.3179e-07,2.3163,1.7799e-07,1.3373,1.0606e-13,1.8717e-06,-1.7799e-07,-1.3373,0.41564
563,21.162,2.3887,0,3.4628e-06,34.604,2.0454e-06,10.706,4.5884e-07,-1.2149,-3.1436e-06,-28.282,0.46703
564,20.597,2.9953,0,4.3412e-06,43.382,2.3312e-06,10.503,7.6992e-07,-1.228,-4.0627e-06,-37.539,0.4499
565,20.596,2.3958,0.05,1.7648e-07,1.7636,1.3552e-07,1.0182,5.2489e-14,1.8707e-06,-1.3552e-07,-1.0182,0.44986
566,21.727,2.9851,0,2.5549e-06,25.532,1.7181e-06,10.617,1.4871e-07,-1.1745,-2.181e-06,-18.679,0.48421
567,21.727,2.3816,0.05,1.211e-07,1.2102,9.299e-08,0.69869,1.222e-13,2.4355e-06,-9.299e-08,-0.69869,0.48422
568,21.162,3.5917,0,3.4615e-06,34.591,2.046e-06,10.731,4.5873e-07,-1.1956,-3.1413e-06,-28.245,0.46705
569,21.726,3.5886,0.05,1.2004e-07,1.1995,9.2173e-08,0.69255,1.3155e-13,2.5935e-06,-9.2173e-08,-0.69255,0.48419
570,20.034,3.6069,0,5.6454e-06,56.415,2.7779e-06,10.592,1.2048e-06,-1.2287,-5.3924e-06,-50.797,0.43284
571,20.598,3.5948,0.05,1.7656e-07,1.7644,1.3557e-07,1.0187,1.2104e-13,2.3457e-06,-1.3557e-07,-1.0187,0.44992
572,18.906,3.6186,0,8.5978e-06,85.919,3.7495e-06,10.427,2.1991e-06,-1.2217,-8.3817e-06,-80.722,0.39876
573,19.471,3.6191,0.05,2.3012e-07,2.2996,1.7671e-07,1.3277,1.2286e-13,2.5335e-06,-1.767e-07,-1.3277,0.41579
574,17.783,3.6156,0,1.2282e-05,122.74,4.9496e-06,10.193,3.4377e-06,-1.1658,-1.2089e-05,-117.83,0.36503
575,18.342,3.6182,0.05,2.849e-07,2.8471,2.1877e-07,1.6438,6.1602e-14,2.2645e-06,-2.1877e-07,-1.6438,0.38178
576,16.657,3.6139,0,1.671e-05,166.99,6.3773e-06,9.752,4.9266e-06,-1.1476,-1.6537e-05,-162.42,0.33152
577,17.224,3.613,0.05,3.4703e-07,3.4679,2.6648e-07,2.0022,7.8588e-15,1.992e-06,-2.6648e-07,-2.0022,0.34835
578,15.524,3.6205,0,2.1902e-05,218.87,8.0301e-06,8.9795,6.679e-06,-1.1719,-2.1751e-05,-214.79,0.2982
579,16.091,3.6148,0.05,4.0151e-07,4.0123,3.0831e-07,2.3165,1.7554e-13,1.9393e-06,-3.0831e-07,-2.3165,0.3148
580,14.387,3.6283,0,2.7828e-05,278.08,9.8779e-06,7.6823,8.7039e-06,-1.1386,-2.7706e-05,-274.71,0.26536
581,14.957,3.6262,0.05,4.5162e-07,4.5131,3.4679e-07,2.6056,1.1735e-13,1.8168e-06,-3.4679e-07,-2.6056,0.28174
582,13.247,3.6268,0,3.4489e-05,344.65,1.1895e-05,5.5871,1.1021e-05,-0.9852,-3.4406e-05,-342.3,0.23312
583,13.818,3.6304,0.05,5.2183e-07,5.2147,4.007e-07,3.0107,1.1665e-13,1.2304e-06,-4.007e-07,-3.0107,0.24915
584,12.103,3.6204,0,4.1847e-05,418.18,1.4029e-05,2.1495,1.3634e-05,-0.82278,-4.1823e-05,-417.51,0.20166
585,12.676,3.6231,0.05,5.7498e-07,5.7459,4.4152e-07,3.3174,8.2778e-17,9.5436e-07,-4.4152e-07,-3.3174,0.2173
586,10.952,3.6178,0,4.9882e-05,498.48,1.6582e-05,-0.59448,1.6202e-05,-3.4459,-4.995e-05,-500.49,0.17113
587,11.532,3.0202,0,4.5625e-05,455.94,1.509e-05,-0.046875,1.4994e-05,-0.76812,-4.5639e-05,-456.34,0.18642
588,11.529,3.6177,0.05,6.3314e-07,6.327,4.8617e-07,3.6529,1.9015e-15,1.2084e-06,-4.8617e-07,-3.6529,0.18629
589,9.7949,3.6152,0,5.853e-05,584.9,1.9838e-05,-1.1372,1.8321e-05,-12.538,-5.8755e-05,-591.65,0.14177
590,10.375,3.6178,0.05,6.5302e-07,6.5257,5.0144e-07,3.7676,6.9769e-15,5.139e-07,-5.0144e-07,-3.7676,0.1563
591,8.6483,3.6296,0,6.7901e-05,678.55,2.3764e-05,0.062957,2.0088e-05,-27.56,-6.8327e-05,-691.87,0.11421
592,9.215,3.6125,0.05,6.707e-07,6.7024,5.1501e-07,3.8696,-8.1736e-15,2.5647e-07,-5.1501e-07,-3.8696,0.12762
593,8.0816,3.6467,0.05,1.2417e-06,12.408,9.5344e-07,7.1638,-8.829e-14,-4.7612e-07,-9.5344e-07,-7.1638,0.10123
594,11.535,2.4227,0.05,6.0269e-07,6.0228,4.6279e-07,3.4772,-1.0447e-15,9.4767e-07,-4.6279e-07,-3.4772,0.18643
595,4.5341,4.8455,0,9.2224e-05,921.6,4.3311e-05,166.28,2.3073e-05,14.226,-8.8207e-05,-821.89,0.031064
596,4.351,5.0491,0.05,2.9046e-06,29.026,2.2304e-06,16.758,6.7375e-14,-3.5547e-15,-2.2304e-06,-16.758,0.02775
597,3.9988,5.0245,0,9.6281e-05,962.14,5.0956e-05,219.19,1.7196e-05,-34.47,-9.0595e-05,-844.37,0.022125
598,4.7172,4.642,0.05,1.5082e-05,150.71,1.1581e-05,87.015,-1.1836e-13,-1.464e-05,-1.1581e-05,-87.015,0.034308
599,4.1819,4.571,0,0.00012326,1231.7,6.0919e-05,250.69,2.7753e-05,1.4891,-0.00011706,-1086.6,0.02575
600,2.6575,1.1582,0.05,3.7599e-06,37.573,2.8872e-06,21.693,7.4669e-14,6.2637e-06,-2.8872e-06,-21.693,0.0088559
601,3.0687,1.0791,0,0.00012166,1215.7,5.0931e-05,93.085,2.9771e-05,-65.901,-0.00012041,-1194.3,0.011509
602,2.6391,2.7766,0,0.00016061,1605,5.8546e-05,-60.923,3.7563e-05,-218.57,-0.00016478,-1738.9,0.0099719
603,2.4456,2.4013,0.05,5.4755e-06,54.717,4.2045e-06,31.591,-2.1912e-13,9.9248e-06,-4.2045e-06,-31.591,0.0084268
604,2.9628,2.2006,0,0.00026993,2697.5,8.5921e-05,-242.9,7.2063e-05,-347.03,-0.00027982,-2990.9,0.012276
605,4.4993,1.2252,0,8.9257e-05,891.96,4.0446e-05,148.66,2.3928e-05,24.556,-8.566e-05,-798.85,0.030426
606,4.3658,1.0009,0.05,8.6792e-07,8.6732,6.6645e-07,5.0075,2.4932e-14,3.066e-06,-6.6645e-07,-5.0075,0.027887
607,4.0062,1.0004,0,9.2311e-05,922.48,4.6348e-05,173.02,1.7807e-05,-41.424,-8.8183e-05,-837.79,0.022077
608,4.6711,1.7499,0,0.00011661,1165.3,4.5436e-05,35.676,2.9605e-05,-83.269,-0.00011696,-1184.5,0.033827
609,4.6328,1.4495,0.05,1.3957e-05,139.47,1.0717e-05,80.523,3.2559e-13,2.4289e-05,-1.0717e-05,-80.523,0.032878
610,4.1397,1.4748,0,0.000129,1289.1,6.0442e-05,216.93,3.0986e-05,-4.3905,-0.00012395,-1168.6,0.024999
611,4.7439,2.4023,0,0.00013585,1357.6,4.9617e-05,-57.15,3.1055e-05,-196.62,-0.00013963,-1479.1,0.035454
612,4.7094,2.0503,0.05,7.0471e-06,70.422,5.4113e-06,40.658,1.7397e-12,2.2175e-05,-5.4113e-06,-40.658,0.034687
613,4.178,2.0252,0,0.00023043,2302.7,6.9714e-05,-238.08,6.4935e-05,-273.99,-0.00023912,-2558.5,0.026313
614,4.1528,3.1184,0,0.00017895,1788.3,7.0163e-05,208.65,5.9262e-05,126.75,-0.0001731,-1619.1,0.026596
615,4.2324,3.4404,0.05,4.7046e-06,47.013,3.6125e-06,27.143,-1.0767e-12,-9.6202e-06,-3.6125e-06,-27.143,0.027626
616,3.9395,3.7202,0,0.00023614,2359.8,8.4595e-05,-12.698,6.522e-05,-158.27,-0.00023871,-2441.9,0.023288
617,3.1053,3.0191,0,0.00020065,2005.2,7.8261e-05,139.96,5.8319e-05,-9.8833,-0.00019802,-1935.9,0.014053
618,2.6209,3.4148,0,0.00015748,1573.7,5.5113e-05,-49.677,4.1915e-05,-148.84,-0.00016062,-1670.6,0.0098513
619,2.8326,3.1519,0.05,1.6748e-05,167.36,1.286e-05,96.627,-6.6782e-13,-5.7555e-06,-1.286e-05,-96.627,0.011583
620,3.1563,3.5759,0,0.00033566,3354.3,0.00011451,-300.29,7.6179e-05,-588.31,-0.00034985,-3789.3,0.01432
621,3.7256,2.8414,0,0.0002078,2076.5,8.8983e-05,288.07,5.9701e-05,68.06,-0.00020086,-1889.7,0.020896
622,3.3779,2.8864,0.05,9.2413e-06,92.349,7.0962e-06,53.318,3.7487e-14,2.7832e-06,-7.0962e-06,-53.318,0.016834
623,3.429,2.4432,0,0.0003043,3040.9,0.00010703,-31.577,8.6117e-05,-188.68,-0.00030774,-3148,0.017075
624,5.0951,2.7452,0,0.00012746,1273.7,5.1532e-05,-14.823,2.3568e-05,-224.93,-0.00013023,-1380.5,0.041437
625,4.4258,2.7754,0,0.00016982,1697,5.9936e-05,41.106,5.3173e-05,-9.7105,-0.00016922,-1680.7,0.030561
626,4.7783,2.7543,0.05,8.3953e-06,83.895,6.4465e-06,48.437,-3.5648e-13,-2.4262e-06,-6.4465e-06,-48.437,0.036113
627,5.4119,2.7361,0.05,9.1124e-06,91.061,6.9972e-06,52.574,-3.7898e-13,3.2493e-06,-6.9972e-06,-52.574,0.04698
628,4.0733,2.7964,0.05,5.0531e-06,50.497,3.8802e-06,29.154,1.3869e-13,1.706e-05,-3.8802e-06,-29.154,0.025434
629,3.86,2.3982,0,0.00026105,2608.7,8.8997e-05,-72.463,7.4563e-05,-180.92,-0.00026519,-2733.7,0.022263
630,7.0109,4.9249,0.05,1.0828e-06,10.821,8.3149e-07,6.2475,-1.37e-14,-4.6521e-08,-8.3149e-07,-6.2475,0.077331
631,7.0249,5.4625,0,8.2982e-05,829.24,2.9961e-05,20.979,2.4897e-05,-17.069,-8.285e-05,-826.63,0.077106
632,2.4093,3.6778,0.05,2.6383e-06,26.365,2.0259e-06,15.222,7.3324e-13,2.7449e-06,-2.0259e-06,-15.222,0.008216
633,2.9446,4.0889,0,0.00018168,1815.6,6.1068e-05,-157.13,4.3392e-05,-289.94,-0.00018893,-2035.5,0.011934
634,2.6209,3.4148,0.1,0.00015748,1573.7,0.00016062,1670.6,-4.1915e-05,148.84,-5.5113e-05,49.677,0.0098513
635,1.93,3.2062,0.1,0.0001412,1411,0.00013965,1427.1,-2.1042e-05,219.75,-6.6794e-05,-124,0.0053248
636,2.3099,4.0238,0.1,0.00012947,1293.8,0.00013309,1401.3,-3.6284e-05,128.66,-4.1781e-05,87.366,0.0074284
637,2.9446,4.0889,0.1,0.00018168,1815.6,0.00018893,2035.5,-4.3392e-05,289.94,-6.1068e-05,157.13,0.011934
638,7.0045,4.3616,0.1,8.2239e-05,821.82,8.2523e-05,832.36,-2.3395e-05,36.53,-3.0014e-05,-13.201,0.077606
639,6.3904,4.9843,0.1,8.0879e-05,808.23,8.1164e-05,819.91,-2.2158e-05,43.592,-3.02e-05,-16.836,0.064674
640,7.5787,4.8828,0.1,7.7342e-05,772.89,7.7523e-05,779.24,-2.3073e-05,23.404,-2.747e-05,-9.6334,0.089471
641,7.0249,5.4625,0.1,8.2982e-05,829.24,8.285e-05,826.63,-2.4897e-05,17.069,-2.9961e-05,-20.979,0.077106
642,4.4258,2.7754,0.1,0.00016982,1697,0.00016922,1680.7,-5.3173e-05,9.7105,-5.9936e-05,-41.106,0.030561
643,3.7256,2.8414,0.1,0.0002078,2076.5,0.00020086,1889.7,-5.9701e-05,-68.059,-8.8983e-05,-288.07,0.020896
644,4.1528,3.1184,0.1,0.00017895,1788.3,0.0001731,1619.1,-5.9262e-05,-126.75,-7.0163e-05,-208.65,0.026596
645,3.86,2.3982,0.1,0.00026105,2608.7,0.00026519,2733.7,-7.4563e-05,180.92,-8.8997e-05,72.463,0.022263
646,5.0951,2.7452,0.1,0.00012746,1273.7,0.00013023,1380.5,-2.3568e-05,224.93,-5.1532e-05,14.823,0.041437
647,5.54,2.385,0.1,0.00010168,1016.1,0.00010386,1093.9,-2.1242e-05,153.91,-3.9627e-05,15.777,0.049233
648,5.6201,2.9913,0.1,0.00010089,1008.2,0.00010336,1101.1,-1.8295e-05,187.07,-4.0566e-05,19.73,0.050795
649,4.7439,2.4023,0.1,0.00013585,1357.6,0.00013963,1479.1,-3.1055e-05,196.62,-4.9617e-05,57.15,0.035454
650,4.8768,3.1744,0.1,0.00014193,1418.3,0.00014427,1505.2,-3.0782e-05,189.94,-5.5726e-05,2.5142,0.037756
651,3.1053,3.0191,0.1,0.00020065,2005.2,0.00019802,1935.9,-5.8319e-05,9.8833,-7.8261e-05,-139.96,0.014053
652,3.5042,3.1915,0.1,0.0002328,2326.4,0.00022021,2027.4,-5.301e-05,-25.529,-0.00011609,-499.47,0.018251
653,3.429,2.4432,0.1,0.0003043,3040.9,0.00030774,3148,-8.6117e-05,188.68,-0.00010703,31.577,0.017075
654,2.6391,2.7766,0.1,0.00016061,1605,0.00016478,1738.9,-3.7563e-05,218.57,-5.8546e-05,60.923,0.0099719
655,3.1563,3.5759,0.1,0.00033566,3354.3,0.00034985,3789.3,-7.6179e-05,588.31,-0.00011451,300.29,0.01432
656,3.9315,3.4685,0.1,0.0002053,2051.6,0.00019436,1771.1,-5.3261e-05,-89.401,-9.8483e-05,-429.18,0.023425
657,4.6038,3.5175,0.1,0.00015408,1539.7,0.00015163,1469.8,-4.8753e-05,-35.801,-5.7553e-05,-101.92,0.033245
658,3.9395,3.7202,0.1,0.00023614,2359.8,0.00023871,2441.9,-6.522e-05,158.27,-8.4595e-05,12.698,0.023288
659,4.6711,1.7499,0.1,0.00011661,1165.3,0.00011696,1184.5,-2.9605e-05,83.269,-4.5436e-05,-35.676,0.033827
660,5.1888,2.0421,0.1,0.00011028,1102.1,0.00011324,1192.3,-2.8445e-05,127.74,-3.7971e-05,56.162,0.042836
661,4.178,2.0252,0.1,0.00023043,2302.7,0.00023912,2558.5,-6.4935e-05,273.99,-6.9714e-05,238.08,0.026313
662,4.4993,1.2252,0.1,8.9257e-05,891.96,8.566e-05,798.85,-2.3928e-05,-24.556,-4.0446e-05,-148.66,0.030426
663,5.151,1.2454,0.1,9.7133e-05,970.65,9.5528e-05,928.76,-2.7724e-05,2.6877,-3.887e-05,-81.057,0.041564
664,4.1397,1.4748,0.1,0.000129,1289.1,0.00012395,1168.6,-3.0986e-05,4.3905,-6.0442e-05,-216.93,0.024999
665,4.5193,0.78095,0.1,7.6685e-05,766.32,7.3089e-05,671.68,-2.0988e-05,-35.182,-3.5302e-05,-142.73,0.030126
666,4.0062,1.0004,0.1,9.2311e-05,922.48,8.8183e-05,837.79,-1.7807e-05,41.424,-4.6348e-05,-173.02,0.022077
667,1.9481,2.568,0.1,0.00014781,1477.1,0.00014597,1511.6,-1.6533e-05,290.67,-7.2544e-05,-130.17,0.0053979
668,2.4311,2.0822,0.1,0.0001403,1402,0.00014303,1492.7,-3.3388e-05,167.15,-5.2318e-05,24.918,0.0081812
669,2.9628,2.2006,0.1,0.00026993,2697.5,0.00027982,2990.9,-7.2063e-05,347.03,-8.5921e-05,242.9,0.012276
670,2.5371,1.4607,0.1,0.00010913,1090.5,0.00010842,1074.5,-3.0837e-05,28.146,-4.1957e-05,-55.406,0.008432
671,2.4993,0.93664,0.1,0.00010477,1047,0.00010321,1006.8,-2.9763e-05,7.6708,-4.1729e-05,-82.233,0.007644
672,3.0687,1.0791,0.1,0.00012166,1215.7,0.00012041,1194.3,-2.9771e-05,65.901,-5.0931e-05,-93.085,0.011509
673,4.5341,4.8455,0.1,9.2224e-05,921.6,8.8207e-05,821.89,-2.3073e-05,-14.226,-4.3311e-05,-166.28,0.031064
674,5.2436,4.8428,0.1,9.771e-05,976.42,9.5906e-05,931.61,-2.6516e-05,11.772,-4.0455e-05,-92.958,0.043256
675,4.8098,4.3988,0.1,0.00011537,1152.9,0.00011539,1163.6,-2.8964e-05,78.969,-4.5755e-05,-47.191,0.036099
676,4.1819,4.571,0.1,0.00012326,1231.7,0.00011706,1086.6,-2.7753e-05,-1.4891,-6.0919e-05,-250.69,0.02575
677,4.4385,5.262,0.1,7.805e-05,779.96,7.4148e-05,676.89,-2.1447e-05,-41.37,-3.6276e-05,-152.79,0.028904
678,3.9988,5.0245,0.1,9.6281e-05,962.14,9.0595e-05,844.37,-1.7196e-05,34.47,-5.0956e-05,-219.19,0.022125
679,11.532,3.0202,0.1,4.5625e-05,455.94,4.5639e-05,456.34,-1.4994e-05,0.76812,-1.509e-05,0.046877,0.18642
680,12.108,2.433,0.1,4.1764e-05,417.35,4.1739e-05,416.63,-1.3589e-05,0.91975,-1.4023e-05,-2.3427,0.20181
681,10.961,2.4222,0.1,4.9732e-05,496.98,4.9806e-05,499.17,-1.6131e-05,3.7453,-1.6543e-05,0.64943,0.17137
682,11.544,1.8194,0.1,4.5637e-05,456.06,4.5638e-05,456.09,-1.4965e-05,0.74286,-1.5153e-05,-0.67006,0.1865
683,8.6483,3.6296,0.1,6.7901e-05,678.55,6.8327e-05,691.87,-2.0088e-05,27.56,-2.3764e-05,-0.062958,0.11421
684,8.0524,3.0514,0.1,7.284e-05,727.89,7.3304e-05,743.13,-2.0826e-05,35.865,-2.6103e-05,-3.7777,0.10066
685,7.5398,3.7225,0.1,7.7575e-05,775.22,7.8168e-05,794.6,-2.1822e-05,43.316,-2.7922e-05,-2.5183,0.089255
686,8.1141,4.2437,0.1,7.2675e-05,726.25,7.3163e-05,741.45,-2.1496e-05,30.215,-2.5376e-05,1.0613,0.10175
687,9.7949,3.6152,0.1,5.853e-05,584.9,5.8755e-05,591.65,-1.8321e-05,12.538,-1.9838e-05,1.1372,0.14177
688,9.2158,3.0192,0.1,6.3038e-05,629.95,6.3373e-05,640.27,-1.9078e-05,20.772,-2.1792e-05,0.3778,0.12771
689,9.2356,4.2102,0.1,6.3097e-05,630.53,6.3341e-05,637.86,-1.978e-05,13.331,-2.1354e-05,1.5003,0.12792
690,10.952,3.6178,0.1,4.9882e-05,498.48,4.995e-05,500.49,-1.6202e-05,3.4459,-1.6582e-05,0.59448,0.17113
691,10.381,3.0198,0.1,5.3953e-05,539.16,5.4084e-05,543.06,-1.7211e-05,7.3776,-1.8128e-05,0.49142,0.15653
692,10.383,4.2113,0.1,5.4228e-05,541.9,5.4317e-05,544.56,-1.7514e-05,4.8508,-1.8094e-05,0.48924,0.15632
693,12.103,3.6204,0.1,4.1847e-05,418.18,4.1823e-05,417.51,-1.3634e-05,0.82278,-1.4029e-05,-2.1495,0.20166
694,11.531,4.2081,0.1,4.5788e-05,457.57,4.5793e-05,457.7,-1.5014e-05,0.8245,-1.5197e-05,-0.55703,0.1862
695,13.247,3.6268,0.1,3.4489e-05,344.65,3.4406e-05,342.3,-1.1021e-05,0.9852,-1.1895e-05,-5.5871,0.23312
696,12.679,3.0332,0.1,3.7938e-05,379.12,3.788e-05,377.47,-1.2229e-05,0.9686,-1.2919e-05,-4.2109,0.21743
697,12.68,4.2161,0.1,3.8027e-05,380.01,3.7967e-05,378.27,-1.2283e-05,0.71292,-1.293e-05,-4.1471,0.21729
698,14.387,3.6283,0.1,2.7828e-05,278.08,2.7706e-05,274.71,-8.7039e-06,1.1386,-9.8779e-06,-7.6823,0.26536
699,13.82,3.0423,0.1,3.0931e-05,309.1,3.0826e-05,306.16,-9.7748e-06,1.0969,-1.083e-05,-6.8307,0.24924
700,13.821,4.2237,0.1,3.0962e-05,309.41,3.0862e-05,306.59,-9.8212e-06,0.90855,-1.0797e-05,-6.4246,0.24912
701,15.524,3.6205,0.1,2.1902e-05,218.87,2.1751e-05,214.79,-6.679e-06,1.1719,-8.0301e-06,-8.9795,0.2982
702,14.961,3.0309,0.1,2.4637e-05,246.2,2.4499e-05,242.41,-7.6244e-06,1.0448,-8.8757e-06,-8.3572,0.28189
703,14.957,4.2246,0.1,2.4653e-05,246.36,2.4525e-05,242.83,-7.6708e-06,0.92093,-8.8245e-06,-7.7475,0.28166
704,16.657,3.6139,0.1,1.671e-05,166.99,1.6537e-05,162.42,-4.9266e-06,1.1476,-6.3773e-06,-9.752,0.33152
705,16.091,3.0156,0.1,1.9082e-05,190.69,1.8922e-05,186.41,-5.7284e-06,1.1943,-7.1276e-06,-9.3183,0.31485
706,16.09,4.2112,0.1,1.908e-05,190.67,1.8933e-05,186.67,-5.7922e-06,0.89947,-7.0494e-06,-8.5461,0.31472
707,17.783,3.6156,0.1,1.2282e-05,122.74,1.2089e-05,117.83,-3.4377e-06,1.1658,-4.9496e-06,-10.193,0.36503
708,17.223,3.0082,0.1,1.4278e-05,142.68,1.4099e-05,138.04,-4.1194e-06,1.1558,-5.5771e-06,-9.797,0.34831
709,17.222,4.2093,0.1,1.4258e-05,142.48,1.4092e-05,138.11,-4.177e-06,0.84147,-5.4961e-06,-9.0696,0.34823
710,18.906,3.6186,0.1,8.5978e-06,85.919,8.3817e-06,80.722,-2.1991e-06,1.2217,-3.7495e-06,-10.427,0.39876
711,18.342,3.0196,0.1,1.0226e-05,102.19,1.0027e-05,97.268,-2.7526e-06,1.2452,-4.268e-06,-10.141,0.38179
712,18.348,4.2264,0.1,1.0183e-05,101.76,1.0002e-05,97.196,-2.813e-06,0.90587,-4.1669e-06,-9.2663,0.38191
713,20.034,3.6069,0.1,5.6454e-06,56.415,5.3924e-06,50.797,-1.2048e-06,1.2287,-2.7779e-06,-10.592,0.43284
714,19.468,3.0132,0.1,6.9087e-06,69.039,6.6811e-06,63.757,-1.6445e-06,1.2014,-3.1775e-06,-10.317,0.41573
715,19.475,4.2199,0.1,6.8436e-06,68.389,6.6423e-06,63.599,-1.6989e-06,0.9264,-3.066e-06,-9.3456,0.41589
716,21.162,3.5917,0.1,3.4615e-06,34.591,3.1413e-06,28.245,-4.5873e-07,1.1956,-2.046e-06,-10.731,0.46705
717,20.597,2.9953,0.1,4.3412e-06,43.382,4.0627e-06,37.539,-7.6992e-07,1.228,-2.3312e-06,-10.503,0.4499
718,20.598,4.1954,0.1,4.2611e-06,42.582,4.0209e-06,37.362,-8.3333e-07,0.88964,-2.207e-06,-9.4313,0.44993
719,21.727,2.9851,0.1,2.5549e-06,25.532,2.181e-06,18.679,-1.4871e-07,1.1745,-1.7181e-06,-10.617,0.48421
720,21.725,4.1915,0.1,2.4376e-06,24.359,2.1277e-06,18.472,-2.1445e-07,0.87379,-1.5725e-06,-9.3298,0.48415
721,22.291,3.592,0.1,2.0547e-06,20.533,1.6122e-06,12.969,4.8459e-08,1.2196,-1.5433e-06,-10.74,0.50138
722,21.162,2.3887,0.1,3.4628e-06,34.604,3.1436e-06,28.282,-4.5884e-07,1.2149,-2.0454e-06,-10.706,0.46703
723,22.294,2.387,0.1,2.0511e-06,20.497,1.6085e-06,12.934,4.9258e-08,1.2187,-1.5414e-06,-10.733,0.50147
724,21.726,1.7864,0.1,2.4354e-06,24.337,2.1269e-06,18.486,-2.1338e-07,0.90214,-1.5699e-06,-9.2903,0.48416
725,20.031,2.4015,0.1,5.6547e-06,56.508,5.4013e-06,50.873,-1.2088e-06,1.2076,-2.7815e-06,-10.609,0.43274
726,20.595,1.7911,0.1,4.2716e-06,42.686,4.0342e-06,37.527,-8.3913e-07,0.91042,-2.2056e-06,-9.3571,0.44979
727,18.904,2.4141,0.1,8.5999e-06,85.94,8.383e-06,80.727,-2.1973e-06,1.2306,-3.7531e-06,-10.46,0.39868
728,19.467,1.8063,0.1,6.8616e-06,68.569,6.6581e-06,63.72,-1.7048e-06,0.88409,-3.0757e-06,-9.4168,0.41563
729,17.782,2.4122,0.1,1.2288e-05,122.8,1.2096e-05,117.92,-3.4334e-06,1.2414,-4.955e-06,-10.192,0.36497
730,18.346,1.8116,0.1,1.0183e-05,101.76,1.0003e-05,97.213,-2.8118e-06,0.92541,-4.1675e-06,-9.2604,0.38183
731,16.657,2.4099,0.1,1.6715e-05,167.03,1.6541e-05,162.46,-4.9202e-06,1.2098,-6.3859e-06,-9.8031,0.33149
732,17.221,1.8006,0.1,1.4265e-05,142.55,1.4102e-05,138.25,-4.1794e-06,0.89557,-5.4935e-06,-8.9778,0.34816
733,15.529,2.4259,0.1,2.1882e-05,218.67,2.1727e-05,214.46,-6.6728e-06,1.0754,-8.0318e-06,-9.1356,0.29834
734,16.089,1.8176,0.1,1.9084e-05,190.71,1.8935e-05,186.69,-5.7881e-06,0.9245,-7.057e-06,-8.6093,0.31467
735,14.393,2.4449,0.1,2.7802e-05,277.82,2.7673e-05,274.26,-8.6942e-06,1.0117,-9.8827e-06,-7.9183,0.26553
736,14.961,1.8304,0.1,2.4648e-05,246.31,2.4516e-05,242.65,-7.6744e-06,0.78465,-8.8268e-06,-7.8743,0.28174
737,13.252,2.4488,0.1,3.4435e-05,344.12,3.435e-05,341.69,-1.0983e-05,1.0855,-1.1903e-05,-5.8267,0.23325
738,13.825,1.8655,0.1,3.0927e-05,309.05,3.0821e-05,306.07,-9.8066e-06,0.80858,-1.0799e-05,-6.6517,0.24925
739,12.687,1.8456,0.1,3.7926e-05,379,3.7865e-05,377.27,-1.223e-05,0.87014,-1.2915e-05,-4.2716,0.21746
740,9.8023,2.4238,0.1,5.8481e-05,584.4,5.8723e-05,591.84,-1.7989e-05,15.454,-2.0081e-05,-0.26713,0.14194
741,10.397,1.8197,0.1,5.3997e-05,539.6,5.4104e-05,542.77,-1.7367e-05,5.7641,-1.8053e-05,0.6152,0.15666
742,8.6198,2.4409,0.1,6.7985e-05,679.38,6.8364e-05,691.63,-1.9826e-05,29.003,-2.4133e-05,-3.36,0.11355
743,9.2326,1.8247,0.1,6.3177e-05,631.33,6.3474e-05,640.41,-1.9356e-05,18.062,-2.1699e-05,0.45564,0.12783
744,7.4001,2.493,0.1,7.5534e-05,754.82,7.6358e-05,783.68,-1.9173e-05,65.899,-2.8395e-05,-3.3973,0.086275
745,8.0499,1.8522,0.1,7.3082e-05,730.32,7.3464e-05,742.83,-2.1239e-05,31.274,-2.6053e-05,-4.8956,0.10031
746,6.8876,3.1641,0.1,8.0278e-05,802.22,8.1222e-05,835.16,-2.0167e-05,73.358,-3.0217e-05,-2.1523,0.075562
747,6.8397,1.866,0.1,7.9861e-05,798.06,8.0667e-05,825.32,-2.1135e-05,60.426,-2.947e-05,-2.1975,0.074274
748,6.2227,2.282,0.1,8.9679e-05,896.17,9.091e-05,936.07,-2.3603e-05,75.667,-3.2612e-05,7.9737,0.062083
749,6.3027,2.8883,0.1,8.8772e-05,887.11,9.0456e-05,943.67,-2.0957e-05,106.56,-3.3295e-05,13.85,0.063772
750,6.4743,3.9348,0.1,8.5154e-05,850.95,8.6252e-05,883.74,-2.5335e-05,45.32,-2.86e-05,20.783,0.067021
751,5.8602,4.5575,0.1,8.367e-05,836.12,8.4799e-05,870.58,-2.3844e-05,54.286,-2.8945e-05,15.955,0.054778
752,5.148,5.2593,0.1,8.0096e-05,800.41,7.8808e-05,763.78,-2.5201e-05,-17.706,-3.0071e-05,-54.301,0.041105
753,5.839,5.5218,0.1,7.9104e-05,790.49,7.9132e-05,791.4,-2.5423e-05,5.8183,-2.6718e-05,-3.9128,0.05346
754,5.8894,3.659,0.1,9.3583e-05,935.18,9.5475e-05,992.17,-2.6104e-05,78.67,-3.1688e-05,36.715,0.055752
755,5.4265,4.1135,0.1,0.00010105,1009.8,0.00010377,1098.7,-2.2561e-05,149.51,-3.7461e-05,37.56,0.047045
756,8.7013,4.8243,0.1,6.7889e-05,678.42,6.8194e-05,687.57,-2.1198e-05,15.912,-2.2973e-05,2.5759,0.11488
757,8.1581,5.4203,0.1,7.2892e-05,728.42,7.3322e-05,741.24,-2.2694e-05,19.811,-2.4529e-05,6.0293,0.10185
758,9.8232,4.8064,0.1,5.8832e-05,587.91,5.8937e-05,591.02,-1.9006e-05,5.3899,-1.961e-05,0.85586,0.14196
759,9.2782,5.404,0.1,6.3685e-05,636.41,6.3768e-05,638.89,-2.0616e-05,4.8602,-2.1246e-05,0.12613,0.12813
760,10.962,4.8016,0.1,5.0181e-05,501.46,5.0202e-05,502.08,-1.6512e-05,0.82235,-1.6564e-05,0.42945,0.17095
761,10.411,5.4024,0.1,5.4594e-05,545.57,5.4604e-05,545.86,-1.7937e-05,0.81208,-1.8075e-05,-0.22533,0.15631
762,12.109,4.8037,0.1,4.2022e-05,419.93,4.1983e-05,418.82,-1.3665e-05,0.70241,-1.4144e-05,-2.8982,0.20145
763,11.548,5.3992,0.1,4.602e-05,459.88,4.597e-05,458.43,-1.4954e-05,0.67075,-1.5516e-05,-3.5475,0.186
764,13.254,4.813,0.1,3.4559e-05,345.35,3.4475e-05,342.95,-1.1083e-05,0.64045,-1.1884e-05,-5.3791,0.23298
765,12.689,5.4045,0.1,3.8178e-05,381.51,3.8084e-05,378.85,-1.2279e-05,0.43623,-1.3095e-05,-5.6913,0.21697
766,14.391,4.8199,0.1,2.7851e-05,278.32,2.7737e-05,275.13,-8.7877e-06,0.69392,-9.8006e-06,-6.9163,0.26518
767,13.823,5.4085,0.1,3.1066e-05,310.45,3.0943e-05,306.96,-9.857e-06,0.40273,-1.0875e-05,-7.246,0.24875
768,15.524,4.8152,0.1,2.1899e-05,218.84,2.1766e-05,215.16,-6.7835e-06,0.65239,-7.9041e-06,-7.7671,0.29799
769,14.956,5.4114,0.1,2.4716e-05,246.99,2.4571e-05,242.93,-7.7235e-06,0.28592,-8.8509e-06,-8.185,0.28125
770,16.655,4.8065,0.1,1.6699e-05,166.87,1.6549e-05,162.83,-5.042e-06,0.59769,-6.2306e-06,-8.3325,0.33128
771,16.087,5.4038,0.1,1.9112e-05,190.99,1.8951e-05,186.56,-5.8539e-06,0.18373,-7.0404e-06,-8.7314,0.31435
772,17.786,4.8201,0.1,1.2228e-05,122.2,1.2066e-05,117.93,-3.5517e-06,0.58635,-4.7747e-06,-8.6034,0.365
773,17.218,5.4028,0.1,1.4272e-05,142.62,1.4095e-05,137.87,-4.2266e-06,0.20987,-5.4844e-06,-9.2409,0.34787
774,18.916,4.8276,0.1,8.4977e-06,84.918,8.3232e-06,80.525,-2.3121e-06,0.61654,-3.5444e-06,-8.6431,0.39896
775,18.35,5.4173,0.1,1.017e-05,101.63,9.9835e-06,96.776,-2.8732e-06,0.17624,-4.1259e-06,-9.2364,0.3818
776,20.039,4.8083,0.1,5.5248e-06,55.21,5.3298e-06,50.607,-1.3267e-06,0.59337,-2.5549e-06,-8.6352,0.43292
777,19.478,5.4103,0.1,6.7881e-06,67.835,6.5854e-06,62.816,-1.7568e-06,0.13563,-2.9999e-06,-9.2044,0.41587
778,21.161,4.7952,0.1,3.2872e-06,32.849,3.0596e-06,27.982,-5.8829e-07,0.57349,-1.7865e-06,-8.4296,0.46699
779,20.603,5.398,0.1,4.1586e-06,41.557,3.9264e-06,36.252,-8.8365e-07,0.11136,-2.1171e-06,-9.156,0.45
780,22.293,4.7944,0.1,1.786e-06,17.848,1.4989e-06,12.547,-9.1129e-08,0.59959,-1.2317e-06,-7.97,0.5014
781,21.731,5.3972,0.1,2.2693e-06,22.678,1.9947e-06,17.139,-2.6694e-07,0.14678,-1.4326e-06,-8.6113,0.48428
782,22.859,4.1949,0.1,1.3873e-06,13.863,9.4397e-07,6.7474,1.7065e-07,0.93695,-1.162e-06,-9.0758,0.51865
783,22.865,5.3971,0.1,1.1e-06,10.992,7.5812e-07,5.1696,8.9371e-08,0.14487,-9.1971e-07,-7.4369,0.51881
784,23.431,4.7971,0.1,1.0224e-06,10.217,6.5568e-07,4.3856,1.5382e-07,0.61484,-8.8366e-07,-7.1804,0.53605
785,22.859,2.9939,0.1,1.5628e-06,15.617,1.0139e-06,7.0307,2.4499e-07,1.2531,-1.3395e-06,-10.652,0.51866
786,23.428,3.5977,0.1,1.4017e-06,14.007,8.1279e-07,5.117,3.044e-07,1.2972,-1.2529e-06,-10.404,0.53599
787,22.861,1.7927,0.1,1.3828e-06,13.819,9.4071e-07,6.7143,1.6928e-07,0.91801,-1.1585e-06,-9.0586,0.5187
788,23.431,2.3962,0.1,1.3993e-06,13.984,8.0865e-07,5.0656,3.0523e-07,1.2831,-1.2524e-06,-10.42,0.53606
789,1.2716,3.3005,0.1,0.00015033,1502.2,0.00013904,1368.1,-5.5544e-06,281.74,-8.9125e-05,-346.18,0.0023205
790,1.077,4.4152,0.1,0.00014558,1454.8,0.00013545,1316.1,-1.0275e-05,221.21,-8.4255e-05,-334.64,0.0015664
791,1.6515,4.1181,0.1,0.00013351,1334.2,0.00013147,1334.7,-1.9928e-05,197.18,-6.3973e-05,-133.76,0.0037755
792,0.54623,3.7331,0.1,0.00012622,1261.3,0.0001397,1716.1,-3.1058e-06,643.12,-4.5209e-05,326.77,0.00042294
793,22.293,1.1921,0.1,1.7839e-06,17.826,1.4989e-06,12.565,-9.2198e-08,0.61013,-1.228e-06,-7.9241,0.50137
794,23.43,1.1965,0.1,1.0184e-06,10.177,6.5094e-07,4.3389,1.5504e-07,0.61294,-8.8167e-07,-7.1765,0.536
795,22.865,0.5965,0.1,1.0937e-06,10.93,7.5396e-07,5.1515,8.9893e-08,0.16203,-9.1425e-07,-7.3827,0.51875
796,21.159,1.1888,0.1,3.2931e-06,32.908,3.0692e-06,28.119,-5.9288e-07,0.60364,-1.7827e-06,-8.3358,0.46688
797,21.732,0.59557,0.1,2.2666e-06,22.651,1.9958e-06,17.182,-2.7031e-07,0.15565,-1.4256e-06,-8.5249,0.48425
798,20.031,1.196,0.1,5.543e-06,55.392,5.3491e-06,50.809,-1.3344e-06,0.59262,-2.5586e-06,-8.6059,0.43263
799,20.601,0.59326,0.1,4.1805e-06,41.776,3.9494e-06,36.493,-8.911e-07,0.12318,-2.1233e-06,-9.1354,0.44985
800,18.909,1.2038,0.1,8.5155e-06,85.096,8.3397e-06,80.667,-2.3185e-06,0.58486,-3.5522e-06,-8.6842,0.3987
801,19.473,0.6027,0.1,6.8042e-06,67.995,6.5952e-06,62.833,-1.7518e-06,0.11666,-3.0226e-06,-9.4313,0.41565
802,17.785,1.2,0.1,1.2231e-05,122.23,1.2071e-05,118.01,-3.5572e-06,0.58497,-4.7687e-06,-8.5178,0.36491
803,18.348,0.60111,0.1,1.0154e-05,101.47,9.9665e-06,96.595,-2.8717e-06,0.13387,-4.1177e-06,-9.2285,0.38169
804,16.653,1.2083,0.1,1.6706e-05,166.94,1.6558e-05,162.94,-5.0467e-06,0.61537,-6.2273e-06,-8.2553,0.3312
805,17.218,0.59885,0.1,1.4275e-05,142.65,1.41e-05,137.97,-4.2345e-06,0.20608,-5.4747e-06,-9.1121,0.34783
806,15.521,1.2221,0.1,2.1917e-05,219.02,2.1783e-05,215.32,-6.7891e-06,0.63857,-7.9118e-06,-7.7967,0.29788
807,16.086,0.60944,0.1,1.9132e-05,191.18,1.8968e-05,186.68,-5.8533e-06,0.18101,-7.0587e-06,-8.8755,0.31424
808,14.393,1.251,0.1,2.7838e-05,278.19,2.772e-05,274.88,-8.7862e-06,0.58557,-9.8012e-06,-7.0401,0.26522
809,14.955,0.61261,0.1,2.4747e-05,247.3,2.4596e-05,243.09,-7.7132e-06,0.32956,-8.8905e-06,-8.5164,0.28119
810,13.26,1.2623,0.1,3.4478e-05,344.54,3.4391e-05,342.05,-1.1054e-05,0.59779,-1.1866e-05,-5.5069,0.23316
811,13.826,0.63836,0.1,3.1023e-05,310.02,3.0897e-05,306.46,-9.844e-06,0.3419,-1.0864e-05,-7.3228,0.2488
812,12.122,1.232,0.1,4.1851e-05,418.22,4.1811e-05,417.08,-1.3607e-05,0.68604,-1.409e-05,-2.9413,0.20178
813,12.692,0.62391,0.1,3.8067e-05,380.4,3.7979e-05,377.88,-1.2267e-05,0.34938,-1.3024e-05,-5.3358,0.21704
814,10.979,1.2169,0.1,4.9941e-05,499.06,4.9971e-05,499.96,-1.6405e-05,1.2326,-1.6495e-05,0.5617,0.17135
815,11.557,0.60805,0.1,4.5889e-05,458.57,4.585e-05,457.46,-1.4936e-05,0.73152,-1.5425e-05,-2.9421,0.1862
816,9.8269,1.2207,0.1,5.8715e-05,586.75,5.8875e-05,591.5,-1.8755e-05,8.212,-1.9669e-05,1.3456,0.14202
817,10.418,0.60885,0.1,5.4451e-05,544.13,5.4471e-05,544.74,-1.7902e-05,0.95335,-1.7994e-05,0.26756,0.15645
818,8.6626,1.2361,0.1,6.8291e-05,682.44,6.8591e-05,691.75,-2.0774e-05,20.293,-2.3631e-05,-1.1715,0.11397
819,9.2745,0.61182,0.1,6.348e-05,634.36,6.3651e-05,639.43,-2.0453e-05,7.5007,-2.1097e-05,2.6612,0.12799
820,7.4895,1.2252,0.1,7.7461e-05,774.08,7.7795e-05,784.65,-2.3262e-05,25.345,-2.7089e-05,-3.4089,0.087556
821,8.1231,0.62425,0.1,7.3104e-05,730.53,7.3417e-05,740.12,-2.2479e-05,19.591,-2.509e-05,-0.027268,0.10103
822,6.2857,1.1216,0.1,8.1947e-05,818.9,8.2349e-05,831.7,-2.4369e-05,29.864,-2.8778e-05,-3.2615,0.062618
823,6.9706,0.60098,0.1,8.1491e-05,814.35,8.1498e-05,815.03,-2.5338e-05,12.311,-2.8368e-05,-10.455,0.075953
824,5.6687,1.5376,0.1,9.1734e-05,916.71,9.2559e-05,942.2,-2.6735e-05,45.87,-3.199e-05,6.3885,0.051172
825,5.171,0.80113,0.1,8.1784e-05,817.28,8.0603e-05,783.9,-2.5508e-05,-13.378,-3.0649e-05,-52.008,0.041414
826,5.7886,0.52061,0.1,8.1882e-05,818.25,8.1497e-05,807.26,-2.6152e-05,-1.5789,-2.8617e-05,-20.103,0.052401
827,1.3824,2.0219,0.1,0.00013841,1383.2,0.00012853,1253.6,-8.2812e-06,225.66,-8.0771e-05,-319,0.002676
828,1.8654,1.5362,0.1,0.00012839,1283,0.00012574,1235.7,-2.7465e-05,84.648,-5.8367e-05,-147.54,0.0046644
829,1.8276,1.0121,0.1,0.00012041,1203.3,0.00011802,1149.2,-3.0122e-05,36.144,-5.1905e-05,-127.53,0.0042001
830,0.65707,1.2546,0.1,0.00011383,1137.5,0.00012754,1576.2,-5.6929e-06,575.22,-3.7101e-05,339.24,0.00057772
831,1.2371,0.65457,0.1,0.00012907,1289.8,0.00012248,1151,-2.4755e-05,44.775,-6.6075e-05,-265.69,0.0018294
832,0.72534,2.5673,0.1,0.00012501,1249.3,0.00013942,1732.2,-1.6445e-06,672.31,-4.3893e-05,354.88,0.00075312
833,1.6258,5.0725,0.1,0.00012283,1227.5,0.00012094,1204.7,-2.4572e-05,111.41,-5.5778e-05,-123.06,0.0032733
834,0.53075,4.882,0.1,0.00011584,1157.6,0.00012887,1580.5,-5.7635e-06,568.95,-3.9153e-05,318.07,0.0003626
835,1.1107,5.482,0.1,0.00013525,1351.5,0.00012873,1237.2,-2.0878e-05,113.07,-7.0841e-05,-262.34,0.0013849
836,5.4018,3.4206,0.1,0.00011591,1158.3,0.00011793,1229.8,-2.6188e-05,146.97,-4.4612e-05,8.5389,0.046817
837,4.0864,5.4875,0.1,5.7246e-05,572.07,5.8302e-05,604.29,-1.5724e-05,48.087,-1.9784e-05,17.583,0.022694
838,4.6518,5.7375,0.1,7.4601e-05,745.49,7.2873e-05,706.39,-1.8285e-05,21.465,-3.2806e-05,-87.646,0.031763
839,2.2004,4.7754,0.1,0.00011498,1149,0.00011768,1228.7,-3.3766e-05,90.81,-3.6673e-05,68.965,0.0062746
840,2.8453,4.6849,0.1,0.00012819,1281,0.00013308,1432.1,-2.9325e-05,211.83,-4.4491e-05,97.874,0.010446
841,2.8351,5.3404,0.1,9.9631e-05,995.62,0.00010311,1099.7,-2.6043e-05,129.25,-3.2514e-05,80.626,0.0094556
842,2.2551,5.5904,0.1,0.00010939,1093.2,0.00011068,1132.4,-3.1535e-05,63.869,-3.7894e-05,16.089,0.0057591
843,4.1598,0.53051,0.1,6.0188e-05,601.46,6.1619e-05,644.24,-1.677e-05,55.26,-1.9994e-05,31.032,0.023705
844,4.7251,0.28051,0.1,7.2924e-05,728.74,7.1218e-05,686.68,-1.9236e-05,7.0447,-3.1197e-05,-82.821,0.032836
845,2.9483,1.6316,0.1,0.00016998,1698.6,0.00016971,1698,-4.7208e-05,68.15,-6.4521e-05,-61.929,0.011491
846,2.9105,0.60756,0.1,8.7469e-05,874.09,9.0627e-05,968.68,-2.2501e-05,118.68,-2.8669e-05,72.339,0.0096687
847,2.3305,0.35756,0.1,0.00010889,1088.1,0.00010816,1086.1,-2.4091e-05,92.374,-4.6585e-05,-76.636,0.0060021
848,4.9388,3.8751,0.1,0.00012424,1241.5,0.00012686,1341.1,-2.3808e-05,209.07,-4.9855e-05,13.36,0.038602
849,4.2746,4.0778,0.1,0.00020627,2061.3,0.00021504,2321.5,-5.358e-05,303.17,-6.4683e-05,219.74,0.027761
850,3.5553,3.7483,0.1,0.0003608,3605.5,0.0003688,3856.4,-9.1451e-05,398.26,-0.00012852,119.75,0.018295
851,3.6467,4.25,0,0.00023117,2310.1,9.8313e-05,122.5,4.8278e-05,-253.44,-0.00023109,-2352.5,0.018389
852,3.5633,4,0,0.00036101,3607.6,0.00012285,-499.84,6.5442e-05,-931.22,-0.00038341,-4303.7,0.017891
853,3.6467,4,0.05,1.1218e-05,112.1,8.6142e-06,64.724,1.3583e-13,-2.1138e-06,-8.6142e-06,-64.724,0.018908
854,3.6467,4.75,0,0.00014674,1466.4,8.3794e-05,418.03,2.1988e-05,-46.359,-0.00013479,-1224.3,0.017215
855,3.6467,4.5,0.05,1.4694e-05,146.84,1.1283e-05,84.775,-4.3735e-13,-7.3375e-07,-1.1283e-05,-84.775,0.017776
856,3.6467,5.25,0,8.1715e-05,816.59,3.9659e-05,87.856,1.1775e-05,-121.66,-8.0248e-05,-813.08,0.016031
857,3.6467,5,0.05,2.8196e-05,281.77,2.1651e-05,162.68,-4.5926e-21,-3.4507e-14,-2.1651e-05,-162.68,0.01658
858,3.6467,5.75,0,3.8574e-05,385.47,1.7126e-05,-53.258,-1.2405e-06,-191.26,-4.0833e-05,-488.74,0.01497
859,3.6467,5.5,0.05,4.8066e-06,48.033,3.6909e-06,27.732,9.4623e-14,-5.8823e-15,-3.6909e-06,-27.732,0.015466
860,3.48,4.25,0,0.00035706,3568.1,0.00012544,-370.35,6.9473e-05,-790.89,-0.00037495,-4130.1,0.016338
861,3.48,4,0.05,7.2134e-05,720.85,5.539e-05,416.18,-1.1749e-20,-8.8278e-14,-5.539e-05,-416.18,0.016924
862,3.48,5.25,0,0.00011892,1188.4,4.1396e-05,-101.54,2.5956e-05,-217.55,-0.00012393,-1343.7,0.01405
863,3.48,5.75,0,7.6167e-05,761.14,2.7384e-05,-98.813,1.1698e-05,-216.68,-8.0846e-05,-912.01,0.013011
864,3.48,5.5,0.05,7.8353e-06,78.299,6.0166e-06,45.206,-1.2762e-21,-9.5889e-15,-6.0166e-06,-45.206,0.013519
865,3.48,4.75,0,0.0001927,1925.7,6.4158e-05,-164.79,4.7292e-05,-291.51,-0.00020015,-2150.7,0.015153
866,3.48,5,0.05,1.217e-05,121.61,9.3449e-06,70.214,-8.395e-14,-1.4893e-14,-9.3449e-06,-70.214,0.014585
867,3.48,4.5,0.05,2.9346e-05,293.25,2.2534e-05,169.31,-2.247e-13,-1.9652e-13,-2.2534e-05,-169.31,0.015726
868,3.6467,1.75,0,0.00024751,2473.4,9.3529e-05,9.3676,6.1779e-05,-229.19,-0.00025039,-2574.7,0.018218
869,3.5633,2,0,0.00032865,3284.2,0.00010396,-415.25,7.7675e-05,-612.75,-0.00034569,-3793.7,0.017788
870,3.6467,2,0.05,1.1448e-06,11.44,8.7907e-07,6.605,9.1103e-12,1.9415e-05,-8.7908e-07,-6.605,0.018794
871,3.6467,1.25,0,0.00014807,1479.7,7.7703e-05,326.63,2.6733e-05,-56.333,-0.0001397,-1306.9,0.016984
872,3.6467,1.5,0.05,1.6558e-05,165.46,1.2714e-05,95.531,4.4076e-13,1.8487e-06,-1.2714e-05,-95.531,0.017571
873,3.6467,0.75,0,8.0994e-05,809.38,3.5031e-05,29.243,1.44e-05,-125.77,-8.1515e-05,-846.44,0.015781
874,3.6467,1,0.05,2.4304e-05,242.88,1.8663e-05,140.23,8.8464e-13,-4.9759e-06,-1.8663e-05,-140.23,0.016339
875,3.6467,0.25,0,4.0347e-05,403.19,1.7094e-05,-71.397,-1.1799e-06,-208.7,-4.3317e-05,-525.31,0.014691
876,3.6467,0.5,0.05,5.9321e-06,59.28,4.5551e-06,34.225,-1.1572e-21,-7.2597e-15,-4.5551e-06,-34.225,0.015203
877,3.48,1.75,0,0.00029668,2964.7,9.4249e-05,-185.16,8.7107e-05,-238.83,-0.00030385,-3176.3,0.016213
878,3.48,2,0.05,1.817e-05,181.57,1.3952e-05,104.83,4.371e-12,6.1533e-06,-1.3952e-05,-104.83,0.016837
879,3.48,0.75,0,0.00010835,1082.7,3.9104e-05,-52.221,2.4985e-05,-158.31,-0.00011154,-1184.1,0.013684
880,3.48,0.25,0,5.8057e-05,580.17,2.608e-05,-88.543,-3.532e-06,-311.03,-6.1559e-05,-747.03,0.012584
881,3.48,0.5,0.05,6.3585e-06,63.541,4.8825e-06,36.685,-1.0357e-21,-7.0192e-06,-4.8825e-06,-36.685,0.013112
882,3.48,1.25,0,0.00019163,1914.9,7.9071e-05,141.51,4.8546e-05,-87.852,-0.00018968,-1877.8,0.014919
883,3.48,1,0.05,2.0724e-05,207.1,1.5914e-05,119.57,-3.3756e-21,-2.5363e-14,-1.5914e-05,-119.57,0.014271
884,3.48,1.5,0.05,1.8418e-05,184.06,1.4143e-05,106.27,4.4132e-13,6.5028e-06,-1.4143e-05,-106.27,0.015544
885,4.212,6,0,5.5364e-05,553.26,1.9666e-05,-26.79,1.333e-05,-74.393,-5.6932e-05,-602.31,0.023811
886,3.6467,6,0.05,7.58e-06,75.748,5.8205e-06,43.733,-1.2346e-21,-9.2764e-15,-5.8205e-06,-43.733,0.014425
887,5.3428,6,0,7.0677e-05,706.28,2.6836e-05,17.594,1.8836e-05,-42.513,-7.0909e-05,-716.82,0.0436
888,4.7774,6,0.05,4.6617e-06,46.585,3.5796e-06,26.896,-7.5928e-22,-5.705e-15,-3.5796e-06,-26.896,0.0335
889,6.4735,6,0,8.1279e-05,812.23,2.8607e-05,24.05,2.5994e-05,4.4137,-8.0777e-05,-797.82,0.065148
890,5.9081,6,0.05,3.0454e-06,30.433,2.3385e-06,17.571,-4.9603e-22,8.521e-07,-2.3385e-06,-17.571,0.054117
891,7.6043,6,0,7.8549e-05,784.95,2.6986e-05,5.0624,2.4574e-05,-13.064,-7.8669e-05,-788.79,0.088838
892,7.0389,6,0.05,1.8256e-06,18.243,1.4018e-06,10.533,2.4875e-13,4.7473e-07,-1.4018e-06,-10.533,0.07672
893,8.735,6,0,6.8712e-05,686.64,2.2814e-05,-3.4844,2.212e-05,-8.7007,-6.8917e-05,-692.72,0.11453
894,8.1696,6,0.05,1.3004e-06,12.995,9.9857e-07,7.5029,-2.6958e-14,1.5232e-06,-9.9857e-07,-7.5029,0.10144
895,9.8657,6,0,5.9491e-05,594.5,1.9741e-05,1.1814,1.9556e-05,-0.21481,-5.9475e-05,-594.02,0.14197
896,9.3004,6,0.05,1.3432e-06,13.422,1.0314e-06,7.7494,-2.1877e-22,1.4275e-06,-1.0314e-06,-7.7494,0.12804
897,10.996,6,0,5.0489e-05,504.55,1.7086e-05,4.6511,1.6368e-05,-0.74361,-5.0421e-05,-502.57,0.17093
898,10.431,6,0.05,1.3683e-06,13.674,1.0507e-06,7.8946,-2.2287e-22,9.0433e-07,-1.0507e-06,-7.8946,0.15627
899,12.127,6,0,4.2234e-05,422.05,1.4517e-05,6.7206,1.3569e-05,-0.40092,-4.2122e-05,-418.84,0.20115
900,11.562,6,0.05,1.2821e-06,12.813,9.8453e-07,7.3973,4.3698e-16,1.4342e-06,-9.8453e-07,-7.3973,0.18589
901,13.258,6,0,3.4745e-05,347.21,1.2139e-05,7.9609,1.1052e-05,-0.20191,-3.4606e-05,-343.26,0.23244
902,12.693,6,0.05,1.2063e-06,12.055,9.2628e-07,6.9597,2.2736e-13,1.9222e-06,-9.2628e-07,-6.9597,0.21667
903,14.389,6,0,2.7994e-05,279.75,9.9811e-06,8.9339,8.7918e-06,-0.0016169,-2.7831e-05,-275.17,0.26459
904,13.823,6,0.05,1.1231e-06,11.224,8.6243e-07,6.4799,4.5475e-13,1.9067e-06,-8.6243e-07,-6.4799,0.24841
905,15.519,6,0,2.1993e-05,219.78,8.0443e-06,9.578,6.793e-06,0.17626,-2.1812e-05,-214.75,0.29743
906,14.954,6,0.05,1.0153e-06,10.146,7.7964e-07,5.8579,-1.6537e-22,1.9062e-06,-7.7964e-07,-5.8579,0.28093
907,16.65,6,0,1.6746e-05,167.34,6.3489e-06,10.05,5.0378e-06,0.19934,-1.655e-05,-162,0.3308
908,16.085,6,0.05,8.6945e-07,8.6885,6.6763e-07,5.0163,2.3259e-13,2.1446e-06,-6.6763e-07,-5.0163,0.31405
909,17.781,6,0,1.2275e-05,122.67,4.8901e-06,10.283,3.5473e-06,0.19419,-1.2066e-05,-117.12,0.36458
910,17.216,6,0.05,7.4017e-07,7.3966,5.6836e-07,4.2704,1.1356e-13,2.5903e-06,-5.6836e-07,-4.2704,0.34764
911,18.912,6,0,8.5238e-06,85.179,3.638e-06,10.223,2.3169e-06,0.29671,-8.3013e-06,-79.484,0.39864
912,18.346,6,0.05,6.5198e-07,6.5153,5.0064e-07,3.7616,1.7041e-13,2.2682e-06,-5.0064e-07,-3.7616,0.38158
913,20.042,6,0,5.481e-06,54.772,2.6173e-06,10.14,1.313e-06,0.3404,-5.2365e-06,-48.87,0.4329
914,19.477,6,0.05,5.1995e-07,5.1959,3.9926e-07,2.9999,2.2737e-13,2.9798e-06,-3.9926e-07,-2.9999,0.41575
915,21.173,6,0,3.1954e-06,31.932,1.8195e-06,9.7613,5.6172e-07,0.31107,-2.9173e-06,-25.829,0.46726
916,20.608,6,0.05,3.7036e-07,3.701,2.8439e-07,2.1368,1.709e-13,3.1306e-06,-2.8439e-07,-2.1368,0.45007
917,22.304,6,0,1.6281e-06,16.269,1.1811e-06,8.5325,8.5248e-08,0.29901,-1.3131e-06,-10.208,0.50168
918,21.739,6,0.05,2.4525e-07,2.4508,1.8832e-07,1.415,2.1332e-13,2.9366e-06,-1.8832e-07,-1.415,0.48447
919,23.435,6,0,7.2856e-07,7.2806,6.8234e-07,6.3534,-1.199e-07,0.32574,-3.9424e-07,-1.7356,0.53613
920,22.869,6,0.05,1.3634e-07,1.3625,1.0469e-07,0.78663,2.9622e-13,4.1582e-06,-1.0469e-07,-0.78662,0.5189
921,24,5.4,0,6.2837e-07,6.2793,6.1193e-07,5.8386,-1.8068e-07,-0.11674,-2.611e-07,-0.72094,0.55337
922,24,6,0.05,2.8646e-08,0.28626,2.1996e-08,0.16527,8.6013e-13,7.7499e-06,-2.1997e-08,-0.16527,0.55335
923,24,4.2,0,1.0341e-06,10.334,9.6153e-07,8.4101,-2.8497e-07,-0.95561,-5.1399e-07,-2.6764,0.5534
924,24,4.8,0.05,5.409e-08,0.54052,4.1534e-08,0.31207,1.8581e-13,3.1928e-06,-4.1534e-08,-0.31207,0.55339
925,24,3,0,1.24e-06,12.391,1.1554e-06,10.094,-3.6195e-07,-1.307,-5.9976e-07,-3.0938,0.55341
926,24,3.6,0.05,5.6164e-08,0.56126,4.3127e-08,0.32404,2.025e-13,3.1341e-06,-4.3127e-08,-0.32404,0.55341
927,24,1.8,0,1.0334e-06,10.327,9.6263e-07,8.4412,-2.8844e-07,-0.95883,-5.085e-07,-2.6123,0.55338
928,24,2.4,0.05,5.5301e-08,0.55263,4.2465e-08,0.31906,2.2699e-13,3.3352e-06,-4.2465e-08,-0.31906,0.55339
929,24,0.6,0,6.2807e-07,6.2764,6.1305e-07,5.872,-1.8208e-07,-0.10233,-2.5739e-07,-0.66817,0.55332
930,24,1.2,0.05,5.1572e-08,0.51536,3.9601e-08,0.29755,1.8586e-13,3.2815e-06,-3.9601e-08,-0.29754,0.55335
931,1.5735e-14,1.8,0,0.00010395,1038.8,9.113e-07,-1007.9,-1.5222e-06,-1026.2,-0.00013854,-2055.7,0
932,5.2451e-15,0.6,0,8.6152e-05,860.93,1.2949e-06,-820.75,-8.3593e-07,-836.76,-0.00011434,-1689.6,0
933,1.0632e-14,1.2,0.05,6.9012e-06,68.965,5.2993e-06,39.817,7.9779e-14,5.6628e-07,-5.2993e-06,-39.817,0
934,2.6226e-14,3,0,0.00010501,1049.4,5.7789e-08,-1027.2,-8.9345e-07,-1034.4,-0.00014008,-2080.2,0
935,2.1264e-14,2.4,0.05,2.264e-06,22.625,1.7385e-06,13.062,-1.148e-14,-2.7707e-15,-1.7385e-06,-13.062,0
936,3.6716e-14,4.2,0,0.00010028,1002.1,5.881e-08,-979.85,-7.6081e-07,-986.01,-0.00013372,-1985,0
937,3.1897e-14,3.6,0.05,2.059e-06,20.576,1.5811e-06,11.879,-8.5217e-14,-7.1485e-07,-1.5811e-06,-11.879,0
938,4.7206e-14,5.4,0,8.2191e-05,821.34,1.7032e-06,-776.93,-1.039e-06,-797.54,-0.00010896,-1608.4,0
939,4.2529e-14,4.8,0.05,8.7025e-06,86.965,6.6824e-06,50.209,-1.2514e-14,-1.195e-07,-6.6824e-06,-50.209,0
940,23.435,0,0,7.2355e-07,7.2305,6.7848e-07,6.3251,-1.2034e-07,0.32301,-3.8986e-07,-1.7021,0.53606
941,24,0,0.05,2.7195e-08,0.27176,2.0882e-08,0.1569,8.7596e-13,7.9291e-06,-2.0883e-08,-0.1569,0.55328
942,4.212,0,0,5.2162e-05,521.26,1.8042e-05,-34.598,1.2545e-05,-75.902,-5.3919e-05,-575.28,0.023559
943,3.6467,0,0.05,8.7329e-06,87.269,6.7058e-06,50.385,-1.4224e-21,-1.8609e-06,-6.7058e-06,-50.385,0.014139
944,22.304,0,0,1.6189e-06,16.178,1.1709e-06,8.4271,8.7169e-08,0.28456,-1.3088e-06,-10.204,0.50162
945,22.869,0,0.05,1.3512e-07,1.3503,1.0376e-07,0.7796,3.011e-13,4.3754e-06,-1.0376e-07,-0.7796,0.51884
946,21.173,0,0,3.2092e-06,32.07,1.8228e-06,9.7492,5.6806e-07,0.32135,-2.9321e-06,-25.978,0.46719
947,21.739,0,0.05,2.527e-07,2.5252,1.9404e-07,1.4579,2.1865e-13,3.326e-06,-1.9404e-07,-1.4579,0.4844
948,20.042,0,0,5.501e-06,54.972,2.6418e-06,10.371,1.308e-06,0.34908,-5.2497e-06,-48.923,0.43283
949,20.608,0,0.05,3.8374e-07,3.8347,2.9466e-07,2.214,2.2714e-13,2.9165e-06,-2.9466e-07,-2.214,0.45
950,18.912,0,0,8.5043e-06,84.984,3.6438e-06,10.394,2.3042e-06,0.32907,-8.277e-06,-79.174,0.39857
951,19.477,0,0.05,5.0013e-07,4.9978,3.8403e-07,2.8855,1.7097e-13,2.9315e-06,-3.8403e-07,-2.8855,0.41568
952,17.781,0,0,1.2263e-05,122.55,4.8826e-06,10.265,3.5481e-06,0.23824,-1.2054e-05,-116.99,0.36451
953,18.346,0,0.05,6.2889e-07,6.2846,4.8291e-07,3.6284,1.1415e-13,2.744e-06,-4.8291e-07,-3.6284,0.38151
954,16.65,0,0,1.6767e-05,167.55,6.3641e-06,10.168,5.0408e-06,0.22574,-1.6568e-05,-162.13,0.33073
955,17.216,0,0.05,7.6794e-07,7.6741,5.8969e-07,4.4307,-4.1762e-15,2.1104e-06,-5.8969e-07,-4.4307,0.34758
956,15.519,0,0,2.2032e-05,220.17,8.0994e-06,10.061,6.7776e-06,0.1293,-2.1842e-05,-214.91,0.29736
957,16.085,0,0.05,8.7754e-07,8.7694,6.7384e-07,5.063,-2.6837e-22,1.9073e-06,-6.7384e-07,-5.063,0.31398
958,14.389,0,0,2.7998e-05,279.79,1.0011e-05,9.2333,8.7709e-06,-0.086698,-2.7831e-05,-275.1,0.26452
959,14.954,0,0.05,9.9492e-07,9.9423,7.6397e-07,5.7402,1.2758e-15,1.9075e-06,-7.6397e-07,-5.7402,0.28086
960,13.258,0,0,3.4676e-05,346.52,1.208e-05,7.5841,1.1057e-05,-0.098657,-3.4542e-05,-342.72,0.23237
961,13.823,0,0.05,1.0144e-06,10.137,7.7896e-07,5.8528,1.2296e-16,1.9089e-06,-7.7896e-07,-5.8528,0.24834
962,12.127,0,0,4.2171e-05,421.41,1.4417e-05,5.7713,1.3596e-05,-0.39472,-4.2076e-05,-418.69,0.20108
963,12.693,0,0.05,1.1774e-06,11.766,9.0411e-07,6.7931,-3.0817e-15,1.9084e-06,-9.0411e-07,-6.7931,0.2166
964,10.996,0,0,5.0459e-05,504.24,1.7024e-05,3.9895,1.6386e-05,-0.80976,-5.0403e-05,-502.63,0.17086
965,11.562,0,0.05,1.3346e-06,13.337,1.0248e-06,7.7003,4.0073e-17,1.4308e-06,-1.0248e-06,-7.7003,0.18582
966,9.8657,0,0,5.9261e-05,592.2,1.9748e-05,0.87277,1.9311e-05,-2.4085,-5.9286e-05,-592.96,0.1419
967,10.431,0,0.05,1.3339e-06,13.33,1.0243e-06,7.6961,-4.491e-13,9.9839e-07,-1.0243e-06,-7.6961,0.1562
968,8.735,0,0,6.8321e-05,682.74,2.2546e-05,-3.8836,2.219e-05,-6.56,-6.8498e-05,-687.96,0.11445
969,9.3004,0,0.05,1.1322e-06,11.314,8.694e-07,6.5323,-1.8441e-22,1.6805e-06,-8.694e-07,-6.5323,0.12796
970,7.6043,0,0,7.717e-05,771.17,2.65e-05,8.0583,2.4449e-05,-7.3479,-7.7146e-05,-770.7,0.088741
971,8.1696,0,0.05,1.166e-06,11.652,8.9536e-07,6.7274,-1.8992e-22,1.9342e-06,-8.9536e-07,-6.7273,0.10135
972,6.4735,0,0,8.1402e-05,813.46,2.9188e-05,34.662,2.6087e-05,11.366,-8.0594e-05,-790.19,0.065007
973,7.0389,0,0.05,2.244e-06,22.425,1.7231e-06,12.947,1.1047e-13,5.8949e-07,-1.7231e-06,-12.947,0.076609
974,5.3428,0,0,7.1955e-05,719.05,2.8361e-05,44.876,1.9873e-05,-18.902,-7.13e-05,-703.94,0.043357
975,5.9081,0,0.05,1.9617e-06,19.604,1.5064e-06,11.318,-3.1952e-22,2.5366e-07,-1.5064e-06,-11.318,0.053921
976,4.7774,0,0.05,2.6423e-06,26.405,2.0289e-06,15.245,-4.3037e-22,1.677e-07,-2.0289e-06,-15.245,0.033255
977,0.58,2.022e-31,0,9.9677e-05,996.08,3.0449e-05,-214.48,1.7073e-05,-314.98,-0.0001083,-1257,0.00029189
978,0,0,0.05,3.5535e-05,355.1,2.7286e-05,205.02,-3.0304e-14,-4.3488e-14,-2.7286e-05,-205.02,0
979,2.9,1.011e-30,0,7.817e-05,781.16,2.5121e-05,-81.386,1.9417e-05,-124.25,-8.158e-05,-883.1,0.0085087
980,3.48,1.2132e-30,0.05,1.4008e-05,139.98,1.0756e-05,80.82,-2.2816e-21,-1.7143e-14,-1.0756e-05,-80.82,0.012062
981,1.74,6.0659e-31,0,0.00011447,1143.9,4.1361e-05,69.08,3.8026e-05,44.016,-0.00011253,-1087.2,0.0029893
982,2.32,0,0.05,7.627e-06,76.217,5.8566e-06,44.004,-1.2423e-21,-9.3339e-15,-5.8566e-06,-44.004,0.0054354
983,1.16,0,0.05,2.888e-06,28.86,2.2176e-06,16.663,1.5931e-12,-3.5344e-15,-2.2176e-06,-16.663,0.0012584
984,0.58,6,0,9.9827e-05,997.58,3.3316e-05,-197.09,1.3557e-05,-345.56,-0.00010823,-1260.6,0.00028217
985,5.2451e-14,6,0.05,3.6327e-05,363.02,2.7895e-05,209.59,-5.9169e-21,-4.4457e-14,-2.7895e-05,-209.59,0
986,2.9,6,0,8.5995e-05,859.35,2.6718e-05,-79.705,2.3875e-05,-101.06,-8.905e-05,-949.54,0.0087553
987,3.48,6,0.05,9.1199e-06,91.136,7.0029e-06,52.617,-1.4854e-21,-1.1161e-14,-7.0029e-06,-52.617,0.012496
988,1.74,6,0,0.00011989,1198.1,4.6685e-05,76.057,3.4262e-05,-17.284,-0.00011862,-1166,0.0029797
989,1.16,6,0.05,4.5666e-06,45.635,3.5066e-06,26.347,2.4219e-14,-5.5886e-15,-3.5066e-06,-26.347,0.0012284
990,2.32,6,0.05,5.0902e-06,50.867,3.9086e-06,29.368,3.0275e-13,-6.2294e-15,-3.9086e-06,-29.368,0.0055201
991,3.6467,5.25,0.1,8.1715e-05,816.59,8.0248e-05,813.08,-1.1775e-05,121.66,-3.9659e-05,-87.856,0.016031
992,3.6467,5.75,0.1,3.8574e-05,385.47,4.0833e-05,488.74,1.2405e-06,191.26,-1.7126e-05,53.258,0.01497
993,3.6467,4.75,0.1,0.00014674,1466.4,0.00013479,1224.3,-2.1988e-05,46.359,-8.3794e-05,-418.03,0.017215
994,3.6467,4.25,0.1,0.00023117,2310.1,0.00023109,2352.5,-4.8278e-05,253.44,-9.8313e-05,-122.5,0.018389
995,3.5633,4,0.1,0.00036101,3607.6,0.00038341,4303.7,-6.5442e-05,931.22,-0.00012285,499.84,0.017891
996,3.48,4.25,0.1,0.00035706,3568.1,0.00037495,4130.1,-6.9473e-05,790.89,-0.00012544,370.35,0.016338
997,3.48,4.75,0.1,0.0001927,1925.7,0.00020015,2150.7,-4.7292e-05,291.51,-6.4158e-05,164.79,0.015153
998,3.48,5.25,0.1,0.00011892,1188.4,0.00012393,1343.7,-2.5956e-05,217.55,-4.1396e-05,101.54,0.01405
999,3.48,5.75,0.1,7.6167e-05,761.14,8.0846e-05,912.01,-1.1698e-05,216.68,-2.7384e-05,98.813,0.013011
1000,3.6467,0.75,0.1,8.0994e-05,809.38,8.1515e-05,846.44,-1.44e-05,125.77,-3.5031e-05,-29.243,0.015781
1001,3.6467,0.25,0.1,4.0347e-05,403.19,4.3317e-05,525.31,1.1799e-06,208.7,-1.7094e-05,71.397,0.014691
1002,3.6467,1.25,0.1,0.00014807,1479.7,0.0001397,1306.9,-2.6733e-05,56.333,-7.7703e-05,-326.63,0.016984
1003,3.6467,1.75,0.1,0.00024751,2473.4,0.00025039,2574.7,-6.1779e-05,229.19,-9.3529e-05,-9.3676,0.018218
1004,3.5633,2,0.1,0.00032865,3284.2,0.00034569,3793.7,-7.7675e-05,612.75,-0.00010396,415.25,0.017788
1005,3.48,1.75,0.1,0.00029668,2964.7,0.00030385,3176.3,-8.7107e-05,238.83,-9.4249e-05,185.16,0.016213
1006,3.48,1.25,0.1,0.00019163,1914.9,0.00018968,1877.8,-4.8546e-05,87.852,-7.9071e-05,-141.51,0.014919
1007,3.48,0.75,0.1,0.00010835,1082.7,0.00011154,1184.1,-2.4985e-05,158.31,-3.9104e-05,52.221,0.013684
1008,3.48,0.25,0.1,5.8057e-05,580.17,6.1559e-05,747.03,3.532e-06,311.03,-2.608e-05,88.543,0.012584
1009,4.212,6,0.1,5.5364e-05,553.26,5.6932e-05,602.31,-1.333e-05,74.393,-1.9666e-05,26.79,0.023811
1010,5.3428,6,0.1,7.0677e-05,706.28,7.0909e-05,716.82,-1.8836e-05,42.513,-2.6836e-05,-17.594,0.0436
1011,6.4735,6,0.1,8.1279e-05,812.23,8.0777e-05,797.82,-2.5994e-05,-4.4137,-2.8607e-05,-24.05,0.065148
1012,7.6043,6,0.1,7.8549e-05,784.95,7.8669e-05,788.79,-2.4574e-05,13.064,-2.6986e-05,-5.0624,0.088838
1013,8.735,6,0.1,6.8712e-05,686.64,6.8917e-05,692.72,-2.212e-05,8.7007,-2.2814e-05,3.4844,0.11453
1014,9.8657,6,0.1,5.9491e-05,594.5,5.9475e-05,594.02,-1.9556e-05,0.21481,-1.9741e-05,-1.1814,0.14197
1015,10.996,6,0.1,5.0489e-05,504.55,5.0421e-05,502.57,-1.6368e-05,0.74361,-1.7086e-05,-4.6511,0.17093
1016,12.127,6,0.1,4.2234e-05,422.05,4.2122e-05,418.84,-1.3569e-05,0.40092,-1.4517e-05,-6.7206,0.20115
1017,13.258,6,0.1,3.4745e-05,347.21,3.4606e-05,343.26,-1.1052e-05,0.20191,-1.2139e-05,-7.9609,0.23244
1018,14.389,6,0.1,2.7994e-05,279.75,2.7831e-05,275.17,-8.7918e-06,0.0016164,-9.9811e-06,-8.9339,0.26459
1019,15.519,6,0.1,2.1993e-05,219.78,2.1812e-05,214.75,-6.793e-06,-0.17626,-8.0443e-06,-9.578,0.29743
1020,16.65,6,0.1,1.6746e-05,167.34,1.655e-05,162,-5.0378e-06,-0.19934,-6.3489e-06,-10.05,0.3308
1021,17.781,6,0.1,1.2275e-05,122.67,1.2066e-05,117.12,-3.5473e-06,-0.19419,-4.8901e-06,-10.283,0.36458
1022,18.912,6,0.1,8.5238e-06,85.179,8.3013e-06,79.484,-2.3169e-06,-0.29671,-3.638e-06,-10.223,0.39864
1023,20.042,6,0.1,5.481e-06,54.772,5.2365e-06,48.87,-1.313e-06,-0.3404,-2.6173e-06,-10.14,0.4329
1024,21.173,6,0.1,3.1954e-06,31.932,2.9173e-06,25.829,-5.6172e-07,-0.31107,-1.8195e-06,-9.7613,0.46726
1025,22.304,6,0.1,1.6281e-06,16.269,1.3131e-06,10.208,-8.5249e-08,-0.29901,-1.1811e-06,-8.5325,0.50168
1026,23.435,6,0.1,7.2856e-07,7.2806,3.9424e-07,1.7356,1.199e-07,-0.32574,-6.8234e-07,-6.3534,0.53613
1027,24,5.4,0.1,6.2837e-07,6.2793,2.611e-07,0.72095,1.8068e-07,0.11674,-6.1193e-07,-5.8386,0.55337
1028,24,4.2,0.1,1.0341e-06,10.334,5.1399e-07,2.6764,2.8497e-07,0.95561,-9.6153e-07,-8.4101,0.5534
1029,24,3,0.1,1.24e-06,12.391,5.9976e-07,3.0938,3.6194e-07,1.307,-1.1554e-06,-10.094,0.55341
1030,24,1.8,0.1,1.0334e-06,10.327,5.085e-07,2.6123,2.8844e-07,0.95883,-9.6263e-07,-8.4412,0.55338
1031,24,0.6,0.1,6.2807e-07,6.2764,2.5739e-07,0.66818,1.8208e-07,0.10233,-6.1305e-07,-5.872,0.55332
1032,1.5735e-14,1.8,0.1,0.00010395,1038.8,0.00013854,2055.7,1.5222e-06,1026.2,-9.113e-07,1007.9,0
1033,5.2451e-15,0.6,0.1,8.6152e-05,860.93,0.00011434,1689.6,8.3593e-07,836.76,-1.2949e-06,820.75,0
1034,2.6226e-14,3,0.1,0.00010501,1049.4,0.00014008,2080.2,8.9345e-07,1034.4,-5.7789e-08,1027.2,0
1035,3.6716e-14,4.2,0.1,0.00010028,1002.1,0.00013372,1985,7.6081e-07,986.01,-5.881e-08,979.85,0
1036,4.7206e-14,5.4,0.1,8.2191e-05,821.34,0.00010896,1608.4,1.039e-06,797.54,-1.7032e-06,776.93,0
1037,23.435,0,0.1,7.2355e-07,7.2305,3.8986e-07,1.7021,1.2034e-07,-0.32301,-6.7848e-07,-6.3251,0.53606
1038,22.304,0,0.1,1.6189e-06,16.178,1.3088e-06,10.204,-8.7169e-08,-0.28456,-1.1709e-06,-8.4271,0.50162
1039,21.173,0,0.1,3.2092e-06,32.07,2.9321e-06,25.978,-5.6806e-07,-0.32135,-1.8228e-06,-9.7492,0.46719
1040,20.042,0,0.1,5.501e-06,54.972,5.2497e-06,48.923,-1.308e-06,-0.34908,-2.6418e-06,-10.371,0.43283
1041,18.912,0,0.1,8.5043e-06,84.984,8.277e-06,79.174,-2.3042e-06,-0.32907,-3.6438e-06,-10.394,0.39857
1042,17.781,0,0.1,1.2263e-05,122.55,1.2054e-05,116.99,-3.5481e-06,-0.23824,-4.8826e-06,-10.265,0.36451
1043,16.65,0,0.1,1.6767e-05,167.55,1.6568e-05,162.13,-5.0408e-06,-0.22574,-6.3641e-06,-10.168,0.33073
1044,15.519,0,0.1,2.2032e-05,220.17,2.1842e-05,214.91,-6.7776e-06,-0.1293,-8.0994e-06,-10.061,0.29736
1045,14.389,0,0.1,2.7998e-05,279.79,2.7831e-05,275.1,-8.7709e-06,0.086698,-1.0011e-05,-9.2333,0.26452
1046,13.258,0,0.1,3.4676e-05,346.52,3.4542e-05,342.72,-1.1057e-05,0.098657,-1.208e-05,-7.5841,0.23237
1047,12.127,0,0.1,4.2171e-05,421.42,4.2076e-05,418.69,-1.3596e-05,0.39472,-1.4417e-05,-5.7713,0.20108
1048,10.996,0,0.1,5.0459e-05,504.24,5.0403e-05,502.63,-1.6386e-05,0.80976,-1.7024e-05,-3.9895,0.17086
1049,9.8657,0,0.1,5.9261e-05,592.2,5.9286e-05,592.96,-1.9311e-05,2.4085,-1.9748e-05,-0.87277,0.1419
1050,8.735,0,0.1,6.8321e-05,682.74,6.8498e-05,687.96,-2.219e-05,6.56,-2.2546e-05,3.8836,0.11445
1051,7.6043,0,0.1,7.717e-05,771.17,7.7146e-05,770.7,-2.4449e-05,7.3479,-2.65e-05,-8.0583,0.088741
1052,6.4735,0,0.1,8.1402e-05,813.46,8.0594e-05,790.19,-2.6087e-05,-11.366,-2.9188e-05,-34.662,0.065007
1053,5.3428,0,0.1,7.1955e-05,719.05,7.13e-05,703.94,-1.9873e-05,18.902,-2.8361e-05,-44.876,0.043357
1054,4.212,0,0.1,5.2162e-05,521.26,5.3919e-05,575.28,-1.2545e-05,75.902,-1.8042e-05,34.598,0.023559
1055,2.9,1.011e-30,0.1,7.817e-05,781.16,8.158e-05,883.1,-1.9417e-05,124.25,-2.5121e-05,81.386,0.0085087
1056,1.74,6.0659e-31,0.1,0.00011447,1143.9,0.00011253,1087.2,-3.8026e-05,-44.016,-4.1361e-05,-69.08,0.0029893
1057,0.58,2.022e-31,0.1,9.9677e-05,996.08,0.0001083,1257,-1.7073e-05,314.98,-3.0449e-05,214.48,0.00029189
1058,0.58,6,0.1,9.9827e-05,997.58,0.00010823,1260.6,-1.3557e-05,345.56,-3.3316e-05,197.09,0.00028217
1059,1.74,6,0.1,0.00011989,1198.1,0.00011862,1166,-3.4262e-05,17.284,-4.6685e-05,-76.057,0.0029797
1060,2.9,6,0.1,8.5995e-05,859.35,8.905e-05,949.54,-2.3875e-05,101.06,-2.6718e-05,79.705,0.0087553
